##TITLE=DIETHYLAMINE, HYDROCHLORIDE
##JCAMP-DX=4.24
##DATA TYPE=INFRARED SPECTRUM
##CLASS=COBLENTZ III
##ORIGIN=DOW CHEMICAL COMPANY
##OWNER=COBLENTZ SOC.
Collection (C) 2018 copyright by the U.S. Secretary of Commerce
on behalf of the United States of America. All rights reserved.
##DATE=1967/04/24
##NAMES=N,N-diethylamine hydrochloride
##MOLFORM=C4 H12 Cl N
##MP=228 C
##SOURCE REFERENCE=COBLENTZ NO. 06770
##$NIST ID=B6006770
##$NIST SOURCE=COBLENTZ
##$NIST IMAGE=cob6770
##SPECTROMETER/DATA SYSTEM=BECKMAN IR-9 (GRATING)
##INSTRUMENT PARAMETERS=ORDER CHANGES: 670, 1200, 2000 CM^-^1
##STATE=SOLID (KBr DISC)
$$SPECTRAL CONTAMINATION DUE TO H2O AROUND 3410, 1650 CM^-^1
$$ SPECTRAL FEATURE AT 667 CM^-^1 IS AN ARTIFACT CAUSED BY GRATING CHANGE
##SAMPLING PROCEDURE=TRANSMISSION
##RESOLUTION=2
##DATA PROCESSING=DIGITIZED BY COBLENTZ SOCIETY (BATCH I) FROM HARD COPY
##XUNITS=1/CM
##YUNITS=TRANSMITTANCE
##XLABEL=Wavenumbers (cm-1)
##YLABEL=% Transmission
##XFACTOR=1
##YFACTOR=1
##DELTAX=1
##FIRSTX=402
##LASTX=3800
##FIRSTY=0.7314
##MAXX=3800
##MINX=402
##MAXY=1.1233
##MINY=0.0686
##NPOINTS=3399
##XYDATA=(X++(Y..Y))
402.000000 0.7314 0.7318 0.7324 0.7326 0.7330
407.000000 0.7337 0.7345 0.7355 0.7371 0.7386
412.000000 0.7408 0.7431 0.7455 0.7488 0.7534
417.000000 0.7580 0.7647 0.7724 0.7811 0.7898
422.000000 0.7988 0.8078 0.8148 0.8214 0.8281
427.000000 0.8350 0.8421 0.8494 0.8566 0.8638
432.000000 0.8709 0.8778 0.8850 0.8921 0.8992
437.000000 0.9063 0.9134 0.9205 0.9257 0.9305
442.000000 0.9352 0.9400 0.9448 0.9492 0.9530
447.000000 0.9568 0.9605 0.9643 0.9681 0.9716
452.000000 0.9749 0.9773 0.9797 0.9821 0.9859
457.000000 0.9923 1.0038 1.0075 1.0100 1.0124
462.000000 1.0135 1.0145 1.0154 1.0168 1.0189
467.000000 1.0209 1.0235 1.0265 1.0296 1.0328
472.000000 1.0351 1.0370 1.0386 1.0395 1.0403
477.000000 1.0411 1.0420 1.0425 1.0425 1.0424
482.000000 1.0423 1.0423 1.0421 1.0418 1.0410
487.000000 1.0402 1.0393 1.0384 1.0375 1.0368
492.000000 1.0361 1.0364 1.0368 1.0375 1.0380
497.000000 1.0385 1.0390 1.0395 1.0401 1.0407
502.000000 1.0412 1.0418 1.0424 1.0428 1.0435
507.000000 1.0441 1.0446 1.0452 1.0457 1.0462
512.000000 1.0467 1.0471 1.0477 1.0481 1.0486
517.000000 1.0491 1.0496 1.0501 1.0506 1.0511
522.000000 1.0516 1.0521 1.0525 1.0531 1.0536
527.000000 1.0541 1.0546 1.0552 1.0555 1.0559
532.000000 1.0562 1.0566 1.0568 1.0573 1.0575
537.000000 1.0580 1.0583 1.0587 1.0590 1.0592
542.000000 1.0593 1.0595 1.0596 1.0597 1.0599
547.000000 1.0600 1.0601 1.0603 1.0604 1.0606
552.000000 1.0607 1.0609 1.0611 1.0612 1.0614
557.000000 1.0615 1.0617 1.0618 1.0620 1.0621
562.000000 1.0623 1.0625 1.0627 1.0628 1.0631
567.000000 1.0633 1.0635 1.0637 1.0640 1.0642
572.000000 1.0644 1.0646 1.0648 1.0650 1.0652
577.000000 1.0654 1.0656 1.0658 1.0660 1.0662
582.000000 1.0664 1.0666 1.0668 1.0670 1.0671
587.000000 1.0673 1.0675 1.0675 1.0675 1.0677
592.000000 1.0677 1.0677 1.0677 1.0677 1.0677
597.000000 1.0677 1.0678 1.0678 1.0678 1.0678
602.000000 1.0678 1.0678 1.0678 1.0678 1.0678
607.000000 1.0678 1.0678 1.0678 1.0678 1.0678
612.000000 1.0678 1.0680 1.0680 1.0680 1.0680
617.000000 1.0680 1.0680 1.0680 1.0680 1.0681
622.000000 1.0681 1.0681 1.0681 1.0681 1.0681
627.000000 1.0681 1.0682 1.0682 1.0682 1.0682
632.000000 1.0682 1.0682 1.0682 1.0682 1.0683
637.000000 1.0683 1.0683 1.0683 1.0683 1.0683
642.000000 1.0683 1.0684 1.0686 1.0687 1.0689
647.000000 1.0690 1.0692 1.0694 1.0696 1.0698
652.000000 1.0699 1.0701 1.0703 1.0702 1.0701
657.000000 1.0696 1.0692 1.0687 1.0678 1.0661
662.000000 1.0628 1.0578 1.0527 1.0478 1.0459
667.000000 1.0453 1.0567 1.0651 1.0674 1.0831
672.000000 1.1041 1.1073 1.1090 1.1103 1.1117
677.000000 1.1131 1.1151 1.1170 1.1187 1.1203
682.000000 1.1216 1.1218 1.1221 1.1224 1.1227
687.000000 1.1228 1.1228 1.1230 1.1230 1.1231
692.000000 1.1232 1.1232 1.1233 1.1233 1.1233
697.000000 1.1233 1.1232 1.1232 1.1231 1.1231
702.000000 1.1231 1.1230 1.1230 1.1227 1.1213
707.000000 1.1196 1.1178 1.1161 1.1144 1.1117
712.000000 1.1090 1.1063 1.1035 1.1010 1.0985
717.000000 1.0961 1.0936 1.0911 1.0886 1.0863
722.000000 1.0843 1.0823 1.0803 1.0788 1.0775
727.000000 1.0764 1.0752 1.0740 1.0727 1.0715
732.000000 1.0703 1.0690 1.0678 1.0666 1.0654
737.000000 1.0641 1.0628 1.0615 1.0601 1.0587
742.000000 1.0573 1.0559 1.0545 1.0531 1.0513
747.000000 1.0491 1.0468 1.0447 1.0423 1.0396
752.000000 1.0370 1.0348 1.0331 1.0323 1.0315
757.000000 1.0307 1.0299 1.0291 1.0283 1.0275
762.000000 1.0268 1.0263 1.0256 1.0250 1.0243
767.000000 1.0234 1.0221 1.0207 1.0194 1.0178
772.000000 1.0162 1.0145 1.0128 1.0111 1.0094
777.000000 1.0074 1.0047 1.0021 0.9994 0.9968
782.000000 0.9941 0.9894 0.9848 0.9801 0.9755
787.000000 0.9659 0.9546 0.9427 0.9309 0.9171
792.000000 0.8948 0.8712 0.8475 0.8241 0.8005
797.000000 0.7769 0.7534 0.7360 0.7333 0.7312
802.000000 0.7292 0.7338 0.7430 0.7701 0.8036
807.000000 0.8368 0.8703 0.9037 0.9314 0.9411
812.000000 0.9487 0.9537 0.9584 0.9630 0.9673
817.000000 0.9713 0.9753 0.9786 0.9809 0.9831
822.000000 0.9853 0.9871 0.9892 0.9897 0.9900
827.000000 0.9904 0.9907 0.9910 0.9912 0.9914
832.000000 0.9916 0.9918 0.9920 0.9921 0.9923
837.000000 0.9921 0.9921 0.9921 0.9920 0.9918
842.000000 0.9917 0.9915 0.9914 0.9912 0.9910
847.000000 0.9908 0.9907 0.9905 0.9903 0.9901
852.000000 0.9899 0.9896 0.9893 0.9890 0.9887
857.000000 0.9884 0.9881 0.9878 0.9875 0.9871
862.000000 0.9866 0.9859 0.9853 0.9871 0.9840
867.000000 0.9833 0.9827 0.9821 0.9818 0.9814
872.000000 0.9810 0.9806 0.9803 0.9799 0.9800
877.000000 0.9802 0.9804 0.9806 0.9808 0.9811
882.000000 0.9811 0.9812 0.9812 0.9813 0.9813
887.000000 0.9814 0.9814 0.9815 0.9815 0.9812
892.000000 0.9810 0.9807 0.9804 0.9801 0.9798
897.000000 0.9795 0.9792 0.9784 0.9775 0.9767
902.000000 0.9758 0.9749 0.9741 0.9732 0.9721
907.000000 0.9708 0.9696 0.9683 0.9670 0.9658
912.000000 0.9645 0.9633 0.9621 0.9610 0.9599
917.000000 0.9588 0.9577 0.9566 0.9555 0.9547
922.000000 0.9543 0.9540 0.9550 0.9561 0.9571
927.000000 0.9582 0.9593 0.9604 0.9615 0.9627
932.000000 0.9633 0.9638 0.9643 0.9648 0.9653
937.000000 0.9658 0.9662 0.9663 0.9665 0.9667
942.000000 0.9668 0.9670 0.9671 0.9671 0.9671
947.000000 0.9668 0.9667 0.9664 0.9662 0.9659
952.000000 0.9657 0.9654 0.9652 0.9649 0.9647
957.000000 0.9644 0.9639 0.9635 0.9630 0.9625
962.000000 0.9620 0.9616 0.9611 0.9606 0.9602
967.000000 0.9597 0.9592 0.9583 0.9573 0.9564
972.000000 0.9554 0.9545 0.9535 0.9525 0.9516
977.000000 0.9506 0.9497 0.9487 0.9477 0.9468
982.000000 0.9458 0.9448 0.9438 0.9428 0.9418
987.000000 0.9409 0.9399 0.9389 0.9378 0.9368
992.000000 0.9359 0.9349 0.9339 0.9328 0.9318
997.000000 0.9309 0.9298 0.9282 0.9266 0.9250
1002.000000 0.9234 0.9218 0.9202 0.9185 0.9168
1007.000000 0.9153 0.9133 0.9110 0.9087 0.9064
1012.000000 0.9041 0.9017 0.8980 0.8942 0.8904
1017.000000 0.8866 0.8827 0.8788 0.8748 0.8704
1022.000000 0.8659 0.8615 0.8570 0.8524 0.8477
1027.000000 0.8430 0.8384 0.8337 0.8277 0.8206
1032.000000 0.8135 0.8045 0.7874 0.7608 0.7401
1037.000000 0.7204 0.7011 0.6631 0.6495 0.6385
1042.000000 0.6289 0.6209 0.6160 0.6125 0.6112
1047.000000 0.6112 0.6075 0.6148 0.6871 0.7340
1052.000000 0.7444 0.7475 0.7494 0.7538 0.7490
1057.000000 0.7457 0.7406 0.7335 0.7275 0.7239
1062.000000 0.7239 0.7239 0.7191 0.7347 0.7494
1067.000000 0.7625 0.7704 0.7768 0.7828 0.7888
1072.000000 0.7946 0.8004 0.8060 0.8108 0.8151
1077.000000 0.8192 0.8233 0.8273 0.8313 0.8364
1082.000000 0.8414 0.8463 0.8503 0.8542 0.8581
1087.000000 0.8618 0.8646 0.8673 0.8700 0.8725
1092.000000 0.8749 0.8773 0.8797 0.8808 0.8818
1097.000000 0.8827 0.8837 0.8850 0.8865 0.8878
1102.000000 0.8893 0.8907 0.8917 0.8925 0.8935
1107.000000 0.8944 0.8953 0.8962 0.8971 0.8978
1112.000000 0.8983 0.8988 0.8993 0.8998 0.9003
1117.000000 0.9008 0.9013 0.9014 0.9014 0.9015
1122.000000 0.9016 0.9016 0.9016 0.9015 0.9013
1127.000000 0.9021 0.9032 0.9047 0.9068 0.9094
1132.000000 0.9125 0.9154 0.9171 0.9189 0.9190
1137.000000 0.9190 0.9186 0.9182 0.9178 0.9171
1142.000000 0.9162 0.9151 0.9128 0.9104 0.9065
1147.000000 0.9016 0.8908 0.8739 0.8534 0.8328
1152.000000 0.8122 0.7917 0.7711 0.7494 0.7383
1157.000000 0.7308 0.7281 0.7269 0.7225 0.7674
1162.000000 0.8181 0.8306 0.8421 0.8514 0.8578
1167.000000 0.8643 0.8712 0.8781 0.8840 0.8897
1172.000000 0.8954 0.9011 0.9048 0.9073 0.9098
1177.000000 0.9120 0.9137 0.9154 0.9170 0.9175
1182.000000 0.9183 0.9189 0.9196 0.9202 0.9207
1187.000000 0.9207 0.9207 0.9207 0.9207 0.9207
1192.000000 0.9207 0.9208 0.9204 0.9199 0.9194
1197.000000 0.9190 0.9185 0.9180 0.9140 0.9068
1202.000000 0.9005 0.8956 0.8907 0.8830 0.8774
1207.000000 0.8755 0.8739 0.8724 0.8717 0.8707
1212.000000 0.8723 0.8738 0.8756 0.8773 0.8810
1217.000000 0.8852 0.8918 0.8970 0.9009 0.9041
1222.000000 0.9047 0.9050 0.9054 0.9056 0.9058
1227.000000 0.9059 0.9060 0.9061 0.9062 0.9064
1232.000000 0.9065 0.9065 0.9065 0.9065 0.9065
1237.000000 0.9064 0.9063 0.9061 0.9059 0.9058
1242.000000 0.9047 0.9033 0.9018 0.9004 0.8995
1247.000000 0.8987 0.8978 0.8975 0.8975 0.8977
1252.000000 0.8978 0.8978 0.8981 0.8984 0.8986
1257.000000 0.8989 0.8991 0.8994 0.8996 0.8998
1262.000000 0.9000 0.9002 0.9005 0.9009 0.9009
1267.000000 0.9011 0.9014 0.9016 0.9018 0.9021
1272.000000 0.9024 0.9025 0.9028 0.9031 0.9034
1277.000000 0.9037 0.9039 0.9042 0.9044 0.9047
1282.000000 0.9047 0.9048 0.9048 0.9049 0.9049
1287.000000 0.9050 0.9050 0.9050 0.9051 0.9051
1292.000000 0.9050 0.9044 0.9039 0.9034 0.9028
1297.000000 0.9023 0.9015 0.9001 0.8986 0.8971
1302.000000 0.8958 0.8944 0.8925 0.8904 0.8882
1307.000000 0.8863 0.8854 0.8845 0.8835 0.8825
1312.000000 0.8817 0.8807 0.8803 0.8801 0.8799
1317.000000 0.8797 0.8795 0.8792 0.8780 0.8766
1322.000000 0.8746 0.8718 0.8692 0.8665 0.8628
1327.000000 0.8591 0.8547 0.8493 0.8440 0.8387
1332.000000 0.8334 0.8280 0.8225 0.8186 0.8148
1337.000000 0.8110 0.8072 0.8047 0.8022 0.8008
1342.000000 0.8018 0.7998 0.8168 0.8299 0.8414
1347.000000 0.8458 0.8495 0.8521 0.8532 0.8528
1352.000000 0.8523 0.8517 0.8495 0.8475 0.8457
1357.000000 0.8424 0.8385 0.8346 0.8302 0.8257
1362.000000 0.8232 0.8220 0.8207 0.8195 0.8188
1367.000000 0.8181 0.8172 0.8154 0.8134 0.7805
1372.000000 0.7444 0.7082 0.6721 0.6576 0.6554
1377.000000 0.6787 0.6988 0.7189 0.7391 0.7445
1382.000000 0.7454 0.7401 0.7045 0.6688 0.6331
1387.000000 0.5974 0.5618 0.5260 0.4974 0.5010
1392.000000 0.5394 0.5860 0.6326 0.6662 0.6765
1397.000000 0.6848 0.7028 0.7335 0.7635 0.7778
1402.000000 0.7826 0.7876 0.7924 0.7961 0.7999
1407.000000 0.8036 0.8067 0.8090 0.8112 0.8125
1412.000000 0.8132 0.8138 0.8138 0.8138 0.8138
1417.000000 0.8139 0.8125 0.8118 0.8108 0.8098
1422.000000 0.8087 0.8071 0.8051 0.8031 0.7983
1427.000000 0.7928 0.7850 0.7744 0.7608 0.7468
1432.000000 0.7325 0.7169 0.7006 0.6881 0.6758
1437.000000 0.6639 0.6521 0.6404 0.6312 0.6223
1442.000000 0.6174 0.6132 0.6108 0.6085 0.6060
1447.000000 0.6038 0.5933 0.5764 0.5668 0.5591
1452.000000 0.5536 0.5481 0.5432 0.5387 0.5360
1457.000000 0.5341 0.5297 0.5245 0.5204 0.5201
1462.000000 0.5207 0.5221 0.5295 0.5504 0.5712
1467.000000 0.5922 0.6131 0.6284 0.6340 0.6384
1472.000000 0.6421 0.6458 0.6495 0.6528 0.6503
1477.000000 0.6471 0.6435 0.6382 0.6349 0.6328
1482.000000 0.6332 0.6465 0.6943 0.7101 0.7233
1487.000000 0.7345 0.7451 0.7551 0.7618 0.7672
1492.000000 0.7710 0.7747 0.7783 0.7801 0.7819
1497.000000 0.7838 0.7850 0.7857 0.7865 0.7871
1502.000000 0.7871 0.7874 0.7875 0.7875 0.7876
1507.000000 0.7878 0.7878 0.7875 0.7871 0.7868
1512.000000 0.7865 0.7862 0.7861 0.7858 0.7857
1517.000000 0.7855 0.7853 0.7851 0.7849 0.7847
1522.000000 0.7846 0.7844 0.7843 0.7842 0.7840
1527.000000 0.7839 0.7835 0.7832 0.7828 0.7824
1532.000000 0.7821 0.7817 0.7812 0.7810 0.7808
1537.000000 0.7807 0.7805 0.7805 0.7805 0.7810
1542.000000 0.7815 0.7819 0.7825 0.7830 0.7835
1547.000000 0.7840 0.7845 0.7851 0.7862 0.7874
1552.000000 0.7886 0.7898 0.7908 0.7921 0.7935
1557.000000 0.7954 0.7971 0.8007 0.8076 0.8100
1562.000000 0.8105 0.8110 0.8111 0.8111 0.8108
1567.000000 0.8105 0.8101 0.8099 0.8096 0.8090
1572.000000 0.8080 0.8069 0.8060 0.8038 0.8011
1577.000000 0.7956 0.7901 0.7854 0.7801 0.7750
1582.000000 0.7734 0.7718 0.7706 0.7707 0.7708
1587.000000 0.7708 0.7708 0.7711 0.7718 0.7724
1592.000000 0.7731 0.7742 0.7753 0.7765 0.7778
1597.000000 0.7797 0.7818 0.7840 0.7860 0.7878
1602.000000 0.7898 0.7914 0.7918 0.7925 0.7930
1607.000000 0.7930 0.7928 0.7926 0.7925 0.7921
1612.000000 0.7918 0.7915 0.7910 0.7906 0.7901
1617.000000 0.7897 0.7893 0.7887 0.7882 0.7876
1622.000000 0.7871 0.7865 0.7857 0.7848 0.7839
1627.000000 0.7831 0.7821 0.7812 0.7801 0.7791
1632.000000 0.7780 0.7768 0.7758 0.7745 0.7730
1637.000000 0.7715 0.7700 0.7685 0.7669 0.7651
1642.000000 0.7631 0.7608 0.7588 0.7562 0.7532
1647.000000 0.7511 0.7503 0.7494 0.7486 0.7489
1652.000000 0.7493 0.7507 0.7528 0.7549 0.7583
1657.000000 0.7615 0.7653 0.7691 0.7728 0.7772
1662.000000 0.7818 0.7858 0.7894 0.7928 0.7964
1667.000000 0.8001 0.8038 0.8075 0.8103 0.8128
1672.000000 0.8155 0.8182 0.8208 0.8232 0.8256
1677.000000 0.8280 0.8296 0.8306 0.8316 0.8327
1682.000000 0.8345 0.8362 0.8380 0.8397 0.8414
1687.000000 0.8425 0.8438 0.8450 0.8456 0.8460
1692.000000 0.8464 0.8468 0.8471 0.8475 0.8477
1697.000000 0.8478 0.8480 0.8481 0.8483 0.8484
1702.000000 0.8486 0.8487 0.8489 0.8491 0.8492
1707.000000 0.8494 0.8496 0.8497 0.8499 0.8501
1712.000000 0.8502 0.8504 0.8508 0.8513 0.8518
1717.000000 0.8523 0.8528 0.8533 0.8538 0.8543
1722.000000 0.8548 0.8554 0.8560 0.8568 0.8575
1727.000000 0.8582 0.8589 0.8597 0.8604 0.8611
1732.000000 0.8618 0.8625 0.8633 0.8640 0.8648
1737.000000 0.8655 0.8662 0.8668 0.8675 0.8683
1742.000000 0.8691 0.8698 0.8705 0.8714 0.8723
1747.000000 0.8732 0.8741 0.8750 0.8759 0.8768
1752.000000 0.8777 0.8786 0.8795 0.8803 0.8812
1757.000000 0.8818 0.8820 0.8821 0.8825 0.8827
1762.000000 0.8828 0.8828 0.8828 0.8828 0.8827
1767.000000 0.8825 0.8824 0.8823 0.8820 0.8816
1772.000000 0.8812 0.8808 0.8804 0.8800 0.8796
1777.000000 0.8792 0.8788 0.8784 0.8780 0.8775
1782.000000 0.8771 0.8768 0.8765 0.8761 0.8760
1787.000000 0.8759 0.8758 0.8756 0.8755 0.8754
1792.000000 0.8753 0.8753 0.8753 0.8752 0.8752
1797.000000 0.8752 0.8752 0.8751 0.8751 0.8751
1802.000000 0.8750 0.8750 0.8750 0.8749 0.8749
1807.000000 0.8749 0.8748 0.8748 0.8748 0.8747
1812.000000 0.8747 0.8746 0.8746 0.8745 0.8745
1817.000000 0.8744 0.8744 0.8743 0.8743 0.8742
1822.000000 0.8742 0.8741 0.8741 0.8740 0.8740
1827.000000 0.8739 0.8738 0.8736 0.8733 0.8731
1832.000000 0.8728 0.8725 0.8724 0.8721 0.8718
1837.000000 0.8714 0.8710 0.8706 0.8703 0.8699
1842.000000 0.8695 0.8691 0.8686 0.8678 0.8671
1847.000000 0.8665 0.8658 0.8652 0.8645 0.8638
1852.000000 0.8632 0.8628 0.8625 0.8621 0.8618
1857.000000 0.8615 0.8615 0.8616 0.8618 0.8621
1862.000000 0.8625 0.8628 0.8632 0.8637 0.8641
1867.000000 0.8646 0.8650 0.8655 0.8659 0.8664
1872.000000 0.8670 0.8675 0.8682 0.8688 0.8694
1877.000000 0.8701 0.8707 0.8713 0.8718 0.8725
1882.000000 0.8735 0.8743 0.8752 0.8761 0.8768
1887.000000 0.8775 0.8781 0.8786 0.8791 0.8797
1892.000000 0.8802 0.8807 0.8810 0.8812 0.8813
1897.000000 0.8814 0.8816 0.8817 0.8818 0.8820
1902.000000 0.8821 0.8825 0.8828 0.8818 0.8834
1907.000000 0.8837 0.8840 0.8843 0.8846 0.8849
1912.000000 0.8853 0.8856 0.8860 0.8863 0.8867
1917.000000 0.8871 0.8874 0.8878 0.8881 0.8882
1922.000000 0.8882 0.8883 0.8884 0.8884 0.8885
1927.000000 0.8886 0.8886 0.8887 0.8888 0.8888
1932.000000 0.8889 0.8890 0.8890 0.8891 0.8892
1937.000000 0.8892 0.8893 0.8894 0.8894 0.8895
1942.000000 0.8896 0.8896 0.8897 0.8898 0.8898
1947.000000 0.8899 0.8900 0.8900 0.8901 0.8902
1952.000000 0.8902 0.8903 0.8904 0.8904 0.8905
1957.000000 0.8906 0.8906 0.8907 0.8908 0.8908
1962.000000 0.8909 0.8910 0.8910 0.8911 0.8912
1967.000000 0.8912 0.8913 0.8914 0.8914 0.8915
1972.000000 0.8916 0.8916 0.8917 0.8918 0.8918
1977.000000 0.8918 0.8920 0.8920 0.8921 0.8921
1982.000000 0.8928 0.8931 0.8931 0.8932 0.8933
1987.000000 0.8934 0.8934 0.8934 0.8933 0.8932
1992.000000 0.8931 0.8928 0.8928 0.8927 0.8918
1997.000000 0.8908 0.8896 0.8885 0.8874 0.8859
2002.000000 0.8845 0.8836 0.8828 0.8818 0.8811
2007.000000 0.8811 0.8811 0.8811 0.8811 0.8812
2012.000000 0.8813 0.8814 0.8816 0.8817 0.8818
2017.000000 0.8818 0.8820 0.8821 0.8821 0.8823
2022.000000 0.8824 0.8825 0.8825 0.8825 0.8827
2027.000000 0.8827 0.8825 0.8825 0.8825 0.8823
2032.000000 0.8821 0.8820 0.8818 0.8817 0.8816
2037.000000 0.8814 0.8813 0.8811 0.8810 0.8808
2042.000000 0.8806 0.8804 0.8802 0.8800 0.8798
2047.000000 0.8796 0.8794 0.8792 0.8790 0.8788
2052.000000 0.8786 0.8784 0.8782 0.8780 0.8778
2057.000000 0.8775 0.8774 0.8771 0.8770 0.8768
2062.000000 0.8766 0.8764 0.8762 0.8760 0.8758
2067.000000 0.8756 0.8754 0.8752 0.8750 0.8748
2072.000000 0.8747 0.8746 0.8745 0.8743 0.8742
2077.000000 0.8741 0.8740 0.8738 0.8737 0.8736
2082.000000 0.8735 0.8733 0.8732 0.8731 0.8730
2087.000000 0.8728 0.8727 0.8725 0.8724 0.8721
2092.000000 0.8721 0.8718 0.8717 0.8714 0.8712
2097.000000 0.8710 0.8708 0.8705 0.8703 0.8701
2102.000000 0.8699 0.8696 0.8694 0.8692 0.8690
2107.000000 0.8687 0.8685 0.8683 0.8681 0.8678
2112.000000 0.8675 0.8674 0.8671 0.8668 0.8666
2117.000000 0.8663 0.8660 0.8656 0.8653 0.8649
2122.000000 0.8646 0.8643 0.8640 0.8636 0.8633
2127.000000 0.8628 0.8625 0.8623 0.8620 0.8616
2132.000000 0.8613 0.8610 0.8610 0.8610 0.8610
2137.000000 0.8611 0.8612 0.8612 0.8613 0.8614
2142.000000 0.8615 0.8616 0.8617 0.8617 0.8618
2147.000000 0.8618 0.8620 0.8621 0.8623 0.8625
2152.000000 0.8628 0.8630 0.8633 0.8635 0.8637
2157.000000 0.8639 0.8642 0.8644 0.8647 0.8648
2162.000000 0.8650 0.8650 0.8650 0.8650 0.8650
2167.000000 0.8650 0.8650 0.8650 0.8650 0.8650
2172.000000 0.8650 0.8650 0.8651 0.8651 0.8651
2177.000000 0.8650 0.8650 0.8649 0.8648 0.8647
2182.000000 0.8646 0.8645 0.8645 0.8644 0.8643
2187.000000 0.8642 0.8641 0.8640 0.8639 0.8638
2192.000000 0.8637 0.8636 0.8636 0.8635 0.8634
2197.000000 0.8632 0.8631 0.8630 0.8628 0.8628
2202.000000 0.8627 0.8625 0.8624 0.8623 0.8621
2207.000000 0.8621 0.8620 0.8618 0.8617 0.8616
2212.000000 0.8615 0.8611 0.8608 0.8604 0.8600
2217.000000 0.8595 0.8591 0.8587 0.8583 0.8578
2222.000000 0.8574 0.8570 0.8566 0.8559 0.8553
2227.000000 0.8546 0.8540 0.8533 0.8525 0.8518
2232.000000 0.8513 0.8506 0.8500 0.8493 0.8486
2237.000000 0.8478 0.8471 0.8463 0.8456 0.8448
2242.000000 0.8440 0.8432 0.8425 0.8417 0.8410
2247.000000 0.8402 0.8395 0.8390 0.8386 0.8384
2252.000000 0.8383 0.8382 0.8381 0.8378 0.8378
2257.000000 0.8375 0.8375 0.8373 0.8373 0.8373
2262.000000 0.8374 0.8375 0.8378 0.8380 0.8382
2267.000000 0.8384 0.8386 0.8388 0.8390 0.8392
2272.000000 0.8394 0.8396 0.8399 0.8403 0.8407
2277.000000 0.8411 0.8415 0.8418 0.8423 0.8427
2282.000000 0.8431 0.8434 0.8437 0.8440 0.8443
2287.000000 0.8446 0.8449 0.8452 0.8455 0.8458
2292.000000 0.8461 0.8464 0.8467 0.8468 0.8470
2297.000000 0.8471 0.8473 0.8474 0.8475 0.8477
2302.000000 0.8478 0.8480 0.8482 0.8483 0.8483
2307.000000 0.8483 0.8483 0.8482 0.8481 0.8480
2312.000000 0.8480 0.8478 0.8478 0.8477 0.8477
2317.000000 0.8475 0.8475 0.8474 0.8474 0.8473
2322.000000 0.8471 0.8470 0.8468 0.8467 0.8465
2327.000000 0.8463 0.8462 0.8460 0.8459 0.8457
2332.000000 0.8455 0.8453 0.8452 0.8450 0.8449
2337.000000 0.8443 0.8438 0.8431 0.8425 0.8418
2342.000000 0.8413 0.8406 0.8400 0.8391 0.8383
2347.000000 0.8368 0.8356 0.8342 0.8328 0.8315
2352.000000 0.8302 0.8288 0.8275 0.8261 0.8248
2357.000000 0.8233 0.8218 0.8198 0.8178 0.8160
2362.000000 0.8141 0.8111 0.8082 0.8011 0.7943
2367.000000 0.7740 0.7537 0.7333 0.7130 0.6926
2372.000000 0.6724 0.6540 0.6357 0.6358 0.6359
2377.000000 0.6360 0.6345 0.6367 0.6371 0.6376
2382.000000 0.6382 0.6396 0.6411 0.6468 0.6528
2387.000000 0.6595 0.6661 0.6728 0.6795 0.6861
2392.000000 0.6928 0.6988 0.7047 0.7104 0.7161
2397.000000 0.7206 0.7250 0.7272 0.7297 0.7318
2402.000000 0.7339 0.7358 0.7378 0.7393 0.7408
2407.000000 0.7422 0.7439 0.7451 0.7465 0.7478
2412.000000 0.7493 0.7506 0.7519 0.7535 0.7550
2417.000000 0.7562 0.7576 0.7587 0.7598 0.7608
2422.000000 0.7618 0.7625 0.7632 0.7633 0.7635
2427.000000 0.7636 0.7638 0.7640 0.7639 0.7639
2432.000000 0.7647 0.7632 0.7626 0.7621 0.7617
2437.000000 0.7598 0.7580 0.7554 0.7528 0.7468
2442.000000 0.7410 0.7281 0.7153 0.6928 0.6705
2447.000000 0.6481 0.6257 0.6033 0.5809 0.5584
2452.000000 0.5360 0.5136 0.4912 0.4688 0.4464
2457.000000 0.4336 0.4209 0.4032 0.3857 0.3784
2462.000000 0.3714 0.3676 0.3639 0.3610 0.3584
2467.000000 0.3571 0.3559 0.3555 0.3550 0.3550
2472.000000 0.3550 0.3562 0.3571 0.3603 0.3634
2477.000000 0.3689 0.3744 0.3866 0.3989 0.4112
2482.000000 0.4235 0.4358 0.4481 0.4604 0.4727
2487.000000 0.4850 0.4973 0.5095 0.5218 0.5341
2492.000000 0.5464 0.5581 0.5698 0.5762 0.5826
2497.000000 0.5983 0.6141 0.6199 0.6257 0.6300
2502.000000 0.6343 0.6375 0.6408 0.6440 0.6472
2507.000000 0.6490 0.6508 0.6525 0.6543 0.6560
2512.000000 0.6578 0.6595 0.6611 0.6626 0.6642
2517.000000 0.6657 0.6671 0.6687 0.6701 0.6717
2522.000000 0.6732 0.6742 0.6753 0.6761 0.6768
2527.000000 0.6775 0.6784 0.6792 0.6800 0.6807
2532.000000 0.6815 0.6819 0.6825 0.6831 0.6836
2537.000000 0.6839 0.6842 0.6844 0.6846 0.6857
2542.000000 0.6868 0.6878 0.6889 0.6900 0.6911
2547.000000 0.6930 0.6949 0.6967 0.6986 0.7011
2552.000000 0.7036 0.7068 0.7101 0.7130 0.7158
2557.000000 0.7186 0.7214 0.7237 0.7261 0.7282
2562.000000 0.7303 0.7324 0.7345 0.7356 0.7368
2567.000000 0.7375 0.7382 0.7383 0.7384 0.7384
2572.000000 0.7384 0.7383 0.7383 0.7382 0.7381
2577.000000 0.7380 0.7378 0.7376 0.7390 0.7371
2582.000000 0.7369 0.7367 0.7365 0.7358 0.7351
2587.000000 0.7341 0.7331 0.7318 0.7307 0.7293
2592.000000 0.7278 0.7264 0.7250 0.7237 0.7224
2597.000000 0.7211 0.7201 0.7189 0.7178 0.7165
2602.000000 0.7155 0.7143 0.7132 0.7119 0.7108
2607.000000 0.7097 0.7086 0.7074 0.7061 0.7050
2612.000000 0.7038 0.7025 0.7012 0.7000 0.6988
2617.000000 0.6975 0.6962 0.6949 0.6935 0.6919
2622.000000 0.6905 0.6890 0.6875 0.6861 0.6847
2627.000000 0.6832 0.6818 0.6803 0.6789 0.6774
2632.000000 0.6760 0.6745 0.6730 0.6708 0.6688
2637.000000 0.6660 0.6633 0.6605 0.6578 0.6550
2642.000000 0.6522 0.6492 0.6461 0.6428 0.6394
2647.000000 0.6360 0.6327 0.6293 0.6259 0.6226
2652.000000 0.6193 0.6160 0.6127 0.6094 0.6062
2657.000000 0.6012 0.5964 0.5910 0.5859 0.5806
2662.000000 0.5754 0.5701 0.5649 0.5597 0.5545
2667.000000 0.5492 0.5440 0.5387 0.5335 0.5283
2672.000000 0.5231 0.5178 0.5126 0.5073 0.5021
2677.000000 0.4914 0.4807 0.4749 0.4692 0.4637
2682.000000 0.4582 0.4530 0.4479 0.4421 0.4364
2687.000000 0.4300 0.4236 0.4172 0.4108 0.4044
2692.000000 0.3980 0.3914 0.3850 0.3777 0.3705
2697.000000 0.3616 0.3527 0.3410 0.3296 0.3262
2702.000000 0.3228 0.3194 0.3160 0.3125 0.3090
2707.000000 0.3052 0.3014 0.2977 0.2940 0.2912
2712.000000 0.2884 0.2858 0.2831 0.2804 0.2778
2717.000000 0.2753 0.2728 0.2705 0.2683 0.2660
2722.000000 0.2638 0.2613 0.2588 0.2558 0.2528
2727.000000 0.2472 0.2416 0.2316 0.2216 0.2173
2732.000000 0.2131 0.2100 0.2070 0.2035 0.2002
2737.000000 0.1964 0.1926 0.1895 0.1867 0.1844
2742.000000 0.1821 0.1818 0.1816 0.1821 0.1819
2747.000000 0.1834 0.1844 0.1851 0.1858 0.1864
2752.000000 0.1870 0.1873 0.1877 0.1863 0.1873
2757.000000 0.1827 0.1804 0.1775 0.1745 0.1715
2762.000000 0.1684 0.1653 0.1622 0.1585 0.1548
2767.000000 0.1507 0.1467 0.1431 0.1396 0.1384
2772.000000 0.1373 0.1364 0.1356 0.1360 0.1389
2777.000000 0.1377 0.1391 0.1433 0.1476 0.1592
2782.000000 0.1708 0.1778 0.1849 0.1908 0.1967
2787.000000 0.2021 0.2075 0.2111 0.2148 0.2169
2792.000000 0.2190 0.2194 0.2198 0.2191 0.2164
2797.000000 0.2177 0.2169 0.2145 0.2122 0.2064
2802.000000 0.2007 0.1890 0.1774 0.1573 0.1373
2807.000000 0.1304 0.1235 0.1198 0.1162 0.1121
2812.000000 0.1080 0.1046 0.1012 0.0991 0.0970
2817.000000 0.0965 0.0960 0.0958 0.0958 0.0958
2822.000000 0.0959 0.0965 0.0931 0.1013 0.1056
2827.000000 0.1192 0.1329 0.1465 0.1601 0.1736
2832.000000 0.1873 0.2009 0.2146 0.2289 0.2432
2837.000000 0.2472 0.2512 0.2524 0.2537 0.2542
2842.000000 0.2530 0.2549 0.2551 0.2551 0.2551
2847.000000 0.2542 0.2534 0.2523 0.2513 0.2502
2852.000000 0.2491 0.2483 0.2475 0.2473 0.2472
2857.000000 0.2476 0.2480 0.2492 0.2506 0.2521
2862.000000 0.2539 0.2566 0.2593 0.2684 0.2778
2867.000000 0.2820 0.2862 0.2888 0.2915 0.2941
2872.000000 0.2967 0.2995 0.3024 0.3034 0.3046
2877.000000 0.3054 0.3062 0.3062 0.3063 0.3063
2882.000000 0.3062 0.3049 0.3043 0.3034 0.3025
2887.000000 0.2996 0.2967 0.2930 0.2894 0.2844
2892.000000 0.2795 0.2741 0.2688 0.2627 0.2566
2897.000000 0.2491 0.2417 0.2363 0.2309 0.2262
2902.000000 0.2215 0.2210 0.2205 0.2205 0.2205
2907.000000 0.2205 0.2205 0.2212 0.2218 0.2239
2912.000000 0.2261 0.2297 0.2334 0.2390 0.2446
2917.000000 0.2467 0.2489 0.2494 0.2500 0.2506
2922.000000 0.2507 0.2508 0.2504 0.2495 0.2524
2927.000000 0.2467 0.2447 0.2384 0.2324 0.2223
2932.000000 0.2123 0.2023 0.1924 0.1781 0.1637
2937.000000 0.1551 0.1465 0.1388 0.1311 0.1261
2942.000000 0.1211 0.1168 0.1126 0.1089 0.1053
2947.000000 0.1028 0.1004 0.0979 0.0954 0.0934
2952.000000 0.0915 0.0902 0.0889 0.0876 0.0864
2957.000000 0.0850 0.0837 0.0822 0.0808 0.0790
2962.000000 0.0773 0.0754 0.0735 0.0724 0.0714
2967.000000 0.0705 0.0696 0.0691 0.0686 0.0687
2972.000000 0.0688 0.0697 0.0691 0.0716 0.0726
2977.000000 0.0744 0.0763 0.0899 0.1036 0.1123
2982.000000 0.1210 0.1324 0.1438 0.1494 0.1550
2987.000000 0.1598 0.1646 0.1689 0.1732 0.1774
2992.000000 0.1817 0.1860 0.1903 0.1944 0.1987
2997.000000 0.2031 0.2074 0.2118 0.2162 0.2210
3002.000000 0.2259 0.2307 0.2356 0.2399 0.2443
3007.000000 0.2484 0.2525 0.2565 0.2606 0.2647
3012.000000 0.2688 0.2730 0.2772 0.2813 0.2855
3017.000000 0.2896 0.2938 0.2985 0.3034 0.3091
3022.000000 0.3149 0.3206 0.3264 0.3314 0.3366
3027.000000 0.3414 0.3464 0.3514 0.3564 0.3614
3032.000000 0.3664 0.3714 0.3766 0.3816 0.3866
3037.000000 0.3938 0.4009 0.4082 0.4157 0.4221
3042.000000 0.4286 0.4346 0.4406 0.4464 0.4522
3047.000000 0.4556 0.4590 0.4624 0.4659 0.4693
3052.000000 0.4728 0.4762 0.4796 0.4830 0.4865
3057.000000 0.4899 0.4934 0.4968 0.5003 0.5037
3062.000000 0.5072 0.5108 0.5145 0.5181 0.5218
3067.000000 0.5254 0.5291 0.5325 0.5360 0.5392
3072.000000 0.5424 0.5456 0.5488 0.5519 0.5551
3077.000000 0.5583 0.5615 0.5646 0.5677 0.5703
3082.000000 0.5729 0.5755 0.5782 0.5808 0.5835
3087.000000 0.5860 0.5887 0.5912 0.5940 0.5964
3092.000000 0.5989 0.6007 0.6026 0.6044 0.6062
3097.000000 0.6081 0.6100 0.6118 0.6137 0.6155
3102.000000 0.6174 0.6192 0.6210 0.6232 0.6254
3107.000000 0.6275 0.6297 0.6319 0.6342 0.6365
3112.000000 0.6389 0.6412 0.6437 0.6458 0.6481
3117.000000 0.6496 0.6511 0.6525 0.6542 0.6557
3122.000000 0.6571 0.6584 0.6597 0.6608 0.6619
3127.000000 0.6632 0.6644 0.6655 0.6667 0.6675
3132.000000 0.6686 0.6687 0.6689 0.6690 0.6691
3137.000000 0.6692 0.6694 0.6695 0.6697 0.6697
3142.000000 0.6698 0.6698 0.6698 0.6698 0.6699
3147.000000 0.6699 0.6699 0.6699 0.6699 0.6699
3152.000000 0.6699 0.6699 0.6700 0.6701 0.6704
3157.000000 0.6706 0.6708 0.6710 0.6711 0.6714
3162.000000 0.6715 0.6718 0.6719 0.6721 0.6724
3167.000000 0.6725 0.6728 0.6732 0.6735 0.6737
3172.000000 0.6740 0.6743 0.6747 0.6751 0.6755
3177.000000 0.6761 0.6767 0.6778 0.6791 0.6801
3182.000000 0.6811 0.6819 0.6830 0.6840 0.6850
3187.000000 0.6868 0.6888 0.6899 0.6910 0.6919
3192.000000 0.6931 0.6941 0.6951 0.6961 0.6972
3197.000000 0.6983 0.6994 0.7003 0.7012 0.7018
3202.000000 0.7024 0.7028 0.7034 0.7037 0.7040
3207.000000 0.7043 0.7046 0.7048 0.7051 0.7054
3212.000000 0.7057 0.7058 0.7076 0.7065 0.7068
3217.000000 0.7069 0.7072 0.7075 0.7078 0.7078
3222.000000 0.7081 0.7082 0.7084 0.7085 0.7087
3227.000000 0.7088 0.7090 0.7091 0.7093 0.7094
3232.000000 0.7096 0.7097 0.7099 0.7100 0.7101
3237.000000 0.7103 0.7105 0.7106 0.7107 0.7107
3242.000000 0.7107 0.7107 0.7107 0.7107 0.7107
3247.000000 0.7107 0.7107 0.7107 0.7107 0.7107
3252.000000 0.7108 0.7108 0.7108 0.7108 0.7108
3257.000000 0.7108 0.7108 0.7108 0.7108 0.7108
3262.000000 0.7108 0.7108 0.7108 0.7108 0.7108
3267.000000 0.7108 0.7108 0.7108 0.7108 0.7108
3272.000000 0.7108 0.7108 0.7108 0.7108 0.7108
3277.000000 0.7108 0.7108 0.7108 0.7108 0.7108
3282.000000 0.7108 0.7108 0.7108 0.7107 0.7107
3287.000000 0.7106 0.7106 0.7105 0.7105 0.7104
3292.000000 0.7104 0.7103 0.7101 0.7101 0.7101
3297.000000 0.7100 0.7100 0.7099 0.7099 0.7098
3302.000000 0.7097 0.7096 0.7096 0.7095 0.7095
3307.000000 0.7094 0.7094 0.7093 0.7092 0.7091
3312.000000 0.7090 0.7088 0.7087 0.7085 0.7084
3317.000000 0.7083 0.7082 0.7080 0.7078 0.7076
3322.000000 0.7075 0.7075 0.7074 0.7071 0.7071
3327.000000 0.7069 0.7068 0.7067 0.7065 0.7064
3332.000000 0.7061 0.7058 0.7057 0.7054 0.7051
3337.000000 0.7049 0.7047 0.7044 0.7042 0.7039
3342.000000 0.7037 0.7034 0.7032 0.7028 0.7026
3347.000000 0.7024 0.7021 0.7018 0.7017 0.7012
3352.000000 0.7010 0.7005 0.7001 0.6996 0.6992
3357.000000 0.6988 0.6984 0.6978 0.6975 0.6971
3362.000000 0.6967 0.6961 0.6958 0.6953 0.6949
3367.000000 0.6945 0.6941 0.6936 0.6932 0.6926
3372.000000 0.6922 0.6918 0.6915 0.6910 0.6905
3377.000000 0.6900 0.6896 0.6891 0.6886 0.6881
3382.000000 0.6876 0.6871 0.6867 0.6861 0.6858
3387.000000 0.6853 0.6848 0.6844 0.6840 0.6836
3392.000000 0.6833 0.6828 0.6825 0.6821 0.6818
3397.000000 0.6815 0.6811 0.6808 0.6805 0.6801
3402.000000 0.6798 0.6794 0.6791 0.6788 0.6785
3407.000000 0.6785 0.6786 0.6786 0.6787 0.6787
3412.000000 0.6788 0.6788 0.6789 0.6789 0.6790
3417.000000 0.6790 0.6791 0.6791 0.6792 0.6792
3422.000000 0.6793 0.6793 0.6793 0.6795 0.6798
3427.000000 0.6800 0.6801 0.6804 0.6807 0.6808
3432.000000 0.6811 0.6812 0.6815 0.6818 0.6819
3437.000000 0.6821 0.6825 0.6826 0.6828 0.6832
3442.000000 0.6835 0.6839 0.6843 0.6847 0.6851
3447.000000 0.6854 0.6858 0.6861 0.6865 0.6868
3452.000000 0.6872 0.6876 0.6881 0.6885 0.6889
3457.000000 0.6892 0.6896 0.6900 0.6904 0.6907
3462.000000 0.6911 0.6915 0.6918 0.6922 0.6926
3467.000000 0.6931 0.6935 0.6939 0.6944 0.6948
3472.000000 0.6953 0.6957 0.6961 0.6965 0.6969
3477.000000 0.6974 0.6978 0.6982 0.6987 0.6991
3482.000000 0.6996 0.7000 0.7004 0.7008 0.7012
3487.000000 0.7017 0.7021 0.7025 0.7031 0.7035
3492.000000 0.7040 0.7045 0.7050 0.7055 0.7060
3497.000000 0.7065 0.7069 0.7074 0.7078 0.7084
3502.000000 0.7089 0.7094 0.7099 0.7104 0.7108
3507.000000 0.7114 0.7119 0.7125 0.7131 0.7136
3512.000000 0.7142 0.7147 0.7153 0.7158 0.7164
3517.000000 0.7168 0.7175 0.7180 0.7186 0.7191
3522.000000 0.7197 0.7201 0.7208 0.7214 0.7221
3527.000000 0.7226 0.7234 0.7241 0.7248 0.7255
3532.000000 0.7261 0.7268 0.7275 0.7282 0.7289
3537.000000 0.7296 0.7303 0.7310 0.7317 0.7324
3542.000000 0.7331 0.7338 0.7346 0.7353 0.7361
3547.000000 0.7368 0.7375 0.7383 0.7391 0.7398
3552.000000 0.7406 0.7412 0.7421 0.7428 0.7436
3557.000000 0.7442 0.7449 0.7455 0.7461 0.7468
3562.000000 0.7475 0.7481 0.7487 0.7493 0.7500
3567.000000 0.7506 0.7511 0.7518 0.7525 0.7531
3572.000000 0.7537 0.7543 0.7550 0.7555 0.7561
3577.000000 0.7565 0.7569 0.7574 0.7578 0.7583
3582.000000 0.7588 0.7592 0.7597 0.7601 0.7606
3587.000000 0.7611 0.7615 0.7619 0.7625 0.7628
3592.000000 0.7634 0.7638 0.7643 0.7647 0.7651
3597.000000 0.7655 0.7658 0.7661 0.7665 0.7668
3602.000000 0.7671 0.7674 0.7678 0.7681 0.7684
3607.000000 0.7687 0.7690 0.7693 0.7697 0.7700
3612.000000 0.7703 0.7706 0.7708 0.7711 0.7715
3617.000000 0.7718 0.7721 0.7725 0.7728 0.7730
3622.000000 0.7733 0.7735 0.7737 0.7739 0.7741
3627.000000 0.7743 0.7746 0.7748 0.7750 0.7751
3632.000000 0.7755 0.7757 0.7758 0.7761 0.7764
3637.000000 0.7765 0.7768 0.7769 0.7772 0.7775
3642.000000 0.7776 0.7778 0.7782 0.7784 0.7786
3647.000000 0.7788 0.7791 0.7793 0.7795 0.7795
3652.000000 0.7796 0.7797 0.7798 0.7798 0.7799
3657.000000 0.7800 0.7801 0.7801 0.7801 0.7803
3662.000000 0.7804 0.7804 0.7805 0.7806 0.7807
3667.000000 0.7807 0.7808 0.7808 0.7810 0.7810
3672.000000 0.7811 0.7811 0.7811 0.7812 0.7814
3677.000000 0.7814 0.7815 0.7815 0.7817 0.7817
3682.000000 0.7818 0.7818 0.7818 0.7818 0.7819
3687.000000 0.7819 0.7821 0.7821 0.7821 0.7821
3692.000000 0.7822 0.7822 0.7824 0.7825 0.7825
3697.000000 0.7825 0.7826 0.7826 0.7828 0.7828
3702.000000 0.7828 0.7828 0.7830 0.7830 0.7831
3707.000000 0.7831 0.7832 0.7832 0.7833 0.7833
3712.000000 0.7833 0.7832 0.7832 0.7832 0.7832
3717.000000 0.7831 0.7831 0.7831 0.7831 0.7830
3722.000000 0.7830 0.7830 0.7828 0.7828 0.7828
3727.000000 0.7828 0.7828 0.7828 0.7828 0.7828
3732.000000 0.7828 0.7826 0.7826 0.7825 0.7825
3737.000000 0.7825 0.7825 0.7825 0.7825 0.7825
3742.000000 0.7825 0.7824 0.7824 0.7822 0.7822
3747.000000 0.7822 0.7822 0.7821 0.7821 0.7821
3752.000000 0.7821 0.7819 0.7819 0.7819 0.7819
3757.000000 0.7818 0.7818 0.7818 0.7818 0.7818
3762.000000 0.7818 0.7817 0.7817 0.7817 0.7817
3767.000000 0.7815 0.7815 0.7815 0.7815 0.7815
3772.000000 0.7815 0.7814 0.7814 0.7811 0.7811
3777.000000 0.7808 0.7808 0.7806 0.7804 0.7803
3782.000000 0.7801 0.7801 0.7800 0.7799 0.7798
3787.000000 0.7797 0.7796 0.7795 0.7794 0.7793
3792.000000 0.7792 0.7791 0.7790 0.7789 0.7788
3797.000000 0.7787 0.7786 0.7786 0.7786
##END=
