##TITLE=Oxadiazole, 1,2,4-, 5-(5-nitrofuran-2-yl)-3-(4-pyridinyl)-
##JCAMP-DX=4.24
##DATA TYPE=INFRARED SPECTRUM
##CLASS=COBLENTZ III
##ORIGIN=ABBOTT LABORATORIES - WASHBURN
##OWNER=Copyright (C) 1987 by the Coblentz Society
Collection (C) 2018 copyright by the U.S. Secretary of Commerce
on behalf of the United States of America. All rights reserved.
##DATE=1963/10/11
##NAMES=4-[5-(5-nitro-2-furyl)-1,2,4-oxadiazol-3-yl]pyridine
##MOLFORM=C11 H6 N4 O4
##MP=152 C
##SOURCE REFERENCE=COBLENTZ NO. 9059
##$NIST ID=B6009059
##$NIST SOURCE=COBLENTZ
##$NIST IMAGE=cob9059
##SPECTROMETER/DATA SYSTEM=PERKIN-ELMER 21, NaCl PRISM
##STATE=SOLUTION (7% CHCl3) VS SOLVENT
$$ PURITY MORE THAN 95%
##PATH LENGTH=0.01 CM
$$SPECTRAL CONTAMINATION DUE TO INACTIVE CHCl3 AROUND 1200, AND BELOW 800 CM^-^1
##SAMPLING PROCEDURE=TRANSMISSION
##RESOLUTION=2
##DATA PROCESSING=DIGITIZED BY COBLENTZ SOCIETY (BATCH II) FROM HARD COPY
##XUNITS=1/CM
##YUNITS=TRANSMITTANCE
##XFACTOR=1.0
##YFACTOR=1
##FIRSTX=803
##LASTX=4000
##FIRSTY=0.9754
##MAXX=4000
##MINX=803
##MAXY=1.0007
##MINY=0.0086
##NPOINTS=3198
##XYDATA=(X++(Y..Y))
803.000000 0.9754 0.9353 0.8897 0.8443 0.7991
808.000000 0.7379 0.6856 0.5899 0.4102 0.2333
813.000000 0.2035 0.2050 0.3064 0.3724 0.4026
818.000000 0.4207 0.4703 0.5521 0.5860 0.6689
823.000000 0.7270 0.7549 0.7653 0.7683 0.7657
828.000000 0.7595 0.7444 0.7081 0.6779 0.6514
833.000000 0.6251 0.4511 0.4069 0.4006 0.4006
838.000000 0.4843 0.5626 0.6407 0.7341 0.8083
843.000000 0.8480 0.8788 0.8825 0.9154 0.9303
848.000000 0.9389 0.9402 0.9385 0.9352 0.9305
853.000000 0.9249 0.9198 0.9153 0.9110 0.9079
858.000000 0.9050 0.9031 0.9017 0.9007 0.8995
863.000000 0.8980 0.8961 0.8942 0.8924 0.8909
868.000000 0.8895 0.8881 0.8868 0.8860 0.8859
873.000000 0.8843 0.8835 0.8830 0.8825 0.8820
878.000000 0.8815 0.8809 0.8800 0.8792 0.8784
883.000000 0.8775 0.8759 0.8741 0.8724 0.8706
888.000000 0.8686 0.8667 0.8647 0.8623 0.8596
893.000000 0.8569 0.8533 0.8496 0.8453 0.8408
898.000000 0.8360 0.8310 0.8260 0.8207 0.8143
903.000000 0.8073 0.7993 0.7896 0.7788 0.7670
908.000000 0.7481 0.7231 0.6667 0.5593 0.4531
913.000000 0.4455 0.4473 0.5668 0.6462 0.7254
918.000000 0.7812 0.8032 0.8334 0.8859 0.9206
923.000000 0.9417 0.9548 0.9620 0.9643 0.9642
928.000000 0.9632 0.9604 0.9563 0.9487 0.9404
933.000000 0.9326 0.9243 0.9158 0.9090 0.9036
938.000000 0.8989 0.8953 0.8929 0.8909 0.8892
943.000000 0.8875 0.8867 0.8859 0.8849 0.8839
948.000000 0.8830 0.8820 0.8802 0.8771 0.8733
953.000000 0.8690 0.8641 0.8589 0.8529 0.8450
958.000000 0.8345 0.8217 0.8034 0.7796 0.7578
963.000000 0.7225 0.6872 0.6520 0.6098 0.5861
968.000000 0.5872 0.5913 0.6014 0.6136 0.6472
973.000000 0.7203 0.7597 0.8028 0.8396 0.8461
978.000000 0.8488 0.8513 0.8523 0.8522 0.8513
983.000000 0.8504 0.8490 0.8450 0.8400 0.8302
988.000000 0.8119 0.7692 0.6976 0.6310 0.6272
993.000000 0.6493 0.6901 0.7309 0.7541 0.7543
998.000000 0.7337 0.7093 0.6849 0.6762 0.7331
1003.000000 0.8018 0.8420 0.8443 0.8435 0.8390
1008.000000 0.8311 0.8191 0.8069 0.7926 0.7741
1013.000000 0.7404 0.6911 0.6188 0.5206 0.4226
1018.000000 0.3274 0.3121 0.3137 0.3705 0.4752
1023.000000 0.5798 0.6842 0.7937 0.8176 0.8401
1028.000000 0.8563 0.8708 0.8774 0.8818 0.8834
1033.000000 0.8841 0.8848 0.8851 0.8853 0.8854
1038.000000 0.8874 0.8852 0.8852 0.8852 0.8850
1043.000000 0.8846 0.8843 0.8841 0.8838 0.8832
1048.000000 0.8825 0.8819 0.8813 0.8807 0.8800
1053.000000 0.8788 0.8776 0.8761 0.8743 0.8724
1058.000000 0.8688 0.8632 0.8561 0.8479 0.8382
1063.000000 0.8207 0.7850 0.7495 0.7139 0.6793
1068.000000 0.6774 0.7026 0.8117 0.8596 0.8651
1073.000000 0.8687 0.8707 0.8713 0.8716 0.8713
1078.000000 0.8708 0.8699 0.8691 0.8681 0.8670
1083.000000 0.8657 0.8644 0.8633 0.8621 0.8614
1088.000000 0.8615 0.8614 0.8612 0.8609 0.8596
1093.000000 0.8569 0.8533 0.8505 0.8485 0.8478
1098.000000 0.8471 0.8466 0.8465 0.8465 0.8468
1103.000000 0.8479 0.8504 0.8538 0.8582 0.8622
1108.000000 0.8651 0.8666 0.8674 0.8681 0.8687
1113.000000 0.8692 0.8703 0.8728 0.8756 0.8782
1118.000000 0.8788 0.8791 0.8791 0.8799 0.8783
1123.000000 0.8777 0.8769 0.8761 0.8748 0.8733
1128.000000 0.8718 0.8693 0.8666 0.8638 0.8607
1133.000000 0.8576 0.8544 0.8511 0.8466 0.8369
1138.000000 0.8237 0.7947 0.7633 0.7050 0.6400
1143.000000 0.6236 0.6224 0.6221 0.6426 0.6594
1148.000000 0.6768 0.7392 0.8098 0.8599 0.8700
1153.000000 0.8772 0.8827 0.8873 0.8912 0.8949
1158.000000 0.8969 0.8989 0.9009 0.9020 0.9029
1163.000000 0.9037 0.9045 0.9050 0.9053 0.9058
1168.000000 0.9057 0.9055 0.9052 0.9046 0.9041
1173.000000 0.9034 0.9026 0.9013 0.9000 0.8990
1178.000000 0.8982 0.8980 0.8982 0.8990 0.9019
1183.000000 0.9061 0.9158 0.9306 0.9446 0.9655
1188.000000 0.9849 0.9937 0.9979 1.0001 1.0007
1193.000000 1.0006 1.0002 0.9999 0.9993 0.9979
1198.000000 0.9857 0.9699 0.9541 0.9383 0.9225
1203.000000 0.9069 0.8899 0.8812 0.8751 0.8715
1208.000000 0.8695 0.8683 0.8684 0.8687 0.8689
1213.000000 0.8691 0.8694 0.8697 0.8700 0.8701
1218.000000 0.8702 0.8702 0.8702 0.8701 0.8700
1223.000000 0.8699 0.8689 0.8672 0.8632 0.8575
1228.000000 0.8506 0.8433 0.8349 0.8259 0.8183
1233.000000 0.8111 0.8023 0.7930 0.7837 0.7744
1238.000000 0.7644 0.7541 0.7439 0.7164 0.6880
1243.000000 0.6597 0.6314 0.6030 0.5779 0.5677
1248.000000 0.5664 0.5651 0.5875 0.6196 0.6517
1253.000000 0.6837 0.7157 0.7477 0.7739 0.7809
1258.000000 0.7839 0.7850 0.7854 0.7842 0.7826
1263.000000 0.7804 0.7781 0.7751 0.7710 0.7662
1268.000000 0.7611 0.7558 0.7501 0.7442 0.7378
1273.000000 0.7299 0.7210 0.7101 0.6935 0.6745
1278.000000 0.6597 0.6457 0.6294 0.6098 0.5900
1283.000000 0.5699 0.5567 0.5512 0.5504 0.5506
1288.000000 0.5503 0.5521 0.5578 0.5725 0.6004
1293.000000 0.6188 0.6537 0.6921 0.7110 0.7145
1298.000000 0.7153 0.7158 0.7140 0.7102 0.7026
1303.000000 0.6910 0.6672 0.6416 0.6094 0.5772
1308.000000 0.5132 0.4434 0.3822 0.3211 0.2599
1313.000000 0.1990 0.1526 0.1472 0.1627 0.2348
1318.000000 0.3124 0.3900 0.4675 0.5305 0.5449
1323.000000 0.5459 0.5446 0.5430 0.5406 0.5369
1328.000000 0.5325 0.5280 0.5229 0.5158 0.5076
1333.000000 0.4968 0.4823 0.4681 0.4531 0.4313
1338.000000 0.4022 0.3797 0.3205 0.2710 0.2217
1343.000000 0.1723 0.1231 0.0739 0.0419 0.0298
1348.000000 0.0199 0.0153 0.0129 0.0115 0.0109
1353.000000 0.0086 0.0126 0.0158 0.0197 0.0237
1358.000000 0.0275 0.0313 0.0353 0.0422 0.0715
1363.000000 0.0844 0.0915 0.0982 0.1135 0.1607
1368.000000 0.2197 0.2792 0.3387 0.3981 0.4573
1373.000000 0.4925 0.5059 0.5080 0.5088 0.4947
1378.000000 0.4738 0.4529 0.4321 0.4113 0.3906
1383.000000 0.3651 0.3659 0.3701 0.3977 0.4260
1388.000000 0.4543 0.4826 0.5099 0.5266 0.5379
1393.000000 0.5517 0.5652 0.5770 0.5977 0.6305
1398.000000 0.6337 0.6344 0.6343 0.6320 0.6293
1403.000000 0.6225 0.6048 0.5871 0.5696 0.5520
1408.000000 0.5343 0.5168 0.4992 0.4834 0.4709
1413.000000 0.4405 0.3883 0.3327 0.2772 0.2314
1418.000000 0.2224 0.2224 0.3164 0.3929 0.4694
1423.000000 0.5456 0.6218 0.6978 0.7738 0.8393
1428.000000 0.8449 0.8451 0.8451 0.8442 0.8423
1433.000000 0.8361 0.8280 0.8182 0.8077 0.7971
1438.000000 0.7866 0.7761 0.7656 0.7553 0.7467
1443.000000 0.7383 0.7224 0.6898 0.6535 0.6210
1448.000000 0.6085 0.6087 0.6213 0.6542 0.6841
1453.000000 0.6904 0.6912 0.6916 0.6922 0.6902
1458.000000 0.6881 0.6857 0.6828 0.6799 0.6778
1463.000000 0.6762 0.6752 0.6743 0.6737 0.6731
1468.000000 0.6724 0.6715 0.6684 0.6620 0.6531
1473.000000 0.6442 0.6238 0.6006 0.5775 0.5544
1478.000000 0.5313 0.5083 0.4911 0.4854 0.4846
1483.000000 0.4842 0.4850 0.4866 0.4891 0.4924
1488.000000 0.4951 0.4977 0.4963 0.4947 0.4896
1493.000000 0.4838 0.4779 0.4721 0.4663 0.4653
1498.000000 0.4654 0.4646 0.4657 0.4786 0.5161
1503.000000 0.5602 0.6042 0.6320 0.6442 0.6534
1508.000000 0.6563 0.6593 0.6620 0.6634 0.6639
1513.000000 0.6629 0.6487 0.6153 0.5786 0.5420
1518.000000 0.5054 0.4690 0.4325 0.3960 0.3597
1523.000000 0.3250 0.3015 0.2838 0.2644 0.2439
1528.000000 0.2126 0.1835 0.1670 0.1557 0.1451
1533.000000 0.1349 0.1289 0.1279 0.1275 0.1277
1538.000000 0.1282 0.1528 0.2016 0.2541 0.3064
1543.000000 0.3586 0.4108 0.4629 0.5150 0.5669
1548.000000 0.6183 0.6247 0.6269 0.6277 0.6284
1553.000000 0.6287 0.6282 0.6294 0.6215 0.6002
1558.000000 0.5676 0.5351 0.5026 0.4701 0.4377
1563.000000 0.4054 0.3783 0.3676 0.3669 0.3666
1568.000000 0.3666 0.3654 0.3677 0.3689 0.3679
1573.000000 0.3636 0.3581 0.3527 0.3473 0.3420
1578.000000 0.3402 0.3404 0.3416 0.3628 0.4023
1583.000000 0.4456 0.4889 0.5321 0.5753 0.6184
1588.000000 0.6614 0.6953 0.7099 0.7178 0.7274
1593.000000 0.7408 0.7591 0.7702 0.7751 0.7780
1598.000000 0.7795 0.7784 0.7778 0.7766 0.7751
1603.000000 0.7720 0.7672 0.7611 0.7528 0.7436
1608.000000 0.7342 0.7248 0.7154 0.7060 0.6967
1613.000000 0.6876 0.6816 0.6826 0.6873 0.6910
1618.000000 0.6938 0.6958 0.6965 0.6966 0.6953
1623.000000 0.6872 0.6760 0.6649 0.6538 0.6427
1628.000000 0.6198 0.5767 0.5288 0.4810 0.4332
1633.000000 0.3855 0.3413 0.3383 0.3385 0.3612
1638.000000 0.3931 0.4266 0.4536 0.4637 0.4639
1643.000000 0.4547 0.4444 0.4340 0.4237 0.4134
1648.000000 0.4031 0.3997 0.3998 0.4025 0.5103
1653.000000 0.5782 0.6862 0.7638 0.7709 0.7779
1658.000000 0.7846 0.7906 0.7965 0.8026 0.8126
1663.000000 0.8202 0.8255 0.8301 0.8344 0.8382
1668.000000 0.8415 0.8448 0.8481 0.8514 0.8538
1673.000000 0.8562 0.8585 0.8609 0.8633 0.8654
1678.000000 0.8670 0.8682 0.8693 0.8705 0.8716
1683.000000 0.8726 0.8733 0.8737 0.8742 0.8746
1688.000000 0.8751 0.8746 0.8739 0.8732 0.8726
1693.000000 0.8719 0.8713 0.8709 0.8705 0.8700
1698.000000 0.8696 0.8692 0.8688 0.8686 0.8684
1703.000000 0.8681 0.8679 0.8676 0.8677 0.8680
1708.000000 0.8684 0.8688 0.8693 0.8705 0.8719
1713.000000 0.8733 0.8747 0.8763 0.8781 0.8801
1718.000000 0.8821 0.8841 0.8865 0.8891 0.8910
1723.000000 0.8907 0.8900 0.8894 0.8888 0.8882
1728.000000 0.8876 0.8872 0.8869 0.8865 0.8861
1733.000000 0.8864 0.8875 0.8887 0.8904 0.8921
1738.000000 0.8927 0.8925 0.8922 0.8918 0.8915
1743.000000 0.8912 0.8908 0.8905 0.8902 0.8901
1748.000000 0.8900 0.8899 0.8898 0.8897 0.8896
1753.000000 0.8896 0.8895 0.8894 0.8893 0.8892
1758.000000 0.8892 0.8891 0.8889 0.8887 0.8884
1763.000000 0.8881 0.8877 0.8874 0.8865 0.8848
1768.000000 0.8831 0.8814 0.8798 0.8786 0.8775
1773.000000 0.8764 0.8753 0.8748 0.8747 0.8747
1778.000000 0.8747 0.8747 0.8746 0.8745 0.8751
1783.000000 0.8744 0.8744 0.8747 0.8751 0.8755
1788.000000 0.8758 0.8762 0.8767 0.8772 0.8777
1793.000000 0.8782 0.8790 0.8799 0.8812 0.8824
1798.000000 0.8836 0.8847 0.8858 0.8870 0.8881
1803.000000 0.8890 0.8897 0.8902 0.8908 0.8914
1808.000000 0.8920 0.8926 0.8930 0.8934 0.8937
1813.000000 0.8940 0.8944 0.8947 0.8950 0.8953
1818.000000 0.8954 0.8956 0.8957 0.8959 0.8960
1823.000000 0.8962 0.8963 0.8964 0.8965 0.8967
1828.000000 0.8968 0.8970 0.8971 0.8972 0.8973
1833.000000 0.8974 0.8974 0.8974 0.8974 0.8974
1838.000000 0.8974 0.8974 0.8974 0.8974 0.8974
1843.000000 0.8974 0.8974 0.8974 0.8975 0.8975
1848.000000 0.8975 0.8975 0.8975 0.8975 0.8975
1853.000000 0.8975 0.8975 0.8975 0.8975 0.8975
1858.000000 0.8974 0.8973 0.8973 0.8973 0.8972
1863.000000 0.8972 0.8976 0.8985 0.8995 0.9006
1868.000000 0.9017 0.9028 0.9039 0.9050 0.9060
1873.000000 0.9068 0.9070 0.9072 0.9073 0.9075
1878.000000 0.9077 0.9079 0.9080 0.9080 0.9081
1883.000000 0.9081 0.9081 0.9081 0.9081 0.9081
1888.000000 0.9081 0.9081 0.9081 0.9081 0.9080
1893.000000 0.9079 0.9077 0.9077 0.9076 0.9075
1898.000000 0.9075 0.9074 0.9074 0.9074 0.9073
1903.000000 0.9073 0.9073 0.9072 0.9072 0.9071
1908.000000 0.9071 0.9069 0.9067 0.9065 0.9064
1913.000000 0.9062 0.9060 0.9058 0.9056 0.9055
1918.000000 0.9052 0.9048 0.9044 0.9039 0.9035
1923.000000 0.9031 0.9027 0.9022 0.9018 0.9012
1928.000000 0.9007 0.9001 0.8995 0.8989 0.8983
1933.000000 0.8977 0.8972 0.8966 0.8961 0.8956
1938.000000 0.8950 0.8946 0.8941 0.8935 0.8930
1943.000000 0.8927 0.8926 0.8925 0.8924 0.8923
1948.000000 0.8921 0.8920 0.8920 0.8918 0.8918
1953.000000 0.8919 0.8923 0.8927 0.8930 0.8934
1958.000000 0.8937 0.8941 0.8947 0.8955 0.8964
1963.000000 0.8973 0.8982 0.8992 0.9004 0.9017
1968.000000 0.9029 0.9042 0.9055 0.9068 0.9080
1973.000000 0.9092 0.9105 0.9115 0.9122 0.9128
1978.000000 0.9134 0.9136 0.9137 0.9135 0.9134
1983.000000 0.9133 0.9133 0.9131 0.9130 0.9130
1988.000000 0.9129 0.9127 0.9127 0.9126 0.9125
1993.000000 0.9124 0.9123 0.9123 0.9122 0.9120
1998.000000 0.9120 0.9119 0.9119 0.9117 0.9116
2003.000000 0.9116 0.9115 0.9114 0.9113 0.9112
2008.000000 0.9112 0.9111 0.9110 0.9109 0.9108
2013.000000 0.9107 0.9107 0.9106 0.9106 0.9104
2018.000000 0.9103 0.9103 0.9102 0.9102 0.9100
2023.000000 0.9099 0.9099 0.9097 0.9095 0.9094
2028.000000 0.9093 0.9091 0.9090 0.9088 0.9086
2033.000000 0.9085 0.9084 0.9082 0.9080 0.9079
2038.000000 0.9078 0.9076 0.9074 0.9073 0.9071
2043.000000 0.9070 0.9069 0.9067 0.9065 0.9064
2048.000000 0.9064 0.9066 0.9069 0.9072 0.9074
2053.000000 0.9077 0.9080 0.9082 0.9085 0.9088
2058.000000 0.9090 0.9093 0.9095 0.9097 0.9100
2063.000000 0.9102 0.9102 0.9103 0.9103 0.9104
2068.000000 0.9105 0.9105 0.9106 0.9106 0.9107
2073.000000 0.9107 0.9107 0.9108 0.9108 0.9108
2078.000000 0.9108 0.9109 0.9109 0.9109 0.9109
2083.000000 0.9109 0.9108 0.9108 0.9108 0.9107
2088.000000 0.9107 0.9105 0.9102 0.9098 0.9095
2093.000000 0.9091 0.9088 0.9085 0.9082 0.9079
2098.000000 0.9076 0.9073 0.9069 0.9066 0.9063
2103.000000 0.9060 0.9058 0.9054 0.9051 0.9048
2108.000000 0.9045 0.9044 0.9042 0.9042 0.9041
2113.000000 0.9040 0.9039 0.9039 0.9037 0.9037
2118.000000 0.9037 0.9037 0.9037 0.9036 0.9036
2123.000000 0.9036 0.9036 0.9036 0.9036 0.9036
2128.000000 0.9035 0.9035 0.9035 0.9035 0.9035
2133.000000 0.9035 0.9035 0.9034 0.9034 0.9034
2138.000000 0.9034 0.9033 0.9033 0.9032 0.9032
2143.000000 0.9031 0.9031 0.9031 0.9030 0.9030
2148.000000 0.9029 0.9029 0.9028 0.9028 0.9027
2153.000000 0.9027 0.9026 0.9026 0.9026 0.9026
2158.000000 0.9025 0.9024 0.9024 0.9024 0.9024
2163.000000 0.9023 0.9023 0.9023 0.9023 0.9023
2168.000000 0.9023 0.9022 0.9022 0.9022 0.9022
2173.000000 0.9022 0.9021 0.9021 0.9021 0.9021
2178.000000 0.9020 0.9020 0.9020 0.9020 0.9019
2183.000000 0.9019 0.9018 0.9018 0.9018 0.9018
2188.000000 0.9017 0.9017 0.9016 0.9016 0.9016
2193.000000 0.9015 0.9015 0.9014 0.9014 0.9013
2198.000000 0.9012 0.9011 0.9010 0.9009 0.9008
2203.000000 0.9007 0.9006 0.9005 0.9004 0.9003
2208.000000 0.9002 0.9001 0.9000 0.8999 0.8998
2213.000000 0.8997 0.8996 0.8995 0.8994 0.8992
2218.000000 0.8991 0.8990 0.8989 0.8988 0.8987
2223.000000 0.8986 0.8985 0.8984 0.8983 0.8982
2228.000000 0.8981 0.8980 0.8979 0.8978 0.8977
2233.000000 0.8976 0.8976 0.8975 0.8974 0.8973
2238.000000 0.8972 0.8971 0.8970 0.8969 0.8969
2243.000000 0.8968 0.8967 0.8966 0.8965 0.8963
2248.000000 0.8962 0.8960 0.8959 0.8957 0.8955
2253.000000 0.8953 0.8952 0.8950 0.8948 0.8947
2258.000000 0.8946 0.8945 0.8944 0.8943 0.8943
2263.000000 0.8942 0.8942 0.8942 0.8942 0.8941
2268.000000 0.8941 0.8941 0.8941 0.8940 0.8940
2273.000000 0.8940 0.8940 0.8939 0.8939 0.8938
2278.000000 0.8931 0.8925 0.8919 0.8914 0.8907
2283.000000 0.8901 0.8895 0.8890 0.8878 0.8866
2288.000000 0.8853 0.8840 0.8824 0.8807 0.8797
2293.000000 0.8791 0.8788 0.8790 0.8791 0.8793
2298.000000 0.8797 0.8808 0.8819 0.8836 0.8852
2303.000000 0.8871 0.8891 0.8905 0.8919 0.8931
2308.000000 0.8943 0.8954 0.8965 0.8974 0.8983
2313.000000 0.8991 0.9000 0.9008 0.9013 0.9019
2318.000000 0.9025 0.9031 0.9036 0.9042 0.9047
2323.000000 0.9052 0.9058 0.9063 0.9069 0.9074
2328.000000 0.9079 0.9084 0.9090 0.9096 0.9102
2333.000000 0.9108 0.9113 0.9119 0.9125 0.9131
2338.000000 0.9136 0.9141 0.9145 0.9149 0.9153
2343.000000 0.9157 0.9162 0.9167 0.9171 0.9175
2348.000000 0.9180 0.9187 0.9193 0.9198 0.9202
2353.000000 0.9204 0.9205 0.9208 0.9210 0.9212
2358.000000 0.9214 0.9216 0.9217 0.9218 0.9218
2363.000000 0.9217 0.9217 0.9217 0.9217 0.9217
2368.000000 0.9216 0.9216 0.9216 0.9216 0.9216
2373.000000 0.9216 0.9216 0.9220 0.9225 0.9230
2378.000000 0.9235 0.9242 0.9252 0.9262 0.9274
2383.000000 0.9285 0.9303 0.9323 0.9343 0.9363
2388.000000 0.9382 0.9398 0.9415 0.9425 0.9436
2393.000000 0.9445 0.9454 0.9460 0.9463 0.9466
2398.000000 0.9467 0.9468 0.9469 0.9469 0.9469
2403.000000 0.9469 0.9470 0.9470 0.9470 0.9458
2408.000000 0.9443 0.9406 0.9349 0.9296 0.9263
2413.000000 0.9230 0.9204 0.9180 0.9159 0.9141
2418.000000 0.9124 0.9110 0.9096 0.9082 0.9067
2423.000000 0.9052 0.9038 0.9023 0.9011 0.8998
2428.000000 0.8985 0.8973 0.8961 0.8948 0.8935
2433.000000 0.8923 0.8911 0.8901 0.8891 0.8882
2438.000000 0.8872 0.8863 0.8853 0.8843 0.8834
2443.000000 0.8825 0.8817 0.8809 0.8801 0.8794
2448.000000 0.8787 0.8781 0.8776 0.8770 0.8765
2453.000000 0.8759 0.8754 0.8749 0.8745 0.8741
2458.000000 0.8736 0.8733 0.8729 0.8725 0.8722
2463.000000 0.8719 0.8716 0.8713 0.8710 0.8707
2468.000000 0.8704 0.8701 0.8699 0.8696 0.8695
2473.000000 0.8693 0.8692 0.8691 0.8689 0.8688
2478.000000 0.8686 0.8685 0.8684 0.8682 0.8681
2483.000000 0.8679 0.8678 0.8677 0.8676 0.8675
2488.000000 0.8674 0.8673 0.8672 0.8671 0.8670
2493.000000 0.8669 0.8668 0.8667 0.8666 0.8665
2498.000000 0.8664 0.8663 0.8662 0.8661 0.8660
2503.000000 0.8659 0.8659 0.8659 0.8658 0.8657
2508.000000 0.8656 0.8656 0.8656 0.8655 0.8654
2513.000000 0.8653 0.8653 0.8653 0.8652 0.8652
2518.000000 0.8651 0.8650 0.8650 0.8650 0.8651
2523.000000 0.8652 0.8653 0.8653 0.8654 0.8654
2528.000000 0.8655 0.8655 0.8656 0.8657 0.8658
2533.000000 0.8659 0.8659 0.8660 0.8661 0.8663
2538.000000 0.8664 0.8668 0.8673 0.8677 0.8682
2543.000000 0.8686 0.8691 0.8695 0.8699 0.8704
2548.000000 0.8709 0.8713 0.8718 0.8722 0.8727
2553.000000 0.8732 0.8736 0.8740 0.8745 0.8748
2558.000000 0.8752 0.8755 0.8758 0.8761 0.8763
2563.000000 0.8765 0.8767 0.8769 0.8770 0.8772
2568.000000 0.8774 0.8776 0.8777 0.8779 0.8780
2573.000000 0.8782 0.8784 0.8786 0.8788 0.8789
2578.000000 0.8790 0.8791 0.8792 0.8793 0.8794
2583.000000 0.8795 0.8796 0.8796 0.8797 0.8798
2588.000000 0.8799 0.8799 0.8800 0.8800 0.8800
2593.000000 0.8800 0.8799 0.8798 0.8798 0.8797
2598.000000 0.8797 0.8796 0.8796 0.8796 0.8795
2603.000000 0.8794 0.8794 0.8793 0.8793 0.8792
2608.000000 0.8792 0.8792 0.8791 0.8790 0.8790
2613.000000 0.8789 0.8788 0.8788 0.8787 0.8786
2618.000000 0.8785 0.8785 0.8785 0.8784 0.8783
2623.000000 0.8783 0.8782 0.8781 0.8781 0.8780
2628.000000 0.8779 0.8778 0.8778 0.8777 0.8776
2633.000000 0.8775 0.8774 0.8773 0.8771 0.8770
2638.000000 0.8769 0.8767 0.8766 0.8765 0.8764
2643.000000 0.8763 0.8762 0.8760 0.8759 0.8758
2648.000000 0.8757 0.8756 0.8755 0.8754 0.8752
2653.000000 0.8751 0.8749 0.8748 0.8747 0.8746
2658.000000 0.8745 0.8744 0.8743 0.8741 0.8740
2663.000000 0.8739 0.8738 0.8738 0.8737 0.8736
2668.000000 0.8736 0.8735 0.8734 0.8733 0.8733
2673.000000 0.8732 0.8731 0.8730 0.8729 0.8728
2678.000000 0.8728 0.8727 0.8726 0.8725 0.8725
2683.000000 0.8724 0.8723 0.8723 0.8722 0.8721
2688.000000 0.8720 0.8719 0.8718 0.8717 0.8716
2693.000000 0.8714 0.8713 0.8712 0.8711 0.8710
2698.000000 0.8709 0.8708 0.8707 0.8706 0.8705
2703.000000 0.8704 0.8703 0.8702 0.8701 0.8700
2708.000000 0.8699 0.8698 0.8697 0.8696 0.8695
2713.000000 0.8694 0.8693 0.8692 0.8691 0.8690
2718.000000 0.8689 0.8688 0.8687 0.8686 0.8685
2723.000000 0.8684 0.8683 0.8682 0.8682 0.8681
2728.000000 0.8681 0.8681 0.8680 0.8680 0.8680
2733.000000 0.8679 0.8679 0.8679 0.8678 0.8678
2738.000000 0.8678 0.8677 0.8677 0.8677 0.8676
2743.000000 0.8676 0.8676 0.8675 0.8675 0.8675
2748.000000 0.8674 0.8674 0.8674 0.8673 0.8673
2753.000000 0.8673 0.8672 0.8672 0.8672 0.8672
2758.000000 0.8672 0.8672 0.8672 0.8672 0.8672
2763.000000 0.8672 0.8672 0.8672 0.8672 0.8672
2768.000000 0.8672 0.8672 0.8672 0.8672 0.8672
2773.000000 0.8672 0.8672 0.8673 0.8673 0.8673
2778.000000 0.8673 0.8673 0.8673 0.8674 0.8674
2783.000000 0.8675 0.8676 0.8676 0.8677 0.8677
2788.000000 0.8678 0.8679 0.8680 0.8681 0.8682
2793.000000 0.8682 0.8683 0.8684 0.8684 0.8685
2798.000000 0.8686 0.8686 0.8687 0.8688 0.8690
2803.000000 0.8691 0.8693 0.8695 0.8697 0.8699
2808.000000 0.8701 0.8703 0.8704 0.8706 0.8707
2813.000000 0.8709 0.8711 0.8713 0.8715 0.8717
2818.000000 0.8719 0.8720 0.8722 0.8724 0.8726
2823.000000 0.8728 0.8730 0.8732 0.8734 0.8736
2828.000000 0.8738 0.8741 0.8743 0.8745 0.8747
2833.000000 0.8749 0.8751 0.8753 0.8755 0.8757
2838.000000 0.8759 0.8761 0.8763 0.8765 0.8766
2843.000000 0.8768 0.8769 0.8771 0.8772 0.8774
2848.000000 0.8775 0.8777 0.8779 0.8780 0.8782
2853.000000 0.8783 0.8785 0.8786 0.8788 0.8789
2858.000000 0.8791 0.8792 0.8794 0.8795 0.8797
2863.000000 0.8798 0.8800 0.8801 0.8802 0.8804
2868.000000 0.8805 0.8806 0.8807 0.8808 0.8809
2873.000000 0.8810 0.8811 0.8812 0.8813 0.8814
2878.000000 0.8815 0.8816 0.8817 0.8818 0.8818
2883.000000 0.8818 0.8818 0.8816 0.8814 0.8812
2888.000000 0.8810 0.8808 0.8806 0.8803 0.8800
2893.000000 0.8797 0.8794 0.8791 0.8788 0.8785
2898.000000 0.8779 0.8773 0.8767 0.8761 0.8756
2903.000000 0.8750 0.8744 0.8739 0.8733 0.8727
2908.000000 0.8721 0.8716 0.8710 0.8704 0.8698
2913.000000 0.8693 0.8687 0.8680 0.8673 0.8666
2918.000000 0.8658 0.8651 0.8644 0.8636 0.8629
2923.000000 0.8622 0.8614 0.8607 0.8600 0.8592
2928.000000 0.8585 0.8577 0.8570 0.8562 0.8555
2933.000000 0.8548 0.8540 0.8533 0.8525 0.8518
2938.000000 0.8510 0.8503 0.8495 0.8488 0.8479
2943.000000 0.8471 0.8462 0.8453 0.8445 0.8436
2948.000000 0.8427 0.8419 0.8410 0.8402 0.8391
2953.000000 0.8379 0.8367 0.8355 0.8341 0.8327
2958.000000 0.8313 0.8299 0.8285 0.8271 0.8257
2963.000000 0.8220 0.8181 0.8143 0.8103 0.8063
2968.000000 0.8023 0.7982 0.7942 0.7902 0.7862
2973.000000 0.7822 0.7781 0.7741 0.7701 0.7661
2978.000000 0.7621 0.7581 0.7541 0.7501 0.7462
2983.000000 0.7422 0.7382 0.7343 0.7303 0.7263
2988.000000 0.7223 0.7183 0.7144 0.7106 0.7071
2993.000000 0.7036 0.7001 0.6985 0.6968 0.6952
2998.000000 0.6939 0.6931 0.6923 0.6915 0.6908
3003.000000 0.6902 0.6896 0.6890 0.6889 0.6887
3008.000000 0.6885 0.6884 0.6882 0.6881 0.6880
3013.000000 0.6881 0.6882 0.6883 0.6885 0.6889
3018.000000 0.6893 0.6897 0.6890 0.7004 0.7066
3023.000000 0.7129 0.7201 0.7272 0.7343 0.7415
3028.000000 0.7486 0.7557 0.7628 0.7699 0.7770
3033.000000 0.7841 0.7912 0.7983 0.8053 0.8124
3038.000000 0.8187 0.8234 0.8281 0.8328 0.8350
3043.000000 0.8358 0.8366 0.8374 0.8381 0.8388
3048.000000 0.8395 0.8401 0.8404 0.8408 0.8411
3053.000000 0.8413 0.8415 0.8417 0.8419 0.8421
3058.000000 0.8422 0.8424 0.8425 0.8425 0.8425
3063.000000 0.8425 0.8424 0.8424 0.8424 0.8424
3068.000000 0.8419 0.8423 0.8423 0.8423 0.8422
3073.000000 0.8421 0.8420 0.8420 0.8418 0.8417
3078.000000 0.8416 0.8414 0.8413 0.8412 0.8410
3083.000000 0.8409 0.8407 0.8406 0.8404 0.8403
3088.000000 0.8401 0.8399 0.8398 0.8395 0.8393
3093.000000 0.8390 0.8388 0.8385 0.8382 0.8379
3098.000000 0.8376 0.8372 0.8369 0.8365 0.8361
3103.000000 0.8358 0.8354 0.8350 0.8346 0.8342
3108.000000 0.8338 0.8333 0.8329 0.8324 0.8320
3113.000000 0.8315 0.8309 0.8303 0.8297 0.8291
3118.000000 0.8280 0.8268 0.8256 0.8245 0.8231
3123.000000 0.8216 0.8202 0.8188 0.8173 0.8159
3128.000000 0.8145 0.8131 0.8117 0.8103 0.8088
3133.000000 0.8074 0.8060 0.8046 0.8031 0.8017
3138.000000 0.8003 0.7989 0.7975 0.7961 0.7947
3143.000000 0.7933 0.7919 0.7905 0.7890 0.7876
3148.000000 0.7862 0.7848 0.7834 0.7820 0.7806
3153.000000 0.7792 0.7779 0.7765 0.7752 0.7743
3158.000000 0.7738 0.7734 0.7729 0.7726 0.7724
3163.000000 0.7723 0.7721 0.7720 0.7719 0.7718
3168.000000 0.7717 0.7717 0.7718 0.7718 0.7719
3173.000000 0.7728 0.7728 0.7733 0.7739 0.7753
3178.000000 0.7782 0.7810 0.7839 0.7867 0.7895
3183.000000 0.7924 0.7952 0.7981 0.8009 0.8037
3188.000000 0.8066 0.8094 0.8122 0.8150 0.8179
3193.000000 0.8207 0.8235 0.8263 0.8291 0.8319
3198.000000 0.8348 0.8376 0.8404 0.8432 0.8461
3203.000000 0.8490 0.8520 0.8549 0.8561 0.8570
3208.000000 0.8580 0.8589 0.8595 0.8600 0.8605
3213.000000 0.8610 0.8614 0.8617 0.8621 0.8625
3218.000000 0.8628 0.8630 0.8633 0.8636 0.8639
3223.000000 0.8641 0.8644 0.8647 0.8650 0.8651
3228.000000 0.8652 0.8653 0.8655 0.8656 0.8657
3233.000000 0.8659 0.8660 0.8661 0.8662 0.8663
3238.000000 0.8664 0.8665 0.8666 0.8666 0.8667
3243.000000 0.8668 0.8668 0.8669 0.8669 0.8670
3248.000000 0.8670 0.8671 0.8671 0.8671 0.8671
3253.000000 0.8671 0.8670 0.8670 0.8669 0.8669
3258.000000 0.8669 0.8669 0.8668 0.8668 0.8668
3263.000000 0.8668 0.8667 0.8667 0.8666 0.8666
3268.000000 0.8665 0.8665 0.8665 0.8665 0.8665
3273.000000 0.8664 0.8664 0.8663 0.8663 0.8662
3278.000000 0.8661 0.8661 0.8660 0.8659 0.8659
3283.000000 0.8658 0.8658 0.8658 0.8657 0.8657
3288.000000 0.8656 0.8656 0.8655 0.8655 0.8654
3293.000000 0.8654 0.8653 0.8653 0.8652 0.8652
3298.000000 0.8652 0.8651 0.8651 0.8651 0.8651
3303.000000 0.8650 0.8650 0.8649 0.8649 0.8648
3308.000000 0.8648 0.8648 0.8647 0.8647 0.8646
3313.000000 0.8646 0.8645 0.8645 0.8645 0.8645
3318.000000 0.8645 0.8645 0.8645 0.8645 0.8646
3323.000000 0.8647 0.8647 0.8648 0.8649 0.8650
3328.000000 0.8651 0.8652 0.8652 0.8653 0.8654
3333.000000 0.8655 0.8656 0.8657 0.8657 0.8658
3338.000000 0.8659 0.8660 0.8660 0.8661 0.8662
3343.000000 0.8663 0.8664 0.8664 0.8665 0.8666
3348.000000 0.8666 0.8667 0.8668 0.8668 0.8669
3353.000000 0.8669 0.8670 0.8670 0.8671 0.8671
3358.000000 0.8672 0.8672 0.8672 0.8673 0.8673
3363.000000 0.8673 0.8673 0.8674 0.8674 0.8674
3368.000000 0.8674 0.8674 0.8674 0.8674 0.8674
3373.000000 0.8674 0.8674 0.8674 0.8674 0.8674
3378.000000 0.8674 0.8674 0.8674 0.8674 0.8674
3383.000000 0.8675 0.8675 0.8675 0.8675 0.8675
3388.000000 0.8675 0.8675 0.8675 0.8675 0.8675
3393.000000 0.8676 0.8676 0.8676 0.8676 0.8677
3398.000000 0.8677 0.8677 0.8677 0.8677 0.8677
3403.000000 0.8677 0.8677 0.8677 0.8678 0.8678
3408.000000 0.8678 0.8678 0.8678 0.8678 0.8678
3413.000000 0.8678 0.8678 0.8678 0.8679 0.8679
3418.000000 0.8680 0.8680 0.8681 0.8681 0.8681
3423.000000 0.8681 0.8681 0.8682 0.8682 0.8682
3428.000000 0.8682 0.8682 0.8683 0.8683 0.8684
3433.000000 0.8684 0.8684 0.8685 0.8685 0.8685
3438.000000 0.8685 0.8686 0.8686 0.8687 0.8688
3443.000000 0.8688 0.8689 0.8690 0.8691 0.8691
3448.000000 0.8692 0.8693 0.8694 0.8695 0.8696
3453.000000 0.8696 0.8697 0.8698 0.8699 0.8700
3458.000000 0.8701 0.8702 0.8703 0.8704 0.8705
3463.000000 0.8706 0.8707 0.8707 0.8708 0.8709
3468.000000 0.8710 0.8711 0.8712 0.8712 0.8713
3473.000000 0.8714 0.8715 0.8716 0.8717 0.8717
3478.000000 0.8718 0.8719 0.8720 0.8721 0.8722
3483.000000 0.8723 0.8724 0.8725 0.8726 0.8727
3488.000000 0.8728 0.8728 0.8729 0.8730 0.8731
3493.000000 0.8732 0.8733 0.8734 0.8735 0.8736
3498.000000 0.8737 0.8738 0.8739 0.8740 0.8741
3503.000000 0.8742 0.8744 0.8745 0.8746 0.8747
3508.000000 0.8748 0.8749 0.8750 0.8751 0.8752
3513.000000 0.8754 0.8755 0.8756 0.8757 0.8758
3518.000000 0.8759 0.8760 0.8761 0.8762 0.8763
3523.000000 0.8763 0.8764 0.8764 0.8764 0.8765
3528.000000 0.8765 0.8766 0.8766 0.8766 0.8767
3533.000000 0.8768 0.8768 0.8769 0.8769 0.8769
3538.000000 0.8768 0.8768 0.8767 0.8767 0.8766
3543.000000 0.8765 0.8764 0.8763 0.8763 0.8762
3548.000000 0.8761 0.8760 0.8759 0.8758 0.8757
3553.000000 0.8756 0.8755 0.8754 0.8754 0.8752
3558.000000 0.8751 0.8750 0.8748 0.8747 0.8745
3563.000000 0.8743 0.8742 0.8740 0.8738 0.8736
3568.000000 0.8735 0.8733 0.8732 0.8730 0.8729
3573.000000 0.8728 0.8727 0.8727 0.8726 0.8725
3578.000000 0.8725 0.8725 0.8725 0.8725 0.8725
3583.000000 0.8725 0.8725 0.8725 0.8725 0.8724
3588.000000 0.8724 0.8724 0.8724 0.8724 0.8724
3593.000000 0.8724 0.8724 0.8724 0.8724 0.8724
3598.000000 0.8723 0.8723 0.8723 0.8723 0.8723
3603.000000 0.8723 0.8724 0.8725 0.8725 0.8726
3608.000000 0.8727 0.8728 0.8729 0.8730 0.8731
3613.000000 0.8732 0.8733 0.8734 0.8735 0.8736
3618.000000 0.8737 0.8737 0.8738 0.8739 0.8740
3623.000000 0.8740 0.8742 0.8743 0.8745 0.8746
3628.000000 0.8748 0.8749 0.8751 0.8753 0.8755
3633.000000 0.8756 0.8758 0.8759 0.8761 0.8762
3638.000000 0.8764 0.8765 0.8767 0.8769 0.8771
3643.000000 0.8772 0.8774 0.8776 0.8777 0.8779
3648.000000 0.8780 0.8782 0.8783 0.8785 0.8787
3653.000000 0.8789 0.8791 0.8793 0.8794 0.8796
3658.000000 0.8798 0.8799 0.8801 0.8803 0.8804
3663.000000 0.8806 0.8808 0.8809 0.8813 0.8813
3668.000000 0.8814 0.8816 0.8818 0.8819 0.8821
3673.000000 0.8822 0.8823 0.8825 0.8826 0.8827
3678.000000 0.8828 0.8830 0.8831 0.8832 0.8834
3683.000000 0.8835 0.8836 0.8838 0.8839 0.8840
3688.000000 0.8841 0.8843 0.8844 0.8845 0.8847
3693.000000 0.8848 0.8849 0.8850 0.8852 0.8853
3698.000000 0.8854 0.8855 0.8857 0.8858 0.8859
3703.000000 0.8861 0.8862 0.8862 0.8862 0.8863
3708.000000 0.8863 0.8863 0.8864 0.8864 0.8865
3713.000000 0.8865 0.8865 0.8866 0.8866 0.8866
3718.000000 0.8867 0.8867 0.8867 0.8868 0.8868
3723.000000 0.8868 0.8869 0.8869 0.8869 0.8869
3728.000000 0.8869 0.8868 0.8868 0.8868 0.8867
3733.000000 0.8867 0.8867 0.8866 0.8866 0.8865
3738.000000 0.8865 0.8865 0.8865 0.8865 0.8865
3743.000000 0.8864 0.8864 0.8864 0.8863 0.8863
3748.000000 0.8863 0.8862 0.8862 0.8861 0.8861
3753.000000 0.8861 0.8860 0.8860 0.8859 0.8859
3758.000000 0.8858 0.8858 0.8857 0.8856 0.8855
3763.000000 0.8854 0.8853 0.8853 0.8852 0.8851
3768.000000 0.8850 0.8849 0.8848 0.8847 0.8846
3773.000000 0.8846 0.8845 0.8844 0.8843 0.8842
3778.000000 0.8841 0.8841 0.8840 0.8839 0.8839
3783.000000 0.8837 0.8836 0.8835 0.8833 0.8832
3788.000000 0.8830 0.8829 0.8828 0.8827 0.8825
3793.000000 0.8824 0.8823 0.8822 0.8820 0.8819
3798.000000 0.8817 0.8816 0.8815 0.8813 0.8812
3803.000000 0.8811 0.8809 0.8808 0.8806 0.8805
3808.000000 0.8803 0.8802 0.8800 0.8798 0.8797
3813.000000 0.8795 0.8794 0.8792 0.8791 0.8789
3818.000000 0.8788 0.8786 0.8785 0.8784 0.8782
3823.000000 0.8781 0.8780 0.8779 0.8778 0.8777
3828.000000 0.8776 0.8775 0.8775 0.8774 0.8774
3833.000000 0.8773 0.8773 0.8772 0.8772 0.8772
3838.000000 0.8771 0.8771 0.8771 0.8770 0.8770
3843.000000 0.8770 0.8770 0.8770 0.8770 0.8769
3848.000000 0.8769 0.8769 0.8769 0.8769 0.8769
3853.000000 0.8768 0.8768 0.8768 0.8768 0.8768
3858.000000 0.8768 0.8768 0.8768 0.8768 0.8768
3863.000000 0.8768 0.8768 0.8768 0.8768 0.8768
3868.000000 0.8768 0.8768 0.8768 0.8768 0.8768
3873.000000 0.8768 0.8768 0.8768 0.8769 0.8769
3878.000000 0.8769 0.8769 0.8769 0.8769 0.8770
3883.000000 0.8770 0.8770 0.8770 0.8771 0.8771
3888.000000 0.8771 0.8772 0.8772 0.8772 0.8773
3893.000000 0.8773 0.8773 0.8774 0.8774 0.8774
3898.000000 0.8775 0.8775 0.8775 0.8776 0.8776
3903.000000 0.8776 0.8776 0.8776 0.8776 0.8777
3908.000000 0.8777 0.8777 0.8778 0.8778 0.8778
3913.000000 0.8779 0.8779 0.8779 0.8780 0.8780
3918.000000 0.8780 0.8781 0.8781 0.8781 0.8782
3923.000000 0.8782 0.8782 0.8783 0.8783 0.8783
3928.000000 0.8783 0.8783 0.8783 0.8784 0.8784
3933.000000 0.8784 0.8785 0.8785 0.8785 0.8785
3938.000000 0.8786 0.8786 0.8786 0.8787 0.8787
3943.000000 0.8787 0.8788 0.8788 0.8788 0.8789
3948.000000 0.8789 0.8789 0.8790 0.8790 0.8790
3953.000000 0.8791 0.8791 0.8791 0.8792 0.8792
3958.000000 0.8792 0.8792 0.8792 0.8792 0.8793
3963.000000 0.8793 0.8793 0.8793 0.8794 0.8794
3968.000000 0.8794 0.8795 0.8795 0.8795 0.8796
3973.000000 0.8796 0.8796 0.8797 0.8797 0.8797
3978.000000 0.8798 0.8798 0.8798 0.8799 0.8799
3983.000000 0.8799 0.8799 0.8799 0.8799 0.8799
3988.000000 0.8800 0.8800 0.8800 0.8801 0.8801
3993.000000 0.8801 0.8802 0.8802 0.8802 0.8802
3998.000000 0.8802 0.8802 0.8803
##END=
