##TITLE=Isoxazolium compounds: 2-Ethyl-5-(m-sulfophenyl)-hydroxide, inner salt
##JCAMP-DX=4.24
##DATA TYPE=INFRARED SPECTRUM
##CLASS=COBLENTZ III
##ORIGIN=DOW CHEMICAL COMPANY
##OWNER=COBLENTZ SOC.
Collection (C) 2018 copyright by the U.S. Secretary of Commerce
on behalf of the United States of America. All rights reserved.
##DATE=1964/08/27
##NAMES=3-(2-ethyl-2.lambda.<5>-isoxazol-4-yl)benzenesulfonic acid
##MOLFORM=C11 H11 N O4 S
##SOURCE REFERENCE=COBLENTZ NO. 07190
##$NIST ID=B6007190
##$NIST SOURCE=COBLENTZ
##$NIST IMAGE=cob7190
##SPECTROMETER/DATA SYSTEM=DOW KBr FOREPRISM-GRATING
##INSTRUMENT PARAMETERS=BLAZED AT 3.5, 12.0, 20.0 MICRON AND CHANGED AT 5.0, 7.5, 14.9 MICRON
##STATE=SOLID (SPLIT MULL), FLUOROLUBE FOR 3800-1330 CM^-^1, NUJOL FOR 1330-400 CM^-^1
$$ SPECTRAL FEATURE AT 1997 CM^-^1 IS PROBABLY AN ARTIFACT CAUSED BY GRATING CHANGE
##SAMPLING PROCEDURE=TRANSMISSION
##RESOLUTION=2
##DATA PROCESSING=DIGITIZED BY COBLENTZ SOCIETY (BATCH I) FROM HARD COPY
##XUNITS=1/CM
##YUNITS=TRANSMITTANCE
##XLABEL=Wavenumbers (cm-1)
##YLABEL=% Transmission
##XFACTOR=1
##YFACTOR=1
##DELTAX=1
##FIRSTX=399
##LASTX=3796
##FIRSTY=0.4938
##MAXX=3796
##MINX=399
##MAXY=0.8699
##MINY=0.0098
##NPOINTS=3398
##XYDATA=(X++(Y..Y))
399.000000 0.4938 0.5097 0.5310 0.5497 0.5581
404.000000 0.5664 0.5731 0.5783 0.5835 0.5887
409.000000 0.5981 0.6083 0.6195 0.6330 0.6465
414.000000 0.6560 0.6647 0.6733 0.6811 0.6886
419.000000 0.6960 0.7036 0.7118 0.7201 0.7282
424.000000 0.7349 0.7415 0.7482 0.7534 0.7580
429.000000 0.7625 0.7671 0.7721 0.7787 0.7853
434.000000 0.7917 0.7947 0.7978 0.8003 0.8011
439.000000 0.8019 0.8028 0.8050 0.8078 0.8112
444.000000 0.8158 0.8203 0.8232 0.8257 0.8283
449.000000 0.8310 0.8337 0.8375 0.8418 0.8431
454.000000 0.8515 0.8636 0.8656 0.8678 0.8620
459.000000 0.8549 0.8478 0.8407 0.8414 0.8414
464.000000 0.8414 0.8415 0.8415 0.8414 0.8413
469.000000 0.8411 0.8410 0.8402 0.8368 0.8313
474.000000 0.8258 0.8204 0.8187 0.8186 0.8182
479.000000 0.8175 0.8165 0.8154 0.8128 0.8096
484.000000 0.8051 0.8008 0.7964 0.7918 0.7893
489.000000 0.7898 0.7919 0.7983 0.8007 0.8004
494.000000 0.7995 0.7980 0.7958 0.7937 0.7918
499.000000 0.7907 0.7895 0.7874 0.7806 0.7725
504.000000 0.7668 0.7618 0.7560 0.7117 0.6518
509.000000 0.5925 0.5926 0.5941 0.6399 0.6731
514.000000 0.7061 0.7385 0.7475 0.7537 0.7571
519.000000 0.7605 0.7614 0.7618 0.7625 0.7634
524.000000 0.7674 0.7724 0.7748 0.7751 0.7754
529.000000 0.7757 0.7782 0.7751 0.7736 0.7717
534.000000 0.7700 0.7675 0.7688 0.7697 0.7708
539.000000 0.7721 0.7730 0.7740 0.7748 0.7730
544.000000 0.7708 0.7674 0.7628 0.7571 0.7489
549.000000 0.7340 0.7204 0.6704 0.6004 0.5303
554.000000 0.4602 0.3902 0.3200 0.3094 0.3576
559.000000 0.4530 0.5483 0.6415 0.6565 0.6665
564.000000 0.6750 0.6835 0.7034 0.7144 0.7201
569.000000 0.7217 0.7275 0.7225 0.7208 0.7190
574.000000 0.7085 0.6742 0.6135 0.5528 0.5042
579.000000 0.5007 0.4969 0.4825 0.4543 0.4249
584.000000 0.4222 0.4225 0.4383 0.4857 0.5331
589.000000 0.5806 0.6280 0.6755 0.6934 0.7054
594.000000 0.7128 0.7178 0.7203 0.7222 0.7206
599.000000 0.7196 0.7178 0.7158 0.7110 0.6901
604.000000 0.6067 0.5232 0.4398 0.3562 0.2729
609.000000 0.1894 0.1059 0.0275 0.0264 0.0548
614.000000 0.1733 0.2321 0.2315 0.1982 0.1694
619.000000 0.1583 0.3163 0.1585 0.6515 0.6628
624.000000 0.6728 0.6821 0.6914 0.7007 0.7100
629.000000 0.7111 0.7132 0.6953 0.6751 0.6599
634.000000 0.6578 0.6653 0.6801 0.6919 0.6921
639.000000 0.6636 0.5851 0.5065 0.4279 0.3700
644.000000 0.3714 0.4489 0.5310 0.6131 0.6904
649.000000 0.7051 0.7162 0.7256 0.7347 0.7443
654.000000 0.7490 0.7530 0.7582 0.7536 0.7468
659.000000 0.7412 0.7374 0.7351 0.7368 0.7395
664.000000 0.7458 0.7499 0.7511 0.7504 0.7495
669.000000 0.7434 0.6894 0.5872 0.4850 0.3827
674.000000 0.2805 0.2305 0.2279 0.3196 0.4207
679.000000 0.4992 0.4796 0.5010 0.2775 0.2166
684.000000 0.2300 0.3814 0.5327 0.6841 0.7617
689.000000 0.7687 0.7708 0.7732 0.7744 0.7754
694.000000 0.7747 0.6776 0.6120 0.5462 0.4806
699.000000 0.4476 0.4520 0.5584 0.6664 0.7655
704.000000 0.7728 0.7778 0.7808 0.7825 0.7840
709.000000 0.7821 0.7806 0.7788 0.7765 0.7737
714.000000 0.7701 0.7649 0.7596 0.7537 0.7482
719.000000 0.7428 0.7341 0.7334 0.7318 0.7342
724.000000 0.7355 0.7380 0.7400 0.7418 0.7439
729.000000 0.7460 0.7485 0.7510 0.7536 0.7557
734.000000 0.7574 0.7590 0.7606 0.7621 0.7628
739.000000 0.7635 0.7641 0.7642 0.7642 0.7642
744.000000 0.7628 0.7464 0.7284 0.7104 0.7050
749.000000 0.7075 0.7239 0.7401 0.7565 0.7645
754.000000 0.7665 0.7683 0.7692 0.7696 0.7697
759.000000 0.7680 0.7694 0.7687 0.7681 0.7661
764.000000 0.7625 0.7561 0.7474 0.7333 0.7147
769.000000 0.6250 0.4864 0.3682 0.3688 0.3702
774.000000 0.3705 0.4759 0.5347 0.5935 0.6521
779.000000 0.7089 0.7211 0.7315 0.7393 0.7449
784.000000 0.7489 0.7518 0.7535 0.7542 0.7547
789.000000 0.7547 0.7548 0.7535 0.7510 0.7453
794.000000 0.7410 0.7361 0.7304 0.7235 0.7161
799.000000 0.7033 0.6868 0.6343 0.5501 0.4659
804.000000 0.3816 0.2975 0.2133 0.1904 0.1926
809.000000 0.2189 0.2999 0.3809 0.4619 0.5428
814.000000 0.6238 0.6754 0.6864 0.6971 0.7096
819.000000 0.7188 0.7225 0.7240 0.7256 0.7264
824.000000 0.7260 0.7238 0.7185 0.7136 0.7057
829.000000 0.6967 0.6884 0.6797 0.6710 0.6255
834.000000 0.5903 0.5551 0.5199 0.4847 0.4495
839.000000 0.4143 0.3791 0.3495 0.3520 0.3686
844.000000 0.4154 0.4621 0.5088 0.5450 0.5533
849.000000 0.5806 0.5947 0.6091 0.6220 0.6304
854.000000 0.6388 0.6468 0.6547 0.6671 0.6924
859.000000 0.7096 0.7238 0.7347 0.7419 0.7475
864.000000 0.7515 0.7557 0.7597 0.7615 0.7628
869.000000 0.7643 0.7657 0.7661 0.7667 0.7671
874.000000 0.7676 0.7681 0.7674 0.7684 0.7685
879.000000 0.7681 0.7675 0.7668 0.7654 0.7638
884.000000 0.7619 0.7595 0.7569 0.7534 0.7492
889.000000 0.7425 0.7331 0.6575 0.5726 0.5473
894.000000 0.5473 0.5869 0.6344 0.6818 0.7235
899.000000 0.7299 0.7356 0.7383 0.7408 0.7422
904.000000 0.7437 0.7450 0.7458 0.7464 0.7469
909.000000 0.7475 0.7478 0.7480 0.7482 0.7482
914.000000 0.7482 0.7476 0.7476 0.7476 0.7474
919.000000 0.7471 0.7469 0.7468 0.7457 0.7445
924.000000 0.7434 0.7422 0.7412 0.7404 0.7391
929.000000 0.7374 0.7335 0.7258 0.7121 0.6955
934.000000 0.6410 0.6071 0.6101 0.6210 0.6371
939.000000 0.6531 0.6692 0.6694 0.6686 0.6291
944.000000 0.5817 0.5651 0.5650 0.5660 0.5867
949.000000 0.6039 0.6212 0.6384 0.6501 0.6482
954.000000 0.6489 0.6314 0.5888 0.5462 0.5038
959.000000 0.4906 0.4982 0.4896 0.5746 0.5841
964.000000 0.5910 0.5965 0.6019 0.6078 0.6156
969.000000 0.6232 0.6274 0.6288 0.6288 0.6262
974.000000 0.6169 0.6053 0.5936 0.5819 0.5722
979.000000 0.5721 0.5732 0.5762 0.5859 0.5957
984.000000 0.6054 0.6152 0.6210 0.6210 0.6210
989.000000 0.6177 0.4739 0.2225 0.1950 0.1945
994.000000 0.2652 0.3516 0.4380 0.5244 0.6072
999.000000 0.6180 0.6237 0.6255 0.6259 0.6241
1004.000000 0.6251 0.6228 0.6039 0.5897 0.5755
1009.000000 0.5612 0.5471 0.5404 0.5344 0.5277
1014.000000 0.5048 0.4817 0.4585 0.4354 0.4123
1019.000000 0.3868 0.3424 0.3008 0.2506 0.2004
1024.000000 0.1502 0.1000 0.0554 0.0367 0.0210
1029.000000 0.0132 0.0108 0.0112 0.0098 0.0125
1034.000000 0.0185 0.1213 0.2362 0.3510 0.4345
1039.000000 0.4530 0.4668 0.4788 0.4908 0.5007
1044.000000 0.5086 0.5165 0.5229 0.5292 0.5375
1049.000000 0.5459 0.5520 0.5576 0.5607 0.5632
1054.000000 0.5658 0.5638 0.5672 0.5674 0.5669
1059.000000 0.5651 0.5627 0.5588 0.5539 0.5428
1064.000000 0.5272 0.5133 0.4817 0.4425 0.4032
1069.000000 0.3988 0.4005 0.4457 0.4755 0.5008
1074.000000 0.5042 0.5078 0.5047 0.5016 0.4902
1079.000000 0.4480 0.4058 0.3636 0.3212 0.2744
1084.000000 0.2396 0.2362 0.2355 0.2351 0.2395
1089.000000 0.2762 0.3197 0.3336 0.3441 0.3662
1094.000000 0.3829 0.3995 0.4160 0.4327 0.4493
1099.000000 0.4659 0.4825 0.4991 0.5024 0.5010
1104.000000 0.5021 0.5005 0.4843 0.4674 0.4505
1109.000000 0.4336 0.4168 0.3999 0.3830 0.3732
1114.000000 0.3725 0.3718 0.3707 0.3696 0.3350
1119.000000 0.2819 0.2648 0.2663 0.2798 0.2975
1124.000000 0.3152 0.3325 0.3326 0.3314 0.3302
1129.000000 0.3258 0.2960 0.2681 0.2401 0.2260
1134.000000 0.2260 0.2249 0.3000 0.3449 0.3897
1139.000000 0.4346 0.4729 0.4988 0.5127 0.5176
1144.000000 0.5216 0.5245 0.5257 0.5267 0.5277
1149.000000 0.5280 0.5282 0.5268 0.5256 0.5241
1154.000000 0.5217 0.5149 0.5101 0.5062 0.5022
1159.000000 0.4969 0.4901 0.4817 0.4656 0.4496
1164.000000 0.4360 0.4123 0.3849 0.3530 0.3491
1169.000000 0.3460 0.3440 0.3416 0.3379 0.3308
1174.000000 0.3203 0.3015 0.2776 0.2248 0.2116
1179.000000 0.1822 0.1635 0.1415 0.1366 0.1342
1184.000000 0.1333 0.1326 0.1292 0.1167 0.0475
1189.000000 0.0398 0.0304 0.0184 0.0168 0.0158
1194.000000 0.0157 0.0148 0.0209 0.0321 0.0640
1199.000000 0.0960 0.1279 0.1599 0.1918 0.2238
1204.000000 0.2557 0.2877 0.3196 0.3516 0.3834
1209.000000 0.4155 0.4257 0.4275 0.4244 0.4009
1214.000000 0.3706 0.3400 0.3097 0.2845 0.2791
1219.000000 0.2653 0.2580 0.2473 0.2060 0.1646
1224.000000 0.1234 0.0821 0.0408 0.0277 0.0266
1229.000000 0.0228 0.0534 0.0805 0.1076 0.1346
1234.000000 0.1617 0.1887 0.2159 0.2430 0.2701
1239.000000 0.2972 0.3243 0.3297 0.3308 0.3308
1244.000000 0.3172 0.3026 0.2881 0.2734 0.2682
1249.000000 0.2682 0.2682 0.3137 0.3382 0.3618
1254.000000 0.3637 0.3650 0.3668 0.3694 0.3729
1259.000000 0.3775 0.3912 0.4786 0.5166 0.5295
1264.000000 0.5424 0.5685 0.5862 0.5991 0.6120
1269.000000 0.6246 0.6349 0.6449 0.6531 0.6600
1274.000000 0.6637 0.6653 0.6661 0.6690 0.6672
1279.000000 0.6675 0.6675 0.6674 0.6661 0.6619
1284.000000 0.6532 0.6390 0.6231 0.6074 0.5810
1289.000000 0.5553 0.5294 0.5065 0.5067 0.5076
1294.000000 0.5178 0.5397 0.5732 0.5800 0.5865
1299.000000 0.5929 0.5993 0.6058 0.6122 0.6186
1304.000000 0.6250 0.6315 0.6379 0.6443 0.6508
1309.000000 0.6550 0.6548 0.6537 0.6524 0.6424
1314.000000 0.6310 0.6197 0.6084 0.5970 0.5915
1319.000000 0.5976 0.5944 0.6144 0.6228 0.6312
1324.000000 0.6396 0.6480 0.6564 0.6648 0.6732
1329.000000 0.6817 0.6833 0.6832 0.6878 0.6815
1334.000000 0.6801 0.6778 0.6739 0.6701 0.6661
1339.000000 0.6618 0.6572 0.6524 0.6472 0.6417
1344.000000 0.6391 0.6393 0.6394 0.6418 0.6465
1349.000000 0.6519 0.6593 0.6678 0.6744 0.6796
1354.000000 0.6835 0.6861 0.6889 0.6904 0.6915
1359.000000 0.6925 0.6937 0.6944 0.6982 0.6953
1364.000000 0.6953 0.6951 0.6948 0.6943 0.6936
1369.000000 0.6903 0.6811 0.6787 0.6789 0.6782
1374.000000 0.6843 0.6960 0.7088 0.7182 0.7249
1379.000000 0.7265 0.7268 0.7271 0.7287 0.7262
1384.000000 0.7251 0.7189 0.7112 0.7045 0.6972
1389.000000 0.6900 0.6807 0.6661 0.6455 0.6248
1394.000000 0.6041 0.5834 0.5627 0.5420 0.5312
1399.000000 0.5300 0.5491 0.5677 0.5862 0.6048
1404.000000 0.6234 0.6419 0.6605 0.6791 0.6976
1409.000000 0.7128 0.7172 0.7205 0.7230 0.7247
1414.000000 0.7208 0.7180 0.7141 0.7097 0.7061
1419.000000 0.6889 0.6699 0.6508 0.6318 0.6127
1424.000000 0.5937 0.5795 0.5653 0.5464 0.5294
1429.000000 0.5136 0.5004 0.4903 0.4783 0.4603
1434.000000 0.4399 0.4195 0.3991 0.3787 0.3714
1439.000000 0.3745 0.4176 0.4743 0.5310 0.5878
1444.000000 0.6445 0.6875 0.7018 0.7104 0.7158
1449.000000 0.7196 0.7234 0.7258 0.7265 0.7271
1454.000000 0.7269 0.7288 0.7264 0.7183 0.6948
1459.000000 0.6712 0.6478 0.6243 0.6008 0.5809
1464.000000 0.5704 0.5635 0.5612 0.5860 0.6193
1469.000000 0.6525 0.6858 0.7190 0.7522 0.7655
1474.000000 0.7697 0.7742 0.7787 0.7814 0.7824
1479.000000 0.7819 0.7815 0.7808 0.7799 0.7796
1484.000000 0.7853 0.7908 0.7956 0.8014 0.8045
1489.000000 0.8093 0.8114 0.8117 0.8095 0.8108
1494.000000 0.8098 0.8075 0.8038 0.7985 0.7876
1499.000000 0.7753 0.7689 0.7569 0.7482 0.7425
1504.000000 0.7390 0.7354 0.7287 0.7195 0.7104
1509.000000 0.7008 0.6901 0.6793 0.6661 0.5924
1514.000000 0.5681 0.5359 0.4889 0.4418 0.3947
1519.000000 0.3477 0.3006 0.2612 0.2530 0.2453
1524.000000 0.2375 0.2253 0.2254 0.2255 0.2463
1529.000000 0.3009 0.3555 0.4101 0.4648 0.5194
1534.000000 0.5740 0.6286 0.6735 0.6945 0.7525
1539.000000 0.7815 0.8040 0.8206 0.8318 0.8420
1544.000000 0.8480 0.8532 0.8554 0.8575 0.8597
1549.000000 0.8611 0.8625 0.8655 0.8699 0.8671
1554.000000 0.8670 0.8668 0.8666 0.8633 0.8592
1559.000000 0.8577 0.8571 0.8568 0.8545 0.8451
1564.000000 0.8366 0.8265 0.8184 0.8108 0.7971
1569.000000 0.7812 0.7728 0.7728 0.7740 0.7747
1574.000000 0.7761 0.7783 0.7806 0.7839 0.7874
1579.000000 0.7895 0.7918 0.7900 0.7899 0.7865
1584.000000 0.7797 0.7801 0.7791 0.7955 0.8019
1589.000000 0.8076 0.8086 0.8088 0.8092 0.8067
1594.000000 0.7921 0.7843 0.7774 0.7698 0.7621
1599.000000 0.7544 0.6160 0.5671 0.5557 0.5468
1604.000000 0.5391 0.5299 0.5303 0.5309 0.5326
1609.000000 0.5494 0.5944 0.6562 0.7182 0.7801
1614.000000 0.7915 0.8025 0.8084 0.8136 0.8175
1619.000000 0.8207 0.8238 0.8250 0.8263 0.8275
1624.000000 0.8289 0.8332 0.8375 0.8397 0.8395
1629.000000 0.8393 0.8391 0.8358 0.8387 0.8385
1634.000000 0.8371 0.8352 0.8332 0.8323 0.8325
1639.000000 0.8325 0.8327 0.8327 0.8325 0.8320
1644.000000 0.8314 0.8309 0.8301 0.8291 0.8281
1649.000000 0.8274 0.8268 0.8262 0.8257 0.8256
1654.000000 0.8259 0.8262 0.8266 0.8268 0.8271
1659.000000 0.8271 0.8271 0.8271 0.8270 0.8268
1664.000000 0.8263 0.8257 0.8251 0.8245 0.8239
1669.000000 0.8233 0.8227 0.8221 0.8216 0.8210
1674.000000 0.8204 0.8198 0.8191 0.8184 0.8175
1679.000000 0.8168 0.8161 0.8153 0.8146 0.8138
1684.000000 0.8138 0.8138 0.8140 0.8142 0.8142
1689.000000 0.8142 0.8140 0.8138 0.8137 0.8135
1694.000000 0.8130 0.8121 0.8115 0.8107 0.8106
1699.000000 0.8111 0.8121 0.8131 0.8140 0.8149
1704.000000 0.8157 0.8165 0.8172 0.8181 0.8189
1709.000000 0.8197 0.8202 0.8205 0.8197 0.8188
1714.000000 0.8180 0.8171 0.8176 0.8188 0.8199
1719.000000 0.8209 0.8215 0.8214 0.8213 0.8212
1724.000000 0.8207 0.8202 0.8195 0.8186 0.8178
1729.000000 0.8169 0.8161 0.8153 0.8144 0.8139
1734.000000 0.8133 0.8128 0.8124 0.8121 0.8118
1739.000000 0.8115 0.8111 0.8108 0.8099 0.8091
1744.000000 0.8083 0.8074 0.8064 0.8055 0.8045
1749.000000 0.8035 0.8024 0.8019 0.8012 0.8033
1754.000000 0.8051 0.8071 0.8087 0.8103 0.8118
1759.000000 0.8133 0.8148 0.8160 0.8168 0.8176
1764.000000 0.8189 0.8182 0.8180 0.8178 0.8178
1769.000000 0.8176 0.8172 0.8168 0.8162 0.8158
1774.000000 0.8153 0.8147 0.8139 0.8132 0.8124
1779.000000 0.8117 0.8108 0.8100 0.8092 0.8084
1784.000000 0.8075 0.8068 0.8058 0.8050 0.8042
1789.000000 0.8033 0.8025 0.8021 0.8018 0.8018
1794.000000 0.8017 0.8017 0.8018 0.8019 0.8022
1799.000000 0.8025 0.8026 0.8030 0.8031 0.8033
1804.000000 0.8035 0.8036 0.8038 0.8040 0.8042
1809.000000 0.8044 0.8045 0.8047 0.8049 0.8051
1814.000000 0.8051 0.8051 0.8051 0.8051 0.8051
1819.000000 0.8053 0.8053 0.8053 0.8054 0.8055
1824.000000 0.8056 0.8058 0.8060 0.8061 0.8062
1829.000000 0.8065 0.8065 0.8067 0.8067 0.8065
1834.000000 0.8061 0.8057 0.8051 0.8047 0.8042
1839.000000 0.8038 0.8035 0.8033 0.8030 0.8026
1844.000000 0.8024 0.8021 0.8018 0.8015 0.8012
1849.000000 0.8010 0.7998 0.7978 0.7958 0.7951
1854.000000 0.7951 0.7955 0.7957 0.7958 0.7958
1859.000000 0.7957 0.7953 0.7948 0.7943 0.7936
1864.000000 0.7926 0.7918 0.7910 0.7901 0.7891
1869.000000 0.7878 0.7865 0.7853 0.7841 0.7828
1874.000000 0.7818 0.7806 0.7795 0.7784 0.7789
1879.000000 0.7794 0.7799 0.7804 0.7810 0.7818
1884.000000 0.7826 0.7833 0.7838 0.7843 0.7848
1889.000000 0.7850 0.7851 0.7851 0.7853 0.7853
1894.000000 0.7853 0.7851 0.7849 0.7846 0.7841
1899.000000 0.7835 0.7830 0.7825 0.7818 0.7811
1904.000000 0.7801 0.7792 0.7781 0.7771 0.7761
1909.000000 0.7751 0.7741 0.7730 0.7718 0.7708
1914.000000 0.7697 0.7686 0.7675 0.7665 0.7651
1919.000000 0.7639 0.7626 0.7614 0.7601 0.7588
1924.000000 0.7575 0.7561 0.7551 0.7547 0.7543
1929.000000 0.7539 0.7536 0.7541 0.7532 0.7561
1934.000000 0.7572 0.7585 0.7597 0.7608 0.7619
1939.000000 0.7634 0.7649 0.7662 0.7672 0.7682
1944.000000 0.7691 0.7700 0.7708 0.7715 0.7721
1949.000000 0.7728 0.7734 0.7741 0.7745 0.7749
1954.000000 0.7753 0.7758 0.7761 0.7765 0.7769
1959.000000 0.7772 0.7774 0.7775 0.7775 0.7775
1964.000000 0.7772 0.7771 0.7771 0.7768 0.7768
1969.000000 0.7764 0.7758 0.7755 0.7750 0.7746
1974.000000 0.7741 0.7737 0.7733 0.7728 0.7718
1979.000000 0.7711 0.7701 0.7685 0.7668 0.7650
1984.000000 0.7630 0.7610 0.7597 0.7605 0.7614
1989.000000 0.7617 0.7618 0.7612 0.7607 0.7601
1994.000000 0.7595 0.7593 0.7593 0.7593 0.7632
1999.000000 0.7686 0.7736 0.7775 0.7817 0.7818
2004.000000 0.7818 0.7819 0.7819 0.7818 0.7818
2009.000000 0.7818 0.7818 0.7818 0.7818 0.7818
2014.000000 0.7818 0.7818 0.7818 0.7818 0.7817
2019.000000 0.7815 0.7815 0.7814 0.7812 0.7811
2024.000000 0.7808 0.7806 0.7803 0.7800 0.7798
2029.000000 0.7794 0.7791 0.7786 0.7782 0.7776
2034.000000 0.7771 0.7767 0.7762 0.7758 0.7754
2039.000000 0.7749 0.7745 0.7740 0.7736 0.7731
2044.000000 0.7726 0.7719 0.7712 0.7706 0.7699
2049.000000 0.7691 0.7684 0.7676 0.7669 0.7662
2054.000000 0.7656 0.7649 0.7642 0.7635 0.7628
2059.000000 0.7619 0.7612 0.7606 0.7599 0.7592
2064.000000 0.7586 0.7580 0.7574 0.7567 0.7561
2069.000000 0.7555 0.7549 0.7544 0.7540 0.7535
2074.000000 0.7531 0.7525 0.7521 0.7517 0.7512
2079.000000 0.7510 0.7508 0.7505 0.7503 0.7500
2084.000000 0.7497 0.7494 0.7492 0.7489 0.7487
2089.000000 0.7484 0.7482 0.7475 0.7469 0.7464
2094.000000 0.7458 0.7451 0.7445 0.7438 0.7432
2099.000000 0.7425 0.7418 0.7411 0.7405 0.7398
2104.000000 0.7391 0.7384 0.7376 0.7369 0.7362
2109.000000 0.7356 0.7349 0.7342 0.7335 0.7328
2114.000000 0.7321 0.7315 0.7311 0.7307 0.7303
2119.000000 0.7298 0.7293 0.7288 0.7283 0.7278
2124.000000 0.7274 0.7268 0.7264 0.7258 0.7254
2129.000000 0.7249 0.7245 0.7240 0.7235 0.7230
2134.000000 0.7225 0.7219 0.7215 0.7211 0.7206
2139.000000 0.7201 0.7197 0.7192 0.7187 0.7182
2144.000000 0.7178 0.7172 0.7168 0.7162 0.7158
2149.000000 0.7153 0.7148 0.7143 0.7138 0.7132
2154.000000 0.7126 0.7121 0.7117 0.7111 0.7107
2159.000000 0.7101 0.7096 0.7091 0.7086 0.7081
2164.000000 0.7075 0.7071 0.7067 0.7061 0.7058
2169.000000 0.7054 0.7050 0.7045 0.7041 0.7036
2174.000000 0.7032 0.7026 0.7022 0.7018 0.7014
2179.000000 0.7008 0.7005 0.7001 0.6997 0.6993
2184.000000 0.6989 0.6985 0.6982 0.6978 0.6975
2189.000000 0.6971 0.6968 0.6964 0.6961 0.6957
2194.000000 0.6954 0.6950 0.6947 0.6943 0.6940
2199.000000 0.6936 0.6933 0.6928 0.6925 0.6919
2204.000000 0.6915 0.6911 0.6908 0.6904 0.6900
2209.000000 0.6895 0.6891 0.6887 0.6883 0.6878
2214.000000 0.6872 0.6868 0.6862 0.6858 0.6854
2219.000000 0.6849 0.6844 0.6839 0.6834 0.6828
2224.000000 0.6824 0.6818 0.6814 0.6808 0.6804
2229.000000 0.6799 0.6794 0.6789 0.6784 0.6778
2234.000000 0.6774 0.6768 0.6764 0.6758 0.6754
2239.000000 0.6749 0.6744 0.6737 0.6730 0.6721
2244.000000 0.6714 0.6706 0.6698 0.6690 0.6682
2249.000000 0.6674 0.6665 0.6658 0.6650 0.6642
2254.000000 0.6634 0.6625 0.6618 0.6611 0.6606
2259.000000 0.6599 0.6592 0.6585 0.6578 0.6571
2264.000000 0.6565 0.6562 0.6561 0.6561 0.6562
2269.000000 0.6562 0.6562 0.6562 0.6564 0.6564
2274.000000 0.6565 0.6565 0.6565 0.6565 0.6567
2279.000000 0.6567 0.6567 0.6567 0.6565 0.6564
2284.000000 0.6562 0.6561 0.6560 0.6557 0.6554
2289.000000 0.6549 0.6544 0.6539 0.6535 0.6530
2294.000000 0.6525 0.6521 0.6517 0.6512 0.6508
2299.000000 0.6505 0.6501 0.6498 0.6494 0.6490
2304.000000 0.6486 0.6482 0.6478 0.6475 0.6472
2309.000000 0.6469 0.6468 0.6465 0.6462 0.6460
2314.000000 0.6457 0.6454 0.6451 0.6449 0.6447
2319.000000 0.6444 0.6441 0.6438 0.6436 0.6433
2324.000000 0.6430 0.6426 0.6425 0.6422 0.6421
2329.000000 0.6419 0.6418 0.6415 0.6415 0.6412
2334.000000 0.6411 0.6408 0.6408 0.6406 0.6404
2339.000000 0.6401 0.6401 0.6399 0.6397 0.6395
2344.000000 0.6393 0.6391 0.6390 0.6388 0.6386
2349.000000 0.6384 0.6383 0.6381 0.6379 0.6377
2354.000000 0.6375 0.6373 0.6372 0.6372 0.6373
2359.000000 0.6373 0.6374 0.6375 0.6376 0.6377
2364.000000 0.6378 0.6379 0.6380 0.6381 0.6382
2369.000000 0.6382 0.6383 0.6385 0.6387 0.6389
2374.000000 0.6392 0.6394 0.6397 0.6399 0.6401
2379.000000 0.6405 0.6408 0.6408 0.6408 0.6408
2384.000000 0.6408 0.6408 0.6408 0.6408 0.6408
2389.000000 0.6408 0.6408 0.6408 0.6407 0.6406
2394.000000 0.6405 0.6403 0.6401 0.6401 0.6400
2399.000000 0.6398 0.6397 0.6395 0.6394 0.6392
2404.000000 0.6391 0.6389 0.6388 0.6386 0.6385
2409.000000 0.6384 0.6383 0.6381 0.6380 0.6378
2414.000000 0.6377 0.6375 0.6374 0.6372 0.6371
2419.000000 0.6369 0.6368 0.6366 0.6365 0.6362
2424.000000 0.6362 0.6360 0.6358 0.6356 0.6354
2429.000000 0.6352 0.6351 0.6349 0.6347 0.6345
2434.000000 0.6343 0.6341 0.6339 0.6337 0.6336
2439.000000 0.6334 0.6332 0.6330 0.6328 0.6326
2444.000000 0.6325 0.6323 0.6321 0.6318 0.6316
2449.000000 0.6312 0.6310 0.6309 0.6307 0.6304
2454.000000 0.6302 0.6299 0.6297 0.6294 0.6292
2459.000000 0.6290 0.6288 0.6285 0.6283 0.6280
2464.000000 0.6278 0.6275 0.6273 0.6271 0.6269
2469.000000 0.6266 0.6264 0.6262 0.6260 0.6258
2474.000000 0.6256 0.6254 0.6253 0.6251 0.6250
2479.000000 0.6248 0.6247 0.6245 0.6244 0.6242
2484.000000 0.6240 0.6238 0.6237 0.6235 0.6234
2489.000000 0.6232 0.6231 0.6229 0.6228 0.6226
2494.000000 0.6224 0.6222 0.6221 0.6221 0.6222
2499.000000 0.6223 0.6224 0.6225 0.6226 0.6227
2504.000000 0.6229 0.6230 0.6231 0.6232 0.6234
2509.000000 0.6235 0.6236 0.6237 0.6239 0.6239
2514.000000 0.6239 0.6235 0.6232 0.6229 0.6226
2519.000000 0.6222 0.6219 0.6215 0.6212 0.6208
2524.000000 0.6205 0.6201 0.6197 0.6192 0.6188
2529.000000 0.6183 0.6179 0.6174 0.6169 0.6164
2534.000000 0.6160 0.6156 0.6153 0.6149 0.6146
2539.000000 0.6143 0.6140 0.6136 0.6133 0.6129
2544.000000 0.6126 0.6123 0.6120 0.6116 0.6112
2549.000000 0.6109 0.6106 0.6103 0.6100 0.6096
2554.000000 0.6093 0.6090 0.6087 0.6084 0.6082
2559.000000 0.6079 0.6077 0.6074 0.6072 0.6069
2564.000000 0.6067 0.6064 0.6062 0.6059 0.6057
2569.000000 0.6054 0.6052 0.6049 0.6047 0.6044
2574.000000 0.6042 0.6039 0.6037 0.6034 0.6032
2579.000000 0.6029 0.6027 0.6024 0.6021 0.6019
2584.000000 0.6017 0.6015 0.6012 0.6010 0.6008
2589.000000 0.6006 0.6004 0.6001 0.5999 0.5997
2594.000000 0.5995 0.5993 0.5991 0.5988 0.5986
2599.000000 0.5984 0.5982 0.5979 0.5977 0.5974
2604.000000 0.5972 0.5969 0.5967 0.5965 0.5962
2609.000000 0.5960 0.5958 0.5955 0.5953 0.5950
2614.000000 0.5948 0.5945 0.5943 0.5941 0.5940
2619.000000 0.5938 0.5936 0.5934 0.5933 0.5931
2624.000000 0.5929 0.5927 0.5926 0.5924 0.5922
2629.000000 0.5920 0.5918 0.5916 0.5915 0.5912
2634.000000 0.5910 0.5909 0.5908 0.5906 0.5904
2639.000000 0.5902 0.5901 0.5899 0.5897 0.5895
2644.000000 0.5893 0.5891 0.5890 0.5888 0.5886
2649.000000 0.5884 0.5883 0.5881 0.5880 0.5878
2654.000000 0.5876 0.5874 0.5873 0.5871 0.5869
2659.000000 0.5867 0.5866 0.5864 0.5862 0.5860
2664.000000 0.5859 0.5857 0.5855 0.5853 0.5851
2669.000000 0.5848 0.5846 0.5844 0.5842 0.5839
2674.000000 0.5837 0.5835 0.5833 0.5831 0.5829
2679.000000 0.5826 0.5824 0.5822 0.5820 0.5818
2684.000000 0.5816 0.5812 0.5810 0.5808 0.5806
2689.000000 0.5804 0.5802 0.5799 0.5797 0.5794
2694.000000 0.5792 0.5789 0.5787 0.5784 0.5782
2699.000000 0.5778 0.5775 0.5772 0.5769 0.5766
2704.000000 0.5762 0.5759 0.5756 0.5753 0.5750
2709.000000 0.5746 0.5743 0.5740 0.5737 0.5733
2714.000000 0.5730 0.5726 0.5723 0.5720 0.5717
2719.000000 0.5712 0.5710 0.5706 0.5703 0.5700
2724.000000 0.5697 0.5693 0.5690 0.5686 0.5683
2729.000000 0.5679 0.5676 0.5672 0.5669 0.5665
2734.000000 0.5662 0.5658 0.5654 0.5650 0.5647
2739.000000 0.5643 0.5640 0.5636 0.5633 0.5629
2744.000000 0.5625 0.5621 0.5618 0.5614 0.5610
2749.000000 0.5607 0.5603 0.5599 0.5595 0.5590
2754.000000 0.5586 0.5582 0.5578 0.5574 0.5570
2759.000000 0.5566 0.5562 0.5558 0.5554 0.5550
2764.000000 0.5546 0.5542 0.5538 0.5534 0.5530
2769.000000 0.5526 0.5522 0.5518 0.5514 0.5510
2774.000000 0.5506 0.5502 0.5498 0.5494 0.5490
2779.000000 0.5486 0.5482 0.5478 0.5474 0.5470
2784.000000 0.5466 0.5462 0.5458 0.5454 0.5450
2789.000000 0.5445 0.5441 0.5436 0.5432 0.5427
2794.000000 0.5422 0.5417 0.5412 0.5408 0.5403
2799.000000 0.5398 0.5394 0.5389 0.5384 0.5379
2804.000000 0.5375 0.5370 0.5365 0.5360 0.5356
2809.000000 0.5351 0.5347 0.5342 0.5337 0.5332
2814.000000 0.5328 0.5323 0.5318 0.5312 0.5309
2819.000000 0.5304 0.5299 0.5294 0.5289 0.5283
2824.000000 0.5277 0.5271 0.5266 0.5260 0.5255
2829.000000 0.5249 0.5244 0.5238 0.5232 0.5226
2834.000000 0.5221 0.5215 0.5210 0.5204 0.5198
2839.000000 0.5192 0.5187 0.5181 0.5176 0.5170
2844.000000 0.5164 0.5158 0.5153 0.5147 0.5141
2849.000000 0.5134 0.5127 0.5119 0.5112 0.5105
2854.000000 0.5098 0.5090 0.5083 0.5076 0.5069
2859.000000 0.5060 0.5054 0.5044 0.5034 0.5020
2864.000000 0.5006 0.4992 0.4978 0.4964 0.4951
2869.000000 0.4941 0.4931 0.4929 0.4928 0.4926
2874.000000 0.4925 0.4923 0.4921 0.4919 0.4918
2879.000000 0.4917 0.4916 0.4915 0.4915 0.4914
2884.000000 0.4912 0.4910 0.4910 0.4908 0.4906
2889.000000 0.4904 0.4902 0.4899 0.4896 0.4893
2894.000000 0.4890 0.4884 0.4878 0.4872 0.4866
2899.000000 0.4857 0.4848 0.4837 0.4826 0.4815
2904.000000 0.4804 0.4793 0.4783 0.4773 0.4762
2909.000000 0.4752 0.4742 0.4731 0.4720 0.4707
2914.000000 0.4694 0.4681 0.4668 0.4655 0.4642
2919.000000 0.4628 0.4614 0.4597 0.4581 0.4564
2924.000000 0.4547 0.4530 0.4512 0.4493 0.4474
2929.000000 0.4452 0.4431 0.4410 0.4389 0.4339
2934.000000 0.4290 0.4281 0.4272 0.4264 0.4257
2939.000000 0.4251 0.4245 0.4246 0.4247 0.4252
2944.000000 0.4257 0.4260 0.4262 0.4260 0.4260
2949.000000 0.4255 0.4250 0.4244 0.4239 0.4234
2954.000000 0.4229 0.4223 0.4218 0.4209 0.4200
2959.000000 0.4190 0.4180 0.4169 0.4159 0.4149
2964.000000 0.4139 0.4128 0.4117 0.4106 0.4095
2969.000000 0.4084 0.4074 0.4059 0.4046 0.4032
2974.000000 0.4018 0.3998 0.3978 0.3940 0.3903
2979.000000 0.3866 0.3832 0.3780 0.3729 0.3624
2984.000000 0.3520 0.3484 0.3450 0.3437 0.3424
2989.000000 0.3421 0.3418 0.3418 0.3420 0.3420
2994.000000 0.3421 0.3421 0.3422 0.3436 0.3405
2999.000000 0.3490 0.3530 0.3589 0.3648 0.3662
3004.000000 0.3678 0.3692 0.3707 0.3727 0.3748
3009.000000 0.3773 0.3798 0.3820 0.3843 0.3864
3014.000000 0.3884 0.3893 0.3902 0.3906 0.3910
3019.000000 0.3912 0.3914 0.3914 0.3914 0.3914
3024.000000 0.3916 0.3916 0.3916 0.3916 0.3918
3029.000000 0.3932 0.3949 0.3978 0.4008 0.4059
3034.000000 0.4112 0.4290 0.4469 0.4472 0.4475
3039.000000 0.4477 0.4480 0.4481 0.4462 0.4479
3044.000000 0.4477 0.4474 0.4472 0.4470 0.4469
3049.000000 0.4469 0.4470 0.4472 0.4475 0.4477
3054.000000 0.4480 0.4482 0.4485 0.4485 0.4486
3059.000000 0.4482 0.4479 0.4472 0.4465 0.4453
3064.000000 0.4441 0.4421 0.4401 0.4382 0.4362
3069.000000 0.4362 0.4364 0.4429 0.4353 0.4505
3074.000000 0.4516 0.4517 0.4518 0.4518 0.4519
3079.000000 0.4512 0.4505 0.4486 0.4465 0.4448
3084.000000 0.4432 0.4414 0.4397 0.4379 0.4360
3089.000000 0.4342 0.4323 0.4304 0.4285 0.4264
3094.000000 0.4243 0.4222 0.4201 0.4178 0.4156
3099.000000 0.4133 0.4110 0.4087 0.4064 0.4030
3104.000000 0.3997 0.3966 0.3934 0.3914 0.3893
3109.000000 0.3872 0.3850 0.3836 0.3822 0.3820
3114.000000 0.3818 0.3818 0.3818 0.3818 0.3794
3119.000000 0.3932 0.4044 0.4338 0.4633 0.4676
3124.000000 0.4719 0.4755 0.4792 0.4828 0.4864
3129.000000 0.4883 0.4903 0.4922 0.4941 0.4960
3134.000000 0.4980 0.4999 0.5018 0.5037 0.5056
3139.000000 0.5075 0.5094 0.5122 0.5151 0.5165
3144.000000 0.5180 0.5186 0.5192 0.5194 0.5196
3149.000000 0.5198 0.5200 0.5201 0.5201 0.5201
3154.000000 0.5201 0.5200 0.5200 0.5200 0.5200
3159.000000 0.5199 0.5199 0.5198 0.5197 0.5196
3164.000000 0.5196 0.5195 0.5194 0.5193 0.5193
3169.000000 0.5192 0.5191 0.5190 0.5189 0.5187
3174.000000 0.5185 0.5183 0.5181 0.5179 0.5177
3179.000000 0.5175 0.5173 0.5171 0.5169 0.5167
3184.000000 0.5165 0.5162 0.5160 0.5158 0.5156
3189.000000 0.5153 0.5151 0.5148 0.5146 0.5143
3194.000000 0.5141 0.5139 0.5137 0.5134 0.5132
3199.000000 0.5129 0.5127 0.5124 0.5122 0.5119
3204.000000 0.5117 0.5112 0.5108 0.5103 0.5098
3209.000000 0.5092 0.5087 0.5082 0.5077 0.5071
3214.000000 0.5066 0.5060 0.5056 0.5050 0.5045
3219.000000 0.5040 0.5035 0.5029 0.5024 0.5019
3224.000000 0.5014 0.5008 0.5003 0.4999 0.4996
3229.000000 0.4992 0.4989 0.4985 0.4982 0.4979
3234.000000 0.4976 0.4972 0.4969 0.4965 0.4962
3239.000000 0.4959 0.4956 0.4952 0.4949 0.4946
3244.000000 0.4943 0.4939 0.4936 0.4932 0.4929
3249.000000 0.4925 0.4922 0.4918 0.4914 0.4910
3254.000000 0.4907 0.4903 0.4900 0.4896 0.4892
3259.000000 0.4888 0.4885 0.4881 0.4878 0.4874
3264.000000 0.4871 0.4867 0.4862 0.4859 0.4856
3269.000000 0.4852 0.4849 0.4845 0.4842 0.4838
3274.000000 0.4834 0.4830 0.4827 0.4823 0.4820
3279.000000 0.4816 0.4812 0.4809 0.4805 0.4801
3284.000000 0.4798 0.4794 0.4791 0.4787 0.4784
3289.000000 0.4780 0.4776 0.4772 0.4768 0.4764
3294.000000 0.4760 0.4756 0.4752 0.4748 0.4744
3299.000000 0.4740 0.4736 0.4732 0.4728 0.4724
3304.000000 0.4720 0.4716 0.4712 0.4708 0.4704
3309.000000 0.4700 0.4696 0.4691 0.4687 0.4683
3314.000000 0.4679 0.4675 0.4671 0.4667 0.4662
3319.000000 0.4659 0.4655 0.4651 0.4647 0.4643
3324.000000 0.4639 0.4635 0.4631 0.4627 0.4623
3329.000000 0.4619 0.4615 0.4610 0.4607 0.4604
3334.000000 0.4601 0.4597 0.4594 0.4591 0.4588
3339.000000 0.4584 0.4581 0.4578 0.4575 0.4571
3344.000000 0.4568 0.4565 0.4562 0.4558 0.4555
3349.000000 0.4552 0.4549 0.4546 0.4543 0.4539
3354.000000 0.4536 0.4533 0.4530 0.4526 0.4523
3359.000000 0.4520 0.4517 0.4512 0.4510 0.4507
3364.000000 0.4504 0.4500 0.4497 0.4494 0.4491
3369.000000 0.4488 0.4486 0.4483 0.4480 0.4477
3374.000000 0.4475 0.4472 0.4469 0.4466 0.4462
3379.000000 0.4460 0.4458 0.4455 0.4452 0.4449
3384.000000 0.4446 0.4443 0.4441 0.4438 0.4435
3389.000000 0.4432 0.4429 0.4426 0.4424 0.4421
3394.000000 0.4418 0.4415 0.4412 0.4409 0.4407
3399.000000 0.4404 0.4401 0.4398 0.4395 0.4392
3404.000000 0.4390 0.4387 0.4384 0.4381 0.4379
3409.000000 0.4376 0.4373 0.4370 0.4367 0.4364
3414.000000 0.4362 0.4359 0.4356 0.4354 0.4352
3419.000000 0.4350 0.4349 0.4347 0.4346 0.4344
3424.000000 0.4343 0.4341 0.4340 0.4338 0.4336
3429.000000 0.4334 0.4333 0.4331 0.4330 0.4328
3434.000000 0.4327 0.4325 0.4324 0.4322 0.4321
3439.000000 0.4321 0.4321 0.4322 0.4323 0.4323
3444.000000 0.4324 0.4324 0.4325 0.4325 0.4326
3449.000000 0.4327 0.4328 0.4328 0.4329 0.4329
3454.000000 0.4330 0.4331 0.4332 0.4332 0.4333
3459.000000 0.4333 0.4334 0.4334 0.4334 0.4334
3464.000000 0.4335 0.4335 0.4335 0.4335 0.4335
3469.000000 0.4335 0.4335 0.4335 0.4336 0.4336
3474.000000 0.4336 0.4336 0.4336 0.4336 0.4336
3479.000000 0.4336 0.4337 0.4337 0.4337 0.4336
3484.000000 0.4336 0.4335 0.4335 0.4334 0.4334
3489.000000 0.4333 0.4333 0.4332 0.4332 0.4331
3494.000000 0.4331 0.4330 0.4329 0.4328 0.4328
3499.000000 0.4326 0.4324 0.4320 0.4317 0.4312
3504.000000 0.4310 0.4306 0.4303 0.4300 0.4297
3509.000000 0.4293 0.4290 0.4286 0.4283 0.4280
3514.000000 0.4277 0.4273 0.4270 0.4266 0.4262
3519.000000 0.4258 0.4254 0.4248 0.4243 0.4252
3524.000000 0.4260 0.4270 0.4280 0.4289 0.4299
3529.000000 0.4308 0.4317 0.4326 0.4336 0.4343
3534.000000 0.4350 0.4356 0.4362 0.4369 0.4376
3539.000000 0.4382 0.4389 0.4395 0.4401 0.4407
3544.000000 0.4414 0.4420 0.4427 0.4433 0.4440
3549.000000 0.4446 0.4452 0.4457 0.4462 0.4467
3554.000000 0.4473 0.4478 0.4484 0.4489 0.4494
3559.000000 0.4499 0.4505 0.4510 0.4515 0.4520
3564.000000 0.4526 0.4528 0.4530 0.4531 0.4532
3569.000000 0.4532 0.4533 0.4534 0.4535 0.4536
3574.000000 0.4537 0.4537 0.4538 0.4538 0.4539
3579.000000 0.4539 0.4539 0.4539 0.4540 0.4540
3584.000000 0.4541 0.4541 0.4541 0.4541 0.4542
3589.000000 0.4542 0.4543 0.4543 0.4543 0.4543
3594.000000 0.4544 0.4544 0.4545 0.4545 0.4546
3599.000000 0.4546 0.4547 0.4547 0.4548 0.4548
3604.000000 0.4549 0.4549 0.4549 0.4549 0.4550
3609.000000 0.4550 0.4551 0.4551 0.4552 0.4552
3614.000000 0.4553 0.4553 0.4554 0.4554 0.4554
3619.000000 0.4554 0.4555 0.4555 0.4555 0.4555
3624.000000 0.4555 0.4555 0.4555 0.4555 0.4556
3629.000000 0.4556 0.4556 0.4556 0.4556 0.4556
3634.000000 0.4557 0.4557 0.4557 0.4557 0.4557
3639.000000 0.4556 0.4555 0.4554 0.4553 0.4552
3644.000000 0.4551 0.4550 0.4549 0.4548 0.4547
3649.000000 0.4545 0.4544 0.4543 0.4542 0.4541
3654.000000 0.4540 0.4539 0.4538 0.4537 0.4536
3659.000000 0.4535 0.4534 0.4533 0.4532 0.4531
3664.000000 0.4530 0.4529 0.4528 0.4527 0.4526
3669.000000 0.4525 0.4524 0.4523 0.4523 0.4522
3674.000000 0.4521 0.4520 0.4519 0.4518 0.4517
3679.000000 0.4516 0.4516 0.4515 0.4514 0.4512
3684.000000 0.4512 0.4510 0.4510 0.4510 0.4509
3689.000000 0.4508 0.4507 0.4506 0.4506 0.4505
3694.000000 0.4504 0.4503 0.4502 0.4501 0.4500
3699.000000 0.4499 0.4498 0.4496 0.4495 0.4494
3704.000000 0.4493 0.4492 0.4491 0.4489 0.4488
3709.000000 0.4487 0.4486 0.4485 0.4484 0.4482
3714.000000 0.4481 0.4480 0.4479 0.4478 0.4477
3719.000000 0.4475 0.4474 0.4473 0.4472 0.4471
3724.000000 0.4470 0.4468 0.4467 0.4465 0.4462
3729.000000 0.4460 0.4459 0.4457 0.4455 0.4453
3734.000000 0.4451 0.4449 0.4448 0.4446 0.4444
3739.000000 0.4442 0.4440 0.4438 0.4436 0.4434
3744.000000 0.4433 0.4431 0.4429 0.4427 0.4425
3749.000000 0.4423 0.4421 0.4418 0.4416 0.4412
3754.000000 0.4410 0.4408 0.4405 0.4402 0.4400
3759.000000 0.4397 0.4394 0.4391 0.4389 0.4386
3764.000000 0.4383 0.4380 0.4378 0.4375 0.4373
3769.000000 0.4370 0.4367 0.4365 0.4362 0.4360
3774.000000 0.4360 0.4358 0.4357 0.4355 0.4354
3779.000000 0.4352 0.4351 0.4349 0.4348 0.4346
3784.000000 0.4345 0.4344 0.4343 0.4341 0.4340
3789.000000 0.4338 0.4337 0.4335 0.4334 0.4332
3794.000000 0.4331 0.4330 0.4330
##END=
