##TITLE=POTASSIUM BROMATE
$$ C.P.
##JCAMP-DX=4.24
##DATA TYPE=INFRARED SPECTRUM
##CLASS=COBLENTZ
##ORIGIN=MELLON INSTITUTE
##OWNER=COBLENTZ SOCIETY
Collection (C) 2018 copyright by the U.S. Secretary of Commerce
on behalf of the United States of America. All rights reserved.
##DATE=Not specified, most likely prior to 1970
##MOLFORM=K Br O3
##SOURCE REFERENCE=COBLENTZ NO. 522
##$NIST ID=B6000522
##$NIST SOURCE=COBLENTZ
##$NIST IMAGE=cob522
##SPECTROMETER/DATA SYSTEM=Not specified, most likely a prism, grating, or hybrid spectrometer.
##STATE=SOLID (NUJOL MULL)
##PATH LENGTH=
$$SPECTRAL CONTAMINATION DUE TO OIL AROUND 2900, 1450, 1380 CM^-^1
##SAMPLING PROCEDURE=TRANSMISSION
##RESOLUTION=4
##DATA PROCESSING=DIGITIZED BY NIST FROM HARD COPY
##XUNITS=MICROMETERS
##YUNITS=TRANSMITTANCE
##XFACTOR=1.000000
##YFACTOR=1
##DELTAX=000.006820
##FIRSTX=2.025
##LASTX=15.9916
##FIRSTY=0.761
##MAXX=15.9916
##MINX=2.025
##MAXY=0.948
##MINY=0.097
##NPOINTS=2049
##XYDATA=(X++(Y..Y))
2.025000 0.7610 0.7610 0.7610 0.7610 0.7610
2.059115 0.7610 0.7610 0.7610 0.7620 0.7620
2.093000 0.7620 0.7620 0.7620 0.7620 0.7620
2.127115 0.7620 0.7620 0.7620 0.7620 0.7620
2.161000 0.7640 0.7640 0.7640 0.7660 0.7660
2.195115 0.7660 0.7660 0.7660 0.7660 0.7680
2.229000 0.7680 0.7680 0.7680 0.7680 0.7690
2.263115 0.7690 0.7690 0.7690 0.7690 0.7690
2.298000 0.7690 0.7690 0.7690 0.7690 0.7710
2.332115 0.7710 0.7690 0.7690 0.7710 0.7690
2.366000 0.7690 0.7690 0.7690 0.7690 0.7690
2.400115 0.7690 0.7690 0.7710 0.7690 0.7690
2.434000 0.7690 0.7690 0.7690 0.7690 0.7690
2.468115 0.7690 0.7690 0.7690 0.7690 0.7690
2.502000 0.7690 0.7690 0.7690 0.7690 0.7690
2.536115 0.7690 0.7710 0.7710 0.7710 0.7710
2.570000 0.7710 0.7710 0.7710 0.7710 0.7710
2.604115 0.7710 0.7710 0.7710 0.7710 0.7710
2.639000 0.7710 0.7710 0.7710 0.7710 0.7690
2.673115 0.7690 0.7690 0.7690 0.7690 0.7690
2.707000 0.7690 0.7680 0.7680 0.7690 0.7680
2.741115 0.7680 0.7680 0.7680 0.7680 0.7660
2.775000 0.7660 0.7660 0.7660 0.7660 0.7660
2.809115 0.7660 0.7640 0.7640 0.7640 0.7620
2.843000 0.7620 0.7620 0.7620 0.7620 0.7610
2.877115 0.7610 0.7610 0.7610 0.7590 0.7590
2.911000 0.7590 0.7590 0.7590 0.7570 0.7570
2.945115 0.7570 0.7560 0.7560 0.7540 0.7520
2.980000 0.7520 0.7520 0.7540 0.7560 0.7560
3.014115 0.7560 0.7570 0.7570 0.7590 0.7590
3.048000 0.7610 0.7610 0.7610 0.7620 0.7620
3.082115 0.7640 0.7640 0.7640 0.7660 0.7680
3.116000 0.7680 0.7690 0.7690 0.7710 0.7730
3.150115 0.7730 0.7740 0.7740 0.7740 0.7760
3.184000 0.7760 0.7780 0.7800 0.7810 0.7830
3.218115 0.7830 0.7850 0.7850 0.7860 0.7860
3.252000 0.7880 0.7880 0.7880 0.7850 0.7830
3.286115 0.7780 0.7680 0.7500 0.7380 0.6990
3.321000 0.5700 0.5100 0.4940 0.4790 0.4550
3.355115 0.4150 0.3930 0.3530 0.3350 0.3350
3.389000 0.3520 0.4000 0.4360 0.4600 0.4930
3.423115 0.4930 0.4890 0.4890 0.4840 0.4790
3.457000 0.4770 0.4770 0.5300 0.5680 0.6210
3.491115 0.6520 0.6900 0.7180 0.7640 0.7830
3.525000 0.7980 0.8040 0.8120 0.8210 0.8280
3.559115 0.8330 0.8350 0.8360 0.8400 0.8410
3.593000 0.8430 0.8450 0.8470 0.8470 0.8480
3.627115 0.8480 0.8480 0.8500 0.8500 0.8500
3.662000 0.8520 0.8520 0.8520 0.8530 0.8530
3.696115 0.8530 0.8530 0.8530 0.8530 0.8530
3.730000 0.8550 0.8550 0.8550 0.8550 0.8550
3.764115 0.8550 0.8550 0.8570 0.8570 0.8570
3.798000 0.8570 0.8570 0.8570 0.8570 0.8570
3.832115 0.8570 0.8590 0.8590 0.8600 0.8600
3.866000 0.8600 0.8600 0.8620 0.8620 0.8620
3.900115 0.8620 0.8620 0.8620 0.8620 0.8620
3.934000 0.8620 0.8620 0.8620 0.8640 0.8640
3.968115 0.8640 0.8640 0.8640 0.8640 0.8640
4.002000 0.8640 0.8640 0.8640 0.8640 0.8640
4.036115 0.8640 0.8640 0.8640 0.8640 0.8640
4.071000 0.8640 0.8650 0.8640 0.8640 0.8640
4.105115 0.8620 0.8620 0.8620 0.8600 0.8600
4.139000 0.8600 0.8590 0.8590 0.8590 0.8570
4.173115 0.8570 0.8570 0.8570 0.8570 0.8570
4.207000 0.8570 0.8570 0.8570 0.8570 0.8570
4.241115 0.8550 0.8550 0.8550 0.8550 0.8550
4.275000 0.8550 0.8550 0.8550 0.8550 0.8550
4.309115 0.8550 0.8550 0.8550 0.8550 0.8550
4.343000 0.8550 0.8550 0.8550 0.8550 0.8550
4.377115 0.8550 0.8550 0.8550 0.8550 0.8530
4.412000 0.8530 0.8550 0.8550 0.8550 0.8550
4.446115 0.8550 0.8550 0.8550 0.8550 0.8550
4.480000 0.8550 0.8550 0.8550 0.8550 0.8550
4.514115 0.8550 0.8550 0.8530 0.8530 0.8550
4.548000 0.8550 0.8550 0.8550 0.8570 0.8550
4.582115 0.8570 0.8570 0.8570 0.8590 0.8590
4.616000 0.8590 0.8590 0.8590 0.8590 0.8590
4.650115 0.8600 0.8600 0.8600 0.8600 0.8600
4.684000 0.8600 0.8600 0.8600 0.8600 0.8590
4.718115 0.8590 0.8590 0.8590 0.8590 0.8600
4.753000 0.8600 0.8600 0.8620 0.8600 0.8600
4.787115 0.8600 0.8600 0.8600 0.8600 0.8600
4.821000 0.8600 0.8600 0.8590 0.8590 0.8590
4.855115 0.8590 0.8570 0.8590 0.8590 0.8590
4.889000 0.8590 0.8590 0.8590 0.8590 0.8590
4.923115 0.8590 0.8590 0.8590 0.8590 0.8590
4.957000 0.8590 0.8590 0.8590 0.8590 0.8590
4.991115 0.8590 0.8590 0.8590 0.8590 0.8590
5.025000 0.8600 0.8600 0.8600 0.8600 0.8600
5.059115 0.8620 0.8620 0.8620 0.8620 0.8620
5.094000 0.8620 0.8620 0.8620 0.8640 0.8640
5.128115 0.8640 0.8640 0.8640 0.8640 0.8640
5.162000 0.8640 0.8650 0.8650 0.8650 0.8670
5.196115 0.8670 0.8670 0.8670 0.8690 0.8690
5.230000 0.8690 0.8710 0.8710 0.8710 0.8710
5.264115 0.8720 0.8720 0.8720 0.8720 0.8720
5.298000 0.8720 0.8720 0.8720 0.8740 0.8740
5.332115 0.8740 0.8740 0.8740 0.8740 0.8740
5.366000 0.8740 0.8740 0.8740 0.8740 0.8760
5.400115 0.8780 0.8760 0.8780 0.8780 0.8780
5.435000 0.8780 0.8790 0.8790 0.8790 0.8810
5.469115 0.8810 0.8810 0.8830 0.8830 0.8830
5.503000 0.8830 0.8830 0.8840 0.8840 0.8840
5.537115 0.8840 0.8840 0.8840 0.8840 0.8880
5.571000 0.8880 0.8880 0.8880 0.8880 0.8880
5.605115 0.8900 0.8900 0.8900 0.8910 0.8910
5.639000 0.8910 0.8910 0.8910 0.8910 0.8930
5.673115 0.8930 0.8930 0.8950 0.8960 0.8960
5.707000 0.8960 0.8980 0.8980 0.8980 0.8980
5.741115 0.8980 0.8980 0.9000 0.9000 0.9000
5.776000 0.9020 0.9020 0.9020 0.9020 0.9020
5.810115 0.9020 0.9020 0.9030 0.9030 0.9030
5.844000 0.9030 0.9030 0.9030 0.9030 0.9020
5.878115 0.9020 0.9020 0.9020 0.9020 0.9020
5.912000 0.9020 0.9020 0.9020 0.9020 0.9020
5.946115 0.9020 0.9000 0.9000 0.9000 0.9000
5.980000 0.9000 0.8980 0.8980 0.8960 0.8950
6.014115 0.8950 0.8950 0.8950 0.8950 0.8950
6.048000 0.8950 0.8930 0.8930 0.8910 0.8910
6.082115 0.8910 0.8910 0.8900 0.8900 0.8900
6.117000 0.8900 0.8900 0.8900 0.8900 0.8900
6.151115 0.8900 0.8900 0.8900 0.8900 0.8900
6.185000 0.8900 0.8900 0.8910 0.8910 0.8910
6.219115 0.8910 0.8910 0.8910 0.8910 0.8930
6.253000 0.8950 0.8950 0.8950 0.8950 0.8950
6.287115 0.8960 0.8980 0.8980 0.8980 0.9000
6.321000 0.9000 0.9000 0.9020 0.9020 0.9020
6.355115 0.9020 0.9030 0.9030 0.9030 0.9050
6.389000 0.9050 0.9050 0.9050 0.9070 0.9070
6.423115 0.9070 0.9070 0.9070 0.9070 0.9070
6.458000 0.9070 0.9080 0.9080 0.9080 0.9100
6.492115 0.9100 0.9100 0.9100 0.9100 0.9100
6.526000 0.9100 0.9100 0.9100 0.9100 0.9100
6.560115 0.9100 0.9100 0.9100 0.9100 0.9100
6.594000 0.9100 0.9100 0.9100 0.9100 0.9100
6.628115 0.9100 0.9100 0.9100 0.9100 0.9100
6.662000 0.9100 0.9080 0.9080 0.9080 0.9070
6.696115 0.9030 0.9020 0.9000 0.8980 0.8910
6.730000 0.8860 0.8780 0.8620 0.8450 0.8260
6.764115 0.8090 0.7930 0.7800 0.7730 0.7610
6.799000 0.7500 0.7420 0.7400 0.7400 0.7450
6.833115 0.7490 0.7560 0.7640 0.7710 0.7780
6.867000 0.7830 0.7860 0.7950 0.8020 0.8160
6.901115 0.8290 0.8360 0.8430 0.8500 0.8590
6.935000 0.8670 0.8760 0.8830 0.8860 0.8910
6.969115 0.8930 0.8960 0.8980 0.9020 0.9020
7.003000 0.9050 0.9080 0.9100 0.9120 0.9120
7.037115 0.9140 0.9140 0.9150 0.9150 0.9170
7.071000 0.9170 0.9190 0.9190 0.9190 0.9190
7.105115 0.9170 0.9170 0.9150 0.9140 0.9080
7.139000 0.9050 0.9020 0.8960 0.8860 0.8830
7.173115 0.8760 0.8650 0.8550 0.8450 0.8410
7.208000 0.8400 0.8380 0.8400 0.8410 0.8450
7.242115 0.8570 0.8650 0.8710 0.8720 0.8780
7.276000 0.8830 0.8860 0.8880 0.8910 0.8950
7.310115 0.8960 0.8980 0.9000 0.9000 0.9020
7.344000 0.9020 0.9030 0.9030 0.9030 0.9030
7.378115 0.9050 0.9050 0.9070 0.9070 0.9070
7.412000 0.9070 0.9070 0.9070 0.9080 0.9080
7.446115 0.9080 0.9100 0.9100 0.9100 0.9100
7.480000 0.9100 0.9120 0.9120 0.9120 0.9120
7.514115 0.9120 0.9120 0.9140 0.9140 0.9140
7.549000 0.9140 0.9140 0.9150 0.9150 0.9150
7.583115 0.9150 0.9150 0.9150 0.9150 0.9150
7.617000 0.9150 0.9150 0.9170 0.9170 0.9170
7.651115 0.9170 0.9170 0.9170 0.9170 0.9170
7.685000 0.9170 0.9170 0.9170 0.9190 0.9190
7.719115 0.9190 0.9190 0.9190 0.9190 0.9190
7.753000 0.9190 0.9190 0.9190 0.9190 0.9190
7.787115 0.9190 0.9190 0.9190 0.9190 0.9190
7.821000 0.9190 0.9190 0.9190 0.9190 0.9190
7.855115 0.9190 0.9190 0.9190 0.9190 0.9190
7.890000 0.9190 0.9190 0.9200 0.9200 0.9200
7.924115 0.9200 0.9200 0.9200 0.9200 0.9200
7.958000 0.9200 0.9200 0.9200 0.9200 0.9200
7.992115 0.9200 0.9200 0.9200 0.9200 0.9200
8.026000 0.9200 0.9200 0.9200 0.9220 0.9220
8.060115 0.9220 0.9200 0.9200 0.9200 0.9200
8.094000 0.9200 0.9200 0.9200 0.9200 0.9200
8.128115 0.9200 0.9200 0.9200 0.9200 0.9200
8.162000 0.9200 0.9200 0.9200 0.9200 0.9200
8.196115 0.9200 0.9220 0.9200 0.9200 0.9200
8.231000 0.9200 0.9200 0.9200 0.9200 0.9200
8.265115 0.9200 0.9200 0.9200 0.9200 0.9200
8.299000 0.9200 0.9200 0.9200 0.9190 0.9190
8.333115 0.9190 0.9190 0.9190 0.9190 0.9190
8.367000 0.9190 0.9190 0.9190 0.9190 0.9190
8.401115 0.9190 0.9190 0.9190 0.9190 0.9190
8.435000 0.9190 0.9190 0.9190 0.9190 0.9190
8.469115 0.9190 0.9190 0.9190 0.9190 0.9190
8.503000 0.9190 0.9190 0.9190 0.9190 0.9190
8.537115 0.9190 0.9190 0.9190 0.9190 0.9190
8.572000 0.9190 0.9190 0.9190 0.9190 0.9190
8.606115 0.9190 0.9190 0.9190 0.9190 0.9190
8.640000 0.9190 0.9190 0.9190 0.9190 0.9170
8.674115 0.9170 0.9170 0.9170 0.9170 0.9170
8.708000 0.9150 0.9150 0.9150 0.9150 0.9150
8.742115 0.9150 0.9150 0.9150 0.9170 0.9170
8.776000 0.9170 0.9150 0.9150 0.9150 0.9150
8.810115 0.9150 0.9150 0.9150 0.9150 0.9150
8.844000 0.9150 0.9150 0.9150 0.9150 0.9150
8.878115 0.9150 0.9150 0.9140 0.9140 0.9140
8.913000 0.9140 0.9140 0.9140 0.9140 0.9140
8.947115 0.9140 0.9140 0.9140 0.9140 0.9140
8.981000 0.9140 0.9140 0.9140 0.9140 0.9140
9.015115 0.9150 0.9140 0.9140 0.9140 0.9140
9.049000 0.9140 0.9150 0.9150 0.9150 0.9150
9.083115 0.9170 0.9150 0.9170 0.9170 0.9170
9.117000 0.9190 0.9190 0.9190 0.9190 0.9200
9.151115 0.9200 0.9200 0.9200 0.9220 0.9240
9.185000 0.9240 0.9240 0.9240 0.9240 0.9240
9.219115 0.9240 0.9240 0.9240 0.9260 0.9260
9.254000 0.9260 0.9260 0.9260 0.9260 0.9260
9.288115 0.9270 0.9270 0.9290 0.9290 0.9290
9.322000 0.9290 0.9290 0.9290 0.9310 0.9310
9.356115 0.9310 0.9310 0.9310 0.9320 0.9320
9.390000 0.9320 0.9320 0.9320 0.9320 0.9320
9.424115 0.9320 0.9320 0.9320 0.9340 0.9340
9.458000 0.9340 0.9340 0.9340 0.9340 0.9340
9.492115 0.9340 0.9360 0.9360 0.9360 0.9360
9.526000 0.9360 0.9360 0.9360 0.9380 0.9380
9.560115 0.9380 0.9380 0.9380 0.9380 0.9380
9.595000 0.9380 0.9380 0.9380 0.9380 0.9380
9.629115 0.9380 0.9380 0.9380 0.9380 0.9390
9.663000 0.9390 0.9390 0.9390 0.9390 0.9390
9.697115 0.9390 0.9390 0.9390 0.9390 0.9390
9.731000 0.9390 0.9390 0.9390 0.9390 0.9390
9.765115 0.9390 0.9390 0.9390 0.9390 0.9390
9.799000 0.9410 0.9410 0.9410 0.9410 0.9410
9.833115 0.9410 0.9410 0.9410 0.9430 0.9430
9.867000 0.9430 0.9430 0.9430 0.9430 0.9430
9.901115 0.9430 0.9430 0.9430 0.9430 0.9430
9.936000 0.9430 0.9430 0.9430 0.9430 0.9430
9.970115 0.9430 0.9430 0.9430 0.9430 0.9430
10.004000 0.9450 0.9450 0.9450 0.9450 0.9450
10.038115 0.9450 0.9450 0.9450 0.9450 0.9450
10.072000 0.9450 0.9430 0.9430 0.9430 0.9430
10.106115 0.9430 0.9430 0.9430 0.9430 0.9430
10.140000 0.9430 0.9430 0.9430 0.9430 0.9430
10.174115 0.9430 0.9430 0.9430 0.9450 0.9430
10.208000 0.9450 0.9450 0.9450 0.9450 0.9450
10.242115 0.9450 0.9450 0.9450 0.9450 0.9450
10.277000 0.9460 0.9460 0.9460 0.9460 0.9460
10.311115 0.9460 0.9460 0.9480 0.9480 0.9480
10.345000 0.9480 0.9460 0.9460 0.9460 0.9460
10.379115 0.9460 0.9460 0.9460 0.9460 0.9460
10.413000 0.9460 0.9460 0.9460 0.9450 0.9450
10.447115 0.9450 0.9460 0.9450 0.9450 0.9450
10.481000 0.9450 0.9450 0.9450 0.9430 0.9430
10.515115 0.9430 0.9410 0.9410 0.9410 0.9410
10.549000 0.9410 0.9410 0.9410 0.9410 0.9410
10.583115 0.9410 0.9390 0.9390 0.9390 0.9390
10.617000 0.9390 0.9390 0.9390 0.9390 0.9390
10.651115 0.9380 0.9390 0.9390 0.9390 0.9390
10.686000 0.9390 0.9380 0.9380 0.9380 0.9360
10.720115 0.9360 0.9360 0.9360 0.9360 0.9360
10.754000 0.9360 0.9360 0.9360 0.9360 0.9360
10.788115 0.9360 0.9360 0.9360 0.9360 0.9360
10.822000 0.9360 0.9360 0.9360 0.9360 0.9360
10.856115 0.9360 0.9360 0.9360 0.9360 0.9360
10.890000 0.9360 0.9340 0.9340 0.9340 0.9340
10.924115 0.9340 0.9340 0.9340 0.9340 0.9340
10.958000 0.9340 0.9340 0.9340 0.9340 0.9320
10.992115 0.9320 0.9320 0.9320 0.9320 0.9320
11.027000 0.9340 0.9320 0.9320 0.9320 0.9310
11.061115 0.9310 0.9310 0.9310 0.9310 0.9310
11.095000 0.9310 0.9310 0.9310 0.9310 0.9290
11.129115 0.9290 0.9290 0.9290 0.9290 0.9290
11.163000 0.9290 0.9290 0.9290 0.9290 0.9290
11.197115 0.9270 0.9270 0.9270 0.9260 0.9260
11.231000 0.9260 0.9260 0.9260 0.9260 0.9260
11.265115 0.9260 0.9260 0.9260 0.9260 0.9260
11.299000 0.9260 0.9260 0.9260 0.9260 0.9260
11.333115 0.9260 0.9260 0.9260 0.9260 0.9260
11.368000 0.9260 0.9260 0.9240 0.9240 0.9240
11.402115 0.9240 0.9240 0.9240 0.9240 0.9240
11.436000 0.9240 0.9240 0.9240 0.9240 0.9220
11.470115 0.9220 0.9220 0.9220 0.9220 0.9220
11.504000 0.9200 0.9200 0.9200 0.9190 0.9190
11.538115 0.9190 0.9170 0.9170 0.9170 0.9150
11.572000 0.9150 0.9150 0.9150 0.9150 0.9150
11.606115 0.9150 0.9150 0.9150 0.9150 0.9150
11.640000 0.9150 0.9140 0.9140 0.9140 0.9120
11.674115 0.9120 0.9120 0.9100 0.9100 0.9100
11.709000 0.9070 0.9070 0.9050 0.9050 0.9030
11.743115 0.9020 0.9000 0.8980 0.8980 0.8950
11.777000 0.8930 0.8910 0.8900 0.8900 0.8860
11.811115 0.8840 0.8830 0.8810 0.8790 0.8740
11.845000 0.8720 0.8710 0.8650 0.8640 0.8590
11.879115 0.8530 0.8520 0.8500 0.8410 0.8360
11.913000 0.8330 0.8290 0.8230 0.8170 0.8100
11.947115 0.8050 0.7980 0.7880 0.7800 0.7760
11.981000 0.7690 0.7590 0.7470 0.7310 0.7180
12.015115 0.7020 0.6890 0.6750 0.6630 0.6540
12.050000 0.6470 0.6370 0.6280 0.6180 0.6130
12.084115 0.5970 0.5650 0.5440 0.5300 0.5180
12.118000 0.5060 0.5030 0.4980 0.4820 0.4690
12.152115 0.4570 0.4480 0.4380 0.4290 0.4170
12.186000 0.4050 0.3880 0.3740 0.3640 0.3500
12.220115 0.3450 0.3330 0.3230 0.3140 0.3050
12.254000 0.3000 0.2920 0.2880 0.2800 0.2760
12.288115 0.2710 0.2690 0.2660 0.2590 0.2540
12.322000 0.2500 0.2470 0.2420 0.2380 0.2350
12.356115 0.2310 0.2280 0.2230 0.2190 0.2140
12.391000 0.2060 0.2040 0.2010 0.1950 0.1900
12.425115 0.1830 0.1760 0.1700 0.1630 0.1560
12.459000 0.1510 0.1470 0.1420 0.1390 0.1370
12.493115 0.1340 0.1280 0.1230 0.1200 0.1160
12.527000 0.1150 0.1110 0.1080 0.1040 0.1040
12.561115 0.1030 0.1010 0.1010 0.0990 0.0990
12.595000 0.0970 0.0970 0.0970 0.0970 0.0970
12.629115 0.0970 0.0970 0.0970 0.0970 0.0970
12.663000 0.0970 0.0970 0.0970 0.0970 0.0970
12.697115 0.0970 0.0990 0.0990 0.0990 0.0990
12.732000 0.1010 0.1010 0.1030 0.1040 0.1080
12.766115 0.1110 0.1130 0.1180 0.1250 0.1300
12.800000 0.1460 0.1710 0.1990 0.2300 0.2560
12.834115 0.2780 0.2980 0.3190 0.3380 0.3670
12.868000 0.3790 0.3980 0.4170 0.4410 0.4620
12.902115 0.4770 0.4940 0.5170 0.5240 0.5360
12.936000 0.5460 0.5560 0.5750 0.5840 0.5990
12.970115 0.5990 0.6040 0.6130 0.6210 0.6300
13.004000 0.6390 0.6470 0.6560 0.6580 0.6630
13.038115 0.6640 0.6700 0.6760 0.6800 0.6820
13.073000 0.6850 0.6900 0.6920 0.6940 0.6990
13.107115 0.7010 0.7020 0.7040 0.7070 0.7110
13.141000 0.7130 0.7140 0.7190 0.7190 0.7210
13.175115 0.7250 0.7260 0.7300 0.7330 0.7380
13.209000 0.7420 0.7450 0.7490 0.7490 0.7520
13.243115 0.7560 0.7570 0.7570 0.7590 0.7610
13.277000 0.7620 0.7640 0.7660 0.7680 0.7680
13.311115 0.7680 0.7690 0.7690 0.7690 0.7690
13.345000 0.7710 0.7710 0.7710 0.7710 0.7730
13.379115 0.7730 0.7730 0.7730 0.7730 0.7740
13.414000 0.7740 0.7740 0.7740 0.7740 0.7760
13.448115 0.7760 0.7760 0.7760 0.7760 0.7760
13.482000 0.7760 0.7760 0.7760 0.7760 0.7760
13.516115 0.7760 0.7760 0.7760 0.7760 0.7760
13.550000 0.7760 0.7760 0.7760 0.7760 0.7760
13.584115 0.7760 0.7760 0.7760 0.7760 0.7760
13.618000 0.7740 0.7760 0.7760 0.7760 0.7740
13.652115 0.7740 0.7740 0.7740 0.7740 0.7740
13.686000 0.7740 0.7740 0.7740 0.7740 0.7740
13.720115 0.7740 0.7740 0.7740 0.7740 0.7740
13.754000 0.7740 0.7740 0.7730 0.7730 0.7730
13.788115 0.7730 0.7730 0.7710 0.7710 0.7710
13.823000 0.7690 0.7690 0.7690 0.7690 0.7690
13.857115 0.7690 0.7690 0.7690 0.7680 0.7680
13.891000 0.7680 0.7680 0.7660 0.7660 0.7660
13.925115 0.7660 0.7660 0.7640 0.7640 0.7640
13.959000 0.7640 0.7640 0.7640 0.7640 0.7640
13.993115 0.7660 0.7660 0.7640 0.7640 0.7640
14.027000 0.7620 0.7620 0.7620 0.7620 0.7620
14.061115 0.7620 0.7620 0.7620 0.7620 0.7620
14.095000 0.7620 0.7610 0.7610 0.7610 0.7590
14.129115 0.7590 0.7560 0.7560 0.7560 0.7540
14.164000 0.7540 0.7540 0.7540 0.7540 0.7540
14.198115 0.7540 0.7520 0.7520 0.7520 0.7500
14.232000 0.7500 0.7500 0.7490 0.7490 0.7490
14.266115 0.7470 0.7470 0.7450 0.7450 0.7430
14.300000 0.7430 0.7420 0.7400 0.7400 0.7400
14.334115 0.7400 0.7380 0.7370 0.7350 0.7350
14.368000 0.7330 0.7330 0.7330 0.7310 0.7310
14.402115 0.7300 0.7300 0.7280 0.7280 0.7280
14.436000 0.7260 0.7250 0.7250 0.7250 0.7230
14.470115 0.7210 0.7210 0.7190 0.7190 0.7180
14.505000 0.7160 0.7140 0.7130 0.7130 0.7110
14.539115 0.7110 0.7110 0.7090 0.7090 0.7090
14.573000 0.7070 0.7070 0.7070 0.7060 0.7060
14.607115 0.7060 0.7040 0.7040 0.7040 0.7020
14.641000 0.7020 0.7010 0.7010 0.7010 0.6990
14.675115 0.6990 0.6970 0.6950 0.6950 0.6950
14.709000 0.6940 0.6940 0.6940 0.6940 0.6920
14.743115 0.6920 0.6920 0.6900 0.6900 0.6900
14.777000 0.6890 0.6890 0.6870 0.6890 0.6870
14.811115 0.6870 0.6870 0.6850 0.6850 0.6850
14.846000 0.6850 0.6830 0.6830 0.6830 0.6830
14.880115 0.6820 0.6820 0.6820 0.6800 0.6800
14.914000 0.6800 0.6800 0.6800 0.6780 0.6780
14.948115 0.6780 0.6760 0.6760 0.6760 0.6760
14.982000 0.6760 0.6760 0.6750 0.6750 0.6750
15.016115 0.6750 0.6750 0.6730 0.6730 0.6730
15.050000 0.6730 0.6730 0.6710 0.6710 0.6710
15.084115 0.6710 0.6710 0.6710 0.6700 0.6700
15.118000 0.6700 0.6700 0.6700 0.6680 0.6680
15.152115 0.6680 0.6680 0.6680 0.6660 0.6660
15.187000 0.6660 0.6660 0.6660 0.6640 0.6640
15.221115 0.6640 0.6640 0.6640 0.6640 0.6640
15.255000 0.6640 0.6640 0.6640 0.6640 0.6640
15.289115 0.6640 0.6640 0.6640 0.6640 0.6640
15.323000 0.6640 0.6640 0.6640 0.6640 0.6640
15.357115 0.6640 0.6640 0.6630 0.6640 0.6640
15.391000 0.6640 0.6640 0.6640 0.6640 0.6640
15.425115 0.6640 0.6640 0.6640 0.6640 0.6640
15.459000 0.6640 0.6640 0.6640 0.6640 0.6640
15.493115 0.6640 0.6660 0.6660 0.6660 0.6660
15.528000 0.6660 0.6660 0.6660 0.6660 0.6660
15.562115 0.6660 0.6660 0.6660 0.6660 0.6660
15.596000 0.6660 0.6660 0.6660 0.6660 0.6680
15.630115 0.6680 0.6700 0.6710 0.6710 0.6710
15.664000 0.6710 0.6730 0.6730 0.6750 0.6750
15.698115 0.6760 0.6760 0.6760 0.6760 0.6760
15.732000 0.6780 0.6800 0.6800 0.6800 0.6800
15.766115 0.6820 0.6820 0.6830 0.6830 0.6870
15.800000 0.6870 0.6890 0.6890 0.6890 0.6900
15.834115 0.6900 0.6920 0.6920 0.6940 0.6940
15.869000 0.6950 0.6970 0.6970 0.7010 0.7010
15.903115 0.7010 0.7020 0.7020 0.7040 0.7040
15.937000 0.7040 0.7070 0.7090 0.7110 0.7130
15.971115 0.7130 0.7140 0.7140 0.7140
##END=
