##TITLE=Perfluorooctanoic acid, calcium salt, hydrate
##JCAMP-DX=4.24
##DATA TYPE=INFRARED SPECTRUM
##CLASS=COBLENTZ III
##ORIGIN=WYANDOTTE CHEMICALS CORP.
##OWNER=Copyright (C) 1987 by the Coblentz Society
Collection (C) 2018 copyright by the U.S. Secretary of Commerce
on behalf of the United States of America. All rights reserved.
##DATE=1956/03/06
##MOLFORM=C16 F30 O4 Ca
##SOURCE REFERENCE=COBLENTZ NO. 9805
##$NIST ID=B6009805
##$NIST SOURCE=COBLENTZ
##$NIST IMAGE=cob9805
##SPECTROMETER/DATA SYSTEM=BAIRD (PRISM)
##INSTRUMENT PARAMETERS=NaCl PRISM
##STATE=SOLID (OIL MULL)
##PATH LENGTH=
$$SPECTRAL CONTAMINATION DUE TO OIL AROUND 2900, 1460, 1370 CM^-^1
##SAMPLING PROCEDURE=TRANSMISSION
##RESOLUTION=2
##DATA PROCESSING=DIGITIZED BY COBLENTZ SOCIETY (BATCH II) FROM HARD COPY
##XUNITS=1/CM
##YUNITS=TRANSMITTANCE
##XFACTOR=1.0
##YFACTOR=1
##FIRSTX=626
##LASTX=4000
##FIRSTY=0.5834
##MAXX=4000
##MINX=626
##MAXY=0.955
##MINY=0.0437
##NPOINTS=3375
##XYDATA=(X++(Y..Y))
626.000000 0.5834 0.5883 0.5919 0.5941 0.5938
631.000000 0.5929 0.5919 0.5924 0.5916 0.5926
636.000000 0.5939 0.5958 0.5988 0.6021 0.6046
641.000000 0.6041 0.6103 0.6193 0.6222 0.6256
646.000000 0.6374 0.6519 0.6617 0.6701 0.6749
651.000000 0.6789 0.6834 0.6789 0.6729 0.6644
656.000000 0.6549 0.6446 0.6344 0.6245 0.6133
661.000000 0.6029 0.5948 0.5869 0.5834 0.5786
666.000000 0.5954 0.6047 0.6168 0.6308 0.6426
671.000000 0.6528 0.6667 0.6840 0.7026 0.7215
676.000000 0.7412 0.7568 0.7700 0.7807 0.7875
681.000000 0.7914 0.7967 0.8018 0.8070 0.8104
686.000000 0.8136 0.8145 0.8159 0.8094 0.7985
691.000000 0.7797 0.7524 0.7246 0.7048 0.6897
696.000000 0.6778 0.6765 0.6870 0.7053 0.7335
701.000000 0.7537 0.7720 0.7913 0.8018 0.8098
706.000000 0.8163 0.8208 0.8244 0.8260 0.8230
711.000000 0.8203 0.8122 0.7977 0.7812 0.7647
716.000000 0.7478 0.7263 0.7078 0.6942 0.6842
721.000000 0.6793 0.6760 0.6754 0.6770 0.6802
726.000000 0.6848 0.6932 0.7027 0.7134 0.7199
731.000000 0.7216 0.7193 0.7136 0.7115 0.7145
736.000000 0.7229 0.7351 0.7498 0.7706 0.7899
741.000000 0.7942 0.7877 0.7798 0.7670 0.7531
746.000000 0.7406 0.7358 0.7329 0.7507 0.7663
751.000000 0.7905 0.8171 0.8377 0.8511 0.8519
756.000000 0.8462 0.8372 0.8216 0.8036 0.7877
761.000000 0.7666 0.7456 0.7311 0.7204 0.7164
766.000000 0.7374 0.7555 0.7740 0.7909 0.8055
771.000000 0.8146 0.8159 0.8158 0.8154 0.8148
776.000000 0.8139 0.8136 0.8151 0.8268 0.8433
781.000000 0.8570 0.8685 0.8735 0.8788 0.8800
786.000000 0.8763 0.8701 0.8627 0.8549 0.8472
791.000000 0.8414 0.8386 0.8364 0.8335 0.8293
796.000000 0.8204 0.8101 0.7987 0.7879 0.7796
801.000000 0.7851 0.7948 0.8056 0.8182 0.8327
806.000000 0.8458 0.8566 0.8567 0.8525 0.8463
811.000000 0.8392 0.8321 0.8298 0.8288 0.8284
816.000000 0.8283 0.8286 0.8188 0.8050 0.7894
821.000000 0.7727 0.7550 0.7348 0.7127 0.6812
826.000000 0.6485 0.6220 0.6017 0.5837 0.5787
831.000000 0.5769 0.5940 0.6161 0.6404 0.6647
836.000000 0.6889 0.7130 0.7379 0.7617 0.7766
841.000000 0.7871 0.7981 0.8069 0.8151 0.8302
846.000000 0.8442 0.8564 0.8708 0.8844 0.8927
851.000000 0.9010 0.9066 0.9119 0.9169 0.9210
856.000000 0.9249 0.9273 0.9295 0.9317 0.9326
861.000000 0.9332 0.9339 0.9344 0.9347 0.9357
866.000000 0.9388 0.9406 0.9416 0.9401 0.9397
871.000000 0.9389 0.9381 0.9374 0.9364 0.9355
876.000000 0.9338 0.9309 0.9252 0.9183 0.9107
881.000000 0.8982 0.8788 0.8590 0.8394 0.8198
886.000000 0.8001 0.7801 0.7670 0.7623 0.7609
891.000000 0.7742 0.7834 0.7944 0.8065 0.8428
896.000000 0.8661 0.8837 0.8974 0.9062 0.9113
901.000000 0.9165 0.9213 0.9238 0.9257 0.9263
906.000000 0.9305 0.9369 0.9383 0.9388 0.9387
911.000000 0.9377 0.9361 0.9341 0.9322 0.9303
916.000000 0.9289 0.9276 0.9273 0.9282 0.9296
921.000000 0.9315 0.9336 0.9357 0.9387 0.9412
926.000000 0.9418 0.9407 0.9378 0.9369 0.9397
931.000000 0.9421 0.9409 0.9383 0.9382 0.9389
936.000000 0.9403 0.9426 0.9460 0.9493 0.9520
941.000000 0.9550 0.9522 0.9508 0.9486 0.9465
946.000000 0.9443 0.9439 0.9445 0.9453 0.9454
951.000000 0.9447 0.9438 0.9429 0.9419 0.9409
956.000000 0.9399 0.9388 0.9378 0.9372 0.9371
961.000000 0.9369 0.9372 0.9374 0.9378 0.9382
966.000000 0.9394 0.9406 0.9418 0.9433 0.9447
971.000000 0.9458 0.9459 0.9461 0.9459 0.9448
976.000000 0.9436 0.9421 0.9400 0.9372 0.9311
981.000000 0.9241 0.9138 0.9010 0.8907 0.8811
986.000000 0.8712 0.8655 0.8636 0.8677 0.8769
991.000000 0.8915 0.9119 0.9228 0.9296 0.9335
996.000000 0.9371 0.9401 0.9419 0.9433 0.9454
1001.000000 0.9427 0.9407 0.9376 0.9327 0.9262
1006.000000 0.9186 0.9065 0.8864 0.8622 0.8382
1011.000000 0.8141 0.7885 0.7695 0.7580 0.7495
1016.000000 0.7432 0.7412 0.7414 0.7419 0.7407
1021.000000 0.7367 0.7317 0.7265 0.7210 0.7152
1026.000000 0.7134 0.7143 0.7183 0.7250 0.7492
1031.000000 0.7776 0.8051 0.8329 0.8540 0.8752
1036.000000 0.8910 0.9033 0.9110 0.9171 0.9192
1041.000000 0.9167 0.9177 0.9198 0.9225 0.9237
1046.000000 0.9232 0.9220 0.9208 0.9269 0.9225
1051.000000 0.9227 0.9227 0.9223 0.9199 0.9146
1056.000000 0.9085 0.9023 0.8976 0.8942 0.8925
1061.000000 0.8923 0.8928 0.8932 0.8935 0.8934
1066.000000 0.8924 0.8899 0.8871 0.8843 0.8807
1071.000000 0.8768 0.8692 0.8574 0.8471 0.8435
1076.000000 0.8407 0.8383 0.8359 0.8342 0.8329
1081.000000 0.8304 0.8253 0.8181 0.8062 0.7908
1086.000000 0.7714 0.7520 0.7326 0.7131 0.6946
1091.000000 0.6738 0.6584 0.6562 0.6624 0.6852
1096.000000 0.7083 0.7315 0.7545 0.7772 0.7912
1101.000000 0.7983 0.7936 0.7868 0.7736 0.7609
1106.000000 0.7396 0.7105 0.6815 0.6524 0.6234
1111.000000 0.6140 0.6207 0.6558 0.6930 0.7224
1116.000000 0.7233 0.7246 0.7196 0.7150 0.7051
1121.000000 0.6914 0.6784 0.6653 0.6463 0.6278
1126.000000 0.5431 0.4950 0.4559 0.4160 0.3761
1131.000000 0.3359 0.2920 0.2811 0.2783 0.2764
1136.000000 0.2746 0.2738 0.2727 0.2661 0.2513
1141.000000 0.2331 0.2168 0.2027 0.1895 0.1691
1146.000000 0.1421 0.1236 0.1133 0.1052 0.1003
1151.000000 0.1003 0.0972 0.1032 0.1117 0.1232
1156.000000 0.1345 0.1457 0.1569 0.1701 0.1782
1161.000000 0.1847 0.1873 0.1859 0.1838 0.1820
1166.000000 0.1828 0.1870 0.1950 0.2042 0.2124
1171.000000 0.2198 0.2259 0.2269 0.2283 0.2251
1176.000000 0.2235 0.2218 0.2203 0.2190 0.2176
1181.000000 0.2154 0.2109 0.2051 0.2006 0.1974
1186.000000 0.1964 0.1958 0.1946 0.1864 0.1774
1191.000000 0.1684 0.1594 0.1515 0.1437 0.1358
1196.000000 0.1271 0.1183 0.1099 0.1021 0.0943
1201.000000 0.0878 0.0821 0.0763 0.0730 0.0701
1206.000000 0.0673 0.0666 0.0662 0.0657 0.0653
1211.000000 0.0656 0.0630 0.0671 0.0679 0.0686
1216.000000 0.0697 0.0710 0.0723 0.0737 0.0773
1221.000000 0.0813 0.0850 0.0886 0.0922 0.0945
1226.000000 0.0964 0.0982 0.1000 0.1005 0.1008
1231.000000 0.1047 0.1011 0.1002 0.0990 0.0979
1236.000000 0.0967 0.0954 0.0943 0.0937 0.0931
1241.000000 0.0926 0.0927 0.0931 0.0914 0.0951
1246.000000 0.0963 0.0976 0.0995 0.1014 0.1043
1251.000000 0.1074 0.1106 0.1150 0.1203 0.1263
1256.000000 0.1336 0.1409 0.1472 0.1525 0.1596
1261.000000 0.1693 0.1792 0.1890 0.1988 0.2086
1266.000000 0.2183 0.2280 0.2378 0.2475 0.2572
1271.000000 0.2669 0.2766 0.2862 0.2959 0.3055
1276.000000 0.3151 0.3247 0.3343 0.3438 0.3535
1281.000000 0.3630 0.3725 0.3806 0.3861 0.3922
1286.000000 0.3982 0.4040 0.4098 0.4156 0.4213
1291.000000 0.4267 0.4320 0.4373 0.4426 0.4468
1296.000000 0.4498 0.4528 0.4559 0.4583 0.4601
1301.000000 0.4621 0.4639 0.4658 0.4694 0.4746
1306.000000 0.4798 0.4864 0.4933 0.5003 0.5091
1311.000000 0.5180 0.5243 0.5289 0.5324 0.5326
1316.000000 0.5322 0.5312 0.5369 0.5280 0.5248
1321.000000 0.5210 0.5162 0.5110 0.5057 0.4992
1326.000000 0.4904 0.4854 0.4829 0.4857 0.4932
1331.000000 0.5040 0.5191 0.5327 0.5439 0.5536
1336.000000 0.5614 0.5691 0.5761 0.5829 0.5896
1341.000000 0.5955 0.6011 0.6045 0.6064 0.6081
1346.000000 0.6089 0.6087 0.6082 0.6076 0.6071
1351.000000 0.6058 0.6021 0.5971 0.5922 0.5868
1356.000000 0.5813 0.5760 0.5735 0.5717 0.5705
1361.000000 0.5696 0.5668 0.5463 0.5275 0.5145
1366.000000 0.5038 0.4849 0.4695 0.4597 0.4530
1371.000000 0.4511 0.4510 0.4522 0.4568 0.4585
1376.000000 0.4583 0.4573 0.4564 0.4555 0.4549
1381.000000 0.4645 0.4821 0.4997 0.5173 0.5349
1386.000000 0.5525 0.5700 0.5875 0.6050 0.6224
1391.000000 0.6398 0.6573 0.6747 0.6920 0.7093
1396.000000 0.7230 0.7318 0.7362 0.7389 0.7402
1401.000000 0.7410 0.7415 0.7418 0.7428 0.7447
1406.000000 0.7472 0.7498 0.7520 0.7527 0.7527
1411.000000 0.7526 0.7522 0.7511 0.7501 0.7490
1416.000000 0.7478 0.7463 0.7446 0.7423 0.7398
1421.000000 0.7372 0.7333 0.7279 0.7214 0.7151
1426.000000 0.7093 0.7035 0.6980 0.6925 0.6870
1431.000000 0.6809 0.6744 0.6679 0.6605 0.6525
1436.000000 0.6444 0.6355 0.6259 0.6055 0.5777
1441.000000 0.5499 0.5221 0.4944 0.4667 0.4390
1446.000000 0.4070 0.3941 0.3812 0.3671 0.3519
1451.000000 0.3361 0.3203 0.3054 0.2859 0.2740
1456.000000 0.2683 0.2629 0.2597 0.2569 0.2557
1461.000000 0.2557 0.2559 0.2568 0.2597 0.2663
1466.000000 0.2771 0.2843 0.2879 0.2901 0.2921
1471.000000 0.2940 0.2960 0.2982 0.3007 0.3247
1476.000000 0.3570 0.3892 0.4214 0.4536 0.5519
1481.000000 0.5978 0.6218 0.6444 0.6685 0.6870
1486.000000 0.6979 0.7104 0.7240 0.7358 0.7451
1491.000000 0.7535 0.7611 0.7676 0.7735 0.7789
1496.000000 0.7842 0.7894 0.7939 0.7979 0.8019
1501.000000 0.8053 0.8078 0.8102 0.8126 0.8144
1506.000000 0.8159 0.8201 0.8240 0.8277 0.8307
1511.000000 0.8326 0.8346 0.8364 0.8378 0.8392
1516.000000 0.8405 0.8419 0.8432 0.8445 0.8458
1521.000000 0.8471 0.8484 0.8495 0.8504 0.8513
1526.000000 0.8521 0.8530 0.8538 0.8547 0.8556
1531.000000 0.8563 0.8572 0.8582 0.8600 0.8620
1536.000000 0.8640 0.8663 0.8685 0.8698 0.8706
1541.000000 0.8707 0.8703 0.8696 0.8689 0.8681
1546.000000 0.8673 0.8662 0.8650 0.8642 0.8637
1551.000000 0.8641 0.8658 0.8681 0.8711 0.8740
1556.000000 0.8767 0.8793 0.8815 0.8836 0.8851
1561.000000 0.8859 0.8864 0.8870 0.8876 0.8881
1566.000000 0.8883 0.8881 0.8874 0.8861 0.8845
1571.000000 0.8826 0.8818 0.8817 0.8819 0.8824
1576.000000 0.8833 0.8847 0.8860 0.8871 0.8881
1581.000000 0.8890 0.8894 0.8898 0.8900 0.8901
1586.000000 0.8901 0.8898 0.8895 0.8892 0.8889
1591.000000 0.8887 0.8895 0.8881 0.8878 0.8875
1596.000000 0.8871 0.8866 0.8860 0.8853 0.8848
1601.000000 0.8842 0.8835 0.8828 0.8820 0.8813
1606.000000 0.8802 0.8786 0.8764 0.8740 0.8711
1611.000000 0.8678 0.8645 0.8610 0.8561 0.8512
1616.000000 0.8462 0.8385 0.8282 0.8054 0.7832
1621.000000 0.7615 0.7398 0.7181 0.6965 0.6749
1626.000000 0.6533 0.6318 0.6102 0.5891 0.5726
1631.000000 0.5673 0.5645 0.5631 0.5633 0.5657
1636.000000 0.5681 0.5706 0.5730 0.5746 0.5747
1641.000000 0.5741 0.5734 0.5726 0.5716 0.5701
1646.000000 0.5658 0.5504 0.5351 0.5258 0.5162
1651.000000 0.5066 0.4669 0.4282 0.3925 0.3547
1656.000000 0.3169 0.2791 0.2415 0.2038 0.1662
1661.000000 0.1287 0.0911 0.0737 0.0663 0.0621
1666.000000 0.0598 0.0591 0.0593 0.0605 0.0628
1671.000000 0.0615 0.0801 0.0887 0.0973 0.1059
1676.000000 0.1145 0.1231 0.1317 0.1403 0.1488
1681.000000 0.1574 0.1660 0.1745 0.1830 0.1916
1686.000000 0.2001 0.2086 0.2170 0.2317 0.2487
1691.000000 0.2644 0.2752 0.2823 0.2896 0.2985
1696.000000 0.3159 0.3274 0.3371 0.3457 0.3539
1701.000000 0.3619 0.3697 0.3775 0.3889 0.4018
1706.000000 0.4160 0.4298 0.4412 0.4497 0.4581
1711.000000 0.4651 0.4716 0.4780 0.4837 0.4886
1716.000000 0.4932 0.4979 0.5025 0.5078 0.5135
1721.000000 0.5194 0.5252 0.5307 0.5355 0.5403
1726.000000 0.5448 0.5487 0.5520 0.5555 0.5588
1731.000000 0.5621 0.5657 0.5693 0.5729 0.5765
1736.000000 0.5801 0.5841 0.5899 0.5966 0.6033
1741.000000 0.6100 0.6162 0.6223 0.6281 0.6330
1746.000000 0.6368 0.6405 0.6443 0.6481 0.6519
1751.000000 0.6559 0.6603 0.6646 0.6688 0.6731
1756.000000 0.6775 0.6819 0.6862 0.6902 0.6937
1761.000000 0.6970 0.7003 0.7036 0.7069 0.7102
1766.000000 0.7133 0.7163 0.7191 0.7219 0.7236
1771.000000 0.7249 0.7261 0.7274 0.7286 0.7296
1776.000000 0.7305 0.7313 0.7322 0.7330 0.7337
1781.000000 0.7342 0.7346 0.7350 0.7353 0.7357
1786.000000 0.7363 0.7373 0.7382 0.7391 0.7401
1791.000000 0.7410 0.7419 0.7434 0.7449 0.7469
1796.000000 0.7496 0.7522 0.7538 0.7550 0.7561
1801.000000 0.7574 0.7579 0.7584 0.7589 0.7593
1806.000000 0.7598 0.7603 0.7607 0.7610 0.7613
1811.000000 0.7615 0.7618 0.7621 0.7623 0.7626
1816.000000 0.7629 0.7633 0.7638 0.7642 0.7647
1821.000000 0.7655 0.7664 0.7678 0.7694 0.7711
1826.000000 0.7728 0.7743 0.7751 0.7755 0.7760
1831.000000 0.7764 0.7769 0.7773 0.7776 0.7780
1836.000000 0.7783 0.7786 0.7789 0.7792 0.7795
1841.000000 0.7799 0.7802 0.7806 0.7809 0.7812
1846.000000 0.7816 0.7819 0.7822 0.7826 0.7829
1851.000000 0.7832 0.7836 0.7839 0.7842 0.7846
1856.000000 0.7849 0.7852 0.7856 0.7859 0.7862
1861.000000 0.7866 0.7869 0.7873 0.7876 0.7880
1866.000000 0.7883 0.7886 0.7890 0.7893 0.7896
1871.000000 0.7900 0.7903 0.7906 0.7909 0.7912
1876.000000 0.7915 0.7918 0.7921 0.7923 0.7925
1881.000000 0.7928 0.7931 0.7934 0.7937 0.7939
1886.000000 0.7941 0.7944 0.7947 0.7950 0.7952
1891.000000 0.7955 0.7959 0.7964 0.7968 0.7973
1896.000000 0.7978 0.7982 0.7987 0.7992 0.7997
1901.000000 0.8002 0.8006 0.8011 0.8016 0.8021
1906.000000 0.8026 0.8032 0.8037 0.8042 0.8047
1911.000000 0.8052 0.8057 0.8063 0.8067 0.8072
1916.000000 0.8077 0.8082 0.8086 0.8091 0.8096
1921.000000 0.8101 0.8106 0.8109 0.8110 0.8110
1926.000000 0.8110 0.8110 0.8110 0.8110 0.8109
1931.000000 0.8109 0.8109 0.8109 0.8109 0.8109
1936.000000 0.8110 0.8111 0.8113 0.8113 0.8114
1941.000000 0.8116 0.8117 0.8118 0.8118 0.8120
1946.000000 0.8121 0.8121 0.8123 0.8124 0.8125
1951.000000 0.8127 0.8128 0.8130 0.8132 0.8134
1956.000000 0.8136 0.8138 0.8140 0.8143 0.8145
1961.000000 0.8148 0.8150 0.8152 0.8155 0.8157
1966.000000 0.8160 0.8162 0.8164 0.8165 0.8166
1971.000000 0.8168 0.8169 0.8170 0.8172 0.8173
1976.000000 0.8174 0.8175 0.8177 0.8178 0.8180
1981.000000 0.8182 0.8183 0.8184 0.8185 0.8187
1986.000000 0.8188 0.8188 0.8189 0.8189 0.8189
1991.000000 0.8189 0.8189 0.8189 0.8189 0.8189
1996.000000 0.8189 0.8190 0.8190 0.8190 0.8190
2001.000000 0.8190 0.8190 0.8190 0.8190 0.8190
2006.000000 0.8190 0.8193 0.8190 0.8190 0.8190
2011.000000 0.8190 0.8190 0.8190 0.8190 0.8190
2016.000000 0.8190 0.8190 0.8190 0.8190 0.8191
2021.000000 0.8191 0.8191 0.8191 0.8191 0.8191
2026.000000 0.8191 0.8191 0.8191 0.8191 0.8191
2031.000000 0.8191 0.8191 0.8191 0.8191 0.8191
2036.000000 0.8192 0.8192 0.8192 0.8192 0.8191
2041.000000 0.8190 0.8190 0.8190 0.8190 0.8189
2046.000000 0.8188 0.8188 0.8188 0.8188 0.8187
2051.000000 0.8186 0.8186 0.8185 0.8185 0.8185
2056.000000 0.8184 0.8184 0.8183 0.8183 0.8183
2061.000000 0.8183 0.8182 0.8181 0.8181 0.8180
2066.000000 0.8180 0.8180 0.8179 0.8179 0.8178
2071.000000 0.8177 0.8176 0.8174 0.8173 0.8172
2076.000000 0.8171 0.8170 0.8169 0.8168 0.8166
2081.000000 0.8165 0.8164 0.8163 0.8162 0.8161
2086.000000 0.8159 0.8157 0.8156 0.8155 0.8154
2091.000000 0.8153 0.8152 0.8150 0.8149 0.8148
2096.000000 0.8147 0.8146 0.8145 0.8144 0.8142
2101.000000 0.8141 0.8140 0.8139 0.8138 0.8136
2106.000000 0.8135 0.8134 0.8132 0.8131 0.8130
2111.000000 0.8129 0.8128 0.8127 0.8126 0.8125
2116.000000 0.8123 0.8122 0.8121 0.8120 0.8118
2121.000000 0.8117 0.8116 0.8115 0.8114 0.8113
2126.000000 0.8113 0.8113 0.8112 0.8112 0.8111
2131.000000 0.8111 0.8110 0.8110 0.8110 0.8111
2136.000000 0.8113 0.8116 0.8119 0.8122 0.8125
2141.000000 0.8128 0.8131 0.8134 0.8137 0.8140
2146.000000 0.8143 0.8146 0.8149 0.8152 0.8155
2151.000000 0.8157 0.8160 0.8163 0.8166 0.8169
2156.000000 0.8170 0.8170 0.8170 0.8170 0.8170
2161.000000 0.8169 0.8169 0.8168 0.8168 0.8167
2166.000000 0.8167 0.8166 0.8165 0.8164 0.8164
2171.000000 0.8163 0.8162 0.8161 0.8160 0.8160
2176.000000 0.8159 0.8158 0.8157 0.8157 0.8156
2181.000000 0.8155 0.8154 0.8154 0.8153 0.8153
2186.000000 0.8152 0.8151 0.8150 0.8150 0.8149
2191.000000 0.8148 0.8147 0.8146 0.8145 0.8144
2196.000000 0.8143 0.8142 0.8142 0.8141 0.8140
2201.000000 0.8139 0.8139 0.8138 0.8137 0.8136
2206.000000 0.8135 0.8134 0.8134 0.8133 0.8132
2211.000000 0.8131 0.8130 0.8129 0.8128 0.8127
2216.000000 0.8126 0.8124 0.8123 0.8121 0.8120
2221.000000 0.8118 0.8117 0.8115 0.8114 0.8112
2226.000000 0.8111 0.8109 0.8108 0.8106 0.8105
2231.000000 0.8103 0.8102 0.8100 0.8099 0.8097
2236.000000 0.8096 0.8094 0.8093 0.8091 0.8090
2241.000000 0.8088 0.8087 0.8085 0.8083 0.8080
2246.000000 0.8077 0.8074 0.8071 0.8068 0.8065
2251.000000 0.8062 0.8059 0.8057 0.8054 0.8051
2256.000000 0.8048 0.8045 0.8042 0.8039 0.8036
2261.000000 0.8032 0.8029 0.8026 0.8022 0.8019
2266.000000 0.8016 0.8013 0.8010 0.8006 0.8003
2271.000000 0.7999 0.7996 0.7993 0.7990 0.7987
2276.000000 0.7983 0.7980 0.7977 0.7973 0.7969
2281.000000 0.7965 0.7960 0.7955 0.7950 0.7945
2286.000000 0.7941 0.7936 0.7931 0.7926 0.7922
2291.000000 0.7918 0.7913 0.7908 0.7903 0.7899
2296.000000 0.7894 0.7889 0.7885 0.7880 0.7876
2301.000000 0.7871 0.7867 0.7863 0.7860 0.7857
2306.000000 0.7853 0.7850 0.7847 0.7844 0.7840
2311.000000 0.7837 0.7834 0.7830 0.7827 0.7824
2316.000000 0.7821 0.7817 0.7816 0.7814 0.7812
2321.000000 0.7811 0.7809 0.7808 0.7807 0.7805
2326.000000 0.7804 0.7802 0.7800 0.7799 0.7797
2331.000000 0.7796 0.7795 0.7793 0.7792 0.7790
2336.000000 0.7788 0.7787 0.7785 0.7784 0.7783
2341.000000 0.7781 0.7779 0.7778 0.7776 0.7775
2346.000000 0.7775 0.7775 0.7775 0.7777 0.7778
2351.000000 0.7779 0.7781 0.7782 0.7783 0.7785
2356.000000 0.7786 0.7787 0.7789 0.7789 0.7789
2361.000000 0.7789 0.7789 0.7788 0.7788 0.7788
2366.000000 0.7788 0.7788 0.7788 0.7788 0.7787
2371.000000 0.7787 0.7787 0.7787 0.7787 0.7786
2376.000000 0.7786 0.7786 0.7786 0.7786 0.7786
2381.000000 0.7786 0.7786 0.7786 0.7786 0.7786
2386.000000 0.7787 0.7787 0.7788 0.7788 0.7788
2391.000000 0.7788 0.7788 0.7789 0.7789 0.7790
2396.000000 0.7790 0.7790 0.7790 0.7790 0.7791
2401.000000 0.7791 0.7791 0.7791 0.7791 0.7791
2406.000000 0.7791 0.7789 0.7787 0.7784 0.7782
2411.000000 0.7779 0.7776 0.7774 0.7771 0.7769
2416.000000 0.7766 0.7764 0.7762 0.7759 0.7757
2421.000000 0.7755 0.7753 0.7750 0.7748 0.7745
2426.000000 0.7743 0.7741 0.7739 0.7737 0.7735
2431.000000 0.7732 0.7730 0.7728 0.7726 0.7724
2436.000000 0.7722 0.7720 0.7718 0.7716 0.7714
2441.000000 0.7712 0.7711 0.7709 0.7708 0.7707
2446.000000 0.7707 0.7705 0.7704 0.7703 0.7702
2451.000000 0.7701 0.7700 0.7699 0.7698 0.7697
2456.000000 0.7696 0.7695 0.7694 0.7693 0.7692
2461.000000 0.7691 0.7690 0.7690 0.7689 0.7689
2466.000000 0.7689 0.7689 0.7688 0.7688 0.7688
2471.000000 0.7688 0.7688 0.7687 0.7687 0.7687
2476.000000 0.7687 0.7687 0.7687 0.7687 0.7687
2481.000000 0.7686 0.7686 0.7686 0.7686 0.7686
2486.000000 0.7685 0.7685 0.7685 0.7685 0.7685
2491.000000 0.7684 0.7684 0.7684 0.7684 0.7684
2496.000000 0.7684 0.7684 0.7683 0.7683 0.7683
2501.000000 0.7682 0.7681 0.7680 0.7679 0.7679
2506.000000 0.7677 0.7676 0.7675 0.7674 0.7674
2511.000000 0.7673 0.7672 0.7671 0.7670 0.7670
2516.000000 0.7669 0.7668 0.7667 0.7666 0.7666
2521.000000 0.7665 0.7663 0.7662 0.7661 0.7661
2526.000000 0.7659 0.7657 0.7655 0.7652 0.7649
2531.000000 0.7647 0.7644 0.7641 0.7639 0.7637
2536.000000 0.7634 0.7631 0.7629 0.7626 0.7624
2541.000000 0.7622 0.7619 0.7616 0.7613 0.7609
2546.000000 0.7606 0.7600 0.7595 0.7589 0.7584
2551.000000 0.7579 0.7573 0.7568 0.7562 0.7557
2556.000000 0.7552 0.7546 0.7541 0.7536 0.7530
2561.000000 0.7525 0.7520 0.7514 0.7509 0.7504
2566.000000 0.7498 0.7493 0.7488 0.7482 0.7477
2571.000000 0.7472 0.7468 0.7462 0.7457 0.7452
2576.000000 0.7447 0.7442 0.7437 0.7432 0.7426
2581.000000 0.7421 0.7415 0.7410 0.7404 0.7398
2586.000000 0.7392 0.7386 0.7380 0.7375 0.7369
2591.000000 0.7364 0.7358 0.7353 0.7347 0.7343
2596.000000 0.7338 0.7337 0.7336 0.7335 0.7335
2601.000000 0.7334 0.7333 0.7333 0.7333 0.7332
2606.000000 0.7331 0.7330 0.7330 0.7330 0.7329
2611.000000 0.7328 0.7328 0.7327 0.7327 0.7327
2616.000000 0.7326 0.7325 0.7324 0.7324 0.7324
2621.000000 0.7323 0.7323 0.7323 0.7323 0.7324
2626.000000 0.7324 0.7325 0.7326 0.7327 0.7327
2631.000000 0.7327 0.7328 0.7329 0.7329 0.7330
2636.000000 0.7331 0.7331 0.7332 0.7333 0.7334
2641.000000 0.7334 0.7334 0.7333 0.7332 0.7331
2646.000000 0.7330 0.7328 0.7327 0.7326 0.7325
2651.000000 0.7324 0.7322 0.7321 0.7319 0.7318
2656.000000 0.7317 0.7316 0.7315 0.7313 0.7311
2661.000000 0.7307 0.7303 0.7298 0.7293 0.7287
2666.000000 0.7282 0.7276 0.7271 0.7265 0.7260
2671.000000 0.7254 0.7249 0.7244 0.7238 0.7233
2676.000000 0.7227 0.7222 0.7216 0.7211 0.7206
2681.000000 0.7201 0.7196 0.7192 0.7187 0.7182
2686.000000 0.7177 0.7172 0.7166 0.7161 0.7157
2691.000000 0.7152 0.7147 0.7142 0.7137 0.7132
2696.000000 0.7127 0.7122 0.7117 0.7112 0.7107
2701.000000 0.7102 0.7096 0.7091 0.7085 0.7079
2706.000000 0.7073 0.7068 0.7062 0.7056 0.7049
2711.000000 0.7043 0.7035 0.7027 0.7018 0.7010
2716.000000 0.7001 0.6993 0.6985 0.6976 0.6968
2721.000000 0.6960 0.6952 0.6943 0.6935 0.6927
2726.000000 0.6920 0.6913 0.6908 0.6902 0.6896
2731.000000 0.6891 0.6885 0.6883 0.6882 0.6882
2736.000000 0.6882 0.6882 0.6882 0.6882 0.6883
2741.000000 0.6884 0.6886 0.6887 0.6888 0.6890
2746.000000 0.6891 0.6892 0.6892 0.6890 0.6889
2751.000000 0.6887 0.6885 0.6883 0.6881 0.6879
2756.000000 0.6877 0.6875 0.6873 0.6871 0.6868
2761.000000 0.6865 0.6861 0.6856 0.6849 0.6842
2766.000000 0.6835 0.6829 0.6822 0.6815 0.6809
2771.000000 0.6802 0.6791 0.6774 0.6756 0.6741
2776.000000 0.6729 0.6717 0.6705 0.6694 0.6683
2781.000000 0.6672 0.6659 0.6647 0.6634 0.6620
2786.000000 0.6606 0.6591 0.6577 0.6563 0.6548
2791.000000 0.6534 0.6519 0.6505 0.6487 0.6469
2796.000000 0.6450 0.6432 0.6414 0.6396 0.6376
2801.000000 0.6354 0.6332 0.6310 0.6287 0.6264
2806.000000 0.6242 0.6219 0.6197 0.6174 0.6149
2811.000000 0.6123 0.6097 0.6052 0.6004 0.5956
2816.000000 0.5912 0.5869 0.5827 0.5786 0.5745
2821.000000 0.5705 0.5664 0.5623 0.5583 0.5542
2826.000000 0.5501 0.5460 0.5419 0.5378 0.5337
2831.000000 0.5296 0.5248 0.5197 0.5146 0.5044
2836.000000 0.4897 0.4750 0.4593 0.4412 0.4232
2841.000000 0.4051 0.3871 0.3690 0.3510 0.3330
2846.000000 0.3150 0.2971 0.2791 0.2612 0.2432
2851.000000 0.2253 0.2074 0.1895 0.1718 0.1554
2856.000000 0.1389 0.1225 0.1174 0.1142 0.1110
2861.000000 0.1089 0.1078 0.1066 0.1057 0.1055
2866.000000 0.1053 0.1051 0.1051 0.1050 0.1049
2871.000000 0.1061 0.1078 0.1095 0.1113 0.1132
2876.000000 0.1152 0.1171 0.1190 0.1210 0.1229
2881.000000 0.1248 0.1267 0.1286 0.1305 0.1324
2886.000000 0.1343 0.1360 0.1360 0.1360 0.1360
2891.000000 0.1357 0.1355 0.1352 0.1349 0.1347
2896.000000 0.1344 0.1341 0.1337 0.1333 0.1328
2901.000000 0.1325 0.1321 0.1317 0.1307 0.1288
2906.000000 0.1269 0.1250 0.1233 0.1215 0.1198
2911.000000 0.1180 0.1163 0.1146 0.1107 0.1006
2916.000000 0.0905 0.0804 0.0761 0.0728 0.0695
2921.000000 0.0664 0.0635 0.0606 0.0577 0.0551
2926.000000 0.0526 0.0501 0.0484 0.0474 0.0464
2931.000000 0.0455 0.0450 0.0445 0.0440 0.0438
2936.000000 0.0437 0.0437 0.0437 0.0437 0.0438
2941.000000 0.0438 0.0440 0.0442 0.0444 0.0447
2946.000000 0.0453 0.0458 0.0464 0.0471 0.0478
2951.000000 0.0485 0.0494 0.0504 0.0514 0.0524
2956.000000 0.0542 0.0560 0.0579 0.0598 0.0617
2961.000000 0.0636 0.0656 0.0676 0.0696 0.0716
2966.000000 0.0738 0.0764 0.0791 0.0817 0.0881
2971.000000 0.0949 0.1018 0.1101 0.1210 0.1320
2976.000000 0.1430 0.1539 0.1648 0.1758 0.1867
2981.000000 0.1976 0.2085 0.2194 0.2303 0.2412
2986.000000 0.2521 0.2630 0.2739 0.2847 0.2956
2991.000000 0.3064 0.3172 0.3280 0.3388 0.3496
2996.000000 0.3604 0.3712 0.3820 0.3928 0.4036
3001.000000 0.4144 0.4252 0.4359 0.4467 0.4574
3006.000000 0.4681 0.4789 0.4896 0.5003 0.5110
3011.000000 0.5217 0.5323 0.5430 0.5537 0.5644
3016.000000 0.5750 0.5857 0.5964 0.6070 0.6176
3021.000000 0.6283 0.6389 0.6495 0.6601 0.6707
3026.000000 0.6813 0.6919 0.7025 0.7130 0.7236
3031.000000 0.7306 0.7362 0.7418 0.7473 0.7493
3036.000000 0.7513 0.7533 0.7554 0.7578 0.7601
3041.000000 0.7624 0.7653 0.7685 0.7717 0.7749
3046.000000 0.7768 0.7786 0.7804 0.7822 0.7836
3051.000000 0.7850 0.7864 0.7875 0.7883 0.7890
3056.000000 0.7898 0.7904 0.7911 0.7917 0.7924
3061.000000 0.7925 0.7926 0.7927 0.7919 0.7926
3066.000000 0.7926 0.7925 0.7924 0.7923 0.7922
3071.000000 0.7922 0.7921 0.7919 0.7918 0.7917
3076.000000 0.7915 0.7914 0.7913 0.7911 0.7908
3081.000000 0.7906 0.7903 0.7901 0.7898 0.7896
3086.000000 0.7893 0.7891 0.7889 0.7886 0.7884
3091.000000 0.7880 0.7877 0.7873 0.7869 0.7863
3096.000000 0.7857 0.7851 0.7845 0.7838 0.7832
3101.000000 0.7825 0.7819 0.7813 0.7806 0.7800
3106.000000 0.7794 0.7789 0.7783 0.7778 0.7773
3111.000000 0.7769 0.7764 0.7760 0.7756 0.7752
3116.000000 0.7748 0.7744 0.7744 0.7744 0.7744
3121.000000 0.7744 0.7744 0.7744 0.7744 0.7744
3126.000000 0.7744 0.7744 0.7744 0.7744 0.7744
3131.000000 0.7744 0.7744 0.7745 0.7745 0.7745
3136.000000 0.7745 0.7745 0.7745 0.7745 0.7745
3141.000000 0.7745 0.7745 0.7745 0.7745 0.7743
3146.000000 0.7736 0.7730 0.7723 0.7716 0.7708
3151.000000 0.7700 0.7693 0.7685 0.7678 0.7671
3156.000000 0.7664 0.7655 0.7645 0.7635 0.7625
3161.000000 0.7614 0.7602 0.7590 0.7578 0.7566
3166.000000 0.7555 0.7543 0.7531 0.7521 0.7511
3171.000000 0.7502 0.7493 0.7485 0.7477 0.7470
3176.000000 0.7463 0.7456 0.7449 0.7442 0.7435
3181.000000 0.7428 0.7421 0.7414 0.7407 0.7399
3186.000000 0.7392 0.7385 0.7378 0.7371 0.7365
3191.000000 0.7358 0.7352 0.7346 0.7339 0.7333
3196.000000 0.7327 0.7321 0.7315 0.7309 0.7303
3201.000000 0.7297 0.7291 0.7284 0.7278 0.7272
3206.000000 0.7266 0.7260 0.7253 0.7247 0.7242
3211.000000 0.7238 0.7234 0.7230 0.7226 0.7221
3216.000000 0.7217 0.7213 0.7208 0.7204 0.7200
3221.000000 0.7196 0.7193 0.7191 0.7190 0.7188
3226.000000 0.7187 0.7187 0.7188 0.7188 0.7189
3231.000000 0.7192 0.7195 0.7198 0.7201 0.7205
3236.000000 0.7209 0.7213 0.7217 0.7223 0.7229
3241.000000 0.7235 0.7241 0.7247 0.7253 0.7259
3246.000000 0.7265 0.7270 0.7275 0.7279 0.7283
3251.000000 0.7287 0.7288 0.7289 0.7290 0.7291
3256.000000 0.7292 0.7293 0.7294 0.7295 0.7296
3261.000000 0.7297 0.7297 0.7298 0.7299 0.7299
3266.000000 0.7300 0.7300 0.7301 0.7301 0.7301
3271.000000 0.7302 0.7302 0.7303 0.7303 0.7304
3276.000000 0.7304 0.7305 0.7305 0.7305 0.7305
3281.000000 0.7306 0.7306 0.7306 0.7306 0.7306
3286.000000 0.7307 0.7307 0.7307 0.7307 0.7307
3291.000000 0.7307 0.7307 0.7307 0.7306 0.7301
3296.000000 0.7297 0.7293 0.7288 0.7284 0.7280
3301.000000 0.7276 0.7272 0.7262 0.7246 0.7230
3306.000000 0.7214 0.7196 0.7168 0.7140 0.7112
3311.000000 0.7084 0.7065 0.7049 0.7033 0.7017
3316.000000 0.7001 0.6985 0.6969 0.6952 0.6936
3321.000000 0.6919 0.6902 0.6885 0.6868 0.6850
3326.000000 0.6830 0.6810 0.6790 0.6769 0.6740
3331.000000 0.6711 0.6682 0.6653 0.6614 0.6570
3336.000000 0.6527 0.6483 0.6439 0.6396 0.6352
3341.000000 0.6309 0.6265 0.6222 0.6178 0.6135
3346.000000 0.6092 0.6048 0.6005 0.5962 0.5919
3351.000000 0.5875 0.5832 0.5789 0.5746 0.5703
3356.000000 0.5660 0.5617 0.5574 0.5531 0.5488
3361.000000 0.5445 0.5402 0.5358 0.5315 0.5272
3366.000000 0.5229 0.5187 0.5144 0.5101 0.5058
3371.000000 0.5016 0.4973 0.4930 0.4888 0.4845
3376.000000 0.4803 0.4760 0.4718 0.4677 0.4638
3381.000000 0.4599 0.4560 0.4523 0.4504 0.4485
3386.000000 0.4466 0.4447 0.4429 0.4414 0.4399
3391.000000 0.4384 0.4368 0.4351 0.4334 0.4316
3396.000000 0.4298 0.4282 0.4268 0.4254 0.4240
3401.000000 0.4226 0.4214 0.4203 0.4192 0.4181
3406.000000 0.4170 0.4165 0.4159 0.4153 0.4147
3411.000000 0.4142 0.4137 0.4132 0.4128 0.4123
3416.000000 0.4120 0.4117 0.4115 0.4112 0.4110
3421.000000 0.4110 0.4110 0.4110 0.4110 0.4111
3426.000000 0.4112 0.4112 0.4113 0.4114 0.4115
3431.000000 0.4116 0.4116 0.4117 0.4117 0.4092
3436.000000 0.4120 0.4121 0.4122 0.4123 0.4124
3441.000000 0.4125 0.4127 0.4128 0.4130 0.4134
3446.000000 0.4138 0.4142 0.4145 0.4157 0.4170
3451.000000 0.4184 0.4198 0.4212 0.4228 0.4244
3456.000000 0.4260 0.4276 0.4293 0.4309 0.4325
3461.000000 0.4341 0.4358 0.4374 0.4390 0.4406
3466.000000 0.4422 0.4438 0.4454 0.4470 0.4487
3471.000000 0.4503 0.4519 0.4535 0.4551 0.4567
3476.000000 0.4584 0.4600 0.4616 0.4631 0.4647
3481.000000 0.4663 0.4679 0.4695 0.4711 0.4727
3486.000000 0.4743 0.4759 0.4775 0.4791 0.4807
3491.000000 0.4823 0.4839 0.4855 0.4871 0.4886
3496.000000 0.4902 0.4918 0.4934 0.4950 0.4966
3501.000000 0.4982 0.4998 0.5014 0.5029 0.5045
3506.000000 0.5061 0.5076 0.5092 0.5108 0.5124
3511.000000 0.5140 0.5155 0.5171 0.5187 0.5202
3516.000000 0.5218 0.5234 0.5249 0.5265 0.5281
3521.000000 0.5297 0.5312 0.5328 0.5344 0.5359
3526.000000 0.5375 0.5392 0.5409 0.5426 0.5443
3531.000000 0.5460 0.5503 0.5548 0.5593 0.5638
3536.000000 0.5682 0.5696 0.5707 0.5719 0.5730
3541.000000 0.5742 0.5753 0.5765 0.5776 0.5788
3546.000000 0.5799 0.5811 0.5822 0.5833 0.5845
3551.000000 0.5856 0.5867 0.5878 0.5889 0.5900
3556.000000 0.5911 0.5922 0.5933 0.5944 0.5955
3561.000000 0.5966 0.5976 0.5987 0.5997 0.6008
3566.000000 0.6018 0.6027 0.6036 0.6044 0.6052
3571.000000 0.6061 0.6069 0.6078 0.6086 0.6095
3576.000000 0.6103 0.6111 0.6120 0.6128 0.6137
3581.000000 0.6145 0.6153 0.6162 0.6170 0.6178
3586.000000 0.6187 0.6195 0.6203 0.6211 0.6218
3591.000000 0.6226 0.6234 0.6242 0.6250 0.6258
3596.000000 0.6266 0.6274 0.6281 0.6289 0.6297
3601.000000 0.6305 0.6313 0.6321 0.6328 0.6336
3606.000000 0.6343 0.6351 0.6357 0.6363 0.6369
3611.000000 0.6375 0.6380 0.6386 0.6392 0.6398
3616.000000 0.6403 0.6409 0.6415 0.6421 0.6426
3621.000000 0.6432 0.6438 0.6443 0.6449 0.6455
3626.000000 0.6461 0.6466 0.6472 0.6478 0.6483
3631.000000 0.6489 0.6494 0.6500 0.6505 0.6510
3636.000000 0.6516 0.6521 0.6526 0.6531 0.6536
3641.000000 0.6541 0.6546 0.6550 0.6555 0.6560
3646.000000 0.6564 0.6569 0.6573 0.6578 0.6582
3651.000000 0.6587 0.6592 0.6596 0.6601 0.6606
3656.000000 0.6609 0.6613 0.6617 0.6621 0.6624
3661.000000 0.6627 0.6629 0.6631 0.6634 0.6636
3666.000000 0.6638 0.6640 0.6643 0.6645 0.6647
3671.000000 0.6649 0.6651 0.6652 0.6653 0.6655
3676.000000 0.6656 0.6657 0.6658 0.6658 0.6659
3681.000000 0.6660 0.6661 0.6661 0.6662 0.6663
3686.000000 0.6664 0.6664 0.6665 0.6665 0.6666
3691.000000 0.6667 0.6667 0.6668 0.6668 0.6669
3696.000000 0.6670 0.6671 0.6671 0.6672 0.6672
3701.000000 0.6673 0.6674 0.6674 0.6674 0.6674
3706.000000 0.6674 0.6674 0.6674 0.6674 0.6697
3711.000000 0.6673 0.6673 0.6673 0.6673 0.6672
3716.000000 0.6671 0.6670 0.6668 0.6667 0.6666
3721.000000 0.6664 0.6662 0.6660 0.6658 0.6656
3726.000000 0.6651 0.6634 0.6617 0.6600 0.6582
3731.000000 0.6565 0.6543 0.6517 0.6492 0.6466
3736.000000 0.6441 0.6415 0.6390 0.6364 0.6339
3741.000000 0.6313 0.6288 0.6262 0.6237 0.6211
3746.000000 0.6186 0.6160 0.6135 0.6109 0.6084
3751.000000 0.6058 0.6033 0.6008 0.5982 0.5957
3756.000000 0.5932 0.5907 0.5882 0.5857 0.5831
3761.000000 0.5806 0.5781 0.5756 0.5730 0.5705
3766.000000 0.5680 0.5655 0.5629 0.5604 0.5579
3771.000000 0.5554 0.5529 0.5504 0.5479 0.5454
3776.000000 0.5429 0.5404 0.5379 0.5354 0.5329
3781.000000 0.5304 0.5279 0.5268 0.5270 0.5267
3786.000000 0.5264 0.5261 0.5259 0.5259 0.5259
3791.000000 0.5259 0.5259 0.5259 0.5265 0.5282
3796.000000 0.5300 0.5317 0.5334 0.5352 0.5382
3801.000000 0.5419 0.5457 0.5495 0.5533 0.5571
3806.000000 0.5609 0.5646 0.5684 0.5722 0.5760
3811.000000 0.5797 0.5835 0.5873 0.5910 0.5948
3816.000000 0.5986 0.6023 0.6061 0.6098 0.6136
3821.000000 0.6173 0.6211 0.6244 0.6270 0.6295
3826.000000 0.6321 0.6346 0.6372 0.6388 0.6396
3831.000000 0.6404 0.6411 0.6419 0.6427 0.6433
3836.000000 0.6439 0.6445 0.6451 0.6457 0.6463
3841.000000 0.6469 0.6475 0.6481 0.6487 0.6493
3846.000000 0.6499 0.6504 0.6509 0.6513 0.6518
3851.000000 0.6523 0.6528 0.6533 0.6538 0.6543
3856.000000 0.6548 0.6553 0.6558 0.6561 0.6563
3861.000000 0.6566 0.6569 0.6571 0.6574 0.6576
3866.000000 0.6579 0.6582 0.6584 0.6587 0.6590
3871.000000 0.6592 0.6595 0.6597 0.6600 0.6602
3876.000000 0.6605 0.6606 0.6608 0.6610 0.6611
3881.000000 0.6613 0.6615 0.6616 0.6618 0.6619
3886.000000 0.6620 0.6622 0.6623 0.6625 0.6626
3891.000000 0.6628 0.6629 0.6631 0.6632 0.6633
3896.000000 0.6634 0.6635 0.6636 0.6637 0.6638
3901.000000 0.6639 0.6641 0.6642 0.6643 0.6644
3906.000000 0.6645 0.6646 0.6648 0.6649 0.6650
3911.000000 0.6651 0.6652 0.6653 0.6654 0.6655
3916.000000 0.6655 0.6656 0.6657 0.6658 0.6658
3921.000000 0.6658 0.6658 0.6658 0.6658 0.6659
3926.000000 0.6659 0.6659 0.6659 0.6659 0.6659
3931.000000 0.6659 0.6659 0.6659 0.6659 0.6659
3936.000000 0.6659 0.6659 0.6660 0.6660 0.6660
3941.000000 0.6660 0.6660 0.6660 0.6661 0.6661
3946.000000 0.6661 0.6661 0.6661 0.6661 0.6661
3951.000000 0.6661 0.6661 0.6660 0.6660 0.6660
3956.000000 0.6659 0.6659 0.6659 0.6658 0.6658
3961.000000 0.6658 0.6657 0.6657 0.6657 0.6656
3966.000000 0.6656 0.6655 0.6655 0.6654 0.6654
3971.000000 0.6653 0.6653 0.6652 0.6652 0.6651
3976.000000 0.6651 0.6651 0.6650 0.6650 0.6650
3981.000000 0.6649 0.6649 0.6649 0.6648 0.6648
3986.000000 0.6647 0.6647 0.6646 0.6646 0.6645
3991.000000 0.6645 0.6644 0.6644 0.6643 0.6643
3996.000000 0.6642 0.6642 0.6641 0.6641 0.6641
##END=
