##TITLE=CYCLOHEXANEVALERIC ACID, 4,4-DIMETHYL-d,2,6-TRIOXO-
##JCAMP-DX=4.24
##DATA TYPE=INFRARED SPECTRUM
##CLASS=COBLENTZ III
##ORIGIN=SOUTHERN RESEARCH INSTITUTE
##OWNER=COBLENTZ SOCIETY
Collection (C) 2018 copyright by the U.S. Secretary of Commerce
on behalf of the United States of America. All rights reserved.
##DATE=1956/09/25
##NAMES=5-(4,4-dimethyl-2,6-dioxocyclohexyl)-5-oxopentanoic acid
##MOLFORM=C13 H18 O5
##SOURCE REFERENCE=COBLENTZ NO. 7383
##$NIST ID=B6007383
##$NIST SOURCE=COBLENTZ
##$NIST IMAGE=cob7383
##SPECTROMETER/DATA SYSTEM=PERKIN-ELMER 21 (GRATING)
##INSTRUMENT PARAMETERS=FILTER CHANGE AT ABOUT 1070 CM^-^1
##STATE=SOLID (0.7 mg / 650 mg KBr DISC) VS ONE NaCl WINDOW IN REFERENCE BEAM
$$ PURITY - ANALYTICAL
##PATH LENGTH=
$$SPECTRAL CONTAMINATION DUE TO H2O AROUND 3050 CM^-^1
##SAMPLING PROCEDURE=TRANSMISSION
##RESOLUTION=2
##DATA PROCESSING=DIGITIZED BY NIST FROM HARD COPY (FROM TWO SEGMENTS)
##XUNITS=1/CM
##YUNITS=TRANSMITTANCE
##XFACTOR=1.000000
##YFACTOR=1
##DELTAX=1.188455
##FIRSTX=624.478
##LASTX=3811.91
##FIRSTY=0.975
##MAXX=3811.91
##MINX=624.478
##MAXY=1.024
##MINY=0.0998675
##NPOINTS=2683
##XYDATA=(X++(Y..Y))
624.478000 0.9750 0.9730 0.9720 0.9710 0.9690
630.420275 0.9671 0.9670 0.9670 0.9670 0.9670
636.362550 0.9660 0.9651 0.9641 0.9631 0.9602
642.304825 0.9591 0.9581 0.9580 0.9580 0.9589
648.247100 0.9590 0.9599 0.9645 0.9686 0.9717
654.189375 0.9764 0.9840 0.9998 1.0072 1.0131
660.131650 1.0192 1.0226 1.0239 1.0240 1.0240
666.073925 1.0240 1.0240 1.0240 1.0240 1.0240
672.016200 1.0240 1.0240 1.0240 1.0240 1.0232
677.958475 1.0222 1.0212 1.0210 1.0202 1.0192
683.900750 1.0159 1.0142 1.0132 1.0115 1.0065
689.843025 1.0020 1.0010 1.0003 0.9986 0.9980
695.785300 0.9966 0.9910 0.9855 0.9805 0.9776
701.727575 0.9756 0.9729 0.9713 0.9696 0.9670
707.669850 0.9640 0.9590 0.9563 0.9547 0.9533
713.612125 0.9524 0.9514 0.9504 0.9500 0.9488
719.554400 0.9480 0.9474 0.9464 0.9454 0.9444
725.496675 0.9440 0.9428 0.9414 0.9398 0.9373
731.438950 0.9337 0.9314 0.9299 0.9284 0.9280
737.381225 0.9252 0.9214 0.9178 0.9149 0.9135
743.323500 0.9125 0.9109 0.9095 0.9080 0.9055
749.265775 0.9010 0.8970 0.8950 0.8925 0.8895
755.208050 0.8866 0.8836 0.8806 0.8781 0.8761
761.150325 0.8736 0.8715 0.8701 0.8686 0.8645
767.092600 0.8600 0.8596 0.8586 0.8576 0.8557
773.034875 0.8536 0.8526 0.8516 0.8506 0.8488
778.977150 0.8458 0.8424 0.8392 0.8369 0.8343
784.919425 0.8315 0.8279 0.8242 0.8203 0.8176
790.861700 0.8126 0.8056 0.7986 0.7923 0.7874
796.803975 0.7837 0.7789 0.7697 0.7690 0.7690
802.746250 0.7696 0.7719 0.7769 0.7860 0.7927
808.688525 0.7981 0.8018 0.8048 0.8075 0.8093
814.630800 0.8107 0.8147 0.8212 0.8255 0.8270
820.573075 0.8268 0.8260 0.8260 0.8258 0.8248
826.515350 0.8236 0.8220 0.8218 0.8206 0.8179
832.457625 0.8128 0.8120 0.8115 0.8088 0.8077
838.399900 0.8042 0.7921 0.7814 0.7770 0.7703
844.342175 0.7655 0.7614 0.7551 0.7408 0.7390
850.284450 0.7390 0.7391 0.7406 0.7466 0.7521
856.226725 0.7532 0.7548 0.7530 0.7528 0.7497
862.169000 0.7458 0.7427 0.7377 0.7317 0.7267
868.111275 0.7207 0.7138 0.7067 0.6949 0.6890
874.053550 0.6870 0.6860 0.6860 0.6840 0.6840
879.995825 0.6840 0.6860 0.6870 0.6870 0.6870
885.938100 0.6860 0.6715 0.6700 0.6652 0.6621
891.880375 0.6573 0.6561 0.6551 0.6550 0.6559
897.822650 0.6615 0.6869 0.7119 0.7286 0.7382
903.764925 0.7426 0.7448 0.7459 0.7487 0.7499
909.707200 0.7500 0.7500 0.7500 0.7491 0.7473
915.649475 0.7453 0.7433 0.7430 0.7430 0.7430
921.591750 0.7438 0.7440 0.7465 0.7503 0.7542
927.534025 0.7566 0.7618 0.7670 0.7704 0.7734
933.476300 0.7756 0.7768 0.7793 0.7815 0.7843
939.418575 0.7888 0.7923 0.7937 0.7947 0.7957
945.360850 0.7982 0.8005 0.8025 0.8066 0.8166
951.303125 0.8243 0.8302 0.8327 0.8330 0.8330
957.245400 0.8330 0.8330 0.8323 0.8320 0.8313
963.187675 0.8310 0.8290 0.8280 0.8267 0.8247
969.129950 0.8227 0.8207 0.8194 0.8184 0.8167
975.072225 0.8141 0.8112 0.8076 0.7982 0.7852
981.014500 0.7782 0.7770 0.7770 0.7764 0.7760
986.956775 0.7760 0.7760 0.7760 0.7760 0.7754
992.899050 0.7750 0.7745 0.7724 0.7683 0.7628
998.841325 0.7547 0.7370 0.7235 0.7220 0.7215
1004.783600 0.7210 0.7205 0.7195 0.7165 0.7111
1010.725875 0.7066 0.7026 0.6972 0.6917 0.6853
1016.668150 0.6765 0.6651 0.6548 0.6501 0.6486
1022.610425 0.6471 0.6456 0.6437 0.6412 0.6392
1028.552700 0.6364 0.6288 0.6202 0.6186 0.6176
1034.494975 0.6162 0.6150 0.6150 0.6157 0.6174
1040.437250 0.6180 0.6187 0.6200 0.6218 0.6264
1046.379525 0.6304 0.6373 0.6483 0.6546 0.6602
1052.321800 0.6675 0.6755 0.6838 0.6927 0.7011
1058.264075 0.7069 0.7127 0.7248 0.7331 0.7363
1064.206350 0.7378 0.7408 0.7435 0.7463 0.7503
1070.148625 0.7512 0.7527 0.7552 0.7562 0.7570
1076.090900 0.7572 0.7582 0.7592 0.7604 0.7620
1082.033175 0.7624 0.7642 0.7652 0.7664 0.7682
1087.975450 0.7690 0.7690 0.7690 0.7690 0.7690
1093.917725 0.7692 0.7699 0.7690 0.7689 0.7677
1099.860000 0.7659 0.7648 0.7629 0.7618 0.7599
1105.802275 0.7589 0.7579 0.7569 0.7554 0.7486
1111.744550 0.7437 0.7400 0.7398 0.7379 0.7356
1117.686825 0.7297 0.7245 0.7148 0.7108 0.7068
1123.629100 0.7029 0.6989 0.6949 0.6919 0.6858
1129.571375 0.6779 0.6729 0.6640 0.6570 0.6491
1135.513650 0.6441 0.6391 0.6321 0.6066 0.5817
1141.455925 0.5578 0.5330 0.5071 0.4756 0.4617
1147.398200 0.4488 0.4303 0.4187 0.4143 0.4140
1153.340475 0.4158 0.4160 0.4160 0.4106 0.4001
1159.282750 0.3820 0.3481 0.3218 0.2916 0.2862
1165.225025 0.2869 0.2965 0.3083 0.3237 0.3592
1171.167300 0.3845 0.4014 0.4149 0.4329 0.4718
1177.109575 0.4914 0.5145 0.5378 0.5550 0.5620
1183.051850 0.5638 0.5648 0.5666 0.5670 0.5678
1188.994125 0.5774 0.5862 0.6003 0.6116 0.6216
1194.936400 0.6285 0.6397 0.6505 0.6545 0.6550
1200.878675 0.6550 0.6550 0.6536 0.6523 0.6492
1206.820950 0.6424 0.6386 0.6352 0.6312 0.6272
1212.763225 0.6239 0.6189 0.6109 0.5993 0.5890
1218.705500 0.5623 0.5173 0.4752 0.4613 0.4616
1224.647775 0.4697 0.4848 0.5048 0.5373 0.5742
1230.590050 0.6272 0.6702 0.6887 0.6966 0.6996
1236.532325 0.7000 0.7000 0.7000 0.6994 0.6967
1242.474600 0.6950 0.6944 0.6940 0.6940 0.6929
1248.416875 0.6893 0.6832 0.6779 0.6744 0.6699
1254.359150 0.6644 0.6594 0.6534 0.6449 0.6360
1260.301425 0.6280 0.6126 0.5946 0.5841 0.5771
1266.243700 0.5697 0.5585 0.5123 0.4661 0.4622
1272.185975 0.4600 0.4591 0.4576 0.4566 0.4556
1278.128250 0.4546 0.4540 0.4544 0.4554 0.4564
1284.070525 0.4607 0.4712 0.4865 0.5015 0.5147
1290.012800 0.5380 0.5672 0.5931 0.6050 0.6054
1295.955075 0.6060 0.6053 0.6026 0.5979 0.5923
1301.897350 0.5870 0.5804 0.5714 0.5608 0.5492
1307.839625 0.5340 0.5175 0.4980 0.4781 0.4652
1313.781900 0.4497 0.4301 0.4189 0.4154 0.4156
1319.724175 0.4240 0.4473 0.4846 0.4938 0.4992
1325.666450 0.5000 0.5002 0.5010 0.5005 0.4990
1331.608725 0.4992 0.5024 0.5160 0.5405 0.5666
1337.551000 0.5887 0.6124 0.6529 0.6711 0.6773
1343.493275 0.6830 0.6830 0.6830 0.6822 0.6768
1349.435550 0.6696 0.6662 0.6606 0.6579 0.6565
1355.377825 0.6527 0.6506 0.6477 0.6447 0.6416
1361.320100 0.6375 0.6327 0.6300 0.6289 0.6134
1367.262375 0.5601 0.5155 0.5104 0.5165 0.5251
1373.204650 0.5426 0.5546 0.5670 0.5680 0.5666
1379.146925 0.5567 0.5472 0.5187 0.5059 0.4996
1385.089200 0.4698 0.4390 0.3932 0.3810 0.3631
1391.031475 0.3413 0.3243 0.3045 0.2933 0.2911
1396.973750 0.2881 0.2880 0.2880 0.2899 0.2909
1402.916025 0.2919 0.2929 0.2976 0.3017 0.3149
1408.858300 0.3178 0.3180 0.3180 0.3171 0.3098
1414.800575 0.2884 0.2673 0.2447 0.2174 0.2114
1420.742850 0.2119 0.2309 0.2357 0.2420 0.2481
1426.685125 0.2498 0.2517 0.2520 0.2520 0.2520
1432.627400 0.2520 0.2520 0.2528 0.2546 0.2582
1438.569675 0.2606 0.2626 0.2646 0.2674 0.2703
1444.511950 0.2725 0.2822 0.2987 0.3205 0.3488
1450.454225 0.3801 0.4157 0.4577 0.4926 0.5091
1456.396500 0.5127 0.5137 0.5154 0.5160 0.5131
1462.338775 0.5070 0.5022 0.5010 0.5010 0.5051
1468.281050 0.5186 0.5442 0.5754 0.6348 0.6657
1474.223325 0.6749 0.6832 0.6866 0.6876 0.6886
1480.165600 0.6890 0.6877 0.6864 0.6841 0.6811
1486.107875 0.6782 0.6770 0.6764 0.6748 0.6687
1492.050150 0.6603 0.6529 0.6465 0.6429 0.6403
1497.992425 0.6373 0.6332 0.6277 0.6206 0.5968
1503.934700 0.5784 0.5770 0.5770 0.5770 0.5770
1509.876975 0.5635 0.5350 0.5190 0.5145 0.5090
1515.819250 0.5001 0.4891 0.4821 0.4756 0.4672
1521.761525 0.4615 0.4596 0.4575 0.4538 0.4486
1527.703800 0.4421 0.4334 0.4209 0.3921 0.3652
1533.646075 0.3470 0.3242 0.3013 0.2804 0.2760
1539.588350 0.2702 0.2640 0.2591 0.2548 0.2526
1545.530625 0.2497 0.2396 0.2220 0.2053 0.1906
1551.472900 0.1751 0.1652 0.1569 0.1500 0.1477
1557.415175 0.1470 0.1470 0.1476 0.1496 0.1513
1563.357450 0.1526 0.1540 0.1543 0.1562 0.1593
1569.299725 0.1606 0.1674 0.1843 0.1963 0.2063
1575.242000 0.2110 0.2150 0.2195 0.2250 0.2295
1581.184275 0.2364 0.2459 0.2536 0.2597 0.2627
1587.126550 0.2652 0.2662 0.2672 0.2692 0.2766
1593.068825 0.2876 0.2904 0.2924 0.2947 0.2990
1599.011100 0.3058 0.3156 0.3195 0.3231 0.3292
1604.953375 0.3300 0.3300 0.3300 0.3293 0.3235
1610.895650 0.3106 0.2927 0.2890 0.2804 0.2743
1616.837925 0.2652 0.2368 0.2029 0.1700 0.1473
1622.780200 0.1386 0.1339 0.1330 0.1332 0.1379
1628.722475 0.1525 0.1629 0.2011 0.2253 0.2342
1634.664750 0.2403 0.2531 0.3052 0.3174 0.3625
1640.607025 0.4031 0.4161 0.4638 0.4680 0.4700
1646.549300 0.4739 0.4789 0.4819 0.4849 0.4869
1652.491575 0.4889 0.4919 0.4930 0.4939 0.4987
1658.433850 0.5037 0.5105 0.5230 0.5341 0.5433
1664.376125 0.5531 0.5613 0.5683 0.5762 0.5841
1670.318400 0.5912 0.6061 0.6106 0.6110 0.6110
1676.260675 0.6110 0.6110 0.6110 0.6110 0.6110
1682.202950 0.6093 0.6090 0.6082 0.6055 0.6025
1688.145225 0.5897 0.5756 0.5633 0.5586 0.5532
1694.087500 0.5472 0.5428 0.5373 0.5174 0.4957
1700.029775 0.4763 0.4643 0.4536 0.4192 0.3736
1705.972050 0.3418 0.3157 0.2590 0.1906 0.1581
1711.914325 0.1341 0.1162 0.1048 0.0999 0.1011
1717.856600 0.1237 0.1545 0.1833 0.2104 0.2381
1723.798875 0.2804 0.3109 0.3327 0.3526 0.3702
1729.741150 0.4047 0.4582 0.4796 0.4966 0.5232
1735.683425 0.5482 0.5645 0.5815 0.5989 0.6320
1741.625700 0.6563 0.6622 0.6666 0.6731 0.6789
1747.567975 0.6863 0.6958 0.7046 0.7131 0.7210
1753.510250 0.7279 0.7349 0.7413 0.7467 0.7512
1759.452525 0.7568 0.7643 0.7696 0.7731 0.7755
1765.394800 0.7760 0.7765 0.7775 0.7800 0.7835
1771.337075 0.7850 0.7865 0.7895 0.7924 0.7949
1777.279350 0.7965 0.7984 0.8000 0.8009 0.8029
1783.221625 0.8049 0.8069 0.8097 0.8124 0.8139
1789.163900 0.8171 0.8200 0.8204 0.8214 0.8228
1795.106175 0.8244 0.8250 0.8254 0.8264 0.8274
1801.048450 0.8284 0.8305 0.8334 0.8340 0.8340
1806.990725 0.8340 0.8343 0.8350 0.8350 0.8357
1812.933000 0.8370 0.8370 0.8373 0.8380 0.8383
1818.875275 0.8390 0.8393 0.8400 0.8403 0.8410
1824.817550 0.8416 0.8430 0.8433 0.8440 0.8443
1830.759825 0.8450 0.8453 0.8460 0.8460 0.8462
1836.702100 0.8470 0.8470 0.8472 0.8480 0.8480
1842.644375 0.8484 0.8500 0.8500 0.8500 0.8500
1848.586650 0.8500 0.8500 0.8500 0.8500 0.8500
1854.528925 0.8500 0.8500 0.8500 0.8500 0.8500
1860.471200 0.8497 0.8480 0.8480 0.8480 0.8479
1866.413475 0.8470 0.8470 0.8470 0.8470 0.8470
1872.355750 0.8470 0.8470 0.8470 0.8470 0.8470
1878.298025 0.8470 0.8470 0.8470 0.8470 0.8470
1884.240300 0.8470 0.8470 0.8470 0.8470 0.8480
1890.182575 0.8480 0.8480 0.8480 0.8480 0.8500
1896.124850 0.8500 0.8500 0.8500 0.8500 0.8510
1902.067125 0.8510 0.8510 0.8510 0.8520 0.8520
1908.009400 0.8520 0.8520 0.8520 0.8520 0.8529
1913.951675 0.8530 0.8539 0.8540 0.8558 0.8560
1919.893950 0.8560 0.8560 0.8560 0.8560 0.8560
1925.836225 0.8560 0.8560 0.8542 0.8540 0.8531
1931.778500 0.8530 0.8521 0.8520 0.8520 0.8520
1937.720775 0.8520 0.8528 0.8530 0.8538 0.8556
1943.663050 0.8560 0.8568 0.8578 0.8580 0.8596
1949.605325 0.8616 0.8628 0.8638 0.8640 0.8640
1955.547600 0.8640 0.8640 0.8640 0.8640 0.8640
1961.489875 0.8633 0.8630 0.8630 0.8630 0.8630
1967.432150 0.8630 0.8630 0.8630 0.8637 0.8647
1973.374425 0.8671 0.8687 0.8697 0.8714 0.8727
1979.316700 0.8730 0.8743 0.8750 0.8750 0.8750
1985.258975 0.8757 0.8760 0.8760 0.8760 0.8760
1991.201250 0.8760 0.8760 0.8760 0.8760 0.8760
1997.143525 0.8760 0.8760 0.8760 0.8760 0.8760
2003.085800 0.8760 0.8760 0.8760 0.8760 0.8760
2009.028075 0.8760 0.8760 0.8760 0.8760 0.8760
2014.970350 0.8760 0.8766 0.8770 0.8770 0.8770
2020.912625 0.8770 0.8776 0.8780 0.8780 0.8780
2026.854900 0.8780 0.8786 0.8790 0.8790 0.8802
2032.797175 0.8810 0.8816 0.8820 0.8820 0.8826
2038.739450 0.8830 0.8830 0.8830 0.8830 0.8830
2044.681725 0.8830 0.8830 0.8830 0.8830 0.8830
2050.624000 0.8830 0.8830 0.8830 0.8830 0.8830
2056.566275 0.8830 0.8830 0.8830 0.8830 0.8830
2062.508550 0.8830 0.8836 0.8846 0.8850 0.8862
2068.450825 0.8876 0.8892 0.8906 0.8916 0.8938
2074.393100 0.8950 0.8950 0.8950 0.8956 0.8960
2080.335375 0.8960 0.8960 0.8966 0.8970 0.8970
2086.277650 0.8970 0.8970 0.8970 0.8970 0.8970
2092.219925 0.8970 0.8970 0.8970 0.8970 0.8970
2098.162200 0.8976 0.8980 0.8980 0.8980 0.8980
2104.104475 0.8980 0.8980 0.8980 0.8980 0.8980
2110.046750 0.8980 0.8980 0.8980 0.8980 0.8980
2115.989025 0.8980 0.8980 0.8980 0.8980 0.8992
2121.931300 0.9000 0.9000 0.9000 0.9000 0.9000
2127.873575 0.9006 0.9010 0.9010 0.9010 0.9010
2133.815850 0.9010 0.9016 0.9020 0.9020 0.9020
2139.758125 0.9020 0.9020 0.9020 0.9020 0.9020
2145.700400 0.9020 0.9014 0.9010 0.9010 0.9010
2151.642675 0.9010 0.9010 0.9010 0.9010 0.9010
2157.584950 0.9010 0.9010 0.9004 0.9006 0.9010
2163.527225 0.9010 0.9010 0.9016 0.9020 0.9020
2169.469500 0.9020 0.9020 0.9026 0.9030 0.9030
2175.411775 0.9024 0.9020 0.9026 0.9030 0.9030
2181.354050 0.9030 0.9030 0.9030 0.9030 0.9030
2187.296325 0.9030 0.9030 0.9030 0.9030 0.9030
2193.238600 0.9030 0.9030 0.9030 0.9030 0.9030
2199.180875 0.9030 0.9030 0.9024 0.9020 0.9020
2205.123150 0.9020 0.9020 0.9020 0.9020 0.9020
2211.065425 0.9020 0.9020 0.9020 0.9020 0.9020
2217.007700 0.9020 0.9020 0.9020 0.9014 0.9010
2222.949975 0.9010 0.9010 0.9010 0.9004 0.9000
2228.892250 0.9000 0.9000 0.9000 0.8988 0.8980
2234.834525 0.8980 0.8980 0.8980 0.8980 0.8974
2240.776800 0.8970 0.8970 0.8970 0.8970 0.8964
2246.719075 0.8960 0.8960 0.8960 0.8960 0.8954
2252.661350 0.8950 0.8950 0.8950 0.8950 0.8944
2258.603625 0.8940 0.8940 0.8940 0.8940 0.8928
2264.545900 0.8920 0.8920 0.8920 0.8914 0.8910
2270.488175 0.8904 0.8900 0.8900 0.8894 0.8890
2276.430450 0.8890 0.8884 0.8880 0.8880 0.8874
2282.372725 0.8870 0.8870 0.8858 0.8850 0.8844
2288.315000 0.8840 0.8834 0.8830 0.8830 0.8824
2294.257275 0.8820 0.8820 0.8814 0.8798 0.8790
2300.199550 0.8784 0.8780 0.8774 0.8764 0.8760
2306.141825 0.8754 0.8738 0.8730 0.8730 0.8730
2312.084100 0.8730 0.8730 0.8730 0.8730 0.8730
2318.026375 0.8730 0.8730 0.8730 0.8730 0.8730
2323.968650 0.8730 0.8730 0.8730 0.8730 0.8730
2329.910925 0.8730 0.8730 0.8730 0.8730 0.8730
2335.853200 0.8730 0.8724 0.8720 0.8714 0.8710
2341.795475 0.8704 0.8700 0.8694 0.8690 0.8690
2347.737750 0.8690 0.8690 0.8690 0.8690 0.8690
2353.680025 0.8690 0.8690 0.8690 0.8690 0.8690
2359.622300 0.8690 0.8690 0.8696 0.8700 0.8706
2365.564575 0.8710 0.8710 0.8710 0.8710 0.8710
2371.506850 0.8710 0.8710 0.8710 0.8710 0.8710
2377.449125 0.8710 0.8710 0.8710 0.8710 0.8710
2383.391400 0.8710 0.8710 0.8710 0.8710 0.8704
2389.333675 0.8700 0.8700 0.8700 0.8700 0.8700
2395.275950 0.8694 0.8690 0.8690 0.8690 0.8690
2401.218225 0.8684 0.8668 0.8660 0.8654 0.8650
2407.160500 0.8644 0.8640 0.8634 0.8624 0.8608
2413.102775 0.8600 0.8594 0.8584 0.8574 0.8564
2419.045050 0.8548 0.8534 0.8524 0.8526 0.8530
2424.987325 0.8524 0.8520 0.8520 0.8514 0.8510
2430.929600 0.8510 0.8504 0.8500 0.8500 0.8500
2436.871875 0.8500 0.8500 0.8500 0.8500 0.8500
2442.814150 0.8500 0.8500 0.8500 0.8500 0.8500
2448.756425 0.8500 0.8500 0.8488 0.8480 0.8480
2454.698700 0.8480 0.8474 0.8470 0.8470 0.8464
2460.640975 0.8460 0.8460 0.8454 0.8450 0.8450
2466.583250 0.8444 0.8440 0.8440 0.8434 0.8430
2472.525525 0.8430 0.8418 0.8404 0.8400 0.8400
2478.467800 0.8394 0.8390 0.8390 0.8384 0.8380
2484.410075 0.8374 0.8358 0.8350 0.8350 0.8350
2490.352350 0.8344 0.8340 0.8340 0.8334 0.8330
2496.294625 0.8330 0.8324 0.8320 0.8314 0.8310
2502.236900 0.8310 0.8310 0.8310 0.8310 0.8298
2508.179175 0.8290 0.8290 0.8290 0.8290 0.8290
2514.121450 0.8284 0.8280 0.8274 0.8270 0.8264
2520.063725 0.8254 0.8250 0.8244 0.8240 0.8228
2526.006000 0.8220 0.8214 0.8204 0.8200 0.8200
2531.948275 0.8194 0.8190 0.8184 0.8180 0.8168
2537.890550 0.8154 0.8150 0.8144 0.8140 0.8134
2543.832825 0.8130 0.8130 0.8124 0.8120 0.8108
2549.775100 0.8100 0.8100 0.8094 0.8090 0.8084
2555.717375 0.8080 0.8080 0.8074 0.8070 0.8064
2561.659650 0.8060 0.8060 0.8048 0.8040 0.8034
2567.601925 0.8030 0.8024 0.8020 0.8020 0.8020
2573.544200 0.8020 0.8014 0.8010 0.8010 0.8010
2579.486475 0.8010 0.8004 0.8000 0.8000 0.8000
2585.428750 0.8000 0.7994 0.7990 0.7990 0.7990
2591.371025 0.7990 0.7990 0.7978 0.7970 0.7970
2597.313300 0.7970 0.7970 0.7964 0.7960 0.7960
2603.255575 0.7960 0.7960 0.7954 0.7950 0.7950
2609.197850 0.7950 0.7950 0.7950 0.7944 0.7940
2615.140125 0.7940 0.7940 0.7940 0.7940 0.7934
2621.082400 0.7930 0.7930 0.7930 0.7930 0.7930
2627.024675 0.7930 0.7918 0.7910 0.7910 0.7910
2632.966950 0.7910 0.7910 0.7904 0.7900 0.7900
2638.909225 0.7900 0.7900 0.7900 0.7894 0.7890
2644.851500 0.7890 0.7890 0.7890 0.7890 0.7884
2650.793775 0.7880 0.7880 0.7880 0.7880 0.7880
2656.736050 0.7874 0.7870 0.7870 0.7870 0.7870
2662.678325 0.7870 0.7858 0.7850 0.7850 0.7850
2668.620600 0.7850 0.7850 0.7850 0.7850 0.7850
2674.562875 0.7862 0.7870 0.7870 0.7870 0.7858
2680.505150 0.7850 0.7850 0.7844 0.7840 0.7840
2686.447425 0.7840 0.7828 0.7814 0.7810 0.7810
2692.389700 0.7810 0.7810 0.7810 0.7804 0.7800
2698.331975 0.7800 0.7800 0.7782 0.7770 0.7770
2704.274250 0.7764 0.7760 0.7760 0.7760 0.7760
2710.216525 0.7760 0.7760 0.7760 0.7760 0.7754
2716.158800 0.7750 0.7750 0.7750 0.7750 0.7750
2722.101075 0.7750 0.7750 0.7750 0.7750 0.7750
2728.043350 0.7750 0.7750 0.7750 0.7750 0.7750
2733.985625 0.7744 0.7740 0.7740 0.7728 0.7720
2739.927900 0.7720 0.7714 0.7698 0.7672 0.7648
2745.870175 0.7634 0.7612 0.7612 0.7608 0.7594
2751.812450 0.7590 0.7584 0.7574 0.7564 0.7560
2757.754725 0.7554 0.7538 0.7524 0.7520 0.7514
2763.697000 0.7504 0.7494 0.7490 0.7478 0.7470
2769.639275 0.7470 0.7464 0.7460 0.7460 0.7454
2775.581550 0.7450 0.7450 0.7444 0.7434 0.7418
2781.523825 0.7398 0.7378 0.7352 0.7328 0.7308
2787.466100 0.7282 0.7252 0.7210 0.7160 0.7134
2793.408375 0.7130 0.7124 0.7120 0.7114 0.7110
2799.350650 0.7098 0.7090 0.7084 0.7074 0.7070
2805.292925 0.7064 0.7060 0.7054 0.7026 0.6998
2811.235200 0.6978 0.6958 0.6938 0.6924 0.6896
2817.177475 0.6868 0.6830 0.6780 0.6730 0.6674
2823.119750 0.6626 0.6580 0.6524 0.6470 0.6420
2829.062025 0.6388 0.6356 0.6316 0.6276 0.6230
2835.004300 0.6186 0.6146 0.6106 0.6072 0.6036
2840.946575 0.5996 0.5945 0.5884 0.5824 0.5770
2846.888850 0.5720 0.5688 0.5662 0.5650 0.5650
2852.831125 0.5644 0.5640 0.5634 0.5630 0.5612
2858.773400 0.5588 0.5568 0.5548 0.5528 0.5514
2864.715675 0.5510 0.5504 0.5500 0.5494 0.5484
2870.657950 0.5462 0.5414 0.5354 0.5312 0.5282
2876.600225 0.5264 0.5254 0.5244 0.5234 0.5218
2882.542500 0.5204 0.5194 0.5178 0.5152 0.5134
2888.484775 0.5124 0.5096 0.5062 0.5032 0.5002
2894.427050 0.4978 0.4952 0.4922 0.4892 0.4868
2900.369325 0.4836 0.4802 0.4772 0.4754 0.4738
2906.311600 0.4712 0.4682 0.4640 0.4614 0.4592
2912.253875 0.4562 0.4526 0.4498 0.4484 0.4474
2918.196150 0.4458 0.4438 0.4424 0.4414 0.4398
2924.138425 0.4378 0.4358 0.4344 0.4328 0.4308
2930.080700 0.4294 0.4290 0.4284 0.4268 0.4260
2936.022975 0.4260 0.4260 0.4260 0.4260 0.4272
2941.965250 0.4286 0.4290 0.4296 0.4312 0.4332
2947.907525 0.4352 0.4366 0.4429 0.4571 0.4688
2953.849800 0.4756 0.4798 0.4840 0.4872 0.4904
2959.792075 0.4926 0.4942 0.4962 0.4976 0.4986
2965.734350 0.4996 0.5000 0.5012 0.5020 0.5032
2971.676625 0.5040 0.5046 0.5050 0.5056 0.5066
2977.618900 0.5070 0.5070 0.5076 0.5092 0.5100
2983.561175 0.5100 0.5100 0.5100 0.5100 0.5100
2989.503450 0.5100 0.5100 0.5100 0.5100 0.5100
2995.445725 0.5100 0.5100 0.5088 0.5080 0.5080
3001.388000 0.5080 0.5080 0.5080 0.5080 0.5080
3007.330275 0.5080 0.5080 0.5074 0.5070 0.5070
3013.272550 0.5070 0.5064 0.5060 0.5060 0.5060
3019.214825 0.5054 0.5050 0.5050 0.5044 0.5040
3025.157100 0.5028 0.5020 0.5014 0.5010 0.5010
3031.099375 0.5010 0.5004 0.5000 0.5000 0.5000
3037.041650 0.5000 0.5000 0.5006 0.5016 0.5020
3042.983925 0.5032 0.5046 0.5056 0.5066 0.5076
3048.926200 0.5092 0.5106 0.5116 0.5120 0.5120
3054.868475 0.5120 0.5120 0.5126 0.5130 0.5148
3060.810750 0.5166 0.5176 0.5198 0.5210 0.5210
3066.753025 0.5210 0.5210 0.5210 0.5210 0.5210
3072.695300 0.5210 0.5222 0.5236 0.5240 0.5246
3078.637575 0.5250 0.5262 0.5282 0.5302 0.5310
3084.579850 0.5316 0.5326 0.5330 0.5330 0.5342
3090.522125 0.5350 0.5350 0.5350 0.5350 0.5356
3096.464400 0.5366 0.5376 0.5386 0.5402 0.5410
3102.406675 0.5422 0.5436 0.5464 0.5492 0.5512
3108.348950 0.5550 0.5588 0.5618 0.5636 0.5658
3114.291225 0.5676 0.5680 0.5686 0.5696 0.5706
3120.233500 0.5722 0.5736 0.5746 0.5750 0.5750
3126.175775 0.5762 0.5782 0.5814 0.5848 0.5860
3132.118050 0.5866 0.5870 0.5876 0.5886 0.5896
3138.060325 0.5912 0.5926 0.5936 0.5940 0.5940
3144.002600 0.5946 0.5950 0.5956 0.5984 0.6006
3149.944875 0.6010 0.6010 0.6016 0.6020 0.6032
3155.887150 0.6046 0.6056 0.6066 0.6094 0.6116
3161.829425 0.6126 0.6130 0.6142 0.6168 0.6186
3167.771700 0.6214 0.6254 0.6294 0.6316 0.6326
3173.713975 0.6330 0.6336 0.6358 0.6370 0.6406
3179.656250 0.6442 0.6450 0.6456 0.6472 0.6480
3185.598525 0.6480 0.6486 0.6496 0.6506 0.6510
3191.540800 0.6516 0.6520 0.6520 0.6526 0.6530
3197.483075 0.6542 0.6550 0.6556 0.6560 0.6566
3203.425350 0.6570 0.6576 0.6586 0.6602 0.6616
3209.367625 0.6626 0.6636 0.6640 0.6646 0.6668
3215.309900 0.6692 0.6718 0.6736 0.6752 0.6772
3221.252175 0.6798 0.6816 0.6832 0.6852 0.6872
3227.194450 0.6886 0.6908 0.6926 0.6942 0.6956
3233.136725 0.6966 0.6982 0.6996 0.7006 0.7016
3239.079000 0.7026 0.7042 0.7056 0.7066 0.7076
3245.021275 0.7086 0.7102 0.7116 0.7126 0.7136
3250.963550 0.7140 0.7140 0.7146 0.7150 0.7162
3256.905825 0.7170 0.7176 0.7180 0.7186 0.7190
3262.848100 0.7196 0.7200 0.7200 0.7206 0.7210
3268.790375 0.7216 0.7220 0.7232 0.7240 0.7246
3274.732650 0.7250 0.7250 0.7250 0.7250 0.7250
3280.674925 0.7250 0.7256 0.7260 0.7260 0.7260
3286.617200 0.7260 0.7260 0.7260 0.7260 0.7260
3292.559475 0.7260 0.7260 0.7260 0.7260 0.7260
3298.501750 0.7260 0.7260 0.7260 0.7260 0.7260
3304.444025 0.7260 0.7254 0.7250 0.7250 0.7250
3310.386300 0.7250 0.7250 0.7250 0.7250 0.7244
3316.328575 0.7240 0.7240 0.7240 0.7240 0.7240
3322.270850 0.7228 0.7214 0.7210 0.7210 0.7204
3328.213125 0.7200 0.7194 0.7190 0.7190 0.7184
3334.155400 0.7180 0.7174 0.7170 0.7158 0.7144
3340.097675 0.7140 0.7134 0.7130 0.7124 0.7120
3346.039950 0.7102 0.7090 0.7084 0.7080 0.7074
3351.982225 0.7064 0.7060 0.7042 0.7030 0.7024
3357.924500 0.7020 0.7014 0.7004 0.7000 0.6994
3363.866775 0.6978 0.6970 0.6964 0.6954 0.6938
3369.809050 0.6930 0.6930 0.6930 0.6924 0.6920
3375.751325 0.6920 0.6908 0.6894 0.6890 0.6890
3381.693600 0.6890 0.6890 0.6890 0.6890 0.6890
3387.635875 0.6890 0.6890 0.6896 0.6900 0.6900
3393.578150 0.6900 0.6912 0.6920 0.6926 0.6930
3399.520425 0.6936 0.6940 0.6940 0.6940 0.6946
3405.462700 0.6950 0.6956 0.6960 0.6966 0.6970
3411.404975 0.6982 0.6990 0.6996 0.7000 0.7006
3417.347250 0.7010 0.7016 0.7020 0.7026 0.7042
3423.289525 0.7056 0.7060 0.7066 0.7076 0.7080
3429.231800 0.7086 0.7102 0.7110 0.7116 0.7126
3435.174075 0.7130 0.7136 0.7146 0.7150 0.7162
3441.116350 0.7176 0.7192 0.7200 0.7206 0.7210
3447.058625 0.7216 0.7232 0.7252 0.7266 0.7300
3453.000900 0.7344 0.7366 0.7376 0.7386 0.7390
3458.943175 0.7390 0.7396 0.7406 0.7422 0.7430
3464.885450 0.7436 0.7446 0.7450 0.7456 0.7460
3470.827725 0.7466 0.7488 0.7506 0.7522 0.7542
3476.770000 0.7562 0.7570 0.7582 0.7596 0.7624
3482.712275 0.7652 0.7672 0.7686 0.7702 0.7716
3488.654550 0.7732 0.7746 0.7762 0.7776 0.7792
3494.596825 0.7800 0.7806 0.7810 0.7816 0.7826
3500.539100 0.7836 0.7846 0.7862 0.7876 0.7886
3506.481375 0.7890 0.7896 0.7906 0.7928 0.7946
3512.423650 0.7950 0.7950 0.7956 0.7960 0.7966
3518.365925 0.7970 0.7982 0.7990 0.7996 0.8006
3524.308200 0.8010 0.8010 0.8016 0.8020 0.8020
3530.250475 0.8026 0.8030 0.8030 0.8030 0.8030
3536.192750 0.8036 0.8040 0.8040 0.8058 0.8070
3542.135025 0.8076 0.8086 0.8108 0.8132 0.8146
3548.077300 0.8150 0.8156 0.8184 0.8224 0.8246
3554.019575 0.8256 0.8266 0.8276 0.8298 0.8322
3559.961850 0.8336 0.8358 0.8382 0.8402 0.8434
3565.904125 0.8468 0.8492 0.8506 0.8516 0.8526
3571.846400 0.8536 0.8552 0.8566 0.8576 0.8586
3577.788675 0.8596 0.8612 0.8626 0.8648 0.8678
3583.730950 0.8702 0.8722 0.8742 0.8762 0.8776
3589.673225 0.8786 0.8802 0.8810 0.8816 0.8826
3595.615500 0.8836 0.8846 0.8862 0.8870 0.8870
3601.557775 0.8876 0.8886 0.8890 0.8890 0.8890
3607.500050 0.8890 0.8890 0.8896 0.8900 0.8900
3613.442325 0.8900 0.8900 0.8906 0.8910 0.8910
3619.384600 0.8910 0.8916 0.8920 0.8920 0.8932
3625.326875 0.8946 0.8950 0.8950 0.8962 0.8970
3631.269150 0.8970 0.8988 0.9006 0.9010 0.9016
3637.211425 0.9020 0.9026 0.9036 0.9040 0.9040
3643.153700 0.9052 0.9060 0.9066 0.9070 0.9070
3649.095975 0.9070 0.9064 0.9066 0.9070 0.9076
3655.038250 0.9080 0.9080 0.9074 0.9076 0.9080
3660.980525 0.9080 0.9080 0.9080 0.9080 0.9080
3666.922800 0.9086 0.9090 0.9090 0.9090 0.9090
3672.865075 0.9090 0.9090 0.9096 0.9100 0.9112
3678.807350 0.9120 0.9120 0.9126 0.9130 0.9130
3684.749625 0.9136 0.9140 0.9140 0.9146 0.9150
3690.691900 0.9150 0.9156 0.9160 0.9160 0.9160
3696.634175 0.9166 0.9170 0.9170 0.9170 0.9188
3702.576450 0.9206 0.9246 0.9282 0.9302 0.9310
3708.518725 0.9316 0.9320 0.9320 0.9320 0.9320
3714.461000 0.9320 0.9320 0.9320 0.9320 0.9326
3720.403275 0.9330 0.9324 0.9320 0.9314 0.9310
3726.345550 0.9298 0.9290 0.9284 0.9280 0.9274
3732.287825 0.9270 0.9264 0.9254 0.9238 0.9224
3738.230100 0.9220 0.9214 0.9204 0.9200 0.9200
3744.172375 0.9194 0.9190 0.9178 0.9164 0.9160
3750.114650 0.9160 0.9160 0.9160 0.9160 0.9160
3756.056925 0.9160 0.9160 0.9154 0.9150 0.9150
3761.999200 0.9150 0.9150 0.9150 0.9150 0.9150
3767.941475 0.9150 0.9150 0.9150 0.9150 0.9150
3773.883750 0.9150 0.9150 0.9150 0.9150 0.9150
3779.826025 0.9150 0.9144 0.9140 0.9140 0.9140
3785.768300 0.9134 0.9130 0.9130 0.9130 0.9130
3791.710575 0.9124 0.9120 0.9108 0.9112 0.9120
3797.652850 0.9120 0.9120 0.9126 0.9130 0.9130
3803.595125 0.9130 0.9130 0.9136 0.9140 0.9134
3809.537400 0.9130 0.9136 0.9140
##END=
