##TITLE=1,4-Benzenediamine, N,N'-bis(2-methyl-propyl)-,dihydrochloride
##JCAMP-DX=4.24
##DATA TYPE=INFRARED SPECTRUM
##CLASS=COBLENTZ III
##ORIGIN=BRITISH PETROLEUM CO. LTD., ENGLAND
##OWNER=Copyright (C) 1987 by the Coblentz Society
Collection (C) 2018 copyright by the U.S. Secretary of Commerce
on behalf of the United States of America. All rights reserved.
##DATE=1972/08/01
##NAMES=p-Phenylenediamine, N,N'-diisobutyl-dihydrochloride
##MOLFORM=C14 H26 Cl2 N2
##SOURCE REFERENCE=COBLENTZ NO. 9329
##$NIST ID=B6009329
##$NIST SOURCE=COBLENTZ
##$NIST IMAGE=cob9329
##SPECTROMETER/DATA SYSTEM=PERKIN-ELMER 157
##STATE=SOLID (KBr DISC, 0.8% WT.)
$$ HCl RUN IN KBr MAY CONTAIN SOME HBr
$$ REF. Can. J. Spec., 18,4,101, '73 C. S. DOUSE and P. B. TOOKE
##SAMPLING PROCEDURE=TRANSMISSION
##RESOLUTION=2
##DATA PROCESSING=DIGITIZED BY COBLENTZ SOCIETY (BATCH II) FROM HARD COPY
##XUNITS=1/CM
##YUNITS=TRANSMITTANCE
##XFACTOR=1.0
##YFACTOR=1
##FIRSTX=667
##LASTX=4000
##FIRSTY=1.0254
##MAXX=4000
##MINX=667
##MAXY=1.0254
##MINY=0.0072
##NPOINTS=3334
##XYDATA=(X++(Y..Y))
667.000000 1.0254 1.0249 1.0226 1.0192 1.0166
672.000000 1.0154 1.0136 1.0130 1.0099 1.0057
677.000000 0.9998 0.9939 0.9905 0.9887 0.9877
682.000000 0.9854 0.9799 0.9761 0.9746 0.9650
687.000000 0.9621 0.9602 0.9574 0.9526 0.9448
692.000000 0.9331 0.9182 0.9021 0.8699 0.8349
697.000000 0.8027 0.7825 0.7579 0.7552 0.7798
702.000000 0.8200 0.8601 0.9001 0.9355 0.9394
707.000000 0.9407 0.9413 0.9414 0.9430 0.9408
712.000000 0.9402 0.9393 0.9381 0.9353 0.9316
717.000000 0.9278 0.9248 0.9218 0.9202 0.9190
722.000000 0.9187 0.9183 0.9180 0.9172 0.9161
727.000000 0.9137 0.9114 0.9078 0.9039 0.9005
732.000000 0.8974 0.8943 0.8911 0.8871 0.8830
737.000000 0.8776 0.8716 0.8656 0.8602 0.8548
742.000000 0.8494 0.8438 0.8383 0.8313 0.8240
747.000000 0.8146 0.8039 0.7877 0.7716 0.7468
752.000000 0.7116 0.6913 0.5443 0.5194 0.5004
757.000000 0.4803 0.4634 0.4643 0.4858 0.5168
762.000000 0.5477 0.5785 0.6092 0.6174 0.6187
767.000000 0.6185 0.6179 0.6134 0.5642 0.5260
772.000000 0.4880 0.4501 0.4019 0.3834 0.3874
777.000000 0.3987 0.4432 0.4910 0.5387 0.5862
782.000000 0.6395 0.6366 0.6344 0.6256 0.6205
787.000000 0.6171 0.6160 0.6169 0.6216 0.6288
792.000000 0.6488 0.6650 0.6815 0.7050 0.7310
797.000000 0.7418 0.7446 0.7451 0.7447 0.7398
802.000000 0.7312 0.7281 0.7219 0.7059 0.6956
807.000000 0.6713 0.6431 0.6149 0.5868 0.5587
812.000000 0.5296 0.5015 0.4786 0.4685 0.4681
817.000000 0.4686 0.4913 0.5135 0.5357 0.5579
822.000000 0.5792 0.5877 0.5904 0.5914 0.5921
827.000000 0.5936 0.5960 0.6019 0.6203 0.6386
832.000000 0.6569 0.6752 0.7000 0.7119 0.7143
837.000000 0.7136 0.7130 0.7084 0.6984 0.6748
842.000000 0.6581 0.6464 0.6315 0.6305 0.6442
847.000000 0.6643 0.6844 0.7044 0.7243 0.7341
852.000000 0.7356 0.7362 0.7341 0.7257 0.7106
857.000000 0.6944 0.6658 0.6370 0.6082 0.5796
862.000000 0.5509 0.5222 0.4950 0.4888 0.4881
867.000000 0.5028 0.5281 0.5532 0.5784 0.6034
872.000000 0.6179 0.6204 0.6211 0.6104 0.5914
877.000000 0.5698 0.5481 0.5265 0.5062 0.4893
882.000000 0.4751 0.4630 0.4519 0.4428 0.4396
887.000000 0.4415 0.4499 0.4632 0.4747 0.4836
892.000000 0.4876 0.4878 0.4870 0.4853 0.4837
897.000000 0.4831 0.4840 0.4861 0.4894 0.4983
902.000000 0.5091 0.5250 0.5460 0.5669 0.5878
907.000000 0.6085 0.6293 0.6500 0.6670 0.6777
912.000000 0.6895 0.7076 0.7127 0.7158 0.7186
917.000000 0.7209 0.7227 0.7245 0.7261 0.7268
922.000000 0.7253 0.7264 0.7253 0.7230 0.7208
927.000000 0.7185 0.7172 0.7160 0.7155 0.7153
932.000000 0.7138 0.7098 0.7062 0.7046 0.7025
937.000000 0.6989 0.6910 0.6845 0.6816 0.6791
942.000000 0.6737 0.6692 0.6665 0.6670 0.6650
947.000000 0.6692 0.6735 0.6882 0.6981 0.7003
952.000000 0.7074 0.7129 0.7165 0.7207 0.7240
957.000000 0.7256 0.7264 0.7256 0.7235 0.7177
962.000000 0.7111 0.7046 0.6876 0.6681 0.6486
967.000000 0.6291 0.6080 0.5862 0.5597 0.5461
972.000000 0.5372 0.5296 0.5225 0.5138 0.4995
977.000000 0.4841 0.4819 0.4829 0.4933 0.4985
982.000000 0.5014 0.5032 0.5052 0.5092 0.5103
987.000000 0.5111 0.5118 0.5129 0.5172 0.5409
992.000000 0.5530 0.5564 0.5577 0.5569 0.5542
997.000000 0.5370 0.5151 0.4933 0.4716 0.4498
1002.000000 0.4281 0.4065 0.3853 0.3595 0.3233
1007.000000 0.3024 0.2887 0.2721 0.2551 0.2374
1012.000000 0.2333 0.2327 0.2327 0.2359 0.2529
1017.000000 0.3304 0.3781 0.3792 0.3774 0.3260
1022.000000 0.2896 0.2534 0.2252 0.2257 0.3513
1027.000000 0.4615 0.5405 0.5433 0.5454 0.5472
1032.000000 0.5491 0.5514 0.5560 0.5619 0.5715
1037.000000 0.6025 0.6285 0.6495 0.6670 0.6846
1042.000000 0.7013 0.7190 0.7272 0.7317 0.7351
1047.000000 0.7383 0.7400 0.7413 0.7420 0.7424
1052.000000 0.7427 0.7429 0.7430 0.7431 0.7428
1057.000000 0.7425 0.7422 0.7417 0.7409 0.7402
1062.000000 0.7393 0.7377 0.7362 0.7345 0.7329
1067.000000 0.7312 0.7292 0.7267 0.7242 0.7217
1072.000000 0.7188 0.7157 0.7124 0.7090 0.7049
1077.000000 0.7001 0.6950 0.6898 0.6843 0.6782
1082.000000 0.6710 0.6634 0.6555 0.6475 0.6369
1087.000000 0.6237 0.6062 0.5899 0.5746 0.5566
1092.000000 0.5352 0.5109 0.4669 0.4222 0.3174
1097.000000 0.2791 0.2463 0.2210 0.2052 0.2023
1102.000000 0.2030 0.2235 0.2487 0.2738 0.2951
1107.000000 0.2976 0.2973 0.2996 0.2929 0.2817
1112.000000 0.2697 0.2578 0.2544 0.2547 0.2704
1117.000000 0.2820 0.2888 0.2975 0.3067 0.3134
1122.000000 0.3199 0.3702 0.4125 0.4400 0.4418
1127.000000 0.4416 0.4405 0.4277 0.4138 0.3999
1132.000000 0.3861 0.3722 0.3586 0.3454 0.3370
1137.000000 0.3314 0.3312 0.3307 0.3316 0.3394
1142.000000 0.3741 0.4096 0.4449 0.4802 0.5154
1147.000000 0.5396 0.5512 0.5682 0.5786 0.5901
1152.000000 0.6003 0.6069 0.6134 0.6218 0.6302
1157.000000 0.6362 0.6402 0.6417 0.6421 0.6410
1162.000000 0.6379 0.6323 0.6252 0.6135 0.5964
1167.000000 0.5794 0.5624 0.5453 0.5284 0.5115
1172.000000 0.5012 0.5017 0.5066 0.5255 0.5450
1177.000000 0.5645 0.5839 0.6033 0.6218 0.6271
1182.000000 0.6266 0.6272 0.6240 0.6212 0.6176
1187.000000 0.6101 0.5877 0.5647 0.5303 0.4960
1192.000000 0.4618 0.4277 0.3935 0.3594 0.3255
1197.000000 0.2982 0.2957 0.2963 0.3157 0.3510
1202.000000 0.3864 0.4217 0.4569 0.4910 0.5069
1207.000000 0.5158 0.5213 0.5244 0.5284 0.5421
1212.000000 0.5549 0.5827 0.6032 0.6239 0.6363
1217.000000 0.6435 0.6495 0.6544 0.6565 0.6583
1222.000000 0.6590 0.6593 0.6595 0.6589 0.6583
1227.000000 0.6569 0.6552 0.6534 0.6518 0.6501
1232.000000 0.6479 0.6456 0.6429 0.6387 0.6342
1237.000000 0.6289 0.6229 0.6160 0.6046 0.5901
1242.000000 0.5755 0.5609 0.5465 0.5342 0.5284
1247.000000 0.5225 0.5144 0.5061 0.4980 0.4895
1252.000000 0.4816 0.4750 0.4694 0.4644 0.4538
1257.000000 0.4487 0.4485 0.4477 0.4544 0.4613
1262.000000 0.4681 0.4749 0.4817 0.4884 0.4932
1267.000000 0.4943 0.4946 0.4947 0.4942 0.4921
1272.000000 0.4898 0.4800 0.4611 0.4423 0.4235
1277.000000 0.4047 0.3860 0.3672 0.3485 0.3299
1282.000000 0.3112 0.2926 0.2740 0.2589 0.2549
1287.000000 0.2556 0.2552 0.2609 0.2749 0.2892
1292.000000 0.3035 0.3178 0.3320 0.3462 0.3604
1297.000000 0.3747 0.3888 0.4030 0.4170 0.4270
1302.000000 0.4269 0.4266 0.4224 0.4037 0.3834
1307.000000 0.3631 0.3427 0.3225 0.3070 0.3048
1312.000000 0.3106 0.3240 0.3375 0.3509 0.3642
1317.000000 0.3749 0.3775 0.3780 0.3780 0.3770
1322.000000 0.3750 0.3717 0.3620 0.3493 0.3366
1327.000000 0.3240 0.3115 0.2989 0.2863 0.2738
1332.000000 0.2613 0.2487 0.2362 0.2238 0.2113
1337.000000 0.1951 0.1907 0.1898 0.1898 0.1896
1342.000000 0.1908 0.1996 0.2113 0.2230 0.2326
1347.000000 0.2345 0.2336 0.2318 0.2304 0.2303
1352.000000 0.2309 0.2389 0.2594 0.2800 0.3004
1357.000000 0.3192 0.3243 0.3250 0.3250 0.3261
1362.000000 0.3190 0.3097 0.3003 0.2909 0.2816
1367.000000 0.2722 0.2629 0.2536 0.2444 0.2351
1372.000000 0.2201 0.2029 0.1822 0.1617 0.1411
1377.000000 0.1216 0.1120 0.1115 0.1118 0.1132
1382.000000 0.1157 0.1180 0.1181 0.1175 0.1146
1387.000000 0.1090 0.1030 0.0969 0.0909 0.0848
1392.000000 0.0821 0.0815 0.0821 0.0819 0.0826
1397.000000 0.0836 0.0871 0.0919 0.0967 0.1015
1402.000000 0.1063 0.1111 0.1177 0.1238 0.1244
1407.000000 0.1247 0.1249 0.1250 0.1253 0.1264
1412.000000 0.1289 0.1381 0.1485 0.1597 0.1680
1417.000000 0.1737 0.1781 0.1790 0.1794 0.1791
1422.000000 0.1787 0.1761 0.1679 0.1593 0.1507
1427.000000 0.1416 0.1372 0.1306 0.1243 0.1193
1432.000000 0.1157 0.1134 0.1111 0.1096 0.1085
1437.000000 0.1078 0.1077 0.1077 0.1078 0.1079
1442.000000 0.1080 0.1079 0.1077 0.1072 0.1058
1447.000000 0.1023 0.0982 0.0942 0.0902 0.0862
1452.000000 0.0822 0.0789 0.0759 0.0733 0.0723
1457.000000 0.0712 0.0710 0.0711 0.0719 0.0731
1462.000000 0.0743 0.0755 0.0773 0.0791 0.0809
1467.000000 0.0835 0.0865 0.0928 0.1040 0.1208
1472.000000 0.1544 0.1894 0.2212 0.2272 0.2287
1477.000000 0.2298 0.2304 0.2308 0.2311 0.2309
1482.000000 0.2322 0.2250 0.2216 0.2183 0.2161
1487.000000 0.2153 0.2160 0.2192 0.2283 0.2374
1492.000000 0.2443 0.2460 0.2468 0.2472 0.2472
1497.000000 0.2478 0.2397 0.2319 0.2242 0.2164
1502.000000 0.2087 0.2010 0.1933 0.1856 0.1779
1507.000000 0.1702 0.1625 0.1545 0.1450 0.1367
1512.000000 0.1326 0.1310 0.1301 0.1299 0.1299
1517.000000 0.1305 0.1304 0.1324 0.1383 0.1531
1522.000000 0.1728 0.1926 0.2123 0.2319 0.2515
1527.000000 0.2711 0.2908 0.3103 0.3299 0.3494
1532.000000 0.3689 0.3866 0.3970 0.4085 0.4186
1537.000000 0.4231 0.4255 0.4267 0.4274 0.4280
1542.000000 0.4284 0.4286 0.4283 0.4287 0.4285
1547.000000 0.4280 0.4268 0.4254 0.4235 0.4206
1552.000000 0.4166 0.4122 0.4025 0.3800 0.3546
1557.000000 0.3293 0.3039 0.2787 0.2534 0.2282
1562.000000 0.2065 0.1943 0.1885 0.1840 0.1800
1567.000000 0.1740 0.1659 0.1574 0.1488 0.1403
1572.000000 0.1330 0.1286 0.1269 0.1260 0.1258
1577.000000 0.1270 0.1273 0.1342 0.1441 0.1543
1582.000000 0.1645 0.1747 0.1918 0.2146 0.2385
1587.000000 0.2624 0.2862 0.3100 0.3338 0.3575
1592.000000 0.3812 0.4049 0.4286 0.4522 0.4675
1597.000000 0.4748 0.4799 0.4832 0.4851 0.4864
1602.000000 0.4872 0.4877 0.4882 0.4886 0.4888
1607.000000 0.4890 0.4890 0.4887 0.4884 0.4881
1612.000000 0.4877 0.4875 0.4873 0.4871 0.4871
1617.000000 0.4869 0.4873 0.4879 0.4884 0.4891
1622.000000 0.4897 0.4904 0.4915 0.4928 0.4943
1627.000000 0.4967 0.4997 0.5026 0.5054 0.5083
1632.000000 0.5117 0.5151 0.5181 0.5210 0.5238
1637.000000 0.5263 0.5288 0.5304 0.5316 0.5328
1642.000000 0.5340 0.5351 0.5362 0.5371 0.5380
1647.000000 0.5388 0.5398 0.5407 0.5413 0.5419
1652.000000 0.5425 0.5431 0.5437 0.5442 0.5445
1657.000000 0.5446 0.5447 0.5446 0.5445 0.5444
1662.000000 0.5442 0.5440 0.5439 0.5438 0.5438
1667.000000 0.5438 0.5438 0.5438 0.5438 0.5441
1672.000000 0.5444 0.5447 0.5452 0.5457 0.5462
1677.000000 0.5467 0.5472 0.5477 0.5482 0.5486
1682.000000 0.5491 0.5494 0.5496 0.5497 0.5499
1687.000000 0.5500 0.5501 0.5502 0.5501 0.5499
1692.000000 0.5498 0.5496 0.5494 0.5492 0.5488
1697.000000 0.5483 0.5479 0.5475 0.5470 0.5465
1702.000000 0.5458 0.5450 0.5443 0.5435 0.5428
1707.000000 0.5421 0.5416 0.5416 0.5419 0.5423
1712.000000 0.5428 0.5434 0.5441 0.5449 0.5462
1717.000000 0.5483 0.5505 0.5527 0.5543 0.5550
1722.000000 0.5553 0.5555 0.5554 0.5553 0.5551
1727.000000 0.5550 0.5549 0.5549 0.5549 0.5550
1732.000000 0.5556 0.5566 0.5580 0.5597 0.5614
1737.000000 0.5631 0.5639 0.5642 0.5645 0.5649
1742.000000 0.5651 0.5654 0.5655 0.5655 0.5656
1747.000000 0.5656 0.5657 0.5657 0.5658 0.5658
1752.000000 0.5657 0.5657 0.5657 0.5657 0.5656
1757.000000 0.5656 0.5656 0.5656 0.5656 0.5655
1762.000000 0.5655 0.5655 0.5651 0.5656 0.5657
1767.000000 0.5657 0.5657 0.5658 0.5658 0.5658
1772.000000 0.5657 0.5657 0.5656 0.5655 0.5654
1777.000000 0.5653 0.5652 0.5651 0.5649 0.5647
1782.000000 0.5644 0.5640 0.5635 0.5630 0.5625
1787.000000 0.5619 0.5612 0.5604 0.5595 0.5586
1792.000000 0.5577 0.5567 0.5555 0.5541 0.5528
1797.000000 0.5514 0.5501 0.5487 0.5474 0.5460
1802.000000 0.5446 0.5431 0.5417 0.5403 0.5388
1807.000000 0.5373 0.5357 0.5341 0.5326 0.5311
1812.000000 0.5294 0.5276 0.5258 0.5239 0.5220
1817.000000 0.5202 0.5185 0.5167 0.5150 0.5133
1822.000000 0.5115 0.5104 0.5093 0.5083 0.5072
1827.000000 0.5068 0.5067 0.5067 0.5069 0.5072
1832.000000 0.5075 0.5079 0.5091 0.5110 0.5130
1837.000000 0.5148 0.5165 0.5181 0.5194 0.5202
1842.000000 0.5204 0.5206 0.5207 0.5207 0.5206
1847.000000 0.5206 0.5204 0.5200 0.5190 0.5179
1852.000000 0.5168 0.5155 0.5145 0.5138 0.5135
1857.000000 0.5135 0.5134 0.5132 0.5131 0.5129
1862.000000 0.5126 0.5123 0.5118 0.5112 0.5107
1867.000000 0.5102 0.5095 0.5089 0.5083 0.5076
1872.000000 0.5069 0.5062 0.5054 0.5046 0.5037
1877.000000 0.5030 0.5022 0.5012 0.5001 0.4990
1882.000000 0.4978 0.4967 0.4956 0.4942 0.4928
1887.000000 0.4915 0.4902 0.4893 0.4884 0.4875
1892.000000 0.4866 0.4857 0.4848 0.4840 0.4833
1897.000000 0.4825 0.4817 0.4809 0.4801 0.4793
1902.000000 0.4785 0.4777 0.4768 0.4759 0.4750
1907.000000 0.4740 0.4731 0.4722 0.4713 0.4704
1912.000000 0.4691 0.4677 0.4664 0.4650 0.4629
1917.000000 0.4595 0.4559 0.4524 0.4488 0.4453
1922.000000 0.4417 0.4381 0.4346 0.4311 0.4275
1927.000000 0.4240 0.4205 0.4169 0.4134 0.4068
1932.000000 0.3972 0.3950 0.3929 0.3907 0.3891
1937.000000 0.3874 0.3858 0.3834 0.3807 0.3779
1942.000000 0.3708 0.3669 0.3662 0.3662 0.3662
1947.000000 0.3662 0.3666 0.3682 0.3709 0.3753
1952.000000 0.3796 0.3836 0.3886 0.3936 0.3986
1957.000000 0.4037 0.4087 0.4139 0.4198 0.4250
1962.000000 0.4267 0.4284 0.4301 0.4309 0.4317
1967.000000 0.4325 0.4332 0.4336 0.4338 0.4341
1972.000000 0.4342 0.4340 0.4338 0.4337 0.4333
1977.000000 0.4350 0.4320 0.4307 0.4294 0.4281
1982.000000 0.4269 0.4249 0.4218 0.4179 0.4138
1987.000000 0.4098 0.4058 0.4018 0.3978 0.3937
1992.000000 0.3897 0.3856 0.3816 0.3776 0.3736
1997.000000 0.3696 0.3656 0.3616 0.3576 0.3536
2002.000000 0.3493 0.3444 0.3419 0.3404 0.3399
2007.000000 0.3395 0.3394 0.3394 0.3395 0.3397
2012.000000 0.3388 0.3408 0.3425 0.3456 0.3499
2017.000000 0.3542 0.3585 0.3628 0.3671 0.3715
2022.000000 0.3758 0.3800 0.3843 0.3886 0.3929
2027.000000 0.3974 0.4007 0.4021 0.4031 0.4039
2032.000000 0.4045 0.4049 0.4051 0.4052 0.4054
2037.000000 0.4056 0.4057 0.4057 0.4058 0.4055
2042.000000 0.4054 0.4053 0.4052 0.4049 0.4046
2047.000000 0.4043 0.4040 0.4037 0.4033 0.4029
2052.000000 0.4023 0.4018 0.4014 0.4008 0.4002
2057.000000 0.3994 0.3987 0.3979 0.3968 0.3955
2062.000000 0.3938 0.3922 0.3908 0.3901 0.3900
2067.000000 0.3897 0.3895 0.3893 0.3892 0.3890
2072.000000 0.3889 0.3887 0.3886 0.3885 0.3884
2077.000000 0.3883 0.3883 0.3882 0.3880 0.3879
2082.000000 0.3864 0.3876 0.3874 0.3873 0.3871
2087.000000 0.3870 0.3869 0.3869 0.3869 0.3871
2092.000000 0.3873 0.3896 0.3920 0.3943 0.3967
2097.000000 0.3991 0.4014 0.4038 0.4061 0.4085
2102.000000 0.4109 0.4133 0.4156 0.4179 0.4203
2107.000000 0.4229 0.4255 0.4276 0.4292 0.4292
2112.000000 0.4293 0.4294 0.4295 0.4295 0.4295
2117.000000 0.4294 0.4294 0.4294 0.4294 0.4301
2122.000000 0.4293 0.4292 0.4291 0.4289 0.4287
2127.000000 0.4286 0.4284 0.4282 0.4280 0.4278
2132.000000 0.4275 0.4272 0.4269 0.4265 0.4262
2137.000000 0.4258 0.4253 0.4245 0.4233 0.4221
2142.000000 0.4210 0.4200 0.4189 0.4179 0.4169
2147.000000 0.4160 0.4150 0.4141 0.4132 0.4123
2152.000000 0.4114 0.4104 0.4094 0.4084 0.4074
2157.000000 0.4064 0.4054 0.4044 0.4037 0.4030
2162.000000 0.4023 0.4016 0.4009 0.4002 0.3994
2167.000000 0.3985 0.3977 0.3969 0.3961 0.3952
2172.000000 0.3944 0.3936 0.3928 0.3920 0.3912
2177.000000 0.3904 0.3896 0.3888 0.3880 0.3872
2182.000000 0.3863 0.3854 0.3845 0.3836 0.3827
2187.000000 0.3819 0.3810 0.3801 0.3792 0.3783
2192.000000 0.3774 0.3765 0.3754 0.3742 0.3728
2197.000000 0.3714 0.3700 0.3685 0.3671 0.3656
2202.000000 0.3639 0.3621 0.3603 0.3582 0.3558
2207.000000 0.3530 0.3499 0.3466 0.3432 0.3413
2212.000000 0.3405 0.3400 0.3395 0.3391 0.3387
2217.000000 0.3381 0.3375 0.3368 0.3360 0.3353
2222.000000 0.3345 0.3337 0.3328 0.3320 0.3312
2227.000000 0.3304 0.3296 0.3287 0.3279 0.3271
2232.000000 0.3263 0.3254 0.3246 0.3237 0.3229
2237.000000 0.3218 0.3208 0.3196 0.3184 0.3170
2242.000000 0.3156 0.3142 0.3128 0.3114 0.3100
2247.000000 0.3087 0.3073 0.3060 0.3047 0.3031
2252.000000 0.3014 0.2976 0.2930 0.2892 0.2858
2257.000000 0.2820 0.2781 0.2738 0.2693 0.2658
2262.000000 0.2631 0.2603 0.2576 0.2554 0.2536
2267.000000 0.2519 0.2501 0.2484 0.2468 0.2452
2272.000000 0.2437 0.2422 0.2408 0.2395 0.2387
2277.000000 0.2380 0.2377 0.2373 0.2371 0.2370
2282.000000 0.2368 0.2367 0.2365 0.2364 0.2362
2287.000000 0.2361 0.2359 0.2356 0.2354 0.2352
2292.000000 0.2351 0.2349 0.2348 0.2346 0.2338
2297.000000 0.2313 0.2288 0.2260 0.2233 0.2206
2302.000000 0.2178 0.2151 0.2124 0.2097 0.2070
2307.000000 0.2043 0.2015 0.1988 0.1961 0.1934
2312.000000 0.1907 0.1881 0.1854 0.1826 0.1799
2317.000000 0.1772 0.1745 0.1718 0.1692 0.1665
2322.000000 0.1639 0.1612 0.1585 0.1558 0.1527
2327.000000 0.1489 0.1456 0.1433 0.1410 0.1386
2332.000000 0.1363 0.1338 0.1314 0.1288 0.1262
2337.000000 0.1235 0.1207 0.1178 0.1148 0.1119
2342.000000 0.1096 0.1073 0.1054 0.1035 0.1016
2347.000000 0.0996 0.0977 0.0958 0.0938 0.0915
2352.000000 0.0893 0.0870 0.0847 0.0823 0.0799
2357.000000 0.0775 0.0752 0.0730 0.0708 0.0687
2362.000000 0.0666 0.0646 0.0633 0.0620 0.0607
2367.000000 0.0593 0.0581 0.0570 0.0559 0.0549
2372.000000 0.0540 0.0533 0.0527 0.0522 0.0517
2377.000000 0.0513 0.0510 0.0507 0.0506 0.0505
2382.000000 0.0504 0.0503 0.0502 0.0501 0.0500
2387.000000 0.0499 0.0498 0.0497 0.0497 0.0496
2392.000000 0.0495 0.0494 0.0493 0.0492 0.0491
2397.000000 0.0490 0.0489 0.0488 0.0487 0.0486
2402.000000 0.0485 0.0484 0.0483 0.0483 0.0482
2407.000000 0.0478 0.0473 0.0467 0.0460 0.0453
2412.000000 0.0445 0.0437 0.0427 0.0416 0.0406
2417.000000 0.0396 0.0386 0.0377 0.0367 0.0357
2422.000000 0.0347 0.0339 0.0332 0.0325 0.0319
2427.000000 0.0313 0.0307 0.0302 0.0298 0.0295
2432.000000 0.0291 0.0288 0.0284 0.0281 0.0277
2437.000000 0.0273 0.0271 0.0268 0.0265 0.0262
2442.000000 0.0259 0.0255 0.0252 0.0249 0.0246
2447.000000 0.0244 0.0242 0.0240 0.0238 0.0236
2452.000000 0.0234 0.0232 0.0231 0.0231 0.0230
2457.000000 0.0230 0.0230 0.0229 0.0229 0.0229
2462.000000 0.0229 0.0229 0.0228 0.0228 0.0228
2467.000000 0.0228 0.0228 0.0228 0.0228 0.0229
2472.000000 0.0229 0.0230 0.0230 0.0230 0.0231
2477.000000 0.0231 0.0232 0.0233 0.0234 0.0236
2482.000000 0.0237 0.0238 0.0239 0.0240 0.0242
2487.000000 0.0243 0.0244 0.0245 0.0246 0.0249
2492.000000 0.0252 0.0255 0.0258 0.0261 0.0264
2497.000000 0.0267 0.0270 0.0273 0.0277 0.0278
2502.000000 0.0280 0.0282 0.0284 0.0286 0.0288
2507.000000 0.0290 0.0292 0.0292 0.0292 0.0291
2512.000000 0.0291 0.0291 0.0291 0.0291 0.0291
2517.000000 0.0291 0.0290 0.0288 0.0286 0.0284
2522.000000 0.0281 0.0279 0.0276 0.0274 0.0268
2527.000000 0.0260 0.0253 0.0243 0.0233 0.0222
2532.000000 0.0210 0.0198 0.0188 0.0178 0.0167
2537.000000 0.0157 0.0146 0.0138 0.0131 0.0123
2542.000000 0.0115 0.0106 0.0102 0.0098 0.0095
2547.000000 0.0092 0.0090 0.0089 0.0089 0.0089
2552.000000 0.0089 0.0089 0.0089 0.0089 0.0089
2557.000000 0.0088 0.0088 0.0088 0.0088 0.0088
2562.000000 0.0088 0.0088 0.0088 0.0088 0.0088
2567.000000 0.0088 0.0088 0.0088 0.0088 0.0088
2572.000000 0.0088 0.0088 0.0088 0.0088 0.0088
2577.000000 0.0088 0.0089 0.0089 0.0089 0.0089
2582.000000 0.0089 0.0089 0.0089 0.0089 0.0089
2587.000000 0.0089 0.0089 0.0089 0.0089 0.0090
2592.000000 0.0090 0.0090 0.0090 0.0090 0.0090
2597.000000 0.0090 0.0090 0.0090 0.0090 0.0090
2602.000000 0.0090 0.0090 0.0090 0.0091 0.0091
2607.000000 0.0091 0.0091 0.0091 0.0091 0.0091
2612.000000 0.0091 0.0091 0.0091 0.0091 0.0091
2617.000000 0.0091 0.0092 0.0092 0.0092 0.0092
2622.000000 0.0092 0.0092 0.0092 0.0092 0.0092
2627.000000 0.0092 0.0092 0.0092 0.0092 0.0092
2632.000000 0.0072 0.0092 0.0092 0.0092 0.0092
2637.000000 0.0092 0.0092 0.0092 0.0092 0.0092
2642.000000 0.0092 0.0092 0.0092 0.0092 0.0092
2647.000000 0.0092 0.0092 0.0092 0.0092 0.0092
2652.000000 0.0092 0.0092 0.0092 0.0092 0.0092
2657.000000 0.0092 0.0092 0.0092 0.0092 0.0092
2662.000000 0.0092 0.0092 0.0092 0.0092 0.0093
2667.000000 0.0093 0.0093 0.0093 0.0093 0.0093
2672.000000 0.0093 0.0093 0.0093 0.0093 0.0093
2677.000000 0.0093 0.0093 0.0093 0.0094 0.0094
2682.000000 0.0094 0.0094 0.0094 0.0094 0.0094
2687.000000 0.0094 0.0094 0.0094 0.0094 0.0094
2692.000000 0.0094 0.0094 0.0095 0.0095 0.0095
2697.000000 0.0095 0.0095 0.0095 0.0095 0.0095
2702.000000 0.0095 0.0095 0.0095 0.0095 0.0095
2707.000000 0.0095 0.0095 0.0096 0.0096 0.0096
2712.000000 0.0096 0.0096 0.0096 0.0096 0.0096
2717.000000 0.0096 0.0096 0.0096 0.0096 0.0096
2722.000000 0.0096 0.0096 0.0097 0.0097 0.0097
2727.000000 0.0097 0.0097 0.0097 0.0097 0.0097
2732.000000 0.0097 0.0097 0.0098 0.0098 0.0100
2737.000000 0.0101 0.0102 0.0104 0.0105 0.0106
2742.000000 0.0109 0.0112 0.0115 0.0118 0.0121
2747.000000 0.0125 0.0128 0.0131 0.0135 0.0138
2752.000000 0.0141 0.0144 0.0148 0.0151 0.0153
2757.000000 0.0156 0.0159 0.0162 0.0165 0.0168
2762.000000 0.0170 0.0174 0.0177 0.0181 0.0184
2767.000000 0.0188 0.0192 0.0195 0.0198 0.0201
2772.000000 0.0205 0.0208 0.0210 0.0213 0.0216
2777.000000 0.0219 0.0222 0.0223 0.0225 0.0227
2782.000000 0.0228 0.0229 0.0231 0.0232 0.0232
2787.000000 0.0233 0.0234 0.0235 0.0235 0.0236
2792.000000 0.0236 0.0236 0.0237 0.0238 0.0238
2797.000000 0.0239 0.0239 0.0239 0.0240 0.0240
2802.000000 0.0240 0.0241 0.0241 0.0241 0.0242
2807.000000 0.0242 0.0242 0.0242 0.0242 0.0242
2812.000000 0.0242 0.0242 0.0242 0.0242 0.0242
2817.000000 0.0242 0.0242 0.0242 0.0242 0.0242
2822.000000 0.0242 0.0242 0.0242 0.0241 0.0241
2827.000000 0.0241 0.0241 0.0241 0.0241 0.0241
2832.000000 0.0240 0.0240 0.0240 0.0240 0.0240
2837.000000 0.0240 0.0239 0.0239 0.0239 0.0238
2842.000000 0.0238 0.0238 0.0238 0.0238 0.0238
2847.000000 0.0238 0.0237 0.0237 0.0237 0.0236
2852.000000 0.0236 0.0236 0.0235 0.0235 0.0235
2857.000000 0.0235 0.0234 0.0234 0.0234 0.0233
2862.000000 0.0233 0.0233 0.0232 0.0232 0.0231
2867.000000 0.0231 0.0231 0.0231 0.0231 0.0231
2872.000000 0.0232 0.0232 0.0233 0.0234 0.0235
2877.000000 0.0236 0.0236 0.0237 0.0237 0.0238
2882.000000 0.0240 0.0241 0.0242 0.0243 0.0244
2887.000000 0.0246 0.0247 0.0248 0.0249 0.0250
2892.000000 0.0252 0.0253 0.0254 0.0255 0.0256
2897.000000 0.0257 0.0258 0.0258 0.0259 0.0260
2902.000000 0.0262 0.0263 0.0264 0.0265 0.0266
2907.000000 0.0267 0.0267 0.0268 0.0269 0.0270
2912.000000 0.0271 0.0273 0.0274 0.0275 0.0275
2917.000000 0.0276 0.0277 0.0278 0.0279 0.0280
2922.000000 0.0281 0.0282 0.0284 0.0284 0.0285
2927.000000 0.0286 0.0287 0.0287 0.0288 0.0289
2932.000000 0.0289 0.0290 0.0290 0.0291 0.0292
2937.000000 0.0292 0.0293 0.0293 0.0294 0.0294
2942.000000 0.0295 0.0296 0.0296 0.0297 0.0297
2947.000000 0.0298 0.0298 0.0299 0.0300 0.0300
2952.000000 0.0301 0.0301 0.0302 0.0302 0.0303
2957.000000 0.0304 0.0304 0.0305 0.0305 0.0306
2962.000000 0.0306 0.0307 0.0308 0.0308 0.0309
2967.000000 0.0309 0.0310 0.0310 0.0311 0.0312
2972.000000 0.0312 0.0313 0.0313 0.0314 0.0314
2977.000000 0.0315 0.0316 0.0316 0.0317 0.0317
2982.000000 0.0318 0.0318 0.0319 0.0319 0.0320
2987.000000 0.0321 0.0321 0.0322 0.0323 0.0328
2992.000000 0.0337 0.0346 0.0354 0.0380 0.0405
2997.000000 0.0430 0.0446 0.0449 0.0451 0.0453
3002.000000 0.0455 0.0457 0.0459 0.0461 0.0462
3007.000000 0.0464 0.0465 0.0466 0.0468 0.0469
3012.000000 0.0470 0.0472 0.0473 0.0475 0.0476
3017.000000 0.0477 0.0478 0.0479 0.0480 0.0482
3022.000000 0.0483 0.0485 0.0486 0.0487 0.0488
3027.000000 0.0489 0.0490 0.0491 0.0492 0.0494
3032.000000 0.0497 0.0500 0.0503 0.0506 0.0509
3037.000000 0.0512 0.0519 0.0531 0.0544 0.0556
3042.000000 0.0570 0.0584 0.0599 0.0614 0.0661
3047.000000 0.0711 0.0761 0.0804 0.0821 0.0838
3052.000000 0.0855 0.0870 0.0883 0.0896 0.0908
3057.000000 0.0968 0.1041 0.1114 0.1186 0.1189
3062.000000 0.1193 0.1197 0.1200 0.1203 0.1205
3067.000000 0.1207 0.1209 0.1211 0.1213 0.1214
3072.000000 0.1216 0.1218 0.1220 0.1221 0.1223
3077.000000 0.1225 0.1226 0.1228 0.1231 0.1233
3082.000000 0.1236 0.1239 0.1243 0.1247 0.1251
3087.000000 0.1288 0.1350 0.1411 0.1473 0.1494
3092.000000 0.1503 0.1512 0.1521 0.1524 0.1527
3097.000000 0.1529 0.1532 0.1534 0.1536 0.1538
3102.000000 0.1540 0.1541 0.1542 0.1543 0.1544
3107.000000 0.1545 0.1546 0.1547 0.1548 0.1549
3112.000000 0.1550 0.1551 0.1552 0.1553 0.1554
3117.000000 0.1554 0.1555 0.1555 0.1556 0.1556
3122.000000 0.1590 0.1628 0.1666 0.1704 0.1723
3127.000000 0.1742 0.1762 0.1781 0.1797 0.1814
3132.000000 0.1830 0.1845 0.1856 0.1866 0.1877
3137.000000 0.1887 0.1897 0.1907 0.1917 0.1928
3142.000000 0.1940 0.1951 0.1963 0.1975 0.1987
3147.000000 0.2000 0.2013 0.2024 0.2032 0.2040
3152.000000 0.2048 0.2055 0.2061 0.2068 0.2074
3157.000000 0.2080 0.2084 0.2089 0.2094 0.2098
3162.000000 0.2101 0.2104 0.2108 0.2110 0.2111
3167.000000 0.2113 0.2114 0.2115 0.2116 0.2118
3172.000000 0.2119 0.2120 0.2121 0.2122 0.2124
3177.000000 0.2125 0.2126 0.2127 0.2128 0.2129
3182.000000 0.2129 0.2130 0.2131 0.2132 0.2132
3187.000000 0.2133 0.2134 0.2135 0.2135 0.2136
3192.000000 0.2137 0.2138 0.2138 0.2139 0.2140
3197.000000 0.2141 0.2141 0.2141 0.2141 0.2141
3202.000000 0.2142 0.2142 0.2143 0.2143 0.2144
3207.000000 0.2144 0.2144 0.2144 0.2145 0.2145
3212.000000 0.2146 0.2146 0.2147 0.2147 0.2147
3217.000000 0.2147 0.2148 0.2148 0.2148 0.2148
3222.000000 0.2149 0.2149 0.2150 0.2150 0.2151
3227.000000 0.2151 0.2151 0.2151 0.2151 0.2151
3232.000000 0.2151 0.2151 0.2151 0.2150 0.2150
3237.000000 0.2150 0.2150 0.2150 0.2150 0.2150
3242.000000 0.2150 0.2166 0.2150 0.2150 0.2150
3247.000000 0.2149 0.2149 0.2149 0.2149 0.2149
3252.000000 0.2149 0.2149 0.2149 0.2149 0.2148
3257.000000 0.2148 0.2148 0.2148 0.2147 0.2147
3262.000000 0.2146 0.2146 0.2145 0.2145 0.2144
3267.000000 0.2143 0.2142 0.2142 0.2141 0.2140
3272.000000 0.2140 0.2139 0.2138 0.2138 0.2137
3277.000000 0.2136 0.2135 0.2135 0.2134 0.2133
3282.000000 0.2132 0.2131 0.2131 0.2130 0.2128
3287.000000 0.2127 0.2126 0.2124 0.2123 0.2121
3292.000000 0.2119 0.2118 0.2116 0.2115 0.2113
3297.000000 0.2112 0.2111 0.2109 0.2107 0.2105
3302.000000 0.2103 0.2100 0.2098 0.2096 0.2094
3307.000000 0.2091 0.2089 0.2087 0.2084 0.2082
3312.000000 0.2080 0.2078 0.2075 0.2073 0.2071
3317.000000 0.2068 0.2066 0.2064 0.2062 0.2059
3322.000000 0.2056 0.2053 0.2051 0.2048 0.2045
3327.000000 0.2042 0.2039 0.2036 0.2033 0.2030
3332.000000 0.2027 0.2024 0.2022 0.2019 0.2016
3337.000000 0.2013 0.2010 0.2007 0.2004 0.2001
3342.000000 0.1998 0.1995 0.1992 0.1989 0.1987
3347.000000 0.1984 0.1981 0.1978 0.1975 0.1972
3352.000000 0.1969 0.1966 0.1963 0.1961 0.1958
3357.000000 0.1955 0.1952 0.1949 0.1946 0.1943
3362.000000 0.1940 0.1936 0.1933 0.1929 0.1925
3367.000000 0.1922 0.1918 0.1914 0.1911 0.1908
3372.000000 0.1905 0.1903 0.1900 0.1900 0.1899
3377.000000 0.1898 0.1898 0.1897 0.1896 0.1896
3382.000000 0.1895 0.1894 0.1894 0.1893 0.1893
3387.000000 0.1892 0.1891 0.1891 0.1891 0.1891
3392.000000 0.1891 0.1890 0.1890 0.1890 0.1890
3397.000000 0.1889 0.1889 0.1889 0.1889 0.1889
3402.000000 0.1888 0.1888 0.1888 0.1888 0.1887
3407.000000 0.1887 0.1887 0.1887 0.1887 0.1886
3412.000000 0.1886 0.1886 0.1886 0.1886 0.1894
3417.000000 0.1885 0.1885 0.1885 0.1885 0.1885
3422.000000 0.1885 0.1885 0.1885 0.1886 0.1886
3427.000000 0.1886 0.1886 0.1886 0.1886 0.1886
3432.000000 0.1886 0.1886 0.1886 0.1886 0.1886
3437.000000 0.1886 0.1886 0.1886 0.1886 0.1886
3442.000000 0.1886 0.1886 0.1886 0.1886 0.1886
3447.000000 0.1886 0.1886 0.1887 0.1887 0.1887
3452.000000 0.1887 0.1887 0.1887 0.1887 0.1887
3457.000000 0.1887 0.1887 0.1887 0.1887 0.1887
3462.000000 0.1887 0.1887 0.1887 0.1887 0.1887
3467.000000 0.1887 0.1887 0.1887 0.1887 0.1887
3472.000000 0.1887 0.1888 0.1890 0.1891 0.1892
3477.000000 0.1893 0.1895 0.1896 0.1898 0.1899
3482.000000 0.1901 0.1902 0.1903 0.1904 0.1906
3487.000000 0.1907 0.1909 0.1912 0.1914 0.1916
3492.000000 0.1919 0.1923 0.1927 0.1931 0.1935
3497.000000 0.1939 0.1943 0.1948 0.1952 0.1957
3502.000000 0.1961 0.1966 0.1971 0.1976 0.1981
3507.000000 0.1986 0.1991 0.1997 0.2002 0.2007
3512.000000 0.2012 0.2017 0.2022 0.2027 0.2032
3517.000000 0.2035 0.2038 0.2041 0.2044 0.2047
3522.000000 0.2050 0.2053 0.2056 0.2059 0.2062
3527.000000 0.2065 0.2067 0.2069 0.2071 0.2073
3532.000000 0.2076 0.2078 0.2080 0.2082 0.2084
3537.000000 0.2086 0.2088 0.2090 0.2092 0.2093
3542.000000 0.2094 0.2095 0.2096 0.2097 0.2097
3547.000000 0.2098 0.2099 0.2100 0.2101 0.2101
3552.000000 0.2102 0.2103 0.2104 0.2105 0.2105
3557.000000 0.2106 0.2107 0.2107 0.2108 0.2108
3562.000000 0.2109 0.2110 0.2111 0.2111 0.2112
3567.000000 0.2113 0.2113 0.2114 0.2115 0.2115
3572.000000 0.2116 0.2116 0.2117 0.2117 0.2117
3577.000000 0.2118 0.2118 0.2118 0.2119 0.2119
3582.000000 0.2120 0.2120 0.2120 0.2120 0.2120
3587.000000 0.2121 0.2121 0.2121 0.2122 0.2122
3592.000000 0.2123 0.2123 0.2123 0.2124 0.2124
3597.000000 0.2124 0.2125 0.2125 0.2125 0.2125
3602.000000 0.2125 0.2126 0.2126 0.2127 0.2127
3607.000000 0.2127 0.2128 0.2128 0.2128 0.2129
3612.000000 0.2129 0.2130 0.2130 0.2130 0.2130
3617.000000 0.2130 0.2131 0.2131 0.2131 0.2131
3622.000000 0.2131 0.2131 0.2132 0.2132 0.2132
3627.000000 0.2132 0.2132 0.2133 0.2133 0.2133
3632.000000 0.2133 0.2133 0.2134 0.2134 0.2134
3637.000000 0.2134 0.2134 0.2134 0.2135 0.2135
3642.000000 0.2135 0.2135 0.2135 0.2136 0.2136
3647.000000 0.2136 0.2136 0.2136 0.2137 0.2137
3652.000000 0.2137 0.2137 0.2137 0.2138 0.2138
3657.000000 0.2138 0.2138 0.2138 0.2138 0.2139
3662.000000 0.2139 0.2139 0.2139 0.2139 0.2140
3667.000000 0.2140 0.2140 0.2140 0.2140 0.2140
3672.000000 0.2141 0.2141 0.2141 0.2141 0.2141
3677.000000 0.2142 0.2142 0.2142 0.2143 0.2143
3682.000000 0.2144 0.2144 0.2144 0.2144 0.2144
3687.000000 0.2144 0.2145 0.2145 0.2145 0.2146
3692.000000 0.2146 0.2147 0.2147 0.2147 0.2147
3697.000000 0.2147 0.2147 0.2148 0.2148 0.2149
3702.000000 0.2149 0.2149 0.2150 0.2150 0.2150
3707.000000 0.2150 0.2150 0.2150 0.2151 0.2151
3712.000000 0.2151 0.2151 0.2151 0.2151 0.2152
3717.000000 0.2152 0.2153 0.2153 0.2153 0.2154
3722.000000 0.2154 0.2154 0.2154 0.2154 0.2155
3727.000000 0.2155 0.2155 0.2155 0.2155 0.2155
3732.000000 0.2156 0.2156 0.2156 0.2156 0.2156
3737.000000 0.2157 0.2157 0.2157 0.2157 0.2157
3742.000000 0.2157 0.2157 0.2157 0.2157 0.2157
3747.000000 0.2157 0.2157 0.2158 0.2158 0.2158
3752.000000 0.2158 0.2158 0.2158 0.2158 0.2158
3757.000000 0.2158 0.2158 0.2158 0.2157 0.2157
3762.000000 0.2157 0.2156 0.2156 0.2156 0.2155
3767.000000 0.2154 0.2154 0.2153 0.2153 0.2152
3772.000000 0.2151 0.2149 0.2148 0.2147 0.2145
3777.000000 0.2144 0.2142 0.2140 0.2139 0.2137
3782.000000 0.2136 0.2134 0.2133 0.2131 0.2129
3787.000000 0.2128 0.2126 0.2125 0.2124 0.2122
3792.000000 0.2121 0.2119 0.2118 0.2116 0.2115
3797.000000 0.2113 0.2112 0.2110 0.2109 0.2108
3802.000000 0.2107 0.2106 0.2106 0.2105 0.2105
3807.000000 0.2105 0.2105 0.2106 0.2106 0.2107
3812.000000 0.2107 0.2107 0.2108 0.2108 0.2108
3817.000000 0.2109 0.2109 0.2109 0.2109 0.2109
3822.000000 0.2109 0.2109 0.2109 0.2109 0.2109
3827.000000 0.2109 0.2109 0.2109 0.2109 0.2109
3832.000000 0.2109 0.2109 0.2109 0.2109 0.2109
3837.000000 0.2109 0.2109 0.2109 0.2109 0.2109
3842.000000 0.2109 0.2109 0.2109 0.2109 0.2109
3847.000000 0.2109 0.2109 0.2109 0.2109 0.2109
3852.000000 0.2109 0.2108 0.2108 0.2108 0.2108
3857.000000 0.2108 0.2108 0.2105 0.2103 0.2101
3862.000000 0.2098 0.2096 0.2093 0.2091 0.2089
3867.000000 0.2087 0.2085 0.2083 0.2080 0.2078
3872.000000 0.2076 0.2073 0.2071 0.2069 0.2066
3877.000000 0.2064 0.2062 0.2059 0.2057 0.2055
3882.000000 0.2052 0.2050 0.2048 0.2046 0.2043
3887.000000 0.2041 0.2039 0.2036 0.2033 0.2031
3892.000000 0.2028 0.2025 0.2023 0.2020 0.2017
3897.000000 0.2014 0.2012 0.2009 0.2006 0.2003
3902.000000 0.2001 0.1998 0.1996 0.1994 0.1991
3907.000000 0.1989 0.1986 0.1984 0.1981 0.1979
3912.000000 0.1976 0.1974 0.1972 0.1969 0.1967
3917.000000 0.1965 0.1963 0.1960 0.1958 0.1956
3922.000000 0.1954 0.1951 0.1949 0.1947 0.1945
3927.000000 0.1943 0.1942 0.1940 0.1938 0.1936
3932.000000 0.1934 0.1932 0.1930 0.1928 0.1926
3937.000000 0.1925 0.1923 0.1921 0.1919 0.1917
3942.000000 0.1916 0.1914 0.1912 0.1911 0.1910
3947.000000 0.1909 0.1907 0.1906 0.1905 0.1905
3952.000000 0.1905 0.1904 0.1904 0.1904 0.1903
3957.000000 0.1903 0.1903 0.1903 0.1903 0.1903
3962.000000 0.1902 0.1902 0.1902 0.1902 0.1901
3967.000000 0.1901 0.1901 0.1900 0.1900 0.1900
3972.000000 0.1899 0.1899 0.1899 0.1898 0.1898
3977.000000 0.1898 0.1897 0.1897 0.1897 0.1896
3982.000000 0.1896 0.1896 0.1896 0.1896 0.1896
3987.000000 0.1896 0.1895 0.1895 0.1895 0.1894
3992.000000 0.1894 0.1894 0.1893 0.1893 0.1893
3997.000000 0.1893 0.1893 0.1893 0.1893
##END=
