##TITLE=VALERIC ACID, 2-(DIETHYLPHOSPHONO), METHYL ESTER
##JCAMP-DX=4.24
##DATA TYPE=INFRARED SPECTRUM
##CLASS=COBLENTZ III
##ORIGIN=SOUTHERN RESEARCH INSTITUTE
##OWNER=Copyright (C) 1987 by the Coblentz Society
Collection (C) 2018 copyright by the U.S. Secretary of Commerce
on behalf of the United States of America. All rights reserved.
##DATE=1957/07/03
##NAMES=methyl 2-(diethoxyphosphoryl)pentanoate
Valeric acid, 2-phosphono-, p,p-diethyl methyl ester
##MOLFORM=C10 H21 O5 P
##SOURCE REFERENCE=COBLENTZ NO. 8247
##$NIST ID=B6008247
##$NIST SOURCE=COBLENTZ
##$NIST IMAGE=cob8247
##SPECTROMETER/DATA SYSTEM=PERKIN-ELMER 21 (GRATING)
##INSTRUMENT PARAMETERS=FILTER CHANGE ABOUT 1090 CM^-^1
##STATE=LIQUID (NEAT)
##PATH LENGTH=CAPILLARY
##SAMPLING PROCEDURE=TRANSMISSION
##RESOLUTION=2
##DATA PROCESSING=DIGITIZED BY COBLENTZ SOCIETY (BATCH II) FROM HARD COPY (ADJUSTED \addcm-1\10-8-2\)
##XUNITS=1/CM
##YUNITS=TRANSMITTANCE
##XFACTOR=1.0
##YFACTOR=1
##DELTAX=1.007361
##FIRSTX=603.34
##LASTX=4011.24
##FIRSTY=0.7702
##MAXX=4011.24
##MINX=603.34
##MAXY=0.930371
##MINY=0.0587654
##NPOINTS=3384
##XYDATA=(X++(Y..Y))
603.340000 0.7702 0.7709 0.7713 0.7718 0.7723
608.376806 0.7729 0.7736 0.7743 0.7750 0.7761
613.413611 0.7772 0.7783 0.7793 0.7804 0.7815
618.450417 0.7826 0.7839 0.7855 0.7872 0.7889
623.487222 0.7906 0.7923 0.7942 0.7963 0.7985
628.524028 0.8007 0.8029 0.8051 0.8073 0.8098
633.560833 0.8126 0.8153 0.8179 0.8206 0.8228
638.597639 0.8246 0.8265 0.8283 0.8302 0.8320
643.634444 0.8340 0.8362 0.8387 0.8410 0.8450
648.671250 0.8511 0.8563 0.8596 0.8624 0.8652
653.708056 0.8681 0.8712 0.8745 0.8779 0.8813
658.744861 0.8849 0.8885 0.8920 0.8947 0.8973
663.781667 0.8999 0.9025 0.9054 0.9115 0.9230
668.818472 0.9284 0.9292 0.9296 0.9300 0.9300
673.855278 0.9300 0.9300 0.9300 0.9304 0.9301
678.892083 0.9298 0.9293 0.9289 0.9284 0.9279
683.928889 0.9274 0.9270 0.9261 0.9250 0.9239
688.965694 0.9230 0.9214 0.9198 0.9182 0.9166
694.002500 0.9150 0.9133 0.9117 0.9101 0.9086
699.039306 0.9071 0.9056 0.9040 0.9025 0.9010
704.076111 0.8994 0.8977 0.8960 0.8944 0.8926
709.112917 0.8909 0.8892 0.8876 0.8861 0.8849
714.149722 0.8837 0.8825 0.8814 0.8802 0.8790
719.186528 0.8775 0.8758 0.8742 0.8726 0.8704
724.223333 0.8674 0.8637 0.8599 0.8559 0.8519
729.260139 0.8478 0.8437 0.8396 0.8355 0.8313
734.296944 0.8270 0.8218 0.8154 0.8080 0.7999
739.333750 0.7920 0.7840 0.7760 0.7680 0.7599
744.370556 0.7519 0.7439 0.7359 0.7279 0.7204
749.407361 0.7155 0.7132 0.7132 0.7133 0.7135
754.444167 0.7138 0.7142 0.7145 0.7150 0.7154
759.480972 0.7153 0.7146 0.7132 0.7118 0.7111
764.517778 0.7105 0.7105 0.7105 0.7108 0.7116
769.554583 0.7124 0.7132 0.7139 0.7147 0.7155
774.591389 0.7160 0.7160 0.7159 0.7156 0.7149
779.628194 0.7126 0.7046 0.6953 0.6861 0.6769
784.665000 0.6677 0.6586 0.6494 0.6410 0.6374
789.701806 0.6360 0.6355 0.6353 0.6351 0.6360
794.738611 0.6362 0.6371 0.6392 0.6451 0.6538
799.775417 0.6629 0.6721 0.6812 0.6904 0.6995
804.812222 0.7087 0.7169 0.7232 0.7285 0.7336
809.849028 0.7376 0.7407 0.7433 0.7452 0.7469
814.885833 0.7485 0.7501 0.7519 0.7544 0.7573
819.922639 0.7604 0.7636 0.7677 0.7714 0.7739
824.959444 0.7756 0.7764 0.7768 0.7771 0.7769
829.996250 0.7766 0.7759 0.7747 0.7733 0.7716
835.033056 0.7697 0.7659 0.7597 0.7525 0.7454
840.069861 0.7383 0.7311 0.7240 0.7168 0.7105
845.106667 0.7056 0.7026 0.7015 0.7011 0.7008
850.143472 0.7005 0.7002 0.6998 0.6979 0.6935
855.180278 0.6873 0.6797 0.6708 0.6620 0.6550
860.217083 0.6498 0.6462 0.6448 0.6447 0.6441
865.253889 0.6462 0.6555 0.6687 0.6819 0.6951
870.290694 0.7083 0.7245 0.7374 0.7438 0.7501
875.327500 0.7560 0.7614 0.7659 0.7690 0.7707
880.364306 0.7718 0.7723 0.7724 0.7718 0.7714
885.401111 0.7712 0.7704 0.7694 0.7685 0.7673
890.437917 0.7658 0.7636 0.7603 0.7572 0.7545
895.474722 0.7517 0.7487 0.7458 0.7441 0.7432
900.511528 0.7424 0.7416 0.7408 0.7399 0.7390
905.548333 0.7380 0.7369 0.7352 0.7334 0.7311
910.585139 0.7285 0.7259 0.7230 0.7200 0.7170
915.621944 0.7138 0.7102 0.7067 0.7003 0.6880
920.658750 0.6735 0.6589 0.6443 0.6298 0.6152
925.695556 0.6032 0.5975 0.5946 0.5912 0.5879
930.732361 0.5850 0.5805 0.5748 0.5691 0.5631
935.769167 0.5562 0.5477 0.5369 0.5224 0.5069
940.805972 0.4915 0.4760 0.4605 0.4451 0.4296
945.842778 0.4142 0.3987 0.3832 0.3677 0.3522
950.879583 0.3368 0.3213 0.3060 0.2919 0.2803
955.916389 0.2694 0.2587 0.2474 0.2346 0.2224
960.953194 0.2118 0.2029 0.1961 0.1912 0.1878
965.990000 0.1869 0.1861 0.1858 0.1862 0.1862
971.026806 0.1877 0.1902 0.1953 0.2021 0.2108
976.063611 0.2198 0.2289 0.2413 0.2564 0.2660
981.100417 0.2792 0.2971 0.3149 0.3327 0.3505
986.137222 0.3684 0.3861 0.4040 0.4219 0.4397
991.174028 0.4575 0.4753 0.4937 0.5106 0.5145
996.210833 0.5160 0.5170 0.5177 0.5192 0.5171
1001.247639 0.5164 0.5150 0.5125 0.5086 0.5039
1006.284444 0.4976 0.4882 0.4694 0.4367 0.4041
1011.321250 0.3715 0.3389 0.3062 0.2737 0.2410
1016.358056 0.2084 0.1758 0.1402 0.1019 0.0776
1021.394861 0.0682 0.0639 0.0612 0.0599 0.0589
1026.431667 0.0588 0.0588 0.0591 0.0595 0.0602
1031.468472 0.0610 0.0623 0.0640 0.0667 0.0723
1036.505278 0.0819 0.0888 0.0892 0.0890 0.0898
1041.542083 0.0899 0.0879 0.0872 0.0857 0.0839
1046.578889 0.0822 0.0806 0.0796 0.0792 0.0787
1051.615694 0.0779 0.0780 0.0790 0.0796 0.0818
1056.652500 0.0923 0.1028 0.1059 0.1080 0.1098
1061.689306 0.1125 0.1160 0.1196 0.1265 0.1394
1066.726111 0.1585 0.1810 0.2034 0.2257 0.2480
1071.762917 0.2703 0.2926 0.3149 0.3372 0.3596
1076.799722 0.3819 0.4042 0.4265 0.4488 0.4711
1081.836528 0.4934 0.5095 0.5148 0.4986 0.4941
1086.873333 0.4913 0.4872 0.4863 0.4856 0.4846
1091.910139 0.4837 0.4827 0.4805 0.4777 0.4740
1096.946944 0.4698 0.4597 0.4493 0.4354 0.4285
1101.983750 0.4255 0.4282 0.4322 0.4363 0.4426
1107.020556 0.4517 0.4601 0.4662 0.4682 0.4689
1112.057361 0.4696 0.4638 0.4547 0.4452 0.4358
1117.094167 0.4293 0.4278 0.4278 0.4527 0.4807
1122.130972 0.5080 0.5352 0.5624 0.5822 0.5938
1127.167778 0.6035 0.6108 0.6148 0.6164 0.6174
1132.204583 0.6178 0.6178 0.6178 0.6175 0.6169
1137.241389 0.6162 0.6147 0.6130 0.6105 0.6079
1142.278194 0.6053 0.6010 0.5959 0.5906 0.5836
1147.315000 0.5760 0.5682 0.5608 0.5533 0.5459
1152.351806 0.5308 0.4914 0.4545 0.4388 0.3830
1157.388611 0.3150 0.2889 0.2758 0.2717 0.2679
1162.425417 0.2640 0.2602 0.2565 0.2559 0.2558
1167.462222 0.2576 0.2570 0.2601 0.2663 0.2726
1172.499028 0.2790 0.2865 0.3051 0.3301 0.3550
1177.535833 0.3799 0.4049 0.4300 0.4552 0.4595
1182.572639 0.4611 0.4615 0.4613 0.4610 0.4616
1187.609444 0.4476 0.4397 0.4318 0.4238 0.4160
1192.646250 0.4080 0.4001 0.3922 0.3843 0.3764
1197.683056 0.3694 0.3674 0.3674 0.3676 0.3677
1202.719861 0.3680 0.3706 0.3724 0.3757 0.3843
1207.756667 0.3971 0.4097 0.4225 0.4353 0.4480
1212.793472 0.4585 0.4630 0.4679 0.4747 0.4840
1217.830278 0.4939 0.5007 0.5052 0.5089 0.5110
1222.867083 0.5132 0.5149 0.5145 0.5146 0.5145
1227.903889 0.5140 0.5134 0.5123 0.5109 0.5067
1232.940694 0.4985 0.4905 0.4826 0.4679 0.4322
1237.977500 0.3861 0.3400 0.2938 0.2559 0.2386
1243.014306 0.2308 0.2162 0.1973 0.1805 0.1651
1248.051111 0.1508 0.1321 0.1172 0.1125 0.1095
1253.087917 0.1074 0.1060 0.1050 0.1045 0.1054
1258.124722 0.1058 0.1048 0.1056 0.1069 0.1102
1263.161528 0.1164 0.1239 0.1318 0.1420 0.1540
1268.198333 0.1660 0.1780 0.1900 0.2020 0.2131
1273.235139 0.2235 0.2292 0.2353 0.2478 0.2623
1278.271944 0.2769 0.2915 0.3061 0.3207 0.3353
1283.308750 0.3499 0.3645 0.3791 0.3937 0.4083
1288.345556 0.4215 0.4299 0.4334 0.4350 0.4365
1293.382361 0.4379 0.4394 0.4410 0.4426 0.4444
1298.419167 0.4462 0.4480 0.4499 0.4522 0.4549
1303.455972 0.4577 0.4609 0.4663 0.4872 0.5050
1308.492778 0.5144 0.5220 0.5320 0.5440 0.5535
1313.529583 0.5590 0.5617 0.5634 0.5644 0.5648
1318.566389 0.5657 0.5651 0.5642 0.5628 0.5601
1323.603194 0.5547 0.5436 0.5304 0.5169 0.5034
1328.640000 0.4900 0.4764 0.4629 0.4533 0.4492
1333.676806 0.4478 0.4473 0.4472 0.4496 0.4488
1338.713611 0.4513 0.4591 0.4664 0.4731 0.4816
1343.750417 0.4924 0.5035 0.5145 0.5255 0.5365
1348.787222 0.5476 0.5586 0.5736 0.5819 0.5874
1353.824028 0.5917 0.5958 0.6120 0.6297 0.6415
1358.860833 0.6516 0.6563 0.6570 0.6578 0.6572
1363.897639 0.6568 0.6562 0.6549 0.6529 0.6496
1368.934444 0.6431 0.6308 0.6214 0.6162 0.6123
1373.971250 0.6134 0.6140 0.6152 0.6200 0.6254
1379.008056 0.6287 0.6299 0.6296 0.6306 0.6279
1384.044861 0.6265 0.6208 0.6150 0.6092 0.6035
1389.081667 0.5977 0.5920 0.5862 0.5805 0.5747
1394.118472 0.5692 0.5638 0.5621 0.5620 0.5623
1399.155278 0.5647 0.5742 0.5844 0.5946 0.6047
1404.192083 0.6149 0.6251 0.6352 0.6454 0.6564
1409.228889 0.6665 0.6745 0.6823 0.6883 0.6925
1414.265694 0.6964 0.6990 0.7001 0.7009 0.7015
1419.302500 0.7017 0.7012 0.7006 0.6998 0.6987
1424.339306 0.6969 0.6942 0.6904 0.6863 0.6811
1429.376111 0.6757 0.6693 0.6628 0.6509 0.6395
1434.412917 0.6301 0.6206 0.6064 0.5873 0.5670
1439.449722 0.5467 0.5264 0.5021 0.4864 0.4807
1444.486528 0.4778 0.4758 0.4740 0.4726 0.4720
1449.523333 0.4720 0.4721 0.4744 0.4854 0.4964
1454.560139 0.4972 0.4993 0.5063 0.5153 0.5183
1459.596944 0.5209 0.5233 0.5251 0.5263 0.5274
1464.633750 0.5284 0.5288 0.5292 0.5298 0.5305
1469.670556 0.5313 0.5321 0.5329 0.5339 0.5357
1474.707361 0.5378 0.5404 0.5461 0.5558 0.5760
1479.744167 0.6212 0.6280 0.6314 0.6336 0.6354
1484.780972 0.6369 0.6384 0.6402 0.6428 0.6453
1489.817778 0.6483 0.6569 0.6762 0.6935 0.7042
1494.854583 0.7085 0.7126 0.7162 0.7188 0.7215
1499.891389 0.7241 0.7267 0.7280 0.7293 0.7304
1504.928194 0.7317 0.7330 0.7338 0.7346 0.7354
1509.965000 0.7361 0.7369 0.7377 0.7382 0.7386
1515.001806 0.7390 0.7394 0.7398 0.7402 0.7406
1520.038611 0.7409 0.7412 0.7414 0.7417 0.7419
1525.075417 0.7421 0.7424 0.7426 0.7428 0.7428
1530.112222 0.7427 0.7427 0.7426 0.7426 0.7426
1535.149028 0.7425 0.7423 0.7421 0.7419 0.7417
1540.185833 0.7416 0.7417 0.7418 0.7422 0.7422
1545.222639 0.7425 0.7433 0.7441 0.7450 0.7452
1550.259444 0.7448 0.7443 0.7439 0.7431 0.7421
1555.296250 0.7411 0.7400 0.7389 0.7377 0.7363
1560.333056 0.7349 0.7341 0.7338 0.7338 0.7345
1565.369861 0.7358 0.7371 0.7387 0.7405 0.7424
1570.406667 0.7441 0.7450 0.7450 0.7448 0.7444
1575.443472 0.7440 0.7436 0.7431 0.7428 0.7425
1580.480278 0.7423 0.7421 0.7419 0.7417 0.7420
1585.517083 0.7425 0.7429 0.7434 0.7437 0.7441
1590.553889 0.7443 0.7442 0.7439 0.7437 0.7433
1595.590694 0.7430 0.7426 0.7422 0.7418 0.7414
1600.627500 0.7411 0.7407 0.7403 0.7400 0.7398
1605.664306 0.7395 0.7393 0.7391 0.7389 0.7385
1610.701111 0.7380 0.7376 0.7371 0.7366 0.7361
1615.737917 0.7353 0.7345 0.7336 0.7327 0.7318
1620.774722 0.7299 0.7279 0.7258 0.7234 0.7210
1625.811528 0.7191 0.7180 0.7170 0.7159 0.7149
1630.848333 0.7140 0.7133 0.7127 0.7121 0.7115
1635.885139 0.7109 0.7105 0.7101 0.7098 0.7094
1640.921944 0.7091 0.7088 0.7070 0.7076 0.7082
1645.958750 0.7081 0.7081 0.7081 0.7080 0.7080
1650.995556 0.7080 0.7083 0.7088 0.7092 0.7097
1656.032361 0.7102 0.7107 0.7111 0.7117 0.7126
1661.069167 0.7135 0.7145 0.7153 0.7159 0.7163
1666.105972 0.7168 0.7169 0.7166 0.7163 0.7154
1671.142778 0.7134 0.7112 0.7095 0.7080 0.7069
1676.179583 0.7065 0.7062 0.7059 0.7054 0.7047
1681.216389 0.7036 0.7013 0.6972 0.6926 0.6899
1686.253194 0.6875 0.6855 0.6845 0.6835 0.6824
1691.290000 0.6814 0.6805 0.6796 0.6787 0.6778
1696.326806 0.6770 0.6755 0.6717 0.6628 0.6548
1701.363611 0.6489 0.6464 0.6441 0.6422 0.6404
1706.400417 0.6385 0.6367 0.6354 0.6341 0.6329
1711.437222 0.6315 0.6301 0.6288 0.6274 0.6256
1716.474028 0.6223 0.6191 0.6150 0.6102 0.6029
1721.510833 0.5957 0.5814 0.5557 0.4930 0.4594
1726.547639 0.4223 0.3867 0.3511 0.3156 0.2801
1731.584444 0.2446 0.2091 0.1735 0.1375 0.1221
1736.621250 0.1136 0.1096 0.1074 0.1069 0.1074
1741.658056 0.1068 0.1090 0.1112 0.1139 0.1184
1746.694861 0.1272 0.1461 0.1682 0.1987 0.2328
1751.731667 0.2669 0.3010 0.3351 0.3693 0.4034
1756.768472 0.4375 0.4716 0.5057 0.5399 0.5567
1761.805278 0.5633 0.5710 0.5841 0.5997 0.6090
1766.842083 0.6163 0.6237 0.6310 0.6386 0.6461
1771.878889 0.6525 0.6585 0.6636 0.6670 0.6699
1776.915694 0.6727 0.6756 0.6788 0.6823 0.6858
1781.952500 0.6887 0.6911 0.6933 0.6955 0.6972
1786.989306 0.6987 0.7001 0.7016 0.7027 0.7032
1792.026111 0.7036 0.7039 0.7038 0.7037 0.7035
1797.062917 0.7031 0.7028 0.7027 0.7028 0.7030
1802.099722 0.7031 0.7033 0.7036 0.7039 0.7043
1807.136528 0.7047 0.7052 0.7056 0.7061 0.7065
1812.173333 0.7070 0.7076 0.7085 0.7094 0.7103
1817.210139 0.7112 0.7120 0.7128 0.7136 0.7143
1822.246944 0.7151 0.7149 0.7146 0.7144 0.7141
1827.283750 0.7137 0.7134 0.7131 0.7127 0.7125
1832.320556 0.7124 0.7122 0.7121 0.7121 0.7122
1837.357361 0.7123 0.7124 0.7125 0.7127 0.7129
1842.394167 0.7131 0.7133 0.7138 0.7145 0.7152
1847.430972 0.7160 0.7167 0.7174 0.7181 0.7188
1852.467778 0.7195 0.7202 0.7210 0.7217 0.7225
1857.504583 0.7232 0.7235 0.7238 0.7241 0.7244
1862.541389 0.7247 0.7247 0.7246 0.7245 0.7244
1867.578194 0.7244 0.7243 0.7243 0.7242 0.7241
1872.615000 0.7240 0.7238 0.7237 0.7236 0.7234
1877.651806 0.7233 0.7232 0.7232 0.7232 0.7232
1882.688611 0.7232 0.7233 0.7233 0.7233 0.7233
1887.725417 0.7233 0.7234 0.7234 0.7234 0.7234
1892.762222 0.7234 0.7235 0.7235 0.7235 0.7235
1897.799028 0.7235 0.7236 0.7236 0.7236 0.7236
1902.835833 0.7236 0.7237 0.7237 0.7237 0.7237
1907.872639 0.7236 0.7235 0.7235 0.7234 0.7234
1912.909444 0.7233 0.7233 0.7232 0.7231 0.7231
1917.946250 0.7230 0.7229 0.7228 0.7227 0.7227
1922.983056 0.7226 0.7225 0.7224 0.7223 0.7222
1928.019861 0.7222 0.7221 0.7220 0.7219 0.7220
1933.056667 0.7220 0.7221 0.7222 0.7222 0.7223
1938.093472 0.7224 0.7224 0.7225 0.7223 0.7220
1943.130278 0.7217 0.7215 0.7212 0.7210 0.7207
1948.167083 0.7204 0.7202 0.7199 0.7196 0.7194
1953.203889 0.7191 0.7189 0.7187 0.7185 0.7183
1958.240694 0.7182 0.7180 0.7178 0.7176 0.7176
1963.277500 0.7176 0.7176 0.7177 0.7177 0.7177
1968.314306 0.7177 0.7177 0.7175 0.7174 0.7173
1973.351111 0.7172 0.7171 0.7174 0.7178 0.7183
1978.387917 0.7189 0.7195 0.7201 0.7208 0.7214
1983.424722 0.7219 0.7222 0.7225 0.7224 0.7216
1988.461528 0.7207 0.7198 0.7190 0.7183 0.7176
1993.498333 0.7170 0.7164 0.7160 0.7159 0.7158
1998.535139 0.7158 0.7157 0.7156 0.7156 0.7155
2003.571944 0.7155 0.7154 0.7154 0.7155 0.7155
2008.608750 0.7155 0.7155 0.7155 0.7155 0.7155
2013.645556 0.7155 0.7155 0.7155 0.7155 0.7154
2018.682361 0.7154 0.7154 0.7154 0.7154 0.7153
2023.719167 0.7153 0.7153 0.7153 0.7153 0.7153
2028.755972 0.7152 0.7152 0.7152 0.7152 0.7150
2033.792778 0.7149 0.7148 0.7146 0.7142 0.7135
2038.829583 0.7127 0.7120 0.7112 0.7106 0.7100
2043.866389 0.7096 0.7092 0.7088 0.7085 0.7083
2048.903194 0.7085 0.7086 0.7088 0.7089 0.7090
2053.940000 0.7092 0.7093 0.7094 0.7096 0.7097
2058.976806 0.7097 0.7098 0.7099 0.7100 0.7101
2064.013611 0.7102 0.7102 0.7103 0.7104 0.7105
2069.050417 0.7106 0.7106 0.7106 0.7105 0.7105
2074.087222 0.7104 0.7104 0.7104 0.7103 0.7103
2079.124028 0.7102 0.7102 0.7102 0.7101 0.7101
2084.160833 0.7101 0.7101 0.7101 0.7101 0.7101
2089.197639 0.7101 0.7101 0.7101 0.7101 0.7101
2094.234444 0.7101 0.7101 0.7101 0.7101 0.7101
2099.271250 0.7101 0.7101 0.7102 0.7102 0.7103
2104.308056 0.7103 0.7104 0.7104 0.7105 0.7105
2109.344861 0.7105 0.7106 0.7106 0.7107 0.7107
2114.381667 0.7108 0.7108 0.7108 0.7108 0.7109
2119.418472 0.7109 0.7109 0.7109 0.7109 0.7110
2124.455278 0.7110 0.7099 0.7102 0.7110 0.7111
2129.492083 0.7111 0.7111 0.7110 0.7109 0.7109
2134.528889 0.7108 0.7107 0.7107 0.7106 0.7105
2139.565694 0.7105 0.7104 0.7103 0.7103 0.7102
2144.602500 0.7100 0.7099 0.7097 0.7096 0.7094
2149.639306 0.7093 0.7091 0.7090 0.7088 0.7086
2154.676111 0.7084 0.7082 0.7080 0.7078 0.7076
2159.712917 0.7075 0.7074 0.7072 0.7071 0.7070
2164.749722 0.7069 0.7067 0.7066 0.7065 0.7063
2169.786528 0.7062 0.7061 0.7059 0.7057 0.7056
2174.823333 0.7054 0.7053 0.7051 0.7049 0.7049
2179.860139 0.7050 0.7052 0.7053 0.7055 0.7056
2184.896944 0.7060 0.7065 0.7071 0.7078 0.7088
2189.933750 0.7100 0.7107 0.7110 0.7112 0.7111
2194.970556 0.7110 0.7110 0.7109 0.7109 0.7108
2200.007361 0.7108 0.7108 0.7107 0.7107 0.7106
2205.044167 0.7105 0.7104 0.7103 0.7102 0.7101
2210.080972 0.7100 0.7098 0.7096 0.7094 0.7092
2215.117778 0.7090 0.7087 0.7085 0.7083 0.7082
2220.154583 0.7082 0.7081 0.7080 0.7079 0.7079
2225.191389 0.7078 0.7077 0.7076 0.7074 0.7072
2230.228194 0.7071 0.7069 0.7068 0.7066 0.7064
2235.265000 0.7063 0.7064 0.7064 0.7064 0.7065
2240.301806 0.7065 0.7066 0.7066 0.7067 0.7067
2245.338611 0.7068 0.7069 0.7069 0.7070 0.7071
2250.375417 0.7071 0.7072 0.7073 0.7074 0.7075
2255.412222 0.7075 0.7075 0.7074 0.7074 0.7074
2260.449028 0.7074 0.7074 0.7073 0.7073 0.7073
2265.485833 0.7073 0.7073 0.7073 0.7073 0.7073
2270.522639 0.7073 0.7073 0.7072 0.7072 0.7072
2275.559444 0.7072 0.7072 0.7072 0.7073 0.7074
2280.596250 0.7075 0.7077 0.7078 0.7079 0.7081
2285.633056 0.7082 0.7083 0.7085 0.7086 0.7087
2290.669861 0.7089 0.7090 0.7091 0.7092 0.7093
2295.706667 0.7094 0.7093 0.7091 0.7090 0.7088
2300.743472 0.7087 0.7085 0.7083 0.7079 0.7076
2305.780278 0.7072 0.7069 0.7065 0.7062 0.7058
2310.817083 0.7055 0.7051 0.7048 0.7044 0.7041
2315.853889 0.7037 0.7033 0.7030 0.7026 0.7022
2320.890694 0.7016 0.7010 0.7004 0.6998 0.6992
2325.927500 0.6984 0.6974 0.6963 0.6952 0.6945
2330.964306 0.6942 0.6939 0.6936 0.6935 0.6935
2336.001111 0.6935 0.6936 0.6936 0.6936 0.6937
2341.037917 0.6939 0.6940 0.6942 0.6943 0.6945
2346.074722 0.6947 0.6949 0.6951 0.6953 0.6955
2351.111528 0.6957 0.6959 0.6961 0.6962 0.6964
2356.148333 0.6965 0.6966 0.6968 0.6969 0.6970
2361.185139 0.6971 0.6973 0.6974 0.6975 0.6975
2366.221944 0.6975 0.6975 0.6975 0.6975 0.6975
2371.258750 0.6974 0.6974 0.6974 0.6974 0.6974
2376.295556 0.6974 0.6974 0.6974 0.6974 0.6975
2381.332361 0.6975 0.6975 0.6975 0.6975 0.6975
2386.369167 0.6974 0.6974 0.6974 0.6974 0.6974
2391.405972 0.6974 0.6974 0.6974 0.6973 0.6972
2396.442778 0.6970 0.6969 0.6968 0.6966 0.6965
2401.479583 0.6964 0.6962 0.6961 0.6960 0.6958
2406.516389 0.6957 0.6957 0.6956 0.6956 0.6956
2411.553194 0.6955 0.6955 0.6955 0.6954 0.6954
2416.590000 0.6954 0.6954 0.6953 0.6953 0.6953
2421.626806 0.6952 0.6951 0.6951 0.6950 0.6949
2426.663611 0.6948 0.6948 0.6947 0.6946 0.6945
2431.700417 0.6944 0.6944 0.6943 0.6942 0.6941
2436.737222 0.6941 0.6940 0.6939 0.6938 0.6938
2441.774028 0.6937 0.6936 0.6935 0.6934 0.6933
2446.810833 0.6932 0.6931 0.6931 0.6930 0.6929
2451.847639 0.6928 0.6927 0.6926 0.6925 0.6924
2456.884444 0.6924 0.6923 0.6922 0.6921 0.6920
2461.921250 0.6919 0.6918 0.6917 0.6916 0.6915
2466.958056 0.6914 0.6913 0.6912 0.6911 0.6910
2471.994861 0.6910 0.6909 0.6909 0.6908 0.6908
2477.031667 0.6908 0.6907 0.6907 0.6907 0.6906
2482.068472 0.6906 0.6906 0.6905 0.6905 0.6905
2487.105278 0.6905 0.6905 0.6906 0.6906 0.6907
2492.142083 0.6907 0.6907 0.6908 0.6908 0.6909
2497.178889 0.6909 0.6910 0.6910 0.6911 0.6912
2502.215694 0.6914 0.6917 0.6919 0.6922 0.6924
2507.252500 0.6926 0.6931 0.6937 0.6943 0.6950
2512.289306 0.6956 0.6963 0.6972 0.6982 0.6994
2517.326111 0.7007 0.7017 0.7019 0.7017 0.7015
2522.362917 0.7011 0.7005 0.6999 0.6993 0.6982
2527.399722 0.6965 0.6950 0.6941 0.6936 0.6930
2532.436528 0.6924 0.6919 0.6916 0.6914 0.6912
2537.473333 0.6910 0.6908 0.6906 0.6904 0.6904
2542.510139 0.6903 0.6903 0.6903 0.6903 0.6902
2547.546944 0.6902 0.6902 0.6901 0.6900 0.6899
2552.583750 0.6899 0.6898 0.6897 0.6896 0.6895
2557.620556 0.6894 0.6894 0.6893 0.6892 0.6890
2562.657361 0.6888 0.6886 0.6885 0.6883 0.6881
2567.694167 0.6879 0.6879 0.6878 0.6878 0.6878
2572.730972 0.6878 0.6877 0.6877 0.6877 0.6878
2577.767778 0.6879 0.6879 0.6880 0.6881 0.6882
2582.804583 0.6883 0.6883 0.6884 0.6885 0.6886
2587.841389 0.6887 0.6887 0.6888 0.6889 0.6890
2592.878194 0.6891 0.6892 0.6892 0.6893 0.6894
2597.915000 0.6895 0.6896 0.6897 0.6897 0.6896
2602.951806 0.6895 0.6894 0.6893 0.6892 0.6891
2607.988611 0.6891 0.6890 0.6889 0.6888 0.6887
2613.025417 0.6885 0.6884 0.6882 0.6881 0.6879
2618.062222 0.6878 0.6876 0.6874 0.6873 0.6871
2623.099028 0.6871 0.6871 0.6871 0.6871 0.6870
2628.135833 0.6870 0.6870 0.6870 0.6870 0.6870
2633.172639 0.6870 0.6870 0.6870 0.6870 0.6871
2638.209444 0.6871 0.6872 0.6873 0.6873 0.6874
2643.246250 0.6874 0.6875 0.6875 0.6876 0.6876
2648.283056 0.6876 0.6876 0.6877 0.6877 0.6877
2653.319861 0.6877 0.6877 0.6878 0.6878 0.6878
2658.356667 0.6878 0.6878 0.6879 0.6879 0.6879
2663.393472 0.6879 0.6879 0.6880 0.6880 0.6880
2668.430278 0.6880 0.6880 0.6881 0.6881 0.6881
2673.467083 0.6882 0.6882 0.6883 0.6883 0.6884
2678.503889 0.6884 0.6885 0.6885 0.6886 0.6886
2683.540694 0.6887 0.6887 0.6887 0.6886 0.6885
2688.577500 0.6884 0.6883 0.6882 0.6882 0.6877
2693.614306 0.6871 0.6863 0.6856 0.6849 0.6841
2698.651111 0.6833 0.6827 0.6821 0.6815 0.6809
2703.687917 0.6803 0.6797 0.6791 0.6787 0.6785
2708.724722 0.6783 0.6781 0.6779 0.6779 0.6779
2713.761528 0.6779 0.6779 0.6779 0.6780 0.6780
2718.798333 0.6780 0.6780 0.6780 0.6781 0.6781
2723.835139 0.6781 0.6783 0.6785 0.6787 0.6789
2728.871944 0.6790 0.6792 0.6794 0.6796 0.6798
2733.908750 0.6799 0.6801 0.6803 0.6805 0.6807
2738.945556 0.6809 0.6810 0.6812 0.6814 0.6816
2743.982361 0.6818 0.6819 0.6821 0.6823 0.6825
2749.019167 0.6826 0.6828 0.6830 0.6831 0.6833
2754.055972 0.6834 0.6836 0.6837 0.6839 0.6841
2759.092778 0.6840 0.6839 0.6837 0.6836 0.6835
2764.129583 0.6833 0.6832 0.6830 0.6829 0.6827
2769.166389 0.6822 0.6817 0.6812 0.6806 0.6801
2774.203194 0.6796 0.6788 0.6777 0.6767 0.6757
2779.240000 0.6745 0.6726 0.6701 0.6676 0.6652
2784.276806 0.6643 0.6635 0.6626 0.6623 0.6624
2789.313611 0.6624 0.6625 0.6626 0.6627 0.6627
2794.350417 0.6628 0.6628 0.6628 0.6628 0.6628
2799.387222 0.6627 0.6626 0.6624 0.6619 0.6613
2804.424028 0.6608 0.6603 0.6597 0.6588 0.6577
2809.460833 0.6567 0.6557 0.6547 0.6537 0.6524
2814.497639 0.6511 0.6498 0.6485 0.6471 0.6458
2819.534444 0.6445 0.6434 0.6422 0.6410 0.6398
2824.571250 0.6386 0.6374 0.6363 0.6351 0.6339
2829.608056 0.6326 0.6311 0.6296 0.6281 0.6267
2834.644861 0.6252 0.6237 0.6220 0.6196 0.6173
2839.681667 0.6149 0.6121 0.6080 0.6039 0.5998
2844.718472 0.5955 0.5912 0.5869 0.5826 0.5777
2849.755278 0.5728 0.5680 0.5631 0.5581 0.5531
2854.792083 0.5483 0.5441 0.5401 0.5360 0.5317
2859.828889 0.5269 0.5221 0.5176 0.5136 0.5097
2864.865694 0.5059 0.5021 0.4988 0.4957 0.4928
2869.902500 0.4900 0.4873 0.4847 0.4822 0.4803
2874.939306 0.4796 0.4793 0.4795 0.4798 0.4805
2879.976111 0.4814 0.4823 0.4832 0.4839 0.4842
2885.012917 0.4843 0.4842 0.4840 0.4838 0.4834
2890.049722 0.4830 0.4827 0.4824 0.4821 0.4820
2895.086528 0.4818 0.4816 0.4813 0.4807 0.4800
2900.123333 0.4772 0.4715 0.4656 0.4599 0.4541
2905.160139 0.4483 0.4425 0.4367 0.4310 0.4257
2910.196944 0.4215 0.4180 0.4149 0.4119 0.4087
2915.233750 0.4053 0.4019 0.3985 0.3954 0.3928
2920.270556 0.3904 0.3881 0.3860 0.3843 0.3828
2925.307361 0.3813 0.3799 0.3783 0.3764 0.3743
2930.344167 0.3722 0.3702 0.3678 0.3649 0.3618
2935.380972 0.3584 0.3546 0.3512 0.3489 0.3472
2940.417778 0.3457 0.3449 0.3445 0.3441 0.3438
2945.454583 0.3433 0.3427 0.3412 0.3389 0.3366
2950.491389 0.3344 0.3321 0.3298 0.3275 0.3252
2955.528194 0.3227 0.3201 0.3177 0.3156 0.3137
2960.565000 0.3118 0.3100 0.3082 0.3068 0.3062
2965.601806 0.3062 0.3068 0.3068 0.3070 0.3087
2970.638611 0.3110 0.3134 0.3159 0.3193 0.3233
2975.675417 0.3271 0.3308 0.3346 0.3379 0.3407
2980.712222 0.3436 0.3465 0.3496 0.3534 0.3573
2985.749028 0.3613 0.3648 0.3678 0.3707 0.3734
2990.785833 0.3759 0.3783 0.3802 0.3815 0.3826
2995.822639 0.3849 0.3882 0.3931 0.3998 0.4077
3000.859444 0.4146 0.4206 0.4304 0.4412 0.4493
3005.896250 0.4562 0.4634 0.4708 0.4858 0.4957
3010.933056 0.5008 0.5059 0.5113 0.5172 0.5232
3015.969861 0.5285 0.5328 0.5369 0.5409 0.5448
3021.006667 0.5485 0.5522 0.5559 0.5599 0.5645
3026.043472 0.5693 0.5740 0.5775 0.5804 0.5833
3031.080278 0.5863 0.5890 0.5913 0.5936 0.5959
3036.117083 0.5983 0.6006 0.6024 0.6041 0.6057
3041.153889 0.6073 0.6089 0.6105 0.6121 0.6134
3046.190694 0.6146 0.6158 0.6171 0.6183 0.6195
3051.227500 0.6206 0.6217 0.6226 0.6235 0.6244
3056.264306 0.6253 0.6262 0.6271 0.6280 0.6289
3061.301111 0.6299 0.6308 0.6316 0.6323 0.6331
3066.337917 0.6338 0.6345 0.6351 0.6358 0.6365
3071.374722 0.6372 0.6379 0.6385 0.6390 0.6396
3076.411528 0.6401 0.6407 0.6412 0.6418 0.6423
3081.448333 0.6429 0.6434 0.6439 0.6444 0.6450
3086.485139 0.6455 0.6460 0.6465 0.6471 0.6476
3091.521944 0.6481 0.6487 0.6491 0.6494 0.6496
3096.558750 0.6499 0.6501 0.6504 0.6506 0.6509
3101.595556 0.6511 0.6512 0.6514 0.6515 0.6517
3106.632361 0.6518 0.6520 0.6521 0.6523 0.6524
3111.669167 0.6525 0.6526 0.6528 0.6529 0.6530
3116.705972 0.6532 0.6533 0.6537 0.6541 0.6545
3121.742778 0.6549 0.6553 0.6557 0.6562 0.6566
3126.779583 0.6571 0.6576 0.6581 0.6586 0.6591
3131.816389 0.6596 0.6598 0.6599 0.6600 0.6587
3136.853194 0.6601 0.6603 0.6604 0.6605 0.6605
3141.890000 0.6603 0.6601 0.6599 0.6597 0.6594
3146.926806 0.6592 0.6590 0.6588 0.6586 0.6584
3151.963611 0.6582 0.6579 0.6577 0.6574 0.6572
3157.000417 0.6569 0.6566 0.6563 0.6561 0.6558
3162.037222 0.6555 0.6553 0.6552 0.6550 0.6549
3167.074028 0.6548 0.6547 0.6546 0.6545 0.6544
3172.110833 0.6543 0.6541 0.6540 0.6540 0.6541
3177.147639 0.6541 0.6541 0.6541 0.6541 0.6542
3182.184444 0.6542 0.6542 0.6542 0.6543 0.6543
3187.221250 0.6543 0.6543 0.6543 0.6544 0.6544
3192.258056 0.6544 0.6544 0.6544 0.6545 0.6545
3197.294861 0.6545 0.6545 0.6545 0.6546 0.6546
3202.331667 0.6545 0.6545 0.6545 0.6545 0.6545
3207.368472 0.6544 0.6544 0.6544 0.6544 0.6544
3212.405278 0.6543 0.6543 0.6543 0.6543 0.6543
3217.442083 0.6542 0.6542 0.6542 0.6541 0.6541
3222.478889 0.6540 0.6539 0.6538 0.6537 0.6536
3227.515694 0.6535 0.6534 0.6533 0.6532 0.6531
3232.552500 0.6530 0.6529 0.6528 0.6527 0.6526
3237.589306 0.6525 0.6524 0.6523 0.6522 0.6522
3242.626111 0.6521 0.6520 0.6519 0.6518 0.6517
3247.662917 0.6516 0.6515 0.6514 0.6513 0.6512
3252.699722 0.6511 0.6510 0.6509 0.6508 0.6507
3257.736528 0.6505 0.6504 0.6503 0.6502 0.6500
3262.773333 0.6499 0.6498 0.6496 0.6494 0.6492
3267.810139 0.6491 0.6489 0.6487 0.6486 0.6484
3272.846944 0.6482 0.6481 0.6479 0.6477 0.6476
3277.883750 0.6474 0.6473 0.6472 0.6471 0.6470
3282.920556 0.6469 0.6468 0.6467 0.6466 0.6465
3287.957361 0.6464 0.6463 0.6462 0.6461 0.6460
3292.994167 0.6459 0.6458 0.6457 0.6456 0.6455
3298.030972 0.6454 0.6452 0.6451 0.6450 0.6449
3303.067778 0.6448 0.6447 0.6447 0.6446 0.6445
3308.104583 0.6445 0.6444 0.6443 0.6443 0.6442
3313.141389 0.6441 0.6441 0.6440 0.6439 0.6440
3318.178194 0.6440 0.6440 0.6440 0.6440 0.6441
3323.215000 0.6441 0.6441 0.6443 0.6446 0.6449
3328.251806 0.6452 0.6455 0.6458 0.6460 0.6463
3333.288611 0.6465 0.6467 0.6469 0.6471 0.6473
3338.325417 0.6474 0.6475 0.6476 0.6477 0.6478
3343.362222 0.6479 0.6477 0.6475 0.6473 0.6471
3348.399028 0.6469 0.6467 0.6464 0.6461 0.6459
3353.435833 0.6456 0.6453 0.6451 0.6448 0.6445
3358.472639 0.6442 0.6439 0.6436 0.6433 0.6431
3363.509444 0.6428 0.6425 0.6419 0.6411 0.6403
3368.546250 0.6395 0.6387 0.6379 0.6371 0.6363
3373.583056 0.6355 0.6345 0.6332 0.6320 0.6308
3378.619861 0.6296 0.6283 0.6271 0.6257 0.6242
3383.656667 0.6227 0.6213 0.6201 0.6194 0.6187
3388.693472 0.6181 0.6174 0.6168 0.6161 0.6154
3393.730278 0.6147 0.6139 0.6132 0.6124 0.6116
3398.767083 0.6108 0.6100 0.6093 0.6086 0.6079
3403.803889 0.6073 0.6066 0.6059 0.6052 0.6045
3408.840694 0.6038 0.6033 0.6028 0.6023 0.6017
3413.877500 0.6012 0.6007 0.6002 0.5996 0.5991
3418.914306 0.5986 0.5981 0.5977 0.5974 0.5971
3423.951111 0.5968 0.5964 0.5961 0.5957 0.5954
3428.987917 0.5951 0.5947 0.5944 0.5941 0.5937
3434.024722 0.5930 0.5922 0.5915 0.5907 0.5899
3439.061528 0.5879 0.5852 0.5826 0.5801 0.5780
3444.098333 0.5763 0.5749 0.5740 0.5734 0.5728
3449.135139 0.5721 0.5717 0.5715 0.5714 0.5713
3454.171944 0.5712 0.5710 0.5709 0.5708 0.5707
3459.208750 0.5706 0.5705 0.5703 0.5702 0.5701
3464.245556 0.5700 0.5699 0.5698 0.5698 0.5698
3469.282361 0.5698 0.5698 0.5699 0.5699 0.5699
3474.319167 0.5699 0.5700 0.5701 0.5702 0.5703
3479.355972 0.5704 0.5705 0.5705 0.5706 0.5707
3484.392778 0.5708 0.5710 0.5703 0.5711 0.5716
3489.429583 0.5718 0.5720 0.5722 0.5724 0.5726
3494.466389 0.5728 0.5730 0.5732 0.5734 0.5736
3499.503194 0.5740 0.5743 0.5747 0.5750 0.5754
3504.540000 0.5757 0.5761 0.5766 0.5771 0.5776
3509.576806 0.5781 0.5786 0.5791 0.5794 0.5793
3514.613611 0.5791 0.5790 0.5789 0.5788 0.5785
3519.650417 0.5782 0.5779 0.5775 0.5772 0.5768
3524.687222 0.5765 0.5762 0.5759 0.5756 0.5754
3529.724028 0.5751 0.5749 0.5753 0.5757 0.5762
3534.760833 0.5766 0.5770 0.5775 0.5780 0.5786
3539.797639 0.5793 0.5799 0.5806 0.5813 0.5820
3544.834444 0.5829 0.5837 0.5846 0.5854 0.5863
3549.871250 0.5871 0.5880 0.5890 0.5901 0.5912
3554.908056 0.5923 0.5934 0.5945 0.5949 0.5951
3559.944861 0.5953 0.5954 0.5956 0.5958 0.5959
3564.981667 0.5961 0.5963 0.5964 0.5966 0.5968
3570.018472 0.5969 0.5972 0.5975 0.5978 0.5981
3575.055278 0.5983 0.5986 0.5989 0.5992 0.5994
3580.092083 0.5997 0.6000 0.6003 0.6007 0.6010
3585.128889 0.6014 0.6018 0.6021 0.6025 0.6029
3590.165694 0.6032 0.6036 0.6040 0.6043 0.6047
3595.202500 0.6049 0.6051 0.6053 0.6055 0.6058
3600.239306 0.6060 0.6062 0.6064 0.6066 0.6068
3605.276111 0.6070 0.6073 0.6075 0.6077 0.6080
3610.312917 0.6082 0.6084 0.6087 0.6089 0.6092
3615.349722 0.6094 0.6097 0.6099 0.6101 0.6104
3620.386528 0.6106 0.6110 0.6117 0.6125 0.6133
3625.423333 0.6141 0.6149 0.6157 0.6165 0.6173
3630.460139 0.6182 0.6191 0.6200 0.6209 0.6218
3635.496944 0.6227 0.6237 0.6246 0.6253 0.6256
3640.533750 0.6259 0.6262 0.6265 0.6268 0.6271
3645.570556 0.6274 0.6275 0.6277 0.6278 0.6279
3650.607361 0.6281 0.6282 0.6282 0.6282 0.6281
3655.644167 0.6281 0.6281 0.6281 0.6280 0.6280
3660.680972 0.6282 0.6284 0.6286 0.6288 0.6290
3665.717778 0.6292 0.6294 0.6296 0.6298 0.6299
3670.754583 0.6302 0.6305 0.6312 0.6318 0.6325
3675.791389 0.6331 0.6337 0.6341 0.6346 0.6351
3680.828194 0.6356 0.6361 0.6366 0.6370 0.6375
3685.865000 0.6377 0.6378 0.6379 0.6380 0.6381
3690.901806 0.6382 0.6383 0.6384 0.6385 0.6385
3695.938611 0.6386 0.6387 0.6388 0.6389 0.6390
3700.975417 0.6391 0.6392 0.6393 0.6394 0.6395
3706.012222 0.6396 0.6397 0.6398 0.6399 0.6400
3711.049028 0.6401 0.6402 0.6402 0.6403 0.6404
3716.085833 0.6405 0.6406 0.6407 0.6408 0.6409
3721.122639 0.6410 0.6411 0.6411 0.6412 0.6413
3726.159444 0.6414 0.6415 0.6416 0.6417 0.6418
3731.196250 0.6419 0.6419 0.6420 0.6421 0.6421
3736.233056 0.6422 0.6423 0.6423 0.6424 0.6424
3741.269861 0.6425 0.6426 0.6426 0.6427 0.6427
3746.306667 0.6428 0.6428 0.6429 0.6430 0.6430
3751.343472 0.6431 0.6431 0.6433 0.6434 0.6436
3756.380278 0.6438 0.6439 0.6441 0.6443 0.6445
3761.417083 0.6446 0.6448 0.6450 0.6451 0.6453
3766.453889 0.6455 0.6457 0.6458 0.6460 0.6462
3771.490694 0.6463 0.6465 0.6467 0.6469 0.6471
3776.527500 0.6474 0.6476 0.6478 0.6480 0.6482
3781.564306 0.6484 0.6486 0.6488 0.6490 0.6493
3786.601111 0.6495 0.6497 0.6499 0.6501 0.6503
3791.637917 0.6504 0.6503 0.6502 0.6502 0.6501
3796.674722 0.6500 0.6499 0.6498 0.6497 0.6496
3801.711528 0.6495 0.6493 0.6490 0.6486 0.6483
3806.748333 0.6480 0.6476 0.6473 0.6470 0.6466
3811.785139 0.6463 0.6460 0.6456 0.6453 0.6450
3816.821944 0.6446 0.6443 0.6440 0.6436 0.6435
3821.858750 0.6437 0.6439 0.6441 0.6443 0.6446
3826.895556 0.6448 0.6450 0.6452 0.6455 0.6458
3831.932361 0.6463 0.6468 0.6472 0.6477 0.6481
3836.969167 0.6486 0.6490 0.6494 0.6495 0.6495
3842.005972 0.6495 0.6496 0.6496 0.6496 0.6496
3847.042778 0.6496 0.6496 0.6495 0.6495 0.6494
3852.079583 0.6494 0.6493 0.6493 0.6492 0.6491
3857.116389 0.6491 0.6490 0.6489 0.6487 0.6486
3862.153194 0.6484 0.6483 0.6481 0.6480 0.6478
3867.190000 0.6477 0.6475 0.6474 0.6472 0.6471
3872.226806 0.6470 0.6468 0.6467 0.6465 0.6464
3877.263611 0.6462 0.6461 0.6459 0.6458 0.6456
3882.300417 0.6455 0.6453 0.6451 0.6450 0.6448
3887.337222 0.6447 0.6445 0.6444 0.6442 0.6441
3892.374028 0.6439 0.6438 0.6436 0.6435 0.6433
3897.410833 0.6430 0.6428 0.6425 0.6423 0.6420
3902.447639 0.6418 0.6415 0.6412 0.6410 0.6407
3907.484444 0.6404 0.6402 0.6399 0.6397 0.6394
3912.521250 0.6391 0.6391 0.6391 0.6391 0.6390
3917.558056 0.6390 0.6390 0.6390 0.6389 0.6389
3922.594861 0.6389 0.6389 0.6388 0.6388 0.6388
3927.631667 0.6388 0.6387 0.6388 0.6389 0.6391
3932.668472 0.6392 0.6393 0.6394 0.6395 0.6396
3937.705278 0.6397 0.6399 0.6400 0.6401 0.6402
3942.742083 0.6403 0.6404 0.6404 0.6405 0.6406
3947.778889 0.6407 0.6408 0.6409 0.6410 0.6410
3952.815694 0.6410 0.6407 0.6403 0.6400 0.6396
3957.852500 0.6393 0.6390 0.6386 0.6382 0.6381
3962.889306 0.6379 0.6377 0.6376 0.6374 0.6372
3967.926111 0.6370 0.6369 0.6372 0.6375 0.6378
3972.962917 0.6381 0.6384 0.6389 0.6397 0.6405
3977.999722 0.6413 0.6421 0.6426 0.6428 0.6430
3983.036528 0.6432 0.6430 0.6427 0.6424 0.6422
3988.073333 0.6419 0.6408 0.6412 0.6408 0.6404
3993.110139 0.6400 0.6399 0.6399 0.6398 0.6397
3998.146944 0.6399 0.6402 0.6404 0.6412 0.6425
4003.183750 0.6448 0.6473 0.6497 0.6528 0.6571
4008.220556 0.6639 0.6708 0.6776 0.6780
##END=
