##TITLE=PRAMOXINE HYDROCHLORIDE
##JCAMP-DX=4.24
$$ By DXEDIT 1.05 (RS McDonald)
##DATA TYPE=INFRARED SPECTRUM
##CLASS=COBLENTZ III
##OWNER=COBLENTZ SOC.
Collection (C) 2018 copyright by the U.S. Secretary of Commerce
on behalf of the United States of America. All rights reserved.
##DATE=1962/04/24
##NAMES=4-[3-(4-butoxyphenoxy)propyl]morpholine hydrochloride
4-[3-(p-BUTOXYPHENOXY)PROPYL]MORPHOLINE HYDROCHLORIDE
##MOLFORM=C17 H28 Cl N O3
##SOURCE REFERENCE=COBLENTZ NO. 05107
##$NIST ID=B6005107
##$NIST SOURCE=COBLENTZ
##$NIST IMAGE=cob5107
##SPECTROMETER/DATA SYSTEM=PERKIN-ELMER 21 (GRATING)
##INSTRUMENT PARAMETERS=FILTER AT ABOUT 10 MICRONS
##STATE=SOLID (1 mg / 200 mg KCl DISC) VS KCl
##PATH LENGTH=0.055 CM (THICKNESS)
$$ SPECTRAL FEATURE AT 998 CM^-^1 IS AN ARTIFACT CAUSED BY FILTER CHANGE
##SAMPLING PROCEDURE=TRANSMISSION
##RESOLUTION=2
##DATA PROCESSING=DIGITIZED BY COBLENTZ SOCIETY (BATCH I) FROM HARD COPY
##XUNITS=1/CM
##YUNITS=TRANSMITTANCE
##XLABEL=Wavenumbers (cm-1)
##YLABEL=Transmittance
##XFACTOR=1
##YFACTOR=1
##DELTAX=1
##FIRSTX=4000
##LASTX=667
##FIRSTY=0.5174
##MAXX=4000
##MINX=667
##MAXY=0.9374
##MINY=0.0738
##NPOINTS=3334
##XYDATA=(X++(Y..Y))
4000.000000 0.5174 0.5176 0.5179 0.5181 0.5184
3995.000000 0.5186 0.5189 0.5191 0.5193 0.5195
3990.000000 0.5197 0.5199 0.5201 0.5203 0.5205
3985.000000 0.5206 0.5208 0.5210 0.5212 0.5212
3980.000000 0.5215 0.5217 0.5219 0.5220 0.5222
3975.000000 0.5224 0.5225 0.5227 0.5229 0.5231
3970.000000 0.5232 0.5234 0.5236 0.5237 0.5239
3965.000000 0.5241 0.5242 0.5244 0.5245 0.5247
3960.000000 0.5249 0.5251 0.5252 0.5254 0.5256
3955.000000 0.5258 0.5259 0.5260 0.5262 0.5265
3950.000000 0.5267 0.5268 0.5270 0.5271 0.5273
3945.000000 0.5275 0.5276 0.5278 0.5279 0.5280
3940.000000 0.5281 0.5282 0.5283 0.5285 0.5285
3935.000000 0.5286 0.5287 0.5288 0.5289 0.5289
3930.000000 0.5290 0.5291 0.5292 0.5293 0.5294
3925.000000 0.5295 0.5296 0.5297 0.5298 0.5299
3920.000000 0.5300 0.5301 0.5302 0.5303 0.5304
3915.000000 0.5305 0.5306 0.5307 0.5308 0.5309
3910.000000 0.5310 0.5310 0.5312 0.5312 0.5314
3905.000000 0.5315 0.5316 0.5317 0.5318 0.5319
3900.000000 0.5320 0.5321 0.5322 0.5323 0.5324
3895.000000 0.5325 0.5326 0.5327 0.5328 0.5329
3890.000000 0.5330 0.5331 0.5332 0.5333 0.5334
3885.000000 0.5335 0.5335 0.5336 0.5337 0.5338
3880.000000 0.5338 0.5339 0.5339 0.5340 0.5340
3875.000000 0.5341 0.5341 0.5342 0.5342 0.5343
3870.000000 0.5343 0.5344 0.5344 0.5345 0.5345
3865.000000 0.5346 0.5346 0.5347 0.5347 0.5348
3860.000000 0.5349 0.5349 0.5350 0.5350 0.5351
3855.000000 0.5351 0.5352 0.5352 0.5353 0.5353
3850.000000 0.5353 0.5354 0.5354 0.5354 0.5355
3845.000000 0.5355 0.5356 0.5356 0.5357 0.5357
3840.000000 0.5358 0.5359 0.5360 0.5362 0.5364
3835.000000 0.5366 0.5367 0.5369 0.5371 0.5372
3830.000000 0.5374 0.5376 0.5377 0.5379 0.5381
3825.000000 0.5382 0.5384 0.5386 0.5388 0.5389
3820.000000 0.5391 0.5393 0.5394 0.5396 0.5398
3815.000000 0.5400 0.5401 0.5403 0.5405 0.5406
3810.000000 0.5408 0.5410 0.5412 0.5414 0.5416
3805.000000 0.5418 0.5420 0.5421 0.5423 0.5425
3800.000000 0.5426 0.5428 0.5430 0.5432 0.5433
3795.000000 0.5435 0.5437 0.5439 0.5440 0.5442
3790.000000 0.5444 0.5446 0.5447 0.5449 0.5451
3785.000000 0.5454 0.5456 0.5458 0.5460 0.5462
3780.000000 0.5464 0.5466 0.5468 0.5470 0.5472
3775.000000 0.5475 0.5477 0.5479 0.5481 0.5483
3770.000000 0.5485 0.5487 0.5489 0.5491 0.5494
3765.000000 0.5496 0.5498 0.5500 0.5502 0.5504
3760.000000 0.5506 0.5508 0.5510 0.5512 0.5515
3755.000000 0.5517 0.5519 0.5521 0.5523 0.5525
3750.000000 0.5528 0.5530 0.5532 0.5534 0.5536
3745.000000 0.5538 0.5540 0.5542 0.5545 0.5547
3740.000000 0.5549 0.5551 0.5553 0.5555 0.5557
3735.000000 0.5559 0.5560 0.5562 0.5564 0.5566
3730.000000 0.5567 0.5569 0.5570 0.5572 0.5573
3725.000000 0.5574 0.5576 0.5577 0.5578 0.5580
3720.000000 0.5581 0.5582 0.5583 0.5585 0.5586
3715.000000 0.5587 0.5589 0.5590 0.5591 0.5593
3710.000000 0.5594 0.5596 0.5597 0.5598 0.5600
3705.000000 0.5601 0.5602 0.5603 0.5605 0.5606
3700.000000 0.5607 0.5609 0.5610 0.5610 0.5612
3695.000000 0.5614 0.5616 0.5617 0.5618 0.5620
3690.000000 0.5621 0.5622 0.5624 0.5625 0.5626
3685.000000 0.5627 0.5628 0.5629 0.5630 0.5631
3680.000000 0.5633 0.5634 0.5635 0.5636 0.5637
3675.000000 0.5638 0.5639 0.5640 0.5641 0.5643
3670.000000 0.5644 0.5645 0.5646 0.5647 0.5648
3665.000000 0.5649 0.5650 0.5652 0.5653 0.5654
3660.000000 0.5655 0.5656 0.5657 0.5658 0.5659
3655.000000 0.5660 0.5662 0.5662 0.5664 0.5665
3650.000000 0.5666 0.5667 0.5668 0.5669 0.5671
3645.000000 0.5672 0.5673 0.5674 0.5675 0.5676
3640.000000 0.5677 0.5679 0.5679 0.5680 0.5681
3635.000000 0.5682 0.5683 0.5684 0.5684 0.5685
3630.000000 0.5685 0.5685 0.5686 0.5686 0.5686
3625.000000 0.5687 0.5687 0.5688 0.5688 0.5689
3620.000000 0.5689 0.5690 0.5690 0.5691 0.5691
3615.000000 0.5692 0.5692 0.5692 0.5693 0.5693
3610.000000 0.5694 0.5694 0.5694 0.5695 0.5695
3605.000000 0.5695 0.5696 0.5696 0.5697 0.5697
3600.000000 0.5697 0.5698 0.5698 0.5698 0.5698
3595.000000 0.5698 0.5698 0.5698 0.5698 0.5697
3590.000000 0.5696 0.5695 0.5694 0.5694 0.5693
3585.000000 0.5692 0.5691 0.5690 0.5689 0.5688
3580.000000 0.5687 0.5686 0.5686 0.5685 0.5684
3575.000000 0.5683 0.5682 0.5681 0.5680 0.5679
3570.000000 0.5678 0.5678 0.5677 0.5676 0.5675
3565.000000 0.5674 0.5674 0.5673 0.5672 0.5671
3560.000000 0.5670 0.5669 0.5668 0.5667 0.5666
3555.000000 0.5666 0.5665 0.5664 0.5662 0.5662
3550.000000 0.5660 0.5660 0.5659 0.5658 0.5657
3545.000000 0.5657 0.5656 0.5655 0.5654 0.5653
3540.000000 0.5652 0.5651 0.5650 0.5649 0.5648
3535.000000 0.5647 0.5646 0.5645 0.5644 0.5643
3530.000000 0.5642 0.5641 0.5640 0.5639 0.5638
3525.000000 0.5637 0.5636 0.5635 0.5634 0.5633
3520.000000 0.5632 0.5631 0.5630 0.5629 0.5628
3515.000000 0.5627 0.5626 0.5625 0.5624 0.5623
3510.000000 0.5622 0.5622 0.5621 0.5620 0.5619
3505.000000 0.5618 0.5617 0.5616 0.5615 0.5614
3500.000000 0.5612 0.5612 0.5610 0.5610 0.5609
3495.000000 0.5608 0.5607 0.5606 0.5605 0.5604
3490.000000 0.5603 0.5602 0.5601 0.5600 0.5599
3485.000000 0.5598 0.5597 0.5596 0.5595 0.5594
3480.000000 0.5593 0.5592 0.5590 0.5589 0.5588
3475.000000 0.5587 0.5586 0.5585 0.5584 0.5583
3470.000000 0.5583 0.5582 0.5581 0.5580 0.5579
3465.000000 0.5578 0.5577 0.5576 0.5575 0.5574
3460.000000 0.5573 0.5572 0.5571 0.5570 0.5570
3455.000000 0.5569 0.5569 0.5568 0.5568 0.5568
3450.000000 0.5567 0.5567 0.5566 0.5566 0.5566
3445.000000 0.5566 0.5566 0.5565 0.5565 0.5565
3440.000000 0.5565 0.5565 0.5564 0.5564 0.5562
3435.000000 0.5562 0.5562 0.5562 0.5562 0.5562
3430.000000 0.5562 0.5560 0.5560 0.5560 0.5560
3425.000000 0.5560 0.5559 0.5559 0.5559 0.5559
3420.000000 0.5559 0.5559 0.5559 0.5559 0.5559
3415.000000 0.5559 0.5559 0.5559 0.5560 0.5560
3410.000000 0.5560 0.5560 0.5562 0.5562 0.5562
3405.000000 0.5562 0.5562 0.5562 0.5562 0.5564
3400.000000 0.5565 0.5567 0.5568 0.5569 0.5571
3395.000000 0.5573 0.5575 0.5577 0.5579 0.5581
3390.000000 0.5583 0.5585 0.5587 0.5590 0.5594
3385.000000 0.5597 0.5601 0.5605 0.5609 0.5612
3380.000000 0.5617 0.5621 0.5625 0.5629 0.5632
3375.000000 0.5636 0.5640 0.5644 0.5647 0.5651
3370.000000 0.5655 0.5659 0.5662 0.5666 0.5670
3365.000000 0.5674 0.5677 0.5681 0.5685 0.5689
3360.000000 0.5693 0.5697 0.5701 0.5705 0.5708
3355.000000 0.5712 0.5716 0.5720 0.5724 0.5727
3350.000000 0.5731 0.5735 0.5739 0.5742 0.5746
3345.000000 0.5750 0.5754 0.5758 0.5762 0.5766
3340.000000 0.5770 0.5774 0.5778 0.5781 0.5785
3335.000000 0.5789 0.5793 0.5797 0.5801 0.5804
3330.000000 0.5808 0.5812 0.5816 0.5820 0.5824
3325.000000 0.5828 0.5832 0.5836 0.5840 0.5844
3320.000000 0.5848 0.5852 0.5855 0.5859 0.5862
3315.000000 0.5866 0.5868 0.5871 0.5873 0.5875
3310.000000 0.5877 0.5879 0.5880 0.5882 0.5884
3305.000000 0.5886 0.5888 0.5890 0.5891 0.5893
3300.000000 0.5895 0.5896 0.5898 0.5900 0.5901
3295.000000 0.5903 0.5905 0.5907 0.5909 0.5910
3290.000000 0.5912 0.5915 0.5918 0.5920 0.5922
3285.000000 0.5924 0.5926 0.5928 0.5930 0.5932
3280.000000 0.5934 0.5936 0.5938 0.5941 0.5943
3275.000000 0.5945 0.5947 0.5950 0.5952 0.5954
3270.000000 0.5956 0.5958 0.5960 0.5962 0.5967
3265.000000 0.5970 0.5973 0.5976 0.5979 0.5982
3260.000000 0.5985 0.5988 0.5991 0.5995 0.5998
3255.000000 0.6001 0.6004 0.6007 0.6010 0.6012
3250.000000 0.6017 0.6020 0.6023 0.6026 0.6029
3245.000000 0.6032 0.6036 0.6039 0.6042 0.6045
3240.000000 0.6048 0.6051 0.6055 0.6058 0.6060
3235.000000 0.6065 0.6068 0.6071 0.6074 0.6077
3230.000000 0.6080 0.6084 0.6087 0.6090 0.6094
3225.000000 0.6097 0.6100 0.6103 0.6106 0.6109
3220.000000 0.6112 0.6115 0.6118 0.6121 0.6123
3215.000000 0.6125 0.6127 0.6129 0.6132 0.6134
3210.000000 0.6137 0.6139 0.6141 0.6143 0.6146
3205.000000 0.6148 0.6150 0.6152 0.6154 0.6157
3200.000000 0.6159 0.6160 0.6162 0.6165 0.6168
3195.000000 0.6171 0.6173 0.6176 0.6179 0.6183
3190.000000 0.6186 0.6190 0.6193 0.6197 0.6200
3185.000000 0.6204 0.6207 0.6210 0.6215 0.6218
3180.000000 0.6221 0.6224 0.6227 0.6229 0.6232
3175.000000 0.6233 0.6235 0.6237 0.6238 0.6240
3170.000000 0.6241 0.6243 0.6244 0.6246 0.6247
3165.000000 0.6249 0.6250 0.6252 0.6254 0.6256
3160.000000 0.6257 0.6259 0.6260 0.6262 0.6262
3155.000000 0.6265 0.6266 0.6268 0.6270 0.6271
3150.000000 0.6273 0.6275 0.6276 0.6277 0.6277
3145.000000 0.6278 0.6279 0.6280 0.6281 0.6281
3140.000000 0.6282 0.6283 0.6284 0.6284 0.6285
3135.000000 0.6286 0.6287 0.6287 0.6288 0.6289
3130.000000 0.6290 0.6291 0.6292 0.6292 0.6293
3125.000000 0.6294 0.6294 0.6295 0.6307 0.6297
3120.000000 0.6297 0.6298 0.6299 0.6300 0.6300
3115.000000 0.6301 0.6301 0.6301 0.6301 0.6301
3110.000000 0.6301 0.6300 0.6300 0.6299 0.6299
3105.000000 0.6298 0.6298 0.6297 0.6297 0.6296
3100.000000 0.6295 0.6294 0.6294 0.6293 0.6293
3095.000000 0.6292 0.6291 0.6288 0.6286 0.6283
3090.000000 0.6280 0.6276 0.6272 0.6269 0.6265
3085.000000 0.6262 0.6258 0.6255 0.6252 0.6250
3080.000000 0.6247 0.6245 0.6243 0.6242 0.6240
3075.000000 0.6238 0.6237 0.6235 0.6233 0.6231
3070.000000 0.6230 0.6228 0.6226 0.6225 0.6223
3065.000000 0.6222 0.6220 0.6218 0.6217 0.6215
3060.000000 0.6214 0.6212 0.6210 0.6209 0.6207
3055.000000 0.6206 0.6205 0.6204 0.6203 0.6202
3050.000000 0.6201 0.6200 0.6199 0.6198 0.6197
3045.000000 0.6195 0.6194 0.6193 0.6192 0.6191
3040.000000 0.6190 0.6189 0.6188 0.6187 0.6186
3035.000000 0.6185 0.6184 0.6179 0.6174 0.6169
3030.000000 0.6164 0.6158 0.6152 0.6146 0.6140
3025.000000 0.6134 0.6128 0.6123 0.6107 0.6091
3020.000000 0.6074 0.6052 0.6016 0.5979 0.5943
3015.000000 0.5910 0.5881 0.5851 0.5822 0.5802
3010.000000 0.5782 0.5762 0.5743 0.5724 0.5704
3005.000000 0.5684 0.5664 0.5644 0.5624 0.5605
3000.000000 0.5585 0.5565 0.5545 0.5520 0.5491
2995.000000 0.5462 0.5433 0.5400 0.5367 0.5334
2990.000000 0.5280 0.5197 0.5114 0.5031 0.4985
2985.000000 0.4945 0.4906 0.4866 0.4825 0.4785
2980.000000 0.4745 0.4705 0.4664 0.4624 0.4584
2975.000000 0.4543 0.4503 0.4462 0.4422 0.4382
2970.000000 0.4341 0.4301 0.4260 0.4220 0.4180
2965.000000 0.4139 0.4098 0.4058 0.4016 0.3976
2960.000000 0.3934 0.3895 0.3854 0.3812 0.3772
2955.000000 0.3730 0.3695 0.3658 0.3621 0.3604
2950.000000 0.3599 0.3594 0.3589 0.3584 0.3579
2945.000000 0.3574 0.3568 0.3564 0.3559 0.3555
2940.000000 0.3555 0.3554 0.3554 0.3553 0.3553
2935.000000 0.3553 0.3552 0.3552 0.3552 0.3552
2930.000000 0.3554 0.3557 0.3559 0.3562 0.3566
2925.000000 0.3568 0.3571 0.3574 0.3577 0.3580
2920.000000 0.3586 0.3595 0.3603 0.3612 0.3622
2915.000000 0.3630 0.3641 0.3650 0.3662 0.3672
2910.000000 0.3680 0.3682 0.3687 0.3690 0.3693
2905.000000 0.3696 0.3698 0.3700 0.3700 0.3700
2900.000000 0.3702 0.3702 0.3702 0.3702 0.3699
2895.000000 0.3695 0.3725 0.3687 0.3684 0.3680
2890.000000 0.3676 0.3673 0.3671 0.3668 0.3664
2885.000000 0.3662 0.3660 0.3658 0.3656 0.3653
2880.000000 0.3650 0.3650 0.3650 0.3650 0.3650
2875.000000 0.3652 0.3653 0.3654 0.3654 0.3628
2870.000000 0.3668 0.3714 0.3760 0.3807 0.3866
2865.000000 0.3926 0.3984 0.4044 0.4104 0.4162
2860.000000 0.4223 0.4283 0.4342 0.4402 0.4460
2855.000000 0.4521 0.4580 0.4640 0.4700 0.4760
2850.000000 0.4820 0.4880 0.4940 0.4986 0.5007
2845.000000 0.5028 0.5049 0.5064 0.5079 0.5094
2840.000000 0.5109 0.5125 0.5140 0.5155 0.5170
2835.000000 0.5185 0.5201 0.5216 0.5231 0.5247
2830.000000 0.5264 0.5281 0.5298 0.5317 0.5335
2825.000000 0.5353 0.5371 0.5389 0.5408 0.5426
2820.000000 0.5444 0.5462 0.5480 0.5499 0.5517
2815.000000 0.5534 0.5550 0.5565 0.5581 0.5596
2810.000000 0.5610 0.5625 0.5640 0.5655 0.5669
2805.000000 0.5679 0.5688 0.5698 0.5706 0.5714
2800.000000 0.5722 0.5730 0.5737 0.5745 0.5753
2795.000000 0.5760 0.5768 0.5775 0.5781 0.5787
2790.000000 0.5793 0.5798 0.5804 0.5810 0.5814
2785.000000 0.5819 0.5823 0.5827 0.5830 0.5834
2780.000000 0.5837 0.5840 0.5843 0.5845 0.5846
2775.000000 0.5848 0.5849 0.5849 0.5856 0.5847
2770.000000 0.5844 0.5841 0.5838 0.5835 0.5832
2765.000000 0.5830 0.5829 0.5828 0.5827 0.5827
2760.000000 0.5826 0.5825 0.5824 0.5823 0.5822
2755.000000 0.5822 0.5821 0.5820 0.5819 0.5818
2750.000000 0.5817 0.5817 0.5816 0.5816 0.5816
2745.000000 0.5816 0.5816 0.5816 0.5816 0.5816
2740.000000 0.5816 0.5816 0.5816 0.5816 0.5816
2735.000000 0.5816 0.5816 0.5816 0.5816 0.5816
2730.000000 0.5816 0.5816 0.5816 0.5816 0.5815
2725.000000 0.5815 0.5814 0.5812 0.5810 0.5809
2720.000000 0.5807 0.5804 0.5802 0.5800 0.5798
2715.000000 0.5796 0.5793 0.5791 0.5789 0.5786
2710.000000 0.5782 0.5779 0.5773 0.5765 0.5757
2705.000000 0.5750 0.5742 0.5734 0.5726 0.5718
2700.000000 0.5710 0.5702 0.5694 0.5687 0.5674
2695.000000 0.5662 0.5649 0.5636 0.5623 0.5610
2690.000000 0.5600 0.5589 0.5579 0.5569 0.5559
2685.000000 0.5550 0.5540 0.5530 0.5521 0.5512
2680.000000 0.5503 0.5496 0.5491 0.5485 0.5480
2675.000000 0.5474 0.5469 0.5462 0.5457 0.5452
2670.000000 0.5450 0.5447 0.5445 0.5444 0.5442
2665.000000 0.5440 0.5438 0.5437 0.5435 0.5433
2660.000000 0.5431 0.5429 0.5428 0.5426 0.5424
2655.000000 0.5422 0.5421 0.5419 0.5417 0.5415
2650.000000 0.5414 0.5412 0.5410 0.5408 0.5406
2645.000000 0.5404 0.5400 0.5396 0.5391 0.5386
2640.000000 0.5381 0.5376 0.5371 0.5366 0.5360
2635.000000 0.5357 0.5352 0.5347 0.5342 0.5333
2630.000000 0.5322 0.5312 0.5294 0.5274 0.5254
2625.000000 0.5235 0.5215 0.5189 0.5149 0.5110
2620.000000 0.5076 0.5049 0.5021 0.4997 0.4974
2615.000000 0.4951 0.4924 0.4897 0.4868 0.4835
2610.000000 0.4802 0.4768 0.4735 0.4701 0.4668
2605.000000 0.4635 0.4602 0.4569 0.4536 0.4502
2600.000000 0.4469 0.4436 0.4402 0.4369 0.4336
2595.000000 0.4302 0.4268 0.4234 0.4201 0.4167
2590.000000 0.4134 0.4100 0.4066 0.4032 0.4000
2585.000000 0.3966 0.3932 0.3898 0.3864 0.3830
2580.000000 0.3797 0.3762 0.3729 0.3695 0.3660
2575.000000 0.3627 0.3593 0.3559 0.3525 0.3491
2570.000000 0.3457 0.3423 0.3389 0.3355 0.3320
2565.000000 0.3286 0.3250 0.3216 0.3182 0.3159
2560.000000 0.3148 0.3135 0.3128 0.3120 0.3113
2555.000000 0.3108 0.3103 0.3101 0.3101 0.3100
2550.000000 0.3100 0.3099 0.3098 0.3098 0.3098
2545.000000 0.3097 0.3096 0.3095 0.3095 0.3095
2540.000000 0.3097 0.3100 0.3104 0.3107 0.3111
2535.000000 0.3114 0.3118 0.3122 0.3130 0.3138
2530.000000 0.3146 0.3154 0.3162 0.3171 0.3180
2525.000000 0.3190 0.3202 0.3214 0.3226 0.3238
2520.000000 0.3250 0.3262 0.3274 0.3286 0.3298
2515.000000 0.3309 0.3321 0.3332 0.3346 0.3359
2510.000000 0.3372 0.3380 0.3389 0.3395 0.3434
2505.000000 0.3404 0.3406 0.3409 0.3410 0.3412
2500.000000 0.3412 0.3389 0.3366 0.3337 0.3303
2495.000000 0.3268 0.3234 0.3200 0.3167 0.3132
2490.000000 0.3098 0.3064 0.3030 0.2995 0.2961
2485.000000 0.2926 0.2892 0.2858 0.2823 0.2789
2480.000000 0.2754 0.2719 0.2684 0.2650 0.2616
2475.000000 0.2581 0.2546 0.2511 0.2476 0.2441
2470.000000 0.2406 0.2371 0.2335 0.2313 0.2291
2465.000000 0.2277 0.2267 0.2266 0.2264 0.2261
2460.000000 0.2259 0.2259 0.2259 0.2260 0.2263
2455.000000 0.2269 0.2276 0.2283 0.2290 0.2297
2450.000000 0.2315 0.2333 0.2351 0.2368 0.2384
2445.000000 0.2396 0.2407 0.2447 0.2494 0.2542
2440.000000 0.2589 0.2637 0.2684 0.2732 0.2779
2435.000000 0.2827 0.2875 0.2922 0.2970 0.3018
2430.000000 0.3066 0.3114 0.3161 0.3209 0.3257
2425.000000 0.3305 0.3353 0.3400 0.3449 0.3497
2420.000000 0.3545 0.3593 0.3642 0.3690 0.3738
2415.000000 0.3787 0.3834 0.3884 0.3932 0.3980
2410.000000 0.4029 0.4078 0.4127 0.4176 0.4224
2405.000000 0.4273 0.4322 0.4358 0.4392 0.4422
2400.000000 0.4450 0.4476 0.4497 0.4518 0.4537
2395.000000 0.4557 0.4571 0.4583 0.4596 0.4608
2390.000000 0.4620 0.4631 0.4642 0.4650 0.4658
2385.000000 0.4665 0.4673 0.4680 0.4688 0.4695
2380.000000 0.4703 0.4710 0.4716 0.4722 0.4728
2375.000000 0.4734 0.4739 0.4745 0.4750 0.4756
2370.000000 0.4762 0.4767 0.4772 0.4778 0.4784
2365.000000 0.4790 0.4797 0.4804 0.4814 0.4825
2360.000000 0.4835 0.4844 0.4855 0.4866 0.4880
2355.000000 0.4901 0.4922 0.4942 0.4962 0.4980
2350.000000 0.4997 0.5012 0.5029 0.5044 0.5060
2345.000000 0.5075 0.5088 0.5101 0.5112 0.5124
2340.000000 0.5137 0.5149 0.5158 0.5166 0.5174
2335.000000 0.5182 0.5190 0.5199 0.5208 0.5220
2330.000000 0.5231 0.5246 0.5262 0.5288 0.5318
2325.000000 0.5348 0.5377 0.5408 0.5441 0.5475
2320.000000 0.5515 0.5555 0.5595 0.5635 0.5744
2315.000000 0.5857 0.5906 0.5941 0.5972 0.6001
2310.000000 0.6030 0.6059 0.6090 0.6123 0.6160
2305.000000 0.6210 0.6259 0.6305 0.6350 0.6378
2300.000000 0.6405 0.6426 0.6449 0.6460 0.6468
2295.000000 0.6475 0.6480 0.6486 0.6491 0.6497
2290.000000 0.6505 0.6511 0.6519 0.6528 0.6536
2285.000000 0.6544 0.6551 0.6560 0.6569 0.6578
2280.000000 0.6588 0.6597 0.6607 0.6615 0.6625
2275.000000 0.6636 0.6646 0.6657 0.6668 0.6682
2270.000000 0.6695 0.6708 0.6721 0.6734 0.6747
2265.000000 0.6760 0.6772 0.6786 0.6799 0.6812
2260.000000 0.6825 0.6838 0.6851 0.6861 0.6874
2255.000000 0.6887 0.6899 0.6911 0.6924 0.6936
2250.000000 0.6948 0.6957 0.6965 0.6972 0.6981
2245.000000 0.6989 0.6997 0.7004 0.7011 0.7018
2240.000000 0.7026 0.7035 0.7043 0.7050 0.7058
2235.000000 0.7065 0.7074 0.7081 0.7089 0.7096
2230.000000 0.7104 0.7112 0.7121 0.7132 0.7141
2225.000000 0.7151 0.7161 0.7171 0.7181 0.7191
2220.000000 0.7201 0.7211 0.7219 0.7230 0.7240
2215.000000 0.7249 0.7258 0.7268 0.7278 0.7287
2210.000000 0.7297 0.7306 0.7318 0.7330 0.7344
2205.000000 0.7358 0.7372 0.7387 0.7401 0.7415
2200.000000 0.7437 0.7461 0.7486 0.7510 0.7539
2195.000000 0.7568 0.7575 0.7580 0.7584 0.7588
2190.000000 0.7591 0.7594 0.7597 0.7600 0.7603
2185.000000 0.7606 0.7608 0.7611 0.7612 0.7615
2180.000000 0.7618 0.7619 0.7621 0.7624 0.7625
2175.000000 0.7628 0.7630 0.7633 0.7637 0.7640
2170.000000 0.7644 0.7648 0.7651 0.7655 0.7658
2165.000000 0.7661 0.7665 0.7668 0.7672 0.7676
2160.000000 0.7680 0.7684 0.7688 0.7693 0.7697
2155.000000 0.7701 0.7706 0.7710 0.7714 0.7718
2150.000000 0.7722 0.7726 0.7731 0.7735 0.7739
2145.000000 0.7744 0.7748 0.7751 0.7757 0.7761
2140.000000 0.7765 0.7767 0.7768 0.7768 0.7769
2135.000000 0.7769 0.7769 0.7769 0.7768 0.7765
2130.000000 0.7764 0.7762 0.7761 0.7758 0.7757
2125.000000 0.7755 0.7753 0.7753 0.7753 0.7753
2120.000000 0.7753 0.7753 0.7753 0.7753 0.7753
2115.000000 0.7753 0.7753 0.7753 0.7753 0.7753
2110.000000 0.7753 0.7753 0.7754 0.7756 0.7757
2105.000000 0.7758 0.7760 0.7761 0.7762 0.7764
2100.000000 0.7765 0.7768 0.7769 0.7772 0.7776
2095.000000 0.7782 0.7786 0.7790 0.7795 0.7799
2090.000000 0.7803 0.7807 0.7811 0.7817 0.7821
2085.000000 0.7825 0.7828 0.7833 0.7838 0.7842
2080.000000 0.7846 0.7851 0.7855 0.7858 0.7862
2075.000000 0.7868 0.7871 0.7875 0.7880 0.7884
2070.000000 0.7885 0.7886 0.7886 0.7887 0.7887
2065.000000 0.7887 0.7887 0.7887 0.7888 0.7888
2060.000000 0.7888 0.7888 0.7888 0.7888 0.7888
2055.000000 0.7886 0.7885 0.7885 0.7884 0.7883
2050.000000 0.7881 0.7880 0.7880 0.7878 0.7878
2045.000000 0.7876 0.7876 0.7876 0.7875 0.7875
2040.000000 0.7875 0.7875 0.7875 0.7874 0.7874
2035.000000 0.7874 0.7872 0.7872 0.7874 0.7876
2030.000000 0.7880 0.7883 0.7886 0.7889 0.7891
2025.000000 0.7896 0.7901 0.7907 0.7912 0.7919
2020.000000 0.7925 0.7932 0.7938 0.7944 0.7949
2015.000000 0.7955 0.7961 0.7967 0.7971 0.7976
2010.000000 0.7982 0.7987 0.7992 0.7995 0.7999
2005.000000 0.8001 0.8004 0.8006 0.8008 0.8011
2000.000000 0.8014 0.8015 0.8018 0.8021 0.8024
1995.000000 0.8026 0.8030 0.8032 0.8035 0.8038
1990.000000 0.8041 0.8043 0.8046 0.8049 0.8051
1985.000000 0.8056 0.8060 0.8065 0.8068 0.8071
1980.000000 0.8075 0.8080 0.8084 0.8089 0.8094
1975.000000 0.8099 0.8104 0.8108 0.8114 0.8119
1970.000000 0.8125 0.8132 0.8140 0.8150 0.8160
1965.000000 0.8168 0.8178 0.8187 0.8194 0.8202
1960.000000 0.8204 0.8204 0.8204 0.8205 0.8205
1955.000000 0.8205 0.8205 0.8206 0.8206 0.8206
1950.000000 0.8207 0.8207 0.8208 0.8210 0.8211
1945.000000 0.8212 0.8214 0.8215 0.8216 0.8217
1940.000000 0.8218 0.8220 0.8221 0.8221 0.8223
1935.000000 0.8225 0.8227 0.8228 0.8231 0.8233
1930.000000 0.8236 0.8238 0.8240 0.8242 0.8244
1925.000000 0.8246 0.8249 0.8251 0.8253 0.8255
1920.000000 0.8257 0.8259 0.8262 0.8265 0.8268
1915.000000 0.8271 0.8274 0.8278 0.8281 0.8284
1910.000000 0.8287 0.8290 0.8294 0.8296 0.8298
1905.000000 0.8301 0.8303 0.8304 0.8306 0.8308
1900.000000 0.8309 0.8309 0.8308 0.8307 0.8305
1895.000000 0.8304 0.8304 0.8300 0.8295 0.8289
1890.000000 0.8283 0.8277 0.8271 0.8265 0.8258
1885.000000 0.8252 0.8246 0.8239 0.8234 0.8228
1880.000000 0.8228 0.8227 0.8225 0.8224 0.8221
1875.000000 0.8221 0.8218 0.8218 0.8217 0.8216
1870.000000 0.8216 0.8216 0.8216 0.8218 0.8221
1865.000000 0.8224 0.8225 0.8228 0.8232 0.8235
1860.000000 0.8238 0.8242 0.8248 0.8255 0.8262
1855.000000 0.8270 0.8275 0.8283 0.8290 0.8298
1850.000000 0.8305 0.8312 0.8320 0.8325 0.8333
1845.000000 0.8341 0.8347 0.8354 0.8360 0.8367
1840.000000 0.8374 0.8381 0.8388 0.8395 0.8402
1835.000000 0.8409 0.8416 0.8421 0.8428 0.8436
1830.000000 0.8444 0.8450 0.8457 0.8464 0.8471
1825.000000 0.8478 0.8487 0.8494 0.8501 0.8508
1820.000000 0.8516 0.8523 0.8530 0.8534 0.8537
1815.000000 0.8540 0.8543 0.8546 0.8549 0.8552
1810.000000 0.8554 0.8556 0.8556 0.8555 0.8555
1805.000000 0.8554 0.8554 0.8553 0.8552 0.8551
1800.000000 0.8551 0.8551 0.8550 0.8549 0.8549
1795.000000 0.8548 0.8547 0.8547 0.8546 0.8546
1790.000000 0.8546 0.8546 0.8547 0.8548 0.8550
1785.000000 0.8552 0.8553 0.8554 0.8555 0.8557
1780.000000 0.8558 0.8559 0.8560 0.8560 0.8561
1775.000000 0.8561 0.8562 0.8563 0.8563 0.8564
1770.000000 0.8564 0.8564 0.8563 0.8562 0.8561
1765.000000 0.8560 0.8558 0.8557 0.8557 0.8555
1760.000000 0.8554 0.8553 0.8551 0.8550 0.8548
1755.000000 0.8546 0.8545 0.8543 0.8542 0.8540
1750.000000 0.8538 0.8537 0.8535 0.8534 0.8534
1745.000000 0.8534 0.8533 0.8533 0.8532 0.8532
1740.000000 0.8532 0.8531 0.8531 0.8530 0.8530
1735.000000 0.8530 0.8528 0.8528 0.8528 0.8528
1730.000000 0.8527 0.8527 0.8527 0.8527 0.8527
1725.000000 0.8527 0.8528 0.8528 0.8528 0.8528
1720.000000 0.8530 0.8530 0.8531 0.8532 0.8532
1715.000000 0.8532 0.8533 0.8534 0.8534 0.8535
1710.000000 0.8535 0.8537 0.8539 0.8541 0.8542
1705.000000 0.8544 0.8546 0.8547 0.8549 0.8550
1700.000000 0.8552 0.8554 0.8556 0.8559 0.8561
1695.000000 0.8563 0.8565 0.8568 0.8570 0.8571
1690.000000 0.8574 0.8574 0.8574 0.8574 0.8575
1685.000000 0.8575 0.8575 0.8575 0.8575 0.8574
1680.000000 0.8573 0.8571 0.8570 0.8568 0.8567
1675.000000 0.8565 0.8560 0.8552 0.8544 0.8536
1670.000000 0.8527 0.8518 0.8511 0.8503 0.8495
1665.000000 0.8487 0.8478 0.8471 0.8467 0.8463
1660.000000 0.8458 0.8454 0.8447 0.8439 0.8431
1655.000000 0.8423 0.8415 0.8406 0.8398 0.8389
1650.000000 0.8380 0.8371 0.8363 0.8354 0.8348
1645.000000 0.8341 0.8335 0.8328 0.8321 0.8315
1640.000000 0.8309 0.8303 0.8298 0.8297 0.8296
1635.000000 0.8295 0.8299 0.8307 0.8314 0.8323
1630.000000 0.8330 0.8340 0.8350 0.8361 0.8371
1625.000000 0.8383 0.8394 0.8404 0.8413 0.8418
1620.000000 0.8425 0.8434 0.8440 0.8447 0.8455
1615.000000 0.8461 0.8468 0.8471 0.8475 0.8478
1610.000000 0.8481 0.8484 0.8487 0.8490 0.8492
1605.000000 0.8495 0.8498 0.8500 0.8502 0.8503
1600.000000 0.8505 0.8506 0.8508 0.8509 0.8511
1595.000000 0.8514 0.8518 0.8524 0.8528 0.8534
1590.000000 0.8539 0.8544 0.8548 0.8553 0.8557
1585.000000 0.8560 0.8563 0.8566 0.8568 0.8571
1580.000000 0.8571 0.8573 0.8574 0.8574 0.8575
1575.000000 0.8575 0.8575 0.8577 0.8581 0.8573
1570.000000 0.8568 0.8565 0.8562 0.8559 0.8556
1565.000000 0.8554 0.8547 0.8531 0.8508 0.8482
1560.000000 0.8456 0.8431 0.8408 0.8385 0.8361
1555.000000 0.8338 0.8314 0.8286 0.8255 0.8221
1550.000000 0.8189 0.8157 0.8124 0.8094 0.8062
1545.000000 0.8033 0.8001 0.7971 0.7940 0.7903
1540.000000 0.7861 0.7821 0.7780 0.7739 0.7686
1535.000000 0.7610 0.7525 0.7444 0.7371 0.7300
1530.000000 0.7228 0.7136 0.7018 0.6882 0.6686
1525.000000 0.6490 0.6265 0.5786 0.5242 0.4698
1520.000000 0.4153 0.3607 0.3061 0.2514 0.1967
1515.000000 0.1448 0.1176 0.1178 0.1165 0.1254
1510.000000 0.1538 0.1901 0.2264 0.2628 0.2991
1505.000000 0.3356 0.3721 0.4087 0.4453 0.4819
1500.000000 0.5186 0.5553 0.5922 0.6288 0.6372
1495.000000 0.6380 0.6400 0.6305 0.6088 0.5851
1490.000000 0.5614 0.5376 0.5138 0.4899 0.4660
1485.000000 0.4422 0.4182 0.3943 0.3703 0.3468
1480.000000 0.3402 0.3402 0.3409 0.3477 0.3587
1475.000000 0.3697 0.3808 0.3912 0.3984 0.4046
1470.000000 0.4107 0.4168 0.4224 0.4265 0.4283
1465.000000 0.4292 0.4300 0.4333 0.4315 0.4322
1460.000000 0.4323 0.4323 0.4310 0.4285 0.4214
1455.000000 0.4124 0.4064 0.4044 0.4037 0.4018
1450.000000 0.4034 0.4086 0.4250 0.4414 0.4579
1445.000000 0.4744 0.4909 0.5074 0.5240 0.5406
1440.000000 0.5572 0.5737 0.5904 0.6071 0.6136
1435.000000 0.6165 0.6174 0.6183 0.6190 0.6187
1430.000000 0.6187 0.6186 0.6184 0.6183 0.6178
1425.000000 0.6165 0.6112 0.6035 0.5958 0.5881
1420.000000 0.5804 0.5727 0.5681 0.5691 0.5694
1415.000000 0.5783 0.5903 0.6023 0.6142 0.6240
1410.000000 0.6287 0.6316 0.6327 0.6325 0.6320
1405.000000 0.6308 0.6297 0.6286 0.6277 0.6271
1400.000000 0.6268 0.6267 0.6266 0.6267 0.6312
1395.000000 0.6390 0.6487 0.6585 0.6682 0.6780
1390.000000 0.6878 0.6976 0.7074 0.7167 0.7208
1385.000000 0.7222 0.7235 0.7238 0.7233 0.7224
1380.000000 0.7217 0.7217 0.7221 0.7242 0.7271
1375.000000 0.7314 0.7371 0.7437 0.7498 0.7511
1370.000000 0.7524 0.7531 0.7537 0.7544 0.7551
1365.000000 0.7565 0.7584 0.7604 0.7626 0.7653
1360.000000 0.7680 0.7697 0.7703 0.7708 0.7715
1355.000000 0.7721 0.7726 0.7734 0.7741 0.7748
1350.000000 0.7758 0.7772 0.7790 0.7806 0.7825
1345.000000 0.7850 0.7874 0.7899 0.7924 0.7962
1340.000000 0.7999 0.8022 0.8033 0.8037 0.8036
1335.000000 0.8021 0.7999 0.7980 0.7962 0.7947
1330.000000 0.7940 0.7933 0.7926 0.7919 0.7914
1325.000000 0.7907 0.7900 0.7893 0.7886 0.7876
1320.000000 0.7865 0.7851 0.7840 0.7828 0.7815
1315.000000 0.7798 0.7755 0.7707 0.7642 0.7575
1310.000000 0.7521 0.7468 0.7425 0.7393 0.7371
1305.000000 0.7360 0.7354 0.7347 0.7340 0.7331
1300.000000 0.7308 0.7268 0.7133 0.6911 0.6691
1295.000000 0.6468 0.6247 0.6025 0.5802 0.5579
1290.000000 0.5356 0.5132 0.4938 0.4924 0.4935
1285.000000 0.5037 0.5228 0.5419 0.5610 0.5802
1280.000000 0.5994 0.6187 0.6379 0.6571 0.6642
1275.000000 0.6687 0.6635 0.6464 0.6262 0.6060
1270.000000 0.5859 0.5662 0.5598 0.5618 0.5617
1265.000000 0.5692 0.5814 0.5937 0.6059 0.6119
1260.000000 0.6155 0.6176 0.6187 0.6187 0.6187
1255.000000 0.6176 0.6154 0.6123 0.6067 0.5931
1250.000000 0.5644 0.5322 0.4999 0.4677 0.4354
1245.000000 0.4030 0.3707 0.3382 0.3057 0.2731
1240.000000 0.2405 0.2078 0.1757 0.1501 0.1315
1235.000000 0.1137 0.0960 0.0878 0.0817 0.0788
1230.000000 0.0774 0.0765 0.0759 0.0753 0.0748
1225.000000 0.0744 0.0745 0.0738 0.0739 0.0750
1220.000000 0.0785 0.0854 0.0943 0.1176 0.1459
1215.000000 0.1654 0.1844 0.2089 0.2355 0.2622
1210.000000 0.2889 0.3156 0.3424 0.3692 0.3960
1205.000000 0.4230 0.4500 0.4770 0.5040 0.5310
1200.000000 0.5582 0.5853 0.6056 0.6197 0.6395
1195.000000 0.6581 0.6758 0.6937 0.7089 0.7234
1190.000000 0.7391 0.7542 0.7661 0.7745 0.7817
1185.000000 0.7872 0.7915 0.7958 0.7997 0.8028
1180.000000 0.8061 0.8094 0.8121 0.8143 0.8165
1175.000000 0.8183 0.8200 0.8215 0.8227 0.8239
1170.000000 0.8251 0.8261 0.8268 0.8283 0.8275
1165.000000 0.8275 0.8268 0.8261 0.8247 0.8225
1160.000000 0.8193 0.8138 0.8024 0.7904 0.7768
1155.000000 0.7606 0.7411 0.7310 0.7295 0.7304
1150.000000 0.7338 0.7430 0.7498 0.7517 0.7543
1145.000000 0.7524 0.7472 0.7334 0.7249 0.7225
1140.000000 0.7240 0.7268 0.7351 0.7451 0.7506
1135.000000 0.7493 0.7495 0.7380 0.7132 0.6885
1130.000000 0.6638 0.6390 0.6141 0.5971 0.5945
1125.000000 0.5942 0.5953 0.5976 0.5999 0.5992
1120.000000 0.5762 0.5489 0.5215 0.4942 0.4718
1115.000000 0.4601 0.4552 0.4504 0.4398 0.4036
1110.000000 0.3658 0.3280 0.2900 0.2521 0.2220
1105.000000 0.2243 0.2290 0.2458 0.2641 0.2996
1100.000000 0.3273 0.3768 0.4159 0.4552 0.4946
1095.000000 0.5224 0.5367 0.5543 0.5721 0.5819
1090.000000 0.5865 0.5896 0.5875 0.5777 0.5589
1085.000000 0.5394 0.5257 0.5198 0.5198 0.5197
1080.000000 0.5262 0.5372 0.5487 0.5610 0.5737
1075.000000 0.5862 0.5962 0.6060 0.6158 0.6266
1070.000000 0.6373 0.6481 0.6591 0.6700 0.6785
1065.000000 0.6837 0.6871 0.6908 0.6896 0.6851
1060.000000 0.6780 0.6705 0.6611 0.6515 0.6421
1055.000000 0.6319 0.6169 0.5973 0.5588 0.5170
1050.000000 0.4751 0.4332 0.3912 0.3491 0.3070
1045.000000 0.2647 0.2359 0.2262 0.2210 0.2154
1040.000000 0.2238 0.2344 0.2492 0.2792 0.3053
1035.000000 0.3314 0.3578 0.3841 0.4105 0.4369
1030.000000 0.4634 0.4899 0.5165 0.5431 0.5698
1025.000000 0.5965 0.6197 0.6271 0.6270 0.6270
1020.000000 0.6208 0.6044 0.5937 0.5912 0.5921
1015.000000 0.5916 0.5952 0.6025 0.6165 0.6333
1010.000000 0.6547 0.6769 0.6993 0.7215 0.7337
1005.000000 0.7448 0.7580 0.7691 0.7796 0.7898
1000.000000 0.8118 0.8984 0.9008 0.8918 0.8774
995.000000 0.8653 0.8564 0.8498 0.8464 0.8447
990.000000 0.8430 0.8420 0.8410 0.8402 0.8397
985.000000 0.8383 0.8385 0.8378 0.8364 0.8318
980.000000 0.8202 0.8044 0.7885 0.7725 0.7578
975.000000 0.7535 0.7526 0.7524 0.7591 0.7668
970.000000 0.7748 0.7817 0.7854 0.7890 0.7925
965.000000 0.7953 0.7978 0.8004 0.8025 0.8043
960.000000 0.8060 0.8061 0.8055 0.8045 0.8000
955.000000 0.7958 0.7941 0.7933 0.7931 0.7944
950.000000 0.7978 0.8015 0.8047 0.8072 0.8118
945.000000 0.8099 0.8111 0.8121 0.8103 0.7937
940.000000 0.7738 0.7540 0.7340 0.7133 0.7143
935.000000 0.7158 0.7284 0.7484 0.7678 0.7874
930.000000 0.8068 0.8264 0.8368 0.8461 0.8534
925.000000 0.8577 0.8608 0.8634 0.8659 0.8680
920.000000 0.8693 0.8730 0.8698 0.8690 0.8647
915.000000 0.8533 0.8325 0.7945 0.7565 0.7182
910.000000 0.6799 0.6415 0.6236 0.6232 0.6281
905.000000 0.6450 0.6864 0.7306 0.7635 0.7764
900.000000 0.7840 0.7889 0.7925 0.7969 0.7961
895.000000 0.7950 0.7875 0.7775 0.7687 0.7618
890.000000 0.7636 0.7739 0.7842 0.7922 0.7995
885.000000 0.8051 0.8033 0.8008 0.7932 0.7801
880.000000 0.7728 0.7661 0.7622 0.7625 0.7678
875.000000 0.7697 0.7697 0.7697 0.7676 0.7625
870.000000 0.7464 0.7272 0.7054 0.7067 0.7110
865.000000 0.7435 0.7794 0.8108 0.8211 0.8316
860.000000 0.8424 0.8518 0.8582 0.8620 0.8645
855.000000 0.8657 0.8667 0.8671 0.8675 0.8675
850.000000 0.8665 0.8640 0.8599 0.8557 0.8524
845.000000 0.8498 0.8468 0.8431 0.8375 0.8218
840.000000 0.8018 0.7817 0.7521 0.7226 0.6960
835.000000 0.6240 0.5906 0.5401 0.4885 0.4529
830.000000 0.4325 0.4059 0.4073 0.4160 0.4576
825.000000 0.5010 0.5762 0.6317 0.6715 0.6965
820.000000 0.7199 0.7465 0.7745 0.7965 0.8087
815.000000 0.8088 0.8096 0.8072 0.7951 0.7978
810.000000 0.8053 0.8295 0.8453 0.8568 0.8640
805.000000 0.8670 0.8697 0.8724 0.8748 0.8770
800.000000 0.8793 0.8815 0.8838 0.8859 0.8873
795.000000 0.8885 0.8898 0.8908 0.8916 0.8943
790.000000 0.8927 0.8923 0.8918 0.8903 0.8887
785.000000 0.8848 0.8732 0.8531 0.8320 0.8001
780.000000 0.7382 0.6814 0.6144 0.5473 0.5220
775.000000 0.5262 0.5804 0.6389 0.6975 0.7562
770.000000 0.7991 0.8225 0.8354 0.8418 0.8471
765.000000 0.8510 0.8493 0.8408 0.8263 0.8081
760.000000 0.7853 0.7678 0.7537 0.7592 0.7797
755.000000 0.8003 0.8181 0.8323 0.8438 0.8506
750.000000 0.8537 0.8562 0.8581 0.8599 0.8616
745.000000 0.8631 0.8633 0.8406 0.8210 0.8078
740.000000 0.7736 0.7554 0.7630 0.7876 0.8214
735.000000 0.8465 0.8698 0.8788 0.8835 0.8812
730.000000 0.8818 0.8824 0.8823 0.8813 0.8785
725.000000 0.8771 0.8767 0.8761 0.8751 0.8710
720.000000 0.8718 0.8784 0.8867 0.8937 0.8994
715.000000 0.9044 0.9098 0.9153 0.9177 0.9200
710.000000 0.9223 0.9241 0.9259 0.9277 0.9294
705.000000 0.9304 0.9309 0.9315 0.9318 0.9323
700.000000 0.9325 0.9330 0.9334 0.9337 0.9341
695.000000 0.9348 0.9353 0.9358 0.9363 0.9368
690.000000 0.9374 0.9374 0.9371 0.9368 0.9367
685.000000 0.9361 0.9355 0.9347 0.9340 0.9337
680.000000 0.9335 0.9333 0.9333 0.9332 0.9332
675.000000 0.9332 0.9331 0.9328 0.9323 0.9314
670.000000 0.9271 0.9187 0.9175 0.9168
##END=
