##TITLE=Quinolinium compounds, 1-(2-hydroxy-1-methylpropyl)-hydroxide, sulfate, inner salt, cis-, erythro-
##JCAMP-DX=4.24
$$ By DXEDIT 1.05 (RS McDonald)
##DATA TYPE=INFRARED SPECTRUM
##CLASS=COBLENTZ III
##ORIGIN=DOW CHEMICAL COMPANY
##OWNER=COPYRIGHT (C) 1988 by COBLENTZ SOCIETY INC.
Collection (C) 2018 copyright by the U.S. Secretary of Commerce
on behalf of the United States of America. All rights reserved.
##DATE=1965/11/10
##MOLFORM=C13 H15 N O4 S
##SOURCE REFERENCE=COBLENTZ NO. 07932
##$NIST ID=B6007932
##$NIST SOURCE=COBLENTZ
##$NIST IMAGE=cob7932
##SPECTROMETER/DATA SYSTEM=DOW KBr FOREPRISM-GRATING
##INSTRUMENT PARAMETERS=BLAZED AT 3.5, 12.0, 20.0 MICRON AND CHANGED AT 5.0, 7.5, 14.9 MICRON
##STATE=SOLID (SPLIT MULL), FLUOROLUBE FOR 3800-1330 CM^-^1, NUJOL FOR 1330-460 CM^-^1
$$SPECTRAL CONTAMINATION DUE TO H2O AROUND 3450 AND 3515 CM^-^1
##SAMPLING PROCEDURE=TRANSMISSION
##RESOLUTION=2
##DATA PROCESSING=DIGITIZED BY COBLENTZ SOCIETY (BATCH I) FROM HARD COPY
##XUNITS=1/CM
##YUNITS=TRANSMITTANCE
##XFACTOR=1
##YFACTOR=1
##DELTAX=1
##FIRSTX=3800
##LASTX=459
##FIRSTY=0.6758
##MAXX=3800
##MINX=459
##MAXY=0.9347
##MINY=0.0659
##NPOINTS=3342
##XYDATA=(X++(Y..Y))
3800.000000 0.6758 0.6758 0.6760 0.6761 0.6762
3795.000000 0.6764 0.6765 0.6765 0.6768 0.6768
3790.000000 0.6771 0.6772 0.6775 0.6776 0.6778
3785.000000 0.6781 0.6784 0.6785 0.6787 0.6788
3780.000000 0.6790 0.6791 0.6793 0.6794 0.6796
3775.000000 0.6797 0.6799 0.6801 0.6804 0.6806
3770.000000 0.6808 0.6810 0.6812 0.6815 0.6817
3765.000000 0.6818 0.6821 0.6824 0.6825 0.6828
3760.000000 0.6831 0.6833 0.6835 0.6837 0.6840
3755.000000 0.6842 0.6845 0.6847 0.6850 0.6851
3750.000000 0.6855 0.6857 0.6860 0.6861 0.6865
3745.000000 0.6867 0.6868 0.6871 0.6874 0.6875
3740.000000 0.6878 0.6880 0.6882 0.6884 0.6887
3735.000000 0.6889 0.6891 0.6893 0.6896 0.6898
3730.000000 0.6901 0.6904 0.6907 0.6908 0.6911
3725.000000 0.6915 0.6918 0.6918 0.6919 0.6921
3720.000000 0.6922 0.6924 0.6925 0.6925 0.6926
3715.000000 0.6926 0.6926 0.6925 0.6925 0.6924
3710.000000 0.6922 0.6921 0.6921 0.6919 0.6919
3705.000000 0.6918 0.6917 0.6915 0.6915 0.6912
3700.000000 0.6911 0.6910 0.6908 0.6908 0.6907
3695.000000 0.6907 0.6908 0.6908 0.6908 0.6908
3690.000000 0.6908 0.6908 0.6908 0.6910 0.6911
3685.000000 0.6915 0.6919 0.6924 0.6928 0.6932
3680.000000 0.6936 0.6940 0.6944 0.6948 0.6953
3675.000000 0.6958 0.6962 0.6967 0.6971 0.6976
3670.000000 0.6982 0.6986 0.6991 0.6994 0.6997
3665.000000 0.7000 0.7003 0.7006 0.7006 0.7007
3660.000000 0.7005 0.7003 0.7001 0.6997 0.6992
3655.000000 0.6987 0.6982 0.6975 0.6971 0.6965
3650.000000 0.6961 0.6956 0.6951 0.6948 0.6946
3645.000000 0.6943 0.6940 0.6937 0.6935 0.6932
3640.000000 0.6928 0.6928 0.6928 0.6926 0.6926
3635.000000 0.6925 0.6925 0.6924 0.6922 0.6921
3630.000000 0.6918 0.6917 0.6915 0.6912 0.6911
3625.000000 0.6910 0.6908 0.6905 0.6901 0.6899
3620.000000 0.6896 0.6893 0.6890 0.6887 0.6885
3615.000000 0.6882 0.6878 0.6874 0.6868 0.6864
3610.000000 0.6858 0.6853 0.6848 0.6843 0.6838
3605.000000 0.6832 0.6826 0.6821 0.6815 0.6808
3600.000000 0.6801 0.6796 0.6790 0.6783 0.6776
3595.000000 0.6771 0.6765 0.6755 0.6746 0.6737
3590.000000 0.6728 0.6718 0.6708 0.6700 0.6691
3585.000000 0.6681 0.6671 0.6661 0.6651 0.6642
3580.000000 0.6633 0.6622 0.6612 0.6603 0.6593
3575.000000 0.6583 0.6572 0.6561 0.6551 0.6542
3570.000000 0.6532 0.6521 0.6511 0.6500 0.6489
3565.000000 0.6475 0.6464 0.6451 0.6438 0.6425
3560.000000 0.6411 0.6399 0.6387 0.6368 0.6349
3555.000000 0.6329 0.6310 0.6291 0.6272 0.6253
3550.000000 0.6235 0.6216 0.6198 0.6179 0.6160
3545.000000 0.6133 0.6107 0.6080 0.6053 0.6022
3540.000000 0.5991 0.5960 0.5929 0.5892 0.5856
3535.000000 0.5817 0.5779 0.5749 0.5720 0.5693
3530.000000 0.5666 0.5635 0.5604 0.5580 0.5556
3525.000000 0.5540 0.5524 0.5510 0.5499 0.5494
3520.000000 0.5489 0.5485 0.5482 0.5480 0.5478
3515.000000 0.5478 0.5478 0.5478 0.5479 0.5487
3510.000000 0.5495 0.5518 0.5542 0.5572 0.5603
3505.000000 0.5630 0.5657 0.5683 0.5710 0.5738
3500.000000 0.5767 0.5797 0.5827 0.5854 0.5881
3495.000000 0.5906 0.5932 0.5946 0.5960 0.5976
3490.000000 0.5991 0.6006 0.6021 0.6036 0.6051
3485.000000 0.6062 0.6073 0.6082 0.6092 0.6100
3480.000000 0.6108 0.6115 0.6123 0.6129 0.6135
3475.000000 0.6137 0.6139 0.6141 0.6143 0.6143
3470.000000 0.6143 0.6141 0.6139 0.6132 0.6126
3465.000000 0.6117 0.6108 0.6094 0.6081 0.6066
3460.000000 0.6052 0.6032 0.6012 0.5998 0.5983
3455.000000 0.5975 0.5968 0.5965 0.5962 0.5960
3450.000000 0.5959 0.5959 0.5959 0.5965 0.5971
3445.000000 0.5995 0.6019 0.6049 0.6080 0.6110
3440.000000 0.6140 0.6169 0.6199 0.6227 0.6256
3435.000000 0.6280 0.6305 0.6330 0.6355 0.6378
3430.000000 0.6401 0.6418 0.6437 0.6455 0.6472
3425.000000 0.6491 0.6508 0.6524 0.6540 0.6551
3420.000000 0.6562 0.6574 0.6585 0.6596 0.6607
3415.000000 0.6618 0.6628 0.6640 0.6651 0.6660
3410.000000 0.6668 0.6678 0.6688 0.6697 0.6706
3405.000000 0.6715 0.6724 0.6733 0.6742 0.6750
3400.000000 0.6758 0.6767 0.6775 0.6784 0.6793
3395.000000 0.6801 0.6808 0.6817 0.6825 0.6834
3390.000000 0.6843 0.6850 0.6858 0.6865 0.6874
3385.000000 0.6881 0.6889 0.6897 0.6905 0.6911
3380.000000 0.6919 0.6928 0.6937 0.6945 0.6954
3375.000000 0.6961 0.6969 0.6978 0.6987 0.6994
3370.000000 0.7001 0.7008 0.7015 0.7021 0.7028
3365.000000 0.7032 0.7036 0.7040 0.7044 0.7047
3360.000000 0.7050 0.7053 0.7056 0.7058 0.7061
3355.000000 0.7065 0.7069 0.7075 0.7080 0.7093
3350.000000 0.7107 0.7121 0.7136 0.7151 0.7168
3345.000000 0.7168 0.7167 0.7165 0.7164 0.7162
3340.000000 0.7161 0.7161 0.7161 0.7161 0.7162
3335.000000 0.7165 0.7167 0.7169 0.7172 0.7175
3330.000000 0.7178 0.7182 0.7186 0.7189 0.7192
3325.000000 0.7195 0.7198 0.7201 0.7204 0.7208
3320.000000 0.7211 0.7215 0.7219 0.7224 0.7228
3315.000000 0.7232 0.7237 0.7241 0.7245 0.7249
3310.000000 0.7253 0.7257 0.7261 0.7265 0.7268
3305.000000 0.7272 0.7276 0.7281 0.7285 0.7288
3300.000000 0.7292 0.7296 0.7300 0.7303 0.7307
3295.000000 0.7310 0.7314 0.7317 0.7321 0.7325
3290.000000 0.7328 0.7332 0.7336 0.7339 0.7343
3285.000000 0.7347 0.7351 0.7354 0.7358 0.7361
3280.000000 0.7364 0.7365 0.7368 0.7369 0.7371
3275.000000 0.7374 0.7375 0.7378 0.7380 0.7382
3270.000000 0.7384 0.7385 0.7387 0.7389 0.7391
3265.000000 0.7393 0.7395 0.7397 0.7399 0.7401
3260.000000 0.7403 0.7404 0.7406 0.7407 0.7408
3255.000000 0.7410 0.7411 0.7412 0.7415 0.7415
3250.000000 0.7418 0.7418 0.7419 0.7421 0.7422
3245.000000 0.7425 0.7428 0.7431 0.7434 0.7436
3240.000000 0.7439 0.7441 0.7444 0.7443 0.7443
3235.000000 0.7441 0.7440 0.7439 0.7438 0.7437
3230.000000 0.7436 0.7431 0.7426 0.7421 0.7418
3225.000000 0.7412 0.7408 0.7403 0.7397 0.7394
3220.000000 0.7391 0.7388 0.7386 0.7385 0.7385
3215.000000 0.7388 0.7392 0.7396 0.7400 0.7405
3210.000000 0.7410 0.7415 0.7421 0.7425 0.7431
3205.000000 0.7436 0.7442 0.7448 0.7455 0.7461
3200.000000 0.7468 0.7471 0.7475 0.7476 0.7478
3195.000000 0.7481 0.7483 0.7485 0.7488 0.7489
3190.000000 0.7491 0.7492 0.7493 0.7494 0.7495
3185.000000 0.7497 0.7499 0.7501 0.7505 0.7508
3180.000000 0.7514 0.7518 0.7525 0.7530 0.7536
3175.000000 0.7539 0.7542 0.7543 0.7545 0.7547
3170.000000 0.7549 0.7550 0.7551 0.7551 0.7551
3165.000000 0.7551 0.7550 0.7547 0.7544 0.7530
3160.000000 0.7517 0.7501 0.7488 0.7471 0.7456
3155.000000 0.7447 0.7439 0.7432 0.7425 0.7419
3150.000000 0.7415 0.7411 0.7408 0.7405 0.7401
3145.000000 0.7398 0.7394 0.7390 0.7386 0.7371
3140.000000 0.7356 0.7294 0.7232 0.7121 0.7011
3135.000000 0.6992 0.6972 0.6969 0.6968 0.6965
3130.000000 0.6962 0.6960 0.6957 0.6951 0.6946
3125.000000 0.6939 0.6932 0.6881 0.6831 0.6758
3120.000000 0.6688 0.6615 0.6545 0.6472 0.6212
3115.000000 0.6330 0.6259 0.6237 0.6215 0.6221
3110.000000 0.6227 0.6234 0.6242 0.6249 0.6257
3105.000000 0.6262 0.6269 0.6275 0.6281 0.6288
3100.000000 0.6295 0.6303 0.6310 0.6318 0.6326
3095.000000 0.6334 0.6343 0.6362 0.6383 0.6474
3090.000000 0.6565 0.6640 0.6715 0.6738 0.6761
3085.000000 0.6772 0.6785 0.6789 0.6794 0.6794
3080.000000 0.6794 0.6792 0.6791 0.6786 0.6782
3075.000000 0.6769 0.6758 0.6738 0.6718 0.6665
3070.000000 0.6611 0.6574 0.6547 0.6538 0.6539
3065.000000 0.6568 0.6599 0.6662 0.6726 0.6795
3060.000000 0.6862 0.6887 0.6911 0.6915 0.6919
3055.000000 0.6921 0.6922 0.6924 0.6925 0.6925
3050.000000 0.6924 0.6921 0.6921 0.6915 0.6911
3045.000000 0.6901 0.6890 0.6871 0.6854 0.6831
3040.000000 0.6808 0.6788 0.6768 0.6748 0.6728
3035.000000 0.6722 0.6721 0.6721 0.6726 0.6761
3030.000000 0.6795 0.6833 0.6871 0.6896 0.6921
3025.000000 0.6941 0.6961 0.6980 0.6998 0.7012
3020.000000 0.7028 0.7040 0.7053 0.7062 0.7074
3015.000000 0.7087 0.7101 0.7111 0.7148 0.7125
3010.000000 0.7128 0.7112 0.7097 0.6830 0.6562
3005.000000 0.6478 0.6394 0.6392 0.6391 0.6389
3000.000000 0.6387 0.6338 0.6289 0.6243 0.6185
2995.000000 0.6196 0.6196 0.6193 0.6190 0.6256
2990.000000 0.6323 0.6400 0.6478 0.6521 0.6567
2985.000000 0.6578 0.6592 0.6614 0.6636 0.6719
2980.000000 0.6805 0.6897 0.6990 0.7021 0.7051
2975.000000 0.7065 0.7091 0.7092 0.7092 0.7095
2970.000000 0.7098 0.7037 0.6976 0.6976 0.6976
2965.000000 0.7030 0.7084 0.7140 0.7196 0.7230
2960.000000 0.7264 0.7278 0.7293 0.7301 0.7310
2955.000000 0.7318 0.7338 0.7328 0.7333 0.7335
2950.000000 0.7336 0.7336 0.7335 0.7308 0.7284
2945.000000 0.7237 0.7191 0.7171 0.7151 0.7140
2940.000000 0.7130 0.7125 0.7126 0.7122 0.7122
2935.000000 0.7125 0.7128 0.7138 0.7148 0.7165
2930.000000 0.7183 0.7210 0.7237 0.7258 0.7282
2925.000000 0.7301 0.7321 0.7340 0.7360 0.7378
2920.000000 0.7399 0.7411 0.7425 0.7439 0.7451
2915.000000 0.7465 0.7478 0.7491 0.7503 0.7512
2910.000000 0.7522 0.7533 0.7543 0.7551 0.7561
2905.000000 0.7569 0.7578 0.7587 0.7595 0.7603
2900.000000 0.7611 0.7618 0.7624 0.7628 0.7635
2895.000000 0.7640 0.7646 0.7651 0.7657 0.7661
2890.000000 0.7665 0.7668 0.7671 0.7674 0.7676
2885.000000 0.7678 0.7682 0.7681 0.7680 0.7672
2880.000000 0.7667 0.7658 0.7649 0.7644 0.7639
2875.000000 0.7637 0.7637 0.7637 0.7640 0.7645
2870.000000 0.7650 0.7656 0.7661 0.7668 0.7676
2865.000000 0.7684 0.7691 0.7698 0.7706 0.7714
2860.000000 0.7722 0.7731 0.7739 0.7747 0.7755
2855.000000 0.7761 0.7768 0.7775 0.7781 0.7787
2850.000000 0.7793 0.7799 0.7805 0.7811 0.7818
2845.000000 0.7824 0.7830 0.7835 0.7840 0.7844
2840.000000 0.7849 0.7853 0.7858 0.7862 0.7868
2835.000000 0.7871 0.7876 0.7881 0.7886 0.7890
2830.000000 0.7894 0.7897 0.7901 0.7905 0.7908
2825.000000 0.7912 0.7917 0.7921 0.7925 0.7928
2820.000000 0.7933 0.7937 0.7941 0.7944 0.7948
2815.000000 0.7951 0.7956 0.7958 0.7962 0.7967
2810.000000 0.7971 0.7974 0.7978 0.7982 0.7986
2805.000000 0.7989 0.7993 0.7996 0.7999 0.8001
2800.000000 0.8005 0.8008 0.8011 0.8015 0.8018
2795.000000 0.8021 0.8025 0.8028 0.8031 0.8034
2790.000000 0.8037 0.8039 0.8042 0.8044 0.8047
2785.000000 0.8049 0.8051 0.8053 0.8056 0.8058
2780.000000 0.8060 0.8061 0.8064 0.8065 0.8068
2775.000000 0.8069 0.8071 0.8072 0.8075 0.8076
2770.000000 0.8078 0.8080 0.8081 0.8081 0.8082
2765.000000 0.8082 0.8083 0.8084 0.8085 0.8085
2760.000000 0.8086 0.8087 0.8088 0.8088 0.8089
2755.000000 0.8089 0.8089 0.8089 0.8089 0.8089
2750.000000 0.8089 0.8089 0.8090 0.8090 0.8090
2745.000000 0.8090 0.8090 0.8090 0.8090 0.8091
2740.000000 0.8093 0.8094 0.8095 0.8096 0.8098
2735.000000 0.8099 0.8101 0.8101 0.8103 0.8104
2730.000000 0.8106 0.8107 0.8108 0.8110 0.8111
2725.000000 0.8112 0.8115 0.8117 0.8119 0.8121
2720.000000 0.8125 0.8126 0.8130 0.8132 0.8135
2715.000000 0.8137 0.8140 0.8142 0.8145 0.8147
2710.000000 0.8150 0.8151 0.8155 0.8157 0.8160
2705.000000 0.8161 0.8165 0.8167 0.8169 0.8171
2700.000000 0.8175 0.8176 0.8180 0.8182 0.8185
2695.000000 0.8187 0.8189 0.8191 0.8194 0.8196
2690.000000 0.8199 0.8201 0.8204 0.8206 0.8209
2685.000000 0.8211 0.8214 0.8216 0.8218 0.8221
2680.000000 0.8224 0.8225 0.8228 0.8231 0.8234
2675.000000 0.8236 0.8238 0.8240 0.8243 0.8245
2670.000000 0.8248 0.8250 0.8253 0.8255 0.8258
2665.000000 0.8260 0.8263 0.8265 0.8268 0.8270
2660.000000 0.8273 0.8275 0.8277 0.8278 0.8282
2655.000000 0.8284 0.8286 0.8288 0.8291 0.8293
2650.000000 0.8295 0.8297 0.8300 0.8302 0.8304
2645.000000 0.8306 0.8309 0.8311 0.8313 0.8315
2640.000000 0.8318 0.8320 0.8321 0.8324 0.8325
2635.000000 0.8328 0.8330 0.8331 0.8333 0.8335
2630.000000 0.8337 0.8339 0.8341 0.8343 0.8345
2625.000000 0.8347 0.8349 0.8351 0.8353 0.8355
2620.000000 0.8357 0.8359 0.8361 0.8362 0.8364
2615.000000 0.8366 0.8368 0.8370 0.8371 0.8373
2610.000000 0.8375 0.8375 0.8378 0.8378 0.8381
2605.000000 0.8382 0.8384 0.8385 0.8387 0.8388
2600.000000 0.8390 0.8391 0.8393 0.8394 0.8396
2595.000000 0.8397 0.8399 0.8400 0.8402 0.8403
2590.000000 0.8405 0.8407 0.8409 0.8410 0.8412
2585.000000 0.8413 0.8415 0.8417 0.8418 0.8420
2580.000000 0.8421 0.8423 0.8425 0.8427 0.8428
2575.000000 0.8430 0.8432 0.8434 0.8436 0.8437
2570.000000 0.8439 0.8441 0.8443 0.8445 0.8447
2565.000000 0.8448 0.8450 0.8452 0.8454 0.8456
2560.000000 0.8458 0.8459 0.8460 0.8461 0.8463
2555.000000 0.8464 0.8465 0.8466 0.8467 0.8468
2550.000000 0.8468 0.8470 0.8471 0.8473 0.8474
2545.000000 0.8475 0.8475 0.8477 0.8478 0.8480
2540.000000 0.8481 0.8482 0.8483 0.8484 0.8485
2535.000000 0.8486 0.8488 0.8489 0.8490 0.8491
2530.000000 0.8492 0.8493 0.8495 0.8496 0.8497
2525.000000 0.8498 0.8499 0.8500 0.8502 0.8503
2520.000000 0.8504 0.8504 0.8505 0.8506 0.8507
2515.000000 0.8507 0.8508 0.8508 0.8509 0.8509
2510.000000 0.8510 0.8510 0.8511 0.8511 0.8512
2505.000000 0.8512 0.8512 0.8512 0.8513 0.8513
2500.000000 0.8514 0.8514 0.8515 0.8515 0.8516
2495.000000 0.8516 0.8516 0.8516 0.8516 0.8515
2490.000000 0.8515 0.8515 0.8515 0.8514 0.8514
2485.000000 0.8511 0.8508 0.8505 0.8502 0.8499
2480.000000 0.8496 0.8496 0.8496 0.8495 0.8495
2475.000000 0.8495 0.8495 0.8494 0.8494 0.8493
2470.000000 0.8493 0.8492 0.8491 0.8490 0.8490
2465.000000 0.8489 0.8488 0.8487 0.8487 0.8487
2460.000000 0.8488 0.8488 0.8489 0.8490 0.8491
2455.000000 0.8492 0.8493 0.8493 0.8494 0.8495
2450.000000 0.8496 0.8496 0.8497 0.8498 0.8499
2445.000000 0.8500 0.8501 0.8501 0.8502 0.8503
2440.000000 0.8504 0.8505 0.8506 0.8508 0.8510
2435.000000 0.8511 0.8513 0.8515 0.8517 0.8518
2430.000000 0.8521 0.8523 0.8525 0.8525 0.8528
2425.000000 0.8530 0.8532 0.8533 0.8535 0.8536
2420.000000 0.8538 0.8539 0.8541 0.8542 0.8544
2415.000000 0.8545 0.8546 0.8547 0.8549 0.8550
2410.000000 0.8551 0.8551 0.8552 0.8552 0.8553
2405.000000 0.8554 0.8555 0.8555 0.8555 0.8555
2400.000000 0.8555 0.8555 0.8555 0.8554 0.8554
2395.000000 0.8554 0.8554 0.8554 0.8554 0.8554
2390.000000 0.8555 0.8555 0.8555 0.8555 0.8556
2385.000000 0.8556 0.8557 0.8559 0.8562 0.8565
2380.000000 0.8568 0.8570 0.8573 0.8578 0.8585
2375.000000 0.8591 0.8598 0.8604 0.8611 0.8617
2370.000000 0.8623 0.8628 0.8636 0.8641 0.8646
2365.000000 0.8650 0.8655 0.8659 0.8664 0.8668
2360.000000 0.8673 0.8675 0.8680 0.8684 0.8688
2355.000000 0.8692 0.8696 0.8696 0.8697 0.8698
2350.000000 0.8699 0.8699 0.8700 0.8701 0.8702
2345.000000 0.8702 0.8702 0.8701 0.8701 0.8701
2340.000000 0.8701 0.8701 0.8702 0.8702 0.8702
2335.000000 0.8702 0.8703 0.8703 0.8703 0.8704
2330.000000 0.8705 0.8706 0.8707 0.8708 0.8709
2325.000000 0.8710 0.8711 0.8711 0.8712 0.8712
2320.000000 0.8713 0.8706 0.8700 0.8692 0.8685
2315.000000 0.8677 0.8670 0.8661 0.8653 0.8644
2310.000000 0.8636 0.8630 0.8624 0.8620 0.8616
2305.000000 0.8616 0.8616 0.8615 0.8615 0.8606
2300.000000 0.8597 0.8587 0.8577 0.8567 0.8557
2295.000000 0.8550 0.8544 0.8538 0.8532 0.8528
2290.000000 0.8525 0.8525 0.8525 0.8525 0.8525
2285.000000 0.8525 0.8525 0.8525 0.8527 0.8531
2280.000000 0.8535 0.8539 0.8543 0.8547 0.8551
2275.000000 0.8555 0.8559 0.8563 0.8567 0.8570
2270.000000 0.8574 0.8578 0.8582 0.8586 0.8590
2265.000000 0.8593 0.8597 0.8601 0.8605 0.8609
2260.000000 0.8613 0.8617 0.8621 0.8625 0.8630
2255.000000 0.8634 0.8638 0.8642 0.8646 0.8650
2250.000000 0.8655 0.8658 0.8661 0.8664 0.8668
2245.000000 0.8671 0.8675 0.8678 0.8682 0.8685
2240.000000 0.8689 0.8692 0.8696 0.8699 0.8703
2235.000000 0.8707 0.8711 0.8714 0.8718 0.8721
2230.000000 0.8725 0.8728 0.8733 0.8736 0.8740
2225.000000 0.8743 0.8747 0.8750 0.8754 0.8757
2220.000000 0.8761 0.8765 0.8770 0.8774 0.8778
2215.000000 0.8783 0.8787 0.8791 0.8796 0.8801
2210.000000 0.8806 0.8811 0.8816 0.8821 0.8825
2205.000000 0.8828 0.8832 0.8834 0.8836 0.8836
2200.000000 0.8836 0.8835 0.8835 0.8834 0.8834
2195.000000 0.8833 0.8833 0.8832 0.8832 0.8832
2190.000000 0.8832 0.8831 0.8831 0.8831 0.8831
2185.000000 0.8831 0.8832 0.8833 0.8835 0.8836
2180.000000 0.8837 0.8838 0.8840 0.8841 0.8843
2175.000000 0.8844 0.8846 0.8847 0.8849 0.8852
2170.000000 0.8855 0.8858 0.8861 0.8863 0.8865
2165.000000 0.8867 0.8870 0.8871 0.8874 0.8875
2160.000000 0.8878 0.8880 0.8882 0.8883 0.8884
2155.000000 0.8884 0.8885 0.8886 0.8887 0.8887
2150.000000 0.8888 0.8889 0.8890 0.8890 0.8891
2145.000000 0.8891 0.8892 0.8892 0.8893 0.8893
2140.000000 0.8894 0.8894 0.8895 0.8895 0.8895
2135.000000 0.8895 0.8896 0.8896 0.8897 0.8897
2130.000000 0.8897 0.8897 0.8898 0.8898 0.8898
2125.000000 0.8898 0.8898 0.8898 0.8898 0.8898
2120.000000 0.8899 0.8899 0.8899 0.8899 0.8899
2115.000000 0.8899 0.8900 0.8900 0.8900 0.8900
2110.000000 0.8901 0.8901 0.8901 0.8901 0.8902
2105.000000 0.8902 0.8902 0.8902 0.8902 0.8902
2100.000000 0.8903 0.8903 0.8903 0.8903 0.8903
2095.000000 0.8903 0.8903 0.8903 0.8903 0.8903
2090.000000 0.8903 0.8903 0.8903 0.8904 0.8905
2085.000000 0.8907 0.8909 0.8910 0.8912 0.8920
2080.000000 0.8928 0.8944 0.8960 0.8961 0.8962
2075.000000 0.8957 0.8952 0.8939 0.8927 0.8914
2070.000000 0.8902 0.8896 0.8891 0.8901 0.8911
2065.000000 0.8921 0.8931 0.8940 0.8950 0.8956
2060.000000 0.8962 0.8965 0.8968 0.8971 0.8975
2055.000000 0.8974 0.8974 0.8973 0.8971 0.8971
2050.000000 0.8971 0.8971 0.8971 0.8971 0.8971
2045.000000 0.8971 0.8973 0.8973 0.8973 0.8971
2040.000000 0.8971 0.8971 0.8970 0.8966 0.8962
2035.000000 0.8954 0.8946 0.8937 0.8928 0.8931
2030.000000 0.8933 0.8935 0.8937 0.8938 0.8940
2025.000000 0.8941 0.8942 0.8943 0.8945 0.8945
2020.000000 0.8945 0.8945 0.8945 0.8944 0.8944
2015.000000 0.8944 0.8944 0.8943 0.8942 0.8941
2010.000000 0.8940 0.8939 0.8938 0.8937 0.8936
2005.000000 0.8934 0.8933 0.8930 0.8928 0.8920
2000.000000 0.8912 0.8909 0.8906 0.8906 0.8906
1995.000000 0.8906 0.8907 0.8907 0.8908 0.8910
1990.000000 0.8911 0.8912 0.8913 0.8916 0.8920
1985.000000 0.8923 0.8925 0.8927 0.8927 0.8928
1980.000000 0.8928 0.8928 0.8928 0.8930 0.8930
1975.000000 0.8931 0.8932 0.8932 0.8933 0.8934
1970.000000 0.8934 0.8940 0.8948 0.8971 0.8983
1965.000000 0.8986 0.8989 0.8994 0.9001 0.9009
1960.000000 0.9033 0.9058 0.9074 0.9050 0.9025
1955.000000 0.9001 0.8991 0.8989 0.8988 0.8987
1950.000000 0.8986 0.8985 0.8985 0.8984 0.8983
1945.000000 0.8981 0.8978 0.8975 0.8975 0.8980
1940.000000 0.8984 0.8988 0.8991 0.8995 0.8999
1935.000000 0.9003 0.9007 0.9011 0.9014 0.9018
1930.000000 0.9021 0.9025 0.9028 0.9032 0.9036
1925.000000 0.9040 0.9043 0.9046 0.9048 0.9051
1920.000000 0.9053 0.9056 0.9058 0.9060 0.9063
1915.000000 0.9065 0.9068 0.9070 0.9073 0.9075
1910.000000 0.9078 0.9081 0.9084 0.9086 0.9089
1905.000000 0.9091 0.9094 0.9097 0.9099 0.9101
1900.000000 0.9103 0.9105 0.9108 0.9110 0.9112
1895.000000 0.9114 0.9116 0.9116 0.9117 0.9117
1890.000000 0.9118 0.9118 0.9116 0.9112 0.9109
1885.000000 0.9105 0.9102 0.9098 0.9095 0.9091
1880.000000 0.9086 0.9080 0.9074 0.9068 0.9063
1875.000000 0.9057 0.9052 0.9050 0.9047 0.9045
1870.000000 0.9042 0.9040 0.9037 0.9037 0.9038
1865.000000 0.9039 0.9041 0.9043 0.9044 0.9046
1860.000000 0.9048 0.9049 0.9051 0.9054 0.9057
1855.000000 0.9060 0.9063 0.9066 0.9068 0.9071
1850.000000 0.9075 0.9078 0.9081 0.9083 0.9084
1845.000000 0.9086 0.9087 0.9089 0.9090 0.9092
1840.000000 0.9094 0.9096 0.9098 0.9100 0.9102
1835.000000 0.9104 0.9106 0.9108 0.9110 0.9112
1830.000000 0.9114 0.9116 0.9118 0.9121 0.9123
1825.000000 0.9125 0.9128 0.9130 0.9132 0.9135
1820.000000 0.9137 0.9139 0.9142 0.9144 0.9147
1815.000000 0.9149 0.9155 0.9163 0.9167 0.9171
1810.000000 0.9174 0.9178 0.9181 0.9185 0.9188
1805.000000 0.9191 0.9183 0.9175 0.9170 0.9164
1800.000000 0.9159 0.9154 0.9149 0.9144 0.9139
1795.000000 0.9134 0.9128 0.9123 0.9123 0.9123
1790.000000 0.9124 0.9124 0.9125 0.9125 0.9124
1785.000000 0.9124 0.9124 0.9123 0.9123 0.9125
1780.000000 0.9130 0.9134 0.9138 0.9143 0.9147
1775.000000 0.9151 0.9155 0.9158 0.9159 0.9160
1770.000000 0.9162 0.9163 0.9163 0.9160 0.9158
1765.000000 0.9155 0.9153 0.9151 0.9148 0.9146
1760.000000 0.9143 0.9143 0.9144 0.9144 0.9145
1755.000000 0.9145 0.9145 0.9146 0.9146 0.9147
1750.000000 0.9147 0.9147 0.9148 0.9148 0.9149
1745.000000 0.9149 0.9150 0.9151 0.9151 0.9152
1740.000000 0.9152 0.9153 0.9155 0.9158 0.9160
1735.000000 0.9162 0.9164 0.9166 0.9168 0.9168
1730.000000 0.9168 0.9168 0.9168 0.9166 0.9164
1725.000000 0.9149 0.9134 0.9118 0.9104 0.9097
1720.000000 0.9094 0.9100 0.9106 0.9113 0.9118
1715.000000 0.9124 0.9121 0.9121 0.9118 0.9117
1710.000000 0.9115 0.9113 0.9112 0.9110 0.9108
1705.000000 0.9107 0.9117 0.9110 0.9111 0.9113
1700.000000 0.9114 0.9115 0.9117 0.9120 0.9121
1695.000000 0.9125 0.9127 0.9128 0.9131 0.9133
1690.000000 0.9136 0.9137 0.9138 0.9139 0.9140
1685.000000 0.9141 0.9142 0.9143 0.9144 0.9144
1680.000000 0.9140 0.9136 0.9133 0.9128 0.9125
1675.000000 0.9120 0.9114 0.9109 0.9104 0.9098
1670.000000 0.9093 0.9088 0.9084 0.9078 0.9074
1665.000000 0.9068 0.9063 0.9057 0.9051 0.9044
1660.000000 0.9038 0.9032 0.9025 0.9018 0.9013
1655.000000 0.9006 0.9000 0.8994 0.8987 0.8978
1650.000000 0.8971 0.8962 0.8954 0.8945 0.8930
1645.000000 0.8915 0.8899 0.8883 0.8867 0.8841
1640.000000 0.8809 0.8771 0.8730 0.8687 0.8643
1635.000000 0.8599 0.8528 0.8430 0.8299 0.8165
1630.000000 0.7631 0.6565 0.6555 0.6560 0.6833
1625.000000 0.7107 0.7381 0.7654 0.7882 0.8061
1620.000000 0.8204 0.8318 0.8428 0.8549 0.8607
1615.000000 0.8660 0.8696 0.8721 0.8741 0.8749
1610.000000 0.8755 0.8743 0.8621 0.8493 0.8440
1605.000000 0.8323 0.8231 0.8122 0.7925 0.7599
1600.000000 0.7048 0.6271 0.5494 0.5136 0.5140
1595.000000 0.5525 0.6026 0.6528 0.7028 0.7314
1590.000000 0.7562 0.7804 0.7971 0.8099 0.8220
1585.000000 0.8343 0.8467 0.8578 0.8662 0.8731
1580.000000 0.8780 0.8814 0.8849 0.8878 0.8903
1575.000000 0.8928 0.8953 0.8978 0.9001 0.9024
1570.000000 0.9046 0.9066 0.9080 0.9095 0.9109
1565.000000 0.9121 0.9134 0.9147 0.9158 0.9168
1560.000000 0.9178 0.9187 0.9192 0.9197 0.9200
1555.000000 0.9201 0.9202 0.9202 0.9206 0.9199
1550.000000 0.9194 0.9189 0.9178 0.9164 0.9151
1545.000000 0.9136 0.9120 0.9105 0.9080 0.9056
1540.000000 0.9025 0.8993 0.8947 0.8885 0.8789
1535.000000 0.8257 0.7804 0.7542 0.6797 0.5169
1530.000000 0.2987 0.2990 0.3034 0.3554 0.4072
1525.000000 0.4590 0.5108 0.5626 0.6144 0.6661
1520.000000 0.7194 0.7710 0.7867 0.7975 0.8088
1515.000000 0.8217 0.8343 0.8466 0.8559 0.8644
1510.000000 0.8707 0.8760 0.8812 0.8857 0.8895
1505.000000 0.8925 0.8946 0.8966 0.8986 0.9003
1500.000000 0.9016 0.9028 0.9043 0.9058 0.9071
1495.000000 0.9086 0.9093 0.9099 0.9104 0.9107
1490.000000 0.9108 0.9108 0.9108 0.9107 0.9106
1485.000000 0.9101 0.9091 0.9082 0.9053 0.9007
1480.000000 0.8935 0.8858 0.8788 0.8743 0.8712
1475.000000 0.8700 0.8700 0.8704 0.8710 0.8712
1470.000000 0.8650 0.8475 0.8303 0.8128 0.7956
1465.000000 0.7884 0.7874 0.7872 0.7880 0.7898
1460.000000 0.7914 0.7664 0.7635 0.7639 0.7648
1455.000000 0.7687 0.7731 0.7769 0.7805 0.7840
1450.000000 0.7876 0.7914 0.7955 0.7995 0.8042
1445.000000 0.8095 0.8164 0.8248 0.8321 0.8386
1440.000000 0.8451 0.8502 0.8551 0.8600 0.8649
1435.000000 0.8694 0.8738 0.8781 0.8823 0.8860
1430.000000 0.8897 0.8931 0.8956 0.8982 0.8999
1425.000000 0.9009 0.9014 0.9018 0.9025 0.9021
1420.000000 0.9021 0.9018 0.9014 0.8990 0.8908
1415.000000 0.8846 0.8814 0.8783 0.8732 0.8656
1410.000000 0.8568 0.8465 0.8208 0.8078 0.7828
1405.000000 0.7783 0.7790 0.7795 0.7937 0.8172
1400.000000 0.8409 0.8645 0.8718 0.8739 0.8751
1395.000000 0.8756 0.8775 0.8752 0.8727 0.8402
1390.000000 0.8338 0.8261 0.8162 0.7789 0.7405
1385.000000 0.7021 0.6639 0.6255 0.5947 0.5952
1380.000000 0.6298 0.6526 0.6536 0.6543 0.6539
1375.000000 0.6494 0.6484 0.6482 0.6481 0.6706
1370.000000 0.7006 0.7122 0.7208 0.7283 0.7360
1365.000000 0.7438 0.7524 0.7598 0.7658 0.7728
1360.000000 0.7744 0.7753 0.7765 0.7822 0.7890
1355.000000 0.7968 0.8054 0.8136 0.8191 0.8216
1350.000000 0.8239 0.8261 0.8280 0.8273 0.8285
1345.000000 0.8267 0.8246 0.8231 0.8223 0.8221
1340.000000 0.8220 0.8218 0.8216 0.8214 0.8210
1335.000000 0.8204 0.8188 0.8081 0.7971 0.7868
1330.000000 0.7711 0.7547 0.7383 0.7218 0.7056
1325.000000 0.6892 0.6728 0.6564 0.6400 0.6178
1320.000000 0.6162 0.6356 0.6742 0.7128 0.7515
1315.000000 0.7730 0.7887 0.7996 0.8061 0.8118
1310.000000 0.8157 0.8186 0.8201 0.8203 0.8228
1305.000000 0.8191 0.8157 0.8114 0.8008 0.7856
1300.000000 0.7714 0.7606 0.7514 0.7461 0.7424
1295.000000 0.7394 0.7378 0.7375 0.7372 0.7384
1290.000000 0.7393 0.7394 0.7395 0.7345 0.7165
1285.000000 0.6921 0.6678 0.6365 0.6100 0.5565
1280.000000 0.5439 0.5338 0.5207 0.5039 0.4851
1275.000000 0.4594 0.4129 0.3764 0.3357 0.3118
1270.000000 0.2892 0.2790 0.2716 0.2642 0.2568
1265.000000 0.2496 0.2428 0.2357 0.2271 0.2165
1260.000000 0.2060 0.1954 0.1848 0.1743 0.1636
1255.000000 0.1531 0.1426 0.1320 0.1215 0.1133
1250.000000 0.1054 0.0958 0.0875 0.0781 0.0721
1245.000000 0.0692 0.0659 0.0674 0.0683 0.0764
1240.000000 0.0842 0.1004 0.1139 0.1290 0.1422
1235.000000 0.1514 0.1594 0.1663 0.1739 0.1818
1230.000000 0.1879 0.1944 0.2006 0.2111 0.2233
1225.000000 0.2356 0.2479 0.2541 0.2554 0.2557
1220.000000 0.2540 0.2415 0.2373 0.2373 0.2392
1215.000000 0.2539 0.2843 0.3147 0.3450 0.3754
1210.000000 0.4058 0.4360 0.4665 0.5035 0.5180
1205.000000 0.5369 0.5557 0.5746 0.5934 0.6123
1200.000000 0.6310 0.6500 0.6590 0.6621 0.6614
1195.000000 0.6612 0.6590 0.6508 0.6436 0.6390
1190.000000 0.6367 0.6383 0.6396 0.6668 0.7003
1185.000000 0.7171 0.7258 0.7322 0.7378 0.7425
1180.000000 0.7448 0.7464 0.7465 0.7465 0.7365
1175.000000 0.7080 0.6794 0.6508 0.6222 0.5936
1170.000000 0.5649 0.5292 0.5303 0.5531 0.5766
1165.000000 0.6001 0.6236 0.6471 0.6706 0.6941
1160.000000 0.7175 0.7411 0.7487 0.7504 0.7397
1155.000000 0.7232 0.7067 0.6918 0.6847 0.6808
1150.000000 0.6780 0.6600 0.6356 0.6255 0.6250
1145.000000 0.6265 0.6796 0.7206 0.7348 0.7457
1140.000000 0.7598 0.7690 0.7783 0.7880 0.7960
1135.000000 0.8025 0.8069 0.8108 0.8156 0.8182
1130.000000 0.8196 0.8206 0.8223 0.8211 0.8208
1125.000000 0.8062 0.7895 0.7690 0.7697 0.7687
1120.000000 0.7734 0.7868 0.8005 0.8141 0.8275
1115.000000 0.8361 0.8432 0.8478 0.8501 0.8524
1110.000000 0.8542 0.8553 0.8564 0.8575 0.8583
1105.000000 0.8606 0.8591 0.8590 0.8586 0.8558
1100.000000 0.8518 0.8475 0.8410 0.8334 0.8228
1095.000000 0.8153 0.8061 0.7974 0.7904 0.7697
1090.000000 0.7484 0.7390 0.7388 0.7381 0.7435
1085.000000 0.7631 0.7828 0.7950 0.8043 0.8176
1080.000000 0.8304 0.8343 0.8366 0.8389 0.8408
1075.000000 0.8420 0.8432 0.8441 0.8449 0.8465
1070.000000 0.8457 0.8440 0.8404 0.8344 0.8215
1065.000000 0.8110 0.7728 0.7371 0.7242 0.7128
1060.000000 0.7044 0.7024 0.7017 0.7011 0.6988
1055.000000 0.6233 0.5602 0.4971 0.4340 0.3709
1050.000000 0.3078 0.2447 0.2392 0.2389 0.2598
1045.000000 0.3286 0.3974 0.4660 0.5349 0.6036
1040.000000 0.6724 0.7326 0.7344 0.7360 0.7371
1035.000000 0.7381 0.7390 0.7443 0.7611 0.7781
1030.000000 0.7950 0.8054 0.8044 0.8047 0.8038
1025.000000 0.8001 0.7953 0.7858 0.7754 0.7717
1020.000000 0.7689 0.7694 0.7704 0.7761 0.7815
1015.000000 0.7837 0.7876 0.7921 0.7942 0.7947
1010.000000 0.7950 0.7876 0.7669 0.7565 0.7258
1005.000000 0.6950 0.6641 0.6331 0.6022 0.5712
1000.000000 0.5404 0.5094 0.4785 0.4745 0.4806
995.000000 0.4833 0.4727 0.4525 0.4323 0.4131
990.000000 0.4112 0.4141 0.4506 0.5040 0.5575
985.000000 0.6109 0.6644 0.6976 0.7206 0.7221
980.000000 0.7222 0.7206 0.7171 0.7165 0.7224
975.000000 0.7365 0.7592 0.7817 0.7964 0.8032
970.000000 0.8095 0.8096 0.8069 0.8041 0.8039
965.000000 0.8184 0.8418 0.8557 0.8605 0.8652
960.000000 0.8698 0.8731 0.8755 0.8774 0.8787
955.000000 0.8798 0.8799 0.8800 0.8796 0.8786
950.000000 0.8766 0.8742 0.8718 0.8686 0.8623
945.000000 0.8549 0.8443 0.8274 0.7953 0.7358
940.000000 0.7051 0.6884 0.6292 0.6095 0.5830
935.000000 0.5531 0.5231 0.4932 0.4633 0.4334
930.000000 0.4034 0.3827 0.3602 0.3523 0.3452
925.000000 0.3346 0.3048 0.2776 0.2505 0.2234
920.000000 0.2173 0.2179 0.2168 0.2208 0.2437
915.000000 0.3033 0.3655 0.4276 0.4897 0.5518
910.000000 0.6139 0.6722 0.7288 0.7537 0.7665
905.000000 0.7804 0.7938 0.8061 0.8172 0.8283
900.000000 0.8397 0.8461 0.8524 0.8578 0.8628
895.000000 0.8678 0.8730 0.8782 0.8824 0.8865
890.000000 0.8891 0.8917 0.8940 0.8961 0.8981
885.000000 0.8997 0.9013 0.9028 0.9042 0.9055
880.000000 0.9068 0.9081 0.9091 0.9102 0.9112
875.000000 0.9121 0.9131 0.9141 0.9150 0.9156
870.000000 0.9163 0.9170 0.9175 0.9182 0.9188
865.000000 0.9202 0.9190 0.9187 0.9184 0.9168
860.000000 0.9078 0.8933 0.8789 0.8644 0.8500
855.000000 0.8355 0.8211 0.8068 0.8041 0.8048
850.000000 0.8246 0.8574 0.8837 0.8941 0.8992
845.000000 0.9023 0.9036 0.9041 0.9046 0.9068
840.000000 0.9052 0.9050 0.9041 0.9011 0.8950
835.000000 0.8885 0.8777 0.8594 0.8425 0.8287
830.000000 0.8148 0.7382 0.6597 0.6431 0.6330
825.000000 0.6224 0.6105 0.5929 0.5568 0.4953
820.000000 0.4339 0.3226 0.3234 0.3414 0.3840
815.000000 0.4264 0.4688 0.5112 0.5537 0.6021
810.000000 0.6604 0.7187 0.8065 0.8058 0.7551
805.000000 0.6699 0.6710 0.6805 0.7178 0.7553
800.000000 0.7926 0.8287 0.8291 0.8024 0.7468
795.000000 0.6914 0.6358 0.5803 0.5248 0.4692
790.000000 0.4137 0.3582 0.3027 0.2609 0.2602
785.000000 0.2823 0.3065 0.3191 0.3209 0.3225
780.000000 0.3264 0.3584 0.4101 0.4618 0.5134
775.000000 0.5651 0.5789 0.5847 0.5883 0.5901
770.000000 0.5912 0.6017 0.6316 0.6615 0.6914
765.000000 0.7212 0.7511 0.7590 0.7690 0.7864
760.000000 0.8003 0.8198 0.8380 0.8499 0.8562
755.000000 0.8594 0.8604 0.8607 0.8610 0.8613
750.000000 0.8617 0.8621 0.8628 0.8636 0.8649
745.000000 0.8699 0.8778 0.8800 0.8812 0.8818
740.000000 0.8823 0.8832 0.8831 0.8827 0.8814
735.000000 0.8777 0.8735 0.8659 0.8560 0.8433
730.000000 0.8358 0.8121 0.7688 0.7255 0.6821
725.000000 0.6388 0.5954 0.5703 0.5699 0.5705
720.000000 0.5789 0.6259 0.7411 0.7687 0.7968
715.000000 0.8158 0.8353 0.8498 0.8643 0.8759
710.000000 0.8861 0.8952 0.9014 0.9071 0.9108
705.000000 0.9136 0.9153 0.9170 0.9188 0.9206
700.000000 0.9225 0.9243 0.9259 0.9274 0.9290
695.000000 0.9300 0.9308 0.9316 0.9323 0.9331
690.000000 0.9334 0.9347 0.9339 0.9342 0.9343
685.000000 0.9344 0.9345 0.9345 0.9343 0.9336
680.000000 0.9320 0.9295 0.9261 0.9248 0.9241
675.000000 0.9234 0.9227 0.9220 0.9213 0.9203
670.000000 0.9178 0.9153 0.9109 0.9050 0.8984
665.000000 0.8809 0.8242 0.7749 0.7111 0.6472
660.000000 0.5835 0.5197 0.4560 0.3922 0.3725
655.000000 0.4109 0.4694 0.5279 0.5864 0.6449
650.000000 0.7034 0.7618 0.8417 0.8568 0.8642
645.000000 0.8704 0.8761 0.8811 0.8849 0.8860
640.000000 0.8868 0.8875 0.8862 0.8838 0.8755
635.000000 0.8508 0.8328 0.8181 0.7368 0.6444
630.000000 0.5520 0.4595 0.3671 0.2817 0.2820
625.000000 0.3525 0.4408 0.5290 0.6173 0.7337
620.000000 0.7544 0.7700 0.7857 0.7969 0.8051
615.000000 0.8135 0.8221 0.8303 0.8402 0.8532
610.000000 0.8602 0.8645 0.8671 0.8688 0.8700
605.000000 0.8710 0.8705 0.8724 0.8724 0.8723
600.000000 0.8702 0.8675 0.8639 0.8603 0.8544
595.000000 0.8484 0.8390 0.8277 0.8110 0.7861
590.000000 0.7535 0.7124 0.6539 0.5953 0.5368
585.000000 0.4782 0.4312 0.4141 0.3982 0.3826
580.000000 0.3724 0.4071 0.4696 0.5321 0.5946
575.000000 0.6569 0.6946 0.7706 0.7783 0.7839
570.000000 0.7886 0.7932 0.7969 0.8006 0.8040
565.000000 0.8068 0.8099 0.8124 0.8149 0.8171
560.000000 0.8190 0.8203 0.8210 0.8213 0.8213
555.000000 0.8214 0.8216 0.8224 0.8236 0.8250
550.000000 0.8271 0.8262 0.8285 0.8090 0.8038
545.000000 0.7985 0.7933 0.7888 0.7817 0.7832
540.000000 0.7860 0.8058 0.8131 0.8202 0.8257
535.000000 0.8289 0.8315 0.8325 0.8337 0.8356
530.000000 0.8356 0.8355 0.8348 0.8324 0.7960
525.000000 0.7908 0.7880 0.7871 0.7864 0.7926
520.000000 0.7990 0.8046 0.8078 0.8101 0.8118
515.000000 0.8140 0.8132 0.8071 0.7801 0.7806
510.000000 0.7811 0.7921 0.8057 0.8143 0.8185
505.000000 0.8231 0.8282 0.8311 0.8333 0.8351
500.000000 0.8363 0.8374 0.8381 0.8387 0.8394
495.000000 0.8395 0.8395 0.8401 0.8393 0.8391
490.000000 0.8388 0.8381 0.8375 0.8359 0.8344
485.000000 0.8328 0.8303 0.8271 0.8234 0.8192
480.000000 0.8154 0.8119 0.8076 0.8018 0.7946
475.000000 0.7875 0.7765 0.7690 0.7661 0.7648
470.000000 0.7641 0.7611 0.7650 0.7662 0.7676
465.000000 0.7690 0.7704 0.7715 0.7725 0.7738
460.000000 0.7750 0.7762
##END=
