##TITLE=ISO-CHOLESTERYLAMINE, HYDROCHLORIDE
##JCAMP-DX=4.24
##DATA TYPE=INFRARED SPECTRUM
##CLASS=COBLENTZ III
##ORIGIN=SMITH KLINE & FRENCH LABS.
##OWNER=COBLENTZ SOCIETY
Collection (C) 2018 copyright by the U.S. Secretary of Commerce
on behalf of the United States of America. All rights reserved.
##DATE=1967/01/11
##MOLFORM=C27 H48 Cl N
##SOURCE REFERENCE=COBLENTZ NO. 9135
##$NIST ID=B6009135
##$NIST SOURCE=COBLENTZ
##$NIST IMAGE=cob9135
##SPECTROMETER/DATA SYSTEM=Not specified, most likely a prism spectrometer.
##INSTRUMENT PARAMETERS=NaCl PRISM
##STATE=SOLID (OIL MULL)
$$SPECTRAL CONTAMINATION DUE TO OIL AROUND 2900, 1450, 1380 CM^-^1
##SAMPLING PROCEDURE=TRANSMISSION
##RESOLUTION=2
##DATA PROCESSING=DIGITIZED BY NIST FROM HARD COPY
##XUNITS=MICROMETERS
##YUNITS=TRANSMITTANCE
##XFACTOR=1.000000
##YFACTOR=1
##DELTAX=000.004908
##FIRSTX=1.984
##LASTX=14.8626
##FIRSTY=0.95
##MAXX=14.8626
##MINX=1.984
##MAXY=0.959
##MINY=0.077
##NPOINTS=2625
##XYDATA=(X++(Y..Y))
1.984000 0.9500 0.9500 0.9500 0.9500 0.9500
2.008549 0.9500 0.9500 0.9500 0.9500 0.9500
2.033000 0.9500 0.9520 0.9530 0.9530 0.9540
2.057549 0.9560 0.9560 0.9570 0.9580 0.9580
2.082000 0.9590 0.9590 0.9590 0.9590 0.9590
2.106549 0.9590 0.9590 0.9580 0.9580 0.9580
2.131000 0.9580 0.9580 0.9570 0.9570 0.9570
2.155549 0.9570 0.9570 0.9560 0.9560 0.9560
2.180000 0.9560 0.9540 0.9560 0.9560 0.9540
2.204549 0.9530 0.9530 0.9520 0.9520 0.9510
2.229000 0.9510 0.9500 0.9500 0.9500 0.9460
2.253549 0.9390 0.9330 0.9200 0.9060 0.8900
2.279000 0.8740 0.8610 0.8480 0.8400 0.8290
2.303549 0.8130 0.8090 0.8080 0.7970 0.7970
2.328000 0.7970 0.7970 0.7970 0.7970 0.7990
2.352549 0.8000 0.8010 0.8030 0.8070 0.8120
2.377000 0.8130 0.8170 0.8200 0.8230 0.8230
2.401549 0.8230 0.8240 0.8240 0.8240 0.8240
2.426000 0.8250 0.8250 0.8250 0.8250 0.8270
2.450549 0.8340 0.8360 0.8410 0.8470 0.8550
2.475000 0.8620 0.8700 0.8790 0.8870 0.8950
2.499549 0.9010 0.9060 0.9070 0.9070 0.9080
2.524000 0.9080 0.9080 0.9090 0.9120 0.9140
2.548549 0.9180 0.9220 0.9220 0.9230 0.9230
2.573000 0.9230 0.9230 0.9230 0.9230 0.9230
2.597549 0.9240 0.9250 0.9280 0.9310 0.9340
2.622000 0.9370 0.9410 0.9430 0.9460 0.9480
2.646549 0.9480 0.9480 0.9480 0.9500 0.9500
2.671000 0.9500 0.9500 0.9500 0.9500 0.9500
2.695549 0.9500 0.9500 0.9500 0.9500 0.9500
2.720000 0.9500 0.9500 0.9500 0.9500 0.9470
2.744549 0.9460 0.9420 0.9420 0.9390 0.9310
2.769000 0.9200 0.9090 0.9000 0.8900 0.8830
2.793549 0.8780 0.8680 0.8580 0.8470 0.8350
2.818000 0.8240 0.8130 0.8010 0.7770 0.7640
2.842549 0.7520 0.7400 0.7280 0.7160 0.7040
2.867000 0.6930 0.6800 0.6690 0.6580 0.6470
2.891549 0.6380 0.6270 0.6160 0.6060 0.6020
2.917000 0.5950 0.5910 0.5880 0.5840 0.5820
2.941549 0.5800 0.5780 0.5760 0.5730 0.5720
2.966000 0.5740 0.5780 0.5820 0.5870 0.5900
2.990549 0.5950 0.6010 0.6060 0.6110 0.6170
3.015000 0.6210 0.6270 0.6330 0.6350 0.6380
3.039549 0.6390 0.6410 0.6430 0.6440 0.6460
3.064000 0.6470 0.6500 0.6470 0.6470 0.6280
3.088549 0.6130 0.5820 0.5650 0.5480 0.5310
3.113000 0.5120 0.4990 0.4840 0.4710 0.4560
3.137549 0.4480 0.4390 0.4360 0.4310 0.4260
3.162000 0.4210 0.4160 0.4120 0.4100 0.4090
3.186549 0.3730 0.3560 0.3410 0.3250 0.3100
3.211000 0.2970 0.2820 0.2690 0.2570 0.2440
3.235549 0.2320 0.2210 0.2100 0.1880 0.1790
3.260000 0.1680 0.1580 0.1480 0.1380 0.1250
3.284549 0.1230 0.1190 0.1150 0.1130 0.1100
3.309000 0.1090 0.1090 0.1080 0.1070 0.1040
3.333549 0.1020 0.1020 0.0970 0.0930 0.0920
3.358000 0.0920 0.0910 0.0900 0.0880 0.0860
3.382549 0.0850 0.0840 0.0840 0.0820 0.0800
3.407000 0.0800 0.0790 0.0790 0.0770 0.0790
3.431549 0.0800 0.0820 0.0840 0.0850 0.0850
3.456000 0.0820 0.0810 0.0800 0.0800 0.0800
3.480549 0.0800 0.0800 0.0810 0.0810 0.0810
3.506000 0.0770 0.0790 0.0790 0.0790 0.0800
3.530549 0.0840 0.0880 0.0960 0.1040 0.1150
3.555000 0.1290 0.1420 0.1580 0.1750 0.1920
3.579549 0.2090 0.2370 0.2630 0.2850 0.3030
3.604000 0.3190 0.3310 0.3420 0.3520 0.3590
3.628549 0.3660 0.3720 0.3770 0.3820 0.3880
3.653000 0.3940 0.3980 0.4010 0.4090 0.4190
3.677549 0.4190 0.4210 0.4250 0.4310 0.4380
3.702000 0.4450 0.4540 0.4610 0.4680 0.4750
3.726549 0.4780 0.4820 0.4840 0.4870 0.4900
3.751000 0.4930 0.4950 0.4980 0.5010 0.5050
3.775549 0.5070 0.5110 0.5160 0.5200 0.5240
3.800000 0.5270 0.5290 0.5330 0.5340 0.5340
3.824549 0.5340 0.5340 0.5350 0.5350 0.5370
3.849000 0.5370 0.5380 0.5380 0.5400 0.5400
3.873549 0.5430 0.5540 0.5670 0.5780 0.5890
3.898000 0.5990 0.6040 0.6090 0.6170 0.6260
3.922549 0.6320 0.6390 0.6450 0.6500 0.6550
3.947000 0.6620 0.6680 0.6740 0.6800 0.6860
3.971549 0.6930 0.6970 0.7040 0.7080 0.7130
3.996000 0.7190 0.7250 0.7320 0.7360 0.7400
4.020549 0.7440 0.7470 0.7520 0.7600 0.7710
4.045000 0.7850 0.7910 0.7940 0.7960 0.7960
4.069549 0.7990 0.8000 0.8000 0.8000 0.8010
4.094000 0.8020 0.8020 0.8030 0.8030 0.8060
4.118549 0.8070 0.8090 0.8120 0.8130 0.8130
4.144000 0.8160 0.8170 0.8190 0.8200 0.8190
4.168549 0.8200 0.8220 0.8230 0.8250 0.8280
4.193000 0.8310 0.8350 0.8400 0.8450 0.8500
4.217549 0.8530 0.8580 0.8610 0.8630 0.8640
4.242000 0.8640 0.8660 0.8670 0.8670 0.8680
4.266549 0.8690 0.8690 0.8690 0.8690 0.8690
4.291000 0.8690 0.8690 0.8690 0.8700 0.8690
4.315549 0.8690 0.8680 0.8680 0.8680 0.8660
4.340000 0.8640 0.8640 0.8640 0.8640 0.8640
4.364549 0.8640 0.8630 0.8640 0.8630 0.8630
4.389000 0.8640 0.8610 0.8610 0.8610 0.8610
4.413549 0.8610 0.8610 0.8610 0.8610 0.8620
4.438000 0.8660 0.8670 0.8690 0.8700 0.8720
4.462549 0.8730 0.8740 0.8740 0.8750 0.8750
4.487000 0.8750 0.8750 0.8750 0.8750 0.8750
4.511549 0.8740 0.8690 0.8700 0.8700 0.8720
4.536000 0.8700 0.8700 0.8700 0.8680 0.8680
4.560549 0.8670 0.8660 0.8640 0.8640 0.8640
4.585000 0.8640 0.8640 0.8640 0.8630 0.8630
4.609549 0.8630 0.8630 0.8630 0.8660 0.8660
4.634000 0.8660 0.8660 0.8660 0.8660 0.8670
4.658549 0.8670 0.8670 0.8670 0.8670 0.8670
4.683000 0.8670 0.8670 0.8670 0.8680 0.8680
4.707549 0.8680 0.8680 0.8680 0.8680 0.8680
4.733000 0.8680 0.8680 0.8680 0.8680 0.8680
4.757549 0.8680 0.8680 0.8680 0.8680 0.8680
4.782000 0.8680 0.8670 0.8670 0.8670 0.8660
4.806549 0.8660 0.8660 0.8660 0.8660 0.8660
4.831000 0.8660 0.8640 0.8630 0.8630 0.8630
4.855549 0.8630 0.8630 0.8630 0.8620 0.8620
4.880000 0.8620 0.8620 0.8620 0.8610 0.8580
4.904549 0.8570 0.8520 0.8480 0.8470 0.8460
4.929000 0.8450 0.8400 0.8340 0.8280 0.8240
4.953549 0.8190 0.8170 0.8160 0.8060 0.8020
4.978000 0.7920 0.7920 0.7910 0.7900 0.7880
5.002549 0.7860 0.7860 0.7860 0.7850 0.7860
5.027000 0.7850 0.7850 0.7850 0.7850 0.7860
5.051549 0.7860 0.7880 0.7880 0.7890 0.7900
5.076000 0.7900 0.7900 0.7900 0.7910 0.7910
5.100549 0.7910 0.7920 0.7950 0.7970 0.7990
5.125000 0.8000 0.8010 0.8020 0.8030 0.8050
5.149549 0.8060 0.8070 0.8130 0.8190 0.8230
5.174000 0.8250 0.8280 0.8290 0.8310 0.8330
5.198549 0.8350 0.8360 0.8390 0.8400 0.8410
5.223000 0.8420 0.8470 0.8500 0.8520 0.8550
5.247549 0.8570 0.8590 0.8620 0.8640 0.8670
5.272000 0.8690 0.8700 0.8720 0.8730 0.8740
5.296549 0.8740 0.8750 0.8760 0.8780 0.8790
5.321000 0.8800 0.8800 0.8830 0.8830 0.8840
5.345549 0.8850 0.8850 0.8860 0.8860 0.8870
5.371000 0.8890 0.8890 0.8900 0.8900 0.8910
5.395549 0.8920 0.8920 0.8920 0.8940 0.8940
5.420000 0.8940 0.8950 0.8950 0.8960 0.8960
5.444549 0.8960 0.8970 0.8970 0.8970 0.8980
5.469000 0.8980 0.8980 0.9000 0.9000 0.9000
5.493549 0.9000 0.9010 0.9010 0.9010 0.9010
5.518000 0.9010 0.9020 0.9020 0.9020 0.9020
5.542549 0.9020 0.9020 0.9030 0.9030 0.9030
5.567000 0.9030 0.9030 0.9030 0.9030 0.9030
5.591549 0.9040 0.9040 0.9040 0.9040 0.9040
5.616000 0.9040 0.9040 0.9040 0.9040 0.9040
5.640549 0.9040 0.9040 0.9040 0.9040 0.9030
5.665000 0.9030 0.9030 0.9030 0.9030 0.9020
5.689549 0.9020 0.9020 0.9010 0.9010 0.9000
5.714000 0.9000 0.8980 0.8980 0.8970 0.8970
5.738549 0.8960 0.8960 0.8960 0.8950 0.8940
5.763000 0.8940 0.8920 0.8920 0.8910 0.8900
5.787549 0.8900 0.8890 0.8870 0.8870 0.8860
5.812000 0.8850 0.8840 0.8830 0.8810 0.8790
5.836549 0.8780 0.8760 0.8760 0.8750 0.8750
5.861000 0.8740 0.8730 0.8720 0.8700 0.8690
5.885549 0.8670 0.8640 0.8620 0.8570 0.8560
5.910000 0.8550 0.8530 0.8520 0.8510 0.8480
5.934549 0.8460 0.8400 0.8390 0.8360 0.8340
5.960000 0.8310 0.8300 0.8290 0.8290 0.8270
5.984549 0.8240 0.8200 0.8170 0.8140 0.8130
6.009000 0.8110 0.8080 0.8070 0.8050 0.8000
6.033549 0.7970 0.7960 0.7950 0.7940 0.7920
6.058000 0.7910 0.7850 0.7780 0.7780 0.7750
6.082549 0.7720 0.7710 0.7630 0.7610 0.7520
6.107000 0.7390 0.7290 0.7220 0.7160 0.7080
6.131549 0.7000 0.6880 0.6690 0.6450 0.6110
6.156000 0.5710 0.5480 0.5210 0.4940 0.4650
6.180549 0.4370 0.4060 0.3490 0.3220 0.2970
6.205000 0.2740 0.2590 0.2530 0.2470 0.2410
6.229549 0.2360 0.2360 0.2380 0.2420 0.2440
6.254000 0.2490 0.2710 0.2910 0.3110 0.3310
6.278549 0.3490 0.3810 0.3940 0.4080 0.4330
6.303000 0.4600 0.4850 0.5110 0.5350 0.5590
6.327549 0.5820 0.5930 0.6020 0.6220 0.6400
6.352000 0.6560 0.6710 0.6840 0.6950 0.7020
6.376549 0.7100 0.7120 0.7190 0.7290 0.7320
6.401000 0.7350 0.7360 0.7380 0.7390 0.7400
6.425549 0.7410 0.7410 0.7410 0.7410 0.7410
6.450000 0.7410 0.7400 0.7390 0.7390 0.7240
6.474549 0.7230 0.7220 0.7120 0.6860 0.6540
6.499000 0.6270 0.5720 0.5450 0.5180 0.4930
6.523549 0.4660 0.4400 0.4160 0.3660 0.3420
6.548000 0.3190 0.2950 0.2720 0.2490 0.2270
6.572549 0.2040 0.1870 0.1750 0.1680 0.1630
6.598000 0.1580 0.1550 0.1570 0.1590 0.1660
6.622549 0.1770 0.1900 0.1990 0.2050 0.2100
6.647000 0.2200 0.2310 0.2430 0.2550 0.2690
6.671549 0.2850 0.3030 0.3220 0.3440 0.3540
6.696000 0.3620 0.3770 0.3880 0.3920 0.3900
6.720549 0.3820 0.3710 0.3600 0.3490 0.3310
6.745000 0.3060 0.2690 0.2530 0.2380 0.2250
6.769549 0.2110 0.1850 0.1690 0.1510 0.1290
6.794000 0.1030 0.0860 0.0850 0.0850 0.0850
6.818549 0.0850 0.0850 0.0850 0.0850 0.0860
6.843000 0.0900 0.0930 0.0980 0.0980 0.0930
6.867549 0.0930 0.0930 0.0950 0.0950 0.0950
6.892000 0.0950 0.0950 0.0960 0.0970 0.0990
6.916549 0.1010 0.1050 0.1100 0.1150 0.1180
6.941000 0.1610 0.2050 0.2540 0.2850 0.3100
6.965549 0.3520 0.3880 0.4250 0.4590 0.4850
6.990000 0.4900 0.4930 0.5160 0.5380 0.5620
7.014549 0.5710 0.5820 0.5880 0.5890 0.5890
7.039000 0.5900 0.5900 0.5900 0.5900 0.5900
7.063549 0.5870 0.5740 0.5590 0.5280 0.5090
7.088000 0.4980 0.4790 0.4110 0.3270 0.3230
7.112549 0.3190 0.3170 0.3170 0.3170 0.3170
7.137000 0.3170 0.3200 0.3210 0.3220 0.3220
7.161549 0.3250 0.3250 0.3250 0.3250 0.2710
7.187000 0.2180 0.1590 0.1300 0.1010 0.0990
7.211549 0.0990 0.0990 0.0990 0.0990 0.0990
7.236000 0.0990 0.0990 0.1010 0.1050 0.1100
7.260549 0.1150 0.1200 0.1260 0.1320 0.1380
7.285000 0.1630 0.1790 0.1960 0.2040 0.2110
7.309549 0.2200 0.2270 0.2550 0.2810 0.3040
7.334000 0.3130 0.3340 0.3660 0.3830 0.4000
7.358549 0.4290 0.4490 0.4500 0.4610 0.4710
7.383000 0.4760 0.4790 0.4810 0.4780 0.4760
7.407549 0.4730 0.4710 0.4680 0.4660 0.4640
7.432000 0.4610 0.4590 0.4560 0.4550 0.4530
7.456549 0.4540 0.4560 0.4570 0.4590 0.4610
7.481000 0.4620 0.4650 0.4750 0.4850 0.4960
7.505549 0.5090 0.5160 0.5160 0.5160 0.5160
7.530000 0.5160 0.5160 0.5160 0.5160 0.5180
7.554549 0.5340 0.5420 0.5510 0.5620 0.5730
7.579000 0.5780 0.5820 0.5820 0.5820 0.5820
7.603549 0.5800 0.5800 0.5770 0.5710 0.5670
7.628000 0.5650 0.5620 0.5610 0.5590 0.5540
7.652549 0.5500 0.5480 0.5440 0.5380 0.5260
7.677000 0.5120 0.5060 0.4960 0.4880 0.4780
7.701549 0.4770 0.4790 0.5010 0.5210 0.5400
7.726000 0.5610 0.5800 0.5900 0.6000 0.6210
7.750549 0.6270 0.6280 0.6270 0.6260 0.6230
7.775000 0.6220 0.6110 0.6040 0.5740 0.5570
7.799549 0.5370 0.5350 0.5350 0.5380 0.5380
7.825000 0.5380 0.5400 0.5510 0.5610 0.5660
7.849549 0.5700 0.5700 0.5740 0.5790 0.5850
7.874000 0.5890 0.5990 0.6020 0.6050 0.6120
7.898549 0.6180 0.6260 0.6320 0.6400 0.6490
7.923000 0.6580 0.6600 0.6600 0.6520 0.6510
7.947549 0.6500 0.6510 0.6550 0.6600 0.6720
7.972000 0.6780 0.6820 0.6830 0.6840 0.6860
7.996549 0.6880 0.6900 0.6910 0.6930 0.6930
8.021000 0.6930 0.6930 0.6930 0.6910 0.6900
8.045549 0.6860 0.6850 0.6830 0.6800 0.6780
8.070000 0.6760 0.6760 0.6760 0.6760 0.6770
8.094549 0.6770 0.6770 0.6780 0.6790 0.6800
8.119000 0.6820 0.6830 0.6850 0.6890 0.6910
8.143549 0.6940 0.6950 0.6970 0.6970 0.6970
8.168000 0.6970 0.6900 0.6860 0.6850 0.6820
8.192549 0.6780 0.6720 0.6630 0.6520 0.6400
8.217000 0.6270 0.6130 0.6000 0.5740 0.5630
8.241549 0.5540 0.5460 0.5420 0.5400 0.5430
8.266000 0.5500 0.5620 0.5740 0.5870 0.5950
8.290549 0.5990 0.6020 0.6110 0.6190 0.6270
8.315000 0.6350 0.6400 0.6570 0.6650 0.6690
8.339549 0.6770 0.6800 0.6900 0.6960 0.6990
8.364000 0.6960 0.6940 0.6900 0.6890 0.6840
8.388549 0.6800 0.6780 0.6780 0.6780 0.6800
8.413000 0.6830 0.6830 0.6860 0.6890 0.6930
8.437549 0.6950 0.6990 0.7010 0.7010 0.7000
8.463000 0.6960 0.6930 0.6890 0.6850 0.6820
8.487549 0.6800 0.6780 0.6720 0.6650 0.6560
8.512000 0.6460 0.6350 0.6220 0.6060 0.5650
8.536549 0.5380 0.5350 0.5330 0.5320 0.5320
8.561000 0.5290 0.5280 0.5290 0.5330 0.5400
8.585549 0.5520 0.5700 0.5890 0.5960 0.6020
8.610000 0.6110 0.6120 0.6220 0.6270 0.6340
8.634549 0.6370 0.6390 0.6410 0.6440 0.6440
8.659000 0.6410 0.6400 0.6370 0.6300 0.6230
8.683549 0.6130 0.6070 0.6050 0.6010 0.5940
8.708000 0.5930 0.5930 0.5890 0.5880 0.5880
8.732549 0.5880 0.5870 0.5870 0.5870 0.5840
8.757000 0.5820 0.5800 0.5830 0.5930 0.5980
8.781549 0.6010 0.6050 0.6130 0.6220 0.6300
8.806000 0.6400 0.6460 0.6520 0.6540 0.6580
8.830549 0.6600 0.6630 0.6660 0.6670 0.6670
8.855000 0.6680 0.6670 0.6630 0.6570 0.6490
8.879549 0.6400 0.6320 0.6260 0.6190 0.6120
8.904000 0.6090 0.6050 0.6090 0.6130 0.6270
8.928549 0.6400 0.6440 0.6490 0.6550 0.6570
8.953000 0.6610 0.6610 0.6660 0.6710 0.6740
8.977549 0.6770 0.6800 0.6830 0.6840 0.6860
9.002000 0.6880 0.6890 0.6900 0.6910 0.6910
9.026549 0.6930 0.6930 0.6950 0.6970 0.7020
9.052000 0.7060 0.7100 0.7130 0.7170 0.7210
9.076549 0.7240 0.7270 0.7290 0.7300 0.7330
9.101000 0.7320 0.7320 0.7320 0.7300 0.7300
9.125549 0.7270 0.7210 0.7130 0.7050 0.6990
9.150000 0.6940 0.6910 0.6890 0.6880 0.6860
9.174549 0.6850 0.6830 0.6830 0.6820 0.6800
9.199000 0.6780 0.6740 0.6690 0.6660 0.6620
9.223549 0.6600 0.6560 0.6510 0.6460 0.6410
9.248000 0.6350 0.6280 0.6190 0.6180 0.6180
9.272549 0.6170 0.6160 0.6160 0.6180 0.6180
9.297000 0.6210 0.6230 0.6240 0.6320 0.6410
9.321549 0.6500 0.6540 0.6560 0.6560 0.6570
9.346000 0.6570 0.6570 0.6560 0.6550 0.6550
9.370549 0.6540 0.6520 0.6470 0.6450 0.6340
9.395000 0.6240 0.6120 0.6000 0.6000 0.5880
9.419549 0.5830 0.5820 0.5730 0.5560 0.5440
9.444000 0.5320 0.5230 0.5140 0.5050 0.4990
9.468549 0.4950 0.4890 0.4850 0.4820 0.4810
9.493000 0.4610 0.4530 0.4480 0.4550 0.4620
9.517549 0.4700 0.4770 0.4840 0.4920 0.4990
9.542000 0.5060 0.5260 0.5430 0.5430 0.5430
9.566549 0.5430 0.5420 0.5400 0.5370 0.5320
9.591000 0.5230 0.5140 0.5030 0.4920 0.4810
9.615549 0.4600 0.4590 0.4600 0.4670 0.4760
9.640000 0.4810 0.4850 0.4900 0.4950 0.4990
9.664549 0.5000 0.5050 0.5060 0.5060 0.5060
9.690000 0.4980 0.4900 0.4870 0.4790 0.4720
9.714549 0.4640 0.4570 0.4510 0.4400 0.4330
9.739000 0.4290 0.4290 0.4290 0.4320 0.4490
9.763549 0.4660 0.4810 0.4950 0.5090 0.5220
9.788000 0.5340 0.5480 0.5600 0.5720 0.5840
9.812549 0.5980 0.6040 0.6100 0.6170 0.6210
9.837000 0.6220 0.6230 0.6260 0.6330 0.6390
9.861549 0.6410 0.6440 0.6460 0.6490 0.6510
9.886000 0.6550 0.6570 0.6600 0.6620 0.6650
9.910549 0.6630 0.6630 0.6620 0.6610 0.6600
9.935000 0.6510 0.6440 0.6430 0.6430 0.6430
9.959549 0.6430 0.6430 0.6430 0.6430 0.6430
9.984000 0.6430 0.6430 0.6330 0.6230 0.6100
10.008549 0.5880 0.5830 0.5800 0.5800 0.5800
10.033000 0.5800 0.5830 0.5880 0.5930 0.5980
10.057549 0.6000 0.6020 0.6090 0.6130 0.6180
10.082000 0.6220 0.6240 0.6260 0.6330 0.6390
10.106549 0.6450 0.6500 0.6550 0.6600 0.6650
10.131000 0.6690 0.6740 0.6790 0.6850 0.6910
10.155549 0.6970 0.7000 0.7040 0.7040 0.7040
10.180000 0.7040 0.7040 0.7040 0.7040 0.7010
10.204549 0.6990 0.6960 0.6940 0.6910 0.6900
10.229000 0.6880 0.6840 0.6830 0.6800 0.6730
10.253549 0.6720 0.6690 0.6650 0.6580 0.6520
10.279000 0.6460 0.6390 0.6300 0.6230 0.6160
10.303549 0.6100 0.6020 0.5740 0.5720 0.5680
10.328000 0.5670 0.5540 0.5520 0.5430 0.5370
10.352549 0.5370 0.5350 0.5350 0.5350 0.5350
10.377000 0.5350 0.5380 0.5610 0.5790 0.5880
10.401549 0.5960 0.6010 0.6050 0.6100 0.6220
10.426000 0.6300 0.6370 0.6430 0.6460 0.6510
10.450549 0.6560 0.6610 0.6630 0.6630 0.6620
10.475000 0.6620 0.6620 0.6620 0.6620 0.6630
10.499549 0.6630 0.6630 0.6630 0.6630 0.6660
10.524000 0.6670 0.6690 0.6740 0.6770 0.6770
10.548549 0.6770 0.6770 0.6770 0.6770 0.6770
10.573000 0.6760 0.6710 0.6680 0.6560 0.6460
10.597549 0.6390 0.6340 0.6330 0.6340 0.6390
10.622000 0.6450 0.6500 0.6550 0.6620 0.6680
10.646549 0.6760 0.6800 0.6880 0.6900 0.6910
10.671000 0.6950 0.6990 0.6990 0.6990 0.6990
10.695549 0.6960 0.6950 0.6940 0.6930 0.6900
10.720000 0.6840 0.6770 0.6710 0.6630 0.6560
10.744549 0.6490 0.6410 0.6340 0.6270 0.6190
10.769000 0.6180 0.6070 0.6010 0.5840 0.5830
10.793549 0.5830 0.5830 0.5830 0.5850 0.5880
10.818000 0.5900 0.5930 0.5940 0.5980 0.6000
10.842549 0.6020 0.6060 0.6100 0.6120 0.6190
10.867000 0.6260 0.6320 0.6370 0.6410 0.6450
10.891549 0.6500 0.6540 0.6570 0.6610 0.6650
10.917000 0.6680 0.6710 0.6740 0.6780 0.6820
10.941549 0.6850 0.6890 0.6950 0.7010 0.7070
10.966000 0.7140 0.7210 0.7280 0.7340 0.7410
10.990549 0.7470 0.7550 0.7600 0.7660 0.7710
11.015000 0.7740 0.7750 0.7770 0.7770 0.7770
11.039549 0.7770 0.7770 0.7770 0.7770 0.7780
11.064000 0.7780 0.7780 0.7780 0.7770 0.7750
11.088549 0.7740 0.7730 0.7730 0.7730 0.7730
11.113000 0.7720 0.7740 0.7750 0.7770 0.7770
11.137549 0.7780 0.7800 0.7800 0.7800 0.7800
11.162000 0.7800 0.7800 0.7800 0.7800 0.7800
11.186549 0.7800 0.7800 0.7800 0.7800 0.7800
11.211000 0.7800 0.7800 0.7790 0.7780 0.7770
11.235549 0.7770 0.7770 0.7770 0.7770 0.7770
11.260000 0.7780 0.7780 0.7790 0.7800 0.7800
11.284549 0.7800 0.7810 0.7810 0.7830 0.7830
11.309000 0.7830 0.7830 0.7830 0.7830 0.7830
11.333549 0.7830 0.7830 0.7830 0.7830 0.7830
11.358000 0.7830 0.7840 0.7840 0.7850 0.7860
11.382549 0.7860 0.7860 0.7860 0.7890 0.7900
11.407000 0.7900 0.7910 0.7910 0.7940 0.7950
11.431549 0.7970 0.7990 0.8000 0.8000 0.8000
11.456000 0.8000 0.8010 0.8010 0.8010 0.8010
11.480549 0.8010 0.7990 0.7990 0.7960 0.7950
11.506000 0.7940 0.7920 0.7900 0.7900 0.7880
11.530549 0.7860 0.7860 0.7840 0.7830 0.7830
11.555000 0.7830 0.7830 0.7830 0.7830 0.7830
11.579549 0.7830 0.7840 0.7860 0.7880 0.7900
11.604000 0.7910 0.7940 0.7950 0.7970 0.7990
11.628549 0.8000 0.8010 0.8010 0.8010 0.8010
11.653000 0.8020 0.8020 0.8020 0.8020 0.8020
11.677549 0.8020 0.8030 0.8030 0.8030 0.8030
11.702000 0.8030 0.8030 0.8030 0.8030 0.8030
11.726549 0.8030 0.8030 0.8030 0.8030 0.8030
11.751000 0.8030 0.8030 0.8030 0.8020 0.8020
11.775549 0.8020 0.8010 0.8010 0.8000 0.8000
11.800000 0.7990 0.7970 0.7970 0.7960 0.7960
11.824549 0.7950 0.7950 0.7950 0.7950 0.7940
11.849000 0.7920 0.7910 0.7890 0.7880 0.7860
11.873549 0.7850 0.7840 0.7830 0.7810 0.7810
11.898000 0.7810 0.7800 0.7800 0.7790 0.7790
11.922549 0.7780 0.7780 0.7770 0.7750 0.7740
11.947000 0.7740 0.7740 0.7730 0.7730 0.7740
11.971549 0.7750 0.7770 0.7770 0.7780 0.7790
11.996000 0.7800 0.7800 0.7810 0.7830 0.7830
12.020549 0.7830 0.7840 0.7840 0.7840 0.7840
12.045000 0.7840 0.7840 0.7840 0.7840 0.7840
12.069549 0.7840 0.7840 0.7840 0.7830 0.7830
12.094000 0.7830 0.7830 0.7810 0.7810 0.7810
12.118549 0.7800 0.7790 0.7790 0.7780 0.7750
12.144000 0.7740 0.7680 0.7660 0.7630 0.7600
12.168549 0.7550 0.7490 0.7470 0.7440 0.7440
12.193000 0.7440 0.7440 0.7440 0.7500 0.7560
12.217549 0.7580 0.7600 0.7620 0.7630 0.7640
12.242000 0.7640 0.7640 0.7630 0.7620 0.7620
12.266549 0.7610 0.7600 0.7570 0.7550 0.7510
12.291000 0.7460 0.7410 0.7340 0.7280 0.7210
12.315549 0.7120 0.7020 0.6930 0.6800 0.6690
12.340000 0.6560 0.6430 0.6280 0.6120 0.6050
12.364549 0.5910 0.5840 0.5780 0.5720 0.5660
12.389000 0.5590 0.5570 0.5600 0.5630 0.5710
12.413549 0.5830 0.5990 0.6070 0.6150 0.6280
12.438000 0.6430 0.6550 0.6670 0.6790 0.6890
12.462549 0.7000 0.7100 0.7180 0.7270 0.7340
12.487000 0.7410 0.7490 0.7530 0.7600 0.7640
12.511549 0.7690 0.7730 0.7770 0.7790 0.7810
12.536000 0.7830 0.7840 0.7850 0.7860 0.7880
12.560549 0.7890 0.7900 0.7920 0.7920 0.7940
12.585000 0.7940 0.7950 0.7960 0.7960 0.7970
12.609549 0.7970 0.7990 0.7990 0.8000 0.8000
12.634000 0.8000 0.8000 0.8010 0.8010 0.8010
12.658549 0.8010 0.8010 0.8010 0.8010 0.8010
12.683000 0.8010 0.8010 0.8010 0.8010 0.8010
12.707549 0.8010 0.8010 0.8010 0.8010 0.8010
12.733000 0.8010 0.8010 0.8010 0.8010 0.8010
12.757549 0.8010 0.8010 0.8010 0.8010 0.8010
12.782000 0.8010 0.8010 0.8010 0.8010 0.8010
12.806549 0.8010 0.8010 0.8000 0.8000 0.8000
12.831000 0.8000 0.8000 0.8000 0.8000 0.8000
12.855549 0.7990 0.7990 0.7970 0.7970 0.7970
12.880000 0.7960 0.7960 0.7960 0.7950 0.7950
12.904549 0.7950 0.7940 0.7940 0.7940 0.7940
12.929000 0.7920 0.7920 0.7920 0.7910 0.7910
12.953549 0.7910 0.7900 0.7900 0.7890 0.7890
12.978000 0.7880 0.7880 0.7860 0.7860 0.7850
13.002549 0.7860 0.7860 0.7860 0.7860 0.7860
13.027000 0.7860 0.7860 0.7860 0.7860 0.7860
13.051549 0.7860 0.7860 0.7860 0.7860 0.7860
13.076000 0.7860 0.7860 0.7860 0.7860 0.7860
13.100549 0.7860 0.7860 0.7860 0.7860 0.7860
13.125000 0.7860 0.7860 0.7860 0.7860 0.7860
13.149549 0.7860 0.7860 0.7860 0.7860 0.7860
13.174000 0.7860 0.7850 0.7850 0.7850 0.7850
13.198549 0.7850 0.7850 0.7850 0.7840 0.7840
13.223000 0.7840 0.7830 0.7830 0.7830 0.7830
13.247549 0.7810 0.7810 0.7810 0.7810 0.7810
13.272000 0.7800 0.7800 0.7790 0.7790 0.7780
13.296549 0.7770 0.7770 0.7750 0.7750 0.7740
13.321000 0.7730 0.7720 0.7710 0.7690 0.7690
13.345549 0.7680 0.7680 0.7670 0.7670 0.7670
13.371000 0.7640 0.7630 0.7610 0.7580 0.7550
13.395549 0.7530 0.7530 0.7510 0.7500 0.7500
13.420000 0.7490 0.7470 0.7460 0.7440 0.7400
13.444549 0.7400 0.7390 0.7380 0.7360 0.7340
13.469000 0.7320 0.7280 0.7250 0.7220 0.7190
13.493549 0.7160 0.7120 0.7080 0.7050 0.7020
13.518000 0.6990 0.6960 0.6940 0.6910 0.6900
13.542549 0.6880 0.6850 0.6840 0.6820 0.6790
13.567000 0.6760 0.6730 0.6710 0.6690 0.6680
13.591549 0.6670 0.6660 0.6650 0.6610 0.6600
13.616000 0.6570 0.6550 0.6550 0.6550 0.6550
13.640549 0.6560 0.6560 0.6560 0.6560 0.6560
13.665000 0.6560 0.6560 0.6560 0.6560 0.6560
13.689549 0.6560 0.6560 0.6560 0.6560 0.6550
13.714000 0.6550 0.6550 0.6540 0.6540 0.6540
13.738549 0.6520 0.6520 0.6510 0.6510 0.6500
13.763000 0.6490 0.6470 0.6460 0.6450 0.6440
13.787549 0.6430 0.6410 0.6400 0.6390 0.6380
13.812000 0.6370 0.6350 0.6350 0.6350 0.6350
13.836549 0.6350 0.6350 0.6350 0.6350 0.6350
13.861000 0.6350 0.6350 0.6370 0.6370 0.6380
13.885549 0.6380 0.6400 0.6430 0.6490 0.6510
13.910000 0.6550 0.6570 0.6610 0.6630 0.6670
13.934549 0.6690 0.6720 0.6760 0.6780 0.6830
13.960000 0.6860 0.6880 0.6900 0.6930 0.6950
13.984549 0.6970 0.7010 0.7050 0.7080 0.7120
14.009000 0.7140 0.7170 0.7190 0.7220 0.7220
14.033549 0.7240 0.7270 0.7290 0.7300 0.7320
14.058000 0.7330 0.7340 0.7350 0.7360 0.7380
14.082549 0.7400 0.7410 0.7420 0.7440 0.7450
14.107000 0.7460 0.7460 0.7470 0.7470 0.7470
14.131549 0.7490 0.7490 0.7490 0.7490 0.7490
14.156000 0.7490 0.7490 0.7490 0.7490 0.7490
14.180549 0.7490 0.7490 0.7490 0.7490 0.7490
14.205000 0.7490 0.7490 0.7490 0.7470 0.7470
14.229549 0.7460 0.7460 0.7450 0.7440 0.7420
14.254000 0.7410 0.7400 0.7390 0.7380 0.7350
14.278549 0.7330 0.7290 0.7270 0.7230 0.7190
14.303000 0.7160 0.7130 0.7100 0.7060 0.7020
14.327549 0.7010 0.6990 0.6960 0.6930 0.6900
14.352000 0.6860 0.6840 0.6830 0.6800 0.6760
14.376549 0.6740 0.6740 0.6740 0.6740 0.6740
14.401000 0.6760 0.6780 0.6800 0.6840 0.6860
14.425549 0.6910 0.6940 0.6990 0.7010 0.7040
14.450000 0.7060 0.7100 0.7120 0.7130 0.7140
14.474549 0.7160 0.7170 0.7180 0.7210 0.7220
14.499000 0.7230 0.7240 0.7250 0.7250 0.7270
14.523549 0.7270 0.7270 0.7270 0.7270 0.7270
14.548000 0.7270 0.7270 0.7270 0.7270 0.7270
14.572549 0.7270 0.7250 0.7250 0.7240 0.7240
14.598000 0.7230 0.7220 0.7210 0.7190 0.7180
14.622549 0.7160 0.7130 0.7120 0.7100 0.7080
14.647000 0.7060 0.7050 0.7010 0.7000 0.6990
14.671549 0.6970 0.6960 0.6950 0.6940 0.6930
14.696000 0.6910 0.6900 0.6880 0.6860 0.6860
14.720549 0.6860 0.6860 0.6880 0.6900 0.6930
14.745000 0.6940 0.6950 0.6960 0.6970 0.6990
14.769549 0.7000 0.7000 0.7010 0.7010 0.7020
14.794000 0.7020 0.7020 0.7040 0.7040 0.7050
14.818549 0.7050 0.7060 0.7060 0.7070 0.7070
14.843000 0.7070 0.7070 0.7070 0.7070 0.7080
##END=
