##TITLE=Penicillin, 4-pyridylmethyl-, potassium salt
##JCAMP-DX=4.24
##DATA TYPE=INFRARED SPECTRUM
##CLASS=COBLENTZ III
##ORIGIN=SMITH, KLINE & FRENCH LABS.
##OWNER=Copyright (C) 1987 by the Coblentz Society
Collection (C) 2018 copyright by the U.S. Secretary of Commerce
on behalf of the United States of America. All rights reserved.
##DATE=1964/02/19
##MOLFORM=C15 H16 K N3 O4 S
##SOURCE REFERENCE=COBLENTZ NO. 7308
##$NIST ID=B6007308
##$NIST SOURCE=COBLENTZ
##$NIST IMAGE=cob7308
##SPECTROMETER/DATA SYSTEM=PERKIN-ELMER 21 (GRATING)
##INSTRUMENT PARAMETERS=NaCl PRISM
##STATE=SOLID (OIL MULL)
$$SPECTRAL CONTAMINATION DUE TO OIL AROUND 2840, 1460 CM^-^1
##SAMPLING PROCEDURE=TRANSMISSION
##RESOLUTION=2
##DATA PROCESSING=DIGITIZED BY COBLENTZ SOCIETY (BATCH II) FROM HARD COPY
##XUNITS=1/CM
##YUNITS=TRANSMITTANCE
##XFACTOR=1.0
##YFACTOR=1
##FIRSTX=668
##LASTX=4000
##FIRSTY=0.7242
##MAXX=4000
##MINX=668
##MAXY=0.911
##MINY=0.1075
##NPOINTS=3333
##XYDATA=(X++(Y..Y))
668.000000 0.7242 0.7330 0.7384 0.7402 0.7398
673.000000 0.7525 0.7549 0.7524 0.7502 0.7514
678.000000 0.7526 0.7534 0.7542 0.7550 0.7558
683.000000 0.7564 0.7570 0.7575 0.7581 0.7576
688.000000 0.7582 0.7588 0.7588 0.7581 0.7570
693.000000 0.7535 0.7481 0.7507 0.7535 0.7553
698.000000 0.7508 0.7450 0.7397 0.7358 0.7329
703.000000 0.7287 0.7247 0.7196 0.7144 0.7101
708.000000 0.7058 0.7015 0.6943 0.6845 0.6736
713.000000 0.6584 0.6449 0.6298 0.6158 0.6031
718.000000 0.6006 0.5997 0.6185 0.6471 0.6619
723.000000 0.6738 0.6851 0.6858 0.6848 0.6707
728.000000 0.6690 0.6569 0.6422 0.6319 0.6237
733.000000 0.6168 0.6152 0.6234 0.6337 0.6445
738.000000 0.6539 0.6633 0.6842 0.7016 0.7109
743.000000 0.7128 0.7142 0.7156 0.7167 0.7178
748.000000 0.7194 0.7104 0.7012 0.6956 0.6820
753.000000 0.6656 0.6570 0.6517 0.6343 0.6146
758.000000 0.5952 0.5678 0.5378 0.5358 0.5384
763.000000 0.5586 0.5938 0.6091 0.6103 0.6132
768.000000 0.6193 0.6223 0.6079 0.6105 0.6214
773.000000 0.6244 0.6296 0.6346 0.6391 0.6440
778.000000 0.6506 0.6645 0.6766 0.6816 0.6876
783.000000 0.6953 0.7046 0.7235 0.7295 0.7304
788.000000 0.7356 0.7438 0.7509 0.7592 0.7712
793.000000 0.7769 0.7776 0.7776 0.7751 0.7732
798.000000 0.7709 0.7681 0.7641 0.7281 0.6907
803.000000 0.6535 0.6163 0.5702 0.5563 0.5567
808.000000 0.6313 0.6834 0.7166 0.7279 0.7317
813.000000 0.7526 0.7614 0.7637 0.7643 0.7841
818.000000 0.7932 0.7972 0.7998 0.8023 0.8047
823.000000 0.8071 0.8096 0.8127 0.8156 0.8183
828.000000 0.8209 0.8225 0.8237 0.8241 0.8240
833.000000 0.8221 0.8203 0.8183 0.8164 0.8150
838.000000 0.8150 0.8189 0.8177 0.8190 0.8201
843.000000 0.8212 0.8215 0.8219 0.8225 0.8241
848.000000 0.8253 0.8262 0.8279 0.8265 0.8206
853.000000 0.8152 0.8111 0.8083 0.8057 0.8028
858.000000 0.7978 0.7947 0.7923 0.7902 0.7882
863.000000 0.7850 0.7888 0.7918 0.7958 0.7987
868.000000 0.7999 0.8043 0.8104 0.8120 0.8111
873.000000 0.8041 0.8008 0.8004 0.8027 0.8012
878.000000 0.8125 0.8123 0.8128 0.8093 0.8060
883.000000 0.8016 0.7970 0.7921 0.7869 0.7491
888.000000 0.7016 0.6893 0.6843 0.6865 0.7434
893.000000 0.7642 0.7851 0.8077 0.8184 0.8217
898.000000 0.8230 0.8247 0.8226 0.8217 0.8205
903.000000 0.8190 0.8171 0.8180 0.8194 0.8172
908.000000 0.8116 0.8071 0.8020 0.7981 0.7953
913.000000 0.7886 0.7835 0.7844 0.7880 0.7920
918.000000 0.7934 0.7941 0.7936 0.7929 0.7918
923.000000 0.7907 0.7891 0.7875 0.7857 0.7847
928.000000 0.7853 0.7880 0.7899 0.7900 0.7902
933.000000 0.7903 0.7900 0.7877 0.7809 0.7803
938.000000 0.7791 0.7776 0.7742 0.7708 0.7677
943.000000 0.7642 0.7608 0.7582 0.7558 0.7564
948.000000 0.7561 0.7534 0.7489 0.7448 0.7418
953.000000 0.7416 0.7397 0.7505 0.7607 0.7705
958.000000 0.7753 0.7767 0.7763 0.7758 0.7752
963.000000 0.7744 0.7734 0.7723 0.7704 0.7655
968.000000 0.7649 0.7647 0.7618 0.7572 0.7602
973.000000 0.7593 0.7718 0.7756 0.7770 0.7780
978.000000 0.7789 0.7812 0.7835 0.7839 0.7809
983.000000 0.7743 0.7749 0.7779 0.7802 0.7794
988.000000 0.7716 0.7596 0.7511 0.7438 0.7367
993.000000 0.7198 0.6985 0.6773 0.6759 0.7188
998.000000 0.7426 0.7569 0.7637 0.7643 0.7637
1003.000000 0.7628 0.7618 0.7597 0.7575 0.7528
1008.000000 0.7420 0.7389 0.7392 0.7412 0.7445
1013.000000 0.7498 0.7534 0.7544 0.7488 0.7427
1018.000000 0.7364 0.7301 0.7203 0.7083 0.6949
1023.000000 0.6833 0.6739 0.6693 0.6696 0.6689
1028.000000 0.6848 0.7162 0.7414 0.7488 0.7540
1033.000000 0.7574 0.7611 0.7662 0.7719 0.7802
1038.000000 0.7859 0.7893 0.7904 0.7906 0.7903
1043.000000 0.7899 0.7889 0.7872 0.7856 0.7840
1048.000000 0.7823 0.7812 0.7801 0.7795 0.7794
1053.000000 0.7782 0.7755 0.7756 0.7766 0.7757
1058.000000 0.7717 0.7680 0.7653 0.7626 0.7592
1063.000000 0.7545 0.7460 0.7398 0.7354 0.7349
1068.000000 0.7413 0.7478 0.7500 0.7492 0.7455
1073.000000 0.7398 0.7341 0.7287 0.7201 0.6917
1078.000000 0.6772 0.6729 0.6745 0.6798 0.6881
1083.000000 0.6943 0.6932 0.6879 0.6810 0.6734
1088.000000 0.6658 0.6578 0.6493 0.6433 0.6399
1093.000000 0.6390 0.6392 0.6621 0.6787 0.6952
1098.000000 0.7117 0.7243 0.7236 0.7238 0.7215
1103.000000 0.7200 0.7176 0.7146 0.7108 0.7071
1108.000000 0.7036 0.7000 0.6965 0.6930 0.6888
1113.000000 0.6835 0.6783 0.6730 0.6660 0.6583
1118.000000 0.6530 0.6480 0.6457 0.6465 0.6475
1123.000000 0.6477 0.6478 0.6465 0.6442 0.6393
1128.000000 0.6286 0.6233 0.6226 0.6238 0.6254
1133.000000 0.6336 0.6630 0.6739 0.6804 0.6850
1138.000000 0.6862 0.6866 0.6846 0.6839 0.6819
1143.000000 0.6798 0.6773 0.6741 0.6707 0.6667
1148.000000 0.6625 0.6588 0.6552 0.6532 0.6525
1153.000000 0.6524 0.6535 0.6546 0.6552 0.6540
1158.000000 0.6518 0.6497 0.6477 0.6453 0.6420
1163.000000 0.6357 0.6287 0.6242 0.6209 0.6177
1168.000000 0.6160 0.6154 0.6150 0.6169 0.6159
1173.000000 0.6171 0.6199 0.6245 0.6331 0.6754
1178.000000 0.7056 0.7106 0.7098 0.7081 0.7097
1183.000000 0.7034 0.7013 0.7000 0.6990 0.6986
1188.000000 0.6981 0.6968 0.6939 0.6877 0.6841
1193.000000 0.6830 0.6826 0.6822 0.6816 0.6808
1198.000000 0.6801 0.6792 0.6779 0.6767 0.6754
1203.000000 0.6741 0.6727 0.6712 0.6692 0.6668
1208.000000 0.6629 0.6583 0.6535 0.6504 0.6478
1213.000000 0.6465 0.6464 0.6488 0.6514 0.6536
1218.000000 0.6553 0.6551 0.6547 0.6539 0.6516
1223.000000 0.6491 0.6465 0.6434 0.6402 0.6365
1228.000000 0.6304 0.6217 0.6117 0.5965 0.5887
1233.000000 0.5861 0.5830 0.5797 0.5727 0.5622
1238.000000 0.5520 0.5434 0.5377 0.5375 0.5365
1243.000000 0.5381 0.5689 0.6143 0.6212 0.6227
1248.000000 0.6226 0.6226 0.6225 0.6279 0.6363
1253.000000 0.6441 0.6511 0.6554 0.6555 0.6555
1258.000000 0.6577 0.6543 0.6518 0.6488 0.6461
1263.000000 0.6438 0.6413 0.6376 0.6287 0.6112
1268.000000 0.5934 0.5830 0.5753 0.5676 0.5606
1273.000000 0.5558 0.5525 0.5504 0.5498 0.5505
1278.000000 0.5522 0.5545 0.5570 0.5592 0.5608
1283.000000 0.5619 0.5623 0.5614 0.5596 0.5561
1288.000000 0.5505 0.5418 0.5321 0.5173 0.5088
1293.000000 0.5023 0.4958 0.4872 0.4784 0.4708
1298.000000 0.4658 0.4609 0.4567 0.4540 0.4514
1303.000000 0.4474 0.4048 0.3782 0.3657 0.3505
1308.000000 0.3342 0.3214 0.3096 0.2984 0.2874
1313.000000 0.2767 0.2679 0.2592 0.2537 0.2492
1318.000000 0.2447 0.2405 0.2382 0.2365 0.2347
1323.000000 0.2330 0.2306 0.2276 0.2235 0.2141
1328.000000 0.2118 0.2113 0.2125 0.2141 0.2170
1333.000000 0.2237 0.2305 0.2407 0.2509 0.2611
1338.000000 0.2743 0.2897 0.3009 0.3107 0.3223
1343.000000 0.3530 0.3712 0.3850 0.3964 0.4065
1348.000000 0.4135 0.4186 0.4202 0.4209 0.4209
1353.000000 0.4226 0.4204 0.4196 0.4187 0.4112
1358.000000 0.3926 0.3777 0.3593 0.3429 0.3353
1363.000000 0.3276 0.3193 0.3086 0.2979 0.2871
1368.000000 0.2751 0.2605 0.2430 0.2299 0.2225
1373.000000 0.2191 0.2177 0.2179 0.2159 0.2188
1378.000000 0.2196 0.2315 0.2615 0.2915 0.3151
1383.000000 0.3169 0.3174 0.3172 0.3168 0.3157
1388.000000 0.3144 0.3124 0.3109 0.3111 0.3119
1393.000000 0.3152 0.3246 0.3411 0.3575 0.3739
1398.000000 0.3902 0.4066 0.4229 0.4392 0.4555
1403.000000 0.4718 0.4863 0.4927 0.4950 0.4972
1408.000000 0.4939 0.4884 0.4853 0.4832 0.4823
1413.000000 0.4823 0.4830 0.4809 0.5101 0.5337
1418.000000 0.5444 0.5468 0.5453 0.5437 0.5415
1423.000000 0.5386 0.5355 0.5326 0.5289 0.5123
1428.000000 0.4839 0.4555 0.4273 0.3989 0.3707
1433.000000 0.3425 0.3170 0.3020 0.2905 0.2804
1438.000000 0.2710 0.2615 0.2515 0.2404 0.2292
1443.000000 0.2188 0.2093 0.1854 0.1693 0.1606
1448.000000 0.1533 0.1445 0.1348 0.1283 0.1232
1453.000000 0.1193 0.1163 0.1129 0.1088 0.1075
1458.000000 0.1099 0.1146 0.1277 0.1449 0.1613
1463.000000 0.1670 0.1707 0.1736 0.1764 0.1814
1468.000000 0.1914 0.2456 0.2947 0.3436 0.3827
1473.000000 0.4105 0.4276 0.4428 0.4609 0.4809
1478.000000 0.4992 0.5109 0.5211 0.5323 0.5432
1483.000000 0.5487 0.5522 0.5555 0.5576 0.5589
1488.000000 0.5601 0.5599 0.5596 0.5593 0.5591
1493.000000 0.5592 0.5595 0.5606 0.5625 0.5645
1498.000000 0.5662 0.5666 0.5667 0.5665 0.5662
1503.000000 0.5661 0.5660 0.5666 0.5688 0.5721
1508.000000 0.5752 0.5771 0.5782 0.5782 0.5751
1513.000000 0.5720 0.5691 0.5664 0.5639 0.5621
1518.000000 0.5615 0.5610 0.5605 0.5598 0.5552
1523.000000 0.5468 0.5383 0.5298 0.5214 0.5129
1528.000000 0.5045 0.4961 0.4876 0.4793 0.4709
1533.000000 0.4625 0.4536 0.4440 0.4372 0.4307
1538.000000 0.4243 0.4197 0.4166 0.4135 0.4096
1543.000000 0.4052 0.4010 0.3971 0.3931 0.3897
1548.000000 0.3866 0.3835 0.3806 0.3786 0.3766
1553.000000 0.3751 0.3750 0.3755 0.3749 0.3809
1558.000000 0.3872 0.3934 0.3999 0.4083 0.4167
1563.000000 0.4231 0.4256 0.4252 0.4234 0.4237
1568.000000 0.4229 0.4219 0.4209 0.4197 0.4184
1573.000000 0.4172 0.4153 0.4129 0.4101 0.4072
1578.000000 0.4019 0.3931 0.3834 0.3736 0.3638
1583.000000 0.3541 0.3444 0.3347 0.3250 0.3153
1588.000000 0.3056 0.2960 0.2855 0.2753 0.2665
1593.000000 0.2584 0.2506 0.2437 0.2372 0.2164
1598.000000 0.1948 0.1766 0.1596 0.1525 0.1517
1603.000000 0.1517 0.1521 0.1530 0.1550 0.1579
1608.000000 0.1603 0.1632 0.1660 0.1689 0.1720
1613.000000 0.1758 0.1808 0.1873 0.1939 0.1994
1618.000000 0.2040 0.2076 0.2110 0.2302 0.2570
1623.000000 0.2851 0.3131 0.3411 0.3689 0.3928
1628.000000 0.4088 0.4222 0.4419 0.4632 0.4836
1633.000000 0.5116 0.5233 0.5283 0.5316 0.5343
1638.000000 0.5359 0.5368 0.5375 0.5380 0.5383
1643.000000 0.5425 0.5390 0.5387 0.5380 0.5370
1648.000000 0.5351 0.5299 0.5170 0.4964 0.4745
1653.000000 0.4527 0.4308 0.4090 0.3873 0.3655
1658.000000 0.3437 0.3220 0.3004 0.2788 0.2583
1663.000000 0.2536 0.2537 0.2540 0.2629 0.2844
1668.000000 0.3100 0.3355 0.3611 0.3866 0.4121
1673.000000 0.4376 0.4630 0.4884 0.5138 0.5392
1678.000000 0.5645 0.5898 0.6150 0.6402 0.6654
1683.000000 0.6894 0.7037 0.7081 0.7108 0.7116
1688.000000 0.7124 0.7128 0.7129 0.7130 0.7131
1693.000000 0.7137 0.7151 0.7165 0.7198 0.7235
1698.000000 0.7266 0.7286 0.7311 0.7294 0.7285
1703.000000 0.7264 0.7244 0.7203 0.7172 0.7146
1708.000000 0.7120 0.7092 0.7065 0.7040 0.7015
1713.000000 0.6990 0.6893 0.6763 0.6715 0.6674
1718.000000 0.6640 0.6607 0.6575 0.6547 0.6526
1723.000000 0.6509 0.6495 0.6459 0.6320 0.6134
1728.000000 0.5948 0.5763 0.5578 0.5392 0.5207
1733.000000 0.5023 0.4839 0.4654 0.4470 0.4286
1738.000000 0.4103 0.3919 0.3736 0.3553 0.3371
1743.000000 0.3188 0.3005 0.2823 0.2641 0.2460
1748.000000 0.2278 0.2097 0.1938 0.1827 0.1775
1753.000000 0.1679 0.1658 0.1653 0.1648 0.1645
1758.000000 0.1653 0.1662 0.1666 0.1776 0.1863
1763.000000 0.1944 0.1993 0.2037 0.2077 0.2113
1768.000000 0.2142 0.2380 0.2635 0.2896 0.3156
1773.000000 0.3416 0.3675 0.3934 0.4192 0.4450
1778.000000 0.4709 0.4967 0.5273 0.5516 0.5606
1783.000000 0.5699 0.5799 0.5942 0.6145 0.6410
1788.000000 0.6533 0.6656 0.6765 0.6861 0.6956
1793.000000 0.7051 0.7139 0.7221 0.7299 0.7378
1798.000000 0.7457 0.7544 0.7638 0.7730 0.7818
1803.000000 0.7903 0.8004 0.8151 0.8295 0.8372
1808.000000 0.8412 0.8453 0.8493 0.8533 0.8565
1813.000000 0.8586 0.8608 0.8628 0.8644 0.8655
1818.000000 0.8665 0.8674 0.8683 0.8692 0.8702
1823.000000 0.8711 0.8720 0.8728 0.8734 0.8742
1828.000000 0.8749 0.8757 0.8764 0.8772 0.8782
1833.000000 0.8794 0.8806 0.8818 0.8830 0.8842
1838.000000 0.8854 0.8865 0.8876 0.8887 0.8899
1843.000000 0.8910 0.8921 0.8932 0.8943 0.8953
1848.000000 0.8962 0.8971 0.8979 0.8988 0.8997
1853.000000 0.9006 0.9009 0.9012 0.9015 0.9017
1858.000000 0.9013 0.9006 0.8998 0.8990 0.8982
1863.000000 0.8975 0.8968 0.8962 0.8959 0.8962
1868.000000 0.8965 0.8968 0.8971 0.8975 0.8978
1873.000000 0.8981 0.8985 0.8990 0.8995 0.8999
1878.000000 0.9004 0.9009 0.9013 0.9015 0.9016
1883.000000 0.9017 0.9018 0.9018 0.9019 0.9019
1888.000000 0.9018 0.9015 0.9011 0.9008 0.9004
1893.000000 0.9000 0.8995 0.8990 0.8985 0.8981
1898.000000 0.8976 0.8971 0.8966 0.8960 0.8954
1903.000000 0.8947 0.8940 0.8933 0.8926 0.8918
1908.000000 0.8911 0.8904 0.8899 0.8902 0.8909
1913.000000 0.8916 0.8924 0.8941 0.8940 0.8947
1918.000000 0.8955 0.8963 0.8972 0.8979 0.8986
1923.000000 0.8994 0.9001 0.9008 0.9015 0.9013
1928.000000 0.9010 0.9006 0.9002 0.8996 0.8989
1933.000000 0.8983 0.8977 0.8970 0.8964 0.8960
1938.000000 0.8956 0.8954 0.8952 0.8950 0.8948
1943.000000 0.8947 0.8945 0.8943 0.8944 0.8946
1948.000000 0.8948 0.8951 0.8953 0.8971 0.8991
1953.000000 0.9011 0.9031 0.9052 0.9074 0.9095
1958.000000 0.9110 0.9107 0.9100 0.9092 0.9084
1963.000000 0.9074 0.9064 0.9049 0.9035 0.9022
1968.000000 0.9013 0.9005 0.8998 0.8991 0.8984
1973.000000 0.8977 0.8970 0.8964 0.8960 0.8957
1978.000000 0.8953 0.8950 0.8947 0.8943 0.8940
1983.000000 0.8936 0.8933 0.8930 0.8926 0.8923
1988.000000 0.8919 0.8916 0.8912 0.8908 0.8905
1993.000000 0.8901 0.8897 0.8893 0.8890 0.8886
1998.000000 0.8882 0.8878 0.8875 0.8871 0.8867
2003.000000 0.8863 0.8860 0.8856 0.8852 0.8849
2008.000000 0.8846 0.8843 0.8839 0.8836 0.8833
2013.000000 0.8829 0.8826 0.8823 0.8820 0.8817
2018.000000 0.8814 0.8811 0.8807 0.8804 0.8800
2023.000000 0.8797 0.8794 0.8791 0.8788 0.8785
2028.000000 0.8781 0.8778 0.8775 0.8772 0.8769
2033.000000 0.8766 0.8762 0.8759 0.8756 0.8753
2038.000000 0.8750 0.8747 0.8744 0.8741 0.8737
2043.000000 0.8734 0.8731 0.8728 0.8725 0.8722
2048.000000 0.8719 0.8715 0.8712 0.8709 0.8706
2053.000000 0.8703 0.8700 0.8697 0.8693 0.8690
2058.000000 0.8686 0.8682 0.8678 0.8675 0.8670
2063.000000 0.8666 0.8663 0.8659 0.8655 0.8651
2068.000000 0.8648 0.8644 0.8640 0.8636 0.8632
2073.000000 0.8628 0.8624 0.8620 0.8617 0.8613
2078.000000 0.8609 0.8606 0.8602 0.8599 0.8597
2083.000000 0.8595 0.8593 0.8591 0.8589 0.8587
2088.000000 0.8585 0.8584 0.8582 0.8580 0.8579
2093.000000 0.8577 0.8576 0.8578 0.8581 0.8584
2098.000000 0.8586 0.8589 0.8593 0.8596 0.8599
2103.000000 0.8602 0.8604 0.8603 0.8601 0.8599
2108.000000 0.8596 0.8593 0.8591 0.8589 0.8586
2113.000000 0.8583 0.8580 0.8577 0.8573 0.8570
2118.000000 0.8567 0.8564 0.8561 0.8558 0.8554
2123.000000 0.8551 0.8548 0.8544 0.8541 0.8538
2128.000000 0.8535 0.8532 0.8528 0.8525 0.8521
2133.000000 0.8517 0.8513 0.8509 0.8505 0.8502
2138.000000 0.8498 0.8494 0.8490 0.8486 0.8482
2143.000000 0.8479 0.8475 0.8472 0.8469 0.8469
2148.000000 0.8469 0.8469 0.8469 0.8469 0.8469
2153.000000 0.8469 0.8470 0.8470 0.8470 0.8470
2158.000000 0.8470 0.8469 0.8468 0.8467 0.8466
2163.000000 0.8464 0.8462 0.8461 0.8460 0.8459
2168.000000 0.8457 0.8455 0.8454 0.8451 0.8449
2173.000000 0.8445 0.8441 0.8438 0.8435 0.8431
2178.000000 0.8428 0.8424 0.8421 0.8417 0.8413
2183.000000 0.8407 0.8400 0.8394 0.8387 0.8380
2188.000000 0.8373 0.8366 0.8360 0.8353 0.8346
2193.000000 0.8339 0.8336 0.8333 0.8332 0.8330
2198.000000 0.8329 0.8328 0.8327 0.8326 0.8324
2203.000000 0.8323 0.8322 0.8321 0.8319 0.8320
2208.000000 0.8325 0.8330 0.8337 0.8344 0.8351
2213.000000 0.8357 0.8363 0.8370 0.8376 0.8376
2218.000000 0.8372 0.8369 0.8366 0.8363 0.8360
2223.000000 0.8355 0.8350 0.8342 0.8334 0.8324
2228.000000 0.8313 0.8303 0.8293 0.8283 0.8272
2233.000000 0.8261 0.8251 0.8240 0.8230 0.8219
2238.000000 0.8209 0.8198 0.8186 0.8173 0.8160
2243.000000 0.8148 0.8135 0.8121 0.8108 0.8095
2248.000000 0.8082 0.8072 0.8064 0.8055 0.8047
2253.000000 0.8040 0.8032 0.8024 0.8015 0.8008
2258.000000 0.8002 0.7995 0.7988 0.7982 0.7976
2263.000000 0.7972 0.7970 0.7969 0.7971 0.7972
2268.000000 0.7974 0.7975 0.7977 0.7978 0.7979
2273.000000 0.7981 0.7988 0.7994 0.8002 0.8010
2278.000000 0.8017 0.8025 0.8033 0.8040 0.8048
2283.000000 0.8056 0.8064 0.8073 0.8081 0.8089
2288.000000 0.8098 0.8106 0.8114 0.8121 0.8127
2293.000000 0.8131 0.8134 0.8135 0.8135 0.8132
2298.000000 0.8129 0.8124 0.8119 0.8114 0.8109
2303.000000 0.8103 0.8097 0.8091 0.8085 0.8076
2308.000000 0.8066 0.8056 0.8046 0.8036 0.8026
2313.000000 0.8016 0.8006 0.7997 0.7987 0.7977
2318.000000 0.7963 0.7949 0.7930 0.7910 0.7900
2323.000000 0.7894 0.7888 0.7883 0.7877 0.7871
2328.000000 0.7866 0.7863 0.7860 0.7859 0.7858
2333.000000 0.7857 0.7856 0.7858 0.7862 0.7866
2338.000000 0.7869 0.7873 0.7876 0.7879 0.7882
2343.000000 0.7885 0.7886 0.7886 0.7887 0.7887
2348.000000 0.7886 0.7884 0.7882 0.7880 0.7877
2353.000000 0.7875 0.7873 0.7870 0.7867 0.7862
2358.000000 0.7855 0.7848 0.7840 0.7832 0.7825
2363.000000 0.7817 0.7812 0.7807 0.7802 0.7797
2368.000000 0.7792 0.7787 0.7782 0.7777 0.7772
2373.000000 0.7772 0.7771 0.7770 0.7770 0.7769
2378.000000 0.7769 0.7768 0.7768 0.7767 0.7767
2383.000000 0.7767 0.7766 0.7765 0.7764 0.7764
2388.000000 0.7763 0.7763 0.7763 0.7761 0.7759
2393.000000 0.7757 0.7756 0.7754 0.7752 0.7750
2398.000000 0.7748 0.7746 0.7744 0.7742 0.7740
2403.000000 0.7738 0.7736 0.7735 0.7733 0.7731
2408.000000 0.7729 0.7725 0.7720 0.7715 0.7710
2413.000000 0.7705 0.7700 0.7695 0.7690 0.7685
2418.000000 0.7680 0.7675 0.7670 0.7665 0.7660
2423.000000 0.7654 0.7648 0.7642 0.7635 0.7628
2428.000000 0.7621 0.7614 0.7608 0.7602 0.7596
2433.000000 0.7591 0.7587 0.7582 0.7577 0.7573
2438.000000 0.7569 0.7565 0.7560 0.7555 0.7551
2443.000000 0.7546 0.7542 0.7538 0.7535 0.7532
2448.000000 0.7528 0.7524 0.7519 0.7513 0.7506
2453.000000 0.7498 0.7491 0.7483 0.7476 0.7469
2458.000000 0.7461 0.7454 0.7446 0.7439 0.7431
2463.000000 0.7423 0.7415 0.7407 0.7398 0.7388
2468.000000 0.7378 0.7366 0.7354 0.7343 0.7334
2473.000000 0.7325 0.7318 0.7310 0.7303 0.7296
2478.000000 0.7289 0.7282 0.7275 0.7268 0.7261
2483.000000 0.7254 0.7246 0.7239 0.7232 0.7225
2488.000000 0.7217 0.7209 0.7202 0.7194 0.7186
2493.000000 0.7179 0.7172 0.7165 0.7157 0.7149
2498.000000 0.7142 0.7134 0.7127 0.7119 0.7112
2503.000000 0.7105 0.7099 0.7093 0.7088 0.7083
2508.000000 0.7078 0.7073 0.7069 0.7064 0.7060
2513.000000 0.7055 0.7051 0.7046 0.7041 0.7036
2518.000000 0.7032 0.7027 0.7022 0.7021 0.7019
2523.000000 0.7018 0.7016 0.7015 0.7014 0.7012
2528.000000 0.7011 0.7010 0.7008 0.7007 0.7006
2533.000000 0.7004 0.7003 0.7001 0.7000 0.6999
2538.000000 0.6998 0.6995 0.6992 0.6988 0.6982
2543.000000 0.6975 0.6968 0.6962 0.6953 0.6934
2548.000000 0.6915 0.6895 0.6875 0.6855 0.6837
2553.000000 0.6820 0.6802 0.6784 0.6767 0.6749
2558.000000 0.6732 0.6716 0.6706 0.6695 0.6689
2563.000000 0.6686 0.6684 0.6683 0.6683 0.6683
2568.000000 0.6683 0.6683 0.6682 0.6682 0.6682
2573.000000 0.6681 0.6680 0.6679 0.6678 0.6677
2578.000000 0.6673 0.6668 0.6663 0.6653 0.6642
2583.000000 0.6631 0.6619 0.6607 0.6594 0.6580
2588.000000 0.6565 0.6553 0.6541 0.6529 0.6520
2593.000000 0.6510 0.6500 0.6491 0.6481 0.6476
2598.000000 0.6472 0.6467 0.6463 0.6458 0.6453
2603.000000 0.6449 0.6444 0.6440 0.6435 0.6430
2608.000000 0.6428 0.6425 0.6423 0.6422 0.6422
2613.000000 0.6421 0.6421 0.6421 0.6420 0.6420
2618.000000 0.6419 0.6419 0.6419 0.6418 0.6418
2623.000000 0.6418 0.6417 0.6416 0.6416 0.6415
2628.000000 0.6414 0.6413 0.6413 0.6412 0.6410
2633.000000 0.6405 0.6400 0.6394 0.6386 0.6378
2638.000000 0.6371 0.6363 0.6355 0.6343 0.6330
2643.000000 0.6315 0.6295 0.6274 0.6247 0.6214
2648.000000 0.6182 0.6154 0.6130 0.6105 0.6083
2653.000000 0.6060 0.6038 0.6013 0.5989 0.5962
2658.000000 0.5928 0.5894 0.5863 0.5835 0.5808
2663.000000 0.5782 0.5757 0.5733 0.5707 0.5682
2668.000000 0.5657 0.5631 0.5605 0.5579 0.5553
2673.000000 0.5528 0.5502 0.5476 0.5450 0.5424
2678.000000 0.5397 0.5371 0.5345 0.5319 0.5293
2683.000000 0.5267 0.5241 0.5215 0.5187 0.5159
2688.000000 0.5131 0.5096 0.5059 0.5022 0.4985
2693.000000 0.4947 0.4910 0.4877 0.4844 0.4812
2698.000000 0.4792 0.4773 0.4753 0.4734 0.4715
2703.000000 0.4696 0.4677 0.4658 0.4638 0.4619
2708.000000 0.4600 0.4581 0.4562 0.4543 0.4524
2713.000000 0.4505 0.4486 0.4464 0.4441 0.4418
2718.000000 0.4389 0.4356 0.4323 0.4290 0.4257
2723.000000 0.4225 0.4181 0.4133 0.4085 0.4021
2728.000000 0.3951 0.3882 0.3822 0.3766 0.3710
2733.000000 0.3657 0.3605 0.3553 0.3518 0.3487
2738.000000 0.3456 0.3425 0.3394 0.3363 0.3333
2743.000000 0.3302 0.3271 0.3242 0.3214 0.3187
2748.000000 0.3160 0.3134 0.3108 0.3082 0.3056
2753.000000 0.3029 0.3003 0.2977 0.2951 0.2925
2758.000000 0.2899 0.2873 0.2847 0.2822 0.2796
2763.000000 0.2769 0.2741 0.2714 0.2686 0.2658
2768.000000 0.2630 0.2602 0.2574 0.2546 0.2518
2773.000000 0.2490 0.2462 0.2434 0.2406 0.2378
2778.000000 0.2350 0.2322 0.2294 0.2265 0.2234
2783.000000 0.2202 0.2170 0.2138 0.2107 0.2075
2788.000000 0.2043 0.2012 0.1980 0.1948 0.1916
2793.000000 0.1884 0.1851 0.1818 0.1784 0.1751
2798.000000 0.1718 0.1685 0.1652 0.1620 0.1588
2803.000000 0.1558 0.1534 0.1510 0.1486 0.1462
2808.000000 0.1438 0.1414 0.1390 0.1367 0.1343
2813.000000 0.1323 0.1303 0.1283 0.1265 0.1248
2818.000000 0.1231 0.1220 0.1216 0.1211 0.1207
2823.000000 0.1202 0.1198 0.1193 0.1191 0.1188
2828.000000 0.1186 0.1186 0.1186 0.1186 0.1185
2833.000000 0.1185 0.1185 0.1184 0.1184 0.1184
2838.000000 0.1184 0.1184 0.1185 0.1186 0.1188
2843.000000 0.1189 0.1191 0.1197 0.1204 0.1210
2848.000000 0.1217 0.1223 0.1229 0.1236 0.1244
2853.000000 0.1252 0.1260 0.1268 0.1277 0.1285
2858.000000 0.1294 0.1303 0.1312 0.1322 0.1334
2863.000000 0.1346 0.1357 0.1369 0.1380 0.1392
2868.000000 0.1403 0.1414 0.1426 0.1437 0.1447
2873.000000 0.1458 0.1469 0.1480 0.1491 0.1502
2878.000000 0.1513 0.1524 0.1535 0.1551 0.1566
2883.000000 0.1582 0.1599 0.1617 0.1635 0.1653
2888.000000 0.1671 0.1689 0.1706 0.1726 0.1746
2893.000000 0.1765 0.1785 0.1805 0.1825 0.1845
2898.000000 0.1867 0.1889 0.1910 0.1935 0.1960
2903.000000 0.1985 0.2010 0.2035 0.2060 0.2085
2908.000000 0.2121 0.2156 0.2192 0.2231 0.2274
2913.000000 0.2316 0.2352 0.2372 0.2392 0.2412
2918.000000 0.2432 0.2451 0.2470 0.2489 0.2508
2923.000000 0.2527 0.2546 0.2577 0.2608 0.2639
2928.000000 0.2672 0.2706 0.2739 0.2772 0.2801
2933.000000 0.2829 0.2858 0.2883 0.2907 0.2931
2938.000000 0.2955 0.2979 0.3003 0.3027 0.3044
2943.000000 0.3058 0.3073 0.3087 0.3099 0.3112
2948.000000 0.3124 0.3282 0.3459 0.3636 0.3757
2953.000000 0.3794 0.3831 0.3868 0.3906 0.3943
2958.000000 0.3980 0.4017 0.4055 0.4092 0.4129
2963.000000 0.4166 0.4203 0.4240 0.4277 0.4314
2968.000000 0.4351 0.4388 0.4435 0.4484 0.4532
2973.000000 0.4583 0.4637 0.4692 0.4746 0.4792
2978.000000 0.4836 0.4880 0.4921 0.4954 0.4987
2983.000000 0.5020 0.5046 0.5068 0.5091 0.5114
2988.000000 0.5136 0.5158 0.5180 0.5193 0.5200
2993.000000 0.5207 0.5213 0.5220 0.5227 0.5233
2998.000000 0.5240 0.5245 0.5251 0.5256 0.5259
3003.000000 0.5262 0.5264 0.5267 0.5269 0.5271
3008.000000 0.5274 0.5276 0.5278 0.5281 0.5283
3013.000000 0.5286 0.5288 0.5290 0.5292 0.5295
3018.000000 0.5297 0.5300 0.5302 0.5304 0.5306
3023.000000 0.5309 0.5310 0.5312 0.5314 0.5316
3028.000000 0.5318 0.5320 0.5322 0.5324 0.5326
3033.000000 0.5328 0.5330 0.5332 0.5334 0.5336
3038.000000 0.5338 0.5341 0.5344 0.5347 0.5349
3043.000000 0.5352 0.5355 0.5358 0.5361 0.5364
3048.000000 0.5366 0.5369 0.5371 0.5373 0.5375
3053.000000 0.5375 0.5373 0.5371 0.5369 0.5367
3058.000000 0.5365 0.5363 0.5360 0.5358 0.5356
3063.000000 0.5354 0.5352 0.5349 0.5347 0.5345
3068.000000 0.5342 0.5339 0.5336 0.5333 0.5330
3073.000000 0.5327 0.5324 0.5321 0.5318 0.5315
3078.000000 0.5312 0.5310 0.5310 0.5310 0.5310
3083.000000 0.5310 0.5310 0.5310 0.5310 0.5310
3088.000000 0.5311 0.5312 0.5313 0.5316 0.5318
3093.000000 0.5321 0.5323 0.5326 0.5329 0.5331
3098.000000 0.5334 0.5336 0.5338 0.5341 0.5343
3103.000000 0.5346 0.5348 0.5351 0.5354 0.5357
3108.000000 0.5359 0.5362 0.5367 0.5372 0.5378
3113.000000 0.5384 0.5389 0.5395 0.5401 0.5407
3118.000000 0.5413 0.5419 0.5424 0.5430 0.5436
3123.000000 0.5441 0.5447 0.5453 0.5458 0.5464
3128.000000 0.5470 0.5476 0.5482 0.5487 0.5493
3133.000000 0.5498 0.5504 0.5510 0.5515 0.5521
3138.000000 0.5529 0.5536 0.5543 0.5551 0.5561
3143.000000 0.5570 0.5579 0.5589 0.5598 0.5607
3148.000000 0.5617 0.5626 0.5636 0.5645 0.5655
3153.000000 0.5664 0.5674 0.5683 0.5692 0.5702
3158.000000 0.5713 0.5724 0.5735 0.5748 0.5762
3163.000000 0.5776 0.5791 0.5805 0.5819 0.5833
3168.000000 0.5847 0.5861 0.5873 0.5885 0.5897
3173.000000 0.5908 0.5917 0.5927 0.5936 0.5945
3178.000000 0.5954 0.5963 0.5972 0.5982 0.5991
3183.000000 0.6000 0.6009 0.6018 0.6027 0.6036
3188.000000 0.6045 0.6055 0.6064 0.6073 0.6082
3193.000000 0.6091 0.6098 0.6105 0.6112 0.6119
3198.000000 0.6126 0.6133 0.6139 0.6146 0.6153
3203.000000 0.6160 0.6167 0.6174 0.6181 0.6188
3208.000000 0.6195 0.6202 0.6209 0.6215 0.6222
3213.000000 0.6229 0.6235 0.6240 0.6246 0.6251
3218.000000 0.6255 0.6259 0.6263 0.6266 0.6270
3223.000000 0.6274 0.6278 0.6281 0.6285 0.6289
3228.000000 0.6293 0.6297 0.6301 0.6304 0.6308
3233.000000 0.6312 0.6316 0.6320 0.6324 0.6327
3238.000000 0.6331 0.6334 0.6336 0.6338 0.6340
3243.000000 0.6342 0.6345 0.6347 0.6349 0.6351
3248.000000 0.6353 0.6355 0.6357 0.6359 0.6360
3253.000000 0.6362 0.6364 0.6366 0.6368 0.6370
3258.000000 0.6372 0.6375 0.6377 0.6378 0.6380
3263.000000 0.6382 0.6384 0.6386 0.6388 0.6390
3268.000000 0.6393 0.6394 0.6396 0.6398 0.6400
3273.000000 0.6402 0.6404 0.6406 0.6408 0.6410
3278.000000 0.6413 0.6415 0.6417 0.6419 0.6421
3283.000000 0.6423 0.6424 0.6426 0.6428 0.6430
3288.000000 0.6432 0.6435 0.6437 0.6439 0.6441
3293.000000 0.6443 0.6445 0.6447 0.6449 0.6450
3298.000000 0.6452 0.6454 0.6456 0.6458 0.6460
3303.000000 0.6462 0.6464 0.6465 0.6467 0.6469
3308.000000 0.6470 0.6471 0.6472 0.6473 0.6474
3313.000000 0.6475 0.6477 0.6478 0.6479 0.6480
3318.000000 0.6481 0.6482 0.6483 0.6485 0.6486
3323.000000 0.6487 0.6488 0.6489 0.6490 0.6491
3328.000000 0.6492 0.6494 0.6495 0.6496 0.6497
3333.000000 0.6498 0.6499 0.6500 0.6501 0.6503
3338.000000 0.6504 0.6505 0.6506 0.6507 0.6508
3343.000000 0.6509 0.6510 0.6512 0.6513 0.6514
3348.000000 0.6514 0.6514 0.6514 0.6514 0.6513
3353.000000 0.6513 0.6513 0.6513 0.6513 0.6513
3358.000000 0.6513 0.6513 0.6513 0.6512 0.6512
3363.000000 0.6512 0.6512 0.6512 0.6512 0.6512
3368.000000 0.6512 0.6512 0.6511 0.6511 0.6511
3373.000000 0.6511 0.6510 0.6508 0.6507 0.6505
3378.000000 0.6503 0.6501 0.6500 0.6498 0.6496
3383.000000 0.6494 0.6492 0.6490 0.6489 0.6487
3388.000000 0.6485 0.6483 0.6481 0.6479 0.6478
3393.000000 0.6476 0.6474 0.6472 0.6470 0.6468
3398.000000 0.6466 0.6465 0.6463 0.6461 0.6460
3403.000000 0.6458 0.6457 0.6456 0.6455 0.6455
3408.000000 0.6455 0.6455 0.6455 0.6455 0.6455
3413.000000 0.6455 0.6455 0.6455 0.6455 0.6455
3418.000000 0.6455 0.6455 0.6455 0.6455 0.6455
3423.000000 0.6455 0.6455 0.6456 0.6456 0.6456
3428.000000 0.6456 0.6456 0.6457 0.6457 0.6457
3433.000000 0.6457 0.6457 0.6458 0.6458 0.6459
3438.000000 0.6459 0.6460 0.6460 0.6460 0.6461
3443.000000 0.6461 0.6462 0.6462 0.6462 0.6462
3448.000000 0.6462 0.6463 0.6463 0.6464 0.6464
3453.000000 0.6464 0.6465 0.6466 0.6466 0.6467
3458.000000 0.6468 0.6468 0.6468 0.6469 0.6469
3463.000000 0.6470 0.6470 0.6471 0.6472 0.6472
3468.000000 0.6473 0.6473 0.6474 0.6475 0.6475
3473.000000 0.6476 0.6476 0.6477 0.6477 0.6477
3478.000000 0.6478 0.6479 0.6479 0.6480 0.6481
3483.000000 0.6481 0.6482 0.6482 0.6483 0.6484
3488.000000 0.6484 0.6484 0.6485 0.6485 0.6486
3493.000000 0.6486 0.6487 0.6488 0.6488 0.6489
3498.000000 0.6489 0.6490 0.6490 0.6490 0.6491
3503.000000 0.6491 0.6492 0.6493 0.6493 0.6494
3508.000000 0.6495 0.6495 0.6496 0.6496 0.6496
3513.000000 0.6496 0.6495 0.6495 0.6495 0.6494
3518.000000 0.6494 0.6493 0.6493 0.6493 0.6492
3523.000000 0.6492 0.6491 0.6491 0.6491 0.6490
3528.000000 0.6490 0.6489 0.6489 0.6489 0.6488
3533.000000 0.6488 0.6487 0.6487 0.6487 0.6486
3538.000000 0.6486 0.6485 0.6485 0.6485 0.6484
3543.000000 0.6484 0.6484 0.6484 0.6484 0.6483
3548.000000 0.6483 0.6483 0.6483 0.6483 0.6482
3553.000000 0.6482 0.6482 0.6482 0.6482 0.6482
3558.000000 0.6482 0.6482 0.6482 0.6482 0.6481
3563.000000 0.6481 0.6481 0.6481 0.6481 0.6480
3568.000000 0.6480 0.6480 0.6480 0.6480 0.6480
3573.000000 0.6480 0.6480 0.6480 0.6480 0.6479
3578.000000 0.6479 0.6479 0.6479 0.6479 0.6478
3583.000000 0.6478 0.6478 0.6478 0.6478 0.6477
3588.000000 0.6477 0.6477 0.6476 0.6476 0.6475
3593.000000 0.6475 0.6475 0.6474 0.6474 0.6474
3598.000000 0.6473 0.6473 0.6472 0.6472 0.6472
3603.000000 0.6469 0.6467 0.6464 0.6461 0.6458
3608.000000 0.6455 0.6451 0.6447 0.6443 0.6439
3613.000000 0.6435 0.6432 0.6428 0.6425 0.6421
3618.000000 0.6417 0.6413 0.6410 0.6406 0.6402
3623.000000 0.6398 0.6395 0.6391 0.6387 0.6384
3628.000000 0.6380 0.6377 0.6373 0.6369 0.6366
3633.000000 0.6362 0.6358 0.6355 0.6351 0.6348
3638.000000 0.6344 0.6341 0.6337 0.6334 0.6330
3643.000000 0.6327 0.6324 0.6320 0.6315 0.6311
3648.000000 0.6307 0.6302 0.6298 0.6293 0.6289
3653.000000 0.6284 0.6280 0.6275 0.6271 0.6266
3658.000000 0.6261 0.6257 0.6252 0.6247 0.6243
3663.000000 0.6239 0.6234 0.6230 0.6225 0.6222
3668.000000 0.6218 0.6215 0.6211 0.6208 0.6206
3673.000000 0.6205 0.6204 0.6203 0.6202 0.6201
3678.000000 0.6200 0.6199 0.6198 0.6196 0.6195
3683.000000 0.6194 0.6193 0.6191 0.6190 0.6189
3688.000000 0.6188 0.6188 0.6188 0.6188 0.6188
3693.000000 0.6187 0.6187 0.6187 0.6186 0.6186
3698.000000 0.6186 0.6185 0.6185 0.6184 0.6184
3703.000000 0.6184 0.6183 0.6183 0.6183 0.6183
3708.000000 0.6183 0.6183 0.6174 0.6164 0.6154
3713.000000 0.6144 0.6134 0.6124 0.6113 0.6103
3718.000000 0.6093 0.6083 0.6073 0.6063 0.6054
3723.000000 0.6045 0.6035 0.6026 0.6018 0.6015
3728.000000 0.6013 0.6010 0.6008 0.6005 0.6003
3733.000000 0.6001 0.5999 0.5997 0.5995 0.5993
3738.000000 0.5992 0.5990 0.5989 0.5987 0.5985
3743.000000 0.5985 0.5985 0.5985 0.5985 0.5985
3748.000000 0.5985 0.5984 0.5984 0.5984 0.5984
3753.000000 0.5984 0.5983 0.5983 0.5983 0.5983
3758.000000 0.5983 0.5983 0.5981 0.5979 0.5977
3763.000000 0.5975 0.5973 0.5971 0.5968 0.5966
3768.000000 0.5964 0.5961 0.5959 0.5957 0.5955
3773.000000 0.5953 0.5951 0.5949 0.5946 0.5944
3778.000000 0.5942 0.5940 0.5937 0.5935 0.5933
3783.000000 0.5931 0.5929 0.5928 0.5926 0.5924
3788.000000 0.5922 0.5921 0.5920 0.5918 0.5917
3793.000000 0.5915 0.5914 0.5913 0.5912 0.5910
3798.000000 0.5909 0.5908 0.5907 0.5906 0.5904
3803.000000 0.5903 0.5902 0.5901 0.5900 0.5898
3808.000000 0.5897 0.5896 0.5895 0.5893 0.5893
3813.000000 0.5893 0.5893 0.5893 0.5893 0.5892
3818.000000 0.5892 0.5892 0.5892 0.5892 0.5892
3823.000000 0.5892 0.5892 0.5892 0.5892 0.5892
3828.000000 0.5892 0.5891 0.5891 0.5891 0.5891
3833.000000 0.5891 0.5891 0.5891 0.5891 0.5891
3838.000000 0.5891 0.5891 0.5891 0.5890 0.5890
3843.000000 0.5890 0.5890 0.5890 0.5890 0.5890
3848.000000 0.5890 0.5890 0.5890 0.5890 0.5890
3853.000000 0.5890 0.5890 0.5890 0.5890 0.5890
3858.000000 0.5890 0.5889 0.5889 0.5889 0.5889
3863.000000 0.5889 0.5889 0.5889 0.5889 0.5889
3868.000000 0.5889 0.5889 0.5888 0.5888 0.5888
3873.000000 0.5887 0.5887 0.5887 0.5886 0.5885
3878.000000 0.5884 0.5883 0.5882 0.5881 0.5879
3883.000000 0.5878 0.5877 0.5876 0.5875 0.5874
3888.000000 0.5873 0.5871 0.5870 0.5869 0.5868
3893.000000 0.5867 0.5866 0.5864 0.5863 0.5862
3898.000000 0.5861 0.5860 0.5859 0.5858 0.5857
3903.000000 0.5856 0.5855 0.5854 0.5853 0.5852
3908.000000 0.5851 0.5850 0.5849 0.5848 0.5847
3913.000000 0.5846 0.5845 0.5844 0.5843 0.5842
3918.000000 0.5841 0.5840 0.5839 0.5838 0.5838
3923.000000 0.5837 0.5836 0.5835 0.5834 0.5833
3928.000000 0.5832 0.5831 0.5830 0.5829 0.5829
3933.000000 0.5828 0.5827 0.5826 0.5825 0.5825
3938.000000 0.5825 0.5825 0.5825 0.5825 0.5825
3943.000000 0.5825 0.5826 0.5826 0.5826 0.5827
3948.000000 0.5827 0.5827 0.5828 0.5828 0.5828
3953.000000 0.5828 0.5828 0.5828 0.5829 0.5829
3958.000000 0.5829 0.5830 0.5830 0.5830 0.5831
3963.000000 0.5831 0.5831 0.5831 0.5831 0.5831
3968.000000 0.5831 0.5832 0.5832 0.5832 0.5832
3973.000000 0.5832 0.5832 0.5833 0.5833 0.5834
3978.000000 0.5835 0.5835 0.5836 0.5837 0.5837
3983.000000 0.5838 0.5838 0.5839 0.5840 0.5840
3988.000000 0.5841 0.5842 0.5842 0.5843 0.5843
3993.000000 0.5844 0.5845 0.5846 0.5846 0.5847
3998.000000 0.5848 0.5849 0.5850
##END=
