##TITLE=7-(2-DIMETHYLAMINOETHYL)BENZO(c)PHENOTHIAZINE, HYDROCHLORIDE
##JCAMP-DX=4.24
##DATA TYPE=INFRARED SPECTRUM
##CLASS=COBLENTZ III
##ORIGIN=SMITH KLINE & FRENCH LABS.
##OWNER=COBLENTZ SOCIETY
Collection (C) 2018 copyright by the U.S. Secretary of Commerce
on behalf of the United States of America. All rights reserved.
##DATE=1966/12/23
##NAMES=2-(7H-benzo[c]phenothiazin-7-yl)-N,N-dimethylethanamine hydrochloride
##MOLFORM=C20 H21 Cl N2 S
##SOURCE REFERENCE=COBLENTZ NO. 9120
##$NIST ID=B6009120
##$NIST SOURCE=COBLENTZ
##$NIST IMAGE=cob9120
##SPECTROMETER/DATA SYSTEM=Not specified, most likely a prism spectrometer.
##INSTRUMENT PARAMETERS=NaCl PRISM
##STATE=SOLID (OIL MULL)
$$SPECTRAL CONTAMINATION DUE TO OIL AROUND 2900, 1450 CM^-^1
##SAMPLING PROCEDURE=TRANSMISSION
##RESOLUTION=2
##DATA PROCESSING=DIGITIZED BY NIST FROM HARD COPY
##XUNITS=MICROMETERS
##YUNITS=TRANSMITTANCE
##XFACTOR=1.000000
##YFACTOR=1
##DELTAX=000.004815
##FIRSTX=2.018
##LASTX=15.26
##FIRSTY=0.191
##MAXX=15.26
##MINX=2.018
##MAXY=0.84
##MINY=0.023
##NPOINTS=2751
##XYDATA=(X++(Y..Y))
2.018000 0.1910 0.1930 0.1930 0.1940 0.1940
2.042086 0.1940 0.1940 0.1950 0.1960 0.1960
2.066000 0.1970 0.1970 0.1990 0.1990 0.1990
2.090086 0.2010 0.2020 0.2020 0.2030 0.2030
2.114000 0.2060 0.2080 0.2090 0.2120 0.2130
2.138086 0.2140 0.2170 0.2180 0.2180 0.2200
2.162000 0.2240 0.2250 0.2270 0.2290 0.2300
2.186086 0.2330 0.2360 0.2390 0.2410 0.2470
2.210000 0.2490 0.2500 0.2520 0.2570 0.2600
2.234086 0.2610 0.2610 0.2620 0.2620 0.2620
2.258000 0.2620 0.2620 0.2620 0.2620 0.2620
2.282086 0.2610 0.2610 0.2610 0.2600 0.2600
2.307000 0.2600 0.2600 0.2600 0.2610 0.2630
2.331086 0.2670 0.2690 0.2720 0.2720 0.2720
2.355000 0.2730 0.2740 0.2740 0.2740 0.2750
2.379086 0.2750 0.2750 0.2760 0.2760 0.2790
2.403000 0.2810 0.2820 0.2820 0.2840 0.2860
2.427086 0.2860 0.2870 0.2870 0.2880 0.2880
2.451000 0.2880 0.2900 0.2900 0.2900 0.2900
2.475086 0.2910 0.2920 0.2920 0.2920 0.2930
2.499000 0.2930 0.2940 0.2940 0.2960 0.2970
2.523086 0.2970 0.2990 0.3000 0.3000 0.3020
2.547000 0.3030 0.3040 0.3040 0.3060 0.3090
2.571086 0.3100 0.3110 0.3120 0.3120 0.3120
2.596000 0.3140 0.3140 0.3150 0.3170 0.3210
2.620086 0.3230 0.3260 0.3270 0.3280 0.3290
2.644000 0.3300 0.3300 0.3320 0.3320 0.3320
2.668086 0.3330 0.3330 0.3330 0.3330 0.3350
2.692000 0.3360 0.3360 0.3380 0.3400 0.3410
2.716086 0.3420 0.3440 0.3440 0.3450 0.3450
2.740000 0.3450 0.3450 0.3450 0.3450 0.3450
2.764086 0.3440 0.3440 0.3440 0.3440 0.3440
2.788000 0.3450 0.3460 0.3500 0.3510 0.3510
2.812086 0.3520 0.3520 0.3530 0.3540 0.3540
2.836000 0.3560 0.3560 0.3560 0.3560 0.3560
2.860086 0.3560 0.3560 0.3540 0.3540 0.3530
2.884000 0.3530 0.3520 0.3520 0.3520 0.3520
2.908086 0.3520 0.3520 0.3520 0.3520 0.3520
2.933000 0.3520 0.3520 0.3520 0.3520 0.3520
2.957086 0.3520 0.3520 0.3520 0.3520 0.3530
2.981000 0.3540 0.3540 0.3560 0.3570 0.3580
3.005086 0.3600 0.3620 0.3620 0.3620 0.3630
3.029000 0.3630 0.3630 0.3630 0.3630 0.3630
3.053086 0.3640 0.3660 0.3680 0.3680 0.3690
3.077000 0.3710 0.3710 0.3720 0.3720 0.3760
3.101086 0.3800 0.3800 0.3810 0.3810 0.3820
3.125000 0.3820 0.3820 0.3830 0.3830 0.3830
3.149086 0.3830 0.3830 0.3830 0.3830 0.3830
3.173000 0.3820 0.3800 0.3800 0.3770 0.3760
3.197086 0.3760 0.3770 0.3800 0.3810 0.3810
3.222000 0.3830 0.3840 0.3840 0.3830 0.3820
3.246086 0.3810 0.3780 0.3720 0.3690 0.3630
3.270000 0.3570 0.3480 0.3400 0.3340 0.3280
3.294086 0.3230 0.3220 0.3150 0.3040 0.2970
3.318000 0.2920 0.2850 0.2790 0.2690 0.2580
3.342086 0.2520 0.2450 0.2270 0.2050 0.1780
3.366000 0.1450 0.1050 0.0570 0.0470 0.0400
3.390086 0.0330 0.0330 0.0290 0.0270 0.0270
3.414000 0.0260 0.0260 0.0250 0.0250 0.0230
3.438086 0.0230 0.0230 0.0250 0.0250 0.0260
3.462000 0.0260 0.0270 0.0270 0.0280 0.0280
3.486086 0.0280 0.0280 0.0280 0.0280 0.0280
3.510000 0.0280 0.0290 0.0290 0.0320 0.0400
3.534086 0.0440 0.0450 0.1300 0.1810 0.2250
3.559000 0.2960 0.3260 0.3510 0.3750 0.3960
3.583086 0.4170 0.4350 0.4380 0.4490 0.4580
3.607000 0.4670 0.4740 0.4800 0.4840 0.4900
3.631086 0.4910 0.4920 0.4940 0.4960 0.4960
3.655000 0.4970 0.4980 0.4980 0.5000 0.5000
3.679086 0.4980 0.4980 0.4960 0.4950 0.4920
3.703000 0.4880 0.4860 0.4860 0.4850 0.4840
3.727086 0.4830 0.4790 0.4720 0.4650 0.4600
3.751000 0.4590 0.4540 0.4500 0.4460 0.4400
3.775086 0.4380 0.4370 0.4360 0.4340 0.4340
3.799000 0.4310 0.4300 0.4280 0.4280 0.4260
3.823086 0.4240 0.4240 0.4230 0.4220 0.4200
3.848000 0.4200 0.4170 0.4040 0.4000 0.3980
3.872086 0.3920 0.3770 0.3650 0.3590 0.3510
3.896000 0.3420 0.3320 0.3210 0.3180 0.3140
3.920086 0.3110 0.3110 0.3120 0.3150 0.3200
3.944000 0.3240 0.3300 0.3400 0.3460 0.3520
3.968086 0.3560 0.3590 0.3630 0.3640 0.3640
3.992000 0.3640 0.3640 0.3640 0.3630 0.3600
4.016086 0.3590 0.3560 0.3520 0.3480 0.3440
4.040000 0.3360 0.3280 0.3200 0.3120 0.3030
4.064086 0.2970 0.2860 0.2740 0.2720 0.2690
4.088000 0.2670 0.2640 0.2620 0.2610 0.2600
4.112086 0.2600 0.2600 0.2600 0.2600 0.2610
4.136000 0.2610 0.2620 0.2620 0.2640 0.2660
4.160086 0.2670 0.2690 0.2720 0.2720 0.2720
4.185000 0.2730 0.2730 0.2730 0.2730 0.2730
4.209086 0.2740 0.2750 0.2760 0.2780 0.2800
4.233000 0.2810 0.2820 0.2850 0.2860 0.2860
4.257086 0.2880 0.2910 0.2930 0.2960 0.2970
4.281000 0.2990 0.3000 0.3020 0.3040 0.3050
4.305086 0.3100 0.3140 0.3170 0.3220 0.3260
4.329000 0.3300 0.3340 0.3390 0.3440 0.3480
4.353086 0.3530 0.3580 0.3630 0.3690 0.3740
4.377000 0.3800 0.3840 0.3900 0.3960 0.4040
4.401086 0.4100 0.4160 0.4190 0.4220 0.4240
4.425000 0.4250 0.4280 0.4290 0.4310 0.4350
4.449086 0.4380 0.4420 0.4430 0.4460 0.4470
4.474000 0.4490 0.4530 0.4550 0.4590 0.4620
4.498086 0.4660 0.4700 0.4740 0.4780 0.4820
4.522000 0.4850 0.4880 0.4900 0.4900 0.4910
4.546086 0.4920 0.4940 0.5040 0.5050 0.5080
4.570000 0.5100 0.5110 0.5130 0.5140 0.5150
4.594086 0.5160 0.5190 0.5210 0.5220 0.5230
4.618000 0.5250 0.5260 0.5270 0.5280 0.5290
4.642086 0.5310 0.5330 0.5340 0.5340 0.5350
4.666000 0.5370 0.5370 0.5390 0.5400 0.5410
4.690086 0.5430 0.5440 0.5450 0.5460 0.5460
4.714000 0.5470 0.5470 0.5470 0.5490 0.5510
4.738086 0.5530 0.5570 0.5580 0.5580 0.5610
4.762000 0.5630 0.5640 0.5650 0.5650 0.5670
4.786086 0.5680 0.5680 0.5710 0.5730 0.5730
4.811000 0.5740 0.5750 0.5760 0.5760 0.5770
4.835086 0.5790 0.5790 0.5800 0.5810 0.5820
4.859000 0.5830 0.5860 0.5870 0.5890 0.5890
4.883086 0.5890 0.5910 0.5910 0.5910 0.5910
4.907000 0.5910 0.5910 0.5920 0.5930 0.5940
4.931086 0.5950 0.5970 0.5980 0.5990 0.6000
4.955000 0.6010 0.6040 0.6040 0.6050 0.6050
4.979086 0.6060 0.6070 0.6090 0.6100 0.6100
5.003000 0.6110 0.6120 0.6120 0.6130 0.6130
5.027086 0.6150 0.6150 0.6160 0.6160 0.6170
5.051000 0.6180 0.6180 0.6190 0.6190 0.6210
5.075086 0.6210 0.6220 0.6220 0.6220 0.6210
5.100000 0.6210 0.6180 0.6180 0.6170 0.6170
5.124086 0.6160 0.6160 0.6170 0.6170 0.6180
5.148000 0.6190 0.6210 0.6220 0.6220 0.6230
5.172086 0.6240 0.6250 0.6250 0.6250 0.6270
5.196000 0.6270 0.6280 0.6280 0.6280 0.6290
5.220086 0.6290 0.6300 0.6300 0.6300 0.6310
5.244000 0.6310 0.6300 0.6300 0.6300 0.6300
5.268086 0.6300 0.6310 0.6340 0.6350 0.6390
5.292000 0.6400 0.6410 0.6410 0.6420 0.6420
5.316086 0.6430 0.6430 0.6450 0.6460 0.6460
5.340000 0.6460 0.6460 0.6460 0.6460 0.6460
5.364086 0.6460 0.6460 0.6460 0.6460 0.6470
5.388000 0.6480 0.6490 0.6510 0.6520 0.6530
5.412086 0.6540 0.6540 0.6540 0.6540 0.6540
5.437000 0.6540 0.6540 0.6540 0.6540 0.6540
5.461086 0.6540 0.6550 0.6550 0.6570 0.6570
5.485000 0.6570 0.6570 0.6590 0.6590 0.6600
5.509086 0.6600 0.6610 0.6610 0.6630 0.6630
5.533000 0.6640 0.6640 0.6640 0.6650 0.6650
5.557086 0.6650 0.6660 0.6660 0.6660 0.6670
5.581000 0.6670 0.6670 0.6670 0.6700 0.6700
5.605086 0.6710 0.6720 0.6720 0.6730 0.6730
5.629000 0.6750 0.6760 0.6760 0.6770 0.6770
5.653086 0.6780 0.6790 0.6790 0.6810 0.6810
5.677000 0.6820 0.6830 0.6830 0.6830 0.6840
5.701086 0.6840 0.6840 0.6850 0.6850 0.6870
5.726000 0.6870 0.6880 0.6880 0.6890 0.6890
5.750086 0.6890 0.6900 0.6900 0.6900 0.6900
5.774000 0.6890 0.6890 0.6890 0.6890 0.6900
5.798086 0.6900 0.6900 0.6910 0.6910 0.6910
5.822000 0.6910 0.6900 0.6900 0.6890 0.6890
5.846086 0.6890 0.6900 0.6900 0.6900 0.6910
5.870000 0.6910 0.6910 0.6910 0.6930 0.6930
5.894086 0.6930 0.6940 0.6940 0.6940 0.6940
5.918000 0.6940 0.6950 0.6950 0.6950 0.6950
5.942086 0.6950 0.6950 0.6950 0.6950 0.6950
5.966000 0.6950 0.6950 0.6950 0.6950 0.6960
5.990086 0.6960 0.6960 0.6960 0.6960 0.6960
6.014000 0.6990 0.6990 0.7000 0.7000 0.7000
6.038086 0.7010 0.7030 0.7070 0.7090 0.7120
6.063000 0.7130 0.7140 0.7150 0.7150 0.7170
6.087086 0.7170 0.7180 0.7180 0.7180 0.7190
6.111000 0.7190 0.7190 0.7190 0.7190 0.7180
6.135086 0.7150 0.7140 0.6880 0.6650 0.6010
6.159000 0.5370 0.5080 0.4890 0.4700 0.4700
6.183086 0.4920 0.5380 0.5530 0.5730 0.6010
6.207000 0.6180 0.6250 0.6400 0.6490 0.6530
6.231086 0.6530 0.6450 0.6330 0.6240 0.6170
6.255000 0.6030 0.5850 0.5640 0.5630 0.5650
6.279086 0.5760 0.5870 0.6010 0.6170 0.6330
6.303000 0.6450 0.6650 0.6700 0.6600 0.6470
6.327086 0.6250 0.6040 0.5860 0.5740 0.5590
6.352000 0.5450 0.5430 0.5450 0.5590 0.5700
6.376086 0.5890 0.6170 0.6270 0.6280 0.6290
6.400000 0.6300 0.6310 0.6310 0.6330 0.6340
6.424086 0.6350 0.6350 0.6430 0.6550 0.6650
6.448000 0.6710 0.6760 0.6780 0.6790 0.6810
6.472086 0.6820 0.6830 0.6850 0.6880 0.6930
6.496000 0.6950 0.6990 0.7010 0.7030 0.7050
6.520086 0.7070 0.7090 0.7110 0.7120 0.7130
6.544000 0.7140 0.7150 0.7150 0.7150 0.7170
6.568086 0.7170 0.7170 0.7170 0.7150 0.7140
6.592000 0.7130 0.7070 0.7000 0.6930 0.6830
6.616086 0.6750 0.6640 0.6150 0.5550 0.5030
6.640000 0.4860 0.4680 0.4400 0.4110 0.4110
6.664086 0.4230 0.4360 0.4480 0.4610 0.4760
6.689000 0.4940 0.5150 0.5270 0.5290 0.5260
6.713086 0.5030 0.4890 0.4740 0.4710 0.4410
6.737000 0.4110 0.3720 0.3340 0.2600 0.2410
6.761086 0.2200 0.2020 0.1930 0.1840 0.1790
6.785000 0.1770 0.1750 0.1730 0.1690 0.1630
6.809086 0.1510 0.1330 0.1270 0.1190 0.1040
6.833000 0.0940 0.0820 0.0740 0.0640 0.0570
6.857086 0.0560 0.0560 0.0560 0.0550 0.0530
6.881000 0.0520 0.0520 0.0510 0.0520 0.0580
6.905086 0.0690 0.0790 0.0890 0.0990 0.1090
6.929000 0.1210 0.1330 0.1460 0.1610 0.1780
6.953086 0.1970 0.2190 0.2440 0.3030 0.3360
6.978000 0.3480 0.3640 0.3710 0.3750 0.3770
7.002086 0.3960 0.4140 0.4230 0.4320 0.4430
7.026000 0.4550 0.4670 0.4790 0.4900 0.5080
7.050086 0.5110 0.5220 0.5340 0.5430 0.5500
7.074000 0.5570 0.5610 0.5650 0.5680 0.5680
7.098086 0.5680 0.5650 0.5640 0.5630 0.5630
7.122000 0.5640 0.5650 0.5650 0.5680 0.5690
7.146086 0.5700 0.5710 0.5730 0.5740 0.5750
7.170000 0.5750 0.5750 0.5740 0.5650 0.5620
7.194086 0.5580 0.5410 0.5130 0.4980 0.4840
7.218000 0.4550 0.4310 0.4020 0.3740 0.3460
7.242086 0.3240 0.3100 0.2800 0.2580 0.2500
7.266000 0.2410 0.2260 0.2180 0.2150 0.2150
7.290086 0.2180 0.2270 0.2370 0.2810 0.2820
7.315000 0.2820 0.2810 0.2800 0.2800 0.2820
7.339086 0.2900 0.3000 0.3100 0.3230 0.3330
7.363000 0.3450 0.3460 0.3460 0.3450 0.3350
7.387086 0.3340 0.3340 0.3360 0.3410 0.3420
7.411000 0.3450 0.3460 0.3460 0.3440 0.3390
7.435086 0.3380 0.3350 0.3330 0.3320 0.3300
7.459000 0.3320 0.3400 0.3520 0.3650 0.3770
7.483086 0.3920 0.4070 0.4230 0.4410 0.4600
7.507000 0.4800 0.4970 0.5090 0.5100 0.5110
7.531086 0.5110 0.5130 0.5160 0.5200 0.5200
7.555000 0.5190 0.5190 0.5160 0.5160 0.5140
7.579086 0.5130 0.5110 0.5100 0.5090 0.5080
7.604000 0.5080 0.5070 0.5070 0.5050 0.5050
7.628086 0.5050 0.5070 0.5080 0.5090 0.5110
7.652000 0.5140 0.5150 0.5170 0.5220 0.5270
7.676086 0.5290 0.5350 0.5410 0.5460 0.5460
7.700000 0.5500 0.5520 0.5520 0.5510 0.5500
7.724086 0.5380 0.5260 0.5160 0.5080 0.5000
7.748000 0.4910 0.4640 0.4610 0.4610 0.4730
7.772086 0.4850 0.4970 0.5160 0.5350 0.5520
7.796000 0.5680 0.5690 0.5710 0.5730 0.5730
7.820086 0.5730 0.5710 0.5700 0.5680 0.5670
7.844000 0.5620 0.5570 0.5560 0.5520 0.5500
7.868086 0.5450 0.5370 0.5260 0.5190 0.5130
7.892000 0.5040 0.4980 0.4920 0.4720 0.4620
7.916086 0.4480 0.4280 0.4060 0.3830 0.3620
7.941000 0.3420 0.3360 0.3230 0.3220 0.3240
7.965086 0.3450 0.3500 0.3590 0.3920 0.4080
7.989000 0.4080 0.4080 0.3820 0.3740 0.3640
8.013086 0.3560 0.3480 0.3410 0.3340 0.3290
8.037000 0.3240 0.3200 0.3170 0.3150 0.2960
8.061086 0.2960 0.3060 0.3160 0.3220 0.3280
8.085000 0.3400 0.3570 0.3740 0.3890 0.3990
8.109086 0.4060 0.4070 0.4120 0.4160 0.4190
8.133000 0.4250 0.4310 0.4410 0.4520 0.4660
8.157086 0.4840 0.4970 0.5200 0.5310 0.5390
8.181000 0.5470 0.5560 0.5630 0.5700 0.5710
8.205086 0.5740 0.5810 0.5860 0.5880 0.5910
8.230000 0.5920 0.5920 0.5930 0.5940 0.5970
8.254086 0.6000 0.6050 0.6110 0.6160 0.6210
8.278000 0.6240 0.6280 0.6330 0.6350 0.6390
8.302086 0.6420 0.6450 0.6480 0.6520 0.6540
8.326000 0.6580 0.6600 0.6610 0.6630 0.6660
8.350086 0.6690 0.6730 0.6780 0.6780 0.6810
8.374000 0.6820 0.6830 0.6840 0.6870 0.6880
8.398086 0.6890 0.6900 0.6900 0.6900 0.6900
8.422000 0.6870 0.6870 0.6840 0.6820 0.6780
8.446086 0.6760 0.6730 0.6690 0.6600 0.6530
8.470000 0.6420 0.6280 0.6170 0.6040 0.5970
8.494086 0.5850 0.5730 0.5710 0.5710 0.5730
8.518000 0.5790 0.5810 0.5830 0.5870 0.5890
8.542086 0.5930 0.5940 0.5930 0.5920 0.5910
8.567000 0.5880 0.5860 0.5830 0.5800 0.5750
8.591086 0.5710 0.5640 0.5580 0.5550 0.5510
8.615000 0.5470 0.5430 0.5400 0.5390 0.5390
8.639086 0.5390 0.5410 0.5490 0.5550 0.5580
8.663000 0.5640 0.5680 0.5680 0.5680 0.5670
8.687086 0.5630 0.5620 0.5610 0.5610 0.5620
8.711000 0.5700 0.5790 0.5880 0.5980 0.6070
8.735086 0.6180 0.6280 0.6370 0.6460 0.6530
8.759000 0.6600 0.6660 0.6710 0.6750 0.6760
8.783086 0.6770 0.6770 0.6760 0.6710 0.6710
8.807000 0.6690 0.6660 0.6650 0.6640 0.6630
8.831086 0.6630 0.6630 0.6630 0.6640 0.6650
8.856000 0.6710 0.6750 0.6790 0.6840 0.6890
8.880086 0.6930 0.6960 0.7000 0.7000 0.7010
8.904000 0.7010 0.7000 0.6990 0.6970 0.6960
8.928086 0.6880 0.6840 0.6750 0.6570 0.6450
8.952000 0.6400 0.6300 0.6250 0.6210 0.6160
8.976086 0.6150 0.6150 0.6180 0.6270 0.6330
9.000000 0.6370 0.6430 0.6490 0.6570 0.6650
9.024086 0.6690 0.6730 0.6780 0.6840 0.6950
9.048000 0.7020 0.7080 0.7130 0.7190 0.7210
9.072086 0.7230 0.7240 0.7250 0.7260 0.7260
9.096000 0.7290 0.7320 0.7320 0.7330 0.7330
9.120086 0.7330 0.7350 0.7350 0.7350 0.7350
9.144000 0.7350 0.7350 0.7350 0.7330 0.7330
9.168086 0.7330 0.7320 0.7320 0.7330 0.7330
9.193000 0.7330 0.7350 0.7350 0.7360 0.7360
9.217086 0.7360 0.7360 0.7360 0.7350 0.7350
9.241000 0.7330 0.7310 0.7300 0.7270 0.7250
9.265086 0.7240 0.7210 0.7180 0.7140 0.7130
9.289000 0.7130 0.7130 0.7140 0.7150 0.7230
9.313086 0.7260 0.7290 0.7290 0.7300 0.7300
9.337000 0.7310 0.7310 0.7320 0.7320 0.7330
9.361086 0.7330 0.7330 0.7330 0.7350 0.7350
9.385000 0.7350 0.7360 0.7360 0.7360 0.7360
9.409086 0.7370 0.7370 0.7370 0.7370 0.7370
9.433000 0.7370 0.7370 0.7370 0.7370 0.7370
9.457086 0.7370 0.7370 0.7360 0.7360 0.7360
9.482000 0.7350 0.7330 0.7330 0.7310 0.7300
9.506086 0.7270 0.7260 0.7260 0.7250 0.7250
9.530000 0.7240 0.7240 0.7230 0.7230 0.7210
9.554086 0.7210 0.7200 0.7180 0.7180 0.7180
9.578000 0.7190 0.7190 0.7210 0.7210 0.7210
9.602086 0.7200 0.7190 0.7150 0.7080 0.7030
9.626000 0.6990 0.6950 0.6880 0.6830 0.6780
9.650086 0.6660 0.6570 0.6540 0.6520 0.6510
9.674000 0.6510 0.6510 0.6510 0.6510 0.6490
9.698086 0.6480 0.6450 0.6410 0.6390 0.6350
9.722000 0.6290 0.6270 0.6220 0.6170 0.6150
9.746086 0.6120 0.6100 0.6060 0.6050 0.6060
9.770000 0.6090 0.6150 0.6180 0.6230 0.6270
9.794086 0.6310 0.6370 0.6430 0.6470 0.6550
9.819000 0.6590 0.6600 0.6600 0.6590 0.6550
9.843086 0.6530 0.6520 0.6510 0.6510 0.6510
9.867000 0.6520 0.6550 0.6600 0.6650 0.6710
9.891086 0.6750 0.6770 0.6780 0.6810 0.6810
9.915000 0.6810 0.6830 0.6830 0.6840 0.6870
9.939086 0.6880 0.6900 0.6930 0.6950 0.6990
9.963000 0.7020 0.7060 0.7090 0.7130 0.7170
9.987086 0.7210 0.7230 0.7290 0.7300 0.7300
10.011000 0.7300 0.7300 0.7290 0.7290 0.7260
10.035086 0.7260 0.7250 0.7250 0.7240 0.7230
10.059000 0.7210 0.7210 0.7190 0.7180 0.7170
10.083086 0.7150 0.7140 0.7130 0.7120 0.7090
10.108000 0.7070 0.7050 0.7020 0.7010 0.7010
10.132086 0.7020 0.7030 0.7060 0.7080 0.7110
10.156000 0.7140 0.7170 0.7190 0.7210 0.7240
10.180086 0.7240 0.7250 0.7250 0.7250 0.7240
10.204000 0.7230 0.7200 0.7170 0.7140 0.7110
10.228086 0.7050 0.6990 0.6910 0.6820 0.6720
10.252000 0.6630 0.6550 0.6450 0.6370 0.6330
10.276086 0.6310 0.6310 0.6330 0.6340 0.6360
10.300000 0.6390 0.6410 0.6430 0.6460 0.6490
10.324086 0.6520 0.6540 0.6570 0.6600 0.6640
10.348000 0.6670 0.6720 0.6720 0.6730 0.6750
10.372086 0.6750 0.6760 0.6760 0.6770 0.6790
10.396000 0.6810 0.6820 0.6830 0.6840 0.6840
10.420086 0.6850 0.6850 0.6880 0.6900 0.6930
10.445000 0.6910 0.6910 0.6900 0.6880 0.6870
10.469086 0.6850 0.6850 0.6850 0.6870 0.6890
10.493000 0.6910 0.6950 0.6960 0.7010 0.7060
10.517086 0.7110 0.7150 0.7190 0.7240 0.7260
10.541000 0.7290 0.7310 0.7310 0.7320 0.7320
10.565086 0.7330 0.7330 0.7360 0.7370 0.7370
10.589000 0.7370 0.7360 0.7360 0.7360 0.7370
10.613086 0.7370 0.7380 0.7380 0.7380 0.7380
10.637000 0.7380 0.7370 0.7360 0.7350 0.7330
10.661086 0.7320 0.7270 0.7250 0.7230 0.7190
10.685000 0.7130 0.7080 0.6970 0.6880 0.6790
10.709086 0.6720 0.6660 0.6600 0.6530 0.6470
10.734000 0.6390 0.6340 0.6280 0.6220 0.6150
10.758086 0.6090 0.6030 0.5980 0.5940 0.5930
10.782000 0.5920 0.5930 0.6030 0.6120 0.6220
10.806086 0.6310 0.6350 0.6430 0.6490 0.6540
10.830000 0.6590 0.6640 0.6690 0.6750 0.6830
10.854086 0.6940 0.7060 0.7080 0.7180 0.7230
10.878000 0.7260 0.7310 0.7350 0.7390 0.7420
10.902086 0.7450 0.7470 0.7480 0.7480 0.7490
10.926000 0.7490 0.7500 0.7500 0.7500 0.7510
10.950086 0.7510 0.7510 0.7510 0.7510 0.7510
10.974000 0.7520 0.7540 0.7560 0.7570 0.7600
10.998086 0.7610 0.7630 0.7660 0.7680 0.7700
11.022000 0.7730 0.7750 0.7780 0.7790 0.7810
11.046086 0.7810 0.7810 0.7820 0.7820 0.7820
11.071000 0.7820 0.7820 0.7810 0.7810 0.7800
11.095086 0.7780 0.7750 0.7720 0.7690 0.7640
11.119000 0.7600 0.7550 0.7520 0.7490 0.7410
11.143086 0.7320 0.7210 0.7130 0.7080 0.7050
11.167000 0.7030 0.7030 0.7050 0.7070 0.7110
11.191086 0.7150 0.7210 0.7290 0.7330 0.7370
11.215000 0.7420 0.7440 0.7480 0.7550 0.7580
11.239086 0.7630 0.7670 0.7720 0.7760 0.7780
11.263000 0.7800 0.7810 0.7820 0.7850 0.7870
11.287086 0.7880 0.7900 0.7920 0.7920 0.7930
11.311000 0.7970 0.8000 0.8030 0.8040 0.8050
11.335086 0.8090 0.8110 0.8120 0.8120 0.8140
11.360000 0.8140 0.8140 0.8140 0.8150 0.8160
11.384086 0.8170 0.8180 0.8210 0.8220 0.8220
11.408000 0.8230 0.8230 0.8230 0.8230 0.8260
11.432086 0.8260 0.8260 0.8270 0.8280 0.8290
11.456000 0.8290 0.8300 0.8300 0.8300 0.8300
11.480086 0.8290 0.8290 0.8290 0.8290 0.8290
11.504000 0.8300 0.8300 0.8290 0.8280 0.8270
11.528086 0.8260 0.8220 0.8170 0.8120 0.8050
11.552000 0.7960 0.7820 0.7640 0.7540 0.7490
11.576086 0.7440 0.7320 0.7240 0.7150 0.7150
11.600000 0.7180 0.7200 0.7200 0.7200 0.7190
11.624086 0.7190 0.7180 0.7150 0.7140 0.7130
11.648000 0.7130 0.7140 0.7170 0.7200 0.7240
11.672086 0.7270 0.7310 0.7310 0.7380 0.7420
11.697000 0.7440 0.7470 0.7560 0.7610 0.7660
11.721086 0.7700 0.7730 0.7760 0.7820 0.7850
11.745000 0.7870 0.7870 0.7900 0.7910 0.7940
11.769086 0.7970 0.8030 0.8090 0.8120 0.8140
11.793000 0.8150 0.8160 0.8170 0.8170 0.8180
11.817086 0.8180 0.8200 0.8200 0.8200 0.8200
11.841000 0.8210 0.8210 0.8220 0.8240 0.8260
11.865086 0.8280 0.8300 0.8320 0.8330 0.8350
11.889000 0.8350 0.8350 0.8350 0.8350 0.8350
11.913086 0.8360 0.8360 0.8360 0.8380 0.8380
11.937000 0.8380 0.8380 0.8380 0.8390 0.8390
11.961086 0.8390 0.8390 0.8390 0.8380 0.8400
11.986000 0.8400 0.8400 0.8400 0.8400 0.8400
12.010086 0.8390 0.8380 0.8360 0.8360 0.8340
12.034000 0.8320 0.8320 0.8300 0.8300 0.8300
12.058086 0.8290 0.8280 0.8270 0.8260 0.8240
12.082000 0.8230 0.8210 0.8180 0.8160 0.8140
12.106086 0.8110 0.8090 0.8050 0.8020 0.7990
12.130000 0.7940 0.7870 0.7800 0.7730 0.7660
12.154086 0.7600 0.7540 0.7510 0.7480 0.7430
12.178000 0.7380 0.7350 0.7320 0.7310 0.7300
12.202086 0.7300 0.7310 0.7320 0.7370 0.7390
12.226000 0.7410 0.7410 0.7390 0.7380 0.7330
12.250086 0.7290 0.7260 0.7230 0.7190 0.7140
12.274000 0.7070 0.6970 0.6830 0.6660 0.6430
12.298086 0.6150 0.6040 0.5950 0.5890 0.5830
12.323000 0.5770 0.5680 0.5530 0.5340 0.5080
12.347086 0.4900 0.4720 0.4560 0.4400 0.4250
12.371000 0.4140 0.4070 0.4010 0.3960 0.3940
12.395086 0.3960 0.4040 0.4130 0.4160 0.4180
12.419000 0.4200 0.4200 0.4170 0.4050 0.4050
12.443086 0.3940 0.3830 0.3740 0.3660 0.3650
12.467000 0.3600 0.3560 0.3510 0.3480 0.3470
12.491086 0.3480 0.3510 0.3590 0.3710 0.3820
12.515000 0.3940 0.4050 0.4170 0.4260 0.4280
12.539086 0.4550 0.4900 0.5430 0.5640 0.5820
12.563000 0.5980 0.6110 0.6240 0.6350 0.6470
12.587086 0.6580 0.6700 0.6830 0.6970 0.7050
12.612000 0.7120 0.7170 0.7230 0.7310 0.7370
12.636086 0.7420 0.7420 0.7450 0.7480 0.7540
12.660000 0.7570 0.7610 0.7640 0.7690 0.7730
12.684086 0.7760 0.7790 0.7810 0.7840 0.7850
12.708000 0.7860 0.7870 0.7880 0.7900 0.7910
12.732086 0.7920 0.7930 0.7940 0.7960 0.7970
12.756000 0.7970 0.7980 0.7990 0.8000 0.8020
12.780086 0.8020 0.8030 0.8040 0.8040 0.8050
12.804000 0.8050 0.8050 0.8040 0.8030 0.8020
12.828086 0.8020 0.8020 0.8000 0.7990 0.7990
12.852000 0.7980 0.7970 0.7940 0.7920 0.7900
12.876086 0.7870 0.7860 0.7840 0.7820 0.7800
12.900000 0.7790 0.7760 0.7750 0.7690 0.7610
12.924086 0.7500 0.7440 0.7370 0.7200 0.7010
12.949000 0.6790 0.6550 0.6290 0.5990 0.5800
12.973086 0.5670 0.5510 0.5500 0.5520 0.5570
12.997000 0.5670 0.5800 0.5910 0.5980 0.6420
13.021086 0.6570 0.6700 0.6830 0.6930 0.7010
13.045000 0.7060 0.7120 0.7150 0.7210 0.7230
13.069086 0.7230 0.7200 0.7180 0.7140 0.7130
13.093000 0.7120 0.7110 0.7090 0.7050 0.7020
13.117086 0.6950 0.6880 0.6780 0.6700 0.6600
13.141000 0.6520 0.6430 0.6360 0.6290 0.6220
13.165086 0.6150 0.6070 0.6010 0.5940 0.5880
13.189000 0.5810 0.5740 0.5740 0.5710 0.5640
13.213086 0.5560 0.5460 0.5340 0.5220 0.5110
13.238000 0.5010 0.4960 0.4900 0.4830 0.4770
13.262086 0.4740 0.4680 0.4660 0.4640 0.4640
13.286000 0.4660 0.4720 0.4760 0.4800 0.4900
13.310086 0.4950 0.4980 0.4980 0.4980 0.4970
13.334000 0.4890 0.4880 0.4840 0.4800 0.4740
13.358086 0.4660 0.4550 0.4430 0.4310 0.4160
13.382000 0.4000 0.3830 0.3660 0.3470 0.3280
13.406086 0.3080 0.2970 0.2940 0.2920 0.2910
13.430000 0.2900 0.2900 0.2900 0.2900 0.2880
13.454086 0.2870 0.2820 0.2800 0.2760 0.2730
13.478000 0.2680 0.2570 0.2520 0.2480 0.2470
13.502086 0.2380 0.2270 0.2170 0.2070 0.2050
13.526000 0.2070 0.2250 0.2430 0.3090 0.3330
13.550086 0.3520 0.3700 0.3840 0.3990 0.4130
13.575000 0.4300 0.4490 0.4720 0.4980 0.5370
13.599086 0.5440 0.5470 0.5490 0.5530 0.5580
13.623000 0.5590 0.5590 0.5610 0.5620 0.5630
13.647086 0.5630 0.5640 0.5670 0.5700 0.5750
13.671000 0.5810 0.5880 0.5970 0.6040 0.6120
13.695086 0.6210 0.6290 0.6360 0.6430 0.6490
13.719000 0.6530 0.6550 0.6550 0.6580 0.6610
13.743086 0.6640 0.6660 0.6700 0.6730 0.6760
13.767000 0.6780 0.6820 0.6840 0.6850 0.6870
13.791086 0.6880 0.6880 0.6890 0.6890 0.6900
13.815000 0.6900 0.6900 0.6910 0.6910 0.6910
13.839086 0.6910 0.6930 0.6930 0.6930 0.6930
13.864000 0.6930 0.6940 0.6940 0.6940 0.6940
13.888086 0.6940 0.6950 0.6950 0.6960 0.6970
13.912000 0.6990 0.7000 0.7000 0.7010 0.7010
13.936086 0.7020 0.7050 0.7080 0.7110 0.7120
13.960000 0.7150 0.7190 0.7200 0.7210 0.7240
13.984086 0.7260 0.7270 0.7290 0.7290 0.7290
14.008000 0.7300 0.7300 0.7300 0.7300 0.7300
14.032086 0.7300 0.7300 0.7290 0.7290 0.7270
14.056000 0.7250 0.7240 0.7210 0.7200 0.7200
14.080086 0.7200 0.7210 0.7230 0.7250 0.7250
14.104000 0.7260 0.7270 0.7290 0.7300 0.7300
14.128086 0.7310 0.7320 0.7330 0.7330 0.7360
14.152000 0.7360 0.7370 0.7370 0.7380 0.7380
14.176086 0.7390 0.7390 0.7410 0.7420 0.7420
14.201000 0.7430 0.7440 0.7440 0.7440 0.7440
14.225086 0.7440 0.7440 0.7440 0.7440 0.7450
14.249000 0.7450 0.7450 0.7450 0.7450 0.7470
14.273086 0.7470 0.7470 0.7480 0.7480 0.7490
14.297000 0.7490 0.7490 0.7490 0.7490 0.7490
14.321086 0.7490 0.7490 0.7490 0.7490 0.7490
14.345000 0.7490 0.7490 0.7490 0.7490 0.7490
14.369086 0.7480 0.7480 0.7480 0.7470 0.7470
14.393000 0.7470 0.7450 0.7450 0.7450 0.7440
14.417086 0.7440 0.7440 0.7430 0.7430 0.7420
14.441000 0.7430 0.7420 0.7420 0.7420 0.7420
14.465086 0.7410 0.7410 0.7390 0.7390 0.7380
14.490000 0.7380 0.7370 0.7370 0.7360 0.7360
14.514086 0.7350 0.7350 0.7350 0.7330 0.7330
14.538000 0.7320 0.7320 0.7310 0.7310 0.7300
14.562086 0.7300 0.7290 0.7290 0.7270 0.7270
14.586000 0.7260 0.7260 0.7240 0.7230 0.7210
14.610086 0.7190 0.7170 0.7140 0.7120 0.7080
14.634000 0.7060 0.7030 0.7010 0.6990 0.6950
14.658086 0.6930 0.6890 0.6850 0.6810 0.6760
14.682000 0.6700 0.6670 0.6650 0.6650 0.6640
14.706086 0.6640 0.6640 0.6640 0.6640 0.6640
14.730000 0.6640 0.6630 0.6630 0.6630 0.6630
14.754086 0.6610 0.6580 0.6550 0.6530 0.6510
14.778000 0.6460 0.6400 0.6290 0.6240 0.6220
14.802086 0.6180 0.6150 0.6120 0.6120 0.6130
14.827000 0.6160 0.6180 0.6220 0.6270 0.6310
14.851086 0.6370 0.6410 0.6460 0.6480 0.6510
14.875000 0.6520 0.6530 0.6550 0.6590 0.6640
14.899086 0.6650 0.6660 0.6660 0.6700 0.6700
14.923000 0.6700 0.6700 0.6690 0.6660 0.6640
14.947086 0.6610 0.6600 0.6590 0.6570 0.6490
14.971000 0.6480 0.6450 0.6430 0.6400 0.6350
14.995086 0.6300 0.6190 0.6120 0.6090 0.6050
15.019000 0.6030 0.5990 0.5980 0.5990 0.6000
15.043086 0.6030 0.6040 0.6060 0.6090 0.6100
15.067000 0.6100 0.6090 0.6090 0.6070 0.6060
15.091086 0.6050 0.5990 0.5980 0.5950 0.5940
15.116000 0.5930 0.5920 0.5910 0.5890 0.5890
15.140086 0.5890 0.5910 0.5930 0.5950 0.5990
15.164000 0.6010 0.6030 0.6060 0.6120 0.6150
15.188086 0.6170 0.6190 0.6220 0.6220 0.6230
15.212000 0.6230 0.6230 0.6220 0.6210 0.6130
15.236086 0.6060 0.6050 0.6010 0.5970 0.6050
15.260000 0.6010
##END=
