##TITLE=CALCIUM DICHROMATE
$$ C.P.
##JCAMP-DX=4.24
##DATA TYPE=INFRARED SPECTRUM
##CLASS=COBLENTZ
##ORIGIN=MELLON INSTITUTE
##OWNER=COBLENTZ SOCIETY
Collection (C) 2018 copyright by the U.S. Secretary of Commerce
on behalf of the United States of America. All rights reserved.
##DATE=Not specified, most likely prior to 1970
##MOLFORM=Ca Cr2 O7  * 3 H2 O
##SOURCE REFERENCE=COBLENTZ NO. 469
##$NIST ID=B6000469
##$NIST SOURCE=COBLENTZ
##$NIST IMAGE=cob469
##SPECTROMETER/DATA SYSTEM=Not specified, most likely a prism, grating, or hybrid spectrometer.
##STATE=SOLID (NUJOL MULL)
##PATH LENGTH=
$$SPECTRAL CONTAMINATION DUE TO OIL AROUND 2900, 1450, 1380 CM^-^1
##SAMPLING PROCEDURE=TRANSMISSION
##RESOLUTION=4
##DATA PROCESSING=DIGITIZED BY NIST FROM HARD COPY
##XUNITS=MICROMETERS
##YUNITS=TRANSMITTANCE
##XFACTOR=1.000000
##YFACTOR=1
##DELTAX=000.006837
##FIRSTX=2.036
##LASTX=16.0103
##FIRSTY=0.643
##MAXX=16.0103
##MINX=2.036
##MAXY=0.951
##MINY=0.072
##NPOINTS=2045
##XYDATA=(X++(Y..Y))
2.036000 0.6430 0.6440 0.6480 0.6500 0.6510
2.070199 0.6510 0.6530 0.6550 0.6560 0.6580
2.104000 0.6580 0.6600 0.6620 0.6650 0.6650
2.138199 0.6670 0.6680 0.6700 0.6720 0.6720
2.173000 0.6740 0.6750 0.6770 0.6790 0.6800
2.207199 0.6820 0.6820 0.6840 0.6840 0.6860
2.241000 0.6870 0.6870 0.6890 0.6890 0.6910
2.275199 0.6910 0.6920 0.6920 0.6920 0.6910
2.310000 0.6910 0.6910 0.6920 0.6920 0.6940
2.344199 0.6940 0.6940 0.6960 0.6980 0.6990
2.378000 0.7010 0.7010 0.7010 0.7030 0.7040
2.412199 0.7040 0.7060 0.7100 0.7110 0.7130
2.446000 0.7130 0.7160 0.7180 0.7200 0.7220
2.480199 0.7220 0.7230 0.7250 0.7270 0.7270
2.515000 0.7280 0.7300 0.7320 0.7320 0.7340
2.549199 0.7350 0.7390 0.7400 0.7400 0.7420
2.583000 0.7420 0.7420 0.7420 0.7470 0.7470
2.617199 0.7510 0.7510 0.7530 0.7530 0.7540
2.651000 0.7560 0.7580 0.7590 0.7590 0.7610
2.685199 0.7630 0.7630 0.7630 0.7650 0.7650
2.720000 0.7650 0.7650 0.7630 0.7630 0.7580
2.754199 0.7530 0.7370 0.7200 0.7150 0.7080
2.788000 0.6890 0.6440 0.6070 0.5740 0.5660
2.822199 0.5550 0.5420 0.5280 0.5180 0.4990
2.856000 0.4800 0.4780 0.4750 0.4710 0.4680
2.890199 0.4660 0.4630 0.4630 0.4630 0.4630
2.925000 0.4660 0.4680 0.4730 0.4800 0.4880
2.959199 0.4990 0.5060 0.5140 0.5190 0.5260
2.993000 0.5310 0.5400 0.5470 0.5540 0.5590
3.027199 0.5660 0.5710 0.5830 0.5860 0.5910
3.062000 0.5980 0.5980 0.6020 0.6030 0.6070
3.096199 0.6140 0.6150 0.6190 0.6220 0.6260
3.130000 0.6290 0.6310 0.6340 0.6390 0.6430
3.164199 0.6440 0.6480 0.6530 0.6580 0.6620
3.198000 0.6670 0.6700 0.6750 0.6790 0.6800
3.232199 0.6840 0.6870 0.6890 0.6890 0.6890
3.267000 0.6860 0.6820 0.6790 0.6740 0.6600
3.301199 0.6480 0.5980 0.5500 0.5020 0.4390
3.335000 0.3730 0.2950 0.2430 0.1920 0.1400
3.369199 0.0850 0.0780 0.0720 0.0720 0.0800
3.403000 0.1040 0.1300 0.1660 0.1920 0.2160
3.437199 0.2240 0.2240 0.2190 0.2190 0.1920
3.472000 0.1920 0.2000 0.2140 0.2600 0.3600
3.506199 0.4690 0.5240 0.5670 0.6560 0.6800
3.540000 0.7080 0.7400 0.7530 0.7650 0.7750
3.574199 0.7800 0.7870 0.7900 0.7990 0.7990
3.608000 0.8010 0.8020 0.8020 0.8040 0.8090
3.642199 0.8110 0.8110 0.8130 0.8130 0.8140
3.677000 0.8140 0.8160 0.8160 0.8180 0.8190
3.711199 0.8190 0.8190 0.8190 0.8210 0.8230
3.745000 0.8230 0.8250 0.8260 0.8260 0.8300
3.779199 0.8300 0.8300 0.8300 0.8300 0.8330
3.814000 0.8330 0.8350 0.8350 0.8350 0.8350
3.848199 0.8350 0.8400 0.8420 0.8420 0.8430
3.882000 0.8430 0.8450 0.8470 0.8490 0.8500
3.916199 0.8520 0.8540 0.8550 0.8550 0.8570
3.950000 0.8570 0.8590 0.8610 0.8620 0.8620
3.984199 0.8640 0.8640 0.8660 0.8660 0.8660
4.019000 0.8670 0.8670 0.8670 0.8690 0.8690
4.053199 0.8690 0.8710 0.8710 0.8710 0.8710
4.087000 0.8730 0.8730 0.8730 0.8730 0.8740
4.121199 0.8740 0.8740 0.8740 0.8740 0.8760
4.155000 0.8760 0.8760 0.8760 0.8760 0.8760
4.189199 0.8760 0.8780 0.8780 0.8760 0.8760
4.224000 0.8780 0.8780 0.8780 0.8780 0.8780
4.258199 0.8780 0.8780 0.8780 0.8790 0.8790
4.292000 0.8790 0.8790 0.8790 0.8790 0.8790
4.326199 0.8790 0.8790 0.8790 0.8790 0.8790
4.360000 0.8790 0.8790 0.8810 0.8830 0.8810
4.394199 0.8810 0.8810 0.8810 0.8810 0.8830
4.429000 0.8830 0.8830 0.8830 0.8830 0.8830
4.463199 0.8830 0.8830 0.8830 0.8830 0.8830
4.497000 0.8830 0.8850 0.8850 0.8850 0.8850
4.531199 0.8850 0.8860 0.8860 0.8860 0.8850
4.566000 0.8850 0.8850 0.8850 0.8860 0.8860
4.600199 0.8860 0.8880 0.8880 0.8880 0.8880
4.634000 0.8880 0.8880 0.8910 0.8910 0.8910
4.668199 0.8910 0.8910 0.8910 0.8910 0.8910
4.702000 0.8930 0.8930 0.8930 0.8930 0.8930
4.736199 0.8950 0.8950 0.8950 0.8970 0.8970
4.771000 0.8970 0.8970 0.8970 0.8980 0.8980
4.805199 0.8980 0.8980 0.8980 0.8980 0.9000
4.839000 0.9000 0.9000 0.9000 0.9000 0.9020
4.873199 0.9020 0.9020 0.9020 0.9000 0.9020
4.907000 0.9020 0.9020 0.9020 0.9030 0.9030
4.941199 0.9030 0.9030 0.9030 0.9030 0.9030
4.976000 0.9030 0.9050 0.9070 0.9070 0.9070
5.010199 0.9050 0.9070 0.9070 0.9090 0.9090
5.044000 0.9100 0.9090 0.9100 0.9100 0.9100
5.078199 0.9100 0.9120 0.9120 0.9140 0.9140
5.112000 0.9140 0.9140 0.9140 0.9140 0.9140
5.146199 0.9140 0.9140 0.9140 0.9150 0.9150
5.181000 0.9150 0.9150 0.9150 0.9150 0.9170
5.215199 0.9190 0.9190 0.9190 0.9190 0.9170
5.249000 0.9170 0.9190 0.9190 0.9190 0.9190
5.283199 0.9190 0.9190 0.9190 0.9190 0.9210
5.318000 0.9210 0.9210 0.9190 0.9190 0.9190
5.352199 0.9190 0.9190 0.9210 0.9210 0.9210
5.386000 0.9210 0.9190 0.9190 0.9190 0.9190
5.420199 0.9190 0.9190 0.9190 0.9210 0.9210
5.454000 0.9210 0.9210 0.9210 0.9210 0.9220
5.488199 0.9210 0.9220 0.9220 0.9220 0.9220
5.523000 0.9220 0.9220 0.9220 0.9220 0.9240
5.557199 0.9240 0.9240 0.9260 0.9270 0.9260
5.591000 0.9260 0.9260 0.9270 0.9270 0.9290
5.625199 0.9310 0.9310 0.9310 0.9330 0.9330
5.659000 0.9330 0.9340 0.9340 0.9340 0.9340
5.693199 0.9340 0.9360 0.9360 0.9360 0.9360
5.728000 0.9360 0.9380 0.9380 0.9380 0.9390
5.762199 0.9390 0.9390 0.9390 0.9410 0.9410
5.796000 0.9410 0.9410 0.9410 0.9410 0.9430
5.830199 0.9430 0.9430 0.9430 0.9430 0.9450
5.865000 0.9450 0.9460 0.9480 0.9480 0.9500
5.899199 0.9500 0.9500 0.9510 0.9510 0.9500
5.933000 0.9500 0.9510 0.9510 0.9510 0.9500
5.967199 0.9500 0.9500 0.9460 0.9460 0.9430
6.001000 0.9410 0.9380 0.9330 0.9270 0.9240
6.035199 0.9190 0.9150 0.9070 0.8970 0.8730
6.070000 0.8570 0.8400 0.8180 0.7970 0.7870
6.104199 0.7820 0.7780 0.7750 0.7650 0.7530
6.138000 0.7270 0.7160 0.7150 0.7110 0.7130
6.172199 0.7150 0.7320 0.7460 0.7590 0.7710
6.206000 0.7920 0.8010 0.8070 0.8180 0.8260
6.240199 0.8350 0.8470 0.8690 0.8830 0.8900
6.275000 0.8910 0.8980 0.9000 0.9020 0.9030
6.309199 0.9050 0.9100 0.9120 0.9140 0.9140
6.343000 0.9170 0.9190 0.9210 0.9210 0.9220
6.377199 0.9220 0.9240 0.9260 0.9260 0.9260
6.411000 0.9270 0.9270 0.9290 0.9310 0.9310
6.445199 0.9330 0.9330 0.9330 0.9330 0.9340
6.480000 0.9340 0.9360 0.9360 0.9340 0.9340
6.514199 0.9360 0.9360 0.9360 0.9360 0.9360
6.548000 0.9360 0.9360 0.9380 0.9380 0.9380
6.582199 0.9390 0.9390 0.9390 0.9410 0.9410
6.617000 0.9410 0.9390 0.9390 0.9390 0.9390
6.651199 0.9390 0.9380 0.9380 0.9380 0.9360
6.685000 0.9340 0.9330 0.9330 0.9290 0.9260
6.719199 0.9190 0.9100 0.9050 0.9000 0.8690
6.753000 0.8570 0.8450 0.8230 0.8020 0.7850
6.787199 0.7710 0.7560 0.7220 0.6860 0.6500
6.822000 0.6120 0.5840 0.5570 0.5330 0.5300
6.856199 0.5280 0.5260 0.5300 0.5310 0.5360
6.890000 0.5470 0.5640 0.6030 0.6190 0.6360
6.924199 0.6480 0.6750 0.7010 0.7390 0.7590
6.958000 0.7820 0.7990 0.8130 0.8250 0.8350
6.992199 0.8450 0.8550 0.8690 0.8740 0.8790
7.027000 0.8790 0.8830 0.8880 0.8910 0.8970
7.061199 0.9020 0.9050 0.9100 0.9140 0.9150
7.095000 0.9190 0.9210 0.9220 0.9220 0.9220
7.129199 0.9220 0.9220 0.9210 0.9190 0.9150
7.163000 0.9120 0.9030 0.8930 0.8850 0.8660
7.197199 0.8550 0.8450 0.8130 0.7780 0.7530
7.232000 0.7350 0.7220 0.7060 0.7040 0.7110
7.266199 0.7270 0.7470 0.7540 0.7660 0.7750
7.300000 0.7780 0.7850 0.7900 0.8010 0.8090
7.334199 0.8210 0.8350 0.8400 0.8450 0.8520
7.369000 0.8550 0.8620 0.8660 0.8710 0.8740
7.403199 0.8780 0.8810 0.8830 0.8850 0.8900
7.437000 0.8910 0.8930 0.8950 0.8950 0.8970
7.471199 0.8980 0.8980 0.9020 0.9030 0.9050
7.505000 0.9050 0.9070 0.9100 0.9120 0.9120
7.539199 0.9120 0.9140 0.9140 0.9140 0.9140
7.574000 0.9140 0.9140 0.9140 0.9140 0.9140
7.608199 0.9140 0.9140 0.9140 0.9120 0.9120
7.642000 0.9120 0.9100 0.9100 0.9100 0.9090
7.676199 0.9100 0.9100 0.9100 0.9100 0.9100
7.710000 0.9120 0.9120 0.9140 0.9140 0.9140
7.744199 0.9140 0.9150 0.9150 0.9170 0.9170
7.779000 0.9170 0.9190 0.9190 0.9210 0.9220
7.813199 0.9220 0.9240 0.9240 0.9240 0.9240
7.847000 0.9240 0.9260 0.9260 0.9260 0.9270
7.881199 0.9260 0.9270 0.9270 0.9270 0.9270
7.915000 0.9270 0.9290 0.9290 0.9290 0.9290
7.949199 0.9290 0.9290 0.9290 0.9310 0.9310
7.984000 0.9330 0.9330 0.9340 0.9340 0.9340
8.018199 0.9330 0.9330 0.9340 0.9360 0.9360
8.052000 0.9360 0.9360 0.9360 0.9360 0.9360
8.086199 0.9380 0.9380 0.9390 0.9390 0.9410
8.121000 0.9410 0.9410 0.9410 0.9410 0.9410
8.155199 0.9410 0.9410 0.9410 0.9410 0.9410
8.189000 0.9410 0.9410 0.9410 0.9430 0.9430
8.223199 0.9430 0.9410 0.9410 0.9430 0.9430
8.257000 0.9430 0.9430 0.9450 0.9450 0.9450
8.291199 0.9450 0.9450 0.9450 0.9450 0.9450
8.326000 0.9450 0.9460 0.9460 0.9460 0.9480
8.360199 0.9480 0.9500 0.9480 0.9480 0.9480
8.394000 0.9460 0.9480 0.9480 0.9500 0.9500
8.428199 0.9500 0.9500 0.9500 0.9500 0.9500
8.462000 0.9500 0.9480 0.9480 0.9480 0.9480
8.496199 0.9480 0.9480 0.9480 0.9460 0.9460
8.531000 0.9450 0.9450 0.9450 0.9450 0.9430
8.565199 0.9430 0.9410 0.9410 0.9390 0.9380
8.599000 0.9380 0.9360 0.9340 0.9340 0.9340
8.633199 0.9330 0.9330 0.9310 0.9290 0.9290
8.667000 0.9270 0.9270 0.9270 0.9260 0.9260
8.701199 0.9260 0.9260 0.9240 0.9240 0.9240
8.736000 0.9240 0.9240 0.9240 0.9240 0.9220
8.770199 0.9220 0.9220 0.9220 0.9220 0.9220
8.804000 0.9240 0.9240 0.9240 0.9220 0.9220
8.838199 0.9240 0.9240 0.9220 0.9220 0.9240
8.873000 0.9240 0.9260 0.9260 0.9260 0.9260
8.907199 0.9260 0.9240 0.9220 0.9220 0.9210
8.941000 0.9210 0.9210 0.9190 0.9170 0.9170
8.975199 0.9150 0.9150 0.9150 0.9150 0.9150
9.009000 0.9150 0.9140 0.9140 0.9120 0.9120
9.043199 0.9120 0.9120 0.9120 0.9100 0.9120
9.078000 0.9120 0.9120 0.9100 0.9100 0.9100
9.112199 0.9100 0.9100 0.9100 0.9100 0.9100
9.146000 0.9100 0.9100 0.9100 0.9100 0.9100
9.180199 0.9100 0.9100 0.9100 0.9100 0.9100
9.214000 0.9100 0.9100 0.9100 0.9100 0.9100
9.248199 0.9100 0.9100 0.9090 0.9090 0.9090
9.283000 0.9090 0.9090 0.9090 0.9090 0.9090
9.317199 0.9070 0.9070 0.9070 0.9070 0.9070
9.351000 0.9070 0.9070 0.9070 0.9050 0.9050
9.385199 0.9050 0.9050 0.9050 0.9050 0.9050
9.420000 0.9030 0.9030 0.9030 0.9020 0.9020
9.454199 0.9020 0.9020 0.9000 0.9020 0.9000
9.488000 0.9000 0.8980 0.8980 0.8980 0.8970
9.522199 0.8970 0.8970 0.8970 0.8970 0.8950
9.556000 0.8950 0.8950 0.8950 0.8950 0.8930
9.590199 0.8930 0.8930 0.8910 0.8910 0.8910
9.625000 0.8900 0.8900 0.8880 0.8880 0.8880
9.659199 0.8860 0.8860 0.8860 0.8860 0.8860
9.693000 0.8850 0.8850 0.8830 0.8830 0.8830
9.727199 0.8850 0.8830 0.8830 0.8810 0.8810
9.761000 0.8790 0.8780 0.8780 0.8760 0.8740
9.795199 0.8730 0.8730 0.8730 0.8730 0.8710
9.830000 0.8710 0.8670 0.8660 0.8640 0.8620
9.864199 0.8610 0.8570 0.8570 0.8550 0.8540
9.898000 0.8520 0.8500 0.8470 0.8450 0.8430
9.932199 0.8420 0.8380 0.8350 0.8330 0.8310
9.966000 0.8300 0.8260 0.8250 0.8190 0.8070
10.000199 0.8010 0.7950 0.7950 0.7920 0.7830
10.035000 0.7730 0.7650 0.7560 0.7470 0.7350
10.069199 0.7230 0.7150 0.7060 0.6980 0.6860
10.103000 0.6750 0.6630 0.6560 0.6480 0.6390
10.137199 0.6290 0.6150 0.6020 0.5950 0.5830
10.172000 0.5740 0.5710 0.5670 0.5570 0.5470
10.206199 0.5420 0.5360 0.5280 0.5180 0.5070
10.240000 0.5020 0.4930 0.4850 0.4760 0.4710
10.274199 0.4640 0.4590 0.4510 0.4450 0.4390
10.308000 0.4280 0.4280 0.4270 0.4200 0.4130
10.342199 0.4040 0.4010 0.3970 0.3870 0.3840
10.377000 0.3800 0.3730 0.3700 0.3630 0.3560
10.411199 0.3530 0.3490 0.3430 0.3360 0.3320
10.445000 0.3270 0.3190 0.3130 0.3080 0.3030
10.479199 0.2980 0.2930 0.2880 0.2860 0.2840
10.513000 0.2760 0.2710 0.2670 0.2640 0.2620
10.547199 0.2600 0.2600 0.2570 0.2530 0.2530
10.582000 0.2520 0.2500 0.2500 0.2520 0.2520
10.616199 0.2520 0.2520 0.2520 0.2520 0.2520
10.650000 0.2520 0.2520 0.2520 0.2520 0.2520
10.684199 0.2530 0.2530 0.2550 0.2550 0.2570
10.718000 0.2590 0.2620 0.2640 0.2650 0.2690
10.752199 0.2710 0.2810 0.3070 0.3170 0.3220
10.787000 0.3370 0.3510 0.3650 0.3770 0.3850
10.821199 0.3960 0.4040 0.4110 0.4200 0.4390
10.855000 0.4450 0.4470 0.4520 0.4560 0.4610
10.889199 0.4630 0.4640 0.4680 0.4690 0.4710
10.924000 0.4730 0.4730 0.4750 0.4750 0.4760
10.958199 0.4760 0.4760 0.4750 0.4730 0.4690
10.992000 0.4680 0.4630 0.4590 0.4560 0.4510
11.026199 0.4440 0.4280 0.4250 0.4210 0.4150
11.060000 0.4010 0.3960 0.3800 0.3730 0.3720
11.094199 0.3680 0.3680 0.3680 0.3670 0.3680
11.129000 0.3680 0.3700 0.3720 0.3730 0.3770
11.163199 0.3790 0.3820 0.3840 0.3870 0.3940
11.197000 0.3970 0.3990 0.4030 0.4040 0.4080
11.231199 0.4110 0.4150 0.4160 0.4200 0.4230
11.265000 0.4270 0.4330 0.4390 0.4420 0.4450
11.299199 0.4470 0.4510 0.4540 0.4570 0.4610
11.334000 0.4630 0.4660 0.4690 0.4730 0.4750
11.368199 0.4760 0.4800 0.4830 0.4870 0.4900
11.402000 0.4930 0.4970 0.4990 0.5000 0.5070
11.436199 0.5110 0.5120 0.5160 0.5180 0.5210
11.470000 0.5230 0.5230 0.5260 0.5280 0.5300
11.504199 0.5300 0.5310 0.5330 0.5330 0.5350
11.539000 0.5350 0.5350 0.5350 0.5350 0.5350
11.573199 0.5330 0.5330 0.5310 0.5310 0.5310
11.607000 0.5300 0.5300 0.5300 0.5280 0.5240
11.641199 0.5230 0.5190 0.5180 0.5140 0.5120
11.676000 0.5110 0.5110 0.5060 0.5040 0.5000
11.710199 0.5000 0.4970 0.4970 0.4930 0.4920
11.744000 0.4900 0.4880 0.4870 0.4850 0.4850
11.778199 0.4830 0.4810 0.4800 0.4760 0.4730
11.812000 0.4730 0.4730 0.4710 0.4690 0.4680
11.846199 0.4660 0.4640 0.4630 0.4610 0.4610
11.881000 0.4610 0.4590 0.4570 0.4540 0.4540
11.915199 0.4520 0.4520 0.4520 0.4520 0.4520
11.949000 0.4510 0.4520 0.4510 0.4510 0.4490
11.983199 0.4490 0.4490 0.4470 0.4490 0.4490
12.017000 0.4470 0.4470 0.4470 0.4470 0.4470
12.051199 0.4470 0.4470 0.4470 0.4470 0.4470
12.086000 0.4470 0.4490 0.4490 0.4490 0.4490
12.120199 0.4510 0.4510 0.4510 0.4510 0.4510
12.154000 0.4510 0.4520 0.4540 0.4540 0.4560
12.188199 0.4560 0.4590 0.4590 0.4590 0.4610
12.222000 0.4610 0.4630 0.4630 0.4630 0.4640
12.256199 0.4660 0.4680 0.4690 0.4710 0.4730
12.291000 0.4750 0.4760 0.4780 0.4800 0.4800
12.325199 0.4810 0.4830 0.4850 0.4870 0.4880
12.359000 0.4900 0.4920 0.4930 0.4930 0.4970
12.393199 0.4990 0.5000 0.5020 0.5020 0.5040
12.428000 0.5060 0.5090 0.5110 0.5120 0.5140
12.462199 0.5160 0.5190 0.5210 0.5230 0.5230
12.496000 0.5260 0.5300 0.5310 0.5330 0.5330
12.530199 0.5350 0.5360 0.5380 0.5400 0.5420
12.564000 0.5420 0.5430 0.5430 0.5450 0.5470
12.598199 0.5480 0.5520 0.5520 0.5540 0.5550
12.633000 0.5590 0.5600 0.5620 0.5620 0.5640
12.667199 0.5660 0.5690 0.5710 0.5710 0.5760
12.701000 0.5780 0.5790 0.5810 0.5830 0.5840
12.735199 0.5860 0.5880 0.5900 0.5910 0.5930
12.769000 0.5960 0.5980 0.6000 0.6020 0.6020
12.803199 0.6030 0.6050 0.6050 0.6070 0.6080
12.838000 0.6100 0.6120 0.6140 0.6150 0.6170
12.872199 0.6200 0.6200 0.6220 0.6240 0.6260
12.906000 0.6270 0.6290 0.6310 0.6310 0.6320
12.940199 0.6340 0.6340 0.6360 0.6380 0.6390
12.975000 0.6390 0.6410 0.6410 0.6440 0.6460
13.009199 0.6460 0.6460 0.6460 0.6480 0.6500
13.043000 0.6510 0.6510 0.6510 0.6510 0.6510
13.077199 0.6530 0.6550 0.6560 0.6580 0.6580
13.111000 0.6600 0.6600 0.6630 0.6630 0.6630
13.145199 0.6650 0.6650 0.6670 0.6680 0.6680
13.180000 0.6700 0.6720 0.6720 0.6720 0.6720
13.214199 0.6740 0.6740 0.6740 0.6750 0.6750
13.248000 0.6750 0.6770 0.6770 0.6770 0.6790
13.282199 0.6790 0.6790 0.6790 0.6800 0.6800
13.316000 0.6800 0.6800 0.6800 0.6820 0.6820
13.350199 0.6820 0.6820 0.6820 0.6820 0.6820
13.385000 0.6820 0.6840 0.6840 0.6840 0.6860
13.419199 0.6860 0.6860 0.6870 0.6870 0.6870
13.453000 0.6870 0.6870 0.6870 0.6890 0.6890
13.487199 0.6890 0.6890 0.6890 0.6910 0.6910
13.521000 0.6910 0.6910 0.6910 0.6910 0.6910
13.555199 0.6910 0.6910 0.6910 0.6910 0.6910
13.590000 0.6910 0.6910 0.6910 0.6910 0.6910
13.624199 0.6910 0.6910 0.6910 0.6910 0.6890
13.658000 0.6910 0.6910 0.6910 0.6910 0.6910
13.692199 0.6890 0.6890 0.6890 0.6890 0.6890
13.727000 0.6890 0.6890 0.6890 0.6890 0.6870
13.761199 0.6870 0.6870 0.6890 0.6870 0.6870
13.795000 0.6860 0.6860 0.6860 0.6870 0.6870
13.829199 0.6890 0.6870 0.6870 0.6870 0.6870
13.863000 0.6890 0.6890 0.6890 0.6890 0.6890
13.897199 0.6890 0.6910 0.6910 0.6910 0.6910
13.932000 0.6920 0.6920 0.6920 0.6920 0.6940
13.966199 0.6960 0.6980 0.6980 0.6990 0.7010
14.000000 0.7010 0.7030 0.7030 0.7010 0.7030
14.034199 0.7030 0.7030 0.7030 0.7030 0.7040
14.068000 0.7040 0.7040 0.7030 0.7040 0.7040
14.102199 0.7040 0.7060 0.7080 0.7080 0.7100
14.137000 0.7100 0.7100 0.7100 0.7100 0.7110
14.171199 0.7110 0.7110 0.7110 0.7110 0.7110
14.205000 0.7130 0.7150 0.7150 0.7150 0.7150
14.239199 0.7150 0.7160 0.7160 0.7160 0.7160
14.273000 0.7160 0.7160 0.7160 0.7160 0.7160
14.307199 0.7150 0.7150 0.7150 0.7150 0.7150
14.342000 0.7150 0.7130 0.7130 0.7130 0.7130
14.376199 0.7130 0.7130 0.7130 0.7110 0.7110
14.410000 0.7110 0.7110 0.7110 0.7110 0.7110
14.444199 0.7110 0.7110 0.7110 0.7110 0.7100
14.479000 0.7100 0.7100 0.7080 0.7080 0.7060
14.513199 0.7040 0.7030 0.7010 0.7010 0.7010
14.547000 0.7010 0.7030 0.7010 0.7010 0.7010
14.581199 0.6990 0.6990 0.6980 0.6980 0.6960
14.615000 0.6960 0.6940 0.6940 0.6940 0.6920
14.649199 0.6920 0.6920 0.6910 0.6910 0.6890
14.684000 0.6890 0.6890 0.6870 0.6870 0.6870
14.718199 0.6870 0.6860 0.6860 0.6860 0.6860
14.752000 0.6840 0.6840 0.6840 0.6820 0.6820
14.786199 0.6820 0.6800 0.6790 0.6790 0.6790
14.820000 0.6790 0.6770 0.6770 0.6750 0.6740
14.854199 0.6740 0.6720 0.6720 0.6700 0.6700
14.889000 0.6680 0.6680 0.6670 0.6670 0.6650
14.923199 0.6650 0.6630 0.6630 0.6630 0.6630
14.957000 0.6620 0.6620 0.6620 0.6600 0.6620
14.991199 0.6620 0.6620 0.6600 0.6600 0.6580
15.025000 0.6580 0.6580 0.6580 0.6580 0.6580
15.059199 0.6560 0.6560 0.6530 0.6530 0.6530
15.094000 0.6530 0.6530 0.6530 0.6510 0.6510
15.128199 0.6530 0.6510 0.6510 0.6510 0.6510
15.162000 0.6500 0.6500 0.6500 0.6480 0.6480
15.196199 0.6480 0.6460 0.6460 0.6460 0.6440
15.231000 0.6460 0.6440 0.6440 0.6430 0.6430
15.265199 0.6410 0.6410 0.6410 0.6410 0.6410
15.299000 0.6410 0.6390 0.6390 0.6390 0.6390
15.333199 0.6380 0.6380 0.6380 0.6380 0.6380
15.367000 0.6380 0.6380 0.6360 0.6360 0.6360
15.401199 0.6340 0.6320 0.6320 0.6320 0.6320
15.436000 0.6320 0.6310 0.6310 0.6310 0.6310
15.470199 0.6310 0.6290 0.6290 0.6290 0.6270
15.504000 0.6270 0.6260 0.6260 0.6240 0.6240
15.538199 0.6240 0.6220 0.6200 0.6200 0.6200
15.572000 0.6200 0.6200 0.6190 0.6190 0.6190
15.606199 0.6170 0.6170 0.6170 0.6170 0.6170
15.641000 0.6150 0.6140 0.6140 0.6140 0.6140
15.675199 0.6140 0.6140 0.6140 0.6140 0.6120
15.709000 0.6120 0.6100 0.6100 0.6100 0.6100
15.743199 0.6080 0.6080 0.6080 0.6080 0.6100
15.778000 0.6080 0.6080 0.6080 0.6070 0.6070
15.812199 0.6070 0.6050 0.6050 0.6050 0.6050
15.846000 0.6030 0.6030 0.6030 0.6030 0.6030
15.880199 0.6020 0.6020 0.6020 0.6020 0.6020
15.914000 0.6020 0.6020 0.6020 0.6020 0.6020
15.948199 0.6020 0.6020 0.6020 0.6020 0.6020
15.983000 0.6020 0.6020 0.6020 0.6020 0.6020
##END=
