##TITLE=Pyrazine, 2-methyl-3-piperidino-, sulfate
##JCAMP-DX=4.24
$$ By DXEDIT 1.05 (RS McDonald)
##DATA TYPE=INFRARED SPECTRUM
##CLASS=COBLENTZ III
##ORIGIN=DOW CHEMICAL COMPANY
##OWNER=COPYRIGHT (C) 1988 by COBLENTZ SOCIETY INC.
Collection (C) 2018 copyright by the U.S. Secretary of Commerce
on behalf of the United States of America. All rights reserved.
##DATE=1963/10/14
##NAMES=sulfuric acid compound with 2-methyl-3-(1-piperidinyl)pyrazine (1:1)
##MOLFORM=C10 H17 N3 O4 S
##SOURCE REFERENCE=COBLENTZ NO. 09993
##$NIST ID=B6009993
##$NIST SOURCE=COBLENTZ
##$NIST IMAGE=cob9993
##SPECTROMETER/DATA SYSTEM=DOW KBr FOREPRISM-GRATING
##INSTRUMENT PARAMETERS=BLAZED AT 3.5, 12.0, 20.0 MICRON AND CHANGED AT 5.0, 7.5, 14.9 MICRON
##STATE=SOLID (SPLIT MULL), FLUOROLUBE FOR 3800-1330 CM^-^1, NUJOL FOR 1330-400 CM^-^1
$$ CLASS II TECHNICAL QUALITY
##SAMPLING PROCEDURE=TRANSMISSION
##RESOLUTION=2
##DATA PROCESSING=DIGITIZED BY COBLENTZ SOCIETY (BATCH I) FROM HARD COPY
##XUNITS=1/CM
##YUNITS=TRANSMITTANCE
##XFACTOR=1
##YFACTOR=1
##DELTAX=1
##FIRSTX=3800
##LASTX=381
##FIRSTY=0.5641
##MAXX=3800
##MINX=381
##MAXY=0.9344
##MINY=0.0382
##NPOINTS=3420
##XYDATA=(X++(Y..Y))
3800.000000 0.5641 0.5641 0.5641 0.5647 0.5654
3795.000000 0.5660 0.5668 0.5674 0.5681 0.5687
3790.000000 0.5694 0.5700 0.5707 0.5712 0.5720
3785.000000 0.5725 0.5730 0.5734 0.5739 0.5743
3780.000000 0.5748 0.5752 0.5757 0.5762 0.5767
3775.000000 0.5771 0.5776 0.5780 0.5785 0.5789
3770.000000 0.5794 0.5793 0.5792 0.5804 0.5807
3765.000000 0.5810 0.5812 0.5815 0.5817 0.5818
3760.000000 0.5819 0.5819 0.5820 0.5820 0.5821
3755.000000 0.5821 0.5821 0.5821 0.5820 0.5817
3750.000000 0.5814 0.5806 0.5798 0.5789 0.5781
3745.000000 0.5774 0.5767 0.5762 0.5760 0.5760
3740.000000 0.5762 0.5762 0.5765 0.5766 0.5768
3735.000000 0.5771 0.5775 0.5779 0.5784 0.5788
3730.000000 0.5792 0.5796 0.5801 0.5805 0.5810
3725.000000 0.5814 0.5819 0.5823 0.5827 0.5831
3720.000000 0.5836 0.5839 0.5843 0.5846 0.5849
3715.000000 0.5852 0.5855 0.5858 0.5860 0.5862
3710.000000 0.5866 0.5869 0.5872 0.5875 0.5878
3705.000000 0.5881 0.5884 0.5887 0.5890 0.5893
3700.000000 0.5896 0.5899 0.5902 0.5905 0.5908
3695.000000 0.5910 0.5912 0.5916 0.5919 0.5922
3690.000000 0.5925 0.5927 0.5930 0.5932 0.5934
3685.000000 0.5936 0.5939 0.5941 0.5943 0.5945
3680.000000 0.5948 0.5950 0.5952 0.5954 0.5957
3675.000000 0.5959 0.5960 0.5962 0.5966 0.5968
3670.000000 0.5970 0.5972 0.5975 0.5977 0.5979
3665.000000 0.5981 0.5983 0.5985 0.5988 0.5990
3660.000000 0.5992 0.5994 0.5997 0.5999 0.6001
3655.000000 0.6003 0.6006 0.6008 0.6010 0.6012
3650.000000 0.6015 0.6017 0.6019 0.6021 0.6024
3645.000000 0.6026 0.6028 0.6030 0.6033 0.6035
3640.000000 0.6037 0.6039 0.6042 0.6044 0.6046
3635.000000 0.6048 0.6050 0.6052 0.6055 0.6057
3630.000000 0.6059 0.6060 0.6064 0.6066 0.6068
3625.000000 0.6070 0.6073 0.6075 0.6077 0.6079
3620.000000 0.6082 0.6084 0.6086 0.6088 0.6090
3615.000000 0.6092 0.6094 0.6096 0.6098 0.6100
3610.000000 0.6102 0.6104 0.6106 0.6107 0.6109
3605.000000 0.6110 0.6112 0.6115 0.6117 0.6119
3600.000000 0.6121 0.6123 0.6125 0.6127 0.6129
3595.000000 0.6131 0.6133 0.6135 0.6137 0.6139
3590.000000 0.6141 0.6142 0.6144 0.6146 0.6148
3585.000000 0.6150 0.6152 0.6154 0.6156 0.6158
3580.000000 0.6160 0.6162 0.6164 0.6166 0.6168
3575.000000 0.6170 0.6172 0.6174 0.6176 0.6178
3570.000000 0.6180 0.6182 0.6184 0.6186 0.6188
3565.000000 0.6190 0.6192 0.6194 0.6196 0.6198
3560.000000 0.6200 0.6202 0.6204 0.6206 0.6208
3555.000000 0.6210 0.6212 0.6214 0.6216 0.6218
3550.000000 0.6220 0.6222 0.6224 0.6226 0.6228
3545.000000 0.6230 0.6232 0.6234 0.6236 0.6238
3540.000000 0.6241 0.6243 0.6245 0.6247 0.6250
3535.000000 0.6252 0.6254 0.6256 0.6258 0.6260
3530.000000 0.6262 0.6264 0.6266 0.6267 0.6268
3525.000000 0.6269 0.6270 0.6271 0.6273 0.6274
3520.000000 0.6275 0.6276 0.6277 0.6278 0.6279
3515.000000 0.6280 0.6281 0.6282 0.6283 0.6284
3510.000000 0.6286 0.6287 0.6288 0.6289 0.6290
3505.000000 0.6291 0.6292 0.6293 0.6294 0.6295
3500.000000 0.6296 0.6297 0.6299 0.6300 0.6301
3495.000000 0.6302 0.6303 0.6304 0.6305 0.6306
3490.000000 0.6307 0.6308 0.6309 0.6310 0.6312
3485.000000 0.6312 0.6314 0.6315 0.6316 0.6317
3480.000000 0.6318 0.6319 0.6320 0.6321 0.6322
3475.000000 0.6323 0.6325 0.6326 0.6327 0.6328
3470.000000 0.6329 0.6330 0.6331 0.6332 0.6333
3465.000000 0.6334 0.6335 0.6336 0.6338 0.6339
3460.000000 0.6340 0.6341 0.6342 0.6343 0.6344
3455.000000 0.6345 0.6346 0.6347 0.6348 0.6349
3450.000000 0.6351 0.6352 0.6353 0.6354 0.6355
3445.000000 0.6356 0.6357 0.6358 0.6360 0.6360
3440.000000 0.6362 0.6364 0.6366 0.6367 0.6369
3435.000000 0.6370 0.6372 0.6373 0.6375 0.6376
3430.000000 0.6378 0.6379 0.6381 0.6382 0.6384
3425.000000 0.6385 0.6386 0.6387 0.6388 0.6389
3420.000000 0.6391 0.6392 0.6393 0.6394 0.6395
3415.000000 0.6396 0.6398 0.6399 0.6400 0.6401
3410.000000 0.6401 0.6403 0.6404 0.6405 0.6407
3405.000000 0.6408 0.6408 0.6410 0.6411 0.6411
3400.000000 0.6412 0.6414 0.6415 0.6415 0.6417
3395.000000 0.6418 0.6418 0.6419 0.6421 0.6421
3390.000000 0.6422 0.6424 0.6425 0.6425 0.6426
3385.000000 0.6428 0.6430 0.6431 0.6432 0.6433
3380.000000 0.6435 0.6436 0.6437 0.6438 0.6440
3375.000000 0.6441 0.6442 0.6443 0.6445 0.6446
3370.000000 0.6448 0.6449 0.6450 0.6451 0.6451
3365.000000 0.6453 0.6454 0.6454 0.6455 0.6456
3360.000000 0.6457 0.6457 0.6458 0.6458 0.6460
3355.000000 0.6460 0.6461 0.6461 0.6462 0.6462
3350.000000 0.6464 0.6465 0.6465 0.6465 0.6467
3345.000000 0.6467 0.6468 0.6468 0.6469 0.6469
3340.000000 0.6471 0.6471 0.6471 0.6472 0.6474
3335.000000 0.6474 0.6475 0.6475 0.6475 0.6475
3330.000000 0.6476 0.6476 0.6478 0.6478 0.6480
3325.000000 0.6480 0.6478 0.6478 0.6478 0.6475
3320.000000 0.6475 0.6472 0.6471 0.6469 0.6468
3315.000000 0.6467 0.6465 0.6464 0.6461 0.6458
3310.000000 0.6456 0.6453 0.6450 0.6447 0.6444
3305.000000 0.6438 0.6433 0.6426 0.6421 0.6415
3300.000000 0.6408 0.6403 0.6398 0.6393 0.6388
3295.000000 0.6383 0.6378 0.6373 0.6368 0.6362
3290.000000 0.6359 0.6354 0.6349 0.6344 0.6339
3285.000000 0.6334 0.6330 0.6326 0.6323 0.6319
3280.000000 0.6316 0.6312 0.6310 0.6306 0.6303
3275.000000 0.6299 0.6296 0.6292 0.6289 0.6288
3270.000000 0.6288 0.6287 0.6287 0.6286 0.6286
3265.000000 0.6285 0.6285 0.6284 0.6284 0.6283
3260.000000 0.6283 0.6283 0.6284 0.6284 0.6284
3255.000000 0.6284 0.6284 0.6284 0.6285 0.6285
3250.000000 0.6285 0.6282 0.6280 0.6277 0.6274
3245.000000 0.6271 0.6268 0.6265 0.6262 0.6259
3240.000000 0.6256 0.6250 0.6245 0.6240 0.6235
3235.000000 0.6230 0.6225 0.6214 0.6204 0.6192
3230.000000 0.6180 0.6168 0.6157 0.6145 0.6133
3225.000000 0.6121 0.6109 0.6097 0.6085 0.6074
3220.000000 0.6062 0.6055 0.6048 0.6040 0.6033
3215.000000 0.6025 0.6018 0.6010 0.6002 0.5994
3210.000000 0.5987 0.5979 0.5972 0.5965 0.5958
3205.000000 0.5951 0.5945 0.5938 0.5931 0.5924
3200.000000 0.5917 0.5910 0.5903 0.5897 0.5891
3195.000000 0.5885 0.5879 0.5873 0.5867 0.5860
3190.000000 0.5855 0.5849 0.5843 0.5835 0.5828
3185.000000 0.5818 0.5808 0.5797 0.5787 0.5776
3180.000000 0.5766 0.5750 0.5734 0.5717 0.5701
3175.000000 0.5684 0.5668 0.5650 0.5632 0.5609
3170.000000 0.5587 0.5565 0.5543 0.5520 0.5497
3165.000000 0.5468 0.5440 0.5410 0.5383 0.5349
3160.000000 0.5315 0.5269 0.5223 0.5168 0.5114
3155.000000 0.5055 0.4996 0.4981 0.4967 0.4952
3150.000000 0.4937 0.4922 0.4907 0.4889 0.4872
3145.000000 0.4851 0.4831 0.4804 0.4777 0.4748
3140.000000 0.4720 0.4686 0.4653 0.4591 0.4529
3135.000000 0.4458 0.4388 0.4317 0.4247 0.4176
3130.000000 0.4106 0.4036 0.3966 0.3921 0.3877
3125.000000 0.3866 0.3852 0.3848 0.3841 0.3840
3120.000000 0.3840 0.3854 0.3868 0.3888 0.3908
3115.000000 0.3930 0.3954 0.3977 0.4000 0.4025
3110.000000 0.4050 0.4076 0.4103 0.4135 0.4167
3105.000000 0.4185 0.4203 0.4215 0.4228 0.4235
3100.000000 0.4243 0.4244 0.4245 0.4246 0.4248
3095.000000 0.4249 0.4249 0.4249 0.4270 0.4243
3090.000000 0.4238 0.4233 0.4228 0.4222 0.4217
3085.000000 0.4210 0.4204 0.4196 0.4188 0.4180
3080.000000 0.4172 0.4164 0.4157 0.4149 0.4141
3075.000000 0.4133 0.4125 0.4117 0.4110 0.4102
3070.000000 0.4094 0.4086 0.4079 0.4071 0.4064
3065.000000 0.4056 0.4049 0.4041 0.4034 0.4026
3060.000000 0.4018 0.4009 0.4003 0.3996 0.3989
3055.000000 0.3982 0.3976 0.3968 0.3962 0.3955
3050.000000 0.3949 0.3942 0.3934 0.3928 0.3922
3045.000000 0.3914 0.3909 0.3902 0.3896 0.3890
3040.000000 0.3884 0.3877 0.3871 0.3864 0.3858
3035.000000 0.3852 0.3846 0.3839 0.3832 0.3827
3030.000000 0.3821 0.3814 0.3808 0.3800 0.3794
3025.000000 0.3787 0.3780 0.3774 0.3768 0.3760
3020.000000 0.3755 0.3745 0.3736 0.3724 0.3712
3015.000000 0.3691 0.3668 0.3632 0.3597 0.3566
3010.000000 0.3536 0.3512 0.3489 0.3466 0.3443
3005.000000 0.3423 0.3403 0.3395 0.3387 0.3387
3000.000000 0.3388 0.3390 0.3393 0.3398 0.3403
2995.000000 0.3408 0.3412 0.3416 0.3420 0.3422
2990.000000 0.3425 0.3427 0.3430 0.3430 0.3432
2985.000000 0.3432 0.3434 0.3434 0.3434 0.3432
2980.000000 0.3430 0.3428 0.3426 0.3423 0.3421
2975.000000 0.3414 0.3408 0.3400 0.3394 0.3386
2970.000000 0.3379 0.3370 0.3362 0.3347 0.3332
2965.000000 0.3300 0.3271 0.3237 0.3204 0.3168
2960.000000 0.3132 0.3057 0.2983 0.2890 0.2797
2955.000000 0.2704 0.2612 0.2519 0.2426 0.2333
2950.000000 0.2241 0.2154 0.2068 0.2064 0.2060
2945.000000 0.2060 0.2061 0.2066 0.2071 0.2083
2940.000000 0.2095 0.2110 0.2126 0.2165 0.2204
2935.000000 0.2213 0.2223 0.2226 0.2229 0.2222
2930.000000 0.2215 0.2200 0.2184 0.2069 0.1954
2925.000000 0.1837 0.1719 0.1718 0.1717 0.1726
2920.000000 0.1734 0.1764 0.1794 0.1898 0.2002
2915.000000 0.2055 0.2109 0.2156 0.2203 0.2251
2910.000000 0.2299 0.2349 0.2399 0.2439 0.2480
2905.000000 0.2518 0.2557 0.2584 0.2613 0.2634
2900.000000 0.2658 0.2675 0.2693 0.2706 0.2720
2895.000000 0.2730 0.2741 0.2750 0.2759 0.2767
2890.000000 0.2775 0.2782 0.2789 0.2794 0.2799
2885.000000 0.2803 0.2808 0.2813 0.2819 0.2824
2880.000000 0.2830 0.2835 0.2842 0.2846 0.2851
2875.000000 0.2855 0.2894 0.2865 0.2871 0.2872
2870.000000 0.2873 0.2866 0.2859 0.2823 0.2787
2865.000000 0.2711 0.2634 0.2559 0.2484 0.2408
2860.000000 0.2333 0.2310 0.2288 0.2285 0.2284
2855.000000 0.2290 0.2296 0.2341 0.2387 0.2461
2850.000000 0.2534 0.2609 0.2683 0.2757 0.2831
2845.000000 0.2884 0.2940 0.2962 0.2984 0.2996
2840.000000 0.3008 0.3018 0.3029 0.3039 0.3050
2835.000000 0.3061 0.3072 0.3082 0.3093 0.3102
2830.000000 0.3111 0.3119 0.3128 0.3135 0.3145
2825.000000 0.3153 0.3161 0.3169 0.3178 0.3185
2820.000000 0.3195 0.3200 0.3208 0.3212 0.3218
2815.000000 0.3224 0.3230 0.3236 0.3242 0.3247
2810.000000 0.3253 0.3258 0.3264 0.3270 0.3276
2805.000000 0.3280 0.3287 0.3292 0.3298 0.3303
2800.000000 0.3309 0.3312 0.3318 0.3322 0.3327
2795.000000 0.3332 0.3337 0.3341 0.3346 0.3350
2790.000000 0.3355 0.3359 0.3364 0.3368 0.3373
2785.000000 0.3377 0.3382 0.3386 0.3390 0.3393
2780.000000 0.3397 0.3400 0.3405 0.3409 0.3412
2775.000000 0.3416 0.3420 0.3424 0.3428 0.3430
2770.000000 0.3434 0.3439 0.3443 0.3446 0.3450
2765.000000 0.3454 0.3459 0.3462 0.3466 0.3471
2760.000000 0.3476 0.3480 0.3484 0.3489 0.3494
2755.000000 0.3498 0.3503 0.3507 0.3512 0.3516
2750.000000 0.3521 0.3525 0.3530 0.3534 0.3538
2745.000000 0.3542 0.3547 0.3550 0.3555 0.3559
2740.000000 0.3564 0.3564 0.3564 0.3564 0.3564
2735.000000 0.3564 0.3564 0.3562 0.3562 0.3562
2730.000000 0.3562 0.3560 0.3560 0.3559 0.3559
2725.000000 0.3558 0.3557 0.3556 0.3556 0.3555
2720.000000 0.3554 0.3554 0.3554 0.3554 0.3554
2715.000000 0.3554 0.3554 0.3554 0.3554 0.3554
2710.000000 0.3555 0.3555 0.3555 0.3555 0.3555
2705.000000 0.3557 0.3559 0.3562 0.3564 0.3566
2700.000000 0.3570 0.3573 0.3576 0.3578 0.3580
2695.000000 0.3584 0.3587 0.3589 0.3593 0.3594
2690.000000 0.3596 0.3598 0.3600 0.3603 0.3605
2685.000000 0.3607 0.3609 0.3610 0.3612 0.3614
2680.000000 0.3618 0.3620 0.3622 0.3623 0.3624
2675.000000 0.3625 0.3626 0.3626 0.3627 0.3628
2670.000000 0.3628 0.3628 0.3627 0.3626 0.3625
2665.000000 0.3621 0.3616 0.3610 0.3606 0.3600
2660.000000 0.3595 0.3589 0.3584 0.3578 0.3572
2655.000000 0.3566 0.3559 0.3555 0.3550 0.3546
2650.000000 0.3542 0.3538 0.3534 0.3530 0.3526
2645.000000 0.3522 0.3518 0.3514 0.3512 0.3509
2640.000000 0.3507 0.3504 0.3500 0.3498 0.3495
2635.000000 0.3492 0.3490 0.3487 0.3484 0.3480
2630.000000 0.3478 0.3475 0.3473 0.3470 0.3466
2625.000000 0.3464 0.3460 0.3457 0.3453 0.3449
2620.000000 0.3446 0.3442 0.3439 0.3434 0.3430
2615.000000 0.3427 0.3424 0.3420 0.3416 0.3412
2610.000000 0.3409 0.3405 0.3402 0.3398 0.3395
2605.000000 0.3391 0.3388 0.3384 0.3382 0.3378
2600.000000 0.3375 0.3372 0.3368 0.3364 0.3362
2595.000000 0.3358 0.3355 0.3353 0.3350 0.3350
2590.000000 0.3349 0.3348 0.3347 0.3346 0.3346
2585.000000 0.3345 0.3344 0.3343 0.3342 0.3341
2580.000000 0.3340 0.3339 0.3339 0.3340 0.3341
2575.000000 0.3341 0.3342 0.3342 0.3343 0.3343
2570.000000 0.3344 0.3344 0.3345 0.3345 0.3346
2565.000000 0.3346 0.3347 0.3347 0.3348 0.3348
2560.000000 0.3349 0.3349 0.3350 0.3350 0.3350
2555.000000 0.3350 0.3352 0.3352 0.3353 0.3353
2550.000000 0.3353 0.3354 0.3355 0.3355 0.3355
2545.000000 0.3355 0.3355 0.3355 0.3355 0.3355
2540.000000 0.3355 0.3355 0.3356 0.3356 0.3356
2535.000000 0.3356 0.3356 0.3356 0.3356 0.3356
2530.000000 0.3357 0.3358 0.3359 0.3359 0.3362
2525.000000 0.3362 0.3364 0.3364 0.3366 0.3366
2520.000000 0.3368 0.3372 0.3376 0.3380 0.3384
2515.000000 0.3388 0.3392 0.3397 0.3403 0.3409
2510.000000 0.3414 0.3421 0.3427 0.3432 0.3439
2505.000000 0.3445 0.3450 0.3457 0.3462 0.3468
2500.000000 0.3475 0.3482 0.3490 0.3497 0.3505
2495.000000 0.3512 0.3521 0.3529 0.3537 0.3544
2490.000000 0.3552 0.3559 0.3568 0.3575 0.3582
2485.000000 0.3591 0.3600 0.3610 0.3622 0.3632
2480.000000 0.3644 0.3655 0.3666 0.3677 0.3688
2475.000000 0.3699 0.3709 0.3722 0.3734 0.3750
2470.000000 0.3768 0.3784 0.3802 0.3818 0.3836
2465.000000 0.3853 0.3871 0.3888 0.3905 0.3920
2460.000000 0.3934 0.3949 0.3964 0.3979 0.3994
2455.000000 0.4009 0.4024 0.4039 0.4054 0.4068
2450.000000 0.4084 0.4099 0.4114 0.4129 0.4144
2445.000000 0.4159 0.4174 0.4189 0.4204 0.4219
2440.000000 0.4234 0.4249 0.4264 0.4279 0.4294
2435.000000 0.4309 0.4324 0.4339 0.4354 0.4369
2430.000000 0.4384 0.4399 0.4414 0.4429 0.4445
2425.000000 0.4460 0.4475 0.4490 0.4505 0.4520
2420.000000 0.4535 0.4550 0.4565 0.4580 0.4595
2415.000000 0.4610 0.4625 0.4640 0.4655 0.4670
2410.000000 0.4685 0.4701 0.4717 0.4733 0.4750
2405.000000 0.4766 0.4783 0.4799 0.4816 0.4832
2400.000000 0.4849 0.4865 0.4882 0.4898 0.4915
2395.000000 0.4931 0.4948 0.4964 0.4980 0.4996
2390.000000 0.5012 0.5029 0.5045 0.5060 0.5078
2385.000000 0.5094 0.5110 0.5126 0.5142 0.5155
2380.000000 0.5169 0.5182 0.5196 0.5209 0.5223
2375.000000 0.5236 0.5250 0.5262 0.5277 0.5290
2370.000000 0.5304 0.5317 0.5331 0.5344 0.5358
2365.000000 0.5371 0.5384 0.5397 0.5410 0.5423
2360.000000 0.5436 0.5449 0.5462 0.5475 0.5488
2355.000000 0.5501 0.5514 0.5527 0.5541 0.5554
2350.000000 0.5568 0.5581 0.5595 0.5609 0.5623
2345.000000 0.5636 0.5650 0.5662 0.5677 0.5691
2340.000000 0.5706 0.5720 0.5735 0.5749 0.5764
2335.000000 0.5778 0.5793 0.5808 0.5823 0.5837
2330.000000 0.5851 0.5864 0.5877 0.5889 0.5902
2325.000000 0.5915 0.5928 0.5941 0.5954 0.5966
2320.000000 0.5979 0.5992 0.6005 0.6018 0.6031
2315.000000 0.6042 0.6054 0.6064 0.6075 0.6086
2310.000000 0.6097 0.6108 0.6119 0.6130 0.6141
2305.000000 0.6151 0.6162 0.6173 0.6184 0.6195
2300.000000 0.6206 0.6216 0.6227 0.6238 0.6249
2295.000000 0.6259 0.6269 0.6279 0.6290 0.6300
2290.000000 0.6310 0.6317 0.6324 0.6329 0.6334
2285.000000 0.6338 0.6343 0.6348 0.6353 0.6357
2280.000000 0.6360 0.6364 0.6367 0.6372 0.6377
2275.000000 0.6382 0.6387 0.6392 0.6397 0.6401
2270.000000 0.6407 0.6411 0.6417 0.6421 0.6426
2265.000000 0.6432 0.6437 0.6442 0.6447 0.6451
2260.000000 0.6457 0.6461 0.6467 0.6471 0.6476
2255.000000 0.6482 0.6487 0.6493 0.6499 0.6505
2250.000000 0.6511 0.6517 0.6524 0.6530 0.6536
2245.000000 0.6542 0.6549 0.6555 0.6561 0.6567
2240.000000 0.6572 0.6578 0.6586 0.6592 0.6598
2235.000000 0.6604 0.6610 0.6615 0.6622 0.6628
2230.000000 0.6635 0.6641 0.6648 0.6653 0.6658
2225.000000 0.6664 0.6669 0.6675 0.6680 0.6685
2220.000000 0.6690 0.6695 0.6701 0.6706 0.6711
2215.000000 0.6714 0.6718 0.6721 0.6725 0.6730
2210.000000 0.6734 0.6738 0.6742 0.6746 0.6750
2205.000000 0.6753 0.6757 0.6761 0.6765 0.6765
2200.000000 0.6771 0.6771 0.6771 0.6774 0.6775
2195.000000 0.6778 0.6780 0.6780 0.6780 0.6780
2190.000000 0.6780 0.6778 0.6778 0.6776 0.6775
2185.000000 0.6771 0.6769 0.6768 0.6765 0.6762
2180.000000 0.6761 0.6756 0.6751 0.6746 0.6740
2175.000000 0.6733 0.6726 0.6718 0.6710 0.6701
2170.000000 0.6692 0.6682 0.6672 0.6662 0.6654
2165.000000 0.6644 0.6634 0.6625 0.6617 0.6608
2160.000000 0.6600 0.6591 0.6583 0.6575 0.6567
2155.000000 0.6555 0.6543 0.6530 0.6518 0.6507
2150.000000 0.6496 0.6485 0.6474 0.6464 0.6455
2145.000000 0.6446 0.6437 0.6430 0.6422 0.6418
2140.000000 0.6414 0.6414 0.6414 0.6415 0.6415
2135.000000 0.6417 0.6418 0.6421 0.6422 0.6425
2130.000000 0.6428 0.6430 0.6432 0.6443 0.6455
2125.000000 0.6475 0.6497 0.6519 0.6544 0.6565
2120.000000 0.6589 0.6611 0.6634 0.6654 0.6674
2115.000000 0.6692 0.6710 0.6728 0.6747 0.6765
2110.000000 0.6783 0.6804 0.6825 0.6844 0.6864
2105.000000 0.6878 0.6892 0.6905 0.6918 0.6921
2100.000000 0.6925 0.6926 0.6926 0.6928 0.6928
2095.000000 0.6921 0.6915 0.6905 0.6895 0.6878
2090.000000 0.6862 0.6847 0.6831 0.6821 0.6812
2085.000000 0.6804 0.6795 0.6787 0.6778 0.6771
2080.000000 0.6765 0.6764 0.6762 0.6761 0.6761
2075.000000 0.6761 0.6761 0.6761 0.6758 0.6768
2070.000000 0.6775 0.6781 0.6787 0.6801 0.6817
2065.000000 0.6833 0.6849 0.6869 0.6892 0.6915
2060.000000 0.6941 0.6961 0.6981 0.6998 0.7015
2055.000000 0.7031 0.7048 0.7062 0.7078 0.7101
2050.000000 0.7125 0.7158 0.7192 0.7225 0.7258
2045.000000 0.7291 0.7325 0.7358 0.7392 0.7425
2040.000000 0.7458 0.7492 0.7525 0.7558 0.7592
2035.000000 0.7625 0.7658 0.7692 0.7725 0.7758
2030.000000 0.7793 0.7817 0.7841 0.7846 0.7851
2025.000000 0.7858 0.7864 0.7869 0.7875 0.7881
2020.000000 0.7887 0.7892 0.7898 0.7903 0.7908
2015.000000 0.7914 0.7919 0.7925 0.7931 0.7936
2010.000000 0.7942 0.7949 0.7957 0.7964 0.7971
2005.000000 0.7978 0.7985 0.7998 0.8011 0.8039
2000.000000 0.8065 0.8091 0.8115 0.8132 0.8145
1995.000000 0.8158 0.8161 0.8162 0.8165 0.8168
1990.000000 0.8158 0.8149 0.8139 0.8130 0.8119
1985.000000 0.8106 0.8091 0.8076 0.8061 0.8051
1980.000000 0.8045 0.8039 0.8033 0.8034 0.8036
1975.000000 0.8038 0.8040 0.8042 0.8045 0.8051
1970.000000 0.8057 0.8062 0.8068 0.8075 0.8081
1965.000000 0.8087 0.8093 0.8101 0.8111 0.8134
1960.000000 0.8174 0.8240 0.8302 0.8303 0.8293
1955.000000 0.8283 0.8271 0.8264 0.8261 0.8258
1950.000000 0.8255 0.8252 0.8249 0.8246 0.8244
1945.000000 0.8242 0.8241 0.8240 0.8239 0.8238
1940.000000 0.8237 0.8236 0.8235 0.8234 0.8233
1935.000000 0.8232 0.8231 0.8228 0.8228 0.8225
1930.000000 0.8225 0.8223 0.8221 0.8218 0.8216
1925.000000 0.8214 0.8211 0.8208 0.8206 0.8203
1920.000000 0.8201 0.8199 0.8196 0.8194 0.8192
1915.000000 0.8192 0.8192 0.8197 0.8201 0.8206
1910.000000 0.8211 0.8216 0.8225 0.8233 0.8241
1905.000000 0.8249 0.8258 0.8266 0.8274 0.8278
1900.000000 0.8284 0.8291 0.8298 0.8305 0.8312
1895.000000 0.8320 0.8327 0.8334 0.8341 0.8348
1890.000000 0.8355 0.8362 0.8368 0.8375 0.8383
1885.000000 0.8390 0.8397 0.8404 0.8411 0.8418
1880.000000 0.8425 0.8432 0.8439 0.8446 0.8453
1875.000000 0.8461 0.8468 0.8475 0.8482 0.8489
1870.000000 0.8496 0.8503 0.8510 0.8517 0.8524
1865.000000 0.8531 0.8538 0.8545 0.8552 0.8559
1860.000000 0.8566 0.8573 0.8580 0.8587 0.8594
1855.000000 0.8601 0.8609 0.8616 0.8623 0.8630
1850.000000 0.8637 0.8644 0.8651 0.8660 0.8668
1845.000000 0.8678 0.8688 0.8697 0.8706 0.8715
1840.000000 0.8721 0.8725 0.8731 0.8735 0.8740
1835.000000 0.8745 0.8750 0.8754 0.8759 0.8762
1830.000000 0.8764 0.8765 0.8766 0.8767 0.8768
1825.000000 0.8770 0.8771 0.8771 0.8774 0.8775
1820.000000 0.8775 0.8778 0.8778 0.8778 0.8778
1815.000000 0.8780 0.8780 0.8780 0.8781 0.8781
1810.000000 0.8781 0.8782 0.8782 0.8782 0.8781
1805.000000 0.8781 0.8780 0.8778 0.8778 0.8778
1800.000000 0.8777 0.8775 0.8775 0.8775 0.8775
1795.000000 0.8774 0.8774 0.8774 0.8774 0.8774
1790.000000 0.8775 0.8775 0.8777 0.8778 0.8780
1785.000000 0.8781 0.8782 0.8783 0.8784 0.8785
1780.000000 0.8787 0.8788 0.8789 0.8790 0.8791
1775.000000 0.8792 0.8793 0.8795 0.8796 0.8799
1770.000000 0.8802 0.8805 0.8808 0.8811 0.8814
1765.000000 0.8817 0.8821 0.8825 0.8828 0.8833
1760.000000 0.8837 0.8842 0.8845 0.8846 0.8846
1755.000000 0.8846 0.8847 0.8847 0.8846 0.8844
1750.000000 0.8843 0.8838 0.8830 0.8825 0.8823
1745.000000 0.8821 0.8818 0.8818 0.8820 0.8821
1740.000000 0.8823 0.8824 0.8825 0.8825 0.8825
1735.000000 0.8825 0.8825 0.8825 0.8823 0.8820
1730.000000 0.8811 0.8805 0.8806 0.8813 0.8821
1725.000000 0.8827 0.8831 0.8835 0.8839 0.8842
1720.000000 0.8844 0.8846 0.8848 0.8851 0.8845
1715.000000 0.8832 0.8818 0.8809 0.8803 0.8799
1710.000000 0.8799 0.8799 0.8802 0.8805 0.8810
1705.000000 0.8815 0.8820 0.8825 0.8828 0.8832
1700.000000 0.8835 0.8823 0.8807 0.8795 0.8787
1695.000000 0.8786 0.8786 0.8789 0.8803 0.8816
1690.000000 0.8833 0.8850 0.8882 0.8868 0.8873
1685.000000 0.8871 0.8861 0.8840 0.8816 0.8805
1680.000000 0.8803 0.8803 0.8817 0.8832 0.8841
1675.000000 0.8851 0.8860 0.8867 0.8868 0.8871
1670.000000 0.8873 0.8875 0.8875 0.8878 0.8878
1665.000000 0.8878 0.8878 0.8877 0.8874 0.8871
1660.000000 0.8866 0.8853 0.8845 0.8836 0.8818
1655.000000 0.8789 0.8749 0.8694 0.8647 0.8604
1650.000000 0.8554 0.8552 0.8547 0.8540 0.8518
1645.000000 0.8398 0.8327 0.8284 0.8243 0.8201
1640.000000 0.8160 0.8118 0.8083 0.8049 0.8018
1635.000000 0.7994 0.7997 0.8015 0.8061 0.8105
1630.000000 0.8140 0.8174 0.8207 0.8241 0.8275
1625.000000 0.8314 0.8354 0.8393 0.8431 0.8468
1620.000000 0.8507 0.8546 0.8582 0.8616 0.8614
1615.000000 0.8612 0.8625 0.8646 0.8666 0.8686
1610.000000 0.8706 0.8720 0.8730 0.8737 0.8733
1605.000000 0.8731 0.8728 0.8725 0.8701 0.8674
1600.000000 0.8646 0.8610 0.8555 0.8500 0.8425
1595.000000 0.8331 0.8236 0.8135 0.8018 0.7904
1590.000000 0.7791 0.7676 0.7214 0.6699 0.6183
1585.000000 0.5668 0.5153 0.4637 0.4122 0.3782
1580.000000 0.3727 0.3726 0.3725 0.3753 0.3858
1575.000000 0.4160 0.4462 0.4762 0.5062 0.5362
1570.000000 0.5662 0.5964 0.6264 0.6395 0.6471
1565.000000 0.6535 0.6684 0.6864 0.7045 0.7225
1560.000000 0.7405 0.7439 0.7499 0.7621 0.7851
1555.000000 0.7890 0.7915 0.7933 0.7940 0.7945
1550.000000 0.7949 0.7947 0.7945 0.7930 0.7912
1545.000000 0.7849 0.7768 0.7675 0.7518 0.7355
1540.000000 0.7237 0.7118 0.6990 0.6858 0.6391
1535.000000 0.6210 0.6030 0.5869 0.5710 0.5532
1530.000000 0.5342 0.4984 0.4644 0.4425 0.3975
1525.000000 0.3524 0.3073 0.2622 0.2171 0.1720
1520.000000 0.1269 0.0842 0.0678 0.0575 0.0512
1515.000000 0.0473 0.0439 0.0412 0.0393 0.0382
1510.000000 0.0403 0.0396 0.0430 0.0473 0.0517
1505.000000 0.0653 0.0857 0.1346 0.1803 0.2020
1500.000000 0.2329 0.2591 0.2853 0.3114 0.3376
1495.000000 0.3637 0.3899 0.4160 0.4422 0.4684
1490.000000 0.4945 0.5207 0.5468 0.5635 0.5714
1485.000000 0.5793 0.5872 0.5975 0.6086 0.6210
1480.000000 0.6326 0.6388 0.6438 0.6464 0.6474
1475.000000 0.6480 0.6478 0.6478 0.6474 0.6461
1470.000000 0.6438 0.6415 0.6382 0.6335 0.6288
1465.000000 0.6185 0.6065 0.5910 0.5751 0.5596
1460.000000 0.5349 0.5141 0.5022 0.4770 0.4576
1455.000000 0.4432 0.4368 0.4336 0.4298 0.4258
1450.000000 0.4212 0.4097 0.3845 0.3593 0.3341
1445.000000 0.3046 0.3046 0.3099 0.3196 0.3293
1440.000000 0.3390 0.3436 0.3424 0.3428 0.3282
1435.000000 0.3138 0.2993 0.2848 0.2703 0.2581
1430.000000 0.2595 0.2621 0.2845 0.3250 0.3656
1425.000000 0.4062 0.4468 0.4873 0.5262 0.5517
1420.000000 0.5710 0.5886 0.6059 0.6285 0.6415
1415.000000 0.6491 0.6565 0.6632 0.6698 0.6757
1410.000000 0.6811 0.6868 0.6925 0.6986 0.7047
1405.000000 0.7108 0.7169 0.7226 0.7268 0.7311
1400.000000 0.7353 0.7390 0.7415 0.7430 0.7431
1395.000000 0.7431 0.7444 0.7439 0.7435 0.7419
1390.000000 0.7395 0.7283 0.7054 0.6717 0.6379
1385.000000 0.6040 0.5701 0.5362 0.5023 0.4684
1380.000000 0.4609 0.4770 0.5070 0.5370 0.5670
1375.000000 0.5970 0.6164 0.6175 0.6191 0.6171
1370.000000 0.6157 0.5904 0.5624 0.5344 0.5064
1365.000000 0.4998 0.4986 0.5168 0.5373 0.5579
1360.000000 0.5784 0.5989 0.6195 0.6240 0.6260
1355.000000 0.6266 0.6272 0.6250 0.6214 0.6125
1350.000000 0.6023 0.5919 0.5810 0.5698 0.5604
1345.000000 0.5524 0.5437 0.5344 0.5169 0.4974
1340.000000 0.4779 0.4583 0.4388 0.4192 0.4100
1335.000000 0.4082 0.4073 0.4077 0.4099 0.4144
1330.000000 0.4234 0.4332 0.4473 0.4705 0.4810
1325.000000 0.4844 0.4852 0.4862 0.4838 0.4827
1320.000000 0.4803 0.4766 0.4730 0.4689 0.4638
1315.000000 0.4587 0.4537 0.4489 0.4444 0.4400
1310.000000 0.4355 0.4310 0.4259 0.4202 0.4146
1305.000000 0.4089 0.4041 0.3993 0.3945 0.3902
1300.000000 0.3864 0.3837 0.3814 0.3800 0.3784
1295.000000 0.3782 0.3782 0.3782 0.3782 0.3786
1290.000000 0.3789 0.3791 0.3791 0.3791 0.3788
1285.000000 0.3779 0.3757 0.3722 0.3690 0.3678
1280.000000 0.3672 0.3674 0.3676 0.3676 0.3676
1275.000000 0.3674 0.3657 0.3618 0.3553 0.3486
1270.000000 0.3409 0.3237 0.3089 0.2940 0.2792
1265.000000 0.2664 0.2628 0.2640 0.2715 0.2834
1260.000000 0.2953 0.3072 0.3123 0.3102 0.3011
1255.000000 0.2842 0.2638 0.2501 0.2359 0.2342
1250.000000 0.2342 0.2343 0.2345 0.2339 0.2330
1245.000000 0.2320 0.2292 0.2264 0.2087 0.1996
1240.000000 0.1907 0.1816 0.1726 0.1635 0.1546
1235.000000 0.1456 0.1365 0.1275 0.1185 0.1118
1230.000000 0.1079 0.1035 0.0980 0.0922 0.0850
1225.000000 0.0790 0.0738 0.0690 0.0657 0.0648
1220.000000 0.0663 0.0706 0.0824 0.0975 0.1125
1215.000000 0.1276 0.1426 0.1577 0.1727 0.1878
1210.000000 0.2028 0.2123 0.2115 0.2116 0.2097
1205.000000 0.2044 0.1865 0.1737 0.1686 0.1668
1200.000000 0.1669 0.1670 0.1689 0.1710 0.1731
1195.000000 0.1752 0.1765 0.1777 0.1783 0.1790
1190.000000 0.1794 0.1799 0.1779 0.1721 0.1624
1185.000000 0.1516 0.1428 0.1339 0.1250 0.1166
1180.000000 0.1094 0.1022 0.0996 0.0969 0.0942
1175.000000 0.0915 0.0892 0.0876 0.0858 0.0845
1170.000000 0.0836 0.0826 0.0822 0.0822 0.0819
1165.000000 0.0819 0.0826 0.0842 0.0874 0.0917
1160.000000 0.0961 0.1005 0.1060 0.1125 0.1191
1155.000000 0.1258 0.1335 0.1413 0.1550 0.1813
1150.000000 0.2021 0.2162 0.2262 0.2362 0.2461
1145.000000 0.2558 0.2656 0.2761 0.2871 0.2981
1140.000000 0.3139 0.3349 0.3639 0.3774 0.3864
1135.000000 0.3950 0.4029 0.4108 0.4187 0.4266
1130.000000 0.4345 0.4424 0.4503 0.4582 0.4660
1125.000000 0.4740 0.4819 0.4898 0.4977 0.5056
1120.000000 0.5122 0.5153 0.5165 0.5173 0.5174
1115.000000 0.5175 0.5152 0.5096 0.5042 0.4989
1110.000000 0.4910 0.4773 0.4659 0.4695 0.4729
1105.000000 0.4785 0.4852 0.4933 0.5037 0.5203
1100.000000 0.5320 0.5432 0.5459 0.5462 0.5467
1095.000000 0.5450 0.5423 0.5388 0.5354 0.5319
1090.000000 0.5264 0.5196 0.5128 0.5065 0.5002
1085.000000 0.4942 0.4882 0.4816 0.4754 0.4686
1080.000000 0.4634 0.4607 0.4612 0.4643 0.4675
1075.000000 0.4707 0.4734 0.4756 0.4765 0.4768
1070.000000 0.4762 0.4747 0.4725 0.4695 0.4641
1065.000000 0.4552 0.4460 0.4370 0.4279 0.4189
1060.000000 0.4133 0.4136 0.4205 0.4274 0.4342
1055.000000 0.4397 0.4385 0.4360 0.4322 0.4265
1050.000000 0.4050 0.3616 0.3184 0.2752 0.2418
1045.000000 0.2239 0.2059 0.1879 0.1701 0.1522
1040.000000 0.1342 0.1163 0.1098 0.1087 0.1069
1035.000000 0.1066 0.1092 0.1159 0.1240 0.1329
1030.000000 0.1554 0.1958 0.2409 0.2861 0.3312
1025.000000 0.3882 0.4006 0.4095 0.4175 0.4247
1020.000000 0.4265 0.4291 0.4288 0.4286 0.4277
1015.000000 0.4250 0.4184 0.4124 0.4124 0.4139
1010.000000 0.4143 0.4146 0.4147 0.4142 0.4136
1005.000000 0.4123 0.4098 0.4073 0.4034 0.3996
1000.000000 0.3888 0.3582 0.3538 0.3534 0.3530
995.000000 0.3574 0.3668 0.3859 0.4294 0.4660
990.000000 0.5028 0.5394 0.5760 0.5912 0.6004
985.000000 0.6096 0.6186 0.6276 0.6366 0.6440
980.000000 0.6508 0.6578 0.6646 0.6703 0.6761
975.000000 0.6818 0.6875 0.6933 0.6990 0.7046
970.000000 0.7101 0.7146 0.7192 0.7238 0.7292
965.000000 0.7345 0.7383 0.7383 0.7382 0.7378
960.000000 0.7375 0.7375 0.7375 0.7392 0.7425
955.000000 0.7443 0.7457 0.7469 0.7471 0.7481
950.000000 0.7446 0.7304 0.6999 0.6886 0.6847
945.000000 0.6812 0.6758 0.6697 0.6372 0.5146
940.000000 0.3921 0.2695 0.2029 0.2023 0.2492
935.000000 0.3018 0.3544 0.4070 0.4595 0.5121
930.000000 0.5647 0.6148 0.6367 0.6550 0.6721
925.000000 0.6818 0.6900 0.6982 0.7061 0.7125
920.000000 0.7189 0.7251 0.7303 0.7351 0.7399
915.000000 0.7447 0.7488 0.7528 0.7558 0.7578
910.000000 0.7598 0.7611 0.7624 0.7636 0.7645
905.000000 0.7650 0.7640 0.7656 0.7657 0.7651
900.000000 0.7632 0.7611 0.7556 0.7489 0.7421
895.000000 0.7350 0.7271 0.7192 0.7112 0.7058
890.000000 0.7005 0.6951 0.6897 0.6818 0.6711
885.000000 0.6604 0.6497 0.6391 0.6284 0.6165
880.000000 0.6041 0.5918 0.5760 0.5571 0.5116
875.000000 0.4818 0.4480 0.4142 0.3803 0.3464
870.000000 0.3126 0.2788 0.2450 0.2111 0.1773
865.000000 0.1409 0.1358 0.1357 0.1390 0.1486
860.000000 0.1695 0.1904 0.2114 0.2324 0.2533
855.000000 0.2743 0.2935 0.2917 0.2905 0.2692
850.000000 0.2350 0.2367 0.2385 0.2641 0.2963
845.000000 0.3284 0.3607 0.3929 0.4251 0.4572
840.000000 0.4894 0.5216 0.5538 0.5860 0.5988
835.000000 0.6022 0.6040 0.6041 0.6022 0.5975
830.000000 0.5772 0.5558 0.5344 0.5130 0.4917
825.000000 0.4790 0.4784 0.4784 0.4802 0.4848
820.000000 0.5012 0.5160 0.5307 0.5454 0.5601
815.000000 0.5749 0.5896 0.6043 0.6190 0.6337
810.000000 0.6484 0.6631 0.6724 0.6771 0.6821
805.000000 0.6885 0.6949 0.7012 0.7110 0.7208
800.000000 0.7293 0.7378 0.7438 0.7494 0.7550
795.000000 0.7588 0.7622 0.7651 0.7665 0.7681
790.000000 0.7696 0.7708 0.7717 0.7725 0.7733
785.000000 0.7741 0.7744 0.7748 0.7751 0.7754
780.000000 0.7754 0.7754 0.7755 0.7755 0.7755
775.000000 0.7755 0.7755 0.7755 0.7754 0.7754
770.000000 0.7754 0.7753 0.7753 0.7751 0.7749
765.000000 0.7745 0.7742 0.7739 0.7735 0.7732
760.000000 0.7726 0.7721 0.7718 0.7710 0.7701
755.000000 0.7688 0.7672 0.7653 0.7631 0.7582
750.000000 0.7411 0.7286 0.7301 0.7349 0.7408
745.000000 0.7471 0.7539 0.7578 0.7584 0.7585
740.000000 0.7585 0.7585 0.7584 0.7583 0.7582
735.000000 0.7581 0.7578 0.7571 0.7567 0.7558
730.000000 0.7550 0.7539 0.7510 0.7474 0.7426
725.000000 0.7378 0.7331 0.7285 0.7254 0.7234
720.000000 0.7224 0.7225 0.7225 0.7293 0.7356
715.000000 0.7418 0.7478 0.7532 0.7582 0.7614
710.000000 0.7646 0.7678 0.7711 0.7736 0.7758
705.000000 0.7781 0.7803 0.7825 0.7845 0.7854
700.000000 0.7862 0.7871 0.7881 0.7890 0.7899
695.000000 0.7908 0.7918 0.7928 0.7938 0.7948
690.000000 0.7958 0.7965 0.7971 0.7978 0.7984
685.000000 0.7975 0.7989 0.7982 0.7975 0.7908
680.000000 0.7601 0.7165 0.6731 0.6295 0.5860
675.000000 0.5501 0.5488 0.5491 0.5674 0.5990
670.000000 0.6307 0.6622 0.6939 0.7256 0.7571
665.000000 0.7882 0.7894 0.7892 0.7890 0.7880
660.000000 0.7865 0.7845 0.7825 0.7810 0.7811
655.000000 0.7831 0.7850 0.7865 0.7883 0.7900
650.000000 0.7917 0.7934 0.7946 0.7955 0.7964
645.000000 0.7974 0.7983 0.7992 0.8001 0.8010
640.000000 0.8015 0.8018 0.8022 0.8026 0.8031
635.000000 0.8032 0.8033 0.8035 0.8036 0.8037
630.000000 0.8032 0.8058 0.8018 0.8010 0.8001
625.000000 0.7992 0.7976 0.7960 0.7944 0.7921
620.000000 0.7882 0.7843 0.7769 0.7689 0.7603
615.000000 0.7514 0.7422 0.7331 0.7249 0.7167
610.000000 0.6997 0.6808 0.6619 0.6432 0.6244
605.000000 0.6055 0.5867 0.5678 0.5490 0.5310
600.000000 0.5290 0.5301 0.5308 0.5330 0.5392
595.000000 0.5457 0.5510 0.5572 0.5645 0.5716
590.000000 0.5734 0.5760 0.5675 0.5630 0.5585
585.000000 0.5539 0.5494 0.5431 0.5365 0.5289
580.000000 0.5187 0.5084 0.4951 0.4805 0.4646
575.000000 0.4509 0.3772 0.3148 0.2524 0.2152
570.000000 0.2184 0.3090 0.3996 0.4902 0.5725
565.000000 0.5844 0.5924 0.6154 0.6408 0.6661
560.000000 0.6915 0.7168 0.7341 0.7465 0.7528
555.000000 0.7590 0.7651 0.7714 0.7765 0.7815
550.000000 0.7867 0.7917 0.7964 0.8011 0.8041
545.000000 0.8067 0.8080 0.8092 0.8104 0.8112
540.000000 0.8115 0.8092 0.8108 0.8095 0.8072
535.000000 0.8048 0.8018 0.7993 0.7971 0.7951
530.000000 0.7942 0.7935 0.7935 0.7922 0.7938
525.000000 0.7954 0.7971 0.7988 0.8006 0.8037
520.000000 0.8067 0.8098 0.8125 0.8153 0.8180
515.000000 0.8199 0.8216 0.8233 0.8236 0.8240
510.000000 0.8243 0.8247 0.8251 0.8255 0.8274
505.000000 0.8300 0.8325 0.8367 0.8409 0.8451
500.000000 0.8505 0.8558 0.8609 0.8643 0.8678
495.000000 0.8706 0.8721 0.8737 0.8752 0.8762
490.000000 0.8771 0.8778 0.8788 0.8797 0.8804
485.000000 0.8807 0.8810 0.8812 0.8815 0.8818
480.000000 0.8823 0.8820 0.8820 0.8821 0.8821
475.000000 0.8821 0.8821 0.8818 0.8813 0.8808
470.000000 0.8788 0.8761 0.8733 0.8686 0.8627
465.000000 0.8575 0.8530 0.8485 0.8443 0.8405
460.000000 0.8380 0.8356 0.8333 0.8312 0.8291
455.000000 0.8265 0.8240 0.8206 0.8156 0.8084
450.000000 0.7999 0.7901 0.7719 0.7541 0.7418
445.000000 0.7321 0.7224 0.7107 0.6974 0.6801
440.000000 0.6669 0.6612 0.6610 0.6606 0.6606
435.000000 0.6644 0.6741 0.6837 0.6960 0.7211
430.000000 0.7507 0.7801 0.7978 0.8086 0.8208
425.000000 0.8361 0.8459 0.8547 0.8623 0.8671
420.000000 0.8721 0.8770 0.8809 0.8840 0.8870
415.000000 0.8901 0.8932 0.8963 0.8994 0.9021
410.000000 0.9043 0.9064 0.9085 0.9106 0.9127
405.000000 0.9148 0.9164 0.9178 0.9194 0.9210
400.000000 0.9224 0.9235 0.9245 0.9256 0.9266
395.000000 0.9277 0.9283 0.9288 0.9292 0.9297
390.000000 0.9301 0.9306 0.9313 0.9321 0.9328
385.000000 0.9335 0.9334 0.9341 0.9343 0.9344
##END=
