##TITLE=N-[4-(6-METHYL)-1,3,3a,7-TETRAZAINDENYL]-ETHYLENEDIAMINE HYDROCHLORIDE
##JCAMP-DX=4.24
##DATA TYPE=INFRARED SPECTRUM
##CLASS=COBLENTZ
##ORIGIN=EASTMAN KODAK COMPANY, RESEARCH LABORATORIES, ROCHESTER, N.Y.
##OWNER=COBLENTZ SOCIETY
Collection (C) 2018 copyright by the U.S. Secretary of Commerce
on behalf of the United States of America. All rights reserved.
##DATE=Not specified, most likely prior to 1970
##MOLFORM=C8 H13 Cl N6
$$ J. ORG. CHEM. 26, 115(1961), COMPOUND IId
##MP=196-198 C
##SOURCE REFERENCE=COBLENTZ NO. 2134
##$NIST ID=B6002134
##$NIST SOURCE=COBLENTZ
##$NIST IMAGE=cob2134
##SPECTROMETER/DATA SYSTEM=Not specified, most likely a prism, grating, or hybrid spectrometer.
##STATE=SOLID (KBr PRESSING)
##SAMPLING PROCEDURE=TRANSMISSION
##RESOLUTION=4
##DATA PROCESSING=DIGITIZED BY NIST FROM HARD COPY
##XUNITS=MICROMETERS
##YUNITS=TRANSMITTANCE
##XFACTOR=1.000000
##YFACTOR=1
##DELTAX=000.007032
##FIRSTX=2.03
##LASTX=15.9252
##FIRSTY=0.603
##MAXX=15.9252
##MINX=2.03
##MAXY=0.963
##MINY=0.019
##NPOINTS=1977
##XYDATA=(X++(Y..Y))
2.030000 0.6030 0.6010 0.6000 0.6000 0.6000
2.065180 0.6000 0.5980 0.5980 0.5960 0.5960
2.100000 0.5940 0.5940 0.5930 0.5930 0.5930
2.135180 0.5930 0.5930 0.5930 0.5930 0.5930
2.170000 0.5930 0.5930 0.5930 0.5930 0.5930
2.205180 0.5930 0.5930 0.5910 0.5910 0.5910
2.241000 0.5910 0.5890 0.5890 0.5890 0.5890
2.276180 0.5910 0.5930 0.5940 0.5960 0.5980
2.311000 0.6000 0.6000 0.6010 0.6030 0.6050
2.346180 0.6060 0.6080 0.6100 0.6120 0.6150
2.381000 0.6170 0.6190 0.6220 0.6260 0.6270
2.416180 0.6290 0.6290 0.6290 0.6290 0.6310
2.451000 0.6330 0.6340 0.6360 0.6380 0.6380
2.486180 0.6380 0.6380 0.6400 0.6400 0.6400
2.522000 0.6410 0.6460 0.6480 0.6480 0.6480
2.557180 0.6480 0.6480 0.6500 0.6500 0.6520
2.592000 0.6520 0.6550 0.6570 0.6570 0.6590
2.627180 0.6590 0.6620 0.6670 0.6690 0.6760
2.662000 0.6800 0.6830 0.6880 0.6900 0.6900
2.697180 0.6920 0.6920 0.6930 0.6950 0.6970
2.733000 0.6970 0.6950 0.6930 0.6900 0.6860
2.768180 0.6800 0.6710 0.6640 0.6550 0.6380
2.803000 0.6010 0.5800 0.5540 0.5350 0.5140
2.838180 0.4950 0.4690 0.4430 0.4200 0.4000
2.873000 0.3820 0.3630 0.3470 0.3320 0.3180
2.908180 0.3020 0.2880 0.2740 0.2590 0.2430
2.944000 0.2260 0.2050 0.1960 0.1790 0.1700
2.979180 0.1560 0.1460 0.1460 0.1350 0.1210
3.014000 0.1110 0.1110 0.1140 0.1260 0.1350
3.049180 0.1400 0.1400 0.1390 0.1260 0.1000
3.084000 0.0950 0.0950 0.0990 0.1070 0.1250
3.119180 0.1390 0.1460 0.1510 0.1540 0.1580
3.155000 0.1630 0.1700 0.1720 0.1730 0.1800
3.190180 0.1840 0.1860 0.1910 0.1960 0.1980
3.225000 0.1980 0.1930 0.1870 0.1700 0.1510
3.260180 0.1490 0.1490 0.1510 0.1600 0.1600
3.295000 0.1580 0.1540 0.1490 0.1400 0.1350
3.330180 0.1280 0.1250 0.1210 0.1180 0.1160
3.366000 0.1180 0.1180 0.1180 0.1180 0.1160
3.401180 0.1140 0.1040 0.1000 0.1000 0.1000
3.436000 0.1000 0.1000 0.1000 0.1070 0.1110
3.471180 0.1140 0.1200 0.1250 0.1300 0.1350
3.506000 0.1400 0.1490 0.1510 0.1530 0.1560
3.541180 0.1680 0.1790 0.1860 0.1910 0.1980
3.577000 0.2000 0.2010 0.2030 0.2030 0.2010
3.612180 0.2010 0.1980 0.1940 0.1940 0.1980
3.647000 0.2050 0.2120 0.2220 0.2310 0.2410
3.682180 0.2520 0.2620 0.2670 0.2690 0.2690
3.717000 0.2670 0.2620 0.2530 0.2500 0.2410
3.752180 0.2340 0.2310 0.2310 0.2310 0.2330
3.788000 0.2400 0.2460 0.2570 0.2660 0.2730
3.823180 0.2740 0.2780 0.2800 0.2830 0.2920
3.858000 0.3000 0.3180 0.3300 0.3400 0.3490
3.893180 0.3510 0.3540 0.3680 0.3730 0.3800
3.928000 0.3860 0.3960 0.4030 0.4120 0.4190
3.963180 0.4190 0.4190 0.4190 0.4200 0.4240
3.999000 0.4360 0.4500 0.4620 0.4710 0.4730
4.034180 0.4810 0.4920 0.5020 0.5130 0.5210
4.069000 0.5320 0.5400 0.5510 0.5610 0.5720
4.104180 0.5800 0.5890 0.5960 0.6000 0.6030
4.139000 0.6030 0.6100 0.6120 0.6170 0.6200
4.174180 0.6240 0.6290 0.6290 0.6290 0.6290
4.210000 0.6310 0.6310 0.6310 0.6310 0.6310
4.245180 0.6310 0.6310 0.6310 0.6330 0.6400
4.280000 0.6410 0.6500 0.6530 0.6590 0.6640
4.315180 0.6710 0.6800 0.6810 0.6830 0.6830
4.350000 0.6850 0.6900 0.6930 0.6950 0.6970
4.385180 0.6970 0.6970 0.6970 0.6930 0.6920
4.421000 0.6900 0.6900 0.6900 0.6900 0.6880
4.456180 0.6830 0.6830 0.6810 0.6830 0.6850
4.491000 0.6880 0.6900 0.6950 0.7000 0.7000
4.526180 0.7020 0.7020 0.7020 0.7040 0.7040
4.561000 0.7040 0.7070 0.7070 0.7070 0.7090
4.596180 0.7110 0.7140 0.7160 0.7160 0.7180
4.632000 0.7180 0.7140 0.7130 0.7110 0.7090
4.667180 0.7040 0.6990 0.6970 0.6950 0.6930
4.702000 0.6920 0.6810 0.6740 0.6710 0.6600
4.737180 0.6520 0.6500 0.6400 0.6360 0.6360
4.772000 0.6360 0.6360 0.6380 0.6450 0.6520
4.807180 0.6530 0.6530 0.6590 0.6620 0.6670
4.842000 0.6730 0.6780 0.6830 0.6920 0.7000
4.877180 0.7020 0.7070 0.7110 0.7130 0.7160
4.913000 0.7230 0.7300 0.7370 0.7390 0.7420
4.948180 0.7490 0.7510 0.7540 0.7600 0.7650
4.983000 0.7660 0.7680 0.7720 0.7730 0.7770
5.018180 0.7790 0.7820 0.7870 0.7890 0.7930
5.053000 0.7980 0.8000 0.8000 0.8010 0.8010
5.088180 0.8050 0.8060 0.8100 0.8120 0.8130
5.124000 0.8120 0.8100 0.8100 0.8120 0.8150
5.159180 0.8200 0.8260 0.8290 0.8310 0.8330
5.194000 0.8340 0.8360 0.8400 0.8410 0.8430
5.229180 0.8450 0.8460 0.8460 0.8460 0.8460
5.264000 0.8460 0.8460 0.8460 0.8460 0.8450
5.299180 0.8430 0.8400 0.8260 0.8050 0.7820
5.335000 0.7660 0.7610 0.7610 0.7800 0.8030
5.370180 0.8270 0.8380 0.8410 0.8480 0.8480
5.405000 0.8480 0.8480 0.8500 0.8530 0.8590
5.440180 0.8660 0.8660 0.8640 0.8620 0.8620
5.475000 0.8620 0.8620 0.8640 0.8660 0.8660
5.510180 0.8660 0.8660 0.8690 0.8710 0.8710
5.546000 0.8670 0.8670 0.8640 0.8600 0.8600
5.581180 0.8620 0.8640 0.8670 0.8690 0.8690
5.616000 0.8710 0.8710 0.8730 0.8730 0.8740
5.651180 0.8760 0.8740 0.8730 0.8730 0.8710
5.686000 0.8690 0.8670 0.8600 0.8520 0.8500
5.721180 0.8480 0.8480 0.8400 0.8310 0.8220
5.757000 0.8100 0.8080 0.8080 0.8050 0.8030
5.792180 0.7960 0.7870 0.7800 0.7720 0.7700
5.827000 0.7630 0.7580 0.7490 0.7390 0.7280
5.862180 0.7180 0.7040 0.6930 0.6740 0.6550
5.897000 0.6400 0.6200 0.6000 0.5680 0.5260
5.932180 0.4920 0.4500 0.4200 0.4000 0.3840
5.968000 0.3790 0.3600 0.3400 0.3260 0.2920
6.003180 0.2620 0.2500 0.2450 0.2240 0.2030
6.038000 0.1800 0.1350 0.0920 0.0570 0.0480
6.073180 0.0480 0.0480 0.0500 0.0530 0.0570
6.108000 0.0570 0.0570 0.0570 0.0570 0.0550
6.143180 0.0550 0.0530 0.0530 0.0530 0.0530
6.179000 0.0570 0.0660 0.0670 0.0600 0.0550
6.214180 0.0500 0.0400 0.0290 0.0220 0.0200
6.249000 0.0200 0.0200 0.0190 0.0200 0.0220
6.284180 0.0310 0.0410 0.0500 0.0670 0.0830
6.319000 0.1000 0.1070 0.1540 0.1820 0.2100
6.354180 0.2340 0.2570 0.2760 0.2930 0.3110
6.390000 0.3260 0.3440 0.3600 0.3790 0.3980
6.425180 0.4120 0.4170 0.4150 0.4120 0.4050
6.460000 0.3960 0.3660 0.3260 0.2690 0.2410
6.495180 0.2410 0.2430 0.2660 0.2830 0.3040
6.530000 0.3200 0.3320 0.3470 0.3560 0.3680
6.565180 0.3700 0.3700 0.3700 0.3610 0.3440
6.601000 0.3320 0.3230 0.3200 0.3210 0.3320
6.636180 0.3460 0.3650 0.3860 0.4050 0.4260
6.671000 0.4340 0.4430 0.4550 0.4800 0.5060
6.706180 0.5370 0.5490 0.5510 0.5420 0.5400
6.741000 0.5400 0.5350 0.5260 0.5140 0.5020
6.776180 0.4990 0.4800 0.4170 0.3910 0.3610
6.812000 0.3350 0.3230 0.3210 0.3200 0.3140
6.847180 0.3060 0.2970 0.2880 0.2850 0.2740
6.882000 0.2360 0.1660 0.1000 0.0930 0.0930
6.917180 0.1320 0.1700 0.2010 0.2360 0.2760
6.952000 0.3140 0.3600 0.3890 0.3890 0.3840
6.987180 0.3600 0.3530 0.3400 0.3180 0.2810
7.023000 0.2760 0.2780 0.2860 0.3160 0.3490
7.058180 0.3750 0.4000 0.4190 0.4380 0.4570
7.093000 0.4780 0.5000 0.5260 0.5460 0.5610
7.128180 0.5750 0.5800 0.5860 0.5960 0.6000
7.163000 0.6100 0.6170 0.6240 0.6290 0.6360
7.198180 0.6410 0.6450 0.6500 0.6530 0.6640
7.233000 0.6690 0.6690 0.6590 0.6520 0.6400
7.268180 0.6170 0.6010 0.5860 0.5730 0.5560
7.304000 0.5350 0.5000 0.4570 0.4220 0.3650
7.339180 0.3140 0.3070 0.3130 0.3350 0.4000
7.374000 0.4430 0.4660 0.4660 0.4600 0.3820
7.409180 0.3580 0.3000 0.2730 0.2690 0.2710
7.444000 0.2970 0.3060 0.3250 0.3460 0.3650
7.479180 0.3730 0.4060 0.4340 0.4460 0.4600
7.515000 0.4710 0.4740 0.4830 0.4830 0.4800
7.550180 0.4690 0.4530 0.4360 0.4100 0.3980
7.585000 0.3940 0.3940 0.4000 0.4120 0.4360
7.620180 0.4520 0.4670 0.4860 0.5060 0.5230
7.655000 0.5350 0.5470 0.5540 0.5660 0.5730
7.690180 0.5800 0.5910 0.6000 0.6010 0.6030
7.726000 0.6080 0.6080 0.6100 0.6080 0.6060
7.761180 0.6030 0.6000 0.5930 0.5720 0.5560
7.796000 0.5490 0.5470 0.5420 0.5350 0.5300
7.831180 0.5210 0.5200 0.5200 0.5230 0.5390
7.866000 0.5530 0.5600 0.5600 0.5510 0.4740
7.901180 0.3800 0.2710 0.1870 0.1260 0.1230
7.937000 0.1300 0.1660 0.1890 0.2130 0.2430
7.972180 0.2740 0.3090 0.3440 0.3820 0.4200
8.007000 0.4590 0.4950 0.5110 0.5350 0.5510
8.042180 0.5660 0.5790 0.5840 0.5960 0.6010
8.077000 0.6060 0.6060 0.6030 0.5960 0.5820
8.112180 0.5720 0.5700 0.5720 0.5860 0.5980
8.148000 0.6060 0.6220 0.6330 0.6400 0.6430
8.183180 0.6450 0.6460 0.6410 0.6330 0.6190
8.218000 0.5960 0.5630 0.5180 0.4550 0.3770
8.253180 0.2760 0.1910 0.1200 0.1130 0.1160
8.288000 0.1540 0.1980 0.2450 0.2860 0.3230
8.323180 0.3510 0.3720 0.3800 0.3860 0.3910
8.359000 0.4010 0.4260 0.4310 0.4500 0.4780
8.394180 0.5090 0.5400 0.5660 0.5800 0.5960
8.429000 0.6050 0.6200 0.6290 0.6340 0.6400
8.464180 0.6400 0.6410 0.6410 0.6400 0.6310
8.499000 0.6100 0.5930 0.5580 0.5110 0.4480
8.534180 0.3930 0.3390 0.2780 0.2690 0.2690
8.570000 0.2710 0.3070 0.3320 0.3680 0.4000
8.605180 0.4080 0.4220 0.4380 0.4520 0.4660
8.640000 0.4760 0.4860 0.4990 0.5020 0.5070
8.675180 0.5090 0.5090 0.5090 0.5090 0.5110
8.710000 0.5140 0.5210 0.5300 0.5390 0.5470
8.745180 0.5540 0.5610 0.5700 0.5790 0.5840
8.781000 0.5940 0.6080 0.6240 0.6380 0.6530
8.816180 0.6640 0.6690 0.6780 0.6810 0.6900
8.851000 0.6970 0.7000 0.7020 0.7070 0.7110
8.886180 0.7180 0.7210 0.7250 0.7260 0.7280
8.921000 0.7300 0.7320 0.7370 0.7390 0.7400
8.956180 0.7420 0.7440 0.7510 0.7530 0.7540
8.992000 0.7560 0.7580 0.7600 0.7600 0.7610
9.027180 0.7630 0.7680 0.7720 0.7750 0.7770
9.062000 0.7770 0.7790 0.7800 0.7820 0.7840
9.097180 0.7860 0.7870 0.7870 0.7870 0.7890
9.132000 0.7890 0.7910 0.7910 0.7930 0.7930
9.167180 0.7930 0.7930 0.7930 0.7910 0.7910
9.203000 0.7910 0.7910 0.7890 0.7870 0.7860
9.238180 0.7840 0.7840 0.7840 0.7820 0.7800
9.273000 0.7750 0.7720 0.7700 0.7680 0.7630
9.308180 0.7600 0.7530 0.7490 0.7350 0.7200
9.343000 0.7000 0.6860 0.6660 0.6410 0.6050
9.378180 0.5750 0.5440 0.5110 0.4900 0.4900
9.414000 0.4930 0.5140 0.5370 0.5610 0.5910
9.449180 0.6080 0.6270 0.6460 0.6600 0.6690
9.484000 0.6740 0.6830 0.6900 0.6930 0.6970
9.519180 0.6990 0.7000 0.7000 0.6990 0.6970
9.554000 0.6930 0.6900 0.6880 0.6830 0.6810
9.589180 0.6800 0.6760 0.6670 0.6620 0.6590
9.624000 0.6520 0.6500 0.6500 0.6500 0.6520
9.659180 0.6590 0.6660 0.6730 0.6760 0.6810
9.695000 0.6850 0.6900 0.6920 0.6950 0.7020
9.730180 0.7020 0.7040 0.7060 0.7070 0.7060
9.765000 0.7020 0.6920 0.6780 0.6640 0.6400
9.800180 0.6130 0.6120 0.6120 0.6130 0.6270
9.835000 0.6380 0.6570 0.6780 0.6970 0.7040
9.870180 0.7130 0.7200 0.7230 0.7280 0.7320
9.906000 0.7370 0.7420 0.7460 0.7530 0.7540
9.941180 0.7610 0.7650 0.7680 0.7720 0.7750
9.976000 0.7790 0.7840 0.7910 0.7960 0.7980
10.011180 0.8010 0.8010 0.8010 0.8010 0.8010
10.046000 0.8010 0.7980 0.7940 0.7910 0.7820
10.081180 0.7800 0.7750 0.7660 0.7490 0.7280
10.117000 0.7070 0.6850 0.6590 0.6380 0.6120
10.152180 0.6000 0.5890 0.5840 0.5840 0.5910
10.187000 0.6010 0.6190 0.6480 0.6620 0.6780
10.222180 0.6930 0.7040 0.7210 0.7280 0.7420
10.257000 0.7530 0.7630 0.7720 0.7800 0.7860
10.292180 0.7930 0.8000 0.8030 0.8030 0.8050
10.328000 0.8050 0.8060 0.8060 0.8080 0.8080
10.363180 0.8100 0.8100 0.8120 0.8120 0.8120
10.398000 0.8120 0.8120 0.8120 0.8100 0.8030
10.433180 0.7730 0.7420 0.6740 0.6130 0.5440
10.468000 0.5420 0.5530 0.6080 0.6620 0.7090
10.503180 0.7510 0.7800 0.8030 0.8170 0.8260
10.539000 0.8290 0.8310 0.8330 0.8340 0.8380
10.574180 0.8400 0.8410 0.8410 0.8410 0.8410
10.609000 0.8400 0.8290 0.8190 0.8000 0.7720
10.644180 0.7390 0.6970 0.6520 0.6450 0.6450
10.679000 0.6520 0.6930 0.7110 0.7370 0.7560
10.714180 0.7730 0.7870 0.8010 0.8130 0.8270
10.750000 0.8430 0.8530 0.8620 0.8730 0.8760
10.785180 0.8830 0.8850 0.8920 0.8950 0.8990
10.820000 0.9000 0.9020 0.9040 0.9110 0.9140
10.855180 0.9160 0.9180 0.9180 0.9180 0.9200
10.890000 0.9210 0.9230 0.9230 0.9230 0.9230
10.925180 0.9230 0.9250 0.9250 0.9250 0.9230
10.961000 0.9210 0.9210 0.9200 0.9200 0.9210
10.996180 0.9250 0.9250 0.9250 0.9230 0.9230
11.031000 0.9230 0.9250 0.9260 0.9280 0.9280
11.066180 0.9280 0.9280 0.9300 0.9300 0.9300
11.101000 0.9320 0.9330 0.9370 0.9420 0.9440
11.136180 0.9440 0.9460 0.9460 0.9470 0.9490
11.172000 0.9510 0.9510 0.9510 0.9530 0.9530
11.207180 0.9530 0.9530 0.9530 0.9530 0.9540
11.242000 0.9540 0.9540 0.9540 0.9560 0.9560
11.277180 0.9580 0.9610 0.9610 0.9630 0.9630
11.312000 0.9630 0.9630 0.9610 0.9600 0.9600
11.347180 0.9600 0.9600 0.9600 0.9610 0.9610
11.383000 0.9610 0.9610 0.9610 0.9600 0.9560
11.418180 0.9540 0.9540 0.9540 0.9530 0.9530
11.453000 0.9530 0.9510 0.9460 0.9420 0.9370
11.488180 0.9330 0.9320 0.9260 0.9210 0.9160
11.523000 0.9130 0.9110 0.9090 0.9090 0.9070
11.558180 0.9070 0.9090 0.9110 0.9110 0.9130
11.594000 0.9130 0.9160 0.9160 0.9160 0.9180
11.629180 0.9180 0.9200 0.9200 0.9200 0.9200
11.664000 0.9180 0.9160 0.9140 0.9140 0.9160
11.699180 0.9160 0.9140 0.9130 0.9110 0.9060
11.734000 0.9040 0.8990 0.8900 0.8810 0.8730
11.769180 0.8660 0.8620 0.8520 0.8410 0.8330
11.805000 0.8030 0.7870 0.7560 0.7260 0.6900
11.840180 0.6430 0.5940 0.5180 0.4850 0.4330
11.875000 0.3930 0.3510 0.3460 0.3460 0.3510
11.910180 0.3820 0.4060 0.4330 0.4760 0.5020
11.945000 0.5330 0.5610 0.5860 0.6060 0.6240
11.980180 0.6380 0.6530 0.6620 0.6690 0.6740
12.015000 0.6800 0.6850 0.6850 0.6760 0.6660
12.050180 0.6530 0.6380 0.6120 0.5930 0.5660
12.086000 0.5490 0.5330 0.5320 0.5330 0.5470
12.121180 0.5680 0.5960 0.6080 0.6380 0.6590
12.156000 0.6860 0.7060 0.7210 0.7320 0.7470
12.191180 0.7540 0.7580 0.7660 0.7870 0.7910
12.226000 0.7960 0.8010 0.8030 0.8050 0.8060
12.261180 0.8080 0.8100 0.8120 0.8170 0.8200
12.297000 0.8220 0.8220 0.8200 0.8190 0.8170
12.332180 0.8130 0.8120 0.8050 0.8010 0.7910
12.367000 0.7820 0.7720 0.7530 0.7370 0.7230
12.402180 0.7110 0.6710 0.6520 0.6330 0.6120
12.437000 0.5980 0.5800 0.5730 0.5650 0.5630
12.472180 0.5650 0.5700 0.5840 0.6050 0.6220
12.508000 0.6430 0.6570 0.6780 0.6920 0.7020
12.543180 0.7140 0.7320 0.7470 0.7540 0.7630
12.578000 0.7720 0.7800 0.7910 0.8030 0.8060
12.613180 0.8100 0.8120 0.8130 0.8170 0.8220
12.648000 0.8240 0.8290 0.8310 0.8330 0.8360
12.683180 0.8360 0.8400 0.8400 0.8410 0.8410
12.719000 0.8410 0.8410 0.8410 0.8400 0.8380
12.754180 0.8380 0.8340 0.8310 0.8270 0.8260
12.789000 0.8260 0.8240 0.8200 0.8170 0.8120
12.824180 0.8000 0.7800 0.7700 0.7490 0.7260
12.859000 0.7020 0.6710 0.6340 0.5890 0.5210
12.894180 0.4570 0.3930 0.3390 0.2810 0.2780
12.930000 0.2810 0.3280 0.3860 0.4260 0.5000
12.965180 0.5600 0.6030 0.6380 0.6620 0.6810
13.000000 0.7000 0.7180 0.7350 0.7460 0.7530
13.035180 0.7560 0.7610 0.7630 0.7650 0.7660
13.070000 0.7680 0.7700 0.7700 0.7680 0.7680
13.105180 0.7680 0.7660 0.7650 0.7630 0.7630
13.141000 0.7600 0.7560 0.7540 0.7530 0.7510
13.176180 0.7490 0.7470 0.7470 0.7470 0.7470
13.211000 0.7470 0.7510 0.7490 0.7470 0.7440
13.246180 0.7440 0.7440 0.7440 0.7460 0.7470
13.281000 0.7470 0.7470 0.7460 0.7460 0.7470
13.316180 0.7470 0.7440 0.7440 0.7440 0.7440
13.352000 0.7460 0.7460 0.7470 0.7470 0.7470
13.387180 0.7470 0.7510 0.7530 0.7530 0.7540
13.422000 0.7540 0.7560 0.7580 0.7600 0.7600
13.457180 0.7600 0.7600 0.7610 0.7630 0.7650
13.492000 0.7680 0.7720 0.7730 0.7730 0.7720
13.527180 0.7720 0.7700 0.7700 0.7700 0.7720
13.563000 0.7730 0.7730 0.7730 0.7730 0.7730
13.598180 0.7750 0.7750 0.7730 0.7730 0.7730
13.633000 0.7750 0.7750 0.7750 0.7750 0.7750
13.668180 0.7770 0.7770 0.7770 0.7750 0.7750
13.703000 0.7750 0.7730 0.7730 0.7730 0.7720
13.738180 0.7700 0.7680 0.7680 0.7660 0.7650
13.774000 0.7650 0.7630 0.7630 0.7610 0.7610
13.809180 0.7610 0.7610 0.7600 0.7560 0.7540
13.844000 0.7530 0.7440 0.7390 0.7350 0.7330
13.879180 0.7320 0.7260 0.7210 0.7130 0.7060
13.914000 0.7020 0.6930 0.6880 0.6810 0.6780
13.949180 0.6740 0.6730 0.6730 0.6730 0.6730
13.985000 0.6730 0.6730 0.6780 0.6880 0.6970
14.020180 0.7020 0.7060 0.7070 0.7140 0.7200
14.055000 0.7230 0.7250 0.7300 0.7320 0.7330
14.090180 0.7330 0.7330 0.7330 0.7330 0.7300
14.125000 0.7260 0.7250 0.7210 0.7180 0.7140
14.160180 0.7040 0.7020 0.6930 0.6920 0.6850
14.195000 0.6780 0.6730 0.6730 0.6670 0.6570
14.230180 0.6530 0.6450 0.6380 0.6290 0.6220
14.266000 0.6130 0.6080 0.6030 0.6010 0.6010
14.301180 0.5930 0.5910 0.5870 0.5860 0.5840
14.336000 0.5840 0.5840 0.5840 0.5860 0.5930
14.371180 0.6030 0.6120 0.6240 0.6340 0.6480
14.406000 0.6550 0.6640 0.6740 0.6780 0.6800
14.441180 0.6810 0.6830 0.6860 0.6900 0.6920
14.477000 0.6930 0.6930 0.6920 0.6920 0.6900
14.512180 0.6880 0.6830 0.6800 0.6740 0.6640
14.547000 0.6550 0.6450 0.6330 0.6220 0.6030
14.582180 0.5870 0.5770 0.5610 0.5470 0.5330
14.617000 0.5110 0.5000 0.5000 0.5000 0.5020
14.652180 0.5110 0.5210 0.5250 0.5530 0.5630
14.688000 0.5730 0.5930 0.6030 0.6200 0.6290
14.723180 0.6340 0.6410 0.6450 0.6480 0.6520
14.758000 0.6520 0.6520 0.6530 0.6550 0.6570
14.793180 0.6570 0.6570 0.6570 0.6550 0.6530
14.828000 0.6520 0.6500 0.6460 0.6450 0.6430
14.863180 0.6430 0.6410 0.6340 0.6330 0.6310
14.899000 0.6260 0.6220 0.6130 0.6060 0.6030
14.934180 0.5930 0.5910 0.5860 0.5840 0.5820
14.969000 0.5820 0.5820 0.5820 0.5820 0.5840
15.004180 0.5840 0.5840 0.5840 0.5840 0.5820
15.039000 0.5800 0.5750 0.5650 0.5610 0.5560
15.074180 0.5530 0.5510 0.5420 0.5390 0.5330
15.110000 0.5300 0.5230 0.5210 0.5130 0.5060
15.145180 0.5040 0.5020 0.5020 0.5000 0.4990
15.180000 0.4950 0.4920 0.4810 0.4740 0.4740
15.215180 0.4730 0.4730 0.4690 0.4690 0.4690
15.250000 0.4690 0.4670 0.4670 0.4670 0.4670
15.285180 0.4670 0.4670 0.4670 0.4670 0.4670
15.321000 0.4690 0.4710 0.4710 0.4730 0.4730
15.356180 0.4740 0.4740 0.4780 0.4780 0.4800
15.391000 0.4800 0.4800 0.4800 0.4800 0.4800
15.426180 0.4800 0.4800 0.4800 0.4800 0.4780
15.461000 0.4780 0.4760 0.4760 0.4740 0.4730
15.496180 0.4710 0.4690 0.4670 0.4670 0.4640
15.532000 0.4620 0.4600 0.4590 0.4530 0.4520
15.567180 0.4500 0.4480 0.4460 0.4460 0.4450
15.602000 0.4450 0.4430 0.4410 0.4400 0.4380
15.637180 0.4360 0.4360 0.4360 0.4380 0.4400
15.672000 0.4400 0.4410 0.4410 0.4430 0.4450
15.707180 0.4460 0.4480 0.4500 0.4520 0.4550
15.743000 0.4620 0.4670 0.4710 0.4730 0.4740
15.778180 0.4780 0.4810 0.4830 0.4850 0.4880
15.813000 0.4930 0.4970 0.4990 0.5020 0.5040
15.848180 0.5040 0.5040 0.5060 0.5060 0.5070
15.883000 0.5070 0.5090 0.5110 0.5130 0.5140
15.918180 0.5160 0.5160
##END=
