##TITLE=1-(3-METHYL-4-MORPHOLINO-2,2-DIPHENYLBUTYRYL)PYRROLIDINE, CITRATE
##JCAMP-DX=4.24
##DATA TYPE=INFRARED SPECTRUM
##CLASS=COBLENTZ III
##ORIGIN=SMITH KLINE & FRENCH LABS.
##OWNER=COBLENTZ SOCIETY
Collection (C) 2018 copyright by the U.S. Secretary of Commerce
on behalf of the United States of America. All rights reserved.
##DATE=1957/07/03
##MOLFORM=C31 H40 N2 O9
##SOURCE REFERENCE=COBLENTZ NO. 7296
##$NIST ID=B6007296
##$NIST SOURCE=COBLENTZ
##$NIST IMAGE=cob7296
##SPECTROMETER/DATA SYSTEM=PERKIN-ELMER 21 (GRATING)
##INSTRUMENT PARAMETERS=NaCl PRISM
##STATE=SOLID (KBr DISC)
##SAMPLING PROCEDURE=TRANSMISSION
##RESOLUTION=2
##DATA PROCESSING=DIGITIZED BY NIST FROM HARD COPY
##XUNITS=MICROMETERS
##YUNITS=TRANSMITTANCE
##XFACTOR=1.000000
##YFACTOR=1
##DELTAX=000.004878
##FIRSTX=2.005
##LASTX=15.176
##FIRSTY=0.877
##MAXX=15.176
##MINX=2.005
##MAXY=0.885
##MINY=0.092
##NPOINTS=2701
##XYDATA=(X++(Y..Y))
2.005000 0.8770 0.8770 0.8770 0.8770 0.8770
2.029399 0.8770 0.8790 0.8790 0.8770 0.8770
2.054000 0.8770 0.8790 0.8790 0.8810 0.8840
2.078399 0.8840 0.8810 0.8810 0.8810 0.8810
2.102000 0.8810 0.8810 0.8810 0.8800 0.8760
2.126399 0.8730 0.8710 0.8730 0.8740 0.8750
2.151000 0.8760 0.8760 0.8760 0.8760 0.8760
2.175399 0.8770 0.8770 0.8740 0.8740 0.8770
2.200000 0.8800 0.8820 0.8820 0.8820 0.8820
2.224399 0.8820 0.8820 0.8850 0.8850 0.8810
2.249000 0.8810 0.8800 0.8760 0.8730 0.8710
2.273399 0.8710 0.8700 0.8690 0.8690 0.8690
2.298000 0.8690 0.8690 0.8690 0.8690 0.8680
2.322399 0.8690 0.8700 0.8710 0.8750 0.8760
2.346000 0.8770 0.8800 0.8800 0.8770 0.8760
2.370399 0.8760 0.8760 0.8760 0.8760 0.8760
2.395000 0.8750 0.8740 0.8730 0.8710 0.8710
2.419399 0.8710 0.8710 0.8710 0.8710 0.8710
2.444000 0.8740 0.8740 0.8740 0.8740 0.8740
2.468399 0.8740 0.8740 0.8740 0.8740 0.8740
2.493000 0.8750 0.8750 0.8750 0.8750 0.8750
2.517399 0.8750 0.8750 0.8750 0.8750 0.8750
2.541000 0.8750 0.8750 0.8750 0.8760 0.8750
2.565399 0.8750 0.8750 0.8750 0.8760 0.8760
2.590000 0.8760 0.8770 0.8760 0.8760 0.8760
2.614399 0.8750 0.8750 0.8750 0.8750 0.8760
2.639000 0.8760 0.8760 0.8760 0.8760 0.8760
2.663399 0.8740 0.8710 0.8710 0.8690 0.8680
2.688000 0.8680 0.8680 0.8680 0.8680 0.8680
2.712399 0.8680 0.8680 0.8680 0.8680 0.8680
2.737000 0.8680 0.8660 0.8660 0.8650 0.8640
2.761399 0.8640 0.8620 0.8600 0.8580 0.8540
2.785000 0.8530 0.8470 0.8410 0.8370 0.8300
2.809399 0.8260 0.8190 0.8110 0.8040 0.7990
2.834000 0.7980 0.7880 0.7860 0.7820 0.7770
2.858399 0.7700 0.7650 0.7580 0.7480 0.7380
2.883000 0.7170 0.7060 0.6920 0.6780 0.6630
2.907399 0.6540 0.6410 0.6390 0.6380 0.6380
2.932000 0.6390 0.6480 0.6480 0.6500 0.6520
2.956399 0.6640 0.6780 0.6870 0.6910 0.6920
2.980000 0.6970 0.6990 0.7060 0.7090 0.7110
3.004399 0.7170 0.7200 0.7220 0.7220 0.7220
3.029000 0.7240 0.7250 0.7250 0.7250 0.7270
3.053399 0.7270 0.7240 0.7200 0.7150 0.7130
3.078000 0.7090 0.7050 0.7020 0.6990 0.6890
3.102399 0.6830 0.6780 0.6700 0.6590 0.6540
3.127000 0.6320 0.6190 0.6110 0.6100 0.6090
3.151399 0.6050 0.6000 0.5790 0.5700 0.5610
3.176000 0.5590 0.5570 0.5540 0.5500 0.5310
3.200399 0.5150 0.5070 0.4960 0.4900 0.4820
3.224000 0.4780 0.4700 0.4610 0.4590 0.4390
3.248399 0.4320 0.4280 0.4220 0.4180 0.4090
3.273000 0.4000 0.3850 0.3760 0.3720 0.3720
3.297399 0.3690 0.3680 0.3660 0.3650 0.3620
3.322000 0.3610 0.3580 0.3570 0.3560 0.3520
3.346399 0.3500 0.3470 0.3450 0.3430 0.3320
3.371000 0.3300 0.3130 0.3120 0.3120 0.3120
3.395399 0.3120 0.3120 0.3120 0.3150 0.3220
3.420000 0.3290 0.3330 0.3390 0.3430 0.3500
3.444399 0.3540 0.3680 0.3740 0.3890 0.4000
3.468000 0.4090 0.4110 0.4120 0.4130 0.4130
3.492399 0.4160 0.4230 0.4390 0.4490 0.4700
3.517000 0.4790 0.4990 0.5040 0.5180 0.5280
3.541399 0.5320 0.5530 0.5620 0.5710 0.5780
3.566000 0.5780 0.5790 0.5810 0.5810 0.5830
3.590399 0.5940 0.5950 0.5980 0.5990 0.6010
3.615000 0.6010 0.6030 0.6040 0.6060 0.6090
3.639399 0.6120 0.6160 0.6170 0.6170 0.6190
3.663000 0.6200 0.6210 0.6260 0.6280 0.6300
3.687399 0.6320 0.6330 0.6330 0.6340 0.6360
3.712000 0.6360 0.6320 0.6320 0.6310 0.6280
3.736399 0.6270 0.6270 0.6260 0.6260 0.6270
3.761000 0.6270 0.6280 0.6280 0.6280 0.6280
3.785399 0.6280 0.6260 0.6230 0.6220 0.6230
3.810000 0.6220 0.6220 0.6210 0.6200 0.6200
3.834399 0.6200 0.6190 0.6140 0.6120 0.6120
3.859000 0.6140 0.6140 0.6150 0.6150 0.6150
3.883399 0.6160 0.6170 0.6170 0.6190 0.6210
3.907000 0.6210 0.6220 0.6220 0.6270 0.6270
3.931399 0.6270 0.6270 0.6270 0.6260 0.6250
3.956000 0.6230 0.6250 0.6250 0.6270 0.6280
3.980399 0.6300 0.6320 0.6320 0.6330 0.6330
4.005000 0.6330 0.6340 0.6330 0.6330 0.6330
4.029399 0.6320 0.6310 0.6300 0.6280 0.6280
4.054000 0.6300 0.6320 0.6320 0.6320 0.6330
4.078399 0.6340 0.6370 0.6370 0.6380 0.6380
4.102000 0.6390 0.6410 0.6410 0.6420 0.6420
4.126399 0.6430 0.6430 0.6450 0.6490 0.6520
4.151000 0.6520 0.6530 0.6540 0.6550 0.6550
4.175399 0.6560 0.6560 0.6580 0.6590 0.6600
4.200000 0.6630 0.6650 0.6660 0.6670 0.6670
4.224399 0.6670 0.6670 0.6670 0.6660 0.6660
4.249000 0.6660 0.6650 0.6640 0.6630 0.6630
4.273399 0.6630 0.6630 0.6630 0.6630 0.6630
4.298000 0.6630 0.6630 0.6630 0.6630 0.6650
4.322399 0.6650 0.6660 0.6670 0.6700 0.6720
4.346000 0.6810 0.6880 0.6920 0.6980 0.7000
4.370399 0.7020 0.7020 0.7020 0.7040 0.7080
4.395000 0.7090 0.7130 0.7150 0.7160 0.7170
4.419399 0.7170 0.7200 0.7220 0.7220 0.7220
4.444000 0.7270 0.7270 0.7260 0.7260 0.7270
4.468399 0.7270 0.7280 0.7280 0.7300 0.7320
4.493000 0.7320 0.7350 0.7390 0.7410 0.7420
4.517399 0.7430 0.7480 0.7480 0.7500 0.7520
4.541000 0.7520 0.7520 0.7530 0.7550 0.7580
4.565399 0.7590 0.7600 0.7600 0.7600 0.7600
4.590000 0.7600 0.7600 0.7600 0.7610 0.7610
4.614399 0.7610 0.7610 0.7610 0.7650 0.7650
4.639000 0.7660 0.7680 0.7680 0.7680 0.7680
4.663399 0.7690 0.7710 0.7740 0.7720 0.7720
4.688000 0.7720 0.7720 0.7720 0.7720 0.7720
4.712399 0.7720 0.7740 0.7750 0.7750 0.7750
4.737000 0.7750 0.7750 0.7760 0.7770 0.7780
4.761399 0.7780 0.7780 0.7780 0.7780 0.7780
4.785000 0.7780 0.7780 0.7770 0.7780 0.7800
4.809399 0.7800 0.7810 0.7810 0.7810 0.7810
4.834000 0.7810 0.7810 0.7810 0.7810 0.7810
4.858399 0.7820 0.7850 0.7860 0.7870 0.7870
4.883000 0.7880 0.7880 0.7880 0.7880 0.7880
4.907399 0.7880 0.7890 0.7890 0.7890 0.7890
4.932000 0.7880 0.7890 0.7880 0.7880 0.7880
4.956399 0.7880 0.7870 0.7880 0.7880 0.7880
4.980000 0.7890 0.7880 0.7880 0.7880 0.7880
5.004399 0.7880 0.7870 0.7870 0.7870 0.7860
5.029000 0.7850 0.7830 0.7820 0.7820 0.7820
5.053399 0.7820 0.7820 0.7820 0.7820 0.7820
5.078000 0.7820 0.7830 0.7850 0.7860 0.7870
5.102399 0.7870 0.7880 0.7890 0.7890 0.7890
5.127000 0.7910 0.7910 0.7910 0.7910 0.7920
5.151399 0.7920 0.7910 0.7910 0.7920 0.7920
5.176000 0.7920 0.7920 0.7920 0.7920 0.7920
5.200399 0.7920 0.7920 0.7910 0.7910 0.7910
5.224000 0.7910 0.7920 0.7910 0.7910 0.7920
5.248399 0.7910 0.7910 0.7910 0.7910 0.7910
5.273000 0.7910 0.7910 0.7920 0.7930 0.7930
5.297399 0.7940 0.7940 0.7960 0.7970 0.7970
5.322000 0.7970 0.7980 0.7980 0.7980 0.7980
5.346399 0.7980 0.7980 0.7980 0.7970 0.7970
5.371000 0.7970 0.7970 0.7960 0.7960 0.7940
5.395399 0.7930 0.7920 0.7920 0.7910 0.7890
5.420000 0.7880 0.7880 0.7870 0.7870 0.7860
5.444399 0.7830 0.7810 0.7760 0.7710 0.7700
5.468000 0.7680 0.7690 0.7690 0.7710 0.7710
5.492399 0.7720 0.7720 0.7720 0.7720 0.7720
5.517000 0.7720 0.7720 0.7720 0.7710 0.7700
5.541399 0.7700 0.7690 0.7690 0.7690 0.7680
5.566000 0.7660 0.7570 0.7550 0.7540 0.7520
5.590399 0.7500 0.7490 0.7380 0.7320 0.7280
5.615000 0.7210 0.7190 0.7130 0.6990 0.6950
5.639399 0.6800 0.6690 0.6640 0.6600 0.6580
5.663000 0.6500 0.6450 0.6100 0.5990 0.5920
5.687399 0.5880 0.5730 0.5610 0.5510 0.5400
5.712000 0.5290 0.5120 0.4900 0.4700 0.4500
5.736399 0.4310 0.4050 0.3690 0.3290 0.3010
5.761000 0.2750 0.2300 0.2000 0.1900 0.1900
5.785399 0.1900 0.1920 0.1940 0.1970 0.2030
5.810000 0.2110 0.2100 0.2080 0.1990 0.1910
5.834399 0.1880 0.1850 0.1890 0.2170 0.2560
5.859000 0.2800 0.3100 0.3490 0.3790 0.4090
5.883399 0.4290 0.4400 0.4700 0.5180 0.5640
5.907000 0.5820 0.5990 0.6010 0.6050 0.6090
5.931399 0.6100 0.6120 0.6150 0.6200 0.6320
5.956000 0.6390 0.6490 0.6540 0.6520 0.6520
5.980399 0.6500 0.6490 0.6500 0.6550 0.6580
6.005000 0.6600 0.6610 0.6610 0.6630 0.6610
6.029399 0.6590 0.6500 0.6450 0.6340 0.6300
6.054000 0.6190 0.6110 0.6090 0.6010 0.5900
6.078399 0.5720 0.5590 0.5490 0.5420 0.5380
6.102000 0.5220 0.5120 0.4900 0.4610 0.4390
6.126399 0.4290 0.4200 0.4000 0.3790 0.3610
6.151000 0.3320 0.3110 0.2820 0.2610 0.2490
6.175399 0.2350 0.2340 0.2240 0.2110 0.1990
6.200000 0.1910 0.1750 0.1590 0.1340 0.1150
6.224399 0.1120 0.1120 0.1110 0.1080 0.1010
6.249000 0.0970 0.0950 0.0920 0.0940 0.0960
6.273399 0.1010 0.1110 0.1190 0.1290 0.1410
6.298000 0.1480 0.1500 0.1570 0.1610 0.1900
6.322399 0.2190 0.2390 0.2490 0.2610 0.2890
6.346000 0.3220 0.3580 0.3730 0.3800 0.3990
6.370399 0.4200 0.4450 0.4560 0.4660 0.4740
6.395000 0.4810 0.4850 0.4870 0.4890 0.4990
6.419399 0.5090 0.5200 0.5500 0.5890 0.5900
6.444000 0.5900 0.5920 0.5920 0.5930 0.5930
6.468399 0.5930 0.5940 0.5940 0.5940 0.5950
6.493000 0.5990 0.6050 0.6220 0.6310 0.6390
6.517399 0.6580 0.6600 0.6610 0.6630 0.6630
6.541000 0.6630 0.6630 0.6610 0.6610 0.6610
6.565399 0.6610 0.6610 0.6600 0.6600 0.6600
6.590000 0.6600 0.6590 0.6590 0.6580 0.6560
6.614399 0.6500 0.6390 0.6300 0.6090 0.5890
6.639000 0.5710 0.5590 0.5400 0.5290 0.5180
6.663399 0.5090 0.4790 0.4590 0.4500 0.4420
6.688000 0.4400 0.4420 0.4500 0.4590 0.4680
6.712399 0.4790 0.4900 0.5000 0.5090 0.5200
6.737000 0.5280 0.5380 0.5400 0.5490 0.5490
6.761399 0.5470 0.5440 0.5390 0.5280 0.5160
6.785000 0.5100 0.5040 0.4890 0.4890 0.4880
6.809399 0.4870 0.4840 0.4810 0.4740 0.4610
6.834000 0.4480 0.4400 0.4380 0.4350 0.4320
6.858399 0.4320 0.4290 0.4280 0.4110 0.4020
6.883000 0.3890 0.3710 0.3600 0.3540 0.3490
6.907399 0.3390 0.3280 0.3170 0.3100 0.3080
6.932000 0.3070 0.3070 0.3080 0.3130 0.3280
6.956399 0.3300 0.3300 0.3300 0.3290 0.3290
6.980000 0.3270 0.3220 0.3160 0.3080 0.3000
7.004399 0.2800 0.2690 0.2660 0.2600 0.2510
7.029000 0.2380 0.2310 0.2310 0.2310 0.2380
7.053399 0.2390 0.2410 0.2420 0.2420 0.2450
7.078000 0.2460 0.2470 0.2490 0.2500 0.2520
7.102399 0.2690 0.2710 0.2910 0.3120 0.3290
7.127000 0.3410 0.3490 0.3520 0.3600 0.3680
7.151399 0.3710 0.3710 0.3720 0.3720 0.3720
7.176000 0.3780 0.3790 0.3820 0.3880 0.3900
7.200399 0.3990 0.3990 0.4000 0.4000 0.4010
7.224000 0.4090 0.4220 0.4390 0.4430 0.4480
7.248399 0.4480 0.4490 0.4500 0.4570 0.4570
7.273000 0.4590 0.4570 0.4570 0.4540 0.4430
7.297399 0.4400 0.4390 0.4310 0.4280 0.4280
7.322000 0.4230 0.4180 0.4090 0.3950 0.3710
7.346399 0.3620 0.3580 0.3390 0.3190 0.3000
7.371000 0.2730 0.2640 0.2570 0.2530 0.2530
7.395399 0.2600 0.2620 0.2720 0.2790 0.2860
7.420000 0.2910 0.2930 0.2960 0.2950 0.2930
7.444399 0.2850 0.2780 0.2750 0.2740 0.2720
7.468000 0.2740 0.2770 0.2850 0.3000 0.3210
7.492399 0.3600 0.3720 0.3790 0.3990 0.4090
7.517000 0.4280 0.4380 0.4480 0.4520 0.4600
7.541399 0.4630 0.4710 0.4730 0.4730 0.4740
7.566000 0.4740 0.4740 0.4740 0.4730 0.4720
7.590399 0.4630 0.4550 0.4450 0.4320 0.4230
7.615000 0.4210 0.4180 0.4170 0.4110 0.4100
7.639399 0.4070 0.4000 0.3790 0.3770 0.3630
7.663000 0.3610 0.3570 0.3490 0.3380 0.3340
7.687399 0.3290 0.3280 0.3230 0.3190 0.3120
7.712000 0.3110 0.3120 0.3180 0.3240 0.3350
7.736399 0.3500 0.3680 0.3730 0.3770 0.3790
7.761000 0.4000 0.4090 0.4120 0.4220 0.4450
7.785399 0.4650 0.4810 0.4990 0.5120 0.5230
7.810000 0.5330 0.5390 0.5470 0.5490 0.5510
7.834399 0.5670 0.5670 0.5670 0.5610 0.5500
7.859000 0.5490 0.5320 0.5180 0.5040 0.4880
7.883399 0.4620 0.4540 0.4490 0.4420 0.4420
7.907000 0.4420 0.4420 0.4420 0.4420 0.4420
7.931399 0.4420 0.4400 0.4380 0.4320 0.4180
7.956000 0.4090 0.4000 0.3990 0.3890 0.3880
7.980399 0.3840 0.3780 0.3760 0.3740 0.3650
8.005000 0.3610 0.3610 0.3660 0.3690 0.3790
8.029399 0.3890 0.3990 0.4090 0.4110 0.4210
8.054000 0.4420 0.4520 0.4570 0.4600 0.4700
8.078399 0.4790 0.4820 0.4830 0.4890 0.4900
8.102000 0.4990 0.5000 0.5010 0.5030 0.5030
8.126399 0.5030 0.5030 0.5010 0.4990 0.4990
8.151000 0.4960 0.4920 0.4920 0.4920 0.4920
8.175399 0.4920 0.4920 0.4920 0.4920 0.4920
8.200000 0.4950 0.4960 0.4980 0.4990 0.5010
8.224399 0.5040 0.5070 0.5070 0.5090 0.5110
8.249000 0.5120 0.5120 0.5150 0.5170 0.5150
8.273399 0.5090 0.5000 0.4990 0.4920 0.4810
8.298000 0.4680 0.4600 0.4520 0.4430 0.4310
8.322399 0.4280 0.4180 0.3980 0.3840 0.3790
8.346000 0.3670 0.3490 0.3290 0.3180 0.3000
8.370399 0.2820 0.2640 0.2550 0.2470 0.2360
8.395000 0.2240 0.1990 0.1860 0.1830 0.1740
8.419399 0.1620 0.1450 0.1310 0.1230 0.1220
8.444000 0.1220 0.1200 0.1200 0.1200 0.1220
8.468399 0.1230 0.1280 0.1290 0.1370 0.1480
8.493000 0.1640 0.1900 0.2190 0.2310 0.2380
8.517399 0.2490 0.2570 0.2580 0.2690 0.2880
8.541000 0.2900 0.3150 0.3390 0.3510 0.3540
8.565399 0.3670 0.3690 0.3790 0.3850 0.3880
8.590000 0.3890 0.3890 0.3900 0.3890 0.3870
8.614399 0.3830 0.3820 0.3820 0.3800 0.3800
8.639000 0.3790 0.3800 0.3840 0.3880 0.3990
8.663399 0.4100 0.4220 0.4290 0.4390 0.4520
8.688000 0.4680 0.4780 0.4990 0.5000 0.5010
8.712399 0.5170 0.5180 0.5200 0.5220 0.5220
8.737000 0.5230 0.5220 0.5210 0.5200 0.5180
8.761399 0.5170 0.5170 0.5170 0.5180 0.5180
8.785000 0.5210 0.5280 0.5380 0.5480 0.5500
8.809399 0.5510 0.5540 0.5590 0.5670 0.5680
8.834000 0.5710 0.5720 0.5770 0.5780 0.5830
8.858399 0.5870 0.5870 0.5870 0.5870 0.5870
8.883000 0.5870 0.5830 0.5830 0.5820 0.5820
8.907399 0.5810 0.5790 0.5770 0.5770 0.5750
8.932000 0.5750 0.5720 0.5680 0.5670 0.5620
8.956399 0.5610 0.5570 0.5400 0.5380 0.5330
8.980000 0.5150 0.4930 0.4790 0.4630 0.4430
9.004399 0.4220 0.3960 0.3760 0.3650 0.3470
9.029000 0.3300 0.3120 0.3040 0.2860 0.2640
9.053399 0.2630 0.2640 0.2680 0.2880 0.3300
9.078000 0.3990 0.4180 0.4390 0.4510 0.4610
9.102399 0.4880 0.4990 0.5070 0.5210 0.5310
9.127000 0.5390 0.5480 0.5500 0.5510 0.5570
9.151399 0.5570 0.5570 0.5590 0.5610 0.5620
9.176000 0.5670 0.5680 0.5700 0.5720 0.5770
9.200399 0.5860 0.5880 0.5880 0.5870 0.5870
9.224000 0.5810 0.5780 0.5720 0.5670 0.5570
9.248399 0.5480 0.5380 0.5200 0.5070 0.4890
9.273000 0.4780 0.4720 0.4660 0.4570 0.4390
9.297399 0.4350 0.4230 0.4110 0.3980 0.3880
9.322000 0.3720 0.3720 0.3730 0.3730 0.3740
9.346399 0.3760 0.3930 0.4160 0.4380 0.4490
9.371000 0.4590 0.4820 0.4890 0.4950 0.5050
9.395399 0.5180 0.5270 0.5270 0.5210 0.5180
9.420000 0.5100 0.4920 0.4780 0.4610 0.4500
9.444399 0.4380 0.4210 0.4180 0.4000 0.3940
9.468000 0.3870 0.3840 0.3820 0.3820 0.3800
9.492399 0.3800 0.3800 0.3800 0.3820 0.3870
9.517000 0.3940 0.4100 0.4200 0.4280 0.4400
9.541399 0.4500 0.4780 0.4900 0.5010 0.5220
9.566000 0.5290 0.5370 0.5390 0.5490 0.5650
9.590399 0.5670 0.5720 0.5760 0.5810 0.5860
9.615000 0.5900 0.5920 0.5920 0.5940 0.5970
9.639399 0.5980 0.5980 0.5990 0.6000 0.6010
9.663000 0.6010 0.6000 0.6000 0.6000 0.5990
9.687399 0.5980 0.5890 0.5860 0.5860 0.5880
9.712000 0.5900 0.5990 0.5990 0.6010 0.6140
9.736399 0.6270 0.6310 0.6410 0.6420 0.6430
9.761000 0.6430 0.6430 0.6430 0.6430 0.6390
9.785399 0.6310 0.6210 0.6100 0.6000 0.5990
9.810000 0.5970 0.6000 0.6110 0.6200 0.6220
9.834399 0.6250 0.6280 0.6310 0.6340 0.6380
9.859000 0.6420 0.6480 0.6490 0.6520 0.6580
9.883399 0.6610 0.6650 0.6670 0.6670 0.6670
9.907000 0.6670 0.6670 0.6690 0.6690 0.6700
9.931399 0.6710 0.6720 0.6720 0.6770 0.6800
9.956000 0.6870 0.6870 0.6890 0.6910 0.6920
9.980399 0.6930 0.6980 0.6980 0.6990 0.6990
10.005000 0.6990 0.6990 0.6990 0.6990 0.6990
10.029399 0.6980 0.6980 0.6980 0.6980 0.6980
10.054000 0.6910 0.6870 0.6870 0.6830 0.6810
10.078399 0.6720 0.6640 0.6580 0.6530 0.6480
10.102000 0.6380 0.6340 0.6120 0.6000 0.5980
10.126399 0.5670 0.5590 0.5480 0.5380 0.5270
10.151000 0.5210 0.5180 0.5170 0.5170 0.5170
10.175399 0.5170 0.5170 0.5230 0.5310 0.5480
10.200000 0.5550 0.5660 0.5820 0.5880 0.5900
10.224399 0.6000 0.6090 0.6120 0.6190 0.6270
10.249000 0.6320 0.6380 0.6410 0.6420 0.6430
10.273399 0.6480 0.6490 0.6580 0.6590 0.6630
10.298000 0.6670 0.6710 0.6720 0.6770 0.6780
10.322399 0.6800 0.6810 0.6880 0.6980 0.6980
10.346000 0.7000 0.7020 0.7020 0.7020 0.7030
10.370399 0.7040 0.7040 0.7050 0.7060 0.7080
10.395000 0.7080 0.7110 0.7130 0.7140 0.7150
10.419399 0.7150 0.7170 0.7200 0.7210 0.7220
10.444000 0.7220 0.7220 0.7210 0.7190 0.7170
10.468399 0.7160 0.7160 0.7150 0.7150 0.7150
10.493000 0.7150 0.7130 0.7100 0.7080 0.7080
10.517399 0.7020 0.6990 0.6980 0.6970 0.6970
10.541000 0.6970 0.6950 0.6950 0.6980 0.6980
10.565399 0.6980 0.6980 0.6980 0.6980 0.6980
10.590000 0.6980 0.6980 0.6940 0.6920 0.6910
10.614399 0.6890 0.6880 0.6890 0.6910 0.6920
10.639000 0.6930 0.6980 0.6990 0.7000 0.7000
10.663399 0.6990 0.6990 0.6990 0.6990 0.6980
10.688000 0.6980 0.6980 0.6980 0.6920 0.6920
10.712399 0.6920 0.6910 0.6910 0.6890 0.6890
10.737000 0.6890 0.6880 0.6880 0.6820 0.6760
10.761399 0.6710 0.6670 0.6590 0.6580 0.6520
10.785000 0.6470 0.6390 0.6310 0.6310 0.6360
10.809399 0.6370 0.6380 0.6390 0.6420 0.6480
10.834000 0.6490 0.6530 0.6580 0.6580 0.6580
10.858399 0.6540 0.6530 0.6500 0.6490 0.6480
10.883000 0.6410 0.6320 0.6310 0.6300 0.6300
10.907399 0.6280 0.6270 0.6220 0.6220 0.6220
10.932000 0.6210 0.6210 0.6210 0.6210 0.6200
10.956399 0.6200 0.6200 0.6210 0.6210 0.6220
10.980000 0.6260 0.6300 0.6330 0.6380 0.6430
11.004399 0.6470 0.6490 0.6490 0.6530 0.6540
11.029000 0.6530 0.6530 0.6520 0.6500 0.6480
11.053399 0.6480 0.6430 0.6410 0.6380 0.6320
11.078000 0.6320 0.6310 0.6300 0.6270 0.6190
11.102399 0.6170 0.6110 0.6090 0.5990 0.5880
11.127000 0.5780 0.5700 0.5670 0.5510 0.5390
11.151399 0.5370 0.5170 0.4990 0.4880 0.4790
11.176000 0.4700 0.4670 0.4660 0.4660 0.4660
11.200399 0.4660 0.4680 0.4760 0.4780 0.4810
11.224000 0.4890 0.4980 0.4990 0.5010 0.5030
11.248399 0.5060 0.5070 0.5100 0.5140 0.5170
11.273000 0.5170 0.5170 0.5170 0.5180 0.5170
11.297399 0.5170 0.5090 0.5000 0.4990 0.4900
11.322000 0.4870 0.4780 0.4680 0.4630 0.4620
11.346399 0.4620 0.4610 0.4610 0.4630 0.4670
11.371000 0.4670 0.4670 0.4670 0.4670 0.4670
11.395399 0.4670 0.4670 0.4670 0.4630 0.4600
11.420000 0.4600 0.4610 0.4610 0.4610 0.4610
11.444399 0.4610 0.4620 0.4670 0.4680 0.4700
11.468000 0.4720 0.4790 0.4870 0.4890 0.4900
11.492399 0.4920 0.4920 0.4920 0.4920 0.4920
11.517000 0.4920 0.4920 0.4930 0.4930 0.4920
11.541399 0.4920 0.4920 0.4920 0.4920 0.4960
11.566000 0.4990 0.5030 0.5100 0.5170 0.5230
11.590399 0.5270 0.5310 0.5430 0.5480 0.5530
11.615000 0.5570 0.5590 0.5600 0.5610 0.5610
11.639399 0.5610 0.5650 0.5660 0.5670 0.5670
11.663000 0.5680 0.5700 0.5770 0.5790 0.5810
11.687399 0.5790 0.5810 0.5820 0.5880 0.5900
11.712000 0.5970 0.5990 0.6000 0.6040 0.6110
11.736399 0.6210 0.6270 0.6280 0.6320 0.6340
11.761000 0.6380 0.6390 0.6420 0.6420 0.6430
11.785399 0.6480 0.6490 0.6530 0.6560 0.6590
11.810000 0.6600 0.6600 0.6670 0.6690 0.6690
11.834399 0.6710 0.6730 0.6760 0.6770 0.6770
11.859000 0.6770 0.6770 0.6770 0.6770 0.6770
11.883399 0.6770 0.6770 0.6770 0.6770 0.6770
11.907000 0.6770 0.6720 0.6710 0.6710 0.6700
11.931399 0.6670 0.6640 0.6580 0.6490 0.6430
11.956000 0.6330 0.6300 0.6270 0.6200 0.6080
11.980399 0.5940 0.5870 0.5650 0.5550 0.5340
12.005000 0.5270 0.5170 0.5160 0.5150 0.5140
12.029399 0.5150 0.5160 0.5200 0.5260 0.5310
12.054000 0.5390 0.5490 0.5680 0.5810 0.5830
12.078399 0.5990 0.6010 0.6080 0.6090 0.6170
12.102000 0.6200 0.6210 0.6280 0.6410 0.6480
12.126399 0.6490 0.6500 0.6540 0.6580 0.6610
12.151000 0.6640 0.6650 0.6670 0.6690 0.6700
12.175399 0.6720 0.6730 0.6750 0.6750 0.6770
12.200000 0.6770 0.6770 0.6760 0.6760 0.6760
12.224399 0.6750 0.6730 0.6710 0.6700 0.6690
12.249000 0.6670 0.6640 0.6600 0.6580 0.6430
12.273399 0.6380 0.6300 0.6280 0.6230 0.6170
12.298000 0.6110 0.6100 0.6090 0.6000 0.5990
12.322399 0.5990 0.6090 0.6100 0.6190 0.6280
12.346000 0.6380 0.6410 0.6420 0.6580 0.6610
12.370399 0.6690 0.6700 0.6750 0.6800 0.6810
12.395000 0.6860 0.6880 0.6920 0.6970 0.7020
12.419399 0.7030 0.7080 0.7080 0.7100 0.7110
12.444000 0.7110 0.7170 0.7190 0.7200 0.7200
12.468399 0.7200 0.7200 0.7200 0.7190 0.7190
12.493000 0.7170 0.7170 0.7150 0.7160 0.7170
12.517399 0.7190 0.7190 0.7190 0.7200 0.7200
12.541000 0.7210 0.7210 0.7220 0.7250 0.7280
12.565399 0.7320 0.7370 0.7390 0.7390 0.7420
12.590000 0.7480 0.7490 0.7540 0.7580 0.7580
12.614399 0.7580 0.7600 0.7610 0.7610 0.7610
12.639000 0.7640 0.7650 0.7650 0.7660 0.7660
12.663399 0.7680 0.7680 0.7680 0.7690 0.7690
12.688000 0.7710 0.7710 0.7720 0.7720 0.7720
12.712399 0.7720 0.7720 0.7720 0.7740 0.7740
12.737000 0.7740 0.7740 0.7740 0.7740 0.7740
12.761399 0.7740 0.7760 0.7760 0.7770 0.7780
12.785000 0.7780 0.7800 0.7800 0.7800 0.7780
12.809399 0.7780 0.7780 0.7770 0.7750 0.7740
12.834000 0.7720 0.7720 0.7720 0.7720 0.7720
12.858399 0.7710 0.7700 0.7700 0.7680 0.7630
12.883000 0.7580 0.7530 0.7480 0.7410 0.7280
12.907399 0.7170 0.6990 0.6780 0.6630 0.6580
12.932000 0.6410 0.6280 0.6170 0.6100 0.5990
12.956399 0.5980 0.5980 0.6080 0.6090 0.6100
12.980000 0.6170 0.6260 0.6380 0.6440 0.6480
13.004399 0.6550 0.6610 0.6640 0.6670 0.6700
13.029000 0.6720 0.6780 0.6820 0.6870 0.6880
13.053399 0.6880 0.6880 0.6880 0.6880 0.6870
13.078000 0.6810 0.6770 0.6650 0.6520 0.6420
13.102399 0.6300 0.6100 0.6000 0.5880 0.5750
13.127000 0.5500 0.5310 0.5160 0.4950 0.4600
13.151399 0.4490 0.4390 0.4320 0.4280 0.4210
13.176000 0.4210 0.4210 0.4290 0.4380 0.4490
13.200399 0.4570 0.4680 0.4870 0.5040 0.5120
13.224000 0.5280 0.5490 0.5680 0.5780 0.5880
13.248399 0.6010 0.6110 0.6190 0.6270 0.6380
13.273000 0.6520 0.6590 0.6670 0.6710 0.6770
13.297399 0.6780 0.6880 0.6980 0.6990 0.7100
13.322000 0.7170 0.7190 0.7270 0.7270 0.7300
13.346399 0.7310 0.7380 0.7480 0.7500 0.7540
13.371000 0.7550 0.7590 0.7600 0.7610 0.7610
13.395399 0.7630 0.7640 0.7650 0.7660 0.7690
13.420000 0.7700 0.7720 0.7740 0.7760 0.7770
13.444399 0.7770 0.7780 0.7780 0.7800 0.7800
13.468000 0.7800 0.7800 0.7810 0.7810 0.7810
13.492399 0.7810 0.7810 0.7810 0.7810 0.7800
13.517000 0.7800 0.7800 0.7810 0.7810 0.7810
13.541399 0.7810 0.7820 0.7820 0.7820 0.7810
13.566000 0.7810 0.7810 0.7810 0.7800 0.7800
13.590399 0.7780 0.7770 0.7740 0.7720 0.7700
13.615000 0.7700 0.7700 0.7680 0.7600 0.7580
13.639399 0.7570 0.7500 0.7420 0.7380 0.7280
13.663000 0.7110 0.7000 0.6780 0.6600 0.6410
13.687399 0.6300 0.6200 0.6040 0.5890 0.5780
13.712000 0.5770 0.5670 0.5650 0.5610 0.5610
13.736399 0.5610 0.5610 0.5610 0.5680 0.5720
13.761000 0.5770 0.5770 0.5780 0.5790 0.5820
13.785399 0.5870 0.5870 0.5880 0.5880 0.5870
13.810000 0.5870 0.5870 0.5870 0.5870 0.5770
13.834399 0.5680 0.5670 0.5670 0.5600 0.5550
13.859000 0.5490 0.5480 0.5480 0.5470 0.5480
13.883399 0.5420 0.5380 0.5330 0.5310 0.5310
13.907000 0.5310 0.5290 0.5290 0.5290 0.5280
13.931399 0.5250 0.5250 0.5230 0.5220 0.5210
13.956000 0.5200 0.5180 0.5100 0.4990 0.4920
13.980399 0.4740 0.4620 0.4490 0.4330 0.4150
14.005000 0.3940 0.3790 0.3570 0.3490 0.3410
14.029399 0.3410 0.3400 0.3390 0.3400 0.3410
14.054000 0.3470 0.3510 0.3630 0.3710 0.3890
14.078399 0.4100 0.4200 0.4320 0.4490 0.4570
14.102000 0.4590 0.4670 0.4680 0.4680 0.4670
14.126399 0.4670 0.4610 0.4600 0.4570 0.4540
14.151000 0.4340 0.4090 0.3950 0.3680 0.3580
14.175399 0.3570 0.3440 0.3280 0.3160 0.3050
14.200000 0.2910 0.2830 0.2820 0.2840 0.2850
14.224399 0.2890 0.2990 0.3040 0.3180 0.3390
14.249000 0.3550 0.3780 0.3950 0.4040 0.4180
14.273399 0.4340 0.4420 0.4510 0.4680 0.4720
14.298000 0.4840 0.4950 0.5140 0.5280 0.5370
14.322399 0.5390 0.5490 0.5570 0.5640 0.5670
14.346000 0.5700 0.5770 0.5790 0.5870 0.5970
14.370399 0.5990 0.6000 0.6040 0.6120 0.6160
14.395000 0.6250 0.6380 0.6440 0.6490 0.6520
14.419399 0.6530 0.6600 0.6630 0.6690 0.6700
14.444000 0.6770 0.6780 0.6800 0.6800 0.6800
14.468399 0.6810 0.6880 0.6890 0.6910 0.6950
14.493000 0.6980 0.6980 0.6990 0.7040 0.7130
14.517399 0.7170 0.7190 0.7200 0.7240 0.7240
14.541000 0.7210 0.7210 0.7210 0.7210 0.7210
14.565399 0.7210 0.7210 0.7210 0.7240 0.7260
14.590000 0.7280 0.7300 0.7320 0.7350 0.7370
14.614399 0.7390 0.7410 0.7410 0.7420 0.7420
14.639000 0.7430 0.7480 0.7480 0.7480 0.7490
14.663399 0.7490 0.7490 0.7500 0.7500 0.7520
14.688000 0.7530 0.7530 0.7540 0.7540 0.7540
14.712399 0.7540 0.7580 0.7580 0.7580 0.7580
14.737000 0.7580 0.7580 0.7530 0.7500 0.7390
14.761399 0.7360 0.7310 0.7300 0.7280 0.7210
14.785000 0.7160 0.7130 0.7100 0.7060 0.7030
14.809399 0.6990 0.6970 0.6950 0.6930 0.6940
14.834000 0.6950 0.6950 0.6980 0.7000 0.7020
14.858399 0.7090 0.7100 0.7110 0.7170 0.7220
14.883000 0.7310 0.7370 0.7380 0.7410 0.7440
14.907399 0.7460 0.7470 0.7480 0.7490 0.7500
14.932000 0.7520 0.7540 0.7550 0.7550 0.7570
14.956399 0.7570 0.7580 0.7580 0.7590 0.7590
14.980000 0.7600 0.7600 0.7610 0.7610 0.7610
15.004399 0.7630 0.7630 0.7630 0.7630 0.7630
15.029000 0.7630 0.7630 0.7630 0.7630 0.7630
15.053399 0.7630 0.7630 0.7630 0.7630 0.7610
15.078000 0.7610 0.7610 0.7610 0.7610 0.7610
15.102399 0.7610 0.7610 0.7610 0.7610 0.7610
15.127000 0.7610 0.7610 0.7610 0.7610 0.7610
15.151399 0.7610 0.7610 0.7610 0.7610 0.7610
15.176000 0.7610
##END=
