##TITLE=BIS(2-AMINO-1-PROPYL) DITHIOLCARBONATE DIHYDROCHLORIDE
##JCAMP-DX=4.24
##DATA TYPE=INFRARED SPECTRUM
##CLASS=COBLENTZ
##ORIGIN=ARTHUR D. LITTLE, INC.
##OWNER=COBLENTZ SOCIETY
Collection (C) 2018 copyright by the U.S. Secretary of Commerce
on behalf of the United States of America. All rights reserved.
##DATE=Not specified, most likely prior to 1970
##MOLFORM=C7 H16 N2 S2 O  * 2 H Cl
##MP=208-211 C
##SOURCE REFERENCE=COBLENTZ NO. 4600
##$NIST ID=B6004600
##$NIST SOURCE=COBLENTZ
##$NIST IMAGE=cob4600
##SPECTROMETER/DATA SYSTEM=Not specified, most likely a prism, grating, or hybrid spectrometer.
##STATE=SOLID (MINERAL OIL MULL)
##SAMPLING PROCEDURE=TRANSMISSION
##RESOLUTION=4
##DATA PROCESSING=DIGITIZED BY NIST FROM HARD COPY
##XUNITS=MICROMETERS
##YUNITS=TRANSMITTANCE
##XFACTOR=1.000000
##YFACTOR=1
##DELTAX=000.005179
##FIRSTX=2.218
##LASTX=14.0364
##FIRSTY=0.901
##MAXX=14.0364
##MINX=2.218
##MAXY=0.991
##MINY=0.154
##NPOINTS=2283
##XYDATA=(X++(Y..Y))
2.218000 0.9010 0.9020 0.9040 0.9050 0.9060
2.243906 0.9060 0.9010 0.9020 0.9040 0.9050
2.270000 0.9060 0.9060 0.9080 0.9090 0.9090
2.295906 0.9090 0.9090 0.9080 0.9060 0.9060
2.322000 0.9050 0.9040 0.9020 0.9000 0.8990
2.347906 0.8970 0.8970 0.8970 0.8990 0.8990
2.373000 0.9000 0.9010 0.9010 0.9020 0.9040
2.398906 0.9050 0.9050 0.9050 0.9060 0.9080
2.425000 0.9090 0.9100 0.9140 0.9160 0.9220
2.450906 0.9290 0.9310 0.9360 0.9370 0.9380
2.477000 0.9420 0.9480 0.9570 0.9600 0.9610
2.502906 0.9620 0.9640 0.9650 0.9650 0.9660
2.529000 0.9660 0.9680 0.9690 0.9710 0.9730
2.554906 0.9730 0.9740 0.9750 0.9750 0.9770
2.581000 0.9780 0.9820 0.9870 0.9880 0.9880
2.606906 0.9880 0.9890 0.9890 0.9890 0.9890
2.632000 0.9890 0.9910 0.9910 0.9910 0.9910
2.657906 0.9910 0.9910 0.9910 0.9910 0.9910
2.684000 0.9910 0.9910 0.9910 0.9910 0.9890
2.709906 0.9890 0.9890 0.9890 0.9890 0.9890
2.736000 0.9910 0.9910 0.9910 0.9890 0.9890
2.761906 0.9880 0.9870 0.9830 0.9780 0.9700
2.788000 0.9610 0.9500 0.9360 0.9320 0.9280
2.813906 0.9270 0.9230 0.9190 0.9160 0.9150
2.839000 0.9110 0.9100 0.9090 0.9080 0.9040
2.864906 0.9020 0.9020 0.9010 0.8990 0.8970
2.891000 0.8960 0.8930 0.8920 0.8920 0.8910
2.916906 0.8900 0.8900 0.8900 0.8900 0.8880
2.943000 0.8880 0.8880 0.8870 0.8860 0.8860
2.968906 0.8860 0.8850 0.8850 0.8850 0.8850
2.995000 0.8830 0.8830 0.8830 0.8830 0.8830
3.020906 0.8830 0.8830 0.8830 0.8830 0.8830
3.047000 0.8820 0.8820 0.8810 0.8790 0.8780
3.072906 0.8730 0.8650 0.8620 0.8560 0.8500
3.098000 0.8400 0.8250 0.8030 0.7720 0.7630
3.123906 0.7200 0.7040 0.6960 0.6840 0.6760
3.150000 0.6740 0.6700 0.6600 0.6480 0.6330
3.175906 0.6160 0.5770 0.5600 0.5380 0.5190
3.202000 0.5170 0.5000 0.4270 0.4130 0.3970
3.227906 0.3760 0.3440 0.3370 0.3250 0.3150
3.254000 0.3030 0.2960 0.2910 0.2820 0.2750
3.279906 0.2680 0.2600 0.2540 0.2460 0.2400
3.306000 0.2320 0.2200 0.2170 0.2130 0.2100
3.331906 0.2090 0.2050 0.2030 0.1970 0.1920
3.357000 0.1910 0.1890 0.1860 0.1850 0.1820
3.382906 0.1810 0.1780 0.1760 0.1730 0.1720
3.409000 0.1710 0.1690 0.1680 0.1670 0.1660
3.434906 0.1640 0.1640 0.1630 0.1620 0.1620
3.461000 0.1590 0.1590 0.1580 0.1580 0.1570
3.486906 0.1570 0.1570 0.1550 0.1550 0.1550
3.513000 0.1570 0.1570 0.1580 0.1600 0.1620
3.538906 0.1640 0.1710 0.1800 0.1860 0.1920
3.565000 0.2010 0.2120 0.2200 0.2260 0.2290
3.590906 0.2370 0.2510 0.2680 0.2860 0.3010
3.616000 0.3030 0.3120 0.3190 0.3210 0.3240
3.641906 0.3300 0.3350 0.3370 0.3370 0.3350
3.668000 0.3340 0.3330 0.3320 0.3330 0.3420
3.693906 0.3530 0.3630 0.3760 0.3900 0.3990
3.720000 0.4020 0.4060 0.4170 0.4270 0.4360
3.745906 0.4460 0.4570 0.4690 0.4820 0.4900
3.772000 0.4960 0.5090 0.5230 0.5370 0.5500
3.797906 0.5590 0.5650 0.5690 0.5720 0.5720
3.823000 0.5730 0.5730 0.5730 0.5730 0.5730
3.848906 0.5720 0.5720 0.5720 0.5720 0.5700
3.875000 0.5680 0.5640 0.5600 0.5470 0.5220
3.900906 0.4890 0.4760 0.4820 0.4950 0.5070
3.927000 0.5380 0.5530 0.5830 0.6010 0.6190
3.952906 0.6380 0.6550 0.6670 0.6790 0.6980
3.979000 0.7020 0.7040 0.7040 0.7030 0.6990
4.004906 0.6890 0.6760 0.6480 0.6230 0.5780
4.031000 0.5530 0.5490 0.5510 0.5720 0.5870
4.056906 0.6040 0.6110 0.6180 0.6480 0.6830
4.082000 0.7010 0.7260 0.7360 0.7420 0.7450
4.107906 0.7540 0.7670 0.7730 0.7790 0.7860
4.134000 0.7990 0.8040 0.8120 0.8140 0.8170
4.159906 0.8190 0.8220 0.8220 0.8230 0.8230
4.186000 0.8230 0.8250 0.8250 0.8250 0.8250
4.211906 0.8260 0.8260 0.8260 0.8270 0.8270
4.238000 0.8270 0.8280 0.8280 0.8280 0.8280
4.263906 0.8300 0.8300 0.8300 0.8300 0.8310
4.290000 0.8310 0.8320 0.8320 0.8330 0.8330
4.315906 0.8330 0.8350 0.8360 0.8390 0.8450
4.341000 0.8500 0.8580 0.8630 0.8710 0.8740
4.366906 0.8770 0.8810 0.8820 0.8850 0.8880
4.393000 0.8910 0.8920 0.8930 0.8960 0.8970
4.418906 0.8990 0.8990 0.8990 0.9000 0.9000
4.445000 0.9010 0.9010 0.9040 0.9040 0.9050
4.470906 0.9050 0.9050 0.9080 0.9080 0.9090
4.497000 0.9090 0.9100 0.9100 0.9110 0.9110
4.522906 0.9110 0.9110 0.9130 0.9130 0.9130
4.548000 0.9140 0.9140 0.9140 0.9140 0.9140
4.573906 0.9140 0.9130 0.9130 0.9130 0.9130
4.600000 0.9130 0.9130 0.9140 0.9150 0.9150
4.625906 0.9150 0.9140 0.9130 0.9130 0.9130
4.652000 0.9130 0.9130 0.9140 0.9140 0.9150
4.677906 0.9150 0.9160 0.9160 0.9160 0.9160
4.704000 0.9150 0.9150 0.9140 0.9130 0.9110
4.729906 0.9110 0.9100 0.9090 0.9080 0.9020
4.756000 0.9010 0.8910 0.8780 0.8760 0.8720
4.781906 0.8550 0.8510 0.8460 0.8370 0.8310
4.807000 0.8280 0.8220 0.8080 0.8040 0.7950
4.832906 0.7870 0.7810 0.7730 0.7630 0.7500
4.859000 0.7340 0.7270 0.7220 0.7150 0.7110
4.884906 0.7040 0.7030 0.6980 0.6960 0.6920
4.911000 0.6890 0.6880 0.6870 0.6850 0.6850
4.936906 0.6850 0.6870 0.6880 0.6890 0.6890
4.963000 0.6920 0.6930 0.6960 0.6980 0.7030
4.988906 0.7060 0.7100 0.7150 0.7200 0.7260
5.015000 0.7340 0.7400 0.7440 0.7470 0.7530
5.040906 0.7580 0.7630 0.7710 0.7750 0.7840
5.066000 0.8070 0.8130 0.8160 0.8180 0.8220
5.091906 0.8270 0.8310 0.8320 0.8320 0.8330
5.118000 0.8330 0.8330 0.8330 0.8330 0.8350
5.143906 0.8410 0.8490 0.8550 0.8630 0.8650
5.170000 0.8680 0.8710 0.8720 0.8740 0.8770
5.195906 0.8790 0.8810 0.8810 0.8810 0.8820
5.222000 0.8820 0.8820 0.8830 0.8850 0.8860
5.247906 0.8880 0.8950 0.9000 0.9020 0.9040
5.274000 0.9050 0.9060 0.9090 0.9110 0.9110
5.299906 0.9130 0.9140 0.9160 0.9200 0.9220
5.325000 0.9220 0.9220 0.9230 0.9230 0.9230
5.350906 0.9230 0.9240 0.9250 0.9270 0.9270
5.377000 0.9280 0.9280 0.9290 0.9290 0.9310
5.402906 0.9310 0.9310 0.9310 0.9320 0.9320
5.429000 0.9320 0.9320 0.9320 0.9320 0.9320
5.454906 0.9320 0.9320 0.9320 0.9320 0.9320
5.481000 0.9320 0.9320 0.9310 0.9310 0.9310
5.506906 0.9310 0.9290 0.9290 0.9290 0.9280
5.532000 0.9270 0.9270 0.9280 0.9290 0.9290
5.557906 0.9290 0.9290 0.9290 0.9280 0.9280
5.584000 0.9270 0.9240 0.9220 0.9190 0.9140
5.609906 0.9040 0.8920 0.8790 0.8550 0.8410
5.636000 0.8280 0.8160 0.8020 0.7960 0.7910
5.661906 0.7900 0.7910 0.7930 0.7950 0.7990
5.688000 0.8040 0.8070 0.8080 0.8080 0.8090
5.713906 0.8090 0.8080 0.8080 0.8050 0.8050
5.740000 0.8040 0.8040 0.8050 0.8170 0.8270
5.765906 0.8390 0.8460 0.8480 0.8500 0.8510
5.791000 0.8510 0.8530 0.8530 0.8510 0.8490
5.816906 0.8490 0.8510 0.8530 0.8540 0.8550
5.843000 0.8550 0.8560 0.8560 0.8560 0.8560
5.868906 0.8560 0.8580 0.8580 0.8580 0.8580
5.895000 0.8580 0.8580 0.8560 0.8550 0.8540
5.920906 0.8490 0.8440 0.8370 0.8330 0.8320
5.947000 0.8260 0.8210 0.8130 0.8040 0.8020
5.972906 0.7960 0.7940 0.7930 0.7860 0.7790
5.999000 0.7650 0.7440 0.7100 0.6870 0.6610
6.024906 0.6320 0.5580 0.5130 0.4480 0.4410
6.050000 0.4350 0.3890 0.2960 0.2960 0.3050
6.075906 0.3400 0.3750 0.4080 0.4730 0.5000
6.102000 0.5260 0.5370 0.5440 0.5830 0.6230
6.127906 0.7040 0.7100 0.7200 0.7270 0.7340
6.154000 0.7350 0.7360 0.7350 0.7340 0.7310
6.179906 0.7240 0.7110 0.6900 0.6590 0.6300
6.206000 0.5320 0.5030 0.4020 0.4020 0.4320
6.231906 0.4720 0.5100 0.5550 0.5860 0.6150
6.258000 0.6650 0.6740 0.6750 0.6750 0.6740
6.283906 0.6550 0.6300 0.5780 0.5510 0.5210
6.309000 0.4860 0.3880 0.2680 0.2660 0.2680
6.334906 0.2740 0.2830 0.3020 0.3350 0.3670
6.361000 0.4310 0.4590 0.4860 0.5400 0.5740
6.386906 0.5930 0.6020 0.6100 0.6160 0.6410
6.413000 0.6890 0.7030 0.7160 0.7300 0.7380
6.438906 0.7420 0.7430 0.7440 0.7470 0.7480
6.465000 0.7490 0.7520 0.7530 0.7540 0.7560
6.490906 0.7610 0.7760 0.7850 0.7930 0.7980
6.516000 0.8040 0.8120 0.8130 0.8140 0.8140
6.541906 0.8140 0.8130 0.8130 0.8120 0.8100
6.568000 0.8080 0.8070 0.8050 0.8040 0.7940
6.593906 0.7770 0.7520 0.7310 0.7160 0.7040
6.620000 0.6890 0.6750 0.6550 0.6180 0.5310
6.645906 0.4910 0.4020 0.3750 0.2920 0.2560
6.672000 0.2320 0.1910 0.1900 0.1910 0.2140
6.697906 0.2290 0.2450 0.2800 0.3200 0.3400
6.724000 0.3690 0.3970 0.4290 0.4580 0.4750
6.749906 0.4760 0.4800 0.4800 0.4760 0.4670
6.775000 0.4570 0.4410 0.4360 0.4180 0.3940
6.800906 0.3650 0.3260 0.3190 0.3110 0.3100
6.827000 0.3110 0.3120 0.3140 0.3180 0.3240
6.852906 0.3300 0.3480 0.3560 0.3630 0.3690
6.879000 0.3900 0.4020 0.4060 0.4260 0.4480
6.904906 0.4580 0.4760 0.4840 0.4900 0.5080
6.931000 0.5310 0.5400 0.5470 0.5560 0.5650
6.956906 0.5920 0.6190 0.6440 0.6660 0.6960
6.983000 0.7120 0.7270 0.7390 0.7450 0.7520
7.008906 0.7610 0.7750 0.7840 0.7900 0.7940
7.034000 0.7980 0.7990 0.7990 0.8020 0.8070
7.059906 0.8140 0.8160 0.8160 0.8160 0.8140
7.086000 0.8140 0.8100 0.8090 0.8070 0.8050
7.111906 0.8020 0.7910 0.7800 0.6800 0.6640
7.138000 0.6180 0.5320 0.4400 0.4130 0.4120
7.163906 0.4150 0.4500 0.4720 0.4920 0.5640
7.190000 0.5680 0.5700 0.5700 0.5440 0.5270
7.215906 0.5100 0.5070 0.4340 0.4220 0.3760
7.242000 0.3010 0.3010 0.3240 0.3460 0.3670
7.267906 0.4110 0.4320 0.4780 0.4950 0.5100
7.293000 0.5560 0.5750 0.5830 0.5880 0.5970
7.318906 0.6000 0.5980 0.5950 0.5860 0.5720
7.345000 0.5330 0.5040 0.4980 0.4980 0.5260
7.370906 0.5740 0.6070 0.6230 0.6380 0.6730
7.397000 0.6850 0.6960 0.6980 0.7060 0.7070
7.422906 0.7060 0.6940 0.6850 0.6700 0.6530
7.449000 0.5720 0.5720 0.5790 0.5920 0.6140
7.474906 0.6340 0.6940 0.7160 0.7310 0.7470
7.500000 0.7620 0.7810 0.7930 0.8000 0.8040
7.525906 0.8090 0.8170 0.8180 0.8260 0.8280
7.552000 0.8330 0.8350 0.8360 0.8360 0.8370
7.577906 0.8390 0.8400 0.8400 0.8410 0.8420
7.604000 0.8440 0.8440 0.8440 0.8440 0.8440
7.629906 0.8440 0.8450 0.8450 0.8450 0.8460
7.656000 0.8460 0.8460 0.8460 0.8460 0.8480
7.681906 0.8480 0.8480 0.8480 0.8480 0.8480
7.708000 0.8480 0.8490 0.8490 0.8490 0.8500
7.733906 0.8500 0.8530 0.8540 0.8550 0.8560
7.759000 0.8580 0.8590 0.8590 0.8620 0.8620
7.784906 0.8630 0.8630 0.8640 0.8640 0.8640
7.811000 0.8650 0.8650 0.8670 0.8670 0.8670
7.836906 0.8650 0.8650 0.8650 0.8640 0.8600
7.863000 0.8580 0.8460 0.8350 0.8210 0.8050
7.888906 0.7860 0.7650 0.7220 0.7160 0.7080
7.915000 0.6990 0.6990 0.7070 0.7390 0.7480
7.940906 0.7570 0.7670 0.7710 0.7730 0.7750
7.967000 0.7750 0.7720 0.7520 0.7440 0.6870
7.992906 0.6460 0.5550 0.5120 0.4480 0.3720
8.018000 0.3090 0.3090 0.3160 0.3440 0.3940
8.043906 0.4430 0.4710 0.4980 0.5410 0.5790
8.070000 0.6160 0.6560 0.6780 0.6940 0.7100
8.095906 0.7270 0.7400 0.7470 0.7530 0.7670
8.122000 0.7820 0.8000 0.8090 0.8140 0.8160
8.147906 0.8190 0.8250 0.8270 0.8280 0.8300
8.174000 0.8300 0.8310 0.8320 0.8320 0.8320
8.199906 0.8320 0.8310 0.8300 0.8280 0.8250
8.226000 0.8170 0.7840 0.7660 0.7610 0.6870
8.251906 0.6610 0.6360 0.5860 0.5600 0.5360
8.277000 0.5100 0.4850 0.4690 0.4300 0.4040
8.302906 0.3900 0.3630 0.3370 0.3300 0.3290
8.329000 0.3290 0.3330 0.3350 0.3390 0.3490
8.354906 0.3610 0.3710 0.4110 0.4400 0.4670
8.381000 0.4940 0.5210 0.5630 0.5870 0.5980
8.406906 0.6130 0.6250 0.6570 0.6880 0.7100
8.433000 0.7360 0.7420 0.7450 0.7490 0.7560
8.458906 0.7610 0.7680 0.7730 0.7820 0.7870
8.484000 0.7950 0.8030 0.8080 0.8090 0.8160
8.509906 0.8180 0.8190 0.8220 0.8260 0.8310
8.536000 0.8330 0.8330 0.8350 0.8350 0.8350
8.561906 0.8350 0.8360 0.8360 0.8360 0.8370
8.588000 0.8390 0.8390 0.8390 0.8390 0.8400
8.613906 0.8410 0.8420 0.8440 0.8450 0.8450
8.640000 0.8450 0.8450 0.8450 0.8450 0.8450
8.665906 0.8460 0.8460 0.8460 0.8480 0.8490
8.692000 0.8490 0.8490 0.8500 0.8510 0.8540
8.717906 0.8550 0.8550 0.8560 0.8560 0.8590
8.743000 0.8600 0.8620 0.8620 0.8620 0.8620
8.768906 0.8600 0.8590 0.8590 0.8580 0.8580
8.795000 0.8580 0.8580 0.8590 0.8590 0.8600
8.820906 0.8620 0.8630 0.8630 0.8600 0.8560
8.847000 0.8560 0.8550 0.8510 0.8490 0.8460
8.872906 0.8370 0.8160 0.7870 0.7560 0.6800
8.899000 0.6390 0.5380 0.5330 0.5090 0.4390
8.924906 0.4390 0.4750 0.4940 0.5120 0.5450
8.951000 0.5790 0.6100 0.6280 0.6440 0.6600
8.976906 0.7220 0.7390 0.7560 0.7750 0.7850
9.002000 0.8030 0.8080 0.8130 0.8170 0.8220
9.027906 0.8260 0.8300 0.8300 0.8320 0.8350
9.054000 0.8360 0.8360 0.8350 0.8330 0.8330
9.079906 0.8320 0.8280 0.8270 0.8220 0.8170
9.106000 0.8090 0.7930 0.7730 0.7620 0.7030
9.131906 0.6920 0.6600 0.5830 0.5320 0.4870
9.158000 0.4480 0.4460 0.4490 0.4630 0.4770
9.183906 0.4900 0.5120 0.5470 0.5810 0.6130
9.210000 0.6240 0.6340 0.6530 0.6900 0.7270
9.235906 0.7380 0.7480 0.7660 0.7760 0.7860
9.261000 0.7990 0.8090 0.8180 0.8220 0.8300
9.286906 0.8370 0.8410 0.8450 0.8460 0.8460
9.313000 0.8490 0.8490 0.8500 0.8550 0.8580
9.338906 0.8620 0.8630 0.8630 0.8640 0.8650
9.365000 0.8650 0.8650 0.8650 0.8670 0.8680
9.390906 0.8710 0.8720 0.8760 0.8770 0.8770
9.417000 0.8780 0.8780 0.8780 0.8790 0.8790
9.442906 0.8790 0.8790 0.8790 0.8790 0.8790
9.468000 0.8790 0.8790 0.8790 0.8780 0.8780
9.493906 0.8740 0.8720 0.8650 0.8650 0.8620
9.520000 0.8600 0.8590 0.8560 0.8490 0.8460
9.545906 0.8450 0.8440 0.8440 0.8440 0.8440
9.572000 0.8450 0.8460 0.8480 0.8490 0.8500
9.597906 0.8510 0.8530 0.8550 0.8580 0.8600
9.624000 0.8630 0.8640 0.8680 0.8710 0.8720
9.649906 0.8730 0.8740 0.8760 0.8760 0.8770
9.676000 0.8770 0.8780 0.8790 0.8790 0.8810
9.701906 0.8810 0.8820 0.8820 0.8820 0.8820
9.727000 0.8820 0.8830 0.8850 0.8850 0.8850
9.752906 0.8860 0.8860 0.8860 0.8860 0.8860
9.779000 0.8860 0.8860 0.8860 0.8860 0.8860
9.804906 0.8850 0.8850 0.8850 0.8830 0.8820
9.831000 0.8820 0.8820 0.8810 0.8790 0.8790
9.856906 0.8790 0.8780 0.8740 0.8530 0.8370
9.883000 0.8270 0.7680 0.7580 0.7470 0.7020
9.908906 0.6660 0.6370 0.5140 0.4380 0.4080
9.935000 0.3980 0.3950 0.3980 0.4180 0.4450
9.960906 0.4710 0.4850 0.4980 0.5220 0.5440
9.986000 0.5590 0.5730 0.5870 0.6100 0.6150
10.011906 0.6200 0.6520 0.6880 0.7190 0.7380
10.038000 0.7570 0.7810 0.8040 0.8220 0.8280
10.063906 0.8350 0.8410 0.8460 0.8490 0.8540
10.090000 0.8560 0.8590 0.8600 0.8620 0.8620
10.115906 0.8630 0.8640 0.8650 0.8670 0.8670
10.142000 0.8670 0.8650 0.8640 0.8630 0.8580
10.167906 0.8490 0.8370 0.8280 0.8210 0.8050
10.194000 0.7910 0.7750 0.7490 0.7260 0.7220
10.219906 0.7220 0.7250 0.7350 0.7470 0.7570
10.245000 0.7700 0.7820 0.7910 0.7980 0.8050
10.270906 0.8120 0.8190 0.8260 0.8330 0.8390
10.297000 0.8420 0.8460 0.8460 0.8500 0.8540
10.322906 0.8560 0.8590 0.8640 0.8680 0.8720
10.349000 0.8740 0.8760 0.8770 0.8790 0.8810
10.374906 0.8850 0.8860 0.8860 0.8870 0.8880
10.401000 0.8900 0.8900 0.8900 0.8900 0.8910
10.426906 0.8910 0.8920 0.8920 0.8930 0.8930
10.452000 0.8950 0.8960 0.8960 0.8970 0.8970
10.477906 0.8970 0.8960 0.8960 0.8950 0.8930
10.504000 0.8910 0.8880 0.8870 0.8810 0.8760
10.529906 0.8560 0.8460 0.8350 0.8230 0.8120
10.556000 0.8030 0.7950 0.7870 0.7720 0.7680
10.581906 0.7680 0.7710 0.7800 0.7890 0.7960
10.608000 0.8030 0.8100 0.8190 0.8270 0.8320
10.633906 0.8370 0.8410 0.8480 0.8550 0.8590
10.660000 0.8620 0.8650 0.8680 0.8710 0.8720
10.685906 0.8730 0.8760 0.8780 0.8790 0.8790
10.711000 0.8810 0.8820 0.8820 0.8830 0.8860
10.736906 0.8860 0.8870 0.8880 0.8880 0.8880
10.763000 0.8880 0.8870 0.8870 0.8860 0.8860
10.788906 0.8850 0.8850 0.8830 0.8830 0.8830
10.815000 0.8830 0.8850 0.8850 0.8850 0.8860
10.840906 0.8860 0.8860 0.8850 0.8850 0.8830
10.867000 0.8820 0.8810 0.8810 0.8790 0.8790
10.892906 0.8780 0.8770 0.8770 0.8760 0.8740
10.919000 0.8740 0.8740 0.8740 0.8730 0.8720
10.944906 0.8670 0.8640 0.8620 0.8600 0.8590
10.970000 0.8580 0.8550 0.8540 0.8510 0.8490
10.995906 0.8480 0.8440 0.8410 0.8370 0.8330
11.022000 0.8300 0.8260 0.8230 0.8190 0.8140
11.047906 0.8090 0.8030 0.7940 0.7890 0.7840
11.074000 0.7770 0.7750 0.7700 0.7660 0.7570
11.099906 0.7480 0.7350 0.7290 0.7210 0.7160
11.126000 0.7100 0.7020 0.6850 0.6710 0.6590
11.151906 0.6470 0.6360 0.6250 0.6150 0.5910
11.177000 0.5770 0.5610 0.5420 0.5190 0.5130
11.202906 0.5040 0.4920 0.4580 0.4350 0.4070
11.229000 0.3720 0.3280 0.3070 0.2890 0.2720
11.254906 0.2560 0.2430 0.2310 0.2090 0.2010
11.281000 0.1940 0.1870 0.1820 0.1770 0.1760
11.306906 0.1740 0.1690 0.1670 0.1640 0.1630
11.333000 0.1620 0.1590 0.1580 0.1570 0.1570
11.358906 0.1550 0.1550 0.1540 0.1540 0.1540
11.385000 0.1540 0.1540 0.1540 0.1550 0.1570
11.410906 0.1580 0.1640 0.1720 0.1770 0.1890
11.436000 0.2060 0.2240 0.2340 0.2430 0.2570
11.461906 0.2830 0.3020 0.3150 0.3240 0.3460
11.488000 0.3670 0.3800 0.3950 0.4110 0.4240
11.513906 0.4350 0.4450 0.4550 0.4640 0.4690
11.540000 0.4720 0.4730 0.4750 0.4760 0.4850
11.565906 0.4850 0.4810 0.4770 0.4680 0.4630
11.592000 0.4450 0.4300 0.4110 0.3830 0.3600
11.617906 0.2700 0.2490 0.2060 0.1960 0.1920
11.644000 0.1810 0.1770 0.1720 0.1680 0.1670
11.669906 0.1640 0.1630 0.1630 0.1640 0.1660
11.695000 0.1710 0.1800 0.1890 0.2010 0.2170
11.720906 0.2260 0.2340 0.2520 0.2690 0.2800
11.747000 0.2960 0.3100 0.3210 0.3380 0.3550
11.772906 0.3620 0.3690 0.3830 0.3970 0.4090
11.799000 0.4220 0.4340 0.4450 0.4570 0.4680
11.824906 0.4800 0.4860 0.4910 0.5010 0.5070
11.851000 0.5140 0.5240 0.5350 0.5450 0.5500
11.876906 0.5600 0.5700 0.5790 0.5870 0.5950
11.903000 0.6040 0.6110 0.6150 0.6180 0.6250
11.928906 0.6410 0.6480 0.6510 0.6590 0.6700
11.954000 0.6760 0.6810 0.6870 0.6920 0.6980
11.979906 0.7040 0.7110 0.7170 0.7240 0.7310
12.006000 0.7360 0.7400 0.7430 0.7480 0.7530
12.031906 0.7570 0.7590 0.7610 0.7650 0.7670
12.058000 0.7680 0.7700 0.7730 0.7760 0.7790
12.083906 0.7840 0.7850 0.7870 0.7910 0.7950
12.110000 0.7960 0.7990 0.8030 0.8040 0.8040
12.135906 0.8050 0.8070 0.8080 0.8090 0.8100
12.161000 0.8120 0.8130 0.8140 0.8160 0.8160
12.186906 0.8170 0.8180 0.8190 0.8220 0.8230
12.213000 0.8230 0.8250 0.8260 0.8270 0.8300
12.238906 0.8310 0.8310 0.8320 0.8330 0.8330
12.265000 0.8330 0.8350 0.8360 0.8360 0.8370
12.290906 0.8390 0.8410 0.8440 0.8450 0.8450
12.317000 0.8450 0.8460 0.8480 0.8480 0.8490
12.342906 0.8490 0.8500 0.8500 0.8510 0.8510
12.369000 0.8530 0.8530 0.8510 0.8510 0.8500
12.394906 0.8490 0.8490 0.8480 0.8450 0.8440
12.420000 0.8420 0.8410 0.8400 0.8400 0.8400
12.445906 0.8410 0.8410 0.8420 0.8420 0.8440
12.472000 0.8440 0.8450 0.8450 0.8460 0.8480
12.497906 0.8480 0.8490 0.8500 0.8500 0.8510
12.524000 0.8530 0.8550 0.8560 0.8590 0.8630
12.549906 0.8640 0.8650 0.8670 0.8690 0.8710
12.576000 0.8720 0.8720 0.8740 0.8780 0.8820
12.601906 0.8850 0.8910 0.8970 0.8990 0.9010
12.628000 0.9020 0.9020 0.9040 0.9040 0.9050
12.653906 0.9050 0.9060 0.9060 0.9060 0.9060
12.679000 0.9060 0.9080 0.9080 0.9090 0.9090
12.704906 0.9090 0.9100 0.9100 0.9100 0.9110
12.731000 0.9110 0.9130 0.9130 0.9130 0.9140
12.756906 0.9160 0.9190 0.9220 0.9220 0.9220
12.783000 0.9220 0.9230 0.9230 0.9230 0.9240
12.808906 0.9240 0.9240 0.9240 0.9240 0.9240
12.835000 0.9240 0.9250 0.9250 0.9250 0.9270
12.860906 0.9270 0.9270 0.9270 0.9270 0.9280
12.887000 0.9280 0.9280 0.9280 0.9280 0.9290
12.912906 0.9290 0.9290 0.9290 0.9290 0.9290
12.938000 0.9310 0.9310 0.9310 0.9310 0.9320
12.963906 0.9320 0.9320 0.9310 0.9290 0.9290
12.990000 0.9290 0.9290 0.9310 0.9310 0.9310
13.015906 0.9320 0.9320 0.9320 0.9320 0.9320
13.042000 0.9310 0.9310 0.9310 0.9310 0.9310
13.067906 0.9310 0.9310 0.9310 0.9320 0.9320
13.094000 0.9320 0.9320 0.9320 0.9330 0.9330
13.119906 0.9330 0.9320 0.9320 0.9320 0.9320
13.145000 0.9320 0.9320 0.9320 0.9320 0.9320
13.170906 0.9320 0.9330 0.9330 0.9330 0.9330
13.197000 0.9340 0.9370 0.9390 0.9410 0.9410
13.222906 0.9420 0.9420 0.9420 0.9420 0.9420
13.249000 0.9420 0.9420 0.9430 0.9430 0.9430
13.274906 0.9420 0.9420 0.9420 0.9430 0.9430
13.301000 0.9450 0.9460 0.9460 0.9460 0.9460
13.326906 0.9460 0.9460 0.9460 0.9470 0.9470
13.353000 0.9470 0.9470 0.9470 0.9470 0.9460
13.378906 0.9460 0.9460 0.9460 0.9460 0.9460
13.404000 0.9460 0.9460 0.9460 0.9460 0.9460
13.429906 0.9450 0.9450 0.9450 0.9450 0.9450
13.456000 0.9450 0.9450 0.9450 0.9430 0.9430
13.481906 0.9430 0.9430 0.9430 0.9420 0.9420
13.508000 0.9420 0.9410 0.9380 0.9360 0.9340
13.533906 0.9330 0.9310 0.9310 0.9270 0.9240
13.560000 0.9230 0.9190 0.9190 0.9110 0.9080
13.585906 0.9050 0.9000 0.8920 0.8820 0.8720
13.612000 0.8510 0.8410 0.8300 0.8230 0.8160
13.637906 0.8130 0.8120 0.8100 0.8100 0.8100
13.663000 0.8120 0.8120 0.8130 0.8140 0.8160
13.688906 0.8190 0.8220 0.8230 0.8280 0.8300
13.715000 0.8350 0.8370 0.8400 0.8420 0.8440
13.740906 0.8460 0.8490 0.8510 0.8540 0.8560
13.767000 0.8590 0.8620 0.8630 0.8650 0.8650
13.792906 0.8690 0.8710 0.8720 0.8730 0.8740
13.819000 0.8760 0.8770 0.8770 0.8770 0.8770
13.844906 0.8780 0.8790 0.8810 0.8820 0.8820
13.871000 0.8820 0.8820 0.8820 0.8820 0.8830
13.896906 0.8830 0.8830 0.8830 0.8830 0.8830
13.922000 0.8830 0.8830 0.8830 0.8830 0.8850
13.947906 0.8850 0.8850 0.8860 0.8870 0.8900
13.974000 0.8920 0.8960 0.8970 0.8990 0.9000
13.999906 0.9040 0.9060 0.9080 0.9090 0.9130
14.026000 0.9160 0.9200 0.9240
##END=
