##TITLE=3Beta-HYDROXY-16,17-SECOESTRA-5(10),6,8-TRIEN-17-OIC ACID
##JCAMP-DX=4.24
##DATA TYPE=INFRARED SPECTRUM
##CLASS=COBLENTZ III
##ORIGIN=THE WORCESTER FOUNDATION FOR EXPERIMENTAL BIOLOGY, Neal L. McNiven
##OWNER=COBLENTZ SOCIETY
Collection (C) 2018 copyright by the U.S. Secretary of Commerce
on behalf of the United States of America. All rights reserved.
##DATE=1964/06/29
##NAMES=1-ethyl-7-hydroxy-2-methyl-1,2,3,4,5,6,7,8-octahydro-2-phenanthrenecarboxylic acid
##MOLFORM=C18 H24 O3
##SOURCE REFERENCE=COBLENTZ NO. 5484
##$NIST ID=B6005484
##$NIST SOURCE=COBLENTZ
##$NIST IMAGE=cob5484
##SPECTROMETER/DATA SYSTEM=BECKMAN IR-7
##STATE=SOLID (KBr DISC)
##SAMPLING PROCEDURE=TRANSMISSION
##RESOLUTION=4
##DATA PROCESSING=DIGITIZED BY NIST FROM HARD COPY (FROM TWO SEGMENTS)
##XUNITS=1/CM
##YUNITS=TRANSMITTANCE
##XFACTOR=1.000000
##YFACTOR=1
##DELTAX=0.727653
##FIRSTX=603.638
##LASTX=4040.34
##FIRSTY=0.677
##MAXX=4040.34
##MINX=603.638
##MAXY=0.847
##MINY=0.031
##NPOINTS=4724
##XYDATA=(X++(Y..Y))
603.638000 0.6770 0.6790 0.6830 0.6860 0.6930
607.276263 0.6960 0.7000 0.7020 0.7060 0.7080
610.914526 0.7100 0.7120 0.7130 0.7120 0.7120
614.552788 0.7110 0.7100 0.7060 0.7040 0.7010
618.191051 0.6980 0.6950 0.6850 0.6740 0.6730
621.829314 0.6740 0.6750 0.6770 0.6780 0.6790
625.467577 0.6790 0.6800 0.6820 0.6840 0.6900
629.105840 0.6950 0.7010 0.7030 0.7030 0.7040
632.744103 0.7050 0.7050 0.6980 0.6910 0.6621
636.382365 0.6271 0.6180 0.6080 0.6040 0.5881
640.020628 0.5720 0.5570 0.5570 0.5580 0.5680
643.658891 0.5800 0.5910 0.6030 0.6249 0.6349
647.297154 0.6570 0.6630 0.6710 0.6850 0.6990
650.935417 0.7010 0.7060 0.7110 0.7180 0.7250
654.573680 0.7320 0.7350 0.7380 0.7400 0.7440
658.211942 0.7450 0.7460 0.7470 0.7480 0.7490
661.850205 0.7480 0.7470 0.7460 0.7440 0.7380
665.488468 0.7370 0.7340 0.7340 0.7330 0.7320
669.126731 0.7320 0.7290 0.7200 0.7200 0.7320
672.764994 0.7380 0.7430 0.7510 0.7530 0.7570
676.403256 0.7610 0.7670 0.7730 0.7770 0.7800
680.041519 0.7870 0.7880 0.7910 0.7940 0.7960
683.679782 0.7970 0.7980 0.7980 0.7980 0.7990
687.318045 0.8010 0.8020 0.8020 0.8030 0.8030
690.956308 0.8040 0.8040 0.8040 0.8050 0.8050
694.594571 0.8060 0.8060 0.8060 0.8070 0.8090
698.232833 0.8100 0.8130 0.8150 0.8170 0.8180
701.871096 0.8200 0.8220 0.8230 0.8250 0.8260
705.509359 0.8280 0.8300 0.8320 0.8340 0.8380
709.147622 0.8380 0.8380 0.8380 0.8370 0.8360
712.785885 0.8350 0.8350 0.8350 0.8340 0.8330
716.424147 0.8330 0.8300 0.8280 0.8230 0.8210
720.062410 0.8200 0.8190 0.8190 0.8220 0.8250
723.700673 0.8270 0.8330 0.8360 0.8410 0.8420
727.338936 0.8430 0.8430 0.8440 0.8450 0.8450
730.977199 0.8460 0.8460 0.8460 0.8460 0.8430
734.615462 0.8430 0.8420 0.8420 0.8420 0.8470
738.253724 0.8470 0.8450 0.8410 0.8390 0.8350
741.891987 0.8330 0.8320 0.8310 0.8300 0.8290
745.530250 0.8280 0.8260 0.8250 0.8220 0.8190
749.168513 0.8140 0.8090 0.8010 0.7880 0.7870
752.806776 0.7750 0.7630 0.7520 0.7470 0.7410
756.445039 0.6930 0.6760 0.6700 0.6430 0.6161
760.083301 0.5921 0.5890 0.5870 0.5880 0.5920
763.721564 0.6110 0.6330 0.6420 0.6560 0.6710
767.359827 0.6740 0.6770 0.6770 0.6770 0.6690
770.998090 0.6510 0.6290 0.6160 0.6030 0.5761
774.636353 0.5501 0.5241 0.4991 0.4602 0.4590
778.274615 0.4600 0.4790 0.5150 0.5230 0.5420
781.912878 0.5739 0.6309 0.6499 0.6729 0.6929
785.551141 0.7110 0.7140 0.7260 0.7360 0.7410
789.189404 0.7510 0.7510 0.7490 0.7470 0.7420
792.827667 0.7310 0.7180 0.6530 0.6090 0.5651
796.465930 0.5251 0.4851 0.4311 0.4131 0.4120
800.104192 0.4120 0.4450 0.4770 0.5080 0.5399
803.742455 0.5789 0.6279 0.6509 0.6520 0.6570
807.380718 0.6580 0.6600 0.6610 0.6230 0.5840
811.018981 0.5031 0.4980 0.4930 0.4810 0.4232
814.657244 0.4230 0.4290 0.5009 0.5230 0.5599
818.295506 0.6259 0.6519 0.6819 0.7079 0.7090
821.933769 0.7130 0.7140 0.7180 0.7220 0.7250
825.572032 0.7310 0.7320 0.7500 0.7510 0.7679
829.210295 0.7720 0.7760 0.7840 0.7850 0.7860
832.848558 0.7880 0.7890 0.7910 0.7920 0.7930
836.486821 0.7940 0.7940 0.7950 0.7950 0.7950
840.125083 0.7950 0.7950 0.7940 0.7940 0.7920
843.763346 0.7900 0.7880 0.7860 0.7850 0.7830
847.401609 0.7810 0.7690 0.7531 0.7510 0.7510
851.039872 0.7500 0.7490 0.7480 0.7440 0.7300
854.678135 0.7140 0.7030 0.6950 0.6930 0.6920
858.316398 0.6930 0.6980 0.7030 0.7090 0.7180
861.954660 0.7190 0.7220 0.7240 0.7260 0.7280
865.592923 0.7290 0.7300 0.7350 0.7410 0.7410
869.231186 0.7410 0.7400 0.7191 0.7160 0.7110
872.869449 0.7020 0.6770 0.6580 0.6530 0.6520
876.507712 0.6520 0.6620 0.6750 0.6870 0.6990
880.145974 0.7190 0.7230 0.7320 0.7340 0.7370
883.784237 0.7390 0.7400 0.7400 0.7400 0.7410
887.422500 0.7410 0.7410 0.7400 0.7380 0.7370
891.060763 0.7350 0.7300 0.7160 0.7150 0.7050
894.699026 0.6970 0.6910 0.6830 0.6790 0.6770
898.337289 0.6740 0.6720 0.6680 0.6570 0.6461
901.975551 0.6290 0.6190 0.6100 0.5910 0.5730
905.613814 0.5510 0.5480 0.5480 0.5620 0.5740
909.252077 0.5750 0.6020 0.6080 0.6260 0.6320
912.890340 0.6390 0.6500 0.6510 0.6530 0.6540
916.528603 0.6500 0.6470 0.6430 0.6400 0.6310
920.166865 0.6210 0.6100 0.5980 0.5830 0.5770
923.805128 0.5690 0.5680 0.5680 0.5710 0.5740
927.443391 0.5760 0.5820 0.5850 0.5920 0.5970
931.081654 0.6000 0.6000 0.6010 0.6010 0.6030
934.719917 0.6030 0.6030 0.6040 0.6030 0.6000
938.358180 0.5980 0.5940 0.5920 0.5910 0.5880
941.996442 0.5870 0.5860 0.5850 0.5840 0.5840
945.634705 0.5840 0.5840 0.5820 0.5780 0.5680
949.272968 0.5570 0.5550 0.5540 0.5550 0.5550
952.911231 0.5590 0.5680 0.5760 0.5920 0.5930
956.549494 0.5970 0.6010 0.6030 0.6050 0.6080
960.187757 0.6110 0.6130 0.6160 0.6190 0.6210
963.826019 0.6290 0.6320 0.6350 0.6400 0.6520
967.464282 0.6610 0.6630 0.6630 0.6620 0.6610
971.102545 0.6590 0.6560 0.6520 0.6430 0.6420
974.740808 0.6310 0.6260 0.6210 0.6100 0.5950
978.379071 0.5730 0.5500 0.5051 0.4671 0.4281
982.017333 0.4260 0.4280 0.4520 0.5019 0.5280
985.655596 0.5420 0.5580 0.6278 0.6360 0.6440
989.293859 0.6500 0.6500 0.6510 0.6520 0.6530
992.932122 0.6540 0.6550 0.6550 0.6530 0.6500
996.570385 0.6480 0.6460 0.6400 0.6340 0.6310
1000.208648 0.6270 0.6250 0.6220 0.6190 0.6130
1003.846910 0.6000 0.5950 0.5930 0.5920 0.5920
1007.485173 0.5870 0.5780 0.5710 0.5590 0.5480
1011.123436 0.5390 0.5250 0.5150 0.5020 0.4930
1014.761699 0.4830 0.4660 0.4570 0.4490 0.4410
1018.399962 0.4170 0.4100 0.4120 0.4200 0.4290
1022.038225 0.4510 0.4520 0.4550 0.4550 0.4510
1025.676487 0.4500 0.4330 0.4250 0.4140 0.3960
1029.314750 0.3820 0.3620 0.3431 0.3251 0.3001
1032.953013 0.2800 0.2540 0.2400 0.2270 0.2020
1036.591276 0.1710 0.1421 0.1280 0.1140 0.1130
1040.229539 0.1130 0.1130 0.1350 0.1460 0.1570
1043.867801 0.1660 0.1790 0.1989 0.2269 0.2509
1047.506064 0.2690 0.2900 0.3040 0.3080 0.3080
1051.144327 0.2840 0.2700 0.2560 0.2500 0.2430
1054.782590 0.2410 0.2300 0.2300 0.2650 0.2820
1058.420853 0.3209 0.3459 0.3939 0.4099 0.4150
1062.059116 0.4150 0.4040 0.3900 0.3760 0.3700
1065.697378 0.3620 0.3490 0.3350 0.3210 0.3070
1069.335641 0.2950 0.2950 0.2990 0.3320 0.3480
1072.973904 0.3779 0.4029 0.4150 0.4309 0.4430
1076.612167 0.4590 0.4720 0.5020 0.5210 0.5310
1080.250430 0.5360 0.5390 0.5410 0.5440 0.5500
1083.888692 0.5510 0.5530 0.5560 0.5620 0.5710
1087.526955 0.5740 0.5850 0.5860 0.5890 0.5920
1091.165218 0.5920 0.5920 0.5930 0.5940 0.5950
1094.803481 0.5950 0.5950 0.5940 0.5930 0.5900
1098.441744 0.5890 0.5720 0.5650 0.5580 0.5500
1102.080007 0.5430 0.5270 0.5200 0.5021 0.4980
1105.718269 0.4940 0.4810 0.4600 0.4440 0.4230
1109.356532 0.3950 0.3850 0.3840 0.3830 0.3840
1112.994795 0.3940 0.4030 0.4220 0.4230 0.4250
1116.633058 0.4390 0.4580 0.4750 0.4820 0.4840
1120.271321 0.4840 0.4840 0.4810 0.4650 0.4410
1123.909584 0.4310 0.4090 0.3940 0.3840 0.3760
1127.547846 0.3750 0.3730 0.3700 0.3780 0.4210
1131.186109 0.4450 0.4590 0.4710 0.4810 0.5149
1134.824372 0.5310 0.5520 0.5620 0.5730 0.5790
1138.462635 0.5950 0.5960 0.6030 0.6040 0.6050
1142.100898 0.6060 0.6090 0.6080 0.6080 0.6060
1145.739160 0.6030 0.5990 0.5910 0.5860 0.5840
1149.377423 0.5820 0.5770 0.5730 0.5680 0.5620
1153.015686 0.5600 0.5550 0.5430 0.5340 0.5151
1156.653949 0.5130 0.5030 0.4940 0.4780 0.4720
1160.292212 0.4600 0.4560 0.4550 0.4510 0.4420
1163.930475 0.4330 0.4180 0.3990 0.3780 0.3650
1167.568737 0.3520 0.3240 0.2950 0.2651 0.2500
1171.207000 0.2350 0.2110 0.1840 0.1550 0.1550
1174.845263 0.1570 0.1650 0.2039 0.2798 0.3089
1178.483526 0.3801 0.4081 0.4410 0.4620 0.4660
1182.121789 0.4720 0.4810 0.4890 0.4910 0.4910
1185.760051 0.4900 0.4890 0.4760 0.4630 0.4510
1189.398314 0.4400 0.4031 0.3661 0.3610 0.3460
1193.036577 0.3280 0.3090 0.2900 0.2700 0.2510
1196.674840 0.2420 0.2320 0.2140 0.1950 0.1930
1200.313103 0.1940 0.2180 0.2640 0.2880 0.3120
1203.951366 0.3340 0.3490 0.3600 0.3909 0.4069
1207.589628 0.4050 0.4040 0.4010 0.3940 0.3880
1211.227891 0.3800 0.3730 0.3510 0.3410 0.3380
1214.866154 0.3280 0.3210 0.3100 0.2980 0.2870
1218.504417 0.2800 0.2790 0.2790 0.2810 0.3089
1222.142680 0.3140 0.3260 0.3350 0.3480 0.3540
1225.780943 0.3580 0.3590 0.3600 0.3600 0.3600
1229.419205 0.3600 0.3610 0.3600 0.3590 0.3570
1233.057468 0.3540 0.3490 0.3360 0.3230 0.3001
1236.695731 0.2899 0.2660 0.2550 0.2430 0.2230
1240.333994 0.2010 0.1810 0.1640 0.1520 0.1470
1243.972257 0.1340 0.1270 0.1250 0.1220 0.1210
1247.610519 0.1310 0.1340 0.1370 0.1540 0.1690
1251.248782 0.1860 0.1980 0.2080 0.2140 0.2220
1254.887045 0.2290 0.2380 0.2420 0.2480 0.2510
1258.525308 0.2580 0.2620 0.2680 0.2800 0.2870
1262.163571 0.2950 0.3000 0.3120 0.3220 0.3390
1265.801834 0.3590 0.3620 0.3790 0.3970 0.4070
1269.440096 0.4140 0.4150 0.4150 0.4140 0.4120
1273.078359 0.4090 0.4020 0.3970 0.3910 0.3800
1276.716622 0.3750 0.3700 0.3700 0.3870 0.4129
1280.354885 0.4250 0.4440 0.4550 0.4610 0.4750
1283.993148 0.4760 0.4790 0.4810 0.4810 0.4790
1287.631410 0.4770 0.4720 0.4690 0.4630 0.4610
1291.269673 0.4570 0.4520 0.4490 0.4430 0.4360
1294.907936 0.4280 0.4210 0.4130 0.4050 0.3980
1298.546199 0.3900 0.3830 0.3810 0.3800 0.3810
1302.184462 0.3980 0.4060 0.4140 0.4200 0.4300
1305.822725 0.4390 0.4470 0.4600 0.4610 0.4610
1309.460987 0.4600 0.4600 0.4500 0.4380 0.4270
1313.099250 0.4120 0.4040 0.4010 0.4000 0.4010
1316.737513 0.4030 0.4070 0.4150 0.4280 0.4440
1320.375776 0.4560 0.4640 0.4710 0.4810 0.4890
1324.014039 0.4900 0.4910 0.4900 0.4890 0.4840
1327.652302 0.4810 0.4720 0.4490 0.4490 0.4600
1331.290564 0.4670 0.4840 0.5100 0.5180 0.5260
1334.928827 0.5330 0.5400 0.5550 0.5600 0.5869
1338.567090 0.5880 0.5950 0.6010 0.6080 0.6090
1342.205353 0.6110 0.6180 0.6290 0.6310 0.6320
1345.843616 0.6310 0.6300 0.6250 0.6190 0.6160
1349.481878 0.6110 0.6050 0.6020 0.6000 0.5990
1353.120141 0.5950 0.5920 0.5900 0.5850 0.5820
1356.758404 0.5760 0.5690 0.5460 0.5350 0.5210
1360.396667 0.5030 0.4880 0.4730 0.4570 0.4300
1364.034930 0.4110 0.3910 0.3820 0.3720 0.3461
1367.673193 0.3300 0.3210 0.3200 0.3210 0.3220
1371.311455 0.3410 0.3490 0.3620 0.3700 0.3730
1374.949718 0.3750 0.3780 0.3800 0.3910 0.4020
1378.587981 0.4170 0.4340 0.4390 0.4470 0.4490
1382.226244 0.4490 0.4490 0.4480 0.4440 0.4400
1385.864507 0.4370 0.4320 0.4250 0.4190 0.4120
1389.502770 0.4050 0.4030 0.3990 0.3990 0.4000
1393.141032 0.4030 0.4050 0.4110 0.4110 0.4170
1396.779295 0.4220 0.4290 0.4360 0.4420 0.4480
1400.417558 0.4490 0.4500 0.4490 0.4490 0.4460
1404.055821 0.4460 0.4410 0.4400 0.4370 0.4340
1407.694084 0.4300 0.4110 0.3990 0.3850 0.3830
1411.332346 0.3770 0.3700 0.3510 0.3350 0.3250
1414.970609 0.3090 0.3060 0.2890 0.2890 0.2910
1418.608872 0.3061 0.3410 0.3560 0.3860 0.3990
1422.247135 0.4230 0.4320 0.4350 0.4360 0.4360
1425.885398 0.4350 0.4310 0.4250 0.4030 0.3770
1429.523661 0.3770 0.3960 0.4200 0.4340 0.4370
1433.161923 0.4410 0.4440 0.4450 0.4450 0.4440
1436.800186 0.4360 0.4260 0.4130 0.4070 0.4070
1440.438449 0.4130 0.4250 0.4250 0.4250 0.4230
1444.076712 0.4210 0.4160 0.4110 0.4010 0.3920
1447.714975 0.3870 0.3780 0.3690 0.3510 0.3390
1451.353237 0.3340 0.3280 0.3240 0.3200 0.3120
1454.991500 0.2909 0.2429 0.1950 0.1860 0.1470
1458.629763 0.1080 0.0990 0.0990 0.1269 0.1340
1462.268026 0.1853 0.2801 0.3081 0.3481 0.3940
1465.906289 0.4190 0.4360 0.4490 0.4630 0.4790
1469.544552 0.5440 0.5460 0.5450 0.5390 0.5210
1473.182814 0.5020 0.4920 0.4820 0.4620 0.4430
1476.821077 0.4240 0.4241 0.4490 0.4741 0.5250
1480.459340 0.5500 0.5760 0.6380 0.6390 0.6530
1484.097603 0.6550 0.6600 0.6851 0.7320 0.7320
1487.735866 0.7370 0.7420 0.7510 0.7510 0.7590
1491.374129 0.7610 0.7640 0.7770 0.7830 0.7840
1495.012391 0.7920 0.7940 0.7940 0.7930 0.7920
1498.650654 0.7910 0.7890 0.7880 0.7880 0.7910
1502.288917 0.7920 0.7930 0.7940 0.7950 0.7960
1505.927180 0.7970 0.7970 0.7980 0.7980 0.7960
1509.565443 0.7940 0.7930 0.7910 0.7900 0.7880
1513.203705 0.7870 0.7860 0.7850 0.7830 0.7820
1516.841968 0.7800 0.7750 0.7730 0.7720 0.7700
1520.480231 0.7670 0.7660 0.7660 0.7650 0.7640
1524.118494 0.7650 0.7670 0.7680 0.7690 0.7690
1527.756757 0.7690 0.7680 0.7660 0.7660 0.7640
1531.395020 0.7640 0.7640 0.7640 0.7640 0.7640
1535.033282 0.7640 0.7650 0.7660 0.7670 0.7690
1538.671545 0.7700 0.7710 0.7720 0.7750 0.7800
1542.309808 0.7840 0.7880 0.7900 0.7920 0.7930
1545.948071 0.7930 0.7940 0.7950 0.7950 0.7940
1549.586334 0.7940 0.7940 0.7930 0.7910 0.7910
1553.224596 0.7910 0.7910 0.7930 0.7950 0.7960
1556.862859 0.7970 0.7980 0.7980 0.7990 0.7990
1560.501122 0.7980 0.7980 0.7960 0.7950 0.7930
1564.139385 0.7890 0.7850 0.7830 0.7810 0.7800
1567.777648 0.7760 0.7740 0.7720 0.7610 0.7550
1571.415911 0.7480 0.7330 0.7280 0.7260 0.7240
1575.054173 0.7250 0.7300 0.7510 0.7680 0.7700
1578.692436 0.7720 0.7720 0.7720 0.7720 0.7730
1582.330699 0.7750 0.7760 0.7760 0.7770 0.7750
1585.968962 0.7750 0.7720 0.7710 0.7670 0.7630
1589.607225 0.7560 0.7530 0.7520 0.7510 0.7510
1593.245488 0.7500 0.7500 0.7490 0.7480 0.7480
1596.883750 0.7480 0.7480 0.7480 0.7460 0.7460
1600.522013 0.7440 0.7420 0.7400 0.7380 0.7350
1604.160276 0.7330 0.7310 0.7290 0.7260 0.7240
1607.798539 0.7230 0.7200 0.7150 0.7140 0.7140
1611.436802 0.7140 0.7130 0.7130 0.7130 0.7120
1615.075064 0.7110 0.7080 0.7060 0.7040 0.7030
1618.713327 0.7030 0.7010 0.7010 0.7010 0.6980
1622.351590 0.6960 0.6950 0.6930 0.6920 0.6900
1625.989853 0.6870 0.6840 0.6800 0.6780 0.6760
1629.628116 0.6740 0.6730 0.6710 0.6710 0.6660
1633.266379 0.6640 0.6610 0.6550 0.6490 0.6420
1636.904641 0.6390 0.6370 0.6330 0.6310 0.6260
1640.542904 0.6250 0.6240 0.6190 0.6150 0.6110
1644.181167 0.6060 0.6020 0.5970 0.5930 0.5890
1647.819430 0.5840 0.5810 0.5740 0.5680 0.5610
1651.457693 0.5540 0.5420 0.5400 0.5360 0.5360
1655.095956 0.5230 0.5100 0.5000 0.4910 0.4840
1658.734218 0.4800 0.4700 0.4600 0.4530 0.4380
1662.372481 0.4310 0.4300 0.4250 0.4250 0.4060
1666.010744 0.3920 0.3820 0.3709 0.3420 0.3270
1669.649007 0.3210 0.3140 0.2830 0.2610 0.2500
1673.287270 0.2379 0.2220 0.2150 0.2060 0.1880
1676.925532 0.1800 0.1740 0.1730 0.1560 0.1380
1680.563795 0.1300 0.1220 0.1070 0.0950 0.0860
1684.202058 0.0820 0.0680 0.0640 0.0600 0.0570
1687.840321 0.0530 0.0440 0.0420 0.0420 0.0420
1691.478584 0.0420 0.0420 0.0440 0.0450 0.0460
1695.116847 0.0480 0.0480 0.0470 0.0440 0.0420
1698.755109 0.0320 0.0310 0.0310 0.0350 0.0390
1702.393372 0.0420 0.0460 0.0500 0.0540 0.0620
1706.031635 0.0680 0.0710 0.0790 0.0900 0.0970
1709.669898 0.1050 0.1151 0.1310 0.1340 0.1390
1713.308161 0.1550 0.1810 0.2120 0.2530 0.2670
1716.946423 0.2800 0.2930 0.3070 0.3280 0.3410
1720.584686 0.3510 0.3590 0.3650 0.3750 0.3820
1724.222949 0.3910 0.4020 0.4111 0.4300 0.4411
1727.861212 0.4720 0.4740 0.4780 0.4820 0.4860
1731.499475 0.4941 0.5120 0.5280 0.5300 0.5430
1735.137738 0.5550 0.5660 0.5710 0.5850 0.5930
1738.776000 0.6030 0.6110 0.6160 0.6260 0.6320
1742.414263 0.6410 0.6630 0.6640 0.6710 0.6820
1746.052526 0.6930 0.6950 0.6980 0.6990 0.7010
1749.690789 0.7010 0.7030 0.7110 0.7140 0.7140
1753.329052 0.7150 0.7180 0.7200 0.7220 0.7240
1756.967315 0.7260 0.7270 0.7280 0.7290 0.7290
1760.605577 0.7290 0.7290 0.7290 0.7290 0.7300
1764.243840 0.7300 0.7300 0.7320 0.7340 0.7360
1767.882103 0.7380 0.7400 0.7410 0.7410 0.7420
1771.520366 0.7430 0.7430 0.7430 0.7440 0.7440
1775.158629 0.7460 0.7460 0.7470 0.7480 0.7480
1778.796891 0.7490 0.7490 0.7490 0.7500 0.7510
1782.435154 0.7510 0.7510 0.7520 0.7520 0.7520
1786.073417 0.7530 0.7530 0.7530 0.7530 0.7530
1789.711680 0.7540 0.7540 0.7550 0.7550 0.7560
1793.349943 0.7560 0.7560 0.7570 0.7580 0.7590
1796.988206 0.7590 0.7590 0.7600 0.7610 0.7610
1800.626468 0.7610 0.7620 0.7630 0.7630 0.7640
1804.264731 0.7640 0.7640 0.7650 0.7660 0.7660
1807.902994 0.7670 0.7670 0.7670 0.7670 0.7670
1811.541257 0.7670 0.7680 0.7680 0.7680 0.7680
1815.179520 0.7690 0.7690 0.7690 0.7690 0.7680
1818.817782 0.7680 0.7680 0.7680 0.7670 0.7670
1822.456045 0.7670 0.7660 0.7660 0.7650 0.7640
1826.094308 0.7640 0.7630 0.7630 0.7620 0.7610
1829.732571 0.7610 0.7610 0.7600 0.7600 0.7590
1833.370834 0.7580 0.7570 0.7560 0.7560 0.7550
1837.009097 0.7540 0.7540 0.7530 0.7530 0.7530
1840.647359 0.7520 0.7520 0.7510 0.7510 0.7500
1844.285622 0.7500 0.7500 0.7500 0.7490 0.7490
1847.923885 0.7480 0.7480 0.7480 0.7480 0.7480
1851.562148 0.7480 0.7490 0.7490 0.7500 0.7500
1855.200411 0.7510 0.7510 0.7510 0.7510 0.7520
1858.838674 0.7520 0.7520 0.7520 0.7520 0.7520
1862.476936 0.7510 0.7510 0.7510 0.7510 0.7510
1866.115199 0.7510 0.7500 0.7500 0.7490 0.7480
1869.753462 0.7480 0.7480 0.7470 0.7460 0.7450
1873.391725 0.7430 0.7410 0.7390 0.7370 0.7350
1877.029988 0.7340 0.7290 0.7240 0.7190 0.7170
1880.668250 0.7160 0.7150 0.7150 0.7150 0.7160
1884.306513 0.7160 0.7170 0.7210 0.7240 0.7250
1887.944776 0.7260 0.7270 0.7280 0.7300 0.7320
1891.583039 0.7350 0.7400 0.7430 0.7430 0.7440
1895.221302 0.7450 0.7460 0.7460 0.7460 0.7460
1898.859565 0.7470 0.7470 0.7480 0.7480 0.7480
1902.497827 0.7480 0.7480 0.7480 0.7480 0.7480
1906.136090 0.7480 0.7480 0.7480 0.7480 0.7490
1909.774353 0.7490 0.7490 0.7500 0.7500 0.7500
1913.412616 0.7500 0.7500 0.7500 0.7500 0.7500
1917.050879 0.7500 0.7500 0.7500 0.7500 0.7500
1920.689141 0.7500 0.7500 0.7500 0.7500 0.7510
1924.327404 0.7510 0.7510 0.7510 0.7510 0.7510
1927.965667 0.7510 0.7510 0.7510 0.7510 0.7510
1931.603930 0.7510 0.7510 0.7510 0.7510 0.7510
1935.242193 0.7510 0.7520 0.7520 0.7530 0.7530
1938.880456 0.7540 0.7540 0.7540 0.7540 0.7540
1942.518718 0.7540 0.7550 0.7550 0.7550 0.7560
1946.156981 0.7560 0.7560 0.7560 0.7560 0.7550
1949.795244 0.7560 0.7560 0.7570 0.7570 0.7570
1953.433507 0.7570 0.7570 0.7570 0.7570 0.7570
1957.071770 0.7570 0.7570 0.7570 0.7580 0.7590
1960.710033 0.7590 0.7600 0.7610 0.7610 0.7610
1964.348295 0.7610 0.7620 0.7630 0.7630 0.7620
1967.986558 0.7610 0.7610 0.7610 0.7610 0.7610
1971.624821 0.7610 0.7610 0.7610 0.7620 0.7630
1975.263084 0.7630 0.7640 0.7640 0.7640 0.7640
1978.901347 0.7650 0.7660 0.7660 0.7660 0.7660
1982.539609 0.7650 0.7650 0.7650 0.7640 0.7640
1986.177872 0.7640 0.7640 0.7630 0.7620 0.7620
1989.816135 0.7610 0.7590 0.7590 0.7580 0.7580
1993.454398 0.7570 0.7560 0.7560 0.7550 0.7550
1997.092661 0.7540 0.7540 0.7530 0.7530 0.7530
2000.730924 0.7530 0.7530 0.7530 0.7530 0.7530
2004.369186 0.7530 0.7530 0.7530 0.7532 0.7535
2008.007449 0.7537 0.7540 0.7540 0.7540 0.7540
2011.645712 0.7540 0.7542 0.7545 0.7547 0.7550
2015.283975 0.7552 0.7554 0.7557 0.7559 0.7560
2018.922238 0.7560 0.7560 0.7560 0.7560 0.7560
2022.560501 0.7560 0.7560 0.7560 0.7560 0.7560
2026.198763 0.7560 0.7562 0.7564 0.7567 0.7569
2029.837026 0.7572 0.7574 0.7577 0.7579 0.7580
2033.475289 0.7580 0.7580 0.7580 0.7581 0.7584
2037.113552 0.7586 0.7589 0.7590 0.7590 0.7590
2040.751815 0.7590 0.7590 0.7590 0.7590 0.7590
2044.390077 0.7591 0.7594 0.7596 0.7599 0.7600
2048.028340 0.7600 0.7600 0.7600 0.7601 0.7603
2051.666603 0.7606 0.7608 0.7610 0.7610 0.7610
2055.304866 0.7610 0.7610 0.7610 0.7610 0.7610
2058.943129 0.7611 0.7613 0.7616 0.7618 0.7621
2062.581392 0.7623 0.7626 0.7628 0.7630 0.7630
2066.219654 0.7630 0.7630 0.7630 0.7630 0.7630
2069.857917 0.7630 0.7630 0.7630 0.7630 0.7630
2073.496180 0.7630 0.7633 0.7635 0.7638 0.7640
2077.134443 0.7640 0.7640 0.7640 0.7640 0.7640
2080.772706 0.7640 0.7640 0.7640 0.7640 0.7640
2084.410968 0.7640 0.7640 0.7642 0.7645 0.7647
2088.049231 0.7650 0.7650 0.7650 0.7650 0.7650
2091.687494 0.7652 0.7655 0.7657 0.7660 0.7660
2095.325757 0.7660 0.7660 0.7660 0.7662 0.7665
2098.964020 0.7667 0.7670 0.7670 0.7670 0.7670
2102.602283 0.7670 0.7670 0.7670 0.7670 0.7670
2106.240545 0.7672 0.7674 0.7677 0.7679 0.7682
2109.878808 0.7684 0.7687 0.7689 0.7690 0.7690
2113.517071 0.7690 0.7690 0.7690 0.7690 0.7690
2117.155334 0.7690 0.7690 0.7690 0.7690 0.7690
2120.793597 0.7690 0.7690 0.7690 0.7690 0.7690
2124.431860 0.7690 0.7690 0.7690 0.7690 0.7690
2128.070122 0.7690 0.7690 0.7690 0.7690 0.7690
2131.708385 0.7690 0.7691 0.7694 0.7696 0.7698
2135.346648 0.7700 0.7700 0.7700 0.7700 0.7700
2138.984911 0.7700 0.7700 0.7700 0.7700 0.7700
2142.623174 0.7700 0.7700 0.7700 0.7700 0.7700
2146.261436 0.7700 0.7700 0.7700 0.7700 0.7700
2149.899699 0.7700 0.7700 0.7700 0.7700 0.7700
2153.537962 0.7700 0.7700 0.7700 0.7700 0.7700
2157.176225 0.7700 0.7700 0.7700 0.7700 0.7700
2160.814488 0.7700 0.7700 0.7700 0.7700 0.7700
2164.452751 0.7700 0.7700 0.7700 0.7700 0.7700
2168.091013 0.7698 0.7695 0.7693 0.7690 0.7690
2171.729276 0.7690 0.7690 0.7690 0.7690 0.7690
2175.367539 0.7690 0.7690 0.7690 0.7690 0.7690
2179.005802 0.7690 0.7690 0.7690 0.7690 0.7690
2182.644065 0.7690 0.7690 0.7690 0.7690 0.7690
2186.282327 0.7690 0.7690 0.7690 0.7688 0.7686
2189.920590 0.7683 0.7681 0.7680 0.7680 0.7680
2193.558853 0.7680 0.7680 0.7680 0.7680 0.7680
2197.197116 0.7678 0.7676 0.7673 0.7671 0.7670
2200.835379 0.7670 0.7670 0.7670 0.7670 0.7670
2204.473642 0.7670 0.7670 0.7670 0.7670 0.7670
2208.111904 0.7670 0.7669 0.7666 0.7664 0.7661
2211.750167 0.7658 0.7653 0.7648 0.7643 0.7638
2215.388430 0.7633 0.7628 0.7623 0.7617 0.7609
2219.026693 0.7602 0.7595 0.7586 0.7576 0.7566
2222.664956 0.7557 0.7548 0.7543 0.7538 0.7533
2226.303219 0.7530 0.7530 0.7530 0.7530 0.7529
2229.941481 0.7527 0.7524 0.7522 0.7520 0.7520
2233.579744 0.7520 0.7520 0.7519 0.7517 0.7514
2237.218007 0.7512 0.7510 0.7510 0.7510 0.7510
2240.856270 0.7510 0.7510 0.7510 0.7510 0.7510
2244.494533 0.7507 0.7505 0.7502 0.7500 0.7497
2248.132795 0.7495 0.7492 0.7490 0.7490 0.7490
2251.771058 0.7490 0.7490 0.7488 0.7485 0.7483
2255.409321 0.7480 0.7480 0.7480 0.7480 0.7480
2259.047584 0.7480 0.7480 0.7480 0.7480 0.7480
2262.685847 0.7480 0.7480 0.7480 0.7478 0.7475
2266.324110 0.7473 0.7470 0.7466 0.7461 0.7456
2269.962372 0.7451 0.7448 0.7446 0.7443 0.7441
2273.600635 0.7438 0.7436 0.7433 0.7431 0.7425
2277.238898 0.7417 0.7410 0.7402 0.7400 0.7400
2280.877161 0.7400 0.7400 0.7398 0.7396 0.7393
2284.515424 0.7391 0.7388 0.7386 0.7384 0.7381
2288.153686 0.7380 0.7380 0.7380 0.7380 0.7379
2291.791949 0.7376 0.7374 0.7371 0.7367 0.7362
2295.430212 0.7357 0.7352 0.7350 0.7350 0.7350
2299.068475 0.7350 0.7348 0.7343 0.7338 0.7333
2302.706738 0.7330 0.7330 0.7330 0.7330 0.7328
2306.345001 0.7323 0.7318 0.7313 0.7308 0.7303
2309.983263 0.7298 0.7293 0.7286 0.7274 0.7261
2313.621526 0.7249 0.7237 0.7228 0.7218 0.7208
2317.259789 0.7199 0.7197 0.7195 0.7192 0.7190
2320.898052 0.7190 0.7190 0.7190 0.7190 0.7187
2324.536315 0.7185 0.7182 0.7180 0.7180 0.7180
2328.174578 0.7180 0.7180 0.7177 0.7175 0.7172
2331.812840 0.7170 0.7167 0.7165 0.7162 0.7160
2335.451103 0.7160 0.7160 0.7160 0.7160 0.7160
2339.089366 0.7160 0.7160 0.7160 0.7160 0.7160
2342.727629 0.7160 0.7160 0.7160 0.7160 0.7160
2346.365892 0.7160 0.7156 0.7151 0.7146 0.7141
2350.004154 0.7134 0.7126 0.7119 0.7111 0.7091
2353.642417 0.7069 0.7046 0.7024 0.7018 0.7016
2357.280680 0.7013 0.7011 0.7004 0.6997 0.6989
2360.918943 0.6982 0.6978 0.6976 0.6973 0.6971
2364.557206 0.6965 0.6957 0.6950 0.6943 0.6930
2368.195469 0.6915 0.6901 0.6886 0.6875 0.6868
2371.833731 0.6861 0.6853 0.6846 0.6838 0.6831
2375.471994 0.6823 0.6817 0.6812 0.6807 0.6803
2379.110257 0.6791 0.6774 0.6756 0.6739 0.6720
2382.748520 0.6700 0.6680 0.6661 0.6641 0.6621
2386.386783 0.6601 0.6581 0.6565 0.6552 0.6540
2390.025046 0.6528 0.6518 0.6513 0.6508 0.6503
2393.663308 0.6497 0.6490 0.6483 0.6475 0.6465
2397.301571 0.6447 0.6430 0.6413 0.6395 0.6375
2400.939834 0.6355 0.6335 0.6317 0.6302 0.6287
2404.578097 0.6272 0.6259 0.6254 0.6249 0.6244
2408.216360 0.6239 0.6234 0.6229 0.6224 0.6218
2411.854622 0.6208 0.6199 0.6189 0.6178 0.6163
2415.492885 0.6148 0.6134 0.6119 0.6107 0.6094
2419.131148 0.6082 0.6069 0.6057 0.6045 0.6032
2422.769411 0.6020 0.6013 0.6005 0.5998 0.5990
2426.407674 0.5985 0.5980 0.5975 0.5970 0.5959
2430.045937 0.5946 0.5934 0.5921 0.5905 0.5887
2433.684199 0.5870 0.5853 0.5829 0.5804 0.5780
2437.322462 0.5755 0.5744 0.5736 0.5729 0.5721
2440.960725 0.5718 0.5716 0.5713 0.5711 0.5706
2444.598988 0.5701 0.5696 0.5691 0.5683 0.5673
2448.237251 0.5663 0.5653 0.5638 0.5621 0.5603
2451.875513 0.5586 0.5577 0.5572 0.5567 0.5562
2455.513776 0.5558 0.5556 0.5554 0.5551 0.5549
2459.152039 0.5546 0.5544 0.5541 0.5537 0.5532
2462.790302 0.5527 0.5523 0.5519 0.5516 0.5514
2466.428565 0.5511 0.5507 0.5499 0.5492 0.5484
2470.066828 0.5472 0.5455 0.5437 0.5420 0.5397
2473.705090 0.5368 0.5338 0.5308 0.5278 0.5249
2477.343353 0.5219 0.5189 0.5169 0.5167 0.5164
2480.981616 0.5162 0.5153 0.5131 0.5109 0.5086
2484.619879 0.5069 0.5064 0.5059 0.5054 0.5048
2488.258142 0.5041 0.5033 0.5026 0.5019 0.5011
2491.896405 0.5004 0.4996 0.4989 0.4979 0.4969
2495.534667 0.4959 0.4950 0.4947 0.4945 0.4942
2499.172930 0.4939 0.4934 0.4929 0.4925 0.4920
2502.811193 0.4915 0.4910 0.4905 0.4900 0.4895
2506.449456 0.4890 0.4885 0.4880 0.4870 0.4860
2510.087719 0.4850 0.4840 0.4830 0.4821 0.4811
2513.725981 0.4801 0.4786 0.4771 0.4757 0.4742
2517.364244 0.4727 0.4712 0.4697 0.4682 0.4674
2521.002507 0.4666 0.4659 0.4651 0.4638 0.4623
2524.640770 0.4608 0.4594 0.4577 0.4559 0.4541
2528.279033 0.4524 0.4516 0.4511 0.4506 0.4501
2531.917296 0.4498 0.4496 0.4493 0.4491 0.4481
2535.555558 0.4469 0.4457 0.4444 0.4432 0.4419
2539.193821 0.4407 0.4395 0.4385 0.4378 0.4371
2542.832084 0.4363 0.4353 0.4340 0.4328 0.4316
2546.470347 0.4306 0.4299 0.4291 0.4284 0.4278
2550.108610 0.4273 0.4268 0.4263 0.4259 0.4256
2553.746872 0.4254 0.4251 0.4250 0.4250 0.4250
2557.385135 0.4250 0.4250 0.4250 0.4250 0.4250
2561.023398 0.4250 0.4250 0.4250 0.4250 0.4249
2564.661661 0.4247 0.4244 0.4242 0.4239 0.4237
2568.299924 0.4234 0.4232 0.4229 0.4224 0.4219
2571.938187 0.4214 0.4208 0.4198 0.4188 0.4178
2575.576449 0.4170 0.4170 0.4170 0.4170 0.4168
2579.214712 0.4153 0.4138 0.4123 0.4109 0.4096
2582.852975 0.4084 0.4072 0.4059 0.4049 0.4039
2586.491238 0.4029 0.4019 0.4012 0.4005 0.3997
2590.129501 0.3990 0.3985 0.3980 0.3975 0.3970
2593.767764 0.3968 0.3965 0.3963 0.3960 0.3960
2597.406026 0.3960 0.3960 0.3960 0.3960 0.3960
2601.044289 0.3960 0.3960 0.3960 0.3960 0.3960
2604.682552 0.3960 0.3960 0.3960 0.3960 0.3960
2608.320815 0.3960 0.3960 0.3960 0.3960 0.3960
2611.959078 0.3960 0.3960 0.3960 0.3962 0.3964
2615.597340 0.3967 0.3969 0.3972 0.3974 0.3977
2619.235603 0.3979 0.3980 0.3980 0.3980 0.3980
2622.873866 0.3982 0.3984 0.3987 0.3989 0.3990
2626.512129 0.3990 0.3990 0.3990 0.3990 0.3990
2630.150392 0.3990 0.3990 0.3991 0.3994 0.3996
2633.788655 0.3999 0.4001 0.4004 0.4006 0.4009
2637.426917 0.4011 0.4014 0.4016 0.4019 0.4022
2641.065180 0.4027 0.4032 0.4037 0.4041 0.4043
2644.703443 0.4046 0.4048 0.4052 0.4057 0.4062
2648.341706 0.4067 0.4071 0.4073 0.4076 0.4078
2651.979969 0.4080 0.4080 0.4080 0.4080 0.4081
2655.618231 0.4086 0.4091 0.4096 0.4101 0.4106
2659.256494 0.4111 0.4116 0.4121 0.4126 0.4131
2662.894757 0.4136 0.4139 0.4131 0.4124 0.4117
2666.533020 0.4109 0.4102 0.4094 0.4087 0.4079
2670.171283 0.4061 0.4044 0.4027 0.4009 0.3992
2673.809546 0.3974 0.3957 0.3939 0.3924 0.3910
2677.447808 0.3895 0.3880 0.3855 0.3830 0.3806
2681.086071 0.3781 0.3775 0.3770 0.3765 0.3760
2684.724334 0.3765 0.3770 0.3774 0.3779 0.3784
2688.362597 0.3789 0.3794 0.3799 0.3808 0.3818
2692.000860 0.3828 0.3838 0.3882 0.3934 0.3986
2695.639123 0.4038 0.4080 0.4120 0.4160 0.4199
2699.277385 0.4208 0.4206 0.4203 0.4201 0.4195
2702.915648 0.4187 0.4180 0.4172 0.4160 0.4145
2706.553911 0.4130 0.4115 0.4095 0.4073 0.4051
2710.192174 0.4028 0.4008 0.3988 0.3968 0.3948
2713.830437 0.3939 0.3936 0.3934 0.3931 0.3927
2717.468699 0.3922 0.3917 0.3912 0.3910 0.3910
2721.106962 0.3910 0.3910 0.3909 0.3906 0.3904
2724.745225 0.3901 0.3899 0.3896 0.3894 0.3892
2728.383488 0.3889 0.3887 0.3884 0.3882 0.3875
2732.021751 0.3860 0.3845 0.3830 0.3817 0.3810
2735.660014 0.3803 0.3795 0.3787 0.3777 0.3767
2739.298276 0.3757 0.3748 0.3741 0.3733 0.3726
2742.936539 0.3715 0.3696 0.3676 0.3656 0.3635
2746.574802 0.3610 0.3586 0.3561 0.3537 0.3514
2750.213065 0.3492 0.3470 0.3448 0.3431 0.3413
2753.851328 0.3396 0.3378 0.3356 0.3334 0.3312
2757.489591 0.3290 0.3287 0.3285 0.3282 0.3280
2761.127853 0.3275 0.3270 0.3265 0.3260 0.3252
2764.766116 0.3245 0.3238 0.3230 0.3225 0.3220
2768.404379 0.3215 0.3210 0.3205 0.3200 0.3196
2772.042642 0.3191 0.3181 0.3171 0.3161 0.3151
2775.680905 0.3131 0.3109 0.3087 0.3064 0.3056
2779.319167 0.3051 0.3046 0.3041 0.3027 0.3009
2782.957430 0.2992 0.2975 0.2963 0.2953 0.2943
2786.595693 0.2933 0.2927 0.2922 0.2917 0.2912
2790.233956 0.2891 0.2860 0.2830 0.2800 0.2772
2793.872219 0.2745 0.2717 0.2690 0.2666 0.2644
2797.510482 0.2622 0.2599 0.2577 0.2555 0.2532
2801.148744 0.2510 0.2495 0.2485 0.2475 0.2465
2804.787007 0.2455 0.2445 0.2435 0.2425 0.2412
2808.425270 0.2395 0.2377 0.2360 0.2342 0.2322
2812.063533 0.2302 0.2282 0.2262 0.2239 0.2217
2815.701796 0.2195 0.2172 0.2147 0.2122 0.2097
2819.340058 0.2072 0.2047 0.2022 0.1997 0.1972
2822.978321 0.1947 0.1923 0.1898 0.1873 0.1848
2826.616584 0.1824 0.1799 0.1776 0.1759 0.1741
2830.254847 0.1724 0.1708 0.1695 0.1683 0.1670
2833.893110 0.1659 0.1654 0.1649 0.1644 0.1639
2837.531373 0.1632 0.1624 0.1617 0.1609 0.1602
2841.169635 0.1595 0.1587 0.1580 0.1567 0.1555
2844.807898 0.1542 0.1530 0.1523 0.1515 0.1508
2848.446161 0.1500 0.1462 0.1421 0.1381 0.1341
2852.084424 0.1323 0.1306 0.1288 0.1271 0.1254
2855.722687 0.1237 0.1219 0.1202 0.1167 0.1130
2859.360950 0.1093 0.1055 0.1023 0.0990 0.0958
2862.999212 0.0926 0.0908 0.0893 0.0878 0.0863
2866.637475 0.0850 0.0838 0.0826 0.0813 0.0806
2870.275738 0.0801 0.0796 0.0792 0.0790 0.0790
2873.914001 0.0790 0.0790 0.0792 0.0794 0.0797
2877.552264 0.0799 0.0802 0.0804 0.0807 0.0809
2881.190526 0.0810 0.0810 0.0810 0.0810 0.0811
2884.828789 0.0814 0.0816 0.0819 0.0820 0.0820
2888.467052 0.0820 0.0820 0.0820 0.0820 0.0820
2892.105315 0.0820 0.0821 0.0824 0.0826 0.0829
2895.743578 0.0830 0.0830 0.0830 0.0830 0.0831
2899.381841 0.0833 0.0836 0.0838 0.0840 0.0840
2903.020103 0.0840 0.0840 0.0841 0.0843 0.0846
2906.658366 0.0848 0.0849 0.0847 0.0844 0.0842
2910.296629 0.0840 0.0840 0.0840 0.0840 0.0835
2913.934892 0.0812 0.0790 0.0768 0.0747 0.0732
2917.573155 0.0717 0.0702 0.0686 0.0664 0.0642
2921.211417 0.0620 0.0595 0.0550 0.0506 0.0461
2924.849680 0.0420 0.0417 0.0415 0.0412 0.0410
2928.487943 0.0413 0.0415 0.0418 0.0420 0.0420
2932.126206 0.0420 0.0420 0.0420 0.0427 0.0435
2935.764469 0.0442 0.0449 0.0457 0.0464 0.0472
2939.402732 0.0480 0.0487 0.0494 0.0502 0.0509
2943.040994 0.0517 0.0524 0.0532 0.0539 0.0546
2946.679257 0.0554 0.0561 0.0569 0.0576 0.0583
2950.317520 0.0591 0.0598 0.0606 0.0613 0.0621
2953.955783 0.0628 0.0635 0.0643 0.0650 0.0658
2957.594046 0.0662 0.0664 0.0667 0.0669 0.0676
2961.232309 0.0686 0.0696 0.0706 0.0715 0.0722
2964.870571 0.0729 0.0737 0.0743 0.0748 0.0753
2968.508834 0.0758 0.0772 0.0791 0.0811 0.0831
2972.147097 0.0852 0.0875 0.0897 0.0919 0.0941
2975.785360 0.0964 0.0986 0.1008 0.1056 0.1133
2979.423623 0.1209 0.1286 0.1344 0.1376 0.1408
2983.061885 0.1440 0.1470 0.1494 0.1519 0.1544
2986.700148 0.1569 0.1593 0.1618 0.1643 0.1666
2990.338411 0.1686 0.1706 0.1725 0.1747 0.1771
2993.976674 0.1796 0.1821 0.1845 0.1868 0.1890
2997.614937 0.1913 0.1937 0.1964 0.1991 0.2018
3001.253200 0.2053 0.2117 0.2182 0.2246 0.2301
3004.891462 0.2309 0.2316 0.2323 0.2332 0.2347
3008.529725 0.2362 0.2376 0.2391 0.2398 0.2405
3012.167988 0.2413 0.2420 0.2423 0.2425 0.2428
3015.806251 0.2430 0.2432 0.2435 0.2437 0.2440
3019.444514 0.2442 0.2445 0.2447 0.2450 0.2464
3023.082777 0.2479 0.2493 0.2508 0.2514 0.2519
3026.721039 0.2524 0.2529 0.2541 0.2553 0.2566
3030.359302 0.2578 0.2582 0.2585 0.2587 0.2590
3033.997565 0.2594 0.2599 0.2604 0.2609 0.2612
3037.635828 0.2614 0.2617 0.2619 0.2635 0.2654
3041.274091 0.2674 0.2694 0.2712 0.2729 0.2747
3044.912353 0.2764 0.2780 0.2795 0.2809 0.2824
3048.550616 0.2835 0.2842 0.2849 0.2857 0.2867
3052.188879 0.2879 0.2892 0.2904 0.2913 0.2918
3055.827142 0.2923 0.2928 0.2938 0.2953 0.2968
3059.465405 0.2983 0.2993 0.2997 0.3002 0.3007
3063.103668 0.3011 0.3014 0.3016 0.3019 0.3021
3066.741930 0.3024 0.3026 0.3028 0.3036 0.3051
3070.380193 0.3065 0.3080 0.3093 0.3100 0.3107
3074.018456 0.3115 0.3122 0.3130 0.3137 0.3145
3077.656719 0.3154 0.3169 0.3184 0.3199 0.3215
3081.294982 0.3234 0.3254 0.3274 0.3292 0.3305
3084.933244 0.3317 0.3330 0.3342 0.3352 0.3362
3088.571507 0.3372 0.3381 0.3389 0.3396 0.3404
3092.209770 0.3412 0.3424 0.3436 0.3449 0.3461
3095.848033 0.3471 0.3481 0.3491 0.3500 0.3503
3099.486296 0.3505 0.3508 0.3510 0.3515 0.3520
3103.124559 0.3525 0.3530 0.3537 0.3545 0.3552
3106.762821 0.3559 0.3562 0.3565 0.3567 0.3570
3110.401084 0.3570 0.3570 0.3570 0.3570 0.3574
3114.039347 0.3579 0.3584 0.3589 0.3592 0.3595
3117.677610 0.3597 0.3600 0.3604 0.3609 0.3614
3121.315873 0.3619 0.3626 0.3633 0.3641 0.3648
3124.954136 0.3652 0.3654 0.3657 0.3659 0.3665
3128.592398 0.3673 0.3680 0.3687 0.3695 0.3702
3132.230661 0.3710 0.3717 0.3722 0.3724 0.3726
3135.868924 0.3729 0.3734 0.3742 0.3749 0.3757
3139.507187 0.3761 0.3764 0.3766 0.3769 0.3771
3143.145450 0.3774 0.3776 0.3779 0.3781 0.3784
3146.783712 0.3786 0.3789 0.3791 0.3794 0.3796
3150.421975 0.3799 0.3801 0.3804 0.3806 0.3809
3154.060238 0.3812 0.3817 0.3822 0.3827 0.3832
3157.698501 0.3837 0.3842 0.3847 0.3855 0.3873
3161.336764 0.3890 0.3907 0.3925 0.3945 0.3965
3164.975027 0.3985 0.4001 0.4006 0.4011 0.4016
3168.613289 0.4021 0.4026 0.4031 0.4036 0.4040
3172.251552 0.4040 0.4040 0.4040 0.4040 0.4043
3175.889815 0.4045 0.4048 0.4050 0.4053 0.4055
3179.528078 0.4058 0.4060 0.4063 0.4065 0.4068
3183.166341 0.4070 0.4070 0.4070 0.4070 0.4070
3186.804603 0.4077 0.4085 0.4092 0.4100 0.4102
3190.442866 0.4105 0.4107 0.4110 0.4112 0.4115
3194.081129 0.4117 0.4120 0.4120 0.4120 0.4120
3197.719392 0.4120 0.4122 0.4125 0.4127 0.4130
3201.357655 0.4134 0.4139 0.4144 0.4149 0.4150
3204.995918 0.4150 0.4150 0.4150 0.4152 0.4154
3208.634180 0.4157 0.4159 0.4162 0.4164 0.4167
3212.272443 0.4169 0.4170 0.4170 0.4170 0.4170
3215.910706 0.4170 0.4170 0.4170 0.4170 0.4168
3219.548969 0.4166 0.4164 0.4161 0.4159 0.4156
3223.187232 0.4154 0.4151 0.4150 0.4150 0.4150
3226.825495 0.4150 0.4149 0.4146 0.4144 0.4141
3230.463757 0.4138 0.4133 0.4128 0.4123 0.4120
3234.102020 0.4120 0.4120 0.4120 0.4118 0.4113
3237.740283 0.4108 0.4103 0.4099 0.4097 0.4094
3241.378546 0.4092 0.4089 0.4087 0.4084 0.4082
3245.016809 0.4080 0.4080 0.4080 0.4080 0.4079
3248.655071 0.4074 0.4069 0.4064 0.4058 0.4051
3252.293334 0.4043 0.4036 0.4030 0.4030 0.4030
3255.931597 0.4030 0.4030 0.4027 0.4025 0.4022
3259.569860 0.4019 0.4014 0.4009 0.4004 0.4000
3263.208123 0.3997 0.3995 0.3992 0.3990 0.3990
3266.846386 0.3990 0.3990 0.3990 0.3982 0.3975
3270.484648 0.3967 0.3960 0.3952 0.3945 0.3938
3274.122911 0.3930 0.3928 0.3925 0.3923 0.3920
3277.761174 0.3913 0.3906 0.3898 0.3891 0.3883
3281.399437 0.3876 0.3869 0.3861 0.3850 0.3837
3285.037700 0.3825 0.3812 0.3790 0.3765 0.3740
3288.675962 0.3716 0.3691 0.3666 0.3641 0.3615
3292.314225 0.3593 0.3570 0.3548 0.3526 0.3516
3295.952488 0.3511 0.3506 0.3501 0.3486 0.3466
3299.590751 0.3446 0.3427 0.3400 0.3371 0.3341
3303.229014 0.3311 0.3288 0.3268 0.3248 0.3228
3306.867277 0.3216 0.3208 0.3201 0.3193 0.3181
3310.505539 0.3163 0.3146 0.3129 0.3106 0.3079
3314.143802 0.3052 0.3025 0.3001 0.2981 0.2961
3317.782065 0.2941 0.2924 0.2909 0.2894 0.2878
3321.420328 0.2861 0.2842 0.2822 0.2802 0.2773
3325.058591 0.2731 0.2689 0.2647 0.2611 0.2586
3328.696854 0.2562 0.2537 0.2511 0.2484 0.2457
3332.335116 0.2430 0.2409 0.2404 0.2399 0.2394
3335.973379 0.2384 0.2359 0.2335 0.2310 0.2285
3339.611642 0.2257 0.2230 0.2203 0.2175 0.2143
3343.249905 0.2111 0.2078 0.2048 0.2033 0.2019
3346.888168 0.2004 0.1988 0.1966 0.1943 0.1921
3350.526430 0.1898 0.1878 0.1859 0.1839 0.1819
3354.164693 0.1802 0.1784 0.1767 0.1750 0.1727
3357.802956 0.1705 0.1683 0.1661 0.1636 0.1611
3361.441219 0.1586 0.1562 0.1523 0.1484 0.1444
3365.079482 0.1404 0.1376 0.1349 0.1321 0.1294
3368.717745 0.1282 0.1272 0.1262 0.1252 0.1240
3372.356007 0.1228 0.1215 0.1203 0.1198 0.1196
3375.994270 0.1193 0.1191 0.1190 0.1190 0.1190
3379.632533 0.1190 0.1188 0.1186 0.1183 0.1181
3383.270796 0.1180 0.1180 0.1180 0.1180 0.1182
3386.909059 0.1184 0.1187 0.1189 0.1190 0.1190
3390.547322 0.1190 0.1190 0.1202 0.1221 0.1241
3394.185584 0.1261 0.1273 0.1278 0.1283 0.1288
3397.823847 0.1294 0.1301 0.1309 0.1316 0.1328
3401.462110 0.1345 0.1363 0.1380 0.1394 0.1404
3405.100373 0.1414 0.1424 0.1436 0.1451 0.1466
3408.738636 0.1481 0.1497 0.1514 0.1532 0.1549
3412.376898 0.1564 0.1577 0.1589 0.1602 0.1616
3416.015161 0.1636 0.1656 0.1676 0.1693 0.1706
3419.653424 0.1718 0.1731 0.1742 0.1752 0.1762
3423.291687 0.1772 0.1781 0.1786 0.1791 0.1796
3426.929950 0.1803 0.1820 0.1837 0.1855 0.1872
3430.568213 0.1889 0.1907 0.1924 0.1941 0.1956
3434.206475 0.1971 0.1986 0.2001 0.2023 0.2046
3437.844738 0.2069 0.2091 0.2116 0.2141 0.2166
3441.483001 0.2190 0.2218 0.2245 0.2272 0.2299
3445.121264 0.2322 0.2344 0.2366 0.2389 0.2422
3448.759527 0.2457 0.2492 0.2526 0.2532 0.2535
3452.397789 0.2537 0.2540 0.2557 0.2577 0.2596
3456.036052 0.2616 0.2636 0.2656 0.2676 0.2696
3459.674315 0.2719 0.2744 0.2769 0.2793 0.2816
3463.312578 0.2839 0.2861 0.2883 0.2907 0.2932
3466.950841 0.2958 0.2983 0.3013 0.3045 0.3077
3470.589104 0.3109 0.3137 0.3161 0.3186 0.3211
3474.227366 0.3237 0.3264 0.3292 0.3319 0.3345
3477.865629 0.3369 0.3394 0.3419 0.3446 0.3476
3481.503892 0.3506 0.3535 0.3576 0.3628 0.3680
3485.142155 0.3732 0.3768 0.3785 0.3803 0.3820
3488.780418 0.3847 0.3886 0.3926 0.3966 0.4005
3492.418681 0.4045 0.4084 0.4124 0.4156 0.4174
3496.056943 0.4191 0.4209 0.4228 0.4250 0.4273
3499.695206 0.4295 0.4318 0.4343 0.4367 0.4392
3503.333469 0.4418 0.4445 0.4472 0.4499 0.4527
3506.971732 0.4554 0.4581 0.4608 0.4634 0.4657
3510.609995 0.4679 0.4701 0.4726 0.4760 0.4795
3514.248257 0.4830 0.4864 0.4899 0.4933 0.4968
3517.886520 0.5004 0.5048 0.5093 0.5137 0.5181
3521.524783 0.5203 0.5225 0.5248 0.5270 0.5298
3525.163046 0.5325 0.5353 0.5380 0.5408 0.5435
3528.801309 0.5462 0.5489 0.5497 0.5505 0.5512
3532.439572 0.5520 0.5550 0.5582 0.5615 0.5647
3536.077834 0.5657 0.5664 0.5672 0.5679 0.5686
3539.716097 0.5694 0.5701 0.5709 0.5726 0.5746
3543.354360 0.5766 0.5786 0.5800 0.5812 0.5824
3546.992623 0.5837 0.5851 0.5866 0.5881 0.5895
3550.630886 0.5907 0.5917 0.5927 0.5937 0.5945
3554.269148 0.5952 0.5960 0.5968 0.5980 0.5995
3557.907411 0.6010 0.6025 0.6039 0.6054 0.6069
3561.545674 0.6084 0.6096 0.6106 0.6116 0.6126
3565.183937 0.6155 0.6199 0.6244 0.6288 0.6314
3568.822200 0.6321 0.6329 0.6336 0.6347 0.6362
3572.460463 0.6377 0.6392 0.6410 0.6432 0.6454
3576.098725 0.6476 0.6493 0.6500 0.6508 0.6515
3579.736988 0.6525 0.6540 0.6555 0.6570 0.6585
3583.375251 0.6603 0.6621 0.6638 0.6652 0.6660
3587.013514 0.6667 0.6675 0.6681 0.6683 0.6686
3590.651777 0.6688 0.6691 0.6693 0.6696 0.6698
3594.290040 0.6701 0.6703 0.6705 0.6708 0.6711
3597.928302 0.6719 0.6726 0.6734 0.6741 0.6748
3601.566565 0.6756 0.6763 0.6771 0.6786 0.6801
3605.204828 0.6816 0.6831 0.6843 0.6855 0.6868
3608.843091 0.6880 0.6892 0.6905 0.6917 0.6930
3612.481354 0.6940 0.6950 0.6960 0.6970 0.6977
3616.119616 0.6985 0.6992 0.7000 0.7000 0.7000
3619.757879 0.7000 0.7000 0.6989 0.6976 0.6964
3623.396142 0.6952 0.6950 0.6950 0.6950 0.6950
3627.034405 0.6950 0.6950 0.6950 0.6950 0.6950
3630.672668 0.6950 0.6950 0.6950 0.6955 0.6963
3634.310931 0.6970 0.6978 0.6985 0.6993 0.7000
3637.949193 0.7007 0.7015 0.7022 0.7030 0.7037
3641.587456 0.7046 0.7056 0.7066 0.7076 0.7083
3645.225719 0.7088 0.7093 0.7098 0.7107 0.7120
3648.863982 0.7132 0.7144 0.7155 0.7165 0.7175
3652.502245 0.7185 0.7191 0.7194 0.7196 0.7199
3656.140507 0.7200 0.7200 0.7200 0.7200 0.7200
3659.778770 0.7200 0.7200 0.7200 0.7201 0.7203
3663.417033 0.7206 0.7208 0.7210 0.7210 0.7210
3667.055296 0.7210 0.7211 0.7213 0.7216 0.7218
3670.693559 0.7220 0.7220 0.7220 0.7220 0.7220
3674.331822 0.7220 0.7220 0.7220 0.7220 0.7220
3677.970084 0.7220 0.7220 0.7219 0.7214 0.7209
3681.608347 0.7204 0.7200 0.7200 0.7200 0.7200
3685.246610 0.7200 0.7197 0.7195 0.7192 0.7190
3688.884873 0.7187 0.7185 0.7182 0.7180 0.7177
3692.523136 0.7175 0.7172 0.7170 0.7168 0.7165
3696.161399 0.7163 0.7160 0.7150 0.7141 0.7131
3699.799661 0.7121 0.7118 0.7115 0.7113 0.7110
3703.437924 0.7110 0.7110 0.7110 0.7110 0.7108
3707.076187 0.7105 0.7103 0.7100 0.7100 0.7100
3710.714450 0.7100 0.7100 0.7100 0.7100 0.7100
3714.352713 0.7100 0.7100 0.7100 0.7100 0.7100
3717.990975 0.7102 0.7104 0.7107 0.7109 0.7117
3721.629238 0.7127 0.7137 0.7147 0.7152 0.7154
3725.267501 0.7157 0.7159 0.7166 0.7176 0.7186
3728.905764 0.7196 0.7203 0.7208 0.7213 0.7218
3732.544027 0.7223 0.7228 0.7233 0.7238 0.7241
3736.182290 0.7244 0.7246 0.7249 0.7251 0.7254
3739.820552 0.7256 0.7259 0.7261 0.7264 0.7266
3743.458815 0.7269 0.7270 0.7270 0.7270 0.7270
3747.097078 0.7271 0.7273 0.7276 0.7278 0.7281
3750.735341 0.7283 0.7286 0.7288 0.7290 0.7290
3754.373604 0.7290 0.7290 0.7291 0.7293 0.7296
3758.011867 0.7298 0.7300 0.7300 0.7300 0.7300
3761.650129 0.7301 0.7303 0.7306 0.7308 0.7311
3765.288392 0.7313 0.7315 0.7318 0.7320 0.7320
3768.926655 0.7320 0.7320 0.7320 0.7320 0.7320
3772.564918 0.7320 0.7320 0.7320 0.7320 0.7320
3776.203181 0.7320 0.7320 0.7320 0.7320 0.7320
3779.841443 0.7320 0.7320 0.7320 0.7320 0.7320
3783.479706 0.7320 0.7320 0.7320 0.7320 0.7320
3787.117969 0.7320 0.7320 0.7320 0.7320 0.7320
3790.756232 0.7320 0.7320 0.7320 0.7320 0.7320
3794.394495 0.7320 0.7320 0.7320 0.7320 0.7320
3798.032758 0.7320 0.7320 0.7320 0.7320 0.7320
3801.671020 0.7320 0.7320 0.7318 0.7316 0.7313
3805.309283 0.7311 0.7308 0.7306 0.7303 0.7301
3808.947546 0.7300 0.7300 0.7300 0.7300 0.7300
3812.585809 0.7300 0.7300 0.7300 0.7300 0.7300
3816.224072 0.7300 0.7300 0.7300 0.7300 0.7300
3819.862334 0.7300 0.7299 0.7296 0.7294 0.7291
3823.500597 0.7289 0.7286 0.7284 0.7281 0.7279
3827.138860 0.7276 0.7274 0.7271 0.7270 0.7270
3830.777123 0.7270 0.7270 0.7268 0.7263 0.7258
3834.415386 0.7253 0.7250 0.7250 0.7250 0.7250
3838.053649 0.7250 0.7250 0.7250 0.7250 0.7250
3841.691911 0.7250 0.7250 0.7250 0.7249 0.7247
3845.330174 0.7244 0.7242 0.7240 0.7240 0.7240
3848.968437 0.7240 0.7240 0.7240 0.7240 0.7240
3852.606700 0.7240 0.7240 0.7240 0.7240 0.7240
3856.244963 0.7237 0.7235 0.7232 0.7230 0.7230
3859.883226 0.7230 0.7230 0.7230 0.7230 0.7230
3863.521488 0.7230 0.7230 0.7228 0.7225 0.7223
3867.159751 0.7220 0.7220 0.7220 0.7220 0.7220
3870.798014 0.7220 0.7220 0.7220 0.7220 0.7220
3874.436277 0.7220 0.7220 0.7220 0.7220 0.7220
3878.074540 0.7220 0.7220 0.7220 0.7220 0.7220
3881.712802 0.7220 0.7222 0.7225 0.7227 0.7229
3885.351065 0.7230 0.7230 0.7230 0.7230 0.7230
3888.989328 0.7230 0.7230 0.7230 0.7232 0.7234
3892.627591 0.7237 0.7239 0.7240 0.7240 0.7240
3896.265854 0.7240 0.7240 0.7240 0.7240 0.7240
3899.904117 0.7240 0.7240 0.7240 0.7240 0.7240
3903.542379 0.7240 0.7240 0.7240 0.7239 0.7236
3907.180642 0.7234 0.7231 0.7229 0.7226 0.7224
3910.818905 0.7221 0.7220 0.7220 0.7220 0.7220
3914.457168 0.7220 0.7220 0.7220 0.7220 0.7219
3918.095431 0.7217 0.7214 0.7212 0.7210 0.7210
3921.733693 0.7210 0.7210 0.7210 0.7210 0.7210
3925.371956 0.7210 0.7210 0.7210 0.7210 0.7210
3929.010219 0.7210 0.7210 0.7210 0.7210 0.7210
3932.648482 0.7210 0.7210 0.7210 0.7210 0.7213
3936.286745 0.7215 0.7218 0.7220 0.7220 0.7220
3939.925008 0.7220 0.7220 0.7220 0.7220 0.7220
3943.563270 0.7220 0.7217 0.7215 0.7212 0.7210
3947.201533 0.7210 0.7210 0.7210 0.7210 0.7207
3950.839796 0.7205 0.7203 0.7200 0.7200 0.7200
3954.478059 0.7200 0.7200 0.7198 0.7195 0.7193
3958.116322 0.7190 0.7190 0.7190 0.7190 0.7190
3961.754585 0.7190 0.7190 0.7190 0.7190 0.7190
3965.392847 0.7190 0.7190 0.7190 0.7190 0.7190
3969.031110 0.7190 0.7190 0.7188 0.7186 0.7183
3972.669373 0.7181 0.7178 0.7176 0.7173 0.7171
3976.307636 0.7170 0.7170 0.7170 0.7170 0.7170
3979.945899 0.7170 0.7170 0.7170 0.7168 0.7166
3983.584161 0.7164 0.7161 0.7160 0.7160 0.7160
3987.222424 0.7160 0.7160 0.7160 0.7160 0.7160
3990.860687 0.7160 0.7160 0.7160 0.7160 0.7160
3994.498950 0.7160 0.7160 0.7160 0.7160 0.7160
3998.137213 0.7160 0.7160 0.7159 0.7156 0.7154
4001.775476 0.7151 0.7149 0.7147 0.7144 0.7142
4005.413738 0.7140 0.7140 0.7140 0.7140 0.7140
4009.052001 0.7140 0.7140 0.7140 0.7140 0.7140
4012.690264 0.7140 0.7140 0.7140 0.7140 0.7140
4016.328527 0.7140 0.7140 0.7140 0.7140 0.7140
4019.966790 0.7140 0.7140 0.7140 0.7140 0.7140
4023.605052 0.7137 0.7135 0.7132 0.7130 0.7133
4027.243315 0.7135 0.7138 0.7140 0.7140 0.7140
4030.881578 0.7140 0.7140 0.7140 0.7140 0.7140
4034.519841 0.7140 0.7140 0.7140 0.7140 0.7140
4038.158104 0.7138 0.7135 0.7133 0.7130
##END=
