##TITLE=(PHENYLDIMETHYLSILYL)-METHYL PYRAZINE
##JCAMP-DX=4.24
##DATA TYPE=INFRARED SPECTRUM
##CLASS=COBLENTZ
##ORIGIN=WYANDOTTE CHEMICALS CORP., WYANDOTTE, MICHIGAN, USA
##OWNER=COBLENTZ SOCIETY
Collection (C) 2018 copyright by the U.S. Secretary of Commerce
on behalf of the United States of America. All rights reserved.
##DATE=Not specified, most likely prior to 1970
##NAMES=2-([dimethyl(phenyl)silyl]methyl)pyrazine
##MOLFORM=C13 H16 N2 Si
##SOURCE REFERENCE=COBLENTZ NO. 3320
##$NIST ID=B6003320
##$NIST SOURCE=COBLENTZ
##$NIST IMAGE=cob3320
##SPECTROMETER/DATA SYSTEM=Not specified, most likely a prism, grating, or hybrid spectrometer.
##STATE=LIQUID
##PATH LENGTH=0.0015 CM
##SAMPLING PROCEDURE=TRANSMISSION
##RESOLUTION=4
##DATA PROCESSING=DIGITIZED BY NIST FROM HARD COPY
##XUNITS=MICROMETERS
##YUNITS=TRANSMITTANCE
##XFACTOR=1.000000
##YFACTOR=1
##DELTAX=000.006809
##FIRSTX=2.014
##LASTX=16.0002
##FIRSTY=0.965
##MAXX=16.0002
##MINX=2.014
##MAXY=0.964
##MINY=0.042
##NPOINTS=2055
##XYDATA=(X++(Y..Y))
2.014000 0.9650 0.9640 0.9640 0.9620 0.9590
2.048063 0.9570 0.9500 0.9500 0.9480 0.9480
2.082000 0.9480 0.9480 0.9500 0.9520 0.9540
2.116063 0.9540 0.9550 0.9550 0.9550 0.9520
2.150000 0.9500 0.9470 0.9450 0.9450 0.9420
2.184063 0.9420 0.9400 0.9400 0.9400 0.9400
2.218000 0.9420 0.9450 0.9470 0.9480 0.9480
2.252063 0.9480 0.9470 0.9450 0.9400 0.9380
2.286000 0.9350 0.9350 0.9360 0.9380 0.9400
2.320063 0.9400 0.9420 0.9400 0.9380 0.9380
2.354000 0.9350 0.9310 0.9300 0.9300 0.9260
2.388063 0.9250 0.9250 0.9260 0.9280 0.9310
2.422000 0.9350 0.9380 0.9380 0.9400 0.9400
2.456063 0.9420 0.9430 0.9450 0.9450 0.9470
2.490000 0.9500 0.9500 0.9480 0.9450 0.9420
2.524063 0.9400 0.9420 0.9430 0.9470 0.9480
2.558000 0.9480 0.9480 0.9470 0.9420 0.9420
2.592063 0.9380 0.9360 0.9350 0.9330 0.9330
2.626000 0.9310 0.9300 0.9300 0.9280 0.9280
2.660063 0.9280 0.9280 0.9210 0.9190 0.9180
2.695000 0.9160 0.9180 0.9140 0.9130 0.9090
2.729063 0.9090 0.9090 0.9090 0.9040 0.9010
2.763000 0.9010 0.8990 0.8990 0.8940 0.8900
2.797063 0.8870 0.8820 0.8790 0.8730 0.8720
2.831000 0.8680 0.8620 0.8550 0.8460 0.8410
2.865063 0.8390 0.8380 0.8380 0.8380 0.8360
2.899000 0.8340 0.8310 0.8220 0.8190 0.8170
2.933063 0.8120 0.8100 0.8090 0.8070 0.8070
2.967000 0.8100 0.8140 0.8160 0.8140 0.8160
3.001063 0.8170 0.8240 0.8360 0.8390 0.8390
3.035000 0.8390 0.8340 0.8340 0.8410 0.8410
3.069063 0.8430 0.8440 0.8460 0.8480 0.8480
3.103000 0.8480 0.8480 0.8480 0.8460 0.8440
3.137063 0.8430 0.8430 0.8430 0.8430 0.8410
3.171000 0.8390 0.8360 0.8310 0.8190 0.8050
3.205063 0.7880 0.7700 0.7460 0.6890 0.6250
3.239000 0.5410 0.4660 0.4000 0.3980 0.4000
3.273063 0.4700 0.4900 0.5020 0.5040 0.5070
3.307000 0.5120 0.5280 0.5840 0.5840 0.5700
3.341063 0.4770 0.4120 0.3100 0.2990 0.3100
3.375000 0.4200 0.4770 0.5510 0.6080 0.6520
3.409063 0.6570 0.6600 0.6620 0.6660 0.6790
3.444000 0.7000 0.7220 0.7510 0.7660 0.7830
3.478063 0.7950 0.8050 0.8160 0.8260 0.8290
3.512000 0.8330 0.8390 0.8460 0.8560 0.8670
3.546063 0.8700 0.8720 0.8730 0.8770 0.8800
3.580000 0.8850 0.8900 0.8960 0.9040 0.9080
3.614063 0.9140 0.9180 0.9180 0.9180 0.9180
3.648000 0.9180 0.9210 0.9210 0.9250 0.9250
3.682063 0.9230 0.9230 0.9260 0.9310 0.9310
3.716000 0.9330 0.9350 0.9360 0.9380 0.9380
3.750063 0.9380 0.9360 0.9330 0.9310 0.9330
3.784000 0.9350 0.9380 0.9420 0.9430 0.9430
3.818063 0.9400 0.9400 0.9420 0.9420 0.9430
3.852000 0.9470 0.9470 0.9450 0.9430 0.9430
3.886063 0.9430 0.9450 0.9450 0.9500 0.9500
3.920000 0.9420 0.9400 0.9360 0.9400 0.9500
3.954063 0.9520 0.9550 0.9590 0.9590 0.9550
3.988000 0.9470 0.9450 0.9420 0.9430 0.9420
4.022063 0.9420 0.9400 0.9350 0.9310 0.9310
4.056000 0.9310 0.9330 0.9350 0.9330 0.9330
4.090063 0.9330 0.9360 0.9360 0.9360 0.9380
4.125000 0.9380 0.9380 0.9360 0.9380 0.9400
4.159063 0.9400 0.9400 0.9400 0.9400 0.9420
4.193000 0.9420 0.9400 0.9380 0.9350 0.9330
4.227063 0.9310 0.9310 0.9330 0.9360 0.9420
4.261000 0.9450 0.9480 0.9480 0.9500 0.9520
4.295063 0.9520 0.9450 0.9480 0.9520 0.9550
4.329000 0.9600 0.9590 0.9600 0.9600 0.9600
4.363063 0.9590 0.9570 0.9570 0.9550 0.9520
4.397000 0.9480 0.9450 0.9430 0.9420 0.9380
4.431063 0.9360 0.9360 0.9380 0.9420 0.9420
4.465000 0.9400 0.9400 0.9420 0.9420 0.9470
4.499063 0.9470 0.9420 0.9400 0.9400 0.9380
4.533000 0.9380 0.9400 0.9400 0.9400 0.9400
4.567063 0.9400 0.9420 0.9430 0.9470 0.9480
4.601000 0.9500 0.9500 0.9480 0.9480 0.9420
4.635063 0.9420 0.9450 0.9480 0.9520 0.9520
4.669000 0.9500 0.9480 0.9470 0.9470 0.9480
4.703063 0.9500 0.9480 0.9470 0.9450 0.9430
4.737000 0.9450 0.9450 0.9450 0.9450 0.9450
4.771063 0.9450 0.9480 0.9500 0.9470 0.9470
4.805000 0.9470 0.9480 0.9470 0.9430 0.9420
4.839063 0.9430 0.9430 0.9480 0.9500 0.9500
4.874000 0.9500 0.9500 0.9480 0.9470 0.9420
4.908063 0.9380 0.9380 0.9360 0.9350 0.9300
4.942000 0.9300 0.9310 0.9380 0.9400 0.9420
4.976063 0.9420 0.9420 0.9380 0.9380 0.9380
5.010000 0.9400 0.9400 0.9430 0.9430 0.9420
5.044063 0.9350 0.9300 0.9280 0.9280 0.9280
5.078000 0.9230 0.9190 0.9110 0.9040 0.8990
5.112063 0.8970 0.8900 0.8840 0.8750 0.8580
5.146000 0.8510 0.8500 0.8510 0.8600 0.8750
5.180063 0.8840 0.8870 0.8920 0.8990 0.8990
5.214000 0.8900 0.8960 0.8970 0.9010 0.9080
5.248063 0.9090 0.9080 0.8960 0.8850 0.8790
5.282000 0.8680 0.8630 0.8600 0.8580 0.8560
5.316063 0.8510 0.8560 0.8600 0.8650 0.8700
5.350000 0.8800 0.8970 0.9060 0.9180 0.9190
5.384063 0.9230 0.9250 0.9250 0.9230 0.9230
5.418000 0.9230 0.9230 0.9210 0.9190 0.9190
5.452063 0.9140 0.9060 0.8960 0.8890 0.8870
5.486000 0.8840 0.8800 0.8700 0.8510 0.8500
5.520063 0.8500 0.8600 0.8770 0.8940 0.9010
5.554000 0.9040 0.9080 0.9080 0.9080 0.9090
5.588063 0.9130 0.9130 0.9090 0.9080 0.9020
5.623000 0.9010 0.8960 0.8890 0.8850 0.8900
5.657063 0.8870 0.8850 0.8850 0.8840 0.8850
5.691000 0.8890 0.8920 0.8960 0.8990 0.9020
5.725063 0.9040 0.9040 0.9080 0.9080 0.9080
5.759000 0.9040 0.8990 0.8900 0.8900 0.8890
5.793063 0.8890 0.8960 0.8920 0.8890 0.8870
5.827000 0.8850 0.8870 0.8870 0.8870 0.8890
5.861063 0.8890 0.8890 0.8890 0.8840 0.8790
5.895000 0.8730 0.8720 0.8720 0.8700 0.8680
5.929063 0.8620 0.8580 0.8510 0.8580 0.8530
5.963000 0.8460 0.8340 0.8260 0.8190 0.8140
5.997063 0.8020 0.7970 0.7970 0.7950 0.7880
6.031000 0.7710 0.7560 0.7410 0.7240 0.7050
6.065063 0.6840 0.6590 0.6110 0.5550 0.5050
6.099000 0.4870 0.4830 0.4830 0.4920 0.5210
6.133063 0.5450 0.5860 0.6350 0.6490 0.6590
6.167000 0.6710 0.6790 0.6840 0.6840 0.6810
6.201063 0.6690 0.6420 0.6210 0.5960 0.5720
6.235000 0.5700 0.5720 0.6140 0.6380 0.6400
6.269063 0.6420 0.6420 0.6500 0.6670 0.6950
6.304000 0.7170 0.7300 0.7370 0.7520 0.7610
6.338063 0.7680 0.7710 0.7780 0.7800 0.7830
6.372000 0.7880 0.7880 0.7900 0.7900 0.7880
6.406063 0.7810 0.7780 0.7710 0.7680 0.7610
6.440000 0.7410 0.7050 0.6520 0.6010 0.5620
6.474063 0.5500 0.5550 0.5580 0.5550 0.5460
6.508000 0.5410 0.5360 0.5360 0.5790 0.6400
6.542063 0.6790 0.7010 0.7180 0.7270 0.7440
6.576000 0.7490 0.7490 0.7270 0.6930 0.6600
6.610063 0.6210 0.6060 0.5860 0.5620 0.5620
6.644000 0.5600 0.5620 0.5840 0.5920 0.5920
6.678063 0.5910 0.5970 0.6110 0.6200 0.6200
6.712000 0.6180 0.5960 0.5770 0.5450 0.4990
6.746063 0.4940 0.4940 0.5110 0.5580 0.5870
6.780000 0.6030 0.6080 0.6060 0.6030 0.5960
6.814063 0.5940 0.5920 0.5910 0.5870 0.5870
6.848000 0.5820 0.5820 0.5800 0.5680 0.5550
6.882063 0.5460 0.5380 0.5260 0.5110 0.4990
6.916000 0.4750 0.4390 0.4030 0.3520 0.3150
6.950063 0.2820 0.2400 0.1770 0.1200 0.1120
6.984000 0.1120 0.1580 0.2190 0.2530 0.2790
7.018063 0.2990 0.2990 0.2990 0.2910 0.2750
7.053000 0.2550 0.2360 0.2260 0.2160 0.1970
7.087063 0.1830 0.1750 0.1730 0.1720 0.1720
7.121000 0.1920 0.2160 0.2410 0.2810 0.3160
7.155063 0.3500 0.3900 0.4100 0.4340 0.4660
7.189000 0.5090 0.5380 0.5570 0.5630 0.5700
7.223063 0.5700 0.5650 0.5650 0.5770 0.6140
7.257000 0.6380 0.6600 0.6830 0.7010 0.7170
7.291063 0.7250 0.7390 0.7490 0.7540 0.7630
7.325000 0.7680 0.7660 0.7680 0.7700 0.7700
7.359063 0.7680 0.7660 0.7680 0.7680 0.7680
7.393000 0.7640 0.7590 0.7560 0.7490 0.7420
7.427063 0.7340 0.7290 0.7220 0.7180 0.7050
7.461000 0.7000 0.7000 0.7000 0.7000 0.6980
7.495063 0.6980 0.6890 0.6840 0.6740 0.6590
7.529000 0.6500 0.6420 0.6350 0.6280 0.6230
7.563063 0.6210 0.6200 0.6180 0.6200 0.6300
7.597000 0.6380 0.6380 0.6380 0.6330 0.6250
7.631063 0.6140 0.6030 0.5990 0.5970 0.5960
7.665000 0.5990 0.6060 0.6160 0.6300 0.6380
7.699063 0.6500 0.6590 0.6600 0.6690 0.6720
7.733000 0.6740 0.6760 0.6780 0.6790 0.6810
7.767063 0.6790 0.6690 0.6640 0.6620 0.6550
7.802000 0.6420 0.6230 0.6060 0.5960 0.5720
7.836063 0.5500 0.5210 0.4850 0.4360 0.3760
7.870000 0.3230 0.2810 0.2450 0.1970 0.1580
7.904063 0.1270 0.1020 0.0780 0.0630 0.0490
7.938000 0.0440 0.0440 0.0470 0.0470 0.0490
7.972063 0.0520 0.0590 0.0680 0.0930 0.1390
8.006000 0.1890 0.2480 0.3080 0.3690 0.4270
8.040063 0.4800 0.5240 0.5550 0.5750 0.5960
8.074000 0.6060 0.6200 0.6250 0.6250 0.6230
8.108063 0.6160 0.6060 0.6010 0.5960 0.5890
8.142000 0.5800 0.5800 0.5910 0.6180 0.6380
8.176063 0.6550 0.6670 0.6790 0.7000 0.7120
8.210000 0.7130 0.7150 0.7170 0.7180 0.7200
8.244063 0.7200 0.7200 0.7220 0.7270 0.7290
8.278000 0.7290 0.7300 0.7300 0.7290 0.7200
8.312063 0.7120 0.7030 0.7000 0.6980 0.6910
8.346000 0.6810 0.6710 0.6600 0.6500 0.6420
8.380063 0.6420 0.6420 0.6470 0.6550 0.6660
8.414000 0.6690 0.6690 0.6690 0.6690 0.6690
8.448063 0.6640 0.6600 0.6590 0.6490 0.6400
8.482000 0.6320 0.6210 0.6060 0.5960 0.5840
8.516063 0.5680 0.5550 0.5410 0.5280 0.5140
8.551000 0.5040 0.4940 0.4920 0.4920 0.4880
8.585063 0.4800 0.4590 0.4410 0.4250 0.4190
8.619000 0.4020 0.3980 0.3980 0.4020 0.4020
8.653063 0.4170 0.4310 0.4460 0.4560 0.4700
8.687000 0.4780 0.4800 0.4820 0.4850 0.4880
8.721063 0.4880 0.4830 0.4780 0.4680 0.4560
8.755000 0.4440 0.4310 0.4150 0.3960 0.3830
8.789063 0.3780 0.3670 0.3560 0.3450 0.3270
8.823000 0.3080 0.2930 0.2670 0.2330 0.1970
8.857063 0.1600 0.1240 0.0950 0.0730 0.0630
8.891000 0.0490 0.0440 0.0440 0.0440 0.0440
8.925063 0.0470 0.0560 0.0610 0.0610 0.0710
8.959000 0.0950 0.1270 0.1560 0.1770 0.1830
8.993063 0.2040 0.2180 0.2280 0.2350 0.2400
9.027000 0.2410 0.2410 0.2330 0.2190 0.2140
9.061063 0.2120 0.2110 0.2040 0.1950 0.1890
9.095000 0.1780 0.1680 0.1560 0.1490 0.1410
9.129063 0.1320 0.1240 0.1190 0.1120 0.1050
9.163000 0.1000 0.0930 0.0880 0.0830 0.0780
9.197063 0.0690 0.0630 0.0590 0.0540 0.0520
9.232000 0.0520 0.0510 0.0490 0.0490 0.0490
9.266063 0.0490 0.0490 0.0440 0.0420 0.0420
9.300000 0.0420 0.0420 0.0420 0.0420 0.0420
9.334063 0.0420 0.0420 0.0420 0.0420 0.0420
9.368000 0.0420 0.0420 0.0420 0.0420 0.0420
9.402063 0.0420 0.0420 0.0420 0.0420 0.0420
9.436000 0.0420 0.0420 0.0420 0.0420 0.0420
9.470063 0.0420 0.0420 0.0420 0.0420 0.0420
9.504000 0.0420 0.0420 0.0420 0.0440 0.0440
9.538063 0.0450 0.0450 0.0450 0.0450 0.0440
9.572000 0.0440 0.0470 0.0510 0.0510 0.0510
9.606063 0.0440 0.0440 0.0470 0.0470 0.0490
9.640000 0.0510 0.0520 0.0610 0.0690 0.0710
9.674063 0.0730 0.0730 0.0730 0.0710 0.0640
9.708000 0.0590 0.0560 0.0520 0.0520 0.0520
9.742063 0.0520 0.0630 0.0630 0.0590 0.0590
9.776000 0.0590 0.0570 0.0570 0.0560 0.0540
9.810063 0.0570 0.0730 0.0810 0.0970 0.1150
9.844000 0.1360 0.1560 0.1770 0.1970 0.2160
9.878063 0.2290 0.2470 0.2600 0.2810 0.3030
9.912000 0.3200 0.3370 0.3560 0.3730 0.3850
9.946063 0.4030 0.4190 0.4290 0.4320 0.4290
9.981000 0.3950 0.3660 0.3300 0.2960 0.2450
10.015063 0.2410 0.2410 0.3300 0.4050 0.4560
10.049000 0.4880 0.5050 0.5260 0.5380 0.5500
10.083063 0.5530 0.5650 0.5720 0.5770 0.5790
10.117000 0.5820 0.5870 0.5870 0.5910 0.6010
10.151063 0.6080 0.6090 0.6110 0.6130 0.6140
10.185000 0.6180 0.6200 0.6210 0.6230 0.6280
10.219063 0.6280 0.6320 0.6350 0.6380 0.6420
10.253000 0.6450 0.6470 0.6490 0.6500 0.6520
10.287063 0.6550 0.6570 0.6590 0.6620 0.6670
10.321000 0.6670 0.6690 0.6710 0.6780 0.6810
10.355063 0.6880 0.6890 0.6980 0.7000 0.7030
10.389000 0.7060 0.7080 0.7080 0.7100 0.7120
10.423063 0.7130 0.7170 0.7170 0.7130 0.7120
10.457000 0.7120 0.7120 0.7120 0.7120 0.7100
10.491063 0.7100 0.7100 0.7100 0.7080 0.7080
10.525000 0.7060 0.7010 0.6980 0.6980 0.6930
10.559063 0.6910 0.6910 0.6910 0.6910 0.6910
10.593000 0.6930 0.6930 0.6950 0.6930 0.6880
10.627063 0.6810 0.6790 0.6810 0.6810 0.6840
10.661000 0.6830 0.6790 0.6780 0.6780 0.6760
10.695063 0.6760 0.6740 0.6740 0.6740 0.6740
10.730000 0.6740 0.6740 0.6740 0.6740 0.6740
10.764063 0.6720 0.6720 0.6720 0.6720 0.6710
10.798000 0.6710 0.6690 0.6690 0.6670 0.6640
10.832063 0.6640 0.6640 0.6620 0.6570 0.6500
10.866000 0.6490 0.6450 0.6430 0.6430 0.6430
10.900063 0.6430 0.6380 0.6370 0.6320 0.6300
10.934000 0.6300 0.6300 0.6300 0.6300 0.6320
10.968063 0.6350 0.6450 0.6470 0.6490 0.6520
11.002000 0.6570 0.6620 0.6660 0.6690 0.6710
11.036063 0.6780 0.6810 0.6880 0.6910 0.6980
11.070000 0.6980 0.6980 0.7000 0.7010 0.7030
11.104063 0.7060 0.7080 0.7080 0.7080 0.7080
11.138000 0.7060 0.7060 0.7050 0.7010 0.7000
11.172063 0.7000 0.7000 0.7010 0.7010 0.6950
11.206000 0.6890 0.6880 0.6830 0.6790 0.6740
11.240063 0.6710 0.6710 0.6690 0.6690 0.6640
11.274000 0.6590 0.6500 0.6490 0.6490 0.6470
11.308063 0.6430 0.6400 0.6320 0.6280 0.6210
11.342000 0.6180 0.6160 0.6130 0.6110 0.6090
11.376063 0.6080 0.6030 0.6030 0.6010 0.5970
11.411000 0.5920 0.5910 0.5890 0.5860 0.5800
11.445063 0.5770 0.5720 0.5680 0.5630 0.5620
11.479000 0.5580 0.5480 0.5480 0.5410 0.5330
11.513063 0.5280 0.5210 0.5120 0.5040 0.4990
11.547000 0.4950 0.4870 0.4780 0.4710 0.4610
11.581063 0.4510 0.4490 0.4420 0.4360 0.4200
11.615000 0.4120 0.4000 0.3930 0.3780 0.3690
11.649063 0.3520 0.3400 0.3300 0.3210 0.3110
11.683000 0.2990 0.2890 0.2790 0.2690 0.2650
11.717063 0.2550 0.2430 0.2380 0.2330 0.2290
11.751000 0.2280 0.2190 0.2110 0.2070 0.2010
11.785063 0.1990 0.1950 0.1920 0.1890 0.1820
11.819000 0.1720 0.1680 0.1610 0.1580 0.1510
11.853063 0.1440 0.1410 0.1370 0.1290 0.1200
11.887000 0.1150 0.1090 0.1000 0.0910 0.0880
11.921063 0.0830 0.0760 0.0630 0.0590 0.0590
11.955000 0.0570 0.0560 0.0520 0.0520 0.0520
11.989063 0.0510 0.0520 0.0510 0.0470 0.0420
12.023000 0.0420 0.0440 0.0450 0.0490 0.0510
12.057063 0.0490 0.0490 0.0440 0.0420 0.0420
12.091000 0.0420 0.0490 0.0490 0.0490 0.0490
12.125063 0.0510 0.0520 0.0520 0.0510 0.0510
12.160000 0.0510 0.0520 0.0610 0.0690 0.0710
12.194063 0.0780 0.0930 0.1020 0.1140 0.1200
12.228000 0.1270 0.1390 0.1490 0.1600 0.1680
12.262063 0.1730 0.1830 0.1900 0.1990 0.2010
12.296000 0.2090 0.2140 0.2190 0.2210 0.2210
12.330063 0.2240 0.2290 0.2290 0.2280 0.2240
12.364000 0.2230 0.2190 0.2110 0.2060 0.1950
12.398063 0.1850 0.1720 0.1600 0.1480 0.1430
12.432000 0.1320 0.1290 0.1200 0.1100 0.1020
12.466063 0.0900 0.0800 0.0710 0.0690 0.0680
12.500000 0.0590 0.0590 0.0560 0.0540 0.0520
12.534063 0.0510 0.0490 0.0470 0.0470 0.0490
12.568000 0.0510 0.0510 0.0440 0.0440 0.0470
12.602063 0.0520 0.0520 0.0520 0.0510 0.0510
12.636000 0.0510 0.0510 0.0510 0.0510 0.0510
12.670063 0.0490 0.0490 0.0510 0.0540 0.0560
12.704000 0.0540 0.0510 0.0490 0.0440 0.0440
12.738063 0.0510 0.0520 0.0520 0.0520 0.0540
12.772000 0.0560 0.0610 0.0630 0.0640 0.0640
12.806063 0.0690 0.0760 0.0860 0.0900 0.0980
12.840000 0.1050 0.1170 0.1310 0.1410 0.1510
12.874063 0.1610 0.1800 0.1970 0.2110 0.2290
12.909000 0.2470 0.2640 0.2770 0.2960 0.3060
12.943063 0.3270 0.3420 0.3520 0.3640 0.3760
12.977000 0.3910 0.4050 0.4170 0.4240 0.4370
13.011063 0.4530 0.4650 0.4770 0.4820 0.4880
13.045000 0.4900 0.4920 0.4990 0.5000 0.5070
13.079063 0.5090 0.5170 0.5190 0.5220 0.5280
13.113000 0.5290 0.5290 0.5290 0.5290 0.5280
13.147063 0.5280 0.5280 0.5280 0.5280 0.5280
13.181000 0.5220 0.5220 0.5210 0.5110 0.5000
13.215063 0.4950 0.4850 0.4800 0.4710 0.4650
13.249000 0.4560 0.4460 0.4250 0.4150 0.3960
13.283063 0.3790 0.3660 0.3450 0.3210 0.3030
13.317000 0.2870 0.2740 0.2600 0.2470 0.2280
13.351063 0.2120 0.2020 0.1870 0.1700 0.1600
13.385000 0.1510 0.1490 0.1460 0.1440 0.1390
13.419063 0.1370 0.1360 0.1340 0.1340 0.1320
13.453000 0.1320 0.1310 0.1290 0.1290 0.1320
13.487063 0.1390 0.1410 0.1430 0.1510 0.1530
13.521000 0.1550 0.1560 0.1530 0.1550 0.1580
13.555063 0.1610 0.1630 0.1650 0.1700 0.1720
13.589000 0.1780 0.1800 0.1800 0.1800 0.1780
13.623063 0.1780 0.1770 0.1730 0.1720 0.1730
13.658000 0.1720 0.1700 0.1610 0.1580 0.1580
13.692063 0.1580 0.1490 0.1480 0.1440 0.1410
13.726000 0.1370 0.1370 0.1290 0.1270 0.1220
13.760063 0.1270 0.1240 0.1190 0.1150 0.1120
13.794000 0.1120 0.1120 0.1120 0.1150 0.1170
13.828063 0.1220 0.1290 0.1340 0.1390 0.1460
13.862000 0.1530 0.1630 0.1780 0.1900 0.2010
13.896063 0.2110 0.2260 0.2400 0.2520 0.2620
13.930000 0.2690 0.2790 0.2890 0.2960 0.3010
13.964063 0.3100 0.3180 0.3200 0.3230 0.3270
13.998000 0.3270 0.3280 0.3280 0.3230 0.3210
14.032063 0.3200 0.3180 0.3110 0.3010 0.2980
14.066000 0.2890 0.2810 0.2720 0.2650 0.2570
14.100063 0.2500 0.2400 0.2280 0.2140 0.2060
14.134000 0.1950 0.1830 0.1750 0.1700 0.1680
14.168063 0.1650 0.1600 0.1510 0.1440 0.1430
14.202000 0.1410 0.1390 0.1370 0.1360 0.1320
14.236063 0.1290 0.1290 0.1260 0.1200 0.1190
14.270000 0.1190 0.1190 0.1140 0.1100 0.1100
14.304063 0.1090 0.1070 0.1090 0.1100 0.1120
14.339000 0.1120 0.1120 0.1120 0.1120 0.1140
14.373063 0.1190 0.1190 0.1220 0.1270 0.1370
14.407000 0.1480 0.1600 0.1700 0.1750 0.1850
14.441063 0.2010 0.2090 0.2210 0.2410 0.2570
14.475000 0.2750 0.2940 0.3150 0.3400 0.3640
14.509063 0.3780 0.3900 0.4030 0.4200 0.4410
14.543000 0.4580 0.4700 0.4780 0.4900 0.5020
14.577063 0.5110 0.5210 0.5310 0.5430 0.5480
14.611000 0.5530 0.5570 0.5570 0.5620 0.5670
14.645063 0.5680 0.5740 0.5770 0.5770 0.5790
14.679000 0.5800 0.5800 0.5870 0.5870 0.5890
14.713063 0.5910 0.5910 0.5940 0.5960 0.5970
14.747000 0.5970 0.5970 0.5970 0.5970 0.5960
14.781063 0.5940 0.5910 0.5910 0.5940 0.5960
14.815000 0.5960 0.5970 0.5970 0.5970 0.5970
14.849063 0.5990 0.6030 0.6060 0.6080 0.6130
14.883000 0.6180 0.6300 0.6320 0.6330 0.6380
14.917063 0.6420 0.6430 0.6490 0.6500 0.6520
14.951000 0.6590 0.6620 0.6640 0.6660 0.6670
14.985063 0.6780 0.6790 0.6830 0.6830 0.6790
15.019000 0.6780 0.6720 0.6710 0.6710 0.6670
15.053063 0.6670 0.6720 0.6780 0.6780 0.6780
15.088000 0.6790 0.6790 0.6810 0.6830 0.6830
15.122063 0.6830 0.6830 0.6880 0.6880 0.6960
15.156000 0.7030 0.7080 0.7120 0.7130 0.7170
15.190063 0.7180 0.7200 0.7220 0.7320 0.7370
15.224000 0.7390 0.7410 0.7410 0.7410 0.7410
15.258063 0.7410 0.7410 0.7390 0.7370 0.7340
15.292000 0.7340 0.7320 0.7300 0.7290 0.7200
15.326063 0.7120 0.7080 0.7010 0.6980 0.6890
15.360000 0.6860 0.6780 0.6660 0.6550 0.6470
15.394063 0.6400 0.6350 0.6250 0.6130 0.6040
15.428000 0.6010 0.5910 0.5800 0.5720 0.5680
15.462063 0.5630 0.5620 0.5620 0.5630 0.5650
15.496000 0.5670 0.5720 0.5790 0.5870 0.5960
15.530063 0.6030 0.6090 0.6210 0.6300 0.6370
15.564000 0.6450 0.6550 0.6690 0.6720 0.6810
15.598063 0.6840 0.6890 0.6930 0.7000 0.7080
15.632000 0.7170 0.7180 0.7240 0.7270 0.7270
15.666063 0.7300 0.7340 0.7370 0.7390 0.7410
15.700000 0.7420 0.7420 0.7440 0.7440 0.7460
15.734063 0.7470 0.7490 0.7510 0.7520 0.7520
15.768000 0.7510 0.7510 0.7490 0.7490 0.7490
15.802063 0.7470 0.7470 0.7460 0.7440 0.7410
15.837000 0.7410 0.7410 0.7410 0.7410 0.7390
15.871063 0.7370 0.7370 0.7370 0.7350 0.7320
15.905000 0.7300 0.7300 0.7320 0.7320 0.7340
15.939063 0.7350 0.7350 0.7340 0.7290 0.7270
15.973000 0.7250 0.7250 0.7250 0.7270 0.7270
##END=
