##TITLE=1-(2-Quinolyl)hexahydro-2H-azepin-2-one-
##JCAMP-DX=4.24
$$ By DXEDIT 1.05 (RS McDonald)
##DATA TYPE=INFRARED SPECTRUM
##CLASS=COBLENTZ III
##ORIGIN=DOW CHEMICAL COMPANY
##OWNER=COPYRIGHT (C) 1988 by COBLENTZ SOCIETY INC.
Collection (C) 2018 copyright by the U.S. Secretary of Commerce
on behalf of the United States of America. All rights reserved.
##DATE=1965/12/04
##NAMES=1-(2-quinolinyl)-2-azepanone
##MOLFORM=C15 H16 N2 O
##SOURCE REFERENCE=COBLENTZ NO. 07568
##$NIST ID=B6007568
##$NIST SOURCE=COBLENTZ
##$NIST IMAGE=cob7568
##SPECTROMETER/DATA SYSTEM=DOW KBr FOREPRISM-GRATING
##INSTRUMENT PARAMETERS=BLAZED AT 3.5, 12.0, 20.0 MICRON AND CHANGED AT 5.0, 7.5, 14.9 MICRON
##STATE=SOLID (SPLIT MULL), FLUOROLUBE FOR 3800-1330 CM^-^1, NUJOL FOR 1330-400 CM^-^1
##SAMPLING PROCEDURE=TRANSMISSION
##RESOLUTION=2
##DATA PROCESSING=DIGITIZED BY COBLENTZ SOCIETY (BATCH I) FROM HARD COPY
##XUNITS=1/CM
##YUNITS=TRANSMITTANCE
##XFACTOR=1
##YFACTOR=1
##DELTAX=1
##FIRSTX=3800
##LASTX=391
##FIRSTY=0.7528
##MAXX=3800
##MINX=391
##MAXY=0.9462
##MINY=0.0901
##NPOINTS=3410
##XYDATA=(X++(Y..Y))
3800.000000 0.7528 0.7528 0.7530 0.7531 0.7532
3795.000000 0.7533 0.7534 0.7535 0.7537 0.7538
3790.000000 0.7539 0.7540 0.7541 0.7542 0.7543
3785.000000 0.7544 0.7545 0.7546 0.7548 0.7549
3780.000000 0.7550 0.7551 0.7551 0.7553 0.7554
3775.000000 0.7555 0.7557 0.7558 0.7558 0.7560
3770.000000 0.7561 0.7561 0.7562 0.7564 0.7565
3765.000000 0.7567 0.7568 0.7568 0.7569 0.7571
3760.000000 0.7571 0.7572 0.7574 0.7574 0.7575
3755.000000 0.7575 0.7575 0.7575 0.7576 0.7578
3750.000000 0.7578 0.7578 0.7580 0.7580 0.7581
3745.000000 0.7582 0.7584 0.7585 0.7586 0.7587
3740.000000 0.7588 0.7589 0.7591 0.7592 0.7593
3735.000000 0.7593 0.7594 0.7594 0.7595 0.7595
3730.000000 0.7595 0.7595 0.7596 0.7596 0.7597
3725.000000 0.7597 0.7597 0.7597 0.7598 0.7598
3720.000000 0.7598 0.7598 0.7598 0.7598 0.7598
3715.000000 0.7597 0.7597 0.7597 0.7597 0.7596
3710.000000 0.7596 0.7595 0.7595 0.7594 0.7594
3705.000000 0.7593 0.7593 0.7592 0.7592 0.7592
3700.000000 0.7592 0.7591 0.7591 0.7591 0.7592
3695.000000 0.7592 0.7592 0.7592 0.7592 0.7592
3690.000000 0.7592 0.7592 0.7593 0.7593 0.7593
3685.000000 0.7593 0.7593 0.7593 0.7593 0.7593
3680.000000 0.7594 0.7594 0.7594 0.7594 0.7594
3675.000000 0.7594 0.7594 0.7594 0.7594 0.7594
3670.000000 0.7594 0.7594 0.7594 0.7594 0.7594
3665.000000 0.7594 0.7594 0.7594 0.7594 0.7594
3660.000000 0.7594 0.7594 0.7594 0.7594 0.7594
3655.000000 0.7594 0.7595 0.7596 0.7597 0.7597
3650.000000 0.7598 0.7598 0.7599 0.7599 0.7600
3645.000000 0.7600 0.7601 0.7601 0.7601 0.7601
3640.000000 0.7603 0.7603 0.7604 0.7604 0.7605
3635.000000 0.7606 0.7607 0.7607 0.7608 0.7608
3630.000000 0.7608 0.7608 0.7608 0.7608 0.7608
3625.000000 0.7608 0.7608 0.7608 0.7608 0.7608
3620.000000 0.7608 0.7608 0.7608 0.7608 0.7608
3615.000000 0.7608 0.7608 0.7608 0.7608 0.7608
3610.000000 0.7608 0.7608 0.7608 0.7608 0.7608
3605.000000 0.7607 0.7607 0.7607 0.7607 0.7607
3600.000000 0.7607 0.7606 0.7606 0.7606 0.7606
3595.000000 0.7601 0.7598 0.7594 0.7591 0.7583
3590.000000 0.7575 0.7567 0.7558 0.7550 0.7542
3585.000000 0.7534 0.7525 0.7524 0.7521 0.7526
3580.000000 0.7533 0.7536 0.7540 0.7543 0.7547
3575.000000 0.7550 0.7554 0.7557 0.7561 0.7561
3570.000000 0.7562 0.7564 0.7565 0.7565 0.7565
3565.000000 0.7567 0.7568 0.7568 0.7569 0.7571
3560.000000 0.7571 0.7571 0.7572 0.7574 0.7575
3555.000000 0.7575 0.7575 0.7575 0.7575 0.7574
3550.000000 0.7574 0.7572 0.7572 0.7571 0.7571
3545.000000 0.7569 0.7569 0.7568 0.7568 0.7568
3540.000000 0.7568 0.7567 0.7565 0.7565 0.7565
3535.000000 0.7564 0.7564 0.7562 0.7562 0.7561
3530.000000 0.7561 0.7561 0.7561 0.7560 0.7560
3525.000000 0.7558 0.7558 0.7558 0.7558 0.7557
3520.000000 0.7557 0.7556 0.7556 0.7555 0.7555
3515.000000 0.7555 0.7555 0.7555 0.7555 0.7555
3510.000000 0.7555 0.7555 0.7555 0.7555 0.7555
3505.000000 0.7555 0.7555 0.7555 0.7555 0.7555
3500.000000 0.7555 0.7555 0.7555 0.7554 0.7554
3495.000000 0.7554 0.7554 0.7554 0.7554 0.7554
3490.000000 0.7554 0.7554 0.7554 0.7554 0.7554
3485.000000 0.7554 0.7554 0.7554 0.7554 0.7554
3480.000000 0.7554 0.7554 0.7554 0.7554 0.7554
3475.000000 0.7554 0.7554 0.7554 0.7554 0.7553
3470.000000 0.7553 0.7553 0.7553 0.7553 0.7553
3465.000000 0.7553 0.7554 0.7554 0.7554 0.7554
3460.000000 0.7554 0.7554 0.7555 0.7555 0.7555
3455.000000 0.7555 0.7556 0.7556 0.7556 0.7556
3450.000000 0.7557 0.7557 0.7557 0.7557 0.7558
3445.000000 0.7558 0.7558 0.7558 0.7558 0.7558
3440.000000 0.7558 0.7558 0.7560 0.7560 0.7560
3435.000000 0.7560 0.7560 0.7560 0.7561 0.7561
3430.000000 0.7561 0.7561 0.7561 0.7561 0.7561
3425.000000 0.7561 0.7561 0.7561 0.7561 0.7561
3420.000000 0.7561 0.7561 0.7561 0.7561 0.7561
3415.000000 0.7561 0.7562 0.7562 0.7562 0.7562
3410.000000 0.7562 0.7562 0.7562 0.7562 0.7562
3405.000000 0.7562 0.7562 0.7562 0.7562 0.7562
3400.000000 0.7562 0.7562 0.7564 0.7564 0.7565
3395.000000 0.7565 0.7565 0.7565 0.7565 0.7565
3390.000000 0.7567 0.7567 0.7568 0.7568 0.7568
3385.000000 0.7568 0.7569 0.7569 0.7569 0.7569
3380.000000 0.7571 0.7571 0.7571 0.7571 0.7572
3375.000000 0.7572 0.7574 0.7574 0.7574 0.7574
3370.000000 0.7574 0.7574 0.7575 0.7575 0.7575
3365.000000 0.7575 0.7575 0.7575 0.7575 0.7575
3360.000000 0.7575 0.7575 0.7575 0.7574 0.7574
3355.000000 0.7574 0.7574 0.7574 0.7574 0.7572
3350.000000 0.7572 0.7572 0.7572 0.7572 0.7572
3345.000000 0.7571 0.7571 0.7571 0.7571 0.7571
3340.000000 0.7571 0.7571 0.7571 0.7571 0.7571
3335.000000 0.7569 0.7569 0.7569 0.7569 0.7569
3330.000000 0.7569 0.7568 0.7568 0.7568 0.7568
3325.000000 0.7568 0.7568 0.7568 0.7568 0.7568
3320.000000 0.7568 0.7568 0.7568 0.7567 0.7565
3315.000000 0.7561 0.7556 0.7548 0.7540 0.7530
3310.000000 0.7519 0.7512 0.7507 0.7507 0.7507
3305.000000 0.7507 0.7507 0.7508 0.7511 0.7514
3300.000000 0.7515 0.7518 0.7521 0.7525 0.7528
3295.000000 0.7531 0.7534 0.7537 0.7540 0.7543
3290.000000 0.7546 0.7548 0.7551 0.7553 0.7555
3285.000000 0.7557 0.7558 0.7561 0.7564 0.7565
3280.000000 0.7568 0.7569 0.7571 0.7574 0.7575
3275.000000 0.7578 0.7581 0.7583 0.7585 0.7587
3270.000000 0.7589 0.7591 0.7593 0.7595 0.7598
3265.000000 0.7600 0.7601 0.7604 0.7606 0.7608
3260.000000 0.7610 0.7611 0.7615 0.7617 0.7618
3255.000000 0.7621 0.7622 0.7625 0.7626 0.7628
3250.000000 0.7632 0.7634 0.7636 0.7638 0.7640
3245.000000 0.7642 0.7644 0.7646 0.7649 0.7651
3240.000000 0.7653 0.7654 0.7656 0.7657 0.7658
3235.000000 0.7660 0.7661 0.7661 0.7664 0.7665
3230.000000 0.7667 0.7668 0.7669 0.7671 0.7672
3225.000000 0.7674 0.7675 0.7675 0.7678 0.7678
3220.000000 0.7681 0.7682 0.7684 0.7685 0.7687
3215.000000 0.7688 0.7690 0.7691 0.7692 0.7693
3210.000000 0.7695 0.7696 0.7698 0.7699 0.7701
3205.000000 0.7703 0.7705 0.7707 0.7708 0.7710
3200.000000 0.7711 0.7714 0.7715 0.7718 0.7719
3195.000000 0.7721 0.7722 0.7725 0.7726 0.7728
3190.000000 0.7730 0.7732 0.7734 0.7736 0.7738
3185.000000 0.7739 0.7741 0.7743 0.7745 0.7747
3180.000000 0.7749 0.7750 0.7751 0.7751 0.7753
3175.000000 0.7754 0.7755 0.7756 0.7757 0.7758
3170.000000 0.7758 0.7760 0.7761 0.7761 0.7762
3165.000000 0.7764 0.7765 0.7765 0.7767 0.7768
3160.000000 0.7768 0.7769 0.7771 0.7771 0.7772
3155.000000 0.7772 0.7774 0.7774 0.7775 0.7775
3150.000000 0.7775 0.7775 0.7775 0.7775 0.7776
3145.000000 0.7776 0.7778 0.7778 0.7778 0.7778
3140.000000 0.7778 0.7778 0.7778 0.7778 0.7778
3135.000000 0.7778 0.7778 0.7778 0.7778 0.7778
3130.000000 0.7778 0.7778 0.7778 0.7778 0.7778
3125.000000 0.7778 0.7778 0.7778 0.7778 0.7778
3120.000000 0.7778 0.7776 0.7776 0.7776 0.7776
3115.000000 0.7775 0.7775 0.7775 0.7775 0.7774
3110.000000 0.7774 0.7774 0.7774 0.7772 0.7772
3105.000000 0.7771 0.7771 0.7771 0.7771 0.7769
3100.000000 0.7769 0.7768 0.7768 0.7768 0.7768
3095.000000 0.7768 0.7768 0.7767 0.7767 0.7765
3090.000000 0.7765 0.7765 0.7764 0.7761 0.7761
3085.000000 0.7758 0.7758 0.7755 0.7751 0.7749
3080.000000 0.7746 0.7743 0.7740 0.7737 0.7734
3075.000000 0.7728 0.7724 0.7718 0.7714 0.7711
3070.000000 0.7708 0.7701 0.7696 0.7687 0.7678
3065.000000 0.7668 0.7660 0.7608 0.7556 0.7522
3060.000000 0.7490 0.7475 0.7461 0.7458 0.7460
3055.000000 0.7460 0.7465 0.7478 0.7494 0.7551
3050.000000 0.7611 0.7608 0.7608 0.7605 0.7601
3045.000000 0.7599 0.7596 0.7593 0.7590 0.7587
3040.000000 0.7581 0.7584 0.7584 0.7588 0.7592
3035.000000 0.7614 0.7637 0.7680 0.7724 0.7733
3030.000000 0.7742 0.7746 0.7751 0.7751 0.7751
3025.000000 0.7751 0.7751 0.7750 0.7750 0.7750
3020.000000 0.7751 0.7751 0.7751 0.7751 0.7751
3015.000000 0.7751 0.7751 0.7751 0.7751 0.7751
3010.000000 0.7751 0.7751 0.7753 0.7753 0.7754
3005.000000 0.7754 0.7755 0.7758 0.7761 0.7760
3000.000000 0.7758 0.7757 0.7756 0.7747 0.7739
2995.000000 0.7722 0.7708 0.7692 0.7676 0.7664
2990.000000 0.7651 0.7646 0.7646 0.7646 0.7651
2985.000000 0.7665 0.7680 0.7692 0.7704 0.7715
2980.000000 0.7725 0.7732 0.7738 0.7736 0.7735
2975.000000 0.7733 0.7731 0.7726 0.7722 0.7718
2970.000000 0.7712 0.7708 0.7704 0.7695 0.7687
2965.000000 0.7667 0.7648 0.7600 0.7551 0.7290
2960.000000 0.7028 0.6984 0.6940 0.6919 0.6900
2955.000000 0.6878 0.6858 0.6828 0.6800 0.6743
2950.000000 0.6687 0.6622 0.6560 0.6496 0.6433
2945.000000 0.6407 0.6381 0.6396 0.6411 0.6441
2940.000000 0.6469 0.6506 0.6542 0.6551 0.6560
2935.000000 0.6564 0.6568 0.6541 0.6514 0.6351
2930.000000 0.6189 0.6027 0.5865 0.5745 0.5625
2925.000000 0.5593 0.5562 0.5526 0.5490 0.5459
2920.000000 0.5385 0.5386 0.5386 0.5421 0.5456
2915.000000 0.5506 0.5557 0.5669 0.5781 0.6056
2910.000000 0.6332 0.6435 0.6539 0.6621 0.6704
2905.000000 0.6749 0.6794 0.6839 0.6884 0.6928
2900.000000 0.6972 0.7072 0.7174 0.7196 0.7218
2895.000000 0.7237 0.7256 0.7294 0.7333 0.7362
2890.000000 0.7394 0.7411 0.7431 0.7448 0.7465
2885.000000 0.7481 0.7498 0.7514 0.7531 0.7548
2880.000000 0.7565 0.7578 0.7594 0.7598 0.7633
2875.000000 0.7603 0.7603 0.7597 0.7591 0.7580
2870.000000 0.7569 0.7553 0.7537 0.7506 0.7475
2865.000000 0.7450 0.7425 0.7401 0.7380 0.7361
2860.000000 0.7342 0.7337 0.7333 0.7330 0.7319
2855.000000 0.7321 0.7321 0.7336 0.7351 0.7372
2850.000000 0.7394 0.7424 0.7455 0.7486 0.7517
2845.000000 0.7537 0.7558 0.7578 0.7598 0.7617
2840.000000 0.7637 0.7649 0.7661 0.7675 0.7688
2835.000000 0.7700 0.7712 0.7725 0.7739 0.7751
2830.000000 0.7764 0.7775 0.7786 0.7795 0.7805
2825.000000 0.7815 0.7825 0.7834 0.7844 0.7850
2820.000000 0.7857 0.7862 0.7869 0.7875 0.7883
2815.000000 0.7890 0.7897 0.7903 0.7910 0.7915
2810.000000 0.7921 0.7928 0.7934 0.7939 0.7945
2805.000000 0.7951 0.7957 0.7962 0.7968 0.7975
2800.000000 0.7981 0.7987 0.7993 0.7998 0.8004
2795.000000 0.8008 0.8015 0.8019 0.8025 0.8030
2790.000000 0.8036 0.8041 0.8046 0.8051 0.8057
2785.000000 0.8060 0.8062 0.8065 0.8068 0.8071
2780.000000 0.8075 0.8078 0.8081 0.8084 0.8087
2775.000000 0.8090 0.8093 0.8096 0.8099 0.8101
2770.000000 0.8105 0.8107 0.8108 0.8111 0.8114
2765.000000 0.8115 0.8118 0.8119 0.8122 0.8125
2760.000000 0.8128 0.8130 0.8132 0.8134 0.8137
2755.000000 0.8139 0.8141 0.8143 0.8146 0.8148
2750.000000 0.8151 0.8153 0.8155 0.8157 0.8158
2745.000000 0.8161 0.8162 0.8164 0.8165 0.8167
2740.000000 0.8168 0.8171 0.8172 0.8174 0.8175
2735.000000 0.8178 0.8180 0.8181 0.8183 0.8184
2730.000000 0.8186 0.8188 0.8190 0.8191 0.8193
2725.000000 0.8194 0.8195 0.8196 0.8197 0.8198
2720.000000 0.8199 0.8200 0.8201 0.8202 0.8203
2715.000000 0.8204 0.8205 0.8206 0.8207 0.8207
2710.000000 0.8208 0.8209 0.8210 0.8210 0.8211
2705.000000 0.8212 0.8213 0.8213 0.8214 0.8215
2700.000000 0.8216 0.8216 0.8217 0.8217 0.8217
2695.000000 0.8216 0.8215 0.8214 0.8213 0.8212
2690.000000 0.8211 0.8210 0.8209 0.8208 0.8208
2685.000000 0.8208 0.8208 0.8208 0.8208 0.8209
2680.000000 0.8211 0.8213 0.8216 0.8218 0.8221
2675.000000 0.8224 0.8227 0.8228 0.8232 0.8235
2670.000000 0.8238 0.8241 0.8245 0.8249 0.8253
2665.000000 0.8256 0.8260 0.8264 0.8268 0.8271
2660.000000 0.8275 0.8277 0.8280 0.8282 0.8284
2655.000000 0.8285 0.8287 0.8289 0.8291 0.8293
2650.000000 0.8295 0.8296 0.8298 0.8300 0.8302
2645.000000 0.8304 0.8306 0.8308 0.8310 0.8311
2640.000000 0.8313 0.8314 0.8315 0.8316 0.8318
2635.000000 0.8318 0.8321 0.8321 0.8324 0.8325
2630.000000 0.8327 0.8328 0.8330 0.8331 0.8332
2625.000000 0.8333 0.8335 0.8336 0.8338 0.8339
2620.000000 0.8340 0.8341 0.8342 0.8343 0.8344
2615.000000 0.8345 0.8346 0.8347 0.8349 0.8350
2610.000000 0.8351 0.8352 0.8353 0.8354 0.8355
2605.000000 0.8356 0.8357 0.8358 0.8360 0.8361
2600.000000 0.8362 0.8363 0.8364 0.8365 0.8367
2595.000000 0.8368 0.8370 0.8371 0.8373 0.8374
2590.000000 0.8375 0.8377 0.8378 0.8381 0.8383
2585.000000 0.8384 0.8386 0.8387 0.8389 0.8390
2580.000000 0.8392 0.8393 0.8395 0.8396 0.8398
2575.000000 0.8399 0.8401 0.8402 0.8403 0.8404
2570.000000 0.8405 0.8406 0.8407 0.8408 0.8409
2565.000000 0.8410 0.8411 0.8412 0.8413 0.8414
2560.000000 0.8415 0.8416 0.8417 0.8418 0.8418
2555.000000 0.8420 0.8421 0.8421 0.8424 0.8425
2550.000000 0.8425 0.8425 0.8427 0.8427 0.8428
2545.000000 0.8428 0.8428 0.8430 0.8431 0.8431
2540.000000 0.8432 0.8432 0.8433 0.8433 0.8434
2535.000000 0.8434 0.8435 0.8435 0.8436 0.8436
2530.000000 0.8437 0.8437 0.8438 0.8438 0.8439
2525.000000 0.8439 0.8440 0.8440 0.8441 0.8441
2520.000000 0.8442 0.8442 0.8442 0.8442 0.8443
2515.000000 0.8443 0.8444 0.8444 0.8445 0.8445
2510.000000 0.8445 0.8445 0.8446 0.8446 0.8447
2505.000000 0.8447 0.8447 0.8447 0.8448 0.8449
2500.000000 0.8450 0.8450 0.8451 0.8452 0.8453
2495.000000 0.8454 0.8455 0.8455 0.8456 0.8457
2490.000000 0.8458 0.8459 0.8460 0.8460 0.8460
2485.000000 0.8460 0.8460 0.8460 0.8461 0.8461
2480.000000 0.8461 0.8461 0.8461 0.8461 0.8461
2475.000000 0.8461 0.8462 0.8462 0.8462 0.8462
2470.000000 0.8462 0.8462 0.8462 0.8462 0.8462
2465.000000 0.8462 0.8462 0.8462 0.8462 0.8462
2460.000000 0.8462 0.8462 0.8463 0.8463 0.8463
2455.000000 0.8463 0.8463 0.8463 0.8463 0.8463
2450.000000 0.8463 0.8463 0.8463 0.8463 0.8463
2445.000000 0.8463 0.8463 0.8463 0.8463 0.8463
2440.000000 0.8464 0.8464 0.8464 0.8464 0.8464
2435.000000 0.8464 0.8464 0.8464 0.8464 0.8464
2430.000000 0.8464 0.8464 0.8464 0.8464 0.8464
2425.000000 0.8464 0.8464 0.8464 0.8465 0.8465
2420.000000 0.8465 0.8465 0.8465 0.8465 0.8465
2415.000000 0.8465 0.8465 0.8465 0.8465 0.8465
2410.000000 0.8465 0.8465 0.8465 0.8465 0.8466
2405.000000 0.8466 0.8466 0.8466 0.8466 0.8466
2400.000000 0.8466 0.8466 0.8466 0.8467 0.8468
2395.000000 0.8471 0.8473 0.8475 0.8477 0.8478
2390.000000 0.8480 0.8482 0.8484 0.8486 0.8488
2385.000000 0.8489 0.8491 0.8493 0.8495 0.8495
2380.000000 0.8496 0.8496 0.8497 0.8497 0.8497
2375.000000 0.8497 0.8497 0.8497 0.8497 0.8497
2370.000000 0.8497 0.8497 0.8498 0.8498 0.8499
2365.000000 0.8499 0.8500 0.8500 0.8501 0.8501
2360.000000 0.8502 0.8502 0.8503 0.8503 0.8504
2355.000000 0.8504 0.8505 0.8505 0.8505 0.8505
2350.000000 0.8505 0.8504 0.8504 0.8503 0.8503
2345.000000 0.8502 0.8502 0.8501 0.8501 0.8500
2340.000000 0.8500 0.8499 0.8498 0.8497 0.8497
2335.000000 0.8496 0.8496 0.8495 0.8495 0.8495
2330.000000 0.8496 0.8497 0.8498 0.8498 0.8499
2325.000000 0.8500 0.8501 0.8504 0.8507 0.8511
2320.000000 0.8515 0.8524 0.8534 0.8547 0.8560
2315.000000 0.8574 0.8588 0.8597 0.8606 0.8601
2310.000000 0.8597 0.8590 0.8584 0.8578 0.8573
2305.000000 0.8563 0.8553 0.8539 0.8525 0.8512
2300.000000 0.8499 0.8494 0.8490 0.8488 0.8487
2295.000000 0.8485 0.8484 0.8482 0.8481 0.8481
2290.000000 0.8482 0.8483 0.8484 0.8484 0.8485
2285.000000 0.8486 0.8487 0.8488 0.8489 0.8490
2280.000000 0.8491 0.8491 0.8492 0.8493 0.8495
2275.000000 0.8496 0.8497 0.8498 0.8500 0.8501
2270.000000 0.8502 0.8503 0.8505 0.8506 0.8507
2265.000000 0.8508 0.8510 0.8511 0.8512 0.8513
2260.000000 0.8515 0.8516 0.8517 0.8518 0.8520
2255.000000 0.8521 0.8521 0.8523 0.8525 0.8525
2250.000000 0.8527 0.8528 0.8530 0.8531 0.8532
2245.000000 0.8533 0.8535 0.8536 0.8537 0.8538
2240.000000 0.8540 0.8541 0.8543 0.8545 0.8548
2235.000000 0.8550 0.8553 0.8555 0.8557 0.8559
2230.000000 0.8562 0.8564 0.8566 0.8568 0.8571
2225.000000 0.8573 0.8575 0.8578 0.8580 0.8582
2220.000000 0.8585 0.8587 0.8589 0.8591 0.8593
2215.000000 0.8595 0.8597 0.8598 0.8600 0.8602
2210.000000 0.8604 0.8606 0.8608 0.8609 0.8611
2205.000000 0.8613 0.8615 0.8617 0.8618 0.8621
2200.000000 0.8623 0.8624 0.8625 0.8628 0.8630
2195.000000 0.8632 0.8634 0.8636 0.8638 0.8639
2190.000000 0.8641 0.8643 0.8645 0.8647 0.8649
2185.000000 0.8650 0.8652 0.8654 0.8656 0.8658
2180.000000 0.8660 0.8662 0.8664 0.8665 0.8667
2175.000000 0.8668 0.8671 0.8673 0.8675 0.8677
2170.000000 0.8678 0.8680 0.8682 0.8683 0.8685
2165.000000 0.8686 0.8687 0.8688 0.8689 0.8690
2160.000000 0.8692 0.8693 0.8694 0.8695 0.8696
2155.000000 0.8697 0.8699 0.8700 0.8701 0.8702
2150.000000 0.8703 0.8704 0.8705 0.8706 0.8708
2145.000000 0.8709 0.8710 0.8711 0.8712 0.8713
2140.000000 0.8715 0.8716 0.8717 0.8718 0.8718
2135.000000 0.8720 0.8721 0.8721 0.8723 0.8724
2130.000000 0.8725 0.8725 0.8727 0.8728 0.8728
2125.000000 0.8730 0.8731 0.8732 0.8733 0.8734
2120.000000 0.8735 0.8736 0.8737 0.8738 0.8739
2115.000000 0.8740 0.8741 0.8741 0.8742 0.8743
2110.000000 0.8744 0.8745 0.8746 0.8746 0.8746
2105.000000 0.8746 0.8747 0.8747 0.8747 0.8747
2100.000000 0.8748 0.8748 0.8749 0.8749 0.8749
2095.000000 0.8749 0.8750 0.8750 0.8750 0.8750
2090.000000 0.8751 0.8751 0.8751 0.8751 0.8752
2085.000000 0.8752 0.8753 0.8753 0.8754 0.8755
2080.000000 0.8756 0.8756 0.8757 0.8757 0.8758
2075.000000 0.8758 0.8759 0.8760 0.8761 0.8761
2070.000000 0.8762 0.8762 0.8763 0.8764 0.8765
2065.000000 0.8766 0.8767 0.8768 0.8768 0.8770
2060.000000 0.8771 0.8771 0.8773 0.8773 0.8774
2055.000000 0.8775 0.8775 0.8777 0.8778 0.8778
2050.000000 0.8780 0.8781 0.8782 0.8783 0.8784
2045.000000 0.8785 0.8786 0.8788 0.8790 0.8791
2040.000000 0.8793 0.8794 0.8796 0.8797 0.8799
2035.000000 0.8801 0.8803 0.8804 0.8805 0.8806
2030.000000 0.8808 0.8809 0.8811 0.8812 0.8813
2025.000000 0.8813 0.8814 0.8815 0.8816 0.8816
2020.000000 0.8817 0.8818 0.8818 0.8820 0.8821
2015.000000 0.8821 0.8824 0.8825 0.8825 0.8827
2010.000000 0.8828 0.8828 0.8830 0.8831 0.8832
2005.000000 0.8833 0.8835 0.8836 0.8838 0.8841
2000.000000 0.8844 0.8847 0.8849 0.8836 0.8818
1995.000000 0.8809 0.8807 0.8806 0.8806 0.8806
1990.000000 0.8809 0.8813 0.8817 0.8820 0.8823
1985.000000 0.8825 0.8828 0.8828 0.8828 0.8828
1980.000000 0.8827 0.8827 0.8825 0.8825 0.8824
1975.000000 0.8823 0.8821 0.8818 0.8816 0.8814
1970.000000 0.8811 0.8809 0.8806 0.8802 0.8799
1965.000000 0.8795 0.8793 0.8791 0.8788 0.8787
1960.000000 0.8787 0.8791 0.8796 0.8800 0.8805
1955.000000 0.8809 0.8813 0.8814 0.8814 0.8814
1950.000000 0.8813 0.8812 0.8811 0.8810 0.8809
1945.000000 0.8809 0.8809 0.8808 0.8808 0.8810
1940.000000 0.8813 0.8817 0.8820 0.8823 0.8827
1935.000000 0.8830 0.8832 0.8833 0.8833 0.8834
1930.000000 0.8835 0.8836 0.8837 0.8838 0.8838
1925.000000 0.8839 0.8841 0.8842 0.8844 0.8845
1920.000000 0.8847 0.8848 0.8849 0.8851 0.8852
1915.000000 0.8854 0.8855 0.8856 0.8858 0.8859
1910.000000 0.8861 0.8863 0.8864 0.8866 0.8868
1905.000000 0.8868 0.8871 0.8873 0.8874 0.8875
1900.000000 0.8878 0.8878 0.8881 0.8883 0.8884
1895.000000 0.8885 0.8886 0.8887 0.8888 0.8888
1890.000000 0.8889 0.8890 0.8891 0.8892 0.8893
1885.000000 0.8894 0.8895 0.8895 0.8896 0.8897
1880.000000 0.8897 0.8897 0.8897 0.8897 0.8897
1875.000000 0.8897 0.8897 0.8896 0.8896 0.8896
1870.000000 0.8896 0.8895 0.8895 0.8894 0.8893
1865.000000 0.8892 0.8891 0.8891 0.8890 0.8889
1860.000000 0.8888 0.8888 0.8887 0.8886 0.8885
1855.000000 0.8885 0.8884 0.8883 0.8883 0.8878
1850.000000 0.8875 0.8871 0.8868 0.8865 0.8862
1845.000000 0.8858 0.8855 0.8851 0.8849 0.8847
1840.000000 0.8846 0.8845 0.8845 0.8846 0.8846
1835.000000 0.8846 0.8846 0.8847 0.8849 0.8850
1830.000000 0.8852 0.8854 0.8856 0.8858 0.8860
1825.000000 0.8861 0.8863 0.8865 0.8867 0.8868
1820.000000 0.8870 0.8871 0.8874 0.8875 0.8878
1815.000000 0.8880 0.8882 0.8884 0.8886 0.8886
1810.000000 0.8885 0.8883 0.8882 0.8881 0.8880
1805.000000 0.8913 0.8877 0.8877 0.8877 0.8877
1800.000000 0.8878 0.8878 0.8877 0.8873 0.8870
1795.000000 0.8867 0.8863 0.8857 0.8850 0.8843
1790.000000 0.8836 0.8833 0.8830 0.8827 0.8824
1785.000000 0.8821 0.8818 0.8817 0.8815 0.8813
1780.000000 0.8811 0.8809 0.8809 0.8808 0.8807
1775.000000 0.8806 0.8805 0.8804 0.8803 0.8803
1770.000000 0.8803 0.8803 0.8803 0.8804 0.8804
1765.000000 0.8804 0.8804 0.8804 0.8805 0.8805
1760.000000 0.8805 0.8805 0.8805 0.8805 0.8806
1755.000000 0.8806 0.8806 0.8806 0.8806 0.8805
1750.000000 0.8802 0.8799 0.8796 0.8793 0.8790
1745.000000 0.8785 0.8780 0.8775 0.8771 0.8766
1740.000000 0.8763 0.8760 0.8757 0.8753 0.8750
1735.000000 0.8747 0.8744 0.8741 0.8738 0.8734
1730.000000 0.8731 0.8728 0.8724 0.8721 0.8717
1725.000000 0.8714 0.8710 0.8706 0.8702 0.8698
1720.000000 0.8694 0.8690 0.8686 0.8682 0.8678
1715.000000 0.8671 0.8664 0.8657 0.8650 0.8643
1710.000000 0.8637 0.8630 0.8624 0.8617 0.8611
1705.000000 0.8600 0.8589 0.8578 0.8557 0.8533
1700.000000 0.8507 0.8480 0.8452 0.8437 0.8421
1695.000000 0.8406 0.8385 0.8354 0.8306 0.8257
1690.000000 0.8175 0.8096 0.8028 0.7825 0.7688
1685.000000 0.7481 0.7258 0.7071 0.6807 0.6312
1680.000000 0.6033 0.5748 0.5510 0.5309 0.4417
1675.000000 0.3837 0.3258 0.2678 0.2099 0.1519
1670.000000 0.0926 0.0901 0.0902 0.1234 0.1848
1665.000000 0.2461 0.3075 0.3566 0.3726 0.3854
1660.000000 0.4000 0.4449 0.4715 0.4896 0.5075
1655.000000 0.5246 0.5431 0.5640 0.5952 0.6132
1650.000000 0.6277 0.6506 0.6651 0.6728 0.6821
1645.000000 0.6951 0.6989 0.7008 0.7035 0.7065
1640.000000 0.7149 0.7226 0.7298 0.7351 0.7410
1635.000000 0.7472 0.7575 0.7598 0.7615 0.7608
1630.000000 0.7605 0.7597 0.7583 0.7551 0.7483
1625.000000 0.7405 0.7265 0.7200 0.7118 0.7015
1620.000000 0.6460 0.6359 0.6289 0.6241 0.6155
1615.000000 0.6186 0.6172 0.6175 0.6201 0.6668
1610.000000 0.6793 0.7038 0.7150 0.7210 0.7221
1605.000000 0.7234 0.7249 0.7276 0.7267 0.6776
1600.000000 0.5745 0.4712 0.4080 0.4068 0.4201
1595.000000 0.4727 0.5252 0.5778 0.6304 0.6828
1590.000000 0.7355 0.7745 0.7821 0.7862 0.7896
1585.000000 0.7926 0.7945 0.7961 0.7965 0.7971
1580.000000 0.7971 0.7971 0.7971 0.7968 0.7961
1575.000000 0.7941 0.7918 0.7884 0.7839 0.7783
1570.000000 0.7717 0.7400 0.7011 0.6982 0.7034
1565.000000 0.7180 0.7325 0.7471 0.7619 0.7734
1560.000000 0.7746 0.7748 0.7751 0.7754 0.7761
1555.000000 0.7786 0.7818 0.7875 0.7938 0.7986
1550.000000 0.8012 0.8034 0.8055 0.8075 0.8097
1545.000000 0.8118 0.8135 0.8153 0.8171 0.8188
1540.000000 0.8202 0.8215 0.8228 0.8243 0.8257
1535.000000 0.8270 0.8283 0.8297 0.8310 0.8323
1530.000000 0.8335 0.8336 0.8318 0.8338 0.8327
1525.000000 0.8315 0.8303 0.8291 0.8263 0.8228
1520.000000 0.8196 0.8161 0.8119 0.8080 0.8036
1515.000000 0.7965 0.7893 0.7822 0.7751 0.7639
1510.000000 0.7399 0.7028 0.6658 0.6289 0.5919
1505.000000 0.5549 0.4932 0.4932 0.4932 0.5260
1500.000000 0.6857 0.7157 0.7561 0.7626 0.7700
1495.000000 0.7783 0.7848 0.7901 0.7942 0.7982
1490.000000 0.8015 0.8037 0.8049 0.8085 0.8061
1485.000000 0.8065 0.8068 0.8050 0.7993 0.7861
1480.000000 0.7637 0.7553 0.7531 0.7526 0.7522
1475.000000 0.7517 0.7495 0.7474 0.7198 0.6711
1470.000000 0.6224 0.5500 0.5493 0.5491 0.5664
1465.000000 0.5928 0.6191 0.6455 0.6718 0.6982
1460.000000 0.7256 0.7250 0.7210 0.6895 0.6580
1455.000000 0.6262 0.6301 0.6568 0.6838 0.7107
1450.000000 0.7375 0.7644 0.7686 0.7703 0.7692
1445.000000 0.7689 0.7678 0.7635 0.7568 0.7540
1440.000000 0.7514 0.7465 0.6889 0.5988 0.5260
1435.000000 0.4770 0.4468 0.4131 0.4121 0.4095
1430.000000 0.4128 0.4410 0.4693 0.4975 0.5257
1425.000000 0.5539 0.5821 0.6103 0.6386 0.6497
1420.000000 0.6603 0.6701 0.6772 0.6844 0.6900
1415.000000 0.6924 0.6938 0.6949 0.6940 0.6931
1410.000000 0.6893 0.5699 0.5602 0.5447 0.5054
1405.000000 0.4658 0.4262 0.3925 0.3648 0.3372
1400.000000 0.3096 0.3033 0.3000 0.3014 0.3404
1395.000000 0.3795 0.4143 0.4322 0.4744 0.4962
1390.000000 0.5227 0.5475 0.5929 0.6077 0.6144
1385.000000 0.6197 0.6264 0.6348 0.6471 0.6600
1380.000000 0.6858 0.6995 0.7130 0.7171 0.7184
1375.000000 0.7196 0.7208 0.7225 0.7224 0.7224
1370.000000 0.7222 0.7178 0.7108 0.7030 0.6992
1365.000000 0.6969 0.6958 0.6946 0.6985 0.7058
1360.000000 0.7228 0.7228 0.7228 0.7222 0.7218
1355.000000 0.7055 0.6352 0.6418 0.6401 0.6540
1350.000000 0.6796 0.7051 0.7087 0.7094 0.7105
1345.000000 0.7115 0.7125 0.7135 0.7144 0.7174
1340.000000 0.7158 0.7157 0.7155 0.7130 0.6271
1335.000000 0.6071 0.5969 0.5841 0.5829 0.5820
1330.000000 0.5982 0.6458 0.6775 0.6798 0.6800
1325.000000 0.6349 0.5848 0.5346 0.4845 0.4344
1320.000000 0.3843 0.3341 0.2932 0.2916 0.2900
1315.000000 0.2897 0.3336 0.3858 0.4379 0.4901
1310.000000 0.5422 0.6406 0.6543 0.6706 0.6819
1305.000000 0.6911 0.7004 0.7091 0.7172 0.7251
1300.000000 0.7317 0.7368 0.7411 0.7433 0.7454
1295.000000 0.7458 0.7468 0.7465 0.7461 0.7458
1290.000000 0.7449 0.7428 0.7407 0.7386 0.7321
1285.000000 0.7233 0.6991 0.6683 0.6450 0.6388
1280.000000 0.6356 0.6355 0.6352 0.6347 0.6342
1275.000000 0.6317 0.6253 0.5885 0.5392 0.4899
1270.000000 0.4407 0.4357 0.4446 0.4722 0.4998
1265.000000 0.5139 0.5190 0.5221 0.5243 0.5525
1260.000000 0.5812 0.6102 0.6390 0.6668 0.6986
1255.000000 0.7047 0.7084 0.7108 0.7115 0.7119
1250.000000 0.6899 0.6250 0.5965 0.5952 0.6090
1245.000000 0.6298 0.6506 0.6695 0.6851 0.7051
1240.000000 0.7193 0.7307 0.7418 0.7503 0.7565
1235.000000 0.7597 0.7618 0.7641 0.7655 0.7656
1230.000000 0.7657 0.7653 0.7644 0.7634 0.7611
1225.000000 0.7565 0.7492 0.7411 0.7284 0.7071
1220.000000 0.6167 0.4762 0.4455 0.4262 0.4116
1215.000000 0.4028 0.3966 0.3918 0.3862 0.3859
1210.000000 0.3855 0.4541 0.5340 0.6128 0.6156
1205.000000 0.6152 0.5894 0.5452 0.5010 0.4569
1200.000000 0.4127 0.3664 0.3634 0.4029 0.4695
1195.000000 0.5332 0.5622 0.5779 0.5924 0.6066
1190.000000 0.6218 0.6394 0.7015 0.7121 0.7187
1185.000000 0.7253 0.7318 0.7397 0.7462 0.7514
1180.000000 0.7568 0.7631 0.7681 0.7693 0.7693
1175.000000 0.7693 0.7693 0.7692 0.7690 0.7687
1170.000000 0.7681 0.7675 0.7668 0.7661 0.7653
1165.000000 0.7645 0.7644 0.7637 0.7625 0.7396
1160.000000 0.7165 0.7074 0.7057 0.7240 0.7347
1155.000000 0.7430 0.7441 0.7533 0.7555 0.7551
1150.000000 0.6698 0.7106 0.6711 0.6711 0.6886
1145.000000 0.7101 0.7318 0.7486 0.7528 0.7571
1140.000000 0.7615 0.7654 0.7675 0.7685 0.7707
1135.000000 0.7696 0.7691 0.7685 0.7633 0.7004
1130.000000 0.6041 0.6059 0.6251 0.6660 0.7068
1125.000000 0.7518 0.7592 0.7618 0.7628 0.7630
1120.000000 0.7648 0.7731 0.7748 0.7747 0.7747
1115.000000 0.7737 0.7661 0.7351 0.6954 0.6557
1110.000000 0.6302 0.6554 0.7037 0.7455 0.7560
1105.000000 0.7621 0.7689 0.7778 0.7812 0.7832
1100.000000 0.7854 0.7881 0.7881 0.7888 0.7885
1095.000000 0.7858 0.7799 0.7648 0.7644 0.7645
1090.000000 0.7654 0.7696 0.7714 0.7734 0.7710
1085.000000 0.7684 0.7543 0.7468 0.7465 0.7541
1080.000000 0.7687 0.7765 0.7841 0.7869 0.7888
1075.000000 0.7901 0.7915 0.7932 0.7950 0.7975
1070.000000 0.8006 0.8028 0.8050 0.8067 0.8078
1065.000000 0.8091 0.8100 0.8106 0.8111 0.8118
1060.000000 0.8122 0.8128 0.8132 0.8132 0.8132
1055.000000 0.8133 0.8133 0.8135 0.8137 0.8140
1050.000000 0.8142 0.8144 0.8146 0.8148 0.8149
1045.000000 0.8149 0.8149 0.8146 0.8142 0.8139
1040.000000 0.8136 0.8130 0.8124 0.8118 0.8111
1035.000000 0.8105 0.8101 0.8099 0.8099 0.8098
1030.000000 0.8110 0.8101 0.8103 0.8103 0.8104
1025.000000 0.8106 0.8108 0.8110 0.8115 0.8118
1020.000000 0.8098 0.7931 0.7764 0.7665 0.7639
1015.000000 0.7801 0.7965 0.8019 0.8035 0.8050
1010.000000 0.8065 0.8078 0.8088 0.8089 0.8090
1005.000000 0.8090 0.8090 0.8090 0.8089 0.8088
1000.000000 0.8096 0.8082 0.8078 0.8068 0.8051
995.000000 0.8033 0.8008 0.7982 0.7768 0.7457
990.000000 0.7450 0.7674 0.7899 0.7928 0.7960
985.000000 0.8035 0.8012 0.8021 0.7821 0.7412
980.000000 0.7401 0.7499 0.7633 0.7768 0.7893
975.000000 0.7925 0.7853 0.7401 0.6924 0.6446
970.000000 0.6150 0.6270 0.6612 0.6957 0.7186
965.000000 0.7228 0.7249 0.7272 0.7351 0.7594
960.000000 0.7942 0.7921 0.7934 0.7941 0.7871
955.000000 0.7756 0.7640 0.7554 0.7561 0.7568
950.000000 0.7641 0.8061 0.8126 0.8176 0.8218
945.000000 0.8255 0.8271 0.8288 0.8305 0.8318
940.000000 0.8332 0.8345 0.8357 0.8368 0.8378
935.000000 0.8387 0.8407 0.8407 0.8408 0.8409
930.000000 0.8403 0.8391 0.8292 0.8184 0.8184
925.000000 0.8243 0.8364 0.8404 0.8421 0.8439
920.000000 0.8452 0.8464 0.8477 0.8489 0.8494
915.000000 0.8500 0.8505 0.8511 0.8516 0.8518
910.000000 0.8520 0.8521 0.8500 0.8525 0.8525
905.000000 0.8525 0.8525 0.8521 0.8520 0.8517
900.000000 0.8516 0.8516 0.8515 0.8515 0.8513
895.000000 0.8510 0.8507 0.8503 0.8496 0.8484
890.000000 0.8462 0.7737 0.7751 0.7886 0.8068
885.000000 0.8252 0.8367 0.8423 0.8457 0.8483
880.000000 0.8504 0.8513 0.8521 0.8528 0.8533
875.000000 0.8537 0.8580 0.8540 0.8542 0.8542
870.000000 0.8535 0.8516 0.8485 0.8440 0.8347
865.000000 0.7886 0.7875 0.7864 0.7981 0.8241
860.000000 0.8488 0.8543 0.8555 0.8562 0.8568
855.000000 0.8574 0.8573 0.8581 0.8582 0.8583
850.000000 0.8578 0.8568 0.8543 0.8490 0.8413
845.000000 0.8325 0.8238 0.8022 0.7938 0.7965
840.000000 0.7980 0.7756 0.7301 0.6745 0.6721
835.000000 0.6975 0.7306 0.7614 0.7621 0.7608
830.000000 0.7431 0.6633 0.5836 0.5039 0.4241
825.000000 0.3740 0.3736 0.4451 0.5127 0.5804
820.000000 0.6480 0.7156 0.7912 0.8028 0.8119
815.000000 0.8191 0.8253 0.8289 0.8315 0.8317
810.000000 0.8318 0.8333 0.8357 0.8456 0.8518
805.000000 0.8582 0.8621 0.8650 0.8671 0.8686
800.000000 0.8686 0.8686 0.8704 0.8671 0.8652
795.000000 0.8628 0.8585 0.8514 0.7093 0.7115
790.000000 0.7268 0.7499 0.7728 0.7960 0.8262
785.000000 0.8246 0.8213 0.7601 0.5602 0.5602
780.000000 0.5602 0.6467 0.6454 0.5034 0.5234
775.000000 0.5024 0.5284 0.5860 0.6436 0.7012
770.000000 0.7589 0.7955 0.8025 0.8043 0.8049
765.000000 0.8057 0.8051 0.8028 0.7589 0.7639
760.000000 0.7593 0.7619 0.7656 0.7693 0.7732
755.000000 0.7819 0.7962 0.8148 0.8307 0.8381
750.000000 0.8455 0.8506 0.8551 0.8573 0.8586
745.000000 0.8594 0.8596 0.8598 0.8601 0.8603
740.000000 0.8613 0.8600 0.8599 0.8598 0.8594
735.000000 0.8587 0.8581 0.8573 0.8564 0.8555
730.000000 0.8543 0.8524 0.8505 0.8478 0.8447
725.000000 0.8404 0.8349 0.8321 0.8306 0.8333
720.000000 0.8440 0.8493 0.8537 0.8578 0.8649
715.000000 0.8618 0.8606 0.8498 0.8011 0.8030
710.000000 0.8140 0.8486 0.8775 0.8842 0.8889
705.000000 0.8921 0.8944 0.8965 0.8980 0.8996
700.000000 0.9011 0.9027 0.9045 0.9062 0.9078
695.000000 0.9091 0.9100 0.9110 0.9151 0.9121
690.000000 0.9121 0.9123 0.9121 0.9117 0.9109
685.000000 0.9102 0.9091 0.9058 0.8905 0.8761
680.000000 0.8750 0.8855 0.8986 0.9047 0.9061
675.000000 0.9071 0.9083 0.9096 0.9108 0.9117
670.000000 0.9123 0.9150 0.9249 0.9348 0.9447
665.000000 0.9462 0.9287 0.9094 0.9096 0.9098
660.000000 0.9101 0.9103 0.9105 0.9107 0.9107
655.000000 0.9107 0.9106 0.9104 0.9104 0.9102
650.000000 0.9100 0.9097 0.9093 0.9082 0.9056
645.000000 0.8991 0.8848 0.8656 0.8658 0.8687
640.000000 0.8773 0.8858 0.8904 0.8918 0.8933
635.000000 0.8943 0.8949 0.8955 0.8957 0.8957
630.000000 0.8971 0.8953 0.8947 0.8941 0.8934
625.000000 0.8921 0.8907 0.8887 0.8859 0.8808
620.000000 0.7978 0.7937 0.8014 0.8143 0.8271
615.000000 0.8403 0.8528 0.8655 0.8721 0.8740
610.000000 0.8758 0.8777 0.8795 0.8811 0.8821
605.000000 0.8833 0.8844 0.8854 0.8858 0.8861
600.000000 0.8864 0.8865 0.8868 0.8871 0.8871
595.000000 0.8870 0.8870 0.8870 0.8863 0.8856
590.000000 0.8848 0.8841 0.8831 0.8821 0.8807
585.000000 0.8788 0.8759 0.8721 0.8493 0.8454
580.000000 0.8446 0.8460 0.8520 0.8608 0.8674
575.000000 0.8713 0.8737 0.8751 0.8765 0.8778
570.000000 0.8789 0.8796 0.8803 0.8810 0.8813
565.000000 0.8814 0.8815 0.8816 0.8818 0.8810
560.000000 0.8823 0.8825 0.8825 0.8825 0.8825
555.000000 0.8827 0.8823 0.8818 0.8816 0.8812
550.000000 0.8806 0.8799 0.8778 0.8731 0.8675
545.000000 0.8632 0.8625 0.8608 0.8604 0.8618
540.000000 0.8647 0.8725 0.8754 0.8755 0.8756
535.000000 0.8751 0.8746 0.8745 0.8721 0.8709
530.000000 0.8695 0.8678 0.8662 0.8635 0.8609
525.000000 0.8586 0.8562 0.8533 0.8484 0.8137
520.000000 0.7458 0.7462 0.7471 0.7581 0.7893
515.000000 0.8205 0.8358 0.8420 0.8451 0.8462
510.000000 0.8468 0.8423 0.8368 0.8318 0.8292
505.000000 0.8273 0.8274 0.8287 0.8395 0.8501
500.000000 0.8582 0.8601 0.8614 0.8623 0.8632
495.000000 0.8641 0.8643 0.8645 0.8647 0.8648
490.000000 0.8648 0.8644 0.8637 0.8613 0.8567
485.000000 0.8304 0.7924 0.7928 0.8039 0.8158
480.000000 0.8277 0.8360 0.8396 0.8423 0.8432
475.000000 0.8441 0.8454 0.8468 0.8483 0.8496
470.000000 0.8496 0.8497 0.8498 0.8498 0.8490
465.000000 0.8483 0.8475 0.8465 0.8454 0.8444
460.000000 0.8437 0.8431 0.8425 0.8428 0.8433
455.000000 0.8436 0.8440 0.8444 0.8449 0.8454
450.000000 0.8459 0.8463 0.8467 0.8470 0.8471
445.000000 0.8475 0.8477 0.8480 0.8483 0.8485
440.000000 0.8488 0.8488 0.8486 0.8485 0.8483
435.000000 0.8482 0.8481 0.8478 0.8475 0.8471
430.000000 0.8468 0.8465 0.8461 0.8457 0.8453
425.000000 0.8450 0.8445 0.8436 0.8427 0.8417
420.000000 0.8408 0.8399 0.8390 0.8375 0.8362
415.000000 0.8348 0.8334 0.8320 0.8305 0.8291
410.000000 0.8277 0.8263 0.8249 0.8235 0.8221
405.000000 0.8207 0.8193 0.8180 0.8165 0.8153
400.000000 0.8140 0.8125 0.8112 0.8100 0.8086
395.000000 0.8072 0.8060 0.8047 0.8034 0.8021
##END=
