##TITLE=1,5-Pentanediamine, dihydrochloride
##JCAMP-DX=4.24
##DATA TYPE=INFRARED SPECTRUM
##CLASS=COBLENTZ III
##ORIGIN=BRITISH PETROLEUM CO. LTD., ENGLAND
##OWNER=Copyright (C) 1987 by the Coblentz Society
Collection (C) 2018 copyright by the U.S. Secretary of Commerce
on behalf of the United States of America. All rights reserved.
##DATE=1972/07/27
##MOLFORM=C5 H16 Cl2 N2
##SOURCE REFERENCE=COBLENTZ NO. 9315
##$NIST ID=B6009315
##$NIST SOURCE=COBLENTZ
##$NIST IMAGE=cob9315
##SPECTROMETER/DATA SYSTEM=PERKIN-ELMER 157
##STATE=SOLID (KBr DISC)
$$ HCl RUN IN KBr MAY CONTAIN SOME HBr
$$ REF. Can. J. Spec., 18,4,101, '73 C. S. DOUSE and P. B. TOOKE
##SAMPLING PROCEDURE=TRANSMISSION
##RESOLUTION=2
##DATA PROCESSING=DIGITIZED BY COBLENTZ SOCIETY (BATCH II) FROM HARD COPY
##XUNITS=1/CM
##YUNITS=TRANSMITTANCE
##XFACTOR=1.0
##YFACTOR=1
##FIRSTX=668
##LASTX=4000
##FIRSTY=1.0235
##MAXX=4000
##MINX=668
##MAXY=1.0235
##MINY=0.011
##NPOINTS=3333
##XYDATA=(X++(Y..Y))
668.000000 1.0235 1.0230 1.0227 1.0223 1.0220
673.000000 1.0216 1.0213 1.0211 1.0209 1.0203
678.000000 1.0198 1.0192 1.0187 1.0180 1.0173
683.000000 1.0161 1.0148 1.0136 1.0125 1.0115
688.000000 1.0103 1.0087 1.0072 1.0051 1.0028
693.000000 0.9998 0.9965 0.9982 0.9895 0.9863
698.000000 0.9832 0.9803 0.9791 0.9764 0.9726
703.000000 0.9689 0.9669 0.9652 0.9642 0.9635
708.000000 0.9627 0.9587 0.9552 0.9534 0.9526
713.000000 0.9521 0.9497 0.9457 0.9411 0.9351
718.000000 0.9295 0.9239 0.9172 0.9104 0.9036
723.000000 0.8963 0.8887 0.8809 0.8719 0.8621
728.000000 0.8498 0.8328 0.8085 0.7765 0.7567
733.000000 0.7271 0.6931 0.6591 0.6253 0.5966
738.000000 0.5469 0.5050 0.4654 0.4259 0.4005
743.000000 0.3756 0.3721 0.3785 0.4016 0.4602
748.000000 0.5187 0.5770 0.6351 0.6931 0.7494
753.000000 0.7735 0.8108 0.8429 0.8594 0.8668
758.000000 0.8719 0.8740 0.8755 0.8732 0.8706
763.000000 0.8650 0.8572 0.8494 0.8408 0.8302
768.000000 0.8127 0.7907 0.7711 0.7654 0.7651
773.000000 0.7771 0.7865 0.8027 0.8223 0.8379
778.000000 0.8554 0.8652 0.8694 0.8698 0.8703
783.000000 0.8703 0.8700 0.8694 0.8686 0.8673
788.000000 0.8644 0.8616 0.8595 0.8585 0.8579
793.000000 0.8567 0.8552 0.8529 0.8494 0.8457
798.000000 0.8414 0.8371 0.8310 0.8239 0.8166
803.000000 0.8090 0.7988 0.7888 0.7791 0.7686
808.000000 0.7575 0.7272 0.7082 0.6870 0.6505
813.000000 0.5999 0.5492 0.5045 0.4280 0.3750
818.000000 0.3222 0.2694 0.2152 0.1913 0.1928
823.000000 0.2647 0.3506 0.4363 0.5218 0.5850
828.000000 0.6297 0.6635 0.7340 0.7597 0.7808
833.000000 0.7950 0.8064 0.8162 0.8232 0.8276
838.000000 0.8313 0.8337 0.8352 0.8364 0.8369
843.000000 0.8374 0.8377 0.8385 0.8372 0.8369
848.000000 0.8364 0.8356 0.8349 0.8338 0.8322
853.000000 0.8305 0.8286 0.8267 0.8248 0.8229
858.000000 0.8201 0.8171 0.8141 0.8099 0.8052
863.000000 0.8006 0.7971 0.7970 0.7972 0.7984
868.000000 0.7976 0.7980 0.7983 0.7987 0.7991
873.000000 0.7991 0.7991 0.7990 0.7984 0.7973
878.000000 0.7957 0.7936 0.7914 0.7880 0.7846
883.000000 0.7806 0.7766 0.7724 0.7679 0.7632
888.000000 0.7571 0.7507 0.7428 0.7334 0.7208
893.000000 0.7061 0.6944 0.6848 0.6756 0.6665
898.000000 0.6575 0.6444 0.6035 0.5013 0.4283
903.000000 0.3564 0.3456 0.3466 0.3620 0.3961
908.000000 0.4453 0.4789 0.5126 0.5427 0.5506
913.000000 0.5519 0.5513 0.5330 0.5115 0.4860
918.000000 0.4606 0.4352 0.4099 0.3847 0.3615
923.000000 0.3460 0.3268 0.3112 0.2411 0.1582
928.000000 0.1552 0.1586 0.1887 0.2755 0.3742
933.000000 0.4728 0.5712 0.6433 0.6705 0.6792
938.000000 0.6840 0.6847 0.6852 0.6830 0.6806
943.000000 0.6754 0.6686 0.6577 0.6472 0.6371
948.000000 0.6279 0.6202 0.6169 0.6167 0.6158
953.000000 0.6245 0.6336 0.6399 0.6431 0.6435
958.000000 0.6420 0.6439 0.6248 0.5967 0.5684
963.000000 0.5205 0.4707 0.4216 0.3726 0.3237
968.000000 0.2749 0.2519 0.2518 0.2517 0.3003
973.000000 0.3013 0.3013 0.3018 0.3088 0.3273
978.000000 0.3459 0.3644 0.3829 0.3953 0.3957
983.000000 0.3923 0.3853 0.3778 0.3721 0.3671
988.000000 0.3624 0.3584 0.3553 0.3524 0.3496
993.000000 0.3472 0.3418 0.3277 0.2945 0.2685
998.000000 0.2427 0.2168 0.1911 0.1824 0.1824
1003.000000 0.2101 0.2540 0.2978 0.3416 0.3852
1008.000000 0.4273 0.4418 0.4432 0.4429 0.4414
1013.000000 0.4399 0.4397 0.4409 0.4527 0.4602
1018.000000 0.4633 0.4643 0.4652 0.4729 0.4871
1023.000000 0.4915 0.4936 0.4947 0.4949 0.4656
1028.000000 0.4482 0.4308 0.4135 0.3963 0.3836
1033.000000 0.3836 0.4261 0.4790 0.5319 0.5672
1038.000000 0.5811 0.5906 0.5985 0.6048 0.6113
1043.000000 0.6181 0.6245 0.6290 0.6334 0.6368
1048.000000 0.6401 0.6429 0.6458 0.6529 0.6601
1053.000000 0.6657 0.6712 0.6748 0.6766 0.6779
1058.000000 0.6783 0.6786 0.6788 0.6790 0.6792
1063.000000 0.6795 0.6797 0.6799 0.6801 0.6802
1068.000000 0.6804 0.6803 0.6803 0.6803 0.6803
1073.000000 0.6793 0.6798 0.6795 0.6767 0.6730
1078.000000 0.6689 0.6662 0.6648 0.6635 0.6622
1083.000000 0.6609 0.6596 0.6583 0.6561 0.6533
1088.000000 0.6508 0.6484 0.6468 0.6457 0.6444
1093.000000 0.6379 0.6287 0.6222 0.6158 0.6097
1098.000000 0.6037 0.5975 0.5904 0.5835 0.5741
1103.000000 0.5553 0.5430 0.5315 0.5179 0.5011
1108.000000 0.4750 0.4467 0.4198 0.3929 0.3661
1113.000000 0.3393 0.3125 0.2908 0.2630 0.2397
1118.000000 0.2174 0.1952 0.1729 0.1507 0.1287
1123.000000 0.1067 0.0994 0.0990 0.1026 0.1258
1128.000000 0.1591 0.1922 0.2253 0.2583 0.2913
1133.000000 0.3264 0.3627 0.3971 0.4313 0.4655
1138.000000 0.4996 0.5338 0.5679 0.5961 0.6012
1143.000000 0.6049 0.6056 0.6057 0.6054 0.6049
1148.000000 0.6028 0.5962 0.5885 0.5807 0.5730
1153.000000 0.5653 0.5577 0.5500 0.5424 0.5367
1158.000000 0.5330 0.5309 0.5290 0.5268 0.5231
1163.000000 0.5170 0.5095 0.5008 0.4892 0.4642
1168.000000 0.4487 0.4386 0.4264 0.4107 0.3968
1173.000000 0.3286 0.2912 0.2537 0.2165 0.1793
1178.000000 0.1421 0.1305 0.1300 0.1319 0.1316
1183.000000 0.1415 0.1640 0.1866 0.2093 0.2318
1188.000000 0.2544 0.2768 0.2994 0.3203 0.3222
1193.000000 0.3200 0.3115 0.3030 0.3011 0.3195
1198.000000 0.3534 0.3872 0.4209 0.4545 0.4880
1203.000000 0.5404 0.5592 0.5700 0.5789 0.5918
1208.000000 0.5996 0.6051 0.6102 0.6149 0.6182
1213.000000 0.6212 0.6227 0.6241 0.6251 0.6257
1218.000000 0.6263 0.6272 0.6283 0.6295 0.6307
1223.000000 0.6321 0.6328 0.6328 0.6326 0.6319
1228.000000 0.6310 0.6300 0.6287 0.6273 0.6260
1233.000000 0.6247 0.6231 0.6214 0.6197 0.6179
1238.000000 0.6154 0.6130 0.6098 0.6063 0.6010
1243.000000 0.6004 0.6000 0.5998 0.5996 0.5994
1248.000000 0.5991 0.5984 0.5972 0.5937 0.5885
1253.000000 0.5797 0.5707 0.5624 0.5527 0.5428
1258.000000 0.5296 0.5180 0.5138 0.5111 0.5090
1263.000000 0.5074 0.5066 0.5301 0.5453 0.5605
1268.000000 0.5676 0.5681 0.5680 0.5675 0.5672
1273.000000 0.5667 0.5660 0.5652 0.5644 0.5633
1278.000000 0.5619 0.5597 0.5556 0.5519 0.5480
1283.000000 0.5408 0.5384 0.5376 0.5368 0.5366
1288.000000 0.5364 0.5363 0.5360 0.5354 0.5322
1293.000000 0.5278 0.5231 0.5160 0.5098 0.5017
1298.000000 0.4821 0.4505 0.4187 0.3870 0.3740
1303.000000 0.3742 0.3749 0.3757 0.3869 0.3957
1308.000000 0.4046 0.4134 0.4223 0.4311 0.4399
1313.000000 0.4486 0.4562 0.4605 0.4640 0.4661
1318.000000 0.4671 0.4677 0.4677 0.4676 0.4675
1323.000000 0.4675 0.4677 0.4689 0.4726 0.4775
1328.000000 0.4815 0.4852 0.4860 0.4872 0.4874
1333.000000 0.4822 0.4751 0.4679 0.4608 0.4536
1338.000000 0.4464 0.4418 0.4417 0.4441 0.4513
1343.000000 0.4595 0.4676 0.4757 0.4839 0.4919
1348.000000 0.5000 0.5081 0.5158 0.5187 0.5186
1353.000000 0.5183 0.5180 0.5175 0.5168 0.5157
1358.000000 0.5137 0.5113 0.5091 0.5066 0.5039
1363.000000 0.5014 0.4993 0.4973 0.4953 0.4933
1368.000000 0.4906 0.4880 0.4851 0.4821 0.4788
1373.000000 0.4753 0.4712 0.4659 0.4606 0.4543
1378.000000 0.4461 0.4367 0.4256 0.4169 0.4067
1383.000000 0.3926 0.3810 0.3729 0.3661 0.3595
1388.000000 0.3536 0.3479 0.3414 0.3322 0.3209
1393.000000 0.2956 0.2814 0.2674 0.2550 0.2428
1398.000000 0.2305 0.2183 0.2061 0.1939 0.1818
1403.000000 0.1696 0.1575 0.1453 0.1332 0.1338
1408.000000 0.1323 0.1575 0.2044 0.2516 0.2989
1413.000000 0.3460 0.3670 0.3705 0.3728 0.3739
1418.000000 0.3742 0.3745 0.3746 0.3745 0.3726
1423.000000 0.3736 0.3728 0.3719 0.3710 0.3651
1428.000000 0.3580 0.3509 0.3438 0.3367 0.3296
1433.000000 0.3225 0.3163 0.3126 0.3066 0.2959
1438.000000 0.2854 0.2748 0.2642 0.2536 0.2431
1443.000000 0.2326 0.2258 0.2233 0.2217 0.2184
1448.000000 0.2072 0.1926 0.1779 0.1632 0.1485
1453.000000 0.1340 0.1193 0.1048 0.0698 0.0598
1458.000000 0.0540 0.0496 0.0451 0.0409 0.0374
1463.000000 0.0355 0.0336 0.0316 0.0297 0.0277
1468.000000 0.0257 0.0243 0.0230 0.0217 0.0204
1473.000000 0.0195 0.0188 0.0180 0.0177 0.0175
1478.000000 0.0172 0.0177 0.0170 0.0172 0.0174
1483.000000 0.0176 0.0184 0.0192 0.0201 0.0210
1488.000000 0.0219 0.0227 0.0240 0.0255 0.0270
1493.000000 0.0288 0.0313 0.0340 0.0375 0.0423
1498.000000 0.0471 0.0509 0.0544 0.0570 0.0587
1503.000000 0.0605 0.0617 0.0624 0.0628 0.0631
1508.000000 0.0633 0.0635 0.0637 0.0638 0.0641
1513.000000 0.0643 0.0646 0.0649 0.0655 0.0672
1518.000000 0.0695 0.0736 0.0805 0.0896 0.1071
1523.000000 0.1309 0.1546 0.1783 0.2021 0.2257
1528.000000 0.2415 0.2474 0.2521 0.2536 0.2548
1533.000000 0.2552 0.2553 0.2550 0.2545 0.2540
1538.000000 0.2527 0.2486 0.2416 0.2340 0.2263
1543.000000 0.2187 0.2112 0.2036 0.1961 0.1886
1548.000000 0.1811 0.1735 0.1644 0.1421 0.1379
1553.000000 0.1338 0.1302 0.1268 0.1234 0.1201
1558.000000 0.1164 0.1122 0.1069 0.0980 0.0881
1563.000000 0.0778 0.0675 0.0590 0.0520 0.0463
1568.000000 0.0425 0.0405 0.0396 0.0391 0.0385
1573.000000 0.0380 0.0367 0.0380 0.0390 0.0409
1578.000000 0.0430 0.0451 0.0470 0.0486 0.0501
1583.000000 0.0516 0.0531 0.0547 0.0561 0.0574
1588.000000 0.0586 0.0597 0.0609 0.0620 0.0630
1593.000000 0.0638 0.0645 0.0652 0.0659 0.0665
1598.000000 0.0671 0.0674 0.0675 0.0675 0.0674
1603.000000 0.0672 0.0671 0.0669 0.0667 0.0665
1608.000000 0.0661 0.0659 0.0663 0.0677 0.0717
1613.000000 0.0812 0.0886 0.0991 0.1110 0.1247
1618.000000 0.1634 0.1776 0.1882 0.1988 0.2093
1623.000000 0.2199 0.2304 0.2409 0.2514 0.2619
1628.000000 0.2724 0.2829 0.2934 0.3038 0.3143
1633.000000 0.3247 0.3351 0.3455 0.3558 0.3662
1638.000000 0.3766 0.3869 0.3959 0.4013 0.4048
1643.000000 0.4092 0.4154 0.4215 0.4260 0.4304
1648.000000 0.4345 0.4369 0.4392 0.4415 0.4438
1653.000000 0.4459 0.4481 0.4503 0.4536 0.4591
1658.000000 0.4647 0.4688 0.4726 0.4763 0.4799
1663.000000 0.4830 0.4859 0.4887 0.4914 0.4936
1668.000000 0.4952 0.4967 0.4983 0.5000 0.5016
1673.000000 0.5030 0.5042 0.5055 0.5067 0.5080
1678.000000 0.5092 0.5105 0.5116 0.5124 0.5132
1683.000000 0.5140 0.5147 0.5154 0.5161 0.5165
1688.000000 0.5166 0.5168 0.5170 0.5172 0.5173
1693.000000 0.5188 0.5175 0.5174 0.5174 0.5174
1698.000000 0.5173 0.5173 0.5172 0.5170 0.5167
1703.000000 0.5163 0.5161 0.5156 0.5151 0.5145
1708.000000 0.5140 0.5134 0.5128 0.5122 0.5116
1713.000000 0.5110 0.5105 0.5099 0.5093 0.5087
1718.000000 0.5080 0.5073 0.5066 0.5060 0.5053
1723.000000 0.5046 0.5039 0.5030 0.5022 0.5015
1728.000000 0.5009 0.5005 0.5002 0.4999 0.4995
1733.000000 0.4993 0.4991 0.4990 0.4989 0.4988
1738.000000 0.4987 0.4986 0.4986 0.4987 0.4987
1743.000000 0.4988 0.4989 0.4990 0.4992 0.4992
1748.000000 0.4992 0.4993 0.4994 0.4995 0.4995
1753.000000 0.4995 0.4996 0.4997 0.4997 0.4996
1758.000000 0.4994 0.4991 0.4988 0.4985 0.4983
1763.000000 0.4981 0.4977 0.4975 0.4972 0.4970
1768.000000 0.4967 0.4963 0.4960 0.4957 0.4954
1773.000000 0.4951 0.4947 0.4944 0.4941 0.4938
1778.000000 0.4935 0.4932 0.4928 0.4925 0.4921
1783.000000 0.4917 0.4912 0.4906 0.4901 0.4896
1788.000000 0.4891 0.4886 0.4880 0.4875 0.4870
1793.000000 0.4865 0.4859 0.4853 0.4846 0.4841
1798.000000 0.4835 0.4829 0.4824 0.4817 0.4811
1803.000000 0.4805 0.4799 0.4793 0.4787 0.4781
1808.000000 0.4772 0.4760 0.4746 0.4731 0.4717
1813.000000 0.4703 0.4689 0.4672 0.4653 0.4634
1818.000000 0.4614 0.4594 0.4575 0.4556 0.4537
1823.000000 0.4521 0.4507 0.4497 0.4495 0.4493
1828.000000 0.4492 0.4490 0.4490 0.4489 0.4488
1833.000000 0.4487 0.4487 0.4486 0.4485 0.4484
1838.000000 0.4484 0.4482 0.4481 0.4479 0.4479
1843.000000 0.4477 0.4476 0.4476 0.4474 0.4473
1848.000000 0.4471 0.4468 0.4464 0.4461 0.4458
1853.000000 0.4455 0.4452 0.4448 0.4445 0.4442
1858.000000 0.4438 0.4434 0.4430 0.4426 0.4422
1863.000000 0.4418 0.4414 0.4409 0.4405 0.4402
1868.000000 0.4399 0.4396 0.4393 0.4390 0.4388
1873.000000 0.4386 0.4385 0.4383 0.4381 0.4379
1878.000000 0.4377 0.4375 0.4374 0.4372 0.4370
1883.000000 0.4368 0.4364 0.4360 0.4356 0.4352
1888.000000 0.4347 0.4343 0.4337 0.4331 0.4325
1893.000000 0.4318 0.4311 0.4305 0.4299 0.4292
1898.000000 0.4285 0.4277 0.4267 0.4257 0.4247
1903.000000 0.4237 0.4227 0.4217 0.4204 0.4191
1908.000000 0.4178 0.4165 0.4152 0.4139 0.4125
1913.000000 0.4112 0.4099 0.4088 0.4077 0.4066
1918.000000 0.4055 0.4044 0.4033 0.4022 0.4011
1923.000000 0.4000 0.3990 0.3978 0.3964 0.3951
1928.000000 0.3937 0.3923 0.3909 0.3895 0.3881
1933.000000 0.3867 0.3854 0.3841 0.3829 0.3816
1938.000000 0.3803 0.3792 0.3784 0.3779 0.3775
1943.000000 0.3770 0.3766 0.3761 0.3756 0.3752
1948.000000 0.3747 0.3742 0.3738 0.3733 0.3729
1953.000000 0.3725 0.3720 0.3714 0.3703 0.3683
1958.000000 0.3657 0.3624 0.3589 0.3549 0.3497
1963.000000 0.3447 0.3398 0.3352 0.3309 0.3268
1968.000000 0.3230 0.3183 0.3127 0.3120 0.3116
1973.000000 0.3111 0.3107 0.3103 0.3100 0.3095
1978.000000 0.3090 0.3082 0.3074 0.3065 0.3053
1983.000000 0.3039 0.3025 0.3012 0.3000 0.2987
1988.000000 0.2978 0.2970 0.2963 0.2956 0.2949
1993.000000 0.2944 0.2940 0.2937 0.2935 0.2932
1998.000000 0.2929 0.2926 0.2924 0.2922 0.2921
2003.000000 0.2920 0.2919 0.2919 0.2919 0.2919
2008.000000 0.2919 0.2920 0.2912 0.2920 0.2922
2013.000000 0.2924 0.2926 0.2929 0.2931 0.2936
2018.000000 0.2942 0.2949 0.2958 0.2967 0.2980
2023.000000 0.2992 0.3006 0.3022 0.3040 0.3069
2028.000000 0.3098 0.3125 0.3152 0.3179 0.3208
2033.000000 0.3245 0.3291 0.3337 0.3380 0.3406
2038.000000 0.3431 0.3456 0.3480 0.3513 0.3582
2043.000000 0.3633 0.3667 0.3697 0.3726 0.3755
2048.000000 0.3783 0.3809 0.3834 0.3859 0.3884
2053.000000 0.3949 0.4061 0.4123 0.4169 0.4212
2058.000000 0.4252 0.4288 0.4314 0.4335 0.4356
2063.000000 0.4376 0.4395 0.4413 0.4431 0.4450
2068.000000 0.4467 0.4481 0.4495 0.4509 0.4523
2073.000000 0.4537 0.4551 0.4565 0.4580 0.4597
2078.000000 0.4614 0.4625 0.4636 0.4646 0.4657
2083.000000 0.4669 0.4675 0.4678 0.4681 0.4684
2088.000000 0.4685 0.4686 0.4687 0.4688 0.4689
2093.000000 0.4690 0.4689 0.4689 0.4689 0.4689
2098.000000 0.4688 0.4688 0.4687 0.4687 0.4687
2103.000000 0.4686 0.4686 0.4685 0.4685 0.4684
2108.000000 0.4682 0.4682 0.4681 0.4681 0.4680
2113.000000 0.4680 0.4679 0.4679 0.4669 0.4677
2118.000000 0.4677 0.4676 0.4675 0.4674 0.4673
2123.000000 0.4672 0.4672 0.4670 0.4669 0.4668
2128.000000 0.4667 0.4667 0.4666 0.4665 0.4664
2133.000000 0.4663 0.4662 0.4660 0.4659 0.4658
2138.000000 0.4656 0.4655 0.4654 0.4653 0.4651
2143.000000 0.4648 0.4644 0.4639 0.4634 0.4629
2148.000000 0.4623 0.4615 0.4608 0.4600 0.4592
2153.000000 0.4585 0.4577 0.4570 0.4562 0.4554
2158.000000 0.4547 0.4541 0.4535 0.4529 0.4523
2163.000000 0.4516 0.4510 0.4504 0.4500 0.4496
2168.000000 0.4492 0.4489 0.4485 0.4481 0.4478
2173.000000 0.4474 0.4471 0.4468 0.4465 0.4461
2178.000000 0.4458 0.4454 0.4451 0.4448 0.4445
2183.000000 0.4442 0.4438 0.4435 0.4431 0.4427
2188.000000 0.4423 0.4419 0.4415 0.4412 0.4408
2193.000000 0.4404 0.4401 0.4397 0.4393 0.4389
2198.000000 0.4385 0.4380 0.4376 0.4371 0.4366
2203.000000 0.4362 0.4357 0.4352 0.4347 0.4342
2208.000000 0.4338 0.4332 0.4325 0.4319 0.4312
2213.000000 0.4305 0.4299 0.4292 0.4286 0.4279
2218.000000 0.4272 0.4266 0.4259 0.4252 0.4245
2223.000000 0.4238 0.4231 0.4224 0.4217 0.4210
2228.000000 0.4203 0.4196 0.4189 0.4182 0.4175
2233.000000 0.4167 0.4160 0.4153 0.4146 0.4138
2238.000000 0.4131 0.4124 0.4117 0.4110 0.4103
2243.000000 0.4094 0.4086 0.4077 0.4069 0.4061
2248.000000 0.4052 0.4044 0.4035 0.4027 0.4019
2253.000000 0.4010 0.4002 0.3994 0.3985 0.3977
2258.000000 0.3969 0.3962 0.3954 0.3947 0.3940
2263.000000 0.3932 0.3925 0.3918 0.3910 0.3903
2268.000000 0.3896 0.3889 0.3881 0.3874 0.3867
2273.000000 0.3860 0.3852 0.3845 0.3837 0.3829
2278.000000 0.3821 0.3813 0.3805 0.3798 0.3790
2283.000000 0.3782 0.3775 0.3767 0.3759 0.3751
2288.000000 0.3743 0.3735 0.3728 0.3720 0.3712
2293.000000 0.3703 0.3694 0.3685 0.3676 0.3666
2298.000000 0.3657 0.3647 0.3638 0.3628 0.3619
2303.000000 0.3612 0.3605 0.3601 0.3597 0.3593
2308.000000 0.3589 0.3585 0.3582 0.3578 0.3574
2313.000000 0.3571 0.3568 0.3566 0.3565 0.3563
2318.000000 0.3563 0.3562 0.3561 0.3560 0.3559
2323.000000 0.3558 0.3556 0.3555 0.3549 0.3538
2328.000000 0.3525 0.3506 0.3486 0.3474 0.3462
2333.000000 0.3449 0.3437 0.3424 0.3411 0.3396
2338.000000 0.3380 0.3363 0.3347 0.3331 0.3316
2343.000000 0.3302 0.3289 0.3276 0.3264 0.3252
2348.000000 0.3239 0.3227 0.3215 0.3202 0.3189
2353.000000 0.3172 0.3155 0.3139 0.3123 0.3107
2358.000000 0.3090 0.3074 0.3057 0.3040 0.3023
2363.000000 0.3005 0.2987 0.2969 0.2953 0.2937
2368.000000 0.2922 0.2907 0.2893 0.2878 0.2863
2373.000000 0.2849 0.2835 0.2819 0.2802 0.2784
2378.000000 0.2766 0.2748 0.2730 0.2712 0.2695
2383.000000 0.2678 0.2662 0.2646 0.2630 0.2616
2388.000000 0.2602 0.2593 0.2584 0.2575 0.2566
2393.000000 0.2556 0.2547 0.2538 0.2530 0.2522
2398.000000 0.2517 0.2513 0.2508 0.2502 0.2497
2403.000000 0.2493 0.2488 0.2483 0.2478 0.2470
2408.000000 0.2460 0.2450 0.2439 0.2428 0.2418
2413.000000 0.2408 0.2398 0.2389 0.2380 0.2371
2418.000000 0.2362 0.2353 0.2344 0.2337 0.2331
2423.000000 0.2324 0.2318 0.2313 0.2307 0.2302
2428.000000 0.2296 0.2290 0.2284 0.2278 0.2272
2433.000000 0.2266 0.2260 0.2254 0.2248 0.2243
2438.000000 0.2237 0.2232 0.2227 0.2222 0.2216
2443.000000 0.2211 0.2205 0.2200 0.2194 0.2190
2448.000000 0.2185 0.2181 0.2179 0.2176 0.2174
2453.000000 0.2172 0.2170 0.2167 0.2165 0.2163
2458.000000 0.2160 0.2150 0.2139 0.2116 0.2073
2463.000000 0.2030 0.2008 0.1987 0.1968 0.1951
2468.000000 0.1933 0.1920 0.1907 0.1896 0.1886
2473.000000 0.1876 0.1866 0.1856 0.1846 0.1836
2478.000000 0.1825 0.1815 0.1805 0.1795 0.1784
2483.000000 0.1773 0.1762 0.1751 0.1741 0.1730
2488.000000 0.1719 0.1708 0.1697 0.1686 0.1675
2493.000000 0.1664 0.1652 0.1640 0.1627 0.1614
2498.000000 0.1601 0.1588 0.1576 0.1567 0.1558
2503.000000 0.1550 0.1543 0.1537 0.1537 0.1537
2508.000000 0.1537 0.1538 0.1538 0.1540 0.1541
2513.000000 0.1521 0.1543 0.1544 0.1546 0.1547
2518.000000 0.1548 0.1550 0.1551 0.1554 0.1557
2523.000000 0.1559 0.1562 0.1564 0.1566 0.1569
2528.000000 0.1571 0.1573 0.1576 0.1578 0.1580
2533.000000 0.1582 0.1584 0.1586 0.1588 0.1590
2538.000000 0.1591 0.1592 0.1593 0.1594 0.1595
2543.000000 0.1595 0.1596 0.1596 0.1595 0.1594
2548.000000 0.1592 0.1591 0.1590 0.1589 0.1584
2553.000000 0.1580 0.1574 0.1563 0.1553 0.1614
2558.000000 0.1530 0.1518 0.1504 0.1491 0.1473
2563.000000 0.1450 0.1428 0.1413 0.1398 0.1384
2568.000000 0.1369 0.1355 0.1340 0.1326 0.1312
2573.000000 0.1295 0.1279 0.1262 0.1245 0.1229
2578.000000 0.1218 0.1211 0.1203 0.1196 0.1188
2583.000000 0.1181 0.1175 0.1169 0.1165 0.1162
2588.000000 0.1159 0.1157 0.1154 0.1153 0.1153
2593.000000 0.1153 0.1153 0.1153 0.1153 0.1153
2598.000000 0.1153 0.1154 0.1154 0.1155 0.1156
2603.000000 0.1156 0.1156 0.1157 0.1157 0.1158
2608.000000 0.1158 0.1159 0.1160 0.1160 0.1160
2613.000000 0.1161 0.1161 0.1161 0.1161 0.1161
2618.000000 0.1161 0.1161 0.1161 0.1162 0.1162
2623.000000 0.1162 0.1160 0.1158 0.1156 0.1152
2628.000000 0.1149 0.1146 0.1141 0.1137 0.1132
2633.000000 0.1125 0.1119 0.1107 0.1092 0.1076
2638.000000 0.1056 0.1036 0.1016 0.1008 0.0999
2643.000000 0.0991 0.0984 0.0976 0.0970 0.0965
2648.000000 0.0960 0.0955 0.0949 0.0944 0.0939
2653.000000 0.0933 0.0928 0.0922 0.0917 0.0911
2658.000000 0.0906 0.0901 0.0895 0.0889 0.0884
2663.000000 0.0878 0.0873 0.0867 0.0861 0.0855
2668.000000 0.0849 0.0842 0.0836 0.0829 0.0822
2673.000000 0.0815 0.0808 0.0802 0.0795 0.0788
2678.000000 0.0780 0.0773 0.0765 0.0757 0.0749
2683.000000 0.0741 0.0733 0.0725 0.0717 0.0709
2688.000000 0.0701 0.0693 0.0685 0.0677 0.0668
2693.000000 0.0660 0.0651 0.0643 0.0634 0.0625
2698.000000 0.0616 0.0607 0.0599 0.0590 0.0582
2703.000000 0.0573 0.0564 0.0556 0.0548 0.0540
2708.000000 0.0533 0.0525 0.0518 0.0511 0.0504
2713.000000 0.0496 0.0489 0.0482 0.0474 0.0467
2718.000000 0.0460 0.0453 0.0446 0.0440 0.0434
2723.000000 0.0428 0.0424 0.0420 0.0417 0.0413
2728.000000 0.0409 0.0405 0.0401 0.0397 0.0393
2733.000000 0.0390 0.0386 0.0382 0.0379 0.0376
2738.000000 0.0372 0.0369 0.0366 0.0363 0.0360
2743.000000 0.0357 0.0354 0.0351 0.0349 0.0346
2748.000000 0.0343 0.0340 0.0337 0.0332 0.0326
2753.000000 0.0320 0.0314 0.0307 0.0301 0.0294
2758.000000 0.0288 0.0281 0.0274 0.0268 0.0261
2763.000000 0.0255 0.0250 0.0244 0.0239 0.0236
2768.000000 0.0232 0.0228 0.0224 0.0220 0.0216
2773.000000 0.0212 0.0207 0.0204 0.0201 0.0198
2778.000000 0.0195 0.0192 0.0189 0.0186 0.0184
2783.000000 0.0181 0.0178 0.0175 0.0173 0.0170
2788.000000 0.0168 0.0167 0.0166 0.0165 0.0164
2793.000000 0.0163 0.0162 0.0161 0.0160 0.0159
2798.000000 0.0158 0.0157 0.0156 0.0155 0.0154
2803.000000 0.0153 0.0153 0.0152 0.0151 0.0151
2808.000000 0.0151 0.0150 0.0150 0.0150 0.0150
2813.000000 0.0149 0.0149 0.0149 0.0148 0.0148
2818.000000 0.0148 0.0147 0.0147 0.0147 0.0146
2823.000000 0.0146 0.0146 0.0145 0.0145 0.0145
2828.000000 0.0145 0.0144 0.0144 0.0144 0.0143
2833.000000 0.0143 0.0143 0.0142 0.0142 0.0142
2838.000000 0.0142 0.0142 0.0142 0.0141 0.0141
2843.000000 0.0141 0.0141 0.0140 0.0140 0.0140
2848.000000 0.0139 0.0139 0.0139 0.0139 0.0139
2853.000000 0.0139 0.0138 0.0138 0.0138 0.0138
2858.000000 0.0137 0.0137 0.0137 0.0136 0.0136
2863.000000 0.0136 0.0136 0.0136 0.0136 0.0135
2868.000000 0.0135 0.0135 0.0135 0.0134 0.0134
2873.000000 0.0134 0.0133 0.0133 0.0133 0.0133
2878.000000 0.0133 0.0133 0.0133 0.0132 0.0132
2883.000000 0.0132 0.0131 0.0131 0.0131 0.0130
2888.000000 0.0130 0.0130 0.0130 0.0130 0.0130
2893.000000 0.0130 0.0129 0.0129 0.0129 0.0128
2898.000000 0.0128 0.0128 0.0128 0.0128 0.0128
2903.000000 0.0128 0.0128 0.0128 0.0128 0.0128
2908.000000 0.0128 0.0128 0.0128 0.0128 0.0128
2913.000000 0.0128 0.0128 0.0128 0.0128 0.0128
2918.000000 0.0128 0.0128 0.0128 0.0128 0.0128
2923.000000 0.0128 0.0127 0.0127 0.0127 0.0127
2928.000000 0.0127 0.0127 0.0127 0.0127 0.0127
2933.000000 0.0127 0.0127 0.0127 0.0127 0.0127
2938.000000 0.0127 0.0127 0.0127 0.0127 0.0127
2943.000000 0.0127 0.0127 0.0127 0.0127 0.0127
2948.000000 0.0127 0.0127 0.0127 0.0127 0.0127
2953.000000 0.0127 0.0127 0.0127 0.0110 0.0127
2958.000000 0.0127 0.0126 0.0126 0.0126 0.0126
2963.000000 0.0126 0.0126 0.0126 0.0126 0.0126
2968.000000 0.0126 0.0126 0.0126 0.0126 0.0126
2973.000000 0.0127 0.0127 0.0127 0.0127 0.0127
2978.000000 0.0127 0.0127 0.0127 0.0127 0.0127
2983.000000 0.0127 0.0127 0.0127 0.0127 0.0127
2988.000000 0.0127 0.0127 0.0127 0.0127 0.0127
2993.000000 0.0127 0.0127 0.0127 0.0127 0.0127
2998.000000 0.0128 0.0128 0.0128 0.0128 0.0128
3003.000000 0.0128 0.0128 0.0128 0.0128 0.0128
3008.000000 0.0128 0.0128 0.0128 0.0128 0.0128
3013.000000 0.0128 0.0128 0.0128 0.0128 0.0128
3018.000000 0.0128 0.0128 0.0128 0.0128 0.0128
3023.000000 0.0128 0.0128 0.0128 0.0128 0.0129
3028.000000 0.0129 0.0129 0.0129 0.0129 0.0129
3033.000000 0.0129 0.0129 0.0129 0.0129 0.0129
3038.000000 0.0129 0.0129 0.0129 0.0129 0.0129
3043.000000 0.0129 0.0129 0.0129 0.0129 0.0129
3048.000000 0.0129 0.0129 0.0129 0.0129 0.0129
3053.000000 0.0129 0.0129 0.0129 0.0129 0.0130
3058.000000 0.0130 0.0130 0.0130 0.0130 0.0130
3063.000000 0.0130 0.0130 0.0130 0.0130 0.0130
3068.000000 0.0130 0.0130 0.0130 0.0130 0.0130
3073.000000 0.0130 0.0130 0.0130 0.0131 0.0131
3078.000000 0.0131 0.0132 0.0132 0.0133 0.0133
3083.000000 0.0134 0.0134 0.0134 0.0134 0.0135
3088.000000 0.0135 0.0136 0.0136 0.0137 0.0137
3093.000000 0.0138 0.0138 0.0139 0.0139 0.0139
3098.000000 0.0140 0.0140 0.0141 0.0141 0.0142
3103.000000 0.0142 0.0143 0.0143 0.0144 0.0144
3108.000000 0.0144 0.0144 0.0145 0.0145 0.0146
3113.000000 0.0146 0.0147 0.0147 0.0147 0.0147
3118.000000 0.0148 0.0148 0.0149 0.0149 0.0150
3123.000000 0.0150 0.0151 0.0152 0.0152 0.0152
3128.000000 0.0152 0.0153 0.0153 0.0154 0.0154
3133.000000 0.0155 0.0157 0.0158 0.0160 0.0162
3138.000000 0.0165 0.0168 0.0171 0.0173 0.0176
3143.000000 0.0178 0.0181 0.0184 0.0188 0.0191
3148.000000 0.0195 0.0199 0.0203 0.0207 0.0210
3153.000000 0.0214 0.0218 0.0222 0.0225 0.0229
3158.000000 0.0233 0.0236 0.0240 0.0243 0.0246
3163.000000 0.0249 0.0252 0.0255 0.0257 0.0260
3168.000000 0.0262 0.0265 0.0267 0.0270 0.0272
3173.000000 0.0274 0.0276 0.0278 0.0280 0.0282
3178.000000 0.0284 0.0286 0.0287 0.0289 0.0291
3183.000000 0.0293 0.0294 0.0296 0.0298 0.0299
3188.000000 0.0301 0.0303 0.0305 0.0306 0.0308
3193.000000 0.0310 0.0311 0.0313 0.0314 0.0316
3198.000000 0.0316 0.0317 0.0318 0.0318 0.0319
3203.000000 0.0320 0.0321 0.0321 0.0322 0.0323
3208.000000 0.0324 0.0325 0.0326 0.0327 0.0328
3213.000000 0.0328 0.0329 0.0330 0.0330 0.0331
3218.000000 0.0332 0.0333 0.0333 0.0334 0.0335
3223.000000 0.0335 0.0336 0.0337 0.0338 0.0344
3228.000000 0.0349 0.0354 0.0359 0.0369 0.0379
3233.000000 0.0389 0.0399 0.0409 0.0419 0.0429
3238.000000 0.0439 0.0449 0.0460 0.0470 0.0481
3243.000000 0.0493 0.0506 0.0520 0.0533 0.0548
3248.000000 0.0565 0.0583 0.0600 0.0618 0.0635
3253.000000 0.0653 0.0670 0.0688 0.0714 0.0741
3258.000000 0.0769 0.0797 0.0826 0.0855 0.0884
3263.000000 0.0914 0.0943 0.0973 0.1003 0.1033
3268.000000 0.1064 0.1109 0.1154 0.1199 0.1244
3273.000000 0.1280 0.1313 0.1346 0.1379 0.1409
3278.000000 0.1436 0.1462 0.1489 0.1516 0.1544
3283.000000 0.1572 0.1600 0.1628 0.1651 0.1674
3288.000000 0.1696 0.1718 0.1739 0.1758 0.1777
3293.000000 0.1796 0.1820 0.1861 0.1903 0.1945
3298.000000 0.1987 0.2002 0.2012 0.2022 0.2032
3303.000000 0.2042 0.2053 0.2063 0.2073 0.2083
3308.000000 0.2093 0.2103 0.2114 0.2124 0.2134
3313.000000 0.2144 0.2155 0.2165 0.2175 0.2185
3318.000000 0.2196 0.2206 0.2216 0.2226 0.2236
3323.000000 0.2247 0.2257 0.2267 0.2276 0.2286
3328.000000 0.2296 0.2305 0.2314 0.2322 0.2330
3333.000000 0.2339 0.2347 0.2355 0.2364 0.2372
3338.000000 0.2380 0.2388 0.2396 0.2404 0.2412
3343.000000 0.2418 0.2425 0.2431 0.2438 0.2444
3348.000000 0.2451 0.2458 0.2464 0.2471 0.2477
3353.000000 0.2482 0.2487 0.2493 0.2498 0.2503
3358.000000 0.2509 0.2514 0.2519 0.2524 0.2528
3363.000000 0.2533 0.2537 0.2541 0.2543 0.2545
3368.000000 0.2547 0.2549 0.2551 0.2553 0.2555
3373.000000 0.2557 0.2559 0.2561 0.2563 0.2565
3378.000000 0.2567 0.2569 0.2570 0.2572 0.2574
3383.000000 0.2576 0.2577 0.2578 0.2579 0.2581
3388.000000 0.2582 0.2583 0.2585 0.2586 0.2587
3393.000000 0.2589 0.2590 0.2592 0.2593 0.2595
3398.000000 0.2596 0.2597 0.2599 0.2600 0.2601
3403.000000 0.2603 0.2604 0.2605 0.2607 0.2608
3408.000000 0.2609 0.2610 0.2611 0.2612 0.2613
3413.000000 0.2614 0.2615 0.2616 0.2617 0.2618
3418.000000 0.2619 0.2620 0.2622 0.2623 0.2624
3423.000000 0.2625 0.2626 0.2627 0.2628 0.2629
3428.000000 0.2630 0.2631 0.2632 0.2633 0.2634
3433.000000 0.2635 0.2636 0.2637 0.2639 0.2640
3438.000000 0.2641 0.2642 0.2643 0.2643 0.2644
3443.000000 0.2645 0.2646 0.2647 0.2648 0.2648
3448.000000 0.2649 0.2650 0.2651 0.2652 0.2653
3453.000000 0.2653 0.2654 0.2655 0.2656 0.2657
3458.000000 0.2658 0.2658 0.2659 0.2660 0.2661
3463.000000 0.2662 0.2663 0.2663 0.2664 0.2665
3468.000000 0.2666 0.2667 0.2668 0.2668 0.2669
3473.000000 0.2670 0.2671 0.2672 0.2673 0.2673
3478.000000 0.2674 0.2675 0.2676 0.2677 0.2678
3483.000000 0.2678 0.2679 0.2679 0.2680 0.2681
3488.000000 0.2681 0.2682 0.2683 0.2683 0.2684
3493.000000 0.2684 0.2685 0.2686 0.2686 0.2687
3498.000000 0.2688 0.2689 0.2689 0.2690 0.2691
3503.000000 0.2691 0.2692 0.2693 0.2693 0.2694
3508.000000 0.2695 0.2695 0.2696 0.2696 0.2697
3513.000000 0.2698 0.2698 0.2699 0.2699 0.2700
3518.000000 0.2701 0.2702 0.2703 0.2703 0.2707
3523.000000 0.2711 0.2715 0.2719 0.2723 0.2734
3528.000000 0.2745 0.2757 0.2768 0.2780 0.2790
3533.000000 0.2801 0.2811 0.2821 0.2832 0.2838
3538.000000 0.2843 0.2849 0.2854 0.2860 0.2861
3543.000000 0.2861 0.2862 0.2862 0.2862 0.2863
3548.000000 0.2863 0.2864 0.2864 0.2864 0.2865
3553.000000 0.2865 0.2866 0.2866 0.2866 0.2867
3558.000000 0.2868 0.2868 0.2869 0.2869 0.2870
3563.000000 0.2870 0.2871 0.2871 0.2871 0.2872
3568.000000 0.2872 0.2873 0.2873 0.2873 0.2874
3573.000000 0.2874 0.2874 0.2874 0.2874 0.2875
3578.000000 0.2875 0.2875 0.2875 0.2875 0.2875
3583.000000 0.2875 0.2875 0.2875 0.2875 0.2875
3588.000000 0.2875 0.2875 0.2875 0.2875 0.2875
3593.000000 0.2875 0.2875 0.2875 0.2875 0.2875
3598.000000 0.2875 0.2875 0.2875 0.2875 0.2875
3603.000000 0.2875 0.2875 0.2875 0.2875 0.2875
3608.000000 0.2875 0.2875 0.2875 0.2875 0.2875
3613.000000 0.2876 0.2876 0.2876 0.2876 0.2876
3618.000000 0.2876 0.2876 0.2876 0.2876 0.2876
3623.000000 0.2876 0.2876 0.2876 0.2876 0.2876
3628.000000 0.2876 0.2876 0.2876 0.2876 0.2876
3633.000000 0.2876 0.2875 0.2875 0.2875 0.2875
3638.000000 0.2875 0.2875 0.2875 0.2875 0.2875
3643.000000 0.2875 0.2875 0.2875 0.2875 0.2875
3648.000000 0.2875 0.2875 0.2875 0.2875 0.2875
3653.000000 0.2875 0.2875 0.2893 0.2875 0.2875
3658.000000 0.2875 0.2875 0.2875 0.2875 0.2875
3663.000000 0.2875 0.2875 0.2875 0.2875 0.2875
3668.000000 0.2875 0.2875 0.2875 0.2875 0.2875
3673.000000 0.2875 0.2875 0.2875 0.2875 0.2875
3678.000000 0.2875 0.2875 0.2875 0.2875 0.2875
3683.000000 0.2875 0.2875 0.2875 0.2875 0.2875
3688.000000 0.2874 0.2874 0.2874 0.2874 0.2874
3693.000000 0.2873 0.2873 0.2873 0.2873 0.2873
3698.000000 0.2873 0.2872 0.2872 0.2871 0.2871
3703.000000 0.2871 0.2870 0.2870 0.2870 0.2870
3708.000000 0.2870 0.2870 0.2869 0.2869 0.2869
3713.000000 0.2869 0.2869 0.2868 0.2868 0.2868
3718.000000 0.2868 0.2868 0.2868 0.2867 0.2867
3723.000000 0.2867 0.2867 0.2867 0.2866 0.2866
3728.000000 0.2866 0.2865 0.2865 0.2865 0.2864
3733.000000 0.2863 0.2862 0.2861 0.2860 0.2859
3738.000000 0.2857 0.2854 0.2851 0.2849 0.2846
3743.000000 0.2843 0.2841 0.2838 0.2835 0.2833
3748.000000 0.2830 0.2828 0.2826 0.2824 0.2822
3753.000000 0.2820 0.2818 0.2816 0.2814 0.2812
3758.000000 0.2810 0.2808 0.2806 0.2805 0.2803
3763.000000 0.2801 0.2799 0.2798 0.2796 0.2794
3768.000000 0.2792 0.2790 0.2788 0.2786 0.2784
3773.000000 0.2782 0.2780 0.2778 0.2776 0.2775
3778.000000 0.2773 0.2772 0.2771 0.2769 0.2768
3783.000000 0.2767 0.2766 0.2766 0.2765 0.2764
3788.000000 0.2763 0.2763 0.2762 0.2761 0.2760
3793.000000 0.2759 0.2758 0.2757 0.2756 0.2756
3798.000000 0.2755 0.2754 0.2753 0.2752 0.2752
3803.000000 0.2751 0.2750 0.2750 0.2749 0.2749
3808.000000 0.2749 0.2749 0.2749 0.2748 0.2748
3813.000000 0.2748 0.2748 0.2748 0.2748 0.2747
3818.000000 0.2747 0.2747 0.2747 0.2747 0.2747
3823.000000 0.2746 0.2746 0.2746 0.2746 0.2746
3828.000000 0.2746 0.2745 0.2745 0.2745 0.2744
3833.000000 0.2744 0.2744 0.2743 0.2743 0.2743
3838.000000 0.2743 0.2743 0.2743 0.2742 0.2742
3843.000000 0.2742 0.2742 0.2742 0.2742 0.2741
3848.000000 0.2741 0.2741 0.2741 0.2741 0.2741
3853.000000 0.2740 0.2740 0.2740 0.2740 0.2740
3858.000000 0.2740 0.2738 0.2737 0.2736 0.2734
3863.000000 0.2733 0.2731 0.2730 0.2728 0.2727
3868.000000 0.2725 0.2724 0.2722 0.2721 0.2719
3873.000000 0.2718 0.2716 0.2715 0.2713 0.2712
3878.000000 0.2710 0.2708 0.2706 0.2704 0.2702
3883.000000 0.2700 0.2698 0.2696 0.2694 0.2692
3888.000000 0.2690 0.2688 0.2686 0.2684 0.2682
3893.000000 0.2680 0.2678 0.2676 0.2674 0.2672
3898.000000 0.2670 0.2668 0.2666 0.2664 0.2662
3903.000000 0.2660 0.2659 0.2657 0.2655 0.2653
3908.000000 0.2652 0.2650 0.2648 0.2647 0.2645
3913.000000 0.2643 0.2642 0.2640 0.2639 0.2637
3918.000000 0.2635 0.2634 0.2632 0.2630 0.2629
3923.000000 0.2627 0.2626 0.2624 0.2623 0.2621
3928.000000 0.2620 0.2618 0.2617 0.2615 0.2614
3933.000000 0.2613 0.2611 0.2610 0.2609 0.2608
3938.000000 0.2606 0.2605 0.2604 0.2602 0.2601
3943.000000 0.2600 0.2598 0.2597 0.2595 0.2594
3948.000000 0.2593 0.2591 0.2590 0.2589 0.2587
3953.000000 0.2586 0.2585 0.2583 0.2582 0.2581
3958.000000 0.2580 0.2578 0.2577 0.2576 0.2574
3963.000000 0.2573 0.2572 0.2571 0.2569 0.2568
3968.000000 0.2567 0.2565 0.2564 0.2563 0.2561
3973.000000 0.2560 0.2558 0.2557 0.2556 0.2554
3978.000000 0.2553 0.2552 0.2551 0.2549 0.2548
3983.000000 0.2547 0.2546 0.2544 0.2543 0.2542
3988.000000 0.2541 0.2539 0.2538 0.2537 0.2536
3993.000000 0.2534 0.2533 0.2532 0.2532 0.2531
3998.000000 0.2530 0.2529 0.2529
##END=
