##TITLE=2-(P-NONYLPHENOXY)-3-METHYL-6-(2-PHENYLETHYL) PYRAZINE
##JCAMP-DX=4.24
##DATA TYPE=INFRARED SPECTRUM
##CLASS=COBLENTZ
##ORIGIN=WYANDOTTE CHEMICALS CORP., WYANDOTTE, MICHIGAN, USA
##OWNER=COBLENTZ SOCIETY
Collection (C) 2018 copyright by the U.S. Secretary of Commerce
on behalf of the United States of America. All rights reserved.
##DATE=Not specified, most likely prior to 1970
##NAMES=3-methyl-6-(2-phenylethyl)-2-pyrazinyl 4-nonylphenyl ether
2-methyl-3-(4-nonylphenoxy)-5-(2-phenylethyl)pyrazine
##MOLFORM=C28 H36 N2 O
##SOURCE REFERENCE=COBLENTZ NO. 3115
##$NIST ID=B6003115
##$NIST SOURCE=COBLENTZ
##$NIST IMAGE=cob3115
##SPECTROMETER/DATA SYSTEM=Not specified, most likely a prism, grating, or hybrid spectrometer.
##STATE=LIQUID
##SAMPLING PROCEDURE=TRANSMISSION
##RESOLUTION=4
##DATA PROCESSING=DIGITIZED BY NIST FROM HARD COPY
##XUNITS=MICROMETERS
##YUNITS=TRANSMITTANCE
##XFACTOR=1.000000
##YFACTOR=1
##DELTAX=000.006816
##FIRSTX=2.014
##LASTX=15.9928
##FIRSTY=0.984
##MAXX=15.9928
##MINX=2.014
##MAXY=0.984
##MINY=0.025
##NPOINTS=2052
##XYDATA=(X++(Y..Y))
2.014000 0.9840 0.9840 0.9810 0.9770 0.9770
2.048096 0.9760 0.9740 0.9720 0.9720 0.9740
2.082000 0.9760 0.9740 0.9740 0.9740 0.9760
2.116096 0.9770 0.9770 0.9770 0.9760 0.9720
2.150000 0.9670 0.9580 0.9500 0.9480 0.9410
2.184096 0.9330 0.9260 0.9210 0.9190 0.9190
2.218000 0.9190 0.9190 0.9170 0.9190 0.9170
2.252096 0.9160 0.9160 0.9170 0.9210 0.9240
2.286000 0.9280 0.9290 0.9310 0.9330 0.9310
2.320096 0.9310 0.9310 0.9290 0.9290 0.9280
2.354000 0.9260 0.9220 0.9170 0.9100 0.9090
2.388096 0.9100 0.9190 0.9280 0.9330 0.9340
2.423000 0.9360 0.9380 0.9410 0.9430 0.9450
2.457096 0.9460 0.9520 0.9570 0.9550 0.9520
2.491000 0.9500 0.9480 0.9450 0.9450 0.9460
2.525096 0.9500 0.9530 0.9550 0.9550 0.9570
2.559000 0.9570 0.9570 0.9580 0.9570 0.9580
2.593096 0.9600 0.9620 0.9620 0.9620 0.9620
2.627000 0.9640 0.9650 0.9670 0.9620 0.9580
2.661096 0.9550 0.9550 0.9550 0.9550 0.9530
2.695000 0.9520 0.9500 0.9480 0.9480 0.9480
2.729096 0.9500 0.9520 0.9520 0.9530 0.9530
2.763000 0.9570 0.9570 0.9550 0.9530 0.9500
2.797096 0.9480 0.9450 0.9480 0.9460 0.9430
2.832000 0.9400 0.9330 0.9290 0.9290 0.9290
2.866096 0.9290 0.9310 0.9290 0.9240 0.9210
2.900000 0.9210 0.9190 0.9210 0.9210 0.9220
2.934096 0.9240 0.9240 0.9210 0.9170 0.9210
2.968000 0.9210 0.9210 0.9210 0.9190 0.9170
3.002096 0.9160 0.9140 0.9120 0.9100 0.9100
3.036000 0.9100 0.9100 0.9070 0.9050 0.9020
3.070096 0.9000 0.9000 0.8970 0.8920 0.8900
3.104000 0.8900 0.8900 0.8900 0.8860 0.8800
3.138096 0.8780 0.8750 0.8730 0.8710 0.8710
3.172000 0.8690 0.8640 0.8590 0.8510 0.8300
3.206096 0.8030 0.7800 0.7460 0.7080 0.6600
3.241000 0.6210 0.5770 0.5320 0.4960 0.4790
3.275096 0.4720 0.4400 0.4280 0.4260 0.4700
3.309000 0.4700 0.4530 0.3780 0.3130 0.2080
3.343096 0.1720 0.0800 0.0300 0.0300 0.0350
3.377000 0.0410 0.0460 0.0470 0.0470 0.0510
3.411096 0.0610 0.0730 0.0870 0.1060 0.1310
3.445000 0.1690 0.1830 0.1830 0.1780 0.1690
3.479096 0.1600 0.1570 0.1660 0.2020 0.2600
3.513000 0.3300 0.4210 0.5200 0.6020 0.6880
3.547096 0.7340 0.7550 0.7750 0.7910 0.7970
3.581000 0.8010 0.8060 0.8150 0.8270 0.8320
3.615096 0.8420 0.8450 0.8450 0.8420 0.8400
3.649000 0.8400 0.8400 0.8390 0.8370 0.8330
3.683096 0.8330 0.8390 0.8520 0.8630 0.8690
3.718000 0.8730 0.8750 0.8780 0.8800 0.8810
3.752096 0.8810 0.8800 0.8780 0.8780 0.8780
3.786000 0.8780 0.8780 0.8760 0.8780 0.8780
3.820096 0.8800 0.8810 0.8860 0.8860 0.8860
3.854000 0.8830 0.8810 0.8800 0.8800 0.8810
3.888096 0.8830 0.8850 0.8860 0.8880 0.8900
3.922000 0.8930 0.8950 0.8970 0.8970 0.8950
3.956096 0.8950 0.8980 0.8980 0.8980 0.8970
3.990000 0.8970 0.8980 0.9000 0.9000 0.9000
4.024096 0.9000 0.9000 0.9000 0.9020 0.9000
4.058000 0.9000 0.8980 0.8950 0.8930 0.8950
4.092096 0.8950 0.8950 0.8930 0.8930 0.8920
4.127000 0.8930 0.8950 0.8950 0.8930 0.8880
4.161096 0.8880 0.8920 0.8920 0.8920 0.8920
4.195000 0.8920 0.8920 0.8900 0.8800 0.8730
4.229096 0.8710 0.8690 0.8690 0.8690 0.8680
4.263000 0.8660 0.8640 0.8640 0.8640 0.8660
4.297096 0.8660 0.8680 0.8660 0.8660 0.8680
4.331000 0.8690 0.8710 0.8710 0.8710 0.8710
4.365096 0.8760 0.8830 0.8900 0.8920 0.8930
4.399000 0.8980 0.8980 0.9020 0.9040 0.9020
4.433096 0.9040 0.9090 0.9100 0.9100 0.9100
4.467000 0.9140 0.9160 0.9170 0.9160 0.9170
4.501096 0.9170 0.9170 0.9190 0.9190 0.9210
4.536000 0.9210 0.9220 0.9220 0.9210 0.9210
4.570096 0.9190 0.9190 0.9170 0.9170 0.9260
4.604000 0.9260 0.9220 0.9210 0.9190 0.9190
4.638096 0.9190 0.9190 0.9190 0.9160 0.9160
4.672000 0.9140 0.9160 0.9170 0.9190 0.9190
4.706096 0.9170 0.9170 0.9170 0.9170 0.9170
4.740000 0.9170 0.9170 0.9170 0.9170 0.9190
4.774096 0.9190 0.9220 0.9240 0.9260 0.9260
4.808000 0.9210 0.9170 0.9160 0.9120 0.9100
4.842096 0.9090 0.9090 0.9040 0.9020 0.8970
4.876000 0.8930 0.8920 0.8950 0.8980 0.9000
4.910096 0.9000 0.9000 0.8980 0.8950 0.8920
4.944000 0.8900 0.8900 0.8900 0.8900 0.8900
4.978096 0.8900 0.8920 0.8930 0.8970 0.8980
5.013000 0.9000 0.9020 0.9020 0.9000 0.9000
5.047096 0.9000 0.9000 0.9000 0.9000 0.8980
5.081000 0.8970 0.8980 0.9000 0.9000 0.9000
5.115096 0.9000 0.9020 0.9000 0.8900 0.8850
5.149000 0.8810 0.8760 0.8710 0.8690 0.8690
5.183096 0.8690 0.8630 0.8640 0.8690 0.8730
5.217000 0.8810 0.8880 0.8950 0.8950 0.8930
5.251096 0.8930 0.8920 0.8920 0.8880 0.8800
5.285000 0.8730 0.8690 0.8570 0.8420 0.8280
5.319096 0.8210 0.8180 0.8180 0.8230 0.8320
5.353000 0.8420 0.8510 0.8540 0.8560 0.8610
5.387096 0.8630 0.8640 0.8660 0.8710 0.8780
5.422000 0.8920 0.8930 0.8930 0.8950 0.9000
5.456096 0.9020 0.9020 0.9000 0.9000 0.9000
5.490000 0.8980 0.8970 0.8920 0.8880 0.8860
5.524096 0.8800 0.8710 0.8690 0.8680 0.8610
5.558000 0.8540 0.8490 0.8450 0.8450 0.8510
5.592096 0.8540 0.8590 0.8630 0.8630 0.8640
5.626000 0.8660 0.8610 0.8470 0.8420 0.8400
5.660096 0.8390 0.8350 0.8330 0.8320 0.8320
5.694000 0.8320 0.8300 0.8300 0.8300 0.8280
5.728096 0.8270 0.8250 0.8250 0.8230 0.8250
5.762000 0.8210 0.8130 0.7970 0.7750 0.7610
5.796096 0.7290 0.6620 0.6540 0.6540 0.6710
5.831000 0.7220 0.7530 0.7750 0.7910 0.8030
5.865096 0.8160 0.8230 0.8270 0.8300 0.8320
5.899000 0.8330 0.8300 0.8280 0.8300 0.8300
5.933096 0.8280 0.8270 0.8160 0.8060 0.7990
5.967000 0.7970 0.7920 0.7910 0.7850 0.7820
6.001096 0.7770 0.7730 0.7730 0.7770 0.7800
6.035000 0.7790 0.7790 0.7790 0.7790 0.7790
6.069096 0.7790 0.7820 0.7820 0.7800 0.7730
6.103000 0.7680 0.7650 0.7610 0.7580 0.7550
6.137096 0.7340 0.7140 0.6860 0.6500 0.5970
6.171000 0.5580 0.5220 0.4520 0.4190 0.4310
6.205096 0.5080 0.5560 0.5780 0.5850 0.5890
6.240000 0.5890 0.5800 0.5510 0.5410 0.5250
6.274096 0.5230 0.5320 0.5460 0.5610 0.5920
6.308000 0.6450 0.6600 0.6780 0.6910 0.6930
6.342096 0.6950 0.6950 0.6930 0.6910 0.6880
6.376000 0.6760 0.6550 0.6400 0.6160 0.5850
6.410096 0.5650 0.5000 0.4550 0.4240 0.4020
6.444000 0.3860 0.3760 0.3590 0.3440 0.3440
6.478096 0.3570 0.4190 0.4600 0.4860 0.5000
6.512000 0.5100 0.5150 0.5150 0.5100 0.4720
6.546096 0.4310 0.3830 0.3250 0.2480 0.1950
6.580000 0.1660 0.1300 0.0950 0.0470 0.0410
6.614096 0.0410 0.0420 0.0560 0.0820 0.1130
6.648000 0.1450 0.1670 0.1950 0.2220 0.2530
6.682096 0.2920 0.3510 0.3860 0.3860 0.3800
6.717000 0.3690 0.3570 0.3450 0.3180 0.2890
6.751096 0.2410 0.2000 0.1670 0.1300 0.0940
6.785000 0.0650 0.0510 0.0320 0.0320 0.0340
6.819096 0.0350 0.0350 0.0350 0.0370 0.0420
6.853000 0.0460 0.0510 0.0660 0.0770 0.0830
6.887096 0.0940 0.1010 0.1040 0.1070 0.1110
6.921000 0.1180 0.1300 0.1380 0.1470 0.1540
6.955096 0.1640 0.1760 0.1950 0.2070 0.2290
6.989000 0.2510 0.2720 0.2940 0.3130 0.3300
7.023096 0.3390 0.3510 0.3520 0.3510 0.3400
7.057000 0.3280 0.3210 0.3130 0.2990 0.2960
7.091096 0.2970 0.3030 0.3040 0.3130 0.3200
7.126000 0.3210 0.3200 0.3040 0.2770 0.2500
7.160096 0.2170 0.1860 0.1670 0.1520 0.1380
7.194000 0.1040 0.0630 0.0390 0.0270 0.0270
7.228096 0.0250 0.0270 0.0270 0.0270 0.0270
7.262000 0.0300 0.0300 0.0270 0.0270 0.0270
7.296096 0.0270 0.0270 0.0290 0.0300 0.0320
7.330000 0.0350 0.0370 0.0340 0.0370 0.0410
7.364096 0.0440 0.0510 0.0540 0.0560 0.0610
7.398000 0.0710 0.0850 0.0970 0.1060 0.1230
7.432096 0.1420 0.1590 0.1780 0.1960 0.2080
7.466000 0.2430 0.2770 0.3010 0.3210 0.3390
7.500096 0.3560 0.3690 0.3810 0.4000 0.4050
7.535000 0.4120 0.4160 0.4160 0.4160 0.4160
7.569096 0.4140 0.4120 0.4040 0.4020 0.3920
7.603000 0.3730 0.3610 0.3440 0.3270 0.3060
7.637096 0.2850 0.2550 0.2390 0.2270 0.2220
7.671000 0.2190 0.2150 0.2080 0.2070 0.2080
7.705096 0.2080 0.2080 0.2080 0.2100 0.2100
7.739000 0.2100 0.2120 0.2190 0.2290 0.2390
7.773096 0.2460 0.2510 0.2530 0.2550 0.2670
7.807000 0.2790 0.2850 0.2990 0.3130 0.3210
7.841096 0.3300 0.3350 0.3450 0.3540 0.3560
7.875000 0.3570 0.3540 0.3560 0.3630 0.3680
7.909096 0.3730 0.3800 0.3900 0.3900 0.3830
7.944000 0.3750 0.3710 0.3640 0.3590 0.3520
7.978096 0.3510 0.3450 0.3400 0.3330 0.3230
8.012000 0.3180 0.3110 0.3040 0.2990 0.2940
8.046096 0.2910 0.2840 0.2700 0.2560 0.2480
8.080000 0.2380 0.2200 0.2030 0.1900 0.1830
8.114096 0.1740 0.1620 0.1550 0.1430 0.1350
8.148000 0.1230 0.1020 0.0870 0.0750 0.0560
8.182096 0.0440 0.0370 0.0320 0.0320 0.0320
8.216000 0.0320 0.0320 0.0320 0.0320 0.0340
8.250096 0.0340 0.0390 0.0490 0.0650 0.0780
8.284000 0.1020 0.1280 0.1550 0.1790 0.2030
8.318096 0.2200 0.2480 0.2750 0.2940 0.3010
8.352000 0.3080 0.3130 0.3130 0.3130 0.3060
8.386096 0.2920 0.2820 0.2530 0.2080 0.1960
8.421000 0.1760 0.1540 0.1280 0.1020 0.0800
8.455096 0.0580 0.0440 0.0350 0.0320 0.0300
8.489000 0.0290 0.0300 0.0320 0.0320 0.0370
8.523096 0.0420 0.0440 0.0490 0.0580 0.0780
8.557000 0.0970 0.1060 0.1180 0.1300 0.1380
8.591096 0.1420 0.1500 0.1520 0.1520 0.1520
8.625000 0.1520 0.1500 0.1420 0.1380 0.1380
8.659096 0.1420 0.1500 0.1660 0.1790 0.1980
8.693000 0.2170 0.2410 0.2680 0.2870 0.3080
8.727096 0.3350 0.3570 0.3710 0.3900 0.4070
8.761000 0.4220 0.4310 0.4410 0.4520 0.4600
8.795096 0.4690 0.4760 0.4820 0.4840 0.4890
8.830000 0.4910 0.4930 0.4930 0.4890 0.4770
8.864096 0.4650 0.4580 0.4580 0.4570 0.4580
8.898000 0.4640 0.4670 0.4670 0.4690 0.4690
8.932096 0.4700 0.4700 0.4720 0.4760 0.4810
8.966000 0.4880 0.4930 0.5050 0.5300 0.5490
9.000096 0.5540 0.5730 0.5940 0.6110 0.6230
9.034000 0.6360 0.6470 0.6480 0.6520 0.6540
9.068096 0.6550 0.6590 0.6600 0.6620 0.6620
9.102000 0.6570 0.6520 0.6520 0.6500 0.6500
9.136096 0.6500 0.6500 0.6500 0.6520 0.6540
9.170000 0.6590 0.6640 0.6720 0.6740 0.6780
9.204096 0.6780 0.6690 0.6670 0.6660 0.6550
9.239000 0.6400 0.6230 0.6060 0.5950 0.5750
9.273096 0.5510 0.5470 0.5470 0.5510 0.5610
9.307000 0.5730 0.5940 0.6160 0.6360 0.6480
9.341096 0.6640 0.6860 0.6980 0.7050 0.7190
9.375000 0.7310 0.7390 0.7430 0.7480 0.7500
9.409096 0.7530 0.7560 0.7510 0.7510 0.7510
9.443000 0.7560 0.7580 0.7560 0.7550 0.7530
9.477096 0.7530 0.7500 0.7480 0.7480 0.7430
9.511000 0.7380 0.7360 0.7320 0.7290 0.7220
9.545096 0.7150 0.7080 0.7030 0.7000 0.6900
9.579000 0.6810 0.6790 0.6760 0.6660 0.6520
9.613096 0.6450 0.6350 0.6180 0.6070 0.5920
9.648000 0.5770 0.5560 0.5340 0.5060 0.4880
9.682096 0.4700 0.4550 0.4410 0.4260 0.4220
9.716000 0.4240 0.4240 0.4240 0.4260 0.4260
9.750096 0.4240 0.4160 0.4050 0.3900 0.3690
9.784000 0.3520 0.3300 0.3150 0.2750 0.2310
9.818096 0.2070 0.1840 0.1690 0.1520 0.1450
9.852000 0.1450 0.1600 0.1960 0.2410 0.2910
9.886096 0.3320 0.3680 0.3950 0.4210 0.4410
9.920000 0.4580 0.4720 0.4860 0.4980 0.5030
9.954096 0.5130 0.5230 0.5270 0.5290 0.5350
9.988000 0.5440 0.5560 0.5700 0.5830 0.5970
10.022096 0.6110 0.6250 0.6380 0.6520 0.6620
10.056000 0.6690 0.6720 0.6810 0.6950 0.7050
10.090096 0.7100 0.7120 0.7140 0.7190 0.7240
10.125000 0.7240 0.7220 0.7220 0.7220 0.7200
10.159096 0.7150 0.7100 0.7080 0.7080 0.7080
10.193000 0.7080 0.7050 0.7020 0.7000 0.7000
10.227096 0.6980 0.7000 0.7000 0.7000 0.6980
10.261000 0.6950 0.6930 0.6930 0.6930 0.6930
10.295096 0.7000 0.7000 0.7000 0.6930 0.6900
10.329000 0.6880 0.6840 0.6810 0.6790 0.6780
10.363096 0.6760 0.6740 0.6720 0.6720 0.6720
10.397000 0.6760 0.6830 0.6880 0.6900 0.6930
10.431096 0.6980 0.7070 0.7120 0.7150 0.7150
10.465000 0.7190 0.7220 0.7220 0.7260 0.7310
10.499096 0.7340 0.7380 0.7390 0.7390 0.7410
10.534000 0.7430 0.7430 0.7460 0.7480 0.7480
10.568096 0.7460 0.7440 0.7430 0.7390 0.7390
10.602000 0.7320 0.7310 0.7290 0.7270 0.7190
10.636096 0.7150 0.7140 0.7150 0.7150 0.7170
10.670000 0.7170 0.7150 0.7140 0.7120 0.7080
10.704096 0.7070 0.7030 0.7020 0.7030 0.7030
10.738000 0.7080 0.7080 0.7070 0.7070 0.7070
10.772096 0.7070 0.7050 0.7000 0.6980 0.6960
10.806000 0.7000 0.7030 0.7070 0.7120 0.7140
10.840096 0.7190 0.7240 0.7290 0.7310 0.7320
10.874000 0.7380 0.7390 0.7440 0.7500 0.7500
10.908096 0.7530 0.7550 0.7530 0.7530 0.7530
10.943000 0.7530 0.7530 0.7530 0.7500 0.7500
10.977096 0.7500 0.7500 0.7440 0.7360 0.7260
11.011000 0.7170 0.7100 0.7050 0.7050 0.7020
11.045096 0.6980 0.6910 0.6900 0.6880 0.6880
11.079000 0.6860 0.6860 0.6860 0.6860 0.6900
11.113096 0.6910 0.6900 0.6880 0.6830 0.6760
11.147000 0.6740 0.6740 0.6710 0.6660 0.6620
11.181096 0.6600 0.6590 0.6540 0.6500 0.6470
11.215000 0.6400 0.6360 0.6330 0.6330 0.6310
11.249096 0.6300 0.6280 0.6210 0.6160 0.6160
11.283000 0.6130 0.6110 0.6110 0.6130 0.6140
11.317096 0.6140 0.6160 0.6160 0.6160 0.6160
11.352000 0.6190 0.6250 0.6280 0.6280 0.6300
11.386096 0.6310 0.6360 0.6450 0.6500 0.6540
11.420000 0.6600 0.6670 0.6720 0.6780 0.6840
11.454096 0.6950 0.7000 0.7020 0.7030 0.7050
11.488000 0.7070 0.7100 0.7100 0.7080 0.7080
11.522096 0.7080 0.7080 0.7080 0.7080 0.7080
11.556000 0.7070 0.7050 0.7030 0.6980 0.6910
11.590096 0.6840 0.6790 0.6640 0.6450 0.6350
11.624000 0.6300 0.6230 0.6130 0.6020 0.5900
11.658096 0.5730 0.5490 0.5370 0.5270 0.5150
11.692000 0.4980 0.4820 0.4700 0.4530 0.4480
11.726096 0.4330 0.4240 0.4190 0.4070 0.3970
11.760000 0.3850 0.3810 0.3780 0.3710 0.3690
11.794096 0.3660 0.3610 0.3510 0.3420 0.3370
11.829000 0.3300 0.3180 0.3090 0.3030 0.3010
11.863096 0.2940 0.2890 0.2790 0.2730 0.2700
11.897000 0.2670 0.2650 0.2610 0.2580 0.2550
11.931096 0.2530 0.2530 0.2550 0.2550 0.2580
11.965000 0.2600 0.2610 0.2630 0.2670 0.2720
11.999096 0.2800 0.2870 0.2940 0.2970 0.3030
12.033000 0.3090 0.3210 0.3330 0.3440 0.3540
12.067096 0.3660 0.3750 0.3860 0.4020 0.4140
12.101000 0.4290 0.4410 0.4500 0.4600 0.4720
12.135096 0.4810 0.4890 0.5000 0.5080 0.5230
12.169000 0.5410 0.5530 0.5630 0.5710 0.5770
12.203096 0.5870 0.5920 0.5970 0.6010 0.6040
12.238000 0.6140 0.6210 0.6250 0.6260 0.6300
12.272096 0.6400 0.6500 0.6500 0.6540 0.6540
12.306000 0.6550 0.6600 0.6740 0.6840 0.6900
12.340096 0.6910 0.6930 0.7000 0.7020 0.7030
12.374000 0.7100 0.7150 0.7190 0.7240 0.7290
12.408096 0.7310 0.7340 0.7360 0.7430 0.7460
12.442000 0.7460 0.7460 0.7440 0.7430 0.7430
12.476096 0.7430 0.7480 0.7510 0.7510 0.7500
12.510000 0.7500 0.7480 0.7430 0.7390 0.7340
12.544096 0.7320 0.7270 0.7190 0.7100 0.7030
12.578000 0.6960 0.6900 0.6840 0.6810 0.6690
12.612096 0.6470 0.6400 0.6350 0.6330 0.6300
12.647000 0.6260 0.6230 0.6180 0.6130 0.6130
12.681096 0.6140 0.6160 0.6210 0.6280 0.6310
12.715000 0.6350 0.6360 0.6380 0.6420 0.6430
12.749096 0.6470 0.6480 0.6480 0.6480 0.6470
12.783000 0.6470 0.6480 0.6480 0.6470 0.6470
12.817096 0.6480 0.6500 0.6500 0.6500 0.6520
12.851000 0.6540 0.6570 0.6590 0.6600 0.6640
12.885096 0.6640 0.6620 0.6620 0.6620 0.6620
12.919000 0.6620 0.6600 0.6590 0.6520 0.6500
12.953096 0.6500 0.6480 0.6430 0.6430 0.6420
12.987000 0.6400 0.6400 0.6380 0.6360 0.6330
13.021096 0.6300 0.6300 0.6330 0.6350 0.6330
13.056000 0.6310 0.6310 0.6310 0.6310 0.6330
13.090096 0.6310 0.6300 0.6280 0.6210 0.6180
13.124000 0.6160 0.6130 0.6070 0.5990 0.5900
13.158096 0.5870 0.5820 0.5700 0.5650 0.5630
13.192000 0.5590 0.5540 0.5410 0.5320 0.5250
13.226096 0.5150 0.5050 0.4980 0.4890 0.4820
13.260000 0.4740 0.4640 0.4500 0.4380 0.4240
13.294096 0.4160 0.4050 0.3920 0.3750 0.3660
13.328000 0.3590 0.3510 0.3420 0.3330 0.3320
13.362096 0.3270 0.3230 0.3230 0.3210 0.3200
13.396000 0.3200 0.3210 0.3320 0.3390 0.3420
13.430096 0.3440 0.3450 0.3510 0.3560 0.3610
13.464000 0.3630 0.3690 0.3800 0.3830 0.3880
13.498096 0.3880 0.3900 0.3930 0.3970 0.4000
13.533000 0.4000 0.4000 0.4020 0.4020 0.4020
13.567096 0.4020 0.4020 0.4020 0.4040 0.4040
13.601000 0.4050 0.4050 0.4070 0.4090 0.4120
13.635096 0.4160 0.4160 0.4170 0.4220 0.4280
13.669000 0.4310 0.4310 0.4360 0.4460 0.4530
13.703096 0.4600 0.4650 0.4690 0.4700 0.4720
13.737000 0.4740 0.4790 0.4910 0.4980 0.5000
13.771096 0.5030 0.5080 0.5110 0.5130 0.5110
13.805000 0.5130 0.5180 0.5220 0.5250 0.5320
13.839096 0.5340 0.5350 0.5340 0.5350 0.5390
13.873000 0.5470 0.5490 0.5470 0.5470 0.5410
13.907096 0.5410 0.5460 0.5470 0.5490 0.5530
13.942000 0.5580 0.5590 0.5610 0.5630 0.5680
13.976096 0.5700 0.5710 0.5750 0.5770 0.5800
14.010000 0.5830 0.5850 0.5850 0.5890 0.5940
14.044096 0.5970 0.5970 0.5990 0.5990 0.5990
14.078000 0.5990 0.5990 0.6010 0.6010 0.6010
14.112096 0.5990 0.5970 0.5920 0.5870 0.5830
14.146000 0.5820 0.5780 0.5700 0.5560 0.5490
14.180096 0.5440 0.5350 0.5270 0.5110 0.5000
14.214000 0.4880 0.4740 0.4600 0.4450 0.4280
14.248096 0.4100 0.3900 0.3660 0.3420 0.3160
14.282000 0.2990 0.2850 0.2700 0.2500 0.2290
14.316096 0.2140 0.2020 0.1960 0.1880 0.1780
14.351000 0.1690 0.1640 0.1600 0.1550 0.1540
14.385096 0.1520 0.1540 0.1620 0.1710 0.1830
14.419000 0.1950 0.2020 0.2170 0.2360 0.2550
14.453096 0.2680 0.2850 0.3110 0.3510 0.3750
14.487000 0.3970 0.4170 0.4450 0.4740 0.5000
14.521096 0.5170 0.5350 0.5560 0.5770 0.5950
14.555000 0.6110 0.6300 0.6400 0.6470 0.6520
14.589096 0.6600 0.6710 0.6900 0.7050 0.7100
14.623000 0.7120 0.7140 0.7170 0.7190 0.7190
14.657096 0.7190 0.7200 0.7260 0.7270 0.7290
14.691000 0.7310 0.7320 0.7360 0.7380 0.7390
14.725096 0.7390 0.7360 0.7340 0.7340 0.7380
14.759000 0.7410 0.7500 0.7510 0.7550 0.7560
14.793096 0.7510 0.7510 0.7510 0.7510 0.7510
14.828000 0.7580 0.7580 0.7580 0.7580 0.7580
14.862096 0.7580 0.7580 0.7600 0.7600 0.7630
14.896000 0.7650 0.7650 0.7670 0.7650 0.7650
14.930096 0.7650 0.7650 0.7650 0.7650 0.7670
14.964000 0.7680 0.7650 0.7630 0.7600 0.7560
14.998096 0.7560 0.7550 0.7550 0.7530 0.7530
15.032000 0.7500 0.7430 0.7410 0.7410 0.7410
15.066096 0.7410 0.7410 0.7430 0.7440 0.7440
15.100000 0.7500 0.7530 0.7600 0.7630 0.7670
15.134096 0.7700 0.7730 0.7770 0.7790 0.7790
15.168000 0.7820 0.7820 0.7820 0.7820 0.7820
15.202096 0.7800 0.7800 0.7800 0.7800 0.7800
15.237000 0.7800 0.7800 0.7790 0.7790 0.7790
15.271096 0.7730 0.7700 0.7680 0.7680 0.7670
15.305000 0.7630 0.7600 0.7580 0.7580 0.7550
15.339096 0.7550 0.7550 0.7550 0.7530 0.7500
15.373000 0.7500 0.7500 0.7500 0.7480 0.7460
15.407096 0.7440 0.7440 0.7440 0.7430 0.7410
15.441000 0.7410 0.7410 0.7410 0.7390 0.7390
15.475096 0.7390 0.7390 0.7390 0.7390 0.7390
15.509000 0.7390 0.7390 0.7380 0.7380 0.7360
15.543096 0.7340 0.7340 0.7390 0.7390 0.7380
15.577000 0.7360 0.7360 0.7360 0.7320 0.7320
15.611096 0.7320 0.7320 0.7320 0.7320 0.7340
15.646000 0.7340 0.7340 0.7340 0.7340 0.7340
15.680096 0.7310 0.7290 0.7270 0.7290 0.7340
15.714000 0.7390 0.7410 0.7390 0.7390 0.7380
15.748096 0.7340 0.7310 0.7310 0.7310 0.7310
15.782000 0.7290 0.7270 0.7290 0.7290 0.7310
15.816096 0.7310 0.7310 0.7290 0.7270 0.7270
15.850000 0.7260 0.7270 0.7270 0.7270 0.7260
15.884096 0.7200 0.7170 0.7170 0.7170 0.7170
15.918000 0.7190 0.7190 0.7190 0.7150 0.7140
15.952096 0.7120 0.7100 0.7080 0.7050 0.7020
15.986000 0.7020 0.7000
##END=
