##TITLE=Cephalosporin C, potassium salt, monohydrate
##JCAMP-DX=4.24
##DATA TYPE=INFRARED SPECTRUM
##CLASS=COBLENTZ
##ORIGIN=SMITH KLINE & FRENCH LABS.
##OWNER=Copyright (C) 1987 by the Coblentz Society
Collection (C) 2018 copyright by the U.S. Secretary of Commerce
on behalf of the United States of America. All rights reserved.
##DATE=1964/01/14
##MOLFORM=C16 H20 K N3 O8 S  * H2 O
##SOURCE REFERENCE=COBLENTZ NO. 7998
##$NIST ID=B6007998
##$NIST SOURCE=COBLENTZ
##$NIST IMAGE=cob7998
##SPECTROMETER/DATA SYSTEM=PERKIN-ELMER 21 (GRATING)
##INSTRUMENT PARAMETERS=NaCl PRISM
##STATE=SOLID (OIL MULL)
$$SPECTRAL CONTAMINATION DUE TO OIL AROUND 2850, 1455 CM^-^1
##SAMPLING PROCEDURE=TRANSMISSION
##RESOLUTION=2
##DATA PROCESSING=DIGITIZED BY COBLENTZ SOCIETY (BATCH II) FROM HARD COPY
##XUNITS=1/CM
##YUNITS=TRANSMITTANCE
##XFACTOR=1.0
##YFACTOR=1
##FIRSTX=662
##LASTX=4000
##FIRSTY=0.6493
##MAXX=4000
##MINX=662
##MAXY=0.9039
##MINY=0.1976
##NPOINTS=3339
##XYDATA=(X++(Y..Y))
662.000000 0.6493 0.6494 0.6566 0.6789 0.6798
667.000000 0.6751 0.6689 0.6717 0.6781 0.6814
672.000000 0.6812 0.6861 0.6924 0.6946 0.6968
677.000000 0.7002 0.6996 0.7000 0.7060 0.7072
682.000000 0.7150 0.7234 0.7251 0.7258 0.7259
687.000000 0.7256 0.7254 0.7255 0.7256 0.7257
692.000000 0.7254 0.7250 0.7246 0.7248 0.7266
697.000000 0.7288 0.7350 0.7388 0.7401 0.7363
702.000000 0.7333 0.7362 0.7362 0.7351 0.7347
707.000000 0.7347 0.7393 0.7398 0.7356 0.7341
712.000000 0.7325 0.7310 0.7303 0.7287 0.7286
717.000000 0.7296 0.7314 0.7340 0.7342 0.7293
722.000000 0.7259 0.7285 0.7308 0.7302 0.7279
727.000000 0.7249 0.7221 0.7214 0.7238 0.7196
732.000000 0.7087 0.7098 0.7097 0.7146 0.7167
737.000000 0.7189 0.7227 0.7310 0.7400 0.7422
742.000000 0.7422 0.7422 0.7435 0.7481 0.7511
747.000000 0.7518 0.7537 0.7581 0.7567 0.7574
752.000000 0.7568 0.7553 0.7524 0.7499 0.7487
757.000000 0.7497 0.7473 0.7324 0.7241 0.7218
762.000000 0.7209 0.7210 0.7213 0.7214 0.7213
767.000000 0.7196 0.7131 0.7054 0.6989 0.6943
772.000000 0.6932 0.6988 0.7119 0.7274 0.7393
777.000000 0.7483 0.7535 0.7581 0.7618 0.7643
782.000000 0.7630 0.7602 0.7559 0.7474 0.7356
787.000000 0.7220 0.7042 0.6652 0.6459 0.6431
792.000000 0.6751 0.7074 0.7254 0.7413 0.7522
797.000000 0.7599 0.7641 0.7649 0.7637 0.7630
802.000000 0.7621 0.7609 0.7596 0.7591 0.7586
807.000000 0.7581 0.7578 0.7576 0.7590 0.7606
812.000000 0.7619 0.7600 0.7549 0.7480 0.7430
817.000000 0.7384 0.7362 0.7326 0.7500 0.7671
822.000000 0.7781 0.7842 0.7867 0.7887 0.7891
827.000000 0.7890 0.7886 0.7882 0.7880 0.7898
832.000000 0.7881 0.7886 0.7894 0.7902 0.7910
837.000000 0.7916 0.7904 0.7883 0.7862 0.7850
842.000000 0.7847 0.7854 0.7875 0.7882 0.7855
847.000000 0.7823 0.7756 0.7672 0.7628 0.7588
852.000000 0.7548 0.7507 0.7464 0.7421 0.7378
857.000000 0.7339 0.7301 0.7275 0.7257 0.7459
862.000000 0.7670 0.7771 0.7801 0.7818 0.7832
867.000000 0.7836 0.7819 0.7800 0.7780 0.7768
872.000000 0.7766 0.7766 0.7780 0.7794 0.7808
877.000000 0.7828 0.7876 0.7926 0.7931 0.7916
882.000000 0.7908 0.7902 0.7901 0.7921 0.7959
887.000000 0.7990 0.8017 0.8018 0.8016 0.8005
892.000000 0.7977 0.7946 0.7915 0.7888 0.7862
897.000000 0.7836 0.7808 0.7777 0.7714 0.7661
902.000000 0.7673 0.7730 0.7752 0.7752 0.7729
907.000000 0.7697 0.7664 0.7626 0.7586 0.7524
912.000000 0.7454 0.7318 0.7192 0.7193 0.7246
917.000000 0.7359 0.7472 0.7532 0.7536 0.7540
922.000000 0.7587 0.7640 0.7662 0.7665 0.7650
927.000000 0.7627 0.7603 0.7581 0.7560 0.7545
932.000000 0.7531 0.7525 0.7533 0.7524 0.7524
937.000000 0.7525 0.7523 0.7519 0.7516 0.7505
942.000000 0.7496 0.7498 0.7502 0.7506 0.7517
947.000000 0.7549 0.7573 0.7563 0.7544 0.7522
952.000000 0.7501 0.7480 0.7439 0.7347 0.7236
957.000000 0.7140 0.7082 0.7042 0.7007 0.6995
962.000000 0.6993 0.7014 0.7041 0.7050 0.6994
967.000000 0.6944 0.6865 0.6809 0.6773 0.6783
972.000000 0.6805 0.6880 0.7063 0.7257 0.7380
977.000000 0.7418 0.7435 0.7450 0.7459 0.7440
982.000000 0.7411 0.7366 0.7341 0.7338 0.7337
987.000000 0.7324 0.7280 0.7242 0.7230 0.7228
992.000000 0.7234 0.7261 0.7310 0.7371 0.7433
997.000000 0.7469 0.7485 0.7479 0.7473 0.7467
1002.000000 0.7465 0.7466 0.7467 0.7470 0.7473
1007.000000 0.7400 0.7335 0.7330 0.7316 0.7253
1012.000000 0.7160 0.7086 0.7032 0.6991 0.6951
1017.000000 0.6867 0.6764 0.6662 0.6550 0.6422
1022.000000 0.6283 0.6116 0.5928 0.5728 0.5537
1027.000000 0.5311 0.5025 0.4941 0.4939 0.4955
1032.000000 0.5016 0.5294 0.5596 0.5897 0.6198
1037.000000 0.6499 0.6758 0.6832 0.6875 0.6903
1042.000000 0.6923 0.6937 0.6928 0.6917 0.6896
1047.000000 0.6885 0.6874 0.6879 0.6902 0.6930
1052.000000 0.6963 0.7002 0.7039 0.7087 0.7058
1057.000000 0.7003 0.6912 0.6822 0.6731 0.6641
1062.000000 0.6550 0.6461 0.6371 0.6282 0.6240
1067.000000 0.6225 0.6252 0.6405 0.6560 0.6714
1072.000000 0.6867 0.7021 0.7168 0.7207 0.7213
1077.000000 0.7217 0.7216 0.7206 0.7191 0.7159
1082.000000 0.7131 0.7119 0.7127 0.7139 0.7167
1087.000000 0.7213 0.7248 0.7278 0.7299 0.7312
1092.000000 0.7325 0.7339 0.7354 0.7370 0.7372
1097.000000 0.7365 0.7338 0.7303 0.7273 0.7251
1102.000000 0.7229 0.7212 0.7198 0.7189 0.7182
1107.000000 0.7115 0.6984 0.6968 0.6971 0.6978
1112.000000 0.6957 0.7027 0.7080 0.7135 0.7184
1117.000000 0.7216 0.7242 0.7257 0.7263 0.7266
1122.000000 0.7264 0.7262 0.7257 0.7252 0.7265
1127.000000 0.7261 0.7265 0.7260 0.7252 0.7234
1132.000000 0.7214 0.7194 0.7172 0.7149 0.7126
1137.000000 0.7088 0.7028 0.6937 0.6883 0.6843
1142.000000 0.6816 0.6792 0.6758 0.6615 0.6453
1147.000000 0.6327 0.6297 0.6230 0.6194 0.6203
1152.000000 0.6204 0.6366 0.6476 0.6581 0.6618
1157.000000 0.6608 0.6602 0.6583 0.6556 0.6526
1162.000000 0.6491 0.6444 0.6346 0.6282 0.6177
1167.000000 0.6092 0.6048 0.6029 0.6022 0.6019
1172.000000 0.6026 0.6049 0.6143 0.6244 0.6345
1177.000000 0.6446 0.6547 0.6639 0.6696 0.6723
1182.000000 0.6738 0.6745 0.6734 0.6728 0.6715
1187.000000 0.6677 0.6590 0.6499 0.6410 0.6353
1192.000000 0.6317 0.6285 0.6248 0.6217 0.6193
1197.000000 0.6171 0.6151 0.6135 0.6118 0.6100
1202.000000 0.6082 0.6058 0.6030 0.5983 0.5918
1207.000000 0.5774 0.5650 0.5561 0.5457 0.5265
1212.000000 0.4968 0.4656 0.4338 0.3928 0.3789
1217.000000 0.3741 0.3719 0.3718 0.3831 0.3991
1222.000000 0.4152 0.4312 0.4362 0.4376 0.4357
1227.000000 0.4298 0.4151 0.4001 0.3851 0.3734
1232.000000 0.3707 0.3705 0.3708 0.3722 0.3734
1237.000000 0.3735 0.3723 0.3632 0.3304 0.3145
1242.000000 0.3139 0.3143 0.3164 0.3217 0.3414
1247.000000 0.3628 0.3840 0.4054 0.4267 0.4478
1252.000000 0.4690 0.4902 0.5113 0.5324 0.5534
1257.000000 0.5737 0.5844 0.5885 0.5905 0.5911
1262.000000 0.5919 0.5935 0.5957 0.5976 0.5993
1267.000000 0.6006 0.6007 0.6019 0.5960 0.5908
1272.000000 0.5838 0.5763 0.5690 0.5616 0.5528
1277.000000 0.5432 0.5337 0.5242 0.5155 0.5155
1282.000000 0.5280 0.5433 0.5586 0.5739 0.5893
1287.000000 0.6046 0.6194 0.6270 0.6321 0.6353
1292.000000 0.6376 0.6388 0.6414 0.6389 0.6385
1297.000000 0.6375 0.6366 0.6346 0.6324 0.6295
1302.000000 0.6242 0.6193 0.6141 0.6058 0.5972
1307.000000 0.5888 0.5783 0.5639 0.5491 0.5343
1312.000000 0.5196 0.5048 0.4902 0.4754 0.4681
1317.000000 0.4665 0.4654 0.4647 0.4641 0.4632
1322.000000 0.4621 0.4610 0.4548 0.4368 0.4175
1327.000000 0.3982 0.3789 0.3596 0.3515 0.3519
1332.000000 0.3530 0.3655 0.3817 0.3979 0.4141
1337.000000 0.4303 0.4464 0.4625 0.4786 0.4946
1342.000000 0.5015 0.5021 0.5000 0.4991 0.4975
1347.000000 0.4936 0.4852 0.4703 0.4577 0.4311
1352.000000 0.4012 0.3713 0.3415 0.3117 0.2833
1357.000000 0.2717 0.2731 0.2814 0.2940 0.3065
1362.000000 0.3190 0.3315 0.3437 0.3515 0.3554
1367.000000 0.3558 0.3502 0.3422 0.3343 0.3292
1372.000000 0.3292 0.3295 0.3300 0.3310 0.3323
1377.000000 0.3347 0.3371 0.3415 0.3562 0.3709
1382.000000 0.3855 0.3960 0.4056 0.4134 0.4193
1387.000000 0.4235 0.4277 0.4310 0.4335 0.4360
1392.000000 0.4385 0.4397 0.4410 0.4428 0.4487
1397.000000 0.4534 0.4557 0.4572 0.4575 0.4578
1402.000000 0.4577 0.4575 0.4563 0.4548 0.4539
1407.000000 0.4537 0.4539 0.4543 0.4586 0.4682
1412.000000 0.4803 0.4938 0.5072 0.5129 0.5184
1417.000000 0.5237 0.5280 0.5309 0.5331 0.5343
1422.000000 0.5355 0.5365 0.5363 0.5365 0.5364
1427.000000 0.5362 0.5360 0.5357 0.5273 0.5127
1432.000000 0.4979 0.4831 0.4684 0.4537 0.4389
1437.000000 0.4242 0.4096 0.3949 0.3803 0.3657
1442.000000 0.3511 0.3413 0.3396 0.3390 0.3377
1447.000000 0.3326 0.3240 0.3135 0.3069 0.3023
1452.000000 0.2992 0.2965 0.2945 0.2928 0.2920
1457.000000 0.2915 0.2911 0.2912 0.2918 0.2927
1462.000000 0.2938 0.2955 0.3071 0.3367 0.3661
1467.000000 0.3956 0.4250 0.4544 0.4837 0.5078
1472.000000 0.5169 0.5197 0.5220 0.5235 0.5249
1477.000000 0.5256 0.5256 0.5252 0.5245 0.5233
1482.000000 0.5196 0.5074 0.4944 0.4816 0.4687
1487.000000 0.4559 0.4431 0.4302 0.4175 0.4047
1492.000000 0.3930 0.3843 0.3771 0.3698 0.3626
1497.000000 0.3571 0.3521 0.3504 0.3489 0.3473
1502.000000 0.3458 0.3445 0.3432 0.3419 0.3405
1507.000000 0.3384 0.3344 0.3198 0.3048 0.2897
1512.000000 0.2747 0.2597 0.2513 0.2502 0.2475
1517.000000 0.2512 0.2548 0.2592 0.2720 0.2933
1522.000000 0.3147 0.3360 0.3572 0.3784 0.3996
1527.000000 0.4208 0.4419 0.4630 0.4840 0.5051
1532.000000 0.5261 0.5440 0.5489 0.5528 0.5550
1537.000000 0.5567 0.5577 0.5582 0.5595 0.5571
1542.000000 0.5561 0.5549 0.5524 0.5441 0.5347
1547.000000 0.5254 0.5161 0.5068 0.4975 0.4882
1552.000000 0.4789 0.4702 0.4640 0.4598 0.4555
1557.000000 0.4512 0.4469 0.4426 0.4383 0.4338
1562.000000 0.4292 0.4245 0.4199 0.4157 0.4119
1567.000000 0.4065 0.3994 0.3918 0.3816 0.3708
1572.000000 0.3609 0.3465 0.3286 0.3102 0.2918
1577.000000 0.2735 0.2551 0.2368 0.2271 0.2224
1582.000000 0.2189 0.2162 0.2153 0.2154 0.2126
1587.000000 0.2191 0.2272 0.2371 0.2470 0.2568
1592.000000 0.2666 0.2765 0.2863 0.2962 0.3059
1597.000000 0.3157 0.3255 0.3353 0.3468 0.3570
1602.000000 0.3631 0.3676 0.3712 0.3748 0.3787
1607.000000 0.3827 0.3868 0.3910 0.3949 0.3986
1612.000000 0.4021 0.4057 0.4092 0.4105 0.4113
1617.000000 0.4142 0.4094 0.4067 0.4035 0.4000
1622.000000 0.3967 0.3936 0.3925 0.3927 0.3930
1627.000000 0.3936 0.3945 0.3956 0.3971 0.3994
1632.000000 0.4026 0.4039 0.4045 0.4047 0.4049
1637.000000 0.3958 0.3751 0.3519 0.3288 0.3056
1642.000000 0.2825 0.2595 0.2366 0.2202 0.2172
1647.000000 0.2227 0.2305 0.2436 0.2582 0.2763
1652.000000 0.2950 0.3137 0.3323 0.3509 0.3695
1657.000000 0.3881 0.4067 0.4252 0.4438 0.4623
1662.000000 0.4807 0.4992 0.5176 0.5360 0.5544
1667.000000 0.5728 0.5916 0.6107 0.6176 0.6246
1672.000000 0.6316 0.6385 0.6452 0.6518 0.6584
1677.000000 0.6661 0.6767 0.6871 0.6936 0.7000
1682.000000 0.7050 0.7081 0.7103 0.7126 0.7145
1687.000000 0.7153 0.7161 0.7169 0.7173 0.7196
1692.000000 0.7174 0.7172 0.7168 0.7162 0.7150
1697.000000 0.7134 0.7114 0.7089 0.7048 0.6987
1702.000000 0.6914 0.6821 0.6783 0.6735 0.6627
1707.000000 0.6438 0.6199 0.5960 0.5722 0.5485
1712.000000 0.5247 0.5009 0.4773 0.4536 0.4299
1717.000000 0.4063 0.3828 0.3592 0.3356 0.3218
1722.000000 0.3240 0.3217 0.3276 0.3400 0.3535
1727.000000 0.3670 0.3804 0.3939 0.4074 0.4208
1732.000000 0.4342 0.4476 0.4601 0.4695 0.4697
1737.000000 0.4706 0.4654 0.4519 0.4312 0.4105
1742.000000 0.3898 0.3691 0.3485 0.3278 0.3098
1747.000000 0.3027 0.3027 0.3012 0.3074 0.3166
1752.000000 0.3279 0.3391 0.3504 0.3616 0.3728
1757.000000 0.3840 0.3953 0.4037 0.4081 0.4106
1762.000000 0.4129 0.4151 0.4174 0.4200 0.4233
1767.000000 0.4276 0.4332 0.4489 0.4612 0.4716
1772.000000 0.4809 0.4868 0.4938 0.5063 0.5214
1777.000000 0.5364 0.5513 0.5663 0.5813 0.5962
1782.000000 0.6111 0.6261 0.6409 0.6558 0.6707
1787.000000 0.6855 0.7003 0.7094 0.7190 0.7305
1792.000000 0.7361 0.7416 0.7472 0.7526 0.7581
1797.000000 0.7635 0.7681 0.7722 0.7758 0.7788
1802.000000 0.7809 0.7828 0.7847 0.7866 0.7885
1807.000000 0.7904 0.7924 0.7946 0.7968 0.7990
1812.000000 0.8012 0.8035 0.8057 0.8079 0.8101
1817.000000 0.8125 0.8148 0.8172 0.8195 0.8218
1822.000000 0.8242 0.8265 0.8287 0.8311 0.8333
1827.000000 0.8344 0.8352 0.8361 0.8368 0.8371
1832.000000 0.8374 0.8375 0.8372 0.8367 0.8360
1837.000000 0.8354 0.8348 0.8341 0.8335 0.8329
1842.000000 0.8327 0.8333 0.8342 0.8350 0.8356
1847.000000 0.8362 0.8367 0.8372 0.8376 0.8381
1852.000000 0.8386 0.8391 0.8397 0.8403 0.8411
1857.000000 0.8417 0.8424 0.8430 0.8432 0.8433
1862.000000 0.8434 0.8434 0.8434 0.8435 0.8436
1867.000000 0.8436 0.8436 0.8437 0.8401 0.8437
1872.000000 0.8438 0.8437 0.8437 0.8436 0.8435
1877.000000 0.8434 0.8434 0.8433 0.8432 0.8431
1882.000000 0.8430 0.8429 0.8428 0.8428 0.8427
1887.000000 0.8426 0.8426 0.8424 0.8423 0.8423
1892.000000 0.8419 0.8414 0.8409 0.8404 0.8399
1897.000000 0.8395 0.8390 0.8385 0.8380 0.8375
1902.000000 0.8370 0.8366 0.8361 0.8356 0.8355
1907.000000 0.8357 0.8359 0.8363 0.8366 0.8369
1912.000000 0.8373 0.8376 0.8376 0.8378 0.8379
1917.000000 0.8380 0.8382 0.8383 0.8383 0.8385
1922.000000 0.8386 0.8387 0.8389 0.8390 0.8390
1927.000000 0.8394 0.8397 0.8401 0.8403 0.8405
1932.000000 0.8406 0.8406 0.8407 0.8409 0.8409
1937.000000 0.8410 0.8411 0.8411 0.8411 0.8410
1942.000000 0.8410 0.8409 0.8409 0.8408 0.8407
1947.000000 0.8407 0.8407 0.8406 0.8406 0.8405
1952.000000 0.8404 0.8404 0.8403 0.8403 0.8403
1957.000000 0.8402 0.8401 0.8401 0.8400 0.8400
1962.000000 0.8400 0.8400 0.8399 0.8399 0.8399
1967.000000 0.8398 0.8398 0.8398 0.8398 0.8397
1972.000000 0.8397 0.8397 0.8396 0.8396 0.8396
1977.000000 0.8395 0.8393 0.8392 0.8390 0.8388
1982.000000 0.8387 0.8386 0.8384 0.8382 0.8381
1987.000000 0.8380 0.8378 0.8376 0.8375 0.8373
1992.000000 0.8372 0.8370 0.8368 0.8365 0.8361
1997.000000 0.8356 0.8351 0.8347 0.8343 0.8338
2002.000000 0.8334 0.8329 0.8324 0.8319 0.8314
2007.000000 0.8309 0.8304 0.8299 0.8295 0.8290
2012.000000 0.8285 0.8280 0.8275 0.8270 0.8265
2017.000000 0.8260 0.8255 0.8250 0.8245 0.8240
2022.000000 0.8233 0.8228 0.8222 0.8216 0.8210
2027.000000 0.8205 0.8199 0.8193 0.8187 0.8181
2032.000000 0.8174 0.8167 0.8161 0.8154 0.8147
2037.000000 0.8141 0.8138 0.8138 0.8138 0.8138
2042.000000 0.8138 0.8138 0.8138 0.8139 0.8140
2047.000000 0.8142 0.8143 0.8144 0.8144 0.8142
2052.000000 0.8136 0.8131 0.8125 0.8119 0.8114
2057.000000 0.8108 0.8102 0.8095 0.8088 0.8081
2062.000000 0.8073 0.8066 0.8059 0.8052 0.8045
2067.000000 0.8039 0.8033 0.8027 0.8022 0.8017
2072.000000 0.8012 0.8006 0.8001 0.7996 0.7991
2077.000000 0.7985 0.7980 0.7975 0.7970 0.7963
2082.000000 0.7957 0.7950 0.7943 0.7937 0.7931
2087.000000 0.7925 0.7921 0.7918 0.7915 0.7913
2092.000000 0.7910 0.7907 0.7904 0.7901 0.7898
2097.000000 0.7895 0.7892 0.7889 0.7886 0.7883
2102.000000 0.7880 0.7877 0.7875 0.7872 0.7869
2107.000000 0.7867 0.7865 0.7864 0.7863 0.7862
2112.000000 0.7861 0.7861 0.7861 0.7861 0.7860
2117.000000 0.7859 0.7857 0.7854 0.7850 0.7846
2122.000000 0.7842 0.7839 0.7835 0.7829 0.7823
2127.000000 0.7815 0.7807 0.7800 0.7793 0.7787
2132.000000 0.7781 0.7775 0.7769 0.7763 0.7757
2137.000000 0.7751 0.7745 0.7739 0.7734 0.7728
2142.000000 0.7722 0.7716 0.7710 0.7704 0.7697
2147.000000 0.7691 0.7743 0.7679 0.7678 0.7684
2152.000000 0.7695 0.7711 0.7730 0.7751 0.7777
2157.000000 0.7804 0.7829 0.7854 0.7866 0.7878
2162.000000 0.7887 0.7897 0.7906 0.7915 0.7924
2167.000000 0.7931 0.7938 0.7941 0.7944 0.7947
2172.000000 0.7949 0.7952 0.7955 0.7957 0.7960
2177.000000 0.7963 0.7965 0.7968 0.7971 0.7973
2182.000000 0.7977 0.7982 0.7988 0.7994 0.8001
2187.000000 0.8008 0.8015 0.8022 0.8043 0.8066
2192.000000 0.8084 0.8101 0.8109 0.8118 0.8127
2197.000000 0.8150 0.8141 0.8145 0.8146 0.8148
2202.000000 0.8150 0.8151 0.8153 0.8155 0.8157
2207.000000 0.8157 0.8156 0.8154 0.8152 0.8151
2212.000000 0.8149 0.8148 0.8146 0.8144 0.8142
2217.000000 0.8140 0.8139 0.8137 0.8136 0.8134
2222.000000 0.8132 0.8130 0.8128 0.8125 0.8123
2227.000000 0.8120 0.8118 0.8116 0.8114 0.8111
2232.000000 0.8109 0.8106 0.8104 0.8102 0.8100
2237.000000 0.8097 0.8095 0.8092 0.8089 0.8085
2242.000000 0.8081 0.8077 0.8073 0.8069 0.8065
2247.000000 0.8061 0.8057 0.8053 0.8049 0.8045
2252.000000 0.8041 0.8036 0.8030 0.8024 0.8018
2257.000000 0.8011 0.8006 0.7999 0.7993 0.7987
2262.000000 0.7981 0.7975 0.7969 0.7962 0.7956
2267.000000 0.7950 0.7945 0.7940 0.7935 0.7930
2272.000000 0.7924 0.7919 0.7914 0.7909 0.7904
2277.000000 0.7899 0.7893 0.7888 0.7885 0.7882
2282.000000 0.7880 0.7878 0.7875 0.7873 0.7871
2287.000000 0.7868 0.7866 0.7863 0.7861 0.7859
2292.000000 0.7856 0.7854 0.7851 0.7849 0.7847
2297.000000 0.7845 0.7843 0.7842 0.7841 0.7841
2302.000000 0.7841 0.7840 0.7839 0.7838 0.7838
2307.000000 0.7837 0.7837 0.7836 0.7835 0.7834
2312.000000 0.7834 0.7833 0.7833 0.7832 0.7831
2317.000000 0.7830 0.7829 0.7827 0.7825 0.7823
2322.000000 0.7821 0.7818 0.7816 0.7815 0.7813
2327.000000 0.7811 0.7808 0.7804 0.7800 0.7792
2332.000000 0.7783 0.7775 0.7768 0.7757 0.7746
2337.000000 0.7735 0.7723 0.7711 0.7699 0.7687
2342.000000 0.7680 0.7674 0.7667 0.7661 0.7655
2347.000000 0.7648 0.7642 0.7635 0.7628 0.7622
2352.000000 0.7615 0.7609 0.7603 0.7600 0.7598
2357.000000 0.7596 0.7594 0.7593 0.7591 0.7589
2362.000000 0.7587 0.7585 0.7583 0.7580 0.7576
2367.000000 0.7571 0.7567 0.7563 0.7559 0.7555
2372.000000 0.7550 0.7546 0.7542 0.7537 0.7533
2377.000000 0.7528 0.7523 0.7518 0.7513 0.7508
2382.000000 0.7503 0.7499 0.7494 0.7489 0.7486
2387.000000 0.7484 0.7482 0.7482 0.7482 0.7481
2392.000000 0.7480 0.7479 0.7479 0.7478 0.7477
2397.000000 0.7476 0.7476 0.7476 0.7475 0.7474
2402.000000 0.7472 0.7468 0.7465 0.7462 0.7458
2407.000000 0.7450 0.7442 0.7430 0.7415 0.7401
2412.000000 0.7387 0.7373 0.7364 0.7355 0.7346
2417.000000 0.7337 0.7328 0.7319 0.7310 0.7305
2422.000000 0.7301 0.7297 0.7293 0.7289 0.7285
2427.000000 0.7280 0.7276 0.7273 0.7269 0.7264
2432.000000 0.7260 0.7256 0.7253 0.7248 0.7244
2437.000000 0.7240 0.7236 0.7233 0.7228 0.7223
2442.000000 0.7219 0.7214 0.7210 0.7205 0.7200
2447.000000 0.7196 0.7191 0.7187 0.7182 0.7177
2452.000000 0.7172 0.7167 0.7161 0.7156 0.7151
2457.000000 0.7146 0.7141 0.7135 0.7130 0.7125
2462.000000 0.7120 0.7115 0.7109 0.7104 0.7099
2467.000000 0.7093 0.7088 0.7083 0.7078 0.7073
2472.000000 0.7068 0.7062 0.7057 0.7052 0.7047
2477.000000 0.7042 0.7037 0.7034 0.7030 0.7028
2482.000000 0.7026 0.7024 0.7021 0.7019 0.7017
2487.000000 0.7015 0.7013 0.7011 0.7009 0.7006
2492.000000 0.7004 0.7002 0.7000 0.6998 0.6996
2497.000000 0.6994 0.6991 0.6989 0.6987 0.6985
2502.000000 0.6983 0.6981 0.6979 0.6977 0.6974
2507.000000 0.6972 0.6970 0.6968 0.6966 0.6963
2512.000000 0.6961 0.6960 0.6961 0.6961 0.6962
2517.000000 0.6963 0.6964 0.6965 0.6966 0.6967
2522.000000 0.6968 0.6969 0.6970 0.6971 0.6972
2527.000000 0.6974 0.6975 0.6976 0.6978 0.6980
2532.000000 0.6982 0.6984 0.6986 0.6988 0.6990
2537.000000 0.6992 0.6994 0.6996 0.6998 0.6999
2542.000000 0.6997 0.6995 0.6991 0.6986 0.6982
2547.000000 0.6977 0.6972 0.6967 0.6960 0.6954
2552.000000 0.6947 0.6941 0.6933 0.6924 0.6916
2557.000000 0.6902 0.6887 0.6871 0.6856 0.6841
2562.000000 0.6827 0.6814 0.6801 0.6791 0.6782
2567.000000 0.6773 0.6764 0.6755 0.6747 0.6739
2572.000000 0.6731 0.6726 0.6722 0.6718 0.6714
2577.000000 0.6710 0.6706 0.6702 0.6697 0.6694
2582.000000 0.6690 0.6687 0.6686 0.6686 0.6685
2587.000000 0.6684 0.6683 0.6683 0.6683 0.6682
2592.000000 0.6682 0.6681 0.6680 0.6679 0.6679
2597.000000 0.6674 0.6668 0.6663 0.6655 0.6648
2602.000000 0.6639 0.6629 0.6619 0.6607 0.6595
2607.000000 0.6583 0.6581 0.6579 0.6577 0.6574
2612.000000 0.6572 0.6570 0.6568 0.6567 0.6565
2617.000000 0.6563 0.6561 0.6560 0.6559 0.6558
2622.000000 0.6557 0.6556 0.6555 0.6554 0.6553
2627.000000 0.6551 0.6550 0.6549 0.6546 0.6544
2632.000000 0.6540 0.6533 0.6527 0.6520 0.6512
2637.000000 0.6504 0.6498 0.6491 0.6485 0.6478
2642.000000 0.6471 0.6465 0.6458 0.6452 0.6445
2647.000000 0.6439 0.6432 0.6426 0.6419 0.6412
2652.000000 0.6406 0.6399 0.6393 0.6392 0.6391
2657.000000 0.6389 0.6389 0.6389 0.6388 0.6388
2662.000000 0.6388 0.6387 0.6386 0.6386 0.6385
2667.000000 0.6384 0.6384 0.6383 0.6381 0.6380
2672.000000 0.6380 0.6379 0.6377 0.6371 0.6365
2677.000000 0.6359 0.6353 0.6346 0.6333 0.6312
2682.000000 0.6291 0.6264 0.6234 0.6204 0.6182
2687.000000 0.6162 0.6143 0.6124 0.6105 0.6086
2692.000000 0.6066 0.6047 0.6028 0.6009 0.5990
2697.000000 0.5971 0.5950 0.5930 0.5909 0.5889
2702.000000 0.5868 0.5848 0.5829 0.5810 0.5793
2707.000000 0.5777 0.5761 0.5746 0.5730 0.5714
2712.000000 0.5699 0.5683 0.5667 0.5651 0.5634
2717.000000 0.5616 0.5597 0.5576 0.5555 0.5534
2722.000000 0.5513 0.5493 0.5472 0.5451 0.5430
2727.000000 0.5410 0.5389 0.5369 0.5350 0.5332
2732.000000 0.5314 0.5296 0.5278 0.5260 0.5240
2737.000000 0.5219 0.5199 0.5179 0.5158 0.5137
2742.000000 0.5117 0.5097 0.5076 0.5059 0.5042
2747.000000 0.5025 0.5009 0.4994 0.4979 0.4964
2752.000000 0.4949 0.4934 0.4911 0.4885 0.4858
2757.000000 0.4827 0.4793 0.4759 0.4727 0.4697
2762.000000 0.4667 0.4634 0.4600 0.4565 0.4508
2767.000000 0.4428 0.4348 0.4277 0.4216 0.4154
2772.000000 0.4093 0.4033 0.3972 0.3911 0.3850
2777.000000 0.3789 0.3728 0.3668 0.3607 0.3546
2782.000000 0.3486 0.3425 0.3364 0.3304 0.3243
2787.000000 0.3183 0.3122 0.3062 0.3002 0.2942
2792.000000 0.2882 0.2821 0.2656 0.2446 0.2236
2797.000000 0.2131 0.2103 0.2075 0.2055 0.2043
2802.000000 0.2032 0.2021 0.2010 0.1999 0.1989
2807.000000 0.1988 0.1987 0.1985 0.1985 0.1984
2812.000000 0.1983 0.1982 0.1981 0.1980 0.1979
2817.000000 0.1978 0.1978 0.1977 0.1977 0.1976
2822.000000 0.1976 0.1978 0.1979 0.1981 0.1982
2827.000000 0.1984 0.1985 0.1987 0.1988 0.1989
2832.000000 0.1991 0.1994 0.1996 0.2002 0.2009
2837.000000 0.2017 0.2026 0.2037 0.2048 0.2059
2842.000000 0.2070 0.2082 0.2094 0.2103 0.2112
2847.000000 0.2121 0.2132 0.2143 0.2155 0.2167
2852.000000 0.2179 0.2190 0.2202 0.2214 0.2225
2857.000000 0.2237 0.2245 0.2253 0.2260 0.2267
2862.000000 0.2273 0.2279 0.2302 0.2363 0.2424
2867.000000 0.2483 0.2509 0.2535 0.2562 0.2576
2872.000000 0.2585 0.2595 0.2605 0.2615 0.2625
2877.000000 0.2636 0.2652 0.2668 0.2684 0.2707
2882.000000 0.2732 0.2758 0.2791 0.2833 0.2875
2887.000000 0.2916 0.2948 0.2981 0.3013 0.3037
2892.000000 0.3060 0.3083 0.3105 0.3126 0.3148
2897.000000 0.3169 0.3191 0.3212 0.3234 0.3319
2902.000000 0.3423 0.3527 0.3638 0.3759 0.3880
2907.000000 0.4000 0.4065 0.4131 0.4196 0.4261
2912.000000 0.4327 0.4392 0.4458 0.4523 0.4588
2917.000000 0.4654 0.4718 0.4783 0.4848 0.4913
2922.000000 0.4978 0.5043 0.5108 0.5173 0.5238
2927.000000 0.5303 0.5367 0.5432 0.5496 0.5560
2932.000000 0.5625 0.5689 0.5754 0.5818 0.5883
2937.000000 0.5947 0.6007 0.6055 0.6102 0.6150
2942.000000 0.6171 0.6187 0.6203 0.6222 0.6249
2947.000000 0.6276 0.6302 0.6336 0.6369 0.6403
2952.000000 0.6438 0.6473 0.6508 0.6544 0.6570
2957.000000 0.6596 0.6622 0.6647 0.6672 0.6697
2962.000000 0.6721 0.6744 0.6765 0.6787 0.6809
2967.000000 0.6832 0.6854 0.6876 0.6895 0.6914
2972.000000 0.6933 0.6951 0.6965 0.6980 0.6995
2977.000000 0.7010 0.7025 0.7039 0.7054 0.7068
2982.000000 0.7081 0.7095 0.7103 0.7110 0.7116
2987.000000 0.7122 0.7129 0.7135 0.7142 0.7148
2992.000000 0.7154 0.7160 0.7166 0.7173 0.7179
2997.000000 0.7186 0.7191 0.7196 0.7201 0.7206
3002.000000 0.7209 0.7210 0.7212 0.7214 0.7215
3007.000000 0.7217 0.7219 0.7220 0.7222 0.7224
3012.000000 0.7225 0.7226 0.7227 0.7228 0.7229
3017.000000 0.7229 0.7229 0.7229 0.7229 0.7229
3022.000000 0.7229 0.7228 0.7228 0.7228 0.7228
3027.000000 0.7228 0.7228 0.7228 0.7228 0.7227
3032.000000 0.7227 0.7227 0.7227 0.7228 0.7229
3037.000000 0.7230 0.7231 0.7232 0.7234 0.7235
3042.000000 0.7236 0.7238 0.7239 0.7240 0.7242
3047.000000 0.7243 0.7244 0.7246 0.7247 0.7248
3052.000000 0.7250 0.7251 0.7253 0.7255 0.7256
3057.000000 0.7258 0.7260 0.7262 0.7265 0.7269
3062.000000 0.7273 0.7277 0.7281 0.7287 0.7292
3067.000000 0.7298 0.7304 0.7311 0.7317 0.7324
3072.000000 0.7336 0.7350 0.7364 0.7378 0.7392
3077.000000 0.7407 0.7421 0.7434 0.7440 0.7446
3082.000000 0.7453 0.7458 0.7462 0.7466 0.7470
3087.000000 0.7474 0.7478 0.7482 0.7486 0.7511
3092.000000 0.7488 0.7489 0.7489 0.7489 0.7487
3097.000000 0.7486 0.7485 0.7484 0.7483 0.7482
3102.000000 0.7481 0.7480 0.7479 0.7477 0.7476
3107.000000 0.7475 0.7474 0.7473 0.7471 0.7467
3112.000000 0.7463 0.7460 0.7455 0.7451 0.7446
3117.000000 0.7441 0.7437 0.7432 0.7428 0.7423
3122.000000 0.7418 0.7413 0.7408 0.7403 0.7397
3127.000000 0.7392 0.7387 0.7382 0.7377 0.7372
3132.000000 0.7368 0.7363 0.7358 0.7354 0.7349
3137.000000 0.7345 0.7341 0.7338 0.7335 0.7332
3142.000000 0.7328 0.7325 0.7322 0.7319 0.7316
3147.000000 0.7313 0.7310 0.7308 0.7307 0.7305
3152.000000 0.7304 0.7303 0.7302 0.7301 0.7300
3157.000000 0.7299 0.7298 0.7296 0.7295 0.7294
3162.000000 0.7293 0.7291 0.7290 0.7289 0.7288
3167.000000 0.7287 0.7286 0.7286 0.7286 0.7286
3172.000000 0.7286 0.7286 0.7286 0.7286 0.7286
3177.000000 0.7286 0.7286 0.7286 0.7286 0.7286
3182.000000 0.7286 0.7286 0.7286 0.7287 0.7287
3187.000000 0.7287 0.7287 0.7287 0.7287 0.7287
3192.000000 0.7287 0.7287 0.7287 0.7287 0.7287
3197.000000 0.7287 0.7287 0.7287 0.7287 0.7287
3202.000000 0.7287 0.7287 0.7287 0.7287 0.7285
3207.000000 0.7283 0.7281 0.7279 0.7272 0.7264
3212.000000 0.7255 0.7247 0.7236 0.7224 0.7212
3217.000000 0.7200 0.7188 0.7175 0.7162 0.7149
3222.000000 0.7137 0.7127 0.7117 0.7107 0.7097
3227.000000 0.7088 0.7080 0.7072 0.7063 0.7056
3232.000000 0.7049 0.7042 0.7035 0.7027 0.7020
3237.000000 0.7012 0.7005 0.7000 0.6996 0.6992
3242.000000 0.6988 0.6984 0.6980 0.6976 0.6972
3247.000000 0.6969 0.6964 0.6960 0.6956 0.6952
3252.000000 0.6952 0.6951 0.6950 0.6950 0.6949
3257.000000 0.6949 0.6949 0.6949 0.6948 0.6948
3262.000000 0.6947 0.6947 0.6930 0.6946 0.6946
3267.000000 0.6946 0.6946 0.6946 0.6946 0.6946
3272.000000 0.6946 0.6950 0.6954 0.6959 0.6963
3277.000000 0.6967 0.6970 0.6974 0.6977 0.6980
3282.000000 0.6984 0.6987 0.6990 0.6994 0.6997
3287.000000 0.7000 0.7004 0.7007 0.7016 0.7030
3292.000000 0.7043 0.7057 0.7070 0.7077 0.7084
3297.000000 0.7091 0.7097 0.7105 0.7113 0.7121
3302.000000 0.7129 0.7178 0.7270 0.7362 0.7453
3307.000000 0.7535 0.7550 0.7565 0.7580 0.7595
3312.000000 0.7604 0.7612 0.7620 0.7628 0.7635
3317.000000 0.7640 0.7644 0.7649 0.7653 0.7658
3322.000000 0.7662 0.7667 0.7671 0.7676 0.7680
3327.000000 0.7685 0.7689 0.7694 0.7700 0.7705
3332.000000 0.7711 0.7717 0.7722 0.7728 0.7733
3337.000000 0.7739 0.7745 0.7750 0.7756 0.7762
3342.000000 0.7767 0.7773 0.7779 0.7785 0.7790
3347.000000 0.7796 0.7803 0.7809 0.7816 0.7822
3352.000000 0.7829 0.7835 0.7842 0.7849 0.7855
3357.000000 0.7862 0.7868 0.7874 0.7880 0.7887
3362.000000 0.7893 0.7899 0.7906 0.7912 0.7918
3367.000000 0.7924 0.7931 0.7937 0.7943 0.7950
3372.000000 0.7956 0.7962 0.7969 0.7976 0.7984
3377.000000 0.7991 0.7999 0.8007 0.8016 0.8026
3382.000000 0.8035 0.8044 0.8053 0.8062 0.8071
3387.000000 0.8081 0.8090 0.8099 0.8108 0.8117
3392.000000 0.8126 0.8133 0.8140 0.8147 0.8154
3397.000000 0.8159 0.8162 0.8164 0.8167 0.8170
3402.000000 0.8172 0.8175 0.8177 0.8180 0.8183
3407.000000 0.8184 0.8185 0.8186 0.8187 0.8188
3412.000000 0.8189 0.8190 0.8191 0.8192 0.8193
3417.000000 0.8194 0.8195 0.8196 0.8198 0.8199
3422.000000 0.8200 0.8201 0.8202 0.8203 0.8204
3427.000000 0.8205 0.8206 0.8207 0.8208 0.8210
3432.000000 0.8211 0.8212 0.8213 0.8214 0.8216
3437.000000 0.8217 0.8218 0.8219 0.8220 0.8221
3442.000000 0.8223 0.8224 0.8225 0.8226 0.8227
3447.000000 0.8228 0.8229 0.8230 0.8232 0.8233
3452.000000 0.8234 0.8235 0.8237 0.8238 0.8239
3457.000000 0.8240 0.8241 0.8242 0.8244 0.8246
3462.000000 0.8247 0.8249 0.8251 0.8252 0.8253
3467.000000 0.8255 0.8256 0.8258 0.8260 0.8261
3472.000000 0.8263 0.8265 0.8266 0.8268 0.8270
3477.000000 0.8271 0.8275 0.8278 0.8282 0.8285
3482.000000 0.8289 0.8292 0.8296 0.8299 0.8303
3487.000000 0.8306 0.8310 0.8313 0.8317 0.8320
3492.000000 0.8324 0.8327 0.8331 0.8334 0.8338
3497.000000 0.8341 0.8345 0.8349 0.8352 0.8356
3502.000000 0.8360 0.8363 0.8366 0.8370 0.8373
3507.000000 0.8377 0.8380 0.8384 0.8387 0.8391
3512.000000 0.8394 0.8398 0.8401 0.8404 0.8408
3517.000000 0.8412 0.8416 0.8419 0.8423 0.8427
3522.000000 0.8433 0.8439 0.8445 0.8451 0.8457
3527.000000 0.8463 0.8469 0.8475 0.8481 0.8487
3532.000000 0.8493 0.8500 0.8506 0.8513 0.8519
3537.000000 0.8529 0.8538 0.8548 0.8558 0.8568
3542.000000 0.8578 0.8588 0.8598 0.8608 0.8618
3547.000000 0.8627 0.8637 0.8647 0.8656 0.8666
3552.000000 0.8676 0.8686 0.8696 0.8706 0.8716
3557.000000 0.8726 0.8735 0.8745 0.8755 0.8765
3562.000000 0.8776 0.8787 0.8798 0.8810 0.8821
3567.000000 0.8836 0.8854 0.8871 0.8889 0.8906
3572.000000 0.8916 0.8920 0.8925 0.8929 0.8933
3577.000000 0.8937 0.8940 0.8943 0.8946 0.8949
3582.000000 0.8953 0.8956 0.8959 0.8962 0.8965
3587.000000 0.8968 0.8971 0.8974 0.8977 0.8981
3592.000000 0.8984 0.8986 0.8989 0.8992 0.8994
3597.000000 0.8997 0.8999 0.9001 0.9002 0.9004
3602.000000 0.9006 0.9039 0.9009 0.9011 0.9013
3607.000000 0.9015 0.9016 0.9016 0.9016 0.9017
3612.000000 0.9017 0.9018 0.9018 0.9018 0.9018
3617.000000 0.9018 0.9019 0.9019 0.9019 0.9019
3622.000000 0.9019 0.9019 0.9020 0.9020 0.9020
3627.000000 0.9020 0.9020 0.9020 0.9020 0.9020
3632.000000 0.9020 0.9020 0.9021 0.9021 0.9021
3637.000000 0.9021 0.9021 0.9021 0.9022 0.9022
3642.000000 0.9022 0.9022 0.9022 0.9022 0.9022
3647.000000 0.9022 0.9022 0.9022 0.9022 0.9021
3652.000000 0.9021 0.9020 0.9019 0.9018 0.9018
3657.000000 0.9017 0.9017 0.9016 0.9016 0.9015
3662.000000 0.9015 0.9014 0.9013 0.9013 0.9012
3667.000000 0.9012 0.9011 0.9010 0.9009 0.9009
3672.000000 0.9007 0.9005 0.9003 0.9000 0.8998
3677.000000 0.8996 0.8994 0.8992 0.8990 0.8988
3682.000000 0.8986 0.8984 0.8982 0.8980 0.8978
3687.000000 0.8976 0.8974 0.8972 0.8971 0.8969
3692.000000 0.8967 0.8965 0.8963 0.8961 0.8960
3697.000000 0.8958 0.8956 0.8954 0.8952 0.8950
3702.000000 0.8949 0.8947 0.8945 0.8943 0.8941
3707.000000 0.8939 0.8937 0.8935 0.8933 0.8932
3712.000000 0.8930 0.8928 0.8927 0.8925 0.8923
3717.000000 0.8922 0.8920 0.8919 0.8917 0.8918
3722.000000 0.8919 0.8921 0.8923 0.8924 0.8926
3727.000000 0.8927 0.8929 0.8930 0.8932 0.8933
3732.000000 0.8935 0.8936 0.8938 0.8939 0.8941
3737.000000 0.8943 0.8944 0.8946 0.8947 0.8949
3742.000000 0.8951 0.8952 0.8953 0.8954 0.8955
3747.000000 0.8956 0.8957 0.8958 0.8958 0.8958
3752.000000 0.8958 0.8958 0.8958 0.8958 0.8958
3757.000000 0.8958 0.8958 0.8958 0.8957 0.8957
3762.000000 0.8957 0.8956 0.8956 0.8956 0.8955
3767.000000 0.8955 0.8954 0.8954 0.8954 0.8953
3772.000000 0.8953 0.8953 0.8952 0.8952 0.8952
3777.000000 0.8951 0.8950 0.8949 0.8948 0.8947
3782.000000 0.8946 0.8945 0.8944 0.8943 0.8941
3787.000000 0.8940 0.8939 0.8938 0.8937 0.8936
3792.000000 0.8935 0.8934 0.8933 0.8932 0.8931
3797.000000 0.8930 0.8929 0.8928 0.8927 0.8926
3802.000000 0.8925 0.8924 0.8923 0.8922 0.8921
3807.000000 0.8920 0.8919 0.8918 0.8917 0.8915
3812.000000 0.8915 0.8915 0.8914 0.8914 0.8914
3817.000000 0.8914 0.8914 0.8914 0.8915 0.8915
3822.000000 0.8915 0.8916 0.8916 0.8916 0.8916
3827.000000 0.8916 0.8916 0.8917 0.8917 0.8917
3832.000000 0.8918 0.8918 0.8918 0.8919 0.8919
3837.000000 0.8919 0.8920 0.8920 0.8920 0.8921
3842.000000 0.8922 0.8923 0.8924 0.8925 0.8926
3847.000000 0.8927 0.8927 0.8927 0.8927 0.8927
3852.000000 0.8927 0.8926 0.8926 0.8925 0.8925
3857.000000 0.8924 0.8924 0.8923 0.8923 0.8922
3862.000000 0.8921 0.8921 0.8920 0.8920 0.8919
3867.000000 0.8919 0.8918 0.8918 0.8917 0.8917
3872.000000 0.8916 0.8916 0.8915 0.8915 0.8914
3877.000000 0.8914 0.8913 0.8913 0.8912 0.8912
3882.000000 0.8911 0.8911 0.8910 0.8910 0.8910
3887.000000 0.8909 0.8909 0.8907 0.8906 0.8905
3892.000000 0.8903 0.8902 0.8901 0.8899 0.8897
3897.000000 0.8895 0.8893 0.8892 0.8890 0.8888
3902.000000 0.8886 0.8885 0.8883 0.8882 0.8880
3907.000000 0.8878 0.8876 0.8875 0.8873 0.8871
3912.000000 0.8869 0.8867 0.8866 0.8864 0.8863
3917.000000 0.8861 0.8859 0.8858 0.8856 0.8854
3922.000000 0.8852 0.8850 0.8849 0.8847 0.8845
3927.000000 0.8844 0.8842 0.8840 0.8839 0.8837
3932.000000 0.8834 0.8831 0.8828 0.8825 0.8822
3937.000000 0.8820 0.8817 0.8814 0.8811 0.8808
3942.000000 0.8805 0.8802 0.8799 0.8797 0.8794
3947.000000 0.8791 0.8788 0.8786 0.8784 0.8783
3952.000000 0.8781 0.8780 0.8779 0.8777 0.8777
3957.000000 0.8777 0.8777 0.8777 0.8777 0.8777
3962.000000 0.8778 0.8778 0.8778 0.8778 0.8779
3967.000000 0.8779 0.8779 0.8780 0.8780 0.8780
3972.000000 0.8780 0.8780 0.8780 0.8781 0.8781
3977.000000 0.8781 0.8782 0.8782 0.8782 0.8783
3982.000000 0.8783 0.8783 0.8783 0.8784 0.8784
3987.000000 0.8784 0.8785 0.8785 0.8785 0.8785
3992.000000 0.8785 0.8785 0.8786 0.8786 0.8786
3997.000000 0.8787 0.8787 0.8787 0.8788
##END=
