##TITLE=MANGANOUS OXALATE
##JCAMP-DX=4.24
##DATA TYPE=INFRARED SPECTRUM
##CLASS=COBLENTZ
##OWNER=COBLENTZ SOCIETY
Collection (C) 2018 copyright by the U.S. Secretary of Commerce
on behalf of the United States of America. All rights reserved.
##DATE=Not specified, most likely prior to 1970
##MOLFORM=Mn C2 O4  * 2 H2 O
##SOURCE REFERENCE=COBLENTZ NO. 59
##$NIST ID=B6000059
##$NIST SOURCE=COBLENTZ
##$NIST IMAGE=cob59
##SPECTROMETER/DATA SYSTEM=Not specified, most likely a prism, grating, or hybrid spectrometer.
##STATE=SOLID (KBr DISC)
##SAMPLING PROCEDURE=TRANSMISSION
##RESOLUTION=4
##DATA PROCESSING=DIGITIZED BY NIST FROM HARD COPY
##XUNITS=MICROMETERS
##YUNITS=TRANSMITTANCE
##XFACTOR=1.000000
##YFACTOR=1
##DELTAX=000.007576
##FIRSTX=1.977
##LASTX=14.9396
##FIRSTY=0.787
##MAXX=14.9396
##MINX=1.977
##MAXY=0.992
##MINY=0.051
##NPOINTS=1712
##XYDATA=(X++(Y..Y))
1.977000 0.7870 0.7870 0.7890 0.7870 0.7870
2.014901 0.7890 0.7890 0.7890 0.7900 0.7920
2.053000 0.7920 0.7930 0.7930 0.7930 0.7950
2.090901 0.7950 0.7960 0.8020 0.8040 0.8070
2.129000 0.8100 0.8130 0.8130 0.8140 0.8170
2.166901 0.8180 0.8200 0.8230 0.8240 0.8260
2.205000 0.8260 0.8270 0.8290 0.8300 0.8320
2.242901 0.8330 0.8330 0.8350 0.8360 0.8380
2.280000 0.8390 0.8390 0.8410 0.8410 0.8420
2.317901 0.8440 0.8470 0.8480 0.8480 0.8500
2.356000 0.8500 0.8500 0.8500 0.8500 0.8500
2.393901 0.8500 0.8500 0.8510 0.8530 0.8530
2.432000 0.8540 0.8540 0.8540 0.8540 0.8540
2.469901 0.8560 0.8570 0.8590 0.8590 0.8600
2.508000 0.8600 0.8600 0.8600 0.8600 0.8600
2.545901 0.8600 0.8600 0.8600 0.8590 0.8590
2.583000 0.8570 0.8570 0.8570 0.8570 0.8570
2.620901 0.8570 0.8570 0.8570 0.8570 0.8570
2.659000 0.8560 0.8500 0.8480 0.8480 0.8470
2.696901 0.8470 0.8450 0.8420 0.8380 0.8350
2.735000 0.8320 0.8270 0.8210 0.8050 0.7860
2.772901 0.7770 0.7640 0.7220 0.6890 0.6660
2.811000 0.6320 0.6090 0.5740 0.5590 0.5260
2.848901 0.5110 0.4670 0.4420 0.4220 0.4000
2.886000 0.3840 0.3660 0.3530 0.3440 0.3260
2.923901 0.2860 0.2740 0.2380 0.2280 0.2030
2.962000 0.1790 0.1730 0.1700 0.1630 0.1580
2.999901 0.1580 0.1610 0.1790 0.1940 0.2270
3.038000 0.2460 0.2620 0.2780 0.3260 0.3500
3.075901 0.3870 0.4060 0.4340 0.4610 0.4820
3.114000 0.4940 0.5040 0.5290 0.5450 0.5540
3.151901 0.5630 0.5720 0.5780 0.5810 0.5890
3.189000 0.5970 0.6090 0.6170 0.6270 0.6350
3.226901 0.6420 0.6540 0.6600 0.6730 0.6810
3.265000 0.6860 0.6950 0.7010 0.7120 0.7250
3.302901 0.7400 0.7520 0.7640 0.7720 0.7840
3.341000 0.7870 0.7930 0.7980 0.7990 0.8010
3.378901 0.8020 0.8070 0.8100 0.8110 0.8130
3.417000 0.8170 0.8180 0.8210 0.8270 0.8320
3.454901 0.8380 0.8450 0.8500 0.8540 0.8570
3.492000 0.8590 0.8600 0.8630 0.8670 0.8720
3.529901 0.8750 0.8790 0.8820 0.8840 0.8880
3.568000 0.8910 0.8940 0.8940 0.8960 0.8970
3.605901 0.8970 0.8990 0.8990 0.9000 0.9020
3.644000 0.9050 0.9060 0.9080 0.9090 0.9120
3.681901 0.9180 0.9220 0.9220 0.9240 0.9270
3.720000 0.9270 0.9280 0.9310 0.9310 0.9330
3.757901 0.9330 0.9330 0.9340 0.9340 0.9360
3.795000 0.9360 0.9370 0.9370 0.9370 0.9370
3.832901 0.9390 0.9390 0.9390 0.9390 0.9390
3.871000 0.9400 0.9400 0.9420 0.9430 0.9430
3.908901 0.9450 0.9460 0.9480 0.9480 0.9490
3.947000 0.9490 0.9490 0.9490 0.9490 0.9490
3.984901 0.9490 0.9510 0.9510 0.9510 0.9510
4.023000 0.9490 0.9490 0.9490 0.9490 0.9510
4.060901 0.9520 0.9520 0.9520 0.9520 0.9540
4.098000 0.9540 0.9540 0.9540 0.9540 0.9540
4.135901 0.9540 0.9540 0.9540 0.9550 0.9540
4.174000 0.9520 0.9520 0.9520 0.9510 0.9510
4.211901 0.9490 0.9490 0.9490 0.9480 0.9480
4.250000 0.9480 0.9480 0.9480 0.9480 0.9460
4.287901 0.9460 0.9450 0.9450 0.9460 0.9450
4.326000 0.9450 0.9460 0.9460 0.9460 0.9480
4.363901 0.9490 0.9520 0.9540 0.9550 0.9550
4.402000 0.9550 0.9560 0.9560 0.9560 0.9560
4.439901 0.9580 0.9580 0.9590 0.9590 0.9610
4.477000 0.9610 0.9610 0.9610 0.9610 0.9610
4.514901 0.9610 0.9610 0.9610 0.9610 0.9590
4.553000 0.9580 0.9580 0.9580 0.9560 0.9560
4.590901 0.9560 0.9560 0.9560 0.9560 0.9560
4.629000 0.9560 0.9550 0.9540 0.9540 0.9540
4.666901 0.9540 0.9540 0.9520 0.9520 0.9540
4.705000 0.9540 0.9540 0.9540 0.9540 0.9550
4.742901 0.9550 0.9550 0.9560 0.9560 0.9560
4.780000 0.9560 0.9560 0.9560 0.9560 0.9580
4.817901 0.9590 0.9610 0.9610 0.9610 0.9620
4.856000 0.9620 0.9640 0.9640 0.9640 0.9640
4.893901 0.9640 0.9640 0.9650 0.9670 0.9670
4.932000 0.9670 0.9670 0.9670 0.9670 0.9670
4.969901 0.9670 0.9670 0.9670 0.9680 0.9680
5.008000 0.9680 0.9680 0.9670 0.9670 0.9670
5.045901 0.9670 0.9670 0.9680 0.9680 0.9670
5.083000 0.9670 0.9670 0.9670 0.9650 0.9620
5.120901 0.9610 0.9590 0.9590 0.9580 0.9560
5.159000 0.9550 0.9550 0.9550 0.9550 0.9540
5.196901 0.9540 0.9520 0.9520 0.9510 0.9490
5.235000 0.9460 0.9450 0.9430 0.9390 0.9370
5.272901 0.9370 0.9360 0.9370 0.9360 0.9340
5.311000 0.9340 0.9340 0.9340 0.9360 0.9360
5.348901 0.9360 0.9360 0.9360 0.9360 0.9360
5.386000 0.9360 0.9360 0.9360 0.9360 0.9340
5.423901 0.9340 0.9330 0.9330 0.9310 0.9300
5.462000 0.9300 0.9280 0.9270 0.9250 0.9240
5.499901 0.9210 0.9180 0.9130 0.9100 0.9090
5.538000 0.9080 0.9050 0.9020 0.9000 0.9000
5.575901 0.8940 0.8880 0.8850 0.8750 0.8730
5.614000 0.8720 0.8700 0.8690 0.8670 0.8630
5.651901 0.8560 0.8500 0.8480 0.8450 0.8410
5.689000 0.8320 0.8270 0.8230 0.8170 0.8110
5.726901 0.8020 0.7950 0.7860 0.7780 0.7740
5.765000 0.7710 0.7610 0.7240 0.6950 0.6700
5.802901 0.6420 0.6240 0.6110 0.5930 0.5680
5.841000 0.5450 0.5250 0.5190 0.5110 0.4920
5.878901 0.4850 0.4670 0.4610 0.4370 0.4100
5.917000 0.3900 0.3720 0.3530 0.3380 0.3170
5.954901 0.3040 0.2710 0.2240 0.2100 0.2010
5.992000 0.1820 0.1600 0.1300 0.1230 0.1170
6.029901 0.1080 0.1050 0.1050 0.1030 0.1000
6.068000 0.0970 0.0940 0.0890 0.0830 0.0800
6.105901 0.0770 0.0720 0.0690 0.0630 0.0570
6.144000 0.0540 0.0510 0.0510 0.0510 0.0510
6.181901 0.0530 0.0540 0.0600 0.0720 0.0750
6.220000 0.1080 0.1270 0.1460 0.1690 0.1910
6.257901 0.2180 0.2410 0.2530 0.2650 0.2860
6.295000 0.3020 0.3180 0.3380 0.3530 0.3730
6.332901 0.3840 0.4050 0.4270 0.4400 0.4510
6.371000 0.4610 0.4680 0.4860 0.5040 0.5100
6.408901 0.5160 0.5230 0.5350 0.5500 0.5650
6.447000 0.5870 0.6000 0.6090 0.6140 0.6180
6.484901 0.6210 0.6230 0.6270 0.6420 0.6460
6.523000 0.6640 0.6780 0.6850 0.6890 0.6910
6.560901 0.6940 0.6970 0.7000 0.7010 0.7040
6.598000 0.7100 0.7190 0.7240 0.7280 0.7320
6.635901 0.7320 0.7370 0.7490 0.7500 0.7520
6.674000 0.7550 0.7590 0.7650 0.7680 0.7720
6.711901 0.7750 0.7830 0.7860 0.7870 0.7890
6.750000 0.7890 0.7890 0.7890 0.7890 0.7900
6.787901 0.7900 0.7900 0.7900 0.7900 0.7900
6.826000 0.7900 0.7920 0.7920 0.7900 0.7900
6.863901 0.7920 0.7930 0.7930 0.7950 0.7950
6.902000 0.7960 0.8010 0.8010 0.8020 0.8050
6.939901 0.8070 0.8080 0.8080 0.8100 0.8110
6.977000 0.8110 0.8110 0.8110 0.8130 0.8170
7.014901 0.8180 0.8180 0.8200 0.8230 0.8240
7.053000 0.8240 0.8270 0.8270 0.8290 0.8300
7.090901 0.8320 0.8330 0.8350 0.8350 0.8360
7.129000 0.8380 0.8390 0.8390 0.8390 0.8390
7.166901 0.8390 0.8380 0.8350 0.8320 0.8290
7.205000 0.8240 0.8210 0.8170 0.8110 0.8050
7.242901 0.7990 0.7930 0.7810 0.7700 0.7580
7.280000 0.7240 0.7070 0.6570 0.6300 0.6120
7.317901 0.5900 0.5650 0.5400 0.5250 0.5190
7.356000 0.5160 0.5130 0.5200 0.5340 0.5630
7.393901 0.5750 0.5970 0.6260 0.6450 0.6540
7.432000 0.6640 0.6700 0.6760 0.6790 0.6810
7.469901 0.6810 0.6780 0.6720 0.6670 0.6550
7.508000 0.6370 0.6180 0.5940 0.5780 0.5560
7.545901 0.5170 0.4760 0.4210 0.3840 0.3640
7.583000 0.3230 0.3040 0.2770 0.2550 0.2380
7.620901 0.2340 0.2380 0.2460 0.2530 0.3040
7.659000 0.3440 0.4120 0.4420 0.4790 0.4940
7.696901 0.5070 0.5380 0.5800 0.5990 0.6170
7.735000 0.6290 0.6550 0.6700 0.6850 0.7000
7.772901 0.7100 0.7250 0.7290 0.7410 0.7470
7.811000 0.7520 0.7620 0.7710 0.7800 0.7860
7.848901 0.7930 0.7980 0.8020 0.8070 0.8110
7.886000 0.8180 0.8230 0.8270 0.8350 0.8380
7.923901 0.8390 0.8410 0.8440 0.8470 0.8480
7.962000 0.8510 0.8530 0.8560 0.8590 0.8620
7.999901 0.8630 0.8640 0.8690 0.8670 0.8690
8.038000 0.8690 0.8700 0.8700 0.8720 0.8720
8.075901 0.8720 0.8730 0.8750 0.8750 0.8760
8.114000 0.8780 0.8780 0.8810 0.8820 0.8840
8.151901 0.8850 0.8850 0.8870 0.8870 0.8870
8.189000 0.8880 0.8900 0.8910 0.8930 0.8940
8.226901 0.8940 0.8960 0.8960 0.8970 0.8970
8.265000 0.8990 0.8990 0.8990 0.9020 0.9030
8.302901 0.9050 0.9060 0.9080 0.9100 0.9100
8.341000 0.9120 0.9130 0.9130 0.9130 0.9130
8.378901 0.9130 0.9130 0.9130 0.9130 0.9150
8.417000 0.9150 0.9150 0.9160 0.9180 0.9190
8.454901 0.9210 0.9210 0.9210 0.9220 0.9220
8.492000 0.9240 0.9250 0.9250 0.9250 0.9250
8.529901 0.9270 0.9270 0.9280 0.9280 0.9300
8.568000 0.9300 0.9300 0.9300 0.9310 0.9330
8.605901 0.9330 0.9340 0.9360 0.9360 0.9370
8.644000 0.9390 0.9390 0.9390 0.9390 0.9390
8.681901 0.9400 0.9400 0.9400 0.9400 0.9400
8.720000 0.9420 0.9420 0.9420 0.9420 0.9420
8.757901 0.9420 0.9420 0.9420 0.9420 0.9420
8.795000 0.9430 0.9430 0.9450 0.9450 0.9450
8.832901 0.9450 0.9450 0.9460 0.9460 0.9480
8.871000 0.9480 0.9490 0.9510 0.9510 0.9520
8.908901 0.9520 0.9520 0.9520 0.9540 0.9540
8.947000 0.9550 0.9550 0.9550 0.9550 0.9550
8.984901 0.9550 0.9560 0.9550 0.9550 0.9550
9.023000 0.9540 0.9550 0.9550 0.9550 0.9550
9.060901 0.9550 0.9550 0.9550 0.9550 0.9550
9.098000 0.9560 0.9560 0.9580 0.9580 0.9580
9.135901 0.9590 0.9590 0.9590 0.9590 0.9610
9.174000 0.9610 0.9610 0.9610 0.9610 0.9610
9.211901 0.9610 0.9610 0.9620 0.9620 0.9620
9.250000 0.9620 0.9640 0.9640 0.9640 0.9640
9.287901 0.9640 0.9650 0.9650 0.9650 0.9650
9.326000 0.9650 0.9670 0.9670 0.9670 0.9670
9.363901 0.9680 0.9680 0.9680 0.9680 0.9680
9.402000 0.9700 0.9700 0.9700 0.9700 0.9700
9.439901 0.9710 0.9710 0.9700 0.9700 0.9700
9.477000 0.9700 0.9710 0.9710 0.9710 0.9710
9.514901 0.9710 0.9710 0.9710 0.9710 0.9710
9.553000 0.9710 0.9730 0.9730 0.9730 0.9730
9.590901 0.9730 0.9740 0.9740 0.9740 0.9760
9.629000 0.9760 0.9740 0.9740 0.9740 0.9740
9.666901 0.9760 0.9760 0.9740 0.9740 0.9740
9.705000 0.9740 0.9760 0.9760 0.9760 0.9770
9.742901 0.9770 0.9770 0.9770 0.9770 0.9770
9.780000 0.9790 0.9790 0.9790 0.9790 0.9790
9.817901 0.9790 0.9790 0.9800 0.9800 0.9820
9.856000 0.9820 0.9820 0.9830 0.9830 0.9830
9.893901 0.9850 0.9850 0.9850 0.9850 0.9850
9.932000 0.9850 0.9860 0.9860 0.9860 0.9860
9.969901 0.9860 0.9860 0.9860 0.9860 0.9860
10.008000 0.9860 0.9880 0.9860 0.9860 0.9860
10.045901 0.9860 0.9860 0.9860 0.9860 0.9860
10.083000 0.9860 0.9860 0.9860 0.9860 0.9880
10.120901 0.9880 0.9880 0.9880 0.9880 0.9880
10.159000 0.9880 0.9880 0.9880 0.9890 0.9880
10.196901 0.9880 0.9880 0.9880 0.9880 0.9880
10.235000 0.9880 0.9880 0.9880 0.9890 0.9880
10.272901 0.9880 0.9880 0.9890 0.9890 0.9890
10.311000 0.9890 0.9890 0.9890 0.9890 0.9890
10.348901 0.9890 0.9910 0.9910 0.9910 0.9910
10.386000 0.9910 0.9910 0.9910 0.9910 0.9910
10.423901 0.9910 0.9910 0.9910 0.9910 0.9910
10.462000 0.9910 0.9910 0.9910 0.9910 0.9910
10.499901 0.9910 0.9910 0.9910 0.9920 0.9920
10.538000 0.9920 0.9910 0.9920 0.9920 0.9920
10.575901 0.9920 0.9920 0.9920 0.9920 0.9920
10.614000 0.9920 0.9920 0.9920 0.9920 0.9920
10.651901 0.9920 0.9920 0.9920 0.9920 0.9920
10.689000 0.9920 0.9920 0.9920 0.9920 0.9920
10.726901 0.9920 0.9920 0.9920 0.9920 0.9920
10.765000 0.9920 0.9920 0.9920 0.9920 0.9920
10.802901 0.9920 0.9920 0.9920 0.9920 0.9920
10.841000 0.9920 0.9920 0.9920 0.9920 0.9920
10.878901 0.9920 0.9920 0.9920 0.9920 0.9920
10.917000 0.9920 0.9910 0.9920 0.9920 0.9910
10.954901 0.9910 0.9910 0.9910 0.9910 0.9910
10.992000 0.9910 0.9910 0.9890 0.9890 0.9880
11.029901 0.9880 0.9860 0.9860 0.9860 0.9860
11.068000 0.9860 0.9850 0.9850 0.9860 0.9860
11.105901 0.9850 0.9850 0.9860 0.9850 0.9850
11.144000 0.9850 0.9850 0.9850 0.9830 0.9830
11.181901 0.9830 0.9830 0.9830 0.9830 0.9830
11.220000 0.9830 0.9830 0.9830 0.9820 0.9820
11.257901 0.9820 0.9820 0.9820 0.9820 0.9800
11.295000 0.9800 0.9800 0.9800 0.9800 0.9800
11.332901 0.9800 0.9800 0.9790 0.9790 0.9770
11.371000 0.9770 0.9770 0.9770 0.9760 0.9760
11.408901 0.9760 0.9760 0.9740 0.9740 0.9740
11.447000 0.9740 0.9740 0.9730 0.9710 0.9710
11.484901 0.9710 0.9700 0.9700 0.9680 0.9680
11.523000 0.9680 0.9670 0.9650 0.9650 0.9640
11.560901 0.9620 0.9610 0.9610 0.9610 0.9590
11.598000 0.9580 0.9560 0.9560 0.9550 0.9540
11.635901 0.9520 0.9520 0.9510 0.9510 0.9480
11.674000 0.9480 0.9460 0.9430 0.9420 0.9420
11.711901 0.9400 0.9370 0.9370 0.9360 0.9330
11.750000 0.9300 0.9270 0.9250 0.9240 0.9210
11.787901 0.9210 0.9190 0.9180 0.9130 0.9120
11.826000 0.9080 0.9050 0.9030 0.9030 0.9020
11.863901 0.8990 0.8960 0.8910 0.8880 0.8850
11.902000 0.8790 0.8730 0.8690 0.8660 0.8640
11.939901 0.8590 0.8530 0.8470 0.8350 0.8300
11.977000 0.8260 0.8140 0.8100 0.8040 0.8010
12.014901 0.7900 0.7810 0.7740 0.7650 0.7610
12.053000 0.7370 0.7250 0.7210 0.7040 0.6910
12.090901 0.6810 0.6660 0.6550 0.6490 0.6390
12.129000 0.6270 0.6200 0.6140 0.6020 0.5910
12.166901 0.5770 0.5690 0.5560 0.5450 0.5350
12.205000 0.5280 0.5190 0.5130 0.5070 0.5020
12.242901 0.4890 0.4850 0.4830 0.4830 0.4820
12.280000 0.4820 0.4820 0.4820 0.4800 0.4800
12.317901 0.4850 0.4890 0.4980 0.5020 0.5050
12.356000 0.5140 0.5260 0.5440 0.5630 0.5720
12.393901 0.5860 0.5960 0.6020 0.6090 0.6170
12.432000 0.6320 0.6370 0.6450 0.6570 0.6640
12.469901 0.6700 0.6760 0.6860 0.6890 0.6940
12.508000 0.6970 0.7000 0.7040 0.7090 0.7090
12.545901 0.7130 0.7130 0.7150 0.7150 0.7150
12.583000 0.7130 0.7130 0.7130 0.7130 0.7130
12.620901 0.7130 0.7120 0.7120 0.7120 0.7120
12.659000 0.7130 0.7130 0.7150 0.7160 0.7220
12.696901 0.7240 0.7280 0.7290 0.7310 0.7320
12.735000 0.7340 0.7340 0.7350 0.7350 0.7350
12.772901 0.7380 0.7410 0.7440 0.7490 0.7520
12.811000 0.7530 0.7550 0.7590 0.7640 0.7670
12.848901 0.7710 0.7740 0.7750 0.7810 0.7830
12.886000 0.7870 0.7890 0.7920 0.7930 0.7950
12.923901 0.7960 0.7980 0.7980 0.7980 0.7990
12.962000 0.7980 0.7980 0.7980 0.7980 0.7980
12.999901 0.7980 0.7990 0.7990 0.7980 0.7980
13.038000 0.7980 0.7980 0.7980 0.7980 0.7980
13.075901 0.7960 0.7960 0.7930 0.7930 0.7930
13.114000 0.7920 0.7870 0.7840 0.7830 0.7810
13.151901 0.7800 0.7770 0.7750 0.7740 0.7700
13.189000 0.7670 0.7650 0.7620 0.7590 0.7580
13.226901 0.7520 0.7460 0.7430 0.7430 0.7410
13.265000 0.7400 0.7400 0.7370 0.7340 0.7310
13.302901 0.7290 0.7240 0.7210 0.7190 0.7160
13.341000 0.7130 0.7120 0.7100 0.7070 0.7060
13.378901 0.7010 0.7000 0.6970 0.6940 0.6910
13.417000 0.6890 0.6880 0.6860 0.6850 0.6830
13.454901 0.6830 0.6820 0.6820 0.6810 0.6790
13.492000 0.6780 0.6760 0.6750 0.6720 0.6720
13.529901 0.6720 0.6720 0.6700 0.6700 0.6690
13.568000 0.6690 0.6670 0.6670 0.6660 0.6660
13.605901 0.6660 0.6640 0.6630 0.6610 0.6610
13.644000 0.6610 0.6610 0.6600 0.6600 0.6580
13.681901 0.6580 0.6580 0.6580 0.6580 0.6580
13.720000 0.6570 0.6570 0.6570 0.6570 0.6570
13.757901 0.6570 0.6570 0.6570 0.6570 0.6570
13.795000 0.6570 0.6570 0.6570 0.6550 0.6570
13.832901 0.6570 0.6570 0.6570 0.6570 0.6570
13.871000 0.6570 0.6570 0.6570 0.6570 0.6580
13.908901 0.6600 0.6610 0.6610 0.6630 0.6630
13.947000 0.6640 0.6640 0.6660 0.6660 0.6670
13.984901 0.6670 0.6670 0.6670 0.6690 0.6670
14.023000 0.6670 0.6690 0.6690 0.6700 0.6720
14.060901 0.6730 0.6730 0.6750 0.6760 0.6780
14.098000 0.6780 0.6790 0.6810 0.6820 0.6830
14.135901 0.6830 0.6830 0.6850 0.6850 0.6850
14.174000 0.6860 0.6860 0.6880 0.6890 0.6910
14.211901 0.6920 0.6920 0.6920 0.6940 0.6940
14.250000 0.6940 0.6950 0.6970 0.6970 0.6970
14.287901 0.6980 0.7000 0.7010 0.7010 0.7030
14.326000 0.7040 0.7060 0.7070 0.7090 0.7090
14.363901 0.7100 0.7120 0.7130 0.7130 0.7160
14.402000 0.7160 0.7180 0.7190 0.7190 0.7210
14.439901 0.7210 0.7220 0.7220 0.7220 0.7220
14.477000 0.7240 0.7240 0.7240 0.7240 0.7250
14.514901 0.7270 0.7270 0.7290 0.7310 0.7310
14.553000 0.7310 0.7320 0.7320 0.7350 0.7350
14.590901 0.7350 0.7370 0.7380 0.7380 0.7400
14.629000 0.7410 0.7430 0.7440 0.7460 0.7460
14.666901 0.7460 0.7460 0.7470 0.7470 0.7470
14.705000 0.7470 0.7470 0.7470 0.7490 0.7490
14.742901 0.7490 0.7490 0.7490 0.7490 0.7500
14.780000 0.7500 0.7520 0.7520 0.7520 0.7530
14.817901 0.7530 0.7550 0.7550 0.7560 0.7580
14.856000 0.7580 0.7590 0.7590 0.7590 0.7590
14.893901 0.7610 0.7610 0.7610 0.7610 0.7610
14.932000 0.7620 0.7620
##END=
