##TITLE=DL-p-HYDROXY-Alpha-METHYLPHENETHYL AMINE HYDROBROMIDE
##JCAMP-DX=4.24
##DATA TYPE=INFRARED SPECTRUM
##CLASS=COBLENTZ
##ORIGIN=CITRUS EXPERIMENT STATION, UNIVERSITY OF FLORIDA (G. EDWARDS)
##OWNER=COBLENTZ SOCIETY
Collection (C) 2018 copyright by the U.S. Secretary of Commerce
on behalf of the United States of America. All rights reserved.
##DATE=Not specified, most likely prior to 1970
##MOLFORM=C9 H13 N O  * H Br
##SOURCE REFERENCE=COBLENTZ NO. 3615
##$NIST ID=B6003615
##$NIST SOURCE=COBLENTZ
##$NIST IMAGE=cob3615
##SPECTROMETER/DATA SYSTEM=Not specified, most likely a grating spectrometer.
##STATE=SOLID ( KBr PELLET)
##SAMPLING PROCEDURE=TRANSMISSION
##RESOLUTION=4
##DATA PROCESSING=DIGITIZED BY NIST FROM HARD COPY
##XUNITS=MICROMETERS
##YUNITS=TRANSMITTANCE
##XFACTOR=1.000000
##YFACTOR=1
##DELTAX=000.006650
##FIRSTX=2.013
##LASTX=14.9999
##FIRSTY=0.799
##MAXX=14.9999
##MINX=2.013
##MAXY=0.925
##MINY=0.494
##NPOINTS=1954
##XYDATA=(X++(Y..Y))
2.013000 0.7990 0.7990 0.7990 0.7990 0.7990
2.046265 0.7990 0.7990 0.7990 0.7990 0.7990
2.080000 0.7990 0.8000 0.8040 0.8040 0.8090
2.113265 0.8110 0.8130 0.8150 0.8160 0.8170
2.146000 0.8190 0.8190 0.8190 0.8190 0.8190
2.179265 0.8190 0.8190 0.8190 0.8190 0.8190
2.213000 0.8190 0.8190 0.8190 0.8190 0.8190
2.246265 0.8190 0.8200 0.8210 0.8230 0.8230
2.279000 0.8240 0.8240 0.8240 0.8240 0.8240
2.312265 0.8240 0.8250 0.8250 0.8250 0.8250
2.346000 0.8270 0.8270 0.8280 0.8290 0.8310
2.379265 0.8320 0.8350 0.8360 0.8360 0.8370
2.412000 0.8370 0.8390 0.8400 0.8400 0.8400
2.445265 0.8410 0.8430 0.8430 0.8430 0.8430
2.479000 0.8430 0.8470 0.8470 0.8480 0.8490
2.512265 0.8490 0.8510 0.8510 0.8520 0.8550
2.545000 0.8550 0.8570 0.8590 0.8600 0.8630
2.578265 0.8640 0.8650 0.8650 0.8650 0.8670
2.612000 0.8670 0.8670 0.8670 0.8670 0.8670
2.645265 0.8670 0.8670 0.8670 0.8650 0.8650
2.678000 0.8640 0.8640 0.8630 0.8630 0.8610
2.711265 0.8610 0.8600 0.8600 0.8600 0.8600
2.745000 0.8590 0.8590 0.8570 0.8550 0.8520
2.778265 0.8490 0.8480 0.8470 0.8430 0.8390
2.811000 0.8290 0.8240 0.8170 0.8080 0.7990
2.844265 0.7880 0.7730 0.7610 0.7520 0.7420
2.878000 0.7340 0.7240 0.7190 0.7070 0.6980
2.911265 0.6900 0.6790 0.6700 0.6560 0.6400
2.944000 0.6280 0.6180 0.6110 0.6030 0.6020
2.977265 0.6020 0.6050 0.6070 0.6170 0.6320
3.011000 0.6400 0.6480 0.6540 0.6630 0.6740
3.044265 0.6820 0.6900 0.6940 0.6940 0.6920
3.077000 0.6880 0.6860 0.6790 0.6710 0.6640
3.110265 0.6600 0.6590 0.6560 0.6540 0.6480
3.144000 0.6390 0.6360 0.6230 0.6180 0.6170
3.177265 0.6180 0.6210 0.6260 0.6280 0.6320
3.210000 0.6360 0.6360 0.6350 0.6310 0.6260
3.243265 0.6210 0.6170 0.6110 0.6020 0.5930
3.277000 0.5740 0.5630 0.5470 0.5380 0.5210
3.310265 0.5100 0.5090 0.5090 0.5100 0.5110
3.343000 0.5140 0.5230 0.5250 0.5250 0.5210
3.376265 0.5110 0.5020 0.4980 0.4940 0.4940
3.410000 0.5000 0.5060 0.5130 0.5260 0.5380
3.443265 0.5470 0.5530 0.5580 0.5660 0.5710
3.476000 0.5770 0.5870 0.5980 0.6100 0.6220
3.509265 0.6300 0.6360 0.6390 0.6420 0.6470
3.543000 0.6500 0.6540 0.6560 0.6560 0.6580
3.576265 0.6660 0.6710 0.6830 0.6910 0.6980
3.609000 0.6990 0.7020 0.7040 0.7060 0.7070
3.642265 0.7080 0.7100 0.7140 0.7190 0.7230
3.676000 0.7240 0.7260 0.7260 0.7270 0.7270
3.709265 0.7310 0.7360 0.7430 0.7480 0.7500
3.742000 0.7520 0.7550 0.7560 0.7570 0.7570
3.775265 0.7570 0.7530 0.7480 0.7470 0.7420
3.809000 0.7390 0.7380 0.7380 0.7360 0.7320
3.842265 0.7280 0.7240 0.7230 0.7230 0.7240
3.875000 0.7270 0.7310 0.7350 0.7420 0.7480
3.908265 0.7560 0.7570 0.7670 0.7720 0.7770
3.942000 0.7790 0.7790 0.7790 0.7800 0.7800
3.975265 0.7770 0.7750 0.7710 0.7670 0.7600
4.008000 0.7570 0.7570 0.7640 0.7680 0.7680
4.041265 0.7650 0.7650 0.7630 0.7630 0.7640
4.075000 0.7670 0.7710 0.7810 0.7850 0.7870
4.108265 0.7880 0.7880 0.7890 0.7890 0.7910
4.141000 0.7990 0.8050 0.8080 0.8110 0.8130
4.174265 0.8150 0.8170 0.8170 0.8190 0.8190
4.208000 0.8210 0.8230 0.8240 0.8240 0.8240
4.241265 0.8240 0.8250 0.8250 0.8280 0.8310
4.274000 0.8330 0.8330 0.8330 0.8350 0.8350
4.307265 0.8390 0.8390 0.8400 0.8430 0.8480
4.341000 0.8490 0.8510 0.8510 0.8520 0.8520
4.374265 0.8550 0.8550 0.8550 0.8560 0.8570
4.407000 0.8570 0.8590 0.8590 0.8600 0.8600
4.440265 0.8600 0.8600 0.8600 0.8600 0.8610
4.474000 0.8610 0.8610 0.8610 0.8610 0.8640
4.507265 0.8650 0.8670 0.8680 0.8680 0.8680
4.540000 0.8690 0.8710 0.8720 0.8720 0.8720
4.573265 0.8730 0.8760 0.8770 0.8770 0.8770
4.607000 0.8760 0.8760 0.8760 0.8770 0.8770
4.640265 0.8770 0.8770 0.8770 0.8760 0.8760
4.673000 0.8760 0.8760 0.8760 0.8760 0.8760
4.706265 0.8770 0.8770 0.8770 0.8770 0.8760
4.740000 0.8760 0.8770 0.8770 0.8770 0.8770
4.773265 0.8770 0.8760 0.8750 0.8730 0.8710
4.806000 0.8690 0.8690 0.8690 0.8690 0.8690
4.839265 0.8690 0.8680 0.8650 0.8650 0.8640
4.873000 0.8630 0.8630 0.8630 0.8640 0.8650
4.906265 0.8670 0.8670 0.8670 0.8650 0.8640
4.939000 0.8640 0.8630 0.8600 0.8570 0.8530
4.972265 0.8490 0.8440 0.8430 0.8410 0.8400
5.006000 0.8390 0.8390 0.8370 0.8360 0.8330
5.039265 0.8310 0.8280 0.8230 0.8200 0.8190
5.072000 0.8190 0.8190 0.8190 0.8190 0.8200
5.105265 0.8210 0.8230 0.8240 0.8240 0.8240
5.139000 0.8240 0.8240 0.8240 0.8240 0.8250
5.172265 0.8250 0.8280 0.8320 0.8350 0.8370
5.205000 0.8410 0.8430 0.8480 0.8490 0.8510
5.238265 0.8530 0.8560 0.8560 0.8560 0.8560
5.272000 0.8590 0.8590 0.8610 0.8630 0.8640
5.305265 0.8680 0.8710 0.8770 0.8800 0.8850
5.338000 0.8890 0.8920 0.8980 0.8980 0.9000
5.371265 0.9000 0.9010 0.9020 0.9040 0.9040
5.405000 0.9050 0.9090 0.9090 0.9090 0.9090
5.438265 0.9080 0.9080 0.9080 0.9080 0.9080
5.471000 0.9080 0.9080 0.9080 0.9090 0.9100
5.504265 0.9120 0.9120 0.9140 0.9140 0.9140
5.538000 0.9140 0.9140 0.9140 0.9140 0.9160
5.571265 0.9160 0.9160 0.9160 0.9140 0.9140
5.604000 0.9120 0.9100 0.9100 0.9120 0.9120
5.637265 0.9140 0.9160 0.9160 0.9160 0.9160
5.671000 0.9160 0.9140 0.9140 0.9130 0.9130
5.704265 0.9160 0.9170 0.9170 0.9170 0.9170
5.737000 0.9180 0.9180 0.9200 0.9240 0.9250
5.770265 0.9250 0.9250 0.9250 0.9250 0.9250
5.804000 0.9250 0.9250 0.9250 0.9250 0.9250
5.837265 0.9240 0.9240 0.9240 0.9240 0.9240
5.870000 0.9240 0.9240 0.9220 0.9220 0.9210
5.903265 0.9200 0.9200 0.9180 0.9180 0.9180
5.937000 0.9160 0.9140 0.9120 0.9120 0.9120
5.970265 0.9120 0.9120 0.9120 0.9120 0.9090
6.003000 0.9080 0.9050 0.9020 0.8940 0.8900
6.036265 0.8900 0.8890 0.8890 0.8890 0.8890
6.070000 0.8880 0.8850 0.8800 0.8680 0.8590
6.103265 0.8530 0.8510 0.8450 0.8310 0.8090
6.136000 0.7890 0.7710 0.7480 0.7300 0.7190
6.169265 0.6990 0.6900 0.6870 0.6920 0.6990
6.203000 0.7040 0.7040 0.6990 0.6870 0.6740
6.236265 0.6700 0.6680 0.6680 0.6710 0.6830
6.269000 0.6980 0.7080 0.7200 0.7420 0.7610
6.302265 0.7840 0.8080 0.8190 0.8310 0.8430
6.336000 0.8450 0.8480 0.8480 0.8480 0.8470
6.369265 0.8450 0.8430 0.8390 0.8370 0.8370
6.402000 0.8360 0.8330 0.8310 0.8250 0.8200
6.435265 0.8110 0.7990 0.7730 0.7590 0.7550
6.469000 0.7530 0.7530 0.7520 0.7500 0.7360
6.502265 0.7220 0.7110 0.6980 0.6780 0.6590
6.535000 0.6460 0.6440 0.6430 0.6430 0.6440
6.568265 0.6440 0.6470 0.6500 0.6540 0.6560
6.602000 0.6580 0.6580 0.6560 0.6540 0.6440
6.635265 0.6270 0.5990 0.5780 0.5620 0.5610
6.668000 0.5610 0.5620 0.5690 0.5810 0.5910
6.701265 0.5990 0.6110 0.6190 0.6310 0.6510
6.735000 0.6670 0.6870 0.7020 0.7180 0.7280
6.768265 0.7320 0.7340 0.7350 0.7340 0.7310
6.801000 0.7260 0.7260 0.7220 0.7190 0.7080
6.834265 0.6990 0.6980 0.6980 0.6980 0.6980
6.868000 0.6920 0.6870 0.6800 0.6780 0.6760
6.901265 0.6800 0.6910 0.6990 0.7150 0.7320
6.934000 0.7550 0.7710 0.7800 0.7880 0.7930
6.967265 0.7990 0.8090 0.8130 0.8190 0.8240
7.001000 0.8290 0.8390 0.8450 0.8490 0.8490
7.034265 0.8510 0.8520 0.8530 0.8550 0.8550
7.067000 0.8550 0.8530 0.8520 0.8490 0.8470
7.100265 0.8440 0.8410 0.8400 0.8250 0.8150
7.134000 0.8050 0.7930 0.7840 0.7790 0.7690
7.167265 0.7600 0.7530 0.7530 0.7650 0.7890
7.200000 0.8000 0.8110 0.8170 0.8190 0.8170
7.233265 0.8150 0.8090 0.8000 0.7910 0.7840
7.266000 0.7770 0.7690 0.7690 0.7750 0.7800
7.299265 0.7890 0.7970 0.7990 0.8010 0.8030
7.333000 0.8030 0.8030 0.8030 0.8010 0.8010
7.366265 0.8010 0.8000 0.8000 0.8000 0.8000
7.399000 0.8000 0.8010 0.8040 0.8080 0.8190
7.432265 0.8250 0.8290 0.8390 0.8410 0.8480
7.466000 0.8490 0.8530 0.8570 0.8590 0.8610
7.499265 0.8630 0.8640 0.8640 0.8630 0.8610
7.532000 0.8590 0.8530 0.8490 0.8450 0.8410
7.565265 0.8390 0.8350 0.8320 0.8320 0.8330
7.599000 0.8350 0.8450 0.8550 0.8640 0.8780
7.632265 0.8860 0.8930 0.8980 0.9020 0.9050
7.665000 0.9050 0.9080 0.9080 0.9090 0.9090
7.698265 0.9090 0.9080 0.9080 0.9060 0.9060
7.732000 0.9080 0.9080 0.9080 0.9100 0.9130
7.765265 0.9160 0.9160 0.9160 0.9140 0.9120
7.798000 0.9090 0.9060 0.9000 0.8890 0.8810
7.831265 0.8690 0.8600 0.8520 0.8410 0.8330
7.865000 0.8280 0.8150 0.7990 0.7830 0.7610
7.898265 0.7440 0.7200 0.7020 0.6880 0.6830
7.931000 0.6840 0.6870 0.6920 0.7080 0.7240
7.964265 0.7390 0.7530 0.7680 0.7800 0.7830
7.998000 0.7850 0.7880 0.7880 0.7880 0.7840
8.031265 0.7770 0.7680 0.7590 0.7480 0.7390
8.064000 0.7360 0.7360 0.7380 0.7420 0.7500
8.097265 0.7590 0.7710 0.7770 0.7770 0.7770
8.131000 0.7760 0.7720 0.7680 0.7650 0.7610
8.164265 0.7550 0.7480 0.7420 0.7300 0.7180
8.197000 0.7100 0.6880 0.6680 0.6580 0.6440
8.230265 0.6340 0.6270 0.6250 0.6250 0.6270
8.264000 0.6320 0.6390 0.6510 0.6580 0.6590
8.297265 0.6580 0.6540 0.6470 0.6390 0.6380
8.330000 0.6380 0.6380 0.6390 0.6440 0.6500
8.363265 0.6580 0.6720 0.6800 0.6940 0.7080
8.397000 0.7160 0.7270 0.7400 0.7440 0.7510
8.430265 0.7510 0.7480 0.7420 0.7280 0.7110
8.463000 0.6940 0.6940 0.6990 0.7080 0.7200
8.496265 0.7300 0.7390 0.7510 0.7610 0.7640
8.530000 0.7680 0.7720 0.7750 0.7770 0.7800
8.563265 0.7830 0.7850 0.7880 0.7890 0.7910
8.596000 0.7910 0.7910 0.7950 0.7960 0.7970
8.629265 0.7990 0.8010 0.8050 0.8080 0.8110
8.663000 0.8130 0.8190 0.8200 0.8210 0.8210
8.696265 0.8240 0.8250 0.8290 0.8320 0.8350
8.729000 0.8360 0.8370 0.8370 0.8370 0.8370
8.762265 0.8390 0.8400 0.8410 0.8410 0.8410
8.796000 0.8410 0.8410 0.8390 0.8360 0.8330
8.829265 0.8290 0.8210 0.8160 0.8110 0.8010
8.862000 0.7920 0.7800 0.7650 0.7480 0.7320
8.895265 0.7200 0.7140 0.7150 0.7190 0.7220
8.929000 0.7320 0.7480 0.7600 0.7650 0.7730
8.962265 0.7790 0.7830 0.7890 0.7950 0.8000
8.995000 0.8030 0.8040 0.8030 0.8000 0.8000
9.028265 0.7990 0.7990 0.7930 0.7880 0.7730
9.062000 0.7590 0.7480 0.7420 0.7350 0.7350
9.095265 0.7390 0.7440 0.7530 0.7690 0.7770
9.128000 0.7870 0.7990 0.8080 0.8130 0.8190
9.161265 0.8210 0.8230 0.8280 0.8310 0.8360
9.195000 0.8390 0.8390 0.8400 0.8400 0.8410
9.228265 0.8400 0.8390 0.8330 0.8280 0.8230
9.261000 0.8160 0.8110 0.8010 0.7890 0.7750
9.294265 0.7670 0.7630 0.7680 0.7720 0.7790
9.328000 0.7910 0.8010 0.8130 0.8190 0.8210
9.361265 0.8230 0.8250 0.8320 0.8330 0.8360
9.394000 0.8360 0.8360 0.8390 0.8410 0.8410
9.427265 0.8430 0.8440 0.8450 0.8450 0.8480
9.461000 0.8480 0.8490 0.8510 0.8520 0.8520
9.494265 0.8530 0.8530 0.8550 0.8550 0.8550
9.527000 0.8560 0.8560 0.8570 0.8570 0.8570
9.560265 0.8560 0.8560 0.8550 0.8550 0.8550
9.594000 0.8560 0.8560 0.8570 0.8570 0.8570
9.627265 0.8570 0.8570 0.8570 0.8570 0.8590
9.660000 0.8600 0.8610 0.8630 0.8640 0.8650
9.693265 0.8670 0.8670 0.8670 0.8680 0.8680
9.727000 0.8680 0.8690 0.8710 0.8720 0.8730
9.760265 0.8750 0.8760 0.8760 0.8760 0.8760
9.793000 0.8760 0.8760 0.8750 0.8760 0.8760
9.826265 0.8760 0.8770 0.8780 0.8800 0.8810
9.860000 0.8810 0.8820 0.8840 0.8850 0.8850
9.893265 0.8840 0.8820 0.8810 0.8810 0.8800
9.926000 0.8780 0.8770 0.8710 0.8690 0.8680
9.959265 0.8610 0.8570 0.8530 0.8530 0.8530
9.993000 0.8550 0.8560 0.8590 0.8640 0.8680
10.026265 0.8690 0.8720 0.8760 0.8780 0.8800
10.059000 0.8810 0.8840 0.8850 0.8880 0.8890
10.092265 0.8920 0.8930 0.8980 0.8980 0.9000
10.126000 0.9010 0.9040 0.9040 0.9040 0.9050
10.159265 0.9050 0.9050 0.9060 0.9060 0.9060
10.192000 0.9060 0.9080 0.9080 0.9060 0.9050
10.225265 0.9020 0.9000 0.8980 0.8920 0.8880
10.259000 0.8810 0.8730 0.8680 0.8600 0.8550
10.292265 0.8480 0.8390 0.8280 0.8170 0.8030
10.325000 0.7910 0.7830 0.7770 0.7730 0.7730
10.358265 0.7770 0.7790 0.7840 0.7970 0.8050
10.392000 0.8130 0.8200 0.8290 0.8410 0.8480
10.425265 0.8490 0.8520 0.8590 0.8630 0.8680
10.458000 0.8690 0.8730 0.8750 0.8820 0.8840
10.491265 0.8850 0.8880 0.8890 0.8900 0.8900
10.525000 0.8900 0.8900 0.8890 0.8890 0.8890
10.558265 0.8890 0.8880 0.8860 0.8850 0.8850
10.591000 0.8820 0.8780 0.8750 0.8710 0.8690
10.624265 0.8650 0.8630 0.8610 0.8560 0.8550
10.658000 0.8550 0.8560 0.8570 0.8600 0.8640
10.691265 0.8670 0.8730 0.8810 0.8880 0.8900
10.724000 0.8970 0.8980 0.8980 0.9000 0.9000
10.757265 0.9000 0.9010 0.9010 0.9010 0.9010
10.791000 0.9010 0.9010 0.9010 0.9010 0.9010
10.824265 0.9000 0.9000 0.9000 0.9000 0.9010
10.857000 0.9010 0.9020 0.9040 0.9040 0.9040
10.890265 0.9050 0.9050 0.9080 0.9100 0.9120
10.924000 0.9120 0.9130 0.9130 0.9130 0.9130
10.957265 0.9140 0.9160 0.9160 0.9170 0.9170
10.990000 0.9160 0.9160 0.9160 0.9160 0.9170
11.023265 0.9170 0.9180 0.9180 0.9180 0.9180
11.057000 0.9180 0.9180 0.9180 0.9180 0.9200
11.090265 0.9180 0.9180 0.9200 0.9200 0.9200
11.123000 0.9200 0.9200 0.9180 0.9170 0.9160
11.156265 0.9160 0.9140 0.9120 0.9120 0.9090
11.190000 0.9080 0.9050 0.9020 0.8940 0.8920
11.223265 0.8900 0.8880 0.8860 0.8850 0.8850
11.256000 0.8860 0.8890 0.8900 0.8930 0.8980
11.289265 0.9000 0.9040 0.9060 0.9090 0.9090
11.323000 0.9090 0.9120 0.9140 0.9160 0.9160
11.356265 0.9180 0.9180 0.9170 0.9170 0.9160
11.389000 0.9160 0.9160 0.9140 0.9140 0.9140
11.422265 0.9140 0.9140 0.9130 0.9120 0.9120
11.456000 0.9120 0.9120 0.9120 0.9100 0.9100
11.489265 0.9090 0.9080 0.9060 0.9040 0.9020
11.522000 0.9010 0.9000 0.8980 0.8940 0.8890
11.555265 0.8850 0.8820 0.8800 0.8780 0.8730
11.589000 0.8710 0.8680 0.8640 0.8600 0.8560
11.622265 0.8520 0.8490 0.8430 0.8350 0.8290
11.655000 0.8200 0.8110 0.8030 0.7930 0.7850
11.688265 0.7790 0.7690 0.7550 0.7470 0.7390
11.722000 0.7300 0.7200 0.7180 0.7150 0.7120
11.755265 0.7100 0.7080 0.7040 0.7020 0.6990
11.788000 0.6940 0.6880 0.6820 0.6760 0.6680
11.821265 0.6630 0.6550 0.6470 0.6420 0.6380
11.855000 0.6340 0.6340 0.6340 0.6340 0.6350
11.888265 0.6390 0.6470 0.6540 0.6640 0.6710
11.921000 0.6830 0.6990 0.7080 0.7200 0.7320
11.954265 0.7480 0.7590 0.7710 0.7800 0.7910
11.988000 0.8000 0.8090 0.8190 0.8290 0.8400
12.021265 0.8440 0.8490 0.8520 0.8560 0.8600
12.054000 0.8640 0.8680 0.8710 0.8730 0.8750
12.087265 0.8760 0.8780 0.8780 0.8780 0.8780
12.121000 0.8760 0.8760 0.8730 0.8710 0.8680
12.154265 0.8670 0.8640 0.8630 0.8630 0.8610
12.187000 0.8590 0.8550 0.8520 0.8520 0.8510
12.220265 0.8490 0.8480 0.8440 0.8390 0.8330
12.254000 0.8280 0.8230 0.8190 0.8110 0.8030
12.287265 0.7990 0.7850 0.7690 0.7590 0.7500
12.320000 0.7380 0.7230 0.7100 0.6990 0.6870
12.353265 0.6740 0.6640 0.6580 0.6540 0.6510
12.387000 0.6500 0.6520 0.6590 0.6700 0.6780
12.420265 0.6870 0.6980 0.7070 0.7200 0.7310
12.453000 0.7400 0.7520 0.7630 0.7730 0.7810
12.486265 0.7920 0.8010 0.8110 0.8190 0.8250
12.520000 0.8320 0.8370 0.8410 0.8480 0.8530
12.553265 0.8590 0.8610 0.8680 0.8710 0.8730
12.586000 0.8780 0.8800 0.8820 0.8840 0.8890
12.619265 0.8900 0.8940 0.8980 0.8980 0.9000
12.653000 0.9010 0.9040 0.9040 0.9040 0.9040
12.686265 0.9040 0.9020 0.9010 0.8980 0.8980
12.719000 0.8930 0.8880 0.8850 0.8810 0.8770
12.752265 0.8710 0.8640 0.8570 0.8510 0.8430
12.786000 0.8280 0.8110 0.7910 0.7720 0.7480
12.819265 0.7310 0.7180 0.6980 0.6830 0.6780
12.852000 0.6760 0.6780 0.6800 0.6870 0.6940
12.885265 0.7040 0.7180 0.7310 0.7430 0.7560
12.919000 0.7610 0.7710 0.7790 0.7880 0.7970
12.952265 0.8080 0.8120 0.8170 0.8190 0.8280
12.985000 0.8290 0.8370 0.8410 0.8450 0.8480
13.018265 0.8480 0.8510 0.8550 0.8590 0.8630
13.052000 0.8680 0.8710 0.8730 0.8770 0.8800
13.085265 0.8810 0.8840 0.8840 0.8850 0.8850
13.118000 0.8880 0.8890 0.8900 0.8900 0.8900
13.151265 0.8900 0.8920 0.8940 0.8940 0.8960
13.185000 0.8960 0.8970 0.8980 0.8980 0.8980
13.218265 0.8980 0.9000 0.9000 0.9000 0.9010
13.251000 0.9010 0.9020 0.9020 0.9020 0.9010
13.284265 0.9010 0.9010 0.9010 0.9000 0.9000
13.318000 0.9010 0.9020 0.9020 0.9040 0.9040
13.351265 0.9040 0.9040 0.9040 0.9050 0.9050
13.384000 0.9050 0.9050 0.9050 0.9050 0.9060
13.417265 0.9060 0.9060 0.9060 0.9060 0.9060
13.451000 0.9060 0.9060 0.9060 0.9060 0.9060
13.484265 0.9080 0.9080 0.9080 0.9080 0.9080
13.517000 0.9060 0.9060 0.9060 0.9080 0.9080
13.550265 0.9080 0.9080 0.9090 0.9090 0.9090
13.584000 0.9090 0.9090 0.9090 0.9090 0.9090
13.617265 0.9090 0.9090 0.9090 0.9100 0.9100
13.650000 0.9090 0.9090 0.9090 0.9090 0.9090
13.683265 0.9100 0.9100 0.9100 0.9090 0.9090
13.717000 0.9090 0.9090 0.9090 0.9090 0.9090
13.750265 0.9100 0.9120 0.9130 0.9120 0.9120
13.783000 0.9100 0.9100 0.9090 0.9090 0.9090
13.816265 0.9090 0.9090 0.9100 0.9090 0.9090
13.850000 0.9080 0.9060 0.9050 0.9050 0.9050
13.883265 0.9040 0.9040 0.9020 0.9000 0.9000
13.916000 0.8980 0.8940 0.8900 0.8880 0.8820
13.949265 0.8780 0.8710 0.8640 0.8630 0.8610
13.983000 0.8610 0.8600 0.8600 0.8640 0.8680
14.016265 0.8710 0.8750 0.8800 0.8840 0.8850
14.049000 0.8850 0.8880 0.8890 0.8900 0.8920
14.082265 0.8930 0.8940 0.8940 0.8940 0.8960
14.116000 0.8960 0.8960 0.8960 0.8940 0.8940
14.149265 0.8940 0.8940 0.8940 0.8940 0.8940
14.182000 0.8940 0.8960 0.8960 0.8960 0.8960
14.215265 0.8940 0.8940 0.8930 0.8920 0.8920
14.249000 0.8920 0.8900 0.8900 0.8900 0.8900
14.282265 0.8900 0.8900 0.8900 0.8900 0.8900
14.315000 0.8900 0.8900 0.8900 0.8900 0.8900
14.348265 0.8900 0.8900 0.8900 0.8900 0.8890
14.382000 0.8880 0.8850 0.8840 0.8810 0.8800
14.415265 0.8800 0.8800 0.8780 0.8760 0.8750
14.448000 0.8720 0.8710 0.8680 0.8650 0.8610
14.481265 0.8600 0.8600 0.8590 0.8560 0.8550
14.515000 0.8550 0.8560 0.8560 0.8560 0.8570
14.548265 0.8570 0.8560 0.8560 0.8560 0.8560
14.581000 0.8560 0.8560 0.8550 0.8550 0.8530
14.614265 0.8530 0.8520 0.8520 0.8520 0.8510
14.648000 0.8510 0.8510 0.8510 0.8510 0.8510
14.681265 0.8490 0.8490 0.8490 0.8480 0.8480
14.714000 0.8480 0.8480 0.8480 0.8480 0.8480
14.747265 0.8470 0.8470 0.8450 0.8450 0.8440
14.781000 0.8430 0.8410 0.8410 0.8410 0.8410
14.814265 0.8400 0.8390 0.8370 0.8370 0.8360
14.847000 0.8350 0.8330 0.8290 0.8270 0.8270
14.880265 0.8240 0.8230 0.8210 0.8210 0.8230
14.914000 0.8230 0.8240 0.8250 0.8290 0.8390
14.947265 0.8430 0.8530 0.8610 0.8720 0.8810
14.980000 0.8890 0.8960 0.9000 0.9010
##END=
