##TITLE=LEAD CARBONATE
##JCAMP-DX=4.24
##DATA TYPE=INFRARED SPECTRUM
##CLASS=COBLENTZ
##ORIGIN=MELLON INSTITUTE
##OWNER=COBLENTZ SOCIETY
Collection (C) 2018 copyright by the U.S. Secretary of Commerce
on behalf of the United States of America. All rights reserved.
##DATE=Not specified, most likely prior to 1970
##MOLFORM=Pb C O3
##SOURCE REFERENCE=COBLENTZ NO. 505
##$NIST ID=B6000505
##$NIST SOURCE=COBLENTZ
##$NIST IMAGE=cob505
##SPECTROMETER/DATA SYSTEM=Not specified, most likely a prism, grating, or hybrid spectrometer.
##STATE=SOLID (NUJOL MULL)
$$PURITY UNKNOWN
##PATH LENGTH=
$$SPECTRAL CONTAMINATION DUE TO OIL AROUND 2900 CM^-^1
##SAMPLING PROCEDURE=TRANSMISSION
##RESOLUTION=4
##DATA PROCESSING=DIGITIZED BY NIST FROM HARD COPY
##XUNITS=MICROMETERS
##YUNITS=TRANSMITTANCE
##XFACTOR=1.000000
##YFACTOR=1
##DELTAX=000.006837
##FIRSTX=2.043
##LASTX=16.0163
##FIRSTY=0.451
##MAXX=16.0163
##MINX=2.043
##MAXY=0.948
##MINY=0.192
##NPOINTS=2045
##XYDATA=(X++(Y..Y))
2.043000 0.4510 0.4510 0.4510 0.4510 0.4520
2.077199 0.4520 0.4520 0.4570 0.4590 0.4610
2.111000 0.4630 0.4630 0.4640 0.4660 0.4680
2.145199 0.4710 0.4730 0.4750 0.4750 0.4750
2.180000 0.4760 0.4780 0.4800 0.4810 0.4810
2.214199 0.4810 0.4830 0.4850 0.4870 0.4900
2.248000 0.4900 0.4900 0.4920 0.4920 0.4920
2.282199 0.4930 0.4970 0.4990 0.5020 0.5040
2.316000 0.5060 0.5090 0.5090 0.5120 0.5160
2.350199 0.5180 0.5190 0.5210 0.5230 0.5230
2.385000 0.5260 0.5260 0.5280 0.5280 0.5300
2.419199 0.5300 0.5310 0.5330 0.5350 0.5380
2.453000 0.5400 0.5420 0.5450 0.5470 0.5480
2.487199 0.5500 0.5520 0.5540 0.5550 0.5570
2.521000 0.5590 0.5600 0.5620 0.5640 0.5640
2.555199 0.5660 0.5660 0.5670 0.5690 0.5710
2.590000 0.5710 0.5760 0.5790 0.5830 0.5830
2.624199 0.5830 0.5830 0.5840 0.5830 0.5840
2.658000 0.5860 0.5860 0.5900 0.5930 0.5950
2.692199 0.5980 0.6000 0.6000 0.6000 0.6020
2.727000 0.6030 0.6030 0.6030 0.6050 0.6050
2.761199 0.6050 0.6050 0.6070 0.6070 0.6070
2.795000 0.6070 0.6070 0.6070 0.6070 0.6070
2.829199 0.6070 0.6070 0.6070 0.6070 0.6070
2.863000 0.6080 0.6080 0.6080 0.6080 0.6080
2.897199 0.6100 0.6100 0.6100 0.6120 0.6120
2.932000 0.6140 0.6140 0.6150 0.6170 0.6190
2.966199 0.6190 0.6200 0.6200 0.6220 0.6240
3.000000 0.6240 0.6260 0.6270 0.6270 0.6290
3.034199 0.6290 0.6310 0.6310 0.6320 0.6320
3.068000 0.6360 0.6360 0.6380 0.6380 0.6390
3.102199 0.6390 0.6410 0.6410 0.6430 0.6430
3.137000 0.6440 0.6440 0.6480 0.6500 0.6510
3.171199 0.6510 0.6530 0.6530 0.6550 0.6560
3.205000 0.6560 0.6580 0.6580 0.6600 0.6600
3.239199 0.6600 0.6600 0.6600 0.6600 0.6560
3.273000 0.6500 0.6410 0.6290 0.6150 0.6020
3.307199 0.5360 0.4690 0.3770 0.2840 0.2690
3.342000 0.2550 0.2520 0.2460 0.2340 0.2340
3.376199 0.2570 0.2720 0.2760 0.3070 0.3290
3.410000 0.3460 0.3670 0.3700 0.3720 0.3720
3.444199 0.3670 0.3670 0.3720 0.4490 0.4660
3.479000 0.5310 0.5480 0.5720 0.6080 0.6680
3.513199 0.6940 0.7040 0.7110 0.7180 0.7250
3.547000 0.7300 0.7320 0.7370 0.7400 0.7420
3.581199 0.7440 0.7470 0.7490 0.7540 0.7560
3.615000 0.7580 0.7580 0.7580 0.7610 0.7630
3.649199 0.7650 0.7650 0.7660 0.7680 0.7680
3.684000 0.7680 0.7700 0.7700 0.7700 0.7710
3.718199 0.7710 0.7710 0.7730 0.7730 0.7730
3.752000 0.7730 0.7750 0.7750 0.7770 0.7770
3.786199 0.7770 0.7770 0.7780 0.7780 0.7800
3.820000 0.7820 0.7820 0.7820 0.7830 0.7830
3.854199 0.7830 0.7850 0.7850 0.7870 0.7890
3.889000 0.7890 0.7890 0.7900 0.7900 0.7940
3.923199 0.7940 0.7950 0.7950 0.7950 0.7970
3.957000 0.7970 0.7970 0.7990 0.7990 0.7990
3.991199 0.7990 0.7990 0.7990 0.7990 0.7990
4.025000 0.7990 0.7990 0.7990 0.7990 0.8010
4.059199 0.8010 0.8020 0.8010 0.8010 0.8010
4.094000 0.8010 0.8010 0.8010 0.8010 0.8010
4.128199 0.8010 0.8010 0.8010 0.8010 0.8010
4.162000 0.8020 0.8020 0.8020 0.8010 0.8010
4.196199 0.8010 0.8010 0.8010 0.8010 0.8010
4.231000 0.8020 0.8020 0.8020 0.8020 0.7990
4.265199 0.7970 0.7950 0.7940 0.7920 0.7920
4.299000 0.7940 0.7950 0.7950 0.7990 0.8010
4.333199 0.8020 0.8020 0.8020 0.8020 0.8010
4.367000 0.8010 0.8010 0.8010 0.8010 0.8010
4.401199 0.8010 0.8020 0.8060 0.8060 0.8060
4.436000 0.8060 0.8070 0.8060 0.8070 0.8070
4.470199 0.8070 0.8090 0.8090 0.8110 0.8130
4.504000 0.8140 0.8140 0.8160 0.8160 0.8160
4.538199 0.8160 0.8160 0.8160 0.8160 0.8140
4.572000 0.8160 0.8180 0.8180 0.8180 0.8160
4.606199 0.8160 0.8180 0.8180 0.8180 0.8180
4.641000 0.8180 0.8190 0.8210 0.8230 0.8230
4.675199 0.8250 0.8250 0.8250 0.8230 0.8230
4.709000 0.8230 0.8230 0.8230 0.8230 0.8230
4.743199 0.8250 0.8230 0.8230 0.8230 0.8230
4.778000 0.8230 0.8230 0.8230 0.8230 0.8230
4.812199 0.8230 0.8250 0.8250 0.8260 0.8280
4.846000 0.8280 0.8280 0.8300 0.8300 0.8310
4.880199 0.8310 0.8330 0.8330 0.8380 0.8400
4.914000 0.8420 0.8420 0.8430 0.8430 0.8430
4.948199 0.8430 0.8450 0.8470 0.8490 0.8490
4.983000 0.8490 0.8490 0.8490 0.8490 0.8490
5.017199 0.8520 0.8540 0.8540 0.8540 0.8540
5.051000 0.8540 0.8540 0.8540 0.8540 0.8540
5.085199 0.8540 0.8540 0.8540 0.8540 0.8540
5.119000 0.8550 0.8550 0.8550 0.8550 0.8590
5.153199 0.8610 0.8610 0.8620 0.8620 0.8620
5.188000 0.8640 0.8640 0.8640 0.8640 0.8640
5.222199 0.8640 0.8660 0.8660 0.8690 0.8690
5.256000 0.8730 0.8790 0.8810 0.8810 0.8810
5.290199 0.8810 0.8810 0.8790 0.8790 0.8790
5.324000 0.8790 0.8780 0.8790 0.8790 0.8810
5.358199 0.8790 0.8790 0.8790 0.8810 0.8810
5.393000 0.8810 0.8810 0.8810 0.8810 0.8810
5.427199 0.8810 0.8830 0.8830 0.8830 0.8830
5.461000 0.8810 0.8830 0.8830 0.8830 0.8830
5.495199 0.8850 0.8850 0.8850 0.8880 0.8900
5.530000 0.8900 0.8900 0.8900 0.8900 0.8900
5.564199 0.8900 0.8910 0.8910 0.8930 0.8930
5.598000 0.8980 0.8980 0.9000 0.9020 0.9020
5.632199 0.9020 0.9030 0.9030 0.9030 0.9050
5.666000 0.9030 0.9050 0.9070 0.9090 0.9090
5.700199 0.9100 0.9100 0.9100 0.9050 0.9030
5.735000 0.9030 0.9030 0.9030 0.9030 0.9030
5.769199 0.9050 0.9050 0.9070 0.9070 0.9070
5.803000 0.9090 0.9090 0.9100 0.9100 0.9120
5.837199 0.9140 0.9140 0.9140 0.9140 0.9140
5.871000 0.9150 0.9190 0.9220 0.9220 0.9240
5.905199 0.9220 0.9190 0.9190 0.9170 0.9210
5.940000 0.9210 0.9220 0.9240 0.9260 0.9260
5.974199 0.9260 0.9270 0.9270 0.9270 0.9270
6.008000 0.9260 0.9260 0.9240 0.9220 0.9240
6.042199 0.9260 0.9260 0.9270 0.9260 0.9290
6.076000 0.9290 0.9330 0.9340 0.9340 0.9340
6.110199 0.9340 0.9330 0.9310 0.9310 0.9290
6.145000 0.9290 0.9290 0.9290 0.9290 0.9290
6.179199 0.9290 0.9290 0.9290 0.9270 0.9260
6.213000 0.9220 0.9220 0.9220 0.9210 0.9190
6.247199 0.9170 0.9170 0.9150 0.9140 0.9140
6.282000 0.9120 0.9050 0.9000 0.8970 0.8970
6.316199 0.8980 0.8980 0.8980 0.8980 0.8980
6.350000 0.8950 0.8910 0.8910 0.8880 0.8900
6.384199 0.8910 0.8930 0.8930 0.8910 0.8910
6.418000 0.8910 0.8910 0.8880 0.8860 0.8830
6.452199 0.8790 0.8760 0.8740 0.8730 0.8690
6.487000 0.8640 0.8640 0.8640 0.8640 0.8620
6.521199 0.8610 0.8550 0.8540 0.8520 0.8500
6.555000 0.8490 0.8450 0.8430 0.8420 0.8380
6.589199 0.8350 0.8300 0.8210 0.8110 0.8060
6.623000 0.8010 0.7950 0.7850 0.7750 0.7700
6.657199 0.7590 0.7490 0.7270 0.7160 0.7010
6.692000 0.6750 0.6310 0.6240 0.6170 0.5960
6.726199 0.5710 0.5590 0.5540 0.5140 0.4990
6.760000 0.4830 0.4610 0.4080 0.3800 0.3680
6.794199 0.3560 0.3550 0.3530 0.3480 0.3410
6.828000 0.3360 0.3310 0.3190 0.3010 0.2910
6.862199 0.2770 0.2670 0.2600 0.2520 0.2500
6.897000 0.2460 0.2430 0.2400 0.2400 0.2400
6.931199 0.2380 0.2380 0.2360 0.2330 0.2290
6.965000 0.2240 0.2170 0.2170 0.2160 0.2140
6.999199 0.2120 0.2100 0.2070 0.2040 0.2020
7.034000 0.2020 0.2000 0.2000 0.1980 0.1980
7.068199 0.1970 0.1950 0.1920 0.1920 0.1920
7.102000 0.1920 0.1920 0.1920 0.1920 0.1920
7.136199 0.1930 0.1930 0.1980 0.2000 0.2020
7.170000 0.2040 0.2090 0.2140 0.2240 0.2290
7.204199 0.2310 0.2330 0.2410 0.2620 0.2710
7.239000 0.2770 0.2840 0.2910 0.3030 0.3080
7.273199 0.3220 0.3340 0.3410 0.3510 0.3560
7.307000 0.3960 0.4010 0.4080 0.4160 0.4250
7.341199 0.4300 0.4370 0.4470 0.4490 0.4540
7.375000 0.4630 0.4760 0.4920 0.5090 0.5180
7.409199 0.5240 0.5310 0.5380 0.5500 0.5550
7.444000 0.5720 0.5760 0.5810 0.6030 0.6170
7.478199 0.6220 0.6390 0.6460 0.6550 0.6600
7.512000 0.6630 0.6700 0.6740 0.6790 0.6860
7.546199 0.6890 0.6910 0.6940 0.6980 0.7010
7.580000 0.7040 0.7110 0.7200 0.7230 0.7280
7.614199 0.7340 0.7390 0.7390 0.7420 0.7490
7.649000 0.7490 0.7530 0.7590 0.7630 0.7650
7.683199 0.7680 0.7710 0.7730 0.7780 0.7820
7.717000 0.7820 0.7830 0.7890 0.7900 0.7920
7.751199 0.7940 0.7950 0.7990 0.8010 0.8010
7.786000 0.8020 0.8040 0.8040 0.8110 0.8160
7.820199 0.8190 0.8230 0.8260 0.8300 0.8330
7.854000 0.8350 0.8400 0.8420 0.8450 0.8470
7.888199 0.8490 0.8490 0.8520 0.8520 0.8540
7.922000 0.8550 0.8550 0.8570 0.8570 0.8590
7.956199 0.8610 0.8610 0.8620 0.8620 0.8640
7.991000 0.8660 0.8670 0.8690 0.8690 0.8690
8.025199 0.8710 0.8710 0.8710 0.8710 0.8710
8.059000 0.8730 0.8730 0.8740 0.8760 0.8790
8.093199 0.8790 0.8830 0.8850 0.8850 0.8850
8.127000 0.8880 0.8880 0.8900 0.8900 0.8900
8.161199 0.8900 0.8900 0.8900 0.8910 0.8910
8.196000 0.8930 0.8930 0.8930 0.8930 0.8930
8.230199 0.8950 0.8950 0.8950 0.8950 0.8950
8.264000 0.8930 0.8930 0.8950 0.8950 0.8950
8.298199 0.8930 0.8930 0.8930 0.8930 0.8930
8.333000 0.8930 0.8930 0.8950 0.8950 0.8950
8.367199 0.8970 0.8980 0.8980 0.8980 0.9000
8.401000 0.9000 0.9000 0.9000 0.9020 0.9000
8.435199 0.9000 0.9000 0.9030 0.9030 0.9030
8.469000 0.9050 0.9050 0.9050 0.9030 0.9050
8.503199 0.9050 0.9050 0.9030 0.9020 0.9020
8.538000 0.9000 0.9020 0.9020 0.9020 0.9030
8.572199 0.9030 0.9030 0.9030 0.9050 0.9050
8.606000 0.9050 0.9050 0.9070 0.9070 0.9090
8.640199 0.9070 0.9070 0.9070 0.9050 0.9070
8.674000 0.9050 0.9050 0.9030 0.9020 0.9020
8.708199 0.9030 0.9030 0.9030 0.9030 0.9030
8.743000 0.9030 0.9050 0.9070 0.9070 0.9090
8.777199 0.9090 0.9120 0.9120 0.9120 0.9120
8.811000 0.9140 0.9140 0.9140 0.9150 0.9150
8.845199 0.9140 0.9140 0.9140 0.9120 0.9120
8.879000 0.9100 0.9070 0.9050 0.9030 0.9030
8.913199 0.9030 0.9070 0.9100 0.9100 0.9120
8.948000 0.9120 0.9100 0.9100 0.9100 0.9120
8.982199 0.9120 0.9120 0.9120 0.9120 0.9120
9.016000 0.9120 0.9120 0.9120 0.9120 0.9120
9.050199 0.9100 0.9100 0.9120 0.9100 0.9090
9.085000 0.9070 0.9090 0.9090 0.9090 0.9100
9.119199 0.9100 0.9100 0.9100 0.9140 0.9140
9.153000 0.9140 0.9120 0.9120 0.9120 0.9120
9.187199 0.9120 0.9100 0.9100 0.9100 0.9100
9.221000 0.9120 0.9120 0.9120 0.9120 0.9120
9.255199 0.9140 0.9140 0.9150 0.9150 0.9150
9.290000 0.9170 0.9190 0.9190 0.9210 0.9190
9.324199 0.9190 0.9210 0.9210 0.9210 0.9220
9.358000 0.9220 0.9220 0.9220 0.9220 0.9220
9.392199 0.9220 0.9220 0.9220 0.9210 0.9220
9.426000 0.9220 0.9210 0.9210 0.9190 0.9170
9.460199 0.9170 0.9150 0.9120 0.9120 0.9100
9.495000 0.9100 0.9090 0.9030 0.9030 0.9020
9.529199 0.9020 0.9000 0.9000 0.9000 0.9000
9.563000 0.9000 0.9000 0.9000 0.9020 0.9020
9.597199 0.9030 0.9030 0.9030 0.9050 0.9100
9.631000 0.9100 0.9120 0.9140 0.9170 0.9170
9.665199 0.9170 0.9170 0.9190 0.9190 0.9190
9.700000 0.9190 0.9210 0.9210 0.9210 0.9220
9.734199 0.9240 0.9240 0.9240 0.9260 0.9260
9.768000 0.9260 0.9240 0.9240 0.9240 0.9240
9.802199 0.9240 0.9260 0.9260 0.9270 0.9270
9.837000 0.9270 0.9310 0.9310 0.9330 0.9330
9.871199 0.9330 0.9340 0.9340 0.9340 0.9340
9.905000 0.9330 0.9330 0.9330 0.9330 0.9330
9.939199 0.9340 0.9340 0.9340 0.9340 0.9340
9.973000 0.9340 0.9340 0.9360 0.9360 0.9340
10.007199 0.9360 0.9360 0.9360 0.9360 0.9380
10.042000 0.9380 0.9390 0.9390 0.9410 0.9410
10.076199 0.9410 0.9410 0.9410 0.9410 0.9410
10.110000 0.9410 0.9430 0.9430 0.9450 0.9450
10.144199 0.9450 0.9450 0.9460 0.9460 0.9460
10.178000 0.9460 0.9450 0.9430 0.9410 0.9410
10.212199 0.9410 0.9410 0.9410 0.9410 0.9410
10.247000 0.9390 0.9390 0.9390 0.9410 0.9410
10.281199 0.9410 0.9430 0.9430 0.9430 0.9430
10.315000 0.9430 0.9380 0.9360 0.9340 0.9340
10.349199 0.9340 0.9340 0.9340 0.9340 0.9340
10.383000 0.9360 0.9390 0.9430 0.9450 0.9450
10.417199 0.9450 0.9450 0.9450 0.9450 0.9450
10.452000 0.9450 0.9430 0.9430 0.9410 0.9390
10.486199 0.9380 0.9380 0.9360 0.9380 0.9430
10.520000 0.9430 0.9450 0.9460 0.9460 0.9460
10.554199 0.9450 0.9450 0.9450 0.9450 0.9450
10.589000 0.9450 0.9450 0.9450 0.9450 0.9450
10.623199 0.9450 0.9450 0.9450 0.9450 0.9450
10.657000 0.9430 0.9430 0.9410 0.9410 0.9410
10.691199 0.9390 0.9360 0.9360 0.9340 0.9360
10.725000 0.9360 0.9360 0.9340 0.9340 0.9360
10.759199 0.9360 0.9380 0.9380 0.9380 0.9380
10.794000 0.9360 0.9380 0.9380 0.9380 0.9380
10.828199 0.9360 0.9360 0.9340 0.9340 0.9360
10.862000 0.9360 0.9360 0.9340 0.9360 0.9360
10.896199 0.9340 0.9340 0.9340 0.9360 0.9360
10.930000 0.9360 0.9360 0.9360 0.9360 0.9360
10.964199 0.9360 0.9340 0.9360 0.9360 0.9380
10.999000 0.9390 0.9430 0.9430 0.9450 0.9450
11.033199 0.9450 0.9450 0.9450 0.9450 0.9450
11.067000 0.9460 0.9460 0.9480 0.9480 0.9460
11.101199 0.9460 0.9450 0.9450 0.9450 0.9450
11.135000 0.9430 0.9430 0.9390 0.9390 0.9380
11.169199 0.9360 0.9340 0.9340 0.9340 0.9340
11.204000 0.9360 0.9360 0.9380 0.9390 0.9430
11.238199 0.9430 0.9430 0.9430 0.9410 0.9410
11.272000 0.9410 0.9410 0.9410 0.9410 0.9410
11.306199 0.9410 0.9410 0.9410 0.9380 0.9380
11.341000 0.9360 0.9360 0.9360 0.9360 0.9360
11.375199 0.9360 0.9380 0.9380 0.9380 0.9390
11.409000 0.9390 0.9390 0.9390 0.9380 0.9360
11.443199 0.9360 0.9360 0.9360 0.9360 0.9360
11.477000 0.9360 0.9390 0.9410 0.9430 0.9430
11.511199 0.9410 0.9410 0.9410 0.9410 0.9410
11.546000 0.9390 0.9390 0.9390 0.9380 0.9360
11.580199 0.9340 0.9340 0.9340 0.9340 0.9340
11.614000 0.9340 0.9340 0.9340 0.9340 0.9340
11.648199 0.9340 0.9330 0.9330 0.9330 0.9310
11.682000 0.9310 0.9310 0.9290 0.9290 0.9290
11.716199 0.9290 0.9290 0.9290 0.9290 0.9310
11.751000 0.9310 0.9310 0.9310 0.9310 0.9290
11.785199 0.9260 0.9240 0.9240 0.9220 0.9210
11.819000 0.9170 0.9150 0.9140 0.9120 0.9090
11.853199 0.9030 0.9000 0.8950 0.8930 0.8910
11.888000 0.8930 0.8910 0.8900 0.8900 0.8910
11.922199 0.8910 0.8910 0.8910 0.8930 0.8930
11.956000 0.8950 0.8970 0.8970 0.9000 0.9000
11.990199 0.9000 0.9030 0.9050 0.9050 0.9070
12.024000 0.9090 0.9090 0.9090 0.9090 0.9090
12.058199 0.9090 0.9090 0.9090 0.9100 0.9090
12.093000 0.9090 0.9090 0.9090 0.9100 0.9100
12.127199 0.9100 0.9100 0.9100 0.9100 0.9100
12.161000 0.9100 0.9100 0.9100 0.9120 0.9120
12.195199 0.9140 0.9140 0.9140 0.9150 0.9170
12.229000 0.9190 0.9220 0.9220 0.9210 0.9210
12.263199 0.9190 0.9190 0.9190 0.9190 0.9190
12.298000 0.9210 0.9190 0.9190 0.9190 0.9150
12.332199 0.9140 0.9120 0.9120 0.9100 0.9100
12.366000 0.9090 0.9070 0.9070 0.9070 0.9050
12.400199 0.9050 0.9050 0.9050 0.9050 0.9050
12.434000 0.9050 0.9050 0.9050 0.9050 0.9050
12.468199 0.9050 0.9050 0.9030 0.9000 0.9000
12.503000 0.8980 0.8980 0.9000 0.8970 0.8980
12.537199 0.8980 0.8980 0.8980 0.8980 0.8980
12.571000 0.9000 0.9000 0.9000 0.8980 0.9000
12.605199 0.8980 0.8980 0.8970 0.8970 0.8970
12.640000 0.8950 0.8930 0.8930 0.8930 0.8910
12.674199 0.8910 0.8910 0.8910 0.8910 0.8910
12.708000 0.8900 0.8900 0.8900 0.8860 0.8860
12.742199 0.8860 0.8850 0.8850 0.8830 0.8830
12.776000 0.8830 0.8830 0.8830 0.8830 0.8810
12.810199 0.8810 0.8810 0.8810 0.8790 0.8780
12.845000 0.8760 0.8760 0.8760 0.8760 0.8760
12.879199 0.8760 0.8760 0.8760 0.8760 0.8740
12.913000 0.8740 0.8730 0.8730 0.8710 0.8710
12.947199 0.8670 0.8690 0.8670 0.8670 0.8670
12.981000 0.8660 0.8670 0.8660 0.8660 0.8640
13.015199 0.8640 0.8640 0.8640 0.8640 0.8640
13.050000 0.8640 0.8640 0.8620 0.8620 0.8620
13.084199 0.8620 0.8610 0.8610 0.8610 0.8610
13.118000 0.8590 0.8590 0.8590 0.8570 0.8570
13.152199 0.8550 0.8550 0.8540 0.8540 0.8540
13.186000 0.8540 0.8520 0.8520 0.8520 0.8520
13.220199 0.8520 0.8520 0.8520 0.8520 0.8500
13.255000 0.8500 0.8500 0.8500 0.8470 0.8470
13.289199 0.8470 0.8450 0.8430 0.8430 0.8430
13.323000 0.8430 0.8430 0.8430 0.8430 0.8430
13.357199 0.8420 0.8420 0.8400 0.8380 0.8350
13.392000 0.8330 0.8310 0.8310 0.8300 0.8260
13.426199 0.8260 0.8260 0.8250 0.8250 0.8230
13.460000 0.8210 0.8190 0.8190 0.8190 0.8180
13.494199 0.8180 0.8160 0.8140 0.8130 0.8110
13.528000 0.8110 0.8090 0.8070 0.8060 0.8040
13.562199 0.8040 0.8020 0.8020 0.8010 0.8010
13.597000 0.7990 0.7990 0.7970 0.7970 0.7950
13.631199 0.7940 0.7920 0.7900 0.7890 0.7890
13.665000 0.7870 0.7870 0.7850 0.7820 0.7800
13.699199 0.7770 0.7770 0.7770 0.7750 0.7750
13.733000 0.7730 0.7730 0.7710 0.7710 0.7700
13.767199 0.7660 0.7660 0.7660 0.7650 0.7610
13.802000 0.7590 0.7580 0.7540 0.7540 0.7540
13.836199 0.7530 0.7530 0.7530 0.7530 0.7530
13.870000 0.7530 0.7510 0.7510 0.7510 0.7510
13.904199 0.7510 0.7510 0.7510 0.7510 0.7510
13.938000 0.7510 0.7510 0.7510 0.7530 0.7510
13.972199 0.7510 0.7490 0.7470 0.7460 0.7440
14.007000 0.7440 0.7420 0.7400 0.7400 0.7370
14.041199 0.7350 0.7340 0.7300 0.7280 0.7250
14.075000 0.7250 0.7230 0.7220 0.7160 0.7150
14.109199 0.7130 0.7100 0.7060 0.7040 0.7030
14.144000 0.7030 0.6990 0.6990 0.6940 0.6920
14.178199 0.6910 0.6860 0.6860 0.6840 0.6800
14.212000 0.6790 0.6750 0.6720 0.6680 0.6600
14.246199 0.6580 0.6500 0.6410 0.6340 0.6270
14.280000 0.6240 0.6190 0.6140 0.6100 0.6020
14.314199 0.6000 0.6000 0.5900 0.5810 0.5740
14.349000 0.5690 0.5600 0.5550 0.5540 0.5540
14.383199 0.5540 0.5520 0.5520 0.5500 0.5500
14.417000 0.5500 0.5480 0.5470 0.5470 0.5430
14.451199 0.5400 0.5400 0.5330 0.5210 0.5160
14.485000 0.5120 0.5040 0.5020 0.5000 0.4970
14.519199 0.4870 0.4810 0.4750 0.4690 0.4640
14.554000 0.4590 0.4560 0.4540 0.4540 0.4510
14.588199 0.4490 0.4490 0.4490 0.4490 0.4510
14.622000 0.4510 0.4520 0.4520 0.4560 0.4610
14.656199 0.4640 0.4690 0.4710 0.4750 0.4760
14.690000 0.4810 0.4870 0.4900 0.4950 0.4990
14.724199 0.5040 0.5040 0.5060 0.5060 0.5060
14.759000 0.5070 0.5070 0.5070 0.5070 0.5070
14.793199 0.5070 0.5110 0.5120 0.5160 0.5180
14.827000 0.5210 0.5230 0.5260 0.5310 0.5350
14.861199 0.5360 0.5430 0.5450 0.5470 0.5470
14.896000 0.5470 0.5450 0.5450 0.5450 0.5450
14.930199 0.5430 0.5430 0.5430 0.5430 0.5430
14.964000 0.5430 0.5450 0.5450 0.5450 0.5470
14.998199 0.5470 0.5470 0.5470 0.5470 0.5470
15.032000 0.5450 0.5450 0.5430 0.5430 0.5450
15.066199 0.5450 0.5450 0.5430 0.5430 0.5420
15.101000 0.5400 0.5400 0.5380 0.5380 0.5360
15.135199 0.5380 0.5380 0.5400 0.5400 0.5380
15.169000 0.5380 0.5380 0.5360 0.5350 0.5330
15.203199 0.5300 0.5300 0.5300 0.5300 0.5240
15.237000 0.5230 0.5230 0.5210 0.5210 0.5210
15.271199 0.5210 0.5190 0.5190 0.5190 0.5190
15.306000 0.5190 0.5190 0.5190 0.5210 0.5210
15.340199 0.5190 0.5230 0.5230 0.5230 0.5210
15.374000 0.5210 0.5230 0.5210 0.5210 0.5210
15.408199 0.5210 0.5210 0.5210 0.5210 0.5190
15.443000 0.5190 0.5190 0.5190 0.5190 0.5180
15.477199 0.5180 0.5160 0.5160 0.5160 0.5140
15.511000 0.5140 0.5140 0.5140 0.5140 0.5140
15.545199 0.5140 0.5140 0.5160 0.5160 0.5180
15.579000 0.5180 0.5180 0.5180 0.5180 0.5180
15.613199 0.5190 0.5180 0.5180 0.5180 0.5180
15.648000 0.5190 0.5190 0.5210 0.5210 0.5230
15.682199 0.5230 0.5230 0.5230 0.5230 0.5230
15.716000 0.5230 0.5230 0.5230 0.5230 0.5230
15.750199 0.5230 0.5240 0.5240 0.5240 0.5240
15.784000 0.5240 0.5230 0.5230 0.5230 0.5210
15.818199 0.5210 0.5190 0.5190 0.5190 0.5190
15.853000 0.5190 0.5210 0.5210 0.5210 0.5230
15.887199 0.5230 0.5230 0.5240 0.5240 0.5240
15.921000 0.5240 0.5240 0.5240 0.5240 0.5240
15.955199 0.5240 0.5260 0.5260 0.5280 0.5280
15.989000 0.5300 0.6460 0.5260 0.5280 0.5280
##END=
