##TITLE=1,2-Cyclobutanedicarboxylic acid, didecyl ester, trans-
##JCAMP-DX=4.24
##DATA TYPE=INFRARED SPECTRUM
##CLASS=COBLENTZ III
##ORIGIN=DOW CHEMICAL COMPANY
##OWNER=Copyright (C) 1987 by the Coblentz Society
Collection (C) 2018 copyright by the U.S. Secretary of Commerce
on behalf of the United States of America. All rights reserved.
##DATE=1965/07/08
##NAMES=didecyl 1,2-cyclobutanedicarboxylate
##MOLFORM=C26 H48 O4
##BP=220 C AT 1 mmHg
##SOURCE REFERENCE=COBLENTZ NO. 8118
##$NIST ID=B6008118
##$NIST SOURCE=COBLENTZ
##$NIST IMAGE=cob8118
##SPECTROMETER/DATA SYSTEM=BECKMAN IR-9 (GRATING)
##INSTRUMENT PARAMETERS=ORDER CHANGES: 670, 1200, 2000 CM^-^1
##STATE=SOLUTION (10% CCl4 FOR 3800-1330, 10% CS2 FOR 1330-400)
##PATH LENGTH=0.011 CM, 0.011 CM
$$SPECTRAL CONTAMINATION DUE TO CS2 AROUND 860, CCl4 AROUND 1550, AND AN UNKNOWN AROUND 400 CM^-^1
##SAMPLING PROCEDURE=TRANSMISSION
##RESOLUTION=2
##DATA PROCESSING=DIGITIZED BY COBLENTZ SOCIETY (BATCH II) FROM HARD COPY
##XUNITS=1/CM
##YUNITS=TRANSMITTANCE
##XFACTOR=1.0
##YFACTOR=1
##FIRSTX=402
##LASTX=3800
##FIRSTY=0.0884
##MAXX=3800
##MINX=402
##MAXY=0.8633
##MINY=0
##NPOINTS=3399
##XYDATA=(X++(Y..Y))
402.000000 0.0884 0.0890 0.0894 0.0897 0.0922
407.000000 0.0958 0.1016 0.1096 0.2081 0.2279
412.000000 0.2477 0.2675 0.2874 0.3072 0.3270
417.000000 0.3469 0.3667 0.4127 0.4219 0.4299
422.000000 0.4360 0.4422 0.4483 0.4544 0.4610
427.000000 0.4690 0.4771 0.4854 0.4955 0.5057
432.000000 0.5157 0.5255 0.5352 0.5437 0.5504
437.000000 0.5571 0.5638 0.5705 0.5779 0.5852
442.000000 0.5926 0.6000 0.6058 0.6112 0.6167
447.000000 0.6221 0.6275 0.6328 0.6382 0.6442
452.000000 0.6507 0.6573 0.6638 0.6675 0.6706
457.000000 0.6738 0.6770 0.6801 0.6833 0.6865
462.000000 0.6895 0.6923 0.6952 0.6981 0.7010
467.000000 0.7041 0.7082 0.7122 0.7162 0.7197
472.000000 0.7230 0.7264 0.7298 0.7331 0.7357
477.000000 0.7377 0.7396 0.7416 0.7436 0.7456
482.000000 0.7476 0.7496 0.7515 0.7535 0.7548
487.000000 0.7561 0.7575 0.7588 0.7602 0.7615
492.000000 0.7629 0.7642 0.7655 0.7669 0.7682
497.000000 0.7696 0.7709 0.7723 0.7737 0.7751
502.000000 0.7765 0.7779 0.7791 0.7802 0.7812
507.000000 0.7823 0.7834 0.7844 0.7855 0.7865
512.000000 0.7876 0.7887 0.7897 0.7908 0.7919
517.000000 0.7929 0.7940 0.7950 0.7961 0.7971
522.000000 0.7977 0.7982 0.7988 0.7994 0.8000
527.000000 0.8006 0.8011 0.8017 0.8023 0.8029
532.000000 0.8035 0.8040 0.8047 0.8053 0.8060
537.000000 0.8066 0.8073 0.8079 0.8086 0.8092
542.000000 0.8099 0.8105 0.8112 0.8118 0.8124
547.000000 0.8131 0.8137 0.8144 0.8150 0.8156
552.000000 0.8162 0.8168 0.8175 0.8181 0.8187
557.000000 0.8193 0.8199 0.8205 0.8211 0.8217
562.000000 0.8223 0.8229 0.8235 0.8241 0.8248
567.000000 0.8254 0.8261 0.8267 0.8274 0.8280
572.000000 0.8287 0.8293 0.8300 0.8306 0.8313
577.000000 0.8319 0.8326 0.8333 0.8339 0.8345
582.000000 0.8350 0.8355 0.8360 0.8365 0.8370
587.000000 0.8375 0.8380 0.8385 0.8390 0.8395
592.000000 0.8401 0.8405 0.8407 0.8409 0.8411
597.000000 0.8413 0.8415 0.8417 0.8419 0.8457
602.000000 0.8423 0.8425 0.8427 0.8428 0.8429
607.000000 0.8430 0.8431 0.8433 0.8434 0.8435
612.000000 0.8436 0.8437 0.8438 0.8438 0.8435
617.000000 0.8431 0.8428 0.8425 0.8422 0.8418
622.000000 0.8415 0.8412 0.8406 0.8399 0.8391
627.000000 0.8384 0.8376 0.8369 0.8359 0.8347
632.000000 0.8336 0.8325 0.8313 0.8302 0.8290
637.000000 0.8279 0.8260 0.8239 0.8219 0.8199
642.000000 0.8176 0.8153 0.8130 0.8106 0.8083
647.000000 0.8060 0.8031 0.8002 0.7973 0.7943
652.000000 0.7913 0.7878 0.7843 0.7829 0.7828
657.000000 0.7826 0.7890 0.7976 0.8036 0.8092
662.000000 0.8140 0.8186 0.8218 0.8244 0.8269
667.000000 0.8280 0.8291 0.8302 0.8313 0.8317
672.000000 0.8320 0.8324 0.8327 0.8331 0.8330
677.000000 0.8327 0.8325 0.8320 0.8315 0.8311
682.000000 0.8328 0.8301 0.8291 0.8276 0.8262
687.000000 0.8247 0.8231 0.8214 0.8197 0.8180
692.000000 0.8163 0.8139 0.8113 0.8087 0.8061
697.000000 0.8035 0.8008 0.7973 0.7939 0.7904
702.000000 0.7870 0.7827 0.7767 0.7706 0.7646
707.000000 0.7587 0.7527 0.7468 0.7409 0.7349
712.000000 0.7271 0.7171 0.7071 0.6918 0.6766
717.000000 0.6619 0.6478 0.6327 0.6021 0.6011
722.000000 0.6011 0.6025 0.6188 0.6311 0.6418
727.000000 0.6524 0.6630 0.6736 0.6799 0.6848
732.000000 0.6885 0.6923 0.6960 0.6997 0.7033
737.000000 0.7068 0.7104 0.7134 0.7163 0.7192
742.000000 0.7221 0.7254 0.7288 0.7321 0.7355
747.000000 0.7381 0.7406 0.7430 0.7455 0.7479
752.000000 0.7504 0.7527 0.7549 0.7572 0.7594
757.000000 0.7616 0.7638 0.7660 0.7686 0.7711
762.000000 0.7737 0.7763 0.7788 0.7812 0.7832
767.000000 0.7852 0.7872 0.7893 0.7913 0.7931
772.000000 0.7944 0.7958 0.7971 0.7984 0.7998
777.000000 0.8006 0.8013 0.8019 0.8025 0.8032
782.000000 0.8038 0.8044 0.8051 0.8056 0.8060
787.000000 0.8064 0.8068 0.8072 0.8076 0.8080
792.000000 0.8084 0.8085 0.8073 0.8086 0.8087
797.000000 0.8088 0.8089 0.8090 0.8091 0.8090
802.000000 0.8088 0.8086 0.8085 0.8083 0.8081
807.000000 0.8077 0.8070 0.8063 0.8056 0.8050
812.000000 0.8043 0.8036 0.8037 0.8043 0.8053
817.000000 0.8065 0.8078 0.8090 0.8098 0.8105
822.000000 0.8108 0.8109 0.8110 0.8109 0.8106
827.000000 0.8103 0.8100 0.8097 0.8086 0.8076
832.000000 0.8065 0.8055 0.8042 0.8028 0.8013
837.000000 0.7998 0.7984 0.7964 0.7938 0.7912
842.000000 0.7880 0.7828 0.7775 0.7722 0.7650
847.000000 0.7571 0.7492 0.7388 0.7278 0.7204
852.000000 0.7129 0.7060 0.6997 0.6934 0.6880
857.000000 0.6829 0.6778 0.6721 0.6664 0.6629
862.000000 0.6613 0.6610 0.6618 0.6627 0.6636
867.000000 0.6645 0.6661 0.6680 0.6699 0.6720
872.000000 0.6748 0.6775 0.6803 0.6830 0.6859
877.000000 0.6890 0.6920 0.6951 0.6982 0.7013
882.000000 0.7044 0.7075 0.7109 0.7144 0.7179
887.000000 0.7214 0.7250 0.7285 0.7320 0.7354
892.000000 0.7388 0.7422 0.7457 0.7491 0.7525
897.000000 0.7556 0.7577 0.7597 0.7609 0.7607
902.000000 0.7603 0.7599 0.7595 0.7591 0.7618
907.000000 0.7581 0.7573 0.7563 0.7552 0.7542
912.000000 0.7527 0.7512 0.7498 0.7481 0.7457
917.000000 0.7434 0.7410 0.7382 0.7350 0.7318
922.000000 0.7286 0.7253 0.7227 0.7202 0.7176
927.000000 0.7150 0.7125 0.7100 0.7077 0.7096
932.000000 0.7068 0.7074 0.7093 0.7112 0.7144
937.000000 0.7189 0.7227 0.7272 0.7317 0.7362
942.000000 0.7405 0.7446 0.7477 0.7489 0.7502
947.000000 0.7515 0.7528 0.7541 0.7554 0.7564
952.000000 0.7569 0.7574 0.7579 0.7583 0.7577
957.000000 0.7580 0.7559 0.7549 0.7540 0.7530
962.000000 0.7516 0.7501 0.7486 0.7472 0.7457
967.000000 0.7442 0.7421 0.7394 0.7366 0.7342
972.000000 0.7320 0.7297 0.7275 0.7252 0.7230
977.000000 0.7198 0.7165 0.7133 0.7101 0.7064
982.000000 0.7022 0.6979 0.6937 0.6895 0.6852
987.000000 0.6814 0.6777 0.6741 0.6704 0.6668
992.000000 0.6631 0.6594 0.6558 0.6517 0.6475
997.000000 0.6432 0.6390 0.6347 0.6305 0.6262
1002.000000 0.6220 0.6178 0.6136 0.6094 0.6051
1007.000000 0.6009 0.5968 0.5927 0.5886 0.5844
1012.000000 0.5814 0.5793 0.5771 0.5750 0.5729
1017.000000 0.5718 0.5711 0.5705 0.5704 0.5703
1022.000000 0.5703 0.5702 0.5702 0.5704 0.5706
1027.000000 0.5708 0.5708 0.5691 0.5665 0.5636
1032.000000 0.5608 0.5575 0.5542 0.5509 0.5476
1037.000000 0.5440 0.5403 0.5365 0.5328 0.5291
1042.000000 0.5239 0.5186 0.5134 0.5082 0.5026
1047.000000 0.4965 0.4905 0.4845 0.4784 0.4735
1052.000000 0.4687 0.4661 0.4678 0.4684 0.4690
1057.000000 0.4697 0.4703 0.4719 0.4741 0.4772
1062.000000 0.4813 0.4863 0.4913 0.4963 0.5010
1067.000000 0.5057 0.5102 0.5139 0.5176 0.5210
1072.000000 0.5234 0.5257 0.5273 0.5285 0.5296
1077.000000 0.5308 0.5319 0.5331 0.5337 0.5343
1082.000000 0.5349 0.5355 0.5361 0.5367 0.5375
1087.000000 0.5386 0.5396 0.5408 0.5433 0.5457
1092.000000 0.5482 0.5506 0.5528 0.5549 0.5569
1097.000000 0.5590 0.5614 0.5641 0.5667 0.5693
1102.000000 0.5844 0.6135 0.6267 0.6370 0.6470
1107.000000 0.6572 0.6700 0.6817 0.6923 0.6987
1112.000000 0.7034 0.7078 0.7095 0.7105 0.7147
1117.000000 0.7117 0.7110 0.7101 0.7072 0.7047
1122.000000 0.7022 0.6989 0.6953 0.6916 0.6872
1127.000000 0.6827 0.6783 0.6740 0.6698 0.6656
1132.000000 0.6614 0.6567 0.6512 0.6458 0.6403
1137.000000 0.6335 0.6265 0.6182 0.6084 0.5574
1142.000000 0.5425 0.5276 0.5130 0.4984 0.4799
1147.000000 0.4613 0.4427 0.3742 0.3601 0.3388
1152.000000 0.3098 0.2795 0.2593 0.2462 0.2303
1157.000000 0.2052 0.1880 0.1726 0.1563 0.1375
1162.000000 0.1226 0.1098 0.0986 0.0896 0.0825
1167.000000 0.0777 0.0766 0.0766 0.0766 0.0773
1172.000000 0.0789 0.0801 0.0825 0.0854 0.0896
1177.000000 0.0935 0.0972 0.1029 0.1099 0.1161
1182.000000 0.1218 0.1257 0.1244 0.1241 0.1237
1187.000000 0.1232 0.1225 0.1208 0.1191 0.1170
1192.000000 0.1148 0.1130 0.1111 0.1101 0.1093
1197.000000 0.1085 0.1077 0.1073 0.1066 0.1074
1202.000000 0.1083 0.1092 0.1103 0.1123 0.1144
1207.000000 0.1185 0.1240 0.1323 0.1387 0.1421
1212.000000 0.1433 0.1443 0.1450 0.1458 0.1468
1217.000000 0.1481 0.1511 0.1583 0.1771 0.1959
1222.000000 0.2147 0.2335 0.2522 0.2710 0.2898
1227.000000 0.3086 0.3274 0.3462 0.3649 0.3775
1232.000000 0.3774 0.3772 0.3764 0.3617 0.3186
1237.000000 0.2756 0.2326 0.1895 0.1465 0.1050
1242.000000 0.0984 0.0931 0.0898 0.0884 0.0862
1247.000000 0.0890 0.1236 0.1611 0.1958 0.2142
1252.000000 0.2291 0.2409 0.2609 0.2708 0.2798
1257.000000 0.2874 0.2948 0.2995 0.3043 0.3090
1262.000000 0.3138 0.3188 0.3239 0.3289 0.3328
1267.000000 0.3363 0.3398 0.3433 0.3489 0.3563
1272.000000 0.3667 0.3958 0.4127 0.4290 0.4436
1277.000000 0.4533 0.4630 0.4727 0.4842 0.4959
1282.000000 0.5082 0.5221 0.5265 0.5309 0.5349
1287.000000 0.5370 0.5390 0.5406 0.5407 0.5408
1292.000000 0.5417 0.5403 0.5388 0.5367 0.5339
1297.000000 0.5296 0.5241 0.5166 0.5069 0.4926
1302.000000 0.4863 0.4800 0.4723 0.4630 0.4529
1307.000000 0.4423 0.4322 0.4225 0.4162 0.4099
1312.000000 0.4036 0.3986 0.3939 0.3893 0.3850
1317.000000 0.3812 0.3791 0.3776 0.3770 0.3777
1322.000000 0.3783 0.3793 0.3803 0.3821 0.3848
1327.000000 0.3882 0.3917 0.3954 0.3992 0.4031
1332.000000 0.4072 0.4115 0.4159 0.4212 0.4286
1337.000000 0.4363 0.4442 0.4550 0.4673 0.4795
1342.000000 0.4909 0.5014 0.5062 0.5077 0.5078
1347.000000 0.5122 0.4990 0.4938 0.4887 0.4838
1352.000000 0.4786 0.4734 0.4678 0.4621 0.4570
1357.000000 0.4524 0.4485 0.4463 0.4441 0.4418
1362.000000 0.4409 0.4403 0.4404 0.4396 0.4400
1367.000000 0.4404 0.4432 0.4481 0.4544 0.4636
1372.000000 0.4778 0.4897 0.4915 0.4920 0.4932
1377.000000 0.4780 0.4689 0.4654 0.4648 0.5324
1382.000000 0.5354 0.5350 0.5360 0.5287 0.5246
1387.000000 0.5193 0.5118 0.4968 0.4896 0.4829
1392.000000 0.4776 0.4741 0.4728 0.4725 0.4721
1397.000000 0.4719 0.4717 0.4719 0.4735 0.4773
1402.000000 0.4835 0.4898 0.5005 0.5159 0.5397
1407.000000 0.5635 0.5794 0.5935 0.6075 0.6211
1412.000000 0.6346 0.6452 0.6556 0.6657 0.6733
1417.000000 0.6811 0.6893 0.6934 0.6963 0.6992
1422.000000 0.7016 0.7031 0.7037 0.7038 0.7005
1427.000000 0.6972 0.6904 0.6827 0.6749 0.6617
1432.000000 0.6404 0.6185 0.6042 0.5900 0.5760
1437.000000 0.5596 0.5430 0.5265 0.5100 0.5007
1442.000000 0.4984 0.4971 0.4957 0.4940 0.4915
1447.000000 0.4810 0.4630 0.4451 0.4271 0.4091
1452.000000 0.3912 0.3732 0.3553 0.3373 0.3193
1457.000000 0.3094 0.2988 0.2976 0.2965 0.2963
1462.000000 0.2961 0.2959 0.2806 0.2646 0.2485
1467.000000 0.2325 0.2164 0.2170 0.2366 0.3052
1472.000000 0.3739 0.4034 0.4362 0.4512 0.4777
1477.000000 0.5775 0.6034 0.6192 0.6354 0.6541
1482.000000 0.6712 0.6856 0.6968 0.7058 0.7114
1487.000000 0.7134 0.7152 0.7154 0.7157 0.7137
1492.000000 0.7156 0.7152 0.7148 0.7135 0.7123
1497.000000 0.7108 0.7076 0.7044 0.7015 0.6987
1502.000000 0.6960 0.6927 0.6888 0.6849 0.6810
1507.000000 0.6772 0.6726 0.6677 0.6627 0.6578
1512.000000 0.6529 0.6484 0.6442 0.6400 0.6358
1517.000000 0.6316 0.6274 0.6232 0.6190 0.6145
1522.000000 0.6099 0.6052 0.6005 0.5959 0.5912
1527.000000 0.5866 0.5805 0.5741 0.5677 0.5614
1532.000000 0.5550 0.5472 0.5394 0.5317 0.5239
1537.000000 0.5134 0.5027 0.4920 0.4828 0.4746
1542.000000 0.4665 0.4584 0.4513 0.4442 0.4389
1547.000000 0.4337 0.4304 0.4279 0.4265 0.4261
1552.000000 0.4263 0.4272 0.4285 0.4303 0.4322
1557.000000 0.4353 0.4389 0.4458 0.4553 0.4657
1562.000000 0.4751 0.4844 0.4938 0.5032 0.5117
1567.000000 0.5193 0.5262 0.5321 0.5380 0.5442
1572.000000 0.5505 0.5569 0.5616 0.5661 0.5705
1577.000000 0.5726 0.5746 0.5766 0.5779 0.5792
1582.000000 0.5806 0.5819 0.5832 0.5855 0.5884
1587.000000 0.5914 0.5957 0.6000 0.6088 0.6215
1592.000000 0.6331 0.6415 0.6499 0.6585 0.6672
1597.000000 0.6759 0.6869 0.6976 0.7063 0.7149
1602.000000 0.7218 0.7286 0.7346 0.7391 0.7436
1607.000000 0.7481 0.7526 0.7581 0.7638 0.7694
1612.000000 0.7741 0.7785 0.7829 0.7874 0.7906
1617.000000 0.7937 0.7965 0.7984 0.8003 0.8019
1622.000000 0.8035 0.8051 0.8066 0.8076 0.8086
1627.000000 0.8096 0.8106 0.8115 0.8122 0.8129
1632.000000 0.8135 0.8142 0.8143 0.8143 0.8143
1637.000000 0.8143 0.8144 0.8145 0.8146 0.8147
1642.000000 0.8146 0.8145 0.8144 0.8143 0.8140
1647.000000 0.8135 0.8130 0.8125 0.8120 0.8115
1652.000000 0.8108 0.8100 0.8092 0.8085 0.8077
1657.000000 0.8069 0.8059 0.8050 0.8040 0.8026
1662.000000 0.8012 0.8000 0.7987 0.7975 0.7963
1667.000000 0.7950 0.7931 0.7913 0.7894 0.7860
1672.000000 0.7825 0.7793 0.7762 0.7732 0.7702
1677.000000 0.7670 0.7632 0.7595 0.7557 0.7505
1682.000000 0.7441 0.7375 0.7306 0.7232 0.7152
1687.000000 0.7066 0.6964 0.6871 0.6787 0.6712
1692.000000 0.6637 0.6579 0.6530 0.6482 0.6429
1697.000000 0.6375 0.6313 0.6229 0.6121 0.5980
1702.000000 0.5827 0.5697 0.5574 0.5459 0.5125
1707.000000 0.4909 0.4771 0.4687 0.4603 0.4499
1712.000000 0.4351 0.4184 0.3866 0.3406 0.3138
1717.000000 0.2941 0.2751 0.2503 0.2242 0.1954
1722.000000 0.1681 0.1254 0.0947 0.0289 0.0174
1727.000000 0.0118 0.0093 0.0057 0.0036 0.0019
1732.000000 0.0001 0.0000 0.0000 0.0000 0.0000
1737.000000 0.0000 0.0000 0.0000 0.0012 0.0033
1742.000000 0.0056 0.0084 0.0110 0.0146 0.0267
1747.000000 0.0558 0.1080 0.1532 0.1983 0.2435
1752.000000 0.2886 0.4383 0.4475 0.4567 0.5324
1757.000000 0.5525 0.5691 0.5846 0.5955 0.6064
1762.000000 0.6172 0.6270 0.6367 0.6490 0.6614
1767.000000 0.6725 0.6768 0.6811 0.6854 0.6898
1772.000000 0.6997 0.7092 0.7175 0.7208 0.7248
1777.000000 0.7289 0.7337 0.7385 0.7431 0.7473
1782.000000 0.7512 0.7543 0.7575 0.7606 0.7635
1787.000000 0.7664 0.7693 0.7722 0.7740 0.7758
1792.000000 0.7775 0.7793 0.7810 0.7828 0.7845
1797.000000 0.7863 0.7880 0.7898 0.7915 0.7933
1802.000000 0.7950 0.7966 0.7983 0.8000 0.8017
1807.000000 0.8033 0.8047 0.8059 0.8071 0.8083
1812.000000 0.8095 0.8107 0.8120 0.8132 0.8144
1817.000000 0.8156 0.8167 0.8178 0.8189 0.8199
1822.000000 0.8210 0.8221 0.8231 0.8242 0.8253
1827.000000 0.8263 0.8272 0.8279 0.8286 0.8293
1832.000000 0.8301 0.8308 0.8315 0.8322 0.8329
1837.000000 0.8336 0.8344 0.8351 0.8357 0.8363
1842.000000 0.8369 0.8375 0.8381 0.8387 0.8393
1847.000000 0.8399 0.8405 0.8412 0.8418 0.8424
1852.000000 0.8430 0.8436 0.8443 0.8449 0.8455
1857.000000 0.8462 0.8468 0.8474 0.8480 0.8486
1862.000000 0.8488 0.8491 0.8493 0.8495 0.8497
1867.000000 0.8499 0.8501 0.8503 0.8505 0.8507
1872.000000 0.8509 0.8511 0.8513 0.8514 0.8515
1877.000000 0.8516 0.8517 0.8518 0.8519 0.8520
1882.000000 0.8521 0.8523 0.8526 0.8528 0.8531
1887.000000 0.8533 0.8535 0.8538 0.8540 0.8543
1892.000000 0.8545 0.8547 0.8550 0.8553 0.8556
1897.000000 0.8560 0.8563 0.8566 0.8570 0.8573
1902.000000 0.8576 0.8580 0.8583 0.8586 0.8590
1907.000000 0.8593 0.8596 0.8600 0.8603 0.8606
1912.000000 0.8610 0.8613 0.8616 0.8617 0.8619
1917.000000 0.8621 0.8623 0.8625 0.8627 0.8629
1922.000000 0.8631 0.8633 0.8632 0.8632 0.8631
1927.000000 0.8630 0.8630 0.8629 0.8628 0.8627
1932.000000 0.8627 0.8626 0.8625 0.8625 0.8624
1937.000000 0.8623 0.8622 0.8622 0.8621 0.8620
1942.000000 0.8620 0.8618 0.8616 0.8614 0.8613
1947.000000 0.8611 0.8609 0.8607 0.8605 0.8603
1952.000000 0.8601 0.8600 0.8598 0.8596 0.8594
1957.000000 0.8592 0.8590 0.8589 0.8587 0.8584
1962.000000 0.8582 0.8580 0.8578 0.8576 0.8573
1967.000000 0.8571 0.8569 0.8567 0.8565 0.8562
1972.000000 0.8559 0.8555 0.8552 0.8548 0.8544
1977.000000 0.8541 0.8537 0.8534 0.8530 0.8526
1982.000000 0.8523 0.8519 0.8515 0.8510 0.8505
1987.000000 0.8500 0.8495 0.8489 0.8484 0.8479
1992.000000 0.8461 0.8443 0.8405 0.8350 0.8292
1997.000000 0.8226 0.8214 0.8290 0.8359 0.8418
2002.000000 0.8477 0.8479 0.8481 0.8483 0.8486
2007.000000 0.8488 0.8491 0.8492 0.8494 0.8495
2012.000000 0.8497 0.8498 0.8499 0.8499 0.8500
2017.000000 0.8500 0.8501 0.8501 0.8502 0.8502
2022.000000 0.8502 0.8502 0.8503 0.8503 0.8503
2027.000000 0.8503 0.8503 0.8503 0.8504 0.8504
2032.000000 0.8504 0.8504 0.8505 0.8505 0.8505
2037.000000 0.8505 0.8506 0.8507 0.8509 0.8510
2042.000000 0.8511 0.8512 0.8514 0.8515 0.8516
2047.000000 0.8517 0.8519 0.8520 0.8521 0.8520
2052.000000 0.8520 0.8520 0.8520 0.8519 0.8519
2057.000000 0.8519 0.8519 0.8519 0.8519 0.8518
2062.000000 0.8518 0.8518 0.8518 0.8517 0.8517
2067.000000 0.8518 0.8519 0.8520 0.8521 0.8522
2072.000000 0.8523 0.8524 0.8525 0.8526 0.8527
2077.000000 0.8527 0.8528 0.8529 0.8530 0.8531
2082.000000 0.8532 0.8533 0.8534 0.8535 0.8536
2087.000000 0.8537 0.8538 0.8539 0.8541 0.8542
2092.000000 0.8544 0.8545 0.8547 0.8548 0.8549
2097.000000 0.8550 0.8552 0.8553 0.8555 0.8556
2102.000000 0.8558 0.8559 0.8561 0.8562 0.8563
2107.000000 0.8564 0.8566 0.8567 0.8569 0.8570
2112.000000 0.8572 0.8573 0.8575 0.8576 0.8577
2117.000000 0.8578 0.8580 0.8581 0.8582 0.8583
2122.000000 0.8584 0.8584 0.8585 0.8586 0.8587
2127.000000 0.8587 0.8588 0.8588 0.8589 0.8590
2132.000000 0.8591 0.8591 0.8592 0.8592 0.8592
2137.000000 0.8591 0.8590 0.8589 0.8589 0.8588
2142.000000 0.8587 0.8586 0.8585 0.8584 0.8584
2147.000000 0.8583 0.8582 0.8580 0.8579 0.8577
2152.000000 0.8576 0.8575 0.8574 0.8572 0.8571
2157.000000 0.8569 0.8568 0.8567 0.8566 0.8564
2162.000000 0.8563 0.8562 0.8561 0.8561 0.8550
2167.000000 0.8561 0.8561 0.8562 0.8563 0.8565
2172.000000 0.8568 0.8571 0.8575 0.8578 0.8582
2177.000000 0.8585 0.8589 0.8592 0.8596 0.8598
2182.000000 0.8601 0.8602 0.8604 0.8605 0.8606
2187.000000 0.8606 0.8606 0.8606 0.8607 0.8607
2192.000000 0.8608 0.8608 0.8609 0.8609 0.8609
2197.000000 0.8609 0.8610 0.8610 0.8611 0.8611
2202.000000 0.8611 0.8611 0.8612 0.8612 0.8613
2207.000000 0.8613 0.8613 0.8613 0.8613 0.8612
2212.000000 0.8612 0.8612 0.8612 0.8611 0.8611
2217.000000 0.8611 0.8611 0.8610 0.8610 0.8609
2222.000000 0.8608 0.8607 0.8606 0.8604 0.8603
2227.000000 0.8601 0.8600 0.8599 0.8598 0.8596
2232.000000 0.8595 0.8594 0.8593 0.8591 0.8589
2237.000000 0.8587 0.8586 0.8584 0.8582 0.8580
2242.000000 0.8578 0.8576 0.8575 0.8573 0.8571
2247.000000 0.8569 0.8567 0.8565 0.8564 0.8560
2252.000000 0.8556 0.8552 0.8549 0.8545 0.8541
2257.000000 0.8537 0.8533 0.8529 0.8525 0.8521
2262.000000 0.8517 0.8513 0.8509 0.8505 0.8501
2267.000000 0.8497 0.8493 0.8488 0.8484 0.8479
2272.000000 0.8474 0.8469 0.8465 0.8460 0.8455
2277.000000 0.8450 0.8446 0.8441 0.8436 0.8430
2282.000000 0.8425 0.8419 0.8414 0.8408 0.8402
2287.000000 0.8396 0.8391 0.8385 0.8380 0.8375
2292.000000 0.8370 0.8367 0.8364 0.8361 0.8358
2297.000000 0.8356 0.8354 0.8354 0.8354 0.8354
2302.000000 0.8354 0.8354 0.8354 0.8354 0.8354
2307.000000 0.8354 0.8355 0.8355 0.8356 0.8357
2312.000000 0.8358 0.8358 0.8359 0.8360 0.8361
2317.000000 0.8361 0.8362 0.8360 0.8359 0.8358
2322.000000 0.8357 0.8355 0.8354 0.8352 0.8351
2327.000000 0.8350 0.8349 0.8347 0.8346 0.8344
2332.000000 0.8343 0.8340 0.8326 0.8335 0.8333
2337.000000 0.8330 0.8328 0.8325 0.8323 0.8320
2342.000000 0.8318 0.8315 0.8313 0.8310 0.8308
2347.000000 0.8305 0.8303 0.8300 0.8298 0.8295
2352.000000 0.8293 0.8291 0.8289 0.8287 0.8286
2357.000000 0.8285 0.8284 0.8283 0.8282 0.8281
2362.000000 0.8280 0.8278 0.8277 0.8276 0.8275
2367.000000 0.8279 0.8283 0.8287 0.8291 0.8295
2372.000000 0.8299 0.8308 0.8317 0.8328 0.8339
2377.000000 0.8350 0.8361 0.8374 0.8387 0.8404
2382.000000 0.8422 0.8432 0.8443 0.8451 0.8460
2387.000000 0.8468 0.8477 0.8485 0.8493 0.8498
2392.000000 0.8504 0.8508 0.8513 0.8517 0.8522
2397.000000 0.8524 0.8527 0.8529 0.8531 0.8533
2402.000000 0.8536 0.8538 0.8541 0.8543 0.8545
2407.000000 0.8547 0.8549 0.8551 0.8553 0.8555
2412.000000 0.8557 0.8559 0.8561 0.8563 0.8565
2417.000000 0.8566 0.8567 0.8567 0.8568 0.8568
2422.000000 0.8568 0.8568 0.8569 0.8569 0.8569
2427.000000 0.8569 0.8570 0.8570 0.8570 0.8570
2432.000000 0.8571 0.8571 0.8571 0.8571 0.8572
2437.000000 0.8573 0.8574 0.8575 0.8576 0.8577
2442.000000 0.8578 0.8579 0.8580 0.8581 0.8582
2447.000000 0.8583 0.8584 0.8585 0.8587 0.8588
2452.000000 0.8589 0.8589 0.8590 0.8590 0.8591
2457.000000 0.8591 0.8591 0.8591 0.8591 0.8591
2462.000000 0.8592 0.8592 0.8592 0.8592 0.8593
2467.000000 0.8593 0.8593 0.8593 0.8593 0.8593
2472.000000 0.8594 0.8594 0.8594 0.8594 0.8594
2477.000000 0.8594 0.8595 0.8594 0.8594 0.8593
2482.000000 0.8593 0.8592 0.8592 0.8591 0.8591
2487.000000 0.8590 0.8590 0.8589 0.8589 0.8588
2492.000000 0.8588 0.8588 0.8588 0.8587 0.8587
2497.000000 0.8586 0.8586 0.8585 0.8585 0.8584
2502.000000 0.8584 0.8582 0.8581 0.8579 0.8578
2507.000000 0.8577 0.8576 0.8574 0.8573 0.8571
2512.000000 0.8570 0.8568 0.8567 0.8566 0.8565
2517.000000 0.8563 0.8562 0.8560 0.8559 0.8558
2522.000000 0.8557 0.8555 0.8554 0.8552 0.8551
2527.000000 0.8549 0.8555 0.8546 0.8545 0.8543
2532.000000 0.8542 0.8540 0.8539 0.8537 0.8536
2537.000000 0.8534 0.8533 0.8531 0.8530 0.8528
2542.000000 0.8527 0.8525 0.8524 0.8522 0.8521
2547.000000 0.8519 0.8518 0.8516 0.8515 0.8513
2552.000000 0.8512 0.8510 0.8508 0.8506 0.8504
2557.000000 0.8501 0.8499 0.8497 0.8495 0.8492
2562.000000 0.8490 0.8488 0.8486 0.8483 0.8481
2567.000000 0.8479 0.8477 0.8474 0.8472 0.8469
2572.000000 0.8467 0.8465 0.8463 0.8460 0.8458
2577.000000 0.8456 0.8454 0.8451 0.8449 0.8446
2582.000000 0.8444 0.8441 0.8438 0.8435 0.8432
2587.000000 0.8429 0.8426 0.8422 0.8419 0.8416
2592.000000 0.8413 0.8410 0.8407 0.8404 0.8401
2597.000000 0.8398 0.8395 0.8392 0.8389 0.8385
2602.000000 0.8382 0.8379 0.8376 0.8373 0.8370
2607.000000 0.8367 0.8364 0.8361 0.8358 0.8355
2612.000000 0.8352 0.8349 0.8346 0.8343 0.8340
2617.000000 0.8337 0.8334 0.8331 0.8328 0.8325
2622.000000 0.8322 0.8319 0.8316 0.8313 0.8310
2627.000000 0.8307 0.8304 0.8301 0.8298 0.8295
2632.000000 0.8292 0.8289 0.8286 0.8283 0.8280
2637.000000 0.8277 0.8274 0.8271 0.8268 0.8265
2642.000000 0.8262 0.8259 0.8256 0.8251 0.8247
2647.000000 0.8242 0.8237 0.8232 0.8228 0.8223
2652.000000 0.8219 0.8214 0.8210 0.8205 0.8201
2657.000000 0.8196 0.8191 0.8186 0.8182 0.8177
2662.000000 0.8173 0.8168 0.8164 0.8160 0.8157
2667.000000 0.8154 0.8151 0.8148 0.8145 0.8142
2672.000000 0.8139 0.8136 0.8134 0.8131 0.8129
2677.000000 0.8129 0.8130 0.8130 0.8131 0.8131
2682.000000 0.8132 0.8132 0.8133 0.8133 0.8134
2687.000000 0.8134 0.8135 0.8135 0.8136 0.8138
2692.000000 0.8141 0.8143 0.8146 0.8148 0.8151
2697.000000 0.8153 0.8155 0.8157 0.8160 0.8162
2702.000000 0.8165 0.8167 0.8169 0.8166 0.8163
2707.000000 0.8160 0.8158 0.8155 0.8152 0.8149
2712.000000 0.8146 0.8143 0.8140 0.8136 0.8132
2717.000000 0.8128 0.8124 0.8120 0.8116 0.8112
2722.000000 0.8108 0.8103 0.8098 0.8093 0.8088
2727.000000 0.8082 0.8077 0.8072 0.8067 0.8064
2732.000000 0.8062 0.8059 0.8056 0.8053 0.8051
2737.000000 0.8052 0.8053 0.8056 0.8059 0.8062
2742.000000 0.8066 0.8069 0.8073 0.8076 0.8080
2747.000000 0.8083 0.8087 0.8090 0.8094 0.8097
2752.000000 0.8101 0.8104 0.8108 0.8107 0.8107
2757.000000 0.8106 0.8105 0.8104 0.8103 0.8102
2762.000000 0.8102 0.8097 0.8093 0.8087 0.8082
2767.000000 0.8076 0.8070 0.8064 0.8058 0.8052
2772.000000 0.8047 0.8041 0.8035 0.8029 0.8023
2777.000000 0.8013 0.8004 0.7993 0.7982 0.7971
2782.000000 0.7960 0.7949 0.7938 0.7927 0.7916
2787.000000 0.7901 0.7887 0.7868 0.7849 0.7830
2792.000000 0.7811 0.7791 0.7772 0.7753 0.7734
2797.000000 0.7714 0.7695 0.7674 0.7653 0.7632
2802.000000 0.7612 0.7591 0.7571 0.7550 0.7529
2807.000000 0.7506 0.7483 0.7460 0.7437 0.7414
2812.000000 0.7391 0.7368 0.7345 0.7322 0.7299
2817.000000 0.7272 0.7246 0.7193 0.7140 0.7087
2822.000000 0.7035 0.6975 0.6915 0.6808 0.6701
2827.000000 0.6519 0.6337 0.6284 0.6232 0.6157
2832.000000 0.6083 0.5928 0.5774 0.5607 0.5441
2837.000000 0.5222 0.5003 0.4786 0.4570 0.4494
2842.000000 0.4418 0.4009 0.3600 0.3027 0.2454
2847.000000 0.2197 0.1940 0.1683 0.1427 0.1170
2852.000000 0.0913 0.0667 0.0422 0.0352 0.0283
2857.000000 0.0269 0.0258 0.0254 0.0254 0.0263
2862.000000 0.0272 0.0284 0.0297 0.0313 0.0330
2867.000000 0.0891 0.1453 0.1480 0.1507 0.1518
2872.000000 0.1529 0.1538 0.1548 0.1555 0.1562
2877.000000 0.1578 0.1594 0.1780 0.1966 0.2159
2882.000000 0.2352 0.2530 0.2709 0.2707 0.2706
2887.000000 0.2655 0.2727 0.2506 0.2408 0.2309
2892.000000 0.2211 0.2113 0.2015 0.1916 0.1818
2897.000000 0.1719 0.1621 0.1523 0.1426 0.1321
2902.000000 0.1217 0.1126 0.1035 0.0968 0.0902
2907.000000 0.0840 0.0778 0.0713 0.0648 0.0575
2912.000000 0.0502 0.0461 0.0421 0.0393 0.0365
2917.000000 0.0336 0.0308 0.0272 0.0236 0.0199
2922.000000 0.0162 0.0131 0.0100 0.0079 0.0059
2927.000000 0.0038 0.0018 0.0010 0.0002 0.0001
2932.000000 0.0001 0.0001 0.0001 0.0000 0.0001
2937.000000 0.0000 0.0000 0.0000 0.0000 0.0000
2942.000000 0.0000 0.0010 0.0020 0.0101 0.0182
2947.000000 0.0188 0.0194 0.0198 0.0203 0.0206
2952.000000 0.0210 0.0212 0.0215 0.0217 0.0220
2957.000000 0.0221 0.0222 0.0223 0.0224 0.0224
2962.000000 0.0224 0.0228 0.0232 0.0243 0.0254
2967.000000 0.0567 0.0881 0.1086 0.1291 0.1496
2972.000000 0.1701 0.1906 0.2112 0.2325 0.2538
2977.000000 0.2584 0.2631 0.2767 0.2903 0.2984
2982.000000 0.3066 0.3142 0.3218 0.3302 0.3387
2987.000000 0.3538 0.3689 0.3781 0.3874 0.3916
2992.000000 0.3959 0.4002 0.4045 0.4084 0.4124
2997.000000 0.4162 0.4201 0.4252 0.4304 0.4549
3002.000000 0.4794 0.5192 0.5591 0.5771 0.5952
3007.000000 0.6092 0.6233 0.6334 0.6435 0.6561
3012.000000 0.6688 0.6749 0.6811 0.6870 0.6930
3017.000000 0.6975 0.7020 0.7063 0.7107 0.7145
3022.000000 0.7184 0.7213 0.7242 0.7271 0.7300
3027.000000 0.7328 0.7357 0.7383 0.7409 0.7435
3032.000000 0.7461 0.7486 0.7512 0.7533 0.7554
3037.000000 0.7573 0.7592 0.7611 0.7631 0.7649
3042.000000 0.7668 0.7686 0.7704 0.7722 0.7740
3047.000000 0.7758 0.7776 0.7790 0.7804 0.7817
3052.000000 0.7831 0.7845 0.7859 0.7872 0.7886
3057.000000 0.7899 0.7913 0.7922 0.7931 0.7940
3062.000000 0.7949 0.7958 0.7967 0.7976 0.7985
3067.000000 0.7994 0.8003 0.8012 0.8021 0.8030
3072.000000 0.8039 0.8047 0.8055 0.8061 0.8067
3077.000000 0.8073 0.8080 0.8086 0.8092 0.8097
3082.000000 0.8103 0.8108 0.8114 0.8116 0.8119
3087.000000 0.8121 0.8123 0.8125 0.8128 0.8130
3092.000000 0.8133 0.8135 0.8138 0.8141 0.8144
3097.000000 0.8147 0.8150 0.8152 0.8155 0.8158
3102.000000 0.8161 0.8164 0.8168 0.8173 0.8178
3107.000000 0.8183 0.8188 0.8193 0.8198 0.8203
3112.000000 0.8208 0.8213 0.8218 0.8222 0.8227
3117.000000 0.8232 0.8237 0.8240 0.8243 0.8246
3122.000000 0.8250 0.8253 0.8256 0.8258 0.8261
3127.000000 0.8262 0.8264 0.8266 0.8268 0.8269
3132.000000 0.8271 0.8273 0.8275 0.8276 0.8278
3137.000000 0.8280 0.8282 0.8283 0.8285 0.8286
3142.000000 0.8288 0.8289 0.8290 0.8291 0.8293
3147.000000 0.8294 0.8295 0.8296 0.8297 0.8298
3152.000000 0.8299 0.8300 0.8301 0.8302 0.8303
3157.000000 0.8304 0.8305 0.8306 0.8308 0.8309
3162.000000 0.8310 0.8311 0.8312 0.8313 0.8315
3167.000000 0.8316 0.8317 0.8318 0.8320 0.8321
3172.000000 0.8322 0.8323 0.8325 0.8326 0.8327
3177.000000 0.8328 0.8330 0.8331 0.8332 0.8333
3182.000000 0.8334 0.8335 0.8337 0.8338 0.8339
3187.000000 0.8340 0.8342 0.8343 0.8344 0.8345
3192.000000 0.8346 0.8347 0.8348 0.8349 0.8350
3197.000000 0.8351 0.8352 0.8352 0.8353 0.8354
3202.000000 0.8355 0.8356 0.8357 0.8358 0.8359
3207.000000 0.8360 0.8361 0.8361 0.8362 0.8363
3212.000000 0.8364 0.8365 0.8366 0.8367 0.8368
3217.000000 0.8369 0.8370 0.8371 0.8372 0.8372
3222.000000 0.8373 0.8374 0.8375 0.8376 0.8377
3227.000000 0.8378 0.8379 0.8379 0.8379 0.8379
3232.000000 0.8380 0.8380 0.8380 0.8380 0.8379
3237.000000 0.8381 0.8381 0.8381 0.8381 0.8381
3242.000000 0.8382 0.8382 0.8382 0.8382 0.8383
3247.000000 0.8383 0.8383 0.8383 0.8384 0.8384
3252.000000 0.8384 0.8384 0.8385 0.8385 0.8385
3257.000000 0.8385 0.8385 0.8385 0.8386 0.8386
3262.000000 0.8386 0.8386 0.8387 0.8387 0.8388
3267.000000 0.8388 0.8389 0.8390 0.8391 0.8391
3272.000000 0.8392 0.8393 0.8394 0.8394 0.8395
3277.000000 0.8396 0.8397 0.8397 0.8398 0.8399
3282.000000 0.8400 0.8401 0.8402 0.8402 0.8403
3287.000000 0.8404 0.8405 0.8405 0.8406 0.8407
3292.000000 0.8408 0.8408 0.8409 0.8410 0.8411
3297.000000 0.8411 0.8412 0.8413 0.8414 0.8414
3302.000000 0.8414 0.8414 0.8415 0.8415 0.8416
3307.000000 0.8416 0.8416 0.8416 0.8417 0.8417
3312.000000 0.8417 0.8417 0.8418 0.8418 0.8418
3317.000000 0.8418 0.8419 0.8419 0.8420 0.8420
3322.000000 0.8420 0.8420 0.8421 0.8421 0.8421
3327.000000 0.8421 0.8422 0.8422 0.8423 0.8424
3332.000000 0.8425 0.8426 0.8427 0.8427 0.8428
3337.000000 0.8429 0.8430 0.8431 0.8432 0.8432
3342.000000 0.8433 0.8434 0.8435 0.8436 0.8437
3347.000000 0.8437 0.8438 0.8439 0.8440 0.8441
3352.000000 0.8442 0.8442 0.8443 0.8444 0.8445
3357.000000 0.8446 0.8447 0.8447 0.8448 0.8449
3362.000000 0.8450 0.8450 0.8451 0.8452 0.8453
3367.000000 0.8454 0.8455 0.8455 0.8456 0.8457
3372.000000 0.8458 0.8458 0.8459 0.8460 0.8461
3377.000000 0.8462 0.8463 0.8463 0.8464 0.8464
3382.000000 0.8465 0.8465 0.8466 0.8466 0.8467
3387.000000 0.8468 0.8469 0.8469 0.8470 0.8470
3392.000000 0.8471 0.8471 0.8472 0.8472 0.8473
3397.000000 0.8473 0.8474 0.8474 0.8475 0.8476
3402.000000 0.8477 0.8477 0.8478 0.8478 0.8479
3407.000000 0.8477 0.8476 0.8473 0.8471 0.8469
3412.000000 0.8467 0.8465 0.8463 0.8460 0.8458
3417.000000 0.8456 0.8454 0.8451 0.8449 0.8447
3422.000000 0.8445 0.8442 0.8440 0.8433 0.8427
3427.000000 0.8418 0.8410 0.8401 0.8393 0.8384
3432.000000 0.8376 0.8367 0.8359 0.8350 0.8342
3437.000000 0.8333 0.8325 0.8316 0.8308 0.8299
3442.000000 0.8290 0.8281 0.8273 0.8264 0.8255
3447.000000 0.8247 0.8239 0.8230 0.8222 0.8214
3452.000000 0.8206 0.8207 0.8208 0.8210 0.8204
3457.000000 0.8216 0.8220 0.8230 0.8241 0.8252
3462.000000 0.8263 0.8275 0.8287 0.8299 0.8311
3467.000000 0.8323 0.8335 0.8346 0.8358 0.8370
3472.000000 0.8382 0.8393 0.8405 0.8414 0.8423
3477.000000 0.8432 0.8442 0.8451 0.8460 0.8469
3482.000000 0.8479 0.8488 0.8497 0.8505 0.8514
3487.000000 0.8521 0.8528 0.8532 0.8537 0.8539
3492.000000 0.8542 0.8544 0.8547 0.8549 0.8552
3497.000000 0.8552 0.8553 0.8553 0.8554 0.8554
3502.000000 0.8555 0.8555 0.8556 0.8557 0.8558
3507.000000 0.8558 0.8559 0.8559 0.8560 0.8560
3512.000000 0.8561 0.8561 0.8562 0.8562 0.8562
3517.000000 0.8562 0.8563 0.8563 0.8564 0.8564
3522.000000 0.8565 0.8565 0.8566 0.8566 0.8567
3527.000000 0.8567 0.8567 0.8567 0.8568 0.8568
3532.000000 0.8568 0.8568 0.8568 0.8568 0.8569
3537.000000 0.8569 0.8569 0.8569 0.8569 0.8569
3542.000000 0.8570 0.8570 0.8570 0.8570 0.8570
3547.000000 0.8570 0.8571 0.8571 0.8571 0.8571
3552.000000 0.8571 0.8571 0.8571 0.8571 0.8571
3557.000000 0.8570 0.8570 0.8570 0.8570 0.8569
3562.000000 0.8569 0.8569 0.8569 0.8568 0.8568
3567.000000 0.8568 0.8568 0.8567 0.8567 0.8567
3572.000000 0.8567 0.8566 0.8566 0.8566 0.8566
3577.000000 0.8565 0.8565 0.8565 0.8565 0.8566
3582.000000 0.8567 0.8568 0.8569 0.8569 0.8570
3587.000000 0.8571 0.8572 0.8573 0.8574 0.8574
3592.000000 0.8575 0.8579 0.8583 0.8588 0.8594
3597.000000 0.8598 0.8602 0.8606 0.8610 0.8611
3602.000000 0.8613 0.8615 0.8599 0.8619 0.8621
3607.000000 0.8622 0.8624 0.8624 0.8625 0.8625
3612.000000 0.8625 0.8625 0.8625 0.8625 0.8625
3617.000000 0.8625 0.8625 0.8625 0.8625 0.8625
3622.000000 0.8625 0.8625 0.8625 0.8625 0.8625
3627.000000 0.8625 0.8625 0.8625 0.8625 0.8625
3632.000000 0.8625 0.8625 0.8625 0.8625 0.8625
3637.000000 0.8625 0.8625 0.8624 0.8624 0.8624
3642.000000 0.8624 0.8623 0.8623 0.8623 0.8623
3647.000000 0.8622 0.8622 0.8622 0.8622 0.8621
3652.000000 0.8621 0.8621 0.8621 0.8621 0.8621
3657.000000 0.8620 0.8620 0.8620 0.8620 0.8619
3662.000000 0.8619 0.8619 0.8619 0.8617 0.8616
3667.000000 0.8613 0.8611 0.8608 0.8606 0.8603
3672.000000 0.8601 0.8598 0.8596 0.8593 0.8591
3677.000000 0.8588 0.8586 0.8583 0.8581 0.8578
3682.000000 0.8575 0.8571 0.8567 0.8563 0.8559
3687.000000 0.8555 0.8551 0.8548 0.8546 0.8546
3692.000000 0.8547 0.8547 0.8548 0.8548 0.8549
3697.000000 0.8553 0.8557 0.8562 0.8567 0.8571
3702.000000 0.8575 0.8578 0.8582 0.8585 0.8589
3707.000000 0.8592 0.8596 0.8598 0.8600 0.8602
3712.000000 0.8604 0.8605 0.8607 0.8608 0.8609
3717.000000 0.8609 0.8610 0.8610 0.8611 0.8611
3722.000000 0.8612 0.8612 0.8612 0.8612 0.8613
3727.000000 0.8613 0.8614 0.8614 0.8615 0.8616
3732.000000 0.8617 0.8617 0.8618 0.8618 0.8619
3737.000000 0.8619 0.8620 0.8620 0.8621 0.8621
3742.000000 0.8621 0.8621 0.8621 0.8621 0.8621
3747.000000 0.8621 0.8621 0.8621 0.8621 0.8621
3752.000000 0.8621 0.8621 0.8621 0.8621 0.8621
3757.000000 0.8621 0.8621 0.8620 0.8620 0.8620
3762.000000 0.8620 0.8619 0.8619 0.8619 0.8619
3767.000000 0.8619 0.8619 0.8618 0.8618 0.8618
3772.000000 0.8618 0.8618 0.8618 0.8618 0.8619
3777.000000 0.8619 0.8620 0.8620 0.8620 0.8620
3782.000000 0.8621 0.8621 0.8622 0.8621 0.8621
3787.000000 0.8620 0.8620 0.8619 0.8619 0.8618
3792.000000 0.8618 0.8617 0.8617 0.8616 0.8616
3797.000000 0.8615 0.8615 0.8615 0.8615
##END=
