##TITLE=UREA, 1-METHYL-3-[2-(PURIN-8-YLTHIO)ETHYL]-
##JCAMP-DX=4.24
##DATA TYPE=INFRARED SPECTRUM
##CLASS=COBLENTZ III
##ORIGIN=SOUTHERN RESEARCH INSTITUTE
##OWNER=COBLENTZ SOCIETY
Collection (C) 2018 copyright by the U.S. Secretary of Commerce
on behalf of the United States of America. All rights reserved.
##DATE=1966/07/28
##NAMES=N-methyl-N'-[2-(7H-purin-8-ylsulfanyl)ethyl]urea
##MOLFORM=C9 H12 N6 O S
##SOURCE REFERENCE=COBLENTZ NO. 8024
##$NIST ID=B6008024
##$NIST SOURCE=COBLENTZ
##$NIST IMAGE=cob8024
##SPECTROMETER/DATA SYSTEM=PERKIN-ELMER 521 (GRATING)
##INSTRUMENT PARAMETERS=FILTERS AT 3130, 2475, 2000, 620. GRATING CHANGES: 2000, 630 CM^-^1
##STATE=SOLID (1 mg / 650 mg KBr DISC)
$$SPECTRAL CONTAMINATION DUE TO H2O AROUND 3400 CM^-^1
##SAMPLING PROCEDURE=TRANSMISSION
##RESOLUTION=2
##DATA PROCESSING=DIGITIZED BY NIST FROM HARD COPY (FROM TWO SEGMENTS)
##XUNITS=1/CM
##YUNITS=TRANSMITTANCE
##XFACTOR=1.000000
##YFACTOR=1
##DELTAX=1.269036
##FIRSTX=259.873
##LASTX=4009.87
##FIRSTY=0.357
##MAXX=4009.87
##MINX=259.873
##MAXY=0.944977
##MINY=0.123258
##NPOINTS=2956
##XYDATA=(X++(Y..Y))
259.873000 0.3570 0.3620 0.3670 0.3779 0.3917
266.218180 0.3979 0.4106 0.4197 0.4258 0.4375
272.563360 0.4457 0.4527 0.4625 0.4677 0.4727
278.908540 0.4871 0.4992 0.5028 0.5113 0.5194
285.253720 0.5255 0.5334 0.5413 0.5502 0.5592
291.598900 0.5672 0.5761 0.5832 0.5911 0.5982
297.944080 0.6034 0.6163 0.6241 0.6294 0.6326
304.289260 0.6347 0.6402 0.6453 0.6502 0.6535
310.634440 0.6565 0.6604 0.6644 0.6667 0.6687
316.979620 0.6707 0.6718 0.6736 0.6748 0.6758
323.324800 0.6776 0.6780 0.6780 0.6780 0.6796
329.669980 0.6831 0.6887 0.6947 0.7022 0.7048
336.015160 0.7073 0.7088 0.7098 0.7115 0.7120
342.360340 0.7105 0.7085 0.7058 0.7043 0.7033
348.705520 0.6964 0.6940 0.6918 0.6910 0.6939
355.050700 0.7000 0.7062 0.7150 0.7271 0.7476
361.395880 0.7626 0.7736 0.7832 0.7901 0.7940
367.741060 0.7977 0.8050 0.8100 0.8123 0.8137
374.086240 0.8147 0.8183 0.8219 0.8243 0.8263
380.431420 0.8276 0.8280 0.8286 0.8296 0.8319
386.776600 0.8330 0.8293 0.8215 0.8131 0.8010
393.121780 0.7950 0.7903 0.7858 0.7832 0.7832
399.466960 0.7962 0.8079 0.8174 0.8281 0.8354
405.812140 0.8408 0.8458 0.8486 0.8501 0.8521
412.157320 0.8530 0.8530 0.8530 0.8530 0.8525
418.502500 0.8520 0.8515 0.8495 0.8480 0.8480
424.847680 0.8475 0.8470 0.8470 0.8470 0.8470
431.192860 0.8470 0.8460 0.8445 0.8431 0.8406
437.538040 0.8381 0.8351 0.8312 0.8267 0.8213
443.883220 0.8162 0.8096 0.8018 0.7930 0.7833
450.228400 0.7806 0.7800 0.7825 0.7906 0.7995
456.573580 0.8091 0.8228 0.8332 0.8404 0.8456
462.918760 0.8484 0.8502 0.8520 0.8520 0.8520
469.263940 0.8520 0.8520 0.8516 0.8510 0.8503
475.609120 0.8487 0.8480 0.8480 0.8480 0.8477
481.954300 0.8470 0.8463 0.8450 0.8447 0.8437
488.299480 0.8427 0.8414 0.8397 0.8387 0.8377
494.644660 0.8361 0.8337 0.8321 0.8294 0.8272
500.989840 0.8250 0.8247 0.8237 0.8222 0.8187
507.335020 0.8140 0.8107 0.8095 0.8073 0.8036
513.680200 0.7981 0.7948 0.7931 0.7877 0.7785
520.025380 0.7728 0.7716 0.7690 0.7640 0.7590
526.370560 0.7536 0.7468 0.7391 0.7244 0.7110
532.715740 0.6956 0.6657 0.6640 0.6663 0.6830
539.060920 0.7114 0.7278 0.7494 0.7587 0.7700
545.406100 0.7820 0.7820 0.7819 0.7809 0.7799
551.751280 0.7788 0.7769 0.7759 0.7748 0.7730
558.096460 0.7730 0.7729 0.7719 0.7707 0.7677
564.441640 0.7650 0.7648 0.7629 0.7619 0.7608
570.786820 0.7579 0.7569 0.7558 0.7518 0.7480
577.132000 0.7480 0.7469 0.7440 0.7430 0.7419
583.477180 0.7389 0.7369 0.7340 0.7320 0.7310
589.822360 0.7280 0.7260 0.7220 0.7170 0.7130
596.167540 0.7120 0.7100 0.7080 0.7022 0.6933
602.512720 0.6795 0.6606 0.6465 0.6239 0.6020
608.857900 0.5715 0.4934 0.4598 0.4271 0.4129
615.203080 0.4111 0.4119 0.4806 0.5524 0.6296
621.548260 0.6460 0.6506 0.6519 0.6511 0.6510
627.893440 0.6510 0.6501 0.6482 0.6462 0.6451
634.238620 0.6424 0.6403 0.6383 0.6354 0.6333
640.583800 0.6313 0.6259 0.6156 0.6047 0.5895
646.928980 0.5795 0.5755 0.5775 0.6216 0.6466
653.274160 0.6655 0.6845 0.6921 0.6946 0.7030
659.619340 0.7074 0.7167 0.7198 0.7192 0.7159
665.964520 0.7103 0.7074 0.7047 0.7040 0.7032
672.309700 0.7030 0.6954 0.6825 0.6700 0.6381
678.654880 0.6273 0.6277 0.6354 0.6672 0.7274
685.000060 0.7684 0.7878 0.8055 0.8223 0.8326
691.345240 0.8406 0.8486 0.8545 0.8595 0.8624
697.690420 0.8637 0.8674 0.8710 0.8727 0.8730
704.035600 0.8723 0.8713 0.8690 0.8647 0.8604
710.380780 0.8571 0.8541 0.8524 0.8514 0.8510
716.725960 0.8510 0.8516 0.8520 0.8532 0.8558
723.071140 0.8576 0.8586 0.8608 0.8626 0.8636
729.416320 0.8652 0.8660 0.8660 0.8666 0.8670
735.761500 0.8670 0.8670 0.8670 0.8670 0.8670
742.106680 0.8670 0.8670 0.8670 0.8670 0.8670
748.451860 0.8670 0.8670 0.8654 0.8630 0.8605
754.797040 0.8580 0.8565 0.8550 0.8535 0.8525
761.142220 0.8505 0.8480 0.8446 0.8401 0.8351
767.487400 0.8278 0.8150 0.7990 0.7910 0.7915
773.832580 0.7920 0.7979 0.8139 0.8294 0.8389
780.177760 0.8444 0.8459 0.8470 0.8457 0.8410
786.522940 0.8341 0.8234 0.8017 0.7670 0.7252
792.868120 0.6771 0.6400 0.6390 0.6467 0.6894
799.213300 0.7624 0.7946 0.8096 0.8194 0.8214
805.558480 0.8251 0.8270 0.8263 0.8236 0.8200
811.903660 0.8166 0.8126 0.8093 0.8067 0.8024
818.248840 0.7961 0.7859 0.7726 0.7592 0.7498
824.594020 0.7455 0.7405 0.7332 0.7205 0.7060
830.939200 0.6719 0.6191 0.6048 0.5940 0.6002
837.284380 0.6316 0.6804 0.7089 0.7265 0.7372
843.629560 0.7382 0.7390 0.7390 0.7390 0.7388
849.974740 0.7380 0.7378 0.7368 0.7351 0.7314
856.319920 0.7290 0.7286 0.7270 0.7272 0.7280
862.665100 0.7282 0.7290 0.7294 0.7312 0.7323
869.010280 0.7347 0.7396 0.7492 0.7561 0.7628
875.355460 0.7678 0.7730 0.7804 0.7893 0.7915
881.700640 0.7955 0.7996 0.8041 0.8054 0.8081
888.045820 0.8091 0.8103 0.8130 0.8130 0.8131
894.391000 0.8140 0.8140 0.8140 0.8139 0.8127
900.736180 0.8089 0.8070 0.7923 0.7670 0.7517
907.081360 0.7456 0.7383 0.7229 0.7013 0.6661
913.426540 0.6445 0.6329 0.6310 0.6326 0.6572
919.771720 0.6675 0.6996 0.7572 0.7752 0.7950
926.116900 0.8030 0.8050 0.8060 0.8080 0.8080
932.462080 0.8060 0.8050 0.7962 0.7902 0.7861
938.807260 0.7754 0.7616 0.7505 0.7377 0.7087
945.152440 0.6892 0.6787 0.6611 0.6432 0.6244
951.497620 0.6128 0.6019 0.5772 0.5377 0.4924
957.842800 0.4475 0.4430 0.4457 0.4943 0.6050
964.187980 0.6437 0.6831 0.7073 0.7562 0.7821
970.533160 0.8014 0.8186 0.8348 0.8464 0.8565
976.878340 0.8631 0.8674 0.8688 0.8690 0.8707
983.223520 0.8710 0.8710 0.8694 0.8690 0.8690
989.568700 0.8682 0.8672 0.8646 0.8632 0.8638
995.913880 0.8632 0.8630 0.8622 0.8597 0.8582
1002.259060 0.8572 0.8547 0.8532 0.8522 0.8497
1008.604240 0.8483 0.8443 0.8370 0.8313 0.8278
1014.949420 0.8226 0.8188 0.8115 0.8025 0.7893
1021.294600 0.7601 0.7436 0.7339 0.7310 0.7331
1027.639780 0.7653 0.7880 0.7995 0.8105 0.8167
1033.984960 0.8193 0.8207 0.8210 0.8190 0.8160
1040.330140 0.8117 0.8087 0.8067 0.8054 0.8050
1046.675320 0.8056 0.8060 0.8060 0.8060 0.8060
1053.020500 0.8060 0.8060 0.8060 0.8060 0.8060
1059.365680 0.8060 0.8060 0.8060 0.8054 0.8044
1065.710860 0.8040 0.8011 0.7950 0.7903 0.7822
1072.056040 0.7764 0.7766 0.7781 0.7796 0.7822
1078.401220 0.7883 0.7931 0.7945 0.7955 0.7960
1084.746400 0.7955 0.7950 0.7950 0.7950 0.7945
1091.091580 0.7940 0.7930 0.7910 0.7880 0.7841
1097.436760 0.7806 0.7757 0.7691 0.7570 0.7380
1103.781940 0.7163 0.7016 0.7009 0.7070 0.7278
1110.127120 0.7527 0.7663 0.7783 0.7881 0.7929
1116.472300 0.7944 0.7950 0.7950 0.7950 0.7946
1122.817480 0.7928 0.7906 0.7888 0.7862 0.7846
1129.162660 0.7832 0.7816 0.7802 0.7779 0.7756
1135.507840 0.7743 0.7726 0.7716 0.7699 0.7676
1141.853020 0.7666 0.7657 0.7643 0.7620 0.7590
1148.198200 0.7550 0.7487 0.7430 0.7394 0.7338
1154.543380 0.7271 0.7214 0.7165 0.7121 0.7094
1160.888560 0.7077 0.7064 0.7044 0.7019 0.6976
1167.233740 0.6940 0.6937 0.6925 0.6910 0.6910
1173.578920 0.6907 0.6900 0.6900 0.6898 0.6890
1179.924100 0.6890 0.6883 0.6853 0.6823 0.6771
1186.269280 0.6644 0.6522 0.6397 0.6304 0.6280
1192.614460 0.6286 0.6322 0.6380 0.6461 0.6662
1198.959640 0.6783 0.6897 0.6933 0.6952 0.6960
1205.304820 0.6960 0.6958 0.6947 0.6926 0.6891
1211.650000 0.6833 0.6786 0.6753 0.6702 0.6636
1217.995180 0.6526 0.6420 0.6342 0.6273 0.6211
1224.340360 0.6137 0.6106 0.6062 0.5968 0.5843
1230.685540 0.5758 0.5613 0.5400 0.5147 0.4973
1237.030720 0.4869 0.4858 0.4829 0.4820 0.4820
1243.375900 0.4820 0.4809 0.4790 0.4778 0.4718
1249.721080 0.4638 0.4544 0.4275 0.4005 0.3768
1256.066260 0.3639 0.3519 0.3290 0.3061 0.2752
1262.411440 0.2612 0.2551 0.2393 0.2361 0.2360
1268.756620 0.2379 0.2419 0.2565 0.2704 0.2882
1275.101800 0.3089 0.3592 0.3865 0.4106 0.4336
1281.446980 0.4528 0.4893 0.5050 0.5189 0.5255
1287.792160 0.5296 0.5318 0.5347 0.5386 0.5435
1294.137340 0.5485 0.5535 0.5593 0.5635 0.5675
1300.482520 0.5741 0.5811 0.5837 0.6282 0.6350
1306.827700 0.6350 0.6359 0.6360 0.6360 0.6352
1313.172880 0.6325 0.6320 0.6047 0.5709 0.5081
1319.518060 0.4411 0.3744 0.3596 0.3606 0.3722
1325.863240 0.3981 0.4936 0.6005 0.6372 0.6520
1332.208420 0.6636 0.6668 0.6685 0.6690 0.6675
1338.553600 0.6594 0.6517 0.6395 0.6210 0.6018
1344.898780 0.5821 0.5541 0.5063 0.4679 0.4343
1351.243960 0.3889 0.3585 0.3356 0.3076 0.2898
1357.589140 0.2825 0.2845 0.2937 0.3102 0.3504
1363.934320 0.3701 0.3747 0.3726 0.3683 0.3636
1370.279500 0.3593 0.3600 0.3650 0.3951 0.4769
1376.624680 0.5420 0.6086 0.6586 0.6856 0.7035
1382.969860 0.7153 0.7234 0.7291 0.7316 0.7320
1389.315040 0.7302 0.7278 0.7073 0.6826 0.6690
1395.660220 0.6620 0.6571 0.6503 0.6377 0.6098
1402.005400 0.5724 0.5210 0.4912 0.4873 0.4849
1408.350580 0.4829 0.4798 0.4769 0.4744 0.4714
1414.695760 0.4668 0.4508 0.4212 0.4050 0.4050
1421.040940 0.4071 0.4121 0.4196 0.4682 0.5120
1427.386120 0.5120 0.5115 0.4795 0.4151 0.3719
1433.731300 0.3500 0.3366 0.3359 0.3598 0.4026
1440.076480 0.4366 0.4770 0.5144 0.5353 0.5572
1446.421660 0.5894 0.6170 0.6236 0.6296 0.6343
1452.766840 0.6368 0.6409 0.6487 0.6581 0.6673
1459.112020 0.6744 0.6800 0.6838 0.6862 0.6880
1465.457200 0.6869 0.6846 0.6825 0.6793 0.6769
1471.802380 0.6735 0.6703 0.6679 0.6646 0.6610
1478.147560 0.6580 0.6553 0.6530 0.6500 0.6473
1484.492740 0.6457 0.6440 0.6401 0.6351 0.6324
1490.837920 0.6295 0.6239 0.6169 0.6097 0.5990
1497.183100 0.5833 0.5723 0.5641 0.5502 0.5389
1503.528280 0.5341 0.5248 0.5079 0.4894 0.4752
1509.873460 0.4563 0.4249 0.3942 0.3758 0.3745
1516.218640 0.3735 0.3757 0.3830 0.4044 0.4215
1522.563820 0.4414 0.4550 0.4610 0.4696 0.4724
1528.909000 0.4740 0.4746 0.4795 0.4928 0.5026
1535.254180 0.5117 0.5215 0.5298 0.5342 0.5353
1541.599360 0.5368 0.5359 0.5341 0.5279 0.5188
1547.944540 0.5038 0.4953 0.4901 0.4833 0.4767
1554.289720 0.4655 0.4538 0.4514 0.4450 0.4338
1560.634900 0.4091 0.3617 0.3368 0.3086 0.2494
1566.980080 0.2419 0.2411 0.2421 0.2436 0.2532
1573.325260 0.2719 0.2860 0.2859 0.2838 0.2789
1579.670440 0.2760 0.2748 0.2697 0.2599 0.2548
1586.015620 0.2457 0.2309 0.2259 0.2189 0.2100
1592.360800 0.2040 0.1980 0.1901 0.1811 0.1790
1598.705980 0.1780 0.1790 0.1800 0.1848 0.1898
1605.051160 0.1929 0.1949 0.2045 0.2277 0.2404
1611.396340 0.2419 0.2420 0.2392 0.2371 0.2314
1617.741520 0.2273 0.2233 0.2139 0.1966 0.1841
1624.086700 0.1757 0.1696 0.1654 0.1605 0.1547
1630.431880 0.1434 0.1279 0.1251 0.1233 0.1247
1636.777060 0.1267 0.1365 0.1492 0.1621 0.1759
1643.122240 0.1907 0.2056 0.2340 0.2540 0.2720
1649.467420 0.2883 0.3067 0.3248 0.3566 0.3784
1655.812600 0.3966 0.4137 0.4314 0.4485 0.4647
1662.157780 0.4934 0.5118 0.5260 0.5391 0.5513
1668.502960 0.5625 0.5796 0.5954 0.6164 0.6296
1674.848140 0.6380 0.6460 0.6562 0.6649 0.6751
1681.193320 0.6853 0.6953 0.7045 0.7128 0.7215
1687.538500 0.7297 0.7434 0.7530 0.7599 0.7662
1693.883680 0.7736 0.7801 0.7854 0.7918 0.7974
1700.228860 0.8024 0.8074 0.8124 0.8167 0.8200
1706.574040 0.8236 0.8276 0.8309 0.8333 0.8346
1712.919220 0.8382 0.8413 0.8426 0.8436 0.8446
1719.264400 0.8450 0.8468 0.8486 0.8508 0.8532
1725.609580 0.8552 0.8566 0.8576 0.8598 0.8622
1731.954760 0.8653 0.8699 0.8726 0.8741 0.8756
1738.299940 0.8766 0.8792 0.8810 0.8816 0.8825
1744.645120 0.8841 0.8855 0.8865 0.8870 0.8875
1750.990300 0.8891 0.8910 0.8925 0.8940 0.8950
1757.335480 0.8950 0.8955 0.8960 0.8965 0.8970
1763.680660 0.8975 0.8990 0.9000 0.9000 0.9000
1770.025840 0.9005 0.9015 0.9029 0.9045 0.9050
1776.371020 0.9055 0.9060 0.9064 0.9070 0.9079
1782.716200 0.9090 0.9090 0.9090 0.9094 0.9100
1789.061380 0.9100 0.9104 0.9110 0.9110 0.9114
1795.406560 0.9120 0.9120 0.9128 0.9140 0.9144
1801.751740 0.9154 0.9160 0.9160 0.9160 0.9160
1808.096920 0.9160 0.9160 0.9160 0.9160 0.9160
1814.442100 0.9160 0.9160 0.9160 0.9160 0.9160
1820.787280 0.9160 0.9160 0.9160 0.9163 0.9170
1827.132460 0.9182 0.9210 0.9213 0.9220 0.9220
1833.477640 0.9220 0.9220 0.9220 0.9225 0.9240
1839.822820 0.9240 0.9240 0.9240 0.9235 0.9220
1846.168000 0.9220 0.9218 0.9212 0.9218 0.9208
1852.513180 0.9200 0.9198 0.9190 0.9186 0.9170
1858.858360 0.9168 0.9160 0.9156 0.9134 0.9108
1865.203540 0.9100 0.9100 0.9102 0.9112 0.9120
1871.548720 0.9128 0.9175 0.9208 0.9254 0.9281
1877.893900 0.9293 0.9313 0.9330 0.9331 0.9340
1884.239080 0.9340 0.9341 0.9350 0.9350 0.9350
1890.584260 0.9350 0.9350 0.9351 0.9360 0.9360
1896.929440 0.9360 0.9360 0.9360 0.9360 0.9360
1903.274620 0.9360 0.9360 0.9361 0.9380 0.9380
1909.619800 0.9380 0.9380 0.9380 0.9380 0.9380
1915.964980 0.9380 0.9380 0.9390 0.9390 0.9400
1922.310160 0.9400 0.9400 0.9410 0.9410 0.9430
1928.655340 0.9430 0.9440 0.9440 0.9440 0.9450
1935.000520 0.9440 0.9440 0.9440 0.9440 0.9430
1941.345700 0.9411 0.9410 0.9410 0.9410 0.9410
1947.690880 0.9410 0.9401 0.9400 0.9400 0.9400
1954.036060 0.9391 0.9390 0.9381 0.9362 0.9360
1960.381240 0.9360 0.9360 0.9360 0.9360 0.9378
1966.726420 0.9362 0.9360 0.9351 0.9350 0.9350
1973.071600 0.9350 0.9350 0.9350 0.9350 0.9342
1979.416780 0.9348 0.9350 0.9350 0.9350 0.9350
1985.761960 0.9350 0.9342 0.9340 0.9340 0.9340
1992.107140 0.9332 0.9338 0.9340 0.9332 0.9314
1998.452320 0.9294 0.9259 0.9219 0.9210 0.9202
2004.797500 0.9192 0.9190 0.9190 0.9174 0.9170
2011.142680 0.9170 0.9162 0.9160 0.9152 0.9150
2017.487860 0.9150 0.9142 0.9124 0.9120 0.9120
2023.833040 0.9112 0.9110 0.9110 0.9102 0.9100
2030.178220 0.9092 0.9090 0.9090 0.9074 0.9062
2036.523400 0.9068 0.9062 0.9052 0.9050 0.9050
2042.868580 0.9050 0.9050 0.9050 0.9050 0.9042
2049.213760 0.9040 0.9040 0.9040 0.9040 0.9040
2055.558940 0.9024 0.9020 0.9020 0.9020 0.9020
2061.904120 0.9020 0.9020 0.9012 0.9010 0.9010
2068.249300 0.9010 0.9002 0.9000 0.9000 0.9000
2074.594480 0.8985 0.8980 0.8980 0.8980 0.8980
2080.939660 0.8972 0.8970 0.8970 0.8970 0.8962
2087.284840 0.8960 0.8960 0.8952 0.8950 0.8950
2093.630020 0.8934 0.8930 0.8930 0.8922 0.8920
2099.975200 0.8920 0.8912 0.8910 0.8910 0.8902
2106.320380 0.8884 0.8880 0.8880 0.8880 0.8880
2112.665560 0.8872 0.8870 0.8862 0.8852 0.8850
2119.010740 0.8827 0.8820 0.8812 0.8810 0.8802
2125.355920 0.8785 0.8780 0.8772 0.8762 0.8760
2131.701100 0.8752 0.8734 0.8722 0.8712 0.8710
2138.046280 0.8695 0.8690 0.8682 0.8672 0.8670
2144.391460 0.8662 0.8637 0.8630 0.8630 0.8630
2150.736640 0.8630 0.8622 0.8620 0.8620 0.8620
2157.081820 0.8628 0.8630 0.8630 0.8630 0.8630
2163.427000 0.8630 0.8630 0.8630 0.8622 0.8620
2169.772180 0.8612 0.8610 0.8587 0.8564 0.8544
2176.117360 0.8540 0.8532 0.8514 0.8510 0.8494
2182.462540 0.8490 0.8482 0.8480 0.8480 0.8472
2188.807720 0.8470 0.8454 0.8450 0.8450 0.8442
2195.152900 0.8440 0.8440 0.8440 0.8432 0.8430
2201.498080 0.8430 0.8422 0.8404 0.8400 0.8392
2207.843260 0.8390 0.8382 0.8372 0.8354 0.8342
2214.188440 0.8325 0.8297 0.8290 0.8282 0.8280
2220.533620 0.8272 0.8254 0.8250 0.8242 0.8232
2226.878800 0.8230 0.8230 0.8214 0.8210 0.8202
2233.223980 0.8200 0.8192 0.8182 0.8164 0.8145
2239.569160 0.8140 0.8132 0.8114 0.8102 0.8084
2245.914340 0.8057 0.8034 0.8030 0.8014 0.8002
2252.259520 0.8000 0.8000 0.8000 0.8000 0.8000
2258.604700 0.8000 0.8000 0.8000 0.8000 0.7992
2264.949880 0.7990 0.7990 0.7974 0.7962 0.7960
2271.295060 0.7952 0.7950 0.7942 0.7940 0.7925
2277.640240 0.7920 0.7920 0.7912 0.7894 0.7867
2283.985420 0.7844 0.7824 0.7820 0.7812 0.7802
2290.330600 0.7792 0.7774 0.7762 0.7737 0.7722
2296.675780 0.7712 0.7702 0.7677 0.7670 0.7662
2303.020960 0.7652 0.7634 0.7614 0.7610 0.7602
2309.366140 0.7600 0.7584 0.7580 0.7564 0.7560
2315.711320 0.7552 0.7550 0.7534 0.7522 0.7512
2322.056500 0.7502 0.7453 0.7424 0.7397 0.7374
2328.401680 0.7347 0.7332 0.7322 0.7312 0.7294
2334.746860 0.7282 0.7280 0.7272 0.7262 0.7260
2341.092040 0.7245 0.7232 0.7222 0.7220 0.7204
2347.437220 0.7200 0.7184 0.7172 0.7154 0.7150
2353.782400 0.7142 0.7132 0.7130 0.7122 0.7104
2360.127580 0.7092 0.7082 0.7072 0.7054 0.7042
2366.472760 0.7025 0.7020 0.7020 0.7020 0.7004
2372.817940 0.7000 0.7000 0.6992 0.6990 0.6990
2379.163120 0.6990 0.6990 0.6990 0.6990 0.6990
2385.508300 0.6982 0.6964 0.6960 0.6952 0.6942
2391.853480 0.6940 0.6940 0.6940 0.6932 0.6914
2398.198660 0.6910 0.6894 0.6890 0.6882 0.6857
2404.543840 0.6835 0.6807 0.6784 0.6764 0.6760
2410.889020 0.6752 0.6750 0.6742 0.6724 0.6712
2417.234200 0.6710 0.6702 0.6700 0.6692 0.6674
2423.579380 0.6631 0.6597 0.6567 0.6552 0.6527
2429.924560 0.6505 0.6477 0.6462 0.6452 0.6427
2436.269740 0.6412 0.6410 0.6402 0.6384 0.6380
2442.614920 0.6372 0.6370 0.6362 0.6337 0.6330
2448.960100 0.6330 0.6322 0.6312 0.6310 0.6310
2455.305280 0.6318 0.6320 0.6320 0.6320 0.6320
2461.650460 0.6320 0.6312 0.6310 0.6310 0.6310
2467.995640 0.6302 0.6300 0.6284 0.6280 0.6280
2474.340820 0.6280 0.6272 0.6254 0.6250 0.6234
2480.686000 0.6230 0.6222 0.6212 0.6210 0.6194
2487.031180 0.6190 0.6182 0.6180 0.6172 0.6170
2493.376360 0.6147 0.6140 0.6140 0.6132 0.6130
2499.721540 0.6114 0.6110 0.6094 0.6082 0.6064
2506.066720 0.6045 0.6024 0.6020 0.6012 0.6010
2512.411900 0.5979 0.5970 0.5947 0.5893 0.5872
2518.757080 0.5855 0.5842 0.5832 0.5822 0.5804
2525.102260 0.5792 0.5790 0.5782 0.5772 0.5754
2531.447440 0.5742 0.5740 0.5732 0.5730 0.5714
2537.792620 0.5702 0.5700 0.5700 0.5700 0.5692
2544.137800 0.5690 0.5682 0.5680 0.5664 0.5660
2550.482980 0.5652 0.5642 0.5640 0.5617 0.5602
2556.828160 0.5561 0.5534 0.5514 0.5502 0.5492
2563.173340 0.5474 0.5462 0.5429 0.5404 0.5392
2569.518520 0.5375 0.5370 0.5362 0.5360 0.5352
2575.863700 0.5350 0.5342 0.5340 0.5324 0.5320
2582.208880 0.5312 0.5302 0.5292 0.5274 0.5262
2588.554060 0.5260 0.5260 0.5252 0.5250 0.5250
2594.899240 0.5250 0.5250 0.5250 0.5250 0.5234
2601.244420 0.5230 0.5222 0.5204 0.5184 0.5172
2607.589600 0.5162 0.5160 0.5160 0.5152 0.5158
2613.934780 0.5160 0.5152 0.5150 0.5134 0.5122
2620.279960 0.5120 0.5120 0.5128 0.5130 0.5146
2626.625140 0.5158 0.5152 0.5150 0.5150 0.5134
2632.970320 0.5130 0.5122 0.5112 0.5102 0.5084
2639.315500 0.5072 0.5070 0.5070 0.5062 0.5060
2645.660680 0.5060 0.5052 0.5050 0.5050 0.5034
2652.005860 0.5030 0.5030 0.5030 0.5030 0.5030
2658.351040 0.5046 0.5050 0.5050 0.5050 0.5058
2664.696220 0.5068 0.5093 0.5108 0.5118 0.5120
2671.041400 0.5128 0.5153 0.5176 0.5203 0.5226
2677.386580 0.5253 0.5283 0.5306 0.5318 0.5336
2683.731760 0.5355 0.5368 0.5370 0.5386 0.5406
2690.076940 0.5433 0.5463 0.5486 0.5506 0.5510
2696.422120 0.5525 0.5530 0.5538 0.5540 0.5540
2702.767300 0.5532 0.5530 0.5507 0.5469 0.5460
2709.112480 0.5452 0.5442 0.5440 0.5440 0.5448
2715.457660 0.5450 0.5458 0.5460 0.5468 0.5486
2721.802840 0.5498 0.5523 0.5569 0.5596 0.5600
2728.148020 0.5623 0.5630 0.5638 0.5640 0.5640
2734.493200 0.5640 0.5632 0.5630 0.5630 0.5614
2740.838380 0.5610 0.5602 0.5600 0.5600 0.5600
2747.183560 0.5608 0.5626 0.5638 0.5648 0.5650
2753.528740 0.5658 0.5660 0.5676 0.5688 0.5690
2759.873920 0.5706 0.5741 0.5773 0.5819 0.5846
2766.219100 0.5873 0.5919 0.5969 0.6003 0.6010
2772.564280 0.6018 0.6020 0.6020 0.6012 0.6010
2778.909460 0.5994 0.5959 0.5911 0.5877 0.5847
2785.254640 0.5801 0.5774 0.5754 0.5734 0.5691
2791.599820 0.5641 0.5591 0.5557 0.5534 0.5507
2797.945000 0.5477 0.5454 0.5419 0.5379 0.5354
2804.290180 0.5327 0.5320 0.5312 0.5310 0.5310
2810.635360 0.5310 0.5318 0.5320 0.5336 0.5340
2816.980540 0.5340 0.5348 0.5358 0.5383 0.5406
2823.325720 0.5433 0.5456 0.5483 0.5498 0.5508
2829.670900 0.5526 0.5538 0.5579 0.5598 0.5600
2836.016080 0.5600 0.5600 0.5600 0.5592 0.5582
2842.361260 0.5564 0.5560 0.5552 0.5550 0.5542
2848.706440 0.5540 0.5540 0.5556 0.5576 0.5588
2855.051620 0.5621 0.5677 0.5706 0.5726 0.5746
2861.396800 0.5773 0.5796 0.5816 0.5828 0.5846
2867.741980 0.5873 0.5896 0.5900 0.5916 0.5928
2874.087160 0.5930 0.5930 0.5922 0.5920 0.5889
2880.432340 0.5849 0.5832 0.5822 0.5804 0.5792
2886.777520 0.5790 0.5782 0.5780 0.5780 0.5780
2893.122700 0.5788 0.5813 0.5820 0.5828 0.5838
2899.467880 0.5848 0.5850 0.5850 0.5850 0.5850
2905.813060 0.5850 0.5842 0.5840 0.5832 0.5799
2912.158240 0.5782 0.5780 0.5772 0.5739 0.5676
2918.503420 0.5644 0.5601 0.5543 0.5499 0.5474
2924.848600 0.5455 0.5419 0.5394 0.5374 0.5370
2931.193780 0.5370 0.5362 0.5360 0.5352 0.5342
2937.538960 0.5325 0.5304 0.5269 0.5221 0.5187
2943.884140 0.5172 0.5162 0.5168 0.5178 0.5203
2950.229320 0.5226 0.5285 0.5347 0.5399 0.5472
2956.574500 0.5529 0.5587 0.5631 0.5679 0.5760
2962.919680 0.5826 0.5879 0.5929 0.5971 0.6011
2969.264860 0.6059 0.6148 0.6209 0.6259 0.6309
2975.610040 0.6367 0.6411 0.6451 0.6476 0.6496
2981.955220 0.6500 0.6508 0.6510 0.6510 0.6510
2988.300400 0.6510 0.6510 0.6502 0.6484 0.6480
2994.645580 0.6472 0.6462 0.6460 0.6452 0.6434
3000.990760 0.6422 0.6404 0.6377 0.6339 0.6307
3007.335940 0.6246 0.6191 0.6149 0.6124 0.6097
3013.681120 0.6043 0.5960 0.5893 0.5849 0.5824
3020.026300 0.5804 0.5792 0.5798 0.5800 0.5816
3026.371480 0.5828 0.5830 0.5838 0.5879 0.5929
3032.716660 0.5971 0.5988 0.6006 0.6018 0.6020
3039.061840 0.6028 0.6030 0.6022 0.6020 0.6020
3045.407020 0.6020 0.6020 0.6020 0.6020 0.6012
3051.752200 0.5994 0.5982 0.5972 0.5954 0.5942
3058.097380 0.5932 0.5922 0.5904 0.5900 0.5916
3064.442560 0.5928 0.5946 0.5973 0.6003 0.6033
3070.787740 0.6188 0.6284 0.6347 0.6407 0.6459
3077.132920 0.6501 0.6541 0.6589 0.6639 0.6689
3083.478100 0.6739 0.6789 0.6823 0.6846 0.6858
3089.823280 0.6876 0.6888 0.6921 0.6938 0.6948
3096.168460 0.6950 0.6958 0.6960 0.6960 0.6960
3102.513640 0.6960 0.6960 0.6960 0.6952 0.6950
3108.858820 0.6942 0.6917 0.6902 0.6892 0.6867
3115.204000 0.6845 0.6801 0.6751 0.6709 0.6677
3121.549180 0.6654 0.6627 0.6604 0.6569 0.6544
3127.894360 0.6509 0.6477 0.6462 0.6452 0.6434
3134.239540 0.6446 0.6450 0.6466 0.6493 0.6516
3140.584720 0.6551 0.6568 0.6570 0.6586 0.6590
3146.929900 0.6590 0.6590 0.6598 0.6600 0.6616
3153.275080 0.6635 0.6640 0.6656 0.6668 0.6693
3159.620260 0.6708 0.6718 0.6736 0.6740 0.6748
3165.965440 0.6758 0.6760 0.6776 0.6780 0.6780
3172.310620 0.6788 0.6790 0.6798 0.6800 0.6808
3178.655800 0.6810 0.6810 0.6826 0.6814 0.6826
3185.000980 0.6830 0.6830 0.6830 0.6830 0.6830
3191.346160 0.6830 0.6830 0.6838 0.6832 0.6830
3197.691340 0.6814 0.6810 0.6810 0.6810 0.6810
3204.036520 0.6810 0.6802 0.6800 0.6800 0.6792
3210.381700 0.6782 0.6764 0.6760 0.6752 0.6727
3216.726880 0.6712 0.6694 0.6667 0.6644 0.6617
3223.072060 0.6594 0.6559 0.6527 0.6512 0.6487
3229.417240 0.6464 0.6437 0.6414 0.6402 0.6400
3235.762420 0.6361 0.6319 0.6287 0.6272 0.6208
3242.107600 0.6167 0.6144 0.6140 0.6132 0.6122
3248.452780 0.6097 0.6067 0.6029 0.5981 0.5939
3254.797960 0.5907 0.5884 0.5857 0.5834 0.5783
3261.143140 0.5739 0.5699 0.5651 0.5609 0.5561
3267.488320 0.5519 0.5502 0.5477 0.5462 0.5429
3273.833500 0.5373 0.5344 0.5301 0.5259 0.5234
3280.178680 0.5222 0.5150 0.5075 0.5029 0.5004
3286.523860 0.4984 0.4964 0.4906 0.4874 0.4847
3292.869040 0.4817 0.4787 0.4764 0.4737 0.4699
3299.214220 0.4643 0.4583 0.4508 0.4420 0.4330
3305.559400 0.4271 0.4252 0.4203 0.4159 0.4111
3311.904580 0.4030 0.3963 0.3888 0.3823 0.3763
3318.249760 0.3680 0.3590 0.3539 0.3499 0.3420
3324.594940 0.3346 0.3268 0.3203 0.3167 0.3121
3330.940120 0.3025 0.2938 0.2881 0.2854 0.2850
3337.285300 0.2850 0.2850 0.2850 0.2858 0.2860
3343.630480 0.2883 0.2890 0.2898 0.2908 0.2941
3349.975660 0.2981 0.3044 0.3122 0.3171 0.3219
3356.320840 0.3284 0.3355 0.3417 0.3539 0.3625
3362.666020 0.3702 0.3790 0.3864 0.3942 0.3999
3369.011200 0.4088 0.4188 0.4288 0.4404 0.4485
3375.356380 0.4578 0.4670 0.4752 0.4902 0.5002
3381.701560 0.5082 0.5139 0.5205 0.5275 0.5345
3388.046740 0.5407 0.5451 0.5530 0.5581 0.5621
3394.391920 0.5669 0.5703 0.5757 0.5809 0.5867
3400.737100 0.5927 0.5994 0.6033 0.6079 0.6129
3407.082280 0.6156 0.6199 0.6257 0.6293 0.6316
3413.427460 0.6328 0.6346 0.6397 0.6441 0.6466
3419.772640 0.6478 0.6496 0.6516 0.6543 0.6566
3426.117820 0.6593 0.6631 0.6656 0.6668 0.6686
3432.463000 0.6705 0.6733 0.6771 0.6796 0.6808
3438.808180 0.6826 0.6853 0.6883 0.6921 0.6938
3445.153360 0.6940 0.6956 0.6983 0.6998 0.7023
3451.498540 0.7030 0.7038 0.7063 0.7070 0.7078
3457.843720 0.7088 0.7098 0.7116 0.7128 0.7138
3464.188900 0.7140 0.7148 0.7166 0.7178 0.7196
3470.534080 0.7223 0.7238 0.7256 0.7260 0.7268
3476.879260 0.7270 0.7270 0.7278 0.7288 0.7306
3483.224440 0.7318 0.7328 0.7338 0.7340 0.7340
3489.569620 0.7356 0.7360 0.7368 0.7370 0.7370
3495.914800 0.7378 0.7388 0.7390 0.7390 0.7390
3502.259980 0.7406 0.7418 0.7436 0.7456 0.7468
3508.605160 0.7478 0.7496 0.7500 0.7508 0.7510
3514.950340 0.7518 0.7528 0.7546 0.7566 0.7578
3521.295520 0.7596 0.7608 0.7618 0.7628 0.7630
3527.640700 0.7646 0.7658 0.7660 0.7660 0.7668
3533.985880 0.7678 0.7696 0.7700 0.7708 0.7710
3540.331060 0.7718 0.7728 0.7746 0.7750 0.7758
3546.676240 0.7768 0.7793 0.7808 0.7810 0.7818
3553.021420 0.7820 0.7836 0.7848 0.7858 0.7868
3559.366600 0.7886 0.7898 0.7908 0.7910 0.7918
3565.711780 0.7920 0.7951 0.7960 0.7968 0.7970
3572.056960 0.7985 0.7998 0.8008 0.8026 0.8030
3578.402140 0.8038 0.8048 0.8058 0.8076 0.8080
3584.747320 0.8088 0.8106 0.8126 0.8130 0.8138
3591.092500 0.8156 0.8160 0.8176 0.8180 0.8188
3597.437680 0.8198 0.8200 0.8208 0.8226 0.8238
3603.782860 0.8240 0.8248 0.8266 0.8278 0.8288
3610.128040 0.8290 0.8290 0.8298 0.8316 0.8320
3616.473220 0.8328 0.8330 0.8338 0.8340 0.8348
3622.818400 0.8350 0.8366 0.8386 0.8398 0.8431
3629.163580 0.8440 0.8440 0.8448 0.8450 0.8466
3635.508760 0.8470 0.8478 0.8480 0.8480 0.8480
3641.853940 0.8480 0.8480 0.8480 0.8480 0.8488
3648.199120 0.8490 0.8490 0.8506 0.8510 0.8510
3654.544300 0.8518 0.8520 0.8520 0.8528 0.8522
3660.889480 0.8520 0.8528 0.8522 0.8520 0.8520
3667.234660 0.8520 0.8512 0.8518 0.8520 0.8520
3673.579840 0.8512 0.8494 0.8490 0.8490 0.8490
3679.925020 0.8490 0.8490 0.8490 0.8490 0.8490
3686.270200 0.8506 0.8510 0.8518 0.8520 0.8528
3692.615380 0.8538 0.8540 0.8540 0.8556 0.8560
3698.960560 0.8560 0.8560 0.8568 0.8570 0.8570
3705.305740 0.8570 0.8570 0.8570 0.8570 0.8570
3711.650920 0.8578 0.8580 0.8580 0.8580 0.8580
3717.996100 0.8580 0.8580 0.8580 0.8580 0.8580
3724.341280 0.8580 0.8580 0.8580 0.8580 0.8580
3730.686460 0.8580 0.8580 0.8580 0.8580 0.8580
3737.031640 0.8580 0.8580 0.8580 0.8580 0.8580
3743.376820 0.8580 0.8572 0.8562 0.8560 0.8560
3749.722000 0.8560 0.8560 0.8560 0.8560 0.8560
3756.067180 0.8560 0.8560 0.8560 0.8560 0.8544
3762.412360 0.8540 0.8540 0.8540 0.8540 0.8540
3768.757540 0.8556 0.8544 0.8540 0.8540 0.8540
3775.102720 0.8540 0.8540 0.8532 0.8530 0.8530
3781.447900 0.8530 0.8522 0.8520 0.8520 0.8520
3787.793080 0.8528 0.8530 0.8530 0.8522 0.8520
3794.138260 0.8520 0.8520 0.8520 0.8520 0.8520
3800.483440 0.8520 0.8520 0.8520 0.8512 0.8510
3806.828620 0.8510 0.8510 0.8510 0.8510 0.8510
3813.173800 0.8510 0.8510 0.8518 0.8512 0.8510
3819.518980 0.8494 0.8490 0.8490 0.8482 0.8480
3825.864160 0.8480 0.8480 0.8480 0.8480 0.8480
3832.209340 0.8480 0.8472 0.8478 0.8480 0.8480
3838.554520 0.8472 0.8470 0.8470 0.8470 0.8470
3844.899700 0.8454 0.8450 0.8442 0.8440 0.8440
3851.244880 0.8432 0.8430 0.8430 0.8430 0.8430
3857.590060 0.8430 0.8430 0.8438 0.8440 0.8432
3863.935240 0.8430 0.8430 0.8430 0.8430 0.8430
3870.280420 0.8430 0.8430 0.8430 0.8430 0.8430
3876.625600 0.8430 0.8422 0.8404 0.8400 0.8392
3882.970780 0.8390 0.8382 0.8380 0.8380 0.8372
3889.315960 0.8370 0.8370 0.8370 0.8370 0.8370
3895.661140 0.8354 0.8350 0.8350 0.8350 0.8350
3902.006320 0.8350 0.8350 0.8350 0.8350 0.8350
3908.351500 0.8342 0.8348 0.8366 0.8370 0.8370
3914.696680 0.8370 0.8370 0.8370 0.8354 0.8350
3921.041860 0.8350 0.8350 0.8350 0.8350 0.8350
3927.387040 0.8350 0.8350 0.8350 0.8350 0.8350
3933.732220 0.8342 0.8340 0.8332 0.8330 0.8322
3940.077400 0.8320 0.8320 0.8320 0.8320 0.8320
3946.422580 0.8320 0.8304 0.8300 0.8300 0.8300
3952.767760 0.8300 0.8300 0.8300 0.8300 0.8300
3959.112940 0.8300 0.8300 0.8292 0.8290 0.8290
3965.458120 0.8290 0.8282 0.8280 0.8280 0.8280
3971.803300 0.8272 0.8270 0.8270 0.8270 0.8270
3978.148480 0.8270 0.8270 0.8270 0.8270 0.8270
3984.493660 0.8270 0.8270 0.8270 0.8270 0.8270
3990.838840 0.8278 0.8272 0.8270 0.8278 0.8272
3997.184020 0.8270 0.8270 0.8270 0.8254 0.8250
4003.529200 0.8250 0.8266 0.8270 0.8254 0.8250
4009.874380 0.8250
##END=
