##TITLE=PYRIDINE BORANE
$$ CALLERY CHEM.
##JCAMP-DX=4.24
##DATA TYPE=INFRARED SPECTRUM
##CLASS=COBLENTZ
##ORIGIN=WYANDOTTE CHEMICALS CORP., WYANDOTTE, MICHIGAN, USA
##OWNER=COBLENTZ SOCIETY
Collection (C) 2018 copyright by the U.S. Secretary of Commerce
on behalf of the United States of America. All rights reserved.
##DATE=Not specified, most likely prior to 1970
##MOLFORM=C5 H8 N B
##SOURCE REFERENCE=COBLENTZ NO. 360
##$NIST ID=B6000360
##$NIST SOURCE=COBLENTZ
##$NIST IMAGE=cob360
##SPECTROMETER/DATA SYSTEM=Not specified, most likely a prism, grating, or hybrid spectrometer.
##STATE=LIQUID
##PATH LENGTH=0.003 CM
##SAMPLING PROCEDURE=TRANSMISSION
##RESOLUTION=4
##DATA PROCESSING=DIGITIZED BY NIST FROM HARD COPY
##XUNITS=MICROMETERS
##YUNITS=TRANSMITTANCE
##XFACTOR=1.000000
##YFACTOR=1
##DELTAX=000.006631
##FIRSTX=2.012
##LASTX=15.9911
##FIRSTY=0.943
##MAXX=15.9911
##MINX=2.012
##MAXY=0.966
##MINY=0.033
##NPOINTS=2109
##XYDATA=(X++(Y..Y))
2.012000 0.9430 0.9400 0.9380 0.9380 0.9380
2.045172 0.9360 0.9350 0.9350 0.9330 0.9330
2.078000 0.9330 0.9350 0.9380 0.9430 0.9450
2.111172 0.9450 0.9430 0.9410 0.9400 0.9400
2.145000 0.9400 0.9410 0.9430 0.9430 0.9450
2.178172 0.9480 0.9480 0.9500 0.9510 0.9510
2.211000 0.9530 0.9550 0.9550 0.9560 0.9560
2.244172 0.9580 0.9580 0.9560 0.9530 0.9500
2.277000 0.9450 0.9350 0.9310 0.9230 0.9200
2.310172 0.9210 0.9250 0.9300 0.9330 0.9380
2.344000 0.9430 0.9430 0.9430 0.9430 0.9430
2.377172 0.9430 0.9450 0.9460 0.9460 0.9480
2.410000 0.9480 0.9480 0.9500 0.9510 0.9510
2.443172 0.9550 0.9580 0.9600 0.9600 0.9610
2.476000 0.9610 0.9610 0.9630 0.9630 0.9630
2.509172 0.9630 0.9630 0.9610 0.9600 0.9580
2.542000 0.9550 0.9510 0.9510 0.9500 0.9500
2.575172 0.9510 0.9550 0.9580 0.9580 0.9580
2.609000 0.9580 0.9580 0.9580 0.9580 0.9580
2.642172 0.9580 0.9600 0.9630 0.9650 0.9650
2.675000 0.9660 0.9660 0.9660 0.9660 0.9650
2.708172 0.9650 0.9630 0.9630 0.9610 0.9600
2.741000 0.9600 0.9580 0.9560 0.9510 0.9460
2.774172 0.9400 0.9360 0.9360 0.9360 0.9360
2.808000 0.9360 0.9380 0.9380 0.9380 0.9360
2.841172 0.9350 0.9350 0.9330 0.9300 0.9280
2.874000 0.9280 0.9260 0.9250 0.9210 0.9180
2.907172 0.9150 0.9150 0.9150 0.9150 0.9150
2.940000 0.9150 0.9150 0.9150 0.9160 0.9180
2.973172 0.9200 0.9210 0.9230 0.9230 0.9210
3.007000 0.9210 0.9210 0.9210 0.9180 0.9160
3.040172 0.9150 0.9110 0.9100 0.9080 0.9050
3.073000 0.8980 0.8930 0.8880 0.8810 0.8760
3.106172 0.8750 0.8730 0.8730 0.8730 0.8710
3.139000 0.8650 0.8600 0.8530 0.8450 0.8280
3.172172 0.8050 0.7920 0.7620 0.7350 0.7330
3.206000 0.7300 0.7280 0.7270 0.7180 0.7070
3.239172 0.6970 0.6970 0.7200 0.7580 0.7880
3.272000 0.8100 0.8260 0.8360 0.8410 0.8510
3.305172 0.8580 0.8630 0.8660 0.8650 0.8580
3.338000 0.8510 0.8480 0.8460 0.8480 0.8530
3.371172 0.8550 0.8560 0.8600 0.8630 0.8660
3.405000 0.8730 0.8760 0.8810 0.8850 0.8860
3.438172 0.8880 0.8860 0.8850 0.8850 0.8850
3.471000 0.8850 0.8850 0.8850 0.8880 0.8900
3.504172 0.8900 0.8930 0.8930 0.8950 0.9000
3.537000 0.9080 0.9160 0.9200 0.9210 0.9210
3.570172 0.9210 0.9210 0.9210 0.9210 0.9250
3.603000 0.9280 0.9310 0.9310 0.9310 0.9300
3.636172 0.9300 0.9280 0.9250 0.9250 0.9250
3.670000 0.9230 0.9230 0.9230 0.9230 0.9210
3.703172 0.9200 0.9180 0.9180 0.9180 0.9180
3.736000 0.9180 0.9180 0.9160 0.9150 0.9130
3.769172 0.9110 0.9100 0.9100 0.9100 0.9080
3.802000 0.9050 0.9030 0.9010 0.8960 0.8930
3.835172 0.8900 0.8850 0.8810 0.8800 0.8750
3.869000 0.8700 0.8680 0.8610 0.8530 0.8410
3.902172 0.8360 0.8350 0.8330 0.8310 0.8230
3.935000 0.8150 0.8130 0.8050 0.8000 0.7920
3.968172 0.7870 0.7780 0.7680 0.7570 0.7430
4.001000 0.7300 0.7180 0.7070 0.6980 0.6900
4.034172 0.6650 0.6480 0.6280 0.6180 0.6000
4.068000 0.5800 0.5550 0.5300 0.5000 0.4750
4.101172 0.4370 0.4050 0.3820 0.3540 0.3260
4.134000 0.3010 0.2910 0.2610 0.2290 0.1930
4.167172 0.1640 0.1480 0.1180 0.0960 0.0760
4.200000 0.0460 0.0340 0.0330 0.0330 0.0330
4.233172 0.0340 0.0340 0.0340 0.0360 0.0410
4.267000 0.0440 0.0460 0.0490 0.0530 0.0580
4.300172 0.0590 0.0630 0.0640 0.0660 0.0680
4.333000 0.0680 0.0680 0.0660 0.0640 0.0630
4.366172 0.0610 0.0610 0.0630 0.0660 0.0740
4.399000 0.0810 0.0810 0.0810 0.0810 0.0810
4.432172 0.0830 0.1140 0.1530 0.1730 0.1860
4.466000 0.1980 0.2010 0.2060 0.2170 0.2440
4.499172 0.2920 0.3610 0.4190 0.4800 0.5320
4.532000 0.5950 0.6470 0.6700 0.6970 0.7130
4.565172 0.7400 0.7500 0.7650 0.7680 0.7720
4.598000 0.7820 0.7870 0.7900 0.7920 0.7950
4.631172 0.7970 0.8010 0.8100 0.8200 0.8330
4.664000 0.8460 0.8510 0.8550 0.8560 0.8580
4.697172 0.8580 0.8580 0.8580 0.8580 0.8580
4.731000 0.8550 0.8550 0.8530 0.8500 0.8400
4.764172 0.8310 0.8210 0.8150 0.8060 0.8030
4.797000 0.7950 0.7770 0.7630 0.7630 0.7680
4.830172 0.7730 0.7830 0.7950 0.8080 0.8210
4.863000 0.8360 0.8500 0.8660 0.8800 0.8880
4.896172 0.8930 0.8960 0.9000 0.9010 0.9050
4.930000 0.9080 0.9060 0.9010 0.8980 0.8980
4.963172 0.8960 0.8950 0.8930 0.8930 0.8900
4.996000 0.8850 0.8810 0.8830 0.8830 0.8830
5.029172 0.8850 0.8850 0.8860 0.8860 0.8860
5.062000 0.8900 0.8980 0.9010 0.9060 0.9100
5.095172 0.9110 0.9130 0.9130 0.9080 0.9050
5.129000 0.9010 0.9000 0.8980 0.8950 0.8900
5.162172 0.8880 0.8900 0.8900 0.8930 0.8980
5.195000 0.9000 0.9050 0.9110 0.9110 0.9130
5.228172 0.9150 0.9150 0.9150 0.9160 0.9160
5.261000 0.9160 0.9200 0.9200 0.9180 0.9180
5.294172 0.9160 0.9150 0.9110 0.9030 0.8980
5.328000 0.8930 0.8910 0.8880 0.8850 0.8810
5.361172 0.8760 0.8610 0.8510 0.8460 0.8380
5.394000 0.8300 0.8210 0.8210 0.8280 0.8330
5.427172 0.8400 0.8510 0.8560 0.8610 0.8760
5.460000 0.8880 0.9000 0.9100 0.9160 0.9210
5.493172 0.9280 0.9300 0.9330 0.9380 0.9400
5.527000 0.9430 0.9410 0.9410 0.9400 0.9410
5.560172 0.9480 0.9500 0.9530 0.9550 0.9550
5.593000 0.9560 0.9600 0.9610 0.9630 0.9630
5.626172 0.9630 0.9630 0.9630 0.9610 0.9560
5.659000 0.9550 0.9550 0.9580 0.9580 0.9580
5.692172 0.9580 0.9580 0.9550 0.9510 0.9500
5.725000 0.9460 0.9430 0.9400 0.9350 0.9260
5.758172 0.9210 0.9200 0.9180 0.9180 0.9200
5.792000 0.9200 0.9130 0.9110 0.9150 0.9160
5.825172 0.9180 0.9200 0.9210 0.9230 0.9230
5.858000 0.9230 0.9230 0.9230 0.9250 0.9260
5.891172 0.9260 0.9280 0.9260 0.9210 0.9200
5.924000 0.9180 0.9180 0.9150 0.9100 0.9060
5.957172 0.9030 0.9010 0.9000 0.9000 0.9000
5.991000 0.8980 0.8980 0.8980 0.8960 0.8900
6.024172 0.8850 0.8730 0.8660 0.8600 0.8550
6.057000 0.8510 0.8360 0.8180 0.7830 0.7480
6.090172 0.6880 0.6400 0.5520 0.4500 0.3410
6.123000 0.2170 0.2170 0.2410 0.4300 0.5300
6.156172 0.6680 0.7600 0.8200 0.8300 0.8360
6.190000 0.8450 0.8500 0.8530 0.8530 0.8510
6.223172 0.8500 0.8500 0.8460 0.8400 0.8210
6.256000 0.8060 0.8010 0.7870 0.7720 0.7700
6.289172 0.7730 0.7980 0.8280 0.8530 0.8800
6.322000 0.8860 0.8900 0.8950 0.9000 0.9000
6.355172 0.9000 0.8950 0.8930 0.8930 0.8950
6.389000 0.8980 0.9010 0.9030 0.9050 0.9080
6.422172 0.9100 0.9060 0.9030 0.9000 0.8960
6.455000 0.8960 0.9000 0.9000 0.8980 0.8980
6.488172 0.8980 0.8960 0.8950 0.8930 0.8900
6.521000 0.8860 0.8830 0.8760 0.8730 0.8660
6.554172 0.8610 0.8610 0.8610 0.8600 0.8560
6.588000 0.8460 0.8330 0.8150 0.8060 0.8030
6.621172 0.7950 0.7720 0.7480 0.7130 0.6750
6.654000 0.6100 0.5350 0.4520 0.3690 0.2720
6.687172 0.2710 0.3310 0.4920 0.5720 0.6350
6.720000 0.6620 0.6680 0.6700 0.6700 0.6630
6.753172 0.6380 0.6080 0.5600 0.5040 0.4250
6.786000 0.3690 0.2760 0.1740 0.1290 0.1180
6.819172 0.1260 0.1940 0.2860 0.3460 0.3920
6.853000 0.4400 0.4840 0.5600 0.5870 0.6050
6.886172 0.6120 0.6130 0.6150 0.6180 0.6230
6.919000 0.6330 0.6480 0.6700 0.6880 0.7000
6.952172 0.7080 0.7170 0.7230 0.7270 0.7300
6.985000 0.7320 0.7320 0.7320 0.7280 0.7230
7.018172 0.7200 0.7170 0.7150 0.7120 0.7020
7.052000 0.6980 0.6930 0.6880 0.6830 0.6800
7.085172 0.6750 0.6730 0.6720 0.6680 0.6670
7.118000 0.6720 0.6820 0.6900 0.6970 0.7050
7.151172 0.7200 0.7300 0.7330 0.7370 0.7430
7.184000 0.7480 0.7520 0.7530 0.7580 0.7580
7.217172 0.7620 0.7630 0.7630 0.7620 0.7580
7.251000 0.7580 0.7580 0.7580 0.7620 0.7650
7.284172 0.7670 0.7670 0.7670 0.7650 0.7650
7.317000 0.7630 0.7630 0.7620 0.7600 0.7550
7.350172 0.7500 0.7430 0.7330 0.7250 0.7050
7.383000 0.6820 0.6450 0.6030 0.5640 0.5520
7.416172 0.5520 0.5650 0.6120 0.6620 0.7000
7.450000 0.7300 0.7480 0.7570 0.7650 0.7720
7.483172 0.7770 0.7800 0.7800 0.7820 0.7820
7.516000 0.7800 0.7800 0.7800 0.7780 0.7750
7.549172 0.7720 0.7680 0.7650 0.7650 0.7650
7.582000 0.7630 0.7620 0.7580 0.7580 0.7580
7.615172 0.7580 0.7570 0.7550 0.7550 0.7520
7.649000 0.7480 0.7420 0.7370 0.7330 0.7280
7.682172 0.7250 0.7220 0.7200 0.7200 0.7180
7.715000 0.7150 0.7120 0.7100 0.7050 0.6980
7.748172 0.6930 0.6920 0.6920 0.6920 0.6900
7.781000 0.6900 0.6920 0.6930 0.6930 0.6970
7.814172 0.7000 0.7020 0.7030 0.7030 0.7020
7.847000 0.7000 0.6980 0.6970 0.6930 0.6900
7.880172 0.6870 0.6820 0.6770 0.6680 0.6600
7.914000 0.6500 0.6350 0.6120 0.5870 0.5790
7.947172 0.5640 0.5540 0.5540 0.5600 0.5890
7.980000 0.6120 0.6280 0.6430 0.6550 0.6650
8.013172 0.6730 0.6780 0.6830 0.6920 0.6950
8.046000 0.6980 0.6980 0.6930 0.6930 0.6930
8.079172 0.6950 0.7000 0.7000 0.6920 0.6900
8.113000 0.6880 0.6850 0.6800 0.6770 0.6680
8.146172 0.6580 0.6520 0.6480 0.6430 0.6330
8.179000 0.6220 0.6080 0.5990 0.5870 0.5770
8.212172 0.5670 0.5590 0.5500 0.5400 0.5320
8.245000 0.5250 0.5200 0.5090 0.5040 0.4990
8.278172 0.4920 0.4850 0.4790 0.4650 0.4470
8.312000 0.4390 0.4320 0.4270 0.4120 0.3970
8.345172 0.3820 0.3670 0.3510 0.3320 0.3120
8.378000 0.2910 0.2640 0.2520 0.2160 0.1830
8.411172 0.1540 0.1310 0.1080 0.0880 0.0660
8.444000 0.0540 0.0440 0.0410 0.0390 0.0380
8.477172 0.0360 0.0340 0.0340 0.0340 0.0340
8.511000 0.0340 0.0340 0.0340 0.0340 0.0360
8.544172 0.0360 0.0380 0.0390 0.0410 0.0430
8.577000 0.0440 0.0480 0.0580 0.0690 0.0890
8.610172 0.1060 0.1190 0.1290 0.1510 0.1660
8.643000 0.1830 0.2010 0.2420 0.2810 0.3070
8.676172 0.3360 0.3640 0.3960 0.4250 0.4570
8.710000 0.4850 0.5100 0.5320 0.5470 0.5600
8.743172 0.5750 0.5950 0.6070 0.6180 0.6250
8.776000 0.6320 0.6320 0.6330 0.6430 0.6480
8.809172 0.6520 0.6530 0.6550 0.6530 0.6550
8.842000 0.6570 0.6570 0.6600 0.6630 0.6630
8.875172 0.6650 0.6650 0.6650 0.6650 0.6650
8.908000 0.6650 0.6650 0.6630 0.6630 0.6620
8.941172 0.6550 0.6500 0.6450 0.6370 0.6280
8.975000 0.6170 0.6030 0.5840 0.5470 0.5090
9.008172 0.4720 0.4370 0.4000 0.3590 0.3160
9.041000 0.2670 0.2110 0.1540 0.1210 0.0890
9.074172 0.0660 0.0540 0.0390 0.0380 0.0380
9.107000 0.0380 0.0380 0.0380 0.0380 0.0390
9.140172 0.0460 0.0510 0.0660 0.0930 0.1290
9.174000 0.1690 0.2140 0.2620 0.3090 0.3540
9.207172 0.3990 0.4370 0.4670 0.4940 0.5150
9.240000 0.5320 0.5490 0.5640 0.5770 0.5840
9.273172 0.5920 0.6000 0.6070 0.6180 0.6230
9.306000 0.6300 0.6380 0.6420 0.6420 0.6400
9.339172 0.6380 0.6380 0.6350 0.6270 0.6070
9.373000 0.5800 0.5470 0.5100 0.4720 0.4670
9.406172 0.4620 0.4650 0.5100 0.5450 0.5870
9.439000 0.6150 0.6380 0.6500 0.6600 0.6670
9.472172 0.6770 0.6870 0.6930 0.6980 0.7000
9.505000 0.7020 0.7030 0.7050 0.7050 0.7070
9.538172 0.7100 0.7120 0.7150 0.7170 0.7180
9.572000 0.7180 0.7180 0.7180 0.7200 0.7220
9.605172 0.7220 0.7220 0.7230 0.7270 0.7270
9.638000 0.7270 0.7270 0.7270 0.7220 0.7200
9.671172 0.7180 0.7120 0.7080 0.7020 0.6970
9.704000 0.6770 0.6570 0.6200 0.5920 0.5470
9.737172 0.5070 0.4420 0.4370 0.4320 0.4600
9.771000 0.5290 0.5670 0.6120 0.6550 0.6850
9.804172 0.6980 0.7080 0.7230 0.7330 0.7350
9.837000 0.7350 0.7350 0.7370 0.7380 0.7450
9.870172 0.7450 0.7470 0.7480 0.7520 0.7520
9.903000 0.7520 0.7530 0.7530 0.7530 0.7550
9.936172 0.7550 0.7570 0.7580 0.7580 0.7580
9.969000 0.7580 0.7580 0.7580 0.7580 0.7580
10.002172 0.7580 0.7580 0.7580 0.7550 0.7550
10.036000 0.7530 0.7520 0.7420 0.7370 0.7320
10.069172 0.7280 0.7270 0.7280 0.7280 0.7300
10.102000 0.7320 0.7330 0.7350 0.7380 0.7350
10.135172 0.7330 0.7320 0.7300 0.7300 0.7300
10.168000 0.7300 0.7280 0.7280 0.7280 0.7270
10.201172 0.7230 0.7220 0.7200 0.7180 0.7180
10.235000 0.7170 0.7170 0.7150 0.7150 0.7150
10.268172 0.7120 0.7080 0.7000 0.6980 0.6950
10.301000 0.6930 0.6930 0.6930 0.6930 0.6920
10.334172 0.6930 0.6930 0.6920 0.6900 0.6880
10.367000 0.6880 0.6920 0.6970 0.7050 0.7120
10.400172 0.7130 0.7150 0.7170 0.7220 0.7250
10.434000 0.7250 0.7270 0.7270 0.7270 0.7270
10.467172 0.7270 0.7270 0.7270 0.7250 0.7250
10.500000 0.7230 0.7200 0.7180 0.7150 0.7100
10.533172 0.7080 0.7030 0.7020 0.6970 0.6920
10.566000 0.6870 0.6830 0.6800 0.6750 0.6700
10.599172 0.6600 0.6500 0.6420 0.6280 0.6220
10.633000 0.6130 0.6030 0.5950 0.5840 0.5700
10.666172 0.5500 0.5340 0.5140 0.4990 0.4800
10.699000 0.4690 0.4550 0.4320 0.4140 0.4000
10.732172 0.3840 0.3660 0.3490 0.3340 0.3240
10.765000 0.3170 0.3040 0.2990 0.2940 0.2840
10.798172 0.2790 0.2740 0.2740 0.2770 0.2820
10.832000 0.2910 0.3010 0.3120 0.3220 0.3460
10.865172 0.3610 0.3970 0.4100 0.4400 0.4590
10.898000 0.4750 0.4950 0.5200 0.5400 0.5590
10.931172 0.5750 0.5950 0.6150 0.6250 0.6350
10.964000 0.6450 0.6530 0.6630 0.6730 0.6870
10.997172 0.7020 0.7080 0.7150 0.7230 0.7280
11.031000 0.7350 0.7400 0.7470 0.7520 0.7570
11.064172 0.7620 0.7630 0.7650 0.7680 0.7700
11.097000 0.7770 0.7800 0.7830 0.7880 0.7920
11.130172 0.7930 0.7980 0.8010 0.8010 0.8010
11.163000 0.8010 0.8030 0.8030 0.8050 0.8050
11.196172 0.8050 0.8060 0.8080 0.8080 0.8080
11.229000 0.8080 0.8080 0.8080 0.8100 0.8100
11.262172 0.8100 0.8080 0.8080 0.8060 0.8060
11.296000 0.8060 0.8060 0.8060 0.8050 0.8050
11.329172 0.8030 0.8010 0.8000 0.8000 0.8030
11.362000 0.8030 0.8030 0.8010 0.8010 0.8000
11.395172 0.8000 0.8000 0.8000 0.8000 0.8000
11.428000 0.8000 0.8010 0.8030 0.8010 0.8030
11.461172 0.8030 0.8050 0.8050 0.8060 0.8060
11.495000 0.8080 0.8110 0.8150 0.8180 0.8210
11.528172 0.8210 0.8230 0.8250 0.8260 0.8280
11.561000 0.8300 0.8310 0.8310 0.8310 0.8310
11.594172 0.8310 0.8330 0.8330 0.8330 0.8330
11.627000 0.8350 0.8350 0.8350 0.8350 0.8350
11.660172 0.8360 0.8380 0.8400 0.8410 0.8430
11.694000 0.8450 0.8450 0.8450 0.8460 0.8450
11.727172 0.8480 0.8510 0.8510 0.8510 0.8530
11.760000 0.8530 0.8530 0.8530 0.8550 0.8560
11.793172 0.8580 0.8610 0.8610 0.8600 0.8610
11.826000 0.8610 0.8610 0.8630 0.8650 0.8630
11.859172 0.8610 0.8600 0.8600 0.8610 0.8610
11.893000 0.8630 0.8650 0.8660 0.8660 0.8660
11.926172 0.8660 0.8660 0.8660 0.8660 0.8680
11.959000 0.8680 0.8660 0.8630 0.8630 0.8650
11.992172 0.8680 0.8680 0.8650 0.8650 0.8660
12.025000 0.8710 0.8710 0.8700 0.8680 0.8680
12.058172 0.8660 0.8680 0.8680 0.8700 0.8710
12.092000 0.8710 0.8710 0.8710 0.8680 0.8680
12.125172 0.8680 0.8680 0.8680 0.8680 0.8680
12.158000 0.8680 0.8700 0.8700 0.8710 0.8710
12.191172 0.8700 0.8680 0.8680 0.8680 0.8680
12.224000 0.8700 0.8680 0.8660 0.8660 0.8650
12.257172 0.8650 0.8650 0.8650 0.8650 0.8650
12.290000 0.8630 0.8610 0.8610 0.8610 0.8610
12.323172 0.8610 0.8610 0.8610 0.8600 0.8580
12.357000 0.8550 0.8550 0.8600 0.8610 0.8650
12.390172 0.8650 0.8610 0.8550 0.8530 0.8530
12.423000 0.8550 0.8550 0.8550 0.8560 0.8550
12.456172 0.8550 0.8550 0.8550 0.8550 0.8550
12.489000 0.8550 0.8530 0.8530 0.8510 0.8510
12.522172 0.8500 0.8510 0.8500 0.8460 0.8430
12.556000 0.8410 0.8410 0.8410 0.8410 0.8410
12.589172 0.8430 0.8430 0.8410 0.8410 0.8380
12.622000 0.8350 0.8350 0.8350 0.8350 0.8330
12.655172 0.8310 0.8310 0.8300 0.8250 0.8210
12.688000 0.8180 0.8160 0.8110 0.8050 0.8050
12.721172 0.8030 0.8010 0.8000 0.8000 0.7930
12.755000 0.7920 0.7870 0.7830 0.7750 0.7730
12.788172 0.7700 0.7630 0.7600 0.7570 0.7500
12.821000 0.7400 0.7350 0.7300 0.7250 0.7150
12.854172 0.7100 0.7050 0.7000 0.6870 0.6820
12.887000 0.6750 0.6630 0.6520 0.6400 0.6300
12.920172 0.6180 0.6080 0.5970 0.5850 0.5740
12.954000 0.5590 0.5470 0.5350 0.5200 0.4990
12.987172 0.4840 0.4540 0.4420 0.4340 0.4190
13.020000 0.3940 0.3660 0.3410 0.3160 0.2960
13.053172 0.2810 0.2610 0.2440 0.2270 0.2120
13.086000 0.1940 0.1780 0.1590 0.1430 0.1260
13.119172 0.1130 0.1030 0.0940 0.0840 0.0790
13.153000 0.0740 0.0680 0.0580 0.0560 0.0530
13.186172 0.0510 0.0480 0.0480 0.0480 0.0460
13.219000 0.0460 0.0460 0.0440 0.0440 0.0440
13.252172 0.0440 0.0440 0.0460 0.0480 0.0490
13.285000 0.0490 0.0510 0.0590 0.0680 0.0740
13.318172 0.0840 0.0960 0.1140 0.1390 0.1560
13.351000 0.1830 0.2110 0.2360 0.2690 0.2990
13.384172 0.3290 0.3590 0.3860 0.4120 0.4390
13.418000 0.4620 0.4850 0.5090 0.5290 0.5470
13.451172 0.5650 0.5820 0.5970 0.6120 0.6230
13.484000 0.6330 0.6420 0.6500 0.6600 0.6680
13.517172 0.6780 0.6870 0.6930 0.7020 0.7030
13.550000 0.7070 0.7170 0.7200 0.7250 0.7280
13.583172 0.7330 0.7380 0.7430 0.7430 0.7430
13.617000 0.7450 0.7470 0.7480 0.7530 0.7580
13.650172 0.7600 0.7620 0.7620 0.7620 0.7620
13.683000 0.7620 0.7630 0.7670 0.7680 0.7680
13.716172 0.7700 0.7700 0.7700 0.7700 0.7700
13.749000 0.7720 0.7770 0.7780 0.7780 0.7780
13.782172 0.7780 0.7800 0.7780 0.7780 0.7780
13.816000 0.7770 0.7750 0.7730 0.7720 0.7680
13.849172 0.7670 0.7650 0.7630 0.7620 0.7620
13.882000 0.7620 0.7600 0.7570 0.7530 0.7500
13.915172 0.7470 0.7450 0.7420 0.7400 0.7370
13.948000 0.7350 0.7330 0.7300 0.7270 0.7220
13.981172 0.7170 0.7150 0.7070 0.6930 0.6900
14.015000 0.6880 0.6800 0.6750 0.6700 0.6630
14.048172 0.6570 0.6550 0.6530 0.6470 0.6420
14.081000 0.6420 0.6400 0.6350 0.6320 0.6280
14.114172 0.6230 0.6200 0.6170 0.6120 0.6050
14.147000 0.6020 0.6000 0.5990 0.5940 0.5920
14.180172 0.5890 0.5890 0.5850 0.5840 0.5840
14.214000 0.5840 0.5850 0.5850 0.5890 0.5900
14.247172 0.5920 0.5940 0.5950 0.5950 0.5990
14.280000 0.6020 0.6030 0.6030 0.6050 0.6070
14.313172 0.6080 0.6120 0.6120 0.6100 0.6080
14.346000 0.6070 0.6050 0.6020 0.5990 0.5940
14.379172 0.5890 0.5820 0.5740 0.5670 0.5570
14.412000 0.5470 0.5350 0.5240 0.5100 0.4970
14.445172 0.4800 0.4640 0.4470 0.4270 0.4070
14.479000 0.3860 0.3620 0.3420 0.3210 0.3040
14.512172 0.2870 0.2710 0.2520 0.2360 0.2190
14.545000 0.2040 0.1910 0.1780 0.1710 0.1640
14.578172 0.1580 0.1540 0.1530 0.1410 0.1380
14.611000 0.1380 0.1380 0.1380 0.1380 0.1380
14.644172 0.1380 0.1380 0.1410 0.1530 0.1610
14.678000 0.1710 0.1840 0.1940 0.2060 0.2160
14.711172 0.2290 0.2460 0.2620 0.2770 0.2910
14.744000 0.3060 0.3210 0.3340 0.3490 0.3640
14.777172 0.3770 0.3920 0.4070 0.4200 0.4350
14.810000 0.4500 0.4650 0.4820 0.4970 0.5120
14.843172 0.5240 0.5350 0.5470 0.5590 0.5720
14.877000 0.5840 0.5950 0.6070 0.6180 0.6300
14.910172 0.6400 0.6500 0.6550 0.6580 0.6670
14.943000 0.6770 0.6850 0.6880 0.6900 0.6920
14.976172 0.6920 0.6950 0.6980 0.7000 0.7000
15.009000 0.7030 0.7080 0.7120 0.7130 0.7150
15.042172 0.7170 0.7170 0.7200 0.7230 0.7270
15.076000 0.7330 0.7400 0.7470 0.7530 0.7580
15.109172 0.7650 0.7670 0.7700 0.7700 0.7720
15.142000 0.7720 0.7730 0.7750 0.7750 0.7770
15.175172 0.7770 0.7770 0.7780 0.7780 0.7780
15.208000 0.7800 0.7780 0.7780 0.7770 0.7750
15.241172 0.7680 0.7670 0.7670 0.7670 0.7670
15.275000 0.7680 0.7700 0.7720 0.7720 0.7720
15.308172 0.7720 0.7720 0.7730 0.7730 0.7720
15.341000 0.7720 0.7700 0.7670 0.7650 0.7650
15.374172 0.7630 0.7620 0.7630 0.7630 0.7620
15.407000 0.7620 0.7600 0.7600 0.7600 0.7600
15.440172 0.7580 0.7570 0.7570 0.7550 0.7550
15.473000 0.7530 0.7530 0.7530 0.7530 0.7530
15.506172 0.7530 0.7530 0.7570 0.7570 0.7570
15.540000 0.7570 0.7570 0.7550 0.7550 0.7570
15.573172 0.7580 0.7620 0.7620 0.7630 0.7600
15.606000 0.7550 0.7530 0.7520 0.7500 0.7520
15.639172 0.7520 0.7530 0.7530 0.7520 0.7480
15.672000 0.7450 0.7450 0.7450 0.7430 0.7420
15.705172 0.7420 0.7420 0.7400 0.7400 0.7400
15.739000 0.7400 0.7400 0.7370 0.7350 0.7330
15.772172 0.7330 0.7330 0.7330 0.7330 0.7330
15.805000 0.7320 0.7320 0.7280 0.7270 0.7250
15.838172 0.7270 0.7270 0.7270 0.7270 0.7250
15.871000 0.7250 0.7230 0.7230 0.7220 0.7220
15.904172 0.7220 0.7200 0.7200 0.7180 0.7170
15.938000 0.7170 0.7170 0.7170 0.7170 0.7180
15.971172 0.7200 0.7180 0.7170 0.7150
##END=
