##TITLE=2,2'-DITHIODIPYRIDINE-1,1'-DIOXIDE
##JCAMP-DX=4.24
##DATA TYPE=INFRARED SPECTRUM
##CLASS=COBLENTZ
##ORIGIN=WYANDOTTE CHEMICALS CORP., WYANDOTTE, MICHIGAN, USA
##OWNER=COBLENTZ SOCIETY
Collection (C) 2018 copyright by the U.S. Secretary of Commerce
on behalf of the United States of America. All rights reserved.
##DATE=Not specified, most likely prior to 1970
##NAMES=1-oxido-2-pyridinyl 1-oxido-3-pyridinyl disulfide
2-[(1-oxido-3-pyridinyl)disulfanyl]pyridine 1-oxide
##MOLFORM=C10 H8 N2 O2 S2
##SOURCE REFERENCE=COBLENTZ NO. 3848
##$NIST ID=B6003848
##$NIST SOURCE=COBLENTZ
##$NIST IMAGE=cob3848
##SPECTROMETER/DATA SYSTEM=Not specified, most likely a prism, grating, or hybrid spectrometer.
##STATE=SOLID (MINERAL OIL MULL)
##PATH LENGTH=
$$SPECTRAL CONTAMINATION DUE TO OIL AROUND 2900 CM^-^1
##SAMPLING PROCEDURE=TRANSMISSION
##RESOLUTION=4
##DATA PROCESSING=DIGITIZED BY NIST FROM HARD COPY
##XUNITS=MICROMETERS
##YUNITS=TRANSMITTANCE
##XFACTOR=1.000000
##YFACTOR=1
##DELTAX=000.006200
##FIRSTX=2.019
##LASTX=16
##FIRSTY=0.381
##MAXX=16
##MINX=2.019
##MAXY=1.017
##MINY=0.035
##NPOINTS=2256
##XYDATA=(X++(Y..Y))
2.019000 0.3810 0.3790 0.3780 0.3760 0.3750
2.050015 0.3750 0.3730 0.3720 0.3700 0.3680
2.081000 0.3680 0.3670 0.3670 0.3670 0.3670
2.112015 0.3670 0.3670 0.3670 0.3670 0.3670
2.143000 0.3650 0.3650 0.3650 0.3650 0.3650
2.174015 0.3640 0.3640 0.3620 0.3620 0.3620
2.205000 0.3620 0.3620 0.3620 0.3620 0.3610
2.236015 0.3610 0.3610 0.3610 0.3610 0.3610
2.267000 0.3610 0.3610 0.3610 0.3610 0.3610
2.298015 0.3610 0.3610 0.3610 0.3610 0.3610
2.329000 0.3610 0.3610 0.3610 0.3620 0.3620
2.360015 0.3620 0.3620 0.3640 0.3640 0.3650
2.391000 0.3650 0.3670 0.3680 0.3700 0.3720
2.422015 0.3720 0.3730 0.3730 0.3730 0.3730
2.453000 0.3720 0.3720 0.3700 0.3680 0.3680
2.484015 0.3680 0.3680 0.3680 0.3700 0.3700
2.515000 0.3730 0.3750 0.3750 0.3750 0.3760
2.546015 0.3760 0.3760 0.3760 0.3780 0.3790
2.577000 0.3810 0.3820 0.3840 0.3870 0.3890
2.608015 0.3890 0.3900 0.3920 0.3930 0.3980
2.639000 0.4000 0.4030 0.4090 0.4100 0.4100
2.670015 0.4100 0.4100 0.4100 0.4100 0.4100
2.701000 0.4100 0.4100 0.4100 0.4100 0.4100
2.732015 0.4100 0.4100 0.4090 0.4070 0.4070
2.763000 0.4090 0.4090 0.4090 0.4120 0.4120
2.794015 0.4120 0.4100 0.4090 0.4090 0.4090
2.825000 0.4090 0.4090 0.4070 0.4060 0.4040
2.856015 0.4040 0.4030 0.4030 0.4010 0.4010
2.887000 0.4000 0.4000 0.4000 0.3980 0.3980
2.918015 0.3980 0.3980 0.3980 0.3960 0.3930
2.949000 0.3930 0.3900 0.3890 0.3860 0.3840
2.980015 0.3780 0.3780 0.3750 0.3750 0.3760
3.011000 0.3780 0.3780 0.3790 0.3790 0.3790
3.042015 0.3790 0.3790 0.3790 0.3810 0.3820
3.073000 0.3860 0.3870 0.3890 0.3890 0.3900
3.104015 0.3920 0.3920 0.3930 0.3930 0.3930
3.135000 0.3930 0.3900 0.3890 0.3840 0.3730
3.166015 0.3680 0.3650 0.3620 0.3610 0.3610
3.197000 0.3590 0.3510 0.3340 0.3220 0.3080
3.228015 0.2940 0.2740 0.2520 0.2430 0.2240
3.259000 0.2130 0.2120 0.2100 0.2100 0.2090
3.290015 0.2070 0.2070 0.2060 0.2010 0.1950
3.321000 0.1820 0.1680 0.1530 0.1330 0.1140
3.352015 0.0990 0.0860 0.0790 0.0720 0.0660
3.383000 0.0580 0.0520 0.0460 0.0440 0.0440
3.414015 0.0440 0.0460 0.0480 0.0490 0.0510
3.445000 0.0520 0.0520 0.0540 0.0540 0.0540
3.476015 0.0550 0.0550 0.0570 0.0580 0.0650
3.507000 0.0720 0.0880 0.1100 0.1300 0.1500
3.538015 0.2090 0.2480 0.2720 0.3030 0.3370
3.569000 0.3550 0.3760 0.3870 0.3980 0.4120
3.600015 0.4230 0.4320 0.4340 0.4370 0.4380
3.631000 0.4410 0.4480 0.4490 0.4490 0.4490
3.662015 0.4490 0.4480 0.4440 0.4400 0.4380
3.693000 0.4400 0.4460 0.4480 0.4490 0.4550
3.724015 0.4600 0.4600 0.4620 0.4630 0.4650
3.755000 0.4650 0.4650 0.4660 0.4660 0.4680
3.786015 0.4690 0.4710 0.4750 0.4800 0.4830
3.817000 0.4860 0.4880 0.4910 0.4930 0.4940
3.848015 0.4960 0.4960 0.4970 0.4990 0.5000
3.879000 0.5020 0.5020 0.5020 0.5030 0.5050
3.910015 0.5060 0.5100 0.5140 0.5170 0.5190
3.941000 0.5190 0.5200 0.5200 0.5250 0.5300
3.972015 0.5310 0.5310 0.5310 0.5310 0.5250
4.003000 0.5200 0.5190 0.5200 0.5220 0.5240
4.034015 0.5240 0.5190 0.5140 0.5110 0.5060
4.065000 0.4970 0.4940 0.4880 0.4860 0.4860
4.096015 0.4830 0.4820 0.4820 0.4850 0.4860
4.127000 0.4890 0.4960 0.5030 0.5130 0.5170
4.158015 0.5200 0.5280 0.5300 0.5310 0.5310
4.189000 0.5330 0.5360 0.5390 0.5410 0.5420
4.220015 0.5420 0.5370 0.5300 0.5250 0.5220
4.251000 0.5160 0.5050 0.4990 0.4990 0.5030
4.282015 0.5130 0.5200 0.5250 0.5270 0.5280
4.313000 0.5300 0.5310 0.5300 0.5310 0.5340
4.344015 0.5420 0.5510 0.5620 0.5730 0.5790
4.375000 0.5860 0.5900 0.5980 0.5980 0.5980
4.406015 0.5980 0.5980 0.5980 0.5960 0.5950
4.437000 0.5930 0.5890 0.5870 0.5870 0.5890
4.468015 0.5960 0.5960 0.5960 0.5960 0.5890
4.499000 0.5840 0.5840 0.5870 0.5900 0.5950
4.530015 0.5960 0.5960 0.5980 0.6030 0.6060
4.561000 0.6070 0.6070 0.6100 0.6100 0.6070
4.592015 0.6070 0.6070 0.6070 0.6070 0.6090
4.623000 0.6100 0.6130 0.6150 0.6150 0.6090
4.654015 0.6120 0.6130 0.6170 0.6180 0.6180
4.685000 0.6130 0.6130 0.6180 0.6230 0.6270
4.716015 0.6340 0.6400 0.6430 0.6460 0.6440
4.747000 0.6460 0.6480 0.6480 0.6490 0.6490
4.778015 0.6510 0.6510 0.6510 0.6540 0.6540
4.809000 0.6520 0.6510 0.6510 0.6490 0.6480
4.840015 0.6460 0.6460 0.6460 0.6440 0.6410
4.871000 0.6380 0.6350 0.6310 0.6270 0.6270
4.902015 0.6260 0.6270 0.6320 0.6370 0.6350
4.933000 0.6380 0.6410 0.6440 0.6460 0.6480
4.964015 0.6460 0.6480 0.6490 0.6510 0.6570
4.995000 0.6620 0.6650 0.6690 0.6720 0.6740
5.026015 0.6770 0.6790 0.6770 0.6770 0.6740
5.057000 0.6690 0.6630 0.6540 0.6480 0.6430
5.088015 0.6350 0.6310 0.6290 0.6240 0.6180
5.119000 0.6170 0.6170 0.6180 0.6290 0.6380
5.150015 0.6480 0.6520 0.6570 0.6550 0.6580
5.181000 0.6580 0.6580 0.6600 0.6600 0.6570
5.212015 0.6480 0.6380 0.6370 0.6370 0.6380
5.243000 0.6540 0.6620 0.6720 0.6770 0.6800
5.274015 0.6860 0.6880 0.6910 0.6910 0.6880
5.305000 0.6850 0.6850 0.6860 0.6880 0.6910
5.336015 0.6930 0.6960 0.6970 0.6990 0.6970
5.367000 0.6850 0.6850 0.6890 0.6960 0.7020
5.398015 0.7060 0.7060 0.7060 0.7050 0.7020
5.429000 0.6990 0.6960 0.6930 0.6930 0.6960
5.460015 0.7020 0.7100 0.7160 0.7190 0.7200
5.491000 0.7250 0.7300 0.7310 0.7360 0.7370
5.522015 0.7360 0.7280 0.7200 0.7170 0.7200
5.553000 0.7170 0.7130 0.7020 0.6970 0.6890
5.584015 0.6860 0.6860 0.6880 0.6970 0.7060
5.615000 0.7100 0.7080 0.7100 0.7100 0.7110
5.646015 0.7160 0.7240 0.7360 0.7470 0.7470
5.677000 0.7470 0.7390 0.7360 0.7300 0.7220
5.708015 0.7200 0.7220 0.7330 0.7390 0.7420
5.739000 0.7470 0.7420 0.7420 0.7410 0.7410
5.770015 0.7370 0.7280 0.7170 0.7080 0.6880
5.801000 0.6860 0.6880 0.6970 0.7160 0.7270
5.832015 0.7280 0.7190 0.7200 0.7240 0.7250
5.863000 0.7270 0.7330 0.7420 0.7470 0.7470
5.894015 0.7480 0.7480 0.7480 0.7470 0.7390
5.925000 0.7420 0.7480 0.7550 0.7620 0.7640
5.956015 0.7650 0.7550 0.7550 0.7670 0.7680
5.987000 0.7790 0.7790 0.7760 0.7670 0.7620
6.018015 0.7580 0.7560 0.7580 0.7670 0.7700
6.049000 0.7700 0.7670 0.7610 0.7580 0.7510
6.080015 0.7530 0.7550 0.7360 0.7310 0.7270
6.111000 0.7100 0.7080 0.7100 0.7170 0.7250
6.142015 0.7370 0.7620 0.7810 0.7930 0.8000
6.173000 0.8030 0.8130 0.8180 0.8260 0.8380
6.204015 0.8400 0.8410 0.8410 0.8340 0.7930
6.235000 0.7440 0.7080 0.6990 0.6990 0.7080
6.266015 0.7420 0.7580 0.7750 0.7920 0.8000
6.297000 0.8150 0.8350 0.8460 0.8510 0.8520
6.328015 0.8540 0.8520 0.8440 0.8380 0.8310
6.359000 0.8200 0.8040 0.7780 0.7450 0.7020
6.390015 0.6350 0.5620 0.5360 0.5250 0.5270
6.421000 0.5340 0.5480 0.5620 0.5920 0.6210
6.452015 0.6570 0.6930 0.7110 0.7270 0.7370
6.483000 0.7470 0.7510 0.7560 0.7560 0.7500
6.514015 0.7370 0.7340 0.7440 0.7560 0.7730
6.545000 0.7930 0.8040 0.8230 0.8290 0.8370
6.576015 0.8380 0.8380 0.8410 0.8600 0.8740
6.607000 0.8970 0.8970 0.8960 0.8940 0.8930
6.638015 0.8890 0.8850 0.8830 0.8750 0.8660
6.669000 0.8620 0.8570 0.8490 0.8410 0.8180
6.700015 0.7840 0.7420 0.6910 0.6350 0.5720
6.731000 0.5050 0.4350 0.3620 0.2940 0.2170
6.762015 0.1500 0.0940 0.0680 0.0570 0.0490
6.793000 0.0370 0.0350 0.0370 0.0440 0.0540
6.824015 0.0660 0.0750 0.0800 0.0880 0.1000
6.855000 0.1130 0.1280 0.1440 0.1640 0.1820
6.886015 0.2040 0.2210 0.2410 0.2520 0.2720
6.917000 0.2880 0.3030 0.3330 0.3670 0.3840
6.948015 0.4090 0.4200 0.4210 0.4180 0.3890
6.979000 0.3680 0.3160 0.2660 0.2210 0.1840
7.010015 0.1580 0.1480 0.1470 0.1480 0.1550
7.041000 0.1610 0.1720 0.1890 0.2070 0.2270
7.072015 0.2430 0.2520 0.2630 0.2740 0.2830
7.103000 0.2890 0.2960 0.2970 0.2990 0.2990
7.134015 0.3000 0.3020 0.3020 0.3050 0.3050
7.165000 0.3080 0.3080 0.3060 0.3030 0.3020
7.196015 0.2990 0.2930 0.2850 0.2800 0.2750
7.227000 0.2740 0.2740 0.2770 0.2880 0.3080
7.258015 0.3420 0.3890 0.4120 0.4380 0.4540
7.289000 0.4680 0.4830 0.4990 0.5200 0.5500
7.320015 0.5700 0.5980 0.6290 0.6480 0.6600
7.351000 0.6690 0.6790 0.6880 0.6960 0.6970
7.382015 0.6990 0.7050 0.7160 0.7300 0.7360
7.413000 0.7440 0.7470 0.7470 0.7500 0.7560
7.444015 0.7620 0.7700 0.7780 0.7890 0.7960
7.475000 0.8000 0.8040 0.8180 0.8270 0.8290
7.506015 0.8290 0.8320 0.8370 0.8380 0.8410
7.537000 0.8460 0.8490 0.8550 0.8570 0.8570
7.568015 0.8550 0.8550 0.8550 0.8580 0.8630
7.599000 0.8690 0.8820 0.8880 0.8910 0.8990
7.630015 0.9080 0.9170 0.9200 0.9240 0.9300
7.661000 0.9310 0.9360 0.9370 0.9410 0.9420
7.692015 0.9420 0.9410 0.9360 0.9330 0.9330
7.723000 0.9340 0.9370 0.9450 0.9550 0.9620
7.754015 0.9730 0.9760 0.9760 0.9750 0.9680
7.785000 0.9590 0.9340 0.9100 0.8750 0.8350
7.816015 0.7870 0.7340 0.6740 0.6100 0.5420
7.847000 0.4680 0.4120 0.3530 0.3160 0.2930
7.878015 0.2650 0.2580 0.2520 0.2490 0.2460
7.909000 0.2440 0.2460 0.2480 0.2480 0.2460
7.940015 0.2370 0.2260 0.2200 0.2060 0.1960
7.971000 0.1890 0.1790 0.1760 0.1670 0.1650
8.002015 0.1670 0.1680 0.1730 0.1810 0.1920
8.033000 0.2040 0.2210 0.2410 0.2630 0.2800
8.064015 0.2860 0.2860 0.2860 0.2770 0.2580
8.095000 0.2410 0.2210 0.2030 0.1920 0.1790
8.126015 0.1730 0.1680 0.1670 0.1680 0.1720
8.157000 0.1780 0.1930 0.2070 0.2200 0.2310
8.188015 0.2400 0.2480 0.2520 0.2550 0.2550
8.219000 0.2550 0.2520 0.2480 0.2410 0.2270
8.250015 0.2180 0.2090 0.2070 0.2090 0.2120
8.281000 0.2230 0.2410 0.2570 0.2790 0.3060
8.312015 0.3280 0.3590 0.3820 0.3980 0.4130
8.343000 0.4270 0.4480 0.4720 0.4930 0.5030
8.374015 0.5170 0.5250 0.5410 0.5500 0.5670
8.405000 0.5870 0.5930 0.6030 0.6130 0.6200
8.436015 0.6260 0.6310 0.6340 0.6380 0.6460
8.467000 0.6520 0.6580 0.6650 0.6680 0.6710
8.498015 0.6720 0.6720 0.6740 0.6770 0.6790
8.529000 0.6800 0.6820 0.6850 0.6850 0.6850
8.560015 0.6770 0.6580 0.6440 0.6320 0.6270
8.591000 0.6120 0.6090 0.6120 0.6150 0.6210
8.622015 0.6210 0.6170 0.6000 0.5870 0.5730
8.653000 0.5580 0.5550 0.5550 0.5580 0.5650
8.684015 0.5720 0.5780 0.5870 0.5870 0.5860
8.715000 0.5640 0.5440 0.5170 0.4720 0.4430
8.746015 0.4010 0.3700 0.3530 0.3370 0.3300
8.777000 0.3220 0.3060 0.2990 0.2970 0.2970
8.808015 0.3060 0.3200 0.3340 0.3530 0.3750
8.839000 0.3950 0.4130 0.4410 0.4600 0.4740
8.870015 0.4880 0.4970 0.5050 0.5140 0.5190
8.901000 0.5250 0.5270 0.5270 0.5280 0.5280
8.932015 0.5280 0.5280 0.5280 0.5280 0.5300
8.963000 0.5370 0.5470 0.5550 0.5750 0.5930
8.994015 0.6000 0.6170 0.6350 0.6510 0.6550
9.025000 0.6600 0.6660 0.6710 0.6790 0.6860
9.056015 0.6970 0.7080 0.7130 0.7190 0.7280
9.087000 0.7330 0.7360 0.7360 0.7330 0.7330
9.118015 0.7330 0.7310 0.7280 0.7130 0.6930
9.149000 0.6540 0.6070 0.5390 0.4770 0.4180
9.180015 0.4100 0.3960 0.3900 0.3820 0.3720
9.211000 0.3620 0.3480 0.3470 0.3440 0.3420
9.242015 0.3440 0.3640 0.3890 0.4180 0.4520
9.273000 0.4890 0.5130 0.5360 0.5550 0.5820
9.304015 0.5930 0.6030 0.6130 0.6230 0.6340
9.335000 0.6400 0.6480 0.6570 0.6660 0.6740
9.366015 0.6850 0.6970 0.7080 0.7110 0.7200
9.397000 0.7300 0.7410 0.7510 0.7530 0.7590
9.428015 0.7670 0.7720 0.7760 0.7790 0.7820
9.459000 0.7870 0.7890 0.7920 0.7960 0.8000
9.490015 0.8010 0.8010 0.8040 0.8010 0.7980
9.521000 0.7820 0.7640 0.7360 0.7030 0.6540
9.552015 0.6120 0.5980 0.5500 0.5270 0.5030
9.583000 0.4960 0.4790 0.4540 0.4520 0.4540
9.614015 0.4630 0.4720 0.4830 0.5080 0.5310
9.645000 0.5480 0.5640 0.5930 0.6150 0.6350
9.676015 0.6490 0.6660 0.6830 0.6990 0.7130
9.707000 0.7250 0.7330 0.7440 0.7510 0.7590
9.738015 0.7670 0.7700 0.7750 0.7810 0.7930
9.769000 0.8010 0.8130 0.8180 0.8260 0.8350
9.800015 0.8410 0.8440 0.8480 0.8490 0.8540
9.831000 0.8620 0.8680 0.8740 0.8790 0.8820
9.862015 0.8830 0.8830 0.8860 0.8890 0.8930
9.893000 0.8960 0.8970 0.8990 0.9000 0.9050
9.924015 0.9080 0.9100 0.9100 0.9100 0.9130
9.955000 0.9130 0.9080 0.9020 0.9000 0.8970
9.986015 0.8940 0.8910 0.8880 0.8820 0.8790
10.017000 0.8770 0.8790 0.8820 0.8880 0.8940
10.048015 0.9020 0.9080 0.9130 0.9170 0.9220
10.079000 0.9270 0.9360 0.9390 0.9410 0.9390
10.110015 0.9370 0.9330 0.9270 0.9200 0.9190
10.141000 0.9200 0.9200 0.9240 0.9250 0.9280
10.172015 0.9330 0.9370 0.9420 0.9450 0.9510
10.203000 0.9550 0.9580 0.9580 0.9590 0.9610
10.234015 0.9640 0.9670 0.9680 0.9720 0.9730
10.265000 0.9730 0.9730 0.9750 0.9750 0.9780
10.296015 0.9820 0.9900 0.9930 0.9960 0.9980
10.327000 0.9980 1.0000 1.0010 1.0010 1.0030
10.358015 1.0030 1.0070 1.0070 1.0070 1.0060
10.389000 1.0040 1.0030 1.0040 1.0040 1.0070
10.420015 1.0090 1.0100 1.0120 1.0120 1.0120
10.451000 1.0100 1.0090 1.0070 1.0040 1.0010
10.482015 1.0010 1.0000 1.0010 1.0030 1.0030
10.513000 1.0030 1.0010 0.9980 0.9950 0.9930
10.544015 0.9920 0.9920 0.9920 0.9930 1.0090
10.575000 1.0120 1.0120 1.0120 1.0130 1.0130
10.606015 1.0130 1.0100 1.0090 1.0070 1.0040
10.637000 1.0030 1.0000 0.9890 0.9760 0.9620
10.668015 0.9340 0.9110 0.8820 0.8650 0.8490
10.699000 0.8460 0.8460 0.8490 0.8800 0.8940
10.730015 0.9240 0.9470 0.9650 0.9840 0.9960
10.761000 1.0120 1.0130 1.0150 1.0150 1.0170
10.792015 1.0170 1.0170 1.0170 1.0170 1.0170
10.823000 1.0170 1.0150 1.0150 1.0150 1.0150
10.854015 1.0130 1.0130 1.0120 1.0100 1.0100
10.885000 1.0090 1.0090 1.0070 1.0070 1.0070
10.916015 1.0060 1.0040 1.0010 1.0000 0.9980
10.947000 0.9960 0.9950 0.9930 0.9930 0.9930
10.978015 0.9920 0.9900 0.9900 0.9900 0.9930
11.009000 0.9950 0.9960 0.9980 1.0000 1.0000
11.040015 1.0010 1.0010 1.0010 1.0000 1.0000
11.071000 1.0000 1.0000 1.0000 0.9980 0.9980
11.102015 0.9980 1.0010 1.0010 1.0000 0.9930
11.133000 0.9920 0.9920 0.9950 0.9960 0.9980
11.164015 1.0000 1.0070 1.0120 1.0120 1.0090
11.195000 1.0070 1.0060 1.0060 1.0060 1.0060
11.226015 1.0040 1.0030 1.0010 1.0010 1.0000
11.257000 1.0010 1.0000 0.9960 0.9960 0.9960
11.288015 0.9960 1.0000 1.0000 1.0000 1.0000
11.319000 0.9980 0.9960 0.9930 0.9900 0.9870
11.350015 0.9860 0.9860 0.9870 0.9870 0.9890
11.381000 0.9870 0.9870 0.9860 0.9810 0.9700
11.412015 0.9590 0.9510 0.9470 0.9440 0.9420
11.443000 0.9410 0.9410 0.9390 0.9370 0.9360
11.474015 0.9300 0.9220 0.9130 0.9030 0.8940
11.505000 0.8850 0.8750 0.8620 0.8480 0.8290
11.536015 0.8060 0.7950 0.7790 0.7620 0.7470
11.567000 0.7280 0.7140 0.7030 0.6790 0.6740
11.598015 0.6690 0.6750 0.6930 0.7030 0.7240
11.629000 0.7510 0.7730 0.8030 0.8260 0.8460
11.660015 0.8630 0.8740 0.8970 0.9130 0.9340
11.691000 0.9500 0.9610 0.9700 0.9750 0.9780
11.722015 0.9790 0.9820 0.9840 0.9860 0.9870
11.753000 0.9870 0.9870 0.9810 0.9760 0.9680
11.784015 0.9590 0.9480 0.9340 0.9190 0.9030
11.815000 0.8880 0.8720 0.8540 0.8320 0.8030
11.846015 0.7580 0.7170 0.6790 0.6230 0.5790
11.877000 0.5170 0.4490 0.3930 0.3440 0.2970
11.908015 0.2580 0.2260 0.1980 0.1780 0.1640
11.939000 0.1560 0.1470 0.1370 0.1340 0.1340
11.970015 0.1360 0.1370 0.1440 0.1500 0.1580
12.001000 0.1700 0.1870 0.2100 0.2430 0.2660
12.032015 0.2880 0.3130 0.3360 0.3610 0.3820
12.063000 0.4000 0.4240 0.4370 0.4540 0.4690
12.094015 0.4910 0.5080 0.5200 0.5330 0.5480
12.125000 0.5670 0.5820 0.5980 0.6100 0.6200
12.156015 0.6270 0.6370 0.6460 0.6510 0.6600
12.187000 0.6650 0.6690 0.6790 0.6910 0.7020
12.218015 0.7100 0.7170 0.7190 0.7270 0.7310
12.249000 0.7330 0.7360 0.7390 0.7390 0.7410
12.280015 0.7420 0.7470 0.7500 0.7560 0.7590
12.311000 0.7610 0.7610 0.7590 0.7610 0.7650
12.342015 0.7670 0.7700 0.7720 0.7730 0.7760
12.373000 0.7790 0.7810 0.7840 0.7890 0.7980
12.404015 0.8010 0.8030 0.8090 0.8170 0.8170
12.435000 0.8180 0.8180 0.8200 0.8210 0.8260
12.466015 0.8270 0.8270 0.8290 0.8290 0.8310
12.497000 0.8310 0.8310 0.8340 0.8380 0.8410
12.528015 0.8460 0.8490 0.8510 0.8510 0.8520
12.559000 0.8540 0.8540 0.8550 0.8570 0.8600
12.590015 0.8620 0.8620 0.8660 0.8690 0.8690
12.621000 0.8690 0.8690 0.8680 0.8680 0.8660
12.652015 0.8680 0.8680 0.8680 0.8680 0.8680
12.683000 0.8680 0.8680 0.8680 0.8650 0.8620
12.714015 0.8550 0.8490 0.8460 0.8400 0.8310
12.745000 0.8230 0.8120 0.8070 0.8010 0.7950
12.776015 0.7870 0.7790 0.7730 0.7590 0.7420
12.807000 0.7240 0.7080 0.6940 0.6690 0.6480
12.838015 0.6240 0.6090 0.5950 0.5730 0.5530
12.869000 0.5190 0.4880 0.4660 0.4440 0.4200
12.900015 0.4040 0.3820 0.3530 0.3340 0.3050
12.931000 0.2890 0.2650 0.2510 0.2430 0.2240
12.962015 0.2090 0.1900 0.1700 0.1590 0.1530
12.993000 0.1450 0.1390 0.1310 0.1300 0.1300
13.024015 0.1300 0.1310 0.1310 0.1330 0.1330
13.055000 0.1330 0.1310 0.1300 0.1270 0.1240
13.086015 0.1200 0.1110 0.1030 0.0970 0.0960
13.117000 0.0970 0.0970 0.0990 0.1000 0.1000
13.148015 0.1030 0.1100 0.1160 0.1220 0.1330
13.179000 0.1390 0.1440 0.1500 0.1580 0.1720
13.210015 0.1930 0.2030 0.2150 0.2320 0.2490
13.241000 0.2630 0.2750 0.2880 0.3000 0.3130
13.272015 0.3270 0.3410 0.3550 0.3670 0.3810
13.303000 0.3950 0.4100 0.4290 0.4460 0.4550
13.334015 0.4680 0.4800 0.4930 0.5080 0.5140
13.365000 0.5200 0.5300 0.5390 0.5450 0.5610
13.396015 0.5700 0.5760 0.5840 0.5950 0.5980
13.427000 0.6030 0.6100 0.6170 0.6180 0.6240
13.458015 0.6310 0.6370 0.6460 0.6510 0.6570
13.489000 0.6600 0.6680 0.6710 0.6770 0.6800
13.520015 0.6860 0.6860 0.6890 0.6930 0.6970
13.551000 0.6990 0.7000 0.7080 0.7110 0.7170
13.582015 0.7190 0.7200 0.7270 0.7330 0.7360
13.613000 0.7370 0.7390 0.7420 0.7470 0.7510
13.644015 0.7580 0.7590 0.7620 0.7640 0.7700
13.675000 0.7790 0.7810 0.7840 0.7870 0.7920
13.706015 0.7950 0.8030 0.8070 0.8100 0.8120
13.737000 0.8100 0.8100 0.8100 0.8100 0.8120
13.768015 0.8130 0.8180 0.8240 0.8270 0.8310
13.799000 0.8320 0.8380 0.8410 0.8410 0.8410
13.830015 0.8430 0.8440 0.8460 0.8460 0.8480
13.861000 0.8490 0.8520 0.8570 0.8600 0.8620
13.892015 0.8620 0.8630 0.8650 0.8680 0.8690
13.923000 0.8720 0.8800 0.8940 0.8970 0.9000
13.954015 0.9000 0.9080 0.9190 0.9240 0.9280
13.985000 0.9300 0.9280 0.9300 0.9330 0.9390
14.016015 0.9440 0.9450 0.9440 0.9410 0.9390
14.047000 0.9340 0.9330 0.9310 0.9310 0.9300
14.078015 0.9240 0.9050 0.8960 0.8820 0.8510
14.109000 0.8200 0.7930 0.7550 0.7270 0.6830
14.140015 0.6290 0.6010 0.5590 0.5300 0.5060
14.171000 0.4880 0.4710 0.4580 0.4340 0.4120
14.202015 0.3930 0.3700 0.3610 0.3440 0.3250
14.233000 0.3050 0.2890 0.2770 0.2660 0.2490
14.264015 0.2340 0.2180 0.2100 0.2100 0.2100
14.295000 0.2120 0.2150 0.2180 0.2210 0.2260
14.326015 0.2310 0.2380 0.2460 0.2680 0.2860
14.357000 0.3020 0.3170 0.3310 0.3450 0.3620
14.388015 0.3810 0.4030 0.4240 0.4440 0.4690
14.419000 0.4830 0.5000 0.5140 0.5300 0.5500
14.450015 0.5650 0.5730 0.5870 0.6000 0.6030
14.481000 0.6150 0.6290 0.6380 0.6460 0.6550
14.512015 0.6630 0.6710 0.6790 0.6860 0.6940
14.543000 0.6990 0.7030 0.7110 0.7200 0.7280
14.574015 0.7300 0.7310 0.7310 0.7340 0.7370
14.605000 0.7410 0.7450 0.7480 0.7510 0.7580
14.636015 0.7590 0.7620 0.7670 0.7680 0.7680
14.667000 0.7640 0.7670 0.7680 0.7700 0.7730
14.698015 0.7790 0.7860 0.7870 0.7890 0.7920
14.729000 0.7920 0.7920 0.7890 0.7840 0.7870
14.760015 0.7890 0.7900 0.7900 0.7900 0.7860
14.791000 0.7890 0.7890 0.7890 0.7890 0.7890
14.822015 0.7890 0.7870 0.7810 0.7790 0.7790
14.853000 0.7790 0.7790 0.7790 0.7790 0.7790
14.884015 0.7790 0.7790 0.7790 0.7820 0.7820
14.915000 0.7820 0.7820 0.7820 0.7820 0.7810
14.946015 0.7780 0.7760 0.7720 0.7670 0.7610
14.977000 0.7550 0.7480 0.7420 0.7330 0.7240
15.008015 0.7130 0.6990 0.6930 0.6820 0.6690
15.039000 0.6570 0.6440 0.6320 0.6240 0.6200
15.070015 0.6180 0.6180 0.6200 0.6260 0.6290
15.101000 0.6320 0.6370 0.6480 0.6510 0.6580
15.132015 0.6620 0.6660 0.6720 0.6770 0.6820
15.163000 0.6880 0.6960 0.6990 0.7000 0.7020
15.194015 0.7060 0.7100 0.7130 0.7140 0.7140
15.225000 0.7160 0.7190 0.7220 0.7250 0.7250
15.256015 0.7200 0.7200 0.7220 0.7250 0.7240
15.287000 0.7220 0.7200 0.7170 0.7170 0.7170
15.318015 0.7130 0.7080 0.7060 0.7060 0.7000
15.349000 0.6970 0.6960 0.6940 0.6890 0.6880
15.380015 0.6820 0.6800 0.6860 0.6860 0.6830
15.411000 0.6750 0.6690 0.6680 0.6690 0.6680
15.442015 0.6680 0.6650 0.6630 0.6630 0.6660
15.473000 0.6630 0.6600 0.6550 0.6510 0.6490
15.504015 0.6460 0.6430 0.6400 0.6370 0.6350
15.535000 0.6320 0.6320 0.6320 0.6310 0.6290
15.566015 0.6290 0.6270 0.6230 0.6210 0.6180
15.597000 0.6130 0.6090 0.6070 0.6060 0.6040
15.628015 0.6030 0.6000 0.6000 0.5960 0.5900
15.659000 0.5860 0.5820 0.5810 0.5820 0.5810
15.690015 0.5790 0.5730 0.5700 0.5700 0.5680
15.721000 0.5670 0.5640 0.5590 0.5530 0.5480
15.752015 0.5420 0.5410 0.5360 0.5330 0.5310
15.783000 0.5300 0.5280 0.5280 0.5270 0.5240
15.814015 0.5190 0.5140 0.5110 0.5080 0.5020
15.845000 0.5000 0.5000 0.4990 0.4990 0.4970
15.876015 0.4940 0.4880 0.4860 0.4860 0.4860
15.907000 0.4820 0.4770 0.4720 0.4720 0.4710
15.938015 0.4690 0.4650 0.4600 0.4600 0.4580
15.969000 0.4580 0.4570 0.4550 0.4540 0.4490
16.000015 0.4400
##END=
