##TITLE=(4-CHLORO-2-METHYL PHENOXY) ACETIC ACID, CALCIUM SALT
##JCAMP-DX=4.24
##DATA TYPE=INFRARED SPECTRUM
##CLASS=COBLENTZ
##ORIGIN=DOW CHEMICAL COMPANY
##OWNER=COBLENTZ SOCIETY
Collection (C) 2018 copyright by the U.S. Secretary of Commerce
on behalf of the United States of America. All rights reserved.
##DATE=Not specified, most likely prior to 1970
##MOLFORM=C18 H16 Ca Cl2 O6
##SOURCE REFERENCE=COBLENTZ NO. 3259
##$NIST ID=B6003259
##$NIST SOURCE=COBLENTZ
##$NIST IMAGE=cob3259
##SPECTROMETER/DATA SYSTEM=Not specified, most likely a prism, grating, or hybrid spectrometer.
##STATE=SOLID (MINERAL OIL MULL)
##PATH LENGTH=
$$SPECTRAL CONTAMINATION DUE TO OIL AROUND 2900 CM^-^1
##SAMPLING PROCEDURE=TRANSMISSION
##RESOLUTION=4
##DATA PROCESSING=DIGITIZED BY NIST FROM HARD COPY
##XUNITS=MICROMETERS
##YUNITS=TRANSMITTANCE
##XFACTOR=1.000000
##YFACTOR=1
##DELTAX=000.006863
##FIRSTX=2.041
##LASTX=15.9177
##FIRSTY=0.841
##MAXX=15.9177
##MINX=2.041
##MAXY=0.909
##MINY=0.066
##NPOINTS=2023
##XYDATA=(X++(Y..Y))
2.041000 0.8410 0.8390 0.8390 0.8370 0.8390
2.075331 0.8410 0.8410 0.8410 0.8390 0.8410
2.110000 0.8410 0.8410 0.8410 0.8420 0.8420
2.144331 0.8420 0.8420 0.8420 0.8420 0.8410
2.178000 0.8410 0.8410 0.8370 0.8350 0.8340
2.212331 0.8340 0.8320 0.8300 0.8290 0.8290
2.247000 0.8270 0.8270 0.8250 0.8230 0.8230
2.281331 0.8250 0.8250 0.8250 0.8270 0.8290
2.316000 0.8300 0.8300 0.8300 0.8300 0.8300
2.350331 0.8320 0.8320 0.8340 0.8340 0.8340
2.384000 0.8350 0.8350 0.8350 0.8370 0.8390
2.418331 0.8390 0.8410 0.8410 0.8420 0.8420
2.453000 0.8440 0.8440 0.8440 0.8440 0.8460
2.487331 0.8470 0.8490 0.8510 0.8490 0.8510
2.522000 0.8510 0.8510 0.8520 0.8540 0.8560
2.556331 0.8580 0.8590 0.8590 0.8590 0.8590
2.590000 0.8590 0.8610 0.8610 0.8580 0.8590
2.624331 0.8590 0.8590 0.8610 0.8630 0.8630
2.659000 0.8610 0.8560 0.8540 0.8520 0.8470
2.693331 0.8460 0.8370 0.8290 0.8230 0.8170
2.727000 0.8060 0.8030 0.8010 0.8000 0.7980
2.761331 0.7960 0.7940 0.7940 0.7930 0.7930
2.796000 0.7910 0.7880 0.7820 0.7770 0.7770
2.830331 0.7740 0.7740 0.7720 0.7720 0.7700
2.865000 0.7700 0.7690 0.7650 0.7640 0.7600
2.899331 0.7580 0.7580 0.7580 0.7580 0.7600
2.933000 0.7600 0.7620 0.7620 0.7620 0.7620
2.967331 0.7620 0.7640 0.7650 0.7670 0.7700
3.002000 0.7740 0.7770 0.7770 0.7740 0.7740
3.036331 0.7740 0.7740 0.7740 0.7740 0.7740
3.071000 0.7740 0.7740 0.7740 0.7760 0.7760
3.105331 0.7770 0.7760 0.7770 0.7770 0.7790
3.139000 0.7790 0.7810 0.7810 0.7810 0.7810
3.173331 0.7810 0.7810 0.7790 0.7770 0.7760
3.208000 0.7740 0.7720 0.7700 0.7690 0.7640
3.242331 0.7620 0.7580 0.7580 0.7580 0.7550
3.276000 0.7530 0.7500 0.7410 0.7290 0.7120
3.310331 0.6920 0.6660 0.6490 0.6100 0.5410
3.345000 0.4900 0.4370 0.2830 0.2150 0.1570
3.379331 0.1280 0.1140 0.0950 0.0940 0.0950
3.414000 0.1170 0.1410 0.1570 0.1840 0.2100
3.448331 0.2270 0.2340 0.2410 0.2470 0.2580
3.482000 0.2850 0.3120 0.3470 0.4590 0.6010
3.516331 0.6680 0.7210 0.7580 0.7720 0.7810
3.551000 0.7890 0.7980 0.8100 0.8220 0.8300
3.585331 0.8300 0.8320 0.8340 0.8390 0.8410
3.620000 0.8410 0.8370 0.8340 0.8320 0.8340
3.654331 0.8390 0.8410 0.8420 0.8420 0.8460
3.688000 0.8470 0.8470 0.8470 0.8470 0.8470
3.722331 0.8470 0.8470 0.8490 0.8490 0.8520
3.757000 0.8520 0.8540 0.8540 0.8560 0.8610
3.791331 0.8630 0.8630 0.8640 0.8680 0.8680
3.825000 0.8700 0.8700 0.8700 0.8710 0.8710
3.859331 0.8710 0.8730 0.8730 0.8730 0.8750
3.894000 0.8750 0.8750 0.8760 0.8760 0.8760
3.928331 0.8780 0.8780 0.8800 0.8800 0.8800
3.963000 0.8820 0.8820 0.8820 0.8800 0.8800
3.997331 0.8830 0.8830 0.8820 0.8820 0.8820
4.031000 0.8830 0.8830 0.8850 0.8830 0.8850
4.065331 0.8850 0.8870 0.8870 0.8870 0.8900
4.100000 0.8880 0.8870 0.8870 0.8850 0.8870
4.134331 0.8880 0.8880 0.8900 0.8900 0.8880
4.169000 0.8850 0.8820 0.8820 0.8760 0.8730
4.203331 0.8730 0.8730 0.8730 0.8730 0.8730
4.237000 0.8780 0.8800 0.8800 0.8820 0.8820
4.271331 0.8830 0.8870 0.8900 0.8900 0.8900
4.306000 0.8900 0.8900 0.8920 0.8940 0.8950
4.340331 0.8950 0.8940 0.8950 0.8950 0.8950
4.375000 0.8950 0.8970 0.8970 0.8970 0.8990
4.409331 0.8990 0.9000 0.9000 0.9000 0.9000
4.443000 0.9000 0.9000 0.9000 0.9000 0.9000
4.477331 0.9000 0.9000 0.9000 0.9000 0.8990
4.512000 0.8990 0.8990 0.9000 0.9000 0.9000
4.546331 0.9000 0.9000 0.9000 0.8990 0.8990
4.580000 0.8990 0.8990 0.8990 0.9020 0.9020
4.614331 0.9000 0.9000 0.9000 0.9000 0.8990
4.649000 0.8970 0.8970 0.8970 0.8970 0.8990
4.683331 0.8990 0.8990 0.8990 0.8990 0.8970
4.718000 0.8970 0.8990 0.8990 0.8990 0.9000
4.752331 0.9000 0.9000 0.9000 0.9000 0.9000
4.786000 0.9000 0.8990 0.8990 0.9020 0.9000
4.820331 0.9000 0.9000 0.9000 0.8990 0.9000
4.855000 0.9000 0.9020 0.9020 0.9020 0.9020
4.889331 0.9000 0.9000 0.9000 0.9020 0.9020
4.924000 0.9020 0.9020 0.9020 0.9040 0.9040
4.958331 0.9040 0.9040 0.9050 0.9090 0.9090
4.992000 0.9040 0.9040 0.9040 0.9040 0.9040
5.026331 0.9040 0.9040 0.9050 0.9050 0.9070
5.061000 0.9090 0.9090 0.9090 0.9090 0.9090
5.095331 0.9090 0.9070 0.9070 0.9070 0.9050
5.129000 0.9050 0.9040 0.9040 0.9040 0.9050
5.163331 0.9050 0.9070 0.9090 0.9090 0.9090
5.198000 0.9070 0.9000 0.9000 0.9000 0.9000
5.232331 0.9000 0.9000 0.9000 0.9000 0.9000
5.267000 0.9000 0.9000 0.8990 0.8950 0.8940
5.301331 0.8940 0.8950 0.8950 0.8970 0.8990
5.335000 0.8970 0.8970 0.8970 0.8970 0.8970
5.369331 0.8970 0.8990 0.8970 0.8970 0.8970
5.404000 0.8940 0.8920 0.8920 0.8920 0.8940
5.438331 0.8990 0.9000 0.9000 0.8990 0.9000
5.473000 0.9000 0.9000 0.9000 0.9020 0.9020
5.507331 0.9020 0.9000 0.9000 0.8990 0.8990
5.541000 0.8970 0.8970 0.9000 0.8990 0.8990
5.575331 0.8990 0.8970 0.8970 0.8940 0.8920
5.610000 0.8900 0.8900 0.8880 0.8850 0.8830
5.644331 0.8830 0.8820 0.8820 0.8800 0.8800
5.678000 0.8760 0.8730 0.8710 0.8700 0.8700
5.712331 0.8660 0.8660 0.8640 0.8630 0.8610
5.747000 0.8590 0.8590 0.8590 0.8590 0.8590
5.781331 0.8590 0.8590 0.8610 0.8610 0.8590
5.816000 0.8520 0.8520 0.8490 0.8460 0.8440
5.850331 0.8420 0.8410 0.8350 0.8300 0.8250
5.884000 0.8200 0.8150 0.8100 0.8030 0.7940
5.918331 0.7770 0.7600 0.7470 0.7280 0.7170
5.953000 0.6990 0.6760 0.6520 0.6250 0.5980
5.987331 0.5700 0.5450 0.5230 0.5050 0.4970
6.022000 0.4870 0.4680 0.4490 0.4300 0.4080
6.056331 0.3880 0.3650 0.3410 0.3170 0.2940
6.090000 0.2660 0.2490 0.2350 0.2100 0.1960
6.124331 0.1810 0.1650 0.1530 0.1380 0.1290
6.159000 0.1160 0.1050 0.0970 0.0900 0.0870
6.193331 0.0780 0.0710 0.0680 0.0660 0.0660
6.227000 0.0680 0.0700 0.0730 0.0800 0.0830
6.261331 0.0900 0.0950 0.1000 0.1050 0.1140
6.296000 0.1230 0.1350 0.1480 0.1670 0.1910
6.330331 0.2220 0.2470 0.2870 0.3170 0.3600
6.365000 0.3940 0.4230 0.4460 0.4700 0.4950
6.399331 0.5760 0.6150 0.6340 0.6560 0.6660
6.433000 0.6700 0.6730 0.6750 0.6800 0.6870
6.467331 0.6970 0.7050 0.7160 0.7240 0.7310
6.502000 0.7350 0.7380 0.7380 0.7380 0.7380
6.536331 0.7380 0.7350 0.7290 0.7290 0.7210
6.571000 0.7170 0.7110 0.7050 0.6940 0.6760
6.605331 0.6540 0.6270 0.6130 0.5860 0.5530
6.639000 0.5160 0.4950 0.4750 0.4300 0.3840
6.673331 0.3350 0.2830 0.2300 0.1910 0.1700
6.708000 0.1670 0.1690 0.1930 0.2200 0.2440
6.742331 0.2680 0.2950 0.3160 0.3280 0.3290
6.776000 0.3280 0.3170 0.3110 0.2880 0.2660
6.810331 0.2520 0.2410 0.2320 0.2290 0.2220
6.845000 0.2200 0.2180 0.2170 0.2170 0.2170
6.879331 0.2200 0.2230 0.2300 0.2390 0.2420
6.914000 0.2490 0.2490 0.2510 0.2510 0.2490
6.948331 0.2460 0.2390 0.2300 0.2230 0.2200
6.982000 0.2180 0.2200 0.2230 0.2370 0.2540
7.016331 0.2700 0.2880 0.3090 0.3360 0.3700
7.051000 0.3980 0.4220 0.4460 0.4640 0.4820
7.085331 0.4970 0.5170 0.5280 0.5310 0.5410
7.120000 0.5480 0.5520 0.5640 0.5930 0.6030
7.154331 0.6170 0.6320 0.6410 0.6470 0.6470
7.188000 0.6440 0.6370 0.6230 0.6050 0.5910
7.222331 0.5770 0.5690 0.5620 0.5620 0.5690
7.257000 0.5930 0.6150 0.6350 0.6540 0.6700
7.291331 0.6820 0.6880 0.6970 0.7020 0.7090
7.325000 0.7170 0.7230 0.7240 0.7230 0.7160
7.359331 0.7050 0.6920 0.6760 0.6680 0.6510
7.394000 0.6290 0.6000 0.5690 0.5350 0.5210
7.428331 0.5040 0.4950 0.4870 0.4680 0.4490
7.463000 0.4420 0.4420 0.4490 0.4680 0.4940
7.497331 0.5450 0.5650 0.5910 0.6060 0.6290
7.531000 0.6460 0.6610 0.6730 0.6820 0.6900
7.565331 0.6990 0.7000 0.7020 0.7020 0.6990
7.600000 0.6900 0.6760 0.6590 0.6420 0.6220
7.634331 0.6010 0.5790 0.5740 0.5530 0.5260
7.669000 0.5050 0.4990 0.4900 0.4830 0.4830
7.703331 0.4920 0.5410 0.5670 0.5980 0.6200
7.737000 0.6460 0.6710 0.6880 0.6920 0.6950
7.771331 0.6970 0.6900 0.6800 0.6710 0.6710
7.806000 0.6590 0.6470 0.6460 0.6390 0.6340
7.840331 0.6300 0.6220 0.6150 0.6030 0.5960
7.875000 0.5840 0.5690 0.5530 0.5410 0.5310
7.909331 0.5230 0.5170 0.5110 0.5090 0.5020
7.943000 0.5000 0.4990 0.4950 0.4820 0.4660
7.977331 0.4470 0.4420 0.4320 0.4150 0.3940
8.012000 0.3810 0.3700 0.3620 0.3600 0.3580
8.046331 0.3570 0.3530 0.3520 0.3500 0.3450
8.080000 0.3400 0.3330 0.3310 0.3310 0.3330
8.114331 0.3480 0.3650 0.3910 0.4220 0.4510
8.149000 0.4900 0.5500 0.5810 0.6100 0.6350
8.183331 0.6560 0.6760 0.6940 0.7120 0.7310
8.218000 0.7450 0.7480 0.7520 0.7550 0.7570
8.252331 0.7580 0.7570 0.7520 0.7480 0.7410
8.286000 0.7310 0.7090 0.6900 0.6680 0.6370
8.320331 0.6010 0.5600 0.5140 0.4920 0.4680
8.355000 0.4180 0.3670 0.3160 0.2880 0.2580
8.389331 0.2520 0.2580 0.2730 0.2920 0.3050
8.424000 0.3290 0.3470 0.3580 0.3640 0.3720
8.458331 0.3790 0.3820 0.3940 0.4050 0.4200
8.492000 0.4350 0.4540 0.4780 0.5400 0.5580
8.526331 0.5930 0.6220 0.6460 0.6680 0.6870
8.561000 0.7020 0.7160 0.7280 0.7360 0.7410
8.595331 0.7530 0.7580 0.7580 0.7570 0.7570
8.629000 0.7550 0.7520 0.7500 0.7480 0.7430
8.663331 0.7380 0.7330 0.7240 0.7170 0.7070
8.698000 0.6940 0.6800 0.6630 0.6410 0.6200
8.732331 0.6000 0.5720 0.5410 0.5170 0.5070
8.767000 0.4950 0.4750 0.4610 0.4470 0.4420
8.801331 0.4460 0.4560 0.4780 0.4990 0.5350
8.835000 0.5580 0.5810 0.6000 0.6150 0.6290
8.869331 0.6370 0.6390 0.6390 0.6390 0.6370
8.904000 0.6290 0.6200 0.6110 0.6030 0.5910
8.938331 0.5890 0.5890 0.5890 0.5940 0.6130
8.973000 0.6340 0.6510 0.6710 0.6900 0.7140
9.007331 0.7410 0.7670 0.7810 0.7890 0.7910
9.041000 0.7940 0.7980 0.7980 0.7960 0.7940
9.075331 0.7910 0.7880 0.7810 0.7790 0.7760
9.110000 0.7740 0.7720 0.7720 0.7720 0.7740
9.144331 0.7810 0.7840 0.7910 0.7960 0.8010
9.178000 0.8060 0.8100 0.8110 0.8130 0.8150
9.212331 0.8130 0.8110 0.8100 0.8030 0.8000
9.247000 0.7890 0.7840 0.7770 0.7690 0.7570
9.281331 0.7470 0.7330 0.7210 0.7050 0.6920
9.316000 0.6780 0.6640 0.6490 0.6370 0.6270
9.350331 0.6130 0.6010 0.5960 0.5860 0.5810
9.384000 0.5760 0.5760 0.5700 0.5690 0.5690
9.418331 0.5690 0.5690 0.5690 0.5700 0.5720
9.453000 0.5770 0.5790 0.5810 0.5810 0.5820
9.487331 0.5820 0.5820 0.5810 0.5810 0.5790
9.522000 0.5770 0.5740 0.5700 0.5690 0.5670
9.556331 0.5640 0.5600 0.5580 0.5570 0.5520
9.590000 0.5500 0.5500 0.5480 0.5480 0.5430
9.624331 0.5410 0.5410 0.5410 0.5410 0.5410
9.659000 0.5450 0.5480 0.5530 0.5600 0.5670
9.693331 0.5700 0.5790 0.5880 0.5960 0.6000
9.727000 0.6050 0.6110 0.6200 0.6320 0.6420
9.761331 0.6490 0.6560 0.6630 0.6710 0.6760
9.796000 0.6900 0.6970 0.7040 0.7070 0.7120
9.830331 0.7190 0.7260 0.7310 0.7400 0.7480
9.865000 0.7550 0.7640 0.7700 0.7790 0.7790
9.899331 0.7820 0.7840 0.7880 0.7890 0.7910
9.933000 0.7930 0.7930 0.7940 0.7940 0.7940
9.967331 0.7930 0.7910 0.7890 0.7880 0.7880
10.002000 0.7820 0.7820 0.7820 0.7840 0.7860
10.036331 0.7890 0.7930 0.7960 0.8010 0.8050
10.071000 0.8110 0.8200 0.8250 0.8300 0.8340
10.105331 0.8350 0.8390 0.8410 0.8440 0.8490
10.139000 0.8490 0.8510 0.8520 0.8540 0.8590
10.173331 0.8590 0.8590 0.8610 0.8610 0.8630
10.208000 0.8630 0.8630 0.8630 0.8630 0.8630
10.242331 0.8630 0.8630 0.8630 0.8610 0.8590
10.276000 0.8540 0.8520 0.8510 0.8490 0.8470
10.310331 0.8440 0.8420 0.8410 0.8390 0.8350
10.345000 0.8320 0.8290 0.8230 0.8200 0.8180
10.379331 0.8130 0.8100 0.8080 0.8010 0.7940
10.414000 0.7880 0.7820 0.7790 0.7740 0.7700
10.448331 0.7690 0.7670 0.7620 0.7600 0.7580
10.482000 0.7580 0.7580 0.7580 0.7580 0.7580
10.516331 0.7580 0.7600 0.7620 0.7640 0.7640
10.551000 0.7650 0.7670 0.7690 0.7690 0.7700
10.585331 0.7700 0.7700 0.7700 0.7700 0.7700
10.620000 0.7700 0.7700 0.7700 0.7700 0.7700
10.654331 0.7700 0.7700 0.7720 0.7740 0.7770
10.688000 0.7790 0.7790 0.7810 0.7820 0.7820
10.722331 0.7840 0.7860 0.7880 0.7880 0.7880
10.757000 0.7890 0.7910 0.7910 0.7930 0.7940
10.791331 0.7960 0.7960 0.7960 0.7980 0.7980
10.825000 0.8010 0.8030 0.8050 0.8050 0.8060
10.859331 0.8080 0.8100 0.8130 0.8130 0.8150
10.894000 0.8150 0.8170 0.8180 0.8180 0.8180
10.928331 0.8200 0.8200 0.8220 0.8220 0.8220
10.963000 0.8230 0.8230 0.8230 0.8250 0.8270
10.997331 0.8290 0.8290 0.8290 0.8290 0.8290
11.031000 0.8290 0.8290 0.8290 0.8270 0.8270
11.065331 0.8250 0.8230 0.8200 0.8180 0.8180
11.100000 0.8150 0.8130 0.8100 0.8050 0.8010
11.134331 0.7960 0.7910 0.7860 0.7790 0.7720
11.169000 0.7690 0.7620 0.7550 0.7550 0.7520
11.203331 0.7450 0.7350 0.7260 0.7170 0.7090
11.237000 0.7020 0.6990 0.6900 0.6800 0.6730
11.271331 0.6640 0.6580 0.6490 0.6390 0.6320
11.306000 0.6250 0.6180 0.6110 0.6080 0.6010
11.340331 0.6000 0.5980 0.5910 0.5890 0.5890
11.375000 0.5880 0.5880 0.5880 0.5880 0.5860
11.409331 0.5840 0.5820 0.5810 0.5810 0.5840
11.443000 0.5880 0.5910 0.6000 0.6050 0.6110
11.477331 0.6200 0.6290 0.6370 0.6470 0.6560
11.512000 0.6680 0.6780 0.6900 0.6990 0.7070
11.546331 0.7170 0.7280 0.7380 0.7470 0.7570
11.580000 0.7640 0.7670 0.7690 0.7720 0.7760
11.614331 0.7790 0.7810 0.7820 0.7860 0.7880
11.649000 0.7890 0.7910 0.7930 0.7940 0.7980
11.683331 0.7980 0.8000 0.8000 0.8000 0.8000
11.718000 0.8000 0.8000 0.8000 0.8000 0.8000
11.752331 0.8010 0.8010 0.8010 0.8030 0.8030
11.786000 0.8030 0.8030 0.8010 0.8000 0.7980
11.820331 0.7980 0.7960 0.7960 0.7930 0.7890
11.855000 0.7880 0.7880 0.7820 0.7810 0.7790
11.889331 0.7770 0.7760 0.7700 0.7690 0.7670
11.924000 0.7600 0.7580 0.7530 0.7500 0.7480
11.958331 0.7450 0.7400 0.7310 0.7290 0.7230
11.992000 0.7160 0.7070 0.6970 0.6870 0.6760
12.026331 0.6680 0.6610 0.6560 0.6540 0.6460
12.061000 0.6410 0.6340 0.6300 0.6230 0.6180
12.095331 0.6150 0.6100 0.6080 0.6010 0.6010
12.129000 0.6000 0.5980 0.5980 0.5960 0.5960
12.163331 0.5960 0.5980 0.5980 0.6010 0.6030
12.198000 0.6050 0.6060 0.6060 0.6080 0.6080
12.232331 0.6060 0.6030 0.6010 0.6000 0.5980
12.267000 0.5940 0.5890 0.5840 0.5790 0.5740
12.301331 0.5690 0.5640 0.5580 0.5530 0.5470
12.335000 0.5400 0.5330 0.5280 0.5210 0.5140
12.369331 0.5040 0.5020 0.4990 0.4950 0.4920
12.404000 0.4820 0.4710 0.4640 0.4560 0.4540
12.438331 0.4490 0.4440 0.4410 0.4370 0.4320
12.473000 0.4290 0.4270 0.4250 0.4230 0.4230
12.507331 0.4220 0.4220 0.4270 0.4320 0.4390
12.541000 0.4460 0.4510 0.4640 0.4750 0.4850
12.575331 0.4950 0.5190 0.5210 0.5470 0.5650
12.610000 0.5790 0.5890 0.5980 0.6050 0.6130
12.644331 0.6230 0.6370 0.6440 0.6490 0.6540
12.678000 0.6610 0.6680 0.6710 0.6780 0.6820
12.712331 0.6870 0.6880 0.6900 0.6940 0.6990
12.747000 0.6990 0.7000 0.7040 0.7070 0.7090
12.781331 0.7110 0.7120 0.7160 0.7170 0.7210
12.816000 0.7240 0.7280 0.7290 0.7310 0.7350
12.850331 0.7380 0.7400 0.7400 0.7430 0.7450
12.884000 0.7470 0.7480 0.7480 0.7480 0.7480
12.918331 0.7500 0.7500 0.7500 0.7500 0.7500
12.953000 0.7500 0.7500 0.7500 0.7500 0.7500
12.987331 0.7500 0.7500 0.7500 0.7480 0.7480
13.022000 0.7470 0.7450 0.7450 0.7430 0.7410
13.056331 0.7400 0.7380 0.7380 0.7350 0.7310
13.090000 0.7280 0.7280 0.7240 0.7190 0.7170
13.124331 0.7120 0.7110 0.7090 0.7070 0.7050
13.159000 0.7020 0.7020 0.7000 0.6990 0.6990
13.193331 0.6990 0.6990 0.6990 0.6990 0.7000
13.227000 0.7000 0.7050 0.7090 0.7140 0.7170
13.261331 0.7210 0.7240 0.7290 0.7310 0.7380
13.296000 0.7400 0.7430 0.7470 0.7480 0.7480
13.330331 0.7480 0.7480 0.7500 0.7500 0.7500
13.365000 0.7500 0.7500 0.7500 0.7480 0.7480
13.399331 0.7480 0.7480 0.7470 0.7450 0.7410
13.433000 0.7400 0.7380 0.7360 0.7360 0.7330
13.467331 0.7330 0.7290 0.7280 0.7260 0.7210
13.502000 0.7170 0.7140 0.7110 0.7090 0.7070
13.536331 0.7040 0.7020 0.6990 0.6970 0.6950
13.571000 0.6880 0.6870 0.6850 0.6830 0.6800
13.605331 0.6760 0.6680 0.6640 0.6630 0.6580
13.639000 0.6540 0.6510 0.6470 0.6440 0.6410
13.673331 0.6340 0.6320 0.6290 0.6250 0.6200
13.708000 0.6170 0.6130 0.6100 0.6080 0.6030
13.742331 0.6010 0.6000 0.5980 0.5940 0.5930
13.776000 0.5910 0.5910 0.5890 0.5890 0.5890
13.810331 0.5890 0.5880 0.5880 0.5880 0.5860
13.845000 0.5860 0.5860 0.5860 0.5860 0.5860
13.879331 0.5860 0.5860 0.5880 0.5880 0.5880
13.914000 0.5880 0.5890 0.5890 0.5890 0.5880
13.948331 0.5880 0.5880 0.5880 0.5860 0.5860
13.982000 0.5840 0.5820 0.5810 0.5810 0.5790
14.016331 0.5770 0.5740 0.5740 0.5720 0.5720
14.051000 0.5700 0.5670 0.5640 0.5620 0.5600
14.085331 0.5580 0.5570 0.5570 0.5520 0.5500
14.120000 0.5480 0.5470 0.5470 0.5430 0.5410
14.154331 0.5380 0.5380 0.5360 0.5360 0.5350
14.188000 0.5350 0.5330 0.5310 0.5310 0.5310
14.222331 0.5290 0.5290 0.5290 0.5290 0.5290
14.257000 0.5280 0.5280 0.5280 0.5280 0.5290
14.291331 0.5310 0.5330 0.5360 0.5380 0.5400
14.325000 0.5410 0.5450 0.5480 0.5480 0.5520
14.359331 0.5530 0.5570 0.5580 0.5620 0.5650
14.394000 0.5670 0.5720 0.5760 0.5770 0.5790
14.428331 0.5810 0.5820 0.5860 0.5880 0.5880
14.463000 0.5910 0.5910 0.5930 0.5930 0.5940
14.497331 0.5980 0.6000 0.6000 0.6010 0.6010
14.531000 0.6030 0.6030 0.6030 0.6030 0.6050
14.565331 0.6050 0.6060 0.6060 0.6080 0.6080
14.600000 0.6080 0.6080 0.6080 0.6080 0.6080
14.634331 0.6080 0.6080 0.6080 0.6080 0.6080
14.669000 0.6080 0.6060 0.6060 0.6060 0.6080
14.703331 0.6060 0.6060 0.6060 0.6060 0.6060
14.737000 0.6060 0.6060 0.6050 0.6050 0.6050
14.771331 0.6050 0.6030 0.6030 0.6030 0.6010
14.806000 0.6010 0.6010 0.6000 0.6000 0.5980
14.840331 0.5960 0.5960 0.5940 0.5940 0.5930
14.875000 0.5890 0.5880 0.5880 0.5860 0.5820
14.909331 0.5810 0.5790 0.5770 0.5760 0.5740
14.943000 0.5720 0.5700 0.5700 0.5700 0.5720
14.977331 0.5740 0.5770 0.5770 0.5770 0.5770
15.012000 0.5760 0.5760 0.5720 0.5700 0.5670
15.046331 0.5670 0.5620 0.5600 0.5580 0.5570
15.080000 0.5520 0.5500 0.5480 0.5480 0.5450
15.114331 0.5410 0.5400 0.5380 0.5360 0.5330
15.149000 0.5310 0.5280 0.5240 0.5210 0.5170
15.183331 0.5160 0.5120 0.5110 0.5090 0.5070
15.218000 0.5020 0.5000 0.4990 0.4970 0.4950
15.252331 0.4900 0.4880 0.4820 0.4800 0.4750
15.286000 0.4730 0.4700 0.4630 0.4580 0.4560
15.320331 0.4520 0.4490 0.4460 0.4390 0.4340
15.355000 0.4290 0.4230 0.4180 0.4150 0.4100
15.389331 0.4060 0.4030 0.4010 0.3980 0.3940
15.424000 0.3890 0.3880 0.3860 0.3840 0.3840
15.458331 0.3820 0.3820 0.3840 0.3840 0.3860
15.492000 0.3890 0.3910 0.3960 0.3980 0.4000
15.526331 0.4010 0.4030 0.4060 0.4100 0.4110
15.561000 0.4150 0.4170 0.4180 0.4200 0.4220
15.595331 0.4250 0.4270 0.4290 0.4290 0.4290
15.629000 0.4290 0.4300 0.4300 0.4300 0.4300
15.663331 0.4300 0.4300 0.4300 0.4320 0.4320
15.698000 0.4320 0.4320 0.4340 0.4340 0.4320
15.732331 0.4300 0.4300 0.4290 0.4290 0.4290
15.767000 0.4290 0.4290 0.4270 0.4270 0.4270
15.801331 0.4250 0.4250 0.4230 0.4230 0.4220
15.835000 0.4200 0.4220 0.4200 0.4200 0.4180
15.869331 0.4180 0.4180 0.4180 0.4180 0.4200
15.904000 0.4220 0.4220 0.4220
##END=
