##TITLE=SODIUM SULFOACETANILIDE
##JCAMP-DX=4.24
##DATA TYPE=INFRARED SPECTRUM
##CLASS=COBLENTZ
##ORIGIN=TENNESSEE EASTMAN COMPANY, RESEARCH LABORATORIES
##OWNER=COBLENTZ SOCIETY
Collection (C) 2018 copyright by the U.S. Secretary of Commerce
on behalf of the United States of America. All rights reserved.
##DATE=Not specified, most likely prior to 1970
##MOLFORM=C8 H8 N O4 S Na
##MP=285-286 C
##SOURCE REFERENCE=COBLENTZ NO. 1853
##$NIST ID=B6001853
##$NIST SOURCE=COBLENTZ
##$NIST IMAGE=cob1853
##SPECTROMETER/DATA SYSTEM=Not specified, most likely a prism, grating, or hybrid spectrometer.
##STATE=SOLID (KBr PELLET)
##SAMPLING PROCEDURE=TRANSMISSION
##RESOLUTION=4
##DATA PROCESSING=DIGITIZED BY NIST FROM HARD COPY
##XUNITS=MICROMETERS
##YUNITS=TRANSMITTANCE
##XFACTOR=1.000000
##YFACTOR=1
##DELTAX=000.006823
##FIRSTX=2.041
##LASTX=15.9863
##FIRSTY=0.887
##MAXX=15.9863
##MINX=2.041
##MAXY=0.958
##MINY=0.022
##NPOINTS=2045
##XYDATA=(X++(Y..Y))
2.041000 0.8870 0.8870 0.8880 0.8880 0.8880
2.075130 0.8880 0.8870 0.8880 0.8880 0.8880
2.109000 0.8880 0.8900 0.8900 0.8900 0.8900
2.143130 0.8900 0.8900 0.8900 0.8900 0.8900
2.177000 0.8900 0.8900 0.8920 0.8920 0.8920
2.211130 0.8920 0.8920 0.8920 0.8920 0.8920
2.246000 0.8920 0.8900 0.8900 0.8900 0.8900
2.280130 0.8900 0.8900 0.8900 0.8900 0.8900
2.314000 0.8900 0.8880 0.8880 0.8870 0.8870
2.348130 0.8850 0.8850 0.8850 0.8850 0.8830
2.382000 0.8830 0.8830 0.8830 0.8820 0.8820
2.416130 0.8800 0.8800 0.8800 0.8800 0.8820
2.450000 0.8820 0.8820 0.8820 0.8820 0.8820
2.484130 0.8820 0.8820 0.8820 0.8820 0.8820
2.519000 0.8800 0.8800 0.8800 0.8780 0.8780
2.553130 0.8750 0.8730 0.8710 0.8710 0.8710
2.587000 0.8710 0.8710 0.8710 0.8730 0.8750
2.621130 0.8750 0.8780 0.8780 0.8750 0.8730
2.655000 0.8730 0.8710 0.8630 0.8560 0.8510
2.689130 0.8350 0.8170 0.7980 0.7790 0.7640
2.723000 0.7360 0.7050 0.6780 0.6370 0.6010
2.757130 0.5470 0.5000 0.4540 0.3930 0.3720
2.791000 0.3000 0.2990 0.3020 0.3450 0.4010
2.825130 0.4080 0.4080 0.4010 0.3570 0.3170
2.860000 0.2870 0.2610 0.2370 0.2180 0.2110
2.894130 0.2100 0.2100 0.2110 0.2340 0.2780
2.928000 0.3580 0.4230 0.4390 0.4390 0.4300
2.962130 0.3810 0.3210 0.3000 0.1910 0.1880
2.996000 0.1910 0.2900 0.3650 0.4200 0.4470
3.030130 0.4610 0.5000 0.5450 0.6050 0.6520
3.064000 0.6630 0.6630 0.6590 0.6490 0.6460
3.098130 0.6520 0.6780 0.6830 0.7400 0.7550
3.133000 0.7550 0.7470 0.7190 0.7000 0.7000
3.167130 0.7210 0.7430 0.7530 0.7650 0.7650
3.201000 0.7650 0.7650 0.7690 0.7740 0.7880
3.235130 0.7980 0.7980 0.8010 0.8050 0.8110
3.269000 0.8170 0.8220 0.8270 0.8290 0.8300
3.303130 0.8320 0.8370 0.8420 0.8470 0.8470
3.337000 0.8440 0.8150 0.8000 0.8000 0.8170
3.371130 0.8270 0.8420 0.8510 0.8580 0.8610
3.405000 0.8630 0.8680 0.8680 0.8680 0.8680
3.439130 0.8700 0.8700 0.8700 0.8750 0.8820
3.474000 0.8880 0.8970 0.8990 0.8990 0.9000
3.508130 0.9000 0.9000 0.9020 0.9050 0.9110
3.542000 0.9120 0.9140 0.9170 0.9170 0.9210
3.576130 0.9210 0.9210 0.9230 0.9240 0.9240
3.610000 0.9260 0.9260 0.9280 0.9280 0.9280
3.644130 0.9280 0.9280 0.9290 0.9290 0.9290
3.678000 0.9290 0.9290 0.9310 0.9310 0.9310
3.712130 0.9310 0.9310 0.9310 0.9310 0.9310
3.747000 0.9310 0.9310 0.9310 0.9310 0.9330
3.781130 0.9330 0.9310 0.9310 0.9310 0.9310
3.815000 0.9330 0.9330 0.9350 0.9360 0.9360
3.849130 0.9380 0.9380 0.9380 0.9380 0.9380
3.883000 0.9380 0.9380 0.9400 0.9400 0.9400
3.917130 0.9400 0.9400 0.9400 0.9400 0.9360
3.951000 0.9360 0.9360 0.9360 0.9360 0.9360
3.985130 0.9360 0.9360 0.9380 0.9400 0.9400
4.019000 0.9410 0.9410 0.9410 0.9400 0.9400
4.053130 0.9410 0.9410 0.9410 0.9410 0.9400
4.088000 0.9400 0.9400 0.9400 0.9400 0.9410
4.122130 0.9410 0.9430 0.9430 0.9430 0.9410
4.156000 0.9400 0.9400 0.9400 0.9410 0.9430
4.190130 0.9430 0.9430 0.9430 0.9410 0.9400
4.224000 0.9380 0.9330 0.9230 0.9190 0.9160
4.258130 0.9140 0.9090 0.9050 0.9020 0.9000
4.292000 0.9020 0.9040 0.9090 0.9140 0.9190
4.326130 0.9230 0.9260 0.9290 0.9360 0.9360
4.361000 0.9360 0.9360 0.9360 0.9360 0.9360
4.395130 0.9360 0.9350 0.9350 0.9310 0.9260
4.429000 0.9240 0.9240 0.9240 0.9260 0.9280
4.463130 0.9280 0.9290 0.9310 0.9310 0.9310
4.497000 0.9310 0.9350 0.9380 0.9380 0.9350
4.531130 0.9330 0.9310 0.9310 0.9350 0.9360
4.565000 0.9360 0.9380 0.9380 0.9380 0.9360
4.599130 0.9360 0.9360 0.9360 0.9380 0.9380
4.634000 0.9400 0.9400 0.9410 0.9410 0.9410
4.668130 0.9430 0.9430 0.9430 0.9430 0.9430
4.702000 0.9430 0.9430 0.9430 0.9430 0.9430
4.736130 0.9430 0.9430 0.9430 0.9430 0.9450
4.770000 0.9450 0.9450 0.9450 0.9450 0.9470
4.804130 0.9480 0.9480 0.9480 0.9480 0.9480
4.838000 0.9480 0.9480 0.9480 0.9480 0.9480
4.872130 0.9480 0.9480 0.9500 0.9530 0.9530
4.906000 0.9530 0.9570 0.9570 0.9550 0.9530
4.940130 0.9500 0.9500 0.9500 0.9520 0.9550
4.975000 0.9550 0.9580 0.9580 0.9580 0.9550
5.009130 0.9530 0.9530 0.9520 0.9520 0.9520
5.043000 0.9500 0.9480 0.9380 0.9380 0.9430
5.077130 0.9430 0.9430 0.9410 0.9400 0.9360
5.111000 0.9350 0.9400 0.9430 0.9450 0.9480
5.145130 0.9500 0.9500 0.9520 0.9520 0.9520
5.179000 0.9530 0.9530 0.9550 0.9550 0.9530
5.213130 0.9530 0.9530 0.9530 0.9520 0.9520
5.248000 0.9500 0.9480 0.9470 0.9450 0.9430
5.282130 0.9410 0.9410 0.9400 0.9380 0.9380
5.316000 0.9360 0.9360 0.9360 0.9380 0.9410
5.350130 0.9450 0.9480 0.9500 0.9500 0.9520
5.384000 0.9520 0.9520 0.9520 0.9500 0.9500
5.418130 0.9500 0.9480 0.9480 0.9480 0.9480
5.452000 0.9470 0.9470 0.9470 0.9450 0.9430
5.486130 0.9410 0.9400 0.9380 0.9380 0.9360
5.520000 0.9310 0.9290 0.9260 0.9260 0.9260
5.554130 0.9260 0.9280 0.9290 0.9290 0.9310
5.589000 0.9310 0.9310 0.9310 0.9280 0.9240
5.623130 0.9190 0.9190 0.9160 0.9140 0.9140
5.657000 0.9140 0.9120 0.9050 0.8990 0.8900
5.691130 0.8780 0.8710 0.8700 0.8630 0.8560
5.725000 0.8540 0.8510 0.8510 0.8510 0.8510
5.759130 0.8540 0.8540 0.8580 0.8580 0.8520
5.793000 0.8440 0.8320 0.8300 0.8290 0.8270
5.827130 0.8200 0.8130 0.8050 0.7910 0.7740
5.862000 0.7500 0.7160 0.6710 0.6130 0.5430
5.896130 0.4990 0.4390 0.3520 0.2900 0.2200
5.930000 0.1500 0.0900 0.0880 0.0900 0.1020
5.964130 0.1020 0.1000 0.0920 0.0900 0.0820
5.998000 0.0800 0.0830 0.1670 0.2180 0.2680
6.032130 0.3050 0.3380 0.3860 0.4490 0.5020
6.066000 0.5600 0.5980 0.6080 0.6080 0.6080
6.100130 0.6100 0.6100 0.6100 0.6080 0.5860
6.135000 0.5310 0.4750 0.3790 0.3760 0.3740
6.169130 0.3720 0.3720 0.3690 0.3430 0.3160
6.203000 0.2710 0.2590 0.2590 0.2660 0.2800
6.237130 0.3000 0.3640 0.4220 0.6920 0.7670
6.271000 0.7670 0.7670 0.7690 0.7740 0.7810
6.305130 0.7820 0.7760 0.7640 0.7350 0.6940
6.339000 0.6520 0.5480 0.5190 0.4490 0.3880
6.373130 0.3290 0.2750 0.2290 0.1790 0.1760
6.407000 0.1760 0.1770 0.1960 0.2270 0.2630
6.441130 0.3190 0.3500 0.4820 0.5580 0.6780
6.476000 0.7000 0.7050 0.7140 0.7230 0.7280
6.510130 0.7350 0.7410 0.7520 0.7530 0.7600
6.544000 0.7670 0.7720 0.7760 0.7760 0.7700
6.578130 0.7470 0.6880 0.6370 0.5810 0.5230
6.612000 0.4730 0.4180 0.4180 0.4200 0.4460
6.646130 0.4900 0.5310 0.5580 0.5790 0.5840
6.680000 0.6000 0.6230 0.6940 0.7360 0.7530
6.714130 0.7670 0.7760 0.7820 0.7880 0.7910
6.749000 0.7980 0.8110 0.8220 0.8270 0.8290
6.783130 0.8300 0.8300 0.8300 0.8270 0.8010
6.817000 0.7930 0.7820 0.7600 0.7350 0.7090
6.851130 0.6880 0.6350 0.4590 0.2580 0.2130
6.885000 0.2110 0.2150 0.3470 0.4710 0.5740
6.919130 0.6660 0.7350 0.7550 0.7620 0.7650
6.953000 0.7700 0.7720 0.7690 0.7670 0.7650
6.987130 0.7210 0.6900 0.6660 0.6300 0.5770
7.021000 0.5310 0.5310 0.5360 0.6000 0.6580
7.055130 0.7050 0.7310 0.7520 0.7720 0.7820
7.090000 0.7960 0.7980 0.7980 0.8000 0.8000
7.124130 0.8000 0.7980 0.7960 0.7940 0.7880
7.158000 0.7860 0.7860 0.7880 0.7890 0.7960
7.192130 0.8000 0.8050 0.8050 0.8060 0.8080
7.226000 0.8080 0.8100 0.8100 0.8100 0.8100
7.260130 0.8100 0.8110 0.8130 0.8170 0.8180
7.294000 0.8180 0.8180 0.8180 0.8180 0.8180
7.328130 0.8110 0.8050 0.8010 0.8010 0.8000
7.363000 0.7940 0.7840 0.7690 0.7190 0.7090
7.397130 0.7070 0.6880 0.6510 0.6230 0.5840
7.431000 0.5170 0.4680 0.4130 0.3820 0.3410
7.465130 0.3360 0.3410 0.3520 0.3570 0.3580
7.499000 0.3580 0.3620 0.4110 0.4590 0.5090
7.533130 0.5520 0.6010 0.6580 0.6830 0.7020
7.567000 0.7170 0.7350 0.7430 0.7570 0.7580
7.601130 0.7580 0.7570 0.7550 0.7430 0.7290
7.635000 0.7260 0.7260 0.7260 0.7360 0.7480
7.669130 0.7550 0.7650 0.7690 0.7720 0.7760
7.704000 0.7700 0.7570 0.7330 0.7070 0.6850
7.738130 0.6580 0.6370 0.6110 0.5960 0.5890
7.772000 0.5840 0.5790 0.5670 0.5290 0.4850
7.806130 0.4760 0.4760 0.5050 0.5360 0.5820
7.840000 0.6390 0.6700 0.6990 0.7090 0.7310
7.874130 0.7360 0.7360 0.7360 0.7360 0.7240
7.908000 0.7110 0.6940 0.6880 0.6780 0.6780
7.942130 0.6820 0.6900 0.6950 0.6970 0.6970
7.977000 0.6940 0.6800 0.6660 0.6510 0.6340
8.011130 0.6150 0.5940 0.5690 0.5380 0.5040
8.045000 0.4640 0.4180 0.3640 0.3280 0.2950
8.079130 0.2700 0.2490 0.2370 0.2300 0.2180
8.113000 0.2100 0.2050 0.2000 0.1980 0.1940
8.147130 0.1790 0.1570 0.1400 0.1110 0.0900
8.181000 0.0700 0.0580 0.0460 0.0390 0.0290
8.215130 0.0270 0.0250 0.0250 0.0250 0.0250
8.250000 0.0390 0.0540 0.0680 0.0700 0.0800
8.284130 0.0800 0.0700 0.0490 0.0350 0.0300
8.318000 0.0270 0.0230 0.0220 0.0220 0.0220
8.352130 0.0220 0.0220 0.0220 0.0220 0.0230
8.386000 0.0230 0.0250 0.0290 0.0880 0.1170
8.420130 0.1570 0.1940 0.2320 0.2640 0.2940
8.454000 0.3120 0.3230 0.3330 0.3500 0.3720
8.488130 0.4050 0.4470 0.4950 0.5350 0.5690
8.522000 0.5940 0.6170 0.6320 0.6460 0.6560
8.556130 0.6630 0.6710 0.6760 0.6820 0.6870
8.591000 0.6900 0.6940 0.6950 0.6950 0.6970
8.625130 0.6990 0.7040 0.7120 0.7230 0.7290
8.659000 0.7360 0.7360 0.7360 0.7410 0.7450
8.693130 0.7470 0.7470 0.7470 0.7480 0.7480
8.727000 0.7500 0.7500 0.7520 0.7520 0.7520
8.761130 0.7500 0.7500 0.7500 0.7500 0.7500
8.795000 0.7500 0.7500 0.7480 0.7470 0.7470
8.829130 0.7380 0.7360 0.7260 0.7160 0.7070
8.864000 0.6990 0.6920 0.6880 0.6880 0.6880
8.898130 0.6940 0.7020 0.7050 0.7110 0.7280
8.932000 0.7330 0.7410 0.7500 0.7530 0.7570
8.966130 0.7570 0.7600 0.7640 0.7650 0.7670
9.000000 0.7670 0.7690 0.7690 0.7700 0.7740
9.034130 0.7790 0.7820 0.7860 0.7880 0.7910
9.068000 0.7940 0.7960 0.7960 0.7980 0.7980
9.102130 0.7980 0.7980 0.7980 0.7980 0.7980
9.136000 0.7980 0.7980 0.7980 0.7980 0.7980
9.170130 0.7980 0.7980 0.7960 0.7770 0.7570
9.205000 0.7500 0.7480 0.7480 0.7480 0.7500
9.239130 0.7570 0.7640 0.7690 0.7720 0.7760
9.273000 0.7770 0.7790 0.7790 0.7790 0.7790
9.307130 0.7770 0.7690 0.7620 0.7450 0.7350
9.341000 0.7190 0.6990 0.6820 0.6490 0.5960
9.375130 0.5290 0.4590 0.3890 0.3190 0.2490
9.409000 0.2460 0.1960 0.1430 0.0900 0.0900
9.443130 0.0990 0.1450 0.2000 0.2350 0.2700
9.478000 0.2710 0.2630 0.2180 0.1700 0.1240
9.512130 0.0700 0.0590 0.0590 0.0700 0.1400
9.546000 0.2250 0.3160 0.4110 0.4940 0.5640
9.580130 0.6180 0.6640 0.7000 0.7260 0.7470
9.614000 0.7600 0.7670 0.7720 0.7760 0.7810
9.648130 0.7840 0.7860 0.7860 0.7860 0.7880
9.682000 0.7890 0.7930 0.7980 0.8050 0.8130
9.716130 0.8230 0.8300 0.8350 0.8390 0.8410
9.750000 0.8410 0.8420 0.8440 0.8440 0.8460
9.784130 0.8460 0.8470 0.8490 0.8510 0.8510
9.819000 0.8540 0.8580 0.8590 0.8630 0.8660
9.853130 0.8700 0.8710 0.8750 0.8750 0.8760
9.887000 0.8760 0.8760 0.8750 0.8710 0.8640
9.921130 0.8580 0.8540 0.8540 0.8540 0.8560
9.955000 0.8590 0.8590 0.8660 0.8710 0.8750
9.989130 0.8760 0.8780 0.8820 0.8870 0.8880
10.023000 0.8920 0.8920 0.8920 0.8920 0.8920
10.057130 0.8880 0.8830 0.8780 0.8750 0.8700
10.092000 0.8590 0.8580 0.8560 0.8560 0.8560
10.126130 0.8560 0.8580 0.8680 0.8710 0.8760
10.160000 0.8760 0.8760 0.8760 0.8710 0.8660
10.194130 0.8580 0.8490 0.8390 0.8290 0.8230
10.228000 0.8110 0.8010 0.7840 0.7740 0.7670
10.262130 0.7530 0.7410 0.7360 0.7350 0.7350
10.296000 0.7350 0.7360 0.7360 0.7380 0.7400
10.330130 0.7410 0.7430 0.7450 0.7450 0.7470
10.365000 0.7480 0.7520 0.7640 0.7820 0.8000
10.399130 0.8170 0.8270 0.8420 0.8470 0.8590
10.433000 0.8660 0.8730 0.8800 0.8880 0.8970
10.467130 0.9050 0.9140 0.9170 0.9190 0.9190
10.501000 0.9190 0.9190 0.9190 0.9190 0.9190
10.535130 0.9170 0.9170 0.9170 0.9170 0.9170
10.569000 0.9170 0.9170 0.9210 0.9260 0.9260
10.603130 0.9280 0.9280 0.9280 0.9280 0.9310
10.637000 0.9330 0.9350 0.9350 0.9360 0.9380
10.671130 0.9400 0.9400 0.9400 0.9380 0.9350
10.706000 0.9290 0.9280 0.9280 0.9260 0.9260
10.740130 0.9260 0.9260 0.9260 0.9280 0.9280
10.774000 0.9280 0.9280 0.9280 0.9260 0.9210
10.808130 0.9140 0.9110 0.9000 0.8850 0.8730
10.842000 0.8580 0.8560 0.8560 0.8560 0.8520
10.876130 0.8460 0.8370 0.8290 0.8200 0.8170
10.910000 0.8080 0.7930 0.7860 0.7820 0.7860
10.944130 0.7930 0.8050 0.8150 0.8250 0.8290
10.979000 0.8300 0.8320 0.8300 0.8250 0.8220
11.013130 0.8200 0.8200 0.8250 0.8350 0.8470
11.047000 0.8610 0.8730 0.8820 0.8920 0.9000
11.081130 0.9040 0.9120 0.9210 0.9280 0.9310
11.115000 0.9330 0.9350 0.9350 0.9360 0.9380
11.149130 0.9400 0.9400 0.9410 0.9410 0.9410
11.183000 0.9430 0.9430 0.9430 0.9450 0.9480
11.217130 0.9500 0.9500 0.9500 0.9500 0.9500
11.251000 0.9500 0.9500 0.9500 0.9500 0.9500
11.285130 0.9500 0.9500 0.9520 0.9530 0.9530
11.320000 0.9530 0.9550 0.9550 0.9550 0.9550
11.354130 0.9550 0.9550 0.9550 0.9550 0.9550
11.388000 0.9550 0.9530 0.9530 0.9520 0.9500
11.422130 0.9500 0.9480 0.9480 0.9480 0.9480
11.456000 0.9480 0.9480 0.9480 0.9480 0.9480
11.490130 0.9500 0.9500 0.9500 0.9500 0.9500
11.524000 0.9500 0.9500 0.9520 0.9520 0.9520
11.558130 0.9520 0.9520 0.9520 0.9520 0.9520
11.593000 0.9520 0.9520 0.9500 0.9500 0.9480
11.627130 0.9470 0.9430 0.9430 0.9430 0.9410
11.661000 0.9410 0.9410 0.9410 0.9400 0.9400
11.695130 0.9310 0.9260 0.9240 0.9240 0.9190
11.729000 0.9190 0.9170 0.9160 0.9050 0.9020
11.763130 0.8970 0.8900 0.8830 0.8750 0.8640
11.797000 0.8560 0.8440 0.8320 0.8220 0.8180
11.831130 0.8180 0.8180 0.8180 0.8250 0.8370
11.865000 0.8410 0.8470 0.8540 0.8610 0.8640
11.899130 0.8730 0.8800 0.8830 0.8900 0.8940
11.934000 0.8970 0.8990 0.8990 0.9020 0.9050
11.968130 0.9050 0.9070 0.9070 0.9050 0.9040
12.002000 0.9020 0.8990 0.8940 0.8920 0.8850
12.036130 0.8820 0.8760 0.8700 0.8640 0.8560
12.070000 0.8520 0.8520 0.8560 0.8580 0.8580
12.104130 0.8560 0.8560 0.8560 0.8510 0.8420
12.138000 0.8320 0.8230 0.8130 0.8030 0.7930
12.172130 0.7790 0.7650 0.7500 0.7350 0.7120
12.207000 0.6850 0.6640 0.6510 0.6370 0.6230
12.241130 0.6010 0.5930 0.5860 0.5860 0.5880
12.275000 0.5940 0.6080 0.6290 0.6490 0.6680
12.309130 0.6850 0.7020 0.7190 0.7350 0.7480
12.343000 0.7620 0.7720 0.7820 0.7930 0.8000
12.377130 0.8050 0.8080 0.8130 0.8180 0.8230
12.411000 0.8270 0.8290 0.8300 0.8370 0.8390
12.445130 0.8410 0.8440 0.8460 0.8460 0.8490
12.480000 0.8510 0.8510 0.8510 0.8490 0.8470
12.514130 0.8470 0.8460 0.8440 0.8440 0.8440
12.548000 0.8440 0.8460 0.8460 0.8460 0.8460
12.582130 0.8470 0.8490 0.8510 0.8510 0.8510
12.616000 0.8510 0.8510 0.8520 0.8520 0.8520
12.650130 0.8520 0.8520 0.8520 0.8510 0.8510
12.684000 0.8490 0.8460 0.8420 0.8390 0.8340
12.718130 0.8270 0.8270 0.8220 0.8200 0.8200
12.752000 0.8200 0.8200 0.8180 0.8170 0.8170
12.786130 0.8150 0.8130 0.8110 0.8100 0.8080
12.821000 0.8060 0.8060 0.8050 0.8050 0.8010
12.855130 0.7980 0.7960 0.7910 0.7890 0.7860
12.889000 0.7790 0.7740 0.7690 0.7650 0.7600
12.923130 0.7550 0.7470 0.7400 0.7280 0.7210
12.957000 0.7020 0.6950 0.6870 0.6800 0.6700
12.991130 0.6560 0.6370 0.6170 0.5930 0.5650
13.025000 0.5350 0.5000 0.4610 0.4320 0.3980
13.059130 0.3720 0.3480 0.3230 0.3000 0.2780
13.094000 0.2610 0.2470 0.2350 0.2250 0.2170
13.128130 0.2110 0.2080 0.2060 0.2050 0.2030
13.162000 0.2010 0.2010 0.2000 0.1960 0.1940
13.196130 0.1890 0.1820 0.1690 0.1520 0.1500
13.230000 0.1500 0.1500 0.1500 0.1500 0.1500
13.264130 0.1570 0.1740 0.1820 0.2000 0.2170
13.298000 0.2350 0.2540 0.2750 0.2940 0.3120
13.332130 0.3330 0.3520 0.3700 0.3880 0.4030
13.366000 0.4180 0.4320 0.4420 0.4580 0.4700
13.400130 0.4820 0.4920 0.5020 0.5070 0.5170
13.435000 0.5280 0.5330 0.5430 0.5530 0.5580
13.469130 0.5670 0.5740 0.5820 0.5890 0.5980
13.503000 0.6030 0.6060 0.6110 0.6170 0.6230
13.537130 0.6320 0.6420 0.6490 0.6560 0.6580
13.571000 0.6590 0.6610 0.6640 0.6700 0.6760
13.605130 0.6820 0.6870 0.6920 0.6950 0.6990
13.639000 0.7020 0.7040 0.7070 0.7090 0.7110
13.673130 0.7120 0.7120 0.7140 0.7160 0.7160
13.708000 0.7160 0.7160 0.7140 0.7120 0.7110
13.742130 0.7090 0.7020 0.7000 0.6990 0.6970
13.776000 0.6970 0.6970 0.6970 0.6970 0.6950
13.810130 0.6950 0.6940 0.6900 0.6880 0.6880
13.844000 0.6850 0.6800 0.6780 0.6760 0.6750
13.878130 0.6700 0.6640 0.6610 0.6580 0.6540
13.912000 0.6510 0.6420 0.6350 0.6290 0.6230
13.946130 0.6180 0.6150 0.6080 0.6050 0.5960
13.981000 0.5940 0.5880 0.5810 0.5700 0.5600
14.015130 0.5470 0.5380 0.5310 0.5240 0.5160
14.049000 0.5090 0.5040 0.4970 0.4900 0.4820
14.083130 0.4760 0.4700 0.4660 0.4640 0.4590
14.117000 0.4520 0.4460 0.4390 0.4350 0.4300
14.151130 0.4290 0.4270 0.4200 0.4170 0.4150
14.185000 0.4100 0.4060 0.4010 0.4000 0.3960
14.219130 0.3890 0.3880 0.3840 0.3840 0.3770
14.253000 0.3760 0.3760 0.3760 0.3770 0.3790
14.287130 0.3790 0.3810 0.3810 0.3790 0.3790
14.322000 0.3770 0.3790 0.3810 0.3840 0.3840
14.356130 0.3860 0.3860 0.3860 0.3880 0.3890
14.390000 0.3940 0.3960 0.3980 0.4000 0.4050
14.424130 0.4100 0.4130 0.4170 0.4220 0.4290
14.458000 0.4320 0.4420 0.4520 0.4590 0.4680
14.492130 0.4780 0.4880 0.4990 0.5090 0.5170
14.526000 0.5230 0.5310 0.5380 0.5430 0.5470
14.560130 0.5520 0.5580 0.5650 0.5720 0.5760
14.595000 0.5810 0.5860 0.5910 0.5910 0.5930
14.629130 0.5940 0.5960 0.5980 0.6000 0.6010
14.663000 0.6050 0.6060 0.6060 0.6060 0.6080
14.697130 0.6080 0.6080 0.6080 0.6080 0.6080
14.731000 0.6080 0.6080 0.6080 0.6080 0.6080
14.765130 0.6080 0.6080 0.6080 0.6060 0.6050
14.799000 0.6030 0.6010 0.6000 0.6000 0.6000
14.833130 0.5980 0.5980 0.5960 0.5960 0.5960
14.867000 0.5940 0.5910 0.5880 0.5880 0.5860
14.901130 0.5860 0.5840 0.5790 0.5760 0.5670
14.936000 0.5640 0.5570 0.5520 0.5480 0.5410
14.970130 0.5330 0.5260 0.5190 0.5140 0.5070
15.004000 0.5020 0.4970 0.4950 0.4920 0.4870
15.038130 0.4780 0.4730 0.4680 0.4610 0.4580
15.072000 0.4540 0.4490 0.4490 0.4460 0.4390
15.106130 0.4350 0.4340 0.4300 0.4220 0.4180
15.140000 0.4180 0.4180 0.4220 0.4270 0.4290
15.174130 0.4300 0.4320 0.4340 0.4350 0.4460
15.209000 0.4520 0.4540 0.4590 0.4590 0.4590
15.243130 0.4610 0.4610 0.4610 0.4630 0.4630
15.277000 0.4640 0.4660 0.4660 0.4680 0.4680
15.311130 0.4680 0.4680 0.4680 0.4680 0.4680
15.345000 0.4680 0.4680 0.4680 0.4680 0.4680
15.379130 0.4680 0.4680 0.4680 0.4700 0.4700
15.413000 0.4710 0.4710 0.4730 0.4750 0.4750
15.447130 0.4750 0.4760 0.4760 0.4780 0.4780
15.481000 0.4800 0.4800 0.4830 0.4850 0.4870
15.515130 0.4880 0.4900 0.4900 0.4880 0.4880
15.550000 0.4880 0.4900 0.4900 0.4900 0.4920
15.584130 0.4920 0.4920 0.4940 0.4950 0.4950
15.618000 0.4970 0.4970 0.4970 0.4970 0.4970
15.652130 0.4970 0.4970 0.4970 0.4990 0.5020
15.686000 0.5050 0.5070 0.5070 0.5050 0.5050
15.720130 0.5050 0.5040 0.5040 0.5040 0.5040
15.754000 0.5040 0.5040 0.5040 0.5040 0.5050
15.788130 0.5050 0.5040 0.5020 0.5020 0.5020
15.823000 0.5000 0.5000 0.5000 0.5000 0.5000
15.857130 0.4990 0.4970 0.4970 0.4970 0.4990
15.891000 0.5000 0.5000 0.5000 0.5020 0.5020
15.925130 0.5000 0.5000 0.4990 0.4990 0.5050
15.959000 0.5050 0.5050 0.5050 0.5040 0.5020
##END=
