##TITLE=BENZOIC ACID, 3,5-DINITRO-,SILVER SALT
##JCAMP-DX=4.24
##DATA TYPE=INFRARED SPECTRUM
##CLASS=COBLENTZ III
##ORIGIN=DOW CHEMICAL COMPANY
##OWNER=COBLENTZ SOC.
Collection (C) 2018 copyright by the U.S. Secretary of Commerce
on behalf of the United States of America. All rights reserved.
##DATE=1965/08/18
##MOLFORM=C7 H3 Ag N2 O6
##SOURCE REFERENCE=COBLENTZ NO. 07618
##$NIST ID=B6007618
##$NIST SOURCE=COBLENTZ
##$NIST IMAGE=cob7618
##SPECTROMETER/DATA SYSTEM=DOW KBr FOREPRISM-GRATING
##INSTRUMENT PARAMETERS=BLAZED AT 3.5, 12.0, 20.0 MICRON AND CHANGED AT 5.0, 7.5, 14.9 MICRON
##STATE=SOLID (SPLIT MULL), FLUOROLUBE FOR 3800-1335 CM^-^1, NUJOL FOR 1335-460 CM^-^1
$$ SPECTRAL FEATURE AT 1992 CM^-^1 IS AN ARTIFACT CAUSED BY GRATING CHANGE
##SAMPLING PROCEDURE=TRANSMISSION
##RESOLUTION=2
##DATA PROCESSING=DIGITIZED BY COBLENTZ SOCIETY (BATCH I) FROM HARD COPY
##XUNITS=1/CM
##YUNITS=TRANSMITTANCE
##XLABEL=Wavenumbers (cm-1)
##YLABEL=% Transmission
##XFACTOR=1
##YFACTOR=1
##DELTAX=1
##FIRSTX=458
##LASTX=3802
##FIRSTY=0.7435
##MAXX=3802
##MINX=458
##MAXY=0.8783
##MINY=0.0001
##NPOINTS=3345
##XYDATA=(X++(Y..Y))
458.000000 0.7435 0.7451 0.7465 0.7478 0.7491
463.000000 0.7504 0.7515 0.7528 0.7541 0.7555
468.000000 0.7568 0.7582 0.7596 0.7610 0.7622
473.000000 0.7637 0.7651 0.7661 0.7671 0.7682
478.000000 0.7692 0.7701 0.7711 0.7722 0.7733
483.000000 0.7740 0.7744 0.7747 0.7751 0.7755
488.000000 0.7758 0.7761 0.7765 0.7765 0.7772
493.000000 0.7768 0.7762 0.7754 0.7745 0.7736
498.000000 0.7726 0.7714 0.7701 0.7688 0.7675
503.000000 0.7661 0.7647 0.7626 0.7607 0.7588
508.000000 0.7558 0.7528 0.7498 0.7468 0.7426
513.000000 0.7374 0.7321 0.7267 0.7212 0.7136
518.000000 0.7058 0.6981 0.6871 0.6762 0.6630
523.000000 0.6240 0.5939 0.5639 0.5338 0.5038
528.000000 0.4737 0.4488 0.4484 0.4603 0.4798
533.000000 0.4992 0.5187 0.5381 0.5576 0.5770
538.000000 0.5965 0.6068 0.6146 0.6224 0.6301
543.000000 0.6376 0.6451 0.6530 0.6610 0.6691
548.000000 0.6783 0.6908 0.7115 0.7461 0.7683
553.000000 0.7730 0.7767 0.7794 0.7815 0.7836
558.000000 0.7856 0.7871 0.7887 0.7901 0.7918
563.000000 0.7934 0.7946 0.7957 0.7968 0.7980
568.000000 0.7991 0.8003 0.8014 0.8025 0.8033
573.000000 0.8042 0.8050 0.8058 0.8068 0.8075
578.000000 0.8085 0.8092 0.8097 0.8101 0.8106
583.000000 0.8111 0.8115 0.8119 0.8125 0.8131
588.000000 0.8138 0.8144 0.8151 0.8157 0.8164
593.000000 0.8171 0.8183 0.8183 0.8184 0.8184
598.000000 0.8201 0.8182 0.8181 0.8180 0.8178
603.000000 0.8176 0.8175 0.8175 0.8174 0.8171
608.000000 0.8165 0.8158 0.8153 0.8147 0.8141
613.000000 0.8135 0.8128 0.8122 0.8115 0.8110
618.000000 0.8108 0.8108 0.8119 0.8134 0.8148
623.000000 0.8161 0.8176 0.8193 0.8209 0.8220
628.000000 0.8232 0.8242 0.8242 0.8242 0.8243
633.000000 0.8243 0.8239 0.8228 0.8218 0.8209
638.000000 0.8196 0.8162 0.8124 0.8061 0.7965
643.000000 0.7868 0.7864 0.7858 0.7858 0.7858
648.000000 0.7833 0.7792 0.7755 0.7753 0.7758
653.000000 0.7821 0.7915 0.8043 0.8122 0.8164
658.000000 0.8194 0.8206 0.8218 0.8228 0.8235
663.000000 0.8225 0.8200 0.8182 0.8157 0.8131
668.000000 0.8171 0.8211 0.8251 0.8291 0.8331
673.000000 0.8371 0.8411 0.8451 0.8474 0.8439
678.000000 0.8431 0.8423 0.8412 0.8402 0.8392
683.000000 0.8375 0.8358 0.8340 0.8321 0.8305
688.000000 0.8282 0.8253 0.8224 0.8195 0.8165
693.000000 0.8121 0.8071 0.8011 0.7950 0.7886
698.000000 0.7821 0.7758 0.7682 0.7600 0.7518
703.000000 0.7437 0.7356 0.7275 0.7196 0.7115
708.000000 0.7036 0.6907 0.6751 0.6586 0.6412
713.000000 0.6170 0.3680 0.2344 0.1007 0.0121
718.000000 0.0101 0.0103 0.0123 0.0133 0.0184
723.000000 0.0242 0.0333 0.0417 0.0490 0.0555
728.000000 0.0593 0.0624 0.1001 0.1706 0.2460
733.000000 0.3212 0.3966 0.4720 0.5474 0.6023
738.000000 0.6391 0.6558 0.6726 0.6921 0.7122
743.000000 0.7242 0.7351 0.7461 0.7595 0.7730
748.000000 0.7834 0.7931 0.7974 0.8006 0.8038
753.000000 0.8065 0.8091 0.8101 0.8083 0.7978
758.000000 0.7875 0.7793 0.7822 0.8100 0.8225
763.000000 0.8246 0.8262 0.8268 0.8270 0.8267
768.000000 0.8255 0.8244 0.8278 0.8281 0.8296
773.000000 0.8295 0.8293 0.8282 0.8271 0.8254
778.000000 0.8232 0.8190 0.8118 0.8038 0.7878
783.000000 0.7738 0.6683 0.4583 0.2484 0.1574
788.000000 0.2385 0.3862 0.5340 0.6817 0.8121
793.000000 0.8100 0.8089 0.7462 0.6836 0.6210
798.000000 0.6210 0.6222 0.7264 0.7892 0.8367
803.000000 0.8387 0.8397 0.8402 0.8404 0.8404
808.000000 0.8403 0.8402 0.8401 0.8393 0.8383
813.000000 0.8373 0.8354 0.8333 0.8243 0.7915
818.000000 0.7586 0.7418 0.7539 0.7925 0.8311
823.000000 0.8361 0.8368 0.8374 0.8378 0.8378
828.000000 0.8378 0.8377 0.8377 0.8375 0.8375
833.000000 0.8375 0.8375 0.8373 0.8371 0.8368
838.000000 0.8368 0.8366 0.8363 0.8360 0.8357
843.000000 0.8354 0.8351 0.8348 0.8345 0.8342
848.000000 0.8338 0.8336 0.8333 0.8331 0.8328
853.000000 0.8325 0.8323 0.8345 0.8318 0.8315
858.000000 0.8313 0.8310 0.8308 0.8305 0.8303
863.000000 0.8300 0.8297 0.8294 0.8291 0.8287
868.000000 0.8284 0.8281 0.8277 0.8274 0.8271
873.000000 0.8267 0.8264 0.8259 0.8252 0.8246
878.000000 0.8240 0.8234 0.8228 0.8221 0.8216
883.000000 0.8204 0.8193 0.8181 0.8169 0.8158
888.000000 0.8147 0.8137 0.8128 0.8118 0.8110
893.000000 0.8101 0.8093 0.8084 0.8075 0.8062
898.000000 0.8050 0.8037 0.8024 0.8011 0.7986
903.000000 0.7958 0.7932 0.7905 0.7853 0.7780
908.000000 0.7705 0.7537 0.7337 0.6861 0.6168
913.000000 0.5475 0.4782 0.4592 0.4599 0.4650
918.000000 0.4751 0.4846 0.4924 0.4965 0.4907
923.000000 0.3868 0.2832 0.2592 0.3654 0.4798
928.000000 0.5941 0.7003 0.6933 0.5860 0.4787
933.000000 0.4178 0.4332 0.4840 0.5347 0.5710
938.000000 0.5715 0.4071 0.4297 0.4002 0.7393
943.000000 0.7578 0.7692 0.7734 0.7775 0.7794
948.000000 0.7811 0.7828 0.7847 0.7853 0.7855
953.000000 0.7868 0.7861 0.7861 0.7860 0.7851
958.000000 0.7821 0.7790 0.7721 0.7561 0.7245
963.000000 0.6926 0.6693 0.6699 0.6676 0.6941
968.000000 0.7078 0.7061 0.6881 0.6685 0.6597
973.000000 0.7049 0.7528 0.7795 0.7887 0.7925
978.000000 0.7960 0.7975 0.7989 0.8001 0.8014
983.000000 0.8025 0.8038 0.8040 0.8041 0.8042
988.000000 0.8043 0.8044 0.8043 0.8043 0.8042
993.000000 0.8041 0.8040 0.8039 0.8038 0.8032
998.000000 0.8025 0.8007 0.7974 0.7934 0.7921
1003.000000 0.7928 0.7937 0.7961 0.8006 0.8028
1008.000000 0.8030 0.8028 0.8028 0.8025 0.8019
1013.000000 0.8014 0.8008 0.8001 0.7995 0.7988
1018.000000 0.7981 0.7974 0.7967 0.7960 0.7951
1023.000000 0.7944 0.7935 0.7926 0.7918 0.7911
1028.000000 0.7901 0.7891 0.7880 0.7869 0.7858
1033.000000 0.7848 0.7838 0.7828 0.7818 0.7808
1038.000000 0.7798 0.7788 0.7778 0.7768 0.7758
1043.000000 0.7748 0.7734 0.7714 0.7694 0.7674
1048.000000 0.7654 0.7628 0.7601 0.7575 0.7549
1053.000000 0.7522 0.7496 0.7451 0.7407 0.7361
1058.000000 0.7298 0.7224 0.7151 0.7076 0.6976
1063.000000 0.6875 0.6775 0.6631 0.6476 0.6088
1068.000000 0.5303 0.4839 0.4190 0.3542 0.2893
1073.000000 0.2245 0.1769 0.1759 0.2198 0.2828
1078.000000 0.3458 0.4088 0.4718 0.4925 0.4995
1083.000000 0.5066 0.5107 0.5180 0.5121 0.4725
1088.000000 0.4319 0.3912 0.3506 0.3100 0.2805
1093.000000 0.2782 0.3479 0.4034 0.4588 0.5143
1098.000000 0.5697 0.6252 0.6556 0.6803 0.7117
1103.000000 0.7248 0.7340 0.7401 0.7455 0.7488
1108.000000 0.7521 0.7542 0.7557 0.7571 0.7581
1113.000000 0.7589 0.7597 0.7601 0.7603 0.7604
1118.000000 0.7605 0.7606 0.7615 0.7630 0.7643
1123.000000 0.7656 0.7669 0.7683 0.7693 0.7700
1128.000000 0.7708 0.7715 0.7721 0.7725 0.7731
1133.000000 0.7744 0.7740 0.7732 0.7721 0.7712
1138.000000 0.7701 0.7690 0.7678 0.7665 0.7654
1143.000000 0.7645 0.7636 0.7626 0.7618 0.7608
1148.000000 0.7599 0.7594 0.7592 0.7591 0.7589
1153.000000 0.7587 0.7585 0.7583 0.7581 0.7580
1158.000000 0.7576 0.7571 0.7567 0.7561 0.7557
1163.000000 0.7550 0.7535 0.7521 0.7507 0.7493
1168.000000 0.7478 0.7465 0.7451 0.7430 0.7404
1173.000000 0.7376 0.7351 0.7324 0.7298 0.7265
1178.000000 0.7230 0.7194 0.7158 0.7122 0.6840
1183.000000 0.6546 0.6253 0.6127 0.6139 0.6395
1188.000000 0.6738 0.6988 0.7038 0.7061 0.7081
1193.000000 0.7098 0.7115 0.7126 0.7137 0.7147
1198.000000 0.7158 0.7187 0.7215 0.7284 0.7297
1203.000000 0.7307 0.7314 0.7321 0.7326 0.7333
1208.000000 0.7333 0.7334 0.7325 0.7311 0.7293
1213.000000 0.7276 0.7265 0.7264 0.7265 0.7265
1218.000000 0.7265 0.7264 0.7260 0.7255 0.7246
1223.000000 0.7226 0.7193 0.7160 0.7114 0.7065
1228.000000 0.7026 0.6994 0.6961 0.6954 0.6949
1233.000000 0.6948 0.6948 0.6951 0.6954 0.6957
1238.000000 0.6967 0.6995 0.7011 0.7022 0.7026
1243.000000 0.7015 0.7001 0.6987 0.6960 0.6933
1248.000000 0.6900 0.6865 0.6831 0.6795 0.6760
1253.000000 0.6718 0.6678 0.6638 0.6598 0.6558
1258.000000 0.6518 0.6478 0.6440 0.6410 0.6382
1263.000000 0.6354 0.6344 0.6335 0.6326 0.6323
1268.000000 0.6319 0.6294 0.6316 0.6316 0.6316
1273.000000 0.6325 0.6335 0.6344 0.6352 0.6359
1278.000000 0.6366 0.6373 0.6374 0.6370 0.6358
1283.000000 0.6342 0.6326 0.6298 0.6267 0.6230
1288.000000 0.6191 0.6141 0.6089 0.6038 0.5987
1293.000000 0.5935 0.5884 0.5833 0.5782 0.5716
1298.000000 0.5632 0.5548 0.5460 0.5368 0.5275
1303.000000 0.5187 0.5119 0.5051 0.4984 0.4916
1308.000000 0.4848 0.4780 0.4700 0.4617 0.4533
1313.000000 0.4450 0.4367 0.4271 0.4108 0.3944
1318.000000 0.3775 0.3606 0.3262 0.2932 0.2671
1323.000000 0.2466 0.2313 0.2211 0.2067 0.1783
1328.000000 0.1499 0.0939 0.0774 0.0713 0.0666
1333.000000 0.0618 0.0563 0.0485 0.0323 0.0091
1338.000000 0.0049 0.0022 0.0001 0.0003 0.0003
1343.000000 0.0003 0.0002 0.0002 0.0002 0.0002
1348.000000 0.0051 0.0123 0.0203 0.0312 0.0423
1353.000000 0.0566 0.0757 0.1088 0.1420 0.1751
1358.000000 0.2082 0.2413 0.2745 0.3039 0.2984
1363.000000 0.2974 0.2884 0.2665 0.2542 0.2418
1368.000000 0.2297 0.2058 0.1716 0.1375 0.1033
1373.000000 0.0881 0.0887 0.0902 0.0916 0.0919
1378.000000 0.0909 0.0839 0.0727 0.0608 0.0520
1383.000000 0.0473 0.0467 0.0441 0.0639 0.0984
1388.000000 0.1425 0.1866 0.2307 0.2747 0.3914
1393.000000 0.4244 0.4472 0.4674 0.4850 0.4997
1398.000000 0.5104 0.5210 0.5291 0.5421 0.5379
1403.000000 0.5375 0.5366 0.5352 0.5304 0.5250
1408.000000 0.5140 0.5060 0.5017 0.4988 0.5317
1413.000000 0.5460 0.5573 0.5597 0.5594 0.5637
1418.000000 0.5470 0.5407 0.5406 0.5430 0.5483
1423.000000 0.5508 0.5506 0.5498 0.5487 0.5452
1428.000000 0.5400 0.5343 0.5287 0.5183 0.5037
1433.000000 0.4892 0.4746 0.4601 0.4455 0.4310
1438.000000 0.4164 0.4018 0.3873 0.3793 0.3796
1443.000000 0.3800 0.3809 0.3852 0.3893 0.3899
1448.000000 0.3899 0.3834 0.3634 0.3434 0.3234
1453.000000 0.3034 0.2834 0.2633 0.2433 0.2233
1458.000000 0.2033 0.1832 0.1789 0.1786 0.2046
1463.000000 0.2450 0.2852 0.3255 0.3658 0.4059
1468.000000 0.4462 0.4866 0.5269 0.5496 0.5610
1473.000000 0.5659 0.5682 0.5686 0.5668 0.5660
1478.000000 0.5639 0.5615 0.5543 0.5484 0.5412
1483.000000 0.5346 0.5291 0.5236 0.5181 0.5126
1488.000000 0.5046 0.4960 0.4876 0.4791 0.4637
1493.000000 0.4473 0.4303 0.4105 0.3921 0.3770
1498.000000 0.3623 0.3493 0.3291 0.3008 0.2724
1503.000000 0.2417 0.2080 0.1944 0.1807 0.1643
1508.000000 0.1466 0.1304 0.1145 0.0995 0.0849
1513.000000 0.0733 0.0634 0.0535 0.0436 0.0279
1518.000000 0.0180 0.0104 0.0085 0.0064 0.0055
1523.000000 0.0052 0.0064 0.0079 0.0094 0.0107
1528.000000 0.0117 0.0126 0.0127 0.0133 0.0121
1533.000000 0.0104 0.0088 0.0073 0.0057 0.0043
1538.000000 0.0032 0.0010 0.0049 0.0144 0.0293
1543.000000 0.0442 0.0591 0.0740 0.0889 0.1038
1548.000000 0.1187 0.1336 0.1467 0.1426 0.1277
1553.000000 0.1077 0.0876 0.0677 0.0477 0.0277
1558.000000 0.0128 0.0077 0.0064 0.0062 0.0046
1563.000000 0.0084 0.0165 0.0301 0.0404 0.0475
1568.000000 0.0547 0.0619 0.0930 0.1344 0.1758
1573.000000 0.2172 0.2710 0.2934 0.3053 0.3195
1578.000000 0.3356 0.3562 0.3775 0.3988 0.4201
1583.000000 0.4412 0.4626 0.4839 0.5051 0.5264
1588.000000 0.5477 0.5566 0.5508 0.4950 0.4392
1593.000000 0.3834 0.3277 0.2719 0.2161 0.1604
1598.000000 0.1046 0.0488 0.0091 0.0045 0.0107
1603.000000 0.0281 0.0612 0.0942 0.1274 0.1604
1608.000000 0.1935 0.2267 0.2598 0.2928 0.3259
1613.000000 0.3550 0.3550 0.3388 0.3183 0.2979
1618.000000 0.2774 0.2570 0.2365 0.2161 0.2026
1623.000000 0.2193 0.2555 0.2918 0.3280 0.3643
1628.000000 0.4005 0.4297 0.4567 0.5324 0.5626
1633.000000 0.5903 0.6156 0.6530 0.7031 0.7269
1638.000000 0.7472 0.7662 0.7768 0.7828 0.7891
1643.000000 0.7961 0.8038 0.8097 0.8136 0.8191
1648.000000 0.8239 0.8278 0.8317 0.8359 0.8402
1653.000000 0.8445 0.8489 0.8530 0.8571 0.8613
1658.000000 0.8654 0.8686 0.8718 0.8736 0.8749
1663.000000 0.8783 0.8764 0.8766 0.8768 0.8764
1668.000000 0.8760 0.8755 0.8749 0.8743 0.8737
1673.000000 0.8731 0.8723 0.8715 0.8708 0.8700
1678.000000 0.8692 0.8685 0.8677 0.8670 0.8663
1683.000000 0.8656 0.8649 0.8642 0.8635 0.8628
1688.000000 0.8620 0.8612 0.8605 0.8597 0.8589
1693.000000 0.8584 0.8580 0.8575 0.8570 0.8566
1698.000000 0.8561 0.8557 0.8552 0.8547 0.8543
1703.000000 0.8538 0.8533 0.8528 0.8524 0.8518
1708.000000 0.8515 0.8510 0.8505 0.8501 0.8496
1713.000000 0.8491 0.8487 0.8482 0.8478 0.8474
1718.000000 0.8474 0.8474 0.8462 0.8464 0.8474
1723.000000 0.8483 0.8494 0.8508 0.8523 0.8537
1728.000000 0.8549 0.8557 0.8566 0.8574 0.8583
1733.000000 0.8591 0.8597 0.8602 0.8607 0.8612
1738.000000 0.8616 0.8617 0.8617 0.8616 0.8616
1743.000000 0.8616 0.8616 0.8615 0.8615 0.8615
1748.000000 0.8614 0.8611 0.8607 0.8604 0.8601
1753.000000 0.8598 0.8595 0.8592 0.8588 0.8585
1758.000000 0.8581 0.8577 0.8574 0.8570 0.8567
1763.000000 0.8563 0.8559 0.8556 0.8552 0.8548
1768.000000 0.8545 0.8541 0.8538 0.8534 0.8530
1773.000000 0.8525 0.8521 0.8518 0.8515 0.8511
1778.000000 0.8507 0.8503 0.8499 0.8496 0.8492
1783.000000 0.8488 0.8484 0.8480 0.8475 0.8473
1788.000000 0.8468 0.8464 0.8460 0.8456 0.8452
1793.000000 0.8447 0.8443 0.8439 0.8435 0.8431
1798.000000 0.8427 0.8421 0.8418 0.8414 0.8410
1803.000000 0.8406 0.8400 0.8394 0.8388 0.8382
1808.000000 0.8375 0.8370 0.8365 0.8359 0.8353
1813.000000 0.8347 0.8341 0.8335 0.8324 0.8312
1818.000000 0.8299 0.8287 0.8274 0.8262 0.8249
1823.000000 0.8237 0.8224 0.8211 0.8191 0.8171
1828.000000 0.8151 0.8132 0.8112 0.8093 0.8072
1833.000000 0.8043 0.7990 0.7938 0.7886 0.7800
1838.000000 0.7704 0.7556 0.7426 0.7325 0.7205
1843.000000 0.7121 0.7147 0.7148 0.7407 0.7754
1848.000000 0.8057 0.8139 0.8168 0.8171 0.8171
1853.000000 0.8171 0.8168 0.8162 0.8150 0.8136
1858.000000 0.8121 0.8101 0.8078 0.8056 0.8033
1863.000000 0.8011 0.7989 0.7967 0.7945 0.7939
1868.000000 0.7935 0.7931 0.7930 0.7939 0.7957
1873.000000 0.7984 0.8007 0.8021 0.8021 0.8018
1878.000000 0.8008 0.8000 0.8001 0.8001 0.8008
1883.000000 0.8015 0.8024 0.8030 0.8034 0.8039
1888.000000 0.8039 0.8030 0.8019 0.8011 0.8001
1893.000000 0.7986 0.7971 0.7958 0.7947 0.7935
1898.000000 0.7924 0.7914 0.7911 0.7911 0.7908
1903.000000 0.7908 0.7911 0.7915 0.7918 0.7919
1908.000000 0.7921 0.7921 0.7921 0.7921 0.7919
1913.000000 0.7918 0.7915 0.7914 0.7908 0.7900
1918.000000 0.7892 0.7885 0.7871 0.7851 0.7830
1923.000000 0.7812 0.7806 0.7798 0.7791 0.7795
1928.000000 0.7803 0.7811 0.7819 0.7830 0.7841
1933.000000 0.7851 0.7861 0.7868 0.7875 0.7878
1938.000000 0.7880 0.7880 0.7880 0.7876 0.7874
1943.000000 0.7871 0.7868 0.7862 0.7856 0.7848
1948.000000 0.7840 0.7832 0.7814 0.7796 0.7775
1953.000000 0.7774 0.7772 0.7786 0.7799 0.7811
1958.000000 0.7825 0.7839 0.7842 0.7845 0.7846
1963.000000 0.7847 0.7842 0.7837 0.7833 0.7826
1968.000000 0.7821 0.7817 0.7811 0.7807 0.7801
1973.000000 0.7797 0.7791 0.7786 0.7781 0.7776
1978.000000 0.7771 0.7767 0.7761 0.7757 0.7753
1983.000000 0.7748 0.7743 0.7739 0.7734 0.7728
1988.000000 0.7725 0.7719 0.7715 0.7711 0.7718
1993.000000 0.7803 0.7888 0.7972 0.8058 0.8143
1998.000000 0.8141 0.8130 0.8119 0.8111 0.8104
2003.000000 0.8099 0.8095 0.8090 0.8086 0.8081
2008.000000 0.8076 0.8071 0.8068 0.8062 0.8058
2013.000000 0.8053 0.8049 0.8044 0.8039 0.8034
2018.000000 0.8030 0.8025 0.8019 0.8015 0.8011
2023.000000 0.8006 0.8001 0.7996 0.7992 0.7987
2028.000000 0.7983 0.7978 0.7974 0.7968 0.7964
2033.000000 0.7958 0.8005 0.7950 0.7945 0.7940
2038.000000 0.7935 0.7930 0.7925 0.7921 0.7915
2043.000000 0.7911 0.7906 0.7901 0.7896 0.7890
2048.000000 0.7885 0.7878 0.7872 0.7867 0.7861
2053.000000 0.7856 0.7851 0.7845 0.7839 0.7833
2058.000000 0.7828 0.7821 0.7815 0.7810 0.7804
2063.000000 0.7798 0.7793 0.7787 0.7781 0.7775
2068.000000 0.7768 0.7762 0.7757 0.7751 0.7746
2073.000000 0.7740 0.7734 0.7728 0.7721 0.7715
2078.000000 0.7710 0.7704 0.7698 0.7692 0.7686
2083.000000 0.7680 0.7674 0.7668 0.7661 0.7656
2088.000000 0.7650 0.7644 0.7638 0.7632 0.7625
2093.000000 0.7619 0.7614 0.7608 0.7603 0.7597
2098.000000 0.7592 0.7586 0.7581 0.7575 0.7569
2103.000000 0.7564 0.7558 0.7551 0.7547 0.7541
2108.000000 0.7536 0.7531 0.7525 0.7521 0.7515
2113.000000 0.7511 0.7507 0.7501 0.7498 0.7493
2118.000000 0.7489 0.7484 0.7478 0.7474 0.7469
2123.000000 0.7465 0.7461 0.7456 0.7451 0.7446
2128.000000 0.7441 0.7436 0.7431 0.7425 0.7421
2133.000000 0.7415 0.7411 0.7406 0.7401 0.7396
2138.000000 0.7391 0.7386 0.7381 0.7375 0.7371
2143.000000 0.7365 0.7361 0.7356 0.7351 0.7346
2148.000000 0.7341 0.7336 0.7331 0.7325 0.7321
2153.000000 0.7315 0.7311 0.7306 0.7301 0.7296
2158.000000 0.7291 0.7286 0.7281 0.7275 0.7271
2163.000000 0.7265 0.7261 0.7256 0.7251 0.7246
2168.000000 0.7241 0.7236 0.7232 0.7226 0.7221
2173.000000 0.7217 0.7211 0.7207 0.7203 0.7198
2178.000000 0.7193 0.7188 0.7183 0.7178 0.7174
2183.000000 0.7168 0.7164 0.7158 0.7154 0.7149
2188.000000 0.7144 0.7139 0.7135 0.7130 0.7125
2193.000000 0.7119 0.7115 0.7110 0.7106 0.7101
2198.000000 0.7096 0.7091 0.7086 0.7081 0.7076
2203.000000 0.7071 0.7068 0.7062 0.7058 0.7054
2208.000000 0.7050 0.7043 0.7037 0.7028 0.7018
2213.000000 0.7010 0.7001 0.6993 0.6984 0.6975
2218.000000 0.6967 0.6958 0.6949 0.6940 0.6931
2223.000000 0.6921 0.6912 0.6903 0.6894 0.6885
2228.000000 0.6875 0.6867 0.6858 0.6848 0.6839
2233.000000 0.6830 0.6821 0.6811 0.6803 0.6794
2238.000000 0.6786 0.6776 0.6768 0.6758 0.6750
2243.000000 0.6741 0.6733 0.6724 0.6715 0.6706
2248.000000 0.6697 0.6688 0.6680 0.6671 0.6661
2253.000000 0.6653 0.6644 0.6635 0.6626 0.6618
2258.000000 0.6608 0.6601 0.6596 0.6589 0.6582
2263.000000 0.6575 0.6568 0.6561 0.6555 0.6550
2268.000000 0.6545 0.6541 0.6537 0.6534 0.6532
2273.000000 0.6528 0.6526 0.6524 0.6521 0.6518
2278.000000 0.6517 0.6514 0.6511 0.6508 0.6505
2283.000000 0.6501 0.6498 0.6494 0.6491 0.6484
2288.000000 0.6476 0.6469 0.6464 0.6457 0.6450
2293.000000 0.6443 0.6437 0.6430 0.6422 0.6412
2298.000000 0.6404 0.6394 0.6385 0.6375 0.6366
2303.000000 0.6357 0.6348 0.6338 0.6329 0.6319
2308.000000 0.6310 0.6300 0.6291 0.6288 0.6285
2313.000000 0.6282 0.6280 0.6277 0.6275 0.6272
2318.000000 0.6270 0.6268 0.6266 0.6264 0.6262
2323.000000 0.6259 0.6257 0.6255 0.6254 0.6253
2328.000000 0.6252 0.6251 0.6251 0.6250 0.6249
2333.000000 0.6248 0.6247 0.6246 0.6246 0.6245
2338.000000 0.6244 0.6243 0.6243 0.6242 0.6241
2343.000000 0.6241 0.6242 0.6242 0.6243 0.6243
2348.000000 0.6244 0.6245 0.6246 0.6246 0.6247
2353.000000 0.6247 0.6248 0.6249 0.6250 0.6250
2358.000000 0.6251 0.6251 0.6252 0.6252 0.6253
2363.000000 0.6253 0.6253 0.6253 0.6253 0.6253
2368.000000 0.6253 0.6253 0.6253 0.6253 0.6253
2373.000000 0.6252 0.6252 0.6252 0.6252 0.6252
2378.000000 0.6252 0.6252 0.6252 0.6252 0.6252
2383.000000 0.6252 0.6252 0.6252 0.6252 0.6252
2388.000000 0.6252 0.6251 0.6250 0.6248 0.6246
2393.000000 0.6244 0.6242 0.6240 0.6238 0.6235
2398.000000 0.6233 0.6231 0.6229 0.6227 0.6225
2403.000000 0.6222 0.6220 0.6212 0.6206 0.6197
2408.000000 0.6189 0.6180 0.6172 0.6164 0.6157
2413.000000 0.6151 0.6145 0.6139 0.6134 0.6128
2418.000000 0.6122 0.6116 0.6110 0.6105 0.6099
2423.000000 0.6093 0.6087 0.6081 0.6076 0.6073
2428.000000 0.6070 0.6067 0.6064 0.6060 0.6058
2433.000000 0.6055 0.6052 0.6049 0.6046 0.6043
2438.000000 0.6040 0.6037 0.6034 0.6031 0.6028
2443.000000 0.6025 0.6022 0.6019 0.6016 0.6012
2448.000000 0.6010 0.6007 0.6004 0.6001 0.5998
2453.000000 0.5995 0.5992 0.5989 0.5986 0.5983
2458.000000 0.5980 0.5976 0.5973 0.5970 0.5967
2463.000000 0.5964 0.5960 0.5958 0.5955 0.5952
2468.000000 0.5949 0.5946 0.5943 0.5940 0.5937
2473.000000 0.5935 0.5933 0.5931 0.5929 0.5926
2478.000000 0.5924 0.5922 0.5920 0.5918 0.5916
2483.000000 0.5914 0.5912 0.5910 0.5908 0.5905
2488.000000 0.5903 0.5901 0.5899 0.5897 0.5895
2493.000000 0.5893 0.5891 0.5888 0.5886 0.5881
2498.000000 0.5877 0.5873 0.5869 0.5864 0.5860
2503.000000 0.5855 0.5851 0.5846 0.5842 0.5837
2508.000000 0.5833 0.5828 0.5824 0.5819 0.5815
2513.000000 0.5810 0.5807 0.5802 0.5798 0.5792
2518.000000 0.5787 0.5781 0.5775 0.5768 0.5762
2523.000000 0.5758 0.5758 0.5757 0.5760 0.5762
2528.000000 0.5766 0.5769 0.5772 0.5775 0.5779
2533.000000 0.5782 0.5786 0.5789 0.5793 0.5796
2538.000000 0.5799 0.5802 0.5806 0.5810 0.5816
2543.000000 0.5819 0.5820 0.5819 0.5819 0.5816
2548.000000 0.5814 0.5812 0.5810 0.5807 0.5805
2553.000000 0.5802 0.5799 0.5795 0.5792 0.5789
2558.000000 0.5786 0.5781 0.5777 0.5773 0.5769
2563.000000 0.5765 0.5760 0.5756 0.5752 0.5748
2568.000000 0.5744 0.5739 0.5735 0.5730 0.5726
2573.000000 0.5722 0.5718 0.5712 0.5709 0.5705
2578.000000 0.5701 0.5696 0.5692 0.5688 0.5684
2583.000000 0.5679 0.5675 0.5670 0.5666 0.5662
2588.000000 0.5659 0.5656 0.5654 0.5651 0.5648
2593.000000 0.5645 0.5642 0.5639 0.5637 0.5634
2598.000000 0.5631 0.5628 0.5626 0.5623 0.5620
2603.000000 0.5617 0.5615 0.5610 0.5608 0.5604
2608.000000 0.5601 0.5597 0.5594 0.5590 0.5587
2613.000000 0.5583 0.5580 0.5576 0.5573 0.5569
2618.000000 0.5566 0.5562 0.5558 0.5554 0.5551
2623.000000 0.5547 0.5544 0.5540 0.5537 0.5533
2628.000000 0.5529 0.5525 0.5522 0.5518 0.5514
2633.000000 0.5510 0.5506 0.5502 0.5499 0.5495
2638.000000 0.5491 0.5487 0.5483 0.5479 0.5476
2643.000000 0.5472 0.5468 0.5464 0.5460 0.5457
2648.000000 0.5453 0.5449 0.5445 0.5441 0.5438
2653.000000 0.5434 0.5431 0.5427 0.5424 0.5420
2658.000000 0.5417 0.5412 0.5410 0.5406 0.5403
2663.000000 0.5399 0.5396 0.5392 0.5389 0.5385
2668.000000 0.5382 0.5378 0.5375 0.5371 0.5368
2673.000000 0.5362 0.5359 0.5354 0.5350 0.5346
2678.000000 0.5342 0.5337 0.5333 0.5328 0.5324
2683.000000 0.5320 0.5316 0.5310 0.5307 0.5302
2688.000000 0.5298 0.5294 0.5290 0.5285 0.5281
2693.000000 0.5276 0.5272 0.5268 0.5264 0.5259
2698.000000 0.5255 0.5250 0.5246 0.5242 0.5238
2703.000000 0.5234 0.5230 0.5226 0.5222 0.5218
2708.000000 0.5214 0.5210 0.5206 0.5201 0.5197
2713.000000 0.5193 0.5189 0.5185 0.5181 0.5177
2718.000000 0.5173 0.5169 0.5165 0.5160 0.5157
2723.000000 0.5153 0.5149 0.5145 0.5141 0.5136
2728.000000 0.5132 0.5128 0.5124 0.5119 0.5115
2733.000000 0.5109 0.5104 0.5098 0.5093 0.5087
2738.000000 0.5082 0.5076 0.5071 0.5065 0.5060
2743.000000 0.5054 0.5049 0.5044 0.5039 0.5033
2748.000000 0.5028 0.5022 0.5017 0.5010 0.5006
2753.000000 0.5000 0.4995 0.4989 0.4984 0.4978
2758.000000 0.4973 0.4967 0.4962 0.4956 0.4950
2763.000000 0.4943 0.4937 0.4931 0.4925 0.4918
2768.000000 0.4912 0.4905 0.4899 0.4892 0.4886
2773.000000 0.4879 0.4873 0.4867 0.4860 0.4854
2778.000000 0.4848 0.4839 0.4831 0.4822 0.4812
2783.000000 0.4804 0.4796 0.4787 0.4779 0.4770
2788.000000 0.4760 0.4752 0.4744 0.4738 0.4733
2793.000000 0.4730 0.4729 0.4729 0.4729 0.4730
2798.000000 0.4731 0.4732 0.4733 0.4734 0.4735
2803.000000 0.4735 0.4736 0.4736 0.4737 0.4737
2808.000000 0.4738 0.4739 0.4740 0.4740 0.4741
2813.000000 0.4741 0.4741 0.4736 0.4731 0.4726
2818.000000 0.4721 0.4715 0.4709 0.4698 0.4688
2823.000000 0.4677 0.4667 0.4657 0.4647 0.4631
2828.000000 0.4615 0.4597 0.4579 0.4560 0.4543
2833.000000 0.4526 0.4510 0.4495 0.4480 0.4465
2838.000000 0.4450 0.4435 0.4420 0.4405 0.4390
2843.000000 0.4376 0.4362 0.4354 0.4346 0.4337
2848.000000 0.4328 0.4319 0.4310 0.4301 0.4293
2853.000000 0.4284 0.4276 0.4269 0.4262 0.4262
2858.000000 0.4262 0.4262 0.4264 0.4266 0.4268
2863.000000 0.4270 0.4273 0.4275 0.4278 0.4280
2868.000000 0.4283 0.4289 0.4296 0.4302 0.4309
2873.000000 0.4315 0.4322 0.4329 0.4336 0.4343
2878.000000 0.4350 0.4357 0.4364 0.4373 0.4382
2883.000000 0.4387 0.4393 0.4392 0.4391 0.4389
2888.000000 0.4423 0.4382 0.4378 0.4373 0.4369
2893.000000 0.4364 0.4359 0.4354 0.4349 0.4342
2898.000000 0.4336 0.4329 0.4323 0.4316 0.4310
2903.000000 0.4303 0.4297 0.4290 0.4284 0.4277
2908.000000 0.4271 0.4264 0.4257 0.4250 0.4243
2913.000000 0.4236 0.4230 0.4223 0.4216 0.4209
2918.000000 0.4202 0.4195 0.4189 0.4182 0.4176
2923.000000 0.4170 0.4164 0.4158 0.4152 0.4146
2928.000000 0.4140 0.4134 0.4129 0.4123 0.4117
2933.000000 0.4110 0.4106 0.4102 0.4098 0.4094
2938.000000 0.4090 0.4086 0.4066 0.4078 0.4078
2943.000000 0.4078 0.4082 0.4087 0.4092 0.4097
2948.000000 0.4102 0.4107 0.4112 0.4117 0.4122
2953.000000 0.4127 0.4132 0.4137 0.4142 0.4147
2958.000000 0.4152 0.4157 0.4162 0.4167 0.4173
2963.000000 0.4178 0.4184 0.4190 0.4196 0.4201
2968.000000 0.4207 0.4212 0.4219 0.4219 0.4219
2973.000000 0.4219 0.4219 0.4216 0.4216 0.4207
2978.000000 0.4202 0.4196 0.4191 0.4185 0.4180
2983.000000 0.4174 0.4169 0.4162 0.4158 0.4152
2988.000000 0.4147 0.4141 0.4136 0.4130 0.4125
2993.000000 0.4119 0.4114 0.4108 0.4103 0.4097
2998.000000 0.4092 0.4086 0.4080 0.4075 0.4070
3003.000000 0.4062 0.4056 0.4049 0.4042 0.4034
3008.000000 0.4028 0.4021 0.4014 0.4007 0.4000
3013.000000 0.3993 0.3986 0.3979 0.3972 0.3964
3018.000000 0.3958 0.3950 0.3943 0.3932 0.3924
3023.000000 0.3914 0.3905 0.3895 0.3886 0.3876
3028.000000 0.3866 0.3857 0.3848 0.3838 0.3829
3033.000000 0.3818 0.3808 0.3797 0.3786 0.3775
3038.000000 0.3764 0.3754 0.3743 0.3732 0.3721
3043.000000 0.3709 0.3699 0.3688 0.3677 0.3666
3048.000000 0.3656 0.3645 0.3634 0.3622 0.3610
3053.000000 0.3595 0.3579 0.3562 0.3547 0.3530
3058.000000 0.3514 0.3499 0.3482 0.3466 0.3450
3063.000000 0.3434 0.3418 0.3403 0.3387 0.3366
3068.000000 0.3348 0.3327 0.3307 0.3286 0.3264
3073.000000 0.3244 0.3224 0.3203 0.3182 0.3161
3078.000000 0.3141 0.3120 0.3100 0.3078 0.3057
3083.000000 0.3030 0.3004 0.2977 0.2950 0.2923
3088.000000 0.2897 0.2870 0.2844 0.2789 0.2734
3093.000000 0.2666 0.2599 0.2334 0.2069 0.1696
3098.000000 0.1325 0.1275 0.1225 0.1225 0.1226
3103.000000 0.1380 0.1454 0.1528 0.1602 0.1661
3108.000000 0.1720 0.1721 0.1796 0.1673 0.1623
3113.000000 0.1565 0.1508 0.1450 0.1392 0.1336
3118.000000 0.1279 0.1304 0.1256 0.2087 0.2844
3123.000000 0.3526 0.4209 0.4216 0.4223 0.4224
3128.000000 0.4224 0.4224 0.4224 0.4222 0.4221
3133.000000 0.4218 0.4215 0.4210 0.4207 0.4200
3138.000000 0.4194 0.4184 0.4175 0.4165 0.4155
3143.000000 0.4144 0.4134 0.4124 0.4114 0.4103
3148.000000 0.4093 0.4082 0.4071 0.4059 0.4050
3153.000000 0.4039 0.4028 0.4018 0.4009 0.3999
3158.000000 0.3989 0.3982 0.3978 0.3975 0.3972
3163.000000 0.3968 0.3964 0.3962 0.3959 0.3956
3168.000000 0.3954 0.3954 0.3954 0.3955 0.3956
3173.000000 0.3956 0.3956 0.3955 0.3953 0.3950
3178.000000 0.3950 0.3948 0.3947 0.3945 0.3944
3183.000000 0.3942 0.3941 0.3937 0.3934 0.3930
3188.000000 0.3926 0.3921 0.3916 0.3912 0.3908
3193.000000 0.3904 0.3900 0.3895 0.3891 0.3887
3198.000000 0.3882 0.3878 0.3874 0.3868 0.3864
3203.000000 0.3860 0.3857 0.3853 0.3849 0.3846
3208.000000 0.3843 0.3839 0.3836 0.3832 0.3830
3213.000000 0.3826 0.3823 0.3820 0.3816 0.3812
3218.000000 0.3809 0.3807 0.3804 0.3800 0.3798
3223.000000 0.3794 0.3791 0.3788 0.3784 0.3782
3228.000000 0.3779 0.3776 0.3773 0.3768 0.3766
3233.000000 0.3762 0.3759 0.3757 0.3754 0.3750
3238.000000 0.3747 0.3744 0.3741 0.3738 0.3734
3243.000000 0.3732 0.3729 0.3725 0.3722 0.3718
3248.000000 0.3716 0.3712 0.3709 0.3706 0.3703
3253.000000 0.3700 0.3697 0.3694 0.3691 0.3687
3258.000000 0.3684 0.3680 0.3678 0.3675 0.3672
3263.000000 0.3668 0.3664 0.3662 0.3659 0.3655
3268.000000 0.3652 0.3649 0.3646 0.3643 0.3640
3273.000000 0.3636 0.3632 0.3630 0.3627 0.3623
3278.000000 0.3620 0.3616 0.3614 0.3609 0.3607
3283.000000 0.3604 0.3600 0.3598 0.3595 0.3591
3288.000000 0.3588 0.3584 0.3582 0.3578 0.3575
3293.000000 0.3572 0.3568 0.3566 0.3562 0.3559
3298.000000 0.3556 0.3553 0.3550 0.3546 0.3543
3303.000000 0.3540 0.3537 0.3534 0.3530 0.3527
3308.000000 0.3524 0.3521 0.3518 0.3514 0.3510
3313.000000 0.3508 0.3505 0.3502 0.3499 0.3495
3318.000000 0.3492 0.3489 0.3486 0.3482 0.3479
3323.000000 0.3476 0.3473 0.3468 0.3466 0.3462
3328.000000 0.3459 0.3457 0.3454 0.3450 0.3447
3333.000000 0.3444 0.3441 0.3437 0.3434 0.3430
3338.000000 0.3428 0.3424 0.3421 0.3418 0.3414
3343.000000 0.3410 0.3408 0.3405 0.3402 0.3398
3348.000000 0.3395 0.3392 0.3389 0.3386 0.3382
3353.000000 0.3379 0.3376 0.3373 0.3370 0.3366
3358.000000 0.3362 0.3359 0.3357 0.3353 0.3350
3363.000000 0.3347 0.3344 0.3340 0.3337 0.3334
3368.000000 0.3330 0.3328 0.3325 0.3321 0.3318
3373.000000 0.3314 0.3312 0.3308 0.3305 0.3302
3378.000000 0.3299 0.3295 0.3292 0.3289 0.3286
3383.000000 0.3282 0.3279 0.3276 0.3273 0.3270
3388.000000 0.3266 0.3262 0.3259 0.3257 0.3254
3393.000000 0.3250 0.3248 0.3244 0.3241 0.3238
3398.000000 0.3234 0.3232 0.3229 0.3225 0.3222
3403.000000 0.3218 0.3216 0.3212 0.3209 0.3207
3408.000000 0.3204 0.3200 0.3197 0.3194 0.3191
3413.000000 0.3188 0.3184 0.3181 0.3178 0.3175
3418.000000 0.3172 0.3169 0.3166 0.3163 0.3160
3423.000000 0.3156 0.3153 0.3150 0.3147 0.3144
3428.000000 0.3141 0.3137 0.3134 0.3131 0.3128
3433.000000 0.3125 0.3122 0.3118 0.3115 0.3112
3438.000000 0.3109 0.3106 0.3103 0.3100 0.3097
3443.000000 0.3093 0.3090 0.3087 0.3084 0.3081
3448.000000 0.3078 0.3075 0.3073 0.3070 0.3067
3453.000000 0.3064 0.3061 0.3058 0.3056 0.3053
3458.000000 0.3050 0.3047 0.3044 0.3041 0.3039
3463.000000 0.3035 0.3033 0.3030 0.3027 0.3024
3468.000000 0.3022 0.3019 0.3016 0.3013 0.3011
3473.000000 0.3008 0.3005 0.3002 0.2999 0.2996
3478.000000 0.2994 0.2991 0.2988 0.2984 0.2982
3483.000000 0.2979 0.2977 0.2974 0.2971 0.2968
3488.000000 0.2965 0.2962 0.2960 0.2957 0.2954
3493.000000 0.2951 0.2949 0.2946 0.2943 0.2940
3498.000000 0.2937 0.2934 0.2932 0.2929 0.2926
3503.000000 0.2923 0.2920 0.2917 0.2915 0.2912
3508.000000 0.2909 0.2906 0.2904 0.2901 0.2898
3513.000000 0.2895 0.2892 0.2889 0.2887 0.2884
3518.000000 0.2882 0.2879 0.2877 0.2875 0.2873
3523.000000 0.2870 0.2868 0.2865 0.2863 0.2861
3528.000000 0.2859 0.2856 0.2854 0.2852 0.2850
3533.000000 0.2847 0.2845 0.2843 0.2841 0.2838
3538.000000 0.2835 0.2834 0.2832 0.2829 0.2827
3543.000000 0.2824 0.2822 0.2820 0.2818 0.2815
3548.000000 0.2813 0.2811 0.2809 0.2806 0.2804
3553.000000 0.2802 0.2800 0.2797 0.2795 0.2792
3558.000000 0.2790 0.2788 0.2785 0.2783 0.2781
3563.000000 0.2779 0.2777 0.2774 0.2772 0.2770
3568.000000 0.2768 0.2765 0.2763 0.2761 0.2759
3573.000000 0.2756 0.2754 0.2752 0.2750 0.2747
3578.000000 0.2745 0.2742 0.2740 0.2738 0.2735
3583.000000 0.2733 0.2731 0.2729 0.2728 0.2726
3588.000000 0.2725 0.2723 0.2722 0.2720 0.2719
3593.000000 0.2717 0.2716 0.2715 0.2714 0.2712
3598.000000 0.2711 0.2709 0.2708 0.2706 0.2705
3603.000000 0.2703 0.2702 0.2700 0.2699 0.2697
3608.000000 0.2696 0.2694 0.2693 0.2691 0.2690
3613.000000 0.2688 0.2687 0.2684 0.2684 0.2682
3618.000000 0.2681 0.2679 0.2678 0.2676 0.2675
3623.000000 0.2674 0.2673 0.2671 0.2670 0.2668
3628.000000 0.2667 0.2665 0.2664 0.2662 0.2661
3633.000000 0.2659 0.2658 0.2656 0.2655 0.2653
3638.000000 0.2652 0.2650 0.2649 0.2648 0.2647
3643.000000 0.2646 0.2645 0.2644 0.2643 0.2642
3648.000000 0.2641 0.2640 0.2639 0.2638 0.2637
3653.000000 0.2635 0.2634 0.2634 0.2633 0.2632
3658.000000 0.2631 0.2629 0.2628 0.2627 0.2626
3663.000000 0.2625 0.2624 0.2623 0.2622 0.2621
3668.000000 0.2620 0.2618 0.2617 0.2615 0.2613
3673.000000 0.2611 0.2609 0.2607 0.2605 0.2603
3678.000000 0.2601 0.2599 0.2597 0.2595 0.2593
3683.000000 0.2591 0.2589 0.2585 0.2584 0.2582
3688.000000 0.2580 0.2578 0.2576 0.2574 0.2572
3693.000000 0.2570 0.2568 0.2566 0.2564 0.2562
3698.000000 0.2560 0.2558 0.2556 0.2554 0.2552
3703.000000 0.2550 0.2548 0.2545 0.2543 0.2541
3708.000000 0.2539 0.2535 0.2534 0.2531 0.2529
3713.000000 0.2527 0.2525 0.2522 0.2520 0.2517
3718.000000 0.2515 0.2513 0.2511 0.2508 0.2506
3723.000000 0.2503 0.2501 0.2499 0.2497 0.2494
3728.000000 0.2492 0.2489 0.2487 0.2484 0.2483
3733.000000 0.2480 0.2478 0.2475 0.2472 0.2469
3738.000000 0.2466 0.2463 0.2460 0.2457 0.2454
3743.000000 0.2451 0.2449 0.2446 0.2443 0.2440
3748.000000 0.2437 0.2434 0.2431 0.2428 0.2425
3753.000000 0.2422 0.2420 0.2417 0.2414 0.2411
3758.000000 0.2408 0.2405 0.2402 0.2399 0.2396
3763.000000 0.2393 0.2390 0.2387 0.2384 0.2381
3768.000000 0.2378 0.2375 0.2372 0.2369 0.2366
3773.000000 0.2363 0.2360 0.2357 0.2354 0.2351
3778.000000 0.2348 0.2345 0.2342 0.2338 0.2334
3783.000000 0.2332 0.2329 0.2326 0.2323 0.2320
3788.000000 0.2317 0.2314 0.2311 0.2308 0.2305
3793.000000 0.2302 0.2299 0.2296 0.2293 0.2290
3798.000000 0.2287 0.2283 0.2280 0.2279 0.2279
##END=
