##TITLE=1-Propanone, 1-cyclohexyl-2-hydroxy-, m-carbanilate
##JCAMP-DX=4.24
$$ By DXEDIT 1.05 (RS McDonald)
##DATA TYPE=INFRARED SPECTRUM
##CLASS=COBLENTZ III
##ORIGIN=DOW CHEMICAL COMPANY
##OWNER=COPYRIGHT (C) 1988 by COBLENTZ SOCIETY INC.
Collection (C) 2018 copyright by the U.S. Secretary of Commerce
on behalf of the United States of America. All rights reserved.
##DATE=1965/01/20
##CAS NAME=Carbanilic acid, m-chloro-, 1-(cyclohexylcarbonyl) ethyl ester
##NAMES=2-cyclohexyl-1-methyl-2-oxoethyl 3-chlorophenylcarbamate
##MOLFORM=C16 H20 Cl N O3
##SOURCE REFERENCE=COBLENTZ NO. 07926
##$NIST ID=B6007926
##$NIST SOURCE=COBLENTZ
##$NIST IMAGE=cob7926
##SPECTROMETER/DATA SYSTEM=DOW KBr FOREPRISM-GRATING
##INSTRUMENT PARAMETERS=BLAZED AT 3.5, 12.0, 20.0 MICRON AND CHANGED AT 5.0, 7.5, 14.9 MICRON
##STATE=SOLID (SPLIT MULL), FLUOROLUBE FOR 3800-1330 CM^-^1, NUJOL FOR 1330-450 CM^-^1
##SAMPLING PROCEDURE=TRANSMISSION
##RESOLUTION=2
##DATA PROCESSING=DIGITIZED BY COBLENTZ SOCIETY (BATCH I) FROM HARD COPY
##XUNITS=1/CM
##YUNITS=TRANSMITTANCE
##XFACTOR=1
##YFACTOR=1
##DELTAX=1
##FIRSTX=3798
##LASTX=453
##FIRSTY=0.852
##MAXX=3798
##MINX=453
##MAXY=0.9034
##MINY=0.0089
##NPOINTS=3346
##XYDATA=(X++(Y..Y))
3798.000000 0.8520 0.8520 0.8521 0.8521 0.8523
3793.000000 0.8523 0.8524 0.8525 0.8525 0.8525
3788.000000 0.8527 0.8527 0.8528 0.8528 0.8530
3783.000000 0.8530 0.8531 0.8532 0.8532 0.8532
3778.000000 0.8532 0.8532 0.8532 0.8532 0.8532
3773.000000 0.8532 0.8532 0.8532 0.8532 0.8531
3768.000000 0.8531 0.8531 0.8531 0.8531 0.8531
3763.000000 0.8531 0.8532 0.8532 0.8533 0.8533
3758.000000 0.8534 0.8534 0.8535 0.8535 0.8536
3753.000000 0.8536 0.8537 0.8537 0.8538 0.8538
3748.000000 0.8539 0.8539 0.8540 0.8540 0.8541
3743.000000 0.8541 0.8542 0.8542 0.8543 0.8543
3738.000000 0.8543 0.8543 0.8544 0.8544 0.8544
3733.000000 0.8544 0.8545 0.8545 0.8545 0.8545
3728.000000 0.8546 0.8546 0.8547 0.8547 0.8547
3723.000000 0.8547 0.8548 0.8548 0.8548 0.8548
3718.000000 0.8549 0.8549 0.8549 0.8549 0.8550
3713.000000 0.8550 0.8551 0.8551 0.8551 0.8551
3708.000000 0.8552 0.8552 0.8552 0.8552 0.8552
3703.000000 0.8551 0.8551 0.8550 0.8550 0.8549
3698.000000 0.8549 0.8548 0.8547 0.8546 0.8546
3693.000000 0.8545 0.8545 0.8544 0.8544 0.8543
3688.000000 0.8543 0.8542 0.8542 0.8541 0.8541
3683.000000 0.8540 0.8540 0.8540 0.8540 0.8543
3678.000000 0.8546 0.8549 0.8553 0.8556 0.8559
3673.000000 0.8562 0.8565 0.8568 0.8571 0.8571
3668.000000 0.8571 0.8571 0.8571 0.8571 0.8571
3663.000000 0.8571 0.8571 0.8571 0.8571 0.8571
3658.000000 0.8571 0.8571 0.8571 0.8571 0.8571
3653.000000 0.8571 0.8571 0.8571 0.8571 0.8571
3648.000000 0.8571 0.8571 0.8571 0.8571 0.8571
3643.000000 0.8571 0.8573 0.8573 0.8573 0.8573
3638.000000 0.8573 0.8573 0.8573 0.8573 0.8573
3633.000000 0.8573 0.8573 0.8573 0.8574 0.8574
3628.000000 0.8575 0.8575 0.8575 0.8575 0.8577
3623.000000 0.8578 0.8578 0.8578 0.8580 0.8580
3618.000000 0.8581 0.8581 0.8582 0.8582 0.8583
3613.000000 0.8583 0.8584 0.8584 0.8585 0.8585
3608.000000 0.8586 0.8587 0.8588 0.8588 0.8589
3603.000000 0.8589 0.8590 0.8591 0.8592 0.8592
3598.000000 0.8593 0.8593 0.8594 0.8594 0.8595
3593.000000 0.8596 0.8597 0.8597 0.8598 0.8598
3588.000000 0.8599 0.8599 0.8600 0.8601 0.8602
3583.000000 0.8602 0.8603 0.8604 0.8605 0.8605
3578.000000 0.8606 0.8607 0.8608 0.8608 0.8609
3573.000000 0.8610 0.8611 0.8611 0.8612 0.8613
3568.000000 0.8614 0.8614 0.8615 0.8616 0.8617
3563.000000 0.8617 0.8618 0.8618 0.8620 0.8620
3558.000000 0.8621 0.8621 0.8623 0.8623 0.8623
3553.000000 0.8623 0.8624 0.8624 0.8625 0.8625
3548.000000 0.8625 0.8625 0.8625 0.8625 0.8625
3543.000000 0.8625 0.8627 0.8627 0.8627 0.8627
3538.000000 0.8628 0.8628 0.8628 0.8628 0.8628
3533.000000 0.8628 0.8630 0.8630 0.8630 0.8630
3528.000000 0.8631 0.8631 0.8631 0.8631 0.8631
3523.000000 0.8631 0.8632 0.8632 0.8632 0.8632
3518.000000 0.8632 0.8632 0.8632 0.8632 0.8633
3513.000000 0.8633 0.8633 0.8633 0.8633 0.8633
3508.000000 0.8634 0.8634 0.8634 0.8634 0.8634
3503.000000 0.8634 0.8635 0.8635 0.8636 0.8637
3498.000000 0.8638 0.8639 0.8640 0.8641 0.8642
3493.000000 0.8643 0.8644 0.8645 0.8647 0.8648
3488.000000 0.8649 0.8650 0.8651 0.8652 0.8653
3483.000000 0.8654 0.8655 0.8656 0.8657 0.8657
3478.000000 0.8658 0.8658 0.8659 0.8659 0.8659
3473.000000 0.8659 0.8659 0.8659 0.8659 0.8654
3468.000000 0.8650 0.8645 0.8640 0.8635 0.8630
3463.000000 0.8625 0.8621 0.8616 0.8611 0.8607
3458.000000 0.8603 0.8600 0.8597 0.8593 0.8590
3453.000000 0.8587 0.8584 0.8580 0.8577 0.8574
3448.000000 0.8571 0.8571 0.8571 0.8570 0.8568
3443.000000 0.8568 0.8567 0.8566 0.8566 0.8565
3438.000000 0.8564 0.8563 0.8563 0.8562 0.8561
3433.000000 0.8560 0.8560 0.8560 0.8561 0.8561
3428.000000 0.8561 0.8561 0.8562 0.8562 0.8562
3423.000000 0.8565 0.8568 0.8573 0.8577 0.8581
3418.000000 0.8586 0.8590 0.8594 0.8598 0.8603
3413.000000 0.8605 0.8608 0.8610 0.8612 0.8614
3408.000000 0.8617 0.8618 0.8621 0.8623 0.8624
3403.000000 0.8624 0.8624 0.8621 0.8620 0.8618
3398.000000 0.8616 0.8614 0.8613 0.8611 0.8609
3393.000000 0.8607 0.8605 0.8602 0.8600 0.8597
3388.000000 0.8594 0.8590 0.8587 0.8583 0.8580
3383.000000 0.8577 0.8574 0.8570 0.8567 0.8561
3378.000000 0.8556 0.8548 0.8541 0.8534 0.8527
3373.000000 0.8520 0.8513 0.8503 0.8494 0.8484
3368.000000 0.8474 0.8464 0.8454 0.8444 0.8434
3363.000000 0.8420 0.8406 0.8389 0.8373 0.8356
3358.000000 0.8339 0.8321 0.8304 0.8273 0.8242
3353.000000 0.8204 0.8167 0.8083 0.8000 0.7926
3348.000000 0.7854 0.7755 0.7657 0.7530 0.7403
3343.000000 0.7268 0.7134 0.7024 0.6915 0.6751
3338.000000 0.6590 0.6435 0.6281 0.6134 0.5987
3333.000000 0.5839 0.5692 0.5544 0.5397 0.5250
3328.000000 0.5103 0.4955 0.4808 0.4660 0.4514
3323.000000 0.4305 0.4096 0.4066 0.4037 0.4030
3318.000000 0.4025 0.4024 0.4024 0.4018 0.4020
3313.000000 0.4025 0.4030 0.4045 0.4059 0.4087
3308.000000 0.4115 0.4220 0.4325 0.4466 0.4608
3303.000000 0.5148 0.5688 0.5846 0.6005 0.6195
3298.000000 0.6386 0.6515 0.6644 0.6714 0.6785
3293.000000 0.6854 0.6924 0.6993 0.7062 0.7106
3288.000000 0.7150 0.7186 0.7221 0.7258 0.7294
3283.000000 0.7330 0.7367 0.7396 0.7425 0.7446
3278.000000 0.7467 0.7487 0.7508 0.7528 0.7549
3273.000000 0.7568 0.7590 0.7610 0.7631 0.7651
3268.000000 0.7671 0.7691 0.7711 0.7726 0.7743
3263.000000 0.7758 0.7775 0.7791 0.7807 0.7822
3258.000000 0.7839 0.7855 0.7871 0.7887 0.7903
3253.000000 0.7919 0.7937 0.7953 0.7969 0.7987
3248.000000 0.8004 0.8021 0.8038 0.8055 0.8071
3243.000000 0.8088 0.8104 0.8111 0.8118 0.8125
3238.000000 0.8134 0.8142 0.8150 0.8158 0.8167
3233.000000 0.8175 0.8186 0.8195 0.8205 0.8214
3228.000000 0.8224 0.8233 0.8243 0.8252 0.8262
3223.000000 0.8271 0.8280 0.8289 0.8299 0.8305
3218.000000 0.8312 0.8318 0.8324 0.8330 0.8337
3213.000000 0.8342 0.8347 0.8350 0.8353 0.8356
3208.000000 0.8359 0.8362 0.8366 0.8366 0.8366
3203.000000 0.8366 0.8366 0.8360 0.8354 0.8348
3198.000000 0.8342 0.8335 0.8328 0.8320 0.8311
3193.000000 0.8296 0.8282 0.8265 0.8249 0.8231
3188.000000 0.8213 0.8197 0.8181 0.8167 0.8153
3183.000000 0.8143 0.8133 0.8125 0.8117 0.8115
3178.000000 0.8094 0.8112 0.8112 0.8121 0.8128
3173.000000 0.8145 0.8161 0.8184 0.8207 0.8238
3168.000000 0.8270 0.8301 0.8332 0.8350 0.8368
3163.000000 0.8386 0.8404 0.8420 0.8436 0.8448
3158.000000 0.8460 0.8462 0.8464 0.8466 0.8493
3153.000000 0.8468 0.8468 0.8468 0.8468 0.8468
3148.000000 0.8468 0.8467 0.8467 0.8463 0.8460
3143.000000 0.8453 0.8446 0.8438 0.8431 0.8424
3138.000000 0.8417 0.8410 0.8403 0.8390 0.8378
3133.000000 0.8364 0.8351 0.8337 0.8323 0.8301
3128.000000 0.8280 0.8257 0.8235 0.8220 0.8205
3123.000000 0.8191 0.8176 0.8168 0.8112 0.8151
3118.000000 0.8143 0.8142 0.8142 0.8142 0.8142
3113.000000 0.8146 0.8150 0.8154 0.8158 0.8168
3108.000000 0.8178 0.8190 0.8201 0.8216 0.8231
3103.000000 0.8252 0.8273 0.8293 0.8313 0.8331
3098.000000 0.8349 0.8361 0.8374 0.8378 0.8382
3093.000000 0.8386 0.8390 0.8392 0.8392 0.8393
3088.000000 0.8396 0.8387 0.8382 0.8375 0.8371
3083.000000 0.8365 0.8360 0.8354 0.8349 0.8349
3078.000000 0.8349 0.8349 0.8349 0.8349 0.8348
3073.000000 0.8346 0.8345 0.8343 0.8342 0.8330
3068.000000 0.8318 0.8287 0.8256 0.8224 0.8193
3063.000000 0.8161 0.8130 0.8098 0.8065 0.8034
3058.000000 0.8003 0.7994 0.7965 0.7987 0.7989
3053.000000 0.8012 0.8038 0.8132 0.8225 0.8287
3048.000000 0.8349 0.8389 0.8428 0.8447 0.8466
3043.000000 0.8473 0.8481 0.8489 0.8497 0.8504
3038.000000 0.8512 0.8518 0.8524 0.8528 0.8535
3033.000000 0.8540 0.8546 0.8551 0.8557 0.8561
3028.000000 0.8565 0.8567 0.8568 0.8571 0.8574
3023.000000 0.8575 0.8578 0.8581 0.8584 0.8585
3018.000000 0.8586 0.8586 0.8586 0.8586 0.8586
3013.000000 0.8578 0.8573 0.8565 0.8557 0.8549
3008.000000 0.8541 0.8514 0.8488 0.8456 0.8425
3003.000000 0.8384 0.8344 0.8306 0.8268 0.8231
2998.000000 0.8193 0.8155 0.8118 0.8080 0.8043
2993.000000 0.8006 0.7968 0.7968 0.7943 0.7995
2988.000000 0.8021 0.8058 0.8097 0.8134 0.8171
2983.000000 0.8204 0.8237 0.8244 0.8284 0.8254
2978.000000 0.8254 0.8254 0.8251 0.8241 0.8231
2973.000000 0.8210 0.8189 0.8151 0.8115 0.8075
2968.000000 0.8035 0.7993 0.7951 0.7883 0.7815
2963.000000 0.7718 0.7622 0.7580 0.7538 0.7388
2958.000000 0.7239 0.7085 0.6931 0.6775 0.6621
2953.000000 0.6467 0.6312 0.6159 0.6005 0.5850
2948.000000 0.5696 0.5542 0.5388 0.5233 0.5079
2943.000000 0.4924 0.4770 0.4616 0.4462 0.4307
2938.000000 0.3930 0.4058 0.3962 0.3966 0.3972
2933.000000 0.4208 0.4445 0.4901 0.5358 0.5489
2928.000000 0.5621 0.5669 0.5717 0.5751 0.5786
2923.000000 0.5821 0.5856 0.5890 0.5925 0.5976
2918.000000 0.6028 0.6094 0.6160 0.6228 0.6296
2913.000000 0.6377 0.6458 0.6538 0.6618 0.6700
2908.000000 0.6781 0.6861 0.6943 0.7024 0.7105
2903.000000 0.7186 0.7267 0.7348 0.7428 0.7510
2898.000000 0.7591 0.7667 0.7744 0.7797 0.7851
2893.000000 0.7878 0.7907 0.7924 0.7941 0.7957
2888.000000 0.7974 0.7990 0.8006 0.8025 0.8044
2883.000000 0.8057 0.8069 0.8075 0.8083 0.8087
2878.000000 0.8106 0.8093 0.8094 0.8087 0.8080
2873.000000 0.8071 0.8061 0.7968 0.7875 0.7760
2868.000000 0.7645 0.7528 0.7412 0.7297 0.7182
2863.000000 0.7065 0.6950 0.6834 0.6718 0.6603
2858.000000 0.6487 0.6371 0.6157 0.6210 0.6165
2853.000000 0.6360 0.6558 0.6908 0.7258 0.7592
2848.000000 0.7925 0.7983 0.8041 0.8089 0.8138
2843.000000 0.8158 0.8181 0.8202 0.8224 0.8245
2838.000000 0.8267 0.8284 0.8302 0.8311 0.8320
2833.000000 0.8328 0.8339 0.8348 0.8358 0.8367
2828.000000 0.8375 0.8385 0.8395 0.8401 0.8407
2823.000000 0.8412 0.8417 0.8421 0.8427 0.8432
2818.000000 0.8437 0.8441 0.8446 0.8451 0.8456
2813.000000 0.8461 0.8466 0.8471 0.8475 0.8480
2808.000000 0.8485 0.8490 0.8495 0.8500 0.8505
2803.000000 0.8509 0.8513 0.8517 0.8521 0.8524
2798.000000 0.8528 0.8532 0.8536 0.8540 0.8544
2793.000000 0.8548 0.8552 0.8556 0.8560 0.8564
2788.000000 0.8568 0.8571 0.8575 0.8578 0.8583
2783.000000 0.8587 0.8591 0.8595 0.8599 0.8602
2778.000000 0.8605 0.8607 0.8609 0.8611 0.8613
2773.000000 0.8615 0.8618 0.8620 0.8621 0.8624
2768.000000 0.8625 0.8628 0.8631 0.8633 0.8635
2763.000000 0.8637 0.8640 0.8642 0.8644 0.8646
2758.000000 0.8648 0.8650 0.8653 0.8655 0.8657
2753.000000 0.8658 0.8660 0.8661 0.8663 0.8664
2748.000000 0.8666 0.8667 0.8668 0.8670 0.8671
2743.000000 0.8673 0.8675 0.8675 0.8678 0.8680
2738.000000 0.8682 0.8683 0.8685 0.8686 0.8688
2733.000000 0.8689 0.8691 0.8692 0.8694 0.8695
2728.000000 0.8697 0.8698 0.8700 0.8701 0.8703
2723.000000 0.8704 0.8706 0.8707 0.8709 0.8710
2718.000000 0.8712 0.8713 0.8714 0.8715 0.8717
2713.000000 0.8718 0.8720 0.8721 0.8725 0.8727
2708.000000 0.8730 0.8732 0.8735 0.8738 0.8741
2703.000000 0.8743 0.8746 0.8748 0.8751 0.8754
2698.000000 0.8757 0.8758 0.8760 0.8761 0.8763
2693.000000 0.8764 0.8766 0.8768 0.8770 0.8771
2688.000000 0.8773 0.8774 0.8775 0.8775 0.8775
2683.000000 0.8775 0.8774 0.8773 0.8771 0.8771
2678.000000 0.8770 0.8768 0.8766 0.8764 0.8762
2673.000000 0.8760 0.8758 0.8756 0.8754 0.8749
2668.000000 0.8744 0.8738 0.8733 0.8728 0.8723
2663.000000 0.8718 0.8713 0.8708 0.8703 0.8702
2658.000000 0.8702 0.8703 0.8704 0.8705 0.8706
2653.000000 0.8707 0.8708 0.8709 0.8710 0.8711
2648.000000 0.8713 0.8714 0.8715 0.8716 0.8717
2643.000000 0.8718 0.8720 0.8721 0.8721 0.8723
2638.000000 0.8724 0.8725 0.8725 0.8727 0.8728
2633.000000 0.8730 0.8731 0.8732 0.8733 0.8734
2628.000000 0.8736 0.8736 0.8736 0.8737 0.8738
2623.000000 0.8738 0.8739 0.8739 0.8740 0.8740
2618.000000 0.8741 0.8741 0.8742 0.8742 0.8743
2613.000000 0.8744 0.8745 0.8745 0.8746 0.8746
2608.000000 0.8747 0.8747 0.8748 0.8748 0.8749
2603.000000 0.8749 0.8750 0.8750 0.8751 0.8751
2598.000000 0.8752 0.8752 0.8753 0.8754 0.8755
2593.000000 0.8755 0.8756 0.8757 0.8758 0.8758
2588.000000 0.8759 0.8760 0.8761 0.8762 0.8763
2583.000000 0.8763 0.8764 0.8765 0.8766 0.8766
2578.000000 0.8767 0.8768 0.8768 0.8768 0.8770
2573.000000 0.8771 0.8771 0.8771 0.8773 0.8773
2568.000000 0.8774 0.8774 0.8775 0.8775 0.8775
2563.000000 0.8777 0.8778 0.8778 0.8778 0.8778
2558.000000 0.8780 0.8780 0.8781 0.8781 0.8782
2553.000000 0.8782 0.8782 0.8782 0.8782 0.8782
2548.000000 0.8782 0.8781 0.8781 0.8781 0.8781
2543.000000 0.8780 0.8780 0.8778 0.8778 0.8778
2538.000000 0.8778 0.8778 0.8778 0.8778 0.8778
2533.000000 0.8777 0.8777 0.8775 0.8774 0.8771
2528.000000 0.8770 0.8768 0.8767 0.8765 0.8763
2523.000000 0.8761 0.8759 0.8757 0.8756 0.8754
2518.000000 0.8752 0.8750 0.8749 0.8747 0.8745
2513.000000 0.8743 0.8741 0.8739 0.8738 0.8736
2508.000000 0.8734 0.8732 0.8731 0.8728 0.8728
2503.000000 0.8725 0.8725 0.8723 0.8721 0.8718
2498.000000 0.8718 0.8716 0.8715 0.8713 0.8712
2493.000000 0.8710 0.8709 0.8707 0.8706 0.8704
2488.000000 0.8702 0.8700 0.8699 0.8697 0.8696
2483.000000 0.8694 0.8693 0.8691 0.8690 0.8688
2478.000000 0.8686 0.8684 0.8683 0.8681 0.8680
2473.000000 0.8677 0.8675 0.8673 0.8671 0.8668
2468.000000 0.8667 0.8665 0.8663 0.8661 0.8659
2463.000000 0.8657 0.8655 0.8653 0.8651 0.8648
2458.000000 0.8646 0.8644 0.8642 0.8640 0.8638
2453.000000 0.8636 0.8634 0.8632 0.8630 0.8628
2448.000000 0.8625 0.8624 0.8621 0.8620 0.8618
2443.000000 0.8616 0.8615 0.8613 0.8612 0.8610
2438.000000 0.8609 0.8607 0.8605 0.8603 0.8602
2433.000000 0.8600 0.8599 0.8597 0.8595 0.8593
2428.000000 0.8592 0.8590 0.8589 0.8587 0.8586
2423.000000 0.8585 0.8584 0.8583 0.8582 0.8580
2418.000000 0.8578 0.8578 0.8577 0.8575 0.8575
2413.000000 0.8574 0.8573 0.8571 0.8571 0.8570
2408.000000 0.8568 0.8567 0.8566 0.8565 0.8564
2403.000000 0.8563 0.8562 0.8561 0.8560 0.8560
2398.000000 0.8559 0.8559 0.8560 0.8561 0.8562
2393.000000 0.8563 0.8564 0.8565 0.8566 0.8567
2388.000000 0.8568 0.8568 0.8570 0.8571 0.8571
2383.000000 0.8571 0.8571 0.8571 0.8573 0.8573
2378.000000 0.8573 0.8573 0.8574 0.8577 0.8580
2373.000000 0.8583 0.8586 0.8589 0.8592 0.8595
2368.000000 0.8599 0.8602 0.8605 0.8608 0.8611
2363.000000 0.8614 0.8617 0.8620 0.8623 0.8625
2358.000000 0.8628 0.8631 0.8631 0.8631 0.8630
2353.000000 0.8628 0.8625 0.8618 0.8611 0.8602
2348.000000 0.8594 0.8586 0.8578 0.8574 0.8570
2343.000000 0.8566 0.8562 0.8557 0.8553 0.8549
2338.000000 0.8545 0.8540 0.8536 0.8532 0.8528
2333.000000 0.8525 0.8521 0.8518 0.8515 0.8512
2328.000000 0.8509 0.8506 0.8503 0.8500 0.8497
2323.000000 0.8493 0.8490 0.8487 0.8484 0.8481
2318.000000 0.8478 0.8475 0.8471 0.8468 0.8466
2313.000000 0.8463 0.8461 0.8458 0.8456 0.8453
2308.000000 0.8451 0.8448 0.8446 0.8444 0.8443
2303.000000 0.8443 0.8443 0.8442 0.8442 0.8442
2298.000000 0.8442 0.8441 0.8441 0.8440 0.8440
2293.000000 0.8440 0.8440 0.8439 0.8439 0.8439
2288.000000 0.8439 0.8438 0.8438 0.8438 0.8438
2283.000000 0.8438 0.8438 0.8438 0.8439 0.8440
2278.000000 0.8441 0.8441 0.8442 0.8442 0.8443
2273.000000 0.8444 0.8445 0.8445 0.8446 0.8446
2268.000000 0.8447 0.8447 0.8448 0.8449 0.8450
2263.000000 0.8450 0.8451 0.8451 0.8452 0.8454
2258.000000 0.8456 0.8458 0.8460 0.8462 0.8464
2253.000000 0.8466 0.8468 0.8470 0.8471 0.8474
2248.000000 0.8477 0.8478 0.8481 0.8486 0.8491
2243.000000 0.8495 0.8500 0.8505 0.8510 0.8516
2238.000000 0.8521 0.8531 0.8541 0.8549 0.8557
2233.000000 0.8564 0.8571 0.8578 0.8587 0.8595
2228.000000 0.8603 0.8609 0.8615 0.8621 0.8628
2223.000000 0.8634 0.8641 0.8647 0.8654 0.8660
2218.000000 0.8667 0.8671 0.8675 0.8677 0.8678
2213.000000 0.8681 0.8684 0.8686 0.8688 0.8690
2208.000000 0.8693 0.8694 0.8694 0.8694 0.8693
2203.000000 0.8692 0.8691 0.8689 0.8688 0.8686
2198.000000 0.8685 0.8685 0.8685 0.8686 0.8688
2193.000000 0.8689 0.8690 0.8691 0.8692 0.8693
2188.000000 0.8694 0.8695 0.8697 0.8698 0.8699
2183.000000 0.8700 0.8701 0.8702 0.8703 0.8704
2178.000000 0.8706 0.8707 0.8708 0.8709 0.8710
2173.000000 0.8712 0.8714 0.8716 0.8718 0.8720
2168.000000 0.8723 0.8725 0.8727 0.8728 0.8732
2163.000000 0.8734 0.8736 0.8738 0.8741 0.8743
2158.000000 0.8745 0.8747 0.8750 0.8752 0.8754
2153.000000 0.8756 0.8758 0.8760 0.8763 0.8765
2148.000000 0.8767 0.8768 0.8771 0.8771 0.8774
2143.000000 0.8775 0.8778 0.8780 0.8782 0.8784
2138.000000 0.8786 0.8787 0.8789 0.8791 0.8793
2133.000000 0.8795 0.8797 0.8799 0.8801 0.8802
2128.000000 0.8804 0.8806 0.8808 0.8810 0.8812
2123.000000 0.8814 0.8816 0.8818 0.8820 0.8821
2118.000000 0.8824 0.8825 0.8827 0.8828 0.8831
2113.000000 0.8833 0.8835 0.8837 0.8839 0.8841
2108.000000 0.8843 0.8845 0.8847 0.8849 0.8851
2103.000000 0.8853 0.8855 0.8856 0.8858 0.8860
2098.000000 0.8862 0.8863 0.8865 0.8866 0.8868
2093.000000 0.8868 0.8870 0.8871 0.8873 0.8874
2088.000000 0.8875 0.8877 0.8878 0.8878 0.8881
2083.000000 0.8882 0.8883 0.8884 0.8886 0.8887
2078.000000 0.8889 0.8890 0.8891 0.8892 0.8894
2073.000000 0.8895 0.8896 0.8896 0.8897 0.8898
2068.000000 0.8899 0.8900 0.8901 0.8902 0.8903
2063.000000 0.8904 0.8905 0.8905 0.8906 0.8907
2058.000000 0.8908 0.8909 0.8910 0.8910 0.8910
2053.000000 0.8910 0.8910 0.8910 0.8911 0.8911
2048.000000 0.8911 0.8911 0.8911 0.8911 0.8912
2043.000000 0.8912 0.8912 0.8912 0.8912 0.8911
2038.000000 0.8911 0.8911 0.8911 0.8911 0.8911
2033.000000 0.8911 0.8911 0.8911 0.8911 0.8911
2028.000000 0.8912 0.8912 0.8913 0.8913 0.8914
2023.000000 0.8915 0.8916 0.8917 0.8918 0.8920
2018.000000 0.8921 0.8924 0.8925 0.8928 0.8930
2013.000000 0.8932 0.8934 0.8936 0.8938 0.8940
2008.000000 0.8942 0.8944 0.8946 0.8947 0.8949
2003.000000 0.8950 0.8951 0.8952 0.8954 0.8956
1998.000000 0.8958 0.8959 0.8961 0.8962 0.8963
1993.000000 0.8964 0.8965 0.8966 0.8967 0.8968
1988.000000 0.8968 0.8970 0.8971 0.8971 0.8973
1983.000000 0.8974 0.8975 0.8975 0.8977 0.8978
1978.000000 0.8978 0.8982 0.8984 0.8987 0.8989
1973.000000 0.8992 0.8994 0.8997 0.8999 0.9002
1968.000000 0.9004 0.9006 0.9009 0.9011 0.9014
1963.000000 0.9016 0.9018 0.9021 0.9023 0.9025
1958.000000 0.9027 0.9028 0.9031 0.9032 0.9032
1953.000000 0.9033 0.9033 0.9034 0.9030 0.9024
1948.000000 0.9015 0.9007 0.8999 0.8990 0.8977
1943.000000 0.8964 0.8951 0.8939 0.8925 0.8914
1938.000000 0.8905 0.8902 0.8903 0.8903 0.8904
1933.000000 0.8904 0.8906 0.8911 0.8916 0.8920
1928.000000 0.8925 0.8930 0.8935 0.8940 0.8945
1923.000000 0.8949 0.8953 0.8957 0.8961 0.8965
1918.000000 0.8968 0.8973 0.8975 0.8980 0.8983
1913.000000 0.8987 0.8990 0.8993 0.8995 0.8998
1908.000000 0.9000 0.9003 0.9005 0.9007 0.9010
1903.000000 0.9012 0.9015 0.9017 0.9018 0.9020
1898.000000 0.9021 0.9021 0.9021 0.9021 0.9021
1893.000000 0.9018 0.9016 0.9013 0.9009 0.9006
1888.000000 0.9003 0.9000 0.8997 0.8991 0.8984
1883.000000 0.8978 0.8971 0.8966 0.8960 0.8957
1878.000000 0.8954 0.8951 0.8947 0.8944 0.8941
1873.000000 0.8937 0.8934 0.8928 0.8924 0.8918
1868.000000 0.8914 0.8910 0.8902 0.8892 0.8881
1863.000000 0.8870 0.8859 0.8848 0.8836 0.8824
1858.000000 0.8810 0.8795 0.8778 0.8764 0.8767
1853.000000 0.8768 0.8773 0.8778 0.8783 0.8788
1848.000000 0.8793 0.8799 0.8803 0.8804 0.8804
1843.000000 0.8805 0.8806 0.8807 0.8808 0.8808
1838.000000 0.8807 0.8806 0.8805 0.8805 0.8804
1833.000000 0.8803 0.8803 0.8800 0.8798 0.8795
1828.000000 0.8792 0.8790 0.8787 0.8784 0.8781
1823.000000 0.8778 0.8771 0.8763 0.8755 0.8746
1818.000000 0.8738 0.8730 0.8721 0.8712 0.8703
1813.000000 0.8694 0.8684 0.8675 0.8666 0.8657
1808.000000 0.8647 0.8638 0.8627 0.8617 0.8607
1803.000000 0.8597 0.8602 0.8607 0.8612 0.8617
1798.000000 0.8618 0.8621 0.8621 0.8624 0.8620
1793.000000 0.8614 0.8609 0.8603 0.8596 0.8589
1788.000000 0.8581 0.8574 0.8566 0.8559 0.8551
1783.000000 0.8542 0.8534 0.8525 0.8517 0.8509
1778.000000 0.8500 0.8489 0.8477 0.8466 0.8461
1773.000000 0.8462 0.8462 0.8463 0.8463 0.8459
1768.000000 0.8455 0.8452 0.8447 0.8428 0.8408
1763.000000 0.8389 0.8368 0.8350 0.8303 0.8253
1758.000000 0.8203 0.8131 0.8046 0.7949 0.7851
1753.000000 0.7745 0.7622 0.7501 0.7378 0.7254
1748.000000 0.7122 0.6978 0.6834 0.6026 0.5803
1743.000000 0.5665 0.5528 0.4298 0.3045 0.1792
1738.000000 0.0932 0.0936 0.1203 0.1564 0.1925
1733.000000 0.2284 0.2646 0.2858 0.2869 0.2846
1728.000000 0.2303 0.1761 0.1218 0.0676 0.0273
1723.000000 0.0156 0.0100 0.0119 0.0115 0.0144
1718.000000 0.0717 0.1289 0.1862 0.2434 0.3006
1713.000000 0.3579 0.4587 0.4749 0.4910 0.5543
1708.000000 0.5871 0.6110 0.6323 0.6451 0.6582
1703.000000 0.6721 0.6876 0.7046 0.7271 0.7372
1698.000000 0.7433 0.7481 0.7525 0.7565 0.7607
1693.000000 0.7643 0.7678 0.7712 0.7741 0.7767
1688.000000 0.7790 0.7798 0.7800 0.7800 0.7801
1683.000000 0.7797 0.7796 0.7805 0.7818 0.7891
1678.000000 0.7954 0.8017 0.8078 0.8111 0.8145
1673.000000 0.8178 0.8204 0.8220 0.8236 0.8252
1668.000000 0.8268 0.8283 0.8295 0.8298 0.8300
1663.000000 0.8303 0.8303 0.8303 0.8302 0.8302
1658.000000 0.8302 0.8305 0.8309 0.8312 0.8318
1653.000000 0.8328 0.8340 0.8350 0.8363 0.8378
1648.000000 0.8392 0.8404 0.8415 0.8425 0.8421
1643.000000 0.8416 0.8411 0.8384 0.8396 0.8393
1638.000000 0.8392 0.8397 0.8401 0.8407 0.8416
1633.000000 0.8423 0.8428 0.8435 0.8433 0.8427
1628.000000 0.8418 0.8413 0.8411 0.8410 0.8410
1623.000000 0.8409 0.8401 0.8392 0.8380 0.8358
1618.000000 0.8332 0.8287 0.8243 0.8187 0.8125
1613.000000 0.8065 0.7982 0.7899 0.7769 0.7596
1608.000000 0.7460 0.7308 0.7147 0.6621 0.5679
1603.000000 0.5378 0.4797 0.3252 0.1786 0.0609
1598.000000 0.0522 0.0473 0.0477 0.0469 0.0484
1593.000000 0.0540 0.0648 0.2061 0.3840 0.4398
1588.000000 0.4704 0.5009 0.5314 0.5620 0.5925
1583.000000 0.6231 0.6536 0.6841 0.7199 0.7281
1578.000000 0.7328 0.7339 0.7350 0.7360 0.7369
1573.000000 0.7378 0.7386 0.7393 0.7400 0.7407
1568.000000 0.7414 0.7431 0.7431 0.7431 0.7422
1563.000000 0.7411 0.7389 0.7356 0.7318 0.7281
1558.000000 0.7228 0.7051 0.6736 0.6549 0.6270
1553.000000 0.6001 0.5785 0.5472 0.5160 0.4847
1548.000000 0.4535 0.4222 0.3909 0.3598 0.3284
1543.000000 0.2973 0.2660 0.2533 0.2494 0.2461
1538.000000 0.2447 0.2421 0.2423 0.2491 0.2605
1533.000000 0.3182 0.3775 0.4367 0.4960 0.5407
1528.000000 0.5870 0.6159 0.6340 0.6480 0.6615
1523.000000 0.6730 0.6846 0.6997 0.7136 0.7268
1518.000000 0.7365 0.7453 0.7518 0.7582 0.7636
1513.000000 0.7691 0.7757 0.7804 0.7839 0.7861
1508.000000 0.7876 0.7888 0.7924 0.7906 0.7905
1503.000000 0.7896 0.7871 0.7835 0.7764 0.7691
1498.000000 0.7603 0.7504 0.7355 0.7176 0.6964
1493.000000 0.6808 0.6647 0.6458 0.5210 0.4362
1488.000000 0.3516 0.2670 0.2195 0.2220 0.2592
1483.000000 0.3017 0.3442 0.3866 0.4291 0.4715
1478.000000 0.5067 0.5276 0.5565 0.5980 0.6086
1473.000000 0.6186 0.6283 0.6458 0.6550 0.6598
1468.000000 0.6601 0.6603 0.6604 0.6607 0.6611
1463.000000 0.6650 0.6714 0.6746 0.6783 0.6778
1458.000000 0.6768 0.6757 0.6711 0.6555 0.6054
1453.000000 0.5210 0.5222 0.5228 0.5400 0.5571
1448.000000 0.5743 0.5915 0.6109 0.6162 0.6194
1443.000000 0.6218 0.6242 0.6281 0.6352 0.6608
1438.000000 0.6965 0.7301 0.7375 0.7451 0.7532
1433.000000 0.7575 0.7608 0.7587 0.7586 0.7564
1428.000000 0.7538 0.7498 0.7455 0.7399 0.7312
1423.000000 0.7175 0.7000 0.6719 0.5681 0.5684
1418.000000 0.5727 0.5780 0.5833 0.5886 0.5939
1413.000000 0.6010 0.6001 0.6002 0.5523 0.4905
1408.000000 0.4288 0.3787 0.3794 0.3938 0.4320
1403.000000 0.4702 0.5084 0.5466 0.5848 0.6231
1398.000000 0.6612 0.6915 0.6974 0.6964 0.6944
1393.000000 0.6919 0.6756 0.6445 0.6134 0.5824
1388.000000 0.5625 0.5648 0.5643 0.5660 0.5710
1383.000000 0.5841 0.6172 0.6504 0.6835 0.7068
1378.000000 0.7155 0.7217 0.7233 0.7231 0.7230
1373.000000 0.7255 0.7233 0.7240 0.7240 0.7240
1368.000000 0.7239 0.7234 0.7186 0.7132 0.6931
1363.000000 0.6508 0.6106 0.5704 0.5302 0.4809
1358.000000 0.4799 0.4923 0.5209 0.5495 0.5782
1353.000000 0.6068 0.6461 0.6456 0.6395 0.6200
1348.000000 0.6004 0.5808 0.5593 0.5594 0.5595
1343.000000 0.5659 0.5768 0.5884 0.5981 0.6056
1338.000000 0.6131 0.6197 0.6262 0.6304 0.6325
1333.000000 0.6345 0.6356 0.6380 0.6358 0.6352
1328.000000 0.6345 0.6321 0.6297 0.6218 0.6105
1323.000000 0.5973 0.5714 0.5323 0.4931 0.4540
1318.000000 0.4254 0.4277 0.4278 0.4358 0.4438
1313.000000 0.4525 0.4525 0.4474 0.4391 0.4309
1308.000000 0.4240 0.4201 0.4164 0.4000 0.3739
1303.000000 0.3479 0.3218 0.3154 0.3427 0.4039
1298.000000 0.4651 0.5262 0.5482 0.5645 0.5790
1293.000000 0.5950 0.6145 0.6281 0.6391 0.6458
1288.000000 0.6525 0.6581 0.6624 0.6656 0.6685
1283.000000 0.6714 0.6738 0.6760 0.6772 0.6781
1278.000000 0.6811 0.6786 0.6784 0.6775 0.6768
1273.000000 0.6758 0.6747 0.6735 0.6724 0.6711
1268.000000 0.6697 0.6676 0.6658 0.6639 0.6612
1263.000000 0.6585 0.6557 0.6528 0.6481 0.6419
1258.000000 0.6360 0.6284 0.6201 0.6118 0.6028
1253.000000 0.5938 0.5832 0.5703 0.5525 0.4729
1248.000000 0.4497 0.4335 0.4190 0.4059 0.3859
1243.000000 0.3690 0.3512 0.3308 0.3027 0.2785
1238.000000 0.2713 0.2633 0.2521 0.2390 0.2260
1233.000000 0.1711 0.0859 0.0860 0.0861 0.1106
1228.000000 0.1352 0.1596 0.1791 0.1825 0.1818
1223.000000 0.1802 0.1215 0.0778 0.0579 0.0442
1218.000000 0.0350 0.0259 0.0176 0.0129 0.0107
1213.000000 0.0089 0.0098 0.0104 0.0127 0.0193
1208.000000 0.0266 0.0395 0.0564 0.0931 0.1353
1203.000000 0.1651 0.2013 0.2792 0.3962 0.4304
1198.000000 0.4428 0.4553 0.4816 0.4975 0.5071
1193.000000 0.5265 0.5473 0.5676 0.5870 0.6067
1188.000000 0.6246 0.6342 0.6438 0.6521 0.6588
1183.000000 0.6653 0.6712 0.6772 0.6828 0.6883
1178.000000 0.6932 0.6981 0.7028 0.7076 0.7117
1173.000000 0.7162 0.7181 0.7195 0.7190 0.7201
1168.000000 0.7187 0.7156 0.7108 0.7045 0.6987
1163.000000 0.6997 0.7000 0.7019 0.7058 0.7100
1158.000000 0.7125 0.7143 0.7143 0.7125 0.7108
1153.000000 0.7089 0.7060 0.7032 0.7004 0.6957
1148.000000 0.6905 0.6853 0.6767 0.6671 0.6586
1143.000000 0.6500 0.6350 0.5814 0.5377 0.4940
1138.000000 0.4503 0.4125 0.4151 0.4360 0.4658
1133.000000 0.4955 0.5252 0.5549 0.5846 0.6143
1128.000000 0.6301 0.6348 0.6390 0.6425 0.6438
1123.000000 0.6480 0.6451 0.6451 0.6425 0.6354
1118.000000 0.6275 0.6170 0.6057 0.5896 0.5717
1113.000000 0.5509 0.4598 0.4470 0.4104 0.3712
1108.000000 0.3322 0.2932 0.2541 0.2150 0.1840
1103.000000 0.1699 0.1604 0.1481 0.1383 0.1284
1098.000000 0.1135 0.1142 0.1684 0.2372 0.3059
1093.000000 0.3746 0.4433 0.5120 0.5419 0.5612
1088.000000 0.5843 0.6105 0.6225 0.6296 0.6373
1083.000000 0.6445 0.6510 0.6540 0.6575 0.6367
1078.000000 0.6164 0.5960 0.5872 0.5912 0.5962
1073.000000 0.6010 0.6060 0.6110 0.6127 0.6119
1068.000000 0.5875 0.5305 0.4735 0.4165 0.3595
1063.000000 0.3025 0.2569 0.2584 0.3021 0.3652
1058.000000 0.4282 0.4912 0.5357 0.5992 0.6153
1053.000000 0.6443 0.6607 0.6707 0.6799 0.6911
1048.000000 0.6982 0.7049 0.7069 0.7085 0.7108
1043.000000 0.7104 0.7101 0.7068 0.7025 0.6960
1038.000000 0.6831 0.6622 0.6333 0.6043 0.5753
1033.000000 0.5601 0.5595 0.5835 0.6116 0.6397
1028.000000 0.6572 0.6651 0.6705 0.6732 0.6739
1023.000000 0.6739 0.6745 0.6764 0.6815 0.6868
1018.000000 0.6908 0.6928 0.6946 0.6908 0.6834
1013.000000 0.6411 0.6153 0.5605 0.5058 0.4075
1008.000000 0.4068 0.4369 0.4693 0.5016 0.5340
1003.000000 0.5662 0.5987 0.6310 0.6634 0.7104
998.000000 0.7096 0.6839 0.6498 0.6157 0.5816
993.000000 0.5642 0.6675 0.7565 0.7665 0.7718
988.000000 0.7751 0.7781 0.7794 0.7806 0.7818
983.000000 0.7821 0.7825 0.7836 0.7850 0.7861
978.000000 0.7871 0.7875 0.7875 0.7875 0.7871
973.000000 0.7851 0.7815 0.7778 0.7761 0.7765
968.000000 0.7769 0.7775 0.7781 0.7787 0.7793
963.000000 0.7793 0.7794 0.7794 0.7794 0.7791
958.000000 0.7787 0.7784 0.7775 0.7761 0.7749
953.000000 0.7707 0.7665 0.7590 0.7515 0.7410
948.000000 0.7232 0.6883 0.6534 0.6186 0.5837
943.000000 0.5836 0.5876 0.6255 0.6915 0.7050
938.000000 0.7155 0.7241 0.7284 0.7299 0.7312
933.000000 0.7303 0.7290 0.7251 0.7151 0.7040
928.000000 0.6911 0.6817 0.6751 0.6712 0.6707
923.000000 0.6707 0.6706 0.6700 0.6701 0.6685
918.000000 0.6695 0.6784 0.6961 0.7140 0.7318
913.000000 0.7351 0.7361 0.7358 0.7325 0.7046
908.000000 0.6711 0.6173 0.6173 0.6369 0.6700
903.000000 0.7032 0.7362 0.7425 0.7487 0.7505
898.000000 0.7525 0.7510 0.7507 0.7471 0.7395
893.000000 0.7271 0.6882 0.6493 0.6104 0.5974
888.000000 0.5960 0.5945 0.5900 0.5826 0.5337
883.000000 0.5067 0.5054 0.5059 0.5147 0.5778
878.000000 0.6182 0.6224 0.6223 0.6052 0.5882
873.000000 0.5710 0.5480 0.5484 0.5692 0.5933
868.000000 0.6174 0.6415 0.6704 0.6675 0.6547
863.000000 0.6398 0.6249 0.6101 0.5812 0.5821
858.000000 0.5852 0.6508 0.6953 0.7101 0.7219
853.000000 0.7406 0.7517 0.7603 0.7626 0.7650
848.000000 0.7658 0.7662 0.7669 0.7619 0.7578
843.000000 0.7526 0.7478 0.7496 0.7544 0.7615
838.000000 0.7689 0.7761 0.7815 0.7864 0.7882
833.000000 0.7895 0.7908 0.7914 0.7915 0.7918
828.000000 0.7919 0.7921 0.7922 0.7925 0.7928
823.000000 0.7931 0.7933 0.7936 0.7938 0.7941
818.000000 0.7944 0.7949 0.7954 0.7958 0.7962
813.000000 0.7968 0.7971 0.7974 0.7978 0.7981
808.000000 0.7984 0.8021 0.7995 0.8000 0.8006
803.000000 0.8011 0.7998 0.7971 0.7940 0.7908
798.000000 0.7884 0.7861 0.7835 0.7808 0.7781
793.000000 0.7749 0.7710 0.7668 0.7603 0.7537
788.000000 0.7471 0.7403 0.7336 0.7242 0.7094
783.000000 0.6987 0.6875 0.6711 0.6421 0.5076
778.000000 0.4392 0.3708 0.3025 0.2888 0.3206
773.000000 0.3636 0.4066 0.4497 0.4889 0.4934
768.000000 0.4980 0.5124 0.5498 0.5873 0.6247
763.000000 0.6621 0.6996 0.7104 0.7149 0.7195
758.000000 0.7224 0.7240 0.7239 0.7224 0.7197
753.000000 0.7058 0.6925 0.6791 0.6657 0.6557
748.000000 0.6550 0.6542 0.6592 0.6725 0.6861
743.000000 0.6995 0.7130 0.7207 0.7253 0.7262
738.000000 0.7268 0.7269 0.7271 0.7271 0.7269
733.000000 0.7268 0.7267 0.7260 0.7246 0.7233
728.000000 0.7218 0.7204 0.7169 0.7135 0.7074
723.000000 0.7007 0.6947 0.6888 0.6833 0.6771
718.000000 0.6756 0.6753 0.6758 0.6775 0.6803
713.000000 0.6825 0.6845 0.6855 0.6864 0.6858
708.000000 0.6842 0.6819 0.6794 0.6769 0.6751
703.000000 0.6732 0.6712 0.6695 0.6678 0.6661
698.000000 0.6646 0.6630 0.6606 0.6576 0.6549
693.000000 0.6515 0.6471 0.6430 0.6364 0.6296
688.000000 0.6151 0.6043 0.5609 0.5148 0.4687
683.000000 0.4435 0.4392 0.4360 0.4329 0.4325
678.000000 0.4347 0.4485 0.5278 0.6071 0.6614
673.000000 0.6653 0.6660 0.6647 0.6618 0.6581
668.000000 0.6565 0.6574 0.6598 0.6621 0.6650
663.000000 0.6690 0.6728 0.6767 0.6801 0.6837
658.000000 0.6871 0.6907 0.6942 0.6980 0.7018
653.000000 0.7057 0.7096 0.7134 0.7172 0.7211
648.000000 0.7245 0.7280 0.7314 0.7349 0.7383
643.000000 0.7418 0.7456 0.7494 0.7531 0.7565
638.000000 0.7597 0.7628 0.7658 0.7692 0.7726
633.000000 0.7756 0.7771 0.7768 0.7765 0.7771
628.000000 0.7778 0.7785 0.7807 0.7843 0.7861
623.000000 0.7881 0.7899 0.7918 0.7937 0.7947
618.000000 0.7957 0.7965 0.7975 0.7986 0.7995
613.000000 0.8005 0.8014 0.8021 0.8028 0.8037
608.000000 0.8045 0.8053 0.8060 0.8065 0.8069
603.000000 0.8075 0.8080 0.8085 0.8090 0.8095
598.000000 0.8100 0.8104 0.8124 0.8108 0.8111
593.000000 0.8115 0.8117 0.8119 0.8122 0.8125
588.000000 0.8128 0.8131 0.8132 0.8132 0.8132
583.000000 0.8132 0.8131 0.8131 0.8131 0.8122
578.000000 0.8111 0.8088 0.8056 0.8025 0.8008
573.000000 0.7989 0.7978 0.7978 0.7978 0.7978
568.000000 0.7978 0.7980 0.7980 0.7980 0.7982
563.000000 0.7985 0.7987 0.7989 0.7991 0.7993
558.000000 0.7996 0.7998 0.8000 0.8001 0.8004
553.000000 0.8007 0.8008 0.8008 0.8007 0.8004
548.000000 0.8001 0.8000 0.7998 0.7996 0.7993
543.000000 0.7991 0.7989 0.7984 0.7978 0.7972
538.000000 0.7968 0.7961 0.7957 0.7951 0.7946
533.000000 0.7941 0.7933 0.7921 0.7911 0.7901
528.000000 0.7891 0.7881 0.7872 0.7867 0.7861
523.000000 0.7855 0.7849 0.7843 0.7837 0.7832
518.000000 0.7825 0.7819 0.7815 0.7811 0.7806
513.000000 0.7801 0.7797 0.7793 0.7788 0.7784
508.000000 0.7778 0.7775 0.7772 0.7769 0.7768
503.000000 0.7765 0.7764 0.7761 0.7760 0.7758
498.000000 0.7756 0.7754 0.7751 0.7750 0.7750
493.000000 0.7751 0.7751 0.7753 0.7754 0.7755
488.000000 0.7755 0.7756 0.7757 0.7758 0.7758
483.000000 0.7760 0.7761 0.7762 0.7764 0.7765
478.000000 0.7765 0.7767 0.7767 0.7767 0.7765
473.000000 0.7765 0.7765 0.7758 0.7753 0.7747
468.000000 0.7742 0.7736 0.7731 0.7725 0.7719
463.000000 0.7715 0.7711 0.7708 0.7704 0.7700
458.000000 0.7697 0.7693 0.7690 0.7686 0.7681
453.000000 0.7676
##END=
