##TITLE=ISOPROPOXYACETIC ACID, SODIUM SALT
##JCAMP-DX=4.24
##DATA TYPE=INFRARED SPECTRUM
##CLASS=COBLENTZ
##ORIGIN=WYANDOTTE CHEMICALS CORP., WYANDOTTE, MICHIGAN, USA
##OWNER=COBLENTZ SOCIETY
Collection (C) 2018 copyright by the U.S. Secretary of Commerce
on behalf of the United States of America. All rights reserved.
##DATE=Not specified, most likely prior to 1970
##MOLFORM=C5 H9 O3 Na
##SOURCE REFERENCE=COBLENTZ NO. 3864
##$NIST ID=B6003864
##$NIST SOURCE=COBLENTZ
##$NIST IMAGE=cob3864
##SPECTROMETER/DATA SYSTEM=Not specified, most likely a prism, grating, or hybrid spectrometer.
##STATE=SOLID (MINERAL OIL MULL)
##PATH LENGTH=
$$SPECTRAL CONTAMINATION DUE TO OIL AROUND 2900 CM^-^1
##SAMPLING PROCEDURE=TRANSMISSION
##RESOLUTION=4
##DATA PROCESSING=DIGITIZED BY NIST FROM HARD COPY
##XUNITS=MICROMETERS
##YUNITS=TRANSMITTANCE
##XFACTOR=1.000000
##YFACTOR=1
##DELTAX=000.006197
##FIRSTX=2.031
##LASTX=16.0122
##FIRSTY=0.933
##MAXX=16.0122
##MINX=2.031
##MAXY=0.995
##MINY=0.02
##NPOINTS=2257
##XYDATA=(X++(Y..Y))
2.031000 0.9330 0.9340 0.9310 0.9310 0.9330
2.062001 0.9340 0.9340 0.9360 0.9390 0.9390
2.093000 0.9390 0.9390 0.9340 0.9260 0.9230
2.124001 0.9160 0.9060 0.9030 0.8970 0.8910
2.155000 0.8640 0.8470 0.8440 0.8410 0.8300
2.186001 0.8210 0.8000 0.7990 0.8000 0.8190
2.217000 0.8250 0.8280 0.8300 0.8300 0.8210
2.248001 0.8210 0.8240 0.8320 0.8360 0.8420
2.279000 0.8470 0.8330 0.8320 0.8320 0.8330
2.310001 0.8360 0.8380 0.8410 0.8420 0.8410
2.341000 0.8390 0.8380 0.8380 0.8390 0.8440
2.372001 0.8490 0.8560 0.8660 0.8700 0.8740
2.403000 0.8770 0.8800 0.8810 0.8810 0.8810
2.434001 0.8830 0.8830 0.8830 0.8840 0.8860
2.465000 0.8890 0.8910 0.8950 0.9000 0.9020
2.496001 0.9020 0.8950 0.8970 0.9050 0.9120
2.527000 0.9140 0.9160 0.9170 0.9200 0.9230
2.558001 0.9250 0.9230 0.9110 0.8970 0.8950
2.589000 0.8970 0.9090 0.9170 0.9230 0.9280
2.620001 0.9310 0.9310 0.9280 0.9230 0.9220
2.651000 0.9170 0.9090 0.8980 0.8880 0.8800
2.682001 0.8700 0.8630 0.8530 0.8460 0.8380
2.713000 0.8270 0.8110 0.7880 0.7630 0.7430
2.744001 0.7180 0.6900 0.6600 0.6310 0.6010
2.775000 0.5750 0.5530 0.5340 0.5140 0.5020
2.806001 0.4890 0.4660 0.4440 0.4300 0.4180
2.837000 0.4020 0.3840 0.3670 0.3480 0.3310
2.868001 0.3180 0.3070 0.3030 0.3000 0.2980
2.899000 0.2980 0.2980 0.3000 0.3030 0.3030
2.930001 0.3060 0.3120 0.3250 0.3340 0.3400
2.961000 0.3480 0.3540 0.3600 0.3680 0.3740
2.992001 0.3820 0.3900 0.3990 0.4100 0.4230
3.023000 0.4350 0.4440 0.4470 0.4510 0.4610
3.054001 0.4680 0.4680 0.4630 0.4470 0.4410
3.085000 0.4380 0.4370 0.4350 0.4320 0.4270
3.116001 0.4260 0.4260 0.4290 0.4350 0.4430
3.147000 0.4460 0.4630 0.4740 0.4820 0.4880
3.178001 0.4930 0.4960 0.5100 0.5200 0.5270
3.208000 0.5280 0.5300 0.5280 0.5270 0.5270
3.239001 0.5240 0.5160 0.5080 0.5030 0.4970
3.270000 0.4880 0.4770 0.4570 0.4040 0.3320
3.301001 0.2550 0.1720 0.0900 0.0310 0.0210
3.332000 0.0200 0.0230 0.0260 0.0260 0.0260
3.363001 0.0260 0.0260 0.0260 0.0260 0.0260
3.394000 0.0270 0.0270 0.0270 0.0270 0.0290
3.425001 0.0290 0.0310 0.0310 0.0310 0.0320
3.456000 0.0380 0.0380 0.0380 0.0400 0.0570
3.487001 0.0790 0.1080 0.1410 0.1800 0.2220
3.518000 0.2670 0.3140 0.3630 0.4120 0.4600
3.549001 0.5340 0.5690 0.5940 0.6150 0.6290
3.580000 0.6450 0.6590 0.6740 0.6850 0.6950
3.611001 0.6990 0.7060 0.7070 0.7040 0.7020
3.642000 0.6950 0.6870 0.6810 0.6810 0.6850
3.673001 0.7040 0.7180 0.7320 0.7380 0.7400
3.704000 0.7430 0.7460 0.7550 0.7680 0.7690
3.735001 0.7690 0.7650 0.7620 0.7550 0.7460
3.766000 0.7410 0.7300 0.7290 0.7300 0.7460
3.797001 0.7630 0.7800 0.7860 0.7940 0.8040
3.828000 0.8140 0.8220 0.8270 0.8300 0.8350
3.859001 0.8390 0.8460 0.8490 0.8500 0.8520
3.890000 0.8550 0.8580 0.8640 0.8700 0.8720
3.921001 0.8750 0.8800 0.8840 0.8890 0.8940
3.952000 0.8970 0.9020 0.9060 0.9140 0.9220
3.983001 0.9220 0.9250 0.9300 0.9330 0.9330
4.014000 0.9340 0.9340 0.9340 0.9360 0.9360
4.045001 0.9360 0.9360 0.9340 0.9340 0.9340
4.076000 0.9340 0.9360 0.9420 0.9450 0.9470
4.107001 0.9500 0.9500 0.9470 0.9440 0.9420
4.138000 0.9370 0.9370 0.9400 0.9420 0.9420
4.169001 0.9440 0.9440 0.9440 0.9440 0.9420
4.200000 0.9400 0.9390 0.9360 0.9330 0.9260
4.231001 0.9170 0.9060 0.9000 0.8940 0.8920
4.262000 0.8910 0.8920 0.9000 0.9120 0.9310
4.293001 0.9390 0.9420 0.9450 0.9500 0.9560
4.324000 0.9620 0.9680 0.9700 0.9730 0.9780
4.355001 0.9780 0.9780 0.9700 0.9640 0.9590
4.386000 0.9540 0.9510 0.9420 0.9340 0.9330
4.417001 0.9340 0.9330 0.9310 0.9280 0.9280
4.448000 0.9300 0.9310 0.9340 0.9340 0.9340
4.479001 0.9400 0.9420 0.9420 0.9330 0.9330
4.510000 0.9330 0.9330 0.9330 0.9340 0.9370
4.541001 0.9420 0.9450 0.9440 0.9420 0.9440
4.572000 0.9470 0.9500 0.9540 0.9560 0.9580
4.603001 0.9540 0.9500 0.9480 0.9450 0.9420
4.634000 0.9390 0.9390 0.9390 0.9390 0.9390
4.665001 0.9400 0.9420 0.9450 0.9480 0.9500
4.696000 0.9500 0.9500 0.9510 0.9530 0.9580
4.727001 0.9620 0.9640 0.9670 0.9700 0.9750
4.758000 0.9780 0.9780 0.9790 0.9790 0.9780
4.789001 0.9760 0.9750 0.9720 0.9700 0.9700
4.820000 0.9720 0.9820 0.9840 0.9860 0.9820
4.851001 0.9750 0.9670 0.9620 0.9610 0.9620
4.882000 0.9720 0.9780 0.9790 0.9780 0.9780
4.913001 0.9730 0.9720 0.9700 0.9680 0.9640
4.944000 0.9640 0.9620 0.9610 0.9540 0.9530
4.975001 0.9510 0.9530 0.9560 0.9620 0.9680
5.006000 0.9730 0.9780 0.9810 0.9810 0.9820
5.037001 0.9840 0.9860 0.9870 0.9900 0.9920
5.068000 0.9930 0.9950 0.9950 0.9930 0.9890
5.099001 0.9820 0.9700 0.9670 0.9670 0.9720
5.130000 0.9810 0.9820 0.9860 0.9870 0.9890
5.161001 0.9860 0.9720 0.9670 0.9670 0.9810
5.192000 0.9810 0.9810 0.9720 0.9640 0.9530
5.223001 0.9510 0.9510 0.9530 0.9620 0.9640
5.254000 0.9650 0.9650 0.9700 0.9680 0.9650
5.285001 0.9560 0.9470 0.9440 0.9420 0.9390
5.316000 0.9360 0.9400 0.9390 0.9360 0.9280
5.347001 0.9220 0.9090 0.9020 0.9020 0.9110
5.378000 0.9310 0.9330 0.9300 0.9230 0.9200
5.409001 0.9190 0.9170 0.9160 0.9110 0.9090
5.440000 0.9090 0.9190 0.9190 0.9190 0.9170
5.471001 0.9140 0.9110 0.9080 0.9090 0.9090
5.502000 0.9080 0.9120 0.9110 0.8980 0.8880
5.533001 0.8800 0.8770 0.8700 0.8700 0.8610
5.564000 0.8530 0.8420 0.8380 0.8330 0.8320
5.595001 0.8320 0.8250 0.8180 0.8050 0.8020
5.625000 0.7970 0.7830 0.7630 0.7600 0.7790
5.656001 0.7790 0.7770 0.7690 0.7650 0.7650
5.687000 0.7630 0.7620 0.7520 0.7400 0.7510
5.718001 0.7430 0.7380 0.7260 0.7150 0.7070
5.749000 0.7040 0.7010 0.6920 0.6670 0.6480
5.780001 0.6310 0.6150 0.6010 0.5870 0.5720
5.811000 0.5520 0.5300 0.5020 0.4940 0.4860
5.842001 0.4830 0.4740 0.4740 0.4750 0.4770
5.873000 0.4790 0.4790 0.4430 0.4150 0.4020
5.904001 0.4010 0.3990 0.3990 0.3980 0.3960
5.935000 0.3870 0.3670 0.3510 0.3450 0.3310
5.966001 0.3150 0.3090 0.2970 0.2780 0.2560
5.997000 0.2300 0.2000 0.1710 0.1550 0.1410
6.028001 0.1160 0.0930 0.0740 0.0540 0.0410
6.059000 0.0320 0.0270 0.0270 0.0320 0.0320
6.090001 0.0350 0.0380 0.0400 0.0400 0.0410
6.121000 0.0410 0.0410 0.0400 0.0400 0.0370
6.152001 0.0340 0.0320 0.0310 0.0310 0.0290
6.183000 0.0260 0.0260 0.0260 0.0270 0.0270
6.214001 0.0320 0.0350 0.0380 0.0460 0.0540
6.245000 0.0650 0.0760 0.0870 0.0940 0.1040
6.276001 0.1150 0.1300 0.1490 0.1660 0.1780
6.307000 0.2000 0.2250 0.2420 0.2510 0.2590
6.338001 0.2670 0.2750 0.2900 0.3120 0.3450
6.369000 0.3770 0.4010 0.4100 0.4150 0.4180
6.400001 0.4190 0.4230 0.4290 0.4370 0.4380
6.431000 0.4400 0.4510 0.4800 0.5300 0.5330
6.462001 0.5300 0.5300 0.5310 0.5340 0.5390
6.493000 0.5410 0.5440 0.5470 0.5520 0.5580
6.524001 0.5670 0.5760 0.5890 0.5900 0.5890
6.555000 0.5830 0.5780 0.5700 0.5670 0.5620
6.586001 0.5620 0.5620 0.6010 0.6010 0.5920
6.617000 0.5530 0.5520 0.5500 0.5480 0.5410
6.648001 0.5200 0.5020 0.4990 0.4960 0.4890
6.679000 0.4750 0.4570 0.4320 0.4050 0.3950
6.710001 0.3740 0.3400 0.3060 0.2900 0.2530
6.741000 0.2030 0.1610 0.1100 0.0940 0.0770
6.772001 0.0710 0.0690 0.0630 0.0570 0.0550
6.803000 0.0590 0.0600 0.0660 0.0740 0.0760
6.834001 0.0760 0.0770 0.0770 0.0770 0.0790
6.865000 0.0790 0.0790 0.0800 0.0830 0.0880
6.896001 0.0930 0.0990 0.1010 0.1020 0.1050
6.927000 0.1070 0.1070 0.1020 0.0770 0.0600
6.958001 0.0450 0.0350 0.0320 0.0290 0.0260
6.989000 0.0270 0.0370 0.0570 0.0820 0.1130
7.020001 0.1440 0.1710 0.1990 0.2110 0.2340
7.051000 0.2510 0.2890 0.3010 0.3060 0.3170
7.082001 0.3230 0.3310 0.3420 0.3430 0.3490
7.113000 0.3600 0.3790 0.4010 0.4010 0.4070
7.144001 0.4070 0.3900 0.3540 0.3230 0.2970
7.175000 0.2510 0.2050 0.1910 0.1630 0.1350
7.206001 0.1190 0.1050 0.1040 0.0960 0.0870
7.237000 0.0800 0.0770 0.0740 0.0740 0.0730
7.268001 0.0740 0.0910 0.1210 0.1430 0.1580
7.299000 0.1800 0.1990 0.2230 0.2580 0.3000
7.330001 0.3320 0.3430 0.3510 0.3630 0.3840
7.361000 0.4120 0.4430 0.4580 0.4660 0.4830
7.392001 0.4930 0.5160 0.5190 0.5200 0.5190
7.423000 0.5110 0.5060 0.5030 0.4990 0.4820
7.454001 0.4600 0.4330 0.4010 0.3810 0.3700
7.485000 0.3700 0.3730 0.3900 0.3910 0.3850
7.516001 0.3420 0.2730 0.2370 0.1780 0.1250
7.547000 0.0970 0.0790 0.0690 0.0660 0.0660
7.578001 0.0690 0.0760 0.1020 0.1220 0.1600
7.609000 0.1970 0.2160 0.2650 0.3110 0.3370
7.640001 0.3650 0.3980 0.4240 0.4430 0.4470
7.671000 0.4490 0.4570 0.4710 0.4970 0.5270
7.702001 0.5470 0.5660 0.5860 0.5970 0.6030
7.733000 0.6150 0.6260 0.6370 0.6420 0.6430
7.764001 0.6480 0.6540 0.6650 0.6730 0.6730
7.795000 0.6730 0.6730 0.6730 0.6730 0.6710
7.826001 0.6710 0.6680 0.6680 0.6730 0.6740
7.857000 0.6760 0.6730 0.6740 0.6790 0.6850
7.888001 0.6880 0.6820 0.6810 0.6780 0.6760
7.919000 0.6760 0.6850 0.6850 0.6810 0.6680
7.950001 0.6620 0.6540 0.6460 0.6360 0.6230
7.981000 0.6170 0.6110 0.5980 0.5890 0.5840
8.012001 0.5800 0.5730 0.5610 0.5590 0.5550
8.042000 0.5590 0.5640 0.5750 0.5840 0.5900
8.073001 0.5970 0.6010 0.6090 0.6110 0.6150
8.104000 0.6250 0.6420 0.6620 0.6840 0.6990
8.135001 0.6960 0.6920 0.6960 0.7010 0.7040
8.166000 0.7040 0.7040 0.7040 0.7020 0.6980
8.197001 0.7010 0.6980 0.6920 0.6880 0.6870
8.228000 0.6850 0.6790 0.6730 0.6710 0.6790
8.259001 0.6790 0.6780 0.6730 0.6700 0.6640
8.290000 0.6620 0.6620 0.6600 0.6560 0.6510
8.321001 0.6430 0.6510 0.6460 0.6450 0.6290
8.352000 0.6170 0.6040 0.5950 0.5840 0.5700
8.383001 0.5550 0.5360 0.5100 0.4860 0.4610
8.414000 0.4270 0.3990 0.3630 0.3400 0.3010
8.445001 0.2720 0.2590 0.2560 0.2560 0.2610
8.476000 0.2690 0.2860 0.3000 0.3170 0.3400
8.507001 0.3540 0.3670 0.3810 0.3960 0.4050
8.538000 0.4100 0.4190 0.4290 0.4330 0.4330
8.569001 0.4370 0.4350 0.4300 0.4210 0.4100
8.600000 0.3980 0.3850 0.3700 0.3510 0.3320
8.631001 0.3120 0.2890 0.2750 0.2560 0.2450
8.662000 0.2250 0.2000 0.1860 0.1750 0.1670
8.693001 0.1640 0.1640 0.1690 0.1720 0.1780
8.724000 0.1850 0.1920 0.1970 0.1940 0.1890
8.755001 0.1830 0.1750 0.1640 0.1600 0.1530
8.786000 0.1440 0.1350 0.1220 0.1070 0.1050
8.817001 0.1040 0.1040 0.1040 0.1050 0.1080
8.848000 0.1130 0.1250 0.1430 0.1530 0.1640
8.879001 0.1800 0.2020 0.2250 0.2480 0.2650
8.910000 0.2780 0.2830 0.2870 0.2920 0.3030
8.941001 0.3040 0.3030 0.3000 0.2890 0.2840
8.972000 0.2780 0.2670 0.2550 0.2360 0.2170
9.003001 0.1940 0.1660 0.1470 0.1330 0.1220
9.034000 0.1100 0.0960 0.0730 0.0650 0.0620
9.065001 0.0570 0.0480 0.0430 0.0410 0.0450
9.096000 0.0480 0.0490 0.0510 0.0520 0.0520
9.127001 0.0540 0.0540 0.0540 0.0550 0.0620
9.158000 0.0630 0.0630 0.0650 0.0690 0.0740
9.189001 0.0820 0.0900 0.0990 0.1080 0.1190
9.220000 0.1290 0.1390 0.1470 0.1630 0.1910
9.251001 0.2060 0.2200 0.2230 0.2360 0.2500
9.282000 0.2750 0.2930 0.3030 0.3150 0.3230
9.313001 0.3350 0.3430 0.3570 0.3730 0.3820
9.344000 0.3960 0.4090 0.4240 0.4300 0.4380
9.375001 0.4470 0.4600 0.4690 0.4770 0.4860
9.406000 0.4970 0.5100 0.5100 0.5160 0.5220
9.437001 0.5310 0.5340 0.5380 0.5410 0.5420
9.468000 0.5420 0.5410 0.5380 0.5360 0.5330
9.499001 0.5280 0.5280 0.5310 0.5340 0.5410
9.530000 0.5520 0.5670 0.5800 0.5890 0.5900
9.561001 0.5920 0.5940 0.5980 0.6140 0.6200
9.592000 0.6200 0.6200 0.6110 0.6120 0.6260
9.623001 0.6310 0.6360 0.6400 0.6390 0.6400
9.654000 0.6430 0.6480 0.6600 0.6620 0.6620
9.685001 0.6600 0.6600 0.6600 0.6600 0.6600
9.716000 0.6600 0.6590 0.6590 0.6540 0.6510
9.747001 0.6480 0.6430 0.6390 0.6320 0.6290
9.778000 0.6230 0.6180 0.6120 0.6120 0.6140
9.809001 0.6250 0.6320 0.6400 0.6510 0.6640
9.840000 0.6700 0.6700 0.6740 0.6780 0.6810
9.871001 0.6840 0.6900 0.6930 0.6990 0.7020
9.902000 0.7040 0.7060 0.7070 0.7100 0.7180
9.933001 0.7270 0.7290 0.7300 0.7320 0.7340
9.964000 0.7350 0.7370 0.7380 0.7400 0.7410
9.995001 0.7510 0.7550 0.7550 0.7490 0.7490
10.026000 0.7490 0.7510 0.7510 0.7510 0.7580
10.057001 0.7630 0.7630 0.7550 0.7540 0.7510
10.088000 0.7510 0.7520 0.7620 0.7620 0.7600
10.119001 0.7570 0.7520 0.7520 0.7520 0.7620
10.150000 0.7620 0.7600 0.7550 0.7540 0.7540
10.181001 0.7520 0.7510 0.7480 0.7440 0.7400
10.212000 0.7380 0.7340 0.7400 0.7350 0.7290
10.243001 0.7230 0.7210 0.7340 0.7340 0.7290
10.274000 0.7290 0.7290 0.7290 0.7290 0.7290
10.305001 0.7210 0.7210 0.7320 0.7240 0.7180
10.336000 0.7160 0.7160 0.7200 0.7200 0.7180
10.367001 0.7180 0.7160 0.7130 0.7070 0.7020
10.398000 0.7090 0.7060 0.7040 0.7010 0.6980
10.429001 0.6950 0.6920 0.6840 0.6790 0.6710
10.459000 0.6650 0.6570 0.6500 0.6480 0.6430
10.490001 0.6360 0.6230 0.6180 0.6060 0.5970
10.521000 0.5760 0.5560 0.5470 0.5280 0.5000
10.552001 0.4850 0.4680 0.4350 0.4010 0.3760
10.583000 0.3480 0.3350 0.3260 0.3000 0.2920
10.614001 0.2930 0.2950 0.3060 0.3210 0.3370
10.645000 0.3460 0.3510 0.3570 0.3590 0.3540
10.676001 0.3480 0.3430 0.3350 0.3230 0.3060
10.707000 0.2970 0.2890 0.2760 0.2700 0.2590
10.738001 0.2510 0.2470 0.2360 0.2330 0.2330
10.769000 0.2340 0.2390 0.2480 0.2580 0.2700
10.800001 0.2830 0.3000 0.3170 0.3450 0.3560
10.831000 0.3600 0.3630 0.3730 0.3930 0.4120
10.862001 0.4290 0.4440 0.4570 0.4720 0.4880
10.893000 0.4970 0.5380 0.5500 0.5580 0.5760
10.924001 0.5840 0.5900 0.5980 0.6040 0.6170
10.955000 0.6320 0.6480 0.6570 0.6640 0.6680
10.986001 0.6730 0.6780 0.6900 0.6990 0.7040
11.017000 0.7070 0.7120 0.7130 0.7160 0.7230
11.048001 0.7290 0.7350 0.7370 0.7380 0.7410
11.079000 0.7440 0.7490 0.7520 0.7540 0.7550
11.110001 0.7520 0.7550 0.7570 0.7600 0.7600
11.141000 0.7580 0.7570 0.7510 0.7510 0.7540
11.172001 0.7600 0.7570 0.7540 0.7570 0.7570
11.203000 0.7600 0.7620 0.7660 0.7660 0.7630
11.234001 0.7630 0.7630 0.7630 0.7630 0.7630
11.265000 0.7710 0.7720 0.7760 0.7770 0.7770
11.296001 0.7770 0.7770 0.7770 0.7740 0.7740
11.327000 0.7740 0.7740 0.7740 0.7740 0.7760
11.358001 0.7790 0.7830 0.7850 0.7850 0.7830
11.389000 0.7850 0.7850 0.7860 0.7960 0.8020
11.420001 0.8020 0.7940 0.7910 0.7900 0.7850
11.451000 0.7830 0.7800 0.7790 0.7790 0.7860
11.482001 0.7820 0.7720 0.7710 0.7800 0.7800
11.513000 0.7800 0.7790 0.7720 0.7680 0.7680
11.544001 0.7740 0.7720 0.7690 0.7690 0.7630
11.575000 0.7690 0.7650 0.7650 0.7630 0.7600
11.606001 0.7600 0.7580 0.7540 0.7580 0.7550
11.637000 0.7520 0.7510 0.7490 0.7410 0.7340
11.668001 0.7300 0.7300 0.7300 0.7300 0.7290
11.699000 0.7260 0.7240 0.7210 0.7200 0.7150
11.730001 0.7120 0.7060 0.7040 0.7020 0.6990
11.761000 0.6930 0.6870 0.6740 0.6740 0.6730
11.792001 0.6620 0.6560 0.6340 0.6290 0.6120
11.823000 0.6000 0.5900 0.5750 0.5550 0.5300
11.854001 0.5140 0.5060 0.4990 0.4660 0.4210
11.885000 0.3810 0.3480 0.3110 0.2970 0.2840
11.916001 0.2810 0.2790 0.2830 0.3060 0.3250
11.947000 0.3460 0.3810 0.4010 0.4320 0.4550
11.978001 0.4820 0.5110 0.5220 0.5330 0.5500
12.009000 0.5730 0.5830 0.5890 0.5900 0.5970
12.040001 0.6060 0.6170 0.6180 0.6140 0.6140
12.071000 0.6140 0.6140 0.6170 0.6200 0.6220
12.102001 0.6230 0.6230 0.6220 0.6220 0.6200
12.133000 0.6180 0.6120 0.6110 0.6090 0.6090
12.164001 0.6120 0.6170 0.6140 0.6120 0.6090
12.195000 0.6060 0.6040 0.6010 0.6000 0.5970
12.226001 0.5970 0.5890 0.5870 0.5860 0.5860
12.257000 0.5830 0.5810 0.5780 0.5810 0.5800
12.288001 0.5780 0.5780 0.5720 0.5690 0.5730
12.319000 0.5690 0.5700 0.5690 0.5690 0.5660
12.350001 0.5620 0.5610 0.5590 0.5590 0.5530
12.381000 0.5500 0.5480 0.5470 0.5470 0.5440
12.412001 0.5410 0.5390 0.5360 0.5360 0.5340
12.443000 0.5330 0.5330 0.5330 0.5310 0.5310
12.474001 0.5300 0.5220 0.5190 0.5190 0.5190
12.505000 0.5170 0.5170 0.5170 0.5170 0.5190
12.536001 0.5240 0.5240 0.5250 0.5240 0.5060
12.567000 0.5060 0.5140 0.5160 0.5160 0.5170
12.598001 0.5170 0.5200 0.5170 0.5200 0.5240
12.629000 0.5280 0.5250 0.5160 0.5160 0.5170
12.660001 0.5170 0.5190 0.5220 0.5250 0.5270
12.691000 0.5270 0.5240 0.5250 0.5270 0.5300
12.722001 0.5310 0.5310 0.5310 0.5300 0.5300
12.753000 0.5280 0.5270 0.5280 0.5300 0.5310
12.784001 0.5330 0.5340 0.5380 0.5380 0.5390
12.815000 0.5410 0.5410 0.5410 0.5420 0.5440
12.846001 0.5450 0.5470 0.5500 0.5500 0.5520
12.876000 0.5520 0.5440 0.5500 0.5530 0.5560
12.907001 0.5590 0.5610 0.5610 0.5610 0.5640
12.938000 0.5660 0.5660 0.5580 0.5620 0.5720
12.969001 0.5800 0.5760 0.5660 0.5640 0.5700
13.000000 0.5800 0.5830 0.5840 0.5840 0.5860
13.031001 0.5860 0.5870 0.5860 0.5860 0.5830
13.062000 0.5840 0.5860 0.5890 0.5890 0.5940
13.093001 0.5940 0.5940 0.5940 0.5980 0.6010
13.124000 0.6030 0.6060 0.6060 0.6090 0.6090
13.155001 0.6030 0.6030 0.6030 0.6030 0.6030
13.186000 0.6030 0.6030 0.6060 0.6090 0.6120
13.217001 0.6140 0.6140 0.6170 0.6200 0.6120
13.248000 0.6120 0.6200 0.6230 0.6260 0.6250
13.279001 0.6180 0.6180 0.6200 0.6250 0.6250
13.310000 0.6230 0.6250 0.6260 0.6230 0.6260
13.341001 0.6310 0.6310 0.6310 0.6320 0.6320
13.372000 0.6310 0.6290 0.6290 0.6280 0.6280
13.403001 0.6280 0.6340 0.6340 0.6310 0.6290
13.434000 0.6260 0.6260 0.6260 0.6260 0.6230
13.465001 0.6200 0.6180 0.6170 0.6180 0.6180
13.496000 0.6230 0.6200 0.6140 0.6090 0.6150
13.527001 0.6120 0.6110 0.6040 0.6010 0.6030
13.558000 0.6010 0.6000 0.6000 0.6000 0.6060
13.589001 0.6040 0.6010 0.5980 0.5920 0.6010
13.620000 0.5920 0.5900 0.5890 0.5950 0.5940
13.651001 0.5940 0.5940 0.5940 0.5940 0.5950
13.682000 0.6000 0.5950 0.5940 0.5870 0.5840
13.713001 0.5840 0.6000 0.6000 0.6000 0.5890
13.744000 0.5760 0.5760 0.5840 0.5840 0.5830
13.775001 0.5800 0.5760 0.5780 0.5780 0.5730
13.806000 0.5590 0.5580 0.5580 0.5660 0.5660
13.837001 0.5660 0.5590 0.5520 0.5480 0.5480
13.868000 0.5450 0.5440 0.5440 0.5420 0.5410
13.899001 0.5360 0.5340 0.5310 0.5360 0.5340
13.930000 0.5280 0.5240 0.5220 0.5200 0.5200
13.961001 0.5220 0.5220 0.5220 0.5200 0.5190
13.992000 0.5160 0.5140 0.5110 0.5080 0.5030
14.023001 0.5000 0.4990 0.4970 0.4940 0.4940
14.054000 0.4930 0.4910 0.4860 0.4790 0.4720
14.085001 0.4650 0.4600 0.4540 0.4490 0.4470
14.116000 0.4430 0.4320 0.4290 0.4270 0.4260
14.147001 0.4180 0.4180 0.4040 0.4020 0.4010
14.178000 0.3990 0.3980 0.3930 0.3900 0.3850
14.209001 0.3820 0.3810 0.3770 0.3770 0.3760
14.240000 0.3740 0.3740 0.3730 0.3710 0.3710
14.271001 0.3650 0.3600 0.3540 0.3510 0.3490
14.302000 0.3490 0.3450 0.3430 0.3400 0.3390
14.333001 0.3350 0.3340 0.3320 0.3310 0.3280
14.364000 0.3260 0.3180 0.3170 0.3180 0.3200
14.395001 0.3230 0.3230 0.3260 0.3280 0.3280
14.426000 0.3280 0.3290 0.3340 0.3400 0.3490
14.457001 0.3570 0.3650 0.3670 0.3680 0.3760
14.488000 0.3900 0.3990 0.4070 0.4160 0.4240
14.519001 0.4300 0.4370 0.4440 0.4510 0.4600
14.550000 0.4720 0.4830 0.4890 0.4970 0.5160
14.581001 0.5240 0.5280 0.5300 0.5330 0.5390
14.612000 0.5500 0.5530 0.5590 0.5660 0.5720
14.643001 0.5760 0.5810 0.5830 0.5870 0.5900
14.674000 0.5970 0.6000 0.6010 0.6030 0.6080
14.705001 0.6120 0.6180 0.6220 0.6250 0.6320
14.736000 0.6340 0.6290 0.6290 0.6290 0.6310
14.767001 0.6360 0.6390 0.6460 0.6510 0.6530
14.798000 0.6540 0.6510 0.6510 0.6510 0.6530
14.829001 0.6560 0.6540 0.6540 0.6530 0.6540
14.860000 0.6540 0.6570 0.6600 0.6640 0.6600
14.891001 0.6640 0.6640 0.6650 0.6650 0.6670
14.922000 0.6670 0.6650 0.6640 0.6640 0.6640
14.953001 0.6670 0.6650 0.6640 0.6620 0.6560
14.984000 0.6510 0.6500 0.6480 0.6460 0.6420
15.015001 0.6360 0.6280 0.6230 0.6180 0.6140
15.046000 0.6120 0.6110 0.6080 0.6040 0.6030
15.077001 0.6010 0.6010 0.6030 0.6040 0.6080
15.108000 0.6120 0.6170 0.6200 0.6200 0.6220
15.139001 0.6220 0.6230 0.6250 0.6280 0.6290
15.170000 0.6310 0.6320 0.6360 0.6370 0.6390
15.201001 0.6420 0.6500 0.6650 0.6650 0.6640
15.232000 0.6620 0.6620 0.6570 0.6600 0.6650
15.263001 0.6680 0.6680 0.6620 0.6620 0.6620
15.293000 0.6640 0.6650 0.6670 0.6650 0.6620
15.324001 0.6620 0.6600 0.6600 0.6590 0.6560
15.355000 0.6560 0.6560 0.6560 0.6570 0.6570
15.386001 0.6570 0.6590 0.6570 0.6560 0.6540
15.417000 0.6500 0.6500 0.6590 0.6590 0.6590
15.448001 0.6570 0.6560 0.6540 0.6530 0.6510
15.479000 0.6480 0.6430 0.6420 0.6420 0.6420
15.510001 0.6420 0.6420 0.6430 0.6480 0.6530
15.541000 0.6540 0.6540 0.6530 0.6500 0.6500
15.572001 0.6480 0.6480 0.6460 0.6420 0.6450
15.603000 0.6480 0.6460 0.6430 0.6400 0.6370
15.634001 0.6360 0.6340 0.6360 0.6430 0.6430
15.665000 0.6420 0.6390 0.6360 0.6340 0.6340
15.696001 0.6340 0.6340 0.6320 0.6310 0.6280
15.727000 0.6220 0.6200 0.6200 0.6200 0.6200
15.758001 0.6200 0.6200 0.6220 0.6220 0.6220
15.789000 0.6230 0.6230 0.6220 0.6180 0.6220
15.820001 0.6220 0.6200 0.6200 0.6200 0.6180
15.851000 0.6170 0.6150 0.6150 0.6170 0.6170
15.882001 0.6150 0.6140 0.6140 0.6140 0.6110
15.913000 0.6090 0.6080 0.6080 0.6080 0.6080
15.944001 0.6080 0.6030 0.6000 0.6010 0.6010
15.975000 0.6010 0.6030 0.6030 0.6030 0.6030
16.006001 0.6010 0.6030
##END=
