##TITLE=Uracil, 1-{p-[3-(2-chloroethyl)Ureido]Benzyl}-
##JCAMP-DX=4.24
##DATA TYPE=INFRARED SPECTRUM
##CLASS=COBLENTZ III
##ORIGIN=SOUTHERN RESEARCH INSTITUTE
##OWNER=Copyright (C) 1987 by the Coblentz Society
Collection (C) 2018 copyright by the U.S. Secretary of Commerce
on behalf of the United States of America. All rights reserved.
##DATE=1967/05/10
##NAMES=N-(2-chloroethyl)-N'-(4-[(2,4-dioxo-3,4-dihydro-1(2H)-pyrimidinyl)methyl]phenyl)urea
##MOLFORM=C14 H15 Cl N4 O3
##SOURCE REFERENCE=COBLENTZ NO. 8383
##$NIST ID=B6008383
##$NIST SOURCE=COBLENTZ
##$NIST IMAGE=cob8383
##SPECTROMETER/DATA SYSTEM=PERKIN-ELMER 521 (GRATING)
##INSTRUMENT PARAMETERS=FILTERS AT 3130, 2475, 2000, 1150, 700, 410. GRATING CHANGES: 2000, 630 CM^-^1
##STATE=SOLID (1 mg / 650 mg KBr DISC)
##SAMPLING PROCEDURE=TRANSMISSION
##RESOLUTION=2
##DATA PROCESSING=DIGITIZED BY COBLENTZ SOCIETY (BATCH II) FROM HARD COPY
##XUNITS=1/CM
##YUNITS=TRANSMITTANCE
##XFACTOR=1.0
##YFACTOR=1
##FIRSTX=257
##LASTX=4000
##FIRSTY=0.4676
##MAXX=4000
##MINX=257
##MAXY=0.9001
##MINY=0.1013
##NPOINTS=3744
##XYDATA=(X++(Y..Y))
257.000000 0.4676 0.4744 0.4808 0.4882 0.4979
262.000000 0.5069 0.5148 0.5240 0.5327 0.5381
267.000000 0.5435 0.5489 0.5544 0.5591 0.5636
272.000000 0.5680 0.5729 0.5832 0.5924 0.5976
277.000000 0.6027 0.6065 0.6103 0.6141 0.6183
282.000000 0.6230 0.6276 0.6323 0.6367 0.6399
287.000000 0.6431 0.6463 0.6493 0.6521 0.6550
292.000000 0.6578 0.6601 0.6622 0.6642 0.6663
297.000000 0.6683 0.6704 0.6724 0.6743 0.6761
302.000000 0.6779 0.6797 0.6815 0.6833 0.6851
307.000000 0.6868 0.6879 0.6889 0.6900 0.6911
312.000000 0.6921 0.6928 0.6934 0.6939 0.6945
317.000000 0.6950 0.6956 0.6961 0.6967 0.6973
322.000000 0.6979 0.6984 0.6982 0.6979 0.6976
327.000000 0.6973 0.6970 0.6967 0.6964 0.6962
332.000000 0.6959 0.6956 0.6953 0.6956 0.6967
337.000000 0.6992 0.7032 0.7068 0.7106 0.7168
342.000000 0.7244 0.7306 0.7352 0.7375 0.7390
347.000000 0.7396 0.7398 0.7396 0.7394 0.7387
352.000000 0.7380 0.7373 0.7361 0.7350 0.7339
357.000000 0.7328 0.7314 0.7299 0.7284 0.7292
362.000000 0.7317 0.7350 0.7406 0.7499 0.7611
367.000000 0.7655 0.7699 0.7702 0.7704 0.7705
372.000000 0.7704 0.7702 0.7701 0.7700 0.7698
377.000000 0.7697 0.7696 0.7756 0.7690 0.7686
382.000000 0.7683 0.7676 0.7663 0.7649 0.7636
387.000000 0.7623 0.7609 0.7591 0.7563 0.7536
392.000000 0.7509 0.7481 0.7454 0.7427 0.7400
397.000000 0.7372 0.7345 0.7318 0.7290 0.7258
402.000000 0.7221 0.7183 0.7146 0.7108 0.7071
407.000000 0.7037 0.7006 0.6974 0.6943 0.6911
412.000000 0.6880 0.6848 0.6814 0.6779 0.6762
417.000000 0.6756 0.6753 0.6752 0.6752 0.6751
422.000000 0.6752 0.6754 0.6748 0.6731 0.6713
427.000000 0.6689 0.6666 0.6643 0.6570 0.6497
432.000000 0.6421 0.6546 0.6596 0.6655 0.6698
437.000000 0.6738 0.6782 0.6836 0.6888 0.6927
442.000000 0.6966 0.7031 0.7104 0.7162 0.7220
447.000000 0.7436 0.7575 0.7598 0.7613 0.7628
452.000000 0.7634 0.7640 0.7647 0.7655 0.7662
457.000000 0.7670 0.7680 0.7688 0.7695 0.7702
462.000000 0.7710 0.7717 0.7722 0.7727 0.7733
467.000000 0.7738 0.7766 0.7742 0.7745 0.7747
472.000000 0.7745 0.7744 0.7739 0.7735 0.7731
477.000000 0.7726 0.7721 0.7717 0.7719 0.7721
482.000000 0.7723 0.7725 0.7727 0.7729 0.7731
487.000000 0.7719 0.7698 0.7676 0.7654 0.7620
492.000000 0.7581 0.7537 0.7485 0.7419 0.7333
497.000000 0.7277 0.7225 0.7158 0.7074 0.6989
502.000000 0.6972 0.6979 0.6978 0.7065 0.7102
507.000000 0.7135 0.7168 0.7201 0.7238 0.7275
512.000000 0.7362 0.7518 0.7576 0.7675 0.7649
517.000000 0.7647 0.7638 0.7624 0.7603 0.7572
522.000000 0.7537 0.7473 0.7398 0.7317 0.7233
527.000000 0.7021 0.6806 0.6707 0.6620 0.6533
532.000000 0.6374 0.6211 0.6105 0.6003 0.5867
537.000000 0.5805 0.5783 0.5828 0.5811 0.5891
542.000000 0.5970 0.6050 0.6129 0.6209 0.6264
547.000000 0.6270 0.6182 0.6004 0.5826 0.5649
552.000000 0.5495 0.5545 0.6002 0.6458 0.6915
557.000000 0.7313 0.7406 0.7457 0.7506 0.7537
562.000000 0.7549 0.7554 0.7558 0.7563 0.7563
567.000000 0.7561 0.7553 0.7543 0.7529 0.7512
572.000000 0.7496 0.7479 0.7457 0.7435 0.7412
577.000000 0.7389 0.7366 0.7342 0.7319 0.7293
582.000000 0.7266 0.7240 0.7213 0.7187 0.7161
587.000000 0.7135 0.7109 0.7083 0.7057 0.7031
592.000000 0.7001 0.6971 0.6940 0.6910 0.6880
597.000000 0.6844 0.6802 0.6761 0.6719 0.6681
602.000000 0.6647 0.6613 0.6579 0.6545 0.6505
607.000000 0.6464 0.6423 0.6378 0.6342 0.6332
612.000000 0.6331 0.6341 0.6370 0.6393 0.6411
617.000000 0.6420 0.6425 0.6431 0.6432 0.6428
622.000000 0.6421 0.6414 0.6407 0.6401 0.6391
627.000000 0.6378 0.6366 0.6354 0.6342 0.6330
632.000000 0.6318 0.6306 0.6293 0.6281 0.6266
637.000000 0.6250 0.6233 0.6216 0.6199 0.6182
642.000000 0.6165 0.6151 0.6140 0.6128 0.6116
647.000000 0.6108 0.6087 0.6092 0.6102 0.6155
652.000000 0.6221 0.6293 0.6352 0.6440 0.6494
657.000000 0.6545 0.6593 0.6641 0.6687 0.6736
662.000000 0.6792 0.6855 0.6923 0.6992 0.7039
667.000000 0.7064 0.7086 0.7109 0.7133 0.7160
672.000000 0.7186 0.7212 0.7237 0.7261 0.7286
677.000000 0.7310 0.7336 0.7366 0.7396 0.7426
682.000000 0.7456 0.7485 0.7513 0.7542 0.7567
687.000000 0.7589 0.7610 0.7631 0.7649 0.7667
692.000000 0.7685 0.7698 0.7711 0.7724 0.7733
697.000000 0.7735 0.7736 0.7737 0.7727 0.7718
702.000000 0.7714 0.7684 0.7665 0.7642 0.7616
707.000000 0.7590 0.7564 0.7541 0.7521 0.7507
712.000000 0.7500 0.7497 0.7495 0.7495 0.7496
717.000000 0.7500 0.7504 0.7508 0.7386 0.7258
722.000000 0.7169 0.7169 0.7300 0.7431 0.7562
727.000000 0.7657 0.7655 0.7651 0.7647 0.7634
732.000000 0.7616 0.7597 0.7563 0.7540 0.7518
737.000000 0.7498 0.7477 0.7459 0.7441 0.7428
742.000000 0.7414 0.7401 0.7393 0.7387 0.7383
747.000000 0.7385 0.7387 0.7359 0.7313 0.7263
752.000000 0.7210 0.7126 0.6963 0.6918 0.6916
757.000000 0.6916 0.6917 0.6919 0.6921 0.6923
762.000000 0.6924 0.6982 0.7084 0.7156 0.7214
767.000000 0.7238 0.7255 0.7262 0.7258 0.7248
772.000000 0.7192 0.7144 0.7273 0.6924 0.6769
777.000000 0.6601 0.6487 0.6439 0.6427 0.6447
782.000000 0.6461 0.6503 0.6556 0.6641 0.6746
787.000000 0.6858 0.6966 0.7030 0.7087 0.7104
792.000000 0.7104 0.7104 0.7105 0.7100 0.7133
797.000000 0.7015 0.6963 0.6914 0.6865 0.6812
802.000000 0.6755 0.6696 0.6623 0.6549 0.6458
807.000000 0.6366 0.6299 0.6241 0.6183 0.6125
812.000000 0.6067 0.6010 0.5971 0.5935 0.5898
817.000000 0.5867 0.5853 0.5839 0.5825 0.5811
822.000000 0.5804 0.5797 0.5791 0.5793 0.5799
827.000000 0.6047 0.6366 0.5813 0.6942 0.6980
832.000000 0.7009 0.7018 0.7027 0.7032 0.7032
837.000000 0.7032 0.7032 0.7030 0.7024 0.7018
842.000000 0.7011 0.7002 0.6992 0.6984 0.6976
847.000000 0.6969 0.6961 0.6955 0.6948 0.6941
852.000000 0.6935 0.6930 0.6929 0.6927 0.6925
857.000000 0.6923 0.6921 0.6923 0.6926 0.6928
862.000000 0.6932 0.6938 0.6946 0.6979 0.7013
867.000000 0.7066 0.7116 0.7160 0.7202 0.7244
872.000000 0.7286 0.7328 0.7370 0.7413 0.7455
877.000000 0.7497 0.7539 0.7581 0.7623 0.7665
882.000000 0.7707 0.7749 0.7791 0.7830 0.7855
887.000000 0.7892 0.7947 0.8002 0.8058 0.8102
892.000000 0.8133 0.8162 0.8182 0.8202 0.8222
897.000000 0.8243 0.8263 0.8284 0.8304 0.8329
902.000000 0.8349 0.8364 0.8379 0.8394 0.8409
907.000000 0.8412 0.8412 0.8410 0.8441 0.8398
912.000000 0.8392 0.8378 0.8365 0.8352 0.8339
917.000000 0.8323 0.8306 0.8285 0.8254 0.8223
922.000000 0.8186 0.8124 0.8013 0.7940 0.7915
927.000000 0.7915 0.7919 0.7926 0.7934 0.7945
932.000000 0.7958 0.7986 0.8032 0.8075 0.8088
937.000000 0.8081 0.8072 0.8063 0.8053 0.8044
942.000000 0.8034 0.8026 0.8017 0.8008 0.8000
947.000000 0.7991 0.7976 0.7952 0.7927 0.7896
952.000000 0.7865 0.7833 0.7796 0.7769 0.7769
957.000000 0.7772 0.7782 0.7801 0.7879 0.7940
962.000000 0.7986 0.8025 0.8060 0.8093 0.8095
967.000000 0.8094 0.8093 0.8092 0.8091 0.8090
972.000000 0.8090 0.8091 0.8091 0.8091 0.8092
977.000000 0.8092 0.8092 0.8093 0.8093 0.8093
982.000000 0.8093 0.8094 0.8094 0.8094 0.8095
987.000000 0.8095 0.8097 0.8098 0.8099 0.8100
992.000000 0.8101 0.8104 0.8108 0.8111 0.8115
997.000000 0.8128 0.8141 0.8153 0.8165 0.8170
1002.000000 0.8175 0.8180 0.8185 0.8190 0.8193
1007.000000 0.8192 0.8188 0.8231 0.8165 0.8153
1012.000000 0.8108 0.8080 0.8054 0.8022 0.8022
1017.000000 0.8041 0.8060 0.8079 0.8098 0.8117
1022.000000 0.8138 0.8160 0.8182 0.8196 0.8199
1027.000000 0.8198 0.8197 0.8196 0.8194 0.8192
1032.000000 0.8189 0.8187 0.8183 0.8180 0.8176
1037.000000 0.8172 0.8168 0.8160 0.8151 0.8142
1042.000000 0.8132 0.8122 0.8106 0.8090 0.8074
1047.000000 0.8058 0.8043 0.8027 0.8011 0.7995
1052.000000 0.7977 0.7959 0.7940 0.7922 0.7894
1057.000000 0.7861 0.7825 0.7785 0.7752 0.7752
1062.000000 0.7753 0.7754 0.7755 0.7756 0.7757
1067.000000 0.7757 0.7760 0.7764 0.7768 0.7771
1072.000000 0.7775 0.7779 0.7774 0.7759 0.7739
1077.000000 0.7720 0.7700 0.7683 0.7665 0.7648
1082.000000 0.7633 0.7625 0.7617 0.7609 0.7601
1087.000000 0.7592 0.7584 0.7581 0.7580 0.7579
1092.000000 0.7578 0.7582 0.7596 0.7611 0.7627
1097.000000 0.7642 0.7661 0.7683 0.7704 0.7686
1102.000000 0.7645 0.7607 0.7585 0.7563 0.7543
1107.000000 0.7524 0.7504 0.7485 0.7465 0.7459
1112.000000 0.7473 0.7488 0.7503 0.7512 0.7522
1117.000000 0.7531 0.7538 0.7545 0.7551 0.7558
1122.000000 0.7564 0.7571 0.7577 0.7583 0.7590
1127.000000 0.7596 0.7602 0.7609 0.7612 0.7614
1132.000000 0.7617 0.7619 0.7617 0.7615 0.7613
1137.000000 0.7610 0.7605 0.7600 0.7592 0.7574
1142.000000 0.7544 0.7517 0.7493 0.7468 0.7437
1147.000000 0.7400 0.7363 0.7333 0.7304 0.7275
1152.000000 0.7247 0.7218 0.7189 0.7160 0.7131
1157.000000 0.7089 0.7045 0.7000 0.6951 0.6903
1162.000000 0.6854 0.6808 0.6771 0.6734 0.6697
1167.000000 0.6660 0.6597 0.6521 0.6446 0.6370
1172.000000 0.6294 0.6218 0.6143 0.6067 0.5991
1177.000000 0.5918 0.5891 0.5885 0.5890 0.5934
1182.000000 0.6018 0.6103 0.6188 0.6273 0.6358
1187.000000 0.6390 0.6382 0.6372 0.6353 0.6329
1192.000000 0.6302 0.6270 0.6228 0.6181 0.6056
1197.000000 0.5819 0.5582 0.5345 0.5205 0.5206
1202.000000 0.5209 0.5271 0.5333 0.5395 0.5457
1207.000000 0.5519 0.5581 0.5584 0.5579 0.5567
1212.000000 0.5554 0.5537 0.5481 0.5439 0.5392
1217.000000 0.5311 0.5206 0.5101 0.4997 0.4892
1222.000000 0.4787 0.4683 0.4578 0.4473 0.4369
1227.000000 0.4264 0.4150 0.4003 0.3897 0.3800
1232.000000 0.3692 0.3573 0.3474 0.3388 0.3302
1237.000000 0.3175 0.3047 0.2951 0.2939 0.2934
1242.000000 0.2941 0.2948 0.2966 0.2978 0.3002
1247.000000 0.3117 0.3256 0.3395 0.3534 0.3672
1252.000000 0.3811 0.3950 0.4088 0.4227 0.4366
1257.000000 0.4504 0.4643 0.4782 0.4920 0.5059
1262.000000 0.5198 0.5370 0.5743 0.6151 0.6313
1267.000000 0.6375 0.6452 0.6508 0.6537 0.6557
1272.000000 0.6570 0.6579 0.6581 0.6578 0.6570
1277.000000 0.6570 0.6565 0.6560 0.6548 0.6532
1282.000000 0.6513 0.6474 0.6423 0.6390 0.6377
1287.000000 0.6369 0.6361 0.6357 0.6355 0.6353
1292.000000 0.6351 0.6344 0.6330 0.6304 0.6267
1297.000000 0.6222 0.6161 0.6111 0.5918 0.5697
1302.000000 0.5476 0.5255 0.5072 0.4978 0.4918
1307.000000 0.4900 0.4896 0.4843 0.4913 0.4931
1312.000000 0.4957 0.4993 0.5042 0.5103 0.5170
1317.000000 0.5267 0.5334 0.5377 0.5416 0.5550
1322.000000 0.5821 0.6092 0.6309 0.6331 0.6327
1327.000000 0.6324 0.6366 0.6315 0.6309 0.6303
1332.000000 0.6300 0.6278 0.6229 0.6170 0.6111
1337.000000 0.6043 0.5978 0.5930 0.5856 0.5782
1342.000000 0.5708 0.5634 0.5560 0.5485 0.5411
1347.000000 0.5273 0.5282 0.5292 0.5350 0.5435
1352.000000 0.5520 0.5604 0.5689 0.5774 0.5858
1357.000000 0.5943 0.6028 0.6112 0.6167 0.6191
1362.000000 0.6209 0.6219 0.6221 0.6222 0.6256
1367.000000 0.6219 0.6214 0.6197 0.6178 0.6157
1372.000000 0.6127 0.6055 0.5994 0.5941 0.5889
1377.000000 0.5703 0.5605 0.5334 0.5042 0.4750
1382.000000 0.4458 0.4166 0.3874 0.3755 0.3783
1387.000000 0.3761 0.3844 0.4046 0.4247 0.4449
1392.000000 0.4651 0.4852 0.5054 0.5256 0.5457
1397.000000 0.5659 0.5861 0.6067 0.6019 0.5868
1402.000000 0.5630 0.5392 0.5154 0.4917 0.4679
1407.000000 0.4441 0.4203 0.3965 0.3728 0.3490
1412.000000 0.3377 0.3337 0.3792 0.4095 0.4399
1417.000000 0.4703 0.5006 0.5310 0.5414 0.5494
1422.000000 0.5623 0.5751 0.5853 0.5929 0.5972
1427.000000 0.5980 0.6003 0.5989 0.5986 0.5969
1432.000000 0.5948 0.5923 0.5888 0.5823 0.5767
1437.000000 0.5692 0.5632 0.5564 0.5534 0.5546
1442.000000 0.5650 0.5561 0.5399 0.5236 0.5074
1447.000000 0.4911 0.4749 0.4586 0.4424 0.4261
1452.000000 0.4099 0.3936 0.3773 0.3556 0.3571
1457.000000 0.3557 0.3558 0.3626 0.3914 0.4202
1462.000000 0.4490 0.4778 0.5066 0.5354 0.5642
1467.000000 0.5930 0.6202 0.6429 0.6525 0.6584
1472.000000 0.6627 0.6665 0.6690 0.6705 0.6721
1477.000000 0.6735 0.6736 0.6736 0.6736 0.6731
1482.000000 0.6724 0.6717 0.6713 0.6688 0.6655
1487.000000 0.6593 0.6530 0.6455 0.6360 0.6274
1492.000000 0.6188 0.6104 0.6022 0.5945 0.5880
1497.000000 0.5814 0.5715 0.5556 0.5396 0.5237
1502.000000 0.5078 0.4919 0.4759 0.4600 0.4441
1507.000000 0.4281 0.4122 0.3963 0.3794 0.3711
1512.000000 0.3616 0.3468 0.3488 0.3494 0.3500
1517.000000 0.3523 0.3580 0.3619 0.3663 0.3710
1522.000000 0.3723 0.3730 0.3728 0.3723 0.3721
1527.000000 0.3712 0.3699 0.3675 0.3634 0.3593
1532.000000 0.3547 0.3500 0.3454 0.3408 0.3357
1537.000000 0.3300 0.3242 0.3183 0.3124 0.3065
1542.000000 0.3005 0.2934 0.2881 0.2889 0.2872
1547.000000 0.2881 0.2895 0.2909 0.2959 0.3005
1552.000000 0.3051 0.3088 0.3126 0.3164 0.3202
1557.000000 0.3235 0.3268 0.3301 0.3347 0.3391
1562.000000 0.3413 0.3416 0.3413 0.3404 0.3394
1567.000000 0.3377 0.3360 0.3340 0.3302 0.3270
1572.000000 0.3244 0.3234 0.3236 0.3243 0.3251
1577.000000 0.3265 0.3545 0.3697 0.3751 0.3792
1582.000000 0.3814 0.3834 0.3841 0.3846 0.3831
1587.000000 0.3840 0.3833 0.3824 0.3581 0.3331
1592.000000 0.3082 0.2832 0.2654 0.2580 0.2544
1597.000000 0.2540 0.2535 0.2600 0.2717 0.2833
1602.000000 0.2949 0.3066 0.3182 0.3299 0.3355
1607.000000 0.3361 0.3367 0.3369 0.3371 0.3922
1612.000000 0.4119 0.4193 0.4220 0.4224 0.4221
1617.000000 0.4209 0.4215 0.4084 0.3918 0.3753
1622.000000 0.3587 0.3421 0.3255 0.3089 0.2924
1627.000000 0.2758 0.2592 0.2426 0.2260 0.2094
1632.000000 0.1943 0.1784 0.1759 0.1748 0.1750
1637.000000 0.1753 0.1756 0.1834 0.1938 0.1982
1642.000000 0.1997 0.1996 0.1994 0.1988 0.1978
1647.000000 0.1969 0.1946 0.1918 0.1873 0.1781
1652.000000 0.1634 0.1538 0.1458 0.1349 0.1291
1657.000000 0.1290 0.1288 0.1289 0.1290 0.1291
1662.000000 0.1293 0.1293 0.1292 0.1291 0.1285
1667.000000 0.1272 0.1247 0.1189 0.1152 0.1116
1672.000000 0.1096 0.1083 0.1070 0.1062 0.1062
1677.000000 0.1064 0.1069 0.1073 0.1078 0.1082
1682.000000 0.1085 0.1089 0.1092 0.1090 0.1086
1687.000000 0.1082 0.1074 0.1065 0.1055 0.1048
1692.000000 0.1040 0.1033 0.1026 0.1020 0.1013
1697.000000 0.1072 0.1020 0.1024 0.1032 0.1071
1702.000000 0.1111 0.1192 0.1283 0.1371 0.1460
1707.000000 0.1548 0.1637 0.1725 0.1814 0.1898
1712.000000 0.1961 0.2014 0.2039 0.2053 0.2061
1717.000000 0.2069 0.2078 0.2087 0.2096 0.2105
1722.000000 0.2126 0.2148 0.2173 0.2206 0.2244
1727.000000 0.2340 0.2475 0.2559 0.2617 0.2700
1732.000000 0.2866 0.3031 0.3197 0.3363 0.3529
1737.000000 0.3695 0.3860 0.4026 0.4192 0.4358
1742.000000 0.4524 0.4690 0.4865 0.5009 0.5117
1747.000000 0.5207 0.5296 0.5381 0.5439 0.5477
1752.000000 0.5495 0.5513 0.5511 0.5506 0.5501
1757.000000 0.5496 0.5490 0.5483 0.5481 0.5481
1762.000000 0.5484 0.5491 0.5588 0.5723 0.5857
1767.000000 0.5991 0.6126 0.6260 0.6394 0.6529
1772.000000 0.6663 0.6798 0.6932 0.7066 0.7201
1777.000000 0.7307 0.7363 0.7410 0.7452 0.7492
1782.000000 0.7513 0.7533 0.7553 0.7567 0.7581
1787.000000 0.7595 0.7608 0.7618 0.7629 0.7640
1792.000000 0.7651 0.7663 0.7676 0.7688 0.7701
1797.000000 0.7767 0.7861 0.7902 0.7940 0.7978
1802.000000 0.8020 0.8071 0.8122 0.8173 0.8212
1807.000000 0.8249 0.8286 0.8322 0.8354 0.8385
1812.000000 0.8416 0.8446 0.8477 0.8501 0.8519
1817.000000 0.8538 0.8557 0.8575 0.8594 0.8609
1822.000000 0.8624 0.8639 0.8653 0.8668 0.8683
1827.000000 0.8697 0.8712 0.8727 0.8740 0.8750
1832.000000 0.8761 0.8771 0.8782 0.8792 0.8803
1837.000000 0.8814 0.8824 0.8835 0.8845 0.8855
1842.000000 0.8864 0.8869 0.8870 0.8872 0.8873
1847.000000 0.8874 0.8875 0.8877 0.8878 0.8879
1852.000000 0.8881 0.8882 0.8883 0.8885 0.8886
1857.000000 0.8887 0.8889 0.8890 0.8891 0.8893
1862.000000 0.8894 0.8895 0.8895 0.8896 0.8896
1867.000000 0.8897 0.8897 0.8898 0.8898 0.8898
1872.000000 0.8899 0.8899 0.8900 0.8900 0.8901
1877.000000 0.8901 0.8902 0.8902 0.8903 0.8903
1882.000000 0.8904 0.8904 0.8904 0.8905 0.8905
1887.000000 0.8906 0.8906 0.8906 0.8906 0.8906
1892.000000 0.8906 0.8906 0.8906 0.8905 0.8905
1897.000000 0.8905 0.8905 0.8905 0.8906 0.8906
1902.000000 0.8906 0.8907 0.8907 0.8907 0.8907
1907.000000 0.8908 0.8908 0.8908 0.8909 0.8909
1912.000000 0.8909 0.8910 0.8910 0.8910 0.8910
1917.000000 0.8911 0.8911 0.8911 0.8912 0.8912
1922.000000 0.8912 0.8912 0.8913 0.8913 0.8913
1927.000000 0.8914 0.8914 0.8914 0.8915 0.8915
1932.000000 0.8915 0.8915 0.8916 0.8916 0.8916
1937.000000 0.8916 0.8916 0.8916 0.8916 0.8915
1942.000000 0.8915 0.8915 0.8915 0.8915 0.8915
1947.000000 0.8915 0.8914 0.8914 0.8914 0.8914
1952.000000 0.8914 0.8914 0.8914 0.8913 0.8913
1957.000000 0.8913 0.8913 0.8913 0.8913 0.8913
1962.000000 0.8912 0.8912 0.8913 0.8913 0.8914
1967.000000 0.8914 0.8915 0.8938 0.8916 0.8916
1972.000000 0.8916 0.8917 0.8917 0.8918 0.8918
1977.000000 0.8919 0.8919 0.8920 0.8920 0.8921
1982.000000 0.8921 0.8922 0.8922 0.8925 0.8929
1987.000000 0.8933 0.8937 0.8941 0.8945 0.8949
1992.000000 0.8953 0.8957 0.8962 0.8968 0.8973
1997.000000 0.8978 0.8984 0.8989 0.8994 0.8997
2002.000000 0.9001 0.9001 0.9000 0.9000 0.9000
2007.000000 0.9000 0.8999 0.8999 0.8998 0.8997
2012.000000 0.8996 0.8995 0.8995 0.8994 0.8993
2017.000000 0.8992 0.8991 0.8990 0.8989 0.8988
2022.000000 0.8987 0.8986 0.8986 0.8985 0.8984
2027.000000 0.8983 0.8982 0.8981 0.8980 0.8979
2032.000000 0.8978 0.8977 0.8977 0.8976 0.8976
2037.000000 0.8975 0.8975 0.8974 0.8974 0.8973
2042.000000 0.8973 0.8972 0.8972 0.8971 0.8971
2047.000000 0.8970 0.8970 0.8969 0.8969 0.8968
2052.000000 0.8968 0.8967 0.8967 0.8966 0.8966
2057.000000 0.8965 0.8965 0.8964 0.8964 0.8963
2062.000000 0.8963 0.8962 0.8962 0.8962 0.8961
2067.000000 0.8961 0.8960 0.8960 0.8960 0.8959
2072.000000 0.8959 0.8959 0.8958 0.8958 0.8957
2077.000000 0.8957 0.8957 0.8956 0.8956 0.8956
2082.000000 0.8955 0.8955 0.8954 0.8954 0.8954
2087.000000 0.8953 0.8953 0.8953 0.8952 0.8952
2092.000000 0.8951 0.8951 0.8951 0.8950 0.8950
2097.000000 0.8950 0.8949 0.8949 0.8948 0.8948
2102.000000 0.8948 0.8947 0.8947 0.8947 0.8946
2107.000000 0.8945 0.8945 0.8944 0.8944 0.8943
2112.000000 0.8943 0.8942 0.8942 0.8941 0.8941
2117.000000 0.8940 0.8940 0.8939 0.8938 0.8938
2122.000000 0.8937 0.8937 0.8936 0.8936 0.8935
2127.000000 0.8935 0.8934 0.8934 0.8933 0.8932
2132.000000 0.8932 0.8931 0.8930 0.8930 0.8929
2137.000000 0.8928 0.8928 0.8927 0.8927 0.8926
2142.000000 0.8925 0.8925 0.8924 0.8923 0.8923
2147.000000 0.8922 0.8922 0.8921 0.8920 0.8920
2152.000000 0.8919 0.8918 0.8918 0.8917 0.8916
2157.000000 0.8916 0.8915 0.8915 0.8914 0.8913
2162.000000 0.8913 0.8912 0.8911 0.8911 0.8910
2167.000000 0.8909 0.8908 0.8907 0.8906 0.8905
2172.000000 0.8904 0.8903 0.8903 0.8902 0.8901
2177.000000 0.8900 0.8899 0.8898 0.8897 0.8896
2182.000000 0.8895 0.8894 0.8894 0.8893 0.8892
2187.000000 0.8891 0.8890 0.8889 0.8888 0.8887
2192.000000 0.8886 0.8886 0.8885 0.8884 0.8883
2197.000000 0.8882 0.8881 0.8880 0.8879 0.8878
2202.000000 0.8877 0.8877 0.8876 0.8875 0.8874
2207.000000 0.8873 0.8872 0.8871 0.8870 0.8869
2212.000000 0.8869 0.8868 0.8867 0.8867 0.8866
2217.000000 0.8866 0.8865 0.8865 0.8864 0.8864
2222.000000 0.8863 0.8863 0.8862 0.8862 0.8861
2227.000000 0.8861 0.8860 0.8860 0.8859 0.8859
2232.000000 0.8858 0.8858 0.8857 0.8857 0.8856
2237.000000 0.8856 0.8855 0.8855 0.8854 0.8854
2242.000000 0.8853 0.8853 0.8852 0.8852 0.8851
2247.000000 0.8851 0.8850 0.8850 0.8849 0.8849
2252.000000 0.8848 0.8848 0.8847 0.8846 0.8846
2257.000000 0.8845 0.8844 0.8843 0.8843 0.8842
2262.000000 0.8841 0.8840 0.8839 0.8839 0.8838
2267.000000 0.8837 0.8836 0.8836 0.8835 0.8834
2272.000000 0.8833 0.8833 0.8832 0.8831 0.8830
2277.000000 0.8830 0.8829 0.8828 0.8827 0.8827
2282.000000 0.8826 0.8825 0.8824 0.8824 0.8823
2287.000000 0.8822 0.8821 0.8821 0.8820 0.8819
2292.000000 0.8818 0.8817 0.8817 0.8816 0.8815
2297.000000 0.8814 0.8813 0.8812 0.8810 0.8809
2302.000000 0.8808 0.8807 0.8806 0.8805 0.8804
2307.000000 0.8803 0.8802 0.8801 0.8799 0.8798
2312.000000 0.8797 0.8796 0.8795 0.8794 0.8793
2317.000000 0.8792 0.8791 0.8790 0.8789 0.8787
2322.000000 0.8786 0.8785 0.8784 0.8783 0.8782
2327.000000 0.8781 0.8780 0.8779 0.8778 0.8776
2332.000000 0.8775 0.8774 0.8773 0.8772 0.8771
2337.000000 0.8770 0.8769 0.8768 0.8767 0.8766
2342.000000 0.8765 0.8764 0.8763 0.8762 0.8761
2347.000000 0.8760 0.8759 0.8758 0.8757 0.8755
2352.000000 0.8754 0.8753 0.8752 0.8750 0.8748
2357.000000 0.8746 0.8744 0.8742 0.8740 0.8738
2362.000000 0.8736 0.8734 0.8732 0.8730 0.8727
2367.000000 0.8725 0.8723 0.8721 0.8719 0.8717
2372.000000 0.8716 0.8715 0.8713 0.8712 0.8711
2377.000000 0.8709 0.8708 0.8707 0.8706 0.8704
2382.000000 0.8703 0.8702 0.8701 0.8699 0.8698
2387.000000 0.8697 0.8696 0.8694 0.8693 0.8692
2392.000000 0.8691 0.8689 0.8688 0.8687 0.8686
2397.000000 0.8684 0.8683 0.8682 0.8681 0.8679
2402.000000 0.8678 0.8677 0.8677 0.8677 0.8677
2407.000000 0.8677 0.8677 0.8677 0.8677 0.8677
2412.000000 0.8677 0.8677 0.8676 0.8676 0.8676
2417.000000 0.8676 0.8676 0.8676 0.8676 0.8676
2422.000000 0.8676 0.8676 0.8675 0.8675 0.8674
2427.000000 0.8674 0.8673 0.8673 0.8672 0.8672
2432.000000 0.8671 0.8671 0.8671 0.8670 0.8670
2437.000000 0.8669 0.8669 0.8668 0.8668 0.8667
2442.000000 0.8667 0.8666 0.8666 0.8666 0.8665
2447.000000 0.8665 0.8664 0.8664 0.8663 0.8663
2452.000000 0.8662 0.8662 0.8661 0.8661 0.8661
2457.000000 0.8660 0.8660 0.8659 0.8659 0.8658
2462.000000 0.8659 0.8659 0.8659 0.8659 0.8659
2467.000000 0.8659 0.8659 0.8659 0.8660 0.8660
2472.000000 0.8660 0.8660 0.8660 0.8660 0.8660
2477.000000 0.8661 0.8661 0.8661 0.8661 0.8661
2482.000000 0.8661 0.8661 0.8661 0.8662 0.8661
2487.000000 0.8660 0.8660 0.8659 0.8658 0.8657
2492.000000 0.8656 0.8655 0.8652 0.8650 0.8648
2497.000000 0.8646 0.8644 0.8641 0.8639 0.8636
2502.000000 0.8634 0.8631 0.8629 0.8626 0.8624
2507.000000 0.8621 0.8619 0.8616 0.8614 0.8611
2512.000000 0.8609 0.8606 0.8604 0.8601 0.8599
2517.000000 0.8596 0.8594 0.8591 0.8589 0.8586
2522.000000 0.8583 0.8580 0.8578 0.8575 0.8572
2527.000000 0.8569 0.8566 0.8563 0.8561 0.8558
2532.000000 0.8555 0.8552 0.8549 0.8546 0.8544
2537.000000 0.8541 0.8538 0.8535 0.8532 0.8529
2542.000000 0.8527 0.8524 0.8521 0.8518 0.8515
2547.000000 0.8512 0.8510 0.8507 0.8504 0.8502
2552.000000 0.8501 0.8499 0.8498 0.8497 0.8496
2557.000000 0.8494 0.8493 0.8492 0.8490 0.8489
2562.000000 0.8488 0.8487 0.8485 0.8484 0.8483
2567.000000 0.8482 0.8480 0.8479 0.8478 0.8477
2572.000000 0.8475 0.8473 0.8472 0.8470 0.8468
2577.000000 0.8467 0.8465 0.8464 0.8462 0.8460
2582.000000 0.8459 0.8457 0.8455 0.8454 0.8452
2587.000000 0.8451 0.8449 0.8447 0.8446 0.8444
2592.000000 0.8442 0.8441 0.8439 0.8437 0.8436
2597.000000 0.8434 0.8433 0.8431 0.8429 0.8427
2602.000000 0.8425 0.8423 0.8421 0.8419 0.8417
2607.000000 0.8415 0.8413 0.8411 0.8409 0.8407
2612.000000 0.8405 0.8403 0.8401 0.8399 0.8397
2617.000000 0.8395 0.8393 0.8391 0.8389 0.8387
2622.000000 0.8385 0.8383 0.8381 0.8379 0.8377
2627.000000 0.8375 0.8373 0.8371 0.8369 0.8367
2632.000000 0.8365 0.8363 0.8361 0.8359 0.8357
2637.000000 0.8355 0.8352 0.8350 0.8348 0.8346
2642.000000 0.8344 0.8342 0.8340 0.8338 0.8336
2647.000000 0.8334 0.8332 0.8330 0.8328 0.8326
2652.000000 0.8324 0.8322 0.8319 0.8317 0.8315
2657.000000 0.8313 0.8311 0.8309 0.8307 0.8305
2662.000000 0.8303 0.8301 0.8299 0.8297 0.8295
2667.000000 0.8293 0.8291 0.8289 0.8287 0.8284
2672.000000 0.8281 0.8278 0.8275 0.8272 0.8270
2677.000000 0.8267 0.8264 0.8261 0.8258 0.8256
2682.000000 0.8253 0.8250 0.8247 0.8244 0.8241
2687.000000 0.8239 0.8236 0.8233 0.8230 0.8227
2692.000000 0.8222 0.8217 0.8212 0.8207 0.8202
2697.000000 0.8197 0.8192 0.8187 0.8182 0.8177
2702.000000 0.8172 0.8167 0.8162 0.8157 0.8152
2707.000000 0.8147 0.8142 0.8137 0.8132 0.8127
2712.000000 0.8122 0.8115 0.8108 0.8101 0.8094
2717.000000 0.8086 0.8079 0.8072 0.8065 0.8057
2722.000000 0.8050 0.8043 0.8036 0.8028 0.8021
2727.000000 0.8014 0.8004 0.7995 0.7986 0.7977
2732.000000 0.7968 0.7959 0.7950 0.7941 0.7932
2737.000000 0.7923 0.7914 0.7903 0.7890 0.7878
2742.000000 0.7865 0.7853 0.7840 0.7828 0.7815
2747.000000 0.7803 0.7790 0.7777 0.7765 0.7752
2752.000000 0.7740 0.7726 0.7712 0.7698 0.7683
2757.000000 0.7669 0.7655 0.7641 0.7626 0.7612
2762.000000 0.7598 0.7584 0.7568 0.7552 0.7537
2767.000000 0.7521 0.7505 0.7481 0.7457 0.7432
2772.000000 0.7407 0.7382 0.7358 0.7334 0.7310
2777.000000 0.7286 0.7262 0.7238 0.7214 0.7190
2782.000000 0.7163 0.7136 0.7109 0.7083 0.7056
2787.000000 0.7032 0.7010 0.6988 0.6967 0.6945
2792.000000 0.6923 0.6905 0.6892 0.6878 0.6865
2797.000000 0.6852 0.6838 0.6825 0.6811 0.6804
2802.000000 0.6804 0.6806 0.6811 0.6781 0.6821
2807.000000 0.6828 0.6837 0.6845 0.6853 0.6862
2812.000000 0.6872 0.6890 0.6909 0.6927 0.6946
2817.000000 0.6967 0.6987 0.7008 0.7033 0.7063
2822.000000 0.7093 0.7124 0.7150 0.7177 0.7203
2827.000000 0.7230 0.7256 0.7286 0.7318 0.7349
2832.000000 0.7377 0.7395 0.7413 0.7426 0.7423
2837.000000 0.7419 0.7416 0.7405 0.7393 0.7376
2842.000000 0.7368 0.7356 0.7344 0.7328 0.7312
2847.000000 0.7296 0.7280 0.7264 0.7247 0.7226
2852.000000 0.7205 0.7184 0.7163 0.7142 0.7121
2857.000000 0.7098 0.7075 0.7061 0.7061 0.7061
2862.000000 0.7062 0.7062 0.7067 0.7072 0.7078
2867.000000 0.7083 0.7022 0.7094 0.7102 0.7110
2872.000000 0.7118 0.7126 0.7133 0.7143 0.7155
2877.000000 0.7167 0.7178 0.7185 0.7193 0.7201
2882.000000 0.7208 0.7214 0.7220 0.7225 0.7231
2887.000000 0.7231 0.7224 0.7213 0.7201 0.7188
2892.000000 0.7174 0.7160 0.7147 0.7131 0.7114
2897.000000 0.7097 0.7080 0.7063 0.7044 0.7021
2902.000000 0.6998 0.6974 0.6955 0.6937 0.6918
2907.000000 0.6899 0.6881 0.6862 0.6843 0.6823
2912.000000 0.6802 0.6781 0.6760 0.6738 0.6717
2917.000000 0.6700 0.6683 0.6666 0.6649 0.6632
2922.000000 0.6615 0.6598 0.6583 0.6569 0.6555
2927.000000 0.6540 0.6526 0.6512 0.6498 0.6484
2932.000000 0.6472 0.6466 0.6459 0.6453 0.6446
2937.000000 0.6440 0.6433 0.6431 0.6431 0.6432
2942.000000 0.6431 0.6430 0.6429 0.6420 0.6410
2947.000000 0.6401 0.6391 0.6382 0.6368 0.6349
2952.000000 0.6330 0.6312 0.6288 0.6262 0.6236
2957.000000 0.6210 0.6188 0.6169 0.6149 0.6130
2962.000000 0.6111 0.6091 0.6077 0.6066 0.6054
2967.000000 0.6045 0.6044 0.6043 0.6043 0.6043
2972.000000 0.6043 0.6034 0.6019 0.6004 0.5989
2977.000000 0.5972 0.5950 0.5928 0.5906 0.5888
2982.000000 0.5871 0.5854 0.5837 0.5819 0.5798
2987.000000 0.5775 0.5753 0.5730 0.5707 0.5689
2992.000000 0.5670 0.5652 0.5633 0.5615 0.5596
2997.000000 0.5578 0.5560 0.5542 0.5524 0.5507
3002.000000 0.5499 0.5492 0.5485 0.5479 0.5472
3007.000000 0.5466 0.5459 0.5458 0.5458 0.5459
3012.000000 0.5459 0.5459 0.5460 0.5462 0.5465
3017.000000 0.5468 0.5466 0.5463 0.5460 0.5457
3022.000000 0.5454 0.5451 0.5441 0.5429 0.5417
3027.000000 0.5405 0.5393 0.5384 0.5374 0.5365
3032.000000 0.5363 0.5351 0.5361 0.5362 0.5371
3037.000000 0.5381 0.5390 0.5400 0.5409 0.5419
3042.000000 0.5428 0.5439 0.5450 0.5462 0.5473
3047.000000 0.5484 0.5495 0.5514 0.5543 0.5572
3052.000000 0.5599 0.5623 0.5648 0.5665 0.5680
3057.000000 0.5695 0.5710 0.5725 0.5740 0.5759
3062.000000 0.5778 0.5797 0.5810 0.5816 0.5822
3067.000000 0.5828 0.5828 0.5827 0.5849 0.5824
3072.000000 0.5819 0.5814 0.5809 0.5804 0.5798
3077.000000 0.5792 0.5786 0.5780 0.5774 0.5768
3082.000000 0.5759 0.5751 0.5742 0.5733 0.5724
3087.000000 0.5715 0.5706 0.5695 0.5684 0.5673
3092.000000 0.5662 0.5650 0.5637 0.5623 0.5612
3097.000000 0.5614 0.5557 0.5632 0.5645 0.5658
3102.000000 0.5672 0.5686 0.5704 0.5723 0.5742
3107.000000 0.5761 0.5779 0.5797 0.5815 0.5830
3112.000000 0.5841 0.5851 0.5862 0.5873 0.5883
3117.000000 0.5894 0.5902 0.5906 0.5911 0.5915
3122.000000 0.5920 0.5924 0.5929 0.5933 0.5937
3127.000000 0.5940 0.5941 0.5942 0.5943 0.5944
3132.000000 0.5955 0.5969 0.5985 0.6002 0.6019
3137.000000 0.6023 0.6022 0.6022 0.6021 0.6021
3142.000000 0.6014 0.6006 0.5998 0.5978 0.5955
3147.000000 0.5925 0.5914 0.5906 0.5898 0.5895
3152.000000 0.5893 0.5891 0.5889 0.5887 0.5885
3157.000000 0.5883 0.5881 0.5880 0.5881 0.5882
3162.000000 0.5882 0.5883 0.5884 0.5884 0.5885
3167.000000 0.5886 0.5887 0.5889 0.5907 0.5892
3172.000000 0.5894 0.5896 0.5898 0.5900 0.5902
3177.000000 0.5904 0.5906 0.5911 0.5916 0.5921
3182.000000 0.5926 0.5931 0.5936 0.5940 0.5945
3187.000000 0.5950 0.5956 0.5962 0.5969 0.5975
3192.000000 0.5982 0.5988 0.5994 0.6001 0.6007
3197.000000 0.6014 0.6020 0.6026 0.6033 0.6039
3202.000000 0.6045 0.6049 0.6053 0.6056 0.6060
3207.000000 0.6064 0.6068 0.6072 0.6076 0.6077
3212.000000 0.6077 0.6076 0.6076 0.6075 0.6074
3217.000000 0.6074 0.6073 0.6073 0.6071 0.6066
3222.000000 0.6061 0.6056 0.6051 0.6046 0.6041
3227.000000 0.6035 0.6025 0.6015 0.6005 0.5995
3232.000000 0.5985 0.5975 0.5965 0.5956 0.5939
3237.000000 0.5922 0.5905 0.5889 0.5872 0.5855
3242.000000 0.5838 0.5821 0.5801 0.5777 0.5752
3247.000000 0.5728 0.5704 0.5679 0.5655 0.5630
3252.000000 0.5606 0.5578 0.5541 0.5503 0.5466
3257.000000 0.5430 0.5403 0.5376 0.5348 0.5321
3262.000000 0.5294 0.5267 0.5239 0.5212 0.5186
3267.000000 0.5161 0.5137 0.5112 0.5088 0.5064
3272.000000 0.5039 0.5015 0.4990 0.4966 0.4941
3277.000000 0.4908 0.4872 0.4837 0.4801 0.4766
3282.000000 0.4730 0.4695 0.4652 0.4605 0.4558
3287.000000 0.4510 0.4467 0.4431 0.4395 0.4359
3292.000000 0.4323 0.4286 0.4250 0.4214 0.4182
3297.000000 0.4151 0.4121 0.4090 0.4059 0.4029
3302.000000 0.3998 0.3968 0.3937 0.3904 0.3869
3307.000000 0.3835 0.3801 0.3783 0.3764 0.3745
3312.000000 0.3727 0.3715 0.3706 0.3697 0.3687
3317.000000 0.3678 0.3676 0.3678 0.3672 0.3682
3322.000000 0.3691 0.3700 0.3710 0.3729 0.3749
3327.000000 0.3778 0.3813 0.3847 0.3882 0.3917
3332.000000 0.3951 0.3986 0.4019 0.4052 0.4085
3337.000000 0.4119 0.4154 0.4190 0.4226 0.4262
3342.000000 0.4298 0.4332 0.4365 0.4399 0.4432
3347.000000 0.4465 0.4498 0.4532 0.4565 0.4599
3352.000000 0.4633 0.4667 0.4701 0.4735 0.4768
3357.000000 0.4802 0.4830 0.4858 0.4886 0.4914
3362.000000 0.4943 0.4971 0.4999 0.5024 0.5049
3367.000000 0.5074 0.5099 0.5124 0.5148 0.5173
3372.000000 0.5198 0.5223 0.5248 0.5273 0.5298
3377.000000 0.5323 0.5348 0.5373 0.5398 0.5423
3382.000000 0.5448 0.5473 0.5502 0.5531 0.5561
3387.000000 0.5590 0.5620 0.5650 0.5681 0.5712
3392.000000 0.5744 0.5775 0.5807 0.5838 0.5870
3397.000000 0.5901 0.5931 0.5960 0.5990 0.6019
3402.000000 0.6049 0.6078 0.6107 0.6137 0.6166
3407.000000 0.6196 0.6222 0.6245 0.6268 0.6291
3412.000000 0.6314 0.6336 0.6350 0.6364 0.6378
3417.000000 0.6393 0.6407 0.6421 0.6436 0.6453
3422.000000 0.6470 0.6487 0.6504 0.6521 0.6538
3427.000000 0.6552 0.6565 0.6578 0.6591 0.6605
3432.000000 0.6618 0.6631 0.6645 0.6658 0.6672
3437.000000 0.6685 0.6696 0.6706 0.6716 0.6726
3442.000000 0.6736 0.6747 0.6757 0.6767 0.6775
3447.000000 0.6782 0.6789 0.6796 0.6803 0.6809
3452.000000 0.6816 0.6823 0.6830 0.6836 0.6843
3457.000000 0.6850 0.6857 0.6864 0.6870 0.6876
3462.000000 0.6883 0.6889 0.6896 0.6902 0.6908
3467.000000 0.6915 0.6921 0.6928 0.6934 0.6940
3472.000000 0.6947 0.6953 0.6959 0.6965 0.6971
3477.000000 0.6976 0.6982 0.6988 0.6994 0.7000
3482.000000 0.7006 0.7012 0.7017 0.7023 0.7029
3487.000000 0.7035 0.7041 0.7047 0.7052 0.7060
3492.000000 0.7067 0.7074 0.7081 0.7088 0.7096
3497.000000 0.7103 0.7110 0.7117 0.7125 0.7132
3502.000000 0.7141 0.7151 0.7161 0.7171 0.7181
3507.000000 0.7191 0.7201 0.7213 0.7227 0.7241
3512.000000 0.7254 0.7268 0.7281 0.7295 0.7308
3517.000000 0.7322 0.7342 0.7359 0.7367 0.7375
3522.000000 0.7383 0.7390 0.7398 0.7406 0.7414
3527.000000 0.7421 0.7429 0.7437 0.7442 0.7446
3532.000000 0.7451 0.7455 0.7460 0.7464 0.7470
3537.000000 0.7492 0.7515 0.7538 0.7557 0.7573
3542.000000 0.7590 0.7606 0.7623 0.7635 0.7644
3547.000000 0.7653 0.7662 0.7672 0.7681 0.7690
3552.000000 0.7699 0.7709 0.7717 0.7724 0.7732
3557.000000 0.7739 0.7747 0.7754 0.7762 0.7769
3562.000000 0.7775 0.7781 0.7786 0.7792 0.7797
3567.000000 0.7802 0.7810 0.7818 0.7826 0.7852
3572.000000 0.7899 0.7930 0.7947 0.7955 0.7963
3577.000000 0.7971 0.7979 0.7988 0.7997 0.8007
3582.000000 0.8016 0.8026 0.8035 0.8045 0.8054
3587.000000 0.8065 0.8075 0.8086 0.8097 0.8107
3592.000000 0.8118 0.8128 0.8139 0.8150 0.8161
3597.000000 0.8172 0.8183 0.8194 0.8205 0.8217
3602.000000 0.8228 0.8239 0.8251 0.8263 0.8276
3607.000000 0.8288 0.8300 0.8313 0.8325 0.8338
3612.000000 0.8352 0.8366 0.8380 0.8394 0.8408
3617.000000 0.8420 0.8428 0.8437 0.8445 0.8453
3622.000000 0.8462 0.8470 0.8478 0.8487 0.8494
3627.000000 0.8499 0.8503 0.8507 0.8512 0.8516
3632.000000 0.8520 0.8525 0.8529 0.8533 0.8537
3637.000000 0.8540 0.8543 0.8546 0.8550 0.8553
3642.000000 0.8556 0.8559 0.8562 0.8565 0.8568
3647.000000 0.8571 0.8574 0.8577 0.8579 0.8581
3652.000000 0.8583 0.8585 0.8587 0.8588 0.8590
3657.000000 0.8592 0.8594 0.8596 0.8598 0.8600
3662.000000 0.8602 0.8604 0.8606 0.8607 0.8609
3667.000000 0.8611 0.8613 0.8614 0.8615 0.8617
3672.000000 0.8618 0.8620 0.8621 0.8622 0.8624
3677.000000 0.8625 0.8627 0.8628 0.8629 0.8631
3682.000000 0.8632 0.8634 0.8635 0.8637 0.8637
3687.000000 0.8637 0.8637 0.8637 0.8637 0.8637
3692.000000 0.8637 0.8638 0.8638 0.8638 0.8638
3697.000000 0.8638 0.8638 0.8638 0.8639 0.8639
3702.000000 0.8639 0.8639 0.8639 0.8639 0.8639
3707.000000 0.8639 0.8640 0.8640 0.8640 0.8639
3712.000000 0.8639 0.8638 0.8638 0.8637 0.8637
3717.000000 0.8636 0.8636 0.8635 0.8634 0.8634
3722.000000 0.8633 0.8633 0.8632 0.8632 0.8631
3727.000000 0.8631 0.8630 0.8630 0.8629 0.8628
3732.000000 0.8627 0.8626 0.8625 0.8624 0.8623
3737.000000 0.8622 0.8621 0.8620 0.8619 0.8618
3742.000000 0.8616 0.8615 0.8614 0.8613 0.8612
3747.000000 0.8611 0.8610 0.8609 0.8608 0.8607
3752.000000 0.8606 0.8605 0.8604 0.8603 0.8602
3757.000000 0.8601 0.8600 0.8599 0.8598 0.8597
3762.000000 0.8596 0.8595 0.8594 0.8594 0.8593
3767.000000 0.8592 0.8591 0.8590 0.8590 0.8589
3772.000000 0.8588 0.8587 0.8586 0.8585 0.8585
3777.000000 0.8584 0.8583 0.8582 0.8581 0.8581
3782.000000 0.8580 0.8579 0.8578 0.8577 0.8577
3787.000000 0.8576 0.8575 0.8574 0.8573 0.8573
3792.000000 0.8572 0.8571 0.8571 0.8570 0.8570
3797.000000 0.8569 0.8569 0.8569 0.8568 0.8568
3802.000000 0.8567 0.8567 0.8567 0.8566 0.8566
3807.000000 0.8565 0.8565 0.8565 0.8564 0.8564
3812.000000 0.8563 0.8563 0.8563 0.8562 0.8562
3817.000000 0.8561 0.8561 0.8561 0.8560 0.8560
3822.000000 0.8559 0.8559 0.8559 0.8558 0.8558
3827.000000 0.8557 0.8557 0.8557 0.8556 0.8556
3832.000000 0.8555 0.8555 0.8555 0.8554 0.8554
3837.000000 0.8553 0.8553 0.8548 0.8552 0.8552
3842.000000 0.8551 0.8551 0.8550 0.8550 0.8549
3847.000000 0.8549 0.8548 0.8548 0.8547 0.8546
3852.000000 0.8546 0.8545 0.8545 0.8544 0.8543
3857.000000 0.8543 0.8542 0.8542 0.8541 0.8541
3862.000000 0.8540 0.8539 0.8539 0.8538 0.8538
3867.000000 0.8537 0.8537 0.8537 0.8537 0.8538
3872.000000 0.8538 0.8538 0.8539 0.8539 0.8539
3877.000000 0.8539 0.8540 0.8540 0.8540 0.8541
3882.000000 0.8541 0.8541 0.8541 0.8542 0.8542
3887.000000 0.8542 0.8543 0.8543 0.8543 0.8544
3892.000000 0.8544 0.8544 0.8544 0.8545 0.8545
3897.000000 0.8545 0.8545 0.8544 0.8543 0.8542
3902.000000 0.8542 0.8541 0.8540 0.8539 0.8539
3907.000000 0.8538 0.8537 0.8536 0.8536 0.8535
3912.000000 0.8534 0.8533 0.8533 0.8532 0.8531
3917.000000 0.8530 0.8530 0.8529 0.8528 0.8527
3922.000000 0.8527 0.8526 0.8525 0.8525 0.8524
3927.000000 0.8524 0.8524 0.8523 0.8523 0.8523
3932.000000 0.8522 0.8522 0.8522 0.8521 0.8521
3937.000000 0.8521 0.8520 0.8520 0.8519 0.8519
3942.000000 0.8519 0.8518 0.8518 0.8518 0.8517
3947.000000 0.8517 0.8517 0.8516 0.8516 0.8516
3952.000000 0.8516 0.8517 0.8517 0.8517 0.8517
3957.000000 0.8517 0.8517 0.8517 0.8517 0.8517
3962.000000 0.8517 0.8517 0.8517 0.8518 0.8518
3967.000000 0.8518 0.8518 0.8517 0.8516 0.8515
3972.000000 0.8514 0.8513 0.8513 0.8512 0.8511
3977.000000 0.8510 0.8509 0.8509 0.8509 0.8509
3982.000000 0.8509 0.8509 0.8509 0.8509 0.8509
3987.000000 0.8510 0.8510 0.8510 0.8510 0.8510
3992.000000 0.8510 0.8510 0.8510 0.8510 0.8510
3997.000000 0.8511 0.8511 0.8511 0.8511
##END=
