##TITLE=METHYLAMINE, 1-p-CHLOROPHENYL-1-PHENYL-, HYDROCHLORIDE
##JCAMP-DX=4.24
##DATA TYPE=INFRARED SPECTRUM
##CLASS=COBLENTZ III
##ORIGIN=DOW CHEMICAL COMPANY
##OWNER=COBLENTZ SOC.
Collection (C) 2018 copyright by the U.S. Secretary of Commerce
on behalf of the United States of America. All rights reserved.
##DATE=1967/06/22
##NAMES=(4-chlorophenyl)(phenyl)methanamine hydrochloride
##MOLFORM=C13 H13 Cl2 N
##SOURCE REFERENCE=COBLENTZ NO. 07521
##$NIST ID=B6007521
##$NIST SOURCE=COBLENTZ
##$NIST IMAGE=cob7521
##SPECTROMETER/DATA SYSTEM=BECKMAN IR-9 (GRATING)
##INSTRUMENT PARAMETERS=ORDER CHANGES: 670, 1200, 2000 CM^-^1
##STATE=SOLID (SPLIT MULL), FLUOROLUBE FOR 3800-1330 CM^-^1, NUJOL FOR 1330-400 CM^-^1
##SAMPLING PROCEDURE=TRANSMISSION
##RESOLUTION=2
##DATA PROCESSING=DIGITIZED BY COBLENTZ SOCIETY (BATCH I) FROM HARD COPY
##XUNITS=1/CM
##YUNITS=TRANSMITTANCE
##XLABEL=Wavenumbers (cm-1)
##YLABEL=% Transmission
##XFACTOR=1
##YFACTOR=1
##DELTAX=1
##FIRSTX=405
##LASTX=3796
##FIRSTY=0.5586
##MAXX=3796
##MINX=405
##MAXY=0.8778
##MINY=0.0822
##NPOINTS=3392
##XYDATA=(X++(Y..Y))
405.000000 0.5586 0.5585 0.5584 0.5587 0.5612
410.000000 0.5649 0.5683 0.5721 0.5766 0.5810
415.000000 0.5864 0.5926 0.5989 0.6054 0.6137
420.000000 0.6219 0.6303 0.6399 0.6496 0.6588
425.000000 0.6665 0.6743 0.6805 0.6845 0.6884
430.000000 0.6924 0.6964 0.7003 0.7043 0.7082
435.000000 0.7121 0.7164 0.7207 0.7250 0.7292
440.000000 0.7335 0.7376 0.7419 0.7461 0.7504
445.000000 0.7547 0.7584 0.7607 0.7630 0.7651
450.000000 0.7675 0.7690 0.7692 0.7695 0.7698
455.000000 0.7701 0.7721 0.7751 0.7793 0.7833
460.000000 0.7868 0.7898 0.7926 0.7956 0.7986
465.000000 0.7995 0.8003 0.8010 0.8015 0.8012
470.000000 0.8011 0.8008 0.8001 0.8042 0.7989
475.000000 0.7968 0.7946 0.7891 0.7645 0.7258
480.000000 0.6871 0.6484 0.6198 0.6198 0.6212
485.000000 0.6968 0.7425 0.7634 0.7707 0.7778
490.000000 0.7837 0.7890 0.7939 0.7971 0.8004
495.000000 0.8037 0.8068 0.8101 0.8128 0.8148
500.000000 0.8167 0.8187 0.8206 0.8225 0.8241
505.000000 0.8256 0.8271 0.8286 0.8301 0.8316
510.000000 0.8331 0.8341 0.8349 0.8357 0.8365
515.000000 0.8374 0.8382 0.8388 0.8387 0.8388
520.000000 0.8387 0.8387 0.8380 0.8374 0.8367
525.000000 0.8357 0.8345 0.8332 0.8320 0.8302
530.000000 0.8273 0.8243 0.8213 0.8158 0.8103
535.000000 0.8047 0.7982 0.7889 0.7698 0.7100
540.000000 0.6475 0.5849 0.5223 0.4597 0.3971
545.000000 0.3345 0.2719 0.2094 0.1944 0.1979
550.000000 0.2595 0.3605 0.4615 0.5625 0.6636
555.000000 0.7425 0.7686 0.7878 0.8050 0.8122
560.000000 0.8187 0.8251 0.8296 0.8341 0.8386
565.000000 0.8421 0.8450 0.8475 0.8492 0.8508
570.000000 0.8524 0.8540 0.8554 0.8561 0.8567
575.000000 0.8574 0.8580 0.8587 0.8610 0.8636
580.000000 0.8663 0.8680 0.8691 0.8677 0.8670
585.000000 0.8654 0.8637 0.8628 0.8628 0.8628
590.000000 0.8646 0.8674 0.8709 0.8750 0.8754
595.000000 0.8754 0.8753 0.8761 0.8747 0.8743
600.000000 0.8721 0.8692 0.8653 0.8586 0.8506
605.000000 0.8427 0.7798 0.6143 0.4590 0.4605
610.000000 0.6074 0.7555 0.8187 0.8208 0.8230
615.000000 0.8265 0.8340 0.8466 0.8606 0.8671
620.000000 0.8711 0.8736 0.8761 0.8739 0.8740
625.000000 0.8740 0.8739 0.8728 0.8712 0.8691
630.000000 0.8654 0.8627 0.8602 0.8589 0.8584
635.000000 0.8582 0.8582 0.8582 0.8584 0.8590
640.000000 0.8605 0.8616 0.8634 0.8652 0.8666
645.000000 0.8674 0.8678 0.8695 0.8682 0.8681
650.000000 0.8678 0.8677 0.8675 0.8668 0.8660
655.000000 0.8653 0.8641 0.8621 0.8603 0.8585
660.000000 0.8567 0.8536 0.8497 0.8458 0.8405
665.000000 0.8356 0.8351 0.8338 0.8317 0.8283
670.000000 0.8190 0.7895 0.7496 0.7265 0.7204
675.000000 0.7111 0.7021 0.6991 0.6992 0.6976
680.000000 0.7855 0.8342 0.8336 0.8317 0.8317
685.000000 0.8316 0.8294 0.8245 0.8183 0.7705
690.000000 0.6976 0.6249 0.5521 0.4527 0.3705
695.000000 0.2884 0.2063 0.1242 0.0825 0.0826
700.000000 0.0822 0.1421 0.2123 0.2826 0.3528
705.000000 0.4231 0.4933 0.5635 0.6338 0.7040
710.000000 0.7399 0.7397 0.7396 0.6934 0.6599
715.000000 0.6264 0.5928 0.5593 0.5482 0.5488
720.000000 0.6462 0.6856 0.6899 0.6942 0.6981
725.000000 0.7018 0.7050 0.7083 0.7108 0.7133
730.000000 0.7158 0.7175 0.7193 0.7201 0.7201
735.000000 0.7201 0.7199 0.7194 0.7178 0.7126
740.000000 0.7075 0.7054 0.7050 0.7050 0.7050
745.000000 0.6868 0.6792 0.6806 0.6833 0.6940
750.000000 0.7028 0.7024 0.7019 0.6998 0.6267
755.000000 0.5656 0.5045 0.4434 0.3824 0.3212
760.000000 0.2602 0.2566 0.3029 0.3784 0.4539
765.000000 0.5294 0.6048 0.6442 0.6453 0.5762
770.000000 0.4699 0.3634 0.2571 0.2387 0.2598
775.000000 0.2398 0.4357 0.5236 0.6115 0.6775
780.000000 0.7531 0.7672 0.7828 0.7867 0.7906
785.000000 0.7947 0.8008 0.8065 0.8103 0.8112
790.000000 0.8122 0.8125 0.8128 0.8110 0.8132
795.000000 0.8125 0.8119 0.8110 0.8090 0.8026
800.000000 0.7972 0.7974 0.7974 0.7974 0.7997
805.000000 0.8034 0.8075 0.8111 0.8150 0.8178
810.000000 0.8202 0.8213 0.8208 0.8225 0.8189
815.000000 0.8174 0.7776 0.7482 0.7475 0.7524
820.000000 0.7590 0.7656 0.7711 0.7701 0.7691
825.000000 0.7678 0.7592 0.7454 0.6262 0.4695
830.000000 0.4693 0.4693 0.5112 0.5386 0.5354
835.000000 0.5419 0.4219 0.3656 0.3656 0.3659
840.000000 0.4984 0.6129 0.7364 0.7618 0.7808
845.000000 0.7898 0.7989 0.8069 0.8146 0.8188
850.000000 0.8215 0.8232 0.8248 0.8263 0.8275
855.000000 0.8284 0.8292 0.8299 0.8303 0.8334
860.000000 0.8312 0.8311 0.8310 0.8309 0.8307
865.000000 0.8306 0.8304 0.8303 0.8301 0.8299
870.000000 0.8297 0.8292 0.8287 0.8282 0.8277
875.000000 0.8275 0.8273 0.8271 0.8268 0.8267
880.000000 0.8265 0.8262 0.8259 0.8252 0.8236
885.000000 0.8218 0.8210 0.8201 0.8192 0.8184
890.000000 0.8175 0.8174 0.8180 0.8186 0.8192
895.000000 0.8196 0.8200 0.8204 0.8206 0.8207
900.000000 0.8209 0.8210 0.8210 0.8209 0.8208
905.000000 0.8207 0.8206 0.8205 0.8199 0.8193
910.000000 0.8187 0.8181 0.8175 0.8162 0.8147
915.000000 0.8132 0.7987 0.7780 0.7578 0.7686
920.000000 0.7590 0.7954 0.8065 0.8095 0.8135
925.000000 0.8168 0.8195 0.8230 0.8243 0.8248
930.000000 0.8249 0.8249 0.8249 0.8243 0.8236
935.000000 0.8228 0.8221 0.8198 0.8200 0.8190
940.000000 0.8184 0.8185 0.8186 0.8188 0.8191
945.000000 0.8193 0.8194 0.8195 0.8196 0.8197
950.000000 0.8198 0.8199 0.8199 0.8199 0.8200
955.000000 0.8200 0.8200 0.8195 0.8182 0.8168
960.000000 0.8151 0.8136 0.8119 0.8104 0.8088
965.000000 0.8071 0.8056 0.8040 0.7883 0.7618
970.000000 0.7356 0.7253 0.7496 0.7756 0.7882
975.000000 0.7903 0.7911 0.7915 0.7915 0.7903
980.000000 0.7891 0.7807 0.7647 0.7436 0.7225
985.000000 0.7015 0.6806 0.6798 0.6825 0.6988
990.000000 0.7100 0.7169 0.7240 0.7349 0.7468
995.000000 0.7588 0.7708 0.7849 0.7821 0.7501
1000.000000 0.7184 0.7039 0.7110 0.7054 0.7344
1005.000000 0.7446 0.7448 0.6868 0.7471 0.4812
1010.000000 0.3786 0.2758 0.2597 0.2585 0.4487
1015.000000 0.5977 0.7467 0.7799 0.7934 0.7994
1020.000000 0.7995 0.8014 0.7984 0.7951 0.7872
1025.000000 0.7668 0.7431 0.7194 0.6961 0.7076
1030.000000 0.7292 0.6948 0.7541 0.7595 0.7649
1035.000000 0.7739 0.7819 0.7881 0.7933 0.7984
1040.000000 0.8043 0.8090 0.8117 0.8136 0.8145
1045.000000 0.8153 0.8161 0.8167 0.8165 0.8165
1050.000000 0.8168 0.8154 0.8144 0.8135 0.8124
1055.000000 0.8103 0.8083 0.8058 0.8032 0.8006
1060.000000 0.7971 0.7933 0.7889 0.7799 0.7708
1065.000000 0.7618 0.7524 0.7391 0.7255 0.6990
1070.000000 0.6700 0.6410 0.6120 0.6045 0.6053
1075.000000 0.6408 0.6664 0.6919 0.7030 0.7046
1080.000000 0.6537 0.6047 0.5557 0.5067 0.4577
1085.000000 0.4087 0.3597 0.3107 0.2933 0.2933
1090.000000 0.3436 0.4056 0.4675 0.4872 0.4951
1095.000000 0.5055 0.5170 0.5319 0.5868 0.6052
1100.000000 0.6356 0.6561 0.6686 0.6811 0.6978
1105.000000 0.7082 0.7176 0.7278 0.7383 0.7483
1110.000000 0.7575 0.7646 0.7691 0.7735 0.7738
1115.000000 0.7740 0.7742 0.7743 0.7742 0.7741
1120.000000 0.7740 0.7737 0.7725 0.7712 0.7630
1125.000000 0.7511 0.7393 0.7275 0.7157 0.7108
1130.000000 0.7086 0.7365 0.7611 0.7697 0.7742
1135.000000 0.7781 0.7811 0.7835 0.7853 0.7864
1140.000000 0.7869 0.7868 0.7854 0.7865 0.7864
1145.000000 0.7861 0.7851 0.7832 0.7808 0.7783
1150.000000 0.7755 0.7725 0.7675 0.7544 0.7361
1155.000000 0.7178 0.7065 0.7060 0.7132 0.7356
1160.000000 0.7578 0.7649 0.7698 0.7728 0.7728
1165.000000 0.7728 0.7730 0.7733 0.7748 0.7736
1170.000000 0.7737 0.7737 0.7736 0.7735 0.7735
1175.000000 0.7711 0.7686 0.7610 0.7518 0.7433
1180.000000 0.7367 0.7321 0.7258 0.7180 0.7074
1185.000000 0.6801 0.6360 0.6200 0.6040 0.5879
1190.000000 0.5718 0.5687 0.6029 0.6286 0.6542
1195.000000 0.6798 0.7054 0.7368 0.7348 0.7160
1200.000000 0.6825 0.6490 0.6318 0.6767 0.6291
1205.000000 0.7512 0.7583 0.7654 0.7755 0.7844
1210.000000 0.7881 0.7917 0.7945 0.7969 0.7994
1215.000000 0.8012 0.8028 0.8044 0.8051 0.8058
1220.000000 0.8058 0.8049 0.8039 0.8030 0.8030
1225.000000 0.8030 0.8035 0.8041 0.8050 0.8058
1230.000000 0.8065 0.8075 0.8084 0.8088 0.8089
1235.000000 0.8089 0.8089 0.8084 0.8074 0.8062
1240.000000 0.8053 0.8043 0.8036 0.8028 0.8021
1245.000000 0.8018 0.8017 0.8017 0.8015 0.8015
1250.000000 0.8019 0.8024 0.8025 0.8021 0.8017
1255.000000 0.8008 0.7995 0.7982 0.7968 0.7951
1260.000000 0.7936 0.7917 0.7892 0.7867 0.7843
1265.000000 0.7811 0.7771 0.7728 0.7675 0.7618
1270.000000 0.7561 0.7476 0.7361 0.7211 0.7149
1275.000000 0.7134 0.7137 0.7140 0.7143 0.7112
1280.000000 0.6894 0.6675 0.6557 0.6555 0.6561
1285.000000 0.6768 0.6903 0.7036 0.7169 0.7304
1290.000000 0.7390 0.7414 0.7435 0.7421 0.7418
1295.000000 0.7411 0.7396 0.7368 0.7308 0.7195
1300.000000 0.7107 0.6991 0.6615 0.6615 0.6614
1305.000000 0.6611 0.6806 0.6850 0.6881 0.6903
1310.000000 0.6935 0.6987 0.7119 0.7306 0.7387
1315.000000 0.7408 0.7432 0.7450 0.7461 0.7472
1320.000000 0.7475 0.7501 0.7469 0.7465 0.7324
1325.000000 0.7151 0.6980 0.6991 0.6999 0.7008
1330.000000 0.7018 0.7031 0.7041 0.7048 0.7048
1335.000000 0.7048 0.7048 0.7038 0.7014 0.6990
1340.000000 0.6960 0.6915 0.6888 0.6871 0.6858
1345.000000 0.6824 0.6843 0.6843 0.6991 0.7143
1350.000000 0.7201 0.7261 0.7331 0.7401 0.7450
1355.000000 0.7571 0.7650 0.7682 0.7711 0.7724
1360.000000 0.7737 0.7750 0.7761 0.7761 0.7760
1365.000000 0.7796 0.7749 0.7742 0.7734 0.7711
1370.000000 0.7680 0.7635 0.7571 0.7493 0.7396
1375.000000 0.7297 0.7282 0.7247 0.7296 0.7428
1380.000000 0.7505 0.7576 0.7628 0.7661 0.7675
1385.000000 0.7681 0.7683 0.7685 0.7685 0.7686
1390.000000 0.7693 0.7707 0.7733 0.7764 0.7786
1395.000000 0.7807 0.7817 0.7845 0.7824 0.7826
1400.000000 0.7821 0.7815 0.7806 0.7791 0.7775
1405.000000 0.7703 0.7598 0.7458 0.7325 0.7186
1410.000000 0.6875 0.6341 0.5807 0.5687 0.5869
1415.000000 0.6337 0.6806 0.7275 0.7634 0.7768
1420.000000 0.7860 0.7925 0.7961 0.7995 0.8017
1425.000000 0.8032 0.8048 0.8061 0.8067 0.8071
1430.000000 0.8075 0.8075 0.8085 0.8072 0.8071
1435.000000 0.8061 0.8047 0.8032 0.8015 0.7996
1440.000000 0.7975 0.7935 0.7893 0.7845 0.7774
1445.000000 0.7704 0.7618 0.7522 0.7422 0.7298
1450.000000 0.7150 0.6861 0.6367 0.5848 0.5114
1455.000000 0.5116 0.5355 0.6199 0.7043 0.7768
1460.000000 0.7930 0.8040 0.8071 0.8090 0.8098
1465.000000 0.8099 0.8100 0.8097 0.8091 0.8075
1470.000000 0.8054 0.8021 0.7990 0.7949 0.7908
1475.000000 0.7867 0.7804 0.7730 0.7643 0.7534
1480.000000 0.7414 0.7276 0.7133 0.6974 0.6821
1485.000000 0.6674 0.6458 0.6049 0.5673 0.5296
1490.000000 0.4612 0.4579 0.4577 0.4550 0.4592
1495.000000 0.4654 0.4800 0.4962 0.5354 0.5957
1500.000000 0.6561 0.6838 0.6839 0.6842 0.6822
1505.000000 0.6590 0.6253 0.5916 0.5579 0.5242
1510.000000 0.4905 0.4568 0.4231 0.3894 0.3557
1515.000000 0.3220 0.2884 0.2532 0.2534 0.2791
1520.000000 0.3712 0.4539 0.4596 0.4750 0.4828
1525.000000 0.4895 0.4958 0.5056 0.5242 0.5639
1530.000000 0.6875 0.7068 0.7196 0.7324 0.7500
1535.000000 0.7691 0.7782 0.7855 0.7928 0.7980
1540.000000 0.8030 0.8076 0.8110 0.8142 0.8169
1545.000000 0.8178 0.8187 0.8195 0.8199 0.8199
1550.000000 0.8214 0.8195 0.8193 0.8190 0.8188
1555.000000 0.8185 0.8180 0.8175 0.8169 0.8165
1560.000000 0.8153 0.8141 0.8128 0.8115 0.8101
1565.000000 0.8085 0.8065 0.8043 0.8019 0.7988
1570.000000 0.7955 0.7914 0.7851 0.7788 0.7715
1575.000000 0.7639 0.7514 0.7380 0.7275 0.7267
1580.000000 0.7251 0.7185 0.7001 0.6851 0.6768
1585.000000 0.6695 0.6612 0.6521 0.6405 0.6242
1590.000000 0.6124 0.6000 0.5784 0.5434 0.5373
1595.000000 0.5319 0.5303 0.5300 0.5279 0.5318
1600.000000 0.5394 0.5592 0.5749 0.5853 0.5937
1605.000000 0.6005 0.6070 0.6135 0.6195 0.6229
1610.000000 0.6265 0.6304 0.7310 0.7553 0.7789
1615.000000 0.7901 0.7996 0.8057 0.8118 0.8270
1620.000000 0.8365 0.8451 0.8518 0.8604 0.8616
1625.000000 0.8634 0.8656 0.8674 0.8691 0.8705
1630.000000 0.8718 0.8732 0.8778 0.8754 0.8763
1635.000000 0.8767 0.8771 0.8771 0.8773 0.8773
1640.000000 0.8771 0.8771 0.8770 0.8763 0.8757
1645.000000 0.8750 0.8743 0.8735 0.8727 0.8718
1650.000000 0.8710 0.8702 0.8693 0.8683 0.8654
1655.000000 0.8625 0.8594 0.8578 0.8568 0.8558
1660.000000 0.8548 0.8537 0.8540 0.8549 0.8559
1665.000000 0.8568 0.8577 0.8587 0.8597 0.8607
1670.000000 0.8617 0.8628 0.8640 0.8652 0.8665
1675.000000 0.8677 0.8686 0.8694 0.8702 0.8709
1680.000000 0.8713 0.8716 0.8718 0.8721 0.8723
1685.000000 0.8725 0.8728 0.8731 0.8733 0.8736
1690.000000 0.8738 0.8741 0.8743 0.8744 0.8744
1695.000000 0.8744 0.8744 0.8744 0.8744 0.8744
1700.000000 0.8744 0.8744 0.8743 0.8743 0.8742
1705.000000 0.8741 0.8739 0.8737 0.8736 0.8734
1710.000000 0.8733 0.8731 0.8728 0.8727 0.8724
1715.000000 0.8720 0.8716 0.8713 0.8709 0.8705
1720.000000 0.8702 0.8698 0.8694 0.8690 0.8687
1725.000000 0.8683 0.8680 0.8675 0.8673 0.8670
1730.000000 0.8666 0.8663 0.8659 0.8656 0.8653
1735.000000 0.8649 0.8646 0.8642 0.8639 0.8637
1740.000000 0.8634 0.8632 0.8628 0.8627 0.8624
1745.000000 0.8621 0.8618 0.8617 0.8614 0.8611
1750.000000 0.8609 0.8606 0.8604 0.8601 0.8599
1755.000000 0.8596 0.8594 0.8588 0.8582 0.8575
1760.000000 0.8570 0.8564 0.8559 0.8553 0.8547
1765.000000 0.8541 0.8535 0.8528 0.8523 0.8517
1770.000000 0.8512 0.8508 0.8504 0.8501 0.8497
1775.000000 0.8493 0.8489 0.8485 0.8482 0.8478
1780.000000 0.8474 0.8470 0.8470 0.8471 0.8473
1785.000000 0.8475 0.8475 0.8478 0.8480 0.8481
1790.000000 0.8483 0.8484 0.8486 0.8486 0.8486
1795.000000 0.8485 0.8485 0.8484 0.8483 0.8483
1800.000000 0.8482 0.8480 0.8477 0.8475 0.8471
1805.000000 0.8468 0.8466 0.8463 0.8460 0.8455
1810.000000 0.8443 0.8431 0.8433 0.8437 0.8441
1815.000000 0.8445 0.8451 0.8456 0.8462 0.8473
1820.000000 0.8483 0.8494 0.8504 0.8514 0.8515
1825.000000 0.8516 0.8517 0.8518 0.8518 0.8513
1830.000000 0.8508 0.8503 0.8498 0.8492 0.8487
1835.000000 0.8481 0.8475 0.8468 0.8463 0.8457
1840.000000 0.8451 0.8447 0.8445 0.8442 0.8439
1845.000000 0.8437 0.8436 0.8435 0.8435 0.8435
1850.000000 0.8435 0.8434 0.8434 0.8435 0.8436
1855.000000 0.8438 0.8439 0.8441 0.8442 0.8443
1860.000000 0.8445 0.8446 0.8447 0.8447 0.8447
1865.000000 0.8447 0.8446 0.8446 0.8443 0.8437
1870.000000 0.8432 0.8427 0.8421 0.8416 0.8410
1875.000000 0.8403 0.8397 0.8390 0.8384 0.8377
1880.000000 0.8371 0.8364 0.8357 0.8353 0.8349
1885.000000 0.8345 0.8341 0.8338 0.8334 0.8333
1890.000000 0.8334 0.8335 0.8344 0.8349 0.8347
1895.000000 0.8325 0.8304 0.8270 0.8238 0.8210
1900.000000 0.8182 0.8178 0.8188 0.8196 0.8208
1905.000000 0.8221 0.8238 0.8256 0.8274 0.8295
1910.000000 0.8320 0.8342 0.8355 0.8368 0.8375
1915.000000 0.8377 0.8378 0.8380 0.8382 0.8383
1920.000000 0.8384 0.8384 0.8384 0.8385 0.8385
1925.000000 0.8385 0.8383 0.8382 0.8380 0.8378
1930.000000 0.8377 0.8375 0.8374 0.8373 0.8371
1935.000000 0.8370 0.8367 0.8365 0.8363 0.8361
1940.000000 0.8358 0.8356 0.8354 0.8351 0.8349
1945.000000 0.8346 0.8343 0.8341 0.8338 0.8332
1950.000000 0.8321 0.8312 0.8302 0.8292 0.8283
1955.000000 0.8271 0.8258 0.8243 0.8236 0.8236
1960.000000 0.8237 0.8241 0.8245 0.8255 0.8266
1965.000000 0.8278 0.8291 0.8303 0.8316 0.8318
1970.000000 0.8321 0.8324 0.8327 0.8328 0.8321
1975.000000 0.8315 0.8308 0.8301 0.8295 0.8288
1980.000000 0.8282 0.8275 0.8271 0.8267 0.8263
1985.000000 0.8260 0.8256 0.8253 0.8249 0.8246
1990.000000 0.8238 0.8231 0.8224 0.8216 0.8201
1995.000000 0.8183 0.8168 0.8168 0.8168 0.8176
2000.000000 0.8185 0.8183 0.8182 0.8178 0.8175
2005.000000 0.8171 0.8167 0.8161 0.8158 0.8148
2010.000000 0.8139 0.8125 0.8114 0.8101 0.8090
2015.000000 0.8072 0.8056 0.8043 0.8031 0.8019
2020.000000 0.8010 0.7999 0.7988 0.7976 0.7967
2025.000000 0.7956 0.7946 0.7934 0.7922 0.7911
2030.000000 0.7900 0.7889 0.7878 0.7865 0.7855
2035.000000 0.7843 0.7832 0.7821 0.7810 0.7790
2040.000000 0.7771 0.7749 0.7726 0.7705 0.7683
2045.000000 0.7654 0.7625 0.7618 0.7611 0.7614
2050.000000 0.7618 0.7619 0.7624 0.7628 0.7634
2055.000000 0.7645 0.7656 0.7671 0.7688 0.7705
2060.000000 0.7722 0.7738 0.7754 0.7768 0.7785
2065.000000 0.7807 0.7830 0.7855 0.7881 0.7910
2070.000000 0.7939 0.7960 0.7981 0.7997 0.8014
2075.000000 0.8030 0.8047 0.8060 0.8072 0.8084
2080.000000 0.8095 0.8106 0.8118 0.8122 0.8128
2085.000000 0.8132 0.8136 0.8139 0.8143 0.8147
2090.000000 0.8151 0.8155 0.8158 0.8161 0.8164
2095.000000 0.8165 0.8167 0.8168 0.8169 0.8171
2100.000000 0.8171 0.8174 0.8175 0.8178 0.8180
2105.000000 0.8181 0.8183 0.8185 0.8187 0.8187
2110.000000 0.8187 0.8186 0.8186 0.8185 0.8185
2115.000000 0.8184 0.8184 0.8183 0.8183 0.8182
2120.000000 0.8181 0.8178 0.8175 0.8174 0.8171
2125.000000 0.8168 0.8167 0.8164 0.8161 0.8160
2130.000000 0.8158 0.8155 0.8153 0.8150 0.8148
2135.000000 0.8145 0.8143 0.8140 0.8138 0.8135
2140.000000 0.8133 0.8130 0.8128 0.8125 0.8122
2145.000000 0.8119 0.8118 0.8114 0.8110 0.8106
2150.000000 0.8101 0.8098 0.8094 0.8089 0.8085
2155.000000 0.8081 0.8076 0.8072 0.8068 0.8065
2160.000000 0.8061 0.8057 0.8053 0.8048 0.8044
2165.000000 0.8039 0.8035 0.8030 0.8025 0.8021
2170.000000 0.8018 0.8012 0.8008 0.8004 0.8000
2175.000000 0.7995 0.7991 0.7986 0.7982 0.7975
2180.000000 0.7969 0.7964 0.7958 0.7951 0.7946
2185.000000 0.7940 0.7934 0.7928 0.7921 0.7915
2190.000000 0.7910 0.7904 0.7898 0.7892 0.7886
2195.000000 0.7882 0.7878 0.7874 0.7869 0.7867
2200.000000 0.7864 0.7862 0.7862 0.7861 0.7861
2205.000000 0.7860 0.7860 0.7858 0.7858 0.7858
2210.000000 0.7858 0.7856 0.7855 0.7853 0.7851
2215.000000 0.7848 0.7846 0.7844 0.7842 0.7839
2220.000000 0.7837 0.7835 0.7833 0.7830 0.7828
2225.000000 0.7825 0.7824 0.7821 0.7819 0.7817
2230.000000 0.7815 0.7811 0.7808 0.7805 0.7801
2235.000000 0.7798 0.7794 0.7790 0.7787 0.7783
2240.000000 0.7780 0.7776 0.7774 0.7771 0.7768
2245.000000 0.7765 0.7764 0.7761 0.7758 0.7756
2250.000000 0.7753 0.7750 0.7748 0.7745 0.7743
2255.000000 0.7740 0.7737 0.7734 0.7731 0.7726
2260.000000 0.7724 0.7719 0.7717 0.7712 0.7710
2265.000000 0.7706 0.7703 0.7699 0.7696 0.7692
2270.000000 0.7689 0.7686 0.7683 0.7678 0.7675
2275.000000 0.7671 0.7668 0.7665 0.7661 0.7658
2280.000000 0.7655 0.7651 0.7648 0.7645 0.7642
2285.000000 0.7639 0.7636 0.7633 0.7630 0.7626
2290.000000 0.7624 0.7621 0.7618 0.7614 0.7611
2295.000000 0.7608 0.7605 0.7601 0.7599 0.7596
2300.000000 0.7593 0.7590 0.7587 0.7584 0.7581
2305.000000 0.7578 0.7575 0.7571 0.7568 0.7565
2310.000000 0.7562 0.7560 0.7557 0.7555 0.7553
2315.000000 0.7551 0.7550 0.7548 0.7546 0.7544
2320.000000 0.7543 0.7541 0.7539 0.7537 0.7536
2325.000000 0.7534 0.7532 0.7530 0.7528 0.7526
2330.000000 0.7525 0.7522 0.7521 0.7519 0.7518
2335.000000 0.7517 0.7515 0.7514 0.7512 0.7511
2340.000000 0.7510 0.7508 0.7507 0.7505 0.7504
2345.000000 0.7501 0.7501 0.7499 0.7498 0.7496
2350.000000 0.7495 0.7493 0.7492 0.7490 0.7489
2355.000000 0.7487 0.7486 0.7484 0.7483 0.7482
2360.000000 0.7481 0.7480 0.7478 0.7478 0.7476
2365.000000 0.7475 0.7475 0.7474 0.7472 0.7471
2370.000000 0.7471 0.7469 0.7468 0.7468 0.7467
2375.000000 0.7465 0.7465 0.7464 0.7462 0.7461
2380.000000 0.7461 0.7458 0.7458 0.7457 0.7456
2385.000000 0.7454 0.7453 0.7451 0.7450 0.7448
2390.000000 0.7447 0.7445 0.7444 0.7442 0.7441
2395.000000 0.7439 0.7438 0.7436 0.7435 0.7433
2400.000000 0.7432 0.7430 0.7428 0.7426 0.7425
2405.000000 0.7424 0.7422 0.7419 0.7417 0.7412
2410.000000 0.7408 0.7405 0.7401 0.7398 0.7394
2415.000000 0.7390 0.7386 0.7382 0.7378 0.7374
2420.000000 0.7371 0.7367 0.7362 0.7358 0.7355
2425.000000 0.7351 0.7348 0.7343 0.7339 0.7334
2430.000000 0.7330 0.7325 0.7321 0.7317 0.7312
2435.000000 0.7308 0.7304 0.7299 0.7295 0.7291
2440.000000 0.7287 0.7284 0.7281 0.7276 0.7274
2445.000000 0.7271 0.7268 0.7265 0.7261 0.7261
2450.000000 0.7260 0.7258 0.7257 0.7256 0.7255
2455.000000 0.7253 0.7251 0.7250 0.7249 0.7248
2460.000000 0.7247 0.7245 0.7244 0.7242 0.7240
2465.000000 0.7237 0.7234 0.7231 0.7228 0.7225
2470.000000 0.7221 0.7218 0.7215 0.7210 0.7204
2475.000000 0.7198 0.7193 0.7188 0.7184 0.7178
2480.000000 0.7175 0.7169 0.7165 0.7161 0.7157
2485.000000 0.7151 0.7148 0.7143 0.7138 0.7133
2490.000000 0.7128 0.7121 0.7115 0.7108 0.7101
2495.000000 0.7094 0.7087 0.7078 0.7071 0.7062
2500.000000 0.7055 0.7047 0.7039 0.7036 0.7034
2505.000000 0.7031 0.7028 0.7025 0.7024 0.7021
2510.000000 0.7019 0.7018 0.7018 0.7015 0.7014
2515.000000 0.7011 0.7010 0.7008 0.7006 0.7003
2520.000000 0.7001 0.6999 0.6997 0.6995 0.6993
2525.000000 0.6990 0.6988 0.6985 0.6983 0.6975
2530.000000 0.6967 0.6958 0.6951 0.6943 0.6935
2535.000000 0.6926 0.6918 0.6911 0.6903 0.6892
2540.000000 0.6881 0.6868 0.6855 0.6842 0.6830
2545.000000 0.6817 0.6804 0.6789 0.6774 0.6754
2550.000000 0.6735 0.6715 0.6695 0.6675 0.6656
2555.000000 0.6636 0.6615 0.6596 0.6575 0.6551
2560.000000 0.6525 0.6498 0.6471 0.6443 0.6415
2565.000000 0.6387 0.6360 0.6332 0.6304 0.6259
2570.000000 0.6215 0.6166 0.6118 0.6062 0.6009
2575.000000 0.5951 0.5893 0.5851 0.5809 0.5771
2580.000000 0.5734 0.5705 0.5676 0.5651 0.5627
2585.000000 0.5602 0.5577 0.5557 0.5537 0.5518
2590.000000 0.5499 0.5480 0.5460 0.5436 0.5410
2595.000000 0.5385 0.5359 0.5337 0.5316 0.5294
2600.000000 0.5273 0.5260 0.5250 0.5246 0.5243
2605.000000 0.5241 0.5241 0.5241 0.5243 0.5246
2610.000000 0.5247 0.5252 0.5255 0.5268 0.5282
2615.000000 0.5301 0.5320 0.5351 0.5382 0.5419
2620.000000 0.5457 0.5492 0.5527 0.5555 0.5583
2625.000000 0.5601 0.5620 0.5639 0.5658 0.5675
2630.000000 0.5693 0.5706 0.5719 0.5732 0.5744
2635.000000 0.5747 0.5748 0.5748 0.5748 0.5746
2640.000000 0.5745 0.5740 0.5736 0.5718 0.5700
2645.000000 0.5673 0.5646 0.5644 0.5645 0.5645
2650.000000 0.5648 0.5651 0.5655 0.5658 0.5660
2655.000000 0.5662 0.5664 0.5665 0.5667 0.5667
2660.000000 0.5667 0.5666 0.5690 0.5660 0.5655
2665.000000 0.5643 0.5632 0.5610 0.5589 0.5569
2670.000000 0.5549 0.5530 0.5510 0.5492 0.5474
2675.000000 0.5455 0.5436 0.5417 0.5399 0.5384
2680.000000 0.5370 0.5355 0.5340 0.5332 0.5324
2685.000000 0.5320 0.5317 0.5312 0.5310 0.5307
2690.000000 0.5304 0.5300 0.5297 0.5295 0.5294
2695.000000 0.5294 0.5274 0.5297 0.5299 0.5301
2700.000000 0.5303 0.5305 0.5307 0.5314 0.5321
2705.000000 0.5330 0.5339 0.5348 0.5357 0.5365
2710.000000 0.5374 0.5382 0.5391 0.5393 0.5423
2715.000000 0.5397 0.5398 0.5399 0.5399 0.5399
2720.000000 0.5398 0.5394 0.5391 0.5386 0.5382
2725.000000 0.5377 0.5372 0.5365 0.5358 0.5349
2730.000000 0.5340 0.5331 0.5323 0.5314 0.5305
2735.000000 0.5295 0.5286 0.5277 0.5268 0.5258
2740.000000 0.5249 0.5240 0.5231 0.5222 0.5212
2745.000000 0.5204 0.5196 0.5187 0.5179 0.5170
2750.000000 0.5162 0.5146 0.5130 0.5101 0.5073
2755.000000 0.5051 0.5030 0.5008 0.4986 0.4962
2760.000000 0.4939 0.4916 0.4893 0.4870 0.4848
2765.000000 0.4826 0.4805 0.4783 0.4762 0.4741
2770.000000 0.4720 0.4698 0.4677 0.4651 0.4625
2775.000000 0.4598 0.4571 0.4544 0.4517 0.4490
2780.000000 0.4462 0.4431 0.4400 0.4355 0.4310
2785.000000 0.4265 0.4220 0.4183 0.4147 0.4117
2790.000000 0.4088 0.4059 0.4030 0.4000 0.3971
2795.000000 0.3942 0.3912 0.3882 0.3854 0.3822
2800.000000 0.3791 0.3759 0.3728 0.3697 0.3666
2805.000000 0.3634 0.3603 0.3571 0.3540 0.3508
2810.000000 0.3476 0.3441 0.3407 0.3372 0.3337
2815.000000 0.3302 0.3268 0.3232 0.3199 0.3164
2820.000000 0.3130 0.3094 0.3059 0.3019 0.2980
2825.000000 0.2940 0.2900 0.2860 0.2820 0.2780
2830.000000 0.2740 0.2700 0.2660 0.2620 0.2580
2835.000000 0.2540 0.2501 0.2461 0.2421 0.2388
2840.000000 0.2355 0.2325 0.2295 0.2265 0.2234
2845.000000 0.2205 0.2175 0.2145 0.2115 0.2081
2850.000000 0.2046 0.2012 0.1977 0.1942 0.1907
2855.000000 0.1878 0.1850 0.1826 0.1802 0.1777
2860.000000 0.1752 0.1722 0.1693 0.1684 0.1677
2865.000000 0.1673 0.1670 0.1671 0.1672 0.1673
2870.000000 0.1674 0.1675 0.1640 0.1679 0.1682
2875.000000 0.1685 0.1690 0.1704 0.1719 0.1734
2880.000000 0.1749 0.1766 0.1783 0.1801 0.1820
2885.000000 0.1837 0.1856 0.1881 0.1906 0.1929
2890.000000 0.1954 0.1979 0.2004 0.2023 0.2042
2895.000000 0.2059 0.2076 0.2093 0.2110 0.2122
2900.000000 0.2134 0.2145 0.2156 0.2167 0.2178
2905.000000 0.2189 0.2200 0.2211 0.2222 0.2233
2910.000000 0.2245 0.2256 0.2267 0.2275 0.2283
2915.000000 0.2290 0.2298 0.2306 0.2314 0.2321
2920.000000 0.2329 0.2337 0.2345 0.2353 0.2361
2925.000000 0.2368 0.2375 0.2381 0.2388 0.2394
2930.000000 0.2400 0.2406 0.2413 0.2419 0.2425
2935.000000 0.2426 0.2428 0.2429 0.2431 0.2432
2940.000000 0.2433 0.2434 0.2435 0.2449 0.2463
2945.000000 0.2484 0.2505 0.2526 0.2547 0.2573
2950.000000 0.2599 0.2625 0.2652 0.2680 0.2708
2955.000000 0.2739 0.2770 0.2801 0.2833 0.2864
2960.000000 0.2895 0.2926 0.2957 0.2984 0.3011
2965.000000 0.3038 0.3065 0.3092 0.3120 0.3147
2970.000000 0.3174 0.3205 0.3236 0.3266 0.3299
2975.000000 0.3330 0.3362 0.3392 0.3423 0.3450
2980.000000 0.3479 0.3507 0.3536 0.3564 0.3593
2985.000000 0.3616 0.3642 0.3662 0.3682 0.3703
2990.000000 0.3723 0.3734 0.3748 0.3757 0.3766
2995.000000 0.3777 0.3787 0.3798 0.3809 0.3822
3000.000000 0.3834 0.3846 0.3858 0.3880 0.3902
3005.000000 0.3930 0.3960 0.3990 0.4020 0.4049
3010.000000 0.4079 0.4108 0.4138 0.4169 0.4201
3015.000000 0.4233 0.4266 0.4298 0.4331 0.4358
3020.000000 0.4386 0.4405 0.4424 0.4428 0.4433
3025.000000 0.4438 0.4443 0.4448 0.4453 0.4458
3030.000000 0.4462 0.4471 0.4480 0.4493 0.4506
3035.000000 0.4519 0.4533 0.4555 0.4577 0.4604
3040.000000 0.4631 0.4637 0.4644 0.4648 0.4653
3045.000000 0.4658 0.4662 0.4666 0.4669 0.4671
3050.000000 0.4673 0.4675 0.4678 0.4710 0.4745
3055.000000 0.4795 0.4846 0.4958 0.5070 0.5181
3060.000000 0.5293 0.5360 0.5430 0.5491 0.5552
3065.000000 0.5615 0.5679 0.5745 0.5812 0.5875
3070.000000 0.5939 0.5998 0.6058 0.6112 0.6168
3075.000000 0.6207 0.6247 0.6277 0.6307 0.6336
3080.000000 0.6366 0.6379 0.6392 0.6397 0.6401
3085.000000 0.6406 0.6411 0.6415 0.6421 0.6425
3090.000000 0.6431 0.6437 0.6443 0.6449 0.6455
3095.000000 0.6475 0.6495 0.6518 0.6543 0.6589
3100.000000 0.6635 0.6695 0.6756 0.6786 0.6815
3105.000000 0.6842 0.6868 0.6884 0.6901 0.6918
3110.000000 0.6935 0.6951 0.6968 0.6982 0.6997
3115.000000 0.7010 0.7022 0.7036 0.7049 0.7061
3120.000000 0.7075 0.7088 0.7101 0.7117 0.7133
3125.000000 0.7149 0.7165 0.7182 0.7199 0.7215
3130.000000 0.7232 0.7248 0.7264 0.7280 0.7297
3135.000000 0.7312 0.7330 0.7346 0.7361 0.7378
3140.000000 0.7395 0.7411 0.7426 0.7442 0.7458
3145.000000 0.7472 0.7488 0.7503 0.7518 0.7534
3150.000000 0.7549 0.7564 0.7580 0.7594 0.7608
3155.000000 0.7611 0.7615 0.7619 0.7625 0.7628
3160.000000 0.7633 0.7632 0.7632 0.7631 0.7631
3165.000000 0.7630 0.7630 0.7628 0.7626 0.7625
3170.000000 0.7622 0.7621 0.7619 0.7618 0.7617
3175.000000 0.7615 0.7612 0.7608 0.7603 0.7598
3180.000000 0.7594 0.7589 0.7584 0.7578 0.7575
3185.000000 0.7569 0.7565 0.7558 0.7553 0.7545
3190.000000 0.7537 0.7528 0.7521 0.7511 0.7504
3195.000000 0.7496 0.7488 0.7478 0.7471 0.7461
3200.000000 0.7451 0.7447 0.7434 0.7443 0.7445
3205.000000 0.7457 0.7469 0.7487 0.7505 0.7522
3210.000000 0.7542 0.7561 0.7583 0.7603 0.7624
3215.000000 0.7638 0.7651 0.7661 0.7671 0.7681
3220.000000 0.7691 0.7700 0.7710 0.7719 0.7730
3225.000000 0.7732 0.7735 0.7737 0.7740 0.7742
3230.000000 0.7745 0.7747 0.7749 0.7750 0.7751
3235.000000 0.7751 0.7751 0.7753 0.7754 0.7755
3240.000000 0.7756 0.7756 0.7757 0.7757 0.7756
3245.000000 0.7755 0.7753 0.7751 0.7749 0.7747
3250.000000 0.7745 0.7743 0.7741 0.7739 0.7737
3255.000000 0.7735 0.7733 0.7731 0.7730 0.7728
3260.000000 0.7725 0.7724 0.7721 0.7719 0.7718
3265.000000 0.7715 0.7715 0.7712 0.7711 0.7710
3270.000000 0.7708 0.7707 0.7706 0.7704 0.7701
3275.000000 0.7700 0.7699 0.7697 0.7696 0.7694
3280.000000 0.7693 0.7691 0.7690 0.7688 0.7687
3285.000000 0.7685 0.7683 0.7681 0.7680 0.7678
3290.000000 0.7676 0.7675 0.7674 0.7671 0.7671
3295.000000 0.7668 0.7668 0.7665 0.7665 0.7662
3300.000000 0.7661 0.7660 0.7658 0.7657 0.7656
3305.000000 0.7653 0.7651 0.7647 0.7644 0.7640
3310.000000 0.7637 0.7633 0.7628 0.7625 0.7621
3315.000000 0.7618 0.7615 0.7611 0.7608 0.7604
3320.000000 0.7600 0.7596 0.7593 0.7589 0.7586
3325.000000 0.7582 0.7578 0.7574 0.7571 0.7567
3330.000000 0.7564 0.7560 0.7557 0.7553 0.7549
3335.000000 0.7545 0.7542 0.7538 0.7535 0.7531
3340.000000 0.7526 0.7522 0.7519 0.7515 0.7512
3345.000000 0.7508 0.7505 0.7501 0.7498 0.7494
3350.000000 0.7491 0.7487 0.7484 0.7481 0.7478
3355.000000 0.7475 0.7472 0.7469 0.7468 0.7465
3360.000000 0.7462 0.7460 0.7457 0.7454 0.7451
3365.000000 0.7449 0.7447 0.7444 0.7441 0.7438
3370.000000 0.7436 0.7433 0.7431 0.7428 0.7425
3375.000000 0.7422 0.7419 0.7417 0.7415 0.7411
3380.000000 0.7410 0.7407 0.7404 0.7401 0.7399
3385.000000 0.7396 0.7394 0.7391 0.7388 0.7385
3390.000000 0.7383 0.7380 0.7378 0.7375 0.7372
3395.000000 0.7369 0.7368 0.7365 0.7364 0.7361
3400.000000 0.7358 0.7356 0.7354 0.7351 0.7350
3405.000000 0.7347 0.7345 0.7343 0.7341 0.7338
3410.000000 0.7336 0.7333 0.7331 0.7328 0.7326
3415.000000 0.7324 0.7321 0.7319 0.7318 0.7315
3420.000000 0.7312 0.7310 0.7308 0.7306 0.7304
3425.000000 0.7301 0.7299 0.7297 0.7295 0.7292
3430.000000 0.7290 0.7288 0.7286 0.7284 0.7282
3435.000000 0.7278 0.7276 0.7275 0.7272 0.7271
3440.000000 0.7268 0.7265 0.7264 0.7261 0.7260
3445.000000 0.7258 0.7256 0.7253 0.7251 0.7249
3450.000000 0.7247 0.7245 0.7243 0.7240 0.7238
3455.000000 0.7236 0.7235 0.7233 0.7232 0.7230
3460.000000 0.7228 0.7226 0.7225 0.7224 0.7222
3465.000000 0.7221 0.7219 0.7218 0.7217 0.7215
3470.000000 0.7214 0.7211 0.7211 0.7210 0.7208
3475.000000 0.7207 0.7206 0.7204 0.7203 0.7201
3480.000000 0.7200 0.7198 0.7197 0.7195 0.7194
3485.000000 0.7192 0.7191 0.7189 0.7188 0.7186
3490.000000 0.7185 0.7183 0.7182 0.7181 0.7180
3495.000000 0.7178 0.7175 0.7174 0.7172 0.7171
3500.000000 0.7168 0.7167 0.7165 0.7164 0.7162
3505.000000 0.7161 0.7158 0.7157 0.7156 0.7154
3510.000000 0.7151 0.7150 0.7149 0.7147 0.7146
3515.000000 0.7144 0.7142 0.7140 0.7139 0.7137
3520.000000 0.7135 0.7133 0.7132 0.7130 0.7128
3525.000000 0.7126 0.7125 0.7122 0.7121 0.7119
3530.000000 0.7118 0.7115 0.7115 0.7112 0.7111
3535.000000 0.7108 0.7108 0.7106 0.7105 0.7103
3540.000000 0.7101 0.7099 0.7098 0.7096 0.7094
3545.000000 0.7092 0.7091 0.7089 0.7088 0.7086
3550.000000 0.7084 0.7082 0.7081 0.7078 0.7076
3555.000000 0.7075 0.7074 0.7071 0.7071 0.7068
3560.000000 0.7067 0.7065 0.7064 0.7061 0.7060
3565.000000 0.7058 0.7058 0.7056 0.7055 0.7053
3570.000000 0.7051 0.7050 0.7049 0.7047 0.7046
3575.000000 0.7044 0.7043 0.7042 0.7041 0.7039
3580.000000 0.7038 0.7036 0.7035 0.7033 0.7032
3585.000000 0.7030 0.7028 0.7026 0.7025 0.7025
3590.000000 0.7024 0.7021 0.7021 0.7018 0.7018
3595.000000 0.7015 0.7015 0.7012 0.7011 0.7010
3600.000000 0.7008 0.7008 0.7007 0.7005 0.7004
3605.000000 0.7001 0.7001 0.6999 0.6998 0.6996
3610.000000 0.6995 0.6993 0.6992 0.6990 0.6989
3615.000000 0.6987 0.6986 0.6984 0.6983 0.6982
3620.000000 0.6981 0.6978 0.6978 0.6975 0.6975
3625.000000 0.6972 0.6971 0.6969 0.6968 0.6967
3630.000000 0.6965 0.6964 0.6962 0.6961 0.6960
3635.000000 0.6958 0.6957 0.6955 0.6954 0.6951
3640.000000 0.6951 0.6949 0.6947 0.6945 0.6944
3645.000000 0.6942 0.6941 0.6939 0.6938 0.6936
3650.000000 0.6934 0.6932 0.6931 0.6928 0.6928
3655.000000 0.6925 0.6925 0.6922 0.6921 0.6919
3660.000000 0.6918 0.6915 0.6915 0.6912 0.6911
3665.000000 0.6910 0.6908 0.6907 0.6905 0.6903
3670.000000 0.6901 0.6901 0.6900 0.6898 0.6897
3675.000000 0.6895 0.6894 0.6892 0.6891 0.6889
3680.000000 0.6888 0.6886 0.6885 0.6884 0.6883
3685.000000 0.6881 0.6880 0.6878 0.6876 0.6875
3690.000000 0.6874 0.6871 0.6868 0.6865 0.6864
3695.000000 0.6861 0.6858 0.6856 0.6854 0.6851
3700.000000 0.6848 0.6845 0.6843 0.6840 0.6838
3705.000000 0.6835 0.6833 0.6830 0.6826 0.6825
3710.000000 0.6822 0.6821 0.6818 0.6817 0.6815
3715.000000 0.6812 0.6811 0.6808 0.6807 0.6804
3720.000000 0.6801 0.6800 0.6798 0.6796 0.6794
3725.000000 0.6792 0.6790 0.6788 0.6786 0.6784
3730.000000 0.6782 0.6780 0.6778 0.6775 0.6774
3735.000000 0.6771 0.6769 0.6768 0.6765 0.6764
3740.000000 0.6761 0.6760 0.6758 0.6756 0.6754
3745.000000 0.6751 0.6751 0.6749 0.6747 0.6745
3750.000000 0.6743 0.6741 0.6739 0.6737 0.6735
3755.000000 0.6733 0.6731 0.6728 0.6726 0.6725
3760.000000 0.6724 0.6721 0.6721 0.6718 0.6718
3765.000000 0.6715 0.6714 0.6711 0.6711 0.6708
3770.000000 0.6708 0.6706 0.6705 0.6703 0.6701
3775.000000 0.6700 0.6699 0.6697 0.6695 0.6693
3780.000000 0.6692 0.6690 0.6689 0.6687 0.6686
3785.000000 0.6684 0.6683 0.6681 0.6680 0.6678
3790.000000 0.6675 0.6674 0.6672 0.6671 0.6669
3795.000000 0.6668 0.6668
##END=
