##TITLE=4,6-DICHLORO-1-PHENOL-2-SULFONIC ACID, SODIUM SALT
$$ E. K. CO. (WHITE LABEL)
##JCAMP-DX=4.24
##DATA TYPE=INFRARED SPECTRUM
##CLASS=COBLENTZ
##ORIGIN=WYANDOTTE CHEMICALS CORP., WYANDOTTE, MICHIGAN, USA
##OWNER=COBLENTZ SOCIETY
Collection (C) 2018 copyright by the U.S. Secretary of Commerce
on behalf of the United States of America. All rights reserved.
##DATE=Not specified, most likely prior to 1970
##MOLFORM=C6 H3 Cl2 O4 S Na
##SOURCE REFERENCE=COBLENTZ NO. 2895
##$NIST ID=B6002895
##$NIST SOURCE=COBLENTZ
##$NIST IMAGE=cob2895
##SPECTROMETER/DATA SYSTEM=Not specified, most likely a prism, grating, or hybrid spectrometer.
##STATE=SOLID (MINERAL OIL MULL)
##PATH LENGTH=
$$SPECTRAL CONTAMINATION DUE TO OIL AROUND 2900 CM^-^1
##SAMPLING PROCEDURE=TRANSMISSION
##RESOLUTION=4
##DATA PROCESSING=DIGITIZED BY NIST FROM HARD COPY
##XUNITS=MICROMETERS
##YUNITS=TRANSMITTANCE
##XFACTOR=1.000000
##YFACTOR=1
##DELTAX=000.006635
##FIRSTX=2.013
##LASTX=15.9802
##FIRSTY=0.69
##MAXX=15.9802
##MINX=2.013
##MAXY=0.981
##MINY=0.034
##NPOINTS=2106
##XYDATA=(X++(Y..Y))
2.013000 0.6900 0.6900 0.6930 0.6970 0.6970
2.046191 0.6970 0.6980 0.6980 0.7020 0.7030
2.080000 0.7070 0.7080 0.7080 0.7100 0.7100
2.113191 0.7120 0.7120 0.7120 0.7120 0.7120
2.146000 0.7120 0.7120 0.7120 0.7120 0.7120
2.179191 0.7120 0.7100 0.7080 0.7070 0.7050
2.212000 0.7030 0.7020 0.7000 0.7000 0.7020
2.245191 0.7030 0.7050 0.7070 0.7080 0.7100
2.279000 0.7120 0.7130 0.7170 0.7180 0.7180
2.312191 0.7180 0.7200 0.7200 0.7220 0.7230
2.345000 0.7270 0.7280 0.7280 0.7300 0.7320
2.378191 0.7330 0.7350 0.7400 0.7450 0.7520
2.411000 0.7550 0.7570 0.7570 0.7550 0.7530
2.444191 0.7520 0.7500 0.7500 0.7500 0.7500
2.478000 0.7520 0.7520 0.7530 0.7570 0.7600
2.511191 0.7620 0.7630 0.7670 0.7680 0.7700
2.544000 0.7720 0.7730 0.7780 0.7820 0.7870
2.577191 0.7870 0.7880 0.7880 0.7880 0.7880
2.610000 0.7880 0.7880 0.7900 0.7950 0.8000
2.643191 0.8030 0.8060 0.8080 0.8080 0.8080
2.677000 0.8060 0.8050 0.8030 0.8000 0.7970
2.710191 0.7920 0.7850 0.7780 0.7700 0.7580
2.743000 0.7450 0.7280 0.7100 0.6870 0.6600
2.776191 0.6300 0.5940 0.5400 0.4600 0.4220
2.809000 0.3790 0.3190 0.2960 0.2840 0.2790
2.842191 0.2770 0.2770 0.2810 0.2890 0.3020
2.876000 0.3190 0.3420 0.3710 0.4040 0.4350
2.909191 0.4690 0.4850 0.5000 0.5200 0.5370
2.942000 0.5520 0.5640 0.5750 0.5840 0.5940
2.975191 0.6020 0.6080 0.6170 0.6230 0.6320
3.009000 0.6380 0.6430 0.6470 0.6480 0.6480
3.042191 0.6500 0.6520 0.6530 0.6550 0.6530
3.075000 0.6500 0.6430 0.6350 0.6280 0.6150
3.108191 0.5970 0.5850 0.5700 0.5540 0.5440
3.141000 0.5340 0.5250 0.5170 0.5090 0.5070
3.174191 0.5070 0.5090 0.5140 0.5250 0.5400
3.208000 0.5600 0.5800 0.5900 0.6030 0.6050
3.241191 0.6150 0.6180 0.6200 0.6270 0.6300
3.274000 0.6350 0.6380 0.6420 0.6450 0.6430
3.307191 0.6330 0.6200 0.5970 0.5670 0.5100
3.340000 0.3860 0.2860 0.2260 0.1860 0.1360
3.373191 0.0840 0.0480 0.0430 0.0390 0.0390
3.407000 0.0380 0.0380 0.0390 0.0410 0.0430
3.440191 0.0460 0.0580 0.0710 0.0860 0.0960
3.473000 0.1030 0.1040 0.0980 0.0910 0.0840
3.506191 0.0830 0.0840 0.1130 0.1710 0.2210
3.539000 0.2890 0.4020 0.4570 0.5100 0.5990
3.572191 0.6530 0.6850 0.6900 0.7070 0.7300
3.606000 0.7400 0.7520 0.7580 0.7650 0.7680
3.639191 0.7730 0.7800 0.7820 0.7850 0.7880
3.672000 0.7880 0.7850 0.7820 0.7800 0.7800
3.705191 0.7800 0.7830 0.7920 0.7930 0.7950
3.738000 0.7980 0.8000 0.8000 0.8010 0.8030
3.771191 0.8030 0.8050 0.8060 0.8100 0.8130
3.805000 0.8130 0.8150 0.8150 0.8160 0.8160
3.838191 0.8180 0.8200 0.8210 0.8250 0.8260
3.871000 0.8280 0.8300 0.8350 0.8400 0.8460
3.904191 0.8500 0.8530 0.8550 0.8560 0.8580
3.937000 0.8580 0.8600 0.8600 0.8610 0.8650
3.970191 0.8650 0.8650 0.8660 0.8660 0.8660
4.004000 0.8660 0.8660 0.8660 0.8660 0.8660
4.037191 0.8660 0.8660 0.8680 0.8680 0.8680
4.070000 0.8700 0.8700 0.8710 0.8730 0.8760
4.103191 0.8780 0.8800 0.8800 0.8810 0.8830
4.136000 0.8830 0.8830 0.8830 0.8850 0.8850
4.169191 0.8850 0.8830 0.8830 0.8830 0.8850
4.203000 0.8850 0.8860 0.8860 0.8880 0.8880
4.236191 0.8860 0.8810 0.8800 0.8780 0.8700
4.269000 0.8660 0.8660 0.8660 0.8660 0.8680
4.302191 0.8710 0.8730 0.8760 0.8760 0.8760
4.336000 0.8760 0.8760 0.8780 0.8810 0.8850
4.369191 0.8900 0.8910 0.8950 0.8980 0.9060
4.402000 0.9130 0.9150 0.9150 0.9130 0.9110
4.435191 0.9100 0.9080 0.9060 0.9050 0.9050
4.468000 0.9050 0.9030 0.9030 0.9030 0.9030
4.501191 0.9030 0.9050 0.9050 0.9060 0.9060
4.535000 0.9060 0.9080 0.9080 0.9080 0.9100
4.568191 0.9100 0.9100 0.9100 0.9100 0.9100
4.601000 0.9100 0.9100 0.9080 0.9080 0.9080
4.634191 0.9080 0.9080 0.9080 0.9100 0.9110
4.667000 0.9110 0.9130 0.9150 0.9150 0.9160
4.700191 0.9160 0.9200 0.9210 0.9250 0.9260
4.734000 0.9280 0.9280 0.9300 0.9310 0.9310
4.767191 0.9310 0.9280 0.9280 0.9280 0.9260
4.800000 0.9250 0.9230 0.9210 0.9210 0.9230
4.833191 0.9250 0.9260 0.9280 0.9300 0.9310
4.866000 0.9330 0.9350 0.9350 0.9350 0.9350
4.899191 0.9350 0.9330 0.9330 0.9330 0.9310
4.933000 0.9300 0.9300 0.9300 0.9330 0.9350
4.966191 0.9400 0.9410 0.9430 0.9450 0.9460
4.999000 0.9500 0.9560 0.9580 0.9580 0.9580
5.032191 0.9580 0.9580 0.9580 0.9580 0.9550
5.065000 0.9530 0.9500 0.9460 0.9450 0.9460
5.098191 0.9480 0.9500 0.9500 0.9500 0.9510
5.132000 0.9530 0.9600 0.9610 0.9630 0.9650
5.165191 0.9650 0.9650 0.9650 0.9650 0.9650
5.198000 0.9650 0.9660 0.9660 0.9660 0.9680
5.231191 0.9680 0.9680 0.9660 0.9660 0.9660
5.264000 0.9680 0.9710 0.9730 0.9730 0.9730
5.297191 0.9730 0.9710 0.9710 0.9710 0.9730
5.331000 0.9730 0.9710 0.9710 0.9700 0.9700
5.364191 0.9700 0.9680 0.9680 0.9700 0.9700
5.397000 0.9730 0.9750 0.9760 0.9760 0.9760
5.430191 0.9760 0.9760 0.9760 0.9760 0.9760
5.464000 0.9780 0.9780 0.9810 0.9810 0.9800
5.497191 0.9780 0.9760 0.9760 0.9760 0.9780
5.530000 0.9800 0.9800 0.9800 0.9800 0.9800
5.563191 0.9800 0.9800 0.9780 0.9780 0.9780
5.596000 0.9780 0.9780 0.9780 0.9780 0.9760
5.629191 0.9760 0.9760 0.9750 0.9700 0.9700
5.663000 0.9660 0.9630 0.9610 0.9580 0.9560
5.696191 0.9550 0.9550 0.9530 0.9500 0.9450
5.729000 0.9430 0.9380 0.9260 0.9260 0.9300
5.762191 0.9410 0.9430 0.9480 0.9480 0.9450
5.795000 0.9310 0.9200 0.9180 0.9180 0.9260
5.828191 0.9500 0.9610 0.9630 0.9630 0.9610
5.862000 0.9610 0.9610 0.9630 0.9630 0.9660
5.895191 0.9680 0.9680 0.9680 0.9650 0.9600
5.928000 0.9580 0.9580 0.9560 0.9560 0.9550
5.961191 0.9550 0.9550 0.9530 0.9500 0.9460
5.994000 0.9430 0.9380 0.9350 0.9330 0.9300
6.027191 0.9280 0.9280 0.9260 0.9260 0.9260
6.061000 0.9250 0.9230 0.9210 0.9200 0.9130
6.094191 0.9080 0.9080 0.9030 0.8960 0.8910
6.127000 0.8830 0.8730 0.8580 0.8380 0.8130
6.160191 0.7820 0.7420 0.7380 0.7380 0.7580
6.193000 0.7880 0.8050 0.8230 0.8400 0.8460
6.226191 0.8550 0.8550 0.8550 0.8530 0.8400
6.260000 0.8200 0.7830 0.7320 0.6900 0.6400
6.293191 0.6380 0.6400 0.6670 0.7200 0.7750
6.326000 0.8250 0.8530 0.8710 0.8830 0.8900
6.359191 0.8930 0.8960 0.9000 0.9060 0.9160
6.392000 0.9310 0.9400 0.9400 0.9380 0.9380
6.425191 0.9350 0.9330 0.9300 0.9280 0.9260
6.459000 0.9260 0.9280 0.9300 0.9350 0.9400
6.492191 0.9410 0.9410 0.9400 0.9330 0.9310
6.525000 0.9210 0.9160 0.9160 0.9160 0.9180
6.558191 0.9250 0.9280 0.9280 0.9280 0.9210
6.591000 0.9080 0.9000 0.8930 0.8900 0.8900
6.624191 0.8880 0.8830 0.8730 0.8610 0.8580
6.658000 0.8450 0.8250 0.8000 0.7680 0.7350
6.691191 0.7020 0.6670 0.6330 0.6030 0.5640
6.724000 0.5190 0.4190 0.3660 0.3140 0.2640
6.757191 0.2160 0.1790 0.1440 0.1060 0.0780
6.791000 0.0640 0.0530 0.0390 0.0360 0.0340
6.824191 0.0340 0.0380 0.0430 0.0490 0.0560
6.857000 0.0660 0.0790 0.0910 0.1060 0.1180
6.890191 0.1310 0.1410 0.1530 0.1660 0.1810
6.923000 0.1990 0.2170 0.2390 0.2610 0.2860
6.956191 0.3120 0.3240 0.3310 0.3370 0.3410
6.990000 0.3460 0.3520 0.3620 0.3740 0.3770
7.023191 0.3840 0.3960 0.4150 0.4450 0.4840
7.056000 0.5090 0.5320 0.5940 0.6150 0.6320
7.089191 0.6450 0.6580 0.6680 0.6770 0.6820
7.122000 0.6880 0.6920 0.6930 0.6950 0.6980
7.155191 0.7020 0.7030 0.7030 0.7000 0.6880
7.189000 0.6800 0.6300 0.6220 0.6200 0.6020
7.222191 0.5700 0.5440 0.5100 0.4500 0.4150
7.255000 0.3870 0.3620 0.3610 0.3610 0.3670
7.288191 0.4040 0.4300 0.4520 0.4670 0.4800
7.321000 0.4950 0.5050 0.5150 0.5400 0.5720
7.354191 0.5950 0.6120 0.6230 0.6330 0.6400
7.388000 0.6470 0.6550 0.6650 0.6780 0.6870
7.421191 0.6950 0.7050 0.7130 0.7200 0.7270
7.454000 0.7320 0.7370 0.7380 0.7420 0.7470
7.487191 0.7500 0.7550 0.7580 0.7580 0.7580
7.520000 0.7570 0.7520 0.7470 0.7470 0.7430
7.553191 0.7250 0.7170 0.7000 0.6680 0.6250
7.587000 0.6070 0.6070 0.6080 0.6620 0.6900
7.620191 0.6980 0.6980 0.6920 0.6850 0.6800
7.653000 0.6730 0.6730 0.6780 0.6980 0.7130
7.686191 0.7230 0.7320 0.7380 0.7430 0.7480
7.719000 0.7480 0.7480 0.7480 0.7450 0.7430
7.752191 0.7370 0.7270 0.7100 0.7000 0.6820
7.786000 0.6670 0.6500 0.6480 0.6480 0.6500
7.819191 0.6520 0.6620 0.6620 0.6600 0.6450
7.852000 0.6350 0.6270 0.6180 0.6070 0.6050
7.885191 0.5990 0.5940 0.5870 0.5790 0.5690
7.918000 0.5550 0.5390 0.5170 0.4570 0.4300
7.951191 0.3960 0.3560 0.3160 0.2760 0.2370
7.985000 0.2070 0.1840 0.1710 0.1440 0.1260
8.018191 0.1190 0.1130 0.1090 0.1040 0.0940
8.051000 0.0910 0.0880 0.0880 0.0910 0.1130
8.084191 0.1380 0.1660 0.1910 0.2120 0.2370
8.118000 0.2670 0.2970 0.3260 0.3510 0.3670
8.151191 0.3820 0.3970 0.4150 0.4190 0.4190
8.184000 0.4190 0.4170 0.4120 0.4040 0.3970
8.217191 0.3920 0.3790 0.3590 0.3240 0.2940
8.250000 0.2610 0.2490 0.2220 0.2060 0.1940
8.283191 0.1740 0.1590 0.1430 0.1240 0.1080
8.317000 0.0910 0.0780 0.0640 0.0560 0.0510
8.350191 0.0460 0.0430 0.0430 0.0430 0.0440
8.383000 0.0460 0.0480 0.0490 0.0530 0.0580
8.416191 0.0590 0.0590 0.0580 0.0560 0.0540
8.449000 0.0530 0.0540 0.0630 0.0730 0.0830
8.482191 0.0890 0.0890 0.0840 0.0830 0.0780
8.516000 0.0730 0.0660 0.0630 0.0590 0.0580
8.549191 0.0560 0.0560 0.0540 0.0530 0.0510
8.582000 0.0510 0.0490 0.0490 0.0530 0.0580
8.615191 0.0680 0.0780 0.0860 0.0930 0.0990
8.648000 0.1080 0.1140 0.1230 0.1310 0.1390
8.681191 0.1430 0.1510 0.1530 0.1560 0.1560
8.715000 0.1580 0.1590 0.1640 0.1680 0.1710
8.748191 0.1780 0.1840 0.1890 0.1930 0.1980
8.781000 0.2020 0.2090 0.2170 0.2240 0.2310
8.814191 0.2340 0.2390 0.2420 0.2460 0.2490
8.847000 0.2510 0.2520 0.2560 0.2590 0.2610
8.880191 0.2660 0.2710 0.2790 0.2890 0.3010
8.914000 0.3160 0.3210 0.3240 0.3290 0.3310
8.947191 0.3320 0.3320 0.3310 0.3290 0.3270
8.980000 0.3270 0.3270 0.3290 0.3520 0.3760
9.013191 0.3970 0.4170 0.4370 0.4540 0.4700
9.046000 0.4850 0.4990 0.5050 0.5120 0.5200
9.079191 0.5290 0.5350 0.5390 0.5390 0.5390
9.113000 0.5340 0.5290 0.5170 0.5000 0.4450
9.146191 0.4070 0.3710 0.3160 0.2920 0.2810
9.179000 0.2770 0.2770 0.2740 0.2620 0.2460
9.212191 0.2240 0.1930 0.1880 0.1880 0.1910
9.245000 0.2210 0.2510 0.2910 0.3340 0.3820
9.278191 0.4250 0.4620 0.4920 0.5070 0.5200
9.312000 0.5440 0.5640 0.5800 0.5970 0.6100
9.345191 0.6230 0.6350 0.6450 0.6480 0.6500
9.378000 0.6530 0.6570 0.6630 0.6670 0.6700
9.411191 0.6720 0.6720 0.6730 0.6730 0.6730
9.445000 0.6730 0.6730 0.6720 0.6720 0.6700
9.478191 0.6680 0.6630 0.6600 0.6580 0.6530
9.511000 0.6470 0.6370 0.6270 0.6180 0.6070
9.544191 0.5920 0.5750 0.5540 0.5300 0.5020
9.577000 0.4320 0.3770 0.3060 0.2590 0.2210
9.610191 0.1760 0.1410 0.1080 0.0890 0.0740
9.644000 0.0730 0.0740 0.0940 0.1260 0.1760
9.677191 0.2160 0.2540 0.2890 0.3260 0.3660
9.710000 0.3890 0.4070 0.4240 0.4490 0.4870
9.743191 0.5040 0.5200 0.5500 0.5800 0.6100
9.776000 0.6220 0.6480 0.6550 0.6630 0.6720
9.809191 0.6820 0.6900 0.6980 0.7050 0.7100
9.843000 0.7170 0.7180 0.7230 0.7280 0.7350
9.876191 0.7400 0.7420 0.7450 0.7470 0.7520
9.909000 0.7550 0.7600 0.7650 0.7700 0.7730
9.942191 0.7770 0.7770 0.7780 0.7780 0.7780
9.975000 0.7800 0.7820 0.7850 0.7870 0.7920
10.008191 0.7950 0.7970 0.7980 0.7980 0.7980
10.042000 0.7980 0.8000 0.8000 0.8000 0.8010
10.075191 0.8030 0.8060 0.8080 0.8100 0.8100
10.108000 0.8110 0.8110 0.8110 0.8130 0.8130
10.141191 0.8130 0.8150 0.8150 0.8150 0.8160
10.174000 0.8160 0.8180 0.8180 0.8180 0.8180
10.207191 0.8180 0.8200 0.8200 0.8200 0.8200
10.241000 0.8200 0.8180 0.8180 0.8180 0.8180
10.274191 0.8180 0.8180 0.8180 0.8180 0.8180
10.307000 0.8200 0.8200 0.8200 0.8210 0.8230
10.340191 0.8230 0.8250 0.8250 0.8250 0.8250
10.373000 0.8260 0.8260 0.8260 0.8280 0.8300
10.406191 0.8300 0.8310 0.8310 0.8310 0.8310
10.440000 0.8310 0.8330 0.8330 0.8330 0.8350
10.473191 0.8350 0.8350 0.8360 0.8360 0.8360
10.506000 0.8360 0.8380 0.8400 0.8400 0.8410
10.539191 0.8410 0.8430 0.8430 0.8430 0.8430
10.573000 0.8450 0.8450 0.8450 0.8460 0.8480
10.606191 0.8480 0.8500 0.8500 0.8500 0.8510
10.639000 0.8510 0.8510 0.8510 0.8510 0.8510
10.672191 0.8510 0.8510 0.8510 0.8510 0.8530
10.705000 0.8530 0.8530 0.8510 0.8510 0.8510
10.738191 0.8510 0.8510 0.8530 0.8550 0.8550
10.772000 0.8550 0.8560 0.8560 0.8560 0.8580
10.805191 0.8580 0.8580 0.8600 0.8600 0.8600
10.838000 0.8600 0.8610 0.8610 0.8610 0.8610
10.871191 0.8630 0.8650 0.8650 0.8660 0.8680
10.904000 0.8700 0.8700 0.8700 0.8700 0.8680
10.937191 0.8680 0.8700 0.8700 0.8710 0.8710
10.971000 0.8710 0.8730 0.8730 0.8730 0.8730
11.004191 0.8730 0.8750 0.8750 0.8760 0.8760
11.037000 0.8780 0.8800 0.8810 0.8810 0.8830
11.070191 0.8830 0.8850 0.8850 0.8860 0.8860
11.103000 0.8860 0.8860 0.8860 0.8860 0.8850
11.136191 0.8850 0.8810 0.8810 0.8810 0.8810
11.170000 0.8800 0.8800 0.8780 0.8760 0.8730
11.203191 0.8710 0.8700 0.8680 0.8650 0.8600
11.236000 0.8530 0.8460 0.8380 0.8250 0.8100
11.269191 0.7920 0.7750 0.7580 0.7470 0.7470
11.302000 0.7500 0.7720 0.7980 0.8210 0.8310
11.335191 0.8350 0.8330 0.8310 0.8160 0.8000
11.369000 0.7750 0.7220 0.7200 0.7220 0.7370
11.402191 0.7470 0.7620 0.7770 0.8000 0.8000
11.435000 0.8010 0.8010 0.8000 0.7550 0.7270
11.468191 0.6920 0.6530 0.6100 0.5670 0.5200
11.501000 0.4300 0.3870 0.3560 0.3420 0.3410
11.534191 0.3420 0.3510 0.3610 0.3620 0.3590
11.568000 0.3340 0.3090 0.2890 0.2740 0.2590
11.601191 0.2490 0.2270 0.2210 0.2210 0.2490
11.634000 0.2990 0.3590 0.4200 0.4720 0.5340
11.667191 0.5950 0.6470 0.6870 0.7200 0.7480
11.700000 0.7700 0.7880 0.8050 0.8150 0.8210
11.733191 0.8310 0.8450 0.8550 0.8610 0.8650
11.767000 0.8680 0.8700 0.8710 0.8730 0.8780
11.800191 0.8810 0.8850 0.8850 0.8860 0.8880
11.833000 0.8880 0.8900 0.8900 0.8900 0.8910
11.866191 0.8930 0.8960 0.8980 0.8980 0.9000
11.900000 0.9010 0.9010 0.9010 0.9010 0.9010
11.933191 0.9010 0.9030 0.9050 0.9050 0.9050
11.966000 0.9050 0.9050 0.9050 0.9050 0.9050
11.999191 0.9050 0.9050 0.9030 0.9030 0.9010
12.032000 0.9010 0.9000 0.8960 0.8960 0.8950
12.065191 0.8950 0.8960 0.8960 0.8980 0.9000
12.099000 0.9000 0.9010 0.9030 0.9030 0.9050
12.132191 0.9050 0.9060 0.9060 0.9060 0.9060
12.165000 0.9060 0.9080 0.9080 0.9080 0.9080
12.198191 0.9080 0.9080 0.9080 0.9080 0.9080
12.231000 0.9100 0.9100 0.9110 0.9110 0.9110
12.264191 0.9110 0.9110 0.9130 0.9130 0.9110
12.298000 0.9110 0.9080 0.9050 0.9010 0.9010
12.331191 0.8980 0.8950 0.8860 0.8810 0.8710
12.364000 0.8580 0.8410 0.8210 0.7980 0.7750
12.397191 0.7480 0.7200 0.6920 0.6680 0.6570
12.430000 0.6530 0.6530 0.6570 0.6680 0.6830
12.463191 0.6980 0.7120 0.7250 0.7420 0.7580
12.497000 0.7780 0.8000 0.8150 0.8280 0.8400
12.530191 0.8500 0.8580 0.8650 0.8710 0.8750
12.563000 0.8810 0.8850 0.8900 0.8910 0.8950
12.596191 0.9000 0.9010 0.9050 0.9060 0.9060
12.629000 0.9060 0.9080 0.9100 0.9100 0.9100
12.662191 0.9100 0.9100 0.9100 0.9100 0.9100
12.696000 0.9100 0.9100 0.9100 0.9100 0.9080
12.729191 0.9080 0.9080 0.9080 0.9080 0.9080
12.762000 0.9080 0.9060 0.9060 0.9060 0.9060
12.795191 0.9050 0.9050 0.9050 0.9050 0.9050
12.828000 0.9030 0.9030 0.9030 0.9010 0.9010
12.861191 0.9000 0.9000 0.8980 0.8980 0.8960
12.895000 0.8960 0.8910 0.8900 0.8880 0.8830
12.928191 0.8810 0.8780 0.8760 0.8710 0.8680
12.961000 0.8650 0.8610 0.8600 0.8580 0.8510
12.994191 0.8450 0.8380 0.8310 0.8250 0.8180
13.027000 0.8130 0.8080 0.8050 0.7980 0.7930
13.060191 0.7850 0.7780 0.7720 0.7650 0.7620
13.094000 0.7600 0.7580 0.7550 0.7500 0.7430
13.127191 0.7350 0.7270 0.7180 0.7070 0.6950
13.160000 0.6830 0.6700 0.6570 0.6400 0.6320
13.193191 0.6180 0.6000 0.5790 0.5550 0.5340
13.227000 0.5120 0.4790 0.4640 0.4470 0.4420
13.260191 0.4420 0.4450 0.4690 0.4870 0.4940
13.293000 0.5000 0.5190 0.5450 0.5550 0.5620
13.326191 0.5670 0.5700 0.5740 0.5740 0.5690
13.359000 0.5650 0.5620 0.5550 0.5500 0.5390
13.392191 0.5250 0.5090 0.4750 0.4690 0.4550
13.426000 0.4400 0.4200 0.3990 0.3710 0.3490
13.459191 0.3260 0.3060 0.2940 0.2810 0.2690
13.492000 0.2570 0.2470 0.2340 0.2260 0.2220
13.525191 0.2210 0.2210 0.2210 0.2190 0.2190
13.558000 0.2210 0.2270 0.2320 0.2390 0.2440
13.591191 0.2510 0.2590 0.2670 0.2790 0.2920
13.625000 0.2970 0.3120 0.3240 0.3360 0.3460
13.658191 0.3590 0.3710 0.3820 0.3970 0.4100
13.691000 0.4250 0.4370 0.4490 0.4600 0.4740
13.724191 0.4850 0.4950 0.5020 0.5070 0.5170
13.757000 0.5250 0.5320 0.5370 0.5470 0.5500
13.790191 0.5550 0.5590 0.5600 0.5590 0.5590
13.824000 0.5520 0.5470 0.5440 0.5300 0.5100
13.857191 0.4720 0.4520 0.4340 0.4170 0.4090
13.890000 0.4050 0.4040 0.4070 0.4290 0.4550
13.923191 0.4970 0.5170 0.5350 0.5690 0.5970
13.956000 0.6230 0.6450 0.6650 0.6820 0.6970
13.989191 0.7100 0.7220 0.7300 0.7380 0.7450
14.023000 0.7500 0.7570 0.7600 0.7650 0.7680
14.056191 0.7720 0.7750 0.7800 0.7830 0.7880
14.089000 0.7900 0.7920 0.7920 0.7930 0.7930
14.122191 0.7930 0.7950 0.7950 0.7970 0.7970
14.155000 0.7970 0.7970 0.7980 0.7980 0.7980
14.188191 0.7980 0.8010 0.8050 0.8060 0.8060
14.222000 0.8060 0.8080 0.8080 0.8100 0.8100
14.255191 0.8100 0.8100 0.8100 0.8110 0.8110
14.288000 0.8110 0.8110 0.8110 0.8110 0.8100
14.321191 0.8100 0.8080 0.8080 0.8080 0.8060
14.355000 0.8060 0.8050 0.8030 0.8030 0.8030
14.388191 0.8030 0.8030 0.8030 0.8030 0.8030
14.421000 0.8010 0.8010 0.8010 0.8010 0.8010
14.454191 0.8000 0.7980 0.7970 0.7970 0.7950
14.487000 0.7950 0.7930 0.7930 0.7920 0.7920
14.520191 0.7900 0.7880 0.7870 0.7870 0.7870
14.554000 0.7850 0.7830 0.7820 0.7820 0.7820
14.587191 0.7820 0.7820 0.7800 0.7780 0.7780
14.620000 0.7780 0.7770 0.7770 0.7770 0.7750
14.653191 0.7730 0.7700 0.7670 0.7650 0.7630
14.686000 0.7620 0.7580 0.7580 0.7570 0.7570
14.719191 0.7570 0.7550 0.7530 0.7520 0.7520
14.753000 0.7500 0.7480 0.7470 0.7450 0.7450
14.786191 0.7430 0.7420 0.7370 0.7320 0.7300
14.819000 0.7280 0.7280 0.7250 0.7230 0.7200
14.852191 0.7200 0.7170 0.7170 0.7150 0.7120
14.885000 0.7080 0.7000 0.6980 0.6970 0.6920
14.918191 0.6900 0.6880 0.6830 0.6820 0.6800
14.952000 0.6770 0.6700 0.6650 0.6620 0.6600
14.985191 0.6580 0.6570 0.6530 0.6480 0.6450
15.018000 0.6400 0.6380 0.6330 0.6300 0.6250
15.051191 0.6200 0.6150 0.6050 0.6000 0.5950
15.084000 0.5890 0.5850 0.5790 0.5720 0.5650
15.117191 0.5600 0.5550 0.5470 0.5400 0.5340
15.151000 0.5270 0.5190 0.5100 0.5050 0.4950
15.184191 0.4870 0.4840 0.4720 0.4650 0.4550
15.217000 0.4550 0.4500 0.4450 0.4390 0.4350
15.250191 0.4300 0.4250 0.4150 0.4090 0.4020
15.283000 0.4000 0.3920 0.3860 0.3810 0.3760
15.316191 0.3710 0.3690 0.3660 0.3620 0.3570
15.350000 0.3540 0.3510 0.3490 0.3440 0.3410
15.383191 0.3390 0.3370 0.3360 0.3360 0.3340
15.416000 0.3340 0.3360 0.3360 0.3360 0.3360
15.449191 0.3370 0.3370 0.3390 0.3390 0.3390
15.482000 0.3420 0.3420 0.3440 0.3470 0.3490
15.515191 0.3490 0.3520 0.3590 0.3640 0.3690
15.549000 0.3720 0.3740 0.3770 0.3810 0.3820
15.582191 0.3840 0.3870 0.3910 0.3940 0.3990
15.615000 0.4000 0.4040 0.4050 0.4120 0.4170
15.648191 0.4200 0.4240 0.4290 0.4320 0.4390
15.682000 0.4420 0.4450 0.4490 0.4540 0.4590
15.715191 0.4620 0.4690 0.4690 0.4720 0.4740
15.748000 0.4750 0.4820 0.4870 0.4900 0.4940
15.781191 0.4970 0.4990 0.5000 0.5020 0.5070
15.814000 0.5100 0.5140 0.5150 0.5200 0.5240
15.847191 0.5250 0.5300 0.5300 0.5320 0.5340
15.881000 0.5350 0.5390 0.5400 0.5400 0.5400
15.914191 0.5420 0.5440 0.5490 0.5500 0.5500
15.947000 0.5520 0.5520 0.5520 0.5520 0.5540
15.980191 0.5540
##END=
