##TITLE=Acetanilide, N,4-ditertiary butyl-
##JCAMP-DX=4.24
##DATA TYPE=INFRARED SPECTRUM
##CLASS=COBLENTZ III
##ORIGIN=MONSANTO (J. FREEMAN)
##OWNER=Copyright (C) 1987 by the Coblentz Society
Collection (C) 2018 copyright by the U.S. Secretary of Commerce
on behalf of the United States of America. All rights reserved.
##DATE=1958/12/11
##NAMES=N-(tert-butyl)-N-(4-tert-butylphenyl)acetamide
##MOLFORM=C16 H25 N O
##SOURCE REFERENCE=COBLENTZ NO. 9285
##$NIST ID=B6009285
##$NIST SOURCE=COBLENTZ
##$NIST IMAGE=cob9285
##SPECTROMETER/DATA SYSTEM=BECKMAN IR-4 (HYBRID PRISM-GRATING)
##INSTRUMENT PARAMETERS=NaCl PRISM
##STATE=SOLID (SPLIT MULL); HCB FOR 1-8 MICRON, NUJOL FOR 8-16 MICRON
##SAMPLING PROCEDURE=TRANSMISSION
##RESOLUTION=2
##DATA PROCESSING=DIGITIZED BY COBLENTZ SOCIETY (BATCH II) FROM HARD COPY
##XUNITS=1/CM
##YUNITS=TRANSMITTANCE
##XFACTOR=1.0
##YFACTOR=1
##FIRSTX=626
##LASTX=4000
##FIRSTY=0.9736
##MAXX=4000
##MINX=626
##MAXY=1
##MINY=0.0004
##NPOINTS=3375
##XYDATA=(X++(Y..Y))
626.000000 0.9736 0.9735 0.9741 0.9748 0.9747
631.000000 0.9733 0.9717 0.9762 0.9724 0.9730
636.000000 0.9747 0.9765 0.9788 0.9811 0.9826
641.000000 0.9829 0.9828 0.9822 0.9816 0.9803
646.000000 0.9770 0.9736 0.9701 0.9654 0.9615
651.000000 0.9582 0.9584 0.9599 0.9627 0.9653
656.000000 0.9677 0.9696 0.9714 0.9734 0.9759
661.000000 0.9784 0.9819 0.9854 0.9894 0.9945
666.000000 1.0000 0.9958 0.9970 0.9935 0.9904
671.000000 0.9891 0.9885 0.9879 0.9874 0.9865
676.000000 0.9854 0.9850 0.9848 0.9846 0.9844
681.000000 0.9838 0.9829 0.9820 0.9810 0.9802
686.000000 0.9793 0.9785 0.9778 0.9772 0.9765
691.000000 0.9755 0.9747 0.9748 0.9749 0.9751
696.000000 0.9746 0.9738 0.9727 0.9717 0.9706
701.000000 0.9689 0.9672 0.9651 0.9631 0.9611
706.000000 0.9589 0.9564 0.9540 0.9519 0.9496
711.000000 0.9456 0.9403 0.9351 0.9298 0.9245
716.000000 0.9193 0.9141 0.9088 0.8999 0.8917
721.000000 0.8854 0.8805 0.8783 0.8768 0.8794
726.000000 0.8766 0.8758 0.8803 0.8887 0.9008
731.000000 0.9070 0.9104 0.9137 0.9164 0.9189
736.000000 0.9215 0.9235 0.9253 0.9268 0.9277
741.000000 0.9288 0.9299 0.9310 0.9315 0.9329
746.000000 0.9317 0.9271 0.9098 0.8920 0.8662
751.000000 0.8479 0.8447 0.8632 0.8898 0.9109
756.000000 0.9269 0.9354 0.9412 0.9445 0.9472
761.000000 0.9480 0.9488 0.9489 0.9490 0.9489
766.000000 0.9488 0.9487 0.9487 0.9487 0.9488
771.000000 0.9488 0.9489 0.9493 0.9499 0.9503
776.000000 0.9507 0.9513 0.9520 0.9526 0.9531
781.000000 0.9535 0.9539 0.9543 0.9567 0.9544
786.000000 0.9543 0.9543 0.9539 0.9535 0.9530
791.000000 0.9515 0.9496 0.9458 0.9399 0.9331
796.000000 0.9243 0.9120 0.8996 0.8885 0.8725
801.000000 0.8480 0.8427 0.8423 0.8766 0.8990
806.000000 0.9158 0.9289 0.9355 0.9397 0.9424
811.000000 0.9442 0.9451 0.9456 0.9459 0.9457
816.000000 0.9443 0.9447 0.9433 0.9419 0.9397
821.000000 0.9375 0.9347 0.9296 0.9234 0.9154
826.000000 0.9062 0.8966 0.8842 0.8696 0.8494
831.000000 0.8258 0.7992 0.7539 0.6103 0.4150
836.000000 0.4035 0.3967 0.3956 0.3973 0.4613
841.000000 0.5135 0.5656 0.6175 0.6693 0.7210
846.000000 0.7684 0.8153 0.8609 0.8942 0.9029
851.000000 0.9094 0.9145 0.9192 0.9238 0.9270
856.000000 0.9300 0.9320 0.9333 0.9347 0.9361
861.000000 0.9374 0.9385 0.9396 0.9406 0.9417
866.000000 0.9422 0.9424 0.9426 0.9424 0.9429
871.000000 0.9431 0.9433 0.9434 0.9436 0.9432
876.000000 0.9426 0.9420 0.9413 0.9403 0.9393
881.000000 0.9383 0.9373 0.9362 0.9349 0.9335
886.000000 0.9321 0.9307 0.9299 0.9294 0.9287
891.000000 0.9281 0.9282 0.9287 0.9292 0.9296
896.000000 0.9299 0.9302 0.9306 0.9309 0.9312
901.000000 0.9313 0.9314 0.9314 0.9306 0.9298
906.000000 0.9284 0.9261 0.9233 0.9192 0.9149
911.000000 0.9096 0.9035 0.8969 0.8905 0.8843
916.000000 0.8784 0.8723 0.8644 0.8569 0.8516
921.000000 0.8452 0.8484 0.8498 0.8512 0.8562
926.000000 0.8523 0.8519 0.8497 0.8455 0.8532
931.000000 0.8594 0.8698 0.8777 0.8870 0.8942
936.000000 0.8990 0.9031 0.9064 0.9083 0.9089
941.000000 0.9094 0.9089 0.9058 0.9004 0.8918
946.000000 0.8802 0.8574 0.8415 0.8323 0.8325
951.000000 0.8322 0.8391 0.8521 0.8629 0.8687
956.000000 0.8688 0.8728 0.8575 0.8444 0.8345
961.000000 0.8289 0.8293 0.8479 0.8614 0.8693
966.000000 0.8750 0.8796 0.8839 0.8879 0.8919
971.000000 0.8950 0.8981 0.9012 0.9037 0.9061
976.000000 0.9084 0.9101 0.9117 0.9134 0.9149
981.000000 0.9161 0.9167 0.9173 0.9180 0.9186
986.000000 0.9192 0.9193 0.9192 0.9192 0.9190
991.000000 0.9188 0.9186 0.9180 0.9174 0.9168
996.000000 0.9162 0.9155 0.9148 0.9136 0.9124
1001.000000 0.9111 0.9091 0.9069 0.9048 0.9021
1006.000000 0.8974 0.8927 0.8880 0.8792 0.8701
1011.000000 0.8595 0.8453 0.8136 0.7759 0.7383
1016.000000 0.7008 0.6633 0.6039 0.6033 0.6155
1021.000000 0.6419 0.6683 0.6947 0.7210 0.7385
1026.000000 0.7435 0.7379 0.7366 0.7334 0.7292
1031.000000 0.7238 0.7148 0.7071 0.7032 0.7004
1036.000000 0.6995 0.6987 0.6985 0.6972 0.7000
1041.000000 0.7051 0.7143 0.7284 0.7447 0.7592
1046.000000 0.7720 0.7900 0.8157 0.8323 0.8427
1051.000000 0.8519 0.8592 0.8661 0.8710 0.8756
1056.000000 0.8795 0.8830 0.8857 0.8884 0.8911
1061.000000 0.8935 0.8954 0.8973 0.8992 0.9007
1066.000000 0.9021 0.9035 0.9047 0.9055 0.9061
1071.000000 0.9068 0.9073 0.9154 0.9079 0.9081
1076.000000 0.9082 0.9081 0.9080 0.9079 0.9078
1081.000000 0.9076 0.9074 0.9072 0.9070 0.9066
1086.000000 0.9060 0.9054 0.9048 0.9042 0.9034
1091.000000 0.9025 0.9017 0.9009 0.8999 0.8987
1096.000000 0.8970 0.8952 0.8930 0.8903 0.8876
1101.000000 0.8840 0.8786 0.8725 0.8653 0.8523
1106.000000 0.8166 0.7769 0.7372 0.6977 0.6582
1111.000000 0.6188 0.5795 0.4989 0.5009 0.4977
1116.000000 0.5509 0.6078 0.6648 0.7216 0.7784
1121.000000 0.8466 0.8627 0.8737 0.8819 0.8876
1126.000000 0.8919 0.8944 0.8968 0.8990 0.9003
1131.000000 0.9013 0.9019 0.9021 0.9034 0.9021
1136.000000 0.9018 0.9013 0.9006 0.9000 0.8991
1141.000000 0.8981 0.8970 0.8958 0.8944 0.8929
1146.000000 0.8916 0.8901 0.8884 0.8868 0.8851
1151.000000 0.8834 0.8816 0.8797 0.8778 0.8760
1156.000000 0.8738 0.8714 0.8691 0.8668 0.8640
1161.000000 0.8606 0.8572 0.8538 0.8497 0.8448
1166.000000 0.8401 0.8352 0.8298 0.8232 0.8164
1171.000000 0.8097 0.8029 0.7961 0.7894 0.7826
1176.000000 0.7752 0.7671 0.7590 0.7507 0.7419
1181.000000 0.7331 0.7243 0.7127 0.7004 0.6859
1186.000000 0.6638 0.6437 0.6234 0.6006 0.5688
1191.000000 0.5365 0.5043 0.4722 0.4401 0.4081
1196.000000 0.3640 0.3349 0.3127 0.2905 0.2613
1201.000000 0.2612 0.2687 0.2973 0.3248 0.3415
1206.000000 0.3763 0.4111 0.4458 0.4805 0.5151
1211.000000 0.5911 0.6422 0.6508 0.6584 0.6644
1216.000000 0.6676 0.6693 0.6727 0.6481 0.6282
1221.000000 0.6083 0.5884 0.5686 0.5488 0.5290
1226.000000 0.5174 0.5176 0.5421 0.5733 0.6045
1231.000000 0.6356 0.6667 0.6945 0.7139 0.7322
1236.000000 0.7485 0.7617 0.7704 0.7767 0.7824
1241.000000 0.7868 0.7907 0.7930 0.7947 0.7959
1246.000000 0.7971 0.7985 0.7992 0.7989 0.7994
1251.000000 0.7993 0.7992 0.7989 0.7984 0.7979
1256.000000 0.7971 0.7960 0.7944 0.7923 0.7898
1261.000000 0.7867 0.7822 0.7697 0.7399 0.7067
1266.000000 0.6735 0.6404 0.6073 0.5742 0.5413
1271.000000 0.5083 0.4867 0.4844 0.4821 0.4798
1276.000000 0.4773 0.4706 0.4588 0.4412 0.4179
1281.000000 0.3948 0.3716 0.3485 0.3255 0.3024
1286.000000 0.2794 0.2527 0.2517 0.2631 0.3237
1291.000000 0.3971 0.4704 0.5436 0.5900 0.6001
1296.000000 0.6094 0.6211 0.6371 0.6578 0.6744
1301.000000 0.6793 0.6836 0.6861 0.6872 0.6874
1306.000000 0.6878 0.6865 0.6854 0.6829 0.6779
1311.000000 0.6695 0.6567 0.6421 0.6307 0.6189
1316.000000 0.6079 0.5914 0.5789 0.5708 0.5633
1321.000000 0.5539 0.5321 0.4986 0.4648 0.4311
1326.000000 0.3974 0.3725 0.3546 0.3270 0.2946
1331.000000 0.2586 0.2226 0.1866 0.1507 0.1149
1336.000000 0.0790 0.0433 0.0147 0.0068 0.0049
1341.000000 0.0046 0.0015 0.0113 0.0480 0.0945
1346.000000 0.1411 0.1875 0.2339 0.2801 0.3263
1351.000000 0.3724 0.4186 0.4645 0.5093 0.5217
1356.000000 0.5228 0.5224 0.4534 0.3616 0.2698
1361.000000 0.1781 0.0943 0.0612 0.0522 0.0427
1366.000000 0.0345 0.0290 0.0269 0.0250 0.0231
1371.000000 0.0226 0.0229 0.0194 0.0249 0.0294
1376.000000 0.0376 0.0488 0.0625 0.0766 0.0943
1381.000000 0.1216 0.1487 0.1759 0.2030 0.2301
1386.000000 0.2571 0.2841 0.3111 0.3350 0.3352
1391.000000 0.3372 0.3272 0.3149 0.3027 0.2904
1396.000000 0.2782 0.2661 0.2564 0.2542 0.2582
1401.000000 0.2747 0.2954 0.3160 0.3367 0.3574
1406.000000 0.3780 0.3960 0.4115 0.4244 0.4312
1411.000000 0.4562 0.4949 0.5467 0.5702 0.5854
1416.000000 0.5959 0.6024 0.6068 0.6078 0.6081
1421.000000 0.6085 0.6077 0.6088 0.6030 0.5990
1426.000000 0.5958 0.5920 0.5877 0.5832 0.5789
1431.000000 0.5758 0.5731 0.5704 0.5675 0.5644
1436.000000 0.5628 0.5626 0.5630 0.5618 0.5649
1441.000000 0.5662 0.5676 0.5693 0.5729 0.5776
1446.000000 0.5819 0.5861 0.5900 0.5928 0.5928
1451.000000 0.5899 0.5711 0.5542 0.5436 0.5350
1456.000000 0.5263 0.5194 0.5127 0.5060 0.4993
1461.000000 0.4918 0.4745 0.4559 0.4373 0.4201
1466.000000 0.4115 0.4086 0.4090 0.4078 0.4106
1471.000000 0.4212 0.4343 0.4474 0.4605 0.4735
1476.000000 0.4866 0.4996 0.5126 0.5257 0.5348
1481.000000 0.5408 0.5457 0.5508 0.5559 0.5611
1486.000000 0.5663 0.5714 0.5765 0.5841 0.5955
1491.000000 0.6051 0.6154 0.6263 0.6371 0.6479
1496.000000 0.6587 0.6695 0.6803 0.6891 0.6902
1501.000000 0.6915 0.6911 0.6912 0.6794 0.6487
1506.000000 0.6145 0.5802 0.5460 0.5119 0.4778
1511.000000 0.4438 0.4098 0.3759 0.3420 0.3081
1516.000000 0.2743 0.2408 0.2350 0.2332 0.2335
1521.000000 0.2452 0.2872 0.3394 0.3915 0.4436
1526.000000 0.4956 0.5474 0.5993 0.6511 0.7028
1531.000000 0.7543 0.8005 0.8109 0.8160 0.8203
1536.000000 0.8222 0.8235 0.8241 0.8245 0.8248
1541.000000 0.8251 0.8253 0.8255 0.8256 0.8257
1546.000000 0.8258 0.8259 0.8249 0.8259 0.8259
1551.000000 0.8258 0.8257 0.8254 0.8250 0.8245
1556.000000 0.8241 0.8233 0.8224 0.8212 0.8192
1561.000000 0.8167 0.8135 0.8046 0.7908 0.7769
1566.000000 0.7632 0.7494 0.7356 0.7219 0.7082
1571.000000 0.6944 0.6844 0.6800 0.6818 0.6823
1576.000000 0.6886 0.7034 0.7207 0.7380 0.7553
1581.000000 0.7725 0.7898 0.8069 0.8242 0.8374
1586.000000 0.8414 0.8418 0.8410 0.8421 0.8422
1591.000000 0.8420 0.8335 0.8206 0.8076 0.7945
1596.000000 0.7815 0.7686 0.7557 0.7427 0.7298
1601.000000 0.7169 0.7040 0.6912 0.6783 0.6654
1606.000000 0.6526 0.6398 0.6270 0.6143 0.6014
1611.000000 0.5893 0.5792 0.5808 0.5819 0.5920
1616.000000 0.6022 0.6125 0.6227 0.6329 0.6431
1621.000000 0.6533 0.6635 0.6736 0.6793 0.6806
1626.000000 0.6799 0.6803 0.6790 0.6727 0.6593
1631.000000 0.6458 0.6325 0.6191 0.6058 0.5924
1636.000000 0.5791 0.5669 0.5611 0.5450 0.4935
1641.000000 0.4258 0.3581 0.3065 0.2835 0.2744
1646.000000 0.2656 0.2557 0.2447 0.2316 0.2155
1651.000000 0.1949 0.1785 0.1646 0.1529 0.1432
1656.000000 0.1292 0.1063 0.0830 0.0596 0.0364
1661.000000 0.0131 0.0025 0.0004 0.0004 0.0004
1666.000000 0.0004 0.0004 0.0004 0.0004 0.0004
1671.000000 0.0004 0.0004 0.0847 0.1981 0.3360
1676.000000 0.4447 0.4688 0.4734 0.4780 0.4823
1681.000000 0.4863 0.4903 0.5023 0.5198 0.5378
1686.000000 0.5558 0.5738 0.5918 0.6097 0.6276
1691.000000 0.6455 0.6634 0.6812 0.6991 0.7168
1696.000000 0.7337 0.7518 0.7770 0.8100 0.8332
1701.000000 0.8412 0.8478 0.8522 0.8558 0.8594
1706.000000 0.8630 0.8669 0.8712 0.8759 0.8805
1711.000000 0.8845 0.8881 0.8916 0.8950 0.8981
1716.000000 0.9011 0.9041 0.9070 0.9100 0.9132
1721.000000 0.9165 0.9197 0.9230 0.9259 0.9287
1726.000000 0.9316 0.9344 0.9372 0.9399 0.9427
1731.000000 0.9453 0.9480 0.9503 0.9524 0.9544
1736.000000 0.9565 0.9586 0.9603 0.9617 0.9629
1741.000000 0.9641 0.9653 0.9665 0.9677 0.9686
1746.000000 0.9693 0.9698 0.9704 0.9710 0.9715
1751.000000 0.9718 0.9716 0.9714 0.9683 0.9708
1756.000000 0.9703 0.9695 0.9687 0.9679 0.9672
1761.000000 0.9663 0.9653 0.9643 0.9633 0.9622
1766.000000 0.9612 0.9601 0.9591 0.9580 0.9571
1771.000000 0.9561 0.9551 0.9541 0.9531 0.9521
1776.000000 0.9513 0.9506 0.9499 0.9492 0.9484
1781.000000 0.9477 0.9470 0.9463 0.9456 0.9450
1786.000000 0.9444 0.9438 0.9432 0.9426 0.9420
1791.000000 0.9413 0.9407 0.9402 0.9398 0.9393
1796.000000 0.9382 0.9386 0.9382 0.9382 0.9388
1801.000000 0.9403 0.9421 0.9442 0.9464 0.9483
1806.000000 0.9495 0.9507 0.9518 0.9529 0.9540
1811.000000 0.9551 0.9571 0.9605 0.9636 0.9650
1816.000000 0.9656 0.9655 0.9655 0.9655 0.9654
1821.000000 0.9653 0.9653 0.9651 0.9649 0.9647
1826.000000 0.9645 0.9643 0.9641 0.9639 0.9637
1831.000000 0.9633 0.9629 0.9625 0.9621 0.9617
1836.000000 0.9613 0.9609 0.9605 0.9602 0.9599
1841.000000 0.9596 0.9593 0.9589 0.9586 0.9583
1846.000000 0.9580 0.9576 0.9571 0.9567 0.9562
1851.000000 0.9557 0.9553 0.9548 0.9545 0.9544
1856.000000 0.9544 0.9544 0.9577 0.9549 0.9554
1861.000000 0.9559 0.9565 0.9573 0.9581 0.9589
1866.000000 0.9594 0.9596 0.9599 0.9601 0.9603
1871.000000 0.9604 0.9604 0.9603 0.9603 0.9603
1876.000000 0.9602 0.9601 0.9601 0.9600 0.9599
1881.000000 0.9598 0.9596 0.9594 0.9591 0.9589
1886.000000 0.9587 0.9585 0.9582 0.9577 0.9571
1891.000000 0.9565 0.9559 0.9553 0.9547 0.9541
1896.000000 0.9535 0.9529 0.9519 0.9509 0.9499
1901.000000 0.9489 0.9474 0.9455 0.9431 0.9409
1906.000000 0.9387 0.9366 0.9348 0.9329 0.9310
1911.000000 0.9294 0.9277 0.9262 0.9253 0.9246
1916.000000 0.9240 0.9234 0.9229 0.9224 0.9218
1921.000000 0.9217 0.9217 0.9217 0.9217 0.9217
1926.000000 0.9217 0.9188 0.9236 0.9257 0.9278
1931.000000 0.9299 0.9319 0.9339 0.9359 0.9381
1936.000000 0.9402 0.9423 0.9444 0.9464 0.9484
1941.000000 0.9504 0.9517 0.9526 0.9531 0.9537
1946.000000 0.9541 0.9541 0.9539 0.9538 0.9538
1951.000000 0.9537 0.9536 0.9534 0.9532 0.9530
1956.000000 0.9528 0.9526 0.9524 0.9522 0.9520
1961.000000 0.9518 0.9516 0.9514 0.9512 0.9510
1966.000000 0.9507 0.9506 0.9510 0.9514 0.9518
1971.000000 0.9522 0.9526 0.9530 0.9534 0.9538
1976.000000 0.9541 0.9544 0.9546 0.9544 0.9542
1981.000000 0.9540 0.9539 0.9536 0.9534 0.9531
1986.000000 0.9529 0.9526 0.9524 0.9521 0.9519
1991.000000 0.9516 0.9515 0.9513 0.9512 0.9511
1996.000000 0.9510 0.9508 0.9507 0.9506 0.9505
2001.000000 0.9507 0.9510 0.9514 0.9517 0.9521
2006.000000 0.9525 0.9529 0.9532 0.9537 0.9541
2011.000000 0.9545 0.9548 0.9552 0.9556 0.9559
2016.000000 0.9563 0.9568 0.9573 0.9577 0.9582
2021.000000 0.9586 0.9591 0.9595 0.9600 0.9605
2026.000000 0.9609 0.9614 0.9618 0.9621 0.9621
2031.000000 0.9621 0.9621 0.9620 0.9620 0.9620
2036.000000 0.9619 0.9619 0.9619 0.9619 0.9619
2041.000000 0.9618 0.9618 0.9618 0.9618 0.9617
2046.000000 0.9616 0.9616 0.9615 0.9615 0.9614
2051.000000 0.9613 0.9613 0.9612 0.9612 0.9611
2056.000000 0.9610 0.9610 0.9610 0.9610 0.9609
2061.000000 0.9609 0.9608 0.9607 0.9607 0.9606
2066.000000 0.9606 0.9605 0.9604 0.9603 0.9602
2071.000000 0.9602 0.9601 0.9600 0.9600 0.9599
2076.000000 0.9599 0.9598 0.9598 0.9597 0.9595
2081.000000 0.9595 0.9594 0.9594 0.9593 0.9593
2086.000000 0.9592 0.9591 0.9590 0.9589 0.9589
2091.000000 0.9588 0.9588 0.9587 0.9586 0.9585
2096.000000 0.9584 0.9584 0.9583 0.9583 0.9581
2101.000000 0.9580 0.9580 0.9579 0.9578 0.9577
2106.000000 0.9577 0.9576 0.9575 0.9574 0.9573
2111.000000 0.9573 0.9572 0.9571 0.9570 0.9570
2116.000000 0.9569 0.9568 0.9567 0.9566 0.9566
2121.000000 0.9565 0.9564 0.9563 0.9563 0.9563
2126.000000 0.9562 0.9562 0.9561 0.9561 0.9561
2131.000000 0.9561 0.9560 0.9560 0.9560 0.9559
2136.000000 0.9559 0.9558 0.9558 0.9558 0.9558
2141.000000 0.9557 0.9557 0.9557 0.9557 0.9556
2146.000000 0.9555 0.9555 0.9555 0.9555 0.9554
2151.000000 0.9554 0.9554 0.9554 0.9553 0.9553
2156.000000 0.9552 0.9552 0.9552 0.9551 0.9551
2161.000000 0.9550 0.9550 0.9550 0.9550 0.9549
2166.000000 0.9549 0.9549 0.9549 0.9548 0.9548
2171.000000 0.9547 0.9546 0.9545 0.9544 0.9543
2176.000000 0.9542 0.9542 0.9541 0.9540 0.9539
2181.000000 0.9539 0.9538 0.9537 0.9536 0.9536
2186.000000 0.9535 0.9534 0.9533 0.9533 0.9532
2191.000000 0.9531 0.9530 0.9529 0.9528 0.9527
2196.000000 0.9527 0.9526 0.9525 0.9524 0.9524
2201.000000 0.9523 0.9522 0.9521 0.9521 0.9520
2206.000000 0.9519 0.9518 0.9518 0.9517 0.9516
2211.000000 0.9515 0.9514 0.9513 0.9512 0.9511
2216.000000 0.9511 0.9510 0.9509 0.9508 0.9507
2221.000000 0.9506 0.9505 0.9504 0.9504 0.9503
2226.000000 0.9502 0.9501 0.9500 0.9499 0.9498
2231.000000 0.9497 0.9497 0.9496 0.9495 0.9494
2236.000000 0.9493 0.9492 0.9491 0.9490 0.9490
2241.000000 0.9489 0.9488 0.9487 0.9487 0.9486
2246.000000 0.9485 0.9484 0.9483 0.9482 0.9482
2251.000000 0.9481 0.9480 0.9479 0.9478 0.9477
2256.000000 0.9477 0.9475 0.9473 0.9471 0.9468
2261.000000 0.9466 0.9464 0.9461 0.9458 0.9455
2266.000000 0.9453 0.9450 0.9448 0.9446 0.9443
2271.000000 0.9441 0.9438 0.9436 0.9433 0.9430
2276.000000 0.9428 0.9425 0.9423 0.9420 0.9418
2281.000000 0.9416 0.9413 0.9411 0.9408 0.9406
2286.000000 0.9404 0.9401 0.9399 0.9396 0.9394
2291.000000 0.9392 0.9389 0.9387 0.9384 0.9382
2296.000000 0.9380 0.9377 0.9376 0.9376 0.9377
2301.000000 0.9377 0.9377 0.9378 0.9379 0.9380
2306.000000 0.9380 0.9381 0.9382 0.9383 0.9383
2311.000000 0.9384 0.9384 0.9385 0.9386 0.9387
2316.000000 0.9387 0.9388 0.9388 0.9389 0.9391
2321.000000 0.9392 0.9394 0.9395 0.9396 0.9398
2326.000000 0.9399 0.9400 0.9402 0.9404 0.9406
2331.000000 0.9407 0.9408 0.9410 0.9411 0.9413
2336.000000 0.9414 0.9415 0.9417 0.9418 0.9421
2341.000000 0.9423 0.9425 0.9426 0.9429 0.9431
2346.000000 0.9433 0.9435 0.9437 0.9439 0.9441
2351.000000 0.9443 0.9445 0.9447 0.9449 0.9451
2356.000000 0.9453 0.9455 0.9457 0.9459 0.9461
2361.000000 0.9463 0.9465 0.9467 0.9468 0.9469
2366.000000 0.9470 0.9471 0.9472 0.9474 0.9475
2371.000000 0.9476 0.9477 0.9478 0.9479 0.9476
2376.000000 0.9472 0.9468 0.9464 0.9459 0.9455
2381.000000 0.9451 0.9447 0.9443 0.9439 0.9435
2386.000000 0.9429 0.9422 0.9415 0.9407 0.9399
2391.000000 0.9391 0.9382 0.9374 0.9366 0.9359
2396.000000 0.9353 0.9346 0.9339 0.9332 0.9326
2401.000000 0.9319 0.9315 0.9314 0.9313 0.9313
2406.000000 0.9314 0.9315 0.9315 0.9316 0.9317
2411.000000 0.9318 0.9319 0.9319 0.9321 0.9322
2416.000000 0.9323 0.9325 0.9327 0.9329 0.9330
2421.000000 0.9332 0.9334 0.9336 0.9338 0.9340
2426.000000 0.9341 0.9343 0.9345 0.9347 0.9348
2431.000000 0.9350 0.9352 0.9353 0.9354 0.9355
2436.000000 0.9355 0.9356 0.9356 0.9356 0.9357
2441.000000 0.9357 0.9358 0.9358 0.9359 0.9359
2446.000000 0.9359 0.9360 0.9360 0.9361 0.9361
2451.000000 0.9362 0.9362 0.9362 0.9363 0.9363
2456.000000 0.9364 0.9364 0.9364 0.9364 0.9363
2461.000000 0.9362 0.9361 0.9360 0.9358 0.9356
2466.000000 0.9355 0.9353 0.9351 0.9350 0.9349
2471.000000 0.9347 0.9346 0.9344 0.9343 0.9341
2476.000000 0.9340 0.9338 0.9337 0.9337 0.9337
2481.000000 0.9336 0.9336 0.9336 0.9336 0.9336
2486.000000 0.9335 0.9335 0.9334 0.9334 0.9334
2491.000000 0.9333 0.9333 0.9332 0.9332 0.9332
2496.000000 0.9332 0.9332 0.9332 0.9332 0.9332
2501.000000 0.9331 0.9331 0.9331 0.9331 0.9331
2506.000000 0.9331 0.9331 0.9330 0.9329 0.9328
2511.000000 0.9326 0.9325 0.9324 0.9322 0.9321
2516.000000 0.9319 0.9318 0.9317 0.9315 0.9314
2521.000000 0.9313 0.9311 0.9310 0.9308 0.9307
2526.000000 0.9306 0.9304 0.9303 0.9302 0.9300
2531.000000 0.9299 0.9298 0.9296 0.9294 0.9292
2536.000000 0.9291 0.9289 0.9287 0.9285 0.9283
2541.000000 0.9281 0.9279 0.9277 0.9275 0.9272
2546.000000 0.9270 0.9268 0.9266 0.9264 0.9262
2551.000000 0.9261 0.9259 0.9257 0.9255 0.9253
2556.000000 0.9251 0.9249 0.9247 0.9245 0.9243
2561.000000 0.9241 0.9239 0.9236 0.9234 0.9231
2566.000000 0.9228 0.9226 0.9224 0.9221 0.9219
2571.000000 0.9216 0.9214 0.9211 0.9208 0.9206
2576.000000 0.9203 0.9201 0.9199 0.9196 0.9193
2581.000000 0.9191 0.9188 0.9186 0.9183 0.9181
2586.000000 0.9179 0.9177 0.9174 0.9173 0.9172
2591.000000 0.9170 0.9169 0.9167 0.9166 0.9164
2596.000000 0.9163 0.9161 0.9159 0.9157 0.9156
2601.000000 0.9154 0.9153 0.9151 0.9150 0.9148
2606.000000 0.9147 0.9145 0.9144 0.9142 0.9141
2611.000000 0.9139 0.9137 0.9136 0.9134 0.9133
2616.000000 0.9131 0.9130 0.9128 0.9127 0.9126
2621.000000 0.9126 0.9126 0.9126 0.9126 0.9126
2626.000000 0.9126 0.9126 0.9126 0.9126 0.9126
2631.000000 0.9126 0.9126 0.9126 0.9126 0.9126
2636.000000 0.9126 0.9126 0.9126 0.9126 0.9126
2641.000000 0.9126 0.9126 0.9125 0.9125 0.9125
2646.000000 0.9124 0.9124 0.9124 0.9123 0.9122
2651.000000 0.9122 0.9121 0.9119 0.9118 0.9118
2656.000000 0.9117 0.9116 0.9116 0.9115 0.9114
2661.000000 0.9113 0.9113 0.9112 0.9110 0.9109
2666.000000 0.9108 0.9107 0.9106 0.9104 0.9103
2671.000000 0.9101 0.9100 0.9099 0.9098 0.9097
2676.000000 0.9095 0.9094 0.9093 0.9092 0.9091
2681.000000 0.9091 0.9091 0.9090 0.9090 0.9090
2686.000000 0.9090 0.9090 0.9090 0.9089 0.9088
2691.000000 0.9088 0.9086 0.9085 0.9083 0.9082
2696.000000 0.9081 0.9080 0.9079 0.9078 0.9077
2701.000000 0.9076 0.9075 0.9074 0.9071 0.9069
2706.000000 0.9066 0.9061 0.9057 0.9053 0.9049
2711.000000 0.9045 0.9040 0.9036 0.9031 0.9027
2716.000000 0.9023 0.9019 0.9015 0.9011 0.9007
2721.000000 0.9003 0.8999 0.8995 0.8991 0.8987
2726.000000 0.8983 0.8979 0.8976 0.8972 0.8970
2731.000000 0.8968 0.8966 0.8964 0.8963 0.8961
2736.000000 0.8959 0.8958 0.8956 0.8954 0.8953
2741.000000 0.8951 0.8949 0.8947 0.8945 0.8943
2746.000000 0.8942 0.8940 0.8939 0.8938 0.8938
2751.000000 0.8938 0.8938 0.8938 0.8938 0.8938
2756.000000 0.8938 0.8938 0.8938 0.8938 0.8939
2761.000000 0.8939 0.8939 0.8939 0.8939 0.8939
2766.000000 0.8938 0.8937 0.8936 0.8935 0.8934
2771.000000 0.8933 0.8932 0.8931 0.8930 0.8929
2776.000000 0.8929 0.8928 0.8927 0.8926 0.8925
2781.000000 0.8924 0.8923 0.8922 0.8921 0.8920
2786.000000 0.8919 0.8918 0.8914 0.8909 0.8905
2791.000000 0.8901 0.8897 0.8893 0.8889 0.8885
2796.000000 0.8881 0.8877 0.8872 0.8867 0.8861
2801.000000 0.8853 0.8846 0.8838 0.8831 0.8824
2806.000000 0.8816 0.8809 0.8801 0.8793 0.8786
2811.000000 0.8778 0.8771 0.8763 0.8755 0.8748
2816.000000 0.8740 0.8732 0.8724 0.8717 0.8709
2821.000000 0.8702 0.8694 0.8685 0.8676 0.8667
2826.000000 0.8657 0.8648 0.8638 0.8628 0.8619
2831.000000 0.8609 0.8599 0.8590 0.8580 0.8570
2836.000000 0.8561 0.8551 0.8541 0.8532 0.8522
2841.000000 0.8512 0.8497 0.8482 0.8468 0.8451
2846.000000 0.8433 0.8416 0.8399 0.8382 0.8365
2851.000000 0.8347 0.8327 0.8308 0.8285 0.8241
2856.000000 0.8197 0.8153 0.8115 0.8078 0.8041
2861.000000 0.8003 0.7965 0.7928 0.7868 0.7759
2866.000000 0.7650 0.7540 0.7381 0.7222 0.7063
2871.000000 0.6903 0.6744 0.6585 0.6426 0.6268
2876.000000 0.6109 0.5951 0.5792 0.5634 0.5476
2881.000000 0.5318 0.5160 0.5002 0.4902 0.4859
2886.000000 0.4817 0.4781 0.4778 0.4776 0.4773
2891.000000 0.4771 0.4768 0.4766 0.4764 0.4762
2896.000000 0.4761 0.4759 0.4758 0.4756 0.4755
2901.000000 0.4733 0.4706 0.4678 0.4641 0.4591
2906.000000 0.4541 0.4490 0.4440 0.4390 0.4341
2911.000000 0.4290 0.4240 0.4190 0.4140 0.4090
2916.000000 0.4040 0.3990 0.3940 0.3891 0.3841
2921.000000 0.3795 0.3753 0.3711 0.3669 0.3657
2926.000000 0.3645 0.3633 0.3621 0.3608 0.3596
2931.000000 0.3583 0.3571 0.3558 0.3545 0.3532
2936.000000 0.3519 0.3506 0.3493 0.3480 0.3467
2941.000000 0.3454 0.3431 0.3405 0.3380 0.3350
2946.000000 0.3314 0.3278 0.3242 0.3211 0.3181
2951.000000 0.3150 0.3123 0.3099 0.3075 0.3051
2956.000000 0.3004 0.2954 0.2904 0.2813 0.2664
2961.000000 0.2514 0.2365 0.2216 0.2067 0.1919
2966.000000 0.1790 0.1693 0.1596 0.1498 0.1478
2971.000000 0.1468 0.1459 0.1452 0.1449 0.1446
2976.000000 0.1443 0.1440 0.1437 0.1434 0.1431
2981.000000 0.1430 0.1429 0.1428 0.1427 0.1427
2986.000000 0.1427 0.1440 0.1536 0.1631 0.1726
2991.000000 0.1336 0.2072 0.2265 0.2459 0.2652
2996.000000 0.2845 0.3038 0.3231 0.3424 0.3617
3001.000000 0.3810 0.4073 0.4353 0.4634 0.4865
3006.000000 0.4888 0.4911 0.4934 0.4957 0.4979
3011.000000 0.5002 0.5024 0.5047 0.5069 0.5091
3016.000000 0.5139 0.5242 0.5345 0.5447 0.5507
3021.000000 0.5545 0.5584 0.5622 0.5645 0.5669
3026.000000 0.5692 0.5725 0.5776 0.5828 0.5879
3031.000000 0.5921 0.5960 0.5999 0.6037 0.6071
3036.000000 0.6104 0.6137 0.6184 0.6257 0.6330
3041.000000 0.6403 0.6453 0.6491 0.6528 0.6566
3046.000000 0.6645 0.6726 0.6808 0.6879 0.6911
3051.000000 0.6943 0.6975 0.7003 0.7027 0.7051
3056.000000 0.7075 0.7096 0.7117 0.7138 0.7159
3061.000000 0.7180 0.7201 0.7221 0.7242 0.7263
3066.000000 0.7283 0.7304 0.7324 0.7344 0.7365
3071.000000 0.7385 0.7474 0.7586 0.7698 0.7810
3076.000000 0.7860 0.7908 0.7956 0.7999 0.8017
3081.000000 0.8035 0.8053 0.8069 0.8084 0.8099
3086.000000 0.8114 0.8129 0.8143 0.8158 0.8172
3091.000000 0.8185 0.8198 0.8210 0.8223 0.8235
3096.000000 0.8248 0.8260 0.8273 0.8290 0.8306
3101.000000 0.8322 0.8339 0.8355 0.8371 0.8387
3106.000000 0.8405 0.8425 0.8446 0.8466 0.8484
3111.000000 0.8500 0.8516 0.8532 0.8544 0.8553
3116.000000 0.8563 0.8573 0.8582 0.8591 0.8600
3121.000000 0.8610 0.8616 0.8623 0.8629 0.8636
3126.000000 0.8642 0.8649 0.8655 0.8662 0.8666
3131.000000 0.8669 0.8673 0.8677 0.8679 0.8682
3136.000000 0.8685 0.8719 0.8689 0.8692 0.8694
3141.000000 0.8696 0.8698 0.8701 0.8703 0.8705
3146.000000 0.8707 0.8709 0.8711 0.8713 0.8713
3151.000000 0.8714 0.8714 0.8715 0.8715 0.8715
3156.000000 0.8715 0.8716 0.8716 0.8717 0.8717
3161.000000 0.8717 0.8717 0.8717 0.8717 0.8716
3166.000000 0.8716 0.8716 0.8716 0.8715 0.8715
3171.000000 0.8715 0.8715 0.8714 0.8713 0.8713
3176.000000 0.8712 0.8711 0.8710 0.8710 0.8709
3181.000000 0.8708 0.8708 0.8707 0.8706 0.8705
3186.000000 0.8705 0.8704 0.8703 0.8702 0.8701
3191.000000 0.8700 0.8699 0.8698 0.8697 0.8696
3196.000000 0.8695 0.8694 0.8693 0.8692 0.8692
3201.000000 0.8691 0.8690 0.8689 0.8688 0.8687
3206.000000 0.8686 0.8685 0.8684 0.8683 0.8682
3211.000000 0.8681 0.8680 0.8679 0.8678 0.8677
3216.000000 0.8675 0.8674 0.8673 0.8672 0.8670
3221.000000 0.8669 0.8668 0.8667 0.8666 0.8664
3226.000000 0.8663 0.8662 0.8661 0.8660 0.8658
3231.000000 0.8657 0.8656 0.8655 0.8654 0.8652
3236.000000 0.8650 0.8649 0.8647 0.8645 0.8644
3241.000000 0.8642 0.8640 0.8639 0.8637 0.8635
3246.000000 0.8633 0.8631 0.8629 0.8628 0.8626
3251.000000 0.8624 0.8623 0.8621 0.8619 0.8618
3256.000000 0.8616 0.8613 0.8611 0.8609 0.8606
3261.000000 0.8603 0.8600 0.8597 0.8595 0.8592
3266.000000 0.8589 0.8586 0.8583 0.8581 0.8578
3271.000000 0.8576 0.8573 0.8570 0.8568 0.8565
3276.000000 0.8562 0.8559 0.8556 0.8554 0.8551
3281.000000 0.8548 0.8546 0.8544 0.8542 0.8540
3286.000000 0.8538 0.8536 0.8534 0.8531 0.8530
3291.000000 0.8529 0.8528 0.8527 0.8527 0.8528
3296.000000 0.8529 0.8529 0.8530 0.8532 0.8534
3301.000000 0.8536 0.8538 0.8540 0.8542 0.8544
3306.000000 0.8546 0.8549 0.8551 0.8553 0.8556
3311.000000 0.8558 0.8560 0.8562 0.8563 0.8565
3316.000000 0.8567 0.8569 0.8571 0.8573 0.8575
3321.000000 0.8579 0.8582 0.8585 0.8588 0.8592
3326.000000 0.8595 0.8599 0.8603 0.8607 0.8610
3331.000000 0.8613 0.8616 0.8619 0.8623 0.8626
3336.000000 0.8629 0.8632 0.8635 0.8637 0.8640
3341.000000 0.8642 0.8645 0.8647 0.8649 0.8652
3346.000000 0.8654 0.8656 0.8656 0.8657 0.8658
3351.000000 0.8658 0.8658 0.8658 0.8658 0.8658
3356.000000 0.8657 0.8657 0.8657 0.8657 0.8657
3361.000000 0.8656 0.8656 0.8655 0.8655 0.8654
3366.000000 0.8654 0.8654 0.8653 0.8653 0.8652
3371.000000 0.8651 0.8651 0.8650 0.8649 0.8649
3376.000000 0.8649 0.8648 0.8648 0.8647 0.8645
3381.000000 0.8644 0.8643 0.8641 0.8640 0.8638
3386.000000 0.8637 0.8635 0.8634 0.8632 0.8631
3391.000000 0.8629 0.8628 0.8626 0.8625 0.8623
3396.000000 0.8622 0.8620 0.8619 0.8618 0.8616
3401.000000 0.8615 0.8614 0.8612 0.8611 0.8609
3406.000000 0.8607 0.8606 0.8605 0.8604 0.8602
3411.000000 0.8601 0.8600 0.8598 0.8597 0.8596
3416.000000 0.8595 0.8593 0.8592 0.8591 0.8589
3421.000000 0.8589 0.8588 0.8587 0.8586 0.8585
3426.000000 0.8584 0.8583 0.8582 0.8581 0.8580
3431.000000 0.8579 0.8578 0.8577 0.8576 0.8575
3436.000000 0.8574 0.8574 0.8573 0.8572 0.8572
3441.000000 0.8572 0.8571 0.8571 0.8570 0.8570
3446.000000 0.8569 0.8569 0.8569 0.8568 0.8567
3451.000000 0.8567 0.8566 0.8566 0.8565 0.8565
3456.000000 0.8564 0.8564 0.8563 0.8563 0.8563
3461.000000 0.8562 0.8562 0.8561 0.8561 0.8561
3466.000000 0.8561 0.8561 0.8561 0.8561 0.8561
3471.000000 0.8561 0.8561 0.8562 0.8562 0.8562
3476.000000 0.8562 0.8562 0.8563 0.8563 0.8563
3481.000000 0.8563 0.8564 0.8564 0.8564 0.8564
3486.000000 0.8564 0.8565 0.8565 0.8565 0.8565
3491.000000 0.8565 0.8566 0.8566 0.8566 0.8566
3496.000000 0.8566 0.8567 0.8567 0.8567 0.8567
3501.000000 0.8567 0.8568 0.8568 0.8568 0.8568
3506.000000 0.8568 0.8569 0.8569 0.8569 0.8569
3511.000000 0.8569 0.8570 0.8570 0.8570 0.8570
3516.000000 0.8570 0.8571 0.8571 0.8571 0.8571
3521.000000 0.8571 0.8572 0.8572 0.8572 0.8572
3526.000000 0.8572 0.8573 0.8573 0.8573 0.8573
3531.000000 0.8573 0.8574 0.8574 0.8574 0.8574
3536.000000 0.8574 0.8574 0.8574 0.8574 0.8574
3541.000000 0.8574 0.8575 0.8575 0.8575 0.8575
3546.000000 0.8575 0.8576 0.8576 0.8577 0.8577
3551.000000 0.8577 0.8578 0.8579 0.8579 0.8580
3556.000000 0.8580 0.8581 0.8581 0.8582 0.8582
3561.000000 0.8582 0.8583 0.8584 0.8584 0.8585
3566.000000 0.8585 0.8586 0.8586 0.8587 0.8587
3571.000000 0.8587 0.8588 0.8588 0.8589 0.8589
3576.000000 0.8589 0.8590 0.8590 0.8591 0.8592
3581.000000 0.8592 0.8593 0.8593 0.8593 0.8594
3586.000000 0.8594 0.8595 0.8595 0.8595 0.8596
3591.000000 0.8596 0.8597 0.8597 0.8598 0.8598
3596.000000 0.8599 0.8599 0.8600 0.8601 0.8601
3601.000000 0.8602 0.8602 0.8603 0.8603 0.8604
3606.000000 0.8605 0.8605 0.8606 0.8606 0.8606
3611.000000 0.8607 0.8607 0.8608 0.8608 0.8609
3616.000000 0.8609 0.8610 0.8611 0.8611 0.8612
3621.000000 0.8612 0.8613 0.8613 0.8614 0.8614
3626.000000 0.8615 0.8615 0.8615 0.8616 0.8616
3631.000000 0.8617 0.8618 0.8618 0.8619 0.8619
3636.000000 0.8620 0.8620 0.8621 0.8621 0.8622
3641.000000 0.8623 0.8623 0.8624 0.8624 0.8625
3646.000000 0.8626 0.8627 0.8628 0.8629 0.8630
3651.000000 0.8631 0.8632 0.8633 0.8634 0.8635
3656.000000 0.8636 0.8637 0.8638 0.8639 0.8640
3661.000000 0.8641 0.8642 0.8643 0.8645 0.8646
3666.000000 0.8647 0.8648 0.8649 0.8650 0.8651
3671.000000 0.8652 0.8653 0.8654 0.8655 0.8656
3676.000000 0.8657 0.8658 0.8659 0.8660 0.8661
3681.000000 0.8663 0.8664 0.8666 0.8667 0.8669
3686.000000 0.8671 0.8673 0.8675 0.8677 0.8678
3691.000000 0.8680 0.8682 0.8684 0.8685 0.8687
3696.000000 0.8688 0.8690 0.8691 0.8692 0.8693
3701.000000 0.8695 0.8696 0.8697 0.8698 0.8699
3706.000000 0.8700 0.8701 0.8702 0.8703 0.8704
3711.000000 0.8705 0.8706 0.8707 0.8708 0.8709
3716.000000 0.8710 0.8711 0.8712 0.8713 0.8714
3721.000000 0.8715 0.8716 0.8717 0.8719 0.8720
3726.000000 0.8721 0.8722 0.8722 0.8723 0.8724
3731.000000 0.8725 0.8726 0.8727 0.8728 0.8729
3736.000000 0.8731 0.8732 0.8732 0.8733 0.8734
3741.000000 0.8735 0.8736 0.8737 0.8738 0.8739
3746.000000 0.8740 0.8740 0.8741 0.8742 0.8743
3751.000000 0.8744 0.8745 0.8746 0.8747 0.8748
3756.000000 0.8748 0.8749 0.8750 0.8751 0.8752
3761.000000 0.8752 0.8753 0.8753 0.8754 0.8754
3766.000000 0.8755 0.8756 0.8757 0.8757 0.8758
3771.000000 0.8759 0.8759 0.8759 0.8760 0.8760
3776.000000 0.8760 0.8761 0.8761 0.8761 0.8762
3781.000000 0.8762 0.8762 0.8762 0.8762 0.8762
3786.000000 0.8762 0.8762 0.8761 0.8761 0.8761
3791.000000 0.8760 0.8760 0.8760 0.8759 0.8759
3796.000000 0.8759 0.8758 0.8758 0.8758 0.8757
3801.000000 0.8757 0.8757 0.8757 0.8757 0.8757
3806.000000 0.8756 0.8756 0.8756 0.8755 0.8755
3811.000000 0.8754 0.8754 0.8754 0.8753 0.8753
3816.000000 0.8753 0.8752 0.8752 0.8752 0.8751
3821.000000 0.8751 0.8751 0.8750 0.8750 0.8749
3826.000000 0.8749 0.8748 0.8748 0.8747 0.8746
3831.000000 0.8746 0.8745 0.8744 0.8744 0.8743
3836.000000 0.8743 0.8742 0.8742 0.8741 0.8741
3841.000000 0.8740 0.8739 0.8739 0.8738 0.8737
3846.000000 0.8737 0.8736 0.8735 0.8735 0.8734
3851.000000 0.8733 0.8733 0.8732 0.8732 0.8731
3856.000000 0.8731 0.8730 0.8730 0.8729 0.8728
3861.000000 0.8727 0.8726 0.8725 0.8724 0.8724
3866.000000 0.8723 0.8722 0.8721 0.8720 0.8719
3871.000000 0.8718 0.8717 0.8716 0.8715 0.8714
3876.000000 0.8713 0.8712 0.8711 0.8710 0.8709
3881.000000 0.8708 0.8707 0.8706 0.8705 0.8705
3886.000000 0.8704 0.8703 0.8702 0.8701 0.8700
3891.000000 0.8699 0.8698 0.8697 0.8696 0.8695
3896.000000 0.8694 0.8693 0.8692 0.8691 0.8690
3901.000000 0.8689 0.8688 0.8687 0.8686 0.8685
3906.000000 0.8684 0.8683 0.8682 0.8681 0.8680
3911.000000 0.8679 0.8678 0.8677 0.8676 0.8675
3916.000000 0.8674 0.8673 0.8672 0.8671 0.8670
3921.000000 0.8669 0.8668 0.8666 0.8665 0.8664
3926.000000 0.8663 0.8662 0.8661 0.8660 0.8658
3931.000000 0.8657 0.8656 0.8655 0.8653 0.8652
3936.000000 0.8651 0.8650 0.8648 0.8647 0.8646
3941.000000 0.8645 0.8644 0.8643 0.8641 0.8640
3946.000000 0.8639 0.8638 0.8636 0.8635 0.8634
3951.000000 0.8633 0.8632 0.8631 0.8629 0.8628
3956.000000 0.8627 0.8626 0.8625 0.8624 0.8623
3961.000000 0.8622 0.8620 0.8619 0.8618 0.8617
3966.000000 0.8615 0.8614 0.8613 0.8612 0.8611
3971.000000 0.8609 0.8608 0.8607 0.8606 0.8605
3976.000000 0.8604 0.8602 0.8601 0.8600 0.8599
3981.000000 0.8597 0.8596 0.8595 0.8594 0.8593
3986.000000 0.8592 0.8591 0.8590 0.8588 0.8587
3991.000000 0.8586 0.8585 0.8583 0.8582 0.8581
3996.000000 0.8580 0.8579 0.8578 0.8577 0.8576
##END=
