##TITLE=VINYL PHOSPHONIC ACID, DISODIUM SALT
##JCAMP-DX=4.24
##DATA TYPE=INFRARED SPECTRUM
##CLASS=COBLENTZ
##ORIGIN=DOW CHEMICAL COMPANY
##OWNER=COBLENTZ SOCIETY
Collection (C) 2018 copyright by the U.S. Secretary of Commerce
on behalf of the United States of America. All rights reserved.
##DATE=Not specified, most likely prior to 1970
##MOLFORM=C2 H3 O3 P Na2
##SOURCE REFERENCE=COBLENTZ NO. 1558
##$NIST ID=B6001558
##$NIST SOURCE=COBLENTZ
##$NIST IMAGE=cob1558
##SPECTROMETER/DATA SYSTEM=Not specified, most likely a prism, grating, or hybrid spectrometer.
##STATE=SOLID (MINERAL OIL MULL)
##SAMPLING PROCEDURE=TRANSMISSION
##RESOLUTION=4
##DATA PROCESSING=DIGITIZED BY NIST FROM HARD COPY
##XUNITS=MICROMETERS
##YUNITS=TRANSMITTANCE
##XFACTOR=1.000000
##YFACTOR=1
##DELTAX=000.006859
##FIRSTX=2.034
##LASTX=15.8289
##FIRSTY=0.877
##MAXX=15.8289
##MINX=2.034
##MAXY=0.877
##MINY=0.153
##NPOINTS=2012
##XYDATA=(X++(Y..Y))
2.034000 0.8770 0.8770 0.8750 0.8750 0.8720
2.068314 0.8700 0.8700 0.8720 0.8720 0.8750
2.103000 0.8750 0.8750 0.8750 0.8750 0.8750
2.137314 0.8750 0.8750 0.8750 0.8750 0.8770
2.171000 0.8770 0.8770 0.8770 0.8770 0.8770
2.205314 0.8770 0.8770 0.8740 0.8720 0.8700
2.240000 0.8690 0.8670 0.8670 0.8650 0.8630
2.274314 0.8630 0.8630 0.8630 0.8630 0.8630
2.309000 0.8630 0.8630 0.8630 0.8670 0.8670
2.343314 0.8670 0.8650 0.8630 0.8600 0.8600
2.377000 0.8570 0.8520 0.8500 0.8500 0.8500
2.411314 0.8500 0.8500 0.8500 0.8500 0.8500
2.446000 0.8500 0.8500 0.8500 0.8500 0.8500
2.480314 0.8500 0.8520 0.8520 0.8520 0.8500
2.514000 0.8480 0.8460 0.8460 0.8450 0.8430
2.548314 0.8410 0.8400 0.8360 0.8360 0.8350
2.583000 0.8330 0.8280 0.8240 0.8190 0.8180
2.617314 0.8160 0.8120 0.8110 0.8070 0.8020
2.652000 0.7990 0.7920 0.7850 0.7750 0.7630
2.686314 0.7510 0.7460 0.7390 0.7270 0.7140
2.720000 0.6970 0.6780 0.6560 0.6290 0.6020
2.754314 0.5860 0.5300 0.5150 0.4980 0.4640
2.789000 0.4300 0.3960 0.3650 0.3360 0.3090
2.823314 0.2850 0.2670 0.2510 0.2460 0.2410
2.857000 0.2340 0.2260 0.2210 0.2170 0.2140
2.891314 0.2090 0.2050 0.2040 0.2040 0.2020
2.926000 0.2020 0.2000 0.2000 0.2000 0.2000
2.960314 0.2020 0.2040 0.2040 0.2070 0.2090
2.995000 0.2120 0.2150 0.2170 0.2220 0.2270
3.029314 0.2310 0.2360 0.2410 0.2460 0.2580
3.063000 0.2630 0.2700 0.2770 0.2850 0.2920
3.097314 0.3010 0.3110 0.3190 0.3290 0.3380
3.132000 0.3500 0.3600 0.3720 0.3820 0.3920
3.166314 0.4010 0.4090 0.4180 0.4260 0.4370
3.200000 0.4470 0.4570 0.4690 0.4810 0.4860
3.234314 0.4940 0.5000 0.5130 0.5180 0.5230
3.269000 0.5280 0.5320 0.5350 0.5400 0.5420
3.303314 0.5420 0.5400 0.5250 0.5030 0.4910
3.338000 0.4790 0.4600 0.4370 0.3770 0.3410
3.372314 0.2770 0.2610 0.2460 0.2150 0.1950
3.406000 0.1920 0.1930 0.2000 0.2150 0.2410
3.440314 0.3110 0.3410 0.3630 0.3690 0.3720
3.475000 0.3740 0.3770 0.3790 0.3820 0.4740
3.509314 0.6360 0.6870 0.7120 0.7390 0.7480
3.543000 0.7780 0.7850 0.7950 0.7990 0.8040
3.577314 0.8060 0.8140 0.8190 0.8230 0.8240
3.612000 0.8240 0.8240 0.8260 0.8280 0.8290
3.646314 0.8290 0.8310 0.8330 0.8350 0.8360
3.681000 0.8360 0.8380 0.8400 0.8400 0.8410
3.715314 0.8430 0.8450 0.8460 0.8480 0.8480
3.749000 0.8500 0.8520 0.8530 0.8550 0.8570
3.783314 0.8580 0.8600 0.8620 0.8630 0.8630
3.818000 0.8650 0.8650 0.8690 0.8690 0.8690
3.852314 0.8690 0.8700 0.8700 0.8700 0.8700
3.886000 0.8720 0.8720 0.8720 0.8720 0.8720
3.920314 0.8720 0.8720 0.8720 0.8720 0.8720
3.955000 0.8700 0.8700 0.8700 0.8700 0.8690
3.989314 0.8690 0.8670 0.8650 0.8630 0.8620
4.024000 0.8620 0.8620 0.8620 0.8630 0.8650
4.058314 0.8650 0.8650 0.8630 0.8630 0.8620
4.092000 0.8580 0.8580 0.8500 0.8500 0.8480
4.126314 0.8460 0.8430 0.8410 0.8400 0.8400
4.161000 0.8400 0.8380 0.8380 0.8380 0.8360
4.195314 0.8360 0.8360 0.8350 0.8330 0.8310
4.229000 0.8310 0.8310 0.8290 0.8290 0.8290
4.263314 0.8290 0.8290 0.8280 0.8280 0.8260
4.298000 0.8240 0.8240 0.8240 0.8240 0.8240
4.332314 0.8240 0.8240 0.8240 0.8240 0.8240
4.366000 0.8240 0.8240 0.8240 0.8240 0.8240
4.400314 0.8230 0.8230 0.8210 0.8210 0.8210
4.435000 0.8210 0.8210 0.8210 0.8210 0.8210
4.469314 0.8210 0.8210 0.8210 0.8210 0.8210
4.504000 0.8210 0.8190 0.8190 0.8190 0.8190
4.538314 0.8190 0.8190 0.8190 0.8210 0.8190
4.572000 0.8190 0.8190 0.8210 0.8210 0.8210
4.606314 0.8230 0.8230 0.8240 0.8240 0.8260
4.641000 0.8260 0.8260 0.8280 0.8280 0.8290
4.675314 0.8310 0.8330 0.8350 0.8360 0.8380
4.709000 0.8400 0.8410 0.8410 0.8450 0.8450
4.743314 0.8460 0.8460 0.8480 0.8500 0.8520
4.778000 0.8530 0.8550 0.8570 0.8580 0.8600
4.812314 0.8600 0.8600 0.8600 0.8620 0.8620
4.847000 0.8630 0.8630 0.8630 0.8630 0.8630
4.881314 0.8630 0.8630 0.8630 0.8630 0.8650
4.915000 0.8650 0.8650 0.8650 0.8650 0.8650
4.949314 0.8650 0.8670 0.8670 0.8670 0.8670
4.984000 0.8670 0.8670 0.8670 0.8670 0.8690
5.018314 0.8690 0.8720 0.8720 0.8740 0.8740
5.052000 0.8740 0.8740 0.8740 0.8740 0.8740
5.086314 0.8740 0.8740 0.8740 0.8740 0.8740
5.121000 0.8740 0.8740 0.8740 0.8720 0.8720
5.155314 0.8700 0.8690 0.8690 0.8670 0.8670
5.190000 0.8650 0.8650 0.8650 0.8670 0.8690
5.224314 0.8690 0.8690 0.8700 0.8700 0.8700
5.258000 0.8720 0.8720 0.8720 0.8720 0.8720
5.292314 0.8720 0.8720 0.8720 0.8720 0.8720
5.327000 0.8720 0.8720 0.8720 0.8720 0.8720
5.361314 0.8720 0.8720 0.8720 0.8720 0.8720
5.395000 0.8720 0.8700 0.8700 0.8700 0.8690
5.429314 0.8690 0.8670 0.8650 0.8650 0.8630
5.464000 0.8630 0.8620 0.8620 0.8620 0.8620
5.498314 0.8620 0.8600 0.8600 0.8580 0.8550
5.533000 0.8530 0.8530 0.8520 0.8500 0.8480
5.567314 0.8460 0.8430 0.8410 0.8400 0.8400
5.601000 0.8380 0.8360 0.8360 0.8310 0.8290
5.635314 0.8280 0.8260 0.8260 0.8260 0.8230
5.670000 0.8230 0.8230 0.8210 0.8210 0.8190
5.704314 0.8180 0.8160 0.8120 0.8110 0.8090
5.738000 0.8060 0.8020 0.7990 0.7970 0.7950
5.772314 0.7890 0.7870 0.7840 0.7820 0.7780
5.807000 0.7750 0.7720 0.7700 0.7680 0.7650
5.841314 0.7610 0.7600 0.7550 0.7530 0.7510
5.876000 0.7500 0.7460 0.7390 0.7310 0.7270
5.910314 0.7190 0.7100 0.6970 0.6880 0.6760
5.944000 0.6640 0.6560 0.6460 0.6340 0.6190
5.978314 0.6030 0.5930 0.5810 0.5710 0.5620
6.013000 0.5560 0.5490 0.5440 0.5370 0.5350
6.047314 0.5340 0.5280 0.5230 0.5220 0.5220
6.081000 0.5230 0.5300 0.5440 0.5470 0.5780
6.115314 0.6070 0.6150 0.6250 0.6300 0.6370
6.150000 0.6390 0.6530 0.6590 0.6710 0.6810
6.184314 0.6900 0.6980 0.7050 0.7120 0.7170
6.219000 0.7220 0.7240 0.7260 0.7290 0.7310
6.253314 0.7320 0.7340 0.7360 0.7380 0.7390
6.287000 0.7390 0.7410 0.7410 0.7410 0.7410
6.321314 0.7410 0.7410 0.7410 0.7410 0.7410
6.356000 0.7410 0.7410 0.7410 0.7390 0.7390
6.390314 0.7380 0.7380 0.7320 0.7310 0.7290
6.424000 0.7290 0.7270 0.7270 0.7260 0.7240
6.458314 0.7220 0.7220 0.7210 0.7170 0.7150
6.493000 0.7150 0.7120 0.7100 0.7090 0.7090
6.527314 0.7050 0.7040 0.7020 0.7000 0.6970
6.561000 0.6920 0.6870 0.6810 0.6780 0.6750
6.595314 0.6700 0.6630 0.6540 0.6420 0.6370
6.630000 0.6300 0.6220 0.6130 0.6030 0.5930
6.664314 0.5830 0.5710 0.5610 0.5490 0.5390
6.699000 0.5270 0.5170 0.5050 0.5000 0.4930
6.733314 0.4810 0.4740 0.4690 0.4590 0.4450
6.767000 0.4310 0.4130 0.3920 0.3670 0.3350
6.801314 0.3160 0.3060 0.3010 0.3010 0.3010
6.836000 0.3010 0.3010 0.3040 0.3140 0.3210
6.870314 0.3310 0.3410 0.3520 0.3620 0.3740
6.904000 0.3840 0.3970 0.4110 0.4250 0.4420
6.938314 0.4600 0.4790 0.5250 0.5340 0.5420
6.973000 0.5520 0.5570 0.5590 0.5590 0.5590
7.007314 0.5590 0.5570 0.5440 0.5350 0.5200
7.042000 0.5180 0.5180 0.5200 0.5320 0.5400
7.076314 0.5490 0.5610 0.5730 0.5790 0.5860
7.110000 0.5900 0.5900 0.5950 0.5980 0.5980
7.144314 0.6000 0.6000 0.6000 0.5980 0.5930
7.179000 0.5850 0.5760 0.5680 0.5610 0.5540
7.213314 0.5470 0.5420 0.5400 0.5400 0.5470
7.247000 0.5610 0.5730 0.5830 0.5910 0.6000
7.281314 0.6080 0.6170 0.6250 0.6340 0.6440
7.316000 0.6560 0.6680 0.6710 0.6750 0.6780
7.350314 0.6800 0.6810 0.6850 0.6870 0.6900
7.385000 0.6920 0.6930 0.6950 0.6980 0.7000
7.419314 0.7020 0.7050 0.7070 0.7090 0.7100
7.453000 0.7120 0.7140 0.7140 0.7150 0.7170
7.487314 0.7190 0.7190 0.7190 0.7210 0.7220
7.522000 0.7220 0.7220 0.7220 0.7220 0.7220
7.556314 0.7220 0.7220 0.7220 0.7220 0.7220
7.590000 0.7220 0.7220 0.7220 0.7220 0.7220
7.624314 0.7210 0.7210 0.7190 0.7190 0.7170
7.659000 0.7150 0.7150 0.7120 0.7100 0.7100
7.693314 0.7100 0.7100 0.7120 0.7140 0.7170
7.728000 0.7210 0.7220 0.7240 0.7260 0.7270
7.762314 0.7270 0.7290 0.7290 0.7310 0.7320
7.796000 0.7320 0.7340 0.7340 0.7360 0.7380
7.830314 0.7380 0.7380 0.7380 0.7380 0.7380
7.865000 0.7390 0.7390 0.7390 0.7390 0.7390
7.899314 0.7390 0.7390 0.7390 0.7390 0.7390
7.933000 0.7390 0.7410 0.7460 0.7480 0.7480
7.967314 0.7480 0.7480 0.7480 0.7440 0.7440
8.002000 0.7430 0.7410 0.7410 0.7410 0.7410
8.036314 0.7410 0.7410 0.7410 0.7410 0.7410
8.071000 0.7410 0.7410 0.7410 0.7410 0.7410
8.105314 0.7410 0.7410 0.7410 0.7410 0.7410
8.139000 0.7390 0.7380 0.7360 0.7360 0.7340
8.173314 0.7320 0.7320 0.7310 0.7290 0.7270
8.208000 0.7260 0.7240 0.7220 0.7210 0.7190
8.242314 0.7170 0.7150 0.7150 0.7150 0.7140
8.276000 0.7120 0.7100 0.7100 0.7070 0.7050
8.310314 0.7040 0.7040 0.7020 0.7000 0.6980
8.345000 0.6980 0.6970 0.6970 0.6950 0.6950
8.379314 0.6950 0.6930 0.6930 0.6920 0.6920
8.414000 0.6900 0.6900 0.6880 0.6880 0.6880
8.448314 0.6880 0.6880 0.6880 0.6880 0.6880
8.482000 0.6870 0.6870 0.6870 0.6870 0.6870
8.516314 0.6870 0.6870 0.6870 0.6870 0.6870
8.551000 0.6870 0.6870 0.6870 0.6870 0.6870
8.585314 0.6870 0.6870 0.6870 0.6870 0.6870
8.619000 0.6870 0.6870 0.6870 0.6870 0.6870
8.653314 0.6870 0.6870 0.6850 0.6850 0.6830
8.688000 0.6830 0.6810 0.6810 0.6800 0.6800
8.722314 0.6800 0.6780 0.6760 0.6760 0.6750
8.756000 0.6730 0.6710 0.6700 0.6680 0.6660
8.790314 0.6630 0.6610 0.6580 0.6540 0.6510
8.825000 0.6470 0.6460 0.6420 0.6410 0.6370
8.859314 0.6340 0.6290 0.6250 0.6220 0.6190
8.894000 0.6130 0.6120 0.6080 0.6070 0.6030
8.928314 0.6000 0.5930 0.5860 0.5830 0.5790
8.962000 0.5740 0.5680 0.5590 0.5570 0.5540
8.996314 0.5510 0.5470 0.5390 0.5320 0.5250
9.031000 0.5150 0.5030 0.5030 0.5000 0.4940
9.065314 0.4860 0.4810 0.4710 0.4590 0.4540
9.099000 0.4430 0.4370 0.4300 0.4250 0.4160
9.133314 0.4030 0.3800 0.3750 0.3580 0.3550
9.168000 0.3410 0.3310 0.3290 0.3240 0.3190
9.202314 0.3110 0.2920 0.2770 0.2750 0.2700
9.237000 0.2630 0.2560 0.2530 0.2480 0.2390
9.271314 0.2320 0.2270 0.2240 0.2170 0.2140
9.305000 0.2050 0.2040 0.2000 0.1980 0.1950
9.339314 0.1900 0.1870 0.1830 0.1780 0.1760
9.374000 0.1710 0.1700 0.1660 0.1640 0.1640
9.408314 0.1630 0.1610 0.1590 0.1590 0.1580
9.442000 0.1560 0.1560 0.1540 0.1540 0.1530
9.476314 0.1530 0.1530 0.1530 0.1530 0.1560
9.511000 0.1580 0.1590 0.1630 0.1680 0.1710
9.545314 0.1750 0.1780 0.1810 0.1880 0.1950
9.580000 0.1980 0.2050 0.2090 0.2240 0.2310
9.614314 0.2380 0.2390 0.2460 0.2630 0.2720
9.648000 0.2800 0.2890 0.2990 0.3070 0.3140
9.682314 0.3210 0.3280 0.3360 0.3430 0.3500
9.717000 0.3530 0.3530 0.3550 0.3550 0.3550
9.751314 0.3550 0.3480 0.3460 0.3430 0.3410
9.785000 0.3410 0.3450 0.3550 0.3650 0.3770
9.819314 0.3870 0.3970 0.4060 0.4160 0.4260
9.854000 0.4350 0.4430 0.4520 0.4600 0.4670
9.888314 0.4720 0.4790 0.4820 0.4840 0.4860
9.923000 0.4860 0.4860 0.4860 0.4860 0.4860
9.957314 0.4860 0.4890 0.4940 0.5100 0.5200
9.991000 0.5270 0.5300 0.5390 0.5450 0.5510
10.025314 0.5520 0.5560 0.5570 0.5610 0.5620
10.060000 0.5640 0.5660 0.5660 0.5660 0.5660
10.094314 0.5660 0.5660 0.5640 0.5640 0.5620
10.128000 0.5590 0.5540 0.5520 0.5490 0.5450
10.162314 0.5390 0.5340 0.5300 0.5300 0.5220
10.197000 0.5080 0.5030 0.4960 0.4820 0.4740
10.231314 0.4690 0.4570 0.4420 0.4230 0.4140
10.266000 0.4030 0.3770 0.3700 0.3360 0.3210
10.300314 0.3070 0.2990 0.2940 0.2840 0.2750
10.334000 0.2750 0.2770 0.2800 0.2870 0.2940
10.368314 0.3040 0.3180 0.3330 0.3520 0.3720
10.403000 0.3960 0.4230 0.4540 0.4860 0.5080
10.437314 0.5300 0.5540 0.5730 0.5850 0.5980
10.471000 0.6000 0.6050 0.6120 0.6190 0.6250
10.505314 0.6340 0.6420 0.6510 0.6560 0.6590
10.540000 0.6610 0.6660 0.6710 0.6750 0.6810
10.574314 0.6870 0.6880 0.6880 0.6900 0.6920
10.609000 0.6970 0.7040 0.7070 0.7090 0.7090
10.643314 0.7120 0.7140 0.7170 0.7190 0.7210
10.677000 0.7220 0.7240 0.7260 0.7270 0.7290
10.711314 0.7310 0.7340 0.7360 0.7360 0.7380
10.746000 0.7380 0.7390 0.7410 0.7430 0.7430
10.780314 0.7440 0.7440 0.7460 0.7480 0.7500
10.814000 0.7500 0.7500 0.7500 0.7500 0.7480
10.848314 0.7500 0.7500 0.7500 0.7500 0.7500
10.883000 0.7500 0.7510 0.7510 0.7510 0.7500
10.917314 0.7500 0.7500 0.7510 0.7510 0.7510
10.951000 0.7510 0.7510 0.7510 0.7510 0.7500
10.985314 0.7500 0.7500 0.7480 0.7480 0.7480
11.020000 0.7480 0.7460 0.7460 0.7460 0.7460
11.054314 0.7460 0.7460 0.7480 0.7480 0.7480
11.089000 0.7480 0.7480 0.7480 0.7480 0.7480
11.123314 0.7500 0.7510 0.7510 0.7510 0.7510
11.157000 0.7510 0.7510 0.7510 0.7510 0.7510
11.191314 0.7510 0.7510 0.7510 0.7510 0.7510
11.226000 0.7510 0.7510 0.7510 0.7510 0.7510
11.260314 0.7500 0.7500 0.7500 0.7480 0.7460
11.294000 0.7440 0.7440 0.7430 0.7410 0.7390
11.328314 0.7390 0.7380 0.7360 0.7320 0.7310
11.363000 0.7270 0.7260 0.7240 0.7210 0.7190
11.397314 0.7150 0.7100 0.7040 0.6980 0.6930
11.432000 0.6900 0.6880 0.6810 0.6760 0.6640
11.466314 0.6540 0.6530 0.6490 0.6470 0.6420
11.500000 0.6340 0.6290 0.6270 0.6270 0.6270
11.534314 0.6290 0.6300 0.6370 0.6440 0.6510
11.569000 0.6540 0.6580 0.6630 0.6680 0.6730
11.603314 0.6780 0.6830 0.6850 0.6930 0.6980
11.637000 0.7050 0.7090 0.7100 0.7120 0.7140
11.671314 0.7140 0.7170 0.7190 0.7210 0.7210
11.706000 0.7210 0.7210 0.7210 0.7210 0.7210
11.740314 0.7210 0.7190 0.7170 0.7170 0.7170
11.775000 0.7170 0.7170 0.7190 0.7190 0.7220
11.809314 0.7240 0.7270 0.7270 0.7270 0.7270
11.843000 0.7270 0.7270 0.7270 0.7270 0.7270
11.877314 0.7270 0.7270 0.7270 0.7270 0.7270
11.912000 0.7270 0.7270 0.7270 0.7270 0.7270
11.946314 0.7260 0.7260 0.7240 0.7220 0.7210
11.980000 0.7210 0.7210 0.7190 0.7190 0.7170
12.014314 0.7170 0.7170 0.7150 0.7150 0.7140
12.049000 0.7150 0.7140 0.7140 0.7140 0.7120
12.083314 0.7100 0.7070 0.7070 0.7050 0.7050
12.118000 0.7040 0.7040 0.7020 0.7020 0.7000
12.152314 0.7000 0.6980 0.6980 0.6970 0.6950
12.186000 0.6950 0.6950 0.6930 0.6920 0.6900
12.220314 0.6900 0.6900 0.6880 0.6870 0.6850
12.255000 0.6850 0.6830 0.6830 0.6810 0.6800
12.289314 0.6800 0.6780 0.6760 0.6750 0.6750
12.323000 0.6730 0.6710 0.6700 0.6700 0.6680
12.357314 0.6660 0.6640 0.6640 0.6630 0.6610
12.392000 0.6590 0.6590 0.6580 0.6560 0.6540
12.426314 0.6540 0.6530 0.6510 0.6490 0.6490
12.461000 0.6460 0.6460 0.6440 0.6420 0.6410
12.495314 0.6390 0.6370 0.6360 0.6340 0.6320
12.529000 0.6300 0.6290 0.6270 0.6250 0.6250
12.563314 0.6240 0.6220 0.6200 0.6190 0.6170
12.598000 0.6150 0.6130 0.6120 0.6080 0.6070
12.632314 0.6050 0.6050 0.6030 0.6020 0.6000
12.666000 0.5980 0.5960 0.5950 0.5930 0.5930
12.700314 0.5910 0.5900 0.5880 0.5860 0.5850
12.735000 0.5830 0.5810 0.5790 0.5780 0.5760
12.769314 0.5740 0.5730 0.5730 0.5710 0.5690
12.804000 0.5680 0.5680 0.5660 0.5640 0.5620
12.838314 0.5620 0.5610 0.5590 0.5570 0.5560
12.872000 0.5560 0.5560 0.5540 0.5520 0.5510
12.906314 0.5490 0.5490 0.5470 0.5470 0.5450
12.941000 0.5450 0.5440 0.5420 0.5420 0.5400
12.975314 0.5390 0.5370 0.5350 0.5340 0.5320
13.009000 0.5300 0.5280 0.5270 0.5250 0.5250
13.043314 0.5230 0.5220 0.5220 0.5200 0.5200
13.078000 0.5180 0.5170 0.5170 0.5150 0.5150
13.112314 0.5130 0.5110 0.5130 0.5110 0.5110
13.146000 0.5110 0.5100 0.5080 0.5060 0.5050
13.180314 0.5030 0.5010 0.5010 0.5000 0.5000
13.215000 0.4980 0.4960 0.4960 0.4940 0.4930
13.249314 0.4930 0.4910 0.4890 0.4880 0.4860
13.284000 0.4860 0.4840 0.4840 0.4820 0.4820
13.318314 0.4810 0.4810 0.4790 0.4790 0.4770
13.352000 0.4770 0.4740 0.4720 0.4710 0.4710
13.386314 0.4690 0.4690 0.4670 0.4650 0.4640
13.421000 0.4640 0.4620 0.4600 0.4570 0.4550
13.455314 0.4540 0.4520 0.4500 0.4470 0.4470
13.489000 0.4430 0.4400 0.4370 0.4350 0.4300
13.523314 0.4280 0.4250 0.4250 0.4200 0.4180
13.558000 0.4160 0.4130 0.4090 0.4060 0.4040
13.592314 0.3990 0.3960 0.3920 0.3890 0.3860
13.627000 0.3800 0.3770 0.3740 0.3690 0.3650
13.661314 0.3600 0.3570 0.3530 0.3480 0.3450
13.695000 0.3410 0.3380 0.3330 0.3290 0.3260
13.729314 0.3230 0.3190 0.3180 0.3160 0.3120
13.764000 0.3110 0.3090 0.3060 0.3040 0.3040
13.798314 0.3020 0.3020 0.3020 0.3020 0.3020
13.832000 0.3040 0.3060 0.3060 0.3090 0.3110
13.866314 0.3120 0.3160 0.3210 0.3240 0.3290
13.901000 0.3350 0.3380 0.3410 0.3450 0.3480
13.935314 0.3520 0.3550 0.3580 0.3620 0.3670
13.970000 0.3700 0.3750 0.3800 0.3860 0.3910
14.004314 0.3960 0.3990 0.4030 0.4040 0.4060
14.038000 0.4080 0.4110 0.4130 0.4140 0.4180
14.072314 0.4210 0.4230 0.4250 0.4250 0.4250
14.107000 0.4260 0.4260 0.4280 0.4280 0.4280
14.141314 0.4280 0.4280 0.4280 0.4280 0.4280
14.175000 0.4280 0.4280 0.4280 0.4260 0.4260
14.209314 0.4260 0.4260 0.4250 0.4250 0.4230
14.244000 0.4230 0.4210 0.4210 0.4200 0.4200
14.278314 0.4200 0.4180 0.4160 0.4160 0.4140
14.313000 0.4140 0.4130 0.4130 0.4110 0.4110
14.347314 0.4090 0.4080 0.4060 0.4040 0.4010
14.381000 0.3990 0.3990 0.3970 0.3960 0.3920
14.415314 0.3910 0.3890 0.3870 0.3860 0.3840
14.450000 0.3840 0.3820 0.3800 0.3790 0.3770
14.484314 0.3740 0.3720 0.3700 0.3670 0.3670
14.518000 0.3650 0.3630 0.3620 0.3600 0.3580
14.552314 0.3570 0.3550 0.3530 0.3520 0.3500
14.587000 0.3480 0.3460 0.3460 0.3450 0.3430
14.621314 0.3410 0.3400 0.3400 0.3380 0.3360
14.656000 0.3350 0.3330 0.3310 0.3310 0.3290
14.690314 0.3280 0.3260 0.3240 0.3230 0.3210
14.724000 0.3190 0.3180 0.3160 0.3140 0.3120
14.758314 0.3110 0.3110 0.3090 0.3070 0.3070
14.793000 0.3040 0.3040 0.3020 0.3020 0.3020
14.827314 0.3010 0.2990 0.2970 0.2950 0.2950
14.861000 0.2940 0.2940 0.2920 0.2920 0.2900
14.895314 0.2870 0.2850 0.2840 0.2820 0.2820
14.930000 0.2800 0.2800 0.2780 0.2780 0.2770
14.964314 0.2750 0.2730 0.2730 0.2720 0.2700
14.999000 0.2680 0.2670 0.2630 0.2630 0.2600
15.033314 0.2600 0.2580 0.2580 0.2560 0.2560
15.067000 0.2550 0.2530 0.2510 0.2510 0.2510
15.101314 0.2510 0.2500 0.2480 0.2480 0.2460
15.136000 0.2440 0.2440 0.2430 0.2410 0.2410
15.170314 0.2390 0.2390 0.2380 0.2380 0.2360
15.204000 0.2360 0.2340 0.2340 0.2320 0.2320
15.238314 0.2320 0.2310 0.2310 0.2290 0.2270
15.273000 0.2270 0.2260 0.2260 0.2240 0.2240
15.307314 0.2240 0.2220 0.2220 0.2220 0.2210
15.341000 0.2210 0.2190 0.2190 0.2170 0.2150
15.375314 0.2150 0.2140 0.2140 0.2120 0.2120
15.410000 0.2100 0.2090 0.2090 0.2070 0.2070
15.444314 0.2050 0.2050 0.2050 0.2050 0.2040
15.479000 0.2040 0.2020 0.2020 0.2000 0.2000
15.513314 0.1980 0.1980 0.1970 0.1970 0.1970
15.547000 0.1950 0.1950 0.1950 0.1930 0.1930
15.581314 0.1920 0.1920 0.1920 0.1900 0.1900
15.616000 0.1880 0.1880 0.1870 0.1870 0.1870
15.650314 0.1870 0.1850 0.1850 0.1850 0.1850
15.684000 0.1830 0.1830 0.1830 0.1810 0.1810
15.718314 0.1810 0.1800 0.1800 0.1780 0.1780
15.753000 0.1760 0.1760 0.1760 0.1760 0.1750
15.787314 0.1750 0.1750 0.1750 0.1750 0.1730
15.822000 0.1730 0.1730
##END=
