##TITLE=4',5'-DIIODOFLUORESCEIN
$$ E. K. CO. (WHITE LABEL)
##JCAMP-DX=4.24
##DATA TYPE=INFRARED SPECTRUM
##CLASS=COBLENTZ
##ORIGIN=WYANDOTTE CHEMICALS CORP., WYANDOTTE, MICHIGAN, USA
##OWNER=COBLENTZ SOCIETY
Collection (C) 2018 copyright by the U.S. Secretary of Commerce
on behalf of the United States of America. All rights reserved.
##DATE=Not specified, most likely prior to 1970
##MOLFORM=C20 H10 I2 O5
##SOURCE REFERENCE=COBLENTZ NO. 2856
##$NIST ID=B6002856
##$NIST SOURCE=COBLENTZ
##$NIST IMAGE=cob2856
##SPECTROMETER/DATA SYSTEM=Not specified, most likely a prism, grating, or hybrid spectrometer.
##STATE=SOLID (MINERAL OIL MULL)
##PATH LENGTH=
$$SPECTRAL CONTAMINATION DUE TO OIL AROUND 2900 CM^-^1
##SAMPLING PROCEDURE=TRANSMISSION
##RESOLUTION=4
##DATA PROCESSING=DIGITIZED BY NIST FROM HARD COPY
##XUNITS=MICROMETERS
##YUNITS=TRANSMITTANCE
##XFACTOR=1.000000
##YFACTOR=1
##DELTAX=000.006626
##FIRSTX=2.06
##LASTX=15.9995
##FIRSTY=0.634
##MAXX=15.9995
##MINX=2.06
##MAXY=0.995
##MINY=0.046
##NPOINTS=2105
##XYDATA=(X++(Y..Y))
2.060000 0.6340 0.6360 0.6370 0.6370 0.6410
2.093144 0.6420 0.6470 0.6510 0.6510 0.6520
2.126000 0.6520 0.6520 0.6540 0.6570 0.6570
2.159144 0.6590 0.6590 0.6590 0.6590 0.6590
2.192000 0.6590 0.6570 0.6570 0.6570 0.6590
2.225144 0.6590 0.6610 0.6620 0.6640 0.6670
2.258000 0.6710 0.6720 0.6790 0.6810 0.6820
2.291144 0.6840 0.6840 0.6870 0.6910 0.6940
2.325000 0.6960 0.6960 0.6970 0.6990 0.7000
2.358144 0.7020 0.7040 0.7070 0.7100 0.7140
2.391000 0.7150 0.7150 0.7170 0.7190 0.7190
2.424144 0.7200 0.7220 0.7240 0.7240 0.7250
2.457000 0.7250 0.7270 0.7270 0.7290 0.7290
2.490144 0.7290 0.7290 0.7300 0.7300 0.7320
2.523000 0.7340 0.7350 0.7370 0.7390 0.7420
2.556144 0.7470 0.7540 0.7620 0.7720 0.7750
2.590000 0.7750 0.7740 0.7550 0.7440 0.7400
2.623144 0.7400 0.7420 0.7620 0.7800 0.7890
2.656000 0.7890 0.7890 0.7890 0.7870 0.7820
2.689144 0.7800 0.7770 0.7670 0.7570 0.7520
2.722000 0.7450 0.7390 0.7350 0.7340 0.7340
2.755144 0.7340 0.7340 0.7320 0.7320 0.7300
2.788000 0.7290 0.7250 0.7200 0.7170 0.7120
2.821144 0.7050 0.6990 0.6870 0.6810 0.6740
2.855000 0.6720 0.6720 0.6670 0.6570 0.6470
2.888144 0.6360 0.6270 0.6190 0.6140 0.6120
2.921000 0.6110 0.6090 0.6060 0.6020 0.5980
2.954144 0.5930 0.5890 0.5890 0.5840 0.5810
2.987000 0.5790 0.5730 0.5630 0.5490 0.5360
3.020144 0.5210 0.5060 0.4980 0.4880 0.4750
3.053000 0.4630 0.4460 0.4300 0.4110 0.3930
3.086144 0.3770 0.3630 0.3550 0.3480 0.3380
3.120000 0.3300 0.3230 0.3220 0.3170 0.3120
3.153144 0.3080 0.3080 0.3070 0.3070 0.3070
3.186000 0.3070 0.3100 0.3100 0.3120 0.3150
3.219144 0.3170 0.3180 0.3180 0.3180 0.3180
3.252000 0.3180 0.3220 0.3250 0.3280 0.3300
3.285144 0.3320 0.3350 0.3350 0.3330 0.3320
3.319000 0.3280 0.3100 0.2820 0.2450 0.2070
3.352144 0.1670 0.1090 0.0780 0.0580 0.0510
3.385000 0.0480 0.0460 0.0460 0.0480 0.0480
3.418144 0.0510 0.0530 0.0560 0.0590 0.0640
3.451000 0.0710 0.0730 0.0830 0.0860 0.0860
3.484144 0.0840 0.0760 0.0730 0.0710 0.0730
3.517000 0.0940 0.1270 0.1670 0.2120 0.2670
3.550144 0.3220 0.3570 0.3820 0.3970 0.4060
3.584000 0.4180 0.4260 0.4380 0.4450 0.4530
3.617144 0.4560 0.4600 0.4630 0.4650 0.4700
3.650000 0.4780 0.4810 0.4830 0.4830 0.4830
3.683144 0.4830 0.4830 0.4850 0.4930 0.5180
3.716000 0.5230 0.5240 0.5290 0.5310 0.5330
3.749144 0.5330 0.5340 0.5390 0.5430 0.5440
3.782000 0.5440 0.5460 0.5460 0.5460 0.5460
3.815144 0.5460 0.5460 0.5460 0.5460 0.5460
3.849000 0.5430 0.5410 0.5390 0.5390 0.5380
3.882144 0.5340 0.5330 0.5330 0.5330 0.5340
3.915000 0.5410 0.5460 0.5530 0.5560 0.5630
3.948144 0.5690 0.5710 0.5730 0.5740 0.5780
3.981000 0.5790 0.5810 0.5880 0.5930 0.5980
4.014144 0.6020 0.6060 0.6070 0.6070 0.6110
4.047000 0.6120 0.6160 0.6210 0.6220 0.6220
4.080144 0.6260 0.6260 0.6270 0.6290 0.6310
4.114000 0.6320 0.6340 0.6390 0.6410 0.6440
4.147144 0.6470 0.6490 0.6510 0.6520 0.6540
4.180000 0.6540 0.6560 0.6610 0.6640 0.6660
4.213144 0.6720 0.6760 0.6810 0.6810 0.6810
4.246000 0.6810 0.6790 0.6690 0.6610 0.6590
4.279144 0.6590 0.6590 0.6620 0.6690 0.6770
4.312000 0.6870 0.6940 0.6990 0.7040 0.7140
4.345144 0.7220 0.7340 0.7450 0.7570 0.7720
4.379000 0.7920 0.7970 0.8130 0.8250 0.8280
4.412144 0.8300 0.8300 0.8300 0.8300 0.8300
4.445000 0.8300 0.8300 0.8320 0.8330 0.8370
4.478144 0.8400 0.8430 0.8450 0.8480 0.8500
4.511000 0.8520 0.8600 0.8620 0.8620 0.8650
4.544144 0.8680 0.8700 0.8720 0.8720 0.8730
4.577000 0.8750 0.8780 0.8830 0.8870 0.8880
4.610144 0.8900 0.8930 0.8950 0.8970 0.8980
4.644000 0.8980 0.9000 0.9030 0.9050 0.9060
4.677144 0.9100 0.9130 0.9160 0.9180 0.9200
4.710000 0.9230 0.9280 0.9310 0.9350 0.9360
4.743144 0.9430 0.9460 0.9480 0.9500 0.9510
4.776000 0.9530 0.9530 0.9530 0.9550 0.9550
4.809144 0.9560 0.9560 0.9580 0.9580 0.9600
4.842000 0.9600 0.9630 0.9650 0.9710 0.9710
4.875144 0.9730 0.9730 0.9750 0.9750 0.9750
4.909000 0.9760 0.9760 0.9780 0.9800 0.9800
4.942144 0.9800 0.9780 0.9780 0.9760 0.9760
4.975000 0.9760 0.9760 0.9760 0.9760 0.9760
5.008144 0.9760 0.9780 0.9800 0.9810 0.9830
5.041000 0.9850 0.9860 0.9900 0.9900 0.9850
5.074144 0.9800 0.9780 0.9800 0.9850 0.9850
5.107000 0.9850 0.9850 0.9830 0.9830 0.9830
5.140144 0.9810 0.9810 0.9800 0.9780 0.9750
5.174000 0.9730 0.9710 0.9710 0.9700 0.9700
5.207144 0.9710 0.9850 0.9850 0.9810 0.9760
5.240000 0.9680 0.9610 0.9580 0.9600 0.9630
5.273144 0.9700 0.9730 0.9800 0.9810 0.9810
5.306000 0.9750 0.9680 0.9610 0.9580 0.9580
5.339144 0.9610 0.9700 0.9700 0.9700 0.9700
5.372000 0.9660 0.9530 0.9530 0.9580 0.9810
5.405144 0.9950 0.9950 0.9910 0.9830 0.9750
5.439000 0.9680 0.9500 0.9430 0.9430 0.9500
5.472144 0.9700 0.9800 0.9800 0.9750 0.9610
5.505000 0.9580 0.9600 0.9630 0.9730 0.9750
5.538144 0.9750 0.9700 0.9580 0.9550 0.9500
5.571000 0.9460 0.9430 0.9380 0.9350 0.9260
5.604144 0.9210 0.9200 0.9160 0.9150 0.8950
5.637000 0.8630 0.8400 0.8130 0.7870 0.7700
5.670144 0.7540 0.7420 0.7220 0.6920 0.6690
5.704000 0.6490 0.6360 0.6220 0.6110 0.5980
5.737144 0.5940 0.5930 0.5830 0.5780 0.5740
5.770000 0.5730 0.5740 0.5780 0.5890 0.5890
5.803144 0.5860 0.5840 0.5840 0.5840 0.5880
5.836000 0.6460 0.6490 0.6460 0.6390 0.6320
5.869144 0.6310 0.6290 0.6270 0.6260 0.6240
5.903000 0.6220 0.6110 0.5880 0.5560 0.5330
5.936144 0.5010 0.4750 0.4460 0.3720 0.3150
5.969000 0.2740 0.2450 0.2220 0.2090 0.2050
6.002144 0.2090 0.2240 0.2590 0.2920 0.3120
6.035000 0.3320 0.3580 0.3970 0.4400 0.4900
6.068144 0.6010 0.6070 0.6070 0.5930 0.5610
6.101000 0.5330 0.5080 0.4830 0.4360 0.3880
6.134144 0.3470 0.3100 0.2950 0.2950 0.2990
6.168000 0.3470 0.3980 0.4000 0.3980 0.3900
6.201144 0.3520 0.3080 0.2740 0.2500 0.2170
6.234000 0.1770 0.1440 0.1120 0.0940 0.0830
6.267144 0.0790 0.0790 0.0790 0.0830 0.0880
6.300000 0.0910 0.0980 0.1020 0.1090 0.1120
6.333144 0.1260 0.1360 0.1460 0.1560 0.1640
6.366000 0.1740 0.1820 0.1910 0.1990 0.2240
6.399144 0.2420 0.2550 0.2650 0.2720 0.2790
6.433000 0.2820 0.2870 0.2940 0.2970 0.3070
6.466144 0.3270 0.3520 0.3830 0.4160 0.4510
6.499000 0.4750 0.4800 0.4800 0.4760 0.4660
6.532144 0.4550 0.4410 0.4180 0.3870 0.3520
6.565000 0.3130 0.2750 0.2390 0.2090 0.1870
6.598144 0.1690 0.1520 0.1370 0.1190 0.1010
6.631000 0.0780 0.0640 0.0560 0.0540 0.0540
6.664144 0.0560 0.0580 0.0580 0.0610 0.0730
6.698000 0.0840 0.0990 0.1140 0.1190 0.1190
6.731144 0.1120 0.0930 0.0810 0.0710 0.0630
6.764000 0.0610 0.0610 0.0610 0.0630 0.0630
6.797144 0.0630 0.0640 0.0660 0.0730 0.0760
6.830000 0.0810 0.0840 0.0890 0.0910 0.0910
6.863144 0.0930 0.0940 0.0980 0.1040 0.1160
6.896000 0.1270 0.1370 0.1420 0.1520 0.1660
6.929144 0.1740 0.1840 0.1960 0.2120 0.2400
6.963000 0.2590 0.2700 0.2770 0.2820 0.2900
6.996144 0.2950 0.3080 0.3120 0.3120 0.3050
7.029000 0.2950 0.2820 0.2740 0.2670 0.2570
7.062144 0.2490 0.2390 0.2370 0.2390 0.2490
7.095000 0.2590 0.2720 0.2890 0.3050 0.3250
7.128144 0.3330 0.3420 0.3480 0.3570 0.3650
7.161000 0.3750 0.3800 0.3800 0.3700 0.3500
7.194144 0.3250 0.2950 0.2720 0.2520 0.2300
7.228000 0.2040 0.2000 0.2000 0.2000 0.1990
7.261144 0.1990 0.2000 0.2100 0.2300 0.2490
7.294000 0.2620 0.2700 0.2750 0.2770 0.2790
7.327144 0.2820 0.2900 0.3050 0.3320 0.3530
7.360000 0.3720 0.3900 0.4060 0.4210 0.4400
7.393144 0.4580 0.4780 0.5110 0.5210 0.5260
7.426000 0.5260 0.5230 0.5180 0.5080 0.5030
7.459144 0.4960 0.4810 0.4660 0.4500 0.4160
7.493000 0.3920 0.3620 0.3530 0.3530 0.3580
7.526144 0.3680 0.3700 0.3700 0.3700 0.3630
7.559000 0.3420 0.3200 0.2920 0.2620 0.2390
7.592144 0.1990 0.1570 0.1340 0.1160 0.1070
7.625000 0.1020 0.1010 0.1020 0.1120 0.1260
7.658144 0.1440 0.1570 0.1720 0.1870 0.1970
7.691000 0.2090 0.2200 0.2300 0.2340 0.2340
7.724144 0.2340 0.2320 0.2320 0.2320 0.2320
7.758000 0.2340 0.2420 0.2520 0.2570 0.2690
7.791144 0.2800 0.2900 0.2950 0.3000 0.3020
7.824000 0.3030 0.3020 0.3000 0.2970 0.2900
7.857144 0.2840 0.2790 0.2790 0.2790 0.2790
7.890000 0.2790 0.2800 0.2820 0.2840 0.2840
7.923144 0.2850 0.2900 0.2900 0.2900 0.2900
7.956000 0.2900 0.2900 0.2970 0.2990 0.3020
7.989144 0.3030 0.3050 0.3030 0.2990 0.2990
8.023000 0.2970 0.2950 0.2940 0.2900 0.2850
8.056144 0.2790 0.2720 0.2670 0.2570 0.2540
8.089000 0.2470 0.2400 0.2350 0.2300 0.2270
8.122144 0.2220 0.2200 0.2150 0.2100 0.2090
8.155000 0.2070 0.2040 0.2040 0.2020 0.2020
8.188144 0.2000 0.1990 0.1940 0.1910 0.1890
8.221000 0.1860 0.1820 0.1810 0.1810 0.1790
8.254144 0.1790 0.1770 0.1770 0.1770 0.1790
8.288000 0.1810 0.1860 0.1910 0.1970 0.2040
8.321144 0.2140 0.2250 0.2370 0.2470 0.2550
8.354000 0.2620 0.2700 0.2770 0.2770 0.2740
8.387144 0.2670 0.2570 0.2450 0.2320 0.2200
8.420000 0.2200 0.2240 0.2300 0.2390 0.2490
8.453144 0.2590 0.2750 0.2870 0.3070 0.3200
8.487000 0.3300 0.3420 0.3530 0.3620 0.3700
8.520144 0.3730 0.3770 0.3800 0.3830 0.3870
8.553000 0.3900 0.3950 0.3970 0.3970 0.3970
8.586144 0.3930 0.3920 0.3920 0.3950 0.4080
8.619000 0.4250 0.4350 0.4530 0.4730 0.4830
8.652144 0.4910 0.4960 0.4960 0.4830 0.4680
8.685000 0.4530 0.4380 0.4330 0.4110 0.3930
8.718144 0.3920 0.3970 0.4160 0.4300 0.4410
8.752000 0.4460 0.4500 0.4460 0.4350 0.4330
8.785144 0.4310 0.4310 0.4380 0.4480 0.4560
8.818000 0.4660 0.4750 0.4850 0.4900 0.4910
8.851144 0.4930 0.4910 0.4780 0.4680 0.4560
8.884000 0.4410 0.4310 0.4210 0.4060 0.3870
8.917144 0.3770 0.3630 0.3530 0.3430 0.3320
8.950000 0.3200 0.3070 0.2940 0.2750 0.2500
8.983144 0.2320 0.2090 0.1810 0.1610 0.1570
9.017000 0.1610 0.1990 0.2440 0.2850 0.3320
9.050144 0.3720 0.4110 0.4400 0.4660 0.4910
9.083000 0.5310 0.5460 0.5590 0.5690 0.5740
9.116144 0.5790 0.5830 0.5840 0.5840 0.5740
9.149000 0.5530 0.5210 0.5010 0.4800 0.4280
9.182144 0.3870 0.3620 0.3430 0.3420 0.3430
9.215000 0.3880 0.4250 0.4560 0.4830 0.5280
9.248144 0.5460 0.5630 0.5790 0.5930 0.6020
9.282000 0.6120 0.6220 0.6320 0.6420 0.6510
9.315144 0.6610 0.6690 0.6790 0.6870 0.6940
9.348000 0.7000 0.7050 0.7100 0.7140 0.7220
9.381144 0.7270 0.7290 0.7320 0.7340 0.7350
9.414000 0.7370 0.7390 0.7400 0.7420 0.7440
9.447144 0.7450 0.7470 0.7490 0.7490 0.7490
9.480000 0.7450 0.7420 0.7370 0.7270 0.7170
9.513144 0.7070 0.6960 0.6810 0.6670 0.6510
9.547000 0.6340 0.6170 0.6010 0.5840 0.5680
9.580144 0.5630 0.5530 0.5510 0.5530 0.5560
9.613000 0.5780 0.6010 0.6160 0.6270 0.6390
9.646144 0.6570 0.6740 0.6860 0.6990 0.7090
9.679000 0.7200 0.7300 0.7400 0.7450 0.7520
9.712144 0.7550 0.7600 0.7640 0.7650 0.7670
9.745000 0.7690 0.7700 0.7720 0.7740 0.7750
9.778144 0.7770 0.7770 0.7790 0.7790 0.7790
9.812000 0.7790 0.7790 0.7790 0.7790 0.7770
9.845144 0.7770 0.7770 0.7770 0.7790 0.7790
9.878000 0.7820 0.7850 0.7870 0.7870 0.7870
9.911144 0.7870 0.7890 0.7890 0.7900 0.7900
9.944000 0.7920 0.7920 0.7950 0.7990 0.7990
9.977144 0.7990 0.7970 0.7970 0.7920 0.7850
10.010000 0.7800 0.7750 0.7720 0.7640 0.7600
10.043144 0.7540 0.7500 0.7490 0.7470 0.7450
10.077000 0.7440 0.7420 0.7400 0.7390 0.7370
10.110144 0.7370 0.7350 0.7350 0.7350 0.7350
10.143000 0.7350 0.7350 0.7350 0.7350 0.7350
10.176144 0.7350 0.7340 0.7340 0.7340 0.7340
10.209000 0.7320 0.7300 0.7290 0.7290 0.7290
10.242144 0.7270 0.7250 0.7200 0.7140 0.7120
10.275000 0.7090 0.7050 0.7020 0.7000 0.7000
10.308144 0.7000 0.7000 0.7000 0.6940 0.6840
10.342000 0.6760 0.6660 0.6570 0.6520 0.6420
10.375144 0.6340 0.6290 0.6240 0.6220 0.6240
10.408000 0.6270 0.6340 0.6390 0.6470 0.6540
10.441144 0.6620 0.6660 0.6710 0.6720 0.6710
10.474000 0.6670 0.6610 0.6540 0.6470 0.6370
10.507144 0.6270 0.6120 0.6010 0.5890 0.5790
10.540000 0.5660 0.5490 0.5330 0.5180 0.5040
10.573144 0.5010 0.5010 0.5000 0.5030 0.5140
10.607000 0.5260 0.5310 0.5390 0.5490 0.5560
10.640144 0.5710 0.5780 0.5810 0.5830 0.5810
10.673000 0.5710 0.5580 0.5480 0.5330 0.5230
10.706144 0.5130 0.5110 0.5130 0.5230 0.5290
10.739000 0.5380 0.5480 0.5610 0.5790 0.5940
10.772144 0.6070 0.6210 0.6310 0.6410 0.6490
10.805000 0.6560 0.6620 0.6640 0.6720 0.6810
10.838144 0.6860 0.6870 0.6890 0.6910 0.6920
10.872000 0.6940 0.6960 0.6990 0.7000 0.7020
10.905144 0.7020 0.7040 0.7040 0.7050 0.7050
10.938000 0.7070 0.7070 0.7070 0.7090 0.7090
10.971144 0.7100 0.7120 0.7120 0.7140 0.7150
11.004000 0.7190 0.7190 0.7170 0.7170 0.7150
11.037144 0.7140 0.7140 0.7120 0.7120 0.7100
11.071000 0.7120 0.7140 0.7150 0.7190 0.7190
11.104144 0.7170 0.7150 0.7120 0.7100 0.7100
11.137000 0.7120 0.7140 0.7150 0.7150 0.7120
11.170144 0.7120 0.7090 0.7090 0.7100 0.7150
11.203000 0.7150 0.7120 0.7090 0.7040 0.7020
11.236144 0.7000 0.7000 0.6990 0.6940 0.6870
11.269000 0.6760 0.6640 0.6470 0.6320 0.6170
11.302144 0.6020 0.5930 0.5840 0.5830 0.5830
11.336000 0.5830 0.5890 0.5940 0.5990 0.6060
11.369144 0.6140 0.6220 0.6310 0.6340 0.6390
11.402000 0.6440 0.6490 0.6540 0.6610 0.6620
11.435144 0.6660 0.6690 0.6710 0.6720 0.6760
11.468000 0.6770 0.6810 0.6820 0.6820 0.6840
11.501144 0.6910 0.6970 0.7000 0.7000 0.7000
11.534000 0.7020 0.7020 0.7020 0.7040 0.7090
11.567144 0.7120 0.7120 0.7140 0.7150 0.7150
11.601000 0.7150 0.7150 0.7150 0.7150 0.7170
11.634144 0.7190 0.7200 0.7220 0.7220 0.7240
11.667000 0.7240 0.7240 0.7240 0.7220 0.7220
11.700144 0.7200 0.7200 0.7190 0.7150 0.7120
11.733000 0.7100 0.7090 0.7020 0.6990 0.6940
11.766144 0.6910 0.6860 0.6840 0.6790 0.6770
11.799000 0.6760 0.6770 0.6810 0.6890 0.6910
11.832144 0.6940 0.7020 0.7100 0.7150 0.7190
11.866000 0.7200 0.7220 0.7250 0.7290 0.7300
11.899144 0.7300 0.7290 0.7290 0.7290 0.7290
11.932000 0.7290 0.7270 0.7270 0.7270 0.7270
11.965144 0.7250 0.7200 0.7170 0.7150 0.7070
11.998000 0.7020 0.6960 0.6860 0.6820 0.6760
12.031144 0.6690 0.6570 0.6460 0.6290 0.6170
12.064000 0.5990 0.5790 0.5560 0.5280 0.5090
12.097144 0.4910 0.4450 0.3920 0.3530 0.3330
12.131000 0.3320 0.3330 0.3400 0.3620 0.4000
12.164144 0.4360 0.4710 0.4980 0.5360 0.5440
12.197000 0.5490 0.5490 0.5490 0.5390 0.5380
12.230144 0.5380 0.5410 0.5490 0.5640 0.5810
12.263000 0.5980 0.6170 0.6320 0.6420 0.6510
12.296144 0.6570 0.6590 0.6590 0.6590 0.6590
12.329000 0.6590 0.6570 0.6540 0.6520 0.6440
12.362144 0.6340 0.6290 0.6160 0.6060 0.5990
12.396000 0.5730 0.5440 0.5310 0.5190 0.5060
12.429144 0.5000 0.4930 0.4710 0.4500 0.4260
12.462000 0.4110 0.3970 0.3830 0.3630 0.3470
12.495144 0.3220 0.3200 0.3200 0.3200 0.3230
12.528000 0.3270 0.3330 0.3430 0.3570 0.3750
12.561144 0.3970 0.4160 0.4280 0.4460 0.4580
12.594000 0.4780 0.4960 0.5360 0.5480 0.5630
12.627144 0.5760 0.5910 0.6020 0.6170 0.6260
12.661000 0.6340 0.6460 0.6560 0.6660 0.6740
12.694144 0.6840 0.6940 0.6990 0.7020 0.7090
12.727000 0.7100 0.7120 0.7120 0.7120 0.7100
12.760144 0.7100 0.7090 0.7070 0.7040 0.7040
12.793000 0.7040 0.7050 0.7050 0.7050 0.7040
12.826144 0.7000 0.6990 0.6940 0.6860 0.6770
12.859000 0.6640 0.6470 0.6270 0.6020 0.5810
12.892144 0.5460 0.5040 0.4860 0.4680 0.4260
12.926000 0.3920 0.3600 0.3500 0.3500 0.3520
12.959144 0.3730 0.3870 0.4050 0.4200 0.4300
12.992000 0.4360 0.4430 0.4530 0.4580 0.4580
13.025144 0.4500 0.4380 0.4210 0.4050 0.3870
13.058000 0.3670 0.3430 0.3270 0.3230 0.3200
13.091144 0.3180 0.3180 0.3220 0.3250 0.3320
13.124000 0.3370 0.3420 0.3500 0.3530 0.3600
13.157144 0.3650 0.3700 0.3770 0.3830 0.3900
13.191000 0.4000 0.4100 0.4210 0.4330 0.4460
13.224144 0.4550 0.4700 0.4800 0.4910 0.5140
13.257000 0.5290 0.5460 0.5560 0.5690 0.5830
13.290144 0.5960 0.6040 0.6140 0.6190 0.6240
13.323000 0.6290 0.6310 0.6340 0.6370 0.6390
13.356144 0.6390 0.6390 0.6390 0.6410 0.6410
13.389000 0.6420 0.6420 0.6420 0.6410 0.6360
13.422144 0.6310 0.6260 0.6190 0.6060 0.5990
13.456000 0.5890 0.5790 0.5660 0.5510 0.5330
13.489144 0.5260 0.5180 0.5090 0.5030 0.5000
13.522000 0.4960 0.4880 0.4810 0.4780 0.4750
13.555144 0.4730 0.4750 0.4780 0.4810 0.4880
13.588000 0.4930 0.5000 0.5140 0.5210 0.5240
13.621144 0.5310 0.5410 0.5490 0.5560 0.5610
13.655000 0.5680 0.5740 0.5790 0.5830 0.5860
13.688144 0.5880 0.5880 0.5890 0.5910 0.5930
13.721000 0.5960 0.5980 0.5980 0.5990 0.5990
13.754144 0.6010 0.6020 0.6020 0.6060 0.6090
13.787000 0.6110 0.6140 0.6190 0.6220 0.6220
13.820144 0.6220 0.6220 0.6220 0.6220 0.6220
13.853000 0.6220 0.6220 0.6220 0.6220 0.6210
13.886144 0.6190 0.6170 0.6170 0.6170 0.6160
13.920000 0.6160 0.6170 0.6190 0.6220 0.6260
13.953144 0.6270 0.6270 0.6270 0.6290 0.6290
13.986000 0.6310 0.6310 0.6310 0.6310 0.6290
14.019144 0.6270 0.6240 0.6220 0.6220 0.6210
14.052000 0.6160 0.6090 0.6020 0.5990 0.5890
14.085144 0.5830 0.5710 0.5540 0.5360 0.5210
14.118000 0.5060 0.5000 0.4930 0.4780 0.4630
14.151144 0.4450 0.4260 0.4180 0.4110 0.4030
14.185000 0.3920 0.3870 0.3870 0.3880 0.3970
14.218144 0.4050 0.4160 0.4260 0.4400 0.4510
14.251000 0.4630 0.4760 0.4950 0.5210 0.5340
14.284144 0.5460 0.5540 0.5640 0.5730 0.5760
14.317000 0.5790 0.5840 0.5880 0.5910 0.5990
14.350144 0.6010 0.6020 0.6040 0.6060 0.6060
14.383000 0.6070 0.6070 0.6090 0.6110 0.6120
14.416144 0.6120 0.6140 0.6160 0.6170 0.6190
14.450000 0.6220 0.6220 0.6240 0.6270 0.6310
14.483144 0.6340 0.6370 0.6410 0.6420 0.6420
14.516000 0.6440 0.6470 0.6510 0.6540 0.6590
14.549144 0.6620 0.6670 0.6710 0.6770 0.6810
14.582000 0.6860 0.6890 0.6940 0.6970 0.7000
14.615144 0.7000 0.7050 0.7070 0.7090 0.7090
14.648000 0.7090 0.7100 0.7120 0.7140 0.7150
14.681144 0.7170 0.7170 0.7170 0.7170 0.7190
14.715000 0.7200 0.7200 0.7200 0.7200 0.7200
14.748144 0.7190 0.7190 0.7170 0.7150 0.7140
14.781000 0.7140 0.7140 0.7120 0.7090 0.7070
14.814144 0.7050 0.7050 0.7020 0.7000 0.6990
14.847000 0.6940 0.6910 0.6890 0.6890 0.6870
14.880144 0.6870 0.6840 0.6810 0.6790 0.6760
14.913000 0.6740 0.6740 0.6740 0.6740 0.6720
14.946144 0.6720 0.6720 0.6720 0.6720 0.6720
14.980000 0.6710 0.6710 0.6710 0.6670 0.6610
15.013144 0.6590 0.6570 0.6540 0.6490 0.6390
15.046000 0.6340 0.6290 0.6270 0.6260 0.6240
15.079144 0.6240 0.6240 0.6240 0.6260 0.6310
15.112000 0.6370 0.6410 0.6460 0.6490 0.6540
15.145144 0.6610 0.6660 0.6710 0.6720 0.6740
15.178000 0.6740 0.6760 0.6760 0.6760 0.6740
15.211144 0.6720 0.6690 0.6660 0.6590 0.6540
15.245000 0.6510 0.6460 0.6410 0.6360 0.6310
15.278144 0.6260 0.6220 0.6170 0.6110 0.6090
15.311000 0.6020 0.5980 0.5890 0.5810 0.5730
15.344144 0.5690 0.5660 0.5610 0.5560 0.5530
15.377000 0.5510 0.5510 0.5490 0.5490 0.5440
15.410144 0.5430 0.5410 0.5410 0.5390 0.5390
15.443000 0.5410 0.5410 0.5410 0.5410 0.5430
15.476144 0.5440 0.5440 0.5430 0.5410 0.5390
15.510000 0.5390 0.5390 0.5390 0.5380 0.5380
15.543144 0.5340 0.5310 0.5290 0.5280 0.5260
15.576000 0.5210 0.5180 0.5130 0.5090 0.5040
15.609144 0.5010 0.4960 0.4950 0.4900 0.4880
15.642000 0.4780 0.4750 0.4750 0.4750 0.4760
15.675144 0.4760 0.4760 0.4760 0.4780 0.4780
15.708000 0.4800 0.4810 0.4850 0.4860 0.4880
15.741144 0.4880 0.4880 0.4900 0.4910 0.4930
15.775000 0.4980 0.4980 0.4980 0.5000 0.5080
15.808144 0.5140 0.5160 0.5180 0.5180 0.5180
15.841000 0.5190 0.5210 0.5210 0.5230 0.5240
15.874144 0.5240 0.5260 0.5280 0.5280 0.5290
15.907000 0.5310 0.5310 0.5310 0.5310 0.5330
15.940144 0.5340 0.5340 0.5340 0.5340 0.5340
15.973000 0.5360 0.5360 0.5330 0.5340 0.5330
##END=
