##TITLE=Dimethylamine, N-nitroso-, d6
##JCAMP-DX=4.24
##DATA TYPE=INFRARED SPECTRUM
##CLASS=COBLENTZ III
##ORIGIN=K. K. DEB-NCI FREDERICK CANCER RESEARCH CENTER
##OWNER=Copyright (C) 1987 by the Coblentz Society
Collection (C) 2018 copyright by the U.S. Secretary of Commerce
on behalf of the United States of America. All rights reserved.
##DATE=1974/08/12
##NAMES=1,1-dimethyl-2-oxohydrazine
Di(methyl-d3)amine, N-nitroso-
##MOLFORM=C2 N2 O D6
##SOURCE REFERENCE=COBLENTZ NO. 9735
##$NIST ID=B6009735
##$NIST SOURCE=COBLENTZ
##$NIST IMAGE=cob9735
##SPECTROMETER/DATA SYSTEM=PERKIN-ELMER 180 (GRATING)
##INSTRUMENT PARAMETERS=GRATINGS: 2000, 1000, 500, 250 CM^-^1; FILTER CHANGE: 2970, 2000, 1485, 1000, 743, 500, 372, 250, 186 CM^-^1.
##STATE=LIQUID (NEAT)
##PATH LENGTH=0.001 CM
$$ PURITY - ANALYTICAL
##SAMPLING PROCEDURE=TRANSMISSION
##RESOLUTION=2
##DATA PROCESSING=DIGITIZED BY COBLENTZ SOCIETY (BATCH II) FROM HARD COPY
##XUNITS=1/CM
##YUNITS=TRANSMITTANCE
##XFACTOR=1.0
##YFACTOR=1
##FIRSTX=305
##LASTX=3788
##FIRSTY=0.0959
##MAXX=3788
##MINX=305
##MAXY=0.9166
##MINY=0
##NPOINTS=3484
##XYDATA=(X++(Y..Y))
305.000000 0.0959 0.0987 0.1012 0.1036 0.1056
310.000000 0.1075 0.1094 0.1110 0.1122 0.1131
315.000000 0.1132 0.1133 0.1133 0.1134 0.1134
320.000000 0.1134 0.1138 0.1158 0.1180 0.1204
325.000000 0.1234 0.1267 0.1302 0.1336 0.1370
330.000000 0.1404 0.1434 0.1463 0.1492 0.1517
335.000000 0.1541 0.1560 0.1573 0.1586 0.1592
340.000000 0.1597 0.1603 0.1611 0.1672 0.1753
345.000000 0.1825 0.1899 0.1973 0.2047 0.2188
350.000000 0.2588 0.2852 0.2932 0.3012 0.3092
355.000000 0.3172 0.3252 0.3332 0.3389 0.3439
360.000000 0.3488 0.3538 0.3618 0.3720 0.3823
365.000000 0.3926 0.4030 0.4108 0.4182 0.4256
370.000000 0.4320 0.4370 0.4419 0.4469 0.4518
375.000000 0.4567 0.4607 0.4644 0.4681 0.4718
380.000000 0.4755 0.4793 0.4831 0.4870 0.4908
385.000000 0.4947 0.4985 0.5023 0.5062 0.5103
390.000000 0.5143 0.5184 0.5224 0.5264 0.5305
395.000000 0.5369 0.5435 0.5500 0.5566 0.5633
400.000000 0.5700 0.5767 0.5834 0.5874 0.5912
405.000000 0.5951 0.5989 0.6027 0.6066 0.6104
410.000000 0.6137 0.6170 0.6203 0.6237 0.6270
415.000000 0.6303 0.6336 0.6368 0.6400 0.6431
420.000000 0.6463 0.6495 0.6526 0.6558 0.6589
425.000000 0.6620 0.6649 0.6677 0.6706 0.6735
430.000000 0.6764 0.6793 0.6822 0.6851 0.6871
435.000000 0.6889 0.6907 0.6925 0.6943 0.6961
440.000000 0.6979 0.6997 0.7015 0.7033 0.7051
445.000000 0.7069 0.7090 0.7112 0.7133 0.7154
450.000000 0.7175 0.7196 0.7217 0.7238 0.7260
455.000000 0.7278 0.7293 0.7307 0.7321 0.7335
460.000000 0.7349 0.7364 0.7378 0.7392 0.7406
465.000000 0.7421 0.7438 0.7455 0.7472 0.7489
470.000000 0.7506 0.7523 0.7540 0.7557 0.7571
475.000000 0.7585 0.7599 0.7613 0.7627 0.7641
480.000000 0.7655 0.7669 0.7682 0.7691 0.7700
485.000000 0.7709 0.7718 0.7727 0.7736 0.7744
490.000000 0.7753 0.7762 0.7769 0.7776 0.7782
495.000000 0.7788 0.7794 0.7796 0.7798 0.7800
500.000000 0.7803 0.7805 0.7807 0.7809 0.7812
505.000000 0.7814 0.7815 0.7813 0.7812 0.7811
510.000000 0.7810 0.7809 0.7809 0.7811 0.7814
515.000000 0.7818 0.7825 0.7832 0.7839 0.7847
520.000000 0.7854 0.7862 0.7869 0.7878 0.7890
525.000000 0.7899 0.7907 0.7915 0.7923 0.7931
530.000000 0.7938 0.7946 0.7954 0.7959 0.7963
535.000000 0.7967 0.7971 0.7975 0.7978 0.7982
540.000000 0.7986 0.7989 0.7992 0.7994 0.7996
545.000000 0.7999 0.8001 0.8003 0.8005 0.8008
550.000000 0.8010 0.8012 0.8014 0.8016 0.8018
555.000000 0.8020 0.8022 0.8024 0.8026 0.8028
560.000000 0.8029 0.8031 0.8033 0.8035 0.8037
565.000000 0.8039 0.8039 0.8038 0.8038 0.8046
570.000000 0.8037 0.8036 0.8035 0.8035 0.8034
575.000000 0.8034 0.8033 0.8032 0.8031 0.8030
580.000000 0.8028 0.8027 0.8026 0.8024 0.8023
585.000000 0.8022 0.8021 0.8019 0.8018 0.8016
590.000000 0.8015 0.8013 0.8012 0.8010 0.8009
595.000000 0.8007 0.8006 0.8006 0.8009 0.8011
600.000000 0.8013 0.8016 0.8022 0.8030 0.8037
605.000000 0.8044 0.8051 0.8057 0.8062 0.8068
610.000000 0.8066 0.8063 0.8059 0.8055 0.8052
615.000000 0.8048 0.8044 0.8028 0.8011 0.7981
620.000000 0.7949 0.7917 0.7883 0.7847 0.7811
625.000000 0.7757 0.7682 0.7590 0.7489 0.7410
630.000000 0.7338 0.7232 0.6811 0.6354 0.5897
635.000000 0.5440 0.4982 0.4525 0.4068 0.3611
640.000000 0.3332 0.3323 0.3395 0.3722 0.4049
645.000000 0.4376 0.4703 0.5030 0.5356 0.5683
650.000000 0.6010 0.6337 0.6664 0.7101 0.7259
655.000000 0.7341 0.7422 0.7501 0.7570 0.7622
660.000000 0.7674 0.7729 0.7786 0.7844 0.7890
665.000000 0.7934 0.7978 0.8006 0.8034 0.8063
670.000000 0.8092 0.8122 0.8151 0.8168 0.8185
675.000000 0.8202 0.8219 0.8233 0.8246 0.8258
680.000000 0.8271 0.8281 0.8288 0.8294 0.8300
685.000000 0.8306 0.8312 0.8318 0.8322 0.8325
690.000000 0.8328 0.8331 0.8334 0.8338 0.8341
695.000000 0.8345 0.8349 0.8353 0.8357 0.8361
700.000000 0.8362 0.8362 0.8363 0.8363 0.8364
705.000000 0.8364 0.8365 0.8365 0.8364 0.8362
710.000000 0.8360 0.8359 0.8357 0.8334 0.8353
715.000000 0.8352 0.8350 0.8348 0.8346 0.8343
720.000000 0.8340 0.8337 0.8334 0.8331 0.8329
725.000000 0.8326 0.8323 0.8320 0.8317 0.8315
730.000000 0.8313 0.8312 0.8310 0.8308 0.8306
735.000000 0.8304 0.8302 0.8301 0.8298 0.8291
740.000000 0.8284 0.8277 0.8271 0.8264 0.8257
745.000000 0.8250 0.8236 0.8211 0.8187 0.8162
750.000000 0.8133 0.8080 0.8027 0.7975 0.7924
755.000000 0.7874 0.7822 0.7722 0.7596 0.7507
760.000000 0.7475 0.7450 0.7469 0.7481 0.7612
765.000000 0.7671 0.7703 0.7725 0.7748 0.7769
770.000000 0.7788 0.7807 0.7821 0.7830 0.7839
775.000000 0.7848 0.7856 0.7864 0.7872 0.7877
780.000000 0.7881 0.7885 0.7888 0.7892 0.7894
785.000000 0.7896 0.7898 0.7898 0.7895 0.7893
790.000000 0.7890 0.7887 0.7889 0.7877 0.7872
795.000000 0.7867 0.7861 0.7852 0.7842 0.7833
800.000000 0.7824 0.7815 0.7804 0.7788 0.7773
805.000000 0.7758 0.7743 0.7728 0.7710 0.7685
810.000000 0.7659 0.7633 0.7605 0.7575 0.7545
815.000000 0.7514 0.7484 0.7446 0.7402 0.7358
820.000000 0.7315 0.7211 0.7081 0.6950 0.6820
825.000000 0.6689 0.6558 0.6428 0.6349 0.6304
830.000000 0.6316 0.6425 0.6535 0.6644 0.6753
835.000000 0.6862 0.6972 0.7081 0.7174 0.7219
840.000000 0.7258 0.7296 0.7328 0.7360 0.7390
845.000000 0.7420 0.7436 0.7452 0.7463 0.7467
850.000000 0.7471 0.7475 0.7473 0.7468 0.7469
855.000000 0.7465 0.7458 0.7450 0.7443 0.7435
860.000000 0.7425 0.7415 0.7406 0.7395 0.7383
865.000000 0.7370 0.7357 0.7342 0.7320 0.7298
870.000000 0.7275 0.7230 0.7185 0.7136 0.7083
875.000000 0.7030 0.6978 0.6927 0.6877 0.6827
880.000000 0.6776 0.6682 0.6558 0.6433 0.6308
885.000000 0.6205 0.6104 0.6003 0.5862 0.5718
890.000000 0.5461 0.5260 0.5150 0.5040 0.4899
895.000000 0.4633 0.4536 0.4440 0.4099 0.3707
900.000000 0.3314 0.2922 0.2529 0.2137 0.1745
905.000000 0.1352 0.0575 0.0413 0.0324 0.0306
910.000000 0.0308 0.0302 0.0322 0.0338 0.0581
915.000000 0.0865 0.1149 0.1433 0.1717 0.2001
920.000000 0.2286 0.2570 0.2854 0.3138 0.3422
925.000000 0.3706 0.3990 0.4274 0.4440 0.4564
930.000000 0.4752 0.5146 0.5388 0.5548 0.5695
935.000000 0.5942 0.6042 0.6142 0.6259 0.6384
940.000000 0.6494 0.6576 0.6647 0.6687 0.6727
945.000000 0.6765 0.6781 0.6797 0.6813 0.6829
950.000000 0.6845 0.6859 0.6875 0.6912 0.6953
955.000000 0.7004 0.7054 0.7105 0.7151 0.7193
960.000000 0.7224 0.7239 0.7253 0.7268 0.7283
965.000000 0.7289 0.7294 0.7298 0.7303 0.7308
970.000000 0.7310 0.7312 0.7313 0.7314 0.7315
975.000000 0.7316 0.7317 0.7317 0.7317 0.7317
980.000000 0.7317 0.7317 0.7317 0.7317 0.7325
985.000000 0.7316 0.7315 0.7314 0.7313 0.7312
990.000000 0.7311 0.7309 0.7304 0.7299 0.7294
995.000000 0.7290 0.7283 0.7276 0.7269 0.7262
1000.000000 0.7255 0.7248 0.7231 0.7215 0.7198
1005.000000 0.7181 0.7160 0.7131 0.7101 0.7072
1010.000000 0.7036 0.6991 0.6946 0.6901 0.6848
1015.000000 0.6793 0.6738 0.6683 0.6629 0.6575
1020.000000 0.6521 0.6467 0.6406 0.6293 0.6181
1025.000000 0.6073 0.5970 0.5867 0.5755 0.5638
1030.000000 0.5520 0.5402 0.5284 0.5167 0.5049
1035.000000 0.4931 0.4813 0.4696 0.4578 0.4460
1040.000000 0.4343 0.4225 0.4107 0.3989 0.3872
1045.000000 0.3754 0.3636 0.3518 0.3423 0.3360
1050.000000 0.3301 0.3245 0.3172 0.3156 0.3157
1055.000000 0.3156 0.3188 0.3272 0.3465 0.3657
1060.000000 0.3849 0.4041 0.4234 0.4426 0.4618
1065.000000 0.4810 0.5003 0.5190 0.5243 0.5297
1070.000000 0.5351 0.5417 0.5483 0.5528 0.5568
1075.000000 0.5599 0.5613 0.5627 0.5627 0.5626
1080.000000 0.5629 0.5606 0.5590 0.5562 0.5455
1085.000000 0.5288 0.5121 0.4953 0.4786 0.4619
1090.000000 0.4452 0.4285 0.4118 0.3951 0.3784
1095.000000 0.3617 0.3450 0.3283 0.3116 0.2949
1100.000000 0.2782 0.2615 0.2451 0.2419 0.2412
1105.000000 0.2407 0.2918 0.3530 0.4142 0.4753
1110.000000 0.5365 0.5567 0.5705 0.5830 0.5942
1115.000000 0.6165 0.6311 0.6440 0.6528 0.6607
1120.000000 0.6685 0.6748 0.6810 0.6873 0.6935
1125.000000 0.6997 0.7045 0.7091 0.7135 0.7166
1130.000000 0.7198 0.7229 0.7261 0.7292 0.7327
1135.000000 0.7365 0.7402 0.7440 0.7478 0.7513
1140.000000 0.7540 0.7567 0.7594 0.7621 0.7648
1145.000000 0.7671 0.7692 0.7713 0.7733 0.7754
1150.000000 0.7775 0.7792 0.7809 0.7827 0.7844
1155.000000 0.7862 0.7878 0.7893 0.7909 0.7925
1160.000000 0.7941 0.7952 0.7962 0.7972 0.7982
1165.000000 0.7992 0.8002 0.8008 0.8013 0.8018
1170.000000 0.8022 0.8027 0.8032 0.8033 0.8033
1175.000000 0.8033 0.8033 0.8033 0.8033 0.8030
1180.000000 0.8028 0.8026 0.8024 0.8021 0.8017
1185.000000 0.8014 0.8010 0.8007 0.8002 0.7995
1190.000000 0.7989 0.7982 0.7975 0.7968 0.7955
1195.000000 0.7942 0.7925 0.7907 0.7888 0.7869
1200.000000 0.7847 0.7825 0.7803 0.7781 0.7759
1205.000000 0.7736 0.7696 0.7657 0.7618 0.7580
1210.000000 0.7543 0.7506 0.7469 0.7432 0.7391
1215.000000 0.7348 0.7306 0.7263 0.7209 0.7144
1220.000000 0.7080 0.7015 0.6950 0.6882 0.6814
1225.000000 0.6747 0.6679 0.6610 0.6529 0.6448
1230.000000 0.6367 0.6284 0.6197 0.6111 0.6023
1235.000000 0.5913 0.5803 0.5714 0.5644 0.5573
1240.000000 0.5503 0.5420 0.5324 0.5227 0.5123
1245.000000 0.4991 0.4859 0.4708 0.4545 0.4386
1250.000000 0.4234 0.4081 0.3927 0.3773 0.3619
1255.000000 0.3466 0.3312 0.3158 0.3004 0.2850
1260.000000 0.2696 0.2542 0.2388 0.2234 0.2080
1265.000000 0.1926 0.1773 0.1619 0.1436 0.1132
1270.000000 0.0860 0.0704 0.0509 0.0414 0.0334
1275.000000 0.0308 0.0284 0.0265 0.0246 0.0226
1280.000000 0.0186 0.0133 0.0074 0.0046 0.0023
1285.000000 0.0006 0.0000 0.0008 0.0015 0.0019
1290.000000 0.0022 0.0025 0.0025 0.0025 0.0025
1295.000000 0.0025 0.0035 0.0021 0.0018 0.0016
1300.000000 0.0013 0.0010 0.0004 0.0000 0.0006
1305.000000 0.0012 0.0017 0.0025 0.0037 0.0048
1310.000000 0.0064 0.0080 0.0096 0.0144 0.0248
1315.000000 0.0286 0.0323 0.0390 0.0504 0.0650
1320.000000 0.0797 0.0944 0.1091 0.1238 0.1385
1325.000000 0.1531 0.1678 0.1825 0.1972 0.2119
1330.000000 0.2266 0.2412 0.2559 0.2706 0.2853
1335.000000 0.3000 0.3147 0.3294 0.3440 0.3587
1340.000000 0.3734 0.3881 0.4028 0.4175 0.4321
1345.000000 0.4468 0.4615 0.4762 0.4937 0.5103
1350.000000 0.5190 0.5273 0.5354 0.5437 0.5517
1355.000000 0.5570 0.5623 0.5656 0.5689 0.5716
1360.000000 0.5739 0.5759 0.5762 0.5765 0.5768
1365.000000 0.5766 0.5766 0.5753 0.5731 0.5710
1370.000000 0.5685 0.5651 0.5591 0.5393 0.5195
1375.000000 0.4997 0.4799 0.4601 0.4403 0.4205
1380.000000 0.4007 0.3809 0.3611 0.3413 0.3215
1385.000000 0.3017 0.2819 0.2621 0.2423 0.2225
1390.000000 0.2027 0.1829 0.1631 0.1390 0.1209
1395.000000 0.1047 0.0813 0.0697 0.0582 0.0467
1400.000000 0.0362 0.0268 0.0206 0.0144 0.0107
1405.000000 0.0081 0.0055 0.0029 0.0003 0.0012
1410.000000 0.0025 0.0038 0.0051 0.0063 0.0069
1415.000000 0.0074 0.0066 0.0083 0.0081 0.0079
1420.000000 0.0077 0.0073 0.0069 0.0065 0.0061
1425.000000 0.0055 0.0044 0.0033 0.0022 0.0021
1430.000000 0.0076 0.0173 0.0249 0.0452 0.0654
1435.000000 0.0857 0.1059 0.1261 0.1464 0.1666
1440.000000 0.1869 0.2071 0.2273 0.2420 0.2536
1445.000000 0.2674 0.2795 0.2912 0.2982 0.3052
1450.000000 0.3394 0.3867 0.4153 0.4384 0.4570
1455.000000 0.4699 0.4828 0.5033 0.5254 0.5491
1460.000000 0.5828 0.5963 0.6091 0.6218 0.6298
1465.000000 0.6373 0.6448 0.6524 0.6603 0.6711
1470.000000 0.6820 0.6928 0.7033 0.7130 0.7227
1475.000000 0.7323 0.7382 0.7437 0.7493 0.7548
1480.000000 0.7603 0.7664 0.7725 0.7786 0.7848
1485.000000 0.7900 0.7945 0.7990 0.8035 0.8071
1490.000000 0.8103 0.8134 0.8166 0.8194 0.8219
1495.000000 0.8244 0.8269 0.8283 0.8293 0.8303
1500.000000 0.8312 0.8322 0.8331 0.8341 0.8350
1505.000000 0.8359 0.8366 0.8374 0.8382 0.8389
1510.000000 0.8397 0.8404 0.8412 0.8419 0.8427
1515.000000 0.8433 0.8440 0.8446 0.8453 0.8459
1520.000000 0.8465 0.8472 0.8478 0.8479 0.8479
1525.000000 0.8479 0.8479 0.8507 0.8479 0.8475
1530.000000 0.8467 0.8458 0.8449 0.8441 0.8431
1535.000000 0.8415 0.8399 0.8383 0.8368 0.8356
1540.000000 0.8345 0.8334 0.8323 0.8311 0.8300
1545.000000 0.8289 0.8281 0.8275 0.8269 0.8262
1550.000000 0.8254 0.8281 0.8304 0.8327 0.8351
1555.000000 0.8377 0.8402 0.8427 0.8450 0.8469
1560.000000 0.8489 0.8508 0.8527 0.8547 0.8560
1565.000000 0.8572 0.8583 0.8595 0.8604 0.8604
1570.000000 0.8604 0.8604 0.8604 0.8625 0.8595
1575.000000 0.8588 0.8582 0.8576 0.8570 0.8564
1580.000000 0.8557 0.8544 0.8531 0.8518 0.8505
1585.000000 0.8492 0.8479 0.8466 0.8452 0.8439
1590.000000 0.8426 0.8412 0.8399 0.8383 0.8362
1595.000000 0.8341 0.8320 0.8300 0.8279 0.8257
1600.000000 0.8232 0.8207 0.8182 0.8157 0.8132
1605.000000 0.8108 0.8083 0.8059 0.8035 0.8010
1610.000000 0.7986 0.7962 0.7938 0.7913 0.7889
1615.000000 0.7860 0.7830 0.7799 0.7769 0.7739
1620.000000 0.7713 0.7690 0.7668 0.7645 0.7623
1625.000000 0.7600 0.7578 0.7555 0.7527 0.7499
1630.000000 0.7470 0.7439 0.7429 0.7430 0.7430
1635.000000 0.7431 0.7422 0.7432 0.7433 0.7441
1640.000000 0.7450 0.7459 0.7474 0.7496 0.7519
1645.000000 0.7544 0.7569 0.7594 0.7624 0.7654
1650.000000 0.7684 0.7714 0.7742 0.7768 0.7795
1655.000000 0.7821 0.7848 0.7874 0.7900 0.7926
1660.000000 0.7952 0.7978 0.8004 0.8031 0.8057
1665.000000 0.8086 0.8125 0.8164 0.8203 0.8242
1670.000000 0.8282 0.8324 0.8367 0.8409 0.8445
1675.000000 0.8477 0.8509 0.8541 0.8573 0.8586
1680.000000 0.8599 0.8613 0.8626 0.8640 0.8653
1685.000000 0.8666 0.8680 0.8690 0.8699 0.8707
1690.000000 0.8715 0.8723 0.8732 0.8737 0.8739
1695.000000 0.8741 0.8744 0.8746 0.8748 0.8750
1700.000000 0.8750 0.8753 0.8752 0.8751 0.8750
1705.000000 0.8749 0.8748 0.8747 0.8746 0.8745
1710.000000 0.8744 0.8743 0.8740 0.8736 0.8731
1715.000000 0.8727 0.8723 0.8718 0.8714 0.8710
1720.000000 0.8705 0.8701 0.8697 0.8691 0.8684
1725.000000 0.8678 0.8671 0.8664 0.8657 0.8650
1730.000000 0.8643 0.8636 0.8629 0.8630 0.8633
1735.000000 0.8637 0.8640 0.8614 0.8646 0.8649
1740.000000 0.8653 0.8659 0.8666 0.8673 0.8680
1745.000000 0.8687 0.8693 0.8700 0.8707 0.8714
1750.000000 0.8721 0.8727 0.8734 0.8740 0.8747
1755.000000 0.8753 0.8760 0.8767 0.8773 0.8780
1760.000000 0.8785 0.8790 0.8794 0.8799 0.8804
1765.000000 0.8809 0.8814 0.8819 0.8823 0.8828
1770.000000 0.8836 0.8846 0.8855 0.8865 0.8874
1775.000000 0.8884 0.8893 0.8896 0.8898 0.8901
1780.000000 0.8903 0.8908 0.8908 0.8910 0.8913
1785.000000 0.8915 0.8915 0.8915 0.8915 0.8915
1790.000000 0.8915 0.8914 0.8906 0.8898 0.8890
1795.000000 0.8882 0.8874 0.8866 0.8858 0.8850
1800.000000 0.8842 0.8833 0.8822 0.8811 0.8800
1805.000000 0.8789 0.8778 0.8767 0.8756 0.8745
1810.000000 0.8734 0.8724 0.8715 0.8705 0.8696
1815.000000 0.8687 0.8677 0.8668 0.8662 0.8662
1820.000000 0.8662 0.8662 0.8663 0.8663 0.8663
1825.000000 0.8668 0.8675 0.8683 0.8701 0.8721
1830.000000 0.8741 0.8760 0.8778 0.8796 0.8812
1835.000000 0.8816 0.8821 0.8826 0.8829 0.8831
1840.000000 0.8832 0.8833 0.8835 0.8836 0.8837
1845.000000 0.8839 0.8840 0.8857 0.8841 0.8842
1850.000000 0.8842 0.8843 0.8843 0.8840 0.8837
1855.000000 0.8834 0.8831 0.8828 0.8823 0.8817
1860.000000 0.8810 0.8804 0.8798 0.8789 0.8777
1865.000000 0.8765 0.8753 0.8741 0.8731 0.8727
1870.000000 0.8724 0.8721 0.8718 0.8714 0.8711
1875.000000 0.8711 0.8712 0.8713 0.8713 0.8714
1880.000000 0.8715 0.8716 0.8717 0.8717 0.8717
1885.000000 0.8716 0.8715 0.8714 0.8713 0.8712
1890.000000 0.8710 0.8705 0.8699 0.8694 0.8689
1895.000000 0.8684 0.8678 0.8671 0.8665 0.8659
1900.000000 0.8653 0.8646 0.8641 0.8640 0.8639
1905.000000 0.8638 0.8638 0.8641 0.8644 0.8647
1910.000000 0.8643 0.8635 0.8628 0.8618 0.8607
1915.000000 0.8596 0.8582 0.8569 0.8555 0.8542
1920.000000 0.8530 0.8519 0.8507 0.8496 0.8484
1925.000000 0.8472 0.8467 0.8461 0.8455 0.8450
1930.000000 0.8444 0.8446 0.8447 0.8449 0.8437
1935.000000 0.8452 0.8454 0.8455 0.8461 0.8467
1940.000000 0.8473 0.8479 0.8486 0.8494 0.8502
1945.000000 0.8509 0.8517 0.8530 0.8543 0.8550
1950.000000 0.8557 0.8564 0.8572 0.8579 0.8586
1955.000000 0.8593 0.8600 0.8608 0.8615 0.8622
1960.000000 0.8629 0.8637 0.8644 0.8651 0.8658
1965.000000 0.8665 0.8673 0.8680 0.8687 0.8694
1970.000000 0.8701 0.8709 0.8716 0.8723 0.8730
1975.000000 0.8740 0.8750 0.8760 0.8770 0.8776
1980.000000 0.8782 0.8787 0.8793 0.8799 0.8799
1985.000000 0.8800 0.8800 0.8801 0.8801 0.8802
1990.000000 0.8802 0.8801 0.8799 0.8796 0.8810
1995.000000 0.8791 0.8789 0.8782 0.8774 0.8766
2000.000000 0.8758 0.8750 0.8742 0.8738 0.8735
2005.000000 0.8731 0.8727 0.8723 0.8719 0.8715
2010.000000 0.8711 0.8707 0.8704 0.8700 0.8696
2015.000000 0.8692 0.8688 0.8682 0.8677 0.8670
2020.000000 0.8663 0.8656 0.8649 0.8641 0.8634
2025.000000 0.8627 0.8620 0.8607 0.8595 0.8581
2030.000000 0.8567 0.8552 0.8537 0.8520 0.8504
2035.000000 0.8487 0.8470 0.8453 0.8437 0.8420
2040.000000 0.8403 0.8372 0.8342 0.8310 0.8279
2045.000000 0.8246 0.8213 0.8178 0.8143 0.8107
2050.000000 0.8072 0.7883 0.7694 0.7591 0.7488
2055.000000 0.7384 0.7281 0.7178 0.7075 0.6972
2060.000000 0.6869 0.6765 0.6662 0.6559 0.6456
2065.000000 0.6352 0.6249 0.6146 0.6043 0.5939
2070.000000 0.5836 0.5738 0.5606 0.5639 0.5638
2075.000000 0.5696 0.5754 0.5948 0.6142 0.6336
2080.000000 0.6530 0.6724 0.6918 0.7037 0.7157
2085.000000 0.7177 0.7197 0.7206 0.7250 0.7216
2090.000000 0.7217 0.7216 0.7216 0.7192 0.7169
2095.000000 0.7135 0.7101 0.7066 0.7032 0.6997
2100.000000 0.6963 0.6928 0.6894 0.6859 0.6825
2105.000000 0.6790 0.6756 0.6722 0.6689 0.6679
2110.000000 0.6669 0.6665 0.6661 0.6662 0.6640
2115.000000 0.6684 0.6706 0.6767 0.6828 0.6889
2120.000000 0.6950 0.7011 0.7072 0.7133 0.7194
2125.000000 0.7255 0.7316 0.7377 0.7438 0.7499
2130.000000 0.7642 0.7584 0.7608 0.7611 0.7614
2135.000000 0.7607 0.7600 0.7585 0.7570 0.7554
2140.000000 0.7539 0.7523 0.7508 0.7492 0.7477
2145.000000 0.7461 0.7446 0.7430 0.7415 0.7400
2150.000000 0.7367 0.7385 0.7385 0.7403 0.7421
2155.000000 0.7486 0.7551 0.7602 0.7653 0.7652
2160.000000 0.7674 0.7651 0.7651 0.7650 0.7649
2165.000000 0.7646 0.7644 0.7641 0.7639 0.7636
2170.000000 0.7633 0.7622 0.7611 0.7583 0.7555
2175.000000 0.7428 0.7301 0.7132 0.6963 0.6933
2180.000000 0.6904 0.6880 0.6857 0.6848 0.6839
2185.000000 0.6836 0.6828 0.6865 0.6897 0.6940
2190.000000 0.6983 0.7025 0.7068 0.7111 0.7154
2195.000000 0.7196 0.7239 0.7241 0.7243 0.7241
2200.000000 0.7239 0.7230 0.7241 0.7192 0.7163
2205.000000 0.7133 0.7104 0.7075 0.7046 0.7017
2210.000000 0.6988 0.6958 0.6929 0.6900 0.6871
2215.000000 0.6841 0.6812 0.6772 0.6733 0.6677
2220.000000 0.6621 0.6577 0.6533 0.6481 0.6429
2225.000000 0.6376 0.6323 0.6270 0.6217 0.6164
2230.000000 0.6111 0.6058 0.6005 0.5953 0.5902
2235.000000 0.5900 0.5899 0.5899 0.5899 0.6010
2240.000000 0.6121 0.6244 0.6367 0.6490 0.6613
2245.000000 0.6736 0.6859 0.6981 0.7104 0.7227
2250.000000 0.7350 0.7441 0.7532 0.7550 0.7569
2255.000000 0.7576 0.7584 0.7589 0.7594 0.7604
2260.000000 0.7614 0.7647 0.7680 0.7715 0.7751
2265.000000 0.7786 0.7821 0.7856 0.7891 0.7936
2270.000000 0.7982 0.8023 0.8065 0.8088 0.8112
2275.000000 0.8135 0.8159 0.8182 0.8206 0.8229
2280.000000 0.8253 0.8275 0.8297 0.8319 0.8341
2285.000000 0.8363 0.8385 0.8394 0.8403 0.8412
2290.000000 0.8421 0.8430 0.8440 0.8449 0.8458
2295.000000 0.8467 0.8476 0.8483 0.8490 0.8493
2300.000000 0.8497 0.8500 0.8504 0.8507 0.8511
2305.000000 0.8514 0.8518 0.8521 0.8525 0.8528
2310.000000 0.8532 0.8534 0.8536 0.8538 0.8541
2315.000000 0.8543 0.8546 0.8548 0.8550 0.8552
2320.000000 0.8555 0.8557 0.8559 0.8561 0.8563
2325.000000 0.8565 0.8568 0.8570 0.8572 0.8577
2330.000000 0.8582 0.8587 0.8593 0.8598 0.8604
2335.000000 0.8611 0.8619 0.8626 0.8633 0.8640
2340.000000 0.8647 0.8654 0.8662 0.8669 0.8676
2345.000000 0.8681 0.8686 0.8691 0.8697 0.8702
2350.000000 0.8708 0.8713 0.8718 0.8723 0.8729
2355.000000 0.8731 0.8734 0.8736 0.8738 0.8740
2360.000000 0.8742 0.8743 0.8745 0.8747 0.8749
2365.000000 0.8751 0.8754 0.8756 0.8759 0.8764
2370.000000 0.8770 0.8777 0.8784 0.8790 0.8796
2375.000000 0.8798 0.8801 0.8803 0.8805 0.8804
2380.000000 0.8804 0.8803 0.8802 0.8800 0.8799
2385.000000 0.8798 0.8797 0.8795 0.8793 0.8790
2390.000000 0.8787 0.8784 0.8782 0.8787 0.8793
2395.000000 0.8799 0.8805 0.8809 0.8814 0.8819
2400.000000 0.8824 0.8828 0.8833 0.8837 0.8842
2405.000000 0.8846 0.8851 0.8856 0.8861 0.8865
2410.000000 0.8870 0.8874 0.8879 0.8883 0.8888
2415.000000 0.8892 0.8897 0.8901 0.8905 0.8909
2420.000000 0.8913 0.8917 0.8921 0.8923 0.8926
2425.000000 0.8928 0.8931 0.8932 0.8933 0.8934
2430.000000 0.8936 0.8937 0.8939 0.8940 0.8942
2435.000000 0.8943 0.8945 0.8946 0.8948 0.8949
2440.000000 0.8951 0.8951 0.8951 0.8951 0.8951
2445.000000 0.8950 0.8950 0.8950 0.8934 0.8949
2450.000000 0.8949 0.8949 0.8949 0.8948 0.8948
2455.000000 0.8948 0.8948 0.8947 0.8947 0.8946
2460.000000 0.8946 0.8946 0.8946 0.8945 0.8945
2465.000000 0.8944 0.8943 0.8941 0.8940 0.8939
2470.000000 0.8938 0.8937 0.8936 0.8934 0.8933
2475.000000 0.8932 0.8931 0.8929 0.8928 0.8927
2480.000000 0.8926 0.8924 0.8923 0.8922 0.8921
2485.000000 0.8919 0.8918 0.8917 0.8916 0.8914
2490.000000 0.8913 0.8912 0.8911 0.8909 0.8908
2495.000000 0.8907 0.8906 0.8904 0.8903 0.8902
2500.000000 0.8901 0.8899 0.8898 0.8897 0.8896
2505.000000 0.8894 0.8893 0.8892 0.8891 0.8889
2510.000000 0.8887 0.8885 0.8884 0.8882 0.8880
2515.000000 0.8878 0.8876 0.8874 0.8873 0.8871
2520.000000 0.8869 0.8867 0.8865 0.8863 0.8862
2525.000000 0.8860 0.8858 0.8856 0.8854 0.8852
2530.000000 0.8851 0.8848 0.8846 0.8842 0.8839
2535.000000 0.8835 0.8832 0.8828 0.8825 0.8821
2540.000000 0.8817 0.8813 0.8810 0.8806 0.8803
2545.000000 0.8799 0.8796 0.8792 0.8788 0.8784
2550.000000 0.8780 0.8776 0.8772 0.8768 0.8764
2555.000000 0.8760 0.8756 0.8752 0.8748 0.8744
2560.000000 0.8740 0.8736 0.8732 0.8728 0.8725
2565.000000 0.8722 0.8719 0.8716 0.8714 0.8711
2570.000000 0.8708 0.8705 0.8702 0.8702 0.8702
2575.000000 0.8703 0.8690 0.8709 0.8714 0.8719
2580.000000 0.8725 0.8730 0.8736 0.8742 0.8749
2585.000000 0.8755 0.8762 0.8768 0.8775 0.8781
2590.000000 0.8788 0.8795 0.8802 0.8808 0.8815
2595.000000 0.8822 0.8829 0.8836 0.8843 0.8850
2600.000000 0.8858 0.8865 0.8872 0.8879 0.8886
2605.000000 0.8893 0.8901 0.8908 0.8915 0.8922
2610.000000 0.8929 0.8936 0.8943 0.8950 0.8957
2615.000000 0.8963 0.8970 0.8973 0.8977 0.8980
2620.000000 0.8984 0.8987 0.8990 0.8993 0.8997
2625.000000 0.9000 0.9004 0.9006 0.9008 0.9008
2630.000000 0.9008 0.9008 0.9008 0.9008 0.9008
2635.000000 0.9007 0.9007 0.9005 0.9004 0.9002
2640.000000 0.9000 0.8998 0.8996 0.8994 0.8992
2645.000000 0.8989 0.8986 0.8981 0.8977 0.8972
2650.000000 0.8968 0.8963 0.8959 0.8954 0.8949
2655.000000 0.8944 0.8939 0.8934 0.8929 0.8924
2660.000000 0.8919 0.8914 0.8909 0.8903 0.8897
2665.000000 0.8890 0.8884 0.8878 0.8872 0.8865
2670.000000 0.8859 0.8853 0.8847 0.8839 0.8831
2675.000000 0.8822 0.8813 0.8804 0.8795 0.8786
2680.000000 0.8777 0.8768 0.8759 0.8750 0.8742
2685.000000 0.8733 0.8725 0.8716 0.8707 0.8693
2690.000000 0.8680 0.8662 0.8645 0.8627 0.8609
2695.000000 0.8591 0.8573 0.8555 0.8538 0.8520
2700.000000 0.8502 0.8484 0.8466 0.8448 0.8431
2705.000000 0.8413 0.8395 0.8377 0.8359 0.8341
2710.000000 0.8323 0.8305 0.8288 0.8270 0.8252
2715.000000 0.8245 0.8238 0.8238 0.8213 0.8239
2720.000000 0.8240 0.8258 0.8277 0.8322 0.8368
2725.000000 0.8413 0.8458 0.8503 0.8549 0.8594
2730.000000 0.8640 0.8685 0.8731 0.8776 0.8822
2735.000000 0.8867 0.8912 0.8926 0.8941 0.8946
2740.000000 0.8951 0.8952 0.8954 0.8954 0.8954
2745.000000 0.8954 0.8954 0.8952 0.8951 0.8949
2750.000000 0.8943 0.8945 0.8943 0.8939 0.8935
2755.000000 0.8928 0.8921 0.8914 0.8907 0.8900
2760.000000 0.8893 0.8885 0.8877 0.8868 0.8860
2765.000000 0.8851 0.8842 0.8833 0.8825 0.8816
2770.000000 0.8808 0.8799 0.8790 0.8778 0.8767
2775.000000 0.8755 0.8743 0.8731 0.8720 0.8708
2780.000000 0.8697 0.8684 0.8672 0.8648 0.8624
2785.000000 0.8599 0.8575 0.8551 0.8527 0.8503
2790.000000 0.8479 0.8455 0.8431 0.8406 0.8382
2795.000000 0.8358 0.8334 0.8310 0.8286 0.8261
2800.000000 0.8237 0.8213 0.8189 0.8165 0.8141
2805.000000 0.8117 0.8093 0.8074 0.8056 0.8038
2810.000000 0.8020 0.8017 0.8014 0.8011 0.8008
2815.000000 0.8005 0.8003 0.8003 0.7996 0.8005
2820.000000 0.8007 0.8013 0.8019 0.8038 0.8058
2825.000000 0.8081 0.8105 0.8128 0.8151 0.8174
2830.000000 0.8198 0.8221 0.8244 0.8267 0.8291
2835.000000 0.8314 0.8337 0.8360 0.8384 0.8407
2840.000000 0.8430 0.8453 0.8477 0.8500 0.8523
2845.000000 0.8543 0.8564 0.8580 0.8597 0.8613
2850.000000 0.8629 0.8645 0.8662 0.8679 0.8696
2855.000000 0.8713 0.8730 0.8742 0.8755 0.8767
2860.000000 0.8780 0.8792 0.8804 0.8814 0.8825
2865.000000 0.8832 0.8840 0.8848 0.8856 0.8864
2870.000000 0.8872 0.8880 0.8888 0.8895 0.8902
2875.000000 0.8908 0.8915 0.8921 0.8928 0.8934
2880.000000 0.8941 0.8947 0.8954 0.8959 0.8964
2885.000000 0.8967 0.8971 0.8974 0.8978 0.8981
2890.000000 0.8985 0.8986 0.8987 0.8986 0.8986
2895.000000 0.8985 0.8984 0.8983 0.8983 0.8982
2900.000000 0.8982 0.8980 0.8979 0.8977 0.8975
2905.000000 0.8973 0.8972 0.8970 0.8968 0.8964
2910.000000 0.8961 0.8957 0.8954 0.8950 0.8946
2915.000000 0.8942 0.8939 0.8935 0.8931 0.8928
2920.000000 0.8926 0.8923 0.8920 0.8917 0.8914
2925.000000 0.8911 0.8908 0.8905 0.8903 0.8900
2930.000000 0.8897 0.8894 0.8891 0.8888 0.8885
2935.000000 0.8884 0.8883 0.8886 0.8889 0.8891
2940.000000 0.8894 0.8896 0.8898 0.8900 0.8902
2945.000000 0.8904 0.8906 0.8909 0.8912 0.8915
2950.000000 0.8918 0.8921 0.8925 0.8928 0.8931
2955.000000 0.8934 0.8938 0.8939 0.8941 0.8942
2960.000000 0.8943 0.8944 0.8946 0.8947 0.8948
2965.000000 0.8949 0.8950 0.8951 0.8952 0.8953
2970.000000 0.8954 0.8955 0.8956 0.8956 0.8957
2975.000000 0.8958 0.8959 0.8959 0.8960 0.8961
2980.000000 0.8962 0.8962 0.8963 0.8964 0.8965
2985.000000 0.8965 0.8966 0.8967 0.8968 0.8968
2990.000000 0.8969 0.8969 0.8969 0.8969 0.8970
2995.000000 0.8970 0.8970 0.8970 0.8971 0.8971
3000.000000 0.8971 0.8971 0.8972 0.8972 0.8972
3005.000000 0.8972 0.8972 0.8971 0.8971 0.8971
3010.000000 0.8971 0.8970 0.8970 0.8969 0.8969
3015.000000 0.8969 0.8969 0.8968 0.8968 0.8967
3020.000000 0.8967 0.8967 0.8955 0.8966 0.8966
3025.000000 0.8965 0.8965 0.8964 0.8963 0.8962
3030.000000 0.8962 0.8961 0.8960 0.8959 0.8959
3035.000000 0.8958 0.8957 0.8956 0.8955 0.8954
3040.000000 0.8954 0.8953 0.8952 0.8951 0.8950
3045.000000 0.8948 0.8947 0.8946 0.8945 0.8943
3050.000000 0.8942 0.8941 0.8940 0.8938 0.8937
3055.000000 0.8936 0.8935 0.8933 0.8932 0.8931
3060.000000 0.8930 0.8928 0.8927 0.8925 0.8924
3065.000000 0.8922 0.8921 0.8919 0.8918 0.8917
3070.000000 0.8916 0.8914 0.8913 0.8911 0.8910
3075.000000 0.8908 0.8907 0.8905 0.8904 0.8902
3080.000000 0.8901 0.8900 0.8899 0.8897 0.8896
3085.000000 0.8896 0.8896 0.8895 0.8895 0.8895
3090.000000 0.8895 0.8894 0.8894 0.8894 0.8894
3095.000000 0.8894 0.8894 0.8893 0.8893 0.8893
3100.000000 0.8893 0.8893 0.8893 0.8893 0.8893
3105.000000 0.8893 0.8893 0.8893 0.8893 0.8892
3110.000000 0.8892 0.8890 0.8889 0.8888 0.8887
3115.000000 0.8885 0.8884 0.8883 0.8882 0.8880
3120.000000 0.8879 0.8877 0.8876 0.8875 0.8874
3125.000000 0.8872 0.8871 0.8870 0.8869 0.8867
3130.000000 0.8866 0.8864 0.8862 0.8860 0.8858
3135.000000 0.8856 0.8854 0.8852 0.8850 0.8847
3140.000000 0.8845 0.8843 0.8841 0.8839 0.8837
3145.000000 0.8835 0.8833 0.8831 0.8829 0.8827
3150.000000 0.8825 0.8823 0.8821 0.8818 0.8816
3155.000000 0.8814 0.8812 0.8810 0.8809 0.8808
3160.000000 0.8807 0.8806 0.8805 0.8804 0.8803
3165.000000 0.8802 0.8801 0.8800 0.8799 0.8798
3170.000000 0.8798 0.8797 0.8796 0.8795 0.8794
3175.000000 0.8793 0.8792 0.8791 0.8790 0.8789
3180.000000 0.8788 0.8786 0.8785 0.8783 0.8782
3185.000000 0.8781 0.8780 0.8778 0.8777 0.8775
3190.000000 0.8774 0.8772 0.8771 0.8767 0.8764
3195.000000 0.8760 0.8756 0.8752 0.8748 0.8743
3200.000000 0.8739 0.8735 0.8731 0.8727 0.8723
3205.000000 0.8719 0.8715 0.8711 0.8707 0.8703
3210.000000 0.8699 0.8694 0.8690 0.8685 0.8680
3215.000000 0.8674 0.8669 0.8663 0.8658 0.8652
3220.000000 0.8647 0.8642 0.8637 0.8631 0.8626
3225.000000 0.8620 0.8615 0.8609 0.8604 0.8599
3230.000000 0.8594 0.8588 0.8583 0.8577 0.8572
3235.000000 0.8566 0.8561 0.8554 0.8548 0.8541
3240.000000 0.8535 0.8528 0.8521 0.8514 0.8507
3245.000000 0.8500 0.8494 0.8487 0.8480 0.8473
3250.000000 0.8467 0.8460 0.8453 0.8446 0.8440
3255.000000 0.8432 0.8425 0.8417 0.8409 0.8401
3260.000000 0.8394 0.8386 0.8378 0.8370 0.8362
3265.000000 0.8354 0.8346 0.8338 0.8330 0.8322
3270.000000 0.8314 0.8306 0.8298 0.8290 0.8282
3275.000000 0.8275 0.8269 0.8262 0.8255 0.8248
3280.000000 0.8242 0.8235 0.8229 0.8222 0.8215
3285.000000 0.8208 0.8202 0.8195 0.8189 0.8186
3290.000000 0.8183 0.8180 0.8178 0.8175 0.8172
3295.000000 0.8169 0.8167 0.8165 0.8164 0.8165
3300.000000 0.8166 0.8167 0.8168 0.8171 0.8174
3305.000000 0.8177 0.8180 0.8183 0.8186 0.8188
3310.000000 0.8191 0.8198 0.8206 0.8216 0.8226
3315.000000 0.8238 0.8250 0.8256 0.8263 0.8265
3320.000000 0.8267 0.8264 0.8262 0.8259 0.8256
3325.000000 0.8253 0.8250 0.8247 0.8244 0.8241
3330.000000 0.8238 0.8234 0.8231 0.8226 0.8222
3335.000000 0.8217 0.8212 0.8207 0.8203 0.8198
3340.000000 0.8193 0.8188 0.8184 0.8179 0.8175
3345.000000 0.8170 0.8165 0.8160 0.8156 0.8148
3350.000000 0.8140 0.8131 0.8123 0.8114 0.8105
3355.000000 0.8096 0.8088 0.8079 0.8071 0.8062
3360.000000 0.8054 0.8044 0.8035 0.8025 0.8016
3365.000000 0.8006 0.7997 0.7987 0.7978 0.7969
3370.000000 0.7960 0.7950 0.7941 0.7931 0.7922
3375.000000 0.7910 0.7899 0.7887 0.7876 0.7864
3380.000000 0.7852 0.7840 0.7829 0.7817 0.7806
3385.000000 0.7794 0.7782 0.7771 0.7760 0.7748
3390.000000 0.7737 0.7725 0.7714 0.7702 0.7691
3395.000000 0.7679 0.7668 0.7656 0.7645 0.7633
3400.000000 0.7621 0.7607 0.7594 0.7580 0.7567
3405.000000 0.7554 0.7541 0.7527 0.7514 0.7500
3410.000000 0.7487 0.7474 0.7461 0.7449 0.7437
3415.000000 0.7424 0.7412 0.7400 0.7388 0.7375
3420.000000 0.7363 0.7351 0.7339 0.7326 0.7314
3425.000000 0.7301 0.7288 0.7272 0.7256 0.7240
3430.000000 0.7225 0.7209 0.7194 0.7178 0.7162
3435.000000 0.7146 0.7131 0.7115 0.7100 0.7084
3440.000000 0.7069 0.7053 0.7038 0.7022 0.7007
3445.000000 0.6991 0.6976 0.6959 0.6942 0.6925
3450.000000 0.6908 0.6890 0.6873 0.6861 0.6849
3455.000000 0.6837 0.6826 0.6814 0.6802 0.6790
3460.000000 0.6779 0.6767 0.6755 0.6742 0.6729
3465.000000 0.6714 0.6700 0.6686 0.6672 0.6663
3470.000000 0.6655 0.6649 0.6643 0.6637 0.6632
3475.000000 0.6630 0.6629 0.6627 0.6651 0.6623
3480.000000 0.6621 0.6619 0.6618 0.6616 0.6615
3485.000000 0.6614 0.6613 0.6612 0.6612 0.6611
3490.000000 0.6610 0.6609 0.6609 0.6608 0.6607
3495.000000 0.6606 0.6606 0.6605 0.6605 0.6605
3500.000000 0.6605 0.6605 0.6605 0.6605 0.6605
3505.000000 0.6605 0.6605 0.6605 0.6605 0.6605
3510.000000 0.6605 0.6605 0.6606 0.6607 0.6608
3515.000000 0.6609 0.6610 0.6610 0.6611 0.6612
3520.000000 0.6613 0.6614 0.6615 0.6615 0.6616
3525.000000 0.6615 0.6615 0.6615 0.6615 0.6614
3530.000000 0.6614 0.6614 0.6614 0.6613 0.6613
3535.000000 0.6612 0.6612 0.6611 0.6610 0.6609
3540.000000 0.6608 0.6607 0.6606 0.6605 0.6604
3545.000000 0.6601 0.6599 0.6594 0.6590 0.6586
3550.000000 0.6582 0.6578 0.6574 0.6569 0.6565
3555.000000 0.6559 0.6554 0.6547 0.6541 0.6534
3560.000000 0.6528 0.6522 0.6516 0.6509 0.6503
3565.000000 0.6496 0.6490 0.6483 0.6477 0.6472
3570.000000 0.6468 0.6466 0.6464 0.6462 0.6460
3575.000000 0.6458 0.6456 0.6454 0.6452 0.6451
3580.000000 0.6451 0.6451 0.6452 0.6452 0.6452
3585.000000 0.6452 0.6490 0.6452 0.6452 0.6455
3590.000000 0.6458 0.6461 0.6465 0.6469 0.6473
3595.000000 0.6477 0.6481 0.6486 0.6492 0.6504
3600.000000 0.6517 0.6529 0.6542 0.6555 0.6569
3605.000000 0.6584 0.6599 0.6614 0.6629 0.6646
3610.000000 0.6663 0.6686 0.6709 0.6732 0.6755
3615.000000 0.6778 0.6802 0.6826 0.6851 0.6875
3620.000000 0.6899 0.6923 0.6948 0.6972 0.6997
3625.000000 0.7021 0.7045 0.7069 0.7093 0.7117
3630.000000 0.7141 0.7165 0.7190 0.7218 0.7247
3635.000000 0.7275 0.7304 0.7332 0.7361 0.7389
3640.000000 0.7418 0.7446 0.7475 0.7504 0.7533
3645.000000 0.7561 0.7590 0.7619 0.7648 0.7677
3650.000000 0.7706 0.7765 0.7825 0.7942 0.8060
3655.000000 0.8115 0.8170 0.8200 0.8231 0.8261
3660.000000 0.8291 0.8321 0.8351 0.8381 0.8411
3665.000000 0.8439 0.8468 0.8497 0.8526 0.8554
3670.000000 0.8583 0.8609 0.8636 0.8659 0.8683
3675.000000 0.8706 0.8729 0.8752 0.8776 0.8797
3680.000000 0.8819 0.8835 0.8852 0.8868 0.8884
3685.000000 0.8900 0.8917 0.8933 0.8949 0.8960
3690.000000 0.8972 0.8981 0.8991 0.9000 0.9009
3695.000000 0.9018 0.9028 0.9035 0.9042 0.9047
3700.000000 0.9053 0.9058 0.9064 0.9069 0.9075
3705.000000 0.9080 0.9085 0.9090 0.9095 0.9098
3710.000000 0.9102 0.9105 0.9109 0.9112 0.9116
3715.000000 0.9120 0.9124 0.9127 0.9131 0.9134
3720.000000 0.9138 0.9141 0.9144 0.9145 0.9147
3725.000000 0.9148 0.9149 0.9150 0.9151 0.9152
3730.000000 0.9153 0.9154 0.9156 0.9157 0.9158
3735.000000 0.9159 0.9160 0.9161 0.9162 0.9162
3740.000000 0.9162 0.9162 0.9163 0.9163 0.9163
3745.000000 0.9163 0.9164 0.9164 0.9164 0.9164
3750.000000 0.9165 0.9165 0.9165 0.9165 0.9165
3755.000000 0.9165 0.9166 0.9164 0.9163 0.9161
3760.000000 0.9141 0.9159 0.9158 0.9156 0.9155
3765.000000 0.9153 0.9152 0.9151 0.9150 0.9149
3770.000000 0.9148 0.9146 0.9145 0.9144 0.9143
3775.000000 0.9141 0.9140 0.9139 0.9138 0.9136
3780.000000 0.9135 0.9134 0.9133 0.9131 0.9130
3785.000000 0.9129 0.9128 0.9128 0.9128
##END=
