##TITLE=p-Phenylenediamine, 2-tert-butyl-N-methyl
##JCAMP-DX=4.24
$$ By DXEDIT 1.05 (RS McDonald)
##DATA TYPE=INFRARED SPECTRUM
##CLASS=COBLENTZ III
##ORIGIN=MONSANTO (J. FREEMAN)
##OWNER=COBLENTZ SOC.
Collection (C) 2018 copyright by the U.S. Secretary of Commerce
on behalf of the United States of America. All rights reserved.
##DATE=1959/12/01
##NAMES=2-tert-butyl-N<1>-methyl-1,4-benzenediamine
##MOLFORM=C11 H18 N2
##SOURCE REFERENCE=COBLENTZ NO. 08473
##$NIST ID=B6008473
##$NIST SOURCE=COBLENTZ
##$NIST IMAGE=cob8473
##SPECTROMETER/DATA SYSTEM=BECKMAN IR-4 (HYBRID PRISM-GRATING)
##INSTRUMENT PARAMETERS=NaCl PRISM
##STATE=LIQUID (NEAT)
##PATH LENGTH=CAPILLARY
##SAMPLING PROCEDURE=TRANSMISSION
##RESOLUTION=2
##DATA PROCESSING=DIGITIZED BY COBLENTZ SOCIETY (BATCH I) FROM HARD COPY
##XUNITS=1/CM
##YUNITS=TRANSMITTANCE
##XLABEL=Wavenumbers (cm-1)
##YLABEL=Transmittance
##XFACTOR=1
##YFACTOR=1
##DELTAX=1
##FIRSTX=4000
##LASTX=626
##FIRSTY=0.8827
##MAXX=4000
##MINX=626
##MAXY=0.9384
##MINY=0.0702
##NPOINTS=3375
##XYDATA=(X++(Y..Y))
4000.000000 0.8827 0.8828 0.8828 0.8830 0.8831
3995.000000 0.8832 0.8833 0.8834 0.8835 0.8836
3990.000000 0.8837 0.8839 0.8840 0.8841 0.8842
3985.000000 0.8843 0.8845 0.8846 0.8847 0.8848
3980.000000 0.8849 0.8850 0.8851 0.8852 0.8852
3975.000000 0.8853 0.8854 0.8855 0.8856 0.8856
3970.000000 0.8857 0.8858 0.8859 0.8859 0.8860
3965.000000 0.8861 0.8861 0.8862 0.8862 0.8863
3960.000000 0.8864 0.8864 0.8865 0.8866 0.8866
3955.000000 0.8867 0.8868 0.8868 0.8868 0.8870
3950.000000 0.8871 0.8871 0.8871 0.8873 0.8874
3945.000000 0.8874 0.8875 0.8875 0.8875 0.8877
3940.000000 0.8878 0.8878 0.8880 0.8881 0.8881
3935.000000 0.8882 0.8882 0.8883 0.8884 0.8884
3930.000000 0.8885 0.8886 0.8886 0.8887 0.8888
3925.000000 0.8888 0.8889 0.8889 0.8889 0.8890
3920.000000 0.8890 0.8890 0.8891 0.8891 0.8891
3915.000000 0.8891 0.8891 0.8891 0.8892 0.8892
3910.000000 0.8892 0.8892 0.8892 0.8892 0.8893
3905.000000 0.8893 0.8893 0.8893 0.8893 0.8893
3900.000000 0.8894 0.8894 0.8894 0.8894 0.8894
3895.000000 0.8894 0.8895 0.8895 0.8895 0.8895
3890.000000 0.8895 0.8895 0.8895 0.8895 0.8895
3885.000000 0.8895 0.8895 0.8895 0.8895 0.8896
3880.000000 0.8896 0.8896 0.8896 0.8896 0.8896
3875.000000 0.8897 0.8897 0.8897 0.8897 0.8897
3870.000000 0.8897 0.8898 0.8898 0.8898 0.8898
3865.000000 0.8898 0.8898 0.8899 0.8899 0.8899
3860.000000 0.8899 0.8899 0.8898 0.8898 0.8897
3855.000000 0.8896 0.8896 0.8895 0.8894 0.8894
3850.000000 0.8893 0.8893 0.8892 0.8892 0.8891
3845.000000 0.8891 0.8890 0.8889 0.8889 0.8888
3840.000000 0.8887 0.8887 0.8886 0.8886 0.8885
3835.000000 0.8885 0.8884 0.8884 0.8883 0.8882
3830.000000 0.8882 0.8881 0.8880 0.8880 0.8878
3825.000000 0.8878 0.8878 0.8878 0.8877 0.8875
3820.000000 0.8875 0.8875 0.8874 0.8874 0.8873
3815.000000 0.8873 0.8871 0.8871 0.8871 0.8871
3810.000000 0.8870 0.8868 0.8868 0.8868 0.8867
3805.000000 0.8866 0.8865 0.8865 0.8864 0.8863
3800.000000 0.8862 0.8861 0.8860 0.8859 0.8858
3795.000000 0.8857 0.8856 0.8855 0.8854 0.8853
3790.000000 0.8852 0.8851 0.8851 0.8850 0.8849
3785.000000 0.8847 0.8846 0.8845 0.8844 0.8843
3780.000000 0.8842 0.8841 0.8840 0.8839 0.8838
3775.000000 0.8837 0.8836 0.8835 0.8835 0.8834
3770.000000 0.8833 0.8832 0.8831 0.8830 0.8828
3765.000000 0.8827 0.8825 0.8825 0.8824 0.8823
3760.000000 0.8821 0.8821 0.8820 0.8818 0.8818
3755.000000 0.8818 0.8817 0.8815 0.8814 0.8813
3750.000000 0.8811 0.8810 0.8808 0.8807 0.8805
3745.000000 0.8804 0.8803 0.8801 0.8800 0.8798
3740.000000 0.8797 0.8795 0.8794 0.8793 0.8791
3735.000000 0.8790 0.8788 0.8787 0.8785 0.8784
3730.000000 0.8783 0.8781 0.8780 0.8778 0.8777
3725.000000 0.8775 0.8774 0.8771 0.8771 0.8770
3720.000000 0.8768 0.8766 0.8765 0.8763 0.8762
3715.000000 0.8760 0.8758 0.8757 0.8756 0.8754
3710.000000 0.8753 0.8751 0.8750 0.8748 0.8747
3705.000000 0.8745 0.8744 0.8742 0.8740 0.8738
3700.000000 0.8735 0.8733 0.8731 0.8728 0.8727
3695.000000 0.8724 0.8721 0.8720 0.8718 0.8716
3690.000000 0.8713 0.8711 0.8709 0.8707 0.8705
3685.000000 0.8702 0.8700 0.8698 0.8696 0.8694
3680.000000 0.8691 0.8689 0.8687 0.8685 0.8682
3675.000000 0.8680 0.8678 0.8675 0.8674 0.8671
3670.000000 0.8668 0.8667 0.8665 0.8662 0.8660
3665.000000 0.8658 0.8656 0.8653 0.8651 0.8649
3660.000000 0.8647 0.8644 0.8641 0.8639 0.8636
3655.000000 0.8634 0.8631 0.8628 0.8625 0.8621
3650.000000 0.8620 0.8617 0.8614 0.8612 0.8609
3645.000000 0.8606 0.8604 0.8601 0.8598 0.8595
3640.000000 0.8592 0.8589 0.8587 0.8584 0.8581
3635.000000 0.8578 0.8575 0.8571 0.8568 0.8566
3630.000000 0.8563 0.8559 0.8556 0.8553 0.8549
3625.000000 0.8546 0.8542 0.8539 0.8536 0.8532
3620.000000 0.8528 0.8525 0.8523 0.8518 0.8516
3615.000000 0.8513 0.8510 0.8506 0.8503 0.8499
3610.000000 0.8495 0.8491 0.8487 0.8482 0.8478
3605.000000 0.8473 0.8468 0.8465 0.8460 0.8456
3600.000000 0.8451 0.8447 0.8442 0.8438 0.8432
3595.000000 0.8427 0.8421 0.8416 0.8411 0.8400
3590.000000 0.8390 0.8378 0.8368 0.8358 0.8347
3585.000000 0.8337 0.8325 0.8316 0.8305 0.8286
3580.000000 0.8263 0.8240 0.8216 0.8193 0.8133
3575.000000 0.8040 0.7947 0.7854 0.7761 0.7701
3570.000000 0.7684 0.7667 0.7649 0.7632 0.7615
3565.000000 0.7597 0.7580 0.7561 0.7545 0.7528
3560.000000 0.7515 0.7503 0.7490 0.7478 0.7465
3555.000000 0.7455 0.7444 0.7433 0.7421 0.7411
3550.000000 0.7400 0.7389 0.7378 0.7367 0.7354
3545.000000 0.7321 0.7287 0.7253 0.7219 0.7185
3540.000000 0.7138 0.7090 0.7043 0.6996 0.6948
3535.000000 0.6901 0.6854 0.6807 0.6758 0.6711
3530.000000 0.6664 0.6617 0.6568 0.6521 0.6474
3525.000000 0.6426 0.6379 0.6332 0.6284 0.6236
3520.000000 0.6189 0.6141 0.6093 0.6045 0.5997
3515.000000 0.5949 0.5902 0.5854 0.5806 0.5758
3510.000000 0.5710 0.5662 0.5614 0.5566 0.5518
3505.000000 0.5469 0.5421 0.5373 0.5325 0.5277
3500.000000 0.5229 0.5180 0.5132 0.5084 0.5035
3495.000000 0.4987 0.4939 0.4890 0.4842 0.4793
3490.000000 0.4745 0.4697 0.4648 0.4600 0.4551
3485.000000 0.4502 0.4453 0.4404 0.4356 0.4351
3480.000000 0.4351 0.4351 0.4351 0.4351 0.4352
3475.000000 0.4353 0.4354 0.4355 0.4356 0.4358
3470.000000 0.4359 0.4360 0.4362 0.4364 0.4364
3465.000000 0.4364 0.4364 0.4364 0.4369 0.4376
3460.000000 0.4382 0.4389 0.4396 0.4410 0.4426
3455.000000 0.4442 0.4458 0.4474 0.4490 0.4506
3450.000000 0.4521 0.4537 0.4553 0.4569 0.4585
3445.000000 0.4601 0.4617 0.4633 0.4649 0.4665
3440.000000 0.4681 0.4697 0.4712 0.4729 0.4745
3435.000000 0.4760 0.4778 0.4794 0.4810 0.4826
3430.000000 0.4842 0.4853 0.4855 0.4857 0.4858
3425.000000 0.4860 0.4860 0.4860 0.4862 0.4862
3420.000000 0.4862 0.4862 0.4864 0.4864 0.4865
3415.000000 0.4866 0.4866 0.4867 0.4868 0.4868
3410.000000 0.4850 0.4822 0.4793 0.4764 0.4866
3405.000000 0.4698 0.4660 0.4624 0.4586 0.4549
3400.000000 0.4512 0.4474 0.4437 0.4399 0.4362
3395.000000 0.4324 0.4287 0.4249 0.4212 0.4174
3390.000000 0.4136 0.4099 0.4060 0.4030 0.4004
3385.000000 0.3978 0.3953 0.3927 0.3926 0.3926
3380.000000 0.3926 0.3926 0.3927 0.3927 0.3927
3375.000000 0.3927 0.3927 0.3928 0.3928 0.3928
3370.000000 0.3928 0.3929 0.3929 0.3930 0.3930
3365.000000 0.3922 0.3937 0.3947 0.3956 0.3964
3360.000000 0.3980 0.4016 0.4054 0.4090 0.4127
3355.000000 0.4162 0.4200 0.4237 0.4273 0.4310
3350.000000 0.4347 0.4383 0.4420 0.4456 0.4493
3345.000000 0.4530 0.4567 0.4604 0.4641 0.4678
3340.000000 0.4715 0.4752 0.4789 0.4826 0.4862
3335.000000 0.4900 0.4937 0.4974 0.5010 0.5048
3330.000000 0.5085 0.5123 0.5160 0.5197 0.5234
3325.000000 0.5272 0.5309 0.5346 0.5384 0.5421
3320.000000 0.5458 0.5496 0.5533 0.5571 0.5608
3315.000000 0.5646 0.5683 0.5720 0.5758 0.5795
3310.000000 0.5833 0.5871 0.5908 0.5946 0.5984
3305.000000 0.6021 0.6059 0.6097 0.6122 0.6134
3300.000000 0.6147 0.6159 0.6170 0.6170 0.6170
3295.000000 0.6171 0.6172 0.6172 0.6173 0.6173
3290.000000 0.6174 0.6175 0.6175 0.6175 0.6175
3285.000000 0.6176 0.6176 0.6176 0.6177 0.6177
3280.000000 0.6166 0.6153 0.6139 0.6126 0.6107
3275.000000 0.6085 0.6062 0.6039 0.6017 0.5994
3270.000000 0.5971 0.5949 0.5926 0.5903 0.5881
3265.000000 0.5858 0.5835 0.5812 0.5790 0.5767
3260.000000 0.5744 0.5727 0.5718 0.5710 0.5701
3255.000000 0.5694 0.5694 0.5695 0.5695 0.5696
3250.000000 0.5696 0.5696 0.5696 0.5696 0.5705
3245.000000 0.5716 0.5728 0.5739 0.5759 0.5787
3240.000000 0.5814 0.5841 0.5869 0.5896 0.5924
3235.000000 0.5951 0.5979 0.6006 0.6034 0.6062
3230.000000 0.6090 0.6117 0.6145 0.6173 0.6200
3225.000000 0.6228 0.6255 0.6283 0.6310 0.6339
3220.000000 0.6367 0.6395 0.6422 0.6450 0.6478
3215.000000 0.6506 0.6534 0.6561 0.6590 0.6618
3210.000000 0.6646 0.6674 0.6701 0.6730 0.6758
3205.000000 0.6786 0.6814 0.6842 0.6869 0.6898
3200.000000 0.6926 0.6955 0.6983 0.7011 0.7040
3195.000000 0.7068 0.7096 0.7124 0.7151 0.7181
3190.000000 0.7208 0.7237 0.7265 0.7294 0.7322
3185.000000 0.7351 0.7380 0.7408 0.7437 0.7465
3180.000000 0.7480 0.7488 0.7496 0.7504 0.7508
3175.000000 0.7511 0.7515 0.7518 0.7519 0.7521
3170.000000 0.7521 0.7522 0.7524 0.7525 0.7525
3165.000000 0.7525 0.7525 0.7525 0.7525 0.7525
3160.000000 0.7524 0.7524 0.7522 0.7522 0.7521
3155.000000 0.7518 0.7517 0.7541 0.7511 0.7508
3150.000000 0.7505 0.7501 0.7496 0.7488 0.7480
3145.000000 0.7471 0.7461 0.7449 0.7436 0.7422
3140.000000 0.7408 0.7394 0.7378 0.7362 0.7341
3135.000000 0.7315 0.7291 0.7267 0.7239 0.7211
3130.000000 0.7184 0.7156 0.7128 0.7100 0.7071
3125.000000 0.7044 0.7015 0.6987 0.6958 0.6931
3120.000000 0.6901 0.6874 0.6846 0.6818 0.6789
3115.000000 0.6761 0.6733 0.6704 0.6675 0.6647
3110.000000 0.6618 0.6591 0.6561 0.6534 0.6505
3105.000000 0.6476 0.6449 0.6419 0.6392 0.6362
3100.000000 0.6335 0.6306 0.6278 0.6249 0.6220
3095.000000 0.6191 0.6162 0.6134 0.6105 0.6077
3090.000000 0.6048 0.6019 0.5990 0.5960 0.5932
3085.000000 0.5903 0.5875 0.5846 0.5817 0.5788
3080.000000 0.5759 0.5730 0.5701 0.5672 0.5643
3075.000000 0.5614 0.5585 0.5556 0.5527 0.5499
3070.000000 0.5471 0.5443 0.5416 0.5396 0.5386
3065.000000 0.5375 0.5364 0.5354 0.5343 0.5332
3060.000000 0.5322 0.5310 0.5299 0.5288 0.5277
3055.000000 0.5265 0.5253 0.5241 0.5230 0.5218
3050.000000 0.5206 0.5194 0.5174 0.5153 0.5131
3045.000000 0.5109 0.5079 0.5049 0.5019 0.4989
3040.000000 0.4958 0.4926 0.4895 0.4844 0.4782
3035.000000 0.4721 0.4660 0.4573 0.4486 0.4398
3030.000000 0.4310 0.4223 0.4136 0.4048 0.3960
3025.000000 0.3874 0.3786 0.3699 0.3610 0.3523
3020.000000 0.3434 0.3347 0.3259 0.3171 0.3083
3015.000000 0.2995 0.2907 0.2819 0.2730 0.2642
3010.000000 0.2553 0.2465 0.2376 0.2288 0.2199
3005.000000 0.2111 0.2022 0.1933 0.1844 0.1763
3000.000000 0.1717 0.1672 0.1626 0.1608 0.1608
2995.000000 0.1608 0.1608 0.1608 0.1608 0.1608
2990.000000 0.1611 0.1612 0.1613 0.1613 0.1621
2985.000000 0.1629 0.1637 0.1651 0.1674 0.1696
2980.000000 0.1720 0.1743 0.1766 0.1789 0.1812
2975.000000 0.1834 0.1858 0.1881 0.1904 0.1927
2970.000000 0.1950 0.1973 0.1996 0.2020 0.2043
2965.000000 0.2066 0.2089 0.2112 0.2134 0.2159
2960.000000 0.2182 0.2206 0.2229 0.2252 0.2275
2955.000000 0.2298 0.2322 0.2345 0.2369 0.2392
2950.000000 0.2416 0.2439 0.2460 0.2465 0.2470
2945.000000 0.2475 0.2479 0.2483 0.2485 0.2490
2940.000000 0.2494 0.2498 0.2502 0.2506 0.2510
2935.000000 0.2515 0.2519 0.2523 0.2527 0.2531
2930.000000 0.2535 0.2542 0.2547 0.2553 0.2559
2925.000000 0.2566 0.2572 0.2578 0.2584 0.2590
2920.000000 0.2595 0.2601 0.2606 0.2611 0.2617
2915.000000 0.2622 0.2627 0.2633 0.2638 0.2644
2910.000000 0.2650 0.2657 0.2664 0.2671 0.2678
2905.000000 0.2684 0.2692 0.2699 0.2707 0.2715
2900.000000 0.2723 0.2733 0.2742 0.2752 0.2762
2895.000000 0.2772 0.2782 0.2792 0.2803 0.2814
2890.000000 0.2825 0.2837 0.2849 0.2861 0.2874
2885.000000 0.2887 0.2899 0.2923 0.2959 0.2994
2880.000000 0.3040 0.3134 0.3230 0.3326 0.3472
2875.000000 0.3625 0.3778 0.3930 0.4084 0.4238
2870.000000 0.4391 0.4545 0.4699 0.4852 0.5006
2865.000000 0.5160 0.5314 0.5371 0.5383 0.5394
2860.000000 0.5397 0.5386 0.5376 0.5352 0.5252
2855.000000 0.5151 0.5050 0.4950 0.4849 0.4748
2850.000000 0.4647 0.4547 0.4446 0.4375 0.4354
2845.000000 0.4333 0.4315 0.4319 0.4322 0.4326
2840.000000 0.4332 0.4337 0.4343 0.4439 0.4577
2835.000000 0.4716 0.4858 0.5003 0.5149 0.5295
2830.000000 0.5441 0.5587 0.5733 0.5880 0.6026
2825.000000 0.6173 0.6320 0.6465 0.6612 0.6760
2820.000000 0.6908 0.7055 0.7167 0.7242 0.7315
2815.000000 0.7374 0.7395 0.7415 0.7437 0.7461
2810.000000 0.7485 0.7508 0.7537 0.7564 0.7592
2805.000000 0.7619 0.7649 0.7678 0.7708 0.7739
2800.000000 0.7771 0.7799 0.7825 0.7851 0.7875
2795.000000 0.7898 0.7919 0.7942 0.7965 0.7987
2790.000000 0.8008 0.8021 0.8036 0.8049 0.8061
2785.000000 0.8075 0.8088 0.8101 0.8114 0.8126
2780.000000 0.8138 0.8148 0.8158 0.8169 0.8181
2775.000000 0.8191 0.8202 0.8213 0.8223 0.8234
2770.000000 0.8245 0.8256 0.8268 0.8281 0.8294
2765.000000 0.8307 0.8320 0.8333 0.8346 0.8359
2760.000000 0.8371 0.8386 0.8399 0.8412 0.8425
2755.000000 0.8439 0.8453 0.8467 0.8481 0.8494
2750.000000 0.8508 0.8521 0.8536 0.8550 0.8564
2745.000000 0.8577 0.8591 0.8604 0.8616 0.8628
2740.000000 0.8642 0.8655 0.8668 0.8681 0.8694
2735.000000 0.8707 0.8720 0.8733 0.8745 0.8758
2730.000000 0.8770 0.8782 0.8790 0.8799 0.8807
2725.000000 0.8814 0.8820 0.8825 0.8833 0.8839
2720.000000 0.8846 0.8852 0.8859 0.8865 0.8871
2715.000000 0.8878 0.8884 0.8891 0.8898 0.8905
2710.000000 0.8911 0.8917 0.8923 0.8928 0.8934
2705.000000 0.8940 0.8947 0.8953 0.8958 0.8964
2700.000000 0.8968 0.8974 0.8978 0.8982 0.8986
2695.000000 0.8990 0.8994 0.8998 0.9003 0.9007
2690.000000 0.9010 0.9014 0.9017 0.9021 0.9024
2685.000000 0.9027 0.9031 0.9034 0.9037 0.9040
2680.000000 0.9043 0.9046 0.9048 0.9051 0.9053
2675.000000 0.9054 0.9056 0.9058 0.9060 0.9061
2670.000000 0.9062 0.9062 0.9063 0.9063 0.9063
2665.000000 0.9063 0.9063 0.9063 0.9061 0.9058
2660.000000 0.9025 0.9051 0.9046 0.9041 0.9036
2655.000000 0.9031 0.9025 0.9021 0.9016 0.9011
2650.000000 0.9006 0.9001 0.8996 0.8991 0.8985
2645.000000 0.8980 0.8975 0.8970 0.8965 0.8960
2640.000000 0.8955 0.8950 0.8945 0.8940 0.8935
2635.000000 0.8931 0.8925 0.8921 0.8916 0.8912
2630.000000 0.8907 0.8902 0.8898 0.8894 0.8890
2625.000000 0.8889 0.8888 0.8887 0.8886 0.8885
2620.000000 0.8884 0.8883 0.8883 0.8882 0.8881
2615.000000 0.8878 0.8878 0.8877 0.8875 0.8875
2610.000000 0.8874 0.8873 0.8871 0.8871 0.8871
2605.000000 0.8871 0.8871 0.8871 0.8871 0.8871
2600.000000 0.8871 0.8871 0.8871 0.8871 0.8871
2595.000000 0.8871 0.8871 0.8871 0.8871 0.8871
2590.000000 0.8873 0.8875 0.8875 0.8878 0.8881
2585.000000 0.8883 0.8886 0.8889 0.8891 0.8893
2580.000000 0.8895 0.8898 0.8900 0.8902 0.8904
2575.000000 0.8907 0.8909 0.8911 0.8914 0.8918
2570.000000 0.8921 0.8927 0.8933 0.8939 0.8945
2565.000000 0.8951 0.8957 0.8963 0.8968 0.8974
2560.000000 0.8981 0.8987 0.8993 0.8999 0.9006
2555.000000 0.9015 0.9024 0.9034 0.9044 0.9054
2550.000000 0.9064 0.9074 0.9084 0.9094 0.9104
2545.000000 0.9113 0.9123 0.9133 0.9143 0.9153
2540.000000 0.9163 0.9171 0.9182 0.9192 0.9202
2535.000000 0.9211 0.9220 0.9230 0.9234 0.9239
2530.000000 0.9243 0.9248 0.9253 0.9257 0.9261
2525.000000 0.9266 0.9270 0.9274 0.9277 0.9280
2520.000000 0.9282 0.9284 0.9287 0.9289 0.9291
2515.000000 0.9294 0.9297 0.9299 0.9302 0.9304
2510.000000 0.9307 0.9309 0.9311 0.9314 0.9316
2505.000000 0.9318 0.9320 0.9321 0.9321 0.9323
2500.000000 0.9325 0.9325 0.9325 0.9327 0.9328
2495.000000 0.9330 0.9331 0.9332 0.9333 0.9334
2490.000000 0.9335 0.9335 0.9336 0.9337 0.9337
2485.000000 0.9338 0.9338 0.9338 0.9339 0.9339
2480.000000 0.9340 0.9340 0.9340 0.9341 0.9341
2475.000000 0.9342 0.9342 0.9342 0.9343 0.9343
2470.000000 0.9344 0.9344 0.9344 0.9345 0.9345
2465.000000 0.9346 0.9346 0.9345 0.9345 0.9345
2460.000000 0.9344 0.9344 0.9343 0.9343 0.9343
2455.000000 0.9342 0.9342 0.9341 0.9341 0.9341
2450.000000 0.9339 0.9337 0.9336 0.9334 0.9332
2445.000000 0.9331 0.9328 0.9328 0.9325 0.9325
2440.000000 0.9323 0.9320 0.9318 0.9315 0.9313
2435.000000 0.9311 0.9309 0.9306 0.9304 0.9301
2430.000000 0.9299 0.9296 0.9294 0.9292 0.9290
2425.000000 0.9288 0.9285 0.9283 0.9280 0.9278
2420.000000 0.9275 0.9274 0.9274 0.9273 0.9275
2415.000000 0.9278 0.9281 0.9284 0.9287 0.9290
2410.000000 0.9293 0.9296 0.9298 0.9299 0.9301
2405.000000 0.9301 0.9301 0.9302 0.9302 0.9303
2400.000000 0.9303 0.9304 0.9304 0.9304 0.9305
2395.000000 0.9305 0.9306 0.9306 0.9305 0.9305
2390.000000 0.9304 0.9304 0.9304 0.9303 0.9303
2385.000000 0.9302 0.9301 0.9300 0.9300 0.9300
2380.000000 0.9299 0.9299 0.9298 0.9298 0.9297
2375.000000 0.9297 0.9296 0.9296 0.9296 0.9295
2370.000000 0.9295 0.9294 0.9294 0.9293 0.9293
2365.000000 0.9293 0.9293 0.9293 0.9292 0.9292
2360.000000 0.9292 0.9292 0.9291 0.9291 0.9291
2355.000000 0.9291 0.9290 0.9290 0.9290 0.9290
2350.000000 0.9290 0.9289 0.9289 0.9289 0.9289
2345.000000 0.9288 0.9288 0.9288 0.9288 0.9288
2340.000000 0.9287 0.9287 0.9287 0.9287 0.9286
2335.000000 0.9286 0.9286 0.9286 0.9285 0.9285
2330.000000 0.9285 0.9285 0.9285 0.9284 0.9284
2325.000000 0.9283 0.9281 0.9280 0.9278 0.9278
2320.000000 0.9277 0.9277 0.9277 0.9277 0.9278
2315.000000 0.9278 0.9278 0.9278 0.9278 0.9280
2310.000000 0.9282 0.9286 0.9289 0.9291 0.9294
2305.000000 0.9297 0.9300 0.9303 0.9307 0.9309
2300.000000 0.9312 0.9316 0.9318 0.9321 0.9325
2295.000000 0.9327 0.9330 0.9332 0.9332 0.9331
2290.000000 0.9330 0.9328 0.9328 0.9327 0.9325
2285.000000 0.9325 0.9324 0.9323 0.9321 0.9321
2280.000000 0.9321 0.9320 0.9318 0.9318 0.9318
2275.000000 0.9317 0.9316 0.9316 0.9315 0.9314
2270.000000 0.9313 0.9313 0.9312 0.9311 0.9310
2265.000000 0.9310 0.9309 0.9308 0.9307 0.9307
2260.000000 0.9306 0.9305 0.9304 0.9303 0.9301
2255.000000 0.9300 0.9299 0.9298 0.9296 0.9295
2250.000000 0.9294 0.9293 0.9291 0.9290 0.9289
2245.000000 0.9288 0.9286 0.9285 0.9284 0.9283
2240.000000 0.9281 0.9280 0.9278 0.9278 0.9275
2235.000000 0.9275 0.9273 0.9271 0.9270 0.9268
2230.000000 0.9268 0.9267 0.9265 0.9264 0.9262
2225.000000 0.9261 0.9259 0.9257 0.9255 0.9253
2220.000000 0.9251 0.9249 0.9247 0.9245 0.9243
2215.000000 0.9241 0.9239 0.9237 0.9235 0.9233
2210.000000 0.9232 0.9231 0.9230 0.9228 0.9228
2205.000000 0.9228 0.9230 0.9235 0.9239 0.9244
2200.000000 0.9249 0.9254 0.9259 0.9264 0.9268
2195.000000 0.9274 0.9278 0.9283 0.9287 0.9291
2190.000000 0.9294 0.9298 0.9301 0.9304 0.9308
2185.000000 0.9312 0.9315 0.9318 0.9323 0.9325
2180.000000 0.9330 0.9333 0.9337 0.9339 0.9342
2175.000000 0.9344 0.9345 0.9347 0.9350 0.9351
2170.000000 0.9353 0.9354 0.9356 0.9358 0.9360
2165.000000 0.9362 0.9364 0.9366 0.9368 0.9368
2160.000000 0.9370 0.9371 0.9371 0.9374 0.9374
2155.000000 0.9375 0.9375 0.9375 0.9375 0.9377
2150.000000 0.9377 0.9378 0.9378 0.9378 0.9378
2145.000000 0.9381 0.9382 0.9382 0.9383 0.9383
2140.000000 0.9384 0.9384 0.9384 0.9383 0.9381
2135.000000 0.9380 0.9378 0.9375 0.9375 0.9374
2130.000000 0.9371 0.9371 0.9368 0.9368 0.9367
2125.000000 0.9365 0.9363 0.9362 0.9360 0.9358
2120.000000 0.9357 0.9355 0.9354 0.9353 0.9351
2115.000000 0.9349 0.9348 0.9346 0.9344 0.9342
2110.000000 0.9338 0.9334 0.9331 0.9327 0.9323
2105.000000 0.9318 0.9315 0.9312 0.9308 0.9304
2100.000000 0.9300 0.9295 0.9291 0.9287 0.9283
2095.000000 0.9278 0.9275 0.9271 0.9267 0.9264
2090.000000 0.9261 0.9258 0.9255 0.9252 0.9250
2085.000000 0.9247 0.9244 0.9242 0.9239 0.9236
2080.000000 0.9234 0.9232 0.9230 0.9230 0.9228
2075.000000 0.9228 0.9227 0.9225 0.9225 0.9224
2070.000000 0.9223 0.9221 0.9221 0.9220 0.9218
2065.000000 0.9218 0.9217 0.9216 0.9215 0.9214
2060.000000 0.9213 0.9212 0.9211 0.9210 0.9210
2055.000000 0.9208 0.9207 0.9206 0.9205 0.9205
2050.000000 0.9203 0.9202 0.9201 0.9200 0.9200
2045.000000 0.9199 0.9197 0.9196 0.9195 0.9195
2040.000000 0.9194 0.9192 0.9192 0.9191 0.9190
2035.000000 0.9188 0.9187 0.9187 0.9186 0.9185
2030.000000 0.9183 0.9182 0.9182 0.9181 0.9180
2025.000000 0.9178 0.9178 0.9177 0.9175 0.9174
2020.000000 0.9174 0.9173 0.9171 0.9171 0.9170
2015.000000 0.9168 0.9168 0.9167 0.9166 0.9165
2010.000000 0.9164 0.9163 0.9162 0.9161 0.9160
2005.000000 0.9159 0.9157 0.9156 0.9155 0.9154
2000.000000 0.9153 0.9152 0.9151 0.9150 0.9148
1995.000000 0.9147 0.9146 0.9145 0.9143 0.9142
1990.000000 0.9141 0.9140 0.9139 0.9138 0.9137
1985.000000 0.9136 0.9134 0.9133 0.9132 0.9131
1980.000000 0.9128 0.9128 0.9128 0.9125 0.9125
1975.000000 0.9124 0.9123 0.9121 0.9120 0.9118
1970.000000 0.9117 0.9116 0.9115 0.9114 0.9112
1965.000000 0.9111 0.9110 0.9108 0.9107 0.9107
1960.000000 0.9105 0.9104 0.9103 0.9102 0.9100
1955.000000 0.9099 0.9098 0.9096 0.9095 0.9094
1950.000000 0.9092 0.9091 0.9090 0.9088 0.9087
1945.000000 0.9086 0.9084 0.9084 0.9083 0.9082
1940.000000 0.9080 0.9078 0.9078 0.9077 0.9075
1935.000000 0.9075 0.9073 0.9071 0.9071 0.9068
1930.000000 0.9068 0.9067 0.9066 0.9065 0.9063
1925.000000 0.9062 0.9060 0.9058 0.9057 0.9056
1920.000000 0.9054 0.9053 0.9052 0.9050 0.9048
1915.000000 0.9047 0.9045 0.9044 0.9042 0.9040
1910.000000 0.9038 0.9035 0.9032 0.9030 0.9027
1905.000000 0.9024 0.9021 0.9020 0.9017 0.9014
1900.000000 0.9012 0.9009 0.9005 0.9000 0.8996
1895.000000 0.8992 0.8987 0.8982 0.8977 0.8971
1890.000000 0.8967 0.8962 0.8956 0.8951 0.8945
1885.000000 0.8940 0.8935 0.8928 0.8924 0.8918
1880.000000 0.8913 0.8908 0.8903 0.8900 0.8896
1875.000000 0.8893 0.8889 0.8886 0.8882 0.8878
1870.000000 0.8875 0.8871 0.8868 0.8863 0.8858
1865.000000 0.8854 0.8849 0.8845 0.8841 0.8836
1860.000000 0.8830 0.8825 0.8821 0.8818 0.8815
1855.000000 0.8810 0.8806 0.8803 0.8798 0.8770
1850.000000 0.8790 0.8786 0.8786 0.8787 0.8788
1845.000000 0.8791 0.8793 0.8795 0.8798 0.8801
1840.000000 0.8807 0.8813 0.8818 0.8824 0.8828
1835.000000 0.8835 0.8842 0.8854 0.8871 0.8892
1830.000000 0.8912 0.8931 0.8942 0.8952 0.8961
1825.000000 0.8971 0.8980 0.8989 0.8999 0.9008
1820.000000 0.9018 0.9027 0.9036 0.9046 0.9051
1815.000000 0.9055 0.9057 0.9059 0.9062 0.9064
1810.000000 0.9066 0.9068 0.9071 0.9073 0.9075
1805.000000 0.9078 0.9078 0.9081 0.9084 0.9086
1800.000000 0.9088 0.9090 0.9093 0.9095 0.9096
1795.000000 0.9099 0.9101 0.9102 0.9104 0.9105
1790.000000 0.9100 0.9109 0.9108 0.9101 0.9094
1785.000000 0.9086 0.9078 0.9071 0.9063 0.9053
1780.000000 0.9042 0.9030 0.9017 0.9006 0.8994
1775.000000 0.8982 0.8970 0.8957 0.8940 0.8923
1770.000000 0.8905 0.8888 0.8871 0.8854 0.8837
1765.000000 0.8818 0.8802 0.8785 0.8773 0.8761
1760.000000 0.8749 0.8737 0.8724 0.8712 0.8700
1755.000000 0.8688 0.8677 0.8667 0.8660 0.8653
1750.000000 0.8645 0.8638 0.8631 0.8623 0.8616
1745.000000 0.8609 0.8603 0.8599 0.8597 0.8596
1740.000000 0.8594 0.8592 0.8590 0.8588 0.8586
1735.000000 0.8585 0.8583 0.8581 0.8580 0.8578
1730.000000 0.8575 0.8573 0.8570 0.8568 0.8565
1725.000000 0.8563 0.8560 0.8558 0.8555 0.8553
1720.000000 0.8550 0.8547 0.8545 0.8542 0.8539
1715.000000 0.8533 0.8525 0.8518 0.8511 0.8504
1710.000000 0.8498 0.8491 0.8484 0.8474 0.8461
1705.000000 0.8447 0.8431 0.8417 0.8402 0.8387
1700.000000 0.8371 0.8357 0.8342 0.8327 0.8309
1695.000000 0.8290 0.8271 0.8253 0.8235 0.8216
1690.000000 0.8197 0.8178 0.8160 0.8140 0.8118
1685.000000 0.8097 0.8074 0.8051 0.8028 0.8007
1680.000000 0.7984 0.7961 0.7940 0.7917 0.7878
1675.000000 0.7826 0.7771 0.7715 0.7660 0.7601
1670.000000 0.7544 0.7486 0.7426 0.7332 0.7199
1665.000000 0.7061 0.6934 0.6807 0.6687 0.6594
1660.000000 0.6505 0.6446 0.6388 0.6329 0.6258
1655.000000 0.6177 0.6100 0.6035 0.5942 0.5785
1650.000000 0.5631 0.5476 0.5321 0.5166 0.5010
1645.000000 0.4855 0.4700 0.4545 0.4388 0.4232
1640.000000 0.4076 0.3918 0.3762 0.3606 0.3449
1635.000000 0.3291 0.3134 0.2976 0.2898 0.2884
1630.000000 0.2881 0.2880 0.2879 0.2881 0.2882
1625.000000 0.2903 0.2973 0.3081 0.3190 0.3298
1620.000000 0.3406 0.3514 0.3623 0.3732 0.3841
1615.000000 0.3950 0.4058 0.4168 0.4278 0.4387
1610.000000 0.4497 0.4607 0.4717 0.4827 0.4937
1605.000000 0.5048 0.5158 0.5265 0.5310 0.5310
1600.000000 0.5309 0.5298 0.5267 0.5222 0.5178
1595.000000 0.5134 0.5089 0.5044 0.5010 0.5003
1590.000000 0.5026 0.5118 0.5270 0.5421 0.5573
1585.000000 0.5725 0.5878 0.6030 0.6183 0.6331
1580.000000 0.6442 0.6494 0.6547 0.6597 0.6637
1575.000000 0.6650 0.6651 0.6655 0.6654 0.6654
1570.000000 0.6649 0.6643 0.6638 0.6630 0.6618
1565.000000 0.6604 0.6589 0.6572 0.6558 0.6543
1560.000000 0.6505 0.6441 0.6346 0.6209 0.6103
1555.000000 0.6021 0.5926 0.5819 0.5679 0.5591
1550.000000 0.5402 0.5166 0.4927 0.4688 0.4449
1545.000000 0.4208 0.3968 0.3728 0.3487 0.3247
1540.000000 0.3005 0.2764 0.2522 0.2307 0.2187
1535.000000 0.2121 0.2071 0.2029 0.1990 0.1882
1530.000000 0.1752 0.1621 0.1489 0.1357 0.1225
1525.000000 0.1092 0.0960 0.0826 0.0752 0.0730
1520.000000 0.0715 0.0708 0.0702 0.0702 0.0703
1515.000000 0.0712 0.0723 0.0750 0.0779 0.0807
1510.000000 0.0852 0.0911 0.0984 0.1099 0.1224
1505.000000 0.1349 0.1474 0.1599 0.1725 0.1850
1500.000000 0.1976 0.2065 0.2080 0.2080 0.2080
1495.000000 0.2080 0.2080 0.2080 0.2083 0.2088
1490.000000 0.2102 0.2119 0.2138 0.2162 0.2193
1485.000000 0.2231 0.2299 0.2387 0.2475 0.2562
1480.000000 0.2650 0.2738 0.2826 0.2914 0.3003
1475.000000 0.3091 0.3179 0.3268 0.3345 0.3377
1470.000000 0.3384 0.3366 0.3397 0.3288 0.3156
1465.000000 0.3024 0.2892 0.2760 0.2628 0.2496
1460.000000 0.2362 0.2230 0.2097 0.1973 0.1954
1455.000000 0.1950 0.1986 0.1979 0.2083 0.2207
1450.000000 0.2331 0.2456 0.2581 0.2706 0.2831
1445.000000 0.2956 0.3081 0.3207 0.3296 0.3350
1440.000000 0.3403 0.3452 0.3491 0.3529 0.3562
1435.000000 0.3588 0.3612 0.3636 0.3655 0.3672
1430.000000 0.3689 0.3706 0.3730 0.3760 0.3791
1425.000000 0.3826 0.3872 0.3922 0.3976 0.4032
1420.000000 0.4112 0.4297 0.4519 0.4741 0.4962
1415.000000 0.5186 0.5407 0.5542 0.5537 0.5548
1410.000000 0.5547 0.5440 0.5289 0.5138 0.4986
1405.000000 0.4834 0.4682 0.4419 0.4399 0.4415
1400.000000 0.4580 0.4842 0.5104 0.5367 0.5630
1395.000000 0.5893 0.6157 0.6421 0.6686 0.6786
1390.000000 0.6793 0.6806 0.6807 0.6807 0.6715
1385.000000 0.6484 0.6236 0.5988 0.5740 0.5491
1380.000000 0.5242 0.4992 0.4742 0.4491 0.4240
1375.000000 0.4025 0.4028 0.4027 0.4144 0.4456
1370.000000 0.4769 0.5082 0.5395 0.5709 0.6023
1365.000000 0.6338 0.6653 0.6968 0.7221 0.7318
1360.000000 0.7389 0.7451 0.7506 0.7543 0.7565
1355.000000 0.7584 0.7598 0.7588 0.7608 0.7608
1350.000000 0.7608 0.7605 0.7601 0.7595 0.7576
1345.000000 0.7558 0.7541 0.7522 0.7506 0.7485
1340.000000 0.7451 0.7415 0.7381 0.7345 0.7307
1335.000000 0.7260 0.7211 0.7164 0.7115 0.7042
1330.000000 0.6938 0.6825 0.6674 0.6517 0.6130
1325.000000 0.5544 0.5427 0.5284 0.4955 0.4590
1320.000000 0.4225 0.3859 0.3494 0.3127 0.2760
1315.000000 0.2393 0.2024 0.1664 0.1654 0.1735
1310.000000 0.1648 0.1651 0.1668 0.1708 0.1841
1305.000000 0.1991 0.2140 0.2290 0.2440 0.2590
1300.000000 0.2740 0.2891 0.3042 0.3193 0.3345
1295.000000 0.3496 0.3648 0.3800 0.3952 0.4105
1290.000000 0.4257 0.4410 0.4564 0.4717 0.4871
1285.000000 0.5025 0.5179 0.5333 0.5487 0.5601
1280.000000 0.5630 0.5648 0.5658 0.5662 0.5672
1275.000000 0.5674 0.5674 0.5664 0.5650 0.5575
1270.000000 0.5364 0.5150 0.4935 0.4721 0.4506
1265.000000 0.4291 0.4075 0.3859 0.3643 0.3426
1260.000000 0.3209 0.2992 0.2774 0.2557 0.2338
1255.000000 0.2119 0.1900 0.1691 0.1600 0.1566
1250.000000 0.1554 0.1542 0.1532 0.1529 0.1536
1245.000000 0.1536 0.1537 0.1552 0.1566 0.1585
1240.000000 0.1617 0.1652 0.1692 0.1748 0.1806
1235.000000 0.1914 0.2024 0.2124 0.2352 0.2604
1230.000000 0.2926 0.3252 0.3579 0.3906 0.4233
1225.000000 0.4560 0.4891 0.5220 0.5546 0.5630
1220.000000 0.5685 0.5739 0.5791 0.5840 0.5886
1215.000000 0.5914 0.5943 0.5941 0.5946 0.5947
1210.000000 0.5947 0.5862 0.5756 0.5650 0.5542
1205.000000 0.5435 0.5328 0.5178 0.5189 0.5197
1200.000000 0.5220 0.5260 0.5318 0.5398 0.5512
1195.000000 0.5672 0.5985 0.6298 0.6536 0.6557
1190.000000 0.6574 0.6568 0.6531 0.6310 0.6066
1185.000000 0.5821 0.5576 0.5330 0.5084 0.4838
1180.000000 0.4592 0.4345 0.4097 0.3848 0.3600
1175.000000 0.3350 0.3194 0.3151 0.3180 0.3190
1170.000000 0.3212 0.3262 0.3368 0.3630 0.3923
1165.000000 0.4215 0.4508 0.4803 0.5097 0.5392
1160.000000 0.5687 0.5983 0.6238 0.6319 0.6336
1155.000000 0.6335 0.6335 0.6342 0.6317 0.6280
1150.000000 0.6231 0.6162 0.6090 0.6031 0.5977
1145.000000 0.5933 0.5898 0.5874 0.5860 0.5848
1140.000000 0.5851 0.5862 0.5885 0.5920 0.5960
1135.000000 0.5997 0.6023 0.6038 0.6046 0.6055
1130.000000 0.6069 0.6084 0.6112 0.6148 0.6184
1125.000000 0.6229 0.6277 0.6325 0.6365 0.6406
1120.000000 0.6446 0.6478 0.6511 0.6544 0.6561
1115.000000 0.6575 0.6590 0.6601 0.6610 0.6618
1110.000000 0.6628 0.6637 0.6658 0.6658 0.6657
1105.000000 0.6646 0.6635 0.6622 0.6599 0.6565
1100.000000 0.6530 0.6490 0.6448 0.6408 0.6374
1095.000000 0.6339 0.6287 0.6210 0.6081 0.6120
1090.000000 0.6107 0.6173 0.6309 0.6434 0.6587
1085.000000 0.6787 0.6922 0.7058 0.7196 0.7333
1080.000000 0.7471 0.7605 0.7728 0.7791 0.7843
1075.000000 0.7881 0.7908 0.7925 0.7944 0.7939
1070.000000 0.7936 0.7933 0.7921 0.7901 0.7881
1065.000000 0.7843 0.7801 0.7750 0.7689 0.7615
1060.000000 0.7533 0.7443 0.7355 0.7275 0.7194
1055.000000 0.7103 0.7008 0.6908 0.6676 0.6721
1050.000000 0.6721 0.6740 0.6778 0.6839 0.6926
1045.000000 0.7025 0.7122 0.7189 0.7251 0.7305
1040.000000 0.7346 0.7361 0.7369 0.7403 0.7374
1035.000000 0.7362 0.7343 0.7315 0.7278 0.7241
1030.000000 0.7192 0.7125 0.7057 0.6978 0.6898
1025.000000 0.6804 0.6671 0.6457 0.6060 0.6089
1020.000000 0.6096 0.6150 0.6386 0.6693 0.6997
1015.000000 0.7301 0.7606 0.7844 0.7924 0.7993
1010.000000 0.8036 0.8078 0.8107 0.8126 0.8147
1005.000000 0.8161 0.8169 0.8178 0.8189 0.8195
1000.000000 0.8198 0.8200 0.8202 0.8221 0.8207
995.000000 0.8205 0.8201 0.8198 0.8194 0.8191
990.000000 0.8187 0.8183 0.8178 0.8174 0.8168
985.000000 0.8162 0.8158 0.8154 0.8150 0.8145
980.000000 0.8138 0.8128 0.8119 0.8111 0.8101
975.000000 0.8092 0.8083 0.8069 0.8056 0.8044
970.000000 0.8031 0.8018 0.8005 0.7992 0.7978
965.000000 0.7962 0.7943 0.7921 0.7901 0.7881
960.000000 0.7858 0.7831 0.7801 0.7774 0.7743
955.000000 0.7706 0.7669 0.7634 0.7591 0.7545
950.000000 0.7498 0.7451 0.7399 0.7345 0.7291
945.000000 0.7232 0.7149 0.7065 0.6978 0.6881
940.000000 0.6784 0.6658 0.6517 0.6310 0.5994
935.000000 0.5493 0.5056 0.5003 0.4966 0.5008
930.000000 0.5062 0.5243 0.5469 0.5686 0.5866
925.000000 0.6017 0.6168 0.6298 0.6425 0.6504
920.000000 0.6562 0.6621 0.6667 0.6696 0.6725
915.000000 0.6740 0.6751 0.6764 0.6772 0.6780
910.000000 0.6786 0.6791 0.6858 0.6796 0.6796
905.000000 0.6796 0.6787 0.6776 0.6757 0.6731
900.000000 0.6705 0.6665 0.6590 0.6514 0.6435
895.000000 0.6354 0.6274 0.6196 0.6119 0.6042
890.000000 0.5951 0.5851 0.5750 0.5641 0.5528
885.000000 0.5415 0.5297 0.5178 0.5039 0.4862
880.000000 0.4725 0.4597 0.4268 0.3859 0.3497
875.000000 0.3427 0.3358 0.3284 0.3196 0.3135
870.000000 0.3113 0.3077 0.3122 0.3153 0.3234
865.000000 0.3464 0.3690 0.3993 0.4308 0.4571
860.000000 0.4836 0.5034 0.5220 0.5407 0.5573
855.000000 0.5703 0.5801 0.5860 0.5909 0.5972
850.000000 0.5948 0.5939 0.5928 0.5915 0.5881
845.000000 0.5844 0.5801 0.5740 0.5678 0.5618
840.000000 0.5554 0.5489 0.5424 0.5358 0.5284
835.000000 0.5187 0.5090 0.4992 0.4879 0.4760
830.000000 0.4641 0.4531 0.4421 0.4302 0.4172
825.000000 0.4041 0.3898 0.3749 0.3599 0.3434
820.000000 0.3266 0.3128 0.3002 0.2874 0.2735
815.000000 0.2589 0.2423 0.2267 0.2163 0.2098
810.000000 0.2064 0.2010 0.2042 0.2044 0.2058
805.000000 0.2099 0.2184 0.2369 0.2560 0.2750
800.000000 0.2964 0.3179 0.3453 0.3729 0.3950
795.000000 0.4170 0.4334 0.4457 0.4580 0.4704
790.000000 0.4798 0.4885 0.4973 0.5057 0.5126
785.000000 0.5196 0.5265 0.5321 0.5369 0.5418
780.000000 0.5464 0.5510 0.5545 0.5566 0.5581
775.000000 0.5636 0.5601 0.5602 0.5592 0.5567
770.000000 0.5508 0.5427 0.5336 0.5244 0.5150
765.000000 0.5056 0.4964 0.4874 0.4784 0.4693
760.000000 0.4605 0.4533 0.4460 0.4388 0.4315
755.000000 0.4250 0.4185 0.4138 0.4097 0.4066
750.000000 0.4049 0.4045 0.4040 0.4040 0.4044
745.000000 0.4047 0.4047 0.4047 0.4034 0.4002
740.000000 0.3962 0.3928 0.3894 0.3866 0.3841
735.000000 0.3816 0.3792 0.3776 0.3762 0.3748
730.000000 0.3732 0.3718 0.3704 0.3690 0.3684
725.000000 0.3680 0.3676 0.3673 0.3668 0.3666
720.000000 0.3662 0.3659 0.3657 0.3657 0.3657
715.000000 0.3657 0.3658 0.3658 0.3664 0.3671
710.000000 0.3679 0.3686 0.3699 0.3718 0.3746
705.000000 0.3780 0.3812 0.3838 0.3857 0.3864
700.000000 0.3866 0.3850 0.3802 0.3738 0.3674
695.000000 0.3616 0.3562 0.3516 0.3468 0.3434
690.000000 0.3368 0.3408 0.3410 0.3416 0.3426
685.000000 0.3437 0.3446 0.3457 0.3466 0.3478
680.000000 0.3488 0.3506 0.3527 0.3548 0.3572
675.000000 0.3602 0.3632 0.3658 0.3680 0.3698
670.000000 0.3712 0.3725 0.3742 0.3814 0.5032
665.000000 0.4499 0.3866 0.3873 0.3886 0.3900
660.000000 0.3921 0.3942 0.3962 0.3979 0.3996
655.000000 0.4012 0.4030 0.4047 0.4066 0.4082
650.000000 0.4101 0.4115 0.4128 0.4140 0.4153
645.000000 0.4166 0.4183 0.4200 0.4217 0.4233
640.000000 0.4253 0.4262 0.4259 0.4224 0.4198
635.000000 0.4160 0.4133 0.4112 0.4091 0.4078
630.000000 0.4076 0.4084 0.4112 0.4165 0.4235
##END=
