##TITLE=Triazole-4-carboxylic acid, 1,2,3-, 5-phenylacetamido-
##JCAMP-DX=4.24
##DATA TYPE=INFRARED SPECTRUM
##CLASS=COBLENTZ III
##ORIGIN=SOUTHERN RESEARCH INSTITUTE
##OWNER=Copyright (C) 1987 by the Coblentz Society
Collection (C) 2018 copyright by the U.S. Secretary of Commerce
on behalf of the United States of America. All rights reserved.
##DATE=1962/03/27
##NAMES=5-[(phenylacetyl)amino]-1H-1,2,3-triazole-4-carboxylic acid
##MOLFORM=C11 H10 N4 O3
##SOURCE REFERENCE=COBLENTZ NO. 8687
##$NIST ID=B6008687
##$NIST SOURCE=COBLENTZ
##$NIST IMAGE=cob8687
##SPECTROMETER/DATA SYSTEM=PERKIN-ELMER 221 (GRATING)
##INSTRUMENT PARAMETERS=FILTER AT 980 CM^-^1. GRATING 4000-1428 CM^-^1, NaCl PRISM 1428-650 CM^-^1
##STATE=SOLID (1 mg / 650 mg KBr DISC)
##SAMPLING PROCEDURE=TRANSMISSION
##RESOLUTION=2
##DATA PROCESSING=DIGITIZED BY COBLENTZ SOCIETY (BATCH II) FROM HARD COPY
##XUNITS=1/CM
##YUNITS=TRANSMITTANCE
##XFACTOR=1.0
##YFACTOR=1
##FIRSTX=631
##LASTX=4000
##FIRSTY=0.8148
##MAXX=4000
##MINX=631
##MAXY=0.8666
##MINY=0.1867
##NPOINTS=3370
##XYDATA=(X++(Y..Y))
631.000000 0.8148 0.8145 0.8142 0.8140 0.8137
636.000000 0.8134 0.8132 0.8130 0.8127 0.8124
641.000000 0.8121 0.8118 0.8115 0.8112 0.8109
646.000000 0.8106 0.8101 0.8096 0.8091 0.8086
651.000000 0.8081 0.8075 0.8068 0.8062 0.8052
656.000000 0.8040 0.8029 0.8015 0.7999 0.7973
661.000000 0.7946 0.7901 0.7824 0.7715 0.7559
666.000000 0.7403 0.7247 0.7091 0.7044 0.7051
671.000000 0.7060 0.7528 0.7788 0.7986 0.8001
676.000000 0.8008 0.8012 0.8012 0.8012 0.7989
681.000000 0.8004 0.7983 0.7949 0.7879 0.7731
686.000000 0.7416 0.7102 0.6787 0.6472 0.6157
691.000000 0.5842 0.5754 0.5751 0.6137 0.6452
696.000000 0.6767 0.7082 0.7397 0.7712 0.7998
701.000000 0.8011 0.8015 0.8019 0.8021 0.8022
706.000000 0.8012 0.8019 0.8013 0.8007 0.8001
711.000000 0.7987 0.7967 0.7938 0.7902 0.7863
716.000000 0.7818 0.7782 0.7752 0.7724 0.7696
721.000000 0.7651 0.7592 0.7522 0.7424 0.7239
726.000000 0.7205 0.7190 0.7177 0.7164 0.7150
731.000000 0.7120 0.6946 0.6792 0.6637 0.6482
736.000000 0.6328 0.6173 0.6018 0.5863 0.5818
741.000000 0.5833 0.6007 0.6128 0.6249 0.6369
746.000000 0.6490 0.6611 0.6732 0.6751 0.6753
751.000000 0.6755 0.6743 0.6748 0.6618 0.6483
756.000000 0.6348 0.6214 0.6079 0.5945 0.5810
761.000000 0.5678 0.5691 0.5715 0.5786 0.5668
766.000000 0.5912 0.6038 0.6277 0.6516 0.6755
771.000000 0.6994 0.7211 0.7204 0.7204 0.7184
776.000000 0.7173 0.7154 0.7058 0.6921 0.6784
781.000000 0.6647 0.6510 0.6373 0.6236 0.6100
786.000000 0.6045 0.6053 0.6078 0.6044 0.6590
791.000000 0.6846 0.7039 0.7047 0.7053 0.7055
796.000000 0.7057 0.7059 0.7061 0.7071 0.7082
801.000000 0.7150 0.7262 0.7320 0.7390 0.7450
806.000000 0.7505 0.7540 0.7566 0.7589 0.7600
811.000000 0.7610 0.7621 0.7623 0.7623 0.7608
816.000000 0.7521 0.7436 0.7351 0.7267 0.7182
821.000000 0.7097 0.7012 0.6928 0.6858 0.6852
826.000000 0.6849 0.6845 0.6859 0.6872 0.6958
831.000000 0.7248 0.7538 0.7829 0.8014 0.8038
836.000000 0.8045 0.8053 0.8058 0.8059 0.8061
841.000000 0.8062 0.8062 0.8062 0.8063 0.8077
846.000000 0.8099 0.8135 0.8183 0.8226 0.8264
851.000000 0.8298 0.8321 0.8332 0.8342 0.8353
856.000000 0.8359 0.8363 0.8367 0.8372 0.8371
861.000000 0.8369 0.8368 0.8367 0.8366 0.8354
866.000000 0.8358 0.8355 0.8351 0.8347 0.8343
871.000000 0.8340 0.8336 0.8332 0.8327 0.8318
876.000000 0.8309 0.8300 0.8291 0.8282 0.8269
881.000000 0.8253 0.8236 0.8220 0.8203 0.8187
886.000000 0.8169 0.8148 0.8126 0.8105 0.8084
891.000000 0.8062 0.8036 0.8008 0.7979 0.7950
896.000000 0.7922 0.7891 0.7854 0.7817 0.7780
901.000000 0.7724 0.7664 0.7604 0.7531 0.7450
906.000000 0.7378 0.7376 0.7374 0.7372 0.7375
911.000000 0.7381 0.7386 0.7392 0.7396 0.7400
916.000000 0.7405 0.7408 0.7408 0.7409 0.7409
921.000000 0.7404 0.7392 0.7382 0.7373 0.7362
926.000000 0.7346 0.7325 0.7300 0.7285 0.7271
931.000000 0.7259 0.7253 0.7264 0.7246 0.7247
936.000000 0.7249 0.7251 0.7253 0.7256 0.7269
941.000000 0.7282 0.7295 0.7313 0.7332 0.7350
946.000000 0.7369 0.7389 0.7411 0.7432 0.7453
951.000000 0.7470 0.7487 0.7504 0.7521 0.7538
956.000000 0.7553 0.7560 0.7566 0.7572 0.7578
961.000000 0.7535 0.7567 0.7558 0.7530 0.7481
966.000000 0.7422 0.7335 0.7188 0.6961 0.6707
971.000000 0.6470 0.6436 0.6436 0.6444 0.6406
976.000000 0.6485 0.6732 0.7273 0.7667 0.7670
981.000000 0.7670 0.7674 0.7517 0.7425 0.7332
986.000000 0.7264 0.7243 0.7219 0.7189 0.7155
991.000000 0.7121 0.7008 0.6867 0.6726 0.6585
996.000000 0.6444 0.6303 0.6229 0.6222 0.6395
1001.000000 0.6683 0.6970 0.7258 0.7545 0.7671
1006.000000 0.7733 0.7754 0.7776 0.7782 0.7788
1011.000000 0.7793 0.7798 0.7800 0.7799 0.7805
1016.000000 0.7792 0.7785 0.7778 0.7763 0.7746
1021.000000 0.7728 0.7701 0.7674 0.7608 0.7536
1026.000000 0.7489 0.7468 0.7462 0.7459 0.7460
1031.000000 0.7462 0.7463 0.7357 0.7241 0.7124
1036.000000 0.7007 0.6891 0.6774 0.6657 0.6541
1041.000000 0.6424 0.6307 0.6191 0.6074 0.5957
1046.000000 0.5841 0.5755 0.5755 0.5753 0.5721
1051.000000 0.5868 0.6000 0.6132 0.6265 0.6397
1056.000000 0.6529 0.6662 0.6785 0.6901 0.6973
1061.000000 0.7042 0.7121 0.7204 0.7746 0.7805
1066.000000 0.7833 0.7851 0.7868 0.7882 0.7890
1071.000000 0.7898 0.7906 0.7914 0.7936 0.7957
1076.000000 0.7997 0.8038 0.8048 0.8053 0.8058
1081.000000 0.8059 0.8055 0.8061 0.8047 0.8043
1086.000000 0.8038 0.8029 0.8019 0.8010 0.8000
1091.000000 0.7991 0.7980 0.7966 0.7952 0.7937
1096.000000 0.7923 0.7909 0.7893 0.7876 0.7859
1101.000000 0.7841 0.7822 0.7798 0.7775 0.7751
1106.000000 0.7727 0.7703 0.7677 0.7649 0.7621
1111.000000 0.7593 0.7565 0.7536 0.7490 0.7440
1116.000000 0.7390 0.7340 0.7259 0.7175 0.7105
1121.000000 0.7057 0.7009 0.6961 0.6921 0.6881
1126.000000 0.6851 0.6824 0.6799 0.6767 0.6588
1131.000000 0.6409 0.6230 0.6051 0.5872 0.5693
1136.000000 0.5514 0.5335 0.5156 0.4977 0.4821
1141.000000 0.4820 0.4809 0.5017 0.5322 0.5627
1146.000000 0.5932 0.6236 0.6541 0.6846 0.7147
1151.000000 0.7311 0.7394 0.7457 0.7500 0.7530
1156.000000 0.7543 0.7556 0.7567 0.7566 0.7565
1161.000000 0.7563 0.7562 0.7565 0.7554 0.7548
1166.000000 0.7542 0.7534 0.7526 0.7517 0.7504
1171.000000 0.7490 0.7477 0.7461 0.7443 0.7426
1176.000000 0.7407 0.7388 0.7369 0.7349 0.7330
1181.000000 0.7311 0.7289 0.7257 0.7225 0.7193
1186.000000 0.7161 0.7128 0.7090 0.7051 0.7013
1191.000000 0.6975 0.6881 0.6785 0.6689 0.6594
1196.000000 0.6498 0.6402 0.6307 0.6211 0.6115
1201.000000 0.6020 0.5924 0.5829 0.5733 0.5637
1206.000000 0.5542 0.5290 0.5134 0.5024 0.4924
1211.000000 0.4836 0.4747 0.4624 0.4452 0.4303
1216.000000 0.4154 0.3796 0.3559 0.3442 0.3328
1221.000000 0.3227 0.3132 0.3072 0.3054 0.3049
1226.000000 0.2979 0.3059 0.3080 0.3122 0.3387
1231.000000 0.3712 0.3829 0.3929 0.3993 0.4044
1236.000000 0.4095 0.4131 0.4159 0.4200 0.4360
1241.000000 0.4562 0.4751 0.4903 0.5038 0.5155
1246.000000 0.5253 0.5316 0.5346 0.5356 0.5365
1251.000000 0.5371 0.5373 0.5382 0.5378 0.5372
1256.000000 0.5363 0.5350 0.5332 0.5249 0.5062
1261.000000 0.4874 0.4687 0.4500 0.4312 0.4125
1266.000000 0.4069 0.4067 0.4067 0.4090 0.4074
1271.000000 0.4390 0.4754 0.5118 0.5482 0.5902
1276.000000 0.5960 0.5984 0.5995 0.5999 0.5986
1281.000000 0.5970 0.5944 0.5879 0.5676 0.5473
1286.000000 0.5270 0.5067 0.4864 0.4661 0.4458
1291.000000 0.4254 0.4051 0.3848 0.3645 0.3442
1296.000000 0.3239 0.3194 0.3164 0.3158 0.3157
1301.000000 0.3172 0.3196 0.3345 0.3514 0.3684
1306.000000 0.3853 0.4022 0.4191 0.4360 0.4529
1311.000000 0.4698 0.4867 0.5036 0.5205 0.5374
1316.000000 0.5543 0.5713 0.5882 0.6051 0.6118
1321.000000 0.6154 0.6182 0.6198 0.6199 0.6199
1326.000000 0.6198 0.6193 0.6187 0.6181 0.6175
1331.000000 0.6168 0.6173 0.6179 0.6186 0.6203
1336.000000 0.6221 0.6256 0.6321 0.6385 0.6436
1341.000000 0.6481 0.6505 0.6503 0.6510 0.6499
1346.000000 0.6493 0.6486 0.6478 0.6468 0.6459
1351.000000 0.6450 0.6441 0.6432 0.6424 0.6415
1356.000000 0.6408 0.6402 0.6396 0.6390 0.6384
1361.000000 0.6378 0.6372 0.6368 0.6363 0.6374
1366.000000 0.6384 0.6397 0.6414 0.6431 0.6458
1371.000000 0.6487 0.6504 0.6516 0.6528 0.6527
1376.000000 0.6524 0.6521 0.6517 0.6514 0.6508
1381.000000 0.6498 0.6489 0.6478 0.6449 0.6335
1386.000000 0.6220 0.6106 0.5991 0.5877 0.5762
1391.000000 0.5648 0.5533 0.5419 0.5304 0.5190
1396.000000 0.5075 0.4961 0.4846 0.4732 0.4617
1401.000000 0.4503 0.4388 0.4274 0.4166 0.4166
1406.000000 0.4159 0.4171 0.4192 0.4854 0.5538
1411.000000 0.6222 0.6907 0.7258 0.7274 0.7282
1416.000000 0.7289 0.7293 0.7298 0.7302 0.7306
1421.000000 0.7308 0.7310 0.7312 0.7314 0.7299
1426.000000 0.7310 0.7307 0.7305 0.7293 0.7279
1431.000000 0.7264 0.7242 0.7215 0.7187 0.7150
1436.000000 0.7092 0.7032 0.6971 0.6917 0.6866
1441.000000 0.6815 0.6753 0.6682 0.6611 0.6513
1446.000000 0.6405 0.6297 0.6189 0.6082 0.5974
1451.000000 0.5866 0.5560 0.5651 0.5543 0.5548
1456.000000 0.5559 0.5675 0.5823 0.5970 0.6118
1461.000000 0.6180 0.6193 0.6200 0.6204 0.6203
1466.000000 0.6202 0.6202 0.6201 0.6199 0.6198
1471.000000 0.6197 0.6196 0.6203 0.6187 0.6182
1476.000000 0.6177 0.6172 0.6167 0.6153 0.6138
1481.000000 0.6124 0.6103 0.6072 0.6038 0.6003
1486.000000 0.5967 0.5932 0.5895 0.5857 0.5819
1491.000000 0.5773 0.5719 0.5664 0.5544 0.5312
1496.000000 0.5080 0.4848 0.4616 0.4384 0.4152
1501.000000 0.3920 0.3768 0.3748 0.3748 0.3756
1506.000000 0.3767 0.3778 0.3788 0.3786 0.3775
1511.000000 0.3742 0.3645 0.3582 0.3532 0.3463
1516.000000 0.3383 0.3354 0.3344 0.3336 0.3525
1521.000000 0.3811 0.4097 0.4382 0.4668 0.4954
1526.000000 0.5240 0.5526 0.5812 0.6098 0.6354
1531.000000 0.6540 0.6723 0.6809 0.6894 0.6957
1536.000000 0.7016 0.7055 0.7078 0.7092 0.7094
1541.000000 0.7095 0.7092 0.7088 0.7104 0.7076
1546.000000 0.7060 0.7044 0.7028 0.7012 0.6996
1551.000000 0.6980 0.6953 0.6925 0.6896 0.6866
1556.000000 0.6836 0.6805 0.6766 0.6727 0.6691
1561.000000 0.6638 0.6586 0.6535 0.6484 0.6433
1566.000000 0.6365 0.6295 0.6224 0.6143 0.6062
1571.000000 0.5981 0.5909 0.5837 0.5764 0.5692
1576.000000 0.5620 0.5547 0.5475 0.5336 0.5195
1581.000000 0.5051 0.4901 0.4752 0.4650 0.4554
1586.000000 0.4457 0.4363 0.4270 0.4176 0.4037
1591.000000 0.3875 0.3713 0.3550 0.3388 0.3226
1596.000000 0.3064 0.2901 0.2739 0.2577 0.2431
1601.000000 0.2362 0.2349 0.2357 0.2360 0.2375
1606.000000 0.2417 0.2538 0.2659 0.2779 0.2900
1611.000000 0.3021 0.3141 0.3262 0.3382 0.3503
1616.000000 0.3624 0.3744 0.3865 0.3986 0.4087
1621.000000 0.4178 0.4339 0.4476 0.4579 0.4649
1626.000000 0.4718 0.4786 0.4854 0.4922 0.5003
1631.000000 0.5182 0.5551 0.5832 0.6048 0.6132
1636.000000 0.6204 0.6239 0.6275 0.6297 0.6312
1641.000000 0.6316 0.6318 0.6315 0.6316 0.6313
1646.000000 0.6303 0.6292 0.6274 0.6253 0.6223
1651.000000 0.6158 0.6092 0.6023 0.5954 0.5867
1656.000000 0.5749 0.5659 0.5586 0.5512 0.5421
1661.000000 0.5324 0.5228 0.5132 0.5037 0.4941
1666.000000 0.4843 0.4746 0.4413 0.4076 0.3738
1671.000000 0.3400 0.3063 0.2496 0.2375 0.2253
1676.000000 0.2131 0.2016 0.1951 0.1879 0.1867
1681.000000 0.1875 0.1916 0.2072 0.2227 0.2383
1686.000000 0.2539 0.2694 0.2850 0.3005 0.3161
1691.000000 0.3316 0.3472 0.3628 0.3713 0.3706
1696.000000 0.3704 0.3701 0.3696 0.3682 0.3500
1701.000000 0.3267 0.3033 0.2799 0.2565 0.2332
1706.000000 0.2098 0.1893 0.1891 0.1893 0.1931
1711.000000 0.1926 0.2256 0.2419 0.2582 0.2744
1716.000000 0.2907 0.3070 0.3233 0.3395 0.3558
1721.000000 0.3711 0.3873 0.4066 0.4330 0.4537
1726.000000 0.4700 0.4877 0.5080 0.5159 0.5238
1731.000000 0.5321 0.5408 0.5495 0.5582 0.5672
1736.000000 0.5763 0.6056 0.6206 0.6253 0.6301
1741.000000 0.6349 0.6396 0.6444 0.6498 0.6554
1746.000000 0.6610 0.6665 0.6721 0.6778 0.6839
1751.000000 0.6901 0.6962 0.7023 0.7085 0.7146
1756.000000 0.7207 0.7268 0.7329 0.7395 0.7460
1761.000000 0.7526 0.7582 0.7635 0.7688 0.7731
1766.000000 0.7770 0.7810 0.7849 0.7888 0.7924
1771.000000 0.7946 0.7969 0.7991 0.8013 0.8030
1776.000000 0.8043 0.8056 0.8069 0.8082 0.8096
1781.000000 0.8110 0.8124 0.8137 0.8145 0.8152
1786.000000 0.8159 0.8167 0.8173 0.8178 0.8183
1791.000000 0.8188 0.8194 0.8199 0.8205 0.8212
1796.000000 0.8219 0.8226 0.8234 0.8240 0.8243
1801.000000 0.8246 0.8249 0.8251 0.8258 0.8268
1806.000000 0.8277 0.8286 0.8296 0.8305 0.8315
1811.000000 0.8327 0.8340 0.8352 0.8365 0.8373
1816.000000 0.8381 0.8389 0.8397 0.8405 0.8413
1821.000000 0.8426 0.8438 0.8450 0.8462 0.8473
1826.000000 0.8481 0.8489 0.8498 0.8506 0.8514
1831.000000 0.8523 0.8531 0.8539 0.8545 0.8551
1836.000000 0.8557 0.8562 0.8568 0.8572 0.8572
1841.000000 0.8573 0.8573 0.8574 0.8574 0.8575
1846.000000 0.8575 0.8576 0.8576 0.8577 0.8577
1851.000000 0.8578 0.8578 0.8579 0.8579 0.8580
1856.000000 0.8581 0.8581 0.8582 0.8582 0.8583
1861.000000 0.8583 0.8584 0.8585 0.8585 0.8586
1866.000000 0.8586 0.8587 0.8587 0.8588 0.8588
1871.000000 0.8589 0.8590 0.8590 0.8591 0.8591
1876.000000 0.8592 0.8592 0.8593 0.8594 0.8594
1881.000000 0.8595 0.8595 0.8596 0.8596 0.8597
1886.000000 0.8597 0.8598 0.8598 0.8599 0.8599
1891.000000 0.8600 0.8600 0.8600 0.8601 0.8601
1896.000000 0.8602 0.8602 0.8603 0.8603 0.8604
1901.000000 0.8604 0.8605 0.8605 0.8606 0.8606
1906.000000 0.8606 0.8607 0.8607 0.8608 0.8608
1911.000000 0.8609 0.8609 0.8610 0.8610 0.8610
1916.000000 0.8611 0.8611 0.8612 0.8612 0.8613
1921.000000 0.8613 0.8614 0.8614 0.8614 0.8615
1926.000000 0.8614 0.8614 0.8613 0.8613 0.8612
1931.000000 0.8612 0.8611 0.8611 0.8610 0.8610
1936.000000 0.8609 0.8609 0.8608 0.8608 0.8607
1941.000000 0.8607 0.8607 0.8606 0.8606 0.8605
1946.000000 0.8605 0.8604 0.8604 0.8603 0.8603
1951.000000 0.8603 0.8603 0.8600 0.8603 0.8603
1956.000000 0.8603 0.8603 0.8603 0.8604 0.8604
1961.000000 0.8604 0.8604 0.8604 0.8604 0.8604
1966.000000 0.8604 0.8604 0.8604 0.8606 0.8610
1971.000000 0.8613 0.8617 0.8621 0.8624 0.8628
1976.000000 0.8631 0.8635 0.8638 0.8642 0.8645
1981.000000 0.8652 0.8658 0.8658 0.8659 0.8660
1986.000000 0.8660 0.8661 0.8662 0.8662 0.8663
1991.000000 0.8664 0.8664 0.8664 0.8664 0.8664
1996.000000 0.8664 0.8665 0.8665 0.8665 0.8665
2001.000000 0.8665 0.8665 0.8665 0.8665 0.8665
2006.000000 0.8665 0.8665 0.8665 0.8665 0.8666
2011.000000 0.8665 0.8665 0.8664 0.8664 0.8664
2016.000000 0.8663 0.8663 0.8662 0.8662 0.8662
2021.000000 0.8661 0.8661 0.8660 0.8660 0.8660
2026.000000 0.8659 0.8659 0.8659 0.8658 0.8658
2031.000000 0.8657 0.8657 0.8656 0.8655 0.8654
2036.000000 0.8653 0.8652 0.8651 0.8650 0.8649
2041.000000 0.8648 0.8647 0.8646 0.8645 0.8644
2046.000000 0.8643 0.8642 0.8641 0.8640 0.8639
2051.000000 0.8638 0.8637 0.8636 0.8635 0.8634
2056.000000 0.8633 0.8632 0.8631 0.8630 0.8630
2061.000000 0.8629 0.8628 0.8627 0.8627 0.8626
2066.000000 0.8625 0.8624 0.8624 0.8623 0.8622
2071.000000 0.8621 0.8621 0.8620 0.8619 0.8619
2076.000000 0.8618 0.8617 0.8616 0.8616 0.8615
2081.000000 0.8614 0.8613 0.8613 0.8612 0.8611
2086.000000 0.8610 0.8610 0.8609 0.8608 0.8608
2091.000000 0.8607 0.8606 0.8605 0.8605 0.8604
2096.000000 0.8603 0.8602 0.8602 0.8601 0.8600
2101.000000 0.8599 0.8599 0.8598 0.8597 0.8596
2106.000000 0.8596 0.8595 0.8594 0.8593 0.8593
2111.000000 0.8592 0.8591 0.8590 0.8590 0.8589
2116.000000 0.8588 0.8587 0.8587 0.8586 0.8586
2121.000000 0.8586 0.8586 0.8585 0.8585 0.8585
2126.000000 0.8585 0.8585 0.8585 0.8585 0.8585
2131.000000 0.8586 0.8589 0.8592 0.8594 0.8597
2136.000000 0.8600 0.8603 0.8605 0.8608 0.8611
2141.000000 0.8614 0.8616 0.8619 0.8622 0.8624
2146.000000 0.8626 0.8627 0.8629 0.8630 0.8632
2151.000000 0.8633 0.8635 0.8636 0.8637 0.8636
2156.000000 0.8635 0.8634 0.8633 0.8633 0.8632
2161.000000 0.8631 0.8630 0.8629 0.8628 0.8626
2166.000000 0.8625 0.8623 0.8622 0.8620 0.8618
2171.000000 0.8617 0.8615 0.8614 0.8612 0.8610
2176.000000 0.8609 0.8607 0.8606 0.8604 0.8603
2181.000000 0.8601 0.8599 0.8598 0.8596 0.8595
2186.000000 0.8593 0.8592 0.8592 0.8591 0.8590
2191.000000 0.8590 0.8589 0.8588 0.8588 0.8587
2196.000000 0.8586 0.8586 0.8585 0.8584 0.8584
2201.000000 0.8583 0.8582 0.8582 0.8581 0.8580
2206.000000 0.8580 0.8579 0.8578 0.8578 0.8577
2211.000000 0.8576 0.8576 0.8575 0.8574 0.8574
2216.000000 0.8573 0.8572 0.8572 0.8570 0.8568
2221.000000 0.8567 0.8565 0.8563 0.8562 0.8560
2226.000000 0.8558 0.8557 0.8555 0.8553 0.8552
2231.000000 0.8550 0.8548 0.8547 0.8544 0.8540
2236.000000 0.8535 0.8531 0.8527 0.8523 0.8519
2241.000000 0.8514 0.8512 0.8511 0.8509 0.8506
2246.000000 0.8503 0.8500 0.8497 0.8494 0.8491
2251.000000 0.8488 0.8485 0.8482 0.8479 0.8476
2256.000000 0.8473 0.8470 0.8467 0.8464 0.8461
2261.000000 0.8458 0.8455 0.8452 0.8449 0.8446
2266.000000 0.8443 0.8440 0.8437 0.8434 0.8430
2271.000000 0.8427 0.8423 0.8419 0.8415 0.8411
2276.000000 0.8407 0.8403 0.8399 0.8395 0.8392
2281.000000 0.8388 0.8384 0.8380 0.8376 0.8372
2286.000000 0.8368 0.8364 0.8360 0.8357 0.8353
2291.000000 0.8349 0.8345 0.8341 0.8337 0.8333
2296.000000 0.8329 0.8325 0.8322 0.8318 0.8314
2301.000000 0.8310 0.8305 0.8301 0.8297 0.8293
2306.000000 0.8288 0.8284 0.8280 0.8276 0.8271
2311.000000 0.8267 0.8263 0.8259 0.8254 0.8250
2316.000000 0.8246 0.8241 0.8237 0.8233 0.8229
2321.000000 0.8224 0.8220 0.8216 0.8212 0.8207
2326.000000 0.8203 0.8199 0.8195 0.8190 0.8186
2331.000000 0.8182 0.8178 0.8174 0.8170 0.8166
2336.000000 0.8162 0.8159 0.8155 0.8151 0.8147
2341.000000 0.8144 0.8140 0.8136 0.8132 0.8128
2346.000000 0.8125 0.8121 0.8117 0.8113 0.8110
2351.000000 0.8106 0.8102 0.8098 0.8095 0.8091
2356.000000 0.8087 0.8083 0.8080 0.8076 0.8072
2361.000000 0.8068 0.8065 0.8061 0.8057 0.8053
2366.000000 0.8049 0.8046 0.8042 0.8038 0.8034
2371.000000 0.8031 0.8027 0.8023 0.8019 0.8015
2376.000000 0.8012 0.8008 0.8004 0.8000 0.7997
2381.000000 0.7993 0.7989 0.7985 0.7981 0.7978
2386.000000 0.7974 0.7970 0.7966 0.7963 0.7959
2391.000000 0.7955 0.7951 0.7946 0.7940 0.7934
2396.000000 0.7928 0.7922 0.7916 0.7910 0.7904
2401.000000 0.7898 0.7892 0.7886 0.7880 0.7874
2406.000000 0.7868 0.7862 0.7856 0.7850 0.7844
2411.000000 0.7838 0.7832 0.7826 0.7820 0.7814
2416.000000 0.7808 0.7802 0.7796 0.7792 0.7787
2421.000000 0.7782 0.7777 0.7772 0.7767 0.7763
2426.000000 0.7758 0.7753 0.7748 0.7743 0.7738
2431.000000 0.7734 0.7729 0.7724 0.7719 0.7714
2436.000000 0.7709 0.7705 0.7700 0.7695 0.7690
2441.000000 0.7685 0.7680 0.7676 0.7671 0.7666
2446.000000 0.7661 0.7656 0.7651 0.7646 0.7641
2451.000000 0.7636 0.7631 0.7626 0.7621 0.7616
2456.000000 0.7610 0.7602 0.7593 0.7584 0.7576
2461.000000 0.7567 0.7557 0.7548 0.7539 0.7530
2466.000000 0.7521 0.7512 0.7503 0.7494 0.7481
2471.000000 0.7469 0.7457 0.7445 0.7436 0.7427
2476.000000 0.7418 0.7409 0.7401 0.7392 0.7383
2481.000000 0.7374 0.7365 0.7357 0.7348 0.7339
2486.000000 0.7330 0.7321 0.7312 0.7303 0.7294
2491.000000 0.7285 0.7274 0.7263 0.7253 0.7247
2496.000000 0.7241 0.7235 0.7229 0.7224 0.7219
2501.000000 0.7214 0.7209 0.7204 0.7199 0.7194
2506.000000 0.7189 0.7182 0.7176 0.7170 0.7163
2511.000000 0.7157 0.7151 0.7145 0.7139 0.7133
2516.000000 0.7128 0.7122 0.7116 0.7110 0.7106
2521.000000 0.7103 0.7100 0.7098 0.7098 0.7098
2526.000000 0.7098 0.7099 0.7099 0.7099 0.7099
2531.000000 0.7099 0.7098 0.7098 0.7097 0.7096
2536.000000 0.7096 0.7095 0.7094 0.7094 0.7094
2541.000000 0.7093 0.7093 0.7093 0.7093 0.7092
2546.000000 0.7090 0.7088 0.7086 0.7084 0.7082
2551.000000 0.7080 0.7078 0.7076 0.7075 0.7073
2556.000000 0.7072 0.7071 0.7070 0.7069 0.7069
2561.000000 0.7068 0.7067 0.7066 0.7066 0.7065
2566.000000 0.7064 0.7063 0.7062 0.7062 0.7061
2571.000000 0.7060 0.7059 0.7058 0.7057 0.7057
2576.000000 0.7056 0.7055 0.7054 0.7053 0.7053
2581.000000 0.7052 0.7051 0.7050 0.7049 0.7048
2586.000000 0.7047 0.7046 0.7045 0.7044 0.7043
2591.000000 0.7043 0.7042 0.7041 0.7040 0.7060
2596.000000 0.7038 0.7037 0.7036 0.7035 0.7035
2601.000000 0.7036 0.7036 0.7037 0.7037 0.7038
2606.000000 0.7039 0.7039 0.7040 0.7040 0.7041
2611.000000 0.7041 0.7042 0.7042 0.7043 0.7043
2616.000000 0.7044 0.7045 0.7045 0.7046 0.7047
2621.000000 0.7048 0.7049 0.7049 0.7050 0.7051
2626.000000 0.7052 0.7053 0.7053 0.7054 0.7055
2631.000000 0.7056 0.7057 0.7057 0.7058 0.7059
2636.000000 0.7060 0.7061 0.7061 0.7062 0.7063
2641.000000 0.7064 0.7064 0.7065 0.7066 0.7067
2646.000000 0.7067 0.7067 0.7067 0.7068 0.7068
2651.000000 0.7068 0.7068 0.7068 0.7068 0.7068
2656.000000 0.7069 0.7069 0.7069 0.7069 0.7069
2661.000000 0.7069 0.7069 0.7069 0.7070 0.7070
2666.000000 0.7070 0.7070 0.7070 0.7070 0.7070
2671.000000 0.7070 0.7070 0.7070 0.7070 0.7070
2676.000000 0.7070 0.7070 0.7070 0.7070 0.7069
2681.000000 0.7069 0.7069 0.7069 0.7069 0.7069
2686.000000 0.7069 0.7069 0.7069 0.7069 0.7068
2691.000000 0.7067 0.7066 0.7064 0.7063 0.7061
2696.000000 0.7060 0.7058 0.7057 0.7055 0.7054
2701.000000 0.7052 0.7051 0.7049 0.7047 0.7046
2706.000000 0.7044 0.7043 0.7042 0.7041 0.7041
2711.000000 0.7040 0.7039 0.7039 0.7038 0.7037
2716.000000 0.7036 0.7036 0.7035 0.7034 0.7034
2721.000000 0.7033 0.7032 0.7031 0.7027 0.7023
2726.000000 0.7019 0.7015 0.7011 0.7005 0.6999
2731.000000 0.6993 0.6987 0.6981 0.6975 0.6969
2736.000000 0.6963 0.6956 0.6950 0.6944 0.6938
2741.000000 0.6932 0.6926 0.6920 0.6914 0.6908
2746.000000 0.6902 0.6896 0.6891 0.6887 0.6882
2751.000000 0.6877 0.6873 0.6868 0.6863 0.6859
2756.000000 0.6854 0.6849 0.6845 0.6840 0.6835
2761.000000 0.6831 0.6826 0.6821 0.6817 0.6812
2766.000000 0.6808 0.6803 0.6799 0.6794 0.6790
2771.000000 0.6785 0.6781 0.6776 0.6771 0.6766
2776.000000 0.6762 0.6757 0.6752 0.6747 0.6742
2781.000000 0.6737 0.6732 0.6727 0.6722 0.6717
2786.000000 0.6712 0.6707 0.6702 0.6698 0.6693
2791.000000 0.6688 0.6683 0.6678 0.6673 0.6669
2796.000000 0.6664 0.6659 0.6654 0.6649 0.6645
2801.000000 0.6640 0.6635 0.6631 0.6627 0.6623
2806.000000 0.6619 0.6615 0.6610 0.6606 0.6602
2811.000000 0.6598 0.6594 0.6590 0.6586 0.6582
2816.000000 0.6578 0.6574 0.6569 0.6562 0.6555
2821.000000 0.6548 0.6541 0.6535 0.6528 0.6521
2826.000000 0.6508 0.6494 0.6480 0.6465 0.6451
2831.000000 0.6437 0.6423 0.6409 0.6395 0.6380
2836.000000 0.6367 0.6355 0.6343 0.6331 0.6318
2841.000000 0.6302 0.6286 0.6275 0.6274 0.6272
2846.000000 0.6270 0.6268 0.6267 0.6265 0.6263
2851.000000 0.6264 0.6266 0.6267 0.6269 0.6270
2856.000000 0.6272 0.6272 0.6272 0.6272 0.6272
2861.000000 0.6271 0.6271 0.6271 0.6271 0.6270
2866.000000 0.6269 0.6268 0.6267 0.6266 0.6265
2871.000000 0.6264 0.6263 0.6262 0.6261 0.6259
2876.000000 0.6257 0.6256 0.6254 0.6252 0.6250
2881.000000 0.6249 0.6247 0.6245 0.6244 0.6242
2886.000000 0.6238 0.6234 0.6231 0.6227 0.6224
2891.000000 0.6220 0.6216 0.6213 0.6209 0.6206
2896.000000 0.6203 0.6200 0.6197 0.6194 0.6191
2901.000000 0.6188 0.6186 0.6184 0.6182 0.6180
2906.000000 0.6178 0.6176 0.6174 0.6172 0.6170
2911.000000 0.6168 0.6166 0.6164 0.6162 0.6159
2916.000000 0.6157 0.6155 0.6153 0.6151 0.6149
2921.000000 0.6148 0.6148 0.6147 0.6146 0.6146
2926.000000 0.6145 0.6144 0.6144 0.6143 0.6143
2931.000000 0.6142 0.6141 0.6141 0.6140 0.6139
2936.000000 0.6139 0.6138 0.6137 0.6136 0.6135
2941.000000 0.6134 0.6133 0.6132 0.6131 0.6130
2946.000000 0.6129 0.6128 0.6127 0.6127 0.6126
2951.000000 0.6125 0.6124 0.6125 0.6126 0.6128
2956.000000 0.6132 0.6137 0.6142 0.6148 0.6153
2961.000000 0.6159 0.6164 0.6170 0.6176 0.6181
2966.000000 0.6184 0.6186 0.6189 0.6192 0.6194
2971.000000 0.6197 0.6199 0.6202 0.6202 0.6201
2976.000000 0.6201 0.6201 0.6200 0.6199 0.6198
2981.000000 0.6196 0.6194 0.6192 0.6190 0.6189
2986.000000 0.6187 0.6185 0.6183 0.6179 0.6175
2991.000000 0.6171 0.6167 0.6164 0.6160 0.6156
2996.000000 0.6152 0.6148 0.6144 0.6140 0.6136
3001.000000 0.6132 0.6129 0.6125 0.6122 0.6118
3006.000000 0.6115 0.6112 0.6108 0.6105 0.6101
3011.000000 0.6099 0.6097 0.6095 0.6093 0.6090
3016.000000 0.6088 0.6086 0.6084 0.6082 0.6079
3021.000000 0.6077 0.6075 0.6073 0.6071 0.6070
3026.000000 0.6069 0.6068 0.6067 0.6066 0.6066
3031.000000 0.6065 0.6064 0.6063 0.6062 0.6061
3036.000000 0.6060 0.6059 0.6058 0.6057 0.6057
3041.000000 0.6057 0.6057 0.6057 0.6057 0.6057
3046.000000 0.6057 0.6057 0.6057 0.6058 0.6058
3051.000000 0.6058 0.6058 0.6058 0.6058 0.6058
3056.000000 0.6058 0.6058 0.6058 0.6059 0.6061
3061.000000 0.6064 0.6066 0.6068 0.6070 0.6072
3066.000000 0.6074 0.6076 0.6079 0.6081 0.6083
3071.000000 0.6085 0.6087 0.6089 0.6092 0.6096
3076.000000 0.6099 0.6102 0.6103 0.6104 0.6105
3081.000000 0.6106 0.6108 0.6109 0.6110 0.6111
3086.000000 0.6111 0.6110 0.6109 0.6109 0.6108
3091.000000 0.6107 0.6106 0.6105 0.6105 0.6104
3096.000000 0.6103 0.6102 0.6101 0.6101 0.6099
3101.000000 0.6098 0.6096 0.6094 0.6092 0.6091
3106.000000 0.6089 0.6087 0.6086 0.6084 0.6082
3111.000000 0.6080 0.6079 0.6077 0.6075 0.6074
3116.000000 0.6072 0.6070 0.6068 0.6067 0.6065
3121.000000 0.6064 0.6062 0.6060 0.6059 0.6057
3126.000000 0.6055 0.6054 0.6052 0.6050 0.6049
3131.000000 0.6047 0.6045 0.6044 0.6042 0.6041
3136.000000 0.6039 0.6037 0.6036 0.6035 0.6035
3141.000000 0.6034 0.6034 0.6034 0.6034 0.6034
3146.000000 0.6033 0.6033 0.6033 0.6033 0.6033
3151.000000 0.6032 0.6032 0.6032 0.6031 0.6026
3156.000000 0.6020 0.6014 0.6009 0.6003 0.5996
3161.000000 0.5984 0.5972 0.5960 0.5948 0.5936
3166.000000 0.5924 0.5913 0.5901 0.5889 0.5877
3171.000000 0.5865 0.5853 0.5842 0.5830 0.5819
3176.000000 0.5807 0.5796 0.5783 0.5768 0.5752
3181.000000 0.5737 0.5721 0.5702 0.5682 0.5662
3186.000000 0.5642 0.5622 0.5602 0.5582 0.5562
3191.000000 0.5542 0.5521 0.5501 0.5481 0.5460
3196.000000 0.5440 0.5420 0.5393 0.5360 0.5328
3201.000000 0.5296 0.5248 0.5197 0.5148 0.5101
3206.000000 0.5054 0.4988 0.4938 0.4922 0.4922
3211.000000 0.4922 0.4921 0.4920 0.4916 0.4910
3216.000000 0.4905 0.4894 0.4872 0.4849 0.4827
3221.000000 0.4801 0.4763 0.4733 0.4704 0.4674
3226.000000 0.4644 0.4612 0.4580 0.4547 0.4512
3231.000000 0.4477 0.4443 0.4408 0.4375 0.4346
3236.000000 0.4318 0.4294 0.4271 0.4249 0.4226
3241.000000 0.4204 0.4190 0.4176 0.4162 0.4148
3246.000000 0.4134 0.4128 0.4123 0.4119 0.4116
3251.000000 0.4114 0.4099 0.4111 0.4113 0.4115
3256.000000 0.4122 0.4128 0.4134 0.4140 0.4149
3261.000000 0.4159 0.4172 0.4187 0.4206 0.4224
3266.000000 0.4243 0.4263 0.4285 0.4317 0.4349
3271.000000 0.4381 0.4414 0.4447 0.4485 0.4525
3276.000000 0.4568 0.4617 0.4676 0.4764 0.4819
3281.000000 0.4869 0.4917 0.4946 0.4968 0.4986
3286.000000 0.5004 0.5022 0.5040 0.5058 0.5076
3291.000000 0.5095 0.5116 0.5138 0.5159 0.5181
3296.000000 0.5207 0.5236 0.5264 0.5292 0.5317
3301.000000 0.5342 0.5367 0.5392 0.5417 0.5444
3306.000000 0.5471 0.5499 0.5526 0.5553 0.5581
3311.000000 0.5609 0.5636 0.5664 0.5692 0.5718
3316.000000 0.5739 0.5761 0.5782 0.5804 0.5825
3321.000000 0.5840 0.5854 0.5869 0.5883 0.5894
3326.000000 0.5902 0.5910 0.5919 0.5927 0.5935
3331.000000 0.5943 0.5948 0.5952 0.5956 0.5960
3336.000000 0.5963 0.5965 0.5965 0.5966 0.5966
3341.000000 0.5966 0.5967 0.5967 0.5966 0.5964
3346.000000 0.5961 0.5959 0.5957 0.5954 0.5947
3351.000000 0.5938 0.5928 0.5919 0.5909 0.5892
3356.000000 0.5871 0.5846 0.5806 0.5761 0.5709
3361.000000 0.5624 0.5524 0.5427 0.5351 0.5275
3366.000000 0.5203 0.5132 0.5065 0.5008 0.4951
3371.000000 0.4907 0.4882 0.4870 0.4864 0.4862
3376.000000 0.4862 0.4863 0.4855 0.4875 0.4886
3381.000000 0.4908 0.4953 0.5175 0.5245 0.5306
3386.000000 0.5353 0.5400 0.5448 0.5513 0.5577
3391.000000 0.5639 0.5678 0.5717 0.5757 0.5796
3396.000000 0.5824 0.5853 0.5881 0.5899 0.5901
3401.000000 0.5902 0.5903 0.5905 0.5906 0.5907
3406.000000 0.5914 0.5933 0.5953 0.5972 0.5992
3411.000000 0.6012 0.6033 0.6041 0.6050 0.6059
3416.000000 0.6073 0.6086 0.6100 0.6113 0.6126
3421.000000 0.6140 0.6153 0.6164 0.6176 0.6187
3426.000000 0.6198 0.6205 0.6212 0.6218 0.6225
3431.000000 0.6232 0.6241 0.6249 0.6258 0.6266
3436.000000 0.6275 0.6283 0.6290 0.6297 0.6305
3441.000000 0.6312 0.6319 0.6327 0.6336 0.6344
3446.000000 0.6352 0.6361 0.6369 0.6378 0.6385
3451.000000 0.6390 0.6396 0.6401 0.6407 0.6413
3456.000000 0.6418 0.6424 0.6429 0.6435 0.6441
3461.000000 0.6450 0.6458 0.6466 0.6475 0.6483
3466.000000 0.6492 0.6500 0.6508 0.6517 0.6525
3471.000000 0.6535 0.6544 0.6554 0.6564 0.6573
3476.000000 0.6583 0.6593 0.6602 0.6612 0.6622
3481.000000 0.6631 0.6641 0.6650 0.6658 0.6666
3486.000000 0.6675 0.6683 0.6692 0.6700 0.6709
3491.000000 0.6717 0.6725 0.6733 0.6741 0.6749
3496.000000 0.6756 0.6764 0.6772 0.6780 0.6788
3501.000000 0.6797 0.6806 0.6814 0.6823 0.6832
3506.000000 0.6841 0.6853 0.6865 0.6878 0.6890
3511.000000 0.6902 0.6915 0.6927 0.6945 0.6963
3516.000000 0.6981 0.6999 0.7016 0.7037 0.7060
3521.000000 0.7083 0.7111 0.7140 0.7169 0.7198
3526.000000 0.7215 0.7231 0.7236 0.7236 0.7236
3531.000000 0.7237 0.7238 0.7240 0.7241 0.7245
3536.000000 0.7252 0.7259 0.7267 0.7277 0.7287
3541.000000 0.7297 0.7307 0.7317 0.7327 0.7336
3546.000000 0.7345 0.7353 0.7362 0.7371 0.7380
3551.000000 0.7389 0.7398 0.7407 0.7417 0.7427
3556.000000 0.7437 0.7447 0.7458 0.7468 0.7478
3561.000000 0.7488 0.7499 0.7511 0.7523 0.7535
3566.000000 0.7547 0.7559 0.7571 0.7584 0.7598
3571.000000 0.7615 0.7632 0.7649 0.7665 0.7679
3576.000000 0.7692 0.7704 0.7713 0.7721 0.7730
3581.000000 0.7738 0.7747 0.7755 0.7763 0.7772
3586.000000 0.7781 0.7791 0.7802 0.7813 0.7825
3591.000000 0.7837 0.7850 0.7863 0.7877 0.7890
3596.000000 0.7903 0.7912 0.7922 0.7932 0.7942
3601.000000 0.7952 0.7968 0.7983 0.7998 0.8013
3606.000000 0.8031 0.8049 0.8067 0.8085 0.8101
3611.000000 0.8117 0.8133 0.8149 0.8163 0.8177
3616.000000 0.8191 0.8205 0.8219 0.8233 0.8245
3621.000000 0.8256 0.8268 0.8280 0.8291 0.8303
3626.000000 0.8314 0.8326 0.8335 0.8341 0.8347
3631.000000 0.8353 0.8359 0.8364 0.8366 0.8368
3636.000000 0.8370 0.8372 0.8374 0.8376 0.8378
3641.000000 0.8380 0.8382 0.8382 0.8383 0.8384
3646.000000 0.8385 0.8386 0.8386 0.8387 0.8387
3651.000000 0.8387 0.8387 0.8387 0.8387 0.8387
3656.000000 0.8387 0.8387 0.8387 0.8387 0.8388
3661.000000 0.8388 0.8388 0.8388 0.8388 0.8389
3666.000000 0.8391 0.8393 0.8395 0.8397 0.8399
3671.000000 0.8401 0.8402 0.8404 0.8407 0.8411
3676.000000 0.8415 0.8420 0.8424 0.8428 0.8432
3681.000000 0.8436 0.8442 0.8448 0.8455 0.8462
3686.000000 0.8469 0.8475 0.8482 0.8490 0.8498
3691.000000 0.8507 0.8516 0.8522 0.8522 0.8522
3696.000000 0.8522 0.8523 0.8523 0.8523 0.8523
3701.000000 0.8523 0.8523 0.8523 0.8522 0.8522
3706.000000 0.8522 0.8522 0.8522 0.8522 0.8523
3711.000000 0.8523 0.8523 0.8524 0.8524 0.8524
3716.000000 0.8524 0.8525 0.8525 0.8525 0.8525
3721.000000 0.8524 0.8524 0.8523 0.8523 0.8522
3726.000000 0.8521 0.8521 0.8520 0.8519 0.8519
3731.000000 0.8518 0.8517 0.8517 0.8516 0.8516
3736.000000 0.8515 0.8514 0.8513 0.8512 0.8512
3741.000000 0.8511 0.8510 0.8509 0.8508 0.8507
3746.000000 0.8506 0.8506 0.8505 0.8504 0.8503
3751.000000 0.8502 0.8501 0.8500 0.8500 0.8499
3756.000000 0.8498 0.8497 0.8496 0.8495 0.8494
3761.000000 0.8493 0.8493 0.8492 0.8491 0.8490
3766.000000 0.8489 0.8488 0.8488 0.8487 0.8486
3771.000000 0.8485 0.8484 0.8484 0.8483 0.8482
3776.000000 0.8481 0.8480 0.8479 0.8479 0.8478
3781.000000 0.8477 0.8476 0.8475 0.8475 0.8474
3786.000000 0.8473 0.8472 0.8471 0.8470 0.8470
3791.000000 0.8469 0.8468 0.8467 0.8466 0.8466
3796.000000 0.8467 0.8467 0.8467 0.8467 0.8467
3801.000000 0.8467 0.8467 0.8468 0.8468 0.8468
3806.000000 0.8468 0.8468 0.8468 0.8469 0.8469
3811.000000 0.8469 0.8469 0.8469 0.8469 0.8469
3816.000000 0.8470 0.8470 0.8470 0.8470 0.8470
3821.000000 0.8470 0.8471 0.8471 0.8471 0.8470
3826.000000 0.8469 0.8469 0.8468 0.8467 0.8466
3831.000000 0.8465 0.8464 0.8464 0.8463 0.8462
3836.000000 0.8461 0.8460 0.8478 0.8459 0.8458
3841.000000 0.8457 0.8456 0.8455 0.8454 0.8454
3846.000000 0.8453 0.8452 0.8451 0.8451 0.8451
3851.000000 0.8451 0.8452 0.8452 0.8452 0.8452
3856.000000 0.8452 0.8452 0.8452 0.8453 0.8453
3861.000000 0.8453 0.8453 0.8453 0.8453 0.8454
3866.000000 0.8454 0.8454 0.8454 0.8454 0.8454
3871.000000 0.8455 0.8455 0.8455 0.8455 0.8455
3876.000000 0.8455 0.8455 0.8456 0.8456 0.8457
3881.000000 0.8458 0.8459 0.8460 0.8461 0.8462
3886.000000 0.8463 0.8463 0.8464 0.8465 0.8466
3891.000000 0.8467 0.8468 0.8469 0.8470 0.8471
3896.000000 0.8472 0.8473 0.8474 0.8475 0.8476
3901.000000 0.8477 0.8477 0.8477 0.8476 0.8476
3906.000000 0.8475 0.8475 0.8474 0.8474 0.8474
3911.000000 0.8473 0.8473 0.8472 0.8472 0.8471
3916.000000 0.8471 0.8470 0.8470 0.8469 0.8469
3921.000000 0.8468 0.8468 0.8466 0.8464 0.8462
3926.000000 0.8460 0.8458 0.8456 0.8454 0.8452
3931.000000 0.8450 0.8448 0.8446 0.8444 0.8442
3936.000000 0.8440 0.8438 0.8436 0.8434 0.8434
3941.000000 0.8433 0.8433 0.8433 0.8432 0.8432
3946.000000 0.8431 0.8431 0.8430 0.8430 0.8430
3951.000000 0.8429 0.8429 0.8428 0.8428 0.8428
3956.000000 0.8428 0.8427 0.8427 0.8427 0.8427
3961.000000 0.8427 0.8427 0.8427 0.8427 0.8427
3966.000000 0.8427 0.8427 0.8428 0.8428 0.8429
3971.000000 0.8429 0.8430 0.8431 0.8431 0.8432
3976.000000 0.8433 0.8433 0.8434 0.8435 0.8435
3981.000000 0.8436 0.8437 0.8437 0.8438 0.8439
3986.000000 0.8439 0.8440 0.8440 0.8441 0.8442
3991.000000 0.8442 0.8443 0.8444 0.8444 0.8445
3996.000000 0.8446 0.8446 0.8447 0.8448 0.8448
##END=
