##TITLE=1,1'-DIBENZYL FERROCENE
##JCAMP-DX=4.24
##DATA TYPE=INFRARED SPECTRUM
##CLASS=COBLENTZ
##ORIGIN=WYANDOTTE CHEMICALS CORP., WYANDOTTE, MICHIGAN, USA
##OWNER=COBLENTZ SOCIETY
Collection (C) 2018 copyright by the U.S. Secretary of Commerce
on behalf of the United States of America. All rights reserved.
##DATE=Not specified, most likely prior to 1970
##MOLFORM=C24 H22 Fe
##MP=102-103 C
##SOURCE REFERENCE=COBLENTZ NO. 3031
##$NIST ID=B6003031
##$NIST SOURCE=COBLENTZ
##$NIST IMAGE=cob3031
##SPECTROMETER/DATA SYSTEM=Not specified, most likely a prism, grating, or hybrid spectrometer.
##STATE=SOLID (MINERAL OIL MULL)
##PATH LENGTH=
$$SPECTRAL CONTAMINATION DUE TO OIL AROUND 2900 CM^-^1
##SAMPLING PROCEDURE=TRANSMISSION
##RESOLUTION=4
##DATA PROCESSING=DIGITIZED BY NIST FROM HARD COPY
##XUNITS=MICROMETERS
##YUNITS=TRANSMITTANCE
##XFACTOR=1.000000
##YFACTOR=1
##DELTAX=000.006809
##FIRSTX=2.014
##LASTX=15.9866
##FIRSTY=0.265
##MAXX=15.9866
##MINX=2.014
##MAXY=0.869
##MINY=0.034
##NPOINTS=2053
##XYDATA=(X++(Y..Y))
2.014000 0.2650 0.2680 0.2720 0.2730 0.2750
2.048063 0.2750 0.2770 0.2790 0.2800 0.2840
2.082000 0.2850 0.2840 0.2840 0.2820 0.2800
2.116063 0.2820 0.2870 0.2820 0.2820 0.2820
2.150000 0.2820 0.2820 0.2820 0.2850 0.2850
2.184063 0.2890 0.2910 0.2960 0.2960 0.2910
2.218000 0.2910 0.2910 0.2910 0.2920 0.2970
2.252063 0.2990 0.2970 0.2990 0.2990 0.3010
2.286000 0.2990 0.3010 0.3010 0.3040 0.3040
2.320063 0.3060 0.3080 0.3080 0.3040 0.3030
2.354000 0.3010 0.3030 0.3060 0.3110 0.3150
2.388063 0.3160 0.3150 0.3180 0.3210 0.3200
2.422000 0.3180 0.3150 0.3130 0.3130 0.3160
2.456063 0.3210 0.3230 0.3250 0.3230 0.3230
2.490000 0.3230 0.3200 0.3200 0.3210 0.3250
2.524063 0.3280 0.3270 0.3280 0.3300 0.3300
2.558000 0.3320 0.3320 0.3330 0.3330 0.3350
2.592063 0.3370 0.3390 0.3400 0.3400 0.3420
2.626000 0.3470 0.3510 0.3520 0.3540 0.3520
2.660063 0.3540 0.3590 0.3590 0.3590 0.3570
2.695000 0.3590 0.3590 0.3590 0.3590 0.3590
2.729063 0.3610 0.3640 0.3660 0.3680 0.3680
2.763000 0.3690 0.3690 0.3680 0.3660 0.3640
2.797063 0.3640 0.3660 0.3660 0.3680 0.3710
2.831000 0.3730 0.3730 0.3730 0.3750 0.3750
2.865063 0.3730 0.3710 0.3710 0.3710 0.3690
2.899000 0.3710 0.3710 0.3710 0.3730 0.3710
2.933063 0.3690 0.3680 0.3690 0.3710 0.3730
2.967000 0.3760 0.3800 0.3800 0.3810 0.3810
3.001063 0.3830 0.3830 0.3850 0.3850 0.3860
3.035000 0.3860 0.3880 0.3900 0.3920 0.3930
3.069063 0.3930 0.3950 0.3970 0.3970 0.3970
3.103000 0.3970 0.3970 0.3970 0.3950 0.3930
3.137063 0.3920 0.3920 0.3920 0.3920 0.3920
3.171000 0.3900 0.3900 0.3900 0.3880 0.3880
3.205063 0.3860 0.3860 0.3850 0.3780 0.3610
3.239000 0.3350 0.3090 0.2920 0.2870 0.2870
3.273063 0.2910 0.2940 0.2990 0.2920 0.2790
3.307000 0.2680 0.2610 0.2600 0.2550 0.2500
3.341063 0.2380 0.2030 0.1810 0.1470 0.1140
3.375000 0.0920 0.0770 0.0680 0.0630 0.0540
3.409063 0.0410 0.0340 0.0340 0.0390 0.0420
3.444000 0.0530 0.0630 0.0710 0.0820 0.0990
3.478063 0.1140 0.1190 0.1190 0.1190 0.1210
3.512000 0.1250 0.1420 0.1710 0.2260 0.2850
3.546063 0.3570 0.4040 0.4450 0.4790 0.4890
3.580000 0.4960 0.4980 0.5000 0.5000 0.5010
3.614063 0.5010 0.5030 0.5030 0.5060 0.5080
3.648000 0.5110 0.5150 0.5180 0.5180 0.5150
3.682063 0.5130 0.5110 0.5100 0.5100 0.5100
3.716000 0.5100 0.5080 0.5100 0.5110 0.5150
3.750063 0.5180 0.5220 0.5270 0.5320 0.5340
3.784000 0.5340 0.5350 0.5350 0.5340 0.5300
3.818063 0.5320 0.5350 0.5370 0.5390 0.5390
3.852000 0.5410 0.5410 0.5410 0.5410 0.5420
3.886063 0.5440 0.5510 0.5530 0.5540 0.5540
3.920000 0.5540 0.5530 0.5530 0.5540 0.5590
3.954063 0.5630 0.5660 0.5650 0.5660 0.5660
3.988000 0.5660 0.5680 0.5680 0.5710 0.5700
4.022063 0.5710 0.5710 0.5710 0.5710 0.5710
4.056000 0.5730 0.5730 0.5730 0.5730 0.5730
4.090063 0.5730 0.5750 0.5770 0.5800 0.5800
4.125000 0.5800 0.5800 0.5800 0.5800 0.5770
4.159063 0.5770 0.5800 0.5820 0.5820 0.5800
4.193000 0.5800 0.5820 0.5820 0.5830 0.5850
4.227063 0.5870 0.5920 0.5890 0.5850 0.5820
4.261000 0.5780 0.5780 0.5770 0.5780 0.5800
4.295063 0.5830 0.5890 0.5920 0.5920 0.5890
4.329000 0.5900 0.5900 0.5900 0.5920 0.5920
4.363063 0.5920 0.5970 0.5990 0.6010 0.6020
4.397000 0.6020 0.6040 0.6040 0.6070 0.6070
4.431063 0.6070 0.6110 0.6140 0.6140 0.6130
4.465000 0.6090 0.6090 0.6090 0.6110 0.6110
4.499063 0.6110 0.6110 0.6130 0.6130 0.6130
4.533000 0.6140 0.6140 0.6160 0.6180 0.6190
4.567063 0.6210 0.6230 0.6230 0.6230 0.6250
4.601000 0.6280 0.6310 0.6330 0.6330 0.6300
4.635063 0.6300 0.6300 0.6310 0.6310 0.6330
4.669000 0.6310 0.6330 0.6330 0.6330 0.6360
4.703063 0.6400 0.6420 0.6430 0.6450 0.6480
4.737000 0.6500 0.6540 0.6540 0.6550 0.6550
4.771063 0.6550 0.6570 0.6570 0.6590 0.6590
4.805000 0.6600 0.6620 0.6640 0.6660 0.6660
4.839063 0.6640 0.6640 0.6620 0.6640 0.6620
4.874000 0.6620 0.6620 0.6600 0.6600 0.6600
4.908063 0.6620 0.6640 0.6660 0.6670 0.6660
4.942000 0.6660 0.6660 0.6690 0.6710 0.6720
4.976063 0.6740 0.6740 0.6740 0.6740 0.6740
5.010000 0.6740 0.6780 0.6790 0.6810 0.6840
5.044063 0.6860 0.6860 0.6880 0.6900 0.6880
5.078000 0.6880 0.6880 0.6880 0.6860 0.6810
5.112063 0.6760 0.6740 0.6690 0.6640 0.6640
5.146000 0.6690 0.6690 0.6670 0.6670 0.6660
5.180063 0.6570 0.6540 0.6570 0.6590 0.6660
5.214000 0.6720 0.6790 0.6810 0.6830 0.6900
5.248063 0.6930 0.6930 0.6950 0.7020 0.7020
5.282000 0.6960 0.6960 0.6950 0.6910 0.6900
5.316063 0.6880 0.6880 0.6880 0.6880 0.6900
5.350000 0.6930 0.6930 0.6910 0.6860 0.6830
5.384063 0.6790 0.6810 0.6840 0.6950 0.7030
5.418000 0.7030 0.7030 0.7020 0.6980 0.6980
5.452063 0.7020 0.7050 0.7120 0.7120 0.7150
5.486000 0.7150 0.7080 0.7050 0.7030 0.7030
5.520063 0.7020 0.6980 0.6980 0.7000 0.7000
5.554000 0.6980 0.6980 0.6960 0.6950 0.6930
5.588063 0.6900 0.6880 0.6880 0.6910 0.6980
5.623000 0.7030 0.7050 0.7020 0.6950 0.6930
5.657063 0.6910 0.6910 0.6910 0.6910 0.6910
5.691000 0.6900 0.6900 0.6900 0.6880 0.6840
5.725063 0.6810 0.6810 0.6780 0.6760 0.6740
5.759000 0.6760 0.6790 0.6840 0.6860 0.6900
5.793063 0.6930 0.6950 0.6960 0.6980 0.7000
5.827000 0.7000 0.6980 0.6980 0.6950 0.6930
5.861063 0.6910 0.6860 0.6860 0.6910 0.6930
5.895000 0.6950 0.6960 0.6950 0.6910 0.6840
5.929063 0.6790 0.6760 0.6740 0.6720 0.6710
5.963000 0.6720 0.6740 0.6780 0.6810 0.6830
5.997063 0.6840 0.6860 0.6880 0.6860 0.6880
6.031000 0.6900 0.6910 0.6930 0.6950 0.6960
6.065063 0.7020 0.7020 0.7020 0.7020 0.6930
6.099000 0.6930 0.6950 0.7030 0.7080 0.7150
6.133063 0.7260 0.7340 0.7390 0.7440 0.7510
6.167000 0.7530 0.7550 0.7550 0.7550 0.7030
6.201063 0.6230 0.5820 0.5150 0.5130 0.5150
6.235000 0.5630 0.6160 0.6500 0.6710 0.6760
6.269063 0.6740 0.6640 0.6480 0.6450 0.6450
6.304000 0.6520 0.6910 0.7120 0.7240 0.7290
6.338063 0.7320 0.7320 0.7320 0.7310 0.7260
6.372000 0.7290 0.7310 0.7360 0.7390 0.7390
6.406063 0.7410 0.7430 0.7430 0.7440 0.7430
6.440000 0.7440 0.7440 0.7460 0.7510 0.7560
6.474063 0.7650 0.7720 0.7770 0.7790 0.7790
6.508000 0.7770 0.7770 0.7750 0.7770 0.7770
6.542063 0.7790 0.7790 0.7840 0.7920 0.8030
6.576000 0.8060 0.8040 0.8030 0.8060 0.8150
6.610063 0.8180 0.8230 0.8230 0.8130 0.7630
6.644000 0.6960 0.6190 0.5340 0.3780 0.3010
6.678063 0.2610 0.2610 0.2910 0.4090 0.4810
6.712000 0.5000 0.5180 0.5320 0.5350 0.5370
6.746063 0.5350 0.5270 0.5110 0.4550 0.4120
6.780000 0.3830 0.3510 0.2990 0.2890 0.2890
6.814063 0.3030 0.3030 0.3030 0.3010 0.2850
6.848000 0.2600 0.2000 0.1900 0.1900 0.1930
6.882063 0.2360 0.2870 0.3390 0.3970 0.4340
6.916000 0.4410 0.4480 0.4640 0.4840 0.5030
6.950063 0.5410 0.5830 0.6180 0.6420 0.6430
6.984000 0.6420 0.6260 0.6230 0.6010 0.5940
7.018063 0.6010 0.6350 0.6480 0.6620 0.6740
7.053000 0.6840 0.6930 0.7000 0.7050 0.7120
7.087063 0.7170 0.7190 0.7200 0.7200 0.7200
7.121000 0.7200 0.7170 0.7080 0.6980 0.6830
7.155063 0.6670 0.6540 0.6430 0.6310 0.6190
7.189000 0.6070 0.6060 0.6040 0.5950 0.5870
7.223063 0.5770 0.5660 0.5580 0.5510 0.5440
7.257000 0.5350 0.5270 0.5290 0.5390 0.5610
7.291063 0.5830 0.5890 0.5950 0.5990 0.6010
7.325000 0.5900 0.5920 0.6230 0.6480 0.6900
7.359063 0.7240 0.7340 0.7390 0.7390 0.7410
7.393000 0.7410 0.7430 0.7440 0.7440 0.7460
7.427063 0.7500 0.7510 0.7530 0.7510 0.7530
7.461000 0.7530 0.7530 0.7550 0.7550 0.7550
7.495063 0.7560 0.7560 0.7550 0.7500 0.7430
7.529000 0.7390 0.7380 0.7390 0.7380 0.7320
7.563063 0.7310 0.7320 0.7340 0.7380 0.7430
7.597000 0.7480 0.7510 0.7530 0.7530 0.7550
7.631063 0.7560 0.7550 0.7580 0.7600 0.7610
7.665000 0.7610 0.7630 0.7630 0.7630 0.7630
7.699063 0.7600 0.7550 0.7480 0.7390 0.7360
7.733000 0.7340 0.7320 0.7270 0.7220 0.7190
7.767063 0.7080 0.7000 0.6980 0.6910 0.6880
7.802000 0.6830 0.6810 0.6830 0.6980 0.7200
7.836063 0.7360 0.7430 0.7480 0.7530 0.7560
7.870000 0.7610 0.7610 0.7580 0.7530 0.7510
7.904063 0.7430 0.7360 0.7270 0.7260 0.7270
7.938000 0.7380 0.7430 0.7500 0.7530 0.7600
7.972063 0.7670 0.7700 0.7720 0.7750 0.7750
8.006000 0.7750 0.7750 0.7730 0.7730 0.7680
8.040063 0.7580 0.7480 0.7380 0.7290 0.7270
8.074000 0.7270 0.7390 0.7580 0.7680 0.7770
8.108063 0.7820 0.7850 0.7910 0.7910 0.7820
8.142000 0.7610 0.7340 0.7030 0.6740 0.6620
8.176063 0.6520 0.6500 0.6520 0.7020 0.7260
8.210000 0.7380 0.7460 0.7510 0.7550 0.7610
8.244063 0.7680 0.7790 0.7890 0.7920 0.8030
8.278000 0.8030 0.8030 0.8030 0.8030 0.8030
8.312063 0.8030 0.8030 0.7960 0.7910 0.7840
8.346000 0.7730 0.7700 0.7720 0.7800 0.7850
8.380063 0.7910 0.7920 0.7940 0.7970 0.8010
8.414000 0.8030 0.8060 0.8110 0.8110 0.8110
8.448063 0.8110 0.8090 0.8010 0.7940 0.7920
8.482000 0.7910 0.7910 0.7910 0.7920 0.7960
8.516063 0.8010 0.8060 0.8110 0.8130 0.8150
8.551000 0.8160 0.8150 0.8160 0.8180 0.8210
8.585063 0.8250 0.8270 0.8250 0.8250 0.8270
8.619000 0.8270 0.8200 0.8130 0.8080 0.8060
8.653063 0.8040 0.8040 0.8040 0.8040 0.8090
8.687000 0.8150 0.8230 0.8280 0.8280 0.8280
8.721063 0.8280 0.8280 0.8270 0.8180 0.8060
8.755000 0.7940 0.7610 0.7510 0.7530 0.7550
8.789063 0.7650 0.7840 0.7940 0.8210 0.8210
8.823000 0.8230 0.8230 0.8210 0.8180 0.8090
8.857063 0.8010 0.7870 0.7730 0.7720 0.7750
8.891000 0.7840 0.7920 0.8030 0.8060 0.8130
8.925063 0.8270 0.8320 0.8330 0.8320 0.8330
8.959000 0.8330 0.8350 0.8370 0.8390 0.8350
8.993063 0.8320 0.8250 0.8210 0.8200 0.8150
9.027000 0.8150 0.8150 0.8160 0.8200 0.8210
9.061063 0.8230 0.8230 0.8230 0.8230 0.8250
9.095000 0.8270 0.8270 0.8250 0.8230 0.8230
9.129063 0.8230 0.8210 0.8210 0.8200 0.8180
9.163000 0.8160 0.8180 0.8210 0.8250 0.8270
9.197063 0.8280 0.8280 0.8280 0.8270 0.8250
9.232000 0.8180 0.8080 0.8030 0.7960 0.7770
9.266063 0.7610 0.7480 0.7310 0.7050 0.6810
9.300000 0.6570 0.6230 0.6010 0.5780 0.5610
9.334063 0.5590 0.5580 0.5590 0.5780 0.5970
9.368000 0.6230 0.6600 0.6840 0.7050 0.7410
9.402063 0.7610 0.7730 0.7790 0.7870 0.7990
9.436000 0.8030 0.8040 0.8060 0.8110 0.8130
9.470063 0.8130 0.8130 0.8090 0.7920 0.7650
9.504000 0.7290 0.6860 0.6500 0.6140 0.6020
9.538063 0.6020 0.6160 0.6710 0.7050 0.7290
9.572000 0.7510 0.7530 0.7550 0.7550 0.7120
9.606063 0.6190 0.5730 0.5300 0.4020 0.3490
9.640000 0.2960 0.2940 0.3030 0.3880 0.4550
9.674063 0.4810 0.5050 0.5410 0.5530 0.5530
9.708000 0.5510 0.5180 0.4670 0.4520 0.4400
9.742063 0.4290 0.4170 0.4040 0.3830 0.3520
9.776000 0.3230 0.2790 0.2550 0.2550 0.2610
9.810063 0.3490 0.4280 0.5000 0.5320 0.5650
9.844000 0.6190 0.6660 0.7030 0.7310 0.7480
9.878063 0.7600 0.7720 0.7790 0.7850 0.7920
9.912000 0.7940 0.7960 0.7960 0.7960 0.7960
9.946063 0.7960 0.7940 0.7790 0.7600 0.7320
9.981000 0.7240 0.7240 0.7430 0.7530 0.7630
10.015063 0.7680 0.7790 0.7970 0.8040 0.8110
10.049000 0.8200 0.8210 0.8230 0.8270 0.8320
10.083063 0.8350 0.8370 0.8370 0.8390 0.8390
10.117000 0.8400 0.8390 0.8390 0.8370 0.8370
10.151063 0.8350 0.8330 0.8320 0.8230 0.8090
10.185000 0.8010 0.7850 0.7630 0.7600 0.7600
10.219063 0.7680 0.7840 0.7920 0.7990 0.8060
10.253000 0.8160 0.8300 0.8330 0.8350 0.8330
10.287063 0.8300 0.8280 0.8270 0.8280 0.8300
10.321000 0.8320 0.8370 0.8400 0.8400 0.8390
10.355063 0.8370 0.8350 0.8330 0.8330 0.8330
10.389000 0.8350 0.8390 0.8390 0.8370 0.8370
10.423063 0.8370 0.8370 0.8370 0.8330 0.8320
10.457000 0.8320 0.8330 0.8390 0.8450 0.8440
10.491063 0.8470 0.8470 0.8520 0.8520 0.8520
10.525000 0.8520 0.8450 0.8400 0.8390 0.8390
10.559063 0.8390 0.8390 0.8400 0.8440 0.8490
10.593000 0.8520 0.8540 0.8520 0.8540 0.8540
10.627063 0.8560 0.8630 0.8630 0.8590 0.8590
10.661000 0.8570 0.8540 0.8510 0.8470 0.8450
10.695063 0.8420 0.8390 0.8330 0.8320 0.8300
10.730000 0.8250 0.8160 0.8080 0.7960 0.7840
10.764063 0.7670 0.7500 0.7290 0.7100 0.7030
10.798000 0.7030 0.7030 0.7100 0.7120 0.7190
10.832063 0.7170 0.7070 0.6950 0.6760 0.6520
10.866000 0.6250 0.5940 0.5680 0.5660 0.5680
10.900063 0.5800 0.5970 0.6180 0.6470 0.6830
10.934000 0.7150 0.7410 0.7500 0.7600 0.7720
10.968063 0.7820 0.7910 0.7920 0.7960 0.7960
11.002000 0.7940 0.7920 0.7910 0.7850 0.7840
11.036063 0.7840 0.7820 0.7800 0.7800 0.7840
11.070000 0.7920 0.7990 0.8080 0.8130 0.8280
11.104063 0.8350 0.8370 0.8390 0.8400 0.8390
11.138000 0.8400 0.8400 0.8440 0.8440 0.8450
11.172063 0.8470 0.8510 0.8520 0.8540 0.8570
11.206000 0.8590 0.8590 0.8590 0.8570 0.8560
11.240063 0.8560 0.8560 0.8560 0.8560 0.8570
11.274000 0.8570 0.8570 0.8560 0.8560 0.8560
11.308063 0.8540 0.8540 0.8520 0.8520 0.8510
11.342000 0.8440 0.8390 0.8330 0.8320 0.8300
11.376063 0.8300 0.8300 0.8300 0.8330 0.8490
11.411000 0.8520 0.8520 0.8520 0.8520 0.8540
11.445063 0.8520 0.8490 0.8420 0.8330 0.8230
11.479000 0.8080 0.7970 0.7800 0.7630 0.7460
11.513063 0.7320 0.7190 0.7080 0.7030 0.7080
11.547000 0.7100 0.7190 0.7240 0.7340 0.7500
11.581063 0.7580 0.7610 0.7750 0.7940 0.8060
11.615000 0.8150 0.8210 0.8230 0.8250 0.8270
11.649063 0.8280 0.8320 0.8350 0.8400 0.8450
11.683000 0.8510 0.8520 0.8540 0.8570 0.8610
11.717063 0.8630 0.8640 0.8660 0.8630 0.8660
11.751000 0.8660 0.8660 0.8660 0.8660 0.8680
11.785063 0.8690 0.8680 0.8660 0.8660 0.8660
11.819000 0.8660 0.8630 0.8660 0.8630 0.8610
11.853063 0.8560 0.8490 0.8400 0.8300 0.8160
11.887000 0.8030 0.7970 0.7850 0.7730 0.7670
11.921063 0.7670 0.7790 0.7920 0.8030 0.8080
11.955000 0.8160 0.8230 0.8320 0.8370 0.8370
11.989063 0.8400 0.8440 0.8440 0.8420 0.8330
12.023000 0.8230 0.8110 0.7970 0.7790 0.7530
12.057063 0.7220 0.6840 0.6360 0.5870 0.5370
12.091000 0.4330 0.3640 0.3080 0.2670 0.2360
12.125063 0.2200 0.2170 0.2190 0.2240 0.2270
12.160000 0.2290 0.2310 0.2310 0.2360 0.2480
12.194063 0.2580 0.2680 0.3130 0.3440 0.3680
12.228000 0.3830 0.3980 0.4140 0.4380 0.4460
12.262063 0.4520 0.4550 0.4580 0.4620 0.4650
12.296000 0.4690 0.4740 0.4770 0.4810 0.4810
12.330063 0.4820 0.4840 0.4860 0.4890 0.4930
12.364000 0.4940 0.4980 0.5010 0.5010 0.5050
12.398063 0.5060 0.5150 0.5180 0.5290 0.5440
12.432000 0.5590 0.5750 0.5830 0.5970 0.6040
12.466063 0.6140 0.6250 0.6310 0.6400 0.6480
12.500000 0.6600 0.6740 0.6830 0.6880 0.6910
12.534063 0.6980 0.7030 0.7100 0.7140 0.7140
12.568000 0.7150 0.7150 0.7190 0.7220 0.7310
12.602063 0.7380 0.7440 0.7510 0.7560 0.7650
12.636000 0.7730 0.7790 0.7800 0.7800 0.7820
12.670063 0.7840 0.7870 0.7920 0.7970 0.8010
12.704000 0.8030 0.8040 0.8060 0.8130 0.8150
12.738063 0.8130 0.8130 0.8090 0.8090 0.8110
12.772000 0.8150 0.8160 0.8180 0.8180 0.8180
12.806063 0.8180 0.8180 0.8180 0.8150 0.8130
12.840000 0.8110 0.8080 0.8040 0.8040 0.8010
12.874063 0.7970 0.7910 0.7850 0.7750 0.7650
12.909000 0.7510 0.7320 0.7080 0.6880 0.6620
12.943063 0.6360 0.6110 0.5970 0.5850 0.5730
12.977000 0.5710 0.5710 0.5730 0.5990 0.6230
13.011063 0.6450 0.6670 0.6910 0.7120 0.7320
13.045000 0.7500 0.7580 0.7670 0.7770 0.7850
13.079063 0.7910 0.7940 0.7990 0.8010 0.8030
13.113000 0.8030 0.8040 0.8060 0.8040 0.8030
13.147063 0.8010 0.8030 0.8040 0.8060 0.8060
13.181000 0.8040 0.8030 0.8030 0.8010 0.7990
13.215063 0.7970 0.7910 0.7850 0.7820 0.7790
13.249000 0.7730 0.7600 0.7530 0.7440 0.7310
13.283063 0.7220 0.7150 0.7030 0.6900 0.6740
13.317000 0.6600 0.6470 0.6350 0.6250 0.6160
13.351063 0.6070 0.6020 0.5970 0.5970 0.6020
13.385000 0.6180 0.6280 0.6420 0.6550 0.6690
13.419063 0.6840 0.6980 0.7100 0.7190 0.7290
13.453000 0.7360 0.7430 0.7510 0.7510 0.7530
13.487063 0.7560 0.7630 0.7670 0.7650 0.7650
13.521000 0.7610 0.7600 0.7600 0.7600 0.7610
13.555063 0.7670 0.7670 0.7670 0.7670 0.7670
13.589000 0.7670 0.7650 0.7630 0.7600 0.7550
13.623063 0.7560 0.7580 0.7560 0.7560 0.7530
13.658000 0.7480 0.7430 0.7390 0.7360 0.7390
13.692063 0.7390 0.7320 0.7220 0.7150 0.7100
13.726000 0.7080 0.7070 0.7050 0.7020 0.6950
13.760063 0.6860 0.6790 0.6690 0.6570 0.6500
13.794000 0.6380 0.6250 0.6070 0.5890 0.5680
13.828063 0.5490 0.5300 0.5110 0.4600 0.4380
13.862000 0.4050 0.3810 0.3540 0.3280 0.3040
13.896063 0.2850 0.2670 0.2500 0.2320 0.2150
13.930000 0.1960 0.1860 0.1810 0.1760 0.1760
13.964063 0.1810 0.1950 0.2080 0.2270 0.2460
13.998000 0.2680 0.2890 0.3130 0.3390 0.3660
14.032063 0.3860 0.4050 0.4290 0.4430 0.4450
14.066000 0.4460 0.4500 0.4500 0.4500 0.4460
14.100063 0.4380 0.4260 0.4070 0.3920 0.3730
14.134000 0.3510 0.3280 0.3040 0.2790 0.2550
14.168063 0.2320 0.2100 0.1910 0.1810 0.1600
14.202000 0.1350 0.1330 0.1230 0.1160 0.1130
14.236063 0.1070 0.1060 0.1060 0.1070 0.1090
14.270000 0.1090 0.1110 0.1130 0.1300 0.1540
14.304063 0.1690 0.1900 0.2120 0.2390 0.2670
14.339000 0.2960 0.3270 0.3560 0.3810 0.4040
14.373063 0.4260 0.4460 0.4650 0.4840 0.4960
14.407000 0.5010 0.5050 0.5050 0.5080 0.5100
14.441063 0.5080 0.5010 0.4860 0.4770 0.4670
14.475000 0.4600 0.4500 0.4410 0.4330 0.4280
14.509063 0.4280 0.4290 0.4340 0.4450 0.4580
14.543000 0.4790 0.4910 0.5010 0.5250 0.5460
14.577063 0.5590 0.5770 0.5920 0.6070 0.6250
14.611000 0.6420 0.6590 0.6740 0.6830 0.6980
14.645063 0.7050 0.7080 0.7100 0.7120 0.7170
14.679000 0.7190 0.7190 0.7200 0.7200 0.7220
14.713063 0.7200 0.7120 0.7080 0.7080 0.7070
14.747000 0.7070 0.7070 0.7070 0.7070 0.7080
14.781063 0.7080 0.7100 0.7100 0.7120 0.7150
14.815000 0.7190 0.7220 0.7240 0.7290 0.7320
14.849063 0.7390 0.7410 0.7410 0.7440 0.7440
14.883000 0.7460 0.7500 0.7500 0.7510 0.7530
14.917063 0.7530 0.7530 0.7530 0.7550 0.7560
14.951000 0.7580 0.7580 0.7580 0.7600 0.7600
14.985063 0.7600 0.7600 0.7580 0.7560 0.7550
15.019000 0.7510 0.7480 0.7390 0.7310 0.7240
15.053063 0.7140 0.7030 0.7000 0.6930 0.6880
15.088000 0.6860 0.6860 0.6840 0.6810 0.6790
15.122063 0.6760 0.6690 0.6690 0.6720 0.6840
15.156000 0.6930 0.7000 0.7070 0.7140 0.7150
15.190063 0.7170 0.7190 0.7220 0.7240 0.7270
15.224000 0.7310 0.7320 0.7340 0.7380 0.7380
15.258063 0.7360 0.7360 0.7380 0.7380 0.7380
15.292000 0.7340 0.7340 0.7340 0.7340 0.7340
15.326063 0.7340 0.7320 0.7310 0.7290 0.7270
15.360000 0.7240 0.7200 0.7150 0.7140 0.7150
15.394063 0.7150 0.7150 0.7140 0.7120 0.7120
15.428000 0.7120 0.7100 0.7080 0.7080 0.7050
15.462063 0.7050 0.7030 0.7020 0.7000 0.6980
15.496000 0.6950 0.6930 0.6930 0.6930 0.6930
15.530063 0.6910 0.6880 0.6860 0.6830 0.6810
15.564000 0.6790 0.6790 0.6780 0.6780 0.6740
15.598063 0.6720 0.6670 0.6660 0.6660 0.6660
15.632000 0.6660 0.6660 0.6660 0.6660 0.6640
15.666063 0.6640 0.6620 0.6570 0.6540 0.6500
15.700000 0.6470 0.6430 0.6420 0.6420 0.6420
15.734063 0.6430 0.6430 0.6430 0.6420 0.6380
15.768000 0.6330 0.6310 0.6300 0.6300 0.6260
15.802063 0.6230 0.6190 0.6180 0.6160 0.6160
15.837000 0.6140 0.6140 0.6110 0.6040 0.5990
15.871063 0.5920 0.5850 0.5800 0.5770 0.5750
15.905000 0.5750 0.5750 0.5750 0.5750 0.5730
15.939063 0.5710 0.5710 0.5700 0.5680 0.5660
15.973000 0.5630 0.5630 0.5610
##END=
