##TITLE=NALCAMINE G-13
$$ N. AL. CORP (COMM.)
##JCAMP-DX=4.24
##DATA TYPE=INFRARED SPECTRUM
##CLASS=COBLENTZ
##ORIGIN=WYANDOTTE CHEMICALS CORP., WYANDOTTE, MICHIGAN, USA
##OWNER=COBLENTZ SOCIETY
Collection (C) 2018 copyright by the U.S. Secretary of Commerce
on behalf of the United States of America. All rights reserved.
##DATE=Not specified, most likely prior to 1970
##NAMES=2-(2-[(2E)-2-heptadecenyl]-4,5-dihydro-1H-imidazol-1-yl)ethanol
##MOLFORM=C22 H42 N2 O
##SOURCE REFERENCE=COBLENTZ NO. 597
##$NIST ID=B6000597
##$NIST SOURCE=COBLENTZ
##$NIST IMAGE=cob597
##SPECTROMETER/DATA SYSTEM=Not specified, most likely a prism, grating, or hybrid spectrometer.
##STATE=LIQUID
##PATH LENGTH=CAPILLARY
##SAMPLING PROCEDURE=TRANSMISSION
##RESOLUTION=4
##DATA PROCESSING=DIGITIZED BY NIST FROM HARD COPY
##XUNITS=MICROMETERS
##YUNITS=TRANSMITTANCE
##XFACTOR=1.000000
##YFACTOR=1
##DELTAX=000.006647
##FIRSTX=2.023
##LASTX=16.0142
##FIRSTY=0.996
##MAXX=16.0142
##MINX=2.023
##MAXY=0.998
##MINY=0.025
##NPOINTS=2106
##XYDATA=(X++(Y..Y))
2.023000 0.9960 0.9960 0.9960 0.9960 0.9960
2.056248 0.9940 0.9930 0.9930 0.9910 0.9910
2.089000 0.9910 0.9910 0.9890 0.9890 0.9910
2.122248 0.9910 0.9910 0.9930 0.9940 0.9980
2.156000 0.9980 0.9980 0.9930 0.9910 0.9890
2.189248 0.9860 0.9780 0.9680 0.9530 0.9410
2.222000 0.9310 0.9260 0.9260 0.9260 0.9260
2.255248 0.9260 0.9260 0.9280 0.9280 0.9290
2.289000 0.9310 0.9310 0.9330 0.9340 0.9340
2.322248 0.9360 0.9380 0.9380 0.9410 0.9410
2.355000 0.9430 0.9440 0.9460 0.9460 0.9480
2.388248 0.9510 0.9530 0.9530 0.9510 0.9490
2.422000 0.9480 0.9460 0.9480 0.9530 0.9560
2.455248 0.9580 0.9580 0.9560 0.9580 0.9580
2.488000 0.9580 0.9580 0.9590 0.9630 0.9590
2.521248 0.9590 0.9590 0.9610 0.9640 0.9680
2.555000 0.9690 0.9690 0.9710 0.9730 0.9730
2.588248 0.9740 0.9760 0.9760 0.9690 0.9690
2.621000 0.9690 0.9710 0.9790 0.9830 0.9830
2.654248 0.9790 0.9780 0.9780 0.9780 0.9780
2.688000 0.9810 0.9810 0.9780 0.9730 0.9690
2.721248 0.9680 0.9660 0.9640 0.9640 0.9640
2.754000 0.9630 0.9610 0.9610 0.9560 0.9480
2.787248 0.9430 0.9360 0.9290 0.9240 0.9210
2.821000 0.9110 0.9010 0.8940 0.8860 0.8770
2.854248 0.8620 0.8490 0.8370 0.8260 0.8140
2.887000 0.8040 0.7920 0.7820 0.7690 0.7570
2.920248 0.7420 0.7270 0.7090 0.7000 0.6930
2.953000 0.6820 0.6630 0.6530 0.6330 0.6270
2.986248 0.6150 0.6020 0.5910 0.5800 0.5660
3.020000 0.5550 0.5450 0.5330 0.5250 0.5180
3.053248 0.5130 0.5050 0.4960 0.4880 0.4810
3.086000 0.4730 0.4640 0.4480 0.4360 0.4280
3.119248 0.4180 0.4080 0.4010 0.3960 0.3860
3.153000 0.3760 0.3740 0.3710 0.3690 0.3690
3.186248 0.3710 0.3740 0.3790 0.3890 0.3960
3.219000 0.4010 0.4040 0.4160 0.4210 0.4260
3.252248 0.4310 0.4380 0.4440 0.4440 0.4440
3.286000 0.4240 0.4030 0.3790 0.3520 0.3170
3.319248 0.2770 0.2750 0.2750 0.2740 0.2590
3.352000 0.1580 0.0930 0.0600 0.0410 0.0310
3.385248 0.0260 0.0250 0.0250 0.0250 0.0260
3.419000 0.0260 0.0300 0.0350 0.0410 0.0480
3.452248 0.0530 0.0580 0.0630 0.0610 0.0550
3.485000 0.0380 0.0330 0.0330 0.0360 0.0530
3.518248 0.0680 0.1000 0.1430 0.1870 0.2250
3.552000 0.2470 0.2840 0.3190 0.3510 0.3810
3.585248 0.4080 0.4340 0.4580 0.4790 0.4980
3.618000 0.5160 0.5310 0.5460 0.5580 0.5610
3.651248 0.5660 0.5730 0.5800 0.5850 0.5860
3.685000 0.5900 0.5960 0.6000 0.6030 0.6070
3.718248 0.6150 0.6170 0.6220 0.6300 0.6370
3.751000 0.6380 0.6420 0.6500 0.6620 0.6720
3.784248 0.6800 0.6880 0.6970 0.7040 0.7120
3.818000 0.7190 0.7250 0.7320 0.7390 0.7470
3.851248 0.7500 0.7520 0.7550 0.7600 0.7690
3.884000 0.7740 0.7750 0.7770 0.7770 0.7770
3.917248 0.7790 0.7800 0.7840 0.7870 0.7890
3.950000 0.7920 0.7950 0.7990 0.8010 0.8020
3.983248 0.8020 0.8040 0.8060 0.8090 0.8140
4.017000 0.8210 0.8220 0.8220 0.8260 0.8290
4.050248 0.8320 0.8370 0.8420 0.8490 0.8540
4.083000 0.8590 0.8610 0.8610 0.8610 0.8620
4.116248 0.8620 0.8640 0.8690 0.8720 0.8740
4.150000 0.8740 0.8760 0.8760 0.8770 0.8810
4.183248 0.8860 0.8910 0.8940 0.8960 0.8990
4.216000 0.8990 0.8990 0.8990 0.8990 0.8970
4.249248 0.8990 0.8990 0.9010 0.9010 0.9040
4.283000 0.9080 0.9110 0.9180 0.9260 0.9310
4.316248 0.9310 0.9330 0.9340 0.9360 0.9410
4.349000 0.9440 0.9490 0.9510 0.9540 0.9580
4.382248 0.9580 0.9580 0.9580 0.9580 0.9580
4.416000 0.9580 0.9560 0.9560 0.9540 0.9530
4.449248 0.9510 0.9490 0.9490 0.9480 0.9490
4.482000 0.9510 0.9540 0.9590 0.9610 0.9610
4.515248 0.9630 0.9630 0.9630 0.9610 0.9610
4.549000 0.9590 0.9610 0.9610 0.9630 0.9640
4.582248 0.9640 0.9640 0.9630 0.9640 0.9640
4.615000 0.9640 0.9640 0.9640 0.9640 0.9640
4.648248 0.9660 0.9660 0.9660 0.9660 0.9680
4.682000 0.9680 0.9690 0.9710 0.9710 0.9730
4.715248 0.9730 0.9740 0.9730 0.9740 0.9740
4.748000 0.9740 0.9760 0.9760 0.9760 0.9760
4.781248 0.9740 0.9730 0.9730 0.9740 0.9760
4.815000 0.9760 0.9760 0.9780 0.9780 0.9790
4.848248 0.9790 0.9790 0.9790 0.9790 0.9790
4.881000 0.9790 0.9790 0.9790 0.9790 0.9780
4.914248 0.9780 0.9780 0.9790 0.9790 0.9810
4.947000 0.9790 0.9790 0.9790 0.9790 0.9790
4.980248 0.9790 0.9790 0.9780 0.9780 0.9780
5.014000 0.9780 0.9790 0.9760 0.9760 0.9780
5.047248 0.9780 0.9780 0.9780 0.9780 0.9790
5.080000 0.9810 0.9860 0.9860 0.9810 0.9810
5.113248 0.9790 0.9790 0.9760 0.9740 0.9730
5.147000 0.9730 0.9740 0.9790 0.9790 0.9780
5.180248 0.9780 0.9760 0.9760 0.9740 0.9730
5.213000 0.9740 0.9740 0.9740 0.9740 0.9740
5.246248 0.9760 0.9780 0.9780 0.9780 0.9790
5.280000 0.9810 0.9810 0.9810 0.9790 0.9790
5.313248 0.9790 0.9790 0.9780 0.9740 0.9740
5.346000 0.9790 0.9790 0.9790 0.9780 0.9710
5.379248 0.9690 0.9690 0.9680 0.9710 0.9780
5.413000 0.9780 0.9740 0.9740 0.9740 0.9710
5.446248 0.9690 0.9690 0.9760 0.9760 0.9760
5.479000 0.9730 0.9690 0.9680 0.9680 0.9690
5.512248 0.9690 0.9730 0.9730 0.9690 0.9680
5.546000 0.9680 0.9630 0.9610 0.9610 0.9630
5.579248 0.9640 0.9640 0.9660 0.9660 0.9660
5.612000 0.9640 0.9630 0.9610 0.9610 0.9610
5.645248 0.9590 0.9610 0.9610 0.9590 0.9590
5.679000 0.9580 0.9560 0.9490 0.9290 0.9110
5.712248 0.8910 0.8670 0.8320 0.7970 0.7270
5.745000 0.6520 0.6480 0.6480 0.6720 0.7340
5.778248 0.7790 0.8310 0.8410 0.8570 0.8620
5.811000 0.8660 0.8690 0.8770 0.8910 0.8960
5.844248 0.8960 0.8840 0.8810 0.8790 0.8770
5.878000 0.8790 0.8790 0.8740 0.8670 0.8540
5.911248 0.8320 0.8260 0.8040 0.7870 0.7650
5.944000 0.7320 0.7000 0.6730 0.6550 0.6420
5.977248 0.6330 0.6220 0.6050 0.5960 0.5760
6.011000 0.5560 0.5380 0.5180 0.5060 0.4930
6.044248 0.4780 0.4760 0.4780 0.4960 0.5060
6.077000 0.5080 0.5080 0.5080 0.5050 0.4730
6.110248 0.4460 0.4080 0.3610 0.3110 0.2590
6.144000 0.2120 0.1680 0.1370 0.1180 0.1000
6.177248 0.0830 0.0810 0.0850 0.0980 0.1100
6.210000 0.1180 0.1430 0.1800 0.2250 0.2740
6.243248 0.3260 0.3710 0.4110 0.4380 0.4780
6.277000 0.5030 0.5210 0.5360 0.5550 0.5800
6.310248 0.5860 0.5930 0.6000 0.6070 0.6080
6.343000 0.6120 0.6130 0.6170 0.6200 0.6250
6.376248 0.6280 0.6350 0.6400 0.6430 0.6450
6.410000 0.6450 0.6470 0.6480 0.6500 0.6520
6.443248 0.6530 0.6550 0.6570 0.6600 0.6630
6.476000 0.6680 0.6730 0.6780 0.6830 0.6870
6.509248 0.6900 0.6920 0.6930 0.6970 0.6980
6.543000 0.7000 0.7000 0.7020 0.7020 0.7020
6.576248 0.7020 0.6980 0.6970 0.6900 0.6870
6.609000 0.6750 0.6630 0.6520 0.6380 0.6180
6.642248 0.5930 0.5580 0.5110 0.4780 0.4630
6.676000 0.4460 0.4180 0.4130 0.4130 0.4210
6.709248 0.4410 0.4540 0.4630 0.4730 0.4760
6.742000 0.4740 0.4560 0.4140 0.3420 0.2620
6.775248 0.1920 0.1780 0.1770 0.1650 0.1620
6.808000 0.1620 0.1620 0.1650 0.1750 0.1870
6.841248 0.1920 0.1930 0.1930 0.1930 0.1950
6.875000 0.1970 0.1980 0.1980 0.1980 0.2000
6.908248 0.2020 0.2050 0.2100 0.2200 0.2290
6.941000 0.2350 0.2420 0.2490 0.2520 0.2550
6.974248 0.2570 0.2570 0.2590 0.2600 0.2600
7.008000 0.2640 0.2670 0.2740 0.2850 0.3010
7.041248 0.3220 0.3490 0.3670 0.3890 0.4060
7.074000 0.4230 0.4480 0.4610 0.4710 0.4790
7.107248 0.4930 0.5130 0.5250 0.5400 0.5530
7.141000 0.5710 0.5810 0.5980 0.6130 0.6220
7.174248 0.6280 0.6320 0.6350 0.6370 0.6330
7.207000 0.6230 0.6170 0.6030 0.5880 0.5730
7.240248 0.5550 0.5280 0.5160 0.5150 0.5150
7.274000 0.5110 0.5060 0.5010 0.4940 0.4910
7.307248 0.4840 0.4780 0.4710 0.4660 0.4540
7.340000 0.4510 0.4510 0.4560 0.4680 0.4810
7.373248 0.4940 0.5030 0.5130 0.5260 0.5480
7.407000 0.5610 0.5710 0.5780 0.5850 0.5910
7.440248 0.5980 0.6000 0.6030 0.6050 0.6120
7.473000 0.6220 0.6250 0.6270 0.6270 0.6250
7.506248 0.6270 0.6280 0.6300 0.6300 0.6320
7.540000 0.6320 0.6300 0.6300 0.6280 0.6270
7.573248 0.6220 0.6150 0.6080 0.6020 0.5980
7.606000 0.5960 0.5950 0.5930 0.5910 0.5900
7.639248 0.5880 0.5880 0.5880 0.5880 0.5880
7.673000 0.5880 0.5860 0.5830 0.5760 0.5680
7.706248 0.5600 0.5530 0.5450 0.5360 0.5230
7.739000 0.5160 0.5100 0.5050 0.4980 0.4910
7.772248 0.4840 0.4730 0.4580 0.4390 0.4140
7.805000 0.3990 0.3870 0.3810 0.3710 0.3610
7.838248 0.3520 0.3460 0.3420 0.3360 0.3320
7.872000 0.3310 0.3320 0.3360 0.3410 0.3420
7.905248 0.3420 0.3390 0.3390 0.3390 0.3410
7.938000 0.3460 0.3470 0.3490 0.3520 0.3560
7.971248 0.3590 0.3620 0.3720 0.3810 0.3910
8.005000 0.4030 0.4140 0.4260 0.4330 0.4380
8.038248 0.4410 0.4480 0.4530 0.4610 0.4690
8.071000 0.4740 0.4780 0.4790 0.4830 0.4830
8.104248 0.4840 0.4860 0.4860 0.4860 0.4880
8.138000 0.4880 0.4880 0.4880 0.4880 0.4880
8.171248 0.4880 0.4880 0.4860 0.4840 0.4830
8.204000 0.4830 0.4790 0.4780 0.4760 0.4760
8.237248 0.4740 0.4740 0.4760 0.4780 0.4810
8.271000 0.4830 0.4840 0.4840 0.4880 0.4890
8.304248 0.4890 0.4930 0.5000 0.5030 0.5080
8.337000 0.5150 0.5180 0.5210 0.5200 0.5250
8.370248 0.5260 0.5300 0.5310 0.5310 0.5330
8.404000 0.5350 0.5350 0.5330 0.5310 0.5300
8.437248 0.5280 0.5260 0.5260 0.5280 0.5310
8.470000 0.5350 0.5380 0.5450 0.5500 0.5580
8.503248 0.5650 0.5730 0.5810 0.5900 0.5980
8.537000 0.6020 0.6050 0.6080 0.6130 0.6200
8.570248 0.6250 0.6280 0.6350 0.6420 0.6480
8.603000 0.6570 0.6600 0.6670 0.6680 0.6720
8.636248 0.6780 0.6870 0.6950 0.7000 0.7020
8.669000 0.7070 0.7070 0.7090 0.7120 0.7200
8.702248 0.7250 0.7290 0.7300 0.7320 0.7320
8.736000 0.7340 0.7370 0.7390 0.7390 0.7420
8.769248 0.7470 0.7520 0.7570 0.7600 0.7620
8.802000 0.7670 0.7690 0.7690 0.7670 0.7640
8.835248 0.7590 0.7550 0.7490 0.7390 0.7340
8.869000 0.7340 0.7320 0.7290 0.7290 0.7270
8.902248 0.7270 0.7250 0.7250 0.7250 0.7250
8.935000 0.7240 0.7220 0.7200 0.7190 0.7170
8.968248 0.7170 0.7150 0.7090 0.6980 0.6920
9.002000 0.6870 0.6820 0.6720 0.6670 0.6520
9.035248 0.6520 0.6520 0.6520 0.6030 0.6020
9.068000 0.5960 0.5880 0.5710 0.5630 0.5510
9.101248 0.5380 0.5100 0.5000 0.4830 0.4690
9.135000 0.4590 0.4510 0.4430 0.4380 0.4290
9.168248 0.4230 0.4110 0.4040 0.3960 0.3910
9.201000 0.3860 0.3840 0.3810 0.3670 0.3640
9.234248 0.3640 0.3640 0.3640 0.3660 0.3660
9.268000 0.3660 0.3660 0.3660 0.3660 0.3660
9.301248 0.3660 0.3640 0.3590 0.3590 0.3590
9.334000 0.3590 0.3590 0.3590 0.3610 0.3670
9.367248 0.3740 0.3820 0.3890 0.3970 0.4080
9.401000 0.4160 0.4280 0.4380 0.4490 0.4630
9.434248 0.4760 0.4890 0.5050 0.5180 0.5260
9.467000 0.5350 0.5450 0.5610 0.5850 0.5930
9.500248 0.6020 0.6100 0.6170 0.6230 0.6330
9.534000 0.6400 0.6420 0.6480 0.6570 0.6620
9.567248 0.6650 0.6680 0.6720 0.6730 0.6730
9.600000 0.6730 0.6750 0.6750 0.6750 0.6730
9.633248 0.6720 0.6700 0.6680 0.6680 0.6650
9.666000 0.6620 0.6570 0.6520 0.6470 0.6430
9.699248 0.6370 0.6300 0.6230 0.6180 0.6120
9.733000 0.6070 0.6000 0.5910 0.5830 0.5730
9.766248 0.5630 0.5610 0.5550 0.5460 0.5350
9.799000 0.5200 0.5150 0.5060 0.5000 0.4940
9.832248 0.4860 0.4810 0.4790 0.4780 0.4760
9.866000 0.4760 0.4780 0.4840 0.4910 0.4980
9.899248 0.5060 0.5150 0.5250 0.5350 0.5430
9.932000 0.5530 0.5630 0.5730 0.5830 0.5900
9.965248 0.5950 0.6000 0.6050 0.6100 0.6130
9.999000 0.6180 0.6250 0.6300 0.6350 0.6370
10.032248 0.6380 0.6400 0.6430 0.6450 0.6470
10.065000 0.6480 0.6500 0.6500 0.6530 0.6530
10.098248 0.6550 0.6550 0.6570 0.6580 0.6600
10.132000 0.6600 0.6620 0.6620 0.6630 0.6650
10.165248 0.6700 0.6720 0.6730 0.6770 0.6800
10.198000 0.6870 0.6950 0.6970 0.6980 0.7000
10.231248 0.7040 0.7070 0.7120 0.7170 0.7190
10.265000 0.7190 0.7220 0.7220 0.7240 0.7240
10.298248 0.7240 0.7240 0.7220 0.7220 0.7190
10.331000 0.7150 0.7150 0.7120 0.7120 0.7100
10.364248 0.7100 0.7100 0.7090 0.7090 0.7090
10.398000 0.7120 0.7150 0.7220 0.7270 0.7300
10.431248 0.7350 0.7390 0.7400 0.7440 0.7450
10.464000 0.7470 0.7490 0.7500 0.7550 0.7570
10.497248 0.7590 0.7590 0.7600 0.7600 0.7620
10.531000 0.7620 0.7640 0.7650 0.7650 0.7690
10.564248 0.7670 0.7690 0.7690 0.7690 0.7700
10.597000 0.7720 0.7720 0.7740 0.7740 0.7740
10.630248 0.7740 0.7740 0.7740 0.7740 0.7740
10.663000 0.7750 0.7770 0.7790 0.7820 0.7870
10.696248 0.7900 0.7920 0.7970 0.7990 0.8010
10.730000 0.8010 0.8060 0.8120 0.8140 0.8160
10.763248 0.8190 0.8210 0.8220 0.8240 0.8270
10.796000 0.8290 0.8320 0.8360 0.8360 0.8370
10.829248 0.8390 0.8410 0.8410 0.8420 0.8440
10.863000 0.8440 0.8440 0.8440 0.8440 0.8440
10.896248 0.8420 0.8420 0.8420 0.8420 0.8420
10.929000 0.8420 0.8420 0.8420 0.8420 0.8420
10.962248 0.8420 0.8420 0.8410 0.8410 0.8410
10.996000 0.8410 0.8390 0.8390 0.8360 0.8320
11.029248 0.8290 0.8270 0.8260 0.8260 0.8260
11.062000 0.8270 0.8270 0.8270 0.8290 0.8290
11.095248 0.8290 0.8310 0.8310 0.8310 0.8310
11.129000 0.8310 0.8310 0.8320 0.8320 0.8320
11.162248 0.8320 0.8340 0.8340 0.8340 0.8360
11.195000 0.8360 0.8370 0.8390 0.8410 0.8410
11.228248 0.8410 0.8410 0.8410 0.8410 0.8390
11.262000 0.8370 0.8370 0.8370 0.8360 0.8340
11.295248 0.8340 0.8340 0.8320 0.8320 0.8310
11.328000 0.8290 0.8270 0.8270 0.8260 0.8260
11.361248 0.8220 0.8190 0.8160 0.8140 0.8120
11.395000 0.8090 0.8090 0.8070 0.8060 0.8040
11.428248 0.8040 0.8020 0.7990 0.7970 0.7940
11.461000 0.7890 0.7850 0.7850 0.7850 0.7840
11.494248 0.7790 0.7770 0.7740 0.7700 0.7690
11.527000 0.7670 0.7670 0.7640 0.7620 0.7600
11.560248 0.7600 0.7590 0.7550 0.7520 0.7490
11.594000 0.7450 0.7450 0.7420 0.7400 0.7400
11.627248 0.7390 0.7370 0.7350 0.7350 0.7350
11.660000 0.7350 0.7370 0.7370 0.7390 0.7400
11.693248 0.7420 0.7420 0.7440 0.7470 0.7470
11.727000 0.7490 0.7500 0.7540 0.7570 0.7600
11.760248 0.7640 0.7690 0.7700 0.7740 0.7740
11.793000 0.7750 0.7770 0.7770 0.7800 0.7840
11.826248 0.7870 0.7890 0.7900 0.7900 0.7920
11.860000 0.7920 0.7920 0.7940 0.7950 0.7970
11.893248 0.7970 0.7990 0.8010 0.8010 0.8020
11.926000 0.8020 0.8040 0.8040 0.8070 0.8090
11.959248 0.8110 0.8110 0.8110 0.8120 0.8120
11.993000 0.8120 0.8120 0.8120 0.8120 0.8120
12.026248 0.8110 0.8110 0.8090 0.8070 0.8060
12.059000 0.8060 0.8040 0.8040 0.8040 0.8040
12.092248 0.8040 0.8040 0.8040 0.8040 0.8060
12.126000 0.8060 0.8060 0.8060 0.8060 0.8040
12.159248 0.8040 0.8040 0.8020 0.8010 0.7990
12.192000 0.7990 0.7990 0.7990 0.7970 0.7990
12.225248 0.7990 0.7970 0.7970 0.7950 0.7950
12.259000 0.7950 0.7950 0.7950 0.7950 0.7950
12.292248 0.7950 0.7950 0.7950 0.7940 0.7940
12.325000 0.7920 0.7920 0.7920 0.7920 0.7920
12.358248 0.7920 0.7900 0.7900 0.7900 0.7900
12.392000 0.7900 0.7890 0.7890 0.7890 0.7890
12.425248 0.7890 0.7870 0.7890 0.7870 0.7870
12.458000 0.7870 0.7870 0.7850 0.7850 0.7840
12.491248 0.7840 0.7820 0.7840 0.7800 0.7820
12.524000 0.7800 0.7790 0.7790 0.7770 0.7750
12.557248 0.7740 0.7740 0.7740 0.7740 0.7740
12.591000 0.7740 0.7740 0.7740 0.7740 0.7750
12.624248 0.7750 0.7750 0.7740 0.7740 0.7720
12.657000 0.7720 0.7700 0.7700 0.7690 0.7690
12.690248 0.7670 0.7650 0.7650 0.7640 0.7640
12.724000 0.7640 0.7640 0.7620 0.7620 0.7600
12.757248 0.7600 0.7590 0.7600 0.7590 0.7590
12.790000 0.7590 0.7590 0.7600 0.7590 0.7590
12.823248 0.7590 0.7590 0.7590 0.7590 0.7570
12.857000 0.7550 0.7550 0.7540 0.7520 0.7520
12.890248 0.7500 0.7490 0.7470 0.7470 0.7450
12.923000 0.7450 0.7440 0.7440 0.7420 0.7420
12.956248 0.7400 0.7400 0.7390 0.7370 0.7370
12.990000 0.7370 0.7370 0.7370 0.7370 0.7370
13.023248 0.7350 0.7340 0.7340 0.7340 0.7340
13.056000 0.7340 0.7320 0.7340 0.7340 0.7340
13.089248 0.7300 0.7320 0.7320 0.7300 0.7300
13.123000 0.7290 0.7290 0.7270 0.7270 0.7250
13.156248 0.7250 0.7250 0.7270 0.7250 0.7250
13.189000 0.7250 0.7250 0.7250 0.7250 0.7250
13.222248 0.7250 0.7250 0.7250 0.7250 0.7250
13.256000 0.7250 0.7250 0.7250 0.7250 0.7250
13.289248 0.7250 0.7250 0.7250 0.7250 0.7240
13.322000 0.7240 0.7240 0.7220 0.7220 0.7220
13.355248 0.7200 0.7190 0.7170 0.7150 0.7140
13.389000 0.7120 0.7100 0.7100 0.7090 0.7090
13.422248 0.7070 0.7050 0.7050 0.7040 0.7020
13.455000 0.6980 0.6970 0.6950 0.6950 0.6920
13.488248 0.6880 0.6870 0.6850 0.6830 0.6820
13.521000 0.6800 0.6770 0.6730 0.6720 0.6700
13.554248 0.6680 0.6670 0.6630 0.6620 0.6600
13.588000 0.6570 0.6530 0.6520 0.6480 0.6450
13.621248 0.6430 0.6400 0.6370 0.6330 0.6300
13.654000 0.6250 0.6200 0.6080 0.5880 0.5850
13.687248 0.5760 0.5730 0.5710 0.5680 0.5650
13.721000 0.5610 0.5560 0.5530 0.5510 0.5510
13.754248 0.5480 0.5450 0.5350 0.5310 0.5280
13.787000 0.5250 0.5230 0.5200 0.5180 0.5130
13.820248 0.5080 0.5010 0.4980 0.4980 0.4960
13.854000 0.4940 0.4940 0.4910 0.4910 0.4880
13.887248 0.4860 0.4860 0.4880 0.4930 0.4980
13.920000 0.5000 0.5030 0.5060 0.5110 0.5150
13.953248 0.5200 0.5230 0.5260 0.5280 0.5300
13.987000 0.5300 0.5380 0.5450 0.5510 0.5560
14.020248 0.5600 0.5630 0.5650 0.5660 0.5700
14.053000 0.5730 0.5760 0.5780 0.5800 0.5810
14.086248 0.5830 0.5850 0.5850 0.5860 0.5880
14.120000 0.5900 0.5910 0.5910 0.5950 0.5960
14.153248 0.5980 0.6000 0.6000 0.6020 0.6020
14.186000 0.6030 0.6050 0.6070 0.6100 0.6100
14.219248 0.6120 0.6130 0.6170 0.6180 0.6220
14.253000 0.6230 0.6250 0.6270 0.6270 0.6270
14.286248 0.6270 0.6280 0.6280 0.6280 0.6300
14.319000 0.6300 0.6320 0.6320 0.6320 0.6320
14.352248 0.6350 0.6350 0.6400 0.6400 0.6400
14.385000 0.6400 0.6400 0.6400 0.6380 0.6400
14.418248 0.6420 0.6420 0.6400 0.6400 0.6400
14.452000 0.6400 0.6400 0.6400 0.6400 0.6400
14.485248 0.6420 0.6430 0.6470 0.6500 0.6520
14.518000 0.6520 0.6520 0.6470 0.6480 0.6480
14.551248 0.6500 0.6530 0.6530 0.6530 0.6520
14.585000 0.6530 0.6530 0.6550 0.6580 0.6580
14.618248 0.6580 0.6600 0.6600 0.6620 0.6630
14.651000 0.6670 0.6680 0.6680 0.6680 0.6680
14.684248 0.6700 0.6700 0.6720 0.6730 0.6730
14.718000 0.6750 0.6750 0.6770 0.6770 0.6780
14.751248 0.6800 0.6830 0.6850 0.6870 0.6880
14.784000 0.6880 0.6880 0.6870 0.6870 0.6870
14.817248 0.6880 0.6920 0.6920 0.6930 0.6920
14.851000 0.6920 0.6920 0.6920 0.6950 0.6980
14.884248 0.7000 0.7000 0.7020 0.7020 0.6980
14.917000 0.6980 0.6980 0.6980 0.6980 0.7000
14.950248 0.7020 0.7050 0.7070 0.7090 0.7090
14.984000 0.7090 0.7090 0.7100 0.7100 0.7120
15.017248 0.7140 0.7150 0.7170 0.7190 0.7200
15.050000 0.7240 0.7250 0.7290 0.7320 0.7340
15.083248 0.7390 0.7400 0.7400 0.7390 0.7370
15.117000 0.7350 0.7340 0.7300 0.7300 0.7290
15.150248 0.7290 0.7270 0.7240 0.7240 0.7240
15.183000 0.7220 0.7220 0.7220 0.7200 0.7200
15.216248 0.7200 0.7200 0.7200 0.7200 0.7220
15.250000 0.7220 0.7240 0.7250 0.7270 0.7270
15.283248 0.7250 0.7270 0.7290 0.7290 0.7300
15.316000 0.7300 0.7300 0.7300 0.7300 0.7300
15.349248 0.7290 0.7290 0.7270 0.7290 0.7300
15.382000 0.7320 0.7350 0.7350 0.7350 0.7350
15.415248 0.7300 0.7300 0.7320 0.7320 0.7320
15.449000 0.7340 0.7350 0.7350 0.7350 0.7340
15.482248 0.7340 0.7350 0.7350 0.7370 0.7370
15.515000 0.7390 0.7400 0.7400 0.7400 0.7420
15.548248 0.7420 0.7440 0.7450 0.7470 0.7470
15.582000 0.7450 0.7400 0.7390 0.7390 0.7370
15.615248 0.7350 0.7350 0.7350 0.7350 0.7350
15.648000 0.7340 0.7340 0.7340 0.7300 0.7290
15.681248 0.7270 0.7290 0.7340 0.7350 0.7350
15.715000 0.7320 0.7320 0.7320 0.7320 0.7320
15.748248 0.7340 0.7340 0.7350 0.7370 0.7390
15.781000 0.7400 0.7400 0.7400 0.7420 0.7400
15.814248 0.7400 0.7400 0.7400 0.7420 0.7420
15.848000 0.7420 0.7420 0.7420 0.7420 0.7420
15.881248 0.7420 0.7400 0.7400 0.7400 0.7420
15.914000 0.7420 0.7420 0.7440 0.7440 0.7450
15.947248 0.7450 0.7470 0.7470 0.7470 0.7490
15.981000 0.7490 0.7490 0.7500 0.7500 0.7500
16.014248 0.7500
##END=
