##TITLE=CALCIUM SULFITE
$$ C.P.
##JCAMP-DX=4.24
##DATA TYPE=INFRARED SPECTRUM
##CLASS=COBLENTZ
##ORIGIN=MELLON INSTITUTE
##OWNER=COBLENTZ SOCIETY
Collection (C) 2018 copyright by the U.S. Secretary of Commerce
on behalf of the United States of America. All rights reserved.
##DATE=Not specified, most likely prior to 1970
##MOLFORM=Ca S O3  * 2 H2 O
##SOURCE REFERENCE=COBLENTZ NO. 564
##$NIST ID=B6000564
##$NIST SOURCE=COBLENTZ
##$NIST IMAGE=cob564
##SPECTROMETER/DATA SYSTEM=Not specified, most likely a prism, grating, or hybrid spectrometer.
##STATE=SOLID (NUJOL MULL)
##PATH LENGTH=
$$SPECTRAL CONTAMINATION DUE TO OIL AROUND 2900, 1450, 1380 CM^-^1
##SAMPLING PROCEDURE=TRANSMISSION
##RESOLUTION=4
##DATA PROCESSING=DIGITIZED BY NIST FROM HARD COPY
##XUNITS=MICROMETERS
##YUNITS=TRANSMITTANCE
##XFACTOR=1.000000
##YFACTOR=1
##DELTAX=000.006655
##FIRSTX=2.035
##LASTX=16.0167
##FIRSTY=0.958
##MAXX=16.0167
##MINX=2.035
##MAXY=0.974
##MINY=0.14
##NPOINTS=2102
##XYDATA=(X++(Y..Y))
2.035000 0.9580 0.9590 0.9590 0.9590 0.9610
2.068289 0.9610 0.9610 0.9610 0.9630 0.9630
2.102000 0.9630 0.9630 0.9640 0.9640 0.9640
2.135289 0.9640 0.9630 0.9630 0.9640 0.9640
2.168000 0.9640 0.9640 0.9640 0.9660 0.9660
2.201289 0.9640 0.9640 0.9640 0.9640 0.9640
2.235000 0.9640 0.9640 0.9660 0.9640 0.9640
2.268289 0.9630 0.9610 0.9580 0.9560 0.9540
2.301000 0.9530 0.9530 0.9530 0.9530 0.9530
2.334289 0.9530 0.9530 0.9540 0.9540 0.9540
2.368000 0.9540 0.9580 0.9580 0.9580 0.9590
2.401289 0.9580 0.9540 0.9540 0.9540 0.9540
2.434000 0.9540 0.9540 0.9540 0.9560 0.9580
2.467289 0.9590 0.9590 0.9590 0.9590 0.9630
2.501000 0.9640 0.9630 0.9630 0.9630 0.9630
2.534289 0.9630 0.9630 0.9610 0.9580 0.9560
2.567000 0.9540 0.9560 0.9590 0.9580 0.9580
2.600289 0.9590 0.9580 0.9590 0.9610 0.9610
2.634000 0.9640 0.9680 0.9680 0.9630 0.9580
2.667289 0.9540 0.9530 0.9530 0.9540 0.9540
2.701000 0.9560 0.9580 0.9580 0.9560 0.9540
2.734289 0.9530 0.9530 0.9510 0.9480 0.9430
2.767000 0.9380 0.9340 0.9290 0.9260 0.9210
2.800289 0.9160 0.9090 0.8970 0.8820 0.8650
2.834000 0.8470 0.8300 0.8100 0.7980 0.7750
2.867289 0.7520 0.7300 0.7150 0.7030 0.6750
2.900000 0.6440 0.6310 0.6180 0.5990 0.5740
2.933289 0.5620 0.5570 0.5520 0.5520 0.5660
2.967000 0.5820 0.6060 0.6310 0.6560 0.7100
3.000289 0.7310 0.7530 0.7700 0.7880 0.8040
3.033000 0.8090 0.8170 0.8220 0.8250 0.8300
3.066289 0.8340 0.8350 0.8400 0.8440 0.8470
3.100000 0.8520 0.8570 0.8650 0.8710 0.8790
3.133289 0.8840 0.8870 0.8920 0.8940 0.8970
3.166000 0.9010 0.9020 0.9040 0.9040 0.9040
3.199289 0.9060 0.9060 0.9090 0.9110 0.9110
3.233000 0.9110 0.9110 0.9110 0.9110 0.9110
3.266289 0.9090 0.9060 0.9040 0.9010 0.8960
3.299000 0.8860 0.8820 0.8760 0.8600 0.8300
3.332289 0.8000 0.7480 0.6710 0.5910 0.5090
3.366000 0.3860 0.3550 0.3210 0.2680 0.2660
3.399289 0.2690 0.2980 0.4130 0.4600 0.4940
3.433000 0.5140 0.5390 0.5390 0.5170 0.5000
3.466289 0.4990 0.4940 0.4990 0.5190 0.5490
3.499000 0.6110 0.6660 0.7900 0.8390 0.8570
3.532289 0.8790 0.8910 0.9070 0.9160 0.9240
3.566000 0.9310 0.9360 0.9410 0.9430 0.9440
3.599289 0.9460 0.9480 0.9490 0.9510 0.9530
3.632000 0.9530 0.9530 0.9540 0.9540 0.9540
3.665289 0.9540 0.9540 0.9540 0.9580 0.9580
3.699000 0.9580 0.9590 0.9590 0.9590 0.9610
3.732289 0.9610 0.9610 0.9610 0.9610 0.9610
3.765000 0.9610 0.9610 0.9610 0.9610 0.9610
3.798289 0.9610 0.9610 0.9630 0.9640 0.9640
3.832000 0.9640 0.9640 0.9640 0.9660 0.9660
3.865289 0.9680 0.9680 0.9680 0.9680 0.9680
3.898000 0.9680 0.9680 0.9680 0.9680 0.9680
3.931289 0.9680 0.9690 0.9690 0.9690 0.9690
3.965000 0.9710 0.9710 0.9710 0.9710 0.9710
3.998289 0.9710 0.9710 0.9710 0.9710 0.9730
4.031000 0.9740 0.9730 0.9730 0.9730 0.9730
4.064289 0.9730 0.9730 0.9730 0.9730 0.9730
4.098000 0.9740 0.9740 0.9740 0.9740 0.9740
4.131289 0.9740 0.9740 0.9740 0.9740 0.9740
4.165000 0.9740 0.9740 0.9740 0.9740 0.9740
4.198289 0.9740 0.9730 0.9710 0.9680 0.9640
4.231000 0.9610 0.9590 0.9560 0.9530 0.9530
4.264289 0.9510 0.9490 0.9480 0.9460 0.9440
4.298000 0.9430 0.9430 0.9410 0.9390 0.9390
4.331289 0.9390 0.9380 0.9380 0.9380 0.9410
4.364000 0.9430 0.9440 0.9480 0.9510 0.9540
4.397289 0.9590 0.9640 0.9660 0.9690 0.9710
4.431000 0.9730 0.9730 0.9730 0.9730 0.9730
4.464289 0.9730 0.9710 0.9710 0.9710 0.9710
4.497000 0.9710 0.9690 0.9690 0.9690 0.9690
4.530289 0.9690 0.9690 0.9680 0.9680 0.9680
4.564000 0.9660 0.9660 0.9680 0.9680 0.9660
4.597289 0.9660 0.9640 0.9640 0.9640 0.9640
4.630000 0.9640 0.9640 0.9640 0.9640 0.9640
4.663289 0.9640 0.9640 0.9640 0.9640 0.9640
4.697000 0.9640 0.9640 0.9640 0.9660 0.9660
4.730289 0.9660 0.9640 0.9640 0.9640 0.9640
4.763000 0.9640 0.9640 0.9640 0.9660 0.9640
4.796289 0.9640 0.9630 0.9640 0.9640 0.9660
4.830000 0.9640 0.9640 0.9640 0.9640 0.9640
4.863289 0.9640 0.9630 0.9630 0.9630 0.9630
4.897000 0.9610 0.9610 0.9590 0.9590 0.9590
4.930289 0.9580 0.9580 0.9580 0.9560 0.9580
4.963000 0.9590 0.9590 0.9590 0.9590 0.9610
4.996289 0.9610 0.9640 0.9640 0.9630 0.9630
5.030000 0.9630 0.9640 0.9630 0.9630 0.9630
5.063289 0.9630 0.9610 0.9610 0.9610 0.9610
5.096000 0.9610 0.9610 0.9590 0.9590 0.9590
5.129289 0.9580 0.9580 0.9580 0.9580 0.9560
5.163000 0.9540 0.9540 0.9560 0.9560 0.9540
5.196289 0.9540 0.9530 0.9540 0.9560 0.9580
5.229000 0.9580 0.9580 0.9580 0.9580 0.9540
5.262289 0.9540 0.9560 0.9560 0.9560 0.9540
5.296000 0.9540 0.9560 0.9560 0.9560 0.9580
5.329289 0.9590 0.9590 0.9590 0.9590 0.9580
5.362000 0.9590 0.9610 0.9610 0.9610 0.9630
5.395289 0.9630 0.9640 0.9640 0.9630 0.9630
5.429000 0.9640 0.9640 0.9640 0.9640 0.9660
5.462289 0.9660 0.9660 0.9660 0.9660 0.9660
5.495000 0.9660 0.9660 0.9640 0.9640 0.9640
5.528289 0.9640 0.9640 0.9640 0.9660 0.9660
5.562000 0.9680 0.9680 0.9680 0.9690 0.9690
5.595289 0.9690 0.9690 0.9690 0.9690 0.9690
5.629000 0.9690 0.9680 0.9680 0.9680 0.9680
5.662289 0.9680 0.9690 0.9690 0.9690 0.9690
5.695000 0.9680 0.9680 0.9680 0.9680 0.9680
5.728289 0.9680 0.9690 0.9690 0.9690 0.9690
5.762000 0.9710 0.9710 0.9710 0.9690 0.9690
5.795289 0.9690 0.9690 0.9690 0.9710 0.9710
5.828000 0.9710 0.9730 0.9710 0.9690 0.9690
5.861289 0.9640 0.9640 0.9660 0.9660 0.9680
5.895000 0.9680 0.9660 0.9640 0.9630 0.9630
5.928289 0.9630 0.9640 0.9640 0.9640 0.9640
5.961000 0.9610 0.9560 0.9560 0.9560 0.9540
5.994289 0.9560 0.9540 0.9540 0.9540 0.9530
6.028000 0.9490 0.9460 0.9430 0.9380 0.9340
6.061289 0.9310 0.9270 0.9190 0.9090 0.8990
6.094000 0.8890 0.8710 0.8540 0.8350 0.8250
6.127289 0.8070 0.7850 0.7670 0.7620 0.7670
6.161000 0.7720 0.7770 0.7880 0.8050 0.8150
6.194289 0.8400 0.8650 0.8810 0.8920 0.9020
6.227000 0.9110 0.9140 0.9220 0.9270 0.9290
6.260289 0.9320 0.9360 0.9390 0.9410 0.9410
6.294000 0.9430 0.9440 0.9440 0.9440 0.9460
6.327289 0.9480 0.9480 0.9480 0.9480 0.9480
6.361000 0.9480 0.9460 0.9480 0.9490 0.9510
6.394289 0.9510 0.9530 0.9530 0.9510 0.9490
6.427000 0.9480 0.9460 0.9460 0.9440 0.9460
6.460289 0.9460 0.9490 0.9510 0.9530 0.9530
6.494000 0.9530 0.9510 0.9510 0.9510 0.9510
6.527289 0.9530 0.9530 0.9530 0.9530 0.9510
6.560000 0.9510 0.9530 0.9530 0.9530 0.9530
6.593289 0.9540 0.9560 0.9530 0.9510 0.9510
6.627000 0.9490 0.9480 0.9480 0.9490 0.9510
6.660289 0.9510 0.9530 0.9530 0.9530 0.9530
6.693000 0.9530 0.9530 0.9490 0.9490 0.9480
6.726289 0.9460 0.9440 0.9430 0.9410 0.9390
6.760000 0.9360 0.9310 0.9270 0.9140 0.9070
6.793289 0.8970 0.8720 0.8550 0.8270 0.8070
6.826000 0.8000 0.7820 0.7720 0.7680 0.7630
6.859289 0.7600 0.7580 0.7570 0.7580 0.7580
6.893000 0.7600 0.7620 0.7630 0.7680 0.7730
6.926289 0.7850 0.8000 0.8100 0.8200 0.8290
6.959000 0.8340 0.8390 0.8440 0.8470 0.8540
6.992289 0.8590 0.8650 0.8710 0.8760 0.8810
7.026000 0.8870 0.8910 0.8920 0.8940 0.8940
7.059289 0.8990 0.8990 0.9020 0.9060 0.9090
7.093000 0.9120 0.9170 0.9240 0.9260 0.9260
7.126289 0.9270 0.9290 0.9290 0.9290 0.9290
7.159000 0.9270 0.9260 0.9260 0.9220 0.9210
7.192289 0.9190 0.9120 0.9070 0.9020 0.8990
7.226000 0.8920 0.8870 0.8740 0.8600 0.8520
7.259289 0.8500 0.8490 0.8500 0.8540 0.8550
7.292000 0.8570 0.8620 0.8640 0.8650 0.8690
7.325289 0.8760 0.8820 0.8910 0.8920 0.8960
7.359000 0.9010 0.9020 0.9040 0.9070 0.9110
7.392289 0.9120 0.9140 0.9160 0.9170 0.9170
7.425000 0.9190 0.9190 0.9190 0.9170 0.9170
7.458289 0.9190 0.9190 0.9210 0.9210 0.9220
7.492000 0.9220 0.9240 0.9260 0.9270 0.9270
7.525289 0.9290 0.9290 0.9310 0.9320 0.9320
7.558000 0.9340 0.9380 0.9360 0.9360 0.9360
7.591289 0.9360 0.9360 0.9360 0.9360 0.9360
7.625000 0.9360 0.9360 0.9360 0.9380 0.9380
7.658289 0.9380 0.9380 0.9380 0.9380 0.9380
7.691000 0.9380 0.9380 0.9380 0.9380 0.9380
7.724289 0.9380 0.9380 0.9390 0.9390 0.9410
7.758000 0.9410 0.9410 0.9430 0.9430 0.9430
7.791289 0.9440 0.9440 0.9480 0.9480 0.9440
7.825000 0.9460 0.9460 0.9460 0.9440 0.9440
7.858289 0.9440 0.9430 0.9430 0.9430 0.9410
7.891000 0.9410 0.9390 0.9410 0.9410 0.9410
7.924289 0.9410 0.9410 0.9410 0.9410 0.9410
7.958000 0.9410 0.9410 0.9410 0.9390 0.9360
7.991289 0.9360 0.9390 0.9410 0.9430 0.9430
8.024000 0.9410 0.9410 0.9390 0.9390 0.9390
8.057289 0.9390 0.9390 0.9390 0.9410 0.9430
8.091000 0.9440 0.9440 0.9460 0.9490 0.9490
8.124289 0.9440 0.9430 0.9430 0.9410 0.9390
8.157000 0.9390 0.9380 0.9380 0.9360 0.9340
8.190289 0.9360 0.9340 0.9290 0.9270 0.9240
8.224000 0.9220 0.9210 0.9210 0.9190 0.9170
8.257289 0.9170 0.9140 0.9140 0.9160 0.9160
8.290000 0.9160 0.9160 0.9170 0.9190 0.9190
8.323289 0.9210 0.9240 0.9260 0.9290 0.9310
8.357000 0.9320 0.9320 0.9320 0.9320 0.9310
8.390289 0.9310 0.9320 0.9390 0.9380 0.9380
8.423000 0.9340 0.9320 0.9320 0.9310 0.9310
8.456289 0.9290 0.9290 0.9290 0.9290 0.9290
8.490000 0.9290 0.9290 0.9270 0.9260 0.9240
8.523289 0.9220 0.9220 0.9220 0.9210 0.9210
8.557000 0.9210 0.9190 0.9190 0.9170 0.9170
8.590289 0.9170 0.9170 0.9170 0.9170 0.9160
8.623000 0.9160 0.9160 0.9140 0.9140 0.9140
8.656289 0.9140 0.9120 0.9120 0.9120 0.9110
8.690000 0.9110 0.9110 0.9110 0.9070 0.9060
8.723289 0.9040 0.9040 0.9040 0.9020 0.9010
8.756000 0.9010 0.8990 0.8970 0.8970 0.8960
8.789289 0.8940 0.8940 0.8920 0.8920 0.8920
8.823000 0.8920 0.8920 0.8920 0.8920 0.8910
8.856289 0.8910 0.8910 0.8910 0.8910 0.8910
8.889000 0.8910 0.8890 0.8890 0.8890 0.8890
8.922289 0.8890 0.8890 0.8890 0.8870 0.8870
8.956000 0.8860 0.8860 0.8840 0.8840 0.8820
8.989289 0.8820 0.8820 0.8820 0.8820 0.8820
9.022000 0.8820 0.8820 0.8820 0.8810 0.8820
9.055289 0.8820 0.8820 0.8820 0.8820 0.8820
9.089000 0.8820 0.8820 0.8820 0.8820 0.8820
9.122289 0.8820 0.8820 0.8820 0.8820 0.8840
9.155000 0.8840 0.8840 0.8840 0.8840 0.8840
9.188289 0.8860 0.8870 0.8870 0.8890 0.8910
9.222000 0.8910 0.8910 0.8890 0.8890 0.8890
9.255289 0.8870 0.8870 0.8890 0.8890 0.8890
9.289000 0.8870 0.8870 0.8870 0.8910 0.8920
9.322289 0.8920 0.8940 0.8940 0.8940 0.8940
9.355000 0.8940 0.8940 0.8920 0.8890 0.8860
9.388289 0.8840 0.8820 0.8810 0.8790 0.8760
9.422000 0.8760 0.8720 0.8710 0.8710 0.8690
9.455289 0.8690 0.8650 0.8640 0.8640 0.8620
9.488000 0.8620 0.8600 0.8590 0.8570 0.8540
9.521289 0.8520 0.8490 0.8490 0.8470 0.8440
9.555000 0.8400 0.8390 0.8340 0.8320 0.8290
9.588289 0.8270 0.8220 0.8190 0.8140 0.8100
9.621000 0.8090 0.8040 0.7980 0.7970 0.7830
9.654289 0.7770 0.7670 0.7530 0.7470 0.7350
9.688000 0.7110 0.6980 0.6910 0.6800 0.6700
9.721289 0.6630 0.6560 0.6480 0.6340 0.6210
9.754000 0.6090 0.6010 0.5840 0.5720 0.5520
9.787289 0.5240 0.5220 0.5000 0.4850 0.4690
9.821000 0.4550 0.4350 0.4300 0.4150 0.4030
9.854289 0.3980 0.3780 0.3730 0.3660 0.3460
9.887000 0.3380 0.3350 0.3290 0.3210 0.3160
9.920289 0.3060 0.3040 0.3010 0.2910 0.2860
9.954000 0.2830 0.2780 0.2710 0.2680 0.2640
9.987289 0.2590 0.2540 0.2490 0.2460 0.2420
10.021000 0.2360 0.2310 0.2270 0.2260 0.2220
10.054289 0.2160 0.2110 0.2060 0.2020 0.1990
10.087000 0.1990 0.1920 0.1890 0.1870 0.1840
10.120289 0.1820 0.1750 0.1720 0.1700 0.1690
10.154000 0.1670 0.1650 0.1640 0.1620 0.1590
10.187289 0.1570 0.1550 0.1540 0.1520 0.1500
10.220000 0.1490 0.1470 0.1450 0.1440 0.1440
10.253289 0.1420 0.1420 0.1400 0.1400 0.1400
10.287000 0.1400 0.1400 0.1400 0.1420 0.1440
10.320289 0.1440 0.1450 0.1470 0.1490 0.1520
10.353000 0.1570 0.1620 0.1640 0.1670 0.1700
10.386289 0.1720 0.1740 0.1740 0.1740 0.1750
10.420000 0.1750 0.1770 0.1770 0.1770 0.1770
10.453289 0.1770 0.1770 0.1770 0.1750 0.1750
10.486000 0.1750 0.1740 0.1740 0.1740 0.1740
10.519289 0.1740 0.1740 0.1740 0.1740 0.1740
10.553000 0.1750 0.1740 0.1740 0.1740 0.1740
10.586289 0.1740 0.1740 0.1740 0.1740 0.1750
10.619000 0.1750 0.1750 0.1770 0.1790 0.1790
10.652289 0.1790 0.1800 0.1820 0.1820 0.1840
10.686000 0.1850 0.1890 0.1890 0.1970 0.1990
10.719289 0.1990 0.2010 0.2040 0.2110 0.2190
10.753000 0.2290 0.2340 0.2460 0.2590 0.2710
10.786289 0.2830 0.2930 0.3040 0.3160 0.3280
10.819000 0.3460 0.3550 0.3660 0.3800 0.3980
10.852289 0.4130 0.4280 0.4420 0.4530 0.4620
10.886000 0.4770 0.4870 0.4990 0.5090 0.5200
10.919289 0.5270 0.5390 0.5510 0.5520 0.5710
10.952000 0.5790 0.5870 0.5990 0.6040 0.6160
10.985289 0.6210 0.6380 0.6460 0.6540 0.6610
11.019000 0.6760 0.6830 0.6910 0.7000 0.7050
11.052289 0.7130 0.7200 0.7210 0.7280 0.7370
11.085000 0.7420 0.7480 0.7550 0.7600 0.7650
11.118289 0.7700 0.7750 0.7820 0.7870 0.7900
11.152000 0.7920 0.7930 0.7970 0.7980 0.8020
11.185289 0.8020 0.8050 0.8070 0.8120 0.8150
11.218000 0.8170 0.8190 0.8240 0.8250 0.8270
11.251289 0.8290 0.8300 0.8320 0.8340 0.8350
11.285000 0.8390 0.8400 0.8440 0.8450 0.8470
11.318289 0.8490 0.8500 0.8520 0.8540 0.8550
11.351000 0.8590 0.8620 0.8640 0.8650 0.8670
11.384289 0.8690 0.8710 0.8720 0.8740 0.8760
11.418000 0.8770 0.8810 0.8840 0.8860 0.8860
11.451289 0.8870 0.8890 0.8910 0.8910 0.8920
11.485000 0.8960 0.8960 0.8990 0.8990 0.9010
11.518289 0.9020 0.9020 0.9040 0.9040 0.9060
11.551000 0.9060 0.9070 0.9090 0.9110 0.9110
11.584289 0.9120 0.9120 0.9120 0.9140 0.9120
11.618000 0.9120 0.9120 0.9120 0.9140 0.9140
11.651289 0.9140 0.9140 0.9140 0.9160 0.9160
11.684000 0.9160 0.9160 0.9160 0.9160 0.9170
11.717289 0.9190 0.9210 0.9210 0.9210 0.9220
11.751000 0.9240 0.9240 0.9260 0.9260 0.9270
11.784289 0.9270 0.9270 0.9270 0.9270 0.9270
11.817000 0.9240 0.9240 0.9240 0.9240 0.9240
11.850289 0.9260 0.9260 0.9260 0.9240 0.9260
11.884000 0.9260 0.9270 0.9290 0.9290 0.9290
11.917289 0.9310 0.9310 0.9320 0.9320 0.9340
11.950000 0.9340 0.9340 0.9340 0.9340 0.9340
11.983289 0.9340 0.9340 0.9360 0.9360 0.9360
12.017000 0.9380 0.9380 0.9380 0.9380 0.9390
12.050289 0.9390 0.9410 0.9410 0.9410 0.9410
12.083000 0.9390 0.9390 0.9380 0.9360 0.9360
12.116289 0.9360 0.9360 0.9380 0.9380 0.9380
12.150000 0.9390 0.9390 0.9410 0.9430 0.9440
12.183289 0.9460 0.9460 0.9460 0.9460 0.9440
12.217000 0.9430 0.9430 0.9440 0.9440 0.9440
12.250289 0.9430 0.9440 0.9440 0.9460 0.9460
12.283000 0.9460 0.9480 0.9490 0.9490 0.9510
12.316289 0.9510 0.9510 0.9510 0.9510 0.9510
12.350000 0.9510 0.9510 0.9510 0.9510 0.9510
12.383289 0.9510 0.9510 0.9510 0.9510 0.9510
12.416000 0.9510 0.9510 0.9530 0.9530 0.9530
12.449289 0.9530 0.9530 0.9530 0.9530 0.9530
12.483000 0.9530 0.9530 0.9540 0.9540 0.9540
12.516289 0.9540 0.9530 0.9530 0.9510 0.9530
12.549000 0.9530 0.9530 0.9530 0.9530 0.9530
12.582289 0.9530 0.9530 0.9510 0.9510 0.9540
12.616000 0.9540 0.9530 0.9540 0.9540 0.9530
12.649289 0.9530 0.9540 0.9560 0.9560 0.9560
12.682000 0.9560 0.9580 0.9580 0.9580 0.9580
12.715289 0.9580 0.9560 0.9580 0.9580 0.9590
12.749000 0.9590 0.9590 0.9590 0.9590 0.9610
12.782289 0.9610 0.9610 0.9610 0.9610 0.9630
12.815000 0.9630 0.9610 0.9610 0.9610 0.9610
12.848289 0.9610 0.9590 0.9590 0.9590 0.9580
12.882000 0.9560 0.9540 0.9540 0.9540 0.9540
12.915289 0.9540 0.9540 0.9540 0.9540 0.9540
12.949000 0.9540 0.9540 0.9540 0.9560 0.9560
12.982289 0.9560 0.9560 0.9560 0.9560 0.9540
13.015000 0.9540 0.9540 0.9530 0.9530 0.9530
13.048289 0.9530 0.9530 0.9530 0.9530 0.9530
13.082000 0.9530 0.9530 0.9530 0.9530 0.9530
13.115289 0.9530 0.9530 0.9530 0.9530 0.9530
13.148000 0.9530 0.9530 0.9530 0.9530 0.9530
13.181289 0.9530 0.9530 0.9530 0.9530 0.9540
13.215000 0.9540 0.9540 0.9540 0.9540 0.9540
13.248289 0.9530 0.9530 0.9530 0.9530 0.9540
13.281000 0.9540 0.9540 0.9540 0.9540 0.9560
13.314289 0.9540 0.9560 0.9560 0.9560 0.9560
13.348000 0.9560 0.9560 0.9560 0.9590 0.9590
13.381289 0.9590 0.9590 0.9590 0.9610 0.9630
13.414000 0.9630 0.9630 0.9630 0.9640 0.9630
13.447289 0.9630 0.9630 0.9630 0.9630 0.9630
13.481000 0.9630 0.9630 0.9630 0.9630 0.9610
13.514289 0.9630 0.9630 0.9630 0.9630 0.9630
13.547000 0.9630 0.9630 0.9630 0.9630 0.9640
13.580289 0.9640 0.9640 0.9640 0.9640 0.9630
13.614000 0.9610 0.9610 0.9610 0.9590 0.9590
13.647289 0.9610 0.9590 0.9580 0.9580 0.9560
13.681000 0.9540 0.9530 0.9530 0.9530 0.9530
13.714289 0.9530 0.9510 0.9510 0.9510 0.9490
13.747000 0.9490 0.9490 0.9490 0.9480 0.9480
13.780289 0.9480 0.9490 0.9480 0.9480 0.9480
13.814000 0.9480 0.9460 0.9460 0.9460 0.9440
13.847289 0.9440 0.9440 0.9430 0.9410 0.9410
13.880000 0.9410 0.9410 0.9410 0.9410 0.9410
13.913289 0.9390 0.9390 0.9410 0.9410 0.9410
13.947000 0.9410 0.9410 0.9410 0.9430 0.9430
13.980289 0.9430 0.9460 0.9460 0.9480 0.9480
14.013000 0.9490 0.9490 0.9490 0.9490 0.9510
14.046289 0.9490 0.9490 0.9490 0.9490 0.9510
14.080000 0.9510 0.9510 0.9510 0.9510 0.9510
14.113289 0.9510 0.9510 0.9510 0.9510 0.9490
14.146000 0.9480 0.9460 0.9440 0.9440 0.9440
14.179289 0.9430 0.9430 0.9430 0.9430 0.9410
14.213000 0.9410 0.9390 0.9390 0.9390 0.9390
14.246289 0.9380 0.9380 0.9380 0.9360 0.9360
14.279000 0.9340 0.9340 0.9340 0.9320 0.9320
14.312289 0.9320 0.9310 0.9310 0.9310 0.9290
14.346000 0.9270 0.9260 0.9260 0.9240 0.9240
14.379289 0.9240 0.9220 0.9220 0.9210 0.9190
14.413000 0.9170 0.9170 0.9160 0.9160 0.9160
14.446289 0.9140 0.9120 0.9120 0.9120 0.9110
14.479000 0.9090 0.9060 0.9040 0.9020 0.9020
14.512289 0.9020 0.9010 0.9010 0.9010 0.8990
14.546000 0.8990 0.8990 0.8990 0.8970 0.8960
14.579289 0.8960 0.8960 0.8940 0.8940 0.8920
14.612000 0.8920 0.8910 0.8890 0.8870 0.8870
14.645289 0.8860 0.8860 0.8840 0.8840 0.8820
14.679000 0.8810 0.8810 0.8770 0.8770 0.8770
14.712289 0.8760 0.8740 0.8720 0.8710 0.8690
14.745000 0.8690 0.8650 0.8650 0.8640 0.8620
14.778289 0.8600 0.8590 0.8550 0.8540 0.8540
14.812000 0.8520 0.8500 0.8490 0.8450 0.8450
14.845289 0.8440 0.8420 0.8420 0.8400 0.8390
14.878000 0.8370 0.8370 0.8350 0.8340 0.8340
14.911289 0.8320 0.8300 0.8290 0.8250 0.8240
14.945000 0.8220 0.8200 0.8150 0.8140 0.8090
14.978289 0.8050 0.8020 0.8000 0.7930 0.7920
15.011000 0.7830 0.7750 0.7720 0.7670 0.7650
15.044289 0.7600 0.7570 0.7530 0.7480 0.7430
15.078000 0.7400 0.7370 0.7300 0.7260 0.7230
15.111289 0.7200 0.7180 0.7130 0.7100 0.7060
15.145000 0.7030 0.7000 0.6980 0.6960 0.6930
15.178289 0.6900 0.6860 0.6850 0.6830 0.6810
15.211000 0.6800 0.6780 0.6780 0.6760 0.6760
15.244289 0.6750 0.6750 0.6730 0.6710 0.6710
15.278000 0.6710 0.6710 0.6700 0.6700 0.6700
15.311289 0.6680 0.6680 0.6680 0.6680 0.6680
15.344000 0.6680 0.6680 0.6700 0.6700 0.6710
15.377289 0.6710 0.6730 0.6730 0.6730 0.6750
15.411000 0.6750 0.6750 0.6760 0.6760 0.6760
15.444289 0.6780 0.6780 0.6780 0.6800 0.6800
15.477000 0.6810 0.6810 0.6810 0.6830 0.6830
15.510289 0.6850 0.6830 0.6850 0.6850 0.6860
15.544000 0.6860 0.6880 0.6900 0.6910 0.6910
15.577289 0.6910 0.6930 0.6930 0.6950 0.6950
15.610000 0.6960 0.6960 0.6980 0.6980 0.6980
15.643289 0.6980 0.6980 0.7000 0.7000 0.7010
15.677000 0.7010 0.7010 0.7010 0.7030 0.7030
15.710289 0.7030 0.7030 0.7050 0.7050 0.7050
15.743000 0.7060 0.7060 0.7060 0.7050 0.7060
15.776289 0.7060 0.7060 0.7080 0.7080 0.7080
15.810000 0.7100 0.7080 0.7100 0.7100 0.7100
15.843289 0.7110 0.7100 0.7100 0.7110 0.7110
15.877000 0.7130 0.7130 0.7130 0.7130 0.7130
15.910289 0.7130 0.7130 0.7130 0.7150 0.7150
15.943000 0.7150 0.7160 0.7160 0.7160 0.7160
15.976289 0.7160 0.7160 0.7180 0.7180 0.7180
16.010000 0.7180 0.7180
##END=
