##TITLE=PHOSPHOROTHIOLO THIONATE, O,O-DIETHYL-S-(1-ETHOXY-2-METHYLPROPYL)-
##JCAMP-DX=4.24
##DATA TYPE=INFRARED SPECTRUM
##CLASS=COBLENTZ
##ORIGIN=TENNESSEE EASTMAN COMPANY, RESEARCH LABORATORIES
##OWNER=COBLENTZ SOCIETY
Collection (C) 2018 copyright by the U.S. Secretary of Commerce
on behalf of the United States of America. All rights reserved.
##DATE=Not specified, most likely prior to 1970
##MOLFORM=C10 H23 O3 P S2
##SOURCE REFERENCE=COBLENTZ NO. 639
##$NIST ID=B6000639
##$NIST SOURCE=COBLENTZ
##$NIST IMAGE=cob639
##SPECTROMETER/DATA SYSTEM=Not specified, most likely a prism, grating, or hybrid spectrometer.
##PATH LENGTH=SMEAR
##SAMPLING PROCEDURE=TRANSMISSION
##RESOLUTION=4
##DATA PROCESSING=DIGITIZED BY NIST FROM HARD COPY
##XUNITS=MICROMETERS
##YUNITS=TRANSMITTANCE
##XFACTOR=1.000000
##YFACTOR=1
##DELTAX=000.006652
##FIRSTX=2.082
##LASTX=15.9973
##FIRSTY=0.945
##MAXX=15.9973
##MINX=2.082
##MAXY=1.058
##MINY=0.183
##NPOINTS=2093
##XYDATA=(X++(Y..Y))
2.082000 0.9450 0.9450 0.9450 0.9450 0.9450
2.115275 0.9450 0.9450 0.9460 0.9460 0.9460
2.149000 0.9460 0.9460 0.9480 0.9480 0.9480
2.182275 0.9500 0.9500 0.9500 0.9510 0.9510
2.215000 0.9510 0.9510 0.9500 0.9500 0.9480
2.248275 0.9460 0.9450 0.9430 0.9400 0.9360
2.282000 0.9350 0.9330 0.9330 0.9330 0.9330
2.315275 0.9330 0.9330 0.9330 0.9330 0.9350
2.348000 0.9400 0.9410 0.9410 0.9430 0.9450
2.381275 0.9450 0.9460 0.9460 0.9460 0.9480
2.415000 0.9480 0.9480 0.9480 0.9480 0.9480
2.448275 0.9480 0.9480 0.9480 0.9480 0.9480
2.481000 0.9460 0.9460 0.9450 0.9460 0.9460
2.514275 0.9510 0.9530 0.9530 0.9550 0.9550
2.548000 0.9560 0.9560 0.9600 0.9610 0.9630
2.581275 0.9630 0.9630 0.9650 0.9650 0.9650
2.614000 0.9660 0.9650 0.9650 0.9650 0.9630
2.647275 0.9610 0.9610 0.9610 0.9610 0.9630
2.681000 0.9710 0.9710 0.9700 0.9600 0.9600
2.714275 0.9600 0.9600 0.9600 0.9610 0.9660
2.747000 0.9680 0.9660 0.9660 0.9660 0.9650
2.780275 0.9610 0.9600 0.9600 0.9600 0.9600
2.814000 0.9600 0.9600 0.9600 0.9610 0.9610
2.847275 0.9630 0.9630 0.9650 0.9650 0.9650
2.880000 0.9650 0.9650 0.9650 0.9650 0.9650
2.913275 0.9650 0.9650 0.9650 0.9650 0.9660
2.947000 0.9660 0.9660 0.9660 0.9680 0.9680
2.980275 0.9680 0.9680 0.9680 0.9680 0.9680
3.013000 0.9680 0.9680 0.9660 0.9660 0.9660
3.046275 0.9660 0.9660 0.9660 0.9660 0.9660
3.080000 0.9660 0.9660 0.9660 0.9660 0.9660
3.113275 0.9660 0.9650 0.9650 0.9630 0.9630
3.146000 0.9610 0.9610 0.9610 0.9600 0.9580
3.179275 0.9600 0.9600 0.9600 0.9580 0.9600
3.213000 0.9600 0.9600 0.9610 0.9610 0.9610
3.246275 0.9630 0.9630 0.9630 0.9610 0.9560
3.279000 0.9530 0.9460 0.9460 0.9380 0.9280
3.312275 0.9130 0.8780 0.8350 0.7680 0.7000
3.346000 0.6110 0.5210 0.4310 0.4300 0.4310
3.379275 0.4650 0.5560 0.5830 0.6150 0.6210
3.412000 0.6210 0.6230 0.6250 0.6260 0.6280
3.445275 0.6300 0.6300 0.6330 0.6400 0.6530
3.479000 0.6960 0.7250 0.7550 0.7850 0.8150
3.512275 0.8650 0.8810 0.8930 0.8950 0.9050
3.545000 0.9110 0.9160 0.9200 0.9210 0.9260
3.578275 0.9310 0.9360 0.9410 0.9460 0.9500
3.612000 0.9500 0.9500 0.9530 0.9550 0.9560
3.645275 0.9580 0.9600 0.9600 0.9610 0.9630
3.678000 0.9650 0.9650 0.9660 0.9680 0.9680
3.711275 0.9700 0.9700 0.9710 0.9710 0.9730
3.745000 0.9750 0.9760 0.9810 0.9830 0.9910
3.778275 0.9930 0.9950 0.9950 0.9950 0.9880
3.812000 0.9860 0.9860 0.9860 0.9860 0.9860
3.845275 0.9860 0.9850 0.9850 0.9850 0.9850
3.878000 0.9850 0.9850 0.9850 0.9850 0.9850
3.911275 0.9850 0.9850 0.9850 0.9850 0.9850
3.945000 0.9860 0.9860 0.9860 0.9880 0.9880
3.978275 0.9880 0.9900 0.9900 0.9910 0.9910
4.011000 0.9910 0.9910 0.9910 0.9910 0.9900
4.044275 0.9900 0.9880 0.9880 0.9860 0.9880
4.078000 0.9880 0.9860 0.9860 0.9860 0.9880
4.111275 0.9880 0.9860 0.9860 0.9860 0.9860
4.144000 0.9860 0.9860 0.9860 0.9860 0.9860
4.177275 0.9880 0.9900 0.9900 0.9910 0.9910
4.211000 0.9910 0.9930 1.0000 1.0160 1.0230
4.244275 1.0330 1.0560 1.0580 1.0560 1.0550
4.277000 1.0380 1.0310 1.0230 1.0150 1.0060
4.310275 1.0010 1.0000 0.9980 0.9910 0.9860
4.344000 0.9780 0.9730 0.9730 0.9760 0.9830
4.377275 0.9860 0.9880 0.9900 0.9910 0.9930
4.410000 0.9930 0.9930 0.9950 0.9950 0.9950
4.443275 0.9950 0.9950 0.9950 0.9950 0.9950
4.477000 0.9950 0.9950 0.9950 0.9960 0.9960
4.510275 0.9960 0.9960 0.9980 0.9980 0.9980
4.543000 0.9980 0.9980 0.9980 1.0000 1.0000
4.576275 0.9980 0.9980 0.9980 0.9980 0.9960
4.610000 0.9980 0.9980 1.0000 0.9980 0.9980
4.643275 1.0000 0.9980 0.9980 0.9980 0.9980
4.676000 0.9980 0.9980 0.9980 0.9980 0.9980
4.709275 0.9980 0.9980 0.9980 0.9980 0.9980
4.743000 1.0000 1.0000 1.0000 1.0000 1.0000
4.776275 1.0000 1.0000 1.0010 1.0010 1.0010
4.809000 1.0010 1.0030 1.0030 1.0030 1.0030
4.842275 1.0030 1.0030 1.0030 1.0030 1.0030
4.876000 1.0030 1.0030 1.0030 1.0030 1.0050
4.909275 1.0030 1.0030 1.0050 1.0050 1.0050
4.942000 1.0030 1.0030 1.0050 1.0050 1.0050
4.975275 1.0050 1.0050 1.0050 1.0050 1.0050
5.009000 1.0050 1.0050 1.0050 1.0050 1.0050
5.042275 1.0030 1.0030 1.0030 1.0010 1.0010
5.075000 1.0010 1.0000 1.0000 1.0000 1.0000
5.108275 1.0000 1.0000 1.0000 1.0000 1.0000
5.142000 1.0000 1.0000 1.0000 1.0000 1.0010
5.175275 1.0010 1.0010 1.0010 1.0030 1.0010
5.208000 1.0000 1.0010 1.0000 1.0000 1.0010
5.241275 1.0010 1.0010 1.0010 1.0030 1.0030
5.275000 1.0030 1.0030 1.0030 1.0030 1.0030
5.308275 1.0030 1.0030 1.0030 1.0030 1.0030
5.341000 1.0010 1.0010 1.0000 0.9980 0.9980
5.374275 0.9960 0.9960 0.9950 0.9910 0.9900
5.408000 0.9880 0.9860 0.9860 0.9850 0.9810
5.441275 0.9750 0.9710 0.9730 0.9750 0.9800
5.475000 0.9780 0.9730 0.9610 0.9600 0.9600
5.508275 0.9610 0.9700 0.9710 0.9680 0.9680
5.541000 0.9680 0.9680 0.9680 0.9680 0.9680
5.574275 0.9700 0.9700 0.9700 0.9680 0.9680
5.608000 0.9700 0.9750 0.9810 0.9850 0.9850
5.641275 0.9850 0.9830 0.9780 0.9710 0.9710
5.674000 0.9730 0.9730 0.9750 0.9780 0.9800
5.707275 0.9800 0.9780 0.9780 0.9750 0.9710
5.741000 0.9700 0.9680 0.9700 0.9700 0.9700
5.774275 0.9680 0.9630 0.9630 0.9700 0.9750
5.807000 0.9800 0.9900 0.9900 0.9880 0.9780
5.840275 0.9710 0.9700 0.9700 0.9710 0.9880
5.874000 0.9900 0.9900 0.9880 0.9860 0.9700
5.907275 0.9630 0.9630 0.9660 0.9700 0.9860
5.940000 0.9900 0.9900 0.9880 0.9810 0.9780
5.973275 0.9760 0.9760 0.9760 0.9760 0.9780
6.007000 0.9800 0.9800 0.9800 0.9810 0.9810
6.040275 0.9860 0.9900 0.9930 0.9960 0.9950
6.073000 0.9930 0.9900 0.9800 0.9710 0.9710
6.106275 0.9800 0.9900 0.9900 0.9900 0.9900
6.140000 0.9860 0.9860 0.9860 0.9860 0.9880
6.173275 1.0000 1.0000 0.9980 0.9950 0.9900
6.206000 0.9860 0.9810 0.9810 0.9850 0.9880
6.239275 0.9900 0.9900 0.9950 0.9960 0.9960
6.273000 0.9960 0.9960 0.9980 0.9930 0.9950
6.306275 0.9960 0.9960 0.9980 1.0050 1.0030
6.339000 1.0010 0.9980 0.9950 0.9930 0.9910
6.372275 0.9900 0.9900 1.0010 1.0010 1.0010
6.406000 1.0010 0.9960 0.9900 0.9700 0.9700
6.439275 0.9810 0.9930 0.9950 1.0000 0.9950
6.472000 0.9910 0.9810 0.9680 0.9660 0.9660
6.505275 0.9700 0.9760 0.9830 0.9850 0.9850
6.539000 0.9830 0.9810 0.9780 0.9760 0.9700
6.572275 0.9660 0.9650 0.9630 0.9610 0.9600
6.605000 0.9580 0.9560 0.9500 0.9460 0.9430
6.638275 0.9450 0.9460 0.9480 0.9500 0.9500
6.672000 0.9500 0.9400 0.9350 0.9200 0.8880
6.705275 0.8680 0.8460 0.8360 0.8250 0.8050
6.738000 0.7850 0.7650 0.7460 0.7260 0.7060
6.771275 0.6960 0.6860 0.6830 0.6850 0.6880
6.805000 0.6950 0.7000 0.7030 0.7100 0.7130
6.838275 0.7130 0.7110 0.7080 0.7080 0.7100
6.871000 0.7130 0.7180 0.7160 0.7060 0.6950
6.904275 0.6950 0.6960 0.6980 0.7180 0.7400
6.938000 0.7560 0.7680 0.7810 0.7960 0.8160
6.971275 0.8530 0.8600 0.8680 0.8750 0.8830
7.004000 0.8880 0.8880 0.8910 0.8910 0.8910
7.037275 0.8910 0.8910 0.8900 0.8900 0.8900
7.071000 0.8880 0.8800 0.8610 0.8480 0.8400
7.104275 0.8310 0.8210 0.8050 0.7980 0.7900
7.137000 0.7810 0.7660 0.7450 0.7110 0.6760
7.170275 0.6650 0.6530 0.6430 0.6410 0.6280
7.204000 0.6150 0.6130 0.6130 0.6160 0.6580
7.237275 0.7150 0.7310 0.7500 0.7660 0.7810
7.271000 0.7860 0.7960 0.7950 0.7930 0.7860
7.304275 0.7780 0.7700 0.7610 0.7600 0.7580
7.337000 0.7600 0.7810 0.8080 0.8260 0.8580
7.370275 0.8730 0.8860 0.9000 0.9110 0.9210
7.404000 0.9230 0.9230 0.9210 0.9200 0.9100
7.437275 0.9060 0.8980 0.8900 0.8780 0.8700
7.470000 0.8650 0.8610 0.8610 0.8600 0.8600
7.503275 0.8600 0.8550 0.8480 0.8410 0.8380
7.537000 0.8410 0.8450 0.8510 0.8560 0.8630
7.570275 0.8700 0.8760 0.8830 0.8930 0.8960
7.603000 0.8980 0.9060 0.9060 0.9030 0.8950
7.636275 0.8810 0.8780 0.8780 0.8800 0.8800
7.670000 0.8800 0.8800 0.8780 0.8750 0.8680
7.703275 0.8630 0.8600 0.8530 0.8510 0.8460
7.736000 0.8430 0.8430 0.8430 0.8430 0.8460
7.769275 0.8480 0.8500 0.8580 0.8660 0.8710
7.803000 0.8760 0.8800 0.8850 0.8900 0.8910
7.836275 0.8950 0.9000 0.9050 0.9100 0.9150
7.869000 0.9180 0.9200 0.9210 0.9230 0.9250
7.902275 0.9280 0.9330 0.9400 0.9410 0.9430
7.936000 0.9430 0.9450 0.9450 0.9430 0.9410
7.969275 0.9400 0.9350 0.9260 0.9200 0.9110
8.002000 0.9010 0.8950 0.8880 0.8830 0.8760
8.035275 0.8730 0.8710 0.8710 0.8730 0.8780
8.069000 0.8830 0.8880 0.8910 0.8960 0.9000
8.102275 0.9050 0.9060 0.9080 0.9100 0.9110
8.135000 0.9130 0.9150 0.9180 0.9210 0.9250
8.168275 0.9260 0.9300 0.9330 0.9380 0.9400
8.202000 0.9410 0.9450 0.9460 0.9480 0.9480
8.235275 0.9500 0.9500 0.9510 0.9510 0.9510
8.268000 0.9510 0.9510 0.9510 0.9500 0.9160
8.301275 0.9150 0.9180 0.9210 0.9250 0.9280
8.335000 0.9300 0.9300 0.9300 0.9300 0.9250
8.368275 0.9160 0.9150 0.9060 0.8950 0.8780
8.401000 0.8610 0.8450 0.8360 0.8280 0.8130
8.434275 0.8030 0.7980 0.7950 0.7930 0.7930
8.468000 0.7910 0.7880 0.7850 0.7830 0.7800
8.501275 0.7780 0.7750 0.7730 0.7660 0.7560
8.534000 0.7450 0.7330 0.7200 0.7060 0.6910
8.567275 0.6800 0.6680 0.6650 0.6600 0.6530
8.601000 0.6500 0.6500 0.6500 0.6530 0.6580
8.634275 0.6610 0.6650 0.6730 0.6780 0.6830
8.667000 0.6830 0.6830 0.6830 0.6810 0.6810
8.700275 0.6810 0.6800 0.6780 0.6760 0.6760
8.734000 0.6750 0.6750 0.6760 0.6780 0.6810
8.767275 0.6830 0.6860 0.6900 0.6910 0.6950
8.800000 0.6960 0.6980 0.7000 0.7000 0.7000
8.833275 0.7000 0.6910 0.6800 0.6750 0.6700
8.867000 0.6650 0.6550 0.6430 0.6330 0.6210
8.900275 0.6110 0.6030 0.5960 0.5930 0.5910
8.933000 0.5900 0.5860 0.5800 0.5750 0.5680
8.966275 0.5610 0.5530 0.5450 0.5350 0.5250
9.000000 0.5130 0.5010 0.4950 0.4880 0.4750
9.033275 0.4610 0.4480 0.4350 0.4200 0.4050
9.067000 0.3900 0.3760 0.3750 0.3700 0.3680
9.100275 0.3680 0.3680 0.3680 0.3680 0.3730
9.133000 0.3930 0.4030 0.4230 0.4360 0.4530
9.166275 0.4610 0.4650 0.4650 0.4660 0.4680
9.200000 0.4680 0.4700 0.4700 0.4710 0.4710
9.233275 0.4730 0.4750 0.4760 0.4760 0.4780
9.266000 0.4800 0.4800 0.4810 0.4810 0.4830
9.299275 0.4860 0.4910 0.4930 0.4950 0.4960
9.333000 0.4980 0.5060 0.5110 0.5160 0.5230
9.366275 0.5310 0.5330 0.5350 0.5350 0.5330
9.399000 0.5260 0.5230 0.5180 0.5110 0.5010
9.432275 0.4980 0.4930 0.4810 0.4710 0.4610
9.466000 0.4500 0.4360 0.4230 0.4080 0.3960
9.499275 0.3830 0.3700 0.3600 0.3480 0.3380
9.532000 0.3350 0.3300 0.3210 0.3150 0.3080
9.565275 0.3030 0.3010 0.3000 0.3000 0.3000
9.599000 0.2980 0.2980 0.2980 0.2960 0.2960
9.632275 0.2950 0.2950 0.2950 0.2950 0.2960
9.665000 0.2950 0.2930 0.2910 0.2880 0.2830
9.698275 0.2780 0.2710 0.2650 0.2560 0.2480
9.732000 0.2360 0.2250 0.2100 0.2060 0.2030
9.765275 0.2010 0.1960 0.1930 0.1880 0.1860
9.798000 0.1830 0.1830 0.1830 0.1830 0.1850
9.831275 0.1860 0.1910 0.1960 0.2000 0.2030
9.865000 0.2400 0.2550 0.2680 0.2850 0.3000
9.898275 0.3160 0.3330 0.3660 0.3850 0.4010
9.931000 0.4200 0.4380 0.4550 0.4730 0.4900
9.964275 0.5230 0.5400 0.5560 0.5700 0.5850
9.998000 0.5980 0.6110 0.6230 0.6330 0.6430
10.031275 0.6510 0.6600 0.6660 0.6730 0.6760
10.064000 0.6810 0.6860 0.6910 0.6930 0.6960
10.097275 0.7000 0.7000 0.7000 0.7000 0.6980
10.131000 0.6960 0.6950 0.6880 0.6800 0.6710
10.164275 0.6680 0.6630 0.6550 0.6460 0.6360
10.197000 0.6250 0.6080 0.5880 0.5630 0.5560
10.230275 0.5450 0.5330 0.5180 0.5030 0.4950
10.264000 0.4850 0.4680 0.4500 0.4310 0.4130
10.297275 0.3960 0.3780 0.3630 0.3510 0.3400
10.330000 0.3350 0.3300 0.3210 0.3160 0.3060
10.363275 0.3000 0.2960 0.2930 0.2900 0.2810
10.397000 0.2760 0.2730 0.2730 0.2730 0.2730
10.430275 0.2730 0.2730 0.2730 0.2730 0.2730
10.463000 0.2730 0.2750 0.2750 0.2750 0.2750
10.496275 0.2760 0.2810 0.2860 0.2930 0.2980
10.530000 0.3060 0.3100 0.3260 0.3310 0.3450
10.563275 0.3500 0.3560 0.3610 0.3660 0.3680
10.596000 0.3800 0.3900 0.4000 0.4080 0.4180
10.629275 0.4280 0.4360 0.4450 0.4550 0.4630
10.663000 0.4710 0.4800 0.4880 0.4960 0.5130
10.696275 0.5200 0.5280 0.5360 0.5450 0.5530
10.729000 0.5610 0.5680 0.5760 0.5850 0.5930
10.762275 0.6010 0.6100 0.6180 0.6260 0.6360
10.796000 0.6450 0.6530 0.6630 0.6810 0.6910
10.829275 0.7010 0.7110 0.7230 0.7330 0.7450
10.863000 0.7550 0.7700 0.7810 0.7900 0.7980
10.896275 0.8030 0.8080 0.8150 0.8230 0.8330
10.929000 0.8450 0.8460 0.8500 0.8530 0.8580
10.962275 0.8610 0.8630 0.8660 0.8700 0.8730
10.996000 0.8760 0.8780 0.8810 0.8830 0.8850
11.029275 0.8860 0.8880 0.8900 0.8910 0.8930
11.062000 0.8930 0.8960 0.8960 0.8960 0.9000
11.095275 0.9000 0.9030 0.9030 0.9030 0.9030
11.129000 0.9030 0.9030 0.9030 0.9030 0.9010
11.162275 0.9010 0.8980 0.8910 0.8830 0.8760
11.195000 0.8680 0.8600 0.8480 0.8410 0.8360
11.228275 0.8350 0.8330 0.8310 0.8310 0.8310
11.262000 0.8310 0.8310 0.8310 0.8330 0.8360
11.295275 0.8400 0.8430 0.8480 0.8510 0.8550
11.328000 0.8560 0.8600 0.8610 0.8650 0.8660
11.361275 0.8680 0.8710 0.8730 0.8760 0.8800
11.395000 0.8810 0.8850 0.8880 0.8910 0.8950
11.428275 0.8980 0.9010 0.9050 0.9060 0.9150
11.461000 0.9200 0.9230 0.9250 0.9260 0.9280
11.494275 0.9300 0.9300 0.9310 0.9350 0.9380
11.528000 0.9400 0.9410 0.9430 0.9450 0.9460
11.561275 0.9460 0.9480 0.9480 0.9480 0.9480
11.594000 0.9480 0.9480 0.9480 0.9480 0.9480
11.627275 0.9500 0.9500 0.9500 0.9500 0.9500
11.661000 0.9500 0.9500 0.9500 0.9480 0.9480
11.694275 0.9480 0.9480 0.9450 0.9430 0.9430
11.727000 0.9410 0.9380 0.9360 0.9350 0.9330
11.760275 0.9310 0.9300 0.9260 0.9260 0.9250
11.794000 0.9210 0.9200 0.9200 0.9180 0.9160
11.827275 0.9150 0.9130 0.9100 0.9060 0.9030
11.860000 0.8980 0.8930 0.8880 0.8810 0.8760
11.893275 0.8700 0.8630 0.8560 0.8480 0.8410
11.927000 0.8380 0.8330 0.8250 0.8150 0.8060
11.960275 0.7960 0.7860 0.7760 0.7650 0.7550
11.993000 0.7430 0.7310 0.7180 0.7080 0.7000
12.026275 0.6910 0.6860 0.6810 0.6750 0.6700
12.060000 0.6680 0.6650 0.6580 0.6560 0.6550
12.093275 0.6530 0.6510 0.6510 0.6510 0.6500
12.126000 0.6500 0.6480 0.6480 0.6480 0.6480
12.159275 0.6480 0.6480 0.6480 0.6460 0.6460
12.193000 0.6450 0.6410 0.6380 0.6330 0.6300
12.226275 0.6260 0.6210 0.6160 0.6110 0.6060
12.259000 0.6010 0.5950 0.5900 0.5850 0.5780
12.292275 0.5730 0.5660 0.5610 0.5580 0.5510
12.326000 0.5480 0.5430 0.5380 0.5350 0.5310
12.359275 0.5280 0.5260 0.5230 0.5210 0.5150
12.392000 0.5100 0.5030 0.5010 0.5000 0.4960
12.425275 0.4910 0.4880 0.4860 0.4830 0.4800
12.459000 0.4750 0.4710 0.4680 0.4630 0.4610
12.492275 0.4600 0.4580 0.4580 0.4560 0.4550
12.525000 0.4550 0.4530 0.4530 0.4530 0.4530
12.558275 0.4550 0.4550 0.4550 0.4560 0.4580
12.592000 0.4580 0.4600 0.4610 0.4630 0.4650
12.625275 0.4660 0.4680 0.4700 0.4700 0.4730
12.659000 0.4760 0.4780 0.4810 0.4830 0.4850
12.692275 0.4880 0.4900 0.4930 0.4950 0.4980
12.725000 0.5050 0.5060 0.5100 0.5130 0.5180
12.758275 0.5210 0.5250 0.5280 0.5310 0.5360
12.792000 0.5400 0.5430 0.5460 0.5480 0.5510
12.825275 0.5560 0.5600 0.5630 0.5660 0.5700
12.858000 0.5730 0.5760 0.5800 0.5830 0.5880
12.891275 0.5910 0.5950 0.6000 0.6050 0.6080
12.925000 0.6130 0.6180 0.6230 0.6300 0.6350
12.958275 0.6410 0.6460 0.6530 0.6610 0.6750
12.991000 0.6810 0.6880 0.6950 0.7000 0.7060
13.024275 0.7110 0.7160 0.7230 0.7300 0.7350
13.058000 0.7410 0.7460 0.7510 0.7560 0.7600
13.091275 0.7650 0.7680 0.7730 0.7780 0.7830
13.124000 0.7860 0.7910 0.7960 0.8010 0.8050
13.157275 0.8100 0.8110 0.8130 0.8130 0.8150
13.191000 0.8150 0.8160 0.8230 0.8280 0.8330
13.224275 0.8410 0.8460 0.8500 0.8510 0.8550
13.257000 0.8560 0.8580 0.8580 0.8580 0.8600
13.290275 0.8600 0.8610 0.8610 0.8630 0.8630
13.324000 0.8630 0.8650 0.8650 0.8660 0.8660
13.357275 0.8680 0.8700 0.8710 0.8710 0.8730
13.390000 0.8730 0.8730 0.8750 0.8730 0.8730
13.423275 0.8730 0.8710 0.8710 0.8710 0.8710
13.457000 0.8710 0.8710 0.8710 0.8680 0.8680
13.490275 0.8660 0.8650 0.8630 0.8610 0.8580
13.523000 0.8550 0.8550 0.8530 0.8530 0.8500
13.556275 0.8480 0.8460 0.8430 0.8400 0.8360
13.590000 0.8350 0.8330 0.8300 0.8230 0.8150
13.623275 0.8110 0.8080 0.8080 0.8050 0.8030
13.656000 0.8010 0.8000 0.7960 0.7950 0.7930
13.689275 0.7910 0.7910 0.7900 0.7900 0.7880
13.723000 0.7880 0.7860 0.7860 0.7860 0.7850
13.756275 0.7850 0.7850 0.7830 0.7830 0.7830
13.789000 0.7830 0.7830 0.7810 0.7810 0.7810
13.822275 0.7800 0.7800 0.7800 0.7780 0.7780
13.856000 0.7760 0.7760 0.7730 0.7710 0.7700
13.889275 0.7700 0.7680 0.7680 0.7660 0.7660
13.922000 0.7650 0.7650 0.7650 0.7650 0.7650
13.955275 0.7650 0.7650 0.7660 0.7660 0.7680
13.989000 0.7700 0.7710 0.7710 0.7730 0.7750
14.022275 0.7760 0.7800 0.7830 0.7860 0.7900
14.055000 0.7930 0.7980 0.8000 0.8010 0.8050
14.088275 0.8060 0.8080 0.8100 0.8130 0.8160
14.122000 0.8200 0.8230 0.8280 0.8310 0.8330
14.155275 0.8380 0.8410 0.8480 0.8500 0.8510
14.188000 0.8530 0.8550 0.8550 0.8560 0.8580
14.221275 0.8580 0.8600 0.8610 0.8610 0.8610
14.255000 0.8630 0.8630 0.8630 0.8650 0.8660
14.288275 0.8660 0.8680 0.8700 0.8700 0.8700
14.322000 0.8710 0.8710 0.8710 0.8710 0.8730
14.355275 0.8730 0.8730 0.8730 0.8730 0.8730
14.388000 0.8730 0.8730 0.8730 0.8730 0.8730
14.421275 0.8730 0.8730 0.8730 0.8730 0.8730
14.455000 0.8730 0.8730 0.8730 0.8730 0.8730
14.488275 0.8730 0.8730 0.8730 0.8730 0.8730
14.521000 0.8730 0.8730 0.8730 0.8730 0.8730
14.554275 0.8730 0.8710 0.8710 0.8710 0.8710
14.588000 0.8710 0.8700 0.8700 0.8680 0.8680
14.621275 0.8660 0.8660 0.8650 0.8650 0.8630
14.654000 0.8630 0.8610 0.8610 0.8600 0.8580
14.687275 0.8560 0.8560 0.8530 0.8510 0.8500
14.721000 0.8480 0.8480 0.8460 0.8450 0.8430
14.754275 0.8430 0.8410 0.8400 0.8400 0.8380
14.787000 0.8360 0.8360 0.8350 0.8330 0.8310
14.820275 0.8300 0.8280 0.8250 0.8200 0.8160
14.854000 0.8130 0.8100 0.8080 0.8050 0.8030
14.887275 0.8010 0.8010 0.8000 0.7960 0.7930
14.920000 0.7850 0.7830 0.7830 0.7800 0.7760
14.953275 0.7730 0.7700 0.7650 0.7630 0.7600
14.987000 0.7550 0.7510 0.7460 0.7410 0.7330
15.020275 0.7260 0.7200 0.7110 0.7030 0.6960
15.053000 0.6910 0.6860 0.6810 0.6760 0.6700
15.086275 0.6660 0.6630 0.6580 0.6510 0.6450
15.120000 0.6400 0.6330 0.6260 0.6200 0.6130
15.153275 0.6060 0.6000 0.5930 0.5880 0.5800
15.186000 0.5730 0.5660 0.5600 0.5530 0.5450
15.219275 0.5410 0.5360 0.5310 0.5280 0.5250
15.253000 0.5200 0.5180 0.5150 0.5110 0.5080
15.286275 0.5050 0.5000 0.4980 0.4980 0.4960
15.319000 0.4960 0.4950 0.4950 0.4930 0.4930
15.352275 0.4930 0.4930 0.4930 0.4930 0.4930
15.386000 0.4930 0.4910 0.4910 0.4910 0.4910
15.419275 0.4910 0.4910 0.4910 0.4910 0.4910
15.452000 0.4910 0.4910 0.4910 0.4910 0.4910
15.485275 0.4910 0.4910 0.4910 0.4910 0.4910
15.519000 0.4910 0.4910 0.4910 0.4910 0.4930
15.552275 0.4930 0.4930 0.4930 0.4930 0.4950
15.585000 0.4950 0.4950 0.4960 0.4960 0.4960
15.618275 0.4980 0.4980 0.4980 0.5000 0.5000
15.652000 0.5030 0.5050 0.5060 0.5080 0.5080
15.685275 0.5100 0.5100 0.5130 0.5150 0.5160
15.718000 0.5200 0.5230 0.5280 0.5330 0.5330
15.751275 0.5350 0.5360 0.5360 0.5380 0.5400
15.785000 0.5430 0.5450 0.5460 0.5500 0.5530
15.818275 0.5560 0.5600 0.5650 0.5680 0.5710
15.851000 0.5750 0.5810 0.5880 0.5950 0.6010
15.884275 0.6050 0.6060 0.6100 0.6100 0.6110
15.918000 0.6130 0.6130 0.6150 0.6160 0.6180
15.951275 0.6200 0.6230 0.6250 0.6260 0.6260
15.984000 0.6230 0.6250 0.6260
##END=
