##TITLE=L-ARGININE, HYDROCHLORIDE
##JCAMP-DX=4.24
$$ By DXEDIT 1.05 (RS McDonald)
##DATA TYPE=INFRARED SPECTRUM
##CLASS=COBLENTZ III
##OWNER=COBLENTZ SOC.
Collection (C) 2018 copyright by the U.S. Secretary of Commerce
on behalf of the United States of America. All rights reserved.
##DATE=1962/05/08
##NAMES=arginine hydrochloride
1-AMINO-4-GUANIDOVALERIC ACID HYDROCHLORIDE
##MOLFORM=C6 H15 Cl N4 O2
##MP=235 C DECOMP.
##SOURCE REFERENCE=COBLENTZ NO. 05137
##$NIST ID=B6005137
##$NIST SOURCE=COBLENTZ
##$NIST IMAGE=cob5137
##SPECTROMETER/DATA SYSTEM=PERKIN-ELMER 21 (GRATING)
##INSTRUMENT PARAMETERS=FILTER AT ABOUT 10 MICRONS
##STATE=SOLID (KCl DISC)
##SAMPLING PROCEDURE=TRANSMISSION
##RESOLUTION=2
##DATA PROCESSING=DIGITIZED BY COBLENTZ SOCIETY (BATCH I) FROM HARD COPY
##XUNITS=1/CM
##YUNITS=TRANSMITTANCE
##XLABEL=Wavenumbers (cm-1)
##YLABEL=Transmittance
##XFACTOR=1
##YFACTOR=1
##DELTAX=1
##FIRSTX=4000
##LASTX=669
##FIRSTY=0.779
##MAXX=4000
##MINX=669
##MAXY=0.9136
##MINY=0.0853
##NPOINTS=3332
##XYDATA=(X++(Y..Y))
4000.000000 0.7790 0.7793 0.7796 0.7799 0.7801
3995.000000 0.7805 0.7808 0.7811 0.7814 0.7817
3990.000000 0.7819 0.7822 0.7825 0.7828 0.7832
3985.000000 0.7836 0.7839 0.7842 0.7845 0.7848
3980.000000 0.7851 0.7854 0.7858 0.7861 0.7864
3975.000000 0.7867 0.7869 0.7872 0.7875 0.7878
3970.000000 0.7882 0.7885 0.7888 0.7891 0.7895
3965.000000 0.7898 0.7901 0.7904 0.7907 0.7911
3960.000000 0.7914 0.7917 0.7919 0.7922 0.7926
3955.000000 0.7930 0.7933 0.7936 0.7939 0.7942
3950.000000 0.7945 0.7948 0.7951 0.7954 0.7958
3945.000000 0.7961 0.7964 0.7967 0.7969 0.7974
3940.000000 0.7976 0.7980 0.7983 0.7987 0.7990
3935.000000 0.7993 0.7996 0.7999 0.8003 0.8006
3930.000000 0.8008 0.8011 0.8015 0.8018 0.8021
3925.000000 0.8024 0.8028 0.8031 0.8034 0.8037
3920.000000 0.8041 0.8044 0.8048 0.8051 0.8056
3915.000000 0.8060 0.8064 0.8068 0.8071 0.8075
3910.000000 0.8080 0.8084 0.8088 0.8092 0.8096
3905.000000 0.8100 0.8104 0.8108 0.8111 0.8115
3900.000000 0.8119 0.8124 0.8128 0.8132 0.8137
3895.000000 0.8141 0.8145 0.8149 0.8153 0.8157
3890.000000 0.8161 0.8165 0.8168 0.8172 0.8176
3885.000000 0.8181 0.8184 0.8188 0.8192 0.8193
3880.000000 0.8194 0.8195 0.8196 0.8197 0.8198
3875.000000 0.8200 0.8201 0.8202 0.8203 0.8204
3870.000000 0.8205 0.8206 0.8207 0.8208 0.8209
3865.000000 0.8210 0.8211 0.8213 0.8214 0.8215
3860.000000 0.8216 0.8217 0.8218 0.8220 0.8221
3855.000000 0.8221 0.8223 0.8224 0.8225 0.8228
3850.000000 0.8231 0.8234 0.8237 0.8239 0.8242
3845.000000 0.8244 0.8247 0.8250 0.8252 0.8255
3840.000000 0.8257 0.8260 0.8263 0.8265 0.8268
3835.000000 0.8271 0.8273 0.8275 0.8278 0.8281
3830.000000 0.8284 0.8286 0.8289 0.8292 0.8294
3825.000000 0.8297 0.8300 0.8302 0.8305 0.8308
3820.000000 0.8311 0.8313 0.8316 0.8318 0.8321
3815.000000 0.8324 0.8327 0.8328 0.8332 0.8334
3810.000000 0.8337 0.8340 0.8343 0.8345 0.8348
3805.000000 0.8352 0.8358 0.8364 0.8370 0.8375
3800.000000 0.8383 0.8389 0.8395 0.8402 0.8408
3795.000000 0.8415 0.8421 0.8428 0.8434 0.8440
3790.000000 0.8447 0.8453 0.8460 0.8466 0.8473
3785.000000 0.8478 0.8486 0.8492 0.8498 0.8505
3780.000000 0.8511 0.8518 0.8524 0.8531 0.8536
3775.000000 0.8540 0.8544 0.8548 0.8552 0.8556
3770.000000 0.8560 0.8564 0.8568 0.8571 0.8575
3765.000000 0.8580 0.8584 0.8588 0.8592 0.8596
3760.000000 0.8600 0.8604 0.8608 0.8612 0.8616
3755.000000 0.8620 0.8624 0.8628 0.8632 0.8636
3750.000000 0.8640 0.8644 0.8648 0.8651 0.8654
3745.000000 0.8656 0.8659 0.8662 0.8665 0.8667
3740.000000 0.8668 0.8671 0.8674 0.8675 0.8678
3735.000000 0.8681 0.8683 0.8685 0.8687 0.8689
3730.000000 0.8692 0.8694 0.8696 0.8699 0.8701
3725.000000 0.8703 0.8705 0.8708 0.8710 0.8712
3720.000000 0.8714 0.8716 0.8718 0.8721 0.8723
3715.000000 0.8725 0.8728 0.8731 0.8733 0.8735
3710.000000 0.8738 0.8740 0.8742 0.8744 0.8746
3705.000000 0.8749 0.8751 0.8753 0.8756 0.8758
3700.000000 0.8760 0.8763 0.8765 0.8768 0.8770
3695.000000 0.8773 0.8775 0.8778 0.8780 0.8783
3690.000000 0.8786 0.8788 0.8791 0.8793 0.8796
3685.000000 0.8798 0.8801 0.8804 0.8806 0.8809
3680.000000 0.8811 0.8814 0.8817 0.8818 0.8821
3675.000000 0.8824 0.8827 0.8828 0.8832 0.8835
3670.000000 0.8837 0.8840 0.8842 0.8845 0.8848
3665.000000 0.8850 0.8853 0.8856 0.8858 0.8861
3660.000000 0.8863 0.8866 0.8868 0.8871 0.8874
3655.000000 0.8875 0.8878 0.8881 0.8884 0.8886
3650.000000 0.8889 0.8891 0.8893 0.8896 0.8898
3645.000000 0.8901 0.8903 0.8905 0.8908 0.8910
3640.000000 0.8912 0.8915 0.8917 0.8918 0.8921
3635.000000 0.8924 0.8927 0.8928 0.8931 0.8933
3630.000000 0.8935 0.8936 0.8938 0.8940 0.8942
3625.000000 0.8943 0.8945 0.8947 0.8949 0.8950
3620.000000 0.8952 0.8954 0.8955 0.8957 0.8958
3615.000000 0.8960 0.8962 0.8963 0.8965 0.8966
3610.000000 0.8968 0.8970 0.8971 0.8973 0.8973
3605.000000 0.8974 0.8975 0.8975 0.8975 0.8975
3600.000000 0.8974 0.8974 0.8973 0.8971 0.8971
3595.000000 0.8971 0.8970 0.8968 0.8968 0.8968
3590.000000 0.8967 0.8967 0.8966 0.8965 0.8965
3585.000000 0.8964 0.8963 0.8962 0.8961 0.8960
3580.000000 0.8958 0.8957 0.8955 0.8954 0.8952
3575.000000 0.8948 0.8945 0.8942 0.8938 0.8933
3570.000000 0.8925 0.8918 0.8912 0.8904 0.8896
3565.000000 0.8885 0.8874 0.8863 0.8852 0.8839
3560.000000 0.8823 0.8807 0.8790 0.8774 0.8757
3555.000000 0.8737 0.8716 0.8696 0.8675 0.8653
3550.000000 0.8613 0.8573 0.8533 0.8493 0.8455
3545.000000 0.8432 0.8409 0.8385 0.8362 0.8339
3540.000000 0.8321 0.8304 0.8287 0.8270 0.8252
3535.000000 0.8235 0.8218 0.8201 0.8183 0.8165
3530.000000 0.8150 0.8135 0.8118 0.8103 0.8088
3525.000000 0.8078 0.8068 0.8060 0.8051 0.8041
3520.000000 0.8032 0.8022 0.8014 0.8005 0.7996
3515.000000 0.7987 0.7978 0.7968 0.7958 0.7950
3510.000000 0.7941 0.7932 0.7921 0.7912 0.7904
3505.000000 0.7894 0.7885 0.7875 0.7867 0.7858
3500.000000 0.7849 0.7839 0.7830 0.7821 0.7811
3495.000000 0.7800 0.7790 0.7778 0.7768 0.7750
3490.000000 0.7725 0.7701 0.7678 0.7654 0.7631
3485.000000 0.7607 0.7583 0.7558 0.7535 0.7510
3480.000000 0.7485 0.7460 0.7435 0.7410 0.7382
3475.000000 0.7355 0.7326 0.7299 0.7271 0.7243
3470.000000 0.7215 0.7187 0.7158 0.7103 0.7007
3465.000000 0.6910 0.6812 0.6717 0.6647 0.6594
3460.000000 0.6541 0.6488 0.6435 0.6398 0.6362
3455.000000 0.6329 0.6295 0.6260 0.6236 0.6212
3450.000000 0.6187 0.6162 0.6139 0.6114 0.6090
3445.000000 0.6065 0.6041 0.6009 0.5969 0.5929
3440.000000 0.5889 0.5849 0.5804 0.5759 0.5712
3435.000000 0.5667 0.5621 0.5576 0.5530 0.5484
3430.000000 0.5438 0.5392 0.5346 0.5300 0.5254
3425.000000 0.5208 0.5162 0.5116 0.5070 0.5024
3420.000000 0.4978 0.4932 0.4885 0.4839 0.4793
3415.000000 0.4747 0.4700 0.4653 0.4607 0.4560
3410.000000 0.4514 0.4467 0.4421 0.4374 0.4328
3405.000000 0.4281 0.4235 0.4188 0.4141 0.4097
3400.000000 0.4059 0.4020 0.3980 0.3942 0.3920
3395.000000 0.3904 0.3889 0.3873 0.3858 0.3843
3390.000000 0.3829 0.3814 0.3800 0.3786 0.3772
3385.000000 0.3758 0.3744 0.3730 0.3682 0.3632
3380.000000 0.3582 0.3532 0.3447 0.3300 0.3155
3375.000000 0.3008 0.2862 0.2822 0.2806 0.2790
3370.000000 0.2774 0.2759 0.2745 0.2731 0.2717
3365.000000 0.2703 0.2691 0.2680 0.2669 0.2657
3360.000000 0.2646 0.2635 0.2625 0.2615 0.2605
3355.000000 0.2594 0.2583 0.2573 0.2562 0.2552
3350.000000 0.2543 0.2534 0.2525 0.2516 0.2507
3345.000000 0.2498 0.2489 0.2480 0.2472 0.2465
3340.000000 0.2459 0.2452 0.2446 0.2441 0.2437
3335.000000 0.2433 0.2428 0.2424 0.2420 0.2416
3330.000000 0.2412 0.2408 0.2405 0.2403 0.2400
3325.000000 0.2398 0.2395 0.2393 0.2390 0.2387
3320.000000 0.2384 0.2382 0.2379 0.2377 0.2374
3315.000000 0.2373 0.2372 0.2371 0.2370 0.2369
3310.000000 0.2369 0.2368 0.2368 0.2368 0.2367
3305.000000 0.2366 0.2366 0.2365 0.2365 0.2367
3300.000000 0.2368 0.2369 0.2371 0.2372 0.2373
3295.000000 0.2374 0.2375 0.2377 0.2379 0.2381
3290.000000 0.2383 0.2385 0.2388 0.2391 0.2393
3285.000000 0.2396 0.2399 0.2401 0.2404 0.2407
3280.000000 0.2413 0.2420 0.2427 0.2433 0.2440
3275.000000 0.2447 0.2453 0.2460 0.2466 0.2473
3270.000000 0.2480 0.2487 0.2493 0.2501 0.2510
3265.000000 0.2518 0.2526 0.2534 0.2543 0.2552
3260.000000 0.2561 0.2568 0.2573 0.2579 0.2584
3255.000000 0.2589 0.2593 0.2597 0.2601 0.2605
3250.000000 0.2609 0.2613 0.2616 0.2620 0.2621
3245.000000 0.2623 0.2624 0.2666 0.2626 0.2627
3240.000000 0.2629 0.2630 0.2631 0.2631 0.2631
3235.000000 0.2631 0.2629 0.2614 0.2598 0.2582
3230.000000 0.2567 0.2551 0.2535 0.2520 0.2505
3225.000000 0.2489 0.2473 0.2457 0.2441 0.2425
3220.000000 0.2410 0.2394 0.2378 0.2363 0.2347
3215.000000 0.2331 0.2315 0.2300 0.2284 0.2268
3210.000000 0.2252 0.2235 0.2220 0.2204 0.2188
3205.000000 0.2172 0.2157 0.2141 0.2125 0.2109
3200.000000 0.2093 0.2077 0.2061 0.2045 0.2029
3195.000000 0.2013 0.1996 0.1981 0.1965 0.1949
3190.000000 0.1933 0.1917 0.1901 0.1884 0.1869
3185.000000 0.1853 0.1836 0.1821 0.1804 0.1787
3180.000000 0.1772 0.1756 0.1740 0.1724 0.1708
3175.000000 0.1691 0.1675 0.1659 0.1643 0.1627
3170.000000 0.1611 0.1594 0.1578 0.1562 0.1545
3165.000000 0.1529 0.1512 0.1496 0.1480 0.1464
3160.000000 0.1455 0.1453 0.1451 0.1448 0.1446
3155.000000 0.1446 0.1446 0.1446 0.1446 0.1446
3150.000000 0.1446 0.1446 0.1449 0.1456 0.1462
3145.000000 0.1428 0.1481 0.1498 0.1515 0.1532
3140.000000 0.1548 0.1565 0.1581 0.1598 0.1614
3135.000000 0.1631 0.1648 0.1665 0.1681 0.1698
3130.000000 0.1714 0.1731 0.1748 0.1765 0.1782
3125.000000 0.1799 0.1815 0.1832 0.1849 0.1866
3120.000000 0.1883 0.1900 0.1916 0.1933 0.1950
3115.000000 0.1967 0.1984 0.2001 0.2018 0.2034
3110.000000 0.2051 0.2068 0.2084 0.2102 0.2119
3105.000000 0.2137 0.2154 0.2171 0.2188 0.2205
3100.000000 0.2222 0.2239 0.2256 0.2258 0.2259
3095.000000 0.2245 0.2262 0.2262 0.2263 0.2264
3090.000000 0.2265 0.2265 0.2266 0.2267 0.2268
3085.000000 0.2269 0.2270 0.2271 0.2272 0.2273
3080.000000 0.2274 0.2274 0.2275 0.2276 0.2277
3075.000000 0.2278 0.2278 0.2279 0.2280 0.2281
3070.000000 0.2281 0.2282 0.2283 0.2284 0.2284
3065.000000 0.2284 0.2284 0.2284 0.2284 0.2284
3060.000000 0.2284 0.2285 0.2285 0.2285 0.2285
3055.000000 0.2285 0.2285 0.2285 0.2287 0.2287
3050.000000 0.2287 0.2287 0.2288 0.2288 0.2288
3045.000000 0.2289 0.2289 0.2289 0.2289 0.2290
3040.000000 0.2290 0.2290 0.2290 0.2290 0.2290
3035.000000 0.2289 0.2289 0.2288 0.2287 0.2285
3030.000000 0.2284 0.2284 0.2284 0.2283 0.2282
3025.000000 0.2281 0.2280 0.2280 0.2279 0.2278
3020.000000 0.2278 0.2277 0.2276 0.2276 0.2275
3015.000000 0.2274 0.2273 0.2272 0.2271 0.2271
3010.000000 0.2270 0.2269 0.2268 0.2267 0.2266
3005.000000 0.2266 0.2265 0.2264 0.2264 0.2263
3000.000000 0.2262 0.2262 0.2261 0.2260 0.2259
2995.000000 0.2258 0.2257 0.2257 0.2256 0.2256
2990.000000 0.2255 0.2254 0.2253 0.2253 0.2252
2985.000000 0.2251 0.2251 0.2250 0.2250 0.2249
2980.000000 0.2249 0.2248 0.2247 0.2246 0.2245
2975.000000 0.2244 0.2244 0.2277 0.2241 0.2239
2970.000000 0.2237 0.2234 0.2233 0.2231 0.2228
2965.000000 0.2224 0.2217 0.2211 0.2205 0.2198
2960.000000 0.2191 0.2184 0.2177 0.2170 0.2163
2955.000000 0.2156 0.2148 0.2139 0.2131 0.2123
2950.000000 0.2114 0.2106 0.2098 0.2089 0.2081
2945.000000 0.2073 0.2064 0.2055 0.2046 0.2036
2940.000000 0.2026 0.2014 0.2002 0.1990 0.1978
2935.000000 0.1966 0.1954 0.1943 0.1931 0.1919
2930.000000 0.1910 0.1902 0.1894 0.1885 0.1881
2925.000000 0.1876 0.1871 0.1865 0.1860 0.1854
2920.000000 0.1850 0.1844 0.1839 0.1834 0.1829
2915.000000 0.1824 0.1819 0.1815 0.1811 0.1808
2910.000000 0.1804 0.1803 0.1801 0.1799 0.1795
2905.000000 0.1794 0.1791 0.1789 0.1786 0.1784
2900.000000 0.1783 0.1782 0.1781 0.1779 0.1779
2895.000000 0.1778 0.1777 0.1776 0.1776 0.1775
2890.000000 0.1774 0.1773 0.1773 0.1772 0.1771
2885.000000 0.1770 0.1770 0.1769 0.1769 0.1768
2880.000000 0.1768 0.1768 0.1769 0.1769 0.1771
2875.000000 0.1772 0.1764 0.1776 0.1778 0.1779
2870.000000 0.1782 0.1784 0.1785 0.1787 0.1791
2865.000000 0.1793 0.1795 0.1802 0.1810 0.1818
2860.000000 0.1826 0.1835 0.1844 0.1854 0.1864
2855.000000 0.1873 0.1882 0.1892 0.1901 0.1911
2850.000000 0.1920 0.1929 0.1939 0.1948 0.1958
2845.000000 0.1967 0.1977 0.1989 0.2000 0.2011
2840.000000 0.2024 0.2036 0.2050 0.2063 0.2076
2835.000000 0.2089 0.2101 0.2114 0.2127 0.2140
2830.000000 0.2153 0.2165 0.2178 0.2191 0.2204
2825.000000 0.2217 0.2228 0.2238 0.2249 0.2260
2820.000000 0.2270 0.2281 0.2292 0.2302 0.2313
2815.000000 0.2324 0.2334 0.2345 0.2355 0.2366
2810.000000 0.2377 0.2387 0.2398 0.2409 0.2420
2805.000000 0.2431 0.2441 0.2452 0.2463 0.2473
2800.000000 0.2484 0.2494 0.2505 0.2516 0.2528
2795.000000 0.2540 0.2552 0.2564 0.2576 0.2588
2790.000000 0.2601 0.2613 0.2626 0.2638 0.2651
2785.000000 0.2663 0.2675 0.2687 0.2700 0.2712
2780.000000 0.2724 0.2737 0.2750 0.2762 0.2774
2775.000000 0.2787 0.2799 0.2812 0.2825 0.2837
2770.000000 0.2850 0.2862 0.2874 0.2887 0.2900
2765.000000 0.2913 0.2925 0.2937 0.2950 0.2963
2760.000000 0.2976 0.2988 0.3001 0.3013 0.3026
2755.000000 0.3039 0.3052 0.3064 0.3076 0.3087
2750.000000 0.3098 0.3107 0.3116 0.3125 0.3133
2745.000000 0.3142 0.3151 0.3159 0.3168 0.3176
2740.000000 0.3184 0.3194 0.3203 0.3212 0.3221
2735.000000 0.3229 0.3238 0.3247 0.3256 0.3264
2730.000000 0.3273 0.3282 0.3290 0.3298 0.3307
2725.000000 0.3314 0.3323 0.3330 0.3339 0.3347
2720.000000 0.3355 0.3362 0.3372 0.3380 0.3388
2715.000000 0.3396 0.3404 0.3412 0.3420 0.3428
2710.000000 0.3436 0.3444 0.3452 0.3459 0.3468
2705.000000 0.3477 0.3484 0.3493 0.3500 0.3509
2700.000000 0.3518 0.3525 0.3532 0.3540 0.3546
2695.000000 0.3553 0.3559 0.3566 0.3572 0.3579
2690.000000 0.3584 0.3592 0.3599 0.3605 0.3612
2685.000000 0.3618 0.3625 0.3632 0.3638 0.3645
2680.000000 0.3650 0.3658 0.3664 0.3671 0.3678
2675.000000 0.3684 0.3691 0.3698 0.3704 0.3710
2670.000000 0.3716 0.3723 0.3729 0.3732 0.3737
2665.000000 0.3742 0.3746 0.3750 0.3754 0.3758
2660.000000 0.3762 0.3766 0.3770 0.3774 0.3779
2655.000000 0.3782 0.3787 0.3791 0.3796 0.3800
2650.000000 0.3804 0.3809 0.3812 0.3818 0.3822
2645.000000 0.3827 0.3832 0.3837 0.3842 0.3848
2640.000000 0.3853 0.3858 0.3864 0.3868 0.3874
2635.000000 0.3879 0.3884 0.3890 0.3895 0.3900
2630.000000 0.3905 0.3909 0.3912 0.3916 0.3921
2625.000000 0.3924 0.3928 0.3932 0.3934 0.3939
2620.000000 0.3942 0.3946 0.3950 0.3952 0.3954
2615.000000 0.3957 0.3957 0.3958 0.3959 0.3959
2610.000000 0.3959 0.3960 0.3962 0.3962 0.3962
2605.000000 0.3964 0.3964 0.3966 0.3966 0.3968
2600.000000 0.3971 0.3973 0.3975 0.3978 0.3980
2595.000000 0.3982 0.3984 0.3987 0.3990 0.3992
2590.000000 0.3995 0.3998 0.4000 0.4008 0.4014
2585.000000 0.4022 0.4029 0.4036 0.4043 0.4050
2580.000000 0.4056 0.4062 0.4071 0.4078 0.4084
2575.000000 0.4093 0.4103 0.4114 0.4126 0.4137
2570.000000 0.4148 0.4160 0.4171 0.4182 0.4194
2565.000000 0.4205 0.4217 0.4228 0.4240 0.4251
2560.000000 0.4262 0.4274 0.4284 0.4295 0.4305
2555.000000 0.4315 0.4325 0.4335 0.4345 0.4355
2550.000000 0.4365 0.4375 0.4385 0.4395 0.4406
2545.000000 0.4416 0.4426 0.4436 0.4446 0.4456
2540.000000 0.4467 0.4478 0.4489 0.4500 0.4510
2535.000000 0.4522 0.4533 0.4544 0.4554 0.4564
2530.000000 0.4573 0.4581 0.4588 0.4595 0.4603
2525.000000 0.4610 0.4618 0.4625 0.4631 0.4636
2520.000000 0.4640 0.4645 0.4649 0.4653 0.4658
2515.000000 0.4662 0.4668 0.4672 0.4677 0.4682
2510.000000 0.4687 0.4691 0.4696 0.4701 0.4705
2505.000000 0.4710 0.4716 0.4722 0.4730 0.4740
2500.000000 0.4750 0.4759 0.4769 0.4779 0.4789
2495.000000 0.4799 0.4808 0.4818 0.4827 0.4836
2490.000000 0.4845 0.4854 0.4862 0.4873 0.4881
2485.000000 0.4890 0.4900 0.4909 0.4918 0.4927
2480.000000 0.4936 0.4945 0.4954 0.4962 0.4972
2475.000000 0.4982 0.4991 0.5001 0.5010 0.5022
2470.000000 0.5032 0.5043 0.5054 0.5064 0.5075
2465.000000 0.5085 0.5096 0.5106 0.5117 0.5128
2460.000000 0.5138 0.5149 0.5160 0.5171 0.5181
2455.000000 0.5192 0.5203 0.5214 0.5224 0.5235
2450.000000 0.5246 0.5256 0.5267 0.5277 0.5287
2445.000000 0.5298 0.5308 0.5319 0.5329 0.5340
2440.000000 0.5351 0.5362 0.5372 0.5383 0.5393
2435.000000 0.5404 0.5414 0.5425 0.5436 0.5446
2430.000000 0.5457 0.5469 0.5481 0.5493 0.5505
2425.000000 0.5516 0.5528 0.5540 0.5552 0.5564
2420.000000 0.5576 0.5588 0.5600 0.5612 0.5624
2415.000000 0.5637 0.5650 0.5664 0.5680 0.5696
2410.000000 0.5712 0.5729 0.5745 0.5762 0.5778
2405.000000 0.5793 0.5807 0.5820 0.5833 0.5845
2400.000000 0.5857 0.5868 0.5877 0.5885 0.5893
2395.000000 0.5901 0.5909 0.5917 0.5925 0.5933
2390.000000 0.5941 0.5946 0.5950 0.5954 0.5958
2385.000000 0.5960 0.5964 0.5967 0.5970 0.5973
2380.000000 0.5977 0.5980 0.5984 0.5987 0.5990
2375.000000 0.5993 0.5996 0.6000 0.6003 0.6007
2370.000000 0.6010 0.6014 0.6019 0.6023 0.6028
2365.000000 0.6032 0.6037 0.6041 0.6046 0.6050
2360.000000 0.6055 0.6059 0.6064 0.6068 0.6073
2355.000000 0.6077 0.6082 0.6087 0.6092 0.6100
2350.000000 0.6108 0.6117 0.6126 0.6135 0.6144
2345.000000 0.6153 0.6162 0.6172 0.6181 0.6190
2340.000000 0.6199 0.6208 0.6217 0.6226 0.6234
2335.000000 0.6243 0.6252 0.6260 0.6268 0.6277
2330.000000 0.6285 0.6294 0.6302 0.6310 0.6319
2325.000000 0.6327 0.6336 0.6344 0.6353 0.6362
2320.000000 0.6370 0.6378 0.6387 0.6395 0.6404
2315.000000 0.6412 0.6421 0.6428 0.6437 0.6445
2310.000000 0.6453 0.6460 0.6468 0.6475 0.6483
2305.000000 0.6490 0.6498 0.6505 0.6512 0.6519
2300.000000 0.6528 0.6536 0.6544 0.6551 0.6560
2295.000000 0.6568 0.6576 0.6585 0.6593 0.6601
2290.000000 0.6608 0.6617 0.6621 0.6628 0.6632
2285.000000 0.6636 0.6640 0.6644 0.6648 0.6651
2280.000000 0.6656 0.6661 0.6665 0.6671 0.6678
2275.000000 0.6683 0.6689 0.6694 0.6699 0.6705
2270.000000 0.6710 0.6715 0.6721 0.6726 0.6733
2265.000000 0.6740 0.6748 0.6757 0.6767 0.6775
2260.000000 0.6785 0.6795 0.6805 0.6814 0.6824
2255.000000 0.6833 0.6843 0.6854 0.6865 0.6878
2250.000000 0.6894 0.6908 0.6921 0.6936 0.6950
2245.000000 0.6964 0.6978 0.6991 0.7004 0.7015
2240.000000 0.7026 0.7032 0.7036 0.7041 0.7045
2235.000000 0.7050 0.7054 0.7057 0.7061 0.7064
2230.000000 0.7067 0.7071 0.7074 0.7078 0.7081
2225.000000 0.7084 0.7087 0.7091 0.7094 0.7097
2220.000000 0.7099 0.7101 0.7104 0.7106 0.7108
2215.000000 0.7110 0.7111 0.7115 0.7117 0.7118
2210.000000 0.7121 0.7122 0.7125 0.7125 0.7125
2205.000000 0.7125 0.7126 0.7126 0.7128 0.7128
2200.000000 0.7130 0.7130 0.7134 0.7139 0.7146
2195.000000 0.7153 0.7161 0.7168 0.7175 0.7183
2190.000000 0.7186 0.7190 0.7191 0.7193 0.7195
2185.000000 0.7197 0.7199 0.7200 0.7201 0.7203
2180.000000 0.7205 0.7206 0.7208 0.7210 0.7211
2175.000000 0.7214 0.7215 0.7217 0.7218 0.7221
2170.000000 0.7222 0.7224 0.7225 0.7228 0.7228
2165.000000 0.7231 0.7233 0.7234 0.7235 0.7236
2160.000000 0.7237 0.7237 0.7238 0.7240 0.7240
2155.000000 0.7241 0.7242 0.7243 0.7243 0.7244
2150.000000 0.7244 0.7245 0.7245 0.7245 0.7245
2145.000000 0.7238 0.7238 0.7238 0.7207 0.7164
2140.000000 0.7105 0.7024 0.6978 0.6960 0.6941
2135.000000 0.6922 0.6906 0.6890 0.6875 0.6860
2130.000000 0.6846 0.6834 0.6825 0.6817 0.6810
2125.000000 0.6803 0.6796 0.6789 0.6782 0.6776
2120.000000 0.6772 0.6768 0.6764 0.6758 0.6755
2115.000000 0.6751 0.6751 0.6751 0.6753 0.6754
2110.000000 0.6755 0.6757 0.6760 0.6765 0.6771
2105.000000 0.6778 0.6784 0.6790 0.6797 0.6804
2100.000000 0.6819 0.6838 0.6856 0.6869 0.6874
2095.000000 0.6878 0.6884 0.6888 0.6892 0.6896
2090.000000 0.6901 0.6904 0.6907 0.6911 0.6914
2085.000000 0.6918 0.6921 0.6925 0.6928 0.6932
2080.000000 0.6935 0.6938 0.6941 0.6944 0.6951
2075.000000 0.6960 0.6971 0.6981 0.6991 0.7001
2070.000000 0.7011 0.7021 0.7033 0.7043 0.7054
2065.000000 0.7065 0.7078 0.7090 0.7103 0.7115
2060.000000 0.7128 0.7141 0.7154 0.7167 0.7180
2055.000000 0.7193 0.7207 0.7219 0.7233 0.7246
2050.000000 0.7258 0.7271 0.7285 0.7298 0.7311
2045.000000 0.7325 0.7339 0.7351 0.7365 0.7378
2040.000000 0.7392 0.7406 0.7418 0.7432 0.7445
2035.000000 0.7458 0.7472 0.7487 0.7501 0.7515
2030.000000 0.7528 0.7543 0.7557 0.7571 0.7585
2025.000000 0.7599 0.7614 0.7628 0.7642 0.7656
2020.000000 0.7669 0.7683 0.7696 0.7708 0.7719
2015.000000 0.7732 0.7744 0.7756 0.7768 0.7780
2010.000000 0.7791 0.7803 0.7815 0.7826 0.7838
2005.000000 0.7850 0.7861 0.7874 0.7887 0.7899
2000.000000 0.7911 0.7921 0.7935 0.7947 0.7960
1995.000000 0.7971 0.7985 0.7998 0.8011 0.8024
1990.000000 0.8036 0.8049 0.8061 0.8074 0.8087
1985.000000 0.8100 0.8112 0.8125 0.8139 0.8151
1980.000000 0.8165 0.8178 0.8191 0.8203 0.8216
1975.000000 0.8230 0.8243 0.8256 0.8268 0.8282
1970.000000 0.8295 0.8309 0.8321 0.8335 0.8348
1965.000000 0.8360 0.8371 0.8382 0.8391 0.8397
1960.000000 0.8402 0.8407 0.8412 0.8417 0.8421
1955.000000 0.8425 0.8430 0.8435 0.8439 0.8442
1950.000000 0.8446 0.8448 0.8451 0.8454 0.8456
1945.000000 0.8461 0.8467 0.8471 0.8477 0.8483
1940.000000 0.8489 0.8494 0.8499 0.8505 0.8511
1935.000000 0.8517 0.8523 0.8530 0.8536 0.8543
1930.000000 0.8550 0.8556 0.8562 0.8568 0.8575
1925.000000 0.8582 0.8588 0.8595 0.8601 0.8608
1920.000000 0.8614 0.8620 0.8625 0.8631 0.8637
1915.000000 0.8642 0.8648 0.8652 0.8658 0.8663
1910.000000 0.8668 0.8674 0.8680 0.8686 0.8697
1905.000000 0.8708 0.8718 0.8728 0.8740 0.8750
1900.000000 0.8761 0.8770 0.8777 0.8782 0.8786
1895.000000 0.8792 0.8797 0.8802 0.8808 0.8815
1890.000000 0.8824 0.8832 0.8840 0.8849 0.8857
1885.000000 0.8866 0.8874 0.8883 0.8891 0.8899
1880.000000 0.8908 0.8916 0.8925 0.8933 0.8943
1875.000000 0.8951 0.8959 0.8966 0.8974 0.8982
1870.000000 0.8989 0.8997 0.9005 0.9013 0.9021
1865.000000 0.9028 0.9035 0.9040 0.9045 0.9050
1860.000000 0.9054 0.9059 0.9064 0.9068 0.9074
1855.000000 0.9078 0.9084 0.9089 0.9094 0.9099
1850.000000 0.9104 0.9109 0.9113 0.9116 0.9118
1845.000000 0.9120 0.9121 0.9123 0.9125 0.9125
1840.000000 0.9128 0.9130 0.9132 0.9134 0.9136
1835.000000 0.9136 0.9136 0.9136 0.9135 0.9135
1830.000000 0.9134 0.9134 0.9134 0.9134 0.9133
1825.000000 0.9133 0.9131 0.9130 0.9128 0.9127
1820.000000 0.9125 0.9125 0.9123 0.9121 0.9120
1815.000000 0.9118 0.9118 0.9118 0.9118 0.9117
1810.000000 0.9117 0.9117 0.9116 0.9116 0.9115
1805.000000 0.9112 0.9108 0.9103 0.9098 0.9092
1800.000000 0.9078 0.9062 0.9048 0.9036 0.9027
1795.000000 0.9017 0.9009 0.9002 0.8997 0.8991
1790.000000 0.8987 0.8981 0.8975 0.8971 0.8965
1785.000000 0.8960 0.8954 0.8948 0.8941 0.8933
1780.000000 0.8924 0.8915 0.8907 0.8898 0.8889
1775.000000 0.8877 0.8862 0.8846 0.8830 0.8813
1770.000000 0.8796 0.8778 0.8762 0.8741 0.8721
1765.000000 0.8701 0.8680 0.8660 0.8639 0.8618
1760.000000 0.8599 0.8578 0.8556 0.8520 0.8388
1755.000000 0.8236 0.8117 0.8057 0.7999 0.7948
1750.000000 0.7899 0.7848 0.7797 0.7744 0.7685
1745.000000 0.7625 0.7567 0.7510 0.7457 0.7403
1740.000000 0.7346 0.7282 0.7215 0.7151 0.7090
1735.000000 0.7034 0.6974 0.6819 0.6678 0.6586
1730.000000 0.6496 0.6411 0.6355 0.6308 0.6270
1725.000000 0.6237 0.6200 0.6118 0.5989 0.5856
1720.000000 0.5724 0.5591 0.5458 0.5325 0.5187
1715.000000 0.5020 0.4883 0.4762 0.4600 0.4332
1710.000000 0.3934 0.3734 0.3532 0.3329 0.3126
1705.000000 0.2923 0.2719 0.2515 0.2312 0.2107
1700.000000 0.1902 0.1717 0.1592 0.1537 0.1469
1695.000000 0.1392 0.1225 0.1131 0.1067 0.1010
1690.000000 0.0958 0.0913 0.0887 0.0872 0.0865
1685.000000 0.0855 0.0854 0.0853 0.0868 0.0919
1680.000000 0.0986 0.1052 0.1118 0.1184 0.1251
1675.000000 0.1310 0.1345 0.1358 0.1366 0.1389
1670.000000 0.1383 0.1383 0.1383 0.1382 0.1366
1665.000000 0.1346 0.1331 0.1318 0.1308 0.1304
1660.000000 0.1299 0.1295 0.1290 0.1286 0.1281
1655.000000 0.1278 0.1277 0.1276 0.1275 0.1274
1650.000000 0.1273 0.1273 0.1273 0.1274 0.1274
1645.000000 0.1275 0.1279 0.1290 0.1290 0.1300
1640.000000 0.1309 0.1337 0.1405 0.1490 0.1575
1635.000000 0.1661 0.1745 0.1832 0.1917 0.2003
1630.000000 0.2089 0.2175 0.2261 0.2347 0.2433
1625.000000 0.2520 0.2606 0.2692 0.2779 0.2866
1620.000000 0.2953 0.3040 0.3126 0.3199 0.3214
1615.000000 0.3220 0.3227 0.3228 0.3229 0.3224
1610.000000 0.3218 0.3171 0.3093 0.3007 0.2921
1605.000000 0.2835 0.2750 0.2665 0.2579 0.2510
1600.000000 0.2470 0.2445 0.2426 0.2412 0.2398
1595.000000 0.2369 0.2306 0.2226 0.2146 0.2065
1590.000000 0.1984 0.1904 0.1823 0.1742 0.1662
1585.000000 0.1580 0.1499 0.1418 0.1337 0.1256
1580.000000 0.1187 0.1157 0.1145 0.1139 0.1128
1575.000000 0.1136 0.1142 0.1163 0.1204 0.1266
1570.000000 0.1359 0.1476 0.1592 0.1710 0.1827
1565.000000 0.1944 0.2063 0.2181 0.2298 0.2416
1560.000000 0.2534 0.2654 0.2772 0.2890 0.3010
1555.000000 0.3129 0.3248 0.3366 0.3486 0.3570
1550.000000 0.3612 0.3632 0.3673 0.3660 0.3666
1545.000000 0.3666 0.3658 0.3647 0.3626 0.3577
1540.000000 0.3418 0.3204 0.3083 0.2962 0.2840
1535.000000 0.2719 0.2597 0.2476 0.2353 0.2232
1530.000000 0.2109 0.2013 0.1896 0.1510 0.1434
1525.000000 0.1362 0.1313 0.1289 0.1278 0.1272
1520.000000 0.1271 0.1290 0.1287 0.1319 0.1362
1515.000000 0.1421 0.1496 0.1588 0.1685 0.1784
1510.000000 0.1884 0.1983 0.2082 0.2182 0.2281
1505.000000 0.2380 0.2480 0.2580 0.2680 0.2780
1500.000000 0.2880 0.2981 0.3081 0.3181 0.3282
1495.000000 0.3382 0.3484 0.3584 0.3687 0.3788
1490.000000 0.3889 0.3992 0.4093 0.4195 0.4297
1485.000000 0.4400 0.4502 0.4604 0.4707 0.4779
1480.000000 0.4810 0.4844 0.4835 0.4840 0.4845
1475.000000 0.4844 0.4825 0.4710 0.4454 0.4198
1470.000000 0.3941 0.3684 0.3368 0.3348 0.3338
1465.000000 0.3450 0.3712 0.3809 0.3837 0.3858
1460.000000 0.3874 0.3887 0.3896 0.3927 0.4022
1455.000000 0.4125 0.4229 0.4333 0.4437 0.4541
1450.000000 0.4645 0.4749 0.4854 0.4958 0.4993
1445.000000 0.4998 0.5005 0.5014 0.5028 0.5066
1440.000000 0.5101 0.5134 0.5183 0.5235 0.5267
1435.000000 0.5279 0.5300 0.5292 0.5296 0.5155
1430.000000 0.4951 0.4747 0.4543 0.4339 0.4134
1425.000000 0.3928 0.3723 0.3516 0.3312 0.3105
1420.000000 0.2899 0.2692 0.2484 0.2295 0.2206
1415.000000 0.2185 0.2153 0.2171 0.2175 0.2187
1410.000000 0.2209 0.2415 0.2600 0.2784 0.2970
1405.000000 0.3156 0.3342 0.3528 0.3709 0.3809
1400.000000 0.3818 0.3818 0.3818 0.3814 0.3810
1395.000000 0.3810 0.3810 0.3810 0.3816 0.3834
1390.000000 0.3876 0.3932 0.4007 0.4082 0.4160
1385.000000 0.4236 0.4312 0.4390 0.4467 0.4544
1380.000000 0.4622 0.4699 0.4776 0.4853 0.4931
1375.000000 0.5008 0.5065 0.5102 0.5086 0.5072
1370.000000 0.4925 0.4710 0.4498 0.4284 0.4070
1365.000000 0.3856 0.3641 0.3426 0.3210 0.2811
1360.000000 0.2818 0.2821 0.2823 0.3078 0.3300
1355.000000 0.3522 0.3746 0.3968 0.4192 0.4415
1350.000000 0.4565 0.4573 0.4569 0.4568 0.4572
1345.000000 0.4588 0.4615 0.4640 0.4659 0.4675
1340.000000 0.4679 0.4671 0.4674 0.4659 0.4637
1335.000000 0.4551 0.4302 0.4018 0.3734 0.3450
1330.000000 0.3188 0.3127 0.3094 0.3123 0.3149
1325.000000 0.3200 0.3232 0.3264 0.3289 0.3309
1320.000000 0.3332 0.3379 0.3426 0.3475 0.3527
1315.000000 0.3587 0.3648 0.3708 0.3752 0.3797
1310.000000 0.3842 0.3906 0.3988 0.4110 0.4229
1305.000000 0.4315 0.4400 0.4487 0.4589 0.4696
1300.000000 0.4800 0.4900 0.4985 0.5034 0.5060
1295.000000 0.5067 0.5095 0.5069 0.5032 0.4973
1290.000000 0.4892 0.4805 0.4844 0.4845 0.4847
1285.000000 0.4874 0.4914 0.4991 0.5069 0.5133
1280.000000 0.5197 0.5262 0.5327 0.5393 0.5425
1275.000000 0.5466 0.5446 0.5447 0.5417 0.5353
1270.000000 0.5162 0.5078 0.5043 0.5033 0.5007
1265.000000 0.5060 0.5114 0.5180 0.5241 0.5297
1260.000000 0.5353 0.5410 0.5462 0.5498 0.5529
1255.000000 0.5560 0.5593 0.5625 0.5655 0.5674
1250.000000 0.5693 0.5710 0.5729 0.5746 0.5765
1245.000000 0.5782 0.5794 0.5806 0.5818 0.5830
1240.000000 0.5841 0.5853 0.5862 0.5870 0.5878
1235.000000 0.5885 0.5892 0.5899 0.5902 0.5903
1230.000000 0.5904 0.5901 0.5898 0.5893 0.5885
1225.000000 0.5870 0.5853 0.5820 0.5783 0.5722
1220.000000 0.5647 0.5574 0.5505 0.5430 0.5334
1215.000000 0.5215 0.5228 0.5226 0.5238 0.5289
1210.000000 0.5350 0.5410 0.5472 0.5532 0.5565
1205.000000 0.5588 0.5610 0.5631 0.5675 0.5662
1200.000000 0.5654 0.5633 0.5599 0.5565 0.5532
1195.000000 0.5500 0.5468 0.5436 0.5402 0.5367
1190.000000 0.5331 0.5294 0.5257 0.5220 0.5183
1185.000000 0.5146 0.5103 0.5056 0.5009 0.4960
1180.000000 0.4912 0.4866 0.4803 0.4727 0.4595
1175.000000 0.4538 0.4483 0.4527 0.4582 0.4719
1170.000000 0.4876 0.5012 0.5131 0.5237 0.5325
1165.000000 0.5414 0.5484 0.5537 0.5591 0.5645
1160.000000 0.5697 0.5738 0.5780 0.5821 0.5862
1155.000000 0.5902 0.5929 0.5957 0.5984 0.6012
1150.000000 0.6036 0.6053 0.6070 0.6087 0.6106
1145.000000 0.6104 0.6097 0.6037 0.5905 0.5752
1140.000000 0.5604 0.5379 0.5133 0.5060 0.5005
1135.000000 0.4943 0.4939 0.4938 0.4973 0.5033
1130.000000 0.5081 0.5130 0.5177 0.5215 0.5249
1125.000000 0.5282 0.5317 0.5349 0.5380 0.5399
1120.000000 0.5414 0.5426 0.5433 0.5440 0.5447
1115.000000 0.5454 0.5459 0.5480 0.5466 0.5469
1110.000000 0.5471 0.5471 0.5471 0.5459 0.5447
1105.000000 0.5435 0.5421 0.5393 0.5366 0.5352
1100.000000 0.5340 0.5332 0.5336 0.5369 0.5429
1095.000000 0.5499 0.5571 0.5643 0.5706 0.5768
1090.000000 0.5822 0.5862 0.5876 0.5876 0.5876
1085.000000 0.5857 0.5840 0.5824 0.5812 0.5812
1080.000000 0.5838 0.5868 0.5900 0.5934 0.5968
1075.000000 0.6005 0.6048 0.6085 0.6099 0.6100
1070.000000 0.6101 0.6102 0.6112 0.6128 0.6144
1065.000000 0.6160 0.6152 0.6182 0.6158 0.6124
1060.000000 0.6101 0.6082 0.6066 0.6050 0.6040
1055.000000 0.6040 0.6052 0.6066 0.6082 0.6097
1050.000000 0.6098 0.6095 0.6079 0.6044 0.5960
1045.000000 0.6003 0.6020 0.6037 0.6175 0.6274
1040.000000 0.6351 0.6421 0.6475 0.6524 0.6558
1035.000000 0.6578 0.6592 0.6605 0.6555 0.6522
1030.000000 0.6464 0.6372 0.6251 0.6117 0.5981
1025.000000 0.5845 0.5709 0.5622 0.5606 0.5606
1020.000000 0.5606 0.5634 0.5736 0.5845 0.5953
1015.000000 0.6051 0.6142 0.6233 0.6309 0.6383
1010.000000 0.6461 0.6540 0.6593 0.6640 0.6684
1005.000000 0.6728 0.6765 0.6806 0.6795 0.6771
1000.000000 0.6715 0.6626 0.6524 0.6375 0.6375
995.000000 0.6375 0.6407 0.6460 0.6517 0.6572
990.000000 0.6638 0.6706 0.6772 0.6838 0.6884
985.000000 0.6930 0.6975 0.7010 0.7040 0.7068
980.000000 0.7090 0.7105 0.7111 0.7111 0.7104
975.000000 0.7092 0.7075 0.7053 0.7030 0.7007
970.000000 0.6984 0.6972 0.6980 0.6989 0.7001
965.000000 0.7019 0.7036 0.7051 0.7069 0.7087
960.000000 0.7100 0.7112 0.7145 0.7182 0.7199
955.000000 0.7211 0.7222 0.7236 0.7248 0.7260
950.000000 0.7271 0.7285 0.7297 0.7310 0.7321
945.000000 0.7335 0.7345 0.7355 0.7362 0.7372
940.000000 0.7382 0.7391 0.7400 0.7408 0.7418
935.000000 0.7424 0.7430 0.7437 0.7442 0.7449
930.000000 0.7455 0.7462 0.7472 0.7485 0.7501
925.000000 0.7514 0.7525 0.7538 0.7550 0.7562
920.000000 0.7576 0.7592 0.7600 0.7601 0.7595
915.000000 0.7595 0.7595 0.7598 0.7607 0.7615
910.000000 0.7625 0.7638 0.7650 0.7680 0.7675
905.000000 0.7658 0.7632 0.7584 0.7431 0.7225
900.000000 0.7018 0.6811 0.6611 0.6534 0.6580
895.000000 0.6668 0.6815 0.6984 0.7106 0.7218
890.000000 0.7297 0.7371 0.7421 0.7472 0.7518
885.000000 0.7555 0.7591 0.7628 0.7664 0.7694
880.000000 0.7725 0.7754 0.7780 0.7799 0.7798
875.000000 0.7784 0.7778 0.7799 0.7821 0.7843
870.000000 0.7861 0.7876 0.7903 0.7896 0.7891
865.000000 0.7878 0.7850 0.7806 0.7701 0.7440
860.000000 0.7181 0.6922 0.6662 0.6493 0.6481
855.000000 0.6495 0.6536 0.6565 0.6500 0.6024
850.000000 0.5462 0.5412 0.5481 0.5697 0.6043
845.000000 0.6386 0.6600 0.6745 0.6885 0.6989
840.000000 0.7093 0.7178 0.7257 0.7325 0.7383
835.000000 0.7439 0.7478 0.7519 0.7558 0.7594
830.000000 0.7628 0.7654 0.7669 0.7682 0.7695
825.000000 0.7707 0.7717 0.7732 0.7748 0.7778
820.000000 0.7818 0.7853 0.7868 0.7845 0.7821
815.000000 0.7808 0.7799 0.7801 0.7825 0.7849
810.000000 0.7850 0.7860 0.7857 0.7848 0.7830
805.000000 0.7811 0.7774 0.7730 0.7656 0.7564
800.000000 0.7401 0.7180 0.6962 0.6765 0.6605
795.000000 0.6599 0.6585 0.6535 0.6512 0.6567
790.000000 0.6669 0.6810 0.6951 0.7089 0.7184
785.000000 0.7272 0.7321 0.7368 0.7401 0.7428
780.000000 0.7455 0.7471 0.7490 0.7508 0.7515
775.000000 0.7515 0.7517 0.7528 0.7524 0.7518
770.000000 0.7496 0.7468 0.7440 0.7397 0.7349
765.000000 0.7286 0.7194 0.7084 0.6958 0.6556
760.000000 0.6327 0.6171 0.6110 0.6134 0.6246
755.000000 0.6356 0.6461 0.6531 0.6511 0.6457
750.000000 0.6358 0.6233 0.6128 0.6071 0.6145
745.000000 0.6244 0.6382 0.6478 0.6534 0.6618
740.000000 0.6589 0.6586 0.6581 0.6565 0.6544
735.000000 0.6512 0.6465 0.6398 0.6308 0.6231
730.000000 0.6149 0.6066 0.5990 0.5909 0.5841
725.000000 0.5749 0.5755 0.5759 0.5796 0.5841
720.000000 0.5868 0.5890 0.5895 0.5881 0.5824
715.000000 0.5749 0.5674 0.5615 0.5555 0.5495
710.000000 0.5431 0.5364 0.5301 0.5252 0.5222
705.000000 0.5200 0.5168 0.5118 0.5069 0.5056
700.000000 0.5042 0.5040 0.5070 0.5094 0.5104
695.000000 0.5156 0.5237 0.5322 0.5384 0.5442
690.000000 0.5507 0.5573 0.5639 0.5700 0.5760
685.000000 0.5815 0.5853 0.5884 0.5902 0.5914
680.000000 0.5910 0.5909 0.5905 0.5873 0.5850
675.000000 0.5828 0.5815 0.5825 0.5862 0.5881
670.000000 0.5868 0.5859
##END=
