##TITLE=2,4-Quinolinediol, 4-sodium salt- (primarily keto form)
##JCAMP-DX=4.24
$$ By DXEDIT 1.05 (RS McDonald)
##DATA TYPE=INFRARED SPECTRUM
##CLASS=COBLENTZ III
##ORIGIN=DOW CHEMICAL COMPANY
##OWNER=COPYRIGHT (C) 1988 by COBLENTZ SOCIETY INC.
Collection (C) 2018 copyright by the U.S. Secretary of Commerce
on behalf of the United States of America. All rights reserved.
##DATE=1966/01/21
##MOLFORM=C9 H6 N Na O2
##SOURCE REFERENCE=COBLENTZ NO. 08910
##$NIST ID=B6008910
##$NIST SOURCE=COBLENTZ
##$NIST IMAGE=cob8910
##SPECTROMETER/DATA SYSTEM=DOW KBr FOREPRISM-GRATING
##INSTRUMENT PARAMETERS=BLAZED AT 3.5, 12.0, 20.0 MICRON AND CHANGED AT 5.0, 7.5, 14.9 MICRON
##STATE=SOLID (SPLIT MULL), FLUOROLUBE FOR 3800-1330 CM^-^1, NUJOL FOR 1330-460 CM^-^1
$$ STRUCTURE VERIFIED, CLASS II TECHNICAL QUALITY; VERIFYING SPECTRUM MAY BE FROM SAME SOURCE
##SAMPLING PROCEDURE=TRANSMISSION
##RESOLUTION=2
##DATA PROCESSING=DIGITIZED BY COBLENTZ SOCIETY (BATCH I) FROM HARD COPY
##XUNITS=1/CM
##YUNITS=TRANSMITTANCE
##XFACTOR=1
##YFACTOR=1
##DELTAX=1
##FIRSTX=3824
##LASTX=460
##FIRSTY=0.5932
##MAXX=3824
##MINX=460
##MAXY=0.8784
##MINY=0.0524
##NPOINTS=3365
##XYDATA=(X++(Y..Y))
3824.000000 0.5932 0.5932 0.5933 0.5934 0.5935
3819.000000 0.5936 0.5937 0.5938 0.5939 0.5939
3814.000000 0.5940 0.5941 0.5942 0.5943 0.5944
3809.000000 0.5945 0.5946 0.5946 0.5947 0.5948
3804.000000 0.5949 0.5950 0.5952 0.5954 0.5956
3799.000000 0.5957 0.5959 0.5960 0.5962 0.5964
3794.000000 0.5966 0.5968 0.5970 0.5972 0.5974
3789.000000 0.5976 0.5978 0.5980 0.5982 0.5984
3784.000000 0.5986 0.5988 0.5990 0.5992 0.5995
3779.000000 0.5997 0.6000 0.6002 0.6004 0.6006
3774.000000 0.6009 0.6010 0.6012 0.6015 0.6018
3769.000000 0.6021 0.6024 0.6027 0.6031 0.6034
3764.000000 0.6037 0.6040 0.6043 0.6046 0.6049
3759.000000 0.6052 0.6055 0.6058 0.6060 0.6064
3754.000000 0.6067 0.6069 0.6072 0.6074 0.6077
3749.000000 0.6078 0.6080 0.6081 0.6083 0.6084
3744.000000 0.6086 0.6087 0.6089 0.6090 0.6091
3739.000000 0.6091 0.6092 0.6092 0.6093 0.6093
3734.000000 0.6094 0.6094 0.6095 0.6095 0.6096
3729.000000 0.6097 0.6098 0.6098 0.6099 0.6099
3724.000000 0.6100 0.6100 0.6101 0.6101 0.6102
3719.000000 0.6102 0.6103 0.6103 0.6104 0.6105
3714.000000 0.6106 0.6106 0.6107 0.6108 0.6109
3709.000000 0.6109 0.6128 0.6110 0.6112 0.6112
3704.000000 0.6114 0.6115 0.6116 0.6119 0.6123
3699.000000 0.6127 0.6132 0.6136 0.6141 0.6146
3694.000000 0.6151 0.6155 0.6160 0.6162 0.6166
3689.000000 0.6167 0.6168 0.6169 0.6171 0.6172
3684.000000 0.6173 0.6174 0.6176 0.6177 0.6178
3679.000000 0.6178 0.6178 0.6178 0.6178 0.6178
3674.000000 0.6178 0.6178 0.6178 0.6178 0.6178
3669.000000 0.6178 0.6178 0.6177 0.6177 0.6176
3664.000000 0.6175 0.6173 0.6171 0.6169 0.6167
3659.000000 0.6165 0.6162 0.6160 0.6159 0.6157
3654.000000 0.6155 0.6153 0.6151 0.6149 0.6147
3649.000000 0.6145 0.6143 0.6141 0.6140 0.6138
3644.000000 0.6137 0.6135 0.6134 0.6132 0.6131
3639.000000 0.6129 0.6128 0.6126 0.6125 0.6123
3634.000000 0.6122 0.6121 0.6120 0.6119 0.6119
3629.000000 0.6118 0.6117 0.6116 0.6115 0.6114
3624.000000 0.6114 0.6112 0.6112 0.6110 0.6110
3619.000000 0.6109 0.6109 0.6109 0.6109 0.6108
3614.000000 0.6108 0.6107 0.6107 0.6107 0.6107
3609.000000 0.6106 0.6106 0.6105 0.6104 0.6103
3604.000000 0.6103 0.6102 0.6101 0.6100 0.6099
3599.000000 0.6098 0.6098 0.6085 0.6073 0.6060
3594.000000 0.6048 0.6035 0.6022 0.6010 0.6001
3589.000000 0.6003 0.6006 0.6009 0.6012 0.6016
3584.000000 0.6019 0.6022 0.6026 0.6029 0.6033
3579.000000 0.6036 0.6040 0.6040 0.6041 0.6042
3574.000000 0.6043 0.6043 0.6044 0.6044 0.6045
3569.000000 0.6045 0.6045 0.6045 0.6044 0.6042
3564.000000 0.6041 0.6039 0.6038 0.6037 0.6036
3559.000000 0.6034 0.6033 0.6031 0.6030 0.6029
3554.000000 0.6028 0.6025 0.6023 0.6020 0.6017
3549.000000 0.6014 0.6012 0.6009 0.6006 0.6003
3544.000000 0.6001 0.5998 0.5995 0.5992 0.5989
3539.000000 0.5986 0.5983 0.5979 0.5975 0.5971
3534.000000 0.5967 0.5962 0.5960 0.5956 0.5952
3529.000000 0.5948 0.5944 0.5940 0.5936 0.5932
3524.000000 0.5928 0.5924 0.5920 0.5916 0.5912
3519.000000 0.5908 0.5904 0.5900 0.5896 0.5892
3514.000000 0.5888 0.5882 0.5877 0.5871 0.5865
3509.000000 0.5859 0.5854 0.5848 0.5843 0.5837
3504.000000 0.5832 0.5826 0.5821 0.5815 0.5810
3499.000000 0.5804 0.5799 0.5793 0.5787 0.5780
3494.000000 0.5774 0.5767 0.5760 0.5754 0.5748
3489.000000 0.5741 0.5735 0.5728 0.5722 0.5715
3484.000000 0.5709 0.5702 0.5696 0.5689 0.5683
3479.000000 0.5676 0.5670 0.5662 0.5657 0.5650
3474.000000 0.5644 0.5638 0.5632 0.5626 0.5620
3469.000000 0.5612 0.5607 0.5601 0.5595 0.5589
3464.000000 0.5583 0.5577 0.5571 0.5562 0.5556
3459.000000 0.5549 0.5542 0.5535 0.5528 0.5521
3454.000000 0.5514 0.5507 0.5500 0.5487 0.5474
3449.000000 0.5456 0.5438 0.5419 0.5401 0.5383
3444.000000 0.5366 0.5354 0.5342 0.5333 0.5324
3439.000000 0.5317 0.5310 0.5304 0.5298 0.5291
3434.000000 0.5285 0.5278 0.5272 0.5265 0.5259
3429.000000 0.5252 0.5246 0.5239 0.5233 0.5226
3424.000000 0.5219 0.5212 0.5206 0.5199 0.5193
3419.000000 0.5186 0.5180 0.5173 0.5167 0.5160
3414.000000 0.5153 0.5147 0.5141 0.5135 0.5129
3409.000000 0.5122 0.5116 0.5110 0.5104 0.5098
3404.000000 0.5092 0.5086 0.5080 0.5073 0.5067
3399.000000 0.5060 0.5055 0.5049 0.5043 0.5037
3394.000000 0.5031 0.5024 0.5018 0.5012 0.5006
3389.000000 0.4998 0.4991 0.4983 0.4975 0.4967
3384.000000 0.4960 0.4952 0.4945 0.4937 0.4930
3379.000000 0.4922 0.4915 0.4907 0.4899 0.4891
3374.000000 0.4884 0.4876 0.4869 0.4860 0.4854
3369.000000 0.4846 0.4838 0.4830 0.4823 0.4815
3364.000000 0.4808 0.4800 0.4793 0.4785 0.4778
3359.000000 0.4771 0.4764 0.4756 0.4749 0.4742
3354.000000 0.4735 0.4728 0.4721 0.4714 0.4707
3349.000000 0.4700 0.4693 0.4685 0.4678 0.4670
3344.000000 0.4662 0.4653 0.4645 0.4636 0.4628
3339.000000 0.4619 0.4610 0.4601 0.4593 0.4581
3334.000000 0.4570 0.4557 0.4544 0.4531 0.4518
3329.000000 0.4505 0.4493 0.4480 0.4467 0.4453
3324.000000 0.4440 0.4426 0.4412 0.4399 0.4386
3319.000000 0.4372 0.4358 0.4344 0.4331 0.4317
3314.000000 0.4303 0.4289 0.4276 0.4260 0.4247
3309.000000 0.4233 0.4219 0.4204 0.4190 0.4175
3304.000000 0.4160 0.4147 0.4133 0.4120 0.4108
3299.000000 0.4096 0.4084 0.4072 0.4060 0.4049
3294.000000 0.4038 0.4026 0.4014 0.4002 0.3991
3289.000000 0.3980 0.3971 0.3960 0.3952 0.3942
3284.000000 0.3932 0.3923 0.3914 0.3900 0.3887
3279.000000 0.3873 0.3859 0.3846 0.3832 0.3823
3274.000000 0.3814 0.3805 0.3796 0.3788 0.3780
3269.000000 0.3776 0.3773 0.3768 0.3764 0.3760
3264.000000 0.3757 0.3752 0.3747 0.3742 0.3738
3259.000000 0.3734 0.3732 0.3729 0.3727 0.3725
3254.000000 0.3724 0.3724 0.3724 0.3724 0.3724
3249.000000 0.3724 0.3724 0.3730 0.3739 0.3744
3244.000000 0.3750 0.3755 0.3760 0.3766 0.3772
3239.000000 0.3777 0.3782 0.3787 0.3793 0.3797
3234.000000 0.3800 0.3805 0.3809 0.3814 0.3818
3229.000000 0.3823 0.3827 0.3830 0.3836 0.3838
3224.000000 0.3841 0.3843 0.3845 0.3847 0.3849
3219.000000 0.3849 0.3849 0.3844 0.3840 0.3834
3214.000000 0.3862 0.3826 0.3822 0.3816 0.3812
3209.000000 0.3808 0.3803 0.3794 0.3784 0.3776
3204.000000 0.3766 0.3757 0.3748 0.3728 0.3709
3199.000000 0.3689 0.3670 0.3647 0.3625 0.3598
3194.000000 0.3571 0.3544 0.3518 0.3491 0.3464
3189.000000 0.3437 0.3410 0.3384 0.3359 0.3334
3184.000000 0.3308 0.3287 0.3266 0.3249 0.3232
3179.000000 0.3216 0.3199 0.3183 0.3167 0.3152
3174.000000 0.3138 0.3124 0.3110 0.3101 0.3092
3169.000000 0.3083 0.3074 0.3065 0.3057 0.3048
3164.000000 0.3039 0.3033 0.3028 0.3028 0.3027
3159.000000 0.3017 0.3015 0.3014 0.3013 0.3012
3154.000000 0.3012 0.3015 0.3018 0.3035 0.3055
3149.000000 0.3069 0.3084 0.3098 0.3113 0.3128
3144.000000 0.3143 0.3158 0.3173 0.3191 0.3209
3139.000000 0.3228 0.3246 0.3264 0.3282 0.3300
3134.000000 0.3318 0.3336 0.3355 0.3373 0.3391
3129.000000 0.3407 0.3424 0.3440 0.3457 0.3473
3124.000000 0.3490 0.3506 0.3523 0.3539 0.3556
3119.000000 0.3571 0.3586 0.3597 0.3609 0.3620
3114.000000 0.3632 0.3643 0.3655 0.3666 0.3678
3109.000000 0.3688 0.3698 0.3707 0.3716 0.3724
3104.000000 0.3732 0.3742 0.3750 0.3758 0.3766
3099.000000 0.3773 0.3780 0.3788 0.3796 0.3804
3094.000000 0.3812 0.3820 0.3828 0.3834 0.3843
3089.000000 0.3845 0.3848 0.3849 0.3850 0.3852
3084.000000 0.3854 0.3856 0.3858 0.3859 0.3860
3079.000000 0.3862 0.3862 0.3862 0.3862 0.3862
3074.000000 0.3862 0.3862 0.3862 0.3862 0.3862
3069.000000 0.3862 0.3862 0.3862 0.3862 0.3862
3064.000000 0.3862 0.3868 0.3875 0.3893 0.3912
3059.000000 0.3941 0.3970 0.4016 0.4064 0.4098
3054.000000 0.4132 0.4152 0.4172 0.4191 0.4210
3049.000000 0.4227 0.4244 0.4259 0.4275 0.4288
3044.000000 0.4301 0.4312 0.4326 0.4334 0.4342
3039.000000 0.4348 0.4355 0.4360 0.4366 0.4370
3034.000000 0.4382 0.4382 0.4382 0.4376 0.4371
3029.000000 0.4355 0.4339 0.4301 0.4262 0.4235
3024.000000 0.4208 0.4195 0.4176 0.4182 0.4181
3019.000000 0.4180 0.4180 0.4184 0.4189 0.4197
3014.000000 0.4205 0.4210 0.4218 0.4225 0.4232
3009.000000 0.4235 0.4239 0.4242 0.4242 0.4243
3004.000000 0.4241 0.4221 0.4202 0.4143 0.4084
2999.000000 0.4043 0.4002 0.3964 0.3928 0.3908
2994.000000 0.3888 0.3879 0.3871 0.3866 0.3859
2989.000000 0.3859 0.3859 0.3859 0.3859 0.3862
2984.000000 0.3864 0.3866 0.3870 0.3884 0.3900
2979.000000 0.3916 0.3932 0.3949 0.3966 0.3982
2974.000000 0.3999 0.4014 0.4032 0.4048 0.4064
2969.000000 0.4080 0.4096 0.4108 0.4121 0.4134
2964.000000 0.4147 0.4160 0.4173 0.4185 0.4198
2959.000000 0.4210 0.4224 0.4236 0.4249 0.4262
2954.000000 0.4275 0.4290 0.4306 0.4322 0.4338
2949.000000 0.4353 0.4369 0.4385 0.4401 0.4417
2944.000000 0.4433 0.4447 0.4460 0.4473 0.4486
2939.000000 0.4498 0.4510 0.4522 0.4535 0.4547
2934.000000 0.4560 0.4572 0.4585 0.4597 0.4610
2929.000000 0.4622 0.4635 0.4647 0.4660 0.4672
2924.000000 0.4684 0.4696 0.4709 0.4721 0.4734
2919.000000 0.4747 0.4760 0.4772 0.4785 0.4797
2914.000000 0.4810 0.4822 0.4835 0.4843 0.4851
2909.000000 0.4859 0.4868 0.4876 0.4884 0.4891
2904.000000 0.4899 0.4903 0.4907 0.4910 0.4914
2899.000000 0.4918 0.4922 0.4925 0.4929 0.4933
2894.000000 0.4937 0.4941 0.4945 0.4948 0.4952
2889.000000 0.4956 0.4960 0.4964 0.4968 0.4971
2884.000000 0.4975 0.4978 0.4982 0.4984 0.4987
2879.000000 0.4990 0.4993 0.4996 0.4999 0.5002
2874.000000 0.5005 0.5008 0.5010 0.5014 0.5017
2869.000000 0.5020 0.5023 0.5026 0.5029 0.5036
2864.000000 0.5043 0.5049 0.5056 0.5068 0.5080
2859.000000 0.5093 0.5106 0.5120 0.5135 0.5162
2854.000000 0.5192 0.5218 0.5245 0.5268 0.5292
2849.000000 0.5315 0.5339 0.5356 0.5373 0.5389
2844.000000 0.5405 0.5415 0.5426 0.5434 0.5443
2839.000000 0.5451 0.5460 0.5468 0.5476 0.5484
2834.000000 0.5493 0.5497 0.5502 0.5505 0.5508
2829.000000 0.5509 0.5510 0.5510 0.5512 0.5512
2824.000000 0.5512 0.5509 0.5505 0.5492 0.5479
2819.000000 0.5460 0.5443 0.5431 0.5419 0.5409
2814.000000 0.5399 0.5391 0.5383 0.5375 0.5367
2809.000000 0.5362 0.5357 0.5356 0.5356 0.5356
2804.000000 0.5359 0.5378 0.5397 0.5414 0.5432
2799.000000 0.5448 0.5464 0.5480 0.5496 0.5510
2794.000000 0.5526 0.5540 0.5555 0.5570 0.5585
2789.000000 0.5599 0.5614 0.5628 0.5643 0.5656
2784.000000 0.5670 0.5683 0.5697 0.5710 0.5724
2779.000000 0.5737 0.5751 0.5764 0.5777 0.5789
2774.000000 0.5802 0.5814 0.5827 0.5839 0.5851
2769.000000 0.5858 0.5866 0.5873 0.5880 0.5887
2764.000000 0.5895 0.5902 0.5910 0.5917 0.5925
2759.000000 0.5932 0.5939 0.5949 0.5959 0.5969
2754.000000 0.5980 0.5990 0.6001 0.6010 0.6022
2749.000000 0.6032 0.6042 0.6052 0.6062 0.6073
2744.000000 0.6084 0.6094 0.6104 0.6112 0.6122
2739.000000 0.6131 0.6140 0.6148 0.6157 0.6166
2734.000000 0.6175 0.6184 0.6193 0.6201 0.6210
2729.000000 0.6219 0.6229 0.6238 0.6247 0.6256
2724.000000 0.6265 0.6274 0.6283 0.6289 0.6296
2719.000000 0.6302 0.6309 0.6315 0.6321 0.6325
2714.000000 0.6330 0.6330 0.6330 0.6329 0.6329
2709.000000 0.6329 0.6330 0.6334 0.6339 0.6343
2704.000000 0.6347 0.6354 0.6360 0.6368 0.6376
2699.000000 0.6383 0.6390 0.6397 0.6405 0.6408
2694.000000 0.6414 0.6418 0.6421 0.6425 0.6430
2689.000000 0.6434 0.6438 0.6440 0.6443 0.6444
2684.000000 0.6446 0.6448 0.6449 0.6449 0.6448
2679.000000 0.6446 0.6445 0.6443 0.6442 0.6441
2674.000000 0.6440 0.6438 0.6436 0.6434 0.6432
2669.000000 0.6431 0.6430 0.6428 0.6428 0.6428
2664.000000 0.6426 0.6426 0.6426 0.6428 0.6430
2659.000000 0.6431 0.6432 0.6433 0.6434 0.6434
2654.000000 0.6435 0.6436 0.6437 0.6438 0.6439
2649.000000 0.6439 0.6440 0.6441 0.6442 0.6443
2644.000000 0.6445 0.6453 0.6461 0.6468 0.6476
2639.000000 0.6486 0.6495 0.6506 0.6517 0.6528
2634.000000 0.6539 0.6550 0.6561 0.6568 0.6576
2629.000000 0.6584 0.6592 0.6599 0.6607 0.6614
2624.000000 0.6621 0.6628 0.6636 0.6643 0.6651
2619.000000 0.6656 0.6661 0.6662 0.6665 0.6668
2614.000000 0.6671 0.6674 0.6676 0.6680 0.6683
2609.000000 0.6685 0.6688 0.6691 0.6694 0.6696
2604.000000 0.6699 0.6701 0.6705 0.6707 0.6710
2599.000000 0.6712 0.6715 0.6718 0.6721 0.6722
2594.000000 0.6725 0.6728 0.6732 0.6734 0.6737
2589.000000 0.6740 0.6743 0.6745 0.6748 0.6751
2584.000000 0.6755 0.6760 0.6765 0.6771 0.6775
2579.000000 0.6781 0.6787 0.6792 0.6798 0.6804
2574.000000 0.6811 0.6817 0.6822 0.6828 0.6835
2569.000000 0.6841 0.6847 0.6853 0.6858 0.6865
2564.000000 0.6871 0.6876 0.6884 0.6890 0.6896
2559.000000 0.6901 0.6908 0.6914 0.6919 0.6925
2554.000000 0.6930 0.6934 0.6939 0.6944 0.6949
2549.000000 0.6954 0.6958 0.6964 0.6968 0.6974
2544.000000 0.6978 0.6984 0.6990 0.6995 0.7000
2539.000000 0.7005 0.7011 0.7015 0.7021 0.7025
2534.000000 0.7030 0.7032 0.7034 0.7036 0.7039
2529.000000 0.7041 0.7044 0.7046 0.7049 0.7051
2524.000000 0.7053 0.7054 0.7055 0.7056 0.7057
2519.000000 0.7058 0.7058 0.7060 0.7061 0.7061
2514.000000 0.7062 0.7064 0.7065 0.7065 0.7067
2509.000000 0.7067 0.7068 0.7068 0.7068 0.7068
2504.000000 0.7069 0.7069 0.7071 0.7071 0.7072
2499.000000 0.7072 0.7074 0.7074 0.7075 0.7075
2494.000000 0.7075 0.7075 0.7076 0.7078 0.7081
2489.000000 0.7082 0.7084 0.7086 0.7088 0.7090
2484.000000 0.7092 0.7093 0.7095 0.7097 0.7099
2479.000000 0.7101 0.7103 0.7106 0.7110 0.7112
2474.000000 0.7117 0.7119 0.7124 0.7126 0.7131
2469.000000 0.7134 0.7138 0.7141 0.7145 0.7148
2464.000000 0.7151 0.7154 0.7156 0.7157 0.7158
2459.000000 0.7161 0.7162 0.7164 0.7165 0.7167
2454.000000 0.7168 0.7171 0.7172 0.7174 0.7175
2449.000000 0.7178 0.7180 0.7181 0.7183 0.7185
2444.000000 0.7187 0.7188 0.7190 0.7191 0.7193
2439.000000 0.7195 0.7197 0.7198 0.7200 0.7201
2434.000000 0.7204 0.7205 0.7207 0.7208 0.7210
2429.000000 0.7211 0.7212 0.7214 0.7215 0.7215
2424.000000 0.7218 0.7218 0.7219 0.7221 0.7221
2419.000000 0.7222 0.7225 0.7225 0.7226 0.7228
2414.000000 0.7228 0.7230 0.7232 0.7233 0.7234
2409.000000 0.7235 0.7237 0.7238 0.7239 0.7240
2404.000000 0.7241 0.7242 0.7244 0.7245 0.7247
2399.000000 0.7248 0.7249 0.7250 0.7251 0.7253
2394.000000 0.7255 0.7256 0.7257 0.7258 0.7260
2389.000000 0.7261 0.7262 0.7264 0.7265 0.7265
2384.000000 0.7268 0.7268 0.7271 0.7271 0.7272
2379.000000 0.7274 0.7275 0.7276 0.7278 0.7280
2374.000000 0.7281 0.7282 0.7283 0.7284 0.7286
2369.000000 0.7287 0.7288 0.7289 0.7290 0.7291
2364.000000 0.7292 0.7293 0.7295 0.7296 0.7297
2359.000000 0.7298 0.7299 0.7300 0.7301 0.7301
2354.000000 0.7303 0.7304 0.7306 0.7307 0.7308
2349.000000 0.7308 0.7310 0.7311 0.7311 0.7312
2344.000000 0.7314 0.7315 0.7317 0.7318 0.7318
2339.000000 0.7319 0.7321 0.7321 0.7324 0.7325
2334.000000 0.7325 0.7326 0.7328 0.7330 0.7332
2329.000000 0.7333 0.7334 0.7335 0.7337 0.7338
2324.000000 0.7340 0.7341 0.7342 0.7343 0.7345
2319.000000 0.7346 0.7348 0.7349 0.7350 0.7351
2314.000000 0.7353 0.7354 0.7356 0.7357 0.7358
2309.000000 0.7361 0.7364 0.7365 0.7368 0.7369
2304.000000 0.7372 0.7375 0.7378 0.7380 0.7382
2299.000000 0.7384 0.7387 0.7389 0.7391 0.7393
2294.000000 0.7396 0.7397 0.7399 0.7400 0.7401
2289.000000 0.7403 0.7405 0.7406 0.7408 0.7408
2284.000000 0.7410 0.7411 0.7412 0.7414 0.7415
2279.000000 0.7417 0.7418 0.7421 0.7422 0.7425
2274.000000 0.7426 0.7428 0.7432 0.7434 0.7436
2269.000000 0.7438 0.7440 0.7442 0.7444 0.7446
2264.000000 0.7448 0.7450 0.7453 0.7456 0.7458
2259.000000 0.7461 0.7465 0.7468 0.7471 0.7475
2254.000000 0.7478 0.7481 0.7484 0.7487 0.7490
2249.000000 0.7493 0.7496 0.7499 0.7501 0.7506
2244.000000 0.7511 0.7515 0.7521 0.7526 0.7533
2239.000000 0.7538 0.7544 0.7549 0.7555 0.7560
2234.000000 0.7565 0.7575 0.7586 0.7597 0.7608
2229.000000 0.7615 0.7625 0.7632 0.7639 0.7646
2224.000000 0.7654 0.7661 0.7668 0.7675 0.7682
2219.000000 0.7689 0.7696 0.7701 0.7706 0.7710
2214.000000 0.7714 0.7718 0.7721 0.7725 0.7730
2209.000000 0.7733 0.7737 0.7737 0.7738 0.7738
2204.000000 0.7739 0.7739 0.7740 0.7740 0.7741
2199.000000 0.7741 0.7742 0.7743 0.7744 0.7744
2194.000000 0.7744 0.7744 0.7745 0.7745 0.7745
2189.000000 0.7745 0.7746 0.7746 0.7746 0.7746
2184.000000 0.7747 0.7749 0.7751 0.7753 0.7755
2179.000000 0.7756 0.7758 0.7760 0.7761 0.7764
2174.000000 0.7765 0.7767 0.7768 0.7771 0.7772
2169.000000 0.7775 0.7776 0.7778 0.7780 0.7782
2164.000000 0.7784 0.7786 0.7788 0.7791 0.7794
2159.000000 0.7796 0.7799 0.7801 0.7805 0.7807
2154.000000 0.7810 0.7812 0.7815 0.7818 0.7821
2149.000000 0.7824 0.7826 0.7828 0.7832 0.7834
2144.000000 0.7837 0.7840 0.7843 0.7845 0.7848
2139.000000 0.7851 0.7854 0.7857 0.7861 0.7864
2134.000000 0.7868 0.7871 0.7875 0.7878 0.7882
2129.000000 0.7885 0.7889 0.7893 0.7897 0.7900
2124.000000 0.7904 0.7907 0.7911 0.7914 0.7918
2119.000000 0.7921 0.7925 0.7928 0.7933 0.7936
2114.000000 0.7940 0.7943 0.7947 0.7951 0.7955
2109.000000 0.7958 0.7961 0.7965 0.7969 0.7972
2104.000000 0.7976 0.7981 0.7985 0.7988 0.7992
2099.000000 0.7996 0.8000 0.8003 0.8007 0.8010
2094.000000 0.8014 0.8018 0.8021 0.8025 0.8028
2089.000000 0.8033 0.8037 0.8040 0.8044 0.8048
2084.000000 0.8051 0.8055 0.8058 0.8062 0.8067
2079.000000 0.8071 0.8075 0.8078 0.8083 0.8087
2074.000000 0.8091 0.8095 0.8099 0.8103 0.8107
2069.000000 0.8111 0.8115 0.8118 0.8122 0.8126
2064.000000 0.8131 0.8135 0.8139 0.8143 0.8147
2059.000000 0.8151 0.8155 0.8158 0.8162 0.8167
2054.000000 0.8171 0.8174 0.8178 0.8182 0.8186
2049.000000 0.8189 0.8193 0.8197 0.8201 0.8205
2044.000000 0.8210 0.8214 0.8218 0.8223 0.8228
2039.000000 0.8232 0.8237 0.8240 0.8244 0.8247
2034.000000 0.8251 0.8254 0.8258 0.8261 0.8264
2029.000000 0.8267 0.8271 0.8274 0.8278 0.8281
2024.000000 0.8284 0.8286 0.8289 0.8292 0.8295
2019.000000 0.8297 0.8300 0.8303 0.8306 0.8309
2014.000000 0.8312 0.8314 0.8316 0.8318 0.8320
2009.000000 0.8321 0.8324 0.8325 0.8328 0.8328
2004.000000 0.8331 0.8333 0.8335 0.8338 0.8342
1999.000000 0.8346 0.8350 0.8350 0.8350 0.8351
1994.000000 0.8352 0.8353 0.8355 0.8356 0.8358
1989.000000 0.8359 0.8361 0.8365 0.8368 0.8373
1984.000000 0.8378 0.8382 0.8386 0.8390 0.8395
1979.000000 0.8399 0.8404 0.8409 0.8414 0.8418
1974.000000 0.8421 0.8425 0.8428 0.8433 0.8438
1969.000000 0.8442 0.8447 0.8451 0.8455 0.8459
1964.000000 0.8462 0.8499 0.8560 0.8621 0.8671
1959.000000 0.8650 0.8605 0.8544 0.8501 0.8490
1954.000000 0.8478 0.8468 0.8463 0.8460 0.8456
1949.000000 0.8452 0.8448 0.8444 0.8441 0.8438
1944.000000 0.8435 0.8432 0.8430 0.8427 0.8425
1939.000000 0.8421 0.8420 0.8418 0.8416 0.8414
1934.000000 0.8413 0.8412 0.8412 0.8415 0.8417
1929.000000 0.8418 0.8421 0.8424 0.8427 0.8430
1924.000000 0.8433 0.8436 0.8439 0.8440 0.8441
1919.000000 0.8438 0.8436 0.8433 0.8430 0.8428
1914.000000 0.8425 0.8418 0.8408 0.8397 0.8382
1909.000000 0.8368 0.8378 0.8391 0.8403 0.8416
1904.000000 0.8428 0.8441 0.8454 0.8467 0.8480
1899.000000 0.8487 0.8495 0.8502 0.8509 0.8516
1894.000000 0.8524 0.8531 0.8538 0.8546 0.8553
1889.000000 0.8560 0.8567 0.8575 0.8582 0.8586
1884.000000 0.8589 0.8592 0.8595 0.8598 0.8601
1879.000000 0.8604 0.8607 0.8610 0.8613 0.8616
1874.000000 0.8618 0.8621 0.8623 0.8624 0.8624
1869.000000 0.8625 0.8625 0.8627 0.8628 0.8628
1864.000000 0.8628 0.8630 0.8631 0.8631 0.8632
1859.000000 0.8633 0.8634 0.8635 0.8635 0.8636
1854.000000 0.8637 0.8638 0.8639 0.8639 0.8640
1849.000000 0.8641 0.8642 0.8643 0.8643 0.8644
1844.000000 0.8644 0.8644 0.8645 0.8645 0.8645
1839.000000 0.8645 0.8646 0.8646 0.8645 0.8644
1834.000000 0.8643 0.8642 0.8635 0.8628 0.8621
1829.000000 0.8616 0.8610 0.8605 0.8599 0.8593
1824.000000 0.8587 0.8582 0.8575 0.8573 0.8571
1819.000000 0.8571 0.8575 0.8578 0.8581 0.8584
1814.000000 0.8586 0.8589 0.8592 0.8595 0.8598
1809.000000 0.8601 0.8603 0.8605 0.8605 0.8606
1804.000000 0.8606 0.8607 0.8608 0.8612 0.8616
1799.000000 0.8620 0.8624 0.8628 0.8632 0.8636
1794.000000 0.8643 0.8650 0.8657 0.8664 0.8671
1789.000000 0.8678 0.8686 0.8694 0.8703 0.8711
1784.000000 0.8718 0.8728 0.8736 0.8744 0.8752
1779.000000 0.8758 0.8762 0.8767 0.8771 0.8775
1774.000000 0.8778 0.8784 0.8784 0.8784 0.8783
1769.000000 0.8782 0.8782 0.8781 0.8780 0.8777
1764.000000 0.8775 0.8775 0.8767 0.8762 0.8756
1759.000000 0.8750 0.8743 0.8737 0.8731 0.8725
1754.000000 0.8721 0.8718 0.8716 0.8712 0.8709
1749.000000 0.8706 0.8703 0.8699 0.8696 0.8695
1744.000000 0.8695 0.8695 0.8694 0.8694 0.8694
1739.000000 0.8694 0.8694 0.8695 0.8696 0.8698
1734.000000 0.8699 0.8700 0.8701 0.8702 0.8703
1729.000000 0.8703 0.8703 0.8693 0.8667 0.8634
1724.000000 0.8600 0.8568 0.8538 0.8507 0.8478
1719.000000 0.8458 0.8436 0.8416 0.8404 0.8397
1714.000000 0.8392 0.8386 0.8378 0.8378 0.8380
1709.000000 0.8402 0.8437 0.8450 0.8455 0.8457
1704.000000 0.8458 0.8460 0.8460 0.8460 0.8460
1699.000000 0.8456 0.8446 0.8437 0.8427 0.8414
1694.000000 0.8401 0.8388 0.8360 0.8328 0.8295
1689.000000 0.8230 0.8139 0.7814 0.7628 0.7461
1684.000000 0.7193 0.7024 0.6922 0.6832 0.6183
1679.000000 0.5329 0.4474 0.4455 0.4458 0.4521
1674.000000 0.4598 0.4675 0.4709 0.4719 0.4723
1669.000000 0.4723 0.4710 0.4698 0.4666 0.4594
1664.000000 0.4394 0.4176 0.3934 0.3705 0.2904
1659.000000 0.2737 0.2577 0.2417 0.2257 0.2096
1654.000000 0.1935 0.1776 0.1616 0.1456 0.1296
1649.000000 0.0883 0.0815 0.0763 0.0732 0.0701
1644.000000 0.0670 0.0639 0.0612 0.0596 0.0580
1639.000000 0.0567 0.0554 0.0544 0.0535 0.0527
1634.000000 0.0524 0.0544 0.0594 0.0644 0.0798
1629.000000 0.0991 0.1169 0.1375 0.1582 0.1789
1624.000000 0.1994 0.2202 0.2409 0.2616 0.2822
1619.000000 0.3029 0.3236 0.3442 0.3572 0.3587
1614.000000 0.3578 0.3486 0.3280 0.3074 0.2862
1609.000000 0.2095 0.1735 0.1386 0.1036 0.0780
1604.000000 0.0722 0.0689 0.0655 0.0634 0.0628
1599.000000 0.0657 0.0737 0.0896 0.1019 0.1135
1594.000000 0.1266 0.1396 0.1770 0.1936 0.2084
1589.000000 0.2228 0.2372 0.2515 0.2658 0.2802
1584.000000 0.2945 0.3089 0.3232 0.3375 0.3518
1579.000000 0.3662 0.3805 0.3949 0.4092 0.4235
1574.000000 0.4379 0.4522 0.4660 0.4779 0.4852
1569.000000 0.4917 0.4965 0.4995 0.5009 0.5023
1564.000000 0.5036 0.5050 0.5062 0.5078 0.5093
1559.000000 0.5117 0.5165 0.5231 0.5288 0.5335
1554.000000 0.5383 0.5432 0.5493 0.5553 0.5623
1549.000000 0.5710 0.5803 0.5882 0.5914 0.5935
1544.000000 0.5925 0.5948 0.5947 0.5938 0.5907
1539.000000 0.5830 0.5673 0.5572 0.5471 0.5325
1534.000000 0.5022 0.4798 0.4321 0.3844 0.3366
1529.000000 0.2890 0.2372 0.2363 0.2466 0.2716
1524.000000 0.2966 0.3214 0.3464 0.3714 0.3964
1519.000000 0.4222 0.4417 0.4610 0.4805 0.4999
1514.000000 0.5194 0.5388 0.5582 0.5776 0.5899
1509.000000 0.5931 0.5909 0.5889 0.5553 0.5105
1504.000000 0.4658 0.4210 0.3762 0.3314 0.2868
1499.000000 0.2420 0.2055 0.2050 0.2040 0.2148
1494.000000 0.2412 0.2675 0.2938 0.3200 0.3464
1489.000000 0.3727 0.3990 0.4254 0.4517 0.4780
1484.000000 0.5043 0.5306 0.5569 0.5833 0.6096
1479.000000 0.6359 0.6621 0.6804 0.6862 0.6888
1474.000000 0.6888 0.6889 0.6891 0.6850 0.5514
1469.000000 0.4441 0.3368 0.2297 0.1437 0.1442
1464.000000 0.1450 0.1531 0.1633 0.1734 0.1835
1459.000000 0.1967 0.2455 0.3337 0.3824 0.3964
1454.000000 0.4022 0.4080 0.4152 0.4239 0.4326
1449.000000 0.4425 0.4616 0.4935 0.5254 0.5573
1444.000000 0.5897 0.6142 0.6312 0.6460 0.6568
1439.000000 0.6654 0.6734 0.6796 0.6844 0.6882
1434.000000 0.6919 0.6954 0.6978 0.6998 0.7017
1429.000000 0.7036 0.7053 0.7097 0.7075 0.7075
1424.000000 0.7074 0.7021 0.6801 0.6617 0.6449
1419.000000 0.6278 0.6089 0.5123 0.4310 0.3768
1414.000000 0.3486 0.3162 0.2839 0.2515 0.2191
1409.000000 0.1867 0.1775 0.1785 0.1821 0.1857
1404.000000 0.1893 0.1928 0.1964 0.1965 0.1892
1399.000000 0.1635 0.1379 0.1189 0.1172 0.1124
1394.000000 0.1158 0.1150 0.1153 0.1156 0.1160
1389.000000 0.1234 0.1756 0.2539 0.2726 0.2893
1384.000000 0.3051 0.3254 0.3480 0.3707 0.3932
1379.000000 0.4160 0.4386 0.4612 0.4839 0.5065
1374.000000 0.5292 0.5518 0.5595 0.5641 0.5654
1369.000000 0.5644 0.5647 0.5567 0.5038 0.4539
1364.000000 0.4040 0.3541 0.2942 0.2958 0.2968
1359.000000 0.3139 0.3334 0.3530 0.3725 0.3921
1354.000000 0.4116 0.4310 0.4506 0.4702 0.4897
1349.000000 0.5066 0.5085 0.5089 0.5093 0.5081
1344.000000 0.5086 0.4871 0.4441 0.4010 0.3640
1339.000000 0.3670 0.3668 0.3668 0.3916 0.4380
1334.000000 0.4670 0.4960 0.5250 0.5540 0.5830
1329.000000 0.6120 0.6246 0.6385 0.6551 0.6714
1324.000000 0.6790 0.6867 0.6942 0.7015 0.7088
1319.000000 0.7138 0.7168 0.7200 0.7231 0.7247
1314.000000 0.7261 0.7276 0.7292 0.7307 0.7315
1309.000000 0.7325 0.7334 0.7343 0.7353 0.7361
1304.000000 0.7371 0.7380 0.7385 0.7388 0.7391
1299.000000 0.7394 0.7396 0.7399 0.7399 0.7399
1294.000000 0.7398 0.7397 0.7397 0.7391 0.7384
1289.000000 0.7376 0.7369 0.7362 0.7343 0.7325
1284.000000 0.7319 0.7317 0.7318 0.7318 0.7319
1279.000000 0.7307 0.7292 0.7261 0.7176 0.6950
1274.000000 0.6855 0.6758 0.6664 0.6461 0.5348
1269.000000 0.4439 0.3738 0.2131 0.0914 0.0838
1264.000000 0.0842 0.0842 0.0843 0.0869 0.0912
1259.000000 0.1094 0.1480 0.1903 0.2326 0.2464
1254.000000 0.2485 0.2500 0.2512 0.2549 0.2853
1249.000000 0.3130 0.3074 0.2428 0.0882 0.0847
1244.000000 0.0854 0.0825 0.0839 0.0867 0.0910
1239.000000 0.1280 0.2933 0.3696 0.3846 0.4007
1234.000000 0.4226 0.4460 0.4694 0.4928 0.5162
1229.000000 0.5396 0.5630 0.5890 0.6136 0.6329
1224.000000 0.6445 0.6561 0.6660 0.6745 0.6828
1219.000000 0.6901 0.6951 0.7001 0.7051 0.7101
1214.000000 0.7137 0.7171 0.7205 0.7239 0.7272
1209.000000 0.7307 0.7339 0.7368 0.7399 0.7430
1204.000000 0.7460 0.7490 0.7521 0.7546 0.7571
1199.000000 0.7596 0.7619 0.7644 0.7667 0.7689
1194.000000 0.7711 0.7732 0.7751 0.7771 0.7790
1189.000000 0.7807 0.7821 0.7836 0.7849 0.7860
1184.000000 0.7871 0.7878 0.7884 0.7891 0.7898
1179.000000 0.7900 0.7871 0.7839 0.7804 0.7799
1174.000000 0.7801 0.7824 0.7881 0.7921 0.7948
1169.000000 0.7958 0.7965 0.7971 0.7975 0.7981
1164.000000 0.7997 0.8021 0.8047 0.8058 0.8075
1159.000000 0.8055 0.7951 0.7821 0.7728 0.7632
1154.000000 0.7536 0.7440 0.7418 0.7465 0.7561
1149.000000 0.7657 0.7708 0.7708 0.7553 0.7391
1144.000000 0.7271 0.7271 0.7276 0.7287 0.7339
1139.000000 0.7467 0.7571 0.7671 0.7765 0.7851
1134.000000 0.7946 0.8011 0.8057 0.8100 0.8117
1129.000000 0.8134 0.8142 0.8149 0.8157 0.8165
1124.000000 0.8172 0.8182 0.8188 0.8193 0.8198
1119.000000 0.8203 0.8207 0.8210 0.8213 0.8216
1114.000000 0.8218 0.8225 0.8230 0.8236 0.8259
1109.000000 0.8245 0.8243 0.8217 0.8180 0.8128
1104.000000 0.8089 0.8065 0.8058 0.8053 0.8054
1099.000000 0.8062 0.8094 0.8118 0.8128 0.8139
1094.000000 0.8145 0.8149 0.8154 0.8158 0.8161
1089.000000 0.8165 0.8168 0.8171 0.8175 0.8178
1084.000000 0.8182 0.8185 0.8187 0.8190 0.8193
1079.000000 0.8196 0.8199 0.8199 0.8199 0.8196
1074.000000 0.8193 0.8185 0.8175 0.8167 0.8160
1069.000000 0.8158 0.8168 0.8176 0.8198 0.8221
1064.000000 0.8237 0.8238 0.8238 0.8239 0.8239
1059.000000 0.8240 0.8243 0.8245 0.8248 0.8250
1054.000000 0.8253 0.8256 0.8256 0.8256 0.8255
1049.000000 0.8254 0.8252 0.8251 0.8250 0.8249
1044.000000 0.8249 0.8243 0.8211 0.8112 0.8001
1039.000000 0.7638 0.7594 0.7562 0.7542 0.7425
1034.000000 0.7031 0.7048 0.7128 0.7365 0.7603
1029.000000 0.7841 0.8021 0.8078 0.8107 0.8137
1024.000000 0.8162 0.8186 0.8209 0.8232 0.8247
1019.000000 0.8262 0.8277 0.8285 0.8290 0.8295
1014.000000 0.8300 0.8305 0.8308 0.8311 0.8325
1009.000000 0.8314 0.8314 0.8314 0.8313 0.8312
1004.000000 0.8306 0.8298 0.8273 0.8249 0.8218
999.000000 0.8168 0.8096 0.8004 0.7958 0.7931
994.000000 0.7921 0.7942 0.7908 0.7912 0.7956
989.000000 0.8001 0.8047 0.8089 0.8118 0.8146
984.000000 0.8161 0.8174 0.8185 0.8197 0.8205
979.000000 0.8212 0.8213 0.8208 0.8198 0.8182
974.000000 0.8165 0.8149 0.8135 0.8121 0.8111
969.000000 0.8103 0.8094 0.8085 0.8075 0.8072
964.000000 0.8068 0.8065 0.8065 0.8065 0.8065
959.000000 0.8067 0.8067 0.8065 0.8061 0.8048
954.000000 0.8043 0.8041 0.8040 0.8040 0.8043
949.000000 0.8047 0.8049 0.8053 0.8061 0.8033
944.000000 0.7975 0.7919 0.7862 0.7781 0.7761
939.000000 0.7765 0.7781 0.7828 0.7901 0.7914
934.000000 0.7924 0.7848 0.7731 0.7668 0.7656
929.000000 0.7896 0.8036 0.8098 0.8112 0.8124
924.000000 0.8128 0.8135 0.8140 0.8145 0.8148
919.000000 0.8151 0.8151 0.8151 0.8148 0.8128
914.000000 0.8093 0.8071 0.8068 0.8067 0.8061
909.000000 0.8055 0.8018 0.7895 0.7824 0.7789
904.000000 0.7772 0.7768 0.7767 0.7767 0.7764
899.000000 0.7760 0.7710 0.7656 0.7617 0.7615
894.000000 0.7615 0.7615 0.7676 0.7719 0.7732
889.000000 0.7739 0.7737 0.7733 0.7708 0.7667
884.000000 0.7599 0.7500 0.7406 0.7301 0.7239
879.000000 0.7198 0.7197 0.7197 0.7197 0.7196
874.000000 0.7204 0.7230 0.7257 0.7280 0.7297
869.000000 0.7314 0.7330 0.7335 0.7337 0.7339
864.000000 0.7339 0.7337 0.7336 0.7336 0.7341
859.000000 0.7350 0.7356 0.7361 0.7361 0.7368
854.000000 0.7068 0.6944 0.7004 0.7075 0.7147
849.000000 0.7218 0.7222 0.7215 0.7161 0.7051
844.000000 0.6996 0.6961 0.6937 0.6924 0.6912
839.000000 0.6901 0.6889 0.6875 0.6846 0.6806
834.000000 0.6761 0.6711 0.6658 0.6605 0.6547
829.000000 0.6488 0.6430 0.6356 0.6230 0.5981
824.000000 0.5400 0.4946 0.4943 0.5006 0.5069
819.000000 0.5112 0.5007 0.4149 0.3291 0.2432
814.000000 0.2020 0.1987 0.2224 0.2916 0.3608
809.000000 0.4129 0.4137 0.4154 0.4288 0.4422
804.000000 0.4556 0.4693 0.4844 0.4974 0.5059
799.000000 0.5144 0.5230 0.5307 0.5384 0.5460
794.000000 0.5534 0.5607 0.5684 0.5753 0.5801
789.000000 0.5827 0.5851 0.5877 0.5903 0.5919
784.000000 0.5934 0.5945 0.5952 0.5953 0.5953
779.000000 0.5784 0.5693 0.5696 0.5736 0.5776
774.000000 0.5817 0.5857 0.5871 0.5872 0.5715
769.000000 0.5083 0.4184 0.4170 0.4172 0.4460
764.000000 0.4797 0.5134 0.5471 0.5808 0.5981
759.000000 0.5974 0.5910 0.5762 0.5735 0.5719
754.000000 0.5305 0.4520 0.3734 0.3405 0.3470
749.000000 0.3738 0.4007 0.4144 0.3834 0.3108
744.000000 0.2423 0.2426 0.2432 0.2910 0.4252
739.000000 0.5594 0.6395 0.6458 0.6481 0.6481
734.000000 0.6480 0.6465 0.6434 0.6405 0.5748
729.000000 0.4047 0.3686 0.3682 0.3927 0.4320
724.000000 0.4714 0.5107 0.5500 0.5610 0.5712
719.000000 0.6446 0.6568 0.6661 0.6721 0.6778
714.000000 0.6825 0.6869 0.6895 0.6921 0.6947
709.000000 0.6969 0.6994 0.7017 0.7039 0.7055
704.000000 0.7071 0.7089 0.7101 0.7111 0.7122
699.000000 0.7134 0.7143 0.7149 0.7156 0.7162
694.000000 0.7169 0.7176 0.7185 0.7197 0.7198
689.000000 0.7199 0.7199 0.7165 0.6690 0.5872
684.000000 0.5054 0.4617 0.4610 0.5291 0.5773
679.000000 0.6238 0.6476 0.6574 0.6648 0.6711
674.000000 0.6754 0.6796 0.6828 0.6861 0.6888
669.000000 0.6911 0.6934 0.6951 0.6971 0.6993
664.000000 0.7005 0.7015 0.7025 0.6986 0.6608
659.000000 0.6325 0.6330 0.6428 0.6546 0.6664
654.000000 0.6781 0.6899 0.7017 0.7090 0.7180
649.000000 0.7246 0.7294 0.7328 0.7343 0.7356
644.000000 0.7368 0.7380 0.7389 0.7399 0.7408
639.000000 0.7419 0.7432 0.7444 0.7456 0.7468
634.000000 0.7476 0.7475 0.7475 0.7242 0.7045
629.000000 0.7032 0.7038 0.7145 0.7214 0.7269
624.000000 0.7315 0.7361 0.7398 0.7421 0.7433
619.000000 0.7445 0.7451 0.7458 0.7465 0.7471
614.000000 0.7476 0.7483 0.7488 0.7493 0.7497
609.000000 0.7501 0.7505 0.7510 0.7522 0.7517
604.000000 0.7519 0.7522 0.7525 0.7518 0.7514
599.000000 0.7505 0.7493 0.7480 0.7468 0.7455
594.000000 0.7443 0.7430 0.7411 0.7395 0.7369
589.000000 0.7342 0.7314 0.7287 0.7239 0.7190
584.000000 0.7157 0.7124 0.7081 0.7001 0.6853
579.000000 0.5115 0.4426 0.4419 0.4468 0.4660
574.000000 0.4853 0.5046 0.5238 0.5431 0.5623
569.000000 0.5815 0.6008 0.6200 0.6391 0.6548
564.000000 0.6703 0.6878 0.7017 0.7090 0.7108
559.000000 0.7128 0.7143 0.7151 0.7158 0.7168
554.000000 0.7172 0.7178 0.7184 0.7190 0.7194
549.000000 0.7197 0.7200 0.7208 0.7203 0.7198
544.000000 0.7194 0.7175 0.7149 0.7119 0.7092
539.000000 0.7042 0.6954 0.6821 0.6707 0.6614
534.000000 0.6561 0.6531 0.6546 0.6646 0.6906
529.000000 0.7117 0.7139 0.7151 0.7164 0.7175
524.000000 0.7178 0.7181 0.7184 0.7187 0.7187
519.000000 0.7187 0.7187 0.7186 0.7185 0.7214
514.000000 0.7178 0.7175 0.7165 0.7133 0.6606
509.000000 0.6076 0.5547 0.5018 0.4488 0.3959
504.000000 0.3430 0.3224 0.3209 0.3230 0.4392
499.000000 0.5985 0.6310 0.6438 0.6551 0.6699
494.000000 0.6867 0.7008 0.7137 0.7187 0.7219
489.000000 0.7249 0.7269 0.7285 0.7300 0.7308
484.000000 0.7314 0.7314 0.7314 0.7287 0.7308
479.000000 0.7300 0.7289 0.7278 0.7235 0.7183
474.000000 0.7121 0.7024 0.6908 0.6783 0.6646
469.000000 0.6279 0.5710 0.5142 0.4574 0.4006
464.000000 0.3790 0.3752 0.3723 0.3662 0.3680
##END=
