##TITLE=Acetanilide, 2,6-diethyl-4-tert-butyl-
##JCAMP-DX=4.24
##DATA TYPE=INFRARED SPECTRUM
##CLASS=COBLENTZ III
##ORIGIN=MONSANTO (J. FREEMAN)
##OWNER=Copyright (C) 1987 by the Coblentz Society
Collection (C) 2018 copyright by the U.S. Secretary of Commerce
on behalf of the United States of America. All rights reserved.
##DATE=1959/03/06
##NAMES=N-(4-tert-butyl-2,6-diethylphenyl)acetamide
##MOLFORM=C16 H25 N O
##SOURCE REFERENCE=COBLENTZ NO. 9293
##$NIST ID=B6009293
##$NIST SOURCE=COBLENTZ
##$NIST IMAGE=cob9293
##SPECTROMETER/DATA SYSTEM=BECKMAN IR-4 (HYBRID PRISM-GRATING)
##INSTRUMENT PARAMETERS=NaCl PRISM
##STATE=SOLID (NUJOL MULL)
$$SPECTRAL CONTAMINATION DUE TO OIL AROUND 2900, 1450 CM^-^1
##SAMPLING PROCEDURE=TRANSMISSION
##RESOLUTION=2
##DATA PROCESSING=DIGITIZED BY COBLENTZ SOCIETY (BATCH II) FROM HARD COPY (ADJUSTED \addmicron\0.02um\)
##XUNITS=1/CM
##YUNITS=TRANSMITTANCE
##XFACTOR=1.0
##YFACTOR=1
##DELTAX=0.971044
##FIRSTX=625.195
##LASTX=3902.47
##FIRSTY=0.8962
##MAXX=3902.47
##MINX=625.195
##MAXY=0.990446
##MINY=0
##NPOINTS=3376
##XYDATA=(X++(Y..Y))
625.195374 0.8962 0.8999 0.9038 0.9077 0.9123
630.050592 0.9173 0.9223 0.9270 0.9307 0.9340
634.905811 0.9372 0.9403 0.9433 0.9461 0.9488
639.761030 0.9508 0.9534 0.9537 0.9528 0.9522
644.616248 0.9511 0.9495 0.9474 0.9448 0.9415
649.471467 0.9375 0.9315 0.9242 0.9157 0.9058
654.326686 0.8951 0.8858 0.8838 0.8907 0.8986
659.181904 0.9066 0.9151 0.9239 0.9325 0.9413
664.037123 0.9485 0.9525 0.9486 0.9453 0.9414
668.892342 0.9377 0.9339 0.9307 0.9281 0.9259
673.747560 0.9235 0.9198 0.9126 0.9019 0.8900
678.602779 0.8787 0.8685 0.8589 0.8491 0.8382
683.457998 0.8268 0.8158 0.8048 0.7937 0.7814
688.313216 0.7681 0.7555 0.7441 0.7320 0.7193
693.168435 0.7072 0.6957 0.6848 0.6745 0.6639
698.023654 0.6515 0.6373 0.6233 0.6072 0.5921
702.878872 0.5836 0.5781 0.5747 0.5731 0.5725
707.734091 0.5573 0.5567 0.5771 0.5827 0.5862
712.589310 0.5895 0.5925 0.5952 0.5978 0.6004
717.444528 0.6040 0.6091 0.6167 0.6273 0.6396
722.299747 0.6522 0.6623 0.6687 0.6721 0.6738
727.154966 0.6708 0.6634 0.6554 0.6468 0.6388
732.010184 0.6331 0.6309 0.6308 0.6363 0.6446
736.865403 0.6621 0.6932 0.7346 0.7770 0.8199
741.720622 0.8434 0.8616 0.8724 0.8800 0.8875
746.575840 0.8951 0.9011 0.9083 0.9162 0.9198
751.431059 0.9225 0.9250 0.9268 0.9283 0.9298
756.286278 0.9310 0.9320 0.9324 0.9325 0.9322
761.141497 0.9317 0.9353 0.9320 0.9279 0.9249
765.996715 0.9208 0.9158 0.9093 0.9007 0.8892
770.851934 0.8750 0.8607 0.8469 0.8335 0.8220
775.707153 0.8142 0.8159 0.8298 0.8440 0.8635
780.562371 0.8847 0.9023 0.9158 0.9246 0.9316
785.417590 0.9368 0.9407 0.9437 0.9468 0.9497
790.272809 0.9527 0.9560 0.9589 0.9617 0.9644
795.128027 0.9668 0.9693 0.9717 0.9740 0.9762
799.983246 0.9780 0.9797 0.9813 0.9829 0.9843
804.838465 0.9856 0.9869 0.9877 0.9885 0.9893
809.693683 0.9899 0.9903 0.9903 0.9903 0.9904
814.548902 0.9904 0.9904 0.9901 0.9886 0.9876
819.404121 0.9893 0.9891 0.9889 0.9886 0.9883
824.259339 0.9880 0.9876 0.9872 0.9869 0.9862
829.114558 0.9855 0.9846 0.9838 0.9831 0.9823
833.969777 0.9812 0.9795 0.9779 0.9764 0.9748
838.824995 0.9726 0.9703 0.9689 0.9684 0.9682
843.680214 0.9688 0.9697 0.9710 0.9724 0.9735
848.535433 0.9741 0.9744 0.9744 0.9740 0.9733
853.390651 0.9725 0.9715 0.9702 0.9687 0.9669
858.245870 0.9644 0.9611 0.9567 0.9508 0.9435
863.101089 0.9334 0.9199 0.9023 0.8810 0.8530
867.956307 0.8088 0.7455 0.6643 0.5803 0.4965
872.811526 0.4129 0.3295 0.2542 0.2338 0.2516
877.666745 0.4372 0.5682 0.6784 0.6881 0.6901
882.521963 0.6903 0.6910 0.6986 0.7088 0.7244
887.377182 0.7393 0.7558 0.7733 0.7799 0.7798
892.232401 0.7761 0.7710 0.7672 0.7671 0.7773
897.087619 0.8051 0.8426 0.8664 0.8735 0.8729
901.942838 0.8642 0.8429 0.8137 0.7837 0.7537
906.798057 0.7247 0.7076 0.7047 0.7211 0.7621
911.653276 0.7942 0.8262 0.8563 0.8763 0.8807
916.508494 0.8799 0.8776 0.8704 0.8569 0.8440
921.363713 0.8382 0.8389 0.8472 0.8645 0.8809
926.218932 0.8897 0.8959 0.8944 0.8925 0.8891
931.074150 0.8845 0.8839 0.8806 0.8963 0.9099
935.929369 0.9195 0.9249 0.9283 0.9302 0.9310
940.784588 0.9313 0.9315 0.9313 0.9328 0.9316
945.639806 0.9302 0.9296 0.9291 0.9284 0.9275
950.495025 0.9266 0.9257 0.9236 0.9183 0.9087
955.350244 0.8940 0.8793 0.8688 0.8608 0.8558
960.205462 0.8521 0.8496 0.8481 0.8423 0.8216
965.060681 0.7950 0.7686 0.7421 0.7175 0.7033
969.915900 0.7073 0.7458 0.7874 0.8194 0.8309
974.771118 0.8386 0.8433 0.8445 0.8451 0.8438
979.626337 0.8430 0.8428 0.8442 0.8503 0.8598
984.481556 0.8702 0.8796 0.8869 0.8911 0.8944
989.336774 0.8941 0.8935 0.8930 0.8919 0.8899
994.191993 0.8871 0.8836 0.8795 0.8742 0.8661
999.047212 0.8559 0.8453 0.8343 0.8225 0.8098
1003.902430 0.7932 0.7558 0.7060 0.6671 0.6283
1008.757649 0.5909 0.5653 0.5642 0.5832 0.6183
1013.612868 0.6534 0.6884 0.7233 0.7581 0.7930
1018.468086 0.8272 0.8519 0.8621 0.8656 0.8663
1023.323305 0.8664 0.8665 0.8662 0.8675 0.8654
1028.178524 0.8646 0.8637 0.8622 0.8546 0.8399
1033.033742 0.8248 0.8097 0.7946 0.7796 0.7669
1037.888961 0.7632 0.7672 0.7813 0.7981 0.8150
1042.744180 0.8318 0.8489 0.8579 0.8628 0.8618
1047.599398 0.8595 0.8575 0.8542 0.8518 0.8493
1052.454617 0.8547 0.8651 0.8700 0.8725 0.8718
1057.309836 0.8681 0.8609 0.8380 0.8094 0.7962
1062.165055 0.7921 0.7901 0.7943 0.8140 0.8236
1067.020273 0.8328 0.8414 0.8500 0.8587 0.8680
1071.875492 0.8765 0.8822 0.8847 0.8823 0.8798
1076.730711 0.8722 0.8652 0.8581 0.8498 0.8436
1081.585929 0.8340 0.8407 0.8433 0.8483 0.8577
1086.441148 0.8729 0.8933 0.9074 0.9152 0.9202
1091.296367 0.9232 0.9260 0.9280 0.9294 0.9308
1096.151585 0.9321 0.9335 0.9345 0.9354 0.9363
1101.006804 0.9370 0.9375 0.9377 0.9380 0.9399
1105.862023 0.9396 0.9378 0.9374 0.9369 0.9365
1110.717241 0.9358 0.9348 0.9336 0.9323 0.9307
1115.572460 0.9284 0.9257 0.9225 0.9183 0.9133
1120.427679 0.9076 0.9014 0.8948 0.8886 0.8821
1125.282897 0.8731 0.8642 0.8627 0.8632 0.8743
1130.138116 0.8849 0.8934 0.9006 0.9069 0.9127
1134.993335 0.9163 0.9175 0.9170 0.9168 0.9165
1139.848553 0.9159 0.9151 0.9141 0.9129 0.9119
1144.703772 0.9107 0.9095 0.9083 0.9071 0.9058
1149.558991 0.9046 0.9033 0.9021 0.9010 0.8998
1154.414209 0.8988 0.8976 0.8964 0.8953 0.8942
1159.269428 0.8932 0.8922 0.8911 0.8900 0.8888
1164.124647 0.8876 0.8865 0.8852 0.8840 0.8828
1168.979865 0.8815 0.8802 0.8788 0.8773 0.8759
1173.835084 0.8744 0.8728 0.8712 0.8696 0.8681
1178.690303 0.8665 0.8647 0.8626 0.8603 0.8580
1183.545521 0.8557 0.8525 0.8490 0.8452 0.8400
1188.400740 0.8340 0.8271 0.8200 0.8123 0.8027
1193.255959 0.7917 0.7786 0.7639 0.7060 0.6187
1198.111177 0.5826 0.5495 0.5165 0.4836 0.4506
1202.966396 0.4254 0.4200 0.4246 0.4527 0.4870
1207.821615 0.5217 0.5563 0.5909 0.6254 0.6599
1212.676833 0.6942 0.7286 0.7628 0.7832 0.7915
1217.532052 0.7956 0.7983 0.7990 0.7996 0.7990
1222.387271 0.7920 0.7780 0.7616 0.7451 0.7287
1227.242490 0.7123 0.6960 0.6796 0.6633 0.6470
1232.097708 0.6307 0.6145 0.5983 0.5821 0.5696
1236.952927 0.5656 0.5646 0.5670 0.5762 0.5938
1241.808146 0.6115 0.6292 0.6457 0.6563 0.6617
1246.663364 0.6656 0.6690 0.6732 0.6801 0.6858
1251.518583 0.6882 0.6879 0.6831 0.6861 0.6825
1256.373802 0.6745 0.6587 0.6430 0.6271 0.6113
1261.229020 0.5954 0.5796 0.5640 0.5482 0.5347
1266.084239 0.5260 0.5183 0.5104 0.5020 0.4927
1270.939458 0.4807 0.4603 0.4374 0.4121 0.3859
1275.794676 0.3598 0.3337 0.3077 0.2817 0.2556
1280.649895 0.2426 0.2400 0.2450 0.2568 0.2705
1285.505114 0.2841 0.2957 0.3004 0.3002 0.2993
1290.360332 0.2959 0.2866 0.2728 0.2600 0.2342
1295.215551 0.1962 0.1809 0.1870 0.2080 0.2368
1300.070770 0.2657 0.2944 0.3231 0.3519 0.3805
1304.925988 0.4090 0.4435 0.4947 0.5258 0.5373
1309.781207 0.5458 0.5534 0.5595 0.5654 0.5699
1314.636426 0.5732 0.5762 0.5769 0.5776 0.5780
1319.491644 0.5778 0.5775 0.5766 0.5749 0.5725
1324.346863 0.5691 0.5669 0.5651 0.5639 0.5631
1329.202082 0.5634 0.5648 0.5702 0.5760 0.5804
1334.057300 0.5845 0.5882 0.5915 0.5937 0.5952
1338.912519 0.5969 0.5963 0.5956 0.5952 0.5948
1343.767738 0.5942 0.5934 0.5926 0.5918 0.5909
1348.622956 0.5897 0.5885 0.5873 0.5860 0.5848
1353.478175 0.5834 0.5755 0.5486 0.5078 0.4659
1358.333394 0.4242 0.3825 0.3409 0.2993 0.2578
1363.188612 0.2164 0.1750 0.1365 0.1136 0.1113
1368.043831 0.1108 0.1113 0.1119 0.1158 0.1275
1372.899050 0.1431 0.1587 0.1743 0.1898 0.2053
1377.754269 0.2208 0.2364 0.2518 0.2673 0.2826
1382.609487 0.2980 0.3134 0.3287 0.3441 0.3594
1387.464706 0.3746 0.3876 0.3881 0.3846 0.3786
1392.319925 0.3725 0.3665 0.3639 0.3643 0.3695
1397.175143 0.3841 0.3996 0.4151 0.4305 0.4459
1402.030362 0.4612 0.4766 0.4903 0.4966 0.4974
1406.885581 0.4999 0.4975 0.4961 0.4956 0.4948
1411.740799 0.4938 0.4901 0.4758 0.4529 0.4391
1416.596018 0.4325 0.4278 0.4250 0.4233 0.4219
1421.451237 0.4209 0.4202 0.4196 0.4190 0.4184
1426.306455 0.4176 0.4142 0.4086 0.4029 0.3943
1431.161674 0.3818 0.3680 0.3547 0.3434 0.3343
1436.016893 0.3255 0.3165 0.3059 0.2826 0.2408
1440.872111 0.2062 0.1905 0.1794 0.1697 0.1604
1445.727330 0.1514 0.1431 0.1352 0.1273 0.1198
1450.582549 0.1124 0.1050 0.0982 0.0933 0.0886
1455.437767 0.0839 0.0793 0.0744 0.0693 0.0657
1460.292986 0.0648 0.0641 0.0638 0.0643 0.0654
1465.148205 0.0709 0.0826 0.0945 0.1066 0.1186
1470.003423 0.1305 0.1425 0.1543 0.1663 0.1767
1474.858642 0.1798 0.1796 0.1762 0.1712 0.1660
1479.713861 0.1608 0.1556 0.1505 0.1474 0.1474
1484.569079 0.1594 0.1867 0.2194 0.2527 0.2789
1489.424298 0.2888 0.2992 0.3122 0.3255 0.3387
1494.279517 0.3519 0.3635 0.3663 0.3584 0.3468
1499.134735 0.3352 0.3236 0.3120 0.3004 0.2889
1503.989954 0.2775 0.2672 0.2556 0.2383 0.2171
1508.845173 0.1957 0.1744 0.1530 0.1299 0.1040
1513.700391 0.0817 0.0675 0.0580 0.0509 0.0446
1518.555610 0.0387 0.0347 0.0329 0.0312 0.0296
1523.410829 0.0284 0.0278 0.0274 0.0257 0.0236
1528.266048 0.0267 0.0269 0.0277 0.0298 0.0377
1533.121266 0.0605 0.0879 0.1152 0.1424 0.1697
1537.976485 0.1969 0.2241 0.2512 0.2783 0.3054
1542.831704 0.3324 0.3594 0.3864 0.4133 0.4402
1547.686922 0.4670 0.4939 0.5221 0.5527 0.5760
1552.542141 0.5901 0.6046 0.6146 0.6202 0.6256
1557.397360 0.6310 0.6363 0.6418 0.6471 0.6525
1562.252578 0.6579 0.6632 0.6686 0.6739 0.6793
1567.107797 0.6845 0.6899 0.6952 0.6998 0.7015
1571.963016 0.7016 0.7014 0.7009 0.7035 0.7007
1576.818234 0.6986 0.6975 0.6958 0.6924 0.6879
1581.673453 0.6833 0.6785 0.6736 0.6687 0.6638
1586.528672 0.6589 0.6528 0.6443 0.6327 0.6126
1591.383890 0.5883 0.5732 0.5651 0.5574 0.5502
1596.239109 0.5416 0.5254 0.4948 0.4557 0.4164
1601.094328 0.3784 0.3538 0.3483 0.3509 0.3613
1605.949546 0.3614 0.3695 0.4102 0.4265 0.4428
1610.804765 0.4592 0.4755 0.4917 0.5080 0.5242
1615.659984 0.5388 0.5470 0.5489 0.5497 0.5466
1620.515202 0.5456 0.5442 0.5426 0.5401 0.5339
1625.370421 0.5232 0.5151 0.5096 0.5045 0.4879
1630.225640 0.4159 0.3270 0.2749 0.2229 0.1706
1635.080858 0.1116 0.0310 0.0213 0.0175 0.0148
1639.936077 0.0128 0.0119 0.0114 0.0108 0.0071
1644.791296 0.0107 0.0107 0.0108 0.0111 0.0114
1649.646514 0.0129 0.0151 0.0177 0.0208 0.0240
1654.501733 0.0268 0.0300 0.0340 0.0384 0.0446
1659.356952 0.0530 0.0638 0.0862 0.1068 0.1240
1664.212170 0.1504 0.1820 0.2142 0.2464 0.2785
1669.067389 0.3105 0.3424 0.3744 0.4064 0.4384
1673.922608 0.4698 0.4973 0.5123 0.5210 0.5285
1678.777827 0.5350 0.5402 0.5448 0.5493 0.5538
1683.633045 0.5585 0.5634 0.5687 0.5757 0.5998
1688.488264 0.6596 0.7082 0.7371 0.7587 0.7732
1693.343483 0.7859 0.7977 0.8081 0.8159 0.8221
1698.198701 0.8281 0.8336 0.8386 0.8435 0.8483
1703.053920 0.8527 0.8566 0.8606 0.8643 0.8677
1707.909139 0.8708 0.8738 0.8772 0.8814 0.8859
1712.764357 0.8899 0.8936 0.8971 0.9005 0.9036
1717.619576 0.9058 0.9077 0.9093 0.9110 0.9127
1722.474795 0.9144 0.9159 0.9170 0.9178 0.9185
1727.330013 0.9193 0.9199 0.9204 0.9204 0.9203
1732.185232 0.9201 0.9207 0.9229 0.9195 0.9192
1737.040451 0.9188 0.9183 0.9178 0.9173 0.9165
1741.895669 0.9156 0.9147 0.9138 0.9129 0.9115
1746.750888 0.9099 0.9083 0.9066 0.9050 0.9028
1751.606107 0.9005 0.8981 0.8957 0.8923 0.8897
1756.461325 0.8880 0.8869 0.8859 0.8859 0.8859
1761.316544 0.8844 0.8861 0.8868 0.8876 0.8887
1766.171763 0.8901 0.8917 0.8937 0.8959 0.8980
1771.026981 0.8999 0.9015 0.9030 0.9042 0.9052
1775.882200 0.9061 0.9070 0.9079 0.9087 0.9094
1780.737419 0.9101 0.9108 0.9115 0.9122 0.9128
1785.592637 0.9134 0.9141 0.9147 0.9154 0.9161
1790.447856 0.9168 0.9174 0.9180 0.9185 0.9191
1795.303075 0.9196 0.9201 0.9206 0.9211 0.9217
1800.158293 0.9223 0.9229 0.9235 0.9241 0.9247
1805.013512 0.9253 0.9260 0.9266 0.9272 0.9278
1809.868731 0.9284 0.9289 0.9294 0.9298 0.9303
1814.723949 0.9307 0.9312 0.9316 0.9321 0.9325
1819.579168 0.9330 0.9335 0.9339 0.9344 0.9348
1824.434387 0.9352 0.9357 0.9361 0.9366 0.9370
1829.289605 0.9375 0.9380 0.9384 0.9389 0.9393
1834.144824 0.9398 0.9403 0.9407 0.9412 0.9416
1839.000043 0.9421 0.9426 0.9430 0.9435 0.9439
1843.855262 0.9443 0.9448 0.9477 0.9503 0.9462
1848.710480 0.9467 0.9471 0.9476 0.9480 0.9484
1853.565699 0.9488 0.9492 0.9495 0.9499 0.9502
1858.420918 0.9506 0.9509 0.9512 0.9513 0.9514
1863.276136 0.9514 0.9514 0.9515 0.9516 0.9517
1868.131355 0.9517 0.9517 0.9517 0.9517 0.9517
1872.986574 0.9516 0.9516 0.9516 0.9515 0.9515
1877.841792 0.9515 0.9515 0.9514 0.9514 0.9514
1882.697011 0.9513 0.9513 0.9513 0.9513 0.9513
1887.552230 0.9512 0.9512 0.9511 0.9511 0.9510
1892.407448 0.9509 0.9509 0.9508 0.9507 0.9507
1897.262667 0.9506 0.9505 0.9505 0.9504 0.9503
1902.117886 0.9503 0.9502 0.9501 0.9501 0.9501
1906.973104 0.9500 0.9500 0.9499 0.9498 0.9498
1911.828323 0.9497 0.9496 0.9495 0.9495 0.9494
1916.683542 0.9493 0.9493 0.9492 0.9491 0.9490
1921.538760 0.9489 0.9488 0.9487 0.9486 0.9485
1926.393979 0.9484 0.9483 0.9482 0.9480 0.9479
1931.249198 0.9479 0.9477 0.9476 0.9475 0.9474
1936.104416 0.9473 0.9472 0.9470 0.9469 0.9469
1940.959635 0.9468 0.9466 0.9466 0.9465 0.9463
1945.814854 0.9462 0.9461 0.9460 0.9459 0.9458
1950.670072 0.9457 0.9456 0.9455 0.9454 0.9453
1955.525291 0.9451 0.9450 0.9449 0.9448 0.9446
1960.380510 0.9445 0.9444 0.9442 0.9441 0.9440
1965.235728 0.9438 0.9436 0.9435 0.9434 0.9433
1970.090947 0.9431 0.9430 0.9428 0.9427 0.9425
1974.946166 0.9424 0.9423 0.9422 0.9420 0.9419
1979.801384 0.9417 0.9416 0.9414 0.9413 0.9412
1984.656603 0.9411 0.9409 0.9408 0.9407 0.9406
1989.511822 0.9404 0.9402 0.9401 0.9400 0.9398
1994.367041 0.9397 0.9396 0.9395 0.9393 0.9392
1999.222259 0.9391 0.9391 0.9389 0.9388 0.9387
2004.077478 0.9386 0.9384 0.9383 0.9382 0.9381
2008.932697 0.9380 0.9378 0.9377 0.9376 0.9375
2013.787915 0.9374 0.9372 0.9371 0.9370 0.9369
2018.643134 0.9367 0.9366 0.9365 0.9364 0.9363
2023.498353 0.9361 0.9360 0.9359 0.9358 0.9357
2028.353571 0.9357 0.9355 0.9354 0.9353 0.9352
2033.208790 0.9351 0.9349 0.9348 0.9347 0.9346
2038.064009 0.9345 0.9344 0.9342 0.9341 0.9340
2042.919227 0.9339 0.9338 0.9337 0.9337 0.9337
2047.774446 0.9337 0.9336 0.9336 0.9336 0.9336
2052.629665 0.9336 0.9336 0.9336 0.9336 0.9336
2057.484883 0.9335 0.9335 0.9335 0.9335 0.9335
2062.340102 0.9335 0.9335 0.9335 0.9335 0.9335
2067.195321 0.9334 0.9334 0.9334 0.9334 0.9334
2072.050539 0.9334 0.9334 0.9334 0.9334 0.9333
2076.905758 0.9333 0.9333 0.9333 0.9333 0.9333
2081.760977 0.9333 0.9332 0.9332 0.9331 0.9330
2086.616195 0.9329 0.9328 0.9328 0.9327 0.9327
2091.471414 0.9326 0.9325 0.9324 0.9323 0.9323
2096.326633 0.9322 0.9321 0.9320 0.9320 0.9319
2101.181851 0.9319 0.9317 0.9316 0.9316 0.9315
2106.037070 0.9315 0.9314 0.9313 0.9312 0.9312
2110.892289 0.9311 0.9310 0.9309 0.9308 0.9308
2115.747507 0.9307 0.9307 0.9306 0.9305 0.9303
2120.602726 0.9301 0.9299 0.9297 0.9296 0.9294
2125.457945 0.9292 0.9291 0.9289 0.9288 0.9286
2130.313163 0.9284 0.9282 0.9280 0.9279 0.9277
2135.168382 0.9275 0.9274 0.9272 0.9271 0.9269
2140.023601 0.9267 0.9266 0.9264 0.9262 0.9260
2144.878820 0.9258 0.9257 0.9255 0.9254 0.9252
2149.734038 0.9250 0.9249 0.9247 0.9247 0.9246
2154.589257 0.9245 0.9244 0.9243 0.9242 0.9241
2159.444476 0.9240 0.9240 0.9239 0.9238 0.9237
2164.299694 0.9236 0.9235 0.9235 0.9234 0.9232
2169.154913 0.9231 0.9230 0.9230 0.9229 0.9228
2174.010132 0.9227 0.9226 0.9225 0.9225 0.9224
2178.865350 0.9224 0.9223 0.9223 0.9223 0.9223
2183.720569 0.9222 0.9222 0.9221 0.9221 0.9221
2188.575788 0.9221 0.9220 0.9220 0.9219 0.9219
2193.431006 0.9218 0.9218 0.9218 0.9218 0.9217
2198.286225 0.9217 0.9216 0.9216 0.9215 0.9215
2203.141444 0.9214 0.9214 0.9213 0.9213 0.9212
2207.996662 0.9212 0.9211 0.9210 0.9209 0.9209
2212.851881 0.9208 0.9208 0.9207 0.9206 0.9205
2217.707100 0.9205 0.9204 0.9204 0.9203 0.9202
2222.562318 0.9201 0.9200 0.9199 0.9198 0.9197
2227.417537 0.9196 0.9195 0.9194 0.9192 0.9191
2232.272756 0.9190 0.9189 0.9188 0.9187 0.9186
2237.127974 0.9185 0.9184 0.9182 0.9181 0.9180
2241.983193 0.9179 0.9178 0.9177 0.9176 0.9175
2246.838412 0.9174 0.9172 0.9171 0.9170 0.9169
2251.693630 0.9168 0.9167 0.9167 0.9165 0.9164
2256.548849 0.9163 0.9162 0.9161 0.9160 0.9159
2261.404068 0.9158 0.9157 0.9155 0.9154 0.9153
2266.259286 0.9152 0.9150 0.9149 0.9148 0.9146
2271.114505 0.9145 0.9144 0.9143 0.9142 0.9141
2275.969724 0.9140 0.9138 0.9137 0.9135 0.9134
2280.824942 0.9133 0.9132 0.9131 0.9129 0.9128
2285.680161 0.9127 0.9125 0.9124 0.9123 0.9122
2290.535380 0.9121 0.9120 0.9119 0.9117 0.9116
2295.390599 0.9115 0.9113 0.9112 0.9111 0.9110
2300.245817 0.9110 0.9109 0.9109 0.9109 0.9108
2305.101036 0.9108 0.9107 0.9107 0.9106 0.9106
2309.956255 0.9105 0.9105 0.9104 0.9104 0.9104
2314.811473 0.9103 0.9102 0.9101 0.9101 0.9100
2319.666692 0.9100 0.9099 0.9099 0.9098 0.9098
2324.521911 0.9098 0.9097 0.9097 0.9096 0.9096
2329.377129 0.9095 0.9095 0.9095 0.9095 0.9096
2334.232348 0.9096 0.9096 0.9097 0.9098 0.9099
2339.087567 0.9100 0.9101 0.9101 0.9102 0.9102
2343.942785 0.9103 0.9104 0.9104 0.9105 0.9106
2348.798004 0.9107 0.9107 0.9108 0.9108 0.9109
2353.653223 0.9110 0.9110 0.9109 0.9108 0.9107
2358.508441 0.9107 0.9107 0.9106 0.9105 0.9104
2363.363660 0.9103 0.9102 0.9101 0.9100 0.9100
2368.218879 0.9099 0.9098 0.9097 0.9095 0.9091
2373.074097 0.9087 0.9083 0.9078 0.9074 0.9070
2377.929316 0.9065 0.9062 0.9058 0.9053 0.9048
2382.784535 0.9042 0.9036 0.9030 0.9024 0.9017
2387.639753 0.9011 0.9005 0.8999 0.8993 0.8986
2392.494972 0.8980 0.8975 0.8969 0.8964 0.8959
2397.350191 0.8955 0.8951 0.8947 0.8943 0.8939
2402.205409 0.8935 0.8931 0.8928 0.8926 0.8925
2407.060628 0.8924 0.8922 0.8921 0.8920 0.8918
2411.915847 0.8917 0.8915 0.8914 0.8912 0.8911
2416.771065 0.8910 0.8909 0.8907 0.8906 0.8905
2421.626284 0.8904 0.8903 0.8902 0.8901 0.8900
2426.481503 0.8899 0.8898 0.8897 0.8896 0.8895
2431.336721 0.8894 0.8893 0.8892 0.8891 0.8889
2436.191940 0.8888 0.8887 0.8886 0.8884 0.8883
2441.047159 0.8882 0.8881 0.8880 0.8878 0.8877
2445.902377 0.8876 0.8875 0.8873 0.8872 0.8871
2450.757596 0.8870 0.8869 0.8867 0.8866 0.8865
2455.612815 0.8864 0.8863 0.8861 0.8859 0.8858
2460.468034 0.8857 0.8856 0.8854 0.8853 0.8852
2465.323252 0.8851 0.8850 0.8848 0.8847 0.8846
2470.178471 0.8844 0.8843 0.8841 0.8839 0.8838
2475.033690 0.8836 0.8835 0.8833 0.8831 0.8830
2479.888908 0.8828 0.8826 0.8824 0.8823 0.8821
2484.744127 0.8820 0.8818 0.8817 0.8815 0.8814
2489.599346 0.8813 0.8811 0.8810 0.8808 0.8807
2494.454564 0.8805 0.8804 0.8802 0.8800 0.8798
2499.309783 0.8796 0.8795 0.8793 0.8791 0.8789
2504.165002 0.8788 0.8786 0.8784 0.8782 0.8780
2509.020220 0.8779 0.8777 0.8775 0.8773 0.8772
2513.875439 0.8770 0.8769 0.8767 0.8765 0.8763
2518.730658 0.8761 0.8758 0.8756 0.8754 0.8752
2523.585876 0.8750 0.8748 0.8747 0.8745 0.8743
2528.441095 0.8741 0.8739 0.8737 0.8735 0.8733
2533.296314 0.8731 0.8729 0.8728 0.8726 0.8724
2538.151532 0.8722 0.8720 0.8718 0.8716 0.8714
2543.006751 0.8712 0.8710 0.8708 0.8704 0.8701
2547.861970 0.8698 0.8696 0.8693 0.8690 0.8688
2552.717188 0.8685 0.8683 0.8680 0.8677 0.8674
2557.572407 0.8671 0.8669 0.8666 0.8663 0.8661
2562.427626 0.8658 0.8655 0.8652 0.8650 0.8647
2567.282844 0.8644 0.8642 0.8639 0.8636 0.8633
2572.138063 0.8630 0.8628 0.8625 0.8623 0.8620
2576.993282 0.8618 0.8614 0.8610 0.8606 0.8602
2581.848500 0.8598 0.8595 0.8591 0.8587 0.8583
2586.703719 0.8579 0.8576 0.8572 0.8568 0.8564
2591.558938 0.8560 0.8557 0.8553 0.8549 0.8545
2596.414156 0.8541 0.8538 0.8534 0.8530 0.8527
2601.269375 0.8523 0.8519 0.8515 0.8510 0.8506
2606.124594 0.8502 0.8499 0.8495 0.8491 0.8487
2610.979813 0.8483 0.8479 0.8475 0.8471 0.8467
2615.835031 0.8463 0.8459 0.8455 0.8451 0.8447
2620.690250 0.8443 0.8439 0.8434 0.8430 0.8426
2625.545469 0.8422 0.8419 0.8415 0.8411 0.8406
2630.400687 0.8400 0.8395 0.8390 0.8385 0.8379
2635.255906 0.8374 0.8368 0.8363 0.8357 0.8351
2640.111125 0.8346 0.8341 0.8336 0.8330 0.8325
2644.966343 0.8319 0.8314 0.8309 0.8303 0.8298
2649.821562 0.8292 0.8287 0.8282 0.8276 0.8271
2654.676781 0.8266 0.8260 0.8254 0.8248 0.8241
2659.531999 0.8234 0.8228 0.8221 0.8215 0.8208
2664.387218 0.8202 0.8195 0.8189 0.8183 0.8177
2669.242437 0.8170 0.8164 0.8157 0.8151 0.8144
2674.097655 0.8138 0.8131 0.8125 0.8119 0.8113
2678.952874 0.8108 0.8103 0.8098 0.8094 0.8090
2683.808093 0.8086 0.8082 0.8077 0.8073 0.8069
2688.663311 0.8064 0.8060 0.8056 0.8051 0.8047
2693.518530 0.8043 0.8039 0.8034 0.8030 0.8026
2698.373749 0.8022 0.8018 0.8017 0.8016 0.8014
2703.228967 0.8013 0.8011 0.8010 0.8008 0.8007
2708.084186 0.8006 0.8004 0.8003 0.8001 0.8000
2712.939405 0.7998 0.7997 0.7995 0.7994 0.7993
2717.794623 0.7991 0.7990 0.7989 0.7987 0.7985
2722.649842 0.7984 0.7983 0.7982 0.7981 0.7981
2727.505061 0.7980 0.7979 0.7978 0.7977 0.7976
2732.360279 0.7975 0.7974 0.7973 0.7972 0.7971
2737.215498 0.7970 0.7968 0.7964 0.7960 0.7954
2742.070717 0.7946 0.7939 0.7931 0.7922 0.7914
2746.925935 0.7904 0.7894 0.7884 0.7875 0.7865
2751.781154 0.7856 0.7845 0.7835 0.7824 0.7813
2756.636373 0.7802 0.7791 0.7780 0.7768 0.7757
2761.491592 0.7746 0.7735 0.7723 0.7712 0.7703
2766.346810 0.7693 0.7684 0.7676 0.7667 0.7659
2771.202029 0.7652 0.7645 0.7639 0.7634 0.7630
2776.057248 0.7627 0.7625 0.7622 0.7620 0.7617
2780.912466 0.7614 0.7611 0.7609 0.7606 0.7603
2785.767685 0.7600 0.7597 0.7594 0.7591 0.7588
2790.622904 0.7585 0.7582 0.7579 0.7576 0.7573
2795.478122 0.7570 0.7567 0.7564 0.7561 0.7556
2800.333341 0.7550 0.7544 0.7524 0.7495 0.7467
2805.188560 0.7434 0.7396 0.7359 0.7325 0.7298
2810.043778 0.7272 0.7246 0.7223 0.7201 0.7179
2814.898997 0.7156 0.7133 0.7109 0.7084 0.7058
2819.754216 0.7031 0.7004 0.6977 0.6951 0.6923
2824.609434 0.6894 0.6863 0.6831 0.6791 0.6745
2829.464653 0.6699 0.6654 0.6608 0.6563 0.6521
2834.319872 0.6485 0.6452 0.6418 0.6384 0.6350
2839.175090 0.6189 0.5206 0.3408 0.1609 0.0509
2844.030309 0.0336 0.0324 0.0312 0.0305 0.0299
2848.885528 0.0293 0.0289 0.0285 0.0281 0.0277
2853.740746 0.0274 0.0270 0.0267 0.0263 0.0260
2858.595965 0.0256 0.0252 0.0248 0.0244 0.0240
2863.451184 0.0237 0.0233 0.0230 0.0226 0.0222
2868.306402 0.0218 0.0214 0.0209 0.0204 0.0199
2873.161621 0.0192 0.0185 0.0178 0.0167 0.0155
2878.016840 0.0144 0.0133 0.0121 0.0110 0.0099
2882.872058 0.0087 0.0075 0.0063 0.0051 0.0040
2887.727277 0.0029 0.0019 0.0015 0.0011 0.0007
2892.582496 0.0007 0.0007 0.0007 0.0007 0.0007
2897.437714 0.0007 0.0007 0.0007 0.0007 0.0007
2902.292933 0.0007 0.0007 0.0007 0.0007 0.0006
2907.148152 0.0006 0.0006 0.0006 0.0006 0.0006
2912.003371 0.0006 0.0006 0.0006 0.0006 0.0006
2916.858589 0.0006 0.0006 0.0006 0.0006 0.0006
2921.713808 0.0006 0.0006 0.0006 0.0006 0.0006
2926.569027 0.0006 0.0006 0.0006 0.0006 0.0006
2931.424245 0.0006 0.0006 0.0005 0.0005 0.0006
2936.279464 0.0017 0.0039 0.0061 0.0088 0.0122
2941.134683 0.0159 0.0197 0.0234 0.0271 0.0308
2945.989901 0.0345 0.0382 0.0420 0.0457 0.0495
2950.845120 0.0531 0.0568 0.0606 0.0643 0.0680
2955.700339 0.0717 0.0754 0.0791 0.0827 0.0865
2960.555557 0.0901 0.0938 0.0975 0.1011 0.1048
2965.410776 0.1085 0.1122 0.1159 0.1195 0.1232
2970.265995 0.1268 0.1305 0.1342 0.1378 0.1415
2975.121213 0.1452 0.1488 0.1525 0.1561 0.1597
2979.976432 0.1633 0.1669 0.1706 0.1742 0.1779
2984.831651 0.1815 0.1851 0.1888 0.1924 0.1960
2989.686869 0.1996 0.2032 0.2069 0.2105 0.2141
2994.542088 0.2177 0.2212 0.2249 0.2285 0.2321
2999.397307 0.2357 0.2392 0.2429 0.2464 0.2500
3004.252525 0.2536 0.2571 0.2607 0.2643 0.2679
3009.107744 0.2715 0.2750 0.2786 0.2821 0.2857
3013.962963 0.2893 0.2928 0.2964 0.3000 0.3035
3018.818181 0.3070 0.3105 0.3141 0.3177 0.3212
3023.673400 0.3248 0.3283 0.3318 0.3353 0.3388
3028.528619 0.3424 0.3459 0.3494 0.3529 0.3564
3033.383837 0.3599 0.3634 0.3670 0.3705 0.3739
3038.239056 0.3774 0.3809 0.3845 0.3880 0.3915
3043.094275 0.3950 0.3985 0.4019 0.4054 0.4089
3047.949493 0.4124 0.4159 0.4194 0.4229 0.4263
3052.804712 0.4297 0.4332 0.4366 0.4401 0.4435
3057.659931 0.4470 0.4505 0.4539 0.4574 0.4608
3062.515150 0.4643 0.4677 0.4711 0.4746 0.4780
3067.370368 0.4815 0.4850 0.4884 0.4918 0.4952
3072.225587 0.4987 0.5020 0.5055 0.5089 0.5123
3077.080806 0.5158 0.5191 0.5226 0.5259 0.5293
3081.936024 0.5327 0.5361 0.5395 0.5429 0.5463
3086.791243 0.5497 0.5531 0.5565 0.5599 0.5633
3091.646462 0.5666 0.5700 0.5734 0.5768 0.5802
3096.501680 0.5835 0.5869 0.5903 0.5936 0.5970
3101.356899 0.6004 0.6038 0.6071 0.6104 0.6138
3106.212118 0.6171 0.6205 0.6238 0.6271 0.6299
3111.067336 0.6311 0.6314 0.6318 0.6321 0.6320
3115.922555 0.6320 0.6319 0.6318 0.6317 0.6316
3120.777774 0.6315 0.6314 0.6314 0.6313 0.6312
3125.632992 0.6311 0.6311 0.6310 0.6309 0.6302
3130.488211 0.6267 0.6222 0.6179 0.6132 0.6075
3135.343430 0.6014 0.5954 0.5894 0.5834 0.5774
3140.198648 0.5713 0.5654 0.5594 0.5534 0.5473
3145.053867 0.5413 0.5354 0.5294 0.5234 0.5174
3149.909086 0.5114 0.5055 0.4995 0.4935 0.4875
3154.764304 0.4816 0.4757 0.4697 0.4637 0.4578
3159.619523 0.4518 0.4460 0.4400 0.4341 0.4281
3164.474742 0.4222 0.4163 0.4104 0.4045 0.3985
3169.329960 0.3927 0.3868 0.3809 0.3750 0.3690
3174.185179 0.3632 0.3573 0.3514 0.3455 0.3397
3179.040398 0.3338 0.3280 0.3221 0.3162 0.3104
3183.895616 0.3045 0.2987 0.2928 0.2870 0.2812
3188.750835 0.2753 0.2695 0.2637 0.2578 0.2520
3193.606054 0.2462 0.2404 0.2346 0.2288 0.2230
3198.461272 0.2172 0.2114 0.2056 0.1998 0.1941
3203.316491 0.1883 0.1825 0.1767 0.1709 0.1651
3208.171710 0.1594 0.1537 0.1479 0.1421 0.1364
3213.026928 0.1306 0.1249 0.1192 0.1134 0.1077
3217.882147 0.1019 0.0963 0.0906 0.0848 0.0791
3222.737366 0.0735 0.0680 0.0625 0.0572 0.0552
3227.592585 0.0549 0.0549 0.0549 0.0549 0.0549
3232.447803 0.0549 0.0549 0.0556 0.0590 0.0629
3237.303022 0.0668 0.0709 0.0760 0.0817 0.0873
3242.158241 0.0930 0.0988 0.1045 0.1102 0.1159
3247.013459 0.1216 0.1272 0.1329 0.1385 0.1442
3251.868678 0.1499 0.1555 0.1611 0.1668 0.1725
3256.723897 0.1781 0.1837 0.1894 0.1950 0.2006
3261.579115 0.2062 0.2118 0.2174 0.2231 0.2287
3266.434334 0.2343 0.2399 0.2454 0.2510 0.2566
3271.289553 0.2622 0.2678 0.2734 0.2790 0.2845
3276.144771 0.2901 0.2957 0.3013 0.3068 0.3124
3280.999990 0.3180 0.3235 0.3291 0.3346 0.3402
3285.855209 0.3458 0.3513 0.3568 0.3623 0.3679
3290.710427 0.3734 0.3789 0.3845 0.3900 0.3954
3295.565646 0.4009 0.4064 0.4120 0.4175 0.4230
3300.420865 0.4285 0.4339 0.4394 0.4449 0.4504
3305.276083 0.4558 0.4613 0.4668 0.4722 0.4777
3310.131302 0.4831 0.4886 0.4940 0.4995 0.5050
3314.986521 0.5104 0.5158 0.5213 0.5268 0.5322
3319.841739 0.5376 0.5431 0.5485 0.5539 0.5593
3324.696958 0.5648 0.5701 0.5755 0.5809 0.5863
3329.552177 0.5917 0.5971 0.6025 0.6078 0.6132
3334.407395 0.6186 0.6240 0.6294 0.6348 0.6402
3339.262614 0.6455 0.6508 0.6562 0.6615 0.6669
3344.117833 0.6723 0.6776 0.6830 0.6883 0.6936
3348.973051 0.6989 0.7043 0.7096 0.7149 0.7203
3353.828270 0.7256 0.7308 0.7358 0.7406 0.7453
3358.683489 0.7499 0.7539 0.7555 0.7560 0.7565
3363.538707 0.7570 0.7574 0.7578 0.7583 0.7586
3368.393926 0.7590 0.7593 0.7597 0.7600 0.7603
3373.249145 0.7607 0.7610 0.7612 0.7615 0.7618
3378.104364 0.7620 0.7622 0.7624 0.7626 0.7628
3382.959582 0.7631 0.7633 0.7635 0.7637 0.7639
3387.814801 0.7642 0.7644 0.7646 0.7648 0.7650
3392.670020 0.7652 0.7654 0.7657 0.7659 0.7661
3397.525238 0.7663 0.7665 0.7667 0.7669 0.7671
3402.380457 0.7673 0.7675 0.7677 0.7678 0.7680
3407.235676 0.7683 0.7685 0.7687 0.7689 0.7690
3412.090894 0.7692 0.7694 0.7695 0.7697 0.7699
3416.946113 0.7701 0.7702 0.7704 0.7706 0.7707
3421.801332 0.7709 0.7711 0.7712 0.7714 0.7716
3426.656550 0.7717 0.7719 0.7720 0.7722 0.7723
3431.511769 0.7725 0.7726 0.7727 0.7728 0.7729
3436.366988 0.7729 0.7730 0.7731 0.7732 0.7733
3441.222206 0.7734 0.7735 0.7736 0.7737 0.7738
3446.077425 0.7739 0.7739 0.7740 0.7741 0.7742
3450.932644 0.7743 0.7743 0.7744 0.7745 0.7746
3455.787862 0.7747 0.7748 0.7749 0.7750 0.7751
3460.643081 0.7752 0.7752 0.7753 0.7754 0.7755
3465.498300 0.7756 0.7756 0.7757 0.7758 0.7758
3470.353518 0.7759 0.7759 0.7760 0.7761 0.7761
3475.208737 0.7762 0.7762 0.7763 0.7764 0.7764
3480.063956 0.7765 0.7765 0.7766 0.7767 0.7767
3484.919174 0.7767 0.7768 0.7769 0.7769 0.7770
3489.774393 0.7770 0.7771 0.7771 0.7772 0.7773
3494.629612 0.7773 0.7774 0.7774 0.7775 0.7775
3499.484830 0.7775 0.7776 0.7776 0.7777 0.7778
3504.340049 0.7778 0.7779 0.7779 0.7779 0.7780
3509.195268 0.7780 0.7781 0.7781 0.7781 0.7782
3514.050486 0.7782 0.7783 0.7783 0.7783 0.7784
3518.905705 0.7784 0.7784 0.7785 0.7785 0.7786
3523.760924 0.7786 0.7786 0.7787 0.7787 0.7788
3528.616143 0.7788 0.7788 0.7789 0.7789 0.7789
3533.471361 0.7790 0.7791 0.7791 0.7791 0.7792
3538.326580 0.7792 0.7793 0.7793 0.7793 0.7794
3543.181799 0.7794 0.7794 0.7795 0.7795 0.7796
3548.037017 0.7796 0.7796 0.7797 0.7797 0.7797
3552.892236 0.7797 0.7797 0.7796 0.7796 0.7796
3557.747455 0.7795 0.7795 0.7795 0.7794 0.7794
3562.602673 0.7794 0.7794 0.7794 0.7793 0.7793
3567.457892 0.7792 0.7792 0.7792 0.7791 0.7791
3572.313111 0.7791 0.7791 0.7791 0.7790 0.7790
3577.168329 0.7790 0.7790 0.7790 0.7790 0.7789
3582.023548 0.7789 0.7788 0.7788 0.7783 0.7784
3586.878767 0.7787 0.7787 0.7787 0.7787 0.7786
3591.733985 0.7786 0.7786 0.7786 0.7786 0.7785
3596.589204 0.7785 0.7785 0.7784 0.7784 0.7783
3601.444423 0.7783 0.7783 0.7783 0.7783 0.7783
3606.299641 0.7782 0.7782 0.7782 0.7782 0.7782
3611.154860 0.7781 0.7781 0.7781 0.7780 0.7780
3616.010079 0.7780 0.7779 0.7779 0.7779 0.7779
3620.865297 0.7779 0.7778 0.7778 0.7778 0.7778
3625.720516 0.7778 0.7778 0.7777 0.7776 0.7775
3630.575735 0.7775 0.7774 0.7774 0.7773 0.7773
3635.430953 0.7772 0.7772 0.7771 0.7770 0.7770
3640.286172 0.7769 0.7768 0.7767 0.7767 0.7766
3645.141391 0.7766 0.7765 0.7765 0.7764 0.7763
3649.996609 0.7763 0.7762 0.7761 0.7760 0.7760
3654.851828 0.7759 0.7759 0.7758 0.7758 0.7757
3659.707047 0.7756 0.7756 0.7755 0.7754 0.7754
3664.562265 0.7753 0.7752 0.7751 0.7751 0.7750
3669.417484 0.7749 0.7749 0.7748 0.7748 0.7747
3674.272703 0.7746 0.7745 0.7744 0.7743 0.7742
3679.127922 0.7742 0.7741 0.7740 0.7738 0.7737
3683.983140 0.7736 0.7735 0.7734 0.7734 0.7733
3688.838359 0.7732 0.7731 0.7730 0.7729 0.7728
3693.693578 0.7727 0.7726 0.7725 0.7724 0.7723
3698.548796 0.7722 0.7720 0.7719 0.7718 0.7718
3703.404015 0.7717 0.7716 0.7715 0.7714 0.7713
3708.259234 0.7712 0.7711 0.7710 0.7709 0.7708
3713.114452 0.7707 0.7706 0.7705 0.7704 0.7703
3717.969671 0.7702 0.7700 0.7698 0.7697 0.7696
3722.824890 0.7695 0.7693 0.7692 0.7691 0.7689
3727.680108 0.7688 0.7687 0.7685 0.7683 0.7682
3732.535327 0.7681 0.7679 0.7678 0.7677 0.7676
3737.390546 0.7674 0.7673 0.7672 0.7671 0.7669
3742.245764 0.7668 0.7667 0.7665 0.7664 0.7663
3747.100983 0.7661 0.7660 0.7659 0.7657 0.7656
3751.956202 0.7654 0.7653 0.7652 0.7651 0.7650
3756.811420 0.7648 0.7647 0.7646 0.7644 0.7642
3761.666639 0.7641 0.7640 0.7638 0.7637 0.7635
3766.521858 0.7634 0.7632 0.7631 0.7629 0.7628
3771.377076 0.7625 0.7624 0.7622 0.7621 0.7620
3776.232295 0.7618 0.7617 0.7616 0.7614 0.7613
3781.087514 0.7611 0.7610 0.7608 0.7607 0.7605
3785.942732 0.7604 0.7602 0.7601 0.7599 0.7598
3790.797951 0.7596 0.7595 0.7593 0.7592 0.7590
3795.653170 0.7589 0.7587 0.7586 0.7584 0.7583
3800.508388 0.7581 0.7580 0.7578 0.7576 0.7575
3805.363607 0.7573 0.7572 0.7570 0.7569 0.7567
3810.218826 0.7566 0.7564 0.7563 0.7561 0.7559
3815.074044 0.7558 0.7556 0.7555 0.7554 0.7552
3819.929263 0.7551 0.7549 0.7548 0.7546 0.7545
3824.784482 0.7543 0.7542 0.7540 0.7539 0.7537
3829.639700 0.7536 0.7534 0.7533 0.7531 0.7529
3834.494919 0.7527 0.7526 0.7524 0.7523 0.7521
3839.350138 0.7520 0.7518 0.7517 0.7516 0.7514
3844.205357 0.7512 0.7510 0.7509 0.7507 0.7505
3849.060575 0.7504 0.7502 0.7501 0.7499 0.7497
3853.915794 0.7495 0.7494 0.7492 0.7491 0.7489
3858.771013 0.7488 0.7487 0.7485 0.7483 0.7482
3863.626231 0.7480 0.7479 0.7477 0.7475 0.7474
3868.481450 0.7472 0.7471 0.7469 0.7467 0.7465
3873.336669 0.7464 0.7463 0.7461 0.7460 0.7458
3878.191887 0.7457 0.7455 0.7454 0.7452 0.7450
3883.047106 0.7448 0.7447 0.7445 0.7444 0.7442
3887.902325 0.7441 0.7439 0.7437 0.7436 0.7434
3892.757543 0.7433 0.7431 0.7430 0.7428 0.7427
3897.612762 0.7426 0.7424 0.7423 0.7421 0.7420
3902.467981 0.0000
##END=
