##TITLE=Benzensulfonic acid, 2,4,6-trinitro-, sodium salt
##JCAMP-DX=4.24
$$ By DXEDIT 1.05 (RS McDonald)
##DATA TYPE=INFRARED SPECTRUM
##CLASS=COBLENTZ III
##ORIGIN=DOW CHEMICAL COMPANY
##OWNER=COPYRIGHT (C) 1988 by COBLENTZ SOCIETY INC.
Collection (C) 2018 copyright by the U.S. Secretary of Commerce
on behalf of the United States of America. All rights reserved.
##DATE=1965/10/05
##MOLFORM=C6 H2 N3 Na O9 S
##SOURCE REFERENCE=COBLENTZ NO. 07245
##$NIST ID=B6007245
##$NIST SOURCE=COBLENTZ
##$NIST IMAGE=cob7245
##SPECTROMETER/DATA SYSTEM=BECKMAN IR-9 (GRATING)
##INSTRUMENT PARAMETERS=ORDER CHANGES: 670, 1200, 2000 CM^-^1
##STATE=SOLID (SPLIT MULL), FLUOROLUBE FOR 3800-1330 CM^-^1, NUJOL FOR 1330-400 CM^-^1
$$SPECTRAL CONTAMINATION DUE TO AN UNKNOWN AROUND 400 CM^-^1
##SAMPLING PROCEDURE=TRANSMISSION
##RESOLUTION=2
##DATA PROCESSING=DIGITIZED BY COBLENTZ SOCIETY (BATCH I) FROM HARD COPY
##XUNITS=1/CM
##YUNITS=TRANSMITTANCE
##XFACTOR=1
##YFACTOR=1
##DELTAX=1
##FIRSTX=3796
##LASTX=402
##FIRSTY=0.8334
##MAXX=3796
##MINX=402
##MAXY=0.8994
##MINY=0.0559
##NPOINTS=3395
##XYDATA=(X++(Y..Y))
3796.000000 0.8334 0.8334 0.8334 0.8333 0.8333
3791.000000 0.8332 0.8332 0.8332 0.8332 0.8331
3786.000000 0.8331 0.8330 0.8330 0.8328 0.8328
3781.000000 0.8328 0.8328 0.8328 0.8328 0.8327
3776.000000 0.8327 0.8325 0.8325 0.8325 0.8325
3771.000000 0.8327 0.8328 0.8330 0.8331 0.8332
3766.000000 0.8334 0.8335 0.8336 0.8336 0.8337
3761.000000 0.8337 0.8338 0.8338 0.8339 0.8341
3756.000000 0.8343 0.8346 0.8350 0.8353 0.8357
3751.000000 0.8360 0.8364 0.8368 0.8371 0.8374
3746.000000 0.8377 0.8378 0.8380 0.8381 0.8383
3741.000000 0.8384 0.8385 0.8386 0.8388 0.8389
3736.000000 0.8391 0.8392 0.8394 0.8395 0.8397
3731.000000 0.8398 0.8400 0.8402 0.8404 0.8405
3726.000000 0.8407 0.8408 0.8409 0.8410 0.8411
3721.000000 0.8412 0.8413 0.8414 0.8415 0.8407
3716.000000 0.8400 0.8390 0.8380 0.8368 0.8359
3711.000000 0.8355 0.8352 0.8349 0.8347 0.8344
3706.000000 0.8341 0.8341 0.8341 0.8340 0.8340
3701.000000 0.8340 0.8340 0.8339 0.8339 0.8339
3696.000000 0.8339 0.8339 0.8339 0.8338 0.8338
3691.000000 0.8338 0.8338 0.8337 0.8337 0.8337
3686.000000 0.8337 0.8336 0.8336 0.8336 0.8336
3681.000000 0.8335 0.8335 0.8334 0.8333 0.8332
3676.000000 0.8332 0.8331 0.8331 0.8330 0.8328
3671.000000 0.8328 0.8328 0.8327 0.8327 0.8325
3666.000000 0.8325 0.8324 0.8324 0.8323 0.8323
3661.000000 0.8321 0.8321 0.8320 0.8320 0.8318
3656.000000 0.8318 0.8318 0.8317 0.8316 0.8316
3651.000000 0.8315 0.8314 0.8313 0.8313 0.8312
3646.000000 0.8311 0.8310 0.8310 0.8309 0.8308
3641.000000 0.8306 0.8305 0.8303 0.8302 0.8300
3636.000000 0.8299 0.8297 0.8296 0.8294 0.8293
3631.000000 0.8291 0.8290 0.8288 0.8287 0.8285
3626.000000 0.8283 0.8281 0.8278 0.8277 0.8275
3621.000000 0.8270 0.8264 0.8254 0.8244 0.8214
3616.000000 0.8185 0.8175 0.8165 0.8162 0.8161
3611.000000 0.8158 0.8155 0.8165 0.8175 0.8201
3606.000000 0.8227 0.8235 0.8243 0.8249 0.8255
3601.000000 0.8255 0.8256 0.8257 0.8258 0.8252
3596.000000 0.8246 0.8235 0.8225 0.8210 0.8195
3591.000000 0.8175 0.8157 0.8124 0.8091 0.8088
3586.000000 0.8086 0.8083 0.8081 0.8078 0.8076
3581.000000 0.8084 0.8092 0.8149 0.8207 0.8221
3576.000000 0.8238 0.8253 0.8268 0.8283 0.8299
3571.000000 0.8302 0.8305 0.8305 0.8305 0.8305
3566.000000 0.8306 0.8306 0.8306 0.8306 0.8306
3561.000000 0.8306 0.8306 0.8306 0.8307 0.8307
3556.000000 0.8307 0.8307 0.8307 0.8307 0.8307
3551.000000 0.8307 0.8308 0.8308 0.8308 0.8308
3546.000000 0.8309 0.8309 0.8309 0.8309 0.8310
3541.000000 0.8310 0.8311 0.8311 0.8311 0.8311
3536.000000 0.8312 0.8312 0.8312 0.8312 0.8313
3531.000000 0.8313 0.8314 0.8314 0.8314 0.8314
3526.000000 0.8315 0.8315 0.8315 0.8315 0.8316
3521.000000 0.8316 0.8317 0.8317 0.8317 0.8317
3516.000000 0.8318 0.8318 0.8318 0.8318 0.8318
3511.000000 0.8318 0.8320 0.8320 0.8320 0.8320
3506.000000 0.8321 0.8321 0.8323 0.8323 0.8324
3501.000000 0.8324 0.8325 0.8325 0.8325 0.8325
3496.000000 0.8327 0.8327 0.8328 0.8328 0.8330
3491.000000 0.8330 0.8331 0.8331 0.8332 0.8332
3486.000000 0.8333 0.8333 0.8334 0.8335 0.8336
3481.000000 0.8336 0.8337 0.8337 0.8338 0.8338
3476.000000 0.8339 0.8339 0.8340 0.8340 0.8341
3471.000000 0.8342 0.8343 0.8343 0.8344 0.8344
3466.000000 0.8345 0.8345 0.8346 0.8346 0.8347
3461.000000 0.8347 0.8348 0.8348 0.8348 0.8348
3456.000000 0.8349 0.8349 0.8349 0.8349 0.8350
3451.000000 0.8350 0.8350 0.8350 0.8351 0.8351
3446.000000 0.8351 0.8351 0.8352 0.8352 0.8352
3441.000000 0.8352 0.8352 0.8352 0.8353 0.8353
3436.000000 0.8353 0.8353 0.8354 0.8354 0.8354
3431.000000 0.8354 0.8355 0.8355 0.8355 0.8355
3426.000000 0.8356 0.8356 0.8356 0.8356 0.8356
3421.000000 0.8356 0.8357 0.8358 0.8359 0.8360
3416.000000 0.8361 0.8362 0.8363 0.8364 0.8365
3411.000000 0.8366 0.8367 0.8368 0.8368 0.8370
3406.000000 0.8371 0.8371 0.8373 0.8373 0.8374
3401.000000 0.8375 0.8375 0.8377 0.8378 0.8378
3396.000000 0.8380 0.8381 0.8382 0.8383 0.8384
3391.000000 0.8385 0.8386 0.8387 0.8388 0.8389
3386.000000 0.8390 0.8390 0.8391 0.8392 0.8393
3381.000000 0.8394 0.8395 0.8396 0.8397 0.8398
3376.000000 0.8399 0.8400 0.8402 0.8403 0.8405
3371.000000 0.8406 0.8408 0.8409 0.8411 0.8412
3366.000000 0.8414 0.8415 0.8417 0.8418 0.8420
3361.000000 0.8421 0.8423 0.8424 0.8425 0.8427
3356.000000 0.8428 0.8430 0.8431 0.8432 0.8434
3351.000000 0.8435 0.8437 0.8438 0.8440 0.8441
3346.000000 0.8443 0.8444 0.8446 0.8447 0.8449
3341.000000 0.8450 0.8452 0.8453 0.8455 0.8456
3336.000000 0.8458 0.8459 0.8461 0.8462 0.8464
3331.000000 0.8465 0.8467 0.8468 0.8470 0.8471
3326.000000 0.8473 0.8474 0.8475 0.8475 0.8475
3321.000000 0.8475 0.8477 0.8477 0.8478 0.8478
3316.000000 0.8478 0.8478 0.8480 0.8480 0.8481
3311.000000 0.8481 0.8482 0.8482 0.8483 0.8483
3306.000000 0.8484 0.8484 0.8485 0.8485 0.8486
3301.000000 0.8486 0.8487 0.8487 0.8488 0.8488
3296.000000 0.8489 0.8489 0.8490 0.8490 0.8491
3291.000000 0.8491 0.8492 0.8492 0.8493 0.8493
3286.000000 0.8494 0.8494 0.8495 0.8495 0.8496
3281.000000 0.8496 0.8497 0.8497 0.8498 0.8498
3276.000000 0.8499 0.8499 0.8500 0.8500 0.8501
3271.000000 0.8501 0.8502 0.8502 0.8503 0.8503
3266.000000 0.8504 0.8504 0.8505 0.8505 0.8506
3261.000000 0.8506 0.8507 0.8507 0.8508 0.8508
3256.000000 0.8509 0.8509 0.8510 0.8510 0.8511
3251.000000 0.8511 0.8512 0.8512 0.8513 0.8513
3246.000000 0.8514 0.8514 0.8515 0.8515 0.8516
3241.000000 0.8516 0.8517 0.8517 0.8518 0.8518
3236.000000 0.8518 0.8518 0.8518 0.8518 0.8520
3231.000000 0.8520 0.8521 0.8521 0.8521 0.8521
3226.000000 0.8521 0.8521 0.8521 0.8521 0.8521
3221.000000 0.8521 0.8521 0.8521 0.8521 0.8521
3216.000000 0.8521 0.8521 0.8521 0.8521 0.8521
3211.000000 0.8521 0.8521 0.8521 0.8523 0.8523
3206.000000 0.8523 0.8523 0.8523 0.8523 0.8523
3201.000000 0.8523 0.8523 0.8523 0.8523 0.8523
3196.000000 0.8524 0.8524 0.8524 0.8524 0.8525
3191.000000 0.8525 0.8525 0.8525 0.8525 0.8525
3186.000000 0.8527 0.8527 0.8527 0.8527 0.8528
3181.000000 0.8528 0.8528 0.8528 0.8528 0.8528
3176.000000 0.8530 0.8530 0.8531 0.8531 0.8531
3171.000000 0.8531 0.8532 0.8532 0.8532 0.8532
3166.000000 0.8532 0.8531 0.8531 0.8530 0.8530
3161.000000 0.8528 0.8528 0.8528 0.8528 0.8527
3156.000000 0.8527 0.8525 0.8525 0.8525 0.8525
3151.000000 0.8524 0.8524 0.8521 0.8520 0.8518
3146.000000 0.8517 0.8515 0.8513 0.8511 0.8509
3141.000000 0.8507 0.8506 0.8504 0.8502 0.8500
3136.000000 0.8499 0.8496 0.8494 0.8491 0.8488
3131.000000 0.8485 0.8483 0.8480 0.8477 0.8474
3126.000000 0.8471 0.8466 0.8462 0.8457 0.8453
3121.000000 0.8448 0.8443 0.8438 0.8434 0.8427
3116.000000 0.8421 0.8410 0.8399 0.8388 0.8377
3111.000000 0.8363 0.8350 0.8332 0.8315 0.8298
3106.000000 0.8281 0.8230 0.8178 0.8028 0.7878
3101.000000 0.7253 0.6628 0.6003 0.5378 0.5338
3096.000000 0.5298 0.5288 0.5279 0.5269 0.5260
3091.000000 0.5216 0.5173 0.5139 0.4946 0.5033
3086.000000 0.4960 0.4956 0.4956 0.4957 0.4962
3081.000000 0.4974 0.4986 0.5660 0.6337 0.7212
3076.000000 0.8090 0.8111 0.8133 0.8155 0.8176
3071.000000 0.8194 0.8212 0.8220 0.8228 0.8236
3066.000000 0.8244 0.8252 0.8260 0.8268 0.8275
3061.000000 0.8284 0.8293 0.8299 0.8306 0.8310
3056.000000 0.8314 0.8318 0.8321 0.8325 0.8330
3051.000000 0.8334 0.8338 0.8342 0.8346 0.8352
3046.000000 0.8359 0.8368 0.8377 0.8386 0.8395
3041.000000 0.8404 0.8413 0.8421 0.8431 0.8440
3036.000000 0.8449 0.8455 0.8462 0.8464 0.8467
3031.000000 0.8468 0.8471 0.8474 0.8477 0.8478
3026.000000 0.8482 0.8484 0.8487 0.8489 0.8492
3021.000000 0.8495 0.8498 0.8500 0.8503 0.8503
3016.000000 0.8503 0.8503 0.8503 0.8503 0.8503
3011.000000 0.8503 0.8503 0.8503 0.8503 0.8503
3006.000000 0.8503 0.8503 0.8503 0.8503 0.8503
3001.000000 0.8502 0.8502 0.8502 0.8502 0.8502
2996.000000 0.8502 0.8501 0.8501 0.8500 0.8499
2991.000000 0.8498 0.8498 0.8497 0.8497 0.8496
2986.000000 0.8496 0.8495 0.8495 0.8494 0.8494
2981.000000 0.8493 0.8493 0.8492 0.8491 0.8490
2976.000000 0.8490 0.8489 0.8488 0.8487 0.8487
2971.000000 0.8486 0.8485 0.8484 0.8483 0.8482
2966.000000 0.8481 0.8480 0.8478 0.8478 0.8477
2961.000000 0.8475 0.8475 0.8470 0.8465 0.8459
2956.000000 0.8454 0.8448 0.8443 0.8438 0.8433
2951.000000 0.8427 0.8421 0.8417 0.8412 0.8406
2946.000000 0.8401 0.8396 0.8391 0.8386 0.8381
2941.000000 0.8375 0.8370 0.8365 0.8360 0.8355
2936.000000 0.8350 0.8349 0.8348 0.8348 0.8348
2931.000000 0.8348 0.8349 0.8349 0.8349 0.8349
2926.000000 0.8349 0.8349 0.8349 0.8349 0.8350
2921.000000 0.8350 0.8350 0.8350 0.8350 0.8350
2916.000000 0.8351 0.8353 0.8355 0.8360 0.8365
2911.000000 0.8370 0.8375 0.8380 0.8386 0.8391
2906.000000 0.8396 0.8401 0.8407 0.8414 0.8421
2901.000000 0.8428 0.8435 0.8441 0.8448 0.8455
2896.000000 0.8462 0.8468 0.8475 0.8482 0.8488
2891.000000 0.8493 0.8498 0.8503 0.8508 0.8513
2886.000000 0.8518 0.8523 0.8528 0.8533 0.8538
2881.000000 0.8543 0.8548 0.8550 0.8553 0.8554
2876.000000 0.8555 0.8555 0.8556 0.8557 0.8558
2871.000000 0.8558 0.8559 0.8560 0.8561 0.8561
2866.000000 0.8562 0.8563 0.8564 0.8565 0.8566
2861.000000 0.8570 0.8574 0.8578 0.8584 0.8589
2856.000000 0.8594 0.8599 0.8604 0.8609 0.8614
2851.000000 0.8618 0.8624 0.8628 0.8633 0.8638
2846.000000 0.8643 0.8643 0.8644 0.8644 0.8645
2841.000000 0.8645 0.8646 0.8646 0.8647 0.8647
2836.000000 0.8648 0.8648 0.8649 0.8650 0.8651
2831.000000 0.8651 0.8652 0.8652 0.8653 0.8653
2826.000000 0.8654 0.8654 0.8655 0.8655 0.8656
2821.000000 0.8656 0.8657 0.8657 0.8658 0.8658
2816.000000 0.8659 0.8659 0.8660 0.8660 0.8660
2811.000000 0.8660 0.8661 0.8661 0.8661 0.8661
2806.000000 0.8662 0.8662 0.8662 0.8662 0.8663
2801.000000 0.8663 0.8663 0.8663 0.8664 0.8664
2796.000000 0.8664 0.8664 0.8665 0.8665 0.8665
2791.000000 0.8665 0.8665 0.8665 0.8666 0.8666
2786.000000 0.8666 0.8666 0.8667 0.8667 0.8667
2781.000000 0.8667 0.8668 0.8668 0.8668 0.8668
2776.000000 0.8668 0.8668 0.8668 0.8668 0.8670
2771.000000 0.8671 0.8671 0.8671 0.8673 0.8673
2766.000000 0.8674 0.8674 0.8675 0.8675 0.8675
2761.000000 0.8675 0.8677 0.8677 0.8678 0.8678
2756.000000 0.8678 0.8680 0.8681 0.8681 0.8682
2751.000000 0.8682 0.8683 0.8683 0.8684 0.8684
2746.000000 0.8685 0.8685 0.8686 0.8686 0.8687
2741.000000 0.8687 0.8688 0.8689 0.8690 0.8691
2736.000000 0.8693 0.8694 0.8696 0.8697 0.8699
2731.000000 0.8700 0.8702 0.8703 0.8705 0.8706
2726.000000 0.8708 0.8709 0.8711 0.8712 0.8714
2721.000000 0.8715 0.8717 0.8718 0.8720 0.8721
2716.000000 0.8723 0.8724 0.8725 0.8727 0.8728
2711.000000 0.8730 0.8732 0.8733 0.8735 0.8736
2706.000000 0.8738 0.8739 0.8741 0.8742 0.8744
2701.000000 0.8745 0.8747 0.8747 0.8748 0.8748
2696.000000 0.8749 0.8749 0.8750 0.8750 0.8751
2691.000000 0.8751 0.8752 0.8752 0.8753 0.8753
2686.000000 0.8754 0.8754 0.8755 0.8756 0.8757
2681.000000 0.8757 0.8758 0.8758 0.8759 0.8759
2676.000000 0.8760 0.8760 0.8761 0.8761 0.8762
2671.000000 0.8762 0.8763 0.8763 0.8764 0.8764
2666.000000 0.8765 0.8766 0.8767 0.8767 0.8768
2661.000000 0.8768 0.8768 0.8768 0.8770 0.8770
2656.000000 0.8770 0.8770 0.8771 0.8771 0.8771
2651.000000 0.8771 0.8771 0.8771 0.8771 0.8771
2646.000000 0.8771 0.8771 0.8771 0.8771 0.8771
2641.000000 0.8771 0.8771 0.8771 0.8771 0.8771
2636.000000 0.8771 0.8771 0.8773 0.8773 0.8773
2631.000000 0.8773 0.8773 0.8773 0.8773 0.8773
2626.000000 0.8773 0.8773 0.8773 0.8773 0.8774
2621.000000 0.8774 0.8774 0.8774 0.8774 0.8774
2616.000000 0.8774 0.8774 0.8774 0.8774 0.8775
2611.000000 0.8775 0.8775 0.8775 0.8775 0.8775
2606.000000 0.8775 0.8775 0.8775 0.8775 0.8777
2601.000000 0.8777 0.8777 0.8777 0.8778 0.8778
2596.000000 0.8778 0.8778 0.8778 0.8778 0.8780
2591.000000 0.8780 0.8780 0.8780 0.8781 0.8781
2586.000000 0.8781 0.8781 0.8782 0.8782 0.8783
2581.000000 0.8783 0.8783 0.8783 0.8784 0.8784
2576.000000 0.8784 0.8784 0.8785 0.8785 0.8786
2571.000000 0.8786 0.8786 0.8786 0.8787 0.8787
2566.000000 0.8787 0.8787 0.8788 0.8788 0.8789
2561.000000 0.8789 0.8789 0.8789 0.8789 0.8789
2556.000000 0.8790 0.8790 0.8790 0.8790 0.8791
2551.000000 0.8791 0.8791 0.8791 0.8792 0.8792
2546.000000 0.8792 0.8792 0.8793 0.8793 0.8793
2541.000000 0.8793 0.8793 0.8793 0.8793 0.8791
2536.000000 0.8789 0.8787 0.8786 0.8784 0.8782
2531.000000 0.8780 0.8778 0.8777 0.8775 0.8773
2526.000000 0.8771 0.8768 0.8768 0.8766 0.8764
2521.000000 0.8763 0.8762 0.8760 0.8759 0.8758
2516.000000 0.8757 0.8755 0.8754 0.8753 0.8752
2511.000000 0.8751 0.8750 0.8749 0.8749 0.8750
2506.000000 0.8751 0.8752 0.8753 0.8754 0.8755
2501.000000 0.8756 0.8757 0.8758 0.8759 0.8759
2496.000000 0.8760 0.8761 0.8762 0.8763 0.8765
2491.000000 0.8766 0.8768 0.8768 0.8771 0.8771
2486.000000 0.8773 0.8774 0.8775 0.8777 0.8778
2481.000000 0.8780 0.8782 0.8783 0.8784 0.8785
2476.000000 0.8787 0.8788 0.8790 0.8791 0.8792
2471.000000 0.8792 0.8793 0.8793 0.8794 0.8794
2466.000000 0.8795 0.8795 0.8796 0.8796 0.8797
2461.000000 0.8797 0.8797 0.8796 0.8796 0.8795
2456.000000 0.8795 0.8794 0.8794 0.8793 0.8793
2451.000000 0.8792 0.8791 0.8790 0.8790 0.8789
2446.000000 0.8789 0.8788 0.8788 0.8787 0.8787
2441.000000 0.8786 0.8786 0.8785 0.8785 0.8784
2436.000000 0.8784 0.8784 0.8784 0.8783 0.8783
2431.000000 0.8782 0.8782 0.8781 0.8781 0.8780
2426.000000 0.8780 0.8778 0.8778 0.8778 0.8778
2421.000000 0.8777 0.8775 0.8775 0.8775 0.8774
2416.000000 0.8774 0.8773 0.8773 0.8771 0.8770
2411.000000 0.8768 0.8767 0.8765 0.8763 0.8761
2406.000000 0.8760 0.8758 0.8757 0.8755 0.8753
2401.000000 0.8753 0.8753 0.8757 0.8762 0.8766
2396.000000 0.8771 0.8775 0.8780 0.8791 0.8802
2391.000000 0.8818 0.8834 0.8848 0.8863 0.8870
2386.000000 0.8877 0.8883 0.8890 0.8892 0.8892
2381.000000 0.8893 0.8892 0.8890 0.8888 0.8886
2376.000000 0.8884 0.8882 0.8880 0.8878 0.8875
2371.000000 0.8874 0.8873 0.8871 0.8868 0.8865
2366.000000 0.8861 0.8856 0.8851 0.8845 0.8840
2361.000000 0.8835 0.8830 0.8824 0.8818 0.8814
2356.000000 0.8809 0.8804 0.8799 0.8793 0.8788
2351.000000 0.8784 0.8780 0.8778 0.8775 0.8773
2346.000000 0.8771 0.8768 0.8767 0.8765 0.8763
2341.000000 0.8761 0.8759 0.8756 0.8754 0.8752
2336.000000 0.8750 0.8748 0.8746 0.8744 0.8742
2331.000000 0.8740 0.8738 0.8737 0.8736 0.8735
2326.000000 0.8734 0.8733 0.8732 0.8730 0.8728
2321.000000 0.8728 0.8727 0.8725 0.8725 0.8724
2316.000000 0.8723 0.8721 0.8720 0.8718 0.8718
2311.000000 0.8717 0.8716 0.8714 0.8713 0.8712
2306.000000 0.8711 0.8710 0.8709 0.8708 0.8707
2301.000000 0.8706 0.8706 0.8706 0.8708 0.8709
2296.000000 0.8711 0.8712 0.8714 0.8715 0.8717
2291.000000 0.8718 0.8720 0.8721 0.8723 0.8724
2286.000000 0.8725 0.8727 0.8728 0.8730 0.8732
2281.000000 0.8733 0.8735 0.8736 0.8738 0.8739
2276.000000 0.8740 0.8742 0.8745 0.8747 0.8750
2271.000000 0.8752 0.8755 0.8757 0.8760 0.8762
2266.000000 0.8765 0.8767 0.8770 0.8771 0.8775
2261.000000 0.8777 0.8780 0.8782 0.8785 0.8787
2256.000000 0.8789 0.8791 0.8794 0.8796 0.8799
2251.000000 0.8801 0.8804 0.8806 0.8809 0.8811
2246.000000 0.8814 0.8816 0.8818 0.8820 0.8821
2241.000000 0.8823 0.8825 0.8825 0.8828 0.8828
2236.000000 0.8831 0.8832 0.8834 0.8835 0.8837
2231.000000 0.8838 0.8840 0.8841 0.8843 0.8844
2226.000000 0.8846 0.8847 0.8849 0.8850 0.8852
2221.000000 0.8853 0.8855 0.8856 0.8858 0.8859
2216.000000 0.8861 0.8862 0.8864 0.8865 0.8867
2211.000000 0.8868 0.8870 0.8871 0.8873 0.8874
2206.000000 0.8875 0.8877 0.8878 0.8880 0.8882
2201.000000 0.8883 0.8885 0.8886 0.8888 0.8889
2196.000000 0.8891 0.8892 0.8894 0.8895 0.8896
2191.000000 0.8896 0.8897 0.8897 0.8898 0.8898
2186.000000 0.8899 0.8899 0.8900 0.8900 0.8901
2181.000000 0.8901 0.8902 0.8902 0.8903 0.8903
2176.000000 0.8904 0.8904 0.8905 0.8905 0.8906
2171.000000 0.8906 0.8907 0.8907 0.8908 0.8908
2166.000000 0.8909 0.8909 0.8910 0.8910 0.8911
2161.000000 0.8911 0.8912 0.8912 0.8913 0.8913
2156.000000 0.8914 0.8914 0.8915 0.8915 0.8916
2151.000000 0.8916 0.8917 0.8917 0.8918 0.8918
2146.000000 0.8920 0.8920 0.8921 0.8921 0.8921
2141.000000 0.8921 0.8923 0.8923 0.8924 0.8925
2136.000000 0.8925 0.8925 0.8927 0.8927 0.8928
2131.000000 0.8928 0.8930 0.8930 0.8931 0.8932
2126.000000 0.8933 0.8933 0.8934 0.8934 0.8935
2121.000000 0.8936 0.8937 0.8937 0.8938 0.8939
2116.000000 0.8940 0.8940 0.8941 0.8941 0.8942
2111.000000 0.8943 0.8944 0.8944 0.8945 0.8946
2106.000000 0.8947 0.8947 0.8948 0.8948 0.8949
2101.000000 0.8950 0.8951 0.8951 0.8952 0.8953
2096.000000 0.8954 0.8954 0.8955 0.8955 0.8956
2091.000000 0.8957 0.8958 0.8958 0.8959 0.8959
2086.000000 0.8960 0.8961 0.8962 0.8962 0.8963
2081.000000 0.8964 0.8965 0.8965 0.8966 0.8966
2076.000000 0.8967 0.8968 0.8968 0.8968 0.8970
2071.000000 0.8970 0.8971 0.8971 0.8973 0.8973
2066.000000 0.8974 0.8974 0.8975 0.8975 0.8977
2061.000000 0.8977 0.8978 0.8978 0.8980 0.8980
2056.000000 0.8981 0.8981 0.8982 0.8983 0.8984
2051.000000 0.8984 0.8984 0.8984 0.8984 0.8984
2046.000000 0.8984 0.8984 0.8984 0.8984 0.8984
2041.000000 0.8984 0.8984 0.8984 0.8984 0.8984
2036.000000 0.8984 0.8984 0.8984 0.8984 0.8984
2031.000000 0.8984 0.8984 0.8983 0.8983 0.8983
2026.000000 0.8983 0.8983 0.8983 0.8983 0.8983
2021.000000 0.8983 0.8983 0.8982 0.8982 0.8981
2016.000000 0.8981 0.8980 0.8980 0.8980 0.8980
2011.000000 0.8978 0.8978 0.8978 0.8978 0.8978
2006.000000 0.8978 0.8977 0.8977 0.8975 0.8975
2001.000000 0.8975 0.8975 0.8975 0.8977 0.8978
1996.000000 0.8978 0.8981 0.8981 0.8982 0.8984
1991.000000 0.8986 0.8988 0.8990 0.8992 0.8993
1986.000000 0.8993 0.8994 0.8993 0.8992 0.8990
1981.000000 0.8989 0.8988 0.8987 0.8985 0.8984
1976.000000 0.8983 0.8981 0.8980 0.8978 0.8978
1971.000000 0.8977 0.8975 0.8974 0.8973 0.8971
1966.000000 0.8971 0.8970 0.8968 0.8967 0.8966
1961.000000 0.8965 0.8964 0.8964 0.8964 0.8964
1956.000000 0.8964 0.8964 0.8964 0.8964 0.8964
1951.000000 0.8964 0.8964 0.8964 0.8965 0.8965
1946.000000 0.8965 0.8965 0.8965 0.8965 0.8965
1941.000000 0.8965 0.8964 0.8963 0.8962 0.8961
1936.000000 0.8960 0.8959 0.8958 0.8957 0.8956
1931.000000 0.8955 0.8954 0.8953 0.8952 0.8951
1926.000000 0.8950 0.8949 0.8948 0.8947 0.8946
1921.000000 0.8945 0.8944 0.8943 0.8942 0.8940
1916.000000 0.8939 0.8938 0.8937 0.8935 0.8934
1911.000000 0.8933 0.8931 0.8930 0.8928 0.8928
1906.000000 0.8925 0.8925 0.8924 0.8921 0.8921
1901.000000 0.8920 0.8918 0.8917 0.8916 0.8915
1896.000000 0.8914 0.8913 0.8912 0.8911 0.8910
1891.000000 0.8909 0.8908 0.8907 0.8907 0.8906
1886.000000 0.8905 0.8905 0.8905 0.8905 0.8905
1881.000000 0.8905 0.8905 0.8905 0.8906 0.8906
1876.000000 0.8906 0.8906 0.8906 0.8906 0.8906
1871.000000 0.8907 0.8907 0.8907 0.8906 0.8906
1866.000000 0.8906 0.8906 0.8906 0.8906 0.8906
1861.000000 0.8903 0.8899 0.8895 0.8891 0.8887
1856.000000 0.8883 0.8878 0.8875 0.8868 0.8863
1851.000000 0.8858 0.8852 0.8838 0.8818 0.8799
1846.000000 0.8778 0.8759 0.8739 0.8718 0.8706
1841.000000 0.8694 0.8682 0.8675 0.8670 0.8664
1836.000000 0.8656 0.8656 0.8656 0.8656 0.8670
1831.000000 0.8685 0.8701 0.8716 0.8733 0.8752
1826.000000 0.8771 0.8789 0.8808 0.8827 0.8846
1821.000000 0.8854 0.8862 0.8870 0.8878 0.8886
1816.000000 0.8894 0.8898 0.8899 0.8899 0.8900
1811.000000 0.8901 0.8901 0.8902 0.8903 0.8903
1806.000000 0.8904 0.8904 0.8905 0.8906 0.8906
1801.000000 0.8907 0.8908 0.8908 0.8909 0.8910
1796.000000 0.8910 0.8910 0.8910 0.8909 0.8908
1791.000000 0.8908 0.8907 0.8907 0.8906 0.8906
1786.000000 0.8905 0.8904 0.8904 0.8903 0.8903
1781.000000 0.8902 0.8902 0.8901 0.8900 0.8900
1776.000000 0.8899 0.8899 0.8898 0.8898 0.8897
1771.000000 0.8896 0.8895 0.8895 0.8894 0.8893
1766.000000 0.8892 0.8892 0.8891 0.8890 0.8890
1761.000000 0.8889 0.8888 0.8887 0.8887 0.8886
1756.000000 0.8885 0.8884 0.8884 0.8883 0.8882
1751.000000 0.8881 0.8881 0.8880 0.8878 0.8878
1746.000000 0.8877 0.8875 0.8875 0.8874 0.8873
1741.000000 0.8871 0.8871 0.8870 0.8868 0.8868
1736.000000 0.8867 0.8866 0.8865 0.8864 0.8863
1731.000000 0.8863 0.8862 0.8861 0.8860 0.8858
1726.000000 0.8856 0.8855 0.8853 0.8852 0.8850
1721.000000 0.8849 0.8847 0.8846 0.8844 0.8843
1716.000000 0.8841 0.8839 0.8838 0.8836 0.8835
1711.000000 0.8833 0.8825 0.8831 0.8830 0.8828
1706.000000 0.8828 0.8827 0.8825 0.8825 0.8824
1701.000000 0.8823 0.8821 0.8821 0.8820 0.8818
1696.000000 0.8817 0.8816 0.8815 0.8813 0.8810
1691.000000 0.8808 0.8805 0.8803 0.8801 0.8798
1686.000000 0.8796 0.8793 0.8791 0.8788 0.8786
1681.000000 0.8784 0.8781 0.8778 0.8777 0.8774
1676.000000 0.8771 0.8770 0.8766 0.8762 0.8757
1671.000000 0.8752 0.8748 0.8743 0.8739 0.8734
1666.000000 0.8728 0.8725 0.8716 0.8709 0.8702
1661.000000 0.8695 0.8689 0.8682 0.8675 0.8668
1656.000000 0.8661 0.8652 0.8642 0.8632 0.8621
1651.000000 0.8613 0.8608 0.8602 0.8596 0.8591
1646.000000 0.8585 0.8578 0.8578 0.8577 0.8575
1641.000000 0.8571 0.8570 0.8568 0.8565 0.8563
1636.000000 0.8562 0.8561 0.8560 0.8557 0.8547
1631.000000 0.8537 0.8525 0.8515 0.8501 0.8487
1626.000000 0.8461 0.8432 0.8402 0.8373 0.8331
1621.000000 0.8280 0.8230 0.8121 0.7975 0.7772
1616.000000 0.7597 0.7125 0.6591 0.6233 0.6241
1611.000000 0.6401 0.6634 0.6865 0.7098 0.7261
1606.000000 0.7360 0.7465 0.7574 0.7674 0.7758
1601.000000 0.7825 0.7869 0.7889 0.7935 0.7905
1596.000000 0.7900 0.7882 0.7851 0.7819 0.7799
1591.000000 0.7783 0.7757 0.7724 0.7690 0.7651
1586.000000 0.7584 0.7515 0.7449 0.7312 0.7156
1581.000000 0.6961 0.6765 0.6535 0.6287 0.4678
1576.000000 0.4492 0.4240 0.3943 0.3545 0.3101
1571.000000 0.2657 0.2213 0.1769 0.1420 0.1514
1566.000000 0.1714 0.1915 0.2116 0.2317 0.2317
1561.000000 0.1894 0.1445 0.0996 0.0559 0.0570
1556.000000 0.0936 0.1446 0.1958 0.2469 0.2979
1551.000000 0.3490 0.4000 0.4224 0.4247 0.3716
1546.000000 0.3376 0.3035 0.2437 0.2456 0.2459
1541.000000 0.3002 0.3566 0.4130 0.4695 0.5476
1536.000000 0.6544 0.6815 0.7055 0.7153 0.7250
1531.000000 0.7348 0.7407 0.7451 0.7497 0.7542
1526.000000 0.7587 0.7625 0.7661 0.7695 0.7728
1521.000000 0.7762 0.7798 0.7832 0.7865 0.7900
1516.000000 0.7930 0.7957 0.7984 0.8011 0.8038
1511.000000 0.8065 0.8092 0.8118 0.8146 0.8172
1506.000000 0.8192 0.8208 0.8223 0.8239 0.8255
1501.000000 0.8271 0.8286 0.8302 0.8318 0.8334
1496.000000 0.8350 0.8362 0.8375 0.8388 0.8401
1491.000000 0.8413 0.8425 0.8439 0.8448 0.8455
1486.000000 0.8462 0.8468 0.8475 0.8481 0.8488
1481.000000 0.8495 0.8500 0.8504 0.8507 0.8511
1476.000000 0.8514 0.8517 0.8521 0.8521 0.8521
1471.000000 0.8518 0.8516 0.8512 0.8509 0.8496
1466.000000 0.8542 0.8470 0.8458 0.8446 0.8434
1461.000000 0.8434 0.8434 0.8438 0.8443 0.8447
1456.000000 0.8451 0.8456 0.8460 0.8465 0.8468
1451.000000 0.8474 0.8478 0.8483 0.8487 0.8492
1446.000000 0.8496 0.8501 0.8505 0.8510 0.8513
1441.000000 0.8516 0.8518 0.8521 0.8524 0.8527
1436.000000 0.8530 0.8531 0.8527 0.8521 0.8517
1431.000000 0.8512 0.8508 0.8503 0.8487 0.8468
1426.000000 0.8450 0.8425 0.8399 0.8371 0.8345
1421.000000 0.8318 0.8293 0.8268 0.8242 0.8217
1416.000000 0.8181 0.8144 0.8107 0.8065 0.8022
1411.000000 0.7980 0.7939 0.7897 0.7872 0.7857
1406.000000 0.7845 0.7841 0.7839 0.7844 0.7867
1401.000000 0.7904 0.7948 0.8001 0.8019 0.8028
1396.000000 0.8031 0.8031 0.8031 0.8030 0.7958
1391.000000 0.7892 0.7830 0.7768 0.7704 0.7640
1386.000000 0.7571 0.7497 0.7438 0.7398 0.7358
1381.000000 0.7301 0.7232 0.7161 0.7018 0.6875
1376.000000 0.6726 0.6575 0.6344 0.5943 0.5071
1371.000000 0.4820 0.4707 0.4087 0.3396 0.2705
1366.000000 0.1296 0.1322 0.1322 0.1322 0.1342
1361.000000 0.1499 0.1614 0.1706 0.2350 0.2687
1356.000000 0.3159 0.3630 0.4103 0.4575 0.5048
1351.000000 0.5647 0.5935 0.6206 0.6428 0.6667
1346.000000 0.6921 0.7104 0.7282 0.7428 0.7571
1341.000000 0.7721 0.7850 0.7893 0.7906 0.7919
1336.000000 0.7934 0.7944 0.7953 0.7975 0.8126
1331.000000 0.8147 0.8151 0.8156 0.8161 0.8165
1326.000000 0.8171 0.8175 0.8181 0.8183 0.8137
1321.000000 0.8186 0.8188 0.8171 0.8153 0.8136
1316.000000 0.8119 0.8107 0.8098 0.8088 0.8078
1311.000000 0.8068 0.8060 0.8035 0.8006 0.7978
1306.000000 0.7946 0.7895 0.7843 0.7775 0.7694
1301.000000 0.7612 0.7471 0.7293 0.5896 0.5886
1296.000000 0.5952 0.6073 0.6195 0.6317 0.6397
1291.000000 0.6415 0.6391 0.5780 0.5140 0.4499
1286.000000 0.3859 0.3218 0.2579 0.2013 0.2010
1281.000000 0.2349 0.2775 0.3202 0.3632 0.3880
1276.000000 0.4038 0.4496 0.4749 0.5515 0.5540
1271.000000 0.5565 0.5590 0.6678 0.6926 0.7196
1266.000000 0.7311 0.7442 0.7540 0.7564 0.7581
1261.000000 0.7599 0.7593 0.7590 0.7587 0.7585
1256.000000 0.7565 0.7528 0.7422 0.7319 0.7206
1251.000000 0.6998 0.6717 0.6210 0.5724 0.4323
1246.000000 0.3205 0.2179 0.2183 0.2367 0.3387
1241.000000 0.3366 0.3280 0.2920 0.2559 0.2198
1236.000000 0.1990 0.1993 0.2031 0.3222 0.4412
1231.000000 0.5603 0.5921 0.5916 0.5683 0.5472
1226.000000 0.5479 0.6204 0.6995 0.7678 0.7875
1221.000000 0.7947 0.7984 0.8021 0.8055 0.8078
1216.000000 0.8101 0.8110 0.8117 0.8122 0.8121
1211.000000 0.8121 0.8121 0.8110 0.8097 0.8078
1206.000000 0.8060 0.8032 0.8001 0.7978 0.7978
1201.000000 0.7976 0.7974 0.8007 0.8043 0.8075
1196.000000 0.8105 0.8118 0.8130 0.8142 0.8155
1191.000000 0.8167 0.8178 0.8190 0.8201 0.8212
1186.000000 0.8223 0.8234 0.8244 0.8249 0.8253
1181.000000 0.8256 0.8260 0.8264 0.8268 0.8271
1176.000000 0.8275 0.8278 0.8278 0.8278 0.8277
1171.000000 0.8277 0.8277 0.8277 0.8277 0.8275
1166.000000 0.8274 0.8271 0.8268 0.8265 0.8262
1161.000000 0.8259 0.8256 0.8253 0.8249 0.8241
1156.000000 0.8234 0.8225 0.8218 0.8211 0.8203
1151.000000 0.8194 0.8178 0.8164 0.8149 0.8134
1146.000000 0.8108 0.8076 0.8044 0.8007 0.7951
1141.000000 0.7895 0.7824 0.7718 0.7575 0.7115
1136.000000 0.6634 0.6153 0.5671 0.5252 0.5253
1131.000000 0.5355 0.5718 0.6080 0.6443 0.6806
1126.000000 0.7168 0.7351 0.7475 0.7700 0.7841
1121.000000 0.7946 0.8018 0.8085 0.8135 0.8161
1116.000000 0.8171 0.8183 0.8187 0.8186 0.8185
1111.000000 0.8185 0.8184 0.8183 0.8178 0.8165
1106.000000 0.8151 0.8139 0.8125 0.8106 0.8082
1101.000000 0.8058 0.8034 0.8007 0.7953 0.7900
1096.000000 0.7846 0.7781 0.7715 0.7651 0.7528
1091.000000 0.7401 0.7167 0.6832 0.5997 0.5109
1086.000000 0.4221 0.4136 0.4129 0.4846 0.5756
1081.000000 0.6665 0.7349 0.7481 0.7601 0.7705
1076.000000 0.7762 0.7821 0.7875 0.7928 0.7976
1071.000000 0.8015 0.8034 0.8048 0.8053 0.8058
1066.000000 0.8062 0.8064 0.8064 0.8071 0.8057
1061.000000 0.8054 0.8040 0.8019 0.7999 0.7976
1056.000000 0.7949 0.7921 0.7892 0.7847 0.7786
1051.000000 0.7718 0.7640 0.7501 0.7311 0.7245
1046.000000 0.6968 0.6391 0.5812 0.5532 0.5602
1041.000000 0.5662 0.6280 0.7351 0.7828 0.7993
1036.000000 0.8058 0.8122 0.8176 0.8197 0.8217
1031.000000 0.8237 0.8257 0.8271 0.8283 0.8294
1026.000000 0.8305 0.8316 0.8327 0.8339 0.8350
1021.000000 0.8361 0.8371 0.8383 0.8395 0.8406
1016.000000 0.8414 0.8420 0.8427 0.8433 0.8439
1011.000000 0.8446 0.8452 0.8458 0.8465 0.8471
1006.000000 0.8477 0.8480 0.8482 0.8484 0.8485
1001.000000 0.8487 0.8488 0.8490 0.8491 0.8493
996.000000 0.8495 0.8496 0.8498 0.8499 0.8501
991.000000 0.8503 0.8504 0.8504 0.8504 0.8505
986.000000 0.8505 0.8506 0.8506 0.8506 0.8507
981.000000 0.8507 0.8507 0.8508 0.8508 0.8508
976.000000 0.8509 0.8509 0.8509 0.8509 0.8509
971.000000 0.8509 0.8509 0.8509 0.8509 0.8509
966.000000 0.8508 0.8507 0.8505 0.8503 0.8501
961.000000 0.8499 0.8497 0.8494 0.8491 0.8488
956.000000 0.8484 0.8481 0.8475 0.8471 0.8455
951.000000 0.8438 0.8416 0.8390 0.8358 0.8320
946.000000 0.8281 0.8227 0.8139 0.8041 0.7953
941.000000 0.7915 0.7878 0.8098 0.8192 0.8237
936.000000 0.8247 0.8252 0.8251 0.8280 0.8101
931.000000 0.7946 0.7551 0.7430 0.7428 0.7428
926.000000 0.7551 0.7661 0.7741 0.7742 0.7743
921.000000 0.7711 0.7612 0.7385 0.7156 0.6928
916.000000 0.6778 0.6825 0.7208 0.7774 0.8386
911.000000 0.8416 0.8434 0.8452 0.8468 0.8487
906.000000 0.8492 0.8496 0.8500 0.8503 0.8507
901.000000 0.8511 0.8515 0.8518 0.8523 0.8527
896.000000 0.8531 0.8535 0.8539 0.8543 0.8547
891.000000 0.8552 0.8556 0.8560 0.8564 0.8568
886.000000 0.8571 0.8575 0.8578 0.8582 0.8585
881.000000 0.8588 0.8591 0.8594 0.8597 0.8600
876.000000 0.8603 0.8606 0.8609 0.8611 0.8613
871.000000 0.8614 0.8616 0.8617 0.8618 0.8620
866.000000 0.8621 0.8623 0.8624 0.8625 0.8627
861.000000 0.8628 0.8628 0.8628 0.8628 0.8630
856.000000 0.8630 0.8630 0.8630 0.8630 0.8628
851.000000 0.8628 0.8627 0.8625 0.8625 0.8624
846.000000 0.8623 0.8589 0.8613 0.8607 0.8602
841.000000 0.8596 0.8591 0.8584 0.8578 0.8571
836.000000 0.8556 0.8539 0.8520 0.8491 0.8464
831.000000 0.8447 0.8511 0.8551 0.8588 0.8589
826.000000 0.8591 0.8592 0.8594 0.8594 0.8594
821.000000 0.8593 0.8593 0.8592 0.8591 0.8591
816.000000 0.8590 0.8589 0.8588 0.8586 0.8585
811.000000 0.8583 0.8582 0.8580 0.8578 0.8577
806.000000 0.8575 0.8574 0.8571 0.8571 0.8568
801.000000 0.8567 0.8566 0.8565 0.8564 0.8563
796.000000 0.8562 0.8560 0.8559 0.8558 0.8557
791.000000 0.8556 0.8555 0.8552 0.8547 0.8542
786.000000 0.8538 0.8533 0.8528 0.8524 0.8518
781.000000 0.8513 0.8506 0.8500 0.8493 0.8487
776.000000 0.8480 0.8463 0.8445 0.8425 0.8394
771.000000 0.8356 0.8306 0.8232 0.8112 0.7932
766.000000 0.6939 0.6561 0.6917 0.7336 0.7543
761.000000 0.7433 0.6861 0.7558 0.5718 0.5147
756.000000 0.4575 0.3857 0.3884 0.4476 0.5307
751.000000 0.6138 0.6968 0.7801 0.8047 0.8056
746.000000 0.8064 0.8065 0.6999 0.6400 0.5801
741.000000 0.5122 0.5176 0.5785 0.6394 0.7001
736.000000 0.7611 0.7908 0.7905 0.7917 0.7711
731.000000 0.7143 0.6575 0.6007 0.5439 0.4871
726.000000 0.4223 0.4256 0.4431 0.4958 0.5210
721.000000 0.5595 0.6119 0.6644 0.7168 0.7918
716.000000 0.8054 0.8138 0.8207 0.8271 0.8325
711.000000 0.8380 0.8414 0.8428 0.8436 0.8445
706.000000 0.8447 0.8448 0.8449 0.8450 0.8450
701.000000 0.8451 0.8452 0.8452 0.8453 0.8453
696.000000 0.8454 0.8454 0.8455 0.8456 0.8457
691.000000 0.8457 0.8458 0.8459 0.8460 0.8462
686.000000 0.8463 0.8463 0.8455 0.8439 0.8424
681.000000 0.8403 0.8371 0.8340 0.8312 0.8303
676.000000 0.8296 0.8288 0.8278 0.8270 0.8141
671.000000 0.7904 0.7667 0.7575 0.7565 0.7567
666.000000 0.7730 0.7838 0.7951 0.8028 0.8065
661.000000 0.8081 0.8095 0.8101 0.8106 0.8143
656.000000 0.8111 0.8108 0.8064 0.8018 0.7925
651.000000 0.7815 0.7235 0.6450 0.5664 0.4879
646.000000 0.4094 0.3857 0.3884 0.3948 0.4155
641.000000 0.4978 0.5802 0.6625 0.7450 0.8111
636.000000 0.8135 0.8158 0.8180 0.8214 0.8278
631.000000 0.8333 0.8375 0.8418 0.8446 0.8460
626.000000 0.8474 0.8477 0.8478 0.8478 0.8481
621.000000 0.8482 0.8483 0.8484 0.8486 0.8487
616.000000 0.8488 0.8489 0.8491 0.8492 0.8494
611.000000 0.8495 0.8497 0.8498 0.8500 0.8501
606.000000 0.8503 0.8503 0.8502 0.8501 0.8500
601.000000 0.8499 0.8498 0.8497 0.8496 0.8495
596.000000 0.8489 0.8482 0.8475 0.8468 0.8461
591.000000 0.8455 0.8448 0.8434 0.8418 0.8402
586.000000 0.8386 0.8357 0.8325 0.8290 0.8236
581.000000 0.8182 0.8128 0.8087 0.8058 0.8071
576.000000 0.8085 0.8098 0.8110 0.8117 0.8118
571.000000 0.8108 0.8099 0.8062 0.8028 0.7957
566.000000 0.7878 0.7780 0.7515 0.7000 0.6989
561.000000 0.6991 0.7181 0.7547 0.7848 0.7828
556.000000 0.7765 0.7700 0.7633 0.7571 0.7586
551.000000 0.7578 0.7806 0.7992 0.8104 0.8184
546.000000 0.8251 0.8294 0.8338 0.8346 0.8351
541.000000 0.8357 0.8361 0.8361 0.8362 0.8354
536.000000 0.8345 0.8337 0.8328 0.8315 0.8292
531.000000 0.8268 0.8246 0.8223 0.8195 0.8156
526.000000 0.8115 0.8072 0.8031 0.7991 0.7983
521.000000 0.7986 0.8012 0.8031 0.8049 0.8065
516.000000 0.8082 0.8086 0.8091 0.8092 0.8092
511.000000 0.8089 0.8086 0.8082 0.8075 0.8068
506.000000 0.8061 0.8055 0.8044 0.8017 0.7991
501.000000 0.7965 0.7925 0.7878 0.7830 0.7786
496.000000 0.7745 0.7703 0.7662 0.7632 0.7608
491.000000 0.7606 0.7603 0.7600 0.7596 0.7590
486.000000 0.7584 0.7578 0.7561 0.7536 0.7511
481.000000 0.7481 0.7443 0.7406 0.7368 0.7331
476.000000 0.7294 0.7256 0.7171 0.7083 0.6939
471.000000 0.6640 0.6525 0.6403 0.6386 0.6380
466.000000 0.6377 0.6393 0.6475 0.6567 0.6671
461.000000 0.6783 0.6881 0.6933 0.6978 0.6976
456.000000 0.6975 0.6965 0.6955 0.6937 0.6901
451.000000 0.6865 0.6767 0.6661 0.6542 0.6401
446.000000 0.6269 0.6204 0.6171 0.6167 0.6167
441.000000 0.6167 0.6232 0.6329 0.6336 0.6344
436.000000 0.6342 0.6338 0.6335 0.6329 0.6308
431.000000 0.6272 0.6236 0.6164 0.6060 0.5952
426.000000 0.5841 0.5796 0.5775 0.5754 0.5740
421.000000 0.5731 0.5722 0.5712 0.5704 0.5698
416.000000 0.5695 0.5692 0.5690 0.5699 0.5707
411.000000 0.5716 0.5725 0.5734 0.5742 0.5759
406.000000 0.5785 0.5810 0.5833 0.5851 0.5869
##END=
