##TITLE=17-ETHYLENEDIOXY-3Alpha,5Alpha-CYCLOANDROSTAN-6-ONE
##JCAMP-DX=4.24
##DATA TYPE=INFRARED SPECTRUM
##CLASS=COBLENTZ III
##ORIGIN=ABBOTT LABORATORIES
##OWNER=Copyright (C) 1987 by the Coblentz Society
Collection (C) 2018 copyright by the U.S. Secretary of Commerce
on behalf of the United States of America. All rights reserved.
##DATE=1960/09/30
##MOLFORM=C21 H30 O3
##SOURCE REFERENCE=COBLENTZ NO. 5336
##$NIST ID=B6005336
##$NIST SOURCE=COBLENTZ
##$NIST IMAGE=cob5336
##SPECTROMETER/DATA SYSTEM=PERKIN-ELMER 21 (GRATING)
##INSTRUMENT PARAMETERS=FILTER AT ABOUT 10 MICRONS
##STATE=SOLUTION 7% (CS2 FOR 7.5-15 microns, AND CCl4 FOR 2.5-7.5 microns)
##PATH LENGTH=0.01 CM
##RESOLUTION=2
##XUNITS=1/CM
##YUNITS=TRANSMITTANCE
##XFACTOR=1.0
##YFACTOR=1
##FIRSTX=666
##LASTX=4000
##FIRSTY=0.8219
##MAXX=4000
##MINX=666
##MAXY=0.9285
##MINY=0.0797
##NPOINTS=3335
##XYDATA=(X++(Y..Y))
666.000000 0.8219 0.8101 0.8061 0.8017 0.7969
671.000000 0.7937 0.7909 0.7892 0.7879 0.7873
676.000000 0.7871 0.7819 0.7891 0.7922 0.7963
681.000000 0.8023 0.8095 0.8160 0.8225 0.8291
686.000000 0.8346 0.8379 0.8406 0.8411 0.8410
691.000000 0.8408 0.8411 0.8416 0.8423 0.8447
696.000000 0.8475 0.8506 0.8539 0.8575 0.8607
701.000000 0.8631 0.8654 0.8667 0.8678 0.8682
706.000000 0.8682 0.8682 0.8681 0.8679 0.8678
711.000000 0.8676 0.8674 0.8671 0.8667 0.8663
716.000000 0.8659 0.8654 0.8647 0.8641 0.8634
721.000000 0.8627 0.8620 0.8613 0.8608 0.8601
726.000000 0.8594 0.8588 0.8582 0.8573 0.8564
731.000000 0.8554 0.8544 0.8534 0.8516 0.8497
736.000000 0.8478 0.8459 0.8440 0.8412 0.8383
741.000000 0.8354 0.8326 0.8284 0.8224 0.8165
746.000000 0.8090 0.7999 0.7901 0.7810 0.7777
751.000000 0.7747 0.7799 0.7870 0.7989 0.8119
756.000000 0.8232 0.8325 0.8385 0.8433 0.8464
761.000000 0.8484 0.8487 0.8493 0.8486 0.8482
766.000000 0.8473 0.8451 0.8430 0.8407 0.8384
771.000000 0.8361 0.8333 0.8297 0.8255 0.8198
776.000000 0.8142 0.8082 0.8022 0.7988 0.7969
781.000000 0.7952 0.7957 0.7969 0.7999 0.8098
786.000000 0.8181 0.8233 0.8253 0.8270 0.8273
791.000000 0.8269 0.8267 0.8259 0.8246 0.8224
796.000000 0.8203 0.8177 0.8122 0.8067 0.8012
801.000000 0.7890 0.7753 0.7610 0.7453 0.7290
806.000000 0.7147 0.7031 0.6967 0.7027 0.7203
811.000000 0.7414 0.7624 0.7834 0.7991 0.8140
816.000000 0.8201 0.8252 0.8295 0.8316 0.8330
821.000000 0.8362 0.8323 0.8314 0.8303 0.8293
826.000000 0.8268 0.8237 0.8213 0.8192 0.8185
831.000000 0.8134 0.8223 0.8275 0.8324 0.8370
836.000000 0.8421 0.8475 0.8528 0.8580 0.8631
841.000000 0.8649 0.8665 0.8679 0.8686 0.8686
846.000000 0.8678 0.8669 0.8660 0.8649 0.8634
851.000000 0.8618 0.8600 0.8570 0.8540 0.8500
856.000000 0.8452 0.8395 0.8337 0.8263 0.8189
861.000000 0.8114 0.8020 0.7905 0.7752 0.7571
866.000000 0.7374 0.7168 0.6932 0.6779 0.6666
871.000000 0.6693 0.6766 0.6892 0.7056 0.7184
876.000000 0.7321 0.7436 0.7513 0.7591 0.7655
881.000000 0.7709 0.7736 0.7743 0.7734 0.7699
886.000000 0.7622 0.7504 0.7308 0.7113 0.6929
891.000000 0.6713 0.6479 0.6080 0.5693 0.5555
896.000000 0.5495 0.5479 0.5488 0.5579 0.5874
901.000000 0.6168 0.6461 0.6754 0.7046 0.7367
906.000000 0.7486 0.7572 0.7585 0.7598 0.7583
911.000000 0.7564 0.7530 0.7462 0.7360 0.7250
916.000000 0.7134 0.7021 0.6912 0.6797 0.6673
921.000000 0.6621 0.6699 0.6877 0.7115 0.7301
926.000000 0.7471 0.7675 0.7794 0.7854 0.7880
931.000000 0.7890 0.7877 0.7851 0.7786 0.7681
936.000000 0.7564 0.7442 0.7337 0.7234 0.7098
941.000000 0.6906 0.6526 0.6102 0.5678 0.5528
946.000000 0.5520 0.5729 0.6040 0.6349 0.6659
951.000000 0.6822 0.6806 0.6816 0.6758 0.6580
956.000000 0.6354 0.6129 0.5904 0.5684 0.5634
961.000000 0.5612 0.5823 0.6036 0.6249 0.6460
966.000000 0.6672 0.6884 0.7090 0.7246 0.7411
971.000000 0.7523 0.7579 0.7604 0.7593 0.7596
976.000000 0.7551 0.7504 0.7430 0.7311 0.7171
981.000000 0.6990 0.6842 0.6793 0.6750 0.6880
986.000000 0.7020 0.7203 0.7361 0.7484 0.7484
991.000000 0.7495 0.7446 0.7401 0.7345 0.7288
996.000000 0.7217 0.7087 0.6707 0.6317 0.6050
1001.000000 0.6071 0.6238 0.6407 0.6504 0.6493
1006.000000 0.6289 0.6103 0.5918 0.5738 0.5709
1011.000000 0.5839 0.6047 0.6255 0.6462 0.6670
1016.000000 0.6769 0.6754 0.6682 0.6443 0.6205
1021.000000 0.5966 0.5728 0.5491 0.5254 0.5017
1026.000000 0.4883 0.4922 0.5062 0.5201 0.5254
1031.000000 0.5226 0.4730 0.4396 0.4062 0.3729
1036.000000 0.3397 0.3065 0.2734 0.2657 0.2676
1041.000000 0.3005 0.3382 0.3758 0.4132 0.4506
1046.000000 0.4717 0.4740 0.4762 0.4787 0.4901
1051.000000 0.5080 0.5259 0.5330 0.5316 0.5289
1056.000000 0.5236 0.5171 0.5102 0.5058 0.5030
1061.000000 0.5029 0.5053 0.5192 0.5335 0.5476
1066.000000 0.5618 0.5758 0.5897 0.5962 0.5991
1071.000000 0.6010 0.6022 0.6030 0.6035 0.6039
1076.000000 0.6044 0.6050 0.6040 0.6048 0.6041
1081.000000 0.5994 0.5896 0.5777 0.5481 0.5148
1086.000000 0.4814 0.4482 0.4150 0.3819 0.3488
1091.000000 0.3158 0.2829 0.2582 0.2560 0.2563
1096.000000 0.2608 0.2829 0.3118 0.3407 0.3695
1101.000000 0.3983 0.4270 0.4557 0.4843 0.5128
1106.000000 0.5413 0.5696 0.5887 0.6027 0.6127
1111.000000 0.6172 0.6178 0.6173 0.6191 0.6095
1116.000000 0.5962 0.5830 0.5697 0.5566 0.5434
1121.000000 0.5303 0.5170 0.5125 0.5113 0.5090
1126.000000 0.5228 0.5411 0.5575 0.5667 0.5709
1131.000000 0.5704 0.5723 0.5635 0.5576 0.5511
1136.000000 0.5393 0.5364 0.5345 0.5408 0.5482
1141.000000 0.5561 0.5630 0.5642 0.5637 0.5609
1146.000000 0.5552 0.5428 0.5303 0.5132 0.4973
1151.000000 0.4736 0.4501 0.4266 0.4031 0.3796
1156.000000 0.3562 0.3329 0.3095 0.2862 0.2630
1161.000000 0.2399 0.2156 0.2043 0.1996 0.1987
1166.000000 0.1993 0.2076 0.2410 0.2774 0.3138
1171.000000 0.3501 0.3863 0.4225 0.4587 0.4947
1176.000000 0.5308 0.5668 0.5908 0.5979 0.6039
1181.000000 0.6090 0.6137 0.6180 0.6222 0.6282
1186.000000 0.6347 0.6479 0.6606 0.6688 0.6779
1191.000000 0.6878 0.6936 0.6987 0.7018 0.7047
1196.000000 0.7070 0.7100 0.7083 0.7068 0.7047
1201.000000 0.7020 0.6979 0.6932 0.6859 0.6796
1206.000000 0.6735 0.6675 0.6611 0.6542 0.6478
1211.000000 0.6433 0.6450 0.6459 0.6470 0.6486
1216.000000 0.6508 0.6531 0.6555 0.6582 0.6613
1221.000000 0.6644 0.6676 0.6708 0.6739 0.6771
1226.000000 0.6808 0.6852 0.6897 0.6948 0.7010
1231.000000 0.7077 0.7184 0.7287 0.7348 0.7397
1236.000000 0.7440 0.7460 0.7476 0.7475 0.7471
1241.000000 0.7469 0.7455 0.7420 0.7384 0.7336
1246.000000 0.7283 0.7207 0.7117 0.7047 0.7034
1251.000000 0.7012 0.7082 0.7167 0.7232 0.7264
1256.000000 0.7265 0.7256 0.7279 0.7232 0.7207
1261.000000 0.7155 0.7080 0.6892 0.6687 0.6482
1266.000000 0.6276 0.6072 0.5868 0.5665 0.5643
1271.000000 0.5661 0.5685 0.5769 0.5829 0.5847
1276.000000 0.5864 0.5867 0.5859 0.5813 0.5612
1281.000000 0.5359 0.5106 0.4854 0.4602 0.4351
1286.000000 0.4100 0.3849 0.3599 0.3526 0.3518
1291.000000 0.3799 0.4593 0.4605 0.4588 0.4606
1296.000000 0.4532 0.4343 0.4153 0.3963 0.3773
1301.000000 0.3584 0.3425 0.3415 0.3389 0.3435
1306.000000 0.3508 0.3661 0.3897 0.4227 0.4564
1311.000000 0.4900 0.5236 0.5571 0.5906 0.6235
1316.000000 0.6276 0.6287 0.6298 0.6342 0.6457
1321.000000 0.6581 0.6706 0.6830 0.6954 0.7078
1326.000000 0.7201 0.7275 0.7302 0.7328 0.7327
1331.000000 0.7256 0.7317 0.7248 0.7126 0.7001
1336.000000 0.6876 0.6752 0.6646 0.6619 0.6624
1341.000000 0.6660 0.6718 0.6775 0.6832 0.6886
1346.000000 0.6907 0.6908 0.6871 0.6728 0.6570
1351.000000 0.6413 0.6256 0.6100 0.5944 0.5788
1356.000000 0.5632 0.5477 0.5321 0.5166 0.5011
1361.000000 0.4856 0.4740 0.4719 0.4718 0.4736
1366.000000 0.4766 0.4773 0.4777 0.4720 0.4536
1371.000000 0.4355 0.4299 0.4314 0.4376 0.4578
1376.000000 0.4783 0.4988 0.5192 0.5396 0.5599
1381.000000 0.5803 0.6006 0.6209 0.6411 0.6613
1386.000000 0.6815 0.7017 0.7218 0.7419 0.7574
1391.000000 0.7623 0.7639 0.7648 0.7650 0.7644
1396.000000 0.7639 0.7621 0.7602 0.7552 0.7495
1401.000000 0.7432 0.7328 0.7208 0.7087 0.6968
1406.000000 0.6847 0.6758 0.6754 0.6761 0.6830
1411.000000 0.6931 0.7033 0.7134 0.7200 0.7195
1416.000000 0.7200 0.7139 0.7053 0.6963 0.6874
1421.000000 0.6784 0.6695 0.6606 0.6517 0.6428
1426.000000 0.6338 0.6337 0.6361 0.6409 0.6457
1431.000000 0.6505 0.6553 0.6600 0.6648 0.6696
1436.000000 0.6744 0.6783 0.6792 0.6785 0.6769
1441.000000 0.6625 0.6469 0.6313 0.6157 0.6002
1446.000000 0.5846 0.5686 0.5558 0.5527 0.5519
1451.000000 0.5527 0.5547 0.5562 0.5619 0.5677
1456.000000 0.5734 0.5792 0.5845 0.5866 0.5858
1461.000000 0.5848 0.5827 0.5810 0.5796 0.5794
1466.000000 0.5799 0.5805 0.5811 0.5868 0.6087
1471.000000 0.6316 0.6546 0.6775 0.7004 0.7232
1476.000000 0.7461 0.7688 0.7889 0.8011 0.8109
1481.000000 0.8197 0.8262 0.8305 0.8349 0.8385
1486.000000 0.8407 0.8426 0.8446 0.8464 0.8483
1491.000000 0.8506 0.8529 0.8552 0.8577 0.8603
1496.000000 0.8631 0.8658 0.8686 0.8714 0.8742
1501.000000 0.8770 0.8796 0.8822 0.8846 0.8871
1506.000000 0.8895 0.8919 0.8943 0.8966 0.8987
1511.000000 0.9007 0.9027 0.9047 0.9067 0.9087
1516.000000 0.9107 0.9127 0.9141 0.9153 0.9166
1521.000000 0.9179 0.9191 0.9204 0.9216 0.9226
1526.000000 0.9232 0.9238 0.9243 0.9248 0.9252
1531.000000 0.9253 0.9285 0.9253 0.9252 0.9251
1536.000000 0.9249 0.9247 0.9244 0.9242 0.9240
1541.000000 0.9236 0.9232 0.9227 0.9222 0.9218
1546.000000 0.9214 0.9209 0.9202 0.9195 0.9188
1551.000000 0.9182 0.9174 0.9167 0.9160 0.9153
1556.000000 0.9146 0.9138 0.9129 0.9121 0.9113
1561.000000 0.9105 0.9097 0.9088 0.9079 0.9068
1566.000000 0.9057 0.9047 0.9036 0.9025 0.9013
1571.000000 0.9003 0.8992 0.8981 0.8971 0.8961
1576.000000 0.8950 0.8940 0.8930 0.8920 0.8910
1581.000000 0.8899 0.8888 0.8874 0.8861 0.8848
1586.000000 0.8834 0.8820 0.8807 0.8792 0.8778
1591.000000 0.8764 0.8749 0.8735 0.8720 0.8707
1596.000000 0.8695 0.8684 0.8673 0.8661 0.8650
1601.000000 0.8638 0.8626 0.8614 0.8603 0.8591
1606.000000 0.8580 0.8569 0.8557 0.8545 0.8533
1611.000000 0.8520 0.8508 0.8495 0.8483 0.8471
1616.000000 0.8459 0.8446 0.8434 0.8422 0.8409
1621.000000 0.8397 0.8382 0.8367 0.8350 0.8335
1626.000000 0.8319 0.8304 0.8288 0.8269 0.8248
1631.000000 0.8226 0.8204 0.8183 0.8161 0.8136
1636.000000 0.8107 0.8078 0.8049 0.8020 0.7992
1641.000000 0.7963 0.7935 0.7908 0.7880 0.7853
1646.000000 0.7827 0.7799 0.7772 0.7746 0.7717
1651.000000 0.7686 0.7656 0.7625 0.7594 0.7563
1656.000000 0.7529 0.7491 0.7453 0.7414 0.7366
1661.000000 0.7309 0.7251 0.7193 0.7116 0.7026
1666.000000 0.6935 0.6742 0.6388 0.6189 0.6030
1671.000000 0.5818 0.5588 0.5161 0.4774 0.4444
1676.000000 0.4114 0.3785 0.3456 0.3128 0.2799
1681.000000 0.2471 0.2144 0.1817 0.1490 0.1164
1686.000000 0.0890 0.0799 0.0798 0.0797 0.0798
1691.000000 0.0997 0.1347 0.1744 0.2141 0.2537
1696.000000 0.2933 0.3328 0.3723 0.4117 0.4511
1701.000000 0.4904 0.5297 0.5690 0.6082 0.6473
1706.000000 0.6831 0.7047 0.7146 0.7239 0.7298
1711.000000 0.7358 0.7425 0.7494 0.7567 0.7644
1716.000000 0.7722 0.7802 0.7882 0.7950 0.7998
1721.000000 0.8034 0.8071 0.8108 0.8145 0.8179
1726.000000 0.8205 0.8227 0.8250 0.8273 0.8296
1731.000000 0.8313 0.8330 0.8346 0.8362 0.8378
1736.000000 0.8394 0.8410 0.8425 0.8436 0.8444
1741.000000 0.8452 0.8459 0.8467 0.8476 0.8484
1746.000000 0.8491 0.8499 0.8507 0.8514 0.8522
1751.000000 0.8529 0.8533 0.8536 0.8539 0.8542
1756.000000 0.8546 0.8549 0.8552 0.8555 0.8558
1761.000000 0.8561 0.8564 0.8567 0.8571 0.8574
1766.000000 0.8578 0.8581 0.8584 0.8588 0.8607
1771.000000 0.8595 0.8598 0.8601 0.8605 0.8609
1776.000000 0.8612 0.8615 0.8618 0.8621 0.8624
1781.000000 0.8626 0.8629 0.8631 0.8633 0.8636
1786.000000 0.8638 0.8641 0.8643 0.8645 0.8648
1791.000000 0.8650 0.8650 0.8652 0.8653 0.8655
1796.000000 0.8657 0.8658 0.8660 0.8661 0.8663
1801.000000 0.8664 0.8666 0.8667 0.8669 0.8670
1806.000000 0.8672 0.8673 0.8675 0.8676 0.8676
1811.000000 0.8677 0.8678 0.8679 0.8679 0.8680
1816.000000 0.8681 0.8682 0.8682 0.8682 0.8683
1821.000000 0.8684 0.8684 0.8682 0.8681 0.8679
1826.000000 0.8678 0.8677 0.8676 0.8674 0.8673
1831.000000 0.8671 0.8671 0.8672 0.8672 0.8673
1836.000000 0.8674 0.8675 0.8675 0.8675 0.8676
1841.000000 0.8677 0.8677 0.8678 0.8679 0.8679
1846.000000 0.8680 0.8681 0.8683 0.8684 0.8686
1851.000000 0.8687 0.8689 0.8690 0.8692 0.8693
1856.000000 0.8695 0.8696 0.8697 0.8699 0.8700
1861.000000 0.8702 0.8703 0.8705 0.8706 0.8708
1866.000000 0.8709 0.8710 0.8712 0.8713 0.8715
1871.000000 0.8715 0.8715 0.8715 0.8715 0.8715
1876.000000 0.8715 0.8716 0.8716 0.8716 0.8716
1881.000000 0.8716 0.8716 0.8716 0.8716 0.8716
1886.000000 0.8716 0.8715 0.8715 0.8714 0.8714
1891.000000 0.8714 0.8713 0.8712 0.8712 0.8712
1896.000000 0.8711 0.8710 0.8710 0.8710 0.8709
1901.000000 0.8709 0.8708 0.8707 0.8707 0.8705
1906.000000 0.8702 0.8700 0.8698 0.8696 0.8694
1911.000000 0.8692 0.8690 0.8688 0.8687 0.8685
1916.000000 0.8684 0.8684 0.8682 0.8681 0.8680
1921.000000 0.8679 0.8678 0.8677 0.8676 0.8675
1926.000000 0.8674 0.8673 0.8672 0.8671 0.8672
1931.000000 0.8675 0.8677 0.8679 0.8682 0.8684
1936.000000 0.8686 0.8688 0.8690 0.8692 0.8693
1941.000000 0.8695 0.8696 0.8697 0.8698 0.8700
1946.000000 0.8701 0.8702 0.8704 0.8705 0.8707
1951.000000 0.8708 0.8707 0.8707 0.8705 0.8704
1956.000000 0.8704 0.8703 0.8702 0.8701 0.8700
1961.000000 0.8699 0.8699 0.8698 0.8697 0.8696
1966.000000 0.8695 0.8694 0.8694 0.8693 0.8692
1971.000000 0.8689 0.8686 0.8684 0.8681 0.8679
1976.000000 0.8676 0.8674 0.8671 0.8669 0.8666
1981.000000 0.8663 0.8663 0.8662 0.8662 0.8661
1986.000000 0.8660 0.8659 0.8659 0.8660 0.8665
1991.000000 0.8670 0.8674 0.8679 0.8683 0.8688
1996.000000 0.8693 0.8697 0.8701 0.8705 0.8710
2001.000000 0.8711 0.8713 0.8713 0.8714 0.8714
2006.000000 0.8714 0.8714 0.8714 0.8714 0.8714
2011.000000 0.8714 0.8714 0.8714 0.8714 0.8713
2016.000000 0.8713 0.8713 0.8712 0.8712 0.8712
2021.000000 0.8712 0.8710 0.8709 0.8708 0.8706
2026.000000 0.8704 0.8703 0.8701 0.8699 0.8698
2031.000000 0.8696 0.8694 0.8693 0.8691 0.8689
2036.000000 0.8688 0.8688 0.8688 0.8688 0.8689
2041.000000 0.8689 0.8689 0.8689 0.8689 0.8690
2046.000000 0.8690 0.8690 0.8691 0.8691 0.8691
2051.000000 0.8692 0.8692 0.8692 0.8692 0.8692
2056.000000 0.8693 0.8693 0.8693 0.8696 0.8698
2061.000000 0.8700 0.8703 0.8706 0.8709 0.8711
2066.000000 0.8713 0.8716 0.8719 0.8721 0.8724
2071.000000 0.8727 0.8729 0.8732 0.8733 0.8735
2076.000000 0.8737 0.8739 0.8740 0.8742 0.8744
2081.000000 0.8745 0.8747 0.8748 0.8750 0.8751
2086.000000 0.8753 0.8755 0.8757 0.8758 0.8760
2091.000000 0.8761 0.8762 0.8764 0.8766 0.8768
2096.000000 0.8769 0.8771 0.8772 0.8772 0.8772
2101.000000 0.8772 0.8772 0.8772 0.8772 0.8773
2106.000000 0.8773 0.8773 0.8773 0.8773 0.8773
2111.000000 0.8773 0.8773 0.8773 0.8773 0.8773
2116.000000 0.8773 0.8774 0.8774 0.8774 0.8774
2121.000000 0.8774 0.8774 0.8774 0.8774 0.8774
2126.000000 0.8774 0.8774 0.8774 0.8774 0.8774
2131.000000 0.8774 0.8774 0.8774 0.8773 0.8772
2136.000000 0.8772 0.8771 0.8771 0.8771 0.8771
2141.000000 0.8770 0.8770 0.8769 0.8769 0.8769
2146.000000 0.8768 0.8768 0.8767 0.8767 0.8767
2151.000000 0.8767 0.8766 0.8766 0.8765 0.8765
2156.000000 0.8764 0.8764 0.8764 0.8763 0.8763
2161.000000 0.8763 0.8763 0.8763 0.8763 0.8764
2166.000000 0.8764 0.8765 0.8766 0.8767 0.8767
2171.000000 0.8768 0.8768 0.8769 0.8770 0.8770
2176.000000 0.8771 0.8771 0.8772 0.8772 0.8773
2181.000000 0.8773 0.8774 0.8774 0.8775 0.8775
2186.000000 0.8776 0.8776 0.8777 0.8777 0.8778
2191.000000 0.8778 0.8779 0.8780 0.8781 0.8782
2196.000000 0.8782 0.8783 0.8783 0.8783 0.8783
2201.000000 0.8783 0.8783 0.8783 0.8783 0.8783
2206.000000 0.8783 0.8782 0.8782 0.8782 0.8782
2211.000000 0.8782 0.8782 0.8782 0.8782 0.8782
2216.000000 0.8782 0.8781 0.8781 0.8781 0.8781
2221.000000 0.8781 0.8781 0.8781 0.8781 0.8780
2226.000000 0.8780 0.8780 0.8780 0.8780 0.8780
2231.000000 0.8780 0.8780 0.8780 0.8780 0.8779
2236.000000 0.8779 0.8779 0.8779 0.8779 0.8779
2241.000000 0.8778 0.8778 0.8778 0.8778 0.8778
2246.000000 0.8778 0.8778 0.8778 0.8777 0.8777
2251.000000 0.8777 0.8777 0.8777 0.8777 0.8776
2256.000000 0.8776 0.8776 0.8776 0.8776 0.8776
2261.000000 0.8775 0.8775 0.8775 0.8775 0.8775
2266.000000 0.8775 0.8774 0.8774 0.8774 0.8774
2271.000000 0.8774 0.8774 0.8773 0.8773 0.8773
2276.000000 0.8773 0.8773 0.8773 0.8773 0.8773
2281.000000 0.8773 0.8772 0.8772 0.8772 0.8772
2286.000000 0.8771 0.8771 0.8770 0.8769 0.8768
2291.000000 0.8768 0.8767 0.8767 0.8766 0.8766
2296.000000 0.8765 0.8765 0.8764 0.8763 0.8762
2301.000000 0.8762 0.8762 0.8761 0.8761 0.8760
2306.000000 0.8760 0.8759 0.8758 0.8757 0.8757
2311.000000 0.8756 0.8756 0.8755 0.8755 0.8754
2316.000000 0.8753 0.8752 0.8752 0.8752 0.8751
2321.000000 0.8751 0.8750 0.8750 0.8749 0.8749
2326.000000 0.8748 0.8747 0.8746 0.8746 0.8745
2331.000000 0.8745 0.8745 0.8744 0.8744 0.8743
2336.000000 0.8742 0.8741 0.8741 0.8740 0.8740
2341.000000 0.8740 0.8740 0.8740 0.8739 0.8739
2346.000000 0.8739 0.8739 0.8739 0.8739 0.8739
2351.000000 0.8739 0.8739 0.8739 0.8739 0.8739
2356.000000 0.8739 0.8738 0.8738 0.8738 0.8738
2361.000000 0.8738 0.8738 0.8738 0.8738 0.8738
2366.000000 0.8738 0.8738 0.8738 0.8738 0.8737
2371.000000 0.8737 0.8737 0.8737 0.8737 0.8737
2376.000000 0.8737 0.8737 0.8737 0.8737 0.8737
2381.000000 0.8737 0.8737 0.8737 0.8736 0.8736
2386.000000 0.8736 0.8736 0.8736 0.8736 0.8736
2391.000000 0.8736 0.8736 0.8736 0.8737 0.8738
2396.000000 0.8739 0.8740 0.8740 0.8741 0.8742
2401.000000 0.8742 0.8743 0.8744 0.8745 0.8745
2406.000000 0.8746 0.8747 0.8748 0.8749 0.8749
2411.000000 0.8750 0.8751 0.8751 0.8752 0.8753
2416.000000 0.8754 0.8755 0.8756 0.8757 0.8757
2421.000000 0.8758 0.8758 0.8758 0.8758 0.8757
2426.000000 0.8757 0.8757 0.8756 0.8756 0.8755
2431.000000 0.8755 0.8754 0.8754 0.8754 0.8753
2436.000000 0.8753 0.8752 0.8752 0.8752 0.8751
2441.000000 0.8750 0.8749 0.8749 0.8748 0.8748
2446.000000 0.8748 0.8747 0.8747 0.8746 0.8746
2451.000000 0.8745 0.8745 0.8745 0.8744 0.8744
2456.000000 0.8743 0.8742 0.8741 0.8740 0.8738
2461.000000 0.8737 0.8736 0.8735 0.8734 0.8733
2466.000000 0.8732 0.8731 0.8729 0.8728 0.8727
2471.000000 0.8726 0.8724 0.8723 0.8722 0.8721
2476.000000 0.8720 0.8718 0.8717 0.8716 0.8715
2481.000000 0.8713 0.8712 0.8711 0.8710 0.8710
2486.000000 0.8708 0.8707 0.8706 0.8705 0.8704
2491.000000 0.8702 0.8701 0.8700 0.8699 0.8698
2496.000000 0.8696 0.8695 0.8694 0.8693 0.8692
2501.000000 0.8690 0.8689 0.8688 0.8687 0.8686
2506.000000 0.8684 0.8683 0.8682 0.8681 0.8680
2511.000000 0.8678 0.8677 0.8676 0.8675 0.8674
2516.000000 0.8672 0.8671 0.8670 0.8669 0.8668
2521.000000 0.8667 0.8665 0.8664 0.8663 0.8662
2526.000000 0.8661 0.8659 0.8658 0.8657 0.8656
2531.000000 0.8655 0.8653 0.8651 0.8649 0.8647
2536.000000 0.8646 0.8644 0.8642 0.8640 0.8638
2541.000000 0.8636 0.8634 0.8632 0.8630 0.8628
2546.000000 0.8626 0.8624 0.8621 0.8619 0.8617
2551.000000 0.8616 0.8614 0.8612 0.8610 0.8608
2556.000000 0.8606 0.8604 0.8602 0.8600 0.8598
2561.000000 0.8596 0.8593 0.8591 0.8589 0.8586
2566.000000 0.8583 0.8581 0.8579 0.8576 0.8574
2571.000000 0.8571 0.8569 0.8566 0.8564 0.8562
2576.000000 0.8559 0.8557 0.8555 0.8552 0.8549
2581.000000 0.8547 0.8545 0.8543 0.8540 0.8537
2586.000000 0.8536 0.8535 0.8534 0.8534 0.8534
2591.000000 0.8533 0.8533 0.8533 0.8532 0.8531
2596.000000 0.8531 0.8530 0.8530 0.8529 0.8529
2601.000000 0.8529 0.8528 0.8528 0.8528 0.8527
2606.000000 0.8526 0.8525 0.8525 0.8525 0.8524
2611.000000 0.8524 0.8524 0.8523 0.8523 0.8523
2616.000000 0.8522 0.8522 0.8521 0.8521 0.8520
2621.000000 0.8519 0.8519 0.8519 0.8518 0.8518
2626.000000 0.8518 0.8517 0.8517 0.8517 0.8517
2631.000000 0.8518 0.8519 0.8520 0.8521 0.8522
2636.000000 0.8523 0.8524 0.8525 0.8527 0.8528
2641.000000 0.8529 0.8530 0.8531 0.8532 0.8533
2646.000000 0.8534 0.8535 0.8536 0.8537 0.8538
2651.000000 0.8539 0.8540 0.8542 0.8543 0.8544
2656.000000 0.8545 0.8546 0.8547 0.8548 0.8549
2661.000000 0.8550 0.8551 0.8552 0.8553 0.8554
2666.000000 0.8555 0.8556 0.8556 0.8557 0.8559
2671.000000 0.8560 0.8560 0.8561 0.8562 0.8562
2676.000000 0.8563 0.8564 0.8564 0.8565 0.8566
2681.000000 0.8567 0.8567 0.8568 0.8569 0.8570
2686.000000 0.8571 0.8572 0.8572 0.8573 0.8572
2691.000000 0.8572 0.8571 0.8571 0.8570 0.8570
2696.000000 0.8569 0.8568 0.8568 0.8568 0.8567
2701.000000 0.8567 0.8566 0.8565 0.8565 0.8565
2706.000000 0.8564 0.8564 0.8563 0.8562 0.8562
2711.000000 0.8562 0.8561 0.8560 0.8560 0.8558
2716.000000 0.8555 0.8553 0.8550 0.8547 0.8544
2721.000000 0.8542 0.8540 0.8537 0.8535 0.8532
2726.000000 0.8529 0.8527 0.8524 0.8521 0.8517
2731.000000 0.8513 0.8509 0.8503 0.8498 0.8493
2736.000000 0.8487 0.8482 0.8477 0.8471 0.8465
2741.000000 0.8460 0.8454 0.8449 0.8444 0.8437
2746.000000 0.8430 0.8423 0.8416 0.8409 0.8402
2751.000000 0.8394 0.8387 0.8380 0.8372 0.8365
2756.000000 0.8358 0.8351 0.8345 0.8339 0.8333
2761.000000 0.8326 0.8320 0.8314 0.8308 0.8302
2766.000000 0.8294 0.8286 0.8278 0.8268 0.8257
2771.000000 0.8246 0.8234 0.8223 0.8211 0.8198
2776.000000 0.8180 0.8162 0.8143 0.8121 0.8099
2781.000000 0.8077 0.8047 0.8017 0.7987 0.7953
2786.000000 0.7919 0.7885 0.7838 0.7789 0.7741
2791.000000 0.7704 0.7669 0.7634 0.7604 0.7577
2796.000000 0.7550 0.7523 0.7495 0.7468 0.7440
2801.000000 0.7413 0.7386 0.7344 0.7268 0.7191
2806.000000 0.7115 0.7041 0.6968 0.6894 0.6860
2811.000000 0.6825 0.6791 0.6768 0.6748 0.6728
2816.000000 0.6707 0.6687 0.6667 0.6646 0.6626
2821.000000 0.6605 0.6574 0.6520 0.6467 0.6402
2826.000000 0.6273 0.6144 0.6015 0.5887 0.5758
2831.000000 0.5630 0.5501 0.5373 0.5245 0.5117
2836.000000 0.4989 0.4861 0.4733 0.4605 0.4478
2841.000000 0.4350 0.4222 0.4095 0.3967 0.3841
2846.000000 0.3714 0.3587 0.3472 0.3366 0.3259
2851.000000 0.3193 0.3193 0.3194 0.3196 0.3208
2856.000000 0.3220 0.3233 0.3245 0.3257 0.3269
2861.000000 0.3281 0.3292 0.3304 0.3316 0.3328
2866.000000 0.3340 0.3352 0.3364 0.3376 0.3387
2871.000000 0.3399 0.3411 0.3423 0.3435 0.3446
2876.000000 0.3458 0.3470 0.3479 0.3488 0.3497
2881.000000 0.3499 0.3499 0.3499 0.3499 0.3500
2886.000000 0.3501 0.3494 0.3449 0.3404 0.3359
2891.000000 0.3298 0.3234 0.3170 0.3105 0.3041
2896.000000 0.2977 0.2912 0.2848 0.2784 0.2720
2901.000000 0.2656 0.2593 0.2529 0.2465 0.2401
2906.000000 0.2338 0.2274 0.2210 0.2146 0.2083
2911.000000 0.2047 0.2029 0.2010 0.1992 0.1980
2916.000000 0.1968 0.1955 0.1949 0.1944 0.1938
2921.000000 0.1935 0.1935 0.1935 0.1935 0.1935
2926.000000 0.1935 0.1935 0.1936 0.1937 0.1938
2931.000000 0.1934 0.1940 0.1941 0.1942 0.1945
2936.000000 0.1948 0.1951 0.1963 0.1999 0.2035
2941.000000 0.2070 0.2145 0.2228 0.2311 0.2394
2946.000000 0.2477 0.2560 0.2642 0.2725 0.2807
2951.000000 0.2890 0.2972 0.3054 0.3136 0.3219
2956.000000 0.3301 0.3383 0.3465 0.3547 0.3629
2961.000000 0.3711 0.3793 0.3874 0.3956 0.4038
2966.000000 0.4119 0.4201 0.4282 0.4364 0.4445
2971.000000 0.4526 0.4608 0.4689 0.4770 0.4851
2976.000000 0.4932 0.5013 0.5094 0.5175 0.5256
2981.000000 0.5337 0.5418 0.5499 0.5579 0.5660
2986.000000 0.5740 0.5821 0.5901 0.5982 0.6062
2991.000000 0.6142 0.6222 0.6302 0.6383 0.6462
2996.000000 0.6542 0.6622 0.6702 0.6782 0.6862
3001.000000 0.6942 0.7021 0.7101 0.7180 0.7260
3006.000000 0.7339 0.7419 0.7498 0.7577 0.7656
3011.000000 0.7736 0.7815 0.7914 0.8015 0.8115
3016.000000 0.8193 0.8223 0.8254 0.8284 0.8306
3021.000000 0.8325 0.8343 0.8362 0.8377 0.8392
3026.000000 0.8408 0.8423 0.8438 0.8454 0.8469
3031.000000 0.8479 0.8487 0.8495 0.8503 0.8509
3036.000000 0.8515 0.8521 0.8528 0.8534 0.8540
3041.000000 0.8546 0.8552 0.8558 0.8564 0.8570
3046.000000 0.8576 0.8582 0.8589 0.8595 0.8599
3051.000000 0.8604 0.8609 0.8613 0.8617 0.8620
3056.000000 0.8624 0.8627 0.8631 0.8635 0.8639
3061.000000 0.8642 0.8646 0.8649 0.8653 0.8656
3066.000000 0.8660 0.8664 0.8667 0.8671 0.8674
3071.000000 0.8678 0.8681 0.8685 0.8689 0.8692
3076.000000 0.8696 0.8699 0.8703 0.8706 0.8709
3081.000000 0.8712 0.8716 0.8719 0.8722 0.8724
3086.000000 0.8727 0.8730 0.8733 0.8736 0.8739
3091.000000 0.8742 0.8745 0.8747 0.8750 0.8753
3096.000000 0.8756 0.8759 0.8762 0.8765 0.8768
3101.000000 0.8770 0.8773 0.8776 0.8779 0.8782
3106.000000 0.8785 0.8788 0.8790 0.8793 0.8796
3111.000000 0.8799 0.8802 0.8805 0.8807 0.8810
3116.000000 0.8812 0.8815 0.8818 0.8821 0.8823
3121.000000 0.8826 0.8829 0.8831 0.8834 0.8837
3126.000000 0.8839 0.8842 0.8844 0.8847 0.8850
3131.000000 0.8852 0.8855 0.8858 0.8860 0.8863
3136.000000 0.8866 0.8868 0.8871 0.8873 0.8876
3141.000000 0.8878 0.8881 0.8883 0.8886 0.8901
3146.000000 0.8890 0.8892 0.8894 0.8896 0.8897
3151.000000 0.8898 0.8899 0.8900 0.8901 0.8902
3156.000000 0.8903 0.8904 0.8905 0.8906 0.8907
3161.000000 0.8908 0.8909 0.8909 0.8910 0.8911
3166.000000 0.8912 0.8913 0.8914 0.8915 0.8916
3171.000000 0.8917 0.8918 0.8919 0.8919 0.8920
3176.000000 0.8920 0.8921 0.8921 0.8921 0.8921
3181.000000 0.8921 0.8921 0.8921 0.8921 0.8922
3186.000000 0.8922 0.8922 0.8922 0.8922 0.8922
3191.000000 0.8922 0.8922 0.8923 0.8923 0.8923
3196.000000 0.8923 0.8924 0.8924 0.8924 0.8924
3201.000000 0.8924 0.8924 0.8924 0.8924 0.8924
3206.000000 0.8925 0.8925 0.8925 0.8925 0.8925
3211.000000 0.8925 0.8925 0.8925 0.8926 0.8926
3216.000000 0.8926 0.8926 0.8927 0.8927 0.8927
3221.000000 0.8927 0.8928 0.8928 0.8928 0.8928
3226.000000 0.8929 0.8929 0.8929 0.8929 0.8929
3231.000000 0.8929 0.8929 0.8929 0.8929 0.8930
3236.000000 0.8930 0.8930 0.8930 0.8931 0.8931
3241.000000 0.8931 0.8931 0.8932 0.8932 0.8932
3246.000000 0.8932 0.8933 0.8933 0.8933 0.8933
3251.000000 0.8933 0.8933 0.8933 0.8932 0.8932
3256.000000 0.8931 0.8930 0.8930 0.8929 0.8928
3261.000000 0.8927 0.8927 0.8926 0.8925 0.8924
3266.000000 0.8923 0.8922 0.8921 0.8921 0.8920
3271.000000 0.8919 0.8919 0.8918 0.8917 0.8917
3276.000000 0.8916 0.8915 0.8914 0.8913 0.8912
3281.000000 0.8911 0.8910 0.8908 0.8907 0.8906
3286.000000 0.8903 0.8900 0.8898 0.8895 0.8892
3291.000000 0.8889 0.8887 0.8884 0.8881 0.8878
3296.000000 0.8876 0.8873 0.8871 0.8868 0.8865
3301.000000 0.8863 0.8860 0.8858 0.8856 0.8854
3306.000000 0.8852 0.8850 0.8850 0.8849 0.8848
3311.000000 0.8848 0.8847 0.8846 0.8845 0.8844
3316.000000 0.8843 0.8842 0.8841 0.8840 0.8840
3321.000000 0.8839 0.8838 0.8837 0.8837 0.8837
3326.000000 0.8838 0.8839 0.8840 0.8842 0.8843
3331.000000 0.8844 0.8846 0.8847 0.8849 0.8850
3336.000000 0.8852 0.8853 0.8855 0.8856 0.8857
3341.000000 0.8859 0.8860 0.8862 0.8863 0.8865
3346.000000 0.8866 0.8868 0.8870 0.8872 0.8873
3351.000000 0.8875 0.8877 0.8878 0.8880 0.8881
3356.000000 0.8883 0.8885 0.8886 0.8888 0.8889
3361.000000 0.8891 0.8893 0.8894 0.8896 0.8898
3366.000000 0.8899 0.8899 0.8900 0.8901 0.8902
3371.000000 0.8903 0.8904 0.8905 0.8906 0.8907
3376.000000 0.8907 0.8908 0.8909 0.8910 0.8911
3381.000000 0.8912 0.8913 0.8915 0.8915 0.8916
3386.000000 0.8917 0.8918 0.8919 0.8919 0.8920
3391.000000 0.8921 0.8921 0.8922 0.8922 0.8923
3396.000000 0.8923 0.8924 0.8924 0.8924 0.8925
3401.000000 0.8925 0.8926 0.8926 0.8927 0.8927
3406.000000 0.8928 0.8928 0.8928 0.8929 0.8929
3411.000000 0.8930 0.8930 0.8931 0.8931 0.8931
3416.000000 0.8932 0.8932 0.8933 0.8933 0.8934
3421.000000 0.8934 0.8934 0.8935 0.8935 0.8936
3426.000000 0.8936 0.8936 0.8936 0.8936 0.8937
3431.000000 0.8937 0.8937 0.8937 0.8937 0.8938
3436.000000 0.8938 0.8938 0.8938 0.8939 0.8939
3441.000000 0.8939 0.8939 0.8939 0.8940 0.8940
3446.000000 0.8940 0.8940 0.8940 0.8941 0.8941
3451.000000 0.8941 0.8941 0.8941 0.8942 0.8942
3456.000000 0.8942 0.8942 0.8943 0.8943 0.8943
3461.000000 0.8943 0.8943 0.8944 0.8944 0.8944
3466.000000 0.8945 0.8945 0.8946 0.8946 0.8946
3471.000000 0.8946 0.8946 0.8947 0.8947 0.8947
3476.000000 0.8947 0.8947 0.8948 0.8948 0.8948
3481.000000 0.8948 0.8947 0.8947 0.8947 0.8947
3486.000000 0.8947 0.8946 0.8946 0.8946 0.8946
3491.000000 0.8946 0.8945 0.8945 0.8945 0.8945
3496.000000 0.8945 0.8944 0.8944 0.8944 0.8944
3501.000000 0.8944 0.8943 0.8943 0.8943 0.8943
3506.000000 0.8943 0.8942 0.8942 0.8942 0.8942
3511.000000 0.8942 0.8941 0.8941 0.8941 0.8941
3516.000000 0.8941 0.8940 0.8940 0.8940 0.8940
3521.000000 0.8940 0.8939 0.8939 0.8939 0.8939
3526.000000 0.8939 0.8938 0.8938 0.8938 0.8938
3531.000000 0.8938 0.8937 0.8937 0.8937 0.8937
3536.000000 0.8937 0.8936 0.8936 0.8936 0.8936
3541.000000 0.8936 0.8935 0.8935 0.8935 0.8935
3546.000000 0.8935 0.8934 0.8934 0.8934 0.8934
3551.000000 0.8934 0.8933 0.8933 0.8933 0.8933
3556.000000 0.8933 0.8933 0.8933 0.8933 0.8933
3561.000000 0.8933 0.8932 0.8932 0.8932 0.8932
3566.000000 0.8932 0.8931 0.8931 0.8931 0.8931
3571.000000 0.8931 0.8931 0.8931 0.8931 0.8931
3576.000000 0.8931 0.8930 0.8930 0.8930 0.8930
3581.000000 0.8930 0.8930 0.8930 0.8930 0.8930
3586.000000 0.8930 0.8929 0.8929 0.8929 0.8929
3591.000000 0.8929 0.8929 0.8929 0.8929 0.8929
3596.000000 0.8929 0.8929 0.8928 0.8928 0.8928
3601.000000 0.8928 0.8928 0.8927 0.8927 0.8927
3606.000000 0.8927 0.8927 0.8927 0.8927 0.8927
3611.000000 0.8927 0.8927 0.8926 0.8926 0.8926
3616.000000 0.8926 0.8926 0.8926 0.8926 0.8926
3621.000000 0.8926 0.8926 0.8926 0.8925 0.8925
3626.000000 0.8925 0.8925 0.8925 0.8925 0.8925
3631.000000 0.8925 0.8925 0.8925 0.8924 0.8924
3636.000000 0.8924 0.8924 0.8924 0.8924 0.8924
3641.000000 0.8924 0.8924 0.8924 0.8924 0.8923
3646.000000 0.8923 0.8923 0.8923 0.8923 0.8922
3651.000000 0.8922 0.8922 0.8922 0.8922 0.8922
3656.000000 0.8922 0.8922 0.8922 0.8922 0.8922
3661.000000 0.8921 0.8921 0.8921 0.8921 0.8921
3666.000000 0.8921 0.8921 0.8921 0.8921 0.8921
3671.000000 0.8921 0.8921 0.8921 0.8921 0.8921
3676.000000 0.8921 0.8921 0.8921 0.8921 0.8921
3681.000000 0.8921 0.8921 0.8921 0.8921 0.8921
3686.000000 0.8921 0.8921 0.8921 0.8921 0.8921
3691.000000 0.8921 0.8921 0.8921 0.8921 0.8921
3696.000000 0.8921 0.8921 0.8921 0.8921 0.8921
3701.000000 0.8921 0.8921 0.8921 0.8921 0.8921
3706.000000 0.8921 0.8921 0.8921 0.8921 0.8921
3711.000000 0.8921 0.8921 0.8921 0.8921 0.8921
3716.000000 0.8921 0.8921 0.8921 0.8921 0.8921
3721.000000 0.8921 0.8921 0.8921 0.8921 0.8921
3726.000000 0.8921 0.8921 0.8921 0.8921 0.8921
3731.000000 0.8921 0.8921 0.8921 0.8921 0.8921
3736.000000 0.8921 0.8921 0.8921 0.8921 0.8921
3741.000000 0.8921 0.8921 0.8921 0.8921 0.8921
3746.000000 0.8921 0.8921 0.8921 0.8921 0.8921
3751.000000 0.8921 0.8921 0.8921 0.8921 0.8921
3756.000000 0.8921 0.8921 0.8921 0.8921 0.8921
3761.000000 0.8921 0.8921 0.8921 0.8921 0.8921
3766.000000 0.8921 0.8921 0.8921 0.8921 0.8921
3771.000000 0.8921 0.8921 0.8921 0.8921 0.8921
3776.000000 0.8921 0.8921 0.8921 0.8921 0.8921
3781.000000 0.8921 0.8921 0.8921 0.8921 0.8921
3786.000000 0.8921 0.8921 0.8921 0.8921 0.8921
3791.000000 0.8921 0.8921 0.8921 0.8921 0.8921
3796.000000 0.8921 0.8921 0.8921 0.8921 0.8921
3801.000000 0.8921 0.8921 0.8921 0.8921 0.8921
3806.000000 0.8922 0.8922 0.8922 0.8922 0.8922
3811.000000 0.8922 0.8922 0.8922 0.8922 0.8922
3816.000000 0.8922 0.8922 0.8922 0.8922 0.8922
3821.000000 0.8922 0.8922 0.8922 0.8922 0.8922
3826.000000 0.8922 0.8922 0.8922 0.8922 0.8922
3831.000000 0.8922 0.8922 0.8922 0.8922 0.8922
3836.000000 0.8922 0.8922 0.8922 0.8922 0.8922
3841.000000 0.8923 0.8923 0.8923 0.8923 0.8923
3846.000000 0.8923 0.8923 0.8923 0.8923 0.8923
3851.000000 0.8923 0.8923 0.8922 0.8922 0.8922
3856.000000 0.8922 0.8922 0.8922 0.8922 0.8922
3861.000000 0.8922 0.8922 0.8922 0.8921 0.8921
3866.000000 0.8921 0.8921 0.8921 0.8921 0.8921
3871.000000 0.8921 0.8921 0.8921 0.8921 0.8921
3876.000000 0.8920 0.8920 0.8920 0.8920 0.8920
3881.000000 0.8920 0.8920 0.8920 0.8920 0.8920
3886.000000 0.8920 0.8920 0.8920 0.8920 0.8920
3891.000000 0.8920 0.8920 0.8920 0.8920 0.8919
3896.000000 0.8919 0.8919 0.8919 0.8919 0.8919
3901.000000 0.8919 0.8919 0.8919 0.8919 0.8919
3906.000000 0.8919 0.8918 0.8918 0.8918 0.8918
3911.000000 0.8918 0.8918 0.8918 0.8918 0.8918
3916.000000 0.8918 0.8918 0.8918 0.8917 0.8917
3921.000000 0.8917 0.8917 0.8917 0.8917 0.8917
3926.000000 0.8917 0.8917 0.8917 0.8917 0.8917
3931.000000 0.8916 0.8916 0.8916 0.8916 0.8916
3936.000000 0.8916 0.8916 0.8916 0.8916 0.8916
3941.000000 0.8916 0.8916 0.8916 0.8915 0.8915
3946.000000 0.8915 0.8915 0.8915 0.8915 0.8915
3951.000000 0.8915 0.8915 0.8915 0.8915 0.8915
3956.000000 0.8914 0.8914 0.8914 0.8914 0.8914
3961.000000 0.8914 0.8914 0.8914 0.8914 0.8914
3966.000000 0.8914 0.8914 0.8914 0.8913 0.8913
3971.000000 0.8913 0.8913 0.8913 0.8913 0.8913
3976.000000 0.8913 0.8913 0.8913 0.8913 0.8913
3981.000000 0.8913 0.8913 0.8913 0.8913 0.8913
3986.000000 0.8913 0.8913 0.8912 0.8912 0.8912
3991.000000 0.8912 0.8912 0.8912 0.8912 0.8912
3996.000000 0.8912 0.8912 0.8912 0.8912 0.8912
##END=
