##TITLE=PIPRADROL HYDROCHLORIDE
##JCAMP-DX=4.24
$$ By DXEDIT 1.05 (RS McDonald)
##DATA TYPE=INFRARED SPECTRUM
##CLASS=COBLENTZ III
##OWNER=COBLENTZ SOC.
Collection (C) 2018 copyright by the U.S. Secretary of Commerce
on behalf of the United States of America. All rights reserved.
##DATE=1962/04/25
##NAMES=Alpha,Alpha-DIPHENYL-2-PIPERIDINEMETHANOL HYDROCHLORIDE HYDRATE
##MOLFORM=C18 H22 Cl N O  * H2 O
##MP=308-309 C DECOMP.
##SOURCE REFERENCE=COBLENTZ NO. 05122
##$NIST ID=B6005122
##$NIST SOURCE=COBLENTZ
##$NIST IMAGE=cob5122
##SPECTROMETER/DATA SYSTEM=PERKIN-ELMER 21 (GRATING)
##INSTRUMENT PARAMETERS=FILTER AT ABOUT 10 MICRONS
##STATE=SOLID (1 mg / 200 mg KCl DISC) VS KCl
##PATH LENGTH=0.055 CM (THICKNESS)
##SAMPLING PROCEDURE=TRANSMISSION
##RESOLUTION=2
##DATA PROCESSING=DIGITIZED BY COBLENTZ SOCIETY (BATCH I) FROM HARD COPY
##XUNITS=1/CM
##YUNITS=TRANSMITTANCE
##XLABEL=Wavenumbers (cm-1)
##YLABEL=Transmittance
##XFACTOR=1
##YFACTOR=1
##DELTAX=1
##FIRSTX=4000
##LASTX=668
##FIRSTY=0.839
##MAXX=4000
##MINX=668
##MAXY=0.9468
##MINY=0.2034
##NPOINTS=3333
##XYDATA=(X++(Y..Y))
4000.000000 0.8390 0.8390 0.8391 0.8392 0.8393
3995.000000 0.8394 0.8395 0.8396 0.8397 0.8398
3990.000000 0.8398 0.8399 0.8400 0.8401 0.8402
3985.000000 0.8403 0.8404 0.8405 0.8405 0.8406
3980.000000 0.8407 0.8408 0.8409 0.8410 0.8410
3975.000000 0.8411 0.8412 0.8413 0.8414 0.8415
3970.000000 0.8416 0.8417 0.8418 0.8418 0.8420
3965.000000 0.8421 0.8421 0.8423 0.8423 0.8424
3960.000000 0.8425 0.8425 0.8427 0.8427 0.8428
3955.000000 0.8428 0.8431 0.8432 0.8433 0.8435
3950.000000 0.8436 0.8437 0.8438 0.8440 0.8441
3945.000000 0.8442 0.8443 0.8445 0.8446 0.8448
3940.000000 0.8449 0.8451 0.8452 0.8454 0.8455
3935.000000 0.8456 0.8458 0.8459 0.8461 0.8462
3930.000000 0.8464 0.8465 0.8466 0.8467 0.8468
3925.000000 0.8470 0.8471 0.8473 0.8474 0.8475
3920.000000 0.8477 0.8478 0.8480 0.8482 0.8483
3915.000000 0.8485 0.8486 0.8488 0.8489 0.8490
3910.000000 0.8492 0.8493 0.8494 0.8496 0.8497
3905.000000 0.8498 0.8500 0.8501 0.8503 0.8504
3900.000000 0.8506 0.8507 0.8509 0.8510 0.8512
3895.000000 0.8513 0.8515 0.8516 0.8517 0.8518
3890.000000 0.8520 0.8521 0.8523 0.8524 0.8525
3885.000000 0.8527 0.8528 0.8530 0.8531 0.8533
3880.000000 0.8534 0.8536 0.8537 0.8539 0.8540
3875.000000 0.8542 0.8543 0.8544 0.8546 0.8547
3870.000000 0.8548 0.8550 0.8551 0.8553 0.8554
3865.000000 0.8556 0.8557 0.8559 0.8560 0.8562
3860.000000 0.8563 0.8564 0.8566 0.8567 0.8568
3855.000000 0.8570 0.8571 0.8573 0.8575 0.8575
3850.000000 0.8577 0.8578 0.8580 0.8581 0.8583
3845.000000 0.8584 0.8585 0.8587 0.8588 0.8589
3840.000000 0.8591 0.8592 0.8594 0.8595 0.8597
3835.000000 0.8599 0.8600 0.8601 0.8603 0.8604
3830.000000 0.8605 0.8607 0.8608 0.8610 0.8612
3825.000000 0.8613 0.8615 0.8617 0.8618 0.8621
3820.000000 0.8621 0.8624 0.8625 0.8628 0.8630
3815.000000 0.8632 0.8633 0.8635 0.8637 0.8638
3810.000000 0.8640 0.8642 0.8644 0.8645 0.8647
3805.000000 0.8649 0.8651 0.8652 0.8654 0.8656
3800.000000 0.8657 0.8659 0.8661 0.8663 0.8665
3795.000000 0.8667 0.8668 0.8671 0.8671 0.8674
3790.000000 0.8675 0.8678 0.8678 0.8681 0.8683
3785.000000 0.8686 0.8688 0.8690 0.8692 0.8694
3780.000000 0.8696 0.8698 0.8700 0.8702 0.8704
3775.000000 0.8707 0.8709 0.8711 0.8713 0.8715
3770.000000 0.8717 0.8718 0.8721 0.8723 0.8725
3765.000000 0.8728 0.8728 0.8731 0.8733 0.8735
3760.000000 0.8736 0.8738 0.8738 0.8739 0.8739
3755.000000 0.8740 0.8740 0.8741 0.8741 0.8741
3750.000000 0.8742 0.8742 0.8743 0.8743 0.8743
3745.000000 0.8744 0.8744 0.8744 0.8745 0.8745
3740.000000 0.8745 0.8746 0.8746 0.8746 0.8747
3735.000000 0.8748 0.8748 0.8749 0.8749 0.8750
3730.000000 0.8750 0.8750 0.8751 0.8751 0.8751
3725.000000 0.8752 0.8752 0.8753 0.8754 0.8754
3720.000000 0.8755 0.8755 0.8755 0.8756 0.8756
3715.000000 0.8756 0.8757 0.8757 0.8758 0.8759
3710.000000 0.8759 0.8760 0.8760 0.8760 0.8761
3705.000000 0.8761 0.8761 0.8761 0.8761 0.8761
3700.000000 0.8760 0.8760 0.8759 0.8759 0.8759
3695.000000 0.8759 0.8759 0.8759 0.8758 0.8758
3690.000000 0.8757 0.8757 0.8757 0.8756 0.8756
3685.000000 0.8756 0.8756 0.8756 0.8756 0.8755
3680.000000 0.8755 0.8754 0.8754 0.8754 0.8753
3675.000000 0.8752 0.8751 0.8750 0.8749 0.8748
3670.000000 0.8748 0.8747 0.8746 0.8745 0.8744
3665.000000 0.8743 0.8742 0.8741 0.8740 0.8739
3660.000000 0.8738 0.8737 0.8736 0.8735 0.8734
3655.000000 0.8734 0.8731 0.8728 0.8725 0.8723
3650.000000 0.8720 0.8718 0.8715 0.8712 0.8709
3645.000000 0.8706 0.8703 0.8700 0.8697 0.8694
3640.000000 0.8691 0.8688 0.8685 0.8682 0.8678
3635.000000 0.8675 0.8673 0.8668 0.8661 0.8654
3630.000000 0.8647 0.8640 0.8633 0.8625 0.8618
3625.000000 0.8612 0.8604 0.8597 0.8590 0.8583
3620.000000 0.8575 0.8568 0.8562 0.8554 0.8547
3615.000000 0.8539 0.8531 0.8524 0.8514 0.8502
3610.000000 0.8491 0.8480 0.8468 0.8458 0.8447
3605.000000 0.8436 0.8425 0.8414 0.8403 0.8392
3600.000000 0.8381 0.8370 0.8359 0.8348 0.8337
3595.000000 0.8325 0.8315 0.8304 0.8293 0.8281
3590.000000 0.8268 0.8257 0.8245 0.8233 0.8221
3585.000000 0.8209 0.8197 0.8185 0.8174 0.8161
3580.000000 0.8150 0.8138 0.8125 0.8114 0.8101
3575.000000 0.8091 0.8080 0.8068 0.8057 0.8046
3570.000000 0.8036 0.8025 0.8015 0.8005 0.7995
3565.000000 0.7985 0.7975 0.7965 0.7955 0.7945
3560.000000 0.7935 0.7925 0.7915 0.7905 0.7895
3555.000000 0.7884 0.7874 0.7864 0.7853 0.7843
3550.000000 0.7835 0.7825 0.7818 0.7808 0.7801
3545.000000 0.7793 0.7786 0.7778 0.7771 0.7764
3540.000000 0.7756 0.7749 0.7741 0.7734 0.7725
3535.000000 0.7718 0.7711 0.7704 0.7696 0.7689
3530.000000 0.7681 0.7674 0.7665 0.7658 0.7651
3525.000000 0.7643 0.7636 0.7628 0.7621 0.7614
3520.000000 0.7606 0.7599 0.7591 0.7584 0.7575
3515.000000 0.7568 0.7561 0.7553 0.7545 0.7537
3510.000000 0.7525 0.7515 0.7505 0.7495 0.7484
3505.000000 0.7471 0.7458 0.7447 0.7435 0.7422
3500.000000 0.7410 0.7398 0.7385 0.7372 0.7360
3495.000000 0.7348 0.7336 0.7322 0.7311 0.7291
3490.000000 0.7267 0.7242 0.7218 0.7194 0.7168
3485.000000 0.7144 0.7118 0.7093 0.7068 0.7048
3480.000000 0.7028 0.7008 0.6990 0.6969 0.6951
3475.000000 0.6931 0.6911 0.6892 0.6871 0.6854
3470.000000 0.6836 0.6818 0.6800 0.6783 0.6768
3465.000000 0.6751 0.6736 0.6721 0.6705 0.6689
3460.000000 0.6674 0.6658 0.6642 0.6626 0.6611
3455.000000 0.6595 0.6580 0.6564 0.6548 0.6532
3450.000000 0.6515 0.6500 0.6484 0.6465 0.6448
3445.000000 0.6430 0.6411 0.6394 0.6376 0.6358
3440.000000 0.6339 0.6321 0.6303 0.6284 0.6266
3435.000000 0.6247 0.6228 0.6208 0.6188 0.6168
3430.000000 0.6148 0.6128 0.6108 0.6088 0.6068
3425.000000 0.6048 0.6030 0.6012 0.5995 0.5977
3420.000000 0.5960 0.5946 0.5932 0.5918 0.5903
3415.000000 0.5889 0.5875 0.5860 0.5846 0.5832
3410.000000 0.5818 0.5804 0.5791 0.5777 0.5764
3405.000000 0.5751 0.5739 0.5727 0.5714 0.5702
3400.000000 0.5690 0.5677 0.5665 0.5653 0.5640
3395.000000 0.5628 0.5616 0.5603 0.5591 0.5578
3390.000000 0.5566 0.5554 0.5541 0.5529 0.5516
3385.000000 0.5504 0.5492 0.5479 0.5453 0.5426
3380.000000 0.5399 0.5372 0.5345 0.5318 0.5291
3375.000000 0.5264 0.5236 0.5219 0.5203 0.5187
3370.000000 0.5171 0.5155 0.5140 0.5124 0.5108
3365.000000 0.5093 0.5075 0.5057 0.5039 0.5022
3360.000000 0.5003 0.4985 0.4966 0.4948 0.4929
3355.000000 0.4910 0.4891 0.4872 0.4853 0.4834
3350.000000 0.4812 0.4792 0.4771 0.4749 0.4728
3345.000000 0.4706 0.4684 0.4662 0.4624 0.4536
3340.000000 0.4448 0.4360 0.4273 0.4218 0.4173
3335.000000 0.4127 0.4082 0.4036 0.3991 0.3945
3330.000000 0.3900 0.3854 0.3809 0.3762 0.3718
3325.000000 0.3673 0.3627 0.3580 0.3536 0.3490
3320.000000 0.3444 0.3398 0.3352 0.3306 0.3260
3315.000000 0.3214 0.3169 0.3123 0.3077 0.3032
3310.000000 0.2984 0.2939 0.2893 0.2847 0.2801
3305.000000 0.2755 0.2708 0.2662 0.2628 0.2607
3300.000000 0.2584 0.2563 0.2543 0.2537 0.2530
3295.000000 0.2523 0.2517 0.2513 0.2510 0.2506
3290.000000 0.2495 0.2501 0.2498 0.2496 0.2494
3285.000000 0.2492 0.2491 0.2491 0.2490 0.2489
3280.000000 0.2492 0.2495 0.2499 0.2503 0.2513
3275.000000 0.2530 0.2546 0.2562 0.2584 0.2622
3270.000000 0.2660 0.2698 0.2735 0.2783 0.2829
3265.000000 0.2876 0.2922 0.2968 0.3015 0.3061
3260.000000 0.3108 0.3155 0.3200 0.3248 0.3295
3255.000000 0.3341 0.3388 0.3434 0.3482 0.3528
3250.000000 0.3575 0.3622 0.3668 0.3716 0.3762
3245.000000 0.3809 0.3857 0.3904 0.3950 0.3998
3240.000000 0.4045 0.4092 0.4140 0.4187 0.4235
3235.000000 0.4282 0.4330 0.4377 0.4425 0.4472
3230.000000 0.4519 0.4567 0.4614 0.4662 0.4709
3225.000000 0.4757 0.4805 0.4852 0.4900 0.4948
3220.000000 0.4995 0.5043 0.5091 0.5139 0.5186
3215.000000 0.5234 0.5282 0.5319 0.5336 0.5354
3210.000000 0.5371 0.5386 0.5393 0.5400 0.5407
3205.000000 0.5412 0.5420 0.5427 0.5434 0.5441
3200.000000 0.5448 0.5455 0.5462 0.5470 0.5477
3195.000000 0.5485 0.5492 0.5499 0.5507 0.5514
3190.000000 0.5521 0.5529 0.5536 0.5543 0.5550
3185.000000 0.5557 0.5565 0.5573 0.5580 0.5588
3180.000000 0.5598 0.5610 0.5622 0.5634 0.5652
3175.000000 0.5674 0.5696 0.5718 0.5740 0.5762
3170.000000 0.5784 0.5806 0.5828 0.5850 0.5872
3165.000000 0.5894 0.5916 0.5938 0.5960 0.5982
3160.000000 0.6004 0.6026 0.6048 0.6070 0.6092
3155.000000 0.6114 0.6136 0.6158 0.6180 0.6203
3150.000000 0.6225 0.6247 0.6258 0.6262 0.6267
3145.000000 0.6272 0.6275 0.6277 0.6279 0.6281
3140.000000 0.6282 0.6283 0.6284 0.6285 0.6285
3135.000000 0.6285 0.6286 0.6286 0.6287 0.6287
3130.000000 0.6287 0.6287 0.6285 0.6283 0.6281
3125.000000 0.6279 0.6276 0.6273 0.6271 0.6266
3120.000000 0.6240 0.6215 0.6189 0.6160 0.6126
3115.000000 0.6091 0.6055 0.6020 0.5985 0.5949
3110.000000 0.5914 0.5878 0.5843 0.5808 0.5772
3105.000000 0.5737 0.5701 0.5665 0.5630 0.5594
3100.000000 0.5559 0.5523 0.5487 0.5452 0.5416
3095.000000 0.5380 0.5344 0.5309 0.5273 0.5237
3090.000000 0.5201 0.5165 0.5129 0.5093 0.5057
3085.000000 0.5021 0.4985 0.4949 0.4912 0.4877
3080.000000 0.4841 0.4805 0.4769 0.4733 0.4697
3075.000000 0.4660 0.4624 0.4588 0.4552 0.4516
3070.000000 0.4480 0.4444 0.4407 0.4371 0.4334
3065.000000 0.4298 0.4262 0.4244 0.4233 0.4222
3060.000000 0.4212 0.4209 0.4207 0.4204 0.4202
3055.000000 0.4200 0.4198 0.4196 0.4195 0.4194
3050.000000 0.4193 0.4193 0.4192 0.4192 0.4191
3045.000000 0.4190 0.4190 0.4190 0.4190 0.4190
3040.000000 0.4191 0.4192 0.4193 0.4194 0.4195
3035.000000 0.4196 0.4196 0.4206 0.4216 0.4226
3030.000000 0.4240 0.4265 0.4290 0.4314 0.4335
3025.000000 0.4354 0.4372 0.4391 0.4406 0.4421
3020.000000 0.4435 0.4448 0.4455 0.4462 0.4469
3015.000000 0.4474 0.4477 0.4480 0.4483 0.4486
3010.000000 0.4489 0.4492 0.4495 0.4497 0.4500
3005.000000 0.4502 0.4504 0.4507 0.4509 0.4510
3000.000000 0.4512 0.4512 0.4514 0.4514 0.4512
2995.000000 0.4512 0.4510 0.4485 0.4458 0.4432
2990.000000 0.4399 0.4358 0.4317 0.4276 0.4235
2985.000000 0.4194 0.4153 0.4112 0.4072 0.4030
2980.000000 0.3990 0.3949 0.3908 0.3866 0.3826
2975.000000 0.3784 0.3743 0.3702 0.3660 0.3621
2970.000000 0.3580 0.3545 0.3537 0.3529 0.3522
2965.000000 0.3516 0.3514 0.3455 0.3508 0.3508
2960.000000 0.3508 0.3508 0.3508 0.3508 0.3508
2955.000000 0.3508 0.3509 0.3509 0.3512 0.3514
2950.000000 0.3518 0.3521 0.3525 0.3532 0.3538
2945.000000 0.3545 0.3553 0.3562 0.3571 0.3584
2940.000000 0.3614 0.3646 0.3677 0.3718 0.3764
2935.000000 0.3810 0.3857 0.3903 0.3950 0.3996
2930.000000 0.4042 0.4088 0.4134 0.4180 0.4227
2925.000000 0.4273 0.4319 0.4366 0.4412 0.4459
2920.000000 0.4505 0.4552 0.4598 0.4645 0.4691
2915.000000 0.4738 0.4785 0.4832 0.4879 0.4926
2910.000000 0.4972 0.5019 0.5066 0.5112 0.5159
2905.000000 0.5207 0.5254 0.5301 0.5348 0.5395
2900.000000 0.5442 0.5489 0.5536 0.5583 0.5618
2895.000000 0.5651 0.5684 0.5701 0.5704 0.5723
2890.000000 0.5710 0.5712 0.5712 0.5712 0.5709
2885.000000 0.5704 0.5699 0.5676 0.5635 0.5595
2880.000000 0.5554 0.5512 0.5473 0.5432 0.5391
2875.000000 0.5350 0.5308 0.5267 0.5227 0.5186
2870.000000 0.5145 0.5104 0.5062 0.5022 0.4981
2865.000000 0.4939 0.4898 0.4857 0.4816 0.4775
2860.000000 0.4748 0.4741 0.4722 0.4727 0.4727
2855.000000 0.4726 0.4726 0.4731 0.4738 0.4745
2850.000000 0.4760 0.4783 0.4805 0.4827 0.4849
2845.000000 0.4871 0.4893 0.4915 0.4937 0.4958
2840.000000 0.4981 0.5003 0.5025 0.5047 0.5069
2835.000000 0.5091 0.5112 0.5135 0.5170 0.5175
2830.000000 0.5179 0.5184 0.5189 0.5189 0.5189
2825.000000 0.5189 0.5177 0.5162 0.5149 0.5124
2820.000000 0.5093 0.5062 0.5032 0.5001 0.4970
2815.000000 0.4940 0.4909 0.4879 0.4848 0.4817
2810.000000 0.4787 0.4756 0.4725 0.4695 0.4664
2805.000000 0.4643 0.4624 0.4605 0.4585 0.4565
2800.000000 0.4545 0.4523 0.4498 0.4474 0.4453
2795.000000 0.4438 0.4422 0.4408 0.4396 0.4384
2790.000000 0.4373 0.4362 0.4353 0.4343 0.4335
2785.000000 0.4326 0.4318 0.4312 0.4307 0.4302
2780.000000 0.4297 0.4292 0.4288 0.4284 0.4280
2775.000000 0.4250 0.4274 0.4272 0.4270 0.4268
2770.000000 0.4266 0.4264 0.4264 0.4265 0.4265
2765.000000 0.4271 0.4282 0.4293 0.4309 0.4331
2760.000000 0.4353 0.4376 0.4400 0.4424 0.4448
2755.000000 0.4471 0.4493 0.4515 0.4535 0.4555
2750.000000 0.4570 0.4572 0.4574 0.4576 0.4578
2745.000000 0.4579 0.4581 0.4583 0.4630 0.4586
2740.000000 0.4587 0.4588 0.4590 0.4591 0.4591
2735.000000 0.4591 0.4578 0.4566 0.4534 0.4442
2730.000000 0.4349 0.4270 0.4230 0.4190 0.4158
2725.000000 0.4143 0.4129 0.4119 0.4119 0.4119
2720.000000 0.4118 0.4119 0.4120 0.4121 0.4121
2715.000000 0.4122 0.4125 0.4129 0.4134 0.4139
2710.000000 0.4145 0.4151 0.4172 0.4206 0.4239
2705.000000 0.4269 0.4296 0.4323 0.4345 0.4364
2700.000000 0.4382 0.4401 0.4420 0.4439 0.4458
2695.000000 0.4477 0.4496 0.4515 0.4534 0.4555
2690.000000 0.4585 0.4616 0.4647 0.4679 0.4710
2685.000000 0.4748 0.4796 0.4844 0.4896 0.4956
2680.000000 0.5015 0.5066 0.5109 0.5152 0.5193
2675.000000 0.5233 0.5273 0.5312 0.5353 0.5392
2670.000000 0.5426 0.5460 0.5493 0.5527 0.5560
2665.000000 0.5594 0.5628 0.5660 0.5693 0.5722
2660.000000 0.5750 0.5779 0.5808 0.5836 0.5865
2655.000000 0.5893 0.5921 0.5950 0.5978 0.6007
2650.000000 0.6037 0.6067 0.6097 0.6128 0.6158
2645.000000 0.6189 0.6220 0.6251 0.6281 0.6310
2640.000000 0.6341 0.6369 0.6398 0.6425 0.6455
2635.000000 0.6485 0.6514 0.6545 0.6575 0.6607
2630.000000 0.6639 0.6669 0.6694 0.6717 0.6740
2625.000000 0.6775 0.6811 0.6841 0.6851 0.6862
2620.000000 0.6868 0.6869 0.6871 0.6872 0.6874
2615.000000 0.6875 0.6875 0.6876 0.6876 0.6876
2610.000000 0.6875 0.6869 0.6861 0.6853 0.6838
2605.000000 0.6822 0.6806 0.6780 0.6755 0.6730
2600.000000 0.6705 0.6681 0.6667 0.6656 0.6645
2595.000000 0.6644 0.6642 0.6641 0.6641 0.6641
2590.000000 0.6643 0.6645 0.6646 0.6651 0.6658
2585.000000 0.6665 0.6675 0.6684 0.6693 0.6701
2580.000000 0.6711 0.6724 0.6736 0.6751 0.6772
2575.000000 0.6795 0.6818 0.6841 0.6865 0.6889
2570.000000 0.6912 0.6936 0.6957 0.6978 0.6998
2565.000000 0.7018 0.7039 0.7058 0.7080 0.7101
2560.000000 0.7124 0.7147 0.7171 0.7194 0.7217
2555.000000 0.7237 0.7257 0.7276 0.7296 0.7315
2550.000000 0.7328 0.7342 0.7355 0.7367 0.7378
2545.000000 0.7389 0.7400 0.7410 0.7419 0.7430
2540.000000 0.7436 0.7440 0.7444 0.7448 0.7451
2535.000000 0.7455 0.7458 0.7461 0.7464 0.7465
2530.000000 0.7468 0.7468 0.7468 0.7469 0.7471
2525.000000 0.7471 0.7468 0.7465 0.7461 0.7457
2520.000000 0.7453 0.7448 0.7443 0.7439 0.7435
2515.000000 0.7431 0.7428 0.7426 0.7424 0.7421
2510.000000 0.7418 0.7415 0.7414 0.7412 0.7411
2505.000000 0.7408 0.7408 0.7407 0.7406 0.7405
2500.000000 0.7405 0.7405 0.7406 0.7407 0.7408
2495.000000 0.7408 0.7410 0.7411 0.7411 0.7412
2490.000000 0.7414 0.7414 0.7415 0.7415 0.7417
2485.000000 0.7418 0.7421 0.7425 0.7428 0.7431
2480.000000 0.7434 0.7437 0.7440 0.7442 0.7445
2475.000000 0.7448 0.7451 0.7454 0.7462 0.7474
2470.000000 0.7485 0.7497 0.7508 0.7525 0.7540
2465.000000 0.7557 0.7575 0.7592 0.7611 0.7628
2460.000000 0.7654 0.7683 0.7717 0.7769 0.7822
2455.000000 0.7869 0.7915 0.7955 0.7981 0.8008
2450.000000 0.8025 0.8044 0.8060 0.8074 0.8088
2445.000000 0.8099 0.8111 0.8121 0.8131 0.8140
2440.000000 0.8149 0.8158 0.8168 0.8176 0.8185
2435.000000 0.8192 0.8200 0.8207 0.8215 0.8221
2430.000000 0.8228 0.8235 0.8241 0.8246 0.8249
2425.000000 0.8252 0.8255 0.8257 0.8259 0.8261
2420.000000 0.8263 0.8265 0.8267 0.8268 0.8271
2415.000000 0.8271 0.8273 0.8273 0.8273 0.8271
2410.000000 0.8267 0.8261 0.8255 0.8247 0.8239
2405.000000 0.8231 0.8223 0.8216 0.8210 0.8203
2400.000000 0.8198 0.8194 0.8194 0.8194 0.8194
2395.000000 0.8194 0.8194 0.8194 0.8194 0.8194
2390.000000 0.8194 0.8194 0.8194 0.8193 0.8193
2385.000000 0.8194 0.8198 0.8201 0.8205 0.8208
2380.000000 0.8212 0.8215 0.8218 0.8221 0.8225
2375.000000 0.8230 0.8233 0.8237 0.8240 0.8244
2370.000000 0.8247 0.8251 0.8256 0.8261 0.8267
2365.000000 0.8274 0.8280 0.8286 0.8292 0.8299
2360.000000 0.8305 0.8311 0.8318 0.8324 0.8330
2355.000000 0.8336 0.8343 0.8349 0.8355 0.8362
2350.000000 0.8368 0.8375 0.8385 0.8394 0.8403
2345.000000 0.8411 0.8421 0.8430 0.8438 0.8447
2340.000000 0.8456 0.8465 0.8474 0.8483 0.8491
2335.000000 0.8500 0.8509 0.8516 0.8524 0.8532
2330.000000 0.8540 0.8547 0.8555 0.8562 0.8570
2325.000000 0.8578 0.8585 0.8593 0.8601 0.8609
2320.000000 0.8616 0.8624 0.8632 0.8639 0.8647
2315.000000 0.8655 0.8662 0.8668 0.8675 0.8680
2310.000000 0.8686 0.8691 0.8697 0.8702 0.8707
2305.000000 0.8713 0.8718 0.8723 0.8728 0.8734
2300.000000 0.8740 0.8745 0.8750 0.8756 0.8762
2295.000000 0.8767 0.8771 0.8778 0.8785 0.8792
2290.000000 0.8798 0.8805 0.8812 0.8818 0.8825
2285.000000 0.8833 0.8839 0.8846 0.8853 0.8861
2280.000000 0.8867 0.8874 0.8881 0.8889 0.8895
2275.000000 0.8902 0.8909 0.8917 0.8921 0.8927
2270.000000 0.8932 0.8937 0.8941 0.8946 0.8951
2265.000000 0.8956 0.8961 0.8965 0.8970 0.8975
2260.000000 0.8978 0.8984 0.8990 0.8995 0.9002
2255.000000 0.9008 0.9014 0.9021 0.9027 0.9034
2250.000000 0.9041 0.9045 0.9049 0.9053 0.9056
2245.000000 0.9060 0.9063 0.9067 0.9070 0.9071
2240.000000 0.9074 0.9075 0.9077 0.9078 0.9081
2235.000000 0.9086 0.9092 0.9100 0.9109 0.9118
2230.000000 0.9127 0.9135 0.9144 0.9153 0.9162
2225.000000 0.9171 0.9178 0.9183 0.9187 0.9187
2220.000000 0.9188 0.9188 0.9189 0.9190 0.9191
2215.000000 0.9193 0.9194 0.9195 0.9196 0.9198
2210.000000 0.9199 0.9200 0.9201 0.9203 0.9204
2205.000000 0.9205 0.9206 0.9207 0.9208 0.9210
2200.000000 0.9211 0.9212 0.9214 0.9215 0.9216
2195.000000 0.9217 0.9218 0.9220 0.9221 0.9223
2190.000000 0.9224 0.9225 0.9227 0.9228 0.9228
2185.000000 0.9228 0.9230 0.9231 0.9231 0.9232
2180.000000 0.9232 0.9233 0.9234 0.9235 0.9235
2175.000000 0.9236 0.9237 0.9238 0.9239 0.9239
2170.000000 0.9239 0.9239 0.9238 0.9237 0.9236
2165.000000 0.9235 0.9234 0.9233 0.9232 0.9231
2160.000000 0.9230 0.9230 0.9228 0.9227 0.9225
2155.000000 0.9225 0.9224 0.9221 0.9221 0.9220
2150.000000 0.9218 0.9217 0.9215 0.9214 0.9213
2145.000000 0.9211 0.9209 0.9208 0.9206 0.9205
2140.000000 0.9204 0.9202 0.9201 0.9200 0.9200
2135.000000 0.9201 0.9203 0.9204 0.9204 0.9205
2130.000000 0.9206 0.9207 0.9208 0.9209 0.9210
2125.000000 0.9211 0.9212 0.9213 0.9214 0.9215
2120.000000 0.9216 0.9217 0.9218 0.9218 0.9221
2115.000000 0.9223 0.9225 0.9227 0.9228 0.9232
2110.000000 0.9234 0.9236 0.9239 0.9242 0.9244
2105.000000 0.9246 0.9248 0.9251 0.9253 0.9255
2100.000000 0.9257 0.9260 0.9263 0.9265 0.9267
2095.000000 0.9270 0.9271 0.9274 0.9277 0.9278
2090.000000 0.9281 0.9283 0.9286 0.9288 0.9290
2085.000000 0.9293 0.9295 0.9297 0.9300 0.9302
2080.000000 0.9304 0.9307 0.9309 0.9311 0.9314
2075.000000 0.9317 0.9318 0.9320 0.9323 0.9325
2070.000000 0.9327 0.9328 0.9331 0.9333 0.9336
2065.000000 0.9338 0.9340 0.9343 0.9346 0.9349
2060.000000 0.9351 0.9354 0.9357 0.9360 0.9360
2055.000000 0.9360 0.9358 0.9356 0.9355 0.9353
2050.000000 0.9351 0.9349 0.9347 0.9345 0.9343
2045.000000 0.9341 0.9339 0.9338 0.9337 0.9335
2040.000000 0.9333 0.9331 0.9328 0.9328 0.9327
2035.000000 0.9327 0.9328 0.9328 0.9330 0.9331
2030.000000 0.9333 0.9334 0.9335 0.9336 0.9337
2025.000000 0.9339 0.9340 0.9341 0.9342 0.9344
2020.000000 0.9345 0.9346 0.9347 0.9348 0.9350
2015.000000 0.9351 0.9352 0.9354 0.9356 0.9358
2010.000000 0.9359 0.9361 0.9363 0.9364 0.9366
2005.000000 0.9367 0.9368 0.9371 0.9373 0.9374
2000.000000 0.9375 0.9377 0.9378 0.9381 0.9383
1995.000000 0.9383 0.9382 0.9381 0.9378 0.9378
1990.000000 0.9377 0.9375 0.9374 0.9373 0.9368
1985.000000 0.9366 0.9363 0.9360 0.9357 0.9354
1980.000000 0.9350 0.9345 0.9337 0.9327 0.9318
1975.000000 0.9307 0.9298 0.9288 0.9278 0.9267
1970.000000 0.9256 0.9244 0.9233 0.9221 0.9211
1965.000000 0.9202 0.9194 0.9190 0.9186 0.9182
1960.000000 0.9178 0.9175 0.9175 0.9175 0.9175
1955.000000 0.9175 0.9177 0.9178 0.9178 0.9180
1950.000000 0.9182 0.9183 0.9185 0.9187 0.9189
1945.000000 0.9197 0.9213 0.9225 0.9236 0.9247
1940.000000 0.9259 0.9270 0.9281 0.9293 0.9304
1935.000000 0.9314 0.9323 0.9332 0.9340 0.9349
1930.000000 0.9358 0.9368 0.9375 0.9385 0.9394
1925.000000 0.9396 0.9399 0.9403 0.9405 0.9408
1920.000000 0.9410 0.9410 0.9409 0.9407 0.9407
1915.000000 0.9406 0.9404 0.9404 0.9398 0.9391
1910.000000 0.9384 0.9378 0.9371 0.9365 0.9358
1905.000000 0.9351 0.9345 0.9338 0.9333 0.9328
1900.000000 0.9324 0.9320 0.9315 0.9311 0.9307
1895.000000 0.9303 0.9300 0.9296 0.9291 0.9287
1890.000000 0.9287 0.9286 0.9284 0.9284 0.9282
1885.000000 0.9281 0.9281 0.9278 0.9278 0.9275
1880.000000 0.9275 0.9275 0.9275 0.9275 0.9278
1875.000000 0.9281 0.9284 0.9287 0.9289 0.9293
1870.000000 0.9298 0.9304 0.9310 0.9317 0.9323
1865.000000 0.9330 0.9336 0.9343 0.9349 0.9356
1860.000000 0.9362 0.9368 0.9374 0.9381 0.9386
1855.000000 0.9392 0.9396 0.9399 0.9403 0.9407
1850.000000 0.9410 0.9414 0.9418 0.9421 0.9421
1845.000000 0.9421 0.9418 0.9417 0.9415 0.9413
1840.000000 0.9410 0.9408 0.9406 0.9402 0.9398
1835.000000 0.9394 0.9390 0.9386 0.9382 0.9378
1830.000000 0.9374 0.9368 0.9365 0.9362 0.9358
1825.000000 0.9353 0.9349 0.9345 0.9341 0.9336
1820.000000 0.9332 0.9328 0.9324 0.9318 0.9315
1815.000000 0.9310 0.9306 0.9302 0.9300 0.9299
1810.000000 0.9298 0.9298 0.9298 0.9299 0.9301
1805.000000 0.9304 0.9307 0.9310 0.9313 0.9316
1800.000000 0.9318 0.9323 0.9328 0.9336 0.9342
1795.000000 0.9349 0.9356 0.9363 0.9370 0.9375
1790.000000 0.9382 0.9388 0.9393 0.9398 0.9404
1785.000000 0.9409 0.9413 0.9415 0.9417 0.9418
1780.000000 0.9420 0.9421 0.9425 0.9425 0.9427
1775.000000 0.9427 0.9428 0.9428 0.9428 0.9428
1770.000000 0.9428 0.9428 0.9428 0.9428 0.9428
1765.000000 0.9428 0.9428 0.9431 0.9434 0.9436
1760.000000 0.9440 0.9445 0.9451 0.9457 0.9462
1755.000000 0.9467 0.9467 0.9468 0.9467 0.9465
1750.000000 0.9461 0.9454 0.9444 0.9435 0.9432
1745.000000 0.9430 0.9427 0.9425 0.9421 0.9420
1740.000000 0.9420 0.9420 0.9420 0.9420 0.9420
1735.000000 0.9420 0.9420 0.9420 0.9420 0.9420
1730.000000 0.9418 0.9418 0.9418 0.9418 0.9418
1725.000000 0.9417 0.9416 0.9416 0.9415 0.9414
1720.000000 0.9414 0.9413 0.9412 0.9411 0.9411
1715.000000 0.9409 0.9407 0.9405 0.9403 0.9400
1710.000000 0.9398 0.9395 0.9393 0.9391 0.9388
1705.000000 0.9384 0.9381 0.9407 0.9373 0.9370
1700.000000 0.9366 0.9362 0.9356 0.9345 0.9334
1695.000000 0.9321 0.9310 0.9299 0.9287 0.9275
1690.000000 0.9263 0.9245 0.9227 0.9208 0.9190
1685.000000 0.9171 0.9157 0.9146 0.9134 0.9123
1680.000000 0.9111 0.9101 0.9089 0.9078 0.9068
1675.000000 0.9059 0.9048 0.9037 0.9025 0.9012
1670.000000 0.8998 0.8984 0.8977 0.8971 0.8966
1665.000000 0.8962 0.8957 0.8952 0.8949 0.8946
1660.000000 0.8942 0.8939 0.8935 0.8931 0.8928
1655.000000 0.8923 0.8917 0.8911 0.8904 0.8897
1650.000000 0.8890 0.8884 0.8874 0.8861 0.8849
1645.000000 0.8836 0.8824 0.8812 0.8800 0.8790
1640.000000 0.8782 0.8775 0.8768 0.8766 0.8761
1635.000000 0.8757 0.8754 0.8751 0.8749 0.8747
1630.000000 0.8744 0.8742 0.8740 0.8737 0.8735
1625.000000 0.8733 0.8731 0.8728 0.8727 0.8724
1620.000000 0.8721 0.8718 0.8717 0.8715 0.8712
1615.000000 0.8711 0.8709 0.8709 0.8711 0.8712
1610.000000 0.8712 0.8628 0.8477 0.8310 0.8144
1605.000000 0.7978 0.7811 0.7643 0.7540 0.7496
1600.000000 0.7461 0.7431 0.7399 0.7362 0.7324
1595.000000 0.7275 0.7201 0.7117 0.6975 0.6661
1590.000000 0.6193 0.5723 0.5254 0.4784 0.4312
1585.000000 0.3692 0.3692 0.3693 0.3692 0.3798
1580.000000 0.4195 0.4649 0.5103 0.5558 0.6014
1575.000000 0.6471 0.6928 0.7325 0.7603 0.7862
1570.000000 0.8006 0.8074 0.8142 0.8207 0.8265
1565.000000 0.8320 0.8375 0.8428 0.8475 0.8516
1560.000000 0.8556 0.8596 0.8636 0.8675 0.8712
1555.000000 0.8749 0.8786 0.8821 0.8859 0.8895
1550.000000 0.8931 0.8967 0.9000 0.9030 0.9044
1545.000000 0.9055 0.9065 0.9075 0.9081 0.9087
1540.000000 0.9094 0.9100 0.9106 0.9113 0.9118
1535.000000 0.9125 0.9131 0.9137 0.9144 0.9149
1530.000000 0.9155 0.9161 0.9165 0.9168 0.9171
1525.000000 0.9175 0.9180 0.9183 0.9185 0.9186
1520.000000 0.9187 0.9188 0.9189 0.9188 0.9184
1515.000000 0.9182 0.9178 0.9170 0.9161 0.9150
1510.000000 0.9134 0.9097 0.9053 0.9008 0.8771
1505.000000 0.8643 0.8475 0.8203 0.7801 0.7400
1500.000000 0.6998 0.6595 0.6191 0.5789 0.5783
1495.000000 0.5799 0.6000 0.6221 0.6441 0.6661
1490.000000 0.6883 0.7103 0.7325 0.7547 0.7768
1485.000000 0.7991 0.8200 0.8273 0.8297 0.8292
1480.000000 0.8259 0.8041 0.7789 0.7536 0.7284
1475.000000 0.7031 0.6778 0.6599 0.6617 0.6686
1470.000000 0.6769 0.6855 0.6939 0.7018 0.7048
1465.000000 0.7049 0.7051 0.7040 0.7021 0.6989
1460.000000 0.6946 0.6854 0.6443 0.5846 0.5246
1455.000000 0.4646 0.4046 0.3444 0.2975 0.2913
1450.000000 0.2988 0.3305 0.3623 0.3940 0.4258
1445.000000 0.4577 0.4896 0.5215 0.5535 0.5856
1440.000000 0.6176 0.6498 0.6818 0.7141 0.7464
1435.000000 0.7767 0.7901 0.7961 0.8015 0.8062
1430.000000 0.8108 0.8146 0.8176 0.8198 0.8252
1425.000000 0.8218 0.8224 0.8224 0.7872 0.7447
1420.000000 0.7019 0.6592 0.6162 0.5734 0.5304
1415.000000 0.4874 0.4450 0.4312 0.4314 0.4482
1410.000000 0.4714 0.4946 0.5179 0.5410 0.5645
1405.000000 0.5878 0.6112 0.6346 0.6580 0.6815
1400.000000 0.7051 0.7271 0.7308 0.7358 0.7346
1395.000000 0.7347 0.7348 0.7335 0.7300 0.7132
1390.000000 0.6938 0.6743 0.6548 0.6353 0.6157
1385.000000 0.5960 0.5765 0.5607 0.5546 0.5534
1380.000000 0.5533 0.5550 0.5590 0.5640 0.5693
1375.000000 0.5762 0.5840 0.5917 0.6032 0.6181
1370.000000 0.6388 0.6624 0.6800 0.6914 0.7011
1365.000000 0.7090 0.7154 0.7195 0.7208 0.7211
1360.000000 0.7205 0.7199 0.7210 0.7257 0.7361
1355.000000 0.7471 0.7583 0.7694 0.7806 0.7905
1350.000000 0.7965 0.8018 0.8011 0.8011 0.8011
1345.000000 0.7997 0.7965 0.7925 0.7896 0.7874
1340.000000 0.7850 0.7869 0.7892 0.7918 0.7961
1335.000000 0.8004 0.8037 0.8065 0.8087 0.8104
1330.000000 0.8121 0.8118 0.8118 0.8112 0.8071
1325.000000 0.8007 0.7853 0.7499 0.7069 0.6641
1320.000000 0.6212 0.5830 0.5720 0.5744 0.5893
1315.000000 0.6050 0.6208 0.6328 0.6333 0.6325
1310.000000 0.6141 0.5950 0.5758 0.5566 0.5374
1305.000000 0.5181 0.4966 0.4973 0.5151 0.5371
1300.000000 0.5592 0.5814 0.6035 0.6257 0.6480
1295.000000 0.6703 0.6925 0.7149 0.7372 0.7597
1290.000000 0.7818 0.7942 0.8054 0.8147 0.8201
1285.000000 0.8241 0.8266 0.8283 0.8283 0.8284
1280.000000 0.8244 0.8072 0.8001 0.7994 0.7989
1275.000000 0.7987 0.7985 0.7983 0.7983 0.7983
1270.000000 0.7958 0.7903 0.7676 0.7392 0.7106
1265.000000 0.6915 0.6932 0.7028 0.7255 0.7481
1260.000000 0.7708 0.7958 0.8160 0.8266 0.8358
1255.000000 0.8417 0.8475 0.8528 0.8571 0.8613
1250.000000 0.8649 0.8675 0.8704 0.8721 0.8728
1245.000000 0.8737 0.8746 0.8754 0.8763 0.8771
1240.000000 0.8778 0.8786 0.8794 0.8803 0.8810
1235.000000 0.8818 0.8828 0.8836 0.8846 0.8854
1230.000000 0.8863 0.8867 0.8868 0.8871 0.8873
1225.000000 0.8874 0.8877 0.8893 0.8884 0.8884
1220.000000 0.8881 0.8870 0.8837 0.8761 0.8643
1215.000000 0.8567 0.8523 0.8509 0.8508 0.8508
1210.000000 0.8528 0.8558 0.8583 0.8595 0.8606
1205.000000 0.8613 0.8602 0.8604 0.8593 0.8555
1200.000000 0.8504 0.8373 0.8036 0.7761 0.7486
1195.000000 0.7210 0.6654 0.6654 0.6654 0.6678
1190.000000 0.6751 0.6888 0.7000 0.7068 0.7068
1185.000000 0.7069 0.7071 0.7075 0.7088 0.7110
1180.000000 0.7133 0.7158 0.7182 0.7203 0.7210
1175.000000 0.7217 0.7199 0.7165 0.7106 0.7026
1170.000000 0.6919 0.6830 0.6764 0.6768 0.6771
1165.000000 0.6815 0.6900 0.7018 0.7156 0.7338
1160.000000 0.7467 0.7497 0.7518 0.7540 0.7576
1155.000000 0.7647 0.7782 0.7904 0.8007 0.8095
1150.000000 0.8158 0.8213 0.8266 0.8310 0.8347
1145.000000 0.8389 0.8375 0.8366 0.8356 0.8327
1140.000000 0.8277 0.8168 0.7989 0.7745 0.7464
1135.000000 0.7183 0.6901 0.6697 0.6705 0.6725
1130.000000 0.6828 0.7028 0.7228 0.7430 0.7631
1125.000000 0.7831 0.8033 0.8237 0.8325 0.8396
1120.000000 0.8462 0.8515 0.8555 0.8577 0.8608
1115.000000 0.8601 0.8593 0.8561 0.8527 0.8468
1110.000000 0.8491 0.8499 0.8506 0.8521 0.8539
1105.000000 0.8555 0.8570 0.8583 0.8597 0.8610
1100.000000 0.8624 0.8641 0.8632 0.8623 0.8545
1095.000000 0.8464 0.8451 0.8451 0.8459 0.8468
1090.000000 0.8478 0.8489 0.8490 0.8490 0.8440
1085.000000 0.8221 0.7883 0.7474 0.7065 0.6737
1080.000000 0.6711 0.6848 0.7051 0.7255 0.7424
1075.000000 0.7439 0.7343 0.6928 0.6497 0.6064
1070.000000 0.5539 0.5525 0.5664 0.5892 0.6121
1065.000000 0.6350 0.6568 0.6811 0.7014 0.7189
1060.000000 0.7315 0.7442 0.7572 0.7711 0.7878
1055.000000 0.8011 0.8125 0.8243 0.8385 0.8506
1050.000000 0.8598 0.8675 0.8732 0.8771 0.8803
1045.000000 0.8825 0.8842 0.8857 0.8858 0.8850
1040.000000 0.8815 0.8410 0.8231 0.8100 0.7935
1035.000000 0.7774 0.7615 0.7615 0.7615 0.7645
1030.000000 0.7788 0.7905 0.7934 0.7948 0.7962
1025.000000 0.8006 0.8087 0.8158 0.8233 0.8323
1020.000000 0.8404 0.8499 0.8502 0.8486 0.8467
1015.000000 0.8406 0.8026 0.7535 0.7042 0.6548
1010.000000 0.5882 0.5874 0.5905 0.6245 0.6611
1005.000000 0.6980 0.7280 0.7305 0.7318 0.7347
1000.000000 0.7557 0.7801 0.8045 0.8290 0.8496
995.000000 0.8610 0.8697 0.8764 0.8762 0.8759
990.000000 0.8744 0.8577 0.8289 0.8000 0.7710
985.000000 0.7608 0.7619 0.7676 0.7738 0.7765
980.000000 0.7582 0.7292 0.6824 0.6828 0.6831
975.000000 0.7135 0.7675 0.8022 0.8282 0.8452
970.000000 0.8595 0.8725 0.8827 0.8910 0.8980
965.000000 0.9037 0.9075 0.9088 0.9094 0.9103
960.000000 0.9125 0.9150 0.9175 0.9201 0.9224
955.000000 0.9238 0.9251 0.9266 0.9281 0.9296
950.000000 0.9290 0.9311 0.9309 0.9308 0.9284
945.000000 0.9213 0.9077 0.8912 0.8759 0.8621
940.000000 0.8509 0.8480 0.8498 0.8604 0.8662
935.000000 0.8697 0.8714 0.8715 0.8565 0.8306
930.000000 0.8047 0.7788 0.7515 0.7591 0.7812
925.000000 0.8040 0.8267 0.8411 0.8437 0.8435
920.000000 0.8335 0.8128 0.7997 0.7994 0.8205
915.000000 0.8348 0.8396 0.8417 0.8399 0.8368
910.000000 0.8356 0.8448 0.8603 0.8718 0.8754
905.000000 0.8782 0.8796 0.8614 0.8397 0.8181
900.000000 0.8142 0.8265 0.8483 0.8671 0.8841
895.000000 0.8960 0.9058 0.9125 0.9178 0.9204
890.000000 0.9228 0.9250 0.9263 0.9277 0.9291
885.000000 0.9304 0.9308 0.9311 0.9313 0.9289
880.000000 0.9297 0.9284 0.9262 0.9230 0.9170
875.000000 0.9074 0.8939 0.8771 0.8366 0.7928
870.000000 0.7489 0.7406 0.7594 0.8015 0.8439
865.000000 0.8689 0.8821 0.8939 0.9038 0.9075
860.000000 0.9066 0.8927 0.8846 0.8868 0.8961
855.000000 0.9075 0.9173 0.9238 0.9268 0.9290
850.000000 0.9292 0.9238 0.9212 0.9221 0.9238
845.000000 0.9251 0.9252 0.9252 0.9231 0.9155
840.000000 0.9031 0.9002 0.9009 0.9075 0.9152
835.000000 0.9218 0.9256 0.9292 0.9310 0.9325
830.000000 0.9342 0.9353 0.9362 0.9371 0.9371
825.000000 0.9371 0.9345 0.9240 0.9116 0.9058
820.000000 0.9041 0.9034 0.9060 0.9131 0.9184
815.000000 0.9227 0.9244 0.9260 0.9278 0.9301
810.000000 0.9325 0.9375 0.9355 0.9352 0.9347
805.000000 0.9338 0.9328 0.9318 0.9285 0.9252
800.000000 0.9215 0.9203 0.9199 0.9216 0.9265
795.000000 0.9312 0.9318 0.9320 0.9314 0.9307
790.000000 0.9301 0.9293 0.9283 0.9273 0.9249
785.000000 0.9221 0.9175 0.9123 0.9031 0.8921
780.000000 0.8751 0.8440 0.7961 0.7451 0.6918
775.000000 0.6317 0.6292 0.6504 0.7048 0.7594
770.000000 0.8097 0.8328 0.8459 0.8578 0.8667
765.000000 0.8739 0.8790 0.8821 0.8845 0.8844
760.000000 0.8865 0.8861 0.8848 0.8825 0.8785
755.000000 0.8731 0.8658 0.8556 0.8409 0.8172
750.000000 0.7786 0.7284 0.6810 0.6278 0.5283
745.000000 0.4422 0.3023 0.2998 0.3574 0.3568
740.000000 0.3260 0.3078 0.3478 0.4597 0.5721
735.000000 0.7225 0.7806 0.8130 0.8363 0.8525
730.000000 0.8640 0.8708 0.8749 0.8775 0.8788
725.000000 0.8800 0.8812 0.8821 0.8817 0.8811
720.000000 0.8795 0.8773 0.8745 0.8698 0.8627
715.000000 0.8521 0.8393 0.8230 0.7932 0.7428
710.000000 0.6769 0.5649 0.4875 0.3816 0.2755
705.000000 0.2034 0.2068 0.2665 0.3409 0.4155
700.000000 0.4903 0.5655 0.6286 0.6518 0.6482
695.000000 0.6310 0.5516 0.4716 0.3912 0.3437
690.000000 0.3584 0.4633 0.5685 0.6450 0.7144
685.000000 0.7525 0.7804 0.7990 0.8095 0.8110
680.000000 0.8168 0.8186 0.8192 0.8193 0.8193
675.000000 0.8194 0.8196 0.8199 0.8202 0.8193
670.000000 0.8180 0.8178 0.8158
##END=
