##TITLE=METHANE,BIS-(4-DIETHYLAMINOPHENYL)-,DIHYDROCHLORIDE
##JCAMP-DX=4.24
##DATA TYPE=INFRARED SPECTRUM
##CLASS=COBLENTZ III
##ORIGIN=BRITISH PETROLEUM CO. LTD., ENGLAND
##OWNER=Copyright (C) 1987 by the Coblentz Society
Collection (C) 2018 copyright by the U.S. Secretary of Commerce
on behalf of the United States of America. All rights reserved.
##DATE=1972/06/07
##NAMES=Aniline, 4,4'-methylenebis/N,N-di-ethyl-, dihydrochloride
##MOLFORM=C21 H32 Cl2 N2
##SOURCE REFERENCE=COBLENTZ NO. 9343
##$NIST ID=B6009343
##$NIST SOURCE=COBLENTZ
##$NIST IMAGE=cob9343
##SPECTROMETER/DATA SYSTEM=PERKIN-ELMER 157
##STATE=SOLID (KBr DISC, 0.8% WT.)
$$ HCl RUN IN KBr MAY CONTAIN SOME HBr
$$ REF. Can. J. Spec., 18,4,101, '73 C. S. DOUSE and P. B. TOOKE
##SAMPLING PROCEDURE=TRANSMISSION
##RESOLUTION=2
##DATA PROCESSING=DIGITIZED BY COBLENTZ SOCIETY (BATCH II) FROM HARD COPY
##XUNITS=1/CM
##YUNITS=TRANSMITTANCE
##XFACTOR=1.0
##YFACTOR=1
##FIRSTX=667
##LASTX=4000
##FIRSTY=0.5823
##MAXX=4000
##MINX=667
##MAXY=0.5806
##MINY=0.0145
##NPOINTS=3334
##XYDATA=(X++(Y..Y))
667.000000 0.5823 0.5786 0.5740 0.5677 0.5615
672.000000 0.5551 0.5468 0.5368 0.5258 0.5112
677.000000 0.4899 0.4350 0.4125 0.3772 0.3407
682.000000 0.3194 0.3001 0.2993 0.2994 0.3065
687.000000 0.3138 0.3210 0.3304 0.3419 0.3545
692.000000 0.3794 0.4131 0.4526 0.4905 0.5171
697.000000 0.5328 0.5452 0.5503 0.5523 0.5529
702.000000 0.5531 0.5533 0.5531 0.5529 0.5526
707.000000 0.5522 0.5515 0.5505 0.5475 0.5442
712.000000 0.5404 0.5358 0.5312 0.5270 0.5194
717.000000 0.5088 0.4948 0.4830 0.4728 0.4656
722.000000 0.4664 0.4623 0.5008 0.5115 0.5169
727.000000 0.5180 0.5203 0.5234 0.5283 0.5354
732.000000 0.5472 0.5567 0.5637 0.5675 0.5685
737.000000 0.5689 0.5687 0.5702 0.5679 0.5672
742.000000 0.5656 0.5629 0.5593 0.5560 0.5520
747.000000 0.5482 0.5444 0.5397 0.5321 0.5231
752.000000 0.5104 0.4990 0.4950 0.4997 0.5060
757.000000 0.5124 0.5195 0.5261 0.5302 0.5337
762.000000 0.5351 0.5346 0.5350 0.5335 0.5312
767.000000 0.5290 0.5270 0.5249 0.5224 0.5196
772.000000 0.5167 0.5137 0.5106 0.5073 0.5032
777.000000 0.4989 0.4946 0.4896 0.4848 0.4787
782.000000 0.4694 0.4561 0.4431 0.4229 0.4033
787.000000 0.3794 0.3568 0.3081 0.2769 0.2439
792.000000 0.2110 0.1607 0.1322 0.1199 0.1196
797.000000 0.1169 0.1473 0.1553 0.1614 0.1661
802.000000 0.1693 0.1752 0.1981 0.2281 0.2653
807.000000 0.3024 0.3336 0.3421 0.3440 0.3431
812.000000 0.3401 0.3307 0.3228 0.3122 0.2967
817.000000 0.2797 0.2546 0.2288 0.2028 0.1810
822.000000 0.1419 0.1246 0.1011 0.0938 0.0911
827.000000 0.1043 0.1334 0.1625 0.1915 0.2204
832.000000 0.2489 0.2578 0.2588 0.2588 0.2586
837.000000 0.2584 0.2588 0.2578 0.2571 0.2539
842.000000 0.2345 0.2144 0.1943 0.1741 0.1608
847.000000 0.1594 0.1590 0.1669 0.1906 0.2214
852.000000 0.2522 0.2829 0.3136 0.3437 0.3638
857.000000 0.3851 0.4011 0.4139 0.4239 0.4328
862.000000 0.4382 0.4430 0.4463 0.4432 0.4380
867.000000 0.4267 0.4085 0.3868 0.3651 0.3434
872.000000 0.3219 0.3003 0.2788 0.2612 0.2568
877.000000 0.2565 0.2549 0.2591 0.2880 0.3179
882.000000 0.3476 0.3774 0.4070 0.4367 0.4662
887.000000 0.4943 0.5078 0.5176 0.5266 0.5303
892.000000 0.5323 0.5329 0.5328 0.5323 0.5319
897.000000 0.5309 0.5291 0.5262 0.5214 0.5128
902.000000 0.5029 0.4900 0.4763 0.4674 0.4585
907.000000 0.4487 0.4384 0.4267 0.4129 0.3975
912.000000 0.3846 0.3692 0.3508 0.3323 0.3139
917.000000 0.2956 0.2751 0.2595 0.2582 0.2619
922.000000 0.2854 0.3103 0.3352 0.3600 0.3848
927.000000 0.4095 0.4343 0.4725 0.4828 0.4942
932.000000 0.5050 0.5150 0.5240 0.5311 0.5378
937.000000 0.5424 0.5467 0.5496 0.5519 0.5538
942.000000 0.5554 0.5567 0.5568 0.5558 0.5558
947.000000 0.5551 0.5542 0.5532 0.5522 0.5508
952.000000 0.5493 0.5478 0.5459 0.5440 0.5421
957.000000 0.5401 0.5381 0.5357 0.5327 0.5298
962.000000 0.5262 0.5236 0.5219 0.5204 0.5190
967.000000 0.5177 0.5159 0.5141 0.5121 0.5093
972.000000 0.5066 0.5037 0.5007 0.4977 0.4938
977.000000 0.4899 0.4860 0.4814 0.4766 0.4716
982.000000 0.4663 0.4610 0.4557 0.4501 0.4446
987.000000 0.4386 0.4317 0.4247 0.4161 0.4073
992.000000 0.3942 0.3807 0.3688 0.3577 0.3507
997.000000 0.3438 0.3371 0.3304 0.3227 0.3077
1002.000000 0.2943 0.2842 0.2690 0.2452 0.2243
1007.000000 0.2002 0.1867 0.1754 0.1629 0.1439
1012.000000 0.1159 0.0820 0.0671 0.0520 0.0430
1017.000000 0.0360 0.0332 0.0327 0.0311 0.0331
1022.000000 0.0356 0.0444 0.0568 0.0736 0.0903
1027.000000 0.1070 0.1237 0.1403 0.1569 0.1733
1032.000000 0.1854 0.1952 0.2021 0.2061 0.2091
1037.000000 0.2119 0.2155 0.2202 0.2260 0.2350
1042.000000 0.2724 0.3057 0.3343 0.3628 0.3912
1047.000000 0.4099 0.4186 0.4325 0.4459 0.4460
1052.000000 0.4476 0.4435 0.4376 0.4297 0.4074
1057.000000 0.3830 0.3587 0.3345 0.3103 0.2871
1062.000000 0.2838 0.2827 0.3168 0.3539 0.3909
1067.000000 0.4279 0.4540 0.4599 0.4628 0.4685
1072.000000 0.4835 0.4899 0.4950 0.5004 0.5058
1077.000000 0.5102 0.5119 0.5132 0.5135 0.5134
1082.000000 0.5137 0.5119 0.5105 0.5081 0.5046
1087.000000 0.4999 0.4941 0.4874 0.4772 0.4654
1092.000000 0.4502 0.4383 0.4244 0.4099 0.3865
1097.000000 0.3626 0.3388 0.3196 0.3124 0.3113
1102.000000 0.3123 0.3088 0.3195 0.3353 0.3457
1107.000000 0.3452 0.3485 0.3402 0.3351 0.3296
1112.000000 0.3247 0.3193 0.3128 0.2912 0.2474
1117.000000 0.2159 0.2127 0.2129 0.2094 0.2187
1122.000000 0.2228 0.2264 0.2295 0.2332 0.2377
1127.000000 0.2442 0.2522 0.2707 0.2951 0.3195
1132.000000 0.3437 0.3680 0.3922 0.4140 0.4264
1137.000000 0.4284 0.4278 0.4288 0.4226 0.4132
1142.000000 0.3969 0.3806 0.3643 0.3480 0.3318
1147.000000 0.3165 0.2984 0.2622 0.2261 0.1900
1152.000000 0.1540 0.1181 0.0919 0.0902 0.0904
1157.000000 0.1279 0.1587 0.1894 0.2200 0.2506
1162.000000 0.2812 0.3117 0.3421 0.3719 0.3829
1167.000000 0.3859 0.3851 0.3849 0.3842 0.3833
1172.000000 0.3825 0.3816 0.3803 0.3776 0.3674
1177.000000 0.3460 0.3246 0.3033 0.2819 0.2607
1182.000000 0.2395 0.2183 0.2004 0.1979 0.1972
1187.000000 0.2501 0.2873 0.3246 0.3508 0.3507
1192.000000 0.3525 0.3257 0.3074 0.2891 0.2770
1197.000000 0.2766 0.2759 0.3046 0.3240 0.3432
1202.000000 0.3625 0.3817 0.4009 0.4201 0.4362
1207.000000 0.4686 0.4753 0.4791 0.4819 0.4853
1212.000000 0.4896 0.4963 0.5134 0.5212 0.5248
1217.000000 0.5269 0.5290 0.5302 0.5313 0.5319
1222.000000 0.5323 0.5323 0.5332 0.5305 0.5290
1227.000000 0.5274 0.5259 0.5242 0.5221 0.5201
1232.000000 0.5180 0.5157 0.5131 0.5106 0.5079
1237.000000 0.5052 0.5025 0.4997 0.4969 0.4940
1242.000000 0.4910 0.4880 0.4851 0.4821 0.4788
1247.000000 0.4749 0.4710 0.4670 0.4628 0.4584
1252.000000 0.4541 0.4487 0.4420 0.4340 0.4199
1257.000000 0.4117 0.4046 0.3934 0.3717 0.3543
1262.000000 0.3350 0.3194 0.3015 0.2785 0.2555
1267.000000 0.2326 0.2014 0.1855 0.1834 0.1827
1272.000000 0.1825 0.1815 0.1892 0.1986 0.2056
1277.000000 0.2222 0.2317 0.2391 0.2461 0.2557
1282.000000 0.2665 0.2757 0.2886 0.3039 0.3055
1287.000000 0.3053 0.3047 0.3039 0.3016 0.2981
1292.000000 0.2931 0.2797 0.2749 0.2750 0.2762
1297.000000 0.2891 0.3097 0.3303 0.3509 0.3748
1302.000000 0.3924 0.3951 0.3969 0.3963 0.3953
1307.000000 0.3937 0.3911 0.3858 0.3771 0.3659
1312.000000 0.3548 0.3460 0.3337 0.3172 0.3157
1317.000000 0.3149 0.3133 0.3145 0.3150 0.3163
1322.000000 0.3188 0.3223 0.3263 0.3305 0.3350
1327.000000 0.3390 0.3395 0.3390 0.3381 0.3370
1332.000000 0.3360 0.3357 0.3355 0.3356 0.3372
1337.000000 0.3420 0.3501 0.3581 0.3676 0.3741
1342.000000 0.3788 0.3829 0.3863 0.3874 0.3875
1347.000000 0.3893 0.3852 0.3822 0.3798 0.3768
1352.000000 0.3735 0.3705 0.3678 0.3652 0.3625
1357.000000 0.3597 0.3561 0.3522 0.3484 0.3439
1362.000000 0.3339 0.3124 0.2936 0.2614 0.2429
1367.000000 0.2244 0.2058 0.1874 0.1689 0.1545
1372.000000 0.1514 0.1534 0.1562 0.1580 0.1582
1377.000000 0.1522 0.1345 0.1163 0.0981 0.0826
1382.000000 0.0800 0.0799 0.0871 0.1015 0.1164
1387.000000 0.1311 0.1459 0.1603 0.1682 0.1681
1392.000000 0.1693 0.1672 0.1649 0.1615 0.1571
1397.000000 0.1532 0.1498 0.1466 0.1456 0.1448
1402.000000 0.1441 0.1437 0.1432 0.1384 0.1329
1407.000000 0.1305 0.1294 0.1278 0.1255 0.1230
1412.000000 0.1224 0.1224 0.1229 0.1396 0.1507
1417.000000 0.1617 0.1727 0.1785 0.1812 0.1825
1422.000000 0.1828 0.1830 0.1838 0.1830 0.1825
1427.000000 0.1814 0.1801 0.1782 0.1748 0.1693
1432.000000 0.1653 0.1580 0.1476 0.1371 0.1267
1437.000000 0.1163 0.1059 0.0956 0.0856 0.0768
1442.000000 0.0682 0.0586 0.0464 0.0394 0.0374
1447.000000 0.0369 0.0367 0.0366 0.0365 0.0364
1452.000000 0.0364 0.0364 0.0365 0.0365 0.0365
1457.000000 0.0364 0.0363 0.0363 0.0362 0.0362
1462.000000 0.0362 0.0361 0.0351 0.0361 0.0361
1467.000000 0.0361 0.0361 0.0361 0.0387 0.0453
1472.000000 0.0501 0.0543 0.0600 0.0655 0.0693
1477.000000 0.0723 0.0750 0.0783 0.0876 0.1034
1482.000000 0.1201 0.1367 0.1534 0.1699 0.1865
1487.000000 0.2030 0.2139 0.2156 0.2163 0.2165
1492.000000 0.2161 0.2164 0.2159 0.2146 0.2095
1497.000000 0.1989 0.1877 0.1765 0.1654 0.1542
1502.000000 0.1431 0.1320 0.1208 0.1097 0.0986
1507.000000 0.0873 0.0766 0.0727 0.0723 0.0724
1512.000000 0.0729 0.0723 0.0971 0.1239 0.1507
1517.000000 0.1773 0.2040 0.2289 0.2545 0.2944
1522.000000 0.3053 0.3227 0.3417 0.3516 0.3580
1527.000000 0.3659 0.3758 0.3860 0.3962 0.4064
1532.000000 0.4166 0.4268 0.4370 0.4471 0.4572
1537.000000 0.4673 0.4775 0.4850 0.4883 0.4904
1542.000000 0.4921 0.4930 0.4937 0.4946 0.4955
1547.000000 0.4964 0.4976 0.4987 0.5000 0.5013
1552.000000 0.5033 0.5058 0.5078 0.5091 0.5092
1557.000000 0.5093 0.5094 0.5095 0.5089 0.5091
1562.000000 0.5089 0.5084 0.5079 0.5073 0.5066
1567.000000 0.5059 0.5052 0.5044 0.5034 0.5020
1572.000000 0.4998 0.4970 0.4929 0.4880 0.4828
1577.000000 0.4774 0.4729 0.4690 0.4654 0.4626
1582.000000 0.4608 0.4596 0.4586 0.4575 0.4554
1587.000000 0.4528 0.4502 0.4477 0.4219 0.4023
1592.000000 0.3911 0.3798 0.3686 0.3574 0.3462
1597.000000 0.3351 0.3239 0.3128 0.3042 0.3011
1602.000000 0.3036 0.3084 0.3181 0.3277 0.3373
1607.000000 0.3469 0.3565 0.3660 0.3755 0.3835
1612.000000 0.3870 0.3914 0.3988 0.4266 0.4356
1617.000000 0.4391 0.4410 0.4428 0.4443 0.4455
1622.000000 0.4463 0.4470 0.4477 0.4484 0.4490
1627.000000 0.4496 0.4501 0.4506 0.4511 0.4516
1632.000000 0.4522 0.4529 0.4537 0.4543 0.4550
1637.000000 0.4555 0.4561 0.4567 0.4574 0.4582
1642.000000 0.4594 0.4617 0.4649 0.4673 0.4675
1647.000000 0.4676 0.4678 0.4680 0.4684 0.4687
1652.000000 0.4690 0.4694 0.4703 0.4714 0.4724
1657.000000 0.4734 0.4747 0.4765 0.4789 0.4813
1662.000000 0.4839 0.4873 0.4919 0.4983 0.5050
1667.000000 0.5102 0.5142 0.5177 0.5192 0.5207
1672.000000 0.5221 0.5238 0.5260 0.5285 0.5313
1677.000000 0.5343 0.5375 0.5402 0.5429 0.5451
1682.000000 0.5469 0.5483 0.5495 0.5504 0.5512
1687.000000 0.5520 0.5526 0.5533 0.5541 0.5549
1692.000000 0.5558 0.5569 0.5580 0.5590 0.5598
1697.000000 0.5603 0.5608 0.5612 0.5615 0.5616
1702.000000 0.5616 0.5615 0.5615 0.5615 0.5615
1707.000000 0.5616 0.5616 0.5617 0.5617 0.5617
1712.000000 0.5618 0.5618 0.5619 0.5619 0.5619
1717.000000 0.5619 0.5619 0.5618 0.5618 0.5618
1722.000000 0.5618 0.5621 0.5624 0.5632 0.5642
1727.000000 0.5654 0.5666 0.5679 0.5693 0.5714
1732.000000 0.5734 0.5749 0.5758 0.5766 0.5771
1737.000000 0.5776 0.5780 0.5784 0.5786 0.5788
1742.000000 0.5788 0.5790 0.5791 0.5791 0.5791
1747.000000 0.5791 0.5790 0.5806 0.5789 0.5788
1752.000000 0.5787 0.5787 0.5786 0.5785 0.5783
1757.000000 0.5782 0.5782 0.5781 0.5780 0.5779
1762.000000 0.5777 0.5775 0.5772 0.5769 0.5766
1767.000000 0.5764 0.5762 0.5759 0.5757 0.5754
1772.000000 0.5752 0.5750 0.5746 0.5742 0.5739
1777.000000 0.5735 0.5731 0.5728 0.5724 0.5720
1782.000000 0.5715 0.5709 0.5705 0.5700 0.5695
1787.000000 0.5689 0.5685 0.5680 0.5675 0.5670
1792.000000 0.5665 0.5660 0.5655 0.5650 0.5645
1797.000000 0.5641 0.5636 0.5631 0.5627 0.5621
1802.000000 0.5617 0.5612 0.5607 0.5603 0.5599
1807.000000 0.5595 0.5591 0.5587 0.5584 0.5581
1812.000000 0.5577 0.5573 0.5570 0.5568 0.5566
1817.000000 0.5564 0.5564 0.5563 0.5562 0.5561
1822.000000 0.5560 0.5534 0.5561 0.5562 0.5563
1827.000000 0.5565 0.5566 0.5567 0.5571 0.5575
1832.000000 0.5579 0.5583 0.5587 0.5591 0.5595
1837.000000 0.5600 0.5604 0.5609 0.5614 0.5619
1842.000000 0.5621 0.5623 0.5625 0.5626 0.5628
1847.000000 0.5629 0.5631 0.5632 0.5633 0.5634
1852.000000 0.5634 0.5634 0.5635 0.5635 0.5635
1857.000000 0.5635 0.5635 0.5635 0.5635 0.5635
1862.000000 0.5634 0.5632 0.5634 0.5634 0.5633
1867.000000 0.5633 0.5632 0.5632 0.5631 0.5631
1872.000000 0.5630 0.5629 0.5629 0.5628 0.5627
1877.000000 0.5626 0.5623 0.5619 0.5615 0.5611
1882.000000 0.5607 0.5602 0.5596 0.5588 0.5581
1887.000000 0.5574 0.5566 0.5559 0.5552 0.5544
1892.000000 0.5535 0.5526 0.5516 0.5507 0.5497
1897.000000 0.5488 0.5479 0.5467 0.5453 0.5437
1902.000000 0.5420 0.5404 0.5387 0.5369 0.5350
1907.000000 0.5329 0.5309 0.5288 0.5268 0.5249
1912.000000 0.5231 0.5215 0.5198 0.5186 0.5174
1917.000000 0.5163 0.5160 0.5158 0.5155 0.5152
1922.000000 0.5150 0.5149 0.5147 0.5145 0.5142
1927.000000 0.5134 0.5124 0.5111 0.5089 0.5069
1932.000000 0.5050 0.5036 0.5021 0.5006 0.4992
1937.000000 0.4979 0.4968 0.4958 0.4950 0.4943
1942.000000 0.4942 0.4941 0.4939 0.4937 0.4916
1947.000000 0.4934 0.4933 0.4933 0.4934 0.4935
1952.000000 0.4937 0.4939 0.4942 0.4946 0.4949
1957.000000 0.4952 0.4955 0.4962 0.4968 0.4975
1962.000000 0.4981 0.4988 0.4995 0.5002 0.5011
1967.000000 0.5020 0.5028 0.5037 0.5047 0.5058
1972.000000 0.5069 0.5080 0.5089 0.5098 0.5105
1977.000000 0.5113 0.5120 0.5127 0.5132 0.5136
1982.000000 0.5140 0.5144 0.5149 0.5153 0.5158
1987.000000 0.5161 0.5164 0.5167 0.5170 0.5173
1992.000000 0.5176 0.5179 0.5181 0.5184 0.5185
1997.000000 0.5185 0.5185 0.5184 0.5183 0.5182
2002.000000 0.5181 0.5180 0.5174 0.5178 0.5177
2007.000000 0.5176 0.5175 0.5173 0.5171 0.5169
2012.000000 0.5167 0.5165 0.5163 0.5162 0.5160
2017.000000 0.5158 0.5156 0.5153 0.5150 0.5147
2022.000000 0.5142 0.5138 0.5135 0.5130 0.5126
2027.000000 0.5121 0.5116 0.5112 0.5107 0.5102
2032.000000 0.5096 0.5091 0.5085 0.5080 0.5074
2037.000000 0.5068 0.5062 0.5056 0.5050 0.5045
2042.000000 0.5039 0.5032 0.5025 0.5017 0.5010
2047.000000 0.5002 0.4995 0.4987 0.4980 0.4972
2052.000000 0.4961 0.4949 0.4937 0.4925 0.4913
2057.000000 0.4905 0.4896 0.4888 0.4880 0.4873
2062.000000 0.4866 0.4860 0.4855 0.4849 0.4844
2067.000000 0.4839 0.4834 0.4828 0.4823 0.4819
2072.000000 0.4814 0.4808 0.4803 0.4798 0.4793
2077.000000 0.4788 0.4784 0.4780 0.4776 0.4772
2082.000000 0.4768 0.4765 0.4761 0.4757 0.4753
2087.000000 0.4749 0.4745 0.4741 0.4737 0.4733
2092.000000 0.4729 0.4725 0.4721 0.4716 0.4712
2097.000000 0.4708 0.4704 0.4700 0.4695 0.4691
2102.000000 0.4687 0.4681 0.4670 0.4658 0.4644
2107.000000 0.4631 0.4620 0.4610 0.4599 0.4589
2112.000000 0.4578 0.4568 0.4558 0.4548 0.4534
2117.000000 0.4519 0.4501 0.4484 0.4467 0.4450
2122.000000 0.4434 0.4420 0.4406 0.4398 0.4389
2127.000000 0.4381 0.4373 0.4365 0.4357 0.4347
2132.000000 0.4334 0.4320 0.4291 0.4260 0.4244
2137.000000 0.4230 0.4223 0.4217 0.4211 0.4205
2142.000000 0.4199 0.4193 0.4186 0.4177 0.4167
2147.000000 0.4154 0.4140 0.4126 0.4112 0.4099
2152.000000 0.4085 0.4072 0.4058 0.4045 0.4031
2157.000000 0.4018 0.4005 0.3991 0.3978 0.3964
2162.000000 0.3950 0.3937 0.3923 0.3910 0.3897
2167.000000 0.3883 0.3870 0.3857 0.3843 0.3830
2172.000000 0.3817 0.3804 0.3789 0.3763 0.3737
2177.000000 0.3714 0.3691 0.3666 0.3641 0.3615
2182.000000 0.3595 0.3580 0.3569 0.3561 0.3554
2187.000000 0.3547 0.3541 0.3536 0.3531 0.3525
2192.000000 0.3512 0.3498 0.3478 0.3454 0.3389
2197.000000 0.3330 0.3299 0.3269 0.3242 0.3217
2202.000000 0.3198 0.3184 0.3179 0.3173 0.3168
2207.000000 0.3163 0.3158 0.3153 0.3148 0.3143
2212.000000 0.3137 0.3132 0.3126 0.3119 0.3113
2217.000000 0.3106 0.3100 0.3090 0.3078 0.3066
2222.000000 0.3053 0.3039 0.3024 0.3009 0.2994
2227.000000 0.2979 0.2963 0.2947 0.2930 0.2913
2232.000000 0.2897 0.2882 0.2867 0.2853 0.2838
2237.000000 0.2824 0.2810 0.2795 0.2779 0.2762
2242.000000 0.2746 0.2730 0.2713 0.2695 0.2676
2247.000000 0.2653 0.2630 0.2607 0.2584 0.2561
2252.000000 0.2539 0.2517 0.2496 0.2474 0.2453
2257.000000 0.2432 0.2411 0.2389 0.2367 0.2346
2262.000000 0.2324 0.2306 0.2290 0.2278 0.2268
2267.000000 0.2258 0.2248 0.2238 0.2228 0.2218
2272.000000 0.2208 0.2198 0.2188 0.2176 0.2161
2277.000000 0.2147 0.2132 0.2118 0.2103 0.2088
2282.000000 0.2072 0.2056 0.2037 0.2018 0.1999
2287.000000 0.1981 0.1962 0.1943 0.1906 0.1858
2292.000000 0.1800 0.1731 0.1683 0.1664 0.1642
2297.000000 0.1617 0.1578 0.1487 0.1402 0.1376
2302.000000 0.1349 0.1323 0.1296 0.1272 0.1247
2307.000000 0.1223 0.1199 0.1174 0.1148 0.1119
2312.000000 0.1088 0.1056 0.1023 0.0989 0.0954
2317.000000 0.0920 0.0900 0.0880 0.0865 0.0850
2322.000000 0.0836 0.0822 0.0804 0.0786 0.0764
2327.000000 0.0739 0.0714 0.0689 0.0664 0.0646
2332.000000 0.0627 0.0616 0.0606 0.0600 0.0596
2337.000000 0.0592 0.0588 0.0585 0.0584 0.0583
2342.000000 0.0580 0.0578 0.0571 0.0565 0.0555
2347.000000 0.0544 0.0523 0.0494 0.0471 0.0459
2352.000000 0.0448 0.0441 0.0434 0.0427 0.0420
2357.000000 0.0414 0.0407 0.0401 0.0397 0.0393
2362.000000 0.0389 0.0386 0.0386 0.0385 0.0384
2367.000000 0.0383 0.0382 0.0381 0.0380 0.0379
2372.000000 0.0378 0.0378 0.0378 0.0377 0.0376
2377.000000 0.0375 0.0374 0.0373 0.0372 0.0371
2382.000000 0.0371 0.0370 0.0368 0.0367 0.0366
2387.000000 0.0365 0.0363 0.0361 0.0359 0.0356
2392.000000 0.0353 0.0348 0.0342 0.0335 0.0327
2397.000000 0.0318 0.0309 0.0300 0.0291 0.0281
2402.000000 0.0272 0.0263 0.0254 0.0245 0.0236
2407.000000 0.0227 0.0217 0.0207 0.0196 0.0187
2412.000000 0.0182 0.0177 0.0173 0.0168 0.0164
2417.000000 0.0161 0.0157 0.0156 0.0155 0.0153
2422.000000 0.0152 0.0151 0.0150 0.0149 0.0149
2427.000000 0.0148 0.0147 0.0147 0.0147 0.0147
2432.000000 0.0146 0.0146 0.0146 0.0146 0.0146
2437.000000 0.0146 0.0146 0.0146 0.0145 0.0145
2442.000000 0.0145 0.0145 0.0145 0.0145 0.0145
2447.000000 0.0145 0.0145 0.0145 0.0145 0.0145
2452.000000 0.0145 0.0145 0.0145 0.0145 0.0146
2457.000000 0.0146 0.0146 0.0146 0.0146 0.0146
2462.000000 0.0146 0.0146 0.0146 0.0146 0.0147
2467.000000 0.0147 0.0147 0.0147 0.0147 0.0147
2472.000000 0.0147 0.0147 0.0147 0.0147 0.0147
2477.000000 0.0147 0.0148 0.0148 0.0148 0.0148
2482.000000 0.0148 0.0148 0.0148 0.0148 0.0148
2487.000000 0.0148 0.0148 0.0148 0.0148 0.0149
2492.000000 0.0149 0.0149 0.0149 0.0149 0.0149
2497.000000 0.0149 0.0149 0.0149 0.0149 0.0149
2502.000000 0.0149 0.0150 0.0150 0.0150 0.0147
2507.000000 0.0150 0.0150 0.0150 0.0150 0.0151
2512.000000 0.0151 0.0151 0.0151 0.0151 0.0151
2517.000000 0.0151 0.0152 0.0152 0.0152 0.0152
2522.000000 0.0152 0.0153 0.0153 0.0153 0.0153
2527.000000 0.0153 0.0154 0.0154 0.0154 0.0154
2532.000000 0.0155 0.0156 0.0156 0.0156 0.0157
2537.000000 0.0157 0.0157 0.0158 0.0158 0.0159
2542.000000 0.0159 0.0159 0.0160 0.0160 0.0161
2547.000000 0.0161 0.0162 0.0163 0.0163 0.0163
2552.000000 0.0164 0.0164 0.0165 0.0167 0.0169
2557.000000 0.0171 0.0173 0.0175 0.0176 0.0178
2562.000000 0.0179 0.0181 0.0183 0.0185 0.0187
2567.000000 0.0189 0.0191 0.0194 0.0196 0.0199
2572.000000 0.0201 0.0203 0.0205 0.0207 0.0208
2577.000000 0.0208 0.0209 0.0210 0.0211 0.0212
2582.000000 0.0213 0.0214 0.0214 0.0214 0.0215
2587.000000 0.0215 0.0214 0.0214 0.0214 0.0214
2592.000000 0.0214 0.0214 0.0214 0.0214 0.0214
2597.000000 0.0218 0.0222 0.0226 0.0230 0.0234
2602.000000 0.0239 0.0244 0.0249 0.0253 0.0258
2607.000000 0.0262 0.0270 0.0278 0.0286 0.0294
2612.000000 0.0303 0.0309 0.0313 0.0318 0.0322
2617.000000 0.0325 0.0328 0.0330 0.0332 0.0333
2622.000000 0.0334 0.0335 0.0336 0.0337 0.0338
2627.000000 0.0340 0.0341 0.0342 0.0342 0.0343
2632.000000 0.0345 0.0347 0.0350 0.0361 0.0376
2637.000000 0.0391 0.0407 0.0423 0.0439 0.0454
2642.000000 0.0469 0.0483 0.0494 0.0505 0.0515
2647.000000 0.0525 0.0535 0.0544 0.0554 0.0564
2652.000000 0.0575 0.0585 0.0595 0.0606 0.0616
2657.000000 0.0626 0.0635 0.0645 0.0654 0.0661
2662.000000 0.0668 0.0673 0.0676 0.0680 0.0682
2667.000000 0.0685 0.0687 0.0688 0.0690 0.0691
2672.000000 0.0692 0.0693 0.0695 0.0696 0.0698
2677.000000 0.0699 0.0700 0.0701 0.0702 0.0703
2682.000000 0.0703 0.0705 0.0706 0.0708 0.0712
2687.000000 0.0717 0.0722 0.0735 0.0750 0.0766
2692.000000 0.0781 0.0796 0.0811 0.0826 0.0841
2697.000000 0.0855 0.0871 0.0886 0.0901 0.0916
2702.000000 0.0931 0.0946 0.0961 0.0976 0.0991
2707.000000 0.1006 0.1021 0.1036 0.1051 0.1066
2712.000000 0.1081 0.1095 0.1109 0.1123 0.1136
2717.000000 0.1148 0.1157 0.1163 0.1168 0.1172
2722.000000 0.1176 0.1179 0.1181 0.1184 0.1187
2727.000000 0.1189 0.1191 0.1193 0.1195 0.1197
2732.000000 0.1199 0.1201 0.1202 0.1203 0.1205
2737.000000 0.1207 0.1209 0.1220 0.1233 0.1246
2742.000000 0.1268 0.1291 0.1315 0.1338 0.1362
2747.000000 0.1386 0.1409 0.1433 0.1456 0.1480
2752.000000 0.1504 0.1527 0.1551 0.1574 0.1598
2757.000000 0.1624 0.1652 0.1681 0.1699 0.1710
2762.000000 0.1722 0.1729 0.1733 0.1737 0.1741
2767.000000 0.1743 0.1745 0.1747 0.1748 0.1750
2772.000000 0.1751 0.1751 0.1752 0.1768 0.1753
2777.000000 0.1753 0.1752 0.1752 0.1751 0.1750
2782.000000 0.1749 0.1747 0.1745 0.1743 0.1742
2787.000000 0.1740 0.1736 0.1732 0.1728 0.1722
2792.000000 0.1715 0.1708 0.1701 0.1693 0.1686
2797.000000 0.1676 0.1665 0.1654 0.1642 0.1629
2802.000000 0.1615 0.1601 0.1585 0.1570 0.1552
2807.000000 0.1524 0.1497 0.1469 0.1434 0.1398
2812.000000 0.1363 0.1327 0.1292 0.1257 0.1221
2817.000000 0.1186 0.1151 0.1098 0.1028 0.0957
2822.000000 0.0909 0.0903 0.0898 0.0893 0.0893
2827.000000 0.0893 0.0893 0.0894 0.0895 0.0896
2832.000000 0.0898 0.0899 0.0901 0.0903 0.0907
2837.000000 0.0911 0.0915 0.0920 0.0925 0.0930
2842.000000 0.0934 0.0938 0.0942 0.0944 0.0947
2847.000000 0.0949 0.0950 0.0951 0.0952 0.0952
2852.000000 0.0952 0.0952 0.0951 0.0950 0.0949
2857.000000 0.0948 0.0945 0.0942 0.0939 0.0936
2862.000000 0.0933 0.0930 0.0925 0.0917 0.0909
2867.000000 0.0901 0.0899 0.0897 0.0894 0.0893
2872.000000 0.0891 0.0890 0.0891 0.0893 0.0895
2877.000000 0.0898 0.0902 0.0905 0.0909 0.0915
2882.000000 0.0921 0.0927 0.0933 0.0939 0.0945
2887.000000 0.0951 0.0956 0.0961 0.0966 0.0968
2892.000000 0.0970 0.0972 0.0974 0.0976 0.0977
2897.000000 0.0978 0.0978 0.0978 0.0978 0.0978
2902.000000 0.0978 0.0978 0.0977 0.0976 0.0975
2907.000000 0.0974 0.0973 0.0972 0.0971 0.0969
2912.000000 0.0967 0.0965 0.0963 0.0959 0.0956
2917.000000 0.0953 0.0948 0.0943 0.0937 0.0932
2922.000000 0.0926 0.0921 0.0915 0.0907 0.0900
2927.000000 0.0892 0.0884 0.0876 0.0868 0.0860
2932.000000 0.0852 0.0843 0.0835 0.0829 0.0825
2937.000000 0.0821 0.0816 0.0813 0.0809 0.0805
2942.000000 0.0802 0.0799 0.0796 0.0793 0.0790
2947.000000 0.0787 0.0785 0.0783 0.0781 0.0779
2952.000000 0.0777 0.0775 0.0773 0.0771 0.0769
2957.000000 0.0767 0.0765 0.0764 0.0762 0.0760
2962.000000 0.0758 0.0756 0.0754 0.0752 0.0750
2967.000000 0.0750 0.0750 0.0750 0.0750 0.0750
2972.000000 0.0750 0.0750 0.0752 0.0752 0.0753
2977.000000 0.0765 0.0778 0.0792 0.0807 0.0824
2982.000000 0.0841 0.0858 0.0874 0.0891 0.0908
2987.000000 0.0925 0.0942 0.0958 0.0975 0.0994
2992.000000 0.1015 0.1036 0.1056 0.1069 0.1083
2997.000000 0.1096 0.1106 0.1114 0.1121 0.1129
3002.000000 0.1134 0.1137 0.1141 0.1145 0.1149
3007.000000 0.1152 0.1156 0.1160 0.1164 0.1167
3012.000000 0.1171 0.1175 0.1180 0.1184 0.1188
3017.000000 0.1191 0.1195 0.1198 0.1202 0.1205
3022.000000 0.1209 0.1213 0.1217 0.1221 0.1226
3027.000000 0.1237 0.1259 0.1281 0.1304 0.1359
3032.000000 0.1428 0.1497 0.1566 0.1635 0.1704
3037.000000 0.1773 0.1842 0.1911 0.1980 0.2049
3042.000000 0.2117 0.2186 0.2255 0.2324 0.2393
3047.000000 0.2461 0.2530 0.2589 0.2617 0.2644
3052.000000 0.2671 0.2691 0.2704 0.2717 0.2729
3057.000000 0.2743 0.2756 0.2769 0.2783 0.2796
3062.000000 0.2809 0.2823 0.2839 0.2861 0.2883
3067.000000 0.2905 0.2930 0.2957 0.2985 0.3013
3072.000000 0.3029 0.3041 0.3054 0.3066 0.3071
3077.000000 0.3075 0.3079 0.3083 0.3087 0.3092
3082.000000 0.3096 0.3100 0.3104 0.3107 0.3111
3087.000000 0.3114 0.3118 0.3121 0.3125 0.3128
3092.000000 0.3130 0.3133 0.3135 0.3137 0.3139
3097.000000 0.3141 0.3143 0.3145 0.3147 0.3149
3102.000000 0.3151 0.3152 0.3153 0.3154 0.3155
3107.000000 0.3156 0.3156 0.3157 0.3158 0.3159
3112.000000 0.3159 0.3160 0.3161 0.3162 0.3163
3117.000000 0.3163 0.3164 0.3164 0.3164 0.3164
3122.000000 0.3165 0.3165 0.3165 0.3184 0.3165
3127.000000 0.3165 0.3165 0.3164 0.3164 0.3163
3132.000000 0.3162 0.3161 0.3160 0.3159 0.3157
3137.000000 0.3156 0.3152 0.3149 0.3146 0.3142
3142.000000 0.3138 0.3134 0.3129 0.3124 0.3118
3147.000000 0.3112 0.3105 0.3099 0.3092 0.3086
3152.000000 0.3079 0.3073 0.3066 0.3059 0.3051
3157.000000 0.3044 0.3035 0.3027 0.3018 0.3010
3162.000000 0.3002 0.2993 0.2985 0.2976 0.2964
3167.000000 0.2953 0.2942 0.2931 0.2919 0.2908
3172.000000 0.2896 0.2883 0.2868 0.2853 0.2838
3177.000000 0.2825 0.2815 0.2805 0.2795 0.2787
3182.000000 0.2782 0.2777 0.2772 0.2768 0.2767
3187.000000 0.2766 0.2764 0.2763 0.2762 0.2761
3192.000000 0.2760 0.2758 0.2757 0.2756 0.2755
3197.000000 0.2754 0.2753 0.2752 0.2752 0.2751
3202.000000 0.2748 0.2746 0.2744 0.2742 0.2740
3207.000000 0.2738 0.2736 0.2734 0.2731 0.2728
3212.000000 0.2725 0.2722 0.2719 0.2715 0.2712
3217.000000 0.2709 0.2706 0.2702 0.2699 0.2696
3222.000000 0.2692 0.2687 0.2683 0.2678 0.2674
3227.000000 0.2669 0.2664 0.2660 0.2655 0.2650
3232.000000 0.2645 0.2640 0.2635 0.2630 0.2625
3237.000000 0.2620 0.2614 0.2609 0.2604 0.2599
3242.000000 0.2593 0.2588 0.2583 0.2578 0.2572
3247.000000 0.2567 0.2560 0.2553 0.2546 0.2539
3252.000000 0.2532 0.2526 0.2519 0.2512 0.2505
3257.000000 0.2499 0.2492 0.2485 0.2479 0.2472
3262.000000 0.2465 0.2458 0.2452 0.2445 0.2438
3267.000000 0.2432 0.2425 0.2419 0.2412 0.2406
3272.000000 0.2399 0.2393 0.2386 0.2380 0.2373
3277.000000 0.2367 0.2360 0.2353 0.2347 0.2340
3282.000000 0.2334 0.2328 0.2322 0.2315 0.2304
3287.000000 0.2293 0.2281 0.2269 0.2257 0.2244
3292.000000 0.2231 0.2219 0.2206 0.2193 0.2181
3297.000000 0.2168 0.2155 0.2145 0.2136 0.2126
3302.000000 0.2116 0.2107 0.2098 0.2088 0.2079
3307.000000 0.2069 0.2060 0.2050 0.2041 0.2031
3312.000000 0.2022 0.2013 0.2004 0.1994 0.1985
3317.000000 0.1977 0.1968 0.1959 0.1950 0.1941
3322.000000 0.1933 0.1924 0.1916 0.1907 0.1898
3327.000000 0.1890 0.1881 0.1873 0.1863 0.1854
3332.000000 0.1845 0.1836 0.1825 0.1814 0.1803
3337.000000 0.1792 0.1781 0.1770 0.1760 0.1749
3342.000000 0.1738 0.1725 0.1712 0.1698 0.1684
3347.000000 0.1670 0.1655 0.1640 0.1626 0.1611
3352.000000 0.1585 0.1557 0.1529 0.1500 0.1477
3357.000000 0.1463 0.1449 0.1436 0.1422 0.1410
3362.000000 0.1399 0.1387 0.1375 0.1363 0.1352
3367.000000 0.1341 0.1329 0.1318 0.1307 0.1297
3372.000000 0.1288 0.1278 0.1269 0.1264 0.1258
3377.000000 0.1253 0.1248 0.1245 0.1242 0.1240
3382.000000 0.1237 0.1234 0.1233 0.1231 0.1229
3387.000000 0.1227 0.1226 0.1225 0.1224 0.1223
3392.000000 0.1222 0.1221 0.1220 0.1220 0.1219
3397.000000 0.1219 0.1219 0.1219 0.1219 0.1219
3402.000000 0.1219 0.1219 0.1219 0.1219 0.1219
3407.000000 0.1219 0.1219 0.1219 0.1219 0.1219
3412.000000 0.1219 0.1219 0.1219 0.1219 0.1211
3417.000000 0.1220 0.1220 0.1220 0.1220 0.1220
3422.000000 0.1220 0.1221 0.1221 0.1222 0.1222
3427.000000 0.1222 0.1223 0.1223 0.1224 0.1225
3432.000000 0.1225 0.1226 0.1226 0.1228 0.1229
3437.000000 0.1230 0.1231 0.1233 0.1235 0.1237
3442.000000 0.1239 0.1241 0.1244 0.1246 0.1248
3447.000000 0.1251 0.1253 0.1255 0.1258 0.1260
3452.000000 0.1263 0.1265 0.1268 0.1270 0.1273
3457.000000 0.1275 0.1278 0.1280 0.1283 0.1285
3462.000000 0.1288 0.1290 0.1293 0.1295 0.1298
3467.000000 0.1300 0.1303 0.1305 0.1307 0.1310
3472.000000 0.1312 0.1314 0.1317 0.1319 0.1322
3477.000000 0.1324 0.1328 0.1331 0.1334 0.1338
3482.000000 0.1341 0.1344 0.1348 0.1351 0.1355
3487.000000 0.1358 0.1362 0.1365 0.1368 0.1371
3492.000000 0.1376 0.1381 0.1387 0.1393 0.1399
3497.000000 0.1405 0.1411 0.1417 0.1424 0.1430
3502.000000 0.1438 0.1448 0.1458 0.1468 0.1477
3507.000000 0.1508 0.1549 0.1590 0.1630 0.1671
3512.000000 0.1696 0.1716 0.1736 0.1757 0.1777
3517.000000 0.1796 0.1814 0.1833 0.1852 0.1870
3522.000000 0.1888 0.1905 0.1923 0.1940 0.1958
3527.000000 0.1978 0.1999 0.2020 0.2040 0.2061
3532.000000 0.2071 0.2079 0.2088 0.2097 0.2106
3537.000000 0.2115 0.2124 0.2133 0.2142 0.2151
3542.000000 0.2176 0.2202 0.2229 0.2255 0.2282
3547.000000 0.2310 0.2339 0.2368 0.2397 0.2426
3552.000000 0.2454 0.2482 0.2510 0.2538 0.2566
3557.000000 0.2594 0.2622 0.2650 0.2678 0.2705
3562.000000 0.2733 0.2761 0.2789 0.2816 0.2844
3567.000000 0.2872 0.2900 0.2927 0.2955 0.2983
3572.000000 0.3010 0.3038 0.3065 0.3093 0.3121
3577.000000 0.3148 0.3176 0.3204 0.3231 0.3259
3582.000000 0.3287 0.3314 0.3342 0.3369 0.3397
3587.000000 0.3424 0.3454 0.3483 0.3512 0.3542
3592.000000 0.3570 0.3580 0.3590 0.3600 0.3610
3597.000000 0.3620 0.3630 0.3641 0.3651 0.3661
3602.000000 0.3671 0.3682 0.3692 0.3703 0.3714
3607.000000 0.3724 0.3735 0.3745 0.3756 0.3766
3612.000000 0.3777 0.3788 0.3798 0.3809 0.3820
3617.000000 0.3831 0.3842 0.3853 0.3864 0.3875
3622.000000 0.3886 0.3896 0.3904 0.3910 0.3917
3627.000000 0.3923 0.3930 0.3936 0.3941 0.3947
3632.000000 0.3952 0.3958 0.3963 0.3969 0.3974
3637.000000 0.3980 0.3986 0.3991 0.3997 0.4003
3642.000000 0.4009 0.4015 0.4021 0.4073 0.4146
3647.000000 0.4219 0.4293 0.4366 0.4421 0.4446
3652.000000 0.4470 0.4494 0.4518 0.4542 0.4550
3657.000000 0.4558 0.4566 0.4575 0.4583 0.4589
3662.000000 0.4593 0.4597 0.4602 0.4606 0.4611
3667.000000 0.4615 0.4619 0.4623 0.4627 0.4631
3672.000000 0.4635 0.4639 0.4643 0.4648 0.4652
3677.000000 0.4655 0.4657 0.4659 0.4661 0.4664
3682.000000 0.4666 0.4668 0.4670 0.4672 0.4675
3687.000000 0.4677 0.4679 0.4680 0.4681 0.4683
3692.000000 0.4684 0.4686 0.4686 0.4687 0.4687
3697.000000 0.4688 0.4688 0.4689 0.4689 0.4689
3702.000000 0.4689 0.4689 0.4690 0.4690 0.4690
3707.000000 0.4691 0.4691 0.4691 0.4692 0.4692
3712.000000 0.4692 0.4692 0.4692 0.4693 0.4693
3717.000000 0.4693 0.4694 0.4694 0.4694 0.4694
3722.000000 0.4694 0.4694 0.4693 0.4693 0.4693
3727.000000 0.4692 0.4692 0.4691 0.4691 0.4691
3732.000000 0.4690 0.4690 0.4689 0.4689 0.4688
3737.000000 0.4687 0.4687 0.4686 0.4685 0.4685
3742.000000 0.4684 0.4683 0.4682 0.4682 0.4681
3747.000000 0.4680 0.4680 0.4678 0.4677 0.4675
3752.000000 0.4674 0.4673 0.4671 0.4668 0.4666
3757.000000 0.4663 0.4661 0.4658 0.4656 0.4653
3762.000000 0.4650 0.4647 0.4644 0.4642 0.4638
3767.000000 0.4635 0.4632 0.4628 0.4625 0.4622
3772.000000 0.4619 0.4616 0.4613 0.4610 0.4607
3777.000000 0.4605 0.4604 0.4603 0.4602 0.4601
3782.000000 0.4600 0.4599 0.4598 0.4598 0.4597
3787.000000 0.4596 0.4596 0.4596 0.4596 0.4597
3792.000000 0.4597 0.4597 0.4598 0.4598 0.4598
3797.000000 0.4598 0.4598 0.4598 0.4599 0.4599
3802.000000 0.4599 0.4599 0.4599 0.4599 0.4599
3807.000000 0.4599 0.4599 0.4598 0.4598 0.4597
3812.000000 0.4597 0.4596 0.4595 0.4595 0.4594
3817.000000 0.4593 0.4593 0.4592 0.4591 0.4591
3822.000000 0.4590 0.4589 0.4588 0.4587 0.4585
3827.000000 0.4584 0.4583 0.4582 0.4580 0.4578
3832.000000 0.4576 0.4574 0.4572 0.4570 0.4568
3837.000000 0.4566 0.4563 0.4561 0.4559 0.4555
3842.000000 0.4551 0.4546 0.4542 0.4538 0.4533
3847.000000 0.4529 0.4524 0.4520 0.4516 0.4511
3852.000000 0.4507 0.4503 0.4498 0.4494 0.4490
3857.000000 0.4486 0.4482 0.4478 0.4475 0.4472
3862.000000 0.4468 0.4465 0.4461 0.4459 0.4456
3867.000000 0.4453 0.4451 0.4448 0.4445 0.4443
3872.000000 0.4440 0.4437 0.4435 0.4432 0.4429
3877.000000 0.4429 0.4428 0.4427 0.4426 0.4425
3882.000000 0.4424 0.4424 0.4423 0.4423 0.4422
3887.000000 0.4421 0.4421 0.4420 0.4420 0.4419
3892.000000 0.4419 0.4418 0.4418 0.4417 0.4417
3897.000000 0.4416 0.4416 0.4415 0.4415 0.4414
3902.000000 0.4414 0.4413 0.4413 0.4412 0.4412
3907.000000 0.4411 0.4411 0.4410 0.4410 0.4409
3912.000000 0.4409 0.4408 0.4408 0.4408 0.4407
3917.000000 0.4407 0.4407 0.4406 0.4406 0.4405
3922.000000 0.4404 0.4404 0.4403 0.4402 0.4402
3927.000000 0.4401 0.4401 0.4400 0.4400 0.4399
3932.000000 0.4399 0.4398 0.4398 0.4397 0.4397
3937.000000 0.4397 0.4396 0.4396 0.4395 0.4395
3942.000000 0.4394 0.4394 0.4393 0.4393 0.4392
3947.000000 0.4392 0.4391 0.4391 0.4390 0.4390
3952.000000 0.4389 0.4388 0.4388 0.4387 0.4386
3957.000000 0.4386 0.4385 0.4385 0.4384 0.4384
3962.000000 0.4383 0.4383 0.4383 0.4382 0.4382
3967.000000 0.4381 0.4381 0.4380 0.4380 0.4379
3972.000000 0.4379 0.4378 0.4378 0.4377 0.4377
3977.000000 0.4376 0.4376 0.4375 0.4375 0.4374
3982.000000 0.4374 0.4373 0.4373 0.4372 0.4371
3987.000000 0.4371 0.4370 0.4370 0.4369 0.4369
3992.000000 0.4368 0.4368 0.4367 0.4367 0.4367
3997.000000 0.4367 0.4367 0.4367 0.4367
##END=
