##TITLE=9H-PURINE, 6-DIMETHYLAMINO, 9-BENZYL, 2-CHLORO-
##JCAMP-DX=4.24
##DATA TYPE=INFRARED SPECTRUM
##CLASS=COBLENTZ III
##ORIGIN=SOUTHERN RESEARCH INSTITUTE
##OWNER=COBLENTZ SOCIETY
Collection (C) 2018 copyright by the U.S. Secretary of Commerce
on behalf of the United States of America. All rights reserved.
##DATE=1960/06/15
##NAMES=N-(8-benzyl-2-chloro-9H-purin-6-yl)-N,N-dimethylamine
8-benzyl-2-chloro-N,N-dimethyl-9H-purin-6-amine
##MOLFORM=C14 H14 Cl N5
##SOURCE REFERENCE=COBLENTZ NO. 8307
##$NIST ID=B6008307
##$NIST SOURCE=COBLENTZ
##$NIST IMAGE=cob8307
##SPECTROMETER/DATA SYSTEM=PERKIN-ELMER 21 (GRATING)
##INSTRUMENT PARAMETERS=FILTER CHANGE AT 1020 CM^-^1
##STATE=SOLID (1 mg / 650 mg KBr DISC)
##SAMPLING PROCEDURE=TRANSMISSION
##RESOLUTION=2
##DATA PROCESSING=DIGITIZED BY NIST FROM HARD COPY (FROM TWO SEGMENTS)
##XUNITS=1/CM
##YUNITS=TRANSMITTANCE
##XFACTOR=1.000000
##YFACTOR=1
##DELTAX=1.333333
##FIRSTX=605.624
##LASTX=4018.96
##FIRSTY=0.686
##MAXX=4018.96
##MINX=605.624
##MAXY=0.952
##MINY=0.041
##NPOINTS=2561
##XYDATA=(X++(Y..Y))
605.624000 0.6860 0.6899 0.6939 0.6998 0.7066
612.290665 0.7117 0.7120 0.7120 0.7129 0.7121
618.957330 0.7120 0.7111 0.7084 0.7055 0.7034
625.623995 0.7006 0.6992 0.6982 0.6965 0.6914
632.290660 0.6855 0.6810 0.6727 0.6643 0.6571
638.957325 0.6488 0.6372 0.6237 0.6177 0.6151
645.623990 0.6115 0.6069 0.6001 0.5964 0.6332
652.290655 0.6804 0.7226 0.7440 0.7440 0.7440
658.957320 0.7440 0.7435 0.7430 0.7430 0.7416
665.623985 0.7387 0.7301 0.7156 0.6946 0.6589
672.290650 0.6275 0.6106 0.5960 0.5796 0.5536
678.957315 0.5370 0.5382 0.5829 0.6916 0.7171
685.623980 0.7200 0.7192 0.7170 0.7143 0.7014
692.290645 0.6795 0.6409 0.6143 0.5881 0.5646
698.957310 0.5420 0.5200 0.4988 0.4887 0.4759
705.623975 0.4533 0.4315 0.4088 0.3860 0.3376
712.290640 0.2877 0.2629 0.2520 0.2628 0.2970
718.957305 0.3592 0.3979 0.5293 0.6491 0.6843
725.623970 0.7057 0.7479 0.7670 0.7785 0.7885
732.290635 0.7992 0.8043 0.8066 0.8118 0.8138
738.957300 0.8171 0.8211 0.8220 0.8227 0.8245
745.623965 0.8250 0.8250 0.8236 0.8223 0.8200
752.290630 0.8151 0.8104 0.8065 0.8025 0.7962
758.957295 0.7883 0.7717 0.7513 0.7397 0.7343
765.623960 0.7236 0.7098 0.7025 0.7020 0.7040
772.290625 0.7106 0.7407 0.7774 0.7884 0.7890
778.957290 0.7894 0.7802 0.7553 0.7292 0.6998
785.623955 0.6755 0.6493 0.6137 0.6124 0.6683
792.290620 0.8141 0.8355 0.8370 0.8370 0.8342
798.957285 0.8219 0.8083 0.7954 0.7826 0.7694
805.623950 0.7565 0.7540 0.7543 0.7614 0.7997
812.290615 0.8153 0.8350 0.8350 0.8350 0.8348
818.957280 0.8309 0.8270 0.8249 0.8209 0.8091
825.623945 0.7855 0.7811 0.7810 0.8055 0.8200
832.290610 0.8558 0.8698 0.8710 0.8710 0.8710
838.957275 0.8710 0.8676 0.8628 0.8595 0.8566
845.623940 0.8552 0.8527 0.8512 0.8495 0.8468
852.290605 0.8453 0.8436 0.8430 0.8423 0.8413
858.957270 0.8397 0.8377 0.8344 0.8292 0.8264
865.623935 0.8242 0.8218 0.8169 0.8094 0.7981
872.290600 0.7843 0.7689 0.7542 0.7423 0.7320
878.957265 0.7182 0.6947 0.6734 0.6665 0.6664
885.623930 0.6900 0.7474 0.7947 0.8138 0.8214
892.290595 0.8224 0.8230 0.8230 0.8230 0.8230
898.957260 0.8230 0.8230 0.8230 0.8227 0.8217
905.623925 0.8203 0.8164 0.8101 0.8060 0.8008
912.290590 0.7916 0.7693 0.7546 0.7455 0.7345
918.957255 0.7166 0.6980 0.6801 0.6598 0.6251
925.623920 0.6122 0.5989 0.5746 0.5338 0.4940
932.290585 0.4940 0.4950 0.5429 0.6346 0.7473
938.957250 0.7689 0.7848 0.8033 0.8068 0.8070
945.623915 0.8070 0.8061 0.8051 0.8025 0.7970
952.290580 0.7911 0.7884 0.7880 0.7856 0.7850
958.957245 0.7972 0.8159 0.8247 0.8289 0.8300
965.623910 0.8300 0.8293 0.8290 0.8277 0.8270
972.290575 0.8264 0.8254 0.8250 0.8238 0.8224
978.957240 0.8220 0.8203 0.8185 0.8164 0.8145
985.623905 0.8135 0.8115 0.8095 0.8076 0.8042
992.290570 0.8002 0.7963 0.7932 0.7895 0.7852
998.957235 0.7824 0.7773 0.7701 0.7639 0.7593
1005.623900 0.7517 0.7461 0.7440 0.7440 0.7431
1012.290565 0.7399 0.7360 0.7320 0.7272 0.7206
1018.957230 0.7184 0.7137 0.7033 0.6987 0.6912
1025.623895 0.6863 0.6815 0.6776 0.6714 0.6398
1032.290560 0.6183 0.6104 0.6010 0.5838 0.5560
1038.957225 0.5311 0.4996 0.4670 0.3821 0.3528
1045.623890 0.3222 0.2537 0.2500 0.2611 0.2748
1052.290555 0.3519 0.3743 0.4137 0.4778 0.5406
1058.957220 0.6104 0.6377 0.6662 0.6872 0.7013
1065.623885 0.7048 0.7050 0.7050 0.7043 0.7040
1072.290550 0.7004 0.6983 0.6959 0.6869 0.6803
1078.957215 0.6757 0.6727 0.6733 0.6901 0.7261
1085.623880 0.7585 0.7766 0.7865 0.7917 0.7952
1092.290545 0.8002 0.8061 0.8100 0.8125 0.8135
1098.957210 0.8116 0.8086 0.8052 0.8008 0.7921
1105.623875 0.7794 0.7730 0.7726 0.7709 0.7679
1112.290540 0.7653 0.7630 0.7610 0.7585 0.7515
1118.957205 0.7468 0.7426 0.7374 0.7310 0.7231
1125.623870 0.7165 0.7126 0.7028 0.6946 0.6770
1132.290535 0.6578 0.6305 0.6141 0.5943 0.5715
1138.957200 0.5277 0.4970 0.4630 0.4041 0.3914
1145.623865 0.3795 0.3690 0.3680 0.3694 0.4089
1152.290530 0.5231 0.5706 0.6476 0.6850 0.7112
1158.957195 0.7297 0.7328 0.7330 0.7348 0.7350
1165.623860 0.7255 0.7096 0.6978 0.6952 0.6974
1172.290525 0.6996 0.7024 0.7077 0.7174 0.7238
1178.957190 0.7235 0.7172 0.7129 0.7099 0.7063
1185.623855 0.7016 0.6966 0.6897 0.6812 0.6704
1192.290520 0.6586 0.6443 0.6309 0.6214 0.6129
1198.957185 0.5973 0.5759 0.5542 0.5247 0.4882
1205.623850 0.4685 0.4684 0.4864 0.5137 0.5240
1212.290515 0.5236 0.5111 0.4905 0.4792 0.4670
1218.957180 0.4571 0.4540 0.4516 0.4430 0.4270
1225.623845 0.3963 0.3624 0.3502 0.3410 0.3526
1232.290510 0.3933 0.4356 0.4992 0.5312 0.5707
1238.957175 0.6263 0.6466 0.6542 0.6552 0.6560
1245.623840 0.6538 0.6371 0.6214 0.6044 0.5756
1252.290505 0.5466 0.5405 0.5299 0.4850 0.4544
1258.957170 0.4246 0.3723 0.3279 0.2835 0.2820
1265.623835 0.2829 0.2858 0.2878 0.3090 0.3999
1272.290500 0.4940 0.5390 0.5715 0.6250 0.6548
1278.957165 0.6590 0.6590 0.6598 0.6600 0.6561
1285.623830 0.6542 0.6420 0.6328 0.6209 0.6064
1292.290495 0.5895 0.5730 0.5585 0.5266 0.4960
1298.957160 0.4819 0.4740 0.4636 0.4518 0.4370
1305.623825 0.4139 0.3770 0.3457 0.3229 0.2881
1312.290490 0.2431 0.1775 0.1335 0.1334 0.1522
1318.957155 0.1892 0.2184 0.2347 0.2581 0.2947
1325.623820 0.3164 0.3170 0.3170 0.3177 0.3211
1332.290485 0.3276 0.3449 0.3772 0.3978 0.4182
1338.957150 0.4410 0.4410 0.4405 0.4350 0.4185
1345.623815 0.4033 0.3881 0.3632 0.3425 0.3400
1352.290480 0.3434 0.3646 0.3811 0.3820 0.3822
1358.957145 0.3841 0.3850 0.3921 0.4891 0.5288
1365.623810 0.6157 0.6733 0.7521 0.7807 0.7810
1372.290475 0.7665 0.7641 0.7451 0.7337 0.7238
1378.957140 0.7021 0.6803 0.6754 0.6776 0.6831
1385.623805 0.6899 0.6943 0.6983 0.6990 0.6990
1392.290470 0.6770 0.6308 0.6144 0.6070 0.6013
1398.957135 0.5950 0.5880 0.5776 0.5657 0.5525
1405.623800 0.5394 0.5259 0.5070 0.4846 0.4632
1412.290465 0.4550 0.4556 0.4768 0.5011 0.5274
1418.957130 0.5565 0.5765 0.6103 0.6430 0.6544
1425.623795 0.6551 0.6488 0.6414 0.6308 0.6204
1432.290460 0.6141 0.6047 0.5824 0.5585 0.5567
1438.957125 0.5608 0.5725 0.6025 0.6432 0.6577
1445.623790 0.6678 0.6743 0.6811 0.6845 0.6862
1452.290455 0.6863 0.6836 0.6808 0.6736 0.6597
1458.957120 0.6384 0.6236 0.6083 0.5923 0.5876
1465.623785 0.5851 0.5870 0.5984 0.6271 0.6523
1472.290450 0.6720 0.6900 0.6909 0.6868 0.6710
1478.957115 0.6266 0.6075 0.5887 0.5650 0.5498
1485.623780 0.5369 0.5176 0.4934 0.4883 0.4898
1492.290445 0.4995 0.5172 0.5326 0.5458 0.5562
1498.957110 0.5669 0.5762 0.5835 0.5904 0.5965
1505.623775 0.6032 0.6123 0.6171 0.6180 0.6173
1512.290440 0.6149 0.6140 0.6133 0.6111 0.6043
1518.957105 0.5942 0.5815 0.5689 0.5575 0.5461
1525.623770 0.5331 0.5160 0.4989 0.4873 0.4784
1532.290435 0.4710 0.4534 0.4309 0.4174 0.4083
1538.957100 0.4028 0.3983 0.3935 0.3868 0.3816
1545.623765 0.3799 0.3780 0.3776 0.3760 0.3707
1552.290430 0.3618 0.3548 0.3450 0.3279 0.3094
1558.957095 0.2871 0.2602 0.2353 0.2193 0.1982
1565.623760 0.1674 0.1604 0.1573 0.1534 0.1478
1572.290425 0.1339 0.1265 0.1224 0.1169 0.1159
1578.957090 0.1148 0.1116 0.1049 0.1029 0.0999
1585.623755 0.0949 0.0900 0.0743 0.0604 0.0436
1592.290420 0.0411 0.0410 0.0410 0.0419 0.0456
1598.957085 0.0487 0.0534 0.0574 0.0614 0.0654
1605.623750 0.0710 0.0777 0.0846 0.0971 0.1101
1612.290415 0.1429 0.1648 0.1771 0.1931 0.2275
1618.957080 0.2638 0.2984 0.3562 0.3968 0.4198
1625.623745 0.4373 0.4525 0.4790 0.5047 0.5237
1632.290410 0.5392 0.5519 0.5637 0.5761 0.6029
1638.957075 0.6341 0.6633 0.6904 0.7078 0.7188
1645.623740 0.7253 0.7303 0.7422 0.7638 0.7807
1652.290405 0.7900 0.7999 0.8094 0.8179 0.8251
1658.957070 0.8304 0.8337 0.8360 0.8389 0.8422
1665.623735 0.8478 0.8592 0.8728 0.8785 0.8816
1672.290400 0.8886 0.8942 0.8981 0.9114 0.9133
1678.957065 0.9152 0.9160 0.9161 0.9172 0.9190
1685.623730 0.9190 0.9190 0.9191 0.9200 0.9200
1692.290395 0.9200 0.9200 0.9200 0.9210 0.9210
1698.957060 0.9210 0.9210 0.9210 0.9210 0.9228
1705.623725 0.9230 0.9230 0.9230 0.9239 0.9240
1712.290390 0.9240 0.9240 0.9240 0.9248 0.9266
1718.957055 0.9278 0.9280 0.9280 0.9273 0.9270
1725.623720 0.9255 0.9250 0.9243 0.9240 0.9220
1732.290385 0.9210 0.9210 0.9204 0.9200 0.9200
1738.957050 0.9194 0.9190 0.9178 0.9170 0.9170
1745.623715 0.9170 0.9181 0.9190 0.9190 0.9190
1752.290380 0.9190 0.9190 0.9190 0.9194 0.9204
1758.957045 0.9223 0.9244 0.9274 0.9318 0.9345
1765.623710 0.9377 0.9397 0.9417 0.9437 0.9459
1772.290375 0.9486 0.9500 0.9500 0.9505 0.9520
1778.957040 0.9515 0.9500 0.9498 0.9490 0.9490
1785.623705 0.9488 0.9480 0.9478 0.9470 0.9470
1792.290370 0.9468 0.9450 0.9450 0.9450 0.9450
1798.957035 0.9450 0.9450 0.9450 0.9450 0.9450
1805.623700 0.9450 0.9450 0.9450 0.9450 0.9450
1812.290365 0.9450 0.9441 0.9449 0.9450 0.9468
1818.957030 0.9470 0.9470 0.9479 0.9480 0.9480
1825.623695 0.9480 0.9480 0.9480 0.9480 0.9480
1832.290360 0.9480 0.9480 0.9480 0.9480 0.9480
1838.957025 0.9480 0.9480 0.9480 0.9487 0.9490
1845.623690 0.9509 0.9520 0.9520 0.9520 0.9520
1852.290355 0.9520 0.9520 0.9509 0.9489 0.9475
1858.957020 0.9460 0.9450 0.9450 0.9450 0.9445
1865.623685 0.9440 0.9444 0.9446 0.9440 0.9440
1872.290350 0.9436 0.9423 0.9403 0.9383 0.9363
1878.957015 0.9344 0.9327 0.9317 0.9304 0.9295
1885.623680 0.9310 0.9315 0.9335 0.9352 0.9358
1892.290345 0.9352 0.9362 0.9374 0.9387 0.9370
1898.957010 0.9370 0.9369 0.9360 0.9359 0.9350
1905.623675 0.9350 0.9349 0.9329 0.9320 0.9320
1912.290340 0.9320 0.9320 0.9320 0.9320 0.9320
1918.957005 0.9320 0.9320 0.9320 0.9320 0.9329
1925.623670 0.9330 0.9330 0.9330 0.9330 0.9330
1932.290335 0.9330 0.9322 0.9320 0.9320 0.9312
1938.957000 0.9310 0.9310 0.9295 0.9290 0.9283
1945.623665 0.9273 0.9270 0.9270 0.9257 0.9250
1952.290330 0.9250 0.9244 0.9234 0.9230 0.9230
1958.956995 0.9230 0.9218 0.9204 0.9200 0.9200
1965.623660 0.9200 0.9205 0.9220 0.9230 0.9235
1972.290325 0.9240 0.9240 0.9240 0.9240 0.9240
1978.956990 0.9236 0.9222 0.9210 0.9206 0.9200
1985.623655 0.9200 0.9203 0.9210 0.9210 0.9207
1992.290320 0.9200 0.9200 0.9203 0.9210 0.9215
1998.956985 0.9232 0.9240 0.9240 0.9240 0.9240
2005.623650 0.9240 0.9240 0.9238 0.9230 0.9230
2012.290315 0.9230 0.9230 0.9226 0.9210 0.9210
2018.956980 0.9210 0.9208 0.9200 0.9200 0.9200
2025.623645 0.9200 0.9200 0.9200 0.9200 0.9200
2032.290310 0.9200 0.9200 0.9200 0.9200 0.9200
2038.956975 0.9200 0.9200 0.9200 0.9200 0.9200
2045.623640 0.9200 0.9200 0.9200 0.9200 0.9200
2052.290305 0.9200 0.9200 0.9200 0.9200 0.9198
2058.956970 0.9190 0.9190 0.9190 0.9190 0.9190
2065.623635 0.9190 0.9190 0.9186 0.9170 0.9170
2072.290300 0.9168 0.9160 0.9160 0.9158 0.9150
2078.956965 0.9146 0.9130 0.9130 0.9130 0.9130
2085.623630 0.9128 0.9120 0.9120 0.9120 0.9120
2092.290295 0.9120 0.9120 0.9120 0.9120 0.9118
2098.956960 0.9110 0.9110 0.9110 0.9110 0.9110
2105.623625 0.9110 0.9110 0.9106 0.9090 0.9090
2112.290290 0.9090 0.9090 0.9090 0.9090 0.9088
2118.956955 0.9074 0.9050 0.9050 0.9050 0.9050
2125.623620 0.9048 0.9040 0.9040 0.9038 0.9030
2132.290285 0.9030 0.9030 0.9030 0.9030 0.9030
2138.956950 0.9030 0.9030 0.9030 0.9030 0.9030
2145.623615 0.9030 0.9026 0.9010 0.9010 0.9010
2152.290280 0.9010 0.9008 0.9000 0.9000 0.8998
2158.956945 0.8990 0.8988 0.8976 0.8960 0.8960
2165.623610 0.8960 0.8960 0.8960 0.8960 0.8960
2172.290275 0.8960 0.8960 0.8960 0.8960 0.8960
2178.956940 0.8958 0.8950 0.8950 0.8950 0.8950
2185.623605 0.8950 0.8950 0.8950 0.8948 0.8940
2192.290270 0.8940 0.8940 0.8940 0.8940 0.8940
2198.956935 0.8940 0.8940 0.8940 0.8940 0.8936
2205.623600 0.8920 0.8920 0.8920 0.8920 0.8918
2212.290265 0.8910 0.8910 0.8910 0.8910 0.8908
2218.956930 0.8900 0.8900 0.8896 0.8880 0.8878
2225.623595 0.8870 0.8868 0.8860 0.8856 0.8840
2232.290260 0.8838 0.8830 0.8828 0.8816 0.8800
2238.956925 0.8800 0.8800 0.8798 0.8790 0.8790
2245.623590 0.8788 0.8780 0.8776 0.8760 0.8760
2252.290255 0.8760 0.8758 0.8750 0.8750 0.8748
2258.956920 0.8740 0.8740 0.8740 0.8736 0.8718
2265.623585 0.8710 0.8710 0.8708 0.8700 0.8696
2272.290250 0.8678 0.8670 0.8670 0.8670 0.8668
2278.956915 0.8656 0.8640 0.8638 0.8628 0.8616
2285.623580 0.8598 0.8588 0.8576 0.8558 0.8548
2292.290245 0.8534 0.8510 0.8508 0.8498 0.8486
2298.956910 0.8468 0.8454 0.8430 0.8428 0.8418
2305.623575 0.8406 0.8390 0.8388 0.8380 0.8374
2312.290240 0.8350 0.8346 0.8330 0.8326 0.8310
2318.956905 0.8306 0.8292 0.8300 0.8300 0.8300
2325.623570 0.8300 0.8300 0.8300 0.8300 0.8300
2332.290235 0.8300 0.8300 0.8302 0.8310 0.8310
2338.956900 0.8310 0.8314 0.8330 0.8330 0.8330
2345.623565 0.8332 0.8340 0.8340 0.8342 0.8350
2352.290230 0.8350 0.8354 0.8370 0.8370 0.8372
2358.956895 0.8380 0.8382 0.8390 0.8390 0.8394
2365.623560 0.8410 0.8412 0.8420 0.8420 0.8422
2372.290225 0.8430 0.8430 0.8430 0.8430 0.8430
2378.956890 0.8430 0.8428 0.8420 0.8420 0.8418
2385.623555 0.8406 0.8390 0.8390 0.8390 0.8390
2392.290220 0.8390 0.8390 0.8390 0.8390 0.8390
2398.956885 0.8390 0.8390 0.8390 0.8388 0.8380
2405.623550 0.8380 0.8380 0.8380 0.8380 0.8378
2412.290215 0.8370 0.8370 0.8366 0.8350 0.8350
2418.956880 0.8350 0.8350 0.8348 0.8340 0.8340
2425.623545 0.8340 0.8338 0.8330 0.8330 0.8326
2432.290210 0.8310 0.8310 0.8308 0.8300 0.8300
2438.956875 0.8298 0.8290 0.8290 0.8286 0.8270
2445.623540 0.8268 0.8260 0.8260 0.8258 0.8250
2452.290205 0.8246 0.8228 0.8220 0.8220 0.8220
2458.956870 0.8220 0.8220 0.8218 0.8210 0.8210
2465.623535 0.8210 0.8206 0.8194 0.8210 0.8210
2472.290200 0.8210 0.8210 0.8210 0.8210 0.8210
2478.956865 0.8210 0.8210 0.8210 0.8210 0.8210
2485.623530 0.8210 0.8212 0.8220 0.8220 0.8218
2492.290195 0.8210 0.8210 0.8210 0.8210 0.8210
2498.956860 0.8210 0.8210 0.8210 0.8212 0.8222
2505.623525 0.8228 0.8220 0.8220 0.8220 0.8220
2512.290190 0.8220 0.8220 0.8220 0.8220 0.8220
2518.956855 0.8218 0.8206 0.8190 0.8190 0.8190
2525.623520 0.8188 0.8178 0.8166 0.8148 0.8138
2532.290185 0.8130 0.8130 0.8130 0.8132 0.8138
2538.956850 0.8130 0.8130 0.8130 0.8130 0.8130
2545.623515 0.8130 0.8130 0.8130 0.8130 0.8130
2552.290180 0.8130 0.8130 0.8130 0.8130 0.8130
2558.956845 0.8130 0.8130 0.8126 0.8110 0.8110
2565.623510 0.8110 0.8110 0.8110 0.8108 0.8100
2572.290175 0.8100 0.8100 0.8098 0.8090 0.8090
2578.956840 0.8090 0.8090 0.8086 0.8070 0.8068
2585.623505 0.8060 0.8058 0.8050 0.8050 0.8052
2592.290170 0.8060 0.8060 0.8058 0.8050 0.8050
2598.956835 0.8046 0.8030 0.8030 0.8028 0.8020
2605.623500 0.8020 0.8018 0.8010 0.8010 0.8010
2612.290165 0.8010 0.8010 0.8010 0.8010 0.8010
2618.956830 0.8010 0.8010 0.8010 0.8010 0.8010
2625.623495 0.8012 0.8020 0.8020 0.8020 0.8020
2632.290160 0.8020 0.8020 0.8020 0.8020 0.8018
2638.956825 0.8010 0.8010 0.8010 0.8010 0.8008
2645.623490 0.8000 0.8000 0.8000 0.8000 0.7996
2652.290155 0.7980 0.7980 0.7980 0.7980 0.7978
2658.956820 0.7970 0.7970 0.7970 0.7970 0.7970
2665.623485 0.7970 0.7970 0.7970 0.7968 0.7960
2672.290150 0.7960 0.7960 0.7960 0.7960 0.7960
2678.956815 0.7960 0.7960 0.7960 0.7956 0.7938
2685.623480 0.7930 0.7930 0.7928 0.7920 0.7916
2692.290145 0.7900 0.7898 0.7890 0.7888 0.7880
2698.956810 0.7880 0.7880 0.7880 0.7876 0.7860
2705.623475 0.7860 0.7858 0.7850 0.7850 0.7848
2712.290140 0.7840 0.7840 0.7836 0.7820 0.7820
2718.956805 0.7820 0.7820 0.7818 0.7808 0.7800
2725.623470 0.7796 0.7778 0.7770 0.7768 0.7756
2732.290135 0.7738 0.7728 0.7716 0.7700 0.7700
2738.956800 0.7698 0.7688 0.7680 0.7676 0.7660
2745.623465 0.7658 0.7648 0.7634 0.7608 0.7594
2752.290130 0.7568 0.7556 0.7538 0.7524 0.7498
2758.956795 0.7486 0.7466 0.7448 0.7434 0.7406
2765.623460 0.7384 0.7354 0.7328 0.7314 0.7288
2772.290125 0.7274 0.7248 0.7238 0.7226 0.7208
2778.956790 0.7198 0.7186 0.7168 0.7162 0.7168
2785.623455 0.7149 0.7103 0.7078 0.7070 0.7066
2792.290120 0.7050 0.7048 0.7040 0.7038 0.7030
2798.956785 0.7026 0.7008 0.7000 0.7000 0.7000
2805.623450 0.7000 0.7000 0.7000 0.7000 0.7000
2812.290115 0.7000 0.7000 0.7000 0.6998 0.6990
2818.956780 0.6990 0.6988 0.6980 0.6976 0.6960
2825.623445 0.6958 0.6943 0.6918 0.6908 0.6894
2832.290110 0.6864 0.6829 0.6781 0.6739 0.6694
2838.956775 0.6661 0.6619 0.6576 0.6560 0.6558
2845.623440 0.6548 0.6534 0.6510 0.6510 0.6510
2852.290105 0.6508 0.6500 0.6500 0.6500 0.6498
2858.956770 0.6490 0.6490 0.6490 0.6486 0.6470
2865.623435 0.6468 0.6453 0.6428 0.6418 0.6406
2872.290100 0.6388 0.6378 0.6370 0.6366 0.6348
2878.956765 0.6331 0.6289 0.6241 0.6206 0.6186
2885.623430 0.6166 0.6146 0.6124 0.6091 0.6054
2892.290095 0.6028 0.6018 0.6008 0.5996 0.5976
2898.956760 0.5956 0.5938 0.5930 0.5928 0.5916
2905.623425 0.5898 0.5890 0.5890 0.5890 0.5888
2912.290090 0.5880 0.5880 0.5880 0.5880 0.5882
2918.956755 0.5890 0.5892 0.5900 0.5900 0.5900
2925.623420 0.5904 0.5922 0.5930 0.5939 0.5976
2932.290085 0.6011 0.6052 0.6086 0.6191 0.6243
2938.956750 0.6301 0.6355 0.6421 0.6471 0.6525
2945.623415 0.6591 0.6641 0.6689 0.6733 0.6791
2952.290080 0.6839 0.6879 0.6919 0.6956 0.6982
2958.956745 0.6994 0.7010 0.7010 0.7010 0.7010
2965.623410 0.7014 0.7030 0.7030 0.7030 0.7030
2972.290075 0.7030 0.7030 0.7026 0.7010 0.7010
2978.956740 0.7008 0.7000 0.6998 0.6988 0.6976
2985.623405 0.6958 0.6943 0.6920 0.6920 0.6920
2992.290070 0.6918 0.6910 0.6908 0.6900 0.6900
2998.956735 0.6900 0.6900 0.6900 0.6900 0.6900
3005.623400 0.6900 0.6896 0.6880 0.6880 0.6880
3012.290065 0.6880 0.6880 0.6878 0.6870 0.6870
3018.956730 0.6870 0.6870 0.6868 0.6860 0.6860
3025.623395 0.6856 0.6840 0.6838 0.6830 0.6828
3032.290060 0.6816 0.6800 0.6800 0.6798 0.6790
3038.956725 0.6788 0.6780 0.6780 0.6776 0.6760
3045.623390 0.6758 0.6744 0.6718 0.6708 0.6694
3052.290055 0.6664 0.6638 0.6621 0.6584 0.6558
3058.956720 0.6550 0.6548 0.6536 0.6518 0.6508
3065.623385 0.6500 0.6500 0.6500 0.6502 0.6510
3072.290050 0.6510 0.6512 0.6526 0.6556 0.6588
3078.956715 0.6624 0.6649 0.6689 0.6733 0.6793
3085.623380 0.6864 0.6967 0.7047 0.7123 0.7185
3092.290045 0.7255 0.7321 0.7386 0.7491 0.7545
3098.956710 0.7611 0.7652 0.7666 0.7690 0.7692
3105.623375 0.7704 0.7722 0.7730 0.7732 0.7740
3112.290040 0.7740 0.7740 0.7740 0.7740 0.7740
3118.956705 0.7740 0.7740 0.7740 0.7740 0.7740
3125.623370 0.7738 0.7730 0.7730 0.7730 0.7730
3132.290035 0.7728 0.7720 0.7720 0.7720 0.7720
3138.956700 0.7716 0.7700 0.7700 0.7700 0.7698
3145.623365 0.7690 0.7690 0.7688 0.7680 0.7680
3152.290030 0.7676 0.7660 0.7658 0.7650 0.7650
3158.956695 0.7648 0.7640 0.7636 0.7618 0.7612
3165.623360 0.7620 0.7620 0.7618 0.7610 0.7610
3172.290025 0.7610 0.7608 0.7600 0.7600 0.7596
3178.956690 0.7580 0.7578 0.7570 0.7568 0.7560
3185.623355 0.7556 0.7540 0.7538 0.7530 0.7528
3192.290020 0.7520 0.7516 0.7500 0.7496 0.7480
3198.956685 0.7478 0.7466 0.7450 0.7450 0.7448
3205.623350 0.7440 0.7440 0.7440 0.7438 0.7430
3212.290015 0.7430 0.7426 0.7410 0.7406 0.7390
3218.956680 0.7386 0.7368 0.7360 0.7360 0.7360
3225.623345 0.7360 0.7360 0.7360 0.7358 0.7350
3232.290010 0.7350 0.7350 0.7350 0.7346 0.7330
3238.956675 0.7330 0.7328 0.7320 0.7320 0.7318
3245.623340 0.7310 0.7310 0.7306 0.7290 0.7290
3252.290005 0.7288 0.7278 0.7270 0.7266 0.7250
3258.956670 0.7248 0.7238 0.7230 0.7226 0.7208
3265.623335 0.7200 0.7198 0.7186 0.7170 0.7168
3272.290000 0.7158 0.7150 0.7146 0.7126 0.7110
3278.956665 0.7110 0.7110 0.7106 0.7090 0.7090
3285.623330 0.7090 0.7088 0.7080 0.7080 0.7080
3292.289995 0.7078 0.7070 0.7070 0.7066 0.7050
3298.956660 0.7048 0.7040 0.7038 0.7026 0.7010
3305.623325 0.7008 0.7000 0.6998 0.6988 0.6980
3312.289990 0.6974 0.6950 0.6950 0.6948 0.6940
3318.956655 0.6940 0.6936 0.6920 0.6920 0.6916
3325.623320 0.6896 0.6878 0.6868 0.6854 0.6822
3332.289985 0.6784 0.6758 0.6750 0.6748 0.6740
3338.956650 0.6736 0.6718 0.6708 0.6700 0.6696
3345.623315 0.6678 0.6663 0.6640 0.6640 0.6638
3352.289980 0.6630 0.6630 0.6628 0.6620 0.6620
3358.956645 0.6614 0.6590 0.6588 0.6576 0.6558
3365.623310 0.6548 0.6536 0.6518 0.6508 0.6498
3372.289975 0.6486 0.6468 0.6458 0.6446 0.6430
3378.956640 0.6430 0.6430 0.6430 0.6428 0.6418
3385.623305 0.6410 0.6406 0.6390 0.6388 0.6378
3392.289970 0.6370 0.6364 0.6340 0.6338 0.6330
3398.956635 0.6326 0.6310 0.6308 0.6298 0.6290
3405.623300 0.6290 0.6286 0.6268 0.6260 0.6260
3412.289965 0.6260 0.6260 0.6260 0.6260 0.6260
3418.956630 0.6260 0.6258 0.6250 0.6250 0.6250
3425.623295 0.6250 0.6250 0.6250 0.6250 0.6250
3432.289960 0.6246 0.6230 0.6230 0.6234 0.6250
3438.956625 0.6250 0.6250 0.6250 0.6250 0.6250
3445.623290 0.6252 0.6260 0.6260 0.6260 0.6260
3452.289955 0.6260 0.6260 0.6260 0.6260 0.6260
3458.956620 0.6260 0.6260 0.6260 0.6260 0.6260
3465.623285 0.6260 0.6262 0.6270 0.6270 0.6270
3472.289950 0.6270 0.6274 0.6290 0.6290 0.6286
3478.956615 0.6274 0.6292 0.6300 0.6300 0.6300
3485.623280 0.6300 0.6300 0.6302 0.6314 0.6330
3492.289945 0.6332 0.6340 0.6342 0.6354 0.6370
3498.956610 0.6372 0.6380 0.6382 0.6390 0.6394
3505.623275 0.6410 0.6412 0.6420 0.6422 0.6434
3512.289940 0.6450 0.6452 0.6460 0.6462 0.6474
3518.956605 0.6490 0.6492 0.6500 0.6502 0.6512
3525.623270 0.6520 0.6524 0.6542 0.6550 0.6550
3532.289935 0.6552 0.6560 0.6560 0.6564 0.6580
3538.956600 0.6580 0.6582 0.6590 0.6590 0.6590
3545.623265 0.6592 0.6604 0.6620 0.6622 0.6632
3552.289930 0.6640 0.6644 0.6662 0.6670 0.6672
3558.956595 0.6684 0.6700 0.6702 0.6712 0.6720
3565.623260 0.6724 0.6740 0.6744 0.6764 0.6780
3572.289925 0.6782 0.6792 0.6800 0.6804 0.6822
3578.956590 0.6830 0.6830 0.6832 0.6840 0.6844
3585.623255 0.6860 0.6862 0.6870 0.6870 0.6872
3592.289920 0.6880 0.6884 0.6902 0.6910 0.6912
3598.956585 0.6924 0.6942 0.6950 0.6950 0.6952
3605.623250 0.6960 0.6960 0.6960 0.6964 0.6982
3612.289915 0.6992 0.7002 0.7014 0.7032 0.7042
3618.956580 0.7054 0.7072 0.7080 0.7080 0.7082
3625.623245 0.7090 0.7090 0.7094 0.7110 0.7110
3632.289910 0.7110 0.7110 0.7110 0.7110 0.7110
3638.956575 0.7110 0.7110 0.7110 0.7112 0.7120
3645.623240 0.7120 0.7120 0.7122 0.7130 0.7130
3652.289905 0.7130 0.7130 0.7130 0.7130 0.7130
3658.956570 0.7130 0.7130 0.7130 0.7130 0.7130
3665.623235 0.7130 0.7130 0.7130 0.7130 0.7130
3672.289900 0.7130 0.7130 0.7130 0.7130 0.7130
3678.956565 0.7130 0.7130 0.7130 0.7130 0.7130
3685.623230 0.7130 0.7134 0.7150 0.7150 0.7150
3692.289895 0.7150 0.7150 0.7150 0.7150 0.7150
3698.956560 0.7150 0.7150 0.7150 0.7150 0.7150
3705.623225 0.7150 0.7150 0.7150 0.7150 0.7150
3712.289890 0.7150 0.7150 0.7150 0.7150 0.7150
3718.956555 0.7150 0.7150 0.7150 0.7150 0.7150
3725.623220 0.7150 0.7150 0.7150 0.7150 0.7150
3732.289885 0.7150 0.7150 0.7150 0.7150 0.7150
3738.956550 0.7150 0.7150 0.7150 0.7150 0.7150
3745.623215 0.7150 0.7150 0.7152 0.7158 0.7150
3752.289880 0.7150 0.7150 0.7146 0.7134 0.7150
3758.956545 0.7150 0.7152 0.7160 0.7160 0.7162
3765.623210 0.7170 0.7170 0.7174 0.7190 0.7190
3772.289875 0.7192 0.7200 0.7200 0.7200 0.7200
3778.956540 0.7200 0.7200 0.7200 0.7200 0.7200
3785.623205 0.7200 0.7200 0.7200 0.7200 0.7200
3792.289870 0.7198 0.7190 0.7190 0.7190 0.7186
3798.956535 0.7170 0.7170 0.7168 0.7160 0.7158
3805.623200 0.7150 0.7150 0.7150 0.7150 0.7146
3812.289865 0.7130 0.7128 0.7118 0.7110 0.7110
3818.956530 0.7110 0.7106 0.7090 0.7090 0.7090
3825.623195 0.7088 0.7080 0.7080 0.7078 0.7070
3832.289860 0.7070 0.7070 0.7066 0.7050 0.7050
3838.956525 0.7048 0.7040 0.7040 0.7040 0.7040
3845.623190 0.7040 0.7040 0.7040 0.7040 0.7040
3852.289855 0.7040 0.7040 0.7038 0.7030 0.7030
3858.956520 0.7030 0.7030 0.7030 0.7030 0.7030
3865.623185 0.7030 0.7030 0.7030 0.7030 0.7030
3872.289850 0.7030 0.7030 0.7030 0.7030 0.7030
3878.956515 0.7030 0.7030 0.7030 0.7030 0.7030
3885.623180 0.7030 0.7030 0.7032 0.7040 0.7040
3892.289845 0.7042 0.7054 0.7072 0.7078 0.7070
3898.956510 0.7070 0.7070 0.7070 0.7070 0.7070
3905.623175 0.7070 0.7066 0.7050 0.7050 0.7050
3912.289840 0.7050 0.7050 0.7050 0.7048 0.7040
3918.956505 0.7040 0.7040 0.7040 0.7040 0.7040
3925.623170 0.7040 0.7040 0.7040 0.7040 0.7040
3932.289835 0.7040 0.7040 0.7040 0.7040 0.7040
3938.956500 0.7040 0.7040 0.7040 0.7038 0.7030
3945.623165 0.7030 0.7030 0.7026 0.7010 0.7010
3952.289830 0.7010 0.7008 0.7000 0.6998 0.6990
3958.956495 0.6990 0.6990 0.6990 0.6990 0.6990
3965.623160 0.6990 0.6990 0.6990 0.6990 0.6990
3972.289825 0.6990 0.6990 0.6990 0.6990 0.6990
3978.956490 0.6990 0.6990 0.6990 0.6990 0.6990
3985.623155 0.6990 0.6990 0.6990 0.6988 0.6980
3992.289820 0.6980 0.6980 0.6980 0.6980 0.6980
3998.956485 0.6976 0.6960 0.6960 0.6960 0.6960
4005.623150 0.6958 0.6950 0.6950 0.6950 0.6950
4012.289815 0.6950 0.6950 0.6950 0.6950 0.6950
4018.956480 0.6950
##END=
