##TITLE=1,1'-BIS[N-METHYL-N-(4-NITROPHENYL)-CARBOXAMIDO] FERROCENE
##JCAMP-DX=4.24
##DATA TYPE=INFRARED SPECTRUM
##CLASS=COBLENTZ
##ORIGIN=WYANDOTTE CHEMICALS CORP., WYANDOTTE, MICHIGAN, USA
##OWNER=COBLENTZ SOCIETY
Collection (C) 2018 copyright by the U.S. Secretary of Commerce
on behalf of the United States of America. All rights reserved.
##DATE=Not specified, most likely prior to 1970
##MOLFORM=C26 H22 Fe N4 O6
##SOURCE REFERENCE=COBLENTZ NO. 3133
##$NIST ID=B6003133
##$NIST SOURCE=COBLENTZ
##$NIST IMAGE=cob3133
##SPECTROMETER/DATA SYSTEM=Not specified, most likely a prism, grating, or hybrid spectrometer.
##STATE=SOLID (MINERAL OIL MULL)
##PATH LENGTH=
$$SPECTRAL CONTAMINATION DUE TO OIL AROUND 2900 CM^-^1
##SAMPLING PROCEDURE=TRANSMISSION
##RESOLUTION=4
##DATA PROCESSING=DIGITIZED BY NIST FROM HARD COPY
##XUNITS=MICROMETERS
##YUNITS=TRANSMITTANCE
##XFACTOR=1.000000
##YFACTOR=1
##DELTAX=000.006816
##FIRSTX=2.02
##LASTX=15.993
##FIRSTY=0.385
##MAXX=15.993
##MINX=2.02
##MAXY=0.982
##MINY=0.013
##NPOINTS=2051
##XYDATA=(X++(Y..Y))
2.020000 0.3850 0.3860 0.3860 0.3880 0.3880
2.054096 0.3880 0.3900 0.3900 0.3900 0.3900
2.089000 0.3900 0.3880 0.3880 0.3880 0.3880
2.123096 0.3900 0.3900 0.3900 0.3900 0.3900
2.157000 0.3920 0.3930 0.3930 0.3950 0.3950
2.191096 0.3970 0.3980 0.3980 0.4000 0.4020
2.225000 0.4040 0.4040 0.4040 0.4040 0.4040
2.259096 0.4020 0.4020 0.4020 0.4020 0.4050
2.293000 0.4050 0.4070 0.4100 0.4100 0.4100
2.327096 0.4100 0.4070 0.4070 0.4090 0.4120
2.361000 0.4120 0.4140 0.4140 0.4160 0.4190
2.395096 0.4190 0.4190 0.4210 0.4210 0.4220
2.429000 0.4240 0.4260 0.4260 0.4280 0.4240
2.463096 0.4210 0.4170 0.4160 0.4170 0.4170
2.498000 0.4190 0.4210 0.4220 0.4260 0.4290
2.532096 0.4330 0.4380 0.4410 0.4430 0.4450
2.566000 0.4480 0.4520 0.4520 0.4520 0.4530
2.600096 0.4530 0.4530 0.4530 0.4530 0.4550
2.634000 0.4550 0.4570 0.4580 0.4580 0.4580
2.668096 0.4580 0.4600 0.4600 0.4600 0.4600
2.702000 0.4600 0.4600 0.4600 0.4600 0.4620
2.736096 0.4620 0.4620 0.4640 0.4640 0.4650
2.770000 0.4670 0.4670 0.4650 0.4640 0.4640
2.804096 0.4640 0.4640 0.4650 0.4650 0.4650
2.838000 0.4650 0.4670 0.4690 0.4690 0.4690
2.872096 0.4690 0.4670 0.4690 0.4690 0.4690
2.907000 0.4690 0.4670 0.4670 0.4670 0.4650
2.941096 0.4650 0.4640 0.4640 0.4640 0.4640
2.975000 0.4640 0.4640 0.4640 0.4650 0.4650
3.009096 0.4650 0.4670 0.4670 0.4690 0.4700
3.043000 0.4740 0.4740 0.4720 0.4720 0.4720
3.077096 0.4670 0.4600 0.4550 0.4430 0.4410
3.111000 0.4410 0.4480 0.4460 0.4430 0.4430
3.145096 0.4410 0.4410 0.4410 0.4400 0.4380
3.179000 0.4360 0.4340 0.4330 0.4120 0.3980
3.213096 0.3920 0.3760 0.3570 0.3350 0.2970
3.247000 0.2920 0.2920 0.2970 0.3110 0.3210
3.281096 0.3230 0.3210 0.3090 0.3090 0.3090
3.315000 0.3090 0.3200 0.3180 0.3010 0.2840
3.349096 0.2560 0.2200 0.1590 0.1250 0.1090
3.384000 0.0950 0.0750 0.0290 0.0250 0.0250
3.418096 0.0250 0.0250 0.0270 0.0290 0.0300
3.452000 0.0390 0.0510 0.0610 0.0730 0.0820
3.486096 0.0870 0.0890 0.0890 0.0900 0.0920
3.520000 0.1020 0.1300 0.1810 0.2460 0.3110
3.554096 0.3760 0.4340 0.4860 0.5250 0.5440
3.588000 0.5610 0.5780 0.5920 0.6020 0.6040
3.622096 0.6090 0.6110 0.6130 0.6180 0.6190
3.656000 0.6190 0.6190 0.6180 0.6160 0.6160
3.690096 0.6160 0.6140 0.6160 0.6140 0.6140
3.724000 0.6140 0.6130 0.6110 0.6110 0.6090
3.758096 0.6090 0.6090 0.6070 0.6060 0.5990
3.793000 0.5940 0.5900 0.5940 0.6040 0.6090
3.827096 0.6110 0.6090 0.6070 0.6070 0.6070
3.861000 0.6090 0.6110 0.6140 0.6160 0.6190
3.895096 0.6210 0.6250 0.6310 0.6380 0.6420
3.929000 0.6430 0.6450 0.6450 0.6470 0.6500
3.963096 0.6520 0.6540 0.6590 0.6620 0.6640
3.997000 0.6670 0.6710 0.6740 0.6760 0.6780
4.031096 0.6780 0.6780 0.6790 0.6790 0.6810
4.065000 0.6830 0.6840 0.6860 0.6860 0.6840
4.099096 0.6840 0.6830 0.6810 0.6760 0.6600
4.133000 0.6480 0.6360 0.6300 0.6280 0.6300
4.167096 0.6400 0.6470 0.6520 0.6570 0.6640
4.202000 0.6690 0.6740 0.6780 0.6780 0.6790
4.236096 0.6880 0.6910 0.6960 0.6950 0.6930
4.270000 0.6910 0.6900 0.6860 0.6810 0.6760
4.304096 0.6740 0.6740 0.6740 0.6780 0.6810
4.338000 0.6830 0.6840 0.6840 0.6840 0.6880
4.372096 0.6900 0.6930 0.6960 0.7000 0.7050
4.406000 0.7120 0.7150 0.7200 0.7220 0.7260
4.440096 0.7290 0.7380 0.7380 0.7320 0.7310
4.474000 0.7290 0.7310 0.7340 0.7360 0.7360
4.508096 0.7410 0.7480 0.7550 0.7550 0.7580
4.542000 0.7600 0.7600 0.7610 0.7610 0.7580
4.576096 0.7560 0.7560 0.7560 0.7610 0.7600
4.611000 0.7550 0.7510 0.7480 0.7390 0.7380
4.645096 0.7410 0.7480 0.7510 0.7550 0.7610
4.679000 0.7680 0.7700 0.7720 0.7730 0.7770
4.713096 0.7800 0.7840 0.7870 0.7890 0.7910
4.747000 0.7920 0.7970 0.7990 0.8010 0.8030
4.781096 0.8060 0.8090 0.8130 0.8150 0.8160
4.815000 0.8180 0.8200 0.8230 0.8250 0.8280
4.849096 0.8300 0.8320 0.8330 0.8370 0.8400
4.883000 0.8440 0.8450 0.8490 0.8490 0.8490
4.917096 0.8490 0.8490 0.8470 0.8470 0.8470
4.951000 0.8470 0.8470 0.8490 0.8490 0.8510
4.985096 0.8520 0.8560 0.8570 0.8590 0.8610
5.019000 0.8630 0.8660 0.8730 0.8730 0.8680
5.053096 0.8680 0.8680 0.8690 0.8690 0.8730
5.088000 0.8730 0.8690 0.8690 0.8710 0.8760
5.122096 0.8810 0.8850 0.8880 0.8900 0.8920
5.156000 0.8930 0.9000 0.9000 0.8980 0.8980
5.190096 0.8950 0.8930 0.8900 0.8850 0.8760
5.224000 0.8710 0.8630 0.8560 0.8510 0.8420
5.258096 0.8400 0.8420 0.8510 0.8520 0.8630
5.292000 0.8760 0.8920 0.9020 0.9090 0.9190
5.326096 0.9260 0.9260 0.9190 0.9190 0.9190
5.360000 0.9210 0.9260 0.9290 0.9330 0.9340
5.394096 0.9360 0.9400 0.9410 0.9430 0.9430
5.428000 0.9450 0.9450 0.9460 0.9460 0.9500
5.462096 0.9520 0.9530 0.9530 0.9550 0.9580
5.497000 0.9600 0.9580 0.9570 0.9550 0.9520
5.531096 0.9460 0.9410 0.9380 0.9360 0.9330
5.565000 0.9330 0.9410 0.9550 0.9580 0.9600
5.599096 0.9520 0.9070 0.8850 0.8490 0.8420
5.633000 0.8420 0.8510 0.8860 0.9120 0.9360
5.667096 0.9580 0.9720 0.9810 0.9820 0.9810
5.701000 0.9790 0.9740 0.9670 0.9650 0.9650
5.735096 0.9760 0.9760 0.9740 0.9720 0.9720
5.769000 0.9690 0.9720 0.9700 0.9650 0.9570
5.803096 0.9480 0.9480 0.9430 0.9450 0.9410
5.837000 0.9360 0.9290 0.9290 0.9340 0.9460
5.871096 0.9550 0.9570 0.9530 0.9460 0.9360
5.906000 0.9240 0.9160 0.9070 0.8950 0.8810
5.940096 0.8640 0.8490 0.8350 0.8230 0.8110
5.974000 0.7990 0.7870 0.7720 0.7560 0.7360
6.008096 0.7170 0.6780 0.6230 0.5590 0.4910
6.042000 0.4220 0.3590 0.3060 0.2700 0.2460
6.076096 0.2150 0.1830 0.1470 0.1090 0.0770
6.110000 0.0560 0.0420 0.0390 0.0410 0.0420
6.144096 0.0530 0.0710 0.1020 0.1400 0.1860
6.178000 0.2290 0.3010 0.3250 0.3250 0.3210
6.212096 0.2310 0.1860 0.1420 0.1110 0.0950
6.246000 0.0890 0.0890 0.0820 0.0680 0.0510
6.280096 0.0300 0.0270 0.0270 0.0300 0.0410
6.315000 0.0510 0.0650 0.0770 0.0900 0.1070
6.349096 0.1280 0.1520 0.1740 0.1980 0.2190
6.383000 0.2380 0.2510 0.2630 0.2730 0.2850
6.417096 0.2960 0.3080 0.3180 0.3280 0.3300
6.451000 0.3300 0.3300 0.3250 0.3090 0.3030
6.485096 0.2970 0.2870 0.2700 0.2510 0.2260
6.519000 0.1960 0.1670 0.1400 0.1160 0.0920
6.553096 0.0770 0.0700 0.0650 0.0630 0.0610
6.587000 0.0610 0.0610 0.0630 0.0660 0.0680
6.621096 0.0680 0.0730 0.0820 0.0990 0.1230
6.655000 0.1430 0.1620 0.1640 0.1620 0.1420
6.689096 0.1190 0.0920 0.0850 0.0850 0.0890
6.723000 0.0970 0.1090 0.1210 0.1310 0.1330
6.757096 0.1300 0.1260 0.1160 0.1090 0.1040
6.792000 0.0990 0.0890 0.0770 0.0660 0.0540
6.826096 0.0470 0.0420 0.0390 0.0370 0.0340
6.860000 0.0340 0.0320 0.0300 0.0290 0.0270
6.894096 0.0230 0.0230 0.0250 0.0300 0.0300
6.928000 0.0350 0.0470 0.0610 0.0820 0.1090
6.962096 0.1430 0.1790 0.2170 0.2550 0.2910
6.996000 0.3200 0.3610 0.4190 0.4400 0.4580
7.030096 0.4600 0.4580 0.4260 0.3950 0.3690
7.064000 0.3320 0.2990 0.2430 0.2050 0.1910
7.098096 0.1790 0.1740 0.1710 0.1690 0.1640
7.132000 0.1570 0.1550 0.1540 0.1520 0.1470
7.166096 0.1420 0.1360 0.1260 0.1180 0.1160
7.201000 0.1180 0.1230 0.1250 0.1250 0.1230
7.235096 0.1070 0.0920 0.0770 0.0580 0.0390
7.269000 0.0350 0.0390 0.0410 0.0420 0.0470
7.303096 0.0630 0.0870 0.1110 0.1330 0.1470
7.337000 0.1540 0.1590 0.1600 0.1590 0.1470
7.371096 0.1190 0.0950 0.0770 0.0700 0.0580
7.405000 0.0440 0.0340 0.0290 0.0250 0.0230
7.439096 0.0200 0.0180 0.0180 0.0170 0.0170
7.473000 0.0150 0.0150 0.0130 0.0130 0.0150
7.507096 0.0150 0.0170 0.0180 0.0180 0.0200
7.541000 0.0200 0.0200 0.0180 0.0200 0.0200
7.575096 0.0200 0.0220 0.0230 0.0250 0.0270
7.610000 0.0290 0.0320 0.0340 0.0340 0.0300
7.644096 0.0270 0.0250 0.0230 0.0220 0.0200
7.678000 0.0200 0.0180 0.0180 0.0200 0.0220
7.712096 0.0230 0.0290 0.0350 0.0470 0.0560
7.746000 0.0610 0.0660 0.0660 0.0610 0.0530
7.780096 0.0470 0.0410 0.0390 0.0320 0.0300
7.814000 0.0320 0.0390 0.0410 0.0420 0.0460
7.848096 0.0490 0.0530 0.0590 0.0650 0.0660
7.882000 0.0730 0.0820 0.0950 0.1110 0.1280
7.916096 0.1480 0.1670 0.1880 0.2070 0.2240
7.950000 0.2390 0.2550 0.2700 0.2850 0.2970
7.984096 0.3090 0.3210 0.3300 0.3390 0.3440
8.019000 0.3520 0.3560 0.3590 0.3610 0.3660
8.053096 0.3710 0.3730 0.3760 0.3800 0.3900
8.087000 0.4000 0.4090 0.4170 0.4280 0.4360
8.121096 0.4450 0.4530 0.4640 0.4740 0.4860
8.155000 0.4980 0.5030 0.5060 0.5110 0.5150
8.189096 0.5200 0.5220 0.5290 0.5370 0.5420
8.223000 0.5490 0.5510 0.5540 0.5540 0.5440
8.257096 0.4890 0.4210 0.3630 0.3270 0.3060
8.291000 0.2960 0.2870 0.2850 0.2800 0.2700
8.325096 0.2510 0.2410 0.2340 0.2320 0.2320
8.359000 0.2360 0.2560 0.2750 0.3030 0.3230
8.393096 0.3440 0.3660 0.3950 0.4330 0.4500
8.427000 0.4650 0.4790 0.4890 0.5000 0.5060
8.461096 0.5150 0.5200 0.5250 0.5300 0.5300
8.496000 0.5320 0.5340 0.5340 0.5320 0.5270
8.530096 0.5200 0.5050 0.4880 0.4640 0.4430
8.564000 0.4220 0.4170 0.4190 0.4220 0.4410
8.598096 0.4720 0.4980 0.5270 0.5560 0.5610
8.632000 0.5750 0.5830 0.5920 0.5970 0.6020
8.666096 0.6060 0.6110 0.6130 0.6140 0.6210
8.700000 0.6230 0.6230 0.6250 0.6260 0.6300
8.734096 0.6330 0.6350 0.6360 0.6420 0.6450
8.768000 0.6500 0.6520 0.6520 0.6520 0.6540
8.802096 0.6520 0.6470 0.6430 0.6360 0.6310
8.836000 0.6210 0.6110 0.5970 0.5870 0.5770
8.870096 0.5700 0.5630 0.5580 0.5540 0.5530
8.905000 0.5510 0.5490 0.5440 0.5420 0.5350
8.939096 0.5290 0.5170 0.5000 0.4810 0.4580
8.973000 0.4310 0.4020 0.3690 0.3330 0.2850
9.007096 0.2500 0.2220 0.1960 0.1690 0.1330
9.041000 0.1110 0.0950 0.0750 0.0580 0.0510
9.075096 0.0410 0.0370 0.0320 0.0300 0.0300
9.109000 0.0300 0.0300 0.0300 0.0320 0.0350
9.143096 0.0440 0.0540 0.0660 0.0780 0.0920
9.177000 0.1060 0.1160 0.1300 0.1470 0.1620
9.211096 0.1790 0.1930 0.2050 0.2150 0.2270
9.245000 0.2380 0.2500 0.2610 0.2720 0.2840
9.279096 0.2960 0.3030 0.3090 0.3200 0.3280
9.314000 0.3390 0.3470 0.3510 0.3540 0.3630
9.348096 0.3690 0.3800 0.3860 0.4000 0.4120
9.382000 0.4260 0.4310 0.4380 0.4460 0.4570
9.416096 0.4670 0.4790 0.4880 0.4960 0.5030
9.450000 0.5030 0.5050 0.5060 0.5050 0.5050
9.484096 0.5030 0.5010 0.5010 0.5050 0.5030
9.518000 0.4980 0.4820 0.4770 0.4760 0.4810
9.552096 0.5000 0.5220 0.5420 0.5650 0.5820
9.586000 0.5990 0.6090 0.6230 0.6360 0.6470
9.620096 0.6570 0.6670 0.6780 0.6880 0.6960
9.654000 0.7070 0.7120 0.7150 0.7120 0.7100
9.688096 0.6930 0.6640 0.6140 0.5470 0.4620
9.722000 0.3880 0.3230 0.2670 0.2170 0.2140
9.756096 0.2170 0.2440 0.2730 0.3160 0.3490
9.791000 0.3750 0.4050 0.4520 0.5220 0.5580
9.825096 0.5800 0.6010 0.6250 0.6360 0.6470
9.859000 0.6590 0.6690 0.6810 0.6910 0.7030
9.893096 0.7050 0.7030 0.6950 0.6720 0.6350
9.927000 0.5820 0.5150 0.4570 0.3920 0.3470
9.961096 0.3180 0.3160 0.3200 0.3440 0.3690
9.995000 0.3730 0.3730 0.3630 0.3420 0.3330
10.029096 0.3160 0.3130 0.3150 0.3210 0.3370
10.063000 0.3560 0.3800 0.4090 0.4380 0.4700
10.097096 0.5030 0.5320 0.5530 0.5750 0.5940
10.131000 0.6070 0.6210 0.6310 0.6400 0.6480
10.165096 0.6570 0.6660 0.6740 0.6810 0.6860
10.200000 0.6900 0.6910 0.6950 0.7000 0.7050
10.234096 0.7070 0.7070 0.7080 0.7100 0.7100
10.268000 0.7100 0.7120 0.7120 0.7140 0.7120
10.302096 0.7140 0.7140 0.7150 0.7170 0.7200
10.336000 0.7240 0.7260 0.7270 0.7310 0.7320
10.370096 0.7360 0.7390 0.7430 0.7440 0.7460
10.404000 0.7480 0.7480 0.7480 0.7480 0.7480
10.438096 0.7460 0.7430 0.7360 0.7240 0.7070
10.472000 0.6860 0.6600 0.6330 0.5990 0.5730
10.506096 0.5470 0.5370 0.5370 0.5410 0.5650
10.540000 0.5890 0.6180 0.6470 0.6720 0.7020
10.574096 0.7260 0.7440 0.7580 0.7720 0.7800
10.609000 0.7910 0.7990 0.8060 0.8080 0.8150
10.643096 0.8150 0.8210 0.8250 0.8320 0.8350
10.677000 0.8370 0.8400 0.8400 0.8390 0.8370
10.711096 0.8350 0.8330 0.8320 0.8300 0.8300
10.745000 0.8320 0.8330 0.8350 0.8370 0.8370
10.779096 0.8370 0.8370 0.8370 0.8370 0.8370
10.813000 0.8370 0.8370 0.8370 0.8370 0.8370
10.847096 0.8370 0.8370 0.8370 0.8370 0.8390
10.881000 0.8370 0.8350 0.8300 0.8250 0.8200
10.915096 0.8150 0.8060 0.7920 0.7750 0.7530
10.949000 0.7220 0.6900 0.6430 0.5950 0.5350
10.983096 0.4820 0.4280 0.3860 0.3450 0.2890
11.018000 0.2820 0.2840 0.2990 0.3130 0.3450
11.052096 0.3950 0.4400 0.4820 0.5220 0.5580
11.086000 0.5920 0.6230 0.6500 0.6740 0.6950
11.120096 0.7120 0.7310 0.7390 0.7390 0.7380
11.154000 0.7240 0.7150 0.7020 0.7000 0.7000
11.188096 0.7020 0.7190 0.7290 0.7360 0.7440
11.222000 0.7510 0.7580 0.7630 0.7700 0.7770
11.256096 0.7840 0.7920 0.7990 0.8030 0.8030
11.290000 0.8040 0.8060 0.8090 0.8150 0.8160
11.324096 0.8180 0.8200 0.8200 0.8210 0.8210
11.358000 0.8210 0.8210 0.8200 0.8200 0.8180
11.392096 0.8180 0.8150 0.8130 0.8090 0.8080
11.426000 0.8040 0.8030 0.7990 0.7890 0.7790
11.460096 0.7720 0.7610 0.7530 0.7410 0.7260
11.495000 0.7050 0.6790 0.6480 0.6130 0.5750
11.529096 0.5220 0.4740 0.4260 0.3860 0.3570
11.563000 0.3390 0.3350 0.3350 0.3510 0.3520
11.597096 0.3510 0.3330 0.3060 0.2800 0.2580
11.631000 0.2390 0.2220 0.2050 0.1900 0.1740
11.665096 0.1570 0.1430 0.1250 0.1060 0.0950
11.699000 0.0780 0.0650 0.0560 0.0490 0.0420
11.733096 0.0410 0.0410 0.0420 0.0440 0.0490
11.767000 0.0560 0.0660 0.0730 0.0800 0.0820
11.801096 0.0820 0.0850 0.0940 0.1090 0.1310
11.835000 0.1620 0.1960 0.2380 0.2850 0.3370
11.869096 0.3920 0.4460 0.4980 0.5420 0.5830
11.904000 0.6160 0.6430 0.6670 0.6860 0.7020
11.938096 0.7170 0.7310 0.7440 0.7510 0.7550
11.972000 0.7560 0.7550 0.7530 0.7500 0.7360
12.006096 0.7190 0.6900 0.6600 0.6350 0.6070
12.040000 0.5800 0.5510 0.5200 0.4840 0.4430
12.074096 0.4090 0.3800 0.3760 0.3780 0.4070
12.108000 0.4330 0.4620 0.4940 0.5150 0.5200
12.142096 0.5170 0.4910 0.4570 0.4100 0.3590
12.176000 0.3080 0.2550 0.2220 0.2000 0.1740
12.210096 0.1280 0.1040 0.0940 0.0890 0.0830
12.244000 0.0820 0.0830 0.0870 0.0890 0.0940
12.278096 0.1010 0.1010 0.0950 0.0920 0.0900
12.313000 0.0900 0.0920 0.0990 0.1130 0.1400
12.347096 0.1690 0.1930 0.2200 0.2480 0.2790
12.381000 0.3090 0.3370 0.3640 0.3860 0.4040
12.415096 0.4290 0.4500 0.4690 0.4840 0.4980
12.449000 0.5110 0.5220 0.5320 0.5410 0.5490
12.483096 0.5590 0.5680 0.5770 0.5870 0.5970
12.517000 0.6010 0.6060 0.6130 0.6190 0.6210
12.551096 0.6250 0.6280 0.6300 0.6330 0.6400
12.585000 0.6470 0.6500 0.6540 0.6590 0.6600
12.619096 0.6600 0.6590 0.6570 0.6570 0.6550
12.653000 0.6550 0.6540 0.6520 0.6480 0.6450
12.687096 0.6450 0.6470 0.6480 0.6500 0.6540
12.722000 0.6570 0.6600 0.6670 0.6720 0.6790
12.756096 0.6860 0.6950 0.7020 0.7080 0.7140
12.790000 0.7190 0.7240 0.7270 0.7290 0.7340
12.824096 0.7390 0.7410 0.7460 0.7510 0.7550
12.858000 0.7580 0.7560 0.7550 0.7550 0.7510
12.892096 0.7510 0.7530 0.7530 0.7560 0.7580
12.926000 0.7580 0.7600 0.7600 0.7580 0.7560
12.960096 0.7550 0.7550 0.7550 0.7600 0.7580
12.994000 0.7560 0.7550 0.7530 0.7500 0.7460
13.028096 0.7430 0.7390 0.7360 0.7340 0.7290
13.062000 0.7270 0.7260 0.7220 0.7170 0.7070
13.096096 0.7000 0.6900 0.6810 0.6740 0.6640
13.130000 0.6540 0.6380 0.6190 0.5990 0.5770
13.164096 0.5510 0.5250 0.4980 0.4690 0.4410
13.199000 0.4140 0.3860 0.3630 0.3390 0.3180
13.233096 0.2990 0.2840 0.2720 0.2560 0.2380
13.267000 0.2140 0.1930 0.1720 0.1540 0.1380
13.301096 0.1260 0.1210 0.1190 0.1210 0.1310
13.335000 0.1450 0.1660 0.2030 0.2440 0.2850
13.369096 0.3300 0.3750 0.4190 0.4640 0.5060
13.403000 0.5490 0.5920 0.6300 0.6660 0.7000
13.437096 0.7290 0.7530 0.7670 0.7910 0.8040
13.471000 0.8160 0.8330 0.8470 0.8590 0.8710
13.505096 0.8780 0.8860 0.8920 0.8980 0.9050
13.539000 0.9100 0.9140 0.9160 0.9160 0.9140
13.573096 0.9120 0.9100 0.9090 0.9070 0.9050
13.608000 0.9040 0.9020 0.9040 0.9050 0.9090
13.642096 0.9120 0.9170 0.9210 0.9220 0.9260
13.676000 0.9260 0.9280 0.9290 0.9280 0.9310
13.710096 0.9340 0.9400 0.9400 0.9400 0.9360
13.744000 0.9340 0.9330 0.9330 0.9330 0.9340
13.778096 0.9380 0.9400 0.9400 0.9400 0.9400
13.812000 0.9400 0.9380 0.9330 0.9310 0.9310
13.846096 0.9290 0.9280 0.9290 0.9290 0.9290
13.880000 0.9260 0.9220 0.9190 0.9160 0.9160
13.914096 0.9140 0.9120 0.9070 0.9040 0.9020
13.948000 0.9000 0.8980 0.8920 0.8860 0.8810
13.982096 0.8760 0.8690 0.8610 0.8510 0.8350
14.017000 0.8180 0.7940 0.7720 0.7460 0.7150
14.051096 0.6880 0.6640 0.6430 0.6280 0.6160
14.085000 0.6090 0.6070 0.6110 0.6210 0.6360
14.119096 0.6520 0.6760 0.6960 0.7120 0.7260
14.153000 0.7360 0.7480 0.7580 0.7700 0.7730
14.187096 0.7730 0.7700 0.7580 0.7510 0.7410
14.221000 0.7290 0.7170 0.7030 0.6900 0.6740
14.255096 0.6570 0.6360 0.6160 0.5920 0.5660
14.289000 0.5370 0.5080 0.4880 0.4580 0.4290
14.323096 0.3980 0.3660 0.3350 0.3040 0.2750
14.357000 0.2460 0.2190 0.2020 0.1830 0.1670
14.391096 0.1570 0.1520 0.1430 0.1360 0.1300
14.426000 0.1280 0.1280 0.1280 0.1310 0.1380
14.460096 0.1480 0.1640 0.1810 0.2030 0.2270
14.494000 0.2530 0.2820 0.3090 0.3370 0.3660
14.528096 0.3950 0.4220 0.4620 0.4960 0.5220
14.562000 0.5580 0.5890 0.6090 0.6280 0.6470
14.596096 0.6660 0.6830 0.6980 0.7140 0.7290
14.630000 0.7430 0.7530 0.7600 0.7650 0.7720
14.664096 0.7820 0.7920 0.8040 0.8160 0.8280
14.698000 0.8400 0.8470 0.8540 0.8610 0.8640
14.732096 0.8690 0.8730 0.8760 0.8810 0.8850
14.766000 0.8880 0.8920 0.8950 0.8970 0.8980
14.800096 0.9020 0.9040 0.9070 0.9090 0.9140
14.834000 0.9140 0.9120 0.9120 0.9100 0.9090
14.868096 0.9120 0.9120 0.9120 0.9120 0.9120
14.903000 0.9120 0.9100 0.9090 0.9100 0.9100
14.937096 0.9100 0.9090 0.9070 0.9070 0.9070
14.971000 0.9100 0.9100 0.9090 0.9090 0.9090
15.005096 0.9090 0.9090 0.9070 0.9070 0.9070
15.039000 0.9020 0.8970 0.8880 0.8800 0.8710
15.073096 0.8610 0.8490 0.8370 0.8250 0.8090
15.107000 0.7960 0.7800 0.7680 0.7560 0.7480
15.141096 0.7410 0.7380 0.7320 0.7310 0.7310
15.175000 0.7320 0.7380 0.7410 0.7430 0.7500
15.209096 0.7560 0.7630 0.7680 0.7720 0.7770
15.243000 0.7800 0.7840 0.7870 0.7890 0.7890
15.277096 0.7910 0.7920 0.7960 0.7990 0.8030
15.312000 0.8060 0.8080 0.8060 0.8040 0.8030
15.346096 0.8030 0.8010 0.8010 0.7970 0.7910
15.380000 0.7870 0.7850 0.7840 0.7800 0.7770
15.414096 0.7680 0.7650 0.7560 0.7510 0.7480
15.448000 0.7480 0.7500 0.7500 0.7480 0.7460
15.482096 0.7460 0.7430 0.7390 0.7340 0.7290
15.516000 0.7240 0.7200 0.7170 0.7140 0.7120
15.550096 0.7120 0.7070 0.7050 0.7020 0.7000
15.584000 0.7000 0.6980 0.6960 0.6910 0.6880
15.618096 0.6840 0.6830 0.6810 0.6790 0.6780
15.652000 0.6760 0.6740 0.6690 0.6640 0.6620
15.686096 0.6600 0.6590 0.6550 0.6540 0.6520
15.721000 0.6500 0.6480 0.6480 0.6470 0.6450
15.755096 0.6420 0.6380 0.6360 0.6350 0.6330
15.789000 0.6300 0.6260 0.6210 0.6140 0.6110
15.823096 0.6070 0.6040 0.6010 0.5950 0.5850
15.857000 0.5850 0.5830 0.5830 0.5800 0.5750
15.891096 0.5710 0.5680 0.5650 0.5580 0.5530
15.925000 0.5460 0.5370 0.5300 0.5230 0.5180
15.959096 0.5110 0.5060 0.4980 0.4910 0.4820
15.993000 0.4720
##END=
