##TITLE=IMIDAZOLE-4-CARBOXAMIDE, 5-AMINO-N-CYCLOHEXYL-, PICRATE, COMPOUND WITH ETHANOL
##JCAMP-DX=4.24
##DATA TYPE=INFRARED SPECTRUM
##CLASS=COBLENTZ III
##ORIGIN=SOUTHERN RESEARCH INSTITUTE
##OWNER=COBLENTZ SOCIETY
Collection (C) 2018 copyright by the U.S. Secretary of Commerce
on behalf of the United States of America. All rights reserved.
##DATE=1962/05/31
##MOLFORM=C18 H25 N7 O9
##SOURCE REFERENCE=COBLENTZ NO. 7354
##$NIST ID=B6007354
##$NIST SOURCE=COBLENTZ
##$NIST IMAGE=cob7354
##SPECTROMETER/DATA SYSTEM=PERKIN-ELMER 221 (GRATING)
##INSTRUMENT PARAMETERS=FILTER AT 980 CM^-^1. GRATING 4000-1428 CM^-^1, NaCl PRISM 1428-650 CM^-^1
##STATE=SOLID (1 mg / 650 mg KBr DISC)
$$ PURITY - ANALYTICAL
##SAMPLING PROCEDURE=TRANSMISSION
##RESOLUTION=2
##DATA PROCESSING=DIGITIZED BY NIST FROM HARD COPY (FROM TWO SEGMENTS)
##XUNITS=1/CM
##YUNITS=TRANSMITTANCE
##XFACTOR=1.000000
##YFACTOR=1
##DELTAX=1.250000
##FIRSTX=633.901
##LASTX=4033.9
##FIRSTY=0.858
##MAXX=4033.9
##MINX=633.901
##MAXY=0.996
##MINY=0.210589
##NPOINTS=2721
##XYDATA=(X++(Y..Y))
633.901000 0.8580 0.8580 0.8580 0.8580 0.8580
640.151000 0.8580 0.8580 0.8580 0.8580 0.8580
646.401000 0.8580 0.8580 0.8580 0.8589 0.8590
652.651000 0.8590 0.8590 0.8590 0.8590 0.8590
658.901000 0.8599 0.8591 0.8590 0.8581 0.8562
665.151000 0.8560 0.8551 0.8541 0.8531 0.8513
671.401000 0.8493 0.8473 0.8436 0.8396 0.8348
677.651000 0.8281 0.8228 0.8145 0.8081 0.8029
683.901000 0.8004 0.7992 0.7982 0.7972 0.7962
690.151000 0.7936 0.7898 0.7890 0.7874 0.7746
696.401000 0.7571 0.7330 0.7224 0.7126 0.7017
702.651000 0.6818 0.6492 0.6178 0.6093 0.6105
708.901000 0.6219 0.6384 0.6545 0.6683 0.7025
715.151000 0.7263 0.7450 0.7656 0.8099 0.8530
721.401000 0.8890 0.9000 0.9000 0.9000 0.9000
727.651000 0.8993 0.8964 0.8937 0.8911 0.8855
733.901000 0.8779 0.8444 0.8125 0.7902 0.7559
740.151000 0.7400 0.7461 0.7942 0.8380 0.8545
746.401000 0.8679 0.8900 0.9016 0.9014 0.9004
752.651000 0.8989 0.8935 0.8866 0.8818 0.8602
758.901000 0.8429 0.8425 0.8490 0.8594 0.8677
765.151000 0.8789 0.8876 0.8895 0.8900 0.8890
771.401000 0.8860 0.8815 0.8720 0.8625 0.8556
777.651000 0.8476 0.8397 0.8185 0.7832 0.7493
783.901000 0.7168 0.6701 0.6360 0.6826 0.7684
790.151000 0.8167 0.8339 0.8346 0.8332 0.8320
796.401000 0.8283 0.8209 0.8139 0.8060 0.8026
802.651000 0.8012 0.8000 0.8008 0.8046 0.8105
808.901000 0.8148 0.8206 0.8279 0.8362 0.8452
815.151000 0.8545 0.8644 0.8744 0.8823 0.8850
821.401000 0.8850 0.8850 0.8831 0.8755 0.8668
827.651000 0.8607 0.8497 0.8385 0.8294 0.8291
833.901000 0.8365 0.8500 0.8602 0.8778 0.8893
840.151000 0.8933 0.8940 0.8940 0.8940 0.8940
846.401000 0.8940 0.8940 0.8938 0.8930 0.8926
852.651000 0.8910 0.8908 0.8900 0.8898 0.8888
858.901000 0.8874 0.8837 0.8767 0.8701 0.8651
865.151000 0.8591 0.8484 0.8398 0.8392 0.8406
871.401000 0.8446 0.8487 0.8531 0.8543 0.8560
877.651000 0.8559 0.8544 0.8492 0.8418 0.8305
883.901000 0.8170 0.8075 0.8025 0.7978 0.7958
890.151000 0.7939 0.7928 0.7909 0.7889 0.7876
896.401000 0.7802 0.7653 0.7533 0.7401 0.7223
902.651000 0.7057 0.6967 0.6886 0.6720 0.6726
908.901000 0.7121 0.7271 0.7371 0.7510 0.7520
915.151000 0.7510 0.7471 0.7431 0.7401 0.7361
921.401000 0.7370 0.7409 0.7477 0.7585 0.7704
927.651000 0.7767 0.7836 0.7906 0.7957 0.7969
933.901000 0.7970 0.7970 0.7970 0.7979 0.8044
940.151000 0.8122 0.8220 0.8319 0.8410 0.8543
946.401000 0.8665 0.8741 0.8794 0.8826 0.8839
952.651000 0.8849 0.8850 0.8850 0.8858 0.8877
958.901000 0.8880 0.8888 0.8890 0.8890 0.8898
965.151000 0.8900 0.8900 0.8900 0.8900 0.8900
971.401000 0.8900 0.8900 0.8892 0.8882 0.8880
977.651000 0.8865 0.8852 0.8842 0.8832 0.8830
983.901000 0.8815 0.8810 0.8803 0.8800 0.8793
990.151000 0.8790 0.8790 0.8783 0.8766 0.8746
996.401000 0.8719 0.8696 0.8669 0.8653 0.8636
1002.651000 0.8630 0.8630 0.8617 0.8590 0.8560
1008.901000 0.8524 0.8490 0.8447 0.8398 0.8348
1015.151000 0.8292 0.8226 0.8163 0.8097 0.8045
1021.401000 0.8006 0.7941 0.7855 0.7766 0.7670
1027.651000 0.7565 0.7462 0.7350 0.7197 0.7080
1033.901000 0.7005 0.6964 0.7050 0.7220 0.7366
1040.151000 0.7480 0.7573 0.7642 0.7702 0.7756
1046.401000 0.7822 0.7943 0.8046 0.8075 0.8085
1052.651000 0.8090 0.8090 0.8085 0.8075 0.8046
1058.901000 0.7992 0.7927 0.7819 0.7670 0.7516
1065.151000 0.7371 0.7223 0.7059 0.6891 0.6707
1071.401000 0.6398 0.6117 0.6104 0.6203 0.6422
1077.651000 0.6760 0.7158 0.7380 0.7567 0.7709
1083.901000 0.7778 0.7886 0.8082 0.8180 0.8252
1090.151000 0.8305 0.8334 0.8344 0.8350 0.8350
1096.401000 0.8347 0.8326 0.8290 0.8253 0.8207
1102.651000 0.8164 0.8127 0.8114 0.8100 0.8091
1108.901000 0.8061 0.8034 0.8011 0.7981 0.7946
1115.151000 0.7896 0.7841 0.7777 0.7724 0.7665
1121.401000 0.7605 0.7545 0.7483 0.7415 0.7348
1127.651000 0.7268 0.7228 0.7220 0.7218 0.7210
1133.901000 0.7208 0.7196 0.7180 0.7180 0.7174
1140.151000 0.7137 0.7071 0.7019 0.6949 0.6828
1146.401000 0.6699 0.6566 0.6410 0.6211 0.6000
1152.651000 0.5999 0.6020 0.6241 0.6454 0.6617
1158.901000 0.7119 0.7274 0.7392 0.7491 0.7590
1165.151000 0.7681 0.7709 0.7892 0.7910 0.7910
1171.401000 0.7910 0.7910 0.7909 0.7889 0.7876
1177.651000 0.7806 0.7725 0.7627 0.7568 0.7528
1183.901000 0.7479 0.7450 0.7430 0.7430 0.7420
1190.151000 0.7410 0.7400 0.7380 0.7300 0.7201
1196.401000 0.7112 0.7022 0.6971 0.6911 0.6793
1202.651000 0.6664 0.6564 0.6465 0.6384 0.6304
1208.901000 0.6244 0.6193 0.6162 0.6151 0.6150
1215.151000 0.6150 0.6150 0.6132 0.6094 0.6081
1221.401000 0.6044 0.5996 0.5856 0.5663 0.5446
1227.651000 0.5210 0.5084 0.4966 0.4761 0.4585
1233.901000 0.4458 0.4381 0.4192 0.4143 0.4115
1240.151000 0.4110 0.4110 0.4102 0.4100 0.4092
1246.401000 0.4050 0.4000 0.3950 0.3717 0.3438
1252.651000 0.3293 0.3129 0.3020 0.2938 0.2797
1258.901000 0.2768 0.2785 0.2964 0.3103 0.3212
1265.151000 0.3322 0.3446 0.3561 0.3677 0.3804
1271.401000 0.4019 0.4175 0.4303 0.4425 0.4544
1277.651000 0.4664 0.4783 0.4985 0.5128 0.5167
1283.901000 0.5170 0.5110 0.5027 0.4934 0.4854
1290.151000 0.4823 0.4814 0.4804 0.4781 0.4738
1296.401000 0.4689 0.4608 0.4520 0.4323 0.4109
1302.651000 0.3985 0.3896 0.3860 0.3955 0.4067
1308.901000 0.4152 0.4236 0.4368 0.4515 0.4587
1315.151000 0.4583 0.4279 0.4017 0.3946 0.3899
1321.401000 0.3707 0.3460 0.3284 0.3120 0.2966
1327.651000 0.2880 0.2952 0.3106 0.3256 0.3400
1333.901000 0.3539 0.3669 0.3886 0.4123 0.4272
1340.151000 0.4426 0.4581 0.4734 0.4981 0.5256
1346.401000 0.5454 0.5663 0.5890 0.6021 0.6001
1352.651000 0.5921 0.5664 0.5285 0.5029 0.4925
1358.901000 0.4807 0.4921 0.5539 0.6060 0.6149
1365.151000 0.6294 0.6498 0.6844 0.7144 0.7256
1371.401000 0.7349 0.7421 0.7485 0.7562 0.7655
1377.651000 0.7843 0.8117 0.8220 0.8296 0.8336
1383.901000 0.8359 0.8383 0.8393 0.8400 0.8406
1390.151000 0.8420 0.8420 0.8420 0.8420 0.8420
1396.401000 0.8420 0.8420 0.8415 0.8395 0.8367
1402.651000 0.8317 0.8260 0.8164 0.8024 0.7915
1408.901000 0.7772 0.7504 0.7238 0.7085 0.6894
1415.151000 0.6650 0.6620 0.6461 0.6271 0.6143
1421.401000 0.6090 0.5983 0.5883 0.5765 0.5568
1427.651000 0.5407 0.5396 0.5485 0.5852 0.6258
1433.901000 0.6580 0.6820 0.7153 0.7169 0.7154
1440.151000 0.7103 0.7044 0.6995 0.6944 0.6882
1446.401000 0.6805 0.6720 0.6399 0.6391 0.6413
1452.651000 0.6592 0.7008 0.7129 0.7279 0.7425
1458.901000 0.7520 0.7530 0.7530 0.7530 0.7530
1465.151000 0.7517 0.7418 0.7326 0.7129 0.7029
1471.401000 0.6960 0.6870 0.6642 0.6411 0.6341
1477.651000 0.6261 0.6201 0.6181 0.6141 0.6140
1483.901000 0.6159 0.6208 0.6229 0.6230 0.6239
1490.151000 0.6240 0.6231 0.6202 0.6163 0.6022
1496.401000 0.5946 0.5876 0.5825 0.5729 0.5603
1502.651000 0.5554 0.5488 0.5374 0.5281 0.5174
1508.901000 0.5056 0.4945 0.4921 0.5169 0.5321
1515.151000 0.5544 0.5977 0.6176 0.6208 0.6202
1521.401000 0.6159 0.6093 0.6023 0.5953 0.5859
1527.651000 0.5703 0.5382 0.5215 0.5103 0.5033
1533.901000 0.4973 0.4952 0.4996 0.5087 0.5118
1540.151000 0.5120 0.5112 0.5110 0.5050 0.5008
1546.401000 0.4971 0.4829 0.4650 0.4491 0.4421
1552.651000 0.4159 0.3918 0.3719 0.3366 0.3108
1558.901000 0.2919 0.2641 0.2418 0.2340 0.2350
1565.151000 0.2474 0.2617 0.3017 0.3344 0.3563
1571.401000 0.4105 0.4661 0.4843 0.4850 0.4837
1577.651000 0.4811 0.4694 0.4587 0.4529 0.4498
1583.901000 0.4478 0.4494 0.4540 0.4595 0.4655
1590.151000 0.4721 0.4895 0.5046 0.5080 0.5069
1596.401000 0.5032 0.4977 0.4901 0.4811 0.4732
1602.651000 0.4652 0.4557 0.4436 0.4213 0.4023
1608.901000 0.3919 0.3784 0.3670 0.3610 0.3575
1615.151000 0.3550 0.3535 0.3516 0.3490 0.3475
1621.401000 0.3456 0.3431 0.3411 0.3355 0.3227
1627.651000 0.3100 0.3010 0.2864 0.2653 0.2472
1633.901000 0.2317 0.2180 0.2106 0.2108 0.2153
1640.151000 0.2249 0.2392 0.2571 0.2835 0.3141
1646.401000 0.3289 0.3377 0.3401 0.3701 0.4274
1652.651000 0.4460 0.4541 0.4560 0.4563 0.4584
1658.901000 0.4613 0.4620 0.4620 0.4604 0.4535
1665.151000 0.4425 0.4341 0.4268 0.4120 0.4021
1671.401000 0.3924 0.3854 0.3912 0.4171 0.4435
1677.651000 0.4787 0.5287 0.5646 0.6131 0.6397
1683.901000 0.6626 0.6879 0.7158 0.7291 0.7453
1690.151000 0.7539 0.7590 0.7675 0.7753 0.7899
1696.401000 0.8160 0.8301 0.8411 0.8515 0.8582
1702.651000 0.8592 0.8609 0.8655 0.8693 0.8771
1708.901000 0.8835 0.8866 0.8904 0.8934 0.8966
1715.151000 0.9010 0.9077 0.9126 0.9175 0.9215
1721.401000 0.9254 0.9292 0.9313 0.9341 0.9352
1727.651000 0.9373 0.9401 0.9412 0.9442 0.9463
1733.901000 0.9501 0.9522 0.9562 0.9600 0.9610
1740.151000 0.9610 0.9610 0.9610 0.9610 0.9600
1746.401000 0.9610 0.9600 0.9610 0.9620 0.9620
1752.651000 0.9630 0.9650 0.9650 0.9660 0.9660
1758.901000 0.9660 0.9670 0.9670 0.9670 0.9680
1765.151000 0.9699 0.9700 0.9709 0.9710 0.9719
1771.401000 0.9720 0.9729 0.9748 0.9750 0.9759
1777.651000 0.9778 0.9798 0.9800 0.9800 0.9809
1783.901000 0.9810 0.9819 0.9820 0.9811 0.9810
1790.151000 0.9810 0.9810 0.9810 0.9810 0.9810
1796.401000 0.9810 0.9818 0.9820 0.9828 0.9822
1802.651000 0.9828 0.9830 0.9846 0.9850 0.9858
1808.901000 0.9860 0.9860 0.9860 0.9860 0.9860
1815.151000 0.9860 0.9860 0.9860 0.9860 0.9852
1821.401000 0.9850 0.9857 0.9860 0.9860 0.9860
1827.651000 0.9860 0.9860 0.9867 0.9870 0.9870
1833.901000 0.9863 0.9860 0.9839 0.9823 0.9820
1840.151000 0.9820 0.9813 0.9810 0.9810 0.9803
1846.401000 0.9800 0.9800 0.9807 0.9810 0.9816
1852.651000 0.9820 0.9826 0.9849 0.9866 0.9876
1858.901000 0.9892 0.9906 0.9916 0.9926 0.9930
1865.151000 0.9942 0.9950 0.9950 0.9950 0.9950
1871.401000 0.9950 0.9950 0.9950 0.9950 0.9950
1877.651000 0.9950 0.9950 0.9950 0.9950 0.9950
1883.901000 0.9955 0.9960 0.9955 0.9950 0.9940
1890.151000 0.9930 0.9930 0.9930 0.9930 0.9930
1896.401000 0.9925 0.9920 0.9920 0.9920 0.9920
1902.651000 0.9920 0.9920 0.9920 0.9920 0.9920
1908.901000 0.9920 0.9924 0.9930 0.9930 0.9930
1915.151000 0.9930 0.9930 0.9930 0.9930 0.9930
1921.401000 0.9930 0.9930 0.9930 0.9930 0.9930
1927.651000 0.9930 0.9926 0.9920 0.9920 0.9920
1933.901000 0.9920 0.9920 0.9920 0.9920 0.9920
1940.151000 0.9920 0.9920 0.9920 0.9917 0.9910
1946.401000 0.9910 0.9910 0.9907 0.9900 0.9900
1952.651000 0.9891 0.9870 0.9867 0.9860 0.9857
1958.901000 0.9850 0.9845 0.9827 0.9820 0.9818
1965.151000 0.9810 0.9810 0.9808 0.9800 0.9800
1971.401000 0.9800 0.9800 0.9800 0.9800 0.9800
1977.651000 0.9800 0.9800 0.9800 0.9800 0.9800
1983.901000 0.9802 0.9810 0.9810 0.9810 0.9810
1990.151000 0.9810 0.9812 0.9820 0.9820 0.9820
1996.401000 0.9820 0.9820 0.9820 0.9820 0.9819
2002.651000 0.9810 0.9810 0.9810 0.9809 0.9798
2008.901000 0.9780 0.9779 0.9769 0.9759 0.9748
2015.151000 0.9730 0.9729 0.9720 0.9719 0.9709
2021.401000 0.9700 0.9698 0.9680 0.9680 0.9680
2027.651000 0.9680 0.9679 0.9670 0.9670 0.9670
2033.901000 0.9669 0.9660 0.9660 0.9659 0.9650
2040.151000 0.9650 0.9650 0.9650 0.9650 0.9648
2046.401000 0.9630 0.9630 0.9630 0.9629 0.9620
2052.651000 0.9620 0.9620 0.9620 0.9620 0.9620
2058.901000 0.9618 0.9600 0.9598 0.9580 0.9580
2065.151000 0.9580 0.9580 0.9580 0.9580 0.9580
2071.401000 0.9580 0.9580 0.9579 0.9571 0.9580
2077.651000 0.9579 0.9570 0.9570 0.9570 0.9570
2083.901000 0.9570 0.9570 0.9570 0.9570 0.9570
2090.151000 0.9570 0.9570 0.9569 0.9560 0.9560
2096.401000 0.9560 0.9560 0.9560 0.9560 0.9560
2102.651000 0.9561 0.9570 0.9570 0.9570 0.9569
2108.901000 0.9560 0.9560 0.9559 0.9550 0.9548
2115.151000 0.9530 0.9530 0.9529 0.9520 0.9519
2121.401000 0.9510 0.9509 0.9500 0.9500 0.9500
2127.651000 0.9500 0.9500 0.9500 0.9500 0.9500
2133.901000 0.9500 0.9500 0.9500 0.9499 0.9490
2140.151000 0.9488 0.9470 0.9470 0.9470 0.9470
2146.401000 0.9470 0.9470 0.9470 0.9470 0.9470
2152.651000 0.9470 0.9470 0.9469 0.9460 0.9460
2158.901000 0.9460 0.9459 0.9450 0.9450 0.9450
2165.151000 0.9449 0.9436 0.9410 0.9410 0.9410
2171.401000 0.9409 0.9400 0.9400 0.9400 0.9399
2177.651000 0.9390 0.9390 0.9390 0.9388 0.9370
2183.901000 0.9370 0.9369 0.9360 0.9360 0.9360
2190.151000 0.9359 0.9350 0.9350 0.9350 0.9351
2196.401000 0.9360 0.9359 0.9349 0.9340 0.9338
2202.651000 0.9320 0.9319 0.9310 0.9309 0.9299
2208.901000 0.9290 0.9290 0.9290 0.9290 0.9290
2215.151000 0.9290 0.9290 0.9290 0.9290 0.9290
2221.401000 0.9288 0.9270 0.9270 0.9270 0.9270
2227.651000 0.9270 0.9270 0.9270 0.9270 0.9270
2233.901000 0.9270 0.9270 0.9270 0.9269 0.9261
2240.151000 0.9270 0.9270 0.9269 0.9260 0.9260
2246.401000 0.9260 0.9259 0.9250 0.9250 0.9250
2252.651000 0.9251 0.9260 0.9259 0.9250 0.9250
2258.901000 0.9249 0.9240 0.9240 0.9238 0.9220
2265.151000 0.9220 0.9219 0.9210 0.9209 0.9200
2271.401000 0.9200 0.9200 0.9199 0.9190 0.9190
2277.651000 0.9190 0.9190 0.9188 0.9170 0.9170
2283.901000 0.9170 0.9170 0.9169 0.9160 0.9160
2290.151000 0.9160 0.9159 0.9149 0.9140 0.9138
2296.401000 0.9120 0.9119 0.9110 0.9109 0.9100
2302.651000 0.9099 0.9090 0.9090 0.9090 0.9090
2308.901000 0.9090 0.9090 0.9088 0.9070 0.9070
2315.151000 0.9070 0.9070 0.9070 0.9070 0.9069
2321.401000 0.9059 0.9050 0.9050 0.9050 0.9049
2327.651000 0.9040 0.9040 0.9038 0.9020 0.9020
2333.901000 0.9019 0.9010 0.9010 0.9009 0.9000
2340.151000 0.9000 0.9000 0.8999 0.8990 0.8990
2346.401000 0.8990 0.8989 0.8980 0.8980 0.8980
2352.651000 0.8978 0.8960 0.8960 0.8960 0.8959
2358.901000 0.8950 0.8950 0.8950 0.8949 0.8940
2365.151000 0.8940 0.8940 0.8939 0.8930 0.8930
2371.401000 0.8930 0.8928 0.8910 0.8910 0.8910
2377.651000 0.8909 0.8900 0.8900 0.8900 0.8899
2383.901000 0.8890 0.8890 0.8889 0.8880 0.8878
2390.151000 0.8859 0.8849 0.8839 0.8828 0.8810
2396.401000 0.8807 0.8778 0.8758 0.8740 0.8740
2402.651000 0.8740 0.8739 0.8731 0.8739 0.8730
2408.901000 0.8730 0.8730 0.8728 0.8710 0.8710
2415.151000 0.8710 0.8710 0.8710 0.8710 0.8710
2421.401000 0.8710 0.8710 0.8710 0.8710 0.8710
2427.651000 0.8709 0.8700 0.8700 0.8700 0.8699
2433.901000 0.8690 0.8690 0.8690 0.8689 0.8678
2440.151000 0.8656 0.8630 0.8628 0.8610 0.8609
2446.401000 0.8599 0.8590 0.8589 0.8578 0.8559
2452.651000 0.8549 0.8539 0.8528 0.8509 0.8499
2458.901000 0.8490 0.8489 0.8480 0.8480 0.8479
2465.151000 0.8470 0.8468 0.8450 0.8449 0.8440
2471.401000 0.8439 0.8430 0.8429 0.8418 0.8399
2477.651000 0.8389 0.8380 0.8376 0.8346 0.8316
2483.901000 0.8289 0.8279 0.8270 0.8270 0.8270
2490.151000 0.8268 0.8250 0.8250 0.8249 0.8240
2496.401000 0.8241 0.8250 0.8249 0.8239 0.8230
2502.651000 0.8230 0.8230 0.8230 0.8229 0.8220
2508.901000 0.8220 0.8220 0.8220 0.8218 0.8200
2515.151000 0.8200 0.8200 0.8200 0.8199 0.8190
2521.401000 0.8189 0.8180 0.8179 0.8170 0.8170
2527.651000 0.8168 0.8150 0.8150 0.8149 0.8140
2533.901000 0.8140 0.8139 0.8127 0.8100 0.8100
2540.151000 0.8099 0.8090 0.8089 0.8080 0.8079
2546.401000 0.8070 0.8070 0.8070 0.8068 0.8050
2552.651000 0.8050 0.8049 0.8040 0.8040 0.8040
2558.901000 0.8040 0.8039 0.8029 0.8018 0.8000
2565.151000 0.7999 0.7986 0.7960 0.7956 0.7931
2571.401000 0.7939 0.7930 0.7929 0.7920 0.7919
2577.651000 0.7908 0.7889 0.7879 0.7869 0.7858
2583.901000 0.7838 0.7819 0.7808 0.7789 0.7778
2590.151000 0.7758 0.7740 0.7740 0.7739 0.7730
2596.401000 0.7730 0.7729 0.7720 0.7719 0.7708
2602.651000 0.7689 0.7679 0.7666 0.7639 0.7628
2608.901000 0.7607 0.7579 0.7569 0.7558 0.7540
2615.151000 0.7540 0.7540 0.7540 0.7540 0.7539
2621.401000 0.7530 0.7530 0.7530 0.7529 0.7519
2627.651000 0.7509 0.7498 0.7479 0.7469 0.7459
2633.901000 0.7448 0.7429 0.7420 0.7419 0.7409
2640.151000 0.7400 0.7398 0.7380 0.7378 0.7355
2646.401000 0.7318 0.7297 0.7269 0.7259 0.7248
2652.651000 0.7229 0.7219 0.7210 0.7209 0.7200
2658.901000 0.7198 0.7179 0.7169 0.7160 0.7159
2665.151000 0.7150 0.7148 0.7129 0.7120 0.7119
2671.401000 0.7109 0.7098 0.7080 0.7079 0.7070
2677.651000 0.7069 0.7060 0.7060 0.7059 0.7050
2683.901000 0.7050 0.7048 0.7030 0.7029 0.7020
2690.151000 0.7020 0.7020 0.7020 0.7020 0.7021
2696.401000 0.7029 0.7020 0.7020 0.7019 0.7010
2702.651000 0.7010 0.7010 0.7010 0.7009 0.7000
2708.901000 0.7000 0.7000 0.7000 0.7000 0.6999
2715.151000 0.6990 0.6988 0.6969 0.6959 0.6950
2721.401000 0.6949 0.6938 0.6920 0.6919 0.6909
2727.651000 0.6896 0.6870 0.6864 0.6816 0.6788
2733.901000 0.6768 0.6750 0.6749 0.6740 0.6738
2740.151000 0.6720 0.6719 0.6709 0.6699 0.6688
2746.401000 0.6669 0.6659 0.6649 0.6640 0.6638
2752.651000 0.6619 0.6609 0.6599 0.6588 0.6570
2758.901000 0.6569 0.6559 0.6549 0.6535 0.6494
2765.151000 0.6449 0.6439 0.6430 0.6428 0.6410
2771.401000 0.6410 0.6409 0.6399 0.6390 0.6390
2777.651000 0.6390 0.6390 0.6390 0.6390 0.6390
2783.901000 0.6390 0.6390 0.6390 0.6390 0.6389
2790.151000 0.6378 0.6360 0.6360 0.6360 0.6360
2796.401000 0.6360 0.6359 0.6350 0.6350 0.6350
2802.651000 0.6350 0.6350 0.6350 0.6350 0.6350
2808.901000 0.6350 0.6350 0.6350 0.6350 0.6350
2815.151000 0.6350 0.6350 0.6350 0.6350 0.6350
2821.401000 0.6350 0.6349 0.6340 0.6340 0.6340
2827.651000 0.6340 0.6340 0.6340 0.6339 0.6330
2833.901000 0.6328 0.6309 0.6298 0.6276 0.6245
2840.151000 0.6206 0.6174 0.6122 0.6053 0.5996
2846.401000 0.5964 0.5910 0.5817 0.5704 0.5572
2852.651000 0.5438 0.5420 0.5421 0.5436 0.5493
2858.901000 0.5600 0.5690 0.5778 0.5847 0.5919
2865.151000 0.6068 0.6134 0.6162 0.6180 0.6180
2871.401000 0.6180 0.6180 0.6180 0.6180 0.6178
2877.651000 0.6160 0.6159 0.6150 0.6148 0.6130
2883.901000 0.6128 0.6109 0.6095 0.6056 0.6028
2890.151000 0.6008 0.5985 0.5946 0.5912 0.5843
2896.401000 0.5784 0.5735 0.5698 0.5679 0.5668
2902.651000 0.5648 0.5629 0.5618 0.5600 0.5599
2908.901000 0.5590 0.5589 0.5580 0.5573 0.5516
2915.151000 0.5488 0.5460 0.5381 0.5301 0.5224
2921.401000 0.5179 0.5165 0.5128 0.5106 0.5079
2927.651000 0.5070 0.5071 0.5081 0.5092 0.5114
2933.901000 0.5142 0.5161 0.5171 0.5181 0.5192
2940.151000 0.5210 0.5210 0.5211 0.5221 0.5234
2946.401000 0.5261 0.5283 0.5386 0.5438 0.5511
2952.651000 0.5601 0.5692 0.5793 0.5910 0.6068
2958.901000 0.6142 0.6243 0.6342 0.6364 0.6390
2965.151000 0.6390 0.6390 0.6391 0.6400 0.6400
2971.401000 0.6401 0.6410 0.6413 0.6442 0.6464
2977.651000 0.6492 0.6514 0.6542 0.6561 0.6574
2983.901000 0.6602 0.6622 0.6642 0.6661 0.6674
2990.151000 0.6701 0.6714 0.6741 0.6752 0.6774
2996.401000 0.6801 0.6813 0.6841 0.6852 0.6872
3002.651000 0.6892 0.6911 0.6920 0.6922 0.6941
3008.901000 0.6950 0.6951 0.6960 0.6961 0.6970
3015.151000 0.6970 0.6972 0.6990 0.6990 0.6990
3021.401000 0.6990 0.6990 0.6990 0.6990 0.6990
3027.651000 0.6990 0.6990 0.6990 0.6990 0.6990
3033.901000 0.6990 0.6990 0.6990 0.6988 0.6970
3040.151000 0.6970 0.6970 0.6970 0.6970 0.6970
3046.401000 0.6969 0.6960 0.6960 0.6960 0.6960
3052.651000 0.6960 0.6959 0.6950 0.6950 0.6949
3058.901000 0.6940 0.6940 0.6938 0.6920 0.6919
3065.151000 0.6911 0.6920 0.6919 0.6909 0.6899
3071.401000 0.6888 0.6869 0.6860 0.6858 0.6840
3077.651000 0.6840 0.6836 0.6810 0.6810 0.6810
3083.901000 0.6809 0.6800 0.6799 0.6788 0.6769
3090.151000 0.6759 0.6749 0.6736 0.6708 0.6686
3096.401000 0.6658 0.6638 0.6619 0.6609 0.6600
3102.651000 0.6600 0.6600 0.6601 0.6611 0.6625
3108.901000 0.6661 0.6672 0.6691 0.6701 0.6710
3115.151000 0.6710 0.6711 0.6720 0.6720 0.6722
3121.401000 0.6740 0.6740 0.6740 0.6738 0.6720
3127.651000 0.6719 0.6709 0.6699 0.6688 0.6670
3133.901000 0.6668 0.6649 0.6638 0.6616 0.6586
3140.151000 0.6558 0.6538 0.6520 0.6518 0.6499
3146.401000 0.6484 0.6434 0.6383 0.6324 0.6274
3152.651000 0.6226 0.6199 0.6189 0.6178 0.6160
3158.901000 0.6162 0.6182 0.6205 0.6242 0.6265
3165.151000 0.6306 0.6362 0.6462 0.6561 0.6649
3171.401000 0.6729 0.6808 0.6887 0.7026 0.7077
3177.651000 0.7135 0.7176 0.7224 0.7252 0.7274
3183.901000 0.7300 0.7301 0.7310 0.7311 0.7321
3190.151000 0.7332 0.7351 0.7360 0.7360 0.7360
3196.401000 0.7360 0.7361 0.7370 0.7370 0.7370
3202.651000 0.7370 0.7370 0.7369 0.7360 0.7356
3208.901000 0.7329 0.7319 0.7309 0.7300 0.7298
3215.151000 0.7280 0.7280 0.7279 0.7270 0.7269
3221.401000 0.7260 0.7259 0.7250 0.7248 0.7230
3227.651000 0.7230 0.7229 0.7215 0.7178 0.7160
3233.901000 0.7159 0.7148 0.7128 0.7105 0.7064
3240.151000 0.7019 0.7009 0.6999 0.6988 0.6969
3246.401000 0.6958 0.6934 0.6887 0.6858 0.6832
3252.651000 0.6769 0.6758 0.6736 0.6709 0.6699
3258.901000 0.6685 0.6644 0.6593 0.6535 0.6499
3265.151000 0.6485 0.6449 0.6439 0.6424 0.6375
3271.401000 0.6337 0.6308 0.6285 0.6248 0.6224
3277.651000 0.6170 0.6095 0.6059 0.6048 0.6026
3283.901000 0.5997 0.5958 0.5858 0.5758 0.5658
3290.151000 0.5559 0.5468 0.5372 0.5299 0.5211
3296.401000 0.5132 0.5063 0.5007 0.4976 0.4944
3302.651000 0.4892 0.4824 0.4774 0.4729 0.4719
3308.901000 0.4710 0.4710 0.4711 0.4724 0.4754
3315.151000 0.4788 0.4868 0.5007 0.5069 0.5149
3321.401000 0.5228 0.5298 0.5368 0.5437 0.5497
3327.651000 0.5556 0.5602 0.5621 0.5630 0.5632
3333.901000 0.5652 0.5670 0.5670 0.5668 0.5650
3340.151000 0.5649 0.5639 0.5626 0.5599 0.5589
3346.401000 0.5580 0.5579 0.5570 0.5568 0.5550
3352.651000 0.5548 0.5530 0.5529 0.5518 0.5500
3358.901000 0.5500 0.5499 0.5489 0.5480 0.5479
3365.151000 0.5470 0.5470 0.5469 0.5460 0.5460
3371.401000 0.5461 0.5470 0.5471 0.5482 0.5502
3377.651000 0.5521 0.5532 0.5552 0.5578 0.5641
3383.901000 0.5652 0.5672 0.5693 0.5721 0.5732
3390.151000 0.5766 0.5882 0.5904 0.5944 0.6051
3396.401000 0.6062 0.6080 0.6081 0.6090 0.6090
3402.651000 0.6090 0.6090 0.6089 0.6080 0.6080
3408.901000 0.6080 0.6078 0.6060 0.6059 0.6050
3415.151000 0.6049 0.6040 0.6036 0.6010 0.6009
3421.401000 0.6000 0.6000 0.5999 0.5985 0.5944
3427.651000 0.5898 0.5875 0.5839 0.5826 0.5798
3433.901000 0.5777 0.5748 0.5727 0.5696 0.5664
3440.151000 0.5612 0.5546 0.5518 0.5499 0.5486
3446.401000 0.5451 0.5372 0.5304 0.5250 0.5172
3452.651000 0.5098 0.5009 0.5000 0.4998 0.4985
3458.901000 0.5026 0.5077 0.5137 0.5200 0.5276
3465.151000 0.5322 0.5364 0.5568 0.5782 0.5834
3471.401000 0.6104 0.6213 0.6242 0.6276 0.6398
3477.651000 0.6485 0.6678 0.6741 0.6758 0.6841
3483.901000 0.7001 0.7015 0.7053 0.7085 0.7125
3490.151000 0.7165 0.7204 0.7235 0.7270 0.7275
3496.401000 0.7311 0.7323 0.7352 0.7375 0.7416
3502.651000 0.7465 0.7501 0.7511 0.7521 0.7531
3508.901000 0.7543 0.7571 0.7585 0.7621 0.7631
3515.151000 0.7642 0.7662 0.7681 0.7692 0.7712
3521.401000 0.7731 0.7742 0.7760 0.7761 0.7772
3527.651000 0.7792 0.7811 0.7821 0.7831 0.7842
3533.901000 0.7861 0.7871 0.7881 0.7892 0.7912
3540.151000 0.7930 0.7931 0.7940 0.7942 0.7961
3546.401000 0.7970 0.7971 0.7980 0.7982 0.8000
3552.651000 0.8002 0.8021 0.8032 0.8050 0.8052
3558.901000 0.8071 0.8081 0.8090 0.8091 0.8104
3565.151000 0.8131 0.8141 0.8154 0.8181 0.8191
3571.401000 0.8202 0.8221 0.8231 0.8241 0.8252
3577.651000 0.8271 0.8281 0.8291 0.8302 0.8321
3583.901000 0.8331 0.8341 0.8350 0.8352 0.8371
3590.151000 0.8381 0.8391 0.8402 0.8421 0.8431
3596.401000 0.8441 0.8452 0.8471 0.8481 0.8490
3602.651000 0.8492 0.8512 0.8531 0.8541 0.8551
3608.901000 0.8562 0.8581 0.8591 0.8601 0.8612
3615.151000 0.8630 0.8631 0.8641 0.8650 0.8651
3621.401000 0.8660 0.8662 0.8681 0.8690 0.8691
3627.651000 0.8700 0.8701 0.8710 0.8712 0.8730
3633.901000 0.8730 0.8731 0.8740 0.8741 0.8750
3640.151000 0.8751 0.8760 0.8760 0.8760 0.8760
3646.401000 0.8760 0.8762 0.8780 0.8780 0.8780
3652.651000 0.8780 0.8780 0.8781 0.8790 0.8790
3658.901000 0.8790 0.8790 0.8790 0.8790 0.8790
3665.151000 0.8790 0.8790 0.8790 0.8790 0.8790
3671.401000 0.8790 0.8790 0.8790 0.8791 0.8800
3677.651000 0.8800 0.8800 0.8800 0.8800 0.8800
3683.901000 0.8800 0.8800 0.8800 0.8800 0.8800
3690.151000 0.8800 0.8800 0.8800 0.8800 0.8800
3696.401000 0.8800 0.8800 0.8800 0.8800 0.8800
3702.651000 0.8800 0.8800 0.8800 0.8800 0.8800
3708.901000 0.8800 0.8800 0.8800 0.8800 0.8800
3715.151000 0.8800 0.8800 0.8800 0.8801 0.8810
3721.401000 0.8810 0.8810 0.8810 0.8810 0.8810
3727.651000 0.8810 0.8810 0.8810 0.8810 0.8810
3733.901000 0.8810 0.8810 0.8810 0.8810 0.8810
3740.151000 0.8810 0.8810 0.8810 0.8810 0.8810
3746.401000 0.8809 0.8800 0.8800 0.8800 0.8800
3752.651000 0.8800 0.8800 0.8799 0.8790 0.8790
3758.901000 0.8790 0.8790 0.8790 0.8790 0.8790
3765.151000 0.8790 0.8790 0.8790 0.8790 0.8790
3771.401000 0.8790 0.8790 0.8790 0.8790 0.8789
3777.651000 0.8780 0.8780 0.8780 0.8780 0.8778
3783.901000 0.8760 0.8760 0.8760 0.8760 0.8760
3790.151000 0.8760 0.8760 0.8759 0.8750 0.8750
3796.401000 0.8750 0.8750 0.8750 0.8749 0.8740
3802.651000 0.8740 0.8740 0.8740 0.8739 0.8730
3808.901000 0.8730 0.8730 0.8730 0.8728 0.8710
3815.151000 0.8710 0.8709 0.8700 0.8700 0.8700
3821.401000 0.8700 0.8700 0.8700 0.8700 0.8700
3827.651000 0.8700 0.8700 0.8699 0.8690 0.8690
3833.901000 0.8690 0.8690 0.8690 0.8690 0.8690
3840.151000 0.8690 0.8690 0.8689 0.8680 0.8680
3846.401000 0.8680 0.8680 0.8680 0.8680 0.8678
3852.651000 0.8660 0.8660 0.8660 0.8660 0.8660
3858.901000 0.8660 0.8660 0.8660 0.8660 0.8660
3865.151000 0.8660 0.8660 0.8660 0.8660 0.8660
3871.401000 0.8660 0.8660 0.8662 0.8680 0.8680
3877.651000 0.8680 0.8680 0.8680 0.8680 0.8680
3883.901000 0.8681 0.8689 0.8680 0.8678 0.8660
3890.151000 0.8660 0.8659 0.8649 0.8640 0.8640
3896.401000 0.8640 0.8640 0.8640 0.8640 0.8640
3902.651000 0.8640 0.8640 0.8640 0.8640 0.8640
3908.901000 0.8640 0.8640 0.8640 0.8640 0.8640
3915.151000 0.8640 0.8640 0.8639 0.8630 0.8630
3921.401000 0.8630 0.8630 0.8630 0.8630 0.8630
3927.651000 0.8630 0.8630 0.8630 0.8630 0.8630
3933.901000 0.8630 0.8630 0.8630 0.8630 0.8630
3940.151000 0.8630 0.8630 0.8630 0.8630 0.8630
3946.401000 0.8630 0.8628 0.8612 0.8630 0.8630
3952.651000 0.8630 0.8630 0.8630 0.8630 0.8630
3958.901000 0.8630 0.8630 0.8630 0.8630 0.8630
3965.151000 0.8630 0.8630 0.8630 0.8630 0.8630
3971.401000 0.8630 0.8630 0.8630 0.8630 0.8630
3977.651000 0.8630 0.8630 0.8630 0.8630 0.8630
3983.901000 0.8630 0.8630 0.8630 0.8630 0.8630
3990.151000 0.8630 0.8630 0.8630 0.8630 0.8630
3996.401000 0.8630 0.8630 0.8630 0.8630 0.8630
4002.651000 0.8630 0.8630 0.8630 0.8630 0.8630
4008.901000 0.8630 0.8630 0.8630 0.8630 0.8630
4015.151000 0.8630 0.8630 0.8630 0.8630 0.8630
4021.401000 0.8630 0.8630 0.8630 0.8630 0.8630
4027.651000 0.8630 0.8630 0.8630 0.8630 0.8630
4033.901000 0.8630
##END=
