##TITLE=2,6-Dimethyl morpholine hydrochloride, hydrate
##JCAMP-DX=4.24
##DATA TYPE=INFRARED SPECTRUM
##CLASS=COBLENTZ III
##ORIGIN=DOW CHEMICAL COMPANY
##OWNER=COBLENTZ SOC.
Collection (C) 2018 copyright by the U.S. Secretary of Commerce
on behalf of the United States of America. All rights reserved.
##DATE=1969/02/17
##MOLFORM=C6 H14 Cl N O  * H2 O
##SOURCE REFERENCE=COBLENTZ NO. 09862
##$NIST ID=B6009862
##$NIST SOURCE=COBLENTZ
##$NIST IMAGE=cob9862
##SPECTROMETER/DATA SYSTEM=DOW KBr FOREPRISM-GRATING
##INSTRUMENT PARAMETERS=BLAZED AT 3.5, 12.0, 20.0 MICRON AND CHANGED AT 5.0, 7.5, 14.9 MICRON
##STATE=SOLID (SPLIT MULL), FLUOROLUBE FOR 3800-1330 CM^-^1, NUJOL FOR 1330-470 CM^-^1
##SAMPLING PROCEDURE=TRANSMISSION
##RESOLUTION=2
##DATA PROCESSING=DIGITIZED BY COBLENTZ SOCIETY (BATCH I) FROM HARD COPY
##XUNITS=1/CM
##YUNITS=TRANSMITTANCE
##XLABEL=Wavenumbers (cm-1)
##YLABEL=% Transmission
##XFACTOR=1
##YFACTOR=1
##DELTAX=1
##FIRSTX=468
##LASTX=3800
##FIRSTY=0.7856
##MAXX=3800
##MINX=468
##MAXY=0.9065
##MINY=0.0631
##NPOINTS=3333
##XYDATA=(X++(Y..Y))
468.000000 0.7856 0.7878 0.7894 0.7908 0.7922
473.000000 0.7935 0.7947 0.7957 0.7958 0.7971
478.000000 0.7956 0.7936 0.7897 0.7856 0.7815
483.000000 0.7758 0.7694 0.7626 0.7575 0.7543
488.000000 0.7518 0.7504 0.7495 0.7487 0.7460
493.000000 0.7361 0.6734 0.6202 0.5671 0.5139
498.000000 0.4608 0.4262 0.4268 0.4574 0.5008
503.000000 0.5443 0.5877 0.6310 0.6746 0.7180
508.000000 0.7615 0.7715 0.7749 0.7754 0.7758
513.000000 0.7757 0.7756 0.7753 0.7749 0.7743
518.000000 0.7735 0.7726 0.7718 0.7710 0.7701
523.000000 0.7692 0.7687 0.7684 0.7681 0.7681
528.000000 0.7680 0.7688 0.7695 0.7715 0.7738
533.000000 0.7771 0.7831 0.7911 0.8006 0.8091
538.000000 0.8161 0.8220 0.8266 0.8295 0.8324
543.000000 0.8353 0.8378 0.8402 0.8425 0.8451
548.000000 0.8467 0.8483 0.8499 0.8514 0.8530
553.000000 0.8546 0.8562 0.8574 0.8585 0.8597
558.000000 0.8609 0.8621 0.8632 0.8643 0.8654
563.000000 0.8664 0.8675 0.8685 0.8695 0.8704
568.000000 0.8710 0.8716 0.8721 0.8723 0.8720
573.000000 0.8717 0.8737 0.8712 0.8706 0.8700
578.000000 0.8694 0.8688 0.8682 0.8674 0.8662
583.000000 0.8651 0.8623 0.8588 0.8505 0.8388
588.000000 0.8271 0.8155 0.8145 0.8119 0.8175
593.000000 0.8302 0.8427 0.8553 0.8678 0.8744
598.000000 0.8793 0.8816 0.8840 0.8855 0.8868
603.000000 0.8875 0.8878 0.8881 0.8884 0.8887
608.000000 0.8891 0.8895 0.8898 0.8902 0.8906
613.000000 0.8911 0.8924 0.8942 0.8960 0.8953
618.000000 0.8945 0.8941 0.8937 0.8934 0.8930
623.000000 0.8925 0.8923 0.8924 0.8924 0.8932
628.000000 0.8940 0.8948 0.8957 0.8966 0.8975
633.000000 0.8984 0.8993 0.9002 0.9011 0.9020
638.000000 0.9030 0.9041 0.9050 0.9049 0.9048
643.000000 0.9047 0.9046 0.9046 0.9046 0.9046
648.000000 0.9049 0.9052 0.9055 0.9058 0.9060
653.000000 0.9061 0.9063 0.9064 0.9065 0.9065
658.000000 0.9065 0.9064 0.9064 0.9064 0.9046
663.000000 0.9060 0.9058 0.9056 0.9054 0.9051
668.000000 0.9048 0.9044 0.9041 0.9037 0.9034
673.000000 0.9028 0.9000 0.8964 0.8927 0.8891
678.000000 0.8855 0.8818 0.8782 0.8746 0.8735
683.000000 0.8737 0.8739 0.8741 0.8744 0.8746
688.000000 0.8749 0.8751 0.8752 0.8753 0.8753
693.000000 0.8753 0.8751 0.8749 0.8740 0.8732
698.000000 0.8720 0.8707 0.8693 0.8678 0.8664
703.000000 0.8645 0.8627 0.8609 0.8591 0.8571
708.000000 0.8538 0.8504 0.8471 0.8438 0.8395
713.000000 0.8349 0.8303 0.8257 0.8185 0.8108
718.000000 0.8044 0.7987 0.7978 0.7982 0.7989
723.000000 0.8055 0.8098 0.8134 0.8168 0.8191
728.000000 0.8213 0.8223 0.8234 0.8243 0.8249
733.000000 0.8256 0.8261 0.8264 0.8268 0.8271
738.000000 0.8291 0.8325 0.8366 0.8397 0.8412
743.000000 0.8425 0.8440 0.8450 0.8460 0.8468
748.000000 0.8471 0.8475 0.8480 0.8492 0.8504
753.000000 0.8513 0.8520 0.8525 0.8532 0.8538
758.000000 0.8549 0.8561 0.8571 0.8574 0.8568
763.000000 0.8562 0.8556 0.8551 0.8546 0.8540
768.000000 0.8535 0.8532 0.8531 0.8542 0.8550
773.000000 0.8557 0.8566 0.8577 0.8585 0.8591
778.000000 0.8596 0.8598 0.8600 0.8601 0.8603
783.000000 0.8604 0.8605 0.8607 0.8609 0.8611
788.000000 0.8611 0.8611 0.8603 0.8594 0.8580
793.000000 0.8565 0.8550 0.8535 0.8521 0.8503
798.000000 0.8482 0.8462 0.8435 0.8405 0.8374
803.000000 0.8343 0.8308 0.8273 0.8243 0.8215
808.000000 0.8187 0.8168 0.8151 0.8133 0.8114
813.000000 0.8087 0.8039 0.7961 0.7832 0.7633
818.000000 0.7403 0.7174 0.6945 0.6715 0.6551
823.000000 0.6748 0.7494 0.8241 0.8409 0.8428
828.000000 0.8443 0.8458 0.8455 0.8452 0.8442
833.000000 0.8433 0.8420 0.8406 0.8391 0.8375
838.000000 0.8357 0.8340 0.8321 0.8306 0.8291
843.000000 0.8275 0.8252 0.8228 0.8117 0.7932
848.000000 0.7746 0.7560 0.7375 0.7189 0.7003
853.000000 0.6958 0.6976 0.7178 0.7331 0.7484
858.000000 0.7637 0.7728 0.7730 0.7637 0.7282
863.000000 0.6926 0.6571 0.6217 0.5862 0.5508
868.000000 0.5153 0.5022 0.5138 0.5609 0.6079
873.000000 0.6549 0.7019 0.7490 0.7961 0.8143
878.000000 0.8200 0.8225 0.8239 0.8247 0.8247
883.000000 0.8247 0.8246 0.8243 0.8240 0.8230
888.000000 0.8220 0.8210 0.8198 0.8181 0.8164
893.000000 0.8147 0.8118 0.8087 0.8047 0.7998
898.000000 0.7986 0.7989 0.7993 0.8015 0.8058
903.000000 0.8096 0.8112 0.8114 0.8108 0.8086
908.000000 0.8047 0.8007 0.7956 0.7905 0.7858
913.000000 0.7817 0.7776 0.7749 0.7724 0.7701
918.000000 0.7682 0.7675 0.7672 0.7691 0.7761
923.000000 0.7834 0.7906 0.7978 0.8051 0.8082
928.000000 0.8081 0.8092 0.8092 0.8090 0.8084
933.000000 0.8075 0.8067 0.8058 0.8049 0.8039
938.000000 0.8028 0.8015 0.8001 0.7984 0.7967
943.000000 0.7949 0.7924 0.7899 0.7861 0.7825
948.000000 0.7775 0.7715 0.7642 0.7561 0.7482
953.000000 0.7401 0.7321 0.7017 0.6651 0.6286
958.000000 0.5920 0.5659 0.5648 0.5879 0.6091
963.000000 0.6303 0.6515 0.6728 0.6940 0.7153
968.000000 0.7247 0.7244 0.7239 0.7225 0.7205
973.000000 0.7168 0.7121 0.7078 0.6947 0.6775
978.000000 0.6604 0.6433 0.6262 0.6090 0.5919
983.000000 0.5747 0.5576 0.5404 0.5381 0.5549
988.000000 0.5855 0.6162 0.6468 0.6774 0.7081
993.000000 0.7387 0.7535 0.7669 0.7733 0.7790
998.000000 0.7835 0.7878 0.7915 0.7928 0.7934
1003.000000 0.7901 0.7939 0.7936 0.7932 0.7919
1008.000000 0.7906 0.7886 0.7862 0.7835 0.7795
1013.000000 0.7751 0.7705 0.7654 0.7601 0.7541
1018.000000 0.7481 0.7412 0.7342 0.7271 0.7200
1023.000000 0.7131 0.7071 0.7011 0.6924 0.6718
1028.000000 0.6543 0.6357 0.6129 0.5671 0.5204
1033.000000 0.4737 0.4160 0.3727 0.3295 0.2863
1038.000000 0.2430 0.1827 0.1784 0.1794 0.2269
1043.000000 0.2773 0.3277 0.3780 0.4285 0.4790
1048.000000 0.5294 0.5798 0.6302 0.6772 0.7015
1053.000000 0.7184 0.7333 0.7482 0.7621 0.7721
1058.000000 0.7775 0.7792 0.7796 0.7797 0.7811
1063.000000 0.7787 0.7778 0.7769 0.7757 0.7737
1068.000000 0.7680 0.7571 0.7460 0.7344 0.7243
1073.000000 0.7171 0.7075 0.6678 0.6242 0.5805
1078.000000 0.5369 0.5028 0.4936 0.4906 0.4885
1083.000000 0.4937 0.5139 0.5436 0.5733 0.6031
1088.000000 0.6309 0.6301 0.6296 0.6266 0.6189
1093.000000 0.6082 0.6004 0.5905 0.5797 0.5492
1098.000000 0.5154 0.4816 0.4477 0.4139 0.3800
1103.000000 0.3352 0.3353 0.3471 0.3666 0.3862
1108.000000 0.4059 0.4256 0.4452 0.4648 0.4844
1113.000000 0.5040 0.5236 0.5236 0.5236 0.4558
1118.000000 0.3880 0.3202 0.2524 0.1845 0.1384
1123.000000 0.1384 0.1384 0.1400 0.2183 0.2741
1128.000000 0.3299 0.3858 0.4416 0.4975 0.5533
1133.000000 0.5910 0.6004 0.6262 0.6492 0.6634
1138.000000 0.6950 0.7021 0.7062 0.7085 0.7104
1143.000000 0.7122 0.7141 0.7158 0.7171 0.7182
1148.000000 0.7198 0.7221 0.7299 0.7378 0.7411
1153.000000 0.7424 0.7432 0.7441 0.7447 0.7404
1158.000000 0.7438 0.7424 0.7401 0.7358 0.7292
1163.000000 0.7218 0.7141 0.7062 0.6985 0.6888
1168.000000 0.6598 0.6222 0.5846 0.5470 0.5093
1173.000000 0.4717 0.4341 0.3964 0.3589 0.3562
1178.000000 0.3636 0.4398 0.4848 0.5298 0.5748
1183.000000 0.6198 0.6648 0.7098 0.7548 0.7694
1188.000000 0.7775 0.7840 0.7871 0.7903 0.7921
1193.000000 0.7939 0.7949 0.7958 0.7995 0.7969
1198.000000 0.7969 0.7971 0.7964 0.7954 0.7945
1203.000000 0.7925 0.7901 0.7865 0.7821 0.7774
1208.000000 0.7706 0.7624 0.7567 0.7505 0.7432
1213.000000 0.7380 0.7336 0.7326 0.7341 0.7314
1218.000000 0.7551 0.7586 0.7594 0.7589 0.7571
1223.000000 0.7548 0.7510 0.7476 0.7465 0.7454
1228.000000 0.7494 0.7542 0.7585 0.7637 0.7697
1233.000000 0.7757 0.7815 0.7874 0.7912 0.7949
1238.000000 0.7960 0.7993 0.7971 0.7964 0.7957
1243.000000 0.7950 0.7942 0.7935 0.7926 0.7918
1248.000000 0.7911 0.7901 0.7892 0.7878 0.7865
1253.000000 0.7849 0.7828 0.7807 0.7787 0.7765
1258.000000 0.7731 0.7696 0.7661 0.7642 0.7625
1263.000000 0.7635 0.7645 0.7656 0.7668 0.7683
1268.000000 0.7700 0.7721 0.7744 0.7757 0.7761
1273.000000 0.7760 0.7760 0.7758 0.7751 0.7746
1278.000000 0.7739 0.7732 0.7721 0.7711 0.7701
1283.000000 0.7687 0.7669 0.7651 0.7635 0.7618
1288.000000 0.7595 0.7571 0.7548 0.7525 0.7501
1293.000000 0.7475 0.7447 0.7418 0.7389 0.7356
1298.000000 0.7318 0.7280 0.7242 0.7201 0.7158
1303.000000 0.7115 0.7071 0.7028 0.6985 0.6922
1308.000000 0.6860 0.6798 0.6735 0.6676 0.6618
1313.000000 0.6561 0.6484 0.6401 0.6119 0.5790
1318.000000 0.5462 0.5133 0.4804 0.4476 0.4245
1323.000000 0.4265 0.4387 0.4639 0.4890 0.5141
1328.000000 0.5393 0.5644 0.5895 0.6147 0.6398
1333.000000 0.6451 0.6455 0.6483 0.6433 0.6421
1338.000000 0.6396 0.6358 0.6558 0.7436 0.7425
1343.000000 0.7411 0.7396 0.7381 0.7357 0.7333
1348.000000 0.7308 0.7276 0.7246 0.7215 0.7184
1353.000000 0.7126 0.7064 0.6997 0.6921 0.6831
1358.000000 0.6454 0.6077 0.5700 0.5586 0.5770
1363.000000 0.6047 0.6324 0.6601 0.6878 0.6960
1368.000000 0.6838 0.6528 0.6219 0.5910 0.5600
1373.000000 0.5291 0.4981 0.4672 0.4632 0.4636
1378.000000 0.4651 0.4847 0.5192 0.5538 0.5883
1383.000000 0.6228 0.6422 0.6417 0.6293 0.6425
1388.000000 0.5855 0.5636 0.5417 0.5300 0.5593
1393.000000 0.6042 0.6490 0.6787 0.6808 0.6700
1398.000000 0.6498 0.6296 0.6094 0.5893 0.5748
1403.000000 0.5779 0.5854 0.5959 0.6068 0.7051
1408.000000 0.7268 0.7307 0.7324 0.7333 0.7334
1413.000000 0.7333 0.7332 0.7325 0.7318 0.7285
1418.000000 0.7250 0.7194 0.7144 0.7094 0.7033
1423.000000 0.6964 0.6904 0.6849 0.6811 0.6790
1428.000000 0.6768 0.6748 0.6737 0.6725 0.6708
1433.000000 0.6642 0.6536 0.6428 0.6323 0.6217
1438.000000 0.6174 0.6270 0.6454 0.6515 0.6514
1443.000000 0.6501 0.6454 0.6384 0.6309 0.6227
1448.000000 0.6126 0.5882 0.5581 0.5281 0.4981
1453.000000 0.4681 0.4381 0.4080 0.3780 0.3776
1458.000000 0.3812 0.4112 0.4316 0.4325 0.4267
1463.000000 0.4203 0.4144 0.4277 0.4719 0.5162
1468.000000 0.5604 0.6046 0.6489 0.6868 0.7083
1473.000000 0.7281 0.7472 0.7621 0.7724 0.7815
1478.000000 0.7903 0.7953 0.8001 0.8030 0.8047
1483.000000 0.8064 0.8080 0.8091 0.8101 0.8111
1488.000000 0.8119 0.8128 0.8136 0.8148 0.8161
1493.000000 0.8171 0.8180 0.8188 0.8196 0.8202
1498.000000 0.8206 0.8209 0.8213 0.8217 0.8221
1503.000000 0.8225 0.8228 0.8233 0.8238 0.8243
1508.000000 0.8248 0.8253 0.8258 0.8261 0.8262
1513.000000 0.8262 0.8263 0.8263 0.8263 0.8263
1518.000000 0.8263 0.8263 0.8262 0.8262 0.8259
1523.000000 0.8256 0.8253 0.8240 0.8228 0.8221
1528.000000 0.8215 0.8218 0.8228 0.8238 0.8248
1533.000000 0.8259 0.8274 0.8289 0.8308 0.8321
1538.000000 0.8325 0.8328 0.8328 0.8328 0.8328
1543.000000 0.8328 0.8330 0.8333 0.8341 0.8362
1548.000000 0.8361 0.8374 0.8387 0.8400 0.8407
1553.000000 0.8413 0.8413 0.8412 0.8412 0.8410
1558.000000 0.8408 0.8406 0.8403 0.8400 0.8397
1563.000000 0.8394 0.8391 0.8388 0.8385 0.8380
1568.000000 0.8375 0.8371 0.8366 0.8361 0.8355
1573.000000 0.8350 0.8344 0.8334 0.8324 0.8304
1578.000000 0.8280 0.8256 0.8228 0.8198 0.8158
1583.000000 0.8110 0.8061 0.8008 0.7949 0.7881
1588.000000 0.7796 0.7504 0.7278 0.7051 0.6826
1593.000000 0.6601 0.6375 0.6149 0.5923 0.5697
1598.000000 0.5471 0.5262 0.5282 0.5314 0.5648
1603.000000 0.5982 0.6316 0.6650 0.6984 0.7318
1608.000000 0.7651 0.7971 0.8035 0.8051 0.8060
1613.000000 0.8060 0.8058 0.8044 0.8017 0.7954
1618.000000 0.7861 0.7769 0.7689 0.7621 0.7603
1623.000000 0.7562 0.7615 0.7636 0.7675 0.7725
1628.000000 0.7781 0.7842 0.7915 0.8018 0.8086
1633.000000 0.8125 0.8155 0.8178 0.8201 0.8210
1638.000000 0.8218 0.8225 0.8233 0.8242 0.8251
1643.000000 0.8261 0.8271 0.8281 0.8291 0.8306
1648.000000 0.8321 0.8345 0.8370 0.8386 0.8403
1653.000000 0.8417 0.8425 0.8428 0.8432 0.8435
1658.000000 0.8437 0.8439 0.8441 0.8443 0.8445
1663.000000 0.8449 0.8454 0.8459 0.8464 0.8468
1668.000000 0.8474 0.8480 0.8486 0.8493 0.8499
1673.000000 0.8506 0.8511 0.8517 0.8525 0.8533
1678.000000 0.8541 0.8549 0.8555 0.8560 0.8564
1683.000000 0.8568 0.8575 0.8583 0.8589 0.8595
1688.000000 0.8602 0.8608 0.8611 0.8601 0.8607
1693.000000 0.8605 0.8602 0.8599 0.8596 0.8593
1698.000000 0.8589 0.8586 0.8581 0.8566 0.8551
1703.000000 0.8536 0.8515 0.8494 0.8473 0.8451
1708.000000 0.8425 0.8399 0.8390 0.8391 0.8404
1713.000000 0.8411 0.8415 0.8406 0.8397 0.8386
1718.000000 0.8375 0.8373 0.8393 0.8408 0.8421
1723.000000 0.8424 0.8412 0.8401 0.8388 0.8430
1728.000000 0.8371 0.8387 0.8431 0.8484 0.8525
1733.000000 0.8561 0.8594 0.8609 0.8614 0.8618
1738.000000 0.8624 0.8628 0.8634 0.8639 0.8644
1743.000000 0.8646 0.8648 0.8650 0.8653 0.8655
1748.000000 0.8657 0.8660 0.8664 0.8667 0.8670
1753.000000 0.8673 0.8675 0.8678 0.8682 0.8685
1758.000000 0.8688 0.8691 0.8693 0.8695 0.8681
1763.000000 0.8688 0.8684 0.8680 0.8677 0.8673
1768.000000 0.8668 0.8664 0.8659 0.8654 0.8649
1773.000000 0.8644 0.8639 0.8634 0.8628 0.8625
1778.000000 0.8621 0.8618 0.8616 0.8613 0.8610
1783.000000 0.8611 0.8611 0.8617 0.8621 0.8627
1788.000000 0.8631 0.8631 0.8631 0.8631 0.8630
1793.000000 0.8630 0.8621 0.8609 0.8598 0.8586
1798.000000 0.8575 0.8561 0.8547 0.8535 0.8537
1803.000000 0.8539 0.8541 0.8543 0.8551 0.8564
1808.000000 0.8577 0.8590 0.8606 0.8625 0.8646
1813.000000 0.8665 0.8683 0.8701 0.8718 0.8723
1818.000000 0.8723 0.8721 0.8718 0.8716 0.8714
1823.000000 0.8711 0.8707 0.8703 0.8699 0.8696
1828.000000 0.8694 0.8691 0.8689 0.8687 0.8684
1833.000000 0.8682 0.8680 0.8678 0.8682 0.8684
1838.000000 0.8687 0.8690 0.8692 0.8694 0.8695
1843.000000 0.8695 0.8695 0.8693 0.8692 0.8690
1848.000000 0.8689 0.8687 0.8686 0.8685 0.8684
1853.000000 0.8683 0.8682 0.8680 0.8678 0.8678
1858.000000 0.8677 0.8675 0.8675 0.8677 0.8678
1863.000000 0.8678 0.8678 0.8680 0.8681 0.8682
1868.000000 0.8683 0.8688 0.8691 0.8693 0.8695
1873.000000 0.8698 0.8700 0.8702 0.8705 0.8704
1878.000000 0.8703 0.8701 0.8700 0.8696 0.8691
1883.000000 0.8686 0.8681 0.8675 0.8668 0.8659
1888.000000 0.8650 0.8640 0.8631 0.8621 0.8612
1893.000000 0.8602 0.8590 0.8578 0.8567 0.8555
1898.000000 0.8543 0.8532 0.8520 0.8508 0.8495
1903.000000 0.8482 0.8470 0.8457 0.8446 0.8442
1908.000000 0.8442 0.8443 0.8445 0.8449 0.8454
1913.000000 0.8459 0.8464 0.8470 0.8470 0.8470
1918.000000 0.8464 0.8458 0.8452 0.8446 0.8436
1923.000000 0.8423 0.8411 0.8397 0.8382 0.8368
1928.000000 0.8353 0.8340 0.8328 0.8317 0.8305
1933.000000 0.8293 0.8282 0.8270 0.8259 0.8247
1938.000000 0.8235 0.8221 0.8210 0.8198 0.8186
1943.000000 0.8178 0.8171 0.8169 0.8168 0.8174
1948.000000 0.8150 0.8202 0.8217 0.8236 0.8254
1953.000000 0.8274 0.8295 0.8321 0.8347 0.8358
1958.000000 0.8368 0.8368 0.8368 0.8367 0.8364
1963.000000 0.8362 0.8360 0.8365 0.8370 0.8377
1968.000000 0.8395 0.8414 0.8435 0.8460 0.8487
1973.000000 0.8516 0.8545 0.8581 0.8616 0.8651
1978.000000 0.8686 0.8715 0.8740 0.8765 0.8785
1983.000000 0.8800 0.8816 0.8832 0.8841 0.8849
1988.000000 0.8856 0.8864 0.8870 0.8874 0.8878
1993.000000 0.8882 0.8884 0.8885 0.8885 0.8886
1998.000000 0.8886 0.8887 0.8888 0.8889 0.8891
2003.000000 0.8891 0.8892 0.8895 0.8898 0.8901
2008.000000 0.8915 0.8907 0.8910 0.8912 0.8914
2013.000000 0.8916 0.8918 0.8920 0.8921 0.8921
2018.000000 0.8921 0.8921 0.8918 0.8917 0.8915
2023.000000 0.8912 0.8909 0.8903 0.8898 0.8890
2028.000000 0.8883 0.8874 0.8866 0.8856 0.8847
2033.000000 0.8836 0.8825 0.8815 0.8805 0.8794
2038.000000 0.8783 0.8771 0.8761 0.8749 0.8738
2043.000000 0.8725 0.8713 0.8699 0.8686 0.8673
2048.000000 0.8660 0.8652 0.8645 0.8644 0.8644
2053.000000 0.8643 0.8642 0.8641 0.8640 0.8638
2058.000000 0.8637 0.8634 0.8631 0.8628 0.8625
2063.000000 0.8621 0.8617 0.8608 0.8600 0.8591
2068.000000 0.8583 0.8575 0.8567 0.8550 0.8533
2073.000000 0.8513 0.8493 0.8473 0.8454 0.8438
2078.000000 0.8423 0.8414 0.8406 0.8403 0.8400
2083.000000 0.8401 0.8359 0.8403 0.8404 0.8427
2088.000000 0.8450 0.8471 0.8493 0.8525 0.8557
2093.000000 0.8577 0.8598 0.8609 0.8620 0.8631
2098.000000 0.8642 0.8653 0.8664 0.8668 0.8671
2103.000000 0.8674 0.8675 0.8675 0.8677 0.8677
2108.000000 0.8678 0.8678 0.8680 0.8681 0.8682
2113.000000 0.8682 0.8682 0.8682 0.8682 0.8682
2118.000000 0.8682 0.8682 0.8682 0.8681 0.8681
2123.000000 0.8680 0.8710 0.8677 0.8675 0.8675
2128.000000 0.8674 0.8671 0.8671 0.8668 0.8668
2133.000000 0.8666 0.8665 0.8663 0.8662 0.8660
2138.000000 0.8659 0.8658 0.8657 0.8656 0.8655
2143.000000 0.8654 0.8653 0.8649 0.8646 0.8642
2148.000000 0.8638 0.8634 0.8631 0.8627 0.8624
2153.000000 0.8620 0.8616 0.8611 0.8607 0.8600
2158.000000 0.8593 0.8586 0.8578 0.8571 0.8564
2163.000000 0.8557 0.8550 0.8541 0.8532 0.8521
2168.000000 0.8510 0.8499 0.8488 0.8477 0.8467
2173.000000 0.8455 0.8444 0.8425 0.8408 0.8390
2178.000000 0.8371 0.8353 0.8335 0.8314 0.8293
2183.000000 0.8268 0.8244 0.8220 0.8196 0.8161
2188.000000 0.8125 0.8081 0.8037 0.7991 0.7946
2193.000000 0.7897 0.7849 0.7821 0.7795 0.7796
2198.000000 0.7797 0.7821 0.7868 0.7958 0.8051
2203.000000 0.8143 0.8235 0.8305 0.8375 0.8386
2208.000000 0.8397 0.8403 0.8409 0.8408 0.8407
2213.000000 0.8406 0.8405 0.8403 0.8386 0.8398
2218.000000 0.8396 0.8393 0.8391 0.8388 0.8386
2223.000000 0.8383 0.8381 0.8378 0.8378 0.8375
2228.000000 0.8374 0.8371 0.8370 0.8367 0.8364
2233.000000 0.8361 0.8358 0.8355 0.8353 0.8350
2238.000000 0.8347 0.8344 0.8341 0.8337 0.8334
2243.000000 0.8328 0.8324 0.8318 0.8314 0.8309
2248.000000 0.8304 0.8298 0.8293 0.8288 0.8283
2253.000000 0.8278 0.8273 0.8267 0.8262 0.8255
2258.000000 0.8249 0.8243 0.8237 0.8231 0.8225
2263.000000 0.8218 0.8212 0.8206 0.8200 0.8193
2268.000000 0.8187 0.8178 0.8168 0.8160 0.8151
2273.000000 0.8143 0.8134 0.8125 0.8115 0.8101
2278.000000 0.8089 0.8072 0.8058 0.8044 0.8031
2283.000000 0.8017 0.8004 0.7990 0.7976 0.7962
2288.000000 0.7950 0.7936 0.7922 0.7908 0.7896
2293.000000 0.7885 0.7874 0.7865 0.7856 0.7846
2298.000000 0.7837 0.7826 0.7818 0.7808 0.7800
2303.000000 0.7790 0.7781 0.7771 0.7761 0.7753
2308.000000 0.7744 0.7736 0.7728 0.7722 0.7717
2313.000000 0.7711 0.7705 0.7699 0.7693 0.7687
2318.000000 0.7681 0.7675 0.7668 0.7662 0.7657
2323.000000 0.7651 0.7645 0.7639 0.7633 0.7626
2328.000000 0.7621 0.7615 0.7608 0.7603 0.7598
2333.000000 0.7592 0.7587 0.7582 0.7576 0.7571
2338.000000 0.7565 0.7560 0.7555 0.7549 0.7544
2343.000000 0.7539 0.7534 0.7528 0.7522 0.7517
2348.000000 0.7511 0.7506 0.7501 0.7496 0.7491
2353.000000 0.7486 0.7481 0.7478 0.7476 0.7475
2358.000000 0.7472 0.7471 0.7468 0.7467 0.7465
2363.000000 0.7464 0.7461 0.7460 0.7458 0.7456
2368.000000 0.7455 0.7453 0.7451 0.7449 0.7447
2373.000000 0.7444 0.7442 0.7438 0.7434 0.7430
2378.000000 0.7425 0.7421 0.7418 0.7412 0.7408
2383.000000 0.7392 0.7376 0.7358 0.7342 0.7319
2388.000000 0.7299 0.7278 0.7257 0.7234 0.7211
2393.000000 0.7188 0.7164 0.7140 0.7117 0.7093
2398.000000 0.7068 0.7043 0.7017 0.6975 0.6936
2403.000000 0.6895 0.6854 0.6811 0.6768 0.6724
2408.000000 0.6678 0.6608 0.6539 0.6439 0.6340
2413.000000 0.6240 0.6140 0.6040 0.5941 0.5841
2418.000000 0.5741 0.5641 0.5542 0.5442 0.5342
2423.000000 0.5267 0.5193 0.5198 0.5179 0.5469
2428.000000 0.5734 0.6012 0.6292 0.6571 0.6850
2433.000000 0.7008 0.7168 0.7171 0.7174 0.7176
2438.000000 0.7178 0.7176 0.7175 0.7169 0.7165
2443.000000 0.7147 0.7128 0.7094 0.7058 0.7030
2448.000000 0.7001 0.6971 0.6942 0.6911 0.6881
2453.000000 0.6847 0.6812 0.6771 0.6730 0.6700
2458.000000 0.6669 0.6640 0.6610 0.6540 0.6469
2463.000000 0.6390 0.6310 0.6231 0.6152 0.6072
2468.000000 0.5993 0.5912 0.5834 0.5754 0.5675
2473.000000 0.5620 0.5565 0.5569 0.5591 0.5627
2478.000000 0.5682 0.5737 0.5793 0.5848 0.5903
2483.000000 0.5958 0.6012 0.6028 0.6086 0.6010
2488.000000 0.5978 0.5940 0.5903 0.5865 0.5828
2493.000000 0.5790 0.5753 0.5715 0.5678 0.5640
2498.000000 0.5603 0.5565 0.5528 0.5399 0.5271
2503.000000 0.5130 0.4990 0.4849 0.4708 0.4567
2508.000000 0.4426 0.4285 0.4145 0.4004 0.3862
2513.000000 0.3722 0.3582 0.3441 0.3300 0.3230
2518.000000 0.3238 0.3169 0.3177 0.3216 0.3257
2523.000000 0.3380 0.3506 0.3626 0.3746 0.3864
2528.000000 0.3984 0.4104 0.4224 0.4344 0.4464
2533.000000 0.4562 0.4662 0.4653 0.4602 0.4614
2538.000000 0.4583 0.4536 0.4489 0.4442 0.4396
2543.000000 0.4349 0.4303 0.4256 0.4209 0.4162
2548.000000 0.4116 0.4068 0.4022 0.3975 0.3929
2553.000000 0.3882 0.3836 0.3789 0.3742 0.3695
2558.000000 0.3649 0.3602 0.3556 0.3509 0.3462
2563.000000 0.3414 0.3368 0.3353 0.3338 0.3338
2568.000000 0.3312 0.3350 0.3360 0.3516 0.3671
2573.000000 0.3826 0.3980 0.4136 0.4292 0.4447
2578.000000 0.4602 0.4757 0.4912 0.5067 0.5222
2583.000000 0.5377 0.5532 0.5635 0.5739 0.5850
2588.000000 0.5962 0.6003 0.6045 0.6060 0.6077
2593.000000 0.6084 0.6081 0.6090 0.6089 0.6081
2598.000000 0.6073 0.6060 0.6047 0.6024 0.6001
2603.000000 0.5978 0.5955 0.5933 0.5912 0.5891
2608.000000 0.5870 0.5847 0.5824 0.5794 0.5765
2613.000000 0.5693 0.5621 0.5530 0.5440 0.5349
2618.000000 0.5258 0.5167 0.5077 0.4986 0.4896
2623.000000 0.4807 0.4718 0.4714 0.4710 0.4739
2628.000000 0.4767 0.4773 0.4780 0.4747 0.4715
2633.000000 0.4641 0.4568 0.4494 0.4421 0.4347
2638.000000 0.4273 0.4199 0.4126 0.4052 0.3979
2643.000000 0.3905 0.3830 0.3757 0.3684 0.3658
2648.000000 0.3632 0.3609 0.3586 0.3562 0.3540
2653.000000 0.3516 0.3492 0.3452 0.3412 0.3373
2658.000000 0.3334 0.3294 0.3255 0.3204 0.3153
2663.000000 0.3085 0.3020 0.2954 0.2888 0.2821
2668.000000 0.2755 0.2689 0.2623 0.2556 0.2490
2673.000000 0.2435 0.2382 0.2384 0.2387 0.2408
2678.000000 0.2429 0.2449 0.2470 0.2477 0.2484
2683.000000 0.2462 0.2440 0.2389 0.2338 0.2287
2688.000000 0.2237 0.2185 0.2134 0.2089 0.2044
2693.000000 0.2060 0.2076 0.2126 0.2177 0.2227
2698.000000 0.2278 0.2323 0.2369 0.2367 0.2365
2703.000000 0.2345 0.2326 0.2288 0.2250 0.2212
2708.000000 0.2174 0.2135 0.2099 0.2061 0.2023
2713.000000 0.1984 0.1948 0.1950 0.1953 0.1986
2718.000000 0.2022 0.2056 0.2091 0.2125 0.2160
2723.000000 0.2194 0.2229 0.2234 0.2241 0.2240
2728.000000 0.2240 0.2234 0.2266 0.2221 0.2215
2733.000000 0.2204 0.2194 0.2180 0.2166 0.2150
2738.000000 0.2134 0.2118 0.2101 0.2084 0.2067
2743.000000 0.2034 0.2004 0.1961 0.1918 0.1877
2748.000000 0.1836 0.1796 0.1757 0.1677 0.1596
2753.000000 0.1512 0.1427 0.1342 0.1257 0.1171
2758.000000 0.1086 0.1001 0.0916 0.0831 0.0746
2763.000000 0.0703 0.0660 0.0650 0.0641 0.0637
2768.000000 0.0633 0.0631 0.0631 0.0631 0.0632
2773.000000 0.0633 0.0634 0.0650 0.0667 0.0695
2778.000000 0.0724 0.0780 0.0836 0.0919 0.1002
2783.000000 0.1085 0.1169 0.1252 0.1335 0.1418
2788.000000 0.1502 0.1585 0.1669 0.1717 0.1766
2793.000000 0.1766 0.1794 0.1752 0.1737 0.1693
2798.000000 0.1649 0.1604 0.1560 0.1515 0.1471
2803.000000 0.1426 0.1382 0.1337 0.1292 0.1248
2808.000000 0.1204 0.1198 0.1189 0.1261 0.1330
2813.000000 0.1417 0.1504 0.1591 0.1678 0.1765
2818.000000 0.1852 0.1937 0.2025 0.2112 0.2199
2823.000000 0.2285 0.2373 0.2434 0.2495 0.2491
2828.000000 0.2488 0.2459 0.2553 0.2401 0.2371
2833.000000 0.2341 0.2311 0.2281 0.2251 0.2220
2838.000000 0.2190 0.2160 0.2130 0.2100 0.2070
2843.000000 0.2040 0.2010 0.1994 0.1979 0.1981
2848.000000 0.1959 0.2036 0.2092 0.2174 0.2257
2853.000000 0.2339 0.2421 0.2503 0.2584 0.2660
2858.000000 0.2735 0.2734 0.2734 0.2713 0.2803
2863.000000 0.2649 0.2606 0.2563 0.2520 0.2477
2868.000000 0.2434 0.2391 0.2348 0.2305 0.2262
2873.000000 0.2219 0.2177 0.2134 0.2091 0.2064
2878.000000 0.2045 0.2037 0.2037 0.2149 0.2260
2883.000000 0.2397 0.2534 0.2670 0.2807 0.2944
2888.000000 0.3081 0.3216 0.3354 0.3350 0.3405
2893.000000 0.3341 0.3334 0.3296 0.3258 0.3192
2898.000000 0.3126 0.3060 0.2994 0.2928 0.2862
2903.000000 0.2805 0.2748 0.2733 0.2718 0.2703
2908.000000 0.2689 0.2674 0.2659 0.2644 0.2630
2913.000000 0.2615 0.2601 0.2580 0.2559 0.2534
2918.000000 0.2512 0.2484 0.2457 0.2413 0.2369
2923.000000 0.2323 0.2278 0.2233 0.2189 0.2151
2928.000000 0.2114 0.2076 0.2039 0.1992 0.1944
2933.000000 0.1894 0.1844 0.1786 0.1731 0.1674
2938.000000 0.1618 0.1560 0.1502 0.1444 0.1386
2943.000000 0.1341 0.1296 0.1256 0.1216 0.1196
2948.000000 0.1178 0.1179 0.1210 0.1185 0.1190
2953.000000 0.1196 0.1203 0.1221 0.1239 0.1257
2958.000000 0.1275 0.1296 0.1319 0.1342 0.1367
2963.000000 0.1392 0.1418 0.1456 0.1495 0.1534
2968.000000 0.1573 0.1618 0.1664 0.1709 0.1754
2973.000000 0.1786 0.1820 0.1850 0.1881 0.1911
2978.000000 0.1942 0.1972 0.2003 0.2064 0.2125
2983.000000 0.2172 0.2220 0.2252 0.2284 0.2346
2988.000000 0.2409 0.2466 0.2523 0.2624 0.2726
2993.000000 0.2828 0.2930 0.3032 0.3134 0.3234
2998.000000 0.3337 0.3439 0.3541 0.3600 0.3659
3003.000000 0.3737 0.3814 0.3900 0.3987 0.4087
3008.000000 0.4188 0.4295 0.4403 0.4505 0.4608
3013.000000 0.4712 0.4816 0.4935 0.5054 0.5162
3018.000000 0.5273 0.5366 0.5460 0.5535 0.5610
3023.000000 0.5682 0.5754 0.5810 0.5869 0.5924
3028.000000 0.5980 0.6070 0.6160 0.6252 0.6343
3033.000000 0.6415 0.6489 0.6533 0.6578 0.6612
3038.000000 0.6649 0.6684 0.6719 0.6753 0.6787
3043.000000 0.6818 0.6850 0.6882 0.6914 0.6945
3048.000000 0.6976 0.7007 0.7037 0.7067 0.7097
3053.000000 0.7125 0.7156 0.7184 0.7212 0.7236
3058.000000 0.7260 0.7284 0.7308 0.7331 0.7355
3063.000000 0.7378 0.7401 0.7425 0.7449 0.7464
3068.000000 0.7478 0.7492 0.7506 0.7519 0.7534
3073.000000 0.7548 0.7561 0.7575 0.7589 0.7603
3078.000000 0.7617 0.7630 0.7644 0.7658 0.7671
3083.000000 0.7682 0.7693 0.7703 0.7712 0.7722
3088.000000 0.7734 0.7744 0.7754 0.7764 0.7775
3093.000000 0.7785 0.7795 0.7801 0.7808 0.7815
3098.000000 0.7821 0.7828 0.7835 0.7841 0.7847
3103.000000 0.7853 0.7860 0.7865 0.7872 0.7878
3108.000000 0.7885 0.7891 0.7897 0.7901 0.7908
3113.000000 0.7914 0.7919 0.7925 0.7932 0.7938
3118.000000 0.7944 0.7949 0.7955 0.7961 0.7967
3123.000000 0.7972 0.7978 0.7984 0.7990 0.7995
3128.000000 0.8001 0.8007 0.8012 0.8018 0.8024
3133.000000 0.8030 0.8036 0.8041 0.8047 0.8053
3138.000000 0.8058 0.8065 0.8071 0.8078 0.8085
3143.000000 0.8091 0.8098 0.8104 0.8110 0.8115
3148.000000 0.8122 0.8128 0.8135 0.8137 0.8139
3153.000000 0.8141 0.8144 0.8146 0.8148 0.8150
3158.000000 0.8151 0.8154 0.8156 0.8157 0.8157
3163.000000 0.8156 0.8154 0.8153 0.8153 0.8144
3168.000000 0.8138 0.8128 0.8119 0.8111 0.8101
3173.000000 0.8092 0.8082 0.8071 0.8061 0.8050
3178.000000 0.8038 0.8022 0.8008 0.7992 0.7976
3183.000000 0.7961 0.7946 0.7931 0.7915 0.7904
3188.000000 0.7893 0.7883 0.7874 0.7868 0.7861
3193.000000 0.7858 0.7856 0.7854 0.7854 0.7855
3198.000000 0.7858 0.7862 0.7867 0.7880 0.7894
3203.000000 0.7911 0.7928 0.7953 0.7978 0.8001
3208.000000 0.8026 0.8048 0.8069 0.8088 0.8107
3213.000000 0.8119 0.8134 0.8144 0.8154 0.8158
3218.000000 0.8161 0.8165 0.8168 0.8172 0.8176
3223.000000 0.8178 0.8178 0.8180 0.8181 0.8182
3228.000000 0.8183 0.8184 0.8185 0.8185 0.8186
3233.000000 0.8186 0.8186 0.8186 0.8186 0.8185
3238.000000 0.8185 0.8185 0.8185 0.8185 0.8185
3243.000000 0.8184 0.8183 0.8181 0.8180 0.8178
3248.000000 0.8178 0.8175 0.8175 0.8174 0.8172
3253.000000 0.8171 0.8169 0.8168 0.8144 0.8165
3258.000000 0.8165 0.8162 0.8161 0.8160 0.8158
3263.000000 0.8156 0.8154 0.8151 0.8151 0.8149
3268.000000 0.8147 0.8145 0.8144 0.8141 0.8138
3273.000000 0.8134 0.8131 0.8128 0.8125 0.8121
3278.000000 0.8118 0.8115 0.8111 0.8108 0.8106
3283.000000 0.8103 0.8100 0.8096 0.8092 0.8086
3288.000000 0.8081 0.8075 0.8071 0.8065 0.8061
3293.000000 0.8055 0.8050 0.8045 0.8040 0.8034
3298.000000 0.8028 0.8024 0.8018 0.8014 0.8008
3303.000000 0.8001 0.7996 0.7989 0.7983 0.7975
3308.000000 0.7969 0.7962 0.7957 0.7950 0.7944
3313.000000 0.7938 0.7932 0.7925 0.7918 0.7912
3318.000000 0.7907 0.7901 0.7895 0.7889 0.7883
3323.000000 0.7875 0.7869 0.7868 0.7868 0.7867
3328.000000 0.7865 0.7865 0.7864 0.7861 0.7861
3333.000000 0.7858 0.7858 0.7857 0.7856 0.7854
3338.000000 0.7853 0.7851 0.7849 0.7841 0.7834
3343.000000 0.7826 0.7819 0.7806 0.7793 0.7778
3348.000000 0.7765 0.7753 0.7741 0.7728 0.7717
3353.000000 0.7704 0.7692 0.7680 0.7668 0.7658
3358.000000 0.7650 0.7640 0.7631 0.7621 0.7611
3363.000000 0.7601 0.7592 0.7581 0.7571 0.7561
3368.000000 0.7551 0.7541 0.7531 0.7519 0.7510
3373.000000 0.7498 0.7487 0.7474 0.7461 0.7448
3378.000000 0.7435 0.7421 0.7408 0.7396 0.7383
3383.000000 0.7369 0.7357 0.7342 0.7326 0.7310
3388.000000 0.7293 0.7275 0.7258 0.7240 0.7222
3393.000000 0.7205 0.7188 0.7169 0.7153 0.7126
3398.000000 0.7101 0.7068 0.7037 0.7004 0.6971
3403.000000 0.6938 0.6905 0.6854 0.6804 0.6753
3408.000000 0.6703 0.6647 0.6591 0.6530 0.6469
3413.000000 0.6357 0.6244 0.6109 0.5975 0.5840
3418.000000 0.5705 0.5570 0.5436 0.5301 0.5166
3423.000000 0.5031 0.4896 0.4760 0.4627 0.4496
3428.000000 0.4366 0.4367 0.4400 0.4376 0.4384
3433.000000 0.4475 0.4567 0.4693 0.4819 0.4945
3438.000000 0.5072 0.5198 0.5324 0.5450 0.5577
3443.000000 0.5703 0.5829 0.5955 0.6082 0.6137
3448.000000 0.6193 0.6193 0.6194 0.6188 0.6176
3453.000000 0.6175 0.6168 0.6151 0.6135 0.6100
3458.000000 0.6065 0.5952 0.5839 0.5703 0.5568
3463.000000 0.5432 0.5297 0.5160 0.5026 0.4890
3468.000000 0.4755 0.4620 0.4485 0.4349 0.4214
3473.000000 0.4078 0.3943 0.3807 0.3672 0.3536
3478.000000 0.3400 0.3266 0.3131 0.2995 0.2860
3483.000000 0.2724 0.2589 0.2453 0.2318 0.2254
3488.000000 0.2191 0.2197 0.2203 0.2299 0.2239
3493.000000 0.2528 0.2661 0.2794 0.2927 0.3060
3498.000000 0.3193 0.3326 0.3459 0.3592 0.3725
3503.000000 0.3858 0.3991 0.4124 0.4257 0.4390
3508.000000 0.4523 0.4656 0.4789 0.4922 0.5055
3513.000000 0.5188 0.5321 0.5454 0.5587 0.5720
3518.000000 0.5853 0.5977 0.6101 0.6236 0.6372
3523.000000 0.6435 0.6499 0.6621 0.6743 0.6884
3528.000000 0.7025 0.7089 0.7154 0.7218 0.7282
3533.000000 0.7337 0.7392 0.7444 0.7496 0.7540
3538.000000 0.7585 0.7617 0.7649 0.7676 0.7706
3543.000000 0.7724 0.7743 0.7756 0.7769 0.7783
3548.000000 0.7796 0.7806 0.7817 0.7828 0.7839
3553.000000 0.7849 0.7858 0.7868 0.7878 0.7885
3558.000000 0.7893 0.7898 0.7903 0.7907 0.7911
3563.000000 0.7914 0.7917 0.7919 0.7922 0.7925
3568.000000 0.7930 0.7933 0.7936 0.7939 0.7942
3573.000000 0.7944 0.7947 0.7948 0.7949 0.7950
3578.000000 0.7951 0.7953 0.7955 0.7956 0.7957
3583.000000 0.7958 0.7961 0.7965 0.7968 0.7972
3588.000000 0.7976 0.7982 0.7988 0.7999 0.8010
3593.000000 0.8019 0.8031 0.8043 0.8055 0.8071
3598.000000 0.8089 0.8107 0.8125 0.8147 0.8169
3603.000000 0.8202 0.8234 0.8259 0.8285 0.8307
3608.000000 0.8328 0.8341 0.8353 0.8361 0.8370
3613.000000 0.8378 0.8387 0.8395 0.8404 0.8412
3618.000000 0.8420 0.8424 0.8428 0.8432 0.8436
3623.000000 0.8440 0.8444 0.8448 0.8452 0.8456
3628.000000 0.8460 0.8464 0.8468 0.8471 0.8474
3633.000000 0.8474 0.8474 0.8474 0.8475 0.8475
3638.000000 0.8475 0.8475 0.8477 0.8477 0.8478
3643.000000 0.8478 0.8478 0.8478 0.8478 0.8478
3648.000000 0.8478 0.8478 0.8478 0.8477 0.8477
3653.000000 0.8475 0.8475 0.8475 0.8475 0.8474
3658.000000 0.8473 0.8471 0.8471 0.8471 0.8471
3663.000000 0.8470 0.8470 0.8468 0.8468 0.8468
3668.000000 0.8468 0.8467 0.8466 0.8465 0.8465
3673.000000 0.8464 0.8463 0.8462 0.8461 0.8460
3678.000000 0.8460 0.8459 0.8458 0.8457 0.8456
3683.000000 0.8455 0.8454 0.8453 0.8453 0.8452
3688.000000 0.8451 0.8450 0.8449 0.8448 0.8447
3693.000000 0.8445 0.8444 0.8443 0.8442 0.8440
3698.000000 0.8439 0.8438 0.8437 0.8435 0.8434
3703.000000 0.8433 0.8432 0.8430 0.8428 0.8428
3708.000000 0.8427 0.8425 0.8425 0.8423 0.8421
3713.000000 0.8421 0.8420 0.8418 0.8417 0.8415
3718.000000 0.8414 0.8413 0.8412 0.8410 0.8409
3723.000000 0.8407 0.8406 0.8404 0.8403 0.8402
3728.000000 0.8401 0.8400 0.8400 0.8396 0.8395
3733.000000 0.8394 0.8393 0.8391 0.8390 0.8388
3738.000000 0.8387 0.8386 0.8385 0.8383 0.8382
3743.000000 0.8380 0.8378 0.8377 0.8375 0.8375
3748.000000 0.8374 0.8371 0.8371 0.8370 0.8368
3753.000000 0.8368 0.8367 0.8365 0.8364 0.8363
3758.000000 0.8362 0.8361 0.8360 0.8358 0.8357
3763.000000 0.8356 0.8355 0.8354 0.8353 0.8352
3768.000000 0.8351 0.8349 0.8348 0.8347 0.8346
3773.000000 0.8345 0.8344 0.8342 0.8341 0.8340
3778.000000 0.8340 0.8340 0.8340 0.8339 0.8339
3783.000000 0.8338 0.8338 0.8337 0.8337 0.8336
3788.000000 0.8336 0.8335 0.8335 0.8335 0.8335
3793.000000 0.8334 0.8334 0.8333 0.8333 0.8332
3798.000000 0.8332 0.8332 0.8332
##END=
