##TITLE=p-CHLORO-N-(2,3,4,4,5,6-HEXACHLORO-2,5-CYCLOHEXADIENYLIDENE)ANILINE
##JCAMP-DX=4.24
##DATA TYPE=INFRARED SPECTRUM
##CLASS=COBLENTZ
##ORIGIN=DOW CHEMICAL COMPANY
##OWNER=COBLENTZ SOCIETY
Collection (C) 2018 copyright by the U.S. Secretary of Commerce
on behalf of the United States of America. All rights reserved.
##DATE=Not specified, most likely prior to 1970
##NAMES=N-(4-chlorophenyl)-N-(2,3,4,4,5,6-hexachloro-2,5-cyclohexadien-1-ylidene)amine
4-chloro-N-(2,3,4,4,5,6-hexachloro-2,5-cyclohexadien-1-ylidene)aniline
##MOLFORM=C12 H4 Cl7 N
##SOURCE REFERENCE=COBLENTZ NO. 1832
##$NIST ID=B6001832
##$NIST SOURCE=COBLENTZ
##$NIST IMAGE=cob1832
##SPECTROMETER/DATA SYSTEM=Not specified, most likely a prism, grating, or hybrid spectrometer.
##STATE=SOLID (MINERAL OIL MULL)
##PATH LENGTH=
$$SPECTRAL CONTAMINATION DUE TO OIL AROUND 2900, 1450, 1380 CM^-^1
##SAMPLING PROCEDURE=TRANSMISSION
##RESOLUTION=4
##DATA PROCESSING=DIGITIZED BY NIST FROM HARD COPY
##XUNITS=MICROMETERS
##YUNITS=TRANSMITTANCE
##XFACTOR=1.000000
##YFACTOR=1
##DELTAX=000.006856
##FIRSTX=2.062
##LASTX=15.89
##FIRSTY=0.7
##MAXX=15.89
##MINX=2.062
##MAXY=0.9
##MINY=0.027
##NPOINTS=2018
##XYDATA=(X++(Y..Y))
2.062000 0.7000 0.7000 0.7020 0.7020 0.7020
2.096297 0.7020 0.7020 0.7020 0.7020 0.7020
2.130000 0.7040 0.7040 0.7040 0.7040 0.7050
2.164297 0.7070 0.7070 0.7090 0.7110 0.7110
2.199000 0.7110 0.7110 0.7110 0.7110 0.7090
2.233297 0.7090 0.7050 0.7040 0.7020 0.7000
2.267000 0.7000 0.6990 0.6990 0.6990 0.6990
2.301297 0.6990 0.6990 0.6990 0.6990 0.6990
2.336000 0.7000 0.7020 0.7020 0.7040 0.7050
2.370297 0.7070 0.7090 0.7110 0.7110 0.7120
2.405000 0.7140 0.7160 0.7170 0.7190 0.7190
2.439297 0.7210 0.7240 0.7280 0.7290 0.7290
2.473000 0.7330 0.7380 0.7400 0.7410 0.7410
2.507297 0.7430 0.7430 0.7430 0.7430 0.7430
2.542000 0.7430 0.7470 0.7470 0.7470 0.7480
2.576297 0.7480 0.7500 0.7520 0.7530 0.7530
2.610000 0.7570 0.7570 0.7580 0.7580 0.7580
2.644297 0.7600 0.7600 0.7600 0.7600 0.7600
2.679000 0.7580 0.7580 0.7580 0.7600 0.7600
2.713297 0.7620 0.7620 0.7640 0.7640 0.7640
2.747000 0.7640 0.7640 0.7640 0.7640 0.7640
2.781297 0.7640 0.7620 0.7620 0.7600 0.7580
2.816000 0.7580 0.7580 0.7570 0.7570 0.7570
2.850297 0.7570 0.7570 0.7550 0.7550 0.7550
2.884000 0.7550 0.7550 0.7530 0.7530 0.7520
2.918297 0.7520 0.7500 0.7480 0.7470 0.7450
2.953000 0.7430 0.7430 0.7430 0.7430 0.7430
2.987297 0.7430 0.7430 0.7430 0.7410 0.7410
3.022000 0.7400 0.7360 0.7360 0.7350 0.7350
3.056297 0.7350 0.7350 0.7350 0.7330 0.7330
3.090000 0.7330 0.7330 0.7330 0.7330 0.7330
3.124297 0.7330 0.7350 0.7350 0.7350 0.7360
3.159000 0.7380 0.7400 0.7400 0.7400 0.7400
3.193297 0.7400 0.7400 0.7400 0.7400 0.7380
3.227000 0.7360 0.7350 0.7330 0.7310 0.7290
3.261297 0.7260 0.7210 0.7110 0.7050 0.6970
3.296000 0.6870 0.6710 0.6580 0.6220 0.5700
3.330297 0.5070 0.4730 0.4370 0.3640 0.2470
3.364000 0.1960 0.1570 0.0900 0.0290 0.0270
3.398297 0.0300 0.0420 0.0560 0.0580 0.0780
3.433000 0.0940 0.1070 0.1170 0.1210 0.1230
3.467297 0.1240 0.1290 0.1480 0.1910 0.2560
3.501000 0.2990 0.4110 0.4850 0.6150 0.6370
3.535297 0.6710 0.6950 0.7160 0.7210 0.7310
3.570000 0.7430 0.7550 0.7620 0.7670 0.7720
3.604297 0.7770 0.7790 0.7790 0.7790 0.7790
3.639000 0.7790 0.7790 0.7760 0.7740 0.7720
3.673297 0.7720 0.7720 0.7720 0.7720 0.7790
3.707000 0.7840 0.7860 0.7860 0.7860 0.7840
3.741297 0.7820 0.7820 0.7820 0.7820 0.7820
3.776000 0.7820 0.7820 0.7880 0.7930 0.7980
3.810297 0.8000 0.8010 0.8010 0.8030 0.8030
3.844000 0.8050 0.8050 0.8060 0.8060 0.8060
3.878297 0.8080 0.8100 0.8130 0.8150 0.8180
3.913000 0.8220 0.8250 0.8250 0.8290 0.8320
3.947297 0.8320 0.8320 0.8320 0.8320 0.8320
3.981000 0.8340 0.8340 0.8350 0.8350 0.8350
4.015297 0.8370 0.8370 0.8390 0.8390 0.8390
4.050000 0.8390 0.8390 0.8390 0.8390 0.8390
4.084297 0.8390 0.8390 0.8410 0.8410 0.8410
4.119000 0.8410 0.8410 0.8420 0.8440 0.8460
4.153297 0.8470 0.8490 0.8510 0.8520 0.8520
4.187000 0.8520 0.8520 0.8540 0.8540 0.8540
4.221297 0.8540 0.8560 0.8560 0.8560 0.8560
4.256000 0.8560 0.8560 0.8560 0.8560 0.8560
4.290297 0.8560 0.8560 0.8560 0.8560 0.8560
4.324000 0.8580 0.8590 0.8590 0.8610 0.8610
4.358297 0.8630 0.8630 0.8630 0.8640 0.8640
4.393000 0.8640 0.8640 0.8660 0.8660 0.8660
4.427297 0.8660 0.8660 0.8660 0.8660 0.8660
4.461000 0.8660 0.8660 0.8660 0.8660 0.8660
4.495297 0.8660 0.8660 0.8660 0.8660 0.8660
4.530000 0.8660 0.8660 0.8660 0.8660 0.8660
4.564297 0.8660 0.8660 0.8660 0.8660 0.8660
4.598000 0.8660 0.8680 0.8680 0.8680 0.8700
4.632297 0.8700 0.8700 0.8700 0.8710 0.8710
4.667000 0.8710 0.8710 0.8710 0.8710 0.8710
4.701297 0.8710 0.8710 0.8710 0.8730 0.8710
4.736000 0.8710 0.8730 0.8730 0.8730 0.8730
4.770297 0.8730 0.8750 0.8750 0.8750 0.8750
4.804000 0.8750 0.8760 0.8760 0.8760 0.8780
4.838297 0.8780 0.8780 0.8800 0.8800 0.8820
4.873000 0.8820 0.8820 0.8820 0.8820 0.8820
4.907297 0.8820 0.8820 0.8820 0.8820 0.8820
4.941000 0.8830 0.8830 0.8850 0.8870 0.8870
4.975297 0.8870 0.8870 0.8880 0.8880 0.8880
5.010000 0.8900 0.8900 0.8900 0.8900 0.8920
5.044297 0.8920 0.8920 0.8920 0.8920 0.8920
5.078000 0.8920 0.8920 0.8920 0.8920 0.8920
5.112297 0.8920 0.8920 0.8920 0.8920 0.8940
5.147000 0.8940 0.8940 0.8940 0.8940 0.8940
5.181297 0.8940 0.8940 0.8940 0.8940 0.8940
5.215000 0.8940 0.8940 0.8940 0.8940 0.8940
5.249297 0.8940 0.8940 0.8940 0.8920 0.8920
5.284000 0.8920 0.8900 0.8900 0.8900 0.8900
5.318297 0.8920 0.8940 0.8940 0.8950 0.8950
5.353000 0.8950 0.8950 0.8950 0.8950 0.8950
5.387297 0.8950 0.8950 0.8950 0.8950 0.8950
5.421000 0.8950 0.8950 0.8950 0.8950 0.8950
5.455297 0.8970 0.8970 0.8970 0.8990 0.8990
5.490000 0.9000 0.9000 0.9000 0.9000 0.9000
5.524297 0.9000 0.9000 0.9000 0.9000 0.9000
5.558000 0.9000 0.9000 0.9000 0.9000 0.9000
5.592297 0.9000 0.9000 0.9000 0.9000 0.9000
5.627000 0.9000 0.9000 0.9000 0.9000 0.9000
5.661297 0.9000 0.8990 0.8990 0.8990 0.8970
5.695000 0.8970 0.8950 0.8950 0.8950 0.8950
5.729297 0.8950 0.8950 0.8950 0.8950 0.8950
5.764000 0.8940 0.8940 0.8940 0.8940 0.8920
5.798297 0.8880 0.8850 0.8820 0.8680 0.8590
5.833000 0.8390 0.8100 0.7910 0.7520 0.7290
5.867297 0.6970 0.6710 0.6370 0.6300 0.6300
5.901000 0.6320 0.6580 0.6950 0.7260 0.7570
5.935297 0.7910 0.8110 0.8300 0.8340 0.8340
5.970000 0.8340 0.8350 0.8350 0.8350 0.8350
6.004297 0.8340 0.8290 0.8220 0.8180 0.8150
6.038000 0.8130 0.8130 0.8130 0.8130 0.8150
6.072297 0.8180 0.8220 0.8250 0.8290 0.8300
6.107000 0.8340 0.8350 0.8350 0.8340 0.8320
6.141297 0.8300 0.8290 0.8230 0.8200 0.8200
6.175000 0.8130 0.8060 0.8050 0.7980 0.7930
6.209297 0.7910 0.7910 0.7910 0.7890 0.7820
6.244000 0.7770 0.7700 0.7550 0.7380 0.7020
6.278297 0.6760 0.6370 0.6080 0.5880 0.5820
6.312000 0.5860 0.5980 0.6270 0.6660 0.7020
6.346297 0.7310 0.7470 0.7570 0.7640 0.7650
6.381000 0.7650 0.7640 0.7620 0.7600 0.7580
6.415297 0.7520 0.7500 0.7480 0.7480 0.7480
6.450000 0.7480 0.7480 0.7480 0.7480 0.7500
6.484297 0.7520 0.7520 0.7530 0.7530 0.7570
6.518000 0.7580 0.7580 0.7580 0.7580 0.7580
6.552297 0.7580 0.7580 0.7580 0.7580 0.7530
6.587000 0.7520 0.7500 0.7450 0.7380 0.7290
6.621297 0.7240 0.7160 0.7050 0.7000 0.6970
6.655000 0.6940 0.6920 0.6900 0.6850 0.6820
6.689297 0.6800 0.6760 0.6750 0.6730 0.6640
6.724000 0.6630 0.6520 0.6370 0.6180 0.5880
6.758297 0.5500 0.5110 0.4900 0.4680 0.4290
6.792000 0.3910 0.3640 0.3430 0.3330 0.3240
6.826297 0.3240 0.3240 0.3240 0.3330 0.3640
6.861000 0.3810 0.4080 0.4350 0.4630 0.4850
6.895297 0.5240 0.5410 0.5580 0.5770 0.6000
6.929000 0.6250 0.6520 0.6760 0.6970 0.7170
6.963297 0.7330 0.7500 0.7520 0.7530 0.7550
6.998000 0.7550 0.7570 0.7570 0.7570 0.7570
7.032297 0.7580 0.7580 0.7620 0.7620 0.7650
7.067000 0.7690 0.7740 0.7810 0.7810 0.7810
7.101297 0.7810 0.7820 0.7840 0.7860 0.7860
7.135000 0.7880 0.7880 0.7860 0.7820 0.7760
7.169297 0.7620 0.7120 0.6780 0.6410 0.6030
7.204000 0.5650 0.5280 0.5260 0.5000 0.4950
7.238297 0.4880 0.4870 0.4870 0.4880 0.5330
7.272000 0.5570 0.5930 0.6080 0.6230 0.6390
7.306297 0.6540 0.6700 0.6800 0.7070 0.7230
7.341000 0.7330 0.7470 0.7550 0.7620 0.7650
7.375297 0.7670 0.7700 0.7720 0.7760 0.7790
7.409000 0.7810 0.7810 0.7810 0.7810 0.7820
7.443297 0.7860 0.7890 0.7910 0.7930 0.8000
7.478000 0.8010 0.8010 0.8030 0.8030 0.8030
7.512297 0.8030 0.8030 0.8030 0.8050 0.8060
7.547000 0.8060 0.8050 0.8050 0.8030 0.8000
7.581297 0.7930 0.7880 0.7860 0.7840 0.7820
7.615000 0.7810 0.7810 0.7790 0.7770 0.7770
7.649297 0.7760 0.7760 0.7740 0.7740 0.7740
7.684000 0.7740 0.7740 0.7740 0.7760 0.7760
7.718297 0.7760 0.7770 0.7790 0.7790 0.7790
7.752000 0.7760 0.7720 0.7640 0.7570 0.7520
7.786297 0.7480 0.7430 0.7380 0.7310 0.7210
7.821000 0.7170 0.7070 0.7000 0.6970 0.6830
7.855297 0.6730 0.6710 0.6710 0.6710 0.6730
7.889000 0.6870 0.7000 0.7190 0.7380 0.7480
7.923297 0.7650 0.7740 0.7810 0.7860 0.7890
7.958000 0.7910 0.7930 0.7960 0.7980 0.7980
7.992297 0.7980 0.7980 0.8000 0.8000 0.8000
8.026000 0.8010 0.8010 0.8010 0.8010 0.8030
8.060297 0.8030 0.8030 0.8050 0.8050 0.8060
8.095000 0.8060 0.8080 0.8100 0.8110 0.8110
8.129297 0.8130 0.8150 0.8150 0.8180 0.8180
8.164000 0.8220 0.8230 0.8230 0.8250 0.8250
8.198297 0.8250 0.8250 0.8250 0.8250 0.8250
8.232000 0.8230 0.8230 0.8220 0.8200 0.8200
8.266297 0.8150 0.8130 0.8110 0.8050 0.8010
8.301000 0.7980 0.7910 0.7890 0.7840 0.7820
8.335297 0.7810 0.7790 0.7790 0.7810 0.7810
8.369000 0.7820 0.7880 0.7890 0.7910 0.7960
8.403297 0.8000 0.8010 0.8010 0.8050 0.8050
8.438000 0.8050 0.8030 0.8030 0.8010 0.8010
8.472297 0.8010 0.8000 0.8000 0.7980 0.7980
8.506000 0.7960 0.7940 0.7910 0.7890 0.7890
8.540297 0.7840 0.7840 0.7820 0.7810 0.7790
8.575000 0.7790 0.7770 0.7770 0.7790 0.7810
8.609297 0.7810 0.7820 0.7840 0.7840 0.7860
8.643000 0.7880 0.7910 0.7930 0.7940 0.7980
8.677297 0.8010 0.8030 0.8030 0.8060 0.8060
8.712000 0.8100 0.8110 0.8130 0.8130 0.8150
8.746297 0.8150 0.8170 0.8170 0.8180 0.8180
8.781000 0.8200 0.8200 0.8200 0.8200 0.8220
8.815297 0.8220 0.8220 0.8200 0.8200 0.8200
8.849000 0.8200 0.8180 0.8130 0.8060 0.8010
8.883297 0.7960 0.7880 0.7790 0.7760 0.7650
8.918000 0.7550 0.7410 0.7160 0.6950 0.6630
8.952297 0.6230 0.5770 0.5310 0.5110 0.4880
8.986000 0.4560 0.4350 0.4100 0.3890 0.3880
9.020297 0.3910 0.4460 0.4950 0.5670 0.6030
9.055000 0.6320 0.6540 0.6680 0.6820 0.6940
9.089297 0.7020 0.7040 0.7090 0.7090 0.7090
9.123000 0.7090 0.7090 0.7090 0.7090 0.7090
9.157297 0.7090 0.7090 0.7110 0.7110 0.7120
9.192000 0.7160 0.7190 0.7230 0.7290 0.7360
9.226297 0.7430 0.7500 0.7550 0.7620 0.7700
9.261000 0.7740 0.7810 0.7880 0.7930 0.7960
9.295297 0.8000 0.8010 0.8030 0.8050 0.8080
9.329000 0.8100 0.8110 0.8110 0.8130 0.8150
9.363297 0.8180 0.8200 0.8230 0.8250 0.8270
9.398000 0.8290 0.8290 0.8300 0.8300 0.8300
9.432297 0.8300 0.8320 0.8320 0.8320 0.8320
9.466000 0.8340 0.8340 0.8340 0.8340 0.8340
9.500297 0.8340 0.8340 0.8340 0.8340 0.8340
9.535000 0.8340 0.8320 0.8320 0.8320 0.8300
9.569297 0.8300 0.8290 0.8290 0.8270 0.8270
9.603000 0.8270 0.8270 0.8290 0.8290 0.8300
9.637297 0.8300 0.8300 0.8320 0.8320 0.8340
9.672000 0.8340 0.8340 0.8340 0.8340 0.8340
9.706297 0.8350 0.8370 0.8390 0.8390 0.8410
9.740000 0.8410 0.8410 0.8410 0.8410 0.8410
9.774297 0.8410 0.8390 0.8390 0.8370 0.8350
9.809000 0.8300 0.8250 0.8230 0.8220 0.8200
9.843297 0.8170 0.8150 0.8150 0.8130 0.8110
9.878000 0.8110 0.8110 0.8110 0.8110 0.8110
9.912297 0.8130 0.8180 0.8200 0.8230 0.8290
9.946000 0.8300 0.8340 0.8340 0.8350 0.8350
9.980297 0.8390 0.8410 0.8420 0.8440 0.8460
10.015000 0.8470 0.8470 0.8470 0.8470 0.8470
10.049297 0.8470 0.8460 0.8460 0.8440 0.8420
10.083000 0.8410 0.8350 0.8290 0.8200 0.8150
10.117297 0.8110 0.8100 0.8080 0.8080 0.8060
10.152000 0.8060 0.8080 0.8080 0.8080 0.8100
10.186297 0.8110 0.8130 0.8170 0.8200 0.8230
10.220000 0.8290 0.8320 0.8340 0.8340 0.8350
10.254297 0.8350 0.8350 0.8350 0.8350 0.8350
10.289000 0.8350 0.8320 0.8320 0.8320 0.8320
10.323297 0.8320 0.8320 0.8320 0.8320 0.8320
10.357000 0.8320 0.8320 0.8350 0.8390 0.8390
10.391297 0.8410 0.8410 0.8420 0.8420 0.8420
10.426000 0.8420 0.8420 0.8420 0.8420 0.8420
10.460297 0.8440 0.8440 0.8460 0.8460 0.8460
10.495000 0.8460 0.8460 0.8460 0.8460 0.8460
10.529297 0.8460 0.8460 0.8460 0.8460 0.8460
10.563000 0.8460 0.8460 0.8440 0.8440 0.8440
10.597297 0.8440 0.8440 0.8440 0.8440 0.8440
10.632000 0.8420 0.8420 0.8420 0.8420 0.8420
10.666297 0.8420 0.8420 0.8440 0.8440 0.8440
10.700000 0.8420 0.8420 0.8420 0.8420 0.8420
10.734297 0.8420 0.8420 0.8420 0.8420 0.8420
10.769000 0.8440 0.8440 0.8460 0.8460 0.8460
10.803297 0.8470 0.8510 0.8510 0.8520 0.8540
10.837000 0.8540 0.8540 0.8540 0.8540 0.8510
10.871297 0.8510 0.8510 0.8510 0.8510 0.8510
10.906000 0.8510 0.8510 0.8510 0.8520 0.8520
10.940297 0.8520 0.8560 0.8560 0.8590 0.8630
10.975000 0.8640 0.8640 0.8640 0.8640 0.8640
11.009297 0.8640 0.8640 0.8640 0.8640 0.8630
11.043000 0.8630 0.8630 0.8630 0.8630 0.8610
11.077297 0.8610 0.8610 0.8610 0.8610 0.8590
11.112000 0.8590 0.8590 0.8580 0.8580 0.8580
11.146297 0.8560 0.8560 0.8540 0.8540 0.8540
11.180000 0.8540 0.8540 0.8560 0.8560 0.8560
11.214297 0.8560 0.8560 0.8560 0.8580 0.8580
11.249000 0.8590 0.8590 0.8610 0.8610 0.8610
11.283297 0.8630 0.8630 0.8640 0.8640 0.8660
11.317000 0.8680 0.8700 0.8710 0.8730 0.8730
11.351297 0.8730 0.8730 0.8730 0.8730 0.8730
11.386000 0.8730 0.8730 0.8730 0.8730 0.8710
11.420297 0.8710 0.8710 0.8710 0.8700 0.8700
11.454000 0.8700 0.8700 0.8700 0.8700 0.8700
11.488297 0.8700 0.8700 0.8700 0.8700 0.8700
11.523000 0.8700 0.8700 0.8680 0.8680 0.8680
11.557297 0.8660 0.8660 0.8660 0.8640 0.8640
11.592000 0.8640 0.8630 0.8630 0.8610 0.8590
11.626297 0.8580 0.8560 0.8540 0.8520 0.8510
11.660000 0.8490 0.8470 0.8470 0.8420 0.8410
11.694297 0.8370 0.8340 0.8320 0.8300 0.8290
11.729000 0.8250 0.8250 0.8230 0.8220 0.8200
11.763297 0.8180 0.8180 0.8180 0.8170 0.8170
11.797000 0.8170 0.8150 0.8150 0.8130 0.8130
11.831297 0.8130 0.8130 0.8130 0.8130 0.8130
11.866000 0.8130 0.8130 0.8130 0.8130 0.8130
11.900297 0.8130 0.8150 0.8170 0.8180 0.8200
11.934000 0.8220 0.8230 0.8230 0.8250 0.8250
11.968297 0.8250 0.8250 0.8250 0.8250 0.8250
12.003000 0.8250 0.8250 0.8270 0.8270 0.8270
12.037297 0.8270 0.8270 0.8250 0.8250 0.8230
12.071000 0.8220 0.8220 0.8220 0.8200 0.8200
12.105297 0.8200 0.8200 0.8200 0.8200 0.8200
12.140000 0.8200 0.8180 0.8180 0.8170 0.8170
12.174297 0.8170 0.8170 0.8170 0.8170 0.8170
12.209000 0.8150 0.8130 0.8130 0.8110 0.8110
12.243297 0.8110 0.8110 0.8110 0.8130 0.8170
12.277000 0.8220 0.8220 0.8230 0.8230 0.8270
12.311297 0.8270 0.8290 0.8320 0.8340 0.8350
12.346000 0.8350 0.8370 0.8390 0.8390 0.8410
12.380297 0.8410 0.8410 0.8410 0.8410 0.8410
12.414000 0.8410 0.8410 0.8410 0.8410 0.8410
12.448297 0.8410 0.8410 0.8410 0.8410 0.8410
12.483000 0.8410 0.8410 0.8410 0.8410 0.8390
12.517297 0.8370 0.8350 0.8340 0.8320 0.8290
12.551000 0.8250 0.8180 0.8130 0.8060 0.8050
12.585297 0.8000 0.7910 0.7820 0.7720 0.7580
12.620000 0.7470 0.7330 0.7190 0.7070 0.6940
12.654297 0.6830 0.6730 0.6640 0.6580 0.6560
12.689000 0.6540 0.6540 0.6540 0.6560 0.6590
12.723297 0.6630 0.6710 0.6820 0.6940 0.7070
12.757000 0.7210 0.7350 0.7450 0.7530 0.7580
12.791297 0.7650 0.7700 0.7760 0.7820 0.7890
12.826000 0.7960 0.7980 0.8000 0.8010 0.8010
12.860297 0.8030 0.8030 0.8030 0.8030 0.8030
12.894000 0.8030 0.8030 0.8030 0.8030 0.8010
12.928297 0.7980 0.7960 0.7910 0.7820 0.7790
12.963000 0.7690 0.7600 0.7580 0.7550 0.7520
12.997297 0.7500 0.7400 0.7380 0.7380 0.7380
13.031000 0.7380 0.7380 0.7380 0.7380 0.7400
13.065297 0.7450 0.7500 0.7530 0.7580 0.7620
13.100000 0.7670 0.7700 0.7740 0.7770 0.7790
13.134297 0.7790 0.7790 0.7790 0.7790 0.7790
13.168000 0.7790 0.7790 0.7790 0.7790 0.7790
13.202297 0.7790 0.7790 0.7770 0.7770 0.7720
13.237000 0.7690 0.7690 0.7670 0.7620 0.7620
13.271297 0.7580 0.7550 0.7520 0.7520 0.7500
13.306000 0.7500 0.7480 0.7480 0.7480 0.7470
13.340297 0.7450 0.7430 0.7430 0.7430 0.7410
13.374000 0.7410 0.7410 0.7410 0.7400 0.7380
13.408297 0.7360 0.7330 0.7290 0.7260 0.7210
13.443000 0.7160 0.7070 0.6990 0.6880 0.6780
13.477297 0.6660 0.6540 0.6420 0.6300 0.6170
13.511000 0.6010 0.5880 0.5720 0.5550 0.5380
13.545297 0.5210 0.5040 0.4950 0.4850 0.4640
13.580000 0.4440 0.4250 0.4100 0.3940 0.3790
13.614297 0.3620 0.3520 0.3410 0.3400 0.3360
13.648000 0.3350 0.3350 0.3350 0.3380 0.3530
13.682297 0.3700 0.3940 0.4150 0.4350 0.4540
13.717000 0.4730 0.4920 0.5230 0.5360 0.5500
13.751297 0.5600 0.5700 0.5810 0.5880 0.5940
13.786000 0.6000 0.6010 0.6030 0.6080 0.6110
13.820297 0.6170 0.6200 0.6230 0.6250 0.6270
13.854000 0.6270 0.6270 0.6270 0.6270 0.6270
13.888297 0.6270 0.6270 0.6270 0.6270 0.6270
13.923000 0.6230 0.6220 0.6200 0.6180 0.6130
13.957297 0.6100 0.6080 0.6030 0.6010 0.6000
13.991000 0.6000 0.5960 0.5960 0.5940 0.5890
14.025297 0.5890 0.5880 0.5880 0.5880 0.5890
14.060000 0.5910 0.5940 0.5980 0.6010 0.6050
14.094297 0.6100 0.6110 0.6170 0.6180 0.6180
14.128000 0.6200 0.6220 0.6230 0.6270 0.6270
14.162297 0.6290 0.6290 0.6300 0.6300 0.6320
14.197000 0.6320 0.6320 0.6320 0.6340 0.6340
14.231297 0.6340 0.6350 0.6350 0.6350 0.6350
14.265000 0.6370 0.6390 0.6420 0.6460 0.6470
14.299297 0.6470 0.6490 0.6490 0.6510 0.6520
14.334000 0.6520 0.6540 0.6540 0.6540 0.6560
14.368297 0.6580 0.6580 0.6590 0.6590 0.6610
14.403000 0.6610 0.6630 0.6630 0.6630 0.6630
14.437297 0.6640 0.6640 0.6640 0.6640 0.6640
14.471000 0.6640 0.6640 0.6640 0.6640 0.6640
14.505297 0.6630 0.6630 0.6630 0.6630 0.6610
14.540000 0.6590 0.6580 0.6580 0.6560 0.6560
14.574297 0.6560 0.6540 0.6540 0.6520 0.6510
14.608000 0.6510 0.6490 0.6470 0.6460 0.6460
14.642297 0.6420 0.6420 0.6410 0.6410 0.6390
14.677000 0.6370 0.6370 0.6370 0.6350 0.6340
14.711297 0.6320 0.6300 0.6290 0.6270 0.6250
14.745000 0.6230 0.6220 0.6220 0.6200 0.6200
14.779297 0.6180 0.6180 0.6170 0.6150 0.6130
14.814000 0.6130 0.6110 0.6110 0.6100 0.6080
14.848297 0.6060 0.6050 0.6030 0.6010 0.6000
14.882000 0.5980 0.5980 0.5960 0.5940 0.5890
14.916297 0.5880 0.5840 0.5840 0.5820 0.5820
14.951000 0.5810 0.5810 0.5810 0.5790 0.5790
14.985297 0.5770 0.5760 0.5740 0.5700 0.5670
15.020000 0.5600 0.5550 0.5530 0.5520 0.5500
15.054297 0.5470 0.5470 0.5450 0.5430 0.5410
15.088000 0.5400 0.5380 0.5360 0.5350 0.5330
15.122297 0.5310 0.5290 0.5290 0.5280 0.5280
15.157000 0.5280 0.5280 0.5280 0.5280 0.5280
15.191297 0.5280 0.5260 0.5260 0.5260 0.5260
15.225000 0.5260 0.5260 0.5260 0.5260 0.5260
15.259297 0.5260 0.5260 0.5260 0.5240 0.5240
15.294000 0.5240 0.5240 0.5240 0.5240 0.5230
15.328297 0.5230 0.5210 0.5210 0.5190 0.5190
15.362000 0.5170 0.5170 0.5160 0.5120 0.5090
15.396297 0.5070 0.5070 0.5050 0.5040 0.5040
15.431000 0.5020 0.5000 0.5000 0.5000 0.4990
15.465297 0.4990 0.4970 0.4950 0.4920 0.4900
15.500000 0.4900 0.4880 0.4880 0.4870 0.4870
15.534297 0.4870 0.4830 0.4820 0.4820 0.4800
15.568000 0.4780 0.4780 0.4760 0.4760 0.4730
15.602297 0.4730 0.4710 0.4700 0.4680 0.4680
15.637000 0.4680 0.4660 0.4640 0.4640 0.4630
15.671297 0.4610 0.4610 0.4590 0.4590 0.4580
15.705000 0.4580 0.4560 0.4560 0.4560 0.4560
15.739297 0.4540 0.4510 0.4510 0.4490 0.4490
15.774000 0.4470 0.4460 0.4440 0.4440 0.4420
15.808297 0.4420 0.4420 0.4410 0.4410 0.4390
15.842000 0.4390 0.4390 0.4370 0.4370 0.4370
15.876297 0.4370 0.4370 0.4350
##END=
