##TITLE=ACETIC ACID, DICHLORO-, SODIUM SALT
##JCAMP-DX=4.24
$$ By DXEDIT 1.05 (RS McDonald)
##DATA TYPE=INFRARED SPECTRUM
##CLASS=COBLENTZ III
##ORIGIN=DOW CHEMICAL COMPANY
##OWNER=COBLENTZ SOC.
Collection (C) 2018 copyright by the U.S. Secretary of Commerce
on behalf of the United States of America. All rights reserved.
##DATE=1968/08/01
##MOLFORM=C2 H Cl2 Na O2
##SOURCE REFERENCE=COBLENTZ NO. 05624
##$NIST ID=B6005624
##$NIST SOURCE=COBLENTZ
##$NIST IMAGE=cob5624
##SPECTROMETER/DATA SYSTEM=BECKMAN IR-9 (GRATING)
##INSTRUMENT PARAMETERS=ORDER CHANGES: 670, 1200, 2000 CM^-^1
##STATE=SOLID (SPLIT MULL)
##PATH LENGTH=
$$ SPECTRAL FEATURE AT 1327 CM^-^1 IS AN ARTIFACT CAUSED BY A CHANGE IN RECORDING PARAMETER
$$ SPECTRAL FEATURE AT 1992 CM^-^1 IS PROBABLY AN ARTIFACT CAUSED BY FILTER CHANGE
##SAMPLING PROCEDURE=TRANSMISSION
##RESOLUTION=2
##DATA PROCESSING=DIGITIZED BY COBLENTZ SOCIETY (BATCH I) FROM HARD COPY
##XUNITS=1/CM
##YUNITS=TRANSMITTANCE
##XLABEL=Wavenumbers (cm-1)
##YLABEL=% Transmission
##XFACTOR=1
##YFACTOR=1
##DELTAX=1
##FIRSTX=3822
##LASTX=397
##FIRSTY=0.5568
##MAXX=3822
##MINX=397
##MAXY=0.8818
##MINY=0.0283
##NPOINTS=3426
##XYDATA=(X++(Y..Y))
3822.000000 0.5568 0.5569 0.5570 0.5572 0.5575
3817.000000 0.5577 0.5579 0.5581 0.5583 0.5585
3812.000000 0.5587 0.5589 0.5591 0.5593 0.5595
3807.000000 0.5598 0.5601 0.5604 0.5608 0.5610
3802.000000 0.5614 0.5617 0.5621 0.5624 0.5627
3797.000000 0.5630 0.5634 0.5637 0.5641 0.5645
3792.000000 0.5649 0.5653 0.5657 0.5660 0.5665
3787.000000 0.5669 0.5673 0.5677 0.5681 0.5685
3782.000000 0.5689 0.5693 0.5697 0.5701 0.5705
3777.000000 0.5709 0.5712 0.5717 0.5721 0.5725
3772.000000 0.5729 0.5733 0.5737 0.5741 0.5745
3767.000000 0.5749 0.5753 0.5757 0.5760 0.5765
3762.000000 0.5769 0.5773 0.5778 0.5782 0.5787
3757.000000 0.5791 0.5796 0.5800 0.5805 0.5809
3752.000000 0.5814 0.5818 0.5823 0.5827 0.5832
3747.000000 0.5836 0.5840 0.5844 0.5848 0.5852
3742.000000 0.5856 0.5860 0.5864 0.5868 0.5872
3737.000000 0.5875 0.5879 0.5883 0.5887 0.5891
3732.000000 0.5895 0.5898 0.5902 0.5905 0.5908
3727.000000 0.5910 0.5912 0.5916 0.5919 0.5922
3722.000000 0.5925 0.5928 0.5931 0.5934 0.5937
3717.000000 0.5939 0.5942 0.5945 0.5948 0.5950
3712.000000 0.5953 0.5953 0.5953 0.5953 0.5953
3707.000000 0.5952 0.5952 0.5951 0.5951 0.5947
3702.000000 0.5944 0.5937 0.5931 0.5924 0.5917
3697.000000 0.5910 0.5904 0.5897 0.5891 0.5884
3692.000000 0.5877 0.5865 0.5853 0.5840 0.5828
3687.000000 0.5815 0.5803 0.5791 0.5779 0.5764
3682.000000 0.5749 0.5734 0.5720 0.5705 0.5690
3677.000000 0.5675 0.5660 0.5645 0.5630 0.5615
3672.000000 0.5600 0.5585 0.5571 0.5557 0.5543
3667.000000 0.5529 0.5515 0.5501 0.5487 0.5472
3662.000000 0.5458 0.5443 0.5429 0.5414 0.5399
3657.000000 0.5384 0.5369 0.5354 0.5339 0.5326
3652.000000 0.5312 0.5301 0.5290 0.5278 0.5267
3647.000000 0.5260 0.5256 0.5252 0.5248 0.5247
3642.000000 0.5247 0.5247 0.5247 0.5247 0.5247
3637.000000 0.5246 0.5246 0.5246 0.5246 0.5246
3632.000000 0.5246 0.5246 0.5246 0.5245 0.5245
3627.000000 0.5244 0.5244 0.5243 0.5243 0.5243
3622.000000 0.5243 0.5241 0.5240 0.5238 0.5236
3617.000000 0.5233 0.5231 0.5228 0.5226 0.5223
3612.000000 0.5221 0.5219 0.5217 0.5214 0.5212
3607.000000 0.5207 0.5202 0.5197 0.5192 0.5187
3602.000000 0.5183 0.5178 0.5173 0.5162 0.5152
3597.000000 0.5141 0.5130 0.5119 0.5108 0.5096
3592.000000 0.5085 0.5071 0.5058 0.5041 0.5025
3587.000000 0.5008 0.4991 0.4974 0.4958 0.4933
3582.000000 0.4909 0.4883 0.4858 0.4830 0.4802
3577.000000 0.4769 0.4736 0.4702 0.4669 0.4637
3572.000000 0.4605 0.4574 0.4544 0.4512 0.4482
3567.000000 0.4456 0.4430 0.4404 0.4378 0.4352
3562.000000 0.4326 0.4296 0.4266 0.4214 0.4162
3557.000000 0.4110 0.4058 0.4004 0.3950 0.3897
3552.000000 0.3844 0.3782 0.3722 0.3657 0.3592
3547.000000 0.3521 0.3450 0.3324 0.3199 0.3071
3542.000000 0.2943 0.2888 0.2834 0.2802 0.2770
3537.000000 0.2740 0.2711 0.2681 0.2652 0.2631
3532.000000 0.2610 0.2593 0.2576 0.2569 0.2562
3527.000000 0.2559 0.2556 0.2554 0.2547 0.2550
3522.000000 0.2550 0.2550 0.2551 0.2558 0.2565
3517.000000 0.2595 0.2625 0.2645 0.2665 0.2674
3512.000000 0.2683 0.2689 0.2696 0.2697 0.2699
3507.000000 0.2699 0.2700 0.2699 0.2697 0.2694
3502.000000 0.2692 0.2687 0.2682 0.2676 0.2670
3497.000000 0.2662 0.2655 0.2648 0.2641 0.2634
3492.000000 0.2627 0.2620 0.2613 0.2605 0.2597
3487.000000 0.2588 0.2579 0.2568 0.2557 0.2544
3482.000000 0.2532 0.2520 0.2508 0.2496 0.2484
3477.000000 0.2473 0.2461 0.2449 0.2438 0.2424
3472.000000 0.2410 0.2395 0.2380 0.2365 0.2350
3467.000000 0.2334 0.2320 0.2305 0.2290 0.2275
3462.000000 0.2261 0.2246 0.2231 0.2216 0.2202
3457.000000 0.2187 0.2172 0.2158 0.2144 0.2132
3452.000000 0.2121 0.2110 0.2099 0.2087 0.2076
3447.000000 0.2064 0.2053 0.2042 0.2031 0.2019
3442.000000 0.2008 0.1995 0.1984 0.1973 0.1961
3437.000000 0.1953 0.1944 0.1936 0.1929 0.1923
3432.000000 0.1916 0.1908 0.1901 0.1893 0.1885
3427.000000 0.1879 0.1872 0.1866 0.1860 0.1853
3422.000000 0.1846 0.1843 0.1840 0.1836 0.1834
3417.000000 0.1832 0.1829 0.1827 0.1819 0.1819
3412.000000 0.1819 0.1817 0.1817 0.1817 0.1819
3407.000000 0.1821 0.1823 0.1825 0.1827 0.1828
3402.000000 0.1829 0.1832 0.1834 0.1835 0.1839
3397.000000 0.1841 0.1843 0.1844 0.1846 0.1849
3392.000000 0.1851 0.1853 0.1854 0.1857 0.1859
3387.000000 0.1861 0.1863 0.1865 0.1868 0.1870
3382.000000 0.1872 0.1874 0.1877 0.1881 0.1884
3377.000000 0.1887 0.1892 0.1894 0.1899 0.1903
3372.000000 0.1907 0.1910 0.1914 0.1917 0.1921
3367.000000 0.1924 0.1928 0.1932 0.1935 0.1939
3362.000000 0.1943 0.1945 0.1950 0.1954 0.1958
3357.000000 0.1961 0.1965 0.1968 0.1972 0.1975
3352.000000 0.1979 0.1982 0.1985 0.1989 0.1992
3347.000000 0.1994 0.1999 0.2002 0.2006 0.2009
3342.000000 0.2012 0.2015 0.2019 0.2022 0.2026
3337.000000 0.2029 0.2032 0.2034 0.2039 0.2042
3332.000000 0.2045 0.2049 0.2052 0.2055 0.2059
3327.000000 0.2062 0.2066 0.2069 0.2072 0.2075
3322.000000 0.2079 0.2081 0.2083 0.2084 0.2087
3317.000000 0.2089 0.2092 0.2094 0.2096 0.2098
3312.000000 0.2100 0.2102 0.2104 0.2106 0.2108
3307.000000 0.2110 0.2113 0.2115 0.2117 0.2119
3302.000000 0.2121 0.2123 0.2125 0.2127 0.2129
3297.000000 0.2131 0.2133 0.2134 0.2137 0.2139
3292.000000 0.2141 0.2143 0.2146 0.2149 0.2153
3287.000000 0.2156 0.2160 0.2163 0.2167 0.2170
3282.000000 0.2174 0.2177 0.2181 0.2184 0.2188
3277.000000 0.2191 0.2195 0.2198 0.2202 0.2205
3272.000000 0.2209 0.2212 0.2216 0.2221 0.2226
3267.000000 0.2230 0.2234 0.2240 0.2245 0.2249
3262.000000 0.2254 0.2259 0.2264 0.2268 0.2273
3257.000000 0.2278 0.2283 0.2287 0.2292 0.2297
3252.000000 0.2302 0.2307 0.2313 0.2320 0.2327
3247.000000 0.2333 0.2340 0.2347 0.2354 0.2361
3242.000000 0.2368 0.2374 0.2381 0.2388 0.2395
3237.000000 0.2402 0.2409 0.2415 0.2422 0.2429
3232.000000 0.2435 0.2442 0.2449 0.2457 0.2466
3227.000000 0.2476 0.2485 0.2496 0.2506 0.2516
3222.000000 0.2526 0.2534 0.2545 0.2555 0.2565
3217.000000 0.2575 0.2584 0.2595 0.2605 0.2614
3212.000000 0.2624 0.2634 0.2644 0.2654 0.2664
3207.000000 0.2674 0.2684 0.2697 0.2710 0.2722
3202.000000 0.2734 0.2746 0.2759 0.2771 0.2783
3197.000000 0.2795 0.2808 0.2820 0.2832 0.2844
3192.000000 0.2857 0.2869 0.2881 0.2893 0.2906
3187.000000 0.2918 0.2931 0.2943 0.2956 0.2968
3182.000000 0.2981 0.2993 0.3006 0.3018 0.3031
3177.000000 0.3043 0.3056 0.3069 0.3082 0.3094
3172.000000 0.3107 0.3119 0.3132 0.3146 0.3160
3167.000000 0.3174 0.3189 0.3203 0.3216 0.3230
3162.000000 0.3246 0.3259 0.3274 0.3288 0.3303
3157.000000 0.3316 0.3330 0.3345 0.3359 0.3370
3152.000000 0.3380 0.3392 0.3403 0.3414 0.3425
3147.000000 0.3434 0.3446 0.3457 0.3468 0.3479
3142.000000 0.3490 0.3500 0.3512 0.3523 0.3534
3137.000000 0.3544 0.3555 0.3566 0.3577 0.3587
3132.000000 0.3598 0.3608 0.3618 0.3628 0.3638
3127.000000 0.3648 0.3658 0.3668 0.3678 0.3688
3122.000000 0.3698 0.3708 0.3718 0.3728 0.3739
3117.000000 0.3749 0.3759 0.3768 0.3779 0.3788
3112.000000 0.3798 0.3806 0.3814 0.3823 0.3832
3107.000000 0.3840 0.3849 0.3857 0.3866 0.3874
3102.000000 0.3882 0.3892 0.3900 0.3909 0.3918
3097.000000 0.3926 0.3934 0.3943 0.3952 0.3959
3092.000000 0.3968 0.3977 0.3986 0.3995 0.4004
3087.000000 0.4012 0.4020 0.4028 0.4036 0.4044
3082.000000 0.4052 0.4059 0.4068 0.4076 0.4084
3077.000000 0.4091 0.4099 0.4107 0.4115 0.4122
3072.000000 0.4130 0.4134 0.4139 0.4144 0.4149
3067.000000 0.4154 0.4159 0.4164 0.4169 0.4173
3062.000000 0.4178 0.4183 0.4188 0.4193 0.4198
3057.000000 0.4202 0.4206 0.4209 0.4212 0.4216
3052.000000 0.4220 0.4223 0.4227 0.4229 0.4254
3047.000000 0.4233 0.4235 0.4237 0.4239 0.4239
3042.000000 0.4239 0.4239 0.4239 0.4239 0.4239
3037.000000 0.4233 0.4227 0.4220 0.4214 0.4204
3032.000000 0.4195 0.4184 0.4174 0.4162 0.4150
3027.000000 0.4135 0.4121 0.4107 0.4094 0.4080
3022.000000 0.4068 0.4055 0.4043 0.4022 0.4002
3017.000000 0.3979 0.3956 0.3932 0.3842 0.3888
3012.000000 0.3866 0.3866 0.3864 0.3872 0.3880
3007.000000 0.3916 0.3954 0.3990 0.4027 0.4064
3002.000000 0.4101 0.4137 0.4174 0.4189 0.4215
2997.000000 0.4204 0.4204 0.4165 0.4126 0.3952
2992.000000 0.3778 0.3644 0.3509 0.3509 0.3489
2987.000000 0.3518 0.3526 0.3586 0.3647 0.3707
2982.000000 0.3768 0.3829 0.3890 0.3950 0.4010
2977.000000 0.4071 0.4132 0.4177 0.4223 0.4253
2972.000000 0.4284 0.4312 0.4343 0.4360 0.4378
2967.000000 0.4395 0.4412 0.4430 0.4448 0.4465
2962.000000 0.4483 0.4493 0.4503 0.4512 0.4524
2957.000000 0.4534 0.4544 0.4554 0.4564 0.4573
2952.000000 0.4583 0.4590 0.4598 0.4605 0.4612
2947.000000 0.4620 0.4627 0.4634 0.4642 0.4649
2942.000000 0.4656 0.4662 0.4671 0.4678 0.4685
2937.000000 0.4691 0.4697 0.4702 0.4708 0.4714
2932.000000 0.4720 0.4725 0.4731 0.4737 0.4743
2927.000000 0.4748 0.4754 0.4760 0.4766 0.4771
2922.000000 0.4777 0.4783 0.4789 0.4794 0.4800
2917.000000 0.4806 0.4812 0.4817 0.4823 0.4828
2912.000000 0.4834 0.4839 0.4845 0.4850 0.4856
2907.000000 0.4860 0.4867 0.4872 0.4878 0.4883
2902.000000 0.4889 0.4894 0.4900 0.4905 0.4910
2897.000000 0.4916 0.4922 0.4927 0.4933 0.4939
2892.000000 0.4945 0.4951 0.4957 0.4962 0.4969
2887.000000 0.4974 0.4980 0.4986 0.4992 0.4998
2882.000000 0.5004 0.5009 0.5015 0.5021 0.5027
2877.000000 0.5032 0.5038 0.5042 0.5046 0.5049
2872.000000 0.5053 0.5057 0.5060 0.5064 0.5068
2867.000000 0.5072 0.5076 0.5079 0.5083 0.5086
2862.000000 0.5090 0.5094 0.5098 0.5102 0.5107
2857.000000 0.5110 0.5115 0.5119 0.5123 0.5127
2852.000000 0.5132 0.5136 0.5140 0.5144 0.5148
2847.000000 0.5152 0.5156 0.5160 0.5165 0.5169
2842.000000 0.5173 0.5177 0.5181 0.5185 0.5190
2837.000000 0.5194 0.5198 0.5202 0.5206 0.5210
2832.000000 0.5215 0.5219 0.5223 0.5227 0.5232
2827.000000 0.5236 0.5240 0.5244 0.5248 0.5252
2822.000000 0.5257 0.5260 0.5265 0.5269 0.5274
2817.000000 0.5278 0.5282 0.5286 0.5291 0.5295
2812.000000 0.5299 0.5303 0.5307 0.5310 0.5316
2807.000000 0.5320 0.5324 0.5328 0.5333 0.5337
2802.000000 0.5341 0.5345 0.5349 0.5353 0.5358
2797.000000 0.5362 0.5366 0.5370 0.5375 0.5379
2792.000000 0.5384 0.5388 0.5393 0.5397 0.5402
2787.000000 0.5406 0.5410 0.5415 0.5420 0.5424
2782.000000 0.5429 0.5433 0.5438 0.5443 0.5448
2777.000000 0.5452 0.5457 0.5460 0.5466 0.5470
2772.000000 0.5475 0.5479 0.5484 0.5489 0.5494
2767.000000 0.5499 0.5504 0.5509 0.5514 0.5519
2762.000000 0.5525 0.5530 0.5535 0.5540 0.5545
2757.000000 0.5550 0.5555 0.5560 0.5566 0.5571
2752.000000 0.5576 0.5581 0.5586 0.5591 0.5596
2747.000000 0.5601 0.5607 0.5612 0.5617 0.5622
2742.000000 0.5627 0.5632 0.5637 0.5642 0.5648
2737.000000 0.5653 0.5658 0.5662 0.5668 0.5672
2732.000000 0.5677 0.5681 0.5686 0.5690 0.5694
2727.000000 0.5698 0.5703 0.5707 0.5710 0.5715
2722.000000 0.5720 0.5724 0.5728 0.5732 0.5736
2717.000000 0.5740 0.5745 0.5749 0.5753 0.5755
2712.000000 0.5758 0.5760 0.5762 0.5764 0.5766
2707.000000 0.5768 0.5770 0.5772 0.5774 0.5776
2702.000000 0.5778 0.5780 0.5782 0.5784 0.5786
2697.000000 0.5788 0.5790 0.5792 0.5794 0.5796
2692.000000 0.5798 0.5800 0.5802 0.5804 0.5806
2687.000000 0.5808 0.5810 0.5810 0.5812 0.5812
2682.000000 0.5815 0.5816 0.5817 0.5818 0.5819
2677.000000 0.5820 0.5821 0.5822 0.5823 0.5824
2672.000000 0.5825 0.5826 0.5827 0.5829 0.5831
2667.000000 0.5833 0.5836 0.5838 0.5840 0.5842
2662.000000 0.5845 0.5847 0.5850 0.5852 0.5855
2657.000000 0.5857 0.5860 0.5862 0.5865 0.5868
2652.000000 0.5872 0.5875 0.5879 0.5882 0.5886
2647.000000 0.5889 0.5893 0.5896 0.5900 0.5903
2642.000000 0.5907 0.5912 0.5918 0.5923 0.5928
2637.000000 0.5933 0.5938 0.5943 0.5948 0.5953
2632.000000 0.5958 0.5962 0.5967 0.5971 0.5976
2627.000000 0.5981 0.5986 0.5990 0.5995 0.5996
2622.000000 0.5998 0.5999 0.6000 0.6001 0.6003
2617.000000 0.6004 0.6005 0.6006 0.6007 0.6008
2612.000000 0.6009 0.6010 0.6010 0.6012 0.6012
2607.000000 0.6012 0.6014 0.6014 0.6015 0.6015
2602.000000 0.6016 0.6016 0.6017 0.6017 0.6018
2597.000000 0.6018 0.6019 0.6019 0.6020 0.6020
2592.000000 0.6021 0.6021 0.6022 0.6022 0.6023
2587.000000 0.6023 0.6024 0.6025 0.6026 0.6026
2582.000000 0.6027 0.6028 0.6029 0.6029 0.6030
2577.000000 0.6030 0.6031 0.6032 0.6033 0.6034
2572.000000 0.6035 0.6036 0.6037 0.6038 0.6039
2567.000000 0.6040 0.6041 0.6042 0.6043 0.6044
2562.000000 0.6046 0.6047 0.6048 0.6049 0.6050
2557.000000 0.6052 0.6054 0.6057 0.6060 0.6062
2552.000000 0.6066 0.6069 0.6084 0.6076 0.6079
2547.000000 0.6082 0.6085 0.6088 0.6092 0.6095
2542.000000 0.6098 0.6100 0.6103 0.6105 0.6108
2537.000000 0.6110 0.6112 0.6114 0.6117 0.6119
2532.000000 0.6122 0.6124 0.6127 0.6129 0.6132
2527.000000 0.6134 0.6136 0.6138 0.6140 0.6142
2522.000000 0.6144 0.6146 0.6148 0.6150 0.6152
2517.000000 0.6154 0.6156 0.6157 0.6159 0.6160
2512.000000 0.6162 0.6165 0.6167 0.6169 0.6171
2507.000000 0.6173 0.6175 0.6177 0.6179 0.6180
2502.000000 0.6182 0.6184 0.6186 0.6187 0.6189
2497.000000 0.6190 0.6192 0.6194 0.6196 0.6197
2492.000000 0.6199 0.6201 0.6203 0.6204 0.6206
2487.000000 0.6208 0.6210 0.6212 0.6214 0.6216
2482.000000 0.6218 0.6220 0.6222 0.6224 0.6226
2477.000000 0.6228 0.6230 0.6231 0.6233 0.6235
2472.000000 0.6237 0.6238 0.6240 0.6241 0.6242
2467.000000 0.6243 0.6244 0.6245 0.6246 0.6246
2462.000000 0.6247 0.6248 0.6249 0.6250 0.6251
2457.000000 0.6252 0.6253 0.6254 0.6255 0.6255
2452.000000 0.6256 0.6257 0.6259 0.6260 0.6260
2447.000000 0.6262 0.6262 0.6264 0.6265 0.6266
2442.000000 0.6267 0.6268 0.6270 0.6271 0.6273
2437.000000 0.6274 0.6276 0.6277 0.6279 0.6280
2432.000000 0.6281 0.6282 0.6284 0.6286 0.6289
2427.000000 0.6291 0.6294 0.6296 0.6299 0.6301
2422.000000 0.6304 0.6306 0.6309 0.6312 0.6315
2417.000000 0.6319 0.6324 0.6329 0.6334 0.6338
2412.000000 0.6342 0.6346 0.6350 0.6354 0.6359
2407.000000 0.6359 0.6359 0.6359 0.6359 0.6357
2402.000000 0.6355 0.6352 0.6350 0.6345 0.6341
2397.000000 0.6336 0.6331 0.6308 0.6286 0.6258
2392.000000 0.6231 0.6210 0.6191 0.6189 0.6189
2387.000000 0.6189 0.6190 0.6192 0.6194 0.6223
2382.000000 0.6253 0.6292 0.6332 0.6354 0.6377
2377.000000 0.6399 0.6421 0.6441 0.6461 0.6478
2372.000000 0.6494 0.6510 0.6525 0.6540 0.6554
2367.000000 0.6564 0.6574 0.6582 0.6591 0.6595
2362.000000 0.6600 0.6604 0.6608 0.6611 0.6615
2357.000000 0.6617 0.6619 0.6621 0.6624 0.6625
2352.000000 0.6626 0.6628 0.6631 0.6632 0.6634
2347.000000 0.6636 0.6638 0.6640 0.6642 0.6644
2342.000000 0.6647 0.6649 0.6651 0.6653 0.6656
2337.000000 0.6658 0.6661 0.6662 0.6665 0.6668
2332.000000 0.6669 0.6671 0.6675 0.6676 0.6680
2327.000000 0.6682 0.6684 0.6685 0.6687 0.6688
2322.000000 0.6690 0.6691 0.6693 0.6694 0.6696
2317.000000 0.6699 0.6701 0.6705 0.6708 0.6711
2312.000000 0.6714 0.6715 0.6718 0.6721 0.6725
2307.000000 0.6728 0.6731 0.6734 0.6737 0.6739
2302.000000 0.6742 0.6745 0.6748 0.6751 0.6754
2297.000000 0.6757 0.6760 0.6761 0.6765 0.6768
2292.000000 0.6771 0.6774 0.6776 0.6778 0.6782
2287.000000 0.6785 0.6788 0.6791 0.6794 0.6798
2282.000000 0.6801 0.6807 0.6811 0.6815 0.6821
2277.000000 0.6825 0.6830 0.6835 0.6840 0.6844
2272.000000 0.6849 0.6854 0.6858 0.6862 0.6868
2267.000000 0.6872 0.6878 0.6882 0.6887 0.6891
2262.000000 0.6896 0.6900 0.6905 0.6908 0.6914
2257.000000 0.6918 0.6921 0.6925 0.6931 0.6935
2252.000000 0.6940 0.6944 0.6949 0.6953 0.6957
2247.000000 0.6961 0.6965 0.6968 0.6972 0.6976
2242.000000 0.6981 0.6985 0.6989 0.6993 0.6997
2237.000000 0.7001 0.7005 0.7008 0.7011 0.7015
2232.000000 0.7018 0.7022 0.7026 0.7030 0.7034
2227.000000 0.7037 0.7041 0.7044 0.7048 0.7051
2222.000000 0.7054 0.7057 0.7060 0.7062 0.7067
2217.000000 0.7069 0.7072 0.7075 0.7078 0.7078
2212.000000 0.7080 0.7080 0.7081 0.7082 0.7083
2207.000000 0.7083 0.7084 0.7084 0.7085 0.7085
2202.000000 0.7086 0.7086 0.7087 0.7087 0.7088
2197.000000 0.7088 0.7089 0.7089 0.7090 0.7090
2192.000000 0.7090 0.7090 0.7091 0.7091 0.7091
2187.000000 0.7091 0.7091 0.7091 0.7091 0.7090
2182.000000 0.7090 0.7089 0.7089 0.7088 0.7088
2177.000000 0.7087 0.7087 0.7086 0.7086 0.7085
2172.000000 0.7085 0.7084 0.7084 0.7084 0.7084
2167.000000 0.7084 0.7084 0.7084 0.7084 0.7084
2162.000000 0.7084 0.7084 0.7084 0.7084 0.7084
2157.000000 0.7083 0.7083 0.7084 0.7086 0.7089
2152.000000 0.7092 0.7095 0.7098 0.7101 0.7105
2147.000000 0.7108 0.7111 0.7114 0.7115 0.7119
2142.000000 0.7124 0.7128 0.7134 0.7139 0.7145
2137.000000 0.7150 0.7156 0.7161 0.7167 0.7171
2132.000000 0.7178 0.7183 0.7188 0.7193 0.7199
2127.000000 0.7204 0.7210 0.7215 0.7221 0.7228
2122.000000 0.7238 0.7246 0.7255 0.7262 0.7271
2117.000000 0.7280 0.7289 0.7295 0.7301 0.7308
2112.000000 0.7314 0.7319 0.7325 0.7332 0.7338
2107.000000 0.7344 0.7350 0.7356 0.7361 0.7368
2102.000000 0.7374 0.7380 0.7386 0.7391 0.7397
2097.000000 0.7401 0.7408 0.7414 0.7419 0.7425
2092.000000 0.7431 0.7436 0.7442 0.7447 0.7453
2087.000000 0.7458 0.7465 0.7469 0.7475 0.7481
2082.000000 0.7486 0.7491 0.7496 0.7501 0.7507
2077.000000 0.7511 0.7517 0.7521 0.7526 0.7532
2072.000000 0.7537 0.7542 0.7547 0.7551 0.7557
2067.000000 0.7561 0.7567 0.7571 0.7576 0.7582
2062.000000 0.7588 0.7594 0.7600 0.7606 0.7611
2057.000000 0.7617 0.7622 0.7628 0.7635 0.7641
2052.000000 0.7647 0.7653 0.7658 0.7664 0.7669
2047.000000 0.7675 0.7680 0.7684 0.7689 0.7693
2042.000000 0.7697 0.7701 0.7706 0.7710 0.7715
2037.000000 0.7719 0.7725 0.7730 0.7735 0.7740
2032.000000 0.7745 0.7750 0.7755 0.7758 0.7764
2027.000000 0.7765 0.7768 0.7771 0.7774 0.7775
2022.000000 0.7778 0.7781 0.7784 0.7787 0.7790
2017.000000 0.7792 0.7795 0.7797 0.7800 0.7801
2012.000000 0.7804 0.7805 0.7806 0.7807 0.7808
2007.000000 0.7810 0.7811 0.7814 0.7815 0.7833
2002.000000 0.7851 0.7881 0.7911 0.7930 0.7937
1997.000000 0.7943 0.7946 0.7828 0.7706 0.7630
1992.000000 0.7622 0.7689 0.7845 0.7982 0.7985
1987.000000 0.7988 0.7991 0.7993 0.7996 0.8000
1982.000000 0.8003 0.8007 0.8011 0.8014 0.8018
1977.000000 0.8019 0.8019 0.8019 0.8019 0.8019
1972.000000 0.8019 0.8019 0.8021 0.8024 0.8025
1967.000000 0.8028 0.8031 0.8033 0.8035 0.8037
1962.000000 0.8041 0.8045 0.8049 0.8051 0.8056
1957.000000 0.8060 0.8064 0.8067 0.8071 0.8075
1952.000000 0.8078 0.8082 0.8086 0.8090 0.8093
1947.000000 0.8095 0.8098 0.8101 0.8104 0.8107
1942.000000 0.8110 0.8111 0.8115 0.8118 0.8121
1937.000000 0.8124 0.8126 0.8128 0.8132 0.8134
1932.000000 0.8137 0.8140 0.8142 0.8145 0.8148
1927.000000 0.8150 0.8153 0.8156 0.8158 0.8161
1922.000000 0.8164 0.8165 0.8168 0.8171 0.8172
1917.000000 0.8175 0.8176 0.8178 0.8181 0.8183
1912.000000 0.8185 0.8187 0.8189 0.8191 0.8193
1907.000000 0.8195 0.8197 0.8199 0.8202 0.8205
1902.000000 0.8208 0.8211 0.8213 0.8216 0.8218
1897.000000 0.8221 0.8225 0.8227 0.8228 0.8228
1892.000000 0.8230 0.8232 0.8233 0.8234 0.8235
1887.000000 0.8237 0.8238 0.8239 0.8240 0.8241
1882.000000 0.8243 0.8243 0.8243 0.8243 0.8243
1877.000000 0.8242 0.8242 0.8242 0.8242 0.8242
1872.000000 0.8242 0.8243 0.8246 0.8248 0.8250
1867.000000 0.8253 0.8255 0.8257 0.8260 0.8262
1862.000000 0.8265 0.8267 0.8270 0.8273 0.8275
1857.000000 0.8278 0.8282 0.8284 0.8287 0.8290
1852.000000 0.8293 0.8296 0.8300 0.8303 0.8307
1847.000000 0.8310 0.8314 0.8317 0.8321 0.8324
1842.000000 0.8328 0.8331 0.8335 0.8338 0.8342
1837.000000 0.8346 0.8350 0.8355 0.8359 0.8363
1832.000000 0.8368 0.8373 0.8378 0.8384 0.8389
1827.000000 0.8395 0.8400 0.8404 0.8406 0.8407
1822.000000 0.8409 0.8410 0.8410 0.8408 0.8406
1817.000000 0.8404 0.8402 0.8400 0.8397 0.8395
1812.000000 0.8392 0.8390 0.8387 0.8385 0.8381
1807.000000 0.8378 0.8373 0.8367 0.8362 0.8356
1802.000000 0.8350 0.8345 0.8339 0.8332 0.8324
1797.000000 0.8315 0.8306 0.8296 0.8287 0.8278
1792.000000 0.8268 0.8258 0.8247 0.8231 0.8216
1787.000000 0.8201 0.8186 0.8171 0.8156 0.8139
1782.000000 0.8119 0.8101 0.8083 0.8065 0.8046
1777.000000 0.8026 0.8005 0.7983 0.7961 0.7940
1772.000000 0.7911 0.7881 0.7851 0.7821 0.7792
1767.000000 0.7756 0.7711 0.7665 0.7621 0.7575
1762.000000 0.7532 0.7487 0.7442 0.7398 0.7353
1757.000000 0.7305 0.7253 0.7201 0.7149 0.7097
1752.000000 0.7049 0.7000 0.6951 0.6903 0.6854
1747.000000 0.6804 0.6754 0.6704 0.6654 0.6604
1742.000000 0.6554 0.6504 0.6460 0.6415 0.6373
1737.000000 0.6330 0.6286 0.6244 0.6201 0.6159
1732.000000 0.6116 0.6073 0.6025 0.5977 0.5928
1727.000000 0.5880 0.5832 0.5798 0.5764 0.5730
1722.000000 0.5696 0.5662 0.5629 0.5595 0.5560
1717.000000 0.5525 0.5493 0.5475 0.5458 0.5440
1712.000000 0.5423 0.5405 0.5388 0.5368 0.5347
1707.000000 0.5319 0.5290 0.5262 0.5234 0.5206
1702.000000 0.5178 0.5150 0.5121 0.5060 0.5000
1697.000000 0.4939 0.4879 0.4810 0.4719 0.4621
1692.000000 0.4501 0.4393 0.4297 0.4200 0.4104
1687.000000 0.4008 0.3912 0.3816 0.3656 0.3439
1682.000000 0.3228 0.3072 0.2940 0.2808 0.2644
1677.000000 0.2512 0.2403 0.2224 0.2065 0.1956
1672.000000 0.1848 0.1739 0.1599 0.1455 0.1372
1667.000000 0.1292 0.1211 0.1127 0.1039 0.0952
1662.000000 0.0871 0.0789 0.0713 0.0639 0.0574
1657.000000 0.0527 0.0483 0.0446 0.0427 0.0404
1652.000000 0.0396 0.0397 0.0397 0.0401 0.0409
1647.000000 0.0423 0.0437 0.0445 0.0451 0.0456
1642.000000 0.0455 0.0477 0.0452 0.0450 0.0447
1637.000000 0.0442 0.0436 0.0431 0.0425 0.0416
1632.000000 0.0403 0.0389 0.0376 0.0356 0.0332
1627.000000 0.0314 0.0301 0.0293 0.0289 0.0284
1622.000000 0.0283 0.0283 0.0283 0.0286 0.0291
1617.000000 0.0305 0.0323 0.0342 0.0364 0.0388
1612.000000 0.0412 0.0436 0.0460 0.0483 0.0507
1607.000000 0.0531 0.0555 0.0579 0.0603 0.0627
1602.000000 0.0651 0.0676 0.0705 0.0735 0.0765
1597.000000 0.0794 0.0824 0.0853 0.0883 0.0929
1592.000000 0.0976 0.1024 0.1072 0.1139 0.1221
1587.000000 0.1303 0.1359 0.1410 0.1461 0.1512
1582.000000 0.1563 0.1614 0.1662 0.1704 0.1745
1577.000000 0.1787 0.1829 0.1873 0.1915 0.1957
1572.000000 0.1999 0.2049 0.2098 0.2148 0.2198
1567.000000 0.2248 0.2298 0.2351 0.2407 0.2463
1562.000000 0.2519 0.2575 0.2634 0.2696 0.2758
1557.000000 0.2820 0.2878 0.2933 0.2988 0.3044
1552.000000 0.3097 0.3141 0.3185 0.3230 0.3275
1547.000000 0.3328 0.3380 0.3430 0.3459 0.3488
1542.000000 0.3516 0.3546 0.3576 0.3605 0.3644
1537.000000 0.3693 0.3741 0.3784 0.3816 0.3850
1532.000000 0.3882 0.3916 0.3949 0.3982 0.4014
1527.000000 0.4048 0.4080 0.4112 0.4145 0.4169
1522.000000 0.4194 0.4218 0.4242 0.4266 0.4290
1517.000000 0.4314 0.4339 0.4362 0.4388 0.4412
1512.000000 0.4437 0.4460 0.4486 0.4506 0.4525
1507.000000 0.4545 0.4564 0.4584 0.4603 0.4623
1502.000000 0.4642 0.4662 0.4681 0.4698 0.4712
1497.000000 0.4728 0.4742 0.4757 0.4772 0.4786
1492.000000 0.4801 0.4816 0.4831 0.4844 0.4858
1487.000000 0.4872 0.4885 0.4899 0.4912 0.4926
1482.000000 0.4940 0.4953 0.4967 0.4981 0.4994
1477.000000 0.5008 0.5021 0.5035 0.5049 0.5062
1472.000000 0.5076 0.5086 0.5097 0.5108 0.5118
1467.000000 0.5129 0.5140 0.5150 0.5160 0.5169
1462.000000 0.5177 0.5186 0.5195 0.5206 0.5216
1457.000000 0.5226 0.5236 0.5246 0.5251 0.5255
1452.000000 0.5258 0.5262 0.5266 0.5279 0.5278
1447.000000 0.5277 0.5281 0.5281 0.5280 0.5278
1442.000000 0.5276 0.5274 0.5272 0.5268 0.5260
1437.000000 0.5252 0.5244 0.5236 0.5225 0.5212
1432.000000 0.5199 0.5186 0.5172 0.5150 0.5123
1427.000000 0.5097 0.5070 0.5035 0.4984 0.4932
1422.000000 0.4880 0.4823 0.4762 0.4703 0.4627
1417.000000 0.4549 0.4474 0.4412 0.4349 0.4276
1412.000000 0.4184 0.4074 0.3494 0.3400 0.3338
1407.000000 0.3027 0.2243 0.1823 0.1772 0.1721
1402.000000 0.1670 0.1615 0.1560 0.1500 0.1467
1397.000000 0.1460 0.1454 0.1429 0.1449 0.1451
1392.000000 0.1463 0.1491 0.1520 0.1562 0.1611
1387.000000 0.1653 0.1687 0.1723 0.1781 0.1837
1382.000000 0.1885 0.1933 0.1979 0.2034 0.2037
1377.000000 0.2048 0.2044 0.2041 0.2014 0.1983
1372.000000 0.1950 0.1922 0.1899 0.1866 0.1892
1367.000000 0.1902 0.1914 0.1929 0.1945 0.1969
1362.000000 0.2000 0.2031 0.2071 0.2114 0.2157
1357.000000 0.2197 0.2238 0.2278 0.2321 0.2365
1352.000000 0.2406 0.2444 0.2475 0.2504 0.2506
1347.000000 0.2506 0.2507 0.2510 0.2515 0.2527
1342.000000 0.2571 0.2633 0.2694 0.2760 0.2813
1337.000000 0.2854 0.2894 0.2935 0.2978 0.3017
1332.000000 0.3054 0.3100 0.3109 0.3134 0.3161
1327.000000 0.3184 0.3200 0.3470 0.5087 0.6486
1322.000000 0.6534 0.6578 0.6614 0.6650 0.6678
1317.000000 0.6694 0.6708 0.6718 0.6719 0.6721
1312.000000 0.6722 0.6724 0.6725 0.6726 0.6728
1307.000000 0.6734 0.6739 0.6744 0.6749 0.6753
1302.000000 0.6758 0.6762 0.6771 0.6780 0.6789
1297.000000 0.6798 0.6807 0.6815 0.6836 0.6858
1292.000000 0.6881 0.6903 0.6925 0.6948 0.6969
1287.000000 0.6993 0.7018 0.7043 0.7067 0.7092
1282.000000 0.7118 0.7145 0.7171 0.7199 0.7225
1277.000000 0.7251 0.7278 0.7301 0.7324 0.7346
1272.000000 0.7368 0.7391 0.7412 0.7438 0.7464
1267.000000 0.7481 0.7495 0.7508 0.7521 0.7535
1262.000000 0.7549 0.7558 0.7558 0.7558 0.7569
1257.000000 0.7569 0.7553 0.7530 0.7504 0.7481
1252.000000 0.7465 0.7451 0.7436 0.7418 0.7397
1247.000000 0.7376 0.7356 0.7321 0.7281 0.7233
1242.000000 0.7175 0.7117 0.7061 0.7011 0.6960
1237.000000 0.6910 0.6854 0.6798 0.6743 0.6690
1232.000000 0.6628 0.6601 0.6588 0.6556 0.6518
1227.000000 0.6441 0.6362 0.6280 0.6191 0.6100
1222.000000 0.5635 0.5127 0.4620 0.4112 0.3604
1217.000000 0.3097 0.2589 0.2264 0.2256 0.2526
1212.000000 0.3075 0.3624 0.4173 0.4757 0.4714
1207.000000 0.4628 0.4168 0.3709 0.3250 0.2790
1202.000000 0.2331 0.2113 0.2084 0.2087 0.2503
1197.000000 0.3188 0.3873 0.4559 0.5244 0.5762
1192.000000 0.5935 0.6071 0.6207 0.6525 0.6851
1187.000000 0.6947 0.7042 0.7137 0.7226 0.7304
1182.000000 0.7380 0.7457 0.7518 0.7564 0.7610
1177.000000 0.7655 0.7700 0.7745 0.7786 0.7824
1172.000000 0.7861 0.7899 0.7936 0.7972 0.8011
1167.000000 0.8043 0.8069 0.8097 0.8124 0.8151
1162.000000 0.8178 0.8202 0.8220 0.8238 0.8256
1157.000000 0.8274 0.8292 0.8310 0.8328 0.8344
1152.000000 0.8360 0.8375 0.8392 0.8408 0.8423
1147.000000 0.8439 0.8456 0.8471 0.8489 0.8506
1142.000000 0.8523 0.8540 0.8553 0.8566 0.8578
1137.000000 0.8591 0.8603 0.8616 0.8628 0.8641
1132.000000 0.8653 0.8666 0.8675 0.8687 0.8697
1127.000000 0.8708 0.8718 0.8728 0.8739 0.8744
1122.000000 0.8748 0.8753 0.8758 0.8763 0.8768
1117.000000 0.8771 0.8777 0.8778 0.8780 0.8781
1112.000000 0.8792 0.8784 0.8785 0.8786 0.8787
1107.000000 0.8787 0.8778 0.8768 0.8758 0.8749
1102.000000 0.8739 0.8728 0.8717 0.8706 0.8694
1097.000000 0.8683 0.8671 0.8659 0.8647 0.8636
1092.000000 0.8624 0.8612 0.8600 0.8597 0.8598
1087.000000 0.8599 0.8599 0.8600 0.8601 0.8601
1082.000000 0.8602 0.8603 0.8604 0.8607 0.8611
1077.000000 0.8614 0.8617 0.8620 0.8623 0.8625
1072.000000 0.8628 0.8628 0.8628 0.8623 0.8618
1067.000000 0.8618 0.8618 0.8631 0.8645 0.8658
1062.000000 0.8670 0.8682 0.8694 0.8706 0.8713
1057.000000 0.8711 0.8709 0.8707 0.8706 0.8706
1052.000000 0.8706 0.8707 0.8713 0.8718 0.8724
1047.000000 0.8728 0.8734 0.8739 0.8744 0.8749
1042.000000 0.8755 0.8756 0.8756 0.8756 0.8757
1037.000000 0.8757 0.8757 0.8758 0.8758 0.8758
1032.000000 0.8758 0.8757 0.8757 0.8756 0.8756
1027.000000 0.8756 0.8755 0.8755 0.8754 0.8754
1022.000000 0.8753 0.8750 0.8746 0.8741 0.8736
1017.000000 0.8732 0.8727 0.8721 0.8713 0.8714
1012.000000 0.8710 0.8706 0.8702 0.8697 0.8693
1007.000000 0.8689 0.8685 0.8681 0.8677 0.8673
1002.000000 0.8668 0.8666 0.8663 0.8661 0.8658
997.000000 0.8655 0.8652 0.8650 0.8647 0.8644
992.000000 0.8638 0.8633 0.8628 0.8623 0.8618
987.000000 0.8613 0.8608 0.8602 0.8598 0.8594
982.000000 0.8589 0.8585 0.8581 0.8575 0.8571
977.000000 0.8568 0.8563 0.8565 0.8566 0.8545
972.000000 0.8568 0.8570 0.8573 0.8577 0.8582
967.000000 0.8586 0.8594 0.8604 0.8615 0.8625
962.000000 0.8637 0.8650 0.8665 0.8680 0.8696
957.000000 0.8712 0.8730 0.8749 0.8767 0.8778
952.000000 0.8785 0.8791 0.8798 0.8804 0.8818
947.000000 0.8818 0.8815 0.8813 0.8807 0.8796
942.000000 0.8785 0.8775 0.8753 0.8731 0.8709
937.000000 0.8689 0.8675 0.8671 0.8668 0.8668
932.000000 0.8667 0.8661 0.8655 0.8646 0.8630
927.000000 0.8614 0.8596 0.8573 0.8548 0.8420
922.000000 0.8258 0.8140 0.8107 0.8104 0.8211
917.000000 0.8321 0.8433 0.8510 0.8520 0.8531
912.000000 0.8541 0.8551 0.8562 0.8568 0.8574
907.000000 0.8578 0.8585 0.8589 0.8591 0.8592
902.000000 0.8594 0.8594 0.8594 0.8592 0.8599
897.000000 0.8587 0.8585 0.8581 0.8577 0.8571
892.000000 0.8567 0.8551 0.8535 0.8532 0.8528
887.000000 0.8525 0.8518 0.8509 0.8500 0.8490
882.000000 0.8480 0.8471 0.8461 0.8447 0.8433
877.000000 0.8418 0.8404 0.8390 0.8371 0.8351
872.000000 0.8330 0.8309 0.8289 0.8268 0.8231
867.000000 0.8188 0.8145 0.8101 0.8058 0.8028
862.000000 0.7997 0.7965 0.7936 0.7905 0.7874
857.000000 0.7840 0.7800 0.7761 0.7721 0.7653
852.000000 0.7575 0.7499 0.7411 0.7290 0.7147
847.000000 0.6986 0.6868 0.6730 0.6578 0.6373
842.000000 0.5992 0.5610 0.5230 0.4849 0.4512
837.000000 0.4523 0.4679 0.4959 0.5238 0.5517
832.000000 0.5732 0.5753 0.5737 0.5486 0.5076
827.000000 0.4666 0.4256 0.3845 0.3434 0.3025
822.000000 0.2205 0.2205 0.2208 0.2211 0.2811
817.000000 0.3741 0.4670 0.5599 0.5668 0.5624
812.000000 0.5593 0.5258 0.4924 0.4589 0.4255
807.000000 0.3920 0.3586 0.3250 0.2917 0.2582
802.000000 0.2248 0.1913 0.1579 0.1244 0.1084
797.000000 0.1073 0.1202 0.1395 0.1589 0.1783
792.000000 0.1976 0.2170 0.2363 0.2557 0.2751
787.000000 0.2944 0.3138 0.3332 0.3525 0.3572
782.000000 0.3595 0.3500 0.3321 0.3141 0.2961
777.000000 0.2781 0.2601 0.2421 0.2241 0.2062
772.000000 0.2073 0.2045 0.2203 0.2441 0.2679
767.000000 0.2917 0.3154 0.3392 0.3630 0.3868
762.000000 0.4106 0.4343 0.4581 0.4819 0.5057
757.000000 0.5294 0.5532 0.5564 0.5569 0.5589
752.000000 0.5560 0.5547 0.5526 0.5493 0.5460
747.000000 0.5429 0.5380 0.5324 0.5269 0.5214
742.000000 0.5143 0.5066 0.4988 0.4910 0.4791
737.000000 0.4647 0.4503 0.4264 0.3658 0.3380
732.000000 0.3101 0.2823 0.2545 0.2266 0.1987
727.000000 0.1824 0.1792 0.1822 0.1825 0.1989
722.000000 0.2152 0.2316 0.2480 0.2576 0.2575
717.000000 0.2575 0.2552 0.2521 0.2487 0.2458
712.000000 0.2438 0.2432 0.2432 0.2431 0.2443
707.000000 0.2479 0.2534 0.2654 0.2824 0.2953
702.000000 0.3106 0.3274 0.3447 0.3632 0.3791
697.000000 0.3866 0.3941 0.4016 0.4092 0.4167
692.000000 0.4236 0.4304 0.4373 0.4442 0.4509
687.000000 0.4573 0.4638 0.4700 0.4752 0.4804
682.000000 0.4858 0.4910 0.4945 0.4980 0.5004
677.000000 0.5010 0.5014 0.5017 0.5047 0.5110
672.000000 0.5174 0.5243 0.5217 0.5212 0.5177
667.000000 0.5116 0.5051 0.4976 0.4812 0.4478
662.000000 0.4143 0.3820 0.3559 0.3299 0.3039
657.000000 0.2816 0.2841 0.2841 0.2849 0.2898
652.000000 0.2980 0.3117 0.3287 0.3494 0.3702
647.000000 0.3909 0.4116 0.4324 0.4531 0.4738
642.000000 0.4946 0.5153 0.5360 0.5568 0.5775
637.000000 0.5983 0.6190 0.6238 0.6285 0.6333
632.000000 0.6385 0.6440 0.6496 0.6551 0.6608
627.000000 0.6647 0.6684 0.6721 0.6757 0.6793
622.000000 0.6811 0.6830 0.6848 0.6865 0.6876
617.000000 0.6882 0.6886 0.6891 0.6892 0.6892
612.000000 0.6892 0.6891 0.6890 0.6886 0.6881
607.000000 0.6875 0.6871 0.6867 0.6862 0.6858
602.000000 0.6853 0.6849 0.6841 0.6832 0.6822
597.000000 0.6812 0.6804 0.6795 0.6786 0.6775
592.000000 0.6765 0.6750 0.6735 0.6719 0.6705
587.000000 0.6689 0.6672 0.6647 0.6619 0.6594
582.000000 0.6567 0.6526 0.6481 0.6434 0.6362
577.000000 0.6288 0.6212 0.6136 0.6060 0.5981
572.000000 0.5903 0.5819 0.5729 0.5635 0.5443
567.000000 0.5214 0.4924 0.4625 0.4543 0.4491
562.000000 0.4512 0.4509 0.4538 0.4719 0.4866
557.000000 0.4967 0.5066 0.5162 0.5260 0.5359
552.000000 0.5441 0.5494 0.5546 0.5564 0.5579
547.000000 0.5580 0.5610 0.5582 0.5582 0.5582
542.000000 0.5574 0.5565 0.5555 0.5537 0.5512
537.000000 0.5490 0.5460 0.5426 0.5392 0.5357
532.000000 0.5322 0.5286 0.5249 0.5212 0.5176
527.000000 0.5131 0.5086 0.5041 0.4997 0.4952
522.000000 0.4914 0.4877 0.4841 0.4804 0.4765
517.000000 0.4721 0.4677 0.4634 0.4607 0.4588
512.000000 0.4568 0.4549 0.4529 0.4509 0.4490
507.000000 0.4470 0.4449 0.4429 0.4409 0.4388
502.000000 0.4368 0.4346 0.4323 0.4300 0.4276
497.000000 0.4253 0.4230 0.4207 0.4185 0.4162
492.000000 0.4141 0.4119 0.4097 0.4079 0.4062
487.000000 0.4045 0.4028 0.4010 0.4005 0.3978
482.000000 0.4000 0.4007 0.4014 0.4023 0.4038
477.000000 0.4056 0.4074 0.4092 0.4110 0.4139
472.000000 0.4172 0.4205 0.4239 0.4283 0.4332
467.000000 0.4382 0.4432 0.4486 0.4540 0.4593
462.000000 0.4647 0.4701 0.4752 0.4795 0.4838
457.000000 0.4882 0.4927 0.4971 0.5016 0.5060
452.000000 0.5095 0.5123 0.5152 0.5180 0.5209
447.000000 0.5242 0.5282 0.5322 0.5353 0.5380
442.000000 0.5405 0.5422 0.5429 0.5437 0.5447
437.000000 0.5443 0.5433 0.5412 0.5390 0.5358
432.000000 0.5320 0.5282 0.5254 0.5203 0.5227
427.000000 0.5234 0.5284 0.5360 0.5436 0.5498
422.000000 0.5562 0.5626 0.5652 0.5647 0.5647
417.000000 0.5647 0.5640 0.5633 0.5626 0.5619
412.000000 0.5605 0.5590 0.5575 0.5560 0.5546
407.000000 0.5531 0.5516 0.5501 0.5486 0.5472
402.000000 0.5462 0.5452 0.5442 0.5433 0.5423
397.000000 0.5415
##END=
