##TITLE=Arsonium permanganate, tetraphenyl-
##JCAMP-DX=4.24
##DATA TYPE=INFRARED SPECTRUM
##CLASS=COBLENTZ III
##ORIGIN=DOW CHEMICAL COMPANY
##OWNER=Copyright (C) 1987 by the Coblentz Society
Collection (C) 2018 copyright by the U.S. Secretary of Commerce
on behalf of the United States of America. All rights reserved.
##DATE=1965/12/14
##NAMES=TETRAPHENYLARSONIUM PERMANGANATE
##MOLFORM=C24 H20 As Mn O4
##SOURCE REFERENCE=COBLENTZ NO. 8171
##$NIST ID=B6008171
##$NIST SOURCE=COBLENTZ
##$NIST IMAGE=cob8171
##SPECTROMETER/DATA SYSTEM=DOW KBr FOREPRISM-GRATING
##INSTRUMENT PARAMETERS=BLAZED AT 3.5, 12.0, 20.0 MICRON AND CHANGED AT 5.0, 7.5, 14.9 MICRON
##STATE=SOLID (SPLIT MULL), FLUOROLUBE FOR 3800-1330 CM^-^1, NUJOL FOR 1330-460 CM^-^1
$$ SPECTRAL FEATURE AT 1997 CM^-^1 IS AN ARTIFACT CAUSED BY GRATING CHANGE
##SAMPLING PROCEDURE=TRANSMISSION
##RESOLUTION=2
##DATA PROCESSING=DIGITIZED BY COBLENTZ SOCIETY (BATCH II) FROM HARD COPY
##XUNITS=1/CM
##YUNITS=TRANSMITTANCE
##XFACTOR=1.0
##YFACTOR=1
##FIRSTX=455
##LASTX=3794
##FIRSTY=0.3692
##MAXX=3794
##MINX=455
##MAXY=0.8843
##MINY=0.0339
##NPOINTS=3340
##XYDATA=(X++(Y..Y))
455.000000 0.3692 0.3703 0.3493 0.3237 0.3156
460.000000 0.3556 0.4844 0.6133 0.6330 0.6399
465.000000 0.6452 0.6477 0.6529 0.6505 0.6503
470.000000 0.6495 0.6483 0.6450 0.6393 0.6291
475.000000 0.5642 0.4287 0.2932 0.2151 0.2147
480.000000 0.2112 0.5474 0.7008 0.7124 0.7185
485.000000 0.7205 0.7210 0.7216 0.7221 0.7227
490.000000 0.7232 0.7233 0.7232 0.7231 0.7230
495.000000 0.7229 0.7228 0.7227 0.7227 0.7227
500.000000 0.7227 0.7227 0.7227 0.7227 0.7227
505.000000 0.7230 0.7234 0.7239 0.7243 0.7248
510.000000 0.7253 0.7257 0.7262 0.7267 0.7281
515.000000 0.7298 0.7314 0.7331 0.7348 0.7364
520.000000 0.7379 0.7394 0.7409 0.7424 0.7438
525.000000 0.7453 0.7468 0.7483 0.7498 0.7513
530.000000 0.7526 0.7535 0.7543 0.7552 0.7561
535.000000 0.7570 0.7578 0.7587 0.7596 0.7605
540.000000 0.7613 0.7622 0.7631 0.7640 0.7648
545.000000 0.7657 0.7666 0.7675 0.7683 0.7692
550.000000 0.7701 0.7709 0.7719 0.7728 0.7738
555.000000 0.7748 0.7758 0.7767 0.7777 0.7787
560.000000 0.7797 0.7806 0.7816 0.7826 0.7836
565.000000 0.7845 0.7856 0.7866 0.7876 0.7886
570.000000 0.7896 0.7907 0.7917 0.7927 0.7937
575.000000 0.7947 0.7957 0.7968 0.7978 0.7988
580.000000 0.7998 0.8008 0.8019 0.8032 0.8044
585.000000 0.8056 0.8069 0.8081 0.8093 0.8103
590.000000 0.8110 0.8117 0.8124 0.8131 0.8137
595.000000 0.8138 0.8139 0.8141 0.8142 0.8147
600.000000 0.8145 0.8147 0.8146 0.8142 0.8139
605.000000 0.8136 0.8132 0.8129 0.8126 0.7975
610.000000 0.7808 0.7642 0.7541 0.7539 0.7812
615.000000 0.8061 0.8168 0.8193 0.8204 0.8209
620.000000 0.8215 0.8220 0.8226 0.8232 0.8237
625.000000 0.8241 0.8246 0.8250 0.8254 0.8259
630.000000 0.8264 0.8269 0.8274 0.8280 0.8285
635.000000 0.8291 0.8299 0.8306 0.8314 0.8321
640.000000 0.8329 0.8336 0.8349 0.8361 0.8374
645.000000 0.8386 0.8399 0.8401 0.8403 0.8405
650.000000 0.8407 0.8402 0.8397 0.8392 0.8399
655.000000 0.8382 0.8375 0.8369 0.8362 0.8341
660.000000 0.8320 0.8292 0.8251 0.8137 0.8107
665.000000 0.8091 0.8076 0.8061 0.8039 0.8013
670.000000 0.7965 0.7911 0.7836 0.7740 0.7641
675.000000 0.7488 0.7372 0.7262 0.7194 0.7125
680.000000 0.6374 0.4802 0.4093 0.4052 0.4319
685.000000 0.4802 0.4512 0.1997 0.1984 0.1983
690.000000 0.1979 0.3453 0.4544 0.5635 0.6591
695.000000 0.6813 0.6925 0.7038 0.7160 0.7431
700.000000 0.7618 0.7702 0.7781 0.7833 0.7881
705.000000 0.7898 0.7900 0.7902 0.7889 0.7880
710.000000 0.7859 0.7831 0.7795 0.7748 0.7682
715.000000 0.7614 0.7553 0.7466 0.7330 0.7216
720.000000 0.7101 0.7010 0.6998 0.6990 0.6983
725.000000 0.6974 0.6962 0.6945 0.6928 0.6892
730.000000 0.6782 0.6462 0.6142 0.5823 0.5503
735.000000 0.5183 0.4863 0.4607 0.4445 0.3333
740.000000 0.2235 0.1137 0.0862 0.0850 0.0869
745.000000 0.0899 0.1663 0.2640 0.3617 0.4595
750.000000 0.5572 0.6549 0.7087 0.7211 0.7332
755.000000 0.7428 0.7523 0.7629 0.7714 0.7774
760.000000 0.7867 0.7925 0.7967 0.7997 0.8023
765.000000 0.8048 0.8072 0.8096 0.8119 0.8143
770.000000 0.8166 0.8189 0.8212 0.8235 0.8258
775.000000 0.8274 0.8290 0.8306 0.8322 0.8338
780.000000 0.8349 0.8358 0.8366 0.8375 0.8384
785.000000 0.8388 0.8390 0.8391 0.8393 0.8394
790.000000 0.8396 0.8397 0.8397 0.8402 0.8395
795.000000 0.8393 0.8392 0.8391 0.8391 0.8391
800.000000 0.8391 0.8392 0.8394 0.8397 0.8397
805.000000 0.8394 0.8391 0.8388 0.8385 0.8381
810.000000 0.8378 0.8374 0.8367 0.8361 0.8354
815.000000 0.8348 0.8339 0.8330 0.8320 0.8311
820.000000 0.8302 0.8293 0.8286 0.8279 0.8272
825.000000 0.8264 0.8257 0.8248 0.8232 0.8215
830.000000 0.8198 0.8175 0.8153 0.8130 0.8108
835.000000 0.8076 0.8035 0.7993 0.7943 0.7886
840.000000 0.7830 0.7751 0.7669 0.7540 0.7298
845.000000 0.7239 0.7213 0.7194 0.7047 0.6890
850.000000 0.6787 0.7029 0.7402 0.7775 0.7919
855.000000 0.7962 0.7979 0.7983 0.7985 0.7964
860.000000 0.7963 0.7948 0.7932 0.7916 0.7898
865.000000 0.7878 0.7852 0.7824 0.7795 0.7768
870.000000 0.7741 0.7715 0.7671 0.7623 0.7575
875.000000 0.7509 0.7439 0.7363 0.7286 0.7192
880.000000 0.7085 0.6952 0.6829 0.6716 0.6600
885.000000 0.6482 0.6353 0.6125 0.5878 0.5593
890.000000 0.5237 0.5015 0.3918 0.3348 0.2778
895.000000 0.2208 0.1637 0.1239 0.0988 0.0516
900.000000 0.0339 0.0344 0.0341 0.0367 0.0403
905.000000 0.0719 0.0856 0.1009 0.1489 0.1969
910.000000 0.2448 0.2928 0.3408 0.3888 0.4368
915.000000 0.4848 0.5328 0.5807 0.6287 0.6673
920.000000 0.6680 0.6624 0.6466 0.6308 0.6214
925.000000 0.6219 0.6498 0.6855 0.7213 0.7572
930.000000 0.7762 0.7822 0.7874 0.7912 0.7949
935.000000 0.7977 0.7999 0.8022 0.8044 0.8066
940.000000 0.8084 0.8101 0.8119 0.8136 0.8153
945.000000 0.8169 0.8182 0.8195 0.8208 0.8218
950.000000 0.8222 0.8227 0.8231 0.8246 0.8226
955.000000 0.8221 0.8211 0.8201 0.8190 0.8180
960.000000 0.8169 0.8158 0.8147 0.8136 0.8125
965.000000 0.8114 0.8103 0.8093 0.8082 0.8074
970.000000 0.8066 0.8058 0.8061 0.8074 0.8087
975.000000 0.8105 0.8126 0.8148 0.8171 0.8194
980.000000 0.8199 0.8195 0.8175 0.8076 0.7977
985.000000 0.7878 0.7874 0.7925 0.8062 0.8081
990.000000 0.8064 0.7846 0.6961 0.5968 0.4976
995.000000 0.4302 0.4677 0.5665 0.5433 0.4324
1000.000000 0.5011 0.5990 0.6969 0.7834 0.8100
1005.000000 0.8167 0.8225 0.8223 0.8221 0.8220
1010.000000 0.8232 0.8215 0.8212 0.8208 0.8197
1015.000000 0.8180 0.8156 0.8106 0.8059 0.7915
1020.000000 0.7518 0.7122 0.6935 0.6923 0.7293
1025.000000 0.7502 0.7710 0.7919 0.8152 0.8152
1030.000000 0.8148 0.8144 0.8142 0.8139 0.8137
1035.000000 0.8139 0.8141 0.8156 0.8172 0.8190
1040.000000 0.8215 0.8240 0.8263 0.8268 0.8265
1045.000000 0.8266 0.8255 0.8249 0.8243 0.8238
1050.000000 0.8231 0.8222 0.8213 0.8203 0.8194
1055.000000 0.8185 0.8175 0.8153 0.8129 0.8104
1060.000000 0.8071 0.8025 0.7979 0.7926 0.7859
1065.000000 0.7751 0.7674 0.7620 0.7614 0.7618
1070.000000 0.7637 0.7667 0.7690 0.7699 0.7689
1075.000000 0.7661 0.7609 0.7151 0.6113 0.5074
1080.000000 0.4036 0.3537 0.3514 0.3955 0.4564
1085.000000 0.5173 0.5782 0.6391 0.6999 0.7608
1090.000000 0.7992 0.8062 0.8084 0.8106 0.8117
1095.000000 0.8124 0.8132 0.8140 0.8147 0.8155
1100.000000 0.8164 0.8176 0.8194 0.8228 0.8279
1105.000000 0.8281 0.8284 0.8286 0.8286 0.8286
1110.000000 0.8286 0.8286 0.8287 0.8288 0.8288
1115.000000 0.8301 0.8289 0.8290 0.8291 0.8292
1120.000000 0.8293 0.8294 0.8295 0.8296 0.8297
1125.000000 0.8295 0.8293 0.8290 0.8288 0.8285
1130.000000 0.8283 0.8265 0.8243 0.8221 0.8199
1135.000000 0.8177 0.8156 0.8134 0.8112 0.8091
1140.000000 0.8091 0.8092 0.8093 0.8094 0.8096
1145.000000 0.8097 0.8097 0.8094 0.8091 0.8088
1150.000000 0.8079 0.8070 0.8061 0.8053 0.8044
1155.000000 0.8034 0.8014 0.7994 0.7975 0.7932
1160.000000 0.7885 0.7787 0.7749 0.7753 0.7767
1165.000000 0.7792 0.7876 0.7957 0.8011 0.8048
1170.000000 0.8069 0.8090 0.8098 0.8099 0.8095
1175.000000 0.8072 0.8051 0.8029 0.7993 0.7953
1180.000000 0.7909 0.7847 0.7837 0.7805 0.7688
1185.000000 0.7572 0.7487 0.7487 0.7483 0.7730
1190.000000 0.7856 0.7981 0.8107 0.8117 0.8120
1195.000000 0.8124 0.8129 0.8133 0.8138 0.8143
1200.000000 0.8143 0.8141 0.8140 0.8139 0.8137
1205.000000 0.8136 0.8135 0.8133 0.8132 0.8131
1210.000000 0.8130 0.8129 0.8128 0.8126 0.8125
1215.000000 0.8155 0.8125 0.8124 0.8124 0.8123
1220.000000 0.8123 0.8122 0.8122 0.8122 0.8122
1225.000000 0.8122 0.8122 0.8122 0.8122 0.8120
1230.000000 0.8112 0.8104 0.8097 0.8089 0.8079
1235.000000 0.8066 0.8054 0.8042 0.8030 0.8017
1240.000000 0.8005 0.7995 0.7986 0.7977 0.7970
1245.000000 0.7964 0.7957 0.7951 0.7944 0.7938
1250.000000 0.7931 0.7925 0.7918 0.7912 0.7905
1255.000000 0.7899 0.7891 0.7882 0.7874 0.7865
1260.000000 0.7857 0.7848 0.7839 0.7831 0.7822
1265.000000 0.7814 0.7805 0.7793 0.7779 0.7764
1270.000000 0.7750 0.7735 0.7721 0.7693 0.7662
1275.000000 0.7626 0.7597 0.7591 0.7585 0.7579
1280.000000 0.7583 0.7593 0.7604 0.7623 0.7654
1285.000000 0.7675 0.7677 0.7671 0.7665 0.7652
1290.000000 0.7635 0.7615 0.7593 0.7571 0.7549
1295.000000 0.7525 0.7499 0.7473 0.7447 0.7420
1300.000000 0.7386 0.7351 0.7317 0.7283 0.7245
1305.000000 0.7208 0.7098 0.6921 0.6743 0.6570
1310.000000 0.6570 0.6628 0.6729 0.6791 0.6842
1315.000000 0.6882 0.6928 0.6980 0.7067 0.7143
1320.000000 0.7214 0.7273 0.7285 0.7289 0.7287
1325.000000 0.7308 0.7275 0.7264 0.7250 0.7225
1330.000000 0.7174 0.7049 0.6883 0.6717 0.6551
1335.000000 0.6386 0.6220 0.6074 0.6084 0.6083
1340.000000 0.6359 0.6623 0.6887 0.7076 0.7102
1345.000000 0.7128 0.7155 0.7186 0.7219 0.7291
1350.000000 0.7378 0.7471 0.7565 0.7659 0.7714
1355.000000 0.7765 0.7798 0.7831 0.7863 0.7887
1360.000000 0.7911 0.7936 0.7959 0.7979 0.7998
1365.000000 0.7998 0.8007 0.7995 0.7991 0.7986
1370.000000 0.7982 0.7975 0.7968 0.7959 0.7938
1375.000000 0.7917 0.7896 0.7874 0.7851 0.7829
1380.000000 0.7802 0.7771 0.7737 0.7719 0.7715
1385.000000 0.7732 0.7743 0.7756 0.7769 0.7782
1390.000000 0.7797 0.7819 0.7840 0.7862 0.7886
1395.000000 0.7912 0.7938 0.7964 0.7990 0.8016
1400.000000 0.8039 0.8060 0.8081 0.8093 0.8094
1405.000000 0.8114 0.8094 0.8086 0.8078 0.8068
1410.000000 0.8056 0.8045 0.8034 0.8020 0.8004
1415.000000 0.7989 0.7963 0.7937 0.7904 0.7866
1420.000000 0.7813 0.7745 0.7676 0.7603 0.7514
1425.000000 0.7422 0.7298 0.7177 0.7069 0.6869
1430.000000 0.6670 0.5929 0.5201 0.4474 0.3747
1435.000000 0.3019 0.2292 0.1564 0.1248 0.1247
1440.000000 0.2315 0.3798 0.5280 0.7967 0.8167
1445.000000 0.8238 0.8299 0.8328 0.8353 0.8369
1450.000000 0.8379 0.8383 0.8388 0.8399 0.8384
1455.000000 0.8383 0.8382 0.8378 0.8372 0.8365
1460.000000 0.8353 0.8339 0.8325 0.8303 0.8281
1465.000000 0.8249 0.8200 0.8132 0.8047 0.7913
1470.000000 0.7802 0.7690 0.7568 0.7383 0.7221
1475.000000 0.7078 0.6937 0.6800 0.6523 0.5826
1480.000000 0.5130 0.4068 0.4095 0.4403 0.5094
1485.000000 0.5785 0.6476 0.7168 0.7859 0.8550
1490.000000 0.8762 0.8794 0.8816 0.8832 0.8839
1495.000000 0.8843 0.8843 0.8843 0.8843 0.8842
1500.000000 0.8840 0.8839 0.8837 0.8835 0.8830
1505.000000 0.8825 0.8820 0.8815 0.8811 0.8806
1510.000000 0.8799 0.8793 0.8787 0.8781 0.8774
1515.000000 0.8768 0.8762 0.8756 0.8751 0.8747
1520.000000 0.8742 0.8738 0.8733 0.8729 0.8725
1525.000000 0.8720 0.8716 0.8712 0.8708 0.8705
1530.000000 0.8702 0.8699 0.8696 0.8693 0.8690
1535.000000 0.8687 0.8685 0.8682 0.8679 0.8676
1540.000000 0.8673 0.8670 0.8667 0.8664 0.8661
1545.000000 0.8658 0.8655 0.8652 0.8650 0.8648
1550.000000 0.8646 0.8645 0.8643 0.8641 0.8639
1555.000000 0.8637 0.8635 0.8633 0.8631 0.8629
1560.000000 0.8627 0.8626 0.8626 0.8626 0.8626
1565.000000 0.8626 0.8626 0.8626 0.8627 0.8627
1570.000000 0.8627 0.8615 0.8592 0.8567 0.8525
1575.000000 0.8398 0.8270 0.8155 0.8158 0.8299
1580.000000 0.8479 0.8526 0.8542 0.8554 0.8560
1585.000000 0.8566 0.8571 0.8574 0.8578 0.8581
1590.000000 0.8584 0.8586 0.8589 0.8591 0.8593
1595.000000 0.8593 0.8592 0.8591 0.8590 0.8582
1600.000000 0.8573 0.8564 0.8555 0.8546 0.8534
1605.000000 0.8523 0.8512 0.8501 0.8490 0.8477
1610.000000 0.8464 0.8451 0.8447 0.8449 0.8451
1615.000000 0.8456 0.8461 0.8466 0.8471 0.8475
1620.000000 0.8479 0.8483 0.8486 0.8489 0.8490
1625.000000 0.8483 0.8477 0.8470 0.8464 0.8457
1630.000000 0.8450 0.8442 0.8435 0.8427 0.8419
1635.000000 0.8413 0.8408 0.8404 0.8399 0.8395
1640.000000 0.8390 0.8386 0.8381 0.8377 0.8372
1645.000000 0.8366 0.8361 0.8356 0.8351 0.8345
1650.000000 0.8340 0.8336 0.8334 0.8332 0.8329
1655.000000 0.8327 0.8325 0.8323 0.8321 0.8318
1660.000000 0.8316 0.8314 0.8312 0.8310 0.8307
1665.000000 0.8305 0.8303 0.8301 0.8304 0.8310
1670.000000 0.8317 0.8324 0.8330 0.8336 0.8340
1675.000000 0.8345 0.8350 0.8354 0.8353 0.8351
1680.000000 0.8348 0.8345 0.8342 0.8340 0.8337
1685.000000 0.8334 0.8331 0.8330 0.8332 0.8333
1690.000000 0.8334 0.8334 0.8334 0.8339 0.8349
1695.000000 0.8366 0.8384 0.8404 0.8424 0.8441
1700.000000 0.8455 0.8469 0.8474 0.8479 0.8484
1705.000000 0.8488 0.8493 0.8498 0.8502 0.8505
1710.000000 0.8508 0.8511 0.8509 0.8507 0.8506
1715.000000 0.8505 0.8500 0.8488 0.8476 0.8463
1720.000000 0.8451 0.8439 0.8427 0.8406 0.8382
1725.000000 0.8358 0.8333 0.8308 0.8277 0.8246
1730.000000 0.8230 0.8227 0.8235 0.8243 0.8231
1735.000000 0.8281 0.8308 0.8336 0.8366 0.8392
1740.000000 0.8413 0.8434 0.8450 0.8465 0.8481
1745.000000 0.8482 0.8478 0.8480 0.8474 0.8468
1750.000000 0.8461 0.8453 0.8445 0.8438 0.8430
1755.000000 0.8419 0.8408 0.8398 0.8387 0.8375
1760.000000 0.8361 0.8347 0.8334 0.8320 0.8339
1765.000000 0.8336 0.8354 0.8373 0.8393 0.8403
1770.000000 0.8413 0.8420 0.8421 0.8422 0.8423
1775.000000 0.8423 0.8421 0.8405 0.8418 0.8416
1780.000000 0.8415 0.8413 0.8412 0.8411 0.8410
1785.000000 0.8410 0.8406 0.8399 0.8392 0.8385
1790.000000 0.8378 0.8371 0.8363 0.8356 0.8348
1795.000000 0.8341 0.8333 0.8325 0.8318 0.8310
1800.000000 0.8303 0.8295 0.8287 0.8279 0.8272
1805.000000 0.8264 0.8256 0.8242 0.8227 0.8211
1810.000000 0.8195 0.8179 0.8167 0.8173 0.8178
1815.000000 0.8148 0.8198 0.8210 0.8226 0.8246
1820.000000 0.8265 0.8277 0.8288 0.8298 0.8309
1825.000000 0.8319 0.8329 0.8340 0.8349 0.8356
1830.000000 0.8363 0.8370 0.8377 0.8384 0.8387
1835.000000 0.8386 0.8385 0.8384 0.8383 0.8381
1840.000000 0.8380 0.8379 0.8378 0.8377 0.8377
1845.000000 0.8377 0.8377 0.8377 0.8377 0.8377
1850.000000 0.8377 0.8376 0.8376 0.8376 0.8375
1855.000000 0.8375 0.8375 0.8392 0.8374 0.8374
1860.000000 0.8374 0.8374 0.8374 0.8374 0.8374
1865.000000 0.8374 0.8374 0.8374 0.8374 0.8372
1870.000000 0.8368 0.8364 0.8360 0.8356 0.8352
1875.000000 0.8348 0.8344 0.8340 0.8336 0.8332
1880.000000 0.8323 0.8311 0.8299 0.8287 0.8275
1885.000000 0.8263 0.8251 0.8239 0.8227 0.8215
1890.000000 0.8203 0.8191 0.8178 0.8166 0.8156
1895.000000 0.8165 0.8173 0.8180 0.8187 0.8194
1900.000000 0.8179 0.8205 0.8205 0.8205 0.8205
1905.000000 0.8205 0.8205 0.8205 0.8205 0.8205
1910.000000 0.8204 0.8202 0.8201 0.8199 0.8198
1915.000000 0.8198 0.8200 0.8201 0.8202 0.8204
1920.000000 0.8205 0.8209 0.8213 0.8216 0.8220
1925.000000 0.8224 0.8230 0.8240 0.8250 0.8260
1930.000000 0.8266 0.8269 0.8272 0.8276 0.8279
1935.000000 0.8282 0.8281 0.8280 0.8278 0.8276
1940.000000 0.8274 0.8271 0.8268 0.8264 0.8261
1945.000000 0.8258 0.8259 0.8261 0.8264 0.8266
1950.000000 0.8268 0.8271 0.8268 0.8260 0.8253
1955.000000 0.8246 0.8240 0.8255 0.8270 0.8285
1960.000000 0.8307 0.8334 0.8360 0.8323 0.8268
1965.000000 0.8194 0.8144 0.8121 0.8120 0.8119
1970.000000 0.8118 0.8119 0.8123 0.8126 0.8129
1975.000000 0.8132 0.8135 0.8146 0.8161 0.8183
1980.000000 0.8206 0.8229 0.8198 0.8159 0.8126
1985.000000 0.8107 0.8097 0.8087 0.8083 0.8080
1990.000000 0.8078 0.8079 0.8082 0.8084 0.8087
1995.000000 0.8089 0.8092 0.8094 0.8118 0.8180
2000.000000 0.8242 0.8300 0.8358 0.8357 0.8356
2005.000000 0.8354 0.8353 0.8351 0.8350 0.8350
2010.000000 0.8350 0.8350 0.8350 0.8350 0.8351
2015.000000 0.8353 0.8355 0.8357 0.8360 0.8362
2020.000000 0.8365 0.8368 0.8371 0.8374 0.8377
2025.000000 0.8380 0.8384 0.8383 0.8383 0.8382
2030.000000 0.8382 0.8381 0.8380 0.8378 0.8377
2035.000000 0.8374 0.8372 0.8370 0.8368 0.8366
2040.000000 0.8364 0.8361 0.8359 0.8356 0.8354
2045.000000 0.8351 0.8349 0.8346 0.8344 0.8341
2050.000000 0.8338 0.8335 0.8333 0.8330 0.8327
2055.000000 0.8321 0.8316 0.8311 0.8306 0.8300
2060.000000 0.8295 0.8290 0.8285 0.8279 0.8274
2065.000000 0.8268 0.8263 0.8258 0.8253 0.8248
2070.000000 0.8243 0.8241 0.8239 0.8237 0.8235
2075.000000 0.8232 0.8230 0.8228 0.8226 0.8224
2080.000000 0.8222 0.8220 0.8218 0.8215 0.8213
2085.000000 0.8212 0.8212 0.8213 0.8215 0.8214
2090.000000 0.8214 0.8205 0.8197 0.8189 0.8181
2095.000000 0.8173 0.8165 0.8157 0.8149 0.8141
2100.000000 0.8134 0.8129 0.8124 0.8121 0.8119
2105.000000 0.8119 0.8120 0.8120 0.8121 0.8121
2110.000000 0.8122 0.8122 0.8122 0.8120 0.8119
2115.000000 0.8118 0.8117 0.8115 0.8113 0.8111
2120.000000 0.8110 0.8108 0.8107 0.8105 0.8103
2125.000000 0.8101 0.8100 0.8098 0.8097 0.8095
2130.000000 0.8093 0.8091 0.8090 0.8088 0.8087
2135.000000 0.8085 0.8083 0.8081 0.8080 0.8078
2140.000000 0.8076 0.8074 0.8073 0.8067 0.8061
2145.000000 0.8050 0.8040 0.8028 0.8017 0.7996
2150.000000 0.7976 0.7955 0.7934 0.7912 0.7890
2155.000000 0.7889 0.7889 0.7888 0.7888 0.7887
2160.000000 0.7887 0.7897 0.7907 0.7919 0.7931
2165.000000 0.7944 0.7957 0.7967 0.7978 0.7986
2170.000000 0.7995 0.8001 0.8007 0.8004 0.8001
2175.000000 0.7997 0.7994 0.7990 0.7986 0.7982
2180.000000 0.7978 0.7973 0.7969 0.7965 0.7961
2185.000000 0.7958 0.7955 0.7952 0.7950 0.7948
2190.000000 0.7946 0.7944 0.7942 0.7939 0.7937
2195.000000 0.7935 0.7934 0.7932 0.7930 0.7928
2200.000000 0.7927 0.7925 0.7924 0.7922 0.7920
2205.000000 0.7917 0.7915 0.7910 0.7906 0.7901
2210.000000 0.7897 0.7892 0.7887 0.7882 0.7878
2215.000000 0.7873 0.7868 0.7863 0.7858 0.7852
2220.000000 0.7847 0.7841 0.7836 0.7831 0.7826
2225.000000 0.7820 0.7815 0.7809 0.7804 0.7799
2230.000000 0.7794 0.7788 0.7783 0.7778 0.7773
2235.000000 0.7768 0.7763 0.7757 0.7752 0.7747
2240.000000 0.7742 0.7736 0.7731 0.7726 0.7721
2245.000000 0.7716 0.7711 0.7708 0.7706 0.7704
2250.000000 0.7702 0.7700 0.7698 0.7696 0.7694
2255.000000 0.7691 0.7689 0.7687 0.7685 0.7686
2260.000000 0.7687 0.7688 0.7690 0.7691 0.7692
2265.000000 0.7696 0.7700 0.7702 0.7705 0.7696
2270.000000 0.7688 0.7678 0.7669 0.7659 0.7650
2275.000000 0.7646 0.7642 0.7642 0.7643 0.7644
2280.000000 0.7645 0.7646 0.7647 0.7647 0.7647
2285.000000 0.7645 0.7643 0.7641 0.7639 0.7635
2290.000000 0.7631 0.7625 0.7619 0.7613 0.7608
2295.000000 0.7603 0.7599 0.7594 0.7590 0.7585
2300.000000 0.7581 0.7576 0.7572 0.7568 0.7565
2305.000000 0.7562 0.7559 0.7555 0.7552 0.7549
2310.000000 0.7546 0.7542 0.7539 0.7536 0.7533
2315.000000 0.7529 0.7526 0.7523 0.7520 0.7521
2320.000000 0.7523 0.7525 0.7527 0.7529 0.7531
2325.000000 0.7533 0.7536 0.7538 0.7540 0.7543
2330.000000 0.7547 0.7552 0.7557 0.7559 0.7562
2335.000000 0.7563 0.7564 0.7565 0.7567 0.7568
2340.000000 0.7569 0.7570 0.7572 0.7573 0.7574
2345.000000 0.7574 0.7575 0.7575 0.7575 0.7575
2350.000000 0.7575 0.7574 0.7574 0.7574 0.7574
2355.000000 0.7574 0.7574 0.7573 0.7573 0.7573
2360.000000 0.7573 0.7573 0.7573 0.7573 0.7573
2365.000000 0.7572 0.7572 0.7572 0.7572 0.7572
2370.000000 0.7572 0.7572 0.7572 0.7571 0.7571
2375.000000 0.7571 0.7571 0.7570 0.7570 0.7570
2380.000000 0.7570 0.7570 0.7570 0.7569 0.7569
2385.000000 0.7569 0.7569 0.7568 0.7568 0.7568
2390.000000 0.7568 0.7568 0.7568 0.7567 0.7567
2395.000000 0.7567 0.7567 0.7567 0.7567 0.7566
2400.000000 0.7566 0.7566 0.7566 0.7565 0.7565
2405.000000 0.7565 0.7565 0.7565 0.7565 0.7564
2410.000000 0.7564 0.7564 0.7564 0.7563 0.7563
2415.000000 0.7563 0.7563 0.7562 0.7562 0.7562
2420.000000 0.7562 0.7561 0.7561 0.7561 0.7561
2425.000000 0.7561 0.7561 0.7560 0.7560 0.7560
2430.000000 0.7560 0.7559 0.7559 0.7559 0.7559
2435.000000 0.7558 0.7558 0.7558 0.7558 0.7557
2440.000000 0.7557 0.7557 0.7557 0.7557 0.7557
2445.000000 0.7556 0.7556 0.7556 0.7556 0.7555
2450.000000 0.7555 0.7555 0.7555 0.7554 0.7554
2455.000000 0.7554 0.7554 0.7553 0.7553 0.7552
2460.000000 0.7552 0.7551 0.7551 0.7550 0.7550
2465.000000 0.7549 0.7549 0.7548 0.7548 0.7547
2470.000000 0.7547 0.7546 0.7546 0.7545 0.7545
2475.000000 0.7544 0.7544 0.7543 0.7542 0.7541
2480.000000 0.7541 0.7540 0.7540 0.7539 0.7539
2485.000000 0.7538 0.7538 0.7537 0.7537 0.7536
2490.000000 0.7536 0.7535 0.7535 0.7534 0.7534
2495.000000 0.7533 0.7533 0.7532 0.7532 0.7531
2500.000000 0.7530 0.7529 0.7529 0.7528 0.7527
2505.000000 0.7526 0.7525 0.7524 0.7524 0.7523
2510.000000 0.7522 0.7521 0.7520 0.7519 0.7518
2515.000000 0.7517 0.7516 0.7514 0.7512 0.7510
2520.000000 0.7508 0.7506 0.7504 0.7502 0.7500
2525.000000 0.7498 0.7496 0.7494 0.7492 0.7490
2530.000000 0.7489 0.7487 0.7485 0.7480 0.7476
2535.000000 0.7471 0.7467 0.7462 0.7457 0.7452
2540.000000 0.7448 0.7443 0.7439 0.7434 0.7430
2545.000000 0.7425 0.7420 0.7415 0.7411 0.7406
2550.000000 0.7402 0.7395 0.7389 0.7383 0.7377
2555.000000 0.7375 0.7374 0.7374 0.7374 0.7374
2560.000000 0.7374 0.7374 0.7374 0.7374 0.7374
2565.000000 0.7374 0.7374 0.7374 0.7374 0.7374
2570.000000 0.7374 0.7374 0.7374 0.7374 0.7374
2575.000000 0.7374 0.7374 0.7375 0.7376 0.7377
2580.000000 0.7379 0.7380 0.7382 0.7383 0.7384
2585.000000 0.7385 0.7387 0.7388 0.7389 0.7389
2590.000000 0.7389 0.7389 0.7389 0.7389 0.7389
2595.000000 0.7389 0.7389 0.7389 0.7389 0.7388
2600.000000 0.7388 0.7386 0.7384 0.7382 0.7381
2605.000000 0.7379 0.7378 0.7376 0.7375 0.7373
2610.000000 0.7371 0.7369 0.7368 0.7366 0.7365
2615.000000 0.7363 0.7362 0.7359 0.7357 0.7353
2620.000000 0.7350 0.7347 0.7344 0.7341 0.7338
2625.000000 0.7334 0.7331 0.7328 0.7325 0.7321
2630.000000 0.7318 0.7315 0.7312 0.7304 0.7297
2635.000000 0.7289 0.7282 0.7274 0.7267 0.7256
2640.000000 0.7245 0.7224 0.7203 0.7187 0.7171
2645.000000 0.7158 0.7146 0.7146 0.7146 0.7151
2650.000000 0.7156 0.7161 0.7166 0.7173 0.7181
2655.000000 0.7192 0.7204 0.7214 0.7225 0.7235
2660.000000 0.7245 0.7254 0.7264 0.7269 0.7275
2665.000000 0.7277 0.7280 0.7281 0.7283 0.7283
2670.000000 0.7283 0.7283 0.7283 0.7283 0.7283
2675.000000 0.7282 0.7282 0.7281 0.7281 0.7280
2680.000000 0.7280 0.7280 0.7280 0.7279 0.7278
2685.000000 0.7277 0.7277 0.7276 0.7276 0.7275
2690.000000 0.7275 0.7274 0.7273 0.7272 0.7272
2695.000000 0.7270 0.7269 0.7267 0.7266 0.7264
2700.000000 0.7262 0.7260 0.7259 0.7257 0.7255
2705.000000 0.7253 0.7252 0.7250 0.7248 0.7246
2710.000000 0.7244 0.7242 0.7241 0.7239 0.7238
2715.000000 0.7236 0.7235 0.7233 0.7232 0.7230
2720.000000 0.7228 0.7226 0.7225 0.7223 0.7222
2725.000000 0.7220 0.7219 0.7217 0.7216 0.7214
2730.000000 0.7213 0.7210 0.7208 0.7206 0.7204
2735.000000 0.7202 0.7200 0.7198 0.7196 0.7194
2740.000000 0.7192 0.7190 0.7188 0.7186 0.7184
2745.000000 0.7182 0.7180 0.7178 0.7176 0.7174
2750.000000 0.7173 0.7171 0.7169 0.7167 0.7166
2755.000000 0.7164 0.7163 0.7161 0.7159 0.7157
2760.000000 0.7156 0.7154 0.7153 0.7151 0.7150
2765.000000 0.7148 0.7146 0.7144 0.7143 0.7141
2770.000000 0.7140 0.7138 0.7136 0.7134 0.7133
2775.000000 0.7131 0.7130 0.7128 0.7126 0.7124
2780.000000 0.7123 0.7121 0.7120 0.7118 0.7116
2785.000000 0.7114 0.7113 0.7110 0.7108 0.7105
2790.000000 0.7103 0.7100 0.7098 0.7096 0.7094
2795.000000 0.7091 0.7089 0.7086 0.7084 0.7081
2800.000000 0.7079 0.7076 0.7074 0.7072 0.7070
2805.000000 0.7067 0.7065 0.7062 0.7060 0.7057
2810.000000 0.7055 0.7053 0.7051 0.7048 0.7046
2815.000000 0.7043 0.7040 0.7036 0.7033 0.7030
2820.000000 0.7027 0.7023 0.7020 0.7016 0.7013
2825.000000 0.7010 0.7007 0.7003 0.7000 0.6997
2830.000000 0.6994 0.6990 0.6987 0.6984 0.6981
2835.000000 0.6977 0.6974 0.6967 0.6961 0.6955
2840.000000 0.6949 0.6942 0.6936 0.6930 0.6924
2845.000000 0.6918 0.6912 0.6910 0.6908 0.6906
2850.000000 0.6904 0.6902 0.6900 0.6898 0.6897
2855.000000 0.6895 0.6893 0.6891 0.6889 0.6887
2860.000000 0.6885 0.6883 0.6881 0.6879 0.6877
2865.000000 0.6875 0.6873 0.6871 0.6869 0.6867
2870.000000 0.6865 0.6863 0.6861 0.6858 0.6856
2875.000000 0.6854 0.6852 0.6850 0.6848 0.6845
2880.000000 0.6843 0.6841 0.6839 0.6837 0.6835
2885.000000 0.6832 0.6830 0.6825 0.6820 0.6814
2890.000000 0.6809 0.6804 0.6799 0.6794 0.6789
2895.000000 0.6784 0.6779 0.6773 0.6768 0.6763
2900.000000 0.6758 0.6753 0.6748 0.6739 0.6731
2905.000000 0.6722 0.6713 0.6704 0.6695 0.6687
2910.000000 0.6679 0.6676 0.6674 0.6671 0.6669
2915.000000 0.6666 0.6664 0.6663 0.6662 0.6662
2920.000000 0.6662 0.6662 0.6663 0.6663 0.6663
2925.000000 0.6663 0.6664 0.6664 0.6665 0.6665
2930.000000 0.6665 0.6667 0.6669 0.6670 0.6672
2935.000000 0.6673 0.6675 0.6676 0.6678 0.6674
2940.000000 0.6671 0.6662 0.6653 0.6644 0.6636
2945.000000 0.6631 0.6626 0.6624 0.6623 0.6625
2950.000000 0.6628 0.6633 0.6638 0.6641 0.6645
2955.000000 0.6648 0.6651 0.6654 0.6657 0.6660
2960.000000 0.6663 0.6664 0.6665 0.6665 0.6665
2965.000000 0.6665 0.6665 0.6665 0.6665 0.6665
2970.000000 0.6666 0.6666 0.6666 0.6666 0.6666
2975.000000 0.6665 0.6664 0.6662 0.6661 0.6659
2980.000000 0.6658 0.6656 0.6654 0.6652 0.6651
2985.000000 0.6649 0.6647 0.6644 0.6642 0.6635
2990.000000 0.6628 0.6620 0.6613 0.6606 0.6599
2995.000000 0.6591 0.6584 0.6576 0.6569 0.6562
3000.000000 0.6555 0.6547 0.6540 0.6532 0.6525
3005.000000 0.6517 0.6510 0.6502 0.6495 0.6487
3010.000000 0.6480 0.6472 0.6465 0.6457 0.6450
3015.000000 0.6442 0.6435 0.6427 0.6420 0.6412
3020.000000 0.6405 0.6397 0.6389 0.6381 0.6373
3025.000000 0.6365 0.6358 0.6350 0.6342 0.6334
3030.000000 0.6326 0.6318 0.6310 0.6302 0.6294
3035.000000 0.6286 0.6279 0.6271 0.6263 0.6255
3040.000000 0.6247 0.6239 0.6231 0.6222 0.6213
3045.000000 0.6204 0.6195 0.6185 0.6176 0.6166
3050.000000 0.6157 0.6147 0.6138 0.6129 0.6120
3055.000000 0.6110 0.6101 0.6091 0.6082 0.6073
3060.000000 0.6064 0.6055 0.6046 0.6042 0.6039
3065.000000 0.6039 0.6006 0.6043 0.6048 0.6083
3070.000000 0.6118 0.6157 0.6197 0.6215 0.6234
3075.000000 0.6248 0.6263 0.6276 0.6289 0.6298
3080.000000 0.6307 0.6316 0.6325 0.6333 0.6342
3085.000000 0.6348 0.6354 0.6360 0.6366 0.6372
3090.000000 0.6378 0.6384 0.6390 0.6394 0.6399
3095.000000 0.6403 0.6408 0.6410 0.6412 0.6414
3100.000000 0.6416 0.6418 0.6420 0.6421 0.6423
3105.000000 0.6425 0.6427 0.6429 0.6431 0.6431
3110.000000 0.6445 0.6431 0.6431 0.6431 0.6431
3115.000000 0.6431 0.6431 0.6431 0.6431 0.6430
3120.000000 0.6429 0.6428 0.6427 0.6425 0.6424
3125.000000 0.6423 0.6422 0.6420 0.6419 0.6418
3130.000000 0.6417 0.6415 0.6414 0.6413 0.6412
3135.000000 0.6411 0.6410 0.6408 0.6407 0.6406
3140.000000 0.6405 0.6380 0.6356 0.6326 0.6296
3145.000000 0.6293 0.6290 0.6287 0.6284 0.6282
3150.000000 0.6281 0.6283 0.6285 0.6287 0.6289
3155.000000 0.6290 0.6292 0.6294 0.6296 0.6297
3160.000000 0.6299 0.6300 0.6302 0.6303 0.6305
3165.000000 0.6306 0.6307 0.6308 0.6310 0.6311
3170.000000 0.6313 0.6314 0.6315 0.6316 0.6317
3175.000000 0.6317 0.6317 0.6317 0.6317 0.6317
3180.000000 0.6317 0.6317 0.6317 0.6317 0.6317
3185.000000 0.6315 0.6314 0.6312 0.6311 0.6309
3190.000000 0.6308 0.6307 0.6306 0.6304 0.6303
3195.000000 0.6302 0.6301 0.6300 0.6299 0.6297
3200.000000 0.6296 0.6295 0.6294 0.6292 0.6291
3205.000000 0.6290 0.6289 0.6288 0.6287 0.6285
3210.000000 0.6284 0.6283 0.6282 0.6281 0.6280
3215.000000 0.6278 0.6277 0.6275 0.6274 0.6272
3220.000000 0.6271 0.6269 0.6268 0.6266 0.6265
3225.000000 0.6263 0.6262 0.6260 0.6259 0.6257
3230.000000 0.6255 0.6253 0.6251 0.6249 0.6247
3235.000000 0.6244 0.6242 0.6240 0.6238 0.6236
3240.000000 0.6234 0.6231 0.6229 0.6227 0.6225
3245.000000 0.6223 0.6221 0.6218 0.6216 0.6214
3250.000000 0.6212 0.6209 0.6207 0.6205 0.6203
3255.000000 0.6200 0.6198 0.6196 0.6194 0.6191
3260.000000 0.6189 0.6186 0.6184 0.6182 0.6180
3265.000000 0.6177 0.6175 0.6172 0.6170 0.6168
3270.000000 0.6166 0.6163 0.6161 0.6159 0.6157
3275.000000 0.6154 0.6152 0.6150 0.6148 0.6146
3280.000000 0.6145 0.6143 0.6141 0.6139 0.6138
3285.000000 0.6136 0.6134 0.6132 0.6131 0.6129
3290.000000 0.6127 0.6125 0.6124 0.6122 0.6120
3295.000000 0.6118 0.6117 0.6115 0.6113 0.6111
3300.000000 0.6110 0.6108 0.6106 0.6104 0.6103
3305.000000 0.6101 0.6099 0.6097 0.6096 0.6094
3310.000000 0.6092 0.6090 0.6089 0.6087 0.6086
3315.000000 0.6084 0.6082 0.6080 0.6079 0.6077
3320.000000 0.6076 0.6074 0.6073 0.6071 0.6069
3325.000000 0.6067 0.6066 0.6064 0.6063 0.6061
3330.000000 0.6059 0.6057 0.6056 0.6054 0.6053
3335.000000 0.6051 0.6049 0.6047 0.6045 0.6043
3340.000000 0.6042 0.6040 0.6038 0.6036 0.6035
3345.000000 0.6033 0.6031 0.6029 0.6028 0.6026
3350.000000 0.6024 0.6022 0.6020 0.6018 0.6017
3355.000000 0.6015 0.6013 0.6011 0.6010 0.6008
3360.000000 0.6006 0.6004 0.6003 0.6001 0.5999
3365.000000 0.5997 0.5996 0.5994 0.5993 0.5992
3370.000000 0.5991 0.5990 0.5989 0.5988 0.5987
3375.000000 0.5986 0.5985 0.5984 0.5983 0.5982
3380.000000 0.5981 0.5980 0.5980 0.5979 0.5978
3385.000000 0.5977 0.5976 0.5975 0.5974 0.5973
3390.000000 0.5972 0.5971 0.5970 0.5969 0.5968
3395.000000 0.5967 0.5966 0.5965 0.5964 0.5963
3400.000000 0.5962 0.5961 0.5961 0.5960 0.5959
3405.000000 0.5958 0.5957 0.5956 0.5955 0.5954
3410.000000 0.5953 0.5952 0.5951 0.5950 0.5949
3415.000000 0.5948 0.5948 0.5947 0.5947 0.5946
3420.000000 0.5945 0.5944 0.5944 0.5943 0.5943
3425.000000 0.5942 0.5942 0.5941 0.5940 0.5939
3430.000000 0.5939 0.5938 0.5938 0.5937 0.5936
3435.000000 0.5935 0.5935 0.5934 0.5934 0.5933
3440.000000 0.5932 0.5931 0.5931 0.5930 0.5930
3445.000000 0.5929 0.5928 0.5927 0.5927 0.5926
3450.000000 0.5926 0.5925 0.5924 0.5923 0.5923
3455.000000 0.5922 0.5922 0.5921 0.5920 0.5919
3460.000000 0.5919 0.5918 0.5918 0.5917 0.5916
3465.000000 0.5915 0.5915 0.5914 0.5914 0.5913
3470.000000 0.5913 0.5912 0.5912 0.5911 0.5911
3475.000000 0.5911 0.5911 0.5910 0.5910 0.5909
3480.000000 0.5909 0.5908 0.5908 0.5908 0.5908
3485.000000 0.5907 0.5907 0.5906 0.5906 0.5905
3490.000000 0.5905 0.5905 0.5905 0.5904 0.5904
3495.000000 0.5903 0.5903 0.5902 0.5902 0.5901
3500.000000 0.5901 0.5901 0.5901 0.5900 0.5900
3505.000000 0.5899 0.5899 0.5898 0.5898 0.5898
3510.000000 0.5898 0.5897 0.5897 0.5896 0.5896
3515.000000 0.5896 0.5896 0.5896 0.5896 0.5896
3520.000000 0.5897 0.5897 0.5897 0.5897 0.5898
3525.000000 0.5898 0.5898 0.5898 0.5899 0.5899
3530.000000 0.5899 0.5899 0.5900 0.5900 0.5900
3535.000000 0.5900 0.5900 0.5900 0.5901 0.5901
3540.000000 0.5901 0.5901 0.5902 0.5902 0.5902
3545.000000 0.5902 0.5903 0.5903 0.5903 0.5902
3550.000000 0.5901 0.5900 0.5899 0.5898 0.5897
3555.000000 0.5896 0.5895 0.5894 0.5893 0.5892
3560.000000 0.5891 0.5890 0.5889 0.5888 0.5887
3565.000000 0.5886 0.5885 0.5884 0.5883 0.5881
3570.000000 0.5879 0.5876 0.5873 0.5870 0.5867
3575.000000 0.5864 0.5861 0.5863 0.5865 0.5868
3580.000000 0.5872 0.5877 0.5882 0.5887 0.5892
3585.000000 0.5896 0.5901 0.5904 0.5908 0.5908
3590.000000 0.5909 0.5909 0.5910 0.5910 0.5911
3595.000000 0.5911 0.5911 0.5911 0.5911 0.5911
3600.000000 0.5911 0.5911 0.5911 0.5911 0.5911
3605.000000 0.5910 0.5910 0.5910 0.5910 0.5910
3610.000000 0.5910 0.5909 0.5909 0.5909 0.5909
3615.000000 0.5908 0.5908 0.5908 0.5908 0.5907
3620.000000 0.5907 0.5907 0.5907 0.5906 0.5906
3625.000000 0.5905 0.5905 0.5905 0.5905 0.5904
3630.000000 0.5904 0.5903 0.5903 0.5902 0.5902
3635.000000 0.5902 0.5902 0.5901 0.5901 0.5900
3640.000000 0.5900 0.5899 0.5898 0.5897 0.5896
3645.000000 0.5895 0.5894 0.5893 0.5892 0.5891
3650.000000 0.5890 0.5889 0.5888 0.5887 0.5886
3655.000000 0.5885 0.5885 0.5884 0.5883 0.5882
3660.000000 0.5881 0.5880 0.5879 0.5878 0.5877
3665.000000 0.5876 0.5875 0.5872 0.5870 0.5868
3670.000000 0.5866 0.5864 0.5862 0.5859 0.5857
3675.000000 0.5855 0.5853 0.5851 0.5849 0.5847
3680.000000 0.5845 0.5844 0.5843 0.5841 0.5840
3685.000000 0.5839 0.5838 0.5841 0.5844 0.5847
3690.000000 0.5850 0.5855 0.5861 0.5862 0.5864
3695.000000 0.5864 0.5864 0.5864 0.5864 0.5864
3700.000000 0.5864 0.5864 0.5864 0.5863 0.5863
3705.000000 0.5862 0.5861 0.5860 0.5860 0.5859
3710.000000 0.5859 0.5858 0.5858 0.5857 0.5857
3715.000000 0.5856 0.5856 0.5855 0.5854 0.5853
3720.000000 0.5853 0.5852 0.5851 0.5850 0.5850
3725.000000 0.5849 0.5849 0.5848 0.5847 0.5846
3730.000000 0.5846 0.5843 0.5841 0.5838 0.5836
3735.000000 0.5833 0.5831 0.5828 0.5826 0.5823
3740.000000 0.5821 0.5818 0.5816 0.5812 0.5809
3745.000000 0.5803 0.5798 0.5793 0.5788 0.5782
3750.000000 0.5777 0.5773 0.5769 0.5766 0.5764
3755.000000 0.5761 0.5758 0.5756 0.5754 0.5754
3760.000000 0.5755 0.5756 0.5757 0.5757 0.5758
3765.000000 0.5759 0.5760 0.5760 0.5761 0.5762
3770.000000 0.5763 0.5764 0.5765 0.5764 0.5764
3775.000000 0.5763 0.5763 0.5762 0.5761 0.5760
3780.000000 0.5760 0.5759 0.5758 0.5757 0.5757
3785.000000 0.5756 0.5755 0.5754 0.5754 0.5753
3790.000000 0.5753 0.5752 0.5751 0.5751 0.5751
##END=
