##TITLE=CALCIUM OXALATE
##JCAMP-DX=4.24
##DATA TYPE=INFRARED SPECTRUM
##CLASS=COBLENTZ
##OWNER=COBLENTZ SOCIETY
Collection (C) 2018 copyright by the U.S. Secretary of Commerce
on behalf of the United States of America. All rights reserved.
##DATE=Not specified, most likely prior to 1970
##MOLFORM=Ca C2 O4  * H2 O
##SOURCE REFERENCE=COBLENTZ NO. 65
##$NIST ID=B6000065
##$NIST SOURCE=COBLENTZ
##$NIST IMAGE=cob65
##SPECTROMETER/DATA SYSTEM=Not specified, most likely a prism, grating, or hybrid spectrometer.
##STATE=SOLID (KBr DISC)
##SAMPLING PROCEDURE=TRANSMISSION
##RESOLUTION=4
##DATA PROCESSING=DIGITIZED BY NIST FROM HARD COPY
##XUNITS=MICROMETERS
##YUNITS=TRANSMITTANCE
##XFACTOR=1.000000
##YFACTOR=1
##DELTAX=000.007621
##FIRSTX=2.057
##LASTX=15.7514
##FIRSTY=0.967
##MAXX=15.7514
##MINX=2.057
##MAXY=0.977
##MINY=0.047
##NPOINTS=1798
##XYDATA=(X++(Y..Y))
2.057000 0.9670 0.9660 0.9660 0.9670 0.9670
2.095125 0.9680 0.9680 0.9680 0.9670 0.9670
2.133000 0.9670 0.9680 0.9680 0.9680 0.9680
2.171125 0.9680 0.9680 0.9710 0.9710 0.9710
2.209000 0.9730 0.9730 0.9730 0.9730 0.9730
2.247125 0.9730 0.9730 0.9730 0.9730 0.9730
2.285000 0.9730 0.9730 0.9740 0.9740 0.9730
2.323125 0.9740 0.9740 0.9740 0.9740 0.9740
2.362000 0.9740 0.9760 0.9740 0.9740 0.9740
2.400125 0.9740 0.9740 0.9740 0.9760 0.9760
2.438000 0.9760 0.9760 0.9760 0.9760 0.9760
2.476125 0.9760 0.9760 0.9760 0.9760 0.9740
2.514000 0.9740 0.9740 0.9760 0.9760 0.9760
2.552125 0.9760 0.9760 0.9760 0.9760 0.9770
2.590000 0.9770 0.9770 0.9770 0.9770 0.9770
2.628125 0.9760 0.9760 0.9760 0.9760 0.9760
2.666000 0.9760 0.9760 0.9760 0.9760 0.9760
2.704125 0.9760 0.9760 0.9740 0.9740 0.9680
2.743000 0.9660 0.9580 0.9520 0.9430 0.9320
2.781125 0.9150 0.8860 0.8670 0.8490 0.8310
2.819000 0.7810 0.7260 0.6730 0.6180 0.5930
2.857125 0.5340 0.5280 0.5240 0.5210 0.5160
2.895000 0.5140 0.5060 0.5030 0.5050 0.5140
2.933125 0.5300 0.5430 0.5670 0.5860 0.5860
2.971000 0.5800 0.5800 0.5550 0.5550 0.5790
3.009125 0.5890 0.6080 0.6230 0.6300 0.6330
3.047000 0.6350 0.6350 0.6360 0.6360 0.6390
3.085125 0.6490 0.6640 0.6850 0.6980 0.7030
3.124000 0.7140 0.7230 0.7320 0.7370 0.7370
3.162125 0.7380 0.7350 0.7320 0.7260 0.7230
3.200000 0.7190 0.7100 0.6950 0.6730 0.6660
3.238125 0.6580 0.6320 0.6240 0.6120 0.6080
3.276000 0.6080 0.6150 0.6200 0.6390 0.6520
3.314125 0.6640 0.7060 0.7220 0.7340 0.7480
3.352000 0.7590 0.7870 0.7940 0.8020 0.8070
3.390125 0.8150 0.8240 0.8410 0.8470 0.8580
3.428000 0.8670 0.8770 0.8810 0.8840 0.8870
3.466125 0.8950 0.8980 0.9020 0.9060 0.9080
3.505000 0.9080 0.9080 0.9110 0.9140 0.9180
3.543125 0.9230 0.9260 0.9270 0.9290 0.9300
3.581000 0.9300 0.9320 0.9330 0.9330 0.9350
3.619125 0.9360 0.9360 0.9370 0.9420 0.9450
3.657000 0.9480 0.9510 0.9520 0.9550 0.9570
3.695125 0.9580 0.9580 0.9610 0.9630 0.9630
3.733000 0.9630 0.9630 0.9630 0.9640 0.9640
3.771125 0.9660 0.9660 0.9670 0.9680 0.9700
3.809000 0.9700 0.9680 0.9680 0.9680 0.9680
3.847125 0.9680 0.9680 0.9700 0.9680 0.9680
3.886000 0.9680 0.9680 0.9700 0.9700 0.9700
3.924125 0.9700 0.9700 0.9700 0.9700 0.9700
3.962000 0.9710 0.9730 0.9730 0.9730 0.9730
4.000125 0.9730 0.9730 0.9730 0.9730 0.9730
4.038000 0.9730 0.9730 0.9730 0.9730 0.9730
4.076125 0.9730 0.9730 0.9740 0.9740 0.9740
4.114000 0.9740 0.9740 0.9760 0.9760 0.9760
4.152125 0.9760 0.9760 0.9760 0.9760 0.9760
4.191000 0.9760 0.9760 0.9760 0.9760 0.9760
4.229125 0.9770 0.9770 0.9760 0.9760 0.9770
4.267000 0.9770 0.9770 0.9770 0.9770 0.9770
4.305125 0.9770 0.9760 0.9760 0.9760 0.9760
4.343000 0.9760 0.9760 0.9740 0.9730 0.9730
4.381125 0.9730 0.9710 0.9700 0.9700 0.9700
4.419000 0.9700 0.9700 0.9700 0.9700 0.9700
4.457125 0.9700 0.9710 0.9710 0.9710 0.9730
4.495000 0.9730 0.9730 0.9740 0.9740 0.9740
4.533125 0.9730 0.9730 0.9730 0.9730 0.9730
4.572000 0.9740 0.9740 0.9740 0.9740 0.9740
4.610125 0.9740 0.9740 0.9740 0.9740 0.9740
4.648000 0.9730 0.9730 0.9730 0.9730 0.9730
4.686125 0.9730 0.9730 0.9740 0.9730 0.9730
4.724000 0.9730 0.9730 0.9730 0.9730 0.9730
4.762125 0.9730 0.9730 0.9740 0.9730 0.9730
4.800000 0.9730 0.9730 0.9730 0.9730 0.9740
4.838125 0.9740 0.9740 0.9740 0.9740 0.9740
4.876000 0.9740 0.9740 0.9730 0.9730 0.9730
4.914125 0.9730 0.9730 0.9730 0.9730 0.9730
4.953000 0.9730 0.9730 0.9730 0.9730 0.9730
4.991125 0.9730 0.9730 0.9710 0.9710 0.9710
5.029000 0.9710 0.9730 0.9730 0.9730 0.9730
5.067125 0.9730 0.9730 0.9730 0.9710 0.9710
5.105000 0.9700 0.9680 0.9670 0.9660 0.9640
5.143125 0.9640 0.9630 0.9630 0.9630 0.9630
5.181000 0.9610 0.9600 0.9600 0.9580 0.9540
5.219125 0.9510 0.9490 0.9480 0.9480 0.9480
5.257000 0.9480 0.9480 0.9480 0.9490 0.9510
5.295125 0.9510 0.9510 0.9520 0.9520 0.9520
5.334000 0.9540 0.9540 0.9540 0.9540 0.9540
5.372125 0.9540 0.9540 0.9540 0.9540 0.9540
5.410000 0.9540 0.9540 0.9540 0.9540 0.9540
5.448125 0.9520 0.9520 0.9520 0.9510 0.9510
5.486000 0.9490 0.9480 0.9460 0.9460 0.9450
5.524125 0.9450 0.9430 0.9430 0.9430 0.9430
5.562000 0.9430 0.9430 0.9430 0.9430 0.9430
5.600125 0.9420 0.9390 0.9370 0.9360 0.9350
5.638000 0.9330 0.9330 0.9320 0.9270 0.9240
5.676125 0.9230 0.9200 0.9180 0.9150 0.9110
5.715000 0.9020 0.8960 0.8930 0.8890 0.8840
5.753125 0.8720 0.8670 0.8500 0.8410 0.8360
5.791000 0.8330 0.8300 0.8190 0.8100 0.7930
5.829125 0.7680 0.7540 0.7410 0.7310 0.7000
5.867000 0.6730 0.6080 0.5420 0.5310 0.5060
5.905125 0.4990 0.4910 0.4600 0.4200 0.3820
5.943000 0.3550 0.3420 0.3290 0.2360 0.1870
5.981125 0.1740 0.1610 0.1270 0.1210 0.1130
6.019000 0.1060 0.1000 0.0940 0.0820 0.0700
6.057125 0.0690 0.0670 0.0620 0.0570 0.0530
6.096000 0.0500 0.0480 0.0480 0.0480 0.0470
6.134125 0.0480 0.0510 0.0570 0.0670 0.0930
6.172000 0.1100 0.1240 0.1550 0.2140 0.2420
6.210125 0.2710 0.3130 0.3240 0.4310 0.4620
6.248000 0.4810 0.5340 0.5490 0.5620 0.5730
6.286125 0.5790 0.5860 0.5930 0.5960 0.5990
6.324000 0.6100 0.6330 0.6490 0.6630 0.6890
6.362125 0.6970 0.7040 0.7090 0.7130 0.7190
6.401000 0.7410 0.7590 0.7720 0.7870 0.7910
6.439125 0.8000 0.8030 0.8050 0.8060 0.8070
6.477000 0.8090 0.8160 0.8330 0.8410 0.8500
6.515125 0.8560 0.8590 0.8620 0.8640 0.8640
6.553000 0.8650 0.8670 0.8680 0.8710 0.8740
6.591125 0.8780 0.8810 0.8860 0.8870 0.8890
6.629000 0.8920 0.8950 0.9010 0.9020 0.9030
6.667125 0.9030 0.9030 0.9030 0.9020 0.9020
6.705000 0.9020 0.9020 0.9030 0.9050 0.9060
6.743125 0.9080 0.9090 0.9110 0.9110 0.9110
6.782000 0.9120 0.9120 0.9140 0.9150 0.9150
6.820125 0.9150 0.9150 0.9150 0.9150 0.9150
6.858000 0.9170 0.9200 0.9210 0.9210 0.9210
6.896125 0.9210 0.9210 0.9230 0.9240 0.9240
6.934000 0.9240 0.9240 0.9240 0.9260 0.9270
6.972125 0.9290 0.9300 0.9320 0.9320 0.9320
7.010000 0.9320 0.9330 0.9330 0.9330 0.9320
7.048125 0.9320 0.9320 0.9320 0.9320 0.9320
7.086000 0.9300 0.9290 0.9260 0.9230 0.9170
7.124125 0.9080 0.9030 0.8900 0.8780 0.8720
7.163000 0.8590 0.8440 0.8360 0.8270 0.8120
7.201125 0.7820 0.7780 0.7660 0.7570 0.7510
7.239000 0.7510 0.7470 0.7470 0.7440 0.7420
7.277125 0.7400 0.7400 0.7370 0.7350 0.7350
7.315000 0.7340 0.7340 0.7340 0.7340 0.7350
7.353125 0.7380 0.7400 0.7410 0.7440 0.7450
7.391000 0.7480 0.7500 0.7480 0.7380 0.7320
7.429125 0.7140 0.6890 0.6700 0.6490 0.6300
7.467000 0.5740 0.5340 0.4930 0.4370 0.3690
7.505125 0.3450 0.3220 0.2730 0.2580 0.2330
7.544000 0.1810 0.1500 0.1190 0.1150 0.1150
7.582125 0.1290 0.2370 0.2680 0.3100 0.4090
7.620000 0.4710 0.5550 0.5900 0.6080 0.6350
7.658125 0.7000 0.7230 0.7380 0.7540 0.7740
7.696000 0.7960 0.8000 0.8160 0.8330 0.8530
7.734125 0.8610 0.8710 0.8750 0.8800 0.8860
7.772000 0.8900 0.8960 0.9020 0.9080 0.9110
7.810125 0.9140 0.9170 0.9180 0.9200 0.9210
7.848000 0.9230 0.9240 0.9260 0.9260 0.9270
7.886125 0.9290 0.9300 0.9300 0.9330 0.9330
7.925000 0.9350 0.9350 0.9350 0.9350 0.9350
7.963125 0.9330 0.9330 0.9330 0.9350 0.9350
8.001000 0.9350 0.9350 0.9350 0.9350 0.9360
8.039125 0.9360 0.9390 0.9390 0.9390 0.9390
8.077000 0.9390 0.9390 0.9390 0.9390 0.9400
8.115125 0.9400 0.9420 0.9420 0.9420 0.9420
8.153000 0.9430 0.9430 0.9450 0.9450 0.9450
8.191125 0.9450 0.9450 0.9450 0.9450 0.9460
8.229000 0.9460 0.9460 0.9460 0.9460 0.9460
8.267125 0.9460 0.9460 0.9460 0.9460 0.9460
8.306000 0.9460 0.9460 0.9460 0.9460 0.9460
8.344125 0.9460 0.9460 0.9460 0.9460 0.9480
8.382000 0.9480 0.9480 0.9480 0.9480 0.9480
8.420125 0.9480 0.9480 0.9480 0.9480 0.9480
8.458000 0.9480 0.9480 0.9480 0.9480 0.9480
8.496125 0.9480 0.9480 0.9480 0.9480 0.9480
8.534000 0.9480 0.9480 0.9480 0.9480 0.9480
8.572125 0.9480 0.9480 0.9480 0.9480 0.9480
8.610000 0.9480 0.9480 0.9480 0.9480 0.9480
8.648125 0.9480 0.9480 0.9480 0.9480 0.9480
8.687000 0.9480 0.9480 0.9480 0.9480 0.9480
8.725125 0.9480 0.9480 0.9480 0.9480 0.9480
8.763000 0.9480 0.9490 0.9490 0.9490 0.9490
8.801125 0.9490 0.9490 0.9490 0.9490 0.9490
8.839000 0.9490 0.9490 0.9490 0.9490 0.9520
8.877125 0.9520 0.9540 0.9540 0.9550 0.9550
8.915000 0.9550 0.9550 0.9550 0.9550 0.9540
8.953125 0.9540 0.9540 0.9550 0.9550 0.9550
8.992000 0.9570 0.9570 0.9570 0.9570 0.9570
9.030125 0.9580 0.9580 0.9580 0.9580 0.9600
9.068000 0.9600 0.9580 0.9580 0.9580 0.9600
9.106125 0.9580 0.9580 0.9580 0.9580 0.9580
9.144000 0.9580 0.9580 0.9580 0.9600 0.9600
9.182125 0.9600 0.9600 0.9600 0.9600 0.9610
9.220000 0.9610 0.9610 0.9610 0.9610 0.9610
9.258125 0.9610 0.9600 0.9600 0.9600 0.9600
9.296000 0.9600 0.9600 0.9600 0.9610 0.9610
9.334125 0.9610 0.9610 0.9630 0.9630 0.9630
9.373000 0.9630 0.9630 0.9640 0.9640 0.9640
9.411125 0.9640 0.9640 0.9660 0.9660 0.9660
9.449000 0.9660 0.9640 0.9630 0.9630 0.9630
9.487125 0.9630 0.9630 0.9630 0.9630 0.9630
9.525000 0.9630 0.9630 0.9630 0.9640 0.9640
9.563125 0.9630 0.9630 0.9640 0.9640 0.9630
9.601000 0.9630 0.9630 0.9630 0.9630 0.9640
9.639125 0.9640 0.9640 0.9640 0.9640 0.9640
9.677000 0.9640 0.9670 0.9660 0.9660 0.9660
9.715125 0.9670 0.9670 0.9670 0.9670 0.9670
9.754000 0.9670 0.9670 0.9670 0.9670 0.9670
9.792125 0.9670 0.9670 0.9670 0.9670 0.9670
9.830000 0.9670 0.9670 0.9670 0.9670 0.9670
9.868125 0.9670 0.9660 0.9660 0.9660 0.9640
9.906000 0.9640 0.9640 0.9640 0.9640 0.9640
9.944125 0.9640 0.9640 0.9640 0.9640 0.9640
9.982000 0.9640 0.9640 0.9640 0.9640 0.9640
10.020125 0.9640 0.9630 0.9630 0.9630 0.9630
10.058000 0.9640 0.9640 0.9630 0.9630 0.9610
10.096125 0.9610 0.9610 0.9610 0.9610 0.9600
10.135000 0.9600 0.9600 0.9600 0.9600 0.9580
10.173125 0.9570 0.9550 0.9540 0.9540 0.9520
10.211000 0.9520 0.9510 0.9510 0.9490 0.9490
10.249125 0.9480 0.9480 0.9480 0.9460 0.9460
10.287000 0.9450 0.9430 0.9420 0.9390 0.9390
10.325125 0.9390 0.9390 0.9370 0.9350 0.9330
10.363000 0.9270 0.9260 0.9260 0.9230 0.9210
10.401125 0.9200 0.9180 0.9170 0.9150 0.9150
10.439000 0.9140 0.9110 0.9090 0.9060 0.9050
10.477125 0.9030 0.9010 0.8990 0.8990 0.8990
10.516000 0.8990 0.8990 0.8990 0.8990 0.8990
10.554125 0.8980 0.8960 0.8960 0.8950 0.8950
10.592000 0.8950 0.8950 0.8960 0.8960 0.8990
10.630125 0.9010 0.9020 0.9030 0.9050 0.9060
10.668000 0.9080 0.9080 0.9080 0.9080 0.9090
10.706125 0.9090 0.9110 0.9120 0.9140 0.9170
10.744000 0.9180 0.9180 0.9180 0.9200 0.9200
10.782125 0.9210 0.9230 0.9240 0.9270 0.9290
10.820000 0.9290 0.9290 0.9290 0.9300 0.9300
10.858125 0.9300 0.9320 0.9320 0.9320 0.9320
10.897000 0.9320 0.9320 0.9330 0.9330 0.9330
10.935125 0.9330 0.9350 0.9350 0.9350 0.9350
10.973000 0.9350 0.9360 0.9360 0.9360 0.9360
11.011125 0.9360 0.9370 0.9370 0.9370 0.9370
11.049000 0.9370 0.9370 0.9370 0.9370 0.9360
11.087125 0.9350 0.9350 0.9320 0.9290 0.9290
11.125000 0.9270 0.9270 0.9260 0.9240 0.9210
11.163125 0.9200 0.9180 0.9180 0.9150 0.9110
11.202000 0.9090 0.9080 0.9060 0.9030 0.8990
11.240125 0.8960 0.8950 0.8900 0.8870 0.8840
11.278000 0.8810 0.8800 0.8770 0.8750 0.8720
11.316125 0.8720 0.8740 0.8720 0.8720 0.8720
11.354000 0.8740 0.8750 0.8750 0.8770 0.8780
11.392125 0.8810 0.8830 0.8870 0.8900 0.8920
11.430000 0.8930 0.8950 0.8960 0.8980 0.8990
11.468125 0.9010 0.9020 0.9030 0.9050 0.9080
11.506000 0.9090 0.9110 0.9120 0.9140 0.9150
11.544125 0.9170 0.9180 0.9210 0.9210 0.9200
11.583000 0.9200 0.9200 0.9200 0.9180 0.9180
11.621125 0.9180 0.9170 0.9180 0.9180 0.9200
11.659000 0.9200 0.9210 0.9210 0.9210 0.9210
11.697125 0.9210 0.9210 0.9230 0.9240 0.9260
11.735000 0.9290 0.9290 0.9290 0.9290 0.9290
11.773125 0.9290 0.9290 0.9300 0.9300 0.9300
11.811000 0.9300 0.9300 0.9320 0.9320 0.9330
11.849125 0.9330 0.9330 0.9330 0.9330 0.9350
11.887000 0.9350 0.9350 0.9350 0.9350 0.9350
11.925125 0.9350 0.9360 0.9360 0.9370 0.9370
11.964000 0.9370 0.9370 0.9370 0.9370 0.9370
12.002125 0.9370 0.9370 0.9370 0.9370 0.9370
12.040000 0.9370 0.9370 0.9390 0.9390 0.9390
12.078125 0.9390 0.9390 0.9390 0.9390 0.9390
12.116000 0.9390 0.9390 0.9390 0.9400 0.9400
12.154125 0.9400 0.9400 0.9400 0.9400 0.9400
12.192000 0.9400 0.9390 0.9370 0.9370 0.9370
12.230125 0.9370 0.9370 0.9370 0.9370 0.9370
12.268000 0.9360 0.9360 0.9350 0.9330 0.9330
12.306125 0.9330 0.9330 0.9330 0.9330 0.9330
12.345000 0.9330 0.9330 0.9320 0.9300 0.9290
12.383125 0.9270 0.9260 0.9230 0.9230 0.9230
12.421000 0.9210 0.9210 0.9210 0.9200 0.9180
12.459125 0.9150 0.9120 0.9110 0.9090 0.9050
12.497000 0.9020 0.9010 0.8990 0.8980 0.8950
12.535125 0.8920 0.8870 0.8860 0.8780 0.8750
12.573000 0.8680 0.8640 0.8560 0.8500 0.8440
12.611125 0.8380 0.8310 0.8160 0.8100 0.8000
12.649000 0.7850 0.7720 0.7500 0.7340 0.6730
12.687125 0.6660 0.6570 0.6320 0.5550 0.5190
12.726000 0.4830 0.3660 0.3320 0.2960 0.2710
12.764125 0.2570 0.2540 0.2540 0.2550 0.2580
12.802000 0.2850 0.3140 0.3580 0.4040 0.4230
12.840125 0.4320 0.4500 0.4650 0.4770 0.4850
12.878000 0.5160 0.5300 0.5400 0.5560 0.5710
12.916125 0.5830 0.5980 0.6050 0.6170 0.6240
12.954000 0.6330 0.6420 0.6490 0.6610 0.6770
12.992125 0.6890 0.6950 0.7030 0.7090 0.7110
13.030000 0.7160 0.7190 0.7250 0.7310 0.7320
13.068125 0.7350 0.7370 0.7400 0.7420 0.7420
13.107000 0.7420 0.7450 0.7470 0.7480 0.7500
13.145125 0.7510 0.7540 0.7540 0.7590 0.7650
13.183000 0.7690 0.7740 0.7780 0.7810 0.7840
13.221125 0.7870 0.7900 0.7940 0.7960 0.7970
13.259000 0.8000 0.8020 0.8050 0.8060 0.8090
13.297125 0.8120 0.8160 0.8210 0.8270 0.8280
13.335000 0.8300 0.8310 0.8360 0.8370 0.8380
13.373125 0.8400 0.8410 0.8440 0.8440 0.8460
13.412000 0.8460 0.8470 0.8490 0.8500 0.8520
13.450125 0.8520 0.8520 0.8520 0.8520 0.8530
13.488000 0.8530 0.8530 0.8550 0.8550 0.8560
13.526125 0.8560 0.8560 0.8560 0.8580 0.8580
13.564000 0.8580 0.8580 0.8580 0.8580 0.8590
13.602125 0.8590 0.8590 0.8590 0.8590 0.8590
13.640000 0.8590 0.8590 0.8590 0.8590 0.8590
13.678125 0.8590 0.8590 0.8590 0.8580 0.8580
13.716000 0.8560 0.8560 0.8550 0.8550 0.8550
13.754125 0.8550 0.8550 0.8550 0.8560 0.8560
13.793000 0.8550 0.8530 0.8530 0.8500 0.8500
13.831125 0.8490 0.8490 0.8490 0.8470 0.8470
13.869000 0.8470 0.8470 0.8470 0.8470 0.8460
13.907125 0.8460 0.8440 0.8430 0.8410 0.8410
13.945000 0.8410 0.8410 0.8410 0.8400 0.8380
13.983125 0.8380 0.8380 0.8380 0.8370 0.8370
14.021000 0.8340 0.8340 0.8330 0.8300 0.8280
14.059125 0.8280 0.8280 0.8270 0.8250 0.8250
14.097000 0.8240 0.8240 0.8240 0.8240 0.8220
14.135125 0.8210 0.8190 0.8180 0.8160 0.8160
14.174000 0.8150 0.8130 0.8100 0.8100 0.8090
14.212125 0.8060 0.8030 0.8030 0.8020 0.7990
14.250000 0.7940 0.7930 0.7910 0.7900 0.7900
14.288125 0.7880 0.7870 0.7850 0.7850 0.7850
14.326000 0.7840 0.7820 0.7790 0.7760 0.7750
14.364125 0.7750 0.7740 0.7720 0.7690 0.7680
14.402000 0.7660 0.7660 0.7660 0.7650 0.7630
14.440125 0.7570 0.7570 0.7560 0.7530 0.7510
14.478000 0.7480 0.7450 0.7410 0.7380 0.7370
14.516125 0.7350 0.7350 0.7320 0.7280 0.7260
14.555000 0.7250 0.7250 0.7220 0.7170 0.7140
14.593125 0.7110 0.7110 0.7100 0.7070 0.7040
14.631000 0.7010 0.7010 0.7000 0.7000 0.6980
14.669125 0.6950 0.6940 0.6880 0.6860 0.6850
14.707000 0.6820 0.6790 0.6770 0.6760 0.6750
14.745125 0.6730 0.6730 0.6720 0.6690 0.6670
14.783000 0.6670 0.6660 0.6630 0.6600 0.6580
14.821125 0.6540 0.6520 0.6510 0.6490 0.6460
14.859000 0.6460 0.6450 0.6440 0.6420 0.6420
14.897125 0.6420 0.6410 0.6390 0.6380 0.6360
14.936000 0.6350 0.6330 0.6320 0.6320 0.6320
14.974125 0.6320 0.6320 0.6320 0.6320 0.6320
15.012000 0.6320 0.6320 0.6320 0.6320 0.6320
15.050125 0.6330 0.6330 0.6330 0.6330 0.6350
15.088000 0.6350 0.6360 0.6380 0.6380 0.6380
15.126125 0.6390 0.6390 0.6410 0.6410 0.6440
15.164000 0.6450 0.6460 0.6490 0.6520 0.6520
15.202125 0.6570 0.6580 0.6630 0.6640 0.6750
15.240000 0.6750 0.6760 0.6770 0.6790 0.6800
15.278125 0.6830 0.6880 0.6890 0.6940 0.6950
15.317000 0.6980 0.7030 0.7040 0.7070 0.7100
15.355125 0.7110 0.7140 0.7170 0.7200 0.7220
15.393000 0.7260 0.7280 0.7310 0.7320 0.7370
15.431125 0.7400 0.7420 0.7440 0.7480 0.7500
15.469000 0.7530 0.7560 0.7570 0.7600 0.7620
15.507125 0.7630 0.7680 0.7690 0.7720 0.7740
15.545000 0.7760 0.7790 0.7810 0.7820 0.7820
15.583125 0.7840 0.7840 0.7850 0.7870 0.7900
15.622000 0.7910 0.7930 0.7940 0.7960 0.7990
15.660125 0.8000 0.8020 0.8020 0.8030 0.8030
15.698000 0.8050 0.8060 0.8060 0.8060 0.8030
15.736125 0.8050 0.8060 0.8060
##END=
