##TITLE=Oxadiazole, 1,2,4-, 5-(Alpha-bromopropyl)-3-(5-nitrofuran-2-yl)-
##JCAMP-DX=4.24
##DATA TYPE=INFRARED SPECTRUM
##CLASS=COBLENTZ III
##ORIGIN=ABBOTT LABORATORIES - WASHBURN
##OWNER=Copyright (C) 1987 by the Coblentz Society
Collection (C) 2018 copyright by the U.S. Secretary of Commerce
on behalf of the United States of America. All rights reserved.
##DATE=1965/01/19
##NAMES=5-(1-bromopropyl)-3-(5-nitro-2-furyl)-1,2,4-oxadiazole
Oxadiazole, 1,2,4-, 5-(1-bromopropyl(-3-)5-nitro-2-furyl)-
##MOLFORM=C9 H8 Br N3 O4
##BP=164 C AT 0.6 mmHg
##SOURCE REFERENCE=COBLENTZ NO. 9053
##$NIST ID=B6009053
##$NIST SOURCE=COBLENTZ
##$NIST IMAGE=cob9053
##SPECTROMETER/DATA SYSTEM=PERKIN-ELMER 421 (GRATING)
##INSTRUMENT PARAMETERS=GRATINGS: 1999 CM^-^1
##STATE=SOLUTION (2% CHCl3) VS SOLVENT
$$ PURITY MORE THAN 95%
##PATH LENGTH=0.03 CM
$$SPECTRAL CONTAMINATION DUE TO INACTIVE CHCl3 AROUND 1200, 700-800 CM^-^1
##SAMPLING PROCEDURE=TRANSMISSION
##RESOLUTION=2
##DATA PROCESSING=DIGITIZED BY COBLENTZ SOCIETY (BATCH II) FROM HARD COPY
##XUNITS=1/CM
##YUNITS=TRANSMITTANCE
##XFACTOR=1.0
##YFACTOR=1
##FIRSTX=654
##LASTX=4000
##FIRSTY=0.5536
##MAXX=4000
##MINX=654
##MAXY=0.9159
##MINY=0.0412
##NPOINTS=3347
##XYDATA=(X++(Y..Y))
654.000000 0.5536 0.5537 0.5539 0.5541 0.5542
659.000000 0.5544 0.5547 0.5551 0.5555 0.5559
664.000000 0.5564 0.5568 0.5572 0.5576 0.5580
669.000000 0.5583 0.5586 0.5589 0.5591 0.5594
674.000000 0.5596 0.5599 0.5601 0.5604 0.5606
679.000000 0.5609 0.5608 0.5606 0.5604 0.5602
684.000000 0.5600 0.5598 0.5596 0.5594 0.5592
689.000000 0.5590 0.5588 0.5586 0.5584 0.5582
694.000000 0.5579 0.5576 0.5573 0.5570 0.5567
699.000000 0.5564 0.5561 0.5558 0.5555 0.5551
704.000000 0.5548 0.5545 0.5542 0.5539 0.5536
709.000000 0.5533 0.5530 0.5528 0.5528 0.5528
714.000000 0.5528 0.5528 0.5528 0.5528 0.5528
719.000000 0.5529 0.5529 0.5529 0.5529 0.5529
724.000000 0.5529 0.5529 0.5529 0.5528 0.5527
729.000000 0.5527 0.5526 0.5525 0.5525 0.5524
734.000000 0.5523 0.5523 0.5522 0.5521 0.5521
739.000000 0.5520 0.5519 0.5517 0.5515 0.5512
744.000000 0.5510 0.5507 0.5505 0.5502 0.5500
749.000000 0.5497 0.5495 0.5492 0.5490 0.5488
754.000000 0.5485 0.5483 0.5480 0.5478 0.5475
759.000000 0.5473 0.5470 0.5468 0.5465 0.5463
764.000000 0.5461 0.5459 0.5458 0.5456 0.5454
769.000000 0.5453 0.5451 0.5449 0.5447 0.5446
774.000000 0.5444 0.5442 0.5440 0.5439 0.5437
779.000000 0.5435 0.5434 0.5434 0.5434 0.5434
784.000000 0.5434 0.5435 0.5435 0.5435 0.5436
789.000000 0.5439 0.5437 0.5438 0.5440 0.5441
794.000000 0.5443 0.5444 0.5446 0.5448 0.5449
799.000000 0.5461 0.5472 0.5484 0.5559 0.5676
804.000000 0.5792 0.5909 0.6026 0.6142 0.6259
809.000000 0.6376 0.6492 0.6609 0.6725 0.6842
814.000000 0.6942 0.7014 0.7084 0.7151 0.7224
819.000000 0.7308 0.7391 0.7495 0.7618 0.7734
824.000000 0.7821 0.7908 0.7978 0.8025 0.8072
829.000000 0.8110 0.8130 0.8150 0.8170 0.8190
834.000000 0.8210 0.8225 0.8240 0.8255 0.8270
839.000000 0.8285 0.8298 0.8307 0.8316 0.8324
844.000000 0.8333 0.8342 0.8351 0.8360 0.8368
849.000000 0.8374 0.8380 0.8386 0.8391 0.8397
854.000000 0.8411 0.8409 0.8411 0.8411 0.8410
859.000000 0.8409 0.8397 0.8385 0.8373 0.8359
864.000000 0.8340 0.8322 0.8303 0.8276 0.8244
869.000000 0.8213 0.8181 0.8147 0.8113 0.8080
874.000000 0.8023 0.7952 0.7885 0.7822 0.7759
879.000000 0.7690 0.7610 0.7464 0.7256 0.7047
884.000000 0.6839 0.6631 0.6422 0.6214 0.6006
889.000000 0.5743 0.5672 0.5599 0.5491 0.5301
894.000000 0.5110 0.5018 0.5015 0.5003 0.5022
899.000000 0.5415 0.5985 0.6555 0.6657 0.6669
904.000000 0.6678 0.6685 0.6691 0.6698 0.6704
909.000000 0.6711 0.6718 0.6729 0.6780 0.6865
914.000000 0.6949 0.7033 0.7117 0.7201 0.7285
919.000000 0.7369 0.7453 0.7537 0.7621 0.7706
924.000000 0.7790 0.7874 0.7958 0.8042 0.8126
929.000000 0.8204 0.8254 0.8296 0.8319 0.8333
934.000000 0.8348 0.8363 0.8373 0.8387 0.8371
939.000000 0.8362 0.8352 0.8336 0.8319 0.8303
944.000000 0.8287 0.8257 0.8218 0.8178 0.8135
949.000000 0.8093 0.7991 0.7899 0.7814 0.7729
954.000000 0.7527 0.7170 0.6813 0.6456 0.6098
959.000000 0.5811 0.5776 0.5978 0.6534 0.7090
964.000000 0.7645 0.8201 0.8502 0.8525 0.8542
969.000000 0.8561 0.8553 0.8550 0.8538 0.8519
974.000000 0.8352 0.8157 0.7963 0.7768 0.7573
979.000000 0.7379 0.7369 0.7436 0.7736 0.8037
984.000000 0.8337 0.8453 0.8470 0.8479 0.8479
989.000000 0.8466 0.8454 0.8440 0.8410 0.8372
994.000000 0.8331 0.8095 0.7620 0.7144 0.6669
999.000000 0.6194 0.5718 0.5243 0.4768 0.4292
1004.000000 0.3817 0.3342 0.2866 0.2756 0.2751
1009.000000 0.2758 0.5782 0.6214 0.6328 0.6619
1014.000000 0.7277 0.7542 0.7722 0.7856 0.7939
1019.000000 0.8022 0.8131 0.8267 0.8353 0.8420
1024.000000 0.8487 0.8535 0.8579 0.8623 0.8657
1029.000000 0.8687 0.8717 0.8747 0.8777 0.8802
1034.000000 0.8827 0.8852 0.8877 0.8892 0.8903
1039.000000 0.8911 0.8931 0.8915 0.8918 0.8914
1044.000000 0.8910 0.8905 0.8900 0.8896 0.8889
1049.000000 0.8882 0.8876 0.8869 0.8850 0.8831
1054.000000 0.8807 0.8781 0.8754 0.8707 0.8649
1059.000000 0.8604 0.8592 0.8594 0.8605 0.8618
1064.000000 0.8633 0.8648 0.8663 0.8681 0.8701
1069.000000 0.8720 0.8738 0.8755 0.8765 0.8771
1074.000000 0.8776 0.8776 0.8775 0.8754 0.8709
1079.000000 0.8649 0.8601 0.8567 0.8572 0.8578
1084.000000 0.8588 0.8597 0.8606 0.8619 0.8631
1089.000000 0.8639 0.8648 0.8657 0.8666 0.8688
1094.000000 0.8712 0.8768 0.8830 0.8884 0.8906
1099.000000 0.8915 0.8916 0.8911 0.8903 0.8892
1104.000000 0.8882 0.8873 0.8866 0.8859 0.8857
1109.000000 0.8857 0.8858 0.8860 0.8865 0.8870
1114.000000 0.8876 0.8883 0.8877 0.8847 0.8814
1119.000000 0.8782 0.8711 0.8617 0.8514 0.8428
1124.000000 0.8358 0.8303 0.8248 0.8214 0.8180
1129.000000 0.8164 0.8158 0.8152 0.8147 0.8142
1134.000000 0.8137 0.8135 0.8132 0.8114 0.8066
1139.000000 0.8015 0.7966 0.7906 0.7829 0.7753
1144.000000 0.7695 0.7638 0.7581 0.7506 0.7423
1149.000000 0.7336 0.7271 0.7257 0.7245 0.7244
1154.000000 0.7243 0.7245 0.7252 0.7258 0.7265
1159.000000 0.7271 0.7273 0.7257 0.7232 0.7196
1164.000000 0.7146 0.7098 0.7043 0.6970 0.6889
1169.000000 0.6796 0.6694 0.6583 0.6514 0.6448
1174.000000 0.6406 0.6373 0.6341 0.6331 0.6322
1179.000000 0.6318 0.6315 0.6312 0.6309 0.6307
1184.000000 0.6307 0.6306 0.6306 0.6305 0.6304
1189.000000 0.6304 0.6303 0.6302 0.6301 0.6300
1194.000000 0.6299 0.6298 0.6297 0.6296 0.6295
1199.000000 0.6296 0.6297 0.6299 0.6300 0.6301
1204.000000 0.6302 0.6304 0.6308 0.6312 0.6317
1209.000000 0.6322 0.6326 0.6331 0.6335 0.6339
1214.000000 0.6344 0.6342 0.6337 0.6333 0.6329
1219.000000 0.6325 0.6320 0.6319 0.6319 0.6320
1224.000000 0.6320 0.6320 0.6321 0.6321 0.6321
1229.000000 0.6334 0.6347 0.6374 0.6435 0.6531
1234.000000 0.6655 0.6760 0.6854 0.6929 0.7004
1239.000000 0.7093 0.7196 0.7280 0.7332 0.7384
1244.000000 0.7425 0.7442 0.7459 0.7476 0.7485
1249.000000 0.7498 0.7498 0.7497 0.7494 0.7485
1254.000000 0.7476 0.7461 0.7445 0.7430 0.7407
1259.000000 0.7383 0.7358 0.7333 0.7306 0.7267
1264.000000 0.7228 0.7178 0.7123 0.7061 0.6992
1269.000000 0.6880 0.6777 0.6686 0.6607 0.6529
1274.000000 0.6485 0.6444 0.6404 0.6372 0.6339
1279.000000 0.6307 0.6273 0.6240 0.6206 0.6171
1284.000000 0.6124 0.6077 0.6028 0.5974 0.5920
1289.000000 0.5778 0.5691 0.5597 0.5447 0.5084
1294.000000 0.4824 0.4563 0.4303 0.4043 0.3782
1299.000000 0.3522 0.3262 0.3078 0.2932 0.2793
1304.000000 0.2656 0.2566 0.2475 0.2355 0.2255
1309.000000 0.2208 0.2192 0.2185 0.2183 0.2182
1314.000000 0.2180 0.2177 0.2101 0.1909 0.1717
1319.000000 0.1525 0.1372 0.1352 0.1348 0.1351
1324.000000 0.1346 0.1714 0.1978 0.2241 0.2504
1329.000000 0.2768 0.2859 0.2851 0.2852 0.2843
1334.000000 0.2619 0.2316 0.2012 0.1709 0.1405
1339.000000 0.1102 0.0799 0.0495 0.0419 0.0412
1344.000000 0.0422 0.0431 0.0561 0.1040 0.1519
1349.000000 0.1999 0.2478 0.2957 0.3437 0.3916
1354.000000 0.4395 0.4875 0.4930 0.4921 0.4903
1359.000000 0.4721 0.4539 0.4356 0.4174 0.3992
1364.000000 0.3809 0.3627 0.3490 0.3478 0.3473
1369.000000 0.3546 0.3859 0.4173 0.4486 0.4800
1374.000000 0.5113 0.5427 0.5741 0.6054 0.6368
1379.000000 0.6681 0.7015 0.7087 0.7098 0.7101
1384.000000 0.7105 0.7094 0.7081 0.7054 0.7018
1389.000000 0.6982 0.6926 0.6841 0.6738 0.6587
1394.000000 0.6315 0.6043 0.5771 0.5499 0.5226
1399.000000 0.5065 0.5062 0.5067 0.5234 0.5491
1404.000000 0.5747 0.6004 0.6260 0.6517 0.6773
1409.000000 0.6971 0.6979 0.6980 0.6979 0.6974
1414.000000 0.6969 0.6956 0.6938 0.6917 0.6895
1419.000000 0.6877 0.6873 0.6869 0.6869 0.6872
1424.000000 0.6880 0.6889 0.6959 0.7032 0.7105
1429.000000 0.7178 0.7256 0.7281 0.7301 0.7303
1434.000000 0.7303 0.7300 0.7292 0.7281 0.7264
1439.000000 0.7234 0.7195 0.7110 0.7001 0.6891
1444.000000 0.6782 0.6673 0.6564 0.6454 0.6382
1449.000000 0.6369 0.6382 0.6384 0.6426 0.6562
1454.000000 0.6698 0.6833 0.6969 0.7105 0.7205
1459.000000 0.7324 0.7396 0.7454 0.7487 0.7521
1464.000000 0.7554 0.7590 0.7627 0.7664 0.7681
1469.000000 0.7699 0.7716 0.7721 0.7728 0.7720
1474.000000 0.7710 0.7695 0.7672 0.7636 0.7598
1479.000000 0.7562 0.7521 0.7480 0.7433 0.7387
1484.000000 0.7291 0.7060 0.6829 0.6598 0.6368
1489.000000 0.6245 0.6145 0.5875 0.5604 0.5186
1494.000000 0.4769 0.4352 0.3965 0.3875 0.3799
1499.000000 0.3720 0.3631 0.3529 0.3107 0.3053
1504.000000 0.3039 0.3028 0.3026 0.3024 0.3015
1509.000000 0.3032 0.3041 0.3057 0.3088 0.3127
1514.000000 0.3184 0.3328 0.3472 0.3616 0.3760
1519.000000 0.3905 0.4049 0.4193 0.4337 0.4481
1524.000000 0.4625 0.4769 0.4862 0.4854 0.4850
1529.000000 0.4843 0.4831 0.4800 0.4746 0.4699
1534.000000 0.4656 0.4596 0.4468 0.4261 0.4054
1539.000000 0.3847 0.3639 0.3432 0.3225 0.3018
1544.000000 0.2811 0.2604 0.2582 0.2565 0.2584
1549.000000 0.2699 0.2850 0.3001 0.3152 0.3302
1554.000000 0.3453 0.3604 0.3606 0.3606 0.3572
1559.000000 0.3507 0.3442 0.3377 0.3312 0.3269
1564.000000 0.3279 0.3396 0.3840 0.4087 0.4149
1569.000000 0.4403 0.4682 0.4961 0.5240 0.5519
1574.000000 0.5798 0.6077 0.6356 0.6635 0.6914
1579.000000 0.7483 0.7556 0.7630 0.7686 0.7738
1584.000000 0.7798 0.7928 0.8024 0.8053 0.8072
1589.000000 0.8088 0.8080 0.8081 0.8081 0.8080
1594.000000 0.8079 0.8069 0.8055 0.8035 0.8009
1599.000000 0.7980 0.7942 0.7904 0.7848 0.7781
1604.000000 0.7679 0.7578 0.7477 0.7376 0.7275
1609.000000 0.7186 0.7161 0.7183 0.7186 0.7318
1614.000000 0.7453 0.7588 0.7724 0.7859 0.7995
1619.000000 0.8115 0.8182 0.8241 0.8296 0.8348
1624.000000 0.8405 0.8503 0.8547 0.8591 0.8630
1629.000000 0.8651 0.8672 0.8690 0.8699 0.8708
1634.000000 0.8720 0.8708 0.8708 0.8707 0.8706
1639.000000 0.8704 0.8702 0.8698 0.8691 0.8684
1644.000000 0.8677 0.8671 0.8665 0.8658 0.8652
1649.000000 0.8649 0.8653 0.8656 0.8660 0.8667
1654.000000 0.8678 0.8691 0.8736 0.8776 0.8812
1659.000000 0.8849 0.8871 0.8892 0.8892 0.8891
1664.000000 0.8890 0.8889 0.8885 0.8880 0.8871
1669.000000 0.8863 0.8854 0.8846 0.8838 0.8831
1674.000000 0.8824 0.8820 0.8817 0.8814 0.8812
1679.000000 0.8811 0.8809 0.8807 0.8806 0.8805
1684.000000 0.8808 0.8811 0.8815 0.8819 0.8824
1689.000000 0.8829 0.8835 0.8840 0.8845 0.8852
1694.000000 0.8858 0.8865 0.8871 0.8878 0.8884
1699.000000 0.8887 0.8888 0.8889 0.8890 0.8891
1704.000000 0.8890 0.8889 0.8888 0.8887 0.8886
1709.000000 0.8886 0.8885 0.8884 0.8883 0.8880
1714.000000 0.8877 0.8874 0.8871 0.8868 0.8865
1719.000000 0.8860 0.8855 0.8851 0.8846 0.8841
1724.000000 0.8836 0.8831 0.8826 0.8821 0.8816
1729.000000 0.8812 0.8808 0.8804 0.8800 0.8797
1734.000000 0.8793 0.8789 0.8785 0.8781 0.8776
1739.000000 0.8770 0.8764 0.8758 0.8752 0.8746
1744.000000 0.8740 0.8734 0.8728 0.8721 0.8714
1749.000000 0.8706 0.8699 0.8691 0.8683 0.8676
1754.000000 0.8668 0.8660 0.8653 0.8635 0.8615
1759.000000 0.8593 0.8568 0.8549 0.8539 0.8538
1764.000000 0.8539 0.8540 0.8543 0.8553 0.8565
1769.000000 0.8577 0.8588 0.8609 0.8629 0.8648
1774.000000 0.8667 0.8685 0.8697 0.8705 0.8713
1779.000000 0.8721 0.8729 0.8737 0.8745 0.8751
1784.000000 0.8756 0.8761 0.8767 0.8772 0.8777
1789.000000 0.8783 0.8788 0.8794 0.8799 0.8804
1794.000000 0.8810 0.8814 0.8817 0.8820 0.8822
1799.000000 0.8823 0.8824 0.8825 0.8826 0.8827
1804.000000 0.8828 0.8829 0.8830 0.8831 0.8832
1809.000000 0.8833 0.8834 0.8835 0.8836 0.8837
1814.000000 0.8838 0.8839 0.8840 0.8841 0.8842
1819.000000 0.8843 0.8843 0.8844 0.8845 0.8845
1824.000000 0.8846 0.8847 0.8847 0.8848 0.8849
1829.000000 0.8849 0.8850 0.8851 0.8851 0.8852
1834.000000 0.8853 0.8853 0.8854 0.8855 0.8855
1839.000000 0.8856 0.8857 0.8857 0.8858 0.8859
1844.000000 0.8859 0.8860 0.8860 0.8861 0.8861
1849.000000 0.8861 0.8862 0.8862 0.8863 0.8863
1854.000000 0.8863 0.8864 0.8864 0.8865 0.8865
1859.000000 0.8866 0.8866 0.8866 0.8867 0.8867
1864.000000 0.8868 0.8868 0.8868 0.8869 0.8869
1869.000000 0.8870 0.8870 0.8871 0.8871 0.8871
1874.000000 0.8871 0.8871 0.8871 0.8871 0.8871
1879.000000 0.8870 0.8870 0.8870 0.8870 0.8870
1884.000000 0.8869 0.8869 0.8869 0.8869 0.8869
1889.000000 0.8868 0.8868 0.8868 0.8868 0.8868
1894.000000 0.8867 0.8867 0.8867 0.8867 0.8867
1899.000000 0.8866 0.8866 0.8866 0.8866 0.8866
1904.000000 0.8865 0.8865 0.8865 0.8865 0.8865
1909.000000 0.8865 0.8864 0.8864 0.8864 0.8864
1914.000000 0.8864 0.8863 0.8863 0.8863 0.8863
1919.000000 0.8863 0.8862 0.8862 0.8862 0.8862
1924.000000 0.8862 0.8862 0.8861 0.8861 0.8861
1929.000000 0.8861 0.8861 0.8861 0.8861 0.8862
1934.000000 0.8862 0.8862 0.8863 0.8863 0.8864
1939.000000 0.8864 0.8865 0.8865 0.8866 0.8866
1944.000000 0.8866 0.8867 0.8867 0.8868 0.8868
1949.000000 0.8869 0.8869 0.8869 0.8870 0.8870
1954.000000 0.8871 0.8871 0.8872 0.8874 0.8877
1959.000000 0.8880 0.8883 0.8885 0.8888 0.8891
1964.000000 0.8893 0.8896 0.8899 0.8902 0.8904
1969.000000 0.8907 0.8910 0.8914 0.8918 0.8922
1974.000000 0.8927 0.8931 0.8934 0.8937 0.8939
1979.000000 0.8941 0.8934 0.8927 0.8920 0.8913
1984.000000 0.8906 0.8898 0.8882 0.8864 0.8846
1989.000000 0.8829 0.8784 0.8748 0.8723 0.8710
1994.000000 0.8708 0.8709 0.8718 0.8747 0.8787
1999.000000 0.8832 0.8861 0.8862 0.8864 0.8868
2004.000000 0.8873 0.8876 0.8877 0.8879 0.8880
2009.000000 0.8880 0.8879 0.8879 0.8879 0.8878
2014.000000 0.8879 0.8880 0.8880 0.8881 0.8882
2019.000000 0.8883 0.8884 0.8884 0.8885 0.8886
2024.000000 0.8887 0.8888 0.8889 0.8890 0.8891
2029.000000 0.8892 0.8893 0.8894 0.8896 0.8899
2034.000000 0.8901 0.8904 0.8906 0.8909 0.8911
2039.000000 0.8914 0.8920 0.8926 0.8933 0.8939
2044.000000 0.8946 0.8953 0.8959 0.8966 0.8972
2049.000000 0.8979 0.8985 0.8990 0.8996 0.9002
2054.000000 0.9008 0.9011 0.9013 0.9015 0.9017
2059.000000 0.9017 0.9017 0.9017 0.9017 0.9017
2064.000000 0.9016 0.9016 0.9016 0.9017 0.9018
2069.000000 0.9020 0.9021 0.9022 0.9023 0.9024
2074.000000 0.9026 0.9027 0.9028 0.9029 0.9030
2079.000000 0.9030 0.9030 0.9030 0.9030 0.9030
2084.000000 0.9030 0.9030 0.9030 0.9030 0.9030
2089.000000 0.9029 0.9029 0.9029 0.9029 0.9029
2094.000000 0.9029 0.9029 0.9029 0.9029 0.9029
2099.000000 0.9029 0.9029 0.9029 0.9029 0.9029
2104.000000 0.9029 0.9029 0.9029 0.9029 0.9029
2109.000000 0.9029 0.9029 0.9029 0.9029 0.9029
2114.000000 0.9029 0.9029 0.9029 0.9029 0.9029
2119.000000 0.9029 0.9029 0.9029 0.9030 0.9032
2124.000000 0.9033 0.9034 0.9036 0.9037 0.9039
2129.000000 0.9040 0.9042 0.9043 0.9045 0.9046
2134.000000 0.9048 0.9049 0.9050 0.9052 0.9053
2139.000000 0.9055 0.9053 0.9049 0.9046 0.9042
2144.000000 0.9038 0.9034 0.9030 0.9026 0.9021
2149.000000 0.9017 0.9012 0.9008 0.9003 0.9001
2154.000000 0.9003 0.9005 0.9007 0.9009 0.9012
2159.000000 0.9016 0.9020 0.9023 0.9027 0.9031
2164.000000 0.9034 0.9038 0.9042 0.9045 0.9049
2169.000000 0.9051 0.9053 0.9054 0.9055 0.9057
2174.000000 0.9058 0.9060 0.9061 0.9063 0.9062
2179.000000 0.9060 0.9059 0.9057 0.9055 0.9054
2184.000000 0.9052 0.9050 0.9049 0.9046 0.9043
2189.000000 0.9039 0.9036 0.9033 0.9030 0.9026
2194.000000 0.9023 0.9020 0.9019 0.9018 0.9016
2199.000000 0.9015 0.9014 0.9013 0.9012 0.9012
2204.000000 0.9013 0.9015 0.9016 0.9018 0.9019
2209.000000 0.9021 0.9022 0.9024 0.9025 0.9027
2214.000000 0.9028 0.9030 0.9031 0.9033 0.9032
2219.000000 0.9030 0.9028 0.9026 0.9024 0.9023
2224.000000 0.9021 0.9020 0.9019 0.9018 0.9017
2229.000000 0.9016 0.9015 0.9014 0.9013 0.9012
2234.000000 0.9011 0.9011 0.9011 0.9012 0.9013
2239.000000 0.9013 0.9014 0.9015 0.9015 0.9016
2244.000000 0.9016 0.9017 0.9018 0.9018 0.9019
2249.000000 0.9020 0.9020 0.9021 0.9022 0.9022
2254.000000 0.9023 0.9023 0.9024 0.9024 0.9024
2259.000000 0.9025 0.9025 0.9025 0.9026 0.9026
2264.000000 0.9026 0.9026 0.9027 0.9027 0.9027
2269.000000 0.9028 0.9028 0.9028 0.9028 0.9029
2274.000000 0.9029 0.9028 0.9027 0.9026 0.9026
2279.000000 0.9025 0.9024 0.9023 0.9022 0.9021
2284.000000 0.9020 0.9019 0.9018 0.9018 0.9017
2289.000000 0.9015 0.9010 0.9004 0.8999 0.8993
2294.000000 0.8988 0.8982 0.8977 0.8971 0.8966
2299.000000 0.8958 0.8949 0.8939 0.8930 0.8921
2304.000000 0.8911 0.8902 0.8895 0.8888 0.8882
2309.000000 0.8876 0.8872 0.8873 0.8873 0.8874
2314.000000 0.8875 0.8875 0.8876 0.8876 0.8877
2319.000000 0.8878 0.8878 0.8879 0.8881 0.8883
2324.000000 0.8885 0.8887 0.8889 0.8891 0.8893
2329.000000 0.8895 0.8897 0.8900 0.8902 0.8903
2334.000000 0.8904 0.8904 0.8904 0.8905 0.8905
2339.000000 0.8905 0.8905 0.8906 0.8906 0.8905
2344.000000 0.8903 0.8902 0.8900 0.8899 0.8897
2349.000000 0.8895 0.8894 0.8892 0.8891 0.8889
2354.000000 0.8887 0.8886 0.8884 0.8882 0.8880
2359.000000 0.8878 0.8876 0.8875 0.8870 0.8861
2364.000000 0.8852 0.8844 0.8835 0.8826 0.8815
2369.000000 0.8802 0.8789 0.8777 0.8764 0.8748
2374.000000 0.8729 0.8710 0.8691 0.8672 0.8653
2379.000000 0.8631 0.8608 0.8584 0.8561 0.8537
2384.000000 0.8523 0.8508 0.8493 0.8492 0.8483
2389.000000 0.8500 0.8504 0.8508 0.8512 0.8516
2394.000000 0.8520 0.8524 0.8529 0.8535 0.8540
2399.000000 0.8546 0.8552 0.8557 0.8563 0.8569
2404.000000 0.8575 0.8580 0.8585 0.8590 0.8594
2409.000000 0.8598 0.8603 0.8606 0.8608 0.8610
2414.000000 0.8612 0.8615 0.8617 0.8619 0.8620
2419.000000 0.8622 0.8623 0.8625 0.8627 0.8630
2424.000000 0.8633 0.8636 0.8639 0.8642 0.8650
2429.000000 0.8658 0.8666 0.8674 0.8682 0.8690
2434.000000 0.8697 0.8705 0.8713 0.8721 0.8729
2439.000000 0.8737 0.8743 0.8749 0.8754 0.8759
2444.000000 0.8765 0.8770 0.8775 0.8781 0.8786
2449.000000 0.8791 0.8796 0.8801 0.8806 0.8811
2454.000000 0.8815 0.8820 0.8825 0.8830 0.8835
2459.000000 0.8839 0.8842 0.8845 0.8848 0.8850
2464.000000 0.8853 0.8856 0.8859 0.8861 0.8864
2469.000000 0.8867 0.8866 0.8865 0.8863 0.8862
2474.000000 0.8854 0.8833 0.8812 0.8796 0.8781
2479.000000 0.8777 0.8775 0.8773 0.8777 0.8784
2484.000000 0.8790 0.8801 0.8826 0.8850 0.8878
2489.000000 0.8906 0.8924 0.8937 0.8950 0.8957
2494.000000 0.8963 0.8969 0.8975 0.8980 0.8983
2499.000000 0.8986 0.8988 0.8991 0.8994 0.8997
2504.000000 0.8999 0.9001 0.9003 0.9005 0.9007
2509.000000 0.9009 0.9011 0.9013 0.9015 0.9016
2514.000000 0.9017 0.9017 0.9018 0.9019 0.9019
2519.000000 0.9020 0.9020 0.9021 0.9022 0.9022
2524.000000 0.9023 0.9023 0.9024 0.9024 0.9025
2529.000000 0.9026 0.9026 0.9027 0.9027 0.9028
2534.000000 0.9028 0.9029 0.9029 0.9030 0.9031
2539.000000 0.9031 0.9030 0.9030 0.9029 0.9029
2544.000000 0.9028 0.9028 0.9027 0.9027 0.9027
2549.000000 0.9026 0.9026 0.9025 0.9025 0.9022
2554.000000 0.9017 0.9013 0.9008 0.9003 0.8998
2559.000000 0.8993 0.8988 0.8983 0.8979 0.8974
2564.000000 0.8969 0.8964 0.8959 0.8956 0.8961
2569.000000 0.8966 0.8971 0.8976 0.8981 0.8986
2574.000000 0.8991 0.8996 0.9001 0.9009 0.9016
2579.000000 0.9023 0.9029 0.9032 0.9035 0.9038
2584.000000 0.9041 0.9043 0.9046 0.9049 0.9052
2589.000000 0.9053 0.9054 0.9055 0.9056 0.9056
2594.000000 0.9057 0.9058 0.9057 0.9057 0.9056
2599.000000 0.9055 0.9054 0.9054 0.9053 0.9052
2604.000000 0.9051 0.9051 0.9050 0.9049 0.9049
2609.000000 0.9048 0.9046 0.9044 0.9043 0.9041
2614.000000 0.9040 0.9038 0.9037 0.9035 0.9034
2619.000000 0.9032 0.9031 0.9029 0.9028 0.9026
2624.000000 0.9024 0.9023 0.9021 0.9020 0.9018
2629.000000 0.9017 0.9015 0.9014 0.9012 0.9011
2634.000000 0.9009 0.9008 0.9006 0.9004 0.9003
2639.000000 0.9001 0.9000 0.8998 0.8997 0.8995
2644.000000 0.8993 0.8990 0.8988 0.8986 0.8983
2649.000000 0.8981 0.8978 0.8976 0.8974 0.8971
2654.000000 0.8969 0.8966 0.8964 0.8962 0.8959
2659.000000 0.8958 0.8957 0.8956 0.8955 0.8954
2664.000000 0.8953 0.8952 0.8951 0.8950 0.8949
2669.000000 0.8948 0.8947 0.8946 0.8945 0.8944
2674.000000 0.8943 0.8942 0.8941 0.8940 0.8939
2679.000000 0.8939 0.8938 0.8938 0.8937 0.8937
2684.000000 0.8936 0.8936 0.8935 0.8935 0.8934
2689.000000 0.8934 0.8933 0.8933 0.8932 0.8932
2694.000000 0.8931 0.8931 0.8930 0.8930 0.8930
2699.000000 0.8929 0.8929 0.8929 0.8928 0.8928
2704.000000 0.8928 0.8927 0.8927 0.8926 0.8926
2709.000000 0.8926 0.8925 0.8925 0.8927 0.8929
2714.000000 0.8932 0.8934 0.8937 0.8939 0.8942
2719.000000 0.8944 0.8941 0.8936 0.8931 0.8926
2724.000000 0.8921 0.8916 0.8910 0.8905 0.8900
2729.000000 0.8894 0.8889 0.8884 0.8879 0.8873
2734.000000 0.8868 0.8864 0.8860 0.8856 0.8852
2739.000000 0.8849 0.8845 0.8841 0.8839 0.8839
2744.000000 0.8839 0.8839 0.8839 0.8839 0.8839
2749.000000 0.8839 0.8839 0.8839 0.8840 0.8840
2754.000000 0.8841 0.8841 0.8842 0.8843 0.8843
2759.000000 0.8844 0.8845 0.8845 0.8846 0.8847
2764.000000 0.8848 0.8849 0.8849 0.8850 0.8851
2769.000000 0.8852 0.8853 0.8854 0.8855 0.8856
2774.000000 0.8852 0.8848 0.8843 0.8839 0.8834
2779.000000 0.8829 0.8821 0.8813 0.8805 0.8797
2784.000000 0.8789 0.8781 0.8773 0.8765 0.8757
2789.000000 0.8751 0.8748 0.8745 0.8742 0.8739
2794.000000 0.8736 0.8733 0.8739 0.8745 0.8752
2799.000000 0.8760 0.8767 0.8774 0.8780 0.8787
2804.000000 0.8793 0.8799 0.8806 0.8809 0.8808
2809.000000 0.8806 0.8803 0.8796 0.8788 0.8780
2814.000000 0.8772 0.8761 0.8750 0.8738 0.8725
2819.000000 0.8710 0.8696 0.8681 0.8666 0.8651
2824.000000 0.8636 0.8621 0.8607 0.8594 0.8580
2829.000000 0.8567 0.8553 0.8540 0.8526 0.8513
2834.000000 0.8499 0.8486 0.8473 0.8459 0.8446
2839.000000 0.8433 0.8419 0.8404 0.8389 0.8374
2844.000000 0.8357 0.8337 0.8317 0.8297 0.8277
2849.000000 0.8258 0.8238 0.8218 0.8198 0.8178
2854.000000 0.8158 0.8138 0.8111 0.8078 0.8059
2859.000000 0.8041 0.8022 0.8004 0.7973 0.7940
2864.000000 0.7912 0.7889 0.7865 0.7853 0.7842
2869.000000 0.7831 0.7823 0.7802 0.7823 0.7825
2874.000000 0.7837 0.7849 0.7894 0.7956 0.8051
2879.000000 0.8167 0.8199 0.8210 0.8245 0.8207
2884.000000 0.8204 0.8195 0.8179 0.8157 0.8135
2889.000000 0.8113 0.8091 0.8069 0.8047 0.8025
2894.000000 0.8002 0.7979 0.7955 0.7932 0.7909
2899.000000 0.7885 0.7862 0.7840 0.7818 0.7797
2904.000000 0.7776 0.7754 0.7733 0.7711 0.7690
2909.000000 0.7669 0.7647 0.7626 0.7604 0.7582
2914.000000 0.7561 0.7539 0.7517 0.7495 0.7474
2919.000000 0.7452 0.7433 0.7413 0.7394 0.7375
2924.000000 0.7355 0.7336 0.7316 0.7299 0.7286
2929.000000 0.7273 0.7260 0.7249 0.7245 0.7241
2934.000000 0.7237 0.7231 0.7225 0.7218 0.7212
2939.000000 0.7204 0.7194 0.7179 0.7158 0.7138
2944.000000 0.7116 0.7085 0.7053 0.7022 0.6993
2949.000000 0.6964 0.6935 0.6906 0.6877 0.6853
2954.000000 0.6829 0.6805 0.6781 0.6750 0.6719
2959.000000 0.6687 0.6655 0.6624 0.6579 0.6532
2964.000000 0.6484 0.6385 0.6316 0.6275 0.6252
2969.000000 0.6253 0.6227 0.6266 0.6281 0.6322
2974.000000 0.6411 0.6524 0.6649 0.6775 0.6900
2979.000000 0.7025 0.7151 0.7246 0.7302 0.7357
2984.000000 0.7385 0.7409 0.7429 0.7439 0.7448
2989.000000 0.7457 0.7466 0.7475 0.7479 0.7483
2994.000000 0.7487 0.7491 0.7497 0.7503 0.7509
2999.000000 0.7522 0.7542 0.7562 0.7586 0.7611
3004.000000 0.7624 0.7628 0.7632 0.7635 0.7637
3009.000000 0.7640 0.7641 0.7642 0.7643 0.7644
3014.000000 0.7645 0.7645 0.7646 0.7646 0.7646
3019.000000 0.7647 0.7647 0.7647 0.7647 0.7647
3024.000000 0.7647 0.7647 0.7646 0.7646 0.7646
3029.000000 0.7648 0.7650 0.7652 0.7654 0.7656
3034.000000 0.7660 0.7674 0.7688 0.7702 0.7717
3039.000000 0.7740 0.7762 0.7785 0.7811 0.7840
3044.000000 0.7870 0.7895 0.7905 0.7916 0.7926
3049.000000 0.7933 0.7940 0.7946 0.7953 0.7959
3054.000000 0.7966 0.7971 0.7976 0.7980 0.7985
3059.000000 0.7989 0.7994 0.7998 0.8004 0.8010
3064.000000 0.8015 0.8021 0.8027 0.8034 0.8045
3069.000000 0.8057 0.8068 0.8077 0.8085 0.8092
3074.000000 0.8093 0.8093 0.8093 0.8136 0.8095
3079.000000 0.8096 0.8097 0.8098 0.8099 0.8100
3084.000000 0.8100 0.8101 0.8102 0.8103 0.8104
3089.000000 0.8103 0.8102 0.8101 0.8100 0.8099
3094.000000 0.8098 0.8097 0.8094 0.8087 0.8081
3099.000000 0.8074 0.8067 0.8059 0.8045 0.8031
3104.000000 0.8017 0.8001 0.7982 0.7964 0.7951
3109.000000 0.7938 0.7934 0.7931 0.7929 0.7927
3114.000000 0.7924 0.7917 0.7905 0.7882 0.7835
3119.000000 0.7792 0.7748 0.7690 0.7633 0.7584
3124.000000 0.7536 0.7488 0.7446 0.7403 0.7361
3129.000000 0.7319 0.7276 0.7233 0.7207 0.7180
3134.000000 0.7154 0.7127 0.7099 0.7069 0.7040
3139.000000 0.7009 0.6981 0.6967 0.6965 0.6964
3144.000000 0.6950 0.7142 0.7252 0.7363 0.7473
3149.000000 0.7584 0.7694 0.7903 0.8012 0.8084
3154.000000 0.8129 0.8168 0.8199 0.8230 0.8261
3159.000000 0.8292 0.8325 0.8361 0.8397 0.8433
3164.000000 0.8467 0.8498 0.8529 0.8560 0.8587
3169.000000 0.8611 0.8635 0.8659 0.8679 0.8692
3174.000000 0.8705 0.8718 0.8731 0.8744 0.8757
3179.000000 0.8770 0.8780 0.8791 0.8802 0.8812
3184.000000 0.8823 0.8833 0.8844 0.8853 0.8861
3189.000000 0.8869 0.8877 0.8885 0.8893 0.8901
3194.000000 0.8909 0.8917 0.8926 0.8935 0.8944
3199.000000 0.8953 0.8962 0.8971 0.8979 0.8986
3204.000000 0.8992 0.8999 0.9006 0.9013 0.9019
3209.000000 0.9026 0.9033 0.9040 0.9047 0.9053
3214.000000 0.9056 0.9059 0.9062 0.9065 0.9069
3219.000000 0.9072 0.9075 0.9078 0.9081 0.9084
3224.000000 0.9088 0.9093 0.9097 0.9101 0.9106
3229.000000 0.9110 0.9115 0.9119 0.9123 0.9126
3234.000000 0.9128 0.9130 0.9132 0.9134 0.9136
3239.000000 0.9137 0.9139 0.9141 0.9143 0.9145
3244.000000 0.9147 0.9148 0.9150 0.9151 0.9152
3249.000000 0.9154 0.9155 0.9156 0.9157 0.9158
3254.000000 0.9159 0.9159 0.9157 0.9154 0.9152
3259.000000 0.9150 0.9147 0.9145 0.9142 0.9140
3264.000000 0.9137 0.9135 0.9133 0.9130 0.9128
3269.000000 0.9125 0.9123 0.9120 0.9119 0.9119
3274.000000 0.9119 0.9119 0.9119 0.9119 0.9119
3279.000000 0.9119 0.9119 0.9119 0.9118 0.9117
3284.000000 0.9116 0.9115 0.9114 0.9113 0.9112
3289.000000 0.9111 0.9110 0.9109 0.9108 0.9107
3294.000000 0.9106 0.9105 0.9104 0.9103 0.9103
3299.000000 0.9102 0.9101 0.9100 0.9100 0.9099
3304.000000 0.9098 0.9097 0.9096 0.9096 0.9095
3309.000000 0.9094 0.9093 0.9092 0.9092 0.9091
3314.000000 0.9090 0.9089 0.9088 0.9087 0.9086
3319.000000 0.9085 0.9084 0.9083 0.9082 0.9081
3324.000000 0.9080 0.9080 0.9079 0.9078 0.9077
3329.000000 0.9076 0.9075 0.9074 0.9073 0.9072
3334.000000 0.9071 0.9070 0.9069 0.9068 0.9066
3339.000000 0.9065 0.9064 0.9063 0.9062 0.9060
3344.000000 0.9059 0.9058 0.9057 0.9056 0.9054
3349.000000 0.9053 0.9052 0.9051 0.9050 0.9048
3354.000000 0.9047 0.9046 0.9045 0.9044 0.9043
3359.000000 0.9042 0.9041 0.9040 0.9039 0.9039
3364.000000 0.9038 0.9037 0.9036 0.9035 0.9034
3369.000000 0.9033 0.9032 0.9031 0.9030 0.9029
3374.000000 0.9029 0.9028 0.9027 0.9026 0.9026
3379.000000 0.9025 0.9024 0.9023 0.9022 0.9022
3384.000000 0.9021 0.9020 0.9019 0.9018 0.9018
3389.000000 0.9016 0.9015 0.9013 0.9012 0.9011
3394.000000 0.9009 0.9008 0.9006 0.9005 0.9003
3399.000000 0.9002 0.9001 0.8999 0.8998 0.8996
3404.000000 0.8995 0.8993 0.8992 0.8990 0.8988
3409.000000 0.8987 0.8985 0.8984 0.8982 0.8980
3414.000000 0.8979 0.8977 0.8976 0.8974 0.8972
3419.000000 0.8971 0.8969 0.8967 0.8966 0.8964
3424.000000 0.8963 0.8961 0.8959 0.8957 0.8955
3429.000000 0.8953 0.8951 0.8949 0.8947 0.8945
3434.000000 0.8943 0.8941 0.8939 0.8937 0.8935
3439.000000 0.8933 0.8931 0.8929 0.8927 0.8925
3444.000000 0.8923 0.8920 0.8918 0.8916 0.8913
3449.000000 0.8911 0.8908 0.8906 0.8904 0.8901
3454.000000 0.8899 0.8896 0.8894 0.8891 0.8889
3459.000000 0.8886 0.8884 0.8881 0.8878 0.8875
3464.000000 0.8873 0.8870 0.8867 0.8864 0.8861
3469.000000 0.8858 0.8855 0.8852 0.8849 0.8846
3474.000000 0.8844 0.8843 0.8843 0.8842 0.8841
3479.000000 0.8841 0.8840 0.8840 0.8839 0.8838
3484.000000 0.8838 0.8837 0.8838 0.8839 0.8839
3489.000000 0.8840 0.8841 0.8842 0.8844 0.8847
3494.000000 0.8849 0.8852 0.8855 0.8857 0.8851
3499.000000 0.8841 0.8831 0.8821 0.8811 0.8804
3504.000000 0.8800 0.8795 0.8790 0.8786 0.8781
3509.000000 0.8777 0.8772 0.8770 0.8770 0.8769
3514.000000 0.8768 0.8767 0.8766 0.8766 0.8765
3519.000000 0.8764 0.8763 0.8760 0.8757 0.8755
3524.000000 0.8752 0.8749 0.8747 0.8744 0.8742
3529.000000 0.8739 0.8737 0.8736 0.8734 0.8733
3534.000000 0.8731 0.8730 0.8728 0.8727 0.8725
3539.000000 0.8723 0.8721 0.8719 0.8718 0.8716
3544.000000 0.8714 0.8712 0.8710 0.8709 0.8707
3549.000000 0.8704 0.8700 0.8695 0.8691 0.8687
3554.000000 0.8683 0.8678 0.8674 0.8670 0.8665
3559.000000 0.8661 0.8657 0.8652 0.8648 0.8644
3564.000000 0.8640 0.8636 0.8633 0.8629 0.8625
3569.000000 0.8621 0.8617 0.8613 0.8611 0.8610
3574.000000 0.8610 0.8609 0.8609 0.8608 0.8608
3579.000000 0.8607 0.8607 0.8606 0.8605 0.8605
3584.000000 0.8604 0.8604 0.8604 0.8604 0.8603
3589.000000 0.8603 0.8603 0.8603 0.8602 0.8602
3594.000000 0.8602 0.8602 0.8601 0.8601 0.8601
3599.000000 0.8601 0.8601 0.8601 0.8601 0.8601
3604.000000 0.8601 0.8600 0.8600 0.8600 0.8600
3609.000000 0.8600 0.8600 0.8600 0.8600 0.8600
3614.000000 0.8600 0.8599 0.8599 0.8598 0.8597
3619.000000 0.8597 0.8596 0.8595 0.8595 0.8594
3624.000000 0.8594 0.8593 0.8592 0.8591 0.8590
3629.000000 0.8589 0.8588 0.8587 0.8586 0.8585
3634.000000 0.8584 0.8582 0.8581 0.8580 0.8579
3639.000000 0.8578 0.8576 0.8574 0.8572 0.8570
3644.000000 0.8567 0.8565 0.8563 0.8560 0.8556
3649.000000 0.8552 0.8548 0.8544 0.8540 0.8536
3654.000000 0.8532 0.8529 0.8521 0.8511 0.8502
3659.000000 0.8491 0.8473 0.8458 0.8444 0.8429
3664.000000 0.8412 0.8396 0.8391 0.8385 0.8381
3669.000000 0.8379 0.8378 0.8377 0.8376 0.8380
3674.000000 0.8385 0.8390 0.8395 0.8400 0.8405
3679.000000 0.8411 0.8417 0.8424 0.8430 0.8436
3684.000000 0.8442 0.8447 0.8453 0.8458 0.8463
3689.000000 0.8468 0.8471 0.8474 0.8477 0.8480
3694.000000 0.8483 0.8486 0.8489 0.8492 0.8494
3699.000000 0.8498 0.8502 0.8506 0.8510 0.8514
3704.000000 0.8518 0.8522 0.8523 0.8525 0.8526
3709.000000 0.8528 0.8529 0.8530 0.8532 0.8533
3714.000000 0.8535 0.8535 0.8536 0.8537 0.8538
3719.000000 0.8539 0.8539 0.8540 0.8540 0.8539
3724.000000 0.8538 0.8537 0.8536 0.8535 0.8534
3729.000000 0.8533 0.8532 0.8531 0.8530 0.8529
3734.000000 0.8528 0.8527 0.8526 0.8525 0.8524
3739.000000 0.8523 0.8522 0.8521 0.8520 0.8519
3744.000000 0.8517 0.8516 0.8515 0.8514 0.8512
3749.000000 0.8511 0.8510 0.8509 0.8507 0.8506
3754.000000 0.8505 0.8503 0.8502 0.8501 0.8500
3759.000000 0.8499 0.8498 0.8498 0.8497 0.8497
3764.000000 0.8496 0.8496 0.8495 0.8495 0.8494
3769.000000 0.8494 0.8493 0.8493 0.8492 0.8492
3774.000000 0.8491 0.8491 0.8490 0.8491 0.8492
3779.000000 0.8493 0.8493 0.8494 0.8495 0.8496
3784.000000 0.8497 0.8497 0.8498 0.8499 0.8500
3789.000000 0.8501 0.8501 0.8501 0.8500 0.8500
3794.000000 0.8500 0.8499 0.8499 0.8499 0.8498
3799.000000 0.8498 0.8498 0.8497 0.8496 0.8496
3804.000000 0.8495 0.8494 0.8494 0.8493 0.8493
3809.000000 0.8492 0.8491 0.8491 0.8490 0.8489
3814.000000 0.8489 0.8488 0.8488 0.8488 0.8488
3819.000000 0.8487 0.8487 0.8487 0.8487 0.8487
3824.000000 0.8487 0.8487 0.8487 0.8486 0.8486
3829.000000 0.8486 0.8486 0.8486 0.8486 0.8487
3834.000000 0.8488 0.8490 0.8491 0.8492 0.8493
3839.000000 0.8494 0.8495 0.8497 0.8498 0.8499
3844.000000 0.8500 0.8501 0.8502 0.8504 0.8505
3849.000000 0.8508 0.8511 0.8514 0.8516 0.8519
3854.000000 0.8522 0.8525 0.8528 0.8530 0.8533
3859.000000 0.8536 0.8539 0.8542 0.8544 0.8547
3864.000000 0.8549 0.8552 0.8554 0.8556 0.8559
3869.000000 0.8561 0.8564 0.8566 0.8568 0.8571
3874.000000 0.8573 0.8575 0.8575 0.8574 0.8573
3879.000000 0.8572 0.8571 0.8571 0.8570 0.8569
3884.000000 0.8568 0.8567 0.8567 0.8566 0.8565
3889.000000 0.8569 0.8563 0.8563 0.8562 0.8561
3894.000000 0.8560 0.8561 0.8561 0.8561 0.8561
3899.000000 0.8562 0.8562 0.8562 0.8563 0.8563
3904.000000 0.8563 0.8563 0.8564 0.8564 0.8564
3909.000000 0.8565 0.8564 0.8563 0.8561 0.8560
3914.000000 0.8558 0.8557 0.8555 0.8553 0.8552
3919.000000 0.8550 0.8549 0.8547 0.8546 0.8544
3924.000000 0.8542 0.8541 0.8539 0.8538 0.8536
3929.000000 0.8534 0.8531 0.8529 0.8526 0.8524
3934.000000 0.8521 0.8519 0.8516 0.8514 0.8511
3939.000000 0.8508 0.8506 0.8503 0.8501 0.8498
3944.000000 0.8496 0.8493 0.8491 0.8488 0.8488
3949.000000 0.8487 0.8486 0.8486 0.8485 0.8484
3954.000000 0.8484 0.8483 0.8482 0.8481 0.8481
3959.000000 0.8480 0.8479 0.8479 0.8478 0.8478
3964.000000 0.8478 0.8477 0.8477 0.8477 0.8477
3969.000000 0.8476 0.8476 0.8476 0.8475 0.8474
3974.000000 0.8472 0.8470 0.8468 0.8466 0.8464
3979.000000 0.8463 0.8462 0.8461 0.8461 0.8460
3984.000000 0.8459 0.8459 0.8458 0.8457 0.8457
3989.000000 0.8456 0.8455 0.8455 0.8454 0.8453
3994.000000 0.8453 0.8452 0.8451 0.8450 0.8450
3999.000000 0.8449 0.8448
##END=
