##TITLE=Ammonium chloride, trimethyl[2-(2',6'-xylyloxy)propyl]-, monohydrate
##JCAMP-DX=4.24
##DATA TYPE=INFRARED SPECTRUM
##CLASS=COBLENTZ III
##ORIGIN=SMITH, KLINE & FRENCH LABS.
##OWNER=Copyright (C) 1987 by the Coblentz Society
Collection (C) 2018 copyright by the U.S. Secretary of Commerce
on behalf of the United States of America. All rights reserved.
##DATE=1958/11/17
##MOLFORM=C14 H24 Cl N O  * H2 O
##SOURCE REFERENCE=COBLENTZ NO. 7305
##$NIST ID=B6007305
##$NIST SOURCE=COBLENTZ
##$NIST IMAGE=cob7305
##SPECTROMETER/DATA SYSTEM=PERKIN-ELMER 21 (GRATING)
##INSTRUMENT PARAMETERS=NaCl PRISM
##STATE=SOLID (OIL MULL)
$$SPECTRAL CONTAMINATION DUE TO OIL AROUND 2850, 1460, 1370 CM^-^1
##SAMPLING PROCEDURE=TRANSMISSION
##RESOLUTION=2
##DATA PROCESSING=DIGITIZED BY COBLENTZ SOCIETY (BATCH II) FROM HARD COPY
##XUNITS=1/CM
##YUNITS=TRANSMITTANCE
##XFACTOR=1.0
##YFACTOR=1
##FIRSTX=669
##LASTX=4000
##FIRSTY=0.6935
##MAXX=4000
##MINX=669
##MAXY=0.789
##MINY=0.036
##NPOINTS=3332
##XYDATA=(X++(Y..Y))
669.000000 0.6935 0.6963 0.6992 0.7015 0.7037
674.000000 0.7062 0.7105 0.7151 0.7204 0.7255
679.000000 0.7305 0.7355 0.7407 0.7436 0.7449
684.000000 0.7461 0.7471 0.7478 0.7485 0.7493
689.000000 0.7500 0.7510 0.7526 0.7540 0.7555
694.000000 0.7562 0.7568 0.7569 0.7568 0.7564
699.000000 0.7558 0.7548 0.7536 0.7524 0.7511
704.000000 0.7500 0.7490 0.7482 0.7486 0.7477
709.000000 0.7443 0.7400 0.7360 0.7309 0.7273
714.000000 0.7237 0.7203 0.7172 0.7143 0.7123
719.000000 0.7118 0.7135 0.7189 0.7216 0.7244
724.000000 0.7269 0.7291 0.7313 0.7335 0.7356
729.000000 0.7371 0.7387 0.7402 0.7416 0.7427
734.000000 0.7439 0.7450 0.7462 0.7472 0.7483
739.000000 0.7494 0.7504 0.7510 0.7516 0.7522
744.000000 0.7546 0.7512 0.7502 0.7491 0.7481
749.000000 0.7471 0.7476 0.7488 0.7499 0.7554
754.000000 0.7579 0.7571 0.7562 0.7540 0.7520
759.000000 0.7506 0.7493 0.7484 0.7475 0.7466
764.000000 0.7457 0.7448 0.7436 0.7423 0.7395
769.000000 0.7360 0.7296 0.7229 0.7161 0.7088
774.000000 0.6976 0.6841 0.6689 0.6244 0.5691
779.000000 0.5139 0.4589 0.4040 0.3492 0.2952
784.000000 0.2810 0.2797 0.3846 0.4651 0.5454
789.000000 0.6030 0.6614 0.6972 0.7028 0.7042
794.000000 0.7048 0.7024 0.7045 0.7035 0.6989
799.000000 0.6853 0.6576 0.6260 0.5946 0.5633
804.000000 0.5306 0.5302 0.5371 0.5653 0.6271
809.000000 0.6888 0.7277 0.7407 0.7498 0.7555
814.000000 0.7604 0.7637 0.7671 0.7699 0.7726
819.000000 0.7753 0.7778 0.7795 0.7812 0.7827
824.000000 0.7840 0.7853 0.7851 0.7890 0.7815
829.000000 0.7775 0.7753 0.7740 0.7731 0.7720
834.000000 0.7709 0.7705 0.7700 0.7692 0.7683
839.000000 0.7674 0.7670 0.7666 0.7664 0.7664
844.000000 0.7663 0.7663 0.7662 0.7663 0.7665
849.000000 0.7667 0.7654 0.7626 0.7586 0.7549
854.000000 0.7541 0.7535 0.7543 0.7553 0.7565
859.000000 0.7565 0.7564 0.7553 0.7538 0.7518
864.000000 0.7496 0.7438 0.7350 0.7264 0.7147
869.000000 0.6975 0.6803 0.6631 0.6439 0.6289
874.000000 0.6271 0.6265 0.6537 0.6701 0.7050
879.000000 0.7163 0.7177 0.7183 0.7167 0.7142
884.000000 0.7071 0.6991 0.6918 0.6849 0.6780
889.000000 0.6660 0.6510 0.6336 0.6156 0.5987
894.000000 0.5458 0.4760 0.4064 0.3369 0.3085
899.000000 0.3030 0.3034 0.3153 0.3806 0.4504
904.000000 0.5202 0.5651 0.5678 0.5616 0.5488
909.000000 0.5370 0.5286 0.5260 0.5275 0.5246
914.000000 0.5684 0.5923 0.6161 0.6398 0.6648
919.000000 0.6817 0.6894 0.6941 0.6971 0.6987
924.000000 0.6999 0.7004 0.7010 0.7011 0.7006
929.000000 0.7003 0.6998 0.6992 0.6978 0.6980
934.000000 0.6973 0.6966 0.6959 0.6952 0.6936
939.000000 0.6920 0.6904 0.6882 0.6849 0.6808
944.000000 0.6761 0.6699 0.6612 0.6520 0.6402
949.000000 0.6266 0.6137 0.6016 0.5891 0.5437
954.000000 0.5006 0.4856 0.4768 0.4802 0.4871
959.000000 0.5039 0.5126 0.5141 0.5153 0.5002
964.000000 0.4697 0.4273 0.3841 0.3411 0.2981
969.000000 0.2701 0.2584 0.2572 0.2659 0.2965
974.000000 0.3272 0.3579 0.3884 0.4184 0.4374
979.000000 0.4559 0.4872 0.5428 0.5958 0.6149
984.000000 0.6277 0.6386 0.6488 0.6588 0.6663
989.000000 0.6735 0.6774 0.6814 0.6832 0.6841
994.000000 0.6848 0.6854 0.6859 0.6867 0.6862
999.000000 0.6853 0.6844 0.6835 0.6827 0.6817
1004.000000 0.6809 0.6796 0.6785 0.6773 0.6761
1009.000000 0.6745 0.6728 0.6711 0.6701 0.6690
1014.000000 0.6680 0.6667 0.6652 0.6637 0.6614
1019.000000 0.6591 0.6562 0.6531 0.6500 0.6469
1024.000000 0.6438 0.6407 0.6376 0.6351 0.6328
1029.000000 0.6305 0.6290 0.6282 0.6272 0.6268
1034.000000 0.6250 0.6274 0.6283 0.6293 0.6315
1039.000000 0.6342 0.6379 0.6437 0.6466 0.6482
1044.000000 0.6465 0.6457 0.6450 0.6441 0.6430
1049.000000 0.6421 0.6407 0.6392 0.6376 0.6361
1054.000000 0.6336 0.6284 0.6222 0.6157 0.6064
1059.000000 0.5976 0.5889 0.5782 0.5666 0.5386
1064.000000 0.5090 0.4793 0.4497 0.4202 0.4005
1069.000000 0.3884 0.3775 0.3717 0.3697 0.3724
1074.000000 0.3935 0.4426 0.4916 0.5405 0.5633
1079.000000 0.5667 0.5693 0.5657 0.5628 0.5578
1084.000000 0.5431 0.5179 0.4927 0.4675 0.4423
1089.000000 0.4180 0.4117 0.4105 0.4494 0.4801
1094.000000 0.5107 0.5412 0.5717 0.6022 0.6321
1099.000000 0.6462 0.6498 0.6509 0.6526 0.6507
1104.000000 0.6491 0.6474 0.6458 0.6439 0.6416
1109.000000 0.6393 0.6369 0.6342 0.6314 0.6287
1114.000000 0.6248 0.6193 0.6124 0.6050 0.5950
1119.000000 0.5814 0.5650 0.5362 0.5066 0.4771
1124.000000 0.4595 0.4597 0.4598 0.4874 0.5095
1129.000000 0.5315 0.5521 0.5574 0.5567 0.5549
1134.000000 0.5440 0.5312 0.5185 0.5070 0.5053
1139.000000 0.5079 0.5385 0.5723 0.5913 0.6009
1144.000000 0.6069 0.6103 0.6130 0.6139 0.6143
1149.000000 0.6148 0.6152 0.6152 0.6154 0.6156
1154.000000 0.6158 0.6157 0.6174 0.6152 0.6150
1159.000000 0.6148 0.6146 0.6142 0.6139 0.6137
1164.000000 0.6133 0.6130 0.6126 0.6118 0.6110
1169.000000 0.6103 0.6095 0.6073 0.6046 0.6014
1174.000000 0.5981 0.5915 0.5837 0.5730 0.5616
1179.000000 0.5454 0.5066 0.4610 0.4155 0.3700
1184.000000 0.3247 0.2793 0.2342 0.1890 0.1463
1189.000000 0.1338 0.1339 0.1356 0.1751 0.2214
1194.000000 0.2677 0.3138 0.3600 0.4060 0.4519
1199.000000 0.4978 0.5436 0.5850 0.6033 0.6225
1204.000000 0.6356 0.6475 0.6573 0.6669 0.6762
1209.000000 0.6819 0.6854 0.6889 0.6913 0.6932
1214.000000 0.6952 0.6970 0.6981 0.6988 0.6993
1219.000000 0.6979 0.6994 0.6994 0.6992 0.6992
1224.000000 0.6990 0.6988 0.6987 0.6986 0.6984
1229.000000 0.6984 0.6986 0.6987 0.6987 0.6988
1234.000000 0.6988 0.6985 0.6982 0.6978 0.6960
1239.000000 0.6942 0.6924 0.6906 0.6881 0.6849
1244.000000 0.6815 0.6768 0.6709 0.6642 0.6583
1249.000000 0.6498 0.6402 0.6301 0.6122 0.5923
1254.000000 0.5724 0.5525 0.5327 0.5144 0.5121
1259.000000 0.5146 0.5371 0.5714 0.6056 0.6371
1264.000000 0.6520 0.6608 0.6659 0.6673 0.6678
1269.000000 0.6678 0.6677 0.6672 0.6668 0.6663
1274.000000 0.6658 0.6653 0.6661 0.6642 0.6637
1279.000000 0.6636 0.6637 0.6638 0.6639 0.6640
1284.000000 0.6641 0.6643 0.6646 0.6648 0.6651
1289.000000 0.6650 0.6647 0.6644 0.6638 0.6632
1294.000000 0.6626 0.6621 0.6615 0.6604 0.6594
1299.000000 0.6570 0.6542 0.6509 0.6474 0.6437
1304.000000 0.6385 0.6331 0.6283 0.6235 0.6172
1309.000000 0.6100 0.6029 0.5958 0.5887 0.5816
1314.000000 0.5756 0.5730 0.5723 0.5814 0.5934
1319.000000 0.6055 0.6175 0.6268 0.6284 0.6287
1324.000000 0.6289 0.6286 0.6287 0.6285 0.6284
1329.000000 0.6282 0.6278 0.6272 0.6264 0.6241
1334.000000 0.6219 0.6198 0.6183 0.6172 0.6161
1339.000000 0.6149 0.6137 0.6122 0.6091 0.6054
1344.000000 0.6015 0.5975 0.5919 0.5850 0.5795
1349.000000 0.5755 0.5722 0.5616 0.5385 0.5148
1354.000000 0.4911 0.4638 0.4416 0.4231 0.4084
1359.000000 0.3928 0.3745 0.3601 0.3490 0.3399
1364.000000 0.3300 0.3202 0.3043 0.2850 0.2657
1369.000000 0.2464 0.2272 0.2127 0.2101 0.2103
1374.000000 0.2106 0.2211 0.2527 0.2866 0.3204
1379.000000 0.3542 0.3880 0.4216 0.4553 0.4889
1384.000000 0.5224 0.5560 0.5893 0.6207 0.6363
1389.000000 0.6388 0.6403 0.6408 0.6406 0.6401
1394.000000 0.6390 0.6375 0.6340 0.6296 0.6240
1399.000000 0.6179 0.6112 0.6054 0.6008 0.5899
1404.000000 0.5676 0.5453 0.5324 0.5307 0.5295
1409.000000 0.5288 0.5286 0.5283 0.5279 0.5276
1414.000000 0.5271 0.5264 0.5250 0.5235 0.5216
1419.000000 0.5167 0.5105 0.5036 0.4953 0.4852
1424.000000 0.4744 0.4588 0.4417 0.4246 0.4076
1429.000000 0.3906 0.3735 0.3566 0.3255 0.2985
1434.000000 0.2789 0.2692 0.2621 0.2547 0.2457
1439.000000 0.2357 0.2248 0.2128 0.2016 0.1921
1444.000000 0.1831 0.1766 0.1707 0.1653 0.1607
1449.000000 0.1562 0.1530 0.1509 0.1490 0.1482
1454.000000 0.1482 0.1482 0.1483 0.1485 0.1486
1459.000000 0.1492 0.1502 0.1511 0.1524 0.1535
1464.000000 0.1547 0.1564 0.1585 0.1605 0.1626
1469.000000 0.1648 0.1677 0.1710 0.1743 0.1790
1474.000000 0.1849 0.1911 0.1981 0.2038 0.2205
1479.000000 0.2589 0.3030 0.3471 0.3796 0.3838
1484.000000 0.3869 0.3887 0.3897 0.3905 0.3915
1489.000000 0.3927 0.3939 0.4034 0.4390 0.4755
1494.000000 0.5120 0.5485 0.5887 0.6088 0.6219
1499.000000 0.6378 0.6552 0.6723 0.6873 0.6985
1504.000000 0.7056 0.7085 0.7107 0.7124 0.7135
1509.000000 0.7148 0.7160 0.7171 0.7179 0.7188
1514.000000 0.7196 0.7201 0.7203 0.7206 0.7208
1519.000000 0.7210 0.7212 0.7214 0.7216 0.7216
1524.000000 0.7216 0.7216 0.7216 0.7216 0.7217
1529.000000 0.7217 0.7217 0.7217 0.7217 0.7218
1534.000000 0.7218 0.7219 0.7219 0.7219 0.7220
1539.000000 0.7220 0.7220 0.7221 0.7221 0.7222
1544.000000 0.7222 0.7222 0.7222 0.7223 0.7223
1549.000000 0.7223 0.7223 0.7223 0.7223 0.7225
1554.000000 0.7230 0.7236 0.7242 0.7248 0.7254
1559.000000 0.7263 0.7273 0.7282 0.7286 0.7287
1564.000000 0.7287 0.7287 0.7287 0.7287 0.7287
1569.000000 0.7288 0.7289 0.7287 0.7290 0.7291
1574.000000 0.7286 0.7277 0.7268 0.7257 0.7232
1579.000000 0.7198 0.7163 0.7125 0.7086 0.7046
1584.000000 0.7003 0.6981 0.6973 0.6970 0.6973
1589.000000 0.6978 0.6988 0.6999 0.7011 0.7016
1594.000000 0.7016 0.7012 0.7005 0.6990 0.6961
1599.000000 0.6922 0.6882 0.6840 0.6797 0.6757
1604.000000 0.6723 0.6694 0.6667 0.6640 0.6598
1609.000000 0.6515 0.6414 0.6315 0.6215 0.6115
1614.000000 0.6016 0.5916 0.5818 0.5718 0.5707
1619.000000 0.5709 0.5720 0.5783 0.5910 0.6051
1624.000000 0.6190 0.6330 0.6470 0.6610 0.6749
1629.000000 0.6887 0.6998 0.7037 0.7067 0.7094
1634.000000 0.7117 0.7130 0.7144 0.7157 0.7170
1639.000000 0.7183 0.7196 0.7209 0.7221 0.7231
1644.000000 0.7241 0.7252 0.7262 0.7269 0.7274
1649.000000 0.7277 0.7282 0.7285 0.7286 0.7286
1654.000000 0.7286 0.7286 0.7286 0.7286 0.7286
1659.000000 0.7285 0.7284 0.7283 0.7282 0.7281
1664.000000 0.7280 0.7279 0.7277 0.7277 0.7277
1669.000000 0.7277 0.7277 0.7278 0.7278 0.7279
1674.000000 0.7280 0.7281 0.7284 0.7288 0.7292
1679.000000 0.7296 0.7300 0.7304 0.7308 0.7312
1684.000000 0.7315 0.7319 0.7322 0.7325 0.7328
1689.000000 0.7332 0.7335 0.7338 0.7341 0.7345
1694.000000 0.7348 0.7352 0.7356 0.7360 0.7364
1699.000000 0.7368 0.7373 0.7377 0.7381 0.7386
1704.000000 0.7390 0.7394 0.7398 0.7403 0.7407
1709.000000 0.7411 0.7414 0.7416 0.7419 0.7421
1714.000000 0.7424 0.7426 0.7429 0.7431 0.7434
1719.000000 0.7436 0.7439 0.7440 0.7442 0.7444
1724.000000 0.7446 0.7448 0.7450 0.7451 0.7436
1729.000000 0.7455 0.7457 0.7459 0.7460 0.7460
1734.000000 0.7459 0.7458 0.7458 0.7457 0.7456
1739.000000 0.7455 0.7454 0.7453 0.7452 0.7451
1744.000000 0.7450 0.7449 0.7448 0.7447 0.7444
1749.000000 0.7442 0.7440 0.7438 0.7435 0.7433
1754.000000 0.7431 0.7429 0.7427 0.7424 0.7422
1759.000000 0.7420 0.7418 0.7416 0.7414 0.7413
1764.000000 0.7410 0.7408 0.7407 0.7405 0.7404
1769.000000 0.7402 0.7400 0.7398 0.7396 0.7395
1774.000000 0.7393 0.7391 0.7390 0.7388 0.7387
1779.000000 0.7385 0.7383 0.7382 0.7381 0.7380
1784.000000 0.7378 0.7377 0.7375 0.7373 0.7373
1789.000000 0.7371 0.7370 0.7368 0.7367 0.7365
1794.000000 0.7365 0.7365 0.7365 0.7365 0.7365
1799.000000 0.7366 0.7366 0.7366 0.7366 0.7366
1804.000000 0.7366 0.7366 0.7366 0.7366 0.7366
1809.000000 0.7367 0.7367 0.7369 0.7371 0.7373
1814.000000 0.7375 0.7377 0.7378 0.7380 0.7382
1819.000000 0.7384 0.7385 0.7387 0.7389 0.7391
1824.000000 0.7393 0.7395 0.7396 0.7398 0.7400
1829.000000 0.7402 0.7403 0.7405 0.7407 0.7409
1834.000000 0.7410 0.7412 0.7413 0.7414 0.7414
1839.000000 0.7415 0.7416 0.7417 0.7417 0.7418
1844.000000 0.7419 0.7419 0.7420 0.7421 0.7422
1849.000000 0.7422 0.7422 0.7423 0.7424 0.7424
1854.000000 0.7421 0.7418 0.7414 0.7412 0.7409
1859.000000 0.7406 0.7403 0.7399 0.7396 0.7393
1864.000000 0.7390 0.7387 0.7384 0.7382 0.7381
1869.000000 0.7381 0.7380 0.7380 0.7379 0.7378
1874.000000 0.7378 0.7377 0.7377 0.7377 0.7377
1879.000000 0.7378 0.7379 0.7380 0.7382 0.7383
1884.000000 0.7385 0.7386 0.7387 0.7389 0.7390
1889.000000 0.7392 0.7394 0.7397 0.7401 0.7404
1894.000000 0.7407 0.7409 0.7413 0.7416 0.7419
1899.000000 0.7419 0.7418 0.7415 0.7413 0.7410
1904.000000 0.7408 0.7405 0.7402 0.7399 0.7397
1909.000000 0.7395 0.7392 0.7389 0.7385 0.7381
1914.000000 0.7376 0.7372 0.7367 0.7363 0.7359
1919.000000 0.7354 0.7350 0.7345 0.7341 0.7336
1924.000000 0.7331 0.7326 0.7322 0.7317 0.7313
1929.000000 0.7311 0.7312 0.7313 0.7314 0.7314
1934.000000 0.7315 0.7317 0.7317 0.7318 0.7320
1939.000000 0.7320 0.7321 0.7323 0.7323 0.7323
1944.000000 0.7323 0.7323 0.7323 0.7323 0.7323
1949.000000 0.7323 0.7323 0.7323 0.7323 0.7323
1954.000000 0.7323 0.7323 0.7323 0.7323 0.7322
1959.000000 0.7322 0.7322 0.7321 0.7321 0.7321
1964.000000 0.7320 0.7318 0.7316 0.7312 0.7308
1969.000000 0.7305 0.7302 0.7298 0.7294 0.7291
1974.000000 0.7287 0.7282 0.7278 0.7273 0.7268
1979.000000 0.7263 0.7259 0.7254 0.7254 0.7254
1984.000000 0.7254 0.7256 0.7257 0.7257 0.7258
1989.000000 0.7259 0.7260 0.7259 0.7258 0.7256
1994.000000 0.7254 0.7253 0.7251 0.7249 0.7248
1999.000000 0.7246 0.7245 0.7243 0.7241 0.7240
2004.000000 0.7238 0.7236 0.7235 0.7234 0.7233
2009.000000 0.7230 0.7226 0.7222 0.7219 0.7215
2014.000000 0.7212 0.7209 0.7205 0.7202 0.7199
2019.000000 0.7195 0.7190 0.7185 0.7179 0.7174
2024.000000 0.7168 0.7162 0.7156 0.7151 0.7145
2029.000000 0.7140 0.7134 0.7129 0.7121 0.7114
2034.000000 0.7107 0.7099 0.7091 0.7084 0.7077
2039.000000 0.7070 0.7062 0.7055 0.7047 0.7040
2044.000000 0.7033 0.7024 0.7016 0.7006 0.6997
2049.000000 0.6987 0.6977 0.6967 0.6958 0.6948
2054.000000 0.6939 0.6930 0.6922 0.6918 0.6914
2059.000000 0.6909 0.6905 0.6901 0.6901 0.6902
2064.000000 0.6905 0.6909 0.6912 0.6916 0.6921
2069.000000 0.6933 0.6945 0.6957 0.6966 0.6973
2074.000000 0.6979 0.7004 0.6993 0.6998 0.7002
2079.000000 0.7005 0.7009 0.7010 0.7012 0.7012
2084.000000 0.7012 0.7012 0.7012 0.7012 0.7012
2089.000000 0.7011 0.7011 0.7010 0.7009 0.7008
2094.000000 0.7007 0.7006 0.7005 0.7005 0.7004
2099.000000 0.7004 0.7002 0.7001 0.7001 0.7000
2104.000000 0.6999 0.6998 0.6997 0.6995 0.6993
2109.000000 0.6992 0.6991 0.6989 0.6988 0.6986
2114.000000 0.6984 0.6983 0.6981 0.6979 0.6978
2119.000000 0.6977 0.6977 0.6976 0.6976 0.6975
2124.000000 0.6975 0.6975 0.6974 0.6974 0.6973
2129.000000 0.6973 0.6973 0.6973 0.6972 0.6972
2134.000000 0.6971 0.6971 0.6978 0.6988 0.7005
2139.000000 0.7027 0.7054 0.7081 0.7110 0.7130
2144.000000 0.7149 0.7151 0.7151 0.7151 0.7151
2149.000000 0.7151 0.7151 0.7151 0.7151 0.7151
2154.000000 0.7152 0.7152 0.7153 0.7153 0.7153
2159.000000 0.7154 0.7154 0.7155 0.7155 0.7155
2164.000000 0.7155 0.7156 0.7156 0.7156 0.7156
2169.000000 0.7156 0.7156 0.7156 0.7156 0.7156
2174.000000 0.7156 0.7156 0.7155 0.7155 0.7154
2179.000000 0.7154 0.7153 0.7153 0.7153 0.7153
2184.000000 0.7152 0.7152 0.7151 0.7151 0.7150
2189.000000 0.7150 0.7149 0.7149 0.7148 0.7146
2194.000000 0.7145 0.7144 0.7143 0.7142 0.7142
2199.000000 0.7141 0.7141 0.7140 0.7140 0.7139
2204.000000 0.7139 0.7138 0.7138 0.7137 0.7137
2209.000000 0.7137 0.7137 0.7138 0.7139 0.7140
2214.000000 0.7141 0.7142 0.7143 0.7144 0.7145
2219.000000 0.7147 0.7148 0.7149 0.7150 0.7151
2224.000000 0.7152 0.7153 0.7154 0.7154 0.7154
2229.000000 0.7149 0.7144 0.7132 0.7119 0.7106
2234.000000 0.7092 0.7079 0.7066 0.7049 0.7030
2239.000000 0.7011 0.6992 0.6988 0.6987 0.6986
2244.000000 0.6985 0.6984 0.6983 0.6982 0.6982
2249.000000 0.6981 0.6981 0.6981 0.6981 0.6981
2254.000000 0.6981 0.6980 0.6980 0.6980 0.6980
2259.000000 0.6980 0.6980 0.6979 0.6979 0.6979
2264.000000 0.6979 0.6978 0.6978 0.6978 0.6978
2269.000000 0.6978 0.6978 0.6977 0.6977 0.6977
2274.000000 0.6977 0.6976 0.6976 0.6975 0.6975
2279.000000 0.6975 0.6975 0.6975 0.6974 0.6974
2284.000000 0.6973 0.6973 0.6972 0.6972 0.6971
2289.000000 0.6971 0.6971 0.6971 0.6970 0.6970
2294.000000 0.6969 0.6969 0.6968 0.6968 0.6967
2299.000000 0.6967 0.6967 0.6967 0.6967 0.6967
2304.000000 0.6968 0.6969 0.6970 0.6972 0.6973
2309.000000 0.6974 0.6975 0.6976 0.6978 0.6979
2314.000000 0.6980 0.6981 0.6982 0.6984 0.6985
2319.000000 0.6986 0.6989 0.6993 0.6996 0.6999
2324.000000 0.7003 0.7006 0.7010 0.7013 0.7016
2329.000000 0.7020 0.7023 0.7026 0.7029 0.7032
2334.000000 0.7036 0.7039 0.7042 0.7045 0.7048
2339.000000 0.7052 0.7055 0.7058 0.7061 0.7064
2344.000000 0.7067 0.7070 0.7070 0.7069 0.7068
2349.000000 0.7067 0.7066 0.7065 0.7063 0.7057
2354.000000 0.7051 0.7040 0.7029 0.7017 0.7005
2359.000000 0.6996 0.6989 0.6984 0.6981 0.6978
2364.000000 0.6976 0.6973 0.6970 0.6968 0.6965
2369.000000 0.6963 0.6961 0.6958 0.6956 0.6956
2374.000000 0.6956 0.6956 0.6956 0.6956 0.6956
2379.000000 0.6956 0.6956 0.6956 0.6956 0.6956
2384.000000 0.6956 0.6956 0.6956 0.6956 0.6957
2389.000000 0.6957 0.6957 0.6957 0.6957 0.6957
2394.000000 0.6957 0.6957 0.6957 0.6957 0.6957
2399.000000 0.6957 0.6958 0.6958 0.6958 0.6958
2404.000000 0.6959 0.6959 0.6959 0.6959 0.6959
2409.000000 0.6960 0.6960 0.6960 0.6960 0.6960
2414.000000 0.6961 0.6961 0.6960 0.6960 0.6959
2419.000000 0.6956 0.6953 0.6950 0.6948 0.6945
2424.000000 0.6942 0.6939 0.6936 0.6933 0.6930
2429.000000 0.6927 0.6924 0.6921 0.6918 0.6915
2434.000000 0.6912 0.6909 0.6906 0.6903 0.6899
2439.000000 0.6896 0.6890 0.6885 0.6879 0.6874
2444.000000 0.6868 0.6863 0.6857 0.6852 0.6846
2449.000000 0.6840 0.6835 0.6829 0.6824 0.6819
2454.000000 0.6813 0.6807 0.6801 0.6796 0.6791
2459.000000 0.6785 0.6779 0.6773 0.6768 0.6762
2464.000000 0.6756 0.6751 0.6746 0.6740 0.6734
2469.000000 0.6728 0.6723 0.6717 0.6712 0.6706
2474.000000 0.6701 0.6695 0.6689 0.6683 0.6678
2479.000000 0.6673 0.6667 0.6663 0.6659 0.6655
2484.000000 0.6651 0.6647 0.6643 0.6639 0.6635
2489.000000 0.6630 0.6626 0.6622 0.6618 0.6614
2494.000000 0.6610 0.6606 0.6602 0.6598 0.6593
2499.000000 0.6589 0.6585 0.6580 0.6576 0.6571
2504.000000 0.6567 0.6563 0.6558 0.6554 0.6549
2509.000000 0.6545 0.6541 0.6536 0.6532 0.6528
2514.000000 0.6523 0.6519 0.6515 0.6510 0.6506
2519.000000 0.6502 0.6498 0.6494 0.6490 0.6485
2524.000000 0.6481 0.6477 0.6472 0.6468 0.6464
2529.000000 0.6458 0.6453 0.6448 0.6443 0.6438
2534.000000 0.6433 0.6429 0.6424 0.6419 0.6414
2539.000000 0.6409 0.6404 0.6399 0.6394 0.6389
2544.000000 0.6384 0.6379 0.6375 0.6370 0.6365
2549.000000 0.6360 0.6355 0.6350 0.6345 0.6340
2554.000000 0.6335 0.6330 0.6326 0.6322 0.6318
2559.000000 0.6314 0.6311 0.6307 0.6304 0.6300
2564.000000 0.6296 0.6292 0.6288 0.6284 0.6281
2569.000000 0.6277 0.6272 0.6267 0.6262 0.6254
2574.000000 0.6247 0.6237 0.6224 0.6211 0.6204
2579.000000 0.6201 0.6197 0.6195 0.6192 0.6190
2584.000000 0.6187 0.6185 0.6183 0.6182 0.6180
2589.000000 0.6179 0.6178 0.6176 0.6174 0.6172
2594.000000 0.6171 0.6169 0.6168 0.6166 0.6164
2599.000000 0.6162 0.6160 0.6158 0.6156 0.6154
2604.000000 0.6152 0.6150 0.6148 0.6146 0.6144
2609.000000 0.6143 0.6141 0.6139 0.6137 0.6136
2614.000000 0.6135 0.6134 0.6132 0.6131 0.6130
2619.000000 0.6129 0.6127 0.6126 0.6125 0.6124
2624.000000 0.6123 0.6122 0.6121 0.6119 0.6118
2629.000000 0.6116 0.6114 0.6112 0.6109 0.6107
2634.000000 0.6104 0.6102 0.6100 0.6098 0.6096
2639.000000 0.6093 0.6091 0.6089 0.6087 0.6084
2644.000000 0.6080 0.6076 0.6073 0.6069 0.6065
2649.000000 0.6061 0.6057 0.6053 0.6049 0.6045
2654.000000 0.6041 0.6037 0.6033 0.6030 0.6026
2659.000000 0.6022 0.6018 0.6013 0.6009 0.6005
2664.000000 0.6001 0.5997 0.5993 0.5989 0.5985
2669.000000 0.5981 0.5977 0.5973 0.5969 0.5965
2674.000000 0.5961 0.5956 0.5951 0.5947 0.5941
2679.000000 0.5936 0.5931 0.5926 0.5921 0.5916
2684.000000 0.5911 0.5906 0.5901 0.5896 0.5890
2689.000000 0.5885 0.5880 0.5875 0.5869 0.5862
2694.000000 0.5856 0.5850 0.5844 0.5838 0.5832
2699.000000 0.5825 0.5819 0.5813 0.5807 0.5801
2704.000000 0.5795 0.5788 0.5782 0.5776 0.5769
2709.000000 0.5762 0.5756 0.5749 0.5742 0.5735
2714.000000 0.5728 0.5721 0.5714 0.5707 0.5700
2719.000000 0.5693 0.5686 0.5679 0.5672 0.5665
2724.000000 0.5653 0.5639 0.5624 0.5610 0.5596
2729.000000 0.5581 0.5559 0.5534 0.5509 0.5479
2734.000000 0.5448 0.5418 0.5380 0.5340 0.5300
2739.000000 0.5266 0.5234 0.5203 0.5171 0.5140
2744.000000 0.5108 0.5078 0.5050 0.5021 0.4992
2749.000000 0.4963 0.4934 0.4901 0.4866 0.4830
2754.000000 0.4792 0.4752 0.4713 0.4669 0.4623
2759.000000 0.4577 0.4532 0.4486 0.4441 0.4400
2764.000000 0.4363 0.4326 0.4290 0.4253 0.4216
2769.000000 0.4174 0.4125 0.4077 0.4027 0.3975
2774.000000 0.3923 0.3877 0.3844 0.3811 0.3773
2779.000000 0.3715 0.3658 0.3597 0.3510 0.3424
2784.000000 0.3337 0.3251 0.3165 0.3078 0.2992
2789.000000 0.2906 0.2820 0.2734 0.2648 0.2562
2794.000000 0.2476 0.2390 0.2305 0.2219 0.2133
2799.000000 0.2048 0.1962 0.1877 0.1791 0.1706
2804.000000 0.1621 0.1536 0.1451 0.1366 0.1281
2809.000000 0.1196 0.1111 0.1026 0.0941 0.0856
2814.000000 0.0772 0.0687 0.0605 0.0524 0.0442
2819.000000 0.0397 0.0387 0.0376 0.0369 0.0368
2824.000000 0.0367 0.0366 0.0365 0.0364 0.0364
2829.000000 0.0363 0.0362 0.0361 0.0360 0.0360
2834.000000 0.0360 0.0360 0.0360 0.0360 0.0360
2839.000000 0.0360 0.0360 0.0360 0.0360 0.0360
2844.000000 0.0360 0.0361 0.0361 0.0361 0.0362
2849.000000 0.0362 0.0362 0.0363 0.0363 0.0363
2854.000000 0.0364 0.0365 0.0365 0.0366 0.0367
2859.000000 0.0368 0.0368 0.0369 0.0370 0.0371
2864.000000 0.0372 0.0372 0.0373 0.0374 0.0374
2869.000000 0.0375 0.0375 0.0376 0.0377 0.0378
2874.000000 0.0379 0.0380 0.0381 0.0382 0.0383
2879.000000 0.0384 0.0385 0.0388 0.0390 0.0393
2884.000000 0.0397 0.0402 0.0406 0.0411 0.0417
2889.000000 0.0423 0.0429 0.0435 0.0442 0.0448
2894.000000 0.0457 0.0467 0.0478 0.0489 0.0499
2899.000000 0.0508 0.0518 0.0528 0.0537 0.0546
2904.000000 0.0555 0.0564 0.0574 0.0583 0.0593
2909.000000 0.0604 0.0615 0.0628 0.0643 0.0658
2914.000000 0.0677 0.0709 0.0740 0.0772 0.0805
2919.000000 0.0838 0.0871 0.0910 0.0957 0.1004
2924.000000 0.1052 0.1120 0.1187 0.1254 0.1322
2929.000000 0.1389 0.1456 0.1524 0.1591 0.1658
2934.000000 0.1725 0.1792 0.1859 0.1926 0.1993
2939.000000 0.2060 0.2127 0.2194 0.2260 0.2327
2944.000000 0.2394 0.2460 0.2527 0.2593 0.2660
2949.000000 0.2726 0.2793 0.2859 0.2925 0.2992
2954.000000 0.3058 0.3124 0.3169 0.3211 0.3254
2959.000000 0.3316 0.3404 0.3492 0.3580 0.3606
2964.000000 0.3627 0.3647 0.3668 0.3689 0.3709
2969.000000 0.3730 0.3791 0.3857 0.3923 0.3987
2974.000000 0.4050 0.4113 0.4176 0.4217 0.4254
2979.000000 0.4290 0.4324 0.4349 0.4375 0.4400
2984.000000 0.4424 0.4446 0.4469 0.4492 0.4513
2989.000000 0.4534 0.4555 0.4576 0.4595 0.4615
2994.000000 0.4634 0.4654 0.4673 0.4693 0.4711
2999.000000 0.4727 0.4743 0.4759 0.4775 0.4791
3004.000000 0.4807 0.4822 0.4835 0.4848 0.4861
3009.000000 0.4873 0.4885 0.4896 0.4908 0.4915
3014.000000 0.4921 0.4927 0.4934 0.4940 0.4947
3019.000000 0.4953 0.4959 0.4965 0.4971 0.4977
3024.000000 0.4982 0.4986 0.4991 0.4996 0.5001
3029.000000 0.5006 0.5011 0.5015 0.5019 0.5023
3034.000000 0.5027 0.5029 0.5031 0.5034 0.5036
3039.000000 0.5039 0.5041 0.5044 0.5046 0.5048
3044.000000 0.5050 0.5052 0.5054 0.5055 0.5056
3049.000000 0.5058 0.5059 0.5060 0.5061 0.5062
3054.000000 0.5064 0.5065 0.5066 0.5066 0.5066
3059.000000 0.5066 0.5065 0.5065 0.5065 0.5065
3064.000000 0.5064 0.5064 0.5063 0.5063 0.5062
3069.000000 0.5062 0.5061 0.5061 0.5060 0.5059
3074.000000 0.5058 0.5058 0.5056 0.5055 0.5054
3079.000000 0.5053 0.5052 0.5051 0.5049 0.5048
3084.000000 0.5047 0.5045 0.5044 0.5043 0.5041
3089.000000 0.5040 0.5039 0.5037 0.5035 0.5033
3094.000000 0.5031 0.5029 0.5026 0.5024 0.5022
3099.000000 0.5020 0.5018 0.5016 0.5014 0.5012
3104.000000 0.5010 0.5008 0.5005 0.5003 0.5000
3109.000000 0.4998 0.4995 0.4993 0.4991 0.4988
3114.000000 0.4986 0.4983 0.4981 0.4978 0.4975
3119.000000 0.4973 0.4970 0.4968 0.4965 0.4963
3124.000000 0.4960 0.4958 0.4955 0.4952 0.4949
3129.000000 0.4946 0.4942 0.4939 0.4935 0.4931
3134.000000 0.4927 0.4923 0.4919 0.4916 0.4912
3139.000000 0.4908 0.4904 0.4900 0.4896 0.4892
3144.000000 0.4887 0.4883 0.4878 0.4873 0.4868
3149.000000 0.4863 0.4858 0.4852 0.4847 0.4842
3154.000000 0.4837 0.4832 0.4827 0.4822 0.4817
3159.000000 0.4812 0.4807 0.4802 0.4797 0.4792
3164.000000 0.4787 0.4783 0.4779 0.4775 0.4771
3169.000000 0.4767 0.4763 0.4759 0.4756 0.4752
3174.000000 0.4749 0.4745 0.4742 0.4738 0.4734
3179.000000 0.4731 0.4727 0.4724 0.4723 0.4721
3184.000000 0.4720 0.4718 0.4717 0.4715 0.4714
3189.000000 0.4712 0.4711 0.4709 0.4708 0.4706
3194.000000 0.4705 0.4704 0.4703 0.4702 0.4702
3199.000000 0.4702 0.4702 0.4702 0.4701 0.4701
3204.000000 0.4700 0.4700 0.4699 0.4699 0.4699
3209.000000 0.4699 0.4698 0.4698 0.4698 0.4698
3214.000000 0.4697 0.4697 0.4697 0.4697 0.4696
3219.000000 0.4696 0.4695 0.4695 0.4694 0.4694
3224.000000 0.4693 0.4692 0.4691 0.4691 0.4690
3229.000000 0.4690 0.4689 0.4689 0.4688 0.4687
3234.000000 0.4687 0.4686 0.4685 0.4684 0.4684
3239.000000 0.4683 0.4682 0.4682 0.4681 0.4680
3244.000000 0.4679 0.4679 0.4678 0.4677 0.4675
3249.000000 0.4674 0.4672 0.4670 0.4669 0.4668
3254.000000 0.4666 0.4665 0.4653 0.4639 0.4624
3259.000000 0.4610 0.4583 0.4545 0.4507 0.4468
3264.000000 0.4434 0.4409 0.4383 0.4358 0.4333
3269.000000 0.4311 0.4290 0.4268 0.4247 0.4228
3274.000000 0.4211 0.4193 0.4176 0.4162 0.4151
3279.000000 0.4140 0.4129 0.4119 0.4108 0.4097
3284.000000 0.4086 0.4075 0.4065 0.4055 0.4045
3289.000000 0.4035 0.4027 0.4020 0.4012 0.4005
3294.000000 0.3998 0.3991 0.3984 0.3977 0.3970
3299.000000 0.3963 0.3956 0.3949 0.3942 0.3936
3304.000000 0.3931 0.3927 0.3922 0.3915 0.3892
3309.000000 0.3869 0.3846 0.3822 0.3793 0.3762
3314.000000 0.3730 0.3699 0.3668 0.3636 0.3605
3319.000000 0.3574 0.3543 0.3512 0.3481 0.3449
3324.000000 0.3418 0.3387 0.3356 0.3325 0.3294
3329.000000 0.3263 0.3232 0.3202 0.3171 0.3140
3334.000000 0.3109 0.3078 0.3047 0.3016 0.2985
3339.000000 0.2954 0.2923 0.2893 0.2862 0.2831
3344.000000 0.2800 0.2770 0.2739 0.2708 0.2677
3349.000000 0.2647 0.2616 0.2586 0.2555 0.2525
3354.000000 0.2494 0.2464 0.2434 0.2405 0.2377
3359.000000 0.2348 0.2320 0.2305 0.2294 0.2283
3364.000000 0.2272 0.2261 0.2250 0.2238 0.2226
3369.000000 0.2215 0.2211 0.2210 0.2209 0.2207
3374.000000 0.2206 0.2205 0.2204 0.2203 0.2202
3379.000000 0.2202 0.2203 0.2204 0.2205 0.2206
3384.000000 0.2207 0.2208 0.2209 0.2211 0.2212
3389.000000 0.2212 0.2212 0.2212 0.2212 0.2212
3394.000000 0.2212 0.2212 0.2212 0.2212 0.2211
3399.000000 0.2211 0.2210 0.2209 0.2206 0.2203
3404.000000 0.2200 0.2197 0.2193 0.2187 0.2180
3409.000000 0.2173 0.2167 0.2159 0.2150 0.2140
3414.000000 0.2131 0.2121 0.2111 0.2101 0.2091
3419.000000 0.2080 0.2070 0.2061 0.2051 0.2041
3424.000000 0.2032 0.2023 0.2015 0.2008 0.2001
3429.000000 0.1993 0.1987 0.1980 0.1974 0.1968
3434.000000 0.1962 0.1956 0.1950 0.1944 0.1938
3439.000000 0.1933 0.1932 0.1931 0.1930 0.1929
3444.000000 0.1929 0.1929 0.1929 0.1929 0.1929
3449.000000 0.1929 0.1967 0.1990 0.2012 0.2035
3454.000000 0.2090 0.2147 0.2204 0.2261 0.2318
3459.000000 0.2375 0.2432 0.2488 0.2545 0.2602
3464.000000 0.2659 0.2716 0.2773 0.2829 0.2886
3469.000000 0.2943 0.2999 0.3055 0.3112 0.3168
3474.000000 0.3225 0.3281 0.3337 0.3394 0.3450
3479.000000 0.3506 0.3562 0.3618 0.3674 0.3731
3484.000000 0.3787 0.3843 0.3899 0.3955 0.4011
3489.000000 0.4067 0.4123 0.4179 0.4235 0.4290
3494.000000 0.4346 0.4402 0.4457 0.4512 0.4567
3499.000000 0.4621 0.4675 0.4730 0.4763 0.4782
3504.000000 0.4801 0.4820 0.4840 0.4857 0.4874
3509.000000 0.4891 0.4908 0.4925 0.4943 0.4960
3514.000000 0.4977 0.4994 0.5011 0.5034 0.5058
3519.000000 0.5082 0.5106 0.5130 0.5145 0.5158
3524.000000 0.5172 0.5185 0.5198 0.5210 0.5221
3529.000000 0.5233 0.5244 0.5256 0.5265 0.5274
3534.000000 0.5283 0.5293 0.5302 0.5308 0.5315
3539.000000 0.5321 0.5328 0.5334 0.5342 0.5350
3544.000000 0.5358 0.5367 0.5375 0.5386 0.5398
3549.000000 0.5409 0.5421 0.5433 0.5459 0.5488
3554.000000 0.5516 0.5545 0.5573 0.5585 0.5594
3559.000000 0.5602 0.5611 0.5619 0.5624 0.5627
3564.000000 0.5630 0.5633 0.5636 0.5637 0.5637
3569.000000 0.5638 0.5638 0.5638 0.5639 0.5639
3574.000000 0.5639 0.5639 0.5639 0.5639 0.5639
3579.000000 0.5639 0.5639 0.5639 0.5640 0.5640
3584.000000 0.5640 0.5640 0.5640 0.5669 0.5640
3589.000000 0.5640 0.5640 0.5640 0.5640 0.5640
3594.000000 0.5640 0.5640 0.5640 0.5640 0.5639
3599.000000 0.5639 0.5639 0.5639 0.5639 0.5638
3604.000000 0.5638 0.5638 0.5638 0.5638 0.5637
3609.000000 0.5637 0.5637 0.5637 0.5637 0.5637
3614.000000 0.5637 0.5637 0.5637 0.5637 0.5636
3619.000000 0.5636 0.5635 0.5634 0.5633 0.5633
3624.000000 0.5632 0.5631 0.5631 0.5630 0.5630
3629.000000 0.5629 0.5628 0.5628 0.5627 0.5626
3634.000000 0.5625 0.5625 0.5624 0.5624 0.5623
3639.000000 0.5623 0.5621 0.5620 0.5619 0.5618
3644.000000 0.5617 0.5616 0.5615 0.5614 0.5613
3649.000000 0.5612 0.5611 0.5610 0.5609 0.5608
3654.000000 0.5607 0.5605 0.5604 0.5603 0.5602
3659.000000 0.5601 0.5600 0.5599 0.5598 0.5597
3664.000000 0.5596 0.5595 0.5594 0.5593 0.5592
3669.000000 0.5591 0.5590 0.5589 0.5587 0.5586
3674.000000 0.5585 0.5584 0.5583 0.5582 0.5581
3679.000000 0.5580 0.5579 0.5578 0.5577 0.5576
3684.000000 0.5576 0.5575 0.5574 0.5573 0.5572
3689.000000 0.5571 0.5570 0.5569 0.5568 0.5567
3694.000000 0.5566 0.5565 0.5564 0.5563 0.5562
3699.000000 0.5561 0.5560 0.5559 0.5558 0.5557
3704.000000 0.5556 0.5555 0.5554 0.5554 0.5553
3709.000000 0.5552 0.5551 0.5550 0.5548 0.5547
3714.000000 0.5546 0.5545 0.5544 0.5543 0.5543
3719.000000 0.5542 0.5541 0.5540 0.5539 0.5538
3724.000000 0.5536 0.5535 0.5534 0.5533 0.5532
3729.000000 0.5531 0.5530 0.5529 0.5528 0.5527
3734.000000 0.5526 0.5525 0.5523 0.5522 0.5521
3739.000000 0.5520 0.5519 0.5518 0.5517 0.5516
3744.000000 0.5515 0.5514 0.5513 0.5512 0.5511
3749.000000 0.5510 0.5509 0.5507 0.5506 0.5505
3754.000000 0.5504 0.5503 0.5502 0.5501 0.5500
3759.000000 0.5499 0.5498 0.5497 0.5496 0.5495
3764.000000 0.5494 0.5493 0.5492 0.5491 0.5490
3769.000000 0.5489 0.5488 0.5487 0.5486 0.5486
3774.000000 0.5485 0.5484 0.5483 0.5482 0.5481
3779.000000 0.5480 0.5479 0.5478 0.5477 0.5476
3784.000000 0.5475 0.5474 0.5473 0.5472 0.5471
3789.000000 0.5470 0.5469 0.5468 0.5467 0.5466
3794.000000 0.5465 0.5464 0.5463 0.5463 0.5462
3799.000000 0.5461 0.5460 0.5459 0.5458 0.5457
3804.000000 0.5457 0.5456 0.5455 0.5454 0.5453
3809.000000 0.5452 0.5451 0.5449 0.5449 0.5448
3814.000000 0.5447 0.5446 0.5445 0.5444 0.5443
3819.000000 0.5443 0.5442 0.5441 0.5440 0.5439
3824.000000 0.5438 0.5437 0.5436 0.5435 0.5434
3829.000000 0.5433 0.5432 0.5431 0.5431 0.5430
3834.000000 0.5429 0.5428 0.5427 0.5426 0.5425
3839.000000 0.5425 0.5424 0.5423 0.5422 0.5421
3844.000000 0.5420 0.5419 0.5418 0.5417 0.5416
3849.000000 0.5415 0.5414 0.5413 0.5412 0.5411
3854.000000 0.5410 0.5409 0.5408 0.5407 0.5406
3859.000000 0.5405 0.5404 0.5403 0.5401 0.5400
3864.000000 0.5399 0.5398 0.5397 0.5396 0.5395
3869.000000 0.5394 0.5393 0.5392 0.5391 0.5390
3874.000000 0.5389 0.5388 0.5386 0.5385 0.5384
3879.000000 0.5383 0.5382 0.5381 0.5380 0.5379
3884.000000 0.5378 0.5378 0.5377 0.5376 0.5375
3889.000000 0.5374 0.5373 0.5372 0.5371 0.5370
3894.000000 0.5369 0.5368 0.5367 0.5366 0.5365
3899.000000 0.5364 0.5363 0.5362 0.5361 0.5360
3904.000000 0.5359 0.5358 0.5357 0.5356 0.5355
3909.000000 0.5354 0.5353 0.5352 0.5351 0.5350
3914.000000 0.5349 0.5348 0.5347 0.5346 0.5345
3919.000000 0.5344 0.5343 0.5342 0.5342 0.5341
3924.000000 0.5340 0.5339 0.5338 0.5337 0.5336
3929.000000 0.5335 0.5334 0.5333 0.5332 0.5331
3934.000000 0.5330 0.5329 0.5328 0.5328 0.5327
3939.000000 0.5326 0.5325 0.5324 0.5323 0.5322
3944.000000 0.5321 0.5320 0.5319 0.5318 0.5317
3949.000000 0.5316 0.5315 0.5314 0.5313 0.5312
3954.000000 0.5311 0.5310 0.5309 0.5308 0.5307
3959.000000 0.5306 0.5305 0.5304 0.5303 0.5302
3964.000000 0.5301 0.5300 0.5299 0.5298 0.5297
3969.000000 0.5296 0.5294 0.5293 0.5292 0.5290
3974.000000 0.5289 0.5288 0.5287 0.5285 0.5284
3979.000000 0.5283 0.5282 0.5280 0.5279 0.5278
3984.000000 0.5276 0.5275 0.5273 0.5272 0.5271
3989.000000 0.5269 0.5268 0.5267 0.5266 0.5264
3994.000000 0.5263 0.5262 0.5261 0.5259 0.5258
3999.000000 0.5257 0.5256
##END=
