##TITLE=Acetic acid, cobaltous salt hydrate
##JCAMP-DX=4.24
$$ By DXEDIT 1.05 (RS McDonald)
##DATA TYPE=INFRARED SPECTRUM
##CLASS=COBLENTZ III
##ORIGIN=DOW CHEMICAL COMPANY
##OWNER=COPYRIGHT (C) 1988 by COBLENTZ SOCIETY INC.
Collection (C) 2018 copyright by the U.S. Secretary of Commerce
on behalf of the United States of America. All rights reserved.
##DATE=1959/04/02
##MOLFORM=C4 H6 Co O4  * H2 O
##SOURCE REFERENCE=COBLENTZ NO. 07110
##$NIST ID=B6007110
##$NIST SOURCE=COBLENTZ
##$NIST IMAGE=cob7110
##SPECTROMETER/DATA SYSTEM=DOW KBr FOREPRISM-GRATING
##INSTRUMENT PARAMETERS=BLAZED AT 3.5, 12.0, 20.0 MICRON AND CHANGED AT 5.0, 7.5, 14.9 MICRON
##STATE=SOLID (SPLIT MULL), FLUOROLUBE FOR 3800-1330 CM^-^1, NUJOL FOR 1330-450 CM^-^1
$$ SEE SPECTRUM NO. 2036 FOR PRISM SPECTRUM
##SAMPLING PROCEDURE=TRANSMISSION
##RESOLUTION=2
##DATA PROCESSING=DIGITIZED BY COBLENTZ SOCIETY (BATCH I) FROM HARD COPY
##XUNITS=1/CM
##YUNITS=TRANSMITTANCE
##XFACTOR=1
##YFACTOR=1
##DELTAX=1
##FIRSTX=3800
##LASTX=451
##FIRSTY=0.8909
##MAXX=3800
##MINX=451
##MAXY=0.9054
##MINY=0.0327
##NPOINTS=3350
##XYDATA=(X++(Y..Y))
3800.000000 0.8909 0.8909 0.8909 0.8909 0.8910
3795.000000 0.8910 0.8910 0.8910 0.8911 0.8911
3790.000000 0.8911 0.8911 0.8912 0.8912 0.8912
3785.000000 0.8912 0.8912 0.8911 0.8911 0.8911
3780.000000 0.8911 0.8912 0.8913 0.8914 0.8915
3775.000000 0.8916 0.8918 0.8918 0.8920 0.8921
3770.000000 0.8921 0.8921 0.8923 0.8923 0.8924
3765.000000 0.8924 0.8925 0.8925 0.8928 0.8932
3760.000000 0.8936 0.8942 0.8948 0.8958 0.8968
3755.000000 0.8978 0.8990 0.9000 0.9011 0.9018
3750.000000 0.9027 0.9035 0.9043 0.9048 0.9054
3745.000000 0.9043 0.9033 0.9021 0.9009 0.8996
3740.000000 0.8983 0.8970 0.8958 0.8964 0.8978
3735.000000 0.8975 0.8983 0.8988 0.8993 0.8997
3730.000000 0.9002 0.9004 0.9004 0.9004 0.9003
3725.000000 0.9001 0.8999 0.8996 0.8993 0.8987
3720.000000 0.8982 0.8975 0.8971 0.8968 0.8965
3715.000000 0.8962 0.8960 0.8957 0.8955 0.8952
3710.000000 0.8950 0.8946 0.8943 0.8939 0.8936
3705.000000 0.8932 0.8928 0.8928 0.8927 0.8925
3700.000000 0.8925 0.8924 0.8923 0.8921 0.8921
3695.000000 0.8920 0.8918 0.8918 0.8918 0.8918
3690.000000 0.8918 0.8918 0.8920 0.8920 0.8920
3685.000000 0.8921 0.8921 0.8924 0.8927 0.8928
3680.000000 0.8932 0.8934 0.8937 0.8939 0.8942
3675.000000 0.8943 0.8944 0.8945 0.8946 0.8928
3670.000000 0.8910 0.8882 0.8855 0.8828 0.8803
3665.000000 0.8794 0.8785 0.8782 0.8780 0.8777
3660.000000 0.8775 0.8773 0.8771 0.8768 0.8766
3655.000000 0.8760 0.8754 0.8748 0.8743 0.8737
3650.000000 0.8731 0.8725 0.8718 0.8713 0.8708
3645.000000 0.8702 0.8696 0.8690 0.8684 0.8678
3640.000000 0.8671 0.8666 0.8660 0.8652 0.8645
3635.000000 0.8635 0.8625 0.8617 0.8608 0.8599
3630.000000 0.8590 0.8580 0.8571 0.8562 0.8553
3625.000000 0.8544 0.8535 0.8525 0.8517 0.8507
3620.000000 0.8498 0.8487 0.8475 0.8464 0.8453
3615.000000 0.8441 0.8428 0.8417 0.8406 0.8394
3610.000000 0.8382 0.8370 0.8358 0.8346 0.8335
3605.000000 0.8321 0.8308 0.8293 0.8278 0.8264
3600.000000 0.8250 0.8235 0.8221 0.8206 0.8192
3595.000000 0.8176 0.8162 0.8148 0.8134 0.8119
3590.000000 0.8106 0.8092 0.8078 0.8062 0.8049
3585.000000 0.8035 0.8021 0.8006 0.7992 0.7978
3580.000000 0.7964 0.7950 0.7936 0.7921 0.7907
3575.000000 0.7893 0.7878 0.7865 0.7851 0.7838
3570.000000 0.7825 0.7812 0.7800 0.7787 0.7774
3565.000000 0.7761 0.7748 0.7735 0.7721 0.7708
3560.000000 0.7695 0.7681 0.7667 0.7653 0.7640
3555.000000 0.7625 0.7611 0.7598 0.7584 0.7569
3550.000000 0.7556 0.7542 0.7528 0.7517 0.7507
3545.000000 0.7497 0.7487 0.7476 0.7467 0.7456
3540.000000 0.7446 0.7431 0.7415 0.7399 0.7382
3535.000000 0.7364 0.7347 0.7330 0.7312 0.7293
3530.000000 0.7274 0.7255 0.7236 0.7217 0.7198
3525.000000 0.7178 0.7160 0.7143 0.7126 0.7112
3520.000000 0.7099 0.7085 0.7071 0.7057 0.7043
3515.000000 0.7028 0.7015 0.7001 0.6987 0.6972
3510.000000 0.6958 0.6945 0.6931 0.6915 0.6901
3505.000000 0.6887 0.6872 0.6858 0.6844 0.6830
3500.000000 0.6815 0.6801 0.6787 0.6771 0.6758
3495.000000 0.6743 0.6728 0.6715 0.6701 0.6687
3490.000000 0.6672 0.6658 0.6644 0.6630 0.6615
3485.000000 0.6601 0.6587 0.6572 0.6558 0.6545
3480.000000 0.6531 0.6515 0.6501 0.6483 0.6465
3475.000000 0.6448 0.6431 0.6412 0.6396 0.6378
3470.000000 0.6360 0.6343 0.6326 0.6308 0.6291
3465.000000 0.6268 0.6245 0.6221 0.6198 0.6174
3460.000000 0.6151 0.6127 0.6104 0.6080 0.6057
3455.000000 0.6031 0.6005 0.5977 0.5949 0.5921
3450.000000 0.5893 0.5865 0.5837 0.5809 0.5781
3445.000000 0.5739 0.5698 0.5651 0.5605 0.5558
3440.000000 0.5512 0.5475 0.5439 0.5402 0.5366
3435.000000 0.5330 0.5294 0.5258 0.5222 0.5191
3430.000000 0.5160 0.5131 0.5102 0.5072 0.5043
3425.000000 0.5012 0.4983 0.4954 0.4925 0.4896
3420.000000 0.4868 0.4839 0.4810 0.4781 0.4753
3415.000000 0.4724 0.4695 0.4666 0.4638 0.4609
3410.000000 0.4580 0.4551 0.4523 0.4494 0.4465
3405.000000 0.4432 0.4399 0.4359 0.4319 0.4279
3400.000000 0.4239 0.4199 0.4159 0.4119 0.4079
3395.000000 0.4039 0.3999 0.3959 0.3920 0.3880
3390.000000 0.3842 0.3805 0.3768 0.3730 0.3695
3385.000000 0.3658 0.3621 0.3584 0.3547 0.3478
3380.000000 0.3409 0.3346 0.3284 0.3239 0.3195
3375.000000 0.3150 0.3106 0.3063 0.3020 0.2977
3370.000000 0.2934 0.2892 0.2850 0.2808 0.2767
3365.000000 0.2725 0.2683 0.2638 0.2594 0.2530
3360.000000 0.2467 0.2369 0.2272 0.2155 0.2039
3355.000000 0.1968 0.1898 0.1871 0.1844 0.1824
3350.000000 0.1803 0.1786 0.1771 0.1760 0.1749
3345.000000 0.1743 0.1737 0.1734 0.1732 0.1729
3340.000000 0.1704 0.1727 0.1726 0.1741 0.1756
3335.000000 0.1774 0.1792 0.1811 0.1829 0.1849
3330.000000 0.1868 0.1886 0.1906 0.1949 0.1993
3325.000000 0.2061 0.2130 0.2185 0.2243 0.2284
3320.000000 0.2328 0.2362 0.2396 0.2430 0.2465
3315.000000 0.2499 0.2534 0.2570 0.2606 0.2646
3310.000000 0.2687 0.2728 0.2769 0.2810 0.2851
3305.000000 0.2891 0.2931 0.2969 0.3007 0.3045
3300.000000 0.3084 0.3122 0.3161 0.3199 0.3237
3295.000000 0.3290 0.3344 0.3403 0.3462 0.3522
3290.000000 0.3582 0.3622 0.3662 0.3700 0.3738
3285.000000 0.3776 0.3814 0.3850 0.3889 0.3926
3280.000000 0.3962 0.4000 0.4037 0.4073 0.4110
3275.000000 0.4145 0.4181 0.4212 0.4243 0.4274
3270.000000 0.4305 0.4336 0.4367 0.4396 0.4426
3265.000000 0.4453 0.4480 0.4507 0.4534 0.4560
3260.000000 0.4588 0.4612 0.4639 0.4662 0.4685
3255.000000 0.4707 0.4730 0.4752 0.4775 0.4798
3250.000000 0.4821 0.4840 0.4859 0.4876 0.4894
3245.000000 0.4910 0.4929 0.4946 0.4964 0.4981
3240.000000 0.4998 0.5010 0.5025 0.5038 0.5051
3235.000000 0.5064 0.5078 0.5091 0.5105 0.5118
3230.000000 0.5131 0.5144 0.5158 0.5169 0.5181
3225.000000 0.5192 0.5203 0.5214 0.5226 0.5237
3220.000000 0.5248 0.5259 0.5270 0.5281 0.5292
3215.000000 0.5303 0.5314 0.5324 0.5335 0.5346
3210.000000 0.5357 0.5368 0.5379 0.5388 0.5398
3205.000000 0.5406 0.5415 0.5424 0.5433 0.5441
3200.000000 0.5450 0.5459 0.5468 0.5477 0.5486
3195.000000 0.5494 0.5503 0.5512 0.5521 0.5529
3190.000000 0.5538 0.5546 0.5555 0.5562 0.5570
3185.000000 0.5577 0.5585 0.5592 0.5600 0.5606
3180.000000 0.5612 0.5618 0.5624 0.5630 0.5636
3175.000000 0.5642 0.5648 0.5652 0.5657 0.5660
3170.000000 0.5666 0.5670 0.5675 0.5678 0.5681
3165.000000 0.5683 0.5685 0.5687 0.5689 0.5691
3160.000000 0.5693 0.5695 0.5697 0.5698 0.5699
3155.000000 0.5700 0.5702 0.5703 0.5704 0.5705
3150.000000 0.5706 0.5706 0.5707 0.5707 0.5708
3145.000000 0.5708 0.5708 0.5708 0.5709 0.5709
3140.000000 0.5710 0.5710 0.5710 0.5710 0.5712
3135.000000 0.5712 0.5712 0.5710 0.5710 0.5710
3130.000000 0.5710 0.5709 0.5709 0.5708 0.5707
3125.000000 0.5705 0.5703 0.5701 0.5700 0.5698
3120.000000 0.5697 0.5695 0.5693 0.5691 0.5690
3115.000000 0.5688 0.5686 0.5684 0.5683 0.5681
3110.000000 0.5679 0.5677 0.5675 0.5673 0.5671
3105.000000 0.5669 0.5667 0.5662 0.5660 0.5657
3100.000000 0.5654 0.5650 0.5647 0.5643 0.5640
3095.000000 0.5636 0.5633 0.5630 0.5627 0.5623
3090.000000 0.5619 0.5615 0.5612 0.5608 0.5605
3085.000000 0.5601 0.5598 0.5593 0.5589 0.5584
3080.000000 0.5580 0.5575 0.5570 0.5565 0.5560
3075.000000 0.5555 0.5551 0.5546 0.5541 0.5536
3070.000000 0.5532 0.5527 0.5522 0.5516 0.5510
3065.000000 0.5506 0.5501 0.5495 0.5489 0.5482
3060.000000 0.5476 0.5469 0.5462 0.5455 0.5449
3055.000000 0.5442 0.5436 0.5429 0.5422 0.5412
3050.000000 0.5404 0.5394 0.5385 0.5376 0.5367
3045.000000 0.5360 0.5353 0.5348 0.5343 0.5337
3040.000000 0.5332 0.5327 0.5322 0.5316 0.5310
3035.000000 0.5306 0.5301 0.5295 0.5290 0.5285
3030.000000 0.5280 0.5274 0.5269 0.5264 0.5259
3025.000000 0.5254 0.5249 0.5243 0.5238 0.5233
3020.000000 0.5228 0.5222 0.5217 0.5210 0.5205
3015.000000 0.5199 0.5194 0.5188 0.5182 0.5176
3010.000000 0.5171 0.5165 0.5159 0.5154 0.5150
3005.000000 0.5145 0.5141 0.5136 0.5132 0.5127
3000.000000 0.5122 0.5117 0.5112 0.5108 0.5104
2995.000000 0.5099 0.5094 0.5089 0.5085 0.5080
2990.000000 0.5076 0.5071 0.5066 0.5060 0.5056
2985.000000 0.5051 0.5046 0.5040 0.5035 0.5030
2980.000000 0.5025 0.5020 0.5016 0.5010 0.5006
2975.000000 0.5001 0.4997 0.4992 0.4987 0.4982
2970.000000 0.4978 0.4973 0.4968 0.4965 0.4962
2965.000000 0.4959 0.4956 0.4953 0.4950 0.4947
2960.000000 0.4944 0.4940 0.4936 0.4930 0.4924
2955.000000 0.4918 0.4912 0.4905 0.4899 0.4892
2950.000000 0.4885 0.4876 0.4867 0.4858 0.4849
2945.000000 0.4840 0.4831 0.4817 0.4803 0.4785
2940.000000 0.4767 0.4751 0.4736 0.4722 0.4709
2935.000000 0.4695 0.4682 0.4674 0.4667 0.4667
2930.000000 0.4668 0.4670 0.4672 0.4673 0.4675
2925.000000 0.4677 0.4679 0.4681 0.4683 0.4684
2920.000000 0.4685 0.4685 0.4685 0.4684 0.4683
2915.000000 0.4682 0.4682 0.4681 0.4681 0.4680
2910.000000 0.4679 0.4678 0.4678 0.4678 0.4678
2905.000000 0.4678 0.4678 0.4678 0.4678 0.4678
2900.000000 0.4678 0.4678 0.4678 0.4677 0.4677
2895.000000 0.4677 0.4677 0.4676 0.4676 0.4674
2890.000000 0.4672 0.4670 0.4669 0.4667 0.4665
2885.000000 0.4662 0.4660 0.4655 0.4651 0.4645
2880.000000 0.4640 0.4635 0.4631 0.4625 0.4620
2875.000000 0.4615 0.4610 0.4606 0.4601 0.4594
2870.000000 0.4587 0.4580 0.4573 0.4566 0.4560
2865.000000 0.4555 0.4550 0.4545 0.4541 0.4536
2860.000000 0.4532 0.4528 0.4524 0.4521 0.4519
2855.000000 0.4516 0.4512 0.4510 0.4508 0.4507
2850.000000 0.4507 0.4507 0.4508 0.4508 0.4509
2845.000000 0.4510 0.4510 0.4510 0.4512 0.4512
2840.000000 0.4512 0.4512 0.4514 0.4515 0.4517
2835.000000 0.4518 0.4520 0.4521 0.4531 0.4524
2830.000000 0.4526 0.4527 0.4529 0.4530 0.4532
2825.000000 0.4533 0.4535 0.4536 0.4538 0.4539
2820.000000 0.4541 0.4542 0.4544 0.4545 0.4547
2815.000000 0.4548 0.4550 0.4551 0.4553 0.4554
2810.000000 0.4556 0.4557 0.4559 0.4560 0.4560
2805.000000 0.4562 0.4564 0.4565 0.4567 0.4568
2800.000000 0.4570 0.4573 0.4576 0.4578 0.4581
2795.000000 0.4583 0.4586 0.4589 0.4592 0.4594
2790.000000 0.4597 0.4599 0.4602 0.4605 0.4608
2785.000000 0.4610 0.4612 0.4615 0.4618 0.4620
2780.000000 0.4623 0.4626 0.4630 0.4635 0.4641
2775.000000 0.4646 0.4652 0.4657 0.4662 0.4668
2770.000000 0.4674 0.4679 0.4685 0.4690 0.4696
2765.000000 0.4701 0.4707 0.4712 0.4718 0.4723
2760.000000 0.4729 0.4734 0.4740 0.4745 0.4751
2755.000000 0.4756 0.4762 0.4767 0.4773 0.4782
2750.000000 0.4792 0.4801 0.4810 0.4820 0.4830
2745.000000 0.4839 0.4849 0.4858 0.4867 0.4876
2740.000000 0.4886 0.4895 0.4905 0.4914 0.4924
2735.000000 0.4933 0.4943 0.4952 0.4962 0.4971
2730.000000 0.4981 0.4990 0.5000 0.5012 0.5024
2725.000000 0.5036 0.5049 0.5060 0.5074 0.5086
2720.000000 0.5098 0.5110 0.5123 0.5135 0.5147
2715.000000 0.5159 0.5172 0.5184 0.5196 0.5208
2710.000000 0.5221 0.5236 0.5251 0.5266 0.5282
2705.000000 0.5297 0.5312 0.5328 0.5344 0.5359
2700.000000 0.5374 0.5389 0.5405 0.5420 0.5436
2695.000000 0.5451 0.5467 0.5482 0.5498 0.5510
2690.000000 0.5525 0.5537 0.5550 0.5562 0.5574
2685.000000 0.5586 0.5599 0.5610 0.5624 0.5636
2680.000000 0.5649 0.5660 0.5674 0.5686 0.5699
2675.000000 0.5710 0.5723 0.5735 0.5748 0.5760
2670.000000 0.5772 0.5783 0.5795 0.5806 0.5818
2665.000000 0.5829 0.5841 0.5852 0.5864 0.5875
2660.000000 0.5887 0.5899 0.5910 0.5922 0.5934
2655.000000 0.5945 0.5957 0.5968 0.5979 0.5990
2650.000000 0.6001 0.6012 0.6023 0.6034 0.6045
2645.000000 0.6056 0.6067 0.6078 0.6089 0.6100
2640.000000 0.6110 0.6121 0.6132 0.6143 0.6154
2635.000000 0.6165 0.6176 0.6187 0.6198 0.6209
2630.000000 0.6220 0.6228 0.6237 0.6246 0.6255
2625.000000 0.6262 0.6272 0.6280 0.6289 0.6298
2620.000000 0.6307 0.6315 0.6324 0.6333 0.6342
2615.000000 0.6350 0.6359 0.6367 0.6376 0.6385
2610.000000 0.6394 0.6401 0.6411 0.6419 0.6428
2605.000000 0.6437 0.6446 0.6454 0.6462 0.6468
2600.000000 0.6475 0.6481 0.6488 0.6494 0.6500
2595.000000 0.6506 0.6512 0.6518 0.6525 0.6531
2590.000000 0.6538 0.6544 0.6550 0.6556 0.6562
2585.000000 0.6568 0.6575 0.6582 0.6588 0.6594
2580.000000 0.6601 0.6607 0.6612 0.6618 0.6625
2575.000000 0.6630 0.6636 0.6641 0.6647 0.6653
2570.000000 0.6658 0.6664 0.6669 0.6675 0.6681
2565.000000 0.6687 0.6693 0.6698 0.6704 0.6708
2560.000000 0.6715 0.6719 0.6725 0.6731 0.6736
2555.000000 0.6741 0.6746 0.6751 0.6756 0.6761
2550.000000 0.6765 0.6771 0.6775 0.6781 0.6786
2545.000000 0.6791 0.6796 0.6801 0.6806 0.6810
2540.000000 0.6815 0.6818 0.6821 0.6825 0.6830
2535.000000 0.6833 0.6837 0.6841 0.6845 0.6849
2530.000000 0.6853 0.6856 0.6860 0.6864 0.6868
2525.000000 0.6871 0.6875 0.6878 0.6883 0.6887
2520.000000 0.6891 0.6894 0.6898 0.6901 0.6906
2515.000000 0.6910 0.6914 0.6917 0.6921 0.6925
2510.000000 0.6928 0.6933 0.6937 0.6940 0.6944
2505.000000 0.6948 0.6951 0.6956 0.6960 0.6964
2500.000000 0.6968 0.6971 0.6976 0.6981 0.6985
2495.000000 0.6989 0.6994 0.6998 0.7001 0.7006
2490.000000 0.7011 0.7015 0.7019 0.7024 0.7028
2485.000000 0.7033 0.7038 0.7042 0.7047 0.7051
2480.000000 0.7057 0.7061 0.7067 0.7071 0.7076
2475.000000 0.7081 0.7086 0.7091 0.7096 0.7101
2470.000000 0.7106 0.7108 0.7112 0.7115 0.7118
2465.000000 0.7121 0.7125 0.7128 0.7132 0.7135
2460.000000 0.7139 0.7142 0.7145 0.7148 0.7151
2455.000000 0.7155 0.7158 0.7161 0.7165 0.7168
2450.000000 0.7171 0.7174 0.7178 0.7180 0.7181
2445.000000 0.7181 0.7180 0.7178 0.7176 0.7175
2440.000000 0.7174 0.7172 0.7171 0.7169 0.7168
2435.000000 0.7168 0.7167 0.7165 0.7164 0.7161
2430.000000 0.7161 0.7160 0.7158 0.7157 0.7156
2425.000000 0.7154 0.7153 0.7151 0.7150 0.7148
2420.000000 0.7147 0.7145 0.7144 0.7133 0.7121
2415.000000 0.7105 0.7089 0.7072 0.7058 0.7044
2410.000000 0.7030 0.7015 0.7001 0.6990 0.6978
2405.000000 0.6965 0.6954 0.6942 0.6930 0.6918
2400.000000 0.6906 0.6894 0.6882 0.6872 0.6864
2395.000000 0.6855 0.6846 0.6837 0.6828 0.6818
2390.000000 0.6811 0.6801 0.6793 0.6782 0.6771
2385.000000 0.6764 0.6757 0.6753 0.6750 0.6746
2380.000000 0.6746 0.6745 0.6747 0.6749 0.6751
2375.000000 0.6754 0.6757 0.6749 0.6741 0.6733
2370.000000 0.6725 0.6715 0.6704 0.6689 0.6674
2365.000000 0.6658 0.6643 0.6628 0.6615 0.6606
2360.000000 0.6597 0.6588 0.6578 0.6569 0.6561
2355.000000 0.6554 0.6546 0.6538 0.6531 0.6522
2350.000000 0.6515 0.6507 0.6499 0.6492 0.6485
2345.000000 0.6478 0.6471 0.6464 0.6457 0.6450
2340.000000 0.6443 0.6442 0.6442 0.6443 0.6446
2335.000000 0.6449 0.6451 0.6455 0.6458 0.6460
2330.000000 0.6462 0.6465 0.6468 0.6469 0.6472
2325.000000 0.6474 0.6474 0.6475 0.6475 0.6474
2320.000000 0.6474 0.6472 0.6471 0.6471 0.6471
2315.000000 0.6471 0.6472 0.6475 0.6476 0.6478
2310.000000 0.6481 0.6482 0.6484 0.6486 0.6488
2305.000000 0.6490 0.6492 0.6493 0.6495 0.6497
2300.000000 0.6499 0.6503 0.6508 0.6511 0.6517
2295.000000 0.6521 0.6526 0.6532 0.6537 0.6542
2290.000000 0.6547 0.6551 0.6557 0.6561 0.6567
2285.000000 0.6571 0.6575 0.6582 0.6588 0.6596
2280.000000 0.6605 0.6612 0.6621 0.6628 0.6638
2275.000000 0.6646 0.6654 0.6661 0.6671 0.6678
2270.000000 0.6688 0.6699 0.6710 0.6721 0.6734
2265.000000 0.6745 0.6757 0.6768 0.6781 0.6792
2260.000000 0.6804 0.6815 0.6828 0.6839 0.6851
2255.000000 0.6862 0.6875 0.6887 0.6900 0.6911
2250.000000 0.6925 0.6937 0.6950 0.6961 0.6975
2245.000000 0.6987 0.7000 0.7011 0.7025 0.7037
2240.000000 0.7050 0.7064 0.7078 0.7093 0.7108
2235.000000 0.7121 0.7137 0.7151 0.7167 0.7181
2230.000000 0.7196 0.7208 0.7222 0.7236 0.7249
2225.000000 0.7261 0.7274 0.7287 0.7300 0.7311
2220.000000 0.7325 0.7338 0.7351 0.7361 0.7371
2215.000000 0.7376 0.7384 0.7391 0.7398 0.7405
2210.000000 0.7411 0.7418 0.7425 0.7432 0.7439
2205.000000 0.7446 0.7453 0.7457 0.7461 0.7465
2200.000000 0.7468 0.7471 0.7474 0.7475 0.7478
2195.000000 0.7482 0.7485 0.7487 0.7490 0.7493
2190.000000 0.7496 0.7499 0.7503 0.7506 0.7508
2185.000000 0.7511 0.7515 0.7519 0.7525 0.7533
2180.000000 0.7541 0.7549 0.7558 0.7565 0.7575
2175.000000 0.7583 0.7591 0.7599 0.7607 0.7615
2170.000000 0.7622 0.7630 0.7638 0.7646 0.7654
2165.000000 0.7661 0.7668 0.7676 0.7685 0.7692
2160.000000 0.7700 0.7706 0.7711 0.7718 0.7724
2155.000000 0.7730 0.7736 0.7742 0.7748 0.7754
2150.000000 0.7760 0.7765 0.7771 0.7778 0.7784
2145.000000 0.7790 0.7796 0.7800 0.7804 0.7807
2140.000000 0.7810 0.7812 0.7817 0.7819 0.7822
2135.000000 0.7825 0.7828 0.7832 0.7836 0.7839
2130.000000 0.7842 0.7845 0.7848 0.7851 0.7854
2125.000000 0.7857 0.7860 0.7861 0.7865 0.7868
2120.000000 0.7871 0.7874 0.7876 0.7880 0.7883
2115.000000 0.7886 0.7889 0.7891 0.7893 0.7894
2110.000000 0.7896 0.7897 0.7899 0.7900 0.7901
2105.000000 0.7903 0.7905 0.7906 0.7908 0.7908
2100.000000 0.7911 0.7911 0.7914 0.7915 0.7917
2095.000000 0.7918 0.7918 0.7918 0.7919 0.7919
2090.000000 0.7921 0.7921 0.7921 0.7921 0.7922
2085.000000 0.7924 0.7925 0.7925 0.7926 0.7928
2080.000000 0.7928 0.7928 0.7930 0.7931 0.7933
2075.000000 0.7937 0.7941 0.7945 0.7949 0.7951
2070.000000 0.7956 0.7960 0.7964 0.7971 0.7978
2065.000000 0.7987 0.7996 0.8004 0.8011 0.8011
2060.000000 0.8011 0.8011 0.8012 0.8012 0.8014
2055.000000 0.8014 0.8014 0.8014 0.8014 0.8014
2050.000000 0.8012 0.8011 0.8011 0.8010 0.8008
2045.000000 0.8008 0.8008 0.8008 0.8011 0.8011
2040.000000 0.8014 0.8015 0.8017 0.8021 0.8025
2035.000000 0.8033 0.8040 0.8050 0.8061 0.8071
2030.000000 0.8081 0.8084 0.8087 0.8088 0.8090
2025.000000 0.8092 0.8092 0.8092 0.8091 0.8090
2020.000000 0.8089 0.8088 0.8088 0.8088 0.8089
2015.000000 0.8090 0.8092 0.8095 0.8099 0.8101
2010.000000 0.8105 0.8105 0.8105 0.8104 0.8103
2005.000000 0.8101 0.8100 0.8096 0.8093 0.8082
2000.000000 0.8071 0.8044 0.8017 0.7990 0.8068
1995.000000 0.8099 0.8128 0.8126 0.8124 0.8121
1990.000000 0.8119 0.8118 0.8115 0.8112 0.8112
1985.000000 0.8112 0.8112 0.8115 0.8117 0.8118
1980.000000 0.8119 0.8121 0.8124 0.8125 0.8126
1975.000000 0.8128 0.8130 0.8132 0.8134 0.8136
1970.000000 0.8138 0.8140 0.8146 0.8151 0.8158
1965.000000 0.8162 0.8253 0.8418 0.8584 0.8749
1960.000000 0.8884 0.8646 0.8178 0.8193 0.8206
1955.000000 0.8218 0.8232 0.8245 0.8253 0.8252
1950.000000 0.8252 0.8252 0.8239 0.8225 0.8216
1945.000000 0.8212 0.8213 0.8214 0.8221 0.8227
1940.000000 0.8234 0.8240 0.8247 0.8254 0.8258
1935.000000 0.8263 0.8267 0.8271 0.8275 0.8281
1930.000000 0.8286 0.8290 0.8291 0.8292 0.8293
1925.000000 0.8294 0.8295 0.8296 0.8297 0.8298
1920.000000 0.8299 0.8300 0.8302 0.8303 0.8305
1915.000000 0.8306 0.8308 0.8309 0.8311 0.8312
1910.000000 0.8314 0.8316 0.8317 0.8318 0.8320
1905.000000 0.8321 0.8325 0.8328 0.8331 0.8334
1900.000000 0.8337 0.8340 0.8343 0.8345 0.8348
1895.000000 0.8353 0.8358 0.8362 0.8367 0.8371
1890.000000 0.8374 0.8377 0.8380 0.8384 0.8387
1885.000000 0.8390 0.8394 0.8397 0.8400 0.8404
1880.000000 0.8407 0.8411 0.8415 0.8418 0.8423
1875.000000 0.8427 0.8431 0.8434 0.8438 0.8442
1870.000000 0.8446 0.8450 0.8454 0.8458 0.8462
1865.000000 0.8467 0.8471 0.8477 0.8483 0.8488
1860.000000 0.8493 0.8498 0.8503 0.8508 0.8513
1855.000000 0.8518 0.8523 0.8528 0.8533 0.8538
1850.000000 0.8543 0.8550 0.8558 0.8566 0.8573
1845.000000 0.8571 0.8571 0.8567 0.8563 0.8558
1840.000000 0.8555 0.8555 0.8554 0.8560 0.8567
1835.000000 0.8574 0.8581 0.8588 0.8595 0.8600
1830.000000 0.8603 0.8607 0.8610 0.8613 0.8616
1825.000000 0.8620 0.8623 0.8625 0.8630 0.8633
1820.000000 0.8636 0.8638 0.8641 0.8644 0.8647
1815.000000 0.8648 0.8648 0.8648 0.8648 0.8648
1810.000000 0.8648 0.8648 0.8647 0.8647 0.8646
1805.000000 0.8645 0.8645 0.8644 0.8644 0.8646
1800.000000 0.8647 0.8649 0.8650 0.8652 0.8655
1795.000000 0.8658 0.8661 0.8660 0.8659 0.8658
1790.000000 0.8657 0.8648 0.8642 0.8643 0.8643
1785.000000 0.8644 0.8644 0.8645 0.8663 0.8641
1780.000000 0.8639 0.8639 0.8639 0.8640 0.8642
1775.000000 0.8643 0.8644 0.8639 0.8633 0.8627
1770.000000 0.8621 0.8618 0.8614 0.8610 0.8605
1765.000000 0.8600 0.8594 0.8589 0.8584 0.8578
1760.000000 0.8573 0.8566 0.8559 0.8552 0.8533
1755.000000 0.8504 0.8457 0.8443 0.8442 0.8441
1750.000000 0.8439 0.8438 0.8437 0.8416 0.8389
1745.000000 0.8364 0.8338 0.8308 0.8278 0.8249
1740.000000 0.8227 0.8206 0.8184 0.8167 0.8155
1735.000000 0.8142 0.8125 0.8101 0.8075 0.8025
1730.000000 0.7972 0.7919 0.7872 0.7832 0.7792
1725.000000 0.7754 0.7715 0.7678 0.7636 0.7588
1720.000000 0.7540 0.7508 0.7492 0.7430 0.7365
1715.000000 0.7296 0.7224 0.7150 0.7068 0.6954
1710.000000 0.6880 0.6760 0.6711 0.6684 0.6625
1705.000000 0.6648 0.6641 0.6658 0.6695 0.6731
1700.000000 0.6778 0.6838 0.6898 0.6957 0.7014
1695.000000 0.7056 0.7086 0.7115 0.7144 0.7172
1690.000000 0.7201 0.7225 0.7243 0.7261 0.7280
1685.000000 0.7298 0.7311 0.7324 0.7332 0.7341
1680.000000 0.7350 0.7350 0.7349 0.7344 0.7339
1675.000000 0.7325 0.7308 0.7292 0.7275 0.7254
1670.000000 0.7228 0.7203 0.7176 0.7151 0.7125
1665.000000 0.7097 0.7068 0.7038 0.7008 0.6978
1660.000000 0.6946 0.6912 0.6880 0.6848 0.6815
1655.000000 0.6786 0.6774 0.6768 0.6762 0.6739
1650.000000 0.6562 0.6522 0.6498 0.6475 0.6455
1645.000000 0.6389 0.6336 0.6255 0.6098 0.5933
1640.000000 0.5757 0.5083 0.5015 0.4951 0.4900
1635.000000 0.4850 0.4800 0.4750 0.4670 0.4532
1630.000000 0.4394 0.4254 0.4049 0.3744 0.3475
1625.000000 0.3298 0.3163 0.3045 0.2875 0.2680
1620.000000 0.2512 0.2412 0.2314 0.2224 0.2150
1615.000000 0.2088 0.2026 0.1965 0.1907 0.1848
1610.000000 0.1790 0.1732 0.1503 0.1353 0.1213
1605.000000 0.1105 0.1016 0.0938 0.0861 0.0802
1600.000000 0.0749 0.0719 0.0699 0.0680 0.0663
1595.000000 0.0646 0.0633 0.0621 0.0621 0.0622
1590.000000 0.0624 0.0625 0.0626 0.0627 0.0627
1585.000000 0.0627 0.0628 0.0631 0.0633 0.0636
1580.000000 0.0637 0.0637 0.0637 0.0637 0.0636
1575.000000 0.0633 0.0630 0.0610 0.0581 0.0547
1570.000000 0.0513 0.0481 0.0462 0.0444 0.0427
1565.000000 0.0413 0.0399 0.0386 0.0375 0.0364
1560.000000 0.0357 0.0351 0.0344 0.0337 0.0330
1555.000000 0.0327 0.0328 0.0328 0.0330 0.0334
1550.000000 0.0349 0.0364 0.0393 0.0423 0.0456
1545.000000 0.0487 0.0521 0.0608 0.0695 0.0779
1540.000000 0.0863 0.0942 0.1022 0.1107 0.1198
1535.000000 0.1267 0.1331 0.1394 0.1482 0.1577
1530.000000 0.1672 0.1745 0.1820 0.1894 0.1968
1525.000000 0.2070 0.2226 0.2366 0.2475 0.2583
1520.000000 0.2682 0.2772 0.2862 0.2930 0.2991
1515.000000 0.3053 0.3114 0.3175 0.3234 0.3296
1510.000000 0.3356 0.3416 0.3477 0.3532 0.3587
1505.000000 0.3641 0.3696 0.3750 0.3837 0.3932
1500.000000 0.4003 0.4068 0.4112 0.4157 0.4199
1495.000000 0.4235 0.4270 0.4303 0.4336 0.4373
1490.000000 0.4405 0.4434 0.4438 0.4441 0.4452
1485.000000 0.4447 0.4445 0.4438 0.4431 0.4425
1480.000000 0.4396 0.4358 0.4324 0.4285 0.4235
1475.000000 0.4160 0.4077 0.3978 0.3874 0.3786
1470.000000 0.3705 0.3624 0.3489 0.3364 0.3255
1465.000000 0.3151 0.3052 0.2953 0.2824 0.2683
1460.000000 0.2463 0.2292 0.2064 0.1934 0.1861
1455.000000 0.1815 0.1785 0.1756 0.1723 0.1691
1450.000000 0.1666 0.1658 0.1650 0.1634 0.1644
1445.000000 0.1648 0.1651 0.1667 0.1689 0.1721
1440.000000 0.1758 0.1774 0.1779 0.1785 0.1792
1435.000000 0.1799 0.1804 0.1811 0.1817 0.1823
1430.000000 0.1829 0.1834 0.1837 0.1843 0.1850
1425.000000 0.1858 0.1874 0.1907 0.1941 0.1966
1420.000000 0.1991 0.2016 0.2041 0.2069 0.2112
1415.000000 0.2143 0.2169 0.2187 0.2205 0.2223
1410.000000 0.2246 0.2271 0.2290 0.2301 0.2302
1405.000000 0.2303 0.2285 0.2255 0.2219 0.2131
1400.000000 0.1993 0.1542 0.1478 0.1432 0.1402
1395.000000 0.1378 0.1359 0.1341 0.1328 0.1321
1390.000000 0.1356 0.1437 0.1561 0.1663 0.1800
1385.000000 0.1989 0.2178 0.2367 0.2556 0.2745
1380.000000 0.2934 0.3123 0.3312 0.3500 0.3690
1375.000000 0.3879 0.4068 0.4256 0.4392 0.4510
1370.000000 0.4594 0.4680 0.4771 0.4844 0.4910
1365.000000 0.4962 0.4988 0.5006 0.5017 0.5016
1360.000000 0.4988 0.4999 0.4984 0.4969 0.4953
1355.000000 0.4923 0.4892 0.4860 0.4766 0.4668
1350.000000 0.4574 0.4512 0.4451 0.4389 0.4329
1345.000000 0.4284 0.4241 0.4217 0.4191 0.4160
1340.000000 0.4094 0.3727 0.3341 0.2955 0.2569
1335.000000 0.2183 0.1796 0.1524 0.1392 0.1306
1330.000000 0.1265 0.1274 0.1251 0.1305 0.1377
1325.000000 0.1479 0.1882 0.2323 0.2763 0.3157
1320.000000 0.3416 0.3653 0.3860 0.4047 0.4194
1315.000000 0.4339 0.4485 0.4585 0.4680 0.4766
1310.000000 0.4840 0.4914 0.4967 0.5020 0.5072
1305.000000 0.5125 0.5177 0.5228 0.5279 0.5330
1300.000000 0.5381 0.5435 0.5499 0.5562 0.5627
1295.000000 0.5683 0.5736 0.5789 0.5834 0.5874
1290.000000 0.5915 0.5949 0.5973 0.5997 0.6021
1285.000000 0.6045 0.6070 0.6090 0.6107 0.6124
1280.000000 0.6141 0.6159 0.6176 0.6194 0.6210
1275.000000 0.6229 0.6247 0.6265 0.6282 0.6300
1270.000000 0.6319 0.6338 0.6358 0.6378 0.6398
1265.000000 0.6418 0.6438 0.6458 0.6478 0.6498
1260.000000 0.6518 0.6539 0.6560 0.6580 0.6601
1255.000000 0.6621 0.6642 0.6661 0.6683 0.6704
1250.000000 0.6724 0.6744 0.6762 0.6783 0.6801
1245.000000 0.6821 0.6841 0.6860 0.6880 0.6899
1240.000000 0.6918 0.6932 0.6947 0.6961 0.6976
1235.000000 0.6992 0.7007 0.7021 0.7036 0.7051
1230.000000 0.7065 0.7082 0.7097 0.7112 0.7128
1225.000000 0.7144 0.7158 0.7175 0.7189 0.7200
1220.000000 0.7211 0.7222 0.7235 0.7246 0.7256
1215.000000 0.7265 0.7275 0.7284 0.7293 0.7301
1210.000000 0.7300 0.7300 0.7299 0.7298 0.7298
1205.000000 0.7298 0.7308 0.7322 0.7336 0.7350
1200.000000 0.7361 0.7372 0.7385 0.7394 0.7401
1195.000000 0.7404 0.7406 0.7374 0.7411 0.7408
1190.000000 0.7408 0.7406 0.7396 0.7380 0.7360
1185.000000 0.7332 0.7301 0.7268 0.7234 0.7228
1180.000000 0.7224 0.7225 0.7228 0.7234 0.7238
1175.000000 0.7242 0.7247 0.7251 0.7250 0.7248
1170.000000 0.7247 0.7245 0.7244 0.7238 0.7232
1165.000000 0.7225 0.7219 0.7214 0.7211 0.7211
1160.000000 0.7208 0.7208 0.7206 0.7205 0.7203
1155.000000 0.7201 0.7201 0.7200 0.7199 0.7198
1150.000000 0.7197 0.7196 0.7195 0.7193 0.7192
1145.000000 0.7190 0.7189 0.7188 0.7187 0.7186
1140.000000 0.7186 0.7187 0.7188 0.7189 0.7194
1135.000000 0.7201 0.7208 0.7215 0.7214 0.7214
1130.000000 0.7211 0.7208 0.7206 0.7201 0.7196
1125.000000 0.7190 0.7158 0.7111 0.7075 0.7050
1120.000000 0.7037 0.7025 0.7025 0.7028 0.7032
1115.000000 0.7034 0.7036 0.7038 0.7039 0.7039
1110.000000 0.7037 0.7036 0.7032 0.7025 0.7018
1105.000000 0.7011 0.6997 0.6982 0.6967 0.6951
1100.000000 0.6935 0.6915 0.6895 0.6875 0.6855
1095.000000 0.6832 0.6808 0.6785 0.6758 0.6728
1090.000000 0.6699 0.6668 0.6639 0.6611 0.6583
1085.000000 0.6554 0.6525 0.6498 0.6468 0.6441
1080.000000 0.6411 0.6382 0.6351 0.6320 0.6289
1075.000000 0.6247 0.6195 0.6125 0.6034 0.5944
1070.000000 0.5873 0.5803 0.5734 0.5624 0.5510
1065.000000 0.5419 0.5338 0.5269 0.5181 0.4932
1060.000000 0.4836 0.4750 0.4676 0.4616 0.4556
1055.000000 0.4496 0.4432 0.4367 0.4303 0.4215
1050.000000 0.4123 0.4046 0.3997 0.3948 0.3900
1045.000000 0.3850 0.3800 0.3750 0.3700 0.3649
1040.000000 0.3597 0.3546 0.3484 0.3422 0.3362
1035.000000 0.3305 0.3255 0.3212 0.3170 0.3131
1030.000000 0.3093 0.3065 0.3037 0.3014 0.3001
1025.000000 0.2990 0.2991 0.2987 0.2998 0.3020
1020.000000 0.3083 0.3192 0.3666 0.3768 0.3992
1015.000000 0.4262 0.4483 0.4635 0.4750 0.4866
1010.000000 0.4954 0.5041 0.5129 0.5253 0.5433
1005.000000 0.5502 0.5564 0.5627 0.5703 0.5786
1000.000000 0.5860 0.5926 0.5970 0.6014 0.6053
995.000000 0.6091 0.6129 0.6167 0.6205 0.6236
990.000000 0.6262 0.6289 0.6315 0.6332 0.6346
985.000000 0.6360 0.6374 0.6388 0.6401 0.6415
980.000000 0.6431 0.6445 0.6460 0.6475 0.6490
975.000000 0.6505 0.6519 0.6542 0.6571 0.6601
970.000000 0.6632 0.6660 0.6685 0.6708 0.6734
965.000000 0.6758 0.6783 0.6807 0.6828 0.6848
960.000000 0.6868 0.6889 0.6912 0.6936 0.6955
955.000000 0.6971 0.6986 0.6998 0.7010 0.7021
950.000000 0.7051 0.7025 0.7021 0.7017 0.6990
945.000000 0.6954 0.6922 0.6918 0.6915 0.6911
940.000000 0.6911 0.6919 0.6928 0.6937 0.6936
935.000000 0.6934 0.6932 0.6931 0.6926 0.6914
930.000000 0.6901 0.6887 0.6861 0.6835 0.6807
925.000000 0.6780 0.6751 0.6703 0.6651 0.6599
920.000000 0.6540 0.6474 0.6408 0.6344 0.6275
915.000000 0.6204 0.6134 0.6048 0.5956 0.5874
910.000000 0.5797 0.5721 0.5633 0.5544 0.5456
905.000000 0.5366 0.5275 0.5185 0.5084 0.4983
900.000000 0.4899 0.4825 0.4738 0.4674 0.4630
895.000000 0.4580 0.4521 0.4474 0.4438 0.4400
890.000000 0.4362 0.4329 0.4296 0.4290 0.4265
885.000000 0.4256 0.4292 0.4347 0.4406 0.4462
880.000000 0.4512 0.4549 0.4584 0.4640 0.4723
875.000000 0.4804 0.4904 0.5014 0.5106 0.5197
870.000000 0.5295 0.5398 0.5498 0.5586 0.5675
865.000000 0.5762 0.5836 0.5899 0.5959 0.6012
860.000000 0.6068 0.6122 0.6177 0.6231 0.6280
855.000000 0.6324 0.6369 0.6412 0.6457 0.6500
850.000000 0.6528 0.6549 0.6568 0.6584 0.6600
845.000000 0.6615 0.6628 0.6642 0.6655 0.6668
840.000000 0.6678 0.6690 0.6701 0.6711 0.6714
835.000000 0.6714 0.6714 0.6711 0.6691 0.6668
830.000000 0.6642 0.6599 0.6583 0.6568 0.6555
825.000000 0.6533 0.6510 0.6478 0.6444 0.6399
820.000000 0.6340 0.6293 0.6249 0.6210 0.6186
815.000000 0.6164 0.6147 0.6136 0.6127 0.6122
810.000000 0.6155 0.6119 0.6120 0.6121 0.6137
805.000000 0.6155 0.6174 0.6202 0.6230 0.6259
800.000000 0.6288 0.6317 0.6343 0.6369 0.6395
795.000000 0.6419 0.6446 0.6471 0.6498 0.6524
790.000000 0.6549 0.6575 0.6601 0.6628 0.6654
785.000000 0.6680 0.6707 0.6733 0.6758 0.6782
780.000000 0.6805 0.6828 0.6853 0.6874 0.6892
775.000000 0.6910 0.6928 0.6940 0.6953 0.6965
770.000000 0.6978 0.6992 0.7006 0.7019 0.7033
765.000000 0.7043 0.7051 0.7061 0.7071 0.7072
760.000000 0.7075 0.7075 0.7076 0.7078 0.7078
755.000000 0.7119 0.7075 0.7075 0.7072 0.7068
750.000000 0.7061 0.7053 0.7044 0.7036 0.7026
745.000000 0.7018 0.7010 0.6999 0.6989 0.6978
740.000000 0.6968 0.6957 0.6945 0.6932 0.6914
735.000000 0.6895 0.6875 0.6856 0.6837 0.6815
730.000000 0.6784 0.6753 0.6718 0.6675 0.6635
725.000000 0.6598 0.6561 0.6524 0.6493 0.6471
720.000000 0.6461 0.6454 0.6446 0.6445 0.6465
715.000000 0.6501 0.6544 0.6561 0.6558 0.6554
710.000000 0.6532 0.6510 0.6462 0.6406 0.6360
705.000000 0.6324 0.6286 0.6248 0.6177 0.6089
700.000000 0.5912 0.5605 0.5228 0.4814 0.4399
695.000000 0.3984 0.3571 0.3156 0.2742 0.2328
690.000000 0.1914 0.1607 0.1495 0.1357 0.1270
685.000000 0.1192 0.1118 0.1049 0.0996 0.0887
680.000000 0.0888 0.0888 0.0883 0.0946 0.1333
675.000000 0.1689 0.2066 0.2451 0.2794 0.2981
670.000000 0.3145 0.3289 0.3434 0.3580 0.3697
665.000000 0.3814 0.3968 0.4119 0.4215 0.4291
660.000000 0.4381 0.4429 0.4465 0.4497 0.4533
655.000000 0.4570 0.4610 0.4640 0.4662 0.4662
650.000000 0.4660 0.4650 0.4640 0.4630 0.4618
645.000000 0.4606 0.4594 0.4581 0.4577 0.4578
640.000000 0.4579 0.4589 0.4602 0.4614 0.4627
635.000000 0.4645 0.4653 0.4655 0.4656 0.4656
630.000000 0.4656 0.4609 0.4542 0.4474 0.4287
625.000000 0.4084 0.3903 0.3830 0.3768 0.3756
620.000000 0.3734 0.3746 0.3850 0.3959 0.4059
615.000000 0.4225 0.4221 0.4217 0.4212 0.4210
610.000000 0.4210 0.4210 0.4212 0.4349 0.4435
605.000000 0.4528 0.4627 0.4726 0.4822 0.4919
600.000000 0.5012 0.5100 0.5189 0.5278 0.5342
595.000000 0.5404 0.5467 0.5529 0.5592 0.5655
590.000000 0.5718 0.5783 0.5851 0.5919 0.5980
585.000000 0.6035 0.6090 0.6144 0.6195 0.6242
580.000000 0.6273 0.6304 0.6336 0.6367 0.6398
575.000000 0.6428 0.6454 0.6475 0.6498 0.6519
570.000000 0.6542 0.6564 0.6586 0.6605 0.6622
565.000000 0.6641 0.6658 0.6676 0.6695 0.6712
560.000000 0.6730 0.6748 0.6765 0.6783 0.6801
555.000000 0.6818 0.6833 0.6843 0.6851 0.6861
550.000000 0.6869 0.6878 0.6883 0.6884 0.6918
545.000000 0.6886 0.6887 0.6889 0.6884 0.6878
540.000000 0.6874 0.6868 0.6864 0.6858 0.6851
535.000000 0.6843 0.6834 0.6825 0.6815 0.6806
530.000000 0.6796 0.6786 0.6775 0.6765 0.6754
525.000000 0.6744 0.6733 0.6722 0.6712 0.6703
520.000000 0.6692 0.6682 0.6671 0.6658 0.6646
515.000000 0.6634 0.6621 0.6610 0.6598 0.6586
510.000000 0.6574 0.6571 0.6571 0.6575 0.6581
505.000000 0.6586 0.6591 0.6605 0.6621 0.6636
500.000000 0.6651 0.6668 0.6683 0.6697 0.6711
495.000000 0.6725 0.6740 0.6754 0.6768 0.6782
490.000000 0.6796 0.6808 0.6822 0.6837 0.6851
485.000000 0.6864 0.6878 0.6891 0.6904 0.6917
480.000000 0.6930 0.6941 0.6943 0.6945 0.6947
475.000000 0.6950 0.6954 0.6957 0.6961 0.6964
470.000000 0.6968 0.6971 0.6980 0.6980 0.6980
465.000000 0.6983 0.6988 0.6993 0.6998 0.7003
460.000000 0.7008 0.7012 0.7018 0.7022 0.7021
455.000000 0.7021 0.7021 0.7021 0.7015 0.7014
##END=
