##TITLE=DI-ISODECYLAZELATE
##JCAMP-DX=4.24
##DATA TYPE=INFRARED SPECTRUM
##CLASS=COBLENTZ
##ORIGIN=WYANDOTTE CHEMICALS CORP., WYANDOTTE, MICHIGAN, USA
##OWNER=COBLENTZ SOCIETY
Collection (C) 2018 copyright by the U.S. Secretary of Commerce
on behalf of the United States of America. All rights reserved.
##DATE=Not specified, most likely prior to 1970
##NAMES=bis(8-methylnonyl) azelaate
##MOLFORM=C29 H56 O4
##SOURCE REFERENCE=COBLENTZ NO. 3873
##$NIST ID=B6003873
##$NIST SOURCE=COBLENTZ
##$NIST IMAGE=cob3873
##SPECTROMETER/DATA SYSTEM=Not specified, most likely a prism, grating, or hybrid spectrometer.
##STATE=LIQUID
##PATH LENGTH=0.003 CM
##SAMPLING PROCEDURE=TRANSMISSION
##RESOLUTION=4
##DATA PROCESSING=DIGITIZED BY NIST FROM HARD COPY
##XUNITS=MICROMETERS
##YUNITS=TRANSMITTANCE
##XFACTOR=1.000000
##YFACTOR=1
##DELTAX=000.006186
##FIRSTX=2.025
##LASTX=16.006
##FIRSTY=0.953
##MAXX=16.006
##MINX=2.025
##MAXY=0.973
##MINY=0.024
##NPOINTS=2261
##XYDATA=(X++(Y..Y))
2.025000 0.9530 0.9540 0.9560 0.9560 0.9580
2.055946 0.9580 0.9580 0.9590 0.9610 0.9620
2.087000 0.9620 0.9640 0.9670 0.9670 0.9640
2.117946 0.9620 0.9620 0.9590 0.9590 0.9580
2.148000 0.9510 0.9480 0.9370 0.9300 0.9270
2.178946 0.9230 0.9220 0.9140 0.9090 0.9080
2.210000 0.9060 0.9050 0.9050 0.9050 0.9050
2.240946 0.9050 0.9050 0.9080 0.9080 0.9090
2.272000 0.9110 0.9140 0.9160 0.9160 0.9160
2.302946 0.9160 0.9170 0.9170 0.9190 0.9190
2.334000 0.9200 0.9200 0.9200 0.9200 0.9190
2.364946 0.9190 0.9190 0.9200 0.9220 0.9220
2.396000 0.9230 0.9270 0.9310 0.9330 0.9370
2.426946 0.9390 0.9420 0.9450 0.9470 0.9480
2.458000 0.9500 0.9500 0.9480 0.9470 0.9450
2.488946 0.9470 0.9470 0.9500 0.9510 0.9510
2.520000 0.9510 0.9530 0.9530 0.9580 0.9610
2.550946 0.9640 0.9640 0.9670 0.9680 0.9680
2.582000 0.9680 0.9680 0.9680 0.9670 0.9680
2.612946 0.9680 0.9680 0.9700 0.9680 0.9700
2.643000 0.9700 0.9700 0.9700 0.9700 0.9700
2.673946 0.9700 0.9720 0.9720 0.9730 0.9730
2.705000 0.9730 0.9720 0.9720 0.9720 0.9720
2.735946 0.9730 0.9730 0.9730 0.9730 0.9730
2.767000 0.9720 0.9700 0.9650 0.9610 0.9580
2.797946 0.9580 0.9560 0.9530 0.9540 0.9560
2.829000 0.9580 0.9580 0.9540 0.9500 0.9450
2.859946 0.9400 0.9370 0.9340 0.9280 0.9170
2.891000 0.9130 0.9110 0.9080 0.9080 0.9110
2.921946 0.9130 0.9190 0.9220 0.9280 0.9360
2.953000 0.9440 0.9440 0.9470 0.9470 0.9450
2.983946 0.9450 0.9440 0.9400 0.9390 0.9400
3.015000 0.9420 0.9420 0.9420 0.9400 0.9370
3.045946 0.9360 0.9330 0.9330 0.9330 0.9330
3.076000 0.9310 0.9280 0.9270 0.9230 0.9200
3.106946 0.9170 0.9080 0.9030 0.9020 0.8990
3.138000 0.8830 0.8810 0.8720 0.8680 0.8660
3.168946 0.8640 0.8640 0.8640 0.8640 0.8630
3.200000 0.8570 0.8490 0.8460 0.8440 0.8410
3.230946 0.8350 0.8240 0.8120 0.8100 0.8040
3.262000 0.7990 0.7710 0.7420 0.7290 0.6920
3.292946 0.6500 0.6000 0.5290 0.4310 0.3190
3.324000 0.2010 0.1410 0.0590 0.0320 0.0290
3.354946 0.0240 0.0270 0.0290 0.0310 0.0320
3.386000 0.0320 0.0340 0.0340 0.0340 0.0370
3.416946 0.0400 0.0410 0.0450 0.0490 0.0510
3.448000 0.0520 0.0520 0.0520 0.0520 0.0520
3.478946 0.0540 0.0620 0.0790 0.1020 0.1500
3.510000 0.2320 0.3010 0.3610 0.4420 0.5210
3.540946 0.5590 0.6000 0.6330 0.6520 0.6830
3.571000 0.7080 0.7220 0.7340 0.7500 0.7530
3.601946 0.7740 0.7880 0.7950 0.7990 0.7990
3.633000 0.7990 0.7960 0.7950 0.7930 0.7910
3.663946 0.7880 0.7870 0.7820 0.7870 0.7910
3.695000 0.8010 0.8090 0.8130 0.8220 0.8270
3.725946 0.8270 0.8270 0.8290 0.8290 0.8330
3.757000 0.8430 0.8490 0.8520 0.8540 0.8540
3.787946 0.8580 0.8610 0.8630 0.8640 0.8660
3.819000 0.8660 0.8660 0.8660 0.8680 0.8680
3.849946 0.8690 0.8690 0.8720 0.8740 0.8740
3.881000 0.8780 0.8830 0.8890 0.8920 0.8990
3.911946 0.9000 0.9030 0.9110 0.9130 0.9140
3.943000 0.9170 0.9190 0.9220 0.9220 0.9220
3.973946 0.9220 0.9220 0.9220 0.9230 0.9230
4.004000 0.9230 0.9250 0.9280 0.9280 0.9230
4.034946 0.9230 0.9230 0.9270 0.9270 0.9280
4.066000 0.9300 0.9300 0.9300 0.9300 0.9280
4.096946 0.9280 0.9280 0.9280 0.9300 0.9300
4.128000 0.9280 0.9280 0.9280 0.9280 0.9280
4.158946 0.9280 0.9280 0.9270 0.9270 0.9270
4.190000 0.9270 0.9250 0.9250 0.9270 0.9280
4.220946 0.9280 0.9280 0.9280 0.9230 0.9230
4.252000 0.9270 0.9280 0.9300 0.9310 0.9330
4.282946 0.9330 0.9330 0.9340 0.9340 0.9340
4.314000 0.9370 0.9390 0.9390 0.9400 0.9420
4.344946 0.9420 0.9440 0.9440 0.9440 0.9440
4.376000 0.9420 0.9420 0.9400 0.9390 0.9370
4.406946 0.9360 0.9340 0.9310 0.9310 0.9360
4.437000 0.9370 0.9370 0.9370 0.9370 0.9390
4.467946 0.9400 0.9400 0.9400 0.9400 0.9400
4.499000 0.9420 0.9420 0.9420 0.9440 0.9440
4.529946 0.9440 0.9450 0.9470 0.9470 0.9470
4.561000 0.9470 0.9470 0.9470 0.9470 0.9470
4.591946 0.9470 0.9470 0.9480 0.9470 0.9470
4.623000 0.9480 0.9480 0.9500 0.9480 0.9500
4.653946 0.9480 0.9480 0.9500 0.9480 0.9470
4.685000 0.9470 0.9480 0.9480 0.9480 0.9480
4.715946 0.9480 0.9470 0.9480 0.9480 0.9480
4.747000 0.9480 0.9480 0.9480 0.9500 0.9500
4.777946 0.9500 0.9480 0.9470 0.9470 0.9450
4.809000 0.9420 0.9390 0.9390 0.9390 0.9390
4.839946 0.9370 0.9360 0.9370 0.9370 0.9370
4.871000 0.9370 0.9370 0.9360 0.9360 0.9340
4.901946 0.9340 0.9340 0.9340 0.9340 0.9340
4.932000 0.9340 0.9340 0.9360 0.9370 0.9370
4.962946 0.9370 0.9370 0.9370 0.9370 0.9370
4.994000 0.9370 0.9370 0.9370 0.9390 0.9400
5.024946 0.9400 0.9400 0.9400 0.9400 0.9400
5.056000 0.9370 0.9340 0.9340 0.9340 0.9340
5.086946 0.9360 0.9390 0.9400 0.9400 0.9440
5.118000 0.9440 0.9400 0.9390 0.9390 0.9390
5.148946 0.9390 0.9390 0.9390 0.9370 0.9370
5.180000 0.9370 0.9360 0.9340 0.9340 0.9340
5.210946 0.9340 0.9340 0.9360 0.9360 0.9360
5.242000 0.9370 0.9370 0.9370 0.9370 0.9370
5.272946 0.9370 0.9370 0.9370 0.9370 0.9370
5.304000 0.9370 0.9360 0.9360 0.9360 0.9360
5.334946 0.9370 0.9340 0.9340 0.9340 0.9340
5.365000 0.9330 0.9330 0.9330 0.9330 0.9330
5.395946 0.9330 0.9330 0.9330 0.9330 0.9330
5.427000 0.9310 0.9310 0.9310 0.9310 0.9310
5.457946 0.9300 0.9270 0.9190 0.9140 0.9130
5.489000 0.9090 0.9090 0.9080 0.9030 0.9000
5.519946 0.8990 0.8970 0.8920 0.8830 0.8720
5.551000 0.8630 0.8580 0.8490 0.8410 0.8320
5.581946 0.8270 0.8160 0.8040 0.7990 0.7850
5.613000 0.7670 0.7530 0.7400 0.7230 0.7120
5.643946 0.6940 0.6730 0.6520 0.6210 0.5910
5.675000 0.5400 0.5000 0.4340 0.3630 0.2810
5.705946 0.2120 0.1210 0.0620 0.0400 0.0290
5.737000 0.0290 0.0400 0.0400 0.0430 0.0450
5.767946 0.0480 0.0600 0.0900 0.1280 0.1800
5.798000 0.2430 0.3320 0.3830 0.4840 0.5000
5.828946 0.5210 0.5410 0.5590 0.5740 0.5820
5.860000 0.5930 0.6000 0.6020 0.6140 0.6270
5.890946 0.6420 0.6590 0.6780 0.6940 0.7010
5.922000 0.7230 0.7400 0.7530 0.7710 0.7740
5.952946 0.7820 0.7840 0.7910 0.7990 0.8020
5.984000 0.8070 0.8180 0.8220 0.8240 0.8260
6.014946 0.8270 0.8270 0.8270 0.8290 0.8320
6.046000 0.8330 0.8380 0.8410 0.8440 0.8490
6.076946 0.8490 0.8490 0.8500 0.8520 0.8580
6.108000 0.8580 0.8540 0.8540 0.8540 0.8570
6.138946 0.8570 0.8570 0.8570 0.8600 0.8630
6.170000 0.8660 0.8690 0.8690 0.8690 0.8690
6.200946 0.8680 0.8690 0.8710 0.8710 0.8710
6.232000 0.8720 0.8720 0.8720 0.8740 0.8740
6.262946 0.8740 0.8740 0.8770 0.8770 0.8750
6.293000 0.8770 0.8770 0.8770 0.8780 0.8780
6.323946 0.8780 0.8780 0.8780 0.8780 0.8770
6.355000 0.8780 0.8780 0.8780 0.8780 0.8770
6.385946 0.8770 0.8750 0.8740 0.8720 0.8710
6.417000 0.8680 0.8660 0.8640 0.8640 0.8640
6.447946 0.8630 0.8630 0.8580 0.8520 0.8500
6.479000 0.8470 0.8440 0.8430 0.8410 0.8430
6.509946 0.8440 0.8460 0.8460 0.8440 0.8430
6.541000 0.8410 0.8400 0.8380 0.8330 0.8300
6.571946 0.8220 0.8190 0.8180 0.8180 0.8130
6.603000 0.8090 0.8050 0.8010 0.7980 0.7880
6.633946 0.7770 0.7710 0.7620 0.7510 0.7480
6.665000 0.7320 0.7200 0.7030 0.6810 0.6500
6.695946 0.6240 0.5880 0.5400 0.5010 0.4610
6.726000 0.4230 0.3710 0.3290 0.2820 0.2180
6.756946 0.1490 0.1130 0.0990 0.0900 0.0880
6.788000 0.0830 0.0820 0.0830 0.0880 0.0960
6.818946 0.1130 0.1280 0.1390 0.1520 0.1720
6.850000 0.2000 0.2110 0.2230 0.2430 0.2730
6.880946 0.2990 0.3130 0.3330 0.3500 0.3600
6.912000 0.3710 0.3800 0.3890 0.4020 0.4130
6.942946 0.4230 0.4390 0.4480 0.4530 0.4620
6.974000 0.4670 0.4720 0.4720 0.4620 0.4580
7.004946 0.4440 0.4420 0.4500 0.4580 0.4620
7.036000 0.4890 0.5100 0.5290 0.5520 0.5720
7.066946 0.5910 0.5990 0.6070 0.6020 0.5990
7.098000 0.5790 0.5690 0.5510 0.5270 0.5120
7.128946 0.4780 0.4480 0.4220 0.3720 0.3500
7.160000 0.3130 0.2930 0.2900 0.2770 0.2760
7.190946 0.2430 0.2230 0.2010 0.1980 0.1780
7.221000 0.1770 0.1780 0.1800 0.1870 0.2000
7.251946 0.2110 0.2230 0.2340 0.2500 0.2500
7.283000 0.2480 0.2430 0.2400 0.2320 0.2340
7.313946 0.2400 0.2480 0.2590 0.2630 0.2710
7.345000 0.2740 0.2740 0.2740 0.2740 0.2770
7.375946 0.2840 0.2880 0.2880 0.2960 0.3020
7.407000 0.3120 0.3240 0.3380 0.3380 0.3430
7.437946 0.3490 0.3540 0.3610 0.3710 0.3810
7.469000 0.3830 0.3880 0.3910 0.3920 0.3990
7.499946 0.3990 0.3910 0.3880 0.3780 0.3640
7.531000 0.3610 0.3540 0.3500 0.3440 0.3430
7.561946 0.3360 0.3350 0.3330 0.3330 0.3330
7.593000 0.3300 0.3290 0.3260 0.3220 0.3220
7.623946 0.3190 0.3190 0.3180 0.3160 0.3150
7.654000 0.3130 0.3130 0.3120 0.3100 0.3070
7.684946 0.3050 0.3040 0.3040 0.3040 0.3040
7.716000 0.3040 0.3040 0.3020 0.3020 0.3010
7.746946 0.2990 0.2910 0.2840 0.2740 0.2700
7.778000 0.2630 0.2630 0.2620 0.2600 0.2530
7.808946 0.2510 0.2480 0.2450 0.2430 0.2340
7.840000 0.2290 0.2180 0.2080 0.2010 0.2000
7.870946 0.1980 0.1890 0.1830 0.1810 0.1780
7.902000 0.1730 0.1720 0.1590 0.1490 0.1420
7.932946 0.1360 0.1330 0.1280 0.1240 0.1210
7.964000 0.1130 0.1040 0.1020 0.1000 0.1000
7.994946 0.1000 0.1000 0.1000 0.1000 0.1000
8.026000 0.1000 0.1000 0.1000 0.1000 0.1000
8.056946 0.1000 0.1020 0.1020 0.1040 0.1040
8.087000 0.1080 0.1130 0.1190 0.1270 0.1300
8.117946 0.1300 0.1300 0.1310 0.1310 0.1330
8.149000 0.1330 0.1330 0.1330 0.1330 0.1330
8.179946 0.1310 0.1330 0.1330 0.1350 0.1350
8.211000 0.1350 0.1330 0.1330 0.1330 0.1310
8.241946 0.1300 0.1270 0.1240 0.1220 0.1210
8.273000 0.1180 0.1130 0.1110 0.1100 0.1070
8.303946 0.1000 0.0970 0.0970 0.0940 0.0930
8.335000 0.0910 0.0830 0.0830 0.0820 0.0770
8.365946 0.0720 0.0690 0.0680 0.0680 0.0660
8.397000 0.0630 0.0630 0.0590 0.0550 0.0540
8.427946 0.0540 0.0510 0.0510 0.0490 0.0490
8.459000 0.0460 0.0450 0.0430 0.0410 0.0400
8.489946 0.0400 0.0380 0.0380 0.0380 0.0400
8.521000 0.0400 0.0410 0.0410 0.0410 0.0410
8.551946 0.0410 0.0410 0.0430 0.0450 0.0490
8.582000 0.0520 0.0570 0.0590 0.0630 0.0650
8.612946 0.0710 0.0770 0.0770 0.0820 0.0860
8.644000 0.0910 0.0990 0.1020 0.1100 0.1190
8.674946 0.1300 0.1330 0.1420 0.1580 0.1630
8.706000 0.1660 0.1700 0.1720 0.1810 0.1870
8.736946 0.2000 0.2010 0.2030 0.2040 0.2090
8.768000 0.2110 0.2110 0.2110 0.2120 0.2120
8.798946 0.2120 0.2120 0.2120 0.2120 0.2120
8.830000 0.2140 0.2180 0.2290 0.2340 0.2420
8.860946 0.2530 0.2600 0.2730 0.2840 0.2910
8.892000 0.3040 0.3220 0.3430 0.3600 0.3770
8.922946 0.3910 0.4020 0.4130 0.4300 0.4420
8.954000 0.4510 0.4580 0.4620 0.4620 0.4640
8.984946 0.4620 0.4560 0.4500 0.4280 0.4050
9.015000 0.3950 0.3780 0.3630 0.3500 0.3320
9.045946 0.3220 0.3120 0.3020 0.2930 0.2840
9.077000 0.2790 0.2770 0.2740 0.2740 0.2730
9.107946 0.2700 0.2700 0.2700 0.2700 0.2700
9.139000 0.2710 0.2730 0.2730 0.2730 0.2740
9.169946 0.2770 0.2820 0.2870 0.2910 0.2980
9.201000 0.2990 0.3020 0.3090 0.3180 0.3190
9.231946 0.3220 0.3300 0.3330 0.3380 0.3430
9.263000 0.3440 0.3490 0.3520 0.3540 0.3630
9.293946 0.3690 0.3740 0.3800 0.3810 0.3880
9.325000 0.3920 0.3990 0.4020 0.4050 0.4110
9.355946 0.4130 0.4140 0.4140 0.4160 0.4160
9.387000 0.4170 0.4190 0.4200 0.4220 0.4230
9.417946 0.4300 0.4330 0.4340 0.4400 0.4440
9.449000 0.4440 0.4440 0.4440 0.4440 0.4440
9.479946 0.4470 0.4480 0.4480 0.4500 0.4530
9.510000 0.4530 0.4530 0.4530 0.4530 0.4530
9.540946 0.4530 0.4530 0.4580 0.4610 0.4620
9.572000 0.4620 0.4620 0.4640 0.4640 0.4640
9.602946 0.4610 0.4640 0.4650 0.4670 0.4680
9.634000 0.4720 0.4730 0.4730 0.4730 0.4730
9.664946 0.4790 0.4810 0.4840 0.4890 0.4980
9.696000 0.4980 0.4930 0.4920 0.4900 0.4900
9.726946 0.4920 0.4920 0.4900 0.4900 0.4890
9.758000 0.4870 0.4840 0.4810 0.4780 0.4760
9.788946 0.4760 0.4730 0.4780 0.4780 0.4730
9.820000 0.4730 0.4720 0.4720 0.4700 0.4700
9.850946 0.4700 0.4680 0.4640 0.4620 0.4590
9.882000 0.4580 0.4560 0.4530 0.4530 0.4510
9.912946 0.4500 0.4500 0.4480 0.4480 0.4440
9.943000 0.4440 0.4510 0.4440 0.4420 0.4390
9.973946 0.4360 0.4360 0.4370 0.4390 0.4400
10.005000 0.4470 0.4470 0.4420 0.4420 0.4420
10.035946 0.4440 0.4440 0.4440 0.4470 0.4470
10.067000 0.4500 0.4500 0.4510 0.4510 0.4510
10.097946 0.4510 0.4530 0.4530 0.4530 0.4580
10.129000 0.4590 0.4620 0.4680 0.4700 0.4730
10.159946 0.4730 0.4760 0.4790 0.4790 0.4810
10.191000 0.4810 0.4860 0.4900 0.4930 0.4980
10.221946 0.5010 0.5030 0.5030 0.5030 0.5030
10.253000 0.5030 0.5090 0.5120 0.5210 0.5260
10.283946 0.5270 0.5290 0.5320 0.5370 0.5380
10.315000 0.5380 0.5380 0.5400 0.5430 0.5490
10.345946 0.5520 0.5520 0.5570 0.5600 0.5680
10.376000 0.5720 0.5790 0.5800 0.5800 0.5860
10.406946 0.5930 0.5990 0.6000 0.6020 0.6020
10.438000 0.6040 0.6100 0.6130 0.6160 0.6190
10.468946 0.6190 0.6210 0.6240 0.6240 0.6300
10.500000 0.6330 0.6330 0.6360 0.6390 0.6410
10.530946 0.6420 0.6440 0.6490 0.6500 0.6520
10.562000 0.6520 0.6530 0.6580 0.6630 0.6670
10.592946 0.6690 0.6700 0.6720 0.6720 0.6750
10.624000 0.6770 0.6800 0.6830 0.6840 0.6890
10.654946 0.6920 0.6920 0.6980 0.7010 0.7010
10.686000 0.7030 0.7030 0.7030 0.7040 0.7060
10.716946 0.7080 0.7090 0.7090 0.7110 0.7120
10.748000 0.7140 0.7170 0.7180 0.7180 0.7180
10.778946 0.7200 0.7200 0.7200 0.7200 0.7200
10.810000 0.7180 0.7180 0.7180 0.7200 0.7200
10.840946 0.7200 0.7200 0.7200 0.7180 0.7140
10.871000 0.7120 0.7110 0.7080 0.7060 0.7030
10.901946 0.7060 0.7090 0.7090 0.7090 0.7110
10.933000 0.7090 0.7090 0.7120 0.7120 0.7170
10.963946 0.7180 0.7220 0.7230 0.7260 0.7260
10.995000 0.7280 0.7280 0.7290 0.7310 0.7340
11.025946 0.7320 0.7320 0.7340 0.7340 0.7340
11.057000 0.7360 0.7360 0.7370 0.7390 0.7390
11.087946 0.7400 0.7430 0.7460 0.7480 0.7480
11.119000 0.7480 0.7460 0.7460 0.7450 0.7450
11.149946 0.7480 0.7480 0.7480 0.7480 0.7480
11.181000 0.7480 0.7480 0.7460 0.7480 0.7500
11.211946 0.7510 0.7530 0.7540 0.7570 0.7530
11.243000 0.7530 0.7530 0.7530 0.7530 0.7530
11.273946 0.7530 0.7540 0.7570 0.7570 0.7570
11.304000 0.7570 0.7590 0.7590 0.7600 0.7590
11.334946 0.7590 0.7570 0.7570 0.7570 0.7590
11.366000 0.7590 0.7590 0.7590 0.7590 0.7590
11.396946 0.7590 0.7600 0.7600 0.7620 0.7620
11.428000 0.7600 0.7600 0.7600 0.7600 0.7600
11.458946 0.7590 0.7590 0.7600 0.7620 0.7620
11.490000 0.7630 0.7630 0.7630 0.7630 0.7630
11.520946 0.7630 0.7630 0.7630 0.7620 0.7600
11.552000 0.7600 0.7630 0.7670 0.7670 0.7680
11.582946 0.7680 0.7680 0.7680 0.7700 0.7700
11.614000 0.7710 0.7730 0.7730 0.7730 0.7740
11.644946 0.7740 0.7760 0.7770 0.7820 0.7820
11.676000 0.7840 0.7840 0.7840 0.7840 0.7850
11.706946 0.7850 0.7850 0.7870 0.7870 0.7880
11.738000 0.7880 0.7880 0.7900 0.7900 0.7900
11.768946 0.7900 0.7900 0.7900 0.7900 0.7900
11.799000 0.7900 0.7930 0.7930 0.7900 0.7900
11.829946 0.7900 0.7900 0.7910 0.7910 0.7910
11.861000 0.7930 0.7930 0.7930 0.7930 0.7930
11.891946 0.7980 0.7980 0.7980 0.7980 0.7980
11.923000 0.7980 0.7980 0.7930 0.7980 0.7980
11.953946 0.7980 0.7980 0.7980 0.7980 0.7980
11.985000 0.7960 0.7960 0.7960 0.7980 0.8010
12.015946 0.7990 0.7990 0.7990 0.7990 0.7990
12.047000 0.7990 0.7990 0.7990 0.7990 0.8010
12.077946 0.8010 0.8010 0.7990 0.7990 0.7980
12.109000 0.7950 0.7950 0.7930 0.7930 0.7930
12.139946 0.7930 0.7930 0.7950 0.7950 0.7960
12.171000 0.7960 0.7960 0.7980 0.7980 0.7980
12.201946 0.7980 0.7990 0.7990 0.7990 0.7990
12.232000 0.8010 0.8010 0.7990 0.7990 0.7990
12.262946 0.8010 0.7990 0.7990 0.7990 0.7980
12.294000 0.7980 0.7980 0.7960 0.7980 0.7990
12.324946 0.7990 0.8010 0.8020 0.8020 0.8040
12.356000 0.8020 0.8040 0.8040 0.8050 0.8050
12.386946 0.8070 0.8070 0.8070 0.8070 0.8070
12.418000 0.8050 0.8050 0.8050 0.8070 0.8070
12.448946 0.8070 0.8090 0.8090 0.8090 0.8090
12.480000 0.8090 0.8070 0.8020 0.8020 0.8020
12.510946 0.8070 0.8090 0.8090 0.8090 0.8090
12.542000 0.8100 0.8100 0.8100 0.8100 0.8100
12.572946 0.8100 0.8090 0.8090 0.8070 0.8040
12.604000 0.8020 0.8010 0.8010 0.7990 0.7990
12.634946 0.7990 0.7990 0.7990 0.7990 0.7980
12.665000 0.7980 0.7980 0.7930 0.7910 0.7900
12.695946 0.7900 0.7880 0.7870 0.7870 0.7870
12.727000 0.7850 0.7820 0.7790 0.7770 0.7760
12.757946 0.7760 0.7760 0.7740 0.7710 0.7670
12.789000 0.7670 0.7650 0.7670 0.7670 0.7650
12.819946 0.7630 0.7630 0.7630 0.7620 0.7600
12.851000 0.7590 0.7590 0.7570 0.7530 0.7530
12.881946 0.7500 0.7500 0.7510 0.7510 0.7510
12.913000 0.7510 0.7510 0.7500 0.7500 0.7500
12.943946 0.7480 0.7480 0.7460 0.7460 0.7430
12.975000 0.7430 0.7460 0.7480 0.7480 0.7480
13.005946 0.7500 0.7500 0.7510 0.7530 0.7560
13.037000 0.7570 0.7590 0.7600 0.7600 0.7620
13.067946 0.7600 0.7600 0.7600 0.7600 0.7620
13.099000 0.7630 0.7630 0.7670 0.7630 0.7630
13.129946 0.7630 0.7630 0.7630 0.7670 0.7680
13.160000 0.7700 0.7700 0.7700 0.7700 0.7700
13.190946 0.7700 0.7700 0.7700 0.7700 0.7680
13.222000 0.7670 0.7680 0.7680 0.7680 0.7680
13.252946 0.7680 0.7680 0.7680 0.7680 0.7680
13.284000 0.7680 0.7680 0.7680 0.7680 0.7680
13.314946 0.7670 0.7670 0.7650 0.7650 0.7650
13.346000 0.7630 0.7630 0.7630 0.7620 0.7620
13.376946 0.7600 0.7600 0.7600 0.7600 0.7620
13.408000 0.7620 0.7620 0.7600 0.7600 0.7590
13.438946 0.7590 0.7530 0.7480 0.7460 0.7460
13.470000 0.7450 0.7430 0.7420 0.7420 0.7420
13.500946 0.7420 0.7400 0.7390 0.7390 0.7370
13.532000 0.7320 0.7310 0.7290 0.7280 0.7280
13.562946 0.7280 0.7280 0.7280 0.7250 0.7230
13.593000 0.7220 0.7220 0.7180 0.7150 0.7150
13.623946 0.7170 0.7170 0.7170 0.7150 0.7150
13.655000 0.7150 0.7140 0.7120 0.7120 0.7120
13.685946 0.7120 0.7120 0.7120 0.7110 0.7090
13.717000 0.7080 0.7030 0.7030 0.7010 0.7010
13.747946 0.7010 0.7000 0.7000 0.7000 0.7000
13.779000 0.7000 0.7010 0.7010 0.7010 0.7040
13.809946 0.7060 0.7080 0.7090 0.7120 0.7180
13.841000 0.7200 0.7230 0.7260 0.7290 0.7370
13.871946 0.7400 0.7430 0.7500 0.7530 0.7530
13.903000 0.7530 0.7600 0.7670 0.7730 0.7790
13.933946 0.7810 0.7820 0.7820 0.7820 0.7840
13.965000 0.7880 0.7900 0.7930 0.7960 0.7980
13.995946 0.7980 0.7990 0.8010 0.8020 0.8040
14.027000 0.8100 0.8120 0.8120 0.8120 0.8120
14.057946 0.8130 0.8130 0.8130 0.8150 0.8180
14.088000 0.8210 0.8220 0.8220 0.8220 0.8240
14.118946 0.8220 0.8240 0.8260 0.8270 0.8270
14.150000 0.8270 0.8270 0.8290 0.8300 0.8300
14.180946 0.8300 0.8300 0.8300 0.8300 0.8300
14.212000 0.8300 0.8320 0.8320 0.8320 0.8320
14.242946 0.8330 0.8330 0.8350 0.8350 0.8330
14.274000 0.8330 0.8380 0.8380 0.8380 0.8380
14.304946 0.8360 0.8330 0.8360 0.8360 0.8410
14.336000 0.8430 0.8430 0.8430 0.8430 0.8410
14.366946 0.8410 0.8430 0.8430 0.8430 0.8430
14.398000 0.8430 0.8440 0.8470 0.8470 0.8460
14.428946 0.8460 0.8460 0.8470 0.8490 0.8500
14.460000 0.8500 0.8490 0.8490 0.8470 0.8460
14.490946 0.8460 0.8470 0.8470 0.8470 0.8470
14.521000 0.8470 0.8470 0.8470 0.8470 0.8470
14.551946 0.8470 0.8470 0.8470 0.8470 0.8470
14.583000 0.8470 0.8470 0.8470 0.8470 0.8470
14.613946 0.8470 0.8470 0.8460 0.8460 0.8460
14.645000 0.8440 0.8440 0.8430 0.8430 0.8430
14.675946 0.8430 0.8430 0.8430 0.8430 0.8460
14.707000 0.8460 0.8460 0.8460 0.8460 0.8460
14.737946 0.8470 0.8490 0.8490 0.8490 0.8490
14.769000 0.8470 0.8470 0.8460 0.8460 0.8460
14.799946 0.8440 0.8430 0.8410 0.8400 0.8400
14.831000 0.8400 0.8380 0.8380 0.8380 0.8380
14.861946 0.8380 0.8400 0.8400 0.8380 0.8380
14.893000 0.8380 0.8380 0.8380 0.8400 0.8380
14.923946 0.8380 0.8360 0.8330 0.8320 0.8300
14.954000 0.8300 0.8300 0.8270 0.8220 0.8210
14.984946 0.8160 0.8120 0.8090 0.8070 0.8050
15.016000 0.8040 0.8040 0.8040 0.8040 0.8020
15.046946 0.7990 0.7980 0.7930 0.7910 0.7900
15.078000 0.7900 0.7910 0.7930 0.7980 0.8010
15.108946 0.8070 0.8100 0.8120 0.8120 0.8130
15.140000 0.8130 0.8130 0.8130 0.8130 0.8130
15.170946 0.8130 0.8130 0.8150 0.8150 0.8150
15.202000 0.8120 0.8090 0.8050 0.8040 0.8010
15.232946 0.8010 0.8010 0.7990 0.7990 0.7980
15.264000 0.7950 0.7910 0.7900 0.7910 0.7930
15.294946 0.7950 0.7980 0.7980 0.7980 0.7980
15.326000 0.7980 0.7930 0.7910 0.7910 0.7900
15.356946 0.7870 0.7840 0.7850 0.7850 0.7850
15.388000 0.7850 0.7850 0.7840 0.7820 0.7790
15.418946 0.7760 0.7730 0.7730 0.7730 0.7710
15.449000 0.7700 0.7680 0.7670 0.7650 0.7650
15.479946 0.7670 0.7670 0.7670 0.7670 0.7670
15.511000 0.7650 0.7650 0.7650 0.7630 0.7620
15.541946 0.7600 0.7590 0.7570 0.7590 0.7590
15.573000 0.7590 0.7570 0.7560 0.7560 0.7540
15.603946 0.7510 0.7480 0.7480 0.7500 0.7500
15.635000 0.7480 0.7460 0.7460 0.7460 0.7430
15.665946 0.7430 0.7420 0.7420 0.7420 0.7400
15.697000 0.7390 0.7370 0.7360 0.7360 0.7390
15.727946 0.7360 0.7320 0.7310 0.7310 0.7310
15.759000 0.7290 0.7290 0.7290 0.7280 0.7280
15.789946 0.7260 0.7260 0.7250 0.7250 0.7250
15.821000 0.7250 0.7220 0.7220 0.7200 0.7180
15.851946 0.7170 0.7150 0.7140 0.7120 0.7120
15.882000 0.7120 0.7120 0.7120 0.7120 0.7110
15.912946 0.7080 0.7030 0.7010 0.7010 0.7000
15.944000 0.7000 0.6980 0.6980 0.7000 0.7000
15.974946 0.7010 0.7010 0.7010 0.7000 0.7030
16.006000 0.7030
##END=
