##TITLE=SODIUM HEPTAFLUOZIRCONATE IV
$$ B+A REAGENT GRADE
##JCAMP-DX=4.24
##DATA TYPE=INFRARED SPECTRUM
##CLASS=COBLENTZ
##ORIGIN=WYANDOTTE CHEMICALS CORP., WYANDOTTE, MICHIGAN, USA
##OWNER=COBLENTZ SOCIETY
Collection (C) 2018 copyright by the U.S. Secretary of Commerce
on behalf of the United States of America. All rights reserved.
##DATE=Not specified, most likely prior to 1970
##MOLFORM=Na3 Zr F7
##SOURCE REFERENCE=COBLENTZ NO. 1434
##$NIST ID=B6001434
##$NIST SOURCE=COBLENTZ
##$NIST IMAGE=cob1434
##SPECTROMETER/DATA SYSTEM=Not specified, most likely a prism, grating, or hybrid spectrometer.
##STATE=SOLID (MINERAL OIL MULL)
##PATH LENGTH=
$$SPECTRAL CONTAMINATION DUE TO OIL AROUND 2900, 1450, 1380 CM^-^1
##SAMPLING PROCEDURE=TRANSMISSION
##RESOLUTION=4
##DATA PROCESSING=DIGITIZED BY NIST FROM HARD COPY
##XUNITS=MICROMETERS
##YUNITS=TRANSMITTANCE
##XFACTOR=1.000000
##YFACTOR=1
##DELTAX=000.006823
##FIRSTX=2
##LASTX=15.9658
##FIRSTY=0.811
##MAXX=15.9658
##MINX=2
##MAXY=0.95
##MINY=0.071
##NPOINTS=2048
##XYDATA=(X++(Y..Y))
2.000000 0.8110 0.8110 0.8100 0.8080 0.8080
2.034130 0.8060 0.8050 0.8050 0.8050 0.8030
2.068000 0.8030 0.8030 0.8010 0.8010 0.8010
2.102130 0.8010 0.8010 0.8010 0.8010 0.8010
2.136000 0.8030 0.8030 0.8030 0.8030 0.8030
2.170130 0.8050 0.8050 0.8050 0.8050 0.8060
2.205000 0.8080 0.8080 0.8100 0.8080 0.8080
2.239130 0.8100 0.8080 0.8080 0.8080 0.8080
2.273000 0.8080 0.8080 0.8100 0.8100 0.8100
2.307130 0.8100 0.8100 0.8080 0.8080 0.8080
2.341000 0.8080 0.8080 0.8080 0.8080 0.8080
2.375130 0.8080 0.8080 0.8080 0.8080 0.8100
2.409000 0.8110 0.8110 0.8130 0.8130 0.8150
2.443130 0.8150 0.8130 0.8110 0.8110 0.8130
2.478000 0.8130 0.8150 0.8150 0.8150 0.8150
2.512130 0.8150 0.8170 0.8170 0.8170 0.8180
2.546000 0.8200 0.8200 0.8220 0.8230 0.8250
2.580130 0.8270 0.8270 0.8290 0.8290 0.8300
2.614000 0.8300 0.8300 0.8320 0.8320 0.8340
2.648130 0.8340 0.8340 0.8350 0.8350 0.8350
2.682000 0.8350 0.8370 0.8350 0.8350 0.8350
2.716130 0.8390 0.8390 0.8390 0.8390 0.8390
2.750000 0.8390 0.8390 0.8390 0.8390 0.8390
2.784130 0.8410 0.8410 0.8410 0.8410 0.8410
2.819000 0.8410 0.8410 0.8410 0.8410 0.8390
2.853130 0.8390 0.8390 0.8370 0.8350 0.8350
2.887000 0.8340 0.8340 0.8320 0.8290 0.8250
2.921130 0.8220 0.8220 0.8220 0.8200 0.8180
2.955000 0.8150 0.8130 0.8110 0.8100 0.8100
2.989130 0.8100 0.8080 0.8060 0.8060 0.8050
3.023000 0.8050 0.8030 0.8030 0.8030 0.8030
3.057130 0.8030 0.8030 0.8030 0.8030 0.8030
3.092000 0.8050 0.8050 0.8050 0.8060 0.8060
3.126130 0.8060 0.8060 0.8050 0.8050 0.8050
3.160000 0.8050 0.8050 0.8050 0.8050 0.8030
3.194130 0.8050 0.8050 0.8050 0.8050 0.8050
3.228000 0.8050 0.8050 0.8050 0.8050 0.8050
3.262130 0.8030 0.8030 0.8030 0.8010 0.8010
3.296000 0.8000 0.7980 0.7880 0.7810 0.7700
3.330130 0.7550 0.7360 0.7090 0.6750 0.6320
3.365000 0.5810 0.5160 0.4390 0.3670 0.3040
3.399130 0.2510 0.2110 0.1790 0.1550 0.1380
3.433000 0.1230 0.1110 0.0990 0.0880 0.0760
3.467130 0.0730 0.0710 0.0750 0.0800 0.0850
3.501000 0.0870 0.0870 0.0870 0.0870 0.0870
3.535130 0.0850 0.0850 0.0870 0.1810 0.2410
3.569000 0.3000 0.3600 0.4200 0.4800 0.5110
3.603130 0.5400 0.5980 0.6460 0.6710 0.6870
3.637000 0.6990 0.7070 0.7170 0.7310 0.7400
3.671130 0.7450 0.7480 0.7500 0.7520 0.7530
3.706000 0.7570 0.7600 0.7620 0.7640 0.7670
3.740130 0.7700 0.7740 0.7770 0.7790 0.7790
3.774000 0.7810 0.7840 0.7880 0.7910 0.7940
3.808130 0.7980 0.8000 0.8010 0.8030 0.8100
3.842000 0.8110 0.8150 0.8170 0.8180 0.8200
3.876130 0.8200 0.8200 0.8200 0.8220 0.8230
3.910000 0.8270 0.8290 0.8320 0.8350 0.8390
3.944130 0.8410 0.8420 0.8460 0.8490 0.8490
3.979000 0.8510 0.8520 0.8540 0.8560 0.8560
4.013130 0.8590 0.8590 0.8590 0.8590 0.8610
4.047000 0.8610 0.8610 0.8610 0.8610 0.8640
4.081130 0.8640 0.8660 0.8660 0.8680 0.8680
4.115000 0.8680 0.8700 0.8700 0.8700 0.8700
4.149130 0.8700 0.8700 0.8700 0.8710 0.8710
4.183000 0.8710 0.8710 0.8730 0.8730 0.8710
4.217130 0.8700 0.8710 0.8730 0.8730 0.8730
4.251000 0.8730 0.8730 0.8730 0.8750 0.8750
4.285130 0.8750 0.8780 0.8820 0.8830 0.8850
4.320000 0.8870 0.8880 0.8880 0.8900 0.8950
4.354130 0.8990 0.9000 0.9020 0.9020 0.9040
4.388000 0.9040 0.9050 0.9050 0.9070 0.9070
4.422130 0.9070 0.9070 0.9070 0.9070 0.9070
4.456000 0.9070 0.9070 0.9070 0.9070 0.9070
4.490130 0.9070 0.9070 0.9070 0.9070 0.9070
4.524000 0.9070 0.9070 0.9070 0.9070 0.9070
4.558130 0.9070 0.9090 0.9090 0.9120 0.9120
4.593000 0.9120 0.9120 0.9120 0.9120 0.9140
4.627130 0.9160 0.9160 0.9160 0.9160 0.9160
4.661000 0.9170 0.9160 0.9160 0.9160 0.9160
4.695130 0.9160 0.9170 0.9170 0.9190 0.9190
4.729000 0.9190 0.9210 0.9210 0.9230 0.9230
4.763130 0.9230 0.9230 0.9230 0.9230 0.9230
4.797000 0.9240 0.9240 0.9240 0.9240 0.9240
4.831130 0.9240 0.9240 0.9240 0.9240 0.9240
4.865000 0.9240 0.9240 0.9240 0.9240 0.9240
4.899130 0.9240 0.9240 0.9240 0.9240 0.9240
4.934000 0.9240 0.9240 0.9260 0.9240 0.9260
4.968130 0.9260 0.9260 0.9280 0.9280 0.9290
5.002000 0.9290 0.9290 0.9290 0.9310 0.9310
5.036130 0.9310 0.9330 0.9330 0.9330 0.9330
5.070000 0.9350 0.9350 0.9350 0.9350 0.9330
5.104130 0.9310 0.9310 0.9330 0.9380 0.9380
5.138000 0.9360 0.9350 0.9350 0.9330 0.9330
5.172130 0.9330 0.9330 0.9330 0.9330 0.9330
5.207000 0.9350 0.9380 0.9380 0.9380 0.9380
5.241130 0.9380 0.9380 0.9380 0.9380 0.9380
5.275000 0.9380 0.9380 0.9380 0.9380 0.9380
5.309130 0.9380 0.9360 0.9380 0.9380 0.9380
5.343000 0.9380 0.9380 0.9380 0.9380 0.9380
5.377130 0.9380 0.9380 0.9380 0.9380 0.9380
5.411000 0.9380 0.9380 0.9380 0.9400 0.9400
5.445130 0.9400 0.9400 0.9410 0.9410 0.9410
5.480000 0.9400 0.9410 0.9410 0.9410 0.9410
5.514130 0.9410 0.9410 0.9410 0.9430 0.9450
5.548000 0.9450 0.9470 0.9480 0.9480 0.9500
5.582130 0.9500 0.9500 0.9500 0.9500 0.9500
5.616000 0.9500 0.9500 0.9500 0.9500 0.9500
5.650130 0.9500 0.9500 0.9500 0.9500 0.9500
5.684000 0.9500 0.9470 0.9470 0.9470 0.9450
5.718130 0.9430 0.9430 0.9410 0.9380 0.9360
5.752000 0.9330 0.9310 0.9290 0.9280 0.9260
5.786130 0.9230 0.9170 0.9160 0.9140 0.9120
5.821000 0.9110 0.9110 0.9090 0.9070 0.9050
5.855130 0.9020 0.9000 0.8990 0.8990 0.8990
5.889000 0.8970 0.8950 0.8880 0.8830 0.8780
5.923130 0.8730 0.8680 0.8640 0.8590 0.8540
5.957000 0.8490 0.8470 0.8470 0.8470 0.8470
5.991130 0.8470 0.8470 0.8490 0.8490 0.8510
6.025000 0.8510 0.8520 0.8520 0.8540 0.8540
6.059130 0.8540 0.8560 0.8580 0.8590 0.8590
6.094000 0.8590 0.8590 0.8580 0.8580 0.8580
6.128130 0.8580 0.8580 0.8580 0.8580 0.8580
6.162000 0.8590 0.8610 0.8630 0.8640 0.8640
6.196130 0.8680 0.8710 0.8710 0.8730 0.8750
6.230000 0.8760 0.8780 0.8820 0.8870 0.8880
6.264130 0.8900 0.8920 0.8940 0.8940 0.8950
6.298000 0.8950 0.8950 0.8970 0.8970 0.8970
6.332130 0.8990 0.8990 0.8990 0.9000 0.9000
6.366000 0.9020 0.9040 0.9040 0.9050 0.9050
6.400130 0.9090 0.9110 0.9110 0.9110 0.9110
6.435000 0.9110 0.9110 0.9090 0.9090 0.9090
6.469130 0.9090 0.9070 0.9070 0.9070 0.9070
6.503000 0.9050 0.9050 0.9040 0.9020 0.9000
6.537130 0.8990 0.8990 0.8990 0.8970 0.8950
6.571000 0.8950 0.8950 0.8950 0.8990 0.8990
6.605130 0.8970 0.8970 0.8950 0.8940 0.8920
6.639000 0.8900 0.8900 0.8900 0.8880 0.8870
6.673130 0.8830 0.8820 0.8750 0.8660 0.8540
6.708000 0.8460 0.8420 0.8320 0.8250 0.8130
6.742130 0.7960 0.7760 0.7500 0.7170 0.6780
6.776000 0.6300 0.5760 0.4630 0.4230 0.3840
6.810130 0.3720 0.3600 0.3480 0.3350 0.3330
6.844000 0.3350 0.3380 0.3470 0.3550 0.3690
6.878130 0.3820 0.4000 0.4200 0.4470 0.4800
6.912000 0.4920 0.5040 0.5260 0.5480 0.5720
6.946130 0.5960 0.6200 0.6440 0.6660 0.6900
6.981000 0.7120 0.7330 0.7530 0.7700 0.7860
7.015130 0.8000 0.8100 0.8170 0.8220 0.8300
7.049000 0.8350 0.8390 0.8410 0.8460 0.8470
7.083130 0.8490 0.8510 0.8520 0.8540 0.8540
7.117000 0.8540 0.8560 0.8560 0.8560 0.8540
7.151130 0.8510 0.8470 0.8420 0.8410 0.8320
7.185000 0.8220 0.8110 0.8000 0.7860 0.7690
7.219130 0.7480 0.7260 0.6990 0.6640 0.6230
7.253000 0.6010 0.5600 0.5330 0.5190 0.5190
7.287130 0.5230 0.5640 0.6000 0.6230 0.6410
7.322000 0.6520 0.6660 0.6850 0.6940 0.7070
7.356130 0.7210 0.7360 0.7500 0.7580 0.7620
7.390000 0.7690 0.7740 0.7770 0.7810 0.7820
7.424130 0.7860 0.7880 0.7890 0.7910 0.7930
7.458000 0.7940 0.7960 0.7960 0.8000 0.8010
7.492130 0.8060 0.8080 0.8100 0.8130 0.8180
7.526000 0.8220 0.8250 0.8270 0.8300 0.8320
7.560130 0.8340 0.8370 0.8370 0.8390 0.8390
7.595000 0.8390 0.8410 0.8410 0.8410 0.8390
7.629130 0.8390 0.8370 0.8340 0.8340 0.8320
7.663000 0.8320 0.8320 0.8320 0.8340 0.8340
7.697130 0.8340 0.8340 0.8340 0.8350 0.8350
7.731000 0.8350 0.8350 0.8370 0.8370 0.8370
7.765130 0.8370 0.8390 0.8390 0.8390 0.8390
7.799000 0.8410 0.8410 0.8410 0.8410 0.8420
7.833130 0.8420 0.8420 0.8420 0.8410 0.8420
7.867000 0.8410 0.8410 0.8390 0.8390 0.8370
7.901130 0.8350 0.8350 0.8350 0.8350 0.8390
7.936000 0.8390 0.8390 0.8390 0.8390 0.8390
7.970130 0.8370 0.8370 0.8350 0.8340 0.8320
8.004000 0.8300 0.8300 0.8270 0.8290 0.8270
8.038130 0.8250 0.8250 0.8250 0.8220 0.8200
8.072000 0.8170 0.8150 0.8060 0.8050 0.8030
8.106130 0.8000 0.8000 0.7980 0.7980 0.7980
8.140000 0.7960 0.7940 0.7930 0.7910 0.7890
8.174130 0.7890 0.7890 0.7890 0.7890 0.7890
8.209000 0.7890 0.7880 0.7880 0.7880 0.7880
8.243130 0.7880 0.7880 0.7880 0.7860 0.7860
8.277000 0.7840 0.7840 0.7820 0.7820 0.7820
8.311130 0.7820 0.7840 0.7840 0.7880 0.7890
8.345000 0.7910 0.7940 0.7960 0.7980 0.8000
8.379130 0.8010 0.8030 0.8030 0.8030 0.8030
8.413000 0.8030 0.8030 0.8030 0.8030 0.8030
8.447130 0.8030 0.8010 0.8010 0.8010 0.8010
8.481000 0.8010 0.8010 0.8010 0.8010 0.8010
8.515130 0.8010 0.8010 0.8000 0.8000 0.7980
8.550000 0.7980 0.7960 0.7960 0.7960 0.7960
8.584130 0.7960 0.7980 0.7980 0.7980 0.7980
8.618000 0.7980 0.7960 0.7960 0.7930 0.7930
8.652130 0.7910 0.7910 0.7910 0.7910 0.7910
8.686000 0.7930 0.7930 0.7930 0.7940 0.7940
8.720130 0.7940 0.7940 0.7940 0.7940 0.7940
8.754000 0.7940 0.7940 0.7940 0.7940 0.7930
8.788130 0.7930 0.7930 0.7890 0.7880 0.7880
8.823000 0.7880 0.7880 0.7860 0.7860 0.7860
8.857130 0.7860 0.7860 0.7840 0.7840 0.7860
8.891000 0.7860 0.7860 0.7860 0.7860 0.7840
8.925130 0.7810 0.7770 0.7760 0.7720 0.7690
8.959000 0.7690 0.7670 0.7650 0.7650 0.7640
8.993130 0.7620 0.7640 0.7620 0.7620 0.7600
9.027000 0.7600 0.7600 0.7580 0.7580 0.7580
9.061130 0.7580 0.7580 0.7580 0.7580 0.7580
9.096000 0.7580 0.7580 0.7580 0.7580 0.7580
9.130130 0.7580 0.7620 0.7640 0.7640 0.7650
9.164000 0.7650 0.7650 0.7650 0.7650 0.7690
9.198130 0.7720 0.7760 0.7760 0.7770 0.7770
9.232000 0.7770 0.7770 0.7770 0.7770 0.7770
9.266130 0.7770 0.7790 0.7790 0.7790 0.7810
9.300000 0.7810 0.7810 0.7790 0.7790 0.7790
9.334130 0.7790 0.7790 0.7790 0.7790 0.7790
9.368000 0.7810 0.7810 0.7840 0.7880 0.7890
9.402130 0.7910 0.7930 0.7940 0.7940 0.7960
9.437000 0.7960 0.7960 0.7980 0.7980 0.8000
9.471130 0.8000 0.8000 0.8000 0.8000 0.8000
9.505000 0.8000 0.7980 0.7960 0.7960 0.7960
9.539130 0.7940 0.7940 0.7940 0.7940 0.7930
9.573000 0.7930 0.7930 0.7910 0.7910 0.7890
9.607130 0.7890 0.7880 0.7880 0.7860 0.7860
9.641000 0.7840 0.7820 0.7840 0.7840 0.7840
9.675130 0.7840 0.7840 0.7840 0.7840 0.7820
9.710000 0.7810 0.7810 0.7810 0.7790 0.7790
9.744130 0.7790 0.7790 0.7770 0.7770 0.7770
9.778000 0.7770 0.7770 0.7770 0.7770 0.7770
9.812130 0.7770 0.7770 0.7770 0.7770 0.7770
9.846000 0.7790 0.7810 0.7820 0.7840 0.7860
9.880130 0.7880 0.7880 0.7890 0.7930 0.7940
9.914000 0.7960 0.7980 0.8000 0.8030 0.8050
9.948130 0.8060 0.8080 0.8100 0.8110 0.8130
9.982000 0.8110 0.8100 0.8100 0.8110 0.8110
10.016130 0.8130 0.8130 0.8130 0.8150 0.8150
10.051000 0.8170 0.8170 0.8170 0.8170 0.8170
10.085130 0.8170 0.8170 0.8170 0.8170 0.8150
10.119000 0.8150 0.8150 0.8150 0.8150 0.8150
10.153130 0.8150 0.8150 0.8150 0.8150 0.8150
10.187000 0.8150 0.8130 0.8110 0.8110 0.8080
10.221130 0.8100 0.8100 0.8100 0.8100 0.8100
10.255000 0.8100 0.8100 0.8080 0.8060 0.8060
10.289130 0.8060 0.8060 0.8060 0.8060 0.8060
10.324000 0.8060 0.8060 0.8060 0.8060 0.8060
10.358130 0.8060 0.8060 0.8060 0.8050 0.8060
10.392000 0.8060 0.8080 0.8060 0.8060 0.8060
10.426130 0.8060 0.8060 0.8060 0.8060 0.8050
10.460000 0.8030 0.8010 0.8010 0.8010 0.8030
10.494130 0.8050 0.8060 0.8080 0.8080 0.8100
10.528000 0.8100 0.8100 0.8100 0.8100 0.8100
10.562130 0.8080 0.8080 0.8080 0.8060 0.8060
10.596000 0.8060 0.8060 0.8060 0.8060 0.8060
10.630130 0.8060 0.8060 0.8060 0.8080 0.8100
10.665000 0.8100 0.8100 0.8100 0.8100 0.8080
10.699130 0.8080 0.8060 0.8080 0.8050 0.8060
10.733000 0.8060 0.8060 0.8060 0.8060 0.8060
10.767130 0.8060 0.8060 0.8060 0.8050 0.8050
10.801000 0.8050 0.8030 0.8030 0.8030 0.8030
10.835130 0.8030 0.8030 0.8010 0.8010 0.8010
10.869000 0.8010 0.8010 0.8010 0.8030 0.8030
10.903130 0.8030 0.8050 0.8050 0.8050 0.8050
10.938000 0.8060 0.8050 0.8030 0.8050 0.8050
10.972130 0.8050 0.8050 0.8060 0.8060 0.8060
11.006000 0.8060 0.8060 0.8080 0.8050 0.8050
11.040130 0.8060 0.8080 0.8080 0.8080 0.8080
11.074000 0.8080 0.8080 0.8060 0.8060 0.8060
11.108130 0.8060 0.8060 0.8080 0.8080 0.8080
11.142000 0.8080 0.8100 0.8130 0.8150 0.8150
11.176130 0.8150 0.8130 0.8110 0.8100 0.8080
11.211000 0.8060 0.8060 0.8060 0.8060 0.8060
11.245130 0.8060 0.8060 0.8060 0.8060 0.8060
11.279000 0.8080 0.8080 0.8100 0.8100 0.8080
11.313130 0.8100 0.8100 0.8110 0.8130 0.8130
11.347000 0.8130 0.8110 0.8110 0.8110 0.8110
11.381130 0.8110 0.8110 0.8110 0.8100 0.8130
11.415000 0.8130 0.8130 0.8130 0.8130 0.8150
11.449130 0.8150 0.8170 0.8170 0.8170 0.8170
11.483000 0.8170 0.8170 0.8170 0.8170 0.8170
11.517130 0.8170 0.8170 0.8170 0.8170 0.8170
11.552000 0.8170 0.8170 0.8180 0.8220 0.8230
11.586130 0.8220 0.8230 0.8230 0.8200 0.8200
11.620000 0.8200 0.8220 0.8220 0.8220 0.8220
11.654130 0.8220 0.8200 0.8180 0.8170 0.8170
11.688000 0.8170 0.8150 0.8150 0.8150 0.8150
11.722130 0.8150 0.8150 0.8150 0.8130 0.8150
11.756000 0.8130 0.8110 0.8100 0.8100 0.8100
11.790130 0.8100 0.8100 0.8100 0.8110 0.8110
11.825000 0.8130 0.8150 0.8130 0.8150 0.8170
11.859130 0.8170 0.8170 0.8170 0.8170 0.8170
11.893000 0.8170 0.8150 0.8150 0.8150 0.8150
11.927130 0.8150 0.8130 0.8110 0.8110 0.8080
11.961000 0.8080 0.8080 0.8080 0.8100 0.8150
11.995130 0.8150 0.8150 0.8130 0.8110 0.8110
12.029000 0.8110 0.8110 0.8110 0.8100 0.8110
12.063130 0.8110 0.8110 0.8110 0.8110 0.8100
12.097000 0.8100 0.8100 0.8100 0.8080 0.8080
12.131130 0.8080 0.8080 0.8080 0.8080 0.8100
12.166000 0.8110 0.8110 0.8110 0.8110 0.8130
12.200130 0.8130 0.8130 0.8130 0.8110 0.8100
12.234000 0.8100 0.8080 0.8080 0.8080 0.8080
12.268130 0.8100 0.8080 0.8060 0.8050 0.8030
12.302000 0.8030 0.8030 0.8010 0.8000 0.8000
12.336130 0.7980 0.7980 0.7980 0.7960 0.7960
12.370000 0.7940 0.7940 0.7940 0.7930 0.7890
12.404130 0.7860 0.7820 0.7770 0.7760 0.7740
12.439000 0.7720 0.7690 0.7670 0.7640 0.7600
12.473130 0.7580 0.7570 0.7550 0.7530 0.7520
12.507000 0.7480 0.7480 0.7470 0.7470 0.7450
12.541130 0.7430 0.7400 0.7380 0.7380 0.7380
12.575000 0.7360 0.7360 0.7330 0.7280 0.7230
12.609130 0.7190 0.7120 0.7090 0.7090 0.7070
12.643000 0.7050 0.6990 0.6940 0.6880 0.6830
12.677130 0.6760 0.6710 0.6680 0.6640 0.6580
12.712000 0.6490 0.6440 0.6370 0.6340 0.6290
12.746130 0.6230 0.6170 0.6080 0.6010 0.5960
12.780000 0.5910 0.5840 0.5790 0.5740 0.5670
12.814130 0.5620 0.5520 0.5470 0.5430 0.5380
12.848000 0.5350 0.5290 0.5240 0.5170 0.5120
12.882130 0.5070 0.5020 0.4920 0.4850 0.4780
12.916000 0.4730 0.4660 0.4640 0.4630 0.4580
12.950130 0.4560 0.4520 0.4490 0.4460 0.4440
12.984000 0.4410 0.4350 0.4300 0.4250 0.4180
13.018130 0.4150 0.4100 0.4080 0.4060 0.3980
13.053000 0.3940 0.3910 0.3880 0.3840 0.3770
13.087130 0.3740 0.3700 0.3650 0.3620 0.3570
13.121000 0.3530 0.3470 0.3430 0.3400 0.3380
13.155130 0.3360 0.3350 0.3310 0.3240 0.3230
13.189000 0.3210 0.3170 0.3070 0.3020 0.2990
13.223130 0.2990 0.2970 0.2950 0.2940 0.2920
13.257000 0.2870 0.2850 0.2830 0.2800 0.2780
13.291130 0.2760 0.2730 0.2680 0.2660 0.2640
13.326000 0.2590 0.2580 0.2540 0.2540 0.2520
13.360130 0.2520 0.2510 0.2490 0.2470 0.2470
13.394000 0.2460 0.2440 0.2440 0.2420 0.2420
13.428130 0.2410 0.2410 0.2410 0.2390 0.2390
13.462000 0.2390 0.2390 0.2410 0.2410 0.2410
13.496130 0.2410 0.2410 0.2420 0.2460 0.2490
13.530000 0.2510 0.2540 0.2580 0.2610 0.2640
13.564130 0.2710 0.2800 0.2830 0.2850 0.2880
13.598000 0.2900 0.2950 0.3020 0.3090 0.3160
13.632130 0.3190 0.3260 0.3260 0.3290 0.3350
13.667000 0.3380 0.3450 0.3480 0.3520 0.3580
13.701130 0.3580 0.3620 0.3690 0.3760 0.3810
13.735000 0.3860 0.3880 0.3980 0.4010 0.4100
13.769130 0.4150 0.4180 0.4220 0.4230 0.4270
13.803000 0.4300 0.4340 0.4370 0.4420 0.4460
13.837130 0.4510 0.4540 0.4590 0.4630 0.4680
13.871000 0.4710 0.4750 0.4780 0.4830 0.4850
13.905130 0.4920 0.4940 0.4950 0.4970 0.5000
13.940000 0.5020 0.5140 0.5190 0.5230 0.5280
13.974130 0.5330 0.5380 0.5450 0.5520 0.5580
14.008000 0.5640 0.5670 0.5740 0.5810 0.5840
14.042130 0.5860 0.5890 0.5960 0.6030 0.6060
14.076000 0.6110 0.6170 0.6180 0.6200 0.6250
14.110130 0.6290 0.6320 0.6340 0.6370 0.6440
14.144000 0.6460 0.6470 0.6490 0.6560 0.6590
14.178130 0.6660 0.6680 0.6730 0.6760 0.6760
14.212000 0.6760 0.6780 0.6780 0.6820 0.6850
14.246130 0.6850 0.6880 0.6940 0.6950 0.6950
14.281000 0.6970 0.6990 0.6990 0.7020 0.7020
14.315130 0.7040 0.7040 0.7050 0.7050 0.7070
14.349000 0.7110 0.7120 0.7140 0.7140 0.7160
14.383130 0.7160 0.7160 0.7170 0.7190 0.7210
14.417000 0.7230 0.7230 0.7230 0.7260 0.7280
14.451130 0.7290 0.7310 0.7350 0.7360 0.7360
14.485000 0.7360 0.7360 0.7360 0.7360 0.7360
14.519130 0.7380 0.7360 0.7350 0.7350 0.7330
14.554000 0.7330 0.7310 0.7310 0.7310 0.7310
14.588130 0.7310 0.7290 0.7310 0.7310 0.7310
14.622000 0.7350 0.7350 0.7350 0.7350 0.7350
14.656130 0.7360 0.7360 0.7360 0.7360 0.7360
14.690000 0.7360 0.7360 0.7380 0.7380 0.7380
14.724130 0.7380 0.7380 0.7380 0.7380 0.7380
14.758000 0.7380 0.7380 0.7380 0.7380 0.7380
14.792130 0.7360 0.7360 0.7350 0.7350 0.7350
14.827000 0.7350 0.7350 0.7350 0.7350 0.7350
14.861130 0.7350 0.7350 0.7350 0.7350 0.7350
14.895000 0.7360 0.7350 0.7350 0.7350 0.7350
14.929130 0.7350 0.7330 0.7330 0.7330 0.7330
14.963000 0.7330 0.7330 0.7330 0.7330 0.7310
14.997130 0.7310 0.7290 0.7290 0.7280 0.7280
15.031000 0.7260 0.7240 0.7230 0.7230 0.7210
15.065130 0.7210 0.7190 0.7170 0.7160 0.7160
15.099000 0.7140 0.7140 0.7140 0.7140 0.7140
15.133130 0.7120 0.7120 0.7120 0.7120 0.7120
15.168000 0.7120 0.7120 0.7120 0.7120 0.7120
15.202130 0.7110 0.7110 0.7110 0.7110 0.7110
15.236000 0.7110 0.7110 0.7110 0.7110 0.7110
15.270130 0.7090 0.7090 0.7090 0.7090 0.7090
15.304000 0.7090 0.7090 0.7090 0.7090 0.7090
15.338130 0.7090 0.7090 0.7090 0.7090 0.7090
15.372000 0.7090 0.7090 0.7090 0.7090 0.7090
15.406130 0.7090 0.7090 0.7110 0.7110 0.7110
15.441000 0.7110 0.7110 0.7110 0.7110 0.7110
15.475130 0.7110 0.7110 0.7090 0.7090 0.7070
15.509000 0.7070 0.7070 0.7070 0.7050 0.7050
15.543130 0.7050 0.7050 0.7040 0.7040 0.7040
15.577000 0.7040 0.7050 0.7050 0.7050 0.7040
15.611130 0.7040 0.7040 0.7040 0.7040 0.7020
15.645000 0.7020 0.7000 0.7000 0.7000 0.6990
15.679130 0.6970 0.6970 0.6970 0.6950 0.6950
15.713000 0.6940 0.6940 0.6920 0.6920 0.6920
15.747130 0.6920 0.6920 0.6900 0.6900 0.6880
15.782000 0.6880 0.6870 0.6850 0.6850 0.6830
15.816130 0.6830 0.6830 0.6820 0.6820 0.6820
15.850000 0.6820 0.6820 0.6820 0.6820 0.6820
15.884130 0.6820 0.6820 0.6820 0.6820 0.6800
15.918000 0.6800 0.6780 0.6780 0.6780 0.6780
15.952130 0.6780 0.6780 0.6760
##END=
