##TITLE=DEXTROMETHORPHAN, HYDROBROMIDE
##JCAMP-DX=4.24
$$ By DXEDIT 1.05 (RS McDonald)
##DATA TYPE=INFRARED SPECTRUM
##CLASS=COBLENTZ III
##OWNER=COBLENTZ SOC.
Collection (C) 2018 copyright by the U.S. Secretary of Commerce
on behalf of the United States of America. All rights reserved.
##DATE=1964/05/21
##NAMES=1,3-METHOXY-N-METHYLMORPHINAN HYDROBROMIDE MONOHYDRATE
##MOLFORM=C18 H26 Br N O  * 2 H2 O
##MP=124-126 C
##SOURCE REFERENCE=COBLENTZ NO. 05042
##$NIST ID=B6005042
##$NIST SOURCE=COBLENTZ
##$NIST IMAGE=cob5042
##SPECTROMETER/DATA SYSTEM=PERKIN-ELMER 21 (GRATING)
##INSTRUMENT PARAMETERS=FILTER AT ABOUT 10 MICRONS
##STATE=SOLID (1.6 mg / 200 mg KBr DISC)
##SAMPLING PROCEDURE=TRANSMISSION
##RESOLUTION=2
##DATA PROCESSING=DIGITIZED BY COBLENTZ SOCIETY (BATCH I) FROM HARD COPY
##XUNITS=1/CM
##YUNITS=TRANSMITTANCE
##XLABEL=Wavenumbers (cm-1)
##YLABEL=Transmittance
##XFACTOR=1
##YFACTOR=1
##DELTAX=1
##FIRSTX=4000
##LASTX=673
##FIRSTY=0.7508
##MAXX=4000
##MINX=673
##MAXY=0.847
##MINY=0.2095
##NPOINTS=3328
##XYDATA=(X++(Y..Y))
4000.000000 0.7508 0.7508 0.7510 0.7511 0.7511
3995.000000 0.7512 0.7514 0.7515 0.7515 0.7517
3990.000000 0.7518 0.7519 0.7521 0.7521 0.7522
3985.000000 0.7524 0.7525 0.7525 0.7525 0.7526
3980.000000 0.7528 0.7530 0.7531 0.7532 0.7533
3975.000000 0.7534 0.7535 0.7536 0.7537 0.7538
3970.000000 0.7539 0.7540 0.7541 0.7542 0.7543
3965.000000 0.7544 0.7545 0.7546 0.7547 0.7549
3960.000000 0.7550 0.7551 0.7551 0.7553 0.7554
3955.000000 0.7555 0.7557 0.7558 0.7558 0.7561
3950.000000 0.7561 0.7562 0.7564 0.7565 0.7567
3945.000000 0.7568 0.7568 0.7571 0.7571 0.7572
3940.000000 0.7574 0.7575 0.7575 0.7578 0.7578
3935.000000 0.7580 0.7581 0.7583 0.7584 0.7585
3930.000000 0.7586 0.7588 0.7589 0.7590 0.7591
3925.000000 0.7592 0.7593 0.7595 0.7596 0.7597
3920.000000 0.7599 0.7600 0.7601 0.7601 0.7603
3915.000000 0.7604 0.7606 0.7607 0.7608 0.7608
3910.000000 0.7611 0.7611 0.7612 0.7615 0.7615
3905.000000 0.7617 0.7618 0.7618 0.7619 0.7621
3900.000000 0.7622 0.7624 0.7625 0.7625 0.7626
3895.000000 0.7628 0.7628 0.7628 0.7630 0.7631
3890.000000 0.7632 0.7633 0.7634 0.7635 0.7636
3885.000000 0.7637 0.7637 0.7638 0.7639 0.7640
3880.000000 0.7641 0.7642 0.7643 0.7644 0.7644
3875.000000 0.7645 0.7646 0.7647 0.7648 0.7649
3870.000000 0.7650 0.7651 0.7651 0.7653 0.7654
3865.000000 0.7655 0.7656 0.7657 0.7658 0.7658
3860.000000 0.7660 0.7661 0.7661 0.7662 0.7664
3855.000000 0.7665 0.7665 0.7667 0.7668 0.7668
3850.000000 0.7668 0.7669 0.7671 0.7671 0.7672
3845.000000 0.7674 0.7675 0.7676 0.7678 0.7678
3840.000000 0.7681 0.7682 0.7684 0.7685 0.7686
3835.000000 0.7688 0.7689 0.7690 0.7692 0.7693
3830.000000 0.7694 0.7696 0.7697 0.7698 0.7699
3825.000000 0.7701 0.7701 0.7703 0.7704 0.7706
3820.000000 0.7707 0.7708 0.7710 0.7711 0.7712
3815.000000 0.7714 0.7715 0.7717 0.7718 0.7718
3810.000000 0.7721 0.7721 0.7724 0.7725 0.7725
3805.000000 0.7728 0.7730 0.7732 0.7735 0.7737
3800.000000 0.7739 0.7742 0.7744 0.7747 0.7750
3795.000000 0.7753 0.7755 0.7758 0.7761 0.7762
3790.000000 0.7765 0.7768 0.7771 0.7774 0.7776
3785.000000 0.7780 0.7782 0.7785 0.7788 0.7792
3780.000000 0.7796 0.7800 0.7804 0.7808 0.7811
3775.000000 0.7815 0.7819 0.7824 0.7828 0.7832
3770.000000 0.7836 0.7840 0.7844 0.7848 0.7851
3765.000000 0.7856 0.7858 0.7861 0.7864 0.7865
3760.000000 0.7868 0.7871 0.7874 0.7875 0.7878
3755.000000 0.7881 0.7883 0.7885 0.7888 0.7890
3750.000000 0.7892 0.7894 0.7897 0.7899 0.7900
3745.000000 0.7901 0.7904 0.7906 0.7907 0.7908
3740.000000 0.7910 0.7911 0.7911 0.7912 0.7915
3735.000000 0.7915 0.7917 0.7918 0.7919 0.7921
3730.000000 0.7921 0.7922 0.7925 0.7925 0.7926
3725.000000 0.7928 0.7930 0.7931 0.7932 0.7934
3720.000000 0.7935 0.7936 0.7937 0.7939 0.7940
3715.000000 0.7941 0.7943 0.7944 0.7946 0.7948
3710.000000 0.7949 0.7951 0.7951 0.7954 0.7955
3705.000000 0.7957 0.7958 0.7960 0.7961 0.7961
3700.000000 0.7964 0.7965 0.7967 0.7968 0.7968
3695.000000 0.7969 0.7971 0.7971 0.7972 0.7975
3690.000000 0.7975 0.7976 0.7978 0.7980 0.7981
3685.000000 0.7982 0.7983 0.7984 0.7985 0.7986
3680.000000 0.7987 0.7988 0.7988 0.7989 0.7990
3675.000000 0.7990 0.7990 0.7990 0.7990 0.7991
3670.000000 0.7991 0.7991 0.7991 0.7991 0.7991
3665.000000 0.7992 0.7992 0.7993 0.7993 0.7993
3660.000000 0.7994 0.7995 0.7996 0.7997 0.7998
3655.000000 0.7998 0.7999 0.8000 0.8001 0.8001
3650.000000 0.8003 0.8004 0.8005 0.8006 0.8008
3645.000000 0.8008 0.8010 0.8011 0.8011 0.8012
3640.000000 0.8014 0.8015 0.8018 0.8019 0.8022
3635.000000 0.8025 0.8028 0.8030 0.8033 0.8035
3630.000000 0.8038 0.8040 0.8043 0.8045 0.8048
3625.000000 0.8050 0.8051 0.8055 0.8056 0.8057
3620.000000 0.8058 0.8060 0.8061 0.8061 0.8062
3615.000000 0.8064 0.8065 0.8065 0.8067 0.8068
3610.000000 0.8068 0.8068 0.8069 0.8071 0.8071
3605.000000 0.8071 0.8072 0.8072 0.8074 0.8074
3600.000000 0.8074 0.8075 0.8075 0.8075 0.8075
3595.000000 0.8075 0.8075 0.8075 0.8075 0.8076
3590.000000 0.8076 0.8076 0.8076 0.8076 0.8076
3585.000000 0.8076 0.8076 0.8076 0.8076 0.8076
3580.000000 0.8076 0.8076 0.8076 0.8076 0.8075
3575.000000 0.8075 0.8074 0.8071 0.8071 0.8069
3570.000000 0.8067 0.8065 0.8062 0.8061 0.8058
3565.000000 0.8057 0.8055 0.8053 0.8051 0.8049
3560.000000 0.8046 0.8043 0.8040 0.8037 0.8034
3555.000000 0.8031 0.8028 0.8024 0.8021 0.8018
3550.000000 0.8014 0.8010 0.8005 0.8001 0.7997
3545.000000 0.7990 0.7984 0.7978 0.7971 0.7965
3540.000000 0.7958 0.7951 0.7946 0.7939 0.7933
3535.000000 0.7925 0.7919 0.7912 0.7907 0.7900
3530.000000 0.7891 0.7882 0.7872 0.7864 0.7854
3525.000000 0.7843 0.7831 0.7819 0.7808 0.7797
3520.000000 0.7786 0.7774 0.7762 0.7751 0.7738
3515.000000 0.7715 0.7692 0.7668 0.7646 0.7621
3510.000000 0.7596 0.7568 0.7543 0.7517 0.7494
3505.000000 0.7478 0.7462 0.7447 0.7432 0.7415
3500.000000 0.7400 0.7385 0.7368 0.7353 0.7338
3495.000000 0.7321 0.7307 0.7292 0.7275 0.7261
3490.000000 0.7249 0.7235 0.7221 0.7208 0.7194
3485.000000 0.7181 0.7167 0.7154 0.7140 0.7125
3480.000000 0.7112 0.7099 0.7085 0.7071 0.7058
3475.000000 0.7046 0.7033 0.7019 0.7008 0.6995
3470.000000 0.6983 0.6969 0.6958 0.6945 0.6933
3465.000000 0.6919 0.6907 0.6895 0.6868 0.6831
3460.000000 0.6795 0.6758 0.6721 0.6681 0.6639
3455.000000 0.6596 0.6554 0.6511 0.6464 0.6415
3450.000000 0.6368 0.6320 0.6272 0.6225 0.6177
3445.000000 0.6129 0.6081 0.6033 0.5985 0.5937
3440.000000 0.5889 0.5841 0.5799 0.5760 0.5720
3435.000000 0.5680 0.5643 0.5637 0.5631 0.5625
3430.000000 0.5619 0.5614 0.5610 0.5607 0.5604
3425.000000 0.5601 0.5597 0.5594 0.5591 0.5588
3420.000000 0.5585 0.5583 0.5582 0.5581 0.5580
3415.000000 0.5579 0.5578 0.5577 0.5576 0.5575
3410.000000 0.5574 0.5573 0.5572 0.5571 0.5571
3405.000000 0.5570 0.5570 0.5570 0.5570 0.5569
3400.000000 0.5569 0.5568 0.5568 0.5568 0.5567
3395.000000 0.5567 0.5567 0.5567 0.5566 0.5564
3390.000000 0.5560 0.5558 0.5556 0.5547 0.5533
3385.000000 0.5519 0.5505 0.5491 0.5466 0.5440
3380.000000 0.5414 0.5388 0.5359 0.5325 0.5291
3375.000000 0.5257 0.5223 0.5189 0.5154 0.5120
3370.000000 0.5086 0.5052 0.5018 0.4984 0.4950
3365.000000 0.4916 0.4882 0.4848 0.4814 0.4779
3360.000000 0.4745 0.4710 0.4676 0.4642 0.4608
3355.000000 0.4573 0.4539 0.4504 0.4470 0.4435
3350.000000 0.4401 0.4367 0.4332 0.4298 0.4264
3345.000000 0.4229 0.4194 0.4160 0.4125 0.4090
3340.000000 0.4055 0.4021 0.3986 0.3950 0.3916
3335.000000 0.3882 0.3848 0.3812 0.3778 0.3743
3330.000000 0.3708 0.3673 0.3638 0.3603 0.3568
3325.000000 0.3532 0.3498 0.3462 0.3428 0.3393
3320.000000 0.3358 0.3323 0.3288 0.3253 0.3218
3315.000000 0.3183 0.3147 0.3112 0.3077 0.3041
3310.000000 0.3006 0.2971 0.2934 0.2900 0.2879
3305.000000 0.2859 0.2840 0.2821 0.2804 0.2788
3300.000000 0.2772 0.2757 0.2741 0.2727 0.2713
3295.000000 0.2699 0.2684 0.2661 0.2633 0.2606
3290.000000 0.2579 0.2552 0.2525 0.2499 0.2472
3285.000000 0.2445 0.2415 0.2384 0.2354 0.2323
3280.000000 0.2297 0.2272 0.2247 0.2221 0.2200
3275.000000 0.2182 0.2164 0.2146 0.2131 0.2123
3270.000000 0.2116 0.2109 0.2102 0.2100 0.2099
3265.000000 0.2098 0.2097 0.2096 0.2096 0.2095
3260.000000 0.2095 0.2095 0.2098 0.2100 0.2102
3255.000000 0.2104 0.2109 0.2114 0.2119 0.2123
3250.000000 0.2132 0.2140 0.2149 0.2157 0.2167
3245.000000 0.2177 0.2188 0.2198 0.2208 0.2219
3240.000000 0.2229 0.2240 0.2252 0.2267 0.2283
3235.000000 0.2298 0.2314 0.2332 0.2350 0.2368
3230.000000 0.2385 0.2422 0.2459 0.2496 0.2532
3225.000000 0.2562 0.2590 0.2618 0.2647 0.2675
3220.000000 0.2703 0.2731 0.2759 0.2787 0.2815
3215.000000 0.2843 0.2872 0.2900 0.2928 0.2957
3210.000000 0.2984 0.3013 0.3042 0.3070 0.3098
3205.000000 0.3126 0.3155 0.3183 0.3212 0.3240
3200.000000 0.3268 0.3297 0.3325 0.3354 0.3382
3195.000000 0.3410 0.3439 0.3468 0.3497 0.3526
3190.000000 0.3554 0.3582 0.3612 0.3640 0.3668
3185.000000 0.3697 0.3726 0.3755 0.3784 0.3812
3180.000000 0.3841 0.3870 0.3899 0.3928 0.3956
3175.000000 0.3986 0.4014 0.4044 0.4073 0.4102
3170.000000 0.4131 0.4160 0.4189 0.4218 0.4247
3165.000000 0.4276 0.4305 0.4334 0.4362 0.4393
3160.000000 0.4422 0.4451 0.4480 0.4509 0.4538
3155.000000 0.4568 0.4597 0.4626 0.4656 0.4685
3150.000000 0.4715 0.4744 0.4773 0.4803 0.4832
3145.000000 0.4860 0.4891 0.4920 0.4950 0.4980
3140.000000 0.5009 0.5039 0.5068 0.5098 0.5125
3135.000000 0.5153 0.5180 0.5208 0.5231 0.5252
3130.000000 0.5274 0.5296 0.5310 0.5326 0.5341
3125.000000 0.5357 0.5371 0.5386 0.5401 0.5416
3120.000000 0.5431 0.5446 0.5460 0.5477 0.5492
3115.000000 0.5506 0.5521 0.5536 0.5551 0.5566
3110.000000 0.5581 0.5596 0.5610 0.5626 0.5640
3105.000000 0.5653 0.5665 0.5676 0.5687 0.5699
3100.000000 0.5710 0.5721 0.5732 0.5744 0.5755
3095.000000 0.5767 0.5778 0.5786 0.5793 0.5801
3090.000000 0.5808 0.5815 0.5822 0.5829 0.5835
3085.000000 0.5841 0.5846 0.5852 0.5858 0.5862
3080.000000 0.5868 0.5874 0.5878 0.5883 0.5888
3075.000000 0.5893 0.5895 0.5898 0.5901 0.5903
3070.000000 0.5904 0.5905 0.5907 0.5908 0.5909
3065.000000 0.5909 0.5910 0.5910 0.5910 0.5912
3060.000000 0.5912 0.5912 0.5912 0.5912 0.5912
3055.000000 0.5912 0.5912 0.5912 0.5912 0.5912
3050.000000 0.5912 0.5912 0.5910 0.5910 0.5909
3045.000000 0.5907 0.5906 0.5905 0.5903 0.5902
3040.000000 0.5900 0.5899 0.5897 0.5894 0.5891
3035.000000 0.5888 0.5885 0.5881 0.5878 0.5875
3030.000000 0.5872 0.5869 0.5866 0.5862 0.5860
3025.000000 0.5858 0.5856 0.5854 0.5853 0.5853
3020.000000 0.5853 0.5852 0.5852 0.5852 0.5852
3015.000000 0.5853 0.5856 0.5858 0.5860 0.5867
3010.000000 0.5874 0.5881 0.5887 0.5894 0.5901
3005.000000 0.5907 0.5914 0.5922 0.5929 0.5936
3000.000000 0.5944 0.5951 0.5959 0.5964 0.5969
2995.000000 0.5973 0.5978 0.5981 0.5985 0.5989
2990.000000 0.5992 0.5994 0.5995 0.5996 0.5997
2985.000000 0.5998 0.5998 0.5998 0.5997 0.5997
2980.000000 0.5985 0.5993 0.5990 0.5986 0.5981
2975.000000 0.5971 0.5960 0.5949 0.5943 0.5938
2970.000000 0.5934 0.5930 0.5930 0.5930 0.5930
2965.000000 0.5931 0.5934 0.5936 0.5939 0.5939
2960.000000 0.5940 0.5941 0.5942 0.5943 0.5944
2955.000000 0.5944 0.5944 0.5943 0.5943 0.5926
2950.000000 0.5899 0.5872 0.5840 0.5775 0.5709
2945.000000 0.5644 0.5579 0.5512 0.5448 0.5383
2940.000000 0.5318 0.5252 0.5187 0.5121 0.5056
2935.000000 0.4990 0.4925 0.4859 0.4793 0.4728
2930.000000 0.4662 0.4596 0.4530 0.4464 0.4398
2925.000000 0.4332 0.4266 0.4200 0.4133 0.4066
2920.000000 0.4000 0.3934 0.3868 0.3800 0.3734
2915.000000 0.3668 0.3602 0.3534 0.3468 0.3402
2910.000000 0.3334 0.3268 0.3202 0.3134 0.3072
2905.000000 0.3009 0.2947 0.2922 0.2922 0.2922
2900.000000 0.2922 0.2922 0.2922 0.2922 0.2944
2895.000000 0.2943 0.2943 0.3031 0.3079 0.3126
2890.000000 0.3174 0.3221 0.3268 0.3316 0.3362
2885.000000 0.3410 0.3458 0.3506 0.3553 0.3600
2880.000000 0.3648 0.3696 0.3744 0.3791 0.3839
2875.000000 0.3887 0.3934 0.3982 0.4030 0.4079
2870.000000 0.4127 0.4175 0.4223 0.4271 0.4319
2865.000000 0.4367 0.4416 0.4464 0.4512 0.4560
2860.000000 0.4608 0.4657 0.4705 0.4750 0.4772
2855.000000 0.4795 0.4818 0.4822 0.4825 0.4827
2850.000000 0.4828 0.4829 0.4829 0.4822 0.4802
2845.000000 0.4782 0.4760 0.4732 0.4704 0.4675
2840.000000 0.4646 0.4617 0.4589 0.4564 0.4540
2835.000000 0.4517 0.4504 0.4502 0.4500 0.4499
2830.000000 0.4499 0.4499 0.4500 0.4520 0.4540
2825.000000 0.4560 0.4588 0.4617 0.4647 0.4676
2820.000000 0.4705 0.4735 0.4764 0.4794 0.4823
2815.000000 0.4853 0.4883 0.4912 0.4942 0.4971
2810.000000 0.5001 0.5030 0.5060 0.5090 0.5120
2805.000000 0.5149 0.5179 0.5208 0.5238 0.5268
2800.000000 0.5298 0.5328 0.5358 0.5388 0.5418
2795.000000 0.5448 0.5478 0.5507 0.5538 0.5568
2790.000000 0.5598 0.5628 0.5658 0.5686 0.5699
2785.000000 0.5710 0.5724 0.5731 0.5737 0.5744
2780.000000 0.5748 0.5751 0.5755 0.5757 0.5758
2775.000000 0.5759 0.5760 0.5760 0.5760 0.5760
2770.000000 0.5760 0.5760 0.5756 0.5748 0.5741
2765.000000 0.5732 0.5721 0.5710 0.5700 0.5688
2760.000000 0.5677 0.5665 0.5654 0.5642 0.5630
2755.000000 0.5619 0.5607 0.5595 0.5583 0.5572
2750.000000 0.5559 0.5544 0.5529 0.5512 0.5494
2745.000000 0.5476 0.5457 0.5438 0.5420 0.5401
2740.000000 0.5382 0.5362 0.5344 0.5322 0.5301
2735.000000 0.5279 0.5254 0.5230 0.5206 0.5181
2730.000000 0.5157 0.5132 0.5107 0.5082 0.5056
2725.000000 0.5030 0.5004 0.4977 0.4951 0.4924
2720.000000 0.4900 0.4883 0.4865 0.4850 0.4838
2715.000000 0.4825 0.4812 0.4801 0.4789 0.4776
2710.000000 0.4764 0.4751 0.4740 0.4729 0.4718
2705.000000 0.4709 0.4699 0.4690 0.4681 0.4672
2700.000000 0.4662 0.4653 0.4644 0.4635 0.4625
2695.000000 0.4616 0.4607 0.4598 0.4589 0.4580
2690.000000 0.4572 0.4562 0.4555 0.4546 0.4538
2685.000000 0.4529 0.4521 0.4512 0.4504 0.4497
2680.000000 0.4489 0.4482 0.4475 0.4469 0.4462
2675.000000 0.4455 0.4448 0.4442 0.4437 0.4432
2670.000000 0.4427 0.4421 0.4416 0.4409 0.4402
2665.000000 0.4393 0.4381 0.4368 0.4355 0.4343
2660.000000 0.4331 0.4318 0.4306 0.4294 0.4282
2655.000000 0.4270 0.4258 0.4247 0.4236 0.4225
2650.000000 0.4215 0.4205 0.4196 0.4186 0.4176
2645.000000 0.4168 0.4160 0.4121 0.4149 0.4145
2640.000000 0.4141 0.4137 0.4132 0.4128 0.4126
2635.000000 0.4125 0.4123 0.4123 0.4123 0.4122
2630.000000 0.4122 0.4122 0.4121 0.4121 0.4121
2625.000000 0.4121 0.4121 0.4120 0.4120 0.4120
2620.000000 0.4120 0.4120 0.4120 0.4119 0.4119
2615.000000 0.4119 0.4121 0.4124 0.4128 0.4137
2610.000000 0.4145 0.4153 0.4160 0.4170 0.4178
2605.000000 0.4186 0.4195 0.4203 0.4210 0.4219
2600.000000 0.4228 0.4236 0.4245 0.4253 0.4260
2595.000000 0.4270 0.4278 0.4284 0.4287 0.4265
2590.000000 0.4289 0.4288 0.4288 0.4283 0.4279
2585.000000 0.4273 0.4262 0.4254 0.4243 0.4230
2580.000000 0.4218 0.4199 0.4180 0.4158 0.4132
2575.000000 0.4106 0.4079 0.4050 0.4022 0.3998
2570.000000 0.3974 0.3952 0.3932 0.3914 0.3900
2565.000000 0.3889 0.3878 0.3870 0.3862 0.3856
2560.000000 0.3852 0.3847 0.3844 0.3841 0.3838
2555.000000 0.3837 0.3836 0.3834 0.3834 0.3834
2550.000000 0.3834 0.3834 0.3834 0.3834 0.3860
2545.000000 0.3838 0.3839 0.3841 0.3842 0.3844
2540.000000 0.3847 0.3850 0.3853 0.3855 0.3858
2535.000000 0.3860 0.3864 0.3868 0.3874 0.3880
2530.000000 0.3886 0.3892 0.3898 0.3904 0.3909
2525.000000 0.3916 0.3922 0.3929 0.3934 0.3941
2520.000000 0.3947 0.3953 0.3959 0.3966 0.3973
2515.000000 0.3980 0.3989 0.3997 0.4005 0.4012
2510.000000 0.4021 0.4029 0.4038 0.4046 0.4054
2505.000000 0.4062 0.4070 0.4078 0.4087 0.4096
2500.000000 0.4106 0.4116 0.4126 0.4135 0.4145
2495.000000 0.4155 0.4165 0.4175 0.4185 0.4194
2490.000000 0.4204 0.4214 0.4224 0.4234 0.4244
2485.000000 0.4253 0.4264 0.4274 0.4284 0.4295
2480.000000 0.4305 0.4316 0.4327 0.4338 0.4349
2475.000000 0.4360 0.4371 0.4381 0.4392 0.4403
2470.000000 0.4414 0.4426 0.4437 0.4451 0.4466
2465.000000 0.4481 0.4495 0.4510 0.4525 0.4540
2460.000000 0.4555 0.4570 0.4585 0.4600 0.4614
2455.000000 0.4628 0.4642 0.4656 0.4670 0.4684
2450.000000 0.4698 0.4712 0.4725 0.4739 0.4753
2445.000000 0.4767 0.4781 0.4794 0.4808 0.4824
2440.000000 0.4842 0.4860 0.4885 0.4908 0.4933
2435.000000 0.4959 0.4985 0.5010 0.5036 0.5057
2430.000000 0.5078 0.5097 0.5114 0.5132 0.5150
2425.000000 0.5168 0.5189 0.5210 0.5230 0.5251
2420.000000 0.5271 0.5290 0.5310 0.5328 0.5347
2415.000000 0.5366 0.5385 0.5404 0.5422 0.5440
2410.000000 0.5457 0.5475 0.5492 0.5509 0.5526
2405.000000 0.5543 0.5560 0.5576 0.5592 0.5608
2400.000000 0.5624 0.5639 0.5655 0.5670 0.5686
2395.000000 0.5701 0.5715 0.5729 0.5742 0.5756
2390.000000 0.5770 0.5784 0.5798 0.5814 0.5830
2385.000000 0.5847 0.5862 0.5880 0.5896 0.5912
2380.000000 0.5927 0.5942 0.5957 0.5972 0.5985
2375.000000 0.5996 0.6006 0.6017 0.6029 0.6039
2370.000000 0.6050 0.6058 0.6065 0.6071 0.6076
2365.000000 0.6081 0.6086 0.6091 0.6097 0.6102
2360.000000 0.6106 0.6110 0.6114 0.6117 0.6120
2355.000000 0.6123 0.6127 0.6130 0.6133 0.6136
2350.000000 0.6138 0.6141 0.6145 0.6148 0.6151
2345.000000 0.6154 0.6157 0.6160 0.6164 0.6167
2340.000000 0.6171 0.6174 0.6178 0.6182 0.6187
2335.000000 0.6193 0.6199 0.6205 0.6210 0.6217
2330.000000 0.6223 0.6230 0.6238 0.6247 0.6257
2325.000000 0.6267 0.6278 0.6291 0.6310 0.6329
2320.000000 0.6350 0.6370 0.6389 0.6407 0.6425
2315.000000 0.6443 0.6461 0.6480 0.6498 0.6515
2310.000000 0.6534 0.6553 0.6571 0.6589 0.6608
2305.000000 0.6625 0.6644 0.6662 0.6681 0.6699
2300.000000 0.6718 0.6736 0.6755 0.6772 0.6792
2295.000000 0.6807 0.6821 0.6834 0.6848 0.6861
2290.000000 0.6875 0.6890 0.6904 0.6917 0.6931
2285.000000 0.6945 0.6958 0.6971 0.6982 0.6991
2280.000000 0.7000 0.7010 0.7018 0.7028 0.7038
2275.000000 0.7048 0.7057 0.7065 0.7075 0.7085
2270.000000 0.7095 0.7104 0.7111 0.7119 0.7126
2265.000000 0.7135 0.7142 0.7150 0.7158 0.7165
2260.000000 0.7171 0.7180 0.7187 0.7194 0.7201
2255.000000 0.7208 0.7215 0.7221 0.7228 0.7236
2250.000000 0.7243 0.7248 0.7251 0.7257 0.7261
2245.000000 0.7265 0.7269 0.7274 0.7278 0.7283
2240.000000 0.7287 0.7292 0.7296 0.7301 0.7305
2235.000000 0.7308 0.7311 0.7315 0.7318 0.7322
2230.000000 0.7325 0.7330 0.7333 0.7337 0.7340
2225.000000 0.7343 0.7346 0.7348 0.7350 0.7351
2220.000000 0.7353 0.7354 0.7356 0.7356 0.7357
2215.000000 0.7358 0.7358 0.7358 0.7358 0.7358
2210.000000 0.7358 0.7358 0.7358 0.7358 0.7357
2205.000000 0.7355 0.7353 0.7350 0.7348 0.7344
2200.000000 0.7342 0.7339 0.7336 0.7333 0.7330
2195.000000 0.7326 0.7322 0.7319 0.7315 0.7311
2190.000000 0.7306 0.7299 0.7292 0.7284 0.7275
2185.000000 0.7265 0.7256 0.7245 0.7234 0.7222
2180.000000 0.7211 0.7199 0.7187 0.7175 0.7162
2175.000000 0.7151 0.7142 0.7133 0.7122 0.7114
2170.000000 0.7105 0.7096 0.7086 0.7075 0.7065
2165.000000 0.7055 0.7043 0.7028 0.7011 0.6992
2160.000000 0.6984 0.6980 0.6975 0.6969 0.6968
2155.000000 0.6968 0.6968 0.6967 0.6967 0.6965
2150.000000 0.6965 0.6965 0.6965 0.6967 0.6968
2145.000000 0.6974 0.6978 0.6984 0.6990 0.6999
2140.000000 0.7008 0.7019 0.7031 0.7043 0.7054
2135.000000 0.7065 0.7075 0.7085 0.7094 0.7101
2130.000000 0.7110 0.7118 0.7126 0.7135 0.7143
2125.000000 0.7151 0.7160 0.7168 0.7175 0.7184
2120.000000 0.7191 0.7198 0.7204 0.7211 0.7217
2115.000000 0.7224 0.7230 0.7236 0.7243 0.7250
2110.000000 0.7257 0.7262 0.7268 0.7276 0.7285
2105.000000 0.7293 0.7301 0.7308 0.7318 0.7325
2100.000000 0.7334 0.7342 0.7351 0.7361 0.7371
2095.000000 0.7381 0.7391 0.7400 0.7410 0.7419
2090.000000 0.7428 0.7439 0.7450 0.7462 0.7478
2085.000000 0.7492 0.7504 0.7515 0.7525 0.7533
2080.000000 0.7536 0.7539 0.7541 0.7543 0.7545
2075.000000 0.7548 0.7549 0.7550 0.7551 0.7553
2070.000000 0.7555 0.7556 0.7557 0.7558 0.7560
2065.000000 0.7561 0.7562 0.7565 0.7569 0.7576
2060.000000 0.7583 0.7589 0.7596 0.7601 0.7608
2055.000000 0.7615 0.7621 0.7628 0.7635 0.7642
2050.000000 0.7648 0.7654 0.7662 0.7672 0.7683
2045.000000 0.7692 0.7701 0.7711 0.7721 0.7732
2040.000000 0.7741 0.7751 0.7757 0.7762 0.7768
2035.000000 0.7775 0.7781 0.7787 0.7793 0.7799
2030.000000 0.7803 0.7807 0.7810 0.7814 0.7817
2025.000000 0.7819 0.7822 0.7825 0.7831 0.7836
2020.000000 0.7840 0.7845 0.7850 0.7855 0.7860
2015.000000 0.7865 0.7869 0.7875 0.7881 0.7886
2010.000000 0.7891 0.7896 0.7901 0.7906 0.7911
2005.000000 0.7917 0.7921 0.7924 0.7924 0.7925
2000.000000 0.7925 0.7925 0.7925 0.7924 0.7921
1995.000000 0.7921 0.7921 0.7919 0.7918 0.7917
1990.000000 0.7915 0.7915 0.7914 0.7912 0.7912
1985.000000 0.7912 0.7911 0.7911 0.7911 0.7911
1980.000000 0.7917 0.7922 0.7928 0.7934 0.7940
1975.000000 0.7946 0.7951 0.7958 0.7965 0.7972
1970.000000 0.7981 0.7989 0.7994 0.7997 0.8001
1965.000000 0.8003 0.8003 0.8000 0.7995 0.7990
1960.000000 0.7985 0.7982 0.7982 0.7982 0.7984
1955.000000 0.7985 0.7986 0.7988 0.7989 0.7990
1950.000000 0.7992 0.7992 0.7994 0.7998 0.8000
1945.000000 0.8003 0.8006 0.8008 0.8011 0.8014
1940.000000 0.8017 0.8019 0.8022 0.8025 0.8025
1935.000000 0.8025 0.8026 0.8028 0.8028 0.8028
1930.000000 0.8028 0.8028 0.8026 0.8025 0.8022
1925.000000 0.8021 0.8019 0.8018 0.8015 0.8014
1920.000000 0.8011 0.8010 0.8008 0.8007 0.8005
1915.000000 0.8003 0.8000 0.7997 0.7994 0.7990
1910.000000 0.7985 0.7980 0.7975 0.7972 0.7972
1905.000000 0.7974 0.7975 0.7975 0.7975 0.7978
1900.000000 0.7981 0.7992 0.8005 0.8012 0.8019
1895.000000 0.8026 0.8034 0.8041 0.8048 0.8055
1890.000000 0.8062 0.8069 0.8076 0.8085 0.8094
1885.000000 0.8104 0.8112 0.8121 0.8128 0.8134
1880.000000 0.8141 0.8146 0.8153 0.8160 0.8167
1875.000000 0.8175 0.8183 0.8190 0.8194 0.8196
1870.000000 0.8198 0.8200 0.8202 0.8202 0.8200
1865.000000 0.8198 0.8196 0.8194 0.8192 0.8189
1860.000000 0.8187 0.8185 0.8183 0.8183 0.8183
1855.000000 0.8188 0.8194 0.8200 0.8206 0.8211
1850.000000 0.8217 0.8223 0.8230 0.8237 0.8245
1845.000000 0.8253 0.8260 0.8268 0.8275 0.8282
1840.000000 0.8289 0.8295 0.8302 0.8309 0.8315
1835.000000 0.8320 0.8323 0.8327 0.8330 0.8333
1830.000000 0.8336 0.8336 0.8337 0.8337 0.8337
1825.000000 0.8334 0.8332 0.8328 0.8325 0.8318
1820.000000 0.8312 0.8305 0.8298 0.8291 0.8282
1815.000000 0.8282 0.8283 0.8287 0.8292 0.8296
1810.000000 0.8300 0.8304 0.8309 0.8314 0.8318
1805.000000 0.8321 0.8321 0.8324 0.8327 0.8328
1800.000000 0.8330 0.8332 0.8335 0.8337 0.8338
1795.000000 0.8341 0.8343 0.8345 0.8347 0.8349
1790.000000 0.8351 0.8352 0.8354 0.8356 0.8358
1785.000000 0.8360 0.8362 0.8364 0.8366 0.8368
1780.000000 0.8370 0.8371 0.8374 0.8375 0.8378
1775.000000 0.8380 0.8382 0.8383 0.8383 0.8382
1770.000000 0.8382 0.8381 0.8380 0.8380 0.8380
1765.000000 0.8378 0.8378 0.8375 0.8375 0.8373
1760.000000 0.8371 0.8370 0.8368 0.8367 0.8363
1755.000000 0.8358 0.8353 0.8346 0.8338 0.8331
1750.000000 0.8323 0.8315 0.8307 0.8297 0.8287
1745.000000 0.8277 0.8267 0.8258 0.8250 0.8242
1740.000000 0.8234 0.8227 0.8220 0.8212 0.8205
1735.000000 0.8195 0.8183 0.8171 0.8165 0.8158
1730.000000 0.8154 0.8149 0.8149 0.8150 0.8154
1725.000000 0.8161 0.8167 0.8172 0.8180 0.8187
1720.000000 0.8193 0.8200 0.8207 0.8214 0.8221
1715.000000 0.8227 0.8233 0.8241 0.8249 0.8257
1710.000000 0.8265 0.8274 0.8283 0.8291 0.8299
1705.000000 0.8307 0.8314 0.8320 0.8327 0.8334
1700.000000 0.8338 0.8343 0.8346 0.8345 0.8343
1695.000000 0.8343 0.8341 0.8339 0.8338 0.8337
1690.000000 0.8336 0.8335 0.8334 0.8334 0.8332
1685.000000 0.8331 0.8330 0.8328 0.8328 0.8327
1680.000000 0.8327 0.8327 0.8324 0.8325 0.8325
1675.000000 0.8324 0.8323 0.8320 0.8314 0.8308
1670.000000 0.8302 0.8295 0.8286 0.8275 0.8266
1665.000000 0.8256 0.8245 0.8232 0.8217 0.8203
1660.000000 0.8188 0.8178 0.8168 0.8160 0.8150
1655.000000 0.8146 0.8145 0.8144 0.8141 0.8130
1650.000000 0.8114 0.8096 0.8069 0.8043 0.8015
1645.000000 0.7980 0.7943 0.7911 0.7882 0.7851
1640.000000 0.7825 0.7814 0.7814 0.7812 0.7807
1635.000000 0.7798 0.7790 0.7781 0.7768 0.7745
1630.000000 0.7721 0.7684 0.7630 0.7548 0.7434
1625.000000 0.7221 0.6932 0.6655 0.6378 0.6101
1620.000000 0.5823 0.5545 0.5267 0.4988 0.4710
1615.000000 0.4462 0.4456 0.4452 0.4520 0.4633
1610.000000 0.4750 0.4869 0.4988 0.5106 0.5225
1605.000000 0.5344 0.5462 0.5582 0.5702 0.5822
1600.000000 0.5942 0.6060 0.6182 0.6302 0.6421
1595.000000 0.6542 0.6662 0.6784 0.6905 0.7025
1590.000000 0.7147 0.7265 0.7350 0.7374 0.7368
1585.000000 0.7336 0.7196 0.6975 0.6754 0.6533
1580.000000 0.6312 0.6089 0.5867 0.5645 0.5309
1575.000000 0.5318 0.5312 0.5345 0.5501 0.5760
1570.000000 0.6021 0.6282 0.6542 0.6804 0.7015
1565.000000 0.7124 0.7187 0.7233 0.7265 0.7298
1560.000000 0.7328 0.7358 0.7387 0.7424 0.7471
1555.000000 0.7518 0.7567 0.7630 0.7737 0.7781
1550.000000 0.7791 0.7798 0.7805 0.7814 0.7822
1545.000000 0.7832 0.7841 0.7849 0.7858 0.7868
1540.000000 0.7878 0.7890 0.7903 0.7915 0.7925
1535.000000 0.7918 0.7935 0.7936 0.7936 0.7921
1530.000000 0.7887 0.7845 0.7768 0.7660 0.7531
1525.000000 0.7328 0.7108 0.6889 0.6669 0.6450
1520.000000 0.6229 0.6009 0.5788 0.5567 0.5345
1515.000000 0.5124 0.4925 0.4831 0.4805 0.4787
1510.000000 0.4775 0.4767 0.4705 0.4458 0.4180
1505.000000 0.3900 0.3621 0.3341 0.3061 0.2899
1500.000000 0.2865 0.2884 0.3010 0.3161 0.3312
1495.000000 0.3466 0.3618 0.3771 0.3925 0.4078
1490.000000 0.4231 0.4385 0.4539 0.4693 0.4848
1485.000000 0.5002 0.5157 0.5310 0.5467 0.5622
1480.000000 0.5777 0.5899 0.5923 0.5926 0.5939
1475.000000 0.5929 0.5840 0.5627 0.5414 0.5202
1470.000000 0.4988 0.4774 0.4560 0.4346 0.4132
1465.000000 0.3916 0.3702 0.3486 0.3212 0.3193
1460.000000 0.3188 0.3191 0.3204 0.3250 0.3309
1455.000000 0.3334 0.3350 0.3359 0.3366 0.3371
1450.000000 0.3402 0.3464 0.3553 0.3650 0.3750
1445.000000 0.3848 0.3946 0.4045 0.4144 0.4243
1440.000000 0.4342 0.4441 0.4532 0.4564 0.4565
1435.000000 0.4576 0.4612 0.4612 0.4610 0.4524
1430.000000 0.4417 0.4310 0.4185 0.4169 0.4178
1425.000000 0.4194 0.4241 0.4321 0.4410 0.4497
1420.000000 0.4585 0.4727 0.4842 0.5129 0.5425
1415.000000 0.5720 0.5958 0.6105 0.6257 0.6411
1410.000000 0.6532 0.6628 0.6701 0.6771 0.6819
1405.000000 0.6865 0.6912 0.6956 0.6996 0.7036
1400.000000 0.7075 0.7115 0.7151 0.7175 0.7199
1395.000000 0.7224 0.7247 0.7261 0.7264 0.7264
1390.000000 0.7275 0.7258 0.7234 0.7168 0.7101
1385.000000 0.6958 0.6665 0.6564 0.6561 0.6537
1380.000000 0.6538 0.6597 0.6634 0.6653 0.6680
1375.000000 0.6807 0.6900 0.6980 0.7051 0.7115
1370.000000 0.7150 0.7154 0.7161 0.7161 0.7161
1365.000000 0.7135 0.7086 0.7015 0.6895 0.6774
1360.000000 0.6671 0.6587 0.6525 0.6488 0.6440
1355.000000 0.6469 0.6476 0.6538 0.6699 0.6911
1350.000000 0.7048 0.7090 0.7100 0.7106 0.7141
1345.000000 0.7211 0.7283 0.7355 0.7428 0.7486
1340.000000 0.7521 0.7546 0.7562 0.7576 0.7587
1335.000000 0.7597 0.7604 0.7608 0.7611 0.7611
1330.000000 0.7621 0.7651 0.7689 0.7726 0.7762
1325.000000 0.7788 0.7806 0.7822 0.7838 0.7851
1320.000000 0.7862 0.7871 0.7878 0.7883 0.7885
1315.000000 0.7875 0.7811 0.7678 0.7476 0.7275
1310.000000 0.7071 0.6868 0.6665 0.6491 0.6047
1305.000000 0.5444 0.4841 0.4237 0.3632 0.3129
1300.000000 0.3128 0.3409 0.3718 0.4028 0.4339
1295.000000 0.4649 0.4960 0.5272 0.5584 0.5897
1290.000000 0.6210 0.6524 0.6651 0.6571 0.6238
1285.000000 0.5838 0.5438 0.5037 0.4635 0.4232
1280.000000 0.3830 0.3509 0.3506 0.3522 0.3570
1275.000000 0.3632 0.3704 0.3849 0.4090 0.4343
1270.000000 0.4596 0.4849 0.5103 0.5358 0.5612
1265.000000 0.5868 0.6123 0.6379 0.6604 0.6836
1260.000000 0.6924 0.6956 0.6961 0.6968 0.6954
1255.000000 0.6938 0.6895 0.6840 0.6717 0.6597
1250.000000 0.6490 0.6296 0.6005 0.5502 0.4967
1245.000000 0.4431 0.3893 0.3355 0.2641 0.2623
1240.000000 0.2755 0.3000 0.3245 0.3491 0.3738
1235.000000 0.3984 0.4231 0.4479 0.4727 0.4976
1230.000000 0.5224 0.5474 0.5723 0.6057 0.6050
1225.000000 0.6065 0.6072 0.6016 0.5924 0.5796
1220.000000 0.5783 0.5788 0.5950 0.6124 0.6298
1215.000000 0.6472 0.6648 0.6824 0.6940 0.6981
1210.000000 0.7019 0.7046 0.7078 0.7068 0.7071
1205.000000 0.7006 0.6936 0.6878 0.6837 0.6819
1200.000000 0.6841 0.6858 0.6883 0.6806 0.6587
1195.000000 0.6367 0.6147 0.5927 0.5707 0.5486
1190.000000 0.5270 0.5253 0.5310 0.5574 0.5849
1185.000000 0.6124 0.6400 0.6646 0.6718 0.6765
1180.000000 0.6804 0.6843 0.6881 0.6918 0.6964
1175.000000 0.6962 0.6969 0.6951 0.6908 0.6568
1170.000000 0.5603 0.4368 0.4371 0.4404 0.4532
1165.000000 0.4652 0.4773 0.4894 0.5016 0.5137
1160.000000 0.5259 0.5381 0.5460 0.5465 0.5458
1155.000000 0.5446 0.5462 0.5524 0.5623 0.5735
1150.000000 0.5847 0.5960 0.6073 0.6185 0.6299
1145.000000 0.6411 0.6525 0.6639 0.6753 0.6919
1140.000000 0.6928 0.6921 0.6904 0.6871 0.6825
1135.000000 0.6787 0.6771 0.6791 0.6824 0.6858
1130.000000 0.6908 0.6965 0.7010 0.7051 0.7084
1125.000000 0.7084 0.7062 0.7021 0.6835 0.6548
1120.000000 0.6259 0.6015 0.6023 0.6147 0.6283
1115.000000 0.6418 0.6556 0.6658 0.6711 0.6750
1110.000000 0.6775 0.6791 0.6792 0.6792 0.6769
1105.000000 0.6661 0.6397 0.6122 0.5846 0.5570
1100.000000 0.5245 0.5244 0.5260 0.5305 0.5370
1095.000000 0.5447 0.5598 0.5794 0.5987 0.6164
1090.000000 0.6331 0.6499 0.6601 0.6654 0.6678
1085.000000 0.6699 0.6718 0.6736 0.6745 0.6734
1080.000000 0.6740 0.6724 0.6693 0.6653 0.6568
1075.000000 0.6385 0.5801 0.4915 0.4028 0.3384
1070.000000 0.3380 0.3491 0.3852 0.4233 0.4614
1065.000000 0.4996 0.5459 0.5799 0.5964 0.6127
1060.000000 0.6265 0.6352 0.6397 0.6396 0.6368
1055.000000 0.6259 0.6072 0.6072 0.6072 0.6112
1050.000000 0.6214 0.6312 0.6306 0.6125 0.5529
1045.000000 0.4924 0.4318 0.3709 0.2834 0.2827
1040.000000 0.2946 0.3312 0.3684 0.4057 0.4430
1035.000000 0.4722 0.4738 0.4638 0.4471 0.4319
1030.000000 0.4325 0.4382 0.4595 0.4946 0.5297
1025.000000 0.5649 0.5970 0.6162 0.6254 0.6301
1020.000000 0.6351 0.6355 0.6317 0.6133 0.5759
1015.000000 0.4929 0.3993 0.4018 0.4090 0.4672
1010.000000 0.5291 0.5872 0.6206 0.6364 0.6468
1005.000000 0.6542 0.6618 0.6690 0.6749 0.6801
1000.000000 0.6839 0.7158 0.7151 0.6715 0.6280
995.000000 0.5994 0.5997 0.6134 0.6323 0.6512
990.000000 0.6705 0.6876 0.6995 0.7068 0.7131
985.000000 0.7180 0.7210 0.7240 0.7265 0.7267
980.000000 0.7280 0.7257 0.7180 0.7086 0.6967
975.000000 0.6965 0.6975 0.7065 0.7198 0.7336
970.000000 0.7424 0.7480 0.7525 0.7571 0.7557
965.000000 0.7554 0.7490 0.7301 0.6711 0.6369
960.000000 0.6282 0.6238 0.6238 0.6233 0.6298
955.000000 0.6390 0.6561 0.6775 0.6975 0.7117
950.000000 0.7250 0.7375 0.7472 0.7547 0.7628
945.000000 0.7696 0.7738 0.7758 0.7775 0.7786
940.000000 0.7784 0.7798 0.7787 0.7767 0.7718
935.000000 0.7564 0.7195 0.6835 0.6678 0.6683
930.000000 0.6771 0.6919 0.7141 0.7295 0.7412
925.000000 0.7531 0.7656 0.7731 0.7725 0.7708
920.000000 0.7665 0.7691 0.7732 0.7794 0.7855
915.000000 0.7945 0.7930 0.7886 0.7704 0.7348
910.000000 0.6991 0.6605 0.6603 0.6853 0.7140
905.000000 0.7408 0.7539 0.7684 0.7817 0.7922
900.000000 0.7981 0.8003 0.8015 0.8034 0.8074
895.000000 0.8115 0.8135 0.8146 0.8156 0.8171
890.000000 0.8196 0.8190 0.8150 0.8134 0.8104
885.000000 0.7930 0.7732 0.7315 0.6897 0.6545
880.000000 0.6635 0.6918 0.7201 0.7487 0.7668
875.000000 0.7748 0.7811 0.7805 0.7797 0.7744
870.000000 0.7394 0.6345 0.5329 0.4062 0.4112
865.000000 0.4885 0.5691 0.6499 0.6903 0.7128
860.000000 0.7244 0.7318 0.7324 0.7245 0.7061
855.000000 0.6882 0.6746 0.6561 0.6556 0.6626
850.000000 0.6968 0.7395 0.7541 0.7669 0.7775
845.000000 0.7892 0.7975 0.8018 0.8042 0.8061
840.000000 0.8068 0.8043 0.7701 0.7191 0.6333
835.000000 0.6333 0.6373 0.6649 0.6925 0.7253
830.000000 0.7242 0.7192 0.6782 0.6162 0.5549
825.000000 0.4934 0.4318 0.3972 0.3968 0.4309
820.000000 0.4780 0.5251 0.5725 0.6310 0.6646
815.000000 0.6875 0.7021 0.7155 0.7260 0.7368
810.000000 0.7468 0.7526 0.7542 0.7561 0.7632
805.000000 0.7725 0.7764 0.7792 0.7837 0.7885
800.000000 0.7924 0.7956 0.7982 0.7997 0.8005
795.000000 0.8007 0.7993 0.7922 0.7754 0.7504
790.000000 0.7521 0.7542 0.7707 0.7768 0.7918
785.000000 0.7978 0.7978 0.7871 0.7767 0.7785
780.000000 0.7784 0.7875 0.7861 0.7668 0.7385
775.000000 0.7084 0.7108 0.7261 0.7439 0.7592
770.000000 0.7728 0.7836 0.7924 0.8001 0.8078
765.000000 0.8149 0.8199 0.8211 0.8209 0.8225
760.000000 0.8268 0.8303 0.8311 0.8321 0.8335
755.000000 0.8348 0.8366 0.8385 0.8393 0.8390
750.000000 0.8390 0.8391 0.8399 0.8408 0.8428
745.000000 0.8439 0.8441 0.8443 0.8446 0.8448
740.000000 0.8470 0.8459 0.8466 0.8468 0.8470
735.000000 0.8464 0.8453 0.8428 0.8397 0.8348
730.000000 0.8181 0.7712 0.7244 0.6933 0.7081
725.000000 0.7386 0.7594 0.7771 0.7938 0.8089
720.000000 0.8200 0.8241 0.8241 0.8239 0.8236
715.000000 0.8250 0.8271 0.8305 0.8341 0.8363
710.000000 0.8382 0.8386 0.8370 0.8335 0.8299
705.000000 0.8308 0.8349 0.8328 0.8320 0.8297
700.000000 0.8264 0.8225 0.8169 0.8046 0.7833
695.000000 0.7332 0.6774 0.6196 0.6205 0.6347
690.000000 0.6651 0.7001 0.7315 0.7506 0.7633
685.000000 0.7721 0.7788 0.7847 0.7881 0.7906
680.000000 0.7940 0.7978 0.8008 0.8024 0.8043
675.000000 0.8017 0.8000 0.7971
##END=
