##TITLE=Adenine, N-[o-(methylthio)phenyl]-
##JCAMP-DX=4.24
##DATA TYPE=INFRARED SPECTRUM
##CLASS=COBLENTZ III
##ORIGIN=SOUTHERN RESEARCH INSTITUTE
##OWNER=Copyright (C) 1987 by the Coblentz Society
Collection (C) 2018 copyright by the U.S. Secretary of Commerce
on behalf of the United States of America. All rights reserved.
##DATE=1959/06/10
##NAMES=N-[2-(methylsulfanyl)phenyl]-N-(9H-purin-6-yl)amine
N-[2-(methylsulfanyl)phenyl]-9H-purin-6-amine
##MOLFORM=C12 H11 N5 S
##SOURCE REFERENCE=COBLENTZ NO. 8710
##$NIST ID=B6008710
##$NIST SOURCE=COBLENTZ
##$NIST IMAGE=cob8710
##SPECTROMETER/DATA SYSTEM=PERKIN-ELMER 21 (GRATING)
##INSTRUMENT PARAMETERS=FILTER CHANGE ABOUT 1090 CM^-^1
##STATE=SOLID (1 mg / 650 mg KBr DISC)
##SAMPLING PROCEDURE=TRANSMISSION
##RESOLUTION=2
##DATA PROCESSING=DIGITIZED BY COBLENTZ SOCIETY (BATCH II) FROM HARD COPY (ADJUSTED \addcm-1\10-8-2\)
##XUNITS=1/CM
##YUNITS=TRANSMITTANCE
##XFACTOR=1.0
##YFACTOR=1
##DELTAX=1.002545
##FIRSTX=603.347
##LASTX=4011
##FIRSTY=0.8174
##MAXX=4011
##MINX=603.347
##MAXY=0.875444
##MINY=0.0888294
##NPOINTS=3400
##XYDATA=(X++(Y..Y))
603.346667 0.8174 0.8184 0.8191 0.8198 0.8205
608.359392 0.8208 0.8210 0.8211 0.8201 0.8203
613.372118 0.8199 0.8196 0.8192 0.8188 0.8184
618.384843 0.8179 0.8172 0.8166 0.8159 0.8147
623.397569 0.8133 0.8119 0.8105 0.8081 0.8049
628.410294 0.8017 0.7978 0.7923 0.7862 0.7802
633.423020 0.7728 0.7641 0.7550 0.7439 0.7302
638.435745 0.7155 0.6948 0.6440 0.6041 0.5826
643.448471 0.5610 0.5395 0.5179 0.4991 0.4900
648.461196 0.4874 0.6834 0.8738 0.8754 0.8749
653.473922 0.8733 0.8716 0.8698 0.8678 0.8605
658.486647 0.8440 0.8245 0.8051 0.7856 0.7636
663.499373 0.7433 0.7335 0.7271 0.7253 0.7332
668.512098 0.7628 0.8000 0.8286 0.8337 0.8347
673.524824 0.8366 0.8337 0.8332 0.8314 0.8294
678.537549 0.8272 0.8238 0.8194 0.8147 0.8100
683.550275 0.8051 0.7978 0.7831 0.7597 0.7442
688.563000 0.7320 0.7160 0.6478 0.6424 0.6401
693.575725 0.6421 0.6507 0.6996 0.7486 0.7976
698.588451 0.8498 0.8488 0.8489 0.8489 0.8410
703.601176 0.8338 0.8243 0.8164 0.8124 0.8127
708.613902 0.8178 0.8234 0.8288 0.8326 0.8325
713.626627 0.8334 0.8312 0.8297 0.8276 0.8251
718.639353 0.8213 0.8170 0.8121 0.8070 0.7993
723.652078 0.7896 0.7787 0.7686 0.7602 0.7523
728.664804 0.7454 0.7392 0.7327 0.7246 0.7190
733.677529 0.7193 0.7226 0.7261 0.7293 0.7326
738.690255 0.7356 0.7370 0.7368 0.7359 0.7349
743.702980 0.7330 0.7301 0.7267 0.7215 0.6880
748.715706 0.6482 0.6364 0.6261 0.6162 0.5809
753.728431 0.4972 0.4113 0.3733 0.3704 0.3693
758.741157 0.3709 0.3733 0.3916 0.4406 0.4941
763.753882 0.5476 0.6011 0.6546 0.7081 0.7582
768.766608 0.7894 0.7929 0.7947 0.7955 0.7942
773.779333 0.7934 0.7926 0.7915 0.7903 0.7890
778.792059 0.7874 0.7857 0.7841 0.7825 0.7804
783.804784 0.7783 0.7761 0.7717 0.7638 0.7562
788.817510 0.7478 0.7385 0.7242 0.6991 0.6702
793.830235 0.6413 0.6123 0.5833 0.5543 0.5517
798.842961 0.5490 0.6168 0.7152 0.7291 0.7330
803.855686 0.7359 0.7362 0.7359 0.7356 0.7352
808.868412 0.7354 0.7345 0.7326 0.7306 0.7280
813.881137 0.7246 0.7208 0.7165 0.7121 0.7069
818.893863 0.7014 0.6962 0.6914 0.6868 0.6821
823.906588 0.6774 0.6728 0.6682 0.6637 0.6579
828.919314 0.6518 0.6436 0.6345 0.6341 0.6367
833.932039 0.6385 0.6401 0.6416 0.6432 0.6442
838.944765 0.6448 0.6418 0.6317 0.6248 0.6207
843.957490 0.6173 0.6146 0.6126 0.6117 0.6115
848.970216 0.6114 0.6114 0.6115 0.6125 0.6123
853.982941 0.6121 0.6124 0.6135 0.6231 0.6354
858.995667 0.6450 0.6499 0.6524 0.6546 0.6558
864.008392 0.6563 0.6571 0.6580 0.6599 0.6637
869.021118 0.6667 0.6665 0.6670 0.6662 0.6637
874.033843 0.6613 0.6584 0.6517 0.6449 0.6424
879.046569 0.6422 0.6426 0.6430 0.6469 0.6550
884.059294 0.6627 0.6689 0.6743 0.6787 0.6821
889.072020 0.6853 0.6862 0.6850 0.6841 0.6829
894.084745 0.6811 0.6788 0.6761 0.6730 0.6690
899.097471 0.6640 0.6582 0.6516 0.6443 0.6346
904.110196 0.6214 0.6049 0.5862 0.5675 0.5488
909.122922 0.5301 0.5191 0.5188 0.5350 0.5730
914.135647 0.6109 0.6488 0.6718 0.6724 0.6722
919.148373 0.6715 0.6701 0.6681 0.6648 0.6609
924.161098 0.6553 0.6479 0.6398 0.6283 0.6064
929.173824 0.5630 0.4961 0.4292 0.3623 0.3019
934.186549 0.2704 0.2883 0.3069 0.3316 0.4857
939.199275 0.5550 0.6243 0.6953 0.7522 0.7657
944.212000 0.7733 0.7760 0.7773 0.7783 0.7788
949.224725 0.7794 0.7782 0.7773 0.7764 0.7749
954.237451 0.7722 0.7679 0.7625 0.7563 0.7489
959.250176 0.7432 0.7393 0.7384 0.7374 0.7364
964.262902 0.7356 0.7354 0.7362 0.7371 0.7385
969.275627 0.7404 0.7426 0.7457 0.7489 0.7518
974.288353 0.7537 0.7553 0.7561 0.7556 0.7551
979.301078 0.7545 0.7534 0.7520 0.7503 0.7456
984.313804 0.7407 0.7387 0.7394 0.7417 0.7468
989.326529 0.7512 0.7540 0.7543 0.7541 0.7535
994.339255 0.7525 0.7516 0.7502 0.7487 0.7472
999.351980 0.7455 0.7436 0.7385 0.7335 0.7317
1004.364706 0.7299 0.7284 0.7273 0.7262 0.7252
1009.377431 0.7241 0.7230 0.7213 0.7192 0.7171
1014.390157 0.7151 0.7135 0.7122 0.7110 0.7098
1019.402882 0.7085 0.7073 0.7060 0.7047 0.7033
1024.415608 0.7019 0.6972 0.6907 0.6852 0.6790
1029.428333 0.6712 0.6632 0.6559 0.6488 0.6417
1034.441059 0.6359 0.6302 0.6245 0.6189 0.6138
1039.453784 0.6110 0.6111 0.6231 0.6112 0.6679
1044.466510 0.6871 0.6910 0.6939 0.6928 0.6918
1049.479235 0.6896 0.6866 0.6823 0.6784 0.6748
1054.491961 0.6713 0.6678 0.6645 0.6618 0.6592
1059.504686 0.6565 0.6539 0.6512 0.6484 0.6449
1064.517412 0.6412 0.6390 0.6389 0.6394 0.6411
1069.530137 0.6430 0.6480 0.6532 0.6581 0.6602
1074.542863 0.6613 0.6614 0.6608 0.6595 0.6577
1079.555588 0.6554 0.6526 0.6499 0.6474 0.6450
1084.568314 0.6425 0.6398 0.6369 0.6339 0.5889
1089.581039 0.5208 0.4839 0.4750 0.4915 0.5129
1094.593765 0.5324 0.5520 0.5715 0.5909 0.6104
1099.606490 0.6299 0.6450 0.6503 0.6516 0.6517
1104.619216 0.6519 0.6502 0.6483 0.6470 0.6455
1109.631941 0.6433 0.6408 0.6377 0.6344 0.6308
1114.644667 0.6265 0.6219 0.6173 0.6134 0.6100
1119.657392 0.6065 0.6031 0.5997 0.5961 0.5919
1124.670118 0.5872 0.5825 0.5777 0.5729 0.5682
1129.682843 0.5646 0.5631 0.5626 0.5621 0.5615
1134.695569 0.5632 0.5681 0.5730 0.5803 0.5887
1139.708294 0.5974 0.6072 0.6158 0.6217 0.6246
1144.721020 0.6260 0.6270 0.6259 0.6255 0.6249
1149.733745 0.6240 0.6230 0.6218 0.6201 0.6182
1154.746471 0.6163 0.6145 0.6127 0.6109 0.6090
1159.759196 0.6064 0.6021 0.5977 0.5929 0.5877
1164.771922 0.5825 0.5766 0.5699 0.5614 0.5471
1169.784647 0.5440 0.5442 0.5624 0.5738 0.5853
1174.797373 0.5969 0.6084 0.6199 0.6305 0.6285
1179.810098 0.6279 0.6272 0.6258 0.6244 0.6230
1184.822824 0.6215 0.6200 0.6181 0.6161 0.6143
1189.835549 0.6123 0.6104 0.6082 0.6057 0.6032
1194.848275 0.6008 0.5983 0.5958 0.5933 0.5908
1199.861000 0.5883 0.5858 0.5832 0.5806 0.5779
1204.873725 0.5753 0.5728 0.5702 0.5676 0.5648
1209.886451 0.5617 0.5587 0.5557 0.5527 0.5496
1214.899176 0.5466 0.5435 0.5389 0.5335 0.5280
1219.911902 0.5223 0.5156 0.5086 0.5017 0.4912
1224.924627 0.4787 0.4647 0.4526 0.4479 0.4474
1229.937353 0.4517 0.4588 0.4664 0.4741 0.4817
1234.950078 0.4857 0.4875 0.4863 0.4844 0.4810
1239.962804 0.4696 0.4531 0.4356 0.4181 0.4007
1244.975529 0.3741 0.3622 0.3628 0.3696 0.3966
1249.988255 0.4347 0.4728 0.5113 0.5264 0.5245
1255.000980 0.5242 0.5235 0.5210 0.5164 0.5084
1260.013706 0.4957 0.4808 0.4659 0.4541 0.4515
1265.026431 0.4570 0.4656 0.4757 0.4858 0.4959
1270.039157 0.5060 0.5162 0.5237 0.5252 0.5215
1275.051882 0.5108 0.4938 0.4767 0.4596 0.4448
1280.064608 0.4375 0.4413 0.4553 0.4696 0.4839
1285.077333 0.4992 0.5080 0.5010 0.5009 0.5003
1290.090059 0.4994 0.4977 0.4954 0.4913 0.4855
1295.102784 0.4772 0.4648 0.4531 0.4424 0.4316
1300.115510 0.4194 0.4005 0.3725 0.3505 0.3323
1305.128235 0.3154 0.3003 0.2894 0.2784 0.2678
1310.140961 0.2595 0.2589 0.2611 0.2586 0.2605
1315.153686 0.2746 0.2998 0.3241 0.3385 0.3401
1320.166412 0.3412 0.3408 0.3400 0.3392 0.3386
1325.179137 0.3404 0.3454 0.3531 0.3677 0.3863
1330.191863 0.4791 0.5000 0.5126 0.5195 0.5251
1335.204588 0.5291 0.5326 0.5356 0.5376 0.5422
1340.217314 0.5399 0.5373 0.5326 0.5274 0.5204
1345.230039 0.5131 0.5078 0.5056 0.5050 0.5045
1350.242765 0.5041 0.5039 0.4952 0.4840 0.4760
1355.255490 0.4687 0.4614 0.4506 0.4382 0.4246
1360.268216 0.4098 0.3939 0.3771 0.3593 0.3426
1365.280941 0.3271 0.3119 0.2968 0.2816 0.2664
1370.293667 0.2602 0.2594 0.2603 0.2803 0.3152
1375.306392 0.3528 0.3905 0.4282 0.4659 0.5036
1380.319118 0.5496 0.5696 0.5697 0.5698 0.5696
1385.331843 0.5695 0.5685 0.5668 0.5650 0.5628
1390.344569 0.5578 0.5318 0.4868 0.4580 0.4490
1395.357294 0.4430 0.4382 0.4353 0.4340 0.4331
1400.370020 0.4325 0.4321 0.4316 0.4312 0.4307
1405.382745 0.4303 0.4302 0.4303 0.4305 0.4306
1410.395471 0.4307 0.4309 0.4309 0.4307 0.4303
1415.408196 0.4299 0.4293 0.4278 0.4250 0.4215
1420.420922 0.4175 0.4126 0.4057 0.3986 0.3914
1425.433647 0.3787 0.3560 0.3445 0.3339 0.3213
1430.446373 0.3017 0.2726 0.2540 0.2406 0.2292
1435.459098 0.2181 0.2083 0.1988 0.1908 0.1859
1440.471824 0.1815 0.1788 0.1760 0.1724 0.1686
1445.484549 0.1656 0.1644 0.1660 0.1662 0.1695
1450.497275 0.1729 0.1774 0.1816 0.1853 0.1893
1455.510000 0.1945 0.2019 0.2278 0.2686 0.3094
1460.522725 0.3501 0.3834 0.3920 0.3981 0.4014
1465.535451 0.4078 0.4030 0.4027 0.4024 0.4014
1470.548176 0.3844 0.3660 0.3476 0.3292 0.3108
1475.560902 0.2924 0.2740 0.2556 0.2357 0.2183
1480.573627 0.2106 0.2044 0.2014 0.1988 0.1975
1485.586353 0.1967 0.1970 0.1985 0.2105 0.2351
1490.599078 0.2621 0.2892 0.3162 0.3433 0.3703
1495.611804 0.3973 0.4244 0.4514 0.4785 0.5007
1500.624529 0.5021 0.5040 0.5048 0.4937 0.4888
1505.637255 0.4882 0.4876 0.4874 0.4746 0.4553
1510.649980 0.4359 0.4164 0.3979 0.3901 0.3874
1515.662706 0.3845 0.3816 0.3787 0.3760 0.3640
1520.675431 0.3458 0.3267 0.3077 0.2887 0.2697
1525.688157 0.2506 0.2316 0.2094 0.1909 0.1807
1530.700882 0.1759 0.1738 0.1728 0.1707 0.1718
1535.713608 0.1739 0.1914 0.2172 0.2437 0.2703
1540.726333 0.2968 0.3233 0.3499 0.3765 0.4029
1545.739059 0.4295 0.4561 0.4825 0.4942 0.4937
1550.751784 0.4929 0.4924 0.4911 0.4894 0.4877
1555.764510 0.4849 0.4811 0.4768 0.4713 0.4578
1560.777235 0.4216 0.3794 0.3372 0.3204 0.3131
1565.789961 0.3044 0.2972 0.2930 0.2896 0.2846
1570.802686 0.2777 0.1980 0.1684 0.1548 0.1405
1575.815412 0.1260 0.1056 0.0998 0.1015 0.0998
1580.828137 0.0996 0.1019 0.1076 0.1146 0.1218
1585.840863 0.1587 0.2042 0.2502 0.2963 0.3424
1590.853588 0.3886 0.4164 0.4213 0.3847 0.3517
1595.866314 0.3203 0.2888 0.2573 0.2259 0.1944
1600.879039 0.1629 0.1314 0.1029 0.0954 0.0921
1605.891765 0.0910 0.0902 0.0896 0.0891 0.0888
1610.904490 0.0891 0.0893 0.0895 0.0921 0.0904
1615.917216 0.0906 0.0911 0.0918 0.0934 0.0951
1620.929941 0.0995 0.1046 0.1156 0.1301 0.1429
1625.942667 0.1547 0.1723 0.2027 0.2362 0.2593
1630.955392 0.2820 0.3046 0.3272 0.3498 0.3724
1635.968118 0.3950 0.4176 0.4402 0.4629 0.4712
1640.980843 0.4812 0.4870 0.4925 0.4989 0.5077
1645.993569 0.5158 0.5229 0.5300 0.5370 0.5430
1651.006294 0.5491 0.5552 0.5651 0.6153 0.6255
1656.019020 0.6352 0.6428 0.6503 0.6578 0.6635
1661.031745 0.6688 0.6740 0.6790 0.6839 0.6888
1666.044471 0.6941 0.7039 0.7083 0.7127 0.7170
1671.057196 0.7215 0.7258 0.7299 0.7340 0.7379
1676.069922 0.7416 0.7449 0.7482 0.7505 0.7527
1681.082647 0.7547 0.7560 0.7569 0.7577 0.7585
1686.095373 0.7585 0.7583 0.7578 0.7572 0.7567
1691.108098 0.7563 0.7558 0.7553 0.7548 0.7535
1696.120824 0.7516 0.7501 0.7488 0.7476 0.7464
1701.133549 0.7454 0.7458 0.7461 0.7465 0.7470
1706.146275 0.7481 0.7499 0.7518 0.7538 0.7556
1711.159000 0.7573 0.7582 0.7590 0.7588 0.7584
1716.171725 0.7580 0.7577 0.7577 0.7578 0.7582
1721.184451 0.7592 0.7603 0.7612 0.7619 0.7619
1726.197176 0.7616 0.7609 0.7602 0.7597 0.7593
1731.209902 0.7589 0.7585 0.7582 0.7585 0.7592
1736.222627 0.7600 0.7608 0.7620 0.7633 0.7647
1741.235353 0.7657 0.7667 0.7672 0.7672 0.7673
1746.248078 0.7671 0.7666 0.7662 0.7660 0.7665
1751.260804 0.7672 0.7678 0.7685 0.7693 0.7700
1756.273529 0.7707 0.7714 0.7721 0.7728 0.7735
1761.286255 0.7743 0.7753 0.7763 0.7774 0.7783
1766.298980 0.7791 0.7797 0.7803 0.7810 0.7813
1771.311706 0.7806 0.7805 0.7804 0.7803 0.7801
1776.324431 0.7797 0.7792 0.7788 0.7783 0.7779
1781.337157 0.7774 0.7769 0.7764 0.7757 0.7751
1786.349882 0.7744 0.7737 0.7730 0.7722 0.7714
1791.362608 0.7706 0.7701 0.7698 0.7695 0.7692
1796.375333 0.7690 0.7687 0.7685 0.7685 0.7688
1801.388059 0.7690 0.7693 0.7696 0.7699 0.7704
1806.400784 0.7712 0.7717 0.7717 0.7713 0.7708
1811.413510 0.7704 0.7696 0.7684 0.7672 0.7657
1816.426235 0.7636 0.7620 0.7610 0.7601 0.7592
1821.438961 0.7583 0.7574 0.7567 0.7563 0.7560
1826.451686 0.7558 0.7556 0.7553 0.7550 0.7544
1831.464412 0.7538 0.7533 0.7527 0.7521 0.7515
1836.477137 0.7508 0.7500 0.7490 0.7482 0.7478
1841.489863 0.7475 0.7472 0.7469 0.7467 0.7463
1846.502588 0.7460 0.7457 0.7454 0.7451 0.7448
1851.515314 0.7445 0.7439 0.7430 0.7420 0.7411
1856.528039 0.7401 0.7392 0.7381 0.7367 0.7349
1861.540765 0.7333 0.7320 0.7309 0.7302 0.7303
1866.553490 0.7306 0.7313 0.7324 0.7336 0.7347
1871.566216 0.7357 0.7364 0.7366 0.7364 0.7362
1876.578941 0.7359 0.7356 0.7352 0.7347 0.7341
1881.591667 0.7334 0.7328 0.7321 0.7314 0.7307
1886.604392 0.7298 0.7286 0.7272 0.7258 0.7245
1891.617118 0.7232 0.7219 0.7209 0.7202 0.7196
1896.629843 0.7190 0.7184 0.7181 0.7181 0.7182
1901.642569 0.7184 0.7185 0.7188 0.7191 0.7195
1906.655294 0.7198 0.7201 0.7203 0.7205 0.7207
1911.668020 0.7208 0.7210 0.7210 0.7210 0.7209
1916.680745 0.7209 0.7208 0.7205 0.7202 0.7199
1921.693471 0.7196 0.7193 0.7190 0.7187 0.7184
1926.706196 0.7181 0.7178 0.7173 0.7168 0.7163
1931.718922 0.7158 0.7153 0.7148 0.7143 0.7138
1936.731647 0.7133 0.7128 0.7123 0.7117 0.7110
1941.744373 0.7103 0.7097 0.7095 0.7092 0.7089
1946.757098 0.7086 0.7083 0.7080 0.7078 0.7075
1951.769824 0.7072 0.7069 0.7067 0.7064 0.7061
1956.782549 0.7058 0.7055 0.7053 0.7050 0.7047
1961.795275 0.7045 0.7043 0.7041 0.7039 0.7037
1966.808000 0.7035 0.7033 0.7032 0.7030 0.7028
1971.820725 0.7026 0.7024 0.7022 0.7019 0.7016
1976.833451 0.7014 0.7010 0.7008 0.7005 0.7002
1981.846176 0.7000 0.6997 0.6994 0.6992 0.6989
1986.858902 0.6987 0.6984 0.6981 0.6979 0.6976
1991.871627 0.6974 0.6971 0.6969 0.6966 0.6964
1996.884353 0.6961 0.6958 0.6956 0.6953 0.6951
2001.897078 0.6948 0.6945 0.6942 0.6939 0.6936
2006.909804 0.6933 0.6930 0.6926 0.6923 0.6920
2011.922529 0.6917 0.6914 0.6911 0.6908 0.6905
2016.935255 0.6902 0.6899 0.6896 0.6893 0.6890
2021.947980 0.6887 0.6885 0.6882 0.6879 0.6876
2026.960706 0.6874 0.6871 0.6868 0.6866 0.6863
2031.973431 0.6860 0.6857 0.6855 0.6852 0.6849
2036.986157 0.6847 0.6844 0.6841 0.6838 0.6836
2041.998882 0.6833 0.6831 0.6829 0.6827 0.6824
2047.011608 0.6822 0.6820 0.6818 0.6816 0.6814
2052.024333 0.6812 0.6809 0.6806 0.6803 0.6800
2057.037059 0.6797 0.6794 0.6792 0.6789 0.6786
2062.049784 0.6783 0.6780 0.6777 0.6774 0.6771
2067.062510 0.6767 0.6763 0.6759 0.6755 0.6751
2072.075235 0.6747 0.6742 0.6738 0.6734 0.6730
2077.087961 0.6726 0.6722 0.6718 0.6714 0.6709
2082.100686 0.6702 0.6695 0.6688 0.6681 0.6674
2087.113412 0.6668 0.6661 0.6654 0.6647 0.6640
2092.126137 0.6633 0.6626 0.6619 0.6613 0.6603
2097.138863 0.6592 0.6582 0.6571 0.6560 0.6549
2102.151588 0.6538 0.6527 0.6516 0.6504 0.6491
2107.164314 0.6485 0.6482 0.6480 0.6479 0.6478
2112.177039 0.6478 0.6477 0.6476 0.6475 0.6475
2117.189765 0.6474 0.6473 0.6473 0.6472 0.6474
2122.202490 0.6480 0.6486 0.6489 0.6490 0.6492
2127.215216 0.6493 0.6495 0.6496 0.6498 0.6499
2132.227941 0.6501 0.6502 0.6499 0.6487 0.6473
2137.240667 0.6459 0.6444 0.6431 0.6423 0.6416
2142.253392 0.6411 0.6407 0.6403 0.6399 0.6395
2147.266118 0.6391 0.6387 0.6384 0.6381 0.6378
2152.278843 0.6375 0.6371 0.6368 0.6364 0.6359
2157.291569 0.6355 0.6351 0.6347 0.6342 0.6338
2162.304294 0.6333 0.6329 0.6325 0.6320 0.6316
2167.317020 0.6312 0.6307 0.6303 0.6299 0.6295
2172.329745 0.6290 0.6286 0.6282 0.6277 0.6273
2177.342471 0.6269 0.6265 0.6262 0.6258 0.6255
2182.355196 0.6252 0.6248 0.6245 0.6242 0.6238
2187.367922 0.6235 0.6231 0.6228 0.6225 0.6222
2192.380647 0.6219 0.6216 0.6213 0.6211 0.6208
2197.393373 0.6205 0.6202 0.6199 0.6197 0.6194
2202.406098 0.6191 0.6188 0.6186 0.6183 0.6180
2207.418824 0.6178 0.6175 0.6173 0.6170 0.6167
2212.431549 0.6165 0.6162 0.6160 0.6157 0.6155
2217.444275 0.6152 0.6150 0.6149 0.6148 0.6146
2222.457000 0.6145 0.6144 0.6143 0.6141 0.6134
2227.469725 0.6125 0.6116 0.6107 0.6098 0.6089
2232.482451 0.6080 0.6071 0.6064 0.6060 0.6057
2237.495176 0.6055 0.6054 0.6052 0.6050 0.6048
2242.507902 0.6044 0.6040 0.6034 0.6027 0.6020
2247.520627 0.6014 0.6007 0.6000 0.5993 0.5986
2252.533353 0.5979 0.5974 0.5970 0.5967 0.5963
2257.546078 0.5959 0.5955 0.5951 0.5948 0.5944
2262.558804 0.5940 0.5936 0.5932 0.5929 0.5925
2267.571529 0.5921 0.5917 0.5913 0.5910 0.5909
2272.584255 0.5908 0.5907 0.5906 0.5905 0.5904
2277.596980 0.5903 0.5902 0.5900 0.5899 0.5898
2282.609706 0.5897 0.5896 0.5895 0.5894 0.5893
2287.622431 0.5891 0.5883 0.5873 0.5863 0.5854
2292.635157 0.5844 0.5833 0.5818 0.5802 0.5786
2297.647882 0.5771 0.5758 0.5746 0.5734 0.5722
2302.660608 0.5710 0.5698 0.5686 0.5675 0.5667
2307.673333 0.5659 0.5651 0.5643 0.5636 0.5628
2312.686059 0.5620 0.5612 0.5605 0.5597 0.5590
2317.698784 0.5580 0.5567 0.5553 0.5540 0.5525
2322.711510 0.5506 0.5489 0.5478 0.5470 0.5462
2327.724235 0.5458 0.5456 0.5455 0.5454 0.5453
2332.736961 0.5452 0.5452 0.5453 0.5453 0.5453
2337.749686 0.5453 0.5454 0.5454 0.5454 0.5453
2342.762412 0.5452 0.5452 0.5451 0.5450 0.5449
2347.775137 0.5449 0.5448 0.5447 0.5447 0.5446
2352.787863 0.5445 0.5444 0.5443 0.5442 0.5441
2357.800588 0.5439 0.5438 0.5437 0.5436 0.5435
2362.813314 0.5434 0.5432 0.5431 0.5430 0.5429
2367.826039 0.5428 0.5427 0.5426 0.5425 0.5424
2372.838765 0.5423 0.5422 0.5421 0.5420 0.5419
2377.851490 0.5418 0.5417 0.5416 0.5415 0.5414
2382.864216 0.5413 0.5412 0.5411 0.5410 0.5409
2387.876941 0.5408 0.5403 0.5396 0.5389 0.5382
2392.889667 0.5375 0.5368 0.5362 0.5356 0.5351
2397.902392 0.5345 0.5339 0.5334 0.5329 0.5326
2402.915118 0.5327 0.5327 0.5327 0.5327 0.5327
2407.927843 0.5327 0.5326 0.5326 0.5326 0.5325
2412.940569 0.5324 0.5322 0.5320 0.5316 0.5305
2417.953294 0.5293 0.5281 0.5270 0.5260 0.5250
2422.966020 0.5239 0.5229 0.5219 0.5212 0.5206
2427.978745 0.5202 0.5199 0.5196 0.5194 0.5192
2432.991471 0.5191 0.5190 0.5189 0.5188 0.5187
2438.004196 0.5185 0.5184 0.5181 0.5177 0.5174
2443.016922 0.5171 0.5163 0.5153 0.5144 0.5134
2448.029647 0.5125 0.5115 0.5106 0.5105 0.5105
2453.042373 0.5104 0.5104 0.5103 0.5103 0.5103
2458.055098 0.5102 0.5102 0.5101 0.5101 0.5101
2463.067824 0.5093 0.5085 0.5077 0.5070 0.5062
2468.080549 0.5056 0.5058 0.5063 0.5068 0.5074
2473.093275 0.5079 0.5081 0.5081 0.5081 0.5081
2478.106000 0.5076 0.5071 0.5065 0.5055 0.5046
2483.118725 0.5036 0.5027 0.5016 0.4996 0.4976
2488.131451 0.4955 0.4935 0.4913 0.4891 0.4881
2493.144176 0.4877 0.4874 0.4872 0.4870 0.4867
2498.156902 0.4863 0.4859 0.4855 0.4852 0.4848
2503.169627 0.4840 0.4829 0.4818 0.4807 0.4796
2508.182353 0.4787 0.4782 0.4777 0.4772 0.4770
2513.195078 0.4768 0.4768 0.4768 0.4768 0.4768
2518.207804 0.4767 0.4759 0.4752 0.4744 0.4737
2523.220529 0.4729 0.4718 0.4706 0.4694 0.4683
2528.233255 0.4672 0.4660 0.4649 0.4637 0.4625
2533.245980 0.4613 0.4600 0.4588 0.4579 0.4569
2538.258706 0.4559 0.4550 0.4542 0.4537 0.4534
2543.271431 0.4531 0.4530 0.4529 0.4528 0.4528
2548.284157 0.4531 0.4536 0.4540 0.4545 0.4549
2553.296882 0.4555 0.4567 0.4587 0.4602 0.4610
2558.309608 0.4619 0.4626 0.4630 0.4632 0.4633
2563.322333 0.4635 0.4636 0.4637 0.4637 0.4638
2568.335059 0.4638 0.4638 0.4637 0.4636 0.4635
2573.347784 0.4634 0.4632 0.4629 0.4623 0.4618
2578.360510 0.4612 0.4607 0.4602 0.4597 0.4591
2583.373235 0.4586 0.4581 0.4575 0.4569 0.4563
2588.385961 0.4556 0.4550 0.4544 0.4537 0.4531
2593.398686 0.4525 0.4519 0.4513 0.4507 0.4501
2598.411412 0.4495 0.4489 0.4482 0.4476 0.4470
2603.424137 0.4465 0.4459 0.4453 0.4447 0.4441
2608.436863 0.4435 0.4430 0.4424 0.4418 0.4412
2613.449588 0.4406 0.4401 0.4395 0.4390 0.4385
2618.462314 0.4380 0.4376 0.4371 0.4366 0.4361
2623.475039 0.4356 0.4352 0.4347 0.4342 0.4337
2628.487765 0.4332 0.4327 0.4323 0.4318 0.4313
2633.500490 0.4308 0.4303 0.4298 0.4293 0.4289
2638.513216 0.4284 0.4279 0.4275 0.4270 0.4263
2643.525941 0.4252 0.4241 0.4230 0.4218 0.4205
2648.538667 0.4191 0.4176 0.4160 0.4153 0.4154
2653.551392 0.4156 0.4157 0.4158 0.4159 0.4160
2658.564118 0.4162 0.4161 0.4160 0.4158 0.4155
2663.576843 0.4152 0.4149 0.4145 0.4138 0.4132
2668.589569 0.4126 0.4120 0.4113 0.4106 0.4099
2673.602294 0.4092 0.4085 0.4078 0.4071 0.4067
2678.615020 0.4063 0.4059 0.4055 0.4051 0.4047
2683.627745 0.4044 0.4041 0.4038 0.4035 0.4033
2688.640471 0.4030 0.4026 0.4021 0.4016 0.4008
2693.653196 0.3998 0.3988 0.3977 0.3967 0.3957
2698.665922 0.3946 0.3935 0.3928 0.3922 0.3917
2703.678647 0.3911 0.3905 0.3900 0.3894 0.3889
2708.691373 0.3883 0.3877 0.3872 0.3866 0.3862
2713.704098 0.3861 0.3860 0.3859 0.3859 0.3858
2718.716824 0.3858 0.3857 0.3857 0.3857 0.3858
2723.729549 0.3859 0.3860 0.3861 0.3862 0.3863
2728.742275 0.3864 0.3866 0.3865 0.3863 0.3860
2733.755000 0.3856 0.3853 0.3848 0.3842 0.3837
2738.767725 0.3832 0.3827 0.3822 0.3817 0.3812
2743.780451 0.3806 0.3800 0.3794 0.3787 0.3781
2748.793176 0.3775 0.3769 0.3763 0.3756 0.3750
2753.805902 0.3743 0.3737 0.3730 0.3723 0.3717
2758.818627 0.3710 0.3703 0.3696 0.3690 0.3683
2763.831353 0.3679 0.3675 0.3671 0.3668 0.3664
2768.844078 0.3661 0.3657 0.3654 0.3652 0.3654
2773.856804 0.3656 0.3657 0.3659 0.3661 0.3662
2778.869529 0.3664 0.3666 0.3670 0.3674 0.3688
2783.882255 0.3684 0.3687 0.3691 0.3693 0.3681
2788.894980 0.3669 0.3657 0.3643 0.3633 0.3629
2793.907706 0.3626 0.3622 0.3619 0.3621 0.3623
2798.920431 0.3625 0.3626 0.3628 0.3636 0.3644
2803.933157 0.3652 0.3660 0.3666 0.3671 0.3677
2808.945882 0.3682 0.3688 0.3694 0.3699 0.3706
2813.958608 0.3712 0.3719 0.3726 0.3733 0.3740
2818.971333 0.3746 0.3753 0.3760 0.3769 0.3777
2823.984059 0.3786 0.3794 0.3802 0.3811 0.3819
2828.996784 0.3827 0.3834 0.3841 0.3849 0.3856
2834.009510 0.3864 0.3871 0.3878 0.3886 0.3895
2839.022235 0.3904 0.3912 0.3921 0.3930 0.3938
2844.034961 0.3947 0.3956 0.3961 0.3965 0.3970
2849.047686 0.3976 0.3980 0.3985 0.3989 0.3986
2854.060412 0.3984 0.3981 0.3978 0.3976 0.3972
2859.073137 0.3966 0.3961 0.3956 0.3951 0.3946
2864.085863 0.3940 0.3934 0.3927 0.3920 0.3913
2869.098588 0.3905 0.3899 0.3898 0.3901 0.3904
2874.111314 0.3907 0.3910 0.3914 0.3917 0.3921
2879.124039 0.3926 0.3929 0.3931 0.3931 0.3931
2884.136765 0.3931 0.3930 0.3921 0.3913 0.3904
2889.149490 0.3895 0.3886 0.3876 0.3867 0.3857
2894.162216 0.3848 0.3839 0.3834 0.3828 0.3822
2899.174941 0.3817 0.3811 0.3806 0.3800 0.3794
2904.187667 0.3789 0.3785 0.3781 0.3777 0.3772
2909.200392 0.3768 0.3764 0.3760 0.3755 0.3751
2914.213118 0.3747 0.3743 0.3738 0.3734 0.3731
2919.225843 0.3728 0.3724 0.3721 0.3717 0.3714
2924.238569 0.3710 0.3707 0.3703 0.3700 0.3696
2929.251294 0.3694 0.3694 0.3693 0.3693 0.3693
2934.264020 0.3693 0.3692 0.3692 0.3692 0.3691
2939.276745 0.3691 0.3690 0.3690 0.3689 0.3689
2944.289471 0.3688 0.3688 0.3687 0.3685 0.3679
2949.302196 0.3673 0.3668 0.3662 0.3657 0.3652
2954.314922 0.3646 0.3642 0.3637 0.3633 0.3629
2959.327647 0.3625 0.3621 0.3617 0.3613 0.3609
2964.340373 0.3605 0.3602 0.3601 0.3600 0.3593
2969.353098 0.3586 0.3598 0.3597 0.3597 0.3597
2974.365824 0.3597 0.3602 0.3614 0.3626 0.3639
2979.378549 0.3658 0.3676 0.3692 0.3706 0.3718
2984.391275 0.3726 0.3734 0.3743 0.3751 0.3760
2989.404000 0.3769 0.3778 0.3787 0.3796 0.3805
2994.416725 0.3812 0.3819 0.3826 0.3833 0.3840
2999.429451 0.3847 0.3854 0.3862 0.3870 0.3878
3004.442176 0.3887 0.3897 0.3908 0.3919 0.3929
3009.454902 0.3938 0.3947 0.3956 0.3965 0.3971
3014.467627 0.3973 0.3976 0.3978 0.3979 0.3981
3019.480353 0.3981 0.3979 0.3978 0.3978 0.3978
3024.493078 0.3978 0.3978 0.3976 0.3972 0.3966
3029.505804 0.3961 0.3956 0.3951 0.3946 0.3941
3034.518529 0.3933 0.3924 0.3914 0.3905 0.3896
3039.531255 0.3887 0.3878 0.3868 0.3858 0.3847
3044.543980 0.3836 0.3826 0.3815 0.3806 0.3799
3049.556706 0.3795 0.3790 0.3785 0.3780 0.3776
3054.569431 0.3771 0.3766 0.3762 0.3760 0.3757
3059.582157 0.3755 0.3749 0.3747 0.3748 0.3745
3064.594882 0.3743 0.3745 0.3748 0.3751 0.3755
3069.607608 0.3758 0.3761 0.3764 0.3767 0.3770
3074.620333 0.3773 0.3776 0.3779 0.3782 0.3786
3079.633059 0.3789 0.3792 0.3796 0.3799 0.3803
3084.645784 0.3806 0.3809 0.3813 0.3816 0.3820
3089.658510 0.3824 0.3827 0.3831 0.3835 0.3839
3094.671235 0.3843 0.3847 0.3851 0.3857 0.3866
3099.683961 0.3874 0.3882 0.3891 0.3899 0.3911
3104.696686 0.3931 0.3951 0.3972 0.3993 0.4019
3109.709412 0.4055 0.4093 0.4132 0.4167 0.4199
3114.722137 0.4230 0.4261 0.4282 0.4299 0.4315
3119.734863 0.4332 0.4348 0.4362 0.4375 0.4388
3124.747588 0.4401 0.4417 0.4439 0.4464 0.4489
3129.760314 0.4529 0.4592 0.4619 0.4634 0.4647
3134.773039 0.4660 0.4673 0.4685 0.4700 0.4718
3139.785765 0.4735 0.4750 0.4765 0.4782 0.4800
3144.798490 0.4822 0.4843 0.4859 0.4871 0.4875
3149.811216 0.4877 0.4878 0.4880 0.4881 0.4881
3154.823941 0.4880 0.4880 0.4879 0.4880 0.4883
3159.836667 0.4885 0.4888 0.4890 0.4892 0.4892
3164.849392 0.4893 0.4893 0.4893 0.4893 0.4894
3169.862118 0.4895 0.4896 0.4898 0.4899 0.4900
3174.874843 0.4901 0.4903 0.4904 0.4905 0.4907
3179.887569 0.4908 0.4909 0.4910 0.4910 0.4931
3184.900294 0.4914 0.4912 0.4913 0.4914 0.4915
3189.913020 0.4915 0.4914 0.4914 0.4914 0.4913
3194.925745 0.4913 0.4913 0.4912 0.4912 0.4912
3199.938471 0.4911 0.4911 0.4911 0.4912 0.4913
3204.951196 0.4915 0.4916 0.4918 0.4919 0.4921
3209.963922 0.4922 0.4924 0.4927 0.4933 0.4938
3214.976647 0.4943 0.4949 0.4954 0.4960 0.4968
3219.989373 0.4975 0.4982 0.4990 0.4997 0.5005
3225.002098 0.5013 0.5015 0.5017 0.5019 0.5020
3230.014824 0.5022 0.5024 0.5024 0.5024 0.5024
3235.027549 0.5025 0.5025 0.5025 0.5023 0.5022
3240.040275 0.5020 0.5019 0.5017 0.5016 0.5005
3245.053000 0.4991 0.4976 0.4961 0.4943 0.4925
3250.065725 0.4907 0.4889 0.4871 0.4852 0.4841
3255.078451 0.4839 0.4836 0.4834 0.4831 0.4828
3260.091176 0.4827 0.4825 0.4823 0.4821 0.4820
3265.103902 0.4815 0.4802 0.4789 0.4768 0.4745
3270.116627 0.4723 0.4702 0.4680 0.4659 0.4638
3275.129353 0.4617 0.4590 0.4560 0.4529 0.4499
3280.142078 0.4470 0.4441 0.4412 0.4389 0.4373
3285.154804 0.4355 0.4328 0.4289 0.4236 0.4220
3290.167529 0.4209 0.4203 0.4200 0.4197 0.4195
3295.180255 0.4195 0.4200 0.4212 0.4201 0.4205
3300.192980 0.4216 0.4227 0.4238 0.4253 0.4267
3305.205706 0.4285 0.4316 0.4347 0.4377 0.4408
3310.218431 0.4440 0.4476 0.4511 0.4544 0.4565
3315.231157 0.4584 0.4602 0.4618 0.4623 0.4624
3320.243882 0.4631 0.4644 0.4626 0.4625 0.4623
3325.256608 0.4622 0.4620 0.4618 0.4615 0.4612
3330.269333 0.4610 0.4607 0.4604 0.4601 0.4598
3335.282059 0.4595 0.4593 0.4590 0.4587 0.4582
3340.294784 0.4577 0.4572 0.4567 0.4561 0.4556
3345.307510 0.4549 0.4535 0.4517 0.4499 0.4480
3350.320235 0.4461 0.4438 0.4408 0.4381 0.4365
3355.332961 0.4358 0.4350 0.4337 0.4320 0.4294
3360.345686 0.4272 0.4269 0.4268 0.4269 0.4270
3365.358412 0.4271 0.4273 0.4274 0.4276 0.4281
3370.371137 0.4283 0.4288 0.4295 0.4304 0.4313
3375.383863 0.4323 0.4335 0.4353 0.4378 0.4402
3380.396588 0.4429 0.4459 0.4494 0.4535 0.4579
3385.409314 0.4616 0.4642 0.4663 0.4674 0.4676
3390.422039 0.4675 0.4674 0.4671 0.4665 0.4659
3395.434765 0.4653 0.4644 0.4634 0.4624 0.4613
3400.447490 0.4604 0.4598 0.4594 0.4590 0.4587
3405.460216 0.4583 0.4579 0.4575 0.4571 0.4568
3410.472941 0.4564 0.4560 0.4557 0.4553 0.4550
3415.485667 0.4546 0.4543 0.4539 0.4536 0.4533
3420.498392 0.4529 0.4526 0.4522 0.4519 0.4516
3425.511118 0.4513 0.4510 0.4507 0.4504 0.4503
3430.523843 0.4502 0.4501 0.4500 0.4499 0.4498
3435.536569 0.4497 0.4497 0.4496 0.4495 0.4494
3440.549294 0.4493 0.4492 0.4492 0.4492 0.4492
3445.562020 0.4492 0.4492 0.4492 0.4492 0.4492
3450.574745 0.4492 0.4492 0.4492 0.4492 0.4492
3455.587471 0.4492 0.4492 0.4492 0.4493 0.4493
3460.600196 0.4494 0.4494 0.4495 0.4495 0.4496
3465.612922 0.4496 0.4497 0.4498 0.4498 0.4499
3470.625647 0.4499 0.4500 0.4501 0.4501 0.4502
3475.638373 0.4503 0.4504 0.4504 0.4505 0.4506
3480.651098 0.4507 0.4507 0.4508 0.4509 0.4510
3485.663824 0.4511 0.4511 0.4512 0.4513 0.4514
3490.676549 0.4514 0.4515 0.4516 0.4517 0.4517
3495.689275 0.4518 0.4519 0.4520 0.4520 0.4521
3500.702000 0.4522 0.4522 0.4523 0.4524 0.4525
3505.714725 0.4528 0.4530 0.4533 0.4536 0.4538
3510.727451 0.4541 0.4543 0.4546 0.4549 0.4554
3515.740176 0.4560 0.4566 0.4573 0.4579 0.4586
3520.752902 0.4592 0.4599 0.4605 0.4611 0.4616
3525.765627 0.4621 0.4625 0.4629 0.4633 0.4637
3530.778353 0.4641 0.4646 0.4649 0.4652 0.4655
3535.791078 0.4658 0.4661 0.4664 0.4667 0.4670
3540.803804 0.4673 0.4676 0.4679 0.4681 0.4683
3545.816529 0.4685 0.4686 0.4688 0.4690 0.4692
3550.829255 0.4693 0.4695 0.4697 0.4699 0.4700
3555.841980 0.4702 0.4704 0.4706 0.4707 0.4709
3560.854706 0.4711 0.4713 0.4714 0.4716 0.4718
3565.867431 0.4719 0.4721 0.4723 0.4724 0.4726
3570.880157 0.4727 0.4729 0.4731 0.4732 0.4734
3575.892882 0.4735 0.4737 0.4739 0.4740 0.4742
3580.905608 0.4744 0.4746 0.4750 0.4753 0.4756
3585.918333 0.4759 0.4762 0.4765 0.4768 0.4770
3590.931059 0.4773 0.4775 0.4777 0.4778 0.4779
3595.943784 0.4779 0.4779 0.4779 0.4782 0.4784
3600.956510 0.4786 0.4788 0.4789 0.4789 0.4789
3605.969235 0.4789 0.4789 0.4787 0.4786 0.4784
3610.981961 0.4782 0.4780 0.4778 0.4776 0.4774
3615.994686 0.4773 0.4771 0.4768 0.4765 0.4762
3621.007412 0.4759 0.4756 0.4753 0.4750 0.4748
3626.020137 0.4752 0.4756 0.4769 0.4784 0.4798
3631.032863 0.4805 0.4811 0.4817 0.4822 0.4826
3636.045588 0.4829 0.4833 0.4837 0.4840 0.4843
3641.058314 0.4845 0.4848 0.4850 0.4852 0.4854
3646.071039 0.4857 0.4859 0.4860 0.4860 0.4861
3651.083765 0.4862 0.4863 0.4863 0.4864 0.4864
3656.096490 0.4855 0.4846 0.4834 0.4821 0.4809
3661.109216 0.4798 0.4788 0.4778 0.4775 0.4772
3666.121941 0.4769 0.4767 0.4771 0.4774 0.4778
3671.134667 0.4781 0.4785 0.4788 0.4792 0.4799
3676.147392 0.4808 0.4816 0.4824 0.4833 0.4837
3681.160118 0.4838 0.4839 0.4840 0.4841 0.4839
3686.172843 0.4835 0.4831 0.4828 0.4823 0.4813
3691.185569 0.4806 0.4811 0.4817 0.4822 0.4828
3696.198294 0.4834 0.4839 0.4845 0.4850 0.4852
3701.211020 0.4855 0.4857 0.4858 0.4859 0.4859
3706.223745 0.4859 0.4860 0.4860 0.4860 0.4859
3711.236471 0.4858 0.4857 0.4856 0.4855 0.4854
3716.249196 0.4853 0.4852 0.4849 0.4845 0.4841
3721.261922 0.4836 0.4832 0.4829 0.4829 0.4830
3726.274647 0.4831 0.4831 0.4832 0.4833 0.4833
3731.287373 0.4834 0.4835 0.4835 0.4836 0.4836
3736.300098 0.4836 0.4836 0.4837 0.4837 0.4837
3741.312824 0.4838 0.4838 0.4837 0.4833 0.4828
3746.325549 0.4822 0.4816 0.4810 0.4805 0.4797
3751.338275 0.4790 0.4782 0.4774 0.4767 0.4761
3756.351000 0.4760 0.4761 0.4761 0.4762 0.4763
3761.363725 0.4764 0.4764 0.4765 0.4766 0.4767
3766.376451 0.4768 0.4768 0.4769 0.4770 0.4771
3771.389176 0.4772 0.4773 0.4774 0.4775 0.4777
3776.401902 0.4779 0.4781 0.4783 0.4786 0.4788
3781.414627 0.4790 0.4792 0.4796 0.4803 0.4812
3786.427353 0.4821 0.4830 0.4839 0.4847 0.4848
3791.440078 0.4845 0.4842 0.4835 0.4822 0.4809
3796.452804 0.4797 0.4788 0.4780 0.4773 0.4765
3801.465529 0.4758 0.4750 0.4743 0.4737 0.4734
3806.478255 0.4731 0.4728 0.4725 0.4737 0.4735
3811.490980 0.4717 0.4714 0.4713 0.4713 0.4713
3816.503706 0.4713 0.4714 0.4714 0.4715 0.4715
3821.516431 0.4716 0.4717 0.4719 0.4721 0.4723
3826.529157 0.4725 0.4726 0.4728 0.4730 0.4732
3831.541882 0.4734 0.4736 0.4738 0.4739 0.4741
3836.554608 0.4743 0.4745 0.4747 0.4747 0.4746
3841.567333 0.4746 0.4746 0.4746 0.4746 0.4745
3846.580059 0.4745 0.4745 0.4745 0.4745 0.4744
3851.592784 0.4744 0.4744 0.4744 0.4744 0.4743
3856.605510 0.4741 0.4739 0.4738 0.4736 0.4734
3861.618235 0.4732 0.4730 0.4728 0.4726 0.4720
3866.630961 0.4713 0.4706 0.4699 0.4695 0.4694
3871.643686 0.4693 0.4692 0.4691 0.4690 0.4688
3876.656412 0.4687 0.4686 0.4684 0.4683 0.4681
3881.669137 0.4679 0.4677 0.4675 0.4673 0.4672
3886.681863 0.4669 0.4665 0.4661 0.4657 0.4653
3891.694588 0.4650 0.4652 0.4658 0.4663 0.4668
3896.707314 0.4672 0.4674 0.4675 0.4676 0.4677
3901.720039 0.4678 0.4678 0.4678 0.4677 0.4676
3906.732765 0.4676 0.4675 0.4674 0.4673 0.4672
3911.745490 0.4670 0.4667 0.4663 0.4660 0.4657
3916.758216 0.4654 0.4651 0.4648 0.4646 0.4644
3921.770941 0.4642 0.4640 0.4638 0.4636 0.4634
3926.783667 0.4632 0.4631 0.4631 0.4631 0.4631
3931.796392 0.4632 0.4632 0.4632 0.4632 0.4634
3936.809118 0.4635 0.4636 0.4638 0.4639 0.4641
3941.821843 0.4642 0.4644 0.4645 0.4646 0.4645
3946.834569 0.4643 0.4639 0.4636 0.4633 0.4630
3951.847294 0.4627 0.4624 0.4621 0.4618 0.4612
3956.860020 0.4606 0.4600 0.4593 0.4592 0.4593
3961.872745 0.4593 0.4593 0.4593 0.4594 0.4595
3966.885471 0.4595 0.4596 0.4597 0.4597 0.4598
3971.898196 0.4599 0.4600 0.4600 0.4599 0.4599
3976.910922 0.4599 0.4598 0.4598 0.4598 0.4597
3981.923647 0.4597 0.4597 0.4597 0.4596 0.4596
3986.936373 0.4598 0.4604 0.4610 0.4615 0.4621
3991.949098 0.4627 0.4632 0.4638 0.4643 0.4642
3996.961824 0.4637 0.4632 0.4628 0.4623 0.4618
4001.974549 0.4613 0.4609 0.4604 0.4599 0.4595
4006.987275 0.4590 0.4585 0.4581 0.4576 0.4575
##END=
