##TITLE=1,4-Octadiene (E & Z)
##JCAMP-DX=4.24
##DATA TYPE=INFRARED SPECTRUM
##CLASS=COBLENTZ III
##ORIGIN=COLGATE-PALMOLIVE COMPANY (KELLENBACH)
##OWNER=Copyright (C) 1987 by the Coblentz Society
Collection (C) 2018 copyright by the U.S. Secretary of Commerce
on behalf of the United States of America. All rights reserved.
##DATE=1967/03/28
##MOLFORM=C8 H14
##SOURCE REFERENCE=COBLENTZ NO. 9790
##$NIST ID=B6009790
##$NIST SOURCE=COBLENTZ
##$NIST IMAGE=cob9790
##SPECTROMETER/DATA SYSTEM=BECKMAN IR-12 (GRATING)
##INSTRUMENT PARAMETERS=GRATING
##STATE=LIQUID (NEAT)
$$ SOURCE - CHEMICAL SAMPLES CO.
##PATH LENGTH=0.0104 CM
##SAMPLING PROCEDURE=TRANSMISSION
##RESOLUTION=2
##DATA PROCESSING=DIGITIZED BY COBLENTZ SOCIETY (BATCH II) FROM HARD COPY
##XUNITS=1/CM
##YUNITS=TRANSMITTANCE
##XFACTOR=1.0
##YFACTOR=1
##FIRSTX=404
##LASTX=4000
##FIRSTY=0.6557
##MAXX=4000
##MINX=404
##MAXY=0.9332
##MINY=0.0032
##NPOINTS=3597
##XYDATA=(X++(Y..Y))
404.000000 0.6557 0.6595 0.6632 0.6669 0.6710
409.000000 0.6756 0.6802 0.6848 0.6894 0.6942
414.000000 0.6991 0.7040 0.7089 0.7138 0.7187
419.000000 0.7236 0.7285 0.7332 0.7372 0.7411
424.000000 0.7450 0.7490 0.7529 0.7564 0.7596
429.000000 0.7628 0.7660 0.7700 0.7749 0.7797
434.000000 0.7839 0.7871 0.7903 0.7935 0.7968
439.000000 0.8004 0.8040 0.8076 0.8113 0.8137
444.000000 0.8162 0.8186 0.8211 0.8230 0.8248
449.000000 0.8265 0.8282 0.8300 0.8317 0.8329
454.000000 0.8336 0.8343 0.8351 0.8359 0.8366
459.000000 0.8374 0.8380 0.8386 0.8392 0.8398
464.000000 0.8404 0.8410 0.8416 0.8435 0.8457
469.000000 0.8479 0.8501 0.8523 0.8576 0.8632
474.000000 0.8677 0.8713 0.8748 0.8760 0.8771
479.000000 0.8781 0.8782 0.8766 0.8784 0.8782
484.000000 0.8772 0.8762 0.8755 0.8751 0.8746
489.000000 0.8742 0.8738 0.8736 0.8738 0.8740
494.000000 0.8742 0.8743 0.8751 0.8758 0.8764
499.000000 0.8767 0.8760 0.8745 0.8715 0.8690
504.000000 0.8665 0.8641 0.8615 0.8580 0.8545
509.000000 0.8510 0.8430 0.8325 0.8220 0.8115
514.000000 0.8010 0.7904 0.7799 0.7694 0.7589
519.000000 0.7484 0.7379 0.7273 0.7168 0.7063
524.000000 0.6964 0.6878 0.6819 0.6764 0.6710
529.000000 0.6661 0.6618 0.6575 0.6532 0.6487
534.000000 0.6442 0.6397 0.6348 0.6274 0.6201
539.000000 0.6122 0.6005 0.5887 0.5715 0.5513
544.000000 0.5049 0.4993 0.4962 0.4938 0.4923
549.000000 0.4910 0.4923 0.4995 0.5116 0.5238
554.000000 0.5360 0.5481 0.5603 0.5724 0.5846
559.000000 0.5967 0.6089 0.6211 0.6322 0.6377
564.000000 0.6417 0.6457 0.6498 0.6540 0.6582
569.000000 0.6624 0.6659 0.6693 0.6728 0.6756
574.000000 0.6774 0.6792 0.6805 0.6808 0.6811
579.000000 0.6805 0.6809 0.6803 0.6796 0.6781
584.000000 0.6763 0.6731 0.6685 0.6635 0.6584
589.000000 0.6546 0.6510 0.6438 0.6468 0.6467
594.000000 0.6475 0.6486 0.6500 0.6518 0.6545
599.000000 0.6567 0.6589 0.6607 0.6624 0.6624
604.000000 0.6628 0.6627 0.6617 0.6589 0.6550
609.000000 0.6509 0.6387 0.6271 0.6154 0.6038
614.000000 0.5922 0.5806 0.5690 0.5574 0.5458
619.000000 0.5341 0.5225 0.5109 0.4993 0.4877
624.000000 0.4761 0.4645 0.4529 0.4412 0.4296
629.000000 0.4180 0.4064 0.3948 0.3832 0.3732
634.000000 0.3658 0.3577 0.3492 0.3408 0.3328
639.000000 0.3249 0.3169 0.3096 0.3023 0.2972
644.000000 0.2956 0.2957 0.2968 0.2988 0.3010
649.000000 0.3031 0.3197 0.3368 0.3539 0.3710
654.000000 0.3881 0.4052 0.4223 0.4394 0.4565
659.000000 0.4736 0.4907 0.5078 0.5249 0.5349
664.000000 0.5417 0.5490 0.5569 0.5609 0.5645
669.000000 0.5682 0.5712 0.5729 0.5744 0.5743
674.000000 0.5748 0.5668 0.5613 0.5557 0.5502
679.000000 0.5447 0.5392 0.5337 0.5282 0.5227
684.000000 0.5172 0.5116 0.5061 0.5006 0.4951
689.000000 0.4896 0.4841 0.4786 0.4730 0.4675
694.000000 0.4628 0.4596 0.4554 0.4512 0.4469
699.000000 0.4410 0.4318 0.4225 0.4133 0.4040
704.000000 0.3948 0.3855 0.3762 0.3670 0.3577
709.000000 0.3485 0.3392 0.3300 0.3232 0.3176
714.000000 0.3101 0.3031 0.2977 0.2958 0.2941
719.000000 0.2938 0.2936 0.2940 0.2948 0.2960
724.000000 0.2975 0.2990 0.3016 0.3045 0.3088
729.000000 0.3150 0.3210 0.3266 0.3323 0.3374
734.000000 0.3423 0.3472 0.3518 0.3561 0.3604
739.000000 0.3728 0.3880 0.4031 0.4183 0.4334
744.000000 0.4485 0.4630 0.4681 0.4721 0.4757
749.000000 0.4769 0.4780 0.4792 0.4800 0.4804
754.000000 0.4805 0.4806 0.4863 0.4954 0.5046
759.000000 0.5137 0.5229 0.5320 0.5399 0.5435
764.000000 0.5441 0.5443 0.5455 0.5433 0.5425
769.000000 0.5414 0.5394 0.5365 0.5332 0.5305
774.000000 0.5282 0.5264 0.5258 0.5261 0.5267
779.000000 0.5275 0.5406 0.5555 0.5705 0.5854
784.000000 0.6004 0.6153 0.6303 0.6448 0.6541
789.000000 0.6612 0.6677 0.6742 0.6809 0.6882
794.000000 0.6955 0.7028 0.7101 0.7175 0.7260
799.000000 0.7345 0.7439 0.7536 0.7620 0.7684
804.000000 0.7746 0.7777 0.7807 0.7834 0.7856
809.000000 0.7878 0.7898 0.7911 0.7924 0.7929
814.000000 0.7929 0.7923 0.7929 0.7924 0.7919
819.000000 0.7914 0.7908 0.7896 0.7883 0.7868
824.000000 0.7849 0.7830 0.7811 0.7781 0.7743
829.000000 0.7701 0.7658 0.7615 0.7572 0.7531
834.000000 0.7493 0.7454 0.7416 0.7342 0.7162
839.000000 0.6981 0.6801 0.6621 0.6441 0.6260
844.000000 0.6080 0.5900 0.5719 0.5539 0.5359
849.000000 0.5179 0.4998 0.4886 0.4840 0.4794
854.000000 0.4759 0.4725 0.4691 0.4654 0.4599
859.000000 0.4545 0.4487 0.4389 0.4291 0.4215
864.000000 0.4140 0.4064 0.4013 0.3964 0.3914
869.000000 0.3865 0.3811 0.3753 0.3694 0.3636
874.000000 0.3530 0.3383 0.3206 0.2927 0.2635
879.000000 0.2343 0.2052 0.1760 0.1468 0.1317
884.000000 0.1271 0.1225 0.1179 0.1131 0.1082
889.000000 0.1033 0.0984 0.0927 0.0858 0.0789
894.000000 0.0714 0.0572 0.0463 0.0383 0.0303
899.000000 0.0254 0.0209 0.0165 0.0127 0.0114
904.000000 0.0102 0.0090 0.0077 0.0072 0.0067
909.000000 0.0063 0.0058 0.0055 0.0053 0.0050
914.000000 0.0047 0.0032 0.0113 0.0194 0.0275
919.000000 0.0356 0.0437 0.0517 0.0598 0.0679
924.000000 0.0760 0.0841 0.0922 0.1003 0.1083
929.000000 0.1164 0.1245 0.1326 0.1407 0.1488
934.000000 0.1568 0.1649 0.1730 0.1811 0.1892
939.000000 0.1973 0.2054 0.2130 0.2154 0.2095
944.000000 0.2066 0.2022 0.1946 0.1812 0.1679
949.000000 0.1545 0.1411 0.1277 0.1143 0.1009
954.000000 0.0875 0.0741 0.0607 0.0473 0.0340
959.000000 0.0261 0.0207 0.0153 0.0110 0.0082
964.000000 0.0083 0.0065 0.0102 0.0211 0.0319
969.000000 0.0428 0.0536 0.0645 0.0753 0.0787
974.000000 0.0783 0.0780 0.0784 0.0572 0.0447
979.000000 0.0323 0.0223 0.0195 0.0173 0.0154
984.000000 0.0142 0.0131 0.0119 0.0105 0.0091
989.000000 0.0077 0.0064 0.0053 0.0044 0.0046
994.000000 0.0053 0.0063 0.0033 0.0136 0.0249
999.000000 0.0362 0.0475 0.0588 0.0701 0.0815
1004.000000 0.0928 0.1041 0.1154 0.1267 0.1380
1009.000000 0.1493 0.1606 0.1720 0.1805 0.1867
1014.000000 0.1929 0.1988 0.2040 0.2093 0.2265
1019.000000 0.2545 0.2800 0.2983 0.3130 0.3265
1024.000000 0.3379 0.3479 0.3551 0.3624 0.3696
1029.000000 0.3778 0.3860 0.3930 0.3986 0.4043
1034.000000 0.4080 0.4107 0.4133 0.4144 0.4161
1039.000000 0.4128 0.4099 0.4066 0.4029 0.3934
1044.000000 0.3837 0.3739 0.3642 0.3544 0.3447
1049.000000 0.3349 0.3252 0.3155 0.3057 0.2960
1054.000000 0.2862 0.2765 0.2691 0.2616 0.2544
1059.000000 0.2480 0.2417 0.2355 0.2322 0.2290
1064.000000 0.2258 0.2234 0.2232 0.2229 0.2221
1069.000000 0.2237 0.2247 0.2301 0.2600 0.2898
1074.000000 0.3041 0.3107 0.3173 0.3239 0.3305
1079.000000 0.3371 0.3436 0.3502 0.3561 0.3559
1084.000000 0.3576 0.3548 0.3531 0.3496 0.3454
1089.000000 0.3395 0.3328 0.3238 0.3074 0.2983
1094.000000 0.2946 0.2916 0.2899 0.2882 0.2874
1099.000000 0.2870 0.2870 0.2960 0.3163 0.3366
1104.000000 0.3569 0.3771 0.3974 0.4177 0.4380
1109.000000 0.4583 0.4786 0.5137 0.5234 0.5326
1114.000000 0.5374 0.5422 0.5466 0.5487 0.5508
1119.000000 0.5516 0.5507 0.5498 0.5474 0.5460
1124.000000 0.5451 0.5453 0.5468 0.5498 0.5558
1129.000000 0.5653 0.5766 0.5849 0.5893 0.5937
1134.000000 0.5982 0.6028 0.6074 0.6130 0.6187
1139.000000 0.6244 0.6299 0.6355 0.6410 0.6484
1144.000000 0.6564 0.6730 0.6883 0.6989 0.7080
1149.000000 0.7161 0.7242 0.7310 0.7374 0.7437
1154.000000 0.7487 0.7522 0.7557 0.7592 0.7627
1159.000000 0.7659 0.7690 0.7720 0.7750 0.7781
1164.000000 0.7800 0.7818 0.7835 0.7853 0.7869
1169.000000 0.7878 0.7868 0.7853 0.7878 0.7818
1174.000000 0.7789 0.7761 0.7724 0.7686 0.7648
1179.000000 0.7613 0.7583 0.7553 0.7523 0.7493
1184.000000 0.7464 0.7433 0.7402 0.7371 0.7340
1189.000000 0.7309 0.7278 0.7247 0.7219 0.7194
1194.000000 0.7169 0.7143 0.7117 0.7087 0.7058
1199.000000 0.7023 0.6968 0.6913 0.6857 0.6799
1204.000000 0.6741 0.6703 0.6674 0.6644 0.6613
1209.000000 0.6583 0.6552 0.6520 0.6486 0.6452
1214.000000 0.6404 0.6354 0.6302 0.6243 0.6185
1219.000000 0.6134 0.6094 0.6065 0.6060 0.6055
1224.000000 0.6041 0.6062 0.6082 0.6104 0.6131
1229.000000 0.6166 0.6213 0.6266 0.6326 0.6403
1234.000000 0.6447 0.6464 0.6467 0.6468 0.6463
1239.000000 0.6463 0.6456 0.6365 0.6128 0.5892
1244.000000 0.5655 0.5419 0.5183 0.4946 0.4710
1249.000000 0.4473 0.4237 0.4001 0.3768 0.3630
1254.000000 0.3365 0.3123 0.2978 0.2867 0.2789
1259.000000 0.2737 0.2709 0.2695 0.2693 0.2695
1264.000000 0.2657 0.2780 0.2832 0.2889 0.2962
1269.000000 0.3188 0.3413 0.3639 0.3864 0.3958
1274.000000 0.4030 0.4076 0.4115 0.4137 0.4144
1279.000000 0.4144 0.4106 0.4042 0.4011 0.4017
1284.000000 0.4043 0.4094 0.4146 0.4194 0.4242
1289.000000 0.4280 0.4310 0.4313 0.4310 0.4292
1294.000000 0.4273 0.4253 0.4257 0.4272 0.4293
1299.000000 0.4314 0.4332 0.4349 0.4363 0.4370
1304.000000 0.4376 0.4385 0.4400 0.4415 0.4430
1309.000000 0.4445 0.4462 0.4482 0.4503 0.4523
1314.000000 0.4547 0.4575 0.4604 0.4640 0.4693
1319.000000 0.4740 0.4776 0.4805 0.4817 0.4819
1324.000000 0.4815 0.4801 0.4681 0.4548 0.4416
1329.000000 0.4283 0.4150 0.4018 0.3885 0.3753
1334.000000 0.3620 0.3487 0.3370 0.3371 0.3375
1339.000000 0.3363 0.3489 0.3598 0.3707 0.3817
1344.000000 0.3926 0.4035 0.4145 0.4254 0.4363
1349.000000 0.4473 0.4582 0.4691 0.4801 0.4910
1354.000000 0.5019 0.5129 0.5238 0.5276 0.5277
1359.000000 0.5272 0.5288 0.5176 0.5046 0.4916
1364.000000 0.4787 0.4657 0.4527 0.4397 0.4089
1369.000000 0.3659 0.3229 0.2799 0.2369 0.1940
1374.000000 0.1510 0.1080 0.0851 0.0858 0.1084
1379.000000 0.1386 0.1688 0.1990 0.2292 0.2594
1384.000000 0.2896 0.3198 0.3500 0.3802 0.4002
1389.000000 0.3990 0.3996 0.3982 0.3769 0.3557
1394.000000 0.3344 0.3132 0.2919 0.2706 0.2494
1399.000000 0.2281 0.2069 0.1856 0.1644 0.1475
1404.000000 0.1431 0.1386 0.1341 0.1293 0.1244
1409.000000 0.1190 0.1135 0.1119 0.1122 0.1127
1414.000000 0.1139 0.1150 0.1151 0.1075 0.0899
1419.000000 0.0723 0.0547 0.0543 0.0617 0.0761
1424.000000 0.0904 0.0898 0.0874 0.0847 0.0813
1429.000000 0.0520 0.0309 0.0248 0.0219 0.0207
1434.000000 0.0207 0.0204 0.0212 0.0217 0.0235
1439.000000 0.0275 0.0337 0.0381 0.0410 0.0410
1444.000000 0.0428 0.0403 0.0392 0.0374 0.0355
1449.000000 0.0329 0.0301 0.0275 0.0250 0.0221
1454.000000 0.0190 0.0184 0.0178 0.0177 0.0176
1459.000000 0.0180 0.0185 0.0195 0.0194 0.0204
1464.000000 0.0236 0.0319 0.0513 0.0946 0.1379
1469.000000 0.1812 0.2245 0.2678 0.3111 0.3679
1474.000000 0.3837 0.3994 0.4152 0.4309 0.4466
1479.000000 0.4624 0.4781 0.4939 0.5096 0.5253
1484.000000 0.5411 0.5588 0.5704 0.5812 0.5915
1489.000000 0.6017 0.6100 0.6162 0.6224 0.6286
1494.000000 0.6348 0.6409 0.6469 0.6530 0.6590
1499.000000 0.6632 0.6674 0.6716 0.6758 0.6800
1504.000000 0.6842 0.6884 0.6927 0.6969 0.7011
1509.000000 0.7053 0.7095 0.7138 0.7180 0.7223
1514.000000 0.7266 0.7308 0.7351 0.7377 0.7403
1519.000000 0.7428 0.7454 0.7481 0.7508 0.7535
1524.000000 0.7552 0.7567 0.7583 0.7598 0.7614
1529.000000 0.7631 0.7648 0.7664 0.7675 0.7685
1534.000000 0.7695 0.7697 0.7699 0.7701 0.7707
1539.000000 0.7720 0.7733 0.7737 0.7741 0.7738
1544.000000 0.7735 0.7731 0.7727 0.7723 0.7719
1549.000000 0.7715 0.7711 0.7716 0.7724 0.7733
1554.000000 0.7746 0.7759 0.7772 0.7785 0.7800
1559.000000 0.7815 0.7831 0.7846 0.7862 0.7877
1564.000000 0.7891 0.7906 0.7921 0.7935 0.7946
1569.000000 0.7956 0.7966 0.7976 0.7986 0.7986
1574.000000 0.7987 0.7987 0.7984 0.7988 0.7984
1579.000000 0.7981 0.7977 0.7974 0.7968 0.7959
1584.000000 0.7951 0.7942 0.7932 0.7918 0.7903
1589.000000 0.7889 0.7874 0.7854 0.7827 0.7800
1594.000000 0.7772 0.7739 0.7706 0.7674 0.7557
1599.000000 0.7412 0.7267 0.7122 0.6977 0.6832
1604.000000 0.6687 0.6565 0.6478 0.6408 0.6338
1609.000000 0.6269 0.6213 0.6159 0.6105 0.6050
1614.000000 0.5959 0.5869 0.5782 0.5695 0.5587
1619.000000 0.5475 0.5343 0.5194 0.5051 0.4821
1624.000000 0.4407 0.3968 0.3530 0.3091 0.2653
1629.000000 0.2214 0.1776 0.1337 0.0899 0.0460
1634.000000 0.0272 0.0228 0.0221 0.0227 0.0246
1639.000000 0.0219 0.0803 0.1129 0.1456 0.1782
1644.000000 0.2108 0.2434 0.2760 0.2965 0.3027
1649.000000 0.3130 0.3582 0.4034 0.4486 0.4939
1654.000000 0.5183 0.5255 0.5353 0.5454 0.5542
1659.000000 0.5628 0.5714 0.5760 0.5800 0.5839
1664.000000 0.5879 0.5919 0.5970 0.6033 0.6095
1669.000000 0.6245 0.6534 0.6720 0.6920 0.7021
1674.000000 0.7079 0.7114 0.7140 0.7156 0.7172
1679.000000 0.7188 0.7204 0.7220 0.7229 0.7234
1684.000000 0.7240 0.7245 0.7251 0.7256 0.7260
1689.000000 0.7265 0.7269 0.7274 0.7283 0.7295
1694.000000 0.7308 0.7320 0.7332 0.7343 0.7355
1699.000000 0.7366 0.7368 0.7364 0.7360 0.7375
1704.000000 0.7317 0.7291 0.7263 0.7233 0.7203
1709.000000 0.7172 0.7142 0.7112 0.7086 0.7060
1714.000000 0.7035 0.7010 0.6992 0.6975 0.6959
1719.000000 0.6942 0.6925 0.6909 0.6893 0.6877
1724.000000 0.6861 0.6851 0.6844 0.6837 0.6835
1729.000000 0.6846 0.6845 0.6853 0.6869 0.6883
1734.000000 0.6898 0.6925 0.6958 0.6996 0.7033
1739.000000 0.7071 0.7114 0.7158 0.7201 0.7240
1744.000000 0.7276 0.7312 0.7348 0.7385 0.7437
1749.000000 0.7489 0.7541 0.7596 0.7657 0.7717
1754.000000 0.7777 0.7829 0.7877 0.7925 0.7973
1759.000000 0.8021 0.8053 0.8085 0.8116 0.8147
1764.000000 0.8179 0.8210 0.8244 0.8281 0.8318
1769.000000 0.8354 0.8391 0.8423 0.8454 0.8486
1774.000000 0.8503 0.8514 0.8526 0.8537 0.8542
1779.000000 0.8539 0.8537 0.8533 0.8536 0.8524
1784.000000 0.8519 0.8515 0.8510 0.8499 0.8486
1789.000000 0.8467 0.8445 0.8412 0.8357 0.8310
1794.000000 0.8285 0.8261 0.8236 0.8216 0.8181
1799.000000 0.8014 0.7845 0.7670 0.7577 0.7492
1804.000000 0.7400 0.7264 0.7156 0.7060 0.6828
1809.000000 0.6553 0.6277 0.6001 0.5726 0.5557
1814.000000 0.5460 0.5354 0.5249 0.5065 0.4882
1819.000000 0.4698 0.4515 0.4485 0.4492 0.4499
1824.000000 0.4554 0.4508 0.4660 0.4699 0.4737
1829.000000 0.4879 0.5048 0.5218 0.5387 0.5556
1834.000000 0.5725 0.5895 0.6064 0.6233 0.6453
1839.000000 0.6632 0.6846 0.7051 0.7159 0.7259
1844.000000 0.7332 0.7405 0.7471 0.7520 0.7568
1849.000000 0.7617 0.7659 0.7698 0.7736 0.7775
1854.000000 0.7813 0.7844 0.7872 0.7901 0.7925
1859.000000 0.7941 0.7957 0.7973 0.7989 0.8005
1864.000000 0.8020 0.8034 0.8072 0.8124 0.8175
1869.000000 0.8213 0.8250 0.8284 0.8298 0.8311
1874.000000 0.8325 0.8338 0.8352 0.8362 0.8369
1879.000000 0.8375 0.8382 0.8389 0.8395 0.8402
1884.000000 0.8409 0.8415 0.8427 0.8443 0.8458
1889.000000 0.8474 0.8489 0.8505 0.8521 0.8542
1894.000000 0.8567 0.8592 0.8618 0.8643 0.8668
1899.000000 0.8696 0.8723 0.8751 0.8778 0.8805
1904.000000 0.8832 0.8856 0.8881 0.8905 0.8929
1909.000000 0.8953 0.8976 0.8996 0.9016 0.9035
1914.000000 0.9055 0.9073 0.9076 0.9079 0.9082
1919.000000 0.9085 0.9080 0.9072 0.9065 0.9060
1924.000000 0.9055 0.9051 0.9049 0.9055 0.9060
1929.000000 0.9066 0.9074 0.9086 0.9099 0.9111
1934.000000 0.9120 0.9128 0.9136 0.9144 0.9143
1939.000000 0.9143 0.9136 0.9126 0.9116 0.9106
1944.000000 0.9096 0.9086 0.9077 0.9066 0.9052
1949.000000 0.9038 0.9025 0.9011 0.8997 0.8983
1954.000000 0.8969 0.8955 0.8941 0.8925 0.8877
1959.000000 0.8829 0.8780 0.8732 0.8684 0.8636
1964.000000 0.8588 0.8540 0.8492 0.8443 0.8404
1969.000000 0.8381 0.8348 0.8310 0.8280 0.8259
1974.000000 0.8263 0.8259 0.8281 0.8302 0.8343
1979.000000 0.8385 0.8427 0.8469 0.8511 0.8552
1984.000000 0.8594 0.8636 0.8678 0.8720 0.8751
1989.000000 0.8778 0.8799 0.8817 0.8834 0.8851
1994.000000 0.8868 0.8881 0.8894 0.8906 0.8918
1999.000000 0.8930 0.8943 0.8955 0.8967 0.8971
2004.000000 0.8975 0.8978 0.8982 0.8985 0.8988
2009.000000 0.8991 0.8994 0.8995 0.8996 0.8996
2014.000000 0.8997 0.8997 0.8997 0.8997 0.8998
2019.000000 0.8998 0.8998 0.8998 0.8998 0.8998
2024.000000 0.8999 0.8999 0.8999 0.8999 0.9000
2029.000000 0.9000 0.9000 0.9000 0.9000 0.9003
2034.000000 0.9007 0.9014 0.9022 0.9029 0.9036
2039.000000 0.9036 0.9036 0.9035 0.9035 0.9034
2044.000000 0.9034 0.9033 0.9033 0.9030 0.9028
2049.000000 0.9025 0.9022 0.9019 0.9017 0.9020
2054.000000 0.9023 0.9026 0.9029 0.9034 0.9039
2059.000000 0.9047 0.9055 0.9063 0.9071 0.9078
2064.000000 0.9086 0.9094 0.9102 0.9109 0.9117
2069.000000 0.9124 0.9132 0.9135 0.9138 0.9140
2074.000000 0.9143 0.9146 0.9149 0.9152 0.9155
2079.000000 0.9156 0.9158 0.9158 0.9159 0.9159
2084.000000 0.9160 0.9160 0.9161 0.9160 0.9160
2089.000000 0.9159 0.9159 0.9159 0.9159 0.9158
2094.000000 0.9158 0.9157 0.9157 0.9158 0.9159
2099.000000 0.9159 0.9160 0.9161 0.9162 0.9162
2104.000000 0.9162 0.9162 0.9162 0.9162 0.9163
2109.000000 0.9163 0.9163 0.9163 0.9164 0.9164
2114.000000 0.9164 0.9164 0.9164 0.9164 0.9165
2119.000000 0.9165 0.9165 0.9165 0.9166 0.9166
2124.000000 0.9166 0.9166 0.9166 0.9167 0.9168
2129.000000 0.9169 0.9170 0.9171 0.9172 0.9173
2134.000000 0.9174 0.9175 0.9176 0.9177 0.9178
2139.000000 0.9179 0.9181 0.9173 0.9165 0.9155
2144.000000 0.9145 0.9136 0.9127 0.9118 0.9110
2149.000000 0.9102 0.9094 0.9086 0.9078 0.9071
2154.000000 0.9065 0.9058 0.9052 0.9045 0.9039
2159.000000 0.9033 0.9027 0.9021 0.9016 0.9012
2164.000000 0.9009 0.9005 0.9002 0.8998 0.8995
2169.000000 0.8992 0.8989 0.8986 0.8984 0.8981
2174.000000 0.8979 0.8976 0.8973 0.8970 0.8968
2179.000000 0.8965 0.8963 0.8960 0.8958 0.8956
2184.000000 0.8954 0.8952 0.8950 0.8948 0.8946
2189.000000 0.8944 0.8942 0.8943 0.8944 0.8944
2194.000000 0.8945 0.8946 0.8947 0.8947 0.8948
2199.000000 0.8948 0.8949 0.8951 0.8953 0.8957
2204.000000 0.8961 0.8965 0.8969 0.8973 0.8978
2209.000000 0.8982 0.8986 0.8990 0.8994 0.8998
2214.000000 0.9003 0.9005 0.9007 0.9009 0.9012
2219.000000 0.9014 0.9016 0.9018 0.9021 0.9023
2224.000000 0.9026 0.9028 0.9031 0.9033 0.9036
2229.000000 0.9038 0.9041 0.9043 0.9046 0.9048
2234.000000 0.9050 0.9052 0.9055 0.9057 0.9059
2239.000000 0.9061 0.9064 0.9066 0.9068 0.9070
2244.000000 0.9073 0.9075 0.9077 0.9078 0.9080
2249.000000 0.9081 0.9083 0.9084 0.9086 0.9087
2254.000000 0.9088 0.9089 0.9091 0.9092 0.9094
2259.000000 0.9095 0.9097 0.9098 0.9100 0.9101
2264.000000 0.9103 0.9103 0.9104 0.9103 0.9103
2269.000000 0.9102 0.9135 0.9101 0.9101 0.9100
2274.000000 0.9100 0.9099 0.9098 0.9095 0.9092
2279.000000 0.9087 0.9082 0.9076 0.9070 0.9063
2284.000000 0.9057 0.9050 0.9044 0.9037 0.9030
2289.000000 0.9023 0.9017 0.9010 0.9004 0.8997
2294.000000 0.8991 0.8984 0.8978 0.8971 0.8964
2299.000000 0.8956 0.8948 0.8940 0.8932 0.8924
2304.000000 0.8916 0.8908 0.8901 0.8893 0.8885
2309.000000 0.8877 0.8869 0.8857 0.8845 0.8833
2314.000000 0.8822 0.8811 0.8800 0.8794 0.8789
2319.000000 0.8785 0.8781 0.8779 0.8778 0.8776
2324.000000 0.8775 0.8773 0.8772 0.8770 0.8769
2329.000000 0.8768 0.8767 0.8765 0.8764 0.8764
2334.000000 0.8765 0.8766 0.8767 0.8767 0.8762
2339.000000 0.8769 0.8770 0.8770 0.8771 0.8773
2344.000000 0.8776 0.8781 0.8787 0.8792 0.8798
2349.000000 0.8804 0.8811 0.8818 0.8825 0.8831
2354.000000 0.8838 0.8847 0.8856 0.8866 0.8876
2359.000000 0.8885 0.8895 0.8901 0.8908 0.8911
2364.000000 0.8915 0.8919 0.8923 0.8926 0.8930
2369.000000 0.8932 0.8935 0.8934 0.8934 0.8933
2374.000000 0.8932 0.8929 0.8927 0.8923 0.8920
2379.000000 0.8916 0.8912 0.8908 0.8905 0.8901
2384.000000 0.8897 0.8894 0.8891 0.8889 0.8887
2389.000000 0.8884 0.8882 0.8880 0.8878 0.8876
2394.000000 0.8874 0.8872 0.8870 0.8870 0.8870
2399.000000 0.8871 0.8873 0.8878 0.8884 0.8893
2404.000000 0.8902 0.8914 0.8927 0.8944 0.8962
2409.000000 0.8976 0.8991 0.9003 0.9016 0.9022
2414.000000 0.9028 0.9033 0.9039 0.9044 0.9049
2419.000000 0.9054 0.9059 0.9062 0.9066 0.9069
2424.000000 0.9073 0.9076 0.9080 0.9083 0.9086
2429.000000 0.9088 0.9091 0.9094 0.9097 0.9100
2434.000000 0.9103 0.9105 0.9108 0.9111 0.9114
2439.000000 0.9117 0.9120 0.9121 0.9123 0.9124
2444.000000 0.9126 0.9127 0.9129 0.9131 0.9133
2449.000000 0.9134 0.9128 0.9137 0.9139 0.9137
2454.000000 0.9135 0.9129 0.9123 0.9115 0.9107
2459.000000 0.9097 0.9087 0.9078 0.9069 0.9066
2464.000000 0.9063 0.9063 0.9063 0.9062 0.9062
2469.000000 0.9062 0.9062 0.9062 0.9062 0.9062
2474.000000 0.9062 0.9062 0.9062 0.9062 0.9062
2479.000000 0.9061 0.9061 0.9056 0.9051 0.9041
2484.000000 0.9031 0.9021 0.9011 0.9001 0.8991
2489.000000 0.8979 0.8967 0.8954 0.8941 0.8928
2494.000000 0.8915 0.8901 0.8888 0.8875 0.8862
2499.000000 0.8848 0.8835 0.8821 0.8808 0.8798
2504.000000 0.8789 0.8779 0.8769 0.8759 0.8750
2509.000000 0.8740 0.8730 0.8720 0.8711 0.8701
2514.000000 0.8691 0.8680 0.8670 0.8660 0.8650
2519.000000 0.8640 0.8630 0.8619 0.8609 0.8599
2524.000000 0.8589 0.8579 0.8569 0.8558 0.8548
2529.000000 0.8538 0.8529 0.8519 0.8510 0.8500
2534.000000 0.8491 0.8481 0.8472 0.8464 0.8456
2539.000000 0.8451 0.8447 0.8442 0.8438 0.8434
2544.000000 0.8430 0.8425 0.8421 0.8416 0.8412
2549.000000 0.8411 0.8410 0.8413 0.8416 0.8428
2554.000000 0.8441 0.8453 0.8465 0.8472 0.8479
2559.000000 0.8486 0.8493 0.8498 0.8504 0.8505
2564.000000 0.8506 0.8505 0.8504 0.8501 0.8499
2569.000000 0.8494 0.8490 0.8485 0.8481 0.8476
2574.000000 0.8471 0.8464 0.8457 0.8449 0.8442
2579.000000 0.8434 0.8427 0.8421 0.8415 0.8409
2584.000000 0.8404 0.8398 0.8392 0.8389 0.8387
2589.000000 0.8385 0.8384 0.8383 0.8382 0.8383
2594.000000 0.8385 0.8387 0.8390 0.8394 0.8398
2599.000000 0.8403 0.8409 0.8415 0.8422 0.8428
2604.000000 0.8435 0.8436 0.8438 0.8433 0.8429
2609.000000 0.8424 0.8420 0.8415 0.8410 0.8400
2614.000000 0.8390 0.8374 0.8358 0.8338 0.8319
2619.000000 0.8299 0.8279 0.8260 0.8242 0.8223
2624.000000 0.8204 0.8183 0.8163 0.8142 0.8122
2629.000000 0.8101 0.8080 0.8058 0.8036 0.8013
2634.000000 0.7990 0.7967 0.7944 0.7920 0.7896
2639.000000 0.7869 0.7842 0.7815 0.7788 0.7761
2644.000000 0.7735 0.7709 0.7683 0.7657 0.7631
2649.000000 0.7604 0.7578 0.7558 0.7538 0.7535
2654.000000 0.7532 0.7530 0.7529 0.7531 0.7533
2659.000000 0.7537 0.7542 0.7552 0.7562 0.7572
2664.000000 0.7583 0.7592 0.7601 0.7612 0.7623
2669.000000 0.7629 0.7635 0.7635 0.7635 0.7632
2674.000000 0.7630 0.7619 0.7608 0.7590 0.7572
2679.000000 0.7550 0.7528 0.7508 0.7488 0.7467
2684.000000 0.7447 0.7411 0.7375 0.7339 0.7303
2689.000000 0.7266 0.7229 0.7201 0.7174 0.7152
2694.000000 0.7130 0.7108 0.7087 0.7075 0.7063
2699.000000 0.7051 0.7039 0.7027 0.7016 0.7009
2704.000000 0.7003 0.6996 0.6990 0.6985 0.6980
2709.000000 0.6957 0.6935 0.6884 0.6833 0.6781
2714.000000 0.6730 0.6678 0.6627 0.6576 0.6525
2719.000000 0.6473 0.6376 0.6402 0.6382 0.6382
2724.000000 0.6383 0.6393 0.6404 0.6443 0.6482
2729.000000 0.6521 0.6561 0.6600 0.6639 0.6678
2734.000000 0.6718 0.6757 0.6796 0.6835 0.6875
2739.000000 0.6914 0.6953 0.6981 0.7010 0.7009
2744.000000 0.6993 0.7005 0.7003 0.6998 0.6993
2749.000000 0.6986 0.6979 0.6963 0.6947 0.6874
2754.000000 0.6802 0.6727 0.6653 0.6578 0.6503
2759.000000 0.6428 0.6353 0.6278 0.6204 0.6129
2764.000000 0.6054 0.5979 0.5904 0.5829 0.5755
2769.000000 0.5680 0.5605 0.5530 0.5456 0.5381
2774.000000 0.5306 0.5231 0.5156 0.5081 0.5007
2779.000000 0.4932 0.4857 0.4782 0.4707 0.4625
2784.000000 0.4544 0.4482 0.4420 0.4371 0.4323
2789.000000 0.4266 0.4209 0.4037 0.3865 0.3642
2794.000000 0.3420 0.3197 0.2975 0.2753 0.2531
2799.000000 0.2308 0.2086 0.1924 0.1762 0.1695
2804.000000 0.1629 0.1574 0.1519 0.1467 0.1415
2809.000000 0.1316 0.1218 0.1100 0.0982 0.0883
2814.000000 0.0784 0.0662 0.0540 0.0429 0.0319
2819.000000 0.0279 0.0240 0.0222 0.0204 0.0186
2824.000000 0.0169 0.0162 0.0156 0.0150 0.0145
2829.000000 0.0139 0.0134 0.0130 0.0127 0.0124
2834.000000 0.0121 0.0118 0.0115 0.0112 0.0109
2839.000000 0.0106 0.0103 0.0101 0.0099 0.0097
2844.000000 0.0095 0.0093 0.0091 0.0089 0.0087
2849.000000 0.0085 0.0083 0.0081 0.0079 0.0077
2854.000000 0.0075 0.0074 0.0074 0.0073 0.0073
2859.000000 0.0072 0.0076 0.0071 0.0071 0.0070
2864.000000 0.0070 0.0069 0.0069 0.0069 0.0069
2869.000000 0.0069 0.0070 0.0070 0.0071 0.0071
2874.000000 0.0072 0.0072 0.0072 0.0072 0.0073
2879.000000 0.0073 0.0074 0.0119 0.0165 0.0228
2884.000000 0.0292 0.0356 0.0420 0.0484 0.0548
2889.000000 0.0612 0.0676 0.0692 0.0713 0.0708
2894.000000 0.0708 0.0647 0.0587 0.0521 0.0455
2899.000000 0.0388 0.0322 0.0255 0.0189 0.0166
2904.000000 0.0144 0.0132 0.0120 0.0111 0.0102
2909.000000 0.0099 0.0097 0.0095 0.0093 0.0091
2914.000000 0.0089 0.0087 0.0085 0.0083 0.0082
2919.000000 0.0080 0.0079 0.0077 0.0076 0.0074
2924.000000 0.0072 0.0070 0.0069 0.0068 0.0068
2929.000000 0.0068 0.0068 0.0067 0.0067 0.0066
2934.000000 0.0066 0.0066 0.0066 0.0065 0.0065
2939.000000 0.0064 0.0064 0.0064 0.0064 0.0063
2944.000000 0.0063 0.0062 0.0062 0.0062 0.0062
2949.000000 0.0062 0.0062 0.0062 0.0062 0.0062
2954.000000 0.0062 0.0062 0.0062 0.0062 0.0062
2959.000000 0.0062 0.0063 0.0063 0.0063 0.0063
2964.000000 0.0063 0.0063 0.0063 0.0063 0.0080
2969.000000 0.0064 0.0065 0.0066 0.0067 0.0067
2974.000000 0.0068 0.0069 0.0070 0.0071 0.0072
2979.000000 0.0072 0.0073 0.0074 0.0075 0.0079
2984.000000 0.0083 0.0087 0.0092 0.0096 0.0101
2989.000000 0.0104 0.0108 0.0111 0.0114 0.0117
2994.000000 0.0120 0.0124 0.0129 0.0133 0.0137
2999.000000 0.0141 0.0146 0.0150 0.0155 0.0160
3004.000000 0.0165 0.0173 0.0181 0.0188 0.0196
3009.000000 0.0204 0.0212 0.0220 0.0228 0.0241
3014.000000 0.0254 0.0268 0.0283 0.0323 0.0364
3019.000000 0.0437 0.0510 0.0583 0.0657 0.0730
3024.000000 0.0803 0.0876 0.0950 0.1023 0.1097
3029.000000 0.1170 0.1243 0.1316 0.1390 0.1463
3034.000000 0.1537 0.1610 0.1683 0.1756 0.1830
3039.000000 0.1843 0.1857 0.1857 0.1867 0.1838
3044.000000 0.1820 0.1738 0.1657 0.1576 0.1495
3049.000000 0.1413 0.1332 0.1279 0.1226 0.1218
3054.000000 0.1210 0.1202 0.1195 0.1188 0.1181
3059.000000 0.1073 0.0965 0.0788 0.0611 0.0551
3064.000000 0.0492 0.0457 0.0422 0.0388 0.0355
3069.000000 0.0327 0.0300 0.0284 0.0268 0.0265
3074.000000 0.0263 0.0262 0.0262 0.0701 0.0262
3079.000000 0.1775 0.2411 0.3046 0.3682 0.3800
3084.000000 0.3919 0.3950 0.3982 0.4010 0.4039
3089.000000 0.4066 0.4093 0.4128 0.4164 0.4410
3094.000000 0.4656 0.4910 0.5165 0.5481 0.5797
3099.000000 0.5917 0.6037 0.6111 0.6185 0.6259
3104.000000 0.6333 0.6421 0.6510 0.6592 0.6675
3109.000000 0.6726 0.6778 0.6829 0.6881 0.6970
3114.000000 0.7059 0.7108 0.7157 0.7187 0.7217
3119.000000 0.7247 0.7277 0.7305 0.7333 0.7354
3124.000000 0.7376 0.7397 0.7419 0.7440 0.7462
3129.000000 0.7483 0.7504 0.7519 0.7534 0.7546
3134.000000 0.7559 0.7571 0.7584 0.7596 0.7609
3139.000000 0.7621 0.7634 0.7646 0.7659 0.7671
3144.000000 0.7684 0.7696 0.7708 0.7719 0.7731
3149.000000 0.7741 0.7752 0.7762 0.7773 0.7782
3154.000000 0.7792 0.7795 0.7798 0.7801 0.7805
3159.000000 0.7808 0.7811 0.7814 0.7817 0.7820
3164.000000 0.7824 0.7827 0.7830 0.7833 0.7836
3169.000000 0.7838 0.7841 0.7844 0.7847 0.7849
3174.000000 0.7852 0.7854 0.7857 0.7865 0.7873
3179.000000 0.7881 0.7890 0.7898 0.7907 0.7916
3184.000000 0.7926 0.7956 0.7986 0.8015 0.8045
3189.000000 0.8074 0.8103 0.8130 0.8158 0.8184
3194.000000 0.8211 0.8237 0.8264 0.8288 0.8313
3199.000000 0.8335 0.8358 0.8380 0.8402 0.8421
3204.000000 0.8441 0.8458 0.8476 0.8493 0.8511
3209.000000 0.8529 0.8547 0.8563 0.8580 0.8594
3214.000000 0.8608 0.8622 0.8636 0.8650 0.8664
3219.000000 0.8678 0.8692 0.8706 0.8720 0.8734
3224.000000 0.8748 0.8761 0.8775 0.8786 0.8798
3229.000000 0.8809 0.8821 0.8832 0.8844 0.8855
3234.000000 0.8866 0.8876 0.8886 0.8889 0.8893
3239.000000 0.8888 0.8883 0.8878 0.8874 0.8869
3244.000000 0.8865 0.8858 0.8852 0.8842 0.8832
3249.000000 0.8822 0.8813 0.8802 0.8791 0.8790
3254.000000 0.8790 0.8791 0.8792 0.8793 0.8795
3259.000000 0.8796 0.8798 0.8803 0.8809 0.8816
3264.000000 0.8823 0.8832 0.8841 0.8855 0.8870
3269.000000 0.8885 0.8901 0.8918 0.8936 0.8950
3274.000000 0.8965 0.8975 0.8986 0.8996 0.9006
3279.000000 0.9016 0.9026 0.9033 0.9040 0.9047
3284.000000 0.9055 0.9062 0.9069 0.9076 0.9084
3289.000000 0.9088 0.9093 0.9097 0.9101 0.9105
3294.000000 0.9109 0.9113 0.9117 0.9121 0.9126
3299.000000 0.9130 0.9134 0.9138 0.9142 0.9146
3304.000000 0.9150 0.9154 0.9159 0.9163 0.9167
3309.000000 0.9170 0.9174 0.9177 0.9181 0.9184
3314.000000 0.9188 0.9191 0.9195 0.9199 0.9203
3319.000000 0.9207 0.9212 0.9214 0.9217 0.9218
3324.000000 0.9220 0.9221 0.9223 0.9224 0.9226
3329.000000 0.9227 0.9229 0.9231 0.9233 0.9234
3334.000000 0.9236 0.9238 0.9240 0.9241 0.9243
3339.000000 0.9244 0.9246 0.9246 0.9247 0.9247
3344.000000 0.9248 0.9249 0.9250 0.9250 0.9250
3349.000000 0.9250 0.9251 0.9251 0.9251 0.9251
3354.000000 0.9252 0.9250 0.9249 0.9247 0.9245
3359.000000 0.9243 0.9242 0.9240 0.9239 0.9237
3364.000000 0.9235 0.9233 0.9231 0.9229 0.9228
3369.000000 0.9226 0.9224 0.9222 0.9220 0.9218
3374.000000 0.9216 0.9214 0.9213 0.9212 0.9211
3379.000000 0.9209 0.9208 0.9207 0.9206 0.9204
3384.000000 0.9203 0.9202 0.9201 0.9200 0.9199
3389.000000 0.9198 0.9197 0.9196 0.9196 0.9195
3394.000000 0.9194 0.9193 0.9193 0.9192 0.9192
3399.000000 0.9191 0.9191 0.9190 0.9190 0.9189
3404.000000 0.9189 0.9188 0.9188 0.9187 0.9186
3409.000000 0.9185 0.9185 0.9184 0.9184 0.9184
3414.000000 0.9184 0.9183 0.9183 0.9182 0.9182
3419.000000 0.9182 0.9182 0.9181 0.9181 0.9180
3424.000000 0.9180 0.9180 0.9180 0.9179 0.9179
3429.000000 0.9179 0.9180 0.9180 0.9181 0.9181
3434.000000 0.9182 0.9182 0.9183 0.9183 0.9184
3439.000000 0.9184 0.9184 0.9184 0.9185 0.9185
3444.000000 0.9186 0.9186 0.9187 0.9187 0.9188
3449.000000 0.9188 0.9189 0.9189 0.9190 0.9190
3454.000000 0.9191 0.9192 0.9193 0.9193 0.9203
3459.000000 0.9194 0.9195 0.9196 0.9197 0.9197
3464.000000 0.9198 0.9198 0.9199 0.9200 0.9201
3469.000000 0.9201 0.9202 0.9202 0.9203 0.9203
3474.000000 0.9203 0.9203 0.9204 0.9204 0.9204
3479.000000 0.9204 0.9204 0.9204 0.9205 0.9205
3484.000000 0.9205 0.9205 0.9206 0.9206 0.9206
3489.000000 0.9206 0.9206 0.9206 0.9207 0.9212
3494.000000 0.9217 0.9222 0.9227 0.9232 0.9237
3499.000000 0.9242 0.9247 0.9252 0.9258 0.9260
3504.000000 0.9263 0.9263 0.9264 0.9264 0.9265
3509.000000 0.9265 0.9266 0.9265 0.9265 0.9263
3514.000000 0.9262 0.9260 0.9259 0.9258 0.9257
3519.000000 0.9255 0.9254 0.9252 0.9251 0.9251
3524.000000 0.9252 0.9252 0.9252 0.9252 0.9252
3529.000000 0.9250 0.9249 0.9247 0.9246 0.9244
3534.000000 0.9242 0.9240 0.9239 0.9237 0.9236
3539.000000 0.9234 0.9233 0.9231 0.9230 0.9228
3544.000000 0.9227 0.9226 0.9226 0.9230 0.9235
3549.000000 0.9239 0.9244 0.9249 0.9255 0.9260
3554.000000 0.9266 0.9272 0.9278 0.9284 0.9290
3559.000000 0.9295 0.9301 0.9304 0.9307 0.9310
3564.000000 0.9313 0.9316 0.9319 0.9321 0.9324
3569.000000 0.9326 0.9329 0.9330 0.9332 0.9331
3574.000000 0.9330 0.9329 0.9329 0.9328 0.9328
3579.000000 0.9326 0.9325 0.9322 0.9319 0.9316
3584.000000 0.9313 0.9310 0.9307 0.9304 0.9302
3589.000000 0.9299 0.9297 0.9295 0.9294 0.9292
3594.000000 0.9291 0.9289 0.9288 0.9286 0.9285
3599.000000 0.9283 0.9282 0.9280 0.9279 0.9277
3604.000000 0.9276 0.9275 0.9274 0.9274 0.9274
3609.000000 0.9273 0.9273 0.9273 0.9273 0.9272
3614.000000 0.9272 0.9272 0.9272 0.9271 0.9271
3619.000000 0.9271 0.9271 0.9270 0.9270 0.9270
3624.000000 0.9270 0.9271 0.9272 0.9273 0.9275
3629.000000 0.9276 0.9278 0.9279 0.9281 0.9283
3634.000000 0.9285 0.9286 0.9288 0.9289 0.9290
3639.000000 0.9291 0.9292 0.9293 0.9294 0.9287
3644.000000 0.9281 0.9274 0.9268 0.9261 0.9255
3649.000000 0.9247 0.9240 0.9233 0.9226 0.9218
3654.000000 0.9211 0.9210 0.9209 0.9208 0.9207
3659.000000 0.9206 0.9205 0.9204 0.9203 0.9201
3664.000000 0.9200 0.9199 0.9199 0.9198 0.9198
3669.000000 0.9198 0.9198 0.9197 0.9197 0.9197
3674.000000 0.9197 0.9196 0.9196 0.9196 0.9196
3679.000000 0.9195 0.9195 0.9195 0.9195 0.9194
3684.000000 0.9194 0.9194 0.9194 0.9194 0.9195
3689.000000 0.9195 0.9195 0.9195 0.9196 0.9196
3694.000000 0.9196 0.9196 0.9197 0.9197 0.9197
3699.000000 0.9197 0.9197 0.9197 0.9198 0.9199
3704.000000 0.9200 0.9201 0.9202 0.9203 0.9204
3709.000000 0.9205 0.9206 0.9207 0.9208 0.9209
3714.000000 0.9210 0.9211 0.9212 0.9213 0.9214
3719.000000 0.9215 0.9216 0.9217 0.9218 0.9219
3724.000000 0.9220 0.9219 0.9218 0.9217 0.9217
3729.000000 0.9216 0.9215 0.9214 0.9214 0.9213
3734.000000 0.9212 0.9211 0.9211 0.9210 0.9209
3739.000000 0.9206 0.9203 0.9196 0.9190 0.9183
3744.000000 0.9177 0.9170 0.9163 0.9156 0.9150
3749.000000 0.9141 0.9132 0.9122 0.9112 0.9101
3754.000000 0.9091 0.9081 0.9071 0.9062 0.9053
3759.000000 0.9049 0.9046 0.9042 0.9039 0.9035
3764.000000 0.9031 0.9027 0.9024 0.9025 0.9026
3769.000000 0.9027 0.9036 0.9030 0.9032 0.9033
3774.000000 0.9035 0.9036 0.9038 0.9041 0.9044
3779.000000 0.9049 0.9054 0.9059 0.9064 0.9069
3784.000000 0.9074 0.9079 0.9085 0.9090 0.9096
3789.000000 0.9102 0.9108 0.9111 0.9115 0.9116
3794.000000 0.9117 0.9115 0.9114 0.9111 0.9109
3799.000000 0.9109 0.9110 0.9115 0.9120 0.9125
3804.000000 0.9130 0.9136 0.9143 0.9149 0.9156
3809.000000 0.9162 0.9169 0.9175 0.9182 0.9188
3814.000000 0.9194 0.9199 0.9205 0.9209 0.9214
3819.000000 0.9215 0.9217 0.9218 0.9220 0.9221
3824.000000 0.9223 0.9223 0.9223 0.9222 0.9222
3829.000000 0.9221 0.9221 0.9220 0.9220 0.9220
3834.000000 0.9220 0.9218 0.9217 0.9215 0.9214
3839.000000 0.9212 0.9211 0.9210 0.9209 0.9208
3844.000000 0.9208 0.9207 0.9207 0.9207 0.9207
3849.000000 0.9206 0.9206 0.9205 0.9214 0.9205
3854.000000 0.9206 0.9206 0.9206 0.9206 0.9207
3859.000000 0.9207 0.9207 0.9205 0.9203 0.9200
3864.000000 0.9197 0.9191 0.9185 0.9179 0.9174
3869.000000 0.9168 0.9162 0.9156 0.9151 0.9145
3874.000000 0.9139 0.9132 0.9125 0.9114 0.9104
3879.000000 0.9094 0.9084 0.9074 0.9064 0.9055
3884.000000 0.9047 0.9038 0.9030 0.9029 0.9028
3889.000000 0.9027 0.9027 0.9027 0.9027 0.9027
3894.000000 0.9028 0.9029 0.9030 0.9031 0.9032
3899.000000 0.9033 0.9034 0.9034 0.9034 0.9034
3904.000000 0.9035 0.9033 0.9032 0.9022 0.9013
3909.000000 0.9003 0.8994 0.8982 0.8970 0.8957
3914.000000 0.8944 0.8931 0.8919 0.8903 0.8887
3919.000000 0.8871 0.8855 0.8840 0.8825 0.8818
3924.000000 0.8812 0.8806 0.8800 0.8793 0.8787
3929.000000 0.8779 0.8771 0.8763 0.8755 0.8747
3934.000000 0.8739 0.8731 0.8723 0.8715 0.8707
3939.000000 0.8698 0.8689 0.8678 0.8668 0.8657
3944.000000 0.8647 0.8636 0.8626 0.8616 0.8606
3949.000000 0.8600 0.8594 0.8588 0.8582 0.8576
3954.000000 0.8570 0.8564 0.8559 0.8553 0.8547
3959.000000 0.8543 0.8540 0.8537 0.8534 0.8531
3964.000000 0.8528 0.8524 0.8521 0.8517 0.8514
3969.000000 0.8510 0.8507 0.8502 0.8498 0.8486
3974.000000 0.8474 0.8438 0.8402 0.8386 0.8370
3979.000000 0.8357 0.8344 0.8333 0.8323 0.8320
3984.000000 0.8318 0.8315 0.8313 0.8312 0.8311
3989.000000 0.8312 0.8314 0.8315 0.8317 0.8318
3994.000000 0.8320 0.8321 0.8322 0.8323 0.8325
3999.000000 0.8326 0.8327
##END=
