##TITLE=PURINE, 2,6-DIAMINO-, SULFATE, HYDRATE
##JCAMP-DX=4.24
##DATA TYPE=INFRARED SPECTRUM
##CLASS=COBLENTZ III
##ORIGIN=SOUTHERN RESEARCH INSTITUTE
##OWNER=COBLENTZ SOCIETY
Collection (C) 2018 copyright by the U.S. Secretary of Commerce
on behalf of the United States of America. All rights reserved.
##DATE=1956/03/08
##MOLFORM=C10 H12 N12  * H2 S O4  * H2 O
##SOURCE REFERENCE=COBLENTZ NO. 7388
##$NIST ID=B6007388
##$NIST SOURCE=COBLENTZ
##$NIST IMAGE=cob7388
##SPECTROMETER/DATA SYSTEM=PERKIN-ELMER 21 (GRATING)
##INSTRUMENT PARAMETERS=NaCl PRISM
##STATE=SOLID (1 mg / 650 mg, KBr DISC)
##SAMPLING PROCEDURE=TRANSMISSION
##RESOLUTION=4
##DATA PROCESSING=DIGITIZED BY NIST FROM HARD COPY (FROM TWO SEGMENTS)
##XUNITS=1/CM
##YUNITS=TRANSMITTANCE
##XFACTOR=1.000000
##YFACTOR=1
##DELTAX=1.216730
##FIRSTX=618.309
##LASTX=3914.43
##FIRSTY=0.546
##MAXX=3914.43
##MINX=618.309
##MAXY=0.894
##MINY=0.14
##NPOINTS=2710
##XYDATA=(X++(Y..Y))
618.309000 0.5460 0.5470 0.5500 0.5510 0.5520
624.392650 0.5540 0.5550 0.5599 0.5648 0.5737
630.476300 0.5788 0.5848 0.5860 0.5860 0.5879
636.559950 0.5880 0.5880 0.5880 0.5861 0.5851
642.643600 0.5831 0.5802 0.5781 0.5734 0.5693
648.727250 0.5672 0.5652 0.5623 0.5602 0.5582
654.810900 0.5580 0.5598 0.5600 0.5609 0.5619
660.894550 0.5629 0.5648 0.5668 0.5679 0.5715
666.978200 0.5746 0.5767 0.5779 0.5789 0.5799
673.061850 0.5817 0.5829 0.5838 0.5848 0.5850
679.145500 0.5858 0.5860 0.5860 0.5877 0.5880
685.229150 0.5880 0.5888 0.5906 0.5942 0.5958
691.312800 0.5984 0.6006 0.6050 0.6068 0.6078
697.396450 0.6088 0.6090 0.6090 0.6090 0.6082
703.480100 0.6080 0.6064 0.6037 0.6015 0.5979
709.563750 0.5955 0.5927 0.5897 0.5860 0.5835
715.647400 0.5808 0.5785 0.5750 0.5725 0.5713
721.731050 0.5710 0.5710 0.5696 0.5690 0.5690
727.814700 0.5690 0.5683 0.5680 0.5680 0.5680
733.898350 0.5680 0.5680 0.5673 0.5663 0.5640
739.982000 0.5623 0.5613 0.5603 0.5587 0.5573
746.065650 0.5557 0.5543 0.5527 0.5513 0.5510
752.149300 0.5503 0.5500 0.5500 0.5500 0.5506
758.232950 0.5516 0.5545 0.5591 0.5616 0.5651
764.316600 0.5713 0.5808 0.5918 0.6033 0.6141
770.400250 0.6192 0.6212 0.6220 0.6220 0.6208
776.483900 0.6200 0.6200 0.6194 0.6190 0.6190
782.567550 0.6190 0.6190 0.6190 0.6190 0.6184
788.651200 0.6180 0.6174 0.6170 0.6165 0.6160
794.734850 0.6160 0.6160 0.6149 0.6135 0.6120
800.818500 0.6094 0.6070 0.6044 0.6009 0.5970
806.902150 0.5925 0.5880 0.5840 0.5800 0.5760
812.985800 0.5725 0.5685 0.5640 0.5596 0.5556
819.069450 0.5526 0.5491 0.5461 0.5427 0.5377
825.153100 0.5345 0.5335 0.5330 0.5335 0.5353
831.236750 0.5450 0.5572 0.5683 0.5859 0.6002
837.320400 0.6117 0.6210 0.6276 0.6318 0.6363
843.404050 0.6418 0.6442 0.6480 0.6534 0.6582
849.487700 0.6612 0.6646 0.6678 0.6698 0.6722
855.571350 0.6755 0.6788 0.6807 0.6827 0.6840
861.655000 0.6844 0.6854 0.6860 0.6860 0.6860
867.738650 0.6864 0.6870 0.6870 0.6870 0.6867
873.822300 0.6860 0.6860 0.6860 0.6857 0.6850
879.905950 0.6847 0.6840 0.6840 0.6834 0.6820
885.989600 0.6820 0.6817 0.6810 0.6807 0.6797
892.073250 0.6787 0.6774 0.6760 0.6757 0.6739
898.156900 0.6702 0.6669 0.6635 0.6612 0.6585
904.240550 0.6567 0.6552 0.6525 0.6503 0.6473
910.324200 0.6438 0.6388 0.6333 0.6257 0.6169
916.407850 0.6103 0.5988 0.5893 0.5811 0.5723
922.491500 0.5631 0.5505 0.5434 0.5322 0.5079
928.575150 0.4847 0.4724 0.4584 0.4470 0.4495
934.658800 0.4640 0.4817 0.5101 0.5679 0.5980
940.742450 0.6317 0.6524 0.6606 0.6646 0.6680
946.826100 0.6679 0.6667 0.6649 0.6637 0.6615
952.909750 0.6579 0.6562 0.6503 0.6444 0.6392
958.993400 0.6321 0.6236 0.6123 0.6066 0.6028
965.077050 0.6009 0.6000 0.6001 0.6016 0.6083
971.160700 0.6123 0.6161 0.6171 0.6181 0.6190
977.244350 0.6188 0.6157 0.6119 0.6106 0.6028
983.328000 0.5987 0.5918 0.5877 0.5816 0.5736
989.411650 0.5649 0.5609 0.5578 0.5520 0.5499
995.495300 0.5460 0.5439 0.5379 0.5319 0.5260
1001.578950 0.5200 0.5170 0.5170 0.5160 0.5120
1007.662600 0.5110 0.5100 0.5041 0.5040 0.5001
1013.746250 0.4961 0.4921 0.4891 0.4871 0.4793
1019.829900 0.4714 0.4614 0.4581 0.4485 0.4414
1025.913550 0.4259 0.4119 0.4054 0.3827 0.3634
1031.997200 0.3473 0.3330 0.3283 0.3234 0.3148
1038.080850 0.3049 0.2968 0.2861 0.2733 0.2622
1044.164500 0.2530 0.2502 0.2491 0.2455 0.2415
1050.248150 0.2384 0.2345 0.2331 0.2321 0.2303
1056.331800 0.2300 0.2291 0.2290 0.2290 0.2290
1062.415450 0.2290 0.2290 0.2298 0.2300 0.2300
1068.499100 0.2317 0.2337 0.2373 0.2388 0.2406
1074.582750 0.2434 0.2448 0.2482 0.2506 0.2542
1080.666400 0.2566 0.2578 0.2620 0.2638 0.2664
1086.750050 0.2694 0.2716 0.2736 0.2763 0.2785
1092.833700 0.2790 0.2805 0.2833 0.2848 0.2858
1098.917350 0.2883 0.2912 0.2942 0.2957 0.2967
1105.001000 0.2977 0.2980 0.3002 0.3017 0.3027
1111.084650 0.3037 0.3054 0.3074 0.3087 0.3104
1117.168300 0.3117 0.3127 0.3137 0.3140 0.3140
1123.251950 0.3147 0.3150 0.3164 0.3177 0.3180
1129.335600 0.3180 0.3180 0.3180 0.3187 0.3190
1135.419250 0.3197 0.3200 0.3200 0.3206 0.3242
1141.502900 0.3292 0.3336 0.3382 0.3432 0.3488
1147.586550 0.3541 0.3597 0.3657 0.3711 0.3754
1153.670200 0.3794 0.3865 0.3942 0.3988 0.4078
1159.753850 0.4219 0.4298 0.4339 0.4401 0.4442
1165.837500 0.4467 0.4520 0.4579 0.4669 0.4748
1171.921150 0.4793 0.4849 0.4947 0.5061 0.5165
1178.004800 0.5427 0.5681 0.5794 0.5894 0.5988
1184.088450 0.6110 0.6206 0.6261 0.6389 0.6552
1190.172100 0.6630 0.6671 0.6721 0.6765 0.6820
1196.255750 0.6855 0.6870 0.6890 0.6905 0.6910
1202.339400 0.6910 0.6910 0.6910 0.6910 0.6910
1208.423050 0.6910 0.6910 0.6905 0.6900 0.6891
1214.506700 0.6880 0.6876 0.6870 0.6866 0.6856
1220.590350 0.6846 0.6840 0.6831 0.6820 0.6812
1226.674000 0.6762 0.6693 0.6657 0.6632 0.6604
1232.757650 0.6527 0.6438 0.6396 0.6332 0.6278
1238.841300 0.6260 0.6268 0.6288 0.6304 0.6321
1244.924950 0.6344 0.6372 0.6417 0.6437 0.6454
1251.008600 0.6464 0.6474 0.6491 0.6517 0.6540
1257.092250 0.6570 0.6604 0.6643 0.6673 0.6680
1263.175900 0.6677 0.6664 0.6647 0.6637 0.6627
1269.259550 0.6614 0.6597 0.6587 0.6577 0.6567
1275.343200 0.6554 0.6523 0.6471 0.6441 0.6414
1281.426850 0.6383 0.6340 0.6313 0.6219 0.6139
1287.510500 0.6049 0.5929 0.5811 0.5715 0.5667
1293.594150 0.5650 0.5610 0.5578 0.5572 0.5587
1299.677800 0.5615 0.5639 0.5679 0.5719 0.5785
1305.761450 0.5934 0.6035 0.6107 0.6182 0.6232
1311.845100 0.6240 0.6238 0.6228 0.6216 0.6194
1317.928750 0.6163 0.6121 0.6075 0.6045 0.6020
1324.012400 0.6017 0.5995 0.5962 0.5913 0.5874
1330.096050 0.5832 0.5784 0.5747 0.5723 0.5673
1336.179700 0.5627 0.5603 0.5555 0.5516 0.5486
1342.263350 0.5454 0.5405 0.5361 0.5287 0.5258
1348.347000 0.5234 0.5172 0.5091 0.5009 0.4992
1354.430650 0.4912 0.4826 0.4788 0.4764 0.4688
1360.514300 0.4659 0.4647 0.4608 0.4578 0.4548
1366.597950 0.4518 0.4490 0.4488 0.4450 0.4447
1372.681600 0.4389 0.4359 0.4319 0.4299 0.4279
1378.765250 0.4249 0.4196 0.4029 0.3979 0.3909
1384.848900 0.3850 0.3800 0.3770 0.3750 0.3740
1390.932550 0.3730 0.3710 0.3700 0.3700 0.3710
1397.016200 0.3739 0.3808 0.3878 0.3968 0.4067
1403.099850 0.4186 0.4305 0.4415 0.4525 0.4606
1409.183500 0.4667 0.4726 0.4787 0.4875 0.4899
1415.267150 0.4928 0.4976 0.5045 0.5244 0.5480
1421.350800 0.5573 0.5671 0.5771 0.5880 0.5981
1427.434450 0.6080 0.6162 0.6197 0.6280 0.6308
1433.518100 0.6328 0.6330 0.6304 0.6291 0.6281
1439.601750 0.6263 0.6243 0.6231 0.6204 0.6183
1445.685400 0.6137 0.6096 0.6039 0.5996 0.5965
1451.769050 0.5952 0.5942 0.5940 0.5907 0.5776
1457.852700 0.5693 0.5656 0.5634 0.5565 0.5518
1463.936350 0.5478 0.5438 0.5382 0.5338 0.5282
1470.020000 0.5262 0.5260 0.5268 0.5278 0.5288
1476.103650 0.5313 0.5359 0.5516 0.5629 0.5703
1482.187300 0.5758 0.5778 0.5810 0.5835 0.5840
1488.270950 0.5833 0.5823 0.5805 0.5756 0.5704
1494.354600 0.5661 0.5621 0.5588 0.5558 0.5514
1500.438250 0.5493 0.5469 0.5418 0.5386 0.5352
1506.521900 0.5291 0.5208 0.5104 0.5008 0.4918
1512.605550 0.4856 0.4806 0.4777 0.4757 0.4737
1518.689200 0.4723 0.4720 0.4720 0.4727 0.4815
1524.772850 0.4971 0.5334 0.5641 0.5822 0.5899
1530.856500 0.5935 0.5981 0.6013 0.6026 0.6030
1536.940150 0.6005 0.5965 0.5926 0.5867 0.5804
1543.023800 0.5726 0.5625 0.5556 0.5510 0.5437
1549.107450 0.5388 0.5357 0.5328 0.5303 0.5284
1555.191100 0.5274 0.5231 0.5115 0.5011 0.4969
1561.274750 0.4827 0.4692 0.4621 0.4526 0.4399
1567.358400 0.4223 0.4040 0.3917 0.3843 0.3768
1573.442050 0.3625 0.3473 0.3358 0.3239 0.3038
1579.525700 0.2814 0.2685 0.2635 0.2625 0.2620
1585.609350 0.2625 0.2635 0.2659 0.2709 0.2740
1591.693000 0.2745 0.2745 0.2735 0.2711 0.2676
1597.776650 0.2637 0.2573 0.2489 0.2413 0.2367
1603.860300 0.2346 0.2340 0.2340 0.2344 0.2354
1609.943950 0.2369 0.2380 0.2367 0.2346 0.2340
1616.027600 0.2336 0.2318 0.2292 0.2272 0.2244
1622.111250 0.2200 0.2154 0.2118 0.2077 0.2025
1628.194900 0.1992 0.1950 0.1874 0.1822 0.1780
1634.278550 0.1708 0.1652 0.1609 0.1576 0.1536
1640.362200 0.1496 0.1460 0.1437 0.1427 0.1420
1646.445850 0.1413 0.1400 0.1407 0.1423 0.1433
1652.529500 0.1443 0.1456 0.1476 0.1493 0.1503
1658.613150 0.1516 0.1533 0.1543 0.1553 0.1563
1664.696800 0.1576 0.1593 0.1600 0.1603 0.1613
1670.780450 0.1620 0.1620 0.1625 0.1640 0.1640
1676.864100 0.1643 0.1652 0.1660 0.1665 0.1685
1682.947750 0.1702 0.1715 0.1737 0.1771 0.1824
1689.031400 0.1872 0.1893 0.1953 0.2000 0.2015
1695.115050 0.2083 0.2142 0.2204 0.2272 0.2332
1701.198700 0.2391 0.2451 0.2513 0.2611 0.2808
1707.282350 0.2922 0.3073 0.3124 0.3322 0.3512
1713.366000 0.3709 0.3889 0.4080 0.4276 0.4526
1719.449650 0.5141 0.5319 0.5678 0.5739 0.5816
1725.533300 0.5945 0.6133 0.6242 0.6334 0.6377
1731.616950 0.6514 0.6622 0.6651 0.6754 0.6884
1737.700600 0.7016 0.7072 0.7091 0.7105 0.7151
1743.784250 0.7168 0.7256 0.7336 0.7415 0.7488
1749.867900 0.7591 0.7611 0.7630 0.7632 0.7668
1755.951550 0.7801 0.7813 0.7873 0.7940 0.7951
1762.035200 0.7971 0.8001 0.8031 0.8061 0.8100
1768.118850 0.8121 0.8160 0.8170 0.8180 0.8210
1774.202500 0.8220 0.8260 0.8280 0.8320 0.8330
1780.286150 0.8340 0.8340 0.8350 0.8370 0.8399
1786.369800 0.8429 0.8440 0.8450 0.8450 0.8460
1792.453450 0.8460 0.8479 0.8518 0.8558 0.8569
1798.537100 0.8589 0.8599 0.8609 0.8619 0.8629
1804.620750 0.8649 0.8659 0.8669 0.8688 0.8690
1810.704400 0.8708 0.8710 0.8719 0.8729 0.8730
1816.788050 0.8739 0.8758 0.8760 0.8769 0.8770
1822.871700 0.8770 0.8779 0.8780 0.8789 0.8799
1828.955350 0.8800 0.8817 0.8829 0.8830 0.8838
1835.039000 0.8840 0.8848 0.8850 0.8850 0.8850
1841.122650 0.8858 0.8860 0.8860 0.8860 0.8860
1847.206300 0.8876 0.8880 0.8880 0.8880 0.8888
1853.289950 0.8890 0.8890 0.8890 0.8890 0.8890
1859.373600 0.8890 0.8890 0.8890 0.8890 0.8890
1865.457250 0.8890 0.8890 0.8898 0.8900 0.8900
1871.540900 0.8900 0.8900 0.8900 0.8900 0.8893
1877.624550 0.8890 0.8890 0.8883 0.8880 0.8866
1883.708200 0.8860 0.8860 0.8860 0.8860 0.8860
1889.791850 0.8853 0.8850 0.8850 0.8850 0.8850
1895.875500 0.8850 0.8850 0.8850 0.8850 0.8850
1901.959150 0.8850 0.8850 0.8850 0.8850 0.8850
1908.042800 0.8843 0.8840 0.8840 0.8840 0.8840
1914.126450 0.8834 0.8830 0.8830 0.8830 0.8824
1920.210100 0.8820 0.8808 0.8800 0.8800 0.8800
1926.293750 0.8794 0.8790 0.8790 0.8784 0.8780
1932.377400 0.8780 0.8780 0.8780 0.8780 0.8774
1938.461050 0.8770 0.8770 0.8770 0.8770 0.8764
1944.544700 0.8760 0.8760 0.8749 0.8740 0.8740
1950.628350 0.8735 0.8730 0.8730 0.8725 0.8720
1956.712000 0.8720 0.8720 0.8704 0.8690 0.8690
1962.795650 0.8685 0.8680 0.8675 0.8670 0.8670
1968.879300 0.8665 0.8660 0.8655 0.8650 0.8640
1974.962950 0.8630 0.8630 0.8625 0.8620 0.8615
1981.046600 0.8605 0.8600 0.8595 0.8590 0.8581
1987.130250 0.8570 0.8565 0.8556 0.8546 0.8531
1993.213900 0.8516 0.8510 0.8506 0.8496 0.8486
1999.297550 0.8472 0.8460 0.8456 0.8450 0.8446
2005.381200 0.8440 0.8440 0.8436 0.8430 0.8430
2011.464850 0.8426 0.8420 0.8412 0.8400 0.8400
2017.548500 0.8400 0.8396 0.8390 0.8390 0.8386
2023.632150 0.8380 0.8376 0.8370 0.8370 0.8370
2029.715800 0.8362 0.8350 0.8350 0.8346 0.8340
2035.799450 0.8336 0.8330 0.8330 0.8330 0.8330
2041.883100 0.8330 0.8330 0.8330 0.8330 0.8330
2047.966750 0.8330 0.8326 0.8320 0.8320 0.8320
2054.050400 0.8320 0.8316 0.8310 0.8310 0.8302
2060.134050 0.8290 0.8286 0.8280 0.8280 0.8280
2066.217700 0.8276 0.8270 0.8270 0.8270 0.8266
2072.301350 0.8260 0.8260 0.8256 0.8250 0.8250
2078.385000 0.8242 0.8230 0.8230 0.8226 0.8220
2084.468650 0.8220 0.8216 0.8210 0.8210 0.8206
2090.552300 0.8200 0.8200 0.8192 0.8180 0.8176
2096.635950 0.8170 0.8166 0.8164 0.8166 0.8160
2102.719600 0.8156 0.8150 0.8150 0.8146 0.8140
2108.803250 0.8140 0.8132 0.8120 0.8120 0.8116
2114.886900 0.8110 0.8110 0.8106 0.8100 0.8100
2120.970550 0.8096 0.8090 0.8086 0.8080 0.8072
2127.054200 0.8060 0.8056 0.8050 0.8050 0.8046
2133.137850 0.8040 0.8036 0.8030 0.8022 0.8010
2139.221500 0.8006 0.8000 0.8000 0.7996 0.7990
2145.305150 0.7990 0.7990 0.7986 0.7980 0.7976
2151.388800 0.7970 0.7970 0.7962 0.7950 0.7946
2157.472450 0.7940 0.7936 0.7930 0.7926 0.7916
2163.556100 0.7910 0.7902 0.7890 0.7886 0.7880
2169.639750 0.7876 0.7870 0.7866 0.7860 0.7852
2175.723400 0.7840 0.7832 0.7816 0.7806 0.7800
2181.807050 0.7792 0.7780 0.7776 0.7770 0.7770
2187.890700 0.7766 0.7760 0.7756 0.7750 0.7750
2193.974350 0.7750 0.7742 0.7730 0.7726 0.7720
2200.058000 0.7720 0.7716 0.7706 0.7687 0.7670
2206.141650 0.7666 0.7660 0.7656 0.7646 0.7636
2212.225300 0.7622 0.7606 0.7596 0.7590 0.7586
2218.308950 0.7580 0.7572 0.7560 0.7556 0.7550
2224.392600 0.7546 0.7536 0.7530 0.7526 0.7520
2230.476250 0.7512 0.7500 0.7500 0.7500 0.7500
2236.559900 0.7496 0.7486 0.7480 0.7476 0.7470
2242.643550 0.7470 0.7466 0.7460 0.7460 0.7460
2248.727200 0.7452 0.7440 0.7440 0.7436 0.7430
2254.810850 0.7426 0.7416 0.7410 0.7402 0.7382
2260.894500 0.7366 0.7356 0.7342 0.7326 0.7320
2266.978150 0.7320 0.7316 0.7306 0.7296 0.7290
2273.061800 0.7282 0.7266 0.7256 0.7246 0.7240
2279.145450 0.7232 0.7220 0.7216 0.7206 0.7196
2285.229100 0.7177 0.7156 0.7146 0.7132 0.7120
2291.312750 0.7112 0.7096 0.7086 0.7076 0.7070
2297.396400 0.7062 0.7046 0.7032 0.7007 0.6986
2303.480050 0.6980 0.6976 0.6970 0.6966 0.6960
2309.563700 0.6960 0.6956 0.6942 0.6926 0.6920
2315.647350 0.6920 0.6916 0.6906 0.6900 0.6892
2321.731000 0.6880 0.6880 0.6876 0.6870 0.6870
2327.814650 0.6866 0.6860 0.6860 0.6860 0.6856
2333.898300 0.6850 0.6850 0.6850 0.6846 0.6840
2339.981950 0.6827 0.6806 0.6796 0.6786 0.6772
2346.065600 0.6760 0.6756 0.6746 0.6736 0.6717
2352.149250 0.6696 0.6690 0.6686 0.6676 0.6670
2358.232900 0.6662 0.6650 0.6646 0.6636 0.6626
2364.316550 0.6612 0.6600 0.6600 0.6596 0.6586
2370.400200 0.6580 0.6563 0.6536 0.6530 0.6530
2376.483850 0.6530 0.6526 0.6516 0.6510 0.6506
2382.567500 0.6500 0.6500 0.6500 0.6487 0.6466
2388.651150 0.6456 0.6450 0.6442 0.6430 0.6426
2394.734800 0.6416 0.6406 0.6383 0.6356 0.6346
2400.818450 0.6336 0.6322 0.6310 0.6306 0.6296
2406.902100 0.6290 0.6286 0.6272 0.6252 0.6223
2412.985750 0.6196 0.6190 0.6186 0.6176 0.6166
2419.069400 0.6152 0.6136 0.6126 0.6116 0.6110
2425.153050 0.6102 0.6090 0.6086 0.6076 0.6070
2431.236700 0.6066 0.6047 0.6030 0.6026 0.6007
2437.320350 0.5973 0.5929 0.5892 0.5867 0.5850
2443.404000 0.5846 0.5836 0.5830 0.5830 0.5830
2449.487650 0.5826 0.5807 0.5790 0.5786 0.5780
2455.571300 0.5776 0.5757 0.5732 0.5707 0.5682
2461.654950 0.5666 0.5647 0.5626 0.5612 0.5592
2467.738600 0.5576 0.5562 0.5533 0.5506 0.5496
2473.822250 0.5482 0.5470 0.5466 0.5456 0.5446
2479.905900 0.5436 0.5422 0.5402 0.5382 0.5370
2485.989550 0.5362 0.5337 0.5307 0.5282 0.5257
2492.073200 0.5240 0.5236 0.5230 0.5230 0.5226
2498.156850 0.5220 0.5216 0.5206 0.5200 0.5200
2504.240500 0.5200 0.5200 0.5200 0.5192 0.5180
2510.324150 0.5180 0.5176 0.5170 0.5170 0.5170
2516.407800 0.5166 0.5160 0.5156 0.5150 0.5150
2522.491450 0.5142 0.5130 0.5126 0.5120 0.5120
2528.575100 0.5116 0.5110 0.5110 0.5106 0.5100
2534.658750 0.5096 0.5090 0.5082 0.5066 0.5060
2540.742400 0.5056 0.5050 0.5046 0.5036 0.5030
2546.826050 0.5022 0.5010 0.5006 0.4996 0.4986
2552.909700 0.4972 0.4956 0.4950 0.4946 0.4936
2558.993350 0.4926 0.4912 0.4896 0.4886 0.4876
2565.077000 0.4866 0.4860 0.4852 0.4836 0.4826
2571.160650 0.4820 0.4807 0.4782 0.4766 0.4760
2577.244300 0.4747 0.4730 0.4726 0.4716 0.4706
2583.327950 0.4696 0.4682 0.4670 0.4666 0.4656
2589.411600 0.4646 0.4632 0.4616 0.4606 0.4596
2595.495250 0.4577 0.4556 0.4546 0.4536 0.4517
2601.578900 0.4492 0.4476 0.4462 0.4446 0.4436
2607.662550 0.4426 0.4416 0.4402 0.4386 0.4376
2613.746200 0.4366 0.4360 0.4352 0.4336 0.4330
2619.829850 0.4326 0.4316 0.4310 0.4306 0.4287
2625.913500 0.4266 0.4256 0.4246 0.4232 0.4216
2631.997150 0.4206 0.4196 0.4182 0.4166 0.4160
2638.080800 0.4156 0.4146 0.4140 0.4136 0.4117
2644.164450 0.4100 0.4096 0.4073 0.4037 0.4007
2650.248100 0.3986 0.3980 0.3976 0.3966 0.3960
2656.331750 0.3952 0.3936 0.3926 0.3920 0.3920
2662.415400 0.3916 0.3910 0.3910 0.3906 0.3900
2668.499050 0.3900 0.3900 0.3900 0.3892 0.3876
2674.582700 0.3870 0.3866 0.3860 0.3856 0.3850
2680.666350 0.3842 0.3830 0.3826 0.3820 0.3820
2686.750000 0.3816 0.3810 0.3806 0.3796 0.3790
2692.833650 0.3782 0.3770 0.3766 0.3760 0.3756
2698.917300 0.3746 0.3740 0.3736 0.3730 0.3722
2705.000950 0.3710 0.3710 0.3706 0.3692 0.3672
2711.084600 0.3660 0.3656 0.3650 0.3646 0.3636
2717.168250 0.3630 0.3626 0.3620 0.3612 0.3600
2723.251900 0.3600 0.3596 0.3586 0.3580 0.3576
2729.335550 0.3570 0.3566 0.3560 0.3552 0.3540
2735.419200 0.3540 0.3536 0.3530 0.3526 0.3520
2741.502850 0.3516 0.3510 0.3502 0.3490 0.3490
2747.586500 0.3490 0.3490 0.3490 0.3490 0.3490
2753.670150 0.3498 0.3510 0.3510 0.3510 0.3510
2759.753800 0.3514 0.3520 0.3524 0.3530 0.3530
2765.837450 0.3534 0.3540 0.3540 0.3548 0.3560
2771.921100 0.3564 0.3570 0.3570 0.3574 0.3580
2778.004750 0.3580 0.3584 0.3590 0.3590 0.3590
2784.088400 0.3590 0.3590 0.3590 0.3590 0.3590
2790.172050 0.3586 0.3580 0.3580 0.3580 0.3576
2796.255700 0.3570 0.3566 0.3560 0.3560 0.3552
2802.339350 0.3540 0.3536 0.3530 0.3526 0.3520
2808.423000 0.3516 0.3510 0.3502 0.3490 0.3486
2814.506650 0.3476 0.3466 0.3456 0.3450 0.3442
2820.590300 0.3426 0.3416 0.3406 0.3396 0.3382
2826.673950 0.3366 0.3356 0.3346 0.3332 0.3316
2832.757600 0.3302 0.3290 0.3277 0.3256 0.3242
2838.841250 0.3222 0.3206 0.3196 0.3190 0.3186
2844.924900 0.3176 0.3162 0.3150 0.3146 0.3140
2851.008550 0.3140 0.3140 0.3136 0.3130 0.3126
2857.092200 0.3107 0.3086 0.3076 0.3066 0.3052
2863.175850 0.3036 0.3030 0.3026 0.3016 0.3006
2869.259500 0.2992 0.2976 0.2966 0.2956 0.2946
2875.343150 0.2932 0.2916 0.2893 0.2878 0.2877
2881.426800 0.2856 0.2842 0.2822 0.2802 0.2786
2887.510450 0.2767 0.2746 0.2732 0.2707 0.2682
2893.594100 0.2666 0.2652 0.2636 0.2626 0.2616
2899.677750 0.2606 0.2592 0.2576 0.2566 0.2560
2905.761400 0.2556 0.2542 0.2526 0.2516 0.2510
2911.845050 0.2510 0.2506 0.2500 0.2500 0.2496
2917.928700 0.2490 0.2482 0.2470 0.2466 0.2460
2924.012350 0.2456 0.2450 0.2446 0.2440 0.2440
2930.096000 0.2436 0.2430 0.2422 0.2410 0.2406
2936.179650 0.2400 0.2400 0.2396 0.2390 0.2386
2942.263300 0.2380 0.2380 0.2372 0.2360 0.2356
2948.346950 0.2350 0.2350 0.2346 0.2340 0.2340
2954.430600 0.2336 0.2330 0.2330 0.2326 0.2320
2960.514250 0.2320 0.2320 0.2320 0.2320 0.2320
2966.597900 0.2324 0.2330 0.2330 0.2330 0.2330
2972.681550 0.2330 0.2326 0.2320 0.2312 0.2300
2978.765200 0.2296 0.2290 0.2286 0.2280 0.2276
2984.848850 0.2266 0.2260 0.2252 0.2236 0.2230
2990.932500 0.2230 0.2226 0.2220 0.2220 0.2220
2997.016150 0.2216 0.2210 0.2210 0.2210 0.2202
3003.099800 0.2190 0.2190 0.2190 0.2190 0.2186
3009.183450 0.2180 0.2180 0.2180 0.2180 0.2180
3015.267100 0.2176 0.2170 0.2170 0.2170 0.2170
3021.350750 0.2170 0.2170 0.2166 0.2160 0.2160
3027.434400 0.2160 0.2156 0.2150 0.2150 0.2150
3033.518050 0.2142 0.2130 0.2130 0.2130 0.2130
3039.601700 0.2126 0.2120 0.2120 0.2120 0.2120
3045.685350 0.2116 0.2110 0.2110 0.2110 0.2106
3051.769000 0.2100 0.2100 0.2100 0.2092 0.2080
3057.852650 0.2080 0.2080 0.2080 0.2080 0.2080
3063.936300 0.2080 0.2080 0.2080 0.2080 0.2080
3070.019950 0.2080 0.2076 0.2070 0.2070 0.2070
3076.103600 0.2070 0.2070 0.2070 0.2070 0.2074
3082.187250 0.2080 0.2080 0.2080 0.2080 0.2080
3088.270900 0.2080 0.2080 0.2088 0.2100 0.2100
3094.354550 0.2104 0.2110 0.2114 0.2120 0.2124
3100.438200 0.2138 0.2150 0.2150 0.2154 0.2160
3106.521850 0.2164 0.2170 0.2174 0.2184 0.2198
3112.605500 0.2214 0.2224 0.2234 0.2248 0.2268
3118.689150 0.2284 0.2294 0.2308 0.2324 0.2334
3124.772800 0.2344 0.2350 0.2354 0.2368 0.2384
3130.856450 0.2394 0.2404 0.2418 0.2434 0.2444
3136.940100 0.2454 0.2464 0.2478 0.2494 0.2504
3143.023750 0.2514 0.2524 0.2538 0.2554 0.2564
3149.107400 0.2574 0.2588 0.2604 0.2614 0.2628
3155.191050 0.2648 0.2664 0.2674 0.2684 0.2694
3161.274700 0.2708 0.2724 0.2734 0.2744 0.2758
3167.358350 0.2774 0.2793 0.2823 0.2844 0.2850
3173.442000 0.2854 0.2860 0.2864 0.2870 0.2878
3179.525650 0.2890 0.2894 0.2900 0.2900 0.2904
3185.609300 0.2910 0.2914 0.2920 0.2928 0.2944
3191.692950 0.2950 0.2950 0.2950 0.2950 0.2950
3197.776600 0.2950 0.2950 0.2950 0.2950 0.2950
3203.860250 0.2950 0.2950 0.2946 0.2940 0.2940
3209.943900 0.2940 0.2932 0.2920 0.2920 0.2920
3216.027550 0.2920 0.2920 0.2920 0.2920 0.2920
3222.111200 0.2920 0.2920 0.2916 0.2910 0.2910
3228.194850 0.2910 0.2906 0.2900 0.2900 0.2900
3234.278500 0.2896 0.2890 0.2890 0.2890 0.2882
3240.362150 0.2870 0.2870 0.2870 0.2878 0.2890
3246.445800 0.2890 0.2890 0.2890 0.2890 0.2882
3252.529450 0.2870 0.2870 0.2866 0.2860 0.2860
3258.613100 0.2860 0.2856 0.2850 0.2850 0.2846
3264.696750 0.2840 0.2840 0.2840 0.2836 0.2830
3270.780400 0.2830 0.2822 0.2810 0.2806 0.2800
3276.864050 0.2796 0.2786 0.2780 0.2776 0.2757
3282.947700 0.2736 0.2730 0.2726 0.2712 0.2692
3289.031350 0.2680 0.2676 0.2666 0.2660 0.2652
3295.115000 0.2636 0.2626 0.2620 0.2616 0.2606
3301.198650 0.2600 0.2600 0.2592 0.2580 0.2576
3307.282300 0.2570 0.2566 0.2560 0.2560 0.2560
3313.365950 0.2556 0.2550 0.2550 0.2550 0.2550
3319.449600 0.2542 0.2530 0.2530 0.2530 0.2530
3325.533250 0.2526 0.2520 0.2520 0.2520 0.2520
3331.616900 0.2516 0.2510 0.2510 0.2510 0.2510
3337.700550 0.2514 0.2520 0.2520 0.2520 0.2516
3343.784200 0.2510 0.2510 0.2510 0.2506 0.2500
3349.867850 0.2500 0.2496 0.2490 0.2490 0.2482
3355.951500 0.2470 0.2470 0.2470 0.2466 0.2460
3362.035150 0.2460 0.2456 0.2450 0.2450 0.2446
3368.118800 0.2440 0.2440 0.2436 0.2430 0.2430
3374.202450 0.2430 0.2430 0.2434 0.2440 0.2444
3380.286100 0.2450 0.2450 0.2450 0.2454 0.2460
3386.369750 0.2464 0.2470 0.2470 0.2478 0.2490
3392.453400 0.2490 0.2490 0.2494 0.2500 0.2504
3398.537050 0.2514 0.2520 0.2533 0.2558 0.2574
3404.620700 0.2593 0.2614 0.2628 0.2657 0.2684
3410.704350 0.2703 0.2720 0.2733 0.2750 0.2767
3416.788000 0.2794 0.2825 0.2864 0.2883 0.2904
3422.871650 0.2923 0.2948 0.2968 0.2993 0.3018
3428.955300 0.3034 0.3061 0.3103 0.3141 0.3224
3435.038950 0.3317 0.3353 0.3391 0.3437 0.3473
3441.122600 0.3498 0.3523 0.3553 0.3578 0.3607
3447.206250 0.3664 0.3752 0.3840 0.3880 0.3893
3453.289900 0.3914 0.3928 0.3940 0.3957 0.3984
3459.373550 0.4003 0.4033 0.4067 0.4115 0.4158
3465.457200 0.4199 0.4240 0.4244 0.4258 0.4287
3471.540850 0.4331 0.4381 0.4418 0.4434 0.4453
3477.624500 0.4478 0.4494 0.4525 0.4577 0.4617
3483.708150 0.4653 0.4704 0.4758 0.4770 0.4787
3489.791800 0.4831 0.4877 0.4913 0.4951 0.4984
3495.875450 0.4994 0.5021 0.5071 0.5121 0.5175
3501.959100 0.5235 0.5295 0.5351 0.5393 0.5423
3508.042750 0.5448 0.5485 0.5545 0.5601 0.5643
3514.126400 0.5664 0.5691 0.5728 0.5744 0.5758
3520.210050 0.5799 0.5865 0.5908 0.5949 0.5994
3526.293700 0.6000 0.6008 0.6033 0.6075 0.6135
3532.377350 0.6199 0.6248 0.6277 0.6304 0.6318
3538.461000 0.6334 0.6348 0.6381 0.6418 0.6443
3544.544650 0.6468 0.6493 0.6518 0.6547 0.6591
3550.628300 0.6641 0.6687 0.6731 0.6785 0.6841
3556.711950 0.6883 0.6904 0.6914 0.6933 0.6979
3562.795600 0.7045 0.7084 0.7094 0.7117 0.7144
3568.879250 0.7175 0.7214 0.7241 0.7291 0.7337
3574.962900 0.7364 0.7378 0.7390 0.7407 0.7468
3581.046550 0.7549 0.7658 0.7775 0.7814 0.7820
3587.130200 0.7841 0.7878 0.7903 0.7933 0.8008
3593.213850 0.8111 0.8144 0.8150 0.8163 0.8193
3599.297500 0.8218 0.8243 0.8268 0.8293 0.8318
3605.381150 0.8338 0.8358 0.8370 0.8370 0.8370
3611.464800 0.8370 0.8374 0.8384 0.8390 0.8390
3617.548450 0.8394 0.8408 0.8424 0.8434 0.8444
3623.632100 0.8471 0.8504 0.8510 0.8514 0.8528
3629.715750 0.8544 0.8558 0.8570 0.8583 0.8613
3635.799400 0.8630 0.8643 0.8668 0.8684 0.8698
3641.883050 0.8710 0.8710 0.8714 0.8720 0.8720
3647.966700 0.8720 0.8720 0.8720 0.8724 0.8734
3654.050350 0.8753 0.8778 0.8803 0.8824 0.8834
3660.134000 0.8840 0.8840 0.8844 0.8850 0.8854
3666.217650 0.8860 0.8860 0.8860 0.8860 0.8860
3672.301300 0.8860 0.8868 0.8884 0.8890 0.8894
3678.384950 0.8900 0.8904 0.8910 0.8910 0.8918
3684.468600 0.8934 0.8940 0.8940 0.8940 0.8940
3690.552250 0.8940 0.8940 0.8940 0.8940 0.8940
3696.635900 0.8940 0.8940 0.8936 0.8930 0.8930
3702.719550 0.8930 0.8930 0.8922 0.8910 0.8910
3708.803200 0.8910 0.8906 0.8900 0.8896 0.8890
3714.886850 0.8886 0.8880 0.8880 0.8880 0.8872
3720.970500 0.8856 0.8850 0.8850 0.8850 0.8850
3727.054150 0.8850 0.8850 0.8850 0.8854 0.8860
3733.137800 0.8856 0.8850 0.8850 0.8850 0.8850
3739.221450 0.8850 0.8850 0.8850 0.8850 0.8854
3745.305100 0.8860 0.8860 0.8860 0.8860 0.8860
3751.388750 0.8860 0.8860 0.8860 0.8860 0.8860
3757.472400 0.8856 0.8846 0.8840 0.8840 0.8836
3763.556050 0.8830 0.8830 0.8830 0.8826 0.8820
3769.639700 0.8812 0.8800 0.8800 0.8796 0.8790
3775.723350 0.8786 0.8780 0.8776 0.8770 0.8766
3781.807000 0.8752 0.8740 0.8736 0.8730 0.8726
3787.890650 0.8720 0.8720 0.8720 0.8720 0.8716
3793.974300 0.8710 0.8710 0.8710 0.8710 0.8710
3800.057950 0.8710 0.8710 0.8710 0.8710 0.8710
3806.141600 0.8710 0.8710 0.8710 0.8710 0.8710
3812.225250 0.8710 0.8710 0.8710 0.8710 0.8710
3818.308900 0.8710 0.8710 0.8710 0.8710 0.8702
3824.392550 0.8690 0.8690 0.8690 0.8690 0.8690
3830.476200 0.8690 0.8690 0.8690 0.8690 0.8690
3836.559850 0.8690 0.8690 0.8690 0.8690 0.8686
3842.643500 0.8680 0.8680 0.8676 0.8670 0.8670
3848.727150 0.8670 0.8666 0.8660 0.8660 0.8656
3854.810800 0.8650 0.8650 0.8650 0.8650 0.8650
3860.894450 0.8650 0.8650 0.8650 0.8650 0.8650
3866.978100 0.8650 0.8650 0.8650 0.8650 0.8650
3873.061750 0.8650 0.8650 0.8650 0.8650 0.8650
3879.145400 0.8650 0.8650 0.8650 0.8642 0.8630
3885.229050 0.8630 0.8626 0.8616 0.8610 0.8610
3891.312700 0.8610 0.8610 0.8610 0.8610 0.8610
3897.396350 0.8610 0.8610 0.8606 0.8600 0.8600
3903.480000 0.8600 0.8600 0.8600 0.8600 0.8596
3909.563650 0.8590 0.8590 0.8590 0.8590 0.8590
##END=
