##TITLE=TITANIUM CALCIUM (RUTILE)
##JCAMP-DX=4.24
##DATA TYPE=INFRARED SPECTRUM
##CLASS=COBLENTZ
##ORIGIN=DESOTO CHEMICAL COATINGS, INC.
##OWNER=COBLENTZ SOCIETY
Collection (C) 2018 copyright by the U.S. Secretary of Commerce
on behalf of the United States of America. All rights reserved.
##DATE=Not specified, most likely prior to 1970
##MOLFORM=Ti O2  * Ca S O4
$$ TiO2 30%, CaSO4 70%
##SOURCE REFERENCE=COBLENTZ NO. 4654
##$NIST ID=B6004654
##$NIST SOURCE=COBLENTZ
##$NIST IMAGE=cob4654
##SPECTROMETER/DATA SYSTEM=Not specified, most likely a grating spectrometer.
##STATE=SOLID (0.3 mg / 300 mg CsI PELLET)
##SAMPLING PROCEDURE=TRANSMISSION
##RESOLUTION=4
##DATA PROCESSING=DIGITIZED BY NIST FROM HARD COPY (FROM TWO SEGMENTS)
##XUNITS=1/CM
##YUNITS=TRANSMITTANCE
##XFACTOR=1.000000
##YFACTOR=1
##DELTAX=1.331361
##FIRSTX=202.663
##LASTX=3986.39
##FIRSTY=0.739
##MAXX=3986.39
##MINX=202.663
##MAXY=0.969
##MINY=0.0830131
##NPOINTS=2843
##XYDATA=(X++(Y..Y))
202.663000 0.7390 0.7400 0.7420 0.7390 0.7400
209.319804 0.7420 0.7420 0.7420 0.7420 0.7420
215.976607 0.7420 0.7400 0.7390 0.7390 0.7390
222.633411 0.7380 0.7350 0.7310 0.7300 0.7280
229.290215 0.7270 0.7260 0.7220 0.7180 0.7120
235.947019 0.7070 0.7020 0.6980 0.6920 0.6841
242.603822 0.6750 0.6620 0.6480 0.6310 0.6051
249.260626 0.5930 0.5711 0.5461 0.4943 0.4642
255.917430 0.4480 0.4330 0.4220 0.4140 0.4080
262.574233 0.4020 0.3970 0.3940 0.3900 0.3890
269.231037 0.3880 0.3860 0.3860 0.3860 0.3850
275.887841 0.3850 0.3850 0.3850 0.3850 0.3860
282.544644 0.3860 0.3860 0.3880 0.3880 0.3890
289.201448 0.3920 0.3930 0.3960 0.3970 0.4000
295.858252 0.4060 0.4100 0.4140 0.4160 0.4220
302.515056 0.4280 0.4300 0.4360 0.4400 0.4460
309.171859 0.4480 0.4500 0.4580 0.4650 0.4690
315.828663 0.4770 0.4879 0.4930 0.5000 0.5030
322.485467 0.5070 0.5130 0.5180 0.5230 0.5270
329.142270 0.5310 0.5370 0.5410 0.5460 0.5490
335.799074 0.5490 0.5500 0.5500 0.5550 0.5570
342.455878 0.5570 0.5590 0.5610 0.5620 0.5620
349.112681 0.5620 0.5620 0.5630 0.5630 0.5650
355.769485 0.5660 0.5660 0.5630 0.5630 0.5590
362.426289 0.5570 0.5550 0.5540 0.5550 0.5570
369.083093 0.5590 0.5630 0.5690 0.5779 0.5830
375.739896 0.5870 0.5910 0.5940 0.5950 0.5970
382.396700 0.5980 0.5980 0.5970 0.5950 0.5930
389.053504 0.5900 0.5890 0.5870 0.5810 0.5770
395.710307 0.5770 0.5730 0.5710 0.5700 0.5670
402.367111 0.5660 0.5660 0.5650 0.5650 0.5650
409.023915 0.5650 0.5660 0.5660 0.5660 0.5660
415.680719 0.5650 0.5630 0.5630 0.5630 0.5650
422.337522 0.5650 0.5630 0.5620 0.5610 0.5620
428.994326 0.5630 0.5650 0.5670 0.5730 0.5770
435.651130 0.5780 0.5820 0.5860 0.5900 0.5979
442.307933 0.6060 0.6100 0.6170 0.6190 0.6250
448.964737 0.6270 0.6310 0.6350 0.6420 0.6440
455.621541 0.6470 0.6470 0.6480 0.6480 0.6470
462.278344 0.6470 0.6470 0.6470 0.6460 0.6460
468.935148 0.6460 0.6440 0.6420 0.6400 0.6390
475.591952 0.6380 0.6360 0.6360 0.6350 0.6350
482.248756 0.6320 0.6320 0.6310 0.6300 0.6270
488.905559 0.6250 0.6210 0.6180 0.6170 0.6150
495.562363 0.6130 0.6110 0.6110 0.6100 0.6100
502.219167 0.6090 0.6060 0.6030 0.6030 0.6010
508.875970 0.5980 0.5980 0.5970 0.5940 0.5910
515.532774 0.5900 0.5890 0.5890 0.5890 0.5910
522.189578 0.5910 0.5930 0.5950 0.5950 0.5970
528.846381 0.5970 0.5980 0.5980 0.5980 0.5990
535.503185 0.6010 0.6020 0.6050 0.6060 0.6060
542.159989 0.6070 0.6090 0.6090 0.6100 0.6100
548.816793 0.6110 0.6150 0.6170 0.6180 0.6190
555.473596 0.6190 0.6190 0.6190 0.6180 0.6180
562.130400 0.6180 0.6180 0.6180 0.6180 0.6180
568.787204 0.6190 0.6210 0.6220 0.6220 0.6230
575.444007 0.6230 0.6220 0.6220 0.6220 0.6210
582.100811 0.6190 0.6190 0.6180 0.6170 0.6130
588.757615 0.6070 0.6060 0.6010 0.5940 0.4843
595.414419 0.4082 0.3204 0.3200 0.3717 0.3760
602.071222 0.4810 0.4960 0.5100 0.5379 0.5390
608.728026 0.5370 0.5231 0.4384 0.3376 0.3191
615.384830 0.3190 0.3600 0.3800 0.3920 0.4458
622.041633 0.4809 0.5148 0.5309 0.5459 0.5490
628.698437 0.5570 0.5580 0.5570 0.5540 0.5530
635.355241 0.5500 0.5490 0.5470 0.5470 0.5460
642.012044 0.5420 0.5420 0.5410 0.5410 0.5410
648.668848 0.5420 0.5420 0.5420 0.5420 0.5410
655.325652 0.5390 0.5380 0.5370 0.5370 0.5370
661.982456 0.5380 0.5380 0.5370 0.5350 0.5350
668.639259 0.5340 0.5290 0.4781 0.4331 0.3881
675.296063 0.3432 0.2962 0.2443 0.2440 0.2808
681.952867 0.3170 0.4019 0.4639 0.4899 0.5169
688.609670 0.5369 0.5499 0.5669 0.5829 0.5939
695.266474 0.6030 0.6070 0.6170 0.6190 0.6230
701.923278 0.6260 0.6270 0.6300 0.6300 0.6320
708.580081 0.6360 0.6380 0.6390 0.6400 0.6420
715.236885 0.6440 0.6460 0.6480 0.6480 0.6510
721.893689 0.6550 0.6600 0.6660 0.6670 0.6680
728.550493 0.6700 0.6720 0.6760 0.6790 0.6830
735.207296 0.6870 0.6900 0.6920 0.6980 0.6990
741.864100 0.7020 0.7070 0.7100 0.7120 0.7180
748.520904 0.7220 0.7260 0.7280 0.7360 0.7420
755.177707 0.7500 0.7510 0.7510 0.7570 0.7600
761.834511 0.7680 0.7770 0.7840 0.7950 0.7970
768.491315 0.7990 0.8010 0.8040 0.8110 0.8199
775.148119 0.8250 0.8310 0.8330 0.8390 0.8410
781.804922 0.8430 0.8480 0.8530 0.8570 0.8610
788.461726 0.8680 0.8690 0.8720 0.8760 0.8780
795.118530 0.8810 0.8840 0.8850 0.8880 0.8900
801.775333 0.8920 0.8980 0.9000 0.9010 0.9040
808.432137 0.9040 0.9050 0.9080 0.9090 0.9100
815.088941 0.9130 0.9140 0.9140 0.9160 0.9160
821.745744 0.9180 0.9200 0.9220 0.9240 0.9250
828.402548 0.9260 0.9280 0.9280 0.9280 0.9290
835.059352 0.9300 0.9300 0.9320 0.9330 0.9340
841.716156 0.9360 0.9360 0.9370 0.9380 0.9400
848.372959 0.9410 0.9420 0.9440 0.9440 0.9450
855.029763 0.9450 0.9450 0.9460 0.9460 0.9480
861.686567 0.9480 0.9490 0.9490 0.9490 0.9490
868.343370 0.9490 0.9490 0.9490 0.9500 0.9500
875.000174 0.9490 0.9490 0.9490 0.9500 0.9500
881.656978 0.9500 0.9530 0.9530 0.9530 0.9530
888.313781 0.9530 0.9530 0.9530 0.9530 0.9530
894.970585 0.9530 0.9530 0.9530 0.9530 0.9530
901.627389 0.9530 0.9540 0.9540 0.9540 0.9540
908.284193 0.9540 0.9530 0.9530 0.9520 0.9520
914.940996 0.9520 0.9530 0.9530 0.9540 0.9560
921.597800 0.9560 0.9560 0.9570 0.9570 0.9570
928.254604 0.9570 0.9570 0.9580 0.9580 0.9580
934.911407 0.9580 0.9580 0.9580 0.9580 0.9580
941.568211 0.9580 0.9580 0.9580 0.9580 0.9580
948.225015 0.9570 0.9570 0.9570 0.9570 0.9570
954.881819 0.9580 0.9580 0.9580 0.9580 0.9580
961.538622 0.9580 0.9600 0.9600 0.9580 0.9580
968.195426 0.9600 0.9600 0.9600 0.9600 0.9600
974.852230 0.9610 0.9610 0.9600 0.9600 0.9600
981.509033 0.9600 0.9600 0.9580 0.9580 0.9580
988.165837 0.9580 0.9580 0.9580 0.9580 0.9580
994.822641 0.9580 0.9580 0.9580 0.9580 0.9570
1001.479444 0.9570 0.9560 0.9530 0.9520 0.9500
1008.136248 0.9500 0.9520 0.9530 0.9530 0.9520
1014.793052 0.9490 0.9490 0.9480 0.9440 0.9400
1021.449856 0.9380 0.9380 0.9380 0.9400 0.9410
1028.106659 0.9410 0.9420 0.9420 0.9410 0.9410
1034.763463 0.9410 0.9400 0.9380 0.9380 0.9370
1041.420267 0.9370 0.9360 0.9340 0.9340 0.9330
1048.077070 0.9320 0.9300 0.9290 0.9290 0.9280
1054.733874 0.9260 0.9220 0.9210 0.9210 0.9210
1061.390678 0.9200 0.9200 0.9170 0.9140 0.9130
1068.047481 0.9100 0.9090 0.9090 0.9080 0.9040
1074.704285 0.9010 0.8980 0.8920 0.8900 0.8880
1081.361089 0.8810 0.8780 0.8710 0.8570 0.8520
1088.017893 0.8470 0.8311 0.8240 0.8190 0.7932
1094.674696 0.7640 0.7380 0.7041 0.6481 0.5932
1101.331500 0.5701 0.5431 0.4972 0.4543 0.4331
1107.988304 0.4050 0.3880 0.3560 0.3231 0.2851
1114.645107 0.2242 0.2001 0.1801 0.1631 0.1501
1121.301911 0.1390 0.1300 0.1260 0.1250 0.1260
1127.958715 0.1280 0.1389 0.1519 0.1659 0.1829
1134.615519 0.1860 0.1910 0.1950 0.1980 0.1990
1141.272322 0.1980 0.1910 0.1870 0.1790 0.1711
1147.929126 0.1670 0.1550 0.1400 0.1270 0.1140
1154.585930 0.1050 0.0990 0.0910 0.0850 0.0830
1161.242733 0.0850 0.0890 0.0980 0.1130 0.1270
1167.899537 0.1350 0.1479 0.1669 0.1799 0.1949
1174.556341 0.2000 0.2100 0.2180 0.2220 0.2310
1181.213144 0.2420 0.2480 0.2550 0.2679 0.2829
1187.869948 0.3000 0.3150 0.3360 0.3629 0.3999
1194.526752 0.4279 0.4499 0.4798 0.4939 0.5089
1201.183556 0.5460 0.5810 0.6130 0.6429 0.6709
1207.840359 0.6939 0.7139 0.7279 0.7379 0.7460
1214.497163 0.7530 0.7670 0.7710 0.7800 0.7960
1221.153967 0.7970 0.7970 0.8000 0.8089 0.8120
1227.810770 0.8190 0.8280 0.8330 0.8370 0.8400
1234.467574 0.8480 0.8530 0.8550 0.8600 0.8610
1241.124378 0.8640 0.8680 0.8750 0.8800 0.8810
1247.781181 0.8840 0.8850 0.8850 0.8880 0.8900
1254.437985 0.8960 0.8970 0.8970 0.8980 0.9000
1261.094789 0.9000 0.9010 0.9010 0.9040 0.9080
1267.751593 0.9090 0.9090 0.9100 0.9100 0.9120
1274.408396 0.9120 0.9120 0.9120 0.9130 0.9140
1281.065200 0.9160 0.9160 0.9170 0.9180 0.9200
1287.722004 0.9200 0.9200 0.9200 0.9200 0.9200
1294.378807 0.9200 0.9200 0.9200 0.9210 0.9220
1301.035611 0.9240 0.9240 0.9280 0.9290 0.9290
1307.692415 0.9290 0.9290 0.9320 0.9340 0.9360
1314.349219 0.9370 0.9370 0.9370 0.9370 0.9380
1321.006022 0.9380 0.9380 0.9380 0.9370 0.9370
1327.662826 0.9380 0.9380 0.9380 0.9400 0.9380
1334.319630 0.9380 0.9400 0.9400 0.9400 0.9400
1340.976433 0.9400 0.9400 0.9400 0.9420 0.9440
1347.633237 0.9440 0.9440 0.9440 0.9440 0.9450
1354.290041 0.9460 0.9460 0.9480 0.9480 0.9490
1360.946844 0.9490 0.9490 0.9490 0.9480 0.9480
1367.603648 0.9480 0.9480 0.9490 0.9490 0.9490
1374.260452 0.9480 0.9480 0.9460 0.9460 0.9480
1380.917256 0.9490 0.9490 0.9500 0.9500 0.9490
1387.574059 0.9490 0.9490 0.9490 0.9500 0.9500
1394.230863 0.9500 0.9490 0.9490 0.9490 0.9490
1400.887667 0.9490 0.9490 0.9500 0.9500 0.9490
1407.544470 0.9490 0.9480 0.9480 0.9480 0.9460
1414.201274 0.9460 0.9450 0.9450 0.9450 0.9450
1420.858078 0.9460 0.9460 0.9480 0.9480 0.9500
1427.514881 0.9500 0.9520 0.9520 0.9520 0.9520
1434.171685 0.9520 0.9520 0.9520 0.9530 0.9540
1440.828489 0.9540 0.9560 0.9560 0.9560 0.9560
1447.485293 0.9560 0.9560 0.9560 0.9560 0.9540
1454.142096 0.9540 0.9530 0.9530 0.9530 0.9540
1460.798900 0.9540 0.9540 0.9540 0.9540 0.9560
1467.455704 0.9560 0.9560 0.9570 0.9570 0.9570
1474.112507 0.9570 0.9570 0.9570 0.9570 0.9580
1480.769311 0.9600 0.9600 0.9600 0.9610 0.9610
1487.426115 0.9610 0.9610 0.9620 0.9620 0.9620
1494.082919 0.9620 0.9640 0.9640 0.9640 0.9640
1500.739722 0.9640 0.9640 0.9640 0.9640 0.9620
1507.396526 0.9620 0.9640 0.9640 0.9640 0.9640
1514.053330 0.9640 0.9640 0.9640 0.9640 0.9650
1520.710133 0.9660 0.9660 0.9680 0.9680 0.9680
1527.366937 0.9680 0.9680 0.9680 0.9680 0.9660
1534.023741 0.9650 0.9640 0.9640 0.9640 0.9640
1540.680544 0.9640 0.9640 0.9620 0.9600 0.9600
1547.337348 0.9600 0.9600 0.9610 0.9610 0.9610
1553.994152 0.9600 0.9600 0.9600 0.9600 0.9600
1560.650956 0.9600 0.9600 0.9600 0.9600 0.9600
1567.307759 0.9610 0.9610 0.9610 0.9610 0.9610
1573.964563 0.9610 0.9600 0.9600 0.9580 0.9570
1580.621367 0.9570 0.9570 0.9560 0.9530 0.9530
1587.278170 0.9520 0.9500 0.9500 0.9500 0.9500
1593.934974 0.9500 0.9490 0.9490 0.9480 0.9420
1600.591778 0.9410 0.9400 0.9370 0.9340 0.9320
1607.248581 0.9290 0.9280 0.9240 0.9220 0.9210
1613.905385 0.9180 0.9140 0.9130 0.9100 0.9100
1620.562189 0.9090 0.9090 0.9090 0.9100 0.9100
1627.218993 0.9120 0.9120 0.9130 0.9130 0.9140
1633.875796 0.9160 0.9170 0.9180 0.9200 0.9210
1640.532600 0.9220 0.9240 0.9280 0.9290 0.9300
1647.189404 0.9330 0.9360 0.9370 0.9380 0.9380
1653.846207 0.9400 0.9410 0.9440 0.9440 0.9440
1660.503011 0.9440 0.9450 0.9460 0.9460 0.9480
1667.159815 0.9480 0.9490 0.9490 0.9500 0.9500
1673.816619 0.9520 0.9520 0.9530 0.9530 0.9530
1680.473422 0.9530 0.9530 0.9530 0.9540 0.9560
1687.130226 0.9570 0.9570 0.9570 0.9580 0.9580
1693.787030 0.9580 0.9580 0.9580 0.9580 0.9600
1700.443833 0.9600 0.9610 0.9610 0.9610 0.9610
1707.100637 0.9610 0.9610 0.9610 0.9610 0.9610
1713.757441 0.9610 0.9610 0.9610 0.9610 0.9610
1720.414244 0.9610 0.9610 0.9610 0.9610 0.9610
1727.071048 0.9610 0.9610 0.9610 0.9610 0.9610
1733.727852 0.9610 0.9610 0.9610 0.9610 0.9610
1740.384656 0.9610 0.9610 0.9610 0.9610 0.9620
1747.041459 0.9620 0.9620 0.9640 0.9640 0.9640
1753.698263 0.9650 0.9650 0.9650 0.9650 0.9660
1760.355067 0.9660 0.9660 0.9680 0.9680 0.9680
1767.011870 0.9680 0.9680 0.9680 0.9680 0.9680
1773.668674 0.9680 0.9680 0.9680 0.9680 0.9680
1780.325478 0.9680 0.9680 0.9680 0.9680 0.9680
1786.982281 0.9680 0.9680 0.9690 0.9690 0.9680
1793.639085 0.9680 0.9680 0.9680 0.9680 0.9680
1800.295889 0.9680 0.9660 0.9660 0.9660 0.9660
1806.952693 0.9660 0.9660 0.9660 0.9660 0.9660
1813.609496 0.9660 0.9680 0.9680 0.9680 0.9680
1820.266300 0.9680 0.9680 0.9680 0.9680 0.9680
1826.923104 0.9680 0.9680 0.9680 0.9690 0.9690
1833.579907 0.9690 0.9680 0.9680 0.9680 0.9680
1840.236711 0.9680 0.9680 0.9680 0.9680 0.9680
1846.893515 0.9680 0.9680 0.9680 0.9680 0.9660
1853.550319 0.9660 0.9690 0.9690 0.9690 0.9690
1860.207122 0.9690 0.9690 0.9690 0.9680 0.9680
1866.863926 0.9680 0.9680 0.9680 0.9680 0.9680
1873.520730 0.9680 0.9680 0.9680 0.9680 0.9680
1880.177533 0.9680 0.9680 0.9680 0.9680 0.9680
1886.834337 0.9680 0.9680 0.9680 0.9680 0.9680
1893.491141 0.9660 0.9660 0.9650 0.9650 0.9650
1900.147944 0.9640 0.9640 0.9640 0.9650 0.9650
1906.804748 0.9650 0.9660 0.9660 0.9660 0.9660
1913.461552 0.9680 0.9680 0.9680 0.9680 0.9680
1920.118356 0.9680 0.9680 0.9680 0.9680 0.9680
1926.775159 0.9680 0.9680 0.9680 0.9680 0.9680
1933.431963 0.9680 0.9680 0.9680 0.9680 0.9680
1940.088767 0.9680 0.9680 0.9680 0.9680 0.9680
1946.745570 0.9660 0.9660 0.9650 0.9650 0.9650
1953.402374 0.9650 0.9650 0.9660 0.9650 0.9650
1960.059178 0.9650 0.9650 0.9660 0.9660 0.9660
1966.715981 0.9660 0.9660 0.9660 0.9680 0.9680
1973.372785 0.9680 0.9660 0.9650 0.9640 0.9640
1980.029589 0.9640 0.9640 0.9660 0.9680 0.9680
1986.686393 0.9690 0.9690 0.9680 0.9680 0.9680
1993.343196 0.9680 0.9680 0.9680 0.9680 0.9680
2000.000000 0.9660 0.9655 0.9650 0.9650 0.9650
2006.656804 0.9645 0.9640 0.9640 0.9640 0.9620
2013.313607 0.9600 0.9585 0.9570 0.9565 0.9560
2019.970411 0.9560 0.9560 0.9550 0.9540 0.9540
2026.627215 0.9540 0.9535 0.9530 0.9530 0.9530
2033.284019 0.9530 0.9530 0.9530 0.9530 0.9530
2039.940822 0.9530 0.9525 0.9520 0.9520 0.9520
2046.597626 0.9510 0.9500 0.9495 0.9490 0.9485
2053.254430 0.9480 0.9480 0.9480 0.9480 0.9480
2059.911233 0.9470 0.9460 0.9455 0.9450 0.9450
2066.568037 0.9450 0.9445 0.9440 0.9430 0.9420
2073.224841 0.9415 0.9410 0.9405 0.9400 0.9389
2079.881644 0.9380 0.9375 0.9369 0.9354 0.9339
2086.538448 0.9319 0.9299 0.9279 0.9260 0.9255
2093.195252 0.9250 0.9245 0.9240 0.9240 0.9240
2099.852056 0.9240 0.9240 0.9245 0.9250 0.9255
2106.508859 0.9261 0.9276 0.9290 0.9295 0.9301
2113.165663 0.9311 0.9321 0.9331 0.9342 0.9362
2119.822467 0.9380 0.9380 0.9381 0.9396 0.9411
2126.479270 0.9426 0.9440 0.9440 0.9440 0.9440
2133.136074 0.9439 0.9429 0.9419 0.9414 0.9410
2139.792878 0.9410 0.9409 0.9404 0.9400 0.9400
2146.449681 0.9399 0.9389 0.9380 0.9380 0.9380
2153.106485 0.9380 0.9380 0.9380 0.9380 0.9380
2159.763289 0.9381 0.9391 0.9400 0.9400 0.9401
2166.420093 0.9406 0.9410 0.9410 0.9411 0.9416
2173.076896 0.9420 0.9420 0.9420 0.9420 0.9420
2179.733700 0.9420 0.9421 0.9431 0.9441 0.9446
2186.390504 0.9450 0.9450 0.9451 0.9456 0.9460
2193.047307 0.9460 0.9460 0.9460 0.9460 0.9460
2199.704111 0.9462 0.9472 0.9480 0.9480 0.9480
2206.360915 0.9480 0.9480 0.9480 0.9480 0.9480
2213.017719 0.9480 0.9480 0.9480 0.9480 0.9480
2219.674522 0.9480 0.9480 0.9480 0.9480 0.9480
2226.331326 0.9480 0.9480 0.9480 0.9480 0.9480
2232.988130 0.9480 0.9480 0.9480 0.9478 0.9468
2239.644933 0.9460 0.9460 0.9459 0.9454 0.9450
2246.301737 0.9450 0.9449 0.9444 0.9440 0.9440
2252.958541 0.9440 0.9440 0.9438 0.9428 0.9420
2259.615344 0.9420 0.9420 0.9420 0.9420 0.9420
2266.272148 0.9420 0.9420 0.9422 0.9432 0.9440
2272.928952 0.9440 0.9441 0.9446 0.9450 0.9450
2279.585756 0.9451 0.9456 0.9460 0.9460 0.9460
2286.242559 0.9460 0.9460 0.9460 0.9460 0.9460
2292.899363 0.9460 0.9460 0.9460 0.9460 0.9460
2299.556167 0.9460 0.9460 0.9460 0.9459 0.9454
2306.212970 0.9450 0.9450 0.9449 0.9444 0.9440
2312.869774 0.9440 0.9440 0.9440 0.9441 0.9446
2319.526578 0.9450 0.9450 0.9451 0.9456 0.9460
2326.183381 0.9460 0.9460 0.9460 0.9460 0.9460
2332.840185 0.9463 0.9473 0.9480 0.9480 0.9480
2339.496989 0.9480 0.9480 0.9480 0.9481 0.9486
2346.153793 0.9490 0.9490 0.9490 0.9490 0.9490
2352.810596 0.9490 0.9492 0.9497 0.9500 0.9500
2359.467400 0.9500 0.9500 0.9500 0.9500 0.9500
2366.124204 0.9500 0.9503 0.9513 0.9520 0.9520
2372.781007 0.9520 0.9520 0.9520 0.9520 0.9522
2379.437811 0.9527 0.9530 0.9530 0.9528 0.9523
2386.094615 0.9520 0.9520 0.9517 0.9507 0.9500
2392.751419 0.9500 0.9498 0.9493 0.9488 0.9483
2399.408222 0.9476 0.9466 0.9460 0.9460 0.9458
2406.065026 0.9453 0.9450 0.9450 0.9450 0.9450
2412.721830 0.9450 0.9450 0.9448 0.9443 0.9440
2419.378633 0.9440 0.9436 0.9426 0.9420 0.9420
2426.035437 0.9420 0.9420 0.9420 0.9420 0.9420
2432.692241 0.9420 0.9420 0.9420 0.9420 0.9420
2439.349044 0.9420 0.9420 0.9418 0.9413 0.9410
2446.005848 0.9410 0.9410 0.9410 0.9410 0.9410
2452.662652 0.9410 0.9410 0.9410 0.9410 0.9410
2459.319456 0.9410 0.9410 0.9410 0.9410 0.9410
2465.976259 0.9410 0.9410 0.9410 0.9410 0.9410
2472.633063 0.9410 0.9410 0.9410 0.9410 0.9410
2479.289867 0.9410 0.9410 0.9410 0.9410 0.9410
2485.946670 0.9410 0.9410 0.9410 0.9410 0.9410
2492.603474 0.9410 0.9410 0.9410 0.9410 0.9410
2499.260278 0.9410 0.9410 0.9410 0.9410 0.9410
2505.917081 0.9410 0.9410 0.9410 0.9410 0.9410
2512.573885 0.9410 0.9410 0.9410 0.9408 0.9403
2519.230689 0.9400 0.9400 0.9400 0.9400 0.9400
2525.887493 0.9400 0.9400 0.9400 0.9400 0.9400
2532.544296 0.9400 0.9400 0.9400 0.9400 0.9400
2539.201100 0.9400 0.9400 0.9400 0.9400 0.9400
2545.857904 0.9400 0.9400 0.9400 0.9400 0.9400
2552.514707 0.9400 0.9400 0.9400 0.9400 0.9400
2559.171511 0.9400 0.9400 0.9400 0.9400 0.9400
2565.828315 0.9400 0.9400 0.9400 0.9400 0.9400
2572.485119 0.9400 0.9400 0.9400 0.9400 0.9400
2579.141922 0.9400 0.9400 0.9400 0.9400 0.9400
2585.798726 0.9403 0.9408 0.9410 0.9410 0.9410
2592.455530 0.9410 0.9410 0.9410 0.9410 0.9410
2599.112333 0.9410 0.9410 0.9410 0.9410 0.9410
2605.769137 0.9410 0.9410 0.9410 0.9410 0.9410
2612.425941 0.9410 0.9410 0.9407 0.9402 0.9400
2619.082744 0.9400 0.9400 0.9400 0.9400 0.9400
2625.739548 0.9400 0.9400 0.9400 0.9400 0.9395
2632.396352 0.9385 0.9380 0.9380 0.9380 0.9380
2639.053156 0.9380 0.9380 0.9380 0.9380 0.9380
2645.709959 0.9380 0.9380 0.9380 0.9380 0.9380
2652.366763 0.9380 0.9380 0.9380 0.9380 0.9380
2659.023567 0.9380 0.9380 0.9380 0.9377 0.9372
2665.680370 0.9367 0.9362 0.9360 0.9360 0.9363
2672.337174 0.9368 0.9370 0.9370 0.9370 0.9370
2678.993978 0.9373 0.9378 0.9380 0.9380 0.9380
2685.650781 0.9380 0.9374 0.9364 0.9360 0.9360
2692.307585 0.9354 0.9344 0.9340 0.9340 0.9340
2698.964389 0.9340 0.9346 0.9356 0.9360 0.9360
2705.621193 0.9360 0.9360 0.9360 0.9360 0.9354
2712.277996 0.9344 0.9340 0.9340 0.9340 0.9340
2718.934800 0.9337 0.9332 0.9330 0.9330 0.9330
2725.591604 0.9330 0.9330 0.9330 0.9327 0.9322
2732.248407 0.9320 0.9320 0.9320 0.9320 0.9314
2738.905211 0.9304 0.9300 0.9300 0.9300 0.9300
2745.562015 0.9300 0.9300 0.9307 0.9317 0.9320
2752.218819 0.9320 0.9320 0.9320 0.9320 0.9320
2758.875622 0.9320 0.9320 0.9320 0.9320 0.9323
2765.532426 0.9328 0.9330 0.9330 0.9330 0.9330
2772.189230 0.9330 0.9330 0.9330 0.9330 0.9330
2778.846033 0.9330 0.9327 0.9322 0.9320 0.9320
2785.502837 0.9320 0.9320 0.9320 0.9320 0.9320
2792.159641 0.9320 0.9313 0.9303 0.9300 0.9300
2798.816444 0.9300 0.9300 0.9300 0.9300 0.9300
2805.473248 0.9300 0.9296 0.9291 0.9286 0.9281
2812.130052 0.9280 0.9280 0.9280 0.9280 0.9280
2818.786856 0.9280 0.9273 0.9263 0.9260 0.9260
2825.443659 0.9260 0.9260 0.9260 0.9260 0.9260
2832.100463 0.9260 0.9256 0.9251 0.9246 0.9241
2838.757267 0.9240 0.9240 0.9240 0.9240 0.9240
2845.414070 0.9240 0.9233 0.9223 0.9220 0.9220
2852.070874 0.9220 0.9220 0.9216 0.9211 0.9210
2858.727678 0.9210 0.9210 0.9210 0.9206 0.9201
2865.384481 0.9192 0.9182 0.9180 0.9180 0.9180
2872.041285 0.9180 0.9180 0.9180 0.9188 0.9198
2878.698089 0.9200 0.9200 0.9200 0.9200 0.9200
2885.354893 0.9200 0.9200 0.9200 0.9200 0.9200
2892.011696 0.9200 0.9200 0.9200 0.9200 0.9200
2898.668500 0.9200 0.9200 0.9200 0.9200 0.9200
2905.325304 0.9192 0.9182 0.9180 0.9180 0.9180
2911.982107 0.9180 0.9176 0.9171 0.9158 0.9143
2918.638911 0.9140 0.9140 0.9136 0.9131 0.9126
2925.295715 0.9121 0.9112 0.9102 0.9096 0.9091
2931.952519 0.9090 0.9090 0.9086 0.9081 0.9080
2938.609322 0.9080 0.9080 0.9080 0.9084 0.9089
2945.266126 0.9090 0.9090 0.9094 0.9099 0.9100
2951.922930 0.9100 0.9100 0.9100 0.9108 0.9118
2958.579733 0.9120 0.9120 0.9120 0.9120 0.9120
2965.236537 0.9120 0.9120 0.9120 0.9120 0.9120
2971.893341 0.9124 0.9129 0.9130 0.9130 0.9134
2978.550144 0.9139 0.9140 0.9140 0.9140 0.9140
2985.206948 0.9140 0.9140 0.9140 0.9140 0.9140
2991.863752 0.9140 0.9149 0.9159 0.9160 0.9160
2998.520556 0.9160 0.9160 0.9160 0.9160 0.9160
3005.177359 0.9160 0.9164 0.9169 0.9170 0.9170
3011.834163 0.9170 0.9170 0.9170 0.9170 0.9170
3018.490967 0.9170 0.9170 0.9170 0.9166 0.9161
3025.147770 0.9151 0.9141 0.9140 0.9140 0.9140
3031.804574 0.9140 0.9140 0.9140 0.9140 0.9140
3038.461378 0.9140 0.9140 0.9140 0.9140 0.9140
3045.118181 0.9140 0.9140 0.9140 0.9140 0.9140
3051.774985 0.9135 0.9130 0.9130 0.9130 0.9130
3058.431789 0.9130 0.9125 0.9120 0.9120 0.9120
3065.088593 0.9120 0.9120 0.9120 0.9120 0.9120
3071.745396 0.9120 0.9120 0.9120 0.9120 0.9120
3078.402200 0.9120 0.9120 0.9120 0.9120 0.9120
3085.059004 0.9120 0.9120 0.9120 0.9120 0.9120
3091.715807 0.9120 0.9120 0.9120 0.9120 0.9120
3098.372611 0.9120 0.9110 0.9100 0.9100 0.9100
3105.029415 0.9100 0.9100 0.9100 0.9100 0.9095
3111.686219 0.9090 0.9090 0.9090 0.9090 0.9090
3118.343022 0.9090 0.9090 0.9090 0.9090 0.9090
3124.999826 0.9090 0.9090 0.9090 0.9085 0.9080
3131.656630 0.9080 0.9080 0.9070 0.9060 0.9060
3138.313433 0.9060 0.9060 0.9060 0.9060 0.9060
3144.970237 0.9060 0.9060 0.9060 0.9060 0.9055
3151.627041 0.9050 0.9045 0.9040 0.9040 0.9040
3158.283844 0.9040 0.9040 0.9030 0.9020 0.9020
3164.940648 0.9020 0.9020 0.9020 0.9015 0.9010
3171.597452 0.9010 0.9010 0.9005 0.9000 0.9000
3178.254256 0.9000 0.9000 0.9000 0.9000 0.9000
3184.911059 0.9000 0.9000 0.8990 0.8980 0.8980
3191.567863 0.8980 0.8980 0.8980 0.8980 0.8980
3198.224667 0.8980 0.8980 0.8980 0.8980 0.8980
3204.881470 0.8980 0.8980 0.8980 0.8980 0.8980
3211.538274 0.8975 0.8970 0.8970 0.8970 0.8970
3218.195078 0.8970 0.8970 0.8970 0.8965 0.8960
3224.851881 0.8960 0.8960 0.8960 0.8960 0.8960
3231.508685 0.8959 0.8949 0.8940 0.8940 0.8940
3238.165489 0.8935 0.8930 0.8930 0.8930 0.8930
3244.822293 0.8930 0.8925 0.8920 0.8920 0.8920
3251.479096 0.8920 0.8919 0.8909 0.8900 0.8900
3258.135900 0.8899 0.8894 0.8890 0.8890 0.8890
3264.792704 0.8890 0.8889 0.8884 0.8880 0.8880
3271.449507 0.8880 0.8880 0.8879 0.8869 0.8860
3278.106311 0.8860 0.8859 0.8854 0.8850 0.8850
3284.763115 0.8850 0.8850 0.8849 0.8844 0.8840
3291.419919 0.8840 0.8840 0.8840 0.8839 0.8829
3298.076722 0.8820 0.8820 0.8819 0.8809 0.8798
3304.733526 0.8788 0.8780 0.8780 0.8780 0.8780
3311.390330 0.8779 0.8774 0.8770 0.8770 0.8770
3318.047133 0.8770 0.8769 0.8764 0.8759 0.8754
3324.703937 0.8748 0.8733 0.8719 0.8714 0.8708
3331.360741 0.8698 0.8689 0.8684 0.8679 0.8674
3338.017544 0.8668 0.8658 0.8649 0.8644 0.8639
3344.674348 0.8634 0.8628 0.8618 0.8608 0.8598
3351.331152 0.8587 0.8572 0.8559 0.8554 0.8548
3357.987956 0.8538 0.8528 0.8518 0.8507 0.8492
3364.644759 0.8477 0.8462 0.8448 0.8438 0.8427
3371.301563 0.8412 0.8397 0.8382 0.8369 0.8364
3377.958367 0.8359 0.8354 0.8348 0.8338 0.8329
3384.615170 0.8324 0.8317 0.8302 0.8288 0.8278
3391.271974 0.8268 0.8258 0.8249 0.8244 0.8237
3397.928778 0.8222 0.8209 0.8204 0.8197 0.8182
3404.585581 0.8168 0.8158 0.8148 0.8138 0.8125
3411.242385 0.8105 0.8089 0.8084 0.8074 0.8049
3417.899189 0.8026 0.8011 0.7999 0.7994 0.7987
3424.555993 0.7977 0.7967 0.7957 0.7947 0.7937
3431.212796 0.7929 0.7924 0.7916 0.7901 0.7890
3437.869600 0.7890 0.7889 0.7884 0.7880 0.7880
3444.526404 0.7879 0.7874 0.7867 0.7857 0.7850
3451.183207 0.7850 0.7849 0.7844 0.7840 0.7840
3457.840011 0.7840 0.7840 0.7840 0.7840 0.7840
3464.496815 0.7840 0.7840 0.7840 0.7840 0.7840
3471.153619 0.7842 0.7846 0.7850 0.7850 0.7850
3477.810422 0.7850 0.7853 0.7863 0.7870 0.7870
3484.467226 0.7870 0.7870 0.7872 0.7877 0.7880
3491.124030 0.7880 0.7882 0.7887 0.7890 0.7890
3497.780833 0.7890 0.7890 0.7895 0.7910 0.7922
3504.437637 0.7927 0.7930 0.7930 0.7933 0.7943
3511.094441 0.7952 0.7957 0.7962 0.7967 0.7970
3517.751244 0.7970 0.7973 0.7983 0.7992 0.7997
3524.408048 0.8002 0.8007 0.8013 0.8023 0.8032
3531.064852 0.8037 0.8042 0.8047 0.8053 0.8063
3537.721656 0.8073 0.8083 0.8093 0.8104 0.8117
3544.378459 0.8137 0.8154 0.8164 0.8174 0.8184
3551.035263 0.8192 0.8197 0.8206 0.8221 0.8232
3557.692067 0.8237 0.8246 0.8261 0.8272 0.8277
3564.348870 0.8282 0.8287 0.8294 0.8304 0.8312
3571.005674 0.8317 0.8322 0.8327 0.8334 0.8344
3577.662478 0.8354 0.8364 0.8374 0.8384 0.8394
3584.319281 0.8404 0.8414 0.8424 0.8432 0.8437
3590.976085 0.8446 0.8461 0.8474 0.8484 0.8494
3597.632889 0.8504 0.8514 0.8524 0.8536 0.8551
3604.289693 0.8566 0.8581 0.8594 0.8604 0.8614
3610.946496 0.8624 0.8632 0.8637 0.8642 0.8647
3617.603300 0.8656 0.8671 0.8682 0.8687 0.8694
3624.260104 0.8704 0.8719 0.8739 0.8750 0.8750
3630.916907 0.8752 0.8757 0.8762 0.8767 0.8770
3637.573711 0.8770 0.8772 0.8777 0.8784 0.8794
3644.230515 0.8802 0.8807 0.8810 0.8810 0.8812
3650.887319 0.8817 0.8825 0.8835 0.8842 0.8847
3657.544122 0.8850 0.8850 0.8852 0.8857 0.8860
3664.200926 0.8860 0.8860 0.8860 0.8860 0.8860
3670.857730 0.8860 0.8860 0.8860 0.8860 0.8860
3677.514533 0.8860 0.8860 0.8860 0.8865 0.8875
3684.171337 0.8880 0.8880 0.8880 0.8880 0.8880
3690.828141 0.8880 0.8880 0.8880 0.8880 0.8880
3697.484944 0.8880 0.8880 0.8880 0.8880 0.8880
3704.141748 0.8880 0.8880 0.8880 0.8880 0.8880
3710.798552 0.8880 0.8880 0.8880 0.8880 0.8880
3717.455356 0.8880 0.8880 0.8880 0.8880 0.8880
3724.112159 0.8880 0.8880 0.8880 0.8880 0.8880
3730.768963 0.8880 0.8880 0.8880 0.8880 0.8880
3737.425767 0.8880 0.8880 0.8875 0.8865 0.8860
3744.082570 0.8860 0.8860 0.8860 0.8860 0.8860
3750.739374 0.8860 0.8860 0.8860 0.8860 0.8860
3757.396178 0.8860 0.8860 0.8860 0.8860 0.8860
3764.052981 0.8860 0.8860 0.8860 0.8860 0.8860
3770.709785 0.8860 0.8857 0.8852 0.8850 0.8850
3777.366589 0.8850 0.8850 0.8850 0.8850 0.8850
3784.023393 0.8850 0.8850 0.8850 0.8850 0.8850
3790.680196 0.8850 0.8850 0.8847 0.8842 0.8840
3797.337000 0.8840 0.8840 0.8840 0.8840 0.8840
3803.993804 0.8840 0.8840 0.8834 0.8824 0.8820
3810.650607 0.8820 0.8820 0.8820 0.8820 0.8820
3817.307411 0.8820 0.8820 0.8820 0.8820 0.8820
3823.964215 0.8820 0.8820 0.8820 0.8820 0.8820
3830.621019 0.8820 0.8820 0.8820 0.8820 0.8820
3837.277822 0.8820 0.8820 0.8820 0.8820 0.8820
3843.934626 0.8820 0.8820 0.8820 0.8820 0.8820
3850.591430 0.8820 0.8820 0.8820 0.8820 0.8820
3857.248233 0.8820 0.8820 0.8817 0.8812 0.8810
3863.905037 0.8810 0.8810 0.8810 0.8810 0.8810
3870.561841 0.8810 0.8810 0.8810 0.8810 0.8810
3877.218644 0.8810 0.8807 0.8802 0.8800 0.8800
3883.875448 0.8800 0.8800 0.8800 0.8800 0.8793
3890.532252 0.8783 0.8780 0.8780 0.8780 0.8780
3897.189056 0.8780 0.8780 0.8787 0.8797 0.8800
3903.845859 0.8800 0.8800 0.8800 0.8800 0.8800
3910.502663 0.8800 0.8800 0.8793 0.8783 0.8780
3917.159467 0.8780 0.8780 0.8780 0.8780 0.8780
3923.816270 0.8787 0.8797 0.8793 0.8783 0.8780
3930.473074 0.8780 0.8780 0.8780 0.8780 0.8780
3937.129878 0.8780 0.8780 0.8780 0.8780 0.8780
3943.786681 0.8780 0.8787 0.8797 0.8793 0.8783
3950.443485 0.8780 0.8780 0.8787 0.8797 0.8793
3957.100289 0.8783 0.8780 0.8780 0.8780 0.8780
3963.757093 0.8780 0.8780 0.8780 0.8780 0.8780
3970.413896 0.8780 0.8780 0.8780 0.8780 0.8780
3977.070700 0.8780 0.8780 0.8780 0.8780 0.8780
3983.727504 0.8780 0.8780 0.8780
##END=
