##TITLE=PHENYL 1,2-DICARBETHOXYETHYLCARBAMATE
##JCAMP-DX=4.24
##DATA TYPE=INFRARED SPECTRUM
##CLASS=COBLENTZ
##ORIGIN=EASTMAN KODAK COMPANY, RESEARCH LABORATORIES, ROCHESTER, N.Y.
##OWNER=COBLENTZ SOCIETY
Collection (C) 2018 copyright by the U.S. Secretary of Commerce
on behalf of the United States of America. All rights reserved.
##DATE=Not specified, most likely prior to 1970
##NAMES=diethyl 2-[(phenoxycarbonyl)amino]succinate
##MOLFORM=C15 H19 N O6
$$ J. ORG. CHEM. 26, 2511(1961)
##MP=73 C
##SOURCE REFERENCE=COBLENTZ NO. 2175
##$NIST ID=B6002175
##$NIST SOURCE=COBLENTZ
##$NIST IMAGE=cob2175
##SPECTROMETER/DATA SYSTEM=Not specified, most likely a prism, grating, or hybrid spectrometer.
##STATE=SOLID (KBr PRESSING)
##SAMPLING PROCEDURE=TRANSMISSION
##RESOLUTION=4
##DATA PROCESSING=DIGITIZED BY NIST FROM HARD COPY
##XUNITS=MICROMETERS
##YUNITS=TRANSMITTANCE
##XFACTOR=1.000000
##YFACTOR=1
##DELTAX=000.007011
##FIRSTX=2.021
##LASTX=16
##FIRSTY=0.767
##MAXX=16
##MINX=2.021
##MAXY=0.901
##MINY=0.05
##NPOINTS=1995
##XYDATA=(X++(Y..Y))
2.021000 0.7670 0.7670 0.7690 0.7690 0.7690
2.056070 0.7690 0.7690 0.7700 0.7700 0.7720
2.091000 0.7720 0.7740 0.7760 0.7760 0.7770
2.126070 0.7770 0.7770 0.7760 0.7740 0.7740
2.161000 0.7740 0.7760 0.7760 0.7760 0.7760
2.196070 0.7760 0.7760 0.7770 0.7770 0.7770
2.231000 0.7770 0.7770 0.7790 0.7790 0.7790
2.266070 0.7810 0.7820 0.7840 0.7840 0.7840
2.301000 0.7860 0.7880 0.7880 0.7880 0.7890
2.336070 0.7890 0.7880 0.7880 0.7880 0.7890
2.372000 0.7890 0.7890 0.7890 0.7890 0.7890
2.407070 0.7890 0.7890 0.7890 0.7890 0.7890
2.442000 0.7910 0.7910 0.7930 0.7930 0.7930
2.477070 0.7930 0.7950 0.7960 0.7960 0.7980
2.512000 0.7980 0.8000 0.8020 0.8020 0.8030
2.547070 0.8030 0.8050 0.8050 0.8050 0.8090
2.582000 0.8100 0.8100 0.8100 0.8100 0.8100
2.617070 0.8100 0.8120 0.8140 0.8140 0.8140
2.652000 0.8140 0.8140 0.8120 0.8120 0.8120
2.687070 0.8120 0.8120 0.8100 0.8090 0.8090
2.722000 0.8020 0.8000 0.7890 0.7880 0.7840
2.757070 0.7810 0.7760 0.7720 0.7700 0.7690
2.792000 0.7620 0.7530 0.7500 0.7430 0.7360
2.827070 0.7290 0.7200 0.7180 0.7060 0.6970
2.862000 0.6940 0.6770 0.6640 0.6310 0.6000
2.897070 0.5390 0.4420 0.4390 0.4400 0.4770
2.932000 0.5410 0.6050 0.6640 0.6970 0.7200
2.967070 0.7300 0.7320 0.7390 0.7480 0.7560
3.003000 0.7630 0.7690 0.7740 0.7760 0.7790
3.038070 0.7820 0.7840 0.7890 0.7890 0.7910
3.073000 0.7950 0.7960 0.7980 0.8000 0.8020
3.108070 0.8030 0.8050 0.8050 0.8090 0.8100
3.143000 0.8100 0.8120 0.8120 0.8120 0.8120
3.178070 0.8120 0.8140 0.8140 0.8140 0.8140
3.213000 0.8120 0.8100 0.8050 0.7980 0.7820
3.248070 0.7760 0.7740 0.7770 0.7820 0.7840
3.283000 0.7820 0.7790 0.7580 0.7270 0.7030
3.318070 0.6730 0.6700 0.6710 0.6820 0.7030
3.353000 0.7220 0.7320 0.7360 0.7370 0.7370
3.388070 0.7390 0.7390 0.7430 0.7480 0.7560
3.423000 0.7790 0.7910 0.8020 0.8050 0.8090
3.458070 0.8090 0.8120 0.8150 0.8210 0.8240
3.493000 0.8280 0.8290 0.8330 0.8350 0.8360
3.528070 0.8400 0.8420 0.8430 0.8450 0.8470
3.563000 0.8470 0.8480 0.8500 0.8500 0.8500
3.598070 0.8500 0.8500 0.8500 0.8480 0.8480
3.633000 0.8500 0.8500 0.8500 0.8520 0.8520
3.668070 0.8520 0.8520 0.8540 0.8540 0.8540
3.704000 0.8540 0.8540 0.8550 0.8570 0.8570
3.739070 0.8570 0.8570 0.8570 0.8570 0.8570
3.774000 0.8590 0.8590 0.8590 0.8590 0.8610
3.809070 0.8590 0.8590 0.8590 0.8590 0.8590
3.844000 0.8590 0.8610 0.8620 0.8620 0.8620
3.879070 0.8620 0.8620 0.8620 0.8620 0.8640
3.914000 0.8640 0.8640 0.8640 0.8640 0.8620
3.949070 0.8620 0.8620 0.8620 0.8640 0.8660
3.984000 0.8680 0.8680 0.8660 0.8660 0.8660
4.019070 0.8660 0.8680 0.8680 0.8690 0.8690
4.054000 0.8690 0.8680 0.8680 0.8680 0.8660
4.089070 0.8660 0.8640 0.8640 0.8640 0.8640
4.124000 0.8620 0.8620 0.8620 0.8620 0.8620
4.159070 0.8620 0.8620 0.8620 0.8620 0.8660
4.194000 0.8690 0.8710 0.8730 0.8780 0.8810
4.229070 0.8880 0.8920 0.8950 0.9010 0.9010
4.264000 0.9010 0.9010 0.9010 0.9010 0.8950
4.299070 0.8920 0.8900 0.8880 0.8850 0.8830
4.335000 0.8830 0.8830 0.8830 0.8810 0.8800
4.370070 0.8800 0.8750 0.8710 0.8710 0.8710
4.405000 0.8730 0.8730 0.8750 0.8780 0.8780
4.440070 0.8780 0.8760 0.8760 0.8760 0.8780
4.475000 0.8780 0.8800 0.8800 0.8800 0.8800
4.510070 0.8800 0.8800 0.8800 0.8800 0.8800
4.545000 0.8800 0.8800 0.8800 0.8800 0.8800
4.580070 0.8800 0.8800 0.8800 0.8800 0.8800
4.615000 0.8800 0.8780 0.8780 0.8780 0.8780
4.650070 0.8760 0.8760 0.8760 0.8750 0.8750
4.685000 0.8730 0.8730 0.8730 0.8710 0.8710
4.720070 0.8710 0.8730 0.8730 0.8730 0.8730
4.755000 0.8730 0.8730 0.8730 0.8730 0.8730
4.790070 0.8750 0.8750 0.8750 0.8760 0.8760
4.825000 0.8760 0.8760 0.8760 0.8760 0.8750
4.860070 0.8750 0.8760 0.8760 0.8760 0.8760
4.895000 0.8780 0.8780 0.8780 0.8780 0.8780
4.930070 0.8780 0.8800 0.8800 0.8800 0.8800
4.965000 0.8810 0.8810 0.8830 0.8830 0.8810
5.000070 0.8810 0.8810 0.8810 0.8810 0.8810
5.036000 0.8800 0.8780 0.8780 0.8760 0.8760
5.071070 0.8750 0.8730 0.8710 0.8640 0.8620
5.106000 0.8640 0.8680 0.8730 0.8750 0.8760
5.141070 0.8750 0.8750 0.8730 0.8730 0.8710
5.176000 0.8710 0.8730 0.8730 0.8730 0.8730
5.211070 0.8730 0.8730 0.8730 0.8710 0.8710
5.246000 0.8680 0.8640 0.8640 0.8640 0.8640
5.281070 0.8640 0.8640 0.8640 0.8660 0.8660
5.316000 0.8640 0.8640 0.8660 0.8660 0.8680
5.351070 0.8690 0.8690 0.8680 0.8680 0.8660
5.386000 0.8640 0.8640 0.8640 0.8640 0.8640
5.421070 0.8640 0.8610 0.8590 0.8570 0.8550
5.456000 0.8550 0.8520 0.8520 0.8500 0.8480
5.491070 0.8470 0.8420 0.8360 0.8350 0.8330
5.526000 0.8330 0.8310 0.8290 0.8280 0.8260
5.561070 0.8260 0.8240 0.8170 0.8070 0.8030
5.596000 0.8020 0.7930 0.7840 0.7770 0.7720
5.631070 0.7630 0.7460 0.7030 0.6700 0.6310
5.666000 0.5880 0.5170 0.4610 0.4010 0.3470
5.701070 0.3100 0.2770 0.2430 0.1970 0.1470
5.737000 0.1140 0.1000 0.0830 0.0810 0.0790
5.772070 0.0780 0.0790 0.0810 0.1040 0.1370
5.807000 0.1850 0.2600 0.3070 0.3520 0.4390
5.842070 0.5430 0.6180 0.6420 0.6520 0.6610
5.877000 0.6640 0.6750 0.6900 0.7030 0.7100
5.912070 0.7200 0.7300 0.7410 0.7530 0.7690
5.947000 0.7910 0.8020 0.8030 0.8050 0.8140
5.982070 0.8150 0.8150 0.8140 0.8140 0.8140
6.017000 0.8140 0.8140 0.8120 0.8120 0.8100
6.052070 0.8100 0.8120 0.8120 0.8140 0.8140
6.087000 0.8140 0.8140 0.8120 0.8120 0.8120
6.122070 0.8120 0.8140 0.8140 0.8150 0.8150
6.157000 0.8150 0.8150 0.8170 0.8190 0.8190
6.192070 0.8190 0.8210 0.8220 0.8210 0.8140
6.227000 0.8030 0.7950 0.7890 0.7880 0.7910
6.262070 0.8030 0.8220 0.8260 0.8290 0.8310
6.297000 0.8330 0.8330 0.8350 0.8360 0.8380
6.332070 0.8380 0.8380 0.8380 0.8380 0.8380
6.368000 0.8380 0.8380 0.8400 0.8400 0.8400
6.403070 0.8380 0.8330 0.8280 0.8220 0.8120
6.438000 0.8030 0.8030 0.8020 0.8020 0.8020
6.473070 0.7930 0.7910 0.7740 0.7580 0.7410
6.508000 0.7110 0.6850 0.6610 0.6520 0.6420
6.543070 0.6310 0.6180 0.5980 0.5620 0.5320
6.578000 0.4720 0.4070 0.3400 0.2910 0.2890
6.613070 0.2890 0.2960 0.3470 0.4390 0.5500
6.648000 0.5640 0.5640 0.5430 0.4750 0.3950
6.683070 0.3120 0.2230 0.1990 0.1990 0.2010
6.718000 0.2230 0.2300 0.2340 0.2410 0.2530
6.753070 0.2960 0.3290 0.3680 0.3870 0.4160
6.788000 0.4820 0.5060 0.5340 0.5520 0.5650
6.823070 0.5860 0.6020 0.6050 0.6050 0.6110
6.858000 0.6120 0.6250 0.6330 0.6380 0.6400
6.893070 0.6420 0.6510 0.6630 0.6850 0.7030
6.928000 0.7040 0.7040 0.7100 0.7170 0.7270
6.963070 0.7290 0.7340 0.7340 0.7150 0.6590
6.998000 0.6370 0.6160 0.5980 0.5710 0.5530
7.033070 0.5530 0.5640 0.6120 0.6610 0.6970
7.069000 0.7230 0.7290 0.7300 0.7320 0.7320
7.104070 0.7150 0.7040 0.6780 0.6540 0.6210
7.139000 0.6070 0.5920 0.5740 0.5690 0.5670
7.174070 0.5690 0.5720 0.5790 0.5790 0.5780
7.209000 0.5590 0.5190 0.4580 0.3780 0.3170
7.244070 0.3140 0.3120 0.3210 0.3350 0.3430
7.279000 0.3540 0.3780 0.4180 0.4890 0.5690
7.314070 0.6210 0.6330 0.6350 0.6350 0.6310
7.349000 0.6020 0.5600 0.5270 0.5060 0.5000
7.384070 0.4670 0.4200 0.4010 0.3610 0.3050
7.419000 0.2460 0.2010 0.1770 0.1680 0.1680
7.454070 0.1800 0.1900 0.2690 0.3550 0.4720
7.489000 0.5410 0.5810 0.6050 0.6260 0.6520
7.524070 0.6680 0.6820 0.6920 0.7030 0.7060
7.559000 0.7100 0.7110 0.7130 0.7110 0.7010
7.594070 0.6970 0.6820 0.6570 0.6370 0.6020
7.629000 0.5720 0.5460 0.5060 0.4750 0.4400
7.664070 0.4060 0.3850 0.3620 0.3550 0.3550
7.700000 0.3590 0.3730 0.4010 0.4320 0.4680
7.735070 0.5010 0.5360 0.5650 0.5950 0.6180
7.770000 0.6250 0.6420 0.6630 0.6680 0.6750
7.805070 0.6800 0.6900 0.6940 0.7010 0.7030
7.840000 0.7060 0.7100 0.7110 0.7130 0.7170
7.875070 0.7200 0.7230 0.7250 0.7250 0.7250
7.910000 0.7250 0.7250 0.7250 0.7250 0.7250
7.945070 0.7220 0.7220 0.7170 0.7130 0.7080
7.980000 0.7040 0.6970 0.6900 0.6820 0.6750
8.015070 0.6710 0.6640 0.6540 0.6510 0.6400
8.050000 0.6260 0.6190 0.6070 0.6000 0.5810
8.085070 0.5670 0.5530 0.5340 0.5130 0.5120
8.120000 0.5010 0.4930 0.4820 0.4800 0.4700
8.155070 0.4610 0.4530 0.4400 0.4210 0.3750
8.190000 0.3360 0.3260 0.3020 0.2770 0.2510
8.225070 0.2390 0.2300 0.2220 0.2110 0.2040
8.260000 0.1990 0.1770 0.1570 0.1350 0.1140
8.295070 0.0970 0.0810 0.0710 0.0640 0.0550
8.330000 0.0520 0.0520 0.0500 0.0500 0.0500
8.365070 0.0500 0.0500 0.0520 0.0570 0.0670
8.401000 0.0760 0.0810 0.0920 0.1000 0.1040
8.436070 0.1110 0.1160 0.1230 0.1370 0.1560
8.471000 0.1770 0.2010 0.2320 0.2650 0.2880
8.506070 0.3070 0.3220 0.3400 0.3500 0.3500
8.541000 0.3420 0.3290 0.3210 0.3120 0.3090
8.576070 0.3100 0.3520 0.3710 0.3780 0.3870
8.611000 0.4020 0.4140 0.4300 0.4420 0.4560
8.646070 0.4730 0.4820 0.4910 0.4930 0.4930
8.681000 0.4820 0.4720 0.4530 0.4320 0.4130
8.716070 0.4020 0.4020 0.4020 0.4300 0.4600
8.751000 0.5080 0.5520 0.5880 0.5980 0.6420
8.786070 0.6590 0.6700 0.6850 0.6990 0.7040
8.821000 0.7130 0.7200 0.7250 0.7340 0.7430
8.856070 0.7460 0.7460 0.7440 0.7440 0.7440
8.891000 0.7460 0.7460 0.7440 0.7430 0.7370
8.926070 0.7340 0.7340 0.7340 0.7320 0.7320
8.961000 0.7320 0.7320 0.7320 0.7320 0.7320
8.996070 0.7320 0.7290 0.7270 0.7220 0.7200
9.032000 0.7170 0.7150 0.7130 0.7110 0.7110
9.067070 0.7110 0.7110 0.7110 0.7150 0.7200
9.102000 0.7250 0.7300 0.7360 0.7410 0.7430
9.137070 0.7500 0.7510 0.7580 0.7620 0.7630
9.172000 0.7690 0.7720 0.7740 0.7760 0.7760
9.207070 0.7760 0.7760 0.7740 0.7720 0.7700
9.242000 0.7560 0.7480 0.7270 0.7030 0.6700
9.277070 0.6570 0.6520 0.6590 0.6770 0.6970
9.312000 0.7220 0.7340 0.7430 0.7510 0.7560
9.347070 0.7600 0.7600 0.7580 0.7560 0.7550
9.382000 0.7510 0.7510 0.7500 0.7500 0.7500
9.417070 0.7500 0.7500 0.7500 0.7500 0.7500
9.452000 0.7500 0.7500 0.7500 0.7500 0.7500
9.487070 0.7500 0.7480 0.7430 0.7410 0.7370
9.522000 0.7360 0.7360 0.7320 0.7300 0.7220
9.557070 0.7180 0.7110 0.7010 0.6780 0.6560
9.592000 0.6450 0.6370 0.6230 0.5980 0.5720
9.627070 0.5410 0.5010 0.4560 0.4320 0.4070
9.662000 0.3760 0.3360 0.3070 0.2760 0.2550
9.697070 0.2340 0.2100 0.2060 0.2060 0.2040
9.733000 0.2040 0.2080 0.2220 0.2390 0.2510
9.768070 0.2650 0.2690 0.2890 0.3210 0.3310
9.803000 0.3550 0.3690 0.3970 0.4070 0.4280
9.838070 0.4510 0.4600 0.4700 0.4800 0.4910
9.873000 0.5000 0.5060 0.5220 0.5290 0.5310
9.908070 0.5320 0.5340 0.5390 0.5450 0.5530
9.943000 0.5600 0.5720 0.5810 0.5830 0.5740
9.978070 0.5640 0.5550 0.5390 0.5120 0.5030
10.013000 0.4910 0.4820 0.4800 0.4800 0.4910
10.048070 0.5100 0.5310 0.5550 0.5740 0.6000
10.083000 0.6210 0.6370 0.6520 0.6680 0.6840
10.118070 0.6990 0.7080 0.7200 0.7300 0.7360
10.153000 0.7410 0.7440 0.7510 0.7530 0.7550
10.188070 0.7620 0.7670 0.7690 0.7720 0.7740
10.223000 0.7740 0.7720 0.7670 0.7620 0.7510
10.258070 0.7430 0.7250 0.7110 0.7030 0.6840
10.293000 0.6640 0.6400 0.6210 0.6020 0.5860
10.328070 0.5810 0.5780 0.5780 0.5810 0.5970
10.364000 0.6140 0.6330 0.6520 0.6960 0.7230
10.399070 0.7430 0.7530 0.7630 0.7720 0.7820
10.434000 0.7860 0.7910 0.7950 0.8020 0.8050
10.469070 0.8050 0.8070 0.8100 0.8120 0.8170
10.504000 0.8220 0.8260 0.8350 0.8430 0.8520
10.539070 0.8550 0.8570 0.8570 0.8610 0.8620
10.574000 0.8640 0.8660 0.8690 0.8690 0.8690
10.609070 0.8690 0.8730 0.8730 0.8730 0.8730
10.644000 0.8750 0.8750 0.8750 0.8760 0.8760
10.679070 0.8760 0.8760 0.8760 0.8760 0.8800
10.714000 0.8810 0.8830 0.8850 0.8850 0.8850
10.749070 0.8850 0.8810 0.8800 0.8780 0.8780
10.784000 0.8780 0.8780 0.8760 0.8750 0.8750
10.819070 0.8730 0.8730 0.8690 0.8680 0.8660
10.854000 0.8620 0.8610 0.8540 0.8480 0.8400
10.889070 0.8290 0.8170 0.8050 0.7960 0.7930
10.924000 0.7930 0.7930 0.7980 0.8030 0.8070
10.959070 0.8120 0.8150 0.8210 0.8260 0.8290
10.994000 0.8350 0.8400 0.8430 0.8520 0.8540
11.029070 0.8540 0.8550 0.8550 0.8550 0.8550
11.065000 0.8570 0.8570 0.8570 0.8570 0.8550
11.100070 0.8520 0.8430 0.8350 0.8310 0.8240
11.135000 0.8210 0.8140 0.8120 0.8120 0.8120
11.170070 0.8100 0.8100 0.8090 0.8050 0.8030
11.205000 0.8030 0.8030 0.8030 0.8070 0.8100
11.240070 0.8140 0.8150 0.8150 0.8210 0.8210
11.275000 0.8210 0.8210 0.8220 0.8220 0.8210
11.310070 0.8190 0.8150 0.8120 0.8070 0.8030
11.345000 0.8000 0.7860 0.7820 0.7760 0.7700
11.380070 0.7630 0.7630 0.7630 0.7650 0.7670
11.415000 0.7700 0.7760 0.7770 0.7810 0.7820
11.450070 0.7820 0.7840 0.7840 0.7840 0.7820
11.485000 0.7820 0.7810 0.7790 0.7770 0.7770
11.520070 0.7770 0.7770 0.7760 0.7760 0.7770
11.555000 0.7770 0.7790 0.7810 0.7820 0.7860
11.590070 0.7910 0.7930 0.8000 0.8020 0.8030
11.625000 0.8050 0.8120 0.8150 0.8190 0.8220
11.660070 0.8280 0.8310 0.8350 0.8380 0.8400
11.696000 0.8430 0.8450 0.8470 0.8520 0.8520
11.731070 0.8540 0.8540 0.8540 0.8550 0.8550
11.766000 0.8550 0.8550 0.8550 0.8550 0.8550
11.801070 0.8540 0.8540 0.8500 0.8470 0.8470
11.836000 0.8450 0.8430 0.8400 0.8380 0.8350
11.871070 0.8310 0.8260 0.8220 0.8210 0.8140
11.906000 0.8120 0.8070 0.8050 0.8030 0.8020
11.941070 0.7950 0.7890 0.7840 0.7840 0.7820
11.976000 0.7790 0.7790 0.7790 0.7790 0.7770
12.011070 0.7770 0.7770 0.7790 0.7810 0.7820
12.046000 0.7880 0.7930 0.7950 0.8020 0.8030
12.081070 0.8050 0.8050 0.8070 0.8120 0.8140
12.116000 0.8170 0.8170 0.8150 0.8140 0.8140
12.151070 0.8140 0.8120 0.8120 0.8120 0.8100
12.186000 0.8100 0.8100 0.8120 0.8120 0.8140
12.221070 0.8140 0.8150 0.8150 0.8170 0.8190
12.256000 0.8210 0.8220 0.8220 0.8220 0.8240
12.291070 0.8260 0.8310 0.8330 0.8350 0.8350
12.326000 0.8360 0.8380 0.8400 0.8400 0.8400
12.361070 0.8400 0.8400 0.8400 0.8380 0.8380
12.397000 0.8350 0.8350 0.8360 0.8380 0.8400
12.432070 0.8400 0.8400 0.8400 0.8400 0.8400
12.467000 0.8400 0.8400 0.8400 0.8400 0.8400
12.502070 0.8380 0.8400 0.8400 0.8420 0.8420
12.537000 0.8420 0.8430 0.8430 0.8430 0.8430
12.572070 0.8430 0.8430 0.8450 0.8450 0.8430
12.607000 0.8430 0.8430 0.8430 0.8430 0.8430
12.642070 0.8430 0.8430 0.8430 0.8430 0.8430
12.677000 0.8430 0.8430 0.8420 0.8400 0.8380
12.712070 0.8360 0.8360 0.8360 0.8350 0.8330
12.747000 0.8310 0.8290 0.8290 0.8280 0.8260
12.782070 0.8240 0.8220 0.8220 0.8210 0.8210
12.817000 0.8210 0.8210 0.8210 0.8210 0.8210
12.852070 0.8210 0.8190 0.8140 0.8120 0.8030
12.887000 0.8020 0.8000 0.7930 0.7890 0.7820
12.922070 0.7740 0.7630 0.7600 0.7510 0.7430
12.957000 0.7270 0.7130 0.7080 0.7060 0.7010
12.992070 0.6850 0.6820 0.6800 0.6800 0.6840
13.028000 0.6890 0.6970 0.7040 0.7130 0.7220
13.063070 0.7320 0.7410 0.7480 0.7550 0.7670
13.098000 0.7740 0.7820 0.7890 0.7910 0.7930
13.133070 0.8020 0.8050 0.8140 0.8150 0.8190
13.168000 0.8220 0.8260 0.8310 0.8330 0.8360
13.203070 0.8400 0.8420 0.8430 0.8470 0.8480
13.238000 0.8500 0.8540 0.8550 0.8590 0.8610
13.273070 0.8610 0.8590 0.8590 0.8590 0.8590
13.308000 0.8590 0.8590 0.8590 0.8610 0.8620
13.343070 0.8620 0.8620 0.8620 0.8640 0.8640
13.378000 0.8640 0.8640 0.8640 0.8640 0.8640
13.413070 0.8640 0.8640 0.8640 0.8640 0.8640
13.448000 0.8640 0.8640 0.8640 0.8640 0.8640
13.483070 0.8640 0.8640 0.8640 0.8640 0.8640
13.518000 0.8640 0.8640 0.8620 0.8610 0.8570
13.553070 0.8540 0.8520 0.8520 0.8520 0.8500
13.588000 0.8470 0.8430 0.8400 0.8350 0.8280
13.623070 0.8210 0.8120 0.8050 0.8020 0.7860
13.658000 0.7670 0.7530 0.7340 0.7200 0.7110
13.693070 0.6940 0.6750 0.6520 0.6330 0.6190
13.729000 0.6040 0.5980 0.5850 0.5810 0.5810
13.764070 0.5790 0.5810 0.5900 0.5950 0.6020
13.799000 0.6140 0.6330 0.6560 0.6770 0.6940
13.834070 0.7080 0.7270 0.7460 0.7630 0.7740
13.869000 0.7810 0.7840 0.7930 0.8020 0.8020
13.904070 0.8030 0.8100 0.8150 0.8210 0.8220
13.939000 0.8280 0.8310 0.8330 0.8330 0.8360
13.974070 0.8380 0.8400 0.8430 0.8450 0.8480
14.009000 0.8520 0.8540 0.8540 0.8540 0.8550
14.044070 0.8570 0.8590 0.8590 0.8590 0.8590
14.079000 0.8590 0.8590 0.8590 0.8590 0.8590
14.114070 0.8590 0.8570 0.8550 0.8550 0.8550
14.149000 0.8550 0.8550 0.8550 0.8540 0.8540
14.184070 0.8520 0.8500 0.8480 0.8470 0.8450
14.219000 0.8450 0.8420 0.8380 0.8330 0.8310
14.254070 0.8260 0.8240 0.8240 0.8220 0.8210
14.289000 0.8190 0.8170 0.8140 0.8100 0.8050
14.324070 0.8020 0.8000 0.7960 0.7930 0.7840
14.360000 0.7770 0.7700 0.7620 0.7510 0.7410
14.395070 0.7340 0.7170 0.7010 0.6960 0.6800
14.430000 0.6730 0.6630 0.6520 0.6470 0.6450
14.465070 0.6440 0.6450 0.6520 0.6610 0.6700
14.500000 0.6800 0.6900 0.7010 0.7130 0.7250
14.535070 0.7340 0.7480 0.7530 0.7620 0.7690
14.570000 0.7720 0.7740 0.7760 0.7770 0.7790
14.605070 0.7820 0.7880 0.7910 0.7910 0.7930
14.640000 0.7950 0.7960 0.7960 0.7980 0.8000
14.675070 0.8020 0.8030 0.8030 0.8070 0.8100
14.710000 0.8140 0.8150 0.8170 0.8210 0.8240
14.745070 0.8290 0.8310 0.8310 0.8330 0.8350
14.780000 0.8420 0.8430 0.8450 0.8470 0.8480
14.815070 0.8520 0.8520 0.8540 0.8540 0.8570
14.850000 0.8570 0.8570 0.8570 0.8570 0.8570
14.885070 0.8590 0.8590 0.8590 0.8610 0.8610
14.920000 0.8620 0.8620 0.8640 0.8640 0.8640
14.955070 0.8660 0.8660 0.8660 0.8660 0.8660
14.990000 0.8660 0.8640 0.8610 0.8590 0.8550
15.025070 0.8540 0.8540 0.8540 0.8540 0.8550
15.061000 0.8550 0.8570 0.8570 0.8590 0.8590
15.096070 0.8590 0.8610 0.8610 0.8610 0.8610
15.131000 0.8620 0.8620 0.8620 0.8620 0.8620
15.166070 0.8620 0.8620 0.8620 0.8620 0.8620
15.201000 0.8620 0.8620 0.8620 0.8620 0.8620
15.236070 0.8620 0.8610 0.8610 0.8610 0.8590
15.271000 0.8590 0.8590 0.8590 0.8590 0.8590
15.306070 0.8590 0.8590 0.8590 0.8590 0.8570
15.341000 0.8570 0.8540 0.8540 0.8520 0.8480
15.376070 0.8480 0.8480 0.8470 0.8470 0.8470
15.411000 0.8470 0.8470 0.8480 0.8480 0.8500
15.446070 0.8500 0.8520 0.8520 0.8540 0.8540
15.481000 0.8550 0.8550 0.8550 0.8550 0.8550
15.516070 0.8550 0.8550 0.8550 0.8550 0.8550
15.551000 0.8550 0.8550 0.8550 0.8550 0.8550
15.586070 0.8550 0.8550 0.8550 0.8550 0.8550
15.621000 0.8550 0.8550 0.8550 0.8550 0.8550
15.656070 0.8550 0.8550 0.8570 0.8570 0.8570
15.692000 0.8550 0.8540 0.8540 0.8520 0.8520
15.727070 0.8520 0.8520 0.8520 0.8520 0.8520
15.762000 0.8520 0.8520 0.8540 0.8540 0.8540
15.797070 0.8540 0.8540 0.8540 0.8540 0.8540
15.832000 0.8540 0.8540 0.8540 0.8540 0.8540
15.867070 0.8540 0.8520 0.8520 0.8520 0.8520
15.902000 0.8470 0.8450 0.8450 0.8470 0.8470
15.937070 0.8480 0.8480 0.8480 0.8480 0.8480
15.972000 0.8480 0.8500 0.8520 0.8520 0.8520
##END=
