##TITLE=1,1'-DIISOCYANATO FERROCENE
##JCAMP-DX=4.24
##DATA TYPE=INFRARED SPECTRUM
##CLASS=COBLENTZ
##ORIGIN=WYANDOTTE CHEMICALS CORP., WYANDOTTE, MICHIGAN, USA
##OWNER=COBLENTZ SOCIETY
Collection (C) 2018 copyright by the U.S. Secretary of Commerce
on behalf of the United States of America. All rights reserved.
##DATE=Not specified, most likely prior to 1970
##MOLFORM=C12 H8 N2 O2 Fe
##SOURCE REFERENCE=COBLENTZ NO. 3023
##$NIST ID=B6003023
##$NIST SOURCE=COBLENTZ
##$NIST IMAGE=cob3023
##SPECTROMETER/DATA SYSTEM=Not specified, most likely a prism, grating, or hybrid spectrometer.
##STATE=SOLID (MINERAL OIL MULL)
##PATH LENGTH=
$$SPECTRAL CONTAMINATION DUE TO OIL AROUND 2900 CM^-^1
##SAMPLING PROCEDURE=TRANSMISSION
##RESOLUTION=4
##DATA PROCESSING=DIGITIZED BY NIST FROM HARD COPY
##XUNITS=MICROMETERS
##YUNITS=TRANSMITTANCE
##XFACTOR=1.000000
##YFACTOR=1
##DELTAX=000.006813
##FIRSTX=2.014
##LASTX=15.9868
##FIRSTY=0.299
##MAXX=15.9868
##MINX=2.014
##MAXY=0.933
##MINY=0.059
##NPOINTS=2052
##XYDATA=(X++(Y..Y))
2.014000 0.2990 0.2990 0.2980 0.2980 0.3010
2.048080 0.3010 0.3030 0.3030 0.3060 0.3060
2.082000 0.3080 0.3100 0.3100 0.3110 0.3130
2.116080 0.3150 0.3150 0.3150 0.3100 0.3100
2.150000 0.3150 0.3180 0.3210 0.3230 0.3210
2.184080 0.3250 0.3300 0.3320 0.3300 0.3300
2.218000 0.3270 0.3210 0.3200 0.3200 0.3230
2.252080 0.3330 0.3370 0.3390 0.3390 0.3390
2.286000 0.3400 0.3400 0.3420 0.3440 0.3450
2.320080 0.3450 0.3450 0.3440 0.3420 0.3400
2.354000 0.3420 0.3470 0.3470 0.3500 0.3520
2.388080 0.3560 0.3570 0.3610 0.3620 0.3640
2.422000 0.3640 0.3660 0.3670 0.3670 0.3690
2.456080 0.3670 0.3670 0.3660 0.3670 0.3670
2.491000 0.3690 0.3690 0.3670 0.3690 0.3710
2.525080 0.3730 0.3740 0.3760 0.3790 0.3810
2.559000 0.3830 0.3830 0.3850 0.3880 0.3880
2.593080 0.3850 0.3760 0.3760 0.3790 0.3830
2.627000 0.3850 0.3880 0.3910 0.3960 0.4000
2.661080 0.4050 0.4080 0.4080 0.4070 0.4070
2.695000 0.4050 0.3980 0.3950 0.3850 0.3810
2.729080 0.3830 0.3850 0.3880 0.3850 0.3880
2.763000 0.3880 0.3900 0.3960 0.3960 0.4030
2.797080 0.4100 0.4120 0.4120 0.4120 0.4120
2.831000 0.4130 0.4100 0.4100 0.4120 0.4130
2.865080 0.4150 0.4150 0.4150 0.4130 0.4100
2.899000 0.4080 0.4080 0.4030 0.4020 0.3960
2.933080 0.3950 0.3910 0.3900 0.3900 0.3950
2.967000 0.4080 0.4150 0.4200 0.4240 0.4250
3.001080 0.4250 0.4270 0.4270 0.4270 0.4270
3.036000 0.4270 0.4270 0.4270 0.4270 0.4290
3.070080 0.4290 0.4310 0.4320 0.4340 0.4320
3.104000 0.4320 0.4320 0.4310 0.4310 0.4290
3.138080 0.4240 0.4220 0.4220 0.4220 0.4240
3.172000 0.4240 0.4220 0.4220 0.4200 0.4190
3.206080 0.4170 0.4100 0.4030 0.3950 0.3900
3.240000 0.3900 0.4000 0.4240 0.4250 0.4250
3.274080 0.4240 0.4200 0.4170 0.4130 0.4100
3.308000 0.4050 0.3980 0.3860 0.3690 0.3450
3.342080 0.3150 0.2740 0.2210 0.1870 0.1460
3.376000 0.1190 0.1020 0.0910 0.0830 0.0740
3.410080 0.0710 0.0680 0.0640 0.0660 0.0740
3.444000 0.0850 0.1050 0.1150 0.1340 0.1490
3.478080 0.1610 0.1630 0.1630 0.1630 0.1530
3.512000 0.1530 0.1720 0.2190 0.2700 0.3200
3.546080 0.3760 0.4750 0.5110 0.5460 0.5770
3.581000 0.5970 0.6080 0.6130 0.6140 0.6160
3.615080 0.6180 0.6250 0.6300 0.6330 0.6380
3.649000 0.6400 0.6430 0.6450 0.6450 0.6450
3.683080 0.6450 0.6470 0.6470 0.6540 0.6570
3.717000 0.6600 0.6660 0.6760 0.6760 0.6760
3.751080 0.6740 0.6740 0.6740 0.6760 0.6790
3.785000 0.6840 0.6840 0.6860 0.6880 0.6910
3.819080 0.6960 0.7010 0.7060 0.7120 0.7130
3.853000 0.7130 0.7170 0.7180 0.7220 0.7270
3.887080 0.7300 0.7290 0.7300 0.7320 0.7350
3.921000 0.7410 0.7420 0.7440 0.7460 0.7470
3.955080 0.7490 0.7510 0.7520 0.7540 0.7560
3.989000 0.7560 0.7580 0.7630 0.7680 0.7680
4.023080 0.7610 0.7560 0.7520 0.7510 0.7490
4.057000 0.7470 0.7410 0.7300 0.7220 0.7170
4.091080 0.7080 0.7000 0.6910 0.6780 0.6620
4.126000 0.6430 0.6260 0.6090 0.5940 0.5770
4.160080 0.5700 0.5630 0.5500 0.5110 0.4650
4.194000 0.4420 0.4170 0.3880 0.3590 0.3320
4.228080 0.3040 0.2820 0.2650 0.2530 0.2380
4.262000 0.2290 0.2260 0.2230 0.2190 0.2190
4.296080 0.2180 0.2180 0.2180 0.2180 0.2180
4.330000 0.2180 0.2180 0.2180 0.2160 0.2140
4.364080 0.2120 0.2040 0.1900 0.1830 0.1600
4.398000 0.1340 0.1030 0.0780 0.0730 0.0690
4.432080 0.0640 0.0610 0.0590 0.0590 0.0590
4.466000 0.0610 0.0640 0.0680 0.0690 0.0710
4.500080 0.0730 0.0730 0.0740 0.0810 0.0980
4.534000 0.1170 0.1290 0.1320 0.1430 0.1490
4.568080 0.1560 0.1630 0.1680 0.1730 0.1750
4.602000 0.1850 0.1970 0.2060 0.2110 0.2160
4.636080 0.2240 0.2290 0.2310 0.2330 0.2330
4.671000 0.2350 0.2400 0.2470 0.2570 0.2700
4.705080 0.2840 0.2910 0.3030 0.3200 0.3400
4.739000 0.3620 0.3850 0.4020 0.4170 0.4240
4.773080 0.4360 0.4440 0.4540 0.4610 0.4680
4.807000 0.4730 0.4750 0.4780 0.4830 0.4880
4.841080 0.4950 0.4990 0.5000 0.5040 0.5090
4.875000 0.5090 0.5110 0.5110 0.5110 0.5120
4.909080 0.5160 0.5190 0.5240 0.5260 0.5260
4.943000 0.5280 0.5330 0.5380 0.5410 0.5430
4.977080 0.5450 0.5500 0.5530 0.5580 0.5620
5.011000 0.5670 0.5740 0.5770 0.5800 0.5820
5.045080 0.5840 0.5860 0.5870 0.5890 0.5910
5.079000 0.5910 0.5970 0.5990 0.6010 0.6030
5.113080 0.6040 0.6040 0.6060 0.6060 0.6090
5.147000 0.6110 0.6140 0.6160 0.6180 0.6210
5.181080 0.6230 0.6260 0.6300 0.6300 0.6320
5.216000 0.6400 0.6420 0.6430 0.6450 0.6430
5.250080 0.6400 0.6420 0.6430 0.6470 0.6490
5.284000 0.6500 0.6520 0.6540 0.6570 0.6590
5.318080 0.6620 0.6660 0.6690 0.6710 0.6740
5.352000 0.6780 0.6780 0.6790 0.6780 0.6740
5.386080 0.6720 0.6760 0.6790 0.6810 0.6830
5.420000 0.6840 0.6860 0.6880 0.6890 0.7240
5.454080 0.6960 0.6960 0.6960 0.6960 0.6960
5.488000 0.6980 0.6980 0.7010 0.7030 0.7030
5.522080 0.7030 0.7030 0.7030 0.7010 0.7000
5.556000 0.6980 0.6930 0.6910 0.6880 0.6890
5.590080 0.6880 0.6830 0.6780 0.6760 0.6720
5.624000 0.6760 0.6690 0.6570 0.6500 0.6430
5.658080 0.6420 0.6380 0.6380 0.6470 0.6540
5.692000 0.6590 0.6640 0.6690 0.6690 0.6640
5.726080 0.6620 0.6600 0.6590 0.6540 0.6490
5.761000 0.6430 0.6400 0.6380 0.6330 0.6250
5.795080 0.6110 0.6040 0.5940 0.5920 0.5970
5.829000 0.6060 0.6080 0.6080 0.6010 0.6010
5.863080 0.6010 0.6010 0.6110 0.6130 0.6140
5.897000 0.6180 0.6250 0.6320 0.6320 0.6210
5.931080 0.6210 0.6230 0.6230 0.6230 0.6260
5.965000 0.6250 0.6200 0.6140 0.6110 0.6090
5.999080 0.6090 0.6090 0.6080 0.6080 0.6060
6.033000 0.6040 0.6040 0.6040 0.6030 0.6030
6.067080 0.6040 0.6040 0.6060 0.6090 0.6110
6.101000 0.6140 0.6200 0.6320 0.6400 0.6430
6.135080 0.6450 0.6490 0.6590 0.6790 0.6980
6.169000 0.7030 0.7130 0.7200 0.7220 0.7270
6.203080 0.7300 0.7340 0.7370 0.7420 0.7470
6.237000 0.7440 0.7410 0.7440 0.7460 0.7490
6.271080 0.7510 0.7490 0.7470 0.7460 0.7440
6.306000 0.7420 0.7420 0.7410 0.7410 0.7370
6.340080 0.7300 0.7150 0.7000 0.6880 0.6740
6.374000 0.6600 0.6400 0.6090 0.5800 0.5310
6.408080 0.4150 0.3660 0.3320 0.3040 0.2840
6.442000 0.2700 0.2580 0.2520 0.2520 0.2620
6.476080 0.2910 0.3110 0.3350 0.3570 0.3760
6.510000 0.4000 0.4220 0.4440 0.4560 0.4770
6.544080 0.4970 0.5090 0.5210 0.5360 0.5600
6.578000 0.5770 0.5940 0.5970 0.6060 0.6110
6.612080 0.6160 0.6210 0.6250 0.6280 0.6300
6.646000 0.6300 0.6320 0.6330 0.6350 0.6350
6.680080 0.6370 0.6380 0.6380 0.6350 0.6230
6.714000 0.6160 0.6040 0.5970 0.5860 0.5720
6.748080 0.5600 0.5500 0.5310 0.5040 0.4270
6.782000 0.3960 0.3850 0.3670 0.3470 0.3450
6.816080 0.3450 0.3470 0.3490 0.3520 0.3570
6.851000 0.3730 0.3860 0.3960 0.4070 0.4250
6.885080 0.4370 0.4490 0.4710 0.4880 0.5000
6.919000 0.5110 0.5340 0.5550 0.5750 0.5960
6.953080 0.6110 0.6320 0.6500 0.6620 0.6790
6.987000 0.6910 0.6910 0.6860 0.6810 0.6760
7.021080 0.6710 0.6710 0.6760 0.6760 0.6740
7.055000 0.6710 0.6600 0.6400 0.6140 0.5790
7.089080 0.5400 0.4410 0.3960 0.3520 0.3110
7.123000 0.2640 0.2600 0.2640 0.2770 0.3040
7.157080 0.3400 0.3690 0.4020 0.4460 0.4680
7.191000 0.4780 0.4920 0.4970 0.5000 0.5000
7.225080 0.4820 0.4710 0.4580 0.4410 0.4220
7.259000 0.3960 0.3740 0.3450 0.3250 0.2620
7.293080 0.2450 0.2450 0.2740 0.2750 0.2750
7.327000 0.2790 0.2860 0.3010 0.3350 0.3640
7.361080 0.3930 0.4030 0.4120 0.4200 0.4270
7.396000 0.4660 0.4870 0.5050 0.5510 0.5910
7.430080 0.6110 0.6200 0.6230 0.6280 0.6350
7.464000 0.6490 0.6640 0.6810 0.6930 0.6980
7.498080 0.7000 0.7010 0.7080 0.7130 0.7180
7.532000 0.7200 0.7240 0.7270 0.7290 0.7300
7.566080 0.7300 0.7270 0.7290 0.7300 0.7340
7.600000 0.7390 0.7420 0.7490 0.7470 0.7490
7.634080 0.7510 0.7510 0.7520 0.7560 0.7540
7.668000 0.7520 0.7510 0.7520 0.7560 0.7590
7.702080 0.7610 0.7610 0.7610 0.7610 0.7580
7.736000 0.7580 0.7610 0.7680 0.7700 0.7700
7.770080 0.7700 0.7700 0.7700 0.7680 0.7750
7.804000 0.7750 0.7710 0.7660 0.7660 0.7700
7.838080 0.7710 0.7710 0.7710 0.7730 0.7750
7.873000 0.7780 0.7780 0.7760 0.7730 0.7730
7.907080 0.7730 0.7750 0.7780 0.7780 0.7750
7.941000 0.7750 0.7750 0.7750 0.7760 0.7800
7.975080 0.7800 0.7780 0.7750 0.7760 0.7750
8.009000 0.7700 0.7700 0.7660 0.7680 0.7610
8.043080 0.7590 0.7590 0.7590 0.7610 0.7610
8.077000 0.7580 0.7560 0.7580 0.7540 0.7470
8.111080 0.7410 0.7320 0.7050 0.6640 0.6350
8.145000 0.5940 0.5400 0.4510 0.4200 0.3980
8.179080 0.3980 0.4310 0.4750 0.5170 0.5860
8.213000 0.6280 0.6590 0.6740 0.6910 0.7050
8.247080 0.7220 0.7290 0.7350 0.7460 0.7520
8.281000 0.7580 0.7610 0.7680 0.7710 0.7730
8.315080 0.7760 0.7760 0.7780 0.7780 0.7800
8.349000 0.7800 0.7800 0.7780 0.7680 0.7590
8.383080 0.7460 0.7350 0.7180 0.6780 0.6140
8.418000 0.5770 0.5400 0.5070 0.4630 0.4510
8.452080 0.4460 0.4590 0.4590 0.4590 0.4580
8.486000 0.4480 0.4420 0.4390 0.4310 0.4250
8.520080 0.4250 0.4310 0.4440 0.4580 0.4730
8.554000 0.4850 0.4990 0.5120 0.5260 0.5580
8.588080 0.5910 0.6010 0.6130 0.6250 0.6400
8.622000 0.6500 0.6550 0.6670 0.6830 0.6960
8.656080 0.7030 0.7100 0.7130 0.7200 0.7290
8.690000 0.7370 0.7440 0.7520 0.7610 0.7680
8.724080 0.7710 0.7750 0.7810 0.7880 0.7900
8.758000 0.7930 0.7980 0.8020 0.8020 0.8040
8.792080 0.8100 0.8140 0.8170 0.8190 0.8220
8.826000 0.8260 0.8260 0.8270 0.8270 0.8310
8.860080 0.8330 0.8340 0.8340 0.8330 0.8330
8.894000 0.8330 0.8340 0.8380 0.8390 0.8390
8.928080 0.8380 0.8390 0.8390 0.8410 0.8430
8.963000 0.8430 0.8440 0.8440 0.8440 0.8440
8.997080 0.8440 0.8430 0.8410 0.8390 0.8390
9.031000 0.8380 0.8380 0.8410 0.8410 0.8410
9.065080 0.8390 0.8360 0.8310 0.8310 0.8340
9.099000 0.8360 0.8380 0.8380 0.8360 0.8340
9.133080 0.8310 0.8330 0.8330 0.8330 0.8330
9.167000 0.8310 0.8310 0.8310 0.8310 0.8310
9.201080 0.8220 0.8210 0.8210 0.8220 0.8240
9.235000 0.8270 0.8290 0.8340 0.8340 0.8340
9.269080 0.8330 0.8290 0.8220 0.8210 0.8210
9.303000 0.8210 0.8210 0.8210 0.8210 0.8260
9.337080 0.8260 0.8240 0.8210 0.8190 0.8190
9.371000 0.8140 0.8040 0.7950 0.7830 0.7640
9.405080 0.7420 0.6790 0.6300 0.6110 0.5700
9.439000 0.5510 0.5510 0.5620 0.6030 0.6420
9.473080 0.6740 0.6960 0.7170 0.7290 0.7460
9.508000 0.7510 0.7610 0.7710 0.7780 0.7830
9.542080 0.7930 0.7980 0.8040 0.8120 0.8160
9.576000 0.8170 0.8190 0.8270 0.8290 0.8270
9.610080 0.8220 0.8220 0.8210 0.8170 0.8120
9.644000 0.8050 0.8000 0.7920 0.7830 0.7710
9.678080 0.7610 0.7470 0.7320 0.7150 0.7000
9.712000 0.6780 0.6500 0.6130 0.5700 0.5160
9.746080 0.4120 0.3660 0.3320 0.2990 0.2840
9.780000 0.2820 0.2840 0.2890 0.2980 0.3060
9.814080 0.3150 0.3200 0.3280 0.3400 0.3560
9.848000 0.3730 0.4070 0.4560 0.4830 0.5110
9.882080 0.5580 0.6030 0.6430 0.6790 0.7120
9.916000 0.7370 0.7590 0.7750 0.7900 0.8000
9.950080 0.8050 0.8170 0.8240 0.8310 0.8340
9.984000 0.8390 0.8410 0.8480 0.8500 0.8510
10.018080 0.8560 0.8600 0.8620 0.8670 0.8670
10.053000 0.8680 0.8730 0.8750 0.8750 0.8770
10.087080 0.8770 0.8770 0.8770 0.8770 0.8790
10.121000 0.8800 0.8820 0.8820 0.8800 0.8820
10.155080 0.8840 0.8870 0.8870 0.8850 0.8870
10.189000 0.8870 0.8890 0.8890 0.8900 0.8900
10.223080 0.8890 0.8890 0.8890 0.8870 0.8870
10.257000 0.8850 0.8870 0.8870 0.8890 0.8890
10.291080 0.8900 0.8920 0.8940 0.8960 0.8960
10.325000 0.8970 0.8970 0.8990 0.9010 0.9020
10.359080 0.9040 0.9040 0.9060 0.9060 0.9080
10.393000 0.9090 0.9110 0.9110 0.9140 0.9140
10.427080 0.9180 0.9230 0.9230 0.9190 0.9190
10.461000 0.9180 0.9190 0.9190 0.9190 0.9180
10.495080 0.9160 0.9160 0.9180 0.9210 0.9260
10.529000 0.9300 0.9310 0.9310 0.9300 0.9280
10.563080 0.9260 0.9260 0.9250 0.9250 0.9250
10.598000 0.9260 0.9330 0.9330 0.9300 0.9300
10.632080 0.9260 0.9260 0.9280 0.9300 0.9300
10.666000 0.9310 0.9310 0.9310 0.9310 0.9300
10.700080 0.9280 0.9250 0.9230 0.9210 0.9180
10.734000 0.9180 0.9160 0.9110 0.9090 0.9080
10.768080 0.9080 0.9020 0.9010 0.8970 0.8920
10.802000 0.8900 0.8800 0.8730 0.8650 0.8580
10.836080 0.8440 0.8270 0.8000 0.7760 0.7390
10.870000 0.7080 0.6710 0.6400 0.5800 0.5670
10.904080 0.5190 0.4390 0.3900 0.3500 0.3080
10.938000 0.2740 0.2500 0.2360 0.2230 0.2160
10.972080 0.2160 0.2260 0.2480 0.2620 0.2820
11.006000 0.3030 0.3300 0.3590 0.3900 0.3960
11.040080 0.4050 0.4170 0.4240 0.4270 0.4240
11.074000 0.4190 0.4190 0.4220 0.4310 0.4370
11.108080 0.4540 0.4800 0.4950 0.5110 0.5460
11.143000 0.5800 0.5970 0.6200 0.6370 0.6500
11.177080 0.6570 0.6590 0.6600 0.6640 0.6710
11.211000 0.6790 0.6910 0.7010 0.7130 0.7240
11.245080 0.7350 0.7440 0.7560 0.7660 0.7710
11.279000 0.7780 0.7930 0.8000 0.8070 0.8090
11.313080 0.8100 0.8160 0.8270 0.8380 0.8430
11.347000 0.8480 0.8510 0.8530 0.8580 0.8620
11.381080 0.8650 0.8670 0.8680 0.8700 0.8720
11.415000 0.8750 0.8800 0.8820 0.8820 0.8800
11.449080 0.8790 0.8730 0.8720 0.8720 0.8720
11.483000 0.8720 0.8790 0.8790 0.8770 0.8680
11.517080 0.8650 0.8620 0.8600 0.8580 0.8560
11.551000 0.8560 0.8560 0.8560 0.8560 0.8560
11.585080 0.8560 0.8580 0.8620 0.8650 0.8770
11.619000 0.8840 0.8820 0.8800 0.8790 0.8790
11.653080 0.8770 0.8730 0.8730 0.8720 0.8700
11.688000 0.8680 0.8620 0.8550 0.8480 0.8410
11.722080 0.8340 0.8290 0.8240 0.8190 0.8170
11.756000 0.8050 0.7980 0.7870 0.7750 0.7580
11.790080 0.7460 0.7410 0.7440 0.7460 0.7470
11.824000 0.7540 0.7580 0.7610 0.7640 0.7660
11.858080 0.7680 0.7680 0.7640 0.7580 0.7460
11.892000 0.7290 0.7050 0.6840 0.6570 0.6370
11.926080 0.6090 0.5920 0.5910 0.5920 0.6040
11.960000 0.6200 0.6420 0.6640 0.6830 0.6950
11.994080 0.7050 0.7130 0.7170 0.7220 0.7270
12.028000 0.7300 0.7370 0.7440 0.7540 0.7680
12.062080 0.7760 0.7880 0.7970 0.8000 0.8070
12.096000 0.8120 0.8170 0.8170 0.8170 0.8170
12.130080 0.8140 0.8100 0.8040 0.7920 0.7800
12.164000 0.7780 0.7730 0.7630 0.7610 0.7580
12.198080 0.7540 0.7460 0.7390 0.7320 0.7250
12.233000 0.7180 0.7030 0.6880 0.6660 0.6430
12.267080 0.6210 0.5990 0.5790 0.5550 0.5310
12.301000 0.5040 0.4460 0.4120 0.3740 0.3500
12.335080 0.3210 0.2910 0.2620 0.2330 0.2060
12.369000 0.1830 0.1660 0.1550 0.1430 0.1320
12.403080 0.1290 0.1270 0.1340 0.1550 0.1680
12.437000 0.1950 0.2160 0.2350 0.2550 0.2740
12.471080 0.3010 0.3250 0.3490 0.3670 0.3850
12.505000 0.3980 0.4120 0.4310 0.4540 0.4750
12.539080 0.4950 0.5050 0.5140 0.5310 0.5480
12.573000 0.5670 0.5860 0.6010 0.6130 0.6140
12.607080 0.6160 0.6200 0.6200 0.6200 0.6210
12.641000 0.6200 0.6200 0.6210 0.6260 0.6320
12.675080 0.6400 0.6470 0.6540 0.6640 0.6720
12.709000 0.6860 0.6890 0.6930 0.6930 0.6890
12.743080 0.6880 0.6880 0.6860 0.6880 0.6960
12.778000 0.7060 0.7170 0.7250 0.7350 0.7460
12.812080 0.7560 0.7630 0.7700 0.7750 0.7800
12.846000 0.7810 0.7870 0.7900 0.7970 0.8000
12.880080 0.8050 0.8070 0.8070 0.8070 0.8050
12.914000 0.8040 0.8050 0.8050 0.8090 0.8090
12.948080 0.8100 0.8120 0.8100 0.8090 0.8070
12.982000 0.8070 0.8040 0.8050 0.8020 0.7980
13.016080 0.7930 0.7920 0.7900 0.7900 0.7880
13.050000 0.7850 0.7810 0.7780 0.7800 0.7800
13.084080 0.7780 0.7760 0.7750 0.7760 0.7780
13.118000 0.7810 0.7810 0.7760 0.7760 0.7730
13.152080 0.7750 0.7810 0.7870 0.7870 0.7870
13.186000 0.7870 0.7810 0.7850 0.7920 0.7970
13.220080 0.7970 0.7900 0.7900 0.7920 0.7930
13.255000 0.7970 0.7980 0.7980 0.7950 0.7970
13.289080 0.7980 0.8000 0.8000 0.8020 0.8050
13.323000 0.8090 0.8100 0.8120 0.8140 0.8160
13.357080 0.8170 0.8170 0.8160 0.8170 0.8190
13.391000 0.8190 0.8220 0.8270 0.8310 0.8340
13.425080 0.8360 0.8360 0.8360 0.8340 0.8340
13.459000 0.8340 0.8330 0.8310 0.8310 0.8310
13.493080 0.8310 0.8310 0.8310 0.8310 0.8310
13.527000 0.8310 0.8380 0.8380 0.8380 0.8380
13.561080 0.8340 0.8340 0.8340 0.8310 0.8310
13.595000 0.8310 0.8310 0.8310 0.8330 0.8330
13.629080 0.8340 0.8390 0.8410 0.8390 0.8390
13.663000 0.8390 0.8390 0.8360 0.8380 0.8360
13.697080 0.8340 0.8340 0.8340 0.8340 0.8380
13.731000 0.8380 0.8380 0.8380 0.8340 0.8330
13.765080 0.8310 0.8310 0.8310 0.8310 0.8340
13.800000 0.8340 0.8330 0.8290 0.8290 0.8270
13.834080 0.8270 0.8270 0.8260 0.8210 0.8190
13.868000 0.8190 0.8210 0.8220 0.8240 0.8220
13.902080 0.8210 0.8190 0.8160 0.8160 0.8170
13.936000 0.8210 0.8240 0.8260 0.8270 0.8310
13.970080 0.8340 0.8380 0.8410 0.8410 0.8430
14.004000 0.8440 0.8430 0.8430 0.8430 0.8430
14.038080 0.8460 0.8510 0.8530 0.8530 0.8530
14.072000 0.8530 0.8530 0.8510 0.8510 0.8500
14.106080 0.8500 0.8500 0.8500 0.8500 0.8500
14.140000 0.8480 0.8460 0.8460 0.8440 0.8440
14.174080 0.8460 0.8480 0.8480 0.8500 0.8480
14.208000 0.8460 0.8440 0.8390 0.8380 0.8380
14.242080 0.8360 0.8340 0.8330 0.8330 0.8330
14.276000 0.8340 0.8340 0.8330 0.8330 0.8330
14.310080 0.8310 0.8290 0.8270 0.8270 0.8270
14.345000 0.8220 0.8190 0.8170 0.8160 0.8160
14.379080 0.8140 0.8120 0.8120 0.8100 0.8100
14.413000 0.8090 0.8090 0.8070 0.8050 0.8020
14.447080 0.7970 0.7950 0.7950 0.7930 0.7930
14.481000 0.7920 0.7900 0.7900 0.7880 0.7870
14.515080 0.7850 0.7830 0.7810 0.7780 0.7750
14.549000 0.7710 0.7680 0.7660 0.7660 0.7660
14.583080 0.7640 0.7630 0.7630 0.7610 0.7590
14.617000 0.7590 0.7580 0.7580 0.7580 0.7560
14.651080 0.7520 0.7510 0.7490 0.7460 0.7390
14.685000 0.7370 0.7350 0.7320 0.7290 0.7270
14.719080 0.7270 0.7270 0.7300 0.7290 0.7270
14.753000 0.7250 0.7240 0.7220 0.7180 0.7150
14.787080 0.7120 0.7080 0.7060 0.7060 0.7030
14.821000 0.7010 0.7010 0.7010 0.7010 0.7010
14.855080 0.7000 0.6980 0.6980 0.6980 0.6960
14.890000 0.6910 0.6890 0.6880 0.6880 0.6860
14.924080 0.6830 0.6840 0.6840 0.6830 0.6810
14.958000 0.6790 0.6790 0.6780 0.6720 0.6670
14.992080 0.6640 0.6590 0.6500 0.6420 0.6330
15.026000 0.6260 0.6210 0.6090 0.6010 0.5960
15.060080 0.5890 0.5820 0.5800 0.5840 0.5870
15.094000 0.5890 0.5890 0.5910 0.5940 0.5960
15.128080 0.5970 0.6010 0.6040 0.6060 0.6090
15.162000 0.6130 0.6160 0.6200 0.6210 0.6200
15.196080 0.6180 0.6200 0.6180 0.6160 0.6140
15.230000 0.6040 0.6010 0.5990 0.5970 0.5960
15.264080 0.5920 0.5910 0.5910 0.5890 0.5890
15.298000 0.5870 0.5870 0.5840 0.5770 0.5740
15.332080 0.5720 0.5700 0.5680 0.5670 0.5630
15.366000 0.5600 0.5570 0.5510 0.5500 0.5460
15.400080 0.5450 0.5400 0.5360 0.5310 0.5280
15.435000 0.5220 0.5170 0.5120 0.5110 0.5120
15.469080 0.5110 0.5070 0.5070 0.5020 0.5000
15.503000 0.4990 0.4970 0.4920 0.4880 0.4830
15.537080 0.4800 0.4770 0.4730 0.4700 0.4700
15.571000 0.4680 0.4680 0.4660 0.4650 0.4590
15.605080 0.4530 0.4480 0.4460 0.4440 0.4440
15.639000 0.4420 0.4420 0.4420 0.4390 0.4370
15.673080 0.4340 0.4310 0.4310 0.4310 0.4290
15.707000 0.4270 0.4270 0.4240 0.4200 0.4170
15.741080 0.4190 0.4190 0.4170 0.4150 0.4150
15.775000 0.4130 0.4120 0.4120 0.4120 0.4100
15.809080 0.4070 0.4050 0.4050 0.4030 0.4030
15.843000 0.4030 0.4070 0.4070 0.4050 0.4030
15.877080 0.4030 0.4020 0.4000 0.3960 0.3960
15.911000 0.3960 0.3980 0.4000 0.4000 0.4020
15.945080 0.4020 0.4020 0.4030 0.4020 0.4020
15.980000 0.4030 0.4050
##END=
