##TITLE=N-METHYL MORPHOLINE HYDROCHLORIDE
##JCAMP-DX=4.24
##DATA TYPE=INFRARED SPECTRUM
##CLASS=COBLENTZ
##ORIGIN=STANDARD OIL OF OHIO
##OWNER=COBLENTZ SOCIETY
Collection (C) 2018 copyright by the U.S. Secretary of Commerce
on behalf of the United States of America. All rights reserved.
##DATE=Not specified, most likely prior to 1970
##NAMES=N-METHYL TETRAHYDRO-2H-1,4-OXAZINE HYDROCHLORIDE
##MOLFORM=C5 H12 Cl N O
##SOURCE REFERENCE=COBLENTZ NO. 2057
##$NIST ID=B6002057
##$NIST SOURCE=COBLENTZ
##$NIST IMAGE=cob2057
##SPECTROMETER/DATA SYSTEM=PERKIN-ELMER
##STATE=SOLID (KBr PELLET)
##SAMPLING PROCEDURE=TRANSMISSION
##RESOLUTION=4
##DATA PROCESSING=DIGITIZED BY NIST FROM HARD COPY
##XUNITS=MICROMETERS
##YUNITS=TRANSMITTANCE
##XFACTOR=1.000000
##YFACTOR=1
##DELTAX=000.006771
##FIRSTX=2.027
##LASTX=15.4804
##FIRSTY=0.252
##MAXX=15.4804
##MINX=2.027
##MAXY=0.913
##MINY=0.011
##NPOINTS=1988
##XYDATA=(X++(Y..Y))
2.027000 0.2520 0.2550 0.2570 0.2580 0.2600
2.060871 0.2620 0.2640 0.2670 0.2690 0.2700
2.095000 0.2720 0.2740 0.2770 0.2810 0.2820
2.128871 0.2820 0.2840 0.2860 0.2870 0.2890
2.162000 0.2910 0.2930 0.2940 0.2960 0.2980
2.195871 0.3010 0.3030 0.3040 0.3080 0.3080
2.230000 0.3080 0.3080 0.3080 0.3060 0.3040
2.263871 0.3010 0.2990 0.2990 0.2990 0.3010
2.298000 0.3080 0.3110 0.3130 0.3180 0.3230
2.331871 0.3250 0.3280 0.3280 0.3320 0.3330
2.366000 0.3330 0.3390 0.3390 0.3400 0.3420
2.399871 0.3470 0.3500 0.3500 0.3520 0.3540
2.433000 0.3560 0.3590 0.3590 0.3610 0.3610
2.466871 0.3610 0.3610 0.3620 0.3670 0.3690
2.501000 0.3740 0.3780 0.3830 0.3860 0.3900
2.534871 0.3900 0.3910 0.3950 0.3980 0.4000
2.569000 0.4000 0.4020 0.4020 0.4030 0.4030
2.602871 0.4030 0.4050 0.4050 0.4050 0.4080
2.636000 0.4080 0.4120 0.4130 0.4170 0.4190
2.669871 0.4190 0.4200 0.4220 0.4240 0.4290
2.704000 0.4310 0.4310 0.4310 0.4310 0.4310
2.737871 0.4310 0.4290 0.4240 0.4200 0.4130
2.772000 0.4070 0.3980 0.3830 0.3790 0.3640
2.805871 0.3470 0.3420 0.3330 0.3300 0.3250
2.840000 0.3200 0.3010 0.2960 0.2910 0.2840
2.873871 0.2810 0.2790 0.2750 0.2740 0.2740
2.907000 0.2720 0.2720 0.2740 0.2740 0.2740
2.940871 0.2750 0.2810 0.2890 0.2960 0.3010
2.975000 0.3110 0.3200 0.3300 0.3350 0.3420
3.008871 0.3490 0.3560 0.3610 0.3660 0.3710
3.043000 0.3790 0.3860 0.3880 0.3880 0.3900
3.076871 0.3930 0.4000 0.4080 0.4120 0.4150
3.110000 0.4190 0.4200 0.4240 0.4270 0.4290
3.143871 0.4310 0.4320 0.4320 0.4360 0.4370
3.178000 0.4390 0.4390 0.4390 0.4390 0.4390
3.211871 0.4390 0.4360 0.4320 0.4290 0.4270
3.246000 0.4200 0.4120 0.4030 0.4000 0.3910
3.279871 0.3850 0.3790 0.3730 0.3350 0.2690
3.314000 0.2670 0.2670 0.2670 0.2670 0.2580
3.347871 0.2470 0.2190 0.2040 0.1970 0.1800
3.381000 0.1460 0.1240 0.1020 0.0810 0.0710
3.414871 0.0640 0.0630 0.0590 0.0590 0.0570
3.449000 0.0570 0.0690 0.0800 0.0850 0.0860
3.482871 0.0900 0.1000 0.1260 0.1610 0.2010
3.517000 0.2400 0.2750 0.2810 0.2890 0.2910
3.550871 0.2910 0.2910 0.2890 0.2820 0.2720
3.584000 0.2640 0.2600 0.2500 0.2360 0.2290
3.617871 0.2060 0.1850 0.1560 0.1460 0.1200
3.652000 0.1020 0.0910 0.0830 0.0780 0.0680
3.685871 0.0630 0.0570 0.0400 0.0280 0.0230
3.720000 0.0200 0.0170 0.0170 0.0150 0.0150
3.753871 0.0130 0.0130 0.0130 0.0130 0.0130
3.787000 0.0130 0.0130 0.0110 0.0110 0.0110
3.820871 0.0110 0.0110 0.0110 0.0110 0.0110
3.855000 0.0220 0.0280 0.0390 0.0510 0.0630
3.888871 0.0730 0.0860 0.0980 0.1020 0.1020
3.923000 0.1100 0.1120 0.1150 0.1150 0.1150
3.956871 0.1170 0.1190 0.1200 0.1220 0.1220
3.991000 0.1220 0.1140 0.1090 0.1020 0.0850
4.024871 0.0760 0.0730 0.0710 0.0710 0.0860
4.058000 0.1150 0.1460 0.2010 0.2500 0.2720
4.091871 0.2940 0.3030 0.3200 0.3450 0.3620
4.126000 0.3900 0.4030 0.4200 0.4310 0.4480
4.159871 0.4510 0.4630 0.4750 0.4850 0.4940
4.194000 0.4970 0.5000 0.5120 0.5190 0.5220
4.227871 0.5260 0.5280 0.5290 0.5330 0.5340
4.261000 0.5380 0.5410 0.5460 0.5480 0.5510
4.294871 0.5510 0.5570 0.5620 0.5670 0.5750
4.329000 0.5840 0.5910 0.5990 0.6030 0.6110
4.362871 0.6140 0.6180 0.6200 0.6230 0.6230
4.397000 0.6230 0.6250 0.6250 0.6250 0.6250
4.430871 0.6260 0.6300 0.6350 0.6490 0.6520
4.465000 0.6540 0.6600 0.6640 0.6670 0.6710
4.498871 0.6720 0.6720 0.6740 0.6740 0.6740
4.532000 0.6760 0.6790 0.6830 0.6860 0.6890
4.565871 0.6930 0.6930 0.6950 0.6950 0.6950
4.600000 0.6960 0.6960 0.6980 0.6980 0.7000
4.633871 0.7000 0.7000 0.7010 0.7010 0.7030
4.668000 0.7030 0.7050 0.7050 0.7050 0.7050
4.701871 0.7050 0.7050 0.7050 0.7030 0.7030
4.735000 0.7030 0.7050 0.7050 0.7050 0.7060
4.768871 0.7060 0.7060 0.7060 0.7060 0.7080
4.803000 0.7120 0.7150 0.7170 0.7170 0.7180
4.836871 0.7180 0.7180 0.7180 0.7180 0.7180
4.871000 0.7180 0.7180 0.7200 0.7220 0.7220
4.904871 0.7220 0.7240 0.7250 0.7290 0.7320
4.939000 0.7340 0.7350 0.7370 0.7390 0.7410
4.972871 0.7420 0.7440 0.7440 0.7440 0.7460
5.006000 0.7460 0.7460 0.7460 0.7460 0.7460
5.039871 0.7460 0.7420 0.7410 0.7320 0.7250
5.074000 0.7180 0.7130 0.7130 0.7130 0.7180
5.107871 0.7300 0.7340 0.7410 0.7490 0.7490
5.142000 0.7490 0.7490 0.7490 0.7510 0.7510
5.175871 0.7490 0.7490 0.7490 0.7490 0.7490
5.209000 0.7510 0.7520 0.7540 0.7580 0.7580
5.242871 0.7610 0.7610 0.7610 0.7630 0.7630
5.277000 0.7640 0.7660 0.7660 0.7660 0.7700
5.310871 0.7700 0.7730 0.7730 0.7730 0.7750
5.345000 0.7750 0.7760 0.7780 0.7780 0.7780
5.378871 0.7780 0.7780 0.7780 0.7780 0.7780
5.412000 0.7780 0.7800 0.7800 0.7800 0.7810
5.445871 0.7810 0.7810 0.7850 0.7870 0.7870
5.480000 0.7870 0.7850 0.7850 0.7850 0.7850
5.513871 0.7850 0.7850 0.7850 0.7850 0.7850
5.548000 0.7850 0.7870 0.7870 0.7880 0.7880
5.581871 0.7880 0.7880 0.7880 0.7900 0.7900
5.616000 0.7900 0.7900 0.7900 0.7900 0.7880
5.649871 0.7870 0.7850 0.7850 0.7850 0.7850
5.683000 0.7850 0.7850 0.7830 0.7830 0.7830
5.716871 0.7830 0.7830 0.7830 0.7810 0.7780
5.751000 0.7730 0.7700 0.7590 0.7490 0.7410
5.784871 0.7390 0.7390 0.7390 0.7370 0.7350
5.819000 0.7340 0.7320 0.7300 0.7300 0.7300
5.852871 0.7300 0.7300 0.7300 0.7300 0.7300
5.886000 0.7320 0.7320 0.7320 0.7350 0.7370
5.919871 0.7390 0.7410 0.7410 0.7420 0.7440
5.954000 0.7460 0.7460 0.7440 0.7420 0.7390
5.987871 0.7370 0.7340 0.7300 0.7290 0.7250
6.022000 0.7250 0.7250 0.7240 0.7220 0.7180
6.055871 0.7170 0.7100 0.7080 0.7050 0.7030
6.090000 0.7030 0.7010 0.7000 0.7000 0.6930
6.123871 0.6930 0.6930 0.6910 0.6910 0.6910
6.157000 0.6910 0.6930 0.6930 0.6950 0.7000
6.190871 0.7010 0.7030 0.7080 0.7100 0.7130
6.225000 0.7180 0.7240 0.7290 0.7320 0.7370
6.258871 0.7420 0.7470 0.7510 0.7540 0.7580
6.293000 0.7590 0.7610 0.7610 0.7630 0.7630
6.326871 0.7630 0.7630 0.7590 0.7560 0.7520
6.360000 0.7510 0.7510 0.7510 0.7510 0.7490
6.393871 0.7490 0.7490 0.7470 0.7440 0.7410
6.428000 0.7370 0.7340 0.7300 0.7250 0.7240
6.461871 0.7220 0.7220 0.7200 0.7200 0.7180
6.496000 0.7170 0.7150 0.7120 0.7100 0.7030
6.529871 0.7010 0.7010 0.7010 0.7000 0.6980
6.564000 0.6980 0.6980 0.6980 0.6950 0.6910
6.597871 0.6890 0.6890 0.6880 0.6860 0.6830
6.631000 0.6780 0.6710 0.6640 0.6570 0.6540
6.664871 0.6520 0.6520 0.6500 0.6500 0.6490
6.699000 0.6450 0.6450 0.6400 0.6300 0.6160
6.732871 0.6010 0.5680 0.5000 0.4250 0.3520
6.767000 0.3210 0.2860 0.2060 0.1310 0.1070
6.800871 0.0980 0.0970 0.0980 0.1030 0.1090
6.834000 0.1120 0.1170 0.1240 0.1430 0.1600
6.867871 0.1800 0.2110 0.2330 0.2580 0.2910
6.902000 0.3610 0.4070 0.4130 0.4170 0.4100
6.935871 0.3780 0.3500 0.3250 0.3080 0.3060
6.970000 0.3040 0.3080 0.3520 0.3740 0.3880
7.003871 0.3880 0.3790 0.3740 0.3690 0.3690
7.037000 0.3830 0.4320 0.5040 0.5310 0.5620
7.070871 0.5750 0.5840 0.5910 0.5920 0.5920
7.105000 0.5920 0.5920 0.5840 0.5510 0.5090
7.138871 0.5000 0.4900 0.4820 0.4800 0.4850
7.173000 0.5020 0.5210 0.5410 0.5530 0.5650
7.206871 0.5770 0.5790 0.5790 0.5700 0.5410
7.241000 0.4030 0.3450 0.3370 0.3370 0.3370
7.274871 0.3370 0.3490 0.3960 0.4510 0.5120
7.308000 0.5550 0.5720 0.5890 0.6080 0.6210
7.341871 0.6330 0.6500 0.6710 0.6830 0.6890
7.376000 0.6980 0.7000 0.7000 0.7010 0.7050
7.409871 0.7060 0.7100 0.7100 0.7100 0.7100
7.444000 0.7130 0.7170 0.7220 0.7250 0.7270
7.477871 0.7240 0.7200 0.7130 0.6710 0.6250
7.511000 0.6060 0.5890 0.5820 0.5820 0.5910
7.544871 0.6130 0.6280 0.6400 0.6490 0.6500
7.579000 0.6500 0.6490 0.6490 0.6300 0.5740
7.612871 0.4360 0.3710 0.3590 0.3710 0.3880
7.647000 0.5510 0.6090 0.6350 0.6540 0.6740
7.680871 0.6980 0.7100 0.7220 0.7320 0.7420
7.715000 0.7490 0.7510 0.7520 0.7580 0.7610
7.748871 0.7640 0.7680 0.7700 0.7700 0.7700
7.782000 0.7660 0.7640 0.7580 0.7470 0.7320
7.815871 0.7100 0.6520 0.5840 0.5290 0.4990
7.850000 0.4880 0.4880 0.4990 0.5280 0.5680
7.883871 0.6090 0.6450 0.6760 0.7000 0.7240
7.918000 0.7390 0.7510 0.7580 0.7640 0.7700
7.951871 0.7750 0.7780 0.7810 0.7830 0.7850
7.985000 0.7850 0.7870 0.7880 0.7900 0.7920
8.018871 0.7930 0.7930 0.7950 0.7980 0.8000
8.053000 0.8000 0.8000 0.8000 0.8020 0.8040
8.086871 0.8040 0.8040 0.8020 0.8020 0.8020
8.121000 0.8040 0.8040 0.8040 0.8040 0.8040
8.154871 0.8040 0.8040 0.8040 0.8040 0.8040
8.189000 0.8040 0.8040 0.8040 0.8040 0.8020
8.222871 0.8020 0.8020 0.8020 0.8020 0.8020
8.256000 0.7980 0.7970 0.7900 0.7810 0.7680
8.289871 0.7460 0.7030 0.6600 0.6330 0.6300
8.324000 0.6300 0.6600 0.7050 0.7200 0.7270
8.357871 0.7290 0.7180 0.6980 0.6250 0.4560
8.392000 0.3420 0.2620 0.2600 0.2640 0.3130
8.425871 0.4150 0.5210 0.5790 0.6040 0.6500
8.459000 0.6720 0.6910 0.7100 0.7220 0.7340
8.492871 0.7440 0.7510 0.7630 0.7730 0.7730
8.527000 0.7760 0.7800 0.7810 0.7830 0.7870
8.560871 0.7870 0.7880 0.7880 0.7900 0.7920
8.595000 0.7970 0.8000 0.8000 0.8000 0.8000
8.628871 0.8020 0.8040 0.8040 0.8040 0.8040
8.663000 0.8040 0.8040 0.8040 0.8040 0.8020
8.696871 0.8000 0.8000 0.7980 0.7950 0.7950
8.730000 0.7930 0.7900 0.7880 0.7870 0.7830
8.763871 0.7800 0.7800 0.7780 0.7750 0.7710
8.798000 0.7680 0.7630 0.7560 0.7520 0.7490
8.831871 0.7390 0.7320 0.7300 0.7170 0.7120
8.866000 0.7030 0.7010 0.7000 0.6890 0.6810
8.899871 0.6710 0.6600 0.6520 0.6400 0.6230
8.933000 0.6130 0.5990 0.5600 0.5290 0.4820
8.966871 0.4390 0.3980 0.3450 0.2960 0.2470
9.001000 0.2120 0.1360 0.0830 0.0640 0.0540
9.034871 0.0510 0.0350 0.0300 0.0270 0.0270
9.069000 0.0270 0.0270 0.0300 0.0340 0.0490
9.102871 0.0690 0.1070 0.1240 0.1480 0.1580
9.136000 0.1630 0.1630 0.1550 0.1430 0.1220
9.169871 0.1100 0.1020 0.1000 0.1000 0.1020
9.204000 0.1410 0.1990 0.2350 0.2640 0.3270
9.237871 0.3640 0.4030 0.4420 0.4800 0.5090
9.272000 0.5400 0.5530 0.5790 0.5970 0.6180
9.305871 0.6540 0.6640 0.6780 0.6860 0.6930
9.340000 0.7010 0.7010 0.7010 0.7010 0.7010
9.373871 0.6910 0.6790 0.6570 0.6210 0.5510
9.407000 0.4360 0.3810 0.3660 0.3590 0.3590
9.440871 0.3730 0.4050 0.4310 0.4540 0.4630
9.475000 0.4700 0.4710 0.4700 0.4590 0.4420
9.508871 0.4370 0.4320 0.4120 0.4120 0.4830
9.543000 0.5380 0.5750 0.6080 0.6210 0.6330
9.576871 0.6450 0.6520 0.6540 0.6540 0.6520
9.610000 0.6300 0.5960 0.5210 0.4360 0.3620
9.643871 0.2640 0.2570 0.2570 0.2600 0.2700
9.678000 0.2820 0.3850 0.4510 0.4750 0.5020
9.711871 0.5220 0.5380 0.5530 0.5620 0.5700
9.746000 0.5700 0.5630 0.5460 0.5120 0.4240
9.779871 0.3330 0.2890 0.2890 0.2890 0.2930
9.814000 0.3810 0.4540 0.4950 0.5210 0.5500
9.847871 0.5800 0.6110 0.6330 0.6400 0.6550
9.881000 0.6690 0.6810 0.6980 0.7100 0.7180
9.914871 0.7200 0.7250 0.7320 0.7390 0.7420
9.949000 0.7490 0.7520 0.7520 0.7560 0.7590
9.982871 0.7610 0.7630 0.7630 0.7630 0.7610
10.017000 0.7560 0.7490 0.7440 0.7300 0.7170
10.050871 0.6810 0.6320 0.5960 0.5110 0.4220
10.084000 0.3470 0.2670 0.2090 0.1630 0.1480
10.117871 0.1440 0.1440 0.1510 0.1940 0.2210
10.152000 0.2550 0.2820 0.2980 0.3040 0.3200
10.185871 0.3400 0.3620 0.4200 0.4710 0.5050
10.220000 0.5330 0.5740 0.5970 0.6110 0.6300
10.253871 0.6490 0.6690 0.6830 0.6960 0.7010
10.288000 0.7100 0.7150 0.7240 0.7300 0.7350
10.321871 0.7410 0.7490 0.7510 0.7560 0.7630
10.355000 0.7710 0.7750 0.7760 0.7780 0.7810
10.388871 0.7880 0.7980 0.8000 0.8020 0.8090
10.423000 0.8120 0.8160 0.8190 0.8240 0.8270
10.456871 0.8290 0.8310 0.8310 0.8310 0.8330
10.491000 0.8330 0.8330 0.8330 0.8330 0.8330
10.524871 0.8330 0.8340 0.8360 0.8360 0.8390
10.558000 0.8500 0.8510 0.8530 0.8530 0.8550
10.591871 0.8560 0.8560 0.8560 0.8560 0.8560
10.626000 0.8560 0.8560 0.8560 0.8560 0.8560
10.659871 0.8560 0.8560 0.8560 0.8550 0.8550
10.694000 0.8550 0.8550 0.8550 0.8560 0.8560
10.727871 0.8560 0.8560 0.8580 0.8600 0.8620
10.761000 0.8630 0.8630 0.8630 0.8630 0.8630
10.794871 0.8630 0.8630 0.8630 0.8630 0.8630
10.829000 0.8630 0.8630 0.8630 0.8630 0.8630
10.862871 0.8650 0.8650 0.8650 0.8670 0.8680
10.897000 0.8700 0.8730 0.8730 0.8750 0.8750
10.930871 0.8750 0.8730 0.8730 0.8730 0.8730
10.965000 0.8730 0.8720 0.8700 0.8680 0.8670
10.998871 0.8630 0.8620 0.8580 0.8550 0.8500
11.032000 0.8430 0.8390 0.8310 0.8240 0.8190
11.065871 0.8100 0.8020 0.8000 0.7900 0.7870
11.100000 0.7710 0.7590 0.7490 0.7340 0.7050
11.133871 0.6790 0.6420 0.5970 0.5280 0.4650
11.168000 0.3980 0.3270 0.2570 0.1950 0.1510
11.201871 0.1140 0.1140 0.1150 0.1170 0.1610
11.235000 0.2500 0.2990 0.3690 0.4290 0.4830
11.268871 0.5330 0.5800 0.6230 0.6450 0.6690
11.303000 0.7010 0.7270 0.7420 0.7590 0.7660
11.336871 0.7780 0.7830 0.7880 0.7950 0.8000
11.371000 0.8020 0.8050 0.8090 0.8090 0.8090
11.404871 0.8090 0.8090 0.8090 0.8090 0.8000
11.439000 0.7980 0.7970 0.7900 0.7800 0.7610
11.472871 0.7460 0.7180 0.6860 0.6620 0.6140
11.506000 0.5670 0.5120 0.2940 0.1920 0.1480
11.539871 0.1190 0.1000 0.0830 0.0630 0.0630
11.574000 0.0630 0.0640 0.0810 0.1340 0.1990
11.607871 0.2480 0.3160 0.3690 0.4100 0.4630
11.642000 0.4990 0.5330 0.5910 0.6180 0.6420
11.675871 0.6660 0.6960 0.7010 0.7220 0.7420
11.709000 0.7520 0.7610 0.7700 0.7750 0.7780
11.742871 0.7800 0.7870 0.7920 0.7950 0.8020
11.777000 0.8020 0.8040 0.8070 0.8120 0.8190
11.810871 0.8260 0.8360 0.8430 0.8500 0.8510
11.845000 0.8580 0.8620 0.8700 0.8720 0.8750
11.878871 0.8790 0.8800 0.8800 0.8800 0.8820
11.913000 0.8840 0.8840 0.8840 0.8840 0.8840
11.946871 0.8840 0.8820 0.8820 0.8820 0.8820
11.980000 0.8820 0.8800 0.8790 0.8790 0.8790
12.013871 0.8800 0.8800 0.8800 0.8820 0.8820
12.048000 0.8840 0.8850 0.8870 0.8890 0.8900
12.081871 0.8920 0.8920 0.8960 0.8960 0.8960
12.116000 0.8960 0.8970 0.8970 0.8990 0.8990
12.149871 0.9010 0.9010 0.9010 0.9010 0.9010
12.183000 0.9010 0.9010 0.9020 0.9020 0.9020
12.216871 0.9040 0.9040 0.9060 0.9080 0.9090
12.251000 0.9090 0.9130 0.9130 0.9130 0.9130
12.284871 0.9130 0.9130 0.9130 0.9130 0.9110
12.319000 0.9110 0.9110 0.9110 0.9090 0.9090
12.352871 0.9080 0.9060 0.9060 0.9060 0.9060
12.386000 0.9060 0.9040 0.9020 0.9020 0.9020
12.419871 0.9020 0.9020 0.9020 0.9020 0.9020
12.454000 0.9020 0.9020 0.9020 0.9020 0.9020
12.487871 0.9010 0.9010 0.9010 0.9010 0.8990
12.522000 0.8990 0.8990 0.8990 0.8990 0.8990
12.555871 0.8970 0.8960 0.8960 0.8890 0.8890
12.590000 0.8890 0.8870 0.8850 0.8850 0.8850
12.623871 0.8850 0.8850 0.8850 0.8850 0.8850
12.657000 0.8850 0.8840 0.8840 0.8840 0.8820
12.690871 0.8820 0.8800 0.8800 0.8790 0.8770
12.725000 0.8750 0.8730 0.8730 0.8730 0.8730
12.758871 0.8730 0.8730 0.8750 0.8750 0.8770
12.793000 0.8790 0.8790 0.8820 0.8840 0.8890
12.826871 0.8890 0.8900 0.8940 0.8960 0.8960
12.860000 0.8970 0.8970 0.8990 0.8990 0.8990
12.893871 0.8990 0.9010 0.9010 0.9010 0.9010
12.928000 0.9010 0.9010 0.8990 0.8990 0.9010
12.961871 0.9010 0.9010 0.9010 0.9010 0.9020
12.996000 0.9020 0.9020 0.9020 0.9020 0.9020
13.029871 0.9010 0.9010 0.9010 0.9010 0.9010
13.064000 0.9010 0.9010 0.9010 0.9010 0.8990
13.097871 0.8990 0.8970 0.8940 0.8940 0.8940
13.131000 0.8940 0.8940 0.8940 0.8940 0.8940
13.164871 0.8940 0.8940 0.8960 0.8960 0.8970
13.199000 0.8970 0.8970 0.8970 0.8970 0.8970
13.232871 0.8970 0.8970 0.8970 0.8970 0.8970
13.267000 0.8960 0.8940 0.8920 0.8920 0.8920
13.300871 0.8900 0.8900 0.8890 0.8890 0.8870
13.334000 0.8870 0.8840 0.8820 0.8820 0.8820
13.367871 0.8820 0.8820 0.8820 0.8820 0.8820
13.402000 0.8820 0.8840 0.8840 0.8850 0.8870
13.435871 0.8870 0.8870 0.8890 0.8890 0.8890
13.470000 0.8890 0.8890 0.8890 0.8890 0.8890
13.503871 0.8890 0.8890 0.8890 0.8870 0.8870
13.538000 0.8850 0.8820 0.8820 0.8800 0.8790
13.571871 0.8750 0.8750 0.8750 0.8750 0.8730
13.605000 0.8730 0.8730 0.8720 0.8720 0.8720
13.638871 0.8700 0.8700 0.8700 0.8700 0.8720
13.673000 0.8720 0.8750 0.8770 0.8770 0.8770
13.706871 0.8770 0.8770 0.8770 0.8770 0.8770
13.741000 0.8770 0.8770 0.8770 0.8770 0.8750
13.774871 0.8730 0.8720 0.8720 0.8700 0.8670
13.808000 0.8620 0.8620 0.8600 0.8580 0.8560
13.841871 0.8560 0.8550 0.8550 0.8550 0.8550
13.876000 0.8550 0.8530 0.8530 0.8530 0.8550
13.909871 0.8550 0.8560 0.8560 0.8560 0.8580
13.944000 0.8580 0.8580 0.8580 0.8580 0.8580
13.977871 0.8600 0.8620 0.8620 0.8620 0.8620
14.011000 0.8620 0.8620 0.8600 0.8580 0.8580
14.044871 0.8560 0.8530 0.8510 0.8500 0.8500
14.079000 0.8500 0.8500 0.8480 0.8460 0.8460
14.112871 0.8460 0.8460 0.8460 0.8460 0.8440
14.147000 0.8440 0.8440 0.8430 0.8430 0.8430
14.180871 0.8430 0.8430 0.8430 0.8430 0.8430
14.215000 0.8430 0.8430 0.8430 0.8430 0.8430
14.248871 0.8430 0.8430 0.8430 0.8430 0.8430
14.282000 0.8430 0.8430 0.8410 0.8390 0.8390
14.315871 0.8340 0.8340 0.8330 0.8310 0.8270
14.350000 0.8270 0.8260 0.8240 0.8240 0.8240
14.383871 0.8220 0.8220 0.8210 0.8210 0.8190
14.418000 0.8190 0.8190 0.8190 0.8170 0.8170
14.451871 0.8170 0.8160 0.8160 0.8160 0.8160
14.485000 0.8160 0.8140 0.8140 0.8140 0.8140
14.518871 0.8140 0.8140 0.8140 0.8140 0.8140
14.553000 0.8140 0.8120 0.8120 0.8100 0.8090
14.586871 0.8090 0.8070 0.8040 0.8040 0.8020
14.621000 0.8020 0.8020 0.8000 0.8000 0.7980
14.654871 0.7950 0.7930 0.7920 0.7920 0.7920
14.689000 0.7920 0.7900 0.7900 0.7880 0.7870
14.722871 0.7850 0.7850 0.7850 0.7850 0.7850
14.756000 0.7850 0.7850 0.7830 0.7800 0.7800
14.789871 0.7780 0.7760 0.7760 0.7760 0.7760
14.824000 0.7760 0.7760 0.7760 0.7760 0.7760
14.857871 0.7760 0.7730 0.7730 0.7710 0.7700
14.892000 0.7660 0.7640 0.7630 0.7610 0.7610
14.925871 0.7610 0.7610 0.7610 0.7610 0.7610
14.959000 0.7610 0.7610 0.7610 0.7580 0.7580
14.992871 0.7560 0.7520 0.7490 0.7460 0.7420
15.027000 0.7420 0.7420 0.7420 0.7420 0.7420
15.060871 0.7420 0.7420 0.7420 0.7420 0.7420
15.095000 0.7440 0.7440 0.7440 0.7440 0.7440
15.128871 0.7440 0.7440 0.7440 0.7440 0.7440
15.163000 0.7440 0.7440 0.7440 0.7440 0.7420
15.196871 0.7420 0.7410 0.7350 0.7320 0.7320
15.230000 0.7320 0.7320 0.7320 0.7350 0.7350
15.263871 0.7320 0.7320 0.7300 0.7300 0.7300
15.298000 0.7290 0.7270 0.7250 0.7250 0.7220
15.331871 0.7200 0.7200 0.7200 0.7180 0.7150
15.366000 0.7130 0.7130 0.7120 0.7120 0.7120
15.399871 0.7120 0.7080 0.7060 0.7030 0.7010
15.433000 0.7000 0.7000 0.7050 0.7050 0.7050
15.466871 0.7050 0.7030 0.7030
##END=
