##TITLE=5-Cyclo-5Alpha-androstan-6Beta-ol, 17-ethylenedioxy-3Alpha, p-nitrobenzoate
##JCAMP-DX=4.24
##DATA TYPE=INFRARED SPECTRUM
##CLASS=COBLENTZ
##ORIGIN=ABBOTT LABORATORIES
##OWNER=Copyright (C) 1987 by the Coblentz Society
Collection (C) 2018 copyright by the U.S. Secretary of Commerce
on behalf of the United States of America. All rights reserved.
##DATE=1961/10/12
##MOLFORM=C28 H35 N O6
##MP=187-189 C
##SOURCE REFERENCE=COBLENTZ NO. 6129
##$NIST ID=B6006129
##$NIST SOURCE=COBLENTZ
##$NIST IMAGE=cob6129
##SPECTROMETER/DATA SYSTEM=PERKIN-ELMER 21 (GRATING)
##INSTRUMENT PARAMETERS=FILTER AT ABOUT 10 MICRONS
##STATE=SOLUTION (7% CHCl3 FOR 2.5-12.5 MICRON) VS SOLVENT
##PATH LENGTH=0.010 CM
$$ INACTIVE (CHCl3) AROUND 1230 CM^-^1
##RESOLUTION=2
##XUNITS=1/CM
##YUNITS=TRANSMITTANCE
##XFACTOR=1.0
##YFACTOR=1
##FIRSTX=797
##LASTX=4000
##FIRSTY=0.9975
##MAXX=4000
##MINX=797
##MAXY=0.9562
##MINY=0.0739
##NPOINTS=3204
##XYDATA=(X++(Y..Y))
797.000000 0.9975 0.9936 0.9896 0.9850 0.9790
802.000000 0.9722 0.9647 0.9554 0.9475 0.9403
807.000000 0.9352 0.9336 0.9332 0.9343 0.9361
812.000000 0.9349 0.9349 0.9314 0.9312 0.9302
817.000000 0.9217 0.9084 0.9061 0.9052 0.9026
822.000000 0.8888 0.8741 0.8596 0.8508 0.8493
827.000000 0.8481 0.8494 0.8554 0.8700 0.8725
832.000000 0.8743 0.8746 0.8718 0.8685 0.8673
837.000000 0.8700 0.8758 0.8792 0.8804 0.8755
842.000000 0.8689 0.8680 0.8660 0.8591 0.8488
847.000000 0.8334 0.8037 0.7789 0.7503 0.7061
852.000000 0.6619 0.6165 0.5693 0.5433 0.5501
857.000000 0.5949 0.6427 0.6905 0.7379 0.7712
862.000000 0.7958 0.8094 0.8099 0.8080 0.8042
867.000000 0.7940 0.7617 0.7218 0.6791 0.6366
872.000000 0.5866 0.5832 0.5838 0.6479 0.7002
877.000000 0.7524 0.8009 0.8193 0.8222 0.8230
882.000000 0.8233 0.8238 0.8245 0.8267 0.8328
887.000000 0.8410 0.8492 0.8574 0.8655 0.8736
892.000000 0.8801 0.8812 0.8821 0.8828 0.8843
897.000000 0.8774 0.8647 0.8501 0.8368 0.8263
902.000000 0.8133 0.7970 0.7746 0.7285 0.6804
907.000000 0.6267 0.6000 0.6002 0.6004 0.6508
912.000000 0.6900 0.7291 0.7603 0.7770 0.7942
917.000000 0.8132 0.8341 0.8462 0.8515 0.8546
922.000000 0.8542 0.8528 0.8518 0.8538 0.8548
927.000000 0.8510 0.8441 0.8322 0.8155 0.7970
932.000000 0.7773 0.7561 0.7058 0.6504 0.5957
937.000000 0.5837 0.5794 0.6293 0.6806 0.7351
942.000000 0.7494 0.7510 0.7390 0.7274 0.7158
947.000000 0.7072 0.7065 0.7289 0.7529 0.7788
952.000000 0.8081 0.8275 0.8349 0.8364 0.8353
957.000000 0.8291 0.8189 0.8011 0.7867 0.7809
962.000000 0.7759 0.7725 0.7718 0.7709 0.7754
967.000000 0.7817 0.7944 0.8110 0.8305 0.8494
972.000000 0.8598 0.8618 0.8618 0.8604 0.8598
977.000000 0.8582 0.8563 0.8525 0.8454 0.8339
982.000000 0.8220 0.8095 0.7953 0.7800 0.7580
987.000000 0.7551 0.7662 0.7798 0.7877 0.7901
992.000000 0.7918 0.7854 0.7724 0.7439 0.7163
997.000000 0.6921 0.6587 0.6690 0.6766 0.6387
1002.000000 0.5914 0.5442 0.4988 0.4869 0.4864
1007.000000 0.5112 0.5622 0.6131 0.6472 0.6467
1012.000000 0.6309 0.6082 0.5860 0.5903 0.6459
1017.000000 0.7002 0.7150 0.7216 0.7250 0.7247
1022.000000 0.7215 0.7073 0.6874 0.6721 0.6618
1027.000000 0.6585 0.6594 0.6626 0.6663 0.6687
1032.000000 0.6709 0.6725 0.6736 0.6715 0.6640
1037.000000 0.6412 0.6179 0.5947 0.5711 0.5524
1042.000000 0.5479 0.5490 0.5511 0.5676 0.5864
1047.000000 0.5861 0.5838 0.5821 0.5822 0.5847
1052.000000 0.5933 0.6236 0.6436 0.6422 0.6405
1057.000000 0.6338 0.6201 0.6126 0.6121 0.6142
1062.000000 0.6206 0.6379 0.6595 0.6773 0.7133
1067.000000 0.7332 0.7382 0.7368 0.7365 0.7315
1072.000000 0.7265 0.7238 0.7220 0.7157 0.7044
1077.000000 0.6925 0.6808 0.6695 0.6609 0.6527
1082.000000 0.6475 0.6457 0.6451 0.6447 0.6446
1087.000000 0.6445 0.6343 0.6227 0.6089 0.5917
1092.000000 0.5703 0.5445 0.5068 0.4683 0.4229
1097.000000 0.3774 0.3319 0.2804 0.2589 0.2573
1102.000000 0.2550 0.2662 0.2959 0.3299 0.3607
1107.000000 0.3753 0.3894 0.3998 0.4024 0.4016
1112.000000 0.3952 0.3733 0.3506 0.3285 0.3233
1117.000000 0.3233 0.3215 0.3551 0.4018 0.4485
1122.000000 0.4932 0.5173 0.5393 0.5630 0.5798
1127.000000 0.5929 0.6115 0.6272 0.6474 0.6691
1132.000000 0.6825 0.6912 0.6959 0.6995 0.7007
1137.000000 0.6988 0.6971 0.6990 0.7033 0.7079
1142.000000 0.7134 0.7217 0.7268 0.7271 0.7253
1147.000000 0.7233 0.7196 0.7130 0.6989 0.6868
1152.000000 0.6734 0.6584 0.6411 0.6045 0.5790
1157.000000 0.5614 0.5493 0.5377 0.5305 0.5233
1162.000000 0.5168 0.5126 0.5159 0.5169 0.5212
1167.000000 0.5283 0.5371 0.5471 0.5582 0.5756
1172.000000 0.5943 0.6126 0.6385 0.6798 0.7129
1177.000000 0.7377 0.7482 0.7562 0.7584 0.7584
1182.000000 0.7578 0.7560 0.7520 0.7461 0.7445
1187.000000 0.7448 0.7502 0.7597 0.7735 0.7843
1192.000000 0.7884 0.7903 0.7870 0.7761 0.7619
1197.000000 0.7476 0.7335 0.7193 0.7057 0.6996
1202.000000 0.6923 0.6838 0.6773 0.6710 0.6655
1207.000000 0.6604 0.6553 0.6513 0.6487 0.6464
1212.000000 0.6446 0.6430 0.6414 0.6398 0.6384
1217.000000 0.6372 0.6360 0.6349 0.6333 0.6312
1222.000000 0.6282 0.6232 0.6184 0.6143 0.6101
1227.000000 0.6060 0.6034 0.6013 0.5992 0.5977
1232.000000 0.5972 0.5967 0.5964 0.5990 0.6040
1237.000000 0.6105 0.6183 0.6284 0.6462 0.6632
1242.000000 0.6735 0.6814 0.6805 0.6812 0.6794
1247.000000 0.6772 0.6739 0.6703 0.6643 0.6573
1252.000000 0.6418 0.6251 0.6142 0.6076 0.6022
1257.000000 0.5972 0.5917 0.5789 0.5599 0.5376
1262.000000 0.5094 0.4797 0.4398 0.3898 0.3461
1267.000000 0.3025 0.2590 0.2155 0.1722 0.1287
1272.000000 0.0934 0.0796 0.0746 0.0745 0.0739
1277.000000 0.0801 0.0848 0.0887 0.0922 0.0957
1282.000000 0.1005 0.1178 0.1611 0.2059 0.2507
1287.000000 0.2954 0.3400 0.3846 0.4291 0.4735
1292.000000 0.5176 0.5259 0.5232 0.5184 0.5135
1297.000000 0.5087 0.5071 0.5107 0.5266 0.5348
1302.000000 0.5305 0.5254 0.5203 0.5152 0.5102
1307.000000 0.5087 0.5120 0.5317 0.5551 0.5751
1312.000000 0.5751 0.5752 0.5751 0.5750 0.5749
1317.000000 0.5747 0.5757 0.5747 0.5733 0.5656
1322.000000 0.5580 0.5502 0.5425 0.5349 0.5272
1327.000000 0.5196 0.5120 0.5057 0.5054 0.5088
1332.000000 0.5170 0.5208 0.5205 0.5133 0.5002
1337.000000 0.4871 0.4741 0.4611 0.4480 0.4350
1342.000000 0.4220 0.4090 0.3961 0.3825 0.3721
1347.000000 0.3699 0.3700 0.3706 0.3713 0.4162
1352.000000 0.4436 0.4708 0.4981 0.5253 0.5525
1357.000000 0.5796 0.6067 0.6337 0.6607 0.6878
1362.000000 0.7092 0.7162 0.7226 0.7281 0.7308
1367.000000 0.7320 0.7320 0.7331 0.7297 0.7241
1372.000000 0.7164 0.7086 0.7006 0.6923 0.6852
1377.000000 0.6805 0.6776 0.6725 0.6772 0.6779
1382.000000 0.6820 0.6898 0.7003 0.7131 0.7263
1387.000000 0.7397 0.7493 0.7531 0.7540 0.7545
1392.000000 0.7552 0.7585 0.7639 0.7708 0.7789
1397.000000 0.7885 0.7963 0.8002 0.8027 0.8029
1402.000000 0.8027 0.8024 0.8023 0.8020 0.8017
1407.000000 0.8058 0.8155 0.8245 0.8341 0.8452
1412.000000 0.8577 0.8682 0.8724 0.8738 0.8739
1417.000000 0.8735 0.8745 0.8728 0.8711 0.8659
1422.000000 0.8584 0.8515 0.8463 0.8400 0.8322
1427.000000 0.8272 0.8225 0.8176 0.8117 0.8062
1432.000000 0.8020 0.7994 0.7991 0.8004 0.8016
1437.000000 0.8029 0.8040 0.8052 0.8063 0.8076
1442.000000 0.8089 0.8083 0.8013 0.7916 0.7819
1447.000000 0.7722 0.7626 0.7529 0.7433 0.7346
1452.000000 0.7314 0.7300 0.7299 0.7304 0.7283
1457.000000 0.7343 0.7373 0.7412 0.7464 0.7521
1462.000000 0.7558 0.7556 0.7554 0.7552 0.7550
1467.000000 0.7548 0.7545 0.7544 0.7575 0.7629
1472.000000 0.7683 0.7737 0.7790 0.7848 0.7910
1477.000000 0.7970 0.8027 0.8082 0.8181 0.8413
1482.000000 0.8604 0.8641 0.8671 0.8685 0.8697
1487.000000 0.8704 0.8705 0.8705 0.8705 0.8709
1492.000000 0.8703 0.8701 0.8696 0.8689 0.8680
1497.000000 0.8668 0.8655 0.8638 0.8615 0.8576
1502.000000 0.8516 0.8442 0.8365 0.8295 0.8226
1507.000000 0.8153 0.8077 0.8058 0.8045 0.8029
1512.000000 0.7970 0.7860 0.7686 0.7320 0.6918
1517.000000 0.6518 0.6119 0.5720 0.5323 0.4925
1522.000000 0.4528 0.4132 0.3736 0.3341 0.2946
1527.000000 0.2552 0.2393 0.2383 0.2392 0.2903
1532.000000 0.3466 0.4028 0.4589 0.5150 0.5709
1537.000000 0.6268 0.6826 0.7384 0.7804 0.8029
1542.000000 0.8147 0.8238 0.8350 0.8458 0.8541
1547.000000 0.8618 0.8644 0.8669 0.8692 0.8710
1552.000000 0.8718 0.8725 0.8732 0.8739 0.8747
1557.000000 0.8754 0.8759 0.8760 0.8761 0.8761
1562.000000 0.8761 0.8761 0.8761 0.8759 0.8757
1567.000000 0.8756 0.8754 0.8763 0.8751 0.8750
1572.000000 0.8748 0.8746 0.8745 0.8743 0.8741
1577.000000 0.8739 0.8737 0.8734 0.8732 0.8730
1582.000000 0.8728 0.8725 0.8723 0.8720 0.8712
1587.000000 0.8701 0.8690 0.8671 0.8638 0.8599
1592.000000 0.8554 0.8507 0.8455 0.8396 0.8325
1597.000000 0.8230 0.8123 0.8017 0.7911 0.7805
1602.000000 0.7699 0.7593 0.7487 0.7366 0.7207
1607.000000 0.7055 0.6972 0.6889 0.6812 0.6769
1612.000000 0.6769 0.6755 0.6821 0.7067 0.7312
1617.000000 0.7557 0.7801 0.8045 0.8289 0.8521
1622.000000 0.8672 0.8768 0.8843 0.8901 0.8933
1627.000000 0.8948 0.8961 0.8969 0.8969 0.8970
1632.000000 0.8970 0.8967 0.8969 0.8965 0.8959
1637.000000 0.8954 0.8950 0.8945 0.8940 0.8934
1642.000000 0.8927 0.8921 0.8915 0.8909 0.8905
1647.000000 0.8899 0.8894 0.8890 0.8884 0.8880
1652.000000 0.8874 0.8870 0.8864 0.8860 0.8856
1657.000000 0.8851 0.8847 0.8842 0.8839 0.8834
1662.000000 0.8826 0.8814 0.8801 0.8782 0.8758
1667.000000 0.8735 0.8718 0.8717 0.8717 0.8716
1672.000000 0.8716 0.8711 0.8705 0.8699 0.8693
1677.000000 0.8686 0.8678 0.8664 0.8651 0.8638
1682.000000 0.8618 0.8591 0.8560 0.8530 0.8499
1687.000000 0.8461 0.8377 0.8316 0.8269 0.8219
1692.000000 0.8156 0.8077 0.7982 0.7871 0.7701
1697.000000 0.7412 0.7115 0.6819 0.6524 0.6228
1702.000000 0.5933 0.5639 0.5344 0.5050 0.4756
1707.000000 0.4463 0.4170 0.3877 0.3585 0.3293
1712.000000 0.3001 0.2801 0.2722 0.2726 0.2720
1717.000000 0.2719 0.2951 0.3224 0.3506 0.3787
1722.000000 0.4068 0.4349 0.4628 0.4908 0.5187
1727.000000 0.5467 0.5746 0.6024 0.6303 0.6581
1732.000000 0.6858 0.7136 0.7413 0.7689 0.7965
1737.000000 0.8241 0.8465 0.8618 0.8712 0.8787
1742.000000 0.8862 0.8917 0.8967 0.9011 0.9045
1747.000000 0.9076 0.9100 0.9121 0.9141 0.9159
1752.000000 0.9175 0.9188 0.9200 0.9212 0.9230
1757.000000 0.9259 0.9290 0.9319 0.9345 0.9370
1762.000000 0.9392 0.9400 0.9407 0.9414 0.9420
1767.000000 0.9427 0.9432 0.9438 0.9441 0.9442
1772.000000 0.9444 0.9445 0.9446 0.9448 0.9448
1777.000000 0.9447 0.9447 0.9446 0.9445 0.9444
1782.000000 0.9443 0.9443 0.9441 0.9440 0.9438
1787.000000 0.9436 0.9435 0.9432 0.9429 0.9426
1792.000000 0.9422 0.9418 0.9414 0.9410 0.9405
1797.000000 0.9401 0.9396 0.9392 0.9389 0.9389
1802.000000 0.9389 0.9389 0.9390 0.9390 0.9393
1807.000000 0.9395 0.9399 0.9405 0.9415 0.9423
1812.000000 0.9430 0.9436 0.9442 0.9449 0.9455
1817.000000 0.9461 0.9467 0.9473 0.9479 0.9483
1822.000000 0.9488 0.9492 0.9497 0.9501 0.9507
1827.000000 0.9511 0.9515 0.9518 0.9519 0.9521
1832.000000 0.9523 0.9525 0.9526 0.9528 0.9530
1837.000000 0.9532 0.9533 0.9535 0.9536 0.9538
1842.000000 0.9538 0.9539 0.9540 0.9540 0.9541
1847.000000 0.9542 0.9543 0.9543 0.9544 0.9545
1852.000000 0.9546 0.9546 0.9547 0.9547 0.9548
1857.000000 0.9548 0.9548 0.9549 0.9549 0.9550
1862.000000 0.9550 0.9551 0.9551 0.9551 0.9552
1867.000000 0.9552 0.9552 0.9553 0.9553 0.9553
1872.000000 0.9554 0.9553 0.9553 0.9553 0.9553
1877.000000 0.9552 0.9552 0.9552 0.9552 0.9552
1882.000000 0.9551 0.9551 0.9551 0.9551 0.9550
1887.000000 0.9550 0.9550 0.9550 0.9550 0.9550
1892.000000 0.9550 0.9550 0.9550 0.9550 0.9550
1897.000000 0.9550 0.9550 0.9550 0.9550 0.9550
1902.000000 0.9550 0.9550 0.9550 0.9550 0.9550
1907.000000 0.9549 0.9549 0.9548 0.9546 0.9546
1912.000000 0.9545 0.9543 0.9543 0.9541 0.9540
1917.000000 0.9538 0.9536 0.9534 0.9532 0.9529
1922.000000 0.9527 0.9525 0.9518 0.9509 0.9498
1927.000000 0.9486 0.9471 0.9452 0.9432 0.9415
1932.000000 0.9403 0.9402 0.9401 0.9399 0.9399
1937.000000 0.9399 0.9399 0.9399 0.9400 0.9399
1942.000000 0.9398 0.9401 0.9407 0.9422 0.9437
1947.000000 0.9452 0.9471 0.9488 0.9501 0.9508
1952.000000 0.9514 0.9519 0.9524 0.9528 0.9531
1957.000000 0.9534 0.9536 0.9537 0.9538 0.9540
1962.000000 0.9541 0.9542 0.9544 0.9544 0.9545
1967.000000 0.9547 0.9548 0.9549 0.9550 0.9552
1972.000000 0.9553 0.9553 0.9553 0.9554 0.9554
1977.000000 0.9554 0.9554 0.9554 0.9554 0.9555
1982.000000 0.9555 0.9555 0.9555 0.9555 0.9555
1987.000000 0.9555 0.9555 0.9554 0.9554 0.9554
1992.000000 0.9554 0.9554 0.9554 0.9554 0.9554
1997.000000 0.9553 0.9553 0.9553 0.9553 0.9553
2002.000000 0.9553 0.9553 0.9553 0.9552 0.9552
2007.000000 0.9552 0.9552 0.9552 0.9552 0.9552
2012.000000 0.9551 0.9551 0.9551 0.9551 0.9551
2017.000000 0.9550 0.9550 0.9550 0.9549 0.9549
2022.000000 0.9549 0.9549 0.9549 0.9548 0.9548
2027.000000 0.9548 0.9547 0.9547 0.9547 0.9547
2032.000000 0.9547 0.9546 0.9546 0.9546 0.9545
2037.000000 0.9545 0.9544 0.9544 0.9543 0.9542
2042.000000 0.9541 0.9540 0.9539 0.9538 0.9537
2047.000000 0.9536 0.9535 0.9535 0.9534 0.9532
2052.000000 0.9532 0.9531 0.9530 0.9529 0.9528
2057.000000 0.9528 0.9527 0.9527 0.9526 0.9526
2062.000000 0.9525 0.9524 0.9524 0.9523 0.9523
2067.000000 0.9522 0.9521 0.9521 0.9518 0.9511
2072.000000 0.9505 0.9498 0.9493 0.9511 0.9489
2077.000000 0.9490 0.9492 0.9495 0.9498 0.9500
2082.000000 0.9503 0.9508 0.9513 0.9517 0.9521
2087.000000 0.9524 0.9528 0.9531 0.9534 0.9538
2092.000000 0.9541 0.9545 0.9548 0.9550 0.9552
2097.000000 0.9553 0.9554 0.9555 0.9557 0.9558
2102.000000 0.9559 0.9560 0.9561 0.9562 0.9562
2107.000000 0.9561 0.9560 0.9560 0.9560 0.9560
2112.000000 0.9559 0.9559 0.9558 0.9558 0.9557
2117.000000 0.9557 0.9557 0.9556 0.9556 0.9556
2122.000000 0.9556 0.9556 0.9556 0.9555 0.9555
2127.000000 0.9555 0.9554 0.9554 0.9554 0.9554
2132.000000 0.9553 0.9553 0.9553 0.9553 0.9553
2137.000000 0.9552 0.9552 0.9552 0.9552 0.9551
2142.000000 0.9551 0.9551 0.9551 0.9550 0.9550
2147.000000 0.9550 0.9549 0.9549 0.9548 0.9548
2152.000000 0.9547 0.9547 0.9546 0.9546 0.9545
2157.000000 0.9545 0.9544 0.9543 0.9543 0.9542
2162.000000 0.9542 0.9541 0.9541 0.9540 0.9540
2167.000000 0.9539 0.9539 0.9538 0.9538 0.9537
2172.000000 0.9537 0.9536 0.9536 0.9536 0.9535
2177.000000 0.9535 0.9534 0.9534 0.9533 0.9533
2182.000000 0.9533 0.9533 0.9532 0.9532 0.9531
2187.000000 0.9531 0.9531 0.9531 0.9530 0.9530
2192.000000 0.9529 0.9528 0.9528 0.9528 0.9528
2197.000000 0.9527 0.9527 0.9526 0.9526 0.9525
2202.000000 0.9525 0.9525 0.9525 0.9524 0.9524
2207.000000 0.9523 0.9523 0.9522 0.9522 0.9522
2212.000000 0.9522 0.9521 0.9521 0.9520 0.9520
2217.000000 0.9520 0.9520 0.9519 0.9519 0.9519
2222.000000 0.9519 0.9519 0.9519 0.9518 0.9518
2227.000000 0.9518 0.9518 0.9517 0.9517 0.9517
2232.000000 0.9517 0.9517 0.9517 0.9516 0.9516
2237.000000 0.9516 0.9516 0.9516 0.9516 0.9515
2242.000000 0.9515 0.9515 0.9515 0.9514 0.9514
2247.000000 0.9514 0.9514 0.9514 0.9514 0.9513
2252.000000 0.9513 0.9513 0.9513 0.9513 0.9513
2257.000000 0.9512 0.9512 0.9512 0.9512 0.9511
2262.000000 0.9511 0.9511 0.9511 0.9511 0.9511
2267.000000 0.9511 0.9511 0.9510 0.9510 0.9510
2272.000000 0.9510 0.9510 0.9510 0.9510 0.9510
2277.000000 0.9509 0.9509 0.9509 0.9509 0.9509
2282.000000 0.9509 0.9509 0.9509 0.9509 0.9509
2287.000000 0.9509 0.9508 0.9508 0.9508 0.9508
2292.000000 0.9508 0.9508 0.9508 0.9508 0.9507
2297.000000 0.9507 0.9507 0.9507 0.9507 0.9507
2302.000000 0.9507 0.9507 0.9507 0.9506 0.9506
2307.000000 0.9506 0.9506 0.9506 0.9506 0.9506
2312.000000 0.9506 0.9507 0.9507 0.9507 0.9507
2317.000000 0.9508 0.9508 0.9508 0.9509 0.9509
2322.000000 0.9509 0.9509 0.9510 0.9510 0.9510
2327.000000 0.9510 0.9511 0.9511 0.9512 0.9512
2332.000000 0.9512 0.9512 0.9512 0.9513 0.9513
2337.000000 0.9514 0.9514 0.9514 0.9514 0.9515
2342.000000 0.9515 0.9515 0.9516 0.9516 0.9516
2347.000000 0.9516 0.9517 0.9517 0.9517 0.9517
2352.000000 0.9518 0.9518 0.9518 0.9519 0.9519
2357.000000 0.9520 0.9520 0.9521 0.9521 0.9522
2362.000000 0.9523 0.9524 0.9524 0.9524 0.9525
2367.000000 0.9525 0.9526 0.9526 0.9527 0.9527
2372.000000 0.9527 0.9527 0.9527 0.9527 0.9527
2377.000000 0.9527 0.9527 0.9527 0.9527 0.9526
2382.000000 0.9526 0.9526 0.9526 0.9526 0.9526
2387.000000 0.9526 0.9525 0.9523 0.9522 0.9518
2392.000000 0.9515 0.9511 0.9508 0.9502 0.9491
2397.000000 0.9480 0.9468 0.9457 0.9448 0.9439
2402.000000 0.9432 0.9426 0.9421 0.9419 0.9416
2407.000000 0.9413 0.9410 0.9407 0.9405 0.9402
2412.000000 0.9401 0.9401 0.9400 0.9399 0.9398
2417.000000 0.9397 0.9396 0.9396 0.9396 0.9395
2422.000000 0.9394 0.9393 0.9392 0.9392 0.9392
2427.000000 0.9392 0.9392 0.9392 0.9392 0.9392
2432.000000 0.9392 0.9392 0.9392 0.9392 0.9392
2437.000000 0.9391 0.9391 0.9391 0.9391 0.9391
2442.000000 0.9391 0.9391 0.9391 0.9391 0.9391
2447.000000 0.9392 0.9392 0.9393 0.9394 0.9395
2452.000000 0.9395 0.9395 0.9396 0.9397 0.9398
2457.000000 0.9398 0.9398 0.9399 0.9400 0.9401
2462.000000 0.9402 0.9402 0.9403 0.9403 0.9404
2467.000000 0.9405 0.9406 0.9406 0.9406 0.9407
2472.000000 0.9408 0.9409 0.9409 0.9409 0.9410
2477.000000 0.9410 0.9411 0.9411 0.9411 0.9412
2482.000000 0.9412 0.9413 0.9413 0.9413 0.9414
2487.000000 0.9414 0.9415 0.9416 0.9416 0.9417
2492.000000 0.9417 0.9418 0.9418 0.9418 0.9419
2497.000000 0.9419 0.9420 0.9420 0.9421 0.9421
2502.000000 0.9421 0.9422 0.9422 0.9422 0.9423
2507.000000 0.9423 0.9424 0.9425 0.9425 0.9426
2512.000000 0.9426 0.9427 0.9427 0.9427 0.9428
2517.000000 0.9428 0.9429 0.9429 0.9429 0.9430
2522.000000 0.9431 0.9432 0.9432 0.9432 0.9433
2527.000000 0.9433 0.9434 0.9434 0.9434 0.9435
2532.000000 0.9435 0.9436 0.9436 0.9437 0.9438
2537.000000 0.9438 0.9438 0.9439 0.9439 0.9440
2542.000000 0.9440 0.9440 0.9441 0.9441 0.9442
2547.000000 0.9442 0.9443 0.9444 0.9444 0.9444
2552.000000 0.9445 0.9445 0.9446 0.9446 0.9446
2557.000000 0.9447 0.9448 0.9449 0.9449 0.9449
2562.000000 0.9449 0.9448 0.9448 0.9447 0.9447
2567.000000 0.9446 0.9446 0.9446 0.9445 0.9445
2572.000000 0.9445 0.9444 0.9444 0.9443 0.9443
2577.000000 0.9443 0.9442 0.9442 0.9441 0.9441
2582.000000 0.9441 0.9440 0.9440 0.9440 0.9439
2587.000000 0.9439 0.9438 0.9438 0.9438 0.9437
2592.000000 0.9437 0.9437 0.9436 0.9435 0.9435
2597.000000 0.9434 0.9434 0.9433 0.9433 0.9433
2602.000000 0.9432 0.9432 0.9432 0.9430 0.9428
2607.000000 0.9426 0.9424 0.9422 0.9420 0.9418
2612.000000 0.9416 0.9414 0.9412 0.9410 0.9408
2617.000000 0.9406 0.9404 0.9402 0.9400 0.9398
2622.000000 0.9396 0.9394 0.9392 0.9390 0.9388
2627.000000 0.9387 0.9387 0.9386 0.9386 0.9386
2632.000000 0.9386 0.9386 0.9386 0.9386 0.9386
2637.000000 0.9386 0.9385 0.9385 0.9385 0.9385
2642.000000 0.9385 0.9385 0.9385 0.9385 0.9384
2647.000000 0.9384 0.9384 0.9384 0.9384 0.9384
2652.000000 0.9383 0.9383 0.9383 0.9383 0.9383
2657.000000 0.9382 0.9382 0.9382 0.9381 0.9379
2662.000000 0.9378 0.9377 0.9376 0.9375 0.9373
2667.000000 0.9372 0.9371 0.9370 0.9368 0.9367
2672.000000 0.9366 0.9365 0.9364 0.9363 0.9361
2677.000000 0.9360 0.9359 0.9358 0.9357 0.9355
2682.000000 0.9354 0.9353 0.9352 0.9351 0.9350
2687.000000 0.9349 0.9348 0.9347 0.9346 0.9345
2692.000000 0.9344 0.9342 0.9341 0.9341 0.9340
2697.000000 0.9339 0.9338 0.9337 0.9336 0.9335
2702.000000 0.9334 0.9333 0.9332 0.9331 0.9330
2707.000000 0.9330 0.9329 0.9329 0.9329 0.9329
2712.000000 0.9329 0.9329 0.9329 0.9329 0.9329
2717.000000 0.9329 0.9328 0.9328 0.9328 0.9328
2722.000000 0.9328 0.9328 0.9328 0.9328 0.9328
2727.000000 0.9328 0.9328 0.9328 0.9327 0.9325
2732.000000 0.9324 0.9322 0.9321 0.9319 0.9317
2737.000000 0.9316 0.9314 0.9312 0.9311 0.9309
2742.000000 0.9307 0.9305 0.9303 0.9300 0.9296
2747.000000 0.9292 0.9289 0.9285 0.9281 0.9277
2752.000000 0.9273 0.9269 0.9265 0.9261 0.9257
2757.000000 0.9253 0.9248 0.9244 0.9239 0.9235
2762.000000 0.9230 0.9225 0.9220 0.9215 0.9210
2767.000000 0.9204 0.9199 0.9192 0.9184 0.9176
2772.000000 0.9168 0.9160 0.9152 0.9143 0.9131
2777.000000 0.9120 0.9108 0.9096 0.9084 0.9072
2782.000000 0.9059 0.9046 0.9033 0.9013 0.8993
2787.000000 0.8974 0.8954 0.8935 0.8915 0.8897
2792.000000 0.8880 0.8863 0.8846 0.8831 0.8815
2797.000000 0.8802 0.8790 0.8778 0.8766 0.8754
2802.000000 0.8742 0.8730 0.8717 0.8705 0.8692
2807.000000 0.8676 0.8659 0.8643 0.8627 0.8611
2812.000000 0.8595 0.8564 0.8530 0.8496 0.8452
2817.000000 0.8404 0.8355 0.8299 0.8235 0.8170
2822.000000 0.8106 0.8041 0.7976 0.7911 0.7847
2827.000000 0.7782 0.7717 0.7653 0.7588 0.7524
2832.000000 0.7460 0.7395 0.7331 0.7266 0.7202
2837.000000 0.7138 0.7074 0.7010 0.6946 0.6882
2842.000000 0.6818 0.6754 0.6690 0.6626 0.6562
2847.000000 0.6499 0.6435 0.6371 0.6307 0.6244
2852.000000 0.6181 0.6117 0.6054 0.5990 0.5926
2857.000000 0.5863 0.5808 0.5756 0.5703 0.5676
2862.000000 0.5666 0.5655 0.5647 0.5643 0.5639
2867.000000 0.5635 0.5634 0.5632 0.5631 0.5629
2872.000000 0.5628 0.5626 0.5625 0.5623 0.5622
2877.000000 0.5620 0.5619 0.5617 0.5616 0.5614
2882.000000 0.5612 0.5610 0.5606 0.5602 0.5597
2887.000000 0.5593 0.5588 0.5583 0.5578 0.5572
2892.000000 0.5566 0.5560 0.5549 0.5534 0.5519
2897.000000 0.5502 0.5470 0.5437 0.5405 0.5368
2902.000000 0.5330 0.5292 0.5256 0.5223 0.5191
2907.000000 0.5157 0.5108 0.5059 0.5010 0.4971
2912.000000 0.4938 0.4905 0.4880 0.4878 0.4877
2917.000000 0.4875 0.4874 0.4872 0.4871 0.4871
2922.000000 0.4871 0.4871 0.4872 0.4873 0.4874
2927.000000 0.4876 0.4883 0.4880 0.4882 0.4884
2932.000000 0.4887 0.4889 0.4892 0.4895 0.4898
2937.000000 0.4901 0.4915 0.4958 0.5001 0.5044
2942.000000 0.5102 0.5164 0.5225 0.5287 0.5348
2947.000000 0.5409 0.5471 0.5532 0.5593 0.5654
2952.000000 0.5715 0.5776 0.5837 0.5898 0.5960
2957.000000 0.6021 0.6082 0.6143 0.6204 0.6265
2962.000000 0.6325 0.6386 0.6447 0.6507 0.6568
2967.000000 0.6628 0.6689 0.6749 0.6810 0.6870
2972.000000 0.6931 0.6991 0.7052 0.7112 0.7172
2977.000000 0.7232 0.7292 0.7352 0.7412 0.7472
2982.000000 0.7532 0.7592 0.7652 0.7711 0.7771
2987.000000 0.7831 0.7891 0.7951 0.8011 0.8070
2992.000000 0.8130 0.8189 0.8249 0.8324 0.8399
2997.000000 0.8474 0.8533 0.8568 0.8602 0.8637
3002.000000 0.8653 0.8665 0.8677 0.8688 0.8695
3007.000000 0.8703 0.8710 0.8716 0.8719 0.8723
3012.000000 0.8726 0.8729 0.8731 0.8734 0.8736
3017.000000 0.8739 0.8742 0.8745 0.8757 0.8774
3022.000000 0.8790 0.8807 0.8822 0.8837 0.8853
3027.000000 0.8864 0.8868 0.8873 0.8877 0.8880
3032.000000 0.8882 0.8884 0.8886 0.8887 0.8888
3037.000000 0.8889 0.8890 0.8891 0.8892 0.8893
3042.000000 0.8894 0.8895 0.8896 0.8897 0.8901
3047.000000 0.8904 0.8907 0.8910 0.8914 0.8917
3052.000000 0.8921 0.8924 0.8928 0.8931 0.8935
3057.000000 0.8942 0.8951 0.8959 0.8968 0.8985
3062.000000 0.9002 0.9018 0.9034 0.9048 0.9062
3067.000000 0.9076 0.9084 0.9088 0.9092 0.9096
3072.000000 0.9099 0.9103 0.9107 0.9110 0.9114
3077.000000 0.9118 0.9122 0.9126 0.9127 0.9128
3082.000000 0.9130 0.9131 0.9132 0.9134 0.9135
3087.000000 0.9136 0.9138 0.9139 0.9140 0.9141
3092.000000 0.9142 0.9143 0.9144 0.9145 0.9146
3097.000000 0.9146 0.9147 0.9147 0.9148 0.9148
3102.000000 0.9149 0.9149 0.9150 0.9150 0.9151
3107.000000 0.9151 0.9152 0.9152 0.9152 0.9152
3112.000000 0.9152 0.9152 0.9151 0.9151 0.9150
3117.000000 0.9150 0.9149 0.9148 0.9147 0.9147
3122.000000 0.9146 0.9146 0.9145 0.9145 0.9144
3127.000000 0.9143 0.9142 0.9141 0.9141 0.9140
3132.000000 0.9140 0.9139 0.9139 0.9138 0.9138
3137.000000 0.9137 0.9137 0.9136 0.9135 0.9134
3142.000000 0.9134 0.9133 0.9132 0.9131 0.9130
3147.000000 0.9130 0.9129 0.9128 0.9127 0.9126
3152.000000 0.9125 0.9124 0.9123 0.9122 0.9121
3157.000000 0.9120 0.9119 0.9119 0.9118 0.9117
3162.000000 0.9116 0.9115 0.9114 0.9113 0.9112
3167.000000 0.9111 0.9110 0.9109 0.9108 0.9107
3172.000000 0.9106 0.9105 0.9104 0.9104 0.9103
3177.000000 0.9102 0.9101 0.9100 0.9099 0.9098
3182.000000 0.9097 0.9096 0.9095 0.9094 0.9093
3187.000000 0.9092 0.9091 0.9090 0.9089 0.9088
3192.000000 0.9087 0.9085 0.9084 0.9083 0.9082
3197.000000 0.9080 0.9079 0.9078 0.9077 0.9076
3202.000000 0.9074 0.9073 0.9072 0.9071 0.9069
3207.000000 0.9068 0.9067 0.9066 0.9065 0.9063
3212.000000 0.9062 0.9061 0.9060 0.9058 0.9057
3217.000000 0.9055 0.9054 0.9052 0.9051 0.9049
3222.000000 0.9088 0.9047 0.9045 0.9044 0.9042
3227.000000 0.9041 0.9039 0.9038 0.9036 0.9035
3232.000000 0.9034 0.9032 0.9031 0.9029 0.9028
3237.000000 0.9026 0.9025 0.9024 0.9022 0.9021
3242.000000 0.9019 0.9018 0.9016 0.9015 0.9014
3247.000000 0.9012 0.9011 0.9009 0.9008 0.9006
3252.000000 0.9005 0.9004 0.9003 0.9002 0.9001
3257.000000 0.9000 0.8999 0.8998 0.8997 0.8996
3262.000000 0.8995 0.8994 0.8993 0.8992 0.8991
3267.000000 0.8990 0.8989 0.8989 0.8988 0.8987
3272.000000 0.8987 0.8986 0.8985 0.8984 0.8983
3277.000000 0.8982 0.8981 0.8980 0.8979 0.8978
3282.000000 0.8977 0.8976 0.8976 0.8975 0.8974
3287.000000 0.8974 0.8973 0.8973 0.8972 0.8972
3292.000000 0.8971 0.8971 0.8970 0.8970 0.8970
3297.000000 0.8970 0.8970 0.8969 0.8969 0.8968
3302.000000 0.8968 0.8967 0.8967 0.8967 0.8967
3307.000000 0.8966 0.8966 0.8966 0.8965 0.8965
3312.000000 0.8964 0.8964 0.8964 0.8964 0.8964
3317.000000 0.8964 0.8964 0.8964 0.8964 0.8965
3322.000000 0.8965 0.8965 0.8965 0.8966 0.8966
3327.000000 0.8966 0.8966 0.8966 0.8966 0.8966
3332.000000 0.8966 0.8966 0.8967 0.8967 0.8967
3337.000000 0.8967 0.8968 0.8968 0.8968 0.8968
3342.000000 0.8968 0.8969 0.8969 0.8970 0.8970
3347.000000 0.8971 0.8971 0.8972 0.8973 0.8973
3352.000000 0.8974 0.8975 0.8975 0.8976 0.8977
3357.000000 0.8977 0.8978 0.8979 0.8979 0.8980
3362.000000 0.8981 0.8981 0.8982 0.8983 0.8984
3367.000000 0.8984 0.8985 0.8986 0.8987 0.8988
3372.000000 0.8988 0.8989 0.8990 0.8990 0.8991
3377.000000 0.8992 0.8992 0.8993 0.8995 0.8996
3382.000000 0.8997 0.8999 0.9000 0.9002 0.9003
3387.000000 0.9005 0.9006 0.9007 0.9009 0.9010
3392.000000 0.9011 0.9013 0.9014 0.9015 0.9017
3397.000000 0.9018 0.9019 0.9021 0.9022 0.9024
3402.000000 0.9025 0.9027 0.9028 0.9029 0.9031
3407.000000 0.9032 0.9033 0.9034 0.9036 0.9037
3412.000000 0.9039 0.9040 0.9042 0.9043 0.9044
3417.000000 0.9046 0.9047 0.9048 0.9050 0.9051
3422.000000 0.9053 0.9054 0.9056 0.9057 0.9059
3427.000000 0.9060 0.9061 0.9063 0.9065 0.9066
3432.000000 0.9068 0.9070 0.9071 0.9073 0.9075
3437.000000 0.9076 0.9078 0.9080 0.9082 0.9083
3442.000000 0.9085 0.9087 0.9088 0.9090 0.9092
3447.000000 0.9093 0.9095 0.9097 0.9098 0.9100
3452.000000 0.9102 0.9103 0.9105 0.9106 0.9107
3457.000000 0.9108 0.9110 0.9110 0.9111 0.9112
3462.000000 0.9113 0.9114 0.9115 0.9115 0.9116
3467.000000 0.9117 0.9118 0.9118 0.9119 0.9120
3472.000000 0.9120 0.9121 0.9122 0.9123 0.9124
3477.000000 0.9124 0.9125 0.9126 0.9126 0.9127
3482.000000 0.9128 0.9128 0.9129 0.9130 0.9131
3487.000000 0.9132 0.9132 0.9132 0.9133 0.9133
3492.000000 0.9134 0.9134 0.9134 0.9134 0.9134
3497.000000 0.9135 0.9135 0.9135 0.9135 0.9135
3502.000000 0.9136 0.9136 0.9137 0.9137 0.9137
3507.000000 0.9138 0.9138 0.9138 0.9138 0.9138
3512.000000 0.9139 0.9139 0.9140 0.9140 0.9140
3517.000000 0.9141 0.9141 0.9141 0.9141 0.9141
3522.000000 0.9142 0.9142 0.9142 0.9142 0.9142
3527.000000 0.9143 0.9143 0.9144 0.9144 0.9144
3532.000000 0.9145 0.9145 0.9145 0.9145 0.9145
3537.000000 0.9145 0.9145 0.9145 0.9145 0.9145
3542.000000 0.9144 0.9144 0.9144 0.9144 0.9144
3547.000000 0.9144 0.9144 0.9144 0.9144 0.9144
3552.000000 0.9143 0.9143 0.9143 0.9143 0.9143
3557.000000 0.9143 0.9143 0.9143 0.9143 0.9143
3562.000000 0.9143 0.9143 0.9143 0.9143 0.9143
3567.000000 0.9142 0.9142 0.9142 0.9142 0.9142
3572.000000 0.9142 0.9142 0.9142 0.9142 0.9142
3577.000000 0.9141 0.9141 0.9141 0.9141 0.9141
3582.000000 0.9141 0.9141 0.9141 0.9141 0.9141
3587.000000 0.9140 0.9140 0.9140 0.9140 0.9140
3592.000000 0.9140 0.9140 0.9140 0.9140 0.9140
3597.000000 0.9140 0.9139 0.9139 0.9139 0.9139
3602.000000 0.9139 0.9138 0.9138 0.9138 0.9138
3607.000000 0.9138 0.9137 0.9137 0.9137 0.9137
3612.000000 0.9137 0.9137 0.9137 0.9137 0.9137
3617.000000 0.9137 0.9136 0.9136 0.9136 0.9136
3622.000000 0.9136 0.9136 0.9136 0.9136 0.9136
3627.000000 0.9136 0.9136 0.9135 0.9135 0.9135
3632.000000 0.9135 0.9135 0.9135 0.9135 0.9135
3637.000000 0.9135 0.9135 0.9135 0.9135 0.9135
3642.000000 0.9135 0.9135 0.9135 0.9135 0.9135
3647.000000 0.9135 0.9135 0.9135 0.9135 0.9135
3652.000000 0.9135 0.9135 0.9135 0.9135 0.9135
3657.000000 0.9135 0.9135 0.9135 0.9135 0.9135
3662.000000 0.9135 0.9135 0.9135 0.9135 0.9135
3667.000000 0.9135 0.9135 0.9135 0.9135 0.9135
3672.000000 0.9135 0.9135 0.9135 0.9135 0.9135
3677.000000 0.9135 0.9135 0.9135 0.9135 0.9135
3682.000000 0.9135 0.9135 0.9135 0.9135 0.9135
3687.000000 0.9135 0.9134 0.9134 0.9134 0.9134
3692.000000 0.9134 0.9134 0.9134 0.9134 0.9134
3697.000000 0.9134 0.9134 0.9134 0.9134 0.9134
3702.000000 0.9134 0.9134 0.9133 0.9133 0.9133
3707.000000 0.9133 0.9133 0.9133 0.9133 0.9133
3712.000000 0.9133 0.9133 0.9133 0.9133 0.9133
3717.000000 0.9133 0.9133 0.9133 0.9133 0.9132
3722.000000 0.9132 0.9132 0.9132 0.9132 0.9132
3727.000000 0.9132 0.9132 0.9132 0.9132 0.9132
3732.000000 0.9132 0.9132 0.9132 0.9132 0.9132
3737.000000 0.9132 0.9132 0.9132 0.9132 0.9132
3742.000000 0.9132 0.9131 0.9131 0.9131 0.9131
3747.000000 0.9131 0.9131 0.9131 0.9131 0.9131
3752.000000 0.9131 0.9131 0.9130 0.9130 0.9130
3757.000000 0.9130 0.9130 0.9130 0.9129 0.9129
3762.000000 0.9129 0.9128 0.9128 0.9128 0.9127
3767.000000 0.9127 0.9126 0.9126 0.9126 0.9125
3772.000000 0.9125 0.9125 0.9124 0.9124 0.9124
3777.000000 0.9123 0.9123 0.9123 0.9122 0.9122
3782.000000 0.9122 0.9121 0.9121 0.9121 0.9120
3787.000000 0.9120 0.9119 0.9119 0.9119 0.9118
3792.000000 0.9118 0.9118 0.9117 0.9117 0.9117
3797.000000 0.9116 0.9116 0.9116 0.9115 0.9115
3802.000000 0.9115 0.9114 0.9114 0.9114 0.9113
3807.000000 0.9113 0.9113 0.9113 0.9113 0.9112
3812.000000 0.9112 0.9112 0.9111 0.9111 0.9111
3817.000000 0.9110 0.9110 0.9110 0.9109 0.9109
3822.000000 0.9109 0.9108 0.9108 0.9108 0.9107
3827.000000 0.9107 0.9107 0.9106 0.9106 0.9106
3832.000000 0.9105 0.9105 0.9105 0.9104 0.9104
3837.000000 0.9104 0.9103 0.9103 0.9103 0.9102
3842.000000 0.9102 0.9102 0.9101 0.9101 0.9101
3847.000000 0.9100 0.9100 0.9100 0.9099 0.9099
3852.000000 0.9099 0.9098 0.9098 0.9097 0.9097
3857.000000 0.9096 0.9096 0.9095 0.9095 0.9095
3862.000000 0.9094 0.9094 0.9093 0.9093 0.9093
3867.000000 0.9092 0.9092 0.9092 0.9091 0.9091
3872.000000 0.9091 0.9090 0.9090 0.9090 0.9089
3877.000000 0.9089 0.9089 0.9088 0.9088 0.9088
3882.000000 0.9087 0.9087 0.9086 0.9086 0.9086
3887.000000 0.9085 0.9085 0.9083 0.9082 0.9080
3892.000000 0.9079 0.9077 0.9076 0.9074 0.9072
3897.000000 0.9071 0.9069 0.9067 0.9066 0.9064
3902.000000 0.9062 0.9060 0.9059 0.9057 0.9055
3907.000000 0.9052 0.9048 0.9045 0.9042 0.9038
3912.000000 0.9035 0.9031 0.9028 0.9024 0.9021
3917.000000 0.9018 0.9014 0.9011 0.9007 0.9004
3922.000000 0.9000 0.8996 0.8993 0.8989 0.8986
3927.000000 0.8983 0.8980 0.8976 0.8973 0.8970
3932.000000 0.8968 0.8966 0.8963 0.8961 0.8959
3937.000000 0.8957 0.8954 0.8952 0.8950 0.8947
3942.000000 0.8945 0.8943 0.8941 0.8940 0.8939
3947.000000 0.8938 0.8936 0.8935 0.8934 0.8933
3952.000000 0.8931 0.8930 0.8929 0.8927 0.8926
3957.000000 0.8926 0.8926 0.8925 0.8925 0.8925
3962.000000 0.8924 0.8924 0.8924 0.8924 0.8923
3967.000000 0.8923 0.8923 0.8922 0.8922 0.8922
3972.000000 0.8922 0.8922 0.8922 0.8921 0.8921
3977.000000 0.8921 0.8920 0.8920 0.8920 0.8919
3982.000000 0.8919 0.8919 0.8919 0.8919 0.8919
3987.000000 0.8919 0.8918 0.8918 0.8918 0.8917
3992.000000 0.8917 0.8917 0.8917 0.8917 0.8917
3997.000000 0.8917 0.8917 0.8917 0.8917
##END=
