##TITLE=9-Octadecenoic acid, pentyl ester
##JCAMP-DX=4.24
$$ By DXEDIT 1.05 (RS McDonald)
##DATA TYPE=INFRARED SPECTRUM
##CLASS=COBLENTZ
##ORIGIN=DOW CHEMICAL COMPANY
##OWNER=COPYRIGHT (C) 1988 by COBLENTZ SOCIETY INC.
Collection (C) 2018 copyright by the U.S. Secretary of Commerce
on behalf of the United States of America. All rights reserved.
##DATE=1970/01/19
##NAMES=pentyl (9E)-9-octadecenoate
Pentyl oleate
##MOLFORM=C23 H44 O2
##SOURCE REFERENCE=COBLENTZ NO. 09540
##$NIST ID=B6009540
##$NIST SOURCE=COBLENTZ
##$NIST IMAGE=cob9540
##SPECTROMETER/DATA SYSTEM=DOW KBr FOREPRISM-GRATING
##INSTRUMENT PARAMETERS=BLAZED AT 3.5, 12.0, 20.0 MICRON AND CHANGED AT 5.0, 7.5, 14.9 MICRON
##STATE=SOLUTION (10% CCl4 FOR 2.7-7.5, 10% CS2 FOR 7.5-26 MICRON) VS SOLVENT
##PATH LENGTH=0.011 CM, 0.011 CM
##SAMPLING PROCEDURE=TRANSMISSION
##RESOLUTION=2
##DATA PROCESSING=DIGITIZED BY COBLENTZ SOCIETY (BATCH I) FROM HARD COPY
##XUNITS=1/CM
##YUNITS=TRANSMITTANCE
##XFACTOR=1
##YFACTOR=1
##DELTAX=1
##FIRSTX=3792
##LASTX=393
##FIRSTY=0.8574
##MAXX=3792
##MINX=393
##MAXY=0.8861
##MINY=0.0142
##NPOINTS=3400
##XYDATA=(X++(Y..Y))
3792.000000 0.8574 0.8573 0.8573 0.8571 0.8571
3787.000000 0.8570 0.8568 0.8568 0.8567 0.8566
3782.000000 0.8565 0.8564 0.8563 0.8562 0.8561
3777.000000 0.8560 0.8559 0.8558 0.8557 0.8556
3772.000000 0.8555 0.8555 0.8556 0.8556 0.8557
3767.000000 0.8557 0.8557 0.8557 0.8558 0.8558
3762.000000 0.8558 0.8558 0.8558 0.8558 0.8558
3757.000000 0.8558 0.8558 0.8557 0.8557 0.8557
3752.000000 0.8557 0.8556 0.8556 0.8556 0.8556
3747.000000 0.8556 0.8556 0.8555 0.8555 0.8555
3742.000000 0.8555 0.8555 0.8555 0.8554 0.8554
3737.000000 0.8554 0.8555 0.8555 0.8555 0.8555
3732.000000 0.8555 0.8555 0.8556 0.8556 0.8556
3727.000000 0.8556 0.8557 0.8557 0.8557 0.8557
3722.000000 0.8558 0.8558 0.8558 0.8558 0.8558
3717.000000 0.8558 0.8559 0.8559 0.8559 0.8559
3712.000000 0.8560 0.8560 0.8560 0.8560 0.8561
3707.000000 0.8561 0.8561 0.8561 0.8562 0.8562
3702.000000 0.8562 0.8562 0.8563 0.8563 0.8563
3697.000000 0.8563 0.8564 0.8564 0.8564 0.8564
3692.000000 0.8565 0.8565 0.8565 0.8565 0.8566
3687.000000 0.8566 0.8566 0.8566 0.8567 0.8567
3682.000000 0.8567 0.8567 0.8568 0.8568 0.8568
3677.000000 0.8568 0.8568 0.8568 0.8570 0.8570
3672.000000 0.8570 0.8570 0.8570 0.8570 0.8570
3667.000000 0.8570 0.8571 0.8571 0.8571 0.8571
3662.000000 0.8571 0.8571 0.8571 0.8571 0.8571
3657.000000 0.8571 0.8571 0.8571 0.8571 0.8571
3652.000000 0.8571 0.8571 0.8571 0.8571 0.8571
3647.000000 0.8571 0.8571 0.8570 0.8568 0.8567
3642.000000 0.8566 0.8565 0.8564 0.8562 0.8561
3637.000000 0.8560 0.8559 0.8558 0.8557 0.8555
3632.000000 0.8554 0.8553 0.8553 0.8552 0.8551
3627.000000 0.8550 0.8550 0.8549 0.8549 0.8548
3622.000000 0.8547 0.8546 0.8546 0.8545 0.8544
3617.000000 0.8543 0.8543 0.8543 0.8543 0.8543
3612.000000 0.8543 0.8543 0.8543 0.8543 0.8543
3607.000000 0.8543 0.8543 0.8543 0.8543 0.8544
3602.000000 0.8545 0.8546 0.8548 0.8549 0.8551
3597.000000 0.8552 0.8554 0.8555 0.8557 0.8558
3592.000000 0.8560 0.8563 0.8567 0.8571 0.8575
3587.000000 0.8578 0.8583 0.8587 0.8592 0.8596
3582.000000 0.8600 0.8604 0.8609 0.8613 0.8617
3577.000000 0.8621 0.8625 0.8630 0.8634 0.8638
3572.000000 0.8643 0.8644 0.8645 0.8645 0.8645
3567.000000 0.8645 0.8645 0.8645 0.8645 0.8644
3562.000000 0.8644 0.8643 0.8642 0.8640 0.8639
3557.000000 0.8637 0.8636 0.8635 0.8634 0.8632
3552.000000 0.8631 0.8628 0.8628 0.8627 0.8625
3547.000000 0.8624 0.8623 0.8621 0.8620 0.8618
3542.000000 0.8617 0.8616 0.8615 0.8613 0.8612
3537.000000 0.8611 0.8610 0.8608 0.8607 0.8606
3532.000000 0.8605 0.8603 0.8602 0.8601 0.8600
3527.000000 0.8599 0.8599 0.8599 0.8601 0.8602
3522.000000 0.8604 0.8606 0.8608 0.8610 0.8633
3517.000000 0.8613 0.8615 0.8617 0.8620 0.8621
3512.000000 0.8625 0.8627 0.8630 0.8632 0.8635
3507.000000 0.8638 0.8641 0.8643 0.8646 0.8648
3502.000000 0.8651 0.8654 0.8657 0.8659 0.8661
3497.000000 0.8663 0.8665 0.8666 0.8668 0.8670
3492.000000 0.8671 0.8673 0.8675 0.8677 0.8678
3487.000000 0.8680 0.8682 0.8684 0.8686 0.8687
3482.000000 0.8689 0.8689 0.8690 0.8690 0.8691
3477.000000 0.8692 0.8693 0.8693 0.8694 0.8694
3472.000000 0.8695 0.8695 0.8696 0.8696 0.8697
3467.000000 0.8697 0.8697 0.8697 0.8696 0.8691
3462.000000 0.8687 0.8682 0.8678 0.8671 0.8667
3457.000000 0.8662 0.8657 0.8652 0.8647 0.8644
3452.000000 0.8641 0.8638 0.8635 0.8632 0.8628
3447.000000 0.8628 0.8627 0.8627 0.8628 0.8628
3442.000000 0.8628 0.8628 0.8628 0.8628 0.8630
3437.000000 0.8633 0.8637 0.8641 0.8646 0.8650
3432.000000 0.8655 0.8660 0.8665 0.8668 0.8674
3427.000000 0.8678 0.8683 0.8688 0.8693 0.8697
3422.000000 0.8702 0.8707 0.8712 0.8716 0.8721
3417.000000 0.8725 0.8731 0.8735 0.8740 0.8745
3412.000000 0.8750 0.8753 0.8756 0.8758 0.8761
3407.000000 0.8763 0.8766 0.8768 0.8770 0.8771
3402.000000 0.8775 0.8777 0.8778 0.8780 0.8782
3397.000000 0.8782 0.8783 0.8783 0.8783 0.8783
3392.000000 0.8784 0.8784 0.8784 0.8784 0.8785
3387.000000 0.8785 0.8785 0.8785 0.8786 0.8786
3382.000000 0.8787 0.8787 0.8787 0.8787 0.8788
3377.000000 0.8788 0.8788 0.8788 0.8789 0.8789
3372.000000 0.8790 0.8790 0.8791 0.8792 0.8793
3367.000000 0.8793 0.8794 0.8794 0.8795 0.8797
3362.000000 0.8799 0.8802 0.8805 0.8808 0.8811
3357.000000 0.8813 0.8816 0.8818 0.8821 0.8825
3352.000000 0.8828 0.8831 0.8835 0.8838 0.8841
3347.000000 0.8844 0.8848 0.8850 0.8852 0.8854
3342.000000 0.8857 0.8859 0.8860 0.8861 0.8861
3337.000000 0.8855 0.8849 0.8847 0.8845 0.8844
3332.000000 0.8843 0.8842 0.8841 0.8839 0.8838
3327.000000 0.8837 0.8836 0.8835 0.8834 0.8832
3322.000000 0.8831 0.8830 0.8828 0.8828 0.8830
3317.000000 0.8830 0.8830 0.8830 0.8831 0.8831
3312.000000 0.8831 0.8831 0.8832 0.8832 0.8832
3307.000000 0.8832 0.8833 0.8833 0.8833 0.8833
3302.000000 0.8834 0.8834 0.8834 0.8834 0.8835
3297.000000 0.8835 0.8835 0.8835 0.8835 0.8835
3292.000000 0.8835 0.8834 0.8834 0.8833 0.8833
3287.000000 0.8833 0.8833 0.8832 0.8832 0.8832
3282.000000 0.8832 0.8831 0.8831 0.8830 0.8830
3277.000000 0.8830 0.8830 0.8828 0.8828 0.8828
3272.000000 0.8828 0.8828 0.8828 0.8827 0.8827
3267.000000 0.8825 0.8825 0.8825 0.8825 0.8824
3262.000000 0.8823 0.8821 0.8821 0.8821 0.8821
3257.000000 0.8820 0.8820 0.8818 0.8818 0.8817
3252.000000 0.8817 0.8816 0.8816 0.8815 0.8815
3247.000000 0.8814 0.8813 0.8813 0.8813 0.8813
3242.000000 0.8814 0.8814 0.8815 0.8815 0.8815
3237.000000 0.8815 0.8815 0.8814 0.8814 0.8813
3232.000000 0.8812 0.8811 0.8811 0.8810 0.8810
3227.000000 0.8809 0.8808 0.8806 0.8804 0.8802
3222.000000 0.8801 0.8799 0.8797 0.8795 0.8794
3217.000000 0.8792 0.8790 0.8788 0.8787 0.8785
3212.000000 0.8783 0.8781 0.8780 0.8778 0.8777
3207.000000 0.8775 0.8774 0.8771 0.8771 0.8768
3202.000000 0.8767 0.8765 0.8764 0.8762 0.8761
3197.000000 0.8759 0.8758 0.8756 0.8755 0.8753
3192.000000 0.8752 0.8751 0.8750 0.8748 0.8747
3187.000000 0.8746 0.8745 0.8744 0.8743 0.8741
3182.000000 0.8740 0.8739 0.8738 0.8736 0.8735
3177.000000 0.8733 0.8731 0.8728 0.8727 0.8724
3172.000000 0.8721 0.8720 0.8718 0.8716 0.8714
3167.000000 0.8711 0.8709 0.8707 0.8705 0.8703
3162.000000 0.8701 0.8699 0.8697 0.8694 0.8692
3157.000000 0.8690 0.8688 0.8686 0.8684 0.8682
3152.000000 0.8681 0.8680 0.8678 0.8678 0.8677
3147.000000 0.8675 0.8675 0.8674 0.8673 0.8671
3142.000000 0.8671 0.8671 0.8670 0.8668 0.8668
3137.000000 0.8667 0.8666 0.8665 0.8665 0.8664
3132.000000 0.8663 0.8662 0.8661 0.8660 0.8659
3127.000000 0.8657 0.8655 0.8653 0.8651 0.8648
3122.000000 0.8646 0.8644 0.8642 0.8639 0.8637
3117.000000 0.8635 0.8633 0.8632 0.8631 0.8628
3112.000000 0.8628 0.8627 0.8625 0.8624 0.8623
3107.000000 0.8621 0.8621 0.8618 0.8618 0.8616
3102.000000 0.8615 0.8610 0.8606 0.8602 0.8598
3097.000000 0.8593 0.8589 0.8585 0.8581 0.8575
3092.000000 0.8571 0.8567 0.8563 0.8558 0.8553
3087.000000 0.8546 0.8540 0.8534 0.8528 0.8521
3082.000000 0.8516 0.8509 0.8503 0.8497 0.8491
3077.000000 0.8484 0.8478 0.8470 0.8462 0.8454
3072.000000 0.8446 0.8437 0.8428 0.8420 0.8412
3067.000000 0.8403 0.8395 0.8386 0.8378 0.8368
3062.000000 0.8361 0.8352 0.8343 0.8334 0.8325
3057.000000 0.8317 0.8308 0.8299 0.8291 0.8282
3052.000000 0.8274 0.8265 0.8256 0.8247 0.8239
3047.000000 0.8228 0.8220 0.8208 0.8196 0.8184
3042.000000 0.8171 0.8160 0.8148 0.8136 0.8124
3037.000000 0.8111 0.8100 0.8080 0.8061 0.8041
3032.000000 0.8021 0.8001 0.7981 0.7951 0.7921
3027.000000 0.7886 0.7851 0.7815 0.7778 0.7730
3022.000000 0.7682 0.7625 0.7568 0.7511 0.7456
3017.000000 0.7400 0.7345 0.7290 0.7235 0.7078
3012.000000 0.6921 0.6065 0.5209 0.5210 0.5212
3007.000000 0.5223 0.5234 0.5254 0.5274 0.5294
3002.000000 0.5314 0.5334 0.5354 0.5374 0.5394
2997.000000 0.5414 0.5434 0.5454 0.5474 0.5472
2992.000000 0.5471 0.5435 0.5400 0.5200 0.5001
2987.000000 0.4801 0.4601 0.4401 0.4202 0.4002
2982.000000 0.3802 0.3602 0.3403 0.3203 0.3003
2977.000000 0.2803 0.2604 0.2404 0.2204 0.2004
2972.000000 0.1804 0.1604 0.1405 0.1205 0.1006
2967.000000 0.0836 0.0667 0.0636 0.0606 0.0579
2962.000000 0.0552 0.0526 0.0500 0.0475 0.0452
2957.000000 0.0443 0.0435 0.0435 0.0435 0.0437
2952.000000 0.0439 0.0454 0.0469 0.0488 0.0507
2947.000000 0.0524 0.0542 0.0550 0.0559 0.0558
2942.000000 0.0557 0.0543 0.0529 0.0501 0.0473
2937.000000 0.0433 0.0393 0.0346 0.0299 0.0267
2932.000000 0.0236 0.0214 0.0193 0.0178 0.0163
2927.000000 0.0154 0.0146 0.0142 0.0142 0.0142
2922.000000 0.0147 0.0153 0.0160 0.0170 0.0180
2917.000000 0.0201 0.0223 0.0261 0.0300 0.0362
2912.000000 0.0425 0.0495 0.0565 0.0638 0.0712
2907.000000 0.0785 0.0858 0.0931 0.1005 0.1078
2902.000000 0.1152 0.1225 0.1299 0.1372 0.1445
2897.000000 0.1518 0.1592 0.1665 0.1739 0.1812
2892.000000 0.1885 0.1959 0.2032 0.2105 0.2179
2887.000000 0.2252 0.2326 0.2399 0.2473 0.2546
2882.000000 0.2716 0.2651 0.2684 0.2692 0.2701
2877.000000 0.2652 0.2603 0.2453 0.2304 0.2154
2872.000000 0.2004 0.1854 0.1704 0.1640 0.1576
2867.000000 0.1570 0.1564 0.1558 0.1553 0.1483
2862.000000 0.1413 0.1288 0.1163 0.1038 0.0913
2857.000000 0.0788 0.0663 0.0625 0.0568 0.0586
2852.000000 0.0586 0.0745 0.0905 0.1268 0.1632
2847.000000 0.1994 0.2358 0.2721 0.3084 0.3448
2842.000000 0.3810 0.4002 0.4193 0.4303 0.4412
2837.000000 0.4786 0.5160 0.5276 0.5393 0.5495
2832.000000 0.5597 0.5669 0.5742 0.5814 0.5887
2827.000000 0.5966 0.6045 0.6128 0.6212 0.6307
2822.000000 0.6403 0.6495 0.6588 0.6656 0.6724
2817.000000 0.6792 0.6860 0.6910 0.6961 0.7010
2812.000000 0.7060 0.7108 0.7158 0.7197 0.7236
2807.000000 0.7275 0.7314 0.7353 0.7392 0.7428
2802.000000 0.7467 0.7501 0.7535 0.7568 0.7603
2797.000000 0.7625 0.7650 0.7668 0.7688 0.7707
2792.000000 0.7726 0.7746 0.7765 0.7782 0.7799
2787.000000 0.7814 0.7830 0.7845 0.7861 0.7875
2782.000000 0.7891 0.7906 0.7921 0.7932 0.7944
2777.000000 0.7955 0.7967 0.7978 0.7991 0.8001
2772.000000 0.8014 0.8022 0.8033 0.8043 0.8053
2767.000000 0.8061 0.8071 0.8078 0.8085 0.8090
2762.000000 0.8096 0.8101 0.8108 0.8114 0.8119
2757.000000 0.8125 0.8131 0.8137 0.8143 0.8148
2752.000000 0.8154 0.8157 0.8160 0.8161 0.8165
2747.000000 0.8165 0.8168 0.8168 0.8171 0.8171
2742.000000 0.8171 0.8167 0.8162 0.8158 0.8156
2737.000000 0.8151 0.8149 0.8146 0.8144 0.8141
2732.000000 0.8138 0.8135 0.8133 0.8130 0.8126
2727.000000 0.8125 0.8125 0.8125 0.8125 0.8125
2722.000000 0.8125 0.8124 0.8124 0.8122 0.8122
2717.000000 0.8122 0.8122 0.8128 0.8133 0.8138
2712.000000 0.8143 0.8148 0.8154 0.8158 0.8164
2707.000000 0.8168 0.8174 0.8178 0.8183 0.8188
2702.000000 0.8193 0.8197 0.8202 0.8205 0.8209
2697.000000 0.8211 0.8214 0.8216 0.8218 0.8220
2692.000000 0.8221 0.8224 0.8225 0.8225 0.8225
2687.000000 0.8225 0.8225 0.8223 0.8221 0.8221
2682.000000 0.8220 0.8218 0.8217 0.8215 0.8214
2677.000000 0.8213 0.8212 0.8210 0.8209 0.8209
2672.000000 0.8208 0.8209 0.8211 0.8213 0.8216
2667.000000 0.8218 0.8220 0.8221 0.8224 0.8225
2662.000000 0.8228 0.8231 0.8233 0.8235 0.8237
2657.000000 0.8239 0.8242 0.8244 0.8246 0.8248
2652.000000 0.8250 0.8252 0.8255 0.8257 0.8259
2647.000000 0.8261 0.8263 0.8265 0.8268 0.8270
2642.000000 0.8271 0.8275 0.8278 0.8281 0.8285
2637.000000 0.8288 0.8292 0.8295 0.8299 0.8302
2632.000000 0.8306 0.8309 0.8313 0.8316 0.8320
2627.000000 0.8323 0.8327 0.8330 0.8334 0.8337
2622.000000 0.8341 0.8344 0.8348 0.8351 0.8355
2617.000000 0.8358 0.8362 0.8365 0.8368 0.8371
2612.000000 0.8375 0.8378 0.8383 0.8386 0.8389
2607.000000 0.8392 0.8396 0.8399 0.8403 0.8406
2602.000000 0.8410 0.8413 0.8417 0.8420 0.8423
2597.000000 0.8425 0.8430 0.8433 0.8437 0.8440
2592.000000 0.8444 0.8447 0.8450 0.8453 0.8457
2587.000000 0.8460 0.8464 0.8467 0.8471 0.8474
2582.000000 0.8477 0.8480 0.8484 0.8487 0.8491
2577.000000 0.8494 0.8497 0.8500 0.8503 0.8505
2572.000000 0.8508 0.8510 0.8513 0.8515 0.8518
2567.000000 0.8520 0.8523 0.8525 0.8528 0.8530
2562.000000 0.8533 0.8535 0.8538 0.8540 0.8543
2557.000000 0.8545 0.8548 0.8550 0.8553 0.8555
2552.000000 0.8558 0.8560 0.8562 0.8564 0.8567
2547.000000 0.8568 0.8571 0.8571 0.8573 0.8574
2542.000000 0.8575 0.8577 0.8578 0.8578 0.8581
2537.000000 0.8582 0.8583 0.8584 0.8585 0.8586
2532.000000 0.8588 0.8589 0.8590 0.8591 0.8593
2527.000000 0.8594 0.8596 0.8598 0.8600 0.8602
2522.000000 0.8605 0.8607 0.8609 0.8611 0.8613
2517.000000 0.8615 0.8617 0.8618 0.8621 0.8623
2512.000000 0.8625 0.8627 0.8630 0.8632 0.8634
2507.000000 0.8636 0.8638 0.8640 0.8642 0.8644
2502.000000 0.8646 0.8648 0.8650 0.8652 0.8655
2497.000000 0.8657 0.8659 0.8660 0.8662 0.8663
2492.000000 0.8664 0.8665 0.8666 0.8667 0.8668
2487.000000 0.8668 0.8670 0.8671 0.8671 0.8673
2482.000000 0.8674 0.8675 0.8677 0.8678 0.8678
2477.000000 0.8680 0.8681 0.8682 0.8683 0.8684
2472.000000 0.8685 0.8686 0.8687 0.8688 0.8689
2467.000000 0.8690 0.8692 0.8693 0.8694 0.8694
2462.000000 0.8695 0.8695 0.8695 0.8695 0.8695
2457.000000 0.8695 0.8695 0.8695 0.8695 0.8695
2452.000000 0.8696 0.8696 0.8696 0.8696 0.8696
2447.000000 0.8696 0.8696 0.8696 0.8696 0.8696
2442.000000 0.8696 0.8696 0.8696 0.8696 0.8697
2437.000000 0.8697 0.8697 0.8697 0.8697 0.8697
2432.000000 0.8697 0.8697 0.8697 0.8696 0.8696
2427.000000 0.8695 0.8694 0.8693 0.8692 0.8691
2422.000000 0.8690 0.8689 0.8688 0.8687 0.8686
2417.000000 0.8685 0.8684 0.8683 0.8682 0.8681
2412.000000 0.8680 0.8678 0.8678 0.8677 0.8675
2407.000000 0.8675 0.8674 0.8673 0.8671 0.8671
2402.000000 0.8670 0.8668 0.8668 0.8668 0.8668
2397.000000 0.8668 0.8670 0.8670 0.8671 0.8671
2392.000000 0.8673 0.8673 0.8674 0.8674 0.8675
2387.000000 0.8675 0.8677 0.8677 0.8678 0.8678
2382.000000 0.8680 0.8680 0.8681 0.8682 0.8684
2377.000000 0.8685 0.8687 0.8689 0.8691 0.8692
2372.000000 0.8694 0.8696 0.8698 0.8699 0.8701
2367.000000 0.8703 0.8705 0.8706 0.8708 0.8709
2362.000000 0.8710 0.8711 0.8712 0.8712 0.8713
2357.000000 0.8714 0.8715 0.8715 0.8716 0.8717
2352.000000 0.8718 0.8718 0.8718 0.8720 0.8721
2347.000000 0.8721 0.8721 0.8723 0.8724 0.8724
2342.000000 0.8725 0.8725 0.8725 0.8725 0.8725
2337.000000 0.8724 0.8723 0.8721 0.8721 0.8721
2332.000000 0.8721 0.8720 0.8718 0.8718 0.8718
2327.000000 0.8717 0.8717 0.8716 0.8715 0.8709
2322.000000 0.8704 0.8697 0.8691 0.8684 0.8677
2317.000000 0.8663 0.8649 0.8637 0.8625 0.8618
2312.000000 0.8611 0.8604 0.8597 0.8596 0.8595
2307.000000 0.8595 0.8596 0.8596 0.8597 0.8597
2302.000000 0.8598 0.8599 0.8600 0.8600 0.8601
2297.000000 0.8601 0.8602 0.8602 0.8603 0.8604
2292.000000 0.8606 0.8608 0.8611 0.8613 0.8615
2287.000000 0.8617 0.8618 0.8621 0.8623 0.8625
2282.000000 0.8628 0.8630 0.8632 0.8634 0.8636
2277.000000 0.8638 0.8640 0.8642 0.8645 0.8647
2272.000000 0.8649 0.8651 0.8653 0.8655 0.8657
2267.000000 0.8658 0.8660 0.8661 0.8663 0.8664
2262.000000 0.8665 0.8666 0.8668 0.8668 0.8671
2257.000000 0.8671 0.8674 0.8675 0.8675 0.8677
2252.000000 0.8678 0.8680 0.8682 0.8683 0.8685
2247.000000 0.8686 0.8687 0.8688 0.8690 0.8691
2242.000000 0.8693 0.8694 0.8696 0.8697 0.8698
2237.000000 0.8699 0.8701 0.8702 0.8704 0.8705
2232.000000 0.8707 0.8708 0.8710 0.8711 0.8713
2227.000000 0.8714 0.8716 0.8717 0.8718 0.8720
2222.000000 0.8721 0.8723 0.8725 0.8725 0.8727
2217.000000 0.8728 0.8730 0.8731 0.8732 0.8733
2212.000000 0.8735 0.8736 0.8737 0.8738 0.8739
2207.000000 0.8740 0.8741 0.8742 0.8744 0.8745
2202.000000 0.8746 0.8747 0.8749 0.8750 0.8751
2197.000000 0.8752 0.8753 0.8754 0.8756 0.8756
2192.000000 0.8757 0.8757 0.8757 0.8757 0.8757
2187.000000 0.8759 0.8761 0.8764 0.8767 0.8773
2182.000000 0.8778 0.8791 0.8804 0.8812 0.8821
2177.000000 0.8816 0.8811 0.8805 0.8800 0.8794
2172.000000 0.8788 0.8782 0.8775 0.8774 0.8773
2167.000000 0.8771 0.8771 0.8771 0.8771 0.8771
2162.000000 0.8771 0.8771 0.8771 0.8771 0.8771
2157.000000 0.8771 0.8771 0.8771 0.8771 0.8771
2152.000000 0.8771 0.8771 0.8771 0.8771 0.8771
2147.000000 0.8771 0.8771 0.8771 0.8771 0.8771
2142.000000 0.8771 0.8771 0.8771 0.8771 0.8771
2137.000000 0.8771 0.8773 0.8773 0.8773 0.8773
2132.000000 0.8773 0.8773 0.8773 0.8773 0.8773
2127.000000 0.8773 0.8773 0.8771 0.8771 0.8771
2122.000000 0.8771 0.8771 0.8771 0.8771 0.8771
2117.000000 0.8771 0.8771 0.8771 0.8771 0.8770
2112.000000 0.8770 0.8770 0.8770 0.8770 0.8770
2107.000000 0.8768 0.8768 0.8768 0.8768 0.8768
2102.000000 0.8768 0.8767 0.8767 0.8766 0.8766
2097.000000 0.8765 0.8764 0.8763 0.8763 0.8762
2092.000000 0.8762 0.8761 0.8760 0.8759 0.8759
2087.000000 0.8758 0.8758 0.8751 0.8745 0.8738
2082.000000 0.8732 0.8730 0.8728 0.8727 0.8725
2077.000000 0.8724 0.8723 0.8721 0.8720 0.8718
2072.000000 0.8717 0.8715 0.8714 0.8712 0.8711
2067.000000 0.8709 0.8708 0.8706 0.8705 0.8704
2062.000000 0.8703 0.8703 0.8703 0.8703 0.8703
2057.000000 0.8703 0.8703 0.8703 0.8703 0.8703
2052.000000 0.8703 0.8703 0.8703 0.8703 0.8703
2047.000000 0.8703 0.8703 0.8703 0.8703 0.8703
2042.000000 0.8703 0.8703 0.8702 0.8702 0.8701
2037.000000 0.8700 0.8699 0.8698 0.8697 0.8696
2032.000000 0.8695 0.8693 0.8692 0.8691 0.8691
2027.000000 0.8690 0.8690 0.8689 0.8689 0.8688
2022.000000 0.8688 0.8689 0.8690 0.8695 0.8700
2017.000000 0.8705 0.8710 0.8715 0.8720 0.8725
2012.000000 0.8730 0.8734 0.8739 0.8744 0.8749
2007.000000 0.8754 0.8759 0.8760 0.8762 0.8762
2002.000000 0.8763 0.8763 0.8764 0.8765 0.8765
1997.000000 0.8766 0.8766 0.8766 0.8765 0.8749
1992.000000 0.8734 0.8725 0.8720 0.8720 0.8720
1987.000000 0.8725 0.8731 0.8737 0.8740 0.8741
1982.000000 0.8742 0.8742 0.8743 0.8744 0.8745
1977.000000 0.8746 0.8746 0.8747 0.8747 0.8747
1972.000000 0.8747 0.8748 0.8748 0.8748 0.8749
1967.000000 0.8749 0.8749 0.8749 0.8750 0.8750
1962.000000 0.8750 0.8751 0.8751 0.8751 0.8752
1957.000000 0.8752 0.8752 0.8752 0.8752 0.8752
1952.000000 0.8752 0.8752 0.8752 0.8752 0.8753
1947.000000 0.8753 0.8753 0.8753 0.8753 0.8753
1942.000000 0.8753 0.8753 0.8753 0.8753 0.8753
1937.000000 0.8753 0.8754 0.8754 0.8754 0.8754
1932.000000 0.8754 0.8754 0.8755 0.8755 0.8756
1927.000000 0.8756 0.8757 0.8757 0.8757 0.8758
1922.000000 0.8758 0.8759 0.8759 0.8760 0.8760
1917.000000 0.8760 0.8761 0.8761 0.8762 0.8762
1912.000000 0.8763 0.8763 0.8763 0.8762 0.8761
1907.000000 0.8760 0.8760 0.8759 0.8758 0.8757
1902.000000 0.8757 0.8756 0.8755 0.8755 0.8754
1897.000000 0.8753 0.8752 0.8752 0.8751 0.8750
1892.000000 0.8750 0.8749 0.8748 0.8747 0.8745
1887.000000 0.8744 0.8742 0.8741 0.8739 0.8737
1882.000000 0.8736 0.8734 0.8733 0.8731 0.8728
1877.000000 0.8728 0.8725 0.8725 0.8723 0.8721
1872.000000 0.8720 0.8718 0.8717 0.8715 0.8713
1867.000000 0.8712 0.8710 0.8709 0.8709 0.8708
1862.000000 0.8707 0.8706 0.8705 0.8704 0.8703
1857.000000 0.8703 0.8702 0.8701 0.8700 0.8699
1852.000000 0.8698 0.8698 0.8697 0.8696 0.8695
1847.000000 0.8694 0.8693 0.8693 0.8692 0.8691
1842.000000 0.8689 0.8688 0.8686 0.8685 0.8684
1837.000000 0.8682 0.8681 0.8678 0.8678 0.8677
1832.000000 0.8675 0.8674 0.8671 0.8671 0.8670
1827.000000 0.8667 0.8661 0.8656 0.8651 0.8646
1822.000000 0.8641 0.8635 0.8630 0.8625 0.8620
1817.000000 0.8615 0.8609 0.8602 0.8594 0.8586
1812.000000 0.8578 0.8568 0.8561 0.8553 0.8545
1807.000000 0.8537 0.8528 0.8520 0.8511 0.8502
1802.000000 0.8493 0.8484 0.8475 0.8466 0.8457
1797.000000 0.8448 0.8437 0.8427 0.8417 0.8407
1792.000000 0.8397 0.8386 0.8375 0.8366 0.8351
1787.000000 0.8334 0.8318 0.8301 0.8284 0.8267
1782.000000 0.8250 0.8228 0.8206 0.8185 0.8162
1777.000000 0.8141 0.8118 0.8097 0.8075 0.8049
1772.000000 0.8015 0.7983 0.7951 0.7918 0.7886
1767.000000 0.7853 0.7815 0.7769 0.7724 0.7678
1762.000000 0.7632 0.7580 0.7522 0.7467 0.7410
1757.000000 0.7354 0.7297 0.7200 0.7103 0.7004
1752.000000 0.6801 0.6501 0.6068 0.5523 0.5074
1747.000000 0.4590 0.4106 0.3622 0.3138 0.2654
1742.000000 0.2170 0.1685 0.1202 0.0777 0.0681
1737.000000 0.0586 0.0486 0.0393 0.0338 0.0322
1732.000000 0.0331 0.0316 0.0334 0.0368 0.0417
1727.000000 0.0491 0.0566 0.0845 0.1020 0.1310
1722.000000 0.1462 0.1824 0.2266 0.2709 0.3151
1717.000000 0.3594 0.3802 0.3977 0.4139 0.4339
1712.000000 0.4541 0.4845 0.5054 0.5191 0.5328
1707.000000 0.5444 0.5546 0.5649 0.5751 0.5851
1702.000000 0.5949 0.6047 0.6145 0.6236 0.6323
1697.000000 0.6411 0.6498 0.6585 0.6668 0.6741
1692.000000 0.6815 0.6889 0.6961 0.7035 0.7104
1687.000000 0.7172 0.7241 0.7310 0.7367 0.7418
1682.000000 0.7468 0.7519 0.7569 0.7621 0.7671
1677.000000 0.7705 0.7734 0.7762 0.7792 0.7811
1672.000000 0.7830 0.7848 0.7867 0.7885 0.7904
1667.000000 0.7921 0.7939 0.7953 0.7967 0.7982
1662.000000 0.7996 0.8010 0.8018 0.8028 0.8036
1657.000000 0.8045 0.8051 0.8057 0.8062 0.8068
1652.000000 0.8075 0.8081 0.8092 0.8108 0.8122
1647.000000 0.8139 0.8155 0.8169 0.8188 0.8205
1642.000000 0.8221 0.8240 0.8257 0.8273 0.8282
1637.000000 0.8292 0.8301 0.8310 0.8318 0.8328
1632.000000 0.8337 0.8345 0.8354 0.8362 0.8371
1627.000000 0.8378 0.8388 0.8396 0.8405 0.8413
1622.000000 0.8421 0.8430 0.8439 0.8448 0.8457
1617.000000 0.8466 0.8475 0.8484 0.8493 0.8502
1612.000000 0.8511 0.8520 0.8528 0.8539 0.8548
1607.000000 0.8557 0.8567 0.8575 0.8585 0.8594
1602.000000 0.8603 0.8609 0.8615 0.8621 0.8627
1597.000000 0.8633 0.8639 0.8645 0.8650 0.8651
1592.000000 0.8652 0.8653 0.8654 0.8655 0.8656
1587.000000 0.8657 0.8653 0.8649 0.8645 0.8640
1582.000000 0.8636 0.8632 0.8628 0.8624 0.8623
1577.000000 0.8621 0.8621 0.8620 0.8618 0.8618
1572.000000 0.8618 0.8621 0.8624 0.8627 0.8630
1567.000000 0.8641 0.8636 0.8638 0.8639 0.8641
1562.000000 0.8642 0.8644 0.8645 0.8647 0.8648
1557.000000 0.8649 0.8651 0.8652 0.8654 0.8654
1552.000000 0.8654 0.8654 0.8654 0.8653 0.8653
1547.000000 0.8653 0.8652 0.8652 0.8652 0.8651
1542.000000 0.8651 0.8651 0.8650 0.8650 0.8645
1537.000000 0.8641 0.8636 0.8632 0.8627 0.8623
1532.000000 0.8618 0.8614 0.8610 0.8605 0.8601
1527.000000 0.8596 0.8592 0.8586 0.8575 0.8565
1522.000000 0.8555 0.8545 0.8534 0.8524 0.8514
1517.000000 0.8504 0.8494 0.8480 0.8466 0.8452
1512.000000 0.8438 0.8424 0.8410 0.8396 0.8382
1507.000000 0.8368 0.8354 0.8340 0.8318 0.8296
1502.000000 0.8274 0.8251 0.8228 0.8206 0.8184
1497.000000 0.8161 0.8134 0.8101 0.8069 0.8038
1492.000000 0.8006 0.7974 0.7942 0.7901 0.7861
1487.000000 0.7821 0.7781 0.7740 0.7668 0.7595
1482.000000 0.7521 0.7412 0.7305 0.7196 0.5993
1477.000000 0.4950 0.4547 0.4142 0.3737 0.3332
1472.000000 0.2926 0.2543 0.2413 0.2369 0.2401
1467.000000 0.2429 0.2522 0.2615 0.2708 0.2801
1462.000000 0.2893 0.2985 0.3079 0.3172 0.3264
1457.000000 0.3354 0.3525 0.3804 0.4084 0.4362
1452.000000 0.4642 0.4864 0.4996 0.5077 0.5158
1447.000000 0.5229 0.5295 0.5360 0.5422 0.5468
1442.000000 0.5514 0.5560 0.5607 0.5653 0.5703
1437.000000 0.5754 0.5792 0.5824 0.5857 0.5892
1432.000000 0.5971 0.6093 0.6214 0.6335 0.6422
1427.000000 0.6474 0.6495 0.6499 0.6498 0.6484
1422.000000 0.6456 0.6418 0.6385 0.6385 0.6392
1417.000000 0.6422 0.6475 0.6525 0.6585 0.6643
1412.000000 0.6717 0.6806 0.6876 0.6948 0.6965
1407.000000 0.6971 0.6968 0.6964 0.6956 0.6943
1402.000000 0.6930 0.6898 0.6862 0.6731 0.6369
1397.000000 0.6241 0.6143 0.6057 0.5962 0.5837
1392.000000 0.5627 0.5437 0.5247 0.5174 0.5197
1387.000000 0.5269 0.5341 0.5412 0.5475 0.5475
1382.000000 0.5462 0.5304 0.5202 0.5196 0.5252
1377.000000 0.5323 0.5378 0.5375 0.5331 0.5051
1372.000000 0.4771 0.4491 0.4192 0.4192 0.4437
1367.000000 0.4706 0.4975 0.5042 0.5058 0.5064
1362.000000 0.5070 0.5081 0.5139 0.5199 0.5251
1357.000000 0.5284 0.5296 0.5307 0.5315 0.5322
1352.000000 0.5332 0.5348 0.5362 0.5382 0.5403
1347.000000 0.5429 0.5482 0.5538 0.5601 0.5662
1342.000000 0.5722 0.5781 0.5840 0.5918 0.5927
1337.000000 0.5935 0.5944 0.5953 0.5962 0.5971
1332.000000 0.5980 0.5996 0.6012 0.6030 0.6042
1327.000000 0.6052 0.6084 0.6062 0.6064 0.6048
1322.000000 0.6022 0.5976 0.5931 0.5894 0.5857
1317.000000 0.5820 0.5785 0.5753 0.5720 0.5688
1312.000000 0.5658 0.5631 0.5605 0.5578 0.5553
1307.000000 0.5530 0.5508 0.5490 0.5476 0.5469
1302.000000 0.5478 0.5487 0.5497 0.5510 0.5525
1297.000000 0.5538 0.5551 0.5555 0.5558 0.5562
1292.000000 0.5562 0.5562 0.5562 0.5560 0.5560
1287.000000 0.5543 0.5527 0.5504 0.5467 0.5431
1282.000000 0.5368 0.5297 0.5231 0.5165 0.5066
1277.000000 0.5020 0.5007 0.5010 0.5014 0.5019
1272.000000 0.5026 0.5034 0.5035 0.5035 0.5034
1267.000000 0.5030 0.5016 0.4993 0.4958 0.4923
1262.000000 0.4889 0.4855 0.4810 0.4760 0.4712
1257.000000 0.4662 0.4614 0.4565 0.4516 0.4467
1252.000000 0.4418 0.4369 0.4321 0.4264 0.4185
1247.000000 0.4095 0.4018 0.3959 0.3893 0.3880
1242.000000 0.3877 0.3893 0.3927 0.3964 0.4004
1237.000000 0.4043 0.4079 0.4112 0.4146 0.4179
1232.000000 0.4212 0.4246 0.4278 0.4310 0.4342
1227.000000 0.4374 0.4406 0.4433 0.4459 0.4485
1222.000000 0.4510 0.4537 0.4553 0.4564 0.4571
1217.000000 0.4573 0.4575 0.4599 0.4571 0.4558
1212.000000 0.4545 0.4531 0.4512 0.4493 0.4473
1207.000000 0.4454 0.4432 0.4410 0.4390 0.4368
1202.000000 0.4328 0.4282 0.4170 0.4030 0.3884
1197.000000 0.3682 0.3590 0.3516 0.3445 0.3371
1192.000000 0.3298 0.3224 0.3151 0.3057 0.2960
1187.000000 0.2899 0.2863 0.2828 0.2788 0.2741
1182.000000 0.2693 0.2650 0.2611 0.2578 0.2564
1177.000000 0.2550 0.2537 0.2530 0.2523 0.2514
1172.000000 0.2505 0.2484 0.2437 0.2388 0.2356
1167.000000 0.2337 0.2313 0.2326 0.2342 0.2375
1162.000000 0.2432 0.2530 0.2633 0.2735 0.2839
1157.000000 0.2943 0.3046 0.3149 0.3252 0.3355
1152.000000 0.3459 0.3562 0.3664 0.3768 0.3871
1147.000000 0.3975 0.4078 0.4181 0.4284 0.4387
1142.000000 0.4491 0.4576 0.4651 0.4729 0.4816
1137.000000 0.4903 0.4971 0.5037 0.5102 0.5168
1132.000000 0.5235 0.5310 0.5373 0.5424 0.5476
1127.000000 0.5492 0.5501 0.5507 0.5497 0.5485
1122.000000 0.5460 0.5408 0.5346 0.5282 0.5237
1117.000000 0.5210 0.5201 0.5204 0.5212 0.5236
1112.000000 0.5267 0.5305 0.5350 0.5394 0.5440
1107.000000 0.5487 0.5534 0.5582 0.5628 0.5675
1102.000000 0.5721 0.5754 0.5787 0.5801 0.5812
1097.000000 0.5819 0.5818 0.5816 0.5806 0.5795
1092.000000 0.5795 0.5796 0.5797 0.5802 0.5809
1087.000000 0.5816 0.5828 0.5847 0.5866 0.5889
1082.000000 0.5912 0.5934 0.5957 0.5989 0.6030
1077.000000 0.6070 0.6110 0.6147 0.6180 0.6212
1072.000000 0.6245 0.6273 0.6300 0.6318 0.6335
1067.000000 0.6352 0.6352 0.6349 0.6335 0.6318
1062.000000 0.6301 0.6285 0.6276 0.6267 0.6258
1057.000000 0.6248 0.6239 0.6232 0.6226 0.6220
1052.000000 0.6215 0.6209 0.6206 0.6206 0.6207
1047.000000 0.6223 0.6266 0.6314 0.6364 0.6414
1042.000000 0.6465 0.6515 0.6567 0.6624 0.6681
1037.000000 0.6730 0.6768 0.6808 0.6847 0.6885
1032.000000 0.6922 0.6958 0.6993 0.7022 0.7042
1027.000000 0.7061 0.7082 0.7092 0.7100 0.7108
1022.000000 0.7136 0.7103 0.7098 0.7093 0.7088
1017.000000 0.7083 0.7078 0.7074 0.7068 0.7061
1012.000000 0.7054 0.7037 0.7003 0.6969 0.6945
1007.000000 0.6924 0.6904 0.6884 0.6864 0.6845
1002.000000 0.6828 0.6814 0.6798 0.6788 0.6782
997.000000 0.6775 0.6769 0.6764 0.6760 0.6758
992.000000 0.6757 0.6755 0.6754 0.6750 0.6742
987.000000 0.6735 0.6726 0.6718 0.6698 0.6678
982.000000 0.6658 0.6632 0.6606 0.6578 0.6553
977.000000 0.6525 0.6497 0.6468 0.6439 0.6396
972.000000 0.6351 0.6302 0.6247 0.6182 0.6093
967.000000 0.6005 0.5960 0.5944 0.5932 0.5939
962.000000 0.5946 0.6114 0.6245 0.6322 0.6387
957.000000 0.6451 0.6515 0.6574 0.6619 0.6665
952.000000 0.6711 0.6757 0.6794 0.6832 0.6868
947.000000 0.6906 0.6945 0.6989 0.7033 0.7076
942.000000 0.7167 0.7256 0.7326 0.7362 0.7400
937.000000 0.7437 0.7464 0.7489 0.7514 0.7532
932.000000 0.7549 0.7567 0.7584 0.7600 0.7618
927.000000 0.7630 0.7630 0.7621 0.7615 0.7607
922.000000 0.7601 0.7600 0.7598 0.7597 0.7595
917.000000 0.7595 0.7595 0.7600 0.7606 0.7611
912.000000 0.7618 0.7628 0.7640 0.7651 0.7661
907.000000 0.7672 0.7684 0.7695 0.7706 0.7717
902.000000 0.7735 0.7754 0.7772 0.7792 0.7811
897.000000 0.7831 0.7851 0.7871 0.7888 0.7904
892.000000 0.7919 0.7936 0.7951 0.7968 0.7982
887.000000 0.7991 0.8001 0.8010 0.8018 0.8025
882.000000 0.8031 0.8037 0.8042 0.8046 0.8050
877.000000 0.8054 0.8058 0.8061 0.8064 0.8067
872.000000 0.8068 0.8071 0.8074 0.8075 0.8081
867.000000 0.8085 0.8090 0.8095 0.8100 0.8110
862.000000 0.8122 0.8136 0.8149 0.8161 0.8176
857.000000 0.8192 0.8207 0.8221 0.8238 0.8254
852.000000 0.8270 0.8286 0.8303 0.8317 0.8331
847.000000 0.8339 0.8345 0.8351 0.8357 0.8359
842.000000 0.8362 0.8365 0.8365 0.8366 0.8346
837.000000 0.8327 0.8305 0.8283 0.8261 0.8237
832.000000 0.8212 0.8188 0.8162 0.8138 0.8114
827.000000 0.8090 0.8065 0.8034 0.7993 0.7968
822.000000 0.7924 0.7946 0.7947 0.7948 0.7958
817.000000 0.7969 0.7985 0.7999 0.8014 0.8028
812.000000 0.8045 0.8065 0.8085 0.8105 0.8121
807.000000 0.8137 0.8154 0.8169 0.8181 0.8189
802.000000 0.8198 0.8206 0.8214 0.8223 0.8231
797.000000 0.8239 0.8246 0.8252 0.8259 0.8266
792.000000 0.8273 0.8280 0.8287 0.8293 0.8295
787.000000 0.8298 0.8297 0.8297 0.8282 0.8267
782.000000 0.8243 0.8212 0.8180 0.8149 0.8118
777.000000 0.8088 0.8058 0.8028 0.8001 0.7980
772.000000 0.7958 0.7950 0.7943 0.7938 0.7933
767.000000 0.7928 0.7928 0.7928 0.7930 0.7931
762.000000 0.7932 0.7933 0.7933 0.7932 0.7932
757.000000 0.7928 0.7925 0.7924 0.7921 0.7915
752.000000 0.7903 0.7891 0.7878 0.7860 0.7836
747.000000 0.7811 0.7788 0.7762 0.7738 0.7711
742.000000 0.7687 0.7661 0.7636 0.7604 0.7561
737.000000 0.7519 0.7476 0.7431 0.7375 0.7321
732.000000 0.7239 0.7150 0.7103 0.7035 0.6947
727.000000 0.6860 0.6772 0.6685 0.6598 0.6518
722.000000 0.6432 0.6408 0.6410 0.6411 0.6471
717.000000 0.6548 0.6611 0.6675 0.6745 0.6821
712.000000 0.6898 0.6962 0.7021 0.7078 0.7136
707.000000 0.7206 0.7281 0.7332 0.7378 0.7424
702.000000 0.7468 0.7511 0.7556 0.7591 0.7611
697.000000 0.7631 0.7650 0.7669 0.7689 0.7708
692.000000 0.7726 0.7743 0.7760 0.7776 0.7794
687.000000 0.7811 0.7828 0.7845 0.7861 0.7880
682.000000 0.7897 0.7915 0.7933 0.7951 0.7968
677.000000 0.7987 0.8007 0.8028 0.8048 0.8069
672.000000 0.8097 0.8122 0.8149 0.8195 0.8244
667.000000 0.8301 0.8354 0.8396 0.8439 0.8471
662.000000 0.8503 0.8528 0.8542 0.8554 0.8561
657.000000 0.8561 0.8561 0.8558 0.8548 0.8539
652.000000 0.8528 0.8520 0.8510 0.8507 0.8507
647.000000 0.8506 0.8506 0.8506 0.8505 0.8505
642.000000 0.8505 0.8504 0.8504 0.8503 0.8503
637.000000 0.8502 0.8501 0.8500 0.8499 0.8499
632.000000 0.8498 0.8497 0.8496 0.8495 0.8491
627.000000 0.8488 0.8484 0.8481 0.8473 0.8420
622.000000 0.8370 0.8354 0.8339 0.8324 0.8318
617.000000 0.8317 0.8315 0.8313 0.8311 0.8309
612.000000 0.8307 0.8305 0.8303 0.8301 0.8299
607.000000 0.8297 0.8295 0.8293 0.8290 0.8288
602.000000 0.8286 0.8284 0.8281 0.8278 0.8277
597.000000 0.8275 0.8275 0.8274 0.8274 0.8273
592.000000 0.8271 0.8271 0.8271 0.8270 0.8270
587.000000 0.8268 0.8268 0.8266 0.8265 0.8263
582.000000 0.8262 0.8262 0.8266 0.8270 0.8274
577.000000 0.8278 0.8282 0.8286 0.8290 0.8294
572.000000 0.8298 0.8302 0.8307 0.8311 0.8315
567.000000 0.8318 0.8323 0.8328 0.8332 0.8336
562.000000 0.8340 0.8344 0.8347 0.8351 0.8354
557.000000 0.8358 0.8362 0.8365 0.8368 0.8371
552.000000 0.8375 0.8378 0.8381 0.8384 0.8387
547.000000 0.8390 0.8392 0.8393 0.8394 0.8386
542.000000 0.8378 0.8371 0.8363 0.8349 0.8335
537.000000 0.8321 0.8307 0.8292 0.8277 0.8262
532.000000 0.8247 0.8233 0.8218 0.8205 0.8192
527.000000 0.8178 0.8167 0.8155 0.8143 0.8142
522.000000 0.8141 0.8139 0.8138 0.8136 0.8141
517.000000 0.8147 0.8154 0.8161 0.8168 0.8175
512.000000 0.8184 0.8193 0.8201 0.8210 0.8218
507.000000 0.8228 0.8237 0.8242 0.8246 0.8251
502.000000 0.8255 0.8259 0.8264 0.8268 0.8267
497.000000 0.8263 0.8259 0.8255 0.8251 0.8248
492.000000 0.8245 0.8242 0.8239 0.8236 0.8233
487.000000 0.8228 0.8225 0.8223 0.8220 0.8221
482.000000 0.8224 0.8227 0.8230 0.8233 0.8236
477.000000 0.8239 0.8242 0.8242 0.8242 0.8241
472.000000 0.8241 0.8240 0.8239 0.8238 0.8237
467.000000 0.8236 0.8234 0.8230 0.8225 0.8221
462.000000 0.8217 0.8213 0.8209 0.8206 0.8202
457.000000 0.8200 0.8200 0.8201 0.8202 0.8202
452.000000 0.8203 0.8203 0.8204 0.8205 0.8205
447.000000 0.8206 0.8206 0.8207 0.8208 0.8208
442.000000 0.8209 0.8209 0.8209 0.8210 0.8210
437.000000 0.8210 0.8210 0.8210 0.8211 0.8211
432.000000 0.8211 0.8211 0.8211 0.8212 0.8212
427.000000 0.8212 0.8216 0.8220 0.8224 0.8228
422.000000 0.8231 0.8234 0.8236 0.8238 0.8241
417.000000 0.8243 0.8245 0.8247 0.8249 0.8251
412.000000 0.8253 0.8255 0.8257 0.8260 0.8262
407.000000 0.8265 0.8267 0.8270 0.8271 0.8275
402.000000 0.8278 0.8278 0.8280 0.8282 0.8283
397.000000 0.8284 0.8284 0.8282 0.8278 0.8277
##END=
