##TITLE=Methanesulfonic aicd, thio-, S-(2-aminoethyl) ester, hydrobromide
##JCAMP-DX=4.24
##DATA TYPE=INFRARED SPECTRUM
##CLASS=COBLENTZ III
##ORIGIN=SOUTHERN RESEARCH INSTITUTE
##OWNER=Copyright (C) 1987 by the Coblentz Society
Collection (C) 2018 copyright by the U.S. Secretary of Commerce
on behalf of the United States of America. All rights reserved.
##DATE=1959/12/07
##NAMES=S-(2-aminoethyl) methanesulfonothioate hydrobromide
##MOLFORM=C3 H10 Br N O2 S2
##SOURCE REFERENCE=COBLENTZ NO. 8255
##$NIST ID=B6008255
##$NIST SOURCE=COBLENTZ
##$NIST IMAGE=cob8255
##SPECTROMETER/DATA SYSTEM=PERKIN-ELMER 21 (GRATING)
##INSTRUMENT PARAMETERS=FILTER CHANGE ABOUT 1020 CM^-^1
##STATE=SOLID (0.9 mg / 650 mg KBr DISC)
##SAMPLING PROCEDURE=TRANSMISSION
##RESOLUTION=2
##DATA PROCESSING=DIGITIZED BY COBLENTZ SOCIETY (BATCH II) FROM HARD COPY (ADJUSTED \addcm-1\5-5-0\)
##XUNITS=1/CM
##YUNITS=TRANSMITTANCE
##XFACTOR=1.0
##YFACTOR=1
##DELTAX=1.003824
##FIRSTX=601
##LASTX=4013
##FIRSTY=0.7855
##MAXX=4013
##MINX=601
##MAXY=0.89258
##MINY=0.137375
##NPOINTS=3400
##XYDATA=(X++(Y..Y))
601.000000 0.7855 0.7851 0.7848 0.7845 0.7842
606.019118 0.7838 0.7835 0.7832 0.7829 0.7826
611.038235 0.7823 0.7820 0.7817 0.7814 0.7811
616.057353 0.7810 0.7809 0.7808 0.7808 0.7807
621.076471 0.7806 0.7805 0.7804 0.7803 0.7803
626.095588 0.7802 0.7802 0.7803 0.7803 0.7803
631.114706 0.7803 0.7804 0.7804 0.7804 0.7804
636.133824 0.7803 0.7804 0.7822 0.7848 0.7874
641.152941 0.7898 0.7912 0.7921 0.7929 0.7938
646.172059 0.7944 0.7949 0.7954 0.7960 0.7965
651.191176 0.7970 0.7975 0.7973 0.7957 0.7986
656.210294 0.7989 0.7991 0.7994 0.7996 0.7999
661.229412 0.8001 0.8004 0.8006 0.8009 0.8011
666.248529 0.8014 0.8016 0.8019 0.8022 0.8024
671.267647 0.8027 0.8030 0.8032 0.8035 0.8037
676.286765 0.8040 0.8042 0.8045 0.8048 0.8051
681.305882 0.8055 0.8058 0.8061 0.8065 0.8068
686.325000 0.8069 0.8066 0.8060 0.8054 0.8049
691.344118 0.8043 0.8037 0.8031 0.8026 0.8019
696.363235 0.8009 0.7994 0.7979 0.7965 0.7950
701.382353 0.7936 0.7922 0.7911 0.7899 0.7887
706.401471 0.7876 0.7864 0.7853 0.7841 0.7829
711.420588 0.7817 0.7804 0.7791 0.7778 0.7765
716.439706 0.7752 0.7740 0.7712 0.7648 0.7561
721.458824 0.7475 0.7400 0.7324 0.7245 0.7170
726.477941 0.7109 0.7058 0.7007 0.6957 0.6899
731.497059 0.6810 0.6625 0.6275 0.5833 0.5391
736.516176 0.4949 0.4507 0.4082 0.3884 0.3881
741.535294 0.3864 0.3873 0.4100 0.4559 0.5084
746.554412 0.5608 0.6133 0.6657 0.7182 0.7707
751.573529 0.8020 0.8087 0.8087 0.8087 0.8087
756.592647 0.8088 0.8088 0.8096 0.8199 0.8403
761.611765 0.8495 0.8499 0.8503 0.8504 0.8502
766.630882 0.8498 0.8487 0.8457 0.8426 0.8399
771.650000 0.8371 0.8343 0.8312 0.8297 0.8296
776.669118 0.8298 0.8300 0.8308 0.8318 0.8333
781.688235 0.8545 0.8709 0.8765 0.8780 0.8781
786.707353 0.8778 0.8770 0.8752 0.8724 0.8690
791.726471 0.8654 0.8605 0.8550 0.8495 0.8441
796.745588 0.8387 0.8348 0.8342 0.8427 0.8613
801.764706 0.8740 0.8797 0.8831 0.8853 0.8872
806.783824 0.8885 0.8893 0.8895 0.8895 0.8896
811.802941 0.8895 0.8894 0.8893 0.8892 0.8916
816.822059 0.8899 0.8888 0.8886 0.8883 0.8881
821.841176 0.8878 0.8876 0.8873 0.8870 0.8866
826.860294 0.8861 0.8857 0.8853 0.8848 0.8843
831.879412 0.8837 0.8830 0.8823 0.8816 0.8808
836.898529 0.8799 0.8791 0.8782 0.8774 0.8765
841.917647 0.8756 0.8748 0.8738 0.8727 0.8716
846.936765 0.8705 0.8693 0.8682 0.8670 0.8659
851.955882 0.8646 0.8628 0.8607 0.8587 0.8566
856.975000 0.8546 0.8526 0.8501 0.8470 0.8438
861.994118 0.8405 0.8357 0.8299 0.8237 0.8172
867.013235 0.8109 0.8039 0.7933 0.7812 0.7691
872.032353 0.7570 0.7449 0.7328 0.7206 0.7085
877.051471 0.6964 0.6843 0.6721 0.6651 0.6632
882.070588 0.6709 0.6951 0.7256 0.7561 0.7866
887.089706 0.8170 0.8475 0.8658 0.8701 0.8686
892.108824 0.8689 0.8692 0.8684 0.8657 0.8586
897.127941 0.8494 0.8401 0.8309 0.8217 0.8139
902.147059 0.8095 0.8068 0.8044 0.8022 0.8005
907.166176 0.7989 0.7973 0.7957 0.7941 0.7922
912.185294 0.7902 0.7882 0.7824 0.7722 0.7608
917.204412 0.7494 0.7380 0.7289 0.7228 0.7196
922.223529 0.7179 0.7173 0.7173 0.7181 0.7192
927.242647 0.7203 0.7214 0.7226 0.7237 0.7251
932.261765 0.7267 0.7284 0.7301 0.7318 0.7333
937.280882 0.7343 0.7349 0.7349 0.7347 0.7341
942.300000 0.7325 0.7266 0.7181 0.7087 0.6828
947.319118 0.6566 0.6380 0.6195 0.6010 0.5824
952.338235 0.5639 0.5453 0.5268 0.5083 0.4898
957.357353 0.4712 0.4527 0.4342 0.4219 0.4205
962.376471 0.4218 0.4283 0.4595 0.5056 0.5517
967.395588 0.5977 0.6438 0.6899 0.7360 0.7821
972.414706 0.8370 0.8671 0.8705 0.8720 0.8726
977.433824 0.8733 0.8739 0.8745 0.8735 0.8734
982.452941 0.8740 0.8737 0.8734 0.8727 0.8719
987.472059 0.8710 0.8702 0.8694 0.8685 0.8676
992.491176 0.8662 0.8645 0.8629 0.8612 0.8595
997.510294 0.8575 0.8550 0.8521 0.8492 0.8463
1002.529412 0.8434 0.8406 0.8378 0.8350 0.8323
1007.548529 0.8295 0.8261 0.8220 0.8174 0.8128
1012.567647 0.8089 0.8055 0.8023 0.7990 0.7958
1017.586765 0.7925 0.7892 0.7860 0.7827 0.7795
1022.605882 0.7763 0.7730 0.7698 0.7665 0.7632
1027.625000 0.7519 0.7319 0.7115 0.6909 0.6704
1032.644118 0.6499 0.6293 0.6088 0.5883 0.5678
1037.663235 0.5473 0.5313 0.5267 0.5287 0.5484
1042.682353 0.5879 0.6275 0.6670 0.7066 0.7461
1047.701471 0.7690 0.7713 0.7709 0.7698 0.7688
1052.720588 0.7679 0.7682 0.7670 0.7638 0.7623
1057.739706 0.7608 0.7594 0.7580 0.7566 0.7550
1062.758824 0.7531 0.7510 0.7489 0.7467 0.7446
1067.777941 0.7423 0.7392 0.7351 0.7309 0.7261
1072.797059 0.7209 0.7151 0.7057 0.6892 0.6733
1077.816176 0.6646 0.6575 0.6500 0.6419 0.6336
1082.835294 0.6263 0.6208 0.6158 0.6114 0.6081
1087.854412 0.6058 0.6049 0.6047 0.6046 0.6044
1092.873529 0.6043 0.6043 0.6044 0.6046 0.6048
1097.892647 0.6051 0.6052 0.6038 0.5992 0.5925
1102.911765 0.5857 0.5782 0.5693 0.5611 0.5540
1107.930882 0.5479 0.5418 0.5343 0.5124 0.4675
1112.950000 0.4160 0.3645 0.3131 0.2492 0.1916
1117.969118 0.1777 0.1696 0.1638 0.1580 0.1523
1122.988235 0.1467 0.1425 0.1408 0.1394 0.1380
1128.007353 0.1374 0.1376 0.1381 0.1381 0.1394
1133.026471 0.1448 0.1491 0.1547 0.1611 0.2341
1138.045588 0.3893 0.4566 0.4695 0.4802 0.4918
1143.064706 0.5053 0.5438 0.5993 0.6067 0.6116
1148.083824 0.6140 0.6163 0.6184 0.6196 0.6202
1153.102941 0.6209 0.6215 0.6219 0.6215 0.6197
1158.122059 0.6173 0.6147 0.6112 0.6066 0.6033
1163.141176 0.6033 0.6035 0.6037 0.6039 0.6041
1168.160294 0.6043 0.6045 0.6047 0.6062 0.6113
1173.179412 0.6177 0.6244 0.6302 0.6337 0.6358
1178.198529 0.6369 0.6380 0.6391 0.6403 0.6415
1183.217647 0.6427 0.6440 0.6452 0.6465 0.6486
1188.236765 0.6516 0.6540 0.6552 0.6554 0.6556
1193.255882 0.6560 0.6568 0.6584 0.6600 0.6617
1198.275000 0.6634 0.6651 0.6671 0.6701 0.6745
1203.294118 0.6819 0.6903 0.6997 0.7087 0.7177
1208.313235 0.7268 0.7354 0.7413 0.7445 0.7476
1213.332353 0.7500 0.7508 0.7521 0.7536 0.7531
1218.351471 0.7538 0.7541 0.7536 0.7525 0.7512
1223.370588 0.7487 0.7439 0.7368 0.7297 0.7227
1228.389706 0.7157 0.7086 0.7021 0.6988 0.6990
1233.408824 0.6993 0.6985 0.6962 0.7023 0.7081
1238.427941 0.7349 0.7744 0.7741 0.7737 0.7737
1243.447059 0.7745 0.7713 0.7701 0.7688 0.7674
1248.466176 0.7655 0.7632 0.7606 0.7568 0.7528
1253.485294 0.7492 0.7457 0.7423 0.7389 0.7353
1258.504412 0.7315 0.7276 0.7234 0.7177 0.7112
1263.523529 0.7030 0.6950 0.6890 0.6839 0.6782
1268.542647 0.6703 0.6621 0.6541 0.6477 0.6443
1273.561765 0.6417 0.6390 0.6363 0.6331 0.6295
1278.580882 0.6258 0.6222 0.6185 0.6148 0.6111
1283.600000 0.6074 0.6035 0.5992 0.5950 0.5906
1288.619118 0.5852 0.5784 0.5716 0.5640 0.5557
1293.638235 0.5474 0.5388 0.5300 0.5114 0.4113
1298.657353 0.1892 0.1924 0.1964 0.2012 0.2062
1303.676471 0.2111 0.2160 0.2209 0.2259 0.2304
1308.695588 0.2326 0.2347 0.2325 0.2253 0.2175
1313.714706 0.2096 0.2018 0.1943 0.1895 0.1911
1318.733824 0.2044 0.2209 0.2292 0.2363 0.2431
1323.752941 0.2540 0.2958 0.3651 0.4344 0.5036
1328.772059 0.5708 0.6200 0.6325 0.6402 0.6481
1333.791176 0.6578 0.6701 0.6913 0.7292 0.7444
1338.810294 0.7533 0.7593 0.7633 0.7662 0.7692
1343.829412 0.7721 0.7760 0.7813 0.7868 0.7926
1348.848529 0.7995 0.8073 0.8137 0.8189 0.8237
1353.867647 0.8270 0.8302 0.8326 0.8343 0.8361
1358.886765 0.8377 0.8388 0.8390 0.8393 0.8410
1363.905882 0.8389 0.8385 0.8381 0.8376 0.8366
1368.925000 0.8350 0.8331 0.8311 0.8290 0.8266
1373.944118 0.8241 0.8202 0.8156 0.8094 0.8061
1378.963235 0.8063 0.8066 0.8080 0.8104 0.8124
1383.982353 0.8143 0.8151 0.8156 0.8161 0.8166
1389.001471 0.8144 0.8075 0.8006 0.7936 0.7867
1394.020588 0.7797 0.7728 0.7659 0.7589 0.7520
1399.039706 0.7450 0.7392 0.7370 0.7367 0.7373
1404.058824 0.7362 0.7397 0.7444 0.7495 0.7545
1409.077941 0.7601 0.7635 0.7661 0.7683 0.7702
1414.097059 0.7721 0.7740 0.7756 0.7773 0.7790
1419.116176 0.7808 0.7826 0.7843 0.7862 0.7884
1424.135294 0.7912 0.7941 0.7992 0.8070 0.8162
1429.154412 0.8215 0.8226 0.8225 0.8245 0.8230
1434.173529 0.8221 0.8216 0.8211 0.8200 0.8176
1439.192647 0.8136 0.8077 0.8017 0.7955 0.7886
1444.211765 0.7816 0.7744 0.7673 0.7603 0.7532
1449.230882 0.7461 0.7390 0.7319 0.7254 0.7228
1454.250000 0.7242 0.7360 0.7563 0.7750 0.7938
1459.269118 0.8057 0.8077 0.8078 0.8081 0.8082
1464.288235 0.8077 0.8073 0.8067 0.8059 0.8049
1469.307353 0.8032 0.8013 0.7995 0.7981 0.7968
1474.326471 0.7955 0.7941 0.7927 0.7914 0.7900
1479.345588 0.7886 0.7874 0.7862 0.7850 0.7838
1484.364706 0.7826 0.7813 0.7797 0.7780 0.7763
1489.383824 0.7743 0.7715 0.7687 0.7657 0.7624
1494.402941 0.7585 0.7507 0.7087 0.6668 0.6249
1499.422059 0.5829 0.5411 0.5035 0.4928 0.4895
1504.441176 0.4866 0.4848 0.4834 0.4824 0.4824
1509.460294 0.4824 0.4848 0.4828 0.4896 0.4946
1514.479412 0.5218 0.5555 0.5896 0.6238 0.6578
1519.498529 0.6919 0.7260 0.7387 0.7410 0.7413
1524.517647 0.7412 0.7410 0.7403 0.7395 0.7377
1529.536765 0.7351 0.7311 0.7243 0.7171 0.7078
1534.555882 0.6984 0.6897 0.6810 0.6723 0.6636
1539.575000 0.6549 0.6483 0.6453 0.6438 0.6423
1544.594118 0.6405 0.6367 0.6290 0.6193 0.6096
1549.613235 0.5999 0.5901 0.5804 0.5707 0.5641
1554.632353 0.5627 0.5626 0.5626 0.5626 0.5626
1559.651471 0.5626 0.5627 0.5627 0.5627 0.5594
1564.670588 0.5473 0.5334 0.5193 0.5054 0.4914
1569.689706 0.4774 0.4633 0.4493 0.4354 0.4230
1574.708824 0.4187 0.4167 0.4151 0.4141 0.4156
1579.727941 0.4185 0.4287 0.4404 0.4489 0.4567
1584.747059 0.4636 0.4714 0.4943 0.7303 0.7412
1589.766176 0.7507 0.7569 0.7629 0.7660 0.7692
1594.785294 0.7723 0.7758 0.7793 0.7830 0.7865
1599.804412 0.7900 0.7917 0.7923 0.7929 0.7934
1604.823529 0.7939 0.7943 0.7947 0.7951 0.7955
1609.842647 0.7959 0.7965 0.7972 0.7978 0.7986
1614.861765 0.7993 0.8002 0.8013 0.8024 0.8036
1619.880882 0.8047 0.8063 0.8080 0.8098 0.8117
1624.900000 0.8145 0.8178 0.8216 0.8256 0.8296
1629.919118 0.8332 0.8354 0.8370 0.8382 0.8390
1634.938235 0.8399 0.8408 0.8418 0.8430 0.8442
1639.957353 0.8454 0.8466 0.8480 0.8494 0.8509
1644.976471 0.8524 0.8539 0.8553 0.8565 0.8577
1649.995588 0.8590 0.8601 0.8611 0.8621 0.8631
1655.014706 0.8641 0.8652 0.8665 0.8679 0.8694
1660.033824 0.8708 0.8721 0.8734 0.8747 0.8758
1665.052941 0.8767 0.8774 0.8781 0.8788 0.8795
1670.072059 0.8801 0.8804 0.8807 0.8811 0.8814
1675.091176 0.8818 0.8823 0.8828 0.8834 0.8839
1680.110294 0.8844 0.8850 0.8855 0.8861 0.8867
1685.129412 0.8873 0.8879 0.8884 0.8889 0.8894
1690.148529 0.8898 0.8899 0.8901 0.8902 0.8903
1695.167647 0.8903 0.8903 0.8903 0.8903 0.8903
1700.186765 0.8911 0.8926 0.8904 0.8904 0.8904
1705.205882 0.8904 0.8904 0.8905 0.8905 0.8905
1710.225000 0.8905 0.8905 0.8905 0.8906 0.8906
1715.244118 0.8906 0.8906 0.8906 0.8906 0.8907
1720.263235 0.8907 0.8907 0.8907 0.8907 0.8907
1725.282353 0.8907 0.8908 0.8908 0.8908 0.8908
1730.301471 0.8908 0.8908 0.8909 0.8909 0.8909
1735.320588 0.8909 0.8909 0.8909 0.8910 0.8910
1740.339706 0.8910 0.8910 0.8910 0.8910 0.8910
1745.358824 0.8911 0.8911 0.8911 0.8911 0.8911
1750.377941 0.8911 0.8912 0.8912 0.8912 0.8912
1755.397059 0.8912 0.8912 0.8912 0.8912 0.8912
1760.416176 0.8912 0.8911 0.8911 0.8911 0.8911
1765.435294 0.8910 0.8909 0.8909 0.8908 0.8907
1770.454412 0.8906 0.8906 0.8905 0.8904 0.8903
1775.473529 0.8902 0.8901 0.8899 0.8897 0.8894
1780.492647 0.8892 0.8890 0.8888 0.8886 0.8884
1785.511765 0.8882 0.8880 0.8878 0.8875 0.8873
1790.530882 0.8870 0.8867 0.8864 0.8860 0.8857
1795.550000 0.8854 0.8851 0.8848 0.8845 0.8842
1800.569118 0.8839 0.8836 0.8833 0.8830 0.8827
1805.588235 0.8824 0.8820 0.8816 0.8812 0.8808
1810.607353 0.8805 0.8801 0.8797 0.8793 0.8789
1815.626471 0.8785 0.8781 0.8777 0.8773 0.8769
1820.645588 0.8766 0.8762 0.8759 0.8755 0.8752
1825.664706 0.8749 0.8745 0.8742 0.8738 0.8732
1830.683824 0.8725 0.8718 0.8711 0.8705 0.8698
1835.702941 0.8691 0.8683 0.8675 0.8667 0.8659
1840.722059 0.8652 0.8644 0.8638 0.8633 0.8628
1845.741176 0.8623 0.8618 0.8613 0.8608 0.8604
1850.760294 0.8599 0.8595 0.8593 0.8592 0.8591
1855.779412 0.8589 0.8588 0.8586 0.8585 0.8583
1860.798529 0.8582 0.8580 0.8579 0.8580 0.8581
1865.817647 0.8582 0.8584 0.8585 0.8587 0.8589
1870.836765 0.8590 0.8592 0.8595 0.8600 0.8605
1875.855882 0.8609 0.8614 0.8619 0.8624 0.8629
1880.875000 0.8636 0.8644 0.8651 0.8659 0.8667
1885.894118 0.8674 0.8681 0.8689 0.8696 0.8703
1890.913235 0.8710 0.8716 0.8720 0.8722 0.8725
1895.932353 0.8727 0.8728 0.8729 0.8730 0.8730
1900.951471 0.8731 0.8731 0.8732 0.8733 0.8733
1905.970588 0.8734 0.8734 0.8735 0.8736 0.8736
1910.989706 0.8736 0.8736 0.8737 0.8737 0.8737
1916.008824 0.8738 0.8738 0.8738 0.8738 0.8739
1921.027941 0.8739 0.8739 0.8740 0.8740 0.8740
1926.047059 0.8740 0.8741 0.8741 0.8741 0.8742
1931.066176 0.8742 0.8742 0.8742 0.8743 0.8743
1936.085294 0.8741 0.8739 0.8736 0.8734 0.8732
1941.104412 0.8729 0.8727 0.8725 0.8723 0.8720
1946.123529 0.8718 0.8712 0.8706 0.8699 0.8692
1951.142647 0.8686 0.8679 0.8673 0.8666 0.8656
1956.161765 0.8644 0.8633 0.8622 0.8614 0.8607
1961.180882 0.8602 0.8596 0.8591 0.8590 0.8593
1966.200000 0.8598 0.8603 0.8609 0.8619 0.8629
1971.219118 0.8640 0.8651 0.8661 0.8671 0.8682
1976.238235 0.8693 0.8703 0.8715 0.8729 0.8742
1981.257353 0.8755 0.8767 0.8777 0.8785 0.8794
1986.276471 0.8800 0.8802 0.8802 0.8802 0.8803
1991.295588 0.8803 0.8802 0.8800 0.8797 0.8794
1996.314706 0.8792 0.8789 0.8784 0.8779 0.8774
2001.333824 0.8768 0.8763 0.8758 0.8752 0.8746
2006.352941 0.8740 0.8735 0.8729 0.8723 0.8717
2011.372059 0.8711 0.8706 0.8700 0.8695 0.8690
2016.391176 0.8684 0.8680 0.8679 0.8679 0.8679
2021.410294 0.8679 0.8680 0.8680 0.8680 0.8680
2026.429412 0.8681 0.8681 0.8683 0.8685 0.8686
2031.448529 0.8688 0.8690 0.8692 0.8694 0.8695
2036.467647 0.8696 0.8696 0.8697 0.8697 0.8698
2041.486765 0.8699 0.8699 0.8700 0.8700 0.8701
2046.505882 0.8701 0.8702 0.8702 0.8703 0.8703
2051.525000 0.8704 0.8704 0.8705 0.8705 0.8705
2056.544118 0.8705 0.8706 0.8706 0.8706 0.8707
2061.563235 0.8707 0.8707 0.8707 0.8708 0.8708
2066.582353 0.8708 0.8709 0.8709 0.8709 0.8709
2071.601471 0.8708 0.8708 0.8707 0.8707 0.8706
2076.620588 0.8705 0.8705 0.8704 0.8703 0.8703
2081.639706 0.8702 0.8702 0.8701 0.8700 0.8700
2086.658824 0.8699 0.8698 0.8697 0.8696 0.8696
2091.677941 0.8695 0.8694 0.8693 0.8692 0.8691
2096.697059 0.8690 0.8689 0.8688 0.8687 0.8686
2101.716176 0.8685 0.8684 0.8683 0.8682 0.8681
2106.735294 0.8680 0.8678 0.8676 0.8674 0.8672
2111.754412 0.8671 0.8669 0.8667 0.8665 0.8663
2116.773529 0.8661 0.8659 0.8657 0.8655 0.8653
2121.792647 0.8651 0.8649 0.8647 0.8645 0.8643
2126.811765 0.8641 0.8640 0.8638 0.8637 0.8635
2131.830882 0.8634 0.8632 0.8631 0.8629 0.8627
2136.850000 0.8626 0.8624 0.8623 0.8621 0.8620
2141.869118 0.8618 0.8617 0.8615 0.8614 0.8612
2146.888235 0.8611 0.8609 0.8608 0.8606 0.8605
2151.907353 0.8603 0.8601 0.8599 0.8596 0.8594
2156.926471 0.8592 0.8590 0.8587 0.8585 0.8583
2161.945588 0.8580 0.8578 0.8576 0.8574 0.8571
2166.964706 0.8569 0.8567 0.8565 0.8563 0.8561
2171.983824 0.8559 0.8558 0.8558 0.8558 0.8558
2177.002941 0.8557 0.8557 0.8557 0.8557 0.8557
2182.022059 0.8557 0.8556 0.8556 0.8556 0.8556
2187.041176 0.8556 0.8555 0.8555 0.8555 0.8555
2192.060294 0.8554 0.8553 0.8553 0.8552 0.8552
2197.079412 0.8551 0.8551 0.8550 0.8550 0.8549
2202.098529 0.8549 0.8548 0.8547 0.8547 0.8546
2207.117647 0.8546 0.8545 0.8545 0.8544 0.8544
2212.136765 0.8543 0.8543 0.8542 0.8542 0.8541
2217.155882 0.8541 0.8540 0.8540 0.8539 0.8539
2222.175000 0.8538 0.8538 0.8537 0.8537 0.8536
2227.194118 0.8536 0.8535 0.8535 0.8534 0.8531
2232.213235 0.8527 0.8524 0.8520 0.8517 0.8514
2237.232353 0.8507 0.8499 0.8491 0.8483 0.8475
2242.251471 0.8467 0.8458 0.8450 0.8443 0.8434
2247.270588 0.8424 0.8415 0.8405 0.8396 0.8386
2252.289706 0.8377 0.8371 0.8364 0.8358 0.8352
2257.308824 0.8346 0.8339 0.8333 0.8327 0.8320
2262.327941 0.8314 0.8308 0.8305 0.8303 0.8300
2267.347059 0.8297 0.8295 0.8292 0.8290 0.8291
2272.366176 0.8291 0.8292 0.8292 0.8293 0.8294
2277.385294 0.8294 0.8295 0.8295 0.8296 0.8297
2282.404412 0.8297 0.8301 0.8307 0.8312 0.8318
2287.423529 0.8324 0.8329 0.8336 0.8343 0.8351
2292.442647 0.8358 0.8366 0.8374 0.8382 0.8391
2297.461765 0.8398 0.8398 0.8394 0.8389 0.8384
2302.480882 0.8378 0.8373 0.8368 0.8362 0.8357
2307.500000 0.8351 0.8346 0.8341 0.8335 0.8330
2312.519118 0.8325 0.8320 0.8315 0.8310 0.8306
2317.538235 0.8301 0.8296 0.8291 0.8286 0.8282
2322.557353 0.8277 0.8272 0.8267 0.8262 0.8258
2327.576471 0.8254 0.8249 0.8245 0.8241 0.8237
2332.595588 0.8233 0.8229 0.8224 0.8220 0.8216
2337.614706 0.8212 0.8208 0.8203 0.8198 0.8193
2342.633824 0.8189 0.8184 0.8179 0.8175 0.8170
2347.652941 0.8165 0.8161 0.8156 0.8151 0.8147
2352.672059 0.8141 0.8135 0.8128 0.8122 0.8116
2357.691176 0.8110 0.8104 0.8098 0.8092 0.8086
2362.710294 0.8080 0.8073 0.8067 0.8061 0.8055
2367.729412 0.8049 0.8042 0.8036 0.8029 0.8022
2372.748529 0.8015 0.8008 0.8002 0.7995 0.7988
2377.767647 0.7981 0.7975 0.7968 0.7961 0.7954
2382.786765 0.7947 0.7940 0.7933 0.7926 0.7919
2387.805882 0.7911 0.7904 0.7896 0.7888 0.7881
2392.825000 0.7873 0.7866 0.7858 0.7851 0.7843
2397.844118 0.7836 0.7828 0.7821 0.7813 0.7805
2402.863235 0.7798 0.7790 0.7782 0.7774 0.7767
2407.882353 0.7759 0.7751 0.7743 0.7736 0.7728
2412.901471 0.7720 0.7712 0.7705 0.7698 0.7690
2417.920588 0.7683 0.7676 0.7669 0.7661 0.7654
2422.939706 0.7649 0.7644 0.7639 0.7634 0.7634
2427.958824 0.7634 0.7637 0.7639 0.7641 0.7643
2432.977941 0.7649 0.7656 0.7664 0.7672 0.7679
2437.997059 0.7687 0.7698 0.7709 0.7719 0.7730
2443.016176 0.7741 0.7749 0.7758 0.7766 0.7771
2448.035294 0.7769 0.7767 0.7765 0.7763 0.7761
2453.054412 0.7757 0.7754 0.7750 0.7747 0.7743
2458.073529 0.7740 0.7736 0.7733 0.7729 0.7726
2463.092647 0.7722 0.7718 0.7713 0.7709 0.7705
2468.111765 0.7701 0.7697 0.7693 0.7689 0.7684
2473.130882 0.7680 0.7675 0.7671 0.7667 0.7663
2478.150000 0.7659 0.7656 0.7652 0.7648 0.7644
2483.169118 0.7640 0.7636 0.7632 0.7628 0.7625
2488.188235 0.7621 0.7617 0.7614 0.7610 0.7607
2493.207353 0.7603 0.7600 0.7596 0.7593 0.7589
2498.226471 0.7585 0.7582 0.7578 0.7575 0.7571
2503.245588 0.7568 0.7564 0.7560 0.7557 0.7553
2508.264706 0.7548 0.7544 0.7539 0.7535 0.7530
2513.283824 0.7526 0.7522 0.7517 0.7513 0.7508
2518.302941 0.7503 0.7499 0.7495 0.7490 0.7486
2523.322059 0.7480 0.7471 0.7462 0.7453 0.7443
2528.341176 0.7434 0.7424 0.7415 0.7405 0.7395
2533.360294 0.7383 0.7365 0.7343 0.7322 0.7300
2538.379412 0.7278 0.7254 0.7228 0.7200 0.7173
2543.398529 0.7145 0.7118 0.7090 0.7062 0.7032
2548.417647 0.7002 0.6973 0.6943 0.6913 0.6882
2553.436765 0.6850 0.6819 0.6788 0.6759 0.6736
2558.455882 0.6714 0.6692 0.6670 0.6649 0.6627
2563.475000 0.6605 0.6583 0.6561 0.6538 0.6515
2568.494118 0.6493 0.6470 0.6446 0.6424 0.6404
2573.513235 0.6385 0.6359 0.6353 0.6362 0.6368
2578.532353 0.6378 0.6393 0.6410 0.6430 0.6456
2583.551471 0.6486 0.6521 0.6558 0.6603 0.6652
2588.570588 0.6697 0.6736 0.6773 0.6803 0.6824
2593.589706 0.6842 0.6853 0.6858 0.6864 0.6837
2598.608824 0.6849 0.6868 0.6867 0.6866 0.6865
2603.627941 0.6861 0.6855 0.6848 0.6842 0.6835
2608.647059 0.6823 0.6806 0.6790 0.6773 0.6757
2613.666176 0.6741 0.6726 0.6712 0.6697 0.6682
2618.685294 0.6667 0.6652 0.6638 0.6625 0.6611
2623.704412 0.6597 0.6583 0.6576 0.6573 0.6570
2628.723529 0.6567 0.6564 0.6561 0.6558 0.6556
2633.742647 0.6555 0.6554 0.6553 0.6552 0.6551
2638.761765 0.6550 0.6549 0.6548 0.6547 0.6546
2643.780882 0.6545 0.6544 0.6543 0.6543 0.6543
2648.800000 0.6542 0.6542 0.6542 0.6541 0.6541
2653.819118 0.6541 0.6540 0.6540 0.6540 0.6540
2658.838235 0.6540 0.6540 0.6541 0.6541 0.6541
2663.857353 0.6541 0.6542 0.6542 0.6542 0.6543
2668.876471 0.6543 0.6543 0.6541 0.6539 0.6538
2673.895588 0.6536 0.6535 0.6533 0.6531 0.6530
2678.914706 0.6525 0.6519 0.6513 0.6506 0.6500
2683.933824 0.6494 0.6488 0.6482 0.6476 0.6470
2688.952941 0.6464 0.6458 0.6451 0.6442 0.6433
2693.972059 0.6424 0.6415 0.6405 0.6396 0.6387
2698.991176 0.6378 0.6369 0.6360 0.6350 0.6339
2704.010294 0.6328 0.6317 0.6306 0.6296 0.6285
2709.029412 0.6274 0.6262 0.6245 0.6228 0.6210
2714.048529 0.6193 0.6176 0.6158 0.6141 0.6123
2719.067647 0.6105 0.6086 0.6066 0.6047 0.6027
2724.086765 0.6007 0.5988 0.5965 0.5943 0.5921
2729.105882 0.5899 0.5876 0.5851 0.5825 0.5801
2734.125000 0.5788 0.5774 0.5761 0.5748 0.5734
2739.144118 0.5721 0.5707 0.5694 0.5681 0.5667
2744.163235 0.5654 0.5640 0.5627 0.5614 0.5600
2749.182353 0.5586 0.5573 0.5560 0.5546 0.5532
2754.201471 0.5519 0.5505 0.5492 0.5479 0.5465
2759.220588 0.5452 0.5438 0.5425 0.5412 0.5398
2764.239706 0.5385 0.5372 0.5358 0.5344 0.5331
2769.258824 0.5318 0.5304 0.5291 0.5277 0.5263
2774.277941 0.5250 0.5237 0.5223 0.5210 0.5196
2779.297059 0.5183 0.5170 0.5157 0.5145 0.5132
2784.316176 0.5119 0.5105 0.5090 0.5076 0.5061
2789.335294 0.5046 0.5032 0.5017 0.5001 0.4985
2794.354412 0.4968 0.4951 0.4934 0.4917 0.4900
2799.373529 0.4883 0.4866 0.4848 0.4829 0.4811
2804.392647 0.4793 0.4775 0.4756 0.4732 0.4701
2809.411765 0.4671 0.4640 0.4607 0.4571 0.4535
2814.430882 0.4498 0.4462 0.4423 0.4382 0.4342
2819.450000 0.4303 0.4270 0.4242 0.4214 0.4186
2824.469118 0.4164 0.4145 0.4124 0.4104 0.4084
2829.488235 0.4064 0.4045 0.4028 0.4010 0.3992
2834.507353 0.3974 0.3956 0.3938 0.3917 0.3889
2839.526471 0.3859 0.3829 0.3799 0.3769 0.3738
2844.545588 0.3707 0.3677 0.3646 0.3615 0.3584
2849.564706 0.3553 0.3522 0.3490 0.3455 0.3421
2854.583824 0.3387 0.3357 0.3329 0.3302 0.3278
2859.602941 0.3258 0.3241 0.3223 0.3206 0.3188
2864.622059 0.3170 0.3149 0.3126 0.3102 0.3078
2869.641176 0.3054 0.3030 0.3009 0.2989 0.2970
2874.660294 0.2950 0.2931 0.2912 0.2892 0.2870
2879.679412 0.2847 0.2826 0.2808 0.2792 0.2776
2884.698529 0.2760 0.2747 0.2735 0.2724 0.2713
2889.717647 0.2701 0.2690 0.2680 0.2670 0.2660
2894.736765 0.2651 0.2642 0.2636 0.2630 0.2624
2899.755882 0.2619 0.2614 0.2608 0.2603 0.2599
2904.775000 0.2596 0.2593 0.2590 0.2587 0.2585
2909.794118 0.2584 0.2582 0.2581 0.2580 0.2579
2914.813235 0.2579 0.2579 0.2579 0.2580 0.2583
2919.832353 0.2588 0.2595 0.2604 0.2613 0.2621
2924.851471 0.2627 0.2633 0.2639 0.2646 0.2650
2929.870588 0.2654 0.2658 0.2663 0.2667 0.2671
2934.889706 0.2672 0.2672 0.2672 0.2671 0.2671
2939.908824 0.2671 0.2670 0.2667 0.2663 0.2659
2944.927941 0.2655 0.2651 0.2647 0.2643 0.2667
2949.947059 0.2635 0.2626 0.2619 0.2612 0.2605
2954.966176 0.2597 0.2590 0.2583 0.2576 0.2570
2959.985294 0.2564 0.2558 0.2552 0.2546 0.2541
2965.004412 0.2535 0.2529 0.2525 0.2524 0.2523
2970.023529 0.2521 0.2520 0.2519 0.2518 0.2516
2975.042647 0.2515 0.2514 0.2513 0.2512 0.2510
2980.061765 0.2510 0.2512 0.2513 0.2515 0.2517
2985.080882 0.2519 0.2521 0.2522 0.2524 0.2526
2990.100000 0.2528 0.2530 0.2532 0.2533 0.2535
2995.119118 0.2537 0.2539 0.2541 0.2543 0.2546
3000.138235 0.2549 0.2552 0.2555 0.2558 0.2561
3005.157353 0.2565 0.2568 0.2571 0.2575 0.2578
3010.176471 0.2581 0.2585 0.2590 0.2596 0.2601
3015.195588 0.2607 0.2612 0.2617 0.2623 0.2628
3020.214706 0.2634 0.2639 0.2644 0.2649 0.2653
3025.233824 0.2658 0.2663 0.2667 0.2672 0.2677
3030.252941 0.2681 0.2686 0.2690 0.2695 0.2700
3035.272059 0.2704 0.2709 0.2714 0.2718 0.2723
3040.291176 0.2728 0.2735 0.2745 0.2755 0.2765
3045.310294 0.2775 0.2785 0.2796 0.2810 0.2831
3050.329412 0.2852 0.2873 0.2894 0.2915 0.2936
3055.348529 0.2957 0.2982 0.3015 0.3049 0.3084
3060.367647 0.3119 0.3153 0.3191 0.3232 0.3273
3065.386765 0.3313 0.3354 0.3393 0.3431 0.3467
3070.405882 0.3503 0.3539 0.3574 0.3607 0.3633
3075.425000 0.3654 0.3676 0.3698 0.3720 0.3741
3080.444118 0.3763 0.3784 0.3804 0.3822 0.3839
3085.463235 0.3857 0.3874 0.3891 0.3908 0.3925
3090.482353 0.3943 0.3960 0.3976 0.3993 0.4010
3095.501471 0.4027 0.4043 0.4060 0.4076 0.4093
3100.520588 0.4110 0.4126 0.4143 0.4164 0.4191
3105.539706 0.4221 0.4251 0.4282 0.4313 0.4343
3110.558824 0.4373 0.4403 0.4440 0.4481 0.4522
3115.577941 0.4562 0.4602 0.4643 0.4684 0.4723
3120.597059 0.4761 0.4800 0.4840 0.4876 0.4908
3125.616176 0.4940 0.4971 0.5003 0.5033 0.5055
3130.635294 0.5072 0.5088 0.5104 0.5120 0.5136
3135.654412 0.5151 0.5168 0.5184 0.5200 0.5216
3140.673529 0.5233 0.5253 0.5273 0.5292 0.5320
3145.692647 0.5358 0.5400 0.5446 0.5498 0.5551
3150.711765 0.5600 0.5642 0.5680 0.5719 0.5758
3155.730882 0.5796 0.5830 0.5863 0.5897 0.5930
3160.750000 0.5964 0.5997 0.6028 0.6057 0.6086
3165.769118 0.6115 0.6144 0.6174 0.6203 0.6227
3170.788235 0.6248 0.6269 0.6289 0.6309 0.6330
3175.807353 0.6350 0.6365 0.6375 0.6384 0.6392
3180.826471 0.6401 0.6410 0.6419 0.6427 0.6436
3185.845588 0.6444 0.6453 0.6461 0.6469 0.6477
3190.864706 0.6484 0.6492 0.6499 0.6507 0.6515
3195.883824 0.6522 0.6530 0.6537 0.6545 0.6553
3200.902941 0.6560 0.6569 0.6583 0.6596 0.6610
3205.922059 0.6623 0.6637 0.6650 0.6664 0.6678
3210.941176 0.6693 0.6709 0.6726 0.6742 0.6758
3215.960294 0.6774 0.6791 0.6807 0.6824 0.6840
3220.979412 0.6856 0.6871 0.6886 0.6902 0.6917
3225.998529 0.6933 0.6948 0.6963 0.6979 0.6997
3231.017647 0.7016 0.7035 0.7054 0.7074 0.7093
3236.036765 0.7112 0.7131 0.7150 0.7169 0.7186
3241.055882 0.7200 0.7213 0.7227 0.7240 0.7254
3246.075000 0.7267 0.7281 0.7294 0.7302 0.7310
3251.094118 0.7317 0.7325 0.7332 0.7340 0.7348
3256.113235 0.7355 0.7363 0.7370 0.7377 0.7380
3261.132353 0.7384 0.7387 0.7390 0.7393 0.7397
3266.151471 0.7400 0.7403 0.7407 0.7410 0.7413
3271.170588 0.7417 0.7420 0.7423 0.7426 0.7429
3276.189706 0.7432 0.7435 0.7438 0.7441 0.7444
3281.208824 0.7446 0.7448 0.7449 0.7451 0.7452
3286.227941 0.7453 0.7455 0.7456 0.7458 0.7459
3291.247059 0.7461 0.7462 0.7461 0.7461 0.7460
3296.266176 0.7460 0.7459 0.7459 0.7458 0.7458
3301.285294 0.7458 0.7457 0.7455 0.7454 0.7452
3306.304412 0.7451 0.7449 0.7448 0.7446 0.7445
3311.323529 0.7443 0.7441 0.7438 0.7431 0.7423
3316.342647 0.7414 0.7406 0.7398 0.7389 0.7379
3321.361765 0.7363 0.7346 0.7329 0.7312 0.7295
3326.380882 0.7280 0.7265 0.7250 0.7235 0.7220
3331.400000 0.7205 0.7190 0.7176 0.7161 0.7147
3336.419118 0.7133 0.7118 0.7104 0.7089 0.7074
3341.438235 0.7057 0.7040 0.7024 0.7007 0.6991
3346.457353 0.6974 0.6958 0.6942 0.6927 0.6912
3351.476471 0.6897 0.6881 0.6866 0.6851 0.6836
3356.495588 0.6821 0.6806 0.6790 0.6777 0.6765
3361.514706 0.6754 0.6743 0.6732 0.6721 0.6710
3366.533824 0.6699 0.6688 0.6677 0.6666 0.6655
3371.552941 0.6644 0.6633 0.6622 0.6611 0.6601
3376.572059 0.6592 0.6583 0.6574 0.6565 0.6556
3381.591176 0.6547 0.6538 0.6529 0.6520 0.6511
3386.610294 0.6502 0.6492 0.6483 0.6476 0.6469
3391.629412 0.6462 0.6455 0.6449 0.6442 0.6434
3396.648529 0.6428 0.6421 0.6414 0.6408 0.6401
3401.667647 0.6394 0.6387 0.6381 0.6375 0.6368
3406.686765 0.6362 0.6356 0.6350 0.6344 0.6337
3411.705882 0.6331 0.6325 0.6319 0.6313 0.6306
3416.725000 0.6300 0.6294 0.6291 0.6289 0.6287
3421.744118 0.6284 0.6281 0.6280 0.6277 0.6274
3426.763235 0.6272 0.6270 0.6267 0.6265 0.6263
3431.782353 0.6260 0.6258 0.6256 0.6255 0.6256
3436.801471 0.6258 0.6259 0.6261 0.6263 0.6264
3441.820588 0.6266 0.6267 0.6269 0.6271 0.6272
3446.839706 0.6274 0.6276 0.6277 0.6279 0.6280
3451.858824 0.6282 0.6284 0.6285 0.6287 0.6289
3456.877941 0.6293 0.6296 0.6300 0.6303 0.6307
3461.897059 0.6310 0.6314 0.6317 0.6321 0.6324
3466.916176 0.6328 0.6331 0.6334 0.6338 0.6341
3471.935294 0.6345 0.6348 0.6352 0.6355 0.6359
3476.954412 0.6362 0.6366 0.6370 0.6374 0.6378
3481.973529 0.6382 0.6386 0.6390 0.6394 0.6398
3486.992647 0.6402 0.6406 0.6410 0.6414 0.6418
3492.011765 0.6422 0.6426 0.6430 0.6434 0.6438
3497.030882 0.6444 0.6451 0.6457 0.6464 0.6471
3502.050000 0.6477 0.6484 0.6490 0.6497 0.6504
3507.069118 0.6510 0.6517 0.6524 0.6530 0.6537
3512.088235 0.6544 0.6551 0.6557 0.6564 0.6570
3517.107353 0.6578 0.6586 0.6594 0.6603 0.6611
3522.126471 0.6619 0.6628 0.6636 0.6645 0.6653
3527.145588 0.6661 0.6670 0.6678 0.6686 0.6695
3532.164706 0.6703 0.6712 0.6723 0.6734 0.6744
3537.183824 0.6755 0.6766 0.6776 0.6787 0.6798
3542.202941 0.6808 0.6819 0.6829 0.6840 0.6851
3547.222059 0.6861 0.6872 0.6883 0.6894 0.6904
3552.241176 0.6915 0.6926 0.6936 0.6947 0.6958
3557.260294 0.6969 0.6979 0.6990 0.7001 0.7011
3562.279412 0.7022 0.7032 0.7043 0.7054 0.7064
3567.298529 0.7075 0.7086 0.7096 0.7108 0.7120
3572.317647 0.7132 0.7145 0.7157 0.7170 0.7182
3577.336765 0.7195 0.7207 0.7219 0.7232 0.7245
3582.355882 0.7257 0.7269 0.7282 0.7294 0.7307
3587.375000 0.7320 0.7333 0.7345 0.7358 0.7371
3592.394118 0.7383 0.7396 0.7409 0.7421 0.7433
3597.413235 0.7441 0.7449 0.7457 0.7465 0.7473
3602.432353 0.7481 0.7488 0.7497 0.7505 0.7513
3607.451471 0.7521 0.7529 0.7537 0.7546 0.7555
3612.470588 0.7565 0.7575 0.7584 0.7594 0.7603
3617.489706 0.7613 0.7623 0.7632 0.7642 0.7651
3622.508824 0.7659 0.7666 0.7674 0.7681 0.7688
3627.527941 0.7694 0.7700 0.7706 0.7712 0.7718
3632.547059 0.7723 0.7729 0.7735 0.7741 0.7747
3637.566176 0.7752 0.7756 0.7760 0.7763 0.7767
3642.585294 0.7770 0.7773 0.7777 0.7780 0.7784
3647.604412 0.7787 0.7791 0.7794 0.7798 0.7801
3652.623529 0.7804 0.7808 0.7812 0.7814 0.7816
3657.642647 0.7817 0.7819 0.7820 0.7822 0.7823
3662.661765 0.7825 0.7826 0.7827 0.7829 0.7830
3667.680882 0.7832 0.7833 0.7835 0.7836 0.7838
3672.700000 0.7839 0.7840 0.7841 0.7842 0.7843
3677.719118 0.7844 0.7845 0.7846 0.7847 0.7848
3682.738235 0.7849 0.7850 0.7851 0.7852 0.7853
3687.757353 0.7854 0.7855 0.7856 0.7857 0.7858
3692.776471 0.7859 0.7860 0.7861 0.7862 0.7863
3697.795588 0.7864 0.7864 0.7865 0.7866 0.7867
3702.814706 0.7868 0.7868 0.7869 0.7870 0.7871
3707.833824 0.7872 0.7873 0.7873 0.7874 0.7875
3712.852941 0.7876 0.7877 0.7878 0.7878 0.7879
3717.872059 0.7880 0.7881 0.7882 0.7882 0.7883
3722.891176 0.7884 0.7885 0.7886 0.7886 0.7887
3727.910294 0.7887 0.7887 0.7888 0.7888 0.7888
3732.929412 0.7888 0.7889 0.7889 0.7889 0.7890
3737.948529 0.7890 0.7890 0.7890 0.7891 0.7891
3742.967647 0.7891 0.7892 0.7892 0.7892 0.7892
3747.986765 0.7893 0.7893 0.7893 0.7894 0.7894
3753.005882 0.7894 0.7894 0.7894 0.7894 0.7895
3758.025000 0.7895 0.7895 0.7895 0.7895 0.7895
3763.044118 0.7895 0.7896 0.7896 0.7896 0.7896
3768.063235 0.7896 0.7896 0.7896 0.7897 0.7897
3773.082353 0.7897 0.7897 0.7897 0.7897 0.7897
3778.101471 0.7898 0.7898 0.7898 0.7899 0.7901
3783.120588 0.7902 0.7904 0.7905 0.7906 0.7908
3788.139706 0.7909 0.7910 0.7912 0.7913 0.7915
3793.158824 0.7916 0.7917 0.7919 0.7920 0.7922
3798.177941 0.7923 0.7924 0.7926 0.7927 0.7928
3803.197059 0.7928 0.7928 0.7927 0.7927 0.7927
3808.216176 0.7927 0.7926 0.7926 0.7926 0.7926
3813.235294 0.7926 0.7925 0.7925 0.7925 0.7925
3818.254412 0.7924 0.7924 0.7924 0.7924 0.7923
3823.273529 0.7923 0.7923 0.7922 0.7921 0.7919
3828.292647 0.7918 0.7916 0.7915 0.7913 0.7912
3833.311765 0.7911 0.7909 0.7908 0.7906 0.7905
3838.330882 0.7903 0.7902 0.7900 0.7899 0.7897
3843.350000 0.7896 0.7894 0.7892 0.7890 0.7888
3848.369118 0.7886 0.7884 0.7882 0.7880 0.7878
3853.388235 0.7876 0.7874 0.7873 0.7871 0.7869
3858.407353 0.7867 0.7865 0.7863 0.7861 0.7860
3863.426471 0.7858 0.7857 0.7855 0.7853 0.7852
3868.445588 0.7850 0.7849 0.7847 0.7846 0.7844
3873.464706 0.7842 0.7841 0.7839 0.7838 0.7837
3878.483824 0.7837 0.7837 0.7837 0.7836 0.7836
3883.502941 0.7836 0.7835 0.7835 0.7835 0.7835
3888.522059 0.7835 0.7834 0.7834 0.7834 0.7833
3893.541176 0.7832 0.7832 0.7831 0.7830 0.7830
3898.560294 0.7829 0.7828 0.7827 0.7827 0.7826
3903.579412 0.7825 0.7825 0.7824 0.7823 0.7823
3908.598529 0.7822 0.7821 0.7820 0.7820 0.7819
3913.617647 0.7818 0.7818 0.7817 0.7816 0.7816
3918.636765 0.7815 0.7814 0.7814 0.7813 0.7812
3923.655882 0.7811 0.7811 0.7810 0.7809 0.7809
3928.675000 0.7808 0.7807 0.7805 0.7804 0.7803
3933.694118 0.7802 0.7800 0.7799 0.7798 0.7797
3938.713235 0.7795 0.7794 0.7793 0.7792 0.7790
3943.732353 0.7789 0.7788 0.7787 0.7785 0.7784
3948.751471 0.7783 0.7781 0.7778 0.7776 0.7773
3953.770588 0.7771 0.7768 0.7766 0.7763 0.7761
3958.789706 0.7758 0.7756 0.7753 0.7751 0.7748
3963.808824 0.7746 0.7743 0.7740 0.7738 0.7735
3968.827941 0.7734 0.7734 0.7733 0.7732 0.7731
3973.847059 0.7730 0.7729 0.7728 0.7727 0.7727
3978.866176 0.7726 0.7725 0.7724 0.7723 0.7722
3983.885294 0.7721 0.7745 0.7723 0.7720 0.7720
3988.904412 0.7720 0.7720 0.7720 0.7720 0.7720
3993.923529 0.7719 0.7719 0.7720 0.7720 0.7720
3998.942647 0.7721 0.7721 0.7721 0.7722 0.7724
4003.961765 0.7725 0.7726 0.7728 0.7729 0.7730
4008.980882 0.7732 0.7733 0.7735 0.7736 0.7736
##END=
