##TITLE=5-TERT-BUTYL-2-HYDROXYLBENZENE SULFONIC ACID, SODIUM SALT
##JCAMP-DX=4.24
##DATA TYPE=INFRARED SPECTRUM
##CLASS=COBLENTZ
##ORIGIN=DOW CHEMICAL COMPANY
##OWNER=COBLENTZ SOCIETY
Collection (C) 2018 copyright by the U.S. Secretary of Commerce
on behalf of the United States of America. All rights reserved.
##DATE=Not specified, most likely prior to 1970
##MOLFORM=C10 H13 Na O4 S
##SOURCE REFERENCE=COBLENTZ NO. 4123
##$NIST ID=B6004123
##$NIST SOURCE=COBLENTZ
##$NIST IMAGE=cob4123
##SPECTROMETER/DATA SYSTEM=Not specified, most likely a prism, grating, or hybrid spectrometer.
##STATE=SOLID (MINERAL OIL MULL)
##PATH LENGTH=
$$SPECTRAL CONTAMINATION DUE TO OIL AROUND 2900 CM^-^1
##SAMPLING PROCEDURE=TRANSMISSION
##RESOLUTION=4
##DATA PROCESSING=DIGITIZED BY NIST FROM HARD COPY
##XUNITS=MICROMETERS
##YUNITS=TRANSMITTANCE
##XFACTOR=1.000000
##YFACTOR=1
##DELTAX=000.006516
##FIRSTX=2.029
##LASTX=15.9027
##FIRSTY=0.602
##MAXX=15.9027
##MINX=2.029
##MAXY=0.943
##MINY=0.063
##NPOINTS=2130
##XYDATA=(X++(Y..Y))
2.029000 0.6020 0.6020 0.6020 0.6020 0.6020
2.061597 0.6020 0.6020 0.6020 0.6030 0.6050
2.094000 0.6050 0.6050 0.6070 0.6070 0.6080
2.126597 0.6080 0.6080 0.6100 0.6100 0.6100
2.159000 0.6100 0.6100 0.6100 0.6100 0.6120
2.191597 0.6120 0.6130 0.6130 0.6150 0.6160
2.225000 0.6160 0.6160 0.6160 0.6160 0.6160
2.257597 0.6160 0.6160 0.6160 0.6160 0.6150
2.290000 0.6120 0.6120 0.6120 0.6100 0.6100
2.322597 0.6100 0.6100 0.6100 0.6100 0.6100
2.355000 0.6100 0.6120 0.6120 0.6130 0.6130
2.387597 0.6150 0.6160 0.6200 0.6200 0.6200
2.420000 0.6210 0.6230 0.6230 0.6260 0.6260
2.452597 0.6290 0.6290 0.6290 0.6310 0.6310
2.485000 0.6310 0.6330 0.6340 0.6340 0.6340
2.517597 0.6340 0.6340 0.6340 0.6340 0.6360
2.550000 0.6360 0.6360 0.6370 0.6370 0.6370
2.582597 0.6390 0.6390 0.6390 0.6410 0.6420
2.616000 0.6420 0.6440 0.6460 0.6470 0.6490
2.648597 0.6490 0.6490 0.6490 0.6490 0.6490
2.681000 0.6490 0.6490 0.6490 0.6490 0.6500
2.713597 0.6500 0.6500 0.6490 0.6490 0.6490
2.746000 0.6490 0.6490 0.6490 0.6470 0.6470
2.778597 0.6460 0.6440 0.6420 0.6410 0.6360
2.811000 0.6330 0.6330 0.6330 0.6330 0.6330
2.843597 0.6330 0.6310 0.6310 0.6290 0.6290
2.876000 0.6280 0.6260 0.6250 0.6230 0.6230
2.908597 0.6210 0.6200 0.6180 0.6160 0.6130
2.941000 0.6120 0.6080 0.6050 0.6030 0.5990
2.973597 0.5950 0.5900 0.5840 0.5790 0.5710
3.007000 0.5630 0.5510 0.5400 0.5290 0.5240
3.039597 0.5090 0.4950 0.4830 0.4650 0.4540
3.072000 0.4350 0.4130 0.3960 0.3730 0.3500
3.104597 0.3340 0.3290 0.3240 0.3210 0.3190
3.137000 0.3210 0.3700 0.3970 0.4180 0.4360
3.169597 0.4490 0.4610 0.4720 0.4830 0.4960
3.202000 0.5140 0.5340 0.5470 0.5530 0.5600
3.234597 0.5630 0.5660 0.5710 0.5770 0.5810
3.267000 0.5820 0.5840 0.5870 0.5890 0.5900
3.299597 0.5920 0.5950 0.5950 0.5940 0.5890
3.332000 0.5790 0.5660 0.5500 0.5250 0.4910
3.364597 0.4390 0.3530 0.3050 0.2540 0.2140
3.397000 0.1670 0.1150 0.0630 0.0630 0.0660
3.429597 0.0730 0.0770 0.0860 0.0920 0.1230
3.463000 0.1460 0.1670 0.1850 0.1960 0.1990
3.495597 0.2010 0.2040 0.2110 0.2170 0.2660
3.528000 0.3100 0.4310 0.4900 0.5380 0.5690
3.560597 0.5890 0.5990 0.6050 0.6100 0.6150
3.593000 0.6200 0.6280 0.6340 0.6390 0.6420
3.625597 0.6440 0.6440 0.6460 0.6470 0.6470
3.658000 0.6470 0.6470 0.6470 0.6470 0.6470
3.690597 0.6490 0.6490 0.6490 0.6500 0.6520
3.723000 0.6590 0.6600 0.6620 0.6630 0.6680
3.755597 0.6680 0.6680 0.6680 0.6700 0.6720
3.788000 0.6750 0.6760 0.6780 0.6780 0.6800
3.820597 0.6800 0.6800 0.6800 0.6800 0.6800
3.854000 0.6800 0.6810 0.6810 0.6830 0.6850
3.886597 0.6880 0.6880 0.6910 0.6930 0.6980
3.919000 0.6990 0.6990 0.7010 0.7020 0.7020
3.951597 0.7040 0.7040 0.7060 0.7060 0.7070
3.984000 0.7090 0.7110 0.7110 0.7120 0.7140
4.016597 0.7140 0.7150 0.7150 0.7170 0.7190
4.049000 0.7190 0.7190 0.7190 0.7190 0.7190
4.081597 0.7190 0.7200 0.7200 0.7200 0.7200
4.114000 0.7200 0.7200 0.7200 0.7220 0.7270
4.146597 0.7320 0.7370 0.7370 0.7380 0.7380
4.179000 0.7380 0.7380 0.7350 0.7320 0.7300
4.211597 0.7300 0.7300 0.7300 0.7320 0.7330
4.245000 0.7350 0.7370 0.7370 0.7380 0.7380
4.277597 0.7400 0.7410 0.7430 0.7450 0.7450
4.310000 0.7450 0.7450 0.7450 0.7450 0.7450
4.342597 0.7450 0.7450 0.7450 0.7450 0.7450
4.375000 0.7450 0.7450 0.7450 0.7450 0.7450
4.407597 0.7450 0.7460 0.7460 0.7460 0.7460
4.440000 0.7460 0.7460 0.7460 0.7460 0.7460
4.472597 0.7460 0.7460 0.7460 0.7480 0.7480
4.505000 0.7480 0.7480 0.7500 0.7500 0.7500
4.537597 0.7500 0.7500 0.7510 0.7510 0.7510
4.570000 0.7510 0.7510 0.7510 0.7510 0.7510
4.602597 0.7510 0.7530 0.7530 0.7530 0.7530
4.636000 0.7530 0.7540 0.7540 0.7540 0.7540
4.668597 0.7540 0.7560 0.7560 0.7580 0.7580
4.701000 0.7580 0.7580 0.7580 0.7580 0.7580
4.733597 0.7580 0.7590 0.7590 0.7590 0.7610
4.766000 0.7610 0.7610 0.7610 0.7620 0.7620
4.798597 0.7620 0.7620 0.7620 0.7620 0.7640
4.831000 0.7640 0.7640 0.7640 0.7660 0.7660
4.863597 0.7660 0.7660 0.7660 0.7660 0.7660
4.896000 0.7670 0.7670 0.7670 0.7690 0.7690
4.928597 0.7690 0.7690 0.7710 0.7720 0.7720
4.961000 0.7720 0.7720 0.7720 0.7740 0.7740
4.993597 0.7740 0.7740 0.7750 0.7750 0.7750
5.027000 0.7750 0.7770 0.7770 0.7770 0.7770
5.059597 0.7770 0.7790 0.7770 0.7770 0.7770
5.092000 0.7770 0.7770 0.7770 0.7770 0.7770
5.124597 0.7770 0.7770 0.7770 0.7770 0.7790
5.157000 0.7790 0.7790 0.7790 0.7790 0.7790
5.189597 0.7790 0.7820 0.7820 0.7800 0.7800
5.222000 0.7800 0.7800 0.7800 0.7820 0.7840
5.254597 0.7840 0.7840 0.7820 0.7820 0.7800
5.287000 0.7790 0.7790 0.7790 0.7790 0.7800
5.319597 0.7800 0.7820 0.7840 0.7870 0.7870
5.352000 0.7870 0.7870 0.7880 0.7880 0.7880
5.384597 0.7900 0.7900 0.7900 0.7880 0.7880
5.418000 0.7870 0.7870 0.7870 0.7870 0.7870
5.450597 0.7880 0.7880 0.7880 0.7900 0.7920
5.483000 0.7930 0.7950 0.7970 0.7980 0.7980
5.515597 0.7980 0.7980 0.7980 0.7980 0.7980
5.548000 0.7970 0.7950 0.7930 0.7920 0.7900
5.580597 0.7900 0.7900 0.7900 0.7880 0.7880
5.613000 0.7880 0.7880 0.7880 0.7880 0.7880
5.645597 0.7880 0.7900 0.7920 0.7930 0.7950
5.678000 0.7950 0.7950 0.7950 0.7950 0.7950
5.710597 0.7950 0.7950 0.7950 0.7950 0.7950
5.743000 0.7950 0.7970 0.7970 0.7970 0.7970
5.775597 0.7970 0.7970 0.7970 0.7970 0.7970
5.809000 0.7970 0.7970 0.7970 0.7970 0.7970
5.841597 0.7970 0.7970 0.7970 0.7970 0.7970
5.874000 0.7970 0.7970 0.7970 0.7980 0.7980
5.906597 0.7980 0.7980 0.7980 0.7980 0.7980
5.939000 0.7980 0.7980 0.7980 0.7980 0.7980
5.971597 0.7970 0.7950 0.7930 0.7920 0.7900
6.004000 0.7900 0.7900 0.7900 0.7900 0.7900
6.036597 0.7880 0.7880 0.7880 0.7880 0.7880
6.069000 0.7880 0.7920 0.7950 0.7970 0.7970
6.101597 0.7970 0.7950 0.7930 0.7900 0.7870
6.134000 0.7820 0.7790 0.7770 0.7710 0.7670
6.166597 0.7590 0.7460 0.7370 0.7150 0.7060
6.199000 0.6930 0.6910 0.6930 0.7040 0.7070
6.231597 0.7140 0.7220 0.7320 0.7450 0.7580
6.265000 0.7610 0.7670 0.7740 0.7820 0.7870
6.297597 0.7880 0.7900 0.7900 0.7900 0.7950
6.330000 0.7970 0.7980 0.7980 0.7980 0.8000
6.362597 0.8000 0.8010 0.8010 0.8010 0.8010
6.395000 0.8030 0.8030 0.8030 0.8030 0.8030
6.427597 0.8030 0.8050 0.8030 0.8030 0.8010
6.460000 0.8010 0.8000 0.7980 0.7980 0.7980
6.492597 0.7970 0.7950 0.7880 0.7870 0.7820
6.525000 0.7790 0.7770 0.7710 0.7690 0.7670
6.557597 0.7620 0.7610 0.7590 0.7540 0.7500
6.590000 0.7400 0.7280 0.7110 0.6940 0.6850
6.622597 0.6730 0.6600 0.6440 0.6260 0.6250
6.656000 0.6260 0.6370 0.6590 0.6990 0.7190
6.688597 0.7330 0.7410 0.7460 0.7460 0.7430
6.721000 0.7380 0.7280 0.7200 0.7040 0.6890
6.753597 0.6680 0.6540 0.6370 0.6050 0.5690
6.786000 0.5380 0.5110 0.4720 0.4460 0.4230
6.818597 0.4180 0.4150 0.4130 0.4150 0.4260
6.851000 0.4380 0.4540 0.4700 0.4900 0.5030
6.883597 0.5170 0.5290 0.5380 0.5480 0.5580
6.916000 0.5690 0.5770 0.5840 0.5950 0.5970
6.948597 0.6020 0.6070 0.6070 0.6030 0.5990
6.981000 0.5900 0.5810 0.5640 0.5430 0.5240
7.013597 0.5080 0.4950 0.4880 0.4870 0.4870
7.047000 0.4950 0.5170 0.5430 0.5690 0.5950
7.079597 0.6200 0.6440 0.6850 0.6990 0.7140
7.112000 0.7200 0.7270 0.7370 0.7410 0.7450
7.144597 0.7460 0.7450 0.7430 0.7400 0.7350
7.177000 0.7280 0.7150 0.7020 0.6850 0.6670
7.209597 0.6570 0.6470 0.6290 0.6120 0.5950
7.242000 0.5810 0.5640 0.5500 0.5400 0.5350
7.274597 0.5300 0.5290 0.5290 0.5300 0.5380
7.307000 0.5480 0.5630 0.5790 0.5950 0.6130
7.339597 0.6370 0.6570 0.6880 0.7010 0.7090
7.372000 0.7170 0.7240 0.7280 0.7370 0.7410
7.404597 0.7460 0.7500 0.7500 0.7510 0.7530
7.438000 0.7580 0.7610 0.7670 0.7710 0.7770
7.470597 0.7800 0.7870 0.7870 0.7880 0.7880
7.503000 0.7920 0.7920 0.7930 0.7930 0.7950
7.535597 0.7950 0.7970 0.7970 0.7970 0.7970
7.568000 0.7970 0.7970 0.7970 0.7970 0.7950
7.600597 0.7920 0.7920 0.7900 0.7870 0.7870
7.633000 0.7840 0.7820 0.7790 0.7770 0.7750
7.665597 0.7690 0.7670 0.7610 0.7510 0.7400
7.698000 0.7300 0.7190 0.7090 0.6980 0.6850
7.730597 0.6760 0.6760 0.6810 0.6860 0.6930
7.763000 0.6990 0.7020 0.7070 0.7070 0.6890
7.795597 0.6720 0.6590 0.6460 0.6130 0.5950
7.829000 0.5550 0.5340 0.5030 0.4800 0.4590
7.861597 0.4570 0.4590 0.4690 0.4800 0.4910
7.894000 0.5080 0.5170 0.5270 0.5340 0.5400
7.926597 0.5500 0.5640 0.5770 0.5940 0.6130
7.959000 0.6340 0.6540 0.6780 0.6810 0.6800
7.991597 0.6680 0.6650 0.6600 0.6490 0.6370
8.024000 0.6200 0.6000 0.5730 0.5370 0.5010
8.056597 0.4540 0.4000 0.3530 0.3260 0.2980
8.089000 0.2400 0.1890 0.1540 0.1340 0.1180
8.121597 0.1080 0.1000 0.0990 0.1000 0.1120
8.154000 0.1250 0.1540 0.1880 0.2250 0.2790
8.186597 0.3290 0.3780 0.4130 0.4490 0.4720
8.220000 0.4830 0.5000 0.5000 0.4980 0.4870
8.252597 0.4740 0.4540 0.4330 0.4040 0.3730
8.285000 0.3450 0.3290 0.3130 0.2690 0.2240
8.317597 0.1890 0.1520 0.1290 0.1130 0.1050
8.350000 0.1020 0.1050 0.1540 0.1990 0.2450
8.382597 0.2930 0.3140 0.4100 0.4330 0.4610
8.415000 0.4830 0.5090 0.5380 0.5630 0.5810
8.447597 0.5990 0.6180 0.6340 0.6520 0.6780
8.480000 0.6860 0.6890 0.6960 0.6980 0.6980
8.512597 0.6980 0.6940 0.6910 0.6880 0.6810
8.545000 0.6760 0.6680 0.6650 0.6600 0.6500
8.577597 0.6470 0.6440 0.6440 0.6460 0.6550
8.611000 0.6650 0.6880 0.6990 0.7120 0.7240
8.643597 0.7350 0.7450 0.7500 0.7560 0.7580
8.676000 0.7590 0.7620 0.7670 0.7710 0.7770
8.708597 0.7790 0.7800 0.7820 0.7820 0.7850
8.741000 0.7870 0.7870 0.7880 0.7900 0.7920
8.773597 0.7950 0.7950 0.7970 0.7970 0.7970
8.806000 0.7970 0.7970 0.7970 0.7970 0.7930
8.838597 0.7880 0.7800 0.7740 0.7640 0.7580
8.871000 0.7460 0.7380 0.7370 0.7370 0.7370
8.903597 0.7380 0.7410 0.7500 0.7580 0.7660
8.936000 0.7690 0.7770 0.7850 0.7870 0.7880
8.968597 0.7880 0.7900 0.7900 0.7900 0.7880
9.002000 0.7800 0.7720 0.7620 0.7530 0.7400
9.034597 0.7250 0.7060 0.6830 0.6680 0.6540
9.067000 0.6160 0.5730 0.5350 0.4930 0.4490
9.099597 0.4090 0.3790 0.3580 0.3370 0.3340
9.132000 0.3370 0.3580 0.3910 0.4230 0.4640
9.164597 0.5080 0.5530 0.5710 0.6000 0.6360
9.197000 0.7040 0.7250 0.7430 0.7540 0.7720
9.229597 0.7800 0.7870 0.7900 0.7970 0.7980
9.262000 0.8000 0.8030 0.8080 0.8100 0.8130
9.294597 0.8160 0.8160 0.8180 0.8190 0.8210
9.327000 0.8240 0.8260 0.8260 0.8270 0.8290
9.359597 0.8290 0.8310 0.8310 0.8320 0.8360
9.392000 0.8370 0.8390 0.8390 0.8390 0.8390
9.424597 0.8390 0.8390 0.8400 0.8400 0.8400
9.458000 0.8400 0.8390 0.8390 0.8370 0.8370
9.490597 0.8360 0.8310 0.8290 0.8230 0.8180
9.523000 0.8100 0.8010 0.7920 0.7720 0.7510
9.555597 0.7220 0.6850 0.6630 0.6420 0.5950
9.588000 0.5450 0.4930 0.4390 0.3860 0.3390
9.620597 0.3270 0.3140 0.3100 0.3100 0.4070
9.653000 0.4640 0.5380 0.5950 0.6470 0.7170
9.685597 0.7380 0.7530 0.7640 0.7740 0.7790
9.718000 0.7850 0.7920 0.7980 0.8030 0.8110
9.750597 0.8190 0.8270 0.8310 0.8390 0.8440
9.783000 0.8470 0.8550 0.8620 0.8620 0.8660
9.815597 0.8660 0.8680 0.8700 0.8700 0.8710
9.849000 0.8750 0.8760 0.8780 0.8780 0.8790
9.881597 0.8790 0.8810 0.8860 0.8860 0.8870
9.914000 0.8870 0.8910 0.8920 0.8940 0.8940
9.946597 0.8960 0.8970 0.8990 0.8990 0.9000
9.979000 0.9000 0.9020 0.9020 0.9040 0.9040
10.011597 0.9050 0.9050 0.9070 0.9070 0.9070
10.044000 0.9090 0.9090 0.9100 0.9130 0.9170
10.076597 0.9170 0.9180 0.9220 0.9250 0.9260
10.109000 0.9280 0.9280 0.9280 0.9280 0.9280
10.141597 0.9280 0.9300 0.9310 0.9310 0.9310
10.174000 0.9310 0.9330 0.9330 0.9310 0.9310
10.206597 0.9310 0.9310 0.9310 0.9310 0.9330
10.240000 0.9330 0.9330 0.9330 0.9330 0.9330
10.272597 0.9350 0.9350 0.9350 0.9350 0.9350
10.305000 0.9350 0.9350 0.9350 0.9350 0.9360
10.337597 0.9360 0.9360 0.9360 0.9360 0.9360
10.370000 0.9360 0.9360 0.9380 0.9380 0.9390
10.402597 0.9390 0.9380 0.9380 0.9380 0.9380
10.435000 0.9380 0.9380 0.9390 0.9390 0.9390
10.467597 0.9410 0.9410 0.9430 0.9430 0.9430
10.500000 0.9430 0.9410 0.9410 0.9410 0.9390
10.532597 0.9390 0.9390 0.9390 0.9380 0.9380
10.565000 0.9380 0.9380 0.9380 0.9360 0.9360
10.597597 0.9360 0.9360 0.9360 0.9360 0.9360
10.631000 0.9360 0.9360 0.9360 0.9360 0.9360
10.663597 0.9360 0.9350 0.9350 0.9350 0.9350
10.696000 0.9330 0.9330 0.9330 0.9330 0.9310
10.728597 0.9310 0.9300 0.9300 0.9300 0.9280
10.761000 0.9280 0.9280 0.9280 0.9280 0.9260
10.793597 0.9260 0.9260 0.9260 0.9260 0.9280
10.826000 0.9280 0.9280 0.9280 0.9280 0.9280
10.858597 0.9280 0.9300 0.9300 0.9300 0.9300
10.891000 0.9300 0.9300 0.9300 0.9300 0.9300
10.923597 0.9300 0.9300 0.9300 0.9300 0.9300
10.956000 0.9300 0.9300 0.9280 0.9280 0.9300
10.988597 0.9300 0.9300 0.9300 0.9260 0.9260
11.022000 0.9260 0.9260 0.9220 0.9200 0.9200
11.054597 0.9180 0.9170 0.9170 0.9150 0.9100
11.087000 0.9070 0.9000 0.8970 0.8890 0.8870
11.119597 0.8790 0.8760 0.8700 0.8660 0.8630
11.152000 0.8580 0.8570 0.8520 0.8490 0.8490
11.184597 0.8470 0.8470 0.8470 0.8490 0.8550
11.217000 0.8570 0.8580 0.8580 0.8600 0.8630
11.249597 0.8660 0.8660 0.8680 0.8680 0.8700
11.282000 0.8710 0.8760 0.8760 0.8790 0.8810
11.314597 0.8840 0.8840 0.8860 0.8870 0.8890
11.347000 0.8890 0.8910 0.8910 0.8920 0.8920
11.379597 0.8920 0.8940 0.8940 0.8960 0.8960
11.413000 0.8970 0.8970 0.8970 0.8970 0.8960
11.445597 0.8960 0.8960 0.8960 0.8940 0.8940
11.478000 0.8940 0.8920 0.8920 0.8910 0.8910
11.510597 0.8910 0.8910 0.8890 0.8890 0.8890
11.543000 0.8870 0.8870 0.8870 0.8860 0.8860
11.575597 0.8860 0.8860 0.8860 0.8860 0.8860
11.608000 0.8840 0.8840 0.8830 0.8830 0.8810
11.640597 0.8790 0.8790 0.8790 0.8790 0.8790
11.673000 0.8790 0.8790 0.8790 0.8790 0.8790
11.705597 0.8780 0.8780 0.8760 0.8760 0.8760
11.738000 0.8760 0.8750 0.8750 0.8750 0.8750
11.770597 0.8750 0.8760 0.8760 0.8760 0.8730
11.804000 0.8730 0.8710 0.8700 0.8680 0.8660
11.836597 0.8660 0.8660 0.8660 0.8660 0.8650
11.869000 0.8630 0.8630 0.8620 0.8600 0.8580
11.901597 0.8570 0.8550 0.8550 0.8530 0.8520
11.934000 0.8500 0.8490 0.8490 0.8470 0.8450
11.966597 0.8420 0.8400 0.8390 0.8360 0.8190
11.999000 0.8060 0.7980 0.7900 0.7800 0.7640
12.031597 0.7530 0.7380 0.7150 0.7010 0.6800
12.064000 0.6680 0.6550 0.6290 0.6050 0.5820
12.096597 0.5550 0.5350 0.5240 0.5110 0.5010
12.129000 0.5000 0.5010 0.5240 0.5480 0.5820
12.161597 0.6150 0.6460 0.7060 0.7320 0.7580
12.194000 0.7790 0.7980 0.8080 0.8140 0.8210
12.226597 0.8270 0.8310 0.8370 0.8400 0.8470
12.260000 0.8490 0.8500 0.8520 0.8530 0.8550
12.292597 0.8570 0.8570 0.8570 0.8580 0.8580
12.325000 0.8580 0.8580 0.8580 0.8580 0.8580
12.357597 0.8580 0.8580 0.8580 0.8580 0.8580
12.390000 0.8580 0.8580 0.8580 0.8580 0.8580
12.422597 0.8580 0.8600 0.8600 0.8600 0.8600
12.455000 0.8600 0.8600 0.8600 0.8600 0.8600
12.487597 0.8600 0.8600 0.8600 0.8600 0.8600
12.520000 0.8600 0.8600 0.8600 0.8600 0.8600
12.552597 0.8600 0.8600 0.8580 0.8580 0.8580
12.585000 0.8580 0.8600 0.8580 0.8580 0.8580
12.617597 0.8580 0.8580 0.8580 0.8580 0.8570
12.651000 0.8570 0.8570 0.8570 0.8570 0.8570
12.683597 0.8570 0.8570 0.8570 0.8570 0.8570
12.716000 0.8570 0.8570 0.8570 0.8570 0.8570
12.748597 0.8570 0.8580 0.8580 0.8580 0.8580
12.781000 0.8600 0.8600 0.8600 0.8600 0.8600
12.813597 0.8600 0.8600 0.8600 0.8600 0.8600
12.846000 0.8600 0.8600 0.8600 0.8600 0.8600
12.878597 0.8600 0.8620 0.8620 0.8620 0.8620
12.911000 0.8620 0.8620 0.8620 0.8620 0.8620
12.943597 0.8620 0.8620 0.8630 0.8630 0.8630
12.976000 0.8650 0.8650 0.8650 0.8650 0.8650
13.008597 0.8630 0.8620 0.8620 0.8600 0.8600
13.042000 0.8600 0.8600 0.8600 0.8600 0.8600
13.074597 0.8600 0.8600 0.8600 0.8580 0.8580
13.107000 0.8580 0.8570 0.8570 0.8570 0.8550
13.139597 0.8550 0.8550 0.8530 0.8530 0.8520
13.172000 0.8520 0.8520 0.8500 0.8490 0.8470
13.204597 0.8450 0.8420 0.8420 0.8400 0.8400
13.237000 0.8370 0.8370 0.8310 0.8290 0.8270
13.269597 0.8260 0.8210 0.8180 0.8180 0.8100
13.302000 0.8080 0.8000 0.7980 0.7970 0.7880
13.334597 0.7870 0.7790 0.7740 0.7690 0.7640
13.367000 0.7590 0.7540 0.7510 0.7500 0.7450
13.399597 0.7430 0.7410 0.7400 0.7400 0.7380
13.433000 0.7380 0.7370 0.7370 0.7380 0.7380
13.465597 0.7400 0.7400 0.7410 0.7430 0.7450
13.498000 0.7460 0.7480 0.7530 0.7540 0.7560
13.530597 0.7590 0.7610 0.7670 0.7690 0.7770
13.563000 0.7800 0.7840 0.7850 0.7900 0.7970
13.595597 0.8010 0.8080 0.8100 0.8100 0.8100
13.628000 0.8100 0.8100 0.8100 0.8080 0.8060
13.660597 0.8010 0.8000 0.7980 0.7920 0.7870
13.693000 0.7800 0.7770 0.7690 0.7640 0.7580
13.725597 0.7510 0.7500 0.7450 0.7400 0.7350
13.758000 0.7280 0.7220 0.7150 0.7060 0.7040
13.790597 0.6910 0.6850 0.6750 0.6720 0.6680
13.824000 0.6670 0.6630 0.6600 0.6590 0.6520
13.856597 0.6490 0.6470 0.6470 0.6460 0.6460
13.889000 0.6460 0.6460 0.6460 0.6460 0.6460
13.921597 0.6460 0.6470 0.6500 0.6540 0.6590
13.954000 0.6600 0.6630 0.6680 0.6730 0.6760
13.986597 0.6800 0.6850 0.6880 0.6930 0.6980
14.019000 0.7010 0.7010 0.7070 0.7090 0.7140
14.051597 0.7190 0.7200 0.7270 0.7280 0.7320
14.084000 0.7370 0.7400 0.7410 0.7430 0.7450
14.116597 0.7480 0.7500 0.7500 0.7510 0.7530
14.149000 0.7530 0.7560 0.7560 0.7580 0.7590
14.181597 0.7590 0.7610 0.7610 0.7610 0.7620
14.215000 0.7620 0.7640 0.7640 0.7660 0.7660
14.247597 0.7670 0.7670 0.7690 0.7690 0.7690
14.280000 0.7710 0.7710 0.7710 0.7710 0.7710
14.312597 0.7720 0.7720 0.7720 0.7720 0.7720
14.345000 0.7720 0.7720 0.7720 0.7720 0.7720
14.377597 0.7720 0.7720 0.7720 0.7720 0.7720
14.410000 0.7720 0.7720 0.7720 0.7720 0.7720
14.442597 0.7720 0.7720 0.7720 0.7720 0.7720
14.475000 0.7710 0.7710 0.7710 0.7690 0.7690
14.507597 0.7670 0.7670 0.7640 0.7620 0.7610
14.540000 0.7590 0.7580 0.7580 0.7560 0.7560
14.572597 0.7560 0.7540 0.7540 0.7530 0.7500
14.606000 0.7500 0.7480 0.7430 0.7400 0.7380
14.638597 0.7320 0.7280 0.7220 0.7190 0.7120
14.671000 0.7090 0.7010 0.6960 0.6880 0.6810
14.703597 0.6720 0.6670 0.6620 0.6550 0.6460
14.736000 0.6410 0.6290 0.6210 0.6150 0.6050
14.768597 0.6000 0.5950 0.5940 0.5840 0.5790
14.801000 0.5760 0.5730 0.5710 0.5690 0.5690
14.833597 0.5690 0.5710 0.5730 0.5740 0.5760
14.866000 0.5790 0.5860 0.5890 0.5950 0.6020
14.898597 0.6080 0.6150 0.6230 0.6290 0.6360
14.931000 0.6420 0.6500 0.6570 0.6630 0.6780
14.963597 0.6810 0.6880 0.6930 0.6960 0.7010
14.996000 0.7020 0.7040 0.7060 0.7070 0.7070
15.028597 0.7090 0.7090 0.7110 0.7110 0.7120
15.062000 0.7120 0.7140 0.7150 0.7150 0.7170
15.094597 0.7170 0.7150 0.7150 0.7120 0.7120
15.127000 0.7120 0.7110 0.7090 0.7090 0.7090
15.159597 0.7070 0.7070 0.7070 0.7070 0.7060
15.192000 0.7040 0.7040 0.7020 0.7020 0.7010
15.224597 0.7010 0.7010 0.7010 0.7010 0.6990
15.257000 0.6990 0.6980 0.6980 0.6960 0.6940
15.289597 0.6940 0.6930 0.6910 0.6910 0.6890
15.322000 0.6880 0.6860 0.6810 0.6800 0.6780
15.354597 0.6780 0.6780 0.6760 0.6750 0.6750
15.387000 0.6730 0.6700 0.6700 0.6680 0.6680
15.419597 0.6670 0.6650 0.6630 0.6600 0.6590
15.453000 0.6520 0.6500 0.6490 0.6490 0.6470
15.485597 0.6420 0.6410 0.6390 0.6370 0.6340
15.518000 0.6330 0.6290 0.6230 0.6200 0.6150
15.550597 0.6100 0.6070 0.6020 0.5990 0.5940
15.583000 0.5920 0.5820 0.5730 0.5660 0.5630
15.615597 0.5550 0.5500 0.5400 0.5300 0.5220
15.648000 0.5140 0.5080 0.5000 0.4910 0.4820
15.680597 0.4740 0.4650 0.4560 0.4480 0.4380
15.713000 0.4280 0.4200 0.4100 0.4000 0.3960
15.745597 0.3890 0.3810 0.3750 0.3650 0.3570
15.778000 0.3530 0.3470 0.3390 0.3360 0.3320
15.810597 0.3260 0.3210 0.3130 0.3060 0.3010
15.844000 0.3000 0.2920 0.2900 0.2920 0.3000
15.876597 0.3110 0.3270 0.3290 0.3490 0.3400
##END=
