##TITLE=Acetanilide, N-tert-butyl-3-chloro-
##JCAMP-DX=4.24
##DATA TYPE=INFRARED SPECTRUM
##CLASS=COBLENTZ III
##ORIGIN=MONSANTO (J. FREEMAN)
##OWNER=Copyright (C) 1987 by the Coblentz Society
Collection (C) 2018 copyright by the U.S. Secretary of Commerce
on behalf of the United States of America. All rights reserved.
##DATE=1959/03/24
##NAMES=N-(tert-butyl)-N-(3-chlorophenyl)acetamide
##MOLFORM=C12 H16 Cl N O
##SOURCE REFERENCE=COBLENTZ NO. 9290
##$NIST ID=B6009290
##$NIST SOURCE=COBLENTZ
##$NIST IMAGE=cob9290
##SPECTROMETER/DATA SYSTEM=BECKMAN IR-4 (HYBRID PRISM-GRATING)
##INSTRUMENT PARAMETERS=NaCl PRISM
##STATE=LIQUID (NEAT)
##PATH LENGTH=CAPILLARY
##SAMPLING PROCEDURE=TRANSMISSION
##RESOLUTION=2
##DATA PROCESSING=DIGITIZED BY COBLENTZ SOCIETY (BATCH II) FROM HARD COPY
##XUNITS=1/CM
##YUNITS=TRANSMITTANCE
##XFACTOR=1.0
##YFACTOR=1
##FIRSTX=656
##LASTX=4000
##FIRSTY=0.9898
##MAXX=4000
##MINX=656
##MAXY=0.9872
##MINY=0.1014
##NPOINTS=3345
##XYDATA=(X++(Y..Y))
656.000000 0.9898 0.9849 0.9772 0.9653 0.9552
661.000000 0.9472 0.9448 0.9428 0.9464 0.9489
666.000000 0.9532 0.9588 0.9645 0.9697 0.9749
671.000000 0.9799 0.9842 0.9863 0.9872 0.9870
676.000000 0.9868 0.9846 0.9814 0.9769 0.9719
681.000000 0.9662 0.9614 0.9565 0.9523 0.9478
686.000000 0.9421 0.9344 0.9248 0.9137 0.8976
691.000000 0.8769 0.8365 0.7847 0.7152 0.6460
696.000000 0.5770 0.5082 0.4395 0.3845 0.3618
701.000000 0.3505 0.3498 0.4468 0.5296 0.6122
706.000000 0.6946 0.7767 0.8408 0.8759 0.8985
711.000000 0.9194 0.9431 0.9537 0.9605 0.9646
716.000000 0.9683 0.9695 0.9710 0.9730 0.9750
721.000000 0.9768 0.9782 0.9781 0.9779 0.9808
726.000000 0.9772 0.9767 0.9760 0.9742 0.9724
731.000000 0.9699 0.9666 0.9620 0.9560 0.9479
736.000000 0.9374 0.9246 0.9095 0.8818 0.8503
741.000000 0.8036 0.7432 0.6830 0.6229 0.5630
746.000000 0.4850 0.4493 0.4484 0.4497 0.6013
751.000000 0.6903 0.7749 0.8222 0.8656 0.8936
756.000000 0.9025 0.9094 0.9150 0.9189 0.9228
761.000000 0.9260 0.9291 0.9319 0.9346 0.9373
766.000000 0.9394 0.9414 0.9431 0.9443 0.9433
771.000000 0.9417 0.9382 0.9314 0.9221 0.9087
776.000000 0.8892 0.8760 0.8418 0.8058 0.7699
781.000000 0.7340 0.6981 0.6685 0.6418 0.6262
786.000000 0.6051 0.5994 0.6022 0.6131 0.6358
791.000000 0.6596 0.6834 0.7071 0.7307 0.7559
796.000000 0.7776 0.7985 0.8185 0.8433 0.8684
801.000000 0.8851 0.8961 0.8997 0.9014 0.8886
806.000000 0.8783 0.8657 0.8509 0.8458 0.8471
811.000000 0.8494 0.8606 0.8996 0.9217 0.9343
816.000000 0.9452 0.9526 0.9575 0.9617 0.9655
821.000000 0.9679 0.9699 0.9715 0.9722 0.9729
826.000000 0.9734 0.9734 0.9735 0.9735 0.9734
831.000000 0.9732 0.9730 0.9726 0.9721 0.9716
836.000000 0.9713 0.9713 0.9726 0.9717 0.9723
841.000000 0.9729 0.9733 0.9734 0.9736 0.9737
846.000000 0.9733 0.9728 0.9723 0.9718 0.9713
851.000000 0.9707 0.9702 0.9696 0.9692 0.9688
856.000000 0.9685 0.9682 0.9678 0.9675 0.9669
861.000000 0.9664 0.9658 0.9651 0.9644 0.9634
866.000000 0.9598 0.9537 0.9460 0.9373 0.9277
871.000000 0.9186 0.9091 0.8991 0.8898 0.8809
876.000000 0.8736 0.8692 0.8674 0.8701 0.8725
881.000000 0.8784 0.8871 0.8950 0.9036 0.9124
886.000000 0.9209 0.9295 0.9377 0.9406 0.9408
891.000000 0.9414 0.9402 0.9378 0.9340 0.9289
896.000000 0.9237 0.9187 0.9141 0.9102 0.9120
901.000000 0.9114 0.9125 0.9136 0.9150 0.9164
906.000000 0.9179 0.9193 0.9213 0.9235 0.9240
911.000000 0.9244 0.9252 0.9227 0.9188 0.9150
916.000000 0.9115 0.9080 0.9040 0.8997 0.8968
921.000000 0.8950 0.8929 0.8854 0.8713 0.8622
926.000000 0.8529 0.8380 0.8223 0.8096 0.8050
931.000000 0.8050 0.8118 0.8254 0.8490 0.8740
936.000000 0.8924 0.9110 0.9267 0.9354 0.9418
941.000000 0.9463 0.9496 0.9510 0.9524 0.9534
946.000000 0.9543 0.9548 0.9548 0.9549 0.9553
951.000000 0.9545 0.9540 0.9535 0.9526 0.9511
956.000000 0.9496 0.9480 0.9457 0.9426 0.9394
961.000000 0.9347 0.9286 0.9211 0.9112 0.9001
966.000000 0.8871 0.8722 0.8580 0.8354 0.8046
971.000000 0.7738 0.7429 0.7123 0.6832 0.6783
976.000000 0.6782 0.7060 0.7369 0.7676 0.7983
981.000000 0.8290 0.8591 0.8745 0.8779 0.8786
986.000000 0.8782 0.8776 0.8774 0.8784 0.8861
991.000000 0.8984 0.9076 0.9127 0.9052 0.8816
996.000000 0.8573 0.8331 0.8297 0.8376 0.8664
1001.000000 0.8950 0.9205 0.9306 0.9382 0.9423
1006.000000 0.9459 0.9485 0.9498 0.9497 0.9477
1011.000000 0.9488 0.9480 0.9459 0.9436 0.9412
1016.000000 0.9387 0.9359 0.9288 0.9212 0.9124
1021.000000 0.9020 0.8873 0.8733 0.8609 0.8473
1026.000000 0.8329 0.8198 0.8068 0.7903 0.7772
1031.000000 0.7660 0.7569 0.7480 0.7384 0.7336
1036.000000 0.7289 0.7235 0.7261 0.7297 0.7423
1041.000000 0.7558 0.7693 0.7828 0.7963 0.8097
1046.000000 0.8231 0.8365 0.8498 0.8632 0.8764
1051.000000 0.8896 0.9028 0.9118 0.9187 0.9232
1056.000000 0.9251 0.9255 0.9236 0.9238 0.9220
1061.000000 0.9188 0.9127 0.9015 0.8817 0.8577
1066.000000 0.8274 0.7795 0.7313 0.6831 0.6350
1071.000000 0.6151 0.6148 0.6140 0.6420 0.6984
1076.000000 0.7547 0.8109 0.8670 0.8843 0.8864
1081.000000 0.8850 0.8862 0.8799 0.8617 0.8428
1086.000000 0.8242 0.8054 0.7868 0.7682 0.7496
1091.000000 0.7330 0.7320 0.7555 0.7895 0.8235
1096.000000 0.8574 0.8998 0.9194 0.9267 0.9315
1101.000000 0.9362 0.9399 0.9434 0.9469 0.9494
1106.000000 0.9519 0.9543 0.9561 0.9577 0.9592
1111.000000 0.9603 0.9611 0.9619 0.9625 0.9629
1116.000000 0.9633 0.9637 0.9641 0.9644 0.9644
1121.000000 0.9641 0.9643 0.9643 0.9641 0.9636
1126.000000 0.9632 0.9627 0.9622 0.9616 0.9610
1131.000000 0.9604 0.9597 0.9589 0.9578 0.9568
1136.000000 0.9558 0.9546 0.9529 0.9514 0.9495
1141.000000 0.9476 0.9457 0.9437 0.9418 0.9398
1146.000000 0.9378 0.9345 0.9306 0.9265 0.9205
1151.000000 0.9137 0.9063 0.8987 0.8907 0.8817
1156.000000 0.8723 0.8645 0.8583 0.8546 0.8526
1161.000000 0.8517 0.8509 0.8501 0.8495 0.8489
1166.000000 0.8478 0.8464 0.8432 0.8377 0.8272
1171.000000 0.8153 0.8032 0.7904 0.7729 0.7535
1176.000000 0.7340 0.7146 0.6952 0.6759 0.6565
1181.000000 0.6372 0.6180 0.5988 0.5796 0.5604
1186.000000 0.5413 0.5178 0.5031 0.4862 0.4596
1191.000000 0.4369 0.4236 0.4128 0.4054 0.4014
1196.000000 0.3999 0.4012 0.4212 0.4529 0.4846
1201.000000 0.5162 0.5477 0.5792 0.6107 0.6437
1206.000000 0.6877 0.6981 0.7026 0.7059 0.7071
1211.000000 0.7100 0.7046 0.6927 0.6801 0.6675
1216.000000 0.6549 0.6424 0.6298 0.6173 0.6048
1221.000000 0.5973 0.5967 0.6064 0.6282 0.6504
1226.000000 0.6725 0.6947 0.7168 0.7388 0.7608
1231.000000 0.7843 0.8122 0.8156 0.8170 0.8178
1236.000000 0.8171 0.8171 0.8167 0.8164 0.8161
1241.000000 0.8156 0.8142 0.8123 0.8102 0.8081
1246.000000 0.8061 0.8041 0.7979 0.8014 0.8010
1251.000000 0.8015 0.8029 0.8055 0.8083 0.8101
1256.000000 0.8100 0.8122 0.8074 0.8010 0.7928
1261.000000 0.7827 0.7723 0.7606 0.7470 0.7334
1266.000000 0.7163 0.6897 0.6633 0.6370 0.6107
1271.000000 0.5844 0.5581 0.5320 0.5057 0.4796
1276.000000 0.4536 0.4366 0.4365 0.4367 0.4533
1281.000000 0.4910 0.5295 0.5679 0.6064 0.6425
1286.000000 0.6547 0.6552 0.6531 0.6479 0.6394
1291.000000 0.6310 0.6225 0.6140 0.6088 0.6077
1296.000000 0.6192 0.6501 0.6810 0.7120 0.7476
1301.000000 0.7536 0.7539 0.7539 0.7504 0.7534
1306.000000 0.7365 0.7297 0.7191 0.7087 0.6896
1311.000000 0.6653 0.6410 0.6168 0.5926 0.5684
1316.000000 0.5443 0.5202 0.5056 0.4970 0.4836
1321.000000 0.4339 0.3972 0.3607 0.3242 0.2877
1326.000000 0.2513 0.2157 0.2037 0.2002 0.1989
1331.000000 0.1984 0.1986 0.1994 0.2000 0.2025
1336.000000 0.2201 0.2497 0.2792 0.3087 0.3381
1341.000000 0.3675 0.3969 0.4262 0.4554 0.4847
1346.000000 0.5139 0.5431 0.5721 0.6012 0.6294
1351.000000 0.6430 0.6445 0.6394 0.6126 0.5771
1356.000000 0.5416 0.5062 0.4707 0.4354 0.4001
1361.000000 0.3648 0.3296 0.2945 0.2594 0.2243
1366.000000 0.2077 0.2060 0.2080 0.2094 0.2129
1371.000000 0.2195 0.2272 0.2367 0.2595 0.2878
1376.000000 0.3160 0.3443 0.3724 0.4005 0.4286
1381.000000 0.4566 0.4846 0.5126 0.5405 0.5684
1386.000000 0.5874 0.5821 0.5718 0.5610 0.5502
1391.000000 0.5394 0.5287 0.5219 0.5287 0.5228
1396.000000 0.6113 0.6575 0.7036 0.7196 0.7218
1401.000000 0.7222 0.7221 0.7218 0.7227 0.7180
1406.000000 0.7082 0.6967 0.6852 0.6738 0.6623
1411.000000 0.6508 0.6393 0.6279 0.6166 0.6052
1416.000000 0.5973 0.5967 0.5967 0.5957 0.6030
1421.000000 0.6096 0.6162 0.6229 0.6295 0.6361
1426.000000 0.6426 0.6492 0.6558 0.6623 0.6689
1431.000000 0.6754 0.6820 0.6884 0.6935 0.6970
1436.000000 0.6993 0.6996 0.6991 0.6988 0.6978
1441.000000 0.6953 0.6916 0.6883 0.6832 0.6778
1446.000000 0.6733 0.6688 0.6640 0.6589 0.6527
1451.000000 0.6459 0.6398 0.6340 0.6276 0.6100
1456.000000 0.5857 0.5612 0.5366 0.5122 0.4878
1461.000000 0.4634 0.4391 0.4160 0.3999 0.3784
1466.000000 0.3600 0.3531 0.3505 0.3504 0.3504
1471.000000 0.3537 0.3669 0.3825 0.3493 0.4073
1476.000000 0.4247 0.4390 0.4519 0.4590 0.4630
1481.000000 0.4667 0.4700 0.4734 0.4770 0.4810
1486.000000 0.5214 0.5764 0.6245 0.6887 0.7226
1491.000000 0.7440 0.7608 0.7717 0.7795 0.7862
1496.000000 0.7929 0.8007 0.8093 0.8172 0.8229
1501.000000 0.8285 0.8340 0.8383 0.8416 0.8449
1506.000000 0.8482 0.8514 0.8546 0.8572 0.8598
1511.000000 0.8625 0.8650 0.8674 0.8689 0.8702
1516.000000 0.8714 0.8717 0.8714 0.8715 0.8714
1521.000000 0.8712 0.8709 0.8706 0.8703 0.8700
1526.000000 0.8698 0.8696 0.8694 0.8692 0.8689
1531.000000 0.8688 0.8686 0.8684 0.8682 0.8680
1536.000000 0.8678 0.8676 0.8673 0.8671 0.8669
1541.000000 0.8666 0.8663 0.8660 0.8656 0.8648
1546.000000 0.8638 0.8619 0.8597 0.8575 0.8554
1551.000000 0.8529 0.8502 0.8473 0.8437 0.8395
1556.000000 0.8310 0.8119 0.7868 0.7582 0.7361
1561.000000 0.7140 0.6919 0.6698 0.6479 0.6259
1566.000000 0.6040 0.5821 0.5602 0.5383 0.5165
1571.000000 0.4946 0.4782 0.4744 0.4769 0.4802
1576.000000 0.4834 0.4828 0.4644 0.4395 0.4147
1581.000000 0.3898 0.3650 0.3403 0.3156 0.2909
1586.000000 0.2662 0.2493 0.2504 0.2715 0.3401
1591.000000 0.4265 0.5129 0.5991 0.6466 0.6642
1596.000000 0.6777 0.7199 0.7639 0.7803 0.7862
1601.000000 0.7916 0.7958 0.7989 0.8018 0.8040
1606.000000 0.8055 0.8068 0.8077 0.8079 0.8079
1611.000000 0.8078 0.8074 0.8070 0.8065 0.8059
1616.000000 0.8052 0.8042 0.8028 0.8013 0.7980
1621.000000 0.7934 0.7873 0.7807 0.7744 0.7687
1626.000000 0.7632 0.7583 0.7540 0.7500 0.7465
1631.000000 0.7431 0.7394 0.7307 0.6902 0.6609
1636.000000 0.6472 0.6306 0.6002 0.5765 0.5562
1641.000000 0.5359 0.5155 0.4951 0.4748 0.4545
1646.000000 0.4342 0.4140 0.3937 0.3736 0.3239
1651.000000 0.2813 0.2407 0.2001 0.1595 0.1271
1656.000000 0.1107 0.1061 0.1032 0.1021 0.1014
1661.000000 0.1039 0.1018 0.1026 0.1039 0.1120
1666.000000 0.1292 0.1510 0.1728 0.1945 0.2163
1671.000000 0.2380 0.2596 0.2813 0.3030 0.3246
1676.000000 0.3462 0.3677 0.3892 0.4111 0.4471
1681.000000 0.4802 0.5130 0.6103 0.6804 0.6851
1686.000000 0.6898 0.6948 0.7026 0.7107 0.7333
1691.000000 0.7459 0.7520 0.7606 0.7752 0.7958
1696.000000 0.8096 0.8190 0.8287 0.8404 0.8535
1701.000000 0.8647 0.8710 0.8758 0.8796 0.8836
1706.000000 0.8870 0.8895 0.8916 0.8936 0.8957
1711.000000 0.8976 0.8995 0.9011 0.9028 0.9044
1716.000000 0.9060 0.9076 0.9092 0.9106 0.9119
1721.000000 0.9130 0.9142 0.9153 0.9165 0.9177
1726.000000 0.9188 0.9197 0.9203 0.9208 0.9213
1731.000000 0.9218 0.9223 0.9240 0.9230 0.9230
1736.000000 0.9230 0.9229 0.9228 0.9227 0.9225
1741.000000 0.9223 0.9222 0.9220 0.9218 0.9217
1746.000000 0.9215 0.9215 0.9214 0.9212 0.9211
1751.000000 0.9210 0.9210 0.9210 0.9210 0.9211
1756.000000 0.9211 0.9211 0.9211 0.9212 0.9214
1761.000000 0.9216 0.9220 0.9225 0.9229 0.9234
1766.000000 0.9238 0.9242 0.9244 0.9245 0.9246
1771.000000 0.9247 0.9248 0.9248 0.9249 0.9249
1776.000000 0.9249 0.9248 0.9248 0.9248 0.9248
1781.000000 0.9247 0.9247 0.9247 0.9247 0.9248
1786.000000 0.9249 0.9249 0.9249 0.9250 0.9251
1791.000000 0.9253 0.9255 0.9258 0.9260 0.9262
1796.000000 0.9265 0.9267 0.9270 0.9273 0.9275
1801.000000 0.9278 0.9280 0.9282 0.9283 0.9284
1806.000000 0.9285 0.9286 0.9288 0.9289 0.9289
1811.000000 0.9290 0.9289 0.9289 0.9289 0.9288
1816.000000 0.9288 0.9287 0.9287 0.9286 0.9285
1821.000000 0.9284 0.9284 0.9284 0.9283 0.9282
1826.000000 0.9282 0.9280 0.9279 0.9277 0.9275
1831.000000 0.9273 0.9272 0.9270 0.9269 0.9267
1836.000000 0.9265 0.9263 0.9262 0.9260 0.9259
1841.000000 0.9257 0.9257 0.9255 0.9254 0.9253
1846.000000 0.9251 0.9250 0.9248 0.9247 0.9245
1851.000000 0.9244 0.9242 0.9242 0.9240 0.9239
1856.000000 0.9237 0.9236 0.9235 0.9233 0.9232
1861.000000 0.9230 0.9229 0.9228 0.9229 0.9230
1866.000000 0.9231 0.9232 0.9234 0.9235 0.9237
1871.000000 0.9238 0.9240 0.9241 0.9241 0.9244
1876.000000 0.9246 0.9249 0.9252 0.9255 0.9257
1881.000000 0.9260 0.9263 0.9266 0.9270 0.9272
1886.000000 0.9275 0.9278 0.9279 0.9281 0.9283
1891.000000 0.9284 0.9286 0.9287 0.9289 0.9291
1896.000000 0.9292 0.9294 0.9295 0.9297 0.9299
1901.000000 0.9300 0.9302 0.9303 0.9303 0.9305
1906.000000 0.9306 0.9308 0.9308 0.9309 0.9311
1911.000000 0.9312 0.9313 0.9314 0.9315 0.9316
1916.000000 0.9316 0.9315 0.9314 0.9313 0.9312
1921.000000 0.9311 0.9310 0.9309 0.9308 0.9307
1926.000000 0.9305 0.9303 0.9302 0.9301 0.9299
1931.000000 0.9297 0.9295 0.9294 0.9293 0.9291
1936.000000 0.9289 0.9288 0.9286 0.9286 0.9285
1941.000000 0.9284 0.9283 0.9282 0.9282 0.9281
1946.000000 0.9280 0.9280 0.9279 0.9278 0.9278
1951.000000 0.9279 0.9280 0.9281 0.9283 0.9284
1956.000000 0.9286 0.9288 0.9289 0.9290 0.9292
1961.000000 0.9294 0.9295 0.9297 0.9299 0.9300
1966.000000 0.9302 0.9304 0.9305 0.9306 0.9308
1971.000000 0.9310 0.9312 0.9314 0.9316 0.9317
1976.000000 0.9319 0.9321 0.9323 0.9325 0.9327
1981.000000 0.9329 0.9330 0.9331 0.9333 0.9335
1986.000000 0.9337 0.9339 0.9342 0.9345 0.9347
1991.000000 0.9350 0.9352 0.9356 0.9358 0.9361
1996.000000 0.9364 0.9367 0.9369 0.9370 0.9372
2001.000000 0.9373 0.9375 0.9376 0.9377 0.9379
2006.000000 0.9380 0.9381 0.9381 0.9380 0.9380
2011.000000 0.9380 0.9379 0.9378 0.9378 0.9378
2016.000000 0.9378 0.9377 0.9377 0.9377 0.9376
2021.000000 0.9376 0.9375 0.9375 0.9375 0.9374
2026.000000 0.9373 0.9373 0.9373 0.9373 0.9372
2031.000000 0.9371 0.9371 0.9370 0.9370 0.9369
2036.000000 0.9368 0.9368 0.9367 0.9367 0.9366
2041.000000 0.9365 0.9364 0.9363 0.9363 0.9362
2046.000000 0.9361 0.9361 0.9360 0.9360 0.9359
2051.000000 0.9358 0.9358 0.9357 0.9357 0.9356
2056.000000 0.9355 0.9354 0.9353 0.9353 0.9352
2061.000000 0.9352 0.9351 0.9350 0.9350 0.9349
2066.000000 0.9349 0.9347 0.9346 0.9346 0.9345
2071.000000 0.9345 0.9344 0.9343 0.9343 0.9342
2076.000000 0.9341 0.9341 0.9341 0.9340 0.9339
2081.000000 0.9339 0.9338 0.9338 0.9338 0.9338
2086.000000 0.9337 0.9336 0.9336 0.9335 0.9335
2091.000000 0.9334 0.9334 0.9334 0.9333 0.9333
2096.000000 0.9332 0.9332 0.9331 0.9331 0.9331
2101.000000 0.9330 0.9330 0.9329 0.9329 0.9328
2106.000000 0.9328 0.9328 0.9327 0.9327 0.9326
2111.000000 0.9326 0.9326 0.9326 0.9325 0.9325
2116.000000 0.9325 0.9324 0.9324 0.9323 0.9323
2121.000000 0.9323 0.9323 0.9322 0.9322 0.9322
2126.000000 0.9321 0.9321 0.9321 0.9321 0.9320
2131.000000 0.9320 0.9320 0.9320 0.9319 0.9318
2136.000000 0.9318 0.9318 0.9318 0.9317 0.9317
2141.000000 0.9317 0.9317 0.9316 0.9316 0.9316
2146.000000 0.9315 0.9315 0.9315 0.9315 0.9314
2151.000000 0.9314 0.9314 0.9314 0.9313 0.9313
2156.000000 0.9312 0.9312 0.9312 0.9312 0.9312
2161.000000 0.9311 0.9311 0.9311 0.9311 0.9311
2166.000000 0.9311 0.9310 0.9310 0.9310 0.9310
2171.000000 0.9310 0.9310 0.9309 0.9309 0.9309
2176.000000 0.9309 0.9309 0.9308 0.9308 0.9308
2181.000000 0.9308 0.9308 0.9308 0.9307 0.9307
2186.000000 0.9307 0.9307 0.9306 0.9306 0.9306
2191.000000 0.9306 0.9306 0.9305 0.9305 0.9305
2196.000000 0.9305 0.9305 0.9305 0.9304 0.9304
2201.000000 0.9304 0.9304 0.9304 0.9304 0.9303
2206.000000 0.9303 0.9303 0.9303 0.9303 0.9303
2211.000000 0.9302 0.9302 0.9302 0.9302 0.9302
2216.000000 0.9302 0.9301 0.9301 0.9301 0.9301
2221.000000 0.9300 0.9300 0.9300 0.9300 0.9300
2226.000000 0.9300 0.9299 0.9299 0.9299 0.9299
2231.000000 0.9298 0.9298 0.9298 0.9298 0.9298
2236.000000 0.9298 0.9297 0.9297 0.9297 0.9297
2241.000000 0.9296 0.9296 0.9296 0.9296 0.9295
2246.000000 0.9295 0.9295 0.9295 0.9295 0.9295
2251.000000 0.9294 0.9294 0.9294 0.9294 0.9293
2256.000000 0.9293 0.9293 0.9293 0.9292 0.9292
2261.000000 0.9292 0.9292 0.9292 0.9292 0.9291
2266.000000 0.9291 0.9291 0.9291 0.9290 0.9290
2271.000000 0.9290 0.9290 0.9289 0.9289 0.9289
2276.000000 0.9289 0.9289 0.9289 0.9288 0.9288
2281.000000 0.9288 0.9288 0.9288 0.9287 0.9287
2286.000000 0.9287 0.9287 0.9287 0.9287 0.9288
2291.000000 0.9288 0.9288 0.9288 0.9288 0.9288
2296.000000 0.9288 0.9288 0.9288 0.9288 0.9288
2301.000000 0.9288 0.9288 0.9289 0.9289 0.9289
2306.000000 0.9289 0.9289 0.9289 0.9289 0.9289
2311.000000 0.9289 0.9289 0.9289 0.9289 0.9290
2316.000000 0.9290 0.9290 0.9290 0.9290 0.9290
2321.000000 0.9290 0.9290 0.9290 0.9290 0.9290
2326.000000 0.9290 0.9290 0.9291 0.9291 0.9292
2331.000000 0.9292 0.9292 0.9292 0.9292 0.9293
2336.000000 0.9293 0.9294 0.9294 0.9295 0.9295
2341.000000 0.9296 0.9296 0.9296 0.9297 0.9297
2346.000000 0.9298 0.9298 0.9299 0.9299 0.9300
2351.000000 0.9300 0.9301 0.9302 0.9302 0.9303
2356.000000 0.9303 0.9304 0.9305 0.9306 0.9306
2361.000000 0.9306 0.9305 0.9304 0.9304 0.9303
2366.000000 0.9302 0.9301 0.9300 0.9299 0.9298
2371.000000 0.9296 0.9294 0.9291 0.9288 0.9285
2376.000000 0.9283 0.9280 0.9277 0.9275 0.9272
2381.000000 0.9269 0.9267 0.9264 0.9261 0.9258
2386.000000 0.9255 0.9253 0.9250 0.9246 0.9242
2391.000000 0.9237 0.9232 0.9227 0.9223 0.9219
2396.000000 0.9217 0.9216 0.9216 0.9216 0.9216
2401.000000 0.9216 0.9216 0.9216 0.9217 0.9217
2406.000000 0.9217 0.9218 0.9219 0.9220 0.9221
2411.000000 0.9222 0.9223 0.9223 0.9225 0.9226
2416.000000 0.9227 0.9228 0.9230 0.9232 0.9233
2421.000000 0.9235 0.9236 0.9237 0.9238 0.9240
2426.000000 0.9241 0.9242 0.9244 0.9245 0.9246
2431.000000 0.9246 0.9247 0.9247 0.9247 0.9247
2436.000000 0.9247 0.9246 0.9246 0.9246 0.9246
2441.000000 0.9246 0.9246 0.9246 0.9245 0.9245
2446.000000 0.9245 0.9245 0.9245 0.9244 0.9244
2451.000000 0.9243 0.9243 0.9243 0.9242 0.9242
2456.000000 0.9241 0.9241 0.9241 0.9241 0.9241
2461.000000 0.9240 0.9240 0.9240 0.9239 0.9239
2466.000000 0.9238 0.9238 0.9237 0.9237 0.9237
2471.000000 0.9236 0.9236 0.9235 0.9235 0.9235
2476.000000 0.9235 0.9235 0.9234 0.9234 0.9234
2481.000000 0.9233 0.9233 0.9232 0.9232 0.9232
2486.000000 0.9231 0.9231 0.9230 0.9230 0.9230
2491.000000 0.9229 0.9229 0.9228 0.9228 0.9228
2496.000000 0.9227 0.9227 0.9226 0.9226 0.9226
2501.000000 0.9225 0.9225 0.9224 0.9224 0.9224
2506.000000 0.9223 0.9223 0.9222 0.9222 0.9222
2511.000000 0.9221 0.9221 0.9220 0.9220 0.9220
2516.000000 0.9219 0.9219 0.9218 0.9218 0.9218
2521.000000 0.9217 0.9217 0.9216 0.9215 0.9215
2526.000000 0.9214 0.9214 0.9213 0.9213 0.9213
2531.000000 0.9212 0.9211 0.9210 0.9210 0.9210
2536.000000 0.9209 0.9209 0.9209 0.9208 0.9207
2541.000000 0.9206 0.9206 0.9206 0.9205 0.9205
2546.000000 0.9204 0.9204 0.9204 0.9203 0.9202
2551.000000 0.9202 0.9201 0.9200 0.9199 0.9198
2556.000000 0.9197 0.9196 0.9194 0.9193 0.9192
2561.000000 0.9191 0.9190 0.9189 0.9188 0.9186
2566.000000 0.9185 0.9184 0.9183 0.9182 0.9181
2571.000000 0.9180 0.9179 0.9177 0.9176 0.9175
2576.000000 0.9174 0.9173 0.9172 0.9171 0.9169
2581.000000 0.9168 0.9167 0.9166 0.9164 0.9163
2586.000000 0.9162 0.9161 0.9159 0.9158 0.9157
2591.000000 0.9156 0.9155 0.9154 0.9153 0.9152
2596.000000 0.9151 0.9149 0.9148 0.9146 0.9145
2601.000000 0.9144 0.9143 0.9142 0.9141 0.9140
2606.000000 0.9138 0.9137 0.9136 0.9135 0.9134
2611.000000 0.9133 0.9133 0.9132 0.9131 0.9130
2616.000000 0.9129 0.9128 0.9127 0.9127 0.9126
2621.000000 0.9125 0.9124 0.9124 0.9123 0.9122
2626.000000 0.9121 0.9120 0.9119 0.9118 0.9118
2631.000000 0.9117 0.9116 0.9115 0.9115 0.9114
2636.000000 0.9113 0.9112 0.9111 0.9110 0.9109
2641.000000 0.9109 0.9109 0.9108 0.9108 0.9108
2646.000000 0.9108 0.9108 0.9108 0.9108 0.9108
2651.000000 0.9108 0.9107 0.9107 0.9107 0.9107
2656.000000 0.9107 0.9106 0.9106 0.9106 0.9106
2661.000000 0.9106 0.9106 0.9106 0.9106 0.9106
2666.000000 0.9105 0.9105 0.9105 0.9105 0.9105
2671.000000 0.9104 0.9104 0.9104 0.9104 0.9104
2676.000000 0.9104 0.9103 0.9103 0.9103 0.9103
2681.000000 0.9103 0.9103 0.9103 0.9103 0.9103
2686.000000 0.9102 0.9102 0.9102 0.9102 0.9102
2691.000000 0.9102 0.9101 0.9101 0.9100 0.9100
2696.000000 0.9100 0.9099 0.9099 0.9099 0.9099
2701.000000 0.9099 0.9099 0.9098 0.9098 0.9098
2706.000000 0.9097 0.9097 0.9097 0.9096 0.9096
2711.000000 0.9096 0.9095 0.9095 0.9095 0.9094
2716.000000 0.9094 0.9094 0.9093 0.9093 0.9093
2721.000000 0.9092 0.9092 0.9092 0.9091 0.9091
2726.000000 0.9091 0.9090 0.9090 0.9090 0.9090
2731.000000 0.9090 0.9090 0.9089 0.9089 0.9089
2736.000000 0.9088 0.9088 0.9088 0.9087 0.9087
2741.000000 0.9087 0.9086 0.9086 0.9086 0.9085
2746.000000 0.9085 0.9085 0.9084 0.9084 0.9084
2751.000000 0.9083 0.9083 0.9083 0.9082 0.9082
2756.000000 0.9082 0.9081 0.9081 0.9081 0.9080
2761.000000 0.9080 0.9080 0.9079 0.9079 0.9079
2766.000000 0.9078 0.9078 0.9078 0.9077 0.9077
2771.000000 0.9077 0.9076 0.9076 0.9076 0.9075
2776.000000 0.9075 0.9075 0.9075 0.9075 0.9075
2781.000000 0.9074 0.9074 0.9073 0.9072 0.9071
2786.000000 0.9069 0.9068 0.9066 0.9065 0.9064
2791.000000 0.9062 0.9061 0.9059 0.9057 0.9056
2796.000000 0.9054 0.9053 0.9051 0.9050 0.9049
2801.000000 0.9047 0.9046 0.9044 0.9042 0.9041
2806.000000 0.9039 0.9035 0.9032 0.9028 0.9024
2811.000000 0.9020 0.9015 0.9011 0.9006 0.9002
2816.000000 0.8997 0.8993 0.8988 0.8983 0.8979
2821.000000 0.8974 0.8969 0.8962 0.8955 0.8947
2826.000000 0.8936 0.8924 0.8913 0.8902 0.8891
2831.000000 0.8880 0.8866 0.8851 0.8836 0.8821
2836.000000 0.8806 0.8791 0.8778 0.8766 0.8754
2841.000000 0.8742 0.8731 0.8719 0.8707 0.8696
2846.000000 0.8684 0.8673 0.8654 0.8631 0.8607
2851.000000 0.8579 0.8542 0.8505 0.8470 0.8449
2856.000000 0.8428 0.8407 0.8391 0.8376 0.8362
2861.000000 0.8347 0.8332 0.8318 0.8303 0.8288
2866.000000 0.8274 0.8259 0.8245 0.8230 0.8215
2871.000000 0.8199 0.8182 0.8165 0.8147 0.8127
2876.000000 0.8107 0.8087 0.8067 0.8048 0.8028
2881.000000 0.8007 0.7985 0.7963 0.7935 0.7901
2886.000000 0.7868 0.7834 0.7804 0.7773 0.7743
2891.000000 0.7724 0.7707 0.7691 0.7675 0.7658
2896.000000 0.7642 0.7625 0.7609 0.7593 0.7577
2901.000000 0.7561 0.7545 0.7528 0.7502 0.7462
2906.000000 0.7421 0.7381 0.7342 0.7304 0.7266
2911.000000 0.7234 0.7206 0.7177 0.7148 0.7120
2916.000000 0.7091 0.7063 0.7023 0.6982 0.6941
2921.000000 0.6903 0.6869 0.6835 0.6801 0.6787
2926.000000 0.6773 0.6758 0.6744 0.6729 0.6715
2931.000000 0.6700 0.6686 0.6671 0.6656 0.6642
2936.000000 0.6628 0.6614 0.6600 0.6588 0.6575
2941.000000 0.6563 0.6550 0.6538 0.6525 0.6513
2946.000000 0.6501 0.6488 0.6476 0.6464 0.6451
2951.000000 0.6439 0.6410 0.6359 0.6307 0.6255
2956.000000 0.6201 0.6147 0.6094 0.6040 0.5987
2961.000000 0.5933 0.5880 0.5827 0.5774 0.5720
2966.000000 0.5667 0.5614 0.5561 0.5508 0.5455
2971.000000 0.5401 0.5348 0.5305 0.5281 0.5258
2976.000000 0.5234 0.5229 0.5228 0.5228 0.5227
2981.000000 0.5227 0.5226 0.5226 0.5225 0.5225
2986.000000 0.5224 0.5220 0.5276 0.5322 0.5368
2991.000000 0.5419 0.5473 0.5528 0.5583 0.5638
2996.000000 0.5693 0.5747 0.5802 0.5857 0.5911
3001.000000 0.5966 0.6020 0.6074 0.6129 0.6183
3006.000000 0.6237 0.6292 0.6346 0.6401 0.6455
3011.000000 0.6509 0.6563 0.6617 0.6671 0.6726
3016.000000 0.6780 0.6833 0.6887 0.6941 0.6995
3021.000000 0.7049 0.7103 0.7157 0.7210 0.7264
3026.000000 0.7318 0.7371 0.7425 0.7479 0.7532
3031.000000 0.7586 0.7639 0.7692 0.7746 0.7799
3036.000000 0.7852 0.7906 0.7948 0.7966 0.7985
3041.000000 0.8004 0.8011 0.8012 0.8013 0.8014
3046.000000 0.8015 0.8016 0.8016 0.8017 0.8017
3051.000000 0.8017 0.8017 0.8018 0.8018 0.8018
3056.000000 0.8018 0.8019 0.8019 0.8019 0.8020
3061.000000 0.8020 0.8021 0.8021 0.8022 0.8023
3066.000000 0.8024 0.8025 0.8026 0.8027 0.8028
3071.000000 0.8028 0.8029 0.8030 0.8031 0.8031
3076.000000 0.8034 0.8036 0.8039 0.8041 0.8043
3081.000000 0.8045 0.8047 0.8051 0.8057 0.8064
3086.000000 0.8070 0.8081 0.8095 0.8110 0.8124
3091.000000 0.8144 0.8165 0.8187 0.8208 0.8225
3096.000000 0.8242 0.8259 0.8276 0.8293 0.8309
3101.000000 0.8325 0.8342 0.8358 0.8374 0.8390
3106.000000 0.8406 0.8421 0.8436 0.8452 0.8465
3111.000000 0.8478 0.8491 0.8503 0.8516 0.8528
3116.000000 0.8541 0.8553 0.8565 0.8578 0.8591
3121.000000 0.8603 0.8618 0.8634 0.8649 0.8665
3126.000000 0.8684 0.8703 0.8723 0.8742 0.8755
3131.000000 0.8768 0.8781 0.8794 0.8804 0.8813
3136.000000 0.8823 0.8831 0.8834 0.8837 0.8840
3141.000000 0.8843 0.8846 0.8849 0.8853 0.8856
3146.000000 0.8859 0.8862 0.8865 0.8867 0.8869
3151.000000 0.8871 0.8873 0.8875 0.8877 0.8878
3156.000000 0.8880 0.8881 0.8882 0.8884 0.8885
3161.000000 0.8886 0.8888 0.8889 0.8891 0.8892
3166.000000 0.8894 0.8895 0.8897 0.8898 0.8900
3171.000000 0.8901 0.8903 0.8904 0.8906 0.8907
3176.000000 0.8909 0.8910 0.8911 0.8912 0.8914
3181.000000 0.8915 0.8915 0.8916 0.8917 0.8918
3186.000000 0.8919 0.8920 0.8921 0.8922 0.8922
3191.000000 0.8923 0.8924 0.8925 0.8925 0.8926
3196.000000 0.8927 0.8928 0.8928 0.8929 0.8930
3201.000000 0.8930 0.8931 0.8932 0.8933 0.8933
3206.000000 0.8934 0.8935 0.8936 0.8936 0.8936
3211.000000 0.8936 0.8936 0.8936 0.8935 0.8935
3216.000000 0.8935 0.8935 0.8934 0.8934 0.8933
3221.000000 0.8933 0.8932 0.8932 0.8931 0.8931
3226.000000 0.8930 0.8930 0.8929 0.8929 0.8928
3231.000000 0.8928 0.8928 0.8928 0.8928 0.8927
3236.000000 0.8927 0.8926 0.8926 0.8925 0.8925
3241.000000 0.8924 0.8924 0.8923 0.8923 0.8922
3246.000000 0.8922 0.8921 0.8920 0.8919 0.8918
3251.000000 0.8917 0.8916 0.8915 0.8914 0.8913
3256.000000 0.8911 0.8910 0.8909 0.8907 0.8906
3261.000000 0.8904 0.8903 0.8901 0.8900 0.8899
3266.000000 0.8898 0.8897 0.8895 0.8894 0.8893
3271.000000 0.8891 0.8890 0.8888 0.8887 0.8886
3276.000000 0.8884 0.8883 0.8881 0.8880 0.8879
3281.000000 0.8877 0.8875 0.8872 0.8869 0.8867
3286.000000 0.8864 0.8862 0.8859 0.8857 0.8854
3291.000000 0.8852 0.8850 0.8847 0.8845 0.8842
3296.000000 0.8840 0.8837 0.8835 0.8832 0.8828
3301.000000 0.8825 0.8821 0.8818 0.8814 0.8810
3306.000000 0.8806 0.8802 0.8798 0.8795 0.8791
3311.000000 0.8787 0.8784 0.8781 0.8778 0.8775
3316.000000 0.8773 0.8770 0.8767 0.8764 0.8762
3321.000000 0.8759 0.8756 0.8753 0.8751 0.8749
3326.000000 0.8748 0.8748 0.8747 0.8746 0.8746
3331.000000 0.8745 0.8744 0.8744 0.8743 0.8742
3336.000000 0.8742 0.8741 0.8740 0.8740 0.8740
3341.000000 0.8740 0.8740 0.8740 0.8740 0.8740
3346.000000 0.8740 0.8741 0.8741 0.8741 0.8741
3351.000000 0.8741 0.8741 0.8741 0.8741 0.8741
3356.000000 0.8741 0.8741 0.8741 0.8741 0.8741
3361.000000 0.8741 0.8741 0.8741 0.8741 0.8741
3366.000000 0.8741 0.8741 0.8741 0.8741 0.8742
3371.000000 0.8742 0.8743 0.8743 0.8744 0.8744
3376.000000 0.8744 0.8745 0.8745 0.8746 0.8746
3381.000000 0.8747 0.8747 0.8748 0.8748 0.8748
3386.000000 0.8749 0.8749 0.8750 0.8750 0.8751
3391.000000 0.8751 0.8751 0.8752 0.8752 0.8753
3396.000000 0.8753 0.8754 0.8754 0.8754 0.8755
3401.000000 0.8755 0.8756 0.8757 0.8757 0.8758
3406.000000 0.8759 0.8760 0.8762 0.8764 0.8765
3411.000000 0.8767 0.8769 0.8771 0.8772 0.8774
3416.000000 0.8776 0.8777 0.8779 0.8781 0.8783
3421.000000 0.8784 0.8786 0.8788 0.8790 0.8792
3426.000000 0.8794 0.8796 0.8798 0.8800 0.8802
3431.000000 0.8804 0.8807 0.8809 0.8811 0.8814
3436.000000 0.8816 0.8819 0.8821 0.8824 0.8826
3441.000000 0.8829 0.8831 0.8833 0.8836 0.8838
3446.000000 0.8841 0.8843 0.8846 0.8847 0.8848
3451.000000 0.8849 0.8850 0.8850 0.8851 0.8851
3456.000000 0.8852 0.8852 0.8853 0.8853 0.8853
3461.000000 0.8854 0.8854 0.8855 0.8855 0.8855
3466.000000 0.8856 0.8856 0.8857 0.8857 0.8858
3471.000000 0.8858 0.8858 0.8859 0.8859 0.8860
3476.000000 0.8860 0.8860 0.8861 0.8861 0.8861
3481.000000 0.8861 0.8860 0.8860 0.8860 0.8860
3486.000000 0.8860 0.8860 0.8860 0.8860 0.8860
3491.000000 0.8860 0.8860 0.8860 0.8860 0.8860
3496.000000 0.8860 0.8860 0.8860 0.8860 0.8860
3501.000000 0.8860 0.8860 0.8860 0.8860 0.8860
3506.000000 0.8860 0.8859 0.8859 0.8859 0.8859
3511.000000 0.8859 0.8859 0.8859 0.8859 0.8859
3516.000000 0.8859 0.8859 0.8859 0.8859 0.8859
3521.000000 0.8859 0.8859 0.8859 0.8859 0.8859
3526.000000 0.8859 0.8859 0.8859 0.8859 0.8859
3531.000000 0.8859 0.8860 0.8860 0.8860 0.8860
3536.000000 0.8860 0.8860 0.8860 0.8860 0.8860
3541.000000 0.8860 0.8861 0.8861 0.8861 0.8861
3546.000000 0.8861 0.8861 0.8861 0.8861 0.8861
3551.000000 0.8861 0.8862 0.8862 0.8862 0.8862
3556.000000 0.8862 0.8862 0.8862 0.8862 0.8862
3561.000000 0.8862 0.8863 0.8863 0.8863 0.8863
3566.000000 0.8863 0.8863 0.8863 0.8863 0.8863
3571.000000 0.8863 0.8864 0.8864 0.8865 0.8865
3576.000000 0.8865 0.8866 0.8866 0.8866 0.8867
3581.000000 0.8867 0.8868 0.8868 0.8868 0.8869
3586.000000 0.8869 0.8870 0.8870 0.8871 0.8871
3591.000000 0.8872 0.8873 0.8873 0.8873 0.8874
3596.000000 0.8874 0.8874 0.8875 0.8875 0.8876
3601.000000 0.8876 0.8876 0.8877 0.8877 0.8878
3606.000000 0.8878 0.8878 0.8879 0.8879 0.8880
3611.000000 0.8881 0.8881 0.8882 0.8882 0.8882
3616.000000 0.8883 0.8883 0.8884 0.8884 0.8884
3621.000000 0.8885 0.8885 0.8885 0.8886 0.8887
3626.000000 0.8888 0.8888 0.8889 0.8890 0.8891
3631.000000 0.8891 0.8892 0.8893 0.8894 0.8894
3636.000000 0.8895 0.8896 0.8897 0.8897 0.8898
3641.000000 0.8899 0.8900 0.8901 0.8902 0.8903
3646.000000 0.8904 0.8905 0.8905 0.8906 0.8907
3651.000000 0.8908 0.8908 0.8909 0.8910 0.8911
3656.000000 0.8911 0.8912 0.8913 0.8914 0.8915
3661.000000 0.8916 0.8917 0.8917 0.8918 0.8919
3666.000000 0.8920 0.8920 0.8921 0.8922 0.8923
3671.000000 0.8923 0.8924 0.8925 0.8926 0.8927
3676.000000 0.8928 0.8929 0.8929 0.8930 0.8930
3681.000000 0.8931 0.8932 0.8932 0.8933 0.8934
3686.000000 0.8935 0.8935 0.8936 0.8936 0.8937
3691.000000 0.8938 0.8938 0.8939 0.8939 0.8940
3696.000000 0.8941 0.8942 0.8942 0.8943 0.8944
3701.000000 0.8945 0.8945 0.8946 0.8947 0.8947
3706.000000 0.8948 0.8948 0.8949 0.8949 0.8950
3711.000000 0.8951 0.8952 0.8952 0.8953 0.8954
3716.000000 0.8954 0.8955 0.8955 0.8956 0.8956
3721.000000 0.8957 0.8957 0.8958 0.8959 0.8959
3726.000000 0.8960 0.8960 0.8960 0.8960 0.8960
3731.000000 0.8960 0.8961 0.8961 0.8961 0.8961
3736.000000 0.8961 0.8961 0.8961 0.8961 0.8961
3741.000000 0.8961 0.8961 0.8962 0.8962 0.8962
3746.000000 0.8962 0.8962 0.8962 0.8963 0.8963
3751.000000 0.8963 0.8963 0.8963 0.8964 0.8964
3756.000000 0.8964 0.8964 0.8964 0.8964 0.8965
3761.000000 0.8965 0.8965 0.8965 0.8965 0.8965
3766.000000 0.8966 0.8966 0.8966 0.8966 0.8966
3771.000000 0.8966 0.8966 0.8966 0.8966 0.8966
3776.000000 0.8966 0.8967 0.8967 0.8967 0.8967
3781.000000 0.8967 0.8967 0.8967 0.8967 0.8967
3786.000000 0.8967 0.8967 0.8966 0.8966 0.8966
3791.000000 0.8965 0.8965 0.8965 0.8964 0.8964
3796.000000 0.8964 0.8963 0.8963 0.8963 0.8962
3801.000000 0.8962 0.8962 0.8961 0.8961 0.8961
3806.000000 0.8960 0.8960 0.8960 0.8959 0.8959
3811.000000 0.8958 0.8958 0.8958 0.8957 0.8957
3816.000000 0.8957 0.8956 0.8956 0.8956 0.8955
3821.000000 0.8955 0.8955 0.8954 0.8954 0.8954
3826.000000 0.8953 0.8953 0.8953 0.8952 0.8952
3831.000000 0.8952 0.8951 0.8951 0.8951 0.8950
3836.000000 0.8950 0.8950 0.8949 0.8949 0.8949
3841.000000 0.8948 0.8948 0.8948 0.8948 0.8948
3846.000000 0.8948 0.8947 0.8947 0.8947 0.8946
3851.000000 0.8946 0.8946 0.8945 0.8945 0.8945
3856.000000 0.8944 0.8944 0.8944 0.8943 0.8943
3861.000000 0.8943 0.8942 0.8942 0.8941 0.8941
3866.000000 0.8941 0.8940 0.8940 0.8940 0.8939
3871.000000 0.8939 0.8939 0.8938 0.8938 0.8938
3876.000000 0.8937 0.8937 0.8937 0.8936 0.8936
3881.000000 0.8936 0.8935 0.8935 0.8935 0.8935
3886.000000 0.8934 0.8934 0.8934 0.8933 0.8933
3891.000000 0.8933 0.8932 0.8932 0.8932 0.8931
3896.000000 0.8931 0.8931 0.8930 0.8930 0.8930
3901.000000 0.8929 0.8929 0.8929 0.8928 0.8928
3906.000000 0.8928 0.8927 0.8927 0.8927 0.8926
3911.000000 0.8926 0.8926 0.8925 0.8925 0.8925
3916.000000 0.8924 0.8924 0.8924 0.8923 0.8923
3921.000000 0.8923 0.8922 0.8922 0.8922 0.8921
3926.000000 0.8921 0.8921 0.8920 0.8920 0.8920
3931.000000 0.8919 0.8919 0.8919 0.8918 0.8918
3936.000000 0.8918 0.8918 0.8917 0.8917 0.8917
3941.000000 0.8916 0.8916 0.8916 0.8915 0.8915
3946.000000 0.8915 0.8915 0.8915 0.8915 0.8914
3951.000000 0.8914 0.8914 0.8913 0.8913 0.8913
3956.000000 0.8912 0.8912 0.8912 0.8911 0.8911
3961.000000 0.8911 0.8910 0.8910 0.8910 0.8910
3966.000000 0.8909 0.8909 0.8909 0.8908 0.8908
3971.000000 0.8908 0.8907 0.8907 0.8907 0.8906
3976.000000 0.8906 0.8906 0.8905 0.8905 0.8905
3981.000000 0.8904 0.8904 0.8904 0.8904 0.8903
3986.000000 0.8903 0.8903 0.8902 0.8902 0.8902
3991.000000 0.8901 0.8901 0.8901 0.8900 0.8900
3996.000000 0.8900 0.8899 0.8899 0.8899 0.8899
##END=
