##TITLE=3'-Aminoacetanilide hydrochloride
##JCAMP-DX=4.24
$$ By DXEDIT 1.05 (RS McDonald)
##DATA TYPE=INFRARED SPECTRUM
##CLASS=COBLENTZ III
##ORIGIN=DOW CHEMICAL COMPANY
##OWNER=COPYRIGHT (C) 1988 by COBLENTZ SOCIETY INC.
Collection (C) 2018 copyright by the U.S. Secretary of Commerce
on behalf of the United States of America. All rights reserved.
##DATE=1963/04/19
##NAMES=N-(3-aminophenyl)acetamide hydrochloride
##MOLFORM=C8 H11 Cl N2 O
##SOURCE REFERENCE=COBLENTZ NO. 06285
##$NIST ID=B6006285
##$NIST SOURCE=COBLENTZ
##$NIST IMAGE=cob6285
##SPECTROMETER/DATA SYSTEM=DOW KBr FOREPRISM-GRATING
##INSTRUMENT PARAMETERS=BLAZED AT 3.5, 12.0, 20.0 MICRON AND CHANGED AT 5.0, 7.5, 14.9 MICRON
##STATE=SOLID (SPLIT MULL)
##SAMPLING PROCEDURE=TRANSMISSION
##RESOLUTION=2
##DATA PROCESSING=DIGITIZED BY COBLENTZ SOCIETY (BATCH I) FROM HARD COPY
##XUNITS=1/CM
##YUNITS=TRANSMITTANCE
##XFACTOR=1
##YFACTOR=1
##DELTAX=1
##FIRSTX=3816
##LASTX=450
##FIRSTY=0.6225
##MAXX=3816
##MINX=450
##MAXY=0.9045
##MINY=0.0303
##NPOINTS=3367
##XYDATA=(X++(Y..Y))
3816.000000 0.6225 0.6225 0.6226 0.6231 0.6236
3811.000000 0.6241 0.6247 0.6252 0.6257 0.6262
3806.000000 0.6267 0.6272 0.6277 0.6282 0.6287
3801.000000 0.6291 0.6295 0.6297 0.6299 0.6301
3796.000000 0.6303 0.6305 0.6307 0.6310 0.6314
3791.000000 0.6318 0.6322 0.6326 0.6330 0.6333
3786.000000 0.6337 0.6341 0.6345 0.6349 0.6353
3781.000000 0.6356 0.6360 0.6364 0.6368 0.6372
3776.000000 0.6376 0.6379 0.6383 0.6387 0.6392
3771.000000 0.6396 0.6400 0.6404 0.6408 0.6411
3766.000000 0.6415 0.6419 0.6424 0.6428 0.6433
3761.000000 0.6437 0.6441 0.6445 0.6449 0.6453
3756.000000 0.6457 0.6461 0.6465 0.6471 0.6475
3751.000000 0.6481 0.6486 0.6490 0.6495 0.6500
3746.000000 0.6505 0.6510 0.6515 0.6519 0.6525
3741.000000 0.6528 0.6534 0.6539 0.6544 0.6549
3736.000000 0.6554 0.6558 0.6562 0.6568 0.6572
3731.000000 0.6578 0.6583 0.6587 0.6592 0.6597
3726.000000 0.6601 0.6606 0.6611 0.6615 0.6621
3721.000000 0.6625 0.6630 0.6634 0.6638 0.6641
3716.000000 0.6645 0.6649 0.6653 0.6657 0.6661
3711.000000 0.6664 0.6668 0.6671 0.6675 0.6681
3706.000000 0.6686 0.6691 0.6696 0.6701 0.6706
3701.000000 0.6711 0.6715 0.6721 0.6726 0.6733
3696.000000 0.6740 0.6746 0.6751 0.6758 0.6764
3691.000000 0.6769 0.6776 0.6787 0.6797 0.6806
3686.000000 0.6815 0.6818 0.6819 0.6821 0.6818
3681.000000 0.6817 0.6815 0.6812 0.6811 0.6808
3676.000000 0.6806 0.6803 0.6801 0.6800 0.6800
3671.000000 0.6805 0.6811 0.6821 0.6832 0.6842
3666.000000 0.6853 0.6862 0.6874 0.6887 0.6900
3661.000000 0.6904 0.6905 0.6906 0.6903 0.6900
3656.000000 0.6897 0.6894 0.6891 0.6888 0.6886
3651.000000 0.6883 0.6882 0.6882 0.6884 0.6886
3646.000000 0.6888 0.6892 0.6897 0.6903 0.6908
3641.000000 0.6915 0.6921 0.6928 0.6935 0.6944
3636.000000 0.6953 0.6961 0.6971 0.6984 0.6998
3631.000000 0.7005 0.7012 0.7014 0.7015 0.7015
3626.000000 0.7015 0.7015 0.7017 0.7017 0.7017
3621.000000 0.7017 0.7017 0.7015 0.7014 0.7011
3616.000000 0.7008 0.7006 0.7004 0.7001 0.6999
3611.000000 0.6996 0.6993 0.6990 0.6988 0.6985
3606.000000 0.6982 0.6972 0.6965 0.6954 0.6943
3601.000000 0.6922 0.6904 0.6881 0.6858 0.6826
3596.000000 0.6796 0.6751 0.6707 0.6665 0.6624
3591.000000 0.6593 0.6575 0.6564 0.6567 0.6575
3586.000000 0.6583 0.6611 0.6642 0.6661 0.6683
3581.000000 0.6699 0.6715 0.6732 0.6749 0.6756
3576.000000 0.6764 0.6771 0.6780 0.6787 0.6795
3571.000000 0.6801 0.6808 0.6815 0.6822 0.6830
3566.000000 0.6837 0.6844 0.6851 0.6857 0.6862
3561.000000 0.6865 0.6868 0.6871 0.6875 0.6878
3556.000000 0.6883 0.6886 0.6890 0.6894 0.6898
3551.000000 0.6901 0.6905 0.6905 0.6906 0.6907
3546.000000 0.6908 0.6908 0.6910 0.6910 0.6911
3541.000000 0.6911 0.6912 0.6912 0.6912 0.6911
3536.000000 0.6911 0.6911 0.6910 0.6908 0.6908
3531.000000 0.6905 0.6901 0.6897 0.6893 0.6888
3526.000000 0.6883 0.6874 0.6865 0.6856 0.6848
3521.000000 0.6834 0.6819 0.6806 0.6792 0.6775
3516.000000 0.6758 0.6739 0.6719 0.6700 0.6681
3511.000000 0.6661 0.6641 0.6618 0.6598 0.6576
3506.000000 0.6556 0.6534 0.6512 0.6492 0.6471
3501.000000 0.6446 0.6421 0.6390 0.6359 0.6327
3496.000000 0.6295 0.6262 0.6232 0.6192 0.6153
3491.000000 0.6102 0.6051 0.5999 0.5948 0.5899
3486.000000 0.5851 0.5802 0.5753 0.5698 0.5644
3481.000000 0.5557 0.5470 0.5383 0.5297 0.5181
3476.000000 0.5065 0.4830 0.4595 0.4504 0.4414
3471.000000 0.4330 0.4247 0.4168 0.4090 0.3971
3466.000000 0.3853 0.3673 0.3494 0.3350 0.3207
3461.000000 0.3108 0.3009 0.2954 0.2900 0.2848
3456.000000 0.2796 0.2756 0.2716 0.2682 0.2648
3451.000000 0.2614 0.2581 0.2550 0.2520 0.2490
3446.000000 0.2460 0.2424 0.2388 0.2349 0.2310
3441.000000 0.2271 0.2233 0.2200 0.2167 0.2134
3436.000000 0.2102 0.2069 0.2036 0.2007 0.1977
3431.000000 0.1954 0.1931 0.1908 0.1885 0.1863
3426.000000 0.1840 0.1817 0.1794 0.1772 0.1750
3421.000000 0.1728 0.1707 0.1682 0.1657 0.1631
3416.000000 0.1604 0.1580 0.1556 0.1551 0.1546
3411.000000 0.1544 0.1542 0.1541 0.1540 0.1540
3406.000000 0.1540 0.1545 0.1550 0.1557 0.1565
3401.000000 0.1598 0.1632 0.1671 0.1711 0.1736
3396.000000 0.1763 0.1787 0.1814 0.1840 0.1866
3391.000000 0.1894 0.1924 0.1953 0.1982 0.2011
3386.000000 0.2040 0.2069 0.2098 0.2142 0.2185
3381.000000 0.2234 0.2284 0.2333 0.2382 0.2434
3376.000000 0.2488 0.2552 0.2617 0.2681 0.2745
3371.000000 0.2810 0.2876 0.2946 0.3017 0.3087
3366.000000 0.3158 0.3232 0.3307 0.3388 0.3468
3361.000000 0.3547 0.3626 0.3702 0.3779 0.3850
3356.000000 0.3923 0.3986 0.4050 0.4109 0.4168
3351.000000 0.4216 0.4264 0.4302 0.4341 0.4365
3346.000000 0.4389 0.4414 0.4439 0.4467 0.4495
3341.000000 0.4516 0.4537 0.4546 0.4555 0.4562
3336.000000 0.4572 0.4577 0.4583 0.4584 0.4597
3331.000000 0.4586 0.4586 0.4586 0.4586 0.4585
3326.000000 0.4584 0.4568 0.4552 0.4530 0.4509
3321.000000 0.4484 0.4459 0.4434 0.4409 0.4383
3316.000000 0.4357 0.4315 0.4273 0.4230 0.4188
3311.000000 0.4135 0.4082 0.4023 0.3962 0.3900
3306.000000 0.3840 0.3777 0.3714 0.3658 0.3602
3301.000000 0.3555 0.3509 0.3462 0.3418 0.3376
3296.000000 0.3334 0.3292 0.3250 0.3218 0.3184
3291.000000 0.3156 0.3128 0.3107 0.3087 0.3072
3286.000000 0.3058 0.3065 0.3073 0.3080 0.3088
3281.000000 0.3095 0.3103 0.3110 0.3117 0.3122
3276.000000 0.3128 0.3125 0.3122 0.3096 0.3071
3271.000000 0.3041 0.3012 0.2982 0.2952 0.2920
3266.000000 0.2889 0.2865 0.2841 0.2824 0.2808
3261.000000 0.2800 0.2793 0.2787 0.2771 0.2784
3256.000000 0.2787 0.2801 0.2815 0.2895 0.2975
3251.000000 0.3042 0.3110 0.3168 0.3226 0.3259
3246.000000 0.3295 0.3329 0.3364 0.3398 0.3432
3241.000000 0.3468 0.3503 0.3538 0.3574 0.3609
3236.000000 0.3644 0.3671 0.3699 0.3716 0.3734
3231.000000 0.3752 0.3770 0.3786 0.3803 0.3809
3226.000000 0.3816 0.3822 0.3829 0.3834 0.3842
3221.000000 0.3848 0.3854 0.3856 0.3859 0.3860
3216.000000 0.3862 0.3866 0.3868 0.3872 0.3876
3211.000000 0.3880 0.3884 0.3890 0.3896 0.3918
3206.000000 0.3940 0.3960 0.3982 0.4009 0.4037
3201.000000 0.4066 0.4098 0.4128 0.4159 0.4184
3196.000000 0.4209 0.4231 0.4253 0.4275 0.4298
3191.000000 0.4317 0.4337 0.4357 0.4377 0.4395
3186.000000 0.4414 0.4430 0.4446 0.4460 0.4476
3181.000000 0.4487 0.4505 0.4500 0.4502 0.4502
3176.000000 0.4503 0.4503 0.4504 0.4493 0.4483
3171.000000 0.4467 0.4451 0.4420 0.4389 0.4352
3166.000000 0.4316 0.4293 0.4271 0.4262 0.4253
3161.000000 0.4248 0.4243 0.4241 0.4240 0.4251
3156.000000 0.4262 0.4280 0.4298 0.4318 0.4339
3151.000000 0.4362 0.4387 0.4410 0.4436 0.4460
3146.000000 0.4486 0.4512 0.4538 0.4564 0.4590
3141.000000 0.4615 0.4641 0.4681 0.4721 0.4771
3136.000000 0.4822 0.4858 0.4894 0.4908 0.4922
3131.000000 0.4930 0.4939 0.4940 0.4942 0.4942
3126.000000 0.4915 0.4931 0.4921 0.4900 0.4880
3121.000000 0.4849 0.4819 0.4775 0.4732 0.4694
3116.000000 0.4656 0.4621 0.4587 0.4531 0.4475
3111.000000 0.4398 0.4322 0.4318 0.4315 0.4312
3106.000000 0.4309 0.4306 0.4303 0.4300 0.4305
3101.000000 0.4302 0.4307 0.4336 0.4365 0.4419
3096.000000 0.4474 0.4479 0.4484 0.4484 0.4485
3091.000000 0.4477 0.4469 0.4456 0.4444 0.4431
3086.000000 0.4419 0.4417 0.4416 0.4431 0.4447
3081.000000 0.4476 0.4505 0.4539 0.4573 0.4602
3076.000000 0.4632 0.4659 0.4686 0.4712 0.4740
3071.000000 0.4765 0.4791 0.4816 0.4841 0.4876
3066.000000 0.4910 0.4933 0.4955 0.4964 0.4973
3061.000000 0.4976 0.4979 0.4973 0.4967 0.4960
3056.000000 0.4955 0.4937 0.4962 0.4896 0.4872
3051.000000 0.4848 0.4825 0.4808 0.4791 0.4786
3046.000000 0.4782 0.4779 0.4776 0.4773 0.4771
3041.000000 0.4769 0.4769 0.4768 0.4770 0.4775
3036.000000 0.4781 0.4786 0.4792 0.4797 0.4803
3031.000000 0.4810 0.4820 0.4829 0.4838 0.4843
3026.000000 0.4848 0.4853 0.4859 0.4860 0.4862
3021.000000 0.4862 0.4856 0.4854 0.4845 0.4830
3016.000000 0.4816 0.4794 0.4772 0.4750 0.4728
3011.000000 0.4704 0.4681 0.4656 0.4632 0.4610
3006.000000 0.4591 0.4566 0.4542 0.4517 0.4493
3001.000000 0.4468 0.4444 0.4425 0.4406 0.4387
2996.000000 0.4369 0.4351 0.4333 0.4314 0.4296
2991.000000 0.4277 0.4259 0.4241 0.4223 0.4204
2986.000000 0.4186 0.4168 0.4151 0.4134 0.4117
2981.000000 0.4100 0.4082 0.4066 0.4050 0.4032
2976.000000 0.4016 0.4000 0.3984 0.3968 0.3952
2971.000000 0.3936 0.3920 0.3904 0.3888 0.3872
2966.000000 0.3856 0.3839 0.3822 0.3804 0.3787
2961.000000 0.3768 0.3752 0.3734 0.3716 0.3698
2956.000000 0.3680 0.3662 0.3646 0.3628 0.3610
2951.000000 0.3588 0.3566 0.3543 0.3520 0.3497
2946.000000 0.3474 0.3450 0.3428 0.3405 0.3382
2941.000000 0.3359 0.3336 0.3310 0.3287 0.3259
2936.000000 0.3230 0.3203 0.3175 0.3147 0.3119
2931.000000 0.3091 0.3063 0.3034 0.3005 0.2976
2926.000000 0.2948 0.2919 0.2891 0.2862 0.2834
2921.000000 0.2805 0.2776 0.2748 0.2720 0.2693
2916.000000 0.2667 0.2640 0.2614 0.2587 0.2561
2911.000000 0.2534 0.2508 0.2481 0.2455 0.2428
2906.000000 0.2402 0.2375 0.2349 0.2311 0.2274
2901.000000 0.2235 0.2198 0.2159 0.2121 0.2082
2896.000000 0.2044 0.2003 0.1962 0.1921 0.1881
2891.000000 0.1841 0.1802 0.1767 0.1733 0.1699
2886.000000 0.1665 0.1631 0.1596 0.1559 0.1522
2881.000000 0.1482 0.1442 0.1406 0.1370 0.1342
2876.000000 0.1315 0.1286 0.1258 0.1229 0.1201
2871.000000 0.1187 0.1173 0.1159 0.1145 0.1140
2866.000000 0.1136 0.1131 0.1126 0.1121 0.1116
2861.000000 0.1115 0.1114 0.1113 0.1112 0.1112
2856.000000 0.1111 0.1111 0.1112 0.1113 0.1114
2851.000000 0.1114 0.1115 0.1116 0.1117 0.1124
2846.000000 0.1132 0.1140 0.1148 0.1156 0.1164
2841.000000 0.1172 0.1180 0.1211 0.1242 0.1262
2836.000000 0.1282 0.1298 0.1314 0.1330 0.1346
2831.000000 0.1363 0.1380 0.1396 0.1413 0.1429
2826.000000 0.1445 0.1461 0.1478 0.1494 0.1511
2821.000000 0.1527 0.1542 0.1554 0.1565 0.1573
2816.000000 0.1581 0.1589 0.1598 0.1606 0.1615
2811.000000 0.1623 0.1632 0.1640 0.1649 0.1657
2806.000000 0.1666 0.1674 0.1682 0.1690 0.1699
2801.000000 0.1707 0.1716 0.1725 0.1734 0.1746
2796.000000 0.1760 0.1772 0.1784 0.1795 0.1808
2791.000000 0.1821 0.1834 0.1853 0.1871 0.1887
2786.000000 0.1906 0.1924 0.1942 0.1959 0.1977
2781.000000 0.2001 0.2026 0.2056 0.2087 0.2117
2776.000000 0.2148 0.2178 0.2209 0.2241 0.2274
2771.000000 0.2309 0.2344 0.2379 0.2414 0.2443
2766.000000 0.2473 0.2502 0.2532 0.2561 0.2591
2761.000000 0.2620 0.2650 0.2678 0.2707 0.2727
2756.000000 0.2748 0.2768 0.2788 0.2808 0.2829
2751.000000 0.2849 0.2870 0.2890 0.2910 0.2930
2746.000000 0.2951 0.2971 0.2992 0.3012 0.3033
2741.000000 0.3053 0.3074 0.3092 0.3110 0.3122
2736.000000 0.3134 0.3140 0.3147 0.3153 0.3159
2731.000000 0.3165 0.3171 0.3176 0.3182 0.3184
2726.000000 0.3188 0.3191 0.3194 0.3196 0.3199
2721.000000 0.3200 0.3204 0.3206 0.3209 0.3210
2716.000000 0.3214 0.3216 0.3218 0.3221 0.3224
2711.000000 0.3226 0.3229 0.3232 0.3234 0.3238
2706.000000 0.3242 0.3245 0.3248 0.3250 0.3255
2701.000000 0.3258 0.3262 0.3264 0.3268 0.3272
2696.000000 0.3275 0.3276 0.3278 0.3279 0.3280
2691.000000 0.3280 0.3282 0.3284 0.3284 0.3286
2686.000000 0.3288 0.3284 0.3300 0.3271 0.3262
2681.000000 0.3253 0.3244 0.3229 0.3214 0.3196
2676.000000 0.3178 0.3158 0.3138 0.3116 0.3095
2671.000000 0.3073 0.3052 0.3030 0.3009 0.2968
2666.000000 0.2928 0.2884 0.2840 0.2796 0.2752
2661.000000 0.2680 0.2608 0.2529 0.2450 0.2384
2656.000000 0.2319 0.2254 0.2189 0.2124 0.2060
2651.000000 0.2006 0.1953 0.1923 0.1893 0.1864
2646.000000 0.1835 0.1813 0.1790 0.1779 0.1771
2641.000000 0.1767 0.1749 0.1760 0.1758 0.1756
2636.000000 0.1754 0.1753 0.1753 0.1754 0.1758
2631.000000 0.1760 0.1763 0.1765 0.1768 0.1770
2626.000000 0.1773 0.1775 0.1778 0.1779 0.1783
2621.000000 0.1786 0.1792 0.1798 0.1804 0.1811
2616.000000 0.1818 0.1825 0.1832 0.1837 0.1844
2611.000000 0.1853 0.1862 0.1872 0.1882 0.1891
2606.000000 0.1901 0.1910 0.1920 0.1929 0.1939
2601.000000 0.1948 0.1957 0.1966 0.1976 0.1984
2596.000000 0.1994 0.2003 0.2013 0.2022 0.2031
2591.000000 0.2040 0.2050 0.2062 0.2075 0.2091
2586.000000 0.2107 0.2123 0.2139 0.2155 0.2171
2581.000000 0.2187 0.2204 0.2220 0.2235 0.2254
2576.000000 0.2273 0.2292 0.2311 0.2329 0.2348
2571.000000 0.2366 0.2384 0.2404 0.2423 0.2441
2566.000000 0.2460 0.2479 0.2498 0.2516 0.2534
2561.000000 0.2559 0.2584 0.2609 0.2634 0.2659
2556.000000 0.2684 0.2709 0.2734 0.2758 0.2783
2551.000000 0.2804 0.2826 0.2846 0.2867 0.2887
2546.000000 0.2907 0.2927 0.2948 0.2968 0.2989
2541.000000 0.3009 0.3029 0.3047 0.3065 0.3083
2536.000000 0.3101 0.3119 0.3138 0.3156 0.3174
2531.000000 0.3192 0.3210 0.3229 0.3247 0.3264
2526.000000 0.3284 0.3302 0.3320 0.3338 0.3357
2521.000000 0.3373 0.3389 0.3404 0.3420 0.3434
2516.000000 0.3450 0.3466 0.3482 0.3497 0.3512
2511.000000 0.3528 0.3544 0.3559 0.3575 0.3590
2506.000000 0.3606 0.3621 0.3637 0.3652 0.3668
2501.000000 0.3682 0.3699 0.3714 0.3730 0.3745
2496.000000 0.3760 0.3776 0.3792 0.3807 0.3823
2491.000000 0.3838 0.3854 0.3868 0.3884 0.3899
2486.000000 0.3914 0.3928 0.3941 0.3953 0.3966
2481.000000 0.3979 0.3992 0.4004 0.4016 0.4029
2476.000000 0.4042 0.4054 0.4066 0.4080 0.4093
2471.000000 0.4105 0.4118 0.4130 0.4143 0.4155
2466.000000 0.4168 0.4181 0.4194 0.4206 0.4219
2461.000000 0.4231 0.4244 0.4257 0.4270 0.4283
2456.000000 0.4296 0.4309 0.4323 0.4336 0.4350
2451.000000 0.4362 0.4377 0.4390 0.4403 0.4416
2446.000000 0.4430 0.4443 0.4457 0.4470 0.4484
2441.000000 0.4497 0.4510 0.4522 0.4535 0.4547
2436.000000 0.4559 0.4571 0.4584 0.4596 0.4609
2431.000000 0.4621 0.4633 0.4644 0.4655 0.4666
2426.000000 0.4677 0.4688 0.4700 0.4710 0.4722
2421.000000 0.4729 0.4736 0.4740 0.4744 0.4746
2416.000000 0.4749 0.4751 0.4754 0.4756 0.4759
2411.000000 0.4760 0.4764 0.4766 0.4769 0.4771
2406.000000 0.4774 0.4776 0.4779 0.4789 0.4800
2401.000000 0.4812 0.4826 0.4838 0.4850 0.4860
2396.000000 0.4872 0.4882 0.4893 0.4904 0.4915
2391.000000 0.4926 0.4937 0.4948 0.4959 0.4971
2386.000000 0.4983 0.4995 0.5008 0.5020 0.5033
2381.000000 0.5045 0.5058 0.5070 0.5082 0.5094
2376.000000 0.5107 0.5119 0.5132 0.5144 0.5156
2371.000000 0.5168 0.5180 0.5192 0.5204 0.5216
2366.000000 0.5228 0.5240 0.5252 0.5264 0.5277
2361.000000 0.5286 0.5295 0.5302 0.5310 0.5318
2356.000000 0.5326 0.5330 0.5334 0.5334 0.5334
2351.000000 0.5334 0.5334 0.5333 0.5332 0.5331
2346.000000 0.5330 0.5328 0.5326 0.5320 0.5315
2341.000000 0.5309 0.5304 0.5298 0.5293 0.5287
2336.000000 0.5282 0.5276 0.5271 0.5265 0.5260
2331.000000 0.5254 0.5249 0.5243 0.5238 0.5232
2326.000000 0.5227 0.5219 0.5212 0.5207 0.5202
2321.000000 0.5199 0.5181 0.5196 0.5197 0.5206
2316.000000 0.5216 0.5225 0.5235 0.5248 0.5262
2311.000000 0.5278 0.5295 0.5310 0.5325 0.5338
2306.000000 0.5352 0.5366 0.5380 0.5394 0.5408
2301.000000 0.5421 0.5434 0.5446 0.5459 0.5471
2296.000000 0.5484 0.5496 0.5509 0.5521 0.5534
2291.000000 0.5546 0.5559 0.5571 0.5584 0.5596
2286.000000 0.5608 0.5619 0.5631 0.5643 0.5655
2281.000000 0.5666 0.5678 0.5687 0.5697 0.5706
2276.000000 0.5715 0.5724 0.5733 0.5741 0.5750
2271.000000 0.5756 0.5762 0.5767 0.5773 0.5778
2266.000000 0.5784 0.5790 0.5796 0.5801 0.5807
2261.000000 0.5812 0.5818 0.5823 0.5828 0.5833
2256.000000 0.5839 0.5844 0.5849 0.5854 0.5859
2251.000000 0.5864 0.5869 0.5874 0.5879 0.5884
2246.000000 0.5890 0.5895 0.5900 0.5905 0.5910
2241.000000 0.5917 0.5924 0.5931 0.5939 0.5946
2236.000000 0.5954 0.5960 0.5969 0.5976 0.5984
2231.000000 0.5991 0.5999 0.6007 0.6016 0.6024
2226.000000 0.6033 0.6041 0.6050 0.6058 0.6066
2221.000000 0.6074 0.6083 0.6091 0.6100 0.6108
2216.000000 0.6117 0.6125 0.6134 0.6143 0.6152
2211.000000 0.6160 0.6170 0.6178 0.6187 0.6194
2206.000000 0.6202 0.6208 0.6214 0.6220 0.6227
2201.000000 0.6233 0.6239 0.6245 0.6252 0.6258
2196.000000 0.6265 0.6271 0.6278 0.6285 0.6292
2191.000000 0.6298 0.6305 0.6312 0.6319 0.6326
2186.000000 0.6333 0.6340 0.6347 0.6354 0.6360
2181.000000 0.6368 0.6375 0.6382 0.6389 0.6397
2176.000000 0.6406 0.6415 0.6424 0.6433 0.6442
2171.000000 0.6451 0.6460 0.6468 0.6478 0.6487
2166.000000 0.6496 0.6503 0.6510 0.6515 0.6522
2161.000000 0.6530 0.6538 0.6545 0.6551 0.6556
2156.000000 0.6561 0.6565 0.6568 0.6571 0.6575
2151.000000 0.6574 0.6568 0.6568 0.6568 0.6565
2146.000000 0.6562 0.6560 0.6557 0.6554 0.6551
2141.000000 0.6549 0.6547 0.6544 0.6542 0.6539
2136.000000 0.6536 0.6536 0.6536 0.6537 0.6538
2131.000000 0.6539 0.6540 0.6540 0.6540 0.6540
2126.000000 0.6540 0.6540 0.6540 0.6537 0.6535
2121.000000 0.6530 0.6525 0.6517 0.6510 0.6501
2116.000000 0.6492 0.6480 0.6468 0.6456 0.6444
2111.000000 0.6432 0.6421 0.6410 0.6400 0.6390
2106.000000 0.6380 0.6369 0.6359 0.6348 0.6337
2101.000000 0.6325 0.6312 0.6300 0.6288 0.6275
2096.000000 0.6262 0.6251 0.6239 0.6229 0.6219
2091.000000 0.6212 0.6207 0.6201 0.6195 0.6191
2086.000000 0.6188 0.6187 0.6186 0.6186 0.6187
2081.000000 0.6190 0.6193 0.6195 0.6198 0.6200
2076.000000 0.6216 0.6207 0.6212 0.6219 0.6227
2071.000000 0.6235 0.6243 0.6252 0.6262 0.6271
2066.000000 0.6281 0.6291 0.6301 0.6310 0.6321
2061.000000 0.6331 0.6342 0.6352 0.6362 0.6373
2056.000000 0.6384 0.6394 0.6405 0.6415 0.6425
2051.000000 0.6436 0.6446 0.6456 0.6467 0.6476
2046.000000 0.6487 0.6497 0.6508 0.6518 0.6528
2041.000000 0.6538 0.6549 0.6561 0.6575 0.6591
2036.000000 0.6607 0.6621 0.6637 0.6650 0.6664
2031.000000 0.6676 0.6690 0.6701 0.6715 0.6726
2026.000000 0.6740 0.6751 0.6765 0.6781 0.6797
2021.000000 0.6812 0.6828 0.6845 0.6861 0.6872
2016.000000 0.6886 0.6899 0.6911 0.6925 0.6938
2011.000000 0.6949 0.6960 0.6971 0.6983 0.6994
2006.000000 0.7005 0.7015 0.7026 0.7038 0.7050
2001.000000 0.7068 0.7088 0.7103 0.7110 0.7115
1996.000000 0.7118 0.7124 0.7124 0.7122 0.7122
1991.000000 0.7124 0.7125 0.7128 0.7132 0.7137
1986.000000 0.7142 0.7147 0.7151 0.7156 0.7161
1981.000000 0.7165 0.7171 0.7175 0.7183 0.7191
1976.000000 0.7198 0.7205 0.7215 0.7224 0.7233
1971.000000 0.7243 0.7251 0.7261 0.7271 0.7280
1966.000000 0.7290 0.7299 0.7321 0.7347 0.7372
1961.000000 0.7412 0.7478 0.7578 0.7604 0.7611
1956.000000 0.7580 0.7537 0.7507 0.7488 0.7478
1951.000000 0.7475 0.7471 0.7405 0.7376 0.7376
1946.000000 0.7376 0.7404 0.7432 0.7451 0.7465
1941.000000 0.7478 0.7493 0.7507 0.7521 0.7536
1936.000000 0.7550 0.7562 0.7575 0.7589 0.7598
1931.000000 0.7607 0.7615 0.7625 0.7633 0.7642
1926.000000 0.7651 0.7658 0.7662 0.7668 0.7674
1921.000000 0.7680 0.7685 0.7691 0.7697 0.7705
1916.000000 0.7711 0.7718 0.7725 0.7733 0.7740
1911.000000 0.7747 0.7756 0.7769 0.7784 0.7798
1906.000000 0.7811 0.7825 0.7840 0.7854 0.7868
1901.000000 0.7875 0.7882 0.7889 0.7896 0.7903
1896.000000 0.7910 0.7917 0.7922 0.7930 0.7937
1891.000000 0.7944 0.7948 0.7951 0.7953 0.7954
1886.000000 0.7954 0.7951 0.7951 0.7949 0.7947
1881.000000 0.7946 0.7944 0.7942 0.7941 0.7939
1876.000000 0.7937 0.7936 0.7934 0.7932 0.7930
1871.000000 0.7928 0.7928 0.7928 0.7932 0.7936
1866.000000 0.7939 0.7946 0.7954 0.7961 0.7971
1861.000000 0.7978 0.7985 0.7991 0.7998 0.8019
1856.000000 0.8018 0.8018 0.8030 0.8042 0.8055
1851.000000 0.8067 0.8092 0.8118 0.8144 0.8169
1846.000000 0.8192 0.8202 0.8213 0.8224 0.8234
1841.000000 0.8245 0.8255 0.8256 0.8257 0.8254
1836.000000 0.8251 0.8249 0.8257 0.8264 0.8271
1831.000000 0.8278 0.8287 0.8294 0.8300 0.8300
1826.000000 0.8299 0.8299 0.8296 0.8290 0.8283
1821.000000 0.8275 0.8270 0.8271 0.8277 0.8283
1816.000000 0.8288 0.8295 0.8302 0.8309 0.8317
1811.000000 0.8324 0.8332 0.8339 0.8346 0.8354
1806.000000 0.8361 0.8367 0.8371 0.8375 0.8381
1801.000000 0.8386 0.8391 0.8395 0.8397 0.8400
1796.000000 0.8403 0.8405 0.8408 0.8411 0.8413
1791.000000 0.8414 0.8415 0.8398 0.8380 0.8364
1786.000000 0.8352 0.8347 0.8348 0.8361 0.8374
1781.000000 0.8387 0.8400 0.8414 0.8433 0.8454
1776.000000 0.8471 0.8488 0.8505 0.8521 0.8537
1771.000000 0.8556 0.8571 0.8567 0.8562 0.8557
1766.000000 0.8552 0.8550 0.8545 0.8539 0.8525
1761.000000 0.8463 0.8401 0.8338 0.8275 0.8210
1756.000000 0.8231 0.8263 0.8306 0.8392 0.8436
1751.000000 0.8480 0.8523 0.8567 0.8595 0.8620
1746.000000 0.8638 0.8652 0.8658 0.8665 0.8671
1741.000000 0.8677 0.8683 0.8690 0.8700 0.8709
1736.000000 0.8725 0.8744 0.8770 0.8798 0.8824
1731.000000 0.8843 0.8847 0.8846 0.8846 0.8844
1726.000000 0.8812 0.8775 0.8721 0.8668 0.8633
1721.000000 0.8621 0.8627 0.8667 0.8717 0.8782
1716.000000 0.8834 0.8845 0.8857 0.8868 0.8880
1711.000000 0.8896 0.8911 0.8927 0.8942 0.8965
1706.000000 0.9009 0.9033 0.9033 0.9045 0.9027
1701.000000 0.8998 0.8968 0.8948 0.8933 0.8918
1696.000000 0.8904 0.8889 0.8871 0.8841 0.8811
1691.000000 0.8762 0.8700 0.8651 0.8607 0.8562
1686.000000 0.8511 0.8456 0.8401 0.8258 0.8089
1681.000000 0.7912 0.7739 0.7568 0.7340 0.7078
1676.000000 0.6764 0.6040 0.5872 0.5702 0.5530
1671.000000 0.5403 0.5270 0.4899 0.4528 0.4157
1666.000000 0.3786 0.3414 0.3044 0.2673 0.2302
1661.000000 0.1931 0.1560 0.1396 0.1352 0.1325
1656.000000 0.1303 0.1282 0.1262 0.1242 0.1227
1651.000000 0.1222 0.1231 0.1231 0.1231 0.1260
1646.000000 0.1316 0.1371 0.1430 0.1499 0.1569
1641.000000 0.1639 0.1766 0.1896 0.2131 0.2354
1636.000000 0.2526 0.2652 0.2716 0.2778 0.2826
1631.000000 0.2865 0.2867 0.2874 0.2899 0.2960
1626.000000 0.3007 0.3054 0.3101 0.3172 0.3234
1621.000000 0.3284 0.3337 0.3396 0.3457 0.3494
1616.000000 0.3494 0.3498 0.3448 0.3395 0.3330
1611.000000 0.3274 0.3250 0.3248 0.3296 0.3366
1606.000000 0.3441 0.3504 0.3491 0.3488 0.3475
1601.000000 0.3457 0.3432 0.3405 0.3375 0.3330
1596.000000 0.3288 0.3077 0.2765 0.2454 0.2142
1591.000000 0.1829 0.1518 0.1206 0.0938 0.0932
1586.000000 0.0928 0.0946 0.1010 0.1203 0.1432
1581.000000 0.1661 0.1890 0.2119 0.2348 0.2577
1576.000000 0.2806 0.3034 0.3264 0.3493 0.3722
1571.000000 0.3799 0.3857 0.3842 0.3847 0.3650
1566.000000 0.3268 0.2887 0.2505 0.2123 0.1741
1561.000000 0.1359 0.1051 0.1003 0.0987 0.0968
1556.000000 0.0980 0.0986 0.1000 0.1092 0.1278
1551.000000 0.1463 0.1648 0.1833 0.2018 0.2203
1546.000000 0.2203 0.2228 0.2220 0.2169 0.2099
1541.000000 0.2029 0.1960 0.1890 0.1820 0.1804
1536.000000 0.1792 0.1798 0.1862 0.1944 0.2043
1531.000000 0.2139 0.2223 0.2344 0.2459 0.2575
1526.000000 0.2690 0.2805 0.2920 0.3034 0.3150
1521.000000 0.3266 0.3380 0.3496 0.3610 0.3726
1516.000000 0.3841 0.3957 0.4072 0.4187 0.4302
1511.000000 0.4417 0.4533 0.4648 0.4762 0.4878
1506.000000 0.4993 0.5108 0.5224 0.5339 0.5422
1501.000000 0.5479 0.5559 0.5591 0.5599 0.5618
1496.000000 0.5604 0.5512 0.4983 0.4452 0.3921
1491.000000 0.3391 0.2860 0.2703 0.2713 0.2814
1486.000000 0.3426 0.4039 0.4651 0.4909 0.5044
1481.000000 0.5133 0.5214 0.5247 0.5257 0.5259
1476.000000 0.5254 0.5210 0.5158 0.5110 0.5105
1471.000000 0.5104 0.5193 0.5377 0.5562 0.5701
1466.000000 0.5744 0.5775 0.5776 0.5780 0.5510
1461.000000 0.4989 0.4468 0.3947 0.3426 0.2905
1456.000000 0.2383 0.1862 0.1595 0.1569 0.1539
1451.000000 0.1554 0.1550 0.1662 0.1804 0.1945
1446.000000 0.2088 0.2134 0.2138 0.2145 0.2141
1441.000000 0.2057 0.1970 0.1883 0.1795 0.1772
1436.000000 0.1781 0.1777 0.1784 0.1809 0.1848
1431.000000 0.1889 0.1958 0.2066 0.2227 0.2339
1426.000000 0.2439 0.2526 0.2612 0.2695 0.2777
1421.000000 0.2866 0.2974 0.3082 0.3193 0.3304
1416.000000 0.3441 0.3593 0.3750 0.3862 0.3966
1411.000000 0.4070 0.4174 0.4278 0.4382 0.4486
1406.000000 0.4590 0.4687 0.4747 0.4806 0.4865
1401.000000 0.4924 0.4982 0.5039 0.5099 0.5160
1396.000000 0.5221 0.5262 0.5302 0.5342 0.5373
1391.000000 0.5403 0.5427 0.5448 0.5469 0.5479
1386.000000 0.5478 0.5462 0.5420 0.5323 0.5136
1381.000000 0.4565 0.3993 0.3422 0.2851 0.2641
1376.000000 0.2626 0.2626 0.2889 0.3174 0.3458
1371.000000 0.3743 0.4027 0.4112 0.4152 0.4168
1366.000000 0.4184 0.4198 0.4210 0.4259 0.4384
1361.000000 0.4512 0.4601 0.4671 0.4716 0.4779
1356.000000 0.4827 0.4873 0.4910 0.4914 0.4914
1351.000000 0.4910 0.4887 0.4821 0.4722 0.4530
1346.000000 0.4450 0.4412 0.4375 0.4359 0.4352
1341.000000 0.4346 0.4338 0.4329 0.4315 0.4262
1336.000000 0.3841 0.3420 0.2999 0.2578 0.2157
1331.000000 0.1968 0.1966 0.1964 0.2103 0.2328
1326.000000 0.2553 0.2778 0.3003 0.3228 0.3453
1321.000000 0.3618 0.3659 0.3700 0.3753 0.3810
1316.000000 0.3859 0.3895 0.3914 0.3758 0.3090
1311.000000 0.2421 0.1753 0.1312 0.1308 0.1308
1306.000000 0.1537 0.1978 0.2419 0.2860 0.3302
1301.000000 0.3743 0.4034 0.4039 0.4053 0.3734
1296.000000 0.3414 0.3095 0.2775 0.2574 0.2574
1291.000000 0.2599 0.2848 0.3116 0.3384 0.3653
1286.000000 0.3922 0.4190 0.4459 0.4720 0.4809
1281.000000 0.4842 0.4853 0.4848 0.4792 0.4327
1276.000000 0.3862 0.3399 0.2934 0.2327 0.2324
1271.000000 0.2320 0.2322 0.2984 0.3918 0.4471
1266.000000 0.4560 0.4577 0.4578 0.4579 0.4502
1261.000000 0.4301 0.4262 0.4251 0.4251 0.4527
1256.000000 0.4599 0.4671 0.4743 0.4814 0.4890
1251.000000 0.4969 0.5047 0.5131 0.5219 0.5309
1246.000000 0.5441 0.5573 0.5910 0.6003 0.6095
1241.000000 0.6187 0.6260 0.6327 0.6392 0.6433
1236.000000 0.6475 0.6515 0.6557 0.6595 0.6625
1231.000000 0.6654 0.6684 0.6712 0.6738 0.6758
1226.000000 0.6778 0.6799 0.6818 0.6834 0.6851
1221.000000 0.6867 0.6883 0.6900 0.6911 0.6921
1216.000000 0.6933 0.6943 0.6954 0.6964 0.6975
1211.000000 0.6984 0.6993 0.7001 0.7010 0.7018
1206.000000 0.7028 0.7037 0.7046 0.7053 0.7061
1201.000000 0.7068 0.7075 0.7084 0.7091 0.7095
1196.000000 0.7096 0.7096 0.7096 0.7096 0.7096
1191.000000 0.7095 0.7084 0.7068 0.7053 0.7025
1186.000000 0.6991 0.6957 0.6922 0.6878 0.6801
1181.000000 0.6725 0.6644 0.6532 0.6419 0.6310
1176.000000 0.6110 0.5632 0.5233 0.4835 0.4437
1171.000000 0.4039 0.3641 0.3500 0.3514 0.3493
1166.000000 0.3647 0.3809 0.3972 0.4134 0.4297
1161.000000 0.4680 0.4621 0.4648 0.4650 0.4489
1156.000000 0.3847 0.3848 0.3848 0.4507 0.5896
1151.000000 0.5979 0.6062 0.6136 0.6204 0.6273
1146.000000 0.6342 0.6401 0.6450 0.6499 0.6548
1141.000000 0.6598 0.6630 0.6661 0.6694 0.6721
1136.000000 0.6742 0.6761 0.6776 0.6793 0.6810
1131.000000 0.6825 0.6819 0.6812 0.6806 0.6800
1126.000000 0.6793 0.6786 0.6783 0.6781 0.6786
1121.000000 0.6792 0.6797 0.6803 0.6808 0.6822
1116.000000 0.6846 0.6868 0.6893 0.6930 0.6965
1111.000000 0.7006 0.7024 0.7030 0.7034 0.7038
1106.000000 0.7042 0.7046 0.7051 0.7068 0.7086
1101.000000 0.7101 0.7115 0.7128 0.7141 0.7151
1096.000000 0.7162 0.7174 0.7185 0.7190 0.7181
1091.000000 0.7165 0.7130 0.7082 0.7006 0.6928
1086.000000 0.6841 0.6831 0.6826 0.6850 0.7025
1081.000000 0.7092 0.7143 0.7151 0.7158 0.7167
1076.000000 0.7175 0.7180 0.7184 0.7188 0.7192
1071.000000 0.7196 0.7200 0.7204 0.7208 0.7210
1066.000000 0.7211 0.7212 0.7215 0.7215 0.7215
1061.000000 0.7215 0.7215 0.7215 0.7214 0.7212
1056.000000 0.7211 0.7211 0.7208 0.7199 0.7190
1051.000000 0.7180 0.7169 0.7158 0.7132 0.7106
1046.000000 0.7080 0.6982 0.6878 0.6661 0.6231
1041.000000 0.5799 0.5512 0.5496 0.5507 0.5586
1036.000000 0.5739 0.5893 0.6047 0.6135 0.6149
1031.000000 0.6158 0.6135 0.5538 0.4857 0.3882
1026.000000 0.3882 0.3882 0.3896 0.4321 0.4938
1021.000000 0.5209 0.5362 0.5488 0.5615 0.5742
1016.000000 0.5869 0.5996 0.6123 0.6250 0.6377
1011.000000 0.6504 0.6631 0.6758 0.6885 0.7011
1006.000000 0.7139 0.7214 0.7206 0.7211 0.6888
1001.000000 0.6461 0.6034 0.5596 0.5614 0.5934
996.000000 0.6571 0.7208 0.7354 0.7387 0.7408
991.000000 0.7425 0.7441 0.7456 0.7471 0.7486
986.000000 0.7493 0.7497 0.7497 0.7498 0.7490
981.000000 0.7434 0.7234 0.7033 0.6833 0.6633
976.000000 0.6588 0.6715 0.6882 0.6972 0.6965
971.000000 0.6925 0.6886 0.6842 0.6794 0.6751
966.000000 0.6290 0.5635 0.4981 0.4791 0.4759
961.000000 0.5056 0.5392 0.5728 0.6064 0.6400
956.000000 0.6657 0.6664 0.6669 0.6687 0.6708
951.000000 0.6783 0.6894 0.7008 0.7137 0.7276
946.000000 0.7401 0.7500 0.7568 0.7628 0.7667
941.000000 0.7706 0.7744 0.7778 0.7811 0.7843
936.000000 0.7861 0.7881 0.7899 0.7915 0.7933
931.000000 0.7950 0.7967 0.7984 0.8001 0.8015
926.000000 0.8028 0.8043 0.8057 0.8071 0.8091
921.000000 0.8111 0.8115 0.8118 0.8121 0.8125
916.000000 0.8141 0.8157 0.8171 0.8188 0.8203
911.000000 0.8217 0.8232 0.8246 0.8261 0.8274
906.000000 0.8285 0.8296 0.8308 0.8309 0.8310
901.000000 0.8302 0.8292 0.8282 0.8261 0.8220
896.000000 0.8160 0.8078 0.7965 0.7822 0.7544
891.000000 0.7519 0.7589 0.7681 0.7767 0.7765
886.000000 0.7758 0.6706 0.5266 0.3916 0.3942
881.000000 0.3927 0.4634 0.5357 0.6081 0.6804
876.000000 0.7528 0.7547 0.7576 0.7531 0.7375
871.000000 0.7221 0.6954 0.6961 0.6961 0.7332
866.000000 0.7810 0.8162 0.8187 0.8206 0.8216
861.000000 0.8225 0.8236 0.8264 0.8315 0.8384
856.000000 0.8438 0.8487 0.8505 0.8521 0.8540
851.000000 0.8553 0.8565 0.8578 0.8590 0.8600
846.000000 0.8606 0.8612 0.8618 0.8624 0.8632
841.000000 0.8640 0.8647 0.8657 0.8667 0.8677
836.000000 0.8687 0.8698 0.8709 0.8718 0.8725
831.000000 0.8725 0.8749 0.8717 0.8710 0.8704
826.000000 0.8697 0.8687 0.8671 0.8658 0.8643
821.000000 0.8628 0.8614 0.8597 0.8581 0.8564
816.000000 0.8548 0.8531 0.8507 0.8474 0.8441
811.000000 0.8408 0.8368 0.8328 0.8288 0.8242
806.000000 0.8189 0.8136 0.8083 0.8022 0.7955
801.000000 0.7886 0.7791 0.7600 0.7378 0.7058
796.000000 0.6160 0.5336 0.4510 0.3686 0.2861
791.000000 0.2035 0.1211 0.0386 0.0342 0.0303
786.000000 0.0304 0.0819 0.1666 0.2513 0.3359
781.000000 0.4207 0.5054 0.5902 0.6749 0.7215
776.000000 0.7272 0.7315 0.7349 0.7403 0.7424
771.000000 0.7437 0.7446 0.7451 0.7491 0.7432
766.000000 0.7382 0.7315 0.7176 0.6783 0.6389
761.000000 0.5995 0.5467 0.5465 0.5459 0.5775
756.000000 0.6136 0.6497 0.6618 0.6561 0.6387
751.000000 0.6212 0.6037 0.5862 0.5688 0.5525
746.000000 0.5437 0.5369 0.5335 0.5306 0.5270
741.000000 0.5281 0.5302 0.5340 0.5426 0.5510
736.000000 0.5595 0.5680 0.5765 0.5849 0.5934
731.000000 0.6018 0.6115 0.6115 0.6115 0.6065
726.000000 0.6014 0.5962 0.5910 0.5859 0.5808
721.000000 0.5756 0.5771 0.5760 0.5822 0.6025
716.000000 0.6228 0.6432 0.6635 0.6838 0.7041
711.000000 0.7172 0.7233 0.7261 0.7287 0.7306
706.000000 0.7321 0.7332 0.7341 0.7330 0.7315
701.000000 0.7284 0.7251 0.7210 0.6956 0.6640
696.000000 0.6324 0.6009 0.5796 0.5793 0.5906
691.000000 0.6020 0.6108 0.6110 0.4774 0.2744
686.000000 0.1775 0.1749 0.1944 0.2877 0.3809
681.000000 0.4743 0.5675 0.6608 0.7235 0.7250
676.000000 0.7274 0.7135 0.6782 0.6430 0.6078
671.000000 0.5725 0.5280 0.5226 0.5225 0.5251
666.000000 0.5448 0.5808 0.6167 0.6526 0.6887
661.000000 0.7246 0.7353 0.7362 0.7371 0.7375
656.000000 0.7419 0.7528 0.7684 0.7776 0.7850
651.000000 0.7921 0.7975 0.8006 0.7999 0.8001
646.000000 0.7995 0.7987 0.7978 0.7965 0.7946
641.000000 0.7925 0.7904 0.7883 0.7847 0.7811
636.000000 0.7775 0.7738 0.7688 0.7637 0.7587
631.000000 0.7525 0.7461 0.7399 0.7324 0.7248
626.000000 0.7171 0.7064 0.6955 0.6821 0.6646
621.000000 0.6425 0.5912 0.5245 0.4578 0.3912
616.000000 0.3245 0.2888 0.2859 0.3258 0.3712
611.000000 0.4166 0.4620 0.5074 0.5312 0.5308
606.000000 0.5285 0.5234 0.5182 0.5131 0.5079
601.000000 0.5040 0.5036 0.5075 0.5171 0.5268
596.000000 0.5364 0.5429 0.5477 0.5510 0.5535
591.000000 0.5557 0.5574 0.5580 0.5568 0.5556
586.000000 0.5539 0.5512 0.5487 0.5457 0.5418
581.000000 0.5380 0.5342 0.5301 0.5260 0.5197
576.000000 0.5118 0.5051 0.4991 0.4931 0.4869
571.000000 0.4801 0.4742 0.4683 0.4597 0.4565
566.000000 0.4557 0.4594 0.4685 0.4794 0.4869
561.000000 0.4879 0.4872 0.4865 0.4838 0.4810
556.000000 0.4781 0.4741 0.4695 0.4649 0.4593
551.000000 0.4534 0.4472 0.4299 0.4108 0.3916
546.000000 0.3727 0.3536 0.3474 0.3464 0.3468
541.000000 0.3543 0.3618 0.3692 0.3750 0.3750
536.000000 0.3750 0.3577 0.3404 0.3230 0.3057
531.000000 0.3066 0.3230 0.3307 0.3305 0.3083
526.000000 0.2634 0.2606 0.2600 0.2788 0.3318
521.000000 0.3847 0.4112 0.4304 0.4412 0.4498
516.000000 0.4572 0.4623 0.4675 0.4726 0.4762
511.000000 0.4795 0.4828 0.4860 0.4892 0.4923
506.000000 0.4953 0.4992 0.5042 0.5091 0.5140
501.000000 0.5189 0.5260 0.5346 0.5420 0.5481
496.000000 0.5543 0.5604 0.5665 0.5725 0.5785
491.000000 0.5838 0.5884 0.5929 0.5966 0.5999
486.000000 0.6030 0.6049 0.6068 0.6086 0.6103
481.000000 0.6121 0.6138 0.6156 0.6172 0.6187
476.000000 0.6199 0.6200 0.6201 0.6201 0.6201
471.000000 0.6195 0.6188 0.6180 0.6173 0.6162
466.000000 0.6145 0.6127 0.6124 0.6124 0.6125
461.000000 0.6125 0.6119 0.6109 0.6078 0.6043
456.000000 0.6008 0.5985 0.5967 0.5958 0.5950
451.000000 0.5942 0.5933
##END=
