##TITLE=2-NAPHTHYLAMINE, N-BENZYLIDENE-1-(P-METHOXYPHENYLAZO)-, HYDROGEN TETRAFLUOROBORATE
##JCAMP-DX=4.24
##DATA TYPE=INFRARED SPECTRUM
##CLASS=COBLENTZ III
##ORIGIN=HUNGARIAN ACAD. OF SCI., VIA SCIENTIFIC DOC. CENTRE LTD.
##OWNER=COBLENTZ SOCIETY
Collection (C) 2018 copyright by the U.S. Secretary of Commerce
on behalf of the United States of America. All rights reserved.
##DATE=1967
##MOLFORM=C24 H20 B F4 N3 O
##SOURCE REFERENCE=COBLENTZ NO. 5834
##$NIST ID=B6005834
##$NIST SOURCE=COBLENTZ
##$NIST IMAGE=cob5834
##SPECTROMETER/DATA SYSTEM=UNICAM SP-200
##STATE=SOLID (KBr DISC)
##SAMPLING PROCEDURE=TRANSMISSION
##RESOLUTION=4
##DATA PROCESSING=DIGITIZED BY NIST FROM HARD COPY (FROM TWO SEGMENTS)
##XUNITS=1/CM
##YUNITS=TRANSMITTANCE
##XFACTOR=1.000000
##YFACTOR=1
##DELTAX=0.795056
##FIRSTX=650.795
##LASTX=4971.13
##FIRSTY=0.718
##MAXX=4971.13
##MINX=650.795
##MAXY=0.779
##MINY=0.074
##NPOINTS=5435
##XYDATA=(X++(Y..Y))
650.795000 0.7180 0.7250 0.7250 0.7250 0.7250
654.770279 0.7250 0.7250 0.7240 0.7180 0.6951
658.745557 0.6950 0.7210 0.7320 0.7380 0.7410
662.720836 0.7460 0.7490 0.7550 0.7550 0.7550
666.696115 0.7570 0.7570 0.7570 0.7550 0.7550
670.671393 0.7550 0.7520 0.7510 0.7480 0.7371
674.646672 0.7340 0.7300 0.7220 0.7110 0.7090
678.621951 0.7090 0.7120 0.7140 0.7190 0.7250
682.597229 0.7250 0.7260 0.7270 0.7280 0.7310
686.572508 0.7320 0.7330 0.7340 0.7340 0.7340
690.547787 0.7350 0.7350 0.7330 0.7300 0.7230
694.523065 0.7190 0.7090 0.7020 0.6950 0.6940
698.498344 0.6930 0.6930 0.6920 0.6900 0.6900
702.473623 0.6880 0.6870 0.6860 0.6840 0.6830
706.448901 0.6810 0.6810 0.6800 0.6790 0.6790
710.424180 0.6790 0.6790 0.6790 0.6790 0.6800
714.399459 0.6800 0.6810 0.6830 0.6900 0.6970
718.374737 0.7000 0.7020 0.7080 0.7090 0.7100
722.350016 0.7100 0.7110 0.7130 0.7170 0.7210
726.325295 0.7230 0.7230 0.7230 0.7220 0.7200
730.300573 0.7170 0.7160 0.7100 0.7080 0.7020
734.275852 0.6970 0.6850 0.6740 0.6650 0.6521
738.251131 0.6330 0.6150 0.5960 0.5780 0.5600
742.226409 0.5600 0.5949 0.6299 0.6340 0.6619
746.201688 0.6780 0.6780 0.6680 0.6660 0.6600
750.176967 0.6550 0.6470 0.6420 0.6410 0.6390
754.152245 0.6380 0.6320 0.6060 0.5910 0.5900
758.127524 0.5312 0.5310 0.5459 0.5619 0.5968
762.102803 0.6080 0.6180 0.6300 0.6390 0.6760
766.078081 0.6810 0.6910 0.6930 0.6970 0.6990
770.053360 0.6990 0.6970 0.6970 0.6920 0.6860
774.028639 0.6840 0.6740 0.6620 0.6481 0.6331
778.003917 0.6180 0.6040 0.6040 0.6060 0.6150
781.979196 0.6230 0.6320 0.6410 0.6480 0.6609
785.954475 0.6670 0.6880 0.7080 0.7230 0.7270
789.929753 0.7270 0.7260 0.7260 0.7250 0.7240
793.905032 0.7230 0.7190 0.7190 0.7180 0.7180
797.880311 0.7150 0.7140 0.7120 0.7070 0.7030
801.855589 0.6990 0.6960 0.6960 0.6950 0.6950
805.830868 0.6930 0.6880 0.6830 0.6820 0.6800
809.806147 0.6760 0.6750 0.6720 0.6690 0.6520
813.781425 0.6370 0.6300 0.6161 0.5891 0.5621
817.756704 0.5550 0.5330 0.5070 0.5020 0.4970
821.731983 0.4880 0.4092 0.3592 0.3241 0.2882
825.707261 0.2670 0.2570 0.2180 0.2180 0.2250
829.682540 0.2739 0.2810 0.2830 0.2830 0.2900
833.657819 0.3090 0.3220 0.3230 0.3450 0.3700
837.633097 0.3720 0.3740 0.3780 0.3810 0.3969
841.608376 0.4160 0.4280 0.4440 0.4600 0.4620
845.583655 0.4620 0.4670 0.4999 0.5159 0.5230
849.558933 0.5400 0.5460 0.5490 0.5580 0.5670
853.534212 0.5810 0.5960 0.5980 0.6040 0.6060
857.509491 0.6060 0.6070 0.6070 0.6060 0.5990
861.484769 0.5910 0.5830 0.5760 0.5670 0.5580
865.460048 0.5580 0.5840 0.6270 0.6410 0.6640
869.435327 0.6730 0.6830 0.6980 0.6990 0.6900
873.410605 0.6900 0.6900 0.6900 0.6930 0.6940
877.385884 0.6960 0.6970 0.6970 0.6980 0.7010
881.361163 0.7040 0.7070 0.7100 0.7110 0.7160
885.336441 0.7160 0.7120 0.7110 0.7090 0.7060
889.311720 0.7020 0.6970 0.6920 0.6840 0.6760
893.286999 0.6740 0.6740 0.6740 0.6760 0.6860
897.262277 0.6910 0.7020 0.7130 0.7210 0.7280
901.237556 0.7330 0.7400 0.7440 0.7470 0.7480
905.212835 0.7480 0.7510 0.7510 0.7480 0.7480
909.188113 0.7460 0.7450 0.7440 0.7420 0.7410
913.163392 0.7390 0.7390 0.7390 0.7370 0.7360
917.138671 0.7360 0.7320 0.7270 0.7250 0.7250
921.113949 0.7210 0.7200 0.7170 0.7110 0.7110
925.089228 0.7160 0.7210 0.7220 0.7230 0.7250
929.064507 0.7260 0.7260 0.7220 0.7210 0.7180
933.039785 0.7180 0.7170 0.7160 0.7160 0.7160
937.015064 0.7150 0.7140 0.7120 0.7090 0.7070
940.990343 0.7040 0.7010 0.6990 0.6970 0.6970
944.965621 0.6960 0.6950 0.6860 0.6780 0.6750
948.940900 0.6750 0.6690 0.6650 0.6560 0.6401
952.916179 0.6360 0.6320 0.6160 0.6060 0.6000
956.891457 0.5970 0.5930 0.5790 0.5690 0.5650
960.866736 0.5640 0.5640 0.5630 0.5620 0.5580
964.842015 0.5550 0.5370 0.5270 0.5160 0.5140
968.817293 0.5130 0.5110 0.5030 0.5030 0.5130
972.792572 0.5130 0.5130 0.5060 0.4970 0.4950
976.767851 0.4900 0.4830 0.4760 0.4700 0.4630
980.743129 0.4600 0.4590 0.4580 0.4460 0.4271
984.718408 0.4180 0.4080 0.3940 0.3850 0.3780
988.693687 0.3660 0.3650 0.3660 0.3750 0.3840
992.668965 0.3920 0.3930 0.4130 0.4270 0.4380
996.644244 0.4460 0.4460 0.4390 0.4221 0.4041
1000.619523 0.3860 0.3720 0.3510 0.3300 0.3300
1004.594801 0.3380 0.3400 0.3410 0.3450 0.3470
1008.570080 0.3490 0.3570 0.3570 0.3510 0.3410
1012.545359 0.3340 0.3120 0.2911 0.2870 0.2721
1016.520637 0.2670 0.2490 0.2300 0.2100 0.1830
1020.495916 0.1690 0.1620 0.1560 0.1530 0.1510
1024.471195 0.1510 0.1500 0.1510 0.1530 0.1540
1028.446473 0.1550 0.1560 0.1550 0.1510 0.1460
1032.421752 0.1400 0.1350 0.1350 0.1410 0.1500
1036.397031 0.1560 0.1630 0.1790 0.1920 0.1990
1040.372309 0.2090 0.2120 0.2180 0.2260 0.2320
1044.347588 0.2370 0.2390 0.2420 0.2420 0.2320
1048.322867 0.2270 0.2230 0.2200 0.2180 0.2170
1052.298145 0.2140 0.2130 0.2130 0.2120 0.2110
1056.273424 0.2100 0.2040 0.1880 0.1750 0.1720
1060.248703 0.1720 0.1860 0.1860 0.1850 0.1830
1064.223981 0.1790 0.1770 0.1770 0.1740 0.1720
1068.199260 0.1670 0.1670 0.1640 0.1640 0.1670
1072.174539 0.1670 0.1670 0.1680 0.1680 0.1680
1076.149817 0.1670 0.1650 0.1630 0.1580 0.1570
1080.125096 0.1470 0.1470 0.1490 0.1540 0.1650
1084.100375 0.1770 0.1790 0.1810 0.1870 0.1880
1088.075653 0.1890 0.1920 0.1930 0.1940 0.1950
1092.050932 0.1960 0.1970 0.1970 0.1970 0.1960
1096.026211 0.1960 0.1950 0.1950 0.1930 0.1920
1100.001489 0.1900 0.1890 0.1860 0.1850 0.1840
1103.976768 0.1810 0.1790 0.1720 0.1670 0.1640
1107.952047 0.1640 0.1670 0.1680 0.1720 0.1780
1111.927325 0.1780 0.1790 0.1800 0.1840 0.1930
1115.902604 0.1980 0.1990 0.2000 0.2040 0.2080
1119.877883 0.2100 0.2290 0.2490 0.2530 0.2650
1123.853161 0.2790 0.2840 0.2980 0.3140 0.3270
1127.828440 0.3330 0.3390 0.3470 0.3490 0.3670
1131.803719 0.3700 0.3770 0.3790 0.3790 0.3770
1135.778997 0.3670 0.3650 0.3620 0.3430 0.3270
1139.754276 0.3260 0.3250 0.3260 0.3320 0.3440
1143.729555 0.3480 0.3530 0.3580 0.3650 0.3690
1147.704833 0.3730 0.3710 0.3550 0.3460 0.3181
1151.680112 0.3040 0.3030 0.3040 0.3070 0.3100
1155.655391 0.3130 0.3160 0.3180 0.3170 0.3130
1159.630669 0.3070 0.2980 0.2780 0.2260 0.1930
1163.605948 0.1620 0.1520 0.1410 0.1300 0.1180
1167.581227 0.1060 0.0990 0.0910 0.0830 0.0760
1171.556505 0.0750 0.0750 0.0770 0.0790 0.0880
1175.531784 0.0900 0.0970 0.1100 0.1240 0.1500
1179.507063 0.1790 0.2060 0.2320 0.2470 0.2669
1183.482341 0.2830 0.2990 0.3120 0.3270 0.3310
1187.457620 0.3480 0.3600 0.3720 0.3800 0.3969
1191.432899 0.4090 0.4150 0.4170 0.4180 0.4200
1195.408177 0.4200 0.4160 0.4090 0.4000 0.3910
1199.383456 0.3800 0.3740 0.3730 0.3690 0.3670
1203.358735 0.3680 0.3720 0.3790 0.3890 0.4039
1207.334013 0.4090 0.4180 0.4280 0.4370 0.4390
1211.309292 0.4430 0.4440 0.4420 0.4410 0.4390
1215.284571 0.4400 0.4420 0.4460 0.4480 0.4580
1219.259849 0.5000 0.5020 0.5030 0.5020 0.5000
1223.235128 0.4990 0.4890 0.4780 0.4590 0.4460
1227.210407 0.4200 0.4100 0.3880 0.3611 0.3391
1231.185685 0.3300 0.3180 0.2990 0.2900 0.2790
1235.160964 0.2720 0.2680 0.2530 0.2430 0.2161
1239.136243 0.1969 0.1610 0.1470 0.1410 0.1380
1243.111521 0.1290 0.1070 0.0950 0.0940 0.0910
1247.086800 0.0870 0.0800 0.0740 0.0740 0.0790
1251.062079 0.0830 0.0850 0.0860 0.0890 0.0900
1255.037357 0.0930 0.0940 0.0990 0.1020 0.1040
1259.012636 0.1080 0.1130 0.1190 0.1230 0.1290
1262.987915 0.1341 0.1590 0.1760 0.1870 0.2040
1266.963193 0.2270 0.2500 0.2740 0.2940 0.3110
1270.938472 0.3261 0.3421 0.3650 0.3790 0.3960
1274.913751 0.4090 0.4230 0.4320 0.4370 0.4430
1278.889029 0.4550 0.4580 0.4610 0.4620 0.4620
1282.864308 0.4620 0.4600 0.4580 0.4470 0.4231
1286.839587 0.4110 0.4020 0.3900 0.3840 0.3810
1290.814865 0.3810 0.3810 0.3820 0.3830 0.3850
1294.790144 0.3860 0.3900 0.3940 0.3970 0.3990
1298.765423 0.4020 0.4060 0.4090 0.4170 0.4140
1302.740701 0.4110 0.4090 0.4020 0.3830 0.3690
1306.715980 0.3600 0.3480 0.3330 0.3250 0.3220
1310.691259 0.3210 0.3210 0.3220 0.3250 0.3320
1314.666537 0.3470 0.3600 0.3670 0.3760 0.3850
1318.641816 0.4030 0.4170 0.4330 0.4410 0.4470
1322.617095 0.4480 0.4510 0.4590 0.4670 0.4680
1326.592373 0.4700 0.4720 0.4730 0.4760 0.4800
1330.567652 0.4900 0.5110 0.5170 0.5210 0.5320
1334.542931 0.5410 0.5560 0.5720 0.5760 0.5910
1338.518209 0.5980 0.6050 0.6090 0.6110 0.6130
1342.493488 0.6160 0.6180 0.6200 0.6200 0.6220
1346.468767 0.6200 0.6180 0.6120 0.6080 0.5990
1350.444045 0.5950 0.5910 0.5900 0.5920 0.5970
1354.419324 0.5980 0.6060 0.6070 0.6100 0.6190
1358.394603 0.6370 0.6390 0.6450 0.6460 0.6480
1362.369881 0.6530 0.6600 0.6660 0.6690 0.6790
1366.345160 0.6830 0.6860 0.6870 0.6890 0.6900
1370.320439 0.6910 0.6910 0.6900 0.6890 0.6870
1374.295717 0.6810 0.6790 0.6770 0.6760 0.6740
1378.270996 0.6690 0.6670 0.6590 0.6550 0.6460
1382.246275 0.6380 0.6330 0.6270 0.6270 0.6280
1386.221553 0.6310 0.6330 0.6380 0.6440 0.6500
1390.196832 0.6570 0.6700 0.6760 0.6790 0.6790
1394.172111 0.6800 0.6800 0.6790 0.6760 0.6660
1398.147389 0.6610 0.6520 0.6340 0.6270 0.6210
1402.122668 0.6060 0.5920 0.5800 0.5760 0.5600
1406.097947 0.5519 0.5180 0.5080 0.5030 0.4970
1410.073225 0.4880 0.4750 0.4570 0.4480 0.4380
1414.048504 0.4370 0.4330 0.4300 0.4270 0.4270
1418.023783 0.4230 0.4180 0.4170 0.4110 0.4010
1421.999061 0.3880 0.3870 0.3840 0.3810 0.3780
1425.974340 0.3700 0.3610 0.3530 0.3400 0.3270
1429.949619 0.3110 0.2990 0.2900 0.2830 0.2780
1433.924897 0.2680 0.2510 0.2390 0.2250 0.2170
1437.900176 0.2160 0.2150 0.2160 0.2160 0.2180
1441.875455 0.2210 0.2270 0.2340 0.2430 0.2629
1445.850733 0.2670 0.2790 0.2850 0.2970 0.3050
1449.826012 0.3200 0.3260 0.3280 0.3320 0.3370
1453.801291 0.3450 0.3480 0.3530 0.3580 0.3600
1457.776569 0.3650 0.3690 0.3860 0.3900 0.3960
1461.751848 0.3971 0.4121 0.4320 0.4390 0.4570
1465.727127 0.4740 0.5000 0.5160 0.5200 0.5270
1469.702405 0.5320 0.5420 0.5600 0.5690 0.5790
1473.677684 0.5860 0.6000 0.6090 0.6160 0.6180
1477.652963 0.6210 0.6270 0.6290 0.6270 0.6270
1481.628241 0.6230 0.6150 0.6110 0.6070 0.6000
1485.603520 0.5869 0.5670 0.5570 0.5470 0.5180
1489.578799 0.5060 0.5020 0.4980 0.4970 0.4800
1493.554077 0.4620 0.4530 0.4509 0.4310 0.4090
1497.529356 0.3860 0.3640 0.3410 0.3180 0.3000
1501.504635 0.2980 0.2860 0.2740 0.2680 0.2580
1505.479913 0.2420 0.2230 0.2180 0.2160 0.2150
1509.455192 0.2160 0.2160 0.2230 0.2270 0.2481
1513.430471 0.2810 0.3000 0.3320 0.3530 0.3760
1517.405749 0.3941 0.4242 0.5031 0.5490 0.5690
1521.381028 0.5800 0.5990 0.6230 0.6370 0.6420
1525.356307 0.6460 0.6530 0.6580 0.6620 0.6690
1529.331585 0.6750 0.6780 0.6790 0.6800 0.6810
1533.306864 0.6810 0.6800 0.6760 0.6750 0.6750
1537.282143 0.6720 0.6690 0.6570 0.6370 0.6180
1541.257421 0.6099 0.5969 0.5790 0.5760 0.5609
1545.232700 0.5280 0.5180 0.5060 0.5000 0.4960
1549.207979 0.4910 0.4880 0.4790 0.4770 0.4770
1553.183257 0.4790 0.4830 0.4870 0.4880 0.5080
1557.158536 0.5190 0.5200 0.5230 0.5230 0.5180
1561.133815 0.5090 0.5060 0.5010 0.5000 0.4980
1565.109093 0.4869 0.4720 0.4680 0.4670 0.4630
1569.084372 0.4490 0.4270 0.4170 0.3990 0.3880
1573.059651 0.3680 0.3650 0.3590 0.3550 0.3510
1577.034929 0.3460 0.3450 0.3430 0.3420 0.3430
1581.010208 0.3440 0.3460 0.3480 0.3490 0.3490
1584.985487 0.3480 0.3390 0.3360 0.3270 0.3180
1588.960765 0.2930 0.2789 0.2580 0.2370 0.2180
1592.936044 0.2110 0.1920 0.1700 0.1670 0.1620
1596.911323 0.1599 0.1470 0.1440 0.1370 0.1360
1600.886601 0.1350 0.1350 0.1360 0.1380 0.1440
1604.861880 0.1631 0.1791 0.1971 0.2231 0.2510
1608.837159 0.2790 0.3040 0.3300 0.3480 0.3760
1612.812437 0.3971 0.4271 0.4522 0.5000 0.5110
1616.787716 0.5180 0.5380 0.5620 0.5970 0.6030
1620.762995 0.6260 0.6320 0.6360 0.6410 0.6550
1624.738273 0.6590 0.6640 0.6690 0.6770 0.6800
1628.713552 0.6830 0.6860 0.6880 0.6910 0.6970
1632.688831 0.7000 0.7020 0.7040 0.7090 0.7100
1636.664109 0.7110 0.7130 0.7140 0.7180 0.7180
1640.639388 0.7200 0.7200 0.7220 0.7260 0.7270
1644.614667 0.7280 0.7310 0.7320 0.7370 0.7380
1648.589945 0.7390 0.7410 0.7440 0.7470 0.7480
1652.565224 0.7490 0.7510 0.7510 0.7530 0.7550
1656.540503 0.7550 0.7540 0.7530 0.7530 0.7530
1660.515781 0.7530 0.7530 0.7530 0.7530 0.7550
1664.491060 0.7550 0.7560 0.7550 0.7550 0.7530
1668.466339 0.7500 0.7490 0.7490 0.7480 0.7480
1672.441617 0.7480 0.7470 0.7490 0.7510 0.7530
1676.416896 0.7550 0.7570 0.7580 0.7590 0.7600
1680.392175 0.7600 0.7580 0.7580 0.7580 0.7580
1684.367453 0.7600 0.7600 0.7600 0.7600 0.7590
1688.342732 0.7580 0.7580 0.7590 0.7600 0.7600
1692.318011 0.7600 0.7620 0.7620 0.7640 0.7650
1696.293289 0.7670 0.7670 0.7650 0.7640 0.7620
1700.268568 0.7620 0.7620 0.7600 0.7590 0.7580
1704.243847 0.7580 0.7590 0.7610 0.7610 0.7630
1708.219125 0.7640 0.7640 0.7650 0.7650 0.7640
1712.194404 0.7640 0.7630 0.7630 0.7620 0.7630
1716.169683 0.7630 0.7630 0.7640 0.7650 0.7650
1720.144961 0.7650 0.7660 0.7660 0.7670 0.7670
1724.120240 0.7680 0.7680 0.7680 0.7690 0.7690
1728.095519 0.7700 0.7700 0.7710 0.7700 0.7710
1732.070797 0.7710 0.7700 0.7700 0.7700 0.7700
1736.046076 0.7690 0.7710 0.7720 0.7720 0.7730
1740.021355 0.7740 0.7750 0.7760 0.7770 0.7780
1743.996633 0.7780 0.7780 0.7780 0.7790 0.7790
1747.971912 0.7780 0.7760 0.7760 0.7760 0.7750
1751.947191 0.7750 0.7730 0.7730 0.7750 0.7760
1755.922469 0.7760 0.7780 0.7780 0.7780 0.7790
1759.897748 0.7790 0.7790 0.7720 0.7690 0.7690
1763.873027 0.7690 0.7690 0.7690 0.7720 0.7730
1767.848305 0.7740 0.7760 0.7770 0.7770 0.7780
1771.823584 0.7780 0.7780 0.7770 0.7770 0.7760
1775.798863 0.7750 0.7740 0.7730 0.7730 0.7720
1779.774141 0.7710 0.7690 0.7690 0.7690 0.7690
1783.749420 0.7680 0.7680 0.7690 0.7720 0.7720
1787.724699 0.7730 0.7740 0.7760 0.7760 0.7760
1791.699977 0.7760 0.7760 0.7760 0.7770 0.7770
1795.675256 0.7770 0.7780 0.7780 0.7780 0.7780
1799.650535 0.7780 0.7770 0.7770 0.7760 0.7760
1803.625813 0.7760 0.7750 0.7750 0.7740 0.7730
1807.601092 0.7720 0.7730 0.7720 0.7720 0.7720
1811.576371 0.7720 0.7710 0.7710 0.7710 0.7710
1815.551649 0.7710 0.7710 0.7710 0.7700 0.7710
1819.526928 0.7710 0.7710 0.7710 0.7700 0.7700
1823.502207 0.7690 0.7690 0.7690 0.7720 0.7720
1827.477485 0.7730 0.7740 0.7740 0.7750 0.7740
1831.452764 0.7740 0.7740 0.7740 0.7740 0.7740
1835.428043 0.7740 0.7750 0.7780 0.7780 0.7760
1839.403321 0.7740 0.7720 0.7710 0.7700 0.7690
1843.378600 0.7690 0.7690 0.7680 0.7710 0.7720
1847.353879 0.7720 0.7710 0.7700 0.7690 0.7700
1851.329157 0.7690 0.7690 0.7690 0.7680 0.7660
1855.304436 0.7690 0.7690 0.7710 0.7740 0.7740
1859.279715 0.7720 0.7690 0.7670 0.7670 0.7690
1863.254993 0.7690 0.7690 0.7690 0.7690 0.7690
1867.230272 0.7690 0.7690 0.7690 0.7690 0.7680
1871.205551 0.7680 0.7690 0.7690 0.7690 0.7690
1875.180829 0.7680 0.7680 0.7680 0.7670 0.7670
1879.156108 0.7670 0.7670 0.7670 0.7660 0.7650
1883.131387 0.7650 0.7650 0.7650 0.7640 0.7640
1887.106665 0.7640 0.7640 0.7640 0.7640 0.7640
1891.081944 0.7640 0.7640 0.7650 0.7650 0.7650
1895.057223 0.7650 0.7650 0.7670 0.7670 0.7670
1899.032501 0.7670 0.7670 0.7670 0.7670 0.7660
1903.007780 0.7650 0.7650 0.7640 0.7630 0.7630
1906.983059 0.7620 0.7600 0.7620 0.7630 0.7620
1910.958337 0.7600 0.7600 0.7600 0.7620 0.7620
1914.933616 0.7620 0.7620 0.7630 0.7620 0.7600
1918.908895 0.7600 0.7600 0.7600 0.7600 0.7600
1922.884173 0.7600 0.7600 0.7600 0.7620 0.7620
1926.859452 0.7630 0.7640 0.7640 0.7610 0.7600
1930.834731 0.7600 0.7600 0.7600 0.7600 0.7600
1934.810009 0.7600 0.7610 0.7620 0.7620 0.7600
1938.785288 0.7600 0.7600 0.7600 0.7590 0.7580
1942.760567 0.7600 0.7600 0.7600 0.7610 0.7610
1946.735845 0.7590 0.7580 0.7570 0.7570 0.7560
1950.711124 0.7550 0.7550 0.7570 0.7580 0.7600
1954.686403 0.7580 0.7580 0.7580 0.7560 0.7550
1958.661681 0.7540 0.7530 0.7530 0.7550 0.7550
1962.636960 0.7510 0.7510 0.7500 0.7500 0.7500
1966.612239 0.7490 0.7500 0.7500 0.7510 0.7530
1970.587517 0.7530 0.7540 0.7540 0.7550 0.7550
1974.562796 0.7550 0.7550 0.7550 0.7550 0.7580
1978.538075 0.7570 0.7580 0.7580 0.7580 0.7570
1982.513353 0.7570 0.7570 0.7560 0.7560 0.7560
1986.488632 0.7560 0.7560 0.7560 0.7560 0.7550
1990.463911 0.7550 0.7550 0.7550 0.7550 0.7550
1994.439189 0.7540 0.7540 0.7540 0.7540 0.7530
1998.414468 0.7530 0.7530 0.7540 0.7540 0.7540
2002.389747 0.7530 0.7520 0.7517 0.7515 0.7512
2006.365025 0.7510 0.7510 0.7510 0.7510 0.7509
2010.340304 0.7504 0.7499 0.7494 0.7490 0.7487
2014.315583 0.7485 0.7482 0.7480 0.7480 0.7480
2018.290861 0.7480 0.7479 0.7474 0.7469 0.7464
2022.266140 0.7459 0.7454 0.7449 0.7444 0.7438
2026.241419 0.7433 0.7428 0.7423 0.7419 0.7417
2030.216697 0.7414 0.7412 0.7410 0.7410 0.7410
2034.191976 0.7410 0.7409 0.7406 0.7404 0.7401
2038.167255 0.7399 0.7396 0.7394 0.7391 0.7390
2042.142533 0.7390 0.7390 0.7390 0.7390 0.7390
2046.117812 0.7390 0.7390 0.7390 0.7390 0.7390
2050.093091 0.7390 0.7390 0.7390 0.7390 0.7390
2054.068369 0.7392 0.7394 0.7397 0.7399 0.7400
2058.043648 0.7400 0.7400 0.7400 0.7400 0.7400
2062.018927 0.7400 0.7400 0.7402 0.7405 0.7407
2065.994205 0.7410 0.7410 0.7410 0.7410 0.7410
2069.969484 0.7412 0.7415 0.7417 0.7420 0.7422
2073.944763 0.7425 0.7427 0.7430 0.7432 0.7435
2077.920041 0.7437 0.7440 0.7440 0.7440 0.7440
2081.895320 0.7440 0.7443 0.7445 0.7448 0.7450
2085.870599 0.7450 0.7450 0.7450 0.7450 0.7453
2089.845877 0.7455 0.7458 0.7460 0.7460 0.7460
2093.821156 0.7460 0.7460 0.7460 0.7460 0.7460
2097.796435 0.7460 0.7460 0.7460 0.7460 0.7460
2101.771713 0.7460 0.7460 0.7460 0.7460 0.7460
2105.746992 0.7460 0.7460 0.7460 0.7460 0.7460
2109.722271 0.7460 0.7460 0.7460 0.7460 0.7460
2113.697549 0.7460 0.7460 0.7460 0.7460 0.7461
2117.672828 0.7464 0.7466 0.7469 0.7473 0.7478
2121.648107 0.7483 0.7488 0.7493 0.7498 0.7503
2125.623385 0.7508 0.7510 0.7510 0.7510 0.7510
2129.598664 0.7508 0.7506 0.7503 0.7501 0.7496
2133.573943 0.7491 0.7486 0.7481 0.7474 0.7467
2137.549221 0.7459 0.7452 0.7448 0.7446 0.7443
2141.524500 0.7440 0.7434 0.7426 0.7419 0.7411
2145.499779 0.7410 0.7410 0.7410 0.7410 0.7412
2149.475057 0.7415 0.7417 0.7420 0.7422 0.7425
2153.450336 0.7427 0.7430 0.7432 0.7435 0.7437
2157.425615 0.7440 0.7440 0.7440 0.7440 0.7440
2161.400893 0.7440 0.7440 0.7440 0.7440 0.7440
2165.376172 0.7440 0.7440 0.7440 0.7443 0.7445
2169.351451 0.7448 0.7450 0.7450 0.7450 0.7450
2173.326729 0.7450 0.7450 0.7450 0.7450 0.7449
2177.302008 0.7447 0.7444 0.7442 0.7438 0.7430
2181.277287 0.7423 0.7415 0.7409 0.7407 0.7404
2185.252565 0.7402 0.7397 0.7390 0.7382 0.7375
2189.227844 0.7366 0.7356 0.7345 0.7335 0.7326
2193.203123 0.7319 0.7311 0.7304 0.7299 0.7296
2197.178401 0.7294 0.7291 0.7289 0.7286 0.7284
2201.153680 0.7281 0.7277 0.7272 0.7267 0.7262
2205.128959 0.7255 0.7248 0.7240 0.7233 0.7227
2209.104237 0.7222 0.7217 0.7212 0.7208 0.7206
2213.079516 0.7203 0.7201 0.7193 0.7182 0.7172
2217.054795 0.7162 0.7158 0.7156 0.7153 0.7150
2221.030073 0.7148 0.7145 0.7143 0.7140 0.7140
2225.005352 0.7140 0.7140 0.7140 0.7142 0.7145
2228.980631 0.7147 0.7150 0.7152 0.7155 0.7157
2232.955909 0.7160 0.7160 0.7160 0.7160 0.7160
2236.931188 0.7160 0.7160 0.7160 0.7160 0.7163
2240.906467 0.7165 0.7168 0.7170 0.7173 0.7175
2244.881745 0.7178 0.7181 0.7186 0.7191 0.7196
2248.857024 0.7200 0.7200 0.7200 0.7200 0.7201
2252.832303 0.7203 0.7206 0.7208 0.7210 0.7210
2256.807581 0.7210 0.7210 0.7210 0.7210 0.7210
2260.782860 0.7210 0.7210 0.7210 0.7210 0.7210
2264.758139 0.7210 0.7210 0.7210 0.7210 0.7210
2268.733417 0.7210 0.7210 0.7210 0.7210 0.7210
2272.708696 0.7210 0.7210 0.7210 0.7210 0.7210
2276.683975 0.7210 0.7210 0.7210 0.7210 0.7210
2280.659253 0.7210 0.7210 0.7210 0.7210 0.7210
2284.634532 0.7210 0.7210 0.7210 0.7208 0.7206
2288.609811 0.7203 0.7201 0.7200 0.7200 0.7200
2292.585089 0.7200 0.7200 0.7200 0.7200 0.7200
2296.560368 0.7200 0.7200 0.7200 0.7200 0.7198
2300.535647 0.7195 0.7193 0.7190 0.7188 0.7185
2304.510925 0.7183 0.7180 0.7180 0.7180 0.7180
2308.486204 0.7180 0.7180 0.7180 0.7180 0.7180
2312.461483 0.7178 0.7175 0.7172 0.7170 0.7170
2316.436761 0.7170 0.7170 0.7170 0.7170 0.7170
2320.412040 0.7170 0.7170 0.7167 0.7165 0.7162
2324.387319 0.7160 0.7160 0.7160 0.7160 0.7159
2328.362597 0.7157 0.7154 0.7152 0.7149 0.7147
2332.337876 0.7144 0.7142 0.7140 0.7140 0.7140
2336.313155 0.7140 0.7140 0.7140 0.7140 0.7140
2340.288433 0.7140 0.7140 0.7140 0.7140 0.7140
2344.263712 0.7140 0.7140 0.7140 0.7139 0.7136
2348.238991 0.7134 0.7131 0.7127 0.7122 0.7117
2352.214269 0.7112 0.7110 0.7110 0.7110 0.7110
2356.189548 0.7106 0.7098 0.7090 0.7083 0.7075
2360.164827 0.7068 0.7060 0.7053 0.7042 0.7029
2364.140105 0.7016 0.7004 0.6996 0.6991 0.6986
2368.115384 0.6981 0.6971 0.6958 0.6946 0.6933
2372.090663 0.6916 0.6899 0.6881 0.6864 0.6850
2376.065941 0.6837 0.6825 0.6812 0.6804 0.6796
2380.041220 0.6788 0.6781 0.6778 0.6775 0.6773
2384.016499 0.6770 0.6768 0.6765 0.6763 0.6760
2387.991777 0.6757 0.6755 0.6752 0.6750 0.6750
2391.967056 0.6750 0.6750 0.6750 0.6750 0.6750
2395.942335 0.6750 0.6750 0.6750 0.6750 0.6750
2399.917613 0.6750 0.6747 0.6745 0.6742 0.6739
2403.892892 0.6734 0.6729 0.6724 0.6719 0.6717
2407.868171 0.6714 0.6712 0.6708 0.6700 0.6693
2411.843449 0.6685 0.6677 0.6667 0.6657 0.6646
2415.818728 0.6637 0.6630 0.6622 0.6615 0.6607
2419.794007 0.6599 0.6592 0.6584 0.6579 0.6576
2423.769285 0.6574 0.6571 0.6570 0.6570 0.6570
2427.744564 0.6570 0.6566 0.6559 0.6551 0.6543
2431.719843 0.6537 0.6532 0.6527 0.6522 0.6519
2435.695121 0.6516 0.6513 0.6511 0.6508 0.6506
2439.670400 0.6503 0.6501 0.6498 0.6496 0.6493
2443.645679 0.6491 0.6488 0.6486 0.6483 0.6481
2447.620957 0.6478 0.6476 0.6473 0.6471 0.6464
2451.596236 0.6456 0.6449 0.6441 0.6432 0.6421
2455.571515 0.6411 0.6401 0.6385 0.6367 0.6349
2459.546793 0.6332 0.6321 0.6311 0.6301 0.6291
2463.522072 0.6280 0.6270 0.6260 0.6250 0.6245
2467.497351 0.6240 0.6235 0.6230 0.6222 0.6215
2471.472629 0.6207 0.6200 0.6192 0.6184 0.6177
2475.447908 0.6169 0.6159 0.6148 0.6138 0.6127
2479.423187 0.6106 0.6086 0.6066 0.6048 0.6038
2483.398465 0.6028 0.6018 0.6009 0.6004 0.5999
2487.373744 0.5994 0.5989 0.5987 0.5984 0.5982
2491.349023 0.5978 0.5973 0.5968 0.5963 0.5958
2495.324301 0.5953 0.5948 0.5943 0.5936 0.5926
2499.299580 0.5916 0.5906 0.5896 0.5886 0.5876
2503.274859 0.5865 0.5855 0.5845 0.5835 0.5825
2507.250137 0.5813 0.5801 0.5788 0.5775 0.5764
2511.225416 0.5754 0.5744 0.5734 0.5725 0.5718
2515.200695 0.5710 0.5703 0.5695 0.5688 0.5680
2519.175973 0.5672 0.5665 0.5657 0.5650 0.5642
2523.151252 0.5638 0.5636 0.5633 0.5631 0.5628
2527.126531 0.5626 0.5623 0.5621 0.5618 0.5615
2531.101809 0.5613 0.5610 0.5608 0.5605 0.5603
2535.077088 0.5600 0.5600 0.5600 0.5600 0.5600
2539.052367 0.5598 0.5595 0.5593 0.5590 0.5590
2543.027645 0.5590 0.5590 0.5590 0.5587 0.5585
2547.002924 0.5582 0.5580 0.5577 0.5575 0.5572
2550.978203 0.5568 0.5545 0.5523 0.5500 0.5478
2554.953481 0.5466 0.5453 0.5441 0.5428 0.5412
2558.928760 0.5397 0.5382 0.5367 0.5355 0.5342
2562.904039 0.5330 0.5316 0.5298 0.5280 0.5263
2566.879317 0.5249 0.5247 0.5244 0.5242 0.5239
2570.854596 0.5237 0.5234 0.5232 0.5230 0.5230
2574.829875 0.5230 0.5230 0.5230 0.5230 0.5230
2578.805153 0.5230 0.5230 0.5230 0.5230 0.5230
2582.780432 0.5230 0.5230 0.5230 0.5230 0.5229
2586.755711 0.5226 0.5224 0.5221 0.5220 0.5220
2590.730989 0.5220 0.5220 0.5220 0.5220 0.5220
2594.706268 0.5220 0.5217 0.5212 0.5207 0.5202
2598.681547 0.5200 0.5200 0.5200 0.5200 0.5196
2602.656825 0.5191 0.5186 0.5181 0.5176 0.5171
2606.632104 0.5166 0.5161 0.5156 0.5151 0.5146
2610.607383 0.5141 0.5138 0.5135 0.5133 0.5130
2614.582661 0.5130 0.5130 0.5130 0.5130 0.5130
2618.557940 0.5130 0.5130 0.5130 0.5130 0.5130
2622.533219 0.5130 0.5130 0.5133 0.5135 0.5138
2626.508497 0.5140 0.5143 0.5145 0.5148 0.5150
2630.483776 0.5150 0.5150 0.5150 0.5150 0.5147
2634.459055 0.5145 0.5142 0.5140 0.5137 0.5134
2638.434333 0.5132 0.5129 0.5124 0.5119 0.5114
2642.409612 0.5109 0.5107 0.5104 0.5102 0.5099
2646.384891 0.5097 0.5094 0.5092 0.5090 0.5090
2650.360170 0.5090 0.5090 0.5088 0.5083 0.5078
2654.335448 0.5073 0.5070 0.5070 0.5070 0.5070
2658.310727 0.5069 0.5066 0.5064 0.5061 0.5059
2662.286006 0.5056 0.5054 0.5051 0.5049 0.5046
2666.261284 0.5044 0.5041 0.5037 0.5032 0.5027
2670.236563 0.5022 0.5018 0.5016 0.5013 0.5011
2674.211842 0.5010 0.5010 0.5010 0.5010 0.5010
2678.187120 0.5010 0.5010 0.5010 0.5008 0.5006
2682.162399 0.5003 0.5001 0.5000 0.5000 0.5000
2686.137678 0.5000 0.4998 0.4995 0.4993 0.4990
2690.112956 0.4990 0.4990 0.4990 0.4990 0.4988
2694.088235 0.4985 0.4983 0.4980 0.4980 0.4980
2698.063514 0.4980 0.4980 0.4977 0.4975 0.4972
2702.038792 0.4970 0.4970 0.4970 0.4970 0.4970
2706.014071 0.4970 0.4970 0.4970 0.4970 0.4970
2709.989350 0.4970 0.4970 0.4970 0.4973 0.4975
2713.964628 0.4978 0.4980 0.4980 0.4980 0.4980
2717.939907 0.4980 0.4980 0.4980 0.4980 0.4979
2721.915186 0.4977 0.4974 0.4972 0.4970 0.4970
2725.890464 0.4970 0.4970 0.4968 0.4963 0.4958
2729.865743 0.4953 0.4949 0.4946 0.4944 0.4941
2733.841022 0.4939 0.4936 0.4934 0.4931 0.4930
2737.816300 0.4930 0.4930 0.4930 0.4930 0.4930
2741.791579 0.4930 0.4930 0.4926 0.4918 0.4911
2745.766858 0.4903 0.4897 0.4892 0.4887 0.4882
2749.742136 0.4878 0.4876 0.4873 0.4871 0.4863
2753.717415 0.4853 0.4843 0.4833 0.4821 0.4808
2757.692694 0.4795 0.4783 0.4776 0.4771 0.4766
2761.667972 0.4761 0.4756 0.4751 0.4746 0.4741
2765.643251 0.4733 0.4726 0.4718 0.4711 0.4703
2769.618530 0.4696 0.4688 0.4681 0.4678 0.4675
2773.593808 0.4673 0.4670 0.4668 0.4665 0.4663
2777.569087 0.4660 0.4660 0.4660 0.4660 0.4660
2781.544366 0.4663 0.4665 0.4668 0.4671 0.4678
2785.519644 0.4686 0.4693 0.4702 0.4717 0.4732
2789.494923 0.4748 0.4762 0.4772 0.4782 0.4792
2793.470202 0.4801 0.4806 0.4811 0.4816 0.4821
2797.445480 0.4826 0.4831 0.4836 0.4842 0.4850
2801.420759 0.4857 0.4865 0.4871 0.4873 0.4876
2805.396038 0.4878 0.4882 0.4887 0.4892 0.4897
2809.371316 0.4901 0.4904 0.4906 0.4909 0.4910
2813.346595 0.4910 0.4910 0.4910 0.4909 0.4906
2817.321874 0.4904 0.4901 0.4900 0.4900 0.4900
2821.297152 0.4900 0.4898 0.4896 0.4893 0.4891
2825.272431 0.4888 0.4886 0.4883 0.4881 0.4877
2829.247710 0.4872 0.4867 0.4861 0.4856 0.4851
2833.222988 0.4846 0.4841 0.4838 0.4836 0.4833
2837.198267 0.4831 0.4828 0.4826 0.4823 0.4820
2841.173546 0.4818 0.4815 0.4813 0.4810 0.4810
2845.148824 0.4810 0.4810 0.4810 0.4808 0.4805
2849.124103 0.4803 0.4800 0.4800 0.4800 0.4800
2853.099382 0.4800 0.4797 0.4795 0.4792 0.4790
2857.074660 0.4790 0.4790 0.4790 0.4789 0.4782
2861.049939 0.4774 0.4767 0.4759 0.4754 0.4749
2865.025218 0.4744 0.4740 0.4737 0.4735 0.4732
2869.000496 0.4729 0.4724 0.4719 0.4714 0.4709
2872.975775 0.4707 0.4704 0.4702 0.4697 0.4687
2876.951054 0.4677 0.4667 0.4659 0.4657 0.4654
2880.926332 0.4652 0.4649 0.4647 0.4644 0.4642
2884.901611 0.4639 0.4636 0.4634 0.4631 0.4631
2888.876890 0.4634 0.4636 0.4639 0.4644 0.4651
2892.852168 0.4659 0.4666 0.4677 0.4689 0.4702
2896.827447 0.4714 0.4723 0.4728 0.4733 0.4738
2900.802726 0.4740 0.4740 0.4740 0.4740 0.4742
2904.778004 0.4744 0.4747 0.4749 0.4752 0.4754
2908.753283 0.4757 0.4759 0.4765 0.4773 0.4780
2912.728562 0.4788 0.4798 0.4808 0.4818 0.4828
2916.703840 0.4836 0.4844 0.4851 0.4859 0.4866
2920.679119 0.4874 0.4882 0.4889 0.4892 0.4895
2924.654398 0.4897 0.4900 0.4902 0.4905 0.4907
2928.629676 0.4910 0.4910 0.4910 0.4910 0.4910
2932.604955 0.4907 0.4905 0.4902 0.4900 0.4897
2936.580234 0.4895 0.4892 0.4890 0.4887 0.4885
2940.555512 0.4882 0.4880 0.4877 0.4875 0.4872
2944.530791 0.4870 0.4867 0.4865 0.4862 0.4859
2948.506070 0.4857 0.4854 0.4852 0.4850 0.4850
2952.481348 0.4850 0.4850 0.4852 0.4860 0.4867
2956.456627 0.4875 0.4881 0.4883 0.4886 0.4888
2960.431906 0.4891 0.4893 0.4896 0.4899 0.4901
2964.407184 0.4904 0.4906 0.4909 0.4910 0.4910
2968.382463 0.4910 0.4910 0.4909 0.4906 0.4904
2972.357742 0.4901 0.4900 0.4900 0.4900 0.4900
2976.333020 0.4900 0.4900 0.4900 0.4900 0.4902
2980.308299 0.4904 0.4907 0.4909 0.4912 0.4914
2984.283578 0.4917 0.4919 0.4924 0.4929 0.4934
2988.258856 0.4939 0.4944 0.4949 0.4954 0.4959
2992.234135 0.4962 0.4964 0.4967 0.4970 0.4974
2996.209414 0.4979 0.4984 0.4989 0.4994 0.4999
3000.184692 0.5004 0.5009 0.5014 0.5020 0.5025
3004.159971 0.5030 0.5035 0.5040 0.5045 0.5050
3008.135250 0.5055 0.5060 0.5065 0.5070 0.5075
3012.110528 0.5080 0.5085 0.5090 0.5095 0.5100
3016.085807 0.5106 0.5111 0.5118 0.5126 0.5134
3020.061086 0.5141 0.5149 0.5156 0.5164 0.5171
3024.036364 0.5176 0.5181 0.5186 0.5192 0.5199
3028.011643 0.5207 0.5214 0.5222 0.5229 0.5237
3031.986922 0.5245 0.5251 0.5257 0.5262 0.5267
3035.962200 0.5272 0.5277 0.5282 0.5287 0.5293
3039.937479 0.5300 0.5308 0.5316 0.5322 0.5327
3043.912758 0.5332 0.5337 0.5342 0.5347 0.5352
3047.888036 0.5358 0.5364 0.5371 0.5379 0.5387
3051.863315 0.5393 0.5398 0.5403 0.5408 0.5413
3055.838594 0.5418 0.5423 0.5428 0.5435 0.5442
3059.813872 0.5450 0.5457 0.5462 0.5464 0.5467
3063.789151 0.5469 0.5472 0.5474 0.5477 0.5479
3067.764430 0.5480 0.5480 0.5480 0.5480 0.5482
3071.739708 0.5485 0.5487 0.5490 0.5490 0.5490
3075.714987 0.5490 0.5490 0.5492 0.5495 0.5497
3079.690266 0.5500 0.5500 0.5500 0.5500 0.5500
3083.665544 0.5500 0.5500 0.5500 0.5500 0.5500
3087.640823 0.5500 0.5500 0.5500 0.5497 0.5495
3091.616102 0.5492 0.5490 0.5490 0.5490 0.5490
3095.591380 0.5490 0.5490 0.5490 0.5490 0.5490
3099.566659 0.5490 0.5490 0.5490 0.5490 0.5487
3103.541938 0.5484 0.5482 0.5480 0.5480 0.5480
3107.517216 0.5480 0.5479 0.5477 0.5474 0.5472
3111.492495 0.5469 0.5467 0.5464 0.5462 0.5460
3115.467774 0.5460 0.5460 0.5460 0.5459 0.5456
3119.443052 0.5454 0.5451 0.5449 0.5446 0.5444
3123.418331 0.5441 0.5434 0.5421 0.5409 0.5396
3127.393610 0.5377 0.5352 0.5327 0.5302 0.5282
3131.368888 0.5267 0.5252 0.5236 0.5227 0.5222
3135.344167 0.5217 0.5212 0.5205 0.5197 0.5190
3139.319446 0.5182 0.5178 0.5176 0.5173 0.5171
3143.294724 0.5168 0.5166 0.5163 0.5161 0.5160
3147.270003 0.5160 0.5160 0.5160 0.5158 0.5155
3151.245282 0.5153 0.5150 0.5148 0.5145 0.5143
3155.220560 0.5140 0.5136 0.5131 0.5125 0.5120
3159.195839 0.5106 0.5091 0.5076 0.5061 0.5046
3163.171118 0.5030 0.5015 0.5000 0.4995 0.4990
3167.146396 0.4985 0.4980 0.4975 0.4970 0.4965
3171.121675 0.4959 0.4946 0.4934 0.4921 0.4910
3175.096954 0.4907 0.4905 0.4902 0.4900 0.4897
3179.072232 0.4895 0.4892 0.4891 0.4893 0.4896
3183.047511 0.4898 0.4900 0.4900 0.4900 0.4900
3187.022790 0.4901 0.4906 0.4912 0.4917 0.4921
3190.998068 0.4923 0.4926 0.4928 0.4933 0.4940
3194.973347 0.4948 0.4955 0.4963 0.4971 0.4978
3198.948626 0.4986 0.4995 0.5005 0.5015 0.5025
3202.923904 0.5035 0.5045 0.5055 0.5065 0.5075
3206.899183 0.5086 0.5096 0.5106 0.5114 0.5122
3210.874462 0.5130 0.5137 0.5148 0.5160 0.5173
3214.849740 0.5186 0.5197 0.5207 0.5217 0.5227
3218.825019 0.5237 0.5247 0.5257 0.5267 0.5277
3222.800298 0.5287 0.5298 0.5308 0.5316 0.5323
3226.775576 0.5331 0.5338 0.5346 0.5354 0.5361
3230.750855 0.5369 0.5377 0.5384 0.5392 0.5399
3234.726134 0.5407 0.5414 0.5422 0.5430 0.5435
3238.701412 0.5440 0.5445 0.5450 0.5457 0.5465
3242.676691 0.5473 0.5480 0.5483 0.5485 0.5488
3246.651970 0.5490 0.5495 0.5500 0.5505 0.5510
3250.627248 0.5516 0.5521 0.5526 0.5531 0.5536
3254.602527 0.5541 0.5546 0.5550 0.5553 0.5555
3258.577806 0.5558 0.5561 0.5563 0.5566 0.5568
3262.553084 0.5571 0.5573 0.5576 0.5578 0.5581
3266.528363 0.5583 0.5586 0.5588 0.5592 0.5597
3270.503642 0.5602 0.5607 0.5611 0.5614 0.5616
3274.478920 0.5619 0.5620 0.5620 0.5620 0.5620
3278.454199 0.5621 0.5624 0.5626 0.5629 0.5631
3282.429478 0.5634 0.5636 0.5639 0.5641 0.5644
3286.404756 0.5646 0.5649 0.5651 0.5654 0.5656
3290.380035 0.5659 0.5660 0.5660 0.5660 0.5660
3294.355314 0.5663 0.5669 0.5674 0.5679 0.5682
3298.330592 0.5684 0.5687 0.5689 0.5690 0.5690
3302.305871 0.5690 0.5690 0.5690 0.5690 0.5690
3306.281150 0.5690 0.5690 0.5690 0.5690 0.5690
3310.256428 0.5690 0.5690 0.5690 0.5690 0.5690
3314.231707 0.5690 0.5690 0.5690 0.5690 0.5690
3318.206986 0.5690 0.5690 0.5692 0.5695 0.5698
3322.182264 0.5700 0.5700 0.5700 0.5700 0.5700
3326.157543 0.5700 0.5700 0.5700 0.5700 0.5700
3330.132822 0.5700 0.5700 0.5700 0.5697 0.5695
3334.108100 0.5692 0.5690 0.5690 0.5690 0.5690
3338.083379 0.5690 0.5690 0.5690 0.5690 0.5690
3342.058658 0.5690 0.5690 0.5690 0.5689 0.5687
3346.033936 0.5684 0.5682 0.5680 0.5680 0.5680
3350.009215 0.5680 0.5681 0.5683 0.5686 0.5689
3353.984494 0.5690 0.5690 0.5690 0.5690 0.5690
3357.959772 0.5690 0.5690 0.5690 0.5690 0.5690
3361.935051 0.5690 0.5690 0.5691 0.5694 0.5696
3365.910330 0.5699 0.5702 0.5704 0.5707 0.5709
3369.885608 0.5710 0.5710 0.5710 0.5710 0.5710
3373.860887 0.5710 0.5710 0.5710 0.5712 0.5714
3377.836166 0.5717 0.5719 0.5722 0.5724 0.5727
3381.811444 0.5729 0.5734 0.5739 0.5744 0.5749
3385.786723 0.5752 0.5755 0.5757 0.5760 0.5762
3389.762002 0.5765 0.5767 0.5770 0.5772 0.5775
3393.737280 0.5777 0.5780 0.5782 0.5785 0.5788
3397.712559 0.5790 0.5793 0.5795 0.5798 0.5800
3401.687838 0.5803 0.5805 0.5808 0.5810 0.5813
3405.663116 0.5815 0.5818 0.5820 0.5823 0.5825
3409.638395 0.5828 0.5831 0.5836 0.5841 0.5846
3413.613674 0.5850 0.5850 0.5850 0.5850 0.5851
3417.588952 0.5853 0.5856 0.5858 0.5861 0.5863
3421.564231 0.5866 0.5868 0.5871 0.5873 0.5876
3425.539510 0.5878 0.5881 0.5883 0.5886 0.5889
3429.514788 0.5892 0.5897 0.5902 0.5907 0.5911
3433.490067 0.5914 0.5916 0.5919 0.5925 0.5935
3437.465346 0.5945 0.5955 0.5961 0.5964 0.5966
3441.440624 0.5969 0.5973 0.5978 0.5983 0.5988
3445.415903 0.5993 0.5998 0.6003 0.6008 0.6013
3449.391182 0.6018 0.6023 0.6029 0.6030 0.6030
3453.366460 0.6030 0.6030 0.6032 0.6034 0.6037
3457.341739 0.6039 0.6042 0.6045 0.6047 0.6050
3461.317018 0.6054 0.6059 0.6064 0.6069 0.6072
3465.292296 0.6075 0.6077 0.6080 0.6085 0.6090
3469.267575 0.6095 0.6100 0.6102 0.6105 0.6107
3473.242854 0.6110 0.6112 0.6115 0.6118 0.6120
3477.218132 0.6128 0.6135 0.6143 0.6150 0.6153
3481.193411 0.6155 0.6158 0.6160 0.6163 0.6165
3485.168690 0.6168 0.6171 0.6176 0.6181 0.6186
3489.143968 0.6190 0.6193 0.6196 0.6198 0.6201
3493.119247 0.6203 0.6206 0.6208 0.6211 0.6213
3497.094526 0.6216 0.6218 0.6220 0.6220 0.6220
3501.069804 0.6220 0.6220 0.6220 0.6220 0.6220
3505.045083 0.6220 0.6220 0.6220 0.6220 0.6220
3509.020362 0.6220 0.6220 0.6220 0.6221 0.6224
3512.995640 0.6226 0.6229 0.6230 0.6230 0.6230
3516.970919 0.6230 0.6231 0.6234 0.6236 0.6239
3520.946198 0.6242 0.6244 0.6247 0.6249 0.6252
3524.921476 0.6254 0.6257 0.6259 0.6260 0.6260
3528.896755 0.6260 0.6260 0.6260 0.6260 0.6260
3532.872034 0.6260 0.6260 0.6260 0.6260 0.6260
3536.847312 0.6262 0.6265 0.6267 0.6270 0.6274
3540.822591 0.6279 0.6284 0.6289 0.6292 0.6295
3544.797870 0.6297 0.6300 0.6302 0.6305 0.6307
3548.773148 0.6310 0.6310 0.6310 0.6310 0.6310
3552.748427 0.6313 0.6315 0.6318 0.6320 0.6323
3556.723706 0.6325 0.6328 0.6330 0.6333 0.6335
3560.698984 0.6338 0.6340 0.6343 0.6345 0.6348
3564.674263 0.6350 0.6353 0.6355 0.6358 0.6360
3568.649542 0.6363 0.6366 0.6368 0.6371 0.6373
3572.624820 0.6376 0.6378 0.6380 0.6380 0.6380
3576.600099 0.6380 0.6380 0.6380 0.6380 0.6380
3580.575378 0.6381 0.6383 0.6386 0.6389 0.6391
3584.550656 0.6394 0.6396 0.6399 0.6401 0.6404
3588.525935 0.6406 0.6409 0.6411 0.6414 0.6416
3592.501214 0.6419 0.6423 0.6428 0.6433 0.6438
3596.476492 0.6441 0.6444 0.6446 0.6449 0.6452
3600.451771 0.6454 0.6457 0.6459 0.6462 0.6464
3604.427050 0.6467 0.6469 0.6468 0.6466 0.6463
3608.402328 0.6461 0.6458 0.6456 0.6453 0.6451
3612.377607 0.6450 0.6450 0.6450 0.6450 0.6448
3616.352886 0.6445 0.6443 0.6440 0.6438 0.6435
3620.328164 0.6433 0.6430 0.6430 0.6430 0.6430
3624.303443 0.6430 0.6432 0.6435 0.6437 0.6440
3628.278722 0.6447 0.6455 0.6462 0.6470 0.6473
3632.254000 0.6475 0.6478 0.6480 0.6483 0.6485
3636.229279 0.6488 0.6490 0.6490 0.6490 0.6490
3640.204558 0.6490 0.6493 0.6495 0.6498 0.6500
3644.179836 0.6500 0.6500 0.6500 0.6500 0.6500
3648.155115 0.6500 0.6500 0.6501 0.6503 0.6506
3652.130394 0.6508 0.6510 0.6510 0.6510 0.6510
3656.105672 0.6510 0.6510 0.6510 0.6510 0.6511
3660.080951 0.6513 0.6516 0.6519 0.6520 0.6520
3664.056230 0.6520 0.6520 0.6520 0.6520 0.6520
3668.031508 0.6520 0.6519 0.6516 0.6514 0.6511
3672.006787 0.6510 0.6510 0.6510 0.6510 0.6510
3675.982066 0.6510 0.6510 0.6510 0.6508 0.6506
3679.957344 0.6503 0.6501 0.6500 0.6500 0.6500
3683.932623 0.6500 0.6500 0.6500 0.6500 0.6500
3687.907902 0.6498 0.6496 0.6493 0.6491 0.6490
3691.883180 0.6490 0.6490 0.6490 0.6490 0.6490
3695.858459 0.6490 0.6490 0.6488 0.6485 0.6483
3699.833738 0.6480 0.6478 0.6475 0.6473 0.6470
3703.809016 0.6465 0.6460 0.6455 0.6450 0.6450
3707.784295 0.6450 0.6450 0.6450 0.6450 0.6450
3711.759574 0.6450 0.6450 0.6453 0.6455 0.6458
3715.734852 0.6460 0.6463 0.6465 0.6468 0.6470
3719.710131 0.6470 0.6470 0.6470 0.6470 0.6470
3723.685410 0.6470 0.6470 0.6469 0.6467 0.6464
3727.660688 0.6462 0.6459 0.6457 0.6454 0.6452
3731.635967 0.6450 0.6450 0.6450 0.6450 0.6449
3735.611246 0.6447 0.6444 0.6442 0.6439 0.6436
3739.586524 0.6434 0.6431 0.6429 0.6426 0.6424
3743.561803 0.6421 0.6420 0.6420 0.6420 0.6420
3747.537082 0.6420 0.6420 0.6420 0.6420 0.6420
3751.512360 0.6420 0.6420 0.6420 0.6420 0.6420
3755.487639 0.6420 0.6420 0.6420 0.6420 0.6420
3759.462918 0.6420 0.6420 0.6420 0.6420 0.6420
3763.438196 0.6418 0.6416 0.6413 0.6411 0.6408
3767.413475 0.6406 0.6403 0.6400 0.6400 0.6400
3771.388754 0.6400 0.6400 0.6398 0.6395 0.6393
3775.364032 0.6390 0.6392 0.6395 0.6397 0.6400
3779.339311 0.6400 0.6400 0.6400 0.6400 0.6402
3783.314590 0.6405 0.6407 0.6410 0.6410 0.6410
3787.289868 0.6410 0.6410 0.6410 0.6410 0.6410
3791.265147 0.6410 0.6407 0.6405 0.6402 0.6400
3795.240426 0.6400 0.6400 0.6400 0.6400 0.6400
3799.215704 0.6400 0.6400 0.6399 0.6394 0.6389
3803.190983 0.6384 0.6380 0.6380 0.6380 0.6380
3807.166262 0.6379 0.6377 0.6374 0.6372 0.6370
3811.141540 0.6370 0.6370 0.6370 0.6369 0.6367
3815.116819 0.6364 0.6362 0.6359 0.6356 0.6354
3819.092098 0.6351 0.6350 0.6350 0.6350 0.6350
3823.067376 0.6350 0.6350 0.6350 0.6350 0.6349
3827.042655 0.6346 0.6344 0.6341 0.6339 0.6336
3831.017934 0.6333 0.6331 0.6330 0.6330 0.6330
3834.993212 0.6330 0.6327 0.6322 0.6317 0.6312
3838.968491 0.6305 0.6297 0.6290 0.6282 0.6276
3842.943770 0.6271 0.6266 0.6261 0.6260 0.6260
3846.919048 0.6260 0.6260 0.6258 0.6255 0.6253
3850.894327 0.6250 0.6252 0.6255 0.6257 0.6260
3854.869606 0.6267 0.6274 0.6282 0.6289 0.6290
3858.844884 0.6290 0.6290 0.6290 0.6290 0.6290
3862.820163 0.6290 0.6290 0.6290 0.6290 0.6290
3866.795442 0.6290 0.6290 0.6290 0.6290 0.6290
3870.770720 0.6290 0.6290 0.6290 0.6289 0.6284
3874.745999 0.6279 0.6274 0.6270 0.6267 0.6265
3878.721278 0.6262 0.6260 0.6260 0.6260 0.6260
3882.696556 0.6261 0.6263 0.6266 0.6268 0.6270
3886.671835 0.6270 0.6270 0.6270 0.6272 0.6277
3890.647114 0.6282 0.6287 0.6290 0.6290 0.6290
3894.622392 0.6290 0.6290 0.6290 0.6290 0.6290
3898.597671 0.6290 0.6290 0.6290 0.6290 0.6290
3902.572950 0.6290 0.6290 0.6290 0.6287 0.6282
3906.548228 0.6277 0.6272 0.6269 0.6266 0.6263
3910.523507 0.6261 0.6260 0.6260 0.6260 0.6260
3914.498786 0.6258 0.6256 0.6253 0.6251 0.6248
3918.474064 0.6246 0.6243 0.6241 0.6242 0.6244
3922.449343 0.6247 0.6250 0.6252 0.6255 0.6257
3926.424622 0.6260 0.6260 0.6260 0.6260 0.6260
3930.399900 0.6260 0.6260 0.6260 0.6260 0.6260
3934.375179 0.6260 0.6260 0.6260 0.6258 0.6255
3938.350458 0.6253 0.6250 0.6248 0.6245 0.6242
3942.325736 0.6240 0.6240 0.6240 0.6240 0.6240
3946.301015 0.6237 0.6235 0.6232 0.6230 0.6227
3950.276294 0.6225 0.6222 0.6220 0.6220 0.6220
3954.251572 0.6220 0.6219 0.6217 0.6214 0.6212
3958.226851 0.6211 0.6213 0.6216 0.6218 0.6222
3962.202130 0.6230 0.6237 0.6245 0.6252 0.6257
3966.177408 0.6262 0.6267 0.6272 0.6277 0.6282
3970.152687 0.6287 0.6290 0.6290 0.6290 0.6290
3974.127966 0.6290 0.6290 0.6290 0.6290 0.6289
3978.103244 0.6286 0.6284 0.6281 0.6280 0.6280
3982.078523 0.6280 0.6280 0.6279 0.6276 0.6274
3986.053802 0.6271 0.6268 0.6266 0.6263 0.6261
3990.029080 0.6257 0.6252 0.6247 0.6242 0.6240
3994.004359 0.6240 0.6240 0.6240 0.6238 0.6236
3997.979638 0.6233 0.6231 0.6230 0.6230 0.6230
4001.954916 0.6230 0.6228 0.6225 0.6223 0.6220
4005.930195 0.6220 0.6220 0.6220 0.6220 0.6220
4009.905474 0.6220 0.6220 0.6220 0.6218 0.6215
4013.880752 0.6213 0.6210 0.6210 0.6210 0.6210
4017.856031 0.6210 0.6207 0.6205 0.6202 0.6200
4021.831310 0.6200 0.6200 0.6200 0.6200 0.6200
4025.806588 0.6200 0.6200 0.6200 0.6200 0.6200
4029.781867 0.6200 0.6200 0.6200 0.6200 0.6200
4033.757146 0.6201 0.6203 0.6206 0.6208 0.6211
4037.732424 0.6213 0.6216 0.6218 0.6220 0.6220
4041.707703 0.6220 0.6220 0.6220 0.6220 0.6220
4045.682982 0.6220 0.6220 0.6220 0.6220 0.6220
4049.658260 0.6222 0.6227 0.6232 0.6237 0.6240
4053.633539 0.6240 0.6240 0.6240 0.6240 0.6240
4057.608818 0.6240 0.6240 0.6237 0.6232 0.6227
4061.584096 0.6222 0.6220 0.6220 0.6220 0.6220
4065.559375 0.6217 0.6212 0.6207 0.6202 0.6200
4069.534654 0.6200 0.6200 0.6200 0.6198 0.6196
4073.509932 0.6193 0.6191 0.6190 0.6190 0.6190
4077.485211 0.6190 0.6190 0.6190 0.6190 0.6190
4081.460490 0.6190 0.6190 0.6190 0.6190 0.6190
4085.435768 0.6190 0.6190 0.6190 0.6190 0.6190
4089.411047 0.6190 0.6190 0.6188 0.6185 0.6183
4093.386326 0.6180 0.6178 0.6175 0.6172 0.6170
4097.361604 0.6170 0.6170 0.6170 0.6170 0.6170
4101.336883 0.6170 0.6170 0.6170 0.6170 0.6170
4105.312162 0.6170 0.6170 0.6167 0.6165 0.6162
4109.287440 0.6160 0.6157 0.6154 0.6152 0.6150
4113.262719 0.6150 0.6150 0.6150 0.6150 0.6150
4117.237998 0.6150 0.6150 0.6149 0.6147 0.6144
4121.213276 0.6142 0.6139 0.6137 0.6134 0.6132
4125.188555 0.6129 0.6127 0.6124 0.6121 0.6118
4129.163834 0.6113 0.6108 0.6103 0.6100 0.6100
4133.139112 0.6100 0.6100 0.6100 0.6100 0.6100
4137.114391 0.6100 0.6099 0.6096 0.6094 0.6091
4141.089670 0.6090 0.6090 0.6090 0.6090 0.6088
4145.064948 0.6086 0.6083 0.6081 0.6078 0.6076
4149.040227 0.6073 0.6071 0.6068 0.6066 0.6063
4153.015506 0.6061 0.6058 0.6056 0.6053 0.6051
4156.990784 0.6046 0.6041 0.6036 0.6031 0.6026
4160.966063 0.6021 0.6016 0.6011 0.6010 0.6010
4164.941342 0.6010 0.6010 0.6010 0.6010 0.6010
4168.916620 0.6010 0.6010 0.6010 0.6010 0.6010
4172.891899 0.6015 0.6020 0.6025 0.6030 0.6030
4176.867178 0.6030 0.6030 0.6030 0.6033 0.6035
4180.842456 0.6038 0.6040 0.6043 0.6045 0.6048
4184.817735 0.6050 0.6050 0.6050 0.6050 0.6050
4188.793014 0.6050 0.6050 0.6050 0.6050 0.6050
4192.768292 0.6050 0.6050 0.6050 0.6050 0.6050
4196.743571 0.6050 0.6050 0.6050 0.6050 0.6050
4200.718850 0.6050 0.6050 0.6050 0.6050 0.6049
4204.694128 0.6046 0.6044 0.6041 0.6040 0.6040
4208.669407 0.6040 0.6040 0.6039 0.6036 0.6034
4212.644686 0.6031 0.6030 0.6030 0.6030 0.6030
4216.619964 0.6030 0.6030 0.6030 0.6030 0.6027
4220.595243 0.6022 0.6017 0.6012 0.6008 0.6006
4224.570522 0.6003 0.6001 0.5998 0.5996 0.5993
4228.545800 0.5991 0.5988 0.5986 0.5983 0.5981
4232.521079 0.5978 0.5976 0.5973 0.5971 0.5968
4236.496358 0.5965 0.5963 0.5960 0.5960 0.5960
4240.471636 0.5960 0.5960 0.5960 0.5960 0.5960
4244.446915 0.5960 0.5960 0.5960 0.5960 0.5960
4248.422194 0.5960 0.5960 0.5960 0.5960 0.5963
4252.397472 0.5965 0.5968 0.5970 0.5970 0.5970
4256.372751 0.5970 0.5970 0.5975 0.5980 0.5986
4260.348030 0.5990 0.5990 0.5990 0.5990 0.5990
4264.323308 0.5993 0.5995 0.5998 0.6000 0.6003
4268.298587 0.6006 0.6008 0.6010 0.6010 0.6010
4272.273866 0.6010 0.6010 0.6010 0.6010 0.6010
4276.249144 0.6010 0.6010 0.6010 0.6010 0.6010
4280.224423 0.6010 0.6010 0.6010 0.6010 0.6010
4284.199702 0.6010 0.6010 0.6009 0.6006 0.6004
4288.174980 0.6001 0.5999 0.5996 0.5994 0.5991
4292.150259 0.5989 0.5986 0.5984 0.5981 0.5980
4296.125538 0.5980 0.5980 0.5980 0.5978 0.5976
4300.100816 0.5973 0.5971 0.5970 0.5970 0.5970
4304.076095 0.5970 0.5968 0.5966 0.5963 0.5961
4308.051374 0.5958 0.5956 0.5953 0.5951 0.5948
4312.026652 0.5945 0.5943 0.5940 0.5936 0.5931
4316.001931 0.5926 0.5921 0.5920 0.5920 0.5920
4319.977210 0.5920 0.5920 0.5920 0.5920 0.5920
4323.952488 0.5915 0.5910 0.5905 0.5900 0.5898
4327.927767 0.5895 0.5893 0.5890 0.5890 0.5890
4331.903046 0.5890 0.5890 0.5890 0.5890 0.5890
4335.878324 0.5890 0.5893 0.5895 0.5898 0.5900
4339.853603 0.5903 0.5905 0.5908 0.5910 0.5913
4343.828882 0.5916 0.5918 0.5920 0.5920 0.5920
4347.804160 0.5920 0.5921 0.5926 0.5931 0.5936
4351.779439 0.5941 0.5943 0.5946 0.5948 0.5951
4355.754718 0.5953 0.5956 0.5958 0.5958 0.5953
4359.729996 0.5948 0.5943 0.5940 0.5940 0.5940
4363.705275 0.5940 0.5938 0.5933 0.5927 0.5922
4367.680554 0.5919 0.5916 0.5914 0.5911 0.5909
4371.655832 0.5906 0.5904 0.5901 0.5900 0.5900
4375.631111 0.5900 0.5900 0.5900 0.5900 0.5900
4379.606390 0.5900 0.5902 0.5904 0.5907 0.5909
4383.581668 0.5912 0.5914 0.5917 0.5919 0.5920
4387.556947 0.5920 0.5920 0.5920 0.5924 0.5929
4391.532226 0.5934 0.5939 0.5942 0.5945 0.5947
4395.507504 0.5950 0.5952 0.5955 0.5957 0.5960
4399.482783 0.5962 0.5965 0.5967 0.5970 0.5972
4403.458062 0.5975 0.5977 0.5980 0.5983 0.5985
4407.433340 0.5988 0.5990 0.5990 0.5990 0.5990
4411.408619 0.5990 0.5987 0.5985 0.5982 0.5980
4415.383898 0.5977 0.5975 0.5972 0.5970 0.5970
4419.359176 0.5970 0.5970 0.5970 0.5967 0.5964
4423.334455 0.5962 0.5960 0.5960 0.5960 0.5960
4427.309734 0.5958 0.5953 0.5948 0.5943 0.5939
4431.285012 0.5937 0.5934 0.5932 0.5929 0.5927
4435.260291 0.5924 0.5921 0.5918 0.5913 0.5908
4439.235570 0.5903 0.5899 0.5896 0.5894 0.5891
4443.210848 0.5890 0.5890 0.5890 0.5890 0.5890
4447.186127 0.5890 0.5890 0.5890 0.5889 0.5886
4451.161406 0.5884 0.5881 0.5880 0.5880 0.5880
4455.136684 0.5880 0.5878 0.5876 0.5873 0.5871
4459.111963 0.5870 0.5870 0.5870 0.5870 0.5870
4463.087242 0.5870 0.5870 0.5870 0.5870 0.5870
4467.062520 0.5870 0.5870 0.5870 0.5870 0.5870
4471.037799 0.5870 0.5870 0.5870 0.5870 0.5870
4475.013078 0.5870 0.5870 0.5870 0.5870 0.5870
4478.988356 0.5870 0.5870 0.5870 0.5870 0.5870
4482.963635 0.5870 0.5870 0.5870 0.5870 0.5870
4486.938914 0.5870 0.5867 0.5865 0.5862 0.5860
4490.914192 0.5857 0.5855 0.5852 0.5850 0.5850
4494.889471 0.5850 0.5850 0.5850 0.5847 0.5844
4498.864750 0.5842 0.5839 0.5837 0.5834 0.5832
4502.840028 0.5829 0.5827 0.5824 0.5822 0.5819
4506.815307 0.5813 0.5808 0.5803 0.5797 0.5787
4510.790586 0.5776 0.5766 0.5758 0.5753 0.5748
4514.765864 0.5743 0.5740 0.5740 0.5740 0.5740
4518.741143 0.5741 0.5744 0.5746 0.5749 0.5753
4522.716422 0.5758 0.5763 0.5768 0.5771 0.5774
4526.691700 0.5776 0.5779 0.5783 0.5788 0.5793
4530.666979 0.5798 0.5802 0.5804 0.5807 0.5809
4534.642258 0.5812 0.5814 0.5817 0.5819 0.5820
4538.617536 0.5820 0.5820 0.5820 0.5820 0.5820
4542.592815 0.5820 0.5820 0.5820 0.5820 0.5820
4546.568094 0.5820 0.5822 0.5825 0.5827 0.5830
4550.543372 0.5830 0.5830 0.5830 0.5830 0.5830
4554.518651 0.5830 0.5830 0.5830 0.5828 0.5825
4558.493930 0.5823 0.5820 0.5820 0.5820 0.5820
4562.469208 0.5820 0.5820 0.5820 0.5820 0.5820
4566.444487 0.5820 0.5820 0.5820 0.5820 0.5820
4570.419766 0.5820 0.5820 0.5820 0.5820 0.5820
4574.395044 0.5820 0.5820 0.5820 0.5820 0.5820
4578.370323 0.5820 0.5820 0.5820 0.5820 0.5819
4582.345602 0.5817 0.5814 0.5812 0.5810 0.5810
4586.320880 0.5810 0.5810 0.5809 0.5807 0.5804
4590.296159 0.5802 0.5800 0.5800 0.5800 0.5800
4594.271438 0.5800 0.5800 0.5800 0.5800 0.5800
4598.246716 0.5800 0.5800 0.5800 0.5800 0.5800
4602.221995 0.5800 0.5800 0.5799 0.5796 0.5794
4606.197274 0.5791 0.5790 0.5790 0.5790 0.5790
4610.172552 0.5788 0.5786 0.5783 0.5781 0.5780
4614.147831 0.5780 0.5780 0.5780 0.5782 0.5784
4618.123110 0.5787 0.5789 0.5794 0.5799 0.5804
4622.098388 0.5809 0.5810 0.5810 0.5810 0.5810
4626.073667 0.5812 0.5815 0.5817 0.5820 0.5820
4630.048946 0.5820 0.5820 0.5820 0.5820 0.5820
4634.024224 0.5820 0.5820 0.5818 0.5815 0.5813
4637.999503 0.5810 0.5810 0.5810 0.5810 0.5810
4641.974782 0.5810 0.5810 0.5810 0.5810 0.5810
4645.950060 0.5810 0.5810 0.5810 0.5807 0.5805
4649.925339 0.5802 0.5800 0.5800 0.5800 0.5800
4653.900618 0.5799 0.5794 0.5789 0.5784 0.5778
4657.875896 0.5771 0.5763 0.5755 0.5749 0.5747
4661.851175 0.5744 0.5742 0.5740 0.5740 0.5740
4665.826454 0.5740 0.5741 0.5743 0.5746 0.5748
4669.801732 0.5751 0.5754 0.5756 0.5759 0.5760
4673.777011 0.5760 0.5760 0.5760 0.5760 0.5760
4677.752290 0.5760 0.5760 0.5760 0.5760 0.5760
4681.727568 0.5760 0.5756 0.5748 0.5740 0.5733
4685.702847 0.5730 0.5730 0.5730 0.5730 0.5727
4689.678126 0.5722 0.5717 0.5712 0.5705 0.5697
4693.653404 0.5690 0.5682 0.5678 0.5676 0.5673
4697.628683 0.5671 0.5670 0.5670 0.5670 0.5670
4701.603962 0.5672 0.5675 0.5677 0.5680 0.5684
4705.579240 0.5689 0.5694 0.5699 0.5704 0.5710
4709.554519 0.5715 0.5720 0.5722 0.5725 0.5727
4713.529798 0.5730 0.5730 0.5730 0.5730 0.5730
4717.505076 0.5730 0.5730 0.5730 0.5730 0.5730
4721.480355 0.5730 0.5730 0.5730 0.5730 0.5730
4725.455634 0.5730 0.5730 0.5730 0.5730 0.5730
4729.430912 0.5730 0.5730 0.5730 0.5730 0.5729
4733.406191 0.5724 0.5719 0.5714 0.5710 0.5710
4737.381470 0.5710 0.5710 0.5709 0.5703 0.5698
4741.356748 0.5693 0.5688 0.5683 0.5678 0.5673
4745.332027 0.5669 0.5666 0.5664 0.5661 0.5659
4749.307306 0.5656 0.5654 0.5651 0.5649 0.5646
4753.282584 0.5644 0.5641 0.5637 0.5632 0.5627
4757.257863 0.5622 0.5620 0.5620 0.5620 0.5620
4761.233142 0.5619 0.5616 0.5614 0.5611 0.5608
4765.208420 0.5606 0.5603 0.5601 0.5598 0.5596
4769.183699 0.5593 0.5591 0.5592 0.5594 0.5597
4773.158978 0.5599 0.5604 0.5609 0.5614 0.5619
4777.134256 0.5624 0.5629 0.5634 0.5639 0.5640
4781.109535 0.5640 0.5640 0.5640 0.5644 0.5649
4785.084814 0.5655 0.5660 0.5660 0.5660 0.5660
4789.060092 0.5660 0.5660 0.5660 0.5660 0.5660
4793.035371 0.5662 0.5665 0.5668 0.5670 0.5670
4797.010650 0.5670 0.5670 0.5670 0.5673 0.5675
4800.985928 0.5678 0.5680 0.5683 0.5685 0.5688
4804.961207 0.5690 0.5690 0.5690 0.5690 0.5690
4808.936486 0.5690 0.5690 0.5690 0.5690 0.5690
4812.911764 0.5690 0.5690 0.5689 0.5687 0.5684
4816.887043 0.5682 0.5680 0.5680 0.5680 0.5680
4820.862322 0.5679 0.5677 0.5674 0.5672 0.5669
4824.837600 0.5666 0.5664 0.5661 0.5660 0.5660
4828.812879 0.5660 0.5660 0.5659 0.5656 0.5654
4832.788158 0.5651 0.5649 0.5646 0.5644 0.5641
4836.763436 0.5640 0.5640 0.5640 0.5640 0.5640
4840.738715 0.5640 0.5640 0.5640 0.5637 0.5632
4844.713994 0.5627 0.5622 0.5620 0.5620 0.5620
4848.689272 0.5620 0.5620 0.5620 0.5620 0.5620
4852.664551 0.5620 0.5620 0.5620 0.5620 0.5618
4856.639830 0.5615 0.5613 0.5610 0.5608 0.5605
4860.615108 0.5603 0.5600 0.5598 0.5595 0.5593
4864.590387 0.5590 0.5590 0.5590 0.5590 0.5590
4868.565666 0.5590 0.5590 0.5590 0.5590 0.5590
4872.540944 0.5590 0.5590 0.5590 0.5590 0.5590
4876.516223 0.5590 0.5590 0.5590 0.5590 0.5590
4880.491502 0.5590 0.5590 0.5590 0.5590 0.5590
4884.466780 0.5587 0.5585 0.5582 0.5580 0.5580
4888.442059 0.5580 0.5580 0.5579 0.5577 0.5574
4892.417338 0.5572 0.5570 0.5570 0.5570 0.5570
4896.392616 0.5570 0.5570 0.5570 0.5570 0.5570
4900.367895 0.5570 0.5570 0.5570 0.5570 0.5570
4904.343174 0.5570 0.5570 0.5570 0.5570 0.5570
4908.318452 0.5570 0.5570 0.5570 0.5570 0.5570
4912.293731 0.5569 0.5566 0.5564 0.5561 0.5559
4916.269010 0.5556 0.5554 0.5551 0.5544 0.5534
4920.244288 0.5524 0.5514 0.5508 0.5506 0.5503
4924.219567 0.5501 0.5500 0.5500 0.5500 0.5500
4928.194846 0.5498 0.5496 0.5493 0.5491 0.5490
4932.170124 0.5490 0.5490 0.5490 0.5492 0.5495
4936.145403 0.5497 0.5500 0.5500 0.5500 0.5500
4940.120682 0.5500 0.5500 0.5500 0.5500 0.5500
4944.095960 0.5502 0.5505 0.5507 0.5510 0.5510
4948.071239 0.5510 0.5510 0.5510 0.5510 0.5510
4952.046518 0.5510 0.5510 0.5510 0.5510 0.5510
4956.021796 0.5510 0.5507 0.5505 0.5502 0.5500
4959.997075 0.5500 0.5500 0.5500 0.5500 0.5500
4963.972354 0.5500 0.5500 0.5499 0.5497 0.5494
4967.947632 0.5492 0.5489 0.5487 0.5484 0.5482
##END=
