##TITLE=SODIUM ZIRCONYL LACTATE
##JCAMP-DX=4.24
##DATA TYPE=INFRARED SPECTRUM
##CLASS=COBLENTZ
##OWNER=COBLENTZ SOCIETY
Collection (C) 2018 copyright by the U.S. Secretary of Commerce
on behalf of the United States of America. All rights reserved.
##DATE=Not specified, most likely prior to 1970
##MOLFORM=C9 H15 O10 Na Zr
##SOURCE REFERENCE=COBLENTZ NO. 3650
##$NIST ID=B6003650
##$NIST SOURCE=COBLENTZ
##$NIST IMAGE=cob3650
##SPECTROMETER/DATA SYSTEM=PERKIN-ELMER
##SAMPLING PROCEDURE=TRANSMISSION
##RESOLUTION=4
##DATA PROCESSING=DIGITIZED BY NIST FROM HARD COPY
##XUNITS=MICROMETERS
##YUNITS=TRANSMITTANCE
##XFACTOR=1.000000
##YFACTOR=1
##DELTAX=000.006126
##FIRSTX=2.025
##LASTX=15.5265
##FIRSTY=0.86
##MAXX=15.5265
##MINX=2.025
##MAXY=0.947
##MINY=0.143
##NPOINTS=2205
##XYDATA=(X++(Y..Y))
2.025000 0.8600 0.8610 0.8610 0.8630 0.8640
2.055645 0.8690 0.8690 0.8700 0.8720 0.8720
2.086000 0.8720 0.8720 0.8730 0.8750 0.8760
2.116645 0.8780 0.8780 0.8800 0.8800 0.8810
2.147000 0.8830 0.8830 0.8840 0.8860 0.8890
2.177645 0.8900 0.8900 0.8920 0.8930 0.8930
2.208000 0.8950 0.8950 0.8950 0.8950 0.8960
2.238645 0.8960 0.8980 0.8980 0.8960 0.8960
2.270000 0.8980 0.8980 0.8980 0.8980 0.8960
2.300645 0.8960 0.8960 0.8960 0.8960 0.8960
2.331000 0.8960 0.8980 0.8980 0.8980 0.9010
2.361645 0.9030 0.9040 0.9060 0.9070 0.9090
2.392000 0.9100 0.9120 0.9130 0.9150 0.9160
2.422645 0.9180 0.9180 0.9200 0.9200 0.9200
2.453000 0.9210 0.9210 0.9210 0.9210 0.9210
2.483645 0.9230 0.9230 0.9230 0.9230 0.9210
2.515000 0.9210 0.9230 0.9230 0.9230 0.9230
2.545645 0.9230 0.9230 0.9240 0.9240 0.9270
2.576000 0.9270 0.9290 0.9300 0.9300 0.9320
2.606645 0.9350 0.9360 0.9360 0.9360 0.9360
2.637000 0.9360 0.9360 0.9360 0.9360 0.9360
2.667645 0.9400 0.9430 0.9460 0.9470 0.9470
2.698000 0.9470 0.9460 0.9430 0.9410 0.9350
2.728645 0.9300 0.9200 0.9090 0.8830 0.8670
2.760000 0.8440 0.8360 0.8150 0.7950 0.7920
2.790645 0.7690 0.7350 0.6960 0.6630 0.6380
2.821000 0.6130 0.5950 0.5720 0.5320 0.5150
2.851645 0.4980 0.4720 0.4610 0.4430 0.4200
2.882000 0.4030 0.3930 0.3840 0.3750 0.3670
2.912645 0.3520 0.3460 0.3410 0.3380 0.3300
2.943000 0.3260 0.3240 0.3230 0.3210 0.3160
2.973645 0.3150 0.3150 0.3160 0.3180 0.3180
3.005000 0.3180 0.3180 0.3180 0.3180 0.3180
3.035645 0.3200 0.3210 0.3230 0.3290 0.3300
3.066000 0.3330 0.3380 0.3410 0.3440 0.3460
3.096645 0.3530 0.3560 0.3580 0.3640 0.3700
3.127000 0.3800 0.3870 0.3960 0.4070 0.4100
3.157645 0.4200 0.4290 0.4380 0.4490 0.4580
3.189000 0.4640 0.4810 0.4890 0.5000 0.5040
3.219645 0.5100 0.5160 0.5320 0.5360 0.5400
3.250000 0.5490 0.5600 0.5630 0.5640 0.5700
3.280645 0.5730 0.5750 0.5800 0.5840 0.5890
3.311000 0.5920 0.5930 0.5900 0.5870 0.5780
3.341645 0.5700 0.5500 0.5260 0.5160 0.5030
3.372000 0.4960 0.4890 0.4840 0.4840 0.4830
3.402645 0.4830 0.4830 0.4830 0.4830 0.4830
3.434000 0.4840 0.4860 0.4920 0.5000 0.5040
3.464645 0.5100 0.5160 0.5210 0.5270 0.5350
3.495000 0.5400 0.5460 0.5520 0.5580 0.5630
3.525645 0.5780 0.6040 0.6330 0.6690 0.7090
3.556000 0.7300 0.7430 0.7600 0.7670 0.7750
3.586645 0.7830 0.7980 0.8090 0.8130 0.8160
3.617000 0.8180 0.8200 0.8230 0.8270 0.8300
3.647645 0.8320 0.8330 0.8350 0.8360 0.8360
3.679000 0.8360 0.8360 0.8360 0.8380 0.8410
3.709645 0.8430 0.8440 0.8460 0.8470 0.8470
3.740000 0.8470 0.8490 0.8550 0.8560 0.8580
3.770645 0.8610 0.8630 0.8630 0.8630 0.8630
3.801000 0.8640 0.8660 0.8660 0.8670 0.8670
3.831645 0.8670 0.8670 0.8690 0.8690 0.8700
3.862000 0.8700 0.8720 0.8720 0.8720 0.8720
3.892645 0.8700 0.8700 0.8700 0.8720 0.8730
3.924000 0.8730 0.8760 0.8760 0.8760 0.8730
3.954645 0.8730 0.8730 0.8750 0.8760 0.8780
3.985000 0.8780 0.8780 0.8780 0.8780 0.8780
4.015645 0.8780 0.8780 0.8800 0.8800 0.8800
4.046000 0.8810 0.8810 0.8810 0.8800 0.8800
4.076645 0.8800 0.8800 0.8800 0.8800 0.8810
4.107000 0.8810 0.8810 0.8830 0.8830 0.8840
4.137645 0.8840 0.8840 0.8860 0.8860 0.8890
4.169000 0.8900 0.8900 0.8900 0.8900 0.8900
4.199645 0.8900 0.8900 0.8900 0.8900 0.8900
4.230000 0.8920 0.8930 0.8930 0.8950 0.8950
4.260645 0.8950 0.8950 0.8930 0.8930 0.8930
4.291000 0.8930 0.8930 0.8930 0.8930 0.8930
4.321645 0.8930 0.8930 0.8950 0.8950 0.8950
4.352000 0.8930 0.8920 0.8900 0.8900 0.8810
4.382645 0.8800 0.8800 0.8810 0.8810 0.8810
4.414000 0.8800 0.8800 0.8800 0.8780 0.8780
4.444645 0.8780 0.8800 0.8800 0.8800 0.8800
4.475000 0.8780 0.8780 0.8780 0.8780 0.8780
4.505645 0.8760 0.8760 0.8760 0.8760 0.8760
4.536000 0.8760 0.8760 0.8760 0.8780 0.8780
4.566645 0.8800 0.8800 0.8810 0.8810 0.8810
4.598000 0.8810 0.8810 0.8810 0.8810 0.8810
4.628645 0.8810 0.8830 0.8840 0.8860 0.8860
4.659000 0.8860 0.8860 0.8860 0.8860 0.8840
4.689645 0.8840 0.8840 0.8870 0.8900 0.8870
4.720000 0.8870 0.8870 0.8870 0.8870 0.8870
4.750645 0.8870 0.8870 0.8870 0.8900 0.8900
4.781000 0.8900 0.8900 0.8900 0.8870 0.8870
4.811645 0.8860 0.8860 0.8840 0.8840 0.8830
4.843000 0.8840 0.8920 0.8920 0.8900 0.8870
4.873645 0.8870 0.8870 0.8890 0.8920 0.8920
4.904000 0.8900 0.8920 0.8920 0.8900 0.8900
4.934645 0.8920 0.8920 0.8920 0.8920 0.8920
4.965000 0.8920 0.8870 0.8870 0.8870 0.8870
4.995645 0.8890 0.8890 0.8900 0.8920 0.8920
5.026000 0.8900 0.8900 0.8900 0.8900 0.8890
5.056645 0.8890 0.8870 0.8870 0.8860 0.8860
5.088000 0.8860 0.8840 0.8840 0.8840 0.8830
5.118645 0.8830 0.8830 0.8840 0.8830 0.8810
5.149000 0.8800 0.8800 0.8800 0.8780 0.8760
5.179645 0.8750 0.8730 0.8730 0.8760 0.8750
5.210000 0.8730 0.8720 0.8700 0.8700 0.8700
5.240645 0.8700 0.8700 0.8690 0.8670 0.8670
5.271000 0.8670 0.8660 0.8660 0.8610 0.8580
5.301645 0.8550 0.8550 0.8530 0.8530 0.8530
5.333000 0.8530 0.8520 0.8500 0.8500 0.8470
5.363645 0.8440 0.8430 0.8410 0.8410 0.8410
5.394000 0.8400 0.8360 0.8350 0.8350 0.8330
5.424645 0.8330 0.8330 0.8330 0.8330 0.8320
5.455000 0.8290 0.8270 0.8270 0.8270 0.8230
5.485645 0.8210 0.8200 0.8200 0.8160 0.8160
5.516000 0.8160 0.8150 0.8130 0.8120 0.8120
5.546645 0.8090 0.8070 0.8040 0.8030 0.8010
5.578000 0.8000 0.7960 0.7920 0.7890 0.7860
5.608645 0.7840 0.7830 0.7780 0.7760 0.7750
5.639000 0.7730 0.7720 0.7640 0.7550 0.7520
5.669645 0.7520 0.7490 0.7460 0.7460 0.7350
5.700000 0.7330 0.7290 0.7270 0.7240 0.7210
5.730645 0.7090 0.7030 0.7000 0.6830 0.6800
5.762000 0.6720 0.6660 0.6610 0.6470 0.6320
5.792645 0.6210 0.6090 0.5960 0.5930 0.5900
5.823000 0.5890 0.5670 0.5530 0.5360 0.5230
5.853645 0.5040 0.4920 0.4750 0.4600 0.4520
5.884000 0.4400 0.4330 0.4090 0.3560 0.3230
5.914645 0.3030 0.2890 0.2810 0.2720 0.2630
5.945000 0.2520 0.2320 0.2180 0.2100 0.2010
5.975645 0.1930 0.1930 0.1920 0.1890 0.1860
6.007000 0.1780 0.1750 0.1750 0.1730 0.1700
6.037645 0.1670 0.1660 0.1610 0.1600 0.1580
6.068000 0.1580 0.1530 0.1520 0.1520 0.1500
6.098645 0.1470 0.1460 0.1460 0.1460 0.1460
6.129000 0.1440 0.1440 0.1430 0.1430 0.1430
6.159645 0.1430 0.1430 0.1430 0.1430 0.1430
6.190000 0.1430 0.1430 0.1430 0.1430 0.1440
6.220645 0.1440 0.1440 0.1440 0.1440 0.1440
6.252000 0.1440 0.1440 0.1440 0.1440 0.1440
6.282645 0.1440 0.1460 0.1470 0.1500 0.1550
6.313000 0.1580 0.1600 0.1610 0.1660 0.1720
6.343645 0.1750 0.1840 0.1980 0.2000 0.2030
6.374000 0.2150 0.2200 0.2270 0.2350 0.2430
6.404645 0.2520 0.2580 0.2640 0.2730 0.2900
6.435000 0.3060 0.3380 0.3530 0.3550 0.3720
6.465645 0.3800 0.3870 0.3890 0.3930 0.3980
6.497000 0.4150 0.4270 0.4410 0.4580 0.4720
6.527645 0.4840 0.4930 0.5120 0.5240 0.5320
6.558000 0.5430 0.5490 0.5530 0.5580 0.5630
6.588645 0.5690 0.5780 0.5840 0.5900 0.5960
6.619000 0.5980 0.6000 0.6010 0.6010 0.6010
6.649645 0.6010 0.6070 0.6090 0.6100 0.6120
6.680000 0.6120 0.6100 0.6100 0.6090 0.6060
6.710645 0.5980 0.5930 0.5900 0.5830 0.5700
6.742000 0.5630 0.5580 0.5530 0.5410 0.5350
6.772645 0.5320 0.5300 0.5290 0.5290 0.5270
6.803000 0.5200 0.5160 0.5120 0.5090 0.5070
6.833645 0.5010 0.5010 0.5000 0.4890 0.4860
6.864000 0.4810 0.4730 0.4700 0.4630 0.4530
6.894645 0.4410 0.4290 0.4130 0.3920 0.3830
6.926000 0.3660 0.3550 0.3500 0.3490 0.3500
6.956645 0.3550 0.3630 0.3700 0.3730 0.3810
6.987000 0.3870 0.3890 0.3890 0.3860 0.3780
7.017645 0.3720 0.3660 0.3610 0.3550 0.3470
7.048000 0.3380 0.3300 0.3270 0.3150 0.3030
7.078645 0.2960 0.2870 0.2800 0.2720 0.2630
7.109000 0.2530 0.2430 0.2320 0.2290 0.2230
7.139645 0.2180 0.2180 0.2120 0.2090 0.2070
7.171000 0.2030 0.2030 0.2010 0.2010 0.2010
7.201645 0.1980 0.1950 0.1920 0.1920 0.1920
7.232000 0.1870 0.1840 0.1810 0.1800 0.1800
7.262645 0.1800 0.1800 0.1800 0.1800 0.1800
7.293000 0.1810 0.1830 0.1830 0.1830 0.1840
7.323645 0.1860 0.1870 0.1890 0.1920 0.1930
7.354000 0.2000 0.2030 0.2030 0.2030 0.2030
7.384645 0.2010 0.2010 0.2000 0.2000 0.2000
7.416000 0.2010 0.2010 0.2010 0.2010 0.2040
7.446645 0.2090 0.2120 0.2150 0.2180 0.2240
7.477000 0.2320 0.2440 0.2520 0.2560 0.2720
7.507645 0.2890 0.3040 0.3100 0.3180 0.3330
7.538000 0.3360 0.3410 0.3470 0.3560 0.3610
7.568645 0.3630 0.3640 0.3640 0.3640 0.3660
7.599000 0.3670 0.3700 0.3700 0.3700 0.3700
7.629645 0.3720 0.3720 0.3720 0.3720 0.3750
7.661000 0.3810 0.3830 0.3890 0.3900 0.3980
7.691645 0.4010 0.4060 0.4070 0.4120 0.4150
7.722000 0.4160 0.4160 0.4200 0.4200 0.4180
7.752645 0.4090 0.4010 0.3980 0.3960 0.3840
7.783000 0.3800 0.3750 0.3720 0.3700 0.3730
7.813645 0.3800 0.3830 0.3840 0.3900 0.3980
7.844000 0.4090 0.4210 0.4270 0.4330 0.4410
7.874645 0.4560 0.4610 0.4720 0.4810 0.4900
7.906000 0.4950 0.5040 0.5070 0.5130 0.5150
7.936645 0.5180 0.5210 0.5230 0.5240 0.5240
7.967000 0.5240 0.5290 0.5350 0.5360 0.5400
7.997645 0.5460 0.5520 0.5580 0.5640 0.5640
8.028000 0.5670 0.5720 0.5760 0.5810 0.5890
8.058645 0.5930 0.5960 0.5980 0.6030 0.6040
8.090000 0.6100 0.6150 0.6160 0.6210 0.6260
8.120645 0.6270 0.6330 0.6350 0.6360 0.6400
8.151000 0.6460 0.6490 0.6550 0.6560 0.6580
8.181645 0.6580 0.6600 0.6630 0.6660 0.6690
8.212000 0.6700 0.6720 0.6730 0.6730 0.6730
8.242645 0.6750 0.6760 0.6800 0.6840 0.6840
8.273000 0.6860 0.6860 0.6870 0.6890 0.6920
8.303645 0.6930 0.6930 0.6930 0.6930 0.6960
8.335000 0.6980 0.7000 0.6980 0.7000 0.7010
8.365645 0.7030 0.7060 0.7090 0.7090 0.7100
8.396000 0.7100 0.7100 0.7090 0.7090 0.7100
8.426645 0.7090 0.7090 0.7100 0.7100 0.7100
8.457000 0.7120 0.7130 0.7130 0.7130 0.7130
8.487645 0.7130 0.7130 0.7160 0.7160 0.7150
8.518000 0.7150 0.7130 0.7130 0.7120 0.7120
8.548645 0.7100 0.7090 0.7090 0.7010 0.6960
8.580000 0.6950 0.6930 0.6930 0.6860 0.6830
8.610645 0.6800 0.6730 0.6640 0.6520 0.6430
8.641000 0.6300 0.6200 0.6030 0.5930 0.5900
8.671645 0.5690 0.5490 0.5410 0.5300 0.5180
8.702000 0.5000 0.4830 0.4730 0.4670 0.4580
8.732645 0.4470 0.4270 0.4120 0.4010 0.3840
8.763000 0.3720 0.3640 0.3560 0.3470 0.3400
8.793645 0.3360 0.3260 0.3090 0.2870 0.2840
8.825000 0.2760 0.2660 0.2560 0.2500 0.2440
8.855645 0.2350 0.2330 0.2300 0.2210 0.2180
8.886000 0.2160 0.2160 0.2130 0.2120 0.2120
8.916645 0.2120 0.2100 0.2090 0.2070 0.2070
8.947000 0.2090 0.2120 0.2150 0.2160 0.2200
8.977645 0.2290 0.2320 0.2400 0.2500 0.2530
9.008000 0.2630 0.2720 0.2800 0.2890 0.2900
9.038645 0.3030 0.3150 0.3200 0.3260 0.3320
9.070000 0.3330 0.3350 0.3380 0.3400 0.3410
9.100645 0.3430 0.3430 0.3380 0.3330 0.3320
9.131000 0.3260 0.3240 0.3230 0.3180 0.3160
9.161645 0.3120 0.3100 0.3060 0.3010 0.3000
9.192000 0.3000 0.2980 0.2960 0.2950 0.2950
9.222645 0.2960 0.3030 0.3100 0.3180 0.3210
9.254000 0.3260 0.3400 0.3550 0.3560 0.3670
9.284645 0.3760 0.3900 0.4010 0.4090 0.4160
9.315000 0.4230 0.4270 0.4320 0.4400 0.4410
9.345645 0.4460 0.4460 0.4460 0.4430 0.4400
9.376000 0.4360 0.4350 0.4320 0.4320 0.4270
9.406645 0.4130 0.3960 0.3830 0.3690 0.3400
9.437000 0.3240 0.3120 0.2960 0.2830 0.2730
9.467645 0.2610 0.2460 0.2430 0.2410 0.2410
9.499000 0.2400 0.2180 0.2130 0.2100 0.2100
9.529645 0.2090 0.2090 0.2100 0.2150 0.2270
9.560000 0.2290 0.2360 0.2410 0.2470 0.2580
9.590645 0.2670 0.2720 0.2920 0.3060 0.3230
9.621000 0.3320 0.3430 0.3550 0.3600 0.3690
9.651645 0.3810 0.3920 0.4130 0.4210 0.4300
9.682000 0.4400 0.4490 0.4530 0.4640 0.4810
9.712645 0.5000 0.5040 0.5130 0.5260 0.5330
9.744000 0.5410 0.5500 0.5630 0.5720 0.5830
9.774645 0.5900 0.5980 0.6060 0.6090 0.6130
9.805000 0.6210 0.6270 0.6320 0.6330 0.6380
9.835645 0.6440 0.6470 0.6490 0.6580 0.6630
9.866000 0.6690 0.6730 0.6760 0.6800 0.6800
9.896645 0.6800 0.6830 0.6840 0.6870 0.6870
9.927000 0.6890 0.6930 0.6950 0.6960 0.6980
9.957645 0.7010 0.7030 0.7040 0.7060 0.7060
9.989000 0.7070 0.7100 0.7100 0.7130 0.7160
10.019645 0.7200 0.7200 0.7200 0.7210 0.7260
10.050000 0.7270 0.7270 0.7290 0.7290 0.7300
10.080645 0.7300 0.7330 0.7350 0.7360 0.7380
10.111000 0.7410 0.7430 0.7440 0.7460 0.7470
10.141645 0.7490 0.7500 0.7500 0.7520 0.7520
10.172000 0.7530 0.7530 0.7530 0.7530 0.7530
10.202645 0.7530 0.7530 0.7550 0.7550 0.7560
10.234000 0.7560 0.7580 0.7600 0.7610 0.7610
10.264645 0.7610 0.7610 0.7610 0.7610 0.7630
10.295000 0.7630 0.7630 0.7630 0.7630 0.7640
10.325645 0.7660 0.7700 0.7720 0.7720 0.7720
10.356000 0.7720 0.7720 0.7720 0.7720 0.7720
10.386645 0.7720 0.7730 0.7750 0.7750 0.7750
10.418000 0.7750 0.7750 0.7750 0.7750 0.7750
10.448645 0.7750 0.7730 0.7730 0.7750 0.7750
10.479000 0.7750 0.7760 0.7780 0.7780 0.7800
10.509645 0.7780 0.7730 0.7720 0.7700 0.7690
10.540000 0.7660 0.7660 0.7640 0.7640 0.7630
10.570645 0.7560 0.7550 0.7520 0.7470 0.7410
10.601000 0.7290 0.7270 0.7260 0.7230 0.7180
10.631645 0.7160 0.7150 0.7120 0.7060 0.7010
10.663000 0.6890 0.6800 0.6780 0.6760 0.6750
10.693645 0.6720 0.6660 0.6580 0.6560 0.6520
10.724000 0.6500 0.6490 0.6460 0.6400 0.6380
10.754645 0.6330 0.6330 0.6330 0.6320 0.6320
10.785000 0.6320 0.6320 0.6320 0.6320 0.6330
10.815645 0.6330 0.6330 0.6350 0.6360 0.6470
10.846000 0.6520 0.6530 0.6580 0.6640 0.6640
10.876645 0.6700 0.6840 0.6890 0.6920 0.7030
10.908000 0.7090 0.7120 0.7160 0.7180 0.7260
10.938645 0.7320 0.7350 0.7360 0.7360 0.7380
10.969000 0.7410 0.7410 0.7430 0.7460 0.7490
10.999645 0.7520 0.7530 0.7580 0.7610 0.7640
11.030000 0.7640 0.7630 0.7630 0.7630 0.7640
11.060645 0.7640 0.7640 0.7640 0.7640 0.7640
11.091000 0.7640 0.7630 0.7610 0.7600 0.7600
11.121645 0.7580 0.7550 0.7530 0.7530 0.7530
11.153000 0.7520 0.7500 0.7460 0.7430 0.7360
11.183645 0.7330 0.7300 0.7260 0.7210 0.7160
11.214000 0.7100 0.7060 0.6950 0.6870 0.6780
11.244645 0.6640 0.6600 0.6490 0.6460 0.6290
11.275000 0.6040 0.5900 0.5760 0.5660 0.5470
11.305645 0.5300 0.5120 0.4920 0.4860 0.4690
11.336000 0.4580 0.4470 0.4400 0.4260 0.4070
11.366645 0.4000 0.3920 0.3830 0.3760 0.3720
11.398000 0.3670 0.3630 0.3580 0.3550 0.3490
11.428645 0.3430 0.3410 0.3410 0.3380 0.3380
11.459000 0.3360 0.3350 0.3350 0.3330 0.3320
11.489645 0.3300 0.3270 0.3260 0.3260 0.3270
11.520000 0.3290 0.3320 0.3350 0.3440 0.3470
11.550645 0.3550 0.3550 0.3560 0.3630 0.3720
11.582000 0.3830 0.4000 0.4090 0.4130 0.4200
11.612645 0.4270 0.4360 0.4460 0.4560 0.4640
11.643000 0.4720 0.4780 0.4860 0.4930 0.5030
11.673645 0.5060 0.5120 0.5160 0.5290 0.5400
11.704000 0.5430 0.5500 0.5550 0.5630 0.5670
11.734645 0.5760 0.5780 0.5830 0.5890 0.5950
11.765000 0.6040 0.6040 0.6090 0.6180 0.6230
11.795645 0.6330 0.6430 0.6460 0.6550 0.6640
11.827000 0.6670 0.6760 0.6810 0.6920 0.6930
11.857645 0.6960 0.7010 0.7090 0.7120 0.7150
11.888000 0.7160 0.7160 0.7180 0.7200 0.7230
11.918645 0.7240 0.7240 0.7240 0.7240 0.7240
11.949000 0.7260 0.7260 0.7290 0.7290 0.7290
11.979645 0.7320 0.7320 0.7350 0.7350 0.7360
12.010000 0.7380 0.7380 0.7400 0.7400 0.7400
12.040645 0.7430 0.7430 0.7440 0.7440 0.7440
12.072000 0.7430 0.7430 0.7430 0.7430 0.7430
12.102645 0.7440 0.7440 0.7430 0.7430 0.7410
12.133000 0.7360 0.7360 0.7360 0.7360 0.7380
12.163645 0.7410 0.7430 0.7430 0.7410 0.7400
12.194000 0.7380 0.7360 0.7350 0.7350 0.7350
12.224645 0.7350 0.7350 0.7350 0.7360 0.7350
12.255000 0.7350 0.7330 0.7320 0.7300 0.7290
12.285645 0.7270 0.7270 0.7260 0.7240 0.7240
12.317000 0.7240 0.7230 0.7210 0.7160 0.7150
12.347645 0.7120 0.7120 0.7150 0.7160 0.7180
12.378000 0.7180 0.7180 0.7180 0.7160 0.7160
12.408645 0.7130 0.7120 0.7100 0.7100 0.7090
12.439000 0.7090 0.7090 0.7070 0.7070 0.7060
12.469645 0.7040 0.7030 0.7000 0.7000 0.6980
12.500000 0.6980 0.6980 0.6980 0.6960 0.6950
12.530645 0.6920 0.6920 0.6920 0.6900 0.6860
12.562000 0.6810 0.6780 0.6760 0.6750 0.6730
12.592645 0.6690 0.6660 0.6640 0.6610 0.6580
12.623000 0.6520 0.6490 0.6460 0.6400 0.6350
12.653645 0.6350 0.6320 0.6300 0.6300 0.6290
12.684000 0.6260 0.6200 0.6120 0.6090 0.6060
12.714645 0.5930 0.5890 0.5840 0.5810 0.5760
12.746000 0.5700 0.5660 0.5560 0.5500 0.5470
12.776645 0.5440 0.5430 0.5410 0.5400 0.5360
12.807000 0.5330 0.5270 0.5200 0.5160 0.5150
12.837645 0.5100 0.5070 0.5040 0.5000 0.4960
12.868000 0.4920 0.4900 0.4890 0.4860 0.4860
12.898645 0.4830 0.4830 0.4810 0.4800 0.4780
12.929000 0.4780 0.4780 0.4780 0.4800 0.4800
12.959645 0.4800 0.4810 0.4810 0.4840 0.4860
12.991000 0.4860 0.4870 0.4870 0.4890 0.4890
13.021645 0.4900 0.4920 0.4930 0.4960 0.5010
13.052000 0.5030 0.5040 0.5070 0.5130 0.5130
13.082645 0.5230 0.5260 0.5270 0.5330 0.5380
13.113000 0.5440 0.5500 0.5500 0.5530 0.5610
13.143645 0.5640 0.5670 0.5700 0.5720 0.5760
13.174000 0.5800 0.5840 0.5860 0.5890 0.5950
13.204645 0.6010 0.6030 0.6030 0.6030 0.6060
13.236000 0.6160 0.6180 0.6200 0.6200 0.6210
13.266645 0.6210 0.6210 0.6210 0.6210 0.6210
13.297000 0.6210 0.6210 0.6230 0.6230 0.6240
13.327645 0.6230 0.6230 0.6230 0.6230 0.6210
13.358000 0.6200 0.6200 0.6200 0.6180 0.6150
13.388645 0.6150 0.6150 0.6130 0.6130 0.6130
13.419000 0.6120 0.6120 0.6120 0.6130 0.6130
13.449645 0.6130 0.6130 0.6100 0.6070 0.6040
13.481000 0.6030 0.6030 0.6030 0.6030 0.6010
13.511645 0.6010 0.6000 0.6000 0.6000 0.5960
13.542000 0.5930 0.5920 0.5900 0.5900 0.5900
13.572645 0.5900 0.5900 0.5920 0.5920 0.5900
13.603000 0.5870 0.5840 0.5810 0.5800 0.5780
13.633645 0.5760 0.5730 0.5700 0.5670 0.5640
13.664000 0.5630 0.5610 0.5580 0.5560 0.5530
13.694645 0.5500 0.5500 0.5490 0.5470 0.5460
13.726000 0.5440 0.5410 0.5400 0.5360 0.5330
13.756645 0.5300 0.5290 0.5270 0.5270 0.5270
13.787000 0.5290 0.5290 0.5270 0.5240 0.5200
13.817645 0.5130 0.5120 0.5120 0.5060 0.5030
13.848000 0.5010 0.5010 0.5010 0.5010 0.5000
13.878645 0.4960 0.4950 0.4930 0.4930 0.4900
13.910000 0.4860 0.4860 0.4840 0.4830 0.4810
13.940645 0.4810 0.4800 0.4750 0.4720 0.4690
13.971000 0.4640 0.4610 0.4600 0.4600 0.4600
14.001645 0.4600 0.4600 0.4600 0.4580 0.4580
14.032000 0.4560 0.4560 0.4560 0.4560 0.4560
14.062645 0.4500 0.4470 0.4470 0.4460 0.4430
14.093000 0.4430 0.4430 0.4410 0.4410 0.4400
14.123645 0.4380 0.4360 0.4360 0.4330 0.4320
14.155000 0.4320 0.4320 0.4300 0.4290 0.4240
14.185645 0.4200 0.4200 0.4180 0.4180 0.4180
14.216000 0.4160 0.4160 0.4160 0.4160 0.4160
14.246645 0.4150 0.4130 0.4120 0.4120 0.4100
14.277000 0.4100 0.4120 0.4120 0.4100 0.4100
14.307645 0.4090 0.4090 0.4070 0.4070 0.4040
14.338000 0.4040 0.4040 0.4030 0.4030 0.4010
14.368645 0.4010 0.4000 0.3980 0.3960 0.3960
14.400000 0.3960 0.3960 0.4000 0.4000 0.4000
14.430645 0.4000 0.4000 0.3980 0.3980 0.3980
14.461000 0.3980 0.3980 0.3960 0.3960 0.3960
14.491645 0.3950 0.3950 0.3930 0.3930 0.3930
14.522000 0.3920 0.3920 0.3920 0.3920 0.3920
14.552645 0.3920 0.3920 0.3920 0.3920 0.3900
14.583000 0.3900 0.3900 0.3900 0.3890 0.3890
14.613645 0.3900 0.3890 0.3890 0.3870 0.3870
14.645000 0.3870 0.3870 0.3870 0.3870 0.3860
14.675645 0.3840 0.3840 0.3840 0.3840 0.3840
14.706000 0.3890 0.3890 0.3890 0.3890 0.3890
14.736645 0.3890 0.3870 0.3860 0.3840 0.3830
14.767000 0.3830 0.3830 0.3830 0.3830 0.3830
14.797645 0.3830 0.3830 0.3840 0.3840 0.3840
14.828000 0.3840 0.3840 0.3830 0.3830 0.3830
14.858645 0.3800 0.3800 0.3840 0.3840 0.3840
14.890000 0.3830 0.3830 0.3810 0.3750 0.3750
14.920645 0.3750 0.3760 0.3780 0.3780 0.3800
14.951000 0.3800 0.3810 0.3830 0.3830 0.3840
14.981645 0.3870 0.3890 0.3900 0.3930 0.3950
15.012000 0.3960 0.3960 0.3980 0.3980 0.3950
15.042645 0.3950 0.3930 0.3920 0.3870 0.3860
15.074000 0.3830 0.3810 0.3780 0.3760 0.3760
15.104645 0.3760 0.3750 0.3730 0.3730 0.3750
15.135000 0.3760 0.3780 0.3780 0.3780 0.3780
15.165645 0.3800 0.3800 0.3800 0.3800 0.3800
15.196000 0.3800 0.3800 0.3800 0.3800 0.3800
15.226645 0.3800 0.3800 0.3800 0.3800 0.3800
15.257000 0.3800 0.3800 0.3800 0.3800 0.3800
15.287645 0.3800 0.3810 0.3810 0.3830 0.3830
15.319000 0.3830 0.3830 0.3830 0.3810 0.3800
15.349645 0.3800 0.3800 0.3800 0.3800 0.3780
15.380000 0.3730 0.3730 0.3750 0.3750 0.3750
15.410645 0.3780 0.3780 0.3780 0.3780 0.3780
15.441000 0.3780 0.3780 0.3760 0.3750 0.3750
15.471645 0.3760 0.3760 0.3750 0.3730 0.3730
15.502000 0.3720 0.3700 0.3700 0.3700 0.3700
##END=
