##TITLE=Phenothiazine,10-[3-(4-methyl-1-piperazinyl)propyl]-2-(trifluoromethyl)-, 5-oxide, dihydrochloride, hydrate
##JCAMP-DX=4.24
##DATA TYPE=INFRARED SPECTRUM
##CLASS=COBLENTZ III
##ORIGIN=SMITH KLINE & FRENCH LABS.
##OWNER=Copyright (C) 1987 by the Coblentz Society
Collection (C) 2018 copyright by the U.S. Secretary of Commerce
on behalf of the United States of America. All rights reserved.
##DATE=1967/03/15
##MOLFORM=C21 H26 Cl2 F3 N3 O S  * H2 O
##SOURCE REFERENCE=COBLENTZ NO. 9075
##$NIST ID=B6009075
##$NIST SOURCE=COBLENTZ
##$NIST IMAGE=cob9075
##SPECTROMETER/DATA SYSTEM=PERKIN-ELMER 21 (GRATING)
##INSTRUMENT PARAMETERS=NaCl PRISM
##STATE=SOLID (OIL MULL)
$$SPECTRAL CONTAMINATION DUE TO OIL AROUND 2900, 1455, 720 CM^-^1
##SAMPLING PROCEDURE=TRANSMISSION
##RESOLUTION=2
##DATA PROCESSING=DIGITIZED BY COBLENTZ SOCIETY (BATCH II) FROM HARD COPY
##XUNITS=1/CM
##YUNITS=TRANSMITTANCE
##XFACTOR=1.0
##YFACTOR=1
##FIRSTX=669
##LASTX=4000
##FIRSTY=0.5746
##MAXX=4000
##MINX=669
##MAXY=0.9158
##MINY=0.1065
##NPOINTS=3332
##XYDATA=(X++(Y..Y))
669.000000 0.5746 0.5753 0.5724 0.5675 0.5645
674.000000 0.5632 0.5645 0.5709 0.5791 0.5929
679.000000 0.6112 0.6239 0.6314 0.6354 0.6391
684.000000 0.6423 0.6454 0.6474 0.6491 0.6500
689.000000 0.6509 0.6515 0.6519 0.6524 0.6545
694.000000 0.6540 0.6550 0.6567 0.6576 0.6581
699.000000 0.6572 0.6534 0.6464 0.6368 0.6255
704.000000 0.6130 0.5999 0.5865 0.5698 0.5559
709.000000 0.5490 0.5482 0.5597 0.5881 0.6178
714.000000 0.6380 0.6478 0.6513 0.6525 0.6523
719.000000 0.6506 0.6478 0.6445 0.6413 0.6386
724.000000 0.6412 0.6460 0.6526 0.6579 0.6567
729.000000 0.6564 0.6593 0.6672 0.6770 0.6854
734.000000 0.6895 0.6890 0.6870 0.6840 0.6807
739.000000 0.6751 0.6655 0.6415 0.6069 0.5855
744.000000 0.5858 0.6122 0.6513 0.6766 0.6854
749.000000 0.6880 0.6881 0.6875 0.6872 0.6879
754.000000 0.6853 0.6834 0.6813 0.6781 0.6722
759.000000 0.6588 0.6435 0.6251 0.6067 0.5875
764.000000 0.5597 0.5277 0.4962 0.4652 0.4377
769.000000 0.4014 0.3770 0.3715 0.3777 0.4017
774.000000 0.4407 0.4796 0.5247 0.5542 0.5772
779.000000 0.5941 0.6041 0.6160 0.6397 0.6811
784.000000 0.7400 0.7599 0.7721 0.7809 0.7833
789.000000 0.7850 0.7864 0.7872 0.7878 0.7882
794.000000 0.7918 0.7878 0.7876 0.7875 0.7873
799.000000 0.7871 0.7865 0.7837 0.7713 0.7574
804.000000 0.7428 0.7304 0.7222 0.7194 0.7181
809.000000 0.7315 0.7441 0.7521 0.7547 0.7498
814.000000 0.7443 0.7379 0.7297 0.7240 0.7224
819.000000 0.7222 0.7235 0.7254 0.7268 0.7286
824.000000 0.7311 0.7337 0.7365 0.7394 0.7422
829.000000 0.7437 0.7414 0.7362 0.7285 0.7214
834.000000 0.7152 0.7099 0.7119 0.7263 0.7478
839.000000 0.7643 0.7751 0.7841 0.7904 0.7947
844.000000 0.7986 0.8012 0.8026 0.8038 0.8043
849.000000 0.8048 0.8066 0.8041 0.8034 0.8022
854.000000 0.7998 0.7963 0.7917 0.7836 0.7609
859.000000 0.7291 0.6974 0.6658 0.6342 0.6027
864.000000 0.5722 0.5509 0.5503 0.5552 0.5658
869.000000 0.5951 0.6336 0.6789 0.6992 0.7132
874.000000 0.7199 0.7227 0.7218 0.7214 0.7232
879.000000 0.7335 0.7438 0.7568 0.7677 0.7783
884.000000 0.7890 0.7970 0.8009 0.8028 0.8041
889.000000 0.8055 0.8066 0.8072 0.8074 0.8073
894.000000 0.8070 0.8061 0.8046 0.8029 0.8011
899.000000 0.7986 0.7960 0.7917 0.7760 0.7570
904.000000 0.7379 0.7189 0.7080 0.7165 0.7401
909.000000 0.7636 0.7797 0.7887 0.7918 0.7922
914.000000 0.7949 0.7919 0.7917 0.7912 0.7905
919.000000 0.7898 0.7889 0.7878 0.7867 0.7855
924.000000 0.7841 0.7813 0.7780 0.7735 0.7681
929.000000 0.7608 0.7504 0.7379 0.7238 0.7076
934.000000 0.6806 0.6438 0.6039 0.5577 0.5059
939.000000 0.4542 0.4026 0.3715 0.3728 0.4162
944.000000 0.4714 0.5267 0.5674 0.6032 0.6072
949.000000 0.6076 0.5962 0.5853 0.5580 0.5243
954.000000 0.4907 0.4572 0.4237 0.4035 0.4031
959.000000 0.4219 0.4569 0.4935 0.5300 0.5664
964.000000 0.6028 0.6369 0.6551 0.6574 0.6566
969.000000 0.6569 0.6482 0.6315 0.6138 0.5961
974.000000 0.5785 0.5608 0.5433 0.5258 0.5082
979.000000 0.4915 0.4742 0.4565 0.4424 0.4329
984.000000 0.4289 0.4263 0.4248 0.4239 0.4246
989.000000 0.4250 0.4260 0.4282 0.4327 0.4438
994.000000 0.4593 0.4785 0.4988 0.5191 0.5394
999.000000 0.5596 0.5789 0.5952 0.6034 0.6061
1004.000000 0.6061 0.6051 0.6068 0.5986 0.5924
1009.000000 0.5819 0.5692 0.5396 0.5082 0.4771
1014.000000 0.4592 0.4497 0.4473 0.4473 0.4683
1019.000000 0.4924 0.5164 0.5405 0.5645 0.5884
1024.000000 0.6123 0.6361 0.6600 0.6838 0.7133
1029.000000 0.7221 0.7268 0.7294 0.7287 0.7285
1034.000000 0.7254 0.7212 0.7144 0.7040 0.6927
1039.000000 0.6813 0.6675 0.6429 0.6225 0.5947
1044.000000 0.5576 0.5136 0.4696 0.4258 0.3959
1049.000000 0.3961 0.3959 0.4476 0.4787 0.5097
1054.000000 0.5404 0.5543 0.5643 0.5769 0.5787
1059.000000 0.5763 0.5551 0.5326 0.5267 0.5260
1064.000000 0.5333 0.5644 0.5976 0.6308 0.6638
1069.000000 0.6938 0.6966 0.6968 0.6968 0.6936
1074.000000 0.6909 0.6881 0.6856 0.6837 0.6818
1079.000000 0.6797 0.6762 0.6691 0.6612 0.6520
1084.000000 0.6358 0.6058 0.5757 0.5455 0.5155
1089.000000 0.4856 0.4632 0.4488 0.4472 0.4486
1094.000000 0.4886 0.5182 0.5475 0.5769 0.5911
1099.000000 0.5922 0.5898 0.5836 0.5750 0.5709
1104.000000 0.5687 0.5674 0.5660 0.5530 0.5386
1109.000000 0.5276 0.5202 0.5167 0.5165 0.5167
1114.000000 0.5164 0.5136 0.5075 0.4978 0.4632
1119.000000 0.4270 0.3907 0.3547 0.3186 0.2826
1124.000000 0.2545 0.2361 0.2251 0.2176 0.2159
1129.000000 0.2154 0.2176 0.2217 0.2282 0.2356
1134.000000 0.2459 0.2701 0.2953 0.3206 0.3457
1139.000000 0.3708 0.3959 0.4210 0.4459 0.4708
1144.000000 0.4960 0.5068 0.5101 0.5109 0.5102
1149.000000 0.5038 0.4879 0.4707 0.4535 0.4364
1154.000000 0.4193 0.4022 0.3858 0.3786 0.3790
1159.000000 0.3838 0.4083 0.4337 0.4570 0.4659
1164.000000 0.4669 0.4664 0.4347 0.4064 0.3782
1169.000000 0.3501 0.3221 0.2939 0.2702 0.2572
1174.000000 0.2460 0.2412 0.2405 0.2467 0.2775
1179.000000 0.3088 0.3400 0.3713 0.4024 0.4335
1184.000000 0.4646 0.4957 0.5266 0.5575 0.5884
1189.000000 0.6235 0.6413 0.6494 0.6528 0.6518
1194.000000 0.6489 0.6462 0.6445 0.6456 0.6512
1199.000000 0.6675 0.6838 0.7001 0.7164 0.7326
1204.000000 0.7382 0.7405 0.7410 0.7411 0.7427
1209.000000 0.7394 0.7375 0.7350 0.7311 0.7244
1214.000000 0.7161 0.7079 0.6997 0.6915 0.6831
1219.000000 0.6790 0.6794 0.6852 0.6921 0.6978
1224.000000 0.7024 0.7055 0.7072 0.7074 0.7076
1229.000000 0.6987 0.6875 0.6672 0.6410 0.6150
1234.000000 0.5891 0.5631 0.5372 0.5113 0.4855
1239.000000 0.4598 0.4340 0.4083 0.3827 0.3571
1244.000000 0.3339 0.3203 0.3090 0.3022 0.3012
1249.000000 0.3002 0.3208 0.3618 0.4027 0.4435
1254.000000 0.4843 0.5250 0.5657 0.6063 0.6468
1259.000000 0.6833 0.6929 0.6939 0.6930 0.6926
1264.000000 0.6875 0.6732 0.6573 0.6414 0.6257
1269.000000 0.6098 0.5940 0.5783 0.5664 0.5626
1274.000000 0.5789 0.5959 0.6128 0.6298 0.6467
1279.000000 0.6636 0.6804 0.6891 0.6890 0.6914
1284.000000 0.6871 0.6854 0.6837 0.6797 0.6751
1289.000000 0.6693 0.6629 0.6558 0.6487 0.6414
1294.000000 0.6342 0.6263 0.6165 0.6064 0.5956
1299.000000 0.5705 0.5341 0.4979 0.4617 0.4255
1304.000000 0.3893 0.3544 0.3290 0.3240 0.3243
1309.000000 0.3241 0.3439 0.3576 0.3713 0.3850
1314.000000 0.3986 0.4122 0.4258 0.4395 0.4530
1319.000000 0.4665 0.4787 0.4822 0.4844 0.4877
1324.000000 0.4846 0.4821 0.4742 0.4598 0.4442
1329.000000 0.4285 0.4129 0.3974 0.3818 0.3709
1334.000000 0.3691 0.3691 0.3692 0.3924 0.4135
1339.000000 0.4346 0.4556 0.4766 0.4976 0.5185
1344.000000 0.5378 0.5515 0.5661 0.5831 0.5919
1349.000000 0.5977 0.5999 0.6014 0.6018 0.6024
1354.000000 0.5974 0.5788 0.5405 0.5021 0.4638
1359.000000 0.4255 0.3873 0.3622 0.3489 0.3388
1364.000000 0.3332 0.3322 0.3333 0.3394 0.3538
1369.000000 0.3681 0.3824 0.3929 0.3911 0.3935
1374.000000 0.3750 0.3667 0.3585 0.3535 0.3539
1379.000000 0.3524 0.3708 0.3843 0.3978 0.4113
1384.000000 0.4220 0.4299 0.4407 0.4564 0.4871
1389.000000 0.5217 0.5563 0.5908 0.6265 0.6488
1394.000000 0.6599 0.6681 0.6729 0.6765 0.6790
1399.000000 0.6809 0.6818 0.6825 0.6832 0.6828
1404.000000 0.6832 0.6828 0.6818 0.6803 0.6785
1409.000000 0.6757 0.6718 0.6657 0.6513 0.6354
1414.000000 0.6194 0.6034 0.5875 0.5716 0.5557
1419.000000 0.5401 0.5279 0.5202 0.5120 0.5035
1424.000000 0.4929 0.4695 0.4329 0.3856 0.3326
1429.000000 0.2797 0.2369 0.2192 0.2151 0.2138
1434.000000 0.2141 0.2172 0.2267 0.2371 0.2475
1439.000000 0.2578 0.2642 0.2646 0.2645 0.2637
1444.000000 0.2542 0.2367 0.2185 0.2004 0.1823
1449.000000 0.1642 0.1461 0.1281 0.1131 0.1071
1454.000000 0.1065 0.1070 0.1086 0.1149 0.1232
1459.000000 0.1316 0.1399 0.1482 0.1565 0.1649
1464.000000 0.1732 0.1815 0.1898 0.1980 0.2063
1469.000000 0.2144 0.2238 0.2421 0.2669 0.2918
1474.000000 0.3166 0.3413 0.3661 0.3907 0.4154
1479.000000 0.4400 0.4646 0.4892 0.5137 0.5373
1484.000000 0.5515 0.5532 0.5535 0.5529 0.5478
1489.000000 0.5357 0.5229 0.5101 0.4973 0.4846
1494.000000 0.4770 0.4760 0.4780 0.4849 0.5066
1499.000000 0.5284 0.5502 0.5719 0.5936 0.6153
1504.000000 0.6370 0.6586 0.6801 0.7017 0.7233
1509.000000 0.7436 0.7590 0.7692 0.7736 0.7751
1514.000000 0.7760 0.7768 0.7776 0.7785 0.7801
1519.000000 0.7869 0.8066 0.8121 0.8159 0.8185
1524.000000 0.8206 0.8223 0.8239 0.8251 0.8263
1529.000000 0.8275 0.8283 0.8290 0.8297 0.8304
1534.000000 0.8309 0.8310 0.8312 0.8313 0.8314
1539.000000 0.8315 0.8330 0.8315 0.8315 0.8315
1544.000000 0.8314 0.8310 0.8306 0.8299 0.8285
1549.000000 0.8272 0.8258 0.8245 0.8232 0.8218
1554.000000 0.8204 0.8191 0.8177 0.8162 0.8147
1559.000000 0.8131 0.8115 0.8100 0.8082 0.8061
1564.000000 0.8038 0.8015 0.7991 0.7969 0.7947
1569.000000 0.7925 0.7898 0.7802 0.7486 0.7272
1574.000000 0.7160 0.7033 0.6908 0.6804 0.6562
1579.000000 0.6221 0.5863 0.5506 0.5149 0.4876
1584.000000 0.4810 0.4795 0.4923 0.5200 0.5533
1589.000000 0.5866 0.6198 0.6530 0.6748 0.6788
1594.000000 0.6736 0.6812 0.6601 0.6534 0.6466
1599.000000 0.6399 0.6350 0.6383 0.6499 0.6631
1604.000000 0.6314 0.6892 0.7023 0.7143 0.7214
1609.000000 0.7217 0.7228 0.7214 0.7212 0.7200
1614.000000 0.7178 0.7147 0.7078 0.7045 0.7030
1619.000000 0.7018 0.7011 0.7004 0.7000 0.6997
1624.000000 0.6994 0.6991 0.6989 0.6988 0.6988
1629.000000 0.6989 0.6994 0.6958 0.6998 0.7002
1634.000000 0.7007 0.7011 0.7016 0.7020 0.7030
1639.000000 0.7045 0.7061 0.7082 0.7108 0.7139
1644.000000 0.7184 0.7249 0.7325 0.7402 0.7470
1649.000000 0.7552 0.7613 0.7659 0.7702 0.7746
1654.000000 0.7790 0.7830 0.7860 0.7881 0.7900
1659.000000 0.7916 0.7930 0.7945 0.7985 0.8033
1664.000000 0.8081 0.8129 0.8177 0.8226 0.8276
1669.000000 0.8329 0.8383 0.8430 0.8468 0.8504
1674.000000 0.8541 0.8574 0.8601 0.8625 0.8649
1679.000000 0.8673 0.8696 0.8719 0.8741 0.8762
1684.000000 0.8784 0.8807 0.8832 0.8867 0.8900
1689.000000 0.8914 0.8926 0.8932 0.8935 0.8939
1694.000000 0.8942 0.8946 0.8952 0.8958 0.8965
1699.000000 0.8971 0.8978 0.8986 0.8994 0.9003
1704.000000 0.9011 0.9019 0.9024 0.9029 0.9033
1709.000000 0.9037 0.9042 0.9046 0.9049 0.9050
1714.000000 0.9049 0.9049 0.9048 0.9048 0.9047
1719.000000 0.9047 0.9045 0.9042 0.9039 0.9035
1724.000000 0.9032 0.9029 0.9026 0.9025 0.9023
1729.000000 0.9021 0.9024 0.9030 0.9036 0.9041
1734.000000 0.9048 0.9058 0.9068 0.9079 0.9092
1739.000000 0.9100 0.9103 0.9106 0.9108 0.9111
1744.000000 0.9113 0.9114 0.9115 0.9115 0.9116
1749.000000 0.9117 0.9118 0.9119 0.9120 0.9121
1754.000000 0.9123 0.9124 0.9126 0.9128 0.9129
1759.000000 0.9131 0.9132 0.9133 0.9135 0.9135
1764.000000 0.9135 0.9135 0.9135 0.9136 0.9136
1769.000000 0.9136 0.9136 0.9136 0.9137 0.9137
1774.000000 0.9137 0.9137 0.9138 0.9139 0.9139
1779.000000 0.9141 0.9142 0.9143 0.9145 0.9145
1784.000000 0.9147 0.9148 0.9149 0.9151 0.9151
1789.000000 0.9153 0.9154 0.9155 0.9155 0.9155
1794.000000 0.9158 0.9156 0.9156 0.9156 0.9156
1799.000000 0.9157 0.9157 0.9157 0.9157 0.9156
1804.000000 0.9154 0.9152 0.9150 0.9148 0.9146
1809.000000 0.9143 0.9140 0.9136 0.9132 0.9127
1814.000000 0.9123 0.9119 0.9114 0.9110 0.9105
1819.000000 0.9100 0.9094 0.9087 0.9081 0.9075
1824.000000 0.9069 0.9064 0.9064 0.9062 0.9061
1829.000000 0.9059 0.9059 0.9057 0.9056 0.9055
1834.000000 0.9054 0.9052 0.9051 0.9051 0.9051
1839.000000 0.9052 0.9053 0.9054 0.9055 0.9056
1844.000000 0.9057 0.9058 0.9059 0.9062 0.9066
1849.000000 0.9070 0.9074 0.9078 0.9081 0.9081
1854.000000 0.9079 0.9077 0.9074 0.9071 0.9067
1859.000000 0.9064 0.9061 0.9059 0.9057 0.9057
1864.000000 0.9058 0.9060 0.9061 0.9061 0.9064
1869.000000 0.9066 0.9069 0.9072 0.9075 0.9077
1874.000000 0.9080 0.9081 0.9082 0.9083 0.9083
1879.000000 0.9080 0.9076 0.9073 0.9069 0.9066
1884.000000 0.9062 0.9057 0.9052 0.9046 0.9041
1889.000000 0.9036 0.9031 0.9025 0.9019 0.9014
1894.000000 0.9008 0.9002 0.8996 0.8990 0.8984
1899.000000 0.8978 0.8973 0.8966 0.8961 0.8955
1904.000000 0.8949 0.8943 0.8937 0.8931 0.8924
1909.000000 0.8918 0.8912 0.8905 0.8899 0.8893
1914.000000 0.8886 0.8880 0.8874 0.8868 0.8861
1919.000000 0.8855 0.8849 0.8844 0.8838 0.8833
1924.000000 0.8828 0.8822 0.8817 0.8811 0.8806
1929.000000 0.8801 0.8795 0.8790 0.8784 0.8779
1934.000000 0.8774 0.8768 0.8763 0.8758 0.8753
1939.000000 0.8748 0.8743 0.8738 0.8733 0.8728
1944.000000 0.8724 0.8719 0.8714 0.8709 0.8704
1949.000000 0.8699 0.8694 0.8689 0.8684 0.8679
1954.000000 0.8676 0.8672 0.8669 0.8666 0.8663
1959.000000 0.8660 0.8660 0.8661 0.8661 0.8664
1964.000000 0.8667 0.8672 0.8677 0.8682 0.8682
1969.000000 0.8682 0.8680 0.8678 0.8674 0.8668
1974.000000 0.8661 0.8653 0.8646 0.8638 0.8630
1979.000000 0.8623 0.8616 0.8608 0.8601 0.8593
1984.000000 0.8586 0.8579 0.8571 0.8564 0.8556
1989.000000 0.8547 0.8540 0.8532 0.8524 0.8516
1994.000000 0.8508 0.8500 0.8493 0.8485 0.8477
1999.000000 0.8469 0.8461 0.8452 0.8443 0.8435
2004.000000 0.8427 0.8419 0.8411 0.8402 0.8394
2009.000000 0.8386 0.8377 0.8369 0.8361 0.8352
2014.000000 0.8344 0.8335 0.8327 0.8319 0.8310
2019.000000 0.8302 0.8294 0.8286 0.8277 0.8269
2024.000000 0.8260 0.8252 0.8244 0.8235 0.8227
2029.000000 0.8218 0.8209 0.8200 0.8192 0.8183
2034.000000 0.8175 0.8166 0.8157 0.8149 0.8140
2039.000000 0.8132 0.8123 0.8115 0.8106 0.8097
2044.000000 0.8089 0.8080 0.8072 0.8063 0.8054
2049.000000 0.8046 0.8038 0.8029 0.8021 0.8014
2054.000000 0.8010 0.8005 0.8001 0.7996 0.7992
2059.000000 0.7988 0.7983 0.7979 0.7974 0.7970
2064.000000 0.7965 0.7961 0.7957 0.7953 0.7949
2069.000000 0.7944 0.7940 0.7936 0.7934 0.7932
2074.000000 0.7931 0.7930 0.7929 0.7927 0.7925
2079.000000 0.7921 0.7917 0.7913 0.7909 0.7906
2084.000000 0.7902 0.7898 0.7894 0.7890 0.7886
2089.000000 0.7880 0.7873 0.7865 0.7857 0.7849
2094.000000 0.7841 0.7833 0.7824 0.7815 0.7805
2099.000000 0.7793 0.7782 0.7771 0.7759 0.7746
2104.000000 0.7730 0.7714 0.7696 0.7679 0.7662
2109.000000 0.7647 0.7632 0.7619 0.7606 0.7592
2114.000000 0.7580 0.7568 0.7561 0.7554 0.7548
2119.000000 0.7541 0.7534 0.7528 0.7522 0.7516
2124.000000 0.7511 0.7506 0.7501 0.7495 0.7490
2129.000000 0.7485 0.7480 0.7475 0.7468 0.7461
2134.000000 0.7454 0.7446 0.7437 0.7428 0.7418
2139.000000 0.7408 0.7399 0.7389 0.7379 0.7369
2144.000000 0.7359 0.7348 0.7336 0.7324 0.7312
2149.000000 0.7299 0.7287 0.7275 0.7261 0.7244
2154.000000 0.7227 0.7210 0.7194 0.7178 0.7162
2159.000000 0.7147 0.7131 0.7115 0.7100 0.7085
2164.000000 0.7071 0.7058 0.7044 0.7030 0.7016
2169.000000 0.7002 0.6988 0.6975 0.6961 0.6948
2174.000000 0.6934 0.6921 0.6907 0.6895 0.6883
2179.000000 0.6871 0.6859 0.6847 0.6834 0.6822
2184.000000 0.6810 0.6798 0.6789 0.6780 0.6772
2189.000000 0.6765 0.6757 0.6749 0.6741 0.6733
2194.000000 0.6726 0.6718 0.6710 0.6702 0.6694
2199.000000 0.6687 0.6679 0.6671 0.6663 0.6655
2204.000000 0.6647 0.6639 0.6632 0.6624 0.6615
2209.000000 0.6608 0.6600 0.6592 0.6584 0.6575
2214.000000 0.6565 0.6554 0.6542 0.6530 0.6519
2219.000000 0.6507 0.6495 0.6484 0.6472 0.6460
2224.000000 0.6449 0.6437 0.6426 0.6412 0.6398
2229.000000 0.6384 0.6371 0.6357 0.6343 0.6329
2234.000000 0.6315 0.6302 0.6288 0.6275 0.6261
2239.000000 0.6247 0.6234 0.6220 0.6206 0.6188
2244.000000 0.6170 0.6153 0.6135 0.6117 0.6099
2249.000000 0.6082 0.6064 0.6047 0.6029 0.6009
2254.000000 0.5989 0.5967 0.5945 0.5922 0.5900
2259.000000 0.5877 0.5854 0.5832 0.5809 0.5787
2264.000000 0.5765 0.5742 0.5720 0.5697 0.5675
2269.000000 0.5653 0.5630 0.5608 0.5587 0.5566
2274.000000 0.5544 0.5523 0.5502 0.5481 0.5459
2279.000000 0.5438 0.5417 0.5396 0.5375 0.5354
2284.000000 0.5332 0.5311 0.5289 0.5268 0.5246
2289.000000 0.5225 0.5204 0.5183 0.5162 0.5141
2294.000000 0.5120 0.5099 0.5078 0.5057 0.5036
2299.000000 0.5015 0.4995 0.4974 0.4953 0.4933
2304.000000 0.4912 0.4890 0.4868 0.4845 0.4823
2309.000000 0.4800 0.4778 0.4755 0.4733 0.4710
2314.000000 0.4688 0.4666 0.4647 0.4629 0.4611
2319.000000 0.4593 0.4576 0.4558 0.4540 0.4522
2324.000000 0.4504 0.4487 0.4470 0.4453 0.4437
2329.000000 0.4421 0.4406 0.4391 0.4375 0.4359
2334.000000 0.4344 0.4328 0.4312 0.4297 0.4281
2339.000000 0.4266 0.4252 0.4237 0.4223 0.4210
2344.000000 0.4196 0.4182 0.4167 0.4153 0.4140
2349.000000 0.4126 0.4112 0.4099 0.4085 0.4073
2354.000000 0.4060 0.4048 0.4036 0.4024 0.4011
2359.000000 0.3999 0.3987 0.3975 0.3963 0.3951
2364.000000 0.3939 0.3927 0.3915 0.3903 0.3891
2369.000000 0.3880 0.3869 0.3857 0.3846 0.3834
2374.000000 0.3822 0.3811 0.3800 0.3790 0.3782
2379.000000 0.3773 0.3764 0.3755 0.3747 0.3738
2384.000000 0.3730 0.3721 0.3712 0.3703 0.3695
2389.000000 0.3687 0.3680 0.3673 0.3667 0.3660
2394.000000 0.3654 0.3648 0.3642 0.3636 0.3630
2399.000000 0.3624 0.3621 0.3618 0.3616 0.3615
2404.000000 0.3613 0.3612 0.3611 0.3609 0.3608
2409.000000 0.3604 0.3608 0.3608 0.3608 0.3608
2414.000000 0.3609 0.3610 0.3612 0.3614 0.3616
2419.000000 0.3619 0.3622 0.3625 0.3629 0.3633
2424.000000 0.3638 0.3643 0.3648 0.3653 0.3658
2429.000000 0.3663 0.3668 0.3673 0.3678 0.3685
2434.000000 0.3693 0.3700 0.3707 0.3714 0.3721
2439.000000 0.3728 0.3736 0.3743 0.3755 0.3770
2444.000000 0.3785 0.3800 0.3815 0.3838 0.3864
2449.000000 0.3893 0.3927 0.3961 0.4000 0.4039
2454.000000 0.4074 0.4106 0.4136 0.4155 0.4174
2459.000000 0.4193 0.4212 0.4228 0.4242 0.4255
2464.000000 0.4268 0.4282 0.4294 0.4303 0.4313
2469.000000 0.4320 0.4326 0.4333 0.4339 0.4345
2474.000000 0.4350 0.4354 0.4357 0.4360 0.4362
2479.000000 0.4365 0.4368 0.4371 0.4373 0.4375
2484.000000 0.4377 0.4379 0.4381 0.4383 0.4384
2489.000000 0.4385 0.4386 0.4388 0.4390 0.4393
2494.000000 0.4396 0.4398 0.4404 0.4410 0.4420
2499.000000 0.4435 0.4451 0.4470 0.4490 0.4506
2504.000000 0.4517 0.4527 0.4533 0.4539 0.4544
2509.000000 0.4550 0.4556 0.4562 0.4568 0.4573
2514.000000 0.4577 0.4580 0.4583 0.4585 0.4587
2519.000000 0.4589 0.4591 0.4593 0.4596 0.4598
2524.000000 0.4601 0.4603 0.4605 0.4608 0.4610
2529.000000 0.4611 0.4612 0.4613 0.4614 0.4615
2534.000000 0.4615 0.4615 0.4616 0.4616 0.4616
2539.000000 0.4617 0.4617 0.4618 0.4619 0.4619
2544.000000 0.4620 0.4622 0.4623 0.4623 0.4624
2549.000000 0.4625 0.4626 0.4627 0.4629 0.4630
2554.000000 0.4631 0.4634 0.4636 0.4641 0.4647
2559.000000 0.4654 0.4661 0.4669 0.4678 0.4689
2564.000000 0.4699 0.4710 0.4721 0.4734 0.4749
2569.000000 0.4764 0.4779 0.4794 0.4809 0.4834
2574.000000 0.4860 0.4885 0.4912 0.4939 0.4965
2579.000000 0.4990 0.5016 0.5041 0.5066 0.5090
2584.000000 0.5116 0.5141 0.5165 0.5190 0.5215
2589.000000 0.5240 0.5265 0.5290 0.5315 0.5340
2594.000000 0.5365 0.5391 0.5417 0.5443 0.5468
2599.000000 0.5491 0.5505 0.5518 0.5531 0.5543
2604.000000 0.5555 0.5560 0.5563 0.5566 0.5566
2609.000000 0.5567 0.5568 0.5569 0.5569 0.5570
2614.000000 0.5571 0.5571 0.5573 0.5574 0.5575
2619.000000 0.5576 0.5577 0.5578 0.5580 0.5581
2624.000000 0.5583 0.5584 0.5585 0.5587 0.5588
2629.000000 0.5589 0.5594 0.5598 0.5602 0.5607
2634.000000 0.5611 0.5615 0.5620 0.5624 0.5632
2639.000000 0.5641 0.5650 0.5659 0.5668 0.5678
2644.000000 0.5688 0.5698 0.5710 0.5724 0.5738
2649.000000 0.5752 0.5765 0.5779 0.5797 0.5815
2654.000000 0.5834 0.5854 0.5874 0.5899 0.5937
2659.000000 0.5975 0.6013 0.6052 0.6092 0.6125
2664.000000 0.6154 0.6183 0.6213 0.6242 0.6272
2669.000000 0.6301 0.6329 0.6358 0.6386 0.6414
2674.000000 0.6442 0.6470 0.6498 0.6525 0.6550
2679.000000 0.6574 0.6599 0.6622 0.6646 0.6670
2684.000000 0.6694 0.6718 0.6742 0.6766 0.6790
2689.000000 0.6816 0.6842 0.6868 0.6894 0.6920
2694.000000 0.6946 0.6959 0.6971 0.6984 0.6997
2699.000000 0.7010 0.7023 0.7036 0.7049 0.7062
2704.000000 0.7075 0.7088 0.7101 0.7113 0.7126
2709.000000 0.7136 0.7145 0.7154 0.7163 0.7172
2714.000000 0.7181 0.7189 0.7198 0.7207 0.7216
2719.000000 0.7225 0.7233 0.7242 0.7251 0.7260
2724.000000 0.7269 0.7277 0.7286 0.7295 0.7304
2729.000000 0.7312 0.7320 0.7329 0.7337 0.7345
2734.000000 0.7353 0.7362 0.7370 0.7378 0.7386
2739.000000 0.7389 0.7391 0.7393 0.7395 0.7396
2744.000000 0.7398 0.7400 0.7402 0.7404 0.7402
2749.000000 0.7407 0.7408 0.7409 0.7409 0.7409
2754.000000 0.7407 0.7405 0.7403 0.7401 0.7398
2759.000000 0.7396 0.7392 0.7389 0.7385 0.7381
2764.000000 0.7376 0.7372 0.7367 0.7362 0.7357
2769.000000 0.7350 0.7338 0.7327 0.7317 0.7306
2774.000000 0.7296 0.7286 0.7276 0.7267 0.7256
2779.000000 0.7243 0.7229 0.7215 0.7198 0.7182
2784.000000 0.7165 0.7147 0.7130 0.7113 0.7093
2789.000000 0.7073 0.7053 0.7031 0.7009 0.6986
2794.000000 0.6964 0.6941 0.6918 0.6895 0.6871
2799.000000 0.6847 0.6822 0.6797 0.6772 0.6740
2804.000000 0.6691 0.6643 0.6586 0.6484 0.6383
2809.000000 0.6282 0.6216 0.6150 0.6084 0.6043
2814.000000 0.6005 0.5967 0.5869 0.5742 0.5615
2819.000000 0.5457 0.5271 0.5084 0.4898 0.4712
2824.000000 0.4526 0.4340 0.4154 0.3968 0.3783
2829.000000 0.3597 0.3412 0.3227 0.3042 0.2857
2834.000000 0.2673 0.2488 0.2304 0.2120 0.1954
2839.000000 0.1827 0.1701 0.1583 0.1546 0.1509
2844.000000 0.1472 0.1442 0.1413 0.1384 0.1357
2849.000000 0.1332 0.1307 0.1285 0.1266 0.1247
2854.000000 0.1230 0.1222 0.1214 0.1207 0.1203
2859.000000 0.1200 0.1198 0.1196 0.1195 0.1193
2864.000000 0.1192 0.1191 0.1190 0.1189 0.1189
2869.000000 0.1189 0.1189 0.1188 0.1188 0.1188
2874.000000 0.1187 0.1186 0.1185 0.1184 0.1183
2879.000000 0.1182 0.1181 0.1179 0.1177 0.1175
2884.000000 0.1172 0.1166 0.1160 0.1155 0.1149
2889.000000 0.1144 0.1138 0.1132 0.1124 0.1117
2894.000000 0.1110 0.1103 0.1096 0.1089 0.1085
2899.000000 0.1081 0.1076 0.1073 0.1070 0.1066
2904.000000 0.1065 0.1065 0.1066 0.1067 0.1068
2909.000000 0.1069 0.1070 0.1072 0.1073 0.1075
2914.000000 0.1077 0.1079 0.1080 0.1082 0.1086
2919.000000 0.1091 0.1095 0.1100 0.1105 0.1110
2924.000000 0.1115 0.1122 0.1129 0.1136 0.1146
2929.000000 0.1159 0.1172 0.1185 0.1202 0.1218
2934.000000 0.1235 0.1265 0.1300 0.1334 0.1369
2939.000000 0.1403 0.1437 0.1471 0.1504 0.1536
2944.000000 0.1569 0.1603 0.1639 0.1675 0.1711
2949.000000 0.1737 0.1762 0.1786 0.1809 0.1830
2954.000000 0.1850 0.1871 0.1891 0.1911 0.1932
2959.000000 0.1956 0.1986 0.2015 0.2045 0.2081
2964.000000 0.2118 0.2155 0.2242 0.2407 0.2571
2969.000000 0.2736 0.2818 0.2889 0.2960 0.3031
2974.000000 0.3103 0.3174 0.3245 0.3316 0.3387
2979.000000 0.3457 0.3528 0.3599 0.3670 0.3741
2984.000000 0.3811 0.3882 0.3953 0.4023 0.4094
2989.000000 0.4164 0.4234 0.4305 0.4375 0.4445
2994.000000 0.4516 0.4586 0.4656 0.4725 0.4790
2999.000000 0.4846 0.4901 0.4957 0.5011 0.5064
3004.000000 0.5117 0.5166 0.5202 0.5237 0.5273
3009.000000 0.5301 0.5324 0.5346 0.5369 0.5392
3014.000000 0.5415 0.5438 0.5463 0.5492 0.5520
3019.000000 0.5549 0.5579 0.5608 0.5638 0.5667
3024.000000 0.5687 0.5707 0.5727 0.5746 0.5766
3029.000000 0.5785 0.5804 0.5827 0.5851 0.5876
3034.000000 0.5900 0.5940 0.5981 0.6021 0.6052
3039.000000 0.6067 0.6082 0.6097 0.6112 0.6126
3044.000000 0.6140 0.6155 0.6161 0.6167 0.6174
3049.000000 0.6180 0.6186 0.6192 0.6198 0.6204
3054.000000 0.6210 0.6215 0.6220 0.6221 0.6220
3059.000000 0.6219 0.6218 0.6217 0.6216 0.6214
3064.000000 0.6213 0.6211 0.6210 0.6208 0.6207
3069.000000 0.6205 0.6203 0.6202 0.6200 0.6199
3074.000000 0.6197 0.6196 0.6195 0.6194 0.6194
3079.000000 0.6193 0.6193 0.6193 0.6193 0.6193
3084.000000 0.6193 0.6193 0.6193 0.6194 0.6195
3089.000000 0.6197 0.6199 0.6201 0.6202 0.6204
3094.000000 0.6205 0.6207 0.6209 0.6210 0.6212
3099.000000 0.6213 0.6214 0.6215 0.6216 0.6217
3104.000000 0.6218 0.6220 0.6221 0.6222 0.6222
3109.000000 0.6223 0.6210 0.6222 0.6222 0.6221
3114.000000 0.6220 0.6219 0.6218 0.6218 0.6217
3119.000000 0.6216 0.6215 0.6215 0.6213 0.6211
3124.000000 0.6209 0.6208 0.6205 0.6203 0.6201
3129.000000 0.6198 0.6196 0.6194 0.6191 0.6188
3134.000000 0.6178 0.6169 0.6159 0.6149 0.6136
3139.000000 0.6124 0.6112 0.6100 0.6088 0.6076
3144.000000 0.6063 0.6051 0.6039 0.6027 0.6015
3149.000000 0.6003 0.5991 0.5979 0.5967 0.5954
3154.000000 0.5942 0.5930 0.5918 0.5906 0.5894
3159.000000 0.5882 0.5870 0.5858 0.5846 0.5834
3164.000000 0.5822 0.5810 0.5798 0.5786 0.5774
3169.000000 0.5762 0.5750 0.5738 0.5727 0.5715
3174.000000 0.5703 0.5691 0.5679 0.5667 0.5655
3179.000000 0.5644 0.5632 0.5620 0.5609 0.5597
3184.000000 0.5585 0.5573 0.5561 0.5549 0.5538
3189.000000 0.5526 0.5514 0.5502 0.5490 0.5479
3194.000000 0.5467 0.5455 0.5443 0.5432 0.5420
3199.000000 0.5408 0.5397 0.5385 0.5373 0.5361
3204.000000 0.5350 0.5338 0.5326 0.5315 0.5303
3209.000000 0.5291 0.5280 0.5268 0.5256 0.5245
3214.000000 0.5233 0.5222 0.5210 0.5198 0.5187
3219.000000 0.5175 0.5164 0.5152 0.5140 0.5129
3224.000000 0.5117 0.5106 0.5094 0.5083 0.5071
3229.000000 0.5060 0.5048 0.5037 0.5025 0.5014
3234.000000 0.5002 0.4991 0.4979 0.4968 0.4956
3239.000000 0.4945 0.4934 0.4923 0.4912 0.4900
3244.000000 0.4889 0.4877 0.4866 0.4855 0.4844
3249.000000 0.4834 0.4823 0.4812 0.4802 0.4792
3254.000000 0.4782 0.4773 0.4765 0.4758 0.4751
3259.000000 0.4745 0.4738 0.4731 0.4724 0.4717
3264.000000 0.4709 0.4695 0.4681 0.4668 0.4654
3269.000000 0.4638 0.4621 0.4605 0.4589 0.4572
3274.000000 0.4556 0.4540 0.4524 0.4508 0.4492
3279.000000 0.4475 0.4459 0.4443 0.4427 0.4410
3284.000000 0.4394 0.4378 0.4362 0.4346 0.4330
3289.000000 0.4314 0.4298 0.4282 0.4266 0.4250
3294.000000 0.4233 0.4218 0.4202 0.4186 0.4170
3299.000000 0.4154 0.4138 0.4122 0.4106 0.4090
3304.000000 0.4074 0.4058 0.4042 0.4027 0.4011
3309.000000 0.3995 0.3979 0.3963 0.3947 0.3931
3314.000000 0.3915 0.3899 0.3883 0.3867 0.3852
3319.000000 0.3836 0.3820 0.3804 0.3789 0.3773
3324.000000 0.3757 0.3741 0.3726 0.3710 0.3694
3329.000000 0.3679 0.3663 0.3647 0.3632 0.3616
3334.000000 0.3603 0.3593 0.3582 0.3572 0.3561
3339.000000 0.3551 0.3541 0.3530 0.3520 0.3510
3344.000000 0.3499 0.3489 0.3478 0.3467 0.3456
3349.000000 0.3445 0.3433 0.3422 0.3411 0.3400
3354.000000 0.3388 0.3377 0.3366 0.3356 0.3345
3359.000000 0.3334 0.3324 0.3316 0.3309 0.3302
3364.000000 0.3295 0.3288 0.3280 0.3273 0.3266
3369.000000 0.3258 0.3251 0.3244 0.3237 0.3230
3374.000000 0.3223 0.3217 0.3210 0.3204 0.3197
3379.000000 0.3192 0.3188 0.3184 0.3179 0.3175
3384.000000 0.3171 0.3167 0.3163 0.3159 0.3155
3389.000000 0.3150 0.3146 0.3142 0.3138 0.3137
3394.000000 0.3136 0.3136 0.3135 0.3134 0.3134
3399.000000 0.3133 0.3132 0.3132 0.3131 0.3130
3404.000000 0.3130 0.3129 0.3128 0.3128 0.3127
3409.000000 0.3127 0.3126 0.3125 0.3125 0.3124
3414.000000 0.3124 0.3124 0.3124 0.3124 0.3125
3419.000000 0.3125 0.3126 0.3126 0.3126 0.3127
3424.000000 0.3127 0.3128 0.3128 0.3128 0.3128
3429.000000 0.3128 0.3138 0.3130 0.3130 0.3131
3434.000000 0.3131 0.3132 0.3134 0.3135 0.3136
3439.000000 0.3137 0.3138 0.3139 0.3140 0.3141
3444.000000 0.3142 0.3143 0.3144 0.3145 0.3146
3449.000000 0.3147 0.3149 0.3150 0.3151 0.3152
3454.000000 0.3154 0.3156 0.3157 0.3159 0.3161
3459.000000 0.3163 0.3165 0.3167 0.3169 0.3171
3464.000000 0.3173 0.3175 0.3177 0.3179 0.3181
3469.000000 0.3184 0.3188 0.3191 0.3194 0.3198
3474.000000 0.3201 0.3205 0.3209 0.3213 0.3223
3479.000000 0.3233 0.3243 0.3253 0.3264 0.3279
3484.000000 0.3295 0.3310 0.3325 0.3340 0.3354
3489.000000 0.3369 0.3383 0.3398 0.3413 0.3429
3494.000000 0.3446 0.3463 0.3479 0.3499 0.3524
3499.000000 0.3548 0.3572 0.3596 0.3624 0.3654
3504.000000 0.3684 0.3715 0.3745 0.3774 0.3802
3509.000000 0.3830 0.3859 0.3887 0.3921 0.3957
3514.000000 0.3993 0.4029 0.4065 0.4099 0.4132
3519.000000 0.4165 0.4197 0.4230 0.4251 0.4269
3524.000000 0.4287 0.4305 0.4324 0.4342 0.4360
3529.000000 0.4379 0.4397 0.4415 0.4442 0.4471
3534.000000 0.4499 0.4527 0.4555 0.4589 0.4623
3539.000000 0.4657 0.4692 0.4726 0.4755 0.4784
3544.000000 0.4813 0.4842 0.4871 0.4898 0.4926
3549.000000 0.4954 0.4981 0.5009 0.5035 0.5060
3554.000000 0.5086 0.5111 0.5137 0.5170 0.5204
3559.000000 0.5239 0.5274 0.5309 0.5346 0.5385
3564.000000 0.5424 0.5463 0.5502 0.5540 0.5579
3569.000000 0.5618 0.5656 0.5695 0.5734 0.5772
3574.000000 0.5811 0.5849 0.5888 0.5926 0.5965
3579.000000 0.6003 0.6042 0.6080 0.6119 0.6157
3584.000000 0.6196 0.6234 0.6273 0.6311 0.6349
3589.000000 0.6388 0.6426 0.6464 0.6502 0.6540
3594.000000 0.6578 0.6617 0.6655 0.6693 0.6718
3599.000000 0.6742 0.6765 0.6789 0.6812 0.6847
3604.000000 0.6886 0.6925 0.6964 0.7003 0.7037
3609.000000 0.7065 0.7093 0.7122 0.7150 0.7178
3614.000000 0.7204 0.7230 0.7256 0.7282 0.7308
3619.000000 0.7334 0.7360 0.7386 0.7412 0.7438
3624.000000 0.7464 0.7490 0.7516 0.7543 0.7569
3629.000000 0.7591 0.7610 0.7629 0.7648 0.7667
3634.000000 0.7685 0.7703 0.7721 0.7738 0.7756
3639.000000 0.7773 0.7792 0.7811 0.7830 0.7849
3644.000000 0.7868 0.7897 0.7930 0.7964 0.7997
3649.000000 0.8031 0.8057 0.8070 0.8082 0.8095
3654.000000 0.8107 0.8120 0.8132 0.8145 0.8157
3659.000000 0.8169 0.8182 0.8193 0.8204 0.8215
3664.000000 0.8226 0.8237 0.8247 0.8255 0.8264
3669.000000 0.8272 0.8281 0.8289 0.8294 0.8299
3674.000000 0.8304 0.8308 0.8313 0.8317 0.8320
3679.000000 0.8323 0.8327 0.8330 0.8333 0.8335
3684.000000 0.8336 0.8338 0.8340 0.8342 0.8353
3689.000000 0.8344 0.8345 0.8346 0.8347 0.8348
3694.000000 0.8348 0.8349 0.8349 0.8350 0.8350
3699.000000 0.8351 0.8351 0.8351 0.8351 0.8351
3704.000000 0.8351 0.8351 0.8351 0.8350 0.8350
3709.000000 0.8350 0.8349 0.8349 0.8349 0.8349
3714.000000 0.8349 0.8348 0.8348 0.8348 0.8347
3719.000000 0.8347 0.8347 0.8346 0.8346 0.8346
3724.000000 0.8346 0.8346 0.8345 0.8344 0.8343
3729.000000 0.8342 0.8341 0.8340 0.8339 0.8337
3734.000000 0.8336 0.8334 0.8333 0.8331 0.8330
3739.000000 0.8329 0.8328 0.8326 0.8325 0.8324
3744.000000 0.8322 0.8321 0.8319 0.8317 0.8316
3749.000000 0.8314 0.8313 0.8311 0.8310 0.8309
3754.000000 0.8307 0.8306 0.8304 0.8302 0.8301
3759.000000 0.8299 0.8298 0.8296 0.8294 0.8293
3764.000000 0.8291 0.8290 0.8288 0.8286 0.8285
3769.000000 0.8283 0.8282 0.8280 0.8278 0.8277
3774.000000 0.8275 0.8273 0.8271 0.8270 0.8268
3779.000000 0.8266 0.8264 0.8263 0.8261 0.8259
3784.000000 0.8257 0.8255 0.8252 0.8250 0.8248
3789.000000 0.8245 0.8243 0.8240 0.8237 0.8234
3794.000000 0.8231 0.8229 0.8226 0.8223 0.8220
3799.000000 0.8218 0.8215 0.8212 0.8209 0.8207
3804.000000 0.8204 0.8201 0.8198 0.8195 0.8193
3809.000000 0.8190 0.8187 0.8184 0.8180 0.8175
3814.000000 0.8170 0.8166 0.8161 0.8157 0.8152
3819.000000 0.8147 0.8142 0.8137 0.8133 0.8128
3824.000000 0.8123 0.8119 0.8114 0.8109 0.8105
3829.000000 0.8101 0.8098 0.8095 0.8092 0.8089
3834.000000 0.8086 0.8083 0.8080 0.8077 0.8074
3839.000000 0.8071 0.8068 0.8066 0.8063 0.8061
3844.000000 0.8059 0.8056 0.8054 0.8052 0.8050
3849.000000 0.8048 0.8046 0.8044 0.8042 0.8040
3854.000000 0.8038 0.8036 0.8034 0.8032 0.8031
3859.000000 0.8029 0.8027 0.8026 0.8024 0.8022
3864.000000 0.8020 0.8019 0.8017 0.8015 0.8014
3869.000000 0.8012 0.8010 0.8009 0.8007 0.8005
3874.000000 0.8004 0.8002 0.8000 0.7999 0.7997
3879.000000 0.7995 0.7994 0.7992 0.7990 0.7989
3884.000000 0.7987 0.7985 0.7983 0.7981 0.7980
3889.000000 0.7978 0.7977 0.7975 0.7974 0.7972
3894.000000 0.7971 0.7969 0.7968 0.7967 0.7966
3899.000000 0.7965 0.7964 0.7963 0.7961 0.7960
3904.000000 0.7959 0.7958 0.7957 0.7956 0.7954
3909.000000 0.7953 0.7952 0.7951 0.7950 0.7949
3914.000000 0.7948 0.7946 0.7945 0.7944 0.7943
3919.000000 0.7942 0.7941 0.7940 0.7939 0.7937
3924.000000 0.7936 0.7935 0.7934 0.7933 0.7932
3929.000000 0.7931 0.7929 0.7928 0.7927 0.7926
3934.000000 0.7925 0.7924 0.7923 0.7922 0.7920
3939.000000 0.7919 0.7918 0.7917 0.7916 0.7915
3944.000000 0.7914 0.7912 0.7911 0.7910 0.7909
3949.000000 0.7908 0.7907 0.7906 0.7905 0.7904
3954.000000 0.7902 0.7901 0.7900 0.7899 0.7898
3959.000000 0.7897 0.7896 0.7895 0.7893 0.7892
3964.000000 0.7891 0.7890 0.7889 0.7888 0.7887
3969.000000 0.7886 0.7885 0.7883 0.7882 0.7881
3974.000000 0.7880 0.7879 0.7878 0.7877 0.7876
3979.000000 0.7875 0.7873 0.7872 0.7871 0.7870
3984.000000 0.7869 0.7868 0.7867 0.7866 0.7863
3989.000000 0.7860 0.7857 0.7854 0.7851 0.7848
3994.000000 0.7845 0.7842 0.7839 0.7836 0.7833
3999.000000 0.7830 0.7828
##END=
