##TITLE=Cyclohexane, D12
##JCAMP-DX=4.24
$$ By DXEDIT 1.05 (RS McDonald)
##DATA TYPE=INFRARED SPECTRUM
##CLASS=COBLENTZ III
##ORIGIN=DOW CHEMICAL COMPANY
##OWNER=COPYRIGHT (C) 1988 by COBLENTZ SOCIETY INC.
Collection (C) 2018 copyright by the U.S. Secretary of Commerce
on behalf of the United States of America. All rights reserved.
##DATE=1964/11/20
##MOLFORM=C6 D12
##SOURCE REFERENCE=COBLENTZ NO. 06736
##$NIST ID=B6006736
##$NIST SOURCE=COBLENTZ
##$NIST IMAGE=cob6736
##SPECTROMETER/DATA SYSTEM=DOW KBr FOREPRISM-GRATING
##INSTRUMENT PARAMETERS=BLAZED AT 3.5, 12.0, 20.0 MICRON AND CHANGED AT 5.0, 7.5, 14.9 MICRON
##STATE=LIQUID (NEAT)
##PATH LENGTH=0.0528 CM
##SAMPLING PROCEDURE=TRANSMISSION
##RESOLUTION=2
##DATA PROCESSING=DIGITIZED BY COBLENTZ SOCIETY (BATCH I) FROM HARD COPY
##XUNITS=1/CM
##YUNITS=TRANSMITTANCE
##XFACTOR=1
##YFACTOR=1
##DELTAX=1
##FIRSTX=3800
##LASTX=459
##FIRSTY=0.9964
##MAXX=3800
##MINX=459
##MAXY=0.9984
##MINY=0
##NPOINTS=3342
##XYDATA=(X++(Y..Y))
3800.000000 0.9964 0.9963 0.9963 0.9963 0.9963
3795.000000 0.9963 0.9963 0.9963 0.9963 0.9962
3790.000000 0.9962 0.9960 0.9959 0.9951 0.9944
3785.000000 0.9935 0.9927 0.9918 0.9911 0.9903
3780.000000 0.9895 0.9889 0.9884 0.9880 0.9875
3775.000000 0.9871 0.9868 0.9865 0.9862 0.9859
3770.000000 0.9856 0.9854 0.9853 0.9851 0.9849
3765.000000 0.9848 0.9847 0.9846 0.9846 0.9846
3760.000000 0.9846 0.9846 0.9846 0.9847 0.9849
3755.000000 0.9850 0.9852 0.9853 0.9855 0.9857
3750.000000 0.9859 0.9863 0.9868 0.9871 0.9877
3745.000000 0.9881 0.9885 0.9891 0.9897 0.9903
3740.000000 0.9909 0.9915 0.9921 0.9928 0.9934
3735.000000 0.9942 0.9951 0.9959 0.9967 0.9970
3730.000000 0.9973 0.9975 0.9978 0.9982 0.9983
3725.000000 0.9984 0.9984 0.9983 0.9982 0.9981
3720.000000 0.9980 0.9975 0.9970 0.9959 0.9949
3715.000000 0.9936 0.9924 0.9910 0.9897 0.9881
3710.000000 0.9865 0.9846 0.9828 0.9814 0.9800
3705.000000 0.9797 0.9794 0.9794 0.9795 0.9797
3700.000000 0.9800 0.9802 0.9805 0.9807 0.9810
3695.000000 0.9814 0.9818 0.9824 0.9828 0.9834
3690.000000 0.9839 0.9844 0.9850 0.9859 0.9868
3685.000000 0.9877 0.9887 0.9895 0.9904 0.9912
3680.000000 0.9920 0.9927 0.9935 0.9940 0.9946
3675.000000 0.9948 0.9949 0.9949 0.9947 0.9944
3670.000000 0.9942 0.9939 0.9937 0.9933 0.9930
3665.000000 0.9925 0.9923 0.9920 0.9918 0.9916
3660.000000 0.9914 0.9912 0.9910 0.9908 0.9906
3655.000000 0.9905 0.9904 0.9904 0.9905 0.9905
3650.000000 0.9905 0.9905 0.9906 0.9906 0.9906
3645.000000 0.9906 0.9907 0.9908 0.9909 0.9910
3640.000000 0.9912 0.9913 0.9914 0.9915 0.9917
3635.000000 0.9918 0.9921 0.9924 0.9927 0.9930
3630.000000 0.9933 0.9936 0.9939 0.9943 0.9947
3625.000000 0.9952 0.9957 0.9961 0.9966 0.9968
3620.000000 0.9971 0.9971 0.9974 0.9975 0.9975
3615.000000 0.9975 0.9975 0.9971 0.9968 0.9965
3610.000000 0.9962 0.9956 0.9950 0.9943 0.9937
3605.000000 0.9931 0.9925 0.9920 0.9915 0.9908
3600.000000 0.9902 0.9898 0.9895 0.9892 0.9889
3595.000000 0.9887 0.9886 0.9885 0.9885 0.9885
3590.000000 0.9888 0.9893 0.9898 0.9903 0.9908
3585.000000 0.9911 0.9915 0.9918 0.9921 0.9925
3580.000000 0.9925 0.9925 0.9923 0.9918 0.9913
3575.000000 0.9907 0.9902 0.9897 0.9893 0.9888
3570.000000 0.9884 0.9881 0.9878 0.9877 0.9875
3565.000000 0.9875 0.9875 0.9877 0.9881 0.9885
3560.000000 0.9890 0.9894 0.9899 0.9903 0.9908
3555.000000 0.9912 0.9917 0.9920 0.9923 0.9925
3550.000000 0.9927 0.9928 0.9930 0.9932 0.9934
3545.000000 0.9935 0.9936 0.9936 0.9936 0.9936
3540.000000 0.9936 0.9936 0.9936 0.9935 0.9935
3535.000000 0.9935 0.9935 0.9925 0.9924 0.9920
3530.000000 0.9917 0.9912 0.9908 0.9903 0.9899
3525.000000 0.9894 0.9890 0.9885 0.9881 0.9877
3520.000000 0.9873 0.9868 0.9864 0.9859 0.9855
3515.000000 0.9850 0.9845 0.9840 0.9835 0.9828
3510.000000 0.9824 0.9818 0.9814 0.9808 0.9803
3505.000000 0.9797 0.9792 0.9787 0.9782 0.9775
3500.000000 0.9771 0.9765 0.9760 0.9755 0.9750
3495.000000 0.9744 0.9739 0.9733 0.9728 0.9721
3490.000000 0.9717 0.9711 0.9706 0.9700 0.9695
3485.000000 0.9689 0.9684 0.9678 0.9673 0.9667
3480.000000 0.9662 0.9656 0.9651 0.9645 0.9640
3475.000000 0.9634 0.9628 0.9623 0.9618 0.9613
3470.000000 0.9608 0.9603 0.9599 0.9594 0.9589
3465.000000 0.9584 0.9580 0.9575 0.9571 0.9562
3460.000000 0.9554 0.9534 0.9515 0.9473 0.9432
3455.000000 0.9358 0.9285 0.9121 0.8802 0.8915
3450.000000 0.8870 0.8852 0.8835 0.8830 0.8825
3445.000000 0.8834 0.8843 0.8863 0.8883 0.8905
3440.000000 0.8927 0.8958 0.8989 0.9018 0.9048
3435.000000 0.9075 0.9105 0.9136 0.9216 0.9184
3430.000000 0.9201 0.9202 0.9204 0.9205 0.9207
3425.000000 0.9180 0.9153 0.9113 0.9073 0.9002
3420.000000 0.8931 0.8820 0.8710 0.8603 0.8496
3415.000000 0.8460 0.8424 0.8391 0.8358 0.8339
3410.000000 0.8320 0.8300 0.8281 0.8268 0.8257
3405.000000 0.8252 0.8211 0.8248 0.8250 0.8268
3400.000000 0.8286 0.8315 0.8345 0.8375 0.8408
3395.000000 0.8437 0.8466 0.8496 0.8525 0.8556
3390.000000 0.8586 0.8615 0.8644 0.8670 0.8697
3385.000000 0.8721 0.8853 0.8771 0.8797 0.8811
3380.000000 0.8825 0.8818 0.8812 0.8789 0.8767
3375.000000 0.8739 0.8711 0.8689 0.8667 0.8666
3370.000000 0.8666 0.8670 0.8674 0.8677 0.8680
3365.000000 0.8683 0.8686 0.8687 0.8689 0.8654
3360.000000 0.8620 0.8503 0.8386 0.8297 0.8208
3355.000000 0.8168 0.8128 0.8110 0.8091 0.8075
3350.000000 0.8061 0.8049 0.8037 0.8033 0.8030
3345.000000 0.8038 0.8047 0.8053 0.8060 0.8062
3340.000000 0.8064 0.8065 0.8064 0.8045 0.8026
3335.000000 0.7992 0.7957 0.7903 0.7850 0.7767
3330.000000 0.7684 0.7557 0.7430 0.7101 0.6772
3325.000000 0.6462 0.6153 0.5842 0.5532 0.5221
3320.000000 0.4910 0.4601 0.4127 0.4190 0.4090
3315.000000 0.4089 0.4089 0.4091 0.4094 0.4296
3310.000000 0.4498 0.4751 0.5004 0.5257 0.5510
3305.000000 0.5739 0.5967 0.5998 0.6030 0.6043
3300.000000 0.6042 0.6053 0.6050 0.6012 0.5977
3295.000000 0.5916 0.5856 0.5690 0.5525 0.5258
3290.000000 0.4992 0.4725 0.4458 0.4241 0.4025
3285.000000 0.4016 0.3997 0.4018 0.4030 0.4080
3280.000000 0.4132 0.4195 0.4258 0.4276 0.4295
3275.000000 0.4302 0.4310 0.4307 0.4304 0.4288
3270.000000 0.4318 0.4159 0.4046 0.3930 0.3816
3265.000000 0.3730 0.3646 0.3625 0.3604 0.3580
3260.000000 0.3559 0.3534 0.3509 0.3484 0.3459
3255.000000 0.3436 0.3412 0.3366 0.3321 0.3256
3250.000000 0.3191 0.3125 0.3060 0.2994 0.2929
3245.000000 0.2863 0.2798 0.2732 0.2667 0.2616
3240.000000 0.2527 0.2559 0.2553 0.2618 0.2683
3235.000000 0.2843 0.3004 0.3164 0.3324 0.3484
3230.000000 0.3645 0.3728 0.3810 0.3784 0.3830
3225.000000 0.3720 0.3682 0.3625 0.3568 0.3432
3220.000000 0.3298 0.3221 0.3145 0.3065 0.2966
3215.000000 0.2977 0.2969 0.2967 0.2966 0.2989
3210.000000 0.3013 0.3099 0.3184 0.3278 0.3372
3205.000000 0.3464 0.3558 0.3650 0.3745 0.3802
3200.000000 0.3859 0.3859 0.3856 0.3853 0.3846
3195.000000 0.3800 0.3757 0.3694 0.3632 0.3564
3190.000000 0.3498 0.3101 0.2704 0.2314 0.1924
3185.000000 0.1898 0.1873 0.1873 0.1873 0.1908
3180.000000 0.1954 0.2017 0.2079 0.2101 0.2123
3175.000000 0.2135 0.2150 0.2159 0.2168 0.2173
3170.000000 0.2179 0.2182 0.2183 0.2183 0.2182
3165.000000 0.2177 0.2172 0.2158 0.2145 0.2084
3160.000000 0.2024 0.1871 0.1719 0.1554 0.1389
3155.000000 0.1224 0.1060 0.0956 0.0853 0.0817
3150.000000 0.0782 0.0763 0.0777 0.0737 0.0730
3145.000000 0.0735 0.0741 0.1087 0.1433 0.1829
3140.000000 0.2225 0.2621 0.3017 0.3191 0.3364
3135.000000 0.3446 0.3527 0.3562 0.3597 0.3620
3130.000000 0.3643 0.3647 0.3666 0.3652 0.3653
3125.000000 0.3630 0.3609 0.3476 0.3344 0.3218
3120.000000 0.3092 0.2966 0.2793 0.2801 0.2762
3115.000000 0.2760 0.2758 0.2810 0.2863 0.3081
3110.000000 0.3300 0.3597 0.3895 0.4192 0.4489
3105.000000 0.4687 0.4885 0.4946 0.5008 0.5029
3100.000000 0.5126 0.5059 0.5068 0.5072 0.5076
3095.000000 0.4926 0.4776 0.4612 0.4245 0.4330
3090.000000 0.4210 0.4327 0.4443 0.4669 0.4896
3085.000000 0.5122 0.5349 0.5575 0.5802 0.6028
3080.000000 0.6255 0.6481 0.6708 0.6701 0.6694
3075.000000 0.6690 0.6686 0.6685 0.6685 0.6739
3070.000000 0.6793 0.6856 0.6919 0.6984 0.7048
3065.000000 0.7111 0.7175 0.7238 0.7301 0.7365
3060.000000 0.7430 0.7493 0.7557 0.7619 0.7684
3055.000000 0.7748 0.7811 0.7857 0.7901 0.7905
3050.000000 0.7906 0.7906 0.7928 0.7887 0.7871
3045.000000 0.7796 0.7721 0.7661 0.7600 0.7568
3040.000000 0.7539 0.7514 0.7489 0.7465 0.7443
3035.000000 0.7421 0.7400 0.7375 0.7351 0.7325
3030.000000 0.7301 0.7280 0.7258 0.7237 0.7215
3025.000000 0.7196 0.7175 0.7160 0.7144 0.6642
3020.000000 0.6141 0.5879 0.5626 0.5619 0.5621
3015.000000 0.5789 0.5957 0.6139 0.6321 0.6503
3010.000000 0.6686 0.6868 0.7051 0.7157 0.7264
3005.000000 0.7282 0.7301 0.7312 0.7325 0.7337
3000.000000 0.7348 0.7355 0.7361 0.7364 0.7364
2995.000000 0.7364 0.7354 0.7353 0.7345 0.7314
2990.000000 0.7283 0.7224 0.7165 0.7111 0.7058
2985.000000 0.6995 0.6932 0.6836 0.6741 0.6578
2980.000000 0.6415 0.6146 0.5877 0.5607 0.5337
2975.000000 0.5067 0.4798 0.4528 0.4259 0.3989
2970.000000 0.3720 0.3450 0.3181 0.2931 0.2681
2965.000000 0.2625 0.2570 0.2538 0.2506 0.2492
2960.000000 0.2476 0.2476 0.2476 0.2522 0.2569
2955.000000 0.2705 0.2842 0.2978 0.3115 0.3250
2950.000000 0.3387 0.3482 0.3577 0.3579 0.3580
2945.000000 0.3550 0.3573 0.3382 0.3247 0.3110
2940.000000 0.2974 0.2838 0.2702 0.2565 0.2429
2935.000000 0.2293 0.2157 0.2020 0.1884 0.1748
2930.000000 0.1612 0.1475 0.1339 0.1157 0.0975
2925.000000 0.0806 0.0638 0.0471 0.0306 0.0275
2920.000000 0.0245 0.0226 0.0208 0.0196 0.0183
2915.000000 0.0177 0.0171 0.0164 0.0164 0.0165
2910.000000 0.0173 0.0194 0.0215 0.0237 0.0260
2905.000000 0.0325 0.0390 0.0459 0.0528 0.0597
2900.000000 0.0666 0.0735 0.0907 0.0838 0.0871
2895.000000 0.0856 0.0841 0.0770 0.0699 0.0627
2890.000000 0.0556 0.0485 0.0414 0.0350 0.0287
2885.000000 0.0266 0.0248 0.0244 0.0241 0.0248
2880.000000 0.0256 0.0434 0.0612 0.0893 0.1176
2875.000000 0.1337 0.1499 0.1660 0.1822 0.1983
2870.000000 0.2145 0.2306 0.2468 0.2665 0.2862
2865.000000 0.2984 0.3106 0.3190 0.3275 0.3332
2860.000000 0.3390 0.3450 0.3512 0.3574 0.3637
2855.000000 0.3680 0.3723 0.3870 0.4016 0.4412
2850.000000 0.4809 0.5132 0.5456 0.5503 0.5551
2845.000000 0.5634 0.5717 0.5837 0.5957 0.6077
2840.000000 0.6197 0.6317 0.6437 0.6533 0.6630
2835.000000 0.6635 0.6640 0.6641 0.6643 0.6617
2830.000000 0.6592 0.6553 0.6515 0.6521 0.6528
2825.000000 0.6561 0.6595 0.6733 0.6871 0.7021
2820.000000 0.7169 0.7318 0.7468 0.7578 0.7691
2815.000000 0.7737 0.7783 0.7815 0.7848 0.7858
2810.000000 0.7868 0.7871 0.7875 0.7876 0.7876
2805.000000 0.7876 0.7876 0.7654 0.7432 0.7178
2800.000000 0.6925 0.6671 0.6401 0.6401 0.6401
2795.000000 0.6438 0.6475 0.6568 0.6664 0.6758
2790.000000 0.6851 0.6946 0.7040 0.7134 0.7228
2785.000000 0.7322 0.7417 0.7511 0.7605 0.7699
2780.000000 0.7794 0.7888 0.7982 0.8041 0.8101
2775.000000 0.8099 0.8097 0.8092 0.8087 0.8082
2770.000000 0.8076 0.8092 0.8107 0.8125 0.8143
2765.000000 0.8158 0.8174 0.8183 0.8161 0.8192
2760.000000 0.8193 0.8188 0.8183 0.8168 0.8154
2755.000000 0.8130 0.8106 0.8078 0.8053 0.8018
2750.000000 0.7985 0.7939 0.7894 0.7875 0.7856
2745.000000 0.7868 0.7881 0.7889 0.7898 0.7895
2740.000000 0.7893 0.7882 0.7871 0.7851 0.7833
2735.000000 0.7811 0.7790 0.7764 0.7739 0.7601
2730.000000 0.7462 0.7308 0.7011 0.7101 0.7047
2725.000000 0.7088 0.7130 0.7361 0.7595 0.7845
2720.000000 0.8095 0.8198 0.8302 0.8328 0.8357
2715.000000 0.8391 0.8425 0.8480 0.8535 0.8598
2710.000000 0.8662 0.8715 0.8768 0.8825 0.8882
2705.000000 0.8968 0.9057 0.9114 0.9171 0.9211
2700.000000 0.9250 0.9277 0.9304 0.9331 0.9358
2695.000000 0.9370 0.9383 0.9395 0.9407 0.9418
2690.000000 0.9432 0.9439 0.9447 0.9450 0.9453
2685.000000 0.9454 0.9454 0.9455 0.9456 0.9452
2680.000000 0.9448 0.9443 0.9439 0.9435 0.9431
2675.000000 0.9421 0.9413 0.9404 0.9395 0.9387
2670.000000 0.9378 0.9371 0.9366 0.9360 0.9355
2665.000000 0.9350 0.9345 0.9341 0.9304 0.9345
2660.000000 0.9353 0.9362 0.9371 0.9385 0.9399
2655.000000 0.9417 0.9435 0.9449 0.9463 0.9475
2650.000000 0.9488 0.9488 0.9488 0.9487 0.9504
2645.000000 0.9475 0.9467 0.9450 0.9433 0.9412
2640.000000 0.9392 0.9371 0.9351 0.9324 0.9298
2635.000000 0.9271 0.9244 0.9215 0.9186 0.9157
2630.000000 0.9128 0.9100 0.9071 0.9044 0.9017
2625.000000 0.8983 0.8950 0.8911 0.8873 0.8836
2620.000000 0.8800 0.8764 0.8728 0.8671 0.8613
2615.000000 0.8525 0.8437 0.8354 0.8271 0.8061
2610.000000 0.7851 0.7612 0.7375 0.7137 0.6899
2605.000000 0.6660 0.6421 0.6184 0.5946 0.5707
2600.000000 0.5469 0.5287 0.5098 0.5098 0.5098
2595.000000 0.5170 0.5243 0.5321 0.5400 0.5478
2590.000000 0.5557 0.5635 0.5712 0.5791 0.5870
2585.000000 0.5948 0.6027 0.6052 0.6112 0.6085
2580.000000 0.6093 0.6090 0.6088 0.6048 0.6009
2575.000000 0.5960 0.5910 0.5873 0.5835 0.5798
2570.000000 0.5672 0.5734 0.5708 0.5712 0.5717
2565.000000 0.5750 0.5783 0.6068 0.6354 0.6587
2560.000000 0.6819 0.6858 0.6896 0.6921 0.6948
2555.000000 0.6968 0.6991 0.7008 0.7028 0.7045
2550.000000 0.7061 0.7068 0.7075 0.7076 0.7078
2545.000000 0.7078 0.7078 0.7078 0.7078 0.7091
2540.000000 0.7105 0.7146 0.7187 0.7251 0.7315
2535.000000 0.7426 0.7539 0.7651 0.7762 0.7875
2530.000000 0.7988 0.8051 0.8114 0.8118 0.8117
2525.000000 0.8121 0.8119 0.8115 0.8111 0.8069
2520.000000 0.8028 0.7962 0.7899 0.7834 0.7769
2515.000000 0.7705 0.7640 0.7575 0.7511 0.7446
2510.000000 0.7382 0.7317 0.7253 0.7188 0.7122
2505.000000 0.7095 0.7067 0.7061 0.7014 0.7053
2500.000000 0.7051 0.7055 0.7060 0.7075 0.7092
2495.000000 0.7126 0.7162 0.7195 0.7228 0.7264
2490.000000 0.7301 0.7331 0.7361 0.7367 0.7367
2485.000000 0.7367 0.7361 0.7338 0.7315 0.7297
2480.000000 0.7278 0.7268 0.7258 0.7250 0.7242
2475.000000 0.7243 0.7244 0.7251 0.7258 0.7278
2470.000000 0.7300 0.7328 0.7358 0.7396 0.7435
2465.000000 0.7471 0.7507 0.7543 0.7580 0.7615
2460.000000 0.7653 0.7689 0.7725 0.7761 0.7799
2455.000000 0.7835 0.7871 0.7908 0.7945 0.7974
2450.000000 0.8004 0.8028 0.8055 0.8071 0.8089
2445.000000 0.8097 0.8105 0.8105 0.8106 0.8106
2440.000000 0.8105 0.8104 0.8078 0.8094 0.8086
2435.000000 0.8068 0.8053 0.8037 0.8021 0.7983
2430.000000 0.7945 0.7878 0.7814 0.7732 0.7651
2425.000000 0.7537 0.7422 0.7331 0.7239 0.6483
2420.000000 0.5727 0.4891 0.4056 0.3221 0.2385
2415.000000 0.1851 0.1317 0.1281 0.1246 0.1177
2410.000000 0.1108 0.0921 0.0735 0.0729 0.0724
2405.000000 0.0741 0.0662 0.0886 0.1013 0.1164
2400.000000 0.1316 0.1467 0.1618 0.1769 0.1921
2395.000000 0.2072 0.2223 0.2374 0.2526 0.2624
2390.000000 0.2722 0.2726 0.2730 0.2732 0.2734
2385.000000 0.2518 0.2303 0.1995 0.1690 0.1383
2380.000000 0.1076 0.0769 0.0463 0.0445 0.0427
2375.000000 0.0425 0.0417 0.0431 0.0439 0.0496
2370.000000 0.0554 0.0660 0.0766 0.0991 0.1217
2365.000000 0.1596 0.1975 0.2354 0.2733 0.3112
2360.000000 0.3491 0.3870 0.4249 0.4627 0.5006
2355.000000 0.5386 0.5766 0.5860 0.5954 0.5997
2350.000000 0.6040 0.6099 0.6158 0.6198 0.6238
2345.000000 0.6272 0.6306 0.6328 0.6350 0.6369
2340.000000 0.6388 0.6406 0.6424 0.6440 0.6456
2335.000000 0.6471 0.6488 0.6504 0.6521 0.6528
2330.000000 0.6537 0.6539 0.6542 0.6542 0.6565
2325.000000 0.6535 0.6526 0.6505 0.6484 0.6411
2320.000000 0.6341 0.6123 0.5905 0.5683 0.5460
2315.000000 0.5238 0.5016 0.4793 0.4571 0.4348
2310.000000 0.4126 0.3903 0.3680 0.3458 0.3236
2305.000000 0.3013 0.2791 0.2568 0.2346 0.2123
2300.000000 0.1901 0.1678 0.1456 0.1233 0.1011
2295.000000 0.0789 0.0567 0.0358 0.0149 0.0126
2290.000000 0.0104 0.0067 0.0030 0.0015 0.0000
2285.000000 0.0000 0.0001 0.0001 0.0001 0.0001
2280.000000 0.0001 0.0032 0.0063 0.0135 0.0209
2275.000000 0.0244 0.0279 0.0298 0.0317 0.0335
2270.000000 0.0353 0.0363 0.0374 0.0380 0.0387
2265.000000 0.0387 0.0388 0.0387 0.0384 0.0375
2260.000000 0.0366 0.0348 0.0330 0.0310 0.0290
2255.000000 0.0266 0.0243 0.0208 0.0174 0.0138
2250.000000 0.0102 0.0056 0.0011 0.0006 0.0002
2245.000000 0.0002 0.0002 0.0002 0.0002 0.0002
2240.000000 0.0002 0.0002 0.0002 0.0002 0.0002
2235.000000 0.0002 0.0002 0.0002 0.0002 0.0002
2230.000000 0.0002 0.0002 0.0002 0.0002 0.0002
2225.000000 0.0002 0.0002 0.0002 0.0002 0.0002
2220.000000 0.0002 0.0002 0.0002 0.0002 0.0002
2215.000000 0.0002 0.0002 0.0002 0.0002 0.0002
2210.000000 0.0002 0.0002 0.0002 0.0002 0.0002
2205.000000 0.0002 0.0002 0.0002 0.0002 0.0001
2200.000000 0.0001 0.0001 0.0001 0.0001 0.0001
2195.000000 0.0001 0.0001 0.0001 0.0001 0.0001
2190.000000 0.0001 0.0001 0.0001 0.0001 0.0001
2185.000000 0.0001 0.0001 0.0001 0.0001 0.0001
2180.000000 0.0001 0.0001 0.0001 0.0001 0.0001
2175.000000 0.0001 0.0001 0.0001 0.0001 0.0001
2170.000000 0.0001 0.0001 0.0001 0.0001 0.0001
2165.000000 0.0001 0.0001 0.0001 0.0001 0.0001
2160.000000 0.0001 0.0001 0.0001 0.0001 0.0001
2155.000000 0.0001 0.0001 0.0001 0.0001 0.0001
2150.000000 0.0001 0.0001 0.0001 0.0001 0.0001
2145.000000 0.0001 0.0001 0.0001 0.0001 0.0001
2140.000000 0.0001 0.0001 0.0001 0.0001 0.0001
2135.000000 0.0000 0.0000 0.0000 0.0000 0.0000
2130.000000 0.0000 0.0000 0.0000 0.0000 0.0000
2125.000000 0.0000 0.0000 0.0000 0.0000 0.0000
2120.000000 0.0000 0.0000 0.0000 0.0000 0.0000
2115.000000 0.0000 0.0000 0.0000 0.0000 0.0000
2110.000000 0.0000 0.0000 0.0000 0.0000 0.0000
2105.000000 0.0000 0.0000 0.0000 0.0000 0.0000
2100.000000 0.0000 0.0000 0.0000 0.0000 0.0000
2095.000000 0.0000 0.0000 0.0000 0.0000 0.0000
2090.000000 0.0000 0.0000 0.0000 0.0000 0.0000
2085.000000 0.0000 0.0000 0.0000 0.0000 0.0000
2080.000000 0.0000 0.0000 0.0000 0.0000 0.0000
2075.000000 0.0000 0.0000 0.0000 0.0000 0.0000
2070.000000 0.0000 0.0000 0.0000 0.0000 0.0000
2065.000000 0.0000 0.0000 0.0000 0.0000 0.0000
2060.000000 0.0000 0.0000 0.0000 0.0000 0.0000
2055.000000 0.0000 0.0000 0.0138 0.0276 0.0419
2050.000000 0.0562 0.0728 0.0895 0.1042 0.1192
2045.000000 0.1295 0.1398 0.1471 0.1545 0.1746
2040.000000 0.1949 0.2150 0.2352 0.2553 0.2755
2035.000000 0.2956 0.3158 0.3316 0.3475 0.3540
2030.000000 0.3605 0.3686 0.3766 0.3766 0.3764
2025.000000 0.3792 0.3794 0.3788 0.3782 0.3750
2020.000000 0.3720 0.3480 0.3242 0.2933 0.2625
2015.000000 0.2316 0.2008 0.1700 0.1392 0.1096
2010.000000 0.0801 0.0653 0.0505 0.0459 0.0413
2005.000000 0.0379 0.0345 0.0311 0.0277 0.0141
2000.000000 0.0005 0.0003 0.0003 0.0002 0.0002
1995.000000 0.0002 0.0002 0.0107 0.0267 0.0358
1990.000000 0.0505 0.0670 0.0834 0.0972 0.1091
1985.000000 0.1218 0.1363 0.1606 0.1866 0.2105
1980.000000 0.2818 0.3460 0.4104 0.4747 0.5367
1975.000000 0.5651 0.5879 0.6050 0.6190 0.6302
1970.000000 0.6393 0.6457 0.6510 0.6584 0.6643
1965.000000 0.6680 0.6707 0.6767 0.6741 0.6736
1960.000000 0.6711 0.6672 0.6581 0.6408 0.6155
1955.000000 0.5703 0.5423 0.5229 0.5056 0.4897
1950.000000 0.4721 0.4491 0.4009 0.3518 0.3025
1945.000000 0.2532 0.2040 0.1664 0.1924 0.2279
1940.000000 0.2634 0.2989 0.3344 0.3700 0.4055
1935.000000 0.4410 0.4765 0.4922 0.4862 0.4716
1930.000000 0.4570 0.4423 0.4277 0.4131 0.4084
1925.000000 0.4064 0.4236 0.4376 0.4515 0.4655
1920.000000 0.4781 0.4885 0.4990 0.5102 0.5215
1915.000000 0.5321 0.5391 0.5452 0.5480 0.5495
1910.000000 0.5504 0.5512 0.5522 0.5530 0.5571
1905.000000 0.5541 0.5539 0.5517 0.5476 0.5095
1900.000000 0.4481 0.3868 0.3254 0.2640 0.2134
1895.000000 0.2120 0.2580 0.2977 0.3373 0.3768
1890.000000 0.4165 0.4560 0.4957 0.5249 0.5272
1885.000000 0.5272 0.5060 0.4814 0.4567 0.4249
1880.000000 0.4274 0.4418 0.4700 0.4982 0.5265
1875.000000 0.5547 0.5829 0.6112 0.6394 0.6500
1870.000000 0.6518 0.6526 0.6560 0.6323 0.6036
1865.000000 0.5748 0.5460 0.5173 0.4885 0.4734
1860.000000 0.4743 0.4831 0.5039 0.5348 0.5740
1855.000000 0.6132 0.6524 0.6915 0.7188 0.7265
1850.000000 0.7344 0.7421 0.7494 0.7565 0.7658
1845.000000 0.7806 0.7997 0.8124 0.8230 0.8323
1840.000000 0.8394 0.8441 0.8459 0.8470 0.8475
1835.000000 0.8482 0.8487 0.8492 0.8494 0.8508
1830.000000 0.8496 0.8498 0.8499 0.8500 0.8501
1825.000000 0.8501 0.8501 0.8501 0.8501 0.8497
1820.000000 0.8492 0.8486 0.8482 0.8471 0.8458
1815.000000 0.8438 0.8381 0.8262 0.8008 0.7765
1810.000000 0.7495 0.7193 0.7045 0.6896 0.6748
1805.000000 0.6600 0.6451 0.6408 0.6515 0.6672
1800.000000 0.6831 0.6928 0.6907 0.6714 0.6237
1795.000000 0.5760 0.5284 0.4808 0.4332 0.3940
1790.000000 0.3941 0.4285 0.4806 0.5328 0.5849
1785.000000 0.6366 0.6471 0.6576 0.6698 0.6828
1780.000000 0.7014 0.7251 0.7408 0.7511 0.7638
1775.000000 0.7765 0.7874 0.7908 0.7918 0.7901
1770.000000 0.7864 0.7791 0.7665 0.7514 0.7361
1765.000000 0.7245 0.7150 0.7075 0.7076 0.7092
1760.000000 0.7118 0.7128 0.7128 0.7125 0.7146
1755.000000 0.7248 0.7526 0.7810 0.7940 0.8041
1750.000000 0.8138 0.8186 0.8224 0.8239 0.8258
1745.000000 0.8236 0.8221 0.8187 0.8151 0.8122
1740.000000 0.8104 0.8084 0.8061 0.8034 0.7974
1735.000000 0.7787 0.7530 0.7274 0.6840 0.6862
1730.000000 0.7032 0.7234 0.7437 0.7598 0.7618
1725.000000 0.7618 0.7618 0.7558 0.7447 0.7334
1720.000000 0.7237 0.7261 0.7381 0.7505 0.7628
1715.000000 0.7744 0.7774 0.7793 0.7783 0.7746
1710.000000 0.7648 0.7462 0.7189 0.6914 0.6639
1705.000000 0.6364 0.6089 0.5814 0.5540 0.5445
1700.000000 0.5404 0.5753 0.6116 0.6480 0.6843
1695.000000 0.7206 0.8014 0.8251 0.8371 0.8478
1690.000000 0.8591 0.8685 0.8756 0.8821 0.8884
1685.000000 0.8945 0.9000 0.9042 0.9077 0.9108
1680.000000 0.9139 0.9163 0.9183 0.9196 0.9207
1675.000000 0.9224 0.9218 0.9218 0.9216 0.9206
1670.000000 0.9182 0.9131 0.9056 0.8994 0.8958
1665.000000 0.8940 0.8923 0.8909 0.8899 0.8877
1660.000000 0.8885 0.8885 0.8886 0.8903 0.8933
1655.000000 0.8968 0.9008 0.9041 0.9071 0.9095
1650.000000 0.9105 0.9133 0.9110 0.9104 0.9078
1645.000000 0.9049 0.9015 0.8975 0.8934 0.8815
1640.000000 0.8548 0.8351 0.8057 0.7971 0.7951
1635.000000 0.7931 0.7915 0.7895 0.7869 0.7771
1630.000000 0.7444 0.7117 0.6789 0.6461 0.6135
1625.000000 0.5592 0.5610 0.5602 0.5829 0.6219
1620.000000 0.6608 0.6999 0.7286 0.7405 0.7510
1615.000000 0.7551 0.7556 0.7401 0.6896 0.6392
1610.000000 0.5724 0.5744 0.5794 0.6099 0.6404
1605.000000 0.6708 0.7014 0.7318 0.7624 0.7928
1600.000000 0.8234 0.8539 0.8661 0.8700 0.8712
1595.000000 0.8723 0.8718 0.8704 0.8659 0.8558
1590.000000 0.8463 0.8091 0.7601 0.7110 0.6618
1585.000000 0.6129 0.5638 0.5054 0.5064 0.5212
1580.000000 0.5690 0.6168 0.6646 0.7124 0.7418
1575.000000 0.7590 0.7758 0.7896 0.8034 0.8264
1570.000000 0.8466 0.8678 0.8764 0.8828 0.8862
1565.000000 0.8888 0.8914 0.8936 0.8954 0.8949
1560.000000 0.8945 0.8931 0.8901 0.8853 0.8749
1555.000000 0.8636 0.8518 0.8385 0.8225 0.8064
1550.000000 0.8048 0.8050 0.8094 0.8128 0.8155
1545.000000 0.8165 0.8171 0.8171 0.8153 0.8104
1540.000000 0.8018 0.7854 0.7675 0.7525 0.7415
1535.000000 0.7319 0.7255 0.7233 0.7221 0.7440
1530.000000 0.7561 0.7618 0.7667 0.7711 0.7730
1525.000000 0.7768 0.7743 0.7734 0.7708 0.7501
1520.000000 0.6964 0.6425 0.5889 0.5352 0.4814
1515.000000 0.4357 0.4375 0.4538 0.5114 0.5690
1510.000000 0.6266 0.6841 0.7417 0.7735 0.7834
1505.000000 0.7941 0.8099 0.8333 0.8420 0.8530
1500.000000 0.8595 0.8648 0.8687 0.8725 0.8761
1495.000000 0.8792 0.8820 0.8838 0.8856 0.8915
1490.000000 0.8878 0.8887 0.8887 0.8887 0.8886
1485.000000 0.8882 0.8866 0.8849 0.8833 0.8798
1480.000000 0.8757 0.8705 0.8643 0.8565 0.8477
1475.000000 0.8362 0.8176 0.8003 0.7867 0.7725
1470.000000 0.7547 0.7440 0.7387 0.7334 0.7295
1465.000000 0.7258 0.7221 0.7185 0.7148 0.7111
1460.000000 0.7071 0.7025 0.6987 0.6954 0.6922
1455.000000 0.6905 0.6898 0.6897 0.6908 0.6928
1450.000000 0.6945 0.6950 0.6918 0.6833 0.6753
1445.000000 0.6678 0.6625 0.6590 0.6632 0.6745
1440.000000 0.7005 0.7264 0.7524 0.7701 0.7857
1435.000000 0.7998 0.8071 0.8145 0.8230 0.8328
1430.000000 0.8417 0.8500 0.8578 0.8652 0.8723
1425.000000 0.8794 0.8847 0.8880 0.8897 0.8914
1420.000000 0.8947 0.8928 0.8928 0.8927 0.8925
1415.000000 0.8915 0.8904 0.8886 0.8864 0.8838
1410.000000 0.8803 0.8768 0.8753 0.8753 0.8752
1405.000000 0.8762 0.8781 0.8801 0.8823 0.8849
1400.000000 0.8875 0.8896 0.8914 0.8940 0.8925
1395.000000 0.8925 0.8925 0.8918 0.8895 0.8864
1390.000000 0.8803 0.8675 0.8470 0.8346 0.8221
1385.000000 0.8098 0.7974 0.7914 0.7905 0.7901
1380.000000 0.7928 0.7971 0.8018 0.8065 0.8117
1375.000000 0.8167 0.8207 0.8227 0.8233 0.8233
1370.000000 0.8200 0.8141 0.8078 0.8030 0.7989
1365.000000 0.7947 0.7904 0.7855 0.7783 0.7047
1360.000000 0.6010 0.6002 0.5997 0.6325 0.6699
1355.000000 0.7071 0.7445 0.7818 0.8192 0.8453
1350.000000 0.8567 0.8631 0.8671 0.8699 0.8721
1345.000000 0.8750 0.8740 0.8747 0.8753 0.8751
1340.000000 0.8746 0.8732 0.8717 0.8686 0.8648
1335.000000 0.8575 0.8480 0.8330 0.8182 0.7996
1330.000000 0.7849 0.7674 0.7485 0.7297 0.7108
1325.000000 0.6921 0.6803 0.6794 0.6819 0.6914
1320.000000 0.7008 0.7101 0.7108 0.7087 0.7045
1315.000000 0.6965 0.6869 0.6767 0.6649 0.6060
1310.000000 0.5370 0.4679 0.3988 0.3297 0.2606
1305.000000 0.2372 0.2355 0.2351 0.2419 0.4074
1300.000000 0.5514 0.6303 0.6378 0.6490 0.6572
1295.000000 0.6646 0.6689 0.6722 0.6751 0.6780
1290.000000 0.6808 0.6836 0.6865 0.6895 0.6925
1285.000000 0.6965 0.7018 0.7078 0.7158 0.7242
1280.000000 0.7330 0.7417 0.7494 0.7588 0.7648
1275.000000 0.7761 0.7742 0.7754 0.7758 0.7743
1270.000000 0.7700 0.7651 0.7591 0.7541 0.7501
1265.000000 0.7472 0.7474 0.7474 0.7492 0.7501
1260.000000 0.7486 0.7374 0.7255 0.7136 0.7017
1255.000000 0.6935 0.6934 0.6918 0.6999 0.7124
1250.000000 0.7245 0.7448 0.7555 0.7617 0.7671
1245.000000 0.7701 0.7751 0.7732 0.7736 0.7737
1240.000000 0.7737 0.7722 0.7708 0.7695 0.7668
1235.000000 0.7635 0.7598 0.7544 0.7491 0.7415
1230.000000 0.7332 0.7237 0.7121 0.6908 0.6669
1225.000000 0.6499 0.6332 0.6135 0.5935 0.5735
1220.000000 0.5534 0.5334 0.5134 0.4754 0.4603
1215.000000 0.4510 0.4456 0.4412 0.4390 0.4381
1210.000000 0.4381 0.4382 0.4401 0.4426 0.4454
1205.000000 0.4482 0.4514 0.4549 0.4585 0.4621
1200.000000 0.4651 0.4657 0.4707 0.4615 0.4560
1195.000000 0.4451 0.4343 0.4239 0.4144 0.4016
1190.000000 0.3870 0.3729 0.3605 0.3489 0.3344
1185.000000 0.3149 0.2902 0.2705 0.2566 0.2384
1180.000000 0.2190 0.1976 0.1735 0.1519 0.1396
1175.000000 0.1275 0.1153 0.1031 0.0909 0.0787
1170.000000 0.0665 0.0543 0.0421 0.0299 0.0177
1165.000000 0.0059 0.0043 0.0033 0.0029 0.0029
1160.000000 0.0024 0.0031 0.0032 0.0033 0.0035
1155.000000 0.0037 0.0039 0.0050 0.0086 0.0172
1150.000000 0.0286 0.0445 0.0670 0.0895 0.1120
1145.000000 0.1346 0.1571 0.1795 0.2021 0.2247
1140.000000 0.2472 0.2697 0.2857 0.2907 0.2879
1135.000000 0.2879 0.2855 0.2811 0.2750 0.2666
1130.000000 0.2581 0.2548 0.2529 0.2509 0.2495
1125.000000 0.2480 0.2452 0.2389 0.2316 0.2234
1120.000000 0.2180 0.2130 0.2077 0.2008 0.1939
1115.000000 0.1869 0.1796 0.1513 0.1411 0.1318
1110.000000 0.1236 0.1167 0.1110 0.1053 0.0972
1105.000000 0.0880 0.0786 0.0710 0.0555 0.0462
1100.000000 0.0408 0.0354 0.0300 0.0247 0.0193
1095.000000 0.0139 0.0085 0.0045 0.0045 0.0044
1090.000000 0.0044 0.0044 0.0044 0.0043 0.0043
1085.000000 0.0043 0.0042 0.0042 0.0042 0.0041
1080.000000 0.0040 0.0038 0.0036 0.0034 0.0033
1075.000000 0.0031 0.0031 0.0031 0.0030 0.0030
1070.000000 0.0033 0.0037 0.0041 0.0049 0.0076
1065.000000 0.0167 0.0315 0.0485 0.0658 0.0856
1060.000000 0.1080 0.1332 0.1471 0.1622 0.1802
1055.000000 0.1972 0.2110 0.2248 0.2459 0.2691
1050.000000 0.2872 0.3016 0.3117 0.3221 0.3318
1045.000000 0.3399 0.3470 0.3532 0.3609 0.3632
1040.000000 0.3634 0.3627 0.3620 0.3616 0.3612
1035.000000 0.3602 0.3580 0.3527 0.3445 0.3325
1030.000000 0.3244 0.3199 0.3192 0.3184 0.3179
1025.000000 0.3159 0.3125 0.3084 0.3044 0.2941
1020.000000 0.2811 0.2681 0.2551 0.2421 0.2291
1015.000000 0.2161 0.2031 0.1901 0.1771 0.1641
1010.000000 0.1512 0.1382 0.1252 0.1122 0.0992
1005.000000 0.0862 0.0732 0.0602 0.0471 0.0342
1000.000000 0.0211 0.0139 0.0118 0.0101 0.0088
995.000000 0.0072 0.0060 0.0049 0.0036 0.0023
990.000000 0.0019 0.0018 0.0017 0.0020 0.0024
985.000000 0.0030 0.0037 0.0046 0.0059 0.0078
980.000000 0.0100 0.0144 0.0187 0.0263 0.0351
975.000000 0.0434 0.0517 0.0612 0.0716 0.0831
970.000000 0.1121 0.1339 0.1557 0.1775 0.1993
965.000000 0.2211 0.2429 0.2646 0.2864 0.3052
960.000000 0.3133 0.3206 0.3260 0.3298 0.3320
955.000000 0.3350 0.3342 0.3342 0.3343 0.3321
950.000000 0.3274 0.3181 0.3031 0.2768 0.2533
945.000000 0.2375 0.2248 0.2126 0.2011 0.1879
940.000000 0.1824 0.1768 0.1735 0.1706 0.1682
935.000000 0.1654 0.1621 0.1554 0.1272 0.0850
930.000000 0.0810 0.0782 0.0755 0.0727 0.0675
925.000000 0.0582 0.0483 0.0405 0.0348 0.0291
920.000000 0.0233 0.0177 0.0120 0.0063 0.0031
915.000000 0.0033 0.0034 0.0036 0.0038 0.0041
910.000000 0.0045 0.0049 0.0072 0.0169 0.0257
905.000000 0.0394 0.1230 0.1774 0.2317 0.2861
900.000000 0.3387 0.3741 0.3926 0.4068 0.4248
895.000000 0.4419 0.4537 0.4645 0.4742 0.4828
890.000000 0.4922 0.5015 0.5101 0.5194 0.5280
885.000000 0.5364 0.5387 0.5397 0.5362 0.5312
880.000000 0.5262 0.5228 0.5274 0.5356 0.5426
875.000000 0.5733 0.6077 0.6419 0.6758 0.6971
870.000000 0.7104 0.7214 0.7296 0.7375 0.7438
865.000000 0.7485 0.7532 0.7564 0.7595 0.7625
860.000000 0.7655 0.7683 0.7711 0.7735 0.7760
855.000000 0.7768 0.7778 0.7788 0.7791 0.7790
850.000000 0.7789 0.7783 0.7776 0.7760 0.7744
845.000000 0.7724 0.7701 0.7675 0.7643 0.7608
840.000000 0.7569 0.7530 0.7489 0.7441 0.7380
835.000000 0.7318 0.7257 0.7194 0.7106 0.6989
830.000000 0.6799 0.6536 0.6381 0.6350 0.6326
825.000000 0.6304 0.6283 0.6260 0.6229 0.6193
820.000000 0.6153 0.6112 0.6073 0.6022 0.5960
815.000000 0.5900 0.5839 0.5778 0.5678 0.5552
810.000000 0.5424 0.5270 0.5198 0.5126 0.5046
805.000000 0.4965 0.4840 0.4573 0.4360 0.4150
800.000000 0.3938 0.3726 0.3548 0.3488 0.3438
795.000000 0.3396 0.3359 0.3353 0.3389 0.3475
790.000000 0.3548 0.3622 0.3696 0.3776 0.3858
785.000000 0.3980 0.4079 0.4177 0.4276 0.4375
780.000000 0.4474 0.4572 0.4671 0.4770 0.4868
775.000000 0.4967 0.5075 0.5122 0.5141 0.5145
770.000000 0.4991 0.4819 0.4646 0.4474 0.4308
765.000000 0.4288 0.4387 0.4543 0.4699 0.4854
760.000000 0.5010 0.5127 0.5188 0.5239 0.5259
755.000000 0.5279 0.5281 0.5297 0.5250 0.5160
750.000000 0.4984 0.4789 0.4638 0.4559 0.4465
745.000000 0.4378 0.4315 0.4171 0.4003 0.3834
740.000000 0.3666 0.3498 0.3330 0.3162 0.2958
735.000000 0.2423 0.2241 0.1995 0.1752 0.1507
730.000000 0.1262 0.1017 0.0773 0.0528 0.0283
725.000000 0.0173 0.0109 0.0074 0.0025 0.0130
720.000000 0.0271 0.0462 0.0673 0.0968 0.1263
715.000000 0.1559 0.1854 0.2150 0.2445 0.2741
710.000000 0.3035 0.3109 0.3073 0.3018 0.2904
705.000000 0.2666 0.2265 0.1823 0.1489 0.1155
700.000000 0.0831 0.0695 0.0555 0.0404 0.0307
695.000000 0.0235 0.0178 0.0123 0.0092 0.0079
690.000000 0.0066 0.0056 0.0058 0.0014 0.0062
685.000000 0.0063 0.0067 0.0204 0.0932 0.1382
680.000000 0.1832 0.2283 0.2733 0.3178 0.3384
675.000000 0.4115 0.4388 0.4595 0.4798 0.5002
670.000000 0.5206 0.5410 0.5615 0.5819 0.6023
665.000000 0.6227 0.6364 0.6461 0.6558 0.6656
660.000000 0.6769 0.6890 0.7000 0.7072 0.7147
655.000000 0.7211 0.7268 0.7328 0.7386 0.7430
650.000000 0.7465 0.7501 0.7538 0.7574 0.7607
645.000000 0.7637 0.7668 0.7698 0.7728 0.7758
640.000000 0.7790 0.7821 0.7854 0.7885 0.7917
635.000000 0.7953 0.7991 0.8030 0.8069 0.8137
630.000000 0.8204 0.8254 0.8291 0.8320 0.8349
625.000000 0.8371 0.8394 0.8394 0.8394 0.8394
620.000000 0.8393 0.8393 0.8396 0.8401 0.8405
615.000000 0.8420 0.8468 0.8517 0.8571 0.8637
610.000000 0.8703 0.8759 0.8792 0.8825 0.8858
605.000000 0.8891 0.8924 0.8957 0.8989 0.9021
600.000000 0.9055 0.9087 0.9111 0.9134 0.9158
595.000000 0.9181 0.9204 0.9228 0.9249 0.9266
590.000000 0.9283 0.9300 0.9317 0.9334 0.9351
585.000000 0.9368 0.9385 0.9395 0.9404 0.9413
580.000000 0.9421 0.9431 0.9441 0.9442 0.9442
575.000000 0.9442 0.9441 0.9441 0.9441 0.9440
570.000000 0.9440 0.9440 0.9441 0.9443 0.9444
565.000000 0.9446 0.9448 0.9450 0.9452 0.9454
560.000000 0.9459 0.9465 0.9471 0.9478 0.9465
555.000000 0.9490 0.9496 0.9501 0.9500 0.9498
550.000000 0.9497 0.9496 0.9482 0.9468 0.9454
545.000000 0.9441 0.9438 0.9436 0.9434 0.9432
540.000000 0.9425 0.9409 0.9393 0.9377 0.9352
535.000000 0.9327 0.9301 0.9274 0.9247 0.9218
530.000000 0.9196 0.9182 0.9192 0.9202 0.9212
525.000000 0.9221 0.9236 0.9253 0.9270 0.9287
520.000000 0.9304 0.9321 0.9334 0.9343 0.9351
515.000000 0.9360 0.9368 0.9378 0.9386 0.9391
510.000000 0.9395 0.9400 0.9403 0.9396 0.9390
505.000000 0.9383 0.9364 0.9346 0.9309 0.9264
500.000000 0.9183 0.9131 0.9106 0.9115 0.9128
495.000000 0.9142 0.9156 0.9166 0.9173 0.9181
490.000000 0.9189 0.9194 0.9198 0.9202 0.9205
485.000000 0.9209 0.9211 0.9212 0.9213 0.9214
480.000000 0.9214 0.9215 0.9216 0.9216 0.9215
475.000000 0.9210 0.9206 0.9201 0.9196 0.9189
470.000000 0.9182 0.9174 0.9166 0.9158 0.9150
465.000000 0.9141 0.9132 0.9123 0.9113 0.9104
460.000000 0.9093 0.9080
##END=
