##TITLE=ACETIC ACID, MAGNESIUM SALT, TETRAHYDRATE
##JCAMP-DX=4.24
##DATA TYPE=INFRARED SPECTRUM
##CLASS=COBLENTZ
##ORIGIN=BELL TELEPHONE LABORATORIES- F. VRATNY
##OWNER=COBLENTZ SOCIETY
Collection (C) 2018 copyright by the U.S. Secretary of Commerce
on behalf of the United States of America. All rights reserved.
##DATE=Not specified, most likely prior to 1970
##MOLFORM=C4 H6 O4 Mg  * 4 H2 O
##SOURCE REFERENCE=COBLENTZ NO. 2037
##$NIST ID=B6002037
##$NIST SOURCE=COBLENTZ
##$NIST IMAGE=cob2037
##SPECTROMETER/DATA SYSTEM=Not specified, most likely a prism, grating, or hybrid spectrometer.
##STATE=SOLID (MINERAL OIL MULL)
##PATH LENGTH=
$$SPECTRAL CONTAMINATION DUE TO OIL AROUND 2900, 1450, 1380 CM^-^1
##SAMPLING PROCEDURE=TRANSMISSION
##RESOLUTION=4
##DATA PROCESSING=DIGITIZED BY NIST FROM HARD COPY
##XUNITS=MICROMETERS
##YUNITS=TRANSMITTANCE
##XFACTOR=1.000000
##YFACTOR=1
##DELTAX=000.006760
##FIRSTX=2.047
##LASTX=15.3173
##FIRSTY=0.667
##MAXX=15.3173
##MINX=2.047
##MAXY=0.711
##MINY=0.027
##NPOINTS=1964
##XYDATA=(X++(Y..Y))
2.047000 0.6670 0.6680 0.6700 0.6720 0.6740
2.080819 0.6740 0.6740 0.6740 0.6750 0.6750
2.115000 0.6770 0.6770 0.6790 0.6790 0.6790
2.148819 0.6800 0.6800 0.6820 0.6840 0.6850
2.183000 0.6850 0.6850 0.6850 0.6850 0.6870
2.216819 0.6890 0.6890 0.6890 0.6890 0.6890
2.250000 0.6890 0.6890 0.6890 0.6850 0.6840
2.283819 0.6820 0.6820 0.6820 0.6800 0.6790
2.318000 0.6770 0.6700 0.6700 0.6680 0.6680
2.351819 0.6680 0.6680 0.6680 0.6680 0.6680
2.385000 0.6680 0.6700 0.6700 0.6700 0.6700
2.418819 0.6700 0.6700 0.6680 0.6680 0.6670
2.453000 0.6670 0.6670 0.6650 0.6650 0.6670
2.486819 0.6670 0.6680 0.6680 0.6700 0.6700
2.521000 0.6720 0.6720 0.6720 0.6720 0.6720
2.554819 0.6720 0.6720 0.6700 0.6700 0.6700
2.588000 0.6700 0.6700 0.6700 0.6700 0.6700
2.621819 0.6680 0.6680 0.6670 0.6650 0.6600
2.656000 0.6580 0.6510 0.6510 0.6500 0.6500
2.689819 0.6480 0.6450 0.6360 0.6310 0.6280
2.723000 0.6160 0.6040 0.5940 0.5820 0.5630
2.756819 0.5380 0.5120 0.5040 0.4940 0.4710
2.791000 0.4410 0.4040 0.3510 0.3000 0.2540
2.824819 0.2100 0.2080 0.2120 0.2590 0.3170
2.859000 0.3560 0.3900 0.4000 0.4020 0.4040
2.892819 0.4050 0.4050 0.4040 0.4020 0.3930
2.926000 0.3760 0.3630 0.3530 0.3440 0.3310
2.959819 0.3190 0.3070 0.2980 0.2900 0.2830
2.994000 0.2730 0.2630 0.2490 0.2410 0.2290
3.027819 0.2240 0.2150 0.2030 0.2020 0.1980
3.061000 0.1910 0.1860 0.1790 0.1730 0.1640
3.094819 0.1590 0.1520 0.1510 0.1470 0.1400
3.129000 0.1400 0.1370 0.1350 0.1290 0.1290
3.162819 0.1270 0.1200 0.1130 0.1120 0.1120
3.197000 0.1120 0.1120 0.1120 0.1130 0.1150
3.230819 0.1180 0.1200 0.1220 0.1250 0.1300
3.264000 0.1340 0.1370 0.1400 0.1470 0.1490
3.297819 0.1490 0.1510 0.1510 0.1510 0.1510
3.332000 0.1510 0.1490 0.1370 0.1170 0.0910
3.365819 0.0730 0.0610 0.0520 0.0440 0.0370
3.399000 0.0300 0.0280 0.0280 0.0270 0.0270
3.432819 0.0280 0.0300 0.0390 0.0490 0.0540
3.467000 0.0570 0.0590 0.0610 0.0620 0.0620
3.500819 0.0740 0.0910 0.1180 0.1520 0.2000
3.535000 0.2580 0.3100 0.3480 0.3730 0.3980
3.568819 0.4170 0.4270 0.4380 0.4480 0.4530
3.602000 0.4580 0.4680 0.4710 0.4770 0.4830
3.635819 0.4880 0.4900 0.4970 0.4970 0.4990
3.670000 0.5050 0.5110 0.5160 0.5240 0.5290
3.703819 0.5310 0.5330 0.5380 0.5410 0.5430
3.737000 0.5480 0.5500 0.5510 0.5550 0.5560
3.770819 0.5600 0.5670 0.5700 0.5730 0.5770
3.805000 0.5820 0.5890 0.5890 0.5920 0.5970
3.838819 0.5990 0.5990 0.6010 0.6020 0.6020
3.873000 0.6060 0.6090 0.6110 0.6140 0.6140
3.906819 0.6140 0.6160 0.6170 0.6190 0.6190
3.940000 0.6190 0.6190 0.6190 0.6190 0.6210
3.973819 0.6210 0.6210 0.6210 0.6210 0.6210
4.008000 0.6210 0.6210 0.6230 0.6230 0.6230
4.041819 0.6230 0.6230 0.6230 0.6210 0.6210
4.075000 0.6210 0.6210 0.6230 0.6230 0.6230
4.108819 0.6240 0.6240 0.6240 0.6260 0.6260
4.143000 0.6260 0.6260 0.6280 0.6260 0.6260
4.176819 0.6260 0.6260 0.6280 0.6280 0.6280
4.211000 0.6280 0.6280 0.6290 0.6290 0.6310
4.244819 0.6310 0.6310 0.6310 0.6310 0.6330
4.278000 0.6330 0.6330 0.6340 0.6360 0.6400
4.311819 0.6410 0.6410 0.6410 0.6410 0.6410
4.346000 0.6410 0.6410 0.6410 0.6400 0.6400
4.379819 0.6410 0.6410 0.6430 0.6480 0.6480
4.413000 0.6500 0.6500 0.6500 0.6500 0.6510
4.446819 0.6530 0.6550 0.6570 0.6570 0.6570
4.481000 0.6580 0.6580 0.6600 0.6600 0.6620
4.514819 0.6620 0.6620 0.6630 0.6630 0.6650
4.549000 0.6650 0.6670 0.6670 0.6670 0.6680
4.582819 0.6680 0.6700 0.6700 0.6700 0.6720
4.616000 0.6740 0.6740 0.6740 0.6750 0.6750
4.649819 0.6770 0.6790 0.6790 0.6800 0.6800
4.684000 0.6840 0.6840 0.6840 0.6850 0.6850
4.717819 0.6870 0.6870 0.6890 0.6910 0.6910
4.751000 0.6920 0.6920 0.6920 0.6940 0.6940
4.784819 0.6960 0.6960 0.6960 0.6970 0.6990
4.819000 0.6990 0.6990 0.6990 0.6990 0.6990
4.852819 0.7010 0.7010 0.7010 0.7020 0.7020
4.887000 0.7020 0.7020 0.7040 0.7040 0.7040
4.920819 0.7060 0.7060 0.7060 0.7070 0.7070
4.954000 0.7070 0.7070 0.7070 0.7070 0.7070
4.987819 0.7070 0.7070 0.7070 0.7070 0.7070
5.022000 0.7070 0.7060 0.7040 0.7040 0.7040
5.055819 0.7060 0.7070 0.7090 0.7090 0.7110
5.089000 0.7110 0.7110 0.7110 0.7110 0.7110
5.122819 0.7110 0.7110 0.7110 0.7110 0.7090
5.157000 0.7090 0.7090 0.7090 0.7090 0.7090
5.190819 0.7090 0.7090 0.7090 0.7090 0.7070
5.225000 0.7070 0.7070 0.7070 0.7070 0.7070
5.258819 0.7060 0.7060 0.7060 0.7040 0.7040
5.292000 0.7040 0.7040 0.7040 0.7040 0.7040
5.325819 0.7040 0.7040 0.7020 0.7010 0.7010
5.360000 0.6990 0.6990 0.6970 0.6970 0.6960
5.393819 0.6940 0.6940 0.6920 0.6890 0.6890
5.427000 0.6890 0.6870 0.6870 0.6850 0.6840
5.460819 0.6820 0.6800 0.6790 0.6770 0.6740
5.495000 0.6700 0.6680 0.6650 0.6630 0.6620
5.528819 0.6600 0.6600 0.6600 0.6580 0.6570
5.563000 0.6550 0.6530 0.6500 0.6500 0.6480
5.596819 0.6430 0.6410 0.6380 0.6330 0.6310
5.630000 0.6280 0.6240 0.6170 0.6140 0.6090
5.663819 0.6070 0.6020 0.6010 0.5920 0.5870
5.698000 0.5850 0.5820 0.5770 0.5680 0.5650
5.731819 0.5630 0.5610 0.5580 0.5550 0.5510
5.765000 0.5500 0.5480 0.5480 0.5460 0.5440
5.798819 0.5410 0.5390 0.5360 0.5330 0.5330
5.833000 0.5310 0.5310 0.5310 0.5310 0.5310
5.866819 0.5290 0.5260 0.5210 0.5190 0.5190
5.901000 0.5170 0.5160 0.5160 0.5120 0.5070
5.934819 0.5050 0.5050 0.5020 0.5000 0.4990
5.968000 0.4970 0.4940 0.4900 0.4870 0.4830
6.001819 0.4800 0.4770 0.4710 0.4710 0.4700
6.036000 0.4660 0.4650 0.4630 0.4550 0.4490
6.069819 0.4380 0.4320 0.4310 0.4310 0.4270
6.103000 0.4120 0.4020 0.4000 0.3980 0.3920
6.136819 0.3820 0.3750 0.3660 0.3610 0.3530
6.171000 0.3370 0.3240 0.3200 0.3150 0.3030
6.204819 0.3000 0.2930 0.2850 0.2760 0.2640
6.239000 0.2560 0.2510 0.2390 0.2240 0.2100
6.272819 0.2050 0.1980 0.1830 0.1710 0.1620
6.306000 0.1540 0.1510 0.1490 0.1420 0.1300
6.339819 0.1170 0.1030 0.1000 0.1000 0.0930
6.374000 0.0910 0.0910 0.0910 0.0910 0.0910
6.407819 0.0890 0.0890 0.0880 0.0830 0.0830
6.441000 0.0830 0.0830 0.0830 0.0830 0.0830
6.474819 0.0830 0.0830 0.0830 0.0840 0.0840
6.509000 0.0840 0.0840 0.0860 0.0860 0.0860
6.542819 0.0860 0.0880 0.0890 0.0890 0.0910
6.577000 0.0910 0.0950 0.0960 0.0960 0.0980
6.610819 0.1010 0.1030 0.1080 0.1120 0.1130
6.644000 0.1130 0.1130 0.1130 0.1170 0.1180
6.677819 0.1220 0.1270 0.1320 0.1460 0.1610
6.712000 0.1690 0.1730 0.1780 0.1790 0.1810
6.745819 0.1850 0.1850 0.1860 0.1880 0.1880
6.780000 0.1860 0.1850 0.1690 0.1510 0.1370
6.813819 0.1250 0.1120 0.1030 0.1010 0.1000
6.847000 0.1000 0.1000 0.1000 0.1000 0.0980
6.880819 0.0980 0.0980 0.0980 0.0960 0.0960
6.915000 0.0960 0.0960 0.0960 0.0950 0.0950
6.948819 0.0950 0.0950 0.0950 0.0950 0.0910
6.982000 0.0890 0.0880 0.0840 0.0840 0.0840
7.015819 0.0840 0.0860 0.0860 0.0890 0.0930
7.050000 0.1010 0.1030 0.1050 0.1130 0.1250
7.083819 0.1470 0.1690 0.1900 0.2020 0.2130
7.118000 0.2220 0.2320 0.2420 0.2520 0.2610
7.151819 0.2680 0.2710 0.2810 0.2830 0.2900
7.185000 0.2970 0.2980 0.2980 0.2980 0.2970
7.218819 0.2950 0.2860 0.2800 0.2730 0.2630
7.253000 0.2580 0.2540 0.2540 0.2580 0.2730
7.286819 0.3000 0.3100 0.3140 0.3170 0.3190
7.320000 0.3240 0.3320 0.3460 0.3510 0.3530
7.353819 0.3560 0.3590 0.3610 0.3610 0.3610
7.388000 0.3610 0.3610 0.3610 0.3630 0.3660
7.421819 0.3710 0.3830 0.3970 0.4020 0.4040
7.456000 0.4090 0.4150 0.4210 0.4290 0.4320
7.489819 0.4360 0.4410 0.4440 0.4480 0.4530
7.523000 0.4610 0.4610 0.4630 0.4650 0.4660
7.556819 0.4680 0.4700 0.4730 0.4730 0.4750
7.591000 0.4770 0.4830 0.4900 0.4920 0.4940
7.624819 0.4940 0.4940 0.4970 0.4990 0.4990
7.658000 0.5000 0.5020 0.5040 0.5070 0.5110
7.691819 0.5120 0.5140 0.5140 0.5160 0.5190
7.726000 0.5210 0.5240 0.5280 0.5310 0.5330
7.759819 0.5330 0.5360 0.5410 0.5430 0.5460
7.794000 0.5480 0.5480 0.5480 0.5500 0.5500
7.827819 0.5510 0.5530 0.5560 0.5580 0.5600
7.861000 0.5610 0.5610 0.5630 0.5680 0.5720
7.894819 0.5720 0.5730 0.5750 0.5770 0.5770
7.929000 0.5770 0.5780 0.5800 0.5820 0.5820
7.962819 0.5840 0.5850 0.5850 0.5850 0.5870
7.996000 0.5870 0.5890 0.5890 0.5920 0.5940
8.029819 0.5940 0.5950 0.5970 0.5970 0.5990
8.064000 0.6010 0.6010 0.6010 0.6020 0.6040
8.097819 0.6060 0.6060 0.6060 0.6060 0.6060
8.132000 0.6090 0.6110 0.6110 0.6140 0.6170
8.165819 0.6240 0.6240 0.6260 0.6260 0.6260
8.199000 0.6260 0.6260 0.6260 0.6260 0.6260
8.232819 0.6260 0.6260 0.6260 0.6260 0.6280
8.267000 0.6280 0.6290 0.6290 0.6290 0.6310
8.300819 0.6310 0.6330 0.6340 0.6340 0.6340
8.334000 0.6360 0.6360 0.6360 0.6380 0.6400
8.367819 0.6400 0.6410 0.6410 0.6450 0.6460
8.402000 0.6460 0.6480 0.6480 0.6500 0.6500
8.435819 0.6500 0.6500 0.6500 0.6500 0.6500
8.470000 0.6500 0.6500 0.6500 0.6480 0.6480
8.503819 0.6460 0.6460 0.6450 0.6450 0.6430
8.537000 0.6430 0.6430 0.6430 0.6430 0.6430
8.570819 0.6430 0.6430 0.6430 0.6430 0.6430
8.605000 0.6450 0.6450 0.6450 0.6450 0.6450
8.638819 0.6450 0.6450 0.6450 0.6450 0.6450
8.672000 0.6460 0.6460 0.6460 0.6460 0.6460
8.705819 0.6460 0.6460 0.6460 0.6460 0.6480
8.740000 0.6480 0.6480 0.6480 0.6480 0.6480
8.773819 0.6480 0.6480 0.6500 0.6500 0.6500
8.808000 0.6500 0.6500 0.6500 0.6510 0.6510
8.841819 0.6510 0.6510 0.6510 0.6530 0.6530
8.875000 0.6530 0.6530 0.6530 0.6530 0.6530
8.908819 0.6530 0.6530 0.6530 0.6530 0.6530
8.943000 0.6530 0.6530 0.6530 0.6530 0.6530
8.976819 0.6530 0.6530 0.6530 0.6530 0.6530
9.010000 0.6530 0.6530 0.6530 0.6530 0.6530
9.043819 0.6530 0.6530 0.6530 0.6530 0.6530
9.078000 0.6530 0.6530 0.6530 0.6510 0.6510
9.111819 0.6510 0.6510 0.6500 0.6500 0.6500
9.146000 0.6500 0.6480 0.6480 0.6480 0.6480
9.179819 0.6460 0.6450 0.6450 0.6430 0.6410
9.213000 0.6400 0.6380 0.6380 0.6360 0.6360
9.246819 0.6340 0.6330 0.6310 0.6310 0.6290
9.281000 0.6290 0.6280 0.6280 0.6260 0.6240
9.314819 0.6240 0.6240 0.6240 0.6230 0.6210
9.348000 0.6190 0.6120 0.6090 0.6090 0.6060
9.381819 0.6020 0.5970 0.5890 0.5800 0.5730
9.416000 0.5680 0.5600 0.5530 0.5510 0.5480
9.449819 0.5460 0.5460 0.5480 0.5500 0.5550
9.484000 0.5670 0.5730 0.5800 0.5870 0.5920
9.517819 0.5920 0.5990 0.6010 0.6020 0.6070
9.551000 0.6070 0.6090 0.6120 0.6120 0.6120
9.584819 0.6120 0.6120 0.6120 0.6110 0.6090
9.619000 0.6040 0.5970 0.5840 0.5750 0.5630
9.652819 0.5530 0.5390 0.5260 0.5070 0.5020
9.686000 0.4970 0.4770 0.4600 0.4550 0.4530
9.719819 0.4510 0.4510 0.4510 0.4530 0.4630
9.754000 0.4700 0.4820 0.4900 0.5050 0.5210
9.787819 0.5240 0.5310 0.5410 0.5500 0.5530
9.822000 0.5610 0.5670 0.5680 0.5730 0.5750
9.855819 0.5770 0.5780 0.5820 0.5890 0.5900
9.889000 0.5920 0.5940 0.5990 0.6010 0.6010
9.922819 0.6020 0.6040 0.6040 0.6070 0.6090
9.957000 0.6110 0.6120 0.6140 0.6160 0.6170
9.990819 0.6190 0.6190 0.6210 0.6230 0.6240
10.024000 0.6240 0.6240 0.6240 0.6260 0.6260
10.057819 0.6260 0.6260 0.6260 0.6260 0.6260
10.092000 0.6260 0.6260 0.6260 0.6260 0.6260
10.125819 0.6260 0.6260 0.6260 0.6260 0.6260
10.160000 0.6260 0.6260 0.6260 0.6240 0.6240
10.193819 0.6230 0.6230 0.6230 0.6210 0.6210
10.227000 0.6210 0.6190 0.6170 0.6160 0.6160
10.260819 0.6160 0.6160 0.6140 0.6120 0.6120
10.295000 0.6110 0.6110 0.6110 0.6110 0.6090
10.328819 0.6070 0.6060 0.6060 0.6040 0.6040
10.362000 0.6040 0.6020 0.6020 0.6010 0.5990
10.395819 0.5970 0.5950 0.5920 0.5900 0.5890
10.430000 0.5870 0.5820 0.5780 0.5780 0.5770
10.463819 0.5770 0.5730 0.5680 0.5630 0.5580
10.498000 0.5510 0.5500 0.5480 0.5410 0.5360
10.531819 0.5330 0.5290 0.5280 0.5240 0.5240
10.565000 0.5240 0.5240 0.5280 0.5360 0.5460
10.598819 0.5530 0.5610 0.5650 0.5680 0.5750
10.633000 0.5800 0.5840 0.5890 0.5920 0.5940
10.666819 0.5990 0.5990 0.6010 0.6010 0.6010
10.700000 0.6010 0.6010 0.6010 0.6010 0.6010
10.733819 0.6010 0.6010 0.6010 0.6010 0.6010
10.768000 0.5990 0.5990 0.5990 0.5990 0.5970
10.801819 0.5970 0.5970 0.5970 0.5970 0.5970
10.836000 0.5970 0.5970 0.5970 0.5950 0.5940
10.869819 0.5940 0.5890 0.5890 0.5870 0.5820
10.903000 0.5800 0.5780 0.5780 0.5770 0.5770
10.936819 0.5750 0.5720 0.5680 0.5650 0.5630
10.971000 0.5630 0.5610 0.5580 0.5560 0.5530
11.004819 0.5530 0.5530 0.5500 0.5480 0.5430
11.038000 0.5410 0.5390 0.5330 0.5280 0.5260
11.071819 0.5240 0.5220 0.5220 0.5210 0.5190
11.106000 0.5140 0.5090 0.5070 0.5020 0.5020
11.139819 0.5000 0.5000 0.4990 0.4940 0.4870
11.174000 0.4820 0.4770 0.4750 0.4710 0.4700
11.207819 0.4680 0.4610 0.4580 0.4560 0.4550
11.241000 0.4550 0.4510 0.4410 0.4360 0.4310
11.274819 0.4260 0.4260 0.4190 0.4150 0.4140
11.309000 0.4120 0.4100 0.4040 0.4020 0.4000
11.342819 0.3930 0.3900 0.3880 0.3830 0.3780
11.376000 0.3710 0.3650 0.3630 0.3610 0.3580
11.409819 0.3580 0.3530 0.3510 0.3490 0.3420
11.444000 0.3370 0.3340 0.3270 0.3250 0.3220
11.477819 0.3220 0.3170 0.3140 0.3140 0.3120
11.512000 0.3100 0.3070 0.3050 0.3030 0.3030
11.545819 0.3030 0.3030 0.3030 0.3030 0.3030
11.579000 0.3030 0.3030 0.3030 0.3030 0.3030
11.612819 0.3030 0.3020 0.3020 0.3020 0.3020
11.647000 0.3020 0.3020 0.3020 0.3020 0.3020
11.680819 0.3020 0.3020 0.3020 0.3030 0.3050
11.715000 0.3050 0.3050 0.3080 0.3100 0.3100
11.748819 0.3120 0.3140 0.3150 0.3150 0.3150
11.782000 0.3150 0.3150 0.3150 0.3150 0.3170
11.815819 0.3170 0.3190 0.3200 0.3220 0.3240
11.850000 0.3250 0.3250 0.3270 0.3290 0.3290
11.883819 0.3290 0.3290 0.3290 0.3290 0.3290
11.917000 0.3310 0.3310 0.3310 0.3320 0.3320
11.950819 0.3320 0.3320 0.3310 0.3310 0.3310
11.985000 0.3310 0.3320 0.3320 0.3320 0.3340
12.018819 0.3340 0.3340 0.3340 0.3340 0.3360
12.053000 0.3360 0.3360 0.3360 0.3370 0.3370
12.086819 0.3370 0.3370 0.3370 0.3370 0.3370
12.120000 0.3370 0.3370 0.3370 0.3360 0.3360
12.153819 0.3360 0.3360 0.3360 0.3360 0.3360
12.188000 0.3360 0.3360 0.3360 0.3360 0.3360
12.221819 0.3360 0.3360 0.3370 0.3370 0.3370
12.255000 0.3370 0.3370 0.3370 0.3360 0.3360
12.288819 0.3360 0.3360 0.3360 0.3360 0.3360
12.323000 0.3360 0.3340 0.3340 0.3340 0.3340
12.356819 0.3320 0.3320 0.3320 0.3320 0.3320
12.391000 0.3320 0.3340 0.3340 0.3340 0.3340
12.424819 0.3340 0.3340 0.3340 0.3340 0.3340
12.458000 0.3360 0.3360 0.3360 0.3360 0.3370
12.491819 0.3390 0.3390 0.3410 0.3410 0.3420
12.526000 0.3420 0.3440 0.3440 0.3460 0.3490
12.559819 0.3530 0.3540 0.3560 0.3560 0.3580
12.593000 0.3590 0.3610 0.3610 0.3610 0.3630
12.626819 0.3700 0.3750 0.3760 0.3760 0.3780
12.661000 0.3820 0.3830 0.3830 0.3850 0.3900
12.694819 0.3930 0.3930 0.3980 0.4000 0.4000
12.729000 0.4000 0.4020 0.4020 0.4040 0.4050
12.762819 0.4070 0.4090 0.4090 0.4140 0.4150
12.796000 0.4170 0.4190 0.4210 0.4210 0.4220
12.829819 0.4240 0.4260 0.4260 0.4260 0.4260
12.864000 0.4260 0.4270 0.4270 0.4270 0.4290
12.897819 0.4320 0.4320 0.4340 0.4340 0.4340
12.931000 0.4340 0.4340 0.4340 0.4340 0.4360
12.964819 0.4360 0.4360 0.4380 0.4380 0.4390
12.999000 0.4390 0.4380 0.4380 0.4390 0.4390
13.032819 0.4390 0.4390 0.4390 0.4390 0.4390
13.067000 0.4380 0.4380 0.4390 0.4390 0.4390
13.100819 0.4390 0.4390 0.4380 0.4380 0.4380
13.134000 0.4340 0.4340 0.4340 0.4320 0.4320
13.167819 0.4320 0.4310 0.4310 0.4310 0.4290
13.202000 0.4290 0.4270 0.4270 0.4270 0.4260
13.235819 0.4260 0.4260 0.4240 0.4220 0.4210
13.269000 0.4190 0.4190 0.4150 0.4140 0.4120
13.302819 0.4090 0.4050 0.4050 0.4020 0.4020
13.337000 0.4020 0.4000 0.4000 0.3980 0.3980
13.370819 0.3970 0.3970 0.3930 0.3920 0.3870
13.405000 0.3800 0.3760 0.3730 0.3710 0.3700
13.438819 0.3680 0.3630 0.3580 0.3580 0.3540
13.472000 0.3540 0.3530 0.3510 0.3490 0.3480
13.505819 0.3460 0.3410 0.3390 0.3370 0.3360
13.540000 0.3360 0.3340 0.3340 0.3320 0.3310
13.573819 0.3290 0.3250 0.3240 0.3220 0.3220
13.607000 0.3200 0.3190 0.3190 0.3170 0.3170
13.640819 0.3170 0.3150 0.3150 0.3140 0.3120
13.675000 0.3100 0.3080 0.3070 0.3070 0.3050
13.708819 0.3030 0.3030 0.3030 0.3030 0.3030
13.743000 0.3030 0.3050 0.3070 0.3070 0.3070
13.776819 0.3070 0.3080 0.3080 0.3120 0.3120
13.810000 0.3140 0.3140 0.3120 0.3120 0.3120
13.843819 0.3120 0.3120 0.3120 0.3120 0.3120
13.878000 0.3140 0.3140 0.3140 0.3150 0.3150
13.911819 0.3170 0.3190 0.3200 0.3200 0.3220
13.945000 0.3240 0.3320 0.3370 0.3390 0.3410
13.978819 0.3420 0.3440 0.3480 0.3490 0.3530
14.013000 0.3540 0.3590 0.3650 0.3660 0.3680
14.046819 0.3700 0.3710 0.3730 0.3750 0.3780
14.081000 0.3820 0.3870 0.3920 0.3950 0.3970
14.114819 0.4000 0.4020 0.4020 0.4040 0.4040
14.148000 0.4040 0.4070 0.4090 0.4150 0.4190
14.181819 0.4210 0.4210 0.4240 0.4240 0.4240
14.216000 0.4270 0.4290 0.4310 0.4320 0.4360
14.249819 0.4360 0.4390 0.4410 0.4430 0.4440
14.283000 0.4440 0.4440 0.4440 0.4440 0.4480
14.316819 0.4510 0.4510 0.4530 0.4530 0.4550
14.351000 0.4600 0.4610 0.4630 0.4660 0.4680
14.384819 0.4710 0.4770 0.4780 0.4780 0.4780
14.419000 0.4780 0.4770 0.4770 0.4770 0.4780
14.452819 0.4780 0.4780 0.4800 0.4820 0.4820
14.486000 0.4820 0.4830 0.4850 0.4850 0.4830
14.519819 0.4830 0.4830 0.4830 0.4830 0.4830
14.554000 0.4830 0.4830 0.4830 0.4830 0.4830
14.587819 0.4830 0.4820 0.4830 0.4830 0.4820
14.621000 0.4820 0.4820 0.4800 0.4800 0.4800
14.654819 0.4800 0.4800 0.4800 0.4780 0.4780
14.689000 0.4770 0.4750 0.4730 0.4730 0.4710
14.722819 0.4700 0.4650 0.4580 0.4550 0.4550
14.757000 0.4530 0.4490 0.4410 0.4340 0.4290
14.790819 0.4240 0.4100 0.4020 0.4000 0.3920
14.824000 0.3870 0.3780 0.3710 0.3680 0.3590
14.857819 0.3530 0.3460 0.3370 0.3270 0.3190
14.892000 0.3120 0.3030 0.3020 0.3000 0.2980
14.925819 0.2920 0.2900 0.2860 0.2860 0.2850
14.959000 0.2830 0.2830 0.2830 0.2830 0.2850
14.992819 0.2850 0.2850 0.2860 0.2880 0.2880
15.027000 0.2900 0.2900 0.2900 0.2900 0.2920
15.060819 0.2920 0.2900 0.2900 0.2900 0.2900
15.095000 0.2900 0.2880 0.2880 0.2860 0.2850
15.128819 0.2850 0.2850 0.2830 0.2830 0.2830
15.162000 0.2830 0.2830 0.2830 0.2830 0.2810
15.195819 0.2810 0.2830 0.2830 0.2850 0.2850
15.230000 0.2880 0.2920 0.2930 0.2980 0.3000
15.263819 0.3030 0.3100 0.3140 0.3170 0.3220
15.297000 0.3310 0.3320 0.3410 0.3680
##END=
