##TITLE=Benzimidazole, 5-amino-, hydrochloride
##JCAMP-DX=4.24
$$ By DXEDIT 1.05 (RS McDonald)
##DATA TYPE=INFRARED SPECTRUM
##CLASS=COBLENTZ II
##ORIGIN=DOW CHEMICAL COMPANY
##OWNER=COPYRIGHT (C) 1988 by COBLENTZ SOCIETY INC.
Collection (C) 2018 copyright by the U.S. Secretary of Commerce
on behalf of the United States of America. All rights reserved.
##DATE=1965/03/18
##NAMES=1H-benzimidazol-5-amine hydrochloride
##MOLFORM=C7 H8 Cl N3
##SOURCE REFERENCE=COBLENTZ NO. 08936
##$NIST ID=B6008936
##$NIST SOURCE=COBLENTZ
##$NIST IMAGE=cob8936
##SPECTROMETER/DATA SYSTEM=BECKMAN IR-9 (GRATING)
##INSTRUMENT PARAMETERS=ORDER CHANGES: 670, 1200, 2000 CM^-^1
##STATE=SOLID (SPLIT MULL), FLUOROLUBE FOR 3800-1330 CM^-^1, NUJOL FOR 1330-400 CM^-^1
##SAMPLING PROCEDURE=TRANSMISSION
##RESOLUTION=2
##DATA PROCESSING=DIGITIZED BY COBLENTZ SOCIETY (BATCH I) FROM HARD COPY
##XUNITS=1/CM
##YUNITS=TRANSMITTANCE
##XFACTOR=1
##YFACTOR=1
##DELTAX=1
##FIRSTX=3804
##LASTX=400
##FIRSTY=0.6908
##MAXX=3804
##MINX=400
##MAXY=0.8771
##MINY=0.0268
##NPOINTS=3405
##XYDATA=(X++(Y..Y))
3804.000000 0.6908 0.6908 0.6910 0.6911 0.6914
3799.000000 0.6915 0.6918 0.6918 0.6921 0.6922
3794.000000 0.6925 0.6926 0.6928 0.6930 0.6932
3789.000000 0.6934 0.6936 0.6937 0.6939 0.6941
3784.000000 0.6943 0.6945 0.6947 0.6949 0.6951
3779.000000 0.6953 0.6956 0.6958 0.6960 0.6961
3774.000000 0.6965 0.6967 0.6969 0.6971 0.6974
3769.000000 0.6975 0.6978 0.6981 0.6983 0.6985
3764.000000 0.6988 0.6990 0.7008 0.6995 0.6997
3759.000000 0.6999 0.7001 0.7003 0.7005 0.7007
3754.000000 0.7010 0.7011 0.7014 0.7015 0.7018
3749.000000 0.7019 0.7021 0.7024 0.7026 0.7028
3744.000000 0.7031 0.7033 0.7035 0.7037 0.7039
3739.000000 0.7041 0.7044 0.7047 0.7050 0.7051
3734.000000 0.7055 0.7058 0.7061 0.7064 0.7067
3729.000000 0.7069 0.7072 0.7075 0.7078 0.7081
3724.000000 0.7084 0.7087 0.7090 0.7093 0.7096
3719.000000 0.7099 0.7101 0.7104 0.7107 0.7110
3714.000000 0.7112 0.7115 0.7118 0.7121 0.7125
3709.000000 0.7126 0.7130 0.7133 0.7136 0.7139
3704.000000 0.7142 0.7145 0.7148 0.7151 0.7154
3699.000000 0.7157 0.7160 0.7162 0.7165 0.7168
3694.000000 0.7171 0.7175 0.7178 0.7181 0.7184
3689.000000 0.7187 0.7190 0.7193 0.7196 0.7199
3684.000000 0.7201 0.7205 0.7208 0.7211 0.7214
3679.000000 0.7217 0.7219 0.7222 0.7225 0.7228
3674.000000 0.7231 0.7233 0.7235 0.7237 0.7239
3669.000000 0.7241 0.7244 0.7246 0.7248 0.7250
3664.000000 0.7251 0.7254 0.7256 0.7258 0.7261
3659.000000 0.7262 0.7265 0.7267 0.7268 0.7271
3654.000000 0.7274 0.7275 0.7278 0.7280 0.7282
3649.000000 0.7284 0.7286 0.7288 0.7291 0.7293
3644.000000 0.7295 0.7297 0.7299 0.7301 0.7304
3639.000000 0.7306 0.7308 0.7310 0.7312 0.7315
3634.000000 0.7317 0.7318 0.7321 0.7324 0.7325
3629.000000 0.7328 0.7331 0.7333 0.7336 0.7338
3624.000000 0.7341 0.7343 0.7346 0.7349 0.7351
3619.000000 0.7354 0.7357 0.7358 0.7361 0.7365
3614.000000 0.7368 0.7369 0.7372 0.7375 0.7378
3609.000000 0.7380 0.7382 0.7383 0.7385 0.7387
3604.000000 0.7389 0.7390 0.7392 0.7393 0.7395
3599.000000 0.7396 0.7398 0.7399 0.7401 0.7403
3594.000000 0.7405 0.7406 0.7408 0.7408 0.7411
3589.000000 0.7411 0.7414 0.7415 0.7417 0.7418
3584.000000 0.7419 0.7419 0.7421 0.7421 0.7421
3579.000000 0.7421 0.7421 0.7421 0.7421 0.7421
3574.000000 0.7421 0.7421 0.7421 0.7421 0.7421
3569.000000 0.7421 0.7421 0.7421 0.7421 0.7421
3564.000000 0.7421 0.7421 0.7421 0.7421 0.7421
3559.000000 0.7421 0.7421 0.7421 0.7421 0.7421
3554.000000 0.7421 0.7421 0.7421 0.7421 0.7421
3549.000000 0.7421 0.7421 0.7421 0.7421 0.7421
3544.000000 0.7421 0.7421 0.7421 0.7421 0.7421
3539.000000 0.7421 0.7421 0.7421 0.7422 0.7422
3534.000000 0.7424 0.7425 0.7425 0.7426 0.7428
3529.000000 0.7428 0.7428 0.7430 0.7431 0.7432
3524.000000 0.7433 0.7433 0.7434 0.7435 0.7436
3519.000000 0.7436 0.7437 0.7438 0.7439 0.7440
3514.000000 0.7441 0.7441 0.7442 0.7443 0.7444
3509.000000 0.7444 0.7445 0.7446 0.7448 0.7449
3504.000000 0.7450 0.7451 0.7451 0.7453 0.7454
3499.000000 0.7455 0.7456 0.7457 0.7458 0.7458
3494.000000 0.7460 0.7461 0.7461 0.7462 0.7464
3489.000000 0.7465 0.7465 0.7467 0.7468 0.7468
3484.000000 0.7471 0.7471 0.7472 0.7474 0.7475
3479.000000 0.7475 0.7476 0.7478 0.7480 0.7481
3474.000000 0.7482 0.7483 0.7485 0.7486 0.7487
3469.000000 0.7488 0.7490 0.7491 0.7492 0.7493
3464.000000 0.7495 0.7496 0.7497 0.7498 0.7500
3459.000000 0.7501 0.7501 0.7503 0.7505 0.7506
3454.000000 0.7507 0.7508 0.7510 0.7511 0.7511
3449.000000 0.7512 0.7515 0.7515 0.7518 0.7519
3444.000000 0.7521 0.7524 0.7525 0.7526 0.7528
3439.000000 0.7531 0.7533 0.7534 0.7536 0.7538
3434.000000 0.7540 0.7542 0.7544 0.7545 0.7547
3429.000000 0.7549 0.7551 0.7551 0.7554 0.7556
3424.000000 0.7558 0.7558 0.7561 0.7562 0.7565
3419.000000 0.7565 0.7568 0.7568 0.7571 0.7572
3414.000000 0.7575 0.7575 0.7578 0.7580 0.7582
3409.000000 0.7583 0.7585 0.7586 0.7588 0.7590
3404.000000 0.7592 0.7593 0.7595 0.7597 0.7600
3399.000000 0.7601 0.7604 0.7606 0.7608 0.7610
3394.000000 0.7612 0.7615 0.7617 0.7618 0.7621
3389.000000 0.7624 0.7625 0.7628 0.7631 0.7633
3384.000000 0.7635 0.7637 0.7639 0.7641 0.7643
3379.000000 0.7645 0.7647 0.7648 0.7650 0.7651
3374.000000 0.7654 0.7655 0.7657 0.7658 0.7661
3369.000000 0.7662 0.7665 0.7665 0.7668 0.7668
3364.000000 0.7669 0.7671 0.7671 0.7672 0.7674
3359.000000 0.7674 0.7675 0.7675 0.7676 0.7678
3354.000000 0.7678 0.7678 0.7680 0.7681 0.7682
3349.000000 0.7683 0.7684 0.7684 0.7685 0.7685
3344.000000 0.7686 0.7687 0.7688 0.7688 0.7689
3339.000000 0.7689 0.7690 0.7690 0.7691 0.7692
3334.000000 0.7693 0.7693 0.7692 0.7691 0.7688
3329.000000 0.7685 0.7683 0.7680 0.7678 0.7674
3324.000000 0.7669 0.7665 0.7661 0.7658 0.7654
3319.000000 0.7650 0.7647 0.7642 0.7638 0.7633
3314.000000 0.7628 0.7622 0.7618 0.7614 0.7608
3309.000000 0.7604 0.7599 0.7594 0.7590 0.7585
3304.000000 0.7580 0.7575 0.7571 0.7568 0.7564
3299.000000 0.7558 0.7554 0.7549 0.7544 0.7539
3294.000000 0.7534 0.7526 0.7519 0.7512 0.7507
3289.000000 0.7500 0.7494 0.7487 0.7481 0.7474
3284.000000 0.7468 0.7460 0.7451 0.7444 0.7436
3279.000000 0.7426 0.7418 0.7410 0.7401 0.7393
3274.000000 0.7385 0.7375 0.7368 0.7356 0.7344
3269.000000 0.7330 0.7317 0.7303 0.7290 0.7275
3264.000000 0.7262 0.7249 0.7235 0.7221 0.7208
3259.000000 0.7190 0.7171 0.7154 0.7136 0.7118
3254.000000 0.7100 0.7082 0.7064 0.7046 0.7028
3249.000000 0.7008 0.6991 0.6972 0.6955 0.6938
3244.000000 0.6921 0.6904 0.6888 0.6871 0.6854
3239.000000 0.6837 0.6821 0.6804 0.6787 0.6769
3234.000000 0.6753 0.6736 0.6719 0.6703 0.6686
3229.000000 0.6662 0.6641 0.6617 0.6593 0.6568
3224.000000 0.6546 0.6521 0.6498 0.6472 0.6448
3219.000000 0.6422 0.6398 0.6373 0.6348 0.6322
3214.000000 0.6297 0.6272 0.6247 0.6221 0.6196
3209.000000 0.6167 0.6139 0.6110 0.6081 0.6052
3204.000000 0.6023 0.5993 0.5964 0.5935 0.5906
3199.000000 0.5876 0.5847 0.5817 0.5788 0.5758
3194.000000 0.5729 0.5699 0.5669 0.5639 0.5609
3189.000000 0.5579 0.5550 0.5515 0.5481 0.5446
3184.000000 0.5410 0.5376 0.5341 0.5300 0.5259
3179.000000 0.5210 0.5164 0.5116 0.5068 0.5020
3174.000000 0.4973 0.4923 0.4873 0.4823 0.4774
3169.000000 0.4724 0.4674 0.4575 0.4477 0.4380
3164.000000 0.4283 0.4203 0.4124 0.4080 0.4037
3159.000000 0.3993 0.3949 0.3902 0.3855 0.3804
3154.000000 0.3753 0.3705 0.3658 0.3542 0.3426
3149.000000 0.3221 0.3017 0.2812 0.2607 0.2553
3144.000000 0.2512 0.2497 0.2495 0.2518 0.2542
3139.000000 0.2602 0.2662 0.2722 0.2782 0.2841
3134.000000 0.2901 0.2961 0.3021 0.3080 0.3140
3129.000000 0.3165 0.3191 0.3197 0.3203 0.3204
3124.000000 0.3205 0.3200 0.3216 0.3188 0.3179
3119.000000 0.3169 0.3159 0.3147 0.3134 0.3115
3114.000000 0.3095 0.3075 0.3055 0.3034 0.3015
3109.000000 0.2988 0.2962 0.2934 0.2908 0.2871
3104.000000 0.2834 0.2788 0.2743 0.2699 0.2655
3099.000000 0.2644 0.2633 0.2629 0.2625 0.2624
3094.000000 0.2623 0.2622 0.2621 0.2610 0.2600
3089.000000 0.2588 0.2577 0.2565 0.2553 0.2535
3084.000000 0.2520 0.2497 0.2475 0.2451 0.2428
3079.000000 0.2404 0.2380 0.2356 0.2332 0.2308
3074.000000 0.2284 0.2260 0.2235 0.2211 0.2187
3069.000000 0.2162 0.2138 0.2112 0.2085 0.2060
3064.000000 0.2034 0.2004 0.1977 0.1945 0.1916
3059.000000 0.1883 0.1851 0.1804 0.1759 0.1634
3054.000000 0.1512 0.1507 0.1503 0.1500 0.1496
3049.000000 0.1492 0.1489 0.1483 0.1478 0.1472
3044.000000 0.1466 0.1459 0.1453 0.1446 0.1440
3039.000000 0.1433 0.1427 0.1417 0.1408 0.1396
3034.000000 0.1384 0.1371 0.1358 0.1342 0.1329
3029.000000 0.1314 0.1300 0.1283 0.1266 0.1248
3024.000000 0.1231 0.1216 0.1201 0.1186 0.1172
3019.000000 0.1161 0.1150 0.1140 0.1131 0.1124
3014.000000 0.1117 0.1113 0.1109 0.1108 0.1107
3009.000000 0.1106 0.1105 0.1104 0.1103 0.1100
3004.000000 0.1098 0.1092 0.1089 0.1082 0.1076
2999.000000 0.1063 0.1051 0.1013 0.0975 0.0926
2994.000000 0.0879 0.0839 0.0802 0.0784 0.0767
2989.000000 0.0760 0.0753 0.0752 0.0752 0.0753
2984.000000 0.0754 0.0758 0.0762 0.0766 0.0771
2979.000000 0.0775 0.0780 0.0783 0.0787 0.0790
2974.000000 0.0791 0.0791 0.0789 0.0786 0.0784
2969.000000 0.0777 0.0770 0.0759 0.0749 0.0738
2964.000000 0.0728 0.0715 0.0702 0.0688 0.0674
2959.000000 0.0660 0.0646 0.0631 0.0617 0.0598
2954.000000 0.0579 0.0556 0.0533 0.0510 0.0487
2949.000000 0.0467 0.0448 0.0427 0.0408 0.0395
2944.000000 0.0382 0.0371 0.0360 0.0349 0.0338
2939.000000 0.0326 0.0315 0.0309 0.0304 0.0300
2934.000000 0.0296 0.0291 0.0287 0.0284 0.0281
2929.000000 0.0280 0.0279 0.0278 0.0278 0.0278
2924.000000 0.0279 0.0280 0.0282 0.0284 0.0286
2919.000000 0.0291 0.0297 0.0307 0.0316 0.0327
2914.000000 0.0337 0.0346 0.0356 0.0366 0.0376
2909.000000 0.0386 0.0397 0.0408 0.0419 0.0431
2904.000000 0.0442 0.0448 0.0455 0.0457 0.0459
2899.000000 0.0460 0.0460 0.0460 0.0459 0.0456
2894.000000 0.0453 0.0450 0.0448 0.0445 0.0442
2889.000000 0.0430 0.0419 0.0395 0.0372 0.0345
2884.000000 0.0318 0.0303 0.0288 0.0283 0.0279
2879.000000 0.0274 0.0270 0.0268 0.0268 0.0268
2874.000000 0.0271 0.0272 0.0274 0.0275 0.0276
2869.000000 0.0277 0.0279 0.0280 0.0282 0.0283
2864.000000 0.0285 0.0286 0.0288 0.0289 0.0291
2859.000000 0.0292 0.0294 0.0294 0.0295 0.0295
2854.000000 0.0295 0.0295 0.0295 0.0291 0.0287
2849.000000 0.0283 0.0279 0.0276 0.0273 0.0272
2844.000000 0.0271 0.0271 0.0272 0.0279 0.0286
2839.000000 0.0296 0.0306 0.0316 0.0328 0.0339
2834.000000 0.0350 0.0361 0.0372 0.0383 0.0394
2829.000000 0.0402 0.0410 0.0417 0.0425 0.0425
2824.000000 0.0425 0.0425 0.0421 0.0419 0.0417
2819.000000 0.0416 0.0414 0.0412 0.0410 0.0408
2814.000000 0.0407 0.0406 0.0406 0.0406 0.0407
2809.000000 0.0414 0.0421 0.0430 0.0439 0.0448
2804.000000 0.0457 0.0466 0.0475 0.0485 0.0496
2799.000000 0.0507 0.0518 0.0528 0.0539 0.0547
2794.000000 0.0556 0.0564 0.0572 0.0579 0.0587
2789.000000 0.0589 0.0592 0.0594 0.0596 0.0598
2784.000000 0.0600 0.0602 0.0605 0.0605 0.0605
2779.000000 0.0606 0.0607 0.0611 0.0616 0.0622
2774.000000 0.0629 0.0636 0.0643 0.0650 0.0657
2769.000000 0.0664 0.0672 0.0679 0.0686 0.0690
2764.000000 0.0694 0.0692 0.0690 0.0687 0.0684
2759.000000 0.0680 0.0677 0.0672 0.0668 0.0662
2754.000000 0.0656 0.0654 0.0652 0.0651 0.0651
2749.000000 0.0651 0.0652 0.0658 0.0665 0.0676
2744.000000 0.0687 0.0701 0.0715 0.0730 0.0745
2739.000000 0.0759 0.0774 0.0794 0.0814 0.0850
2734.000000 0.0886 0.0922 0.0958 0.0993 0.1030
2729.000000 0.1065 0.1101 0.1137 0.1173 0.1209
2724.000000 0.1245 0.1264 0.1284 0.1280 0.1277
2719.000000 0.1274 0.1271 0.1271 0.1271 0.1270
2714.000000 0.1270 0.1270 0.1271 0.1273 0.1276
2709.000000 0.1281 0.1287 0.1302 0.1318 0.1335
2704.000000 0.1353 0.1372 0.1392 0.1411 0.1431
2699.000000 0.1449 0.1467 0.1473 0.1479 0.1485
2694.000000 0.1491 0.1492 0.1495 0.1495 0.1495
2689.000000 0.1494 0.1494 0.1492 0.1492 0.1492
2684.000000 0.1491 0.1490 0.1489 0.1487 0.1486
2679.000000 0.1486 0.1486 0.1486 0.1487 0.1487
2674.000000 0.1488 0.1489 0.1491 0.1495 0.1500
2669.000000 0.1504 0.1508 0.1515 0.1522 0.1529
2664.000000 0.1536 0.1542 0.1551 0.1564 0.1577
2659.000000 0.1595 0.1614 0.1636 0.1660 0.1682
2654.000000 0.1704 0.1733 0.1762 0.1792 0.1822
2649.000000 0.1846 0.1873 0.1902 0.1931 0.1959
2644.000000 0.1987 0.2017 0.2045 0.2075 0.2104
2639.000000 0.2132 0.2161 0.2190 0.2219 0.2248
2634.000000 0.2277 0.2305 0.2334 0.2363 0.2392
2629.000000 0.2421 0.2450 0.2478 0.2507 0.2535
2624.000000 0.2565 0.2594 0.2623 0.2651 0.2680
2619.000000 0.2688 0.2697 0.2701 0.2706 0.2708
2614.000000 0.2708 0.2709 0.2707 0.2704 0.2701
2609.000000 0.2691 0.2682 0.2663 0.2644 0.2617
2604.000000 0.2590 0.2549 0.2508 0.2463 0.2418
2599.000000 0.2369 0.2320 0.2281 0.2242 0.2189
2594.000000 0.2137 0.2066 0.1994 0.1924 0.1853
2589.000000 0.1782 0.1711 0.1639 0.1568 0.1517
2584.000000 0.1466 0.1459 0.1453 0.1446 0.1442
2579.000000 0.1440 0.1439 0.1437 0.1436 0.1435
2574.000000 0.1435 0.1435 0.1436 0.1436 0.1437
2569.000000 0.1437 0.1438 0.1442 0.1446 0.1451
2564.000000 0.1456 0.1460 0.1465 0.1480 0.1496
2559.000000 0.1515 0.1535 0.1561 0.1588 0.1616
2554.000000 0.1644 0.1698 0.1752 0.1800 0.1849
2549.000000 0.1901 0.1953 0.2004 0.2058 0.2110
2544.000000 0.2162 0.2214 0.2267 0.2319 0.2371
2539.000000 0.2423 0.2476 0.2528 0.2580 0.2621
2534.000000 0.2662 0.2687 0.2712 0.2737 0.2762
2529.000000 0.2785 0.2811 0.2832 0.2854 0.2875
2524.000000 0.2897 0.2918 0.2940 0.2960 0.2981
2519.000000 0.3001 0.3021 0.3050 0.3079 0.3110
2514.000000 0.3142 0.3173 0.3204 0.3234 0.3266
2509.000000 0.3297 0.3328 0.3359 0.3390 0.3421
2504.000000 0.3452 0.3482 0.3514 0.3545 0.3577
2499.000000 0.3608 0.3639 0.3670 0.3700 0.3732
2494.000000 0.3762 0.3794 0.3825 0.3856 0.3887
2489.000000 0.3920 0.3954 0.3989 0.4025 0.4059
2484.000000 0.4095 0.4130 0.4165 0.4199 0.4233
2479.000000 0.4260 0.4287 0.4314 0.4342 0.4369
2474.000000 0.4396 0.4423 0.4450 0.4472 0.4495
2469.000000 0.4517 0.4540 0.4562 0.4586 0.4608
2464.000000 0.4631 0.4652 0.4674 0.4693 0.4712
2459.000000 0.4733 0.4753 0.4772 0.4792 0.4812
2454.000000 0.4834 0.4855 0.4877 0.4898 0.4919
2449.000000 0.4937 0.4955 0.4972 0.4990 0.5005
2444.000000 0.5020 0.5031 0.5042 0.5053 0.5064
2439.000000 0.5067 0.5070 0.5072 0.5074 0.5076
2434.000000 0.5079 0.5081 0.5083 0.5085 0.5088
2429.000000 0.5090 0.5093 0.5095 0.5097 0.5112
2424.000000 0.5129 0.5149 0.5169 0.5191 0.5212
2419.000000 0.5235 0.5257 0.5279 0.5302 0.5322
2414.000000 0.5343 0.5360 0.5377 0.5393 0.5410
2409.000000 0.5426 0.5443 0.5460 0.5477 0.5493
2404.000000 0.5510 0.5526 0.5543 0.5560 0.5577
2399.000000 0.5593 0.5610 0.5626 0.5643 0.5657
2394.000000 0.5672 0.5685 0.5699 0.5712 0.5727
2389.000000 0.5740 0.5754 0.5767 0.5781 0.5794
2384.000000 0.5807 0.5819 0.5832 0.5845 0.5858
2379.000000 0.5874 0.5891 0.5910 0.5929 0.5948
2374.000000 0.5968 0.5981 0.5995 0.6007 0.6019
2369.000000 0.6031 0.6044 0.6056 0.6069 0.6078
2364.000000 0.6087 0.6094 0.6102 0.6109 0.6117
2359.000000 0.6124 0.6132 0.6139 0.6147 0.6154
2354.000000 0.6162 0.6169 0.6177 0.6184 0.6191
2349.000000 0.6198 0.6205 0.6212 0.6220 0.6227
2344.000000 0.6234 0.6241 0.6248 0.6254 0.6260
2339.000000 0.6267 0.6274 0.6280 0.6286 0.6292
2334.000000 0.6298 0.6304 0.6310 0.6316 0.6322
2329.000000 0.6327 0.6333 0.6337 0.6342 0.6346
2324.000000 0.6350 0.6354 0.6359 0.6362 0.6368
2319.000000 0.6372 0.6376 0.6381 0.6386 0.6393
2314.000000 0.6401 0.6408 0.6415 0.6422 0.6431
2309.000000 0.6438 0.6445 0.6453 0.6461 0.6472
2304.000000 0.6484 0.6495 0.6506 0.6517 0.6528
2299.000000 0.6551 0.6575 0.6599 0.6624 0.6645
2294.000000 0.6667 0.6683 0.6700 0.6715 0.6732
2289.000000 0.6747 0.6762 0.6776 0.6791 0.6804
2284.000000 0.6818 0.6832 0.6846 0.6853 0.6860
2279.000000 0.6861 0.6865 0.6867 0.6869 0.6871
2274.000000 0.6872 0.6874 0.6875 0.6875 0.6876
2269.000000 0.6876 0.6876 0.6876 0.6876 0.6876
2264.000000 0.6876 0.6876 0.6876 0.6878 0.6882
2259.000000 0.6884 0.6886 0.6888 0.6890 0.6894
2254.000000 0.6899 0.6914 0.6930 0.6946 0.6962
2249.000000 0.6980 0.6997 0.7014 0.7032 0.7049
2244.000000 0.7065 0.7083 0.7101 0.7114 0.7128
2239.000000 0.7141 0.7155 0.7168 0.7183 0.7196
2234.000000 0.7210 0.7222 0.7237 0.7249 0.7261
2229.000000 0.7271 0.7281 0.7291 0.7301 0.7311
2224.000000 0.7321 0.7331 0.7341 0.7347 0.7353
2219.000000 0.7358 0.7365 0.7371 0.7378 0.7384
2214.000000 0.7390 0.7394 0.7399 0.7403 0.7407
2209.000000 0.7411 0.7415 0.7419 0.7424 0.7426
2204.000000 0.7430 0.7432 0.7434 0.7435 0.7437
2199.000000 0.7439 0.7441 0.7442 0.7444 0.7446
2194.000000 0.7448 0.7450 0.7453 0.7455 0.7457
2189.000000 0.7458 0.7461 0.7462 0.7465 0.7467
2184.000000 0.7468 0.7471 0.7472 0.7476 0.7481
2179.000000 0.7484 0.7488 0.7491 0.7495 0.7501
2174.000000 0.7508 0.7518 0.7530 0.7540 0.7551
2169.000000 0.7564 0.7576 0.7590 0.7604 0.7618
2164.000000 0.7633 0.7651 0.7668 0.7687 0.7705
2159.000000 0.7715 0.7726 0.7734 0.7741 0.7748
2154.000000 0.7756 0.7758 0.7762 0.7765 0.7767
2149.000000 0.7768 0.7771 0.7772 0.7775 0.7775
2144.000000 0.7778 0.7778 0.7778 0.7778 0.7778
2139.000000 0.7778 0.7778 0.7778 0.7778 0.7780
2134.000000 0.7780 0.7778 0.7775 0.7774 0.7772
2129.000000 0.7771 0.7768 0.7767 0.7765 0.7764
2124.000000 0.7762 0.7761 0.7760 0.7758 0.7758
2119.000000 0.7756 0.7755 0.7753 0.7751 0.7748
2114.000000 0.7745 0.7740 0.7736 0.7722 0.7710
2109.000000 0.7690 0.7669 0.7641 0.7612 0.7569
2104.000000 0.7526 0.7508 0.7489 0.7478 0.7469
2099.000000 0.7468 0.7468 0.7468 0.7468 0.7467
2094.000000 0.7465 0.7465 0.7465 0.7465 0.7465
2089.000000 0.7467 0.7467 0.7467 0.7465 0.7461
2084.000000 0.7458 0.7454 0.7450 0.7442 0.7434
2079.000000 0.7419 0.7407 0.7394 0.7382 0.7371
2074.000000 0.7361 0.7350 0.7339 0.7324 0.7308
2069.000000 0.7289 0.7268 0.7245 0.7221 0.7187
2064.000000 0.7151 0.7081 0.7010 0.6948 0.6886
2059.000000 0.6831 0.6775 0.6765 0.6722 0.6749
2054.000000 0.6750 0.6750 0.6758 0.6772 0.6787
2049.000000 0.6810 0.6834 0.6858 0.6882 0.6904
2044.000000 0.6925 0.6948 0.6969 0.6987 0.7005
2039.000000 0.7015 0.7025 0.7032 0.7039 0.7041
2034.000000 0.7043 0.7045 0.7048 0.7051 0.7054
2029.000000 0.7058 0.7062 0.7068 0.7072 0.7076
2024.000000 0.7082 0.7086 0.7090 0.7117 0.7144
2019.000000 0.7169 0.7197 0.7222 0.7250 0.7275
2014.000000 0.7301 0.7328 0.7355 0.7381 0.7407
2009.000000 0.7433 0.7460 0.7486 0.7511 0.7538
2004.000000 0.7565 0.7590 0.7615 0.7661 0.7708
1999.000000 0.7755 0.7787 0.7818 0.7849 0.7868
1994.000000 0.7888 0.7907 0.7922 0.7931 0.7939
1989.000000 0.7947 0.7956 0.7964 0.7971 0.7980
1984.000000 0.7984 0.7989 0.7994 0.7999 0.8003
1979.000000 0.8010 0.8022 0.8036 0.8049 0.8061
1974.000000 0.8074 0.8087 0.8100 0.8111 0.8125
1969.000000 0.8138 0.8151 0.8157 0.8158 0.8161
1964.000000 0.8162 0.8165 0.8167 0.8168 0.8169
1959.000000 0.8171 0.8172 0.8175 0.8176 0.8181
1954.000000 0.8186 0.8190 0.8194 0.8199 0.8204
1949.000000 0.8210 0.8215 0.8221 0.8225 0.8232
1944.000000 0.8237 0.8241 0.8291 0.8247 0.8250
1939.000000 0.8253 0.8256 0.8259 0.8262 0.8264
1934.000000 0.8267 0.8268 0.8268 0.8267 0.8265
1929.000000 0.8263 0.8261 0.8247 0.8232 0.8215
1924.000000 0.8196 0.8181 0.8137 0.8157 0.8147
1919.000000 0.8142 0.8155 0.8181 0.8209 0.8240
1914.000000 0.8271 0.8303 0.8334 0.8358 0.8378
1909.000000 0.8398 0.8417 0.8437 0.8454 0.8466
1904.000000 0.8478 0.8491 0.8503 0.8515 0.8528
1899.000000 0.8539 0.8550 0.8561 0.8571 0.8583
1894.000000 0.8594 0.8602 0.8610 0.8618 0.8625
1889.000000 0.8635 0.8643 0.8651 0.8658 0.8663
1884.000000 0.8668 0.8674 0.8704 0.8685 0.8683
1879.000000 0.8680 0.8677 0.8675 0.8671 0.8668
1874.000000 0.8666 0.8662 0.8659 0.8655 0.8651
1869.000000 0.8648 0.8644 0.8641 0.8636 0.8631
1864.000000 0.8625 0.8621 0.8616 0.8611 0.8607
1859.000000 0.8603 0.8600 0.8596 0.8592 0.8588
1854.000000 0.8585 0.8581 0.8575 0.8571 0.8567
1849.000000 0.8563 0.8558 0.8555 0.8553 0.8550
1844.000000 0.8547 0.8545 0.8542 0.8539 0.8540
1839.000000 0.8541 0.8544 0.8548 0.8551 0.8555
1834.000000 0.8559 0.8567 0.8575 0.8583 0.8591
1829.000000 0.8599 0.8604 0.8608 0.8612 0.8616
1824.000000 0.8618 0.8620 0.8621 0.8623 0.8624
1819.000000 0.8624 0.8621 0.8620 0.8618 0.8617
1814.000000 0.8616 0.8614 0.8613 0.8611 0.8621
1809.000000 0.8630 0.8640 0.8649 0.8659 0.8668
1804.000000 0.8677 0.8687 0.8696 0.8701 0.8704
1799.000000 0.8708 0.8711 0.8715 0.8718 0.8721
1794.000000 0.8721 0.8721 0.8721 0.8721 0.8721
1789.000000 0.8718 0.8717 0.8715 0.8713 0.8711
1784.000000 0.8711 0.8711 0.8715 0.8718 0.8723
1779.000000 0.8727 0.8731 0.8735 0.8738 0.8742
1774.000000 0.8745 0.8749 0.8753 0.8757 0.8761
1769.000000 0.8765 0.8768 0.8771 0.8771 0.8771
1764.000000 0.8770 0.8768 0.8767 0.8764 0.8762
1759.000000 0.8759 0.8756 0.8754 0.8751 0.8747
1754.000000 0.8738 0.8728 0.8721 0.8712 0.8692
1749.000000 0.8670 0.8648 0.8625 0.8604 0.8583
1744.000000 0.8563 0.8545 0.8528 0.8511 0.8494
1739.000000 0.8477 0.8459 0.8441 0.8423 0.8408
1734.000000 0.8398 0.8388 0.8384 0.8382 0.8393
1729.000000 0.8405 0.8418 0.8428 0.8439 0.8445
1724.000000 0.8448 0.8451 0.8453 0.8454 0.8454
1719.000000 0.8449 0.8444 0.8439 0.8434 0.8428
1714.000000 0.8423 0.8418 0.8417 0.8415 0.8414
1709.000000 0.8413 0.8411 0.8410 0.8409 0.8408
1704.000000 0.8408 0.8408 0.8408 0.8407 0.8407
1699.000000 0.8406 0.8405 0.8404 0.8403 0.8402
1694.000000 0.8401 0.8400 0.8399 0.8398 0.8398
1689.000000 0.8398 0.8400 0.8401 0.8403 0.8407
1684.000000 0.8412 0.8417 0.8421 0.8427 0.8431
1679.000000 0.8435 0.8439 0.8443 0.8446 0.8445
1674.000000 0.8445 0.8445 0.8445 0.8444 0.8444
1669.000000 0.8444 0.8442 0.8438 0.8434 0.8443
1664.000000 0.8425 0.8421 0.8413 0.8400 0.8382
1659.000000 0.8355 0.8328 0.8295 0.8257 0.8218
1654.000000 0.8178 0.8136 0.8098 0.8071 0.8046
1649.000000 0.8014 0.7994 0.7982 0.7965 0.7944
1644.000000 0.7921 0.7895 0.7867 0.7836 0.7799
1639.000000 0.7750 0.7701 0.7641 0.7571 0.7301
1634.000000 0.6865 0.6428 0.5991 0.5554 0.5327
1629.000000 0.5344 0.5370 0.5721 0.6072 0.6422
1624.000000 0.6774 0.7125 0.7325 0.7397 0.7465
1619.000000 0.7517 0.7553 0.7589 0.7611 0.7632
1614.000000 0.7644 0.7653 0.7658 0.7661 0.7667
1609.000000 0.7694 0.7675 0.7681 0.7681 0.7680
1604.000000 0.7678 0.7668 0.7655 0.7632 0.7605
1599.000000 0.7561 0.7490 0.7421 0.7283 0.7100
1594.000000 0.6915 0.6768 0.6761 0.6754 0.6851
1589.000000 0.7026 0.7201 0.7376 0.7506 0.7551
1584.000000 0.7569 0.7588 0.7605 0.7618 0.7628
1579.000000 0.7638 0.7644 0.7649 0.7653 0.7657
1574.000000 0.7660 0.7660 0.7660 0.7658 0.7655
1569.000000 0.7650 0.7646 0.7642 0.7642 0.7642
1564.000000 0.7644 0.7660 0.7698 0.7761 0.7836
1559.000000 0.7904 0.7965 0.8024 0.8083 0.8141
1554.000000 0.8200 0.8259 0.8317 0.8375 0.8418
1549.000000 0.8432 0.8437 0.8438 0.8438 0.8441
1544.000000 0.8431 0.8425 0.8409 0.8392 0.8375
1539.000000 0.8342 0.8308 0.8273 0.8239 0.8204
1534.000000 0.8168 0.8133 0.8094 0.8050 0.8000
1529.000000 0.7892 0.7414 0.7086 0.7094 0.7133
1524.000000 0.7171 0.7211 0.7235 0.7234 0.7198
1519.000000 0.6761 0.5520 0.4923 0.4912 0.5112
1514.000000 0.5446 0.5779 0.6110 0.6444 0.6776
1509.000000 0.7017 0.7028 0.7025 0.7024 0.7005
1504.000000 0.6969 0.6868 0.6601 0.6376 0.6119
1499.000000 0.5290 0.4062 0.2834 0.1953 0.1970
1494.000000 0.1941 0.1939 0.2135 0.2832 0.3528
1489.000000 0.4224 0.4871 0.4871 0.4714 0.4431
1484.000000 0.4426 0.4715 0.5226 0.5737 0.6248
1479.000000 0.6758 0.7174 0.7271 0.7392 0.7515
1474.000000 0.7642 0.7804 0.7905 0.7951 0.7971
1469.000000 0.7958 0.7958 0.7958 0.7925 0.7883
1464.000000 0.7833 0.7754 0.7668 0.7478 0.7207
1459.000000 0.6740 0.6424 0.6258 0.6155 0.6064
1454.000000 0.5966 0.5856 0.4821 0.3459 0.2099
1449.000000 0.1545 0.1559 0.1525 0.1656 0.2233
1444.000000 0.2810 0.3387 0.3962 0.4540 0.5117
1439.000000 0.5694 0.6271 0.7051 0.7228 0.7356
1434.000000 0.7445 0.7534 0.7574 0.7615 0.7649
1429.000000 0.7675 0.7707 0.7743 0.7774 0.7803
1424.000000 0.7832 0.7861 0.7899 0.7936 0.7975
1419.000000 0.8033 0.8076 0.8115 0.8141 0.8165
1414.000000 0.8187 0.8204 0.8220 0.8230 0.8238
1409.000000 0.8245 0.8253 0.8264 0.8263 0.8262
1404.000000 0.8262 0.8261 0.8255 0.8250 0.8227
1399.000000 0.8183 0.8111 0.8026 0.7978 0.7928
1394.000000 0.7884 0.7850 0.7815 0.7781 0.7744
1389.000000 0.7701 0.7658 0.7617 0.7554 0.7476
1384.000000 0.7400 0.7303 0.7176 0.7051 0.6926
1379.000000 0.6803 0.6665 0.6518 0.6302 0.5130
1374.000000 0.4548 0.3966 0.3384 0.2803 0.2222
1369.000000 0.1768 0.1734 0.1744 0.1749 0.1777
1364.000000 0.1839 0.1912 0.2633 0.3468 0.4305
1359.000000 0.5140 0.5688 0.5797 0.5930 0.6115
1354.000000 0.6299 0.6460 0.6592 0.6685 0.6772
1349.000000 0.6853 0.6894 0.6907 0.6921 0.6934
1344.000000 0.6947 0.6978 0.7011 0.7047 0.7106
1339.000000 0.7184 0.7278 0.7337 0.7382 0.7405
1334.000000 0.7418 0.7434 0.7449 0.7449 0.7450
1329.000000 0.7412 0.7375 0.7339 0.7301 0.7265
1324.000000 0.7261 0.7280 0.7290 0.7300 0.7310
1319.000000 0.7317 0.7321 0.7328 0.7332 0.7333
1314.000000 0.7335 0.7337 0.7339 0.7340 0.7340
1309.000000 0.7339 0.7335 0.7330 0.7308 0.7269
1304.000000 0.7210 0.7140 0.7101 0.7081 0.7090
1299.000000 0.7175 0.7369 0.7404 0.7434 0.7451
1294.000000 0.7468 0.7486 0.7504 0.7521 0.7534
1289.000000 0.7546 0.7558 0.7568 0.7568 0.7568
1284.000000 0.7587 0.7591 0.7590 0.7590 0.7576
1279.000000 0.7564 0.7548 0.7515 0.7485 0.7451
1274.000000 0.7371 0.7268 0.7151 0.6884 0.6242
1269.000000 0.5600 0.4769 0.4751 0.4762 0.4854
1264.000000 0.5168 0.5482 0.5796 0.6110 0.6425
1259.000000 0.6739 0.6857 0.6896 0.6924 0.6949
1254.000000 0.6969 0.6986 0.7001 0.7010 0.7030
1249.000000 0.7017 0.7006 0.6968 0.6726 0.6254
1244.000000 0.5781 0.5308 0.4834 0.4624 0.4614
1239.000000 0.4619 0.4742 0.5012 0.5281 0.5551
1234.000000 0.5821 0.5969 0.6081 0.6203 0.6434
1229.000000 0.6668 0.6818 0.6942 0.7025 0.7086
1224.000000 0.7145 0.7204 0.7240 0.7271 0.7303
1219.000000 0.7333 0.7360 0.7386 0.7412 0.7431
1214.000000 0.7448 0.7464 0.7481 0.7495 0.7505
1209.000000 0.7515 0.7526 0.7537 0.7548 0.7558
1204.000000 0.7562 0.7565 0.7567 0.7567 0.7565
1199.000000 0.7562 0.7561 0.7557 0.7551 0.7537
1194.000000 0.7521 0.7508 0.7484 0.7460 0.7419
1189.000000 0.7369 0.7318 0.7268 0.7219 0.7185
1184.000000 0.7178 0.7176 0.7198 0.7228 0.7267
1179.000000 0.7286 0.7297 0.7297 0.7297 0.7290
1174.000000 0.7283 0.7267 0.7250 0.7222 0.7193
1169.000000 0.7156 0.7118 0.7058 0.6996 0.6934
1164.000000 0.6862 0.6786 0.6448 0.5905 0.5360
1159.000000 0.5128 0.5160 0.5566 0.5971 0.6040
1154.000000 0.6030 0.5964 0.5898 0.5832 0.5785
1149.000000 0.5818 0.6015 0.6212 0.6408 0.6500
1144.000000 0.6499 0.6498 0.6478 0.6433 0.6366
1139.000000 0.6260 0.5714 0.4828 0.4817 0.4816
1134.000000 0.4968 0.5185 0.5308 0.5315 0.5071
1129.000000 0.4781 0.4491 0.4102 0.4082 0.4334
1124.000000 0.5371 0.5676 0.6241 0.6746 0.6768
1119.000000 0.6768 0.6768 0.6793 0.6783 0.6748
1114.000000 0.6642 0.6536 0.6431 0.6360 0.6330
1109.000000 0.6320 0.6341 0.6519 0.6630 0.6645
1104.000000 0.6653 0.6650 0.6645 0.6631 0.6615
1099.000000 0.6548 0.6398 0.6247 0.6176 0.6159
1094.000000 0.6162 0.6166 0.6171 0.6190 0.6310
1089.000000 0.6449 0.6571 0.6667 0.6744 0.6810
1084.000000 0.6875 0.6934 0.6988 0.7042 0.7097
1079.000000 0.7151 0.7205 0.7258 0.7311 0.7353
1074.000000 0.7395 0.7436 0.7478 0.7515 0.7551
1069.000000 0.7587 0.7621 0.7635 0.7646 0.7657
1064.000000 0.7668 0.7680 0.7692 0.7703 0.7712
1059.000000 0.7722 0.7733 0.7743 0.7753 0.7762
1054.000000 0.7772 0.7783 0.7792 0.7801 0.7811
1049.000000 0.7821 0.7830 0.7838 0.7846 0.7854
1044.000000 0.7862 0.7871 0.7878 0.7887 0.7895
1039.000000 0.7903 0.7911 0.7918 0.7925 0.7930
1034.000000 0.7936 0.7942 0.7947 0.7953 0.7958
1029.000000 0.7964 0.7969 0.7974 0.7978 0.7982
1024.000000 0.7985 0.7989 0.7993 0.7997 0.8000
1019.000000 0.8004 0.8008 0.8011 0.8015 0.8018
1014.000000 0.8022 0.8028 0.8033 0.8039 0.8044
1009.000000 0.8050 0.8055 0.8061 0.8065 0.8069
1004.000000 0.8074 0.8078 0.8081 0.8083 0.8085
999.000000 0.8086 0.8088 0.8088 0.8088 0.8087
994.000000 0.8085 0.8084 0.8082 0.8080 0.8074
989.000000 0.8068 0.8064 0.8058 0.8051 0.8043
984.000000 0.8035 0.8026 0.8018 0.8011 0.8003
979.000000 0.7992 0.7982 0.7971 0.7956 0.7935
974.000000 0.7918 0.7901 0.7885 0.7868 0.7758
969.000000 0.7601 0.7442 0.7297 0.7295 0.7334
964.000000 0.7543 0.7749 0.7767 0.7785 0.7799
959.000000 0.7822 0.7815 0.7818 0.7810 0.7798
954.000000 0.7785 0.7761 0.7737 0.7700 0.7660
949.000000 0.7524 0.7212 0.6828 0.6444 0.6060
944.000000 0.5895 0.5728 0.5488 0.5500 0.5810
939.000000 0.6193 0.6575 0.6958 0.7341 0.7399
934.000000 0.7415 0.7424 0.7432 0.7430 0.7425
929.000000 0.7412 0.7394 0.7371 0.7350 0.7317
924.000000 0.7281 0.7231 0.7165 0.7071 0.6995
919.000000 0.6918 0.6843 0.6765 0.6690 0.6621
914.000000 0.6603 0.6597 0.6611 0.6698 0.6825
909.000000 0.6955 0.7083 0.7211 0.7340 0.7468
904.000000 0.7597 0.7664 0.7700 0.7728 0.7754
899.000000 0.7778 0.7811 0.7846 0.7867 0.7881
894.000000 0.7883 0.7887 0.7886 0.7885 0.7880
889.000000 0.7874 0.7864 0.7853 0.7841 0.7814
884.000000 0.7787 0.7758 0.7725 0.7674 0.7621
879.000000 0.7571 0.7522 0.7435 0.7267 0.6955
874.000000 0.6642 0.6330 0.6017 0.5705 0.5627
869.000000 0.5892 0.6289 0.6687 0.7084 0.7461
864.000000 0.7508 0.7519 0.7484 0.7508 0.7497
859.000000 0.7483 0.7447 0.7411 0.7371 0.7324
854.000000 0.7275 0.7228 0.7175 0.7115 0.7056
849.000000 0.6996 0.6934 0.6838 0.6742 0.6646
844.000000 0.6551 0.6458 0.6364 0.6264 0.6162
839.000000 0.6056 0.5935 0.5810 0.5673 0.5536
834.000000 0.5136 0.4941 0.4610 0.4434 0.4331
829.000000 0.4239 0.3866 0.3362 0.2860 0.1791
824.000000 0.1853 0.1806 0.1926 0.2350 0.2774
819.000000 0.3198 0.3622 0.4046 0.4176 0.4178
814.000000 0.3988 0.3759 0.3584 0.3564 0.3647
809.000000 0.3926 0.4205 0.4484 0.4762 0.5042
804.000000 0.5321 0.5600 0.5879 0.6158 0.6438
799.000000 0.6457 0.6464 0.6467 0.6461 0.6442
794.000000 0.6421 0.6396 0.6369 0.6350 0.6339
789.000000 0.6338 0.6337 0.6348 0.6369 0.6405
784.000000 0.6458 0.6524 0.6562 0.6628 0.6703
779.000000 0.6776 0.6851 0.6925 0.7000 0.7074
774.000000 0.7149 0.7222 0.7297 0.7371 0.7446
769.000000 0.7497 0.7508 0.7518 0.7518 0.7518
764.000000 0.7510 0.7499 0.7475 0.7435 0.6605
759.000000 0.5653 0.4744 0.4777 0.5597 0.6480
754.000000 0.7258 0.7314 0.7368 0.7419 0.7469
749.000000 0.7508 0.7549 0.7588 0.7619 0.7639
744.000000 0.7649 0.7660 0.7668 0.7672 0.7671
739.000000 0.7671 0.7684 0.7685 0.7686 0.7682
734.000000 0.7675 0.7667 0.7653 0.7633 0.7601
729.000000 0.7576 0.7562 0.7558 0.7560 0.7562
724.000000 0.7581 0.7603 0.7648 0.7722 0.7784
719.000000 0.7844 0.7904 0.7965 0.8025 0.8078
714.000000 0.8122 0.8168 0.8210 0.8252 0.8294
709.000000 0.8333 0.8370 0.8407 0.8444 0.8475
704.000000 0.8497 0.8518 0.8540 0.8561 0.8582
699.000000 0.8599 0.8615 0.8630 0.8646 0.8661
694.000000 0.8666 0.8668 0.8671 0.8673 0.8674
689.000000 0.8675 0.8675 0.8675 0.8675 0.8675
684.000000 0.8675 0.8675 0.8675 0.8671 0.8666
679.000000 0.8660 0.8655 0.8640 0.8625 0.8612
674.000000 0.8606 0.8599 0.8592 0.8585 0.8586
669.000000 0.8586 0.8589 0.8591 0.8593 0.8596
664.000000 0.8598 0.8601 0.8603 0.8605 0.8608
659.000000 0.8610 0.8611 0.8612 0.8611 0.8611
654.000000 0.8610 0.8609 0.8609 0.8608 0.8607
649.000000 0.8607 0.8605 0.8600 0.8596 0.8592
644.000000 0.8587 0.8583 0.8578 0.8574 0.8568
639.000000 0.8565 0.8559 0.8551 0.8543 0.8535
634.000000 0.8525 0.8518 0.8510 0.8501 0.8492
629.000000 0.8484 0.8475 0.8465 0.8452 0.8438
624.000000 0.8425 0.8406 0.8352 0.8291 0.8216
619.000000 0.8034 0.7521 0.6926 0.6332 0.5737
614.000000 0.5267 0.5231 0.5204 0.3830 0.2337
609.000000 0.2279 0.2257 0.2265 0.2924 0.3786
604.000000 0.4647 0.5508 0.6369 0.7231 0.8061
599.000000 0.8096 0.8128 0.8161 0.8192 0.8223
594.000000 0.8254 0.8285 0.8317 0.8343 0.8359
589.000000 0.8371 0.8381 0.8389 0.8390 0.8390
584.000000 0.8390 0.8390 0.8389 0.8387 0.8383
579.000000 0.8380 0.8377 0.8374 0.8371 0.8368
574.000000 0.8366 0.8364 0.8361 0.8358 0.8356
569.000000 0.8353 0.8351 0.8349 0.8348 0.8346
564.000000 0.8345 0.8344 0.8342 0.8341 0.8339
559.000000 0.8338 0.8335 0.8332 0.8328 0.8324
554.000000 0.8320 0.8316 0.8312 0.8308 0.8304
549.000000 0.8300 0.8295 0.8291 0.8287 0.8282
544.000000 0.8278 0.8273 0.8268 0.8266 0.8263
539.000000 0.8260 0.8257 0.8254 0.8249 0.8245
534.000000 0.8240 0.8235 0.8231 0.8223 0.8215
529.000000 0.8206 0.8198 0.8190 0.8181 0.8172
524.000000 0.8165 0.8156 0.8148 0.8140 0.8132
519.000000 0.8124 0.8114 0.8105 0.8096 0.8086
514.000000 0.8076 0.8068 0.8058 0.8049 0.8039
509.000000 0.8030 0.8018 0.8006 0.7994 0.7982
504.000000 0.7969 0.7956 0.7943 0.7930 0.7918
499.000000 0.7907 0.7900 0.7900 0.7900 0.7899
494.000000 0.7898 0.7897 0.7896 0.7895 0.7871
489.000000 0.7845 0.7821 0.7798 0.7774 0.7754
484.000000 0.7734 0.7714 0.7699 0.7689 0.7680
479.000000 0.7698 0.7706 0.7708 0.7708 0.7708
474.000000 0.7704 0.7698 0.7692 0.7680 0.7658
469.000000 0.7639 0.7618 0.7594 0.7558 0.7522
464.000000 0.7488 0.7453 0.7417 0.7375 0.7333
459.000000 0.7292 0.7250 0.7207 0.7164 0.7119
454.000000 0.7076 0.7021 0.6960 0.6900 0.6807
449.000000 0.6639 0.6540 0.6441 0.6328 0.6118
444.000000 0.5856 0.5620 0.5502 0.5410 0.4837
439.000000 0.4244 0.3652 0.3554 0.3621 0.3924
434.000000 0.4227 0.4530 0.4833 0.5136 0.5439
429.000000 0.5649 0.5642 0.5677 0.5682 0.5658
424.000000 0.5616 0.5556 0.5483 0.5412 0.5344
419.000000 0.5239 0.5130 0.5067 0.5003 0.4939
414.000000 0.4877 0.4815 0.4753 0.4704 0.4658
409.000000 0.4625 0.4607 0.4603 0.4602 0.4605
404.000000 0.4608 0.4612 0.4628 0.4643 0.4657
##END=
