##TITLE=BONE BLACK
##JCAMP-DX=4.24
##DATA TYPE=INFRARED SPECTRUM
##CLASS=COBLENTZ
##ORIGIN=DESOTO CHEMICAL COATINGS, INC.
##OWNER=COBLENTZ SOCIETY
Collection (C) 2018 copyright by the U.S. Secretary of Commerce
on behalf of the United States of America. All rights reserved.
##DATE=Not specified, most likely prior to 1970
##MOLFORM=Ca3 ( P O4)2
$$ Ca3(PO4)2 90-94%, CARBON 6-10%
##SOURCE REFERENCE=COBLENTZ NO. 4718
##$NIST ID=B6004718
##$NIST SOURCE=COBLENTZ
##$NIST IMAGE=cob4718
##SPECTROMETER/DATA SYSTEM=Not specified, most likely a grating spectrometer.
##STATE=SOLID (0.3 mg / 300 mg CsI DISC)
##SAMPLING PROCEDURE=TRANSMISSION
##RESOLUTION=4
##DATA PROCESSING=DIGITIZED BY NIST FROM HARD COPY (FROM TWO SEGMENTS)
##XUNITS=1/CM
##YUNITS=TRANSMITTANCE
##XFACTOR=1.000000
##YFACTOR=1
##DELTAX=1.330380
##FIRSTX=198.67
##LASTX=3988.92
##FIRSTY=0.811
##MAXX=3988.92
##MINX=198.67
##MAXY=0.976
##MINY=0.086
##NPOINTS=2850
##XYDATA=(X++(Y..Y))
198.670000 0.8110 0.8110 0.8110 0.8110 0.8090
205.321900 0.8090 0.8080 0.8080 0.8050 0.8000
211.973799 0.8000 0.7990 0.7970 0.7920 0.7910
218.625699 0.7890 0.7810 0.7760 0.7730 0.7710
225.277599 0.7680 0.7630 0.7590 0.7520 0.7470
231.929499 0.7380 0.7340 0.7300 0.7230 0.7180
238.581398 0.7150 0.7110 0.7040 0.7030 0.7000
245.233298 0.6990 0.6980 0.6980 0.6960 0.6940
251.885198 0.6940 0.6920 0.6900 0.6870 0.6870
258.537097 0.6840 0.6800 0.6760 0.6720 0.6670
265.188997 0.6620 0.6580 0.6520 0.6470 0.6390
271.840897 0.6310 0.6220 0.6170 0.6100 0.6060
278.492796 0.6010 0.5940 0.5870 0.5830 0.5780
285.144696 0.5740 0.5700 0.5620 0.5491 0.5391
291.796596 0.5340 0.5300 0.5270 0.5250 0.5230
298.448496 0.5220 0.5190 0.5180 0.5170 0.5170
305.100395 0.5150 0.5150 0.5150 0.5170 0.5180
311.752295 0.5180 0.5210 0.5230 0.5260 0.5270
318.404195 0.5300 0.5330 0.5370 0.5380 0.5420
325.056094 0.5450 0.5470 0.5490 0.5500 0.5510
331.707994 0.5580 0.5610 0.5630 0.5670 0.5700
338.359894 0.5710 0.5740 0.5770 0.5780 0.5790
345.011794 0.5790 0.5810 0.5820 0.5850 0.5870
351.663693 0.5900 0.5910 0.5910 0.5930 0.5930
358.315593 0.5970 0.5990 0.6070 0.6100 0.6140
364.967493 0.6190 0.6270 0.6310 0.6360 0.6469
371.619392 0.6640 0.6720 0.6800 0.6940 0.7030
378.271292 0.7239 0.7439 0.7639 0.7680 0.7730
384.923192 0.7790 0.7840 0.7910 0.7960 0.8040
391.575092 0.8120 0.8130 0.8200 0.8230 0.8270
398.226991 0.8280 0.8320 0.8370 0.8430 0.8450
404.878891 0.8480 0.8490 0.8520 0.8530 0.8590
411.530791 0.8600 0.8610 0.8610 0.8630 0.8650
418.182690 0.8670 0.8680 0.8710 0.8710 0.8730
424.834590 0.8760 0.8770 0.8780 0.8780 0.8800
431.486490 0.8840 0.8840 0.8880 0.8890 0.8900
438.138389 0.8900 0.8920 0.8930 0.8930 0.8940
444.790289 0.8970 0.8980 0.8980 0.9000 0.9000
451.442189 0.9000 0.9010 0.9010 0.9010 0.9010
458.094089 0.9010 0.9010 0.9010 0.9020 0.9020
464.745988 0.9020 0.9020 0.9020 0.9040 0.9040
471.397888 0.9040 0.9040 0.9040 0.9050 0.9060
478.049788 0.9060 0.9090 0.9100 0.9130 0.9160
484.701687 0.9160 0.9180 0.9200 0.9220 0.9220
491.353587 0.9240 0.9250 0.9250 0.9260 0.9280
498.005487 0.9290 0.9300 0.9320 0.9340 0.9370
504.657387 0.9380 0.9380 0.9380 0.9380 0.9380
511.309286 0.9380 0.9380 0.9380 0.9380 0.9380
517.961186 0.9380 0.9380 0.9370 0.9370 0.9360
524.613086 0.9340 0.9320 0.9320 0.9300 0.9300
531.264985 0.9260 0.9250 0.9210 0.9140 0.9130
537.916885 0.9100 0.9090 0.9080 0.9000 0.8940
544.568785 0.8900 0.8810 0.8770 0.8680 0.8490
551.220685 0.8191 0.7931 0.7801 0.7551 0.7083
557.872584 0.6879 0.6440 0.6010 0.5291 0.5060
564.524484 0.5010 0.5000 0.5000 0.5010 0.5060
571.176384 0.5110 0.5310 0.5490 0.5580 0.5660
577.828283 0.5830 0.6029 0.6299 0.6599 0.6779
584.480183 0.6950 0.7120 0.7200 0.7260 0.7280
591.132083 0.7310 0.7320 0.7300 0.7151 0.6951
597.783982 0.6580 0.6220 0.5940 0.5391 0.5220
604.435882 0.5220 0.5379 0.5430 0.5589 0.5739
611.087782 0.5900 0.6210 0.6660 0.6990 0.7220
617.739682 0.7350 0.7510 0.7789 0.7919 0.7990
624.391581 0.8030 0.8130 0.8200 0.8230 0.8280
631.043481 0.8320 0.8320 0.8360 0.8390 0.8400
637.695381 0.8450 0.8480 0.8590 0.8630 0.8640
644.347280 0.8690 0.8780 0.8820 0.8890 0.8920
650.999180 0.8940 0.8960 0.8970 0.8970 0.9000
657.651080 0.9000 0.9010 0.9010 0.9040 0.9100
664.302980 0.9100 0.9120 0.9120 0.9120 0.9120
670.954879 0.9120 0.9130 0.9180 0.9200 0.9200
677.606779 0.9210 0.9220 0.9250 0.9300 0.9320
684.258679 0.9320 0.9320 0.9320 0.9340 0.9370
690.910578 0.9370 0.9420 0.9420 0.9440 0.9440
697.562478 0.9440 0.9440 0.9420 0.9410 0.9400
704.214378 0.9400 0.9400 0.9410 0.9410 0.9440
710.866278 0.9460 0.9490 0.9500 0.9500 0.9520
717.518177 0.9560 0.9570 0.9570 0.9570 0.9600
724.170077 0.9600 0.9610 0.9610 0.9640 0.9650
730.821977 0.9650 0.9650 0.9650 0.9650 0.9650
737.473876 0.9650 0.9660 0.9660 0.9660 0.9660
744.125776 0.9660 0.9660 0.9660 0.9660 0.9660
750.777676 0.9660 0.9680 0.9690 0.9690 0.9700
757.429575 0.9700 0.9690 0.9700 0.9700 0.9720
764.081475 0.9720 0.9720 0.9720 0.9720 0.9730
770.733375 0.9720 0.9720 0.9720 0.9720 0.9720
777.385275 0.9720 0.9720 0.9720 0.9700 0.9690
784.037174 0.9680 0.9690 0.9700 0.9700 0.9720
790.689074 0.9720 0.9730 0.9730 0.9720 0.9700
797.340974 0.9700 0.9690 0.9690 0.9700 0.9720
803.992873 0.9720 0.9720 0.9720 0.9720 0.9720
810.644773 0.9730 0.9730 0.9730 0.9730 0.9720
817.296673 0.9720 0.9720 0.9720 0.9730 0.9730
823.948573 0.9730 0.9740 0.9740 0.9760 0.9760
830.600472 0.9760 0.9740 0.9730 0.9730 0.9720
837.252372 0.9720 0.9720 0.9720 0.9720 0.9720
843.904272 0.9730 0.9730 0.9720 0.9700 0.9700
850.556171 0.9700 0.9690 0.9680 0.9660 0.9660
857.208071 0.9650 0.9650 0.9640 0.9620 0.9620
863.859971 0.9610 0.9600 0.9570 0.9540 0.9520
870.511870 0.9450 0.9300 0.9210 0.9160 0.9120
877.163770 0.9100 0.9100 0.9120 0.9140 0.9180
883.815670 0.9210 0.9300 0.9330 0.9410 0.9450
890.467570 0.9490 0.9520 0.9530 0.9530 0.9530
897.119469 0.9530 0.9530 0.9530 0.9520 0.9520
903.771369 0.9520 0.9530 0.9540 0.9560 0.9560
910.423269 0.9560 0.9540 0.9540 0.9530 0.9530
917.075168 0.9530 0.9520 0.9520 0.9500 0.9490
923.727068 0.9480 0.9450 0.9450 0.9440 0.9420
930.378968 0.9420 0.9400 0.9380 0.9360 0.9320
937.030868 0.9300 0.9300 0.9280 0.9250 0.9210
943.682767 0.9200 0.9160 0.9120 0.9100 0.9060
950.334667 0.9050 0.8920 0.8840 0.8810 0.8750
956.986567 0.8710 0.8590 0.8440 0.8270 0.8120
963.638466 0.8010 0.8010 0.8090 0.8190 0.8240
970.290366 0.8310 0.8370 0.8430 0.8440 0.8450
976.942266 0.8470 0.8470 0.8430 0.8400 0.8350
983.594166 0.8290 0.8230 0.8130 0.8040 0.8010
990.246065 0.7930 0.7711 0.7630 0.7530 0.7440
996.897965 0.7350 0.7190 0.7030 0.6840 0.6660
1003.549865 0.6480 0.6301 0.6111 0.5931 0.5472
1010.201764 0.5220 0.4940 0.4610 0.4450 0.4160
1016.853664 0.3901 0.3631 0.3351 0.3071 0.2811
1023.505564 0.2570 0.2350 0.1980 0.1830 0.1660
1030.157463 0.1440 0.1280 0.1190 0.1100 0.1070
1036.809363 0.0990 0.0970 0.0940 0.0900 0.0890
1043.461263 0.0870 0.0860 0.0860 0.0860 0.0870
1050.113163 0.0890 0.0910 0.0970 0.0990 0.1020
1056.765062 0.1090 0.1130 0.1150 0.1190 0.1220
1063.416962 0.1270 0.1300 0.1360 0.1460 0.1540
1070.068862 0.1680 0.1800 0.1830 0.1900 0.1950
1076.720761 0.2000 0.2110 0.2220 0.2400 0.2530
1083.372661 0.2600 0.2630 0.2630 0.2590 0.2560
1090.024561 0.2510 0.2460 0.2430 0.2400 0.2390
1096.676461 0.2400 0.2460 0.2510 0.2530 0.2729
1103.328360 0.2830 0.3030 0.3160 0.3290 0.3440
1109.980260 0.3670 0.3999 0.4329 0.4489 0.4719
1116.632160 0.4980 0.5170 0.5330 0.5470 0.5620
1123.284059 0.5869 0.6059 0.6219 0.6349 0.6499
1129.935959 0.6671 0.6900 0.7040 0.7100 0.7190
1136.587859 0.7310 0.7390 0.7390 0.7460 0.7560
1143.239759 0.7610 0.7650 0.7710 0.7750 0.7790
1149.891658 0.7880 0.7950 0.7950 0.7990 0.8000
1156.543558 0.8010 0.8030 0.8040 0.8110 0.8160
1163.195458 0.8200 0.8210 0.8210 0.8230 0.8240
1169.847357 0.8250 0.8310 0.8320 0.8320 0.8330
1176.499257 0.8350 0.8360 0.8370 0.8410 0.8430
1183.151157 0.8430 0.8440 0.8450 0.8470 0.8490
1189.803056 0.8510 0.8510 0.8520 0.8520 0.8520
1196.454956 0.8520 0.8520 0.8530 0.8550 0.8560
1203.106856 0.8570 0.8570 0.8590 0.8590 0.8600
1209.758756 0.8600 0.8610 0.8610 0.8610 0.8630
1216.410655 0.8630 0.8630 0.8640 0.8650 0.8670
1223.062555 0.8670 0.8670 0.8670 0.8650 0.8650
1229.714455 0.8640 0.8640 0.8650 0.8650 0.8650
1236.366354 0.8650 0.8650 0.8670 0.8670 0.8650
1243.018254 0.8650 0.8650 0.8650 0.8650 0.8670
1249.670154 0.8680 0.8680 0.8680 0.8680 0.8670
1256.322054 0.8670 0.8670 0.8670 0.8670 0.8670
1262.973953 0.8670 0.8670 0.8680 0.8680 0.8690
1269.625853 0.8690 0.8710 0.8710 0.8710 0.8710
1276.277753 0.8710 0.8710 0.8710 0.8690 0.8690
1282.929652 0.8690 0.8710 0.8710 0.8710 0.8710
1289.581552 0.8710 0.8710 0.8720 0.8710 0.8710
1296.233452 0.8710 0.8710 0.8710 0.8720 0.8720
1302.885352 0.8730 0.8730 0.8730 0.8730 0.8730
1309.537251 0.8750 0.8750 0.8730 0.8730 0.8730
1316.189151 0.8750 0.8750 0.8730 0.8730 0.8750
1322.841051 0.8750 0.8750 0.8750 0.8750 0.8750
1329.492950 0.8750 0.8750 0.8750 0.8750 0.8750
1336.144850 0.8750 0.8750 0.8750 0.8750 0.8730
1342.796750 0.8730 0.8730 0.8710 0.8710 0.8710
1349.448649 0.8690 0.8680 0.8670 0.8670 0.8670
1356.100549 0.8670 0.8650 0.8640 0.8630 0.8600
1362.752449 0.8600 0.8570 0.8570 0.8560 0.8530
1369.404349 0.8520 0.8510 0.8470 0.8450 0.8430
1376.056248 0.8400 0.8400 0.8370 0.8320 0.8290
1382.708148 0.8250 0.8210 0.8150 0.8110 0.8080
1389.360048 0.8070 0.8040 0.7970 0.7930 0.7890
1396.011947 0.7850 0.7830 0.7770 0.7750 0.7650
1402.663847 0.7590 0.7550 0.7520 0.7500 0.7460
1409.315747 0.7390 0.7310 0.7260 0.7220 0.7190
1415.967647 0.7140 0.7120 0.7120 0.7140 0.7140
1422.619546 0.7160 0.7200 0.7220 0.7230 0.7240
1429.271446 0.7280 0.7310 0.7320 0.7340 0.7350
1435.923346 0.7360 0.7360 0.7360 0.7350 0.7340
1442.575245 0.7310 0.7280 0.7230 0.7200 0.7190
1449.227145 0.7160 0.7120 0.7080 0.7040 0.7030
1455.879045 0.7020 0.7020 0.7000 0.7000 0.7000
1462.530944 0.7000 0.7020 0.7020 0.7030 0.7030
1469.182844 0.7030 0.7040 0.7060 0.7060 0.7070
1475.834744 0.7080 0.7100 0.7140 0.7150 0.7180
1482.486644 0.7220 0.7230 0.7240 0.7300 0.7310
1489.138543 0.7340 0.7350 0.7360 0.7380 0.7390
1495.790443 0.7400 0.7400 0.7420 0.7430 0.7460
1502.442343 0.7480 0.7510 0.7510 0.7550 0.7570
1509.094242 0.7600 0.7610 0.7640 0.7670 0.7690
1515.746142 0.7710 0.7730 0.7760 0.7800 0.7810
1522.398042 0.7830 0.7840 0.7870 0.7880 0.7880
1529.049942 0.7910 0.7920 0.7950 0.7970 0.7990
1535.701841 0.7990 0.8000 0.8010 0.8030 0.8030
1542.353741 0.8040 0.8040 0.8050 0.8050 0.8050
1549.005641 0.8050 0.8050 0.8050 0.8050 0.8050
1555.657540 0.8050 0.8050 0.8050 0.8050 0.8040
1562.309440 0.8040 0.8030 0.8030 0.8010 0.8010
1568.961340 0.8010 0.8000 0.7990 0.7990 0.7970
1575.613240 0.7970 0.7960 0.7950 0.7930 0.7920
1582.265139 0.7890 0.7880 0.7850 0.7840 0.7830
1588.917039 0.7810 0.7800 0.7790 0.7770 0.7760
1595.568939 0.7750 0.7730 0.7690 0.7680 0.7670
1602.220838 0.7650 0.7640 0.7610 0.7590 0.7590
1608.872738 0.7570 0.7560 0.7550 0.7530 0.7520
1615.524638 0.7520 0.7520 0.7530 0.7530 0.7560
1622.176537 0.7570 0.7600 0.7610 0.7640 0.7650
1628.828437 0.7670 0.7710 0.7730 0.7750 0.7760
1635.480337 0.7800 0.7830 0.7840 0.7870 0.7890
1642.132237 0.7910 0.7920 0.7930 0.8000 0.8010
1648.784136 0.8030 0.8070 0.8090 0.8110 0.8120
1655.436036 0.8130 0.8150 0.8170 0.8200 0.8210
1662.087936 0.8250 0.8280 0.8320 0.8330 0.8330
1668.739835 0.8350 0.8370 0.8400 0.8410 0.8430
1675.391735 0.8440 0.8510 0.8520 0.8550 0.8600
1682.043635 0.8650 0.8680 0.8690 0.8710 0.8720
1688.695535 0.8730 0.8730 0.8750 0.8760 0.8760
1695.347434 0.8770 0.8780 0.8800 0.8800 0.8820
1701.999334 0.8840 0.8840 0.8840 0.8860 0.8880
1708.651234 0.8880 0.8900 0.8920 0.8920 0.8920
1715.303133 0.8920 0.8930 0.8930 0.8930 0.8930
1721.955033 0.8940 0.8960 0.8970 0.9000 0.9010
1728.606933 0.9010 0.9010 0.9020 0.9020 0.9020
1735.258833 0.9020 0.9020 0.9040 0.9040 0.9050
1741.910732 0.9050 0.9050 0.9050 0.9050 0.9060
1748.562632 0.9060 0.9080 0.9080 0.9090 0.9090
1755.214532 0.9100 0.9100 0.9100 0.9120 0.9100
1761.866431 0.9100 0.9100 0.9100 0.9100 0.9120
1768.518331 0.9120 0.9120 0.9120 0.9120 0.9120
1775.170231 0.9120 0.9120 0.9120 0.9120 0.9120
1781.822130 0.9120 0.9120 0.9130 0.9130 0.9120
1788.474030 0.9120 0.9120 0.9120 0.9120 0.9120
1795.125930 0.9120 0.9130 0.9130 0.9130 0.9130
1801.777830 0.9130 0.9120 0.9130 0.9130 0.9130
1808.429729 0.9130 0.9120 0.9120 0.9120 0.9120
1815.081629 0.9120 0.9120 0.9120 0.9120 0.9120
1821.733529 0.9130 0.9130 0.9130 0.9130 0.9130
1828.385428 0.9130 0.9130 0.9130 0.9130 0.9130
1835.037328 0.9130 0.9130 0.9130 0.9130 0.9120
1841.689228 0.9120 0.9120 0.9120 0.9120 0.9120
1848.341128 0.9120 0.9120 0.9120 0.9120 0.9120
1854.993027 0.9120 0.9120 0.9120 0.9120 0.9120
1861.644927 0.9120 0.9100 0.9100 0.9100 0.9100
1868.296827 0.9100 0.9100 0.9090 0.9080 0.9080
1874.948726 0.9080 0.9090 0.9100 0.9100 0.9090
1881.600626 0.9080 0.9080 0.9060 0.9060 0.9060
1888.252526 0.9060 0.9060 0.9060 0.9060 0.9060
1894.904426 0.9060 0.9060 0.9060 0.9060 0.9060
1901.556325 0.9060 0.9050 0.9050 0.9050 0.9050
1908.208225 0.9050 0.9050 0.9050 0.9050 0.9040
1914.860125 0.9040 0.9040 0.9040 0.9040 0.9040
1921.512024 0.9040 0.9040 0.9040 0.9040 0.9040
1928.163924 0.9040 0.9040 0.9040 0.9020 0.9020
1934.815824 0.9020 0.9020 0.9020 0.9010 0.9010
1941.467723 0.9010 0.9010 0.9010 0.9010 0.9010
1948.119623 0.9010 0.9010 0.9010 0.9010 0.9010
1954.771523 0.9010 0.9000 0.9000 0.9000 0.8980
1961.423423 0.8980 0.8980 0.8980 0.8970 0.8970
1968.075322 0.8970 0.8960 0.8960 0.8960 0.8940
1974.727222 0.8940 0.8940 0.8940 0.8930 0.8930
1981.379122 0.8930 0.8920 0.8920 0.8920 0.8920
1988.031021 0.8920 0.8900 0.8900 0.8900 0.8890
1994.682921 0.8880 0.8880 0.8860 0.8850 0.8840
2001.334821 0.8830 0.8820 0.8800 0.8780 0.8770
2007.986721 0.8760 0.8665 0.8570 0.8371 0.8171
2014.638620 0.7966 0.7762 0.7760 0.7760 0.7913
2021.290520 0.8068 0.8139 0.8209 0.8360 0.8510
2027.942420 0.8540 0.8570 0.8610 0.8650 0.8685
2034.594319 0.8720 0.8770 0.8820 0.8820 0.8820
2041.246219 0.8835 0.8850 0.8850 0.8850 0.8850
2047.898119 0.8850 0.8855 0.8860 0.8860 0.8860
2054.550019 0.8855 0.8850 0.8845 0.8840 0.8830
2061.201918 0.8820 0.8815 0.8810 0.8810 0.8810
2067.853818 0.8810 0.8810 0.8805 0.8800 0.8800
2074.505718 0.8800 0.8800 0.8800 0.8790 0.8780
2081.157617 0.8775 0.8770 0.8770 0.8770 0.8765
2087.809517 0.8760 0.8760 0.8760 0.8765 0.8770
2094.461417 0.8770 0.8770 0.8785 0.8800 0.8805
2101.113316 0.8810 0.8810 0.8810 0.8805 0.8800
2107.765216 0.8805 0.8810 0.8810 0.8810 0.8815
2114.417116 0.8820 0.8820 0.8820 0.8830 0.8840
2121.069016 0.8845 0.8850 0.8850 0.8850 0.8850
2127.720915 0.8850 0.8845 0.8840 0.8840 0.8840
2134.372815 0.8840 0.8840 0.8840 0.8840 0.8830
2141.024715 0.8820 0.8815 0.8810 0.8810 0.8810
2147.676614 0.8810 0.8810 0.8810 0.8810 0.8810
2154.328514 0.8810 0.8815 0.8820 0.8820 0.8820
2160.980414 0.8820 0.8820 0.8820 0.8820 0.8820
2167.632314 0.8820 0.8820 0.8820 0.8820 0.8820
2174.284213 0.8820 0.8820 0.8820 0.8820 0.8820
2180.936113 0.8820 0.8815 0.8810 0.8805 0.8800
2187.588013 0.8800 0.8800 0.8800 0.8800 0.8800
2194.239912 0.8800 0.8800 0.8799 0.8789 0.8780
2200.891812 0.8775 0.8769 0.8759 0.8749 0.8739
2207.543712 0.8731 0.8741 0.8750 0.8750 0.8750
2214.195611 0.8755 0.8760 0.8765 0.8770 0.8770
2220.847511 0.8770 0.8775 0.8780 0.8780 0.8781
2227.499411 0.8791 0.8800 0.8800 0.8800 0.8800
2234.151311 0.8800 0.8800 0.8800 0.8800 0.8800
2240.803210 0.8800 0.8800 0.8800 0.8800 0.8800
2247.455110 0.8800 0.8800 0.8799 0.8784 0.8770
2254.107010 0.8770 0.8770 0.8765 0.8760 0.8760
2260.758909 0.8760 0.8760 0.8760 0.8760 0.8760
2267.410809 0.8760 0.8760 0.8760 0.8760 0.8760
2274.062709 0.8760 0.8760 0.8760 0.8765 0.8770
2280.714609 0.8770 0.8769 0.8759 0.8750 0.8750
2287.366508 0.8750 0.8750 0.8749 0.8739 0.8731
2294.018408 0.8741 0.8750 0.8750 0.8749 0.8739
2300.670308 0.8730 0.8725 0.8720 0.8720 0.8720
2307.322207 0.8715 0.8710 0.8710 0.8710 0.8715
2313.974107 0.8720 0.8720 0.8720 0.8725 0.8730
2320.626007 0.8730 0.8729 0.8724 0.8720 0.8720
2327.277907 0.8720 0.8720 0.8720 0.8720 0.8719
2333.929806 0.8715 0.8710 0.8710 0.8710 0.8710
2340.581706 0.8710 0.8710 0.8710 0.8710 0.8711
2347.233606 0.8716 0.8720 0.8720 0.8720 0.8720
2353.885505 0.8719 0.8714 0.8710 0.8710 0.8710
2360.537405 0.8710 0.8710 0.8710 0.8709 0.8699
2367.189305 0.8691 0.8701 0.8710 0.8710 0.8709
2373.841204 0.8699 0.8690 0.8690 0.8689 0.8684
2380.493104 0.8679 0.8674 0.8669 0.8659 0.8650
2387.145004 0.8650 0.8650 0.8650 0.8649 0.8644
2393.796904 0.8640 0.8640 0.8639 0.8634 0.8630
2400.448803 0.8630 0.8630 0.8630 0.8629 0.8619
2407.100703 0.8610 0.8610 0.8610 0.8610 0.8610
2413.752603 0.8610 0.8609 0.8604 0.8600 0.8600
2420.404502 0.8599 0.8594 0.8589 0.8579 0.8569
2427.056402 0.8564 0.8559 0.8554 0.8549 0.8539
2433.708302 0.8529 0.8524 0.8520 0.8520 0.8520
2440.360202 0.8520 0.8520 0.8520 0.8520 0.8520
2447.012101 0.8520 0.8520 0.8520 0.8520 0.8520
2453.664001 0.8520 0.8520 0.8520 0.8520 0.8520
2460.315901 0.8520 0.8520 0.8519 0.8514 0.8510
2466.967800 0.8510 0.8509 0.8499 0.8490 0.8490
2473.619700 0.8490 0.8490 0.8490 0.8490 0.8490
2480.271600 0.8490 0.8490 0.8490 0.8489 0.8484
2486.923500 0.8481 0.8486 0.8490 0.8490 0.8490
2493.575399 0.8490 0.8489 0.8484 0.8479 0.8474
2500.227299 0.8468 0.8459 0.8448 0.8438 0.8428
2506.879199 0.8418 0.8410 0.8410 0.8409 0.8404
2513.531098 0.8400 0.8400 0.8400 0.8400 0.8401
2520.182998 0.8406 0.8410 0.8410 0.8412 0.8422
2526.834898 0.8430 0.8430 0.8428 0.8418 0.8410
2533.486797 0.8410 0.8409 0.8404 0.8400 0.8400
2540.138697 0.8399 0.8394 0.8390 0.8390 0.8390
2546.790597 0.8390 0.8390 0.8390 0.8390 0.8390
2553.442497 0.8390 0.8390 0.8387 0.8372 0.8360
2560.094396 0.8360 0.8360 0.8360 0.8359 0.8354
2566.746296 0.8350 0.8350 0.8348 0.8338 0.8329
2573.398196 0.8324 0.8320 0.8320 0.8320 0.8320
2580.050095 0.8320 0.8320 0.8320 0.8320 0.8320
2586.701995 0.8320 0.8320 0.8320 0.8320 0.8320
2593.353895 0.8320 0.8320 0.8320 0.8320 0.8320
2600.005795 0.8320 0.8320 0.8320 0.8320 0.8320
2606.657694 0.8321 0.8326 0.8329 0.8324 0.8320
2613.309594 0.8320 0.8320 0.8320 0.8319 0.8314
2619.961494 0.8310 0.8310 0.8310 0.8310 0.8308
2626.613393 0.8298 0.8290 0.8290 0.8290 0.8290
2633.265293 0.8290 0.8290 0.8289 0.8284 0.8279
2639.917193 0.8274 0.8270 0.8270 0.8270 0.8270
2646.569093 0.8268 0.8258 0.8250 0.8250 0.8249
2653.220992 0.8244 0.8240 0.8240 0.8240 0.8240
2659.872892 0.8240 0.8240 0.8239 0.8234 0.8230
2666.524792 0.8230 0.8227 0.8212 0.8200 0.8200
2673.176691 0.8200 0.8200 0.8200 0.8200 0.8199
2679.828591 0.8194 0.8190 0.8190 0.8188 0.8178
2686.480491 0.8170 0.8170 0.8170 0.8170 0.8170
2693.132390 0.8170 0.8170 0.8170 0.8170 0.8170
2699.784290 0.8172 0.8182 0.8188 0.8178 0.8170
2706.436190 0.8170 0.8170 0.8170 0.8169 0.8164
2713.088090 0.8159 0.8154 0.8148 0.8138 0.8129
2719.739989 0.8124 0.8119 0.8114 0.8110 0.8110
2726.391889 0.8110 0.8110 0.8108 0.8098 0.8090
2733.043789 0.8090 0.8090 0.8090 0.8088 0.8078
2739.695688 0.8068 0.8058 0.8050 0.8050 0.8050
2746.347588 0.8050 0.8049 0.8044 0.8040 0.8040
2752.999488 0.8039 0.8034 0.8028 0.8018 0.8010
2759.651388 0.8010 0.8009 0.8004 0.8000 0.8000
2766.303287 0.8000 0.8000 0.8000 0.8000 0.7999
2772.955187 0.7994 0.7990 0.7990 0.7990 0.7990
2779.607087 0.7990 0.7990 0.7987 0.7977 0.7970
2786.258986 0.7970 0.7970 0.7970 0.7969 0.7964
2792.910886 0.7960 0.7960 0.7960 0.7960 0.7960
2799.562786 0.7960 0.7959 0.7954 0.7950 0.7950
2806.214685 0.7950 0.7950 0.7950 0.7950 0.7947
2812.866585 0.7937 0.7929 0.7924 0.7920 0.7920
2819.518485 0.7920 0.7920 0.7919 0.7914 0.7907
2826.170385 0.7897 0.7890 0.7890 0.7890 0.7890
2832.822284 0.7889 0.7884 0.7879 0.7874 0.7867
2839.474184 0.7857 0.7849 0.7844 0.7836 0.7821
2846.126084 0.7809 0.7804 0.7799 0.7794 0.7790
2852.777983 0.7790 0.7787 0.7777 0.7770 0.7770
2859.429883 0.7769 0.7764 0.7759 0.7754 0.7750
2866.081783 0.7750 0.7750 0.7750 0.7750 0.7750
2872.733683 0.7747 0.7737 0.7730 0.7730 0.7729
2879.385582 0.7724 0.7719 0.7714 0.7710 0.7710
2886.037482 0.7707 0.7697 0.7690 0.7690 0.7690
2892.689382 0.7690 0.7693 0.7703 0.7710 0.7710
2899.341281 0.7707 0.7697 0.7690 0.7690 0.7688
2905.993181 0.7683 0.7678 0.7673 0.7670 0.7670
2912.645081 0.7667 0.7657 0.7647 0.7637 0.7626
2919.296981 0.7611 0.7596 0.7581 0.7570 0.7570
2925.948880 0.7569 0.7564 0.7560 0.7560 0.7558
2932.600780 0.7553 0.7550 0.7550 0.7550 0.7550
2939.252680 0.7550 0.7550 0.7550 0.7550 0.7552
2945.904579 0.7557 0.7560 0.7560 0.7560 0.7560
2952.556479 0.7560 0.7560 0.7560 0.7560 0.7560
2959.208379 0.7560 0.7560 0.7560 0.7560 0.7560
2965.860278 0.7560 0.7560 0.7560 0.7560 0.7560
2972.512178 0.7560 0.7560 0.7560 0.7560 0.7560
2979.164078 0.7560 0.7560 0.7560 0.7560 0.7560
2985.815978 0.7560 0.7558 0.7553 0.7550 0.7550
2992.467877 0.7550 0.7550 0.7550 0.7550 0.7547
2999.119777 0.7537 0.7530 0.7530 0.7528 0.7523
3005.771677 0.7518 0.7513 0.7510 0.7510 0.7510
3012.423576 0.7510 0.7508 0.7503 0.7500 0.7500
3019.075476 0.7500 0.7500 0.7500 0.7500 0.7500
3025.727376 0.7500 0.7497 0.7487 0.7477 0.7467
3032.379276 0.7457 0.7447 0.7440 0.7440 0.7440
3039.031175 0.7440 0.7438 0.7433 0.7430 0.7430
3045.683075 0.7428 0.7423 0.7420 0.7420 0.7420
3052.334975 0.7420 0.7420 0.7420 0.7417 0.7407
3058.986874 0.7398 0.7393 0.7390 0.7390 0.7390
3065.638774 0.7390 0.7388 0.7383 0.7376 0.7366
3072.290674 0.7360 0.7360 0.7360 0.7360 0.7358
3078.942574 0.7353 0.7350 0.7350 0.7350 0.7350
3085.594473 0.7348 0.7343 0.7340 0.7340 0.7340
3092.246373 0.7340 0.7336 0.7326 0.7320 0.7320
3098.898273 0.7320 0.7320 0.7318 0.7313 0.7310
3105.550172 0.7310 0.7310 0.7310 0.7308 0.7303
3112.202072 0.7300 0.7300 0.7300 0.7300 0.7296
3118.853972 0.7286 0.7280 0.7280 0.7280 0.7280
3125.505871 0.7278 0.7273 0.7268 0.7263 0.7256
3132.157771 0.7246 0.7236 0.7226 0.7220 0.7220
3138.809671 0.7216 0.7206 0.7198 0.7193 0.7190
3145.461571 0.7190 0.7190 0.7190 0.7188 0.7183
3152.113470 0.7176 0.7166 0.7160 0.7160 0.7158
3158.765370 0.7153 0.7148 0.7143 0.7140 0.7140
3165.417270 0.7136 0.7126 0.7118 0.7113 0.7110
3172.069169 0.7110 0.7110 0.7110 0.7108 0.7103
3178.721069 0.7100 0.7100 0.7100 0.7100 0.7100
3185.372969 0.7100 0.7100 0.7100 0.7096 0.7086
3192.024869 0.7080 0.7080 0.7080 0.7080 0.7078
3198.676768 0.7073 0.7068 0.7063 0.7056 0.7046
3205.328668 0.7036 0.7026 0.7016 0.7006 0.7000
3211.980568 0.7000 0.6998 0.6993 0.6988 0.6983
3218.632467 0.6974 0.6959 0.6950 0.6950 0.6948
3225.284367 0.6943 0.6940 0.6940 0.6932 0.6912
3231.936267 0.6896 0.6886 0.6880 0.6880 0.6878
3238.588167 0.6873 0.6870 0.6870 0.6870 0.6870
3245.240066 0.6868 0.6863 0.6860 0.6860 0.6856
3251.891966 0.6846 0.6840 0.6840 0.6840 0.6840
3258.543866 0.6840 0.6840 0.6838 0.6833 0.6828
3265.195765 0.6823 0.6820 0.6820 0.6816 0.6806
3271.847665 0.6800 0.6800 0.6798 0.6793 0.6788
3278.499565 0.6783 0.6780 0.6780 0.6776 0.6766
3285.151464 0.6760 0.6760 0.6758 0.6753 0.6744
3291.803364 0.6729 0.6718 0.6713 0.6710 0.6710
3298.455264 0.6708 0.6703 0.6696 0.6686 0.6671
3305.107164 0.6651 0.6640 0.6640 0.6638 0.6633
3311.759063 0.6628 0.6623 0.6616 0.6606 0.6598
3318.410963 0.6593 0.6581 0.6561 0.6548 0.6543
3325.062863 0.6534 0.6519 0.6508 0.6503 0.6496
3331.714762 0.6486 0.6480 0.6480 0.6476 0.6466
3338.366662 0.6453 0.6438 0.6423 0.6408 0.6398
3345.018562 0.6393 0.6388 0.6383 0.6373 0.6358
3351.670462 0.6348 0.6343 0.6331 0.6311 0.6295
3358.322361 0.6285 0.6273 0.6258 0.6243 0.6228
3364.974261 0.6218 0.6213 0.6205 0.6196 0.6188
3371.626161 0.6183 0.6173 0.6158 0.6148 0.6143
3378.278060 0.6131 0.6111 0.6093 0.6078 0.6061
3384.929960 0.6041 0.6021 0.6001 0.5978 0.5953
3391.581860 0.5938 0.5933 0.5923 0.5908 0.5893
3398.233759 0.5878 0.5870 0.5870 0.5865 0.5855
3404.885659 0.5845 0.5835 0.5828 0.5823 0.5810
3411.537559 0.5791 0.5778 0.5773 0.5765 0.5755
3418.189459 0.5745 0.5735 0.5723 0.5708 0.5698
3424.841358 0.5693 0.5685 0.5675 0.5668 0.5663
3431.493258 0.5658 0.5653 0.5645 0.5635 0.5628
3438.145158 0.5623 0.5620 0.5620 0.5618 0.5613
3444.797057 0.5610 0.5610 0.5610 0.5610 0.5610
3451.448957 0.5610 0.5610 0.5610 0.5610 0.5610
3458.100857 0.5610 0.5610 0.5610 0.5610 0.5610
3464.752757 0.5610 0.5610 0.5610 0.5612 0.5617
3471.404656 0.5620 0.5620 0.5622 0.5627 0.5630
3478.056556 0.5630 0.5635 0.5645 0.5650 0.5650
3484.708456 0.5652 0.5657 0.5660 0.5660 0.5663
3491.360355 0.5667 0.5670 0.5670 0.5675 0.5685
3498.012255 0.5692 0.5697 0.5702 0.5707 0.5717
3504.664155 0.5732 0.5742 0.5747 0.5755 0.5765
3511.316055 0.5772 0.5777 0.5787 0.5803 0.5813
3517.967954 0.5818 0.5828 0.5843 0.5853 0.5858
3524.619854 0.5863 0.5868 0.5878 0.5893 0.5903
3531.271754 0.5908 0.5917 0.5932 0.5942 0.5947
3537.923653 0.5957 0.5972 0.5983 0.5988 0.5995
3544.575553 0.6005 0.6015 0.6025 0.6038 0.6053
3551.227453 0.6068 0.6083 0.6093 0.6098 0.6103
3557.879352 0.6108 0.6115 0.6125 0.6133 0.6138
3564.531252 0.6148 0.6163 0.6173 0.6178 0.6180
3571.183152 0.6180 0.6188 0.6203 0.6213 0.6218
3577.835052 0.6233 0.6258 0.6278 0.6293 0.6313
3584.486951 0.6338 0.6360 0.6380 0.6393 0.6398
3591.138851 0.6405 0.6415 0.6433 0.6458 0.6478
3597.790751 0.6493 0.6516 0.6546 0.6568 0.6583
3604.442650 0.6598 0.6613 0.6631 0.6651 0.6665
3611.094550 0.6675 0.6680 0.6680 0.6688 0.6703
3617.746450 0.6718 0.6733 0.6751 0.6771 0.6785
3624.398350 0.6795 0.6805 0.6815 0.6825 0.6835
3631.050249 0.6848 0.6863 0.6873 0.6878 0.6885
3637.702149 0.6895 0.6905 0.6915 0.6925 0.6935
3644.354049 0.6943 0.6948 0.6953 0.6958 0.6960
3651.005948 0.6960 0.6966 0.6976 0.6983 0.6988
3657.657848 0.6993 0.6998 0.7005 0.7015 0.7020
3664.309748 0.7020 0.7023 0.7028 0.7033 0.7038
3670.961648 0.7040 0.7040 0.7045 0.7056 0.7060
3677.613547 0.7060 0.7060 0.7060 0.7060 0.7060
3684.265447 0.7063 0.7068 0.7070 0.7070 0.7070
3690.917347 0.7070 0.7070 0.7070 0.7073 0.7078
3697.569246 0.7080 0.7080 0.7080 0.7080 0.7077
3704.221146 0.7072 0.7070 0.7070 0.7070 0.7070
3710.873046 0.7073 0.7078 0.7080 0.7080 0.7080
3717.524945 0.7080 0.7080 0.7080 0.7077 0.7072
3724.176845 0.7070 0.7070 0.7067 0.7062 0.7060
3730.828745 0.7060 0.7060 0.7060 0.7054 0.7044
3737.480645 0.7040 0.7040 0.7040 0.7040 0.7040
3744.132544 0.7040 0.7040 0.7040 0.7040 0.7040
3750.784444 0.7040 0.7040 0.7040 0.7040 0.7040
3757.436344 0.7040 0.7040 0.7040 0.7040 0.7040
3764.088243 0.7040 0.7040 0.7037 0.7032 0.7030
3770.740143 0.7030 0.7030 0.7030 0.7030 0.7030
3777.392043 0.7027 0.7022 0.7020 0.7020 0.7020
3784.043943 0.7020 0.7014 0.7004 0.7000 0.7000
3790.695842 0.7000 0.7000 0.7000 0.7000 0.7000
3797.347742 0.7000 0.7000 0.7000 0.6997 0.6992
3803.999642 0.6990 0.6990 0.6990 0.6990 0.6990
3810.651541 0.6990 0.6990 0.6990 0.6987 0.6982
3817.303441 0.6980 0.6980 0.6980 0.6980 0.6980
3823.955341 0.6980 0.6980 0.6980 0.6974 0.6964
3830.607241 0.6960 0.6960 0.6960 0.6960 0.6957
3837.259140 0.6952 0.6950 0.6950 0.6950 0.6950
3843.911040 0.6950 0.6950 0.6947 0.6942 0.6940
3850.562940 0.6940 0.6934 0.6924 0.6920 0.6920
3857.214839 0.6920 0.6920 0.6920 0.6920 0.6917
3863.866739 0.6912 0.6907 0.6902 0.6900 0.6900
3870.518639 0.6900 0.6900 0.6900 0.6900 0.6900
3877.170538 0.6900 0.6900 0.6900 0.6900 0.6900
3883.822438 0.6900 0.6900 0.6894 0.6884 0.6880
3890.474338 0.6880 0.6880 0.6880 0.6886 0.6896
3897.126238 0.6900 0.6900 0.6900 0.6900 0.6894
3903.778137 0.6884 0.6880 0.6880 0.6877 0.6872
3910.430037 0.6870 0.6870 0.6870 0.6870 0.6870
3917.081937 0.6870 0.6870 0.6870 0.6870 0.6870
3923.733836 0.6870 0.6870 0.6870 0.6870 0.6870
3930.385736 0.6870 0.6870 0.6870 0.6870 0.6870
3937.037636 0.6870 0.6870 0.6870 0.6870 0.6870
3943.689536 0.6870 0.6867 0.6862 0.6854 0.6844
3950.341435 0.6834 0.6824 0.6814 0.6804 0.6797
3956.993335 0.6792 0.6793 0.6798 0.6800 0.6800
3963.645235 0.6806 0.6816 0.6820 0.6820 0.6820
3970.297134 0.6820 0.6810 0.6795 0.6790 0.6790
3976.949034 0.6793 0.6798 0.6800 0.6800 0.6797
3983.600934 0.6792 0.6790 0.6790 0.6790 0.6790
##END=
