##TITLE=Tyrosine, 3,5-diiodo-, ethyl ester hydrochloride
##JCAMP-DX=4.24
$$ By DXEDIT 1.05 (RS McDonald)
##DATA TYPE=INFRARED SPECTRUM
##CLASS=COBLENTZ III
##ORIGIN=DOW CHEMICAL COMPANY
##OWNER=COPYRIGHT (C) 1988 by COBLENTZ SOCIETY INC.
Collection (C) 2018 copyright by the U.S. Secretary of Commerce
on behalf of the United States of America. All rights reserved.
##DATE=1965/06/18
##NAMES=ethyl 2-amino-3-(4-hydroxy-3,5-diiodophenyl)propanoate hydrochloride
##MOLFORM=C11 H14 Cl I2 N O3
##MP=208-209 C (DECOMPOSES)
##SOURCE REFERENCE=COBLENTZ NO. 07191
##$NIST ID=B6007191
##$NIST SOURCE=COBLENTZ
##$NIST IMAGE=cob7191
##SPECTROMETER/DATA SYSTEM=DOW KBr FOREPRISM-GRATING
##INSTRUMENT PARAMETERS=BLAZED AT 3.5, 12.0, 20.0 MICRON AND CHANGED AT 5.0, 7.5, 14.9 MICRON
##STATE=SOLID (SPLIT MULL), FLUOROLUBE FOR 3800-1330 CM^-^1, NUJOL FOR 1330-400 CM^-^1
$$ THE SPLT IN THE SPECTRAL FEATURE AT 2000 CM^-^1 IS AN ARTIFACT CAUSED BY GRATING CHANGE
##SAMPLING PROCEDURE=TRANSMISSION
##RESOLUTION=2
##DATA PROCESSING=DIGITIZED BY COBLENTZ SOCIETY (BATCH I) FROM HARD COPY
##XUNITS=1/CM
##YUNITS=TRANSMITTANCE
##XFACTOR=1
##YFACTOR=1
##DELTAX=1
##FIRSTX=3800
##LASTX=382
##FIRSTY=0.6353
##MAXX=3800
##MINX=382
##MAXY=0.8989
##MINY=0.1081
##NPOINTS=3419
##XYDATA=(X++(Y..Y))
3800.000000 0.6353 0.6353 0.6354 0.6354 0.6355
3795.000000 0.6356 0.6357 0.6358 0.6359 0.6360
3790.000000 0.6360 0.6362 0.6362 0.6364 0.6365
3785.000000 0.6366 0.6367 0.6368 0.6369 0.6369
3780.000000 0.6370 0.6371 0.6372 0.6373 0.6375
3775.000000 0.6376 0.6378 0.6379 0.6381 0.6382
3770.000000 0.6384 0.6385 0.6386 0.6387 0.6389
3765.000000 0.6390 0.6392 0.6393 0.6395 0.6396
3760.000000 0.6398 0.6399 0.6400 0.6401 0.6401
3755.000000 0.6403 0.6405 0.6406 0.6407 0.6408
3750.000000 0.6408 0.6410 0.6411 0.6412 0.6414
3745.000000 0.6415 0.6417 0.6418 0.6418 0.6419
3740.000000 0.6421 0.6421 0.6424 0.6425 0.6428
3735.000000 0.6430 0.6432 0.6434 0.6436 0.6438
3730.000000 0.6440 0.6442 0.6444 0.6446 0.6448
3725.000000 0.6450 0.6451 0.6454 0.6456 0.6457
3720.000000 0.6458 0.6461 0.6462 0.6465 0.6467
3715.000000 0.6468 0.6469 0.6471 0.6474 0.6475
3710.000000 0.6476 0.6476 0.6478 0.6478 0.6480
3705.000000 0.6480 0.6481 0.6482 0.6483 0.6483
3700.000000 0.6484 0.6485 0.6486 0.6486 0.6487
3695.000000 0.6488 0.6489 0.6490 0.6492 0.6493
3690.000000 0.6495 0.6496 0.6497 0.6498 0.6500
3685.000000 0.6501 0.6503 0.6504 0.6506 0.6507
3680.000000 0.6508 0.6510 0.6511 0.6514 0.6517
3675.000000 0.6518 0.6521 0.6522 0.6525 0.6528
3670.000000 0.6530 0.6532 0.6535 0.6537 0.6539
3665.000000 0.6541 0.6544 0.6546 0.6548 0.6550
3660.000000 0.6553 0.6555 0.6557 0.6558 0.6561
3655.000000 0.6562 0.6565 0.6567 0.6569 0.6571
3650.000000 0.6574 0.6575 0.6578 0.6580 0.6582
3645.000000 0.6584 0.6586 0.6588 0.6590 0.6592
3640.000000 0.6594 0.6596 0.6598 0.6600 0.6601
3635.000000 0.6603 0.6605 0.6606 0.6608 0.6608
3630.000000 0.6611 0.6611 0.6614 0.6615 0.6617
3625.000000 0.6618 0.6619 0.6621 0.6622 0.6624
3620.000000 0.6625 0.6626 0.6628 0.6630 0.6632
3615.000000 0.6634 0.6636 0.6638 0.6641 0.6643
3610.000000 0.6645 0.6647 0.6649 0.6651 0.6654
3605.000000 0.6656 0.6658 0.6660 0.6662 0.6665
3600.000000 0.6667 0.6668 0.6671 0.6672 0.6675
3595.000000 0.6678 0.6680 0.6682 0.6685 0.6688
3590.000000 0.6691 0.6694 0.6697 0.6699 0.6701
3585.000000 0.6705 0.6708 0.6711 0.6714 0.6717
3580.000000 0.6719 0.6722 0.6725 0.6728 0.6732
3575.000000 0.6734 0.6737 0.6740 0.6743 0.6746
3570.000000 0.6749 0.6751 0.6755 0.6757 0.6760
3565.000000 0.6762 0.6765 0.6768 0.6771 0.6774
3560.000000 0.6776 0.6780 0.6783 0.6786 0.6789
3555.000000 0.6792 0.6796 0.6800 0.6804 0.6807
3550.000000 0.6811 0.6814 0.6818 0.6821 0.6825
3545.000000 0.6828 0.6832 0.6835 0.6839 0.6842
3540.000000 0.6846 0.6849 0.6853 0.6856 0.6858
3535.000000 0.6861 0.6865 0.6868 0.6871 0.6874
3530.000000 0.6878 0.6881 0.6884 0.6887 0.6890
3525.000000 0.6893 0.6896 0.6898 0.6901 0.6903
3520.000000 0.6906 0.6908 0.6911 0.6912 0.6915
3515.000000 0.6918 0.6921 0.6921 0.6921 0.6921
3510.000000 0.6921 0.6921 0.6921 0.6921 0.6911
3505.000000 0.6911 0.6912 0.6908 0.6906 0.6903
3500.000000 0.6900 0.6895 0.6890 0.6881 0.6872
3495.000000 0.6865 0.6857 0.6849 0.6841 0.6828
3490.000000 0.6815 0.6797 0.6778 0.6761 0.6743
3485.000000 0.6721 0.6700 0.6674 0.6648 0.6621
3480.000000 0.6595 0.6564 0.6534 0.6501 0.6468
3475.000000 0.6426 0.6387 0.6129 0.5871 0.5801
3470.000000 0.5731 0.5637 0.5543 0.5421 0.5299
3465.000000 0.5223 0.5148 0.5088 0.5029 0.5017
3460.000000 0.5005 0.5001 0.5002 0.4997 0.4997
3455.000000 0.5000 0.5003 0.5007 0.5010 0.5015
3450.000000 0.5019 0.5021 0.5023 0.5023 0.5023
3445.000000 0.5026 0.5030 0.5057 0.5085 0.5224
3440.000000 0.5362 0.5442 0.5521 0.5576 0.5631
3435.000000 0.5680 0.5730 0.5771 0.5812 0.5852
3430.000000 0.5891 0.5929 0.5968 0.6004 0.6040
3425.000000 0.6076 0.6112 0.6147 0.6183 0.6210
3420.000000 0.6237 0.6260 0.6284 0.6308 0.6332
3415.000000 0.6355 0.6379 0.6401 0.6425 0.6445
3410.000000 0.6465 0.6486 0.6507 0.6526 0.6547
3405.000000 0.6565 0.6584 0.6599 0.6615 0.6630
3400.000000 0.6646 0.6661 0.6675 0.6691 0.6707
3395.000000 0.6721 0.6738 0.6749 0.6760 0.6769
3390.000000 0.6781 0.6791 0.6801 0.6811 0.6821
3385.000000 0.6832 0.6843 0.6853 0.6864 0.6872
3380.000000 0.6882 0.6891 0.6901 0.6910 0.6918
3375.000000 0.6925 0.6933 0.6939 0.6946 0.6951
3370.000000 0.6958 0.6960 0.6961 0.6961 0.6961
3365.000000 0.6962 0.6964 0.6964 0.6965 0.6965
3360.000000 0.6965 0.6967 0.6968 0.6968 0.6969
3355.000000 0.6971 0.6975 0.6976 0.6978 0.6981
3350.000000 0.6983 0.6988 0.6994 0.7000 0.7006
3345.000000 0.7011 0.7017 0.7022 0.7028 0.7034
3340.000000 0.7040 0.7046 0.7051 0.7057 0.7062
3335.000000 0.7068 0.7072 0.7078 0.7083 0.7087
3330.000000 0.7092 0.7097 0.7101 0.7107 0.7111
3325.000000 0.7115 0.7121 0.7124 0.7128 0.7132
3320.000000 0.7136 0.7139 0.7143 0.7147 0.7151
3315.000000 0.7154 0.7158 0.7161 0.7165 0.7168
3310.000000 0.7172 0.7175 0.7180 0.7184 0.7188
3305.000000 0.7191 0.7195 0.7198 0.7201 0.7205
3300.000000 0.7208 0.7212 0.7217 0.7219 0.7224
3295.000000 0.7225 0.7226 0.7228 0.7231 0.7233
3290.000000 0.7235 0.7236 0.7238 0.7240 0.7242
3285.000000 0.7243 0.7245 0.7247 0.7249 0.7250
3280.000000 0.7251 0.7253 0.7255 0.7256 0.7257
3275.000000 0.7257 0.7258 0.7258 0.7258 0.7258
3270.000000 0.7260 0.7260 0.7261 0.7261 0.7261
3265.000000 0.7261 0.7262 0.7262 0.7262 0.7262
3260.000000 0.7262 0.7261 0.7261 0.7258 0.7258
3255.000000 0.7257 0.7256 0.7255 0.7254 0.7253
3250.000000 0.7251 0.7251 0.7250 0.7248 0.7247
3245.000000 0.7244 0.7241 0.7238 0.7235 0.7232
3240.000000 0.7228 0.7225 0.7222 0.7219 0.7217
3235.000000 0.7214 0.7211 0.7205 0.7200 0.7194
3230.000000 0.7189 0.7183 0.7178 0.7171 0.7167
3225.000000 0.7161 0.7156 0.7150 0.7145 0.7139
3220.000000 0.7134 0.7125 0.7115 0.7107 0.7098
3215.000000 0.7089 0.7081 0.7065 0.7050 0.7031
3210.000000 0.7012 0.6995 0.6978 0.6962 0.6949
3205.000000 0.6934 0.6918 0.6904 0.6889 0.6872
3200.000000 0.6857 0.6840 0.6822 0.6806 0.6789
3195.000000 0.6771 0.6755 0.6734 0.6714 0.6693
3190.000000 0.6671 0.6656 0.6640 0.6625 0.6611
3185.000000 0.6596 0.6582 0.6568 0.6556 0.6544
3180.000000 0.6533 0.6521 0.6508 0.6499 0.6489
3175.000000 0.6478 0.6468 0.6461 0.6454 0.6447
3170.000000 0.6441 0.6435 0.6428 0.6426 0.6425
3165.000000 0.6422 0.6421 0.6418 0.6415 0.6414
3160.000000 0.6411 0.6408 0.6407 0.6404 0.6401
3155.000000 0.6400 0.6398 0.6395 0.6393 0.6390
3150.000000 0.6388 0.6386 0.6384 0.6381 0.6379
3145.000000 0.6375 0.6371 0.6367 0.6362 0.6359
3140.000000 0.6355 0.6351 0.6347 0.6343 0.6339
3135.000000 0.6330 0.6321 0.6310 0.6300 0.6278
3130.000000 0.6256 0.6237 0.6218 0.6202 0.6187
3125.000000 0.6171 0.6156 0.6140 0.6124 0.6108
3120.000000 0.6093 0.6075 0.6057 0.6038 0.6020
3115.000000 0.6001 0.5982 0.5962 0.5944 0.5926
3110.000000 0.5908 0.5890 0.5872 0.5854 0.5836
3105.000000 0.5818 0.5800 0.5786 0.5772 0.5758
3100.000000 0.5744 0.5730 0.5716 0.5702 0.5688
3095.000000 0.5675 0.5662 0.5649 0.5637 0.5624
3090.000000 0.5612 0.5604 0.5596 0.5589 0.5583
3085.000000 0.5576 0.5569 0.5562 0.5556 0.5549
3080.000000 0.5542 0.5536 0.5530 0.5524 0.5519
3075.000000 0.5512 0.5507 0.5504 0.5501 0.5498
3070.000000 0.5495 0.5492 0.5490 0.5487 0.5485
3065.000000 0.5483 0.5481 0.5479 0.5477 0.5474
3060.000000 0.5472 0.5470 0.5468 0.5467 0.5466
3055.000000 0.5465 0.5464 0.5462 0.5460 0.5460
3050.000000 0.5460 0.5462 0.5462 0.5464 0.5465
3045.000000 0.5466 0.5467 0.5468 0.5468 0.5468
3040.000000 0.5468 0.5465 0.5462 0.5460 0.5457
3035.000000 0.5452 0.5447 0.5440 0.5433 0.5424
3030.000000 0.5416 0.5405 0.5395 0.5384 0.5374
3025.000000 0.5359 0.5345 0.5328 0.5310 0.5296
3020.000000 0.5282 0.5270 0.5259 0.5247 0.5235
3015.000000 0.5223 0.5210 0.5199 0.5188 0.5176
3010.000000 0.5164 0.5150 0.5136 0.5121 0.5107
3005.000000 0.5092 0.5078 0.5064 0.5050 0.5036
3000.000000 0.5022 0.5008 0.4994 0.4980 0.4966
2995.000000 0.4953 0.4940 0.4928 0.4916 0.4904
2990.000000 0.4892 0.4881 0.4871 0.4860 0.4852
2985.000000 0.4842 0.4833 0.4824 0.4815 0.4806
2980.000000 0.4797 0.4788 0.4779 0.4767 0.4755
2975.000000 0.4721 0.4688 0.4651 0.4614 0.4603
2970.000000 0.4593 0.4592 0.4592 0.4591 0.4591
2965.000000 0.4590 0.4589 0.4647 0.4705 0.4741
2960.000000 0.4778 0.4800 0.4857 0.4826 0.4831
2955.000000 0.4835 0.4839 0.4838 0.4837 0.4836
2950.000000 0.4836 0.4835 0.4834 0.4832 0.4830
2945.000000 0.4828 0.4849 0.4820 0.4814 0.4774
2940.000000 0.4734 0.4691 0.4649 0.4549 0.4449
2935.000000 0.4430 0.4410 0.4403 0.4395 0.4387
2930.000000 0.4379 0.4369 0.4359 0.4348 0.4338
2925.000000 0.4328 0.4318 0.4307 0.4296 0.4284
2920.000000 0.4273 0.4260 0.4250 0.4238 0.4227
2915.000000 0.4210 0.4196 0.4165 0.4134 0.4107
2910.000000 0.4080 0.4055 0.4030 0.4004 0.3979
2905.000000 0.3899 0.3820 0.3803 0.3787 0.3771
2900.000000 0.3755 0.3739 0.3724 0.3718 0.3712
2895.000000 0.3707 0.3702 0.3696 0.3691 0.3684
2890.000000 0.3680 0.3672 0.3664 0.3655 0.3646
2885.000000 0.3622 0.3599 0.3562 0.3528 0.3480
2880.000000 0.3432 0.3382 0.3332 0.3287 0.3242
2875.000000 0.3206 0.3171 0.3159 0.3148 0.3135
2870.000000 0.3124 0.3112 0.3101 0.3089 0.3077
2865.000000 0.3062 0.3048 0.3028 0.3008 0.2988
2860.000000 0.2968 0.2948 0.2928 0.2907 0.2885
2855.000000 0.2864 0.2842 0.2820 0.2798 0.2776
2850.000000 0.2754 0.2732 0.2710 0.2692 0.2675
2845.000000 0.2657 0.2640 0.2622 0.2605 0.2588
2840.000000 0.2571 0.2555 0.2539 0.2522 0.2506
2835.000000 0.2490 0.2474 0.2460 0.2447 0.2434
2830.000000 0.2421 0.2411 0.2401 0.2397 0.2394
2825.000000 0.2390 0.2387 0.2383 0.2380 0.2376
2820.000000 0.2373 0.2369 0.2366 0.2364 0.2362
2815.000000 0.2360 0.2350 0.2357 0.2355 0.2353
2810.000000 0.2352 0.2350 0.2349 0.2348 0.2348
2805.000000 0.2349 0.2353 0.2387 0.2422 0.2468
2800.000000 0.2514 0.2544 0.2575 0.2605 0.2635
2795.000000 0.2663 0.2691 0.2712 0.2734 0.2756
2790.000000 0.2778 0.2800 0.2822 0.2846 0.2871
2785.000000 0.2896 0.2922 0.2947 0.2973 0.2998
2780.000000 0.3024 0.3049 0.3075 0.3104 0.3133
2775.000000 0.3167 0.3200 0.3234 0.3268 0.3303
2770.000000 0.3337 0.3368 0.3400 0.3430 0.3459
2765.000000 0.3489 0.3518 0.3548 0.3578 0.3607
2760.000000 0.3637 0.3662 0.3690 0.3714 0.3739
2755.000000 0.3764 0.3789 0.3814 0.3839 0.3859
2750.000000 0.3880 0.3899 0.3918 0.3937 0.3957
2745.000000 0.3976 0.3995 0.4014 0.4032 0.4047
2740.000000 0.4060 0.4074 0.4088 0.4102 0.4116
2735.000000 0.4130 0.4144 0.4153 0.4162 0.4169
2730.000000 0.4176 0.4183 0.4190 0.4197 0.4204
2725.000000 0.4210 0.4218 0.4225 0.4233 0.4239
2720.000000 0.4245 0.4249 0.4253 0.4256 0.4260
2715.000000 0.4262 0.4267 0.4271 0.4275 0.4278
2710.000000 0.4282 0.4286 0.4290 0.4293 0.4297
2705.000000 0.4308 0.4320 0.4339 0.4359 0.4378
2700.000000 0.4398 0.4417 0.4436 0.4465 0.4495
2695.000000 0.4525 0.4556 0.4586 0.4616 0.4644
2690.000000 0.4672 0.4697 0.4723 0.4749 0.4775
2685.000000 0.4800 0.4825 0.4848 0.4871 0.4894
2680.000000 0.4917 0.4940 0.4962 0.4983 0.5004
2675.000000 0.5024 0.5044 0.5064 0.5084 0.5104
2670.000000 0.5125 0.5146 0.5167 0.5188 0.5210
2665.000000 0.5214 0.5218 0.5222 0.5226 0.5227
2660.000000 0.5229 0.5224 0.5220 0.5216 0.5212
2655.000000 0.5208 0.5204 0.5201 0.5200 0.5200
2650.000000 0.5203 0.5205 0.5208 0.5210 0.5212
2645.000000 0.5214 0.5215 0.5215 0.5215 0.5212
2640.000000 0.5209 0.5203 0.5198 0.5182 0.5166
2635.000000 0.5146 0.5126 0.5082 0.5038 0.5001
2630.000000 0.4965 0.4932 0.4900 0.4895 0.4891
2625.000000 0.4888 0.4885 0.4886 0.4887 0.4889
2620.000000 0.4891 0.4903 0.4915 0.4935 0.4955
2615.000000 0.4977 0.5000 0.5023 0.5046 0.5075
2610.000000 0.5105 0.5138 0.5172 0.5202 0.5232
2605.000000 0.5260 0.5291 0.5319 0.5347 0.5373
2600.000000 0.5400 0.5420 0.5440 0.5454 0.5468
2595.000000 0.5482 0.5496 0.5509 0.5522 0.5530
2590.000000 0.5538 0.5542 0.5546 0.5547 0.5549
2585.000000 0.5550 0.5552 0.5555 0.5559 0.5564
2580.000000 0.5570 0.5575 0.5581 0.5587 0.5593
2575.000000 0.5598 0.5604 0.5612 0.5623 0.5635
2570.000000 0.5647 0.5659 0.5671 0.5683 0.5695
2565.000000 0.5705 0.5716 0.5726 0.5736 0.5743
2560.000000 0.5750 0.5755 0.5760 0.5767 0.5774
2555.000000 0.5783 0.5792 0.5803 0.5814 0.5850
2550.000000 0.5886 0.5919 0.5953 0.5982 0.6012
2545.000000 0.6033 0.6054 0.6071 0.6088 0.6104
2540.000000 0.6121 0.6137 0.6154 0.6171 0.6188
2535.000000 0.6204 0.6220 0.6236 0.6252 0.6268
2530.000000 0.6285 0.6299 0.6312 0.6324 0.6336
2525.000000 0.6347 0.6359 0.6370 0.6382 0.6393
2520.000000 0.6405 0.6412 0.6421 0.6430 0.6438
2515.000000 0.6446 0.6454 0.6461 0.6468 0.6476
2510.000000 0.6485 0.6493 0.6501 0.6508 0.6517
2505.000000 0.6525 0.6533 0.6541 0.6549 0.6556
2500.000000 0.6562 0.6568 0.6572 0.6578 0.6584
2495.000000 0.6589 0.6595 0.6598 0.6599 0.6600
2490.000000 0.6599 0.6598 0.6598 0.6593 0.6588
2485.000000 0.6581 0.6575 0.6568 0.6561 0.6554
2480.000000 0.6547 0.6540 0.6533 0.6530 0.6526
2475.000000 0.6526 0.6528 0.6528 0.6528 0.6528
2470.000000 0.6530 0.6535 0.6540 0.6545 0.6550
2465.000000 0.6557 0.6565 0.6585 0.6606 0.6626
2460.000000 0.6648 0.6665 0.6685 0.6703 0.6721
2455.000000 0.6739 0.6757 0.6769 0.6783 0.6795
2450.000000 0.6808 0.6821 0.6834 0.6846 0.6858
2445.000000 0.6871 0.6884 0.6891 0.6898 0.6905
2440.000000 0.6912 0.6919 0.6926 0.6934 0.6941
2435.000000 0.6947 0.6954 0.6958 0.6962 0.6968
2430.000000 0.6972 0.6978 0.6983 0.6987 0.6992
2425.000000 0.6997 0.7001 0.7007 0.7011 0.7017
2420.000000 0.7021 0.7025 0.7031 0.7036 0.7041
2415.000000 0.7046 0.7051 0.7058 0.7064 0.7068
2410.000000 0.7075 0.7081 0.7087 0.7093 0.7099
2405.000000 0.7104 0.7110 0.7115 0.7121 0.7126
2400.000000 0.7132 0.7137 0.7143 0.7148 0.7153
2395.000000 0.7158 0.7164 0.7168 0.7174 0.7178
2390.000000 0.7184 0.7189 0.7195 0.7199 0.7204
2385.000000 0.7208 0.7214 0.7218 0.7222 0.7228
2380.000000 0.7233 0.7237 0.7242 0.7245 0.7249
2375.000000 0.7249 0.7249 0.7249 0.7250 0.7250
2370.000000 0.7251 0.7251 0.7251 0.7253 0.7255
2365.000000 0.7256 0.7258 0.7261 0.7265 0.7268
2360.000000 0.7272 0.7276 0.7281 0.7284 0.7288
2355.000000 0.7292 0.7296 0.7299 0.7303 0.7306
2350.000000 0.7310 0.7311 0.7315 0.7318 0.7321
2345.000000 0.7325 0.7332 0.7339 0.7346 0.7353
2340.000000 0.7360 0.7367 0.7374 0.7381 0.7388
2335.000000 0.7394 0.7401 0.7408 0.7415 0.7421
2330.000000 0.7428 0.7428 0.7430 0.7425 0.7421
2325.000000 0.7418 0.7417 0.7415 0.7412 0.7410
2320.000000 0.7408 0.7405 0.7403 0.7401 0.7400
2315.000000 0.7398 0.7397 0.7395 0.7393 0.7391
2310.000000 0.7390 0.7388 0.7387 0.7385 0.7383
2305.000000 0.7382 0.7381 0.7380 0.7380 0.7378
2300.000000 0.7378 0.7378 0.7378 0.7378 0.7378
2295.000000 0.7376 0.7376 0.7376 0.7376 0.7375
2290.000000 0.7375 0.7375 0.7376 0.7380 0.7383
2285.000000 0.7386 0.7390 0.7393 0.7396 0.7399
2280.000000 0.7401 0.7405 0.7408 0.7411 0.7415
2275.000000 0.7418 0.7424 0.7428 0.7433 0.7437
2270.000000 0.7442 0.7446 0.7451 0.7455 0.7460
2265.000000 0.7464 0.7468 0.7472 0.7478 0.7482
2260.000000 0.7487 0.7491 0.7496 0.7500 0.7505
2255.000000 0.7508 0.7514 0.7518 0.7522 0.7526
2250.000000 0.7532 0.7536 0.7541 0.7545 0.7550
2245.000000 0.7554 0.7558 0.7562 0.7568 0.7571
2240.000000 0.7576 0.7581 0.7586 0.7590 0.7595
2235.000000 0.7599 0.7604 0.7608 0.7612 0.7617
2230.000000 0.7621 0.7625 0.7631 0.7635 0.7640
2225.000000 0.7644 0.7649 0.7653 0.7658 0.7662
2220.000000 0.7668 0.7672 0.7678 0.7684 0.7689
2215.000000 0.7694 0.7699 0.7704 0.7708 0.7714
2210.000000 0.7719 0.7724 0.7728 0.7731 0.7734
2205.000000 0.7737 0.7741 0.7744 0.7747 0.7750
2200.000000 0.7754 0.7757 0.7760 0.7762 0.7767
2195.000000 0.7769 0.7772 0.7775 0.7780 0.7783
2190.000000 0.7787 0.7789 0.7792 0.7794 0.7797
2185.000000 0.7799 0.7801 0.7804 0.7807 0.7808
2180.000000 0.7811 0.7814 0.7817 0.7818 0.7821
2175.000000 0.7825 0.7828 0.7830 0.7833 0.7835
2170.000000 0.7838 0.7840 0.7843 0.7845 0.7848
2165.000000 0.7851 0.7854 0.7856 0.7858 0.7861
2160.000000 0.7865 0.7868 0.7871 0.7872 0.7875
2155.000000 0.7878 0.7882 0.7885 0.7888 0.7890
2150.000000 0.7893 0.7894 0.7896 0.7897 0.7898
2145.000000 0.7899 0.7900 0.7900 0.7901 0.7901
2140.000000 0.7903 0.7904 0.7905 0.7906 0.7907
2135.000000 0.7907 0.7908 0.7908 0.7908 0.7907
2130.000000 0.7907 0.7907 0.7907 0.7907 0.7907
2125.000000 0.7907 0.7907 0.7906 0.7905 0.7904
2120.000000 0.7903 0.7901 0.7901 0.7900 0.7900
2115.000000 0.7900 0.7901 0.7905 0.7908 0.7911
2110.000000 0.7915 0.7918 0.7921 0.7924 0.7928
2105.000000 0.7932 0.7936 0.7940 0.7944 0.7948
2100.000000 0.7951 0.7956 0.7960 0.7962 0.7967
2095.000000 0.7971 0.7975 0.7978 0.7983 0.7985
2090.000000 0.7987 0.7989 0.7991 0.7992 0.7994
2085.000000 0.7995 0.7997 0.7999 0.8001 0.8001
2080.000000 0.8004 0.8006 0.8008 0.8008 0.8011
2075.000000 0.8011 0.8012 0.8012 0.8012 0.8012
2070.000000 0.8014 0.8014 0.8014 0.8014 0.8014
2065.000000 0.8015 0.8014 0.8018 0.8019 0.8021
2060.000000 0.8022 0.8024 0.8025 0.8025 0.8028
2055.000000 0.8028 0.8030 0.8030 0.8030 0.8028
2050.000000 0.8025 0.8024 0.8022 0.8018 0.8015
2045.000000 0.8010 0.8005 0.7999 0.7994 0.7988
2040.000000 0.7983 0.7976 0.7971 0.7965 0.7960
2035.000000 0.7954 0.7949 0.7943 0.7938 0.7931
2030.000000 0.7925 0.7918 0.7911 0.7906 0.7900
2025.000000 0.7893 0.7887 0.7875 0.7865 0.7855
2020.000000 0.7844 0.7840 0.7836 0.7832 0.7828
2015.000000 0.7824 0.7821 0.7818 0.7818 0.7815
2010.000000 0.7814 0.7814 0.7806 0.7817 0.7819
2005.000000 0.7832 0.7844 0.7853 0.7861 0.7876
2000.000000 0.7915 0.7905 0.7911 0.7911 0.7896
1995.000000 0.7821 0.7828 0.7839 0.7854 0.7868
1990.000000 0.7883 0.7899 0.7914 0.7928 0.7944
1985.000000 0.7960 0.7975 0.7992 0.8008 0.8022
1980.000000 0.8037 0.8051 0.8065 0.8078 0.8092
1975.000000 0.8104 0.8117 0.8125 0.8135 0.8143
1970.000000 0.8151 0.8158 0.8164 0.8169 0.8175
1965.000000 0.8185 0.8194 0.8204 0.8221 0.8270
1960.000000 0.8330 0.8362 0.8366 0.8368 0.8345
1955.000000 0.8328 0.8318 0.8310 0.8310 0.8311
1950.000000 0.8313 0.8314 0.8314 0.8315 0.8315
1945.000000 0.8316 0.8317 0.8321 0.8325 0.8328
1940.000000 0.8333 0.8337 0.8342 0.8355 0.8367
1935.000000 0.8380 0.8393 0.8406 0.8416 0.8427
1930.000000 0.8438 0.8448 0.8459 0.8468 0.8480
1925.000000 0.8490 0.8498 0.8502 0.8505 0.8509
1920.000000 0.8513 0.8516 0.8520 0.8524 0.8528
1915.000000 0.8531 0.8535 0.8539 0.8542 0.8545
1910.000000 0.8547 0.8550 0.8553 0.8555 0.8558
1905.000000 0.8561 0.8563 0.8566 0.8568 0.8570
1900.000000 0.8571 0.8573 0.8574 0.8575 0.8575
1895.000000 0.8578 0.8578 0.8580 0.8582 0.8583
1890.000000 0.8584 0.8584 0.8584 0.8583 0.8583
1885.000000 0.8582 0.8582 0.8581 0.8581 0.8580
1880.000000 0.8580 0.8578 0.8578 0.8578 0.8578
1875.000000 0.8578 0.8578 0.8580 0.8580 0.8581
1870.000000 0.8581 0.8581 0.8582 0.8582 0.8583
1865.000000 0.8583 0.8584 0.8584 0.8584 0.8584
1860.000000 0.8585 0.8585 0.8585 0.8586 0.8587
1855.000000 0.8588 0.8588 0.8589 0.8590 0.8591
1850.000000 0.8592 0.8595 0.8597 0.8600 0.8602
1845.000000 0.8605 0.8608 0.8610 0.8613 0.8616
1840.000000 0.8618 0.8621 0.8623 0.8625 0.8625
1835.000000 0.8627 0.8627 0.8628 0.8628 0.8628
1830.000000 0.8628 0.8630 0.8631 0.8631 0.8632
1825.000000 0.8633 0.8633 0.8634 0.8635 0.8635
1820.000000 0.8636 0.8637 0.8637 0.8638 0.8639
1815.000000 0.8639 0.8640 0.8641 0.8642 0.8643
1810.000000 0.8644 0.8644 0.8659 0.8646 0.8646
1805.000000 0.8647 0.8646 0.8643 0.8641 0.8638
1800.000000 0.8636 0.8633 0.8630 0.8625 0.8621
1795.000000 0.8616 0.8612 0.8608 0.8603 0.8599
1790.000000 0.8594 0.8588 0.8583 0.8578 0.8571
1785.000000 0.8567 0.8561 0.8555 0.8559 0.8563
1780.000000 0.8567 0.8571 0.8575 0.8580 0.8584
1775.000000 0.8585 0.8585 0.8577 0.8570 0.8560
1770.000000 0.8547 0.8539 0.8535 0.8532 0.8528
1765.000000 0.8527 0.8525 0.8523 0.8521 0.8521
1760.000000 0.8521 0.8520 0.8520 0.8514 0.8497
1755.000000 0.8481 0.8453 0.8390 0.8323 0.8099
1750.000000 0.7921 0.7776 0.7641 0.7441 0.7236
1745.000000 0.7069 0.6530 0.6092 0.5560 0.5029
1740.000000 0.4497 0.3966 0.3434 0.2903 0.2371
1735.000000 0.1861 0.1693 0.1550 0.1434 0.1339
1730.000000 0.1084 0.1092 0.1081 0.1559 0.1744
1725.000000 0.2458 0.3059 0.3659 0.4260 0.4860
1720.000000 0.5126 0.5212 0.5935 0.6207 0.6389
1715.000000 0.6488 0.6595 0.6724 0.6832 0.6928
1710.000000 0.7015 0.7081 0.7140 0.7199 0.7258
1705.000000 0.7318 0.7384 0.7438 0.7493 0.7522
1700.000000 0.7532 0.7535 0.7535 0.7535 0.7535
1695.000000 0.7539 0.7542 0.7546 0.7551 0.7736
1690.000000 0.7818 0.7862 0.7908 0.7951 0.7993
1685.000000 0.8025 0.8060 0.8094 0.8126 0.8158
1680.000000 0.8188 0.8218 0.8248 0.8268 0.8287
1675.000000 0.8292 0.8290 0.8288 0.8287 0.8287
1670.000000 0.8287 0.8292 0.8296 0.8301 0.8305
1665.000000 0.8309 0.8317 0.8335 0.8353 0.8371
1660.000000 0.8388 0.8408 0.8428 0.8449 0.8468
1655.000000 0.8488 0.8507 0.8525 0.8544 0.8561
1650.000000 0.8574 0.8588 0.8602 0.8615 0.8628
1645.000000 0.8640 0.8653 0.8664 0.8673 0.8681
1640.000000 0.8690 0.8690 0.8690 0.8688 0.8686
1635.000000 0.8684 0.8682 0.8700 0.8714 0.8723
1630.000000 0.8731 0.8728 0.8740 0.8742 0.8736
1625.000000 0.8728 0.8720 0.8712 0.8697 0.8678
1620.000000 0.8658 0.8638 0.8600 0.8561 0.8521
1615.000000 0.8466 0.8401 0.8328 0.8263 0.8168
1610.000000 0.8025 0.7775 0.7701 0.7647 0.7608
1605.000000 0.7589 0.7582 0.7582 0.7578 0.7643
1600.000000 0.7701 0.7765 0.7741 0.7712 0.7661
1595.000000 0.7600 0.7521 0.7376 0.7405 0.7399
1590.000000 0.7393 0.7388 0.7488 0.7572 0.7618
1585.000000 0.7632 0.7640 0.7647 0.7651 0.7695
1580.000000 0.7657 0.7639 0.7541 0.7439 0.7361
1575.000000 0.7284 0.7218 0.7167 0.7174 0.7171
1570.000000 0.7183 0.7199 0.7285 0.7354 0.7428
1565.000000 0.7468 0.7501 0.7536 0.7568 0.7603
1560.000000 0.7637 0.7671 0.7708 0.7746 0.7783
1555.000000 0.7818 0.7854 0.7889 0.7921 0.7946
1550.000000 0.7983 0.7962 0.7953 0.7885 0.7724
1545.000000 0.7390 0.7315 0.7208 0.7182 0.7145
1540.000000 0.7171 0.7296 0.7510 0.7642 0.7715
1535.000000 0.7785 0.7833 0.7864 0.7894 0.7911
1530.000000 0.7925 0.7939 0.7951 0.7958 0.7967
1525.000000 0.7974 0.7972 0.7972 0.7972 0.7957
1520.000000 0.7947 0.7936 0.7919 0.7885 0.7850
1515.000000 0.7788 0.7715 0.7621 0.7514 0.7378
1510.000000 0.7188 0.6496 0.6212 0.6023 0.5914
1505.000000 0.5799 0.5560 0.5203 0.4846 0.4489
1500.000000 0.4131 0.3774 0.3424 0.3386 0.3350
1495.000000 0.3370 0.3416 0.3541 0.3618 0.3947
1490.000000 0.4280 0.4612 0.4946 0.5278 0.5610
1485.000000 0.5944 0.6282 0.6522 0.6671 0.6794
1480.000000 0.6892 0.6955 0.7028 0.7108 0.7139
1475.000000 0.7183 0.7141 0.7084 0.6922 0.6769
1470.000000 0.6636 0.6562 0.6565 0.6597 0.6635
1465.000000 0.6701 0.6656 0.5703 0.5460 0.4477
1460.000000 0.2681 0.2558 0.2494 0.2459 0.2479
1455.000000 0.2484 0.2625 0.3839 0.4505 0.5171
1450.000000 0.5837 0.6018 0.5992 0.5859 0.5646
1445.000000 0.5432 0.5260 0.5221 0.5280 0.5599
1440.000000 0.5917 0.6236 0.6536 0.6667 0.6798
1435.000000 0.6948 0.7100 0.7255 0.7465 0.7536
1430.000000 0.7575 0.7595 0.7614 0.7628 0.7644
1425.000000 0.7651 0.7658 0.7664 0.7672 0.7682
1420.000000 0.7691 0.7699 0.7707 0.7745 0.7682
1415.000000 0.7628 0.7558 0.7493 0.7436 0.7390
1410.000000 0.7353 0.7335 0.7334 0.7333 0.7331
1405.000000 0.7284 0.6830 0.6360 0.5985 0.5912
1400.000000 0.6036 0.6199 0.6362 0.6525 0.6674
1395.000000 0.6760 0.6874 0.7015 0.7117 0.7196
1390.000000 0.7262 0.7283 0.7297 0.7300 0.7303
1385.000000 0.7303 0.7303 0.7294 0.7276 0.7228
1380.000000 0.7217 0.7214 0.7219 0.7284 0.7356
1375.000000 0.7454 0.7575 0.7643 0.7700 0.7737
1370.000000 0.7754 0.7771 0.7786 0.7790 0.7790
1365.000000 0.7789 0.7788 0.7744 0.7657 0.7547
1360.000000 0.7446 0.7368 0.7311 0.7258 0.7230
1355.000000 0.7186 0.7117 0.6636 0.5578 0.4999
1350.000000 0.4995 0.5197 0.5521 0.5844 0.6085
1345.000000 0.6178 0.6267 0.6354 0.6442 0.6535
1340.000000 0.6625 0.6703 0.6781 0.6867 0.6941
1335.000000 0.6988 0.7021 0.7042 0.7050 0.7055
1330.000000 0.7057 0.7078 0.7051 0.7041 0.7030
1325.000000 0.6999 0.6933 0.6690 0.6350 0.5990
1320.000000 0.5447 0.4488 0.4481 0.4493 0.4516
1315.000000 0.4559 0.4619 0.4667 0.4712 0.4762
1310.000000 0.4820 0.4896 0.5004 0.5112 0.5220
1305.000000 0.5328 0.5436 0.5544 0.5652 0.5759
1300.000000 0.5820 0.5806 0.5805 0.5624 0.5440
1295.000000 0.5256 0.5071 0.4909 0.4887 0.4957
1290.000000 0.5071 0.5186 0.5301 0.5416 0.5510
1285.000000 0.5541 0.5570 0.5518 0.5487 0.5286
1280.000000 0.4918 0.4474 0.4281 0.4204 0.4145
1275.000000 0.4055 0.3982 0.3922 0.3868 0.3830
1270.000000 0.3771 0.3824 0.3894 0.4074 0.4255
1265.000000 0.4435 0.4615 0.4742 0.4868 0.4945
1260.000000 0.4954 0.4958 0.4951 0.4923 0.4707
1255.000000 0.4519 0.4110 0.3630 0.3106 0.2582
1250.000000 0.2057 0.1586 0.1368 0.1296 0.1242
1245.000000 0.1195 0.1150 0.1092 0.1129 0.1162
1240.000000 0.1233 0.1306 0.1396 0.1526 0.1779
1235.000000 0.1998 0.2155 0.2314 0.2546 0.2824
1230.000000 0.3077 0.3330 0.3582 0.3836 0.4089
1225.000000 0.4342 0.4594 0.4847 0.4979 0.4986
1220.000000 0.5023 0.4341 0.3868 0.3396 0.2923
1215.000000 0.2901 0.3068 0.3444 0.3820 0.4196
1210.000000 0.4572 0.4947 0.5282 0.5252 0.5191
1205.000000 0.5086 0.4981 0.4898 0.4905 0.5114
1200.000000 0.5333 0.5553 0.5772 0.5953 0.5983
1195.000000 0.6019 0.5854 0.5733 0.5612 0.5477
1190.000000 0.5481 0.5646 0.5889 0.6131 0.6264
1185.000000 0.6380 0.6511 0.6632 0.6674 0.6705
1180.000000 0.6725 0.6748 0.6765 0.6774 0.6782
1175.000000 0.6786 0.6810 0.6791 0.6775 0.6758
1170.000000 0.6741 0.6714 0.6688 0.6661 0.6634
1165.000000 0.6593 0.6493 0.6129 0.5929 0.5808
1160.000000 0.5688 0.5243 0.4944 0.4701 0.4537
1155.000000 0.4394 0.4310 0.4232 0.4152 0.4058
1150.000000 0.3966 0.3893 0.3907 0.3908 0.3909
1145.000000 0.3941 0.3987 0.4038 0.4090 0.4166
1140.000000 0.4706 0.4865 0.5079 0.5312 0.5462
1135.000000 0.5596 0.5710 0.5824 0.5935 0.6045
1130.000000 0.6185 0.6342 0.6426 0.6512 0.6632
1125.000000 0.6721 0.6798 0.6846 0.6890 0.6924
1120.000000 0.6936 0.6948 0.6958 0.6958 0.6960
1115.000000 0.6958 0.6940 0.6921 0.6903 0.6885
1110.000000 0.6864 0.6834 0.6805 0.6775 0.6746
1105.000000 0.6715 0.6678 0.6642 0.6606 0.6564
1100.000000 0.6518 0.6480 0.6449 0.6438 0.6426
1095.000000 0.6425 0.6421 0.6428 0.6442 0.6480
1090.000000 0.6585 0.6696 0.6778 0.6854 0.6921
1085.000000 0.6990 0.7058 0.7108 0.7141 0.7167
1080.000000 0.7178 0.7185 0.7191 0.7195 0.7228
1075.000000 0.7198 0.7176 0.7146 0.7078 0.6632
1070.000000 0.6449 0.6268 0.6031 0.5287 0.4777
1065.000000 0.4267 0.3756 0.3373 0.3384 0.3518
1060.000000 0.3884 0.4250 0.4616 0.4982 0.5348
1055.000000 0.5714 0.5942 0.5950 0.5887 0.5824
1050.000000 0.5760 0.5737 0.5968 0.6256 0.6461
1045.000000 0.6584 0.6724 0.6860 0.6987 0.7089
1040.000000 0.7197 0.7293 0.7375 0.7439 0.7489
1035.000000 0.7524 0.7542 0.7560 0.7576 0.7591
1030.000000 0.7611 0.7606 0.7608 0.7608 0.7608
1025.000000 0.7603 0.7597 0.7582 0.7564 0.7528
1020.000000 0.7483 0.7378 0.7037 0.6338 0.6008
1015.000000 0.5698 0.5600 0.5533 0.5421 0.5438
1010.000000 0.5434 0.5837 0.6077 0.6196 0.6312
1005.000000 0.6439 0.6571 0.6976 0.7128 0.7254
1000.000000 0.7328 0.7403 0.7475 0.7562 0.7633
995.000000 0.7676 0.7712 0.7742 0.7767 0.7790
990.000000 0.7814 0.7837 0.7846 0.7842 0.7836
985.000000 0.7811 0.7775 0.7733 0.7704 0.7674
980.000000 0.7648 0.7634 0.7634 0.7634 0.7661
975.000000 0.7690 0.7718 0.7747 0.7764 0.7780
970.000000 0.7795 0.7811 0.7825 0.7840 0.7850
965.000000 0.7858 0.7868 0.7878 0.7887 0.7896
960.000000 0.7905 0.7914 0.7921 0.7931 0.7939
955.000000 0.7947 0.7955 0.7962 0.7971 0.7978
950.000000 0.7986 0.7993 0.8000 0.8007 0.8014
945.000000 0.8021 0.8028 0.8034 0.8039 0.8045
940.000000 0.8051 0.8056 0.8061 0.8068 0.8072
935.000000 0.8075 0.8078 0.8081 0.8084 0.8084
930.000000 0.8083 0.8117 0.8080 0.8075 0.8072
925.000000 0.8068 0.8062 0.8058 0.8044 0.7876
920.000000 0.7756 0.7678 0.7615 0.7530 0.7488
915.000000 0.7469 0.7537 0.7733 0.7798 0.7841
910.000000 0.7854 0.7864 0.7874 0.7895 0.7894
905.000000 0.7894 0.7849 0.7761 0.7668 0.7568
900.000000 0.7385 0.7242 0.7242 0.7242 0.7244
895.000000 0.7319 0.7476 0.7571 0.7628 0.7696
890.000000 0.7739 0.7741 0.7751 0.7748 0.7719
885.000000 0.7646 0.7155 0.5723 0.3998 0.3987
880.000000 0.4464 0.5117 0.5769 0.6421 0.6984
875.000000 0.7321 0.7615 0.7731 0.7821 0.7871
870.000000 0.7892 0.7917 0.7890 0.7878 0.7838
865.000000 0.7765 0.7601 0.7425 0.7248 0.7051
860.000000 0.6548 0.6362 0.6317 0.6349 0.6661
855.000000 0.6969 0.7187 0.7347 0.7498 0.7608
850.000000 0.7707 0.7782 0.7846 0.7908 0.7954
845.000000 0.8000 0.8042 0.8075 0.8111 0.8145
840.000000 0.8168 0.8194 0.8217 0.8230 0.8243
835.000000 0.8256 0.8268 0.8282 0.8295 0.8308
830.000000 0.8321 0.8335 0.8347 0.8357 0.8367
825.000000 0.8375 0.8378 0.8382 0.8383 0.8383
820.000000 0.8383 0.8370 0.8335 0.8291 0.8237
815.000000 0.8182 0.8084 0.7938 0.7780 0.7775
810.000000 0.7775 0.7848 0.7936 0.8011 0.8080
805.000000 0.8133 0.8165 0.8196 0.8225 0.8253
800.000000 0.8280 0.8307 0.8334 0.8352 0.8367
795.000000 0.8383 0.8398 0.8409 0.8418 0.8428
790.000000 0.8436 0.8440 0.8445 0.8450 0.8455
785.000000 0.8459 0.8459 0.8459 0.8458 0.8458
780.000000 0.8487 0.8461 0.8462 0.8464 0.8465
775.000000 0.8467 0.8467 0.8464 0.8462 0.8459
770.000000 0.8457 0.8452 0.8445 0.8438 0.8428
765.000000 0.8412 0.8394 0.8362 0.8327 0.8271
760.000000 0.8202 0.8039 0.7608 0.6732 0.5854
755.000000 0.5043 0.5062 0.5588 0.6115 0.6642
750.000000 0.7168 0.7780 0.7868 0.7972 0.8057
745.000000 0.8108 0.8149 0.8178 0.8197 0.8210
740.000000 0.8221 0.8233 0.8239 0.8246 0.8252
735.000000 0.8256 0.8260 0.8259 0.8258 0.8237
730.000000 0.8211 0.8180 0.8153 0.8125 0.8094
725.000000 0.8061 0.8021 0.7965 0.7942 0.7937
720.000000 0.7935 0.7931 0.7925 0.7530 0.6350
715.000000 0.5031 0.5053 0.5510 0.6057 0.6604
710.000000 0.6830 0.6637 0.5929 0.5220 0.4782
705.000000 0.4924 0.5933 0.6942 0.7934 0.8251
700.000000 0.8384 0.8509 0.8590 0.8652 0.8710
695.000000 0.8747 0.8783 0.8814 0.8845 0.8860
690.000000 0.8875 0.8887 0.8897 0.8907 0.8917
685.000000 0.8925 0.8935 0.8942 0.8950 0.8956
680.000000 0.8962 0.8968 0.8974 0.8978 0.8978
675.000000 0.8980 0.8980 0.8978 0.8977 0.8970
670.000000 0.8962 0.8954 0.8949 0.8943 0.8942
665.000000 0.8942 0.8942 0.8943 0.8989 0.8950
660.000000 0.8953 0.8955 0.8955 0.8955 0.8955
655.000000 0.8954 0.8951 0.8948 0.8946 0.8943
650.000000 0.8928 0.8912 0.8890 0.8864 0.8835
645.000000 0.8798 0.8760 0.8685 0.8600 0.8370
640.000000 0.8221 0.8018 0.8037 0.8025 0.8025
635.000000 0.8142 0.8318 0.8389 0.8451 0.8525
630.000000 0.8578 0.8615 0.8640 0.8655 0.8670
625.000000 0.8664 0.8655 0.8650 0.8646 0.8658
620.000000 0.8668 0.8678 0.8688 0.8698 0.8704
615.000000 0.8709 0.8714 0.8718 0.8724 0.8728
610.000000 0.8733 0.8735 0.8736 0.8737 0.8737
605.000000 0.8738 0.8738 0.8739 0.8740 0.8740
600.000000 0.8738 0.8735 0.8731 0.8728 0.8725
595.000000 0.8721 0.8718 0.8715 0.8711 0.8749
590.000000 0.8703 0.8699 0.8694 0.8690 0.8686
585.000000 0.8682 0.8678 0.8674 0.8670 0.8665
580.000000 0.8661 0.8657 0.8653 0.8649 0.8645
575.000000 0.8641 0.8637 0.8632 0.8628 0.8623
570.000000 0.8618 0.8615 0.8610 0.8606 0.8601
565.000000 0.8597 0.8593 0.8588 0.8584 0.8580
560.000000 0.8575 0.8571 0.8567 0.8560 0.8554
555.000000 0.8547 0.8540 0.8533 0.8525 0.8514
550.000000 0.8503 0.8492 0.8471 0.8452 0.8425
545.000000 0.8397 0.8362 0.8320 0.8277 0.8233
540.000000 0.7348 0.7096 0.7122 0.7444 0.7734
535.000000 0.7857 0.7958 0.8051 0.8125 0.8178
530.000000 0.8201 0.8221 0.8247 0.8228 0.8224
525.000000 0.8214 0.8106 0.7941 0.7571 0.7332
520.000000 0.7165 0.7171 0.7235 0.7834 0.7951
515.000000 0.8039 0.8106 0.8172 0.8238 0.8298
510.000000 0.8345 0.8368 0.8390 0.8410 0.8421
505.000000 0.8428 0.8440 0.8440 0.8435 0.8428
500.000000 0.8420 0.8393 0.8366 0.8321 0.8278
495.000000 0.8207 0.8135 0.8078 0.8021 0.7971
490.000000 0.7925 0.7887 0.7861 0.7851 0.7818
485.000000 0.7839 0.7846 0.7876 0.7901 0.7924
480.000000 0.7947 0.7971 0.7994 0.8018 0.8044
475.000000 0.8065 0.8084 0.8104 0.8115 0.8125
470.000000 0.8128 0.8131 0.8134 0.8128 0.8121
465.000000 0.8151 0.8106 0.8093 0.8080 0.8068
460.000000 0.8055 0.8039 0.8022 0.8007 0.7990
455.000000 0.7974 0.7954 0.7933 0.7911 0.7891
450.000000 0.7868 0.7848 0.7818 0.7784 0.7750
445.000000 0.7715 0.7675 0.7632 0.7588 0.7555
440.000000 0.7525 0.7515 0.7512 0.7511 0.7508
435.000000 0.7506 0.7504 0.7501 0.7499 0.7497
430.000000 0.7495 0.7492 0.7490 0.7488 0.7486
425.000000 0.7480 0.7474 0.7468 0.7461 0.7455
420.000000 0.7449 0.7442 0.7436 0.7430 0.7424
415.000000 0.7418 0.7411 0.7406 0.7400 0.7394
410.000000 0.7388 0.7380 0.7371 0.7364 0.7356
405.000000 0.7348 0.7340 0.7331 0.7319 0.7308
400.000000 0.7298 0.7287 0.7275 0.7267 0.7261
395.000000 0.7255 0.7250 0.7244 0.7238 0.7234
390.000000 0.7231 0.7228 0.7225 0.7225 0.7222
385.000000 0.7222 0.7225 0.7228 0.7232
##END=
