##TITLE=4-METHOXYBENZENE DIAZONIUM FLUOROBORATE
##JCAMP-DX=4.24
##DATA TYPE=INFRARED SPECTRUM
##CLASS=COBLENTZ
##ORIGIN=DOW CHEMICAL COMPANY
##OWNER=COBLENTZ SOCIETY
Collection (C) 2018 copyright by the U.S. Secretary of Commerce
on behalf of the United States of America. All rights reserved.
##DATE=Not specified, most likely prior to 1970
##MOLFORM=C7 H7 B F4 N2 O
##SOURCE REFERENCE=COBLENTZ NO. 4162
##$NIST ID=B6004162
##$NIST SOURCE=COBLENTZ
##$NIST IMAGE=cob4162
##SPECTROMETER/DATA SYSTEM=Not specified, most likely a prism, grating, or hybrid spectrometer.
##STATE=SOLID (MINERAL OIL MULL)
##PATH LENGTH=
$$SPECTRAL CONTAMINATION DUE TO OIL AROUND 2940 CM^-^1
##SAMPLING PROCEDURE=TRANSMISSION
##RESOLUTION=4
##DATA PROCESSING=DIGITIZED BY NIST FROM HARD COPY
##XUNITS=MICROMETERS
##YUNITS=TRANSMITTANCE
##XFACTOR=1.000000
##YFACTOR=1
##DELTAX=000.006529
##FIRSTX=2.021
##LASTX=15.9087
##FIRSTY=0.766
##MAXX=15.9087
##MINX=2.021
##MAXY=0.868
##MINY=0.127
##NPOINTS=2128
##XYDATA=(X++(Y..Y))
2.021000 0.7660 0.7660 0.7660 0.7660 0.7660
2.053662 0.7660 0.7660 0.7660 0.7660 0.7660
2.086000 0.7660 0.7680 0.7680 0.7680 0.7700
2.118662 0.7700 0.7700 0.7700 0.7700 0.7700
2.151000 0.7710 0.7710 0.7710 0.7710 0.7710
2.183662 0.7710 0.7710 0.7710 0.7700 0.7680
2.216000 0.7680 0.7660 0.7650 0.7650 0.7630
2.248662 0.7630 0.7620 0.7620 0.7620 0.7620
2.282000 0.7620 0.7630 0.7630 0.7630 0.7650
2.314662 0.7650 0.7650 0.7660 0.7660 0.7660
2.347000 0.7660 0.7680 0.7680 0.7680 0.7680
2.379662 0.7680 0.7680 0.7680 0.7680 0.7680
2.412000 0.7680 0.7700 0.7700 0.7710 0.7710
2.444662 0.7730 0.7750 0.7760 0.7780 0.7780
2.478000 0.7790 0.7790 0.7810 0.7810 0.7830
2.510662 0.7830 0.7830 0.7830 0.7830 0.7830
2.543000 0.7810 0.7810 0.7810 0.7810 0.7830
2.575662 0.7830 0.7840 0.7840 0.7840 0.7840
2.608000 0.7860 0.7860 0.7880 0.7880 0.7880
2.640662 0.7880 0.7880 0.7880 0.7860 0.7860
2.674000 0.7860 0.7860 0.7860 0.7880 0.7890
2.706662 0.7890 0.7910 0.7910 0.7910 0.7910
2.739000 0.7910 0.7910 0.7910 0.7910 0.7890
2.771662 0.7890 0.7890 0.7890 0.7880 0.7880
2.804000 0.7890 0.7890 0.7910 0.7910 0.7920
2.836662 0.7920 0.7920 0.7920 0.7920 0.7920
2.869000 0.7920 0.7920 0.7920 0.7910 0.7910
2.901662 0.7890 0.7890 0.7890 0.7880 0.7860
2.935000 0.7830 0.7810 0.7810 0.7790 0.7790
2.967662 0.7810 0.7810 0.7830 0.7830 0.7830
3.000000 0.7830 0.7840 0.7860 0.7860 0.7880
3.032662 0.7880 0.7880 0.7860 0.7840 0.7840
3.065000 0.7830 0.7810 0.7790 0.7780 0.7780
3.097662 0.7760 0.7750 0.7700 0.7660 0.7620
3.131000 0.7620 0.7600 0.7570 0.7500 0.7410
3.163662 0.7260 0.7210 0.7130 0.7050 0.6970
3.196000 0.6890 0.6870 0.6890 0.6920 0.7020
3.228662 0.7240 0.7370 0.7420 0.7470 0.7490
3.261000 0.7470 0.7470 0.7420 0.7410 0.7340
3.293662 0.7260 0.7150 0.7020 0.6840 0.6600
3.326000 0.6290 0.5870 0.5330 0.4440 0.3180
3.358662 0.2910 0.2580 0.2260 0.1940 0.1610
3.392000 0.1310 0.1270 0.1310 0.1520 0.1730
3.424662 0.1950 0.2160 0.2310 0.2570 0.2730
3.457000 0.2790 0.2810 0.2840 0.2970 0.3180
3.489662 0.3540 0.4060 0.4850 0.5300 0.5720
3.522000 0.6990 0.7230 0.7340 0.7440 0.7520
3.554662 0.7570 0.7680 0.7710 0.7780 0.7790
3.588000 0.7830 0.7880 0.7890 0.7910 0.7920
3.620662 0.7920 0.7940 0.7940 0.7940 0.7940
3.653000 0.7920 0.7920 0.7910 0.7890 0.7860
3.685662 0.7830 0.7790 0.7780 0.7760 0.7760
3.718000 0.7780 0.7810 0.7830 0.7840 0.7880
3.750662 0.7880 0.7890 0.7890 0.7890 0.7890
3.784000 0.7890 0.7910 0.7940 0.7990 0.8000
3.816662 0.8020 0.8040 0.8040 0.8070 0.8090
3.849000 0.8100 0.8120 0.8130 0.8150 0.8180
3.881662 0.8200 0.8220 0.8230 0.8230 0.8250
3.914000 0.8260 0.8260 0.8260 0.8260 0.8260
3.946662 0.8280 0.8280 0.8300 0.8300 0.8300
3.979000 0.8300 0.8300 0.8310 0.8310 0.8310
4.011662 0.8330 0.8330 0.8330 0.8330 0.8330
4.045000 0.8330 0.8330 0.8330 0.8330 0.8330
4.077662 0.8330 0.8330 0.8330 0.8330 0.8310
4.110000 0.8310 0.8310 0.8300 0.8300 0.8300
4.142662 0.8280 0.8280 0.8260 0.8260 0.8260
4.175000 0.8260 0.8260 0.8260 0.8260 0.8260
4.207662 0.8260 0.8260 0.8260 0.8250 0.8250
4.241000 0.8230 0.8230 0.8220 0.8200 0.8180
4.273662 0.8150 0.8100 0.8040 0.7990 0.7910
4.306000 0.7840 0.7750 0.7660 0.7570 0.7470
4.338662 0.7360 0.7260 0.7080 0.6870 0.6600
4.371000 0.6290 0.5950 0.5580 0.5190 0.4780
4.403662 0.4490 0.4230 0.4090 0.4090 0.4480
4.436000 0.5250 0.5660 0.6000 0.7290 0.7650
4.468662 0.7760 0.7780 0.7790 0.7830 0.7890
4.502000 0.7970 0.8040 0.8100 0.8130 0.8170
4.534662 0.8170 0.8170 0.8180 0.8180 0.8200
4.567000 0.8250 0.8300 0.8310 0.8340 0.8360
4.599662 0.8380 0.8390 0.8410 0.8410 0.8430
4.632000 0.8430 0.8440 0.8440 0.8460 0.8460
4.664662 0.8470 0.8470 0.8470 0.8470 0.8470
4.698000 0.8470 0.8470 0.8470 0.8470 0.8460
4.730662 0.8460 0.8440 0.8440 0.8440 0.8430
4.763000 0.8430 0.8430 0.8430 0.8440 0.8470
4.795662 0.8510 0.8520 0.8520 0.8550 0.8570
4.828000 0.8570 0.8570 0.8570 0.8570 0.8590
4.860662 0.8590 0.8590 0.8600 0.8600 0.8620
4.894000 0.8620 0.8600 0.8600 0.8600 0.8590
4.926662 0.8590 0.8590 0.8590 0.8590 0.8570
4.959000 0.8550 0.8540 0.8510 0.8490 0.8470
4.991662 0.8470 0.8470 0.8490 0.8510 0.8540
5.024000 0.8550 0.8570 0.8570 0.8590 0.8590
5.056662 0.8600 0.8600 0.8600 0.8620 0.8640
5.089000 0.8640 0.8640 0.8640 0.8640 0.8620
5.121662 0.8600 0.8590 0.8590 0.8590 0.8570
5.155000 0.8550 0.8550 0.8540 0.8540 0.8540
5.187662 0.8540 0.8540 0.8550 0.8570 0.8590
5.220000 0.8600 0.8600 0.8620 0.8620 0.8640
5.252662 0.8640 0.8650 0.8650 0.8670 0.8670
5.285000 0.8670 0.8670 0.8670 0.8670 0.8670
5.317662 0.8670 0.8670 0.8670 0.8670 0.8670
5.351000 0.8670 0.8650 0.8650 0.8650 0.8640
5.383662 0.8640 0.8640 0.8620 0.8620 0.8600
5.416000 0.8600 0.8590 0.8590 0.8600 0.8600
5.448662 0.8620 0.8620 0.8620 0.8600 0.8590
5.481000 0.8590 0.8590 0.8590 0.8600 0.8600
5.513662 0.8600 0.8600 0.8620 0.8620 0.8620
5.546000 0.8640 0.8650 0.8670 0.8680 0.8680
5.578662 0.8680 0.8680 0.8680 0.8670 0.8670
5.612000 0.8670 0.8650 0.8650 0.8650 0.8650
5.644662 0.8670 0.8670 0.8680 0.8680 0.8680
5.677000 0.8680 0.8670 0.8670 0.8650 0.8650
5.709662 0.8640 0.8640 0.8640 0.8640 0.8640
5.742000 0.8650 0.8670 0.8670 0.8670 0.8670
5.774662 0.8670 0.8650 0.8640 0.8620 0.8620
5.808000 0.8600 0.8590 0.8570 0.8570 0.8570
5.840662 0.8550 0.8550 0.8550 0.8550 0.8550
5.873000 0.8540 0.8520 0.8510 0.8490 0.8490
5.905662 0.8470 0.8460 0.8460 0.8440 0.8440
5.938000 0.8440 0.8440 0.8440 0.8440 0.8440
5.970662 0.8430 0.8430 0.8430 0.8430 0.8430
6.004000 0.8410 0.8390 0.8390 0.8380 0.8360
6.036662 0.8340 0.8340 0.8330 0.8330 0.8310
6.069000 0.8310 0.8300 0.8280 0.8250 0.8220
6.101662 0.8170 0.8130 0.8100 0.8090 0.8050
6.134000 0.8000 0.7940 0.7860 0.7790 0.7710
6.166662 0.7630 0.7550 0.7490 0.7420 0.7360
6.199000 0.7310 0.7210 0.7050 0.6810 0.6500
6.231662 0.6140 0.5720 0.5240 0.4700 0.4120
6.265000 0.3490 0.2810 0.2080 0.1900 0.1900
6.297662 0.1970 0.2280 0.2780 0.3040 0.3510
6.330000 0.3810 0.3990 0.4190 0.4380 0.4590
6.362662 0.4830 0.5120 0.5460 0.5840 0.6270
6.395000 0.6770 0.7330 0.7580 0.8200 0.8230
6.427662 0.8230 0.8220 0.8220 0.8200 0.8200
6.461000 0.8220 0.8260 0.8300 0.8330 0.8360
6.493662 0.8410 0.8470 0.8490 0.8490 0.8490
6.526000 0.8490 0.8470 0.8470 0.8430 0.8380
6.558662 0.8330 0.8300 0.8280 0.8280 0.8250
6.591000 0.8200 0.8130 0.8070 0.7990 0.7880
6.623662 0.7730 0.7540 0.7290 0.6990 0.6600
6.656000 0.6390 0.6190 0.6000 0.5880 0.5870
6.688662 0.5880 0.6080 0.6210 0.6340 0.6450
6.722000 0.6660 0.6680 0.6650 0.6630 0.6550
6.754662 0.6390 0.6190 0.6010 0.5820 0.5630
6.787000 0.5450 0.5270 0.5120 0.5000 0.4960
6.819662 0.4900 0.4880 0.4900 0.4980 0.5010
6.852000 0.5080 0.5090 0.5090 0.5090 0.5080
6.884662 0.4980 0.4950 0.4950 0.4980 0.5240
6.918000 0.5550 0.5950 0.6420 0.6890 0.7340
6.950662 0.7700 0.7890 0.8000 0.8090 0.8120
6.983000 0.8170 0.8180 0.8230 0.8280 0.8300
7.015662 0.8330 0.8360 0.8360 0.8380 0.8390
7.048000 0.8410 0.8410 0.8410 0.8410 0.8430
7.080662 0.8430 0.8430 0.8410 0.8410 0.8390
7.114000 0.8380 0.8330 0.8310 0.8280 0.8250
7.146662 0.8220 0.8150 0.8050 0.7960 0.7830
7.179000 0.7680 0.7520 0.7330 0.7150 0.6990
7.211662 0.6810 0.6680 0.6550 0.6470 0.6400
7.244000 0.6390 0.6400 0.6550 0.6660 0.6840
7.276662 0.7000 0.7100 0.7200 0.7280 0.7330
7.309000 0.7390 0.7450 0.7520 0.7570 0.7580
7.341662 0.7580 0.7570 0.7420 0.7230 0.7080
7.375000 0.6900 0.6680 0.6480 0.6240 0.6080
7.407662 0.5840 0.5760 0.5760 0.5870 0.6220
7.440000 0.6650 0.7110 0.7470 0.7660 0.7680
7.472662 0.7680 0.7660 0.7660 0.7660 0.7650
7.505000 0.7650 0.7650 0.7650 0.7630 0.7570
7.537662 0.7470 0.7440 0.7330 0.7180 0.7000
7.571000 0.6790 0.6600 0.6420 0.6240 0.6110
7.603662 0.6030 0.5920 0.5790 0.5660 0.5500
7.636000 0.5330 0.5140 0.4930 0.4690 0.4430
7.668662 0.4120 0.3780 0.3390 0.3070 0.2890
7.701000 0.2570 0.2500 0.2500 0.2790 0.3070
7.733662 0.3340 0.3490 0.4220 0.4900 0.5420
7.766000 0.5820 0.6140 0.6400 0.6610 0.6790
7.798662 0.6990 0.7200 0.7340 0.7500 0.7580
7.832000 0.7680 0.7780 0.7840 0.7940 0.8020
7.864662 0.8100 0.8180 0.8220 0.8260 0.8300
7.897000 0.8360 0.8390 0.8430 0.8460 0.8470
7.929662 0.8510 0.8550 0.8570 0.8590 0.8600
7.962000 0.8620 0.8620 0.8620 0.8620 0.8640
7.994662 0.8640 0.8640 0.8640 0.8650 0.8650
8.028000 0.8650 0.8650 0.8650 0.8650 0.8650
8.060662 0.8650 0.8650 0.8650 0.8650 0.8650
8.093000 0.8650 0.8650 0.8650 0.8650 0.8650
8.125662 0.8650 0.8640 0.8640 0.8620 0.8620
8.158000 0.8600 0.8600 0.8600 0.8590 0.8590
8.190662 0.8590 0.8590 0.8590 0.8570 0.8540
8.224000 0.8510 0.8490 0.8460 0.8430 0.8340
8.256662 0.8260 0.8200 0.8120 0.8040 0.7920
8.289000 0.7790 0.7630 0.7540 0.7470 0.7410
8.321662 0.7390 0.7410 0.7450 0.7490 0.7570
8.354000 0.7600 0.7660 0.7680 0.7700 0.7700
8.386662 0.7700 0.7700 0.7710 0.7750 0.7780
8.419000 0.7790 0.7830 0.7840 0.7880 0.7890
8.451662 0.7910 0.7940 0.7970 0.8020 0.8070
8.485000 0.8090 0.8100 0.8130 0.8170 0.8170
8.517662 0.8180 0.8180 0.8170 0.8170 0.8130
8.550000 0.8120 0.8090 0.8050 0.8040 0.8020
8.582662 0.7990 0.7970 0.7940 0.7920 0.7910
8.615000 0.7880 0.7860 0.7830 0.7810 0.7780
8.647662 0.7760 0.7730 0.7710 0.7680 0.7660
8.681000 0.7600 0.7570 0.7540 0.7490 0.7440
8.713662 0.7390 0.7340 0.7280 0.7200 0.7080
8.746000 0.6990 0.6870 0.6740 0.6650 0.6550
8.778662 0.6450 0.6390 0.6290 0.6190 0.6080
8.811000 0.6000 0.5930 0.5880 0.5850 0.5800
8.843662 0.5770 0.5740 0.5690 0.5630 0.5550
8.876000 0.5450 0.5330 0.5220 0.5110 0.5010
8.908662 0.4910 0.4820 0.4740 0.4640 0.4540
8.942000 0.4460 0.4360 0.4270 0.4150 0.4040
8.974662 0.3930 0.3810 0.3670 0.3540 0.3380
9.007000 0.3220 0.3020 0.2890 0.2750 0.2630
9.039662 0.2500 0.2410 0.2310 0.2210 0.2200
9.072000 0.2180 0.2200 0.2210 0.2290 0.2370
9.104662 0.2450 0.2540 0.2630 0.2700 0.2750
9.138000 0.2780 0.2790 0.2810 0.2830 0.2830
9.170662 0.2830 0.2810 0.2810 0.2790 0.2780
9.203000 0.2730 0.2710 0.2700 0.2680 0.2650
9.235662 0.2620 0.2570 0.2520 0.2490 0.2450
9.268000 0.2410 0.2370 0.2310 0.2280 0.2230
9.300662 0.2200 0.2150 0.2110 0.2080 0.2050
9.334000 0.2030 0.2000 0.1990 0.1950 0.1900
9.366662 0.1870 0.1870 0.1840 0.1820 0.1810
9.399000 0.1790 0.1740 0.1740 0.1710 0.1690
9.431662 0.1680 0.1680 0.1660 0.1650 0.1630
9.464000 0.1630 0.1610 0.1610 0.1610 0.1630
9.496662 0.1660 0.1690 0.1760 0.1820 0.1890
9.529000 0.1950 0.2020 0.2080 0.2130 0.2180
9.561662 0.2200 0.2210 0.2230 0.2240 0.2260
9.595000 0.2290 0.2290 0.2330 0.2360 0.2420
9.627662 0.2500 0.2620 0.2730 0.2880 0.3000
9.660000 0.3170 0.3330 0.3490 0.3640 0.3800
9.692662 0.3990 0.4150 0.4350 0.4480 0.4610
9.725000 0.4750 0.4910 0.5080 0.5220 0.5330
9.757662 0.5450 0.5510 0.5610 0.5670 0.5720
9.791000 0.5770 0.5820 0.5870 0.5920 0.5970
9.823662 0.5980 0.5980 0.5980 0.5970 0.5950
9.856000 0.5930 0.5900 0.5880 0.5840 0.5770
9.888662 0.5690 0.5590 0.5430 0.5190 0.5010
9.921000 0.4830 0.4560 0.4320 0.4150 0.3960
9.953662 0.3850 0.3720 0.3700 0.3720 0.3880
9.986000 0.3960 0.4230 0.4460 0.4770 0.5160
10.018662 0.5510 0.5840 0.6030 0.6180 0.6350
10.052000 0.6450 0.6550 0.6650 0.6770 0.6860
10.084662 0.6990 0.7070 0.7150 0.7240 0.7310
10.117000 0.7390 0.7450 0.7500 0.7540 0.7580
10.149662 0.7600 0.7630 0.7680 0.7700 0.7730
10.182000 0.7750 0.7780 0.7790 0.7810 0.7840
10.214662 0.7860 0.7860 0.7880 0.7880 0.7890
10.248000 0.7890 0.7890 0.7890 0.7880 0.7840
10.280662 0.7790 0.7750 0.7700 0.7630 0.7620
10.313000 0.7600 0.7600 0.7600 0.7620 0.7630
10.345662 0.7700 0.7730 0.7780 0.7790 0.7790
10.378000 0.7810 0.7810 0.7790 0.7750 0.7710
10.410662 0.7650 0.7600 0.7580 0.7600 0.7620
10.443000 0.7680 0.7750 0.7830 0.7910 0.7990
10.475662 0.8040 0.8100 0.8180 0.8200 0.8230
10.509000 0.8280 0.8280 0.8300 0.8300 0.8310
10.541662 0.8330 0.8340 0.8340 0.8360 0.8380
10.574000 0.8380 0.8380 0.8390 0.8390 0.8410
10.606662 0.8410 0.8430 0.8430 0.8430 0.8430
10.639000 0.8430 0.8430 0.8430 0.8430 0.8430
10.671662 0.8430 0.8430 0.8430 0.8430 0.8440
10.705000 0.8440 0.8440 0.8440 0.8440 0.8440
10.737662 0.8440 0.8440 0.8440 0.8440 0.8460
10.770000 0.8460 0.8460 0.8460 0.8460 0.8460
10.802662 0.8460 0.8460 0.8460 0.8470 0.8470
10.835000 0.8470 0.8490 0.8490 0.8490 0.8490
10.867662 0.8470 0.8470 0.8470 0.8470 0.8470
10.901000 0.8490 0.8490 0.8490 0.8490 0.8510
10.933662 0.8510 0.8520 0.8520 0.8520 0.8540
10.966000 0.8540 0.8540 0.8550 0.8550 0.8550
10.998662 0.8550 0.8570 0.8570 0.8570 0.8570
11.031000 0.8570 0.8570 0.8570 0.8570 0.8570
11.063662 0.8590 0.8590 0.8590 0.8590 0.8590
11.096000 0.8590 0.8590 0.8590 0.8590 0.8590
11.128662 0.8590 0.8590 0.8590 0.8590 0.8590
11.162000 0.8590 0.8590 0.8590 0.8590 0.8590
11.194662 0.8590 0.8600 0.8600 0.8620 0.8620
11.227000 0.8620 0.8620 0.8620 0.8620 0.8620
11.259662 0.8640 0.8640 0.8640 0.8640 0.8640
11.292000 0.8640 0.8640 0.8640 0.8640 0.8640
11.324662 0.8640 0.8640 0.8640 0.8640 0.8640
11.358000 0.8640 0.8640 0.8640 0.8640 0.8640
11.390662 0.8640 0.8640 0.8640 0.8640 0.8640
11.423000 0.8640 0.8640 0.8640 0.8640 0.8640
11.455662 0.8640 0.8640 0.8640 0.8640 0.8640
11.488000 0.8640 0.8640 0.8640 0.8640 0.8640
11.520662 0.8640 0.8620 0.8620 0.8600 0.8600
11.553000 0.8600 0.8600 0.8590 0.8590 0.8590
11.585662 0.8590 0.8570 0.8550 0.8550 0.8540
11.619000 0.8520 0.8510 0.8490 0.8490 0.8460
11.651662 0.8430 0.8390 0.8330 0.8300 0.8230
11.684000 0.8200 0.8150 0.8090 0.8000 0.7920
11.716662 0.7810 0.7680 0.7550 0.7390 0.7200
11.749000 0.6950 0.6740 0.6470 0.6260 0.6080
11.781662 0.5900 0.5660 0.5350 0.4930 0.4590
11.815000 0.4360 0.4140 0.4010 0.3910 0.3800
11.847662 0.3780 0.3800 0.3850 0.3940 0.4090
11.880000 0.4250 0.4490 0.4770 0.5060 0.5350
11.912662 0.5660 0.5950 0.6220 0.6470 0.6680
11.945000 0.6840 0.7030 0.7180 0.7310 0.7410
11.977662 0.7500 0.7600 0.7660 0.7710 0.7750
12.011000 0.7790 0.7830 0.7840 0.7860 0.7860
12.043662 0.7890 0.7890 0.7910 0.7910 0.7920
12.076000 0.7920 0.7920 0.7920 0.7940 0.7940
12.108662 0.7960 0.7960 0.7970 0.7990 0.8000
12.141000 0.8020 0.8050 0.8070 0.8090 0.8100
12.173662 0.8120 0.8150 0.8170 0.8180 0.8200
12.206000 0.8220 0.8230 0.8230 0.8250 0.8250
12.238662 0.8250 0.8250 0.8250 0.8230 0.8220
12.272000 0.8220 0.8200 0.8180 0.8170 0.8090
12.304662 0.8070 0.8040 0.8000 0.7970 0.7960
12.337000 0.7920 0.7910 0.7890 0.7880 0.7880
12.369662 0.7880 0.7860 0.7860 0.7860 0.7860
12.402000 0.7880 0.7880 0.7880 0.7880 0.7890
12.434662 0.7890 0.7890 0.7890 0.7910 0.7920
12.468000 0.7940 0.7960 0.7990 0.8000 0.8020
12.500662 0.8040 0.8050 0.8090 0.8120 0.8130
12.533000 0.8150 0.8170 0.8180 0.8180 0.8200
12.565662 0.8200 0.8230 0.8230 0.8250 0.8250
12.598000 0.8260 0.8260 0.8260 0.8280 0.8280
12.630662 0.8280 0.8280 0.8280 0.8280 0.8300
12.663000 0.8300 0.8300 0.8300 0.8310 0.8310
12.695662 0.8310 0.8310 0.8330 0.8330 0.8330
12.729000 0.8340 0.8340 0.8360 0.8360 0.8360
12.761662 0.8380 0.8380 0.8380 0.8380 0.8380
12.794000 0.8380 0.8380 0.8380 0.8380 0.8380
12.826662 0.8380 0.8380 0.8380 0.8380 0.8380
12.859000 0.8380 0.8380 0.8390 0.8390 0.8390
12.891662 0.8390 0.8390 0.8390 0.8390 0.8380
12.925000 0.8380 0.8380 0.8380 0.8380 0.8380
12.957662 0.8380 0.8360 0.8360 0.8360 0.8360
12.990000 0.8340 0.8340 0.8340 0.8340 0.8330
13.022662 0.8330 0.8330 0.8330 0.8330 0.8330
13.055000 0.8330 0.8330 0.8340 0.8340 0.8340
13.087662 0.8340 0.8360 0.8360 0.8380 0.8380
13.121000 0.8380 0.8360 0.8360 0.8360 0.8340
13.153662 0.8340 0.8330 0.8330 0.8310 0.8310
13.186000 0.8300 0.8280 0.8280 0.8280 0.8280
13.218662 0.8260 0.8260 0.8260 0.8250 0.8250
13.251000 0.8250 0.8250 0.8250 0.8250 0.8250
13.283662 0.8250 0.8250 0.8250 0.8250 0.8230
13.316000 0.8230 0.8230 0.8230 0.8230 0.8230
13.348662 0.8230 0.8230 0.8220 0.8220 0.8220
13.382000 0.8200 0.8180 0.8170 0.8170 0.8170
13.414662 0.8150 0.8150 0.8130 0.8130 0.8130
13.447000 0.8120 0.8120 0.8100 0.8090 0.8090
13.479662 0.8070 0.8050 0.8050 0.8040 0.8040
13.512000 0.8020 0.8020 0.8000 0.8000 0.8000
13.544662 0.7990 0.7970 0.7970 0.7970 0.7960
13.578000 0.7960 0.7940 0.7940 0.7940 0.7920
13.610662 0.7920 0.7910 0.7910 0.7890 0.7890
13.643000 0.7880 0.7880 0.7860 0.7860 0.7840
13.675662 0.7830 0.7810 0.7790 0.7780 0.7780
13.708000 0.7780 0.7760 0.7760 0.7750 0.7730
13.740662 0.7700 0.7700 0.7680 0.7660 0.7650
13.773000 0.7650 0.7650 0.7630 0.7620 0.7600
13.805662 0.7600 0.7580 0.7580 0.7570 0.7570
13.839000 0.7550 0.7550 0.7540 0.7540 0.7540
13.871662 0.7540 0.7550 0.7550 0.7570 0.7570
13.904000 0.7570 0.7570 0.7580 0.7580 0.7580
13.936662 0.7580 0.7600 0.7600 0.7600 0.7620
13.969000 0.7620 0.7600 0.7600 0.7600 0.7600
14.001662 0.7600 0.7600 0.7600 0.7580 0.7580
14.035000 0.7570 0.7570 0.7570 0.7550 0.7550
14.067662 0.7540 0.7540 0.7520 0.7500 0.7490
14.100000 0.7470 0.7450 0.7440 0.7420 0.7410
14.132662 0.7390 0.7370 0.7370 0.7360 0.7340
14.165000 0.7340 0.7330 0.7330 0.7330 0.7330
14.197662 0.7310 0.7310 0.7290 0.7290 0.7290
14.231000 0.7280 0.7280 0.7260 0.7260 0.7260
14.263662 0.7260 0.7240 0.7240 0.7240 0.7230
14.296000 0.7230 0.7210 0.7210 0.7210 0.7200
14.328662 0.7200 0.7180 0.7180 0.7150 0.7130
14.361000 0.7110 0.7100 0.7080 0.7070 0.7050
14.393662 0.7030 0.7000 0.6950 0.6920 0.6900
14.426000 0.6890 0.6870 0.6820 0.6790 0.6740
14.458662 0.6710 0.6660 0.6610 0.6600 0.6560
14.492000 0.6530 0.6500 0.6470 0.6400 0.6350
14.524662 0.6310 0.6270 0.6260 0.6220 0.6190
14.557000 0.6180 0.6180 0.6160 0.6160 0.6140
14.589662 0.6140 0.6130 0.6130 0.6130 0.6130
14.622000 0.6130 0.6130 0.6130 0.6140 0.6140
14.654662 0.6180 0.6180 0.6190 0.6190 0.6190
14.688000 0.6210 0.6210 0.6210 0.6220 0.6220
14.720662 0.6220 0.6220 0.6220 0.6220 0.6220
14.753000 0.6220 0.6220 0.6220 0.6220 0.6210
14.785662 0.6210 0.6210 0.6210 0.6190 0.6190
14.818000 0.6180 0.6160 0.6140 0.6140 0.6130
14.850662 0.6110 0.6100 0.6080 0.6050 0.6030
14.883000 0.6030 0.6010 0.6000 0.5980 0.5970
14.915662 0.5950 0.5950 0.5930 0.5930 0.5930
14.949000 0.5930 0.5930 0.5930 0.5930 0.5920
14.981662 0.5920 0.5920 0.5900 0.5900 0.5880
15.014000 0.5880 0.5870 0.5850 0.5840 0.5820
15.046662 0.5790 0.5770 0.5770 0.5760 0.5740
15.079000 0.5720 0.5720 0.5690 0.5670 0.5670
15.111662 0.5660 0.5660 0.5640 0.5640 0.5630
15.145000 0.5630 0.5610 0.5610 0.5590 0.5580
15.177662 0.5580 0.5560 0.5550 0.5550 0.5530
15.210000 0.5510 0.5500 0.5500 0.5480 0.5460
15.242662 0.5460 0.5450 0.5430 0.5420 0.5420
15.275000 0.5400 0.5380 0.5380 0.5370 0.5350
15.307662 0.5350 0.5330 0.5320 0.5320 0.5300
15.341000 0.5290 0.5270 0.5250 0.5240 0.5220
15.373662 0.5220 0.5210 0.5190 0.5170 0.5170
15.406000 0.5160 0.5140 0.5120 0.5110 0.5090
15.438662 0.5080 0.5060 0.5040 0.5030 0.5010
15.471000 0.5010 0.5000 0.4980 0.4960 0.4950
15.503662 0.4930 0.4900 0.4880 0.4850 0.4830
15.536000 0.4800 0.4780 0.4770 0.4750 0.4740
15.568662 0.4720 0.4700 0.4670 0.4660 0.4640
15.602000 0.4620 0.4610 0.4590 0.4570 0.4570
15.634662 0.4560 0.4540 0.4530 0.4510 0.4510
15.667000 0.4490 0.4490 0.4480 0.4480 0.4460
15.699662 0.4440 0.4440 0.4430 0.4410 0.4410
15.732000 0.4410 0.4400 0.4380 0.4360 0.4360
15.764662 0.4350 0.4330 0.4330 0.4320 0.4320
15.798000 0.4300 0.4300 0.4280 0.4280 0.4270
15.830662 0.4270 0.4250 0.4250 0.4250 0.4250
15.863000 0.4270 0.4270 0.4280 0.4280 0.4300
15.895662 0.4300 0.4320 0.4320
##END=
