##TITLE=SODIUM METASILICATE
$$ C.P.
##JCAMP-DX=4.24
##DATA TYPE=INFRARED SPECTRUM
##CLASS=COBLENTZ
##ORIGIN=MELLON INSTITUTE
##OWNER=COBLENTZ SOCIETY
Collection (C) 2018 copyright by the U.S. Secretary of Commerce
on behalf of the United States of America. All rights reserved.
##DATE=Not specified, most likely prior to 1970
##MOLFORM=Na2 Si O3  * 5 H2 O
##SOURCE REFERENCE=COBLENTZ NO. 514
##$NIST ID=B6000514
##$NIST SOURCE=COBLENTZ
##$NIST IMAGE=cob514
##SPECTROMETER/DATA SYSTEM=Not specified, most likely a prism, grating, or hybrid spectrometer.
##STATE=SOLID (NUJOL MULL)
##PATH LENGTH=
$$SPECTRAL CONTAMINATION DUE TO OIL AROUND 2900, 1450, 1380 CM^-^1
##SAMPLING PROCEDURE=TRANSMISSION
##RESOLUTION=4
##DATA PROCESSING=DIGITIZED BY NIST FROM HARD COPY
##XUNITS=MICROMETERS
##YUNITS=TRANSMITTANCE
##XFACTOR=1.000000
##YFACTOR=1
##DELTAX=000.006837
##FIRSTX=2.063
##LASTX=15.9967
##FIRSTY=0.991
##MAXX=15.9967
##MINX=2.063
##MAXY=0.987
##MINY=0.024
##NPOINTS=2039
##XYDATA=(X++(Y..Y))
2.063000 0.9910 0.9870 0.9870 0.9860 0.9820
2.097199 0.9810 0.9810 0.9810 0.9810 0.9790
2.132000 0.9770 0.9750 0.9770 0.9770 0.9770
2.166199 0.9750 0.9770 0.9770 0.9770 0.9770
2.200000 0.9750 0.9740 0.9720 0.9720 0.9720
2.234199 0.9700 0.9700 0.9700 0.9690 0.9670
2.268000 0.9630 0.9550 0.9530 0.9500 0.9500
2.302199 0.9480 0.9430 0.9390 0.9340 0.9330
2.337000 0.9330 0.9310 0.9290 0.9290 0.9290
2.371199 0.9290 0.9290 0.9270 0.9260 0.9260
2.405000 0.9260 0.9260 0.9220 0.9210 0.9190
2.439199 0.9150 0.9140 0.9150 0.9150 0.9170
2.474000 0.9190 0.9190 0.9190 0.9190 0.9170
2.508199 0.9150 0.9140 0.9140 0.9120 0.9120
2.542000 0.9120 0.9100 0.9030 0.9030 0.9020
2.576199 0.9020 0.9000 0.9000 0.8970 0.8950
2.610000 0.8930 0.8950 0.8970 0.8970 0.8900
2.644199 0.8830 0.8780 0.8710 0.8670 0.8670
2.679000 0.8670 0.8640 0.8640 0.8640 0.8610
2.713199 0.8550 0.8500 0.8420 0.8380 0.8330
2.747000 0.8210 0.8190 0.8110 0.7990 0.7770
2.781199 0.7750 0.7470 0.7160 0.7100 0.7030
2.815000 0.6720 0.6580 0.6380 0.5960 0.5830
2.849199 0.5670 0.5400 0.5180 0.4990 0.4870
2.884000 0.4490 0.4370 0.4250 0.4110 0.3670
2.918199 0.3490 0.3370 0.3050 0.2860 0.2790
2.952000 0.2720 0.2710 0.2710 0.2710 0.2710
2.986199 0.2710 0.2720 0.2690 0.2690 0.2600
3.021000 0.2550 0.2500 0.2430 0.2430 0.2430
3.055199 0.2430 0.2450 0.2500 0.2520 0.2590
3.089000 0.2600 0.2640 0.2690 0.2740 0.2740
3.123199 0.2760 0.2740 0.2740 0.2720 0.2710
3.157000 0.2690 0.2690 0.2690 0.2690 0.2690
3.191199 0.2690 0.2690 0.2690 0.2690 0.2650
3.226000 0.2650 0.2640 0.2620 0.2620 0.2600
3.260199 0.2590 0.2570 0.2550 0.2520 0.2480
3.294000 0.2430 0.2330 0.2220 0.2120 0.1830
3.328199 0.1620 0.1420 0.0990 0.0630 0.0490
3.362000 0.0410 0.0370 0.0340 0.0270 0.0240
3.396199 0.0250 0.0290 0.0340 0.0480 0.0530
3.431000 0.0630 0.0720 0.0750 0.0750 0.0700
3.465199 0.0660 0.0610 0.0610 0.0780 0.0960
3.499000 0.1300 0.1920 0.2170 0.2380 0.2640
3.533199 0.2720 0.2930 0.3010 0.3170 0.3200
3.567000 0.3270 0.3340 0.3370 0.3480 0.3510
3.601199 0.3580 0.3650 0.3720 0.3800 0.3840
3.636000 0.3890 0.3990 0.4010 0.4080 0.4180
3.670199 0.4230 0.4420 0.4470 0.4520 0.4590
3.704000 0.4640 0.4710 0.4780 0.4850 0.4920
3.738199 0.4970 0.5000 0.5110 0.5180 0.5210
3.773000 0.5280 0.5310 0.5420 0.5480 0.5520
3.807199 0.5590 0.5660 0.5780 0.5830 0.5900
3.841000 0.5980 0.6000 0.6100 0.6150 0.6240
3.875199 0.6290 0.6340 0.6340 0.6360 0.6410
3.909000 0.6440 0.6500 0.6510 0.6530 0.6550
3.943199 0.6630 0.6670 0.6680 0.6700 0.6720
3.978000 0.6720 0.6740 0.6740 0.6740 0.6740
4.012199 0.6740 0.6740 0.6750 0.6750 0.6750
4.046000 0.6740 0.6740 0.6720 0.6720 0.6700
4.080199 0.6650 0.6620 0.6580 0.6560 0.6550
4.114000 0.6530 0.6530 0.6510 0.6510 0.6500
4.148199 0.6460 0.6440 0.6440 0.6440 0.6430
4.183000 0.6430 0.6390 0.6320 0.6290 0.6260
4.217199 0.6260 0.6240 0.6220 0.6220 0.6200
4.251000 0.6200 0.6200 0.6200 0.6190 0.6190
4.285199 0.6200 0.6200 0.6200 0.6240 0.6260
4.319000 0.6270 0.6290 0.6310 0.6310 0.6320
4.353199 0.6320 0.6320 0.6380 0.6380 0.6410
4.388000 0.6440 0.6480 0.6510 0.6510 0.6530
4.422199 0.6530 0.6530 0.6530 0.6550 0.6560
4.456000 0.6580 0.6600 0.6700 0.6740 0.6790
4.490199 0.6820 0.6820 0.6870 0.6920 0.6980
4.525000 0.6990 0.7030 0.7110 0.7110 0.7130
4.559199 0.7200 0.7220 0.7250 0.7300 0.7300
4.593000 0.7370 0.7440 0.7470 0.7530 0.7530
4.627199 0.7540 0.7560 0.7590 0.7630 0.7660
4.661000 0.7730 0.7800 0.7830 0.7870 0.7900
4.695199 0.7920 0.7940 0.7950 0.7990 0.8020
4.730000 0.8040 0.8060 0.8070 0.8070 0.8090
4.764199 0.8090 0.8110 0.8130 0.8160 0.8190
4.798000 0.8230 0.8230 0.8250 0.8260 0.8280
4.832199 0.8280 0.8300 0.8330 0.8350 0.8400
4.866000 0.8400 0.8420 0.8420 0.8420 0.8420
4.900199 0.8430 0.8450 0.8470 0.8470 0.8490
4.935000 0.8490 0.8500 0.8490 0.8500 0.8500
4.969199 0.8520 0.8520 0.8540 0.8550 0.8590
5.003000 0.8610 0.8610 0.8610 0.8610 0.8610
5.037199 0.8610 0.8620 0.8620 0.8610 0.8610
5.071000 0.8610 0.8590 0.8590 0.8610 0.8620
5.105199 0.8620 0.8620 0.8610 0.8610 0.8620
5.140000 0.8640 0.8640 0.8620 0.8610 0.8610
5.174199 0.8610 0.8610 0.8620 0.8640 0.8620
5.208000 0.8620 0.8620 0.8620 0.8620 0.8620
5.242199 0.8620 0.8620 0.8620 0.8640 0.8640
5.277000 0.8660 0.8660 0.8660 0.8670 0.8660
5.311199 0.8660 0.8640 0.8620 0.8610 0.8610
5.345000 0.8590 0.8550 0.8620 0.8620 0.8610
5.379199 0.8610 0.8590 0.8550 0.8540 0.8500
5.413000 0.8450 0.8450 0.8500 0.8520 0.8520
5.447199 0.8520 0.8500 0.8490 0.8470 0.8450
5.482000 0.8430 0.8420 0.8430 0.8520 0.8540
5.516199 0.8540 0.8520 0.8520 0.8540 0.8570
5.550000 0.8550 0.8540 0.8540 0.8500 0.8450
5.584199 0.8430 0.8400 0.8380 0.8370 0.8330
5.618000 0.8310 0.8310 0.8330 0.8330 0.8330
5.652199 0.8330 0.8330 0.8310 0.8310 0.8230
5.687000 0.8190 0.8190 0.8180 0.8180 0.8160
5.721199 0.8140 0.8140 0.8130 0.8020 0.8020
5.755000 0.8020 0.8010 0.8010 0.7970 0.7940
5.789199 0.7920 0.7890 0.7890 0.7870 0.7890
5.823000 0.7850 0.7850 0.7820 0.7770 0.7730
5.857199 0.7730 0.7710 0.7710 0.7700 0.7700
5.892000 0.7680 0.7700 0.7700 0.7710 0.7750
5.926199 0.7820 0.7850 0.7870 0.7890 0.7890
5.960000 0.7900 0.7900 0.7920 0.7940 0.7970
5.994199 0.7990 0.8010 0.8020 0.8020 0.8020
6.029000 0.8020 0.8020 0.8010 0.8010 0.8010
6.063199 0.7990 0.8010 0.8020 0.8040 0.8060
6.097000 0.8060 0.8110 0.8130 0.8180 0.8230
6.131199 0.8230 0.8230 0.8190 0.8190 0.8230
6.165000 0.8250 0.8250 0.8250 0.8260 0.8260
6.199199 0.8300 0.8300 0.8310 0.8350 0.8350
6.234000 0.8370 0.8370 0.8380 0.8400 0.8380
6.268199 0.8380 0.8380 0.8370 0.8370 0.8370
6.302000 0.8350 0.8330 0.8350 0.8350 0.8350
6.336199 0.8330 0.8260 0.8250 0.8260 0.8260
6.370000 0.8280 0.8330 0.8330 0.8280 0.8260
6.404199 0.8260 0.8250 0.8250 0.8260 0.8330
6.439000 0.8370 0.8450 0.8450 0.8450 0.8490
6.473199 0.8490 0.8470 0.8430 0.8420 0.8380
6.507000 0.8330 0.8330 0.8370 0.8370 0.8370
6.541199 0.8370 0.8370 0.8350 0.8350 0.8380
6.576000 0.8420 0.8420 0.8420 0.8400 0.8400
6.610199 0.8400 0.8370 0.8370 0.8350 0.8350
6.644000 0.8350 0.8330 0.8310 0.8300 0.8260
6.678199 0.8250 0.8250 0.8230 0.8230 0.8210
6.712000 0.8140 0.8130 0.8070 0.8010 0.7830
6.746199 0.7820 0.7630 0.7490 0.7200 0.6870
6.781000 0.6530 0.5910 0.5790 0.5660 0.5520
6.815199 0.5070 0.4880 0.4630 0.4560 0.4510
6.849000 0.4510 0.4560 0.4590 0.4630 0.4830
6.883199 0.4930 0.5040 0.5260 0.5420 0.5660
6.917000 0.6000 0.6200 0.6270 0.6410 0.6600
6.951199 0.6790 0.7010 0.7130 0.7510 0.7710
6.986000 0.7830 0.7900 0.8010 0.8130 0.8190
7.020199 0.8250 0.8250 0.8280 0.8280 0.8300
7.054000 0.8330 0.8370 0.8400 0.8430 0.8470
7.088199 0.8520 0.8540 0.8540 0.8540 0.8640
7.122000 0.8640 0.8620 0.8620 0.8620 0.8620
7.156199 0.8610 0.8570 0.8520 0.8370 0.8210
7.191000 0.7900 0.7700 0.7420 0.7200 0.7030
7.225199 0.6860 0.6650 0.6460 0.6440 0.6430
7.259000 0.6440 0.6700 0.7010 0.7110 0.7340
7.293199 0.7400 0.7490 0.7580 0.7650 0.7800
7.328000 0.8020 0.8130 0.8230 0.8230 0.8250
7.362199 0.8300 0.8350 0.8420 0.8450 0.8490
7.396000 0.8520 0.8540 0.8550 0.8590 0.8610
7.430199 0.8610 0.8610 0.8610 0.8620 0.8710
7.464000 0.8740 0.8740 0.8790 0.8830 0.8860
7.498199 0.8860 0.8880 0.8900 0.8910 0.8950
7.533000 0.8950 0.9000 0.9000 0.9000 0.9000
7.567199 0.9000 0.8980 0.8980 0.8970 0.8980
7.601000 0.9000 0.9020 0.9000 0.9000 0.8980
7.635199 0.8980 0.8970 0.8950 0.8930 0.8930
7.669000 0.8950 0.8950 0.8950 0.8970 0.8970
7.703199 0.8970 0.9020 0.9030 0.9030 0.9030
7.738000 0.9030 0.9030 0.9030 0.9030 0.9020
7.772199 0.9020 0.9030 0.9030 0.9050 0.9050
7.806000 0.9030 0.9030 0.9030 0.9050 0.9030
7.840199 0.9030 0.9030 0.9020 0.9000 0.8970
7.874000 0.8950 0.8950 0.8970 0.9000 0.9000
7.908199 0.9020 0.9020 0.9030 0.9050 0.9050
7.943000 0.9050 0.9030 0.9030 0.9030 0.9020
7.977199 0.9020 0.9020 0.9020 0.9020 0.9020
8.011000 0.9030 0.9020 0.9000 0.9000 0.9000
8.045199 0.9000 0.9000 0.9000 0.8980 0.8980
8.080000 0.8970 0.8970 0.8950 0.8930 0.8930
8.114199 0.8930 0.8930 0.8910 0.8910 0.8910
8.148000 0.8900 0.8860 0.8850 0.8850 0.8830
8.182199 0.8790 0.8760 0.8740 0.8710 0.8690
8.216000 0.8670 0.8660 0.8620 0.8610 0.8610
8.250199 0.8590 0.8550 0.8540 0.8540 0.8520
8.285000 0.8520 0.8500 0.8450 0.8420 0.8400
8.319199 0.8400 0.8330 0.8310 0.8280 0.8230
8.353000 0.8140 0.8040 0.8010 0.7950 0.7900
8.387199 0.7850 0.7780 0.7700 0.7650 0.7530
8.421000 0.7490 0.7400 0.7280 0.7220 0.7130
8.455199 0.7010 0.6840 0.6740 0.6560 0.6430
8.490000 0.6340 0.6310 0.6240 0.6140 0.6100
8.524199 0.5950 0.5860 0.5840 0.5830 0.5810
8.558000 0.5780 0.5780 0.5780 0.5780 0.5790
8.592199 0.5830 0.5840 0.5880 0.5910 0.5930
8.626000 0.5950 0.6000 0.6020 0.6120 0.6200
8.660199 0.6290 0.6360 0.6440 0.6460 0.6530
8.695000 0.6550 0.6560 0.6650 0.6670 0.6700
8.729199 0.6720 0.6720 0.6740 0.6720 0.6720
8.763000 0.6720 0.6720 0.6700 0.6680 0.6650
8.797199 0.6620 0.6620 0.6580 0.6580 0.6550
8.832000 0.6480 0.6430 0.6390 0.6360 0.6340
8.866199 0.6320 0.6310 0.6310 0.6310 0.6310
8.900000 0.6310 0.6290 0.6290 0.6290 0.6290
8.934199 0.6290 0.6310 0.6310 0.6320 0.6320
8.968000 0.6340 0.6340 0.6360 0.6440 0.6440
9.002199 0.6500 0.6550 0.6560 0.6620 0.6650
9.037000 0.6740 0.6770 0.6770 0.6790 0.6820
9.071199 0.6840 0.6890 0.6910 0.6920 0.6940
9.105000 0.6980 0.6990 0.6990 0.7010 0.7010
9.139199 0.7010 0.7030 0.7030 0.7030 0.7030
9.173000 0.7030 0.7030 0.7030 0.7030 0.7030
9.207199 0.7030 0.7030 0.7030 0.7030 0.7010
9.242000 0.7010 0.7010 0.7010 0.7010 0.7010
9.276199 0.7010 0.6990 0.6960 0.6960 0.6910
9.310000 0.6870 0.6790 0.6750 0.6750 0.6750
9.344199 0.6770 0.6770 0.6770 0.6790 0.6750
9.378000 0.6750 0.6740 0.6670 0.6600 0.6560
9.412199 0.6510 0.6480 0.6430 0.6360 0.6360
9.447000 0.6320 0.6310 0.6260 0.6240 0.6240
9.481199 0.6220 0.6200 0.6190 0.6170 0.6150
9.515000 0.6140 0.6120 0.6100 0.6020 0.6000
9.549199 0.5930 0.5840 0.5790 0.5790 0.5760
9.584000 0.5710 0.5640 0.5500 0.5400 0.5360
9.618199 0.5330 0.5300 0.5230 0.5140 0.5110
9.652000 0.5020 0.4990 0.4830 0.4730 0.4640
9.686199 0.4540 0.4510 0.4490 0.4420 0.4330
9.720000 0.4300 0.4250 0.4210 0.4130 0.4030
9.754199 0.3990 0.3920 0.3800 0.3730 0.3730
9.789000 0.3720 0.3680 0.3650 0.3610 0.3550
9.823199 0.3510 0.3490 0.3440 0.3430 0.3390
9.857000 0.3340 0.3310 0.3290 0.3250 0.3240
9.891199 0.3220 0.3220 0.3150 0.3130 0.3120
9.925000 0.3030 0.3030 0.3010 0.3000 0.3000
9.959199 0.2980 0.2960 0.2930 0.2890 0.2860
9.994000 0.2860 0.2840 0.2830 0.2810 0.2790
10.028199 0.2790 0.2740 0.2740 0.2720 0.2710
10.062000 0.2720 0.2710 0.2710 0.2710 0.2690
10.096199 0.2690 0.2670 0.2670 0.2670 0.2650
10.131000 0.2650 0.2650 0.2650 0.2650 0.2640
10.165199 0.2640 0.2640 0.2640 0.2640 0.2650
10.199000 0.2640 0.2640 0.2620 0.2620 0.2620
10.233199 0.2620 0.2620 0.2620 0.2620 0.2640
10.267000 0.2640 0.2650 0.2650 0.2670 0.2670
10.301199 0.2690 0.2720 0.2790 0.2810 0.2830
10.336000 0.2830 0.2840 0.2890 0.2930 0.2960
10.370199 0.3010 0.3050 0.3070 0.3100 0.3170
10.404000 0.3240 0.3290 0.3310 0.3340 0.3360
10.438199 0.3390 0.3460 0.3490 0.3510 0.3530
10.472000 0.3550 0.3630 0.3650 0.3700 0.3730
10.506199 0.3730 0.3850 0.3940 0.3990 0.3990
10.541000 0.4010 0.4010 0.4030 0.4090 0.4090
10.575199 0.4130 0.4150 0.4180 0.4210 0.4320
10.609000 0.4330 0.4350 0.4370 0.4400 0.4420
10.643199 0.4470 0.4510 0.4520 0.4540 0.4560
10.677000 0.4570 0.4590 0.4610 0.4630 0.4640
10.711199 0.4660 0.4680 0.4680 0.4710 0.4730
10.746000 0.4750 0.4750 0.4760 0.4760 0.4780
10.780199 0.4780 0.4810 0.4830 0.4830 0.4850
10.814000 0.4850 0.4870 0.4870 0.4900 0.4920
10.848199 0.4920 0.4920 0.4930 0.4930 0.4950
10.883000 0.4950 0.4990 0.5000 0.5020 0.5020
10.917199 0.5040 0.5040 0.5060 0.5060 0.5070
10.951000 0.5090 0.5110 0.5120 0.5120 0.5140
10.985199 0.5160 0.5180 0.5190 0.5210 0.5210
11.019000 0.5230 0.5230 0.5240 0.5260 0.5280
11.053199 0.5300 0.5310 0.5330 0.5350 0.5360
11.088000 0.5400 0.5420 0.5430 0.5430 0.5430
11.122199 0.5430 0.5430 0.5450 0.5430 0.5430
11.156000 0.5430 0.5430 0.5430 0.5430 0.5430
11.190199 0.5430 0.5430 0.5450 0.5430 0.5430
11.224000 0.5430 0.5430 0.5420 0.5420 0.5420
11.258199 0.5400 0.5400 0.5380 0.5380 0.5380
11.293000 0.5380 0.5360 0.5360 0.5360 0.5350
11.327199 0.5350 0.5330 0.5310 0.5300 0.5300
11.361000 0.5300 0.5280 0.5260 0.5280 0.5260
11.395199 0.5260 0.5260 0.5260 0.5240 0.5230
11.429000 0.5210 0.5210 0.5180 0.5160 0.5140
11.463199 0.5140 0.5140 0.5140 0.5120 0.5110
11.498000 0.5110 0.5110 0.5090 0.5070 0.5070
11.532199 0.5060 0.5040 0.5020 0.5020 0.5000
11.566000 0.5000 0.4990 0.4970 0.4970 0.4950
11.600199 0.4950 0.4930 0.4920 0.4900 0.4880
11.635000 0.4870 0.4870 0.4850 0.4800 0.4750
11.669199 0.4710 0.4690 0.4660 0.4640 0.4630
11.703000 0.4610 0.4560 0.4560 0.4540 0.4520
11.737199 0.4490 0.4450 0.4420 0.4330 0.4280
11.771000 0.4230 0.4230 0.4200 0.4160 0.4130
11.805199 0.4110 0.4090 0.4080 0.4030 0.3990
11.840000 0.3960 0.3920 0.3910 0.3850 0.3840
11.874199 0.3820 0.3820 0.3770 0.3750 0.3720
11.908000 0.3650 0.3630 0.3580 0.3580 0.3550
11.942199 0.3530 0.3460 0.3440 0.3430 0.3410
11.976000 0.3390 0.3390 0.3370 0.3360 0.3360
12.010199 0.3360 0.3360 0.3360 0.3360 0.3360
12.045000 0.3360 0.3360 0.3370 0.3370 0.3430
12.079199 0.3440 0.3480 0.3510 0.3550 0.3650
12.113000 0.3680 0.3730 0.3750 0.3800 0.3850
12.147199 0.3910 0.3990 0.4030 0.4110 0.4130
12.181000 0.4250 0.4420 0.4490 0.4570 0.4640
12.215199 0.4730 0.4800 0.4800 0.4920 0.4990
12.250000 0.5020 0.5140 0.5190 0.5240 0.5310
12.284199 0.5400 0.5430 0.5480 0.5520 0.5540
12.318000 0.5620 0.5660 0.5670 0.5710 0.5830
12.352199 0.5880 0.5930 0.6000 0.6020 0.6070
12.387000 0.6100 0.6150 0.6240 0.6260 0.6270
12.421199 0.6290 0.6290 0.6290 0.6310 0.6320
12.455000 0.6340 0.6380 0.6390 0.6410 0.6430
12.489199 0.6430 0.6440 0.6440 0.6460 0.6460
12.523000 0.6510 0.6510 0.6530 0.6550 0.6550
12.557199 0.6530 0.6530 0.6500 0.6460 0.6430
12.592000 0.6360 0.6320 0.6290 0.6290 0.6260
12.626199 0.6240 0.6200 0.6150 0.6100 0.6030
12.660000 0.6030 0.6020 0.6000 0.5950 0.5910
12.694199 0.5790 0.5740 0.5720 0.5710 0.5570
12.728000 0.5520 0.5350 0.5230 0.5140 0.5020
12.762199 0.5000 0.4880 0.4800 0.4710 0.4640
12.797000 0.4590 0.4520 0.4490 0.4400 0.4350
12.831199 0.4330 0.4320 0.4280 0.4270 0.4250
12.865000 0.4250 0.4230 0.4230 0.4210 0.4230
12.899199 0.4230 0.4230 0.4230 0.4330 0.4420
12.933000 0.4510 0.4540 0.4640 0.4710 0.4800
12.967199 0.4830 0.4880 0.5000 0.5040 0.5110
13.002000 0.5180 0.5240 0.5300 0.5330 0.5380
13.036199 0.5430 0.5540 0.5550 0.5640 0.5710
13.070000 0.5740 0.5760 0.5790 0.5790 0.5810
13.104199 0.5810 0.5810 0.5810 0.5830 0.5830
13.139000 0.5830 0.5840 0.5840 0.5840 0.5840
13.173199 0.5860 0.5860 0.5880 0.5880 0.5860
13.207000 0.5840 0.5840 0.5830 0.5810 0.5810
13.241199 0.5810 0.5810 0.5780 0.5780 0.5780
13.275000 0.5780 0.5780 0.5760 0.5780 0.5760
13.309199 0.5760 0.5760 0.5740 0.5720 0.5720
13.344000 0.5710 0.5690 0.5660 0.5660 0.5640
13.378199 0.5640 0.5640 0.5600 0.5570 0.5550
13.412000 0.5520 0.5500 0.5450 0.5450 0.5430
13.446199 0.5430 0.5420 0.5350 0.5330 0.5300
13.480000 0.5300 0.5280 0.5240 0.5210 0.5190
13.514199 0.5180 0.5140 0.5120 0.5060 0.5040
13.549000 0.5020 0.5020 0.4990 0.4990 0.4950
13.583199 0.4920 0.4870 0.4830 0.4810 0.4800
13.617000 0.4780 0.4750 0.4730 0.4730 0.4730
13.651199 0.4710 0.4690 0.4640 0.4630 0.4590
13.686000 0.4540 0.4540 0.4520 0.4510 0.4490
13.720199 0.4470 0.4450 0.4440 0.4420 0.4400
13.754000 0.4350 0.4320 0.4300 0.4280 0.4280
13.788199 0.4270 0.4250 0.4210 0.4210 0.4210
13.822000 0.4200 0.4180 0.4160 0.4160 0.4160
13.856199 0.4150 0.4150 0.4130 0.4130 0.4110
13.891000 0.4090 0.4080 0.4080 0.4060 0.4060
13.925199 0.4060 0.4060 0.4040 0.4040 0.4030
13.959000 0.4030 0.4010 0.4030 0.4030 0.4030
13.993199 0.4030 0.4030 0.4010 0.4010 0.4010
14.027000 0.4010 0.4010 0.4030 0.4030 0.4030
14.061199 0.4040 0.4060 0.4040 0.4060 0.4060
14.096000 0.4080 0.4090 0.4110 0.4110 0.4130
14.130199 0.4150 0.4160 0.4180 0.4200 0.4210
14.164000 0.4230 0.4250 0.4350 0.4350 0.4390
14.198199 0.4400 0.4440 0.4450 0.4470 0.4510
14.232000 0.4540 0.4570 0.4590 0.4610 0.4630
14.266199 0.4660 0.4690 0.4710 0.4710 0.4750
14.301000 0.4750 0.4730 0.4730 0.4750 0.4760
14.335199 0.4760 0.4800 0.4800 0.4830 0.4850
14.369000 0.4850 0.4880 0.4900 0.4900 0.4920
14.403199 0.4920 0.4930 0.4950 0.4970 0.4970
14.438000 0.4990 0.5020 0.5040 0.5040 0.5110
14.472199 0.5140 0.5190 0.5210 0.5230 0.5240
14.506000 0.5240 0.5240 0.5240 0.5260 0.5280
14.540199 0.5300 0.5310 0.5350 0.5380 0.5380
14.574000 0.5380 0.5380 0.5400 0.5420 0.5430
14.608199 0.5480 0.5520 0.5520 0.5540 0.5540
14.643000 0.5540 0.5550 0.5570 0.5590 0.5620
14.677199 0.5640 0.5640 0.5640 0.5660 0.5670
14.711000 0.5670 0.5670 0.5690 0.5690 0.5690
14.745199 0.5690 0.5710 0.5740 0.5740 0.5760
14.779000 0.5760 0.5790 0.5790 0.5810 0.5840
14.813199 0.5860 0.5880 0.5910 0.5910 0.5930
14.848000 0.5930 0.5930 0.5930 0.5930 0.5930
14.882199 0.5930 0.5930 0.5930 0.5950 0.5960
14.916000 0.5960 0.5980 0.5980 0.5980 0.6000
14.950199 0.6000 0.6000 0.6000 0.6000 0.6000
14.984000 0.6020 0.6020 0.6030 0.6030 0.6020
15.018199 0.6030 0.6030 0.6030 0.6050 0.6050
15.053000 0.6050 0.6070 0.6050 0.6070 0.6080
15.087199 0.6080 0.6080 0.6100 0.6100 0.6120
15.121000 0.6120 0.6140 0.6150 0.6170 0.6190
15.155199 0.6190 0.6190 0.6190 0.6190 0.6190
15.190000 0.6190 0.6200 0.6220 0.6240 0.6260
15.224199 0.6260 0.6270 0.6290 0.6290 0.6290
15.258000 0.6290 0.6290 0.6290 0.6290 0.6270
15.292199 0.6260 0.6270 0.6270 0.6290 0.6290
15.326000 0.6310 0.6310 0.6310 0.6320 0.6310
15.360199 0.6310 0.6310 0.6310 0.6310 0.6310
15.395000 0.6310 0.6310 0.6310 0.6310 0.6310
15.429199 0.6310 0.6310 0.6310 0.6310 0.6310
15.463000 0.6320 0.6310 0.6310 0.6340 0.6340
15.497199 0.6340 0.6340 0.6360 0.6340 0.6340
15.531000 0.6320 0.6320 0.6310 0.6310 0.6310
15.565199 0.6320 0.6340 0.6340 0.6360 0.6380
15.600000 0.6390 0.6390 0.6390 0.6410 0.6430
15.634199 0.6430 0.6430 0.6430 0.6430 0.6430
15.668000 0.6410 0.6410 0.6410 0.6410 0.6410
15.702199 0.6390 0.6410 0.6410 0.6410 0.6430
15.736000 0.6430 0.6430 0.6430 0.6430 0.6430
15.770199 0.6430 0.6430 0.6430 0.6440 0.6460
15.805000 0.6460 0.6460 0.6460 0.6480 0.6480
15.839199 0.6480 0.6480 0.6480 0.6500 0.6500
15.873000 0.6500 0.6510 0.6530 0.6530 0.6550
15.907199 0.6530 0.6550 0.6550 0.6550 0.6580
15.942000 0.6580 0.6580 0.6580 0.6550 0.6550
15.976199 0.6580 0.6580 0.6580 0.6550
##END=
