##TITLE=N-(3-Aminopropyl)-1,4-butanediamine, trihydrochloride
##JCAMP-DX=4.24
##DATA TYPE=INFRARED SPECTRUM
##CLASS=COBLENTZ III
##ORIGIN=DOW CHEMICAL COMPANY
##OWNER=COBLENTZ SOC.
Collection (C) 2018 copyright by the U.S. Secretary of Commerce
on behalf of the United States of America. All rights reserved.
##DATE=1966/02/03
##MOLFORM=C7 H22 Cl3 N3
##SOURCE REFERENCE=COBLENTZ NO. 08555
##$NIST ID=B6008555
##$NIST SOURCE=COBLENTZ
##$NIST IMAGE=cob8555
##SPECTROMETER/DATA SYSTEM=DOW KBr FOREPRISM-GRATING
##INSTRUMENT PARAMETERS=BLAZED AT 3.5, 12.0, 20.0 MICRON AND CHANGED AT 5.0, 7.5, 14.9 MICRON
##STATE=SOLID (SPLIT MULL), FLUOROLUBE FOR 3800-1330 CM^-^1, NUJOL FOR 1330-400 CM^-^1
$$ SPECTRUM CONFIRMED WITH COMPOUND FROM SAME COMPANY
$$ SPECTRAL FEATURE AT 1330 CM^-^1 IS AN ARTIFACT CAUSED BY A CHANGE IN SOLVENT
##SAMPLING PROCEDURE=TRANSMISSION
##RESOLUTION=2
##DATA PROCESSING=DIGITIZED BY COBLENTZ SOCIETY (BATCH I) FROM HARD COPY
##XUNITS=1/CM
##YUNITS=TRANSMITTANCE
##XLABEL=Wavenumbers (cm-1)
##YLABEL=% Transmission
##XFACTOR=1
##YFACTOR=1
##DELTAX=1
##FIRSTX=384
##LASTX=3810
##FIRSTY=0.8155
##MAXX=3810
##MINX=384
##MAXY=0.9136
##MINY=0.0524
##NPOINTS=3427
##XYDATA=(X++(Y..Y))
384.000000 0.8155 0.8151 0.8150 0.8149 0.8156
389.000000 0.8145 0.8146 0.8146 0.8146 0.8141
394.000000 0.8134 0.8128 0.8121 0.8115 0.8107
399.000000 0.8099 0.8092 0.8084 0.8071 0.8058
404.000000 0.8046 0.8033 0.8012 0.7992 0.7971
409.000000 0.7939 0.7907 0.7874 0.7842 0.7788
414.000000 0.7719 0.7651 0.7584 0.7424 0.7261
419.000000 0.7098 0.6986 0.6850 0.6846 0.6868
424.000000 0.6848 0.7097 0.7558 0.8018 0.8248
429.000000 0.8302 0.8339 0.8359 0.8371 0.8384
434.000000 0.8385 0.8385 0.8373 0.8381 0.8378
439.000000 0.8374 0.8370 0.8366 0.8362 0.8359
444.000000 0.8355 0.8352 0.8348 0.8341 0.8333
449.000000 0.8325 0.8318 0.8311 0.8306 0.8302
454.000000 0.8298 0.8295 0.8291 0.8287 0.8285
459.000000 0.8284 0.8283 0.8278 0.8275 0.8273
464.000000 0.8268 0.8266 0.8263 0.8263 0.8263
469.000000 0.8264 0.8267 0.8270 0.8274 0.8278
474.000000 0.8282 0.8286 0.8291 0.8295 0.8299
479.000000 0.8303 0.8307 0.8310 0.8314 0.8317
484.000000 0.8321 0.8324 0.8324 0.8324 0.8321
489.000000 0.8320 0.8318 0.8316 0.8308 0.8300
494.000000 0.8293 0.8285 0.8260 0.8224 0.8151
499.000000 0.8054 0.7944 0.7895 0.7901 0.7994
504.000000 0.8105 0.8216 0.8268 0.8296 0.8312
509.000000 0.8318 0.8318 0.8318 0.8317 0.8312
514.000000 0.8306 0.8292 0.8268 0.8238 0.8204
519.000000 0.8175 0.8144 0.8162 0.8199 0.8245
524.000000 0.8306 0.8348 0.8381 0.8401 0.8406
529.000000 0.8411 0.8416 0.8421 0.8427 0.8431
534.000000 0.8435 0.8439 0.8443 0.8448 0.8451
539.000000 0.8452 0.8453 0.8454 0.8455 0.8456
544.000000 0.8458 0.8459 0.8460 0.8461 0.8462
549.000000 0.8463 0.8465 0.8466 0.8467 0.8468
554.000000 0.8470 0.8471 0.8473 0.8474 0.8475
559.000000 0.8475 0.8478 0.8478 0.8480 0.8482
564.000000 0.8483 0.8484 0.8484 0.8485 0.8485
569.000000 0.8486 0.8487 0.8487 0.8488 0.8488
574.000000 0.8489 0.8490 0.8490 0.8491 0.8491
579.000000 0.8492 0.8493 0.8495 0.8496 0.8497
584.000000 0.8498 0.8499 0.8500 0.8501 0.8503
589.000000 0.8504 0.8506 0.8508 0.8510 0.8512
594.000000 0.8514 0.8516 0.8517 0.8518 0.8521
599.000000 0.8523 0.8525 0.8527 0.8528 0.8531
604.000000 0.8533 0.8535 0.8539 0.8542 0.8546
609.000000 0.8550 0.8553 0.8557 0.8560 0.8564
614.000000 0.8567 0.8571 0.8574 0.8578 0.8581
619.000000 0.8585 0.8588 0.8592 0.8597 0.8601
624.000000 0.8606 0.8610 0.8615 0.8618 0.8624
629.000000 0.8628 0.8634 0.8639 0.8644 0.8649
634.000000 0.8655 0.8663 0.8671 0.8680 0.8688
639.000000 0.8697 0.8703 0.8707 0.8711 0.8715
644.000000 0.8715 0.8715 0.8713 0.8711 0.8707
649.000000 0.8701 0.8696 0.8690 0.8685 0.8680
654.000000 0.8675 0.8670 0.8665 0.8660 0.8658
659.000000 0.8657 0.8656 0.8655 0.8654 0.8644
664.000000 0.8617 0.8589 0.8562 0.8535 0.8508
669.000000 0.8481 0.8482 0.8483 0.8451 0.8453
674.000000 0.8454 0.8454 0.8455 0.8456 0.8457
679.000000 0.8458 0.8458 0.8457 0.8456 0.8456
684.000000 0.8455 0.8453 0.8450 0.8447 0.8444
689.000000 0.8441 0.8434 0.8428 0.8421 0.8415
694.000000 0.8408 0.8400 0.8390 0.8380 0.8370
699.000000 0.8359 0.8349 0.8330 0.8310 0.8291
704.000000 0.8271 0.8248 0.8225 0.8202 0.8174
709.000000 0.8145 0.8115 0.8087 0.8040 0.7992
714.000000 0.7944 0.7869 0.7761 0.7585 0.7408
719.000000 0.7232 0.7075 0.7017 0.7015 0.7056
724.000000 0.7039 0.7110 0.7181 0.7253 0.7324
729.000000 0.7395 0.7465 0.7499 0.7519 0.7539
734.000000 0.7555 0.7568 0.7578 0.7587 0.7597
739.000000 0.7611 0.7625 0.7640 0.7657 0.7674
744.000000 0.7691 0.7704 0.7708 0.7708 0.7708
749.000000 0.7698 0.7680 0.7653 0.7618 0.7576
754.000000 0.7504 0.7357 0.7191 0.7025 0.6994
759.000000 0.6995 0.7149 0.7301 0.7365 0.7392
764.000000 0.7414 0.7449 0.7487 0.7524 0.7515
769.000000 0.7501 0.7500 0.7481 0.7453 0.7353
774.000000 0.7184 0.7015 0.6847 0.6678 0.6647
779.000000 0.6641 0.6998 0.7128 0.7187 0.7221
784.000000 0.7248 0.7268 0.7292 0.7318 0.7346
789.000000 0.7711 0.7728 0.7735 0.7742 0.7748
794.000000 0.7753 0.7758 0.7767 0.7775 0.7783
799.000000 0.7793 0.7803 0.7815 0.7832 0.7847
804.000000 0.7854 0.7858 0.7865 0.7864 0.7862
809.000000 0.7861 0.7861 0.7860 0.7865 0.7857
814.000000 0.7855 0.7853 0.7850 0.7848 0.7846
819.000000 0.7844 0.7837 0.7828 0.7821 0.7814
824.000000 0.7807 0.7800 0.7789 0.7778 0.7765
829.000000 0.7754 0.7742 0.7730 0.7718 0.7703
834.000000 0.7688 0.7672 0.7658 0.7643 0.7628
839.000000 0.7587 0.7545 0.7507 0.7471 0.7458
844.000000 0.7458 0.7461 0.7475 0.7495 0.7544
849.000000 0.7631 0.7676 0.7699 0.7703 0.7704
854.000000 0.7704 0.7699 0.7693 0.7687 0.7680
859.000000 0.7671 0.7662 0.7649 0.7635 0.7618
864.000000 0.7601 0.7585 0.7564 0.7541 0.7518
869.000000 0.7486 0.7453 0.7408 0.7360 0.7304
874.000000 0.7242 0.7175 0.7105 0.7024 0.6928
879.000000 0.6805 0.6047 0.5684 0.5321 0.4959
884.000000 0.4596 0.4233 0.4176 0.4172 0.5203
889.000000 0.6546 0.6640 0.6756 0.6924 0.7146
894.000000 0.7275 0.7334 0.7381 0.7421 0.7440
899.000000 0.7460 0.7472 0.7476 0.7480 0.7483
904.000000 0.7484 0.7485 0.7486 0.7506 0.7480
909.000000 0.7468 0.7456 0.7444 0.7432 0.7428
914.000000 0.7424 0.7421 0.7415 0.7410 0.7404
919.000000 0.7398 0.7392 0.7386 0.7380 0.7374
924.000000 0.7365 0.7356 0.7346 0.7336 0.7308
929.000000 0.7280 0.7249 0.7214 0.7178 0.7143
934.000000 0.7094 0.7045 0.6964 0.6848 0.6715
939.000000 0.6638 0.6654 0.6760 0.6892 0.7028
944.000000 0.7055 0.7054 0.7054 0.7037 0.6969
949.000000 0.6904 0.6858 0.6901 0.7055 0.7174
954.000000 0.7195 0.7201 0.7201 0.7201 0.7199
959.000000 0.7195 0.7191 0.7182 0.7181 0.7175
964.000000 0.7168 0.7158 0.7149 0.7139 0.7126
969.000000 0.7112 0.7100 0.7086 0.7068 0.7050
974.000000 0.7032 0.7014 0.6991 0.6965 0.6941
979.000000 0.6906 0.6861 0.6808 0.6738 0.6668
984.000000 0.6600 0.6504 0.6406 0.6184 0.5706
989.000000 0.5520 0.5532 0.5579 0.5627 0.5674
994.000000 0.5721 0.5753 0.5750 0.5540 0.5327
999.000000 0.5114 0.4901 0.4688 0.4476 0.4262
1004.000000 0.3944 0.3926 0.3941 0.3937 0.4671
1009.000000 0.5466 0.6260 0.6765 0.6874 0.6925
1014.000000 0.6954 0.6978 0.6989 0.6989 0.6989
1019.000000 0.6965 0.6907 0.6822 0.6726 0.6598
1024.000000 0.6414 0.6262 0.6195 0.6187 0.6198
1029.000000 0.6209 0.6252 0.6323 0.6410 0.6515
1034.000000 0.6603 0.6622 0.6643 0.6601 0.6576
1039.000000 0.6533 0.6491 0.6447 0.6403 0.6358
1044.000000 0.6295 0.6188 0.6012 0.5837 0.5662
1049.000000 0.5487 0.5310 0.5136 0.4993 0.4885
1054.000000 0.4771 0.4662 0.4639 0.4633 0.4628
1059.000000 0.5088 0.5358 0.5628 0.5897 0.6142
1064.000000 0.6203 0.6217 0.6229 0.6236 0.6247
1069.000000 0.6259 0.6290 0.6366 0.6458 0.6565
1074.000000 0.6693 0.6762 0.6799 0.6836 0.6858
1079.000000 0.6876 0.6896 0.6907 0.6912 0.6919
1084.000000 0.6921 0.6921 0.6921 0.6921 0.6921
1089.000000 0.6918 0.6917 0.6915 0.6912 0.6908
1094.000000 0.6901 0.6895 0.6887 0.6875 0.6855
1099.000000 0.6833 0.6801 0.6771 0.6735 0.6695
1104.000000 0.6655 0.6615 0.6534 0.6378 0.6254
1109.000000 0.6232 0.6269 0.6351 0.6524 0.6608
1114.000000 0.6665 0.6698 0.6715 0.6715 0.6715
1119.000000 0.6733 0.6705 0.6693 0.6678 0.6637
1124.000000 0.6583 0.6533 0.6485 0.6428 0.6365
1129.000000 0.6271 0.6169 0.6069 0.5981 0.5894
1134.000000 0.5738 0.5559 0.5517 0.5528 0.5583
1139.000000 0.5659 0.5797 0.6122 0.6222 0.6262
1144.000000 0.6276 0.6276 0.6277 0.6271 0.6303
1149.000000 0.6222 0.6179 0.6134 0.6089 0.6043
1154.000000 0.5998 0.5953 0.5909 0.5866 0.5784
1159.000000 0.5331 0.5268 0.5260 0.5340 0.5428
1164.000000 0.5712 0.5942 0.6029 0.6106 0.6189
1169.000000 0.6321 0.6436 0.6485 0.6503 0.6521
1174.000000 0.6539 0.6556 0.6571 0.6699 0.6832
1179.000000 0.6884 0.6903 0.6911 0.6918 0.6925
1184.000000 0.6930 0.6933 0.6936 0.6940 0.6943
1189.000000 0.6947 0.6949 0.6950 0.6951 0.6951
1194.000000 0.6953 0.6954 0.6955 0.6956 0.6956
1199.000000 0.6957 0.6957 0.6958 0.6958 0.6960
1204.000000 0.6960 0.6960 0.6961 0.6961 0.6961
1209.000000 0.6964 0.6965 0.6967 0.6968 0.6969
1214.000000 0.6971 0.6971 0.6971 0.6968 0.6965
1219.000000 0.6964 0.6961 0.6958 0.6955 0.6940
1224.000000 0.6924 0.6904 0.6883 0.6861 0.6821
1229.000000 0.6776 0.6721 0.6665 0.6603 0.6537
1234.000000 0.6410 0.6248 0.6137 0.6121 0.6124
1239.000000 0.6135 0.6171 0.6374 0.6524 0.6636
1244.000000 0.6707 0.6748 0.6771 0.6783 0.6788
1249.000000 0.6771 0.6761 0.6744 0.6725 0.6701
1254.000000 0.6658 0.6606 0.6546 0.6451 0.6048
1259.000000 0.5658 0.5268 0.4878 0.4488 0.4254
1264.000000 0.4279 0.4645 0.5070 0.5494 0.5919
1269.000000 0.6344 0.6530 0.6543 0.6549 0.6548
1274.000000 0.6571 0.6542 0.6538 0.6531 0.6521
1279.000000 0.6511 0.6485 0.6447 0.6387 0.6367
1284.000000 0.6347 0.6328 0.6310 0.6292 0.6274
1289.000000 0.6256 0.6203 0.6117 0.5994 0.5750
1294.000000 0.5675 0.5682 0.5760 0.5890 0.5994
1299.000000 0.6012 0.6007 0.5995 0.5989 0.5989
1304.000000 0.5993 0.5997 0.6017 0.6060 0.6133
1309.000000 0.6190 0.6246 0.6281 0.6314 0.6352
1314.000000 0.6382 0.6404 0.6421 0.6428 0.6424
1319.000000 0.6418 0.6415 0.6400 0.6385 0.6369
1324.000000 0.6348 0.6325 0.6302 0.6256 0.6208
1329.000000 0.6149 0.6115 0.6428 0.6743 0.7057
1334.000000 0.7125 0.5994 0.7018 0.6961 0.6947
1339.000000 0.6951 0.6962 0.6989 0.7012 0.7028
1344.000000 0.7044 0.7048 0.7040 0.6999 0.6874
1349.000000 0.6760 0.6658 0.6665 0.6671 0.6689
1354.000000 0.6817 0.6960 0.7191 0.7500 0.7607
1359.000000 0.7676 0.7746 0.7811 0.7899 0.7958
1364.000000 0.8004 0.8032 0.8050 0.8060 0.8071
1369.000000 0.8078 0.8083 0.8088 0.8093 0.8095
1374.000000 0.8098 0.8100 0.8111 0.8130 0.8232
1379.000000 0.8306 0.8331 0.8335 0.8328 0.8301
1384.000000 0.8220 0.8169 0.8114 0.8045 0.7989
1389.000000 0.7935 0.7882 0.7826 0.7767 0.7708
1394.000000 0.7653 0.7583 0.7247 0.6739 0.6231
1399.000000 0.5722 0.5568 0.5346 0.5198 0.5187
1404.000000 0.5180 0.5462 0.6001 0.6539 0.7078
1409.000000 0.7168 0.7146 0.7112 0.7087 0.7086
1414.000000 0.7134 0.7250 0.7362 0.7465 0.7571
1419.000000 0.7675 0.7765 0.7793 0.7819 0.7847
1424.000000 0.7862 0.7878 0.7884 0.7885 0.7885
1429.000000 0.7882 0.7892 0.7869 0.7856 0.7841
1434.000000 0.7825 0.7806 0.7782 0.7750 0.7718
1439.000000 0.7681 0.7640 0.7600 0.7555 0.7511
1444.000000 0.7465 0.7411 0.7348 0.7237 0.7061
1449.000000 0.6884 0.6708 0.6531 0.6354 0.6178
1454.000000 0.5990 0.5904 0.5843 0.5781 0.5593
1459.000000 0.5340 0.5087 0.4835 0.4582 0.4412
1464.000000 0.4412 0.4968 0.5528 0.6087 0.6647
1469.000000 0.7207 0.7251 0.7256 0.7253 0.7245
1474.000000 0.7214 0.7165 0.7114 0.7018 0.6828
1479.000000 0.6640 0.6458 0.6415 0.6375 0.6319
1484.000000 0.6222 0.6083 0.5943 0.5804 0.5810
1489.000000 0.6334 0.7130 0.7175 0.7196 0.7193
1494.000000 0.7188 0.7211 0.7081 0.6931 0.6781
1499.000000 0.6631 0.6481 0.6331 0.6181 0.6031
1504.000000 0.5881 0.5876 0.5887 0.5910 0.5946
1509.000000 0.5960 0.5967 0.5968 0.5950 0.5833
1514.000000 0.5600 0.5366 0.5132 0.4898 0.4664
1519.000000 0.4430 0.4196 0.3962 0.3729 0.3495
1524.000000 0.3260 0.3027 0.2970 0.2969 0.3428
1529.000000 0.4129 0.4830 0.5530 0.6231 0.6932
1534.000000 0.7130 0.7340 0.7540 0.7754 0.7819
1539.000000 0.7885 0.7915 0.7948 0.7972 0.7988
1544.000000 0.8003 0.8018 0.8028 0.8036 0.8042
1549.000000 0.8048 0.8055 0.8058 0.8061 0.8064
1554.000000 0.8067 0.8069 0.8072 0.8072 0.8074
1559.000000 0.8075 0.8075 0.8076 0.8072 0.8084
1564.000000 0.8061 0.8056 0.8051 0.8046 0.8038
1569.000000 0.8026 0.8015 0.8004 0.7993 0.7978
1574.000000 0.7961 0.7942 0.7924 0.7903 0.7874
1579.000000 0.7846 0.7814 0.7772 0.7733 0.7692
1584.000000 0.7642 0.7583 0.7522 0.7436 0.7315
1589.000000 0.7191 0.7072 0.6958 0.6857 0.6757
1594.000000 0.6657 0.6506 0.6338 0.6054 0.5898
1599.000000 0.5797 0.5616 0.5225 0.4806 0.4394
1604.000000 0.4380 0.4372 0.4464 0.4531 0.4536
1609.000000 0.4358 0.4277 0.4277 0.4258 0.5391
1614.000000 0.6060 0.6731 0.7401 0.7601 0.7714
1619.000000 0.7911 0.8028 0.8121 0.8175 0.8216
1624.000000 0.8252 0.8282 0.8303 0.8325 0.8340
1629.000000 0.8350 0.8359 0.8368 0.8378 0.8385
1634.000000 0.8391 0.8397 0.8403 0.8409 0.8411
1639.000000 0.8412 0.8412 0.8413 0.8413 0.8414
1644.000000 0.8415 0.8415 0.8416 0.8418 0.8420
1649.000000 0.8421 0.8423 0.8425 0.8427 0.8428
1654.000000 0.8430 0.8432 0.8434 0.8436 0.8440
1659.000000 0.8443 0.8447 0.8451 0.8455 0.8458
1664.000000 0.8462 0.8466 0.8468 0.8470 0.8470
1669.000000 0.8470 0.8470 0.8470 0.8473 0.8475
1674.000000 0.8478 0.8480 0.8483 0.8485 0.8492
1679.000000 0.8500 0.8508 0.8515 0.8523 0.8531
1684.000000 0.8538 0.8546 0.8554 0.8562 0.8570
1689.000000 0.8578 0.8587 0.8595 0.8603 0.8612
1694.000000 0.8618 0.8625 0.8630 0.8636 0.8641
1699.000000 0.8647 0.8652 0.8658 0.8661 0.8663
1704.000000 0.8666 0.8668 0.8670 0.8673 0.8675
1709.000000 0.8678 0.8680 0.8683 0.8685 0.8688
1714.000000 0.8690 0.8693 0.8695 0.8698 0.8700
1719.000000 0.8703 0.8705 0.8708 0.8710 0.8712
1724.000000 0.8715 0.8717 0.8720 0.8721 0.8725
1729.000000 0.8725 0.8728 0.8728 0.8731 0.8732
1734.000000 0.8734 0.8735 0.8737 0.8738 0.8740
1739.000000 0.8742 0.8745 0.8748 0.8750 0.8753
1744.000000 0.8756 0.8758 0.8761 0.8764 0.8766
1749.000000 0.8768 0.8771 0.8774 0.8777 0.8780
1754.000000 0.8781 0.8783 0.8785 0.8787 0.8789
1759.000000 0.8791 0.8793 0.8795 0.8797 0.8799
1764.000000 0.8801 0.8803 0.8804 0.8806 0.8808
1769.000000 0.8810 0.8812 0.8814 0.8810 0.8805
1774.000000 0.8801 0.8797 0.8792 0.8788 0.8784
1779.000000 0.8778 0.8775 0.8771 0.8766 0.8762
1784.000000 0.8758 0.8753 0.8749 0.8745 0.8744
1789.000000 0.8743 0.8742 0.8740 0.8739 0.8738
1794.000000 0.8737 0.8735 0.8734 0.8733 0.8731
1799.000000 0.8728 0.8727 0.8725 0.8723 0.8721
1804.000000 0.8718 0.8717 0.8712 0.8707 0.8703
1809.000000 0.8698 0.8694 0.8689 0.8684 0.8680
1814.000000 0.8675 0.8671 0.8666 0.8660 0.8652
1819.000000 0.8644 0.8636 0.8628 0.8618 0.8611
1824.000000 0.8603 0.8595 0.8587 0.8582 0.8578
1829.000000 0.8577 0.8575 0.8571 0.8570 0.8567
1834.000000 0.8568 0.8568 0.8571 0.8574 0.8577
1839.000000 0.8580 0.8582 0.8584 0.8578 0.8573
1844.000000 0.8567 0.8562 0.8554 0.8543 0.8533
1849.000000 0.8523 0.8512 0.8502 0.8496 0.8490
1854.000000 0.8484 0.8478 0.8480 0.8481 0.8482
1859.000000 0.8483 0.8485 0.8488 0.8490 0.8492
1864.000000 0.8495 0.8502 0.8509 0.8516 0.8523
1869.000000 0.8530 0.8537 0.8544 0.8552 0.8560
1874.000000 0.8568 0.8577 0.8585 0.8593 0.8602
1879.000000 0.8610 0.8618 0.8625 0.8632 0.8638
1884.000000 0.8644 0.8650 0.8656 0.8662 0.8668
1889.000000 0.8674 0.8677 0.8680 0.8683 0.8686
1894.000000 0.8689 0.8692 0.8695 0.8698 0.8701
1899.000000 0.8704 0.8704 0.8703 0.8701 0.8698
1904.000000 0.8696 0.8694 0.8692 0.8689 0.8688
1909.000000 0.8685 0.8682 0.8678 0.8677 0.8674
1914.000000 0.8671 0.8668 0.8666 0.8661 0.8650
1919.000000 0.8638 0.8627 0.8615 0.8605 0.8597
1924.000000 0.8589 0.8581 0.8573 0.8568 0.8566
1929.000000 0.8562 0.8560 0.8557 0.8555 0.8552
1934.000000 0.8550 0.8548 0.8543 0.8537 0.8531
1939.000000 0.8525 0.8520 0.8513 0.8504 0.8494
1944.000000 0.8484 0.8474 0.8464 0.8455 0.8445
1949.000000 0.8435 0.8425 0.8417 0.8407 0.8398
1954.000000 0.8389 0.8380 0.8371 0.8362 0.8353
1959.000000 0.8343 0.8333 0.8321 0.8312 0.8301
1964.000000 0.8291 0.8280 0.8270 0.8257 0.8241
1969.000000 0.8225 0.8209 0.8193 0.8176 0.8161
1974.000000 0.8146 0.8130 0.8115 0.8101 0.8087
1979.000000 0.8072 0.8058 0.8045 0.8030 0.8015
1984.000000 0.8001 0.7986 0.7971 0.7957 0.7942
1989.000000 0.7930 0.7918 0.7906 0.7894 0.7882
1994.000000 0.7869 0.7860 0.7851 0.7842 0.7833
1999.000000 0.7792 0.7719 0.7648 0.7576 0.7541
2004.000000 0.7505 0.7478 0.7451 0.7455 0.7458
2009.000000 0.7462 0.7485 0.7472 0.7478 0.7483
2014.000000 0.7488 0.7493 0.7499 0.7504 0.7508
2019.000000 0.7512 0.7518 0.7522 0.7528 0.7532
2024.000000 0.7537 0.7542 0.7547 0.7551 0.7557
2029.000000 0.7562 0.7569 0.7575 0.7583 0.7589
2034.000000 0.7596 0.7603 0.7610 0.7618 0.7626
2039.000000 0.7635 0.7643 0.7651 0.7658 0.7667
2044.000000 0.7675 0.7685 0.7694 0.7703 0.7712
2049.000000 0.7721 0.7732 0.7741 0.7751 0.7760
2054.000000 0.7769 0.7781 0.7792 0.7803 0.7815
2059.000000 0.7825 0.7838 0.7849 0.7861 0.7875
2064.000000 0.7890 0.7905 0.7919 0.7934 0.7949
2069.000000 0.7967 0.7986 0.8006 0.8026 0.8042
2074.000000 0.8057 0.8068 0.8080 0.8090 0.8100
2079.000000 0.8108 0.8115 0.8121 0.8126 0.8131
2084.000000 0.8136 0.8141 0.8146 0.8151 0.8156
2089.000000 0.8161 0.8165 0.8171 0.8175 0.8180
2094.000000 0.8184 0.8187 0.8191 0.8195 0.8199
2099.000000 0.8203 0.8207 0.8210 0.8214 0.8218
2104.000000 0.8221 0.8225 0.8228 0.8231 0.8234
2109.000000 0.8237 0.8240 0.8242 0.8245 0.8248
2114.000000 0.8251 0.8253 0.8256 0.8259 0.8262
2119.000000 0.8263 0.8265 0.8266 0.8267 0.8268
2124.000000 0.8268 0.8270 0.8271 0.8271 0.8273
2129.000000 0.8274 0.8275 0.8275 0.8277 0.8278
2134.000000 0.8278 0.8278 0.8278 0.8278 0.8278
2139.000000 0.8277 0.8275 0.8275 0.8275 0.8274
2144.000000 0.8273 0.8271 0.8271 0.8271 0.8270
2149.000000 0.8268 0.8268 0.8268 0.8267 0.8266
2154.000000 0.8266 0.8265 0.8264 0.8263 0.8263
2159.000000 0.8262 0.8261 0.8260 0.8260 0.8258
2164.000000 0.8257 0.8255 0.8254 0.8252 0.8250
2169.000000 0.8248 0.8247 0.8245 0.8243 0.8241
2174.000000 0.8240 0.8238 0.8236 0.8234 0.8232
2179.000000 0.8230 0.8228 0.8225 0.8223 0.8220
2184.000000 0.8218 0.8215 0.8213 0.8210 0.8208
2189.000000 0.8205 0.8203 0.8200 0.8198 0.8195
2194.000000 0.8193 0.8190 0.8188 0.8185 0.8182
2199.000000 0.8178 0.8176 0.8174 0.8171 0.8167
2204.000000 0.8161 0.8154 0.8147 0.8140 0.8133
2209.000000 0.8125 0.8119 0.8115 0.8111 0.8106
2214.000000 0.8101 0.8097 0.8093 0.8088 0.8084
2219.000000 0.8078 0.8072 0.8067 0.8061 0.8056
2224.000000 0.8050 0.8044 0.8038 0.8033 0.8028
2229.000000 0.8024 0.8018 0.8014 0.8010 0.8006
2234.000000 0.8001 0.7998 0.7995 0.7992 0.7989
2239.000000 0.7987 0.7985 0.7983 0.7981 0.7978
2244.000000 0.7976 0.7975 0.7972 0.7969 0.7967
2249.000000 0.7962 0.7960 0.7956 0.7953 0.7949
2254.000000 0.7946 0.7942 0.7938 0.7933 0.7928
2259.000000 0.7921 0.7917 0.7911 0.7907 0.7901
2264.000000 0.7897 0.7891 0.7886 0.7880 0.7875
2269.000000 0.7868 0.7864 0.7858 0.7853 0.7847
2274.000000 0.7842 0.7836 0.7830 0.7822 0.7815
2279.000000 0.7808 0.7801 0.7795 0.7788 0.7781
2284.000000 0.7774 0.7765 0.7758 0.7751 0.7745
2289.000000 0.7738 0.7731 0.7724 0.7717 0.7708
2294.000000 0.7701 0.7693 0.7685 0.7676 0.7668
2299.000000 0.7661 0.7653 0.7645 0.7638 0.7630
2304.000000 0.7621 0.7612 0.7604 0.7595 0.7586
2309.000000 0.7576 0.7568 0.7558 0.7550 0.7541
2314.000000 0.7532 0.7522 0.7514 0.7504 0.7494
2319.000000 0.7481 0.7468 0.7456 0.7444 0.7431
2324.000000 0.7418 0.7405 0.7393 0.7380 0.7368
2329.000000 0.7355 0.7343 0.7330 0.7317 0.7304
2334.000000 0.7291 0.7276 0.7264 0.7250 0.7237
2339.000000 0.7222 0.7210 0.7196 0.7183 0.7168
2344.000000 0.7156 0.7142 0.7128 0.7115 0.7103
2349.000000 0.7090 0.7078 0.7065 0.7053 0.7040
2354.000000 0.7028 0.7015 0.7003 0.6990 0.6976
2359.000000 0.6964 0.6951 0.6939 0.6925 0.6912
2364.000000 0.6900 0.6887 0.6874 0.6861 0.6848
2369.000000 0.6835 0.6821 0.6808 0.6796 0.6783
2374.000000 0.6769 0.6761 0.6751 0.6743 0.6735
2379.000000 0.6725 0.6718 0.6719 0.6722 0.6730
2384.000000 0.6737 0.6744 0.6751 0.6754 0.6758
2389.000000 0.6758 0.6758 0.6758 0.6758 0.6751
2394.000000 0.6747 0.6739 0.6731 0.6721 0.6711
2399.000000 0.6687 0.6662 0.6617 0.6571 0.6518
2404.000000 0.6465 0.6394 0.6322 0.6239 0.6157
2409.000000 0.5876 0.5595 0.5499 0.5403 0.5295
2414.000000 0.5187 0.5130 0.5073 0.5019 0.4966
2419.000000 0.4929 0.4893 0.4879 0.4865 0.4862
2424.000000 0.4860 0.4860 0.4857 0.5002 0.5144
2429.000000 0.5289 0.5434 0.5579 0.5724 0.5869
2434.000000 0.6014 0.6159 0.6327 0.6312 0.6323
2439.000000 0.6322 0.6321 0.6293 0.6265 0.6212
2444.000000 0.6162 0.6110 0.6058 0.6006 0.5955
2449.000000 0.5903 0.5852 0.5800 0.5748 0.5696
2454.000000 0.5645 0.5593 0.5542 0.5490 0.5438
2459.000000 0.5364 0.5290 0.5252 0.5214 0.5198
2464.000000 0.5183 0.5171 0.5159 0.5159 0.5155
2469.000000 0.5335 0.5512 0.5688 0.5865 0.6042
2474.000000 0.6219 0.6230 0.6241 0.6237 0.6233
2479.000000 0.6226 0.6274 0.6205 0.6190 0.6170
2484.000000 0.6150 0.6128 0.6106 0.6085 0.6064
2489.000000 0.6043 0.6022 0.6003 0.5984 0.5965
2494.000000 0.5946 0.5927 0.5909 0.5845 0.5781
2499.000000 0.5670 0.5559 0.5448 0.5338 0.5227
2504.000000 0.5116 0.5005 0.4894 0.4783 0.4673
2509.000000 0.4562 0.4451 0.4340 0.4229 0.4118
2514.000000 0.4007 0.3896 0.3786 0.3684 0.3592
2519.000000 0.3586 0.3588 0.3692 0.3796 0.3932
2524.000000 0.4068 0.4205 0.4342 0.4479 0.4616
2529.000000 0.4752 0.4889 0.5025 0.5162 0.5231
2534.000000 0.5300 0.5317 0.5334 0.5339 0.5344
2539.000000 0.5348 0.5352 0.5355 0.5359 0.5360
2544.000000 0.5360 0.5360 0.5362 0.5377 0.5392
2549.000000 0.5436 0.5481 0.5525 0.5569 0.5612
2554.000000 0.5657 0.5690 0.5723 0.5719 0.5745
2559.000000 0.5712 0.5710 0.5681 0.5652 0.5625
2564.000000 0.5598 0.5573 0.5548 0.5538 0.5528
2569.000000 0.5527 0.5494 0.5541 0.5556 0.5581
2574.000000 0.5607 0.5628 0.5650 0.5667 0.5684
2579.000000 0.5687 0.5691 0.5694 0.5698 0.5698
2584.000000 0.5699 0.5695 0.5725 0.5644 0.5597
2589.000000 0.5549 0.5502 0.5455 0.5408 0.5360
2594.000000 0.5312 0.5266 0.5219 0.5172 0.5125
2599.000000 0.5077 0.5030 0.4976 0.4923 0.4839
2604.000000 0.4756 0.4716 0.4677 0.4657 0.4637
2609.000000 0.4625 0.4614 0.4609 0.4604 0.4599
2614.000000 0.4595 0.4590 0.4585 0.4584 0.4583
2619.000000 0.4583 0.4584 0.4585 0.4586 0.4586
2624.000000 0.4587 0.4587 0.4588 0.4588 0.4589
2629.000000 0.4590 0.4591 0.4591 0.4591 0.4591
2634.000000 0.4592 0.4592 0.4593 0.4593 0.4593
2639.000000 0.4593 0.4593 0.4589 0.4585 0.4580
2644.000000 0.4576 0.4565 0.4555 0.4544 0.4533
2649.000000 0.4517 0.4502 0.4483 0.4465 0.4445
2654.000000 0.4426 0.4401 0.4377 0.4352 0.4328
2659.000000 0.4305 0.4283 0.4260 0.4238 0.4212
2664.000000 0.4187 0.4157 0.4128 0.4092 0.4057
2669.000000 0.4003 0.3949 0.3822 0.3695 0.3628
2674.000000 0.3560 0.3508 0.3456 0.3400 0.3344
2679.000000 0.3288 0.3232 0.3177 0.3121 0.3065
2684.000000 0.3009 0.2946 0.2884 0.2821 0.2759
2689.000000 0.2716 0.2673 0.2646 0.2620 0.2611
2694.000000 0.2602 0.2593 0.2584 0.2575 0.2566
2699.000000 0.2564 0.2563 0.2562 0.2561 0.2559
2704.000000 0.2558 0.2557 0.2556 0.2555 0.2554
2709.000000 0.2552 0.2550 0.2540 0.2530 0.2498
2714.000000 0.2466 0.2428 0.2391 0.2350 0.2309
2719.000000 0.2261 0.2214 0.2161 0.2109 0.2053
2724.000000 0.1998 0.1927 0.1857 0.1784 0.1713
2729.000000 0.1644 0.1578 0.1527 0.1476 0.1440
2734.000000 0.1404 0.1381 0.1359 0.1327 0.1295
2739.000000 0.1254 0.1214 0.1169 0.1124 0.1086
2744.000000 0.1049 0.1020 0.0992 0.0968 0.0943
2749.000000 0.0926 0.0909 0.0906 0.0906 0.0906
2754.000000 0.0903 0.0911 0.0915 0.0919 0.0922
2759.000000 0.0933 0.0943 0.0964 0.0984 0.1014
2764.000000 0.1044 0.1082 0.1121 0.1149 0.1178
2769.000000 0.1192 0.1209 0.1221 0.1233 0.1244
2774.000000 0.1256 0.1268 0.1280 0.1292 0.1304
2779.000000 0.1316 0.1328 0.1335 0.1342 0.1350
2784.000000 0.1357 0.1364 0.1371 0.1377 0.1384
2789.000000 0.1387 0.1391 0.1394 0.1398 0.1401
2794.000000 0.1405 0.1407 0.1410 0.1410 0.1411
2799.000000 0.1412 0.1413 0.1413 0.1414 0.1415
2804.000000 0.1416 0.1416 0.1416 0.1416 0.1416
2809.000000 0.1416 0.1416 0.1415 0.1415 0.1415
2814.000000 0.1415 0.1414 0.1414 0.1414 0.1414
2819.000000 0.1414 0.1414 0.1414 0.1415 0.1415
2824.000000 0.1416 0.1416 0.1417 0.1417 0.1418
2829.000000 0.1419 0.1421 0.1423 0.1425 0.1430
2834.000000 0.1436 0.1442 0.1450 0.1457 0.1464
2839.000000 0.1484 0.1504 0.1527 0.1550 0.1583
2844.000000 0.1617 0.1665 0.1713 0.1761 0.1809
2849.000000 0.1841 0.1874 0.1879 0.1884 0.1885
2854.000000 0.1885 0.1885 0.1908 0.1883 0.1881
2859.000000 0.1877 0.1873 0.1866 0.1860 0.1848
2864.000000 0.1836 0.1821 0.1806 0.1781 0.1757
2869.000000 0.1723 0.1689 0.1654 0.1619 0.1573
2874.000000 0.1527 0.1456 0.1385 0.1317 0.1250
2879.000000 0.1216 0.1182 0.1150 0.1119 0.1081
2884.000000 0.1044 0.0982 0.0921 0.0887 0.0853
2889.000000 0.0829 0.0806 0.0783 0.0760 0.0739
2894.000000 0.0719 0.0698 0.0678 0.0661 0.0645
2899.000000 0.0631 0.0618 0.0604 0.0591 0.0580
2904.000000 0.0570 0.0563 0.0556 0.0548 0.0541
2909.000000 0.0533 0.0526 0.0525 0.0524 0.0524
2914.000000 0.0525 0.0525 0.0526 0.0526 0.0526
2919.000000 0.0527 0.0529 0.0533 0.0537 0.0541
2924.000000 0.0545 0.0549 0.0554 0.0564 0.0574
2929.000000 0.0584 0.0594 0.0604 0.0614 0.0627
2934.000000 0.0640 0.0658 0.0676 0.0692 0.0709
2939.000000 0.0723 0.0737 0.0740 0.0740 0.0740
2944.000000 0.0728 0.0729 0.0729 0.0722 0.0715
2949.000000 0.0703 0.0691 0.0670 0.0649 0.0632
2954.000000 0.0615 0.0607 0.0599 0.0595 0.0596
2959.000000 0.0596 0.0601 0.0605 0.0609 0.0614
2964.000000 0.0620 0.0627 0.0634 0.0642 0.0651
2969.000000 0.0660 0.0669 0.0685 0.0702 0.0718
2974.000000 0.0734 0.0750 0.0767 0.0790 0.0814
2979.000000 0.0846 0.0879 0.0933 0.0987 0.1035
2984.000000 0.1084 0.1100 0.1116 0.1130 0.1144
2989.000000 0.1157 0.1171 0.1179 0.1188 0.1195
2994.000000 0.1203 0.1217 0.1231 0.1301 0.1372
2999.000000 0.1412 0.1452 0.1485 0.1518 0.1553
3004.000000 0.1589 0.1629 0.1670 0.1710 0.1750
3009.000000 0.1776 0.1803 0.1821 0.1839 0.1846
3014.000000 0.1856 0.1864 0.1873 0.1879 0.1887
3019.000000 0.1894 0.1903 0.1910 0.1917 0.1924
3024.000000 0.1932 0.1939 0.1946 0.1954 0.1961
3029.000000 0.1971 0.1981 0.1991 0.2002 0.2012
3034.000000 0.2023 0.2033 0.2044 0.2054 0.2065
3039.000000 0.2083 0.2102 0.2120 0.2139 0.2157
3044.000000 0.2176 0.2194 0.2213 0.2249 0.2285
3049.000000 0.2327 0.2368 0.2418 0.2468 0.2518
3054.000000 0.2568 0.2617 0.2667 0.2713 0.2760
3059.000000 0.2806 0.2853 0.2897 0.2941 0.2982
3064.000000 0.3023 0.3064 0.3105 0.3143 0.3182
3069.000000 0.3214 0.3248 0.3280 0.3314 0.3347
3074.000000 0.3380 0.3412 0.3446 0.3477 0.3508
3079.000000 0.3537 0.3566 0.3595 0.3624 0.3653
3084.000000 0.3682 0.3712 0.3741 0.3764 0.3788
3089.000000 0.3807 0.3826 0.3845 0.3864 0.3882
3094.000000 0.3902 0.3921 0.3940 0.3958 0.3976
3099.000000 0.3993 0.4010 0.4028 0.4046 0.4062
3104.000000 0.4080 0.4097 0.4115 0.4132 0.4150
3109.000000 0.4167 0.4184 0.4201 0.4219 0.4235
3114.000000 0.4251 0.4266 0.4282 0.4297 0.4312
3119.000000 0.4328 0.4344 0.4360 0.4376 0.4391
3124.000000 0.4407 0.4422 0.4438 0.4453 0.4469
3129.000000 0.4487 0.4506 0.4530 0.4554 0.4578
3134.000000 0.4603 0.4627 0.4652 0.4676 0.4701
3139.000000 0.4738 0.4775 0.4814 0.4853 0.4890
3144.000000 0.4927 0.4964 0.5001 0.5037 0.5074
3149.000000 0.5107 0.5140 0.5173 0.5207 0.5240
3154.000000 0.5273 0.5306 0.5339 0.5372 0.5405
3159.000000 0.5457 0.5510 0.5566 0.5623 0.5669
3164.000000 0.5715 0.5759 0.5803 0.5847 0.5892
3169.000000 0.5937 0.5982 0.6027 0.6073 0.6118
3174.000000 0.6164 0.6207 0.6251 0.6292 0.6333
3179.000000 0.6380 0.6426 0.6498 0.6568 0.6628
3184.000000 0.6690 0.6745 0.6801 0.6854 0.6908
3189.000000 0.6961 0.7015 0.7053 0.7091 0.7128
3194.000000 0.7165 0.7198 0.7232 0.7258 0.7285
3199.000000 0.7311 0.7339 0.7351 0.7365 0.7380
3204.000000 0.7394 0.7407 0.7421 0.7435 0.7449
3209.000000 0.7461 0.7475 0.7481 0.7486 0.7491
3214.000000 0.7497 0.7501 0.7507 0.7511 0.7517
3219.000000 0.7521 0.7525 0.7524 0.7524 0.7522
3224.000000 0.7522 0.7521 0.7521 0.7521 0.7519
3229.000000 0.7518 0.7517 0.7515 0.7515 0.7512
3234.000000 0.7511 0.7511 0.7512 0.7515 0.7518
3239.000000 0.7521 0.7525 0.7541 0.7558 0.7584
3244.000000 0.7611 0.7656 0.7701 0.7760 0.7819
3249.000000 0.7885 0.7951 0.8035 0.8118 0.8206
3254.000000 0.8294 0.8383 0.8471 0.8515 0.8559
3259.000000 0.8597 0.8636 0.8660 0.8685 0.8709
3264.000000 0.8734 0.8762 0.8790 0.8817 0.8845
3269.000000 0.8864 0.8884 0.8897 0.8911 0.8924
3274.000000 0.8938 0.8950 0.8962 0.8974 0.8986
3279.000000 0.8997 0.9009 0.9020 0.9031 0.9041
3284.000000 0.9051 0.9061 0.9071 0.9080 0.9088
3289.000000 0.9094 0.9100 0.9104 0.9109 0.9113
3294.000000 0.9117 0.9118 0.9121 0.9121 0.9124
3299.000000 0.9125 0.9128 0.9128 0.9131 0.9132
3304.000000 0.9133 0.9133 0.9134 0.9134 0.9134
3309.000000 0.9134 0.9135 0.9135 0.9136 0.9136
3314.000000 0.9136 0.9135 0.9135 0.9134 0.9134
3319.000000 0.9134 0.9134 0.9133 0.9133 0.9133
3324.000000 0.9133 0.9132 0.9132 0.9131 0.9131
3329.000000 0.9130 0.9130 0.9128 0.9128 0.9128
3334.000000 0.9128 0.9128 0.9128 0.9127 0.9127
3339.000000 0.9125 0.9125 0.9124 0.9123 0.9121
3344.000000 0.9121 0.9118 0.9118 0.9117 0.9116
3349.000000 0.9115 0.9114 0.9113 0.9112 0.9111
3354.000000 0.9110 0.9108 0.9107 0.9106 0.9105
3359.000000 0.9104 0.9103 0.9102 0.9101 0.9099
3364.000000 0.9098 0.9096 0.9095 0.9093 0.9092
3369.000000 0.9090 0.9089 0.9088 0.9087 0.9085
3374.000000 0.9084 0.9082 0.9081 0.9078 0.9078
3379.000000 0.9077 0.9075 0.9074 0.9073 0.9071
3384.000000 0.9070 0.9068 0.9067 0.9065 0.9064
3389.000000 0.9062 0.9061 0.9059 0.9058 0.9056
3394.000000 0.9055 0.9053 0.9052 0.9050 0.9049
3399.000000 0.9047 0.9045 0.9043 0.9042 0.9040
3404.000000 0.9039 0.9037 0.9036 0.9034 0.9033
3409.000000 0.9031 0.9030 0.9028 0.9027 0.9025
3414.000000 0.9023 0.9021 0.9020 0.9018 0.9017
3419.000000 0.9015 0.9014 0.9012 0.9011 0.9009
3424.000000 0.9007 0.9005 0.9004 0.9002 0.9001
3429.000000 0.8999 0.8998 0.8996 0.8995 0.8993
3434.000000 0.8991 0.8989 0.8988 0.8986 0.8985
3439.000000 0.8984 0.8983 0.8982 0.8981 0.8980
3444.000000 0.8978 0.8978 0.8977 0.8975 0.8975
3449.000000 0.8974 0.8973 0.8971 0.8971 0.8970
3454.000000 0.8968 0.8968 0.8967 0.8966 0.8965
3459.000000 0.8964 0.8963 0.8962 0.8962 0.8961
3464.000000 0.8961 0.8960 0.8960 0.8959 0.8958
3469.000000 0.8957 0.8957 0.8956 0.8956 0.8955
3474.000000 0.8955 0.8954 0.8954 0.8953 0.8953
3479.000000 0.8952 0.8952 0.8951 0.8951 0.8950
3484.000000 0.8950 0.8950 0.8950 0.8950 0.8950
3489.000000 0.8950 0.8950 0.8950 0.8951 0.8951
3494.000000 0.8951 0.8951 0.8951 0.8951 0.8951
3499.000000 0.8951 0.8952 0.8952 0.8952 0.8952
3504.000000 0.8952 0.8952 0.8953 0.8953 0.8953
3509.000000 0.8953 0.8953 0.8953 0.8954 0.8954
3514.000000 0.8954 0.8954 0.8954 0.8954 0.8954
3519.000000 0.8954 0.8955 0.8955 0.8955 0.8955
3524.000000 0.8955 0.8955 0.8956 0.8956 0.8956
3529.000000 0.8956 0.8957 0.8957 0.8957 0.8957
3534.000000 0.8958 0.8958 0.8958 0.8958 0.8959
3539.000000 0.8959 0.8959 0.8959 0.8960 0.8960
3544.000000 0.8960 0.8960 0.8961 0.8961 0.8961
3549.000000 0.8961 0.8962 0.8962 0.8963 0.8963
3554.000000 0.8963 0.8963 0.8964 0.8964 0.8964
3559.000000 0.8964 0.8965 0.8965 0.8965 0.8965
3564.000000 0.8965 0.8965 0.8965 0.8965 0.8965
3569.000000 0.8965 0.8965 0.8965 0.8965 0.8965
3574.000000 0.8965 0.8965 0.8966 0.8966 0.8966
3579.000000 0.8966 0.8966 0.8966 0.8966 0.8966
3584.000000 0.8966 0.8966 0.8966 0.8966 0.8966
3589.000000 0.8966 0.8966 0.8966 0.8966 0.8970
3594.000000 0.8974 0.8978 0.8982 0.8986 0.8991
3599.000000 0.8994 0.8998 0.9002 0.9006 0.9009
3604.000000 0.9013 0.9017 0.9021 0.9024 0.9028
3609.000000 0.9028 0.9028 0.9028 0.9027 0.9025
3614.000000 0.9025 0.9024 0.9023 0.9021 0.9021
3619.000000 0.9020 0.9020 0.9018 0.9018 0.9017
3624.000000 0.9016 0.9015 0.9014 0.9013 0.9012
3629.000000 0.9010 0.9009 0.9007 0.9006 0.9005
3634.000000 0.9004 0.9002 0.9001 0.8999 0.8998
3639.000000 0.8996 0.8987 0.8994 0.8993 0.8991
3644.000000 0.8990 0.8988 0.8987 0.8985 0.8983
3649.000000 0.8981 0.8980 0.8978 0.8977 0.8975
3654.000000 0.8974 0.8971 0.8971 0.8968 0.8968
3659.000000 0.8966 0.8965 0.8963 0.8962 0.8960
3664.000000 0.8959 0.8957 0.8956 0.8955 0.8954
3669.000000 0.8953 0.8953 0.8952 0.8952 0.8951
3674.000000 0.8951 0.8950 0.8950 0.8949 0.8948
3679.000000 0.8947 0.8947 0.8946 0.8946 0.8945
3684.000000 0.8945 0.8944 0.8944 0.8943 0.8942
3689.000000 0.8941 0.8941 0.8940 0.8940 0.8939
3694.000000 0.8939 0.8938 0.8938 0.8937 0.8936
3699.000000 0.8935 0.8935 0.8934 0.8934 0.8933
3704.000000 0.8932 0.8931 0.8931 0.8930 0.8930
3709.000000 0.8928 0.8928 0.8927 0.8927 0.8925
3714.000000 0.8925 0.8925 0.8925 0.8924 0.8923
3719.000000 0.8921 0.8921 0.8921 0.8921 0.8920
3724.000000 0.8918 0.8918 0.8918 0.8917 0.8917
3729.000000 0.8916 0.8915 0.8914 0.8914 0.8913
3734.000000 0.8913 0.8912 0.8911 0.8910 0.8910
3739.000000 0.8909 0.8909 0.8908 0.8908 0.8907
3744.000000 0.8906 0.8905 0.8905 0.8904 0.8904
3749.000000 0.8903 0.8902 0.8901 0.8901 0.8900
3754.000000 0.8900 0.8899 0.8899 0.8898 0.8897
3759.000000 0.8896 0.8896 0.8895 0.8895 0.8894
3764.000000 0.8894 0.8893 0.8892 0.8891 0.8891
3769.000000 0.8890 0.8890 0.8889 0.8889 0.8888
3774.000000 0.8887 0.8886 0.8886 0.8885 0.8885
3779.000000 0.8884 0.8883 0.8882 0.8881 0.8878
3784.000000 0.8878 0.8877 0.8875 0.8875 0.8874
3789.000000 0.8871 0.8871 0.8870 0.8868 0.8867
3794.000000 0.8866 0.8865 0.8864 0.8863 0.8862
3799.000000 0.8860 0.8859 0.8858 0.8857 0.8855
3804.000000 0.8854 0.8853 0.8852 0.8851 0.8850
3809.000000 0.8849 0.8849
##END=
