##TITLE=Urea, 1-(2-mercaptoethyl)-, sulfate, potassium salt
##JCAMP-DX=4.24
##DATA TYPE=INFRARED SPECTRUM
##CLASS=COBLENTZ III
##ORIGIN=SOUTHERN RESEARCH INSTITUTE
##OWNER=Copyright (C) 1987 by the Coblentz Society
Collection (C) 2018 copyright by the U.S. Secretary of Commerce
on behalf of the United States of America. All rights reserved.
##DATE=1962/08/14
##MOLFORM=C3 H7 K N2 O4 S2
##SOURCE REFERENCE=COBLENTZ NO. 6808
##$NIST ID=B6006808
##$NIST SOURCE=COBLENTZ
##$NIST IMAGE=cob6808
##SPECTROMETER/DATA SYSTEM=PERKIN-ELMER 221 (GRATING)
##INSTRUMENT PARAMETERS=FILTER AT 980 CM^-^1. GRATING 4000-1428 CM^-^1, NaCl PRISM 1428-650 CM^-^1
##STATE=SOLID (1 mg / 650 mg KBr DISC)
##RESOLUTION=2
##DATA PROCESSING=(ADJUSTED \addcm-1\10-5-2\)
##XUNITS=1/CM
##YUNITS=TRANSMITTANCE
##XFACTOR=1.0
##YFACTOR=1
##DELTAX=1.004353
##FIRSTX=631.255
##LASTX=3916.5
##FIRSTY=0.1707
##MAXX=3916.5
##MINX=631.255
##MAXY=0.945054
##MINY=0.0506774
##NPOINTS=3272
##XYDATA=(X++(Y..Y))
631.255385 0.1707 0.1706 0.1705 0.1738 0.1707
636.277152 0.1709 0.1716 0.1729 0.1754 0.1785
641.298920 0.1835 0.1986 0.2149 0.2256 0.2370
646.320687 0.2486 0.2601 0.2716 0.2830 0.2945
651.342454 0.3060 0.3176 0.3290 0.3405 0.3520
656.364222 0.3635 0.3750 0.3865 0.3980 0.4095
661.385989 0.4205 0.4207 0.4206 0.4206 0.4205
666.407757 0.4206 0.4208 0.4210 0.4212 0.4214
671.429524 0.4220 0.4226 0.4251 0.4295 0.4339
676.451292 0.4384 0.4429 0.4474 0.4519 0.4564
681.473059 0.4609 0.4654 0.4699 0.4744 0.4789
686.494826 0.4834 0.4878 0.4923 0.4968 0.5013
691.516594 0.5058 0.5103 0.5147 0.5168 0.5190
696.538361 0.5213 0.5236 0.5259 0.5284 0.5312
701.560129 0.5340 0.5369 0.5400 0.5433 0.5466
706.581896 0.5499 0.5531 0.5561 0.5592 0.5623
711.603664 0.5660 0.5691 0.5712 0.5729 0.5744
716.625431 0.5798 0.5775 0.5772 0.5775 0.5775
721.647199 0.5774 0.5768 0.5759 0.5747 0.5719
726.668966 0.5689 0.5657 0.5550 0.5443 0.5340
731.690733 0.5237 0.5134 0.5100 0.5090 0.5090
736.712501 0.5113 0.5218 0.5343 0.5467 0.5592
741.734268 0.5716 0.5840 0.5964 0.6061 0.6104
746.756036 0.6131 0.6149 0.6159 0.6163 0.6166
751.777803 0.6146 0.6102 0.6053 0.6006 0.5958
756.799571 0.5947 0.6243 0.6650 0.6777 0.6809
761.821338 0.6829 0.6842 0.6852 0.6861 0.6862
766.843106 0.6872 0.6864 0.6859 0.6857 0.6851
771.864873 0.6845 0.6833 0.6816 0.6796 0.6776
776.886640 0.6755 0.6710 0.6650 0.6587 0.6525
781.908408 0.6462 0.6400 0.6337 0.6274 0.6212
786.930175 0.6149 0.6087 0.6024 0.5941 0.5921
791.951943 0.5930 0.5951 0.6039 0.6216 0.6418
796.973710 0.6621 0.6751 0.6822 0.6884 0.6949
801.995478 0.7000 0.7044 0.7082 0.7110 0.7135
807.017245 0.7161 0.7186 0.7211 0.7235 0.7251
812.039013 0.7264 0.7276 0.7288 0.7296 0.7297
817.060780 0.7295 0.7292 0.7286 0.7280 0.7275
822.082547 0.7270 0.7266 0.7261 0.7256 0.7252
827.104315 0.7249 0.7247 0.7245 0.7244 0.7243
832.126082 0.7241 0.7239 0.7237 0.7235 0.7232
837.147850 0.7230 0.7227 0.7225 0.7223 0.7220
842.169617 0.7218 0.7215 0.7211 0.7206 0.7200
847.191385 0.7195 0.7190 0.7184 0.7176 0.7168
852.213152 0.7159 0.7151 0.7143 0.7132 0.7120
857.234920 0.7106 0.7092 0.7078 0.7064 0.7050
862.256687 0.7036 0.7022 0.7008 0.6995 0.6981
867.278454 0.6968 0.6954 0.6941 0.6928 0.6913
872.300222 0.6897 0.6881 0.6865 0.6850 0.6834
877.321989 0.6817 0.6799 0.6781 0.6763 0.6747
882.343757 0.6733 0.6719 0.6704 0.6689 0.6671
887.365524 0.6652 0.6634 0.6615 0.6596 0.6575
892.387292 0.6552 0.6529 0.6506 0.6483 0.6461
897.409059 0.6438 0.6415 0.6392 0.6369 0.6346
902.430827 0.6323 0.6299 0.6271 0.6241 0.6211
907.452594 0.6180 0.6145 0.6101 0.6055 0.6017
912.474361 0.5987 0.5959 0.5940 0.5929 0.5917
917.496129 0.5905 0.5894 0.5881 0.5865 0.5850
922.517896 0.5829 0.5803 0.5776 0.5748 0.5719
927.539664 0.5689 0.5660 0.5630 0.5602 0.5575
932.561431 0.5548 0.5523 0.5502 0.5482 0.5463
937.583199 0.5443 0.5423 0.5403 0.5384 0.5364
942.604966 0.5344 0.5323 0.5302 0.5281 0.5260
947.626734 0.5236 0.5209 0.5182 0.5155 0.5127
952.648501 0.5100 0.5074 0.5046 0.5019 0.4991
957.670268 0.4964 0.4936 0.4908 0.4873 0.4832
962.692036 0.4790 0.4748 0.4708 0.4670 0.4633
967.713803 0.4596 0.4559 0.4522 0.4485 0.4447
972.735571 0.4410 0.4373 0.4335 0.4297 0.4257
977.757338 0.4215 0.4173 0.4132 0.4090 0.4044
982.779106 0.3993 0.3943 0.3897 0.3857 0.3818
987.800873 0.3776 0.3728 0.3679 0.3642 0.3614
992.822641 0.3556 0.3444 0.3333 0.3220 0.3108
997.844408 0.2996 0.2882 0.2755 0.2629 0.2536
1002.866175 0.2444 0.2355 0.2275 0.2203 0.2134
1007.887943 0.2072 0.2014 0.1958 0.1908 0.1858
1012.909710 0.1803 0.1733 0.1658 0.1581 0.1503
1017.931478 0.1425 0.1353 0.1286 0.1220 0.1161
1022.953245 0.1114 0.1067 0.1021 0.0979 0.0944
1027.975013 0.0910 0.0884 0.0860 0.0843 0.0857
1032.996780 0.0870 0.0908 0.1016 0.1190 0.1392
1038.018548 0.1595 0.1798 0.2000 0.2204 0.2406
1043.040315 0.2609 0.2812 0.3007 0.3175 0.3309
1048.062082 0.3407 0.3530 0.3657 0.3763 0.3865
1053.083850 0.3970 0.4062 0.4110 0.4156 0.4209
1058.105617 0.4284 0.4351 0.4404 0.4450 0.4472
1063.127385 0.4489 0.4497 0.4505 0.4520 0.4546
1068.149152 0.4521 0.4523 0.4524 0.4523 0.4520
1073.170920 0.4514 0.4508 0.4499 0.4488 0.4476
1078.192687 0.4465 0.4454 0.4443 0.4432 0.4420
1083.214455 0.4404 0.4388 0.4372 0.4356 0.4340
1088.236222 0.4323 0.4305 0.4287 0.4269 0.4250
1093.257989 0.4227 0.4197 0.4167 0.4137 0.4104
1098.279757 0.4070 0.4036 0.3999 0.3946 0.3885
1103.301524 0.3835 0.3796 0.3746 0.3642 0.3579
1108.323292 0.3526 0.3473 0.3416 0.3361 0.3316
1113.345059 0.3287 0.3247 0.3195 0.3117 0.3070
1118.366827 0.3030 0.3011 0.2982 0.3033 0.3059
1123.388594 0.3086 0.3115 0.3144 0.3179 0.3218
1128.410362 0.3271 0.3345 0.3378 0.3392 0.3396
1133.432129 0.3398 0.3399 0.3417 0.3382 0.3365
1138.453896 0.3342 0.3305 0.3258 0.3211 0.3164
1143.475664 0.3117 0.3070 0.3023 0.2975 0.2928
1148.497431 0.2881 0.2834 0.2787 0.2740 0.2693
1153.519199 0.2646 0.2599 0.2552 0.2505 0.2457
1158.540966 0.2406 0.2344 0.2281 0.2209 0.2129
1163.562734 0.2049 0.1960 0.1855 0.1753 0.1682
1168.584501 0.1615 0.1548 0.1484 0.1420 0.1355
1173.606269 0.1268 0.1191 0.1120 0.1050 0.0989
1178.628036 0.0930 0.0871 0.0814 0.0757 0.0701
1183.649803 0.0644 0.0507 0.0561 0.0544 0.0545
1188.671571 0.0554 0.0567 0.0616 0.0653 0.0678
1193.693338 0.0703 0.0729 0.0754 0.0778 0.0834
1198.715106 0.0912 0.0990 0.1068 0.1146 0.1224
1203.736873 0.1301 0.1379 0.1456 0.1529 0.1611
1208.758641 0.1639 0.1659 0.1671 0.1676 0.1676
1213.780408 0.1699 0.1672 0.1666 0.1658 0.1648
1218.802176 0.1636 0.1612 0.1589 0.1566 0.1536
1223.823943 0.1488 0.1434 0.1359 0.1283 0.1227
1228.845710 0.1175 0.1131 0.1086 0.1055 0.1031
1233.867478 0.1009 0.0991 0.0974 0.0956 0.0931
1238.889245 0.0913 0.0906 0.0908 0.0922 0.1009
1243.911013 0.1147 0.1292 0.1438 0.1584 0.1730
1248.932780 0.1875 0.2020 0.2166 0.2293 0.2372
1253.954548 0.2490 0.2579 0.2648 0.2710 0.2759
1258.976315 0.2788 0.2814 0.2839 0.2866 0.2895
1263.998083 0.2933 0.2975 0.3019 0.3119 0.3219
1269.019850 0.3317 0.3415 0.3513 0.3612 0.3711
1274.041617 0.3809 0.3907 0.4009 0.4070 0.4144
1279.063385 0.4239 0.4318 0.4394 0.4482 0.4571
1284.085152 0.4660 0.4742 0.4808 0.4838 0.4861
1289.106920 0.4872 0.4880 0.4885 0.4891 0.4892
1294.128687 0.4892 0.4893 0.4895 0.4899 0.4905
1299.150455 0.4932 0.4973 0.5016 0.5060 0.5116
1304.172222 0.5166 0.5202 0.5220 0.5226 0.5230
1309.193990 0.5233 0.5233 0.5233 0.5232 0.5239
1314.215757 0.5225 0.5213 0.5200 0.5180 0.5156
1319.237524 0.5112 0.5033 0.4917 0.4789 0.4658
1324.259292 0.4528 0.4397 0.4267 0.4136 0.4006
1329.281059 0.3875 0.3745 0.3614 0.3484 0.3353
1334.302827 0.3222 0.3092 0.2962 0.2831 0.2700
1339.324594 0.2570 0.2450 0.2384 0.2353 0.2356
1344.346362 0.2341 0.2336 0.2432 0.2623 0.2837
1349.368129 0.3051 0.3265 0.3478 0.3692 0.3906
1354.389897 0.4120 0.4334 0.4509 0.4553 0.4551
1359.411664 0.4565 0.4490 0.4389 0.4293 0.4197
1364.433431 0.4101 0.4006 0.3910 0.3726 0.3678
1369.455199 0.3670 0.3699 0.3871 0.4100 0.4328
1374.476966 0.4556 0.4784 0.5011 0.5240 0.5467
1379.498734 0.5696 0.5924 0.6132 0.6237 0.6302
1384.520501 0.6381 0.6439 0.6469 0.6485 0.6498
1389.542269 0.6521 0.6520 0.6513 0.6509 0.6503
1394.564036 0.6493 0.6482 0.6403 0.6240 0.6051
1399.585804 0.5863 0.5675 0.5486 0.5323 0.5249
1404.607571 0.5228 0.5218 0.5222 0.5232 0.5347
1409.629338 0.5545 0.5752 0.5959 0.6163 0.6257
1414.651106 0.6276 0.6287 0.6289 0.6284 0.6305
1419.672873 0.6280 0.6240 0.6220 0.6204 0.6183
1424.694641 0.6160 0.6070 0.5880 0.5655 0.5430
1429.716408 0.5205 0.4980 0.4756 0.4532 0.4307
1434.738176 0.4082 0.3857 0.3751 0.3724 0.3721
1439.759943 0.3755 0.4069 0.4521 0.4972 0.5425
1444.781711 0.5737 0.5821 0.5821 0.5830 0.5736
1449.803478 0.5629 0.5544 0.5458 0.5372 0.5287
1454.825245 0.5201 0.5115 0.5030 0.4944 0.4858
1459.847013 0.4773 0.4687 0.4601 0.4516 0.4430
1464.868780 0.4344 0.4259 0.4173 0.4087 0.4002
1469.890548 0.3916 0.3831 0.3742 0.3665 0.3603
1474.912315 0.3492 0.3354 0.3214 0.3108 0.3029
1479.934083 0.2952 0.2869 0.2783 0.2708 0.2636
1484.955850 0.2566 0.2475 0.2375 0.2293 0.2217
1489.977618 0.2053 0.1910 0.1819 0.1744 0.1672
1494.999385 0.1607 0.1551 0.1497 0.1447 0.1404
1500.021152 0.1362 0.1326 0.1295 0.1265 0.1238
1505.042920 0.1216 0.1195 0.1180 0.1167 0.1155
1510.064687 0.1147 0.1141 0.1135 0.1133 0.1149
1515.086455 0.1139 0.1135 0.1138 0.1142 0.1148
1520.108222 0.1156 0.1180 0.1211 0.1263 0.1306
1525.129990 0.1344 0.1384 0.1425 0.1506 0.1599
1530.151757 0.1692 0.1785 0.1878 0.1971 0.2064
1535.173525 0.2157 0.2250 0.2342 0.2415 0.2476
1540.195292 0.2555 0.2646 0.2734 0.2814 0.2880
1545.217059 0.2941 0.2997 0.3051 0.3102 0.3151
1550.238827 0.3199 0.3245 0.3282 0.3316 0.3351
1555.260594 0.3385 0.3417 0.3449 0.3473 0.3490
1560.282362 0.3505 0.3515 0.3521 0.3526 0.3532
1565.304129 0.3536 0.3538 0.3538 0.3539 0.3540
1570.325897 0.3578 0.3548 0.3536 0.3533 0.3529
1575.347664 0.3525 0.3517 0.3508 0.3499 0.3489
1580.369432 0.3478 0.3465 0.3451 0.3437 0.3423
1585.391199 0.3410 0.3397 0.3385 0.3372 0.3359
1590.412966 0.3339 0.3317 0.3295 0.3273 0.3246
1595.434734 0.3217 0.3184 0.3150 0.3111 0.3063
1600.456501 0.3013 0.2956 0.2884 0.2810 0.2735
1605.478269 0.2660 0.2585 0.2511 0.2436 0.2362
1610.500036 0.2287 0.2213 0.2138 0.2064 0.1989
1615.521804 0.1914 0.1780 0.1727 0.1707 0.1708
1620.543571 0.1708 0.1717 0.1734 0.1761 0.1799
1625.565339 0.1838 0.1878 0.1916 0.1950 0.1985
1630.587106 0.2018 0.2038 0.2058 0.2041 0.2033
1635.608873 0.2013 0.1974 0.1927 0.1881 0.1835
1640.630641 0.1776 0.1700 0.1634 0.1549 0.1442
1645.652408 0.1357 0.1283 0.1210 0.1142 0.1073
1650.674176 0.1036 0.1014 0.1006 0.1006 0.1006
1655.695943 0.0996 0.1020 0.1062 0.1138 0.1208
1660.717711 0.1277 0.1347 0.1416 0.1485 0.1555
1665.739478 0.1624 0.1679 0.1734 0.1792 0.2139
1670.761246 0.2264 0.2349 0.2417 0.2484 0.2554
1675.783013 0.2624 0.2683 0.2731 0.2778 0.2823
1680.804780 0.2856 0.2889 0.2922 0.2958 0.2999
1685.826548 0.3041 0.3093 0.3150 0.3213 0.3277
1690.848315 0.3346 0.3419 0.3505 0.3590 0.3657
1695.870083 0.3723 0.3796 0.3904 0.3982 0.4024
1700.891850 0.4065 0.4107 0.4145 0.4184 0.4223
1705.913618 0.4262 0.4301 0.4340 0.4379 0.4419
1710.935385 0.4458 0.4497 0.4535 0.4574 0.4620
1715.957153 0.4675 0.4731 0.4786 0.4842 0.4888
1720.978920 0.4931 0.4975 0.5018 0.5062 0.5105
1726.000687 0.5149 0.5199 0.5248 0.5297 0.5340
1731.022455 0.5372 0.5404 0.5436 0.5469 0.5502
1736.044222 0.5534 0.5566 0.5598 0.5630 0.5662
1741.065990 0.5694 0.5728 0.5761 0.5795 0.5828
1746.087757 0.5861 0.5895 0.5928 0.5964 0.6001
1751.109525 0.6037 0.6073 0.6109 0.6146 0.6183
1756.131292 0.6223 0.6265 0.6306 0.6347 0.6384
1761.153060 0.6410 0.6436 0.6461 0.6487 0.6513
1766.174827 0.6538 0.6564 0.6590 0.6609 0.6627
1771.196594 0.6644 0.6662 0.6679 0.6697 0.6714
1776.218362 0.6732 0.6749 0.6767 0.6784 0.6802
1781.240129 0.6819 0.6837 0.6854 0.6871 0.6888
1786.261897 0.6905 0.6922 0.6939 0.6955 0.6972
1791.283664 0.6989 0.7006 0.7024 0.7041 0.7060
1796.305432 0.7083 0.7106 0.7129 0.7152 0.7176
1801.327199 0.7199 0.7222 0.7246 0.7275 0.7309
1806.348967 0.7342 0.7376 0.7411 0.7455 0.7498
1811.370734 0.7539 0.7562 0.7584 0.7605 0.7619
1816.392501 0.7633 0.7647 0.7661 0.7675 0.7689
1821.414269 0.7704 0.7721 0.7738 0.7754 0.7771
1826.436036 0.7788 0.7808 0.7830 0.7853 0.7876
1831.457804 0.7899 0.7922 0.7944 0.7966 0.7988
1836.479571 0.8010 0.8032 0.8054 0.8075 0.8095
1841.501339 0.8115 0.8135 0.8155 0.8175 0.8197
1846.523106 0.8218 0.8239 0.8261 0.8285 0.8324
1851.544874 0.8378 0.8454 0.8481 0.8494 0.8507
1856.566641 0.8520 0.8533 0.8544 0.8554 0.8564
1861.588408 0.8574 0.8585 0.8595 0.8605 0.8615
1866.610176 0.8624 0.8634 0.8644 0.8654 0.8663
1871.631943 0.8673 0.8683 0.8692 0.8700 0.8707
1876.653711 0.8714 0.8721 0.8728 0.8735 0.8742
1881.675478 0.8749 0.8756 0.8763 0.8770 0.8777
1886.697246 0.8783 0.8789 0.8794 0.8800 0.8805
1891.719013 0.8811 0.8817 0.8822 0.8828 0.8834
1896.740781 0.8839 0.8845 0.8850 0.8855 0.8860
1901.762548 0.8865 0.8870 0.8875 0.8880 0.8885
1906.784315 0.8890 0.8895 0.8900 0.8904 0.8909
1911.806083 0.8913 0.8918 0.8922 0.8927 0.8931
1916.827850 0.8936 0.8940 0.8945 0.8950 0.8957
1921.849618 0.8963 0.8970 0.8976 0.8983 0.8990
1926.871385 0.8997 0.9003 0.9012 0.9023 0.9033
1931.893153 0.9044 0.9055 0.9065 0.9077 0.9089
1936.914920 0.9102 0.9114 0.9126 0.9138 0.9150
1941.936688 0.9161 0.9172 0.9182 0.9193 0.9203
1946.958455 0.9214 0.9224 0.9234 0.9243 0.9251
1951.980222 0.9259 0.9268 0.9276 0.9284 0.9293
1957.001990 0.9301 0.9307 0.9310 0.9313 0.9317
1962.023757 0.9320 0.9323 0.9327 0.9330 0.9334
1967.045525 0.9337 0.9338 0.9339 0.9340 0.9341
1972.067292 0.9342 0.9343 0.9344 0.9345 0.9346
1977.089060 0.9341 0.9334 0.9347 0.9348 0.9348
1982.110827 0.9348 0.9348 0.9347 0.9344 0.9341
1987.132595 0.9338 0.9336 0.9333 0.9330 0.9328
1992.154362 0.9325 0.9322 0.9318 0.9312 0.9307
1997.176129 0.9301 0.9296 0.9290 0.9284 0.9278
2002.197897 0.9272 0.9265 0.9259 0.9253 0.9246
2007.219664 0.9239 0.9230 0.9222 0.9213 0.9205
2012.241432 0.9198 0.9190 0.9182 0.9175 0.9168
2017.263199 0.9161 0.9154 0.9147 0.9141 0.9135
2022.284967 0.9128 0.9122 0.9115 0.9105 0.9093
2027.306734 0.9081 0.9068 0.9053 0.9033 0.9013
2032.328502 0.8993 0.8965 0.8927 0.8890 0.8860
2037.350269 0.8839 0.8818 0.8799 0.8782 0.8777
2042.372036 0.8769 0.8752 0.8751 0.8753 0.8759
2047.393804 0.8765 0.8773 0.8780 0.8788 0.8795
2052.415571 0.8803 0.8814 0.8830 0.8850 0.8870
2057.437339 0.8890 0.8912 0.8938 0.8963 0.8989
2062.459106 0.9014 0.9040 0.9065 0.9091 0.9117
2067.480874 0.9142 0.9167 0.9193 0.9218 0.9241
2072.502641 0.9257 0.9271 0.9285 0.9299 0.9313
2077.524409 0.9327 0.9341 0.9354 0.9367 0.9378
2082.546176 0.9387 0.9395 0.9403 0.9411 0.9417
2087.567943 0.9421 0.9424 0.9428 0.9437 0.9442
2092.589711 0.9440 0.9443 0.9445 0.9447 0.9449
2097.611478 0.9450 0.9451 0.9450 0.9449 0.9448
2102.633246 0.9446 0.9443 0.9438 0.9432 0.9427
2107.655013 0.9421 0.9415 0.9409 0.9402 0.9392
2112.676781 0.9381 0.9371 0.9361 0.9351 0.9341
2117.698548 0.9330 0.9318 0.9305 0.9293 0.9281
2122.720315 0.9269 0.9260 0.9251 0.9242 0.9233
2127.742083 0.9225 0.9219 0.9214 0.9210 0.9208
2132.763850 0.9208 0.9208 0.9208 0.9207 0.9207
2137.785618 0.9207 0.9208 0.9209 0.9210 0.9212
2142.807385 0.9214 0.9216 0.9219 0.9222 0.9225
2147.829153 0.9229 0.9232 0.9235 0.9238 0.9240
2152.850920 0.9243 0.9246 0.9249 0.9251 0.9254
2157.872688 0.9257 0.9260 0.9264 0.9268 0.9271
2162.894455 0.9276 0.9282 0.9287 0.9290 0.9292
2167.916222 0.9294 0.9297 0.9299 0.9301 0.9303
2172.937990 0.9305 0.9307 0.9308 0.9309 0.9308
2177.959757 0.9305 0.9300 0.9290 0.9276 0.9262
2182.981525 0.9245 0.9225 0.9204 0.9184 0.9162
2188.003292 0.9139 0.9113 0.9088 0.9063 0.9038
2193.025060 0.9013 0.8988 0.8963 0.8938 0.8913
2198.046827 0.8890 0.8866 0.8843 0.8819 0.8799
2203.068595 0.8783 0.8769 0.8755 0.8744 0.8736
2208.090362 0.8728 0.8726 0.8727 0.8727 0.8727
2213.112129 0.8728 0.8730 0.8732 0.8735 0.8738
2218.133897 0.8743 0.8748 0.8752 0.8756 0.8759
2223.155664 0.8762 0.8766 0.8769 0.8769 0.8767
2228.177432 0.8762 0.8758 0.8754 0.8749 0.8744
2233.199199 0.8731 0.8714 0.8697 0.8679 0.8662
2238.220967 0.8655 0.8658 0.8654 0.8667 0.8685
2243.242734 0.8699 0.8716 0.8735 0.8751 0.8767
2248.264502 0.8782 0.8797 0.8811 0.8826 0.8843
2253.286269 0.8859 0.8870 0.8879 0.8887 0.8895
2258.308036 0.8903 0.8911 0.8919 0.8927 0.8935
2263.329804 0.8944 0.8952 0.8957 0.8961 0.8965
2268.351571 0.8970 0.8976 0.8982 0.8988 0.8993
2273.373339 0.8999 0.9005 0.9008 0.9008 0.9009
2278.395106 0.9009 0.9008 0.9008 0.9007 0.9007
2283.416874 0.9006 0.9007 0.9013 0.9023 0.9040
2288.438641 0.9059 0.9082 0.9107 0.9125 0.9136
2293.460409 0.9140 0.9140 0.9140 0.9140 0.9141
2298.482176 0.9141 0.9141 0.9141 0.9142 0.9143
2303.503943 0.9144 0.9145 0.9146 0.9147 0.9148
2308.525711 0.9148 0.9149 0.9149 0.9150 0.9151
2313.547478 0.9151 0.9152 0.9153 0.9153 0.9154
2318.569246 0.9164 0.9159 0.9156 0.9156 0.9157
2323.591013 0.9158 0.9158 0.9159 0.9159 0.9159
2328.612781 0.9159 0.9160 0.9160 0.9160 0.9160
2333.634548 0.9161 0.9161 0.9161 0.9161 0.9160
2338.656316 0.9160 0.9159 0.9158 0.9158 0.9157
2343.678083 0.9156 0.9156 0.9155 0.9154 0.9154
2348.699850 0.9152 0.9147 0.9141 0.9135 0.9129
2353.721618 0.9124 0.9118 0.9112 0.9106 0.9098
2358.743385 0.9090 0.9082 0.9074 0.9066 0.9058
2363.765153 0.9050 0.9046 0.9043 0.9041 0.9038
2368.786920 0.9035 0.9033 0.9031 0.9030 0.9030
2373.808688 0.9029 0.9029 0.9028 0.9026 0.9025
2378.830455 0.9023 0.9022 0.9020 0.9019 0.9017
2383.852223 0.9016 0.9014 0.9013 0.9011 0.9010
2388.873990 0.9008 0.9005 0.9001 0.8998 0.8995
2393.895757 0.8991 0.8988 0.8986 0.8985 0.8983
2398.917525 0.8982 0.8980 0.8979 0.8967 0.8952
2403.939292 0.8937 0.8921 0.8906 0.8890 0.8875
2408.961060 0.8860 0.8845 0.8832 0.8820 0.8808
2413.982827 0.8797 0.8785 0.8773 0.8761 0.8750
2419.004595 0.8739 0.8729 0.8721 0.8713 0.8704
2424.026362 0.8696 0.8687 0.8681 0.8677 0.8673
2429.048130 0.8669 0.8666 0.8662 0.8662 0.8663
2434.069897 0.8665 0.8666 0.8668 0.8669 0.8671
2439.091664 0.8672 0.8674 0.8677 0.8680 0.8683
2444.113432 0.8686 0.8689 0.8690 0.8691 0.8691
2449.135199 0.8691 0.8691 0.8692 0.8692 0.8692
2454.156967 0.8692 0.8693 0.8693 0.8693 0.8693
2459.178734 0.8694 0.8694 0.8694 0.8694 0.8695
2464.200502 0.8695 0.8695 0.8695 0.8696 0.8696
2469.222269 0.8696 0.8692 0.8688 0.8683 0.8676
2474.244037 0.8663 0.8650 0.8636 0.8605 0.8557
2479.265804 0.8497 0.8462 0.8454 0.8447 0.8441
2484.287571 0.8468 0.8618 0.8693 0.8703 0.8704
2489.309339 0.8705 0.8707 0.8709 0.8709 0.8709
2494.331106 0.8710 0.8711 0.8713 0.8714 0.8713
2499.352874 0.8713 0.8712 0.8712 0.8711 0.8709
2504.374641 0.8707 0.8705 0.8703 0.8701 0.8701
2509.396409 0.8701 0.8701 0.8700 0.8700 0.8700
2514.418176 0.8700 0.8699 0.8699 0.8699 0.8698
2519.439944 0.8698 0.8698 0.8697 0.8697 0.8697
2524.461711 0.8697 0.8696 0.8696 0.8696 0.8696
2529.483478 0.8696 0.8696 0.8696 0.8696 0.8697
2534.505246 0.8697 0.8697 0.8697 0.8698 0.8697
2539.527013 0.8697 0.8697 0.8697 0.8696 0.8696
2544.548781 0.8696 0.8696 0.8698 0.8699 0.8701
2549.570548 0.8703 0.8705 0.8706 0.8708 0.8710
2554.592316 0.8712 0.8713 0.8712 0.8710 0.8708
2559.614083 0.8707 0.8705 0.8704 0.8702 0.8701
2564.635851 0.8696 0.8693 0.8689 0.8686 0.8682
2569.657618 0.8679 0.8675 0.8669 0.8663 0.8656
2574.679385 0.8650 0.8644 0.8638 0.8632 0.8625
2579.701153 0.8619 0.8613 0.8607 0.8601 0.8596
2584.722920 0.8590 0.8585 0.8579 0.8574 0.8569
2589.744688 0.8563 0.8558 0.8552 0.8547 0.8541
2594.766455 0.8536 0.8530 0.8524 0.8519 0.8513
2599.788223 0.8508 0.8503 0.8498 0.8494 0.8489
2604.809990 0.8485 0.8480 0.8476 0.8471 0.8467
2609.831758 0.8462 0.8458 0.8453 0.8449 0.8445
2614.853525 0.8440 0.8435 0.8430 0.8425 0.8420
2619.875292 0.8415 0.8410 0.8408 0.8405 0.8402
2624.897060 0.8400 0.8396 0.8384 0.8373 0.8360
2629.918827 0.8345 0.8327 0.8313 0.8305 0.8297
2634.940595 0.8289 0.8281 0.8276 0.8273 0.8270
2639.962362 0.8267 0.8265 0.8262 0.8259 0.8257
2644.984130 0.8255 0.8254 0.8252 0.8250 0.8248
2650.005897 0.8246 0.8244 0.8243 0.8242 0.8242
2655.027665 0.8242 0.8242 0.8242 0.8241 0.8241
2660.049432 0.8241 0.8241 0.8240 0.8240 0.8239
2665.071199 0.8239 0.8238 0.8233 0.8228 0.8223
2670.092967 0.8217 0.8212 0.8206 0.8196 0.8184
2675.114734 0.8173 0.8161 0.8150 0.8137 0.8122
2680.136502 0.8107 0.8092 0.8078 0.8064 0.8050
2685.158269 0.8037 0.8023 0.8010 0.7996 0.7984
2690.180037 0.7972 0.7960 0.7948 0.7937 0.7925
2695.201804 0.7913 0.7901 0.7889 0.7877 0.7865
2700.223572 0.7854 0.7844 0.7834 0.7824 0.7814
2705.245339 0.7804 0.7794 0.7784 0.7774 0.7767
2710.267106 0.7759 0.7752 0.7744 0.7737 0.7729
2715.288874 0.7721 0.7709 0.7694 0.7679 0.7662
2720.310641 0.7642 0.7621 0.7601 0.7580 0.7560
2725.332409 0.7539 0.7520 0.7503 0.7486 0.7469
2730.354176 0.7452 0.7435 0.7418 0.7401 0.7384
2735.375944 0.7367 0.7352 0.7337 0.7322 0.7307
2740.397711 0.7293 0.7281 0.7270 0.7258 0.7247
2745.419479 0.7237 0.7227 0.7218 0.7208 0.7194
2750.441246 0.7181 0.7167 0.7153 0.7139 0.7125
2755.463013 0.7111 0.7096 0.7078 0.7059 0.7040
2760.484781 0.7021 0.7005 0.6990 0.6975 0.6961
2765.506548 0.6952 0.6944 0.6936 0.6927 0.6921
2770.528316 0.6930 0.6944 0.6926 0.6928 0.6929
2775.550083 0.6931 0.6933 0.6936 0.6942 0.6947
2780.571851 0.6953 0.6959 0.6967 0.6978 0.6988
2785.593618 0.7000 0.7014 0.7029 0.7042 0.7050
2790.615386 0.7058 0.7067 0.7075 0.7082 0.7084
2795.637153 0.7084 0.7084 0.7084 0.7085 0.7085
2800.658920 0.7085 0.7085 0.7086 0.7086 0.7086
2805.680688 0.7086 0.7087 0.7087 0.7088 0.7088
2810.702455 0.7089 0.7090 0.7090 0.7091 0.7091
2815.724223 0.7092 0.7093 0.7095 0.7097 0.7100
2820.745990 0.7103 0.7105 0.7108 0.7111 0.7112
2825.767758 0.7109 0.7104 0.7099 0.7093 0.7084
2830.789525 0.7073 0.7062 0.7051 0.7040 0.7029
2835.811293 0.7018 0.7007 0.6997 0.6986 0.6976
2840.833060 0.6966 0.6955 0.6945 0.6934 0.6924
2845.854827 0.6914 0.6901 0.6888 0.6876 0.6863
2850.876595 0.6851 0.6838 0.6827 0.6815 0.6804
2855.898362 0.6792 0.6781 0.6771 0.6765 0.6759
2860.920130 0.6753 0.6747 0.6743 0.6745 0.6748
2865.941897 0.6753 0.6761 0.6770 0.6782 0.6796
2870.963665 0.6810 0.6822 0.6831 0.6840 0.6847
2875.985432 0.6851 0.6855 0.6857 0.6857 0.6858
2881.007200 0.6858 0.6856 0.6853 0.6851 0.6848
2886.028967 0.6845 0.6841 0.6836 0.6831 0.6826
2891.050734 0.6820 0.6814 0.6805 0.6797 0.6789
2896.072502 0.6783 0.6774 0.6760 0.6747 0.6733
2901.094269 0.6719 0.6704 0.6687 0.6671 0.6654
2906.116037 0.6637 0.6617 0.6598 0.6580 0.6561
2911.137804 0.6542 0.6524 0.6506 0.6488 0.6471
2916.159572 0.6453 0.6435 0.6417 0.6399 0.6382
2921.181339 0.6361 0.6338 0.6314 0.6291 0.6264
2926.203107 0.6231 0.6198 0.6166 0.6128 0.6077
2931.224874 0.6024 0.5976 0.5929 0.5884 0.5842
2936.246641 0.5800 0.5758 0.5703 0.5629 0.5533
2941.268409 0.5439 0.5376 0.5318 0.5252 0.5178
2946.290176 0.5097 0.5014 0.4923 0.4865 0.4858
2951.311944 0.4859 0.4868 0.4888 0.4910 0.4935
2956.333711 0.4969 0.5133 0.5442 0.5801 0.6044
2961.355479 0.6129 0.6182 0.6228 0.6256 0.6272
2966.377246 0.6283 0.6284 0.6278 0.6268 0.6255
2971.399014 0.6238 0.6216 0.6189 0.6162 0.6135
2976.420781 0.6110 0.6088 0.6068 0.6049 0.6032
2981.442548 0.6022 0.6022 0.6006 0.6012 0.6071
2986.464316 0.6145 0.6198 0.6230 0.6242 0.6254
2991.486083 0.6251 0.6239 0.6234 0.6229 0.6222
2996.507851 0.6212 0.6198 0.6170 0.6116 0.6074
3001.529618 0.6060 0.6056 0.6053 0.6049 0.6045
3006.551386 0.6041 0.6037 0.6033 0.6029 0.6025
3011.573153 0.6021 0.6017 0.6013 0.6009 0.6005
3016.594921 0.6001 0.5997 0.5993 0.5989 0.5985
3021.616688 0.5981 0.5977 0.5973 0.5969 0.5964
3026.638455 0.5959 0.5953 0.5946 0.5940 0.5933
3031.660223 0.5927 0.5921 0.5914 0.5908 0.5902
3036.681990 0.5895 0.5889 0.5884 0.5878 0.5873
3041.703758 0.5867 0.5862 0.5855 0.5847 0.5839
3046.725525 0.5831 0.5823 0.5815 0.5806 0.5798
3051.747293 0.5789 0.5780 0.5769 0.5759 0.5749
3056.769060 0.5739 0.5729 0.5719 0.5707 0.5694
3061.790828 0.5681 0.5669 0.5656 0.5643 0.5631
3066.812595 0.5618 0.5604 0.5590 0.5576 0.5562
3071.834362 0.5548 0.5535 0.5522 0.5512 0.5503
3076.856130 0.5494 0.5483 0.5464 0.5440 0.5393
3081.877897 0.5348 0.5324 0.5302 0.5283 0.5265
3086.899665 0.5246 0.5227 0.5208 0.5188 0.5168
3091.921432 0.5148 0.5127 0.5107 0.5090 0.5075
3096.943200 0.5061 0.5046 0.5031 0.5017 0.5003
3101.964967 0.4991 0.4980 0.4969 0.4958 0.4947
3106.986735 0.4936 0.4925 0.4913 0.4901 0.4889
3112.008502 0.4876 0.4845 0.4799 0.4754 0.4712
3117.030269 0.4670 0.4636 0.4608 0.4581 0.4560
3122.052037 0.4541 0.4523 0.4505 0.4486 0.4466
3127.073804 0.4443 0.4417 0.4391 0.4364 0.4338
3132.095572 0.4310 0.4276 0.4239 0.4202 0.4165
3137.117339 0.4129 0.4092 0.4055 0.4018 0.3982
3142.139107 0.3945 0.3909 0.3872 0.3835 0.3796
3147.160874 0.3755 0.3714 0.3674 0.3633 0.3592
3152.182642 0.3552 0.3512 0.3471 0.3431 0.3391
3157.204409 0.3347 0.3300 0.3251 0.3203 0.3164
3162.226176 0.3133 0.3103 0.3072 0.3041 0.3010
3167.247944 0.2980 0.2944 0.2901 0.2857 0.2813
3172.269711 0.2770 0.2726 0.2679 0.2629 0.2578
3177.291479 0.2524 0.2477 0.2445 0.2425 0.2416
3182.313246 0.2411 0.2408 0.2404 0.2405 0.2404
3187.335014 0.2399 0.2399 0.2403 0.2409 0.2415
3192.356781 0.2422 0.2430 0.2438 0.2446 0.2456
3197.378549 0.2471 0.2488 0.2507 0.2530 0.2558
3202.400316 0.2585 0.2612 0.2638 0.2662 0.2684
3207.422083 0.2697 0.2703 0.2705 0.2707 0.2709
3212.443851 0.2710 0.2710 0.2710 0.2713 0.2718
3217.465618 0.2723 0.2727 0.2735 0.2745 0.2756
3222.487386 0.2770 0.2788 0.2806 0.2827 0.2854
3227.509153 0.2881 0.2909 0.2939 0.2973 0.3006
3232.530921 0.3039 0.3073 0.3106 0.3141 0.3179
3237.552688 0.3217 0.3255 0.3292 0.3326 0.3361
3242.574456 0.3395 0.3429 0.3461 0.3487 0.3514
3247.596223 0.3539 0.3556 0.3569 0.3581 0.3593
3252.617990 0.3600 0.3602 0.3605 0.3607 0.3609
3257.639758 0.3612 0.3614 0.3613 0.3608 0.3632
3262.661525 0.3638 0.3588 0.3580 0.3570 0.3557
3267.683293 0.3545 0.3533 0.3521 0.3506 0.3490
3272.705060 0.3474 0.3457 0.3438 0.3417 0.3395
3277.726828 0.3374 0.3352 0.3331 0.3309 0.3285
3282.748595 0.3260 0.3236 0.3210 0.3184 0.3158
3287.770363 0.3131 0.3103 0.3072 0.3041 0.3013
3292.792130 0.2989 0.2970 0.2958 0.2953 0.2948
3297.813897 0.2943 0.2938 0.2936 0.2934 0.2932
3302.835665 0.2931 0.2931 0.2933 0.2934 0.2936
3307.857432 0.2937 0.2939 0.2940 0.2941 0.2942
3312.879200 0.2943 0.2944 0.2944 0.2944 0.2943
3317.900967 0.2943 0.2942 0.2938 0.2927 0.2915
3322.922735 0.2902 0.2888 0.2874 0.2860 0.2843
3327.944502 0.2821 0.2797 0.2773 0.2747 0.2722
3332.966270 0.2697 0.2672 0.2649 0.2626 0.2603
3337.988037 0.2580 0.2554 0.2524 0.2494 0.2464
3343.009804 0.2440 0.2424 0.2408 0.2396 0.2391
3348.031572 0.2388 0.2383 0.2377 0.2373 0.2368
3353.053339 0.2364 0.2359 0.2354 0.2348 0.2343
3358.075107 0.2337 0.2326 0.2303 0.2273 0.2241
3363.096874 0.2201 0.2154 0.2112 0.2077 0.2041
3368.118642 0.2005 0.1968 0.1929 0.1891 0.1857
3373.140409 0.1824 0.1791 0.1758 0.1726 0.1689
3378.162177 0.1644 0.1579 0.1484 0.1405 0.1337
3383.183944 0.1261 0.1178 0.1146 0.1135 0.1127
3388.205711 0.1127 0.1130 0.1137 0.1160 0.1217
3393.227479 0.1291 0.1364 0.1444 0.1527 0.1611
3398.249246 0.1688 0.1758 0.1817 0.1863 0.1907
3403.271014 0.1952 0.2001 0.2053 0.2109 0.2170
3408.292781 0.2231 0.2300 0.2375 0.2436 0.2505
3413.314549 0.2590 0.2643 0.2688 0.2733 0.2778
3418.336316 0.2823 0.2868 0.2914 0.2959 0.3005
3423.358084 0.3055 0.3103 0.3142 0.3178 0.3214
3428.379851 0.3252 0.3295 0.3343 0.3390 0.3434
3433.401618 0.3476 0.3519 0.3562 0.3602 0.3639
3438.423386 0.3676 0.3713 0.3750 0.3788 0.3826
3443.445153 0.3865 0.3903 0.3941 0.3980 0.4023
3448.466921 0.4066 0.4108 0.4151 0.4195 0.4240
3453.488688 0.4285 0.4332 0.4382 0.4435 0.4488
3458.510456 0.4541 0.4588 0.4620 0.4653 0.4685
3463.532223 0.4718 0.4751 0.4784 0.4816 0.4848
3468.553991 0.4881 0.4913 0.4945 0.4977 0.5007
3473.575758 0.5034 0.5061 0.5087 0.5110 0.5123
3478.597525 0.5136 0.5150 0.5163 0.5177 0.5201
3483.619293 0.5247 0.5292 0.5338 0.5387 0.5433
3488.641060 0.5473 0.5513 0.5551 0.5589 0.5620
3493.662828 0.5647 0.5674 0.5705 0.5745 0.5785
3498.684595 0.5826 0.5870 0.5916 0.5958 0.5989
3503.706363 0.6019 0.6048 0.6078 0.6107 0.6133
3508.728130 0.6159 0.6184 0.6211 0.6242 0.6273
3513.749897 0.6305 0.6336 0.6368 0.6398 0.6424
3518.771665 0.6449 0.6474 0.6499 0.6523 0.6547
3523.793432 0.6568 0.6588 0.6608 0.6628 0.6648
3528.815200 0.6670 0.6692 0.6715 0.6742 0.6771
3533.836967 0.6804 0.6840 0.6880 0.6924 0.6969
3538.858735 0.6998 0.7010 0.7021 0.7033 0.7045
3543.880502 0.7059 0.7074 0.7092 0.7110 0.7134
3548.902270 0.7177 0.7224 0.7251 0.7260 0.7264
3553.924037 0.7265 0.7266 0.7271 0.7277 0.7283
3558.945804 0.7290 0.7302 0.7315 0.7328 0.7342
3563.967572 0.7357 0.7372 0.7387 0.7400 0.7413
3568.989339 0.7426 0.7440 0.7453 0.7466 0.7481
3574.011107 0.7495 0.7509 0.7524 0.7538 0.7554
3579.032874 0.7571 0.7589 0.7606 0.7624 0.7641
3584.054642 0.7659 0.7681 0.7702 0.7723 0.7745
3589.076409 0.7766 0.7783 0.7800 0.7817 0.7833
3594.098177 0.7849 0.7871 0.7892 0.7910 0.7929
3599.119944 0.7948 0.7970 0.7991 0.8011 0.8032
3604.141711 0.8052 0.8071 0.8089 0.8108 0.8126
3609.163479 0.8143 0.8161 0.8178 0.8196 0.8213
3614.185246 0.8231 0.8248 0.8265 0.8282 0.8299
3619.207014 0.8317 0.8334 0.8351 0.8366 0.8382
3624.228781 0.8397 0.8413 0.8429 0.8444 0.8460
3629.250549 0.8475 0.8491 0.8507 0.8522 0.8538
3634.272316 0.8552 0.8567 0.8582 0.8596 0.8610
3639.294084 0.8624 0.8638 0.8651 0.8662 0.8670
3644.315851 0.8676 0.8681 0.8687 0.8692 0.8697
3649.337618 0.8702 0.8706 0.8710 0.8712 0.8715
3654.359386 0.8716 0.8717 0.8718 0.8719 0.8719
3659.381153 0.8720 0.8721 0.8721 0.8722 0.8723
3664.402921 0.8723 0.8724 0.8725 0.8725 0.8726
3669.424688 0.8727 0.8727 0.8728 0.8729 0.8729
3674.446456 0.8730 0.8731 0.8731 0.8732 0.8734
3679.468223 0.8735 0.8736 0.8738 0.8739 0.8740
3684.489991 0.8743 0.8747 0.8750 0.8753 0.8757
3689.511758 0.8760 0.8763 0.8766 0.8770 0.8773
3694.533525 0.8776 0.8780 0.8784 0.8789 0.8793
3699.555293 0.8797 0.8801 0.8806 0.8810 0.8814
3704.577060 0.8819 0.8823 0.8828 0.8833 0.8837
3709.598828 0.8842 0.8846 0.8849 0.8851 0.8853
3714.620595 0.8856 0.8858 0.8860 0.8861 0.8861
3719.642363 0.8860 0.8860 0.8860 0.8860 0.8859
3724.664130 0.8859 0.8857 0.8855 0.8853 0.8851
3729.685898 0.8849 0.8847 0.8845 0.8843 0.8842
3734.707665 0.8842 0.8841 0.8841 0.8839 0.8830
3739.729432 0.8839 0.8838 0.8838 0.8837 0.8838
3744.751200 0.8839 0.8840 0.8841 0.8843 0.8844
3749.772967 0.8845 0.8846 0.8847 0.8849 0.8851
3754.794735 0.8853 0.8855 0.8858 0.8860 0.8862
3759.816502 0.8864 0.8867 0.8869 0.8872 0.8875
3764.838270 0.8877 0.8880 0.8882 0.8885 0.8887
3769.860037 0.8890 0.8893 0.8893 0.8894 0.8894
3774.881805 0.8895 0.8896 0.8896 0.8897 0.8897
3779.903572 0.8898 0.8898 0.8899 0.8899 0.8898
3784.925339 0.8896 0.8895 0.8894 0.8892 0.8891
3789.947107 0.8890 0.8888 0.8887 0.8886 0.8885
3794.968874 0.8883 0.8882 0.8881 0.8880 0.8879
3799.990642 0.8878 0.8878 0.8877 0.8876 0.8875
3805.012409 0.8875 0.8874 0.8873 0.8873 0.8871
3810.034177 0.8869 0.8866 0.8864 0.8861 0.8859
3815.055944 0.8856 0.8853 0.8851 0.8848 0.8844
3820.077712 0.8840 0.8836 0.8832 0.8829 0.8825
3825.099479 0.8821 0.8817 0.8813 0.8809 0.8805
3830.121246 0.8802 0.8799 0.8796 0.8792 0.8789
3835.143014 0.8786 0.8783 0.8779 0.8776 0.8773
3840.164781 0.8769 0.8767 0.8766 0.8765 0.8764
3845.186549 0.8763 0.8762 0.8761 0.8760 0.8759
3850.208316 0.8758 0.8756 0.8755 0.8753 0.8752
3855.230084 0.8750 0.8748 0.8747 0.8745 0.8744
3860.251851 0.8742 0.8740 0.8739 0.8737 0.8736
3865.273619 0.8734 0.8732 0.8731 0.8729 0.8728
3870.295386 0.8726 0.8724 0.8723 0.8721 0.8719
3875.317153 0.8718 0.8716 0.8714 0.8713 0.8711
3880.338921 0.8709 0.8708 0.8706 0.8704 0.8702
3885.360688 0.8700 0.8698 0.8696 0.8694 0.8692
3890.382456 0.8689 0.8682 0.8675 0.8668 0.8661
3895.404223 0.8653 0.8644 0.8636 0.8630 0.8627
3900.425991 0.8624 0.8621 0.8622 0.8622 0.8622
3905.447758 0.8622 0.8621 0.8620 0.8620 0.8619
3910.469526 0.8618 0.8617 0.8617 0.8616 0.8615
3915.491293 0.8614 0.8614
##END=
