##TITLE=BENZOIC ACID, O-(AMMONIUM SULFO)-
##JCAMP-DX=4.24
##DATA TYPE=INFRARED SPECTRUM
##CLASS=COBLENTZ
##ORIGIN=TENNESSEE EASTMAN COMPANY, RESEARCH LABORATORIES
##OWNER=COBLENTZ SOCIETY
Collection (C) 2018 copyright by the U.S. Secretary of Commerce
on behalf of the United States of America. All rights reserved.
##DATE=Not specified, most likely prior to 1970
##NAMES=2-sulfobenzoic acid ammoniate
##MOLFORM=C7 H9 N O5 S
##SOURCE REFERENCE=COBLENTZ NO. 2389
##$NIST ID=B6002389
##$NIST SOURCE=COBLENTZ
##$NIST IMAGE=cob2389
##SPECTROMETER/DATA SYSTEM=Not specified, most likely a prism, grating, or hybrid spectrometer.
##STATE=SOLID (KBr PELLET)
##SAMPLING PROCEDURE=TRANSMISSION
##RESOLUTION=4
##DATA PROCESSING=DIGITIZED BY NIST FROM HARD COPY
##XUNITS=MICROMETERS
##YUNITS=TRANSMITTANCE
##XFACTOR=1.000000
##YFACTOR=1
##DELTAX=000.006619
##FIRSTX=2.026
##LASTX=15.98
##FIRSTY=0.861
##MAXX=15.98
##MINX=2.026
##MAXY=0.97
##MINY=0.028
##NPOINTS=2109
##XYDATA=(X++(Y..Y))
2.026000 0.8610 0.8610 0.8610 0.8610 0.8610
2.059113 0.8610 0.8610 0.8610 0.8610 0.8610
2.093000 0.8610 0.8610 0.8630 0.8630 0.8630
2.126113 0.8630 0.8630 0.8630 0.8630 0.8630
2.159000 0.8630 0.8630 0.8630 0.8630 0.8630
2.192113 0.8630 0.8630 0.8630 0.8650 0.8650
2.225000 0.8660 0.8660 0.8700 0.8700 0.8730
2.258113 0.8730 0.8760 0.8780 0.8780 0.8800
2.291000 0.8810 0.8810 0.8810 0.8810 0.8830
2.324113 0.8850 0.8850 0.8860 0.8880 0.8880
2.357000 0.8880 0.8880 0.8900 0.8900 0.8900
2.390113 0.8900 0.8900 0.8910 0.8910 0.8910
2.424000 0.8910 0.8910 0.8930 0.8930 0.8950
2.457113 0.8950 0.8960 0.8960 0.9000 0.9000
2.490000 0.9010 0.9010 0.9030 0.9030 0.9060
2.523113 0.9100 0.9110 0.9110 0.9130 0.9130
2.556000 0.9130 0.9130 0.9130 0.9150 0.9150
2.589113 0.9150 0.9150 0.9150 0.9150 0.9130
2.622000 0.9130 0.9110 0.9110 0.9130 0.9130
2.655113 0.9130 0.9150 0.9150 0.9130 0.9130
2.688000 0.9130 0.9110 0.9110 0.9110 0.9100
2.721113 0.9100 0.9080 0.9080 0.9030 0.9000
2.755000 0.8960 0.8850 0.8760 0.8700 0.8630
2.788113 0.8560 0.8480 0.8410 0.8360 0.8300
2.821000 0.8230 0.8160 0.8100 0.8030 0.7980
2.854113 0.7920 0.7850 0.7780 0.7720 0.7650
2.887000 0.7570 0.7500 0.7420 0.7330 0.7270
2.920113 0.7170 0.7080 0.6980 0.6880 0.6780
2.953000 0.6680 0.6570 0.6450 0.6320 0.6200
2.986113 0.6050 0.5970 0.5800 0.5570 0.5320
3.019000 0.5040 0.4750 0.4490 0.4270 0.4000
3.052113 0.3710 0.3410 0.3110 0.2820 0.2560
3.086000 0.2320 0.2160 0.1990 0.1860 0.1640
3.119113 0.1490 0.1340 0.1240 0.1140 0.1060
3.152000 0.0980 0.0930 0.0860 0.0810 0.0760
3.185113 0.0730 0.0680 0.0660 0.0660 0.0660
3.218000 0.0660 0.0680 0.0680 0.0680 0.0690
3.251113 0.0710 0.0760 0.0790 0.0840 0.0880
3.284000 0.0890 0.0890 0.0890 0.0890 0.0890
3.317113 0.0930 0.0980 0.1030 0.1060 0.1090
3.350000 0.1110 0.1160 0.1180 0.1180 0.1180
3.383113 0.1180 0.1190 0.1230 0.1290 0.1380
3.417000 0.1460 0.1580 0.1730 0.1890 0.2070
3.450113 0.2270 0.2420 0.2560 0.2670 0.2810
3.483000 0.2920 0.3040 0.3190 0.3360 0.3540
3.516113 0.3610 0.3690 0.3720 0.3720 0.3690
3.549000 0.3590 0.3490 0.3460 0.3470 0.3560
3.582113 0.3710 0.3840 0.4190 0.4490 0.4750
3.615000 0.4970 0.5170 0.5320 0.5450 0.5550
3.648113 0.5650 0.5720 0.5790 0.5820 0.5870
3.681000 0.5900 0.5920 0.5940 0.5940 0.5940
3.714113 0.5920 0.5920 0.5890 0.5840 0.5700
3.748000 0.5640 0.5450 0.5200 0.4890 0.4490
3.781113 0.4090 0.3690 0.3660 0.3660 0.3690
3.814000 0.4200 0.4450 0.4900 0.5320 0.5650
3.847113 0.5890 0.6030 0.6120 0.6200 0.6300
3.880000 0.6400 0.6500 0.6620 0.6720 0.6800
3.913113 0.6830 0.6870 0.6870 0.6870 0.6850
3.946000 0.6780 0.6670 0.6500 0.6200 0.5970
3.979113 0.5920 0.5900 0.5940 0.6320 0.6650
4.012000 0.6930 0.7180 0.7400 0.7600 0.7770
4.045113 0.7920 0.8030 0.8150 0.8250 0.8330
4.078000 0.8400 0.8460 0.8510 0.8560 0.8630
4.111113 0.8660 0.8700 0.8710 0.8750 0.8780
4.145000 0.8800 0.8810 0.8830 0.8860 0.8910
4.178113 0.8950 0.9000 0.9030 0.9080 0.9130
4.211000 0.9200 0.9330 0.9360 0.9410 0.9410
4.244113 0.9450 0.9450 0.9430 0.9400 0.9380
4.277000 0.9350 0.9330 0.9310 0.9300 0.9300
4.310113 0.9260 0.9250 0.9250 0.9230 0.9210
4.343000 0.9210 0.9230 0.9230 0.9250 0.9280
4.376113 0.9330 0.9360 0.9400 0.9450 0.9500
4.409000 0.9500 0.9500 0.9500 0.9510 0.9510
4.442113 0.9510 0.9510 0.9530 0.9530 0.9560
4.476000 0.9580 0.9600 0.9600 0.9600 0.9600
4.509113 0.9600 0.9580 0.9560 0.9560 0.9550
4.542000 0.9550 0.9560 0.9560 0.9600 0.9630
4.575113 0.9650 0.9660 0.9680 0.9680 0.9700
4.608000 0.9700 0.9680 0.9680 0.9660 0.9660
4.641113 0.9660 0.9680 0.9680 0.9700 0.9700
4.674000 0.9700 0.9700 0.9700 0.9680 0.9680
4.707113 0.9680 0.9680 0.9680 0.9680 0.9660
4.740000 0.9650 0.9630 0.9610 0.9560 0.9530
4.773113 0.9510 0.9460 0.9450 0.9380 0.9330
4.807000 0.9280 0.9260 0.9250 0.9230 0.9230
4.840113 0.9230 0.9250 0.9250 0.9280 0.9310
4.873000 0.9350 0.9350 0.9360 0.9380 0.9380
4.906113 0.9400 0.9400 0.9400 0.9400 0.9400
4.939000 0.9400 0.9400 0.9400 0.9400 0.9400
4.972113 0.9380 0.9380 0.9380 0.9400 0.9400
5.005000 0.9400 0.9400 0.9400 0.9360 0.9300
5.038113 0.9280 0.9280 0.9280 0.9300 0.9300
5.071000 0.9310 0.9310 0.9300 0.9300 0.9250
5.104113 0.9160 0.9010 0.9000 0.9000 0.9000
5.138000 0.9010 0.9110 0.9130 0.9150 0.9150
5.171113 0.9130 0.9130 0.9130 0.9130 0.9110
5.204000 0.9100 0.9060 0.9010 0.9000 0.9000
5.237113 0.9000 0.9000 0.9000 0.9010 0.9030
5.270000 0.9050 0.9060 0.9060 0.9050 0.9050
5.303113 0.9030 0.9010 0.9010 0.9010 0.9010
5.336000 0.9010 0.9010 0.9010 0.8980 0.8930
5.369113 0.8880 0.8850 0.8830 0.8830 0.8800
5.402000 0.8750 0.8700 0.8650 0.8560 0.8500
5.435113 0.8480 0.8500 0.8500 0.8530 0.8530
5.469000 0.8530 0.8510 0.8500 0.8460 0.8410
5.502113 0.8400 0.8380 0.8380 0.8360 0.8310
5.535000 0.8280 0.8280 0.8280 0.8260 0.8260
5.568113 0.8250 0.8200 0.8150 0.8050 0.7920
5.601000 0.7830 0.7730 0.7650 0.7580 0.7520
5.634113 0.7470 0.7370 0.7250 0.7080 0.6950
5.667000 0.6830 0.6630 0.6480 0.6330 0.6170
5.700113 0.5970 0.5720 0.5370 0.4940 0.4350
5.733000 0.3840 0.3260 0.2690 0.2110 0.1490
5.766113 0.0880 0.0310 0.0290 0.0280 0.0280
5.800000 0.0280 0.0280 0.0310 0.0360 0.0980
5.833113 0.1760 0.2540 0.2940 0.3360 0.3760
5.866000 0.4050 0.4370 0.4670 0.4950 0.5240
5.899113 0.5540 0.5840 0.6080 0.6280 0.6380
5.932000 0.6420 0.6430 0.6430 0.6430 0.6430
5.965113 0.6470 0.6550 0.6720 0.6870 0.7000
5.998000 0.7120 0.7220 0.7320 0.7380 0.7430
6.031113 0.7470 0.7500 0.7520 0.7520 0.7520
6.064000 0.7500 0.7470 0.7450 0.7420 0.7420
6.097113 0.7420 0.7450 0.7520 0.7550 0.7570
6.130000 0.7570 0.7570 0.7600 0.7630 0.7670
6.163113 0.7700 0.7700 0.7720 0.7720 0.7730
6.197000 0.7730 0.7780 0.7800 0.7800 0.7820
6.230113 0.7820 0.7800 0.7780 0.7600 0.7180
6.263000 0.6300 0.5950 0.5950 0.5990 0.6670
6.296113 0.7320 0.7870 0.7920 0.7920 0.7920
6.329000 0.7900 0.7720 0.7520 0.7230 0.7220
6.362113 0.7220 0.7280 0.7530 0.7670 0.7750
6.395000 0.7800 0.7820 0.7830 0.7830 0.7850
6.428113 0.7870 0.7950 0.8000 0.8050 0.8060
6.461000 0.8060 0.8050 0.8030 0.7980 0.7970
6.494113 0.7920 0.7900 0.7900 0.7900 0.7900
6.528000 0.7900 0.7900 0.7880 0.7870 0.7830
6.561113 0.7780 0.7770 0.7750 0.7750 0.7750
6.594000 0.7750 0.7730 0.7720 0.7720 0.7670
6.627113 0.7600 0.7580 0.7570 0.7550 0.7530
6.660000 0.7520 0.7480 0.7450 0.7400 0.7350
6.693113 0.7200 0.7020 0.6870 0.6620 0.6420
6.726000 0.6270 0.6150 0.6030 0.5990 0.5920
6.759113 0.5890 0.5870 0.5890 0.5900 0.5940
6.792000 0.6000 0.6100 0.6150 0.6170 0.6180
6.825113 0.6180 0.6180 0.6170 0.6030 0.5950
6.859000 0.5820 0.5700 0.5550 0.5450 0.5340
6.892113 0.5140 0.4920 0.4770 0.4640 0.4500
6.925000 0.4370 0.4090 0.3860 0.3570 0.3370
6.958113 0.3240 0.3220 0.3210 0.3190 0.3190
6.991000 0.3140 0.3090 0.2970 0.2820 0.2620
7.024113 0.2390 0.2140 0.1880 0.1630 0.1380
7.057000 0.1160 0.0960 0.0810 0.0730 0.0680
7.090113 0.0610 0.0580 0.0560 0.0540 0.0540
7.123000 0.0540 0.0560 0.0560 0.0560 0.0580
7.156113 0.0660 0.0790 0.0940 0.1110 0.1310
7.190000 0.1540 0.1810 0.2110 0.2460 0.2840
7.223113 0.3060 0.3290 0.3510 0.3690 0.3840
7.256000 0.4020 0.4200 0.4420 0.4640 0.4850
7.289113 0.5070 0.5270 0.5440 0.5570 0.5670
7.322000 0.5770 0.5870 0.5950 0.6050 0.6120
7.355113 0.6200 0.6270 0.6420 0.6500 0.6570
7.388000 0.6600 0.6680 0.6800 0.6880 0.6950
7.421113 0.6980 0.7000 0.7020 0.7080 0.7120
7.454000 0.7150 0.7180 0.7200 0.7200 0.7200
7.487113 0.7200 0.7200 0.7200 0.7200 0.7200
7.521000 0.7200 0.7200 0.7200 0.7200 0.7180
7.554113 0.7170 0.7120 0.7080 0.7030 0.7000
7.587000 0.6980 0.6920 0.6880 0.6850 0.6820
7.620113 0.6780 0.6750 0.6680 0.6620 0.6520
7.653000 0.6400 0.6230 0.6020 0.5750 0.5390
7.686113 0.4990 0.4590 0.4140 0.3640 0.3310
7.719000 0.2970 0.2920 0.2920 0.2920 0.2940
7.752113 0.2940 0.2940 0.2920 0.2690 0.2410
7.785000 0.2190 0.1710 0.1310 0.1040 0.0860
7.818113 0.0760 0.0680 0.0640 0.0580 0.0560
7.852000 0.0530 0.0530 0.0530 0.0540 0.0580
7.885113 0.0710 0.0960 0.1260 0.1630 0.2010
7.918000 0.2470 0.2760 0.3070 0.3440 0.3720
7.951113 0.3960 0.4150 0.4290 0.4370 0.4370
7.984000 0.4370 0.4350 0.4070 0.3770 0.3420
8.017113 0.3020 0.2540 0.1960 0.1260 0.0860
8.050000 0.0610 0.0480 0.0380 0.0360 0.0360
8.083113 0.0360 0.0360 0.0360 0.0380 0.0480
8.116000 0.0640 0.0880 0.1090 0.1310 0.1440
8.149113 0.1510 0.1530 0.1560 0.1580 0.1590
8.183000 0.1610 0.1610 0.1590 0.1480 0.1330
8.216113 0.1180 0.1030 0.0890 0.0760 0.0690
8.249000 0.0640 0.0630 0.0640 0.0660 0.0710
8.282113 0.0810 0.0890 0.0910 0.0940 0.0930
8.315000 0.0910 0.0830 0.0740 0.0680 0.0590
8.348113 0.0530 0.0490 0.0460 0.0410 0.0380
8.381000 0.0360 0.0360 0.0340 0.0340 0.0340
8.414113 0.0340 0.0340 0.0340 0.0340 0.0340
8.447000 0.0340 0.0340 0.0360 0.0360 0.0410
8.480113 0.0460 0.0540 0.0660 0.0760 0.0910
8.513000 0.1130 0.1340 0.1580 0.1830 0.2070
8.546113 0.2340 0.2590 0.2860 0.3090 0.3340
8.580000 0.3560 0.3760 0.3940 0.4100 0.4220
8.613113 0.4340 0.4440 0.4550 0.4650 0.4770
8.646000 0.4850 0.4900 0.4920 0.4940 0.4940
8.679113 0.4940 0.4940 0.4690 0.4140 0.3560
8.712000 0.2840 0.2190 0.1590 0.1010 0.0940
8.745113 0.0940 0.0960 0.0990 0.1140 0.1280
8.778000 0.1390 0.1530 0.1660 0.1810 0.1980
8.811113 0.2170 0.2390 0.2660 0.2970 0.3340
8.844000 0.3760 0.4150 0.4490 0.4770 0.5000
8.877113 0.5200 0.5390 0.5550 0.5720 0.5900
8.911000 0.6100 0.6250 0.6430 0.6530 0.6700
8.944113 0.6830 0.6950 0.7070 0.7150 0.7230
8.977000 0.7280 0.7350 0.7380 0.7470 0.7480
9.010113 0.7520 0.7530 0.7530 0.7530 0.7530
9.043000 0.7530 0.7530 0.7550 0.7550 0.7570
9.076113 0.7580 0.7600 0.7620 0.7630 0.7630
9.109000 0.7630 0.7630 0.7620 0.7600 0.7530
9.142113 0.7450 0.7300 0.7080 0.6850 0.6430
9.175000 0.5950 0.5390 0.4800 0.4170 0.3520
9.208113 0.2890 0.2270 0.1680 0.1410 0.1210
9.242000 0.1190 0.1190 0.1210 0.1340 0.1630
9.275113 0.2140 0.2690 0.3210 0.3740 0.4200
9.308000 0.4740 0.5100 0.5450 0.5870 0.6130
9.341113 0.6470 0.6780 0.7030 0.7230 0.7400
9.374000 0.7550 0.7670 0.7770 0.7830 0.7920
9.407113 0.7980 0.8060 0.8150 0.8200 0.8230
9.440000 0.8260 0.8300 0.8310 0.8350 0.8360
9.473113 0.8360 0.8380 0.8380 0.8380 0.8400
9.506000 0.8400 0.8400 0.8380 0.8380 0.8380
9.539113 0.8380 0.8360 0.8300 0.8160 0.7930
9.573000 0.7620 0.7300 0.6750 0.6200 0.5590
9.606113 0.5390 0.5390 0.5400 0.5440 0.5650
9.639000 0.5940 0.6170 0.6520 0.6720 0.6870
9.672113 0.6900 0.6900 0.6870 0.6630 0.6230
9.705000 0.5670 0.4890 0.4040 0.3060 0.2160
9.738113 0.1590 0.1090 0.0890 0.0710 0.0690
9.771000 0.0690 0.0710 0.0810 0.1040 0.1460
9.804113 0.2020 0.2760 0.3660 0.4700 0.5440
9.837000 0.5990 0.6400 0.6700 0.6980 0.7180
9.870113 0.7370 0.7470 0.7580 0.7680 0.7800
9.904000 0.7900 0.7980 0.8080 0.8160 0.8210
9.937113 0.8260 0.8300 0.8350 0.8380 0.8400
9.970000 0.8430 0.8480 0.8500 0.8500 0.8510
10.003113 0.8510 0.8510 0.8510 0.8510 0.8510
10.036000 0.8510 0.8510 0.8530 0.8530 0.8530
10.069113 0.8530 0.8550 0.8550 0.8560 0.8580
10.102000 0.8600 0.8610 0.8630 0.8630 0.8630
10.135113 0.8650 0.8650 0.8650 0.8650 0.8650
10.168000 0.8650 0.8660 0.8660 0.8660 0.8660
10.201113 0.8660 0.8680 0.8680 0.8680 0.8680
10.235000 0.8680 0.8680 0.8680 0.8680 0.8680
10.268113 0.8680 0.8680 0.8680 0.8680 0.8680
10.301000 0.8660 0.8660 0.8650 0.8630 0.8600
10.334113 0.8510 0.8480 0.8460 0.8460 0.8460
10.367000 0.8460 0.8460 0.8460 0.8480 0.8480
10.400113 0.8480 0.8480 0.8480 0.8480 0.8500
10.433000 0.8500 0.8500 0.8510 0.8510 0.8530
10.466113 0.8530 0.8550 0.8550 0.8550 0.8560
10.499000 0.8560 0.8560 0.8560 0.8560 0.8580
10.532113 0.8580 0.8580 0.8580 0.8580 0.8580
10.565000 0.8580 0.8580 0.8580 0.8580 0.8580
10.598113 0.8580 0.8580 0.8580 0.8580 0.8580
10.632000 0.8580 0.8580 0.8580 0.8580 0.8580
10.665113 0.8580 0.8580 0.8580 0.8580 0.8580
10.698000 0.8580 0.8580 0.8580 0.8580 0.8580
10.731113 0.8560 0.8560 0.8560 0.8530 0.8510
10.764000 0.8510 0.8510 0.8510 0.8500 0.8500
10.797113 0.8500 0.8500 0.8500 0.8500 0.8500
10.830000 0.8500 0.8500 0.8500 0.8480 0.8480
10.863113 0.8460 0.8430 0.8400 0.8380 0.8330
10.896000 0.8300 0.8250 0.8230 0.8180 0.8150
10.929113 0.8100 0.8030 0.8010 0.8010 0.8000
10.963000 0.7970 0.7920 0.7880 0.7830 0.7780
10.996113 0.7720 0.7670 0.7580 0.7520 0.7450
11.029000 0.7370 0.7280 0.7180 0.7100 0.7000
11.062113 0.6950 0.6850 0.6750 0.6650 0.6570
11.095000 0.6470 0.6350 0.6250 0.6150 0.6030
11.128113 0.5940 0.5790 0.5600 0.5470 0.5320
11.161000 0.5200 0.5070 0.4970 0.4850 0.4750
11.194113 0.4650 0.4570 0.4470 0.4370 0.4250
11.227000 0.4120 0.4000 0.3920 0.3820 0.3760
11.260113 0.3670 0.3640 0.3610 0.3610 0.3590
11.294000 0.3570 0.3570 0.3570 0.3570 0.3570
11.327113 0.3570 0.3590 0.3590 0.3590 0.3610
11.360000 0.3620 0.3670 0.3720 0.3770 0.3840
11.393113 0.3890 0.3940 0.4020 0.4100 0.4170
11.426000 0.4250 0.4340 0.4420 0.4520 0.4640
11.459113 0.4720 0.4770 0.4840 0.4900 0.4970
11.492000 0.5000 0.5050 0.5150 0.5220 0.5300
11.525113 0.5390 0.5500 0.5550 0.5640 0.5690
11.558000 0.5720 0.5770 0.5820 0.5870 0.5950
11.591113 0.5970 0.6050 0.6100 0.6170 0.6200
11.625000 0.6270 0.6320 0.6380 0.6420 0.6450
11.658113 0.6480 0.6520 0.6550 0.6580 0.6600
11.691000 0.6630 0.6670 0.6720 0.6750 0.6780
11.724113 0.6830 0.6880 0.6950 0.6980 0.7000
11.757000 0.7020 0.7080 0.7100 0.7130 0.7170
11.790113 0.7200 0.7250 0.7300 0.7330 0.7350
11.823000 0.7380 0.7420 0.7430 0.7470 0.7520
11.856113 0.7550 0.7580 0.7600 0.7620 0.7630
11.889000 0.7670 0.7680 0.7720 0.7750 0.7780
11.922113 0.7800 0.7820 0.7830 0.7850 0.7880
11.956000 0.7900 0.7920 0.7980 0.8000 0.8000
11.989113 0.8010 0.8050 0.8080 0.8100 0.8110
12.022000 0.8130 0.8150 0.8180 0.8200 0.8200
12.055113 0.8210 0.8250 0.8260 0.8280 0.8300
12.088000 0.8310 0.8310 0.8350 0.8360 0.8360
12.121113 0.8380 0.8380 0.8400 0.8400 0.8410
12.154000 0.8430 0.8450 0.8460 0.8480 0.8480
12.187113 0.8500 0.8500 0.8510 0.8510 0.8530
12.220000 0.8530 0.8550 0.8560 0.8580 0.8580
12.253113 0.8580 0.8580 0.8580 0.8580 0.8580
12.287000 0.8580 0.8580 0.8580 0.8580 0.8580
12.320113 0.8580 0.8580 0.8560 0.8560 0.8530
12.353000 0.8510 0.8500 0.8460 0.8360 0.8300
12.386113 0.8180 0.8060 0.7950 0.7700 0.7320
12.419000 0.6850 0.6350 0.5800 0.5270 0.4790
12.452113 0.4340 0.3990 0.3810 0.3660 0.3620
12.485000 0.3620 0.3660 0.3740 0.3890 0.4040
12.518113 0.4170 0.4320 0.4400 0.4420 0.4400
12.551000 0.4340 0.4240 0.4100 0.3990 0.3890
12.584113 0.3840 0.3840 0.3870 0.4090 0.4320
12.617000 0.4600 0.4900 0.5250 0.5600 0.5890
12.650113 0.6130 0.6370 0.6570 0.6770 0.6930
12.684000 0.7070 0.7200 0.7320 0.7430 0.7520
12.717113 0.7600 0.7680 0.7770 0.7830 0.7900
12.750000 0.7970 0.8010 0.8080 0.8110 0.8130
12.783113 0.8150 0.8160 0.8200 0.8210 0.8250
12.816000 0.8250 0.8260 0.8260 0.8280 0.8280
12.849113 0.8300 0.8300 0.8300 0.8300 0.8300
12.882000 0.8300 0.8300 0.8300 0.8300 0.8300
12.915113 0.8300 0.8280 0.8250 0.8200 0.8130
12.948000 0.8030 0.7930 0.7820 0.7680 0.7500
12.981113 0.7280 0.7020 0.6700 0.6320 0.5870
13.015000 0.5320 0.4870 0.4470 0.4100 0.3770
13.048113 0.3470 0.3220 0.2990 0.2770 0.2590
13.081000 0.2420 0.2320 0.2260 0.2240 0.2260
13.114113 0.2340 0.2490 0.2820 0.3320 0.3890
13.147000 0.4490 0.5040 0.5620 0.6080 0.6580
13.180113 0.6880 0.7150 0.7380 0.7600 0.7780
13.213000 0.7950 0.8100 0.8230 0.8350 0.8430
13.246113 0.8460 0.8510 0.8560 0.8580 0.8600
13.279000 0.8610 0.8630 0.8630 0.8650 0.8650
13.312113 0.8650 0.8650 0.8650 0.8650 0.8650
13.346000 0.8650 0.8650 0.8650 0.8650 0.8650
13.379113 0.8650 0.8650 0.8650 0.8650 0.8630
13.412000 0.8630 0.8610 0.8600 0.8580 0.8530
13.445113 0.8510 0.8460 0.8430 0.8380 0.8310
13.478000 0.8210 0.8100 0.7970 0.7800 0.7630
13.511113 0.7430 0.7220 0.6980 0.6730 0.6450
13.544000 0.6170 0.5850 0.5520 0.5170 0.4800
13.577113 0.4490 0.4250 0.4190 0.3960 0.3670
13.610000 0.3660 0.3660 0.3660 0.3660 0.3690
13.643113 0.3790 0.3960 0.4220 0.4590 0.4900
13.677000 0.5250 0.5540 0.5800 0.6050 0.6320
13.710113 0.6550 0.6750 0.6950 0.7120 0.7230
13.743000 0.7350 0.7470 0.7570 0.7670 0.7750
13.776113 0.7780 0.7830 0.7870 0.7880 0.7920
13.809000 0.7920 0.7900 0.7900 0.7900 0.7880
13.842113 0.7800 0.7720 0.7580 0.7380 0.7150
13.875000 0.6870 0.6570 0.6230 0.5900 0.5540
13.908113 0.5190 0.4820 0.4470 0.4140 0.3810
13.941000 0.3520 0.3260 0.3040 0.2870 0.2740
13.974113 0.2690 0.2670 0.2670 0.2710 0.2870
14.008000 0.3040 0.3240 0.3490 0.3770 0.4090
14.041113 0.4390 0.4720 0.5020 0.5300 0.5540
14.074000 0.5800 0.6080 0.6350 0.6580 0.6750
14.107113 0.6930 0.7100 0.7280 0.7430 0.7580
14.140000 0.7670 0.7770 0.7870 0.7970 0.8050
14.173113 0.8130 0.8210 0.8300 0.8380 0.8450
14.206000 0.8510 0.8530 0.8550 0.8600 0.8650
14.239113 0.8680 0.8710 0.8750 0.8800 0.8810
14.272000 0.8830 0.8830 0.8850 0.8860 0.8860
14.305113 0.8880 0.8880 0.8880 0.8880 0.8900
14.339000 0.8910 0.8910 0.8960 0.8960 0.8980
14.372113 0.9000 0.9000 0.9000 0.9010 0.9010
14.405000 0.9010 0.9010 0.9030 0.9050 0.9050
14.438113 0.9080 0.9080 0.9080 0.9080 0.9080
14.471000 0.9100 0.9100 0.9100 0.9100 0.9100
14.504113 0.9110 0.9110 0.9110 0.9110 0.9110
14.537000 0.9110 0.9110 0.9110 0.9110 0.9110
14.570113 0.9110 0.9110 0.9110 0.9110 0.9110
14.603000 0.9110 0.9110 0.9110 0.9110 0.9110
14.636113 0.9110 0.9110 0.9110 0.9110 0.9110
14.670000 0.9110 0.9110 0.9110 0.9110 0.9110
14.703113 0.9110 0.9110 0.9110 0.9110 0.9110
14.736000 0.9110 0.9110 0.9110 0.9110 0.9110
14.769113 0.9110 0.9100 0.9100 0.9100 0.9080
14.802000 0.9080 0.9050 0.9030 0.9010 0.9010
14.835113 0.9000 0.8980 0.8930 0.8900 0.8880
14.868000 0.8850 0.8830 0.8830 0.8810 0.8800
14.901113 0.8800 0.8760 0.8750 0.8710 0.8680
14.934000 0.8610 0.8560 0.8500 0.8460 0.8400
14.967113 0.8310 0.8250 0.8160 0.8100 0.8050
15.000000 0.8030 0.8010 0.8010 0.8010 0.8010
15.033113 0.8010 0.8010 0.8010 0.8010 0.8010
15.067000 0.8010 0.8010 0.8010 0.8010 0.8010
15.100113 0.8010 0.8010 0.8000 0.8000 0.7980
15.133000 0.7930 0.7900 0.7870 0.7820 0.7780
15.166113 0.7770 0.7730 0.7680 0.7620 0.7580
15.199000 0.7500 0.7370 0.7300 0.7230 0.7170
15.232113 0.7070 0.6970 0.6830 0.6700 0.6550
15.265000 0.6420 0.6270 0.6100 0.5970 0.5770
15.298113 0.5570 0.5400 0.5250 0.5120 0.4990
15.331000 0.4850 0.4740 0.4640 0.4550 0.4450
15.364113 0.4350 0.4270 0.4190 0.4150 0.4100
15.398000 0.4040 0.3990 0.3970 0.3920 0.3890
15.431113 0.3870 0.3840 0.3820 0.3790 0.3790
15.464000 0.3790 0.3790 0.3790 0.3790 0.3790
15.497113 0.3810 0.3810 0.3820 0.3860 0.3910
15.530000 0.3970 0.4020 0.4100 0.4190 0.4250
15.563113 0.4340 0.4420 0.4500 0.4600 0.4700
15.596000 0.4800 0.4900 0.4990 0.5040 0.5090
15.629113 0.5120 0.5170 0.5220 0.5250 0.5290
15.662000 0.5300 0.5340 0.5350 0.5350 0.5370
15.695113 0.5390 0.5400 0.5420 0.5420 0.5420
15.729000 0.5420 0.5420 0.5440 0.5440 0.5440
15.762113 0.5440 0.5440 0.5440 0.5440 0.5440
15.795000 0.5440 0.5440 0.5420 0.5400 0.5390
15.828113 0.5340 0.5300 0.5250 0.5200 0.5140
15.861000 0.5090 0.5020 0.4950 0.4870 0.4800
15.894113 0.4720 0.4650 0.4600 0.4520 0.4470
15.927000 0.4400 0.4320 0.4270 0.4200 0.4100
15.960113 0.4070 0.4040 0.4020 0.4000
##END=
