##TITLE=METHYLGUANIDINE SULFATE
$$ E.K. (W.L.)
##JCAMP-DX=4.24
##DATA TYPE=INFRARED SPECTRUM
##CLASS=COBLENTZ
##ORIGIN=WYANDOTTE CHEMICALS CORP., WYANDOTTE, MICHIGAN, USA
##OWNER=COBLENTZ SOCIETY
Collection (C) 2018 copyright by the U.S. Secretary of Commerce
on behalf of the United States of America. All rights reserved.
##DATE=Not specified, most likely prior to 1970
##MOLFORM=C4 H16 N6 O4 S
##MP=241-242 C
##SOURCE REFERENCE=COBLENTZ NO. 1456
##$NIST ID=B6001456
##$NIST SOURCE=COBLENTZ
##$NIST IMAGE=cob1456
##SPECTROMETER/DATA SYSTEM=Not specified, most likely a prism, grating, or hybrid spectrometer.
##STATE=SOLID (MINERAL OIL MULL)
##SAMPLING PROCEDURE=TRANSMISSION
##RESOLUTION=4
##DATA PROCESSING=DIGITIZED BY NIST FROM HARD COPY
##XUNITS=MICROMETERS
##YUNITS=TRANSMITTANCE
##XFACTOR=1.000000
##YFACTOR=1
##DELTAX=000.006826
##FIRSTX=2.041
##LASTX=15.9933
##FIRSTY=0.974
##MAXX=15.9933
##MINX=2.041
##MAXY=1.003
##MINY=0.03
##NPOINTS=2045
##XYDATA=(X++(Y..Y))
2.041000 0.9740 0.9760 0.9770 0.9770 0.9770
2.075146 0.9790 0.9790 0.9810 0.9830 0.9840
2.109000 0.9830 0.9790 0.9770 0.9720 0.9670
2.143146 0.9660 0.9600 0.9550 0.9490 0.9430
2.177000 0.9400 0.9380 0.9370 0.9350 0.9370
2.211146 0.9370 0.9400 0.9430 0.9450 0.9490
2.246000 0.9520 0.9570 0.9620 0.9690 0.9710
2.280146 0.9710 0.9710 0.9710 0.9710 0.9720
2.314000 0.9720 0.9740 0.9740 0.9740 0.9760
2.348146 0.9760 0.9770 0.9770 0.9770 0.9770
2.382000 0.9770 0.9810 0.9880 0.9980 1.0000
2.416146 1.0000 1.0000 1.0000 1.0000 1.0010
2.451000 1.0010 1.0010 1.0010 1.0010 1.0010
2.485146 1.0010 1.0010 1.0010 1.0030 1.0030
2.519000 1.0030 1.0030 1.0030 1.0010 1.0010
2.553146 1.0030 1.0010 1.0010 1.0010 1.0010
2.587000 1.0000 1.0000 0.9980 0.9980 0.9980
2.621146 0.9960 0.9940 0.9930 0.9910 0.9860
2.655000 0.9810 0.9740 0.9670 0.9640 0.9600
2.689146 0.9590 0.9570 0.9540 0.9490 0.9420
2.724000 0.9320 0.9110 0.9030 0.8990 0.8740
2.758146 0.8400 0.8060 0.7840 0.7820 0.7690
2.792000 0.7500 0.7350 0.7180 0.6960 0.6740
2.826146 0.6620 0.6480 0.6230 0.5940 0.5650
2.860000 0.5330 0.5000 0.4680 0.4340 0.3980
2.894146 0.3650 0.3460 0.3270 0.2970 0.2680
2.928000 0.2470 0.2220 0.1950 0.1690 0.1460
2.962146 0.1250 0.1080 0.1030 0.1010 0.0980
2.997000 0.0980 0.0890 0.0860 0.0860 0.0910
3.031146 0.1050 0.1050 0.1010 0.0960 0.0910
3.065000 0.0890 0.0880 0.0880 0.0840 0.0810
3.099146 0.0790 0.0740 0.0760 0.0780 0.0780
3.133000 0.0730 0.0710 0.0690 0.0690 0.0710
3.167146 0.0730 0.0740 0.0740 0.0740 0.0740
3.201000 0.0740 0.0740 0.0740 0.0740 0.0740
3.235146 0.0730 0.0710 0.0690 0.0690 0.0710
3.270000 0.0710 0.0730 0.0730 0.0760 0.0760
3.304146 0.0730 0.0670 0.0620 0.0560 0.0500
3.338000 0.0450 0.0400 0.0330 0.0320 0.0300
3.372146 0.0300 0.0300 0.0320 0.0320 0.0330
3.406000 0.0330 0.0350 0.0350 0.0350 0.0370
3.440146 0.0370 0.0390 0.0390 0.0390 0.0400
3.474000 0.0400 0.0420 0.0420 0.0420 0.0450
3.508146 0.0470 0.0500 0.1010 0.1460 0.1880
3.543000 0.2290 0.2610 0.2830 0.2900 0.2920
3.577146 0.2970 0.3050 0.3140 0.3240 0.3250
3.611000 0.3310 0.3510 0.3650 0.3800 0.3950
3.645146 0.4100 0.4260 0.4360 0.4440 0.4610
3.679000 0.4770 0.4940 0.5070 0.5210 0.5310
3.713146 0.5440 0.5550 0.5630 0.5700 0.5750
3.747000 0.5820 0.5920 0.6020 0.6070 0.6160
3.781146 0.6160 0.6310 0.6410 0.6460 0.6450
3.816000 0.6360 0.6330 0.6290 0.6290 0.6330
3.850146 0.6510 0.6620 0.6740 0.6790 0.6870
3.884000 0.6970 0.6990 0.7010 0.7020 0.7060
3.918146 0.7090 0.7190 0.7260 0.7350 0.7380
3.952000 0.7400 0.7410 0.7470 0.7570 0.7640
3.986146 0.7670 0.7720 0.7740 0.7770 0.7820
4.020000 0.7860 0.7920 0.7990 0.8010 0.8060
4.054146 0.8080 0.8090 0.8130 0.8140 0.8160
4.089000 0.8160 0.8180 0.8180 0.8200 0.8200
4.123146 0.8200 0.8210 0.8210 0.8210 0.8230
4.157000 0.8230 0.8230 0.8250 0.8250 0.8260
4.191146 0.8260 0.8260 0.8260 0.8250 0.8250
4.225000 0.8230 0.8180 0.8180 0.8200 0.8260
4.259146 0.8300 0.8420 0.8500 0.8670 0.8700
4.294000 0.8700 0.8690 0.8640 0.8640 0.8600
4.328146 0.8570 0.8520 0.8500 0.8470 0.8430
4.362000 0.8380 0.8350 0.8310 0.8280 0.8260
4.396146 0.8230 0.8210 0.8200 0.8200 0.8200
4.430000 0.8200 0.8210 0.8250 0.8280 0.8310
4.464146 0.8310 0.8330 0.8330 0.8350 0.8370
4.498000 0.8420 0.8420 0.8430 0.8420 0.8400
4.532146 0.8370 0.8330 0.8310 0.8280 0.8250
4.567000 0.8250 0.8230 0.8230 0.8280 0.8420
4.601146 0.8470 0.8500 0.8520 0.8570 0.8640
4.635000 0.8720 0.8790 0.8860 0.8870 0.8870
4.669146 0.8890 0.8890 0.8930 0.8960 0.9040
4.703000 0.9280 0.9300 0.9260 0.9230 0.9210
4.737146 0.9180 0.9130 0.9040 0.9030 0.9010
4.771000 0.8960 0.8840 0.8810 0.8820 0.8980
4.805146 0.9010 0.9030 0.9060 0.9100 0.9110
4.840000 0.9160 0.9180 0.9180 0.9180 0.9160
4.874146 0.9130 0.9110 0.9130 0.9130 0.9130
4.908000 0.9150 0.9150 0.9150 0.9160 0.9180
4.942146 0.9180 0.9200 0.9200 0.9200 0.9210
4.976000 0.9280 0.9380 0.9420 0.9470 0.9470
5.010146 0.9490 0.9520 0.9520 0.9590 0.9620
5.044000 0.9640 0.9660 0.9670 0.9670 0.9670
5.078146 0.9670 0.9690 0.9690 0.9690 0.9690
5.113000 0.9710 0.9710 0.9710 0.9710 0.9720
5.147146 0.9720 0.9720 0.9720 0.9720 0.9720
5.181000 0.9720 0.9720 0.9720 0.9720 0.9720
5.215146 0.9710 0.9710 0.9690 0.9670 0.9670
5.249000 0.9660 0.9660 0.9640 0.9620 0.9600
5.283146 0.9570 0.9520 0.9500 0.9490 0.9470
5.317000 0.9450 0.9430 0.9420 0.9400 0.9370
5.351146 0.9370 0.9320 0.9300 0.9260 0.9250
5.386000 0.9210 0.9200 0.9160 0.9130 0.9130
5.420146 0.9100 0.8990 0.8940 0.8910 0.8860
5.454000 0.8810 0.8790 0.8640 0.8550 0.8500
5.488146 0.8420 0.8310 0.8260 0.8160 0.8040
5.522000 0.8010 0.7910 0.7840 0.7820 0.7770
5.556146 0.7700 0.7550 0.7520 0.7500 0.7430
5.590000 0.7350 0.7260 0.7140 0.7040 0.6910
5.624146 0.6740 0.6670 0.6600 0.6580 0.6570
5.659000 0.6480 0.6310 0.6010 0.5890 0.5820
5.693146 0.5460 0.5260 0.5000 0.4750 0.4510
5.727000 0.4320 0.4210 0.4020 0.3630 0.3460
5.761146 0.3270 0.3000 0.2800 0.2640 0.2510
5.795000 0.2350 0.2150 0.1880 0.1490 0.1400
5.829146 0.1300 0.1230 0.1150 0.1100 0.1050
5.863000 0.0960 0.0910 0.0830 0.0810 0.0830
5.897146 0.0830 0.0840 0.0880 0.0890 0.0910
5.932000 0.0910 0.0910 0.0910 0.0910 0.0910
5.966146 0.0890 0.0860 0.0840 0.0810 0.0740
6.000000 0.0760 0.0780 0.0790 0.0790 0.0790
6.034146 0.0790 0.0790 0.0790 0.0790 0.0710
6.068000 0.0690 0.0710 0.0760 0.0790 0.0840
6.102146 0.0930 0.0980 0.1120 0.1170 0.1270
6.137000 0.1440 0.1510 0.1560 0.1590 0.1710
6.171146 0.1950 0.1980 0.2080 0.2170 0.2220
6.205000 0.2250 0.2300 0.2410 0.2540 0.2750
6.239146 0.2800 0.3170 0.3590 0.3760 0.3900
6.273000 0.4050 0.4170 0.4290 0.4410 0.4490
6.307146 0.4600 0.4660 0.4730 0.4820 0.4850
6.341000 0.4940 0.4990 0.5040 0.5090 0.5160
6.375146 0.5220 0.5310 0.5340 0.5360 0.5390
6.410000 0.5410 0.5440 0.5460 0.5500 0.5510
6.444146 0.5510 0.5530 0.5550 0.5550 0.5550
6.478000 0.5560 0.5560 0.5560 0.5560 0.5550
6.512146 0.5530 0.5510 0.5480 0.5440 0.5430
6.546000 0.5410 0.5390 0.5390 0.5380 0.5360
6.580146 0.5330 0.5290 0.5240 0.5190 0.5120
6.614000 0.5050 0.4970 0.4880 0.4770 0.4650
6.648146 0.4580 0.4480 0.4390 0.4240 0.3780
6.683000 0.3560 0.3410 0.3250 0.3080 0.2860
6.717146 0.2640 0.2460 0.2270 0.2200 0.2020
6.751000 0.1490 0.0950 0.0810 0.0780 0.0730
6.785146 0.0710 0.0730 0.0760 0.0830 0.0860
6.819000 0.0890 0.0930 0.0950 0.0980 0.1010
6.853146 0.1060 0.1130 0.1220 0.1290 0.1350
6.887000 0.1460 0.1540 0.1640 0.1710 0.1830
6.921146 0.2000 0.2170 0.2240 0.2340 0.2490
6.956000 0.2630 0.2780 0.2900 0.3020 0.3140
6.990146 0.3800 0.3900 0.3950 0.4140 0.4320
7.024000 0.4410 0.4460 0.4480 0.4490 0.4530
7.058146 0.4530 0.4550 0.4580 0.4610 0.4630
7.092000 0.4630 0.4650 0.4650 0.4630 0.4630
7.126146 0.4580 0.4550 0.4490 0.4380 0.4320
7.160000 0.4290 0.3830 0.3490 0.3310 0.3100
7.194146 0.2730 0.2340 0.2320 0.2200 0.2070
7.229000 0.1910 0.1860 0.1850 0.1850 0.1960
7.263146 0.2320 0.2560 0.2730 0.2830 0.2920
7.297000 0.2970 0.3030 0.3120 0.3270 0.3560
7.331146 0.3630 0.3660 0.3710 0.3730 0.3760
7.365000 0.3760 0.3760 0.3780 0.3780 0.3780
7.399146 0.3780 0.3780 0.3800 0.3800 0.3820
7.433000 0.3830 0.3850 0.3870 0.3880 0.3900
7.467146 0.3920 0.3930 0.3950 0.3970 0.3970
7.502000 0.3970 0.3970 0.3970 0.3970 0.3930
7.536146 0.3930 0.3920 0.3900 0.3870 0.3820
7.570000 0.3800 0.3780 0.3760 0.3730 0.3710
7.604146 0.3710 0.3680 0.3660 0.3660 0.3660
7.638000 0.3660 0.3660 0.3660 0.3660 0.3660
7.672146 0.3650 0.3650 0.3650 0.3650 0.3650
7.706000 0.3650 0.3630 0.3650 0.3650 0.3660
7.740146 0.3660 0.3660 0.3660 0.3650 0.3650
7.775000 0.3630 0.3630 0.3630 0.3580 0.3560
7.809146 0.3540 0.3540 0.3540 0.3540 0.3530
7.843000 0.3510 0.3510 0.3490 0.3490 0.3490
7.877146 0.3490 0.3490 0.3490 0.3490 0.3480
7.911000 0.3490 0.3490 0.3490 0.3490 0.3490
7.945146 0.3480 0.3460 0.3460 0.3460 0.3440
7.980000 0.3420 0.3410 0.3410 0.3390 0.3390
8.014146 0.3370 0.3360 0.3340 0.3340 0.3340
8.048000 0.3320 0.3320 0.3320 0.3310 0.3310
8.082146 0.3290 0.3270 0.3270 0.3250 0.3250
8.116000 0.3220 0.3190 0.3120 0.3100 0.3100
8.150146 0.3080 0.3070 0.3030 0.2980 0.2900
8.184000 0.2780 0.2750 0.2710 0.2680 0.2640
8.218146 0.2590 0.2560 0.2510 0.2440 0.2370
8.253000 0.2300 0.2200 0.2100 0.2050 0.2030
8.287146 0.2000 0.1960 0.1950 0.1930 0.1910
8.321000 0.1900 0.1900 0.1880 0.1860 0.1860
8.355146 0.1880 0.1880 0.1900 0.1910 0.1910
8.389000 0.1900 0.1880 0.1850 0.1810 0.1790
8.423146 0.1760 0.1730 0.1690 0.1680 0.1640
8.457000 0.1590 0.1570 0.1540 0.1560 0.1560
8.491146 0.1570 0.1590 0.1610 0.1620 0.1640
8.526000 0.1640 0.1660 0.1660 0.1680 0.1690
8.560146 0.1690 0.1710 0.1710 0.1710 0.1690
8.594000 0.1680 0.1680 0.1640 0.1590 0.1520
8.628146 0.1470 0.1460 0.1420 0.1390 0.1370
8.662000 0.1340 0.1320 0.1300 0.1290 0.1250
8.696146 0.1200 0.1130 0.1000 0.0980 0.0960
8.730000 0.0950 0.0930 0.0910 0.0860 0.0810
8.764146 0.0810 0.0790 0.0780 0.0760 0.0760
8.799000 0.0760 0.0740 0.0740 0.0740 0.0740
8.833146 0.0740 0.0740 0.0730 0.0730 0.0730
8.867000 0.0730 0.0710 0.0710 0.0690 0.0690
8.901146 0.0690 0.0690 0.0690 0.0690 0.0690
8.935000 0.0690 0.0690 0.0670 0.0670 0.0660
8.969146 0.0660 0.0660 0.0660 0.0640 0.0640
9.003000 0.0620 0.0620 0.0610 0.0610 0.0590
9.037146 0.0610 0.0610 0.0590 0.0590 0.0570
9.072000 0.0570 0.0570 0.0570 0.0570 0.0570
9.106146 0.0560 0.0560 0.0560 0.0540 0.0520
9.140000 0.0520 0.0500 0.0500 0.0500 0.0500
9.174146 0.0500 0.0490 0.0490 0.0490 0.0490
9.208000 0.0490 0.0470 0.0470 0.0470 0.0470
9.242146 0.0450 0.0450 0.0450 0.0450 0.0450
9.276000 0.0440 0.0440 0.0440 0.0440 0.0420
9.310146 0.0420 0.0420 0.0420 0.0420 0.0420
9.345000 0.0420 0.0420 0.0420 0.0440 0.0440
9.379146 0.0440 0.0440 0.0440 0.0450 0.0450
9.413000 0.0450 0.0450 0.0450 0.0470 0.0470
9.447146 0.0470 0.0470 0.0470 0.0470 0.0470
9.481000 0.0470 0.0470 0.0470 0.0490 0.0490
9.515146 0.0500 0.0500 0.0520 0.0520 0.0540
9.549000 0.0540 0.0560 0.0560 0.0570 0.0570
9.583146 0.0590 0.0590 0.0610 0.0620 0.0640
9.618000 0.0670 0.0690 0.0710 0.0710 0.0730
9.652146 0.0740 0.0780 0.0810 0.0840 0.0810
9.686000 0.0860 0.0910 0.0950 0.1000 0.1030
9.720146 0.1050 0.1080 0.1120 0.1130 0.1170
9.754000 0.1200 0.1230 0.1250 0.1290 0.1340
9.788146 0.1370 0.1420 0.1460 0.1470 0.1490
9.823000 0.1510 0.1520 0.1560 0.1590 0.1640
9.857146 0.1690 0.1760 0.1780 0.1830 0.1880
9.891000 0.1930 0.1960 0.2000 0.2020 0.2070
9.925146 0.2150 0.2200 0.2250 0.2300 0.2350
9.959000 0.2390 0.2440 0.2490 0.2540 0.2590
9.993146 0.2640 0.2690 0.2750 0.2810 0.2860
10.027000 0.2920 0.2950 0.2980 0.3020 0.3070
10.061146 0.3120 0.3150 0.3220 0.3270 0.3410
10.096000 0.3440 0.3440 0.3490 0.3530 0.3530
10.130146 0.3370 0.3290 0.3190 0.3000 0.2810
10.164000 0.2630 0.2440 0.2130 0.1980 0.1960
10.198146 0.2000 0.2440 0.2630 0.2780 0.2920
10.232000 0.3030 0.3150 0.3240 0.3320 0.3460
10.266146 0.3530 0.3580 0.3630 0.3650 0.3680
10.300000 0.3750 0.3820 0.3880 0.3980 0.4020
10.334146 0.4040 0.4070 0.4070 0.4090 0.4120
10.369000 0.4150 0.4170 0.4220 0.4260 0.4290
10.403146 0.4320 0.4360 0.4390 0.4430 0.4440
10.437000 0.4480 0.4510 0.4530 0.4550 0.4560
10.471146 0.4600 0.4630 0.4650 0.4660 0.4700
10.505000 0.4730 0.4730 0.4750 0.4770 0.4780
10.539146 0.4800 0.4850 0.4880 0.4920 0.4940
10.573000 0.4950 0.4990 0.5000 0.5020 0.5040
10.607146 0.5050 0.5090 0.5090 0.5110 0.5110
10.642000 0.5120 0.5160 0.5190 0.5240 0.5260
10.676146 0.5280 0.5290 0.5310 0.5330 0.5340
10.710000 0.5360 0.5360 0.5380 0.5380 0.5390
10.744146 0.5410 0.5430 0.5480 0.5530 0.5550
10.778000 0.5550 0.5560 0.5580 0.5610 0.5630
10.812146 0.5670 0.5700 0.5700 0.5720 0.5720
10.846000 0.5700 0.5700 0.5630 0.5600 0.5560
10.880146 0.5510 0.5460 0.5410 0.5360 0.5310
10.915000 0.5240 0.5190 0.5140 0.5090 0.5020
10.949146 0.4970 0.4950 0.4950 0.4950 0.4950
10.983000 0.4990 0.5000 0.5040 0.5120 0.5160
11.017146 0.5290 0.5360 0.5410 0.5480 0.5530
11.051000 0.5580 0.5650 0.5700 0.5750 0.5780
11.085146 0.5840 0.5870 0.5900 0.5940 0.5950
11.119000 0.5950 0.5950 0.5970 0.5990 0.6020
11.153146 0.6020 0.6040 0.6040 0.6070 0.6090
11.188000 0.6120 0.6120 0.6160 0.6160 0.6210
11.222146 0.6240 0.6260 0.6260 0.6280 0.6280
11.256000 0.6290 0.6310 0.6340 0.6380 0.6400
11.290146 0.6410 0.6430 0.6450 0.6460 0.6480
11.324000 0.6500 0.6510 0.6530 0.6530 0.6550
11.358146 0.6550 0.6550 0.6570 0.6570 0.6570
11.392000 0.6580 0.6580 0.6580 0.6600 0.6600
11.426146 0.6600 0.6620 0.6620 0.6620 0.6620
11.461000 0.6620 0.6630 0.6630 0.6630 0.6630
11.495146 0.6630 0.6630 0.6650 0.6650 0.6650
11.529000 0.6630 0.6630 0.6630 0.6620 0.6630
11.563146 0.6630 0.6650 0.6650 0.6630 0.6630
11.597000 0.6630 0.6630 0.6630 0.6630 0.6630
11.631146 0.6630 0.6630 0.6630 0.6630 0.6620
11.666000 0.6620 0.6620 0.6620 0.6620 0.6620
11.700146 0.6620 0.6620 0.6620 0.6600 0.6600
11.734000 0.6600 0.6600 0.6600 0.6600 0.6600
11.768146 0.6580 0.6570 0.6570 0.6570 0.6570
11.802000 0.6570 0.6570 0.6570 0.6570 0.6550
11.836146 0.6550 0.6550 0.6550 0.6550 0.6550
11.870000 0.6550 0.6550 0.6530 0.6530 0.6530
11.904146 0.6530 0.6530 0.6530 0.6530 0.6530
11.939000 0.6530 0.6510 0.6510 0.6510 0.6510
11.973146 0.6510 0.6510 0.6510 0.6500 0.6500
12.007000 0.6500 0.6500 0.6480 0.6480 0.6480
12.041146 0.6460 0.6460 0.6460 0.6460 0.6450
12.075000 0.6430 0.6410 0.6400 0.6400 0.6400
12.109146 0.6380 0.6360 0.6360 0.6360 0.6340
12.143000 0.6330 0.6330 0.6310 0.6290 0.6290
12.177146 0.6280 0.6260 0.6240 0.6230 0.6210
12.212000 0.6190 0.6170 0.6160 0.6140 0.6120
12.246146 0.6110 0.6110 0.6090 0.6090 0.6070
12.280000 0.6060 0.6040 0.6040 0.6020 0.6010
12.314146 0.5990 0.5990 0.5970 0.5970 0.5950
12.348000 0.5920 0.5900 0.5890 0.5850 0.5840
12.382146 0.5800 0.5780 0.5780 0.5770 0.5750
12.416000 0.5730 0.5720 0.5700 0.5700 0.5700
12.450146 0.5670 0.5650 0.5580 0.5560 0.5530
12.485000 0.5500 0.5460 0.5440 0.5430 0.5430
12.519146 0.5410 0.5380 0.5360 0.5340 0.5310
12.553000 0.5310 0.5290 0.5280 0.5260 0.5220
12.587146 0.5190 0.5160 0.5120 0.5110 0.5070
12.621000 0.5040 0.5000 0.4990 0.4950 0.4920
12.655146 0.4870 0.4820 0.4800 0.4800 0.4770
12.689000 0.4770 0.4750 0.4710 0.4680 0.4660
12.723146 0.4650 0.4630 0.4600 0.4580 0.4560
12.758000 0.4550 0.4490 0.4440 0.4440 0.4430
12.792146 0.4390 0.4380 0.4360 0.4320 0.4310
12.826000 0.4270 0.4270 0.4240 0.4220 0.4210
12.860146 0.4190 0.4170 0.4170 0.4150 0.4140
12.894000 0.4120 0.4090 0.4070 0.4050 0.4050
12.928146 0.4040 0.4020 0.4000 0.3950 0.3920
12.962000 0.3870 0.3850 0.3830 0.3830 0.3820
12.996146 0.3800 0.3780 0.3750 0.3730 0.3730
13.031000 0.3710 0.3680 0.3660 0.3650 0.3630
13.065146 0.3590 0.3580 0.3560 0.3560 0.3530
13.099000 0.3530 0.3510 0.3490 0.3460 0.3440
13.133146 0.3420 0.3410 0.3410 0.3390 0.3390
13.167000 0.3390 0.3360 0.3340 0.3320 0.3290
13.201146 0.3250 0.3220 0.3190 0.3170 0.3170
13.235000 0.3150 0.3140 0.3120 0.3120 0.3080
13.269146 0.3030 0.3020 0.3000 0.2950 0.2920
13.304000 0.2900 0.2880 0.2860 0.2860 0.2850
13.338146 0.2810 0.2780 0.2730 0.2730 0.2690
13.372000 0.2690 0.2660 0.2640 0.2640 0.2610
13.406146 0.2590 0.2520 0.2490 0.2460 0.2420
13.440000 0.2420 0.2390 0.2370 0.2370 0.2290
13.474146 0.2250 0.2240 0.2200 0.2150 0.2130
13.509000 0.2130 0.2130 0.2120 0.2080 0.2070
13.543146 0.2050 0.2030 0.2030 0.2030 0.2050
13.577000 0.2070 0.2070 0.2080 0.2100 0.2100
13.611146 0.2120 0.2130 0.2150 0.2170 0.2170
13.645000 0.2190 0.2200 0.2200 0.2220 0.2220
13.679146 0.2240 0.2240 0.2250 0.2270 0.2270
13.713000 0.2300 0.2320 0.2320 0.2320 0.2320
13.747146 0.2320 0.2300 0.2300 0.2300 0.2290
13.782000 0.2270 0.2270 0.2270 0.2250 0.2240
13.816146 0.2240 0.2220 0.2220 0.2200 0.2190
13.850000 0.2190 0.2190 0.2170 0.2170 0.2170
13.884146 0.2170 0.2170 0.2170 0.2170 0.2170
13.918000 0.2150 0.2150 0.2120 0.2100 0.2100
13.952146 0.2100 0.2100 0.2100 0.2100 0.2100
13.986000 0.2130 0.2130 0.2150 0.2150 0.2170
14.020146 0.2150 0.2150 0.2150 0.2150 0.2130
14.055000 0.2130 0.2130 0.2130 0.2120 0.2120
14.089146 0.2120 0.2100 0.2100 0.2100 0.2080
14.123000 0.2080 0.2080 0.2070 0.2070 0.2070
14.157146 0.2070 0.2050 0.2050 0.2050 0.2050
14.191000 0.2050 0.2030 0.2030 0.2020 0.2020
14.225146 0.2000 0.2000 0.1980 0.1980 0.1980
14.259000 0.1980 0.1980 0.1960 0.1960 0.1960
14.293146 0.1960 0.1960 0.1950 0.1950 0.1950
14.328000 0.1930 0.1930 0.1930 0.1910 0.1910
14.362146 0.1910 0.1900 0.1900 0.1900 0.1900
14.396000 0.1900 0.1900 0.1900 0.1900 0.1900
14.430146 0.1900 0.1900 0.1900 0.1900 0.1900
14.464000 0.1900 0.1900 0.1900 0.1900 0.1900
14.498146 0.1900 0.1900 0.1880 0.1860 0.1860
14.532000 0.1860 0.1860 0.1860 0.1860 0.1880
14.566146 0.1900 0.1900 0.1900 0.1910 0.1910
14.601000 0.1900 0.1900 0.1900 0.1900 0.1900
14.635146 0.1900 0.1900 0.1900 0.1900 0.1880
14.669000 0.1900 0.1900 0.1900 0.1900 0.1900
14.703146 0.1900 0.1900 0.1900 0.1900 0.1900
14.737000 0.1900 0.1900 0.1910 0.1930 0.1930
14.771146 0.1930 0.1950 0.1950 0.1950 0.1960
14.805000 0.1960 0.1960 0.1980 0.1980 0.1980
14.839146 0.2000 0.2000 0.2000 0.2000 0.2000
14.874000 0.2000 0.2000 0.2020 0.2020 0.2020
14.908146 0.2030 0.2030 0.2030 0.2050 0.2050
14.942000 0.2070 0.2120 0.2150 0.2190 0.2240
14.976146 0.2270 0.2300 0.2340 0.2350 0.2390
15.010000 0.2460 0.2510 0.2520 0.2540 0.2580
15.044146 0.2610 0.2610 0.2610 0.2590 0.2560
15.078000 0.2490 0.2420 0.2320 0.2270 0.2220
15.112146 0.2200 0.2170 0.2150 0.2150 0.2150
15.147000 0.2150 0.2150 0.2170 0.2200 0.2250
15.181146 0.2290 0.2320 0.2350 0.2370 0.2410
15.215000 0.2420 0.2440 0.2460 0.2470 0.2510
15.249146 0.2520 0.2520 0.2540 0.2560 0.2580
15.283000 0.2580 0.2580 0.2590 0.2630 0.2710
15.317146 0.2730 0.2750 0.2750 0.2750 0.2760
15.352000 0.2780 0.2780 0.2800 0.2810 0.2830
15.386146 0.2850 0.2880 0.2900 0.2930 0.2930
15.420000 0.2950 0.2970 0.2980 0.2980 0.3000
15.454146 0.3000 0.3030 0.3070 0.3100 0.3120
15.488000 0.3140 0.3150 0.3150 0.3170 0.3190
15.522146 0.3190 0.3200 0.3220 0.3220 0.3220
15.556000 0.3250 0.3270 0.3290 0.3290 0.3310
15.590146 0.3320 0.3360 0.3390 0.3410 0.3420
15.625000 0.3420 0.3440 0.3460 0.3460 0.3480
15.659146 0.3490 0.3490 0.3510 0.3530 0.3530
15.693000 0.3540 0.3560 0.3580 0.3610 0.3650
15.727146 0.3660 0.3660 0.3660 0.3650 0.3660
15.761000 0.3660 0.3680 0.3700 0.3710 0.3730
15.795146 0.3730 0.3750 0.3760 0.3780 0.3780
15.829000 0.3830 0.3870 0.3880 0.3880 0.3930
15.863146 0.3950 0.3980 0.4000 0.4020 0.4040
15.898000 0.4050 0.4050 0.4050 0.4070 0.4090
15.932146 0.4100 0.4120 0.4140 0.4150 0.4150
15.966000 0.4150 0.4150 0.4150 0.4170 0.4150
##END=
