##TITLE=ETHYL LINOELAIDATE
##JCAMP-DX=4.24
##DATA TYPE=INFRARED SPECTRUM
##CLASS=COBLENTZ
##ORIGIN=HORMEL INSTITUTE
##OWNER=COBLENTZ SOCIETY
Collection (C) 2018 copyright by the U.S. Secretary of Commerce
on behalf of the United States of America. All rights reserved.
##DATE=Not specified, most likely prior to 1970
##NAMES=ethyl (6Z,9Z)-6,9-octadecadienoate
6,9-OCTADECADIENOIC ACID, ETHYL ESTER
##MOLFORM=C20 H36 O2
##SOURCE REFERENCE=COBLENTZ NO. 2006
##$NIST ID=B6002006
##$NIST SOURCE=COBLENTZ
##$NIST IMAGE=cob2006
##SPECTROMETER/DATA SYSTEM=PERKIN-ELMER
##STATE=SOLUTION (9.1% CS2 FOR 5000-2380 AND 1390-625, 9.1% C2Cl4 FOR 2380-1390 CM^-^1)
##PATH LENGTH=0.01 CM, 0.01 CM
##SAMPLING PROCEDURE=TRANSMISSION
##RESOLUTION=4
##DATA PROCESSING=DIGITIZED BY NIST FROM HARD COPY
##XUNITS=MICROMETERS
##YUNITS=TRANSMITTANCE
##XFACTOR=1.000000
##YFACTOR=1
##DELTAX=000.006764
##FIRSTX=2.007
##LASTX=14.9734
##FIRSTY=0.908
##MAXX=14.9734
##MINX=2.007
##MAXY=0.913
##MINY=0.06
##NPOINTS=1918
##XYDATA=(X++(Y..Y))
2.007000 0.9080 0.9080 0.9080 0.9080 0.9080
2.040837 0.9080 0.9080 0.9080 0.9080 0.9080
2.074000 0.9080 0.9080 0.9100 0.9080 0.9080
2.107837 0.9080 0.9080 0.9080 0.9080 0.9080
2.142000 0.9080 0.9100 0.9100 0.9100 0.9100
2.175837 0.9100 0.9100 0.9100 0.9100 0.9100
2.210000 0.9100 0.9100 0.9080 0.9080 0.9060
2.243837 0.9050 0.9010 0.9000 0.9000 0.8960
2.277000 0.8960 0.8950 0.8930 0.8860 0.8840
2.310837 0.8830 0.8810 0.8790 0.8790 0.8790
2.345000 0.8790 0.8790 0.8790 0.8790 0.8810
2.378837 0.8810 0.8810 0.8830 0.8830 0.8830
2.413000 0.8830 0.8840 0.8860 0.8860 0.8880
2.446837 0.8900 0.8900 0.8900 0.8900 0.8900
2.480000 0.8900 0.8910 0.8910 0.8930 0.8960
2.513837 0.8960 0.8960 0.8960 0.8960 0.8980
2.548000 0.8980 0.8980 0.8980 0.8980 0.9000
2.581837 0.9000 0.9000 0.9000 0.9000 0.9000
2.616000 0.9000 0.9000 0.9000 0.9000 0.9000
2.649837 0.9000 0.9000 0.9000 0.9000 0.9000
2.683000 0.9000 0.9000 0.9010 0.9010 0.9010
2.716837 0.9010 0.9010 0.9010 0.9010 0.9010
2.751000 0.9010 0.9010 0.9010 0.9000 0.9000
2.784837 0.9000 0.9000 0.9000 0.9000 0.9000
2.818000 0.9010 0.9000 0.9000 0.9000 0.8980
2.851837 0.8980 0.8960 0.8950 0.8950 0.8930
2.886000 0.8930 0.8880 0.8830 0.8810 0.8790
2.919837 0.8790 0.8810 0.8830 0.8830 0.8840
2.954000 0.8880 0.8880 0.8880 0.8880 0.8880
2.987837 0.8880 0.8880 0.8900 0.8900 0.8900
3.021000 0.8900 0.8900 0.8900 0.8900 0.8910
3.054837 0.8910 0.8910 0.8910 0.8910 0.8900
3.089000 0.8900 0.8900 0.8880 0.8880 0.8860
3.122837 0.8840 0.8840 0.8830 0.8830 0.8830
3.157000 0.8830 0.8830 0.8810 0.8810 0.8810
3.190837 0.8810 0.8810 0.8790 0.8780 0.8780
3.224000 0.8760 0.8740 0.8730 0.8710 0.8680
3.257837 0.8620 0.8570 0.8540 0.8510 0.8340
3.292000 0.8240 0.7950 0.7510 0.6540 0.6420
3.325837 0.6320 0.6100 0.5900 0.5140 0.4160
3.360000 0.3630 0.3350 0.3020 0.2570 0.1860
3.393837 0.1550 0.1400 0.1090 0.0930 0.0820
3.427000 0.0790 0.0810 0.1210 0.1810 0.2330
3.460837 0.2840 0.3190 0.3190 0.3160 0.3010
3.495000 0.2180 0.2160 0.2190 0.2890 0.3580
3.528837 0.3890 0.4210 0.5000 0.5800 0.6980
3.562000 0.7340 0.7460 0.7580 0.7810 0.7960
3.595837 0.8100 0.8200 0.8320 0.8400 0.8470
3.630000 0.8490 0.8520 0.8540 0.8560 0.8560
3.663837 0.8570 0.8590 0.8590 0.8590 0.8610
3.698000 0.8620 0.8640 0.8660 0.8680 0.8680
3.731837 0.8680 0.8680 0.8680 0.8690 0.8690
3.765000 0.8690 0.8690 0.8710 0.8710 0.8710
3.798837 0.8710 0.8740 0.8760 0.8780 0.8780
3.833000 0.8790 0.8790 0.8810 0.8810 0.8830
3.866837 0.8830 0.8840 0.8860 0.8880 0.8900
3.901000 0.8910 0.8930 0.8930 0.8930 0.8930
3.934837 0.8930 0.8930 0.8950 0.8950 0.8960
3.968000 0.8960 0.8960 0.8980 0.8980 0.8980
4.001837 0.9000 0.9000 0.9000 0.9000 0.9000
4.036000 0.9000 0.9000 0.9000 0.9000 0.9000
4.069837 0.9000 0.9000 0.9000 0.9000 0.9000
4.104000 0.9000 0.9000 0.9000 0.9000 0.9000
4.137837 0.9000 0.9000 0.9000 0.9000 0.9000
4.171000 0.9000 0.9000 0.9000 0.9000 0.9000
4.204837 0.9010 0.9030 0.9030 0.9030 0.9010
4.239000 0.9000 0.8960 0.8930 0.8930 0.8930
4.272837 0.8930 0.8930 0.8930 0.8930 0.8950
4.306000 0.8950 0.8950 0.8930 0.8930 0.8930
4.339837 0.8930 0.8930 0.8950 0.8980 0.9010
4.374000 0.9030 0.9100 0.9100 0.9100 0.9120
4.407837 0.9120 0.9120 0.9120 0.9100 0.9100
4.442000 0.9100 0.9100 0.9100 0.9100 0.9100
4.475837 0.9100 0.9100 0.9100 0.9100 0.9100
4.509000 0.9100 0.9100 0.9120 0.9120 0.9100
4.542837 0.9100 0.9100 0.9120 0.9120 0.9100
4.577000 0.9100 0.9100 0.9100 0.9100 0.9100
4.610837 0.9100 0.9100 0.9100 0.9100 0.9080
4.645000 0.9080 0.9100 0.9100 0.9100 0.9100
4.678837 0.9100 0.9100 0.9100 0.9120 0.9120
4.712000 0.9130 0.9130 0.9130 0.9130 0.9130
4.745837 0.9120 0.9120 0.9120 0.9120 0.9120
4.780000 0.9100 0.9100 0.9100 0.9080 0.9080
4.813837 0.9080 0.9080 0.9080 0.9080 0.9080
4.848000 0.9080 0.9080 0.9080 0.9080 0.9080
4.881837 0.9060 0.9060 0.9060 0.9060 0.9050
4.915000 0.9030 0.9030 0.9030 0.9030 0.9030
4.948837 0.9030 0.9050 0.9050 0.9050 0.9060
4.983000 0.9060 0.9060 0.9060 0.9060 0.9060
5.016837 0.9060 0.9050 0.9050 0.9050 0.9050
5.050000 0.9050 0.9050 0.9050 0.9050 0.9050
5.083837 0.9050 0.9050 0.9050 0.9050 0.9050
5.118000 0.9050 0.9050 0.9050 0.9050 0.9050
5.151837 0.9050 0.9050 0.9050 0.9050 0.9050
5.186000 0.9050 0.9050 0.9050 0.9050 0.9050
5.219837 0.9050 0.9050 0.9050 0.9050 0.9050
5.253000 0.9050 0.9050 0.9030 0.9030 0.9030
5.286837 0.9010 0.9010 0.9010 0.9000 0.9000
5.321000 0.9000 0.9000 0.9000 0.9000 0.9000
5.354837 0.9000 0.9000 0.9000 0.9000 0.9000
5.389000 0.9000 0.9000 0.8980 0.8980 0.8960
5.422837 0.8960 0.8960 0.8960 0.8950 0.8950
5.456000 0.8930 0.8910 0.8900 0.8900 0.8860
5.489837 0.8860 0.8860 0.8840 0.8810 0.8810
5.524000 0.8780 0.8780 0.8760 0.8740 0.8730
5.557837 0.8710 0.8690 0.8690 0.8640 0.8620
5.592000 0.8590 0.8520 0.8520 0.8510 0.8400
5.625837 0.8350 0.8300 0.8240 0.8200 0.8120
5.659000 0.8020 0.7860 0.7690 0.7610 0.7200
5.692837 0.7070 0.6410 0.5610 0.5210 0.3750
5.727000 0.2520 0.1640 0.1210 0.0990 0.0720
5.760837 0.0600 0.0600 0.1030 0.1920 0.2380
5.794000 0.2840 0.3330 0.4120 0.4630 0.4890
5.827837 0.5120 0.5820 0.6240 0.6460 0.6660
5.862000 0.6850 0.7020 0.7080 0.7140 0.7250
5.895837 0.7410 0.7470 0.7520 0.7610 0.7690
5.930000 0.7760 0.7830 0.7880 0.7980 0.8080
5.963837 0.8150 0.8180 0.8220 0.8240 0.8250
5.997000 0.8270 0.8290 0.8300 0.8300 0.8320
6.030837 0.8320 0.8340 0.8340 0.8350 0.8370
6.065000 0.8390 0.8400 0.8420 0.8440 0.8470
6.098837 0.8470 0.8490 0.8490 0.8510 0.8510
6.133000 0.8520 0.8520 0.8520 0.8520 0.8520
6.166837 0.8560 0.8560 0.8560 0.8570 0.8570
6.200000 0.8590 0.8590 0.8590 0.8610 0.8610
6.233837 0.8620 0.8620 0.8620 0.8640 0.8640
6.268000 0.8660 0.8660 0.8660 0.8680 0.8690
6.301837 0.8690 0.8710 0.8730 0.8730 0.8730
6.336000 0.8730 0.8730 0.8730 0.8710 0.8730
6.369837 0.8730 0.8730 0.8730 0.8730 0.8730
6.403000 0.8730 0.8730 0.8730 0.8730 0.8730
6.436837 0.8740 0.8740 0.8740 0.8730 0.8730
6.471000 0.8710 0.8710 0.8710 0.8710 0.8730
6.504837 0.8740 0.8740 0.8740 0.8740 0.8740
6.539000 0.8740 0.8730 0.8730 0.8690 0.8640
6.572837 0.8590 0.8520 0.8510 0.8400 0.8400
6.606000 0.8400 0.8400 0.8400 0.8420 0.8420
6.639837 0.8440 0.8490 0.8490 0.8520 0.8540
6.674000 0.8540 0.8520 0.8520 0.8490 0.8470
6.707837 0.8460 0.8400 0.8350 0.8300 0.8240
6.741000 0.8120 0.7980 0.7660 0.7190 0.7100
6.774837 0.7030 0.7020 0.6900 0.6420 0.5830
6.809000 0.5210 0.4170 0.4010 0.4010 0.4020
6.842837 0.4060 0.4110 0.4210 0.4360 0.4530
6.877000 0.4720 0.4780 0.4900 0.5020 0.5140
6.910837 0.5140 0.5100 0.5090 0.5070 0.5070
6.944000 0.5100 0.5210 0.5270 0.5320 0.5410
6.977837 0.5480 0.5530 0.5560 0.5660 0.5730
7.012000 0.5850 0.5970 0.6040 0.6100 0.6150
7.045837 0.6240 0.6440 0.6640 0.6880 0.7070
7.080000 0.7150 0.7270 0.7320 0.7370 0.7410
7.113837 0.7440 0.7470 0.7470 0.7420 0.7390
7.147000 0.7360 0.7270 0.7190 0.7100 0.6950
7.180837 0.6830 0.6800 0.6780 0.6760 0.6760
7.215000 0.6710 0.6660 0.6530 0.6270 0.5920
7.248837 0.5600 0.5320 0.4720 0.4410 0.4290
7.283000 0.4280 0.4280 0.4290 0.4410 0.4730
7.316837 0.4900 0.5070 0.5410 0.5750 0.6020
7.350000 0.6190 0.6290 0.6320 0.6340 0.6260
7.383837 0.6170 0.6020 0.6000 0.5880 0.5780
7.418000 0.5710 0.5700 0.5700 0.5730 0.5820
7.451837 0.5830 0.5920 0.6020 0.6100 0.6140
7.485000 0.6170 0.6200 0.6200 0.6270 0.6310
7.518837 0.6320 0.6340 0.6320 0.6290 0.6220
7.553000 0.6200 0.6190 0.6170 0.6070 0.6020
7.586837 0.5920 0.5870 0.5830 0.5780 0.5710
7.621000 0.5680 0.5650 0.5610 0.5600 0.5540
7.654837 0.5530 0.5480 0.5410 0.5360 0.5320
7.688000 0.5310 0.5310 0.5310 0.5320 0.5440
7.721837 0.5530 0.5610 0.5650 0.5710 0.5750
7.756000 0.5800 0.5850 0.5870 0.5880 0.5880
7.789837 0.5880 0.5870 0.5830 0.5800 0.5760
7.824000 0.5710 0.5700 0.5700 0.5700 0.5700
7.857837 0.5680 0.5660 0.5650 0.5610 0.5600
7.891000 0.5580 0.5540 0.5490 0.5440 0.5390
7.924837 0.5320 0.5260 0.5220 0.5160 0.5090
7.959000 0.5040 0.5000 0.4870 0.4820 0.4730
7.992837 0.4680 0.4610 0.4550 0.4480 0.4410
8.027000 0.4380 0.4330 0.4280 0.4260 0.4240
8.060837 0.4240 0.4240 0.4260 0.4290 0.4330
8.094000 0.4390 0.4410 0.4500 0.4550 0.4580
8.127837 0.4600 0.4630 0.4700 0.4720 0.4730
8.162000 0.4770 0.4820 0.4850 0.4890 0.4890
8.195837 0.4890 0.4890 0.4890 0.4890 0.4870
8.229000 0.4830 0.4830 0.4800 0.4770 0.4750
8.262837 0.4730 0.4700 0.4650 0.4610 0.4580
8.297000 0.4510 0.4480 0.4410 0.4340 0.4310
8.330837 0.4240 0.4190 0.4110 0.4040 0.3900
8.365000 0.3770 0.3700 0.3580 0.3530 0.3430
8.398837 0.3330 0.3240 0.3140 0.3040 0.2920
8.432000 0.2840 0.2750 0.2690 0.2620 0.2530
8.465837 0.2400 0.2360 0.2350 0.2350 0.2350
8.500000 0.2350 0.2380 0.2450 0.2480 0.2520
8.533837 0.2600 0.2620 0.2720 0.2770 0.2840
8.568000 0.2890 0.2960 0.2970 0.3010 0.3020
8.601837 0.3040 0.3090 0.3160 0.3240 0.3330
8.635000 0.3410 0.3510 0.3570 0.3720 0.3820
8.668837 0.3970 0.4120 0.4210 0.4340 0.4450
8.703000 0.4560 0.4630 0.4770 0.4870 0.4970
8.736837 0.5000 0.5020 0.5040 0.5070 0.5160
8.771000 0.5220 0.5310 0.5380 0.5410 0.5430
8.804837 0.5510 0.5540 0.5600 0.5660 0.5710
8.838000 0.5730 0.5760 0.5820 0.5850 0.5870
8.871837 0.5880 0.5900 0.5900 0.5900 0.5880
8.906000 0.5880 0.5870 0.5850 0.5830 0.5820
8.939837 0.5800 0.5780 0.5760 0.5750 0.5710
8.973000 0.5700 0.5700 0.5700 0.5700 0.5700
9.006837 0.5700 0.5700 0.5700 0.5680 0.5660
9.041000 0.5650 0.5610 0.5580 0.5540 0.5510
9.074837 0.5410 0.5390 0.5320 0.5270 0.5220
9.109000 0.5190 0.5140 0.5100 0.5070 0.5070
9.142837 0.5090 0.5100 0.5160 0.5220 0.5290
9.176000 0.5410 0.5490 0.5510 0.5600 0.5650
9.209837 0.5710 0.5850 0.5950 0.6040 0.6050
9.244000 0.6090 0.6140 0.6170 0.6240 0.6370
9.277837 0.6420 0.6460 0.6490 0.6540 0.6610
9.312000 0.6660 0.6710 0.6750 0.6780 0.6800
9.345837 0.6800 0.6810 0.6830 0.6850 0.6860
9.379000 0.6880 0.6880 0.6880 0.6880 0.6880
9.412837 0.6880 0.6860 0.6860 0.6850 0.6850
9.447000 0.6830 0.6830 0.6810 0.6780 0.6780
9.480837 0.6760 0.6750 0.6730 0.6710 0.6680
9.515000 0.6640 0.6610 0.6580 0.6530 0.6490
9.548837 0.6370 0.6340 0.6220 0.6150 0.6120
9.582000 0.5980 0.5850 0.5700 0.5610 0.5510
9.615837 0.5410 0.5290 0.5190 0.5100 0.5000
9.650000 0.4890 0.4870 0.4820 0.4820 0.4830
9.683837 0.4870 0.4920 0.4970 0.5020 0.5120
9.717000 0.5260 0.5410 0.5560 0.5700 0.5760
9.750837 0.5850 0.6000 0.6020 0.6070 0.6100
9.785000 0.6320 0.6390 0.6490 0.6580 0.6640
9.818837 0.6730 0.6810 0.6880 0.6980 0.6980
9.853000 0.7000 0.7070 0.7120 0.7190 0.7240
9.886837 0.7250 0.7270 0.7290 0.7340 0.7410
9.920000 0.7440 0.7460 0.7470 0.7490 0.7510
9.953837 0.7510 0.7540 0.7560 0.7580 0.7580
9.988000 0.7590 0.7590 0.7610 0.7610 0.7610
10.021837 0.7610 0.7610 0.7590 0.7580 0.7540
10.056000 0.7520 0.7510 0.7390 0.7320 0.7250
10.089837 0.7170 0.7100 0.7000 0.6880 0.6830
10.123000 0.6800 0.6390 0.6260 0.6140 0.6070
10.156837 0.6040 0.6020 0.6000 0.5980 0.5980
10.191000 0.5930 0.5900 0.5880 0.5780 0.5650
10.224837 0.5480 0.5220 0.5040 0.4610 0.4360
10.259000 0.4110 0.3800 0.3550 0.3240 0.3110
10.292837 0.2910 0.2630 0.2580 0.2210 0.2110
10.326000 0.1990 0.1940 0.1920 0.1920 0.1920
10.359837 0.1940 0.2130 0.2360 0.2450 0.2530
10.394000 0.3020 0.3310 0.3680 0.4120 0.4560
10.427837 0.4900 0.5000 0.5100 0.5390 0.5730
10.461000 0.5900 0.6120 0.6320 0.6510 0.6610
10.494837 0.6760 0.6850 0.6980 0.7070 0.7150
10.529000 0.7220 0.7240 0.7290 0.7340 0.7370
10.562837 0.7420 0.7470 0.7490 0.7510 0.7540
10.597000 0.7560 0.7580 0.7610 0.7640 0.7680
10.630837 0.7710 0.7710 0.7710 0.7740 0.7760
10.664000 0.7810 0.7830 0.7850 0.7850 0.7830
10.697837 0.7830 0.7850 0.7860 0.7900 0.7930
10.732000 0.7950 0.7950 0.7950 0.7950 0.7950
10.765837 0.7950 0.7950 0.7960 0.7980 0.7980
10.800000 0.7980 0.7980 0.7980 0.7980 0.7960
10.833837 0.7960 0.7960 0.7960 0.8000 0.8000
10.867000 0.8000 0.8000 0.7980 0.7980 0.7980
10.900837 0.7980 0.7980 0.7980 0.7980 0.8000
10.935000 0.8020 0.8020 0.8020 0.8020 0.8030
10.968837 0.8050 0.8050 0.8050 0.8050 0.8070
11.003000 0.8070 0.8080 0.8100 0.8100 0.8100
11.036837 0.8100 0.8100 0.8120 0.8130 0.8130
11.070000 0.8150 0.8170 0.8170 0.8170 0.8170
11.103837 0.8180 0.8200 0.8220 0.8220 0.8220
11.138000 0.8200 0.8200 0.8200 0.8200 0.8220
11.171837 0.8220 0.8220 0.8240 0.8240 0.8240
11.206000 0.8240 0.8240 0.8240 0.8240 0.8250
11.239837 0.8250 0.8250 0.8270 0.8270 0.8290
11.273000 0.8300 0.8320 0.8320 0.8320 0.8320
11.306837 0.8320 0.8320 0.8320 0.8320 0.8320
11.341000 0.8300 0.8300 0.8300 0.8290 0.8270
11.374837 0.8270 0.8270 0.8270 0.8270 0.8270
11.408000 0.8270 0.8240 0.8240 0.8220 0.8220
11.441837 0.8220 0.8220 0.8200 0.8180 0.8170
11.476000 0.8170 0.8150 0.8130 0.8130 0.8100
11.509837 0.8100 0.8080 0.8080 0.8080 0.8070
11.544000 0.8030 0.8030 0.8020 0.8000 0.8000
11.577837 0.7980 0.7960 0.7950 0.7930 0.7910
11.611000 0.7900 0.7880 0.7860 0.7860 0.7850
11.644837 0.7830 0.7830 0.7830 0.7830 0.7830
11.679000 0.7830 0.7850 0.7850 0.7850 0.7850
11.712837 0.7860 0.7880 0.7910 0.7950 0.7950
11.747000 0.7960 0.7960 0.8000 0.8030 0.8070
11.780837 0.8080 0.8100 0.8100 0.8130 0.8170
11.814000 0.8200 0.8200 0.8220 0.8220 0.8240
11.847837 0.8240 0.8250 0.8270 0.8270 0.8270
11.882000 0.8290 0.8320 0.8340 0.8350 0.8350
11.915837 0.8370 0.8370 0.8370 0.8370 0.8370
11.950000 0.8370 0.8370 0.8370 0.8370 0.8370
11.983837 0.8370 0.8390 0.8400 0.8440 0.8440
12.017000 0.8460 0.8460 0.8460 0.8460 0.8460
12.050837 0.8460 0.8460 0.8460 0.8440 0.8440
12.085000 0.8440 0.8440 0.8460 0.8460 0.8470
12.118837 0.8470 0.8470 0.8440 0.8440 0.8440
12.152000 0.8440 0.8420 0.8420 0.8420 0.8420
12.185837 0.8440 0.8440 0.8440 0.8440 0.8460
12.220000 0.8460 0.8440 0.8440 0.8420 0.8420
12.253837 0.8420 0.8420 0.8420 0.8420 0.8420
12.288000 0.8420 0.8400 0.8400 0.8390 0.8370
12.321837 0.8350 0.8350 0.8340 0.8320 0.8300
12.355000 0.8300 0.8290 0.8290 0.8290 0.8270
12.388837 0.8250 0.8250 0.8240 0.8240 0.8220
12.423000 0.8220 0.8220 0.8220 0.8220 0.8220
12.456837 0.8200 0.8200 0.8200 0.8200 0.8200
12.491000 0.8200 0.8200 0.8200 0.8200 0.8200
12.524837 0.8200 0.8200 0.8200 0.8200 0.8180
12.558000 0.8180 0.8180 0.8180 0.8180 0.8180
12.591837 0.8180 0.8200 0.8200 0.8200 0.8180
12.626000 0.8180 0.8170 0.8170 0.8170 0.8180
12.659837 0.8180 0.8180 0.8180 0.8180 0.8200
12.694000 0.8200 0.8200 0.8180 0.8170 0.8150
12.727837 0.8150 0.8150 0.8130 0.8130 0.8130
12.761000 0.8150 0.8150 0.8130 0.8130 0.8130
12.794837 0.8130 0.8130 0.8130 0.8150 0.8150
12.829000 0.8150 0.8150 0.8170 0.8170 0.8170
12.862837 0.8170 0.8170 0.8180 0.8180 0.8180
12.896000 0.8180 0.8200 0.8200 0.8200 0.8200
12.929837 0.8220 0.8220 0.8220 0.8220 0.8240
12.964000 0.8240 0.8240 0.8240 0.8240 0.8240
12.997837 0.8240 0.8240 0.8240 0.8240 0.8240
13.032000 0.8240 0.8240 0.8240 0.8240 0.8240
13.065837 0.8240 0.8240 0.8240 0.8240 0.8240
13.099000 0.8240 0.8240 0.8240 0.8240 0.8240
13.132837 0.8250 0.8250 0.8250 0.8250 0.8250
13.167000 0.8250 0.8250 0.8250 0.8240 0.8240
13.200837 0.8220 0.8220 0.8240 0.8240 0.8240
13.235000 0.8250 0.8250 0.8250 0.8240 0.8240
13.268837 0.8240 0.8240 0.8240 0.8240 0.8240
13.302000 0.8240 0.8240 0.8240 0.8240 0.8240
13.335837 0.8240 0.8240 0.8240 0.8240 0.8240
13.370000 0.8240 0.8220 0.8220 0.8200 0.8200
13.403837 0.8180 0.8180 0.8170 0.8170 0.8170
13.438000 0.8170 0.8150 0.8130 0.8130 0.8120
13.471837 0.8120 0.8100 0.8100 0.8100 0.8100
13.505000 0.8100 0.8100 0.8100 0.8100 0.8100
13.538837 0.8080 0.8080 0.8080 0.8070 0.8050
13.573000 0.8030 0.8000 0.7960 0.7950 0.7930
13.606837 0.7930 0.7910 0.7900 0.7880 0.7860
13.640000 0.7850 0.7830 0.7800 0.7760 0.7740
13.673837 0.7730 0.7710 0.7660 0.7640 0.7630
13.708000 0.7610 0.7580 0.7560 0.7510 0.7470
13.741837 0.7440 0.7420 0.7410 0.7370 0.7360
13.776000 0.7320 0.7290 0.7240 0.7220 0.7220
13.809837 0.7200 0.7200 0.7200 0.7200 0.7220
13.843000 0.7220 0.7240 0.7250 0.7270 0.7270
13.876837 0.7340 0.7360 0.7440 0.7490 0.7520
13.911000 0.7540 0.7590 0.7640 0.7660 0.7680
13.944837 0.7730 0.7740 0.7780 0.7860 0.7910
13.979000 0.7930 0.7930 0.7950 0.7960 0.8020
14.012837 0.8030 0.8070 0.8080 0.8100 0.8130
14.046000 0.8170 0.8170 0.8180 0.8200 0.8220
14.079837 0.8220 0.8240 0.8240 0.8250 0.8270
14.114000 0.8290 0.8300 0.8320 0.8340 0.8350
14.147837 0.8370 0.8370 0.8370 0.8370 0.8390
14.182000 0.8400 0.8420 0.8440 0.8460 0.8460
14.215837 0.8460 0.8470 0.8470 0.8470 0.8490
14.249000 0.8490 0.8490 0.8510 0.8510 0.8510
14.282837 0.8510 0.8510 0.8520 0.8520 0.8520
14.317000 0.8520 0.8520 0.8520 0.8520 0.8520
14.350837 0.8520 0.8540 0.8560 0.8560 0.8570
14.384000 0.8570 0.8570 0.8570 0.8590 0.8610
14.417837 0.8610 0.8620 0.8620 0.8620 0.8620
14.452000 0.8620 0.8640 0.8640 0.8640 0.8640
14.485837 0.8640 0.8660 0.8660 0.8660 0.8660
14.520000 0.8660 0.8680 0.8680 0.8690 0.8690
14.553837 0.8690 0.8690 0.8730 0.8730 0.8740
14.587000 0.8740 0.8760 0.8780 0.8780 0.8780
14.620837 0.8780 0.8780 0.8780 0.8780 0.8780
14.655000 0.8780 0.8780 0.8780 0.8790 0.8790
14.688837 0.8790 0.8790 0.8790 0.8780 0.8780
14.723000 0.8780 0.8790 0.8810 0.8840 0.8840
14.756837 0.8840 0.8830 0.8810 0.8810 0.8810
14.790000 0.8810 0.8810 0.8830 0.8830 0.8830
14.823837 0.8830 0.8830 0.8830 0.8830 0.8840
14.858000 0.8840 0.8830 0.8830 0.8830 0.8830
14.891837 0.8830 0.8840 0.8840 0.8840 0.8840
14.926000 0.8840 0.8840 0.8830 0.8780 0.8760
14.959837 0.8740 0.8730 0.8730
##END=
