##TITLE=Bis[5-tetrazolylazo]acetic acid, ethyl ester, disodium deriv. trihydrate
##JCAMP-DX=4.24
$$ By DXEDIT 1.05 (RS McDonald)
##DATA TYPE=INFRARED SPECTRUM
##CLASS=COBLENTZ III
##ORIGIN=DOW CHEMICAL COMPANY
##OWNER=COPYRIGHT (C) 1988 by COBLENTZ SOCIETY INC.
Collection (C) 2018 copyright by the U.S. Secretary of Commerce
on behalf of the United States of America. All rights reserved.
##DATE=1965/12/14
##MOLFORM=C3 H6 Na2 N12 O2  * 3 H2 O
##SOURCE REFERENCE=COBLENTZ NO. 06700
##$NIST ID=B6006700
##$NIST SOURCE=COBLENTZ
##$NIST IMAGE=cob6700
##SPECTROMETER/DATA SYSTEM=DOW KBr FOREPRISM-GRATING
##INSTRUMENT PARAMETERS=BLAZED AT 3.5, 12.0, 20.0 MICRON AND CHANGED AT 5.0, 7.5, 14.9 MICRON
##STATE=SOLID (SPLIT MULL)
##SAMPLING PROCEDURE=TRANSMISSION
##RESOLUTION=2
##DATA PROCESSING=DIGITIZED BY COBLENTZ SOCIETY (BATCH I) FROM HARD COPY
##XUNITS=1/CM
##YUNITS=TRANSMITTANCE
##XFACTOR=1
##YFACTOR=1
##DELTAX=1
##FIRSTX=3800
##LASTX=382
##FIRSTY=0.8487
##MAXX=3800
##MINX=382
##MAXY=0.958
##MINY=0.1254
##NPOINTS=3419
##XYDATA=(X++(Y..Y))
3800.000000 0.8487 0.8487 0.8487 0.8487 0.8488
3795.000000 0.8489 0.8490 0.8491 0.8492 0.8493
3790.000000 0.8494 0.8494 0.8495 0.8496 0.8497
3785.000000 0.8498 0.8499 0.8500 0.8501 0.8502
3780.000000 0.8503 0.8504 0.8505 0.8506 0.8507
3775.000000 0.8508 0.8510 0.8511 0.8512 0.8513
3770.000000 0.8514 0.8515 0.8516 0.8516 0.8517
3765.000000 0.8517 0.8518 0.8518 0.8520 0.8520
3760.000000 0.8521 0.8523 0.8525 0.8528 0.8531
3755.000000 0.8534 0.8537 0.8539 0.8542 0.8544
3750.000000 0.8547 0.8549 0.8552 0.8553 0.8555
3745.000000 0.8556 0.8558 0.8559 0.8561 0.8562
3740.000000 0.8563 0.8564 0.8566 0.8567 0.8568
3735.000000 0.8568 0.8568 0.8567 0.8567 0.8566
3730.000000 0.8566 0.8565 0.8565 0.8564 0.8564
3725.000000 0.8563 0.8563 0.8562 0.8562 0.8561
3720.000000 0.8561 0.8560 0.8560 0.8559 0.8558
3715.000000 0.8556 0.8554 0.8552 0.8551 0.8549
3710.000000 0.8547 0.8545 0.8544 0.8542 0.8540
3705.000000 0.8538 0.8537 0.8534 0.8531 0.8528
3700.000000 0.8525 0.8521 0.8518 0.8516 0.8514
3695.000000 0.8511 0.8508 0.8505 0.8502 0.8499
3690.000000 0.8496 0.8490 0.8485 0.8478 0.8471
3685.000000 0.8465 0.8459 0.8452 0.8446 0.8439
3680.000000 0.8433 0.8425 0.8418 0.8409 0.8400
3675.000000 0.8390 0.8381 0.8371 0.8362 0.8353
3670.000000 0.8344 0.8330 0.8316 0.8299 0.8283
3665.000000 0.8266 0.8250 0.8233 0.8217 0.8198
3660.000000 0.8180 0.8154 0.8128 0.8103 0.8078
3655.000000 0.8053 0.8028 0.7999 0.7969 0.7939
3650.000000 0.7908 0.7878 0.7848 0.7814 0.7780
3645.000000 0.7738 0.7696 0.7654 0.7611 0.7569
3640.000000 0.7528 0.7491 0.7454 0.7415 0.7378
3635.000000 0.7340 0.7303 0.7262 0.7222 0.7175
3630.000000 0.7128 0.7080 0.7033 0.6985 0.6938
3625.000000 0.6895 0.6853 0.6811 0.6771 0.6731
3620.000000 0.6691 0.6650 0.6610 0.6568 0.6528
3615.000000 0.6488 0.6448 0.6407 0.6366 0.6322
3610.000000 0.6278 0.6229 0.6181 0.6124 0.6067
3605.000000 0.5999 0.5932 0.5862 0.5795 0.5726
3600.000000 0.5657 0.5592 0.5528 0.5471 0.5414
3595.000000 0.5374 0.5335 0.5295 0.5256 0.5226
3590.000000 0.5196 0.5168 0.5141 0.5114 0.5087
3585.000000 0.5051 0.5015 0.4977 0.4940 0.4896
3580.000000 0.4853 0.4804 0.4756 0.4718 0.4680
3575.000000 0.4651 0.4622 0.4593 0.4565 0.4547
3570.000000 0.4530 0.4514 0.4498 0.4482 0.4467
3565.000000 0.4452 0.4437 0.4427 0.4417 0.4409
3560.000000 0.4401 0.4395 0.4390 0.4389 0.4388
3555.000000 0.4387 0.4387 0.4387 0.4387 0.4387
3550.000000 0.4388 0.4388 0.4388 0.4388 0.4388
3545.000000 0.4386 0.4384 0.4382 0.4380 0.4378
3540.000000 0.4376 0.4374 0.4372 0.4370 0.4368
3535.000000 0.4367 0.4366 0.4365 0.4364 0.4362
3530.000000 0.4360 0.4360 0.4359 0.4358 0.4357
3525.000000 0.4355 0.4354 0.4351 0.4348 0.4339
3520.000000 0.4330 0.4321 0.4312 0.4298 0.4283
3515.000000 0.4266 0.4249 0.4232 0.4215 0.4198
3510.000000 0.4182 0.4165 0.4148 0.4131 0.4115
3505.000000 0.4092 0.4068 0.4044 0.4020 0.3996
3500.000000 0.3972 0.3948 0.3924 0.3899 0.3875
3495.000000 0.3849 0.3823 0.3795 0.3766 0.3738
3490.000000 0.3709 0.3682 0.3654 0.3626 0.3598
3485.000000 0.3571 0.3544 0.3518 0.3492 0.3466
3480.000000 0.3441 0.3414 0.3389 0.3366 0.3345
3475.000000 0.3326 0.3308 0.3290 0.3272 0.3254
3470.000000 0.3236 0.3216 0.3199 0.3181 0.3163
3465.000000 0.3142 0.3122 0.3099 0.3077 0.3054
3460.000000 0.3032 0.3009 0.2985 0.2958 0.2931
3455.000000 0.2900 0.2870 0.2840 0.2810 0.2780
3450.000000 0.2750 0.2720 0.2691 0.2661 0.2631
3445.000000 0.2603 0.2575 0.2551 0.2527 0.2502
3440.000000 0.2478 0.2454 0.2430 0.2406 0.2382
3435.000000 0.2362 0.2343 0.2324 0.2306 0.2287
3430.000000 0.2268 0.2249 0.2231 0.2213 0.2195
3425.000000 0.2179 0.2163 0.2147 0.2132 0.2116
3420.000000 0.2101 0.2084 0.2069 0.2054 0.2039
3415.000000 0.2028 0.2018 0.2007 0.1995 0.1984
3410.000000 0.1975 0.1964 0.1954 0.1943 0.1932
3405.000000 0.1922 0.1912 0.1901 0.1891 0.1881
3400.000000 0.1871 0.1861 0.1851 0.1841 0.1831
3395.000000 0.1820 0.1810 0.1800 0.1790 0.1782
3390.000000 0.1775 0.1768 0.1761 0.1754 0.1748
3385.000000 0.1741 0.1734 0.1727 0.1720 0.1713
3380.000000 0.1706 0.1699 0.1693 0.1685 0.1679
3375.000000 0.1675 0.1671 0.1667 0.1663 0.1658
3370.000000 0.1654 0.1649 0.1644 0.1641 0.1636
3365.000000 0.1632 0.1628 0.1624 0.1620 0.1615
3360.000000 0.1611 0.1606 0.1602 0.1598 0.1594
3355.000000 0.1591 0.1588 0.1584 0.1581 0.1578
3350.000000 0.1575 0.1572 0.1569 0.1566 0.1563
3345.000000 0.1560 0.1557 0.1554 0.1551 0.1548
3340.000000 0.1545 0.1542 0.1539 0.1535 0.1532
3335.000000 0.1528 0.1525 0.1521 0.1518 0.1514
3330.000000 0.1511 0.1507 0.1504 0.1500 0.1496
3325.000000 0.1492 0.1490 0.1486 0.1482 0.1478
3320.000000 0.1474 0.1470 0.1466 0.1462 0.1458
3315.000000 0.1455 0.1453 0.1452 0.1452 0.1451
3310.000000 0.1451 0.1450 0.1449 0.1448 0.1448
3305.000000 0.1446 0.1446 0.1446 0.1446 0.1445
3300.000000 0.1444 0.1444 0.1444 0.1444 0.1444
3295.000000 0.1444 0.1444 0.1444 0.1444 0.1444
3290.000000 0.1444 0.1444 0.1444 0.1442 0.1442
3285.000000 0.1441 0.1440 0.1438 0.1436 0.1434
3280.000000 0.1432 0.1429 0.1427 0.1423 0.1420
3275.000000 0.1416 0.1412 0.1407 0.1403 0.1398
3270.000000 0.1394 0.1390 0.1386 0.1381 0.1377
3265.000000 0.1371 0.1366 0.1359 0.1352 0.1345
3260.000000 0.1339 0.1332 0.1325 0.1318 0.1311
3255.000000 0.1304 0.1296 0.1292 0.1287 0.1283
3250.000000 0.1279 0.1275 0.1271 0.1267 0.1263
3245.000000 0.1260 0.1258 0.1257 0.1256 0.1255
3240.000000 0.1254 0.1259 0.1265 0.1272 0.1299
3235.000000 0.1286 0.1292 0.1300 0.1308 0.1318
3230.000000 0.1329 0.1339 0.1350 0.1360 0.1371
3225.000000 0.1381 0.1392 0.1402 0.1413 0.1429
3220.000000 0.1445 0.1462 0.1479 0.1495 0.1512
3215.000000 0.1528 0.1545 0.1563 0.1581 0.1602
3210.000000 0.1623 0.1643 0.1664 0.1684 0.1704
3205.000000 0.1726 0.1746 0.1767 0.1787 0.1816
3200.000000 0.1844 0.1877 0.1909 0.1941 0.1973
3195.000000 0.2004 0.2037 0.2070 0.2102 0.2134
3190.000000 0.2167 0.2199 0.2232 0.2264 0.2297
3185.000000 0.2329 0.2362 0.2394 0.2427 0.2462
3180.000000 0.2498 0.2537 0.2576 0.2615 0.2654
3175.000000 0.2692 0.2731 0.2770 0.2809 0.2845
3170.000000 0.2881 0.2906 0.2932 0.2958 0.2984
3165.000000 0.3010 0.3035 0.3062 0.3088 0.3113
3160.000000 0.3139 0.3165 0.3191 0.3216 0.3243
3155.000000 0.3268 0.3295 0.3316 0.3337 0.3357
3150.000000 0.3377 0.3397 0.3416 0.3437 0.3457
3145.000000 0.3477 0.3497 0.3516 0.3538 0.3558
3140.000000 0.3578 0.3598 0.3618 0.3638 0.3658
3135.000000 0.3678 0.3698 0.3720 0.3743 0.3768
3130.000000 0.3793 0.3818 0.3843 0.3868 0.3893
3125.000000 0.3916 0.3942 0.3966 0.3992 0.4016
3120.000000 0.4042 0.4066 0.4092 0.4114 0.4137
3115.000000 0.4158 0.4180 0.4202 0.4224 0.4246
3110.000000 0.4268 0.4290 0.4312 0.4334 0.4356
3105.000000 0.4378 0.4400 0.4419 0.4438 0.4455
3100.000000 0.4473 0.4490 0.4507 0.4524 0.4541
3095.000000 0.4558 0.4576 0.4593 0.4610 0.4627
3090.000000 0.4644 0.4660 0.4679 0.4696 0.4712
3085.000000 0.4729 0.4746 0.4760 0.4777 0.4793
3080.000000 0.4809 0.4825 0.4841 0.4856 0.4872
3075.000000 0.4888 0.4904 0.4920 0.4936 0.4951
3070.000000 0.4967 0.4980 0.4994 0.5007 0.5021
3065.000000 0.5034 0.5048 0.5060 0.5075 0.5089
3060.000000 0.5103 0.5116 0.5130 0.5143 0.5157
3055.000000 0.5170 0.5184 0.5197 0.5210 0.5224
3050.000000 0.5237 0.5249 0.5260 0.5273 0.5286
3045.000000 0.5298 0.5310 0.5323 0.5336 0.5348
3040.000000 0.5360 0.5373 0.5386 0.5398 0.5410
3035.000000 0.5422 0.5435 0.5449 0.5464 0.5480
3030.000000 0.5496 0.5510 0.5527 0.5543 0.5559
3025.000000 0.5574 0.5590 0.5604 0.5618 0.5631
3020.000000 0.5645 0.5660 0.5675 0.5691 0.5707
3015.000000 0.5725 0.5744 0.5757 0.5770 0.5779
3010.000000 0.5788 0.5797 0.5807 0.5807 0.5808
3005.000000 0.5807 0.5805 0.5795 0.5786 0.5776
3000.000000 0.5767 0.5757 0.5747 0.5736 0.5726
2995.000000 0.5714 0.5703 0.5695 0.5688 0.5682
2990.000000 0.5677 0.5671 0.5666 0.5674 0.5683
2985.000000 0.5725 0.5768 0.5824 0.5880 0.5919
2980.000000 0.5958 0.5996 0.6035 0.6064 0.6093
2975.000000 0.6119 0.6145 0.6171 0.6197 0.6220
2970.000000 0.6243 0.6262 0.6282 0.6302 0.6322
2965.000000 0.6337 0.6352 0.6366 0.6380 0.6394
2960.000000 0.6408 0.6418 0.6428 0.6439 0.6449
2955.000000 0.6458 0.6468 0.6467 0.6467 0.6465
2950.000000 0.6462 0.6461 0.6458 0.6457 0.6455
2945.000000 0.6462 0.6471 0.6486 0.6500 0.6514
2940.000000 0.6528 0.6542 0.6556 0.6569 0.6584
2935.000000 0.6598 0.6611 0.6625 0.6639 0.6653
2930.000000 0.6667 0.6680 0.6693 0.6701 0.6708
2925.000000 0.6715 0.6724 0.6725 0.6728 0.6728
2920.000000 0.6728 0.6728 0.6728 0.6730 0.6731
2915.000000 0.6736 0.6742 0.6747 0.6753 0.6761
2910.000000 0.6771 0.6785 0.6799 0.6811 0.6825
2905.000000 0.6838 0.6851 0.6864 0.6878 0.6891
2900.000000 0.6904 0.6917 0.6930 0.6943 0.6956
2895.000000 0.6968 0.6982 0.6995 0.7008 0.7021
2890.000000 0.7034 0.7046 0.7058 0.7071 0.7085
2885.000000 0.7098 0.7111 0.7122 0.7136 0.7147
2880.000000 0.7158 0.7169 0.7182 0.7194 0.7206
2875.000000 0.7217 0.7228 0.7241 0.7253 0.7264
2870.000000 0.7275 0.7286 0.7297 0.7307 0.7318
2865.000000 0.7328 0.7338 0.7348 0.7358 0.7368
2860.000000 0.7378 0.7389 0.7399 0.7408 0.7418
2855.000000 0.7428 0.7439 0.7449 0.7460 0.7469
2850.000000 0.7481 0.7491 0.7501 0.7511 0.7522
2845.000000 0.7533 0.7544 0.7554 0.7564 0.7574
2840.000000 0.7585 0.7595 0.7606 0.7617 0.7628
2835.000000 0.7639 0.7651 0.7661 0.7672 0.7684
2830.000000 0.7695 0.7706 0.7718 0.7728 0.7740
2825.000000 0.7748 0.7756 0.7762 0.7771 0.7778
2820.000000 0.7786 0.7794 0.7801 0.7808 0.7817
2815.000000 0.7824 0.7831 0.7834 0.7837 0.7840
2810.000000 0.7843 0.7846 0.7849 0.7851 0.7854
2805.000000 0.7857 0.7860 0.7862 0.7865 0.7869
2800.000000 0.7875 0.7881 0.7887 0.7892 0.7898
2795.000000 0.7903 0.7908 0.7914 0.7919 0.7925
2790.000000 0.7931 0.7936 0.7942 0.7948 0.7954
2785.000000 0.7962 0.7971 0.7981 0.7991 0.8000
2780.000000 0.8010 0.8018 0.8028 0.8038 0.8047
2775.000000 0.8054 0.8061 0.8068 0.8076 0.8085
2770.000000 0.8093 0.8100 0.8108 0.8115 0.8124
2765.000000 0.8130 0.8137 0.8142 0.8148 0.8153
2760.000000 0.8158 0.8165 0.8171 0.8175 0.8182
2755.000000 0.8188 0.8194 0.8199 0.8205 0.8210
2750.000000 0.8216 0.8221 0.8228 0.8234 0.8241
2745.000000 0.8247 0.8253 0.8259 0.8266 0.8271
2740.000000 0.8278 0.8285 0.8291 0.8297 0.8304
2735.000000 0.8310 0.8317 0.8321 0.8327 0.8332
2730.000000 0.8337 0.8342 0.8348 0.8353 0.8358
2725.000000 0.8363 0.8368 0.8373 0.8378 0.8383
2720.000000 0.8388 0.8393 0.8399 0.8402 0.8406
2715.000000 0.8410 0.8414 0.8417 0.8421 0.8425
2710.000000 0.8428 0.8432 0.8436 0.8439 0.8443
2705.000000 0.8447 0.8451 0.8454 0.8458 0.8462
2700.000000 0.8466 0.8468 0.8473 0.8475 0.8480
2695.000000 0.8484 0.8488 0.8491 0.8495 0.8499
2690.000000 0.8503 0.8506 0.8510 0.8513 0.8517
2685.000000 0.8520 0.8524 0.8525 0.8528 0.8532
2680.000000 0.8535 0.8537 0.8540 0.8541 0.8543
2675.000000 0.8543 0.8544 0.8545 0.8546 0.8547
2670.000000 0.8548 0.8548 0.8549 0.8550 0.8551
2665.000000 0.8552 0.8553 0.8554 0.8555 0.8555
2660.000000 0.8556 0.8556 0.8557 0.8557 0.8557
2655.000000 0.8557 0.8558 0.8558 0.8558 0.8558
2650.000000 0.8559 0.8559 0.8559 0.8559 0.8559
2645.000000 0.8559 0.8559 0.8558 0.8558 0.8557
2640.000000 0.8556 0.8555 0.8555 0.8556 0.8558
2635.000000 0.8560 0.8562 0.8564 0.8566 0.8567
2630.000000 0.8568 0.8571 0.8573 0.8574 0.8575
2625.000000 0.8578 0.8580 0.8582 0.8584 0.8585
2620.000000 0.8587 0.8589 0.8591 0.8592 0.8594
2615.000000 0.8596 0.8598 0.8600 0.8603 0.8605
2610.000000 0.8608 0.8610 0.8613 0.8616 0.8618
2605.000000 0.8621 0.8624 0.8625 0.8628 0.8632
2600.000000 0.8635 0.8638 0.8641 0.8643 0.8646
2595.000000 0.8649 0.8652 0.8655 0.8658 0.8661
2590.000000 0.8664 0.8667 0.8670 0.8671 0.8675
2585.000000 0.8678 0.8681 0.8684 0.8687 0.8690
2580.000000 0.8693 0.8695 0.8698 0.8700 0.8702
2575.000000 0.8704 0.8706 0.8707 0.8709 0.8711
2570.000000 0.8713 0.8715 0.8717 0.8718 0.8721
2565.000000 0.8723 0.8725 0.8725 0.8728 0.8728
2560.000000 0.8731 0.8732 0.8734 0.8735 0.8737
2555.000000 0.8738 0.8740 0.8741 0.8743 0.8744
2550.000000 0.8746 0.8747 0.8749 0.8750 0.8750
2545.000000 0.8750 0.8750 0.8749 0.8749 0.8748
2540.000000 0.8748 0.8747 0.8747 0.8746 0.8746
2535.000000 0.8746 0.8746 0.8746 0.8746 0.8746
2530.000000 0.8746 0.8746 0.8746 0.8746 0.8746
2525.000000 0.8746 0.8746 0.8746 0.8747 0.8747
2520.000000 0.8748 0.8748 0.8749 0.8750 0.8751
2515.000000 0.8753 0.8756 0.8758 0.8760 0.8762
2510.000000 0.8764 0.8766 0.8768 0.8770 0.8771
2505.000000 0.8771 0.8771 0.8770 0.8768 0.8768
2500.000000 0.8767 0.8766 0.8765 0.8764 0.8763
2495.000000 0.8762 0.8761 0.8759 0.8758 0.8757
2490.000000 0.8756 0.8755 0.8754 0.8753 0.8752
2485.000000 0.8752 0.8752 0.8753 0.8754 0.8755
2480.000000 0.8756 0.8757 0.8758 0.8758 0.8759
2475.000000 0.8760 0.8761 0.8762 0.8763 0.8764
2470.000000 0.8765 0.8766 0.8767 0.8768 0.8768
2465.000000 0.8768 0.8770 0.8770 0.8771 0.8771
2460.000000 0.8771 0.8771 0.8771 0.8771 0.8773
2455.000000 0.8773 0.8773 0.8773 0.8774 0.8774
2450.000000 0.8774 0.8774 0.8775 0.8775 0.8775
2445.000000 0.8775 0.8775 0.8775 0.8777 0.8777
2440.000000 0.8777 0.8777 0.8778 0.8778 0.8778
2435.000000 0.8778 0.8778 0.8778 0.8778 0.8778
2430.000000 0.8778 0.8778 0.8778 0.8777 0.8777
2425.000000 0.8775 0.8775 0.8774 0.8774 0.8773
2420.000000 0.8773 0.8771 0.8771 0.8770 0.8770
2415.000000 0.8768 0.8768 0.8767 0.8767 0.8766
2410.000000 0.8766 0.8765 0.8764 0.8763 0.8763
2405.000000 0.8762 0.8762 0.8760 0.8759 0.8758
2400.000000 0.8757 0.8755 0.8754 0.8753 0.8752
2395.000000 0.8750 0.8749 0.8748 0.8747 0.8745
2390.000000 0.8744 0.8743 0.8742 0.8740 0.8739
2385.000000 0.8738 0.8737 0.8735 0.8734 0.8733
2380.000000 0.8732 0.8730 0.8728 0.8725 0.8724
2375.000000 0.8721 0.8718 0.8717 0.8715 0.8713
2370.000000 0.8711 0.8708 0.8706 0.8704 0.8702
2365.000000 0.8699 0.8697 0.8694 0.8691 0.8688
2360.000000 0.8686 0.8683 0.8681 0.8678 0.8675
2355.000000 0.8671 0.8667 0.8662 0.8658 0.8654
2350.000000 0.8650 0.8646 0.8642 0.8637 0.8633
2345.000000 0.8628 0.8625 0.8616 0.8608 0.8599
2340.000000 0.8591 0.8583 0.8575 0.8566 0.8558
2335.000000 0.8549 0.8541 0.8532 0.8523 0.8514
2330.000000 0.8505 0.8497 0.8490 0.8482 0.8475
2325.000000 0.8467 0.8460 0.8453 0.8446 0.8439
2320.000000 0.8433 0.8425 0.8420 0.8413 0.8406
2315.000000 0.8398 0.8390 0.8382 0.8374 0.8367
2310.000000 0.8360 0.8357 0.8356 0.8355 0.8356
2305.000000 0.8357 0.8358 0.8359 0.8361 0.8362
2300.000000 0.8363 0.8364 0.8365 0.8366 0.8368
2295.000000 0.8368 0.8371 0.8371 0.8374 0.8375
2290.000000 0.8377 0.8378 0.8380 0.8381 0.8382
2285.000000 0.8383 0.8384 0.8385 0.8386 0.8387
2280.000000 0.8388 0.8389 0.8390 0.8391 0.8392
2275.000000 0.8392 0.8393 0.8393 0.8393 0.8393
2270.000000 0.8394 0.8394 0.8394 0.8394 0.8395
2265.000000 0.8395 0.8395 0.8394 0.8394 0.8393
2260.000000 0.8392 0.8391 0.8391 0.8390 0.8389
2255.000000 0.8388 0.8388 0.8387 0.8387 0.8387
2250.000000 0.8388 0.8390 0.8392 0.8394 0.8397
2245.000000 0.8400 0.8403 0.8409 0.8416 0.8428
2240.000000 0.8442 0.8452 0.8462 0.8468 0.8475
2235.000000 0.8478 0.8481 0.8482 0.8483 0.8484
2230.000000 0.8485 0.8486 0.8487 0.8488 0.8490
2225.000000 0.8491 0.8493 0.8494 0.8496 0.8497
2220.000000 0.8499 0.8500 0.8502 0.8505 0.8508
2215.000000 0.8512 0.8516 0.8520 0.8524 0.8534
2210.000000 0.8545 0.8555 0.8566 0.8577 0.8588
2205.000000 0.8598 0.8609 0.8615 0.8621 0.8627
2200.000000 0.8633 0.8639 0.8645 0.8651 0.8657
2195.000000 0.8662 0.8668 0.8674 0.8680 0.8685
2190.000000 0.8691 0.8695 0.8699 0.8703 0.8708
2185.000000 0.8712 0.8716 0.8720 0.8725 0.8728
2180.000000 0.8734 0.8738 0.8742 0.8745 0.8748
2175.000000 0.8750 0.8753 0.8755 0.8758 0.8760
2170.000000 0.8763 0.8765 0.8768 0.8770 0.8773
2165.000000 0.8775 0.8777 0.8778 0.8782 0.8784
2160.000000 0.8787 0.8790 0.8793 0.8795 0.8798
2155.000000 0.8800 0.8803 0.8806 0.8809 0.8813
2150.000000 0.8818 0.8821 0.8825 0.8830 0.8835
2145.000000 0.8839 0.8844 0.8847 0.8851 0.8854
2140.000000 0.8857 0.8860 0.8864 0.8867 0.8871
2135.000000 0.8873 0.8875 0.8875 0.8878 0.8878
2130.000000 0.8880 0.8881 0.8882 0.8883 0.8884
2125.000000 0.8885 0.8885 0.8885 0.8884 0.8883
2120.000000 0.8882 0.8880 0.8878 0.8877 0.8875
2115.000000 0.8874 0.8871 0.8868 0.8865 0.8862
2110.000000 0.8859 0.8856 0.8853 0.8850 0.8847
2105.000000 0.8847 0.8847 0.8847 0.8847 0.8847
2100.000000 0.8847 0.8852 0.8858 0.8863 0.8868
2095.000000 0.8874 0.8878 0.8886 0.8894 0.8903
2090.000000 0.8912 0.8920 0.8928 0.8938 0.8947
2085.000000 0.8957 0.8967 0.8977 0.8987 0.8997
2080.000000 0.9007 0.9017 0.9027 0.9036 0.9046
2075.000000 0.9055 0.9064 0.9073 0.9082 0.9086
2070.000000 0.9091 0.9092 0.9094 0.9096 0.9098
2065.000000 0.9099 0.9101 0.9108 0.9115 0.9121
2060.000000 0.9130 0.9140 0.9150 0.9160 0.9171
2055.000000 0.9181 0.9191 0.9201 0.9212 0.9221
2050.000000 0.9233 0.9243 0.9253 0.9263 0.9273
2045.000000 0.9282 0.9292 0.9301 0.9310 0.9318
2040.000000 0.9327 0.9335 0.9343 0.9351 0.9360
2035.000000 0.9366 0.9371 0.9377 0.9383 0.9388
2030.000000 0.9394 0.9399 0.9405 0.9409 0.9414
2025.000000 0.9417 0.9420 0.9423 0.9427 0.9430
2020.000000 0.9433 0.9435 0.9438 0.9438 0.9439
2015.000000 0.9440 0.9441 0.9442 0.9443 0.9443
2010.000000 0.9444 0.9444 0.9443 0.9442 0.9441
2005.000000 0.9438 0.9436 0.9432 0.9428 0.9411
2000.000000 0.9394 0.9377 0.9359 0.9344 0.9328
1995.000000 0.9315 0.9318 0.9323 0.9330 0.9336
1990.000000 0.9343 0.9349 0.9355 0.9362 0.9367
1985.000000 0.9371 0.9377 0.9382 0.9387 0.9391
1980.000000 0.9396 0.9401 0.9406 0.9411 0.9416
1975.000000 0.9421 0.9425 0.9430 0.9433 0.9437
1970.000000 0.9441 0.9444 0.9448 0.9452 0.9455
1965.000000 0.9459 0.9463 0.9466 0.9470 0.9473
1960.000000 0.9475 0.9477 0.9478 0.9482 0.9484
1955.000000 0.9486 0.9488 0.9490 0.9492 0.9495
1950.000000 0.9497 0.9499 0.9501 0.9503 0.9505
1945.000000 0.9507 0.9508 0.9510 0.9512 0.9513
1940.000000 0.9515 0.9517 0.9518 0.9520 0.9521
1935.000000 0.9524 0.9525 0.9527 0.9528 0.9531
1930.000000 0.9532 0.9534 0.9536 0.9537 0.9539
1925.000000 0.9541 0.9542 0.9544 0.9545 0.9547
1920.000000 0.9549 0.9550 0.9551 0.9552 0.9554
1915.000000 0.9555 0.9556 0.9557 0.9559 0.9560
1910.000000 0.9561 0.9563 0.9563 0.9564 0.9565
1905.000000 0.9565 0.9566 0.9567 0.9567 0.9568
1900.000000 0.9568 0.9568 0.9570 0.9571 0.9571
1895.000000 0.9573 0.9574 0.9574 0.9575 0.9575
1890.000000 0.9577 0.9578 0.9578 0.9580 0.9580
1885.000000 0.9578 0.9578 0.9577 0.9575 0.9575
1880.000000 0.9574 0.9573 0.9571 0.9571 0.9571
1875.000000 0.9571 0.9571 0.9570 0.9570 0.9570
1870.000000 0.9570 0.9570 0.9570 0.9570 0.9568
1865.000000 0.9568 0.9568 0.9568 0.9568 0.9568
1860.000000 0.9568 0.9568 0.9568 0.9568 0.9568
1855.000000 0.9568 0.9568 0.9568 0.9568 0.9570
1850.000000 0.9571 0.9571 0.9571 0.9571 0.9573
1845.000000 0.9574 0.9574 0.9574 0.9574 0.9574
1840.000000 0.9574 0.9574 0.9574 0.9573 0.9573
1835.000000 0.9571 0.9571 0.9571 0.9570 0.9568
1830.000000 0.9568 0.9567 0.9565 0.9564 0.9563
1825.000000 0.9561 0.9559 0.9558 0.9557 0.9555
1820.000000 0.9554 0.9550 0.9547 0.9544 0.9540
1815.000000 0.9537 0.9533 0.9530 0.9528 0.9525
1810.000000 0.9525 0.9524 0.9524 0.9524 0.9523
1805.000000 0.9521 0.9520 0.9518 0.9517 0.9516
1800.000000 0.9514 0.9513 0.9512 0.9511 0.9510
1795.000000 0.9509 0.9507 0.9504 0.9502 0.9500
1790.000000 0.9497 0.9493 0.9487 0.9481 0.9475
1785.000000 0.9468 0.9464 0.9458 0.9453 0.9448
1780.000000 0.9443 0.9437 0.9432 0.9427 0.9421
1775.000000 0.9417 0.9412 0.9407 0.9402 0.9397
1770.000000 0.9392 0.9387 0.9382 0.9377 0.9371
1765.000000 0.9368 0.9365 0.9361 0.9358 0.9353
1760.000000 0.9345 0.9338 0.9330 0.9321 0.9311
1755.000000 0.9301 0.9291 0.9281 0.9268 0.9257
1750.000000 0.9245 0.9227 0.9210 0.9193 0.9170
1745.000000 0.9147 0.9118 0.9086 0.9047 0.8988
1740.000000 0.8917 0.8803 0.8660 0.8523 0.8431
1735.000000 0.8339 0.8246 0.8151 0.8058 0.7949
1730.000000 0.7825 0.7681 0.7521 0.7254 0.7019
1725.000000 0.6876 0.6756 0.6640 0.6535 0.6428
1720.000000 0.6298 0.6118 0.5937 0.5747 0.4935
1715.000000 0.4540 0.4167 0.4038 0.3888 0.3356
1710.000000 0.2825 0.2294 0.2061 0.2015 0.1981
1705.000000 0.1971 0.1964 0.1961 0.1960 0.1960
1700.000000 0.1985 0.2031 0.2173 0.2268 0.2361
1695.000000 0.2552 0.2914 0.3198 0.3482 0.3766
1690.000000 0.4050 0.4336 0.4620 0.4905 0.5189
1685.000000 0.5474 0.5758 0.6079 0.6189 0.6270
1680.000000 0.6309 0.6338 0.6360 0.6375 0.6384
1675.000000 0.6399 0.6398 0.6395 0.6392 0.6372
1670.000000 0.6332 0.6283 0.6220 0.6167 0.6135
1665.000000 0.6107 0.6090 0.6070 0.6060 0.6075
1660.000000 0.6090 0.6112 0.6134 0.6156 0.6176
1655.000000 0.6192 0.6207 0.6222 0.6238 0.6255
1650.000000 0.6278 0.6301 0.6324 0.6347 0.6393
1645.000000 0.6442 0.6490 0.6540 0.6600 0.6661
1640.000000 0.6721 0.6782 0.6855 0.6928 0.7003
1635.000000 0.7075 0.7143 0.7191 0.7240 0.7288
1630.000000 0.7336 0.7382 0.7425 0.7468 0.7512
1625.000000 0.7556 0.7588 0.7618 0.7651 0.7682
1620.000000 0.7712 0.7741 0.7768 0.7796 0.7824
1615.000000 0.7844 0.7864 0.7883 0.7903 0.7921
1610.000000 0.7936 0.7948 0.7960 0.7971 0.7984
1605.000000 0.7993 0.8000 0.8008 0.8015 0.8015
1600.000000 0.8015 0.8015 0.8015 0.8015 0.8008
1595.000000 0.7999 0.7989 0.7980 0.7971 0.7958
1590.000000 0.7938 0.7917 0.7895 0.7874 0.7844
1585.000000 0.7808 0.7771 0.7734 0.7691 0.7647
1580.000000 0.7603 0.7558 0.7511 0.7451 0.7390
1575.000000 0.7330 0.7262 0.7168 0.7072 0.6958
1570.000000 0.6821 0.6690 0.6571 0.6454 0.6295
1565.000000 0.6037 0.5592 0.5021 0.4392 0.3921
1560.000000 0.3650 0.3471 0.3310 0.3193 0.3076
1555.000000 0.2434 0.2314 0.2164 0.1986 0.1809
1550.000000 0.1632 0.1454 0.1348 0.1331 0.1275
1545.000000 0.1322 0.1337 0.1402 0.1556 0.1673
1540.000000 0.1809 0.2010 0.2210 0.2411 0.2612
1535.000000 0.2813 0.3014 0.3214 0.3414 0.3616
1530.000000 0.3816 0.4018 0.4110 0.4101 0.4084
1525.000000 0.4064 0.4038 0.4014 0.4018 0.4102
1520.000000 0.4258 0.4436 0.4515 0.4560 0.4606
1515.000000 0.4644 0.4683 0.4743 0.4805 0.4928
1510.000000 0.5060 0.5236 0.5414 0.5614 0.5786
1505.000000 0.5916 0.6041 0.6167 0.6292 0.6417
1500.000000 0.6543 0.6646 0.6692 0.6738 0.6784
1495.000000 0.6828 0.6875 0.6922 0.6969 0.7015
1490.000000 0.7050 0.7071 0.7083 0.7090 0.7089
1485.000000 0.7078 0.7055 0.7031 0.6871 0.6550
1480.000000 0.6012 0.5474 0.4937 0.4801 0.4830
1475.000000 0.4991 0.5198 0.5405 0.5612 0.5820
1470.000000 0.6027 0.6234 0.6341 0.6348 0.6339
1465.000000 0.6345 0.6341 0.6297 0.6164 0.6060
1460.000000 0.5991 0.5953 0.5926 0.5901 0.5870
1455.000000 0.5485 0.5056 0.4852 0.4842 0.4914
1450.000000 0.5003 0.5093 0.5209 0.5397 0.5585
1445.000000 0.5772 0.5960 0.6148 0.6253 0.6346
1440.000000 0.6380 0.6394 0.6408 0.6418 0.6425
1435.000000 0.6430 0.6435 0.6421 0.6442 0.6445
1430.000000 0.6446 0.6446 0.6445 0.6426 0.6408
1425.000000 0.6355 0.6003 0.5115 0.4158 0.3825
1420.000000 0.3814 0.3796 0.3727 0.3659 0.3606
1415.000000 0.3562 0.3759 0.3870 0.3980 0.4029
1410.000000 0.4032 0.3900 0.3758 0.3614 0.3471
1405.000000 0.3382 0.3354 0.3353 0.3546 0.3842
1400.000000 0.4139 0.4435 0.4938 0.4962 0.4957
1395.000000 0.4948 0.4665 0.4193 0.3722 0.3250
1390.000000 0.2892 0.2863 0.2827 0.2784 0.2735
1385.000000 0.2682 0.2628 0.2591 0.2530 0.2580
1380.000000 0.2639 0.2985 0.3314 0.3643 0.3972
1375.000000 0.4301 0.4629 0.4958 0.5287 0.5564
1370.000000 0.5660 0.5741 0.5803 0.5841 0.5860
1365.000000 0.5874 0.5875 0.5898 0.5877 0.5852
1360.000000 0.5820 0.5757 0.5693 0.5622 0.5515
1355.000000 0.5408 0.5221 0.4293 0.3777 0.3532
1350.000000 0.3287 0.3043 0.2798 0.2554 0.2309
1345.000000 0.2064 0.1874 0.1713 0.1623 0.1609
1340.000000 0.1609 0.1654 0.1920 0.2048 0.2085
1335.000000 0.2123 0.2160 0.2197 0.2244 0.2373
1330.000000 0.2893 0.3412 0.3932 0.4309 0.4394
1325.000000 0.4433 0.4469 0.4501 0.4508 0.4510
1320.000000 0.4474 0.4434 0.3956 0.3830 0.3666
1315.000000 0.3406 0.3239 0.3072 0.2905 0.2738
1310.000000 0.2610 0.2598 0.2590 0.2606 0.2699
1305.000000 0.2873 0.3137 0.3327 0.3516 0.3707
1300.000000 0.3897 0.4056 0.4157 0.4255 0.4315
1295.000000 0.4336 0.4351 0.4360 0.4339 0.4358
1290.000000 0.4321 0.4220 0.3979 0.3868 0.3796
1285.000000 0.3773 0.3773 0.3773 0.3800 0.3832
1280.000000 0.3857 0.3875 0.3890 0.3895 0.3900
1275.000000 0.3893 0.3882 0.3820 0.3738 0.3397
1270.000000 0.3337 0.3318 0.3329 0.3375 0.3521
1265.000000 0.3725 0.3877 0.4056 0.4338 0.4639
1260.000000 0.4939 0.5214 0.5324 0.5433 0.5541
1255.000000 0.5646 0.5751 0.5834 0.5897 0.5959
1250.000000 0.6021 0.6075 0.6126 0.6176 0.6226
1245.000000 0.6274 0.6314 0.6355 0.6395 0.6436
1240.000000 0.6476 0.6512 0.6547 0.6581 0.6615
1235.000000 0.6648 0.6676 0.6701 0.6725 0.6749
1230.000000 0.6772 0.6797 0.6821 0.6843 0.6858
1225.000000 0.6875 0.6894 0.6915 0.6935 0.6955
1220.000000 0.6974 0.6992 0.7008 0.7010 0.7012
1215.000000 0.7036 0.7015 0.7003 0.6974 0.6921
1210.000000 0.6784 0.6456 0.6444 0.6433 0.6428
1205.000000 0.6421 0.6415 0.6405 0.6060 0.5323
1200.000000 0.5395 0.5703 0.6010 0.6141 0.6172
1195.000000 0.6184 0.6196 0.6198 0.6200 0.6196
1190.000000 0.5584 0.5570 0.5882 0.6057 0.6232
1185.000000 0.6407 0.6537 0.6588 0.6617 0.6628
1180.000000 0.6632 0.6611 0.6628 0.6621 0.6591
1175.000000 0.6533 0.6376 0.5795 0.5598 0.5537
1170.000000 0.5510 0.5486 0.5460 0.5418 0.5165
1165.000000 0.4737 0.4308 0.3880 0.3452 0.3024
1160.000000 0.2596 0.2261 0.2223 0.2220 0.2247
1155.000000 0.2345 0.2454 0.2498 0.2542 0.2520
1150.000000 0.2518 0.2475 0.2302 0.2117 0.2049
1145.000000 0.1985 0.2013 0.2029 0.3006 0.3272
1140.000000 0.3470 0.3759 0.4090 0.4271 0.4452
1135.000000 0.4633 0.4814 0.4996 0.5177 0.5358
1130.000000 0.5508 0.5596 0.5645 0.5664 0.5682
1125.000000 0.5698 0.5726 0.5718 0.5710 0.5633
1120.000000 0.5060 0.4538 0.3653 0.3564 0.3509
1115.000000 0.3484 0.3459 0.3507 0.3592 0.3709
1110.000000 0.3879 0.4125 0.4429 0.4801 0.5108
1105.000000 0.5288 0.5469 0.5650 0.5830 0.6010
1100.000000 0.6191 0.6364 0.6482 0.6545 0.6606
1095.000000 0.6643 0.6683 0.6719 0.6740 0.6790
1090.000000 0.6768 0.6771 0.6751 0.6693 0.6632
1085.000000 0.6532 0.6428 0.6358 0.6360 0.6422
1080.000000 0.6524 0.6664 0.6758 0.6781 0.6795
1075.000000 0.6826 0.6903 0.6967 0.7238 0.7167
1070.000000 0.7211 0.7218 0.7215 0.7168 0.6958
1065.000000 0.6708 0.6482 0.6256 0.6188 0.6177
1060.000000 0.6220 0.6312 0.6390 0.6464 0.6537
1055.000000 0.6597 0.6618 0.6635 0.6656 0.6646
1050.000000 0.6651 0.6643 0.6595 0.6005 0.6040
1045.000000 0.6153 0.6276 0.6386 0.6469 0.6518
1040.000000 0.6568 0.6595 0.6600 0.6604 0.6596
1035.000000 0.6156 0.6223 0.6251 0.6281 0.6300
1030.000000 0.6303 0.6321 0.6294 0.6276 0.6235
1025.000000 0.5937 0.5523 0.5109 0.4695 0.4281
1020.000000 0.3866 0.3741 0.3624 0.3710 0.3732
1015.000000 0.3784 0.3876 0.4077 0.4205 0.4296
1010.000000 0.4388 0.4559 0.4932 0.5130 0.5335
1005.000000 0.5560 0.5787 0.6014 0.6240 0.6465
1000.000000 0.6692 0.6918 0.7145 0.7371 0.7512
995.000000 0.7592 0.7665 0.7708 0.7747 0.7781
990.000000 0.7799 0.7817 0.7834 0.7851 0.7868
985.000000 0.7884 0.7897 0.7910 0.7924 0.7937
980.000000 0.7950 0.7962 0.7975 0.7989 0.8001
975.000000 0.8014 0.8026 0.8040 0.8051 0.8062
970.000000 0.8072 0.8084 0.8094 0.8105 0.8111
965.000000 0.8118 0.8125 0.8132 0.8139 0.8147
960.000000 0.8155 0.8162 0.8171 0.8178 0.8187
955.000000 0.8195 0.8203 0.8212 0.8220 0.8228
950.000000 0.8236 0.8245 0.8249 0.8252 0.8255
945.000000 0.8258 0.8261 0.8264 0.8267 0.8270
940.000000 0.8273 0.8275 0.8278 0.8281 0.8284
935.000000 0.8287 0.8290 0.8294 0.8299 0.8304
930.000000 0.8309 0.8313 0.8318 0.8323 0.8328
925.000000 0.8332 0.8337 0.8342 0.8346 0.8350
920.000000 0.8354 0.8358 0.8362 0.8365 0.8368
915.000000 0.8373 0.8377 0.8380 0.8382 0.8385
910.000000 0.8387 0.8390 0.8392 0.8394 0.8397
905.000000 0.8399 0.8402 0.8402 0.8402 0.8402
900.000000 0.8401 0.8401 0.8380 0.8393 0.8389
895.000000 0.8384 0.8380 0.8375 0.8371 0.8363
890.000000 0.8355 0.8347 0.8339 0.8331 0.8314
885.000000 0.8295 0.8275 0.8258 0.8241 0.8221
880.000000 0.8201 0.8164 0.8114 0.8015 0.7753
875.000000 0.7578 0.7141 0.6703 0.6025 0.6051
870.000000 0.6117 0.6267 0.6401 0.6393 0.6325
865.000000 0.6087 0.5849 0.5731 0.5712 0.6417
860.000000 0.7245 0.7351 0.7422 0.7465 0.7507
855.000000 0.7530 0.7553 0.7572 0.7592 0.7606
850.000000 0.7618 0.7622 0.7625 0.7626 0.7628
845.000000 0.7625 0.7619 0.7611 0.7589 0.7565
840.000000 0.7508 0.7441 0.7321 0.6381 0.5971
835.000000 0.5562 0.5153 0.4743 0.4454 0.4510
830.000000 0.4586 0.4640 0.4628 0.4532 0.4330
825.000000 0.4128 0.4080 0.4076 0.4062 0.4624
820.000000 0.4897 0.5171 0.5445 0.5718 0.5992
815.000000 0.6125 0.6194 0.6258 0.6322 0.6386
810.000000 0.6424 0.6443 0.6475 0.6457 0.6451
805.000000 0.6442 0.6428 0.6406 0.6385 0.6362
800.000000 0.6343 0.6322 0.6302 0.6275 0.6247
795.000000 0.6219 0.6182 0.6134 0.6037 0.5795
790.000000 0.5489 0.5321 0.5258 0.5220 0.5187
785.000000 0.5162 0.5139 0.5118 0.5098 0.5075
780.000000 0.5050 0.5023 0.4994 0.4968 0.4943
775.000000 0.4919 0.4894 0.4869 0.4839 0.4806
770.000000 0.4772 0.4733 0.4686 0.4614 0.4510
765.000000 0.4402 0.4279 0.4164 0.4080 0.4012
760.000000 0.3973 0.3932 0.3900 0.3875 0.3850
755.000000 0.3827 0.3750 0.3474 0.3199 0.3113
750.000000 0.3084 0.3139 0.3302 0.3464 0.3627
745.000000 0.3762 0.3809 0.3849 0.3873 0.3873
740.000000 0.3873 0.3873 0.3858 0.3832 0.3806
735.000000 0.3780 0.3753 0.3726 0.3700 0.3678
730.000000 0.3655 0.3623 0.3582 0.3460 0.3244
725.000000 0.3027 0.2810 0.2726 0.2728 0.2872
720.000000 0.3279 0.3684 0.4092 0.4299 0.4448
715.000000 0.4545 0.4641 0.4738 0.4802 0.4865
710.000000 0.4927 0.4982 0.5025 0.5067 0.5096
705.000000 0.5119 0.5141 0.5156 0.5168 0.5180
700.000000 0.5192 0.5194 0.5195 0.5196 0.5197
695.000000 0.5225 0.5199 0.5194 0.5184 0.5175
690.000000 0.5166 0.5157 0.5134 0.5105 0.5076
685.000000 0.5031 0.4983 0.4930 0.4862 0.4795
680.000000 0.4717 0.4646 0.4579 0.4512 0.4432
675.000000 0.4376 0.4328 0.4290 0.4259 0.4243
670.000000 0.4243 0.4243 0.4253 0.4265 0.4287
665.000000 0.4309 0.4346 0.4383 0.4421 0.4462
660.000000 0.4505 0.4547 0.4588 0.4620 0.4652
655.000000 0.4683 0.4715 0.4747 0.4778 0.4810
650.000000 0.4843 0.4876 0.4910 0.4943 0.4975
645.000000 0.5004 0.5032 0.5060 0.5082 0.5103
640.000000 0.5125 0.5146 0.5171 0.5199 0.5227
635.000000 0.5255 0.5281 0.5306 0.5332 0.5356
630.000000 0.5381 0.5403 0.5420 0.5436 0.5450
625.000000 0.5462 0.5475 0.5475 0.5475 0.5453
620.000000 0.5399 0.5335 0.5286 0.5266 0.5247
615.000000 0.5231 0.5258 0.5208 0.5206 0.5210
610.000000 0.5253 0.5348 0.5486 0.5521 0.5557
605.000000 0.5587 0.5615 0.5642 0.5670 0.5696
600.000000 0.5722 0.5747 0.5773 0.5798 0.5822
595.000000 0.5845 0.5869 0.5892 0.5915 0.5939
590.000000 0.5960 0.5979 0.5999 0.6018 0.6038
585.000000 0.6057 0.6077 0.6095 0.6112 0.6132
580.000000 0.6144 0.6154 0.6197 0.6166 0.6171
575.000000 0.6172 0.6172 0.6162 0.6147 0.6008
570.000000 0.5509 0.5010 0.4510 0.4012 0.3590
565.000000 0.3558 0.3570 0.3559 0.3624 0.3896
560.000000 0.4062 0.4229 0.4490 0.4740 0.4991
555.000000 0.5241 0.5491 0.5742 0.5992 0.6243
550.000000 0.6455 0.6522 0.6574 0.6618 0.6662
545.000000 0.6692 0.6718 0.6743 0.6767 0.6790
540.000000 0.6812 0.6831 0.6849 0.6865 0.6878
535.000000 0.6890 0.6898 0.6903 0.6903 0.6904
530.000000 0.6903 0.6894 0.6884 0.6871 0.6845
525.000000 0.6815 0.6783 0.6744 0.6692 0.6618
520.000000 0.6496 0.6467 0.6469 0.6474 0.6521
515.000000 0.6576 0.6633 0.6703 0.6761 0.6804
510.000000 0.6844 0.6875 0.6888 0.6896 0.6904
505.000000 0.6911 0.6918 0.6924 0.6930 0.6935
500.000000 0.6941 0.6947 0.6951 0.6958 0.6962
495.000000 0.6968 0.6974 0.6978 0.6981 0.6984
490.000000 0.6988 0.6991 0.7019 0.6986 0.6983
485.000000 0.6978 0.6975 0.6971 0.6961 0.6951
480.000000 0.6941 0.6931 0.6921 0.6907 0.6891
475.000000 0.6875 0.6858 0.6843 0.6821 0.6799
470.000000 0.6776 0.6753 0.6724 0.6697 0.6678
465.000000 0.6658 0.6637 0.6612 0.6571 0.6525
460.000000 0.6465 0.6461 0.6436 0.6439 0.6461
455.000000 0.6508 0.6550 0.6593 0.6635 0.6676
450.000000 0.6718 0.6758 0.6800 0.6830 0.6861
445.000000 0.6891 0.6915 0.6941 0.6965 0.6990
440.000000 0.7012 0.7030 0.7047 0.7064 0.7081
435.000000 0.7098 0.7105 0.7111 0.7118 0.7124
430.000000 0.7130 0.7136 0.7137 0.7139 0.7140
425.000000 0.7141 0.7142 0.7143 0.7143 0.7143
420.000000 0.7143 0.7143 0.7143 0.7142 0.7138
415.000000 0.7135 0.7131 0.7126 0.7122 0.7115
410.000000 0.7108 0.7101 0.7095 0.7088 0.7080
405.000000 0.7071 0.7062 0.7054 0.7045 0.7037
400.000000 0.7028 0.7019 0.7011 0.7004 0.6996
395.000000 0.6988 0.6980 0.6971 0.6964 0.6956
390.000000 0.6948 0.6940 0.6934 0.6928 0.6924
385.000000 0.6918 0.6912 0.6908 0.6901
##END=
