##TITLE=Isoguanine sulfate
##JCAMP-DX=4.24
$$ By DXEDIT 1.05 (RS McDonald)
##DATA TYPE=INFRARED SPECTRUM
##CLASS=COBLENTZ III
##ORIGIN=DOW CHEMICAL COMPANY
##OWNER=COPYRIGHT (C) 1988 by COBLENTZ SOCIETY INC.
Collection (C) 2018 copyright by the U.S. Secretary of Commerce
on behalf of the United States of America. All rights reserved.
##DATE=1965/03/30
##MOLFORM=C10 H12 N10 O6 S
##SOURCE REFERENCE=COBLENTZ NO. 08615
##$NIST ID=B6008615
##$NIST SOURCE=COBLENTZ
##$NIST IMAGE=cob8615
##SPECTROMETER/DATA SYSTEM=DOW KBr FOREPRISM-GRATING
##INSTRUMENT PARAMETERS=BLAZED AT 3.5, 12.0, 20.0 MICRON AND CHANGED AT 5.0, 7.5, 14.9 MICRON
##STATE=SOLID (SPLIT MULL), FLUOROLUBE FOR 3800-1330 CM^-^1, NUJOL FOR 1330-400 CM^-^1
##SAMPLING PROCEDURE=TRANSMISSION
##RESOLUTION=2
##DATA PROCESSING=DIGITIZED BY COBLENTZ SOCIETY (BATCH I) FROM HARD COPY
##XUNITS=1/CM
##YUNITS=TRANSMITTANCE
##XFACTOR=1
##YFACTOR=1
##DELTAX=1
##FIRSTX=3800
##LASTX=403
##FIRSTY=0.6761
##MAXX=3800
##MINX=403
##MAXY=0.9247
##MINY=0.0001
##NPOINTS=3398
##XYDATA=(X++(Y..Y))
3800.000000 0.6761 0.6761 0.6761 0.6768 0.6774
3795.000000 0.6778 0.6785 0.6790 0.6796 0.6801
3790.000000 0.6807 0.6811 0.6818 0.6822 0.6828
3785.000000 0.6834 0.6840 0.6844 0.6848 0.6851
3780.000000 0.6855 0.6858 0.6862 0.6867 0.6871
3775.000000 0.6875 0.6878 0.6883 0.6887 0.6891
3770.000000 0.6895 0.6899 0.6903 0.6906 0.6910
3765.000000 0.6914 0.6918 0.6921 0.6925 0.6928
3760.000000 0.6933 0.6937 0.6941 0.6945 0.6949
3755.000000 0.6951 0.6956 0.6960 0.6964 0.6967
3750.000000 0.6971 0.6975 0.6980 0.6985 0.6990
3745.000000 0.6994 0.6999 0.7004 0.7008 0.7014
3740.000000 0.7018 0.7024 0.7028 0.7034 0.7039
3735.000000 0.7044 0.7049 0.7053 0.7058 0.7062
3730.000000 0.7068 0.7072 0.7078 0.7083 0.7088
3725.000000 0.7093 0.7098 0.7101 0.7106 0.7110
3720.000000 0.7115 0.7118 0.7122 0.7126 0.7132
3715.000000 0.7136 0.7141 0.7145 0.7149 0.7153
3710.000000 0.7158 0.7161 0.7165 0.7169 0.7175
3705.000000 0.7178 0.7184 0.7188 0.7192 0.7196
3700.000000 0.7201 0.7205 0.7208 0.7212 0.7217
3695.000000 0.7221 0.7225 0.7228 0.7233 0.7237
3690.000000 0.7241 0.7245 0.7249 0.7251 0.7256
3685.000000 0.7260 0.7264 0.7268 0.7271 0.7275
3680.000000 0.7280 0.7284 0.7288 0.7291 0.7295
3675.000000 0.7298 0.7301 0.7304 0.7307 0.7308
3670.000000 0.7311 0.7314 0.7317 0.7318 0.7321
3665.000000 0.7324 0.7326 0.7328 0.7332 0.7334
3660.000000 0.7337 0.7339 0.7342 0.7344 0.7347
3655.000000 0.7349 0.7351 0.7354 0.7356 0.7358
3650.000000 0.7360 0.7361 0.7362 0.7365 0.7367
3645.000000 0.7368 0.7369 0.7371 0.7374 0.7375
3640.000000 0.7376 0.7378 0.7381 0.7382 0.7384
3635.000000 0.7386 0.7388 0.7389 0.7390 0.7391
3630.000000 0.7392 0.7392 0.7393 0.7393 0.7394
3625.000000 0.7395 0.7396 0.7396 0.7397 0.7397
3620.000000 0.7398 0.7398 0.7399 0.7400 0.7401
3615.000000 0.7401 0.7401 0.7401 0.7403 0.7403
3610.000000 0.7403 0.7401 0.7401 0.7401 0.7401
3605.000000 0.7400 0.7400 0.7400 0.7400 0.7399
3600.000000 0.7399 0.7398 0.7397 0.7397 0.7397
3595.000000 0.7397 0.7397 0.7396 0.7396 0.7395
3590.000000 0.7395 0.7393 0.7392 0.7390 0.7389
3585.000000 0.7387 0.7386 0.7384 0.7383 0.7381
3580.000000 0.7380 0.7378 0.7376 0.7375 0.7374
3575.000000 0.7371 0.7369 0.7368 0.7367 0.7365
3570.000000 0.7364 0.7361 0.7361 0.7358 0.7358
3565.000000 0.7356 0.7354 0.7351 0.7350 0.7348
3560.000000 0.7346 0.7343 0.7341 0.7339 0.7337
3555.000000 0.7335 0.7333 0.7331 0.7328 0.7326
3550.000000 0.7325 0.7322 0.7321 0.7318 0.7315
3545.000000 0.7314 0.7311 0.7308 0.7306 0.7301
3540.000000 0.7299 0.7295 0.7292 0.7289 0.7286
3535.000000 0.7282 0.7278 0.7275 0.7271 0.7268
3530.000000 0.7265 0.7261 0.7258 0.7255 0.7251
3525.000000 0.7248 0.7245 0.7241 0.7238 0.7235
3520.000000 0.7232 0.7228 0.7225 0.7221 0.7218
3515.000000 0.7214 0.7211 0.7207 0.7204 0.7200
3510.000000 0.7197 0.7193 0.7190 0.7186 0.7183
3505.000000 0.7178 0.7175 0.7169 0.7165 0.7160
3500.000000 0.7155 0.7150 0.7146 0.7141 0.7136
3495.000000 0.7131 0.7125 0.7121 0.7117 0.7111
3490.000000 0.7107 0.7101 0.7097 0.7092 0.7088
3485.000000 0.7081 0.7074 0.7065 0.7058 0.7051
3480.000000 0.7045 0.7037 0.7030 0.7021 0.7015
3475.000000 0.7007 0.7000 0.6992 0.6985 0.6976
3470.000000 0.6969 0.6961 0.6955 0.6948 0.6941
3465.000000 0.6931 0.6921 0.6911 0.6901 0.6892
3460.000000 0.6882 0.6871 0.6862 0.6853 0.6844
3455.000000 0.6834 0.6824 0.6815 0.6807 0.6799
3450.000000 0.6791 0.6783 0.6775 0.6767 0.6760
3445.000000 0.6751 0.6744 0.6736 0.6728 0.6719
3440.000000 0.6711 0.6703 0.6694 0.6685 0.6675
3435.000000 0.6665 0.6657 0.6648 0.6639 0.6630
3430.000000 0.6621 0.6611 0.6601 0.6590 0.6578
3425.000000 0.6568 0.6557 0.6546 0.6535 0.6524
3420.000000 0.6512 0.6501 0.6491 0.6478 0.6467
3415.000000 0.6454 0.6441 0.6428 0.6415 0.6403
3410.000000 0.6391 0.6377 0.6364 0.6346 0.6328
3405.000000 0.6310 0.6292 0.6273 0.6255 0.6233
3400.000000 0.6210 0.6187 0.6164 0.6140 0.6117
3395.000000 0.6089 0.6060 0.6032 0.6004 0.5976
3390.000000 0.5948 0.5919 0.5891 0.5862 0.5836
3385.000000 0.5808 0.5780 0.5750 0.5720 0.5689
3380.000000 0.5659 0.5628 0.5597 0.5576 0.5555
3375.000000 0.5534 0.5514 0.5493 0.5473 0.5452
3370.000000 0.5431 0.5410 0.5390 0.5364 0.5339
3365.000000 0.5310 0.5281 0.5251 0.5222 0.5193
3360.000000 0.5164 0.5135 0.5106 0.5079 0.5053
3355.000000 0.5026 0.5000 0.4973 0.4947 0.4921
3350.000000 0.4895 0.4867 0.4840 0.4810 0.4781
3345.000000 0.4751 0.4722 0.4692 0.4662 0.4633
3340.000000 0.4604 0.4571 0.4539 0.4505 0.4471
3335.000000 0.4437 0.4404 0.4370 0.4337 0.4303
3330.000000 0.4269 0.4235 0.4202 0.4168 0.4135
3325.000000 0.4101 0.4066 0.4032 0.4000 0.3970
3320.000000 0.3940 0.3912 0.3887 0.3860 0.3834
3315.000000 0.3808 0.3782 0.3755 0.3729 0.3702
3310.000000 0.3676 0.3649 0.3623 0.3596 0.3570
3305.000000 0.3543 0.3516 0.3484 0.3453 0.3421
3300.000000 0.3389 0.3357 0.3325 0.3293 0.3262
3295.000000 0.3230 0.3200 0.3169 0.3138 0.3107
3290.000000 0.3077 0.3046 0.3016 0.2984 0.2954
3285.000000 0.2923 0.2893 0.2861 0.2830 0.2798
3280.000000 0.2767 0.2734 0.2704 0.2672 0.2640
3275.000000 0.2595 0.2551 0.2497 0.2443 0.2406
3270.000000 0.2370 0.2342 0.2314 0.2287 0.2261
3265.000000 0.2241 0.2222 0.2202 0.2182 0.2167
3260.000000 0.2153 0.2140 0.2127 0.2113 0.2100
3255.000000 0.2087 0.2074 0.2065 0.2056 0.2048
3250.000000 0.2040 0.2031 0.2023 0.2015 0.2007
3245.000000 0.1999 0.1991 0.1983 0.1975 0.1967
3240.000000 0.1959 0.1951 0.1943 0.1934 0.1928
3235.000000 0.1920 0.1912 0.1904 0.1896 0.1889
3230.000000 0.1882 0.1874 0.1867 0.1859 0.1851
3225.000000 0.1843 0.1834 0.1827 0.1819 0.1811
3220.000000 0.1804 0.1793 0.1783 0.1771 0.1760
3215.000000 0.1748 0.1736 0.1725 0.1714 0.1702
3210.000000 0.1690 0.1678 0.1667 0.1654 0.1644
3205.000000 0.1629 0.1616 0.1602 0.1589 0.1575
3200.000000 0.1561 0.1546 0.1533 0.1519 0.1506
3195.000000 0.1491 0.1477 0.1463 0.1449 0.1435
3190.000000 0.1421 0.1407 0.1392 0.1380 0.1367
3185.000000 0.1354 0.1342 0.1329 0.1316 0.1303
3180.000000 0.1291 0.1278 0.1265 0.1253 0.1241
3175.000000 0.1228 0.1216 0.1203 0.1191 0.1177
3170.000000 0.1163 0.1149 0.1135 0.1121 0.1107
3165.000000 0.1083 0.1059 0.1032 0.1005 0.0981
3160.000000 0.0958 0.0947 0.0938 0.0934 0.0930
3155.000000 0.0929 0.0952 0.0938 0.0947 0.0987
3150.000000 0.1027 0.1064 0.1101 0.1145 0.1190
3145.000000 0.1242 0.1296 0.1350 0.1404 0.1437
3140.000000 0.1470 0.1502 0.1535 0.1567 0.1600
3135.000000 0.1629 0.1661 0.1678 0.1694 0.1712
3130.000000 0.1729 0.1744 0.1762 0.1779 0.1795
3125.000000 0.1812 0.1829 0.1845 0.1863 0.1879
3120.000000 0.1896 0.1912 0.1928 0.1943 0.1958
3115.000000 0.1973 0.1987 0.2003 0.2018 0.2033
3110.000000 0.2048 0.2063 0.2078 0.2093 0.2108
3105.000000 0.2121 0.2134 0.2148 0.2162 0.2175
3100.000000 0.2188 0.2201 0.2215 0.2224 0.2234
3095.000000 0.2242 0.2250 0.2258 0.2266 0.2273
3090.000000 0.2281 0.2287 0.2294 0.2299 0.2304
3085.000000 0.2309 0.2315 0.2320 0.2325 0.2328
3080.000000 0.2332 0.2334 0.2339 0.2343 0.2347
3075.000000 0.2349 0.2378 0.2353 0.2355 0.2357
3070.000000 0.2359 0.2360 0.2362 0.2362 0.2362
3065.000000 0.2361 0.2361 0.2360 0.2360 0.2355
3060.000000 0.2350 0.2341 0.2332 0.2321 0.2310
3055.000000 0.2297 0.2284 0.2272 0.2259 0.2246
3050.000000 0.2233 0.2220 0.2207 0.2193 0.2179
3045.000000 0.2164 0.2150 0.2135 0.2122 0.2113
3040.000000 0.2104 0.2095 0.2085 0.2077 0.2069
3035.000000 0.2061 0.2054 0.2048 0.2043 0.2036
3030.000000 0.2031 0.2027 0.2023 0.2019 0.2016
3025.000000 0.2013 0.2010 0.2007 0.2004 0.2003
3020.000000 0.2003 0.2003 0.2003 0.2002 0.2002
3015.000000 0.2001 0.2001 0.2001 0.2001 0.2002
3010.000000 0.2004 0.2004 0.2007 0.2009 0.2011
3005.000000 0.2012 0.2014 0.2021 0.2029 0.2035
3000.000000 0.2044 0.2051 0.2059 0.2067 0.2075
2995.000000 0.2082 0.2090 0.2097 0.2105 0.2113
2990.000000 0.2122 0.2132 0.2143 0.2153 0.2164
2985.000000 0.2174 0.2184 0.2196 0.2207 0.2217
2980.000000 0.2228 0.2238 0.2249 0.2259 0.2270
2975.000000 0.2280 0.2290 0.2300 0.2311 0.2321
2970.000000 0.2331 0.2341 0.2352 0.2363 0.2375
2965.000000 0.2388 0.2401 0.2414 0.2428 0.2444
2960.000000 0.2460 0.2476 0.2493 0.2509 0.2526
2955.000000 0.2540 0.2554 0.2568 0.2582 0.2584
2950.000000 0.2585 0.2588 0.2590 0.2592 0.2595
2945.000000 0.2597 0.2599 0.2601 0.2603 0.2605
2940.000000 0.2607 0.2608 0.2609 0.2610 0.2611
2935.000000 0.2611 0.2611 0.2610 0.2607 0.2598
2930.000000 0.2590 0.2574 0.2558 0.2541 0.2525
2925.000000 0.2507 0.2489 0.2479 0.2470 0.2466
2920.000000 0.2463 0.2461 0.2459 0.2457 0.2448
2915.000000 0.2454 0.2453 0.2452 0.2452 0.2453
2910.000000 0.2455 0.2458 0.2462 0.2465 0.2468
2905.000000 0.2477 0.2487 0.2498 0.2509 0.2520
2900.000000 0.2532 0.2544 0.2556 0.2568 0.2580
2895.000000 0.2592 0.2605 0.2617 0.2629 0.2641
2890.000000 0.2654 0.2669 0.2684 0.2701 0.2718
2885.000000 0.2734 0.2751 0.2767 0.2784 0.2801
2880.000000 0.2818 0.2834 0.2852 0.2868 0.2884
2875.000000 0.2902 0.2919 0.2935 0.2954 0.2972
2870.000000 0.2990 0.3008 0.3026 0.3045 0.3064
2865.000000 0.3085 0.3109 0.3131 0.3154 0.3180
2860.000000 0.3207 0.3238 0.3268 0.3304 0.3339
2855.000000 0.3368 0.3397 0.3414 0.3432 0.3446
2850.000000 0.3459 0.3468 0.3477 0.3479 0.3484
2845.000000 0.3484 0.3482 0.3480 0.3478 0.3471
2840.000000 0.3464 0.3456 0.3449 0.3434 0.3422
2835.000000 0.3402 0.3382 0.3362 0.3342 0.3321
2830.000000 0.3300 0.3280 0.3259 0.3237 0.3214
2825.000000 0.3184 0.3156 0.3130 0.3105 0.3080
2820.000000 0.3056 0.3028 0.3000 0.2980 0.2961
2815.000000 0.2956 0.2951 0.2948 0.2946 0.2943
2810.000000 0.2934 0.2935 0.2935 0.2935 0.2935
2805.000000 0.2937 0.2938 0.2939 0.2940 0.2942
2800.000000 0.2945 0.2953 0.2962 0.2970 0.2978
2795.000000 0.2984 0.2993 0.3000 0.3007 0.3014
2790.000000 0.3021 0.3027 0.3034 0.3041 0.3048
2785.000000 0.3052 0.3057 0.3061 0.3065 0.3069
2780.000000 0.3073 0.3077 0.3081 0.3081 0.3081
2775.000000 0.3082 0.3083 0.3083 0.3083 0.3080
2770.000000 0.3078 0.3071 0.3064 0.3052 0.3041
2765.000000 0.3025 0.3010 0.2991 0.2973 0.2962
2760.000000 0.2952 0.2942 0.2929 0.2932 0.2932
2755.000000 0.2932 0.2932 0.2933 0.2934 0.2937
2750.000000 0.2940 0.2942 0.2945 0.2948 0.2951
2745.000000 0.2953 0.2956 0.2959 0.2962 0.2964
2740.000000 0.2967 0.2970 0.2973 0.2975 0.2978
2735.000000 0.2980 0.2983 0.2985 0.2989 0.2991
2730.000000 0.2994 0.2996 0.2999 0.3001 0.3004
2725.000000 0.3007 0.3010 0.3012 0.3015 0.3017
2720.000000 0.3020 0.3023 0.3026 0.3028 0.3031
2715.000000 0.3034 0.3037 0.3040 0.3043 0.3046
2710.000000 0.3049 0.3052 0.3055 0.3058 0.3061
2705.000000 0.3064 0.3067 0.3070 0.3073 0.3076
2700.000000 0.3079 0.3081 0.3084 0.3085 0.3089
2695.000000 0.3091 0.3093 0.3095 0.3098 0.3100
2690.000000 0.3102 0.3104 0.3107 0.3109 0.3111
2685.000000 0.3112 0.3114 0.3115 0.3116 0.3117
2680.000000 0.3119 0.3120 0.3121 0.3122 0.3123
2675.000000 0.3124 0.3125 0.3126 0.3128 0.3129
2670.000000 0.3130 0.3131 0.3132 0.3133 0.3134
2665.000000 0.3134 0.3137 0.3138 0.3139 0.3140
2660.000000 0.3141 0.3142 0.3144 0.3150 0.3157
2655.000000 0.3170 0.3183 0.3196 0.3209 0.3223
2650.000000 0.3238 0.3253 0.3268 0.3282 0.3297
2645.000000 0.3312 0.3327 0.3344 0.3360 0.3377
2640.000000 0.3394 0.3410 0.3428 0.3441 0.3454
2635.000000 0.3466 0.3479 0.3491 0.3504 0.3516
2630.000000 0.3530 0.3542 0.3555 0.3558 0.3562
2625.000000 0.3566 0.3570 0.3574 0.3578 0.3580
2620.000000 0.3584 0.3592 0.3599 0.3606 0.3614
2615.000000 0.3622 0.3630 0.3637 0.3645 0.3653
2610.000000 0.3660 0.3668 0.3676 0.3684 0.3693
2605.000000 0.3703 0.3714 0.3724 0.3734 0.3744
2600.000000 0.3754 0.3764 0.3775 0.3784 0.3795
2595.000000 0.3805 0.3814 0.3825 0.3836 0.3846
2590.000000 0.3856 0.3866 0.3878 0.3889 0.3900
2585.000000 0.3912 0.3925 0.3936 0.3948 0.3959
2580.000000 0.3972 0.3982 0.3995 0.4007 0.4018
2575.000000 0.4030 0.4042 0.4053 0.4064 0.4074
2570.000000 0.4084 0.4096 0.4107 0.4116 0.4125
2565.000000 0.4134 0.4143 0.4152 0.4160 0.4169
2560.000000 0.4178 0.4187 0.4196 0.4205 0.4214
2555.000000 0.4222 0.4230 0.4236 0.4243 0.4250
2550.000000 0.4257 0.4264 0.4271 0.4281 0.4291
2545.000000 0.4301 0.4310 0.4321 0.4331 0.4341
2540.000000 0.4352 0.4362 0.4372 0.4382 0.4392
2535.000000 0.4401 0.4410 0.4421 0.4431 0.4441
2530.000000 0.4451 0.4460 0.4471 0.4481 0.4492
2525.000000 0.4503 0.4514 0.4525 0.4536 0.4547
2520.000000 0.4558 0.4569 0.4580 0.4591 0.4602
2515.000000 0.4612 0.4624 0.4634 0.4645 0.4656
2510.000000 0.4667 0.4678 0.4689 0.4699 0.4710
2505.000000 0.4721 0.4732 0.4742 0.4753 0.4762
2500.000000 0.4774 0.4785 0.4796 0.4806 0.4817
2495.000000 0.4827 0.4838 0.4848 0.4859 0.4870
2490.000000 0.4881 0.4891 0.4902 0.4912 0.4923
2485.000000 0.4934 0.4945 0.4955 0.4966 0.4976
2480.000000 0.4987 0.4998 0.5009 0.5020 0.5032
2475.000000 0.5043 0.5054 0.5065 0.5077 0.5088
2470.000000 0.5099 0.5110 0.5122 0.5133 0.5144
2465.000000 0.5155 0.5167 0.5178 0.5189 0.5200
2460.000000 0.5212 0.5223 0.5234 0.5245 0.5256
2455.000000 0.5267 0.5279 0.5290 0.5301 0.5310
2450.000000 0.5321 0.5331 0.5342 0.5352 0.5362
2445.000000 0.5373 0.5384 0.5394 0.5404 0.5414
2440.000000 0.5425 0.5435 0.5446 0.5456 0.5467
2435.000000 0.5477 0.5487 0.5497 0.5508 0.5518
2430.000000 0.5529 0.5539 0.5550 0.5560 0.5570
2425.000000 0.5580 0.5591 0.5601 0.5612 0.5622
2420.000000 0.5633 0.5643 0.5654 0.5662 0.5672
2415.000000 0.5681 0.5690 0.5699 0.5708 0.5717
2410.000000 0.5726 0.5735 0.5744 0.5753 0.5762
2405.000000 0.5771 0.5780 0.5788 0.5797 0.5806
2400.000000 0.5815 0.5824 0.5833 0.5842 0.5851
2395.000000 0.5860 0.5869 0.5878 0.5887 0.5896
2390.000000 0.5905 0.5914 0.5923 0.5932 0.5941
2385.000000 0.5949 0.5958 0.5966 0.5975 0.5983
2380.000000 0.5992 0.6000 0.6009 0.6017 0.6025
2375.000000 0.6033 0.6042 0.6050 0.6059 0.6067
2370.000000 0.6076 0.6084 0.6092 0.6100 0.6109
2365.000000 0.6117 0.6126 0.6134 0.6143 0.6151
2360.000000 0.6159 0.6167 0.6176 0.6184 0.6193
2355.000000 0.6201 0.6210 0.6218 0.6226 0.6234
2350.000000 0.6243 0.6251 0.6260 0.6268 0.6277
2345.000000 0.6285 0.6293 0.6301 0.6310 0.6318
2340.000000 0.6327 0.6335 0.6343 0.6351 0.6360
2335.000000 0.6368 0.6377 0.6385 0.6394 0.6401
2330.000000 0.6410 0.6418 0.6426 0.6435 0.6444
2325.000000 0.6451 0.6461 0.6468 0.6476 0.6485
2320.000000 0.6494 0.6501 0.6511 0.6518 0.6528
2315.000000 0.6536 0.6544 0.6551 0.6561 0.6568
2310.000000 0.6578 0.6586 0.6595 0.6603 0.6611
2305.000000 0.6619 0.6628 0.6637 0.6645 0.6653
2300.000000 0.6661 0.6669 0.6678 0.6687 0.6696
2295.000000 0.6704 0.6712 0.6721 0.6730 0.6738
2290.000000 0.6746 0.6754 0.6761 0.6768 0.6776
2285.000000 0.6784 0.6792 0.6799 0.6807 0.6814
2280.000000 0.6821 0.6828 0.6837 0.6845 0.6853
2275.000000 0.6860 0.6868 0.6875 0.6883 0.6890
2270.000000 0.6898 0.6905 0.6912 0.6921 0.6928
2265.000000 0.6939 0.6949 0.6958 0.6968 0.6978
2260.000000 0.6988 0.6998 0.7008 0.7018 0.7028
2255.000000 0.7038 0.7048 0.7057 0.7067 0.7076
2250.000000 0.7087 0.7096 0.7106 0.7114 0.7121
2245.000000 0.7130 0.7138 0.7146 0.7154 0.7161
2240.000000 0.7169 0.7178 0.7186 0.7194 0.7201
2235.000000 0.7210 0.7218 0.7225 0.7235 0.7243
2230.000000 0.7251 0.7258 0.7267 0.7275 0.7283
2225.000000 0.7291 0.7299 0.7307 0.7315 0.7322
2220.000000 0.7331 0.7339 0.7347 0.7355 0.7362
2215.000000 0.7369 0.7378 0.7386 0.7394 0.7401
2210.000000 0.7408 0.7417 0.7425 0.7432 0.7440
2205.000000 0.7448 0.7456 0.7462 0.7471 0.7478
2200.000000 0.7486 0.7494 0.7501 0.7508 0.7517
2195.000000 0.7525 0.7533 0.7541 0.7549 0.7556
2190.000000 0.7564 0.7571 0.7580 0.7587 0.7595
2185.000000 0.7603 0.7611 0.7618 0.7626 0.7634
2180.000000 0.7642 0.7650 0.7658 0.7665 0.7671
2175.000000 0.7678 0.7686 0.7692 0.7699 0.7706
2170.000000 0.7712 0.7719 0.7726 0.7734 0.7741
2165.000000 0.7747 0.7754 0.7761 0.7768 0.7775
2160.000000 0.7782 0.7788 0.7795 0.7801 0.7808
2155.000000 0.7814 0.7821 0.7826 0.7833 0.7839
2150.000000 0.7845 0.7851 0.7858 0.7862 0.7868
2145.000000 0.7871 0.7875 0.7880 0.7884 0.7887
2140.000000 0.7891 0.7895 0.7899 0.7899 0.7900
2135.000000 0.7899 0.7898 0.7897 0.7896 0.7895
2130.000000 0.7894 0.7893 0.7892 0.7891 0.7890
2125.000000 0.7889 0.7888 0.7887 0.7887 0.7886
2120.000000 0.7885 0.7884 0.7883 0.7882 0.7881
2115.000000 0.7878 0.7878 0.7876 0.7875 0.7876
2110.000000 0.7880 0.7883 0.7886 0.7889 0.7892
2105.000000 0.7895 0.7899 0.7905 0.7911 0.7918
2100.000000 0.7925 0.7932 0.7939 0.7945 0.7951
2095.000000 0.7958 0.7965 0.7971 0.7978 0.7985
2090.000000 0.7992 0.7999 0.8006 0.8012 0.8021
2085.000000 0.8028 0.8035 0.8042 0.8050 0.8056
2080.000000 0.8062 0.8068 0.8075 0.8082 0.8088
2075.000000 0.8094 0.8100 0.8106 0.8112 0.8118
2070.000000 0.8125 0.8131 0.8137 0.8143 0.8150
2065.000000 0.8156 0.8161 0.8168 0.8174 0.8180
2060.000000 0.8187 0.8193 0.8200 0.8207 0.8214
2055.000000 0.8220 0.8227 0.8234 0.8241 0.8248
2050.000000 0.8255 0.8261 0.8268 0.8275 0.8282
2045.000000 0.8289 0.8296 0.8303 0.8310 0.8317
2040.000000 0.8324 0.8332 0.8341 0.8349 0.8358
2035.000000 0.8363 0.8368 0.8374 0.8380 0.8385
2030.000000 0.8390 0.8395 0.8401 0.8406 0.8411
2025.000000 0.8416 0.8421 0.8423 0.8424 0.8425
2020.000000 0.8427 0.8428 0.8428 0.8430 0.8432
2015.000000 0.8433 0.8434 0.8435 0.8436 0.8436
2010.000000 0.8437 0.8437 0.8438 0.8438 0.8439
2005.000000 0.8439 0.8440 0.8440 0.8441 0.8442
2000.000000 0.8443 0.8443 0.8444 0.8445 0.8446
1995.000000 0.8447 0.8448 0.8450 0.8451 0.8452
1990.000000 0.8453 0.8454 0.8455 0.8456 0.8457
1985.000000 0.8458 0.8460 0.8461 0.8462 0.8463
1980.000000 0.8464 0.8465 0.8466 0.8468 0.8468
1975.000000 0.8470 0.8474 0.8478 0.8482 0.8486
1970.000000 0.8490 0.8494 0.8500 0.8505 0.8510
1965.000000 0.8516 0.8521 0.8525 0.8531 0.8537
1960.000000 0.8542 0.8547 0.8552 0.8560 0.8567
1955.000000 0.8574 0.8581 0.8590 0.8598 0.8606
1950.000000 0.8615 0.8623 0.8630 0.8637 0.8643
1945.000000 0.8650 0.8655 0.8658 0.8661 0.8661
1940.000000 0.8661 0.8661 0.8661 0.8661 0.8661
1935.000000 0.8660 0.8660 0.8660 0.8660 0.8660
1930.000000 0.8660 0.8660 0.8659 0.8659 0.8659
1925.000000 0.8658 0.8658 0.8657 0.8657 0.8656
1920.000000 0.8656 0.8657 0.8657 0.8659 0.8661
1915.000000 0.8664 0.8666 0.8668 0.8670 0.8671
1910.000000 0.8673 0.8675 0.8675 0.8678 0.8680
1905.000000 0.8646 0.8683 0.8685 0.8686 0.8686
1900.000000 0.8684 0.8683 0.8682 0.8681 0.8680
1895.000000 0.8678 0.8677 0.8675 0.8675 0.8674
1890.000000 0.8674 0.8674 0.8674 0.8674 0.8674
1885.000000 0.8674 0.8674 0.8674 0.8674 0.8673
1880.000000 0.8671 0.8670 0.8668 0.8666 0.8660
1875.000000 0.8653 0.8646 0.8640 0.8633 0.8625
1870.000000 0.8618 0.8612 0.8605 0.8596 0.8585
1865.000000 0.8574 0.8562 0.8551 0.8540 0.8527
1860.000000 0.8510 0.8493 0.8475 0.8458 0.8440
1855.000000 0.8423 0.8405 0.8389 0.8375 0.8361
1850.000000 0.8347 0.8334 0.8325 0.8318 0.8310
1845.000000 0.8303 0.8295 0.8287 0.8278 0.8268
1840.000000 0.8256 0.8243 0.8230 0.8217 0.8204
1835.000000 0.8191 0.8171 0.8151 0.8131 0.8093
1830.000000 0.8055 0.8015 0.7968 0.7922 0.7875
1825.000000 0.7822 0.7760 0.7697 0.7635 0.7572
1820.000000 0.7511 0.7450 0.7388 0.7333 0.7282
1815.000000 0.7251 0.7221 0.7199 0.7176 0.7172
1810.000000 0.7174 0.7175 0.7175 0.7180 0.7187
1805.000000 0.7194 0.7201 0.7207 0.7214 0.7219
1800.000000 0.7226 0.7233 0.7240 0.7246 0.7251
1795.000000 0.7256 0.7261 0.7267 0.7268 0.7271
1790.000000 0.7272 0.7269 0.7267 0.7254 0.7239
1785.000000 0.7218 0.7196 0.7175 0.7156 0.7122
1780.000000 0.7083 0.7040 0.6932 0.6841 0.6756
1775.000000 0.6683 0.6622 0.6562 0.6492 0.6385
1770.000000 0.6323 0.6266 0.6212 0.6159 0.6118
1765.000000 0.6079 0.6040 0.6001 0.5953 0.5912
1760.000000 0.5871 0.5824 0.5783 0.5746 0.5709
1755.000000 0.5651 0.5568 0.5485 0.5402 0.5273
1750.000000 0.5135 0.4945 0.4639 0.4412 0.4226
1745.000000 0.4040 0.3758 0.3512 0.3295 0.2730
1740.000000 0.2483 0.2155 0.2026 0.1896 0.1694
1735.000000 0.1461 0.1277 0.1064 0.0776 0.0590
1730.000000 0.0482 0.0407 0.0371 0.0342 0.0329
1725.000000 0.0316 0.0303 0.0292 0.0281 0.0272
1720.000000 0.0263 0.0254 0.0247 0.0247 0.0249
1715.000000 0.0250 0.0260 0.0273 0.0298 0.0339
1710.000000 0.0386 0.0411 0.0425 0.0429 0.0445
1705.000000 0.0448 0.0450 0.0438 0.0411 0.0377
1700.000000 0.0330 0.0291 0.0267 0.0244 0.0235
1695.000000 0.0217 0.0226 0.0226 0.0226 0.0225
1690.000000 0.0228 0.0235 0.0243 0.0275 0.0310
1685.000000 0.0366 0.0425 0.0509 0.0594 0.0712
1680.000000 0.0903 0.1115 0.1227 0.1339 0.1454
1675.000000 0.1578 0.1702 0.1834 0.2011 0.2148
1670.000000 0.2234 0.2321 0.2408 0.2488 0.2561
1665.000000 0.2634 0.2708 0.2793 0.2878 0.2954
1660.000000 0.3020 0.3084 0.3151 0.3216 0.3280
1655.000000 0.3344 0.3407 0.3470 0.3532 0.3599
1650.000000 0.3666 0.3734 0.3799 0.3862 0.3928
1645.000000 0.3991 0.4045 0.4099 0.4152 0.4203
1640.000000 0.4251 0.4299 0.4347 0.4395 0.4445
1635.000000 0.4510 0.4580 0.4668 0.4753 0.4832
1630.000000 0.4908 0.4981 0.5037 0.5074 0.5091
1625.000000 0.5108 0.5120 0.5124 0.5130 0.5132
1620.000000 0.5132 0.5116 0.5085 0.5044 0.4969
1615.000000 0.4862 0.4289 0.4112 0.3999 0.3932
1610.000000 0.3697 0.3462 0.3228 0.2994 0.2759
1605.000000 0.2524 0.2290 0.2143 0.2134 0.2130
1600.000000 0.2131 0.2139 0.2146 0.2185 0.2266
1595.000000 0.2405 0.2531 0.2635 0.2766 0.2940
1590.000000 0.3357 0.3559 0.3696 0.3877 0.4162
1585.000000 0.4498 0.4628 0.4759 0.4929 0.5064
1580.000000 0.5176 0.5266 0.5320 0.5375 0.5410
1575.000000 0.5436 0.5462 0.5488 0.5514 0.5540
1570.000000 0.5579 0.5629 0.5662 0.5683 0.5705
1565.000000 0.5727 0.5749 0.5783 0.5816 0.5850
1560.000000 0.5886 0.5923 0.5960 0.5997 0.6029
1555.000000 0.6055 0.6082 0.6108 0.6135 0.6160
1550.000000 0.6188 0.6214 0.6241 0.6265 0.6289
1545.000000 0.6314 0.6338 0.6362 0.6384 0.6404
1540.000000 0.6424 0.6444 0.6464 0.6484 0.6504
1535.000000 0.6525 0.6535 0.6544 0.6553 0.6561
1530.000000 0.6571 0.6581 0.6590 0.6599 0.6607
1525.000000 0.6615 0.6625 0.6634 0.6643 0.6651
1520.000000 0.6660 0.6668 0.6675 0.6683 0.6691
1515.000000 0.6699 0.6707 0.6714 0.6721 0.6731
1510.000000 0.6740 0.6749 0.6757 0.6765 0.6775
1505.000000 0.6780 0.6784 0.6788 0.6792 0.6796
1500.000000 0.6799 0.6803 0.6807 0.6811 0.6815
1495.000000 0.6818 0.6821 0.6825 0.6830 0.6834
1490.000000 0.6836 0.6838 0.6839 0.6841 0.6842
1485.000000 0.6844 0.6845 0.6846 0.6847 0.6849
1480.000000 0.6851 0.6855 0.6858 0.6862 0.6868
1475.000000 0.6874 0.6880 0.6886 0.6896 0.6905
1470.000000 0.6915 0.6925 0.6936 0.6941 0.6946
1465.000000 0.6946 0.6947 0.6941 0.6934 0.6893
1460.000000 0.6821 0.6724 0.6634 0.6551 0.6468
1455.000000 0.6322 0.5229 0.4838 0.4712 0.4520
1450.000000 0.4524 0.4544 0.4564 0.4570 0.4560
1445.000000 0.4491 0.4340 0.4038 0.3736 0.3434
1440.000000 0.3133 0.2831 0.2542 0.2548 0.2544
1435.000000 0.2542 0.2547 0.2584 0.2702 0.2862
1430.000000 0.2952 0.3041 0.3127 0.3205 0.3282
1425.000000 0.3359 0.3437 0.3716 0.4382 0.4568
1420.000000 0.4747 0.4862 0.4957 0.5051 0.5143
1415.000000 0.5234 0.5326 0.5383 0.5436 0.5489
1410.000000 0.5541 0.5583 0.5625 0.5667 0.5708
1405.000000 0.5750 0.5792 0.5841 0.5902 0.5962
1400.000000 0.6014 0.6048 0.6082 0.6116 0.6150
1395.000000 0.6181 0.6209 0.6237 0.6265 0.6293
1390.000000 0.6320 0.6341 0.6362 0.6384 0.6405
1385.000000 0.6425 0.6447 0.6469 0.6494 0.6517
1380.000000 0.6541 0.6564 0.6588 0.6608 0.6626
1375.000000 0.6646 0.6665 0.6685 0.6703 0.6719
1370.000000 0.6736 0.6753 0.6769 0.6787 0.6805
1365.000000 0.6818 0.6830 0.6841 0.6844 0.6844
1360.000000 0.6861 0.6842 0.6832 0.6821 0.6808
1355.000000 0.6786 0.6765 0.6743 0.6721 0.6700
1350.000000 0.6668 0.6618 0.6567 0.6515 0.6428
1345.000000 0.6324 0.6219 0.6112 0.5988 0.5770
1340.000000 0.5524 0.5271 0.5050 0.4336 0.3597
1335.000000 0.2857 0.2117 0.1794 0.1784 0.1821
1330.000000 0.1781 0.1800 0.1958 0.2401 0.2845
1325.000000 0.3288 0.3730 0.4175 0.4618 0.5062
1320.000000 0.5505 0.5949 0.6281 0.6298 0.6298
1315.000000 0.6298 0.6270 0.6210 0.6195 0.6196
1310.000000 0.6236 0.6389 0.6555 0.6721 0.6888
1305.000000 0.7055 0.7221 0.7388 0.7554 0.7644
1300.000000 0.7704 0.7775 0.7839 0.7875 0.7897
1295.000000 0.7911 0.7921 0.7914 0.7912 0.7911
1290.000000 0.7894 0.7851 0.7808 0.7743 0.7672
1285.000000 0.7496 0.6998 0.6983 0.6968 0.7021
1280.000000 0.7112 0.7369 0.7595 0.7761 0.7868
1275.000000 0.7974 0.8081 0.8137 0.8193 0.8250
1270.000000 0.8306 0.8362 0.8418 0.8471 0.8521
1265.000000 0.8574 0.8607 0.8634 0.8660 0.8686
1260.000000 0.8705 0.8723 0.8742 0.8752 0.8760
1255.000000 0.8767 0.8775 0.8830 0.8783 0.8785
1250.000000 0.8785 0.8786 0.8775 0.8766 0.8756
1245.000000 0.8746 0.8728 0.8710 0.8691 0.8671
1240.000000 0.8653 0.8634 0.8614 0.8584 0.8553
1235.000000 0.8523 0.8492 0.8456 0.8410 0.8363
1230.000000 0.8317 0.8252 0.8188 0.8099 0.7980
1225.000000 0.7835 0.7676 0.7419 0.7039 0.6840
1220.000000 0.6399 0.5953 0.5771 0.5407 0.4580
1215.000000 0.2950 0.2950 0.2949 0.3336 0.3877
1210.000000 0.4773 0.4755 0.4606 0.4365 0.4125
1205.000000 0.3884 0.3732 0.3724 0.4028 0.4405
1200.000000 0.4783 0.5160 0.5537 0.5914 0.6292
1195.000000 0.6668 0.7046 0.7337 0.7357 0.7365
1190.000000 0.7408 0.7374 0.7371 0.7356 0.7334
1185.000000 0.7289 0.7239 0.7181 0.7099 0.7018
1180.000000 0.6934 0.6849 0.6765 0.6669 0.6532
1175.000000 0.6393 0.6203 0.5441 0.4871 0.4301
1170.000000 0.3730 0.3603 0.3599 0.3622 0.3734
1165.000000 0.4066 0.4400 0.4733 0.5066 0.5399
1160.000000 0.5552 0.5581 0.5572 0.5566 0.5556
1155.000000 0.5506 0.5424 0.5322 0.5202 0.5083
1150.000000 0.4960 0.4837 0.4612 0.4350 0.4136
1145.000000 0.3825 0.3457 0.3244 0.2777 0.2623
1140.000000 0.2093 0.1563 0.1033 0.0537 0.0495
1135.000000 0.0465 0.0415 0.0441 0.0446 0.0467
1130.000000 0.0516 0.0613 0.0788 0.0863 0.0839
1125.000000 0.0845 0.0846 0.0846 0.0836 0.0809
1120.000000 0.0771 0.0727 0.0698 0.0687 0.0689
1115.000000 0.0678 0.0686 0.0719 0.0790 0.0884
1110.000000 0.1032 0.1181 0.1330 0.1478 0.1627
1105.000000 0.1776 0.1882 0.1904 0.1904 0.1900
1100.000000 0.1882 0.1836 0.1729 0.1468 0.1204
1095.000000 0.0939 0.0676 0.0412 0.0163 0.0104
1090.000000 0.0069 0.0039 0.0019 0.0007 0.0001
1085.000000 0.0001 0.0001 0.0001 0.0001 0.0001
1080.000000 0.0014 0.0034 0.0054 0.0078 0.0108
1075.000000 0.0155 0.0208 0.0279 0.0372 0.0486
1070.000000 0.0582 0.0659 0.0735 0.0812 0.0975
1065.000000 0.1220 0.1504 0.1612 0.1692 0.1771
1060.000000 0.1850 0.1929 0.2023 0.2118 0.2213
1055.000000 0.2344 0.2556 0.2767 0.2966 0.3163
1050.000000 0.3353 0.3521 0.3688 0.3854 0.3993
1045.000000 0.4133 0.4273 0.4560 0.4759 0.4870
1040.000000 0.4981 0.5093 0.5204 0.5315 0.5426
1035.000000 0.5546 0.5683 0.5820 0.5929 0.6010
1030.000000 0.6092 0.6173 0.6243 0.6292 0.6340
1025.000000 0.6389 0.6437 0.6487 0.6538 0.6588
1020.000000 0.6638 0.6691 0.6762 0.6800 0.6825
1015.000000 0.6850 0.6861 0.6871 0.6881 0.6878
1010.000000 0.6889 0.6893 0.6880 0.6867 0.6854
1005.000000 0.6821 0.6776 0.6731 0.6672 0.6614
1000.000000 0.6556 0.6497 0.6366 0.6083 0.5983
995.000000 0.5860 0.5071 0.4273 0.4310 0.4460
990.000000 0.4609 0.4757 0.4839 0.4836 0.4546
985.000000 0.4195 0.3845 0.3494 0.3144 0.3106
980.000000 0.3084 0.3095 0.3134 0.3259 0.3499
975.000000 0.3739 0.3978 0.4218 0.4458 0.4697
970.000000 0.4937 0.5176 0.5416 0.5656 0.5895
965.000000 0.6135 0.6375 0.6614 0.6880 0.6986
960.000000 0.7078 0.7144 0.7195 0.7221 0.7247
955.000000 0.7265 0.7274 0.7282 0.7291 0.7299
950.000000 0.7310 0.7315 0.7315 0.7315 0.7310
945.000000 0.7305 0.7298 0.7286 0.7269 0.7240
940.000000 0.7210 0.7161 0.7111 0.7057 0.6999
935.000000 0.6942 0.6861 0.6772 0.6706 0.6651
930.000000 0.6603 0.6578 0.6578 0.6578 0.6589
925.000000 0.6603 0.6615 0.6630 0.6644 0.6698
920.000000 0.6735 0.6746 0.6754 0.6754 0.6754
915.000000 0.6738 0.6712 0.6656 0.6596 0.6518
910.000000 0.6332 0.5762 0.5193 0.5165 0.5134
905.000000 0.5272 0.5535 0.5799 0.6062 0.6325
900.000000 0.6589 0.6851 0.6968 0.7010 0.7026
895.000000 0.7037 0.7047 0.7056 0.7058 0.7060
890.000000 0.7061 0.7064 0.7064 0.7064 0.7064
885.000000 0.7064 0.7064 0.7064 0.7062 0.7061
880.000000 0.7061 0.7061 0.7065 0.7083 0.7103
875.000000 0.7133 0.7164 0.7195 0.7225 0.7258
870.000000 0.7290 0.7321 0.7353 0.7386 0.7418
865.000000 0.7450 0.7478 0.7508 0.7533 0.7550
860.000000 0.7557 0.7568 0.7561 0.7555 0.7538
855.000000 0.7510 0.7482 0.7449 0.7407 0.7354
850.000000 0.7250 0.7101 0.6724 0.6341 0.5958
845.000000 0.5575 0.5192 0.5071 0.5070 0.5089
840.000000 0.5210 0.5345 0.5479 0.5612 0.5747
835.000000 0.5882 0.6016 0.6150 0.6284 0.6418
830.000000 0.6468 0.6490 0.6518 0.6505 0.6501
825.000000 0.6495 0.6461 0.6421 0.6354 0.6286
820.000000 0.6210 0.6136 0.6056 0.5967 0.5878
815.000000 0.5740 0.5432 0.5125 0.4817 0.4510
810.000000 0.4202 0.3895 0.3709 0.3693 0.3678
805.000000 0.3684 0.3698 0.3762 0.4042 0.4244
800.000000 0.4447 0.4649 0.4851 0.5054 0.5256
795.000000 0.5458 0.5660 0.5862 0.6065 0.6267
790.000000 0.6469 0.6671 0.6789 0.6858 0.6924
785.000000 0.6974 0.7015 0.7041 0.7054 0.7122
780.000000 0.7074 0.7075 0.7068 0.7051 0.7034
775.000000 0.6958 0.6868 0.6783 0.6672 0.6521
770.000000 0.6338 0.6138 0.5938 0.5738 0.5538
765.000000 0.5338 0.5138 0.4938 0.4738 0.4538
760.000000 0.4381 0.4337 0.4345 0.4355 0.4519
755.000000 0.4826 0.5133 0.5440 0.5747 0.6054
750.000000 0.6360 0.6434 0.6480 0.6475 0.6474
745.000000 0.6472 0.6454 0.6434 0.6412 0.6387
740.000000 0.6343 0.6299 0.6234 0.6144 0.6048
735.000000 0.5944 0.5852 0.5831 0.5825 0.5819
730.000000 0.5814 0.5809 0.5794 0.5773 0.5741
725.000000 0.5709 0.5678 0.5651 0.5624 0.5596
720.000000 0.5569 0.5542 0.5517 0.5501 0.5484
715.000000 0.5470 0.5459 0.5447 0.5443 0.5440
710.000000 0.5441 0.5443 0.5446 0.5454 0.5467
705.000000 0.5486 0.5524 0.5564 0.5612 0.5677
700.000000 0.5752 0.5828 0.5901 0.5960 0.6021
695.000000 0.6081 0.6140 0.6197 0.6255 0.6308
690.000000 0.6355 0.6401 0.6446 0.6487 0.6525
685.000000 0.6581 0.6735 0.6889 0.7044 0.7198
680.000000 0.7314 0.7308 0.7324 0.7174 0.6742
675.000000 0.6310 0.5878 0.5347 0.5348 0.5343
670.000000 0.5628 0.6025 0.6300 0.6386 0.6501
665.000000 0.6633 0.6725 0.6815 0.6894 0.6971
660.000000 0.7049 0.7108 0.7160 0.7211 0.7253
655.000000 0.7294 0.7335 0.7367 0.7394 0.7415
650.000000 0.7437 0.7450 0.7458 0.7458 0.7458
645.000000 0.7458 0.7458 0.7447 0.7419 0.7372
640.000000 0.7322 0.7138 0.7168 0.7151 0.7146
635.000000 0.7186 0.7431 0.7675 0.7858 0.7976
630.000000 0.8078 0.8085 0.8086 0.8058 0.8011
625.000000 0.7928 0.7817 0.7610 0.7457 0.7312
620.000000 0.6671 0.5250 0.5241 0.5239 0.5542
615.000000 0.5893 0.6244 0.6596 0.6947 0.7283
610.000000 0.7293 0.7297 0.7297 0.6954 0.6548
605.000000 0.6141 0.5735 0.4730 0.4922 0.4733
600.000000 0.4891 0.5607 0.6323 0.7039 0.7755
595.000000 0.8388 0.8558 0.8721 0.8770 0.8800
590.000000 0.8818 0.8858 0.8837 0.8838 0.8833
585.000000 0.8818 0.8802 0.8759 0.8709 0.8633
580.000000 0.8531 0.8437 0.8370 0.8302 0.8235
575.000000 0.8156 0.8058 0.7961 0.7872 0.7794
570.000000 0.7736 0.7708 0.7693 0.7675 0.7687
565.000000 0.7691 0.7732 0.7830 0.7922 0.7993
560.000000 0.8055 0.8108 0.8156 0.8194 0.8227
555.000000 0.8268 0.8298 0.8339 0.8316 0.8317
550.000000 0.8285 0.8220 0.8045 0.7511 0.6980
545.000000 0.6448 0.5915 0.5383 0.4850 0.4318
540.000000 0.3784 0.3253 0.3083 0.3039 0.2996
535.000000 0.2952 0.2909 0.2829 0.2842 0.2987
530.000000 0.3804 0.4620 0.5437 0.6253 0.7064
525.000000 0.8012 0.8210 0.8321 0.8433 0.8574
520.000000 0.8720 0.8803 0.8878 0.8952 0.9005
515.000000 0.9043 0.9078 0.9097 0.9116 0.9132
510.000000 0.9144 0.9181 0.9155 0.9158 0.9158
505.000000 0.9159 0.9152 0.9137 0.9098 0.9040
500.000000 0.8975 0.8847 0.8578 0.8241 0.7901
495.000000 0.7564 0.7225 0.6887 0.6506 0.6521
490.000000 0.6515 0.6538 0.6754 0.6997 0.7239
485.000000 0.7482 0.7724 0.7967 0.8210 0.8452
480.000000 0.8695 0.8932 0.9054 0.9116 0.9157
475.000000 0.9184 0.9202 0.9207 0.9247 0.9212
470.000000 0.9210 0.9197 0.9178 0.9159 0.9140
465.000000 0.9108 0.9071 0.9034 0.8994 0.8952
460.000000 0.8909 0.8855 0.8791 0.8717 0.8632
455.000000 0.8558 0.8468 0.8335 0.8056 0.7919
450.000000 0.7811 0.7785 0.7776 0.7845 0.7928
445.000000 0.8010 0.8038 0.8037 0.8026 0.8007
440.000000 0.7956 0.7911 0.7875 0.7839 0.7806
435.000000 0.7775 0.7743 0.7711 0.7681 0.7607
430.000000 0.7508 0.7401 0.7294 0.7187 0.7078
425.000000 0.6971 0.6865 0.6758 0.6651 0.6458
420.000000 0.6229 0.5925 0.5843 0.5760 0.5679
415.000000 0.5599 0.5553 0.5507 0.5460 0.5446
410.000000 0.5435 0.5423 0.5412 0.5403 0.5395
405.000000 0.5387 0.5379 0.5371
##END=
