##TITLE=10-(3-DIMETHYLAMINOPROPYL)-2-METHYLTHIOPHENOTHIAZINE, HYDROCHLORIDE
##JCAMP-DX=4.24
##DATA TYPE=INFRARED SPECTRUM
##CLASS=COBLENTZ III
##ORIGIN=SMITH KLINE & FRENCH LABS.
##OWNER=COBLENTZ SOCIETY
Collection (C) 2018 copyright by the U.S. Secretary of Commerce
on behalf of the United States of America. All rights reserved.
##DATE=1959/08/10
##NAMES=N,N-dimethyl-3-[2-(methylsulfanyl)-10H-phenothiazin-10-yl]-1-propanamine hydrochloride
##MOLFORM=C18 H23 Cl N2 S2
##SOURCE REFERENCE=COBLENTZ NO. 9141
##$NIST ID=B6009141
##$NIST SOURCE=COBLENTZ
##$NIST IMAGE=cob9141
##SPECTROMETER/DATA SYSTEM=Not specified, most likely a prism spectrometer.
##INSTRUMENT PARAMETERS=NaCl PRISM
##STATE=SOLID (KBr DISC)
$$ SPECTRAL CONTAMINATION DUE TO H2O AROUND 3400 CM^-^1
##SAMPLING PROCEDURE=TRANSMISSION
##RESOLUTION=2
##DATA PROCESSING=DIGITIZED BY NIST FROM HARD COPY
##XUNITS=MICROMETERS
##YUNITS=TRANSMITTANCE
##XFACTOR=1.000000
##YFACTOR=1
##DELTAX=000.004890
##FIRSTX=1.998
##LASTX=14.8629
##FIRSTY=0.317
##MAXX=14.8629
##MINX=1.998
##MAXY=0.769
##MINY=0.107
##NPOINTS=2632
##XYDATA=(X++(Y..Y))
1.998000 0.3170 0.3170 0.3170 0.3170 0.3170
2.022459 0.3170 0.3170 0.3170 0.3180 0.3170
2.046000 0.3170 0.3180 0.3180 0.3180 0.3180
2.070459 0.3170 0.3160 0.3130 0.3110 0.3100
2.095000 0.3110 0.3150 0.3160 0.3170 0.3180
2.119459 0.3190 0.3220 0.3230 0.3230 0.3240
2.144000 0.3260 0.3290 0.3320 0.3340 0.3350
2.168459 0.3360 0.3360 0.3380 0.3380 0.3390
2.193000 0.3390 0.3400 0.3400 0.3400 0.3430
2.217459 0.3450 0.3470 0.3500 0.3550 0.3560
2.242000 0.3560 0.3570 0.3570 0.3580 0.3580
2.266459 0.3580 0.3570 0.3570 0.3550 0.3550
2.291000 0.3540 0.3550 0.3560 0.3610 0.3650
2.315459 0.3660 0.3670 0.3670 0.3620 0.3610
2.340000 0.3610 0.3630 0.3720 0.3740 0.3760
2.364459 0.3770 0.3790 0.3790 0.3790 0.3770
2.389000 0.3760 0.3770 0.3780 0.3790 0.3820
2.413459 0.3820 0.3830 0.3840 0.3870 0.3880
2.438000 0.3910 0.3930 0.3930 0.3930 0.3910
2.462459 0.3910 0.3900 0.3870 0.3870 0.3850
2.487000 0.3870 0.3880 0.3960 0.4000 0.4010
2.511459 0.4010 0.4040 0.4040 0.4050 0.4050
2.535000 0.4060 0.4060 0.4060 0.4070 0.4070
2.559459 0.4070 0.4070 0.4100 0.4110 0.4110
2.584000 0.4120 0.4130 0.4130 0.4150 0.4160
2.608459 0.4160 0.4170 0.4180 0.4200 0.4210
2.633000 0.4220 0.4240 0.4260 0.4280 0.4290
2.657459 0.4310 0.4310 0.4320 0.4330 0.4330
2.682000 0.4320 0.4320 0.4330 0.4330 0.4330
2.706459 0.4340 0.4340 0.4340 0.4340 0.4350
2.731000 0.4350 0.4350 0.4370 0.4370 0.4370
2.755459 0.4370 0.4370 0.4380 0.4380 0.4380
2.780000 0.4380 0.4370 0.4350 0.4290 0.4270
2.804459 0.4230 0.4230 0.4200 0.4180 0.4160
2.829000 0.4130 0.4130 0.4100 0.4070 0.4050
2.853459 0.4020 0.4000 0.3990 0.3960 0.3950
2.878000 0.3930 0.3910 0.3890 0.3890 0.3880
2.902459 0.3870 0.3850 0.3850 0.3840 0.3840
2.927000 0.3820 0.3820 0.3820 0.3820 0.3830
2.951459 0.3830 0.3840 0.3840 0.3840 0.3870
2.976000 0.3900 0.3930 0.3940 0.3960 0.3990
3.000459 0.4060 0.4110 0.4150 0.4170 0.4220
3.024000 0.4260 0.4290 0.4330 0.4370 0.4400
3.048459 0.4430 0.4450 0.4460 0.4500 0.4500
3.073000 0.4510 0.4510 0.4520 0.4540 0.4560
3.097459 0.4590 0.4610 0.4630 0.4660 0.4680
3.122000 0.4710 0.4730 0.4760 0.4790 0.4830
3.146459 0.4880 0.4920 0.4920 0.4940 0.4950
3.171000 0.4980 0.5000 0.5010 0.5030 0.5040
3.195459 0.5040 0.5060 0.5060 0.5070 0.5070
3.220000 0.5070 0.5060 0.5060 0.5050 0.5050
3.244459 0.5040 0.5040 0.5030 0.5030 0.5030
3.269000 0.5030 0.5010 0.5010 0.5000 0.4960
3.293459 0.4950 0.4930 0.4920 0.4900 0.4900
3.318000 0.4900 0.4890 0.4880 0.4850 0.4820
3.342459 0.4740 0.4650 0.4510 0.4450 0.4430
3.367000 0.4420 0.4420 0.4400 0.4390 0.4370
3.391459 0.4270 0.4100 0.3940 0.3840 0.3520
3.416000 0.3410 0.3390 0.3390 0.3410 0.3510
3.440459 0.3550 0.3580 0.3620 0.3660 0.3680
3.465000 0.3710 0.3740 0.3780 0.3820 0.3890
3.489459 0.3940 0.3960 0.3950 0.3950 0.3940
3.513000 0.3930 0.3930 0.3930 0.3950 0.4020
3.537459 0.4100 0.4310 0.4330 0.4350 0.4380
3.562000 0.4500 0.4570 0.4660 0.4680 0.4720
3.586459 0.4740 0.4760 0.4810 0.4830 0.4850
3.611000 0.4880 0.4900 0.4930 0.4940 0.4940
3.635459 0.4940 0.4940 0.4950 0.4950 0.4950
3.660000 0.4950 0.4940 0.4940 0.4930 0.4920
3.684459 0.4890 0.4870 0.4820 0.4770 0.4710
3.709000 0.4620 0.4520 0.4500 0.4460 0.4420
3.733459 0.4370 0.4310 0.4230 0.4150 0.4060
3.758000 0.3960 0.3870 0.3760 0.3510 0.3390
3.782459 0.3260 0.3230 0.3190 0.3160 0.3100
3.807000 0.3050 0.2990 0.2940 0.2880 0.2840
3.831459 0.2790 0.2750 0.2730 0.2690 0.2680
3.856000 0.2670 0.2600 0.2510 0.2420 0.2410
3.880459 0.2400 0.2360 0.2310 0.2290 0.2280
3.905000 0.2280 0.2290 0.2300 0.2330 0.2350
3.929459 0.2400 0.2450 0.2490 0.2510 0.2560
3.954000 0.2600 0.2610 0.2620 0.2630 0.2640
3.978459 0.2640 0.2640 0.2640 0.2630 0.2630
4.002000 0.2610 0.2580 0.2560 0.2550 0.2530
4.026459 0.2510 0.2470 0.2420 0.2380 0.2350
4.051000 0.2330 0.2300 0.2280 0.2250 0.2230
4.075459 0.2220 0.2220 0.2210 0.2220 0.2240
4.100000 0.2280 0.2330 0.2360 0.2400 0.2450
4.124459 0.2490 0.2510 0.2520 0.2550 0.2580
4.149000 0.2620 0.2660 0.2680 0.2710 0.2720
4.173459 0.2720 0.2720 0.2730 0.2780 0.2830
4.198000 0.2860 0.2900 0.2950 0.2990 0.3010
4.222459 0.3050 0.3080 0.3110 0.3130 0.3160
4.247000 0.3180 0.3190 0.3220 0.3240 0.3270
4.271459 0.3320 0.3360 0.3430 0.3510 0.3600
4.296000 0.3710 0.3770 0.3820 0.3850 0.3890
4.320459 0.3910 0.3930 0.3940 0.3950 0.3960
4.345000 0.4000 0.4050 0.4110 0.4170 0.4230
4.369459 0.4290 0.4370 0.4430 0.4480 0.4520
4.394000 0.4560 0.4570 0.4570 0.4590 0.4600
4.418459 0.4610 0.4610 0.4610 0.4630 0.4710
4.443000 0.4770 0.4830 0.4870 0.4900 0.4920
4.467459 0.4930 0.4940 0.4950 0.4960 0.4980
4.491000 0.4980 0.4990 0.5000 0.5000 0.5010
4.515459 0.5030 0.5040 0.5050 0.5070 0.5090
4.540000 0.5110 0.5140 0.5150 0.5170 0.5200
4.564459 0.5220 0.5250 0.5270 0.5290 0.5320
4.589000 0.5340 0.5370 0.5390 0.5400 0.5420
4.613459 0.5420 0.5430 0.5430 0.5430 0.5440
4.638000 0.5440 0.5470 0.5540 0.5560 0.5600
4.662459 0.5620 0.5600 0.5570 0.5550 0.5540
4.687000 0.5530 0.5540 0.5550 0.5560 0.5570
4.711459 0.5570 0.5590 0.5600 0.5610 0.5640
4.736000 0.5670 0.5680 0.5680 0.5680 0.5640
4.760459 0.5640 0.5650 0.5650 0.5670 0.5720
4.785000 0.5760 0.5760 0.5820 0.5830 0.5830
4.809459 0.5830 0.5830 0.5820 0.5780 0.5780
4.834000 0.5810 0.5840 0.5860 0.5860 0.5870
4.858459 0.5870 0.5880 0.5880 0.5900 0.5930
4.883000 0.5930 0.5940 0.5950 0.5950 0.5970
4.907459 0.5970 0.5980 0.5990 0.5990 0.6000
4.932000 0.6000 0.6010 0.6030 0.6030 0.6030
4.956459 0.6040 0.6040 0.6050 0.6060 0.6060
4.980000 0.6060 0.6060 0.6050 0.6050 0.6060
5.004459 0.6050 0.6060 0.6080 0.6090 0.6110
5.029000 0.6140 0.6170 0.6210 0.6210 0.6220
5.053459 0.6230 0.6250 0.6250 0.6250 0.6250
5.078000 0.6250 0.6250 0.6250 0.6250 0.6260
5.102459 0.6270 0.6270 0.6270 0.6280 0.6300
5.127000 0.6300 0.6300 0.6300 0.6300 0.6300
5.151459 0.6300 0.6300 0.6280 0.6270 0.6260
5.176000 0.6250 0.6250 0.6250 0.6220 0.6230
5.200459 0.6250 0.6250 0.6250 0.6260 0.6260
5.225000 0.6270 0.6270 0.6340 0.6360 0.6360
5.249459 0.6360 0.6360 0.6340 0.6330 0.6320
5.274000 0.6320 0.6310 0.6310 0.6300 0.6270
5.298459 0.6260 0.6270 0.6280 0.6300 0.6320
5.323000 0.6340 0.6380 0.6410 0.6420 0.6420
5.347459 0.6420 0.6420 0.6410 0.6390 0.6370
5.372000 0.6310 0.6300 0.6300 0.6310 0.6360
5.396459 0.6390 0.6420 0.6440 0.6480 0.6520
5.421000 0.6540 0.6560 0.6590 0.6590 0.6600
5.445459 0.6600 0.6600 0.6600 0.6560 0.6560
5.469000 0.6560 0.6560 0.6580 0.6590 0.6590
5.493459 0.6590 0.6590 0.6600 0.6610 0.6640
5.518000 0.6660 0.6690 0.6710 0.6720 0.6720
5.542459 0.6730 0.6730 0.6730 0.6750 0.6750
5.567000 0.6750 0.6750 0.6750 0.6730 0.6720
5.591459 0.6720 0.6710 0.6700 0.6660 0.6630
5.616000 0.6630 0.6610 0.6630 0.6640 0.6670
5.640459 0.6700 0.6720 0.6730 0.6730 0.6750
5.665000 0.6760 0.6760 0.6770 0.6780 0.6810
5.689459 0.6820 0.6830 0.6830 0.6830 0.6830
5.714000 0.6840 0.6840 0.6840 0.6840 0.6840
5.738459 0.6840 0.6830 0.6830 0.6810 0.6810
5.763000 0.6800 0.6800 0.6800 0.6810 0.6810
5.787459 0.6820 0.6820 0.6820 0.6820 0.6810
5.812000 0.6810 0.6810 0.6800 0.6800 0.6800
5.836459 0.6780 0.6780 0.6780 0.6770 0.6770
5.861000 0.6770 0.6770 0.6770 0.6770 0.6770
5.885459 0.6770 0.6770 0.6770 0.6770 0.6780
5.910000 0.6780 0.6780 0.6800 0.6800 0.6800
5.934459 0.6800 0.6800 0.6800 0.6810 0.6810
5.958000 0.6810 0.6810 0.6810 0.6810 0.6810
5.982459 0.6810 0.6800 0.6800 0.6800 0.6780
6.007000 0.6760 0.6750 0.6730 0.6750 0.6750
6.031459 0.6760 0.6770 0.6770 0.6770 0.6760
6.056000 0.6760 0.6750 0.6750 0.6730 0.6730
6.080459 0.6720 0.6710 0.6700 0.6700 0.6690
6.105000 0.6690 0.6670 0.6670 0.6660 0.6640
6.129459 0.6640 0.6630 0.6640 0.6650 0.6660
6.154000 0.6670 0.6670 0.6650 0.6640 0.6630
6.178459 0.6630 0.6610 0.6610 0.6600 0.6550
6.203000 0.6520 0.6500 0.6520 0.6530 0.6540
6.227459 0.6560 0.6580 0.6580 0.6580 0.6580
6.252000 0.6560 0.6530 0.6530 0.6470 0.6360
6.276459 0.6050 0.5860 0.5650 0.5430 0.5210
6.301000 0.4880 0.4840 0.4830 0.4820 0.4830
6.325459 0.4850 0.4880 0.4850 0.4630 0.4270
6.350000 0.3980 0.3630 0.3410 0.3300 0.3180
6.374459 0.3170 0.3060 0.3000 0.2940 0.2880
6.399000 0.2880 0.2970 0.3080 0.3190 0.3300
6.423459 0.3450 0.3690 0.3770 0.3840 0.3840
6.447000 0.3830 0.3610 0.3600 0.3610 0.3740
6.471459 0.3800 0.3870 0.4000 0.4100 0.4590
6.496000 0.4790 0.5000 0.5380 0.5450 0.5570
6.520459 0.6080 0.6150 0.6200 0.6250 0.6280
6.545000 0.6330 0.6360 0.6360 0.6340 0.6330
6.569459 0.6320 0.6340 0.6520 0.6550 0.6560
6.594000 0.6610 0.6630 0.6650 0.6660 0.6660
6.618459 0.6670 0.6670 0.6670 0.6670 0.6660
6.643000 0.6660 0.6660 0.6650 0.6640 0.6630
6.667459 0.6600 0.6560 0.6480 0.6340 0.6000
6.692000 0.5790 0.5540 0.5270 0.4620 0.4460
6.716459 0.4230 0.4000 0.3770 0.3280 0.3150
6.741000 0.3020 0.2860 0.2860 0.2960 0.3050
6.765459 0.3130 0.3230 0.3290 0.3350 0.3350
6.790000 0.3330 0.3180 0.3060 0.2940 0.2820
6.814459 0.2720 0.2610 0.2500 0.2240 0.2100
6.839000 0.1950 0.1780 0.1570 0.1350 0.1070
6.863459 0.1090 0.1150 0.1200 0.1230 0.1250
6.888000 0.1290 0.1340 0.1410 0.1460 0.1480
6.912459 0.1810 0.1850 0.1880 0.2410 0.2440
6.936000 0.2400 0.2380 0.2350 0.2310 0.2300
6.960459 0.2310 0.2410 0.2460 0.2500 0.2580
6.985000 0.2630 0.2750 0.2910 0.2970 0.3010
7.009459 0.3050 0.3170 0.3320 0.3390 0.3490
7.034000 0.3540 0.3570 0.3600 0.3610 0.3620
7.058459 0.3620 0.3610 0.3570 0.3510 0.3360
7.083000 0.3130 0.3070 0.2970 0.2970 0.3040
7.107459 0.3080 0.3110 0.3130 0.3170 0.3180
7.132000 0.3180 0.3210 0.3300 0.3670 0.3730
7.156459 0.3780 0.3830 0.3830 0.3830 0.3800
7.181000 0.3760 0.3510 0.3400 0.3400 0.3380
7.205459 0.3360 0.3350 0.3190 0.3190 0.3320
7.230000 0.3430 0.3520 0.3620 0.3720 0.3770
7.254459 0.3820 0.3950 0.4020 0.4100 0.4170
7.279000 0.4200 0.4390 0.4560 0.4760 0.4940
7.303459 0.4990 0.5000 0.5010 0.5140 0.5250
7.328000 0.5370 0.5440 0.5510 0.5530 0.5530
7.352459 0.5540 0.5550 0.5550 0.5650 0.5710
7.377000 0.5730 0.5750 0.5730 0.5760 0.5810
7.401459 0.5830 0.5860 0.5880 0.5900 0.5930
7.425000 0.5940 0.5950 0.5980 0.5980 0.5970
7.449459 0.5950 0.5930 0.5900 0.5900 0.5890
7.474000 0.5880 0.5840 0.5820 0.5760 0.5670
7.498459 0.5560 0.5440 0.5310 0.5170 0.5010
7.523000 0.4720 0.4570 0.4440 0.4320 0.4210
7.547459 0.4120 0.4060 0.4010 0.3960 0.3940
7.572000 0.3870 0.3830 0.3800 0.3800 0.3780
7.596459 0.3770 0.3520 0.3470 0.3430 0.3380
7.621000 0.3320 0.3300 0.3320 0.3340 0.3380
7.645459 0.3400 0.3430 0.3430 0.3410 0.3410
7.670000 0.3440 0.3680 0.3820 0.3940 0.4230
7.694459 0.4510 0.4680 0.4780 0.4870 0.4890
7.719000 0.4890 0.4880 0.4830 0.4630 0.4440
7.743459 0.4400 0.4280 0.4260 0.4200 0.4100
7.768000 0.3950 0.3840 0.3650 0.3540 0.3430
7.792459 0.3300 0.3190 0.3080 0.3070 0.3080
7.817000 0.3110 0.3180 0.3230 0.3270 0.3350
7.841459 0.3470 0.3510 0.3680 0.3760 0.3820
7.866000 0.3950 0.4100 0.4210 0.4260 0.4290
7.890459 0.4320 0.4330 0.4340 0.4340 0.4340
7.914000 0.4340 0.4330 0.4320 0.4320 0.4320
7.938459 0.4330 0.4340 0.4350 0.4370 0.4380
7.963000 0.4400 0.4380 0.4200 0.4000 0.3790
7.987459 0.3400 0.3190 0.3000 0.2800 0.2800
8.012000 0.2930 0.3060 0.3190 0.3330 0.3460
8.036459 0.3560 0.3660 0.3670 0.3670 0.3670
8.061000 0.3620 0.3600 0.3560 0.3510 0.3490
8.085459 0.3490 0.3520 0.3560 0.3600 0.3630
8.110000 0.3650 0.3690 0.3660 0.3650 0.3520
8.134459 0.3390 0.3280 0.3220 0.3170 0.3130
8.159000 0.3100 0.3070 0.3060 0.3040 0.3040
8.183459 0.3020 0.3000 0.2960 0.2910 0.2910
8.208000 0.3120 0.3330 0.3550 0.3660 0.3760
8.232459 0.3960 0.4120 0.4270 0.4400 0.4550
8.257000 0.4680 0.4810 0.4940 0.5000 0.5050
8.281459 0.5160 0.5270 0.5360 0.5450 0.5530
8.306000 0.5590 0.5650 0.5700 0.5730 0.5750
8.330459 0.5780 0.5810 0.5860 0.5900 0.5920
8.355000 0.5950 0.5970 0.5980 0.6000 0.6030
8.379459 0.6040 0.6050 0.6060 0.6080 0.6090
8.403000 0.6100 0.6100 0.6110 0.6110 0.6100
8.427459 0.6090 0.6080 0.6060 0.6050 0.6040
8.452000 0.6030 0.6000 0.5980 0.5970 0.5950
8.476459 0.5930 0.5920 0.5920 0.5900 0.5880
8.501000 0.5880 0.5870 0.5870 0.5870 0.5880
8.525459 0.5890 0.5890 0.5900 0.5930 0.5950
8.550000 0.5950 0.5970 0.5970 0.5970 0.5950
8.574459 0.5950 0.5940 0.5920 0.5880 0.5780
8.599000 0.5680 0.5590 0.5510 0.5450 0.5400
8.623459 0.5360 0.5320 0.5290 0.5280 0.5280
8.648000 0.5270 0.5260 0.5250 0.5230 0.5230
8.672459 0.5260 0.5340 0.5400 0.5450 0.5510
8.697000 0.5640 0.5650 0.5640 0.5530 0.5400
8.721459 0.5330 0.5220 0.5090 0.4740 0.4550
8.746000 0.4350 0.4240 0.4230 0.4260 0.4560
8.770459 0.4700 0.4840 0.4980 0.5050 0.5110
8.795000 0.5260 0.5390 0.5560 0.5600 0.5600
8.819459 0.5440 0.5290 0.5180 0.5090 0.4830
8.844000 0.4660 0.4390 0.4290 0.4200 0.4160
8.868459 0.4060 0.3960 0.3870 0.3770 0.3760
8.892000 0.3780 0.4070 0.4220 0.4370 0.4510
8.916459 0.4630 0.4790 0.4880 0.4940 0.4980
8.941000 0.5010 0.5090 0.5110 0.5110 0.5040
8.965459 0.4890 0.4820 0.4630 0.4460 0.4440
8.990000 0.4290 0.4180 0.4050 0.3910 0.3780
9.014459 0.3620 0.3650 0.3740 0.3840 0.4060
9.039000 0.4290 0.4540 0.4610 0.4700 0.4740
9.063459 0.4770 0.4790 0.4820 0.4840 0.4850
9.088000 0.4850 0.4850 0.4840 0.4830 0.4820
9.112459 0.4770 0.4760 0.4770 0.4830 0.4880
9.137000 0.4920 0.4950 0.4990 0.5010 0.5040
9.161459 0.5070 0.5110 0.5170 0.5220 0.5280
9.186000 0.5360 0.5440 0.5540 0.5560 0.5590
9.210459 0.5620 0.5660 0.5710 0.5760 0.5820
9.235000 0.5880 0.5940 0.5990 0.6050 0.6110
9.259459 0.6160 0.6210 0.6230 0.6250 0.6270
9.284000 0.6300 0.6310 0.6320 0.6340 0.6420
9.308459 0.6440 0.6470 0.6500 0.6520 0.6520
9.333000 0.6520 0.6520 0.6500 0.6490 0.6470
9.357459 0.6440 0.6420 0.6410 0.6370 0.6320
9.381000 0.6270 0.6190 0.6160 0.6160 0.6150
9.405459 0.6140 0.6110 0.6090 0.6080 0.6050
9.430000 0.6040 0.6030 0.6010 0.6000 0.5990
9.454459 0.5980 0.5970 0.5930 0.5900 0.5870
9.479000 0.5860 0.5840 0.5820 0.5810 0.5810
9.503459 0.5790 0.5780 0.5780 0.5770 0.5770
9.528000 0.5760 0.5730 0.5710 0.5680 0.5660
9.552459 0.5640 0.5610 0.5600 0.5590 0.5570
9.577000 0.5560 0.5560 0.5550 0.5550 0.5530
9.601459 0.5510 0.5490 0.5470 0.5430 0.5430
9.626000 0.5420 0.5400 0.5370 0.5330 0.5260
9.650459 0.5210 0.5170 0.5100 0.5030 0.4960
9.675000 0.4990 0.5010 0.5040 0.5110 0.5200
9.699459 0.5250 0.5260 0.5420 0.5540 0.5650
9.724000 0.5750 0.5820 0.5890 0.5940 0.5990
9.748459 0.6030 0.6050 0.6090 0.6110 0.6140
9.773000 0.6170 0.6200 0.6200 0.6220 0.6220
9.797459 0.6230 0.6230 0.6250 0.6250 0.6250
9.822000 0.6260 0.6260 0.6270 0.6280 0.6300
9.846459 0.6310 0.6320 0.6330 0.6340 0.6340
9.870000 0.6270 0.6140 0.6040 0.5940 0.5830
9.894459 0.5730 0.5640 0.5560 0.5510 0.5450
9.919000 0.5430 0.5450 0.5540 0.5560 0.5590
9.943459 0.5610 0.5650 0.5700 0.5840 0.5970
9.968000 0.6100 0.6140 0.6160 0.6200 0.6200
9.992459 0.6220 0.6230 0.6250 0.6300 0.6330
10.017000 0.6380 0.6410 0.6420 0.6480 0.6520
10.041459 0.6550 0.6580 0.6600 0.6600 0.6610
10.066000 0.6630 0.6640 0.6640 0.6630 0.6640
10.090459 0.6640 0.6650 0.6650 0.6660 0.6660
10.115000 0.6670 0.6670 0.6670 0.6660 0.6660
10.139459 0.6670 0.6690 0.6700 0.6670 0.6660
10.164000 0.6660 0.6660 0.6660 0.6690 0.6690
10.188459 0.6700 0.6710 0.6720 0.6730 0.6700
10.213000 0.6670 0.6670 0.6640 0.6600 0.6580
10.237459 0.6550 0.6530 0.6520 0.6520 0.6500
10.262000 0.6500 0.6490 0.6440 0.6340 0.6200
10.286459 0.6110 0.5970 0.5780 0.5590 0.5390
10.311000 0.5210 0.5060 0.5000 0.4840 0.4760
10.335459 0.4680 0.4670 0.4540 0.4490 0.4440
10.359000 0.4390 0.4380 0.4370 0.4380 0.4390
10.383459 0.4440 0.4550 0.4740 0.4830 0.4920
10.408000 0.4960 0.5000 0.5110 0.5210 0.5320
10.432459 0.5430 0.5550 0.5650 0.5760 0.5860
10.457000 0.5950 0.6030 0.6080 0.6100 0.6140
10.481459 0.6150 0.6200 0.6230 0.6270 0.6320
10.506000 0.6390 0.6420 0.6470 0.6480 0.6490
10.530459 0.6500 0.6520 0.6540 0.6560 0.6580
10.555000 0.6590 0.6610 0.6630 0.6640 0.6650
10.579459 0.6660 0.6670 0.6670 0.6690 0.6670
10.604000 0.6660 0.6640 0.6590 0.6580 0.6530
10.628459 0.6430 0.6390 0.6080 0.6060 0.6030
10.653000 0.5980 0.5880 0.5500 0.5420 0.5290
10.677459 0.5280 0.4550 0.4540 0.4450 0.4130
10.702000 0.4090 0.4040 0.4020 0.3800 0.3620
10.726459 0.3570 0.3560 0.3560 0.3570 0.3600
10.751000 0.3630 0.3680 0.3730 0.3770 0.3820
10.775459 0.3890 0.4010 0.4130 0.4240 0.4370
10.800000 0.4450 0.4730 0.4880 0.4950 0.5010
10.824459 0.5140 0.5260 0.5370 0.5490 0.5590
10.848000 0.5680 0.5780 0.5870 0.5950 0.6040
10.872459 0.6100 0.6170 0.6220 0.6230 0.6250
10.897000 0.6260 0.6280 0.6310 0.6340 0.6370
10.921459 0.6420 0.6450 0.6490 0.6530 0.6580
10.946000 0.6610 0.6650 0.6670 0.6710 0.6720
10.970459 0.6730 0.6730 0.6750 0.6760 0.6770
10.995000 0.6780 0.6810 0.6820 0.6860 0.6860
11.019459 0.6870 0.6870 0.6870 0.6890 0.6930
11.044000 0.6990 0.7020 0.7020 0.7030 0.7040
11.068459 0.7040 0.7050 0.7060 0.7060 0.7060
11.093000 0.7060 0.7080 0.7080 0.7090 0.7090
11.117459 0.7100 0.7130 0.7140 0.7140 0.7150
11.142000 0.7150 0.7150 0.7160 0.7160 0.7160
11.166459 0.7170 0.7170 0.7170 0.7170 0.7190
11.191000 0.7190 0.7190 0.7190 0.7200 0.7190
11.215459 0.7190 0.7170 0.7150 0.7130 0.7110
11.240000 0.7090 0.7060 0.7060 0.7030 0.6970
11.264459 0.6950 0.6940 0.6930 0.6920 0.6910
11.289000 0.6890 0.6860 0.6800 0.6710 0.6660
11.313459 0.6610 0.6500 0.6360 0.6200 0.6120
11.337000 0.6040 0.5860 0.5830 0.5770 0.5760
11.361459 0.5760 0.5750 0.5700 0.5660 0.5620
11.386000 0.5610 0.5610 0.5620 0.5640 0.5700
11.410459 0.5760 0.5830 0.5890 0.5970 0.6050
11.435000 0.6100 0.6150 0.6200 0.6220 0.6250
11.459459 0.6310 0.6410 0.6520 0.6610 0.6650
11.484000 0.6700 0.6730 0.6780 0.6800 0.6820
11.508459 0.6840 0.6880 0.6920 0.6930 0.6940
11.533000 0.6970 0.6990 0.6990 0.6990 0.7000
11.557459 0.7020 0.7030 0.7040 0.7050 0.7050
11.582000 0.7060 0.7080 0.7080 0.7090 0.7090
11.606459 0.7110 0.7130 0.7140 0.7140 0.7130
11.631000 0.7110 0.7080 0.7080 0.7050 0.7000
11.655459 0.6940 0.6870 0.6800 0.6730 0.6660
11.680000 0.6610 0.6560 0.6550 0.6490 0.6410
11.704459 0.6340 0.6310 0.6250 0.6230 0.6230
11.729000 0.6250 0.6250 0.6260 0.6300 0.6320
11.753459 0.6340 0.6360 0.6360 0.6360 0.6360
11.778000 0.6370 0.6370 0.6370 0.6370 0.6370
11.802459 0.6360 0.6340 0.6330 0.6330 0.6320
11.826000 0.6320 0.6320 0.6320 0.6320 0.6320
11.850459 0.6320 0.6330 0.6340 0.6360 0.6420
11.875000 0.6450 0.6520 0.6550 0.6580 0.6600
11.899459 0.6610 0.6630 0.6640 0.6640 0.6640
11.924000 0.6640 0.6640 0.6640 0.6630 0.6590
11.948459 0.6550 0.6490 0.6430 0.6300 0.6250
11.973000 0.6160 0.6110 0.6060 0.6000 0.5950
11.997459 0.5940 0.5930 0.5940 0.5990 0.6040
12.022000 0.6090 0.6140 0.6200 0.6250 0.6340
12.046459 0.6440 0.6550 0.6590 0.6660 0.6700
12.071000 0.6730 0.6810 0.6880 0.6950 0.7030
12.095459 0.7100 0.7160 0.7210 0.7220 0.7250
12.120000 0.7250 0.7250 0.7250 0.7250 0.7250
12.144459 0.7260 0.7260 0.7260 0.7260 0.7270
12.169000 0.7270 0.7270 0.7270 0.7280 0.7280
12.193459 0.7280 0.7280 0.7280 0.7270 0.7260
12.218000 0.7250 0.7220 0.7190 0.7170 0.7110
12.242459 0.7040 0.6980 0.6920 0.6870 0.6810
12.267000 0.6750 0.6700 0.6650 0.6590 0.6530
12.291459 0.6480 0.6420 0.6330 0.6270 0.6120
12.315000 0.6050 0.5970 0.5870 0.5770 0.5670
12.339459 0.5550 0.5430 0.5310 0.5170 0.5010
12.364000 0.4810 0.4650 0.4460 0.4240 0.4090
12.388459 0.4000 0.3850 0.3460 0.3410 0.3080
12.413000 0.2990 0.2880 0.2780 0.2670 0.2560
12.437459 0.2550 0.2560 0.2580 0.2720 0.2860
12.462000 0.3020 0.3170 0.3340 0.3560 0.3690
12.486459 0.3770 0.3840 0.3930 0.4120 0.4270
12.511000 0.4430 0.4590 0.4760 0.4920 0.5000
12.535459 0.5090 0.5250 0.5400 0.5550 0.5700
12.560000 0.5820 0.5930 0.6010 0.6090 0.6120
12.584459 0.6150 0.6190 0.6200 0.6220 0.6250
12.609000 0.6260 0.6340 0.6470 0.6520 0.6540
12.633459 0.6590 0.6630 0.6650 0.6690 0.6710
12.658000 0.6730 0.6760 0.6780 0.6810 0.6840
12.682459 0.6870 0.6910 0.6940 0.6940 0.6990
12.707000 0.7020 0.7050 0.7090 0.7140 0.7140
12.731459 0.7150 0.7150 0.7150 0.7150 0.7160
12.756000 0.7160 0.7150 0.7150 0.7140 0.7140
12.780459 0.7130 0.7130 0.7130 0.7130 0.7150
12.804000 0.7150 0.7170 0.7200 0.7220 0.7250
12.828459 0.7250 0.7240 0.7220 0.7200 0.7190
12.853000 0.7170 0.7160 0.7150 0.7140 0.7130
12.877459 0.7100 0.7090 0.7060 0.7040 0.7030
12.902000 0.7000 0.6980 0.6970 0.6940 0.6920
12.926459 0.6910 0.6880 0.6870 0.6820 0.6780
12.951000 0.6760 0.6720 0.6700 0.6670 0.6670
12.975459 0.6690 0.6700 0.6720 0.6750 0.6770
13.000000 0.6780 0.6820 0.6870 0.6930 0.6940
13.024459 0.6970 0.6970 0.6980 0.6990 0.7000
13.049000 0.7020 0.7030 0.7040 0.7040 0.7050
13.073459 0.7050 0.7050 0.7050 0.7050 0.7040
13.098000 0.7030 0.7030 0.7030 0.7020 0.7000
13.122459 0.6990 0.6990 0.6980 0.6980 0.6980
13.147000 0.6970 0.6950 0.6930 0.6920 0.6880
13.171459 0.6840 0.6800 0.6730 0.6710 0.6690
13.196000 0.6650 0.6600 0.6550 0.6490 0.6430
13.220459 0.6340 0.6260 0.6040 0.6000 0.5930
13.244000 0.5830 0.5710 0.5570 0.5430 0.5280
13.268459 0.5120 0.4820 0.4660 0.4520 0.4400
13.293000 0.4290 0.4210 0.4150 0.4110 0.4050
13.317459 0.3980 0.3900 0.3830 0.3670 0.3600
13.342000 0.3510 0.3440 0.3350 0.3270 0.3190
13.366459 0.3110 0.3020 0.2960 0.2900 0.2890
13.391000 0.2850 0.2840 0.2840 0.2860 0.2880
13.415459 0.2900 0.2910 0.2940 0.2940 0.2930
13.440000 0.2900 0.2890 0.2860 0.2850 0.2790
13.464459 0.2770 0.2750 0.2730 0.2730 0.2740
13.489000 0.2770 0.2880 0.2990 0.3110 0.3410
13.513459 0.3600 0.3690 0.3790 0.3980 0.4170
13.538000 0.4310 0.4420 0.4630 0.4790 0.4830
13.562459 0.4880 0.4920 0.4950 0.4980 0.4990
13.587000 0.4990 0.4960 0.4950 0.4930 0.4930
13.611459 0.4920 0.4900 0.4900 0.4920 0.4920
13.636000 0.4930 0.4930 0.4950 0.4960 0.4990
13.660459 0.5000 0.5050 0.5060 0.5070 0.5100
13.685000 0.5160 0.5200 0.5220 0.5280 0.5320
13.709459 0.5360 0.5390 0.5440 0.5480 0.5530
13.733000 0.5560 0.5610 0.5650 0.5700 0.5730
13.757459 0.5780 0.5820 0.5860 0.5890 0.5930
13.782000 0.5950 0.5980 0.6000 0.6010 0.6040
13.806459 0.6090 0.6140 0.6190 0.6220 0.6250
13.831000 0.6300 0.6340 0.6370 0.6390 0.6410
13.855459 0.6420 0.6430 0.6450 0.6480 0.6490
13.880000 0.6500 0.6520 0.6530 0.6560 0.6600
13.904459 0.6640 0.6660 0.6700 0.6730 0.6780
13.929000 0.6820 0.6860 0.6890 0.6910 0.6910
13.953459 0.6910 0.6910 0.6920 0.6950 0.7020
13.978000 0.7050 0.7090 0.7100 0.7110 0.7130
14.002459 0.7140 0.7150 0.7160 0.7170 0.7190
14.027000 0.7200 0.7220 0.7250 0.7270 0.7300
14.051459 0.7320 0.7310 0.7310 0.7310 0.7300
14.076000 0.7300 0.7300 0.7300 0.7280 0.7300
14.100459 0.7300 0.7300 0.7310 0.7310 0.7310
14.125000 0.7310 0.7320 0.7320 0.7320 0.7320
14.149459 0.7330 0.7330 0.7330 0.7330 0.7350
14.174000 0.7350 0.7350 0.7350 0.7360 0.7360
14.198459 0.7360 0.7360 0.7380 0.7380 0.7390
14.222000 0.7390 0.7410 0.7410 0.7390 0.7380
14.246459 0.7380 0.7370 0.7330 0.7300 0.7280
14.271000 0.7270 0.7260 0.7260 0.7270 0.7280
14.295459 0.7300 0.7310 0.7320 0.7330 0.7330
14.320000 0.7330 0.7350 0.7350 0.7350 0.7350
14.344459 0.7350 0.7360 0.7370 0.7390 0.7420
14.369000 0.7460 0.7480 0.7490 0.7500 0.7520
14.393459 0.7530 0.7540 0.7550 0.7550 0.7550
14.418000 0.7550 0.7570 0.7570 0.7580 0.7580
14.442459 0.7600 0.7630 0.7660 0.7680 0.7680
14.467000 0.7690 0.7690 0.7690 0.7690 0.7660
14.491459 0.7660 0.7660 0.7680 0.7680 0.7680
14.516000 0.7680 0.7680 0.7680 0.7690 0.7690
14.540459 0.7690 0.7690 0.7690 0.7690 0.7690
14.565000 0.7690 0.7690 0.7690 0.7690 0.7680
14.589459 0.7680 0.7680 0.7680 0.7680 0.7680
14.614000 0.7660 0.7660 0.7660 0.7660 0.7660
14.638459 0.7650 0.7650 0.7640 0.7640 0.7640
14.663000 0.7630 0.7610 0.7610 0.7600 0.7600
14.687459 0.7590 0.7570 0.7540 0.7500 0.7430
14.711000 0.7380 0.7360 0.7320 0.7310 0.7270
14.735459 0.7260 0.7250 0.7240 0.7190 0.7150
14.760000 0.7140 0.7130 0.7090 0.7080 0.7060
14.784459 0.7050 0.7040 0.7040 0.7040 0.7050
14.809000 0.7080 0.7110 0.7160 0.7220 0.7300
14.833459 0.7320 0.7370 0.7420 0.7460 0.7470
14.858000 0.7480 0.7490
##END=
