##TITLE=ACRIDINE RED
##JCAMP-DX=4.24
##DATA TYPE=INFRARED SPECTRUM
##CLASS=COBLENTZ
##ORIGIN=WYANDOTTE CHEMICALS CORP., WYANDOTTE, MICHIGAN, USA
##OWNER=COBLENTZ SOCIETY
Collection (C) 2018 copyright by the U.S. Secretary of Commerce
on behalf of the United States of America. All rights reserved.
##DATE=Not specified, most likely prior to 1970
##NAMES=(3Z)-N-methyl-3-[(Z)-methylimino]-3H-xanthen-6-amine hydrochloride
##MOLFORM=C15 H14 N2 O  * H Cl
##SOURCE REFERENCE=COBLENTZ NO. 3860
##$NIST ID=B6003860
##$NIST SOURCE=COBLENTZ
##$NIST IMAGE=cob3860
##SPECTROMETER/DATA SYSTEM=Not specified, most likely a prism, grating, or hybrid spectrometer.
##STATE=SOLID (MINERAL OIL MULL)
##PATH LENGTH=
$$SPECTRAL CONTAMINATION DUE TO OIL AROUND 2900 CM^-^1
##SAMPLING PROCEDURE=TRANSMISSION
##RESOLUTION=4
##DATA PROCESSING=DIGITIZED BY NIST FROM HARD COPY
##XUNITS=MICROMETERS
##YUNITS=TRANSMITTANCE
##XFACTOR=1.000000
##YFACTOR=1
##DELTAX=000.006197
##FIRSTX=2.019
##LASTX=16.0064
##FIRSTY=0.296
##MAXX=16.0064
##MINX=2.019
##MAXY=0.982
##MINY=0.02
##NPOINTS=2258
##XYDATA=(X++(Y..Y))
2.019000 0.2960 0.2960 0.2960 0.2970 0.2970
2.050001 0.2960 0.2960 0.2940 0.2940 0.2940
2.081000 0.2960 0.2970 0.2970 0.2990 0.2990
2.112001 0.3000 0.3000 0.2990 0.2990 0.2990
2.143000 0.2990 0.2970 0.2940 0.2940 0.2990
2.174001 0.3020 0.3000 0.2990 0.2970 0.2940
2.205000 0.2910 0.2930 0.2910 0.2890 0.2860
2.236001 0.2860 0.2880 0.2890 0.2930 0.2960
2.266000 0.2970 0.2970 0.2970 0.2990 0.2990
2.297001 0.2990 0.2960 0.2960 0.2960 0.2970
2.328000 0.2970 0.2970 0.2990 0.2990 0.3000
2.359001 0.3060 0.3060 0.3050 0.3030 0.3030
2.390000 0.3030 0.3020 0.3020 0.3020 0.3020
2.421001 0.3030 0.3030 0.3050 0.3060 0.3080
2.452000 0.3100 0.3080 0.3110 0.3130 0.3130
2.483001 0.3100 0.3100 0.3100 0.3110 0.3170
2.514000 0.3220 0.3250 0.3280 0.3300 0.3310
2.545001 0.3330 0.3330 0.3340 0.3340 0.3360
2.576000 0.3370 0.3410 0.3420 0.3410 0.3440
2.607001 0.3450 0.3470 0.3480 0.3480 0.3510
2.638000 0.3530 0.3560 0.3580 0.3580 0.3550
2.669001 0.3530 0.3530 0.3510 0.3510 0.3510
2.700000 0.3510 0.3510 0.3530 0.3510 0.3500
2.731001 0.3500 0.3500 0.3480 0.3480 0.3500
2.762000 0.3480 0.3480 0.3480 0.3480 0.3480
2.793001 0.3470 0.3450 0.3440 0.3410 0.3390
2.824000 0.3360 0.3340 0.3310 0.3340 0.3330
2.855001 0.3310 0.3280 0.3270 0.3240 0.3220
2.886000 0.3240 0.3240 0.3220 0.3200 0.3100
2.917001 0.3060 0.3060 0.3060 0.3060 0.3080
2.948000 0.3080 0.3080 0.3080 0.3080 0.3060
2.979001 0.3060 0.3060 0.3080 0.3080 0.3080
3.010000 0.3050 0.3030 0.3020 0.3020 0.3000
3.041001 0.2990 0.2970 0.2960 0.2880 0.2850
3.072000 0.2820 0.2800 0.2800 0.2800 0.2800
3.103001 0.2770 0.2750 0.2740 0.2720 0.2740
3.134000 0.2720 0.2710 0.2710 0.2710 0.2710
3.165001 0.2710 0.2710 0.2690 0.2690 0.2680
3.196000 0.2650 0.2630 0.2620 0.2600 0.2600
3.227001 0.2600 0.2580 0.2550 0.2510 0.2460
3.258000 0.2410 0.2370 0.2320 0.2290 0.2240
3.289001 0.2210 0.2130 0.2040 0.1950 0.1840
3.320000 0.1670 0.1450 0.1240 0.0990 0.0770
3.351001 0.0550 0.0400 0.0270 0.0230 0.0210
3.382000 0.0200 0.0200 0.0230 0.0230 0.0210
3.413001 0.0210 0.0210 0.0200 0.0200 0.0200
3.444000 0.0210 0.0230 0.0240 0.0240 0.0240
3.475001 0.0240 0.0240 0.0260 0.0260 0.0260
3.506000 0.0270 0.0290 0.0370 0.0460 0.0620
3.537001 0.0800 0.1050 0.1300 0.1610 0.1900
3.568000 0.2060 0.2230 0.2400 0.2460 0.2630
3.599001 0.2750 0.2850 0.2940 0.3000 0.3100
3.630000 0.3130 0.3160 0.3140 0.3160 0.3160
3.661001 0.3190 0.3200 0.3200 0.3190 0.3110
3.692000 0.3060 0.3060 0.3100 0.3110 0.3130
3.723001 0.3140 0.3170 0.3200 0.3240 0.3270
3.754000 0.3300 0.3310 0.3330 0.3340 0.3340
3.785001 0.3360 0.3370 0.3390 0.3420 0.3470
3.816000 0.3470 0.3480 0.3500 0.3510 0.3510
3.847001 0.3510 0.3510 0.3510 0.3530 0.3590
3.878000 0.3650 0.3700 0.3750 0.3760 0.3780
3.909001 0.3810 0.3820 0.3860 0.3870 0.3870
3.940000 0.3920 0.3950 0.3980 0.4000 0.4030
3.971001 0.4060 0.4090 0.4100 0.4130 0.4170
4.002000 0.4180 0.4210 0.4240 0.4270 0.4270
4.033001 0.4270 0.4310 0.4310 0.4310 0.4320
4.064000 0.4320 0.4320 0.4320 0.4320 0.4340
4.095001 0.4340 0.4370 0.4380 0.4410 0.4430
4.126000 0.4440 0.4460 0.4460 0.4460 0.4460
4.157001 0.4460 0.4480 0.4480 0.4480 0.4490
4.188000 0.4490 0.4510 0.4510 0.4550 0.4600
4.219001 0.4650 0.4680 0.4690 0.4680 0.4680
4.250000 0.4650 0.4630 0.4620 0.4620 0.4630
4.281001 0.4650 0.4680 0.4710 0.4740 0.4790
4.312000 0.4820 0.4820 0.4830 0.4830 0.4860
4.343001 0.4910 0.4970 0.5030 0.5100 0.5160
4.374000 0.5200 0.5240 0.5270 0.5280 0.5310
4.405001 0.5340 0.5360 0.5370 0.5390 0.5410
4.436000 0.5390 0.5410 0.5410 0.5410 0.5420
4.467001 0.5420 0.5470 0.5530 0.5580 0.5610
4.498000 0.5620 0.5640 0.5640 0.5640 0.5640
4.529001 0.5640 0.5640 0.5650 0.5650 0.5680
4.560000 0.5700 0.5730 0.5780 0.5810 0.5820
4.591001 0.5840 0.5860 0.5870 0.5900 0.5930
4.622000 0.5960 0.5960 0.5980 0.5980 0.5980
4.653001 0.5980 0.5980 0.6000 0.6000 0.6030
4.683000 0.6040 0.6070 0.6100 0.6120 0.6120
4.714001 0.6130 0.6150 0.6180 0.6210 0.6260
4.745000 0.6290 0.6340 0.6370 0.6370 0.6380
4.776001 0.6410 0.6430 0.6440 0.6460 0.6490
4.807000 0.6520 0.6570 0.6580 0.6620 0.6620
4.838001 0.6630 0.6620 0.6580 0.6580 0.6580
4.869000 0.6600 0.6600 0.6620 0.6620 0.6630
4.900001 0.6660 0.6720 0.6770 0.6790 0.6800
4.931000 0.6800 0.6800 0.6820 0.6850 0.6880
4.962001 0.6890 0.6890 0.6890 0.6890 0.6910
4.993000 0.6910 0.6910 0.6910 0.6930 0.6930
5.024001 0.6940 0.6940 0.6960 0.6970 0.6990
5.055000 0.6990 0.7000 0.7020 0.7050 0.7080
5.086001 0.7140 0.7170 0.7200 0.7220 0.7250
5.117000 0.7270 0.7270 0.7280 0.7280 0.7300
5.148001 0.7310 0.7310 0.7330 0.7340 0.7370
5.179000 0.7390 0.7410 0.7410 0.7410 0.7440
5.210001 0.7480 0.7510 0.7530 0.7510 0.7510
5.241000 0.7480 0.7500 0.7550 0.7590 0.7640
5.272001 0.7620 0.7610 0.7650 0.7680 0.7730
5.303000 0.7760 0.7810 0.7860 0.7920 0.7960
5.334001 0.8040 0.8100 0.8180 0.8210 0.8210
5.365000 0.8180 0.8150 0.8120 0.8120 0.8230
5.396001 0.8370 0.8430 0.8490 0.8550 0.8570
5.427000 0.8570 0.8570 0.8580 0.8580 0.8600
5.458001 0.8620 0.8680 0.8770 0.8930 0.9000
5.489000 0.9030 0.9110 0.9140 0.9240 0.9310
5.520001 0.9370 0.9440 0.9450 0.9480 0.9500
5.551000 0.9510 0.9530 0.9550 0.9550 0.9500
5.582001 0.9500 0.9510 0.9590 0.9650 0.9760
5.613000 0.9820 0.9810 0.9680 0.9590 0.9530
5.644001 0.9450 0.9280 0.9170 0.9130 0.9060
5.675000 0.8990 0.8820 0.8620 0.8460 0.8340
5.706001 0.8270 0.8170 0.8120 0.8100 0.8100
5.737000 0.8100 0.8070 0.8030 0.7960 0.7860
5.768001 0.7610 0.7270 0.6750 0.6150 0.5470
5.799000 0.4860 0.4550 0.4340 0.4180 0.4070
5.830001 0.4040 0.4070 0.4130 0.4260 0.4370
5.861000 0.4540 0.4680 0.4930 0.5100 0.5410
5.892001 0.5680 0.5870 0.6010 0.6100 0.6210
5.923000 0.6350 0.6460 0.6660 0.6820 0.6880
5.954001 0.6930 0.6940 0.6930 0.6890 0.6850
5.985000 0.6710 0.6350 0.6000 0.5500 0.4880
6.016001 0.4710 0.4350 0.4010 0.3650 0.3250
6.047000 0.3220 0.3060 0.3050 0.3080 0.3170
6.078001 0.3280 0.3370 0.3580 0.3720 0.3720
6.109000 0.3680 0.3560 0.3440 0.3330 0.3190
6.140001 0.3050 0.2880 0.2680 0.2490 0.2290
6.171000 0.2120 0.1960 0.1820 0.1720 0.1650
6.202001 0.1590 0.1550 0.1500 0.1480 0.1470
6.233000 0.1390 0.1330 0.1240 0.1220 0.1240
6.264001 0.1300 0.1370 0.1420 0.1500 0.1530
6.295000 0.1590 0.1730 0.1810 0.1950 0.2010
6.326001 0.2070 0.2130 0.2150 0.2170 0.2170
6.357000 0.2150 0.2130 0.2120 0.2100 0.2100
6.388001 0.2090 0.2070 0.2040 0.2040 0.2030
6.419000 0.2030 0.2030 0.2030 0.2040 0.2090
6.450001 0.2150 0.2200 0.2270 0.2380 0.2400
6.481000 0.2400 0.2380 0.2270 0.2270 0.2290
6.512001 0.2320 0.2370 0.2440 0.2510 0.2550
6.543000 0.2620 0.2650 0.2650 0.2650 0.2630
6.574001 0.2480 0.2410 0.2310 0.2290 0.2260
6.605000 0.2230 0.2210 0.2180 0.2100 0.2090
6.636001 0.2060 0.2030 0.2000 0.1960 0.1900
6.667000 0.1860 0.1810 0.1780 0.1730 0.1640
6.698001 0.1560 0.1510 0.1450 0.1340 0.1220
6.729000 0.1130 0.1050 0.0970 0.0910 0.0850
6.760001 0.0680 0.0520 0.0370 0.0230 0.0210
6.791000 0.0230 0.0260 0.0270 0.0290 0.0310
6.822001 0.0320 0.0320 0.0290 0.0290 0.0310
6.853000 0.0320 0.0340 0.0350 0.0380 0.0430
6.884001 0.0490 0.0570 0.0650 0.0720 0.0820
6.915000 0.0910 0.0990 0.1060 0.1220 0.1360
6.946001 0.1470 0.1610 0.1760 0.1950 0.2000
6.977000 0.2090 0.2100 0.2130 0.2150 0.2130
7.008001 0.2090 0.2060 0.1960 0.1870 0.1750
7.039000 0.1640 0.1550 0.1470 0.1420 0.1410
7.070001 0.1410 0.1420 0.1420 0.1440 0.1450
7.100000 0.1480 0.1530 0.1590 0.1620 0.1640
7.131001 0.1680 0.1750 0.1780 0.1780 0.1750
7.162000 0.1720 0.1670 0.1560 0.1440 0.1300
7.193001 0.1170 0.1080 0.0930 0.0800 0.0680
7.224000 0.0520 0.0510 0.0510 0.0510 0.0520
7.255001 0.0620 0.0690 0.0800 0.0970 0.1110
7.286000 0.1240 0.1300 0.1330 0.1370 0.1420
7.317001 0.1480 0.1610 0.1750 0.1820 0.1870
7.348000 0.1870 0.1840 0.1840 0.1810 0.1730
7.379001 0.1650 0.1560 0.1500 0.1420 0.1340
7.410000 0.1300 0.1240 0.1190 0.1140 0.1100
7.441001 0.1050 0.1020 0.1000 0.0990 0.0990
7.472000 0.0960 0.0940 0.0940 0.0960 0.1020
7.503001 0.1020 0.1030 0.1050 0.1100 0.1140
7.534000 0.1200 0.1300 0.1370 0.1390 0.1440
7.565001 0.1500 0.1510 0.1550 0.1580 0.1620
7.596000 0.1670 0.1720 0.1760 0.1790 0.1860
7.627001 0.1900 0.1870 0.1840 0.1870 0.1900
7.658000 0.1920 0.1920 0.1890 0.1900 0.1900
7.689001 0.1890 0.1890 0.1900 0.1900 0.1920
7.720000 0.1920 0.1900 0.1900 0.1890 0.1900
7.751001 0.1900 0.1900 0.1890 0.1870 0.1860
7.782000 0.1840 0.1820 0.1790 0.1760 0.1750
7.813001 0.1700 0.1650 0.1590 0.1560 0.1530
7.844000 0.1530 0.1560 0.1560 0.1580 0.1590
7.875001 0.1620 0.1650 0.1700 0.1750 0.1790
7.906000 0.1890 0.1920 0.1950 0.1920 0.1890
7.937001 0.1870 0.1810 0.1780 0.1720 0.1670
7.968000 0.1620 0.1550 0.1480 0.1420 0.1370
7.999001 0.1340 0.1340 0.1360 0.1390 0.1410
8.030000 0.1420 0.1500 0.1530 0.1550 0.1580
8.061001 0.1680 0.1680 0.1700 0.1730 0.1750
8.092000 0.1780 0.1840 0.1890 0.1920 0.1930
8.123001 0.1960 0.1980 0.2010 0.2030 0.2070
8.154000 0.2120 0.2150 0.2180 0.2210 0.2260
8.185001 0.2310 0.2370 0.2410 0.2460 0.2520
8.216000 0.2570 0.2630 0.2690 0.2770 0.2850
8.247001 0.2890 0.2930 0.2930 0.2880 0.2830
8.278000 0.2820 0.2790 0.2770 0.2690 0.2550
8.309001 0.2440 0.2350 0.2270 0.2210 0.2060
8.340000 0.2030 0.2010 0.2000 0.2010 0.2040
8.371001 0.2070 0.2100 0.2180 0.2180 0.2130
8.402000 0.2060 0.2000 0.1920 0.1760 0.1650
8.433001 0.1550 0.1440 0.1340 0.1250 0.1170
8.464000 0.1160 0.1160 0.1160 0.1160 0.1170
8.495001 0.1170 0.1200 0.1220 0.1270 0.1360
8.526000 0.1450 0.1500 0.1550 0.1580 0.1590
8.557001 0.1610 0.1610 0.1610 0.1590 0.1580
8.588000 0.1580 0.1580 0.1590 0.1640 0.1670
8.619001 0.1730 0.1780 0.1820 0.1870 0.1870
8.650000 0.1890 0.1920 0.1960 0.2030 0.2070
8.681001 0.2120 0.2150 0.2200 0.2230 0.2240
8.712000 0.2260 0.2290 0.2310 0.2290 0.2270
8.743001 0.2240 0.2210 0.2200 0.2150 0.2120
8.774000 0.2030 0.1900 0.1840 0.1780 0.1750
8.805001 0.1720 0.1720 0.1700 0.1680 0.1680
8.836000 0.1670 0.1650 0.1640 0.1620 0.1610
8.867001 0.1610 0.1620 0.1620 0.1610 0.1610
8.898000 0.1610 0.1620 0.1670 0.1720 0.1790
8.929001 0.1860 0.1930 0.1960 0.2000 0.2030
8.960000 0.2090 0.2120 0.2130 0.2180 0.2230
8.991001 0.2260 0.2310 0.2340 0.2370 0.2400
9.022000 0.2440 0.2490 0.2550 0.2620 0.2630
9.053001 0.2650 0.2660 0.2660 0.2650 0.2650
9.084000 0.2650 0.2620 0.2570 0.2460 0.2350
9.115001 0.2320 0.2320 0.2310 0.2310 0.2270
9.146000 0.2230 0.2200 0.2180 0.2150 0.2060
9.177001 0.1960 0.1960 0.1900 0.1810 0.1720
9.208000 0.1610 0.1530 0.1470 0.1420 0.1390
9.239001 0.1340 0.1310 0.1270 0.1250 0.1270
9.270000 0.1300 0.1310 0.1330 0.1360 0.1410
9.301001 0.1420 0.1420 0.1440 0.1470 0.1510
9.332000 0.1610 0.1640 0.1670 0.1700 0.1730
9.363001 0.1790 0.1860 0.1930 0.1950 0.2000
9.394000 0.2040 0.2090 0.2150 0.2200 0.2230
9.425001 0.2310 0.2340 0.2350 0.2350 0.2350
9.456000 0.2380 0.2460 0.2490 0.2550 0.2630
9.487001 0.2690 0.2710 0.2710 0.2720 0.2740
9.517000 0.2750 0.2790 0.2790 0.2770 0.2790
9.548001 0.2800 0.2820 0.2830 0.2880 0.2890
9.579000 0.2910 0.2930 0.2960 0.2990 0.3030
9.610001 0.3080 0.3050 0.3020 0.3050 0.3050
9.641000 0.3100 0.3110 0.3110 0.3130 0.3170
9.672001 0.3220 0.3280 0.3330 0.3360 0.3390
9.703000 0.3340 0.3370 0.3390 0.3410 0.3440
9.734001 0.3480 0.3450 0.3450 0.3440 0.3420
9.765000 0.3390 0.3410 0.3420 0.3410 0.3370
9.796001 0.3330 0.3270 0.3190 0.3140 0.3050
9.827000 0.2970 0.2850 0.2650 0.2540 0.2490
9.858001 0.2430 0.2380 0.2340 0.2290 0.2270
9.889000 0.2240 0.2210 0.2170 0.2170 0.2200
9.920001 0.2260 0.2370 0.2460 0.2550 0.2660
9.951000 0.2740 0.2790 0.2820 0.2890 0.3000
9.982001 0.3080 0.3110 0.3240 0.3360 0.3370
10.013000 0.3390 0.3390 0.3410 0.3410 0.3440
10.044001 0.3470 0.3480 0.3510 0.3530 0.3550
10.075000 0.3560 0.3580 0.3590 0.3610 0.3620
10.106001 0.3620 0.3620 0.3620 0.3610 0.3550
10.137000 0.3480 0.3450 0.3420 0.3410 0.3360
10.168001 0.3280 0.3200 0.3140 0.3050 0.2940
10.199000 0.2930 0.2940 0.2940 0.2940 0.2930
10.230001 0.2910 0.2910 0.2940 0.2990 0.3000
10.261000 0.3020 0.3030 0.3050 0.3060 0.3100
10.292001 0.3100 0.3100 0.3080 0.3060 0.3050
10.323000 0.3050 0.3060 0.3110 0.3130 0.3140
10.354001 0.3160 0.3130 0.3130 0.3130 0.3140
10.385000 0.3160 0.3170 0.3190 0.3250 0.3340
10.416001 0.3360 0.3410 0.3410 0.3420 0.3440
10.447000 0.3450 0.3470 0.3480 0.3510 0.3550
10.478001 0.3590 0.3640 0.3700 0.3730 0.3760
10.509000 0.3760 0.3780 0.3790 0.3810 0.3840
10.540001 0.3860 0.3890 0.3960 0.4000 0.4000
10.571000 0.4030 0.4040 0.4070 0.4100 0.4100
10.602001 0.4130 0.4200 0.4230 0.4230 0.4240
10.633000 0.4240 0.4260 0.4260 0.4270 0.4270
10.664001 0.4270 0.4290 0.4320 0.4350 0.4380
10.695000 0.4340 0.4260 0.4200 0.4150 0.4130
10.726001 0.4100 0.4060 0.4030 0.3960 0.3870
10.757000 0.3780 0.3640 0.3450 0.3300 0.3160
10.788001 0.3100 0.2880 0.2800 0.2660 0.2600
10.819000 0.2520 0.2510 0.2510 0.2510 0.2520
10.850001 0.2630 0.2690 0.2720 0.2740 0.2770
10.881000 0.2850 0.2960 0.3050 0.3160 0.3250
10.912001 0.3360 0.3470 0.3580 0.3650 0.3790
10.943000 0.3870 0.3960 0.4010 0.4120 0.4180
10.974001 0.4230 0.4260 0.4290 0.4320 0.4380
11.005000 0.4430 0.4460 0.4510 0.4540 0.4570
11.036001 0.4620 0.4660 0.4680 0.4690 0.4690
11.067000 0.4710 0.4740 0.4770 0.4790 0.4800
11.098001 0.4820 0.4830 0.4830 0.4860 0.4890
11.129000 0.4910 0.4930 0.4940 0.4960 0.4960
11.160001 0.4960 0.4960 0.4960 0.4940 0.4930
11.191000 0.4940 0.4960 0.4960 0.4960 0.4940
11.222001 0.4930 0.4930 0.4930 0.4930 0.4930
11.253000 0.4930 0.4940 0.4940 0.4930 0.4910
11.284001 0.4930 0.4930 0.4930 0.4930 0.4910
11.315000 0.4910 0.4910 0.4890 0.4890 0.4890
11.346001 0.4910 0.4910 0.4930 0.4940 0.4970
11.377000 0.5020 0.5020 0.5030 0.5080 0.5100
11.408001 0.5100 0.5060 0.5060 0.5060 0.5080
11.439000 0.5100 0.5110 0.5130 0.5140 0.5140
11.470001 0.5130 0.5130 0.5110 0.5100 0.5080
11.501000 0.5060 0.5020 0.4960 0.4910 0.4880
11.532001 0.4860 0.4880 0.4890 0.4890 0.4880
11.563000 0.4890 0.4890 0.4890 0.4910 0.4910
11.594001 0.4930 0.4990 0.5030 0.5080 0.5060
11.625000 0.5020 0.5000 0.4960 0.4940 0.4960
11.656001 0.4970 0.5020 0.5020 0.5000 0.4990
11.687000 0.4990 0.4910 0.4820 0.4710 0.4650
11.718001 0.4620 0.4580 0.4520 0.4460 0.4380
11.749000 0.4340 0.4320 0.4290 0.4260 0.4200
11.780001 0.4150 0.4070 0.4000 0.3900 0.3820
11.811000 0.3760 0.3750 0.3730 0.3700 0.3670
11.842001 0.3650 0.3680 0.3720 0.3750 0.3750
11.873000 0.3780 0.3780 0.3780 0.3810 0.3920
11.904001 0.3960 0.4040 0.4060 0.4060 0.4060
11.934000 0.4070 0.4070 0.4120 0.4170 0.4180
11.965001 0.4200 0.4230 0.4230 0.4180 0.4120
11.996000 0.4000 0.3950 0.3930 0.3930 0.3930
12.027001 0.3950 0.3960 0.3960 0.3960 0.3980
12.058000 0.3980 0.3960 0.3950 0.3920 0.3890
12.089001 0.3870 0.3840 0.3790 0.3730 0.3670
12.120000 0.3670 0.3650 0.3640 0.3640 0.3640
12.151001 0.3620 0.3620 0.3620 0.3610 0.3610
12.182000 0.3590 0.3590 0.3590 0.3580 0.3580
12.213001 0.3580 0.3560 0.3560 0.3560 0.3560
12.244000 0.3550 0.3550 0.3550 0.3530 0.3530
12.275001 0.3510 0.3510 0.3500 0.3500 0.3480
12.306000 0.3480 0.3470 0.3470 0.3470 0.3470
12.337001 0.3470 0.3470 0.3470 0.3470 0.3470
12.368000 0.3470 0.3480 0.3480 0.3500 0.3530
12.399001 0.3560 0.3590 0.3590 0.3640 0.3730
12.430000 0.3810 0.3840 0.3860 0.3870 0.3870
12.461001 0.3870 0.3890 0.3890 0.3890 0.3890
12.492000 0.3890 0.3900 0.3900 0.3920 0.3920
12.523001 0.3920 0.3920 0.3920 0.3920 0.3930
12.554000 0.3930 0.3920 0.3920 0.3920 0.3920
12.585001 0.3920 0.3920 0.3920 0.3920 0.3920
12.616000 0.3930 0.3930 0.3960 0.4000 0.4030
12.647001 0.4060 0.4100 0.4130 0.4130 0.4100
12.678000 0.4100 0.4100 0.4100 0.4100 0.4100
12.709001 0.4120 0.4120 0.4130 0.4200 0.4240
12.740000 0.4260 0.4230 0.4230 0.4230 0.4230
12.771001 0.4240 0.4240 0.4260 0.4270 0.4290
12.802000 0.4310 0.4320 0.4340 0.4380 0.4410
12.833001 0.4440 0.4460 0.4480 0.4490 0.4490
12.864000 0.4520 0.4550 0.4570 0.4580 0.4550
12.895001 0.4540 0.4540 0.4540 0.4540 0.4540
12.926000 0.4540 0.4550 0.4540 0.4510 0.4490
12.957001 0.4480 0.4410 0.4350 0.4290 0.4240
12.988000 0.4200 0.4170 0.4100 0.4060 0.3980
13.019001 0.3950 0.3870 0.3790 0.3760 0.3750
13.050000 0.3730 0.3730 0.3730 0.3720 0.3730
13.081001 0.3730 0.3750 0.3750 0.3750 0.3760
13.112000 0.3780 0.3780 0.3750 0.3720 0.3700
13.143001 0.3650 0.3580 0.3510 0.3480 0.3440
13.174000 0.3420 0.3410 0.3360 0.3360 0.3370
13.205001 0.3410 0.3420 0.3440 0.3500 0.3560
13.236000 0.3670 0.3810 0.3920 0.4010 0.4060
13.267001 0.4180 0.4270 0.4370 0.4410 0.4510
13.298000 0.4570 0.4620 0.4660 0.4690 0.4770
13.329001 0.4890 0.4990 0.5020 0.5080 0.5080
13.360000 0.5100 0.5170 0.5240 0.5280 0.5300
13.391001 0.5370 0.5410 0.5420 0.5440 0.5450
13.422000 0.5480 0.5500 0.5510 0.5530 0.5550
13.453001 0.5560 0.5580 0.5590 0.5610 0.5620
13.484000 0.5620 0.5620 0.5610 0.5610 0.5610
13.515001 0.5620 0.5620 0.5620 0.5620 0.5620
13.546000 0.5620 0.5640 0.5640 0.5650 0.5650
13.577001 0.5640 0.5620 0.5640 0.5640 0.5620
13.608000 0.5610 0.5610 0.5590 0.5590 0.5590
13.639001 0.5590 0.5580 0.5580 0.5560 0.5560
13.670000 0.5560 0.5560 0.5560 0.5580 0.5590
13.701001 0.5620 0.5650 0.5680 0.5700 0.5730
13.732000 0.5790 0.5810 0.5790 0.5790 0.5780
13.763001 0.5780 0.5780 0.5780 0.5780 0.5780
13.794000 0.5780 0.5760 0.5750 0.5730 0.5730
13.825001 0.5700 0.5720 0.5700 0.5680 0.5680
13.856000 0.5670 0.5650 0.5650 0.5680 0.5670
13.887001 0.5670 0.5670 0.5670 0.5650 0.5670
13.918000 0.5650 0.5650 0.5620 0.5620 0.5620
13.949001 0.5680 0.5670 0.5610 0.5590 0.5560
13.980000 0.5530 0.5530 0.5500 0.5450 0.5370
14.011001 0.5280 0.5250 0.5190 0.5100 0.5000
14.042000 0.4960 0.4860 0.4820 0.4800 0.4750
14.073001 0.4720 0.4660 0.4580 0.4540 0.4490
14.104000 0.4480 0.4440 0.4430 0.4430 0.4410
14.135001 0.4400 0.4400 0.4380 0.4400 0.4400
14.166000 0.4400 0.4400 0.4410 0.4410 0.4430
14.197001 0.4440 0.4490 0.4550 0.4570 0.4600
14.228000 0.4630 0.4690 0.4740 0.4790 0.4800
14.259001 0.4800 0.4820 0.4830 0.4890 0.4990
14.290000 0.4890 0.4850 0.4850 0.4890 0.4910
14.321001 0.4960 0.4990 0.5050 0.5100 0.5130
14.351000 0.5130 0.5100 0.5060 0.5000 0.4990
14.382001 0.5000 0.5030 0.5050 0.5080 0.5100
14.413000 0.5100 0.5100 0.5100 0.5110 0.5140
14.444001 0.5170 0.5200 0.5250 0.5300 0.5340
14.475000 0.5420 0.5480 0.5530 0.5610 0.5650
14.506001 0.5720 0.5780 0.5810 0.5820 0.5860
14.537000 0.5870 0.5870 0.5870 0.5840 0.5820
14.568001 0.5780 0.5670 0.5590 0.5550 0.5440
14.599000 0.5340 0.5240 0.5100 0.5000 0.4860
14.630001 0.4690 0.4540 0.4370 0.4230 0.4120
14.661000 0.4000 0.3810 0.3640 0.3510 0.3390
14.692001 0.3170 0.2990 0.2880 0.2820 0.2720
14.723000 0.2660 0.2600 0.2520 0.2480 0.2410
14.754001 0.2380 0.2350 0.2260 0.2240 0.2260
14.785000 0.2290 0.2320 0.2370 0.2460 0.2600
14.816001 0.2660 0.2720 0.2800 0.2860 0.2940
14.847000 0.3000 0.3080 0.3130 0.3200 0.3280
14.878001 0.3360 0.3450 0.3550 0.3640 0.3700
14.909000 0.3760 0.3790 0.3860 0.3920 0.4000
14.940001 0.4010 0.4070 0.4130 0.4150 0.4170
14.971000 0.4170 0.4150 0.4150 0.4150 0.4130
15.002001 0.4120 0.4060 0.3980 0.3980 0.3930
15.033000 0.3920 0.3890 0.3890 0.3890 0.3820
15.064001 0.3790 0.3760 0.3750 0.3730 0.3730
15.095000 0.3730 0.3730 0.3730 0.3730 0.3720
15.126001 0.3700 0.3700 0.3670 0.3620 0.3590
15.157000 0.3580 0.3560 0.3550 0.3530 0.3510
15.188001 0.3510 0.3550 0.3580 0.3650 0.3680
15.219000 0.3680 0.3640 0.3650 0.3670 0.3700
15.250001 0.3750 0.3820 0.3870 0.3890 0.3900
15.281000 0.3920 0.3950 0.3980 0.3980 0.4000
15.312001 0.4010 0.4030 0.4090 0.4130 0.4150
15.343000 0.4170 0.4180 0.4200 0.4210 0.4200
15.374001 0.4210 0.4210 0.4210 0.4230 0.4210
15.405000 0.4180 0.4130 0.4090 0.4060 0.4040
15.436001 0.4040 0.4040 0.4040 0.4030 0.4000
15.467000 0.3930 0.3920 0.3900 0.3890 0.3870
15.498001 0.3860 0.3860 0.3860 0.3860 0.3870
15.529000 0.3870 0.3870 0.3890 0.3890 0.3870
15.560001 0.3820 0.3810 0.3810 0.3810 0.3810
15.591000 0.3810 0.3840 0.3820 0.3820 0.3820
15.622001 0.3820 0.3820 0.3820 0.3820 0.3820
15.653000 0.3820 0.3810 0.3810 0.3810 0.3810
15.684001 0.3810 0.3810 0.3790 0.3790 0.3810
15.715000 0.3810 0.3810 0.3810 0.3790 0.3790
15.746001 0.3780 0.3780 0.3760 0.3760 0.3750
15.777000 0.3760 0.3760 0.3760 0.3760 0.3750
15.808001 0.3730 0.3730 0.3720 0.3730 0.3720
15.839000 0.3720 0.3700 0.3700 0.3680 0.3680
15.870001 0.3650 0.3610 0.3580 0.3560 0.3550
15.901000 0.3550 0.3510 0.3500 0.3470 0.3450
15.932001 0.3470 0.3470 0.3470 0.3470 0.3470
15.963000 0.3420 0.3410 0.3390 0.3370 0.3370
15.994001 0.3340 0.3340 0.3310
##END=
