##TITLE=POTASSIUM SELENATE
$$ C.P.
##JCAMP-DX=4.24
##DATA TYPE=INFRARED SPECTRUM
##CLASS=COBLENTZ
##ORIGIN=MELLON INSTITUTE
##OWNER=COBLENTZ SOCIETY
Collection (C) 2018 copyright by the U.S. Secretary of Commerce
on behalf of the United States of America. All rights reserved.
##DATE=Not specified, most likely prior to 1970
##MOLFORM=K2 Se O4
##SOURCE REFERENCE=COBLENTZ NO. 477
##$NIST ID=B6000477
##$NIST SOURCE=COBLENTZ
##$NIST IMAGE=cob477
##SPECTROMETER/DATA SYSTEM=Not specified, most likely a prism, grating, or hybrid spectrometer.
##STATE=SOLID (NUJOL MULL)
##PATH LENGTH=
$$SPECTRAL CONTAMINATION DUE TO OIL AROUND 2900, 1450, 720 CM^-^1
##SAMPLING PROCEDURE=TRANSMISSION
##RESOLUTION=4
##DATA PROCESSING=DIGITIZED BY NIST FROM HARD COPY
##XUNITS=MICROMETERS
##YUNITS=TRANSMITTANCE
##XFACTOR=1.000000
##YFACTOR=1
##DELTAX=000.006790
##FIRSTX=2.043
##LASTX=15.9892
##FIRSTY=0.91
##MAXX=15.9892
##MINX=2.043
##MAXY=0.972
##MINY=0.051
##NPOINTS=2055
##XYDATA=(X++(Y..Y))
2.043000 0.9100 0.9120 0.9120 0.9120 0.9120
2.076967 0.9120 0.9140 0.9150 0.9150 0.9170
2.110000 0.9170 0.9170 0.9190 0.9190 0.9190
2.143967 0.9190 0.9210 0.9220 0.9220 0.9220
2.178000 0.9240 0.9240 0.9240 0.9260 0.9260
2.211967 0.9260 0.9260 0.9260 0.9260 0.9260
2.246000 0.9240 0.9220 0.9210 0.9170 0.9170
2.279967 0.9140 0.9120 0.9100 0.9030 0.8980
2.314000 0.8970 0.8910 0.8900 0.8900 0.8910
2.347967 0.8930 0.8930 0.8950 0.8970 0.8970
2.382000 0.8980 0.8980 0.9000 0.9020 0.9020
2.415967 0.9030 0.9030 0.9030 0.9050 0.9030
2.450000 0.9070 0.9090 0.9100 0.9100 0.9120
2.483967 0.9170 0.9210 0.9240 0.9260 0.9260
2.518000 0.9270 0.9310 0.9310 0.9340 0.9340
2.551967 0.9330 0.9310 0.9310 0.9310 0.9290
2.586000 0.9290 0.9290 0.9290 0.9290 0.9310
2.619967 0.9330 0.9360 0.9430 0.9480 0.9510
2.654000 0.9530 0.9550 0.9530 0.9450 0.9390
2.687967 0.9360 0.9360 0.9430 0.9570 0.9600
2.722000 0.9580 0.9550 0.9500 0.9460 0.9450
2.755967 0.9450 0.9380 0.9330 0.9290 0.9270
2.790000 0.9260 0.9240 0.9210 0.9170 0.9150
2.823967 0.9140 0.9100 0.9090 0.9050 0.9030
2.857000 0.9020 0.9000 0.9000 0.8980 0.8970
2.890967 0.8930 0.8930 0.8900 0.8880 0.8860
2.925000 0.8850 0.8830 0.8790 0.8760 0.8740
2.958967 0.8710 0.8660 0.8550 0.8500 0.8500
2.993000 0.8540 0.8570 0.8610 0.8640 0.8640
3.026967 0.8660 0.8620 0.8620 0.8670 0.8690
3.061000 0.8690 0.8710 0.8730 0.8740 0.8740
3.094967 0.8740 0.8760 0.8760 0.8730 0.8730
3.129000 0.8710 0.8690 0.8670 0.8670 0.8690
3.162967 0.8730 0.8780 0.8780 0.8710 0.8730
3.197000 0.8730 0.8780 0.8760 0.8740 0.8710
3.230967 0.8670 0.8620 0.8620 0.8590 0.8540
3.265000 0.8520 0.8490 0.8400 0.8250 0.8130
3.298967 0.7800 0.7590 0.7370 0.7040 0.6510
3.333000 0.5670 0.4420 0.2670 0.1620 0.1090
3.366967 0.0900 0.0750 0.0630 0.0580 0.0530
3.401000 0.0510 0.0530 0.0630 0.0800 0.0990
3.434967 0.1110 0.1330 0.1350 0.1320 0.1200
3.469000 0.1110 0.1090 0.1010 0.1090 0.1830
3.502967 0.2290 0.3030 0.3990 0.4880 0.5240
3.536000 0.5690 0.6070 0.6360 0.6620 0.6820
3.569967 0.6980 0.7130 0.7270 0.7400 0.7510
3.604000 0.7590 0.7630 0.7680 0.7680 0.7700
3.637967 0.7710 0.7730 0.7750 0.7800 0.7890
3.672000 0.7970 0.8060 0.8180 0.8190 0.8210
3.705967 0.8230 0.8210 0.8230 0.8250 0.8280
3.740000 0.8300 0.8310 0.8400 0.8400 0.8420
3.773967 0.8430 0.8470 0.8520 0.8540 0.8520
3.808000 0.8540 0.8570 0.8590 0.8640 0.8660
3.841967 0.8690 0.8740 0.8810 0.8850 0.8900
3.876000 0.8930 0.8950 0.8950 0.8970 0.8970
3.909967 0.8980 0.9000 0.9000 0.9020 0.9020
3.944000 0.9020 0.9050 0.9030 0.9030 0.9050
3.977967 0.9050 0.9020 0.8970 0.8970 0.8860
4.012000 0.8830 0.8830 0.8830 0.8830 0.8830
4.045967 0.8830 0.8850 0.8830 0.8830 0.8810
4.080000 0.8790 0.8760 0.8690 0.8640 0.8570
4.113967 0.8490 0.8430 0.8380 0.8350 0.8330
4.148000 0.8300 0.8230 0.8070 0.7950 0.7800
4.181967 0.7770 0.7780 0.7870 0.8020 0.8140
4.215000 0.8190 0.8210 0.8210 0.8190 0.8140
4.248967 0.8130 0.8110 0.8110 0.8130 0.8180
4.283000 0.8210 0.8250 0.8280 0.8300 0.8310
4.316967 0.8330 0.8350 0.8370 0.8420 0.8450
4.351000 0.8520 0.8590 0.8660 0.8740 0.8830
4.384967 0.8880 0.9000 0.9030 0.9050 0.9050
4.419000 0.9050 0.9050 0.9050 0.9050 0.9070
4.452967 0.9070 0.9090 0.9090 0.9090 0.9100
4.487000 0.9100 0.9100 0.9120 0.9120 0.9140
4.520967 0.9140 0.9150 0.9170 0.9170 0.9190
4.555000 0.9190 0.9190 0.9190 0.9210 0.9220
4.588967 0.9220 0.9220 0.9240 0.9240 0.9240
4.623000 0.9240 0.9240 0.9240 0.9260 0.9260
4.656967 0.9260 0.9270 0.9290 0.9290 0.9310
4.691000 0.9290 0.9290 0.9270 0.9260 0.9270
4.724967 0.9290 0.9290 0.9290 0.9290 0.9310
4.759000 0.9310 0.9330 0.9330 0.9330 0.9330
4.792967 0.9330 0.9330 0.9340 0.9330 0.9290
4.827000 0.9290 0.9290 0.9290 0.9290 0.9340
4.860967 0.9340 0.9340 0.9340 0.9310 0.9270
4.894000 0.9290 0.9310 0.9330 0.9310 0.9330
4.927967 0.9340 0.9340 0.9360 0.9380 0.9390
4.962000 0.9410 0.9430 0.9430 0.9430 0.9450
4.995967 0.9480 0.9480 0.9480 0.9480 0.9500
5.030000 0.9500 0.9480 0.9480 0.9500 0.9500
5.063967 0.9510 0.9530 0.9510 0.9530 0.9530
5.098000 0.9550 0.9570 0.9570 0.9570 0.9570
5.131967 0.9530 0.9530 0.9550 0.9570 0.9580
5.166000 0.9580 0.9600 0.9600 0.9580 0.9550
5.199967 0.9530 0.9530 0.9620 0.9620 0.9620
5.234000 0.9620 0.9620 0.9600 0.9530 0.9510
5.267967 0.9510 0.9530 0.9530 0.9510 0.9510
5.302000 0.9530 0.9530 0.9570 0.9580 0.9550
5.335967 0.9510 0.9510 0.9500 0.9500 0.9430
5.370000 0.9430 0.9500 0.9500 0.9500 0.9500
5.403967 0.9500 0.9480 0.9450 0.9390 0.9390
5.438000 0.9410 0.9450 0.9450 0.9430 0.9430
5.471967 0.9410 0.9390 0.9380 0.9360 0.9360
5.506000 0.9390 0.9390 0.9390 0.9380 0.9340
5.539967 0.9310 0.9310 0.9340 0.9360 0.9380
5.573000 0.9390 0.9380 0.9380 0.9360 0.9340
5.606967 0.9330 0.9310 0.9270 0.9270 0.9260
5.641000 0.9270 0.9290 0.9310 0.9310 0.9270
5.674967 0.9270 0.9240 0.9170 0.9090 0.9000
5.709000 0.8760 0.8300 0.8210 0.8210 0.8310
5.742967 0.8740 0.8910 0.9000 0.9020 0.9020
5.777000 0.9050 0.9120 0.9150 0.9170 0.9120
5.810967 0.9120 0.9120 0.9150 0.9210 0.9260
5.845000 0.9260 0.9240 0.9100 0.9020 0.9020
5.878967 0.9090 0.9170 0.9170 0.9150 0.9120
5.913000 0.9020 0.8910 0.8880 0.8880 0.8900
5.946967 0.9020 0.9050 0.9020 0.9000 0.8880
5.981000 0.8880 0.8980 0.8970 0.8910 0.8860
6.014967 0.8830 0.8830 0.8900 0.8900 0.8880
6.049000 0.8880 0.8830 0.8790 0.8730 0.8670
6.082967 0.8610 0.8610 0.8590 0.8540 0.8500
6.117000 0.8490 0.8490 0.8450 0.8450 0.8450
6.150967 0.8420 0.8380 0.8350 0.8310 0.8310
6.185000 0.8280 0.8260 0.8300 0.8280 0.8260
6.218967 0.8230 0.8210 0.8190 0.8180 0.8140
6.252000 0.8130 0.8090 0.8060 0.8020 0.7990
6.285967 0.7950 0.7900 0.7850 0.7830 0.7800
6.320000 0.7750 0.7710 0.7700 0.7680 0.7630
6.353967 0.7590 0.7490 0.7470 0.7460 0.7420
6.388000 0.7400 0.7390 0.7350 0.7340 0.7320
6.421967 0.7230 0.7110 0.7080 0.7040 0.7030
6.456000 0.6990 0.6960 0.6920 0.6910 0.6890
6.489967 0.6890 0.6840 0.6790 0.6750 0.6720
6.524000 0.6670 0.6620 0.6600 0.6580 0.6560
6.557967 0.6550 0.6550 0.6530 0.6530 0.6510
6.592000 0.6500 0.6440 0.6360 0.6340 0.6270
6.625967 0.6220 0.6150 0.6080 0.6030 0.6000
6.660000 0.5950 0.5880 0.5810 0.5710 0.5550
6.693967 0.5480 0.5430 0.5310 0.5240 0.5140
6.728000 0.5040 0.4920 0.4810 0.4690 0.4590
6.761967 0.4520 0.4400 0.4320 0.4280 0.4010
6.796000 0.3800 0.3310 0.2810 0.2480 0.2360
6.829967 0.2210 0.2050 0.1970 0.1950 0.1930
6.864000 0.1920 0.1900 0.1880 0.1880 0.1880
6.897967 0.1880 0.1880 0.1900 0.1900 0.1920
6.931000 0.1950 0.1980 0.2070 0.2090 0.2100
6.964967 0.2120 0.2120 0.2160 0.2190 0.2220
6.999000 0.2260 0.2290 0.2340 0.2340 0.2340
7.032967 0.2340 0.2330 0.2290 0.2220 0.2170
7.067000 0.2100 0.2040 0.2020 0.1980 0.1980
7.100967 0.1950 0.1920 0.1850 0.1800 0.1730
7.135000 0.1690 0.1660 0.1620 0.1590 0.1560
7.168967 0.1560 0.1520 0.1500 0.1450 0.1370
7.203000 0.1330 0.1300 0.1280 0.1250 0.1210
7.236967 0.1160 0.1090 0.1080 0.1080 0.1080
7.271000 0.1090 0.1140 0.1200 0.1280 0.1370
7.304967 0.1440 0.1500 0.1540 0.1620 0.1690
7.339000 0.1780 0.1850 0.1920 0.1980 0.2050
7.372967 0.2090 0.2100 0.2160 0.2210 0.2260
7.407000 0.2310 0.2360 0.2410 0.2460 0.2520
7.440967 0.2550 0.2600 0.2650 0.2710 0.2760
7.475000 0.2810 0.2860 0.2910 0.2980 0.3030
7.508967 0.3080 0.3130 0.3200 0.3250 0.3320
7.543000 0.3390 0.3440 0.3490 0.3550 0.3600
7.576967 0.3650 0.3680 0.3750 0.3800 0.3850
7.610000 0.3920 0.3970 0.4040 0.4110 0.4180
7.643967 0.4210 0.4230 0.4280 0.4330 0.4390
7.678000 0.4440 0.4470 0.4520 0.4570 0.4610
7.711967 0.4660 0.4710 0.4750 0.4780 0.4810
7.746000 0.4870 0.4880 0.4930 0.4990 0.5040
7.779967 0.5070 0.5120 0.5160 0.5230 0.5280
7.814000 0.5350 0.5430 0.5480 0.5520 0.5540
7.847967 0.5550 0.5570 0.5620 0.5690 0.5720
7.882000 0.5740 0.5790 0.5840 0.5880 0.5910
7.915967 0.5950 0.5960 0.5980 0.6000 0.6020
7.950000 0.6050 0.6100 0.6140 0.6170 0.6200
7.983967 0.6260 0.6290 0.6340 0.6390 0.6430
8.018000 0.6460 0.6480 0.6500 0.6510 0.6550
8.051967 0.6560 0.6580 0.6620 0.6630 0.6620
8.086000 0.6650 0.6670 0.6700 0.6740 0.6790
8.119967 0.6840 0.6870 0.6910 0.6920 0.6940
8.154000 0.6990 0.7040 0.7100 0.7110 0.7130
8.187967 0.7130 0.7160 0.7180 0.7220 0.7230
8.222000 0.7250 0.7280 0.7300 0.7320 0.7340
8.255967 0.7340 0.7340 0.7340 0.7350 0.7350
8.290000 0.7370 0.7400 0.7400 0.7420 0.7440
8.323967 0.7470 0.7510 0.7530 0.7540 0.7560
8.357000 0.7580 0.7590 0.7610 0.7630 0.7650
8.390967 0.7660 0.7700 0.7710 0.7730 0.7750
8.425000 0.7770 0.7780 0.7770 0.7800 0.7820
8.458967 0.7820 0.7850 0.7870 0.7870 0.7890
8.493000 0.7920 0.7940 0.7950 0.7950 0.7970
8.526967 0.7990 0.8010 0.8010 0.8010 0.8010
8.561000 0.8010 0.7990 0.7990 0.7990 0.7990
8.594967 0.7990 0.7990 0.7990 0.7990 0.7990
8.629000 0.7990 0.7990 0.7990 0.7990 0.7990
8.662967 0.7990 0.7990 0.7990 0.7990 0.7990
8.697000 0.7940 0.7920 0.7920 0.7900 0.7870
8.730967 0.7850 0.7830 0.7800 0.7780 0.7780
8.765000 0.7780 0.7800 0.7820 0.7820 0.7870
8.798967 0.7900 0.7920 0.7920 0.7940 0.7950
8.833000 0.7950 0.7990 0.8010 0.8010 0.7950
8.866967 0.7950 0.8010 0.8010 0.8040 0.8060
8.901000 0.8060 0.8040 0.8010 0.7990 0.7990
8.934967 0.7970 0.7990 0.7990 0.7990 0.7990
8.969000 0.7970 0.7940 0.7900 0.7850 0.7830
9.002967 0.7850 0.7870 0.7900 0.7940 0.7950
9.036000 0.7990 0.7990 0.8010 0.8020 0.8040
9.069967 0.8060 0.8070 0.8130 0.8140 0.8160
9.104000 0.8160 0.8160 0.8160 0.8160 0.8160
9.137967 0.8160 0.8140 0.8140 0.8130 0.8130
9.172000 0.8070 0.8020 0.8010 0.8010 0.7970
9.205967 0.7970 0.7970 0.7950 0.7970 0.7970
9.240000 0.7970 0.7990 0.7990 0.8010 0.8020
9.273967 0.8020 0.8040 0.8060 0.8090 0.8110
9.308000 0.8140 0.8160 0.8190 0.8280 0.8280
9.341967 0.8300 0.8310 0.8330 0.8350 0.8380
9.376000 0.8400 0.8400 0.8420 0.8450 0.8470
9.409967 0.8500 0.8520 0.8520 0.8540 0.8550
9.444000 0.8590 0.8610 0.8620 0.8660 0.8670
9.477967 0.8710 0.8740 0.8760 0.8780 0.8790
9.512000 0.8830 0.8850 0.8830 0.8850 0.8860
9.545967 0.8860 0.8880 0.8880 0.8880 0.8910
9.580000 0.8930 0.8930 0.8930 0.8930 0.8930
9.613967 0.8950 0.8950 0.8950 0.8950 0.8950
9.648000 0.8950 0.8970 0.8970 0.8980 0.9000
9.681967 0.9000 0.9020 0.9000 0.9020 0.9020
9.715000 0.9020 0.9030 0.9030 0.9020 0.9030
9.748967 0.9050 0.9050 0.9070 0.9050 0.9070
9.783000 0.9070 0.9070 0.9070 0.9090 0.9070
9.816967 0.9090 0.9100 0.9100 0.9100 0.9120
9.851000 0.9120 0.9140 0.9140 0.9140 0.9140
9.884967 0.9140 0.9140 0.9150 0.9150 0.9170
9.919000 0.9150 0.9150 0.9150 0.9150 0.9150
9.952967 0.9150 0.9170 0.9190 0.9190 0.9190
9.987000 0.9210 0.9210 0.9220 0.9220 0.9220
10.020967 0.9240 0.9240 0.9240 0.9240 0.9240
10.055000 0.9240 0.9240 0.9240 0.9240 0.9240
10.088967 0.9240 0.9240 0.9240 0.9240 0.9240
10.123000 0.9240 0.9240 0.9240 0.9240 0.9240
10.156967 0.9240 0.9240 0.9240 0.9240 0.9240
10.191000 0.9240 0.9240 0.9240 0.9240 0.9240
10.224967 0.9220 0.9210 0.9190 0.9170 0.9190
10.259000 0.9190 0.9190 0.9190 0.9170 0.9150
10.292967 0.9170 0.9170 0.9210 0.9220 0.9210
10.327000 0.9220 0.9220 0.9240 0.9260 0.9260
10.360967 0.9260 0.9220 0.9220 0.9220 0.9220
10.394000 0.9220 0.9220 0.9220 0.9240 0.9240
10.427967 0.9240 0.9240 0.9270 0.9290 0.9290
10.462000 0.9270 0.9240 0.9240 0.9240 0.9260
10.495967 0.9260 0.9260 0.9260 0.9260 0.9260
10.530000 0.9260 0.9260 0.9260 0.9260 0.9260
10.563967 0.9240 0.9260 0.9260 0.9260 0.9260
10.598000 0.9260 0.9260 0.9240 0.9210 0.9220
10.631967 0.9220 0.9220 0.9220 0.9210 0.9190
10.666000 0.9190 0.9170 0.9170 0.9170 0.9150
10.699967 0.9140 0.9140 0.9140 0.9140 0.9140
10.734000 0.9100 0.9100 0.9070 0.9050 0.9030
10.767967 0.9020 0.9000 0.8980 0.8970 0.8950
10.802000 0.8910 0.8910 0.8880 0.8860 0.8860
10.835967 0.8860 0.8850 0.8850 0.8850 0.8810
10.870000 0.8810 0.8810 0.8790 0.8780 0.8740
10.903967 0.8730 0.8690 0.8670 0.8660 0.8620
10.938000 0.8570 0.8540 0.8470 0.8420 0.8370
10.971967 0.8350 0.8310 0.8280 0.8230 0.8160
11.006000 0.8070 0.7970 0.7890 0.7830 0.7770
11.039967 0.7660 0.7610 0.7540 0.7510 0.7420
11.073000 0.7390 0.7340 0.7270 0.7230 0.7220
11.106967 0.7160 0.7130 0.7110 0.7060 0.7040
11.141000 0.7010 0.6990 0.6990 0.6990 0.6990
11.174967 0.6990 0.7010 0.7040 0.7060 0.7110
11.209000 0.7130 0.7160 0.7220 0.7230 0.7270
11.242967 0.7300 0.7350 0.7420 0.7530 0.7540
11.277000 0.7560 0.7590 0.7660 0.7680 0.7700
11.310967 0.7700 0.7710 0.7730 0.7750 0.7780
11.345000 0.7800 0.7800 0.7800 0.7800 0.7800
11.378967 0.7780 0.7730 0.7700 0.7700 0.7660
11.413000 0.7660 0.7660 0.7660 0.7680 0.7680
11.446967 0.7680 0.7700 0.7750 0.7750 0.7770
11.481000 0.7800 0.7850 0.7890 0.7940 0.7950
11.514967 0.7990 0.8010 0.8020 0.8040 0.8060
11.549000 0.8070 0.8070 0.8070 0.8070 0.8070
11.582967 0.8070 0.8060 0.8040 0.8020 0.7990
11.617000 0.7990 0.7970 0.7950 0.7940 0.7920
11.650967 0.7870 0.7850 0.7830 0.7830 0.7830
11.685000 0.7850 0.7870 0.7900 0.7940 0.7970
11.718967 0.7990 0.8010 0.8020 0.8040 0.8070
11.752000 0.8130 0.8180 0.8230 0.8260 0.8300
11.785967 0.8330 0.8350 0.8380 0.8400 0.8430
11.820000 0.8450 0.8490 0.8500 0.8500 0.8520
11.853967 0.8540 0.8540 0.8570 0.8570 0.8590
11.888000 0.8590 0.8610 0.8610 0.8620 0.8640
11.921967 0.8660 0.8660 0.8670 0.8670 0.8670
11.956000 0.8670 0.8670 0.8660 0.8660 0.8660
11.989967 0.8640 0.8620 0.8550 0.8550 0.8520
12.024000 0.8470 0.8380 0.8300 0.8190 0.8060
12.057967 0.7900 0.7750 0.7540 0.7340 0.7100
12.092000 0.6820 0.6510 0.6240 0.6000 0.5740
12.125967 0.5520 0.5480 0.5500 0.5570 0.5660
12.160000 0.5780 0.5930 0.6120 0.6340 0.6560
12.193967 0.6800 0.7040 0.7270 0.7490 0.7680
12.228000 0.7830 0.7970 0.8060 0.8070 0.8130
12.261967 0.8160 0.8210 0.8250 0.8260 0.8280
12.296000 0.8300 0.8310 0.8310 0.8330 0.8330
12.329967 0.8330 0.8310 0.8300 0.8300 0.8300
12.364000 0.8310 0.8310 0.8330 0.8330 0.8350
12.397967 0.8400 0.8420 0.8450 0.8500 0.8520
12.431000 0.8540 0.8550 0.8610 0.8670 0.8710
12.464967 0.8740 0.8790 0.8860 0.8900 0.8910
12.499000 0.8950 0.9000 0.9000 0.9020 0.9050
12.532967 0.9090 0.9090 0.9120 0.9140 0.9170
12.567000 0.9220 0.9220 0.9240 0.9240 0.9270
12.600967 0.9330 0.9330 0.9340 0.9380 0.9380
12.635000 0.9390 0.9410 0.9410 0.9430 0.9450
12.668967 0.9460 0.9480 0.9500 0.9510 0.9510
12.703000 0.9530 0.9530 0.9550 0.9570 0.9580
12.736967 0.9580 0.9580 0.9580 0.9600 0.9600
12.771000 0.9600 0.9600 0.9620 0.9630 0.9630
12.804967 0.9630 0.9630 0.9630 0.9630 0.9630
12.839000 0.9630 0.9630 0.9630 0.9630 0.9630
12.872967 0.9630 0.9630 0.9630 0.9630 0.9630
12.907000 0.9630 0.9630 0.9630 0.9630 0.9630
12.940967 0.9630 0.9630 0.9630 0.9650 0.9650
12.975000 0.9650 0.9650 0.9650 0.9650 0.9650
13.008967 0.9650 0.9670 0.9670 0.9670 0.9690
13.043000 0.9690 0.9690 0.9700 0.9700 0.9720
13.076967 0.9720 0.9700 0.9700 0.9700 0.9700
13.110000 0.9700 0.9700 0.9700 0.9700 0.9720
13.143967 0.9720 0.9720 0.9720 0.9700 0.9700
13.178000 0.9700 0.9700 0.9690 0.9700 0.9700
13.211967 0.9700 0.9700 0.9670 0.9650 0.9620
13.246000 0.9600 0.9600 0.9580 0.9600 0.9600
13.279967 0.9600 0.9600 0.9600 0.9620 0.9620
13.314000 0.9620 0.9620 0.9620 0.9620 0.9600
13.347967 0.9600 0.9600 0.9600 0.9600 0.9600
13.382000 0.9580 0.9570 0.9570 0.9570 0.9530
13.415967 0.9510 0.9510 0.9480 0.9460 0.9430
13.450000 0.9410 0.9390 0.9380 0.9360 0.9340
13.483967 0.9330 0.9310 0.9290 0.9290 0.9270
13.518000 0.9270 0.9260 0.9260 0.9240 0.9240
13.551967 0.9240 0.9220 0.9220 0.9220 0.9210
13.586000 0.9210 0.9190 0.9190 0.9170 0.9150
13.619967 0.9140 0.9140 0.9140 0.9120 0.9120
13.654000 0.9120 0.9120 0.9100 0.9050 0.9030
13.687967 0.9020 0.9000 0.9000 0.8980 0.8950
13.722000 0.8910 0.8900 0.8860 0.8850 0.8810
13.755967 0.8780 0.8780 0.8780 0.8760 0.8740
13.790000 0.8740 0.8730 0.8710 0.8670 0.8640
13.823967 0.8620 0.8610 0.8610 0.8610 0.8550
13.857000 0.8520 0.8500 0.8500 0.8520 0.8520
13.890967 0.8520 0.8520 0.8520 0.8540 0.8550
13.925000 0.8590 0.8590 0.8610 0.8610 0.8610
13.958967 0.8640 0.8660 0.8670 0.8690 0.8710
13.993000 0.8740 0.8760 0.8780 0.8780 0.8780
14.026967 0.8760 0.8760 0.8760 0.8780 0.8830
14.061000 0.8860 0.8860 0.8860 0.8860 0.8860
14.094967 0.8860 0.8860 0.8860 0.8850 0.8860
14.129000 0.8860 0.8860 0.8860 0.8830 0.8830
14.162967 0.8790 0.8790 0.8780 0.8780 0.8760
14.197000 0.8760 0.8740 0.8740 0.8740 0.8730
14.230967 0.8730 0.8710 0.8690 0.8670 0.8660
14.265000 0.8640 0.8640 0.8590 0.8550 0.8540
14.298967 0.8550 0.8540 0.8520 0.8520 0.8500
14.333000 0.8500 0.8490 0.8490 0.8470 0.8450
14.366967 0.8430 0.8420 0.8420 0.8380 0.8370
14.401000 0.8370 0.8350 0.8350 0.8350 0.8310
14.434967 0.8300 0.8280 0.8260 0.8260 0.8250
14.469000 0.8210 0.8210 0.8190 0.8180 0.8140
14.502967 0.8130 0.8070 0.8060 0.8040 0.8020
14.536000 0.8020 0.8010 0.7990 0.7950 0.7950
14.569967 0.7940 0.7920 0.7900 0.7890 0.7870
14.604000 0.7850 0.7830 0.7830 0.7820 0.7820
14.637967 0.7800 0.7770 0.7730 0.7730 0.7710
14.672000 0.7700 0.7660 0.7630 0.7610 0.7610
14.705967 0.7590 0.7560 0.7540 0.7560 0.7560
14.740000 0.7540 0.7530 0.7530 0.7510 0.7490
14.773967 0.7510 0.7490 0.7490 0.7490 0.7510
14.808000 0.7510 0.7510 0.7470 0.7440 0.7420
14.841967 0.7400 0.7390 0.7370 0.7370 0.7350
14.876000 0.7340 0.7340 0.7340 0.7340 0.7340
14.909967 0.7340 0.7340 0.7350 0.7340 0.7300
14.944000 0.7300 0.7300 0.7300 0.7300 0.7300
14.977967 0.7320 0.7350 0.7350 0.7320 0.7300
15.012000 0.7280 0.7280 0.7270 0.7250 0.7250
15.045967 0.7230 0.7220 0.7220 0.7200 0.7200
15.080000 0.7200 0.7200 0.7200 0.7200 0.7220
15.113967 0.7220 0.7200 0.7180 0.7150 0.7130
15.148000 0.7150 0.7130 0.7110 0.7110 0.7110
15.181967 0.7100 0.7080 0.7060 0.7060 0.7040
15.215000 0.7040 0.7040 0.7030 0.7010 0.6990
15.248967 0.6980 0.6940 0.6920 0.6940 0.6940
15.283000 0.6940 0.6940 0.6940 0.6920 0.6890
15.316967 0.6870 0.6860 0.6840 0.6820 0.6800
15.351000 0.6790 0.6770 0.6750 0.6750 0.6740
15.384967 0.6750 0.6750 0.6740 0.6720 0.6700
15.419000 0.6680 0.6650 0.6630 0.6650 0.6630
15.452967 0.6620 0.6600 0.6600 0.6600 0.6580
15.487000 0.6560 0.6560 0.6560 0.6550 0.6560
15.520967 0.6550 0.6550 0.6530 0.6530 0.6530
15.555000 0.6530 0.6510 0.6510 0.6510 0.6510
15.588967 0.6480 0.6500 0.6500 0.6480 0.6480
15.623000 0.6480 0.6460 0.6440 0.6440 0.6440
15.656967 0.6440 0.6440 0.6440 0.6440 0.6430
15.691000 0.6430 0.6430 0.6430 0.6430 0.6410
15.724967 0.6410 0.6410 0.6410 0.6410 0.6410
15.759000 0.6430 0.6430 0.6430 0.6430 0.6430
15.792967 0.6430 0.6440 0.6440 0.6440 0.6440
15.827000 0.6460 0.6460 0.6440 0.6440 0.6430
15.860967 0.6430 0.6430 0.6430 0.6430 0.6430
15.894000 0.6430 0.6430 0.6430 0.6430 0.6430
15.927967 0.6430 0.6430 0.6440 0.6440 0.6440
15.962000 0.6440 0.6440 0.6440 0.6440 0.6460
##END=
