##TITLE=9H-Adenine, 9-ethyl-, hydrogen tetrafluoroborate
##JCAMP-DX=4.24
##DATA TYPE=INFRARED SPECTRUM
##CLASS=COBLENTZ III
##ORIGIN=SOUTHERN RESEARCH INSTITUTE
##OWNER=Copyright (C) 1987 by the Coblentz Society
Collection (C) 2018 copyright by the U.S. Secretary of Commerce
on behalf of the United States of America. All rights reserved.
##DATE=1957/05/30
##MOLFORM=C7 H10 F4 N5 B
##SOURCE REFERENCE=COBLENTZ NO. 8285
##$NIST ID=B6008285
##$NIST SOURCE=COBLENTZ
##$NIST IMAGE=cob8285
##SPECTROMETER/DATA SYSTEM=PERKIN-ELMER 21 (GRATING)
##INSTRUMENT PARAMETERS=FILTER CHANGE ABOUT 1090 CM^-^1
##STATE=SOLID (0.7 mg / 650 mg KBr DISC)
##SAMPLING PROCEDURE=TRANSMISSION
##RESOLUTION=2
##DATA PROCESSING=DIGITIZED BY COBLENTZ SOCIETY (BATCH II) FROM HARD COPY (ADJUSTED \addcm-1\10-8-2\)
##XUNITS=1/CM
##YUNITS=TRANSMITTANCE
##XFACTOR=1.0
##YFACTOR=1
##DELTAX=1.002774
##FIRSTX=599.559
##LASTX=4012
##FIRSTY=0.8349
##MAXX=4012
##MINX=599.559
##MAXY=0.838398
##MINY=0.0456818
##NPOINTS=3404
##XYDATA=(X++(Y..Y))
599.558571 0.8349 0.8358 0.8366 0.8373 0.8381
604.572440 0.8384 0.8365 0.8381 0.8375 0.8364
609.586308 0.8353 0.8341 0.8329 0.8313 0.8296
614.600176 0.8283 0.8272 0.8261 0.8251 0.8244
619.614044 0.8242 0.8239 0.8231 0.8221 0.8212
624.627912 0.8183 0.8145 0.8104 0.8061 0.8018
629.641780 0.7947 0.7865 0.7792 0.7722 0.7543
634.655648 0.7302 0.7059 0.6816 0.6573 0.6329
639.669517 0.6087 0.5941 0.5935 0.5943 0.5904
644.683385 0.6342 0.6596 0.6835 0.7073 0.7311
649.697253 0.7550 0.7742 0.7771 0.7750 0.7740
654.711121 0.7729 0.7709 0.7670 0.7584 0.7433
659.724989 0.7275 0.7176 0.7152 0.7136 0.7118
664.738857 0.7099 0.7049 0.6968 0.6630 0.6162
669.752725 0.5682 0.5202 0.4722 0.4243 0.3999
674.766594 0.3908 0.3850 0.3813 0.3833 0.3860
679.780462 0.4219 0.4812 0.5430 0.6050 0.6669
684.794330 0.6963 0.7016 0.6990 0.6977 0.6968
689.808198 0.6873 0.6761 0.6650 0.6577 0.6529
694.822066 0.6466 0.6080 0.5640 0.5200 0.4761
699.835934 0.4321 0.4104 0.4001 0.3918 0.3828
704.849802 0.3726 0.3694 0.3677 0.3673 0.3673
709.863670 0.3678 0.3672 0.3685 0.3705 0.3748
714.877539 0.3827 0.3907 0.3942 0.3972 0.3957
719.891407 0.3949 0.3931 0.3905 0.3869 0.3830
724.905275 0.3799 0.3774 0.3767 0.3765 0.3778
729.919143 0.3776 0.3813 0.3866 0.3914 0.3956
734.933011 0.3984 0.3995 0.3997 0.3999 0.4025
739.946879 0.4069 0.4118 0.4166 0.4214 0.4263
744.960747 0.4311 0.4360 0.4415 0.4475 0.4539
749.974616 0.4606 0.4679 0.4784 0.4888 0.4979
754.988484 0.5044 0.5103 0.5162 0.5228 0.5296
760.002352 0.5378 0.5475 0.5579 0.5686 0.5763
765.016220 0.5779 0.5766 0.5624 0.5438 0.5253
770.030088 0.5140 0.5117 0.5311 0.5860 0.6020
775.043956 0.6011 0.6003 0.5990 0.5974 0.5955
780.057824 0.5931 0.5901 0.5868 0.5835 0.5805
785.071693 0.5777 0.5677 0.5545 0.5413 0.5280
790.085561 0.5223 0.5211 0.5240 0.5319 0.5413
795.099429 0.5508 0.5602 0.5675 0.5688 0.5679
800.113297 0.5673 0.5666 0.5659 0.5652 0.5645
805.127165 0.5637 0.5629 0.5626 0.5626 0.5629
810.141033 0.5766 0.5965 0.6175 0.6299 0.6357
815.154901 0.6398 0.6436 0.6472 0.6505 0.6539
820.168770 0.6585 0.6698 0.6831 0.6911 0.6953
825.182638 0.6981 0.7007 0.7033 0.7053 0.7068
830.196506 0.7068 0.7081 0.7089 0.7089 0.7084
835.210374 0.7075 0.7067 0.7058 0.7050 0.7041
840.224242 0.7032 0.7022 0.7012 0.7001 0.6990
845.238110 0.6979 0.6969 0.6958 0.6947 0.6936
850.251978 0.6925 0.6915 0.6904 0.6893 0.6882
855.265846 0.6871 0.6861 0.6850 0.6839 0.6829
860.279715 0.6818 0.6807 0.6796 0.6786 0.6775
865.293583 0.6764 0.6752 0.6732 0.6709 0.6686
870.307451 0.6659 0.6625 0.6589 0.6554 0.6518
875.321319 0.6484 0.6451 0.6416 0.6367 0.6306
880.335187 0.6210 0.6112 0.6045 0.5988 0.5933
885.349055 0.5885 0.5843 0.5801 0.5749 0.5691
890.362923 0.5649 0.5625 0.5613 0.5603 0.5603
895.376792 0.5609 0.5614 0.5626 0.5679 0.5760
900.390660 0.5841 0.5922 0.6000 0.6039 0.6042
905.404528 0.6036 0.6027 0.5999 0.5962 0.5928
910.418396 0.5895 0.5879 0.5878 0.5889 0.6026
915.432264 0.6265 0.6504 0.6662 0.6690 0.6695
920.446132 0.6708 0.6706 0.6700 0.6690 0.6677
925.460000 0.6659 0.6634 0.6600 0.6566 0.6537
930.473869 0.6501 0.6456 0.6406 0.6353 0.6267
935.487737 0.6167 0.6099 0.6045 0.5991 0.5939
940.501605 0.5888 0.5837 0.5782 0.5721 0.5658
945.515473 0.5596 0.5534 0.5471 0.5393 0.5285
950.529341 0.5120 0.4927 0.4771 0.4638 0.4497
955.543209 0.4342 0.4187 0.4032 0.3878 0.3723
960.557077 0.3568 0.3440 0.3391 0.3398 0.3454
965.570946 0.3573 0.3691 0.3810 0.3929 0.4047
970.584814 0.4152 0.4202 0.4207 0.4181 0.4093
975.598682 0.3987 0.3882 0.3777 0.3671 0.3566
980.612550 0.3461 0.3283 0.3076 0.2986 0.2931
985.626418 0.2878 0.2826 0.2776 0.2726 0.2675
990.640286 0.2621 0.2563 0.2509 0.2459 0.2413
995.654154 0.2372 0.2335 0.2299 0.2269 0.2244
1000.668022 0.2219 0.2198 0.2185 0.2176 0.2167
1005.681891 0.2160 0.2156 0.2155 0.2154 0.2153
1010.695759 0.2153 0.2151 0.2146 0.2138 0.2127
1015.709627 0.2115 0.2103 0.2088 0.2069 0.2050
1020.723495 0.2030 0.2004 0.1969 0.1933 0.1896
1025.737363 0.1859 0.1823 0.1789 0.1754 0.1719
1030.751231 0.1684 0.1654 0.1636 0.1619 0.1601
1035.765099 0.1584 0.1566 0.1549 0.1531 0.1514
1040.778968 0.1497 0.1481 0.1467 0.1453 0.1439
1045.792836 0.1425 0.1410 0.1396 0.1382 0.1368
1050.806704 0.1354 0.1340 0.1327 0.1316 0.1306
1055.820572 0.1296 0.1285 0.1275 0.1264 0.1254
1060.834440 0.1243 0.1235 0.1226 0.1218 0.1210
1065.848308 0.1201 0.1193 0.1188 0.1183 0.1178
1070.862176 0.1174 0.1161 0.1142 0.1148 0.1138
1075.876045 0.1126 0.1105 0.1073 0.1000 0.0868
1080.889913 0.0736 0.0604 0.0494 0.0457 0.0458
1085.903781 0.0579 0.1122 0.1684 0.1624 0.1423
1090.917649 0.1232 0.1137 0.1142 0.1144 0.1146
1095.931517 0.1147 0.1142 0.1133 0.1144 0.1144
1100.945385 0.1145 0.1145 0.1144 0.1143 0.1142
1105.959253 0.1140 0.1139 0.1138 0.1139 0.1139
1110.973122 0.1142 0.1145 0.1149 0.1157 0.1168
1115.986990 0.1184 0.1203 0.1221 0.1239 0.1262
1121.000858 0.1288 0.1314 0.1340 0.1366 0.1393
1126.014726 0.1425 0.1460 0.1501 0.1573 0.1667
1131.028594 0.1749 0.1824 0.1894 0.1962 0.2024
1136.042462 0.2084 0.2144 0.2201 0.2243 0.2275
1141.056330 0.2305 0.2322 0.2334 0.2342 0.2346
1146.070199 0.2349 0.2354 0.2370 0.2387 0.2403
1151.084067 0.2422 0.2450 0.2486 0.2525 0.2569
1156.097935 0.2614 0.2659 0.2702 0.2746 0.2790
1161.111803 0.2833 0.2882 0.2956 0.3031 0.3098
1166.125671 0.3160 0.3222 0.3283 0.3345 0.3412
1171.139539 0.3492 0.3573 0.3654 0.3737 0.3828
1176.153407 0.3920 0.4010 0.4094 0.4163 0.4233
1181.167275 0.4302 0.4372 0.4442 0.4512 0.4582
1186.181144 0.4652 0.4722 0.4792 0.4862 0.4938
1191.195012 0.5056 0.5161 0.5215 0.5268 0.5311
1196.208880 0.5344 0.5367 0.5378 0.5388 0.5398
1201.222748 0.5405 0.5426 0.5402 0.5395 0.5380
1206.236616 0.5358 0.5318 0.5251 0.5161 0.5055
1211.250484 0.4940 0.4829 0.4819 0.4806 0.4792
1216.264352 0.4769 0.4588 0.4249 0.3910 0.3572
1221.278221 0.3232 0.2894 0.2554 0.2231 0.2135
1226.292089 0.2139 0.2146 0.2132 0.2249 0.2469
1231.305957 0.2558 0.2617 0.2665 0.2703 0.2817
1236.319825 0.2962 0.3109 0.3255 0.3401 0.3548
1241.333693 0.3693 0.3839 0.3986 0.4132 0.4278
1246.347561 0.4424 0.4570 0.4717 0.4863 0.5012
1251.361429 0.5256 0.5435 0.5535 0.5619 0.5700
1256.375298 0.5771 0.5830 0.5888 0.5952 0.6016
1261.389166 0.6115 0.6196 0.6269 0.6295 0.6321
1266.403034 0.6346 0.6361 0.6373 0.6385 0.6387
1271.416902 0.6386 0.6385 0.6384 0.6392 0.6363
1276.430770 0.6342 0.6316 0.6289 0.6244 0.6129
1281.444638 0.6037 0.5940 0.5860 0.5799 0.5748
1286.458506 0.5701 0.5654 0.5621 0.5591 0.5584
1291.472375 0.5583 0.5583 0.5584 0.5591 0.5610
1296.486243 0.5640 0.5686 0.5756 0.5822 0.5852
1301.500111 0.5873 0.5871 0.5864 0.5856 0.5847
1306.513979 0.5837 0.5826 0.5813 0.5795 0.5771
1311.527847 0.5747 0.5722 0.5696 0.5668 0.5641
1316.541715 0.5613 0.5586 0.5559 0.5529 0.5498
1321.555583 0.5483 0.5469 0.5455 0.5444 0.5436
1326.569451 0.5427 0.5402 0.5328 0.5238 0.5144
1331.583320 0.5022 0.4908 0.4830 0.4778 0.4735
1336.597188 0.4708 0.4694 0.4692 0.4695 0.4763
1341.611056 0.4881 0.5005 0.5128 0.5237 0.5291
1346.624924 0.5319 0.5343 0.5356 0.5361 0.5368
1351.638792 0.5327 0.5215 0.5127 0.5057 0.5013
1356.652660 0.4972 0.4948 0.4933 0.4916 0.4928
1361.666528 0.4958 0.5073 0.5202 0.5332 0.5461
1366.680397 0.5589 0.5710 0.5827 0.5877 0.5895
1371.694265 0.5894 0.5887 0.5872 0.5866 0.5855
1376.708133 0.5842 0.5824 0.5795 0.5752 0.5676
1381.722001 0.5598 0.5539 0.5519 0.5506 0.5494
1386.735869 0.5482 0.5460 0.5434 0.5386 0.5317
1391.749737 0.5241 0.5198 0.5168 0.5152 0.5139
1396.763605 0.5125 0.5112 0.5016 0.4887 0.4755
1401.777474 0.4622 0.4489 0.4357 0.4261 0.4206
1406.791342 0.4185 0.4174 0.4166 0.4154 0.4136
1411.805210 0.3991 0.3691 0.3359 0.3026 0.2711
1416.819078 0.2608 0.2587 0.2591 0.2577 0.2786
1421.832946 0.2976 0.3137 0.3298 0.3459 0.3620
1426.846814 0.3781 0.3941 0.4103 0.4264 0.4424
1431.860682 0.4585 0.4812 0.4921 0.4984 0.5029
1436.874551 0.5044 0.5023 0.4973 0.5018 0.4925
1441.888419 0.4851 0.4812 0.4767 0.4720 0.4667
1446.902287 0.4589 0.4469 0.4374 0.4299 0.4232
1451.916155 0.4190 0.4169 0.4154 0.4142 0.4134
1456.930023 0.4128 0.4124 0.4138 0.4131 0.4131
1461.943891 0.4149 0.4170 0.4192 0.4215 0.4239
1466.957759 0.4262 0.4285 0.4316 0.4354 0.4397
1471.971627 0.4448 0.4504 0.4564 0.4629 0.4702
1476.985496 0.4784 0.4868 0.4970 0.5096 0.5254
1481.999364 0.5448 0.5664 0.5827 0.5922 0.5990
1487.013232 0.6041 0.6079 0.6116 0.6149 0.6180
1492.027100 0.6203 0.6221 0.6236 0.6248 0.6258
1497.040968 0.6267 0.6271 0.6258 0.6262 0.6271
1502.054836 0.6269 0.6266 0.6263 0.6260 0.6257
1507.068704 0.6166 0.5943 0.5669 0.5438 0.5339
1512.082573 0.5319 0.5305 0.5294 0.5285 0.5275
1517.096441 0.5263 0.5252 0.5060 0.4624 0.4110
1522.110309 0.3787 0.3708 0.3703 0.3699 0.3705
1527.124177 0.3737 0.3857 0.4082 0.4340 0.4597
1532.138045 0.4855 0.5112 0.5351 0.5623 0.5846
1537.151913 0.5954 0.6073 0.6204 0.6288 0.6335
1542.165781 0.6382 0.6420 0.6447 0.6473 0.6487
1547.179650 0.6491 0.6495 0.6498 0.6495 0.6491
1552.193518 0.6484 0.6470 0.6451 0.6419 0.6373
1557.207386 0.6347 0.6334 0.6332 0.6348 0.6353
1562.221254 0.6360 0.6370 0.6384 0.6399 0.6415
1567.235122 0.6429 0.6444 0.6456 0.6468 0.6480
1572.248990 0.6487 0.6486 0.6483 0.6478 0.6490
1577.262858 0.6491 0.6454 0.6436 0.6394 0.6329
1582.276727 0.6260 0.6200 0.6155 0.6118 0.6061
1587.290595 0.5975 0.5876 0.5778 0.5674 0.5497
1592.304463 0.5253 0.5064 0.4875 0.4686 0.4496
1597.318331 0.4307 0.4118 0.3929 0.3740 0.3550
1602.332199 0.3361 0.3172 0.3005 0.2901 0.2848
1607.346067 0.2832 0.2830 0.2834 0.2857 0.2883
1612.359935 0.2923 0.2978 0.3053 0.3149 0.3256
1617.373804 0.3363 0.3469 0.3576 0.3682 0.3789
1622.387672 0.3896 0.4003 0.4110 0.4203 0.4268
1627.401540 0.4325 0.4382 0.4420 0.4441 0.4457
1632.415408 0.4437 0.4433 0.4426 0.4414 0.4377
1637.429276 0.4304 0.4235 0.4195 0.4186 0.4186
1642.443144 0.4191 0.4196 0.4206 0.4232 0.4301
1647.457012 0.4417 0.4516 0.4606 0.4692 0.4734
1652.470880 0.4738 0.4743 0.4747 0.4759 0.4770
1657.484749 0.4751 0.4752 0.4753 0.4744 0.4705
1662.498617 0.4623 0.4514 0.4429 0.4327 0.4163
1667.512485 0.3983 0.3803 0.3623 0.3443 0.3263
1672.526353 0.3083 0.2903 0.2723 0.2543 0.2363
1677.540221 0.2183 0.2003 0.1823 0.1643 0.1463
1682.554089 0.1283 0.1103 0.0934 0.0796 0.0699
1687.567957 0.0665 0.0640 0.0625 0.0616 0.0624
1692.581826 0.0636 0.0622 0.0631 0.0644 0.0661
1697.595694 0.0682 0.0702 0.0718 0.0731 0.0744
1702.609562 0.0757 0.0770 0.0782 0.0798 0.0823
1707.623430 0.0872 0.0979 0.1107 0.1196 0.1253
1712.637298 0.1338 0.1608 0.1956 0.1969 0.2004
1717.651166 0.2048 0.2093 0.2131 0.2163 0.2198
1722.665034 0.2270 0.2415 0.2606 0.2861 0.3012
1727.678903 0.3121 0.3196 0.3271 0.3341 0.3408
1732.692771 0.3475 0.3548 0.3641 0.3741 0.3841
1737.706639 0.3927 0.3993 0.4059 0.4120 0.4169
1742.720507 0.4214 0.4260 0.4305 0.4350 0.4400
1747.734375 0.4464 0.4531 0.4594 0.4654 0.4714
1752.748243 0.4772 0.4821 0.4858 0.4896 0.4933
1757.762111 0.4971 0.5009 0.5046 0.5085 0.5126
1762.775980 0.5166 0.5206 0.5246 0.5285 0.5323
1767.789848 0.5361 0.5399 0.5436 0.5474 0.5512
1772.803716 0.5550 0.5588 0.5625 0.5663 0.5701
1777.817584 0.5739 0.5779 0.5819 0.5859 0.5899
1782.831452 0.5938 0.5977 0.6017 0.6053 0.6082
1787.845320 0.6111 0.6140 0.6169 0.6195 0.6217
1792.859188 0.6238 0.6259 0.6280 0.6301 0.6322
1797.873056 0.6343 0.6364 0.6384 0.6403 0.6423
1802.886925 0.6442 0.6462 0.6481 0.6501 0.6520
1807.900793 0.6540 0.6559 0.6578 0.6598 0.6617
1812.914661 0.6635 0.6649 0.6663 0.6677 0.6692
1817.928529 0.6706 0.6720 0.6734 0.6747 0.6758
1822.942397 0.6768 0.6778 0.6789 0.6799 0.6810
1827.956265 0.6820 0.6830 0.6841 0.6851 0.6862
1832.970133 0.6873 0.6884 0.6896 0.6908 0.6919
1837.984002 0.6930 0.6936 0.6941 0.6946 0.6950
1842.997870 0.6955 0.6960 0.6965 0.6970 0.6975
1848.011738 0.6979 0.6983 0.6987 0.6990 0.6994
1853.025606 0.7001 0.7012 0.7022 0.7033 0.7042
1858.039474 0.7052 0.7062 0.7071 0.7081 0.7090
1863.053342 0.7097 0.7102 0.7107 0.7112 0.7118
1868.067210 0.7123 0.7128 0.7133 0.7138 0.7143
1873.081079 0.7146 0.7150 0.7154 0.7158 0.7161
1878.094947 0.7165 0.7169 0.7173 0.7176 0.7180
1883.108815 0.7184 0.7187 0.7190 0.7192 0.7193
1888.122683 0.7193 0.7191 0.7185 0.7178 0.7171
1893.136551 0.7162 0.7148 0.7133 0.7119 0.7105
1898.150419 0.7092 0.7082 0.7075 0.7069 0.7062
1903.164287 0.7055 0.7048 0.7043 0.7042 0.7040
1908.178156 0.7039 0.7038 0.7040 0.7046 0.7052
1913.192024 0.7058 0.7067 0.7085 0.7105 0.7128
1918.205892 0.7148 0.7164 0.7177 0.7187 0.7197
1923.219760 0.7207 0.7217 0.7227 0.7237 0.7247
1928.233628 0.7257 0.7263 0.7268 0.7274 0.7280
1933.247496 0.7285 0.7290 0.7295 0.7300 0.7305
1938.261364 0.7310 0.7314 0.7317 0.7321 0.7325
1943.275232 0.7329 0.7332 0.7336 0.7339 0.7343
1948.289101 0.7347 0.7352 0.7356 0.7360 0.7365
1953.302969 0.7369 0.7373 0.7377 0.7383 0.7388
1958.316837 0.7394 0.7399 0.7405 0.7410 0.7416
1963.330705 0.7418 0.7419 0.7420 0.7421 0.7422
1968.344573 0.7422 0.7422 0.7422 0.7422 0.7423
1973.358441 0.7423 0.7423 0.7424 0.7424 0.7425
1978.372309 0.7426 0.7426 0.7427 0.7427 0.7428
1983.386178 0.7429 0.7432 0.7435 0.7439 0.7442
1988.400046 0.7446 0.7451 0.7463 0.7475 0.7487
1993.413914 0.7500 0.7512 0.7522 0.7524 0.7525
1998.427782 0.7527 0.7524 0.7522 0.7519 0.7517
2003.441650 0.7515 0.7512 0.7510 0.7507 0.7504
2008.455518 0.7500 0.7495 0.7490 0.7485 0.7479
2013.469386 0.7473 0.7467 0.7461 0.7455 0.7450
2018.483255 0.7449 0.7448 0.7447 0.7446 0.7445
2023.497123 0.7445 0.7448 0.7451 0.7453 0.7455
2028.510991 0.7456 0.7456 0.7457 0.7457 0.7457
2033.524859 0.7457 0.7456 0.7452 0.7449 0.7446
2038.538727 0.7443 0.7439 0.7436 0.7433 0.7430
2043.552595 0.7427 0.7424 0.7421 0.7418 0.7416
2048.566463 0.7415 0.7416 0.7417 0.7419 0.7426
2053.580332 0.7435 0.7444 0.7454 0.7462 0.7470
2058.594200 0.7479 0.7488 0.7495 0.7503 0.7509
2063.608068 0.7513 0.7517 0.7521 0.7525 0.7529
2068.621936 0.7534 0.7538 0.7541 0.7542 0.7543
2073.635804 0.7543 0.7544 0.7545 0.7547 0.7549
2078.649672 0.7551 0.7553 0.7555 0.7557 0.7558
2083.663540 0.7560 0.7563 0.7567 0.7571 0.7575
2088.677409 0.7579 0.7583 0.7585 0.7582 0.7578
2093.691277 0.7574 0.7570 0.7566 0.7560 0.7553
2098.705145 0.7545 0.7537 0.7530 0.7522 0.7519
2103.719013 0.7517 0.7515 0.7517 0.7527 0.7537
2108.732881 0.7548 0.7558 0.7568 0.7578 0.7586
2113.746749 0.7590 0.7588 0.7585 0.7582 0.7580
2118.760617 0.7578 0.7576 0.7576 0.7575 0.7575
2123.774485 0.7574 0.7575 0.7576 0.7578 0.7579
2128.788354 0.7581 0.7582 0.7584 0.7586 0.7587
2133.802222 0.7586 0.7586 0.7586 0.7585 0.7585
2138.816090 0.7584 0.7583 0.7582 0.7580 0.7579
2143.829958 0.7578 0.7576 0.7575 0.7576 0.7578
2148.843826 0.7580 0.7583 0.7585 0.7587 0.7590
2153.857694 0.7592 0.7594 0.7593 0.7591 0.7588
2158.871562 0.7586 0.7583 0.7580 0.7577 0.7574
2163.885431 0.7571 0.7568 0.7565 0.7562 0.7559
2168.899299 0.7556 0.7553 0.7551 0.7548 0.7546
2173.913167 0.7552 0.7559 0.7566 0.7569 0.7569
2178.927035 0.7569 0.7569 0.7570 0.7576 0.7581
2183.940903 0.7587 0.7592 0.7598 0.7602 0.7604
2188.954771 0.7606 0.7608 0.7609 0.7608 0.7609
2193.968639 0.7619 0.7604 0.7602 0.7598 0.7594
2198.982508 0.7591 0.7588 0.7587 0.7585 0.7584
2203.996376 0.7582 0.7582 0.7582 0.7582 0.7582
2209.010244 0.7582 0.7583 0.7583 0.7583 0.7583
2214.024112 0.7583 0.7584 0.7584 0.7583 0.7582
2219.037980 0.7581 0.7579 0.7578 0.7574 0.7569
2224.051848 0.7564 0.7559 0.7554 0.7549 0.7545
2229.065716 0.7544 0.7544 0.7544 0.7543 0.7543
2234.079585 0.7543 0.7543 0.7542 0.7542 0.7544
2239.093453 0.7547 0.7549 0.7552 0.7556 0.7560
2244.107321 0.7564 0.7568 0.7572 0.7576 0.7579
2249.121189 0.7582 0.7584 0.7586 0.7588 0.7590
2254.135057 0.7593 0.7595 0.7595 0.7595 0.7594
2259.148925 0.7594 0.7594 0.7594 0.7593 0.7593
2264.162793 0.7594 0.7597 0.7599 0.7601 0.7603
2269.176661 0.7605 0.7607 0.7609 0.7611 0.7613
2274.190530 0.7615 0.7617 0.7618 0.7619 0.7620
2279.204398 0.7621 0.7622 0.7623 0.7625 0.7627
2284.218266 0.7629 0.7631 0.7633 0.7636 0.7642
2289.232134 0.7649 0.7657 0.7668 0.7678 0.7688
2294.246002 0.7700 0.7713 0.7726 0.7738 0.7751
2299.259870 0.7759 0.7763 0.7767 0.7766 0.7764
2304.273738 0.7762 0.7760 0.7758 0.7755 0.7752
2309.287607 0.7748 0.7742 0.7738 0.7734 0.7729
2314.301475 0.7725 0.7720 0.7716 0.7713 0.7712
2319.315343 0.7711 0.7710 0.7709 0.7708 0.7708
2324.329211 0.7708 0.7708 0.7708 0.7708 0.7708
2329.343079 0.7709 0.7704 0.7699 0.7694 0.7689
2334.356947 0.7684 0.7678 0.7672 0.7666 0.7660
2339.370815 0.7654 0.7648 0.7642 0.7636 0.7630
2344.384684 0.7625 0.7621 0.7617 0.7613 0.7609
2349.398552 0.7605 0.7601 0.7597 0.7593 0.7589
2354.412420 0.7587 0.7587 0.7587 0.7586 0.7586
2359.426288 0.7586 0.7585 0.7586 0.7588 0.7591
2364.440156 0.7594 0.7596 0.7599 0.7602 0.7605
2369.454024 0.7607 0.7610 0.7613 0.7618 0.7624
2374.467892 0.7631 0.7637 0.7644 0.7650 0.7657
2379.481761 0.7663 0.7662 0.7657 0.7652 0.7648
2384.495629 0.7643 0.7638 0.7633 0.7629 0.7624
2389.509497 0.7622 0.7624 0.7627 0.7629 0.7632
2394.523365 0.7634 0.7636 0.7640 0.7645 0.7650
2399.537233 0.7655 0.7660 0.7665 0.7670 0.7673
2404.551101 0.7672 0.7671 0.7671 0.7670 0.7669
2409.564969 0.7668 0.7667 0.7663 0.7656 0.7650
2414.578838 0.7643 0.7637 0.7630 0.7623 0.7618
2419.592706 0.7614 0.7611 0.7608 0.7604 0.7601
2424.606574 0.7598 0.7594 0.7591 0.7587 0.7584
2429.620442 0.7582 0.7579 0.7576 0.7573 0.7570
2434.634310 0.7567 0.7564 0.7562 0.7559 0.7557
2439.648178 0.7556 0.7555 0.7554 0.7553 0.7552
2444.662046 0.7551 0.7550 0.7549 0.7549 0.7551
2449.675914 0.7553 0.7554 0.7556 0.7557 0.7558
2454.689783 0.7558 0.7559 0.7559 0.7560 0.7560
2459.703651 0.7561 0.7561 0.7562 0.7562 0.7563
2464.717519 0.7565 0.7567 0.7569 0.7570 0.7572
2469.731387 0.7574 0.7577 0.7583 0.7590 0.7596
2474.745255 0.7597 0.7599 0.7601 0.7603 0.7601
2479.759123 0.7597 0.7594 0.7590 0.7586 0.7582
2484.772991 0.7578 0.7572 0.7567 0.7562 0.7556
2489.786860 0.7551 0.7545 0.7540 0.7534 0.7526
2494.800728 0.7517 0.7509 0.7505 0.7506 0.7506
2499.814596 0.7507 0.7508 0.7509 0.7511 0.7513
2504.828464 0.7514 0.7516 0.7518 0.7520 0.7522
2509.842332 0.7524 0.7526 0.7527 0.7529 0.7530
2514.856200 0.7531 0.7533 0.7534 0.7535 0.7532
2519.870068 0.7530 0.7527 0.7525 0.7522 0.7520
2524.883937 0.7517 0.7515 0.7512 0.7509 0.7496
2529.897805 0.7483 0.7471 0.7458 0.7444 0.7429
2534.911673 0.7414 0.7405 0.7399 0.7393 0.7388
2539.925541 0.7382 0.7376 0.7370 0.7364 0.7359
2544.939409 0.7353 0.7347 0.7341 0.7336 0.7333
2549.953277 0.7331 0.7329 0.7327 0.7325 0.7324
2554.967145 0.7322 0.7320 0.7318 0.7316 0.7314
2559.981014 0.7315 0.7315 0.7316 0.7317 0.7317
2564.994882 0.7318 0.7318 0.7319 0.7320 0.7323
2570.008750 0.7327 0.7330 0.7334 0.7336 0.7337
2575.022618 0.7338 0.7340 0.7340 0.7338 0.7336
2580.036486 0.7335 0.7333 0.7331 0.7329 0.7327
2585.050354 0.7326 0.7324 0.7322 0.7320 0.7317
2590.064222 0.7314 0.7310 0.7307 0.7304 0.7300
2595.078090 0.7297 0.7292 0.7284 0.7277 0.7269
2600.091959 0.7262 0.7255 0.7247 0.7240 0.7232
2605.105827 0.7222 0.7211 0.7200 0.7189 0.7178
2610.119695 0.7166 0.7155 0.7144 0.7133 0.7122
2615.133563 0.7111 0.7100 0.7089 0.7077 0.7066
2620.147431 0.7055 0.7044 0.7033 0.7021 0.7010
2625.161299 0.6999 0.6987 0.6975 0.6964 0.6952
2630.175167 0.6940 0.6929 0.6917 0.6906 0.6894
2635.189036 0.6882 0.6871 0.6859 0.6849 0.6838
2640.202904 0.6827 0.6817 0.6806 0.6795 0.6785
2645.216772 0.6774 0.6763 0.6754 0.6747 0.6741
2650.230640 0.6735 0.6729 0.6723 0.6716 0.6710
2655.244508 0.6706 0.6704 0.6702 0.6700 0.6698
2660.258376 0.6695 0.6693 0.6691 0.6689 0.6687
2665.272244 0.6686 0.6685 0.6684 0.6684 0.6683
2670.286113 0.6682 0.6682 0.6681 0.6680 0.6676
2675.299981 0.6670 0.6664 0.6658 0.6653 0.6647
2680.313849 0.6641 0.6635 0.6629 0.6619 0.6608
2685.327717 0.6597 0.6586 0.6575 0.6565 0.6554
2690.341585 0.6543 0.6531 0.6518 0.6506 0.6494
2695.355453 0.6482 0.6470 0.6464 0.6459 0.6453
2700.369321 0.6448 0.6444 0.6440 0.6437 0.6433
2705.383190 0.6429 0.6425 0.6422 0.6418 0.6414
2710.397058 0.6411 0.6407 0.6403 0.6399 0.6396
2715.410926 0.6393 0.6392 0.6390 0.6388 0.6387
2720.424794 0.6385 0.6383 0.6381 0.6379 0.6377
2725.438662 0.6375 0.6373 0.6371 0.6369 0.6367
2730.452530 0.6365 0.6363 0.6361 0.6358 0.6355
2735.466398 0.6353 0.6350 0.6347 0.6345 0.6342
2740.480266 0.6339 0.6337 0.6334 0.6331 0.6329
2745.494135 0.6323 0.6316 0.6310 0.6303 0.6296
2750.508003 0.6289 0.6283 0.6276 0.6269 0.6262
2755.521871 0.6256 0.6249 0.6242 0.6235 0.6229
2760.535739 0.6222 0.6215 0.6208 0.6200 0.6191
2765.549607 0.6183 0.6175 0.6166 0.6158 0.6150
2770.563475 0.6142 0.6133 0.6126 0.6118 0.6114
2775.577343 0.6111 0.6107 0.6103 0.6099 0.6096
2780.591212 0.6094 0.6092 0.6090 0.6087 0.6085
2785.605080 0.6083 0.6080 0.6078 0.6076 0.6074
2790.618948 0.6066 0.6057 0.6047 0.6038 0.6028
2795.632816 0.6017 0.6007 0.5996 0.5985 0.5974
2800.646684 0.5963 0.5953 0.5942 0.5931 0.5920
2805.660552 0.5907 0.5895 0.5883 0.5871 0.5858
2810.674420 0.5846 0.5834 0.5821 0.5809 0.5795
2815.688289 0.5781 0.5766 0.5751 0.5737 0.5722
2820.702157 0.5708 0.5693 0.5678 0.5664 0.5649
2825.716025 0.5634 0.5617 0.5599 0.5580 0.5562
2830.729893 0.5543 0.5525 0.5507 0.5491 0.5475
2835.743761 0.5459 0.5443 0.5427 0.5410 0.5394
2840.757629 0.5378 0.5367 0.5356 0.5346 0.5335
2845.771497 0.5329 0.5329 0.5329 0.5330 0.5331
2850.785366 0.5333 0.5333 0.5331 0.5329 0.5327
2855.799234 0.5325 0.5323 0.5321 0.5319 0.5317
2860.813102 0.5315 0.5313 0.5311 0.5309 0.5307
2865.826970 0.5305 0.5303 0.5301 0.5299 0.5297
2870.840838 0.5295 0.5293 0.5291 0.5289 0.5287
2875.854706 0.5285 0.5275 0.5262 0.5248 0.5235
2880.868574 0.5221 0.5203 0.5185 0.5167 0.5148
2885.882443 0.5130 0.5111 0.5091 0.5071 0.5051
2890.896311 0.5031 0.5009 0.4988 0.4966 0.4944
2895.910179 0.4922 0.4901 0.4879 0.4857 0.4836
2900.924047 0.4814 0.4793 0.4776 0.4760 0.4744
2905.937915 0.4728 0.4712 0.4696 0.4679 0.4663
2910.951783 0.4647 0.4631 0.4615 0.4600 0.4584
2915.965651 0.4568 0.4552 0.4537 0.4521 0.4504
2920.979519 0.4487 0.4470 0.4453 0.4436 0.4419
2925.993388 0.4402 0.4385 0.4368 0.4351 0.4334
2931.007256 0.4316 0.4298 0.4280 0.4262 0.4244
2936.021124 0.4226 0.4208 0.4190 0.4172 0.4155
2941.034992 0.4138 0.4122 0.4106 0.4089 0.4073
2946.048860 0.4057 0.4040 0.4024 0.4008 0.3992
2951.062728 0.3977 0.3962 0.3946 0.3931 0.3916
2956.076596 0.3901 0.3885 0.3870 0.3855 0.3840
2961.090465 0.3825 0.3809 0.3794 0.3779 0.3764
2966.104333 0.3750 0.3735 0.3721 0.3706 0.3692
2971.118201 0.3677 0.3662 0.3648 0.3633 0.3620
2976.132069 0.3609 0.3599 0.3589 0.3579 0.3569
2981.145937 0.3559 0.3549 0.3541 0.3534 0.3527
2986.159805 0.3520 0.3513 0.3505 0.3490 0.3471
2991.173673 0.3451 0.3431 0.3413 0.3396 0.3379
2996.187542 0.3362 0.3345 0.3327 0.3311 0.3294
3001.201410 0.3278 0.3261 0.3245 0.3229 0.3216
3006.215278 0.3203 0.3189 0.3176 0.3163 0.3150
3011.229146 0.3137 0.3123 0.3111 0.3098 0.3086
3016.243014 0.3073 0.3061 0.3048 0.3036 0.3023
3021.256882 0.3011 0.3001 0.2992 0.2983 0.2974
3026.270750 0.2964 0.2955 0.2946 0.2921 0.2893
3031.284619 0.2864 0.2828 0.2791 0.2757 0.2725
3036.298487 0.2693 0.2662 0.2640 0.2621 0.2601
3041.312355 0.2581 0.2562 0.2542 0.2523 0.2505
3046.326223 0.2487 0.2470 0.2453 0.2435 0.2418
3051.340091 0.2401 0.2384 0.2367 0.2351 0.2337
3056.353959 0.2322 0.2307 0.2293 0.2278 0.2263
3061.367827 0.2249 0.2234 0.2219 0.2205 0.2190
3066.381695 0.2177 0.2165 0.2153 0.2141 0.2129
3071.395564 0.2117 0.2105 0.2093 0.2081 0.2069
3076.409432 0.2057 0.2045 0.2032 0.2020 0.2011
3081.423300 0.2003 0.1995 0.1988 0.1980 0.1972
3086.437168 0.1964 0.1956 0.1950 0.1946 0.1943
3091.451036 0.1940 0.1941 0.1943 0.1945 0.1947
3096.464904 0.1949 0.1929 0.1948 0.1955 0.1956
3101.478772 0.1957 0.1958 0.1959 0.1960 0.1961
3106.492641 0.1961 0.1961 0.1962 0.1962 0.1962
3111.506509 0.1965 0.1968 0.1971 0.1975 0.1978
3116.520377 0.1982 0.1993 0.2006 0.2021 0.2039
3121.534245 0.2053 0.2063 0.2073 0.2084 0.2089
3126.548113 0.2092 0.2095 0.2099 0.2102 0.2102
3131.561981 0.2101 0.2100 0.2099 0.2098 0.2097
3136.575849 0.2096 0.2094 0.2092 0.2090 0.2088
3141.589718 0.2086 0.2086 0.2088 0.2094 0.2102
3146.603586 0.2110 0.2118 0.2127 0.2136 0.2146
3151.617454 0.2156 0.2166 0.2175 0.2185 0.2195
3156.631322 0.2205 0.2216 0.2226 0.2236 0.2247
3161.645190 0.2257 0.2267 0.2277 0.2287 0.2297
3166.659058 0.2307 0.2317 0.2327 0.2337 0.2347
3171.672926 0.2357 0.2367 0.2377 0.2387 0.2396
3176.686795 0.2406 0.2416 0.2425 0.2435 0.2445
3181.700663 0.2455 0.2464 0.2474 0.2484 0.2492
3186.714531 0.2501 0.2509 0.2518 0.2527 0.2535
3191.728399 0.2544 0.2552 0.2561 0.2570 0.2578
3196.742267 0.2587 0.2595 0.2605 0.2614 0.2624
3201.756135 0.2633 0.2643 0.2652 0.2662 0.2671
3206.770003 0.2681 0.2690 0.2700 0.2709 0.2718
3211.783871 0.2725 0.2732 0.2739 0.2745 0.2751
3216.797740 0.2758 0.2764 0.2770 0.2777 0.2783
3221.811608 0.2789 0.2796 0.2801 0.2805 0.2809
3226.825476 0.2812 0.2816 0.2820 0.2824 0.2828
3231.839344 0.2831 0.2833 0.2835 0.2838 0.2840
3236.853212 0.2842 0.2844 0.2847 0.2849 0.2851
3241.867080 0.2853 0.2853 0.2852 0.2852 0.2852
3246.880948 0.2851 0.2851 0.2851 0.2849 0.2847
3251.894817 0.2844 0.2841 0.2839 0.2836 0.2833
3256.908685 0.2831 0.2827 0.2822 0.2817 0.2812
3261.922553 0.2807 0.2802 0.2797 0.2792 0.2787
3266.936421 0.2782 0.2777 0.2772 0.2766 0.2761
3271.950289 0.2756 0.2751 0.2746 0.2740 0.2733
3276.964157 0.2726 0.2726 0.2711 0.2704 0.2709
3281.978025 0.2713 0.2721 0.2732 0.2744 0.2755
3286.991894 0.2766 0.2776 0.2786 0.2797 0.2805
3292.005762 0.2804 0.2803 0.2801 0.2793 0.2785
3297.019630 0.2776 0.2768 0.2760 0.2749 0.2740
3302.033498 0.2746 0.2751 0.2756 0.2760 0.2765
3307.047366 0.2770 0.2775 0.2780 0.2784 0.2788
3312.061234 0.2792 0.2796 0.2800 0.2803 0.2807
3317.075102 0.2811 0.2814 0.2817 0.2820 0.2823
3322.088971 0.2826 0.2828 0.2831 0.2834 0.2837
3327.102839 0.2839 0.2842 0.2844 0.2845 0.2846
3332.116707 0.2847 0.2849 0.2850 0.2851 0.2854
3337.130575 0.2859 0.2864 0.2869 0.2874 0.2878
3342.144443 0.2883 0.2890 0.2897 0.2905 0.2912
3347.158311 0.2920 0.2927 0.2935 0.2943 0.2951
3352.172179 0.2958 0.2966 0.2974 0.2982 0.2987
3357.186048 0.2992 0.2997 0.3002 0.3007 0.3012
3362.199916 0.3017 0.3022 0.3024 0.3020 0.3016
3367.213784 0.3013 0.3009 0.3003 0.2993 0.2983
3372.227652 0.2973 0.2962 0.2951 0.2940 0.2928
3377.241520 0.2917 0.2904 0.2889 0.2872 0.2856
3382.255388 0.2838 0.2817 0.2793 0.2769 0.2746
3387.269256 0.2726 0.2706 0.2687 0.2666 0.2647
3392.283124 0.2625 0.2595 0.2565 0.2535 0.2506
3397.296993 0.2479 0.2452 0.2428 0.2413 0.2404
3402.310861 0.2401 0.2398 0.2394 0.2391 0.2394
3407.324729 0.2409 0.2416 0.2425 0.2436 0.2447
3412.338597 0.2462 0.2482 0.2502 0.2524 0.2549
3417.352465 0.2578 0.2617 0.2671 0.2728 0.2780
3422.366333 0.2820 0.2856 0.2895 0.2942 0.2995
3427.380201 0.3046 0.3092 0.3135 0.3177 0.3216
3432.394070 0.3250 0.3282 0.3314 0.3346 0.3384
3437.407938 0.3433 0.3484 0.3535 0.3585 0.3633
3442.421806 0.3678 0.3725 0.3768 0.3803 0.3834
3447.435674 0.3865 0.3895 0.3922 0.3949 0.3976
3452.449542 0.4002 0.4028 0.4054 0.4079 0.4103
3457.463410 0.4126 0.4149 0.4171 0.4194 0.4217
3462.477278 0.4239 0.4259 0.4278 0.4298 0.4318
3467.491147 0.4338 0.4358 0.4379 0.4400 0.4422
3472.505015 0.4444 0.4466 0.4487 0.4509 0.4530
3477.518883 0.4552 0.4574 0.4596 0.4618 0.4641
3482.532751 0.4664 0.4687 0.4710 0.4732 0.4756
3487.546619 0.4779 0.4801 0.4824 0.4847 0.4867
3492.560487 0.4886 0.4904 0.4923 0.4942 0.4960
3497.574355 0.4978 0.4996 0.5012 0.5029 0.5046
3502.588224 0.5062 0.5079 0.5096 0.5113 0.5129
3507.602092 0.5143 0.5154 0.5166 0.5177 0.5189
3512.615960 0.5201 0.5212 0.5224 0.5235 0.5247
3517.629828 0.5258 0.5268 0.5278 0.5289 0.5299
3522.643696 0.5309 0.5320 0.5330 0.5341 0.5351
3527.657564 0.5362 0.5372 0.5382 0.5392 0.5402
3532.671432 0.5412 0.5422 0.5432 0.5443 0.5453
3537.685300 0.5463 0.5473 0.5483 0.5493 0.5504
3542.699169 0.5514 0.5524 0.5535 0.5545 0.5555
3547.713037 0.5566 0.5576 0.5587 0.5598 0.5610
3552.726905 0.5622 0.5635 0.5649 0.5662 0.5675
3557.740773 0.5688 0.5701 0.5714 0.5727 0.5741
3562.754641 0.5754 0.5768 0.5782 0.5796 0.5809
3567.768509 0.5823 0.5837 0.5851 0.5864 0.5878
3572.782377 0.5893 0.5910 0.5929 0.5947 0.5966
3577.796246 0.5984 0.6003 0.6021 0.6040 0.6059
3582.810114 0.6079 0.6102 0.6125 0.6148 0.6171
3587.823982 0.6194 0.6217 0.6240 0.6262 0.6284
3592.837850 0.6306 0.6328 0.6351 0.6374 0.6397
3597.851718 0.6419 0.6441 0.6453 0.6458 0.6463
3602.865586 0.6467 0.6472 0.6477 0.6481 0.6484
3607.879454 0.6488 0.6491 0.6494 0.6497 0.6500
3612.893323 0.6503 0.6506 0.6508 0.6510 0.6512
3617.907191 0.6514 0.6516 0.6517 0.6519 0.6522
3622.921059 0.6524 0.6526 0.6529 0.6531 0.6534
3627.934927 0.6538 0.6545 0.6554 0.6565 0.6576
3632.948795 0.6587 0.6598 0.6609 0.6620 0.6631
3637.962663 0.6643 0.6658 0.6674 0.6691 0.6702
3642.976531 0.6712 0.6721 0.6730 0.6734 0.6734
3647.990400 0.6734 0.6734 0.6735 0.6737 0.6745
3653.004268 0.6758 0.6777 0.6805 0.6837 0.6847
3658.018136 0.6847 0.6847 0.6848 0.6848 0.6849
3663.032004 0.6850 0.6851 0.6852 0.6853 0.6853
3668.045872 0.6854 0.6855 0.6856 0.6857 0.6859
3673.059740 0.6861 0.6863 0.6865 0.6866 0.6868
3678.073608 0.6871 0.6875 0.6879 0.6883 0.6887
3683.087476 0.6891 0.6895 0.6899 0.6903 0.6907
3688.101345 0.6911 0.6915 0.6919 0.6923 0.6927
3693.115213 0.6931 0.6935 0.6939 0.6943 0.6948
3698.129081 0.6952 0.6956 0.6961 0.6965 0.6970
3703.142949 0.6974 0.6979 0.6984 0.6988 0.6993
3708.156817 0.6998 0.7002 0.7007 0.7012 0.7016
3713.170685 0.7021 0.7026 0.7031 0.7036 0.7041
3718.184553 0.7046 0.7051 0.7056 0.7061 0.7066
3723.198422 0.7071 0.7075 0.7080 0.7084 0.7088
3728.212290 0.7092 0.7096 0.7101 0.7104 0.7107
3733.226158 0.7110 0.7113 0.7116 0.7119 0.7122
3738.240026 0.7125 0.7128 0.7130 0.7131 0.7133
3743.253894 0.7134 0.7136 0.7137 0.7139 0.7140
3748.267762 0.7141 0.7143 0.7144 0.7146 0.7147
3753.281630 0.7147 0.7146 0.7145 0.7144 0.7144
3758.295499 0.7143 0.7142 0.7141 0.7141 0.7140
3763.309367 0.7139 0.7138 0.7137 0.7137 0.7136
3768.323235 0.7135 0.7135 0.7135 0.7135 0.7135
3773.337103 0.7135 0.7134 0.7134 0.7134 0.7134
3778.350971 0.7134 0.7134 0.7134 0.7135 0.7139
3783.364839 0.7145 0.7151 0.7156 0.7162 0.7169
3788.378707 0.7178 0.7188 0.7199 0.7208 0.7215
3793.392576 0.7219 0.7220 0.7220 0.7219 0.7219
3798.406444 0.7219 0.7218 0.7218 0.7217 0.7216
3803.420312 0.7214 0.7213 0.7212 0.7210 0.7209
3808.434180 0.7208 0.7206 0.7205 0.7203 0.7202
3813.448048 0.7201 0.7199 0.7198 0.7197 0.7195
3818.461916 0.7194 0.7193 0.7191 0.7190 0.7189
3823.475784 0.7188 0.7190 0.7191 0.7189 0.7185
3828.489653 0.7181 0.7177 0.7174 0.7170 0.7166
3833.503521 0.7162 0.7158 0.7156 0.7154 0.7151
3838.517389 0.7149 0.7146 0.7144 0.7142 0.7139
3843.531257 0.7137 0.7135 0.7134 0.7133 0.7132
3848.545125 0.7132 0.7131 0.7130 0.7130 0.7129
3853.558993 0.7130 0.7131 0.7134 0.7136 0.7138
3858.572861 0.7141 0.7143 0.7145 0.7146 0.7148
3863.586729 0.7150 0.7152 0.7154 0.7156 0.7158
3868.600598 0.7160 0.7161 0.7163 0.7165 0.7167
3873.614466 0.7169 0.7171 0.7173 0.7175 0.7177
3878.628334 0.7179 0.7181 0.7185 0.7189 0.7194
3883.642202 0.7199 0.7204 0.7208 0.7210 0.7212
3888.656070 0.7215 0.7217 0.7219 0.7218 0.7216
3893.669938 0.7214 0.7212 0.7210 0.7208 0.7205
3898.683806 0.7201 0.7197 0.7193 0.7190 0.7186
3903.697675 0.7182 0.7179 0.7176 0.7173 0.7170
3908.711543 0.7168 0.7165 0.7162 0.7159 0.7156
3913.725411 0.7154 0.7153 0.7152 0.7150 0.7149
3918.739279 0.7147 0.7146 0.7147 0.7148 0.7149
3923.753147 0.7152 0.7154 0.7156 0.7158 0.7160
3928.767015 0.7161 0.7164 0.7169 0.7174 0.7179
3933.780883 0.7184 0.7189 0.7194 0.7200 0.7206
3938.794752 0.7212 0.7218 0.7221 0.7223 0.7224
3943.808620 0.7225 0.7226 0.7224 0.7221 0.7218
3948.822488 0.7215 0.7212 0.7208 0.7202 0.7198
3953.836356 0.7190 0.7184 0.7178 0.7172 0.7166
3958.850224 0.7159 0.7153 0.7147 0.7140 0.7134
3963.864092 0.7127 0.7121 0.7116 0.7112 0.7107
3968.877960 0.7102 0.7098 0.7094 0.7091 0.7092
3973.891829 0.7093 0.7094 0.7096 0.7097 0.7098
3978.905697 0.7099 0.7103 0.7107 0.7111 0.7115
3983.919565 0.7119 0.7124 0.7131 0.7138 0.7146
3988.933433 0.7154 0.7161 0.7170 0.7177 0.7187
3993.947301 0.7198 0.7209 0.7220 0.7232 0.7243
3998.961169 0.7253 0.7264 0.7274 0.7285 0.7297
4003.975037 0.7309 0.7320 0.7330 0.7351 0.7376
4008.988905 0.7402 0.7427 0.7453 0.7464
##END=
