##TITLE=Benzylpenicillin, potassium salt
##JCAMP-DX=4.24
##DATA TYPE=INFRARED SPECTRUM
##CLASS=COBLENTZ III
##ORIGIN=THE SQUIBB INSTITUTE FOR MEDICAL RESEARCH
##OWNER=Copyright (C) 1987 by the Coblentz Society
Collection (C) 2018 copyright by the U.S. Secretary of Commerce
on behalf of the United States of America. All rights reserved.
##DATE=1965/12/01
##NAMES=POTASSIUM PENICILLIN G
##MOLFORM=C16 H17 K N2 O4 S
##MP=214-217 C DECOMP.
##SOURCE REFERENCE=COBLENTZ NO. 5399
##$NIST ID=B6005399
##$NIST SOURCE=COBLENTZ
##$NIST IMAGE=cob5399
##SPECTROMETER/DATA SYSTEM=PERKIN-ELMER 21 (GRATING)
##STATE=SOLID (1.5 mg / 300 mg KBr DISC)
##RESOLUTION=2
##XUNITS=1/CM
##YUNITS=TRANSMITTANCE
##XFACTOR=1.0
##YFACTOR=1
##FIRSTX=667
##LASTX=4000
##FIRSTY=0.7575
##MAXX=4000
##MINX=667
##MAXY=0.9236
##MINY=0.023
##NPOINTS=3334
##XYDATA=(X++(Y..Y))
667.000000 0.7575 0.7638 0.7703 0.7785 0.7881
672.000000 0.7981 0.8075 0.8122 0.8141 0.8146
677.000000 0.8144 0.8137 0.8126 0.8104 0.8081
682.000000 0.8057 0.8029 0.7984 0.7930 0.7858
687.000000 0.7747 0.7611 0.7414 0.7180 0.6731
692.000000 0.6078 0.5630 0.4863 0.4095 0.3330
697.000000 0.2441 0.2292 0.2701 0.3473 0.4243
702.000000 0.5146 0.6007 0.6269 0.6613 0.6741
707.000000 0.6796 0.6806 0.6784 0.6719 0.6602
712.000000 0.6433 0.6116 0.5740 0.5364 0.4937
717.000000 0.4565 0.4273 0.4086 0.4050 0.4188
722.000000 0.4643 0.5118 0.5591 0.6025 0.6619
727.000000 0.6868 0.7086 0.7285 0.7472 0.7560
732.000000 0.7607 0.7635 0.7642 0.7643 0.7663
737.000000 0.7627 0.7602 0.7556 0.7462 0.7331
742.000000 0.7168 0.6964 0.6741 0.6532 0.6312
747.000000 0.6086 0.5822 0.5681 0.5694 0.5716
752.000000 0.5646 0.5420 0.5208 0.4426 0.3562
757.000000 0.2699 0.1962 0.1775 0.1769 0.2607
762.000000 0.3590 0.4571 0.5677 0.6817 0.7055
767.000000 0.7290 0.7513 0.7668 0.7786 0.7865
772.000000 0.7915 0.7946 0.7963 0.7972 0.7978
777.000000 0.7984 0.7998 0.8060 0.8271 0.8444
782.000000 0.8575 0.8657 0.8730 0.8752 0.8755
787.000000 0.8757 0.8772 0.8751 0.8733 0.8715
792.000000 0.8696 0.8677 0.8653 0.8628 0.8598
797.000000 0.8559 0.8489 0.8415 0.8352 0.8258
802.000000 0.8106 0.7998 0.7904 0.7844 0.7834
807.000000 0.7838 0.7813 0.7862 0.7887 0.7931
812.000000 0.8036 0.8213 0.8453 0.8657 0.8778
817.000000 0.8849 0.8902 0.8920 0.8931 0.8959
822.000000 0.8938 0.8934 0.8929 0.8922 0.8907
827.000000 0.8892 0.8869 0.8843 0.8817 0.8790
832.000000 0.8763 0.8733 0.8700 0.8672 0.8652
837.000000 0.8650 0.8635 0.8688 0.8722 0.8768
842.000000 0.8842 0.8896 0.8897 0.8897 0.8896
847.000000 0.8945 0.8889 0.8886 0.8884 0.8881
852.000000 0.8878 0.8875 0.8869 0.8863 0.8858
857.000000 0.8848 0.8837 0.8826 0.8812 0.8800
862.000000 0.8787 0.8774 0.8760 0.8730 0.8698
867.000000 0.8656 0.8611 0.8567 0.8521 0.8471
872.000000 0.8423 0.8365 0.8295 0.8232 0.8182
877.000000 0.8135 0.8118 0.8111 0.8105 0.8100
882.000000 0.8011 0.7882 0.7680 0.7337 0.7077
887.000000 0.6925 0.6897 0.6911 0.7214 0.7547
892.000000 0.7878 0.8218 0.8421 0.8553 0.8592
897.000000 0.8608 0.8611 0.8604 0.8605 0.8568
902.000000 0.8543 0.8511 0.8474 0.8428 0.8380
907.000000 0.8312 0.8245 0.8185 0.8126 0.8073
912.000000 0.8019 0.7972 0.7924 0.7889 0.7868
917.000000 0.7883 0.7918 0.7958 0.7993 0.8005
922.000000 0.7964 0.7886 0.7778 0.7605 0.7428
927.000000 0.7296 0.7208 0.7191 0.7209 0.7260
932.000000 0.7430 0.7603 0.7775 0.7952 0.8167
937.000000 0.8272 0.8362 0.8452 0.8510 0.8544
942.000000 0.8569 0.8547 0.8540 0.8533 0.8525
947.000000 0.8516 0.8508 0.8501 0.8484 0.8465
952.000000 0.8448 0.8419 0.8397 0.8390 0.8393
957.000000 0.8387 0.8451 0.8497 0.8572 0.8669
962.000000 0.8753 0.8793 0.8811 0.8824 0.8829
967.000000 0.8826 0.8822 0.8817 0.8805 0.8782
972.000000 0.8755 0.8719 0.8682 0.8643 0.8605
977.000000 0.8564 0.8524 0.8484 0.8445 0.8424
982.000000 0.8415 0.8414 0.8416 0.8421 0.8429
987.000000 0.8432 0.8431 0.8422 0.8405 0.8350
992.000000 0.8280 0.8177 0.8054 0.7917 0.7756
997.000000 0.7654 0.7557 0.7466 0.7412 0.7433
1002.000000 0.7449 0.7677 0.7934 0.8186 0.8359
1007.000000 0.8491 0.8552 0.8580 0.8596 0.8583
1012.000000 0.8574 0.8552 0.8520 0.8468 0.8395
1017.000000 0.8293 0.8183 0.8065 0.7921 0.7763
1022.000000 0.7684 0.7655 0.7693 0.7742 0.7818
1027.000000 0.7904 0.7997 0.8073 0.8152 0.8232
1032.000000 0.8314 0.8396 0.8488 0.8564 0.8612
1037.000000 0.8670 0.8645 0.8645 0.8642 0.8637
1042.000000 0.8627 0.8618 0.8608 0.8598 0.8587
1047.000000 0.8572 0.8557 0.8541 0.8525 0.8511
1052.000000 0.8497 0.8483 0.8464 0.8445 0.8424
1057.000000 0.8404 0.8377 0.8347 0.8312 0.8276
1062.000000 0.8213 0.8140 0.8063 0.7970 0.7869
1067.000000 0.7775 0.7681 0.7581 0.7512 0.7506
1072.000000 0.7463 0.7602 0.7795 0.7993 0.8146
1077.000000 0.8157 0.8153 0.8130 0.8122 0.8088
1082.000000 0.8043 0.7981 0.7904 0.7821 0.7705
1087.000000 0.7587 0.7456 0.7302 0.7140 0.6906
1092.000000 0.6672 0.6439 0.6206 0.6003 0.5943
1097.000000 0.5918 0.5947 0.6303 0.6669 0.7033
1102.000000 0.7398 0.7736 0.7835 0.7850 0.7874
1107.000000 0.7857 0.7849 0.7835 0.7806 0.7758
1112.000000 0.7710 0.7643 0.7546 0.7427 0.7298
1117.000000 0.7181 0.7093 0.7007 0.6911 0.6808
1122.000000 0.6696 0.6636 0.6629 0.6612 0.6659
1127.000000 0.6709 0.6797 0.6917 0.7194 0.7460
1132.000000 0.7558 0.7585 0.7588 0.7597 0.7576
1137.000000 0.7561 0.7541 0.7514 0.7477 0.7436
1142.000000 0.7383 0.7295 0.7197 0.7094 0.6979
1147.000000 0.6853 0.6724 0.6577 0.6488 0.6489
1152.000000 0.6507 0.6677 0.6844 0.6970 0.7122
1157.000000 0.7234 0.7298 0.7335 0.7352 0.7350
1162.000000 0.7351 0.7342 0.7325 0.7297 0.7254
1167.000000 0.7190 0.7083 0.6992 0.6916 0.6857
1172.000000 0.6832 0.6816 0.6811 0.6815 0.6825
1177.000000 0.6845 0.6866 0.6882 0.6884 0.6880
1182.000000 0.6867 0.6841 0.6796 0.6733 0.6658
1187.000000 0.6585 0.6516 0.6449 0.6388 0.6348
1192.000000 0.6328 0.6319 0.6311 0.6307 0.6304
1197.000000 0.6289 0.6240 0.6154 0.6054 0.5934
1202.000000 0.5804 0.5650 0.5489 0.5340 0.5234
1207.000000 0.5125 0.5053 0.5008 0.4982 0.4971
1212.000000 0.4958 0.5019 0.5085 0.5177 0.5257
1217.000000 0.5318 0.5377 0.5430 0.5463 0.5483
1222.000000 0.5493 0.5504 0.5544 0.5590 0.5636
1227.000000 0.5679 0.5716 0.5753 0.5767 0.5757
1232.000000 0.5762 0.5746 0.5702 0.5493 0.5249
1237.000000 0.5005 0.4762 0.4520 0.4278 0.4036
1242.000000 0.3794 0.3554 0.3308 0.3202 0.3188
1247.000000 0.3213 0.3231 0.3378 0.3612 0.3845
1252.000000 0.4078 0.4310 0.4540 0.4721 0.4912
1257.000000 0.5209 0.5507 0.5804 0.6102 0.6397
1262.000000 0.6691 0.6817 0.6874 0.6892 0.6875
1267.000000 0.6889 0.6878 0.6868 0.6853 0.6836
1272.000000 0.6821 0.6807 0.6793 0.6773 0.6750
1277.000000 0.6727 0.6699 0.6670 0.6642 0.6613
1282.000000 0.6583 0.6554 0.6524 0.6481 0.6426
1287.000000 0.6368 0.6307 0.6238 0.6151 0.6064
1292.000000 0.5976 0.5865 0.5741 0.5562 0.5368
1297.000000 0.5172 0.4958 0.4743 0.4529 0.4315
1302.000000 0.4101 0.3888 0.3674 0.3462 0.3250
1307.000000 0.3037 0.2826 0.2614 0.2403 0.2192
1312.000000 0.1982 0.1772 0.1566 0.1423 0.1335
1317.000000 0.1308 0.1293 0.1290 0.1286 0.1281
1322.000000 0.1275 0.1242 0.1161 0.1030 0.0897
1327.000000 0.0859 0.0854 0.0852 0.0850 0.0875
1332.000000 0.0996 0.1220 0.1443 0.1665 0.1888
1337.000000 0.2109 0.2331 0.2552 0.2773 0.2993
1342.000000 0.3214 0.3434 0.3654 0.3872 0.4091
1347.000000 0.4310 0.4528 0.4746 0.4957 0.5113
1352.000000 0.5194 0.5235 0.5261 0.5270 0.5243
1357.000000 0.5270 0.5259 0.5232 0.5175 0.5100
1362.000000 0.5017 0.4946 0.4886 0.4827 0.4766
1367.000000 0.4738 0.4740 0.4763 0.4795 0.4790
1372.000000 0.4778 0.4735 0.4640 0.4537 0.4345
1377.000000 0.4024 0.3703 0.3382 0.3062 0.2743
1382.000000 0.2424 0.2114 0.1914 0.1805 0.1732
1387.000000 0.1659 0.1582 0.1503 0.1451 0.1430
1392.000000 0.1421 0.1433 0.1448 0.1475 0.1599
1397.000000 0.1752 0.1905 0.2059 0.2214 0.2350
1402.000000 0.2451 0.2537 0.2612 0.2680 0.2741
1407.000000 0.2803 0.2863 0.2910 0.2944 0.2977
1412.000000 0.2999 0.3019 0.3038 0.3051 0.3274
1417.000000 0.3926 0.4636 0.4986 0.5085 0.5164
1422.000000 0.5236 0.5288 0.5336 0.5384 0.5419
1427.000000 0.5449 0.5468 0.5476 0.5479 0.5477
1432.000000 0.5475 0.5468 0.5458 0.5444 0.5427
1437.000000 0.5404 0.5374 0.5324 0.5279 0.5239
1442.000000 0.5198 0.5160 0.5125 0.5071 0.4926
1447.000000 0.4772 0.4618 0.4465 0.4312 0.4160
1452.000000 0.4022 0.3967 0.3958 0.3930 0.3970
1457.000000 0.4010 0.4043 0.4062 0.4077 0.4088
1462.000000 0.4099 0.4105 0.4111 0.4114 0.4117
1467.000000 0.4115 0.4119 0.4111 0.4090 0.3982
1472.000000 0.3783 0.3584 0.3386 0.3187 0.2989
1477.000000 0.2791 0.2594 0.2396 0.2199 0.2002
1482.000000 0.1806 0.1609 0.1414 0.1218 0.1033
1487.000000 0.0908 0.0805 0.0624 0.0551 0.0550
1492.000000 0.0540 0.0547 0.0558 0.0581 0.0615
1497.000000 0.0655 0.0714 0.0804 0.0993 0.1170
1502.000000 0.1436 0.1732 0.2029 0.2324 0.2619
1507.000000 0.2915 0.3209 0.3487 0.3672 0.3766
1512.000000 0.3859 0.3976 0.4169 0.4398 0.4602
1517.000000 0.4802 0.4973 0.5073 0.5171 0.5266
1522.000000 0.5348 0.5424 0.5501 0.5578 0.5658
1527.000000 0.5744 0.5829 0.5916 0.5996 0.6062
1532.000000 0.6129 0.6194 0.6258 0.6319 0.6379
1537.000000 0.6435 0.6478 0.6516 0.6554 0.6580
1542.000000 0.6594 0.6606 0.6618 0.6630 0.6639
1547.000000 0.6642 0.6614 0.6648 0.6649 0.6647
1552.000000 0.6643 0.6636 0.6624 0.6604 0.6581
1557.000000 0.6548 0.6501 0.6446 0.6405 0.6379
1562.000000 0.6357 0.6341 0.6325 0.6306 0.6262
1567.000000 0.6150 0.6003 0.5857 0.5710 0.5564
1572.000000 0.5418 0.5273 0.5127 0.4981 0.4865
1577.000000 0.4791 0.4737 0.4705 0.4691 0.4683
1582.000000 0.4675 0.4667 0.4660 0.4649 0.4611
1587.000000 0.4554 0.4375 0.4246 0.4171 0.4098
1592.000000 0.4020 0.3806 0.3477 0.3125 0.2773
1597.000000 0.2422 0.2072 0.1722 0.1373 0.1020
1602.000000 0.0797 0.0729 0.0653 0.0535 0.0396
1607.000000 0.0314 0.0277 0.0254 0.0243 0.0230
1612.000000 0.0241 0.0244 0.0250 0.0267 0.0287
1617.000000 0.0322 0.0418 0.0507 0.0583 0.0654
1622.000000 0.0728 0.0814 0.0930 0.1060 0.1214
1627.000000 0.1412 0.1635 0.1857 0.2078 0.2300
1632.000000 0.2522 0.2743 0.2964 0.3185 0.3406
1637.000000 0.3626 0.3845 0.4065 0.4284 0.4478
1642.000000 0.4574 0.4586 0.4585 0.4568 0.4571
1647.000000 0.4557 0.4536 0.4492 0.4337 0.4174
1652.000000 0.4011 0.3848 0.3685 0.3523 0.3360
1657.000000 0.3198 0.3036 0.2874 0.2713 0.2551
1662.000000 0.2390 0.2229 0.2068 0.1908 0.1747
1667.000000 0.1587 0.1427 0.1276 0.1201 0.1173
1672.000000 0.1161 0.1139 0.1151 0.1154 0.1160
1677.000000 0.1169 0.1191 0.1256 0.1501 0.1649
1682.000000 0.1881 0.2142 0.2404 0.2665 0.2926
1687.000000 0.3186 0.3446 0.3705 0.3965 0.4225
1692.000000 0.4483 0.4742 0.5000 0.5258 0.5516
1697.000000 0.5773 0.5948 0.6048 0.6268 0.6543
1702.000000 0.6584 0.6627 0.6661 0.6681 0.6699
1707.000000 0.6715 0.6711 0.6723 0.6720 0.6717
1712.000000 0.6711 0.6702 0.6691 0.6677 0.6658
1717.000000 0.6637 0.6616 0.6593 0.6568 0.6541
1722.000000 0.6510 0.6479 0.6446 0.6410 0.6374
1727.000000 0.6337 0.6298 0.6258 0.6213 0.6161
1732.000000 0.6047 0.5864 0.5639 0.5415 0.5191
1737.000000 0.4968 0.4745 0.4522 0.4300 0.4077
1742.000000 0.3854 0.3633 0.3411 0.3189 0.2968
1747.000000 0.2747 0.2527 0.2306 0.2086 0.1867
1752.000000 0.1647 0.1428 0.1208 0.1002 0.0864
1757.000000 0.0822 0.0788 0.0764 0.0742 0.0721
1762.000000 0.0703 0.0685 0.0670 0.0655 0.0641
1767.000000 0.0627 0.0615 0.0604 0.0594 0.0585
1772.000000 0.0579 0.0578 0.0576 0.0575 0.0563
1777.000000 0.0576 0.0577 0.0580 0.0585 0.0593
1782.000000 0.0602 0.0621 0.0640 0.0732 0.0906
1787.000000 0.1148 0.1388 0.1628 0.1869 0.2108
1792.000000 0.2348 0.2588 0.2827 0.3065 0.3304
1797.000000 0.3542 0.3780 0.4018 0.4256 0.4492
1802.000000 0.4749 0.4926 0.5097 0.5453 0.5614
1807.000000 0.5749 0.5870 0.5981 0.6092 0.6223
1812.000000 0.6371 0.6543 0.6802 0.6976 0.7108
1817.000000 0.7212 0.7268 0.7325 0.7381 0.7437
1822.000000 0.7494 0.7553 0.7616 0.7683 0.7749
1827.000000 0.7811 0.7859 0.7896 0.7933 0.7969
1832.000000 0.8006 0.8042 0.8079 0.8111 0.8138
1837.000000 0.8160 0.8182 0.8204 0.8226 0.8248
1842.000000 0.8270 0.8286 0.8298 0.8308 0.8318
1847.000000 0.8328 0.8338 0.8348 0.8359 0.8368
1852.000000 0.8378 0.8388 0.8397 0.8406 0.8414
1857.000000 0.8421 0.8429 0.8437 0.8445 0.8452
1862.000000 0.8459 0.8467 0.8474 0.8482 0.8488
1867.000000 0.8493 0.8498 0.8503 0.8508 0.8513
1872.000000 0.8518 0.8523 0.8528 0.8533 0.8538
1877.000000 0.8543 0.8548 0.8554 0.8560 0.8567
1882.000000 0.8573 0.8578 0.8585 0.8590 0.8596
1887.000000 0.8603 0.8610 0.8622 0.8635 0.8649
1892.000000 0.8662 0.8675 0.8687 0.8701 0.8714
1897.000000 0.8727 0.8743 0.8759 0.8774 0.8789
1902.000000 0.8805 0.8820 0.8836 0.8850 0.8860
1907.000000 0.8867 0.8875 0.8882 0.8889 0.8896
1912.000000 0.8904 0.8911 0.8918 0.8925 0.8933
1917.000000 0.8940 0.8945 0.8949 0.8952 0.8955
1922.000000 0.8959 0.8962 0.8965 0.8968 0.8971
1927.000000 0.8974 0.8977 0.8980 0.8983 0.8986
1932.000000 0.8988 0.8990 0.8993 0.8995 0.8997
1937.000000 0.9000 0.9002 0.9002 0.9003 0.9004
1942.000000 0.9004 0.9005 0.9006 0.9007 0.8998
1947.000000 0.9008 0.9009 0.9010 0.9011 0.9012
1952.000000 0.9013 0.9014 0.9016 0.9017 0.9018
1957.000000 0.9020 0.9021 0.9022 0.9026 0.9031
1962.000000 0.9038 0.9046 0.9053 0.9061 0.9068
1967.000000 0.9075 0.9083 0.9090 0.9097 0.9104
1972.000000 0.9110 0.9116 0.9123 0.9130 0.9137
1977.000000 0.9143 0.9149 0.9156 0.9162 0.9169
1982.000000 0.9175 0.9180 0.9185 0.9187 0.9188
1987.000000 0.9190 0.9191 0.9193 0.9194 0.9196
1992.000000 0.9197 0.9199 0.9200 0.9201 0.9202
1997.000000 0.9204 0.9205 0.9206 0.9207 0.9207
2002.000000 0.9207 0.9207 0.9208 0.9208 0.9208
2007.000000 0.9207 0.9207 0.9206 0.9205 0.9205
2012.000000 0.9204 0.9204 0.9204 0.9203 0.9203
2017.000000 0.9202 0.9202 0.9202 0.9202 0.9202
2022.000000 0.9203 0.9204 0.9204 0.9205 0.9206
2027.000000 0.9206 0.9207 0.9207 0.9208 0.9209
2032.000000 0.9210 0.9211 0.9211 0.9212 0.9213
2037.000000 0.9213 0.9214 0.9214 0.9214 0.9214
2042.000000 0.9214 0.9214 0.9214 0.9214 0.9214
2047.000000 0.9214 0.9214 0.9214 0.9214 0.9214
2052.000000 0.9214 0.9215 0.9215 0.9215 0.9215
2057.000000 0.9215 0.9215 0.9215 0.9216 0.9216
2062.000000 0.9216 0.9217 0.9217 0.9217 0.9217
2067.000000 0.9218 0.9218 0.9218 0.9219 0.9219
2072.000000 0.9219 0.9220 0.9220 0.9221 0.9221
2077.000000 0.9222 0.9223 0.9224 0.9225 0.9225
2082.000000 0.9226 0.9226 0.9227 0.9227 0.9228
2087.000000 0.9229 0.9229 0.9230 0.9230 0.9231
2092.000000 0.9231 0.9232 0.9233 0.9233 0.9234
2097.000000 0.9234 0.9235 0.9235 0.9236 0.9236
2102.000000 0.9236 0.9236 0.9236 0.9236 0.9236
2107.000000 0.9236 0.9236 0.9236 0.9236 0.9236
2112.000000 0.9235 0.9235 0.9235 0.9235 0.9234
2117.000000 0.9234 0.9234 0.9233 0.9233 0.9233
2122.000000 0.9233 0.9232 0.9232 0.9232 0.9231
2127.000000 0.9231 0.9231 0.9231 0.9230 0.9230
2132.000000 0.9230 0.9230 0.9229 0.9229 0.9229
2137.000000 0.9228 0.9228 0.9228 0.9228 0.9227
2142.000000 0.9227 0.9227 0.9227 0.9226 0.9226
2147.000000 0.9226 0.9225 0.9225 0.9225 0.9225
2152.000000 0.9224 0.9224 0.9224 0.9224 0.9223
2157.000000 0.9223 0.9223 0.9223 0.9223 0.9222
2162.000000 0.9222 0.9222 0.9222 0.9221 0.9221
2167.000000 0.9221 0.9221 0.9220 0.9220 0.9220
2172.000000 0.9220 0.9219 0.9219 0.9219 0.9218
2177.000000 0.9218 0.9218 0.9218 0.9217 0.9217
2182.000000 0.9217 0.9217 0.9216 0.9216 0.9215
2187.000000 0.9215 0.9215 0.9215 0.9214 0.9214
2192.000000 0.9214 0.9213 0.9213 0.9213 0.9213
2197.000000 0.9212 0.9212 0.9212 0.9212 0.9211
2202.000000 0.9211 0.9211 0.9211 0.9210 0.9210
2207.000000 0.9210 0.9210 0.9209 0.9209 0.9209
2212.000000 0.9209 0.9208 0.9208 0.9208 0.9208
2217.000000 0.9207 0.9207 0.9207 0.9207 0.9207
2222.000000 0.9207 0.9207 0.9207 0.9207 0.9207
2227.000000 0.9207 0.9207 0.9207 0.9207 0.9206
2232.000000 0.9206 0.9206 0.9206 0.9206 0.9206
2237.000000 0.9206 0.9206 0.9206 0.9206 0.9206
2242.000000 0.9206 0.9206 0.9206 0.9206 0.9206
2247.000000 0.9206 0.9206 0.9206 0.9206 0.9206
2252.000000 0.9206 0.9205 0.9204 0.9203 0.9203
2257.000000 0.9202 0.9201 0.9200 0.9199 0.9198
2262.000000 0.9197 0.9196 0.9196 0.9195 0.9194
2267.000000 0.9193 0.9192 0.9191 0.9190 0.9189
2272.000000 0.9189 0.9188 0.9187 0.9186 0.9185
2277.000000 0.9184 0.9183 0.9182 0.9182 0.9182
2282.000000 0.9181 0.9180 0.9179 0.9178 0.9177
2287.000000 0.9177 0.9176 0.9175 0.9174 0.9173
2292.000000 0.9172 0.9171 0.9170 0.9170 0.9169
2297.000000 0.9168 0.9168 0.9168 0.9168 0.9168
2302.000000 0.9168 0.9168 0.9168 0.9168 0.9168
2307.000000 0.9168 0.9168 0.9168 0.9168 0.9168
2312.000000 0.9168 0.9168 0.9168 0.9168 0.9168
2317.000000 0.9168 0.9168 0.9168 0.9168 0.9168
2322.000000 0.9168 0.9168 0.9168 0.9168 0.9168
2327.000000 0.9168 0.9168 0.9168 0.9168 0.9168
2332.000000 0.9168 0.9168 0.9168 0.9168 0.9168
2337.000000 0.9168 0.9168 0.9168 0.9168 0.9168
2342.000000 0.9168 0.9168 0.9168 0.9168 0.9168
2347.000000 0.9168 0.9168 0.9168 0.9168 0.9168
2352.000000 0.9168 0.9168 0.9168 0.9168 0.9168
2357.000000 0.9168 0.9168 0.9168 0.9168 0.9168
2362.000000 0.9168 0.9168 0.9168 0.9168 0.9168
2367.000000 0.9168 0.9168 0.9168 0.9168 0.9168
2372.000000 0.9168 0.9168 0.9168 0.9168 0.9168
2377.000000 0.9168 0.9168 0.9168 0.9168 0.9168
2382.000000 0.9168 0.9168 0.9168 0.9168 0.9168
2387.000000 0.9168 0.9168 0.9168 0.9168 0.9168
2392.000000 0.9168 0.9168 0.9168 0.9168 0.9168
2397.000000 0.9168 0.9168 0.9168 0.9168 0.9168
2402.000000 0.9168 0.9168 0.9168 0.9168 0.9168
2407.000000 0.9167 0.9167 0.9167 0.9167 0.9167
2412.000000 0.9167 0.9167 0.9167 0.9167 0.9166
2417.000000 0.9166 0.9165 0.9165 0.9165 0.9165
2422.000000 0.9165 0.9164 0.9164 0.9163 0.9163
2427.000000 0.9163 0.9162 0.9162 0.9162 0.9162
2432.000000 0.9161 0.9161 0.9161 0.9160 0.9160
2437.000000 0.9159 0.9159 0.9159 0.9159 0.9159
2442.000000 0.9158 0.9158 0.9157 0.9157 0.9157
2447.000000 0.9156 0.9156 0.9155 0.9155 0.9155
2452.000000 0.9155 0.9155 0.9154 0.9154 0.9153
2457.000000 0.9153 0.9153 0.9152 0.9152 0.9152
2462.000000 0.9152 0.9152 0.9151 0.9151 0.9150
2467.000000 0.9150 0.9149 0.9149 0.9149 0.9149
2472.000000 0.9149 0.9148 0.9148 0.9148 0.9147
2477.000000 0.9147 0.9146 0.9146 0.9146 0.9146
2482.000000 0.9146 0.9145 0.9145 0.9145 0.9144
2487.000000 0.9144 0.9143 0.9143 0.9143 0.9143
2492.000000 0.9143 0.9142 0.9142 0.9142 0.9141
2497.000000 0.9141 0.9141 0.9141 0.9141 0.9140
2502.000000 0.9140 0.9139 0.9139 0.9139 0.9138
2507.000000 0.9138 0.9138 0.9138 0.9138 0.9137
2512.000000 0.9137 0.9136 0.9136 0.9136 0.9135
2517.000000 0.9135 0.9135 0.9135 0.9135 0.9134
2522.000000 0.9134 0.9133 0.9133 0.9133 0.9133
2527.000000 0.9133 0.9133 0.9133 0.9133 0.9133
2532.000000 0.9133 0.9133 0.9133 0.9133 0.9133
2537.000000 0.9133 0.9133 0.9133 0.9133 0.9133
2542.000000 0.9133 0.9133 0.9133 0.9133 0.9133
2547.000000 0.9133 0.9133 0.9133 0.9133 0.9133
2552.000000 0.9133 0.9133 0.9133 0.9133 0.9133
2557.000000 0.9133 0.9133 0.9133 0.9133 0.9133
2562.000000 0.9133 0.9133 0.9133 0.9133 0.9133
2567.000000 0.9133 0.9133 0.9133 0.9132 0.9132
2572.000000 0.9132 0.9132 0.9132 0.9132 0.9132
2577.000000 0.9132 0.9132 0.9132 0.9132 0.9132
2582.000000 0.9132 0.9132 0.9132 0.9132 0.9132
2587.000000 0.9132 0.9132 0.9132 0.9132 0.9132
2592.000000 0.9132 0.9132 0.9132 0.9132 0.9132
2597.000000 0.9132 0.9132 0.9132 0.9132 0.9132
2602.000000 0.9132 0.9132 0.9132 0.9132 0.9132
2607.000000 0.9132 0.9132 0.9132 0.9132 0.9132
2612.000000 0.9132 0.9132 0.9132 0.9132 0.9132
2617.000000 0.9132 0.9132 0.9132 0.9132 0.9132
2622.000000 0.9132 0.9132 0.9132 0.9132 0.9132
2627.000000 0.9132 0.9132 0.9132 0.9132 0.9132
2632.000000 0.9132 0.9132 0.9132 0.9132 0.9132
2637.000000 0.9132 0.9132 0.9132 0.9132 0.9132
2642.000000 0.9132 0.9132 0.9132 0.9132 0.9132
2647.000000 0.9132 0.9132 0.9131 0.9131 0.9131
2652.000000 0.9130 0.9130 0.9129 0.9129 0.9128
2657.000000 0.9127 0.9127 0.9126 0.9125 0.9124
2662.000000 0.9124 0.9123 0.9123 0.9123 0.9122
2667.000000 0.9121 0.9121 0.9120 0.9119 0.9118
2672.000000 0.9118 0.9117 0.9116 0.9116 0.9115
2677.000000 0.9114 0.9114 0.9113 0.9112 0.9111
2682.000000 0.9111 0.9110 0.9109 0.9109 0.9108
2687.000000 0.9107 0.9107 0.9106 0.9105 0.9105
2692.000000 0.9103 0.9102 0.9100 0.9099 0.9098
2697.000000 0.9097 0.9096 0.9095 0.9093 0.9092
2702.000000 0.9091 0.9090 0.9089 0.9087 0.9086
2707.000000 0.9085 0.9083 0.9082 0.9081 0.9080
2712.000000 0.9079 0.9077 0.9076 0.9075 0.9073
2717.000000 0.9072 0.9071 0.9070 0.9069 0.9067
2722.000000 0.9066 0.9064 0.9062 0.9060 0.9057
2727.000000 0.9055 0.9052 0.9050 0.9048 0.9045
2732.000000 0.9043 0.9041 0.9038 0.9036 0.9034
2737.000000 0.9031 0.9029 0.9027 0.9024 0.9022
2742.000000 0.9020 0.9017 0.9015 0.9012 0.9010
2747.000000 0.9007 0.9005 0.9002 0.9000 0.8997
2752.000000 0.8994 0.8991 0.8987 0.8983 0.8980
2757.000000 0.8976 0.8972 0.8969 0.8965 0.8962
2762.000000 0.8958 0.8954 0.8951 0.8947 0.8943
2767.000000 0.8940 0.8936 0.8932 0.8928 0.8925
2772.000000 0.8921 0.8916 0.8912 0.8907 0.8900
2777.000000 0.8894 0.8888 0.8882 0.8876 0.8870
2782.000000 0.8864 0.8857 0.8851 0.8845 0.8840
2787.000000 0.8834 0.8828 0.8822 0.8816 0.8809
2792.000000 0.8803 0.8797 0.8791 0.8785 0.8779
2797.000000 0.8772 0.8763 0.8755 0.8747 0.8738
2802.000000 0.8729 0.8721 0.8713 0.8704 0.8696
2807.000000 0.8688 0.8680 0.8671 0.8661 0.8650
2812.000000 0.8640 0.8629 0.8619 0.8608 0.8597
2817.000000 0.8586 0.8576 0.8565 0.8554 0.8544
2822.000000 0.8533 0.8522 0.8512 0.8501 0.8490
2827.000000 0.8480 0.8469 0.8456 0.8443 0.8430
2832.000000 0.8416 0.8403 0.8389 0.8375 0.8362
2837.000000 0.8349 0.8335 0.8322 0.8308 0.8294
2842.000000 0.8281 0.8268 0.8254 0.8241 0.8228
2847.000000 0.8215 0.8201 0.8188 0.8175 0.8162
2852.000000 0.8148 0.8135 0.8122 0.8109 0.8096
2857.000000 0.8082 0.8067 0.8050 0.8034 0.8015
2862.000000 0.7994 0.7972 0.7951 0.7930 0.7908
2867.000000 0.7887 0.7865 0.7844 0.7822 0.7802
2872.000000 0.7781 0.7761 0.7741 0.7721 0.7701
2877.000000 0.7681 0.7661 0.7641 0.7621 0.7593
2882.000000 0.7563 0.7534 0.7502 0.7467 0.7433
2887.000000 0.7400 0.7371 0.7343 0.7314 0.7289
2892.000000 0.7264 0.7239 0.7215 0.7190 0.7165
2897.000000 0.7140 0.7115 0.7090 0.7065 0.7040
2902.000000 0.7015 0.6990 0.6968 0.6949 0.6931
2907.000000 0.6912 0.6895 0.6878 0.6862 0.6845
2912.000000 0.6828 0.6812 0.6797 0.6785 0.6774
2917.000000 0.6762 0.6753 0.6744 0.6735 0.6727
2922.000000 0.6718 0.6709 0.6700 0.6694 0.6687
2927.000000 0.6681 0.6676 0.6671 0.6666 0.6661
2932.000000 0.6658 0.6656 0.6653 0.6651 0.6648
2937.000000 0.6646 0.6644 0.6641 0.6638 0.6635
2942.000000 0.6624 0.6612 0.6599 0.6583 0.6559
2947.000000 0.6536 0.6512 0.6493 0.6474 0.6455
2952.000000 0.6436 0.6418 0.6399 0.6381 0.6363
2957.000000 0.6344 0.6326 0.6309 0.6292 0.6276
2962.000000 0.6260 0.6246 0.6233 0.6220 0.6209
2967.000000 0.6203 0.6197 0.6190 0.6187 0.6185
2972.000000 0.6182 0.6212 0.6182 0.6183 0.6184
2977.000000 0.6187 0.6190 0.6193 0.6225 0.6339
2982.000000 0.6452 0.6565 0.6685 0.6808 0.6931
2987.000000 0.7054 0.7177 0.7299 0.7422 0.7492
2992.000000 0.7523 0.7553 0.7584 0.7591 0.7597
2997.000000 0.7604 0.7609 0.7613 0.7616 0.7620
3002.000000 0.7624 0.7628 0.7632 0.7636 0.7640
3007.000000 0.7645 0.7649 0.7653 0.7657 0.7662
3012.000000 0.7666 0.7671 0.7675 0.7679 0.7685
3017.000000 0.7692 0.7698 0.7705 0.7712 0.7719
3022.000000 0.7725 0.7732 0.7739 0.7745 0.7752
3027.000000 0.7760 0.7768 0.7777 0.7786 0.7796
3032.000000 0.7806 0.7816 0.7826 0.7841 0.7857
3037.000000 0.7872 0.7898 0.7944 0.7990 0.8037
3042.000000 0.8077 0.8115 0.8152 0.8189 0.8209
3047.000000 0.8227 0.8246 0.8264 0.8281 0.8297
3052.000000 0.8314 0.8329 0.8341 0.8353 0.8366
3057.000000 0.8378 0.8391 0.8403 0.8416 0.8424
3062.000000 0.8432 0.8441 0.8449 0.8457 0.8465
3067.000000 0.8473 0.8481 0.8489 0.8497 0.8504
3072.000000 0.8513 0.8521 0.8529 0.8537 0.8545
3077.000000 0.8554 0.8562 0.8570 0.8578 0.8586
3082.000000 0.8594 0.8603 0.8612 0.8620 0.8629
3087.000000 0.8638 0.8646 0.8655 0.8663 0.8672
3092.000000 0.8681 0.8690 0.8699 0.8719 0.8741
3097.000000 0.8762 0.8782 0.8792 0.8802 0.8812
3102.000000 0.8822 0.8829 0.8837 0.8845 0.8850
3107.000000 0.8852 0.8854 0.8857 0.8859 0.8861
3112.000000 0.8863 0.8866 0.8868 0.8870 0.8872
3117.000000 0.8874 0.8876 0.8878 0.8880 0.8881
3122.000000 0.8882 0.8882 0.8882 0.8907 0.8883
3127.000000 0.8883 0.8883 0.8884 0.8884 0.8885
3132.000000 0.8885 0.8885 0.8885 0.8885 0.8885
3137.000000 0.8884 0.8884 0.8884 0.8884 0.8883
3142.000000 0.8883 0.8883 0.8883 0.8883 0.8883
3147.000000 0.8883 0.8883 0.8882 0.8880 0.8879
3152.000000 0.8877 0.8876 0.8874 0.8872 0.8870
3157.000000 0.8869 0.8867 0.8866 0.8864 0.8863
3162.000000 0.8861 0.8860 0.8858 0.8857 0.8854
3167.000000 0.8852 0.8850 0.8848 0.8845 0.8843
3172.000000 0.8841 0.8839 0.8836 0.8834 0.8832
3177.000000 0.8830 0.8827 0.8825 0.8823 0.8821
3182.000000 0.8818 0.8816 0.8813 0.8811 0.8807
3187.000000 0.8804 0.8800 0.8797 0.8794 0.8790
3192.000000 0.8787 0.8784 0.8781 0.8777 0.8774
3197.000000 0.8770 0.8767 0.8763 0.8760 0.8757
3202.000000 0.8753 0.8750 0.8746 0.8743 0.8740
3207.000000 0.8737 0.8734 0.8731 0.8728 0.8725
3212.000000 0.8722 0.8719 0.8716 0.8713 0.8710
3217.000000 0.8707 0.8704 0.8701 0.8698 0.8695
3222.000000 0.8691 0.8689 0.8686 0.8683 0.8680
3227.000000 0.8676 0.8672 0.8667 0.8663 0.8659
3232.000000 0.8655 0.8651 0.8647 0.8643 0.8639
3237.000000 0.8635 0.8631 0.8627 0.8623 0.8619
3242.000000 0.8615 0.8610 0.8606 0.8601 0.8597
3247.000000 0.8592 0.8588 0.8583 0.8578 0.8573
3252.000000 0.8568 0.8563 0.8558 0.8554 0.8549
3257.000000 0.8544 0.8539 0.8534 0.8529 0.8523
3262.000000 0.8518 0.8513 0.8507 0.8499 0.8491
3267.000000 0.8483 0.8475 0.8467 0.8459 0.8451
3272.000000 0.8443 0.8435 0.8426 0.8417 0.8408
3277.000000 0.8399 0.8389 0.8378 0.8368 0.8358
3282.000000 0.8348 0.8338 0.8328 0.8318 0.8308
3287.000000 0.8298 0.8287 0.8277 0.8267 0.8255
3292.000000 0.8244 0.8233 0.8221 0.8210 0.8199
3297.000000 0.8188 0.8176 0.8165 0.8154 0.8143
3302.000000 0.8132 0.8121 0.8109 0.8098 0.8087
3307.000000 0.8075 0.8063 0.8051 0.8039 0.8027
3312.000000 0.8015 0.8002 0.7990 0.7978 0.7966
3317.000000 0.7954 0.7942 0.7930 0.7918 0.7906
3322.000000 0.7893 0.7881 0.7868 0.7856 0.7842
3327.000000 0.7829 0.7816 0.7803 0.7790 0.7777
3332.000000 0.7764 0.7751 0.7738 0.7724 0.7711
3337.000000 0.7698 0.7684 0.7670 0.7656 0.7642
3342.000000 0.7628 0.7613 0.7599 0.7584 0.7569
3347.000000 0.7554 0.7540 0.7525 0.7511 0.7496
3352.000000 0.7469 0.7438 0.7408 0.7377 0.7344
3357.000000 0.7305 0.7266 0.7227 0.7188 0.7149
3362.000000 0.7110 0.7071 0.7031 0.6992 0.6953
3367.000000 0.6914 0.6875 0.6836 0.6797 0.6758
3372.000000 0.6719 0.6680 0.6641 0.6603 0.6564
3377.000000 0.6525 0.6486 0.6448 0.6409 0.6371
3382.000000 0.6332 0.6294 0.6255 0.6216 0.6178
3387.000000 0.6139 0.6101 0.6062 0.6024 0.5985
3392.000000 0.5947 0.5923 0.5903 0.5882 0.5861
3397.000000 0.5846 0.5846 0.5846 0.5846 0.5846
3402.000000 0.5895 0.5971 0.6046 0.6122 0.5886
3407.000000 0.6413 0.6628 0.6843 0.7058 0.7272
3412.000000 0.7487 0.7701 0.7916 0.8130 0.8250
3417.000000 0.8331 0.8411 0.8491 0.8569 0.8580
3422.000000 0.8591 0.8602 0.8613 0.8623 0.8631
3427.000000 0.8639 0.8648 0.8656 0.8664 0.8672
3432.000000 0.8680 0.8688 0.8696 0.8702 0.8707
3437.000000 0.8713 0.8718 0.8724 0.8729 0.8735
3442.000000 0.8740 0.8746 0.8751 0.8756 0.8761
3447.000000 0.8766 0.8771 0.8774 0.8775 0.8777
3452.000000 0.8779 0.8780 0.8782 0.8784 0.8785
3457.000000 0.8787 0.8789 0.8790 0.8792 0.8794
3462.000000 0.8795 0.8797 0.8798 0.8799 0.8800
3467.000000 0.8801 0.8802 0.8802 0.8803 0.8804
3472.000000 0.8804 0.8805 0.8806 0.8806 0.8807
3477.000000 0.8807 0.8808 0.8808 0.8809 0.8809
3482.000000 0.8810 0.8810 0.8811 0.8811 0.8812
3487.000000 0.8813 0.8813 0.8813 0.8814 0.8814
3492.000000 0.8815 0.8815 0.8816 0.8817 0.8817
3497.000000 0.8818 0.8819 0.8820 0.8820 0.8821
3502.000000 0.8822 0.8823 0.8824 0.8825 0.8826
3507.000000 0.8827 0.8828 0.8829 0.8830 0.8831
3512.000000 0.8832 0.8834 0.8835 0.8836 0.8837
3517.000000 0.8838 0.8839 0.8840 0.8841 0.8842
3522.000000 0.8844 0.8845 0.8846 0.8847 0.8848
3527.000000 0.8850 0.8851 0.8852 0.8853 0.8854
3532.000000 0.8857 0.8859 0.8862 0.8864 0.8866
3537.000000 0.8869 0.8871 0.8873 0.8875 0.8877
3542.000000 0.8880 0.8882 0.8884 0.8887 0.8889
3547.000000 0.8892 0.8894 0.8896 0.8899 0.8901
3552.000000 0.8903 0.8906 0.8908 0.8910 0.8912
3557.000000 0.8916 0.8921 0.8925 0.8930 0.8934
3562.000000 0.8939 0.8944 0.8949 0.8954 0.8959
3567.000000 0.8964 0.8968 0.8973 0.8978 0.8982
3572.000000 0.8987 0.8991 0.8995 0.8999 0.9003
3577.000000 0.9007 0.9012 0.9016 0.9020 0.9025
3582.000000 0.9029 0.9033 0.9037 0.9040 0.9044
3587.000000 0.9048 0.9051 0.9054 0.9057 0.9061
3592.000000 0.9064 0.9067 0.9069 0.9072 0.9075
3597.000000 0.9078 0.9081 0.9084 0.9087 0.9090
3602.000000 0.9093 0.9096 0.9098 0.9101 0.9104
3607.000000 0.9107 0.9109 0.9111 0.9112 0.9113
3612.000000 0.9115 0.9116 0.9117 0.9118 0.9119
3617.000000 0.9120 0.9122 0.9123 0.9124 0.9126
3622.000000 0.9127 0.9128 0.9125 0.9131 0.9132
3627.000000 0.9133 0.9134 0.9135 0.9136 0.9137
3632.000000 0.9138 0.9139 0.9140 0.9140 0.9140
3637.000000 0.9141 0.9141 0.9141 0.9142 0.9142
3642.000000 0.9143 0.9143 0.9143 0.9144 0.9144
3647.000000 0.9145 0.9146 0.9146 0.9147 0.9147
3652.000000 0.9147 0.9148 0.9148 0.9149 0.9149
3657.000000 0.9149 0.9150 0.9150 0.9150 0.9151
3662.000000 0.9151 0.9151 0.9152 0.9152 0.9153
3667.000000 0.9153 0.9153 0.9154 0.9154 0.9154
3672.000000 0.9155 0.9156 0.9156 0.9157 0.9157
3677.000000 0.9158 0.9158 0.9158 0.9158 0.9158
3682.000000 0.9159 0.9159 0.9159 0.9159 0.9159
3687.000000 0.9159 0.9159 0.9159 0.9159 0.9159
3692.000000 0.9159 0.9159 0.9159 0.9159 0.9159
3697.000000 0.9159 0.9159 0.9160 0.9160 0.9160
3702.000000 0.9160 0.9160 0.9160 0.9160 0.9160
3707.000000 0.9160 0.9160 0.9160 0.9161 0.9161
3712.000000 0.9161 0.9161 0.9161 0.9161 0.9161
3717.000000 0.9161 0.9161 0.9161 0.9161 0.9161
3722.000000 0.9161 0.9161 0.9161 0.9161 0.9162
3727.000000 0.9162 0.9162 0.9162 0.9162 0.9162
3732.000000 0.9162 0.9162 0.9162 0.9162 0.9162
3737.000000 0.9163 0.9163 0.9163 0.9163 0.9163
3742.000000 0.9163 0.9163 0.9163 0.9163 0.9163
3747.000000 0.9163 0.9163 0.9163 0.9163 0.9163
3752.000000 0.9163 0.9163 0.9163 0.9163 0.9163
3757.000000 0.9163 0.9163 0.9163 0.9162 0.9162
3762.000000 0.9162 0.9162 0.9162 0.9162 0.9162
3767.000000 0.9162 0.9162 0.9162 0.9162 0.9162
3772.000000 0.9162 0.9162 0.9162 0.9162 0.9162
3777.000000 0.9161 0.9161 0.9161 0.9161 0.9161
3782.000000 0.9161 0.9161 0.9161 0.9161 0.9161
3787.000000 0.9161 0.9161 0.9161 0.9161 0.9161
3792.000000 0.9161 0.9161 0.9160 0.9160 0.9160
3797.000000 0.9160 0.9160 0.9160 0.9160 0.9160
3802.000000 0.9160 0.9160 0.9160 0.9160 0.9159
3807.000000 0.9159 0.9159 0.9159 0.9159 0.9159
3812.000000 0.9159 0.9159 0.9159 0.9159 0.9159
3817.000000 0.9159 0.9159 0.9159 0.9159 0.9159
3822.000000 0.9159 0.9158 0.9158 0.9158 0.9158
3827.000000 0.9158 0.9158 0.9158 0.9158 0.9158
3832.000000 0.9158 0.9158 0.9158 0.9158 0.9158
3837.000000 0.9158 0.9158 0.9158 0.9158 0.9158
3842.000000 0.9158 0.9158 0.9158 0.9158 0.9158
3847.000000 0.9158 0.9158 0.9158 0.9158 0.9158
3852.000000 0.9158 0.9158 0.9158 0.9158 0.9158
3857.000000 0.9158 0.9158 0.9157 0.9157 0.9157
3862.000000 0.9157 0.9157 0.9157 0.9157 0.9157
3867.000000 0.9157 0.9157 0.9157 0.9157 0.9157
3872.000000 0.9157 0.9157 0.9157 0.9157 0.9157
3877.000000 0.9157 0.9157 0.9157 0.9157 0.9157
3882.000000 0.9157 0.9157 0.9157 0.9157 0.9157
3887.000000 0.9157 0.9157 0.9157 0.9157 0.9157
3892.000000 0.9157 0.9157 0.9157 0.9157 0.9157
3897.000000 0.9157 0.9157 0.9157 0.9157 0.9157
3902.000000 0.9157 0.9157 0.9157 0.9157 0.9157
3907.000000 0.9157 0.9157 0.9157 0.9157 0.9157
3912.000000 0.9157 0.9156 0.9156 0.9156 0.9156
3917.000000 0.9156 0.9156 0.9156 0.9156 0.9156
3922.000000 0.9156 0.9156 0.9156 0.9156 0.9156
3927.000000 0.9156 0.9156 0.9156 0.9156 0.9155
3932.000000 0.9155 0.9155 0.9155 0.9155 0.9155
3937.000000 0.9155 0.9154 0.9154 0.9154 0.9154
3942.000000 0.9154 0.9154 0.9153 0.9153 0.9153
3947.000000 0.9153 0.9153 0.9153 0.9152 0.9152
3952.000000 0.9152 0.9152 0.9152 0.9152 0.9152
3957.000000 0.9152 0.9152 0.9152 0.9152 0.9152
3962.000000 0.9151 0.9151 0.9151 0.9151 0.9151
3967.000000 0.9151 0.9151 0.9150 0.9150 0.9150
3972.000000 0.9150 0.9150 0.9150 0.9149 0.9149
3977.000000 0.9149 0.9149 0.9149 0.9149 0.9148
3982.000000 0.9148 0.9148 0.9148 0.9148 0.9148
3987.000000 0.9148 0.9147 0.9147 0.9147 0.9147
3992.000000 0.9147 0.9147 0.9146 0.9146 0.9146
3997.000000 0.9146 0.9146 0.9146 0.9146
##END=
