##TITLE=3-METHYL-1,4-BENZODIOXAN-2-CARBOXYLIC ACID, ETHYL ESTER
##JCAMP-DX=4.24
##DATA TYPE=INFRARED SPECTRUM
##CLASS=COBLENTZ III
##ORIGIN=DOW CHEMICAL COMPANY
##OWNER=COBLENTZ SOCIETY
Collection (C) 2018 copyright by the U.S. Secretary of Commerce
on behalf of the United States of America. All rights reserved.
##DATE=1966/06/07
##NAMES=ethyl 3-methyl-2,3-dihydro-1,4-benzodioxine-2-carboxylate
##MOLFORM=C12 H14 O4
##SOURCE REFERENCE=COBLENTZ NO. 6780
##$NIST ID=B6006780
##$NIST SOURCE=COBLENTZ
##$NIST IMAGE=cob6780
##SPECTROMETER/DATA SYSTEM=DOW KBr FOREPRISM-GRATING
##INSTRUMENT PARAMETERS=GRATING BLAZED AT 3.5, 12.0, 20.0 MICRONS AND CHANGED AT 5.0, 7.5, 14.9 MICRONS
##STATE=SOLUTION (10% IN CCl4 FOR 3800-1330 CM^-^1, 10% IN CS2 FOR 1330-460 CM^-^1) VS. SOLVENT
##PATH LENGTH=0.011 CM, 0.011 CM
$$ PURITY 98%
$$ MIXTURE OF CIS AND TRANS ISOMERS
$$SPECTRAL FEATURES AROUND 3450, 3560 CM^-^1 ARE DUE TO AN UNKNOWN
##SAMPLING PROCEDURE=TRANSMISSION
##RESOLUTION=4
##DATA PROCESSING=DIGITIZED BY NIST FROM HARD COPY (FROM TWO SEGMENTS)
##XUNITS=1/CM
##YUNITS=TRANSMITTANCE
##XFACTOR=1.000000
##YFACTOR=1
##DELTAX=0.877195
##FIRSTX=457.018
##LASTX=3798.25
##FIRSTY=0.859
##MAXX=3798.25
##MINX=457.018
##MAXY=1.055
##MINY=0.005
##NPOINTS=3810
##XYDATA=(X++(Y..Y))
457.018000 0.8590 0.8620 0.8650 0.8670 0.8670
461.403976 0.8710 0.8780 0.8810 0.8840 0.8880
465.789951 0.8920 0.8960 0.9070 0.9110 0.9150
470.175927 0.9180 0.9220 0.9250 0.9280 0.9290
474.561903 0.9290 0.9290 0.9290 0.9310 0.9310
478.947878 0.9310 0.9320 0.9320 0.9320 0.9330
483.333854 0.9330 0.9330 0.9350 0.9350 0.9380
487.719829 0.9390 0.9420 0.9430 0.9440 0.9470
492.105805 0.9540 0.9540 0.9550 0.9580 0.9650
496.491781 0.9680 0.9680 0.9690 0.9710 0.9710
500.877756 0.9710 0.9710 0.9710 0.9690 0.9680
505.263732 0.9660 0.9640 0.9600 0.9550 0.9500
509.649708 0.9460 0.9430 0.9420 0.9400 0.9400
514.035683 0.9420 0.9430 0.9460 0.9490 0.9510
518.421659 0.9540 0.9550 0.9570 0.9580 0.9610
522.807634 0.9620 0.9640 0.9650 0.9680 0.9710
527.193610 0.9710 0.9720 0.9750 0.9750 0.9750
531.579586 0.9750 0.9730 0.9730 0.9720 0.9710
535.965561 0.9690 0.9680 0.9680 0.9680 0.9680
540.351537 0.9690 0.9710 0.9750 0.9760 0.9760
544.737513 0.9760 0.9760 0.9760 0.9760 0.9750
549.123488 0.9750 0.9750 0.9770 0.9770 0.9760
553.509464 0.9730 0.9730 0.9680 0.9580 0.9530
557.895440 0.9470 0.9460 0.9460 0.9500 0.9570
562.281415 0.9660 0.9720 0.9750 0.9790 0.9800
566.667391 0.9830 0.9840 0.9840 0.9840 0.9830
571.053366 0.9820 0.9760 0.9730 0.9690 0.9680
575.439342 0.9680 0.9680 0.9690 0.9710 0.9720
579.825318 0.9730 0.9730 0.9750 0.9750 0.9760
584.211293 0.9770 0.9800 0.9840 0.9870 0.9930
588.597269 0.9950 0.9970 0.9980 1.0000 1.0000
592.983245 1.0000 1.0010 1.0010 1.0010 1.0010
597.369220 1.0010 1.0020 1.0040 1.0060 1.0080
601.755196 1.0090 1.0090 1.0090 1.0090 1.0090
606.141172 1.0080 1.0080 1.0080 1.0060 1.0060
610.527147 1.0050 1.0050 1.0040 1.0040 1.0020
614.913123 1.0010 0.9980 0.9980 0.9970 0.9950
619.299098 0.9940 0.9930 0.9910 0.9870 0.9840
623.685074 0.9830 0.9840 0.9830 0.9820 0.9800
628.071050 0.9790 0.9770 0.9760 0.9760 0.9720
632.457025 0.9680 0.9640 0.9610 0.9600 0.9600
636.843001 0.9610 0.9640 0.9650 0.9690 0.9720
641.228977 0.9730 0.9790 0.9820 0.9860 0.9910
645.614952 0.9950 0.9970 0.9970 0.9970 0.9970
650.000928 0.9950 0.9950 0.9830 0.9800 0.9820
654.386903 0.9830 0.9950 1.0090 1.0160 1.0220
658.772879 1.0230 1.0260 1.0270 1.0310 1.0340
663.158855 1.0350 1.0350 1.0350 1.0370 1.0410
667.544830 1.0460 1.0520 1.0490 1.0490 1.0460
671.930806 1.0410 1.0410 1.0380 1.0350 1.0340
676.316782 1.0310 1.0300 1.0300 1.0300 1.0280
680.702757 1.0280 1.0280 1.0310 1.0310 1.0310
685.088733 1.0300 1.0300 1.0280 1.0280 1.0270
689.474709 1.0270 1.0260 1.0260 1.0240 1.0240
693.860684 1.0230 1.0220 1.0220 1.0200 1.0200
698.246660 1.0190 1.0170 1.0160 1.0150 1.0110
702.632635 1.0080 1.0050 1.0020 1.0000 0.9970
707.018611 0.9950 0.9940 0.9940 0.9910 0.9880
711.404587 0.9840 0.9770 0.9650 0.9570 0.9530
715.790562 0.9500 0.9490 0.9470 0.9430 0.9390
720.176538 0.9360 0.9290 0.9100 0.8980 0.8890
724.562514 0.8690 0.8361 0.8121 0.7781 0.7760
728.948489 0.7760 0.7760 0.7760 0.7750 0.7690
733.334465 0.7470 0.7131 0.6990 0.6591 0.5962
737.720440 0.5168 0.4239 0.3229 0.2200 0.1171
742.106416 0.0191 0.0150 0.0150 0.0160 0.0479
746.492392 0.0780 0.1080 0.1390 0.1690 0.1990
750.878367 0.3189 0.4378 0.4639 0.4750 0.5019
755.264343 0.5601 0.6140 0.6620 0.6950 0.7270
759.650319 0.7360 0.7649 0.7959 0.8080 0.8229
764.036294 0.8250 0.8230 0.8200 0.8190 0.8140
768.422270 0.7930 0.7890 0.7900 0.8050 0.8229
772.808246 0.8420 0.8510 0.8620 0.8670 0.8710
777.194221 0.8760 0.8770 0.8780 0.8780 0.8780
781.580197 0.8810 0.8850 0.8910 0.8960 0.9020
785.966172 0.9040 0.9060 0.9060 0.9070 0.9070
790.352148 0.9090 0.9090 0.9090 0.9100 0.9100
794.738124 0.9130 0.9140 0.9150 0.9170 0.9180
799.124099 0.9200 0.9210 0.9210 0.9210 0.9210
803.510075 0.9200 0.9210 0.9210 0.9220 0.9260
807.896051 0.9280 0.9290 0.9280 0.9280 0.9280
812.282026 0.9260 0.9250 0.9250 0.9240 0.9240
816.668002 0.9250 0.9280 0.9290 0.9320 0.9440
821.053978 0.9500 0.9570 0.9620 0.9680 0.9710
825.439953 0.9750 0.9760 0.9760 0.9760 0.9750
829.825929 0.9730 0.9690 0.9620 0.9500 0.9430
834.211904 0.9320 0.9180 0.8990 0.8760 0.8450
838.597880 0.8041 0.7581 0.7032 0.6522 0.6211
842.983856 0.5840 0.5810 0.5840 0.5900 0.6000
847.369831 0.6170 0.6290 0.6390 0.6460 0.6520
851.755807 0.6580 0.6610 0.6610 0.6630 0.6660
856.141783 0.6740 0.6880 0.6980 0.7020 0.7070
860.527758 0.7030 0.7020 0.6960 0.6900 0.6790
864.913734 0.6590 0.6330 0.6320 0.6330 0.6609
869.299709 0.6761 0.7301 0.7900 0.8310 0.8580
873.685685 0.8800 0.8920 0.8990 0.9060 0.9110
878.071661 0.9150 0.9220 0.9280 0.9360 0.9460
882.457636 0.9570 0.9600 0.9600 0.9570 0.9490
886.843612 0.9400 0.9260 0.9069 0.8220 0.8050
891.229588 0.7570 0.7051 0.7050 0.7230 0.7389
895.615563 0.7560 0.7680 0.7930 0.8220 0.8650
900.001539 0.8850 0.9140 0.9459 0.9570 0.9660
904.387515 0.9690 0.9730 0.9770 0.9790 0.9800
908.773490 0.9800 0.9800 0.9720 0.9610 0.9540
913.159466 0.9460 0.9430 0.9290 0.9220 0.9090
917.545441 0.8920 0.8421 0.7781 0.7271 0.6652
921.931417 0.6040 0.6041 0.6880 0.7390 0.7830
926.317393 0.8269 0.8559 0.8690 0.8780 0.8800
930.703368 0.8800 0.8770 0.8630 0.8480 0.8370
935.089344 0.8070 0.7820 0.7451 0.6922 0.6661
939.475320 0.6630 0.6650 0.6870 0.7070 0.7280
943.861295 0.7580 0.7740 0.7900 0.8050 0.8339
948.247271 0.8620 0.8630 0.8650 0.8660 0.8670
952.633246 0.8690 0.8710 0.8770 0.8820 0.8890
957.019222 0.9020 0.9070 0.9110 0.9130 0.9200
961.405198 0.9210 0.9210 0.9200 0.9200 0.9180
965.791173 0.9150 0.9140 0.9130 0.9130 0.9140
970.177149 0.9170 0.9210 0.9240 0.9260 0.9290
974.563125 0.9310 0.9320 0.9330 0.9350 0.9360
978.949100 0.9360 0.9380 0.9420 0.9430 0.9420
983.335076 0.9420 0.9400 0.9400 0.9400 0.9390
987.721052 0.9380 0.9360 0.9320 0.9290 0.9250
992.107027 0.9200 0.9140 0.9070 0.9000 0.8920
996.493003 0.8850 0.8770 0.8670 0.8550 0.8470
1000.878978 0.8049 0.7489 0.6879 0.6390 0.6120
1005.264954 0.5670 0.5240 0.5220 0.5230 0.5370
1009.650930 0.5640 0.5790 0.5890 0.5900 0.5890
1014.036905 0.5630 0.5390 0.5120 0.4801 0.4461
1018.422881 0.4129 0.3780 0.3480 0.3190 0.2970
1022.808857 0.2790 0.2600 0.2211 0.2130 0.1941
1027.194832 0.1739 0.1360 0.1330 0.1340 0.1690
1031.580808 0.2030 0.2190 0.2450 0.2829 0.3259
1035.966784 0.3731 0.4180 0.4510 0.4880 0.5060
1040.352759 0.5640 0.6329 0.6370 0.6370 0.6360
1044.738735 0.6360 0.6340 0.6330 0.6230 0.6140
1049.124710 0.6040 0.5880 0.5860 0.5860 0.5880
1053.510686 0.5880 0.5880 0.5820 0.5710 0.5570
1057.896662 0.5350 0.5170 0.4821 0.4391 0.3931
1062.282637 0.3549 0.3260 0.2890 0.2520 0.2030
1066.668613 0.1950 0.1950 0.1980 0.2010 0.2120
1071.054589 0.2130 0.2120 0.2100 0.2120 0.2200
1075.440564 0.2310 0.2380 0.2450 0.2500 0.2560
1079.826540 0.2610 0.2760 0.2970 0.3200 0.3480
1084.212515 0.3770 0.4070 0.4359 0.4649 0.4909
1088.598491 0.5130 0.5300 0.5330 0.5299 0.4730
1092.984467 0.4710 0.4680 0.4660 0.4640 0.4610
1097.370442 0.4489 0.4289 0.3779 0.3139 0.2490
1101.756418 0.2490 0.3290 0.4069 0.4399 0.4719
1106.142394 0.5041 0.5351 0.5671 0.6300 0.6300
1110.528369 0.6260 0.6110 0.6070 0.5970 0.5890
1114.914345 0.5750 0.5609 0.5329 0.4930 0.4470
1119.300321 0.3990 0.3550 0.3161 0.2891 0.2780
1123.686296 0.2519 0.2140 0.1940 0.1920 0.1940
1128.072272 0.2060 0.2280 0.2490 0.3149 0.3589
1132.458247 0.3990 0.4020 0.4000 0.3980 0.3960
1136.844223 0.3770 0.3760 0.3770 0.3930 0.4020
1141.230199 0.4150 0.4280 0.4460 0.4750 0.4790
1145.616174 0.4650 0.4550 0.3931 0.3371 0.2821
1150.002150 0.2821 0.3341 0.3931 0.4380 0.4770
1154.388126 0.5120 0.5380 0.5520 0.5740 0.5750
1158.774101 0.5730 0.5700 0.5660 0.5450 0.5160
1163.160077 0.4900 0.4690 0.4490 0.4221 0.3951
1167.546052 0.3730 0.3660 0.3550 0.3400 0.3230
1171.932028 0.3040 0.2820 0.2600 0.2380 0.2161
1176.318004 0.1940 0.1740 0.1570 0.1410 0.1300
1180.703979 0.1230 0.1190 0.1180 0.1150 0.1140
1185.089955 0.1120 0.1070 0.1030 0.1000 0.0970
1189.475931 0.0950 0.0930 0.0920 0.0900 0.0900
1193.861906 0.0900 0.0900 0.0920 0.0990 0.1000
1198.247882 0.1010 0.1030 0.1030 0.1010 0.1000
1202.633858 0.0970 0.0930 0.0860 0.0810 0.0780
1207.019833 0.0770 0.0780 0.0850 0.0960 0.1110
1211.405809 0.1230 0.1361 0.1580 0.1800 0.2030
1215.791784 0.2280 0.2530 0.2760 0.3000 0.3230
1220.177760 0.3441 0.3650 0.3810 0.3960 0.4070
1224.563736 0.4150 0.4200 0.4290 0.4390 0.4400
1228.949711 0.4390 0.4360 0.4320 0.4260 0.4200
1233.335687 0.4110 0.4000 0.3870 0.3710 0.3520
1237.721663 0.3299 0.3049 0.2749 0.2419 0.2030
1242.107638 0.1590 0.1330 0.1120 0.0970 0.0850
1246.493614 0.0770 0.0680 0.0630 0.0560 0.0480
1250.879590 0.0420 0.0330 0.0300 0.0300 0.0300
1255.265565 0.0280 0.0280 0.0280 0.0240 0.0240
1259.651541 0.0230 0.0200 0.0170 0.0150 0.0130
1264.037516 0.0120 0.0120 0.0130 0.0130 0.0150
1268.423492 0.0170 0.0190 0.0220 0.0230 0.0240
1272.809468 0.0270 0.0330 0.0440 0.0500 0.0570
1277.195443 0.0770 0.1030 0.1170 0.1260 0.1300
1281.581419 0.1320 0.1320 0.1330 0.1330 0.1340
1285.967395 0.1340 0.1360 0.1370 0.1410 0.2208
1290.353370 0.2310 0.2490 0.2680 0.2870 0.3000
1294.739346 0.3070 0.3120 0.3150 0.3160 0.3150
1299.125321 0.3140 0.3090 0.2940 0.2800 0.2800
1303.511297 0.2860 0.3160 0.3380 0.3560 0.3760
1307.897273 0.3961 0.4251 0.4620 0.4800 0.4980
1312.283248 0.5230 0.5600 0.5600 0.5560 0.5370
1316.669224 0.5350 0.5169 0.4869 0.4470 0.4040
1321.055200 0.3630 0.3290 0.3040 0.2930 0.2740
1325.441175 0.2410 0.2380 0.2411 0.2780 0.3030
1329.827151 0.3550 0.3930 0.4220 0.4460 0.4659
1334.213127 0.4871 0.5111 0.5410 0.5790 0.6010
1338.599102 0.6280 0.6390 0.6719 0.6730 0.6720
1342.985078 0.6720 0.6650 0.6510 0.6390 0.6250
1347.371053 0.6080 0.5880 0.5630 0.5300 0.5080
1351.757029 0.4790 0.4770 0.4800 0.4860 0.4930
1356.143005 0.4970 0.5050 0.5150 0.5310 0.5550
1360.528980 0.5751 0.6030 0.6181 0.6430 0.6440
1364.914956 0.6430 0.6250 0.6150 0.5820 0.5301
1369.300932 0.4707 0.3929 0.3440 0.3440 0.3560
1373.686907 0.3690 0.3890 0.3910 0.3930 0.3960
1378.072883 0.3990 0.4000 0.4020 0.4040 0.4030
1382.458858 0.3960 0.3780 0.3560 0.3410 0.3400
1386.844834 0.3411 0.3741 0.4091 0.4431 0.4790
1391.230810 0.5130 0.5490 0.6070 0.6140 0.6220
1395.616785 0.6360 0.6400 0.6500 0.6650 0.6830
1400.002761 0.7030 0.7250 0.7460 0.7640 0.7780
1404.388737 0.7860 0.7870 0.8030 0.8140 0.8230
1408.774712 0.8310 0.8380 0.8450 0.8490 0.8590
1413.160688 0.8620 0.8630 0.8650 0.8650 0.8670
1417.546664 0.8690 0.8700 0.8710 0.8710 0.8730
1421.932639 0.8740 0.8730 0.8730 0.8710 0.8690
1426.318615 0.8650 0.8620 0.8600 0.8560 0.8490
1430.704590 0.8440 0.8380 0.8310 0.8260 0.8190
1435.090566 0.8110 0.7970 0.7860 0.7720 0.7580
1439.476542 0.7279 0.7009 0.6539 0.6059 0.5270
1443.862517 0.4760 0.4750 0.4760 0.4940 0.5120
1448.248493 0.5271 0.5641 0.6180 0.6220 0.6220
1452.634469 0.6140 0.5930 0.5770 0.5750 0.5750
1457.020444 0.5750 0.5750 0.5740 0.5680 0.5270
1461.406420 0.4720 0.4220 0.3601 0.3231 0.3220
1465.792396 0.3371 0.3602 0.4101 0.4491 0.4941
1470.178371 0.5521 0.6010 0.6040 0.6040 0.6030
1474.564347 0.5999 0.5750 0.5610 0.5480 0.5420
1478.950322 0.5380 0.5240 0.4540 0.4280 0.3631
1483.336298 0.3118 0.2469 0.2169 0.1839 0.1509
1487.722274 0.1170 0.0840 0.0500 0.0090 0.0060
1492.108249 0.0050 0.0050 0.0050 0.0060 0.0130
1496.494225 0.0190 0.0520 0.0810 0.1170 0.2408
1500.880201 0.2421 0.2741 0.3051 0.3371 0.3960
1505.266176 0.3960 0.3980 0.4200 0.4210 0.4220
1509.652152 0.4250 0.4250 0.4260 0.4290 0.4280
1514.038127 0.4280 0.4260 0.4250 0.4210 0.4170
1518.424103 0.4129 0.3739 0.3360 0.3329 0.2980
1522.810079 0.2981 0.3880 0.5089 0.5959 0.6729
1527.196054 0.7351 0.7742 0.8270 0.8300 0.8410
1531.582030 0.8620 0.8770 0.8910 0.8990 0.9060
1535.968006 0.9140 0.9210 0.9280 0.9360 0.9430
1540.353981 0.9500 0.9550 0.9610 0.9660 0.9690
1544.739957 0.9710 0.9770 0.9800 0.9800 0.9820
1549.125933 0.9820 0.9830 0.9830 0.9830 0.9830
1553.511908 0.9820 0.9820 0.9800 0.9770 0.9770
1557.897884 0.9760 0.9760 0.9750 0.9730 0.9690
1562.283859 0.9690 0.9680 0.9680 0.9660 0.9660
1566.669835 0.9650 0.9640 0.9600 0.9600 0.9570
1571.055811 0.9540 0.9490 0.9440 0.9390 0.9350
1575.441786 0.9310 0.9260 0.9210 0.9150 0.9040
1579.827762 0.8910 0.8759 0.8560 0.8360 0.8150
1584.213738 0.7930 0.7690 0.7500 0.7350 0.7210
1588.599713 0.7068 0.6578 0.5999 0.5559 0.5309
1592.985689 0.4639 0.3800 0.3200 0.2190 0.1680
1597.371664 0.1660 0.1682 0.2164 0.3372 0.4131
1601.757640 0.4600 0.4870 0.5090 0.5370 0.5840
1606.143616 0.5960 0.5990 0.6060 0.6070 0.6260
1610.529591 0.6401 0.6920 0.7280 0.7570 0.7800
1614.915567 0.7981 0.8120 0.8230 0.8300 0.8370
1619.301543 0.8410 0.8620 0.8780 0.8840 0.8990
1623.687518 0.9110 0.9210 0.9220 0.9250 0.9310
1628.073494 0.9330 0.9390 0.9420 0.9420 0.9430
1632.459470 0.9440 0.9440 0.9460 0.9460 0.9470
1636.845445 0.9470 0.9490 0.9490 0.9500 0.9500
1641.231421 0.9510 0.9530 0.9530 0.9540 0.9540
1645.617396 0.9550 0.9550 0.9570 0.9570 0.9570
1650.003372 0.9570 0.9550 0.9550 0.9540 0.9540
1654.389348 0.9530 0.9500 0.9490 0.9440 0.9430
1658.775323 0.9400 0.9390 0.9320 0.9200 0.9150
1663.161299 0.9130 0.9130 0.9150 0.9170 0.9200
1667.547275 0.9210 0.9210 0.9210 0.9220 0.9240
1671.933250 0.9240 0.9220 0.9220 0.9240 0.9240
1676.319226 0.9220 0.9220 0.9210 0.9180 0.9140
1680.705202 0.9110 0.9090 0.9030 0.8990 0.8950
1685.091177 0.8920 0.8890 0.8870 0.8840 0.8810
1689.477153 0.8800 0.8740 0.8700 0.8670 0.8620
1693.863128 0.8600 0.8550 0.8490 0.8470 0.8440
1698.249104 0.8410 0.8340 0.8270 0.8220 0.8160
1702.635080 0.8110 0.8040 0.7970 0.7890 0.7800
1707.021055 0.7740 0.7650 0.7580 0.7500 0.7380
1711.407031 0.7249 0.7130 0.7010 0.6900 0.6790
1715.793007 0.6690 0.6570 0.6430 0.6260 0.6080
1720.178982 0.5859 0.5599 0.5280 0.5159 0.4829
1724.564958 0.4469 0.4169 0.3660 0.3310 0.2960
1728.950933 0.2468 0.1948 0.1429 0.0999 0.0710
1733.336909 0.0640 0.0450 0.0340 0.0310 0.0300
1737.722885 0.0310 0.0330 0.0370 0.0410 0.0440
1742.108860 0.0450 0.0530 0.0600 0.0680 0.0740
1746.494836 0.0770 0.0850 0.0950 0.1030 0.1070
1750.880812 0.1110 0.1060 0.1000 0.0960 0.0930
1755.266787 0.0860 0.0750 0.0710 0.0630 0.0530
1759.652763 0.0460 0.0450 0.0460 0.0480 0.0500
1764.038739 0.0500 0.0530 0.0570 0.0610 0.0660
1768.424714 0.0791 0.1370 0.1760 0.2050 0.2280
1772.810690 0.2572 0.3002 0.3602 0.4151 0.4711
1777.196665 0.5261 0.5770 0.6220 0.6590 0.7060
1781.582641 0.7281 0.7490 0.7600 0.7760 0.7930
1785.968617 0.8050 0.8160 0.8230 0.8300 0.8360
1790.354592 0.8440 0.8510 0.8580 0.8620 0.8660
1794.740568 0.8690 0.8710 0.8760 0.8780 0.8780
1799.126544 0.8800 0.8810 0.8850 0.8890 0.8930
1803.512519 0.8960 0.8990 0.9000 0.9030 0.9070
1807.898495 0.9100 0.9140 0.9170 0.9200 0.9240
1812.284470 0.9260 0.9310 0.9320 0.9350 0.9390
1816.670446 0.9400 0.9420 0.9420 0.9430 0.9460
1821.056422 0.9490 0.9490 0.9500 0.9510 0.9510
1825.442397 0.9530 0.9540 0.9540 0.9550 0.9550
1829.828373 0.9570 0.9570 0.9580 0.9580 0.9600
1834.214349 0.9610 0.9620 0.9640 0.9640 0.9650
1838.600324 0.9650 0.9650 0.9650 0.9640 0.9620
1842.986300 0.9620 0.9610 0.9610 0.9550 0.9530
1847.372276 0.9510 0.9500 0.9500 0.9530 0.9570
1851.758251 0.9580 0.9610 0.9610 0.9640 0.9640
1856.144227 0.9660 0.9680 0.9680 0.9690 0.9710
1860.530202 0.9720 0.9730 0.9730 0.9730 0.9730
1864.916178 0.9730 0.9720 0.9720 0.9710 0.9710
1869.302154 0.9680 0.9660 0.9650 0.9640 0.9620
1873.688129 0.9610 0.9610 0.9550 0.9530 0.9500
1878.074105 0.9430 0.9400 0.9330 0.9250 0.9150
1882.460081 0.9100 0.9000 0.8990 0.9000 0.9040
1886.846056 0.9110 0.9180 0.9220 0.9250 0.9360
1891.232032 0.9440 0.9530 0.9570 0.9600 0.9620
1895.618008 0.9640 0.9650 0.9660 0.9690 0.9720
1900.003983 0.9750 0.9760 0.9760 0.9760 0.9770
1904.389959 0.9760 0.9750 0.9760 0.9750 0.9750
1908.775934 0.9730 0.9730 0.9710 0.9680 0.9650
1913.161910 0.9650 0.9620 0.9610 0.9570 0.9530
1917.547886 0.9460 0.9420 0.9400 0.9420 0.9460
1921.933861 0.9500 0.9540 0.9570 0.9620 0.9650
1926.319837 0.9680 0.9750 0.9760 0.9800 0.9820
1930.705813 0.9840 0.9860 0.9860 0.9860 0.9870
1935.091788 0.9870 0.9870 0.9880 0.9880 0.9880
1939.477764 0.9900 0.9900 0.9900 0.9910 0.9900
1943.863739 0.9900 0.9910 0.9910 0.9910 0.9930
1948.249715 0.9930 0.9930 0.9940 0.9940 0.9940
1952.635691 0.9950 0.9950 0.9950 0.9970 0.9970
1957.021666 0.9970 0.9980 0.9980 0.9980 1.0000
1961.407642 1.0000 1.0000 1.0010 1.0010 1.0010
1965.793618 1.0020 1.0020 1.0040 1.0040 1.0050
1970.179593 1.0050 1.0060 1.0080 1.0090 1.0110
1974.565569 1.0110 1.0110 1.0120 1.0120 1.0120
1978.951545 1.0130 1.0130 1.0130 1.0150 1.0150
1983.337520 1.0150 1.0160 1.0160 1.0160 1.0170
1987.723496 1.0170 1.0170 1.0190 1.0190 1.0190
1992.109471 1.0200 1.0200 1.0220 1.0220 1.0220
1996.495447 1.0230 1.0230 1.0230 1.0240 1.0240
2000.881423 1.0240 1.0240 1.0250 1.0260 1.0260
2005.267398 1.0260 1.0260 1.0260 1.0265 1.0270
2009.653374 1.0270 1.0270 1.0270 1.0270 1.0275
2014.039350 1.0280 1.0280 1.0280 1.0280 1.0280
2018.425325 1.0290 1.0300 1.0300 1.0300 1.0300
2022.811301 1.0300 1.0305 1.0310 1.0310 1.0310
2027.197276 1.0310 1.0310 1.0320 1.0330 1.0330
2031.583252 1.0330 1.0330 1.0330 1.0335 1.0340
2035.969228 1.0340 1.0340 1.0340 1.0340 1.0345
2040.355203 1.0350 1.0350 1.0350 1.0350 1.0350
2044.741179 1.0360 1.0370 1.0370 1.0370 1.0375
2049.127155 1.0380 1.0385 1.0390 1.0400 1.0410
2053.513130 1.0410 1.0410 1.0415 1.0420 1.0420
2057.899106 1.0420 1.0430 1.0440 1.0440 1.0440
2062.285082 1.0445 1.0450 1.0450 1.0450 1.0450
2066.671057 1.0450 1.0455 1.0460 1.0460 1.0460
2071.057033 1.0470 1.0480 1.0480 1.0480 1.0480
2075.443008 1.0480 1.0480 1.0480 1.0485 1.0490
2079.828984 1.0490 1.0490 1.0490 1.0490 1.0495
2084.214960 1.0500 1.0500 1.0500 1.0500 1.0500
2088.600935 1.0510 1.0520 1.0520 1.0520 1.0520
2092.986911 1.0520 1.0525 1.0530 1.0530 1.0530
2097.372887 1.0530 1.0530 1.0540 1.0550 1.0550
2101.758862 1.0550 1.0550 1.0550 1.0550 1.0550
2106.144838 1.0540 1.0530 1.0530 1.0530 1.0540
2110.530814 1.0550 1.0550 1.0550 1.0540 1.0530
2114.916789 1.0530 1.0530 1.0525 1.0520 1.0510
2119.302765 1.0500 1.0480 1.0460 1.0455 1.0450
2123.688740 1.0445 1.0440 1.0440 1.0440 1.0430
2128.074716 1.0420 1.0420 1.0420 1.0415 1.0410
2132.460692 1.0410 1.0410 1.0410 1.0410 1.0410
2136.846667 1.0410 1.0415 1.0420 1.0420 1.0420
2141.232643 1.0420 1.0420 1.0430 1.0440 1.0440
2145.618619 1.0440 1.0440 1.0440 1.0440 1.0440
2150.004594 1.0445 1.0450 1.0450 1.0450 1.0455
2154.390570 1.0460 1.0470 1.0480 1.0480 1.0480
2158.776545 1.0480 1.0480 1.0485 1.0490 1.0505
2163.162521 1.0520 1.0520 1.0520 1.0505 1.0490
2167.548497 1.0485 1.0480 1.0465 1.0450 1.0430
2171.934472 1.0410 1.0395 1.0380 1.0380 1.0380
2176.320448 1.0420 1.0460 1.0475 1.0490 1.0495
2180.706424 1.0500 1.0510 1.0520 1.0520 1.0520
2185.092399 1.0525 1.0530 1.0530 1.0530 1.0530
2189.478375 1.0530 1.0530 1.0530 1.0530 1.0530
2193.864351 1.0530 1.0530 1.0530 1.0530 1.0525
2198.250326 1.0520 1.0520 1.0520 1.0505 1.0490
2202.636302 1.0475 1.0460 1.0455 1.0450 1.0445
2207.022277 1.0440 1.0440 1.0440 1.0430 1.0420
2211.408253 1.0420 1.0420 1.0400 1.0380 1.0380
2215.794229 1.0380 1.0375 1.0370 1.0360 1.0350
2220.180204 1.0345 1.0340 1.0335 1.0330 1.0320
2224.566180 1.0310 1.0310 1.0310 1.0310 1.0310
2228.952156 1.0310 1.0310 1.0310 1.0310 1.0310
2233.338131 1.0310 1.0310 1.0310 1.0310 1.0310
2237.724107 1.0310 1.0310 1.0310 1.0310 1.0310
2242.110082 1.0310 1.0305 1.0300 1.0300 1.0300
2246.496058 1.0300 1.0300 1.0300 1.0300 1.0300
2250.882034 1.0300 1.0300 1.0300 1.0300 1.0300
2255.268009 1.0300 1.0300 1.0300 1.0300 1.0300
2259.653985 1.0300 1.0290 1.0280 1.0275 1.0270
2264.039961 1.0270 1.0270 1.0270 1.0270 1.0270
2268.425936 1.0270 1.0270 1.0270 1.0270 1.0270
2272.811912 1.0270 1.0270 1.0275 1.0280 1.0280
2277.197888 1.0280 1.0290 1.0300 1.0300 1.0300
2281.583863 1.0300 1.0300 1.0305 1.0310 1.0305
2285.969839 1.0300 1.0300 1.0300 1.0290 1.0280
2290.355814 1.0275 1.0270 1.0255 1.0240 1.0240
2294.741790 1.0240 1.0235 1.0230 1.0230 1.0230
2299.127766 1.0225 1.0220 1.0195 1.0170 1.0165
2303.513741 1.0160 1.0160 1.0160 1.0160 1.0160
2307.899717 1.0165 1.0170 1.0180 1.0190 1.0195
2312.285693 1.0200 1.0210 1.0220 1.0230 1.0240
2316.671668 1.0240 1.0240 1.0250 1.0260 1.0260
2321.057644 1.0260 1.0265 1.0270 1.0275 1.0280
2325.443620 1.0290 1.0300 1.0305 1.0310 1.0310
2329.829595 1.0310 1.0310 1.0310 1.0310 1.0310
2334.215571 1.0305 1.0300 1.0300 1.0300 1.0300
2338.601546 1.0300 1.0300 1.0300 1.0300 1.0300
2342.987522 1.0305 1.0310 1.0310 1.0310 1.0310
2347.373498 1.0310 1.0310 1.0310 1.0310 1.0310
2351.759473 1.0310 1.0310 1.0320 1.0330 1.0330
2356.145449 1.0330 1.0320 1.0310 1.0305 1.0300
2360.531425 1.0290 1.0280 1.0280 1.0280 1.0275
2364.917400 1.0270 1.0265 1.0260 1.0250 1.0240
2369.303376 1.0235 1.0230 1.0230 1.0230 1.0225
2373.689351 1.0220 1.0210 1.0200 1.0200 1.0200
2378.075327 1.0195 1.0190 1.0190 1.0190 1.0175
2382.461303 1.0160 1.0155 1.0150 1.0140 1.0130
2386.847278 1.0125 1.0120 1.0120 1.0120 1.0135
2391.233254 1.0150 1.0155 1.0160 1.0160 1.0160
2395.619230 1.0165 1.0170 1.0170 1.0170 1.0170
2400.005205 1.0170 1.0165 1.0160 1.0155 1.0150
2404.391181 1.0150 1.0150 1.0140 1.0130 1.0120
2408.777157 1.0110 1.0110 1.0110 1.0115 1.0120
2413.163132 1.0120 1.0120 1.0125 1.0130 1.0140
2417.549108 1.0150 1.0155 1.0160 1.0165 1.0170
2421.935083 1.0185 1.0200 1.0200 1.0200 1.0200
2426.321059 1.0200 1.0200 1.0200 1.0200 1.0200
2430.707035 1.0210 1.0220 1.0220 1.0220 1.0210
2435.093010 1.0200 1.0200 1.0200 1.0200 1.0200
2439.478986 1.0195 1.0190 1.0180 1.0170 1.0160
2443.864962 1.0150 1.0135 1.0120 1.0105 1.0090
2448.250937 1.0075 1.0060 1.0055 1.0050 1.0050
2452.636913 1.0050 1.0045 1.0040 1.0040 1.0040
2457.022888 1.0030 1.0020 1.0020 1.0020 1.0020
2461.408864 1.0020 1.0020 1.0020 1.0035 1.0050
2465.794840 1.0050 1.0050 1.0050 1.0050 1.0055
2470.180815 1.0060 1.0060 1.0060 1.0070 1.0080
2474.566791 1.0070 1.0060 1.0075 1.0090 1.0090
2478.952767 1.0090 1.0090 1.0090 1.0100 1.0110
2483.338742 1.0110 1.0110 1.0110 1.0110 1.0110
2487.724718 1.0110 1.0110 1.0110 1.0115 1.0120
2492.110694 1.0120 1.0120 1.0120 1.0120 1.0120
2496.496669 1.0120 1.0120 1.0120 1.0115 1.0110
2500.882645 1.0110 1.0110 1.0100 1.0090 1.0090
2505.268620 1.0090 1.0090 1.0090 1.0085 1.0080
2509.654596 1.0080 1.0080 1.0070 1.0060 1.0060
2514.040572 1.0060 1.0050 1.0040 1.0040 1.0040
2518.426547 1.0030 1.0020 1.0015 1.0010 1.0010
2522.812523 1.0010 1.0010 1.0010 1.0010 1.0010
2527.198499 1.0010 1.0010 1.0010 1.0010 1.0010
2531.584474 1.0010 1.0015 1.0020 1.0020 1.0020
2535.970450 1.0020 1.0020 1.0020 1.0020 1.0030
2540.356426 1.0040 1.0050 1.0060 1.0070 1.0080
2544.742401 1.0085 1.0090 1.0090 1.0090 1.0100
2549.128377 1.0110 1.0110 1.0110 1.0120 1.0130
2553.514352 1.0130 1.0130 1.0125 1.0120 1.0120
2557.900328 1.0120 1.0115 1.0110 1.0085 1.0060
2562.286304 1.0050 1.0040 1.0040 1.0040 1.0030
2566.672279 1.0020 1.0015 1.0010 1.0010 1.0010
2571.058255 1.0025 1.0040 1.0060 1.0080 1.0085
2575.444231 1.0090 1.0090 1.0090 1.0090 1.0090
2579.830206 1.0085 1.0080 1.0080 1.0080 1.0080
2584.216182 1.0080 1.0070 1.0060 1.0055 1.0050
2588.602157 1.0030 1.0010 1.0005 1.0000 0.9975
2592.988133 0.9950 0.9940 0.9930 0.9920 0.9910
2597.374109 0.9910 0.9910 0.9895 0.9880 0.9870
2601.760084 0.9860 0.9850 0.9840 0.9830 0.9820
2606.146060 0.9805 0.9790 0.9780 0.9770 0.9780
2610.532036 0.9790 0.9810 0.9830 0.9845 0.9860
2614.918011 0.9865 0.9870 0.9890 0.9910 0.9925
2619.303987 0.9940 0.9960 0.9980 0.9990 1.0000
2623.689963 1.0005 1.0010 1.0015 1.0020 1.0030
2628.075938 1.0040 1.0050 1.0060 1.0070 1.0080
2632.461914 1.0095 1.0110 1.0110 1.0110 1.0115
2636.847889 1.0120 1.0125 1.0130 1.0140 1.0150
2641.233865 1.0155 1.0160 1.0155 1.0150 1.0150
2645.619841 1.0150 1.0150 1.0150 1.0150 1.0150
2650.005816 1.0155 1.0160 1.0155 1.0150 1.0140
2654.391792 1.0130 1.0130 1.0130 1.0130 1.0130
2658.777768 1.0130 1.0130 1.0130 1.0130 1.0130
2663.163743 1.0130 1.0130 1.0130 1.0130 1.0130
2667.549719 1.0130 1.0130 1.0130 1.0130 1.0140
2671.935694 1.0150 1.0150 1.0150 1.0150 1.0150
2676.321670 1.0150 1.0150 1.0150 1.0150 1.0140
2680.707646 1.0130 1.0125 1.0120 1.0115 1.0110
2685.093621 1.0110 1.0110 1.0110 1.0110 1.0110
2689.479597 1.0110 1.0115 1.0120 1.0125 1.0130
2693.865573 1.0130 1.0130 1.0130 1.0130 1.0125
2698.251548 1.0120 1.0120 1.0120 1.0135 1.0150
2702.637524 1.0150 1.0150 1.0150 1.0150 1.0150
2707.023500 1.0150 1.0150 1.0150 1.0150 1.0150
2711.409475 1.0150 1.0150 1.0140 1.0130 1.0130
2715.795451 1.0130 1.0130 1.0130 1.0130 1.0130
2720.181426 1.0125 1.0120 1.0120 1.0120 1.0120
2724.567402 1.0120 1.0115 1.0110 1.0110 1.0110
2728.953378 1.0100 1.0090 1.0090 1.0090 1.0085
2733.339353 1.0080 1.0080 1.0080 1.0070 1.0060
2737.725329 1.0055 1.0050 1.0045 1.0040 1.0040
2742.111305 1.0040 1.0025 1.0010 1.0010 1.0010
2746.497280 1.0005 1.0000 0.9990 0.9980 0.9975
2750.883256 0.9970 0.9970 0.9970 0.9960 0.9950
2755.269232 0.9950 0.9950 0.9950 0.9950 0.9950
2759.655207 0.9950 0.9960 0.9970 0.9985 1.0000
2764.041183 1.0005 1.0010 1.0010 1.0010 1.0025
2768.427158 1.0040 1.0040 1.0040 1.0050 1.0060
2772.813134 1.0070 1.0080 1.0080 1.0080 1.0080
2777.199110 1.0080 1.0080 1.0080 1.0080 1.0080
2781.585085 1.0070 1.0060 1.0055 1.0050 1.0050
2785.971061 1.0050 1.0050 1.0050 1.0050 1.0050
2790.357037 1.0050 1.0050 1.0045 1.0040 1.0040
2794.743012 1.0040 1.0040 1.0040 1.0040 1.0040
2799.128988 1.0030 1.0020 1.0020 1.0020 1.0015
2803.514963 1.0010 1.0010 1.0010 1.0005 1.0000
2807.900939 1.0000 1.0000 0.9990 0.9980 0.9955
2812.286915 0.9930 0.9920 0.9910 0.9905 0.9900
2816.672890 0.9890 0.9880 0.9875 0.9870 0.9870
2821.058866 0.9870 0.9870 0.9870 0.9865 0.9860
2825.444842 0.9860 0.9860 0.9850 0.9840 0.9840
2829.830817 0.9840 0.9835 0.9830 0.9830 0.9830
2834.216793 0.9830 0.9830 0.9830 0.9830 0.9830
2838.602769 0.9830 0.9825 0.9820 0.9810 0.9800
2842.988744 0.9795 0.9790 0.9780 0.9770 0.9745
2847.374720 0.9720 0.9705 0.9690 0.9670 0.9650
2851.760695 0.9635 0.9620 0.9610 0.9600 0.9575
2856.146671 0.9550 0.9545 0.9540 0.9525 0.9510
2860.532647 0.9470 0.9430 0.9375 0.9320 0.9265
2864.918622 0.9210 0.9180 0.9150 0.9065 0.8980
2869.304598 0.8855 0.8731 0.8566 0.8401 0.8271
2873.690574 0.8141 0.8090 0.8041 0.8040 0.8040
2878.076549 0.8065 0.8090 0.8115 0.8140 0.8130
2882.462525 0.8120 0.8100 0.8080 0.8040 0.8000
2886.848500 0.7950 0.7900 0.7860 0.7820 0.7746
2891.234476 0.7671 0.7606 0.7541 0.7500 0.7460
2895.620452 0.7435 0.7410 0.7380 0.7350 0.7325
2900.006427 0.7300 0.7245 0.7190 0.7165 0.7140
2904.392403 0.7120 0.7100 0.7100 0.7100 0.7130
2908.778379 0.7160 0.7214 0.7269 0.7350 0.7430
2913.164354 0.7495 0.7560 0.7595 0.7630 0.7660
2917.550330 0.7690 0.7700 0.7710 0.7700 0.7690
2921.936306 0.7685 0.7680 0.7675 0.7670 0.7640
2926.322281 0.7610 0.7551 0.7491 0.7415 0.7339
2930.708257 0.7194 0.7049 0.6919 0.6790 0.6735
2935.094232 0.6679 0.6425 0.6170 0.6100 0.6030
2939.480208 0.6015 0.6000 0.6015 0.6030 0.6283
2943.866184 0.6538 0.6614 0.6689 0.6840 0.6991
2948.252159 0.7131 0.7271 0.7396 0.7520 0.7525
2952.638135 0.7530 0.7525 0.7520 0.7510 0.7500
2957.024111 0.7410 0.7320 0.7255 0.7190 0.7051
2961.410086 0.6911 0.6821 0.6731 0.6680 0.6630
2965.796062 0.6600 0.6570 0.6535 0.6500 0.6445
2970.182038 0.6390 0.6290 0.6190 0.6090 0.5990
2974.568013 0.5885 0.5780 0.5581 0.5381 0.5052
2978.953989 0.4723 0.4343 0.3964 0.3495 0.3030
2983.339964 0.3020 0.3010 0.3020 0.3030 0.3035
2987.725940 0.3040 0.3120 0.3200 0.3305 0.3410
2992.111916 0.3515 0.3620 0.3720 0.3819 0.3924
2996.497891 0.4029 0.4119 0.4209 0.4535 0.4862
3000.883867 0.5142 0.5421 0.5606 0.5791 0.5981
3005.269843 0.6170 0.6250 0.6330 0.6580 0.6829
3009.655818 0.7074 0.7319 0.7519 0.7719 0.7894
3014.041794 0.8069 0.8199 0.8329 0.8430 0.8531
3018.427769 0.8616 0.8700 0.8755 0.8810 0.8845
3022.813745 0.8880 0.8905 0.8930 0.8940 0.8950
3027.199721 0.8975 0.9000 0.9010 0.9020 0.9020
3031.585696 0.9020 0.9020 0.9020 0.9010 0.9000
3035.971672 0.8975 0.8950 0.8910 0.8869 0.8624
3040.357648 0.8380 0.8285 0.8190 0.8075 0.7960
3044.743623 0.7850 0.7740 0.7621 0.7501 0.7386
3049.129599 0.7271 0.7270 0.7270 0.7310 0.7351
3053.515575 0.7436 0.7521 0.7651 0.7780 0.7910
3057.901550 0.8040 0.8155 0.8270 0.8395 0.8520
3062.287526 0.8640 0.8759 0.8840 0.8919 0.8900
3066.673501 0.8880 0.8895 0.8910 0.8910 0.8910
3071.059477 0.8880 0.8850 0.8845 0.8840 0.8770
3075.445453 0.8700 0.8630 0.8560 0.8515 0.8470
3079.831428 0.8460 0.8450 0.8460 0.8470 0.8510
3084.217404 0.8550 0.8590 0.8630 0.8660 0.8691
3088.603380 0.8755 0.8821 0.8926 0.9030 0.9070
3092.989355 0.9110 0.9145 0.9180 0.9230 0.9280
3097.375331 0.9315 0.9350 0.9385 0.9420 0.9440
3101.761306 0.9460 0.9485 0.9510 0.9555 0.9600
3106.147282 0.9630 0.9660 0.9675 0.9690 0.9690
3110.533258 0.9690 0.9710 0.9730 0.9750 0.9770
3114.919233 0.9780 0.9790 0.9795 0.9800 0.9810
3119.305209 0.9820 0.9825 0.9830 0.9835 0.9840
3123.691185 0.9850 0.9860 0.9865 0.9870 0.9870
3128.077160 0.9870 0.9875 0.9880 0.9880 0.9880
3132.463136 0.9890 0.9900 0.9905 0.9910 0.9910
3136.849112 0.9910 0.9920 0.9930 0.9930 0.9930
3141.235087 0.9930 0.9930 0.9930 0.9930 0.9930
3145.621063 0.9930 0.9930 0.9930 0.9930 0.9930
3150.007038 0.9930 0.9930 0.9930 0.9930 0.9930
3154.393014 0.9930 0.9930 0.9930 0.9930 0.9930
3158.778990 0.9930 0.9930 0.9920 0.9910 0.9910
3163.164965 0.9910 0.9910 0.9910 0.9905 0.9900
3167.550941 0.9900 0.9900 0.9900 0.9900 0.9890
3171.936917 0.9880 0.9880 0.9880 0.9880 0.9880
3176.322892 0.9875 0.9870 0.9870 0.9870 0.9870
3180.708868 0.9870 0.9865 0.9860 0.9860 0.9860
3185.094844 0.9860 0.9860 0.9860 0.9860 0.9860
3189.480819 0.9860 0.9865 0.9870 0.9870 0.9870
3193.866795 0.9870 0.9870 0.9870 0.9870 0.9870
3198.252770 0.9870 0.9870 0.9870 0.9875 0.9880
3202.638746 0.9880 0.9880 0.9880 0.9880 0.9880
3207.024722 0.9880 0.9880 0.9880 0.9890 0.9900
3211.410697 0.9900 0.9900 0.9890 0.9880 0.9880
3215.796673 0.9880 0.9880 0.9880 0.9875 0.9870
3220.182649 0.9870 0.9870 0.9870 0.9870 0.9875
3224.568624 0.9880 0.9880 0.9880 0.9880 0.9880
3228.954600 0.9890 0.9900 0.9900 0.9900 0.9890
3233.340575 0.9880 0.9880 0.9880 0.9880 0.9880
3237.726551 0.9880 0.9880 0.9890 0.9900 0.9890
3242.112527 0.9880 0.9880 0.9880 0.9880 0.9880
3246.498502 0.9880 0.9880 0.9880 0.9880 0.9890
3250.884478 0.9900 0.9885 0.9870 0.9870 0.9870
3255.270454 0.9870 0.9870 0.9865 0.9860 0.9860
3259.656429 0.9860 0.9865 0.9870 0.9870 0.9870
3264.042405 0.9870 0.9870 0.9865 0.9860 0.9860
3268.428381 0.9860 0.9860 0.9860 0.9860 0.9860
3272.814356 0.9850 0.9840 0.9840 0.9840 0.9840
3277.200332 0.9840 0.9835 0.9830 0.9835 0.9840
3281.586307 0.9850 0.9860 0.9860 0.9860 0.9860
3285.972283 0.9860 0.9860 0.9860 0.9850 0.9840
3290.358259 0.9835 0.9830 0.9825 0.9820 0.9820
3294.744234 0.9820 0.9820 0.9820 0.9810 0.9800
3299.130210 0.9800 0.9800 0.9795 0.9790 0.9790
3303.516186 0.9790 0.9780 0.9770 0.9770 0.9770
3307.902161 0.9770 0.9770 0.9770 0.9770 0.9770
3312.288137 0.9770 0.9765 0.9760 0.9760 0.9760
3316.674112 0.9755 0.9750 0.9750 0.9750 0.9740
3321.060088 0.9730 0.9725 0.9720 0.9720 0.9720
3325.446064 0.9715 0.9710 0.9710 0.9710 0.9700
3329.832039 0.9690 0.9690 0.9690 0.9685 0.9680
3334.218015 0.9680 0.9680 0.9670 0.9660 0.9660
3338.603991 0.9660 0.9660 0.9660 0.9660 0.9660
3342.989966 0.9655 0.9650 0.9645 0.9640 0.9640
3347.375942 0.9640 0.9630 0.9620 0.9615 0.9610
3351.761918 0.9605 0.9600 0.9590 0.9580 0.9575
3356.147893 0.9570 0.9570 0.9570 0.9560 0.9550
3360.533869 0.9550 0.9550 0.9545 0.9540 0.9535
3364.919844 0.9530 0.9520 0.9510 0.9500 0.9490
3369.305820 0.9480 0.9470 0.9465 0.9460 0.9450
3373.691796 0.9440 0.9420 0.9400 0.9400 0.9400
3378.077771 0.9395 0.9390 0.9385 0.9380 0.9370
3382.463747 0.9360 0.9355 0.9350 0.9350 0.9350
3386.849723 0.9335 0.9320 0.9305 0.9290 0.9285
3391.235698 0.9280 0.9265 0.9250 0.9235 0.9220
3395.621674 0.9215 0.9210 0.9195 0.9180 0.9165
3400.007650 0.9150 0.9145 0.9140 0.9135 0.9130
3404.393625 0.9115 0.9100 0.9100 0.9100 0.9095
3408.779601 0.9090 0.9060 0.9030 0.9025 0.9020
3413.165576 0.9010 0.9000 0.8995 0.8990 0.8985
3417.551552 0.8980 0.8965 0.8950 0.8935 0.8920
3421.937528 0.8905 0.8890 0.8880 0.8870 0.8860
3426.323503 0.8850 0.8835 0.8820 0.8815 0.8810
3430.709479 0.8795 0.8780 0.8775 0.8770 0.8755
3435.095455 0.8740 0.8735 0.8730 0.8715 0.8700
3439.481430 0.8680 0.8660 0.8655 0.8650 0.8635
3443.867406 0.8620 0.8605 0.8590 0.8575 0.8560
3448.253381 0.8560 0.8560 0.8545 0.8530 0.8520
3452.639357 0.8510 0.8500 0.8490 0.8490 0.8490
3457.025333 0.8490 0.8490 0.8490 0.8490 0.8490
3461.411308 0.8490 0.8500 0.8510 0.8510 0.8510
3465.797284 0.8510 0.8510 0.8515 0.8520 0.8525
3470.183260 0.8530 0.8530 0.8530 0.8540 0.8550
3474.569235 0.8550 0.8550 0.8555 0.8560 0.8570
3478.955211 0.8580 0.8585 0.8590 0.8595 0.8600
3483.341187 0.8610 0.8620 0.8625 0.8630 0.8640
3487.727162 0.8650 0.8650 0.8650 0.8660 0.8670
3492.113138 0.8685 0.8700 0.8700 0.8700 0.8705
3496.499113 0.8710 0.8720 0.8730 0.8745 0.8760
3500.885089 0.8765 0.8770 0.8785 0.8800 0.8810
3505.271065 0.8820 0.8830 0.8840 0.8845 0.8850
3509.657040 0.8870 0.8890 0.8900 0.8910 0.8915
3514.043016 0.8920 0.8925 0.8930 0.8945 0.8960
3518.428992 0.8975 0.8990 0.8995 0.9000 0.9010
3522.814967 0.9020 0.9030 0.9040 0.9050 0.9060
3527.200943 0.9065 0.9070 0.9070 0.9070 0.9065
3531.586918 0.9060 0.9060 0.9060 0.9050 0.9040
3535.972894 0.9035 0.9030 0.9015 0.9000 0.8980
3540.358870 0.8960 0.8945 0.8930 0.8920 0.8910
3544.744845 0.8900 0.8890 0.8880 0.8870 0.8845
3549.130821 0.8820 0.8795 0.8770 0.8730 0.8690
3553.516797 0.8680 0.8670 0.8670 0.8670 0.8680
3557.902772 0.8690 0.8690 0.8690 0.8715 0.8740
3562.288748 0.8770 0.8800 0.8810 0.8820 0.8850
3566.674724 0.8880 0.8920 0.8960 0.9025 0.9090
3571.060699 0.9120 0.9150 0.9195 0.9240 0.9265
3575.446675 0.9290 0.9300 0.9310 0.9350 0.9390
3579.832650 0.9425 0.9460 0.9495 0.9530 0.9550
3584.218626 0.9570 0.9585 0.9600 0.9605 0.9610
3588.604602 0.9615 0.9620 0.9620 0.9620 0.9615
3592.990577 0.9610 0.9610 0.9610 0.9610 0.9610
3597.376553 0.9610 0.9610 0.9580 0.9550 0.9540
3601.762529 0.9530 0.9520 0.9510 0.9510 0.9510
3606.148504 0.9505 0.9500 0.9500 0.9500 0.9505
3610.534480 0.9510 0.9520 0.9530 0.9555 0.9580
3614.920456 0.9595 0.9610 0.9625 0.9640 0.9650
3619.306431 0.9660 0.9675 0.9690 0.9705 0.9720
3623.692407 0.9725 0.9730 0.9740 0.9750 0.9755
3628.078382 0.9760 0.9760 0.9760 0.9765 0.9770
3632.464358 0.9770 0.9770 0.9785 0.9800 0.9800
3636.850334 0.9800 0.9820 0.9840 0.9875 0.9910
3641.236309 0.9910 0.9910 0.9895 0.9880 0.9875
3645.622285 0.9870 0.9855 0.9840 0.9835 0.9830
3650.008261 0.9815 0.9800 0.9800 0.9800 0.9795
3654.394236 0.9790 0.9790 0.9790 0.9805 0.9820
3658.780212 0.9820 0.9820 0.9825 0.9830 0.9835
3663.166187 0.9840 0.9840 0.9840 0.9835 0.9830
3667.552163 0.9830 0.9830 0.9810 0.9790 0.9780
3671.938139 0.9770 0.9765 0.9760 0.9760 0.9760
3676.324114 0.9760 0.9760 0.9760 0.9760 0.9755
3680.710090 0.9750 0.9750 0.9750 0.9750 0.9750
3685.096066 0.9755 0.9760 0.9775 0.9790 0.9790
3689.482041 0.9790 0.9790 0.9790 0.9795 0.9800
3693.868017 0.9800 0.9800 0.9815 0.9830 0.9830
3698.253993 0.9830 0.9845 0.9860 0.9865 0.9870
3702.639968 0.9855 0.9840 0.9840 0.9840 0.9840
3707.025944 0.9840 0.9840 0.9840 0.9850 0.9860
3711.411919 0.9860 0.9860 0.9860 0.9860 0.9865
3715.797895 0.9870 0.9875 0.9880 0.9890 0.9900
3720.183871 0.9900 0.9900 0.9905 0.9910 0.9920
3724.569846 0.9930 0.9930 0.9930 0.9935 0.9940
3728.955822 0.9940 0.9940 0.9940 0.9940 0.9940
3733.341798 0.9940 0.9940 0.9940 0.9935 0.9930
3737.727773 0.9920 0.9910 0.9910 0.9910 0.9905
3742.113749 0.9900 0.9900 0.9900 0.9890 0.9880
3746.499724 0.9875 0.9870 0.9865 0.9860 0.9860
3750.885700 0.9860 0.9850 0.9840 0.9835 0.9830
3755.271676 0.9830 0.9830 0.9825 0.9820 0.9820
3759.657651 0.9820 0.9810 0.9800 0.9800 0.9800
3764.043627 0.9800 0.9800 0.9795 0.9790 0.9790
3768.429603 0.9790 0.9790 0.9790 0.9790 0.9790
3772.815578 0.9790 0.9790 0.9790 0.9790 0.9790
3777.201554 0.9790 0.9795 0.9800 0.9810 0.9820
3781.587530 0.9825 0.9830 0.9830 0.9830 0.9825
3785.973505 0.9820 0.9820 0.9820 0.9820 0.9820
3790.359481 0.9810 0.9800 0.9800 0.9800 0.9800
3794.745456 0.9800 0.9795 0.9790 0.9790 0.9790
##END=
