##TITLE=10-{3-[1-[2-(2-HYDROXYETHOXY)ETHYL]-4-PIPERAZINYL]PROPYL}-2-TRIFLUOROMETHYL-PHENOTHIAZINE, DIHYDROCHLORIDE
##JCAMP-DX=4.24
##DATA TYPE=INFRARED SPECTRUM
##CLASS=COBLENTZ III
##ORIGIN=SMITH KLINE & FRENCH LABS.
##OWNER=COBLENTZ SOCIETY
Collection (C) 2018 copyright by the U.S. Secretary of Commerce
on behalf of the United States of America. All rights reserved.
##DATE=1959/09/14
##MOLFORM=C24 H32 Cl2 F3 N3 O2 S
##SOURCE REFERENCE=COBLENTZ NO. 9127
##$NIST ID=B6009127
##$NIST SOURCE=COBLENTZ
##$NIST IMAGE=cob9127
##SPECTROMETER/DATA SYSTEM=Not specified, most likely a prism spectrometer.
##INSTRUMENT PARAMETERS=NaCl PRISM
##STATE=SOLID (KBr DISC)
##SAMPLING PROCEDURE=TRANSMISSION
##RESOLUTION=2
##DATA PROCESSING=DIGITIZED BY NIST FROM HARD COPY
##XUNITS=MICROMETERS
##YUNITS=TRANSMITTANCE
##XFACTOR=1.000000
##YFACTOR=1
##DELTAX=000.004904
##FIRSTX=2.009
##LASTX=14.8041
##FIRSTY=0.456
##MAXX=14.8041
##MINX=2.009
##MAXY=0.821
##MINY=0.102
##NPOINTS=2610
##XYDATA=(X++(Y..Y))
2.009000 0.4560 0.4560 0.4580 0.4580 0.4580
2.033529 0.4590 0.4590 0.4600 0.4610 0.4620
2.058000 0.4620 0.4640 0.4640 0.4650 0.4650
2.082529 0.4660 0.4670 0.4700 0.4710 0.4780
2.107000 0.4810 0.4810 0.4810 0.4810 0.4810
2.131529 0.4810 0.4790 0.4790 0.4780 0.4790
2.157000 0.4790 0.4790 0.4790 0.4790 0.4790
2.181529 0.4790 0.4790 0.4790 0.4790 0.4790
2.206000 0.4790 0.4790 0.4790 0.4830 0.4840
2.230529 0.4860 0.4880 0.4880 0.4880 0.4880
2.255000 0.4880 0.4880 0.4890 0.4890 0.4890
2.279529 0.4890 0.4880 0.4840 0.4840 0.4860
2.304000 0.4880 0.4890 0.4920 0.4930 0.4950
2.328529 0.4980 0.4980 0.4980 0.4980 0.4980
2.353000 0.4980 0.4980 0.4980 0.4980 0.4980
2.377529 0.4980 0.4990 0.5000 0.5000 0.5030
2.402000 0.5040 0.5050 0.5050 0.5060 0.5060
2.426529 0.5070 0.5090 0.5090 0.5090 0.5070
2.451000 0.5090 0.5090 0.5090 0.5100 0.5110
2.475529 0.5130 0.5150 0.5160 0.5170 0.5170
2.500000 0.5180 0.5180 0.5200 0.5210 0.5240
2.524529 0.5270 0.5290 0.5290 0.5290 0.5280
2.549000 0.5280 0.5280 0.5270 0.5260 0.5270
2.573529 0.5270 0.5270 0.5270 0.5270 0.5270
2.598000 0.5270 0.5270 0.5270 0.5270 0.5280
2.622529 0.5290 0.5300 0.5340 0.5390 0.5440
2.647000 0.5490 0.5500 0.5500 0.5510 0.5510
2.671529 0.5510 0.5510 0.5510 0.5540 0.5550
2.696000 0.5550 0.5560 0.5570 0.5580 0.5580
2.720529 0.5600 0.5610 0.5610 0.5620 0.5620
2.745000 0.5630 0.5630 0.5630 0.5630 0.5630
2.769529 0.5620 0.5610 0.5600 0.5580 0.5510
2.794000 0.5490 0.5450 0.5380 0.5290 0.5150
2.818529 0.5050 0.5010 0.4900 0.4880 0.4870
2.843000 0.4830 0.4760 0.4690 0.4600 0.4580
2.867529 0.4530 0.4500 0.4450 0.4360 0.4310
2.892000 0.4220 0.4170 0.4150 0.4140 0.4130
2.916529 0.4080 0.3990 0.3960 0.3860 0.3730
2.941000 0.3710 0.3650 0.3560 0.3480 0.3400
2.965529 0.3350 0.3320 0.3250 0.3190 0.3110
2.990000 0.2960 0.2700 0.2600 0.2460 0.2440
3.014529 0.2410 0.2410 0.2430 0.2440 0.2460
3.039000 0.2500 0.2520 0.2560 0.2580 0.2770
3.063529 0.2940 0.3200 0.3400 0.3540 0.3660
3.088000 0.3920 0.4040 0.4220 0.4320 0.4390
3.112529 0.4470 0.4490 0.4600 0.4700 0.4790
3.137000 0.4840 0.4890 0.4950 0.4990 0.5040
3.161529 0.5070 0.5090 0.5120 0.5160 0.5210
3.186000 0.5240 0.5270 0.5290 0.5320 0.5350
3.210529 0.5400 0.5430 0.5450 0.5470 0.5500
3.235000 0.5520 0.5540 0.5540 0.5550 0.5550
3.259529 0.5560 0.5560 0.5560 0.5560 0.5560
3.284000 0.5560 0.5500 0.5450 0.5390 0.5370
3.308529 0.5370 0.5400 0.5410 0.5430 0.5430
3.333000 0.5430 0.5410 0.5390 0.5340 0.5230
3.357529 0.5110 0.5030 0.4700 0.4540 0.4410
3.383000 0.4300 0.4280 0.4190 0.4090 0.3990
3.407529 0.3990 0.3980 0.3960 0.3940 0.3640
3.432000 0.3640 0.3620 0.3620 0.3630 0.3640
3.456529 0.3640 0.3650 0.3650 0.3650 0.3650
3.481000 0.3650 0.3650 0.3650 0.3650 0.3650
3.505529 0.3650 0.3640 0.3640 0.3640 0.3630
3.530000 0.3630 0.3640 0.3680 0.3770 0.4040
3.554529 0.4240 0.4370 0.4470 0.4520 0.4550
3.579000 0.4580 0.4590 0.4610 0.4660 0.4720
3.603529 0.4780 0.4790 0.4810 0.4820 0.4860
3.628000 0.4900 0.4940 0.4960 0.4990 0.5000
3.652529 0.5000 0.5000 0.5000 0.5000 0.5000
3.677000 0.4900 0.4870 0.4840 0.4830 0.4830
3.701529 0.4820 0.4820 0.4820 0.4810 0.4790
3.726000 0.4780 0.4720 0.4710 0.4690 0.4620
3.750529 0.4590 0.4590 0.4580 0.4550 0.4450
3.775000 0.4390 0.4360 0.4330 0.4310 0.4300
3.799529 0.4270 0.4250 0.4200 0.4140 0.4110
3.824000 0.4090 0.4050 0.4020 0.4000 0.3980
3.848529 0.3970 0.3960 0.3930 0.3920 0.3910
3.873000 0.3900 0.3880 0.3870 0.3860 0.3850
3.897529 0.3820 0.3790 0.3730 0.3630 0.3600
3.922000 0.3580 0.3530 0.3510 0.3460 0.3420
3.946529 0.3400 0.3360 0.3340 0.3300 0.3290
3.971000 0.3260 0.3210 0.3200 0.3180 0.3140
3.995529 0.3120 0.3080 0.3060 0.3020 0.3010
4.020000 0.3000 0.2980 0.2980 0.2980 0.2980
4.044529 0.2980 0.2980 0.2980 0.2980 0.2980
4.069000 0.2980 0.2960 0.2910 0.2830 0.2720
4.093529 0.2690 0.2560 0.2510 0.2500 0.2450
4.118000 0.2430 0.2410 0.2410 0.2400 0.2390
4.142529 0.2350 0.2330 0.2300 0.2280 0.2260
4.167000 0.2240 0.2240 0.2240 0.2240 0.2230
4.191529 0.2230 0.2230 0.2210 0.2210 0.2210
4.216000 0.2190 0.2190 0.2190 0.2190 0.2190
4.240529 0.2190 0.2190 0.2180 0.2180 0.2180
4.265000 0.2180 0.2180 0.2190 0.2190 0.2210
4.289529 0.2220 0.2240 0.2260 0.2260 0.2300
4.314000 0.2360 0.2410 0.2410 0.2430 0.2430
4.338529 0.2440 0.2440 0.2440 0.2450 0.2450
4.363000 0.2470 0.2500 0.2510 0.2600 0.2610
4.387529 0.2610 0.2610 0.2610 0.2610 0.2620
4.412000 0.2700 0.2730 0.2790 0.2920 0.2960
4.436529 0.2970 0.3000 0.3060 0.3180 0.3300
4.461000 0.3370 0.3410 0.3450 0.3480 0.3540
4.485529 0.3650 0.3760 0.3820 0.3870 0.3900
4.510000 0.3920 0.3940 0.3980 0.4040 0.4110
4.534529 0.4150 0.4150 0.4150 0.4150 0.4150
4.559000 0.4160 0.4200 0.4280 0.4340 0.4380
4.583529 0.4410 0.4430 0.4450 0.4500 0.4590
4.609000 0.4720 0.4770 0.4770 0.4790 0.4930
4.633529 0.4980 0.4990 0.4990 0.5000 0.5000
4.658000 0.5060 0.5200 0.5210 0.5220 0.5240
4.682529 0.5270 0.5300 0.5320 0.5320 0.5320
4.707000 0.5320 0.5340 0.5400 0.5450 0.5470
4.731529 0.5510 0.5600 0.5620 0.5660 0.5740
4.756000 0.5800 0.5830 0.5830 0.5820 0.5820
4.780529 0.5820 0.5820 0.5830 0.5860 0.5900
4.805000 0.5940 0.5990 0.6020 0.6070 0.6110
4.829529 0.6130 0.6140 0.6140 0.6160 0.6190
4.854000 0.6200 0.6200 0.6220 0.6240 0.6250
4.878529 0.6260 0.6280 0.6300 0.6450 0.6470
4.903000 0.6470 0.6470 0.6460 0.6470 0.6470
4.927529 0.6480 0.6500 0.6510 0.6530 0.6570
4.952000 0.6590 0.6620 0.6630 0.6650 0.6670
4.976529 0.6690 0.6700 0.6730 0.6750 0.6760
5.001000 0.6760 0.6780 0.6790 0.6790 0.6800
5.025529 0.6810 0.6810 0.6820 0.6820 0.6850
5.050000 0.6860 0.6900 0.6930 0.6930 0.6950
5.074529 0.6950 0.6930 0.6930 0.6920 0.6900
5.099000 0.6900 0.6910 0.6930 0.6950 0.6990
5.123529 0.6990 0.6990 0.6990 0.6990 0.6980
5.148000 0.6960 0.6960 0.6950 0.6960 0.6970
5.172529 0.6990 0.7020 0.7050 0.7070 0.7070
5.197000 0.7080 0.7080 0.7090 0.7090 0.7120
5.221529 0.7130 0.7130 0.7140 0.7160 0.7180
5.246000 0.7190 0.7190 0.7190 0.7150 0.7100
5.270529 0.7080 0.7010 0.6990 0.6980 0.6970
5.295000 0.6960 0.6960 0.6990 0.7090 0.7120
5.319529 0.7120 0.7140 0.7200 0.7250 0.7290
5.344000 0.7310 0.7330 0.7330 0.7350 0.7360
5.368529 0.7360 0.7360 0.7360 0.7380 0.7390
5.393000 0.7410 0.7430 0.7460 0.7470 0.7460
5.417529 0.7470 0.7480 0.7480 0.7480 0.7490
5.442000 0.7500 0.7520 0.7540 0.7550 0.7550
5.466529 0.7560 0.7560 0.7580 0.7580 0.7580
5.491000 0.7580 0.7580 0.7590 0.7590 0.7590
5.515529 0.7590 0.7590 0.7590 0.7590 0.7590
5.540000 0.7590 0.7590 0.7590 0.7590 0.7580
5.564529 0.7580 0.7580 0.7580 0.7580 0.7580
5.589000 0.7580 0.7560 0.7560 0.7560 0.7560
5.613529 0.7550 0.7550 0.7540 0.7530 0.7520
5.638000 0.7520 0.7520 0.7520 0.7520 0.7500
5.662529 0.7500 0.7520 0.7500 0.7500 0.7500
5.687000 0.7500 0.7520 0.7520 0.7520 0.7520
5.711529 0.7520 0.7520 0.7530 0.7530 0.7540
5.736000 0.7530 0.7530 0.7530 0.7530 0.7530
5.760529 0.7520 0.7520 0.7520 0.7520 0.7520
5.785000 0.7520 0.7500 0.7500 0.7500 0.7480
5.809529 0.7480 0.7470 0.7470 0.7460 0.7440
5.834000 0.7440 0.7440 0.7460 0.7460 0.7460
5.858529 0.7470 0.7480 0.7490 0.7500 0.7520
5.884000 0.7530 0.7550 0.7560 0.7580 0.7580
5.908529 0.7590 0.7590 0.7590 0.7580 0.7540
5.933000 0.7500 0.7480 0.7480 0.7480 0.7480
5.957529 0.7480 0.7480 0.7480 0.7470 0.7470
5.982000 0.7460 0.7440 0.7430 0.7430 0.7420
6.006529 0.7420 0.7410 0.7390 0.7380 0.7390
6.031000 0.7390 0.7410 0.7420 0.7410 0.7350
6.055529 0.7260 0.7220 0.7180 0.7150 0.7130
6.080000 0.7120 0.7100 0.7100 0.7090 0.7090
6.104529 0.7090 0.7090 0.7090 0.7090 0.7080
6.129000 0.7070 0.7040 0.7040 0.7030 0.7030
6.153529 0.7020 0.7010 0.6990 0.6980 0.6980
6.178000 0.6970 0.6960 0.6920 0.6900 0.6850
6.202529 0.6780 0.6690 0.6670 0.6570 0.6430
6.227000 0.6280 0.6090 0.5890 0.5690 0.5510
6.251529 0.5330 0.5260 0.5200 0.5110 0.5100
6.276000 0.5120 0.5650 0.5890 0.6000 0.6060
6.300529 0.6190 0.6260 0.6360 0.6430 0.6570
6.325000 0.6690 0.6760 0.6740 0.6730 0.6710
6.349529 0.6690 0.6590 0.6510 0.6450 0.6390
6.374000 0.6330 0.6250 0.6190 0.6120 0.6110
6.398529 0.6090 0.6120 0.6680 0.6680 0.6690
6.423000 0.6690 0.6690 0.6690 0.6710 0.6960
6.447529 0.7210 0.7220 0.7220 0.7250 0.7290
6.472000 0.7290 0.7300 0.7300 0.7300 0.7310
6.496529 0.7310 0.7310 0.7320 0.7320 0.7330
6.521000 0.7330 0.7330 0.7330 0.7360 0.7390
6.545529 0.7410 0.7410 0.7360 0.7350 0.7330
6.570000 0.7320 0.7310 0.7310 0.7300 0.7290
6.594529 0.7270 0.7260 0.7250 0.7240 0.7200
6.619000 0.7190 0.7180 0.7160 0.7130 0.7040
6.643529 0.6930 0.6840 0.6750 0.6670 0.6540
6.668000 0.6500 0.6420 0.6260 0.6140 0.6120
6.692529 0.5950 0.5720 0.5450 0.5240 0.5110
6.717000 0.5070 0.5050 0.5050 0.5050 0.5050
6.741529 0.5040 0.5040 0.5050 0.5060 0.5100
6.766000 0.5100 0.5090 0.4780 0.4650 0.4500
6.790529 0.4360 0.4190 0.4000 0.3770 0.3510
6.815000 0.3290 0.2960 0.2620 0.2550 0.2500
6.839529 0.2400 0.2390 0.2390 0.2380 0.2400
6.864000 0.2470 0.2510 0.2530 0.2600 0.2660
6.888529 0.2730 0.2790 0.2870 0.2810 0.2780
6.913000 0.2740 0.2700 0.2660 0.2620 0.2580
6.937529 0.2550 0.2510 0.2460 0.2430 0.2430
6.962000 0.2580 0.2740 0.3120 0.3510 0.3520
6.986529 0.3520 0.3520 0.3520 0.3370 0.2940
7.011000 0.2790 0.2680 0.2670 0.2570 0.2290
7.035529 0.2220 0.2210 0.2120 0.2020 0.2010
7.060000 0.2010 0.2000 0.2010 0.2220 0.2390
7.084529 0.2500 0.2600 0.2910 0.3070 0.3190
7.110000 0.3320 0.3460 0.3620 0.3800 0.3820
7.134529 0.3820 0.3820 0.3820 0.3800 0.3770
7.159000 0.3700 0.3660 0.3660 0.3650 0.3650
7.183529 0.3680 0.3820 0.3980 0.4130 0.4280
7.208000 0.4420 0.4600 0.4660 0.4780 0.4830
7.232529 0.4890 0.4960 0.5000 0.5030 0.5090
7.257000 0.5130 0.5180 0.5200 0.5210 0.5220
7.281529 0.5230 0.5230 0.5260 0.5280 0.5320
7.306000 0.5390 0.5390 0.5410 0.5450 0.5510
7.330529 0.5600 0.5710 0.5840 0.5900 0.5920
7.355000 0.5960 0.5970 0.5970 0.5970 0.5970
7.379529 0.5970 0.5970 0.5960 0.5910 0.5820
7.404000 0.5690 0.5550 0.5370 0.5180 0.4780
7.428529 0.4580 0.4380 0.4210 0.4040 0.3910
7.453000 0.3800 0.3710 0.3650 0.3510 0.3320
7.477529 0.3120 0.2890 0.2680 0.2500 0.2320
7.502000 0.2290 0.2290 0.2280 0.2280 0.2270
7.526529 0.2260 0.2240 0.2270 0.2300 0.2350
7.551000 0.2360 0.2360 0.2380 0.2380 0.2380
7.575529 0.2380 0.2360 0.2290 0.2180 0.2170
7.600000 0.2180 0.2180 0.2190 0.2190 0.2190
7.624529 0.2220 0.2390 0.2440 0.2500 0.2550
7.649000 0.2730 0.2950 0.3230 0.3540 0.3690
7.673529 0.3750 0.3800 0.3850 0.3900 0.3970
7.698000 0.4050 0.4140 0.4260 0.4440 0.4470
7.722529 0.4610 0.4640 0.4640 0.4620 0.4620
7.747000 0.4610 0.4590 0.4580 0.4560 0.4520
7.771529 0.4480 0.4440 0.4410 0.4370 0.4340
7.796000 0.4330 0.4330 0.4330 0.4420 0.4490
7.820529 0.4580 0.4650 0.4660 0.4660 0.4670
7.845000 0.4690 0.4700 0.4700 0.4720 0.4720
7.869529 0.4590 0.4260 0.4050 0.3930 0.3910
7.894000 0.3870 0.3830 0.3800 0.3790 0.3800
7.918529 0.3830 0.3860 0.3880 0.3920 0.3980
7.943000 0.4030 0.4090 0.4140 0.4160 0.4390
7.967529 0.4410 0.4420 0.4420 0.4150 0.3870
7.992000 0.3600 0.3390 0.3190 0.3000 0.2800
8.016529 0.2780 0.2730 0.2660 0.2580 0.2510
8.041000 0.2450 0.2450 0.2450 0.2450 0.2450
8.065529 0.2450 0.2440 0.2440 0.2450 0.2450
8.090000 0.2450 0.2460 0.2510 0.2560 0.2670
8.114529 0.2770 0.2870 0.2980 0.3110 0.3210
8.139000 0.3340 0.3460 0.3580 0.3700 0.3830
8.163529 0.3970 0.4090 0.4220 0.4340 0.4390
8.188000 0.4480 0.4600 0.4750 0.4900 0.4990
8.212529 0.5060 0.5220 0.5270 0.5320 0.5320
8.237000 0.5320 0.5300 0.5270 0.5210 0.5130
8.261529 0.5050 0.5010 0.4870 0.4830 0.4820
8.286000 0.4830 0.4860 0.4940 0.5010 0.5070
8.310529 0.5160 0.5300 0.5440 0.5510 0.5650
8.336000 0.5720 0.5790 0.5830 0.5900 0.5920
8.360529 0.5940 0.5960 0.6010 0.6010 0.6010
8.385000 0.6010 0.6010 0.6010 0.5990 0.5970
8.409529 0.5960 0.5910 0.5850 0.5790 0.5780
8.434000 0.5690 0.5610 0.5580 0.5520 0.5510
8.458529 0.5500 0.5390 0.5320 0.5210 0.5120
8.483000 0.4780 0.4710 0.4560 0.4410 0.4300
8.507529 0.4190 0.3990 0.3850 0.3640 0.3420
8.532000 0.3300 0.3240 0.3060 0.2900 0.2730
8.556529 0.2610 0.2550 0.2530 0.2520 0.2510
8.581000 0.2500 0.2470 0.2470 0.2470 0.2460
8.605529 0.2460 0.2450 0.2460 0.2460 0.2460
8.630000 0.2460 0.2460 0.2490 0.2500 0.2500
8.654529 0.2530 0.2580 0.2610 0.2670 0.2690
8.679000 0.2860 0.2960 0.3030 0.3090 0.3130
8.703529 0.3180 0.3180 0.2980 0.2940 0.2830
8.728000 0.2780 0.2610 0.2400 0.2410 0.2400
8.752529 0.2390 0.2360 0.2330 0.2300 0.2290
8.777000 0.2280 0.2300 0.2400 0.2450 0.2460
8.801529 0.2470 0.2470 0.2470 0.2470 0.2460
8.826000 0.2450 0.2430 0.2390 0.2380 0.2340
8.850529 0.2290 0.2220 0.2190 0.2110 0.2050
8.875000 0.2020 0.2000 0.1990 0.1960 0.1890
8.899529 0.1840 0.1740 0.1650 0.1550 0.1370
8.924000 0.1260 0.1160 0.1100 0.1090 0.1080
8.948529 0.1080 0.1050 0.1030 0.1020 0.1030
8.973000 0.1030 0.1040 0.1050 0.1060 0.1080
8.997529 0.1090 0.1100 0.1140 0.1190 0.1200
9.022000 0.1200 0.1210 0.1230 0.1250 0.1260
9.046529 0.1270 0.1280 0.1340 0.1400 0.1470
9.071000 0.1550 0.1940 0.2180 0.2340 0.2430
9.095529 0.2490 0.2500 0.2510 0.2550 0.2580
9.120000 0.2660 0.2780 0.2790 0.2800 0.2850
9.144529 0.2960 0.3040 0.3120 0.3180 0.3240
9.169000 0.3300 0.3360 0.3430 0.3490 0.3510
9.193529 0.3570 0.3600 0.3590 0.3540 0.3420
9.218000 0.3340 0.3310 0.3290 0.3240 0.3170
9.242529 0.3080 0.2950 0.2640 0.2500 0.2320
9.267000 0.2270 0.2220 0.2170 0.2110 0.2100
9.291529 0.2100 0.2100 0.2100 0.2110 0.2180
9.316000 0.2260 0.2340 0.2380 0.2400 0.2430
9.340529 0.2460 0.2490 0.2510 0.2520 0.2550
9.365000 0.2570 0.2610 0.2640 0.2680 0.2700
9.389529 0.2730 0.2750 0.2800 0.2830 0.2860
9.414000 0.2870 0.2860 0.2850 0.2840 0.2830
9.438529 0.2810 0.2810 0.2800 0.2800 0.2770
9.463000 0.2750 0.2750 0.2750 0.2780 0.2860
9.487529 0.2900 0.2910 0.2940 0.2980 0.3000
9.512000 0.3030 0.3080 0.3190 0.3290 0.3360
9.536529 0.3430 0.3490 0.3560 0.3600 0.3660
9.562000 0.3710 0.3830 0.3930 0.4020 0.4080
9.586529 0.4140 0.4190 0.4250 0.4310 0.4380
9.611000 0.4450 0.4500 0.4520 0.4520 0.4530
9.635529 0.4530 0.4540 0.4540 0.4530 0.4500
9.660000 0.4490 0.4480 0.4470 0.4440 0.4420
9.684529 0.4410 0.4420 0.4480 0.4540 0.4600
9.709000 0.4650 0.4710 0.4760 0.4810 0.4820
9.733529 0.4820 0.4830 0.4840 0.4860 0.4860
9.758000 0.4860 0.4860 0.4840 0.4870 0.4870
9.782529 0.4880 0.4890 0.4920 0.4940 0.4950
9.807000 0.4960 0.4960 0.4980 0.4990 0.5000
9.831529 0.5010 0.5030 0.5090 0.5120 0.5150
9.856000 0.5170 0.5200 0.5230 0.5270 0.5280
9.880529 0.5300 0.5320 0.5370 0.5400 0.5430
9.905000 0.5440 0.5460 0.5500 0.5550 0.5610
9.929529 0.5630 0.5660 0.5660 0.5660 0.5670
9.954000 0.5680 0.5710 0.5750 0.5820 0.5890
9.978529 0.5940 0.5960 0.5990 0.6010 0.6020
10.003000 0.6070 0.6120 0.6200 0.6220 0.6220
10.027529 0.6220 0.6220 0.6220 0.6220 0.6220
10.052000 0.6220 0.6240 0.6290 0.6350 0.6390
10.076529 0.6410 0.6430 0.6450 0.6470 0.6500
10.101000 0.6520 0.6530 0.6560 0.6570 0.6580
10.125529 0.6590 0.6590 0.6590 0.6590 0.6620
10.150000 0.6640 0.6650 0.6680 0.6690 0.6690
10.174529 0.6680 0.6680 0.6670 0.6690 0.6690
10.199000 0.6700 0.6710 0.6730 0.6730 0.6790
10.223529 0.6810 0.6810 0.6810 0.6810 0.6810
10.248000 0.6810 0.6810 0.6810 0.6800 0.6700
10.272529 0.6590 0.6260 0.6180 0.6060 0.6000
10.297000 0.5950 0.5880 0.5800 0.5740 0.5730
10.321529 0.5720 0.5710 0.5710 0.5710 0.5710
10.346000 0.5720 0.5740 0.5770 0.5800 0.5840
10.370529 0.5880 0.5910 0.5950 0.5950 0.5970
10.395000 0.5990 0.6010 0.6020 0.6020 0.6020
10.419529 0.6020 0.6020 0.6020 0.6020 0.6020
10.444000 0.6020 0.6020 0.6020 0.6050 0.6090
10.468529 0.6120 0.6120 0.6120 0.6120 0.6160
10.493000 0.6200 0.6280 0.6360 0.6420 0.6470
10.517529 0.6480 0.6480 0.6480 0.6480 0.6480
10.542000 0.6480 0.6480 0.6460 0.6450 0.6430
10.566529 0.6400 0.6360 0.6350 0.6330 0.6310
10.591000 0.6290 0.6240 0.6180 0.6130 0.6110
10.615529 0.6050 0.5950 0.5770 0.5620 0.5570
10.640000 0.5520 0.5500 0.5500 0.5430 0.5410
10.664529 0.5390 0.5320 0.5280 0.5200 0.5110
10.689000 0.5000 0.4870 0.4810 0.4750 0.4720
10.713529 0.4700 0.4690 0.4670 0.4690 0.4690
10.738000 0.4710 0.4750 0.4780 0.4940 0.5030
10.762529 0.5100 0.5230 0.5380 0.5520 0.5630
10.787000 0.5740 0.5820 0.5950 0.6070 0.6140
10.811529 0.6170 0.6200 0.6240 0.6280 0.6300
10.837000 0.6300 0.6300 0.6300 0.6300 0.6300
10.861529 0.6300 0.6290 0.6290 0.6230 0.6130
10.886000 0.6000 0.5880 0.5750 0.5660 0.5600
10.910529 0.5600 0.5540 0.5430 0.5270 0.5180
10.935000 0.5060 0.5060 0.5040 0.5000 0.4990
10.959529 0.4990 0.4990 0.5000 0.5000 0.5050
10.984000 0.5150 0.5200 0.5240 0.5290 0.5380
11.008529 0.5540 0.5750 0.5820 0.5880 0.5950
11.033000 0.6010 0.6090 0.6170 0.6200 0.6280
11.057529 0.6290 0.6360 0.6410 0.6430 0.6460
11.082000 0.6500 0.6540 0.6630 0.6670 0.6700
11.106529 0.6710 0.6710 0.6730 0.6740 0.6800
11.131000 0.6860 0.6880 0.6910 0.6930 0.6950
11.155529 0.6970 0.6990 0.6990 0.7010 0.7010
11.180000 0.7010 0.7010 0.7010 0.6970 0.6920
11.204529 0.6880 0.6840 0.6820 0.6800 0.6740
11.229000 0.6560 0.6500 0.6460 0.6390 0.6310
11.253529 0.6220 0.6130 0.6050 0.6000 0.5860
11.278000 0.5860 0.5790 0.5780 0.5780 0.5780
11.302529 0.5800 0.5940 0.5950 0.5950 0.5960
11.327000 0.5970 0.5960 0.5960 0.5950 0.5950
11.351529 0.5950 0.5920 0.5910 0.5910 0.5910
11.376000 0.5910 0.5910 0.5910 0.5940 0.5990
11.400529 0.6020 0.6060 0.6080 0.6120 0.6160
11.425000 0.6190 0.6220 0.6240 0.6280 0.6290
11.449529 0.6300 0.6310 0.6310 0.6330 0.6330
11.474000 0.6330 0.6310 0.6300 0.6290 0.6290
11.498529 0.6260 0.6200 0.6190 0.6140 0.6070
11.523000 0.6010 0.5970 0.5940 0.5900 0.5820
11.547529 0.5790 0.5770 0.5750 0.5780 0.5840
11.572000 0.5880 0.5920 0.5990 0.6010 0.6020
11.596529 0.6060 0.6120 0.6180 0.6240 0.6290
11.621000 0.6300 0.6310 0.6310 0.6310 0.6300
11.645529 0.6280 0.6260 0.6250 0.6250 0.6240
11.670000 0.6240 0.6250 0.6280 0.6310 0.6390
11.694529 0.6450 0.6510 0.6560 0.6700 0.6840
11.719000 0.6880 0.6990 0.7150 0.7290 0.7410
11.743529 0.7440 0.7490 0.7500 0.7500 0.7520
11.768000 0.7540 0.7600 0.7630 0.7640 0.7650
11.792529 0.7710 0.7760 0.7800 0.7820 0.7830
11.817000 0.7840 0.7860 0.7860 0.7860 0.7860
11.841529 0.7860 0.7860 0.7860 0.7830 0.7830
11.866000 0.7810 0.7780 0.7700 0.7660 0.7650
11.890529 0.7640 0.7600 0.7520 0.7350 0.7300
11.915000 0.7250 0.7240 0.7240 0.7260 0.7290
11.939529 0.7310 0.7330 0.7350 0.7360 0.7380
11.964000 0.7390 0.7410 0.7430 0.7460 0.7470
11.988529 0.7490 0.7540 0.7590 0.7720 0.7750
12.013000 0.7770 0.7800 0.7820 0.7820 0.7820
12.037529 0.7810 0.7800 0.7800 0.7770 0.7760
12.063000 0.7730 0.7720 0.7710 0.7700 0.7670
12.087529 0.7610 0.7550 0.7380 0.7260 0.7130
12.112000 0.6960 0.6740 0.6470 0.6140 0.6000
12.136529 0.5670 0.5410 0.5150 0.4830 0.4710
12.161000 0.4660 0.4600 0.4540 0.4520 0.4520
12.185529 0.4500 0.4500 0.4500 0.4500 0.4500
12.210000 0.4520 0.4540 0.4550 0.4580 0.4660
12.234529 0.4760 0.4880 0.4990 0.5100 0.5280
12.259000 0.5440 0.5750 0.5960 0.6050 0.6160
12.283529 0.6200 0.6280 0.6300 0.6390 0.6470
12.308000 0.6570 0.6670 0.6780 0.6860 0.6910
12.332529 0.6960 0.6990 0.7040 0.7080 0.7120
12.357000 0.7150 0.7190 0.7220 0.7260 0.7270
12.381529 0.7300 0.7310 0.7320 0.7350 0.7370
12.406000 0.7460 0.7480 0.7500 0.7530 0.7580
12.430529 0.7640 0.7690 0.7730 0.7760 0.7760
12.455000 0.7770 0.7770 0.7770 0.7800 0.7870
12.479529 0.7890 0.7920 0.7920 0.7920 0.7920
12.504000 0.7920 0.7920 0.7920 0.7920 0.7930
12.528529 0.7930 0.7930 0.7930 0.7950 0.7950
12.553000 0.8000 0.8030 0.8030 0.8010 0.8010
12.577529 0.8000 0.8000 0.8000 0.8010 0.8030
12.602000 0.8040 0.8050 0.8060 0.8050 0.8120
12.626529 0.8180 0.8200 0.8210 0.8210 0.8210
12.651000 0.8210 0.8210 0.8210 0.8210 0.8210
12.675529 0.8210 0.8210 0.8210 0.8210 0.8210
12.700000 0.8210 0.8210 0.8200 0.8180 0.8170
12.724529 0.8170 0.8160 0.8160 0.8160 0.8180
12.749000 0.8210 0.8210 0.8210 0.8210 0.8210
12.773529 0.8210 0.8210 0.8210 0.8210 0.8210
12.798000 0.8210 0.8210 0.8200 0.8180 0.8160
12.822529 0.8160 0.8150 0.8150 0.8150 0.8150
12.847000 0.8150 0.8150 0.8150 0.8150 0.8150
12.871529 0.8150 0.8150 0.8150 0.8150 0.8150
12.896000 0.8150 0.8150 0.8140 0.8120 0.8100
12.920529 0.8080 0.8040 0.8030 0.8010 0.8010
12.945000 0.8010 0.8000 0.8000 0.7990 0.7950
12.969529 0.7890 0.7870 0.7830 0.7800 0.7750
12.994000 0.7700 0.7670 0.7640 0.7610 0.7560
13.018529 0.7500 0.7390 0.7360 0.7320 0.7270
13.043000 0.7160 0.7150 0.7100 0.7080 0.7070
13.067529 0.7050 0.7050 0.7050 0.7070 0.7070
13.092000 0.7080 0.7090 0.7130 0.7140 0.7140
13.116529 0.7140 0.7130 0.7130 0.7120 0.7040
13.141000 0.7020 0.6970 0.6920 0.6910 0.6870
13.165529 0.6840 0.6710 0.6630 0.6540 0.6450
13.190000 0.6350 0.6220 0.6070 0.5890 0.5830
13.214529 0.5690 0.5520 0.5350 0.5210 0.5040
13.239000 0.4710 0.4600 0.4470 0.4370 0.4260
13.263529 0.4110 0.3990 0.3900 0.3810 0.3760
13.289000 0.3730 0.3710 0.3710 0.3710 0.3710
13.313529 0.3710 0.3740 0.3770 0.3790 0.3800
13.338000 0.3800 0.3800 0.3800 0.3790 0.3790
13.362529 0.3740 0.3710 0.3690 0.3660 0.3640
13.387000 0.3620 0.3590 0.3560 0.3560 0.3540
13.411529 0.3540 0.3540 0.3570 0.3730 0.3830
13.436000 0.3980 0.4110 0.4260 0.4320 0.4430
13.460529 0.4710 0.4930 0.5000 0.5060 0.5220
13.485000 0.5380 0.5470 0.5560 0.5650 0.5820
13.509529 0.6000 0.6030 0.6060 0.6110 0.6130
13.534000 0.6170 0.6190 0.6300 0.6360 0.6410
13.558529 0.6430 0.6460 0.6480 0.6510 0.6520
13.583000 0.6620 0.6640 0.6670 0.6760 0.6810
13.607529 0.6820 0.6820 0.6820 0.6820 0.6810
13.632000 0.6810 0.6810 0.6810 0.6810 0.6800
13.656529 0.6790 0.6790 0.6800 0.6800 0.6800
13.681000 0.6800 0.6810 0.6810 0.6810 0.6820
13.705529 0.6820 0.6840 0.6840 0.6840 0.6840
13.730000 0.6850 0.6850 0.6870 0.6900 0.6900
13.754529 0.6910 0.6920 0.6960 0.7030 0.7150
13.779000 0.7180 0.7210 0.7210 0.7210 0.7210
13.803529 0.7210 0.7210 0.7150 0.7130 0.7050
13.828000 0.6960 0.6800 0.6700 0.6600 0.6500
13.852529 0.6450 0.6420 0.6420 0.6420 0.6420
13.877000 0.6420 0.6420 0.6420 0.6450 0.6470
13.901529 0.6500 0.6620 0.6690 0.6810 0.6910
13.926000 0.7020 0.7090 0.7150 0.7200 0.7250
13.950529 0.7310 0.7360 0.7430 0.7480 0.7530
13.975000 0.7640 0.7670 0.7690 0.7710 0.7730
13.999529 0.7760 0.7780 0.7830 0.7880 0.7920
14.024000 0.7930 0.7940 0.7950 0.7980 0.7990
14.048529 0.7990 0.8000 0.8010 0.8010 0.8030
14.073000 0.8030 0.8030 0.8030 0.8040 0.8040
14.097529 0.8040 0.8050 0.8050 0.8050 0.8060
14.122000 0.8060 0.8080 0.8080 0.8080 0.8090
14.146529 0.8100 0.8100 0.8110 0.8110 0.8110
14.171000 0.8140 0.8160 0.8170 0.8180 0.8180
14.195529 0.8180 0.8170 0.8150 0.8140 0.8120
14.220000 0.8100 0.8090 0.8080 0.8060 0.8050
14.244529 0.8030 0.8010 0.7990 0.7950 0.7920
14.269000 0.7880 0.7840 0.7810 0.7780 0.7730
14.293529 0.7610 0.7550 0.7360 0.7330 0.7290
14.318000 0.7260 0.7250 0.7220 0.7220 0.7220
14.342529 0.7220 0.7220 0.7260 0.7290 0.7310
14.367000 0.7320 0.7380 0.7470 0.7520 0.7560
14.391529 0.7650 0.7720 0.7730 0.7820 0.7890
14.416000 0.7930 0.7930 0.7940 0.7940 0.7950
14.440529 0.7950 0.7980 0.7990 0.8000 0.8000
14.465000 0.8030 0.8030 0.8040 0.8040 0.8050
14.489529 0.8050 0.8060 0.8060 0.8080 0.8080
14.515000 0.8100 0.8110 0.8120 0.8120 0.8120
14.539529 0.8120 0.8120 0.8110 0.8100 0.8090
14.564000 0.8080 0.8060 0.8050 0.8050 0.8050
14.588529 0.8040 0.8040 0.8030 0.8030 0.8030
14.613000 0.8030 0.8030 0.8030 0.8050 0.8040
14.637529 0.8040 0.8040 0.8030 0.8030 0.8010
14.662000 0.8010 0.8000 0.7990 0.7980 0.7950
14.686529 0.7940 0.7940 0.7930 0.7930 0.7920
14.711000 0.7890 0.7870 0.7860 0.7840 0.7820
14.735529 0.7800 0.7770 0.7760 0.7730 0.7720
14.760000 0.7710 0.7700 0.7670 0.7660 0.7660
14.784529 0.7660 0.7660 0.7660 0.7660 0.7660
##END=
