##TITLE=ADENINE, 3-BENZYL-N,N-DIMETHYL-, HYDROCHLORIDE
##JCAMP-DX=4.24
##DATA TYPE=INFRARED SPECTRUM
##CLASS=COBLENTZ III
##ORIGIN=SOUTHERN RESEARCH INST.
##OWNER=COBLENTZ SOCIETY
Collection (C) 2018 copyright by the U.S. Secretary of Commerce
on behalf of the United States of America. All rights reserved.
##DATE=1963/02/08
##NAMES=N-(3-benzyl-3H-purin-6-yl)-N,N-dimethylamine hydrochloride
##MOLFORM=C14 H16 Cl N5
##SOURCE REFERENCE=COBLENTZ NO. 9909
##$NIST ID=B6009909
##$NIST SOURCE=COBLENTZ
##$NIST IMAGE=cob9909
##SPECTROMETER/DATA SYSTEM=PERKIN-ELMER 221 (GRATING)
##INSTRUMENT PARAMETERS=FILTER CHANGES AT 2490, 980 CM^-^1, GRATING FOR 4000-1428 CM^-^1, NaCl PRISM FOR 1428-650 CM^-^1
##STATE=SOLID (0.7 mg / 650 mg KBr DISC)
##SAMPLING PROCEDURE=TRANSMISSION
##RESOLUTION=4
##DATA PROCESSING=DIGITIZED BY NIST FROM HARD COPY
##XUNITS=1/CM
##YUNITS=TRANSMITTANCE
##XFACTOR=1.000000
##YFACTOR=1
##DELTAX=001.603982
##FIRSTX=600.553
##LASTX=4009.02
##FIRSTY=0.779
##MAXX=4009.02
##MINX=600.553
##MAXY=0.937
##MINY=0.07
##NPOINTS=2126
##XYDATA=(X++(Y..Y))
600.553000 0.7790 0.7790 0.7790 0.7790 0.7780
608.576688 0.7770 0.7770 0.7770 0.7770 0.7770
616.593000 0.7780 0.7780 0.7790 0.7880 0.7980
624.616688 0.8070 0.8170 0.8250 0.8440 0.8580
632.633000 0.8660 0.8660 0.8670 0.8680 0.8680
640.656688 0.8680 0.8670 0.8670 0.8670 0.8660
648.673000 0.8650 0.8650 0.8640 0.8630 0.8630
656.696688 0.8620 0.8610 0.8610 0.8600 0.8580
664.712000 0.8570 0.8560 0.8510 0.8440 0.8350
672.735688 0.8280 0.8200 0.8160 0.8150 0.8090
680.752000 0.7980 0.7890 0.7520 0.7230 0.6940
688.775688 0.6490 0.6110 0.5570 0.4900 0.4240
696.792000 0.4240 0.4730 0.5230 0.5730 0.7120
704.815688 0.8010 0.8420 0.8640 0.8650 0.8650
712.832000 0.8660 0.8650 0.8650 0.8640 0.8630
720.855688 0.8570 0.8480 0.8280 0.7990 0.7570
728.872000 0.7010 0.6110 0.5110 0.4340 0.4340
736.895688 0.4620 0.5930 0.6210 0.7440 0.8130
744.911000 0.8640 0.8650 0.8690 0.8770 0.8780
752.934688 0.8780 0.8770 0.8760 0.8670 0.8590
760.951000 0.8430 0.7780 0.7130 0.6450 0.6050
768.974688 0.5660 0.5640 0.5650 0.5740 0.5820
776.991000 0.5900 0.5970 0.5990 0.6020 0.6030
785.014688 0.6040 0.6070 0.6320 0.6330 0.8540
793.031000 0.8550 0.8570 0.8550 0.8540 0.8520
801.054688 0.8500 0.8470 0.8360 0.8270 0.8170
809.071000 0.8080 0.7980 0.7950 0.7880 0.7790
817.094688 0.7690 0.7610 0.7510 0.7420 0.7330
825.111000 0.7230 0.7140 0.6820 0.6710 0.6600
833.134688 0.6500 0.6410 0.6300 0.6200 0.6100
841.150000 0.6100 0.6430 0.6680 0.7040 0.7050
849.173688 0.7180 0.7310 0.7430 0.7560 0.7680
857.190000 0.7810 0.7940 0.8060 0.8320 0.8320
865.213688 0.8390 0.8460 0.8510 0.8510 0.8520
873.230000 0.8510 0.8490 0.8470 0.8450 0.8430
881.253688 0.8410 0.8370 0.8320 0.8280 0.8240
889.270000 0.8200 0.8160 0.8110 0.8070 0.8030
897.293688 0.7790 0.7350 0.7120 0.6900 0.6680
905.310000 0.6420 0.6180 0.5940 0.5700 0.5470
913.333688 0.5240 0.5240 0.5410 0.6560 0.7010
921.350000 0.7370 0.7790 0.8140 0.8450 0.8490
929.373688 0.8470 0.7990 0.7460 0.6980 0.6510
937.389000 0.6260 0.6040 0.6020 0.6660 0.7330
945.412688 0.7900 0.8050 0.8200 0.8460 0.8470
953.429000 0.8430 0.8400 0.8200 0.7550 0.7200
961.452688 0.6860 0.6520 0.6170 0.6170 0.6470
969.469000 0.6780 0.8250 0.8390 0.8420 0.8430
977.492688 0.8420 0.8390 0.8350 0.8330 0.8300
985.509000 0.8280 0.8220 0.8180 0.8150 0.8120
993.532688 0.8090 0.8050 0.8020 0.7990 0.7950
1001.549000 0.7920 0.7890 0.7860 0.7830 0.7790
1009.572688 0.7760 0.7730 0.7490 0.7210 0.6940
1017.589000 0.6670 0.6400 0.6120 0.5850 0.5580
1025.612688 0.5310 0.5050 0.5030 0.5040 0.5340
1033.628000 0.5640 0.5940 0.6240 0.6540 0.6840
1041.651688 0.7010 0.7380 0.7740 0.7750 0.7730
1049.668000 0.7720 0.7690 0.7680 0.7500 0.7490
1057.691688 0.7460 0.7350 0.7200 0.7020 0.6850
1065.708000 0.6680 0.6550 0.6450 0.6290 0.6280
1073.731688 0.6290 0.6300 0.6350 0.6410 0.6530
1081.748000 0.6710 0.6860 0.6940 0.7030 0.7090
1089.771688 0.7160 0.7270 0.7280 0.7280 0.7270
1097.788000 0.7270 0.7260 0.7250 0.7080 0.6670
1105.811688 0.6340 0.6110 0.5980 0.5810 0.5800
1113.827000 0.5820 0.6110 0.6420 0.6570 0.6720
1121.850688 0.7450 0.7650 0.7650 0.7640 0.7640
1129.867000 0.7170 0.6990 0.6900 0.6820 0.6680
1137.890688 0.6390 0.5860 0.5260 0.4970 0.4500
1145.907000 0.4020 0.3560 0.3560 0.3890 0.4210
1153.930688 0.4860 0.4870 0.5170 0.5470 0.5630
1161.947000 0.5950 0.6300 0.6580 0.6790 0.6960
1169.970688 0.7310 0.7300 0.7270 0.7210 0.7050
1177.987000 0.7040 0.7050 0.7240 0.7300 0.7380
1186.010688 0.7500 0.7620 0.7740 0.7840 0.7890
1194.027000 0.8040 0.8050 0.8050 0.8030 0.8000
1202.050688 0.7870 0.7670 0.7460 0.7230 0.7040
1210.066000 0.7020 0.7030 0.7190 0.7350 0.7630
1218.089688 0.7630 0.7390 0.7270 0.7130 0.7010
1226.106000 0.6880 0.6750 0.6620 0.6490 0.6370
1234.129688 0.6240 0.6240 0.6380 0.6750 0.6960
1242.146000 0.7160 0.7270 0.7500 0.7530 0.7530
1250.169688 0.7530 0.7450 0.7340 0.7250 0.7080
1258.186000 0.6890 0.6730 0.6550 0.6530 0.6540
1266.209688 0.6680 0.6820 0.6970 0.7120 0.7230
1274.226000 0.7250 0.7310 0.7320 0.7320 0.7320
1282.249688 0.7330 0.7330 0.7330 0.7330 0.7330
1290.266000 0.7330 0.7330 0.7310 0.7220 0.7200
1298.289688 0.7150 0.7080 0.7010 0.6930 0.6850
1306.305000 0.6790 0.6740 0.6710 0.6710 0.6680
1314.328688 0.6640 0.6570 0.6490 0.6410 0.6340
1322.345000 0.6250 0.6140 0.5770 0.5500 0.5220
1330.368688 0.4920 0.4830 0.4580 0.4320 0.4060
1338.385000 0.3790 0.3790 0.4120 0.4450 0.4780
1346.408688 0.5110 0.5440 0.6180 0.6210 0.6190
1354.425000 0.6190 0.6160 0.6010 0.5930 0.5520
1362.448688 0.5260 0.5080 0.4910 0.4890 0.4880
1370.465000 0.4880 0.4870 0.4490 0.4250 0.4090
1378.488688 0.3910 0.3730 0.3550 0.3370 0.3020
1386.504000 0.2830 0.2650 0.2480 0.2300 0.2120
1394.527688 0.1940 0.1940 0.2440 0.2950 0.3840
1402.544000 0.4020 0.4020 0.4020 0.3470 0.3000
1410.567688 0.2530 0.2080 0.2080 0.2470 0.2480
1418.584000 0.2590 0.2700 0.3080 0.3350 0.3630
1426.607688 0.3890 0.4100 0.4330 0.4340 0.4470
1434.624000 0.4720 0.4840 0.4910 0.4960 0.5080
1442.647688 0.5300 0.5420 0.5440 0.5110 0.4780
1450.664000 0.4460 0.4140 0.4120 0.3790 0.3790
1458.687688 0.4780 0.5290 0.5770 0.5960 0.5970
1466.704000 0.5440 0.5170 0.4900 0.4630 0.4620
1474.727688 0.4350 0.4820 0.5290 0.5740 0.6260
1482.743000 0.6600 0.6610 0.7270 0.7610 0.7600
1490.766688 0.7490 0.7240 0.7000 0.6750 0.6520
1498.783000 0.6270 0.6040 0.6040 0.6490 0.6940
1506.806688 0.7340 0.7680 0.7910 0.7910 0.7910
1514.823000 0.7900 0.7860 0.7770 0.7670 0.7580
1522.846688 0.7510 0.7450 0.7400 0.7360 0.7320
1530.863000 0.7290 0.7260 0.7220 0.7180 0.7130
1538.886688 0.7080 0.7010 0.6940 0.6830 0.6710
1546.903000 0.6640 0.6480 0.6380 0.6260 0.6120
1554.926688 0.6000 0.5870 0.5740 0.5610 0.5480
1562.943000 0.5480 0.5700 0.6000 0.6000 0.5990
1570.966688 0.5930 0.5860 0.5800 0.5740 0.5670
1578.982000 0.5450 0.5310 0.5160 0.5000 0.4850
1587.005688 0.4700 0.4540 0.4400 0.4320 0.4250
1595.022000 0.4180 0.4100 0.4030 0.3960 0.3880
1603.045688 0.3860 0.3840 0.3840 0.3820 0.3820
1611.062000 0.3720 0.3580 0.3400 0.3200 0.2980
1619.085688 0.2750 0.2500 0.2240 0.2000 0.1750
1627.102000 0.1520 0.1300 0.1110 0.1030 0.0940
1635.125688 0.0800 0.0700 0.0700 0.0780 0.1010
1643.142000 0.1170 0.1330 0.1490 0.1560 0.1740
1651.165688 0.1990 0.2270 0.2540 0.2790 0.2970
1659.181000 0.3050 0.3200 0.3240 0.3490 0.3730
1667.204688 0.3750 0.3980 0.4350 0.4600 0.4730
1675.221000 0.4970 0.5110 0.5360 0.5590 0.5820
1683.244688 0.6040 0.6260 0.6470 0.6670 0.6860
1691.261000 0.7050 0.7230 0.7400 0.7560 0.7720
1699.284688 0.7870 0.8010 0.8140 0.8270 0.8390
1707.301000 0.8500 0.8600 0.8700 0.8790 0.8880
1715.324688 0.8950 0.9020 0.9090 0.9140 0.9190
1723.341000 0.9240 0.9270 0.9300 0.9320 0.9330
1731.364688 0.9340 0.9350 0.9350 0.9340 0.9330
1739.380000 0.9330 0.9320 0.9320 0.9320 0.9310
1747.403688 0.9300 0.9290 0.9290 0.9290 0.9290
1755.420000 0.9290 0.9290 0.9310 0.9320 0.9320
1763.443688 0.9340 0.9350 0.9360 0.9360 0.9370
1771.460000 0.9370 0.9360 0.9360 0.9360 0.9360
1779.483688 0.9360 0.9350 0.9340 0.9330 0.9320
1787.500000 0.9310 0.9300 0.9300 0.9300 0.9290
1795.523688 0.9280 0.9270 0.9240 0.9150 0.8940
1803.540000 0.8830 0.8670 0.8530 0.8320 0.8320
1811.563688 0.8720 0.8730 0.8960 0.9070 0.9090
1819.580000 0.9110 0.9130 0.9150 0.9190 0.9240
1827.603688 0.9260 0.9290 0.9290 0.9310 0.9310
1835.620000 0.9310 0.9310 0.9310 0.9310 0.9310
1843.643688 0.9310 0.9300 0.9300 0.9290 0.9290
1851.659000 0.9280 0.9260 0.9240 0.9210 0.9200
1859.682688 0.9180 0.9160 0.9140 0.9120 0.9100
1867.699000 0.9090 0.9070 0.9060 0.9060 0.9040
1875.722688 0.9030 0.9020 0.9000 0.8990 0.8980
1883.739000 0.8960 0.8950 0.8950 0.8940 0.8930
1891.762688 0.8920 0.8910 0.8890 0.8880 0.8870
1899.779000 0.8850 0.8840 0.8820 0.8800 0.8790
1907.802688 0.8770 0.8760 0.8740 0.8730 0.8710
1915.819000 0.8700 0.8690 0.8670 0.8660 0.8650
1923.842688 0.8600 0.8560 0.8530 0.8500 0.8470
1931.858000 0.8440 0.8390 0.8360 0.8350 0.8350
1939.881688 0.8330 0.8250 0.8120 0.7990 0.7860
1947.898000 0.7730 0.7610 0.7610 0.7650 0.7930
1955.921688 0.8220 0.8470 0.8500 0.8500 0.8500
1963.938000 0.8500 0.8490 0.8480 0.8470 0.8470
1971.961688 0.8470 0.8460 0.8450 0.8450 0.8440
1979.978000 0.8440 0.8440 0.8430 0.8420 0.8400
1988.001688 0.8390 0.8380 0.8370 0.8350 0.8350
1996.018000 0.8340 0.8330 0.8320 0.8310 0.8310
2004.041688 0.8300 0.8300 0.8290 0.8280 0.8280
2012.057000 0.8280 0.8270 0.8270 0.8260 0.8260
2020.080688 0.8250 0.8250 0.8240 0.8240 0.8240
2028.097000 0.8230 0.8230 0.8220 0.8220 0.8220
2036.120688 0.8210 0.8210 0.8200 0.8200 0.8190
2044.137000 0.8190 0.8180 0.8170 0.8170 0.8170
2052.160688 0.8160 0.8150 0.8150 0.8140 0.8130
2060.177000 0.8120 0.8100 0.8090 0.8080 0.8070
2068.200688 0.8060 0.8050 0.8050 0.8040 0.8030
2076.217000 0.8020 0.8010 0.8010 0.8000 0.7990
2084.240688 0.7980 0.7980 0.7970 0.7960 0.7950
2092.257000 0.7940 0.7940 0.7930 0.7920 0.7910
2100.280688 0.7910 0.7900 0.7890 0.7880 0.7870
2108.296000 0.7870 0.7860 0.7850 0.7840 0.7830
2116.319688 0.7830 0.7830 0.7830 0.7820 0.7820
2124.336000 0.7810 0.7810 0.7800 0.7800 0.7790
2132.359688 0.7790 0.7790 0.7790 0.7790 0.7780
2140.376000 0.7780 0.7780 0.7770 0.7770 0.7770
2148.399688 0.7760 0.7760 0.7750 0.7740 0.7730
2156.416000 0.7730 0.7720 0.7720 0.7720 0.7720
2164.439688 0.7710 0.7710 0.7700 0.7700 0.7690
2172.456000 0.7690 0.7680 0.7680 0.7680 0.7660
2180.479688 0.7650 0.7640 0.7620 0.7610 0.7600
2188.496000 0.7580 0.7570 0.7570 0.7550 0.7540
2196.519688 0.7530 0.7530 0.7520 0.7510 0.7500
2204.535000 0.7500 0.7500 0.7500 0.7490 0.7480
2212.558688 0.7480 0.7470 0.7460 0.7460 0.7460
2220.575000 0.7450 0.7450 0.7440 0.7430 0.7430
2228.598688 0.7420 0.7400 0.7390 0.7380 0.7370
2236.615000 0.7360 0.7350 0.7350 0.7340 0.7330
2244.638688 0.7310 0.7300 0.7280 0.7260 0.7250
2252.655000 0.7230 0.7230 0.7220 0.7210 0.7200
2260.678688 0.7200 0.7190 0.7170 0.7160 0.7160
2268.695000 0.7150 0.7140 0.7120 0.7110 0.7100
2276.718688 0.7080 0.7080 0.7070 0.7050 0.7050
2284.735000 0.7050 0.7030 0.7010 0.6980 0.6970
2292.758688 0.6960 0.6940 0.6930 0.6900 0.6900
2300.774000 0.6900 0.6890 0.6870 0.6860 0.6860
2308.797688 0.6850 0.6830 0.6820 0.6820 0.6810
2316.814000 0.6790 0.6780 0.6760 0.6750 0.6740
2324.837688 0.6730 0.6720 0.6710 0.6700 0.6680
2332.854000 0.6660 0.6650 0.6630 0.6630 0.6620
2340.877688 0.6610 0.6600 0.6590 0.6570 0.6560
2348.894000 0.6540 0.6520 0.6500 0.6490 0.6460
2356.917688 0.6460 0.6450 0.6450 0.6440 0.6430
2364.934000 0.6410 0.6410 0.6400 0.6400 0.6390
2372.957688 0.6380 0.6370 0.6360 0.6340 0.6340
2380.973000 0.6330 0.6310 0.6300 0.6290 0.6290
2388.996688 0.6270 0.6260 0.6230 0.6220 0.6200
2397.013000 0.6180 0.6160 0.6150 0.6130 0.6110
2405.036688 0.6100 0.6080 0.6060 0.6040 0.6020
2413.053000 0.6000 0.5980 0.5960 0.5930 0.5920
2421.076688 0.5900 0.5900 0.5890 0.5870 0.5850
2429.093000 0.5840 0.5820 0.5810 0.5790 0.5780
2437.116688 0.5760 0.5740 0.5730 0.5710 0.5690
2445.133000 0.5680 0.5670 0.5650 0.5640 0.5630
2453.156688 0.5610 0.5600 0.5590 0.5570 0.5570
2461.173000 0.5560 0.5540 0.5520 0.5500 0.5480
2469.196688 0.5470 0.5370 0.5330 0.5280 0.5240
2477.212000 0.5180 0.5170 0.5180 0.5270 0.5360
2485.235688 0.5370 0.5370 0.5310 0.5250 0.5180
2493.252000 0.5130 0.5070 0.5040 0.5020 0.5020
2501.275688 0.5020 0.5000 0.5000 0.4980 0.4960
2509.292000 0.4940 0.4920 0.4900 0.4880 0.4850
2517.315688 0.4840 0.4820 0.4810 0.4800 0.4780
2525.332000 0.4790 0.4780 0.4770 0.4730 0.4700
2533.355688 0.4660 0.4620 0.4580 0.4540 0.4500
2541.372000 0.4470 0.4440 0.4430 0.4420 0.4380
2549.395688 0.4330 0.4300 0.4260 0.4230 0.4210
2557.412000 0.4180 0.4160 0.4140 0.4130 0.4120
2565.435688 0.4110 0.4110 0.4100 0.4100 0.4100
2573.451000 0.4100 0.4100 0.4130 0.4140 0.4140
2581.474688 0.4150 0.4160 0.4160 0.4150 0.4150
2589.491000 0.4140 0.4140 0.4070 0.4020 0.3990
2597.514688 0.3950 0.3920 0.3900 0.3880 0.3850
2605.531000 0.3820 0.3800 0.3790 0.3780 0.3770
2613.554688 0.3760 0.3730 0.3710 0.3680 0.3650
2621.571000 0.3640 0.3640 0.3620 0.3610 0.3560
2629.594688 0.3490 0.3470 0.3470 0.3460 0.3440
2637.611000 0.3430 0.3420 0.3410 0.3400 0.3390
2645.634688 0.3390 0.3390 0.3390 0.3380 0.3380
2653.650000 0.3380 0.3390 0.3390 0.3390 0.3390
2661.673688 0.3390 0.3400 0.3410 0.3420 0.3430
2669.690000 0.3430 0.3440 0.3460 0.3470 0.3490
2677.713688 0.3500 0.3530 0.3540 0.3550 0.3650
2685.730000 0.3660 0.3680 0.3690 0.3720 0.3750
2693.753688 0.3800 0.3850 0.3910 0.3940 0.3950
2701.770000 0.3960 0.3960 0.3960 0.3960 0.3960
2709.793688 0.3960 0.3960 0.3970 0.3980 0.3990
2717.810000 0.4000 0.4010 0.4020 0.4030 0.4050
2725.833688 0.4060 0.4060 0.4070 0.4080 0.4100
2733.850000 0.4110 0.4140 0.4160 0.4180 0.4210
2741.873688 0.4240 0.4270 0.4310 0.4340 0.4380
2749.889000 0.4410 0.4450 0.4490 0.4530 0.4580
2757.912688 0.4620 0.4660 0.4700 0.4740 0.4780
2765.929000 0.4820 0.4860 0.4900 0.4920 0.4920
2773.952688 0.4930 0.4980 0.5030 0.5070 0.5080
2781.969000 0.5100 0.5130 0.5160 0.5180 0.5210
2789.992688 0.5270 0.5350 0.5370 0.5440 0.5440
2798.009000 0.5460 0.5460 0.5460 0.5460 0.5460
2806.032688 0.5450 0.5440 0.5440 0.5440 0.5430
2814.049000 0.5420 0.5410 0.5410 0.5410 0.5410
2822.072688 0.5400 0.5390 0.5370 0.5370 0.5360
2830.089000 0.5360 0.5350 0.5340 0.5340 0.5330
2838.112688 0.5330 0.5310 0.5290 0.5280 0.5270
2846.128000 0.5260 0.5260 0.5260 0.5260 0.5230
2854.151688 0.5210 0.5180 0.5160 0.5130 0.5110
2862.168000 0.5090 0.5060 0.5030 0.5000 0.5000
2870.191688 0.4990 0.4990 0.4990 0.4980 0.4980
2878.208000 0.4980 0.4990 0.4990 0.5000 0.5000
2886.231688 0.5000 0.5000 0.5000 0.5010 0.5010
2894.248000 0.5010 0.5000 0.5000 0.5000 0.5000
2902.271688 0.4980 0.4960 0.4940 0.4910 0.4870
2910.288000 0.4840 0.4810 0.4790 0.4780 0.4770
2918.311688 0.4770 0.4760 0.4760 0.4770 0.4770
2926.327000 0.4770 0.4800 0.4810 0.4860 0.4880
2934.350688 0.4920 0.4960 0.5040 0.5110 0.5160
2942.367000 0.5200 0.5240 0.5270 0.5290 0.5310
2950.390688 0.5330 0.5330 0.5340 0.5330 0.5320
2958.407000 0.5290 0.5270 0.5230 0.5150 0.5100
2966.430688 0.5070 0.5070 0.5070 0.5160 0.5250
2974.447000 0.5330 0.5400 0.5460 0.5510 0.5540
2982.470688 0.5550 0.5570 0.5590 0.5600 0.5590
2990.487000 0.5580 0.5550 0.5530 0.5500 0.5460
2998.510688 0.5430 0.5380 0.5350 0.5330 0.5340
3006.527000 0.5380 0.5440 0.5530 0.5630 0.5740
3014.550688 0.5830 0.5910 0.5950 0.6040 0.6040
3022.566000 0.6040 0.6040 0.6030 0.5990 0.5940
3030.589688 0.5900 0.5820 0.5780 0.5750 0.5690
3038.606000 0.5670 0.5680 0.5820 0.5890 0.6010
3046.629688 0.6100 0.6180 0.6230 0.6270 0.6300
3054.646000 0.6330 0.6340 0.6340 0.6340 0.6350
3062.669688 0.6350 0.6350 0.6360 0.6370 0.6450
3070.686000 0.6460 0.6510 0.6560 0.6590 0.6620
3078.709688 0.6640 0.6660 0.6670 0.6680 0.6670
3086.726000 0.6680 0.6680 0.6680 0.6680 0.6680
3094.749688 0.6680 0.6680 0.6680 0.6680 0.6670
3102.766000 0.6670 0.6670 0.6640 0.6600 0.6520
3110.789688 0.6490 0.6460 0.6450 0.6420 0.6390
3118.805000 0.6250 0.6120 0.6040 0.5890 0.5880
3126.828688 0.5890 0.5990 0.6390 0.6640 0.7010
3134.845000 0.7010 0.7030 0.7080 0.7080 0.7090
3142.868688 0.7100 0.7100 0.7100 0.7100 0.7100
3150.885000 0.7100 0.7100 0.7090 0.7090 0.7090
3158.908688 0.7090 0.7090 0.7090 0.7090 0.7090
3166.925000 0.7090 0.7080 0.7080 0.7080 0.7080
3174.948688 0.7080 0.7080 0.7080 0.7070 0.7070
3182.965000 0.7070 0.7060 0.7060 0.7060 0.7050
3190.988688 0.7050 0.7040 0.7040 0.7030 0.7020
3199.004000 0.7010 0.7010 0.7010 0.7000 0.6990
3207.027688 0.6980 0.6970 0.6970 0.6970 0.6960
3215.044000 0.6950 0.6940 0.6940 0.6940 0.6930
3223.067688 0.6920 0.6920 0.6910 0.6900 0.6900
3231.084000 0.6890 0.6890 0.6880 0.6870 0.6860
3239.107688 0.6860 0.6860 0.6850 0.6840 0.6840
3247.124000 0.6830 0.6830 0.6820 0.6820 0.6820
3255.147688 0.6810 0.6810 0.6800 0.6790 0.6790
3263.164000 0.6790 0.6780 0.6780 0.6770 0.6760
3271.187688 0.6760 0.6750 0.6750 0.6750 0.6740
3279.204000 0.6730 0.6720 0.6710 0.6710 0.6710
3287.227688 0.6700 0.6690 0.6680 0.6670 0.6670
3295.243000 0.6670 0.6660 0.6650 0.6650 0.6640
3303.266688 0.6640 0.6630 0.6620 0.6620 0.6610
3311.283000 0.6610 0.6600 0.6590 0.6580 0.6570
3319.306688 0.6560 0.6560 0.6550 0.6540 0.6540
3327.323000 0.6530 0.6520 0.6510 0.6500 0.6490
3335.346688 0.6480 0.6470 0.6460 0.6450 0.6450
3343.363000 0.6440 0.6410 0.6390 0.6380 0.6360
3351.386688 0.6350 0.6340 0.6330 0.6310 0.6300
3359.403000 0.6290 0.6270 0.6250 0.6220 0.6220
3367.426688 0.6210 0.6200 0.6190 0.6160 0.6120
3375.443000 0.6100 0.6080 0.6070 0.6050 0.6010
3383.466688 0.6000 0.5990 0.5980 0.5970 0.5970
3391.482000 0.5960 0.5950 0.5940 0.5930 0.5930
3399.505688 0.5930 0.5930 0.5920 0.5920 0.5910
3407.522000 0.5910 0.5900 0.5900 0.5900 0.5890
3415.545688 0.5890 0.5890 0.5890 0.5880 0.5880
3423.562000 0.5880 0.5870 0.5870 0.5860 0.5850
3431.585688 0.5850 0.5850 0.5850 0.5840 0.5830
3439.602000 0.5830 0.5820 0.5820 0.5820 0.5820
3447.625688 0.5810 0.5810 0.5810 0.5800 0.5800
3455.642000 0.5800 0.5790 0.5790 0.5780 0.5780
3463.665688 0.5780 0.5780 0.5780 0.5780 0.5780
3471.681000 0.5780 0.5780 0.5780 0.5780 0.5780
3479.704688 0.5780 0.5790 0.5790 0.5790 0.5800
3487.721000 0.5800 0.5810 0.5810 0.5810 0.5820
3495.744688 0.5820 0.5820 0.5820 0.5830 0.5830
3503.761000 0.5850 0.5850 0.5850 0.5860 0.5860
3511.784688 0.5870 0.5870 0.5870 0.5870 0.5870
3519.801000 0.5880 0.5880 0.5880 0.5880 0.5880
3527.824688 0.5880 0.5890 0.5890 0.5890 0.5900
3535.841000 0.5910 0.5940 0.5970 0.5980 0.6000
3543.864688 0.6010 0.6030 0.6040 0.6040 0.6050
3551.881000 0.6060 0.6070 0.6080 0.6080 0.6090
3559.904688 0.6100 0.6110 0.6110 0.6120 0.6130
3567.920000 0.6130 0.6140 0.6150 0.6160 0.6180
3575.943688 0.6180 0.6190 0.6190 0.6190 0.6200
3583.960000 0.6210 0.6220 0.6220 0.6230 0.6230
3591.983688 0.6240 0.6250 0.6250 0.6260 0.6260
3600.000000 0.6270 0.6280 0.6290 0.6300 0.6300
3608.023688 0.6310 0.6320 0.6330 0.6330 0.6340
3616.040000 0.6340 0.6350 0.6360 0.6370 0.6370
3624.063688 0.6380 0.6380 0.6390 0.6390 0.6400
3632.080000 0.6410 0.6410 0.6410 0.6410 0.6420
3640.103688 0.6420 0.6430 0.6430 0.6440 0.6440
3648.120000 0.6440 0.6450 0.6450 0.6450 0.6450
3656.143688 0.6450 0.6450 0.6450 0.6450 0.6450
3664.159000 0.6450 0.6450 0.6450 0.6450 0.6450
3672.182688 0.6450 0.6450 0.6450 0.6450 0.6450
3680.199000 0.6450 0.6440 0.6440 0.6440 0.6440
3688.222688 0.6440 0.6440 0.6430 0.6430 0.6430
3696.239000 0.6430 0.6430 0.6430 0.6420 0.6420
3704.262688 0.6420 0.6420 0.6420 0.6410 0.6410
3712.279000 0.6410 0.6410 0.6400 0.6400 0.6390
3720.302688 0.6390 0.6380 0.6380 0.6380 0.6380
3728.319000 0.6370 0.6370 0.6360 0.6360 0.6350
3736.342688 0.6350 0.6350 0.6350 0.6340 0.6340
3744.358000 0.6340 0.6340 0.6340 0.6340 0.6340
3752.381688 0.6340 0.6340 0.6340 0.6340 0.6340
3760.398000 0.6340 0.6340 0.6350 0.6350 0.6350
3768.421688 0.6350 0.6350 0.6360 0.6360 0.6360
3776.438000 0.6360 0.6360 0.6360 0.6350 0.6350
3784.461688 0.6340 0.6340 0.6340 0.6340 0.6330
3792.478000 0.6330 0.6320 0.6320 0.6310 0.6310
3800.501688 0.6300 0.6300 0.6300 0.6300 0.6300
3808.518000 0.6300 0.6300 0.6300 0.6290 0.6290
3816.541688 0.6280 0.6270 0.6270 0.6260 0.6260
3824.558000 0.6260 0.6250 0.6240 0.6230 0.6230
3832.581688 0.6220 0.6220 0.6210 0.6210 0.6200
3840.597000 0.6200 0.6190 0.6190 0.6190 0.6190
3848.620688 0.6190 0.6180 0.6180 0.6180 0.6180
3856.637000 0.6170 0.6170 0.6170 0.6170 0.6170
3864.660688 0.6170 0.6170 0.6160 0.6160 0.6160
3872.677000 0.6160 0.6160 0.6160 0.6160 0.6160
3880.700688 0.6160 0.6160 0.6160 0.6150 0.6150
3888.717000 0.6150 0.6150 0.6150 0.6150 0.6150
3896.740688 0.6150 0.6150 0.6150 0.6150 0.6150
3904.757000 0.6150 0.6150 0.6150 0.6150 0.6150
3912.780688 0.6150 0.6150 0.6150 0.6150 0.6150
3920.797000 0.6150 0.6140 0.6140 0.6140 0.6140
3928.820688 0.6140 0.6140 0.6140 0.6140 0.6140
3936.836000 0.6140 0.6140 0.6140 0.6140 0.6140
3944.859688 0.6140 0.6140 0.6140 0.6140 0.6140
3952.876000 0.6140 0.6140 0.6140 0.6140 0.6140
3960.899688 0.6140 0.6130 0.6130 0.6130 0.6130
3968.916000 0.6130 0.6120 0.6120 0.6120 0.6120
3976.939688 0.6120 0.6120 0.6120 0.6120 0.6120
3984.956000 0.6120 0.6120 0.6110 0.6110 0.6110
3992.979688 0.6110 0.6110 0.6110 0.6110 0.6110
4000.996000 0.6110 0.6110 0.6110 0.6110 0.6110
4009.019688 0.6110
##END=
