##TITLE=Armeen 2HT hydrochloride
##JCAMP-DX=4.24
##DATA TYPE=INFRARED SPECTRUM
##CLASS=COBLENTZ
##ORIGIN=BRITISH PETROLEUM CO. LTD., ENGLAND
##OWNER=Copyright (C) 1987 by the Coblentz Society
Collection (C) 2018 copyright by the U.S. Secretary of Commerce
on behalf of the United States of America. All rights reserved.
##DATE=1972/05/25
##MOLFORM=C32-36 H68-76 Cl N
##SOURCE REFERENCE=COBLENTZ NO. 9384
##$NIST ID=B6009384
##$NIST SOURCE=COBLENTZ
##$NIST IMAGE=cob9384
##SPECTROMETER/DATA SYSTEM=PERKIN-ELMER 157
##STATE=SOLID (KBr DISC, 0.9% WT.)
$$ HCl RUN IN KBr MAY CONTAIN SOME HBr
$$ REF. Can. J. Spec., 18,4,101, '73 C. S. DOUSE and P. B. TOOKE
##SAMPLING PROCEDURE=TRANSMISSION
##RESOLUTION=2
##DATA PROCESSING=DIGITIZED BY COBLENTZ SOCIETY (BATCH II) FROM HARD COPY
##XUNITS=1/CM
##YUNITS=TRANSMITTANCE
##XFACTOR=1.0
##YFACTOR=1
##FIRSTX=667
##LASTX=4000
##FIRSTY=1.001
##MAXX=4000
##MINX=667
##MAXY=1.001
##MINY=0.0181
##NPOINTS=3334
##XYDATA=(X++(Y..Y))
667.000000 1.0010 1.0006 0.9992 0.9956 0.9935
672.000000 0.9889 0.9865 0.9835 0.9791 0.9760
677.000000 0.9728 0.9695 0.9661 0.9627 0.9595
682.000000 0.9564 0.9536 0.9507 0.9476 0.9433
687.000000 0.9377 0.9284 0.9266 0.9244 0.9212
692.000000 0.9177 0.9135 0.9078 0.9022 0.8965
697.000000 0.8907 0.8850 0.8780 0.8688 0.8593
702.000000 0.8494 0.8391 0.8278 0.8136 0.7915
707.000000 0.7690 0.7502 0.7318 0.7113 0.6878
712.000000 0.6584 0.6294 0.5830 0.4959 0.4065
717.000000 0.3560 0.3014 0.2526 0.2366 0.2345
722.000000 0.2802 0.3128 0.3443 0.3873 0.4089
727.000000 0.4583 0.4816 0.5055 0.5517 0.5991
732.000000 0.6395 0.6676 0.6959 0.7099 0.7213
737.000000 0.7320 0.7422 0.7521 0.7612 0.7693
742.000000 0.7763 0.7819 0.7852 0.7872 0.7887
747.000000 0.7897 0.7905 0.7912 0.7914 0.7911
752.000000 0.7919 0.7904 0.7897 0.7891 0.7885
757.000000 0.7879 0.7871 0.7853 0.7752 0.7705
762.000000 0.7699 0.7694 0.7692 0.7689 0.7686
767.000000 0.7680 0.7677 0.7678 0.7676 0.7669
772.000000 0.7637 0.7585 0.7532 0.7454 0.7367
777.000000 0.7224 0.7077 0.7028 0.7003 0.7008
782.000000 0.7076 0.7215 0.7396 0.7466 0.7499
787.000000 0.7510 0.7483 0.7447 0.7382 0.7348
792.000000 0.7336 0.7325 0.7383 0.7458 0.7650
797.000000 0.7774 0.7839 0.7890 0.7925 0.7955
802.000000 0.7973 0.7988 0.7996 0.8001 0.8007
807.000000 0.7997 0.7985 0.7973 0.7961 0.7947
812.000000 0.7930 0.7915 0.7901 0.7887 0.7874
817.000000 0.7861 0.7849 0.7840 0.7831 0.7828
822.000000 0.7828 0.7830 0.7836 0.7841 0.7847
827.000000 0.7853 0.7862 0.7866 0.7867 0.7865
832.000000 0.7861 0.7847 0.7827 0.7802 0.7776
837.000000 0.7752 0.7733 0.7721 0.7709 0.7704
842.000000 0.7701 0.7696 0.7693 0.7690 0.7688
847.000000 0.7686 0.7687 0.7687 0.7688 0.7687
852.000000 0.7683 0.7667 0.7644 0.7622 0.7601
857.000000 0.7598 0.7603 0.7610 0.7619 0.7626
862.000000 0.7634 0.7631 0.7608 0.7564 0.7511
867.000000 0.7509 0.7505 0.7501 0.7487 0.7466
872.000000 0.7438 0.7409 0.7367 0.7323 0.7257
877.000000 0.7194 0.7138 0.7072 0.6974 0.6915
882.000000 0.6880 0.6858 0.6830 0.6791 0.6738
887.000000 0.6704 0.6695 0.6693 0.6728 0.6810
892.000000 0.6889 0.7028 0.7120 0.7186 0.7242
897.000000 0.7300 0.7354 0.7391 0.7431 0.7470
902.000000 0.7488 0.7490 0.7491 0.7492 0.7494
907.000000 0.7515 0.7495 0.7495 0.7495 0.7495
912.000000 0.7494 0.7492 0.7491 0.7490 0.7489
917.000000 0.7488 0.7488 0.7487 0.7487 0.7486
922.000000 0.7483 0.7480 0.7476 0.7472 0.7469
927.000000 0.7465 0.7461 0.7459 0.7452 0.7444
932.000000 0.7437 0.7429 0.7422 0.7415 0.7407
937.000000 0.7401 0.7393 0.7384 0.7373 0.7361
942.000000 0.7350 0.7339 0.7325 0.7308 0.7290
947.000000 0.7275 0.7263 0.7251 0.7238 0.7226
952.000000 0.7217 0.7207 0.7193 0.7169 0.7144
957.000000 0.7122 0.7101 0.7085 0.7071 0.7057
962.000000 0.7044 0.7034 0.7032 0.7029 0.7026
967.000000 0.7026 0.7027 0.7027 0.7031 0.7037
972.000000 0.7045 0.7051 0.7049 0.7047 0.7045
977.000000 0.7039 0.7032 0.7024 0.7017 0.7002
982.000000 0.6988 0.6974 0.6958 0.6938 0.6917
987.000000 0.6895 0.6869 0.6861 0.6856 0.6851
992.000000 0.6846 0.6841 0.6836 0.6830 0.6804
997.000000 0.6779 0.6757 0.6734 0.6712 0.6690
1002.000000 0.6672 0.6663 0.6658 0.6651 0.6646
1007.000000 0.6632 0.6596 0.6546 0.6513 0.6481
1012.000000 0.6450 0.6405 0.6365 0.6346 0.6323
1017.000000 0.6279 0.6234 0.6216 0.6211 0.6208
1022.000000 0.6206 0.6202 0.6197 0.6184 0.6158
1027.000000 0.6130 0.6093 0.6051 0.5869 0.5827
1032.000000 0.5787 0.5748 0.5708 0.5667 0.5594
1037.000000 0.5588 0.5589 0.5591 0.5582 0.5594
1042.000000 0.5595 0.5595 0.5599 0.5615 0.5671
1047.000000 0.5777 0.5919 0.6042 0.6091 0.6134
1052.000000 0.6181 0.6201 0.6207 0.6209 0.6211
1057.000000 0.6212 0.6213 0.6213 0.6214 0.6213
1062.000000 0.6212 0.6211 0.6211 0.6213 0.6215
1067.000000 0.6218 0.6235 0.6268 0.6297 0.6317
1072.000000 0.6326 0.6346 0.6434 0.6451 0.6461
1077.000000 0.6473 0.6501 0.6574 0.6622 0.6657
1082.000000 0.6684 0.6699 0.6709 0.6711 0.6712
1087.000000 0.6713 0.6710 0.6711 0.6710 0.6705
1092.000000 0.6700 0.6696 0.6679 0.6660 0.6640
1097.000000 0.6620 0.6600 0.6582 0.6563 0.6545
1102.000000 0.6531 0.6516 0.6503 0.6491 0.6486
1107.000000 0.6481 0.6476 0.6473 0.6469 0.6468
1112.000000 0.6469 0.6469 0.6470 0.6468 0.6474
1117.000000 0.6476 0.6481 0.6487 0.6496 0.6506
1122.000000 0.6517 0.6528 0.6549 0.6582 0.6612
1127.000000 0.6624 0.6636 0.6647 0.6656 0.6664
1132.000000 0.6671 0.6677 0.6675 0.6666 0.6674
1137.000000 0.6644 0.6631 0.6618 0.6600 0.6584
1142.000000 0.6567 0.6551 0.6531 0.6508 0.6484
1147.000000 0.6456 0.6426 0.6392 0.6376 0.6363
1152.000000 0.6357 0.6357 0.6357 0.6358 0.6358
1157.000000 0.6358 0.6358 0.6357 0.6357 0.6358
1162.000000 0.6358 0.6359 0.6356 0.6353 0.6351
1167.000000 0.6348 0.6345 0.6343 0.6339 0.6334
1172.000000 0.6331 0.6326 0.6320 0.6311 0.6302
1177.000000 0.6292 0.6283 0.6274 0.6265 0.6257
1182.000000 0.6252 0.6250 0.6248 0.6247 0.6245
1187.000000 0.6244 0.6242 0.6241 0.6241 0.6241
1192.000000 0.6240 0.6238 0.6236 0.6234 0.6232
1197.000000 0.6230 0.6227 0.6225 0.6222 0.6220
1202.000000 0.6216 0.6214 0.6211 0.6208 0.6204
1207.000000 0.6201 0.6198 0.6195 0.6194 0.6192
1212.000000 0.6190 0.6189 0.6187 0.6185 0.6182
1217.000000 0.6181 0.6179 0.6177 0.6175 0.6171
1222.000000 0.6166 0.6162 0.6158 0.6154 0.6149
1227.000000 0.6143 0.6136 0.6128 0.6121 0.6113
1232.000000 0.6106 0.6098 0.6091 0.6083 0.6075
1237.000000 0.6068 0.6059 0.6052 0.6044 0.6037
1242.000000 0.6029 0.6022 0.6014 0.6006 0.5999
1247.000000 0.5991 0.5983 0.5976 0.5967 0.5959
1252.000000 0.5951 0.5942 0.5934 0.5926 0.5917
1257.000000 0.5909 0.5900 0.5892 0.5884 0.5875
1262.000000 0.5865 0.5854 0.5843 0.5832 0.5822
1267.000000 0.5811 0.5797 0.5790 0.5788 0.5786
1272.000000 0.5784 0.5781 0.5777 0.5769 0.5751
1277.000000 0.5732 0.5709 0.5698 0.5694 0.5689
1282.000000 0.5685 0.5680 0.5676 0.5665 0.5649
1287.000000 0.5626 0.5603 0.5588 0.5574 0.5560
1292.000000 0.5546 0.5541 0.5537 0.5534 0.5530
1297.000000 0.5526 0.5522 0.5517 0.5516 0.5515
1302.000000 0.5514 0.5513 0.5513 0.5511 0.5511
1307.000000 0.5510 0.5509 0.5509 0.5511 0.5514
1312.000000 0.5518 0.5521 0.5524 0.5528 0.5532
1317.000000 0.5537 0.5541 0.5536 0.5522 0.5509
1322.000000 0.5492 0.5472 0.5456 0.5445 0.5442
1327.000000 0.5438 0.5435 0.5434 0.5432 0.5432
1332.000000 0.5425 0.5404 0.5369 0.5335 0.5286
1337.000000 0.5204 0.5185 0.5179 0.5174 0.5162
1342.000000 0.5133 0.5098 0.5062 0.5021 0.5014
1347.000000 0.5016 0.5026 0.5050 0.5083 0.5115
1352.000000 0.5139 0.5144 0.5145 0.5141 0.5130
1357.000000 0.5110 0.5085 0.5052 0.5015 0.4974
1362.000000 0.4926 0.4864 0.4803 0.4735 0.4656
1367.000000 0.4597 0.4536 0.4398 0.4257 0.4140
1372.000000 0.4022 0.3972 0.3972 0.4028 0.4113
1377.000000 0.4198 0.4283 0.4368 0.4453 0.4538
1382.000000 0.4622 0.4689 0.4701 0.4711 0.4716
1387.000000 0.4713 0.4711 0.4702 0.4690 0.4678
1392.000000 0.4665 0.4651 0.4635 0.4618 0.4600
1397.000000 0.4582 0.4564 0.4546 0.4518 0.4473
1402.000000 0.4404 0.4197 0.4115 0.4056 0.4011
1407.000000 0.3996 0.3983 0.3981 0.3968 0.4005
1412.000000 0.4065 0.4112 0.4133 0.4145 0.4157
1417.000000 0.4166 0.4168 0.4166 0.4154 0.4141
1422.000000 0.4114 0.4073 0.4046 0.4020 0.3992
1427.000000 0.3956 0.3903 0.3849 0.3807 0.3769
1432.000000 0.3590 0.3500 0.3383 0.3259 0.3128
1437.000000 0.3017 0.2836 0.2681 0.2637 0.2595
1442.000000 0.2554 0.2508 0.2453 0.2395 0.2232
1447.000000 0.1929 0.1842 0.1728 0.1553 0.1389
1452.000000 0.1283 0.1110 0.0942 0.0803 0.0727
1457.000000 0.0675 0.0632 0.0590 0.0540 0.0505
1462.000000 0.0477 0.0434 0.0406 0.0391 0.0386
1467.000000 0.0388 0.0398 0.0406 0.0663 0.1231
1472.000000 0.1453 0.1530 0.1583 0.1629 0.1684
1477.000000 0.1802 0.1970 0.2187 0.2463 0.2707
1482.000000 0.2944 0.3181 0.3418 0.3628 0.3733
1487.000000 0.3772 0.3812 0.3868 0.3924 0.3980
1492.000000 0.4041 0.4116 0.4208 0.4261 0.4292
1497.000000 0.4324 0.4356 0.4387 0.4419 0.4452
1502.000000 0.4486 0.4521 0.4555 0.4571 0.4579
1507.000000 0.4587 0.4594 0.4596 0.4604 0.4600
1512.000000 0.4601 0.4600 0.4598 0.4597 0.4596
1517.000000 0.4593 0.4587 0.4580 0.4573 0.4564
1522.000000 0.4555 0.4545 0.4536 0.4527 0.4516
1527.000000 0.4505 0.4496 0.4486 0.4476 0.4465
1532.000000 0.4452 0.4439 0.4428 0.4420 0.4413
1537.000000 0.4405 0.4399 0.4394 0.4391 0.4387
1542.000000 0.4384 0.4381 0.4379 0.4379 0.4379
1547.000000 0.4379 0.4379 0.4380 0.4380 0.4380
1552.000000 0.4380 0.4381 0.4382 0.4383 0.4384
1557.000000 0.4385 0.4386 0.4387 0.4388 0.4389
1562.000000 0.4390 0.4391 0.4392 0.4393 0.4394
1567.000000 0.4396 0.4397 0.4398 0.4399 0.4400
1572.000000 0.4402 0.4396 0.4381 0.4363 0.4343
1577.000000 0.4327 0.4315 0.4305 0.4294 0.4284
1582.000000 0.4277 0.4271 0.4265 0.4260 0.4246
1587.000000 0.4173 0.4110 0.4072 0.4039 0.4006
1592.000000 0.3985 0.3976 0.3975 0.3972 0.3977
1597.000000 0.3982 0.3993 0.4010 0.4030 0.4051
1602.000000 0.4074 0.4098 0.4121 0.4139 0.4152
1607.000000 0.4166 0.4180 0.4194 0.4210 0.4234
1612.000000 0.4263 0.4295 0.4312 0.4321 0.4322
1617.000000 0.4323 0.4323 0.4323 0.4323 0.4331
1622.000000 0.4313 0.4306 0.4297 0.4285 0.4271
1627.000000 0.4255 0.4235 0.4211 0.4185 0.4156
1632.000000 0.4121 0.4079 0.4051 0.4016 0.3989
1637.000000 0.3973 0.3964 0.3958 0.3953 0.3971
1642.000000 0.3939 0.4075 0.4133 0.4191 0.4249
1647.000000 0.4307 0.4364 0.4422 0.4480 0.4492
1652.000000 0.4493 0.4494 0.4495 0.4495 0.4495
1657.000000 0.4496 0.4497 0.4498 0.4503 0.4510
1662.000000 0.4515 0.4522 0.4530 0.4540 0.4550
1667.000000 0.4561 0.4573 0.4593 0.4599 0.4605
1672.000000 0.4610 0.4613 0.4614 0.4615 0.4616
1677.000000 0.4616 0.4617 0.4617 0.4617 0.4618
1682.000000 0.4618 0.4618 0.4617 0.4617 0.4617
1687.000000 0.4617 0.4617 0.4617 0.4617 0.4616
1692.000000 0.4616 0.4616 0.4616 0.4616 0.4616
1697.000000 0.4617 0.4617 0.4618 0.4618 0.4619
1702.000000 0.4619 0.4620 0.4620 0.4620 0.4621
1707.000000 0.4622 0.4624 0.4625 0.4627 0.4627
1712.000000 0.4628 0.4630 0.4631 0.4632 0.4634
1717.000000 0.4635 0.4638 0.4640 0.4645 0.4651
1722.000000 0.4659 0.4670 0.4680 0.4691 0.4700
1727.000000 0.4706 0.4712 0.4718 0.4722 0.4723
1732.000000 0.4723 0.4724 0.4724 0.4725 0.4725
1737.000000 0.4726 0.4726 0.4727 0.4727 0.4728
1742.000000 0.4728 0.4728 0.4729 0.4729 0.4729
1747.000000 0.4729 0.4729 0.4728 0.4727 0.4727
1752.000000 0.4726 0.4726 0.4725 0.4724 0.4723
1757.000000 0.4720 0.4722 0.4721 0.4720 0.4719
1762.000000 0.4718 0.4718 0.4717 0.4716 0.4715
1767.000000 0.4714 0.4714 0.4713 0.4712 0.4711
1772.000000 0.4710 0.4709 0.4708 0.4707 0.4706
1777.000000 0.4705 0.4705 0.4704 0.4703 0.4702
1782.000000 0.4701 0.4701 0.4699 0.4694 0.4689
1787.000000 0.4683 0.4679 0.4674 0.4668 0.4663
1792.000000 0.4658 0.4654 0.4650 0.4645 0.4641
1797.000000 0.4639 0.4637 0.4636 0.4634 0.4633
1802.000000 0.4631 0.4630 0.4629 0.4629 0.4627
1807.000000 0.4626 0.4625 0.4624 0.4623 0.4622
1812.000000 0.4621 0.4618 0.4617 0.4615 0.4614
1817.000000 0.4611 0.4604 0.4596 0.4588 0.4580
1822.000000 0.4572 0.4562 0.4552 0.4542 0.4531
1827.000000 0.4523 0.4516 0.4508 0.4501 0.4494
1832.000000 0.4487 0.4479 0.4472 0.4465 0.4456
1837.000000 0.4444 0.4436 0.4428 0.4422 0.4417
1842.000000 0.4413 0.4408 0.4403 0.4399 0.4396
1847.000000 0.4394 0.4392 0.4389 0.4387 0.4386
1852.000000 0.4386 0.4386 0.4386 0.4385 0.4385
1857.000000 0.4385 0.4384 0.4384 0.4384 0.4384
1862.000000 0.4383 0.4383 0.4383 0.4382 0.4382
1867.000000 0.4382 0.4381 0.4381 0.4380 0.4380
1872.000000 0.4380 0.4379 0.4379 0.4379 0.4379
1877.000000 0.4379 0.4379 0.4379 0.4379 0.4379
1882.000000 0.4379 0.4379 0.4379 0.4379 0.4379
1887.000000 0.4379 0.4379 0.4379 0.4379 0.4379
1892.000000 0.4379 0.4379 0.4379 0.4379 0.4379
1897.000000 0.4378 0.4378 0.4378 0.4378 0.4378
1902.000000 0.4378 0.4378 0.4378 0.4378 0.4378
1907.000000 0.4378 0.4378 0.4378 0.4378 0.4378
1912.000000 0.4378 0.4379 0.4379 0.4379 0.4380
1917.000000 0.4380 0.4380 0.4381 0.4381 0.4381
1922.000000 0.4381 0.4380 0.4379 0.4378 0.4378
1927.000000 0.4376 0.4375 0.4375 0.4374 0.4373
1932.000000 0.4371 0.4371 0.4369 0.4367 0.4364
1937.000000 0.4361 0.4357 0.4355 0.4352 0.4348
1942.000000 0.4345 0.4342 0.4339 0.4335 0.4332
1947.000000 0.4329 0.4325 0.4322 0.4319 0.4316
1952.000000 0.4313 0.4311 0.4308 0.4306 0.4303
1957.000000 0.4300 0.4297 0.4294 0.4292 0.4289
1962.000000 0.4286 0.4284 0.4281 0.4279 0.4276
1967.000000 0.4273 0.4271 0.4268 0.4266 0.4262
1972.000000 0.4259 0.4257 0.4254 0.4252 0.4249
1977.000000 0.4247 0.4244 0.4242 0.4239 0.4237
1982.000000 0.4235 0.4233 0.4231 0.4229 0.4227
1987.000000 0.4225 0.4223 0.4221 0.4219 0.4217
1992.000000 0.4216 0.4213 0.4211 0.4209 0.4207
1997.000000 0.4205 0.4203 0.4201 0.4200 0.4198
2002.000000 0.4196 0.4194 0.4192 0.4190 0.4189
2007.000000 0.4187 0.4186 0.4184 0.4183 0.4181
2012.000000 0.4180 0.4178 0.4176 0.4175 0.4174
2017.000000 0.4172 0.4170 0.4169 0.4168 0.4167
2022.000000 0.4165 0.4163 0.4162 0.4160 0.4158
2027.000000 0.4157 0.4156 0.4154 0.4153 0.4151
2032.000000 0.4149 0.4148 0.4147 0.4145 0.4142
2037.000000 0.4139 0.4136 0.4134 0.4131 0.4128
2042.000000 0.4125 0.4122 0.4120 0.4117 0.4114
2047.000000 0.4111 0.4108 0.4105 0.4103 0.4100
2052.000000 0.4097 0.4094 0.4091 0.4089 0.4086
2057.000000 0.4084 0.4082 0.4079 0.4077 0.4076
2062.000000 0.4073 0.4071 0.4068 0.4066 0.4064
2067.000000 0.4061 0.4059 0.4057 0.4055 0.4053
2072.000000 0.4051 0.4048 0.4046 0.4044 0.4041
2077.000000 0.4039 0.4037 0.4035 0.4033 0.4031
2082.000000 0.4029 0.4027 0.4025 0.4024 0.4021
2087.000000 0.4019 0.4017 0.4015 0.4013 0.4011
2092.000000 0.4010 0.4008 0.4006 0.4004 0.4002
2097.000000 0.4000 0.3998 0.3997 0.3995 0.3993
2102.000000 0.3992 0.3990 0.3987 0.3985 0.3982
2107.000000 0.3978 0.3974 0.3971 0.3967 0.3963
2112.000000 0.3960 0.3956 0.3953 0.3949 0.3945
2117.000000 0.3940 0.3934 0.3927 0.3921 0.3915
2122.000000 0.3908 0.3901 0.3895 0.3888 0.3882
2127.000000 0.3875 0.3868 0.3862 0.3855 0.3848
2132.000000 0.3843 0.3838 0.3834 0.3829 0.3825
2137.000000 0.3821 0.3817 0.3813 0.3809 0.3806
2142.000000 0.3804 0.3802 0.3801 0.3800 0.3798
2147.000000 0.3797 0.3795 0.3794 0.3793 0.3792
2152.000000 0.3791 0.3791 0.3790 0.3789 0.3788
2157.000000 0.3788 0.3786 0.3785 0.3785 0.3784
2162.000000 0.3783 0.3782 0.3782 0.3781 0.3780
2167.000000 0.3779 0.3778 0.3777 0.3776 0.3774
2172.000000 0.3773 0.3771 0.3770 0.3769 0.3768
2177.000000 0.3767 0.3765 0.3764 0.3763 0.3762
2182.000000 0.3761 0.3760 0.3759 0.3757 0.3755
2187.000000 0.3754 0.3752 0.3751 0.3749 0.3747
2192.000000 0.3745 0.3743 0.3741 0.3739 0.3738
2197.000000 0.3736 0.3734 0.3732 0.3729 0.3727
2202.000000 0.3724 0.3722 0.3719 0.3716 0.3714
2207.000000 0.3711 0.3709 0.3706 0.3704 0.3701
2212.000000 0.3698 0.3695 0.3692 0.3688 0.3685
2217.000000 0.3681 0.3677 0.3672 0.3666 0.3660
2222.000000 0.3655 0.3649 0.3643 0.3637 0.3631
2227.000000 0.3625 0.3618 0.3609 0.3599 0.3590
2232.000000 0.3581 0.3561 0.3540 0.3533 0.3527
2237.000000 0.3521 0.3515 0.3513 0.3512 0.3510
2242.000000 0.3509 0.3507 0.3506 0.3505 0.3505
2247.000000 0.3504 0.3503 0.3502 0.3501 0.3500
2252.000000 0.3499 0.3498 0.3497 0.3496 0.3495
2257.000000 0.3493 0.3492 0.3491 0.3490 0.3489
2262.000000 0.3488 0.3486 0.3483 0.3480 0.3477
2267.000000 0.3474 0.3471 0.3467 0.3462 0.3457
2272.000000 0.3451 0.3445 0.3436 0.3427 0.3417
2277.000000 0.3408 0.3399 0.3389 0.3383 0.3377
2282.000000 0.3370 0.3363 0.3356 0.3350 0.3343
2287.000000 0.3337 0.3330 0.3322 0.3314 0.3306
2292.000000 0.3298 0.3289 0.3279 0.3266 0.3252
2297.000000 0.3238 0.3224 0.3209 0.3193 0.3177
2302.000000 0.3162 0.3149 0.3136 0.3125 0.3114
2307.000000 0.3104 0.3093 0.3082 0.3072 0.3062
2312.000000 0.3052 0.3043 0.3034 0.3026 0.3018
2317.000000 0.3009 0.3001 0.2992 0.2984 0.2976
2322.000000 0.2967 0.2958 0.2950 0.2941 0.2933
2327.000000 0.2924 0.2914 0.2902 0.2890 0.2878
2332.000000 0.2866 0.2852 0.2838 0.2823 0.2808
2337.000000 0.2794 0.2780 0.2768 0.2760 0.2751
2342.000000 0.2743 0.2735 0.2726 0.2717 0.2707
2347.000000 0.2696 0.2681 0.2662 0.2645 0.2629
2352.000000 0.2615 0.2613 0.2611 0.2608 0.2606
2357.000000 0.2604 0.2602 0.2599 0.2597 0.2595
2362.000000 0.2594 0.2592 0.2592 0.2592 0.2591
2367.000000 0.2591 0.2590 0.2589 0.2588 0.2587
2372.000000 0.2586 0.2586 0.2585 0.2583 0.2581
2377.000000 0.2579 0.2577 0.2575 0.2573 0.2570
2382.000000 0.2568 0.2566 0.2561 0.2555 0.2548
2387.000000 0.2540 0.2533 0.2525 0.2518 0.2510
2392.000000 0.2503 0.2496 0.2490 0.2483 0.2476
2397.000000 0.2469 0.2457 0.2446 0.2430 0.2413
2402.000000 0.2394 0.2373 0.2352 0.2333 0.2313
2407.000000 0.2295 0.2278 0.2261 0.2244 0.2220
2412.000000 0.2169 0.2117 0.2068 0.2019 0.1975
2417.000000 0.1934 0.1895 0.1859 0.1823 0.1786
2422.000000 0.1748 0.1712 0.1679 0.1647 0.1624
2427.000000 0.1600 0.1579 0.1558 0.1543 0.1536
2432.000000 0.1529 0.1527 0.1524 0.1523 0.1523
2437.000000 0.1520 0.1523 0.1523 0.1526 0.1529
2442.000000 0.1540 0.1557 0.1575 0.1599 0.1624
2447.000000 0.1649 0.1673 0.1698 0.1722 0.1747
2452.000000 0.1772 0.1796 0.1820 0.1844 0.1868
2457.000000 0.1893 0.1917 0.1942 0.1966 0.1990
2462.000000 0.2014 0.2038 0.2058 0.2078 0.2094
2467.000000 0.2106 0.2118 0.2124 0.2129 0.2134
2472.000000 0.2138 0.2142 0.2145 0.2148 0.2149
2477.000000 0.2149 0.2149 0.2148 0.2147 0.2144
2482.000000 0.2142 0.2141 0.2137 0.2135 0.2132
2487.000000 0.2129 0.2125 0.2119 0.2113 0.2106
2492.000000 0.2098 0.2091 0.2084 0.2078 0.2070
2497.000000 0.2062 0.2053 0.2044 0.2036 0.2025
2502.000000 0.2015 0.2004 0.1993 0.1982 0.1970
2507.000000 0.1959 0.1948 0.1935 0.1923 0.1910
2512.000000 0.1898 0.1884 0.1868 0.1852 0.1845
2517.000000 0.1839 0.1834 0.1831 0.1827 0.1826
2522.000000 0.1824 0.1823 0.1821 0.1820 0.1819
2527.000000 0.1817 0.1816 0.1815 0.1813 0.1812
2532.000000 0.1812 0.1811 0.1811 0.1811 0.1811
2537.000000 0.1811 0.1811 0.1810 0.1809 0.1808
2542.000000 0.1807 0.1807 0.1806 0.1805 0.1804
2547.000000 0.1804 0.1803 0.1802 0.1801 0.1801
2552.000000 0.1799 0.1797 0.1794 0.1792 0.1789
2557.000000 0.1785 0.1781 0.1776 0.1764 0.1753
2562.000000 0.1741 0.1730 0.1718 0.1709 0.1701
2567.000000 0.1693 0.1686 0.1680 0.1674 0.1668
2572.000000 0.1662 0.1655 0.1648 0.1640 0.1631
2577.000000 0.1622 0.1614 0.1605 0.1596 0.1588
2582.000000 0.1581 0.1573 0.1565 0.1558 0.1551
2587.000000 0.1544 0.1536 0.1529 0.1522 0.1514
2592.000000 0.1507 0.1500 0.1493 0.1485 0.1478
2597.000000 0.1470 0.1462 0.1454 0.1445 0.1437
2602.000000 0.1428 0.1419 0.1410 0.1401 0.1393
2607.000000 0.1384 0.1376 0.1367 0.1358 0.1350
2612.000000 0.1341 0.1332 0.1323 0.1314 0.1305
2617.000000 0.1296 0.1287 0.1277 0.1268 0.1258
2622.000000 0.1249 0.1240 0.1231 0.1222 0.1213
2627.000000 0.1203 0.1193 0.1183 0.1172 0.1162
2632.000000 0.1152 0.1142 0.1132 0.1122 0.1111
2637.000000 0.1101 0.1091 0.1081 0.1070 0.1058
2642.000000 0.1045 0.1033 0.1019 0.1006 0.0993
2647.000000 0.0979 0.0966 0.0953 0.0940 0.0927
2652.000000 0.0917 0.0907 0.0897 0.0887 0.0877
2657.000000 0.0867 0.0857 0.0847 0.0837 0.0827
2662.000000 0.0818 0.0807 0.0797 0.0787 0.0776
2667.000000 0.0765 0.0754 0.0744 0.0733 0.0722
2672.000000 0.0711 0.0700 0.0689 0.0678 0.0667
2677.000000 0.0657 0.0648 0.0640 0.0632 0.0624
2682.000000 0.0616 0.0608 0.0600 0.0592 0.0584
2687.000000 0.0576 0.0568 0.0560 0.0551 0.0543
2692.000000 0.0533 0.0524 0.0514 0.0505 0.0495
2697.000000 0.0485 0.0475 0.0465 0.0455 0.0445
2702.000000 0.0435 0.0424 0.0414 0.0403 0.0393
2707.000000 0.0382 0.0372 0.0363 0.0354 0.0345
2712.000000 0.0336 0.0327 0.0318 0.0308 0.0298
2717.000000 0.0287 0.0276 0.0264 0.0253 0.0243
2722.000000 0.0235 0.0226 0.0219 0.0213 0.0207
2727.000000 0.0205 0.0204 0.0203 0.0202 0.0201
2732.000000 0.0201 0.0200 0.0199 0.0198 0.0197
2737.000000 0.0197 0.0197 0.0196 0.0196 0.0196
2742.000000 0.0195 0.0195 0.0195 0.0194 0.0194
2747.000000 0.0194 0.0193 0.0193 0.0193 0.0192
2752.000000 0.0192 0.0192 0.0192 0.0192 0.0192
2757.000000 0.0191 0.0191 0.0191 0.0190 0.0190
2762.000000 0.0190 0.0189 0.0189 0.0189 0.0189
2767.000000 0.0189 0.0189 0.0188 0.0188 0.0188
2772.000000 0.0188 0.0188 0.0188 0.0187 0.0187
2777.000000 0.0187 0.0186 0.0186 0.0186 0.0186
2782.000000 0.0186 0.0186 0.0185 0.0185 0.0185
2787.000000 0.0185 0.0190 0.0185 0.0185 0.0185
2792.000000 0.0185 0.0185 0.0184 0.0184 0.0184
2797.000000 0.0184 0.0184 0.0184 0.0184 0.0184
2802.000000 0.0184 0.0184 0.0184 0.0184 0.0183
2807.000000 0.0183 0.0183 0.0183 0.0183 0.0183
2812.000000 0.0183 0.0183 0.0183 0.0183 0.0183
2817.000000 0.0183 0.0183 0.0182 0.0182 0.0182
2822.000000 0.0182 0.0182 0.0182 0.0182 0.0182
2827.000000 0.0182 0.0182 0.0181 0.0181 0.0181
2832.000000 0.0181 0.0181 0.0181 0.0181 0.0181
2837.000000 0.0181 0.0181 0.0181 0.0181 0.0181
2842.000000 0.0181 0.0181 0.0181 0.0181 0.0181
2847.000000 0.0181 0.0181 0.0181 0.0181 0.0181
2852.000000 0.0181 0.0181 0.0181 0.0181 0.0181
2857.000000 0.0181 0.0181 0.0181 0.0181 0.0181
2862.000000 0.0181 0.0182 0.0183 0.0183 0.0184
2867.000000 0.0185 0.0185 0.0186 0.0186 0.0187
2872.000000 0.0188 0.0188 0.0190 0.0193 0.0197
2877.000000 0.0200 0.0204 0.0207 0.0211 0.0215
2882.000000 0.0219 0.0223 0.0227 0.0231 0.0236
2887.000000 0.0240 0.0245 0.0249 0.0254 0.0258
2892.000000 0.0263 0.0268 0.0273 0.0277 0.0282
2897.000000 0.0286 0.0292 0.0297 0.0302 0.0308
2902.000000 0.0313 0.0319 0.0323 0.0324 0.0325
2907.000000 0.0326 0.0326 0.0327 0.0328 0.0329
2912.000000 0.0330 0.0331 0.0332 0.0332 0.0333
2917.000000 0.0333 0.0334 0.0334 0.0334 0.0335
2922.000000 0.0335 0.0335 0.0336 0.0336 0.0337
2927.000000 0.0337 0.0338 0.0338 0.0338 0.0339
2932.000000 0.0339 0.0339 0.0339 0.0340 0.0340
2937.000000 0.0340 0.0341 0.0341 0.0341 0.0341
2942.000000 0.0342 0.0342 0.0342 0.0343 0.0343
2947.000000 0.0343 0.0343 0.0344 0.0344 0.0344
2952.000000 0.0345 0.0345 0.0346 0.0346 0.0347
2957.000000 0.0348 0.0349 0.0350 0.0351 0.0352
2962.000000 0.0352 0.0355 0.0358 0.0362 0.0365
2967.000000 0.0369 0.0373 0.0377 0.0392 0.0408
2972.000000 0.0424 0.0439 0.0452 0.0465 0.0478
2977.000000 0.0490 0.0502 0.0514 0.0525 0.0536
2982.000000 0.0547 0.0557 0.0565 0.0571 0.0577
2987.000000 0.0583 0.0590 0.0596 0.0603 0.0609
2992.000000 0.0616 0.0622 0.0628 0.0635 0.0642
2997.000000 0.0648 0.0656 0.0664 0.0672 0.0681
3002.000000 0.0689 0.0698 0.0707 0.0715 0.0723
3007.000000 0.0732 0.0740 0.0748 0.0755 0.0762
3012.000000 0.0769 0.0775 0.0781 0.0787 0.0792
3017.000000 0.0798 0.0804 0.0810 0.0815 0.0821
3022.000000 0.0827 0.0833 0.0838 0.0844 0.0850
3027.000000 0.0856 0.0863 0.0870 0.0876 0.0885
3032.000000 0.0894 0.0903 0.0912 0.0921 0.0930
3037.000000 0.0939 0.0949 0.0958 0.0967 0.0976
3042.000000 0.0984 0.0991 0.0997 0.1004 0.1009
3047.000000 0.1014 0.1020 0.1025 0.1029 0.1034
3052.000000 0.1039 0.1044 0.1050 0.1055 0.1060
3057.000000 0.1067 0.1075 0.1082 0.1090 0.1095
3062.000000 0.1100 0.1106 0.1111 0.1115 0.1120
3067.000000 0.1124 0.1128 0.1130 0.1133 0.1135
3072.000000 0.1137 0.1139 0.1141 0.1143 0.1146
3077.000000 0.1148 0.1150 0.1152 0.1154 0.1156
3082.000000 0.1158 0.1160 0.1162 0.1165 0.1167
3087.000000 0.1169 0.1171 0.1173 0.1175 0.1177
3092.000000 0.1179 0.1181 0.1182 0.1184 0.1186
3097.000000 0.1187 0.1189 0.1190 0.1192 0.1193
3102.000000 0.1195 0.1197 0.1199 0.1200 0.1202
3107.000000 0.1204 0.1205 0.1207 0.1208 0.1209
3112.000000 0.1211 0.1212 0.1214 0.1215 0.1217
3117.000000 0.1218 0.1220 0.1221 0.1222 0.1223
3122.000000 0.1225 0.1226 0.1227 0.1229 0.1230
3127.000000 0.1232 0.1233 0.1235 0.1236 0.1237
3132.000000 0.1238 0.1240 0.1241 0.1242 0.1243
3137.000000 0.1244 0.1244 0.1245 0.1246 0.1247
3142.000000 0.1248 0.1249 0.1250 0.1251 0.1252
3147.000000 0.1253 0.1254 0.1255 0.1256 0.1257
3152.000000 0.1258 0.1259 0.1260 0.1260 0.1261
3157.000000 0.1262 0.1263 0.1264 0.1265 0.1266
3162.000000 0.1267 0.1269 0.1270 0.1271 0.1272
3167.000000 0.1273 0.1274 0.1275 0.1276 0.1278
3172.000000 0.1279 0.1280 0.1281 0.1282 0.1283
3177.000000 0.1284 0.1285 0.1286 0.1288 0.1289
3182.000000 0.1290 0.1292 0.1293 0.1295 0.1296
3187.000000 0.1298 0.1299 0.1301 0.1303 0.1304
3192.000000 0.1306 0.1308 0.1309 0.1310 0.1311
3197.000000 0.1313 0.1314 0.1315 0.1316 0.1317
3202.000000 0.1318 0.1319 0.1320 0.1321 0.1323
3207.000000 0.1324 0.1325 0.1326 0.1326 0.1326
3212.000000 0.1325 0.1325 0.1324 0.1324 0.1323
3217.000000 0.1323 0.1322 0.1321 0.1321 0.1320
3222.000000 0.1319 0.1319 0.1318 0.1317 0.1316
3227.000000 0.1316 0.1315 0.1314 0.1313 0.1313
3232.000000 0.1312 0.1311 0.1310 0.1309 0.1309
3237.000000 0.1308 0.1308 0.1307 0.1307 0.1306
3242.000000 0.1306 0.1305 0.1305 0.1304 0.1304
3247.000000 0.1304 0.1304 0.1304 0.1304 0.1304
3252.000000 0.1304 0.1304 0.1304 0.1304 0.1305
3257.000000 0.1305 0.1305 0.1305 0.1306 0.1306
3262.000000 0.1306 0.1306 0.1306 0.1306 0.1306
3267.000000 0.1306 0.1307 0.1307 0.1307 0.1307
3272.000000 0.1307 0.1307 0.1307 0.1308 0.1308
3277.000000 0.1309 0.1310 0.1310 0.1311 0.1312
3282.000000 0.1312 0.1313 0.1313 0.1313 0.1314
3287.000000 0.1314 0.1315 0.1315 0.1316 0.1317
3292.000000 0.1317 0.1318 0.1319 0.1319 0.1320
3297.000000 0.1321 0.1321 0.1322 0.1323 0.1324
3302.000000 0.1325 0.1326 0.1328 0.1329 0.1330
3307.000000 0.1332 0.1333 0.1334 0.1336 0.1337
3312.000000 0.1338 0.1339 0.1339 0.1340 0.1340
3317.000000 0.1340 0.1339 0.1339 0.1339 0.1338
3322.000000 0.1338 0.1338 0.1338 0.1337 0.1336
3327.000000 0.1335 0.1334 0.1332 0.1331 0.1330
3332.000000 0.1328 0.1327 0.1326 0.1325 0.1324
3337.000000 0.1322 0.1321 0.1321 0.1320 0.1319
3342.000000 0.1319 0.1318 0.1317 0.1316 0.1315
3347.000000 0.1314 0.1314 0.1314 0.1314 0.1314
3352.000000 0.1314 0.1314 0.1315 0.1315 0.1316
3357.000000 0.1316 0.1317 0.1317 0.1317 0.1318
3362.000000 0.1318 0.1319 0.1319 0.1320 0.1320
3367.000000 0.1320 0.1321 0.1321 0.1322 0.1322
3372.000000 0.1323 0.1323 0.1324 0.1325 0.1326
3377.000000 0.1328 0.1329 0.1330 0.1332 0.1333
3382.000000 0.1334 0.1336 0.1337 0.1338 0.1339
3387.000000 0.1341 0.1342 0.1343 0.1345 0.1346
3392.000000 0.1347 0.1349 0.1350 0.1352 0.1353
3397.000000 0.1355 0.1355 0.1355 0.1355 0.1355
3402.000000 0.1355 0.1355 0.1355 0.1355 0.1354
3407.000000 0.1354 0.1354 0.1354 0.1354 0.1353
3412.000000 0.1353 0.1353 0.1353 0.1353 0.1352
3417.000000 0.1351 0.1351 0.1350 0.1362 0.1349
3422.000000 0.1348 0.1348 0.1347 0.1346 0.1345
3427.000000 0.1345 0.1344 0.1343 0.1342 0.1341
3432.000000 0.1341 0.1340 0.1340 0.1339 0.1338
3437.000000 0.1337 0.1336 0.1335 0.1334 0.1334
3442.000000 0.1333 0.1332 0.1331 0.1330 0.1329
3447.000000 0.1329 0.1328 0.1327 0.1326 0.1325
3452.000000 0.1324 0.1324 0.1323 0.1322 0.1322
3457.000000 0.1321 0.1320 0.1320 0.1319 0.1318
3462.000000 0.1317 0.1316 0.1315 0.1315 0.1314
3467.000000 0.1313 0.1312 0.1312 0.1311 0.1310
3472.000000 0.1310 0.1309 0.1308 0.1307 0.1306
3477.000000 0.1306 0.1305 0.1304 0.1303 0.1302
3482.000000 0.1301 0.1301 0.1300 0.1300 0.1299
3487.000000 0.1298 0.1298 0.1298 0.1297 0.1297
3492.000000 0.1297 0.1297 0.1297 0.1297 0.1297
3497.000000 0.1296 0.1296 0.1296 0.1296 0.1296
3502.000000 0.1296 0.1296 0.1296 0.1296 0.1296
3507.000000 0.1296 0.1296 0.1296 0.1296 0.1296
3512.000000 0.1296 0.1296 0.1296 0.1296 0.1296
3517.000000 0.1297 0.1297 0.1297 0.1297 0.1297
3522.000000 0.1297 0.1297 0.1297 0.1297 0.1297
3527.000000 0.1298 0.1298 0.1298 0.1298 0.1298
3532.000000 0.1298 0.1298 0.1298 0.1298 0.1298
3537.000000 0.1299 0.1299 0.1299 0.1299 0.1299
3542.000000 0.1299 0.1298 0.1297 0.1296 0.1296
3547.000000 0.1294 0.1293 0.1292 0.1291 0.1290
3552.000000 0.1288 0.1287 0.1285 0.1283 0.1282
3557.000000 0.1280 0.1279 0.1278 0.1276 0.1275
3562.000000 0.1273 0.1272 0.1270 0.1269 0.1267
3567.000000 0.1265 0.1264 0.1262 0.1261 0.1259
3572.000000 0.1257 0.1256 0.1254 0.1252 0.1250
3577.000000 0.1249 0.1247 0.1245 0.1243 0.1242
3582.000000 0.1240 0.1239 0.1237 0.1236 0.1235
3587.000000 0.1233 0.1233 0.1232 0.1231 0.1230
3592.000000 0.1229 0.1229 0.1228 0.1227 0.1226
3597.000000 0.1226 0.1225 0.1224 0.1223 0.1223
3602.000000 0.1222 0.1221 0.1220 0.1219 0.1219
3607.000000 0.1218 0.1217 0.1216 0.1216 0.1215
3612.000000 0.1214 0.1213 0.1213 0.1212 0.1212
3617.000000 0.1211 0.1210 0.1210 0.1210 0.1210
3622.000000 0.1210 0.1210 0.1210 0.1210 0.1210
3627.000000 0.1210 0.1210 0.1211 0.1211 0.1211
3632.000000 0.1211 0.1211 0.1212 0.1212 0.1212
3637.000000 0.1212 0.1212 0.1212 0.1213 0.1213
3642.000000 0.1213 0.1213 0.1213 0.1213 0.1213
3647.000000 0.1213 0.1213 0.1213 0.1214 0.1214
3652.000000 0.1214 0.1214 0.1214 0.1215 0.1215
3657.000000 0.1215 0.1215 0.1215 0.1215 0.1216
3662.000000 0.1216 0.1216 0.1216 0.1216 0.1216
3667.000000 0.1216 0.1216 0.1216 0.1216 0.1216
3672.000000 0.1217 0.1217 0.1217 0.1217 0.1217
3677.000000 0.1217 0.1217 0.1217 0.1217 0.1217
3682.000000 0.1217 0.1217 0.1217 0.1217 0.1217
3687.000000 0.1217 0.1217 0.1217 0.1217 0.1217
3692.000000 0.1217 0.1217 0.1217 0.1217 0.1217
3697.000000 0.1217 0.1217 0.1218 0.1218 0.1218
3702.000000 0.1218 0.1218 0.1218 0.1218 0.1218
3707.000000 0.1218 0.1218 0.1218 0.1218 0.1218
3712.000000 0.1218 0.1218 0.1218 0.1218 0.1218
3717.000000 0.1218 0.1218 0.1218 0.1218 0.1218
3722.000000 0.1218 0.1218 0.1218 0.1218 0.1217
3727.000000 0.1217 0.1217 0.1217 0.1217 0.1217
3732.000000 0.1216 0.1216 0.1216 0.1216 0.1216
3737.000000 0.1216 0.1216 0.1216 0.1216 0.1216
3742.000000 0.1216 0.1215 0.1215 0.1215 0.1215
3747.000000 0.1215 0.1215 0.1214 0.1214 0.1214
3752.000000 0.1214 0.1214 0.1213 0.1213 0.1213
3757.000000 0.1213 0.1213 0.1213 0.1212 0.1212
3762.000000 0.1212 0.1212 0.1212 0.1212 0.1211
3767.000000 0.1211 0.1211 0.1211 0.1211 0.1210
3772.000000 0.1210 0.1210 0.1210 0.1210 0.1210
3777.000000 0.1209 0.1209 0.1209 0.1209 0.1209
3782.000000 0.1209 0.1208 0.1208 0.1208 0.1208
3787.000000 0.1208 0.1207 0.1207 0.1207 0.1207
3792.000000 0.1207 0.1207 0.1206 0.1206 0.1206
3797.000000 0.1205 0.1205 0.1205 0.1204 0.1204
3802.000000 0.1204 0.1203 0.1203 0.1203 0.1202
3807.000000 0.1202 0.1202 0.1201 0.1201 0.1200
3812.000000 0.1200 0.1200 0.1199 0.1199 0.1199
3817.000000 0.1198 0.1198 0.1198 0.1197 0.1197
3822.000000 0.1197 0.1196 0.1195 0.1194 0.1194
3827.000000 0.1193 0.1192 0.1191 0.1189 0.1187
3832.000000 0.1185 0.1183 0.1181 0.1179 0.1177
3837.000000 0.1176 0.1174 0.1172 0.1170 0.1168
3842.000000 0.1165 0.1163 0.1161 0.1158 0.1156
3847.000000 0.1153 0.1151 0.1148 0.1145 0.1142
3852.000000 0.1140 0.1137 0.1134 0.1132 0.1129
3857.000000 0.1126 0.1124 0.1121 0.1119 0.1116
3862.000000 0.1113 0.1111 0.1108 0.1106 0.1104
3867.000000 0.1102 0.1100 0.1098 0.1095 0.1093
3872.000000 0.1091 0.1089 0.1087 0.1085 0.1082
3877.000000 0.1080 0.1078 0.1076 0.1074 0.1072
3882.000000 0.1069 0.1068 0.1066 0.1064 0.1062
3887.000000 0.1060 0.1059 0.1057 0.1056 0.1055
3892.000000 0.1053 0.1052 0.1051 0.1049 0.1048
3897.000000 0.1047 0.1046 0.1045 0.1044 0.1042
3902.000000 0.1041 0.1040 0.1038 0.1037 0.1036
3907.000000 0.1035 0.1033 0.1032 0.1031 0.1030
3912.000000 0.1029 0.1028 0.1026 0.1025 0.1024
3917.000000 0.1022 0.1021 0.1020 0.1019 0.1018
3922.000000 0.1018 0.1017 0.1016 0.1015 0.1015
3927.000000 0.1014 0.1014 0.1013 0.1013 0.1012
3932.000000 0.1012 0.1011 0.1011 0.1010 0.1010
3937.000000 0.1010 0.1009 0.1009 0.1008 0.1008
3942.000000 0.1007 0.1007 0.1006 0.1006 0.1005
3947.000000 0.1005 0.1004 0.1004 0.1003 0.1003
3952.000000 0.1002 0.1001 0.1001 0.1000 0.0999
3957.000000 0.0999 0.0998 0.0998 0.0997 0.0997
3962.000000 0.0996 0.0996 0.0995 0.0995 0.0994
3967.000000 0.0993 0.0993 0.0992 0.0991 0.0991
3972.000000 0.0990 0.0989 0.0989 0.0988 0.0988
3977.000000 0.0987 0.0986 0.0986 0.0985 0.0984
3982.000000 0.0984 0.0983 0.0983 0.0982 0.0981
3987.000000 0.0981 0.0980 0.0980 0.0979 0.0979
3992.000000 0.0978 0.0978 0.0977 0.0977 0.0976
3997.000000 0.0976 0.0975 0.0975 0.0975
##END=
