##TITLE=CUPROUS OXIDE
##JCAMP-DX=4.24
##DATA TYPE=INFRARED SPECTRUM
##CLASS=COBLENTZ
##ORIGIN=DESOTO CHEMICAL COATINGS, INC.
##OWNER=COBLENTZ SOCIETY
Collection (C) 2018 copyright by the U.S. Secretary of Commerce
on behalf of the United States of America. All rights reserved.
##DATE=Not specified, most likely prior to 1970
##MOLFORM=Cu2 O
##SOURCE REFERENCE=COBLENTZ NO. 4719
##$NIST ID=B6004719
##$NIST SOURCE=COBLENTZ
##$NIST IMAGE=cob4719
##SPECTROMETER/DATA SYSTEM=Not specified, most likely a grating spectrometer.
##STATE=SOLID (3 mg / 300 mg CsI DISC)
##PATH LENGTH=
$$ Cu2O 97%
##SAMPLING PROCEDURE=TRANSMISSION
##RESOLUTION=4
##DATA PROCESSING=DIGITIZED BY NIST FROM HARD COPY (FROM TWO SEGMENTS)
##XUNITS=1/CM
##YUNITS=TRANSMITTANCE
##XFACTOR=1.000000
##YFACTOR=1
##DELTAX=1.330379
##FIRSTX=200
##LASTX=3991.58
##FIRSTY=0.91
##MAXX=3991.58
##MINX=200
##MAXY=0.998
##MINY=0.099
##NPOINTS=2851
##XYDATA=(X++(Y..Y))
200.000000 0.9100 0.9100 0.9100 0.9100 0.9110
206.651896 0.9110 0.9120 0.9150 0.9150 0.9229
213.303792 0.9260 0.9260 0.9240 0.9240 0.9260
219.955688 0.9270 0.9300 0.9300 0.9280 0.9280
226.607584 0.9300 0.9300 0.9300 0.9300 0.9280
233.259480 0.9280 0.9280 0.9300 0.9300 0.9310
239.911377 0.9310 0.9320 0.9320 0.9320 0.9320
246.563273 0.9310 0.9310 0.9310 0.9320 0.9340
253.215169 0.9340 0.9340 0.9320 0.9280 0.9270
259.867065 0.9270 0.9270 0.9260 0.9230 0.9220
266.518961 0.9190 0.9160 0.9160 0.9160 0.9160
273.170857 0.9160 0.9150 0.9100 0.9040 0.9020
279.822753 0.9000 0.8990 0.8950 0.8940 0.8910
286.474649 0.8900 0.8880 0.8860 0.8820 0.8800
293.126545 0.8800 0.8750 0.8710 0.8680 0.8650
299.778441 0.8640 0.8600 0.8560 0.8520 0.8510
306.430337 0.8480 0.8450 0.8430 0.8370 0.8320
313.082234 0.8290 0.8250 0.8240 0.8230 0.8200
319.734130 0.8150 0.8040 0.8040 0.8000 0.7940
326.386026 0.7900 0.7880 0.7880 0.7850 0.7820
333.037922 0.7810 0.7740 0.7700 0.7680 0.7650
339.689818 0.7600 0.7540 0.7530 0.7520 0.7520
346.341714 0.7500 0.7470 0.7450 0.7420 0.7390
352.993610 0.7370 0.7350 0.7330 0.7300 0.7270
359.645506 0.7250 0.7220 0.7180 0.7150 0.7130
366.297402 0.7100 0.7030 0.7020 0.6980 0.6900
372.949298 0.6890 0.6840 0.6800 0.6780 0.6750
379.601195 0.6720 0.6700 0.6630 0.6620 0.6580
386.253091 0.6540 0.6520 0.6500 0.6470 0.6400
392.904987 0.6360 0.6340 0.6320 0.6310 0.6300
399.556883 0.6270 0.6260 0.6230 0.6210 0.6200
406.208779 0.6130 0.6090 0.6030 0.6010 0.6000
412.860675 0.5950 0.5920 0.5910 0.5880 0.5870
419.512571 0.5850 0.5850 0.5850 0.5870 0.5880
426.164467 0.5880 0.5880 0.5870 0.5870 0.5870
432.816363 0.5880 0.5890 0.5920 0.5950 0.5960
439.468259 0.5990 0.6000 0.6000 0.6010 0.6010
446.120155 0.6040 0.6040 0.6050 0.6050 0.6050
452.772052 0.6050 0.6050 0.6050 0.6050 0.6050
459.423948 0.6050 0.6040 0.6040 0.6040 0.6030
466.075844 0.6010 0.6010 0.6000 0.6000 0.5990
472.727740 0.5990 0.5960 0.5950 0.5920 0.5910
479.379636 0.5910 0.5890 0.5880 0.5870 0.5840
486.031532 0.5830 0.5810 0.5800 0.5800 0.5770
492.683428 0.5750 0.5730 0.5730 0.5720 0.5690
499.335324 0.5670 0.5640 0.5610 0.5610 0.5570
505.987220 0.5560 0.5530 0.5520 0.5500 0.5480
512.639116 0.5460 0.5440 0.5420 0.5410 0.5360
519.291012 0.5340 0.5300 0.5280 0.5260 0.5240
525.942909 0.5220 0.5220 0.5210 0.5200 0.5160
532.594805 0.5140 0.5130 0.5080 0.5040 0.5020
539.246701 0.5020 0.4980 0.4930 0.4900 0.4850
545.898597 0.4820 0.4810 0.4780 0.4750 0.4730
552.550493 0.4700 0.4650 0.4610 0.4590 0.4570
559.202389 0.4530 0.4510 0.4430 0.4430 0.4410
565.854285 0.4350 0.4310 0.4270 0.4240 0.4190
572.506181 0.4150 0.4120 0.4100 0.4020 0.3990
579.158077 0.3940 0.3900 0.3830 0.3820 0.3731
585.809973 0.3630 0.3520 0.3410 0.3330 0.3230
592.461870 0.3170 0.3120 0.3020 0.2980 0.2881
599.113766 0.2730 0.2600 0.2450 0.2380 0.2310
605.765662 0.2220 0.2110 0.1981 0.1890 0.1820
612.417558 0.1710 0.1620 0.1510 0.1480 0.1430
619.069454 0.1390 0.1380 0.1360 0.1360 0.1360
625.721350 0.1380 0.1380 0.1390 0.1400 0.1440
632.373246 0.1500 0.1520 0.1590 0.1640 0.1660
639.025142 0.1800 0.1910 0.2010 0.2220 0.2410
645.677038 0.2619 0.2859 0.3019 0.3428 0.3907
652.328934 0.4180 0.4650 0.5180 0.5689 0.6009
658.980830 0.6499 0.6749 0.7327 0.7738 0.8008
665.632727 0.8240 0.8390 0.8440 0.8510 0.8999
672.284623 0.9150 0.9299 0.9499 0.9649 0.9730
678.936519 0.9830 0.9900 0.9930 0.9950 0.9970
685.588415 0.9980 0.9980 0.9970 0.9970 0.9950
692.240311 0.9950 0.9940 0.9930 0.9910 0.9900
698.892207 0.9890 0.9890 0.9870 0.9860 0.9860
705.544103 0.9860 0.9860 0.9870 0.9870 0.9890
712.195999 0.9900 0.9900 0.9900 0.9890 0.9860
718.847895 0.9830 0.9820 0.9790 0.9770 0.9730
725.499791 0.9700 0.9630 0.9580 0.9530 0.9450
732.151687 0.9380 0.9320 0.9260 0.9220 0.9180
738.803584 0.9120 0.8991 0.8920 0.8880 0.8830
745.455480 0.8790 0.8680 0.8640 0.8600 0.8530
752.107376 0.8490 0.8450 0.8410 0.8330 0.8280
758.759272 0.8210 0.8170 0.8100 0.8040 0.8020
765.411168 0.7960 0.7920 0.7860 0.7840 0.7800
772.063064 0.7780 0.7770 0.7740 0.7700 0.7650
778.714960 0.7640 0.7610 0.7540 0.7520 0.7520
785.366856 0.7470 0.7450 0.7420 0.7410 0.7370
792.018752 0.7340 0.7330 0.7310 0.7300 0.7270
798.670648 0.7250 0.7230 0.7210 0.7180 0.7150
805.322544 0.7140 0.7110 0.7110 0.7100 0.7050
811.974441 0.7030 0.7020 0.7010 0.6990 0.6970
818.626337 0.6940 0.6930 0.6900 0.6890 0.6870
825.278233 0.6840 0.6840 0.6830 0.6820 0.6800
831.930129 0.6760 0.6750 0.6720 0.6710 0.6710
838.582025 0.6700 0.6670 0.6660 0.6640 0.6630
845.233921 0.6580 0.6540 0.6520 0.6500 0.6480
851.885817 0.6460 0.6460 0.6440 0.6430 0.6420
858.537713 0.6400 0.6360 0.6350 0.6340 0.6320
865.189609 0.6310 0.6300 0.6300 0.6280 0.6260
871.841505 0.6230 0.6210 0.6200 0.6190 0.6170
878.493402 0.6160 0.6160 0.6150 0.6130 0.6120
885.145298 0.6120 0.6110 0.6080 0.6070 0.6050
891.797194 0.6040 0.6030 0.6030 0.6010 0.6000
898.449090 0.6000 0.5990 0.5960 0.5950 0.5930
905.100986 0.5920 0.5910 0.5880 0.5850 0.5850
911.752882 0.5840 0.5840 0.5840 0.5830 0.5800
918.404778 0.5770 0.5760 0.5760 0.5750 0.5750
925.056674 0.5730 0.5730 0.5720 0.5720 0.5710
931.708570 0.5680 0.5670 0.5650 0.5650 0.5640
938.360466 0.5610 0.5610 0.5600 0.5580 0.5580
945.012362 0.5580 0.5570 0.5570 0.5570 0.5540
951.664259 0.5540 0.5530 0.5520 0.5500 0.5500
958.316155 0.5490 0.5490 0.5460 0.5460 0.5450
964.968051 0.5440 0.5420 0.5410 0.5410 0.5400
971.619947 0.5370 0.5370 0.5360 0.5340 0.5320
978.271843 0.5320 0.5300 0.5300 0.5290 0.5290
984.923739 0.5290 0.5280 0.5280 0.5260 0.5250
991.575635 0.5240 0.5220 0.5210 0.5210 0.5180
998.227531 0.5170 0.5160 0.5160 0.5160 0.5140
1004.879427 0.5130 0.5120 0.5120 0.5100 0.5090
1011.531323 0.5060 0.5060 0.5050 0.5050 0.5040
1018.183219 0.5040 0.5010 0.5000 0.4980 0.4950
1024.835116 0.4940 0.4940 0.4930 0.4930 0.4910
1031.487012 0.4910 0.4900 0.4900 0.4890 0.4890
1038.138908 0.4870 0.4860 0.4850 0.4850 0.4830
1044.790804 0.4830 0.4820 0.4820 0.4820 0.4810
1051.442700 0.4810 0.4790 0.4790 0.4780 0.4770
1058.094596 0.4750 0.4750 0.4740 0.4730 0.4730
1064.746492 0.4710 0.4700 0.4700 0.4670 0.4670
1071.398388 0.4660 0.4650 0.4630 0.4630 0.4620
1078.050284 0.4620 0.4610 0.4610 0.4610 0.4590
1084.702180 0.4590 0.4580 0.4580 0.4570 0.4570
1091.354076 0.4550 0.4550 0.4550 0.4540 0.4540
1098.005973 0.4540 0.4530 0.4510 0.4510 0.4510
1104.657869 0.4500 0.4500 0.4500 0.4490 0.4490
1111.309765 0.4470 0.4470 0.4460 0.4460 0.4450
1117.961661 0.4430 0.4430 0.4430 0.4420 0.4420
1124.613557 0.4420 0.4420 0.4430 0.4430 0.4430
1131.265453 0.4430 0.4430 0.4430 0.4420 0.4420
1137.917349 0.4420 0.4420 0.4420 0.4410 0.4410
1144.569245 0.4410 0.4390 0.4390 0.4390 0.4390
1151.221141 0.4390 0.4390 0.4390 0.4380 0.4360
1157.873037 0.4360 0.4360 0.4360 0.4350 0.4340
1164.524934 0.4340 0.4340 0.4340 0.4340 0.4340
1171.176830 0.4320 0.4310 0.4310 0.4310 0.4310
1177.828726 0.4310 0.4310 0.4310 0.4300 0.4300
1184.480622 0.4300 0.4300 0.4300 0.4300 0.4280
1191.132518 0.4270 0.4260 0.4260 0.4260 0.4260
1197.784414 0.4260 0.4260 0.4230 0.4200 0.4200
1204.436310 0.4200 0.4200 0.4200 0.4200 0.4200
1211.088206 0.4200 0.4200 0.4200 0.4200 0.4200
1217.740102 0.4190 0.4180 0.4160 0.4140 0.4120
1224.391998 0.4120 0.4120 0.4120 0.4120 0.4120
1231.043894 0.4120 0.4120 0.4110 0.4110 0.4100
1237.695791 0.4100 0.4100 0.4100 0.4100 0.4080
1244.347687 0.4080 0.4070 0.4040 0.4030 0.4030
1250.999583 0.4020 0.4020 0.4020 0.4000 0.4000
1257.651479 0.4000 0.4000 0.4000 0.4000 0.4000
1264.303375 0.4000 0.4000 0.3990 0.3990 0.3990
1270.955271 0.3990 0.3980 0.3980 0.3980 0.3960
1277.607167 0.3940 0.3940 0.3940 0.3920 0.3910
1284.259063 0.3900 0.3900 0.3880 0.3880 0.3880
1290.910959 0.3880 0.3900 0.3900 0.3900 0.3900
1297.562855 0.3900 0.3900 0.3880 0.3880 0.3870
1304.214751 0.3860 0.3840 0.3830 0.3820 0.3800
1310.866648 0.3800 0.3800 0.3800 0.3800 0.3800
1317.518544 0.3800 0.3800 0.3800 0.3800 0.3800
1324.170440 0.3800 0.3790 0.3790 0.3790 0.3790
1330.822336 0.3780 0.3780 0.3760 0.3760 0.3750
1337.474232 0.3730 0.3730 0.3730 0.3730 0.3720
1344.126128 0.3710 0.3710 0.3690 0.3690 0.3680
1350.778024 0.3670 0.3670 0.3650 0.3640 0.3640
1357.429920 0.3630 0.3630 0.3610 0.3600 0.3600
1364.081816 0.3600 0.3600 0.3600 0.3600 0.3600
1370.733712 0.3600 0.3610 0.3600 0.3600 0.3590
1377.385609 0.3590 0.3570 0.3570 0.3560 0.3560
1384.037505 0.3560 0.3550 0.3550 0.3550 0.3550
1390.689401 0.3530 0.3550 0.3550 0.3530 0.3530
1397.341297 0.3530 0.3530 0.3530 0.3520 0.3510
1403.993193 0.3510 0.3490 0.3490 0.3490 0.3490
1410.645089 0.3490 0.3490 0.3490 0.3490 0.3490
1417.296985 0.3490 0.3490 0.3480 0.3470 0.3450
1423.948881 0.3450 0.3450 0.3470 0.3480 0.3480
1430.600777 0.3470 0.3450 0.3440 0.3430 0.3430
1437.252673 0.3430 0.3430 0.3430 0.3430 0.3410
1443.904569 0.3400 0.3400 0.3400 0.3400 0.3400
1450.556466 0.3390 0.3390 0.3360 0.3360 0.3360
1457.208362 0.3360 0.3350 0.3330 0.3320 0.3310
1463.860258 0.3310 0.3310 0.3310 0.3320 0.3330
1470.512154 0.3330 0.3320 0.3310 0.3310 0.3310
1477.164050 0.3310 0.3310 0.3320 0.3330 0.3330
1483.815946 0.3320 0.3320 0.3320 0.3320 0.3320
1490.467842 0.3320 0.3310 0.3290 0.3290 0.3280
1497.119738 0.3280 0.3270 0.3270 0.3250 0.3250
1503.771634 0.3250 0.3250 0.3230 0.3210 0.3200
1510.423530 0.3210 0.3200 0.3200 0.3200 0.3200
1517.075426 0.3200 0.3200 0.3200 0.3200 0.3200
1523.727323 0.3200 0.3200 0.3200 0.3190 0.3190
1530.379219 0.3190 0.3190 0.3190 0.3190 0.3200
1537.031115 0.3200 0.3200 0.3200 0.3190 0.3190
1543.683011 0.3190 0.3170 0.3170 0.3160 0.3160
1550.334907 0.3160 0.3150 0.3150 0.3130 0.3130
1556.986803 0.3120 0.3120 0.3100 0.3100 0.3100
1563.638699 0.3100 0.3090 0.3090 0.3080 0.3080
1570.290595 0.3080 0.3060 0.3060 0.3050 0.3040
1576.942491 0.3020 0.3010 0.3010 0.3010 0.3000
1583.594387 0.3000 0.3000 0.3000 0.3000 0.3000
1590.246283 0.2980 0.2980 0.2970 0.2970 0.2970
1596.898180 0.2960 0.2960 0.2960 0.2960 0.2940
1603.550076 0.2930 0.2930 0.2920 0.2900 0.2900
1610.201972 0.2900 0.2890 0.2860 0.2850 0.2840
1616.853868 0.2820 0.2820 0.2820 0.2820 0.2840
1623.505764 0.2840 0.2840 0.2840 0.2840 0.2840
1630.157660 0.2840 0.2850 0.2860 0.2850 0.2850
1636.809556 0.2850 0.2850 0.2860 0.2860 0.2880
1643.461452 0.2890 0.2890 0.2890 0.2890 0.2890
1650.113348 0.2890 0.2860 0.2850 0.2840 0.2840
1656.765244 0.2850 0.2850 0.2850 0.2850 0.2860
1663.417141 0.2860 0.2850 0.2850 0.2850 0.2860
1670.069037 0.2890 0.2890 0.2920 0.2920 0.2930
1676.720933 0.2930 0.2920 0.2920 0.2930 0.2920
1683.372829 0.2920 0.2920 0.2920 0.2920 0.2920
1690.024725 0.2920 0.2900 0.2900 0.2880 0.2880
1696.676621 0.2880 0.2880 0.2860 0.2860 0.2850
1703.328517 0.2820 0.2820 0.2820 0.2820 0.2820
1709.980413 0.2820 0.2810 0.2800 0.2800 0.2800
1716.632309 0.2800 0.2810 0.2810 0.2800 0.2800
1723.284205 0.2810 0.2810 0.2810 0.2810 0.2810
1729.936101 0.2820 0.2820 0.2820 0.2820 0.2820
1736.587998 0.2810 0.2810 0.2810 0.2810 0.2800
1743.239894 0.2800 0.2800 0.2800 0.2800 0.2800
1749.891790 0.2800 0.2800 0.2800 0.2800 0.2800
1756.543686 0.2800 0.2800 0.2800 0.2800 0.2800
1763.195582 0.2800 0.2780 0.2770 0.2770 0.2770
1769.847478 0.2760 0.2760 0.2740 0.2740 0.2740
1776.499374 0.2740 0.2740 0.2740 0.2740 0.2740
1783.151270 0.2740 0.2740 0.2740 0.2740 0.2740
1789.803166 0.2740 0.2730 0.2720 0.2720 0.2720
1796.455062 0.2720 0.2720 0.2720 0.2720 0.2720
1803.106958 0.2700 0.2700 0.2700 0.2700 0.2700
1809.758855 0.2700 0.2700 0.2690 0.2690 0.2680
1816.410751 0.2660 0.2660 0.2660 0.2660 0.2680
1823.062647 0.2680 0.2690 0.2690 0.2690 0.2690
1829.714543 0.2690 0.2690 0.2690 0.2680 0.2660
1836.366439 0.2660 0.2650 0.2650 0.2650 0.2640
1843.018335 0.2640 0.2640 0.2640 0.2640 0.2620
1849.670231 0.2620 0.2620 0.2620 0.2620 0.2620
1856.322127 0.2620 0.2620 0.2610 0.2610 0.2610
1862.974023 0.2610 0.2610 0.2600 0.2600 0.2600
1869.625919 0.2580 0.2580 0.2570 0.2570 0.2560
1876.277816 0.2540 0.2540 0.2540 0.2560 0.2570
1882.929712 0.2570 0.2580 0.2580 0.2600 0.2600
1889.581608 0.2600 0.2600 0.2580 0.2580 0.2580
1896.233504 0.2580 0.2580 0.2570 0.2560 0.2540
1902.885400 0.2530 0.2530 0.2520 0.2520 0.2520
1909.537296 0.2530 0.2530 0.2520 0.2520 0.2530
1916.189192 0.2530 0.2520 0.2520 0.2520 0.2500
1922.841088 0.2500 0.2490 0.2490 0.2490 0.2490
1929.492984 0.2500 0.2500 0.2500 0.2490 0.2490
1936.144880 0.2490 0.2490 0.2490 0.2490 0.2500
1942.796776 0.2500 0.2500 0.2500 0.2500 0.2500
1949.448673 0.2500 0.2500 0.2520 0.2520 0.2500
1956.100569 0.2500 0.2490 0.2490 0.2490 0.2490
1962.752465 0.2490 0.2470 0.2460 0.2450 0.2450
1969.404361 0.2430 0.2430 0.2430 0.2430 0.2420
1976.056257 0.2420 0.2410 0.2410 0.2420 0.2420
1982.708153 0.2410 0.2410 0.2410 0.2420 0.2420
1989.360049 0.2420 0.2420 0.2410 0.2390 0.2390
1996.011945 0.2390 0.2390 0.2390 0.2390 0.2400
2002.663841 0.2410 0.2410 0.2410 0.2415 0.2420
2009.315737 0.2420 0.2420 0.2420 0.2420 0.2420
2015.967633 0.2420 0.2420 0.2420 0.2415 0.2410
2022.619530 0.2400 0.2390 0.2390 0.2390 0.2390
2029.271426 0.2390 0.2390 0.2390 0.2390 0.2390
2035.923322 0.2390 0.2390 0.2390 0.2390 0.2390
2042.575218 0.2390 0.2385 0.2380 0.2380 0.2380
2049.227114 0.2380 0.2380 0.2380 0.2380 0.2380
2055.879010 0.2380 0.2380 0.2380 0.2380 0.2380
2062.530906 0.2375 0.2370 0.2361 0.2351 0.2350
2069.182802 0.2350 0.2345 0.2340 0.2335 0.2330
2075.834698 0.2316 0.2301 0.2300 0.2300 0.2295
2082.486594 0.2290 0.2290 0.2290 0.2290 0.2290
2089.138490 0.2281 0.2271 0.2270 0.2270 0.2270
2095.790387 0.2270 0.2270 0.2270 0.2270 0.2270
2102.442283 0.2270 0.2270 0.2270 0.2270 0.2265
2109.094179 0.2260 0.2255 0.2250 0.2250 0.2250
2115.746075 0.2250 0.2250 0.2250 0.2250 0.2241
2122.397971 0.2231 0.2230 0.2230 0.2230 0.2230
2129.049867 0.2226 0.2221 0.2220 0.2220 0.2220
2135.701763 0.2220 0.2220 0.2220 0.2220 0.2220
2142.353659 0.2216 0.2211 0.2210 0.2210 0.2210
2149.005555 0.2210 0.2210 0.2210 0.2201 0.2191
2155.657451 0.2190 0.2190 0.2190 0.2190 0.2190
2162.309348 0.2190 0.2190 0.2190 0.2190 0.2190
2168.961244 0.2190 0.2190 0.2190 0.2190 0.2190
2175.613140 0.2190 0.2190 0.2190 0.2190 0.2190
2182.265036 0.2190 0.2190 0.2190 0.2190 0.2190
2188.916932 0.2190 0.2190 0.2190 0.2190 0.2190
2195.568828 0.2190 0.2190 0.2190 0.2190 0.2190
2202.220724 0.2190 0.2186 0.2181 0.2180 0.2180
2208.872620 0.2167 0.2152 0.2150 0.2150 0.2150
2215.524516 0.2150 0.2150 0.2150 0.2150 0.2150
2222.176412 0.2150 0.2150 0.2146 0.2141 0.2140
2228.828308 0.2140 0.2140 0.2140 0.2140 0.2140
2235.480205 0.2140 0.2140 0.2140 0.2140 0.2136
2242.132101 0.2131 0.2122 0.2112 0.2106 0.2101
2248.783997 0.2100 0.2100 0.2100 0.2100 0.2100
2255.435893 0.2100 0.2100 0.2100 0.2100 0.2100
2262.087789 0.2104 0.2109 0.2110 0.2110 0.2110
2268.739685 0.2110 0.2106 0.2101 0.2096 0.2091
2275.391581 0.2090 0.2090 0.2090 0.2090 0.2094
2282.043477 0.2099 0.2096 0.2091 0.2090 0.2090
2288.695373 0.2090 0.2090 0.2082 0.2072 0.2070
2295.347269 0.2070 0.2066 0.2061 0.2060 0.2060
2301.999165 0.2056 0.2051 0.2050 0.2050 0.2050
2308.651062 0.2050 0.2050 0.2050 0.2050 0.2050
2315.302958 0.2050 0.2050 0.2050 0.2050 0.2050
2321.954854 0.2050 0.2050 0.2050 0.2042 0.2032
2328.606750 0.2030 0.2030 0.2026 0.2021 0.2020
2335.258646 0.2020 0.2016 0.2011 0.2010 0.2010
2341.910542 0.2010 0.2010 0.2002 0.1992 0.1990
2348.562438 0.1990 0.1990 0.1990 0.1990 0.1990
2355.214334 0.1990 0.1990 0.1990 0.1990 0.1990
2361.866230 0.1990 0.1990 0.1990 0.1990 0.1990
2368.518126 0.1990 0.1990 0.1986 0.1981 0.1980
2375.170023 0.1980 0.1980 0.1980 0.1980 0.1980
2381.821919 0.1980 0.1980 0.1980 0.1980 0.1980
2388.473815 0.1980 0.1976 0.1971 0.1970 0.1970
2395.125711 0.1970 0.1970 0.1970 0.1970 0.1970
2401.777607 0.1970 0.1963 0.1953 0.1950 0.1950
2408.429503 0.1950 0.1950 0.1950 0.1950 0.1950
2415.081399 0.1950 0.1950 0.1950 0.1946 0.1941
2421.733295 0.1940 0.1940 0.1940 0.1940 0.1936
2428.385191 0.1931 0.1930 0.1930 0.1930 0.1930
2435.037087 0.1930 0.1930 0.1930 0.1930 0.1930
2441.688983 0.1930 0.1923 0.1913 0.1910 0.1910
2448.340880 0.1910 0.1910 0.1910 0.1910 0.1910
2454.992776 0.1910 0.1910 0.1910 0.1910 0.1910
2461.644672 0.1907 0.1902 0.1900 0.1900 0.1900
2468.296568 0.1900 0.1897 0.1892 0.1890 0.1890
2474.948464 0.1890 0.1890 0.1890 0.1890 0.1893
2481.600360 0.1898 0.1900 0.1900 0.1900 0.1900
2488.252256 0.1897 0.1892 0.1890 0.1890 0.1890
2494.904152 0.1890 0.1890 0.1890 0.1890 0.1890
2501.556048 0.1890 0.1890 0.1883 0.1873 0.1870
2508.207944 0.1870 0.1870 0.1870 0.1867 0.1862
2514.859840 0.1860 0.1860 0.1854 0.1844 0.1840
2521.511737 0.1840 0.1837 0.1832 0.1827 0.1822
2528.163633 0.1820 0.1820 0.1820 0.1820 0.1820
2534.815529 0.1820 0.1820 0.1820 0.1820 0.1820
2541.467425 0.1820 0.1820 0.1820 0.1820 0.1814
2548.119321 0.1804 0.1800 0.1800 0.1800 0.1800
2554.771217 0.1800 0.1800 0.1800 0.1800 0.1800
2561.423113 0.1800 0.1800 0.1800 0.1800 0.1800
2568.075009 0.1800 0.1800 0.1800 0.1800 0.1800
2574.726905 0.1800 0.1800 0.1800 0.1794 0.1784
2581.378801 0.1780 0.1780 0.1780 0.1780 0.1780
2588.030697 0.1780 0.1774 0.1764 0.1760 0.1760
2594.682594 0.1760 0.1760 0.1760 0.1760 0.1760
2601.334490 0.1760 0.1760 0.1760 0.1760 0.1760
2607.986386 0.1754 0.1744 0.1740 0.1740 0.1740
2614.638282 0.1740 0.1740 0.1740 0.1743 0.1748
2621.290178 0.1759 0.1774 0.1780 0.1780 0.1780
2627.942074 0.1780 0.1780 0.1780 0.1780 0.1780
2634.593970 0.1774 0.1764 0.1757 0.1752 0.1741
2641.245866 0.1726 0.1717 0.1712 0.1710 0.1710
2647.897762 0.1710 0.1710 0.1710 0.1710 0.1710
2654.549658 0.1710 0.1710 0.1710 0.1710 0.1710
2661.201555 0.1710 0.1710 0.1710 0.1710 0.1710
2667.853451 0.1710 0.1710 0.1710 0.1710 0.1710
2674.505347 0.1707 0.1702 0.1700 0.1700 0.1695
2681.157243 0.1685 0.1680 0.1680 0.1680 0.1680
2687.809139 0.1685 0.1695 0.1700 0.1700 0.1700
2694.461035 0.1700 0.1700 0.1700 0.1700 0.1700
2701.112931 0.1695 0.1685 0.1680 0.1680 0.1677
2707.764827 0.1672 0.1670 0.1670 0.1670 0.1670
2714.416723 0.1670 0.1670 0.1670 0.1670 0.1670
2721.068619 0.1670 0.1670 0.1670 0.1670 0.1670
2727.720515 0.1670 0.1670 0.1670 0.1670 0.1670
2734.372412 0.1670 0.1670 0.1670 0.1670 0.1670
2741.024308 0.1670 0.1670 0.1670 0.1670 0.1670
2747.676204 0.1670 0.1670 0.1670 0.1670 0.1670
2754.328100 0.1668 0.1663 0.1660 0.1660 0.1653
2760.979996 0.1638 0.1630 0.1630 0.1630 0.1630
2767.631892 0.1628 0.1623 0.1615 0.1605 0.1600
2774.283788 0.1600 0.1600 0.1600 0.1600 0.1600
2780.935684 0.1600 0.1600 0.1600 0.1600 0.1598
2787.587580 0.1593 0.1590 0.1590 0.1588 0.1583
2794.239476 0.1580 0.1580 0.1580 0.1580 0.1582
2800.891372 0.1587 0.1590 0.1590 0.1590 0.1590
2807.543269 0.1590 0.1590 0.1590 0.1590 0.1590
2814.195165 0.1590 0.1590 0.1590 0.1590 0.1590
2820.847061 0.1588 0.1583 0.1576 0.1566 0.1560
2827.498957 0.1560 0.1560 0.1560 0.1560 0.1560
2834.150853 0.1560 0.1560 0.1564 0.1574 0.1576
2840.802749 0.1566 0.1560 0.1560 0.1560 0.1560
2847.454645 0.1558 0.1553 0.1550 0.1550 0.1550
2854.106541 0.1550 0.1548 0.1543 0.1536 0.1526
2860.758437 0.1524 0.1534 0.1536 0.1526 0.1520
2867.410333 0.1520 0.1520 0.1520 0.1518 0.1513
2874.062229 0.1510 0.1510 0.1508 0.1503 0.1500
2880.714126 0.1500 0.1502 0.1507 0.1510 0.1510
2887.366022 0.1508 0.1503 0.1500 0.1500 0.1500
2894.017918 0.1500 0.1500 0.1500 0.1496 0.1486
2900.669814 0.1478 0.1473 0.1470 0.1470 0.1470
2907.321710 0.1470 0.1470 0.1470 0.1470 0.1470
2913.973606 0.1470 0.1470 0.1470 0.1470 0.1470
2920.625502 0.1470 0.1470 0.1470 0.1470 0.1470
2927.277398 0.1470 0.1470 0.1470 0.1470 0.1470
2933.929294 0.1470 0.1470 0.1470 0.1468 0.1463
2940.581190 0.1460 0.1460 0.1462 0.1467 0.1470
2947.233087 0.1470 0.1470 0.1470 0.1470 0.1470
2953.884983 0.1468 0.1463 0.1457 0.1446 0.1440
2960.536879 0.1440 0.1440 0.1440 0.1440 0.1440
2967.188775 0.1440 0.1440 0.1445 0.1460 0.1468
2973.840671 0.1463 0.1460 0.1460 0.1460 0.1460
2980.492567 0.1457 0.1447 0.1443 0.1453 0.1460
2987.144463 0.1460 0.1462 0.1467 0.1470 0.1470
2993.796359 0.1470 0.1470 0.1470 0.1470 0.1470
3000.448255 0.1470 0.1470 0.1470 0.1468 0.1463
3007.100151 0.1460 0.1460 0.1460 0.1460 0.1457
3013.752047 0.1447 0.1438 0.1433 0.1430 0.1430
3020.403944 0.1428 0.1423 0.1420 0.1420 0.1420
3027.055840 0.1420 0.1420 0.1420 0.1421 0.1426
3033.707736 0.1430 0.1430 0.1429 0.1423 0.1420
3040.359632 0.1420 0.1420 0.1420 0.1420 0.1420
3047.011528 0.1420 0.1420 0.1421 0.1426 0.1430
3053.663424 0.1430 0.1430 0.1430 0.1426 0.1411
3060.315320 0.1400 0.1400 0.1400 0.1400 0.1403
3066.967216 0.1413 0.1420 0.1420 0.1420 0.1420
3073.619112 0.1420 0.1420 0.1420 0.1420 0.1420
3080.271008 0.1420 0.1420 0.1420 0.1420 0.1420
3086.922904 0.1420 0.1420 0.1417 0.1407 0.1399
3093.574801 0.1394 0.1390 0.1390 0.1389 0.1384
3100.226697 0.1380 0.1380 0.1380 0.1380 0.1380
3106.878593 0.1380 0.1380 0.1380 0.1380 0.1380
3113.530489 0.1380 0.1380 0.1380 0.1380 0.1380
3120.182385 0.1380 0.1380 0.1380 0.1380 0.1380
3126.834281 0.1378 0.1368 0.1360 0.1360 0.1359
3133.486177 0.1354 0.1350 0.1350 0.1349 0.1344
3140.138073 0.1340 0.1340 0.1341 0.1346 0.1349
3146.789969 0.1344 0.1340 0.1340 0.1340 0.1340
3153.441865 0.1340 0.1340 0.1341 0.1346 0.1350
3160.093762 0.1350 0.1349 0.1344 0.1340 0.1340
3166.745658 0.1341 0.1346 0.1351 0.1356 0.1360
3173.397554 0.1360 0.1359 0.1354 0.1350 0.1350
3180.049450 0.1349 0.1344 0.1338 0.1328 0.1319
3186.701346 0.1314 0.1310 0.1310 0.1310 0.1310
3193.353242 0.1310 0.1310 0.1310 0.1310 0.1310
3200.005138 0.1310 0.1311 0.1316 0.1320 0.1320
3206.657034 0.1320 0.1320 0.1320 0.1320 0.1320
3213.308930 0.1320 0.1320 0.1320 0.1320 0.1320
3219.960826 0.1319 0.1314 0.1311 0.1316 0.1320
3226.612722 0.1320 0.1319 0.1314 0.1310 0.1310
3233.264619 0.1309 0.1304 0.1300 0.1300 0.1301
3239.916515 0.1306 0.1310 0.1310 0.1309 0.1304
3246.568411 0.1300 0.1300 0.1300 0.1300 0.1300
3253.220307 0.1300 0.1300 0.1300 0.1298 0.1288
3259.872203 0.1280 0.1280 0.1280 0.1280 0.1282
3266.524099 0.1297 0.1310 0.1310 0.1309 0.1304
3273.175995 0.1300 0.1300 0.1300 0.1300 0.1298
3279.827891 0.1289 0.1280 0.1280 0.1280 0.1280
3286.479787 0.1280 0.1280 0.1280 0.1280 0.1280
3293.131683 0.1280 0.1280 0.1280 0.1280 0.1280
3299.783579 0.1279 0.1274 0.1270 0.1270 0.1270
3306.435476 0.1270 0.1270 0.1270 0.1270 0.1270
3313.087372 0.1270 0.1270 0.1270 0.1270 0.1269
3319.739268 0.1264 0.1259 0.1249 0.1240 0.1240
3326.391164 0.1240 0.1240 0.1240 0.1240 0.1240
3333.043060 0.1240 0.1240 0.1240 0.1241 0.1251
3339.694956 0.1259 0.1249 0.1240 0.1240 0.1240
3346.346852 0.1240 0.1240 0.1235 0.1229 0.1214
3352.998748 0.1200 0.1200 0.1200 0.1200 0.1200
3359.650644 0.1195 0.1189 0.1179 0.1170 0.1170
3366.302540 0.1170 0.1165 0.1160 0.1155 0.1150
3372.954436 0.1150 0.1150 0.1150 0.1150 0.1155
3379.606333 0.1160 0.1165 0.1170 0.1170 0.1170
3386.258229 0.1165 0.1160 0.1160 0.1160 0.1160
3392.910125 0.1160 0.1160 0.1160 0.1155 0.1150
3399.562021 0.1150 0.1150 0.1150 0.1150 0.1140
3406.213917 0.1130 0.1130 0.1130 0.1125 0.1120
3412.865813 0.1120 0.1120 0.1120 0.1120 0.1120
3419.517709 0.1120 0.1120 0.1120 0.1115 0.1110
3426.169605 0.1100 0.1090 0.1090 0.1090 0.1085
3432.821501 0.1080 0.1080 0.1080 0.1080 0.1080
3439.473397 0.1085 0.1090 0.1100 0.1110 0.1110
3446.125294 0.1110 0.1110 0.1110 0.1110 0.1110
3452.777190 0.1110 0.1110 0.1110 0.1110 0.1110
3459.429086 0.1110 0.1110 0.1110 0.1110 0.1110
3466.080982 0.1110 0.1110 0.1110 0.1110 0.1110
3472.732878 0.1110 0.1110 0.1110 0.1110 0.1110
3479.384774 0.1110 0.1110 0.1110 0.1110 0.1110
3486.036670 0.1110 0.1110 0.1110 0.1110 0.1110
3492.688566 0.1110 0.1110 0.1110 0.1110 0.1110
3499.340462 0.1110 0.1110 0.1110 0.1110 0.1110
3505.992358 0.1110 0.1110 0.1115 0.1120 0.1120
3512.644254 0.1120 0.1120 0.1120 0.1115 0.1110
3519.296151 0.1115 0.1120 0.1120 0.1120 0.1120
3525.948047 0.1120 0.1120 0.1120 0.1125 0.1130
3532.599943 0.1130 0.1130 0.1120 0.1110 0.1110
3539.251839 0.1110 0.1115 0.1120 0.1120 0.1120
3545.903735 0.1120 0.1120 0.1120 0.1120 0.1120
3552.555631 0.1120 0.1120 0.1120 0.1120 0.1120
3559.207527 0.1120 0.1120 0.1120 0.1120 0.1120
3565.859423 0.1120 0.1120 0.1120 0.1125 0.1130
3572.511319 0.1125 0.1120 0.1120 0.1120 0.1120
3579.163215 0.1120 0.1125 0.1130 0.1130 0.1130
3585.815111 0.1130 0.1130 0.1130 0.1130 0.1130
3592.467008 0.1130 0.1130 0.1130 0.1130 0.1130
3599.118904 0.1139 0.1149 0.1150 0.1150 0.1150
3605.770800 0.1150 0.1150 0.1150 0.1150 0.1150
3612.422696 0.1150 0.1150 0.1150 0.1150 0.1155
3619.074592 0.1160 0.1160 0.1160 0.1160 0.1160
3625.726488 0.1165 0.1170 0.1170 0.1170 0.1170
3632.378384 0.1170 0.1165 0.1160 0.1160 0.1160
3639.030280 0.1156 0.1151 0.1150 0.1150 0.1150
3645.682176 0.1150 0.1154 0.1159 0.1164 0.1170
3652.334072 0.1179 0.1189 0.1194 0.1199 0.1200
3658.985969 0.1200 0.1196 0.1191 0.1190 0.1190
3665.637865 0.1190 0.1190 0.1181 0.1171 0.1170
3672.289761 0.1170 0.1170 0.1170 0.1170 0.1170
3678.941657 0.1170 0.1170 0.1166 0.1161 0.1160
3685.593553 0.1160 0.1164 0.1169 0.1170 0.1170
3692.245449 0.1170 0.1170 0.1170 0.1170 0.1166
3698.897345 0.1161 0.1156 0.1151 0.1150 0.1150
3705.549241 0.1141 0.1131 0.1130 0.1130 0.1130
3712.201137 0.1130 0.1130 0.1130 0.1138 0.1148
3718.853033 0.1150 0.1150 0.1142 0.1132 0.1130
3725.504929 0.1130 0.1126 0.1121 0.1120 0.1120
3732.156826 0.1120 0.1120 0.1120 0.1120 0.1124
3738.808722 0.1129 0.1130 0.1130 0.1130 0.1130
3745.460618 0.1130 0.1130 0.1130 0.1130 0.1130
3752.112514 0.1130 0.1130 0.1130 0.1126 0.1121
3758.764410 0.1120 0.1120 0.1120 0.1120 0.1120
3765.416306 0.1120 0.1116 0.1111 0.1110 0.1110
3772.068202 0.1102 0.1092 0.1090 0.1090 0.1090
3778.720098 0.1090 0.1086 0.1081 0.1080 0.1080
3785.371994 0.1080 0.1080 0.1080 0.1080 0.1080
3792.023890 0.1080 0.1080 0.1080 0.1080 0.1080
3798.675786 0.1084 0.1089 0.1098 0.1108 0.1110
3805.327683 0.1110 0.1110 0.1110 0.1102 0.1092
3811.979579 0.1090 0.1090 0.1086 0.1081 0.1080
3818.631475 0.1080 0.1080 0.1080 0.1080 0.1080
3825.283371 0.1084 0.1089 0.1098 0.1108 0.1114
3831.935267 0.1119 0.1120 0.1120 0.1124 0.1129
3838.587163 0.1130 0.1130 0.1130 0.1130 0.1126
3845.239059 0.1121 0.1116 0.1111 0.1110 0.1110
3851.890955 0.1110 0.1110 0.1102 0.1093 0.1090
3858.542851 0.1090 0.1086 0.1081 0.1080 0.1080
3865.194747 0.1080 0.1080 0.1080 0.1080 0.1080
3871.846643 0.1080 0.1080 0.1080 0.1084 0.1089
3878.498540 0.1097 0.1107 0.1110 0.1110 0.1110
3885.150436 0.1110 0.1103 0.1093 0.1086 0.1081
3891.802332 0.1080 0.1080 0.1080 0.1080 0.1076
3898.454228 0.1071 0.1063 0.1053 0.1050 0.1050
3905.106124 0.1050 0.1050 0.1050 0.1050 0.1057
3911.758020 0.1067 0.1070 0.1070 0.1074 0.1079
3918.409916 0.1080 0.1080 0.1080 0.1080 0.1091
3925.061812 0.1106 0.1110 0.1110 0.1110 0.1110
3931.713708 0.1103 0.1093 0.1090 0.1090 0.1090
3938.365604 0.1090 0.1087 0.1082 0.1080 0.1080
3945.017501 0.1076 0.1071 0.1070 0.1070 0.1063
3951.669397 0.1053 0.1047 0.1042 0.1037 0.1032
3958.321293 0.1023 0.1013 0.1010 0.1010 0.1010
3964.973189 0.1010 0.1007 0.1002 0.1000 0.1000
3971.625085 0.1000 0.1000 0.1000 0.1000 0.1000
3978.276981 0.1000 0.1000 0.1000 0.0997 0.0992
3984.928877 0.0990 0.0990 0.0990 0.0990 0.0990
3991.580773 0.0990
##END=
