##TITLE=Aniline, N-isobutyl-2-tert-butyl-
##JCAMP-DX=4.24
$$ By DXEDIT 1.05 (RS McDonald)
##DATA TYPE=INFRARED SPECTRUM
##CLASS=COBLENTZ III
##ORIGIN=MONSANTO (J. FREEMAN)
##OWNER=COBLENTZ SOC.
Collection (C) 2018 copyright by the U.S. Secretary of Commerce
on behalf of the United States of America. All rights reserved.
##DATE=1959/12/07
##NAMES=N-(2-tert-butylphenyl)-N-isobutylamine
2-tert-butyl-N-isobutylaniline
##MOLFORM=C14 H23 N
##SOURCE REFERENCE=COBLENTZ NO. 08491
##$NIST ID=B6008491
##$NIST SOURCE=COBLENTZ
##$NIST IMAGE=cob8491
##SPECTROMETER/DATA SYSTEM=BECKMAN IR-4 (HYBRID PRISM-GRATING)
##INSTRUMENT PARAMETERS=NaCl PRISM
##STATE=LIQUID (NEAT)
##PATH LENGTH=CAPILLARY
##SAMPLING PROCEDURE=TRANSMISSION
##RESOLUTION=2
##DATA PROCESSING=DIGITIZED BY COBLENTZ SOCIETY (BATCH I) FROM HARD COPY
##XUNITS=1/CM
##YUNITS=TRANSMITTANCE
##XLABEL=Wavenumbers (cm-1)
##YLABEL=Transmittance
##XFACTOR=1
##YFACTOR=1
##DELTAX=1
##FIRSTX=4000
##LASTX=627
##FIRSTY=0.9124
##MAXX=4000
##MINX=627
##MAXY=1.0277
##MINY=0.0722
##NPOINTS=3374
##XYDATA=(X++(Y..Y))
4000.000000 0.9124 0.9124 0.9124 0.9124 0.9124
3995.000000 0.9124 0.9124 0.9125 0.9125 0.9125
3990.000000 0.9125 0.9125 0.9125 0.9125 0.9125
3985.000000 0.9125 0.9125 0.9125 0.9125 0.9125
3980.000000 0.9127 0.9127 0.9127 0.9127 0.9127
3975.000000 0.9127 0.9127 0.9127 0.9127 0.9127
3970.000000 0.9127 0.9127 0.9128 0.9128 0.9128
3965.000000 0.9128 0.9128 0.9128 0.9128 0.9128
3960.000000 0.9128 0.9128 0.9128 0.9128 0.9128
3955.000000 0.9130 0.9130 0.9130 0.9130 0.9130
3950.000000 0.9130 0.9130 0.9130 0.9130 0.9130
3945.000000 0.9130 0.9130 0.9131 0.9131 0.9131
3940.000000 0.9131 0.9131 0.9131 0.9132 0.9132
3935.000000 0.9132 0.9133 0.9133 0.9134 0.9134
3930.000000 0.9135 0.9135 0.9136 0.9136 0.9137
3925.000000 0.9137 0.9138 0.9138 0.9138 0.9139
3920.000000 0.9139 0.9139 0.9140 0.9140 0.9141
3915.000000 0.9141 0.9142 0.9142 0.9143 0.9143
3910.000000 0.9144 0.9144 0.9145 0.9145 0.9146
3905.000000 0.9146 0.9146 0.9147 0.9147 0.9147
3900.000000 0.9148 0.9148 0.9149 0.9149 0.9150
3895.000000 0.9150 0.9151 0.9151 0.9152 0.9152
3890.000000 0.9153 0.9153 0.9154 0.9154 0.9154
3885.000000 0.9155 0.9155 0.9155 0.9155 0.9156
3880.000000 0.9157 0.9157 0.9158 0.9159 0.9159
3875.000000 0.9160 0.9160 0.9161 0.9161 0.9162
3870.000000 0.9162 0.9163 0.9164 0.9164 0.9165
3865.000000 0.9166 0.9166 0.9167 0.9167 0.9168
3860.000000 0.9168 0.9168 0.9170 0.9170 0.9171
3855.000000 0.9171 0.9171 0.9173 0.9174 0.9174
3850.000000 0.9175 0.9175 0.9175 0.9177 0.9178
3845.000000 0.9178 0.9178 0.9178 0.9180 0.9180
3840.000000 0.9181 0.9181 0.9182 0.9183 0.9183
3835.000000 0.9184 0.9185 0.9185 0.9186 0.9186
3830.000000 0.9187 0.9187 0.9188 0.9189 0.9189
3825.000000 0.9190 0.9191 0.9191 0.9192 0.9193
3820.000000 0.9193 0.9194 0.9195 0.9195 0.9196
3815.000000 0.9197 0.9197 0.9198 0.9199 0.9199
3810.000000 0.9200 0.9201 0.9202 0.9202 0.9203
3805.000000 0.9204 0.9204 0.9205 0.9206 0.9206
3800.000000 0.9207 0.9208 0.9208 0.9209 0.9210
3795.000000 0.9211 0.9211 0.9212 0.9213 0.9213
3790.000000 0.9214 0.9215 0.9215 0.9216 0.9217
3785.000000 0.9218 0.9218 0.9218 0.9220 0.9220
3780.000000 0.9221 0.9221 0.9221 0.9221 0.9223
3775.000000 0.9223 0.9224 0.9224 0.9225 0.9225
3770.000000 0.9225 0.9225 0.9225 0.9227 0.9227
3765.000000 0.9228 0.9228 0.9228 0.9228 0.9230
3760.000000 0.9230 0.9231 0.9231 0.9231 0.9232
3755.000000 0.9232 0.9232 0.9233 0.9233 0.9234
3750.000000 0.9235 0.9235 0.9236 0.9236 0.9236
3745.000000 0.9237 0.9237 0.9237 0.9238 0.9238
3740.000000 0.9238 0.9239 0.9239 0.9239 0.9240
3735.000000 0.9240 0.9240 0.9240 0.9240 0.9241
3730.000000 0.9241 0.9241 0.9242 0.9242 0.9242
3725.000000 0.9243 0.9243 0.9243 0.9243 0.9243
3720.000000 0.9244 0.9244 0.9244 0.9244 0.9244
3715.000000 0.9244 0.9245 0.9245 0.9245 0.9245
3710.000000 0.9245 0.9246 0.9246 0.9246 0.9246
3705.000000 0.9246 0.9246 0.9246 0.9246 0.9246
3700.000000 0.9246 0.9246 0.9245 0.9245 0.9244
3695.000000 0.9243 0.9242 0.9242 0.9241 0.9240
3690.000000 0.9239 0.9239 0.9238 0.9237 0.9237
3685.000000 0.9236 0.9235 0.9234 0.9234 0.9233
3680.000000 0.9232 0.9231 0.9231 0.9230 0.9228
3675.000000 0.9228 0.9228 0.9228 0.9227 0.9225
3670.000000 0.9225 0.9223 0.9221 0.9218 0.9217
3665.000000 0.9215 0.9213 0.9211 0.9210 0.9208
3660.000000 0.9206 0.9204 0.9202 0.9200 0.9198
3655.000000 0.9197 0.9195 0.9193 0.9191 0.9189
3650.000000 0.9187 0.9185 0.9183 0.9181 0.9178
3645.000000 0.9175 0.9173 0.9170 0.9167 0.9164
3640.000000 0.9161 0.9157 0.9154 0.9151 0.9148
3635.000000 0.9145 0.9142 0.9139 0.9136 0.9133
3630.000000 0.9130 0.9125 0.9123 0.9118 0.9115
3625.000000 0.9111 0.9108 0.9103 0.9096 0.9089
3620.000000 0.9081 0.9074 0.9067 0.9060 0.9053
3615.000000 0.9046 0.9039 0.9032 0.9023 0.9014
3610.000000 0.9006 0.8997 0.8988 0.8978 0.8970
3605.000000 0.8960 0.8951 0.8942 0.8930 0.8912
3600.000000 0.8893 0.8875 0.8857 0.8838 0.8818
3595.000000 0.8797 0.8777 0.8757 0.8736 0.8721
3590.000000 0.8706 0.8690 0.8675 0.8660 0.8646
3585.000000 0.8633 0.8620 0.8607 0.8594 0.8575
3580.000000 0.8554 0.8532 0.8511 0.8489 0.8468
3575.000000 0.8449 0.8428 0.8409 0.8389 0.8361
3570.000000 0.8323 0.8285 0.8246 0.8208 0.8168
3565.000000 0.8124 0.8080 0.8036 0.7991 0.7947
3560.000000 0.7903 0.7858 0.7815 0.7771 0.7726
3555.000000 0.7683 0.7638 0.7594 0.7550 0.7505
3550.000000 0.7461 0.7417 0.7371 0.7328 0.7283
3545.000000 0.7239 0.7194 0.7150 0.7106 0.7061
3540.000000 0.7015 0.6971 0.6926 0.6882 0.6838
3535.000000 0.6804 0.6769 0.6735 0.6701 0.6668
3530.000000 0.6668 0.6668 0.6668 0.6667 0.6667
3525.000000 0.6667 0.6667 0.6667 0.6667 0.6671
3520.000000 0.6703 0.6736 0.6768 0.6801 0.6835
3515.000000 0.6868 0.6903 0.6938 0.6971 0.7007
3510.000000 0.7041 0.7075 0.7110 0.7144 0.7178
3505.000000 0.7212 0.7248 0.7282 0.7317 0.7351
3500.000000 0.7386 0.7419 0.7455 0.7489 0.7524
3495.000000 0.7558 0.7593 0.7628 0.7661 0.7697
3490.000000 0.7732 0.7767 0.7801 0.7837 0.7871
3485.000000 0.7906 0.7941 0.7975 0.8011 0.8046
3480.000000 0.8081 0.8115 0.8151 0.8186 0.8221
3475.000000 0.8256 0.8291 0.8325 0.8361 0.8396
3470.000000 0.8431 0.8467 0.8502 0.8537 0.8571
3465.000000 0.8608 0.8643 0.8678 0.8714 0.8749
3460.000000 0.8784 0.8820 0.8855 0.8890 0.8925
3455.000000 0.8962 0.8997 0.9032 0.9052 0.9071
3450.000000 0.9091 0.9110 0.9125 0.9132 0.9137
3445.000000 0.9143 0.9149 0.9154 0.9158 0.9163
3440.000000 0.9167 0.9171 0.9175 0.9177 0.9180
3435.000000 0.9183 0.9186 0.9187 0.9188 0.9189
3430.000000 0.9190 0.9191 0.9192 0.9193 0.9194
3425.000000 0.9195 0.9196 0.9197 0.9198 0.9199
3420.000000 0.9200 0.9202 0.9203 0.9204 0.9205
3415.000000 0.9206 0.9206 0.9206 0.9207 0.9207
3410.000000 0.9208 0.9208 0.9208 0.9208 0.9208
3405.000000 0.9209 0.9209 0.9210 0.9210 0.9211
3400.000000 0.9211 0.9212 0.9212 0.9212 0.9213
3395.000000 0.9213 0.9213 0.9213 0.9214 0.9214
3390.000000 0.9214 0.9215 0.9215 0.9216 0.9217
3385.000000 0.9218 0.9218 0.9218 0.9221 0.9221
3380.000000 0.9223 0.9225 0.9225 0.9227 0.9228
3375.000000 0.9230 0.9231 0.9233 0.9234 0.9235
3370.000000 0.9237 0.9238 0.9239 0.9240 0.9240
3365.000000 0.9241 0.9242 0.9243 0.9245 0.9246
3360.000000 0.9247 0.9248 0.9248 0.9249 0.9250
3355.000000 0.9251 0.9252 0.9253 0.9254 0.9255
3350.000000 0.9256 0.9257 0.9258 0.9259 0.9260
3345.000000 0.9261 0.9262 0.9263 0.9264 0.9264
3340.000000 0.9265 0.9266 0.9266 0.9267 0.9268
3335.000000 0.9268 0.9270 0.9271 0.9271 0.9273
3330.000000 0.9274 0.9274 0.9275 0.9275 0.9275
3325.000000 0.9277 0.9278 0.9278 0.9280 0.9281
3320.000000 0.9282 0.9282 0.9282 0.9283 0.9283
3315.000000 0.9284 0.9284 0.9284 0.9284 0.9285
3310.000000 0.9285 0.9286 0.9286 0.9286 0.9287
3305.000000 0.9287 0.9288 0.9288 0.9289 0.9289
3300.000000 0.9290 0.9290 0.9291 0.9291 0.9291
3295.000000 0.9292 0.9292 0.9293 0.9293 0.9294
3290.000000 0.9294 0.9295 0.9295 0.9296 0.9296
3285.000000 0.9297 0.9297 0.9297 0.9298 0.9298
3280.000000 0.9298 0.9297 0.9297 0.9296 0.9294
3275.000000 0.9292 0.9290 0.9287 0.9284 0.9280
3270.000000 0.9275 0.9270 0.9266 0.9259 0.9253
3265.000000 0.9246 0.9239 0.9233 0.9227 0.9221
3260.000000 0.9216 0.9211 0.9207 0.9203 0.9199
3255.000000 0.9195 0.9191 0.9187 0.9183 0.9178
3250.000000 0.9175 0.9171 0.9167 0.9162 0.9159
3245.000000 0.9155 0.9151 0.9147 0.9143 0.9139
3240.000000 0.9135 0.9131 0.9127 0.9123 0.9118
3235.000000 0.9115 0.9111 0.9107 0.9103 0.9099
3230.000000 0.9095 0.9091 0.9086 0.9082 0.9078
3225.000000 0.9075 0.9071 0.9068 0.9066 0.9063
3220.000000 0.9061 0.9058 0.9056 0.9053 0.9051
3215.000000 0.9048 0.9046 0.9044 0.9041 0.9039
3210.000000 0.9036 0.9034 0.9031 0.9028 0.9027
3205.000000 0.9024 0.9020 0.9016 0.9012 0.9008
3200.000000 0.9004 0.9001 0.8997 0.8993 0.8989
3195.000000 0.8985 0.8982 0.8978 0.8973 0.8968
3190.000000 0.8964 0.8959 0.8952 0.8945 0.8938
3185.000000 0.8931 0.8925 0.8918 0.8911 0.8904
3180.000000 0.8895 0.8884 0.8874 0.8863 0.8853
3175.000000 0.8843 0.8833 0.8823 0.8812 0.8800
3170.000000 0.8789 0.8777 0.8766 0.8754 0.8742
3165.000000 0.8730 0.8718 0.8706 0.8694 0.8683
3160.000000 0.8668 0.8651 0.8635 0.8618 0.8601
3155.000000 0.8583 0.8566 0.8549 0.8531 0.8512
3150.000000 0.8493 0.8475 0.8455 0.8435 0.8415
3145.000000 0.8395 0.8373 0.8350 0.8325 0.8302
3140.000000 0.8268 0.8232 0.8195 0.8158 0.8118
3135.000000 0.8080 0.8040 0.8000 0.7958 0.7915
3130.000000 0.7871 0.7828 0.7786 0.7743 0.7700
3125.000000 0.7658 0.7614 0.7571 0.7528 0.7485
3120.000000 0.7442 0.7399 0.7356 0.7312 0.7268
3115.000000 0.7225 0.7183 0.7139 0.7096 0.7053
3110.000000 0.7008 0.6965 0.6921 0.6878 0.6835
3105.000000 0.6792 0.6748 0.6705 0.6661 0.6645
3100.000000 0.6639 0.6632 0.6625 0.6625 0.6625
3095.000000 0.6624 0.6624 0.6637 0.6650 0.6662
3090.000000 0.6675 0.6688 0.6701 0.6712 0.6725
3085.000000 0.6739 0.6751 0.6765 0.6776 0.6789
3080.000000 0.6801 0.6814 0.6818 0.6821 0.6824
3075.000000 0.6826 0.6828 0.6832 0.6835 0.6837
3070.000000 0.6840 0.6843 0.6846 0.6851 0.6860
3065.000000 0.6868 0.6875 0.6888 0.6900 0.6912
3060.000000 0.6925 0.6937 0.6950 0.6961 0.6971
3055.000000 0.6975 0.6980 0.6985 0.6987 0.6987
3050.000000 0.6988 0.6988 0.6988 0.6988 0.6987
3045.000000 0.6982 0.6918 0.6857 0.6794 0.6711
3040.000000 0.6596 0.6481 0.6366 0.6251 0.6135
3035.000000 0.6020 0.5905 0.5789 0.5673 0.5557
3030.000000 0.5441 0.5325 0.5209 0.5093 0.4977
3025.000000 0.4860 0.4745 0.4628 0.4512 0.4395
3020.000000 0.4278 0.4162 0.4045 0.3928 0.3810
3015.000000 0.3694 0.3576 0.3459 0.3342 0.3225
3010.000000 0.3107 0.2990 0.2873 0.2755 0.2637
3005.000000 0.2519 0.2401 0.2283 0.2165 0.2046
3000.000000 0.1929 0.1811 0.1693 0.1574 0.1455
2995.000000 0.1337 0.1218 0.1099 0.0980 0.0861
2990.000000 0.0785 0.0767 0.0748 0.0729 0.0725
2985.000000 0.0724 0.0723 0.0722 0.0722 0.0722
2980.000000 0.0722 0.0722 0.0722 0.0722 0.0722
2975.000000 0.0726 0.0729 0.0732 0.0738 0.0744
2970.000000 0.0750 0.0760 0.0794 0.0828 0.0863
2965.000000 0.0913 0.0975 0.1037 0.1099 0.1161
2960.000000 0.1223 0.1284 0.1346 0.1408 0.1470
2955.000000 0.1532 0.1594 0.1656 0.1718 0.1781
2950.000000 0.1843 0.1904 0.1968 0.2029 0.2093
2945.000000 0.2155 0.2217 0.2278 0.2339 0.2390
2940.000000 0.2391 0.2393 0.2394 0.2396 0.2397
2935.000000 0.2398 0.2400 0.2401 0.2402 0.2403
2930.000000 0.2397 0.2389 0.2380 0.2372 0.2362
2925.000000 0.2352 0.2342 0.2332 0.2322 0.2313
2920.000000 0.2303 0.2293 0.2283 0.2273 0.2263
2915.000000 0.2254 0.2244 0.2238 0.2232 0.2227
2910.000000 0.2226 0.2232 0.2237 0.2243 0.2254
2905.000000 0.2265 0.2275 0.2290 0.2307 0.2324
2900.000000 0.2340 0.2353 0.2365 0.2378 0.2466
2895.000000 0.2565 0.2665 0.2774 0.2894 0.3014
2890.000000 0.3133 0.3253 0.3372 0.3492 0.3612
2885.000000 0.3730 0.3850 0.3971 0.4092 0.4212
2880.000000 0.4333 0.4453 0.4573 0.4694 0.4815
2875.000000 0.4936 0.5057 0.5178 0.5299 0.5419
2870.000000 0.5546 0.5687 0.5828 0.5970 0.6020
2865.000000 0.6067 0.6115 0.6159 0.6202 0.6244
2860.000000 0.6285 0.6323 0.6362 0.6397 0.6417
2855.000000 0.6437 0.6457 0.6494 0.6533 0.6571
2850.000000 0.6617 0.6665 0.6714 0.6761 0.6810
2845.000000 0.6858 0.6907 0.6956 0.7004 0.7053
2840.000000 0.7101 0.7150 0.7198 0.7247 0.7296
2835.000000 0.7344 0.7393 0.7442 0.7491 0.7540
2830.000000 0.7589 0.7638 0.7687 0.7736 0.7785
2825.000000 0.7834 0.7883 0.7932 0.7981 0.8031
2820.000000 0.8080 0.8128 0.8178 0.8228 0.8278
2815.000000 0.8327 0.8375 0.8425 0.8473 0.8509
2810.000000 0.8544 0.8580 0.8597 0.8614 0.8631
2805.000000 0.8644 0.8656 0.8668 0.8678 0.8687
2800.000000 0.8696 0.8701 0.8705 0.8708 0.8712
2795.000000 0.8715 0.8717 0.8720 0.8721 0.8721
2790.000000 0.8723 0.8724 0.8725 0.8727 0.8728
2785.000000 0.8728 0.8728 0.8728 0.8728 0.8727
2780.000000 0.8725 0.8723 0.8721 0.8718 0.8714
2775.000000 0.8710 0.8704 0.8697 0.8690 0.8685
2770.000000 0.8680 0.8675 0.8673 0.8671 0.8671
2765.000000 0.8670 0.8670 0.8670 0.8671 0.8675
2760.000000 0.8680 0.8687 0.8699 0.8711 0.8723
2755.000000 0.8735 0.8747 0.8760 0.8774 0.8787
2750.000000 0.8801 0.8815 0.8828 0.8843 0.8857
2745.000000 0.8871 0.8888 0.8909 0.8930 0.8952
2740.000000 0.8975 0.8998 0.9023 0.9054 0.9085
2735.000000 0.9112 0.9130 0.9147 0.9163 0.9173
2730.000000 0.9183 0.9193 0.9201 0.9209 0.9215
2725.000000 0.9216 0.9218 0.9218 0.9220 0.9221
2720.000000 0.9223 0.9224 0.9225 0.9227 0.9228
2715.000000 0.9230 0.9231 0.9231 0.9232 0.9233
2710.000000 0.9233 0.9233 0.9233 0.9233 0.9233
2705.000000 0.9233 0.9233 0.9233 0.9233 0.9233
2700.000000 0.9233 0.9233 0.9233 0.9233 0.9232
2695.000000 0.9232 0.9232 0.9231 0.9231 0.9230
2690.000000 0.9230 0.9230 0.9228 0.9228 0.9228
2685.000000 0.9228 0.9228 0.9228 0.9227 0.9227
2680.000000 0.9225 0.9225 0.9225 0.9225 0.9224
2675.000000 0.9224 0.9224 0.9223 0.9223 0.9223
2670.000000 0.9221 0.9221 0.9221 0.9221 0.9221
2665.000000 0.9221 0.9221 0.9221 0.9220 0.9220
2660.000000 0.9220 0.9220 0.9220 0.9220 0.9218
2655.000000 0.9218 0.9218 0.9218 0.9218 0.9218
2650.000000 0.9218 0.9218 0.9217 0.9217 0.9217
2645.000000 0.9217 0.9217 0.9217 0.9216 0.9216
2640.000000 0.9216 0.9216 0.9216 0.9216 0.9216
2635.000000 0.9216 0.9216 0.9216 0.9216 0.9217
2630.000000 0.9217 0.9217 0.9217 0.9217 0.9218
2625.000000 0.9218 0.9218 0.9218 0.9218 0.9218
2620.000000 0.9218 0.9218 0.9218 0.9218 0.9218
2615.000000 0.9220 0.9221 0.9221 0.9223 0.9224
2610.000000 0.9225 0.9225 0.9227 0.9227 0.9228
2605.000000 0.9230 0.9231 0.9232 0.9233 0.9235
2600.000000 0.9238 0.9241 0.9244 0.9247 0.9251
2595.000000 0.9254 0.9257 0.9261 0.9265 0.9268
2590.000000 0.9273 0.9278 0.9283 0.9289 0.9295
2585.000000 0.9300 0.9306 0.9312 0.9317 0.9323
2580.000000 0.9328 0.9334 0.9340 0.9345 0.9350
2575.000000 0.9356 0.9359 0.9361 0.9363 0.9364
2570.000000 0.9366 0.9367 0.9368 0.9370 0.9371
2565.000000 0.9374 0.9375 0.9377 0.9378 0.9380
2560.000000 0.9382 0.9384 0.9386 0.9388 0.9390
2555.000000 0.9392 0.9394 0.9396 0.9398 0.9400
2550.000000 0.9402 0.9404 0.9407 0.9409 0.9412
2545.000000 0.9415 0.9418 0.9421 0.9424 0.9427
2540.000000 0.9428 0.9432 0.9435 0.9438 0.9441
2535.000000 0.9444 0.9447 0.9449 0.9452 0.9456
2530.000000 0.9459 0.9464 0.9468 0.9473 0.9478
2525.000000 0.9483 0.9487 0.9492 0.9496 0.9499
2520.000000 0.9502 0.9504 0.9506 0.9508 0.9510
2515.000000 0.9512 0.9514 0.9516 0.9518 0.9520
2510.000000 0.9521 0.9524 0.9525 0.9527 0.9528
2505.000000 0.9531 0.9532 0.9533 0.9534 0.9535
2500.000000 0.9537 0.9538 0.9539 0.9540 0.9542
2495.000000 0.9544 0.9545 0.9546 0.9547 0.9548
2490.000000 0.9550 0.9551 0.9553 0.9554 0.9555
2485.000000 0.9557 0.9558 0.9560 0.9562 0.9563
2480.000000 0.9565 0.9566 0.9567 0.9568 0.9570
2475.000000 0.9571 0.9571 0.9571 0.9571 0.9571
2470.000000 0.9573 0.9573 0.9573 0.9573 0.9573
2465.000000 0.9573 0.9573 0.9571 0.9571 0.9571
2460.000000 0.9571 0.9571 0.9571 0.9571 0.9571
2455.000000 0.9570 0.9570 0.9568 0.9568 0.9568
2450.000000 0.9568 0.9568 0.9568 0.9568 0.9567
2445.000000 0.9567 0.9567 0.9567 0.9567 0.9566
2440.000000 0.9566 0.9566 0.9566 0.9566 0.9565
2435.000000 0.9565 0.9564 0.9564 0.9564 0.9564
2430.000000 0.9564 0.9563 0.9563 0.9562 0.9562
2425.000000 0.9562 0.9565 0.9568 0.9573 0.9577
2420.000000 0.9581 0.9585 0.9589 0.9593 0.9597
2415.000000 0.9606 0.9620 0.9635 0.9651 0.9667
2410.000000 0.9684 0.9702 0.9720 0.9740 0.9758
2405.000000 0.9767 0.9775 0.9783 0.9789 0.9793
2400.000000 0.9797 0.9800 0.9800 0.9800 0.9801
2395.000000 0.9801 0.9801 0.9801 0.9802 0.9802
2390.000000 0.9803 0.9803 0.9803 0.9804 0.9804
2385.000000 0.9805 0.9805 0.9806 0.9806 0.9806
2380.000000 0.9805 0.9804 0.9803 0.9802 0.9801
2375.000000 0.9800 0.9799 0.9798 0.9798 0.9797
2370.000000 0.9796 0.9794 0.9791 0.9788 0.9785
2365.000000 0.9782 0.9778 0.9777 0.9773 0.9768
2360.000000 0.9763 0.9756 0.9749 0.9742 0.9736
2355.000000 0.9728 0.9721 0.9715 0.9709 0.9702
2350.000000 0.9695 0.9689 0.9683 0.9678 0.9675
2345.000000 0.9671 0.9668 0.9666 0.9663 0.9660
2340.000000 0.9657 0.9654 0.9651 0.9648 0.9645
2335.000000 0.9642 0.9639 0.9635 0.9632 0.9628
2330.000000 0.9625 0.9623 0.9620 0.9618 0.9618
2325.000000 0.9618 0.9618 0.9618 0.9618 0.9620
2320.000000 0.9621 0.9621 0.9621 0.9621 0.9623
2315.000000 0.9623 0.9624 0.9624 0.9625 0.9625
2310.000000 0.9625 0.9625 0.9627 0.9628 0.9628
2305.000000 0.9631 0.9633 0.9635 0.9638 0.9639
2300.000000 0.9641 0.9643 0.9645 0.9647 0.9650
2295.000000 0.9652 0.9654 0.9656 0.9658 0.9660
2290.000000 0.9662 0.9664 0.9665 0.9666 0.9667
2285.000000 0.9668 0.9668 0.9668 0.9670 0.9671
2280.000000 0.9671 0.9671 0.9673 0.9673 0.9674
2275.000000 0.9675 0.9675 0.9677 0.9678 0.9678
2270.000000 0.9678 0.9680 0.9681 0.9682 0.9682
2265.000000 0.9682 0.9682 0.9682 0.9682 0.9682
2260.000000 0.9682 0.9682 0.9681 0.9681 0.9681
2255.000000 0.9681 0.9681 0.9681 0.9680 0.9680
2250.000000 0.9680 0.9680 0.9680 0.9680 0.9680
2245.000000 0.9680 0.9678 0.9678 0.9677 0.9677
2240.000000 0.9675 0.9675 0.9674 0.9673 0.9671
2235.000000 0.9671 0.9671 0.9670 0.9668 0.9668
2230.000000 0.9668 0.9667 0.9666 0.9666 0.9665
2225.000000 0.9664 0.9663 0.9663 0.9662 0.9662
2220.000000 0.9661 0.9660 0.9659 0.9659 0.9658
2215.000000 0.9657 0.9656 0.9654 0.9653 0.9652
2210.000000 0.9651 0.9649 0.9648 0.9647 0.9646
2205.000000 0.9644 0.9641 0.9636 0.9632 0.9627
2200.000000 0.9623 0.9618 0.9615 0.9611 0.9610
2195.000000 0.9609 0.9608 0.9607 0.9605 0.9604
2190.000000 0.9603 0.9602 0.9601 0.9600 0.9600
2185.000000 0.9600 0.9604 0.9610 0.9620 0.9630
2180.000000 0.9639 0.9648 0.9655 0.9660 0.9664
2175.000000 0.9667 0.9671 0.9675 0.9680 0.9683
2170.000000 0.9687 0.9691 0.9694 0.9694 0.9694
2165.000000 0.9694 0.9694 0.9694 0.9693 0.9693
2160.000000 0.9693 0.9693 0.9692 0.9692 0.9692
2155.000000 0.9692 0.9692 0.9692 0.9692 0.9692
2150.000000 0.9692 0.9693 0.9693 0.9693 0.9693
2145.000000 0.9694 0.9695 0.9695 0.9695 0.9695
2140.000000 0.9696 0.9696 0.9697 0.9697 0.9697
2135.000000 0.9697 0.9698 0.9699 0.9699 0.9700
2130.000000 0.9700 0.9701 0.9702 0.9703 0.9703
2125.000000 0.9704 0.9705 0.9706 0.9707 0.9707
2120.000000 0.9708 0.9708 0.9709 0.9710 0.9711
2115.000000 0.9712 0.9712 0.9713 0.9714 0.9715
2110.000000 0.9715 0.9716 0.9716 0.9717 0.9717
2105.000000 0.9717 0.9717 0.9717 0.9717 0.9717
2100.000000 0.9717 0.9717 0.9717 0.9717 0.9717
2095.000000 0.9717 0.9717 0.9717 0.9717 0.9717
2090.000000 0.9718 0.9718 0.9718 0.9718 0.9718
2085.000000 0.9718 0.9718 0.9718 0.9718 0.9718
2080.000000 0.9718 0.9718 0.9718 0.9718 0.9720
2075.000000 0.9720 0.9720 0.9720 0.9721 0.9721
2070.000000 0.9721 0.9723 0.9723 0.9723 0.9724
2065.000000 0.9724 0.9725 0.9725 0.9725 0.9727
2060.000000 0.9727 0.9728 0.9728 0.9730 0.9730
2055.000000 0.9732 0.9733 0.9733 0.9734 0.9734
2050.000000 0.9736 0.9737 0.9737 0.9738 0.9739
2045.000000 0.9740 0.9742 0.9742 0.9743 0.9744
2040.000000 0.9745 0.9746 0.9747 0.9748 0.9749
2035.000000 0.9750 0.9751 0.9751 0.9751 0.9751
2030.000000 0.9751 0.9751 0.9751 0.9751 0.9751
2025.000000 0.9751 0.9751 0.9751 0.9751 0.9751
2020.000000 0.9751 0.9751 0.9751 0.9751 0.9750
2015.000000 0.9750 0.9749 0.9749 0.9749 0.9748
2010.000000 0.9748 0.9747 0.9747 0.9747 0.9746
2005.000000 0.9746 0.9745 0.9745 0.9745 0.9744
2000.000000 0.9744 0.9743 0.9743 0.9743 0.9742
1995.000000 0.9741 0.9741 0.9740 0.9739 0.9739
1990.000000 0.9738 0.9737 0.9735 0.9734 0.9734
1985.000000 0.9733 0.9731 0.9731 0.9730 0.9728
1980.000000 0.9727 0.9725 0.9723 0.9721 0.9718
1975.000000 0.9717 0.9714 0.9711 0.9706 0.9702
1970.000000 0.9697 0.9693 0.9688 0.9683 0.9678
1965.000000 0.9673 0.9666 0.9659 0.9651 0.9642
1960.000000 0.9634 0.9627 0.9618 0.9610 0.9602
1955.000000 0.9594 0.9585 0.9575 0.9566 0.9557
1950.000000 0.9548 0.9538 0.9528 0.9518 0.9509
1945.000000 0.9500 0.9490 0.9482 0.9473 0.9464
1940.000000 0.9454 0.9444 0.9434 0.9423 0.9414
1935.000000 0.9408 0.9401 0.9398 0.9398 0.9404
1930.000000 0.9411 0.9417 0.9421 0.9427 0.9433
1925.000000 0.9438 0.9443 0.9448 0.9450 0.9452
1920.000000 0.9454 0.9454 0.9454 0.9449 0.9439
1915.000000 0.9428 0.9418 0.9403 0.9381 0.9360
1910.000000 0.9345 0.9330 0.9316 0.9301 0.9287
1905.000000 0.9277 0.9271 0.9240 0.9264 0.9262
1900.000000 0.9262 0.9262 0.9262 0.9262 0.9271
1895.000000 0.9282 0.9296 0.9324 0.9352 0.9378
1890.000000 0.9399 0.9418 0.9438 0.9457 0.9468
1885.000000 0.9480 0.9490 0.9496 0.9499 0.9499
1880.000000 0.9496 0.9492 0.9487 0.9484 0.9482
1875.000000 0.9482 0.9484 0.9487 0.9491 0.9495
1870.000000 0.9500 0.9505 0.9510 0.9515 0.9520
1865.000000 0.9524 0.9528 0.9531 0.9535 0.9538
1860.000000 0.9542 0.9546 0.9549 0.9552 0.9555
1855.000000 0.9559 0.9563 0.9566 0.9570 0.9574
1850.000000 0.9578 0.9584 0.9588 0.9593 0.9598
1845.000000 0.9604 0.9609 0.9614 0.9618 0.9621
1840.000000 0.9623 0.9624 0.9625 0.9627 0.9628
1835.000000 0.9630 0.9632 0.9633 0.9635 0.9636
1830.000000 0.9638 0.9639 0.9633 0.9625 0.9617
1825.000000 0.9611 0.9605 0.9600 0.9594 0.9588
1820.000000 0.9581 0.9571 0.9562 0.9556 0.9554
1815.000000 0.9552 0.9552 0.9557 0.9563 0.9568
1810.000000 0.9575 0.9578 0.9581 0.9585 0.9588
1805.000000 0.9591 0.9593 0.9595 0.9596 0.9598
1800.000000 0.9598 0.9598 0.9598 0.9593 0.9586
1795.000000 0.9574 0.9562 0.9549 0.9535 0.9517
1790.000000 0.9501 0.9488 0.9478 0.9468 0.9460
1785.000000 0.9452 0.9445 0.9441 0.9440 0.9438
1780.000000 0.9438 0.9440 0.9443 0.9447 0.9452
1775.000000 0.9463 0.9477 0.9491 0.9506 0.9523
1770.000000 0.9543 0.9564 0.9585 0.9601 0.9613
1765.000000 0.9624 0.9635 0.9645 0.9656 0.9662
1760.000000 0.9666 0.9670 0.9673 0.9677 0.9680
1755.000000 0.9680 0.9680 0.9678 0.9678 0.9678
1750.000000 0.9678 0.9695 0.9675 0.9673 0.9671
1745.000000 0.9668 0.9666 0.9664 0.9661 0.9659
1740.000000 0.9656 0.9653 0.9650 0.9647 0.9641
1735.000000 0.9634 0.9627 0.9621 0.9614 0.9607
1730.000000 0.9598 0.9589 0.9582 0.9578 0.9573
1725.000000 0.9568 0.9563 0.9559 0.9554 0.9552
1720.000000 0.9549 0.9545 0.9543 0.9539 0.9536
1715.000000 0.9531 0.9527 0.9521 0.9518 0.9514
1710.000000 0.9509 0.9504 0.9500 0.9495 0.9487
1705.000000 0.9477 0.9468 0.9459 0.9448 0.9439
1700.000000 0.9425 0.9408 0.9391 0.9375 0.9358
1695.000000 0.9342 0.9328 0.9313 0.9299 0.9285
1690.000000 0.9271 0.9262 0.9251 0.9241 0.9231
1685.000000 0.9220 0.9213 0.9210 0.9208 0.9205
1680.000000 0.9203 0.9202 0.9201 0.9201 0.9200
1675.000000 0.9199 0.9198 0.9197 0.9196 0.9195
1670.000000 0.9194 0.9194 0.9193 0.9191 0.9189
1665.000000 0.9186 0.9183 0.9180 0.9177 0.9174
1660.000000 0.9168 0.9164 0.9158 0.9153 0.9148
1655.000000 0.9142 0.9133 0.9120 0.9106 0.9092
1650.000000 0.9075 0.9052 0.9030 0.9007 0.8984
1645.000000 0.8957 0.8924 0.8890 0.8856 0.8821
1640.000000 0.8783 0.8745 0.8707 0.8665 0.8605
1635.000000 0.8545 0.8478 0.8398 0.8316 0.8212
1630.000000 0.8101 0.8000 0.7904 0.7769 0.7578
1625.000000 0.7304 0.7076 0.6997 0.6926 0.6771
1620.000000 0.6451 0.6281 0.6082 0.4930 0.4405
1615.000000 0.3879 0.3354 0.2828 0.2300 0.2052
1610.000000 0.2008 0.2018 0.2162 0.2526 0.2960
1605.000000 0.3394 0.3828 0.4262 0.4699 0.5135
1600.000000 0.5415 0.5398 0.5274 0.5018 0.4762
1595.000000 0.4507 0.4250 0.3993 0.3736 0.3478
1590.000000 0.3220 0.3022 0.2963 0.3123 0.3632
1585.000000 0.4170 0.4708 0.5247 0.5786 0.6326
1580.000000 0.6867 0.7353 0.7637 0.7748 0.7815
1575.000000 0.7899 0.8015 0.8132 0.8249 0.8361
1570.000000 0.8432 0.8445 0.8445 0.8445 0.8448
1565.000000 0.8438 0.8425 0.8404 0.8368 0.8325
1560.000000 0.8264 0.8160 0.8018 0.7871 0.7725
1555.000000 0.7578 0.7431 0.7284 0.7136 0.6988
1550.000000 0.6839 0.6691 0.6542 0.6394 0.6245
1545.000000 0.6062 0.5662 0.5441 0.5219 0.4997
1540.000000 0.4774 0.4551 0.4328 0.4104 0.3880
1535.000000 0.3657 0.3432 0.3208 0.2983 0.2758
1530.000000 0.2532 0.2307 0.2080 0.1854 0.1627
1525.000000 0.1400 0.1173 0.1041 0.1010 0.1030
1520.000000 0.1034 0.1053 0.1081 0.1148 0.1218
1515.000000 0.1284 0.1350 0.1466 0.1696 0.1954
1510.000000 0.2225 0.2496 0.2767 0.3040 0.3312
1505.000000 0.3584 0.3857 0.4131 0.4404 0.4545
1500.000000 0.4555 0.4582 0.4503 0.4347 0.4180
1495.000000 0.4014 0.3847 0.3680 0.3512 0.3345
1490.000000 0.3178 0.3010 0.2843 0.2696 0.2595
1485.000000 0.2516 0.2469 0.2439 0.2411 0.2387
1480.000000 0.2370 0.2360 0.2360 0.2360 0.2365
1475.000000 0.2379 0.2400 0.2424 0.2437 0.2446
1470.000000 0.2448 0.2441 0.2417 0.2359 0.2263
1465.000000 0.2147 0.2029 0.1915 0.1798 0.1681
1460.000000 0.1564 0.1446 0.1329 0.1211 0.1095
1455.000000 0.1086 0.1089 0.1103 0.1142 0.1304
1450.000000 0.1507 0.1712 0.1916 0.2120 0.2326
1445.000000 0.2530 0.2735 0.2942 0.3130 0.3282
1440.000000 0.3432 0.3632 0.4058 0.4569 0.5080
1435.000000 0.5592 0.6106 0.6618 0.7110 0.7291
1430.000000 0.7378 0.7478 0.7572 0.7637 0.7661
1425.000000 0.7668 0.7674 0.7657 0.7678 0.7681
1420.000000 0.7675 0.7661 0.7638 0.7611 0.7584
1415.000000 0.7547 0.7507 0.7448 0.7318 0.7174
1410.000000 0.6995 0.6665 0.6334 0.6002 0.5671
1405.000000 0.5338 0.5005 0.4802 0.4783 0.4775
1400.000000 0.4756 0.4724 0.4695 0.4675 0.4672
1395.000000 0.4812 0.5129 0.5446 0.5762 0.6079
1390.000000 0.6398 0.6715 0.7025 0.7172 0.7200
1385.000000 0.6861 0.6480 0.6097 0.5714 0.5330
1380.000000 0.4945 0.4559 0.4174 0.3930 0.3916
1375.000000 0.3916 0.3914 0.4160 0.4560 0.4962
1370.000000 0.5364 0.5768 0.6171 0.6575 0.6980
1365.000000 0.7385 0.7791 0.8174 0.8346 0.8400
1360.000000 0.8446 0.8467 0.8477 0.8486 0.8488
1355.000000 0.8471 0.8452 0.8431 0.8410 0.8375
1350.000000 0.8337 0.8297 0.8255 0.8213 0.8168
1345.000000 0.8118 0.8068 0.8000 0.7715 0.7534
1340.000000 0.7394 0.7262 0.7018 0.6738 0.6458
1335.000000 0.6178 0.5897 0.5615 0.5333 0.4908
1330.000000 0.4674 0.4440 0.4205 0.3970 0.3734
1325.000000 0.3499 0.3262 0.3026 0.2789 0.2553
1320.000000 0.2315 0.2126 0.2097 0.2095 0.2211
1315.000000 0.2501 0.2804 0.3108 0.3410 0.3716
1310.000000 0.4021 0.4326 0.4632 0.4938 0.5245
1305.000000 0.5618 0.5597 0.5562 0.5465 0.5365
1300.000000 0.5264 0.5164 0.5064 0.4991 0.4966
1295.000000 0.4989 0.5134 0.5326 0.5518 0.5710
1290.000000 0.5903 0.6097 0.6291 0.6484 0.6676
1285.000000 0.6762 0.6761 0.6761 0.6750 0.6711
1280.000000 0.6506 0.6232 0.5957 0.5682 0.5406
1275.000000 0.5130 0.4854 0.4577 0.4299 0.4022
1270.000000 0.3743 0.3464 0.3184 0.2906 0.2625
1265.000000 0.2535 0.2533 0.2534 0.2550 0.2688
1260.000000 0.2831 0.2975 0.3119 0.3262 0.3407
1255.000000 0.3550 0.3696 0.3841 0.3986 0.4131
1250.000000 0.4277 0.4319 0.4339 0.4355 0.4369
1245.000000 0.4383 0.4399 0.4419 0.4438 0.4482
1240.000000 0.4539 0.4654 0.5026 0.5462 0.5902
1235.000000 0.6341 0.6780 0.7221 0.7637 0.7844
1230.000000 0.7995 0.8137 0.8252 0.8347 0.8423
1225.000000 0.8486 0.8544 0.8605 0.8652 0.8678
1220.000000 0.8694 0.8709 0.8723 0.8724 0.8741
1215.000000 0.8731 0.8689 0.8627 0.8577 0.8518
1210.000000 0.8405 0.8271 0.8165 0.8053 0.7842
1205.000000 0.7518 0.7193 0.6865 0.6540 0.6212
1200.000000 0.5960 0.5966 0.5980 0.6119 0.6370
1195.000000 0.6621 0.6874 0.7125 0.7378 0.7633
1190.000000 0.7795 0.7808 0.7821 0.7803 0.7775
1185.000000 0.7715 0.7632 0.7539 0.7418 0.7111
1180.000000 0.6805 0.6498 0.6190 0.5927 0.5767
1175.000000 0.5618 0.5467 0.5317 0.5167 0.5022
1170.000000 0.5042 0.5098 0.5159 0.5159 0.5089
1165.000000 0.5006 0.4955 0.4933 0.4980 0.5067
1160.000000 0.5310 0.5592 0.5874 0.6157 0.6441
1155.000000 0.6725 0.7010 0.7295 0.7580 0.7865
1150.000000 0.8151 0.8352 0.8506 0.8637 0.8693
1145.000000 0.8730 0.8755 0.8763 0.8771 0.8771
1140.000000 0.8763 0.8744 0.8713 0.8665 0.8586
1135.000000 0.8504 0.8421 0.8334 0.8201 0.8041
1130.000000 0.7882 0.7721 0.7564 0.7476 0.7486
1125.000000 0.7488 0.7592 0.7735 0.7878 0.8022
1120.000000 0.8167 0.8311 0.8455 0.8545 0.8571
1115.000000 0.8565 0.8563 0.8549 0.8518 0.8457
1110.000000 0.8334 0.8011 0.7669 0.7328 0.6985
1105.000000 0.6641 0.6297 0.5952 0.5718 0.5712
1100.000000 0.5729 0.6007 0.6436 0.6865 0.7297
1095.000000 0.7728 0.8012 0.8155 0.8484 0.8610
1090.000000 0.8696 0.8785 0.8883 0.8937 0.8952
1085.000000 0.8946 0.8945 0.8945 0.8885 0.8804
1080.000000 0.8675 0.8475 0.8267 0.8058 0.7853
1075.000000 0.7728 0.7662 0.7604 0.7546 0.7487
1070.000000 0.7425 0.7351 0.7260 0.7153 0.7018
1065.000000 0.6712 0.6546 0.6411 0.5884 0.5210
1060.000000 0.4536 0.3859 0.3418 0.3412 0.4042
1055.000000 0.4925 0.5810 0.6518 0.7731 0.8125
1050.000000 0.8421 0.8666 0.8825 0.8954 0.9053
1045.000000 0.9134 0.9175 0.9192 0.9203 0.9204
1040.000000 0.9200 0.9168 0.9110 0.8993 0.8878
1035.000000 0.8767 0.8655 0.8544 0.8440 0.8421
1030.000000 0.8434 0.8545 0.8699 0.8854 0.9009
1025.000000 0.9055 0.9063 0.9050 0.9018 0.8983
1020.000000 0.8966 0.8962 0.8985 0.9055 0.9177
1015.000000 0.9282 0.9387 0.9489 0.9554 0.9606
1010.000000 0.9642 0.9674 0.9693 0.9710 0.9707
1005.000000 0.9694 0.9674 0.9639 0.9618 0.9611
1000.000000 0.9561 0.9599 0.9597 0.9604 0.9632
995.000000 0.9671 0.9712 0.9784 0.9798 0.9798
990.000000 0.9794 0.9782 0.9766 0.9743 0.9707
985.000000 0.9667 0.9635 0.9613 0.9606 0.9602
980.000000 0.9593 0.9583 0.9573 0.9557 0.9532
975.000000 0.9481 0.9432 0.9393 0.9345 0.9297
970.000000 0.9257 0.9227 0.9201 0.9182 0.9171
965.000000 0.9165 0.9159 0.9158 0.9158 0.9158
960.000000 0.9159 0.9168 0.9189 0.9214 0.9238
955.000000 0.9262 0.9284 0.9300 0.9317 0.9328
950.000000 0.9353 0.9339 0.9335 0.9325 0.9315
945.000000 0.9294 0.9271 0.9242 0.9211 0.9175
940.000000 0.9128 0.9077 0.9018 0.8954 0.8868
935.000000 0.8777 0.8662 0.8486 0.8268 0.8048
930.000000 0.7858 0.7861 0.7901 0.8003 0.8115
925.000000 0.8235 0.8340 0.8446 0.8551 0.8658
920.000000 0.8765 0.8871 0.8978 0.9082 0.9134
915.000000 0.9178 0.9221 0.9261 0.9282 0.9297
910.000000 0.9301 0.9305 0.9307 0.9309 0.9318
905.000000 0.9335 0.9373 0.9421 0.9480 0.9531
900.000000 0.9578 0.9621 0.9662 0.9704 0.9721
895.000000 0.9739 0.9753 0.9764 0.9775 0.9786
890.000000 0.9796 0.9807 0.9814 0.9821 0.9828
885.000000 0.9832 0.9832 0.9832 0.9832 0.9828
880.000000 0.9825 0.9821 0.9818 0.9816 0.9812
875.000000 0.9806 0.9798 0.9775 0.9698 0.9621
870.000000 0.9605 0.9584 0.9558 0.9531 0.9464
865.000000 0.9382 0.9306 0.9230 0.9154 0.9115
860.000000 0.9113 0.9120 0.9132 0.9149 0.9171
855.000000 0.9181 0.9164 0.9136 0.9130 0.9121
850.000000 0.9104 0.9073 0.9025 0.8968 0.8894
845.000000 0.8801 0.8665 0.8528 0.8456 0.8435
840.000000 0.8435 0.8436 0.8481 0.8585 0.8691
835.000000 0.8795 0.8896 0.8990 0.9078 0.9153
830.000000 0.9212 0.9254 0.9285 0.9310 0.9300
825.000000 0.9289 0.9267 0.9237 0.9198 0.9156
820.000000 0.9101 0.9044 0.8990 0.8954 0.8941
815.000000 0.8924 0.8935 0.8941 0.8946 0.8955
810.000000 0.8968 0.8998 0.9044 0.9093 0.9142
805.000000 0.9182 0.9218 0.9247 0.9263 0.9267
800.000000 0.9255 0.9231 0.9199 0.9162 0.9111
795.000000 0.9039 0.9006 0.9007 0.9067 0.9054
790.000000 0.9039 0.9075 0.9128 0.9175 0.9216
785.000000 0.9244 0.9264 0.9281 0.9292 0.9303
780.000000 0.9337 0.9312 0.9312 0.9310 0.9302
775.000000 0.9287 0.9266 0.9231 0.9171 0.9063
770.000000 0.8999 0.8959 0.8913 0.8847 0.8771
765.000000 0.8686 0.8590 0.8462 0.8268 0.8107
760.000000 0.7884 0.7643 0.7390 0.6968 0.6356
755.000000 0.5717 0.4760 0.3866 0.3443 0.3045
750.000000 0.2253 0.1966 0.1773 0.1527 0.1192
745.000000 0.0959 0.0829 0.0729 0.0742 0.0760
740.000000 0.1050 0.1416 0.2133 0.2900 0.3723
735.000000 0.4549 0.5377 0.6232 0.6835 0.7253
730.000000 0.7625 0.7883 0.8154 0.8368 0.8574
725.000000 0.8754 0.8796 0.8833 0.8891 0.8954
720.000000 0.9002 0.9034 0.9067 0.9100 0.9134
715.000000 0.9158 0.9182 0.9205 0.9228 0.9247
710.000000 0.9261 0.9275 0.9287 0.9296 0.9298
705.000000 0.9300 0.9307 0.9315 0.9328 0.9344
700.000000 0.9360 0.9374 0.9387 0.9401 0.9413
695.000000 0.9427 0.9439 0.9461 0.9482 0.9518
690.000000 0.9540 0.9558 0.9571 0.9584 0.9584
685.000000 0.9584 0.9573 0.9571 0.9571 0.9580
680.000000 0.9587 0.9596 0.9605 0.9617 0.9671
675.000000 0.9731 0.9761 0.9763 0.9745 0.9750
670.000000 0.9787 0.9812 0.9804 0.9768 0.9768
665.000000 0.9768 0.9754 0.9774 0.9828 0.9882
660.000000 0.9921 1.0038 1.0039 1.0040 1.0067
655.000000 1.0093 1.0120 1.0145 1.0171 1.0200
650.000000 1.0228 1.0256 1.0273 1.0277 1.0258
645.000000 1.0192 1.0154 1.0157 1.0157 1.0152
640.000000 1.0132 1.0105 1.0090 1.0093 1.0094
635.000000 1.0088 1.0083 1.0074 1.0059 1.0028
630.000000 0.9991 0.9954 0.9916 0.9875
##END=
