##TITLE=Choline Iodide, O-(o-Nitrocinnamoyl)
##JCAMP-DX=4.24
##DATA TYPE=INFRARED SPECTRUM
##CLASS=COBLENTZ III
##ORIGIN=SOUTHERN RESEARCH INSTITUTE
##OWNER=Copyright (C) 1987 by the Coblentz Society
Collection (C) 2018 copyright by the U.S. Secretary of Commerce
on behalf of the United States of America. All rights reserved.
##DATE=1962/11/26
##NAMES=2-(trimethyl-.lambda.<5>-azanyl)ethyl (2E)-3-(2-nitrophenyl)-2-propenoate hydroiodide
##MOLFORM=C14 H19 I N2 O4
##SOURCE REFERENCE=COBLENTZ NO. 8381
##$NIST ID=B6008381
##$NIST SOURCE=COBLENTZ
##$NIST IMAGE=cob8381
##SPECTROMETER/DATA SYSTEM=PERKIN-ELMER 221 (GRATING)
##INSTRUMENT PARAMETERS=FILTER AT 2490, 980 CM^-^1. GRATING 4000-1428 CM^-^1, NaCl PRISM 1428-650 CM^-^1
##STATE=SOLID (NUJOL MULL)
##SAMPLING PROCEDURE=TRANSMISSION
##RESOLUTION=2
##DATA PROCESSING=DIGITIZED BY COBLENTZ SOCIETY (BATCH II) FROM HARD COPY (ADJUSTED \addcm-1\15-12-3\)
##XUNITS=1/CM
##YUNITS=TRANSMITTANCE
##XFACTOR=1.0
##YFACTOR=1
##DELTAX=1.004820
##FIRSTX=634.775
##LASTX=4016
##FIRSTY=0.7617
##MAXX=4016
##MINX=634.775
##MAXY=0.901616
##MINY=0.0048
##NPOINTS=3366
##XYDATA=(X++(Y..Y))
634.775000 0.7617 0.7628 0.7639 0.7644 0.7649
639.799101 0.7654 0.7654 0.7651 0.7647 0.7640
644.823203 0.7622 0.7601 0.7573 0.7541 0.7482
649.847304 0.7420 0.7355 0.7281 0.7252 0.7238
654.871405 0.7245 0.7254 0.7301 0.7366 0.7473
659.895507 0.7602 0.7747 0.7894 0.7947 0.7953
664.919608 0.7955 0.7956 0.7951 0.7943 0.7918
669.943709 0.7884 0.7833 0.7796 0.7783 0.7781
674.967810 0.7792 0.7833 0.7887 0.7940 0.7993
679.991912 0.8047 0.8100 0.8164 0.8246 0.8327
685.016013 0.8399 0.8450 0.8481 0.8506 0.8522
690.040114 0.8530 0.8533 0.8532 0.8524 0.8515
695.064216 0.8506 0.8492 0.8468 0.8439 0.8402
700.088317 0.8362 0.8320 0.8278 0.8232 0.8182
705.112418 0.8120 0.8006 0.7806 0.7630 0.7460
710.136520 0.7293 0.7125 0.6972 0.6892 0.6887
715.160621 0.6918 0.7107 0.7241 0.7375 0.7508
720.184722 0.7642 0.7776 0.7901 0.7958 0.7997
725.208824 0.8010 0.8008 0.8020 0.8000 0.7989
730.232925 0.7961 0.7926 0.7863 0.7777 0.7697
735.257026 0.7603 0.7504 0.7418 0.7332 0.7266
740.281127 0.7200 0.7136 0.7040 0.6927 0.6842
745.305229 0.6788 0.6748 0.6673 0.6050 0.5349
750.329330 0.4649 0.4212 0.4150 0.4148 0.4275
755.353431 0.4653 0.5086 0.5518 0.5950 0.6382
760.377533 0.6814 0.7246 0.7678 0.8111 0.8485
765.401634 0.8614 0.8599 0.8581 0.8564 0.8538
770.425735 0.8507 0.8345 0.8111 0.7878 0.7645
775.449837 0.7411 0.7178 0.6944 0.6711 0.6478
780.473938 0.6244 0.6011 0.5803 0.5732 0.5824
785.498039 0.6079 0.6438 0.6797 0.7156 0.7515
790.522141 0.7873 0.8232 0.8565 0.8781 0.8874
795.546242 0.8940 0.8971 0.8990 0.9006 0.9016
800.570343 0.9011 0.9009 0.9005 0.8997 0.8986
805.594444 0.8971 0.8953 0.8934 0.8917 0.8900
810.618546 0.8883 0.8867 0.8848 0.8826 0.8804
815.642647 0.8783 0.8766 0.8751 0.8737 0.8723
820.666748 0.8708 0.8698 0.8689 0.8681 0.8672
825.690850 0.8667 0.8661 0.8656 0.8650 0.8638
830.714951 0.8602 0.8567 0.8527 0.8486 0.8447
835.739052 0.8376 0.8303 0.8231 0.8158 0.8062
840.763154 0.7927 0.7855 0.7811 0.7769 0.7521
845.787255 0.6822 0.6076 0.5332 0.5067 0.5036
850.811356 0.5031 0.5060 0.5647 0.6089 0.6475
855.835458 0.6862 0.7249 0.7635 0.7973 0.8013
860.859559 0.7894 0.7679 0.7447 0.7216 0.6985
865.883660 0.6753 0.6521 0.6318 0.6280 0.6480
870.907761 0.6322 0.7180 0.7385 0.7297 0.7191
875.931863 0.7086 0.6980 0.6877 0.6907 0.7138
880.955964 0.7413 0.7553 0.7596 0.7619 0.7638
885.980065 0.7653 0.7668 0.7684 0.7705 0.7731
891.004167 0.7823 0.8385 0.8558 0.8579 0.8582
896.028268 0.8581 0.8590 0.8578 0.8568 0.8557
901.052369 0.8545 0.8532 0.8514 0.8488 0.8460
906.076471 0.8431 0.8401 0.8372 0.8346 0.8320
911.100572 0.8295 0.8267 0.8235 0.8202 0.8171
916.124673 0.8143 0.8114 0.8087 0.8062 0.8037
921.148775 0.8005 0.7970 0.7925 0.7875 0.7822
926.172876 0.7771 0.7721 0.7670 0.7604 0.7526
931.196977 0.7133 0.6323 0.5775 0.5349 0.4922
936.221078 0.4460 0.4328 0.4445 0.4921 0.5502
941.245180 0.5990 0.6102 0.6108 0.5835 0.5440
946.269281 0.5040 0.4639 0.4465 0.4443 0.4931
951.293382 0.5519 0.6081 0.6643 0.7205 0.7428
956.317484 0.7431 0.7373 0.7254 0.7117 0.6979
961.341585 0.6842 0.6704 0.6567 0.6429 0.6291
966.365686 0.6169 0.5976 0.5430 0.4758 0.4115
971.389788 0.3915 0.3902 0.3953 0.4339 0.4850
976.413889 0.5361 0.5872 0.6176 0.6367 0.6546
981.437990 0.6725 0.6904 0.7082 0.7261 0.7440
986.462092 0.7619 0.7784 0.7936 0.8023 0.8082
991.486193 0.8128 0.8170 0.8208 0.8244 0.8270
996.510294 0.8290 0.8297 0.8287 0.8323 0.8260
1001.534395 0.8205 0.8178 0.8146 0.8110 0.8073
1006.558497 0.8040 0.8009 0.7956 0.7863 0.7756
1011.582598 0.7649 0.7569 0.7540 0.7552 0.7612
1016.606699 0.7687 0.7764 0.7840 0.7916 0.7992
1021.630801 0.8037 0.8060 0.8051 0.8036 0.8021
1026.654902 0.7996 0.7958 0.7913 0.7868 0.7825
1031.679003 0.7783 0.7686 0.7508 0.7302 0.7096
1036.703105 0.6890 0.6732 0.6702 0.6716 0.6756
1041.727206 0.6850 0.6966 0.7082 0.7198 0.7313
1046.751307 0.7428 0.7544 0.7660 0.7775 0.7859
1051.775408 0.7900 0.7920 0.7931 0.7936 0.7935
1056.799510 0.7932 0.7930 0.7924 0.7918 0.7911
1061.823611 0.7899 0.7887 0.7874 0.7858 0.7839
1066.847712 0.7816 0.7789 0.7755 0.7706 0.7650
1071.871814 0.7596 0.7541 0.7479 0.7415 0.7360
1076.895915 0.7324 0.7298 0.7216 0.7074 0.6918
1081.920016 0.6765 0.6696 0.6695 0.6703 0.6805
1086.944118 0.6984 0.7171 0.7358 0.7544 0.7653
1091.968219 0.7697 0.7698 0.7691 0.7686 0.7673
1096.992320 0.7653 0.7628 0.7596 0.7554 0.7514
1102.016422 0.7476 0.7439 0.7405 0.7373 0.7343
1107.040523 0.7314 0.7286 0.7255 0.7219 0.7179
1112.064624 0.7139 0.7098 0.7056 0.7014 0.6970
1117.088725 0.6926 0.6879 0.6829 0.6777 0.6716
1122.112827 0.6642 0.6566 0.6493 0.6422 0.6358
1127.136928 0.6299 0.6246 0.6199 0.6151 0.6092
1132.161029 0.6013 0.5921 0.5823 0.5722 0.5619
1137.185131 0.5515 0.5405 0.5267 0.5143 0.5055
1142.209232 0.4975 0.4854 0.4680 0.4492 0.4303
1147.233333 0.4114 0.3925 0.3736 0.3547 0.3359
1152.257435 0.3116 0.2912 0.2737 0.2545 0.2389
1157.281536 0.2257 0.2076 0.1872 0.1696 0.1550
1162.305637 0.1455 0.1396 0.1335 0.1265 0.1186
1167.329739 0.1143 0.1126 0.1127 0.1139 0.1152
1172.353840 0.1188 0.1267 0.1483 0.1797 0.2110
1177.377941 0.2423 0.2736 0.3049 0.3363 0.3676
1182.402042 0.3989 0.4302 0.4615 0.4929 0.5242
1187.426144 0.5555 0.5869 0.6182 0.6495 0.6707
1192.450245 0.6768 0.6777 0.6713 0.6575 0.6430
1197.474346 0.6284 0.6139 0.5994 0.5848 0.5777
1202.498448 0.6045 0.6629 0.7048 0.7201 0.7300
1207.522549 0.7416 0.7552 0.7664 0.7753 0.7852
1212.546650 0.7965 0.8048 0.8087 0.8111 0.8117
1217.570752 0.8109 0.8097 0.8081 0.8060 0.8032
1222.594853 0.7996 0.7949 0.7897 0.7845 0.7793
1227.618954 0.7744 0.7700 0.7656 0.7618 0.7590
1232.643056 0.7567 0.7550 0.7533 0.7514 0.7486
1237.667157 0.7429 0.7341 0.7266 0.7231 0.7206
1242.691258 0.7180 0.7154 0.7126 0.7098 0.7059
1247.715359 0.7001 0.6945 0.6889 0.6825 0.6734
1252.739461 0.6640 0.6540 0.6397 0.6198 0.5991
1257.763562 0.5783 0.5576 0.5368 0.5161 0.4954
1262.787663 0.4735 0.4523 0.4493 0.4470 0.4452
1267.811765 0.4400 0.4248 0.4083 0.3919 0.3760
1272.835866 0.3654 0.3650 0.3647 0.3673 0.3789
1277.859967 0.3945 0.4101 0.4256 0.4432 0.4713
1282.884069 0.4704 0.4695 0.4639 0.4528 0.4418
1287.908170 0.4308 0.4198 0.4086 0.3967 0.3972
1292.932271 0.3978 0.3992 0.4150 0.4345 0.4540
1297.956373 0.4735 0.4935 0.5277 0.5255 0.5255
1302.980474 0.5250 0.5241 0.5136 0.4992 0.4849
1308.004575 0.4706 0.4563 0.4420 0.4278 0.4119
1313.028676 0.4143 0.4155 0.4176 0.4246 0.4335
1318.052778 0.4427 0.4519 0.4611 0.4703 0.4794
1323.076879 0.4886 0.4935 0.4936 0.4739 0.4491
1328.100980 0.4254 0.4017 0.3781 0.3544 0.3307
1333.125082 0.3071 0.2834 0.2597 0.2400 0.2303
1338.149183 0.2361 0.2501 0.2635 0.2768 0.2902
1343.173284 0.3036 0.3170 0.3304 0.3438 0.3562
1348.197386 0.3649 0.3694 0.3729 0.3764 0.3845
1353.221487 0.4056 0.4336 0.4616 0.4891 0.5099
1358.245588 0.5142 0.5179 0.5217 0.5267 0.5241
1363.269690 0.5243 0.5221 0.5037 0.4789 0.4542
1368.293791 0.4295 0.4049 0.3810 0.3761 0.3750
1373.317892 0.4109 0.4374 0.4640 0.4905 0.5171
1378.341993 0.5436 0.5702 0.5967 0.6233 0.6498
1383.366095 0.6763 0.7029 0.7269 0.7405 0.7454
1388.390196 0.7480 0.7494 0.7510 0.7502 0.7494
1393.414297 0.7490 0.7483 0.7474 0.7460 0.7422
1398.438399 0.7356 0.7278 0.7202 0.7137 0.7082
1403.462500 0.7044 0.7029 0.7017 0.7022 0.7164
1408.486601 0.7419 0.7569 0.7566 0.7537 0.7525
1413.510703 0.7509 0.7487 0.7455 0.7413 0.7363
1418.534804 0.7299 0.7228 0.7126 0.6969 0.6834
1423.558905 0.6720 0.6576 0.6301 0.6011 0.5722
1428.583007 0.5433 0.5144 0.4879 0.4760 0.4650
1433.607108 0.4347 0.3976 0.3611 0.3321 0.3200
1438.631209 0.3085 0.3054 0.3029 0.3011 0.3008
1443.655310 0.3005 0.3001 0.2954 0.2890 0.2367
1448.679412 0.2165 0.2053 0.1934 0.1841 0.1794
1453.703513 0.1784 0.1783 0.1792 0.1801 0.1811
1458.727614 0.1821 0.1832 0.1913 0.2095 0.2308
1463.751716 0.2522 0.2736 0.2949 0.3163 0.3376
1468.775817 0.3590 0.3804 0.4017 0.4231 0.4445
1473.799918 0.4658 0.4871 0.5085 0.5299 0.5465
1478.824020 0.5525 0.5521 0.5516 0.5506 0.5488
1483.848121 0.5469 0.5505 0.5646 0.5849 0.6052
1488.872222 0.6267 0.6458 0.6497 0.6514 0.6517
1493.896324 0.6518 0.6502 0.6456 0.6258 0.6034
1498.920425 0.5811 0.5587 0.5364 0.5140 0.4916
1503.944526 0.4693 0.4469 0.4245 0.4022 0.3798
1508.968627 0.3575 0.3351 0.3123 0.2895 0.2667
1513.992729 0.2439 0.2211 0.1982 0.1754 0.1527
1519.016830 0.1326 0.1351 0.1389 0.2001 0.2671
1524.040931 0.3340 0.4010 0.4680 0.5349 0.6019
1529.065033 0.6671 0.7058 0.7284 0.7517 0.7635
1534.089134 0.7714 0.7808 0.8039 0.8115 0.8189
1539.113235 0.8253 0.8307 0.8326 0.8317 0.8315
1544.137337 0.8312 0.8304 0.8293 0.8271 0.8243
1549.161438 0.8206 0.8160 0.8100 0.8018 0.7928
1554.185539 0.7846 0.7788 0.7735 0.7698 0.7672
1559.209641 0.7574 0.7170 0.6678 0.6185 0.5693
1564.233742 0.5256 0.5065 0.5096 0.5316 0.6045
1569.257843 0.6774 0.7502 0.8145 0.8453 0.8490
1574.281944 0.8502 0.8502 0.8498 0.8500 0.8496
1579.306046 0.8444 0.8401 0.8352 0.8306 0.8260
1584.330147 0.8215 0.8172 0.8122 0.8049 0.7958
1589.354248 0.7864 0.7766 0.7669 0.7571 0.7474
1594.378350 0.7376 0.7283 0.7224 0.7208 0.7194
1599.402451 0.7193 0.7243 0.7382 0.7600 0.7819
1604.426552 0.7951 0.7960 0.7964 0.7964 0.7985
1609.450654 0.7979 0.7925 0.7895 0.7857 0.7806
1614.474755 0.7690 0.7508 0.7331 0.7164 0.7036
1619.498856 0.6939 0.6806 0.6557 0.6230 0.5904
1624.522958 0.5577 0.5250 0.4924 0.4597 0.4271
1629.547059 0.3944 0.3756 0.3729 0.3764 0.3998
1634.571160 0.4369 0.4740 0.5111 0.5483 0.5854
1639.595261 0.6225 0.6597 0.6968 0.7340 0.7674
1644.619363 0.7836 0.7910 0.7987 0.8062 0.8124
1649.643464 0.8174 0.8207 0.8231 0.8248 0.8256
1654.667565 0.8258 0.8255 0.8251 0.8244 0.8235
1659.691667 0.8224 0.8208 0.8184 0.8156 0.8126
1664.715768 0.8097 0.8063 0.8028 0.7993 0.7958
1669.739869 0.7922 0.7886 0.7850 0.7814 0.7778
1674.763971 0.7746 0.7715 0.7685 0.7655 0.7624
1679.788072 0.7593 0.7563 0.7532 0.7502 0.7463
1684.812173 0.7420 0.7376 0.7332 0.7288 0.7239
1689.836275 0.7186 0.7133 0.7080 0.7018 0.6903
1694.860376 0.6782 0.6671 0.6561 0.6432 0.6263
1699.884477 0.5957 0.5602 0.5242 0.4882 0.4522
1704.908578 0.4164 0.3804 0.3444 0.3085 0.2725
1709.932680 0.2365 0.2008 0.1650 0.1349 0.1332
1714.956781 0.1330 0.1349 0.1641 0.2053 0.2471
1719.980882 0.2890 0.3309 0.3728 0.4146 0.4565
1725.004984 0.4983 0.5402 0.5821 0.6077 0.6133
1730.029085 0.6179 0.6227 0.6408 0.6478 0.6539
1735.053186 0.6620 0.6711 0.7206 0.7803 0.8060
1740.077288 0.8273 0.8385 0.8627 0.8718 0.8761
1745.101389 0.8801 0.8820 0.8837 0.8885 0.8872
1750.125490 0.8879 0.8887 0.8895 0.8895 0.8891
1755.149592 0.8887 0.8883 0.8878 0.8873 0.8868
1760.173693 0.8864 0.8860 0.8858 0.8856 0.8855
1765.197794 0.8859 0.8862 0.8866 0.8870 0.8882
1770.221895 0.8901 0.8922 0.8939 0.8946 0.8952
1775.245997 0.8958 0.8955 0.8950 0.8943 0.8934
1780.270098 0.8925 0.8917 0.8908 0.8899 0.8891
1785.294199 0.8884 0.8877 0.8870 0.8864 0.8857
1790.318301 0.8850 0.8843 0.8837 0.8831 0.8825
1795.342402 0.8820 0.8814 0.8810 0.8805 0.8801
1800.366503 0.8798 0.8795 0.8792 0.8789 0.8786
1805.390605 0.8784 0.8781 0.8778 0.8775 0.8772
1810.414706 0.8771 0.8769 0.8768 0.8767 0.8765
1815.438807 0.8764 0.8763 0.8761 0.8759 0.8758
1820.462908 0.8756 0.8754 0.8753 0.8751 0.8750
1825.487010 0.8748 0.8746 0.8742 0.8736 0.8730
1830.511111 0.8723 0.8717 0.8712 0.8707 0.8702
1835.535212 0.8697 0.8692 0.8687 0.8682 0.8678
1840.559314 0.8673 0.8670 0.8667 0.8664 0.8661
1845.583415 0.8658 0.8654 0.8655 0.8659 0.8663
1850.607516 0.8667 0.8671 0.8675 0.8680 0.8683
1855.631618 0.8688 0.8691 0.8696 0.8700 0.8703
1860.655719 0.8708 0.8711 0.8715 0.8721 0.8726
1865.679820 0.8731 0.8736 0.8741 0.8747 0.8752
1870.703922 0.8757 0.8762 0.8766 0.8766 0.8765
1875.728023 0.8764 0.8763 0.8762 0.8758 0.8752
1880.752124 0.8747 0.8741 0.8735 0.8729 0.8723
1885.776225 0.8718 0.8713 0.8707 0.8702 0.8697
1890.800327 0.8692 0.8686 0.8681 0.8676 0.8671
1895.824428 0.8665 0.8660 0.8655 0.8650 0.8645
1900.848529 0.8640 0.8635 0.8630 0.8625 0.8620
1905.872631 0.8615 0.8610 0.8605 0.8600 0.8595
1910.896732 0.8590 0.8585 0.8580 0.8575 0.8570
1915.920833 0.8565 0.8560 0.8555 0.8549 0.8544
1920.944935 0.8539 0.8534 0.8528 0.8523 0.8518
1925.969036 0.8513 0.8508 0.8502 0.8497 0.8492
1930.993137 0.8487 0.8482 0.8476 0.8471 0.8466
1936.017239 0.8461 0.8455 0.8450 0.8445 0.8440
1941.041340 0.8435 0.8430 0.8426 0.8423 0.8419
1946.065441 0.8415 0.8412 0.8408 0.8405 0.8401
1951.089542 0.8397 0.8394 0.8391 0.8388 0.8385
1956.113644 0.8381 0.8378 0.8375 0.8372 0.8369
1961.137745 0.8367 0.8364 0.8360 0.8357 0.8356
1966.161846 0.8354 0.8352 0.8350 0.8349 0.8351
1971.185948 0.8357 0.8362 0.8368 0.8373 0.8378
1976.210049 0.8384 0.8386 0.8387 0.8387 0.8387
1981.234150 0.8375 0.8360 0.8343 0.8321 0.8295
1986.258252 0.8267 0.8180 0.8110 0.8044 0.7985
1991.282353 0.7946 0.7929 0.7931 0.7944 0.7979
1996.306454 0.8030 0.8094 0.8149 0.8191 0.8231
2001.330556 0.8254 0.8263 0.8266 0.8268 0.8268
2006.354657 0.8268 0.8268 0.8269 0.8269 0.8270
2011.378758 0.8271 0.8272 0.8273 0.8274 0.8275
2016.402859 0.8275 0.8275 0.8276 0.8276 0.8276
2021.426961 0.8277 0.8276 0.8274 0.8272 0.8270
2026.451062 0.8268 0.8267 0.8265 0.8263 0.8261
2031.475163 0.8259 0.8257 0.8254 0.8251 0.8249
2036.499265 0.8246 0.8243 0.8240 0.8237 0.8234
2041.523366 0.8231 0.8228 0.8225 0.8222 0.8219
2046.547467 0.8217 0.8214 0.8212 0.8209 0.8207
2051.571569 0.8204 0.8202 0.8199 0.8197 0.8194
2056.595670 0.8192 0.8189 0.8186 0.8183 0.8179
2061.619771 0.8176 0.8173 0.8170 0.8166 0.8163
2066.643873 0.8160 0.8157 0.8153 0.8150 0.8146
2071.667974 0.8143 0.8139 0.8136 0.8132 0.8129
2076.692075 0.8125 0.8122 0.8119 0.8116 0.8112
2081.716176 0.8109 0.8106 0.8103 0.8099 0.8096
2086.740278 0.8093 0.8090 0.8086 0.8083 0.8078
2091.764379 0.8074 0.8069 0.8065 0.8060 0.8056
2096.788480 0.8051 0.8047 0.8042 0.8038 0.8033
2101.812582 0.8029 0.8024 0.8019 0.8015 0.8011
2106.836683 0.8007 0.8003 0.7999 0.7995 0.7991
2111.860784 0.7987 0.7983 0.7980 0.7976 0.7972
2116.884886 0.7968 0.7964 0.7960 0.7956 0.7952
2121.908987 0.7948 0.7944 0.7941 0.7938 0.7936
2126.933088 0.7933 0.7931 0.7928 0.7925 0.7923
2131.957190 0.7920 0.7917 0.7915 0.7912 0.7910
2136.981291 0.7907 0.7904 0.7902 0.7899 0.7897
2142.005392 0.7894 0.7891 0.7889 0.7887 0.7885
2147.029493 0.7883 0.7880 0.7878 0.7876 0.7874
2152.053595 0.7872 0.7870 0.7867 0.7865 0.7863
2157.077696 0.7861 0.7859 0.7857 0.7854 0.7852
2162.101797 0.7850 0.7850 0.7849 0.7848 0.7848
2167.125899 0.7847 0.7846 0.7846 0.7845 0.7844
2172.150000 0.7844 0.7843 0.7842 0.7842 0.7841
2177.174101 0.7840 0.7839 0.7837 0.7835 0.7833
2182.198203 0.7831 0.7828 0.7826 0.7823 0.7821
2187.222304 0.7818 0.7816 0.7814 0.7811 0.7809
2192.246405 0.7805 0.7802 0.7799 0.7796 0.7792
2197.270507 0.7789 0.7786 0.7783 0.7779 0.7776
2202.294608 0.7773 0.7770 0.7766 0.7763 0.7760
2207.318709 0.7757 0.7753 0.7750 0.7747 0.7744
2212.342810 0.7742 0.7739 0.7736 0.7733 0.7730
2217.366912 0.7727 0.7724 0.7721 0.7718 0.7716
2222.391013 0.7713 0.7710 0.7707 0.7704 0.7701
2227.415114 0.7698 0.7695 0.7692 0.7689 0.7686
2232.439216 0.7683 0.7680 0.7677 0.7674 0.7671
2237.463317 0.7668 0.7665 0.7661 0.7658 0.7655
2242.487418 0.7652 0.7649 0.7646 0.7643 0.7640
2247.511520 0.7637 0.7634 0.7631 0.7628 0.7624
2252.535621 0.7621 0.7618 0.7615 0.7612 0.7608
2257.559722 0.7603 0.7599 0.7595 0.7591 0.7587
2262.583824 0.7583 0.7579 0.7575 0.7571 0.7567
2267.607925 0.7563 0.7558 0.7554 0.7550 0.7546
2272.632026 0.7542 0.7538 0.7534 0.7530 0.7526
2277.656127 0.7522 0.7518 0.7515 0.7512 0.7509
2282.680229 0.7506 0.7503 0.7500 0.7497 0.7494
2287.704330 0.7491 0.7488 0.7486 0.7483 0.7480
2292.728431 0.7477 0.7474 0.7471 0.7468 0.7465
2297.752533 0.7462 0.7459 0.7456 0.7453 0.7451
2302.776634 0.7447 0.7443 0.7440 0.7436 0.7432
2307.800735 0.7428 0.7424 0.7421 0.7417 0.7413
2312.824837 0.7409 0.7405 0.7402 0.7398 0.7394
2317.848938 0.7390 0.7386 0.7383 0.7379 0.7375
2322.873039 0.7371 0.7368 0.7364 0.7359 0.7355
2327.897141 0.7350 0.7345 0.7340 0.7335 0.7330
2332.921242 0.7325 0.7321 0.7316 0.7311 0.7308
2337.945343 0.7308 0.7309 0.7310 0.7311 0.7313
2342.969444 0.7314 0.7316 0.7317 0.7319 0.7320
2347.993546 0.7322 0.7323 0.7324 0.7324 0.7325
2353.017647 0.7325 0.7325 0.7325 0.7325 0.7322
2358.041748 0.7317 0.7313 0.7310 0.7308 0.7306
2363.065850 0.7305 0.7303 0.7301 0.7300 0.7298
2368.089951 0.7296 0.7295 0.7293 0.7291 0.7289
2373.114052 0.7288 0.7288 0.7288 0.7289 0.7289
2378.138154 0.7290 0.7291 0.7291 0.7292 0.7293
2383.162255 0.7294 0.7294 0.7295 0.7296 0.7297
2388.186356 0.7297 0.7298 0.7299 0.7300 0.7300
2393.210458 0.7301 0.7300 0.7299 0.7298 0.7298
2398.234559 0.7297 0.7296 0.7295 0.7292 0.7290
2403.258660 0.7287 0.7284 0.7282 0.7279 0.7277
2408.282761 0.7274 0.7271 0.7268 0.7264 0.7260
2413.306863 0.7255 0.7250 0.7244 0.7239 0.7234
2418.330964 0.7229 0.7224 0.7219 0.7214 0.7210
2423.355065 0.7205 0.7200 0.7196 0.7191 0.7186
2428.379167 0.7183 0.7180 0.7177 0.7174 0.7172
2433.403268 0.7169 0.7165 0.7162 0.7158 0.7154
2438.427369 0.7150 0.7146 0.7142 0.7139 0.7135
2443.451471 0.7131 0.7127 0.7123 0.7119 0.7115
2448.475572 0.7110 0.7105 0.7101 0.7096 0.7091
2453.499673 0.7087 0.7082 0.7077 0.7072 0.7066
2458.523775 0.7060 0.7054 0.7049 0.7043 0.7037
2463.547876 0.7033 0.7029 0.7027 0.7025 0.7024
2468.571977 0.7023 0.7022 0.7021 0.7020 0.7020
2473.596078 0.7000 0.6896 0.6749 0.6602 0.6524
2478.620180 0.6522 0.6611 0.6740 0.6869 0.6986
2483.644281 0.7024 0.7023 0.7023 0.7022 0.7020
2488.668382 0.7018 0.7017 0.7016 0.7014 0.7013
2493.692484 0.7012 0.7011 0.7007 0.7004 0.7000
2498.716585 0.6995 0.6991 0.6987 0.6983 0.6979
2503.740686 0.6976 0.6973 0.6970 0.6967 0.6964
2508.764788 0.6961 0.6958 0.6955 0.6951 0.6948
2513.788889 0.6945 0.6942 0.6938 0.6934 0.6930
2518.812990 0.6925 0.6921 0.6917 0.6912 0.6907
2523.837092 0.6903 0.6898 0.6893 0.6889 0.6884
2528.861193 0.6879 0.6875 0.6871 0.6867 0.6864
2533.885294 0.6860 0.6857 0.6854 0.6851 0.6848
2538.909395 0.6845 0.6841 0.6838 0.6835 0.6833
2543.933497 0.6831 0.6829 0.6827 0.6825 0.6823
2548.957598 0.6820 0.6817 0.6814 0.6810 0.6807
2553.981699 0.6803 0.6799 0.6796 0.6792 0.6788
2559.005801 0.6782 0.6774 0.6766 0.6758 0.6750
2564.029902 0.6742 0.6734 0.6727 0.6719 0.6713
2569.054003 0.6709 0.6704 0.6700 0.6696 0.6691
2574.078105 0.6687 0.6683 0.6678 0.6674 0.6670
2579.102206 0.6665 0.6662 0.6660 0.6659 0.6657
2584.126307 0.6655 0.6653 0.6652 0.6651 0.6650
2589.150408 0.6649 0.6648 0.6647 0.6646 0.6644
2594.174510 0.6641 0.6639 0.6637 0.6634 0.6632
2599.198611 0.6630 0.6627 0.6625 0.6622 0.6620
2604.222712 0.6617 0.6614 0.6612 0.6609 0.6607
2609.246814 0.6604 0.6601 0.6599 0.6596 0.6594
2614.270915 0.6591 0.6588 0.6586 0.6583 0.6580
2619.295016 0.6576 0.6572 0.6569 0.6565 0.6561
2624.319118 0.6558 0.6554 0.6550 0.6547 0.6543
2629.343219 0.6539 0.6536 0.6532 0.6528 0.6524
2634.367320 0.6521 0.6517 0.6513 0.6509 0.6506
2639.391422 0.6502 0.6498 0.6494 0.6490 0.6486
2644.415523 0.6481 0.6477 0.6472 0.6468 0.6463
2649.439624 0.6459 0.6455 0.6450 0.6446 0.6442
2654.463725 0.6439 0.6435 0.6431 0.6428 0.6424
2659.487827 0.6421 0.6417 0.6413 0.6410 0.6406
2664.511928 0.6402 0.6399 0.6395 0.6392 0.6390
2669.536029 0.6389 0.6388 0.6387 0.6387 0.6386
2674.560131 0.6385 0.6384 0.6383 0.6382 0.6381
2679.584232 0.6380 0.6379 0.6378 0.6377 0.6376
2684.608333 0.6375 0.6374 0.6374 0.6375 0.6376
2689.632435 0.6378 0.6379 0.6381 0.6382 0.6383
2694.656536 0.6385 0.6386 0.6388 0.6389 0.6391
2699.680637 0.6393 0.6395 0.6396 0.6395 0.6391
2704.704739 0.6384 0.6377 0.6370 0.6363 0.6354
2709.728840 0.6346 0.6337 0.6327 0.6318 0.6311
2714.752941 0.6308 0.6307 0.6305 0.6304 0.6305
2719.777042 0.6307 0.6308 0.6310 0.6311 0.6313
2724.801144 0.6315 0.6316 0.6318 0.6320 0.6321
2729.825245 0.6323 0.6325 0.6327 0.6331 0.6338
2734.849346 0.6345 0.6353 0.6360 0.6370 0.6382
2739.873448 0.6395 0.6407 0.6416 0.6420 0.6422
2744.897549 0.6423 0.6423 0.6423 0.6424 0.6424
2749.921650 0.6424 0.6424 0.6423 0.6422 0.6422
2754.945752 0.6421 0.6421 0.6420 0.6419 0.6419
2759.969853 0.6419 0.6420 0.6420 0.6420 0.6421
2764.993954 0.6419 0.6414 0.6410 0.6406 0.6401
2770.018056 0.6397 0.6392 0.6387 0.6379 0.6370
2775.042157 0.6360 0.6351 0.6341 0.6328 0.6315
2780.066258 0.6302 0.6288 0.6275 0.6261 0.6248
2785.090359 0.6234 0.6221 0.6208 0.6194 0.6182
2790.114461 0.6170 0.6158 0.6146 0.6132 0.6115
2795.138562 0.6097 0.6077 0.6055 0.6032 0.6008
2800.162663 0.5985 0.5962 0.5935 0.5904 0.5874
2805.186765 0.5843 0.5805 0.5762 0.5719 0.5671
2810.210866 0.5616 0.5562 0.5506 0.5447 0.5387
2815.234967 0.5325 0.5261 0.5196 0.5130 0.5064
2820.259069 0.4998 0.4929 0.4823 0.4659 0.4465
2825.283170 0.4148 0.3852 0.3702 0.3567 0.3450
2830.307271 0.3351 0.3266 0.3188 0.3108 0.2971
2835.331373 0.2691 0.2326 0.1960 0.1594 0.1189
2840.355474 0.0915 0.0828 0.0757 0.0676 0.0576
2845.379575 0.0482 0.0410 0.0360 0.0329 0.0316
2850.403676 0.0311 0.0311 0.0315 0.0321 0.0328
2855.427778 0.0335 0.0342 0.0350 0.0358 0.0366
2860.451879 0.0374 0.0383 0.0392 0.0401 0.0409
2865.475980 0.0418 0.0426 0.0434 0.0442 0.0453
2870.500082 0.0470 0.0487 0.0511 0.0540 0.0568
2875.524183 0.0594 0.0616 0.0623 0.0619 0.0609
2880.548284 0.0590 0.0564 0.0536 0.0508 0.0479
2885.572386 0.0448 0.0417 0.0385 0.0355 0.0326
2890.596487 0.0304 0.0289 0.0274 0.0259 0.0245
2895.620588 0.0231 0.0217 0.0203 0.0190 0.0177
2900.644690 0.0166 0.0155 0.0144 0.0134 0.0125
2905.668791 0.0115 0.0106 0.0098 0.0093 0.0087
2910.692892 0.0082 0.0077 0.0071 0.0066 0.0064
2915.716993 0.0061 0.0059 0.0056 0.0054 0.0051
2920.741095 0.0049 0.0048 0.0049 0.0049 0.0049
2925.765196 0.0050 0.0050 0.0050 0.0050 0.0052
2930.789297 0.0054 0.0056 0.0058 0.0060 0.0062
2935.813399 0.0064 0.0066 0.0068 0.0070 0.0074
2940.837500 0.0079 0.0083 0.0088 0.0093 0.0098
2945.861601 0.0103 0.0108 0.0112 0.0117 0.0123
2950.885703 0.0130 0.0136 0.0143 0.0149 0.0156
2955.909804 0.0163 0.0169 0.0176 0.0190 0.0207
2960.933905 0.0223 0.0240 0.0271 0.0312 0.0353
2965.958007 0.0400 0.0481 0.0563 0.0649 0.0733
2970.982108 0.0818 0.0904 0.0988 0.1074 0.1159
2976.006209 0.1244 0.1329 0.1413 0.1499 0.1584
2981.030310 0.1669 0.1754 0.1841 0.1987 0.2055
2986.054412 0.2101 0.2130 0.2140 0.2147 0.2150
2991.078513 0.2151 0.2146 0.2140 0.2133 0.2127
2996.102614 0.2112 0.2101 0.2095 0.2096 0.2110
3001.126716 0.2133 0.2198 0.2380 0.2680 0.2784
3006.150817 0.2876 0.2931 0.3008 0.3170 0.3338
3011.174918 0.3380 0.3410 0.3431 0.3447 0.3463
3016.199020 0.3475 0.3485 0.3496 0.3507 0.3517
3021.223121 0.3529 0.3541 0.3553 0.3567 0.3591
3026.247222 0.3623 0.3660 0.3713 0.3800 0.3853
3031.271324 0.3895 0.3924 0.3951 0.3973 0.3994
3036.295425 0.4015 0.4034 0.4049 0.4063 0.4076
3041.319526 0.4090 0.4104 0.4117 0.4128 0.4138
3046.343627 0.4149 0.4160 0.4171 0.4180 0.4186
3051.367729 0.4191 0.4195 0.4200 0.4203 0.4203
3056.391830 0.4203 0.4203 0.4202 0.4202 0.4203
3061.415931 0.4209 0.4215 0.4222 0.4247 0.4306
3066.440033 0.4382 0.4447 0.4491 0.4522 0.4539
3071.464134 0.4546 0.4550 0.4551 0.4552 0.4553
3076.488235 0.4554 0.4555 0.4556 0.4556 0.4557
3081.512337 0.4558 0.4559 0.4561 0.4563 0.4565
3086.536438 0.4568 0.4576 0.4586 0.4596 0.4605
3091.560539 0.4614 0.4624 0.4635 0.4647 0.4659
3096.584641 0.4670 0.4681 0.4692 0.4703 0.4713
3101.608742 0.4725 0.4738 0.4752 0.4766 0.4779
3106.632843 0.4793 0.4807 0.4822 0.4837 0.4851
3111.656944 0.4865 0.4878 0.4891 0.4904 0.4916
3116.681046 0.4929 0.4950 0.4970 0.4983 0.4989
3121.705147 0.4991 0.4993 0.4996 0.4998 0.5000
3126.729248 0.5002 0.5002 0.5002 0.5002 0.5001
3131.753350 0.5001 0.5001 0.5000 0.5000 0.4999
3136.777451 0.4999 0.4999 0.4998 0.4998 0.4997
3141.801552 0.4997 0.4996 0.4996 0.4995 0.4995
3146.825654 0.4995 0.4995 0.4994 0.4994 0.4994
3151.849755 0.4994 0.4993 0.4993 0.4993 0.4992
3156.873856 0.4992 0.4992 0.4993 0.4994 0.4995
3161.897958 0.4996 0.4997 0.4998 0.4999 0.4999
3166.922059 0.5000 0.5001 0.5002 0.5003 0.5004
3171.946160 0.5005 0.5006 0.5006 0.5007 0.5008
3176.970261 0.5009 0.5010 0.5011 0.5012 0.5012
3181.994363 0.5013 0.5014 0.5015 0.5015 0.5016
3187.018464 0.5017 0.5018 0.5018 0.5019 0.5020
3192.042565 0.5021 0.5022 0.5022 0.5023 0.5022
3197.066667 0.5021 0.5019 0.5018 0.5017 0.5016
3202.090768 0.5015 0.5014 0.5013 0.5012 0.5010
3207.114869 0.5009 0.5008 0.5007 0.5006 0.5005
3212.138971 0.5004 0.5004 0.5004 0.5004 0.5004
3217.163072 0.5004 0.5005 0.5005 0.5005 0.5005
3222.187173 0.5005 0.5005 0.5005 0.5005 0.5005
3227.211275 0.5005 0.5005 0.5004 0.5002 0.5001
3232.235376 0.4999 0.4998 0.4997 0.4995 0.4993
3237.259477 0.4992 0.4991 0.4989 0.4988 0.4986
3242.283578 0.4985 0.4984 0.4982 0.4981 0.4980
3247.307680 0.4979 0.4978 0.4977 0.4976 0.4975
3252.331781 0.4974 0.4973 0.4972 0.4971 0.4970
3257.355882 0.4969 0.4968 0.4967 0.4966 0.4965
3262.379984 0.4964 0.4963 0.4963 0.4962 0.4962
3267.404085 0.4962 0.4961 0.4961 0.4960 0.4960
3272.428186 0.4959 0.4959 0.4959 0.4958 0.4958
3277.452288 0.4957 0.4957 0.4956 0.4955 0.4953
3282.476389 0.4952 0.4951 0.4950 0.4949 0.4948
3287.500490 0.4946 0.4945 0.4944 0.4943 0.4942
3292.524592 0.4940 0.4939 0.4938 0.4936 0.4933
3297.548693 0.4930 0.4927 0.4924 0.4921 0.4917
3302.572794 0.4914 0.4911 0.4908 0.4905 0.4902
3307.596895 0.4899 0.4895 0.4892 0.4889 0.4885
3312.620997 0.4882 0.4878 0.4875 0.4871 0.4868
3317.645098 0.4864 0.4861 0.4858 0.4854 0.4851
3322.669199 0.4847 0.4844 0.4841 0.4837 0.4834
3327.693301 0.4830 0.4827 0.4824 0.4820 0.4817
3332.717402 0.4814 0.4812 0.4809 0.4807 0.4804
3337.741503 0.4802 0.4800 0.4797 0.4794 0.4792
3342.765605 0.4789 0.4787 0.4785 0.4782 0.4780
3347.789706 0.4777 0.4775 0.4773 0.4770 0.4768
3352.813807 0.4765 0.4764 0.4763 0.4761 0.4760
3357.837908 0.4759 0.4758 0.4756 0.4755 0.4754
3362.862010 0.4752 0.4751 0.4750 0.4749 0.4747
3367.886111 0.4746 0.4745 0.4744 0.4742 0.4741
3372.910212 0.4740 0.4739 0.4737 0.4736 0.4736
3377.934314 0.4736 0.4736 0.4737 0.4737 0.4737
3382.958415 0.4737 0.4737 0.4737 0.4737 0.4737
3387.982516 0.4737 0.4737 0.4737 0.4737 0.4737
3393.006618 0.4737 0.4737 0.4737 0.4737 0.4736
3398.030719 0.4736 0.4736 0.4735 0.4735 0.4735
3403.054820 0.4734 0.4734 0.4734 0.4733 0.4730
3408.078922 0.4727 0.4724 0.4721 0.4718 0.4715
3413.103023 0.4712 0.4709 0.4706 0.4704 0.4701
3418.127124 0.4698 0.4697 0.4697 0.4697 0.4696
3423.151225 0.4696 0.4696 0.4696 0.4696 0.4695
3428.175327 0.4695 0.4695 0.4695 0.4694 0.4694
3433.199428 0.4694 0.4694 0.4693 0.4693 0.4693
3438.223529 0.4693 0.4693 0.4692 0.4693 0.4693
3443.247631 0.4694 0.4695 0.4696 0.4697 0.4698
3448.271732 0.4698 0.4699 0.4700 0.4701 0.4702
3453.295833 0.4703 0.4703 0.4704 0.4706 0.4707
3458.319935 0.4708 0.4710 0.4711 0.4712 0.4714
3463.344036 0.4715 0.4716 0.4717 0.4719 0.4720
3468.368137 0.4721 0.4723 0.4724 0.4725 0.4727
3473.392239 0.4728 0.4729 0.4731 0.4733 0.4736
3478.416340 0.4738 0.4740 0.4743 0.4745 0.4747
3483.440441 0.4750 0.4752 0.4754 0.4757 0.4759
3488.464542 0.4761 0.4764 0.4766 0.4768 0.4770
3493.488644 0.4773 0.4775 0.4777 0.4780 0.4782
3498.512745 0.4784 0.4787 0.4789 0.4791 0.4792
3503.536846 0.4793 0.4794 0.4795 0.4796 0.4797
3508.560948 0.4798 0.4799 0.4800 0.4801 0.4801
3513.585049 0.4801 0.4801 0.4801 0.4801 0.4801
3518.609150 0.4802 0.4802 0.4802 0.4802 0.4802
3523.633252 0.4802 0.4802 0.4802 0.4802 0.4802
3528.657353 0.4803 0.4803 0.4803 0.4803 0.4803
3533.681454 0.4803 0.4803 0.4803 0.4803 0.4804
3538.705556 0.4804 0.4804 0.4804 0.4804 0.4804
3543.729657 0.4804 0.4805 0.4805 0.4805 0.4805
3548.753758 0.4805 0.4805 0.4805 0.4805 0.4806
3553.777859 0.4806 0.4806 0.4805 0.4803 0.4802
3558.801961 0.4801 0.4799 0.4798 0.4797 0.4795
3563.826062 0.4794 0.4793 0.4792 0.4790 0.4789
3568.850163 0.4788 0.4786 0.4785 0.4784 0.4782
3573.874265 0.4781 0.4780 0.4779 0.4777 0.4776
3578.898366 0.4775 0.4773 0.4772 0.4771 0.4769
3583.922467 0.4768 0.4767 0.4765 0.4764 0.4763
3588.946569 0.4761 0.4760 0.4759 0.4757 0.4756
3593.970670 0.4754 0.4753 0.4752 0.4750 0.4749
3598.994771 0.4748 0.4746 0.4745 0.4743 0.4742
3604.018873 0.4741 0.4739 0.4738 0.4737 0.4735
3609.042974 0.4733 0.4731 0.4728 0.4726 0.4724
3614.067075 0.4721 0.4719 0.4717 0.4714 0.4712
3619.091176 0.4709 0.4707 0.4705 0.4702 0.4700
3624.115278 0.4698 0.4695 0.4693 0.4690 0.4688
3629.139379 0.4686 0.4683 0.4681 0.4679 0.4676
3634.163480 0.4674 0.4671 0.4669 0.4667 0.4665
3639.187582 0.4664 0.4662 0.4660 0.4659 0.4657
3644.211683 0.4656 0.4654 0.4652 0.4651 0.4649
3649.235784 0.4648 0.4646 0.4644 0.4643 0.4640
3654.259886 0.4639 0.4637 0.4636 0.4634 0.4632
3659.283987 0.4631 0.4629 0.4628 0.4626 0.4624
3664.308088 0.4623 0.4621 0.4619 0.4617 0.4616
3669.332190 0.4614 0.4612 0.4611 0.4609 0.4607
3674.356291 0.4606 0.4604 0.4602 0.4601 0.4599
3679.380392 0.4597 0.4596 0.4594 0.4592 0.4591
3684.404493 0.4589 0.4587 0.4586 0.4584 0.4582
3689.428595 0.4581 0.4579 0.4577 0.4576 0.4574
3694.452696 0.4572 0.4571 0.4569 0.4567 0.4566
3699.476797 0.4564 0.4562 0.4561 0.4559 0.4557
3704.500899 0.4556 0.4554 0.4552 0.4551 0.4549
3709.525000 0.4547 0.4546 0.4544 0.4543 0.4541
3714.549101 0.4539 0.4538 0.4536 0.4534 0.4533
3719.573203 0.4531 0.4530 0.4528 0.4526 0.4525
3724.597304 0.4523 0.4522 0.4521 0.4520 0.4519
3729.621405 0.4519 0.4518 0.4517 0.4516 0.4515
3734.645507 0.4514 0.4513 0.4513 0.4512 0.4511
3739.669608 0.4510 0.4509 0.4508 0.4508 0.4507
3744.693709 0.4506 0.4505 0.4504 0.4503 0.4502
3749.717810 0.4502 0.4501 0.4500 0.4499 0.4498
3754.741912 0.4497 0.4496 0.4496 0.4495 0.4494
3759.766013 0.4494 0.4494 0.4494 0.4494 0.4494
3764.790114 0.4494 0.4494 0.4494 0.4494 0.4494
3769.814216 0.4494 0.4494 0.4494 0.4494 0.4494
3774.838317 0.4494 0.4494 0.4494 0.4494 0.4494
3779.862418 0.4494 0.4494 0.4493 0.4493 0.4492
3784.886520 0.4491 0.4489 0.4488 0.4487 0.4486
3789.910621 0.4484 0.4483 0.4482 0.4481 0.4479
3794.934722 0.4478 0.4477 0.4476 0.4475 0.4473
3799.958824 0.4472 0.4470 0.4467 0.4464 0.4460
3804.982925 0.4457 0.4454 0.4450 0.4447 0.4444
3810.007026 0.4441 0.4437 0.4434 0.4431 0.4427
3815.031127 0.4424 0.4421 0.4417 0.4414 0.4411
3820.055229 0.4408 0.4406 0.4404 0.4402 0.4400
3825.079330 0.4398 0.4396 0.4394 0.4392 0.4390
3830.103431 0.4388 0.4386 0.4384 0.4382 0.4380
3835.127533 0.4378 0.4376 0.4374 0.4372 0.4370
3840.151634 0.4368 0.4366 0.4364 0.4362 0.4360
3845.175735 0.4358 0.4356 0.4354 0.4352 0.4350
3850.199837 0.4348 0.4346 0.4344 0.4342 0.4340
3855.223938 0.4338 0.4336 0.4334 0.4332 0.4330
3860.248039 0.4328 0.4325 0.4324 0.4323 0.4322
3865.272141 0.4322 0.4322 0.4321 0.4321 0.4320
3870.296242 0.4320 0.4319 0.4319 0.4318 0.4318
3875.320343 0.4318 0.4317 0.4317 0.4316 0.4316
3880.344444 0.4315 0.4315 0.4314 0.4314 0.4314
3885.368546 0.4313 0.4313 0.4312 0.4312 0.4311
3890.392647 0.4311 0.4310 0.4310 0.4309 0.4309
3895.416748 0.4308 0.4308 0.4307 0.4307 0.4306
3900.440850 0.4306 0.4305 0.4304 0.4304 0.4303
3905.464951 0.4302 0.4302 0.4301 0.4300 0.4300
3910.489052 0.4299 0.4298 0.4298 0.4296 0.4296
3915.513154 0.4295 0.4294 0.4293 0.4293 0.4292
3920.537255 0.4291 0.4290 0.4290 0.4289 0.4288
3925.561356 0.4287 0.4286 0.4286 0.4285 0.4284
3930.585458 0.4283 0.4282 0.4282 0.4281 0.4280
3935.609559 0.4279 0.4278 0.4278 0.4277 0.4276
3940.633660 0.4275 0.4274 0.4273 0.4272 0.4271
3945.657761 0.4270 0.4269 0.4268 0.4267 0.4266
3950.681863 0.4265 0.4264 0.4263 0.4261 0.4260
3955.705964 0.4259 0.4258 0.4257 0.4256 0.4239
3960.730065 0.4248 0.4254 0.4253 0.4252 0.4251
3965.754167 0.4250 0.4249 0.4249 0.4248 0.4247
3970.778268 0.4246 0.4245 0.4245 0.4245 0.4245
3975.802369 0.4245 0.4245 0.4245 0.4245 0.4245
3980.826471 0.4245 0.4245 0.4245 0.4245 0.4244
3985.850572 0.4243 0.4242 0.4241 0.4239 0.4238
3990.874673 0.4237 0.4236 0.4235 0.4234 0.4233
3995.898775 0.4231 0.4230 0.4229 0.4227 0.4225
4000.922876 0.4223 0.4221 0.4219 0.4217 0.4215
4005.946977 0.4213 0.4211 0.4209 0.4207 0.4205
4010.971078 0.4203 0.4201 0.4199 0.4197 0.4195
4015.995180 0.4194
##END=
