##TITLE=1,2,4-BENZOTRIAZIN-3(4H)-ONE, 4(HYDROXYMETHYL)-
##JCAMP-DX=4.24
##DATA TYPE=INFRARED SPECTRUM
##CLASS=COBLENTZ III
##ORIGIN=DOW CHEMICAL COMPANY
##OWNER=COBLENTZ SOCIETY
Collection (C) 2018 copyright by the U.S. Secretary of Commerce
on behalf of the United States of America. All rights reserved.
##DATE=1965/12/29
##NAMES=4-(hydroxymethyl)-1,2,4-benzotriazin-3(4H)-one
##MOLFORM=C8 H7 N3 O2
##SOURCE REFERENCE=COBLENTZ NO. 8076
##$NIST ID=B6008076
##$NIST SOURCE=COBLENTZ
##$NIST IMAGE=cob8076
##SPECTROMETER/DATA SYSTEM=DOW KBr FOREPRISM-GRATING
##INSTRUMENT PARAMETERS=BLAZED AT 3.5, 12.0, 20.0 MICRON AND CHANGED AT 5.0, 7.5, 14.9 MICRON
##STATE=SOLID (SPLIT MULL), FLUOROLUBE FOR 3800-1330 CM^-^1, NUJOL FOR 1330-460 CM^-^1
##SAMPLING PROCEDURE=TRANSMISSION
##RESOLUTION=2
##DATA PROCESSING=DIGITIZED BY NIST FROM HARD COPY (FROM TWO SEGMENTS)
##XUNITS=1/CM
##YUNITS=TRANSMITTANCE
##XFACTOR=1.000000
##YFACTOR=1
##DELTAX=0.879768
##FIRSTX=444.575
##LASTX=3802.65
##FIRSTY=0.811
##MAXX=3802.65
##MINX=444.575
##MAXY=0.987
##MINY=0.228003
##NPOINTS=3818
##XYDATA=(X++(Y..Y))
444.575000 0.8110 0.8110 0.8110 0.8110 0.8110
448.973838 0.8110 0.8110 0.8110 0.8110 0.8110
453.372676 0.8110 0.8110 0.8110 0.8110 0.8100
457.771514 0.8100 0.8090 0.8090 0.8090 0.8070
462.170352 0.8070 0.8070 0.8070 0.8070 0.8070
466.569190 0.8070 0.8070 0.8070 0.8060 0.8040
470.968028 0.8030 0.8000 0.7990 0.7980 0.7980
475.366866 0.7960 0.7950 0.7950 0.7920 0.7890
479.765704 0.7850 0.7840 0.7700 0.7560 0.7400
484.164542 0.7290 0.7001 0.6990 0.6970 0.7398
488.563380 0.7650 0.7710 0.7870 0.8419 0.8460
492.962218 0.8470 0.8480 0.8500 0.8500 0.8500
497.361056 0.8510 0.8510 0.8510 0.8510 0.8510
501.759894 0.8530 0.8530 0.8530 0.8530 0.8530
506.158732 0.8530 0.8530 0.8530 0.8530 0.8530
510.557570 0.8530 0.8530 0.8530 0.8530 0.8530
514.956408 0.8540 0.8550 0.8550 0.8570 0.8570
519.355245 0.8570 0.8580 0.8580 0.8580 0.8580
523.754083 0.8580 0.8580 0.8580 0.8580 0.8570
528.152921 0.8550 0.8540 0.8530 0.8500 0.8470
532.551759 0.8420 0.8370 0.8350 0.8330 0.8240
536.950597 0.8060 0.7711 0.7670 0.7670 0.7809
541.349435 0.8240 0.8540 0.8550 0.8550 0.8550
545.748273 0.8550 0.8550 0.8550 0.8550 0.8550
550.147111 0.8550 0.8540 0.8530 0.8530 0.8510
554.545949 0.8510 0.8470 0.8440 0.8350 0.8201
558.944787 0.7880 0.7880 0.7890 0.8150 0.8210
563.343625 0.8509 0.8580 0.8620 0.8660 0.8680
567.742463 0.8690 0.8720 0.8720 0.8720 0.8730
572.141301 0.8730 0.8750 0.8760 0.8760 0.8770
576.540139 0.8770 0.8770 0.8770 0.8770 0.8770
580.938977 0.8770 0.8770 0.8770 0.8770 0.8770
585.337815 0.8760 0.8760 0.8750 0.8730 0.8720
589.736653 0.8680 0.8640 0.8391 0.8370 0.8390
594.135491 0.8460 0.8470 0.8540 0.8680 0.8750
598.534329 0.8770 0.8790 0.8790 0.8800 0.8800
602.933167 0.8790 0.8770 0.8750 0.8720 0.8700
607.332005 0.8660 0.8620 0.8540 0.8421 0.8221
611.730843 0.7730 0.7280 0.7250 0.7280 0.7709
616.129681 0.8289 0.8649 0.8700 0.8760 0.8790
620.528519 0.8790 0.8790 0.8790 0.8790 0.8790
624.927357 0.8790 0.8790 0.8790 0.8790 0.8790
629.326195 0.8790 0.8770 0.8750 0.8730 0.8720
633.725033 0.8720 0.8720 0.8700 0.8700 0.8690
638.123871 0.8680 0.8680 0.8680 0.8680 0.8680
642.522709 0.8680 0.8680 0.8680 0.8680 0.8680
646.921547 0.8680 0.8680 0.8680 0.8680 0.8680
651.320385 0.8680 0.8680 0.8680 0.8680 0.8680
655.719223 0.8680 0.8680 0.8680 0.8680 0.8680
660.118061 0.8680 0.8680 0.8680 0.8680 0.8680
664.516899 0.8680 0.8680 0.8680 0.8680 0.8680
668.915736 0.8680 0.8680 0.8680 0.8680 0.8680
673.314574 0.8680 0.8680 0.8680 0.8680 0.8680
677.713412 0.8660 0.8660 0.8640 0.8610 0.8590
682.112250 0.8570 0.8530 0.8500 0.8470 0.8460
686.511088 0.8430 0.8390 0.8360 0.8320 0.8280
690.909926 0.8210 0.8130 0.8040 0.7980 0.7930
695.308764 0.7910 0.7800 0.7740 0.7710 0.7590
699.707602 0.7430 0.7220 0.7010 0.6920 0.6810
704.106440 0.6640 0.6520 0.6351 0.6151 0.5971
708.505278 0.5830 0.5640 0.5500 0.5490 0.5520
712.904116 0.5790 0.5940 0.6050 0.6070 0.6070
717.302954 0.6070 0.6050 0.6040 0.6000 0.5870
721.701792 0.5860 0.5860 0.5870 0.5870 0.5970
726.100630 0.6030 0.6120 0.6160 0.6260 0.6300
730.499468 0.6340 0.6440 0.6460 0.6460 0.6440
734.898306 0.6340 0.6219 0.5610 0.4950 0.4930
739.297144 0.4940 0.5858 0.6379 0.7008 0.7189
743.695982 0.7300 0.7400 0.7470 0.7550 0.7550
748.094820 0.7550 0.7550 0.7540 0.7500 0.7440
752.493658 0.7370 0.7320 0.7220 0.7120 0.7060
756.892496 0.6970 0.6741 0.6521 0.6371 0.6091
761.291334 0.5700 0.5420 0.5150 0.5130 0.5160
765.690172 0.6438 0.7328 0.7669 0.7869 0.7930
770.089010 0.7950 0.7950 0.7920 0.7820 0.7760
774.487848 0.7710 0.7590 0.7540 0.7410 0.7290
778.886686 0.7140 0.6950 0.6750 0.6420 0.5591
783.285524 0.4612 0.4580 0.4610 0.4939 0.5786
787.684362 0.7101 0.7820 0.8130 0.8570 0.8790
792.083200 0.8850 0.8850 0.8850 0.8850 0.8810
796.482038 0.8760 0.8650 0.8420 0.8180 0.8150
800.880876 0.8170 0.8749 0.8850 0.8940 0.9089
805.279714 0.9090 0.9090 0.9070 0.9070 0.9020
809.678552 0.9010 0.8950 0.8900 0.8840 0.8800
814.077390 0.8750 0.8680 0.8590 0.8530 0.8440
818.476227 0.8350 0.8280 0.8200 0.8110 0.7951
822.875065 0.7780 0.7700 0.7580 0.7440 0.7260
827.273903 0.7080 0.6970 0.6860 0.6561 0.6291
831.672741 0.6270 0.6290 0.6380 0.6740 0.7399
836.071579 0.7709 0.7979 0.8289 0.8459 0.8579
840.470417 0.8840 0.8980 0.9050 0.9060 0.9070
844.869255 0.9090 0.9100 0.9120 0.9120 0.9130
849.268093 0.9140 0.9180 0.9230 0.9230 0.9240
853.666931 0.9250 0.9250 0.9250 0.9250 0.9250
858.065769 0.9250 0.9250 0.9250 0.9250 0.9250
862.464607 0.9250 0.9250 0.9250 0.9240 0.9240
866.863445 0.9240 0.9240 0.9230 0.9230 0.9210
871.262283 0.9200 0.9200 0.9200 0.9200 0.9200
875.661121 0.9200 0.9200 0.9180 0.9170 0.9090
880.059959 0.8950 0.8920 0.8920 0.8950 0.9010
884.458797 0.9030 0.9060 0.9030 0.9010 0.8980
888.857635 0.8960 0.8980 0.9020 0.9070 0.9090
893.256473 0.9100 0.9120 0.9130 0.9140 0.9140
897.655311 0.9140 0.9140 0.9140 0.9140 0.9140
902.054149 0.9140 0.9140 0.9140 0.9140 0.9140
906.452987 0.9130 0.9130 0.9130 0.9120 0.9100
910.851825 0.9100 0.9090 0.9090 0.9060 0.9060
915.250663 0.9050 0.9030 0.9020 0.9010 0.8980
919.649501 0.8960 0.8950 0.8940 0.8920 0.8910
924.048339 0.8900 0.8830 0.8770 0.8680 0.8401
928.447177 0.8170 0.8140 0.8150 0.8290 0.8590
932.846015 0.8770 0.8950 0.8950 0.8960 0.8960
937.244853 0.8960 0.8960 0.8960 0.8960 0.8980
941.643691 0.8980 0.8980 0.8990 0.8990 0.8990
946.042529 0.8990 0.8990 0.8990 0.8990 0.8990
950.441367 0.8990 0.8990 0.8980 0.8980 0.8980
954.840205 0.8980 0.8980 0.8980 0.8980 0.8960
959.239043 0.8960 0.8960 0.8950 0.8950 0.8950
963.637881 0.8940 0.8940 0.8940 0.8920 0.8920
968.036718 0.8920 0.8920 0.8910 0.8910 0.8910
972.435556 0.8900 0.8900 0.8900 0.8900 0.8900
976.834394 0.8900 0.8900 0.8900 0.8900 0.8870
981.233232 0.8870 0.8810 0.8750 0.8550 0.8540
985.632070 0.8550 0.8909 0.8920 0.8920 0.8920
990.030908 0.8910 0.8900 0.8870 0.8760 0.8690
994.429746 0.8700 0.8810 0.8920 0.8920 0.8920
998.828584 0.8920 0.8880 0.8830 0.8730 0.8720
1003.227422 0.8720 0.8720 0.8750 0.8790 0.8800
1007.626260 0.8810 0.8810 0.8810 0.8810 0.8800
1012.025098 0.8760 0.8720 0.8700 0.8511 0.8500
1016.423936 0.8510 0.8590 0.8680 0.8840 0.8850
1020.822774 0.8850 0.8850 0.8850 0.8850 0.8850
1025.221612 0.8850 0.8850 0.8850 0.8850 0.8840
1029.620450 0.8840 0.8830 0.8810 0.8810 0.8810
1034.019288 0.8800 0.8800 0.8790 0.8770 0.8770
1038.418126 0.8760 0.8760 0.8730 0.8730 0.8720
1042.816964 0.8700 0.8690 0.8680 0.8650 0.8640
1047.215802 0.8610 0.8580 0.8570 0.8530 0.8510
1051.614640 0.8470 0.8420 0.8370 0.8320 0.8280
1056.013478 0.8240 0.8140 0.8100 0.7980 0.7930
1060.412316 0.7800 0.7660 0.7550 0.7480 0.7410
1064.811154 0.7330 0.7230 0.7110 0.7040 0.6960
1069.209992 0.6790 0.6590 0.6340 0.6070 0.5680
1073.608830 0.5240 0.5000 0.4561 0.4061 0.3771
1078.007668 0.3470 0.3420 0.3330 0.3240 0.3150
1082.406506 0.3070 0.2980 0.2960 0.2990 0.4356
1086.805344 0.5371 0.5681 0.6080 0.6381 0.7120
1091.204182 0.7540 0.7630 0.7710 0.7730 0.7740
1095.603020 0.7770 0.7780 0.7780 0.7770 0.7650
1100.001858 0.7510 0.7390 0.7230 0.7100 0.6960
1104.400696 0.6850 0.6681 0.7080 0.7480 0.7870
1108.799534 0.8210 0.8260 0.8440 0.8580 0.8690
1113.198371 0.8750 0.8790 0.8830 0.8900 0.8900
1117.597209 0.8900 0.8900 0.8900 0.8880 0.8850
1121.996047 0.8760 0.8690 0.8690 0.8690 0.8690
1126.394885 0.8700 0.8770 0.8870 0.8910 0.8920
1130.793723 0.8940 0.8940 0.8910 0.8880 0.8880
1135.192561 0.8870 0.8810 0.8790 0.8730 0.8690
1139.591399 0.8660 0.8620 0.8620 0.8640 0.8650
1143.990237 0.8680 0.8730 0.8750 0.8760 0.8760
1148.389075 0.8750 0.8720 0.8700 0.8660 0.8590
1152.787913 0.8470 0.8350 0.8260 0.8140 0.8130
1157.186751 0.8150 0.8280 0.8530 0.8590 0.8690
1161.585589 0.8870 0.8960 0.8990 0.9010 0.8990
1165.984427 0.8940 0.8900 0.8830 0.8790 0.8760
1170.383265 0.8700 0.8640 0.8570 0.8510 0.8480
1174.782103 0.8480 0.8320 0.8070 0.7980 0.7950
1179.180941 0.7950 0.8060 0.8170 0.8310 0.8470
1183.579779 0.8700 0.8870 0.8900 0.8910 0.8950
1187.978617 0.8960 0.8960 0.8980 0.8980 0.8980
1192.377455 0.8980 0.8980 0.8980 0.8980 0.8980
1196.776293 0.8980 0.8980 0.8980 0.8960 0.8960
1201.175131 0.8940 0.8940 0.8920 0.8910 0.8910
1205.573969 0.8910 0.8900 0.8880 0.8880 0.8880
1209.972807 0.8870 0.8870 0.8850 0.8840 0.8830
1214.371645 0.8800 0.8770 0.8770 0.8760 0.8750
1218.770483 0.8750 0.8730 0.8700 0.8700 0.8690
1223.169321 0.8680 0.8660 0.8650 0.8620 0.8580
1227.568159 0.8550 0.8510 0.8500 0.8480 0.8460
1231.966997 0.8420 0.8390 0.8350 0.8330 0.8310
1236.365835 0.8280 0.8220 0.8140 0.8090 0.8000
1240.764673 0.7980 0.7910 0.7870 0.7870 0.7880
1245.163511 0.7910 0.7930 0.7980 0.8000 0.8000
1249.562349 0.8000 0.8000 0.7990 0.7890 0.7840
1253.961187 0.7770 0.7740 0.7670 0.7580 0.7540
1258.360025 0.7410 0.7080 0.7040 0.7010 0.7000
1262.758862 0.6990 0.6950 0.6920 0.6900 0.6890
1267.157700 0.6880 0.6860 0.6780 0.6710 0.6660
1271.556538 0.6600 0.6440 0.6420 0.6420 0.6490
1275.955376 0.6560 0.6620 0.6740 0.7000 0.7140
1280.354214 0.7331 0.7550 0.7740 0.7810 0.7850
1284.753052 0.7870 0.7870 0.7840 0.7810 0.7760
1289.151890 0.7730 0.7620 0.7540 0.7410 0.7320
1293.550728 0.7150 0.7070 0.7030 0.6960 0.6890
1297.949566 0.6790 0.6730 0.6600 0.6410 0.6080
1302.348404 0.5610 0.5370 0.5300 0.5230 0.5170
1306.747242 0.5150 0.5150 0.5150 0.5150 0.5150
1311.146080 0.5150 0.5150 0.5150 0.5150 0.5160
1315.544918 0.5160 0.5190 0.5231 0.5650 0.5960
1319.943756 0.6180 0.6380 0.7409 0.7410 0.7410
1324.342594 0.7410 0.7410 0.7410 0.7410 0.7410
1328.741432 0.7230 0.7040 0.6950 0.6850 0.6630
1333.140270 0.6379 0.6149 0.5830 0.5680 0.5650
1337.539108 0.5670 0.5920 0.6260 0.6739 0.7079
1341.937946 0.7220 0.7230 0.7260 0.7300 0.7320
1346.336784 0.7390 0.7430 0.7550 0.7600 0.7690
1350.735622 0.7730 0.7800 0.7870 0.7890 0.7910
1355.134460 0.7920 0.7920 0.7920 0.7930 0.7930
1359.533298 0.7930 0.7930 0.7930 0.7930 0.7920
1363.932136 0.7920 0.7920 0.7920 0.7920 0.7920
1368.330974 0.7910 0.7910 0.7890 0.7890 0.7850
1372.729812 0.7810 0.7770 0.7760 0.7740 0.7730
1377.128650 0.7670 0.7600 0.7590 0.7550 0.7510
1381.527488 0.7400 0.7300 0.7140 0.7040 0.7000
1385.926326 0.6950 0.6900 0.6820 0.6750 0.6590
1390.325164 0.6590 0.6570 0.6590 0.7169 0.7320
1394.724002 0.7671 0.7920 0.7990 0.8090 0.8100
1399.122840 0.8110 0.8110 0.8110 0.8100 0.8090
1403.521678 0.8060 0.8000 0.7950 0.7930 0.7870
1407.920516 0.7590 0.7480 0.7470 0.7470 0.7510
1412.319353 0.7660 0.7760 0.7880 0.8020 0.8040
1416.718191 0.8060 0.8060 0.8070 0.8070 0.8070
1421.117029 0.8070 0.8060 0.8040 0.8040 0.8030
1425.515867 0.8000 0.7960 0.7930 0.7930 0.7910
1429.914705 0.7880 0.7800 0.7700 0.7630 0.7590
1434.313543 0.7580 0.7550 0.7440 0.7410 0.7390
1438.712381 0.7280 0.7220 0.7110 0.7040 0.6970
1443.111219 0.6780 0.6560 0.6270 0.6010 0.6010
1447.510057 0.6051 0.6200 0.6370 0.6460 0.6560
1451.908895 0.6770 0.6890 0.6890 0.6810 0.6670
1456.307733 0.6329 0.6000 0.5980 0.6010 0.6250
1460.706571 0.6490 0.6570 0.6700 0.7179 0.7410
1465.105409 0.7661 0.7890 0.8110 0.8110 0.8110
1469.504247 0.8110 0.8040 0.7910 0.7660 0.7411
1473.903085 0.7329 0.7110 0.6990 0.6850 0.6730
1478.301923 0.6740 0.7170 0.7600 0.8239 0.8530
1482.700761 0.8580 0.8610 0.8620 0.8620 0.8640
1487.099599 0.8640 0.8640 0.8620 0.8620 0.8620
1491.498437 0.8620 0.8620 0.8620 0.8610 0.8610
1495.897275 0.8590 0.8590 0.8580 0.8580 0.8550
1500.296113 0.8550 0.8540 0.8530 0.8510 0.8500
1504.694951 0.8480 0.8470 0.8460 0.8420 0.8390
1509.093789 0.8370 0.8350 0.8330 0.8310 0.8220
1513.492627 0.8170 0.8110 0.8030 0.7950 0.7920
1517.891465 0.7850 0.7770 0.7740 0.7650 0.7580
1522.290303 0.7440 0.7330 0.7230 0.7080 0.7000
1526.689141 0.6919 0.6627 0.5680 0.5670 0.5710
1531.087979 0.5830 0.5960 0.6140 0.6140 0.5940
1535.486817 0.5540 0.5520 0.5540 0.5761 0.6271
1539.885655 0.7030 0.7400 0.7920 0.8130 0.8290
1544.284493 0.8320 0.8360 0.8370 0.8370 0.8330
1548.683331 0.8310 0.8260 0.8240 0.8220 0.8220
1553.082169 0.8220 0.8240 0.8250 0.8250 0.8250
1557.481006 0.8250 0.8250 0.8250 0.8240 0.8220
1561.879844 0.8210 0.8180 0.8170 0.8140 0.8130
1566.278682 0.8100 0.8070 0.8030 0.8000 0.7980
1570.677520 0.7950 0.7920 0.7850 0.7810 0.7770
1575.076358 0.7670 0.7620 0.7580 0.7500 0.7440
1579.475196 0.7400 0.7300 0.7230 0.7110 0.7000
1583.874034 0.6970 0.6930 0.6920 0.6850 0.6570
1588.272872 0.6520 0.6520 0.6520 0.6560 0.6670
1592.671710 0.6740 0.6750 0.6750 0.6750 0.6750
1597.070548 0.6670 0.6590 0.6520 0.6400 0.6230
1601.469386 0.6050 0.5850 0.5640 0.5410 0.5190
1605.868224 0.4950 0.4819 0.4609 0.4360 0.4200
1610.267062 0.4010 0.3920 0.3830 0.3650 0.3540
1614.665900 0.3500 0.3400 0.3330 0.3320 0.3330
1619.064738 0.3350 0.3360 0.4379 0.4760 0.5129
1623.463576 0.5533 0.6300 0.6300 0.6300 0.6179
1627.862414 0.5870 0.5570 0.5300 0.4910 0.4510
1632.261252 0.4099 0.3899 0.3680 0.3550 0.3360
1636.660090 0.3150 0.2980 0.2780 0.2630 0.2500
1641.058928 0.2300 0.2280 0.2290 0.2300 0.2320
1645.457766 0.2330 0.2340 0.2400 0.2410 0.2580
1649.856604 0.2730 0.2850 0.2990 0.3090 0.3241
1654.255442 0.3510 0.3610 0.4120 0.4310 0.4460
1658.654280 0.4641 0.4840 0.4980 0.5060 0.5150
1663.053118 0.5190 0.5230 0.5260 0.5280 0.5380
1667.451956 0.5501 0.5711 0.5970 0.6160 0.6461
1671.850794 0.7180 0.7290 0.7510 0.7650 0.7780
1676.249632 0.7981 0.8110 0.8200 0.8280 0.8350
1680.648470 0.8430 0.8500 0.8580 0.8640 0.8700
1685.047308 0.8760 0.8830 0.8900 0.8920 0.9010
1689.446146 0.9060 0.9090 0.9120 0.9140 0.9160
1693.844984 0.9200 0.9210 0.9230 0.9240 0.9250
1698.243822 0.9270 0.9310 0.9310 0.9320 0.9350
1702.642660 0.9380 0.9400 0.9400 0.9400 0.9430
1707.041497 0.9430 0.9450 0.9460 0.9470 0.9500
1711.440335 0.9530 0.9540 0.9560 0.9570 0.9570
1715.839173 0.9580 0.9600 0.9620 0.9640 0.9640
1720.238011 0.9640 0.9640 0.9650 0.9710 0.9750
1724.636849 0.9780 0.9790 0.9800 0.9800 0.9800
1729.035687 0.9800 0.9800 0.9800 0.9800 0.9780
1733.434525 0.9760 0.9750 0.9750 0.9750 0.9760
1737.833363 0.9790 0.9800 0.9820 0.9820 0.9860
1742.232201 0.9870 0.9870 0.9870 0.9870 0.9860
1746.631039 0.9860 0.9860 0.9870 0.9860 0.9860
1751.029877 0.9860 0.9860 0.9860 0.9860 0.9860
1755.428715 0.9870 0.9860 0.9860 0.9840 0.9830
1759.827553 0.9790 0.9790 0.9780 0.9780 0.9780
1764.226391 0.9780 0.9790 0.9790 0.9800 0.9820
1768.625229 0.9800 0.9820 0.9820 0.9820 0.9820
1773.024067 0.9820 0.9820 0.9820 0.9820 0.9820
1777.422905 0.9820 0.9820 0.9820 0.9820 0.9820
1781.821743 0.9800 0.9800 0.9800 0.9800 0.9790
1786.220581 0.9790 0.9790 0.9780 0.9780 0.9780
1790.619419 0.9780 0.9780 0.9780 0.9780 0.9780
1795.018257 0.9780 0.9760 0.9760 0.9760 0.9760
1799.417095 0.9760 0.9760 0.9760 0.9750 0.9750
1803.815933 0.9750 0.9750 0.9750 0.9750 0.9750
1808.214771 0.9730 0.9730 0.9730 0.9730 0.9730
1812.613609 0.9730 0.9720 0.9720 0.9720 0.9720
1817.012447 0.9710 0.9710 0.9710 0.9690 0.9690
1821.411285 0.9690 0.9680 0.9680 0.9680 0.9670
1825.810123 0.9670 0.9650 0.9650 0.9650 0.9650
1830.208961 0.9640 0.9640 0.9640 0.9640 0.9620
1834.607799 0.9610 0.9610 0.9610 0.9610 0.9620
1839.006637 0.9620 0.9620 0.9620 0.9620 0.9620
1843.405475 0.9620 0.9620 0.9620 0.9610 0.9610
1847.804313 0.9610 0.9600 0.9580 0.9580 0.9570
1852.203151 0.9570 0.9560 0.9560 0.9540 0.9540
1856.601988 0.9500 0.9470 0.9460 0.9460 0.9430
1861.000826 0.9430 0.9430 0.9430 0.9450 0.9450
1865.399664 0.9470 0.9490 0.9500 0.9500 0.9510
1869.798502 0.9530 0.9530 0.9540 0.9540 0.9540
1874.197340 0.9540 0.9540 0.9540 0.9540 0.9540
1878.596178 0.9540 0.9530 0.9530 0.9510 0.9500
1882.995016 0.9500 0.9500 0.9490 0.9490 0.9490
1887.393854 0.9470 0.9470 0.9470 0.9470 0.9470
1891.792692 0.9490 0.9490 0.9500 0.9500 0.9510
1896.191530 0.9510 0.9510 0.9510 0.9510 0.9510
1900.590368 0.9510 0.9510 0.9510 0.9510 0.9510
1904.989206 0.9510 0.9510 0.9500 0.9500 0.9490
1909.388044 0.9490 0.9490 0.9490 0.9490 0.9490
1913.786882 0.9490 0.9490 0.9490 0.9490 0.9470
1918.185720 0.9470 0.9470 0.9460 0.9460 0.9460
1922.584558 0.9450 0.9450 0.9450 0.9430 0.9430
1926.983396 0.9430 0.9420 0.9420 0.9420 0.9420
1931.382234 0.9420 0.9420 0.9420 0.9420 0.9420
1935.781072 0.9420 0.9420 0.9420 0.9420 0.9420
1940.179910 0.9420 0.9420 0.9430 0.9420 0.9420
1944.578748 0.9420 0.9420 0.9420 0.9420 0.9400
1948.977586 0.9390 0.9390 0.9390 0.9390 0.9390
1953.376424 0.9390 0.9390 0.9390 0.9390 0.9390
1957.775262 0.9390 0.9390 0.9390 0.9390 0.9380
1962.174100 0.9380 0.9380 0.9360 0.9360 0.9360
1966.572938 0.9360 0.9360 0.9360 0.9360 0.9360
1970.971776 0.9350 0.9350 0.9350 0.9350 0.9350
1975.370614 0.9350 0.9350 0.9350 0.9350 0.9350
1979.769452 0.9350 0.9350 0.9350 0.9350 0.9350
1984.168290 0.9350 0.9350 0.9350 0.9350 0.9350
1988.567128 0.9350 0.9350 0.9350 0.9350 0.9350
1992.965966 0.9350 0.9350 0.9340 0.9340 0.9340
1997.364804 0.9340 0.9340 0.9340 0.9340 0.9340
2001.763642 0.9340 0.9340 0.9340 0.9340 0.9340
2006.162479 0.9340 0.9340 0.9340 0.9340 0.9340
2010.561317 0.9340 0.9340 0.9340 0.9340 0.9340
2014.960155 0.9340 0.9340 0.9340 0.9340 0.9340
2019.358993 0.9340 0.9340 0.9340 0.9340 0.9340
2023.757831 0.9340 0.9340 0.9340 0.9340 0.9340
2028.156669 0.9340 0.9340 0.9340 0.9340 0.9340
2032.555507 0.9340 0.9340 0.9340 0.9340 0.9340
2036.954345 0.9340 0.9340 0.9340 0.9340 0.9340
2041.353183 0.9340 0.9340 0.9340 0.9340 0.9340
2045.752021 0.9340 0.9340 0.9340 0.9340 0.9340
2050.150859 0.9340 0.9340 0.9340 0.9340 0.9340
2054.549697 0.9340 0.9340 0.9340 0.9340 0.9340
2058.948535 0.9340 0.9340 0.9340 0.9340 0.9340
2063.347373 0.9340 0.9340 0.9340 0.9340 0.9340
2067.746211 0.9340 0.9340 0.9340 0.9340 0.9340
2072.145049 0.9340 0.9340 0.9340 0.9340 0.9340
2076.543887 0.9340 0.9340 0.9340 0.9340 0.9340
2080.942725 0.9340 0.9340 0.9340 0.9340 0.9340
2085.341563 0.9340 0.9340 0.9340 0.9340 0.9331
2089.740401 0.9321 0.9320 0.9320 0.9320 0.9320
2094.139239 0.9315 0.9310 0.9310 0.9310 0.9310
2098.538077 0.9310 0.9301 0.9291 0.9290 0.9290
2102.936915 0.9290 0.9290 0.9286 0.9280 0.9280
2107.335753 0.9280 0.9275 0.9271 0.9270 0.9270
2111.734591 0.9261 0.9251 0.9250 0.9250 0.9246
2116.133429 0.9241 0.9236 0.9231 0.9230 0.9230
2120.532267 0.9221 0.9211 0.9206 0.9201 0.9200
2124.931105 0.9200 0.9191 0.9181 0.9180 0.9180
2129.329943 0.9180 0.9180 0.9171 0.9161 0.9160
2133.728781 0.9160 0.9160 0.9160 0.9160 0.9160
2138.127619 0.9151 0.9141 0.9140 0.9140 0.9140
2142.526457 0.9140 0.9136 0.9131 0.9130 0.9130
2146.925295 0.9126 0.9121 0.9120 0.9120 0.9120
2151.324132 0.9120 0.9120 0.9120 0.9120 0.9120
2155.722970 0.9120 0.9120 0.9120 0.9120 0.9120
2160.121808 0.9120 0.9120 0.9120 0.9112 0.9102
2164.520646 0.9100 0.9100 0.9100 0.9100 0.9100
2168.919484 0.9100 0.9083 0.9063 0.9048 0.9033
2173.318322 0.9030 0.9030 0.9030 0.9030 0.9026
2177.717160 0.9021 0.9020 0.9020 0.9020 0.9020
2182.115998 0.9020 0.9020 0.9020 0.9020 0.9020
2186.514836 0.9020 0.9020 0.9020 0.9020 0.9020
2190.913674 0.9016 0.9011 0.9010 0.9010 0.9002
2195.312512 0.8992 0.8990 0.8990 0.8990 0.8990
2199.711350 0.8986 0.8981 0.8980 0.8980 0.8972
2204.110188 0.8962 0.8960 0.8960 0.8960 0.8960
2208.509026 0.8960 0.8960 0.8960 0.8960 0.8960
2212.907864 0.8960 0.8960 0.8960 0.8960 0.8960
2217.306702 0.8956 0.8951 0.8950 0.8950 0.8946
2221.705540 0.8941 0.8940 0.8940 0.8932 0.8922
2226.104378 0.8920 0.8920 0.8916 0.8911 0.8910
2230.503216 0.8910 0.8910 0.8910 0.8906 0.8901
2234.902054 0.8900 0.8900 0.8881 0.8856 0.8846
2239.300892 0.8841 0.8836 0.8831 0.8822 0.8812
2243.699730 0.8802 0.8792 0.8782 0.8772 0.8770
2248.098568 0.8770 0.8766 0.8761 0.8756 0.8751
2252.497406 0.8739 0.8724 0.8720 0.8720 0.8720
2256.896244 0.8720 0.8713 0.8703 0.8700 0.8700
2261.295082 0.8696 0.8691 0.8690 0.8690 0.8690
2265.693920 0.8690 0.8686 0.8681 0.8673 0.8663
2270.092758 0.8660 0.8660 0.8660 0.8660 0.8660
2274.491596 0.8660 0.8656 0.8651 0.8650 0.8650
2278.890434 0.8650 0.8650 0.8650 0.8650 0.8646
2283.289272 0.8641 0.8640 0.8640 0.8640 0.8640
2287.688110 0.8633 0.8623 0.8620 0.8620 0.8620
2292.086948 0.8620 0.8620 0.8620 0.8616 0.8611
2296.485786 0.8610 0.8610 0.8610 0.8610 0.8603
2300.884623 0.8593 0.8590 0.8590 0.8590 0.8590
2305.283461 0.8590 0.8590 0.8590 0.8590 0.8590
2309.682299 0.8590 0.8590 0.8590 0.8590 0.8590
2314.081137 0.8590 0.8590 0.8590 0.8590 0.8590
2318.479975 0.8590 0.8590 0.8590 0.8590 0.8590
2322.878813 0.8590 0.8590 0.8590 0.8590 0.8590
2327.277651 0.8590 0.8590 0.8590 0.8590 0.8590
2331.676489 0.8590 0.8590 0.8590 0.8590 0.8590
2336.075327 0.8590 0.8590 0.8590 0.8587 0.8582
2340.474165 0.8580 0.8580 0.8580 0.8580 0.8580
2344.873003 0.8580 0.8580 0.8580 0.8580 0.8580
2349.271841 0.8580 0.8580 0.8577 0.8572 0.8570
2353.670679 0.8570 0.8570 0.8570 0.8570 0.8570
2358.069517 0.8570 0.8570 0.8570 0.8570 0.8570
2362.468355 0.8570 0.8570 0.8570 0.8570 0.8570
2366.867193 0.8570 0.8570 0.8570 0.8570 0.8570
2371.266031 0.8570 0.8570 0.8570 0.8570 0.8570
2375.664869 0.8570 0.8570 0.8570 0.8570 0.8570
2380.063707 0.8570 0.8570 0.8570 0.8570 0.8570
2384.462545 0.8570 0.8570 0.8570 0.8570 0.8570
2388.861383 0.8570 0.8570 0.8570 0.8570 0.8570
2393.260221 0.8564 0.8554 0.8550 0.8550 0.8550
2397.659059 0.8550 0.8550 0.8550 0.8550 0.8550
2402.057897 0.8550 0.8550 0.8550 0.8550 0.8550
2406.456735 0.8550 0.8550 0.8550 0.8550 0.8550
2410.855573 0.8550 0.8550 0.8550 0.8550 0.8550
2415.254411 0.8550 0.8550 0.8550 0.8550 0.8550
2419.653249 0.8550 0.8550 0.8550 0.8550 0.8550
2424.052087 0.8550 0.8550 0.8550 0.8550 0.8550
2428.450925 0.8550 0.8550 0.8547 0.8542 0.8540
2432.849763 0.8540 0.8540 0.8540 0.8537 0.8532
2437.248601 0.8530 0.8530 0.8530 0.8530 0.8524
2441.647439 0.8514 0.8510 0.8510 0.8510 0.8510
2446.046277 0.8507 0.8502 0.8494 0.8484 0.8480
2450.445114 0.8480 0.8480 0.8480 0.8480 0.8480
2454.843952 0.8480 0.8480 0.8480 0.8480 0.8480
2459.242790 0.8480 0.8480 0.8480 0.8486 0.8496
2463.641628 0.8500 0.8500 0.8500 0.8500 0.8500
2468.040466 0.8500 0.8500 0.8500 0.8500 0.8500
2472.439304 0.8500 0.8500 0.8503 0.8508 0.8510
2476.838142 0.8510 0.8510 0.8510 0.8510 0.8510
2481.236980 0.8510 0.8510 0.8510 0.8510 0.8510
2485.635818 0.8510 0.8510 0.8510 0.8510 0.8510
2490.034656 0.8510 0.8510 0.8510 0.8510 0.8510
2494.433494 0.8510 0.8510 0.8510 0.8510 0.8510
2498.832332 0.8510 0.8510 0.8510 0.8510 0.8510
2503.231170 0.8510 0.8510 0.8510 0.8510 0.8510
2507.630008 0.8510 0.8510 0.8507 0.8502 0.8500
2512.028846 0.8500 0.8500 0.8500 0.8500 0.8500
2516.427684 0.8500 0.8500 0.8500 0.8500 0.8500
2520.826522 0.8500 0.8500 0.8500 0.8495 0.8485
2525.225360 0.8480 0.8480 0.8480 0.8480 0.8480
2529.624198 0.8480 0.8480 0.8480 0.8480 0.8480
2534.023036 0.8480 0.8480 0.8480 0.8480 0.8478
2538.421874 0.8473 0.8470 0.8470 0.8470 0.8470
2542.820712 0.8470 0.8470 0.8470 0.8470 0.8470
2547.219550 0.8470 0.8468 0.8463 0.8460 0.8460
2551.618388 0.8460 0.8460 0.8455 0.8445 0.8440
2556.017226 0.8440 0.8438 0.8433 0.8430 0.8430
2560.416064 0.8430 0.8430 0.8428 0.8423 0.8420
2564.814902 0.8420 0.8415 0.8405 0.8400 0.8400
2569.213740 0.8400 0.8400 0.8398 0.8393 0.8390
2573.612578 0.8390 0.8386 0.8376 0.8370 0.8370
2578.011416 0.8370 0.8370 0.8368 0.8363 0.8358
2582.410254 0.8353 0.8350 0.8350 0.8350 0.8350
2586.809092 0.8350 0.8350 0.8350 0.8350 0.8350
2591.207930 0.8350 0.8346 0.8336 0.8330 0.8330
2595.606767 0.8330 0.8330 0.8330 0.8330 0.8330
2600.005605 0.8330 0.8328 0.8323 0.8320 0.8320
2604.404443 0.8320 0.8320 0.8320 0.8320 0.8320
2608.803281 0.8320 0.8320 0.8320 0.8320 0.8320
2613.202119 0.8318 0.8313 0.8310 0.8310 0.8310
2617.600957 0.8310 0.8310 0.8310 0.8310 0.8310
2621.999795 0.8310 0.8310 0.8306 0.8296 0.8290
2626.398633 0.8290 0.8290 0.8290 0.8290 0.8290
2630.797471 0.8290 0.8290 0.8288 0.8283 0.8280
2635.196309 0.8280 0.8280 0.8280 0.8276 0.8266
2639.595147 0.8260 0.8260 0.8260 0.8260 0.8258
2643.993985 0.8253 0.8250 0.8250 0.8250 0.8250
2648.392823 0.8248 0.8243 0.8240 0.8240 0.8240
2652.791661 0.8240 0.8236 0.8226 0.8218 0.8213
2657.190499 0.8210 0.8210 0.8210 0.8210 0.8208
2661.589337 0.8203 0.8200 0.8200 0.8196 0.8186
2665.988175 0.8180 0.8180 0.8178 0.8173 0.8170
2670.387013 0.8170 0.8166 0.8156 0.8148 0.8143
2674.785851 0.8140 0.8140 0.8140 0.8140 0.8138
2679.184689 0.8133 0.8130 0.8130 0.8127 0.8117
2683.583527 0.8110 0.8110 0.8108 0.8103 0.8100
2687.982365 0.8100 0.8098 0.8093 0.8090 0.8090
2692.381203 0.8087 0.8077 0.8070 0.8070 0.8065
2696.780041 0.8050 0.8040 0.8040 0.8038 0.8033
2701.178879 0.8030 0.8030 0.8030 0.8030 0.8030
2705.577717 0.8030 0.8030 0.8030 0.8030 0.8030
2709.976555 0.8028 0.8023 0.8020 0.8020 0.8020
2714.375393 0.8020 0.8017 0.8007 0.8000 0.8000
2718.774231 0.8000 0.8000 0.8000 0.8000 0.8000
2723.173069 0.8000 0.7998 0.7993 0.7990 0.7990
2727.571907 0.7990 0.7990 0.7990 0.7990 0.7988
2731.970745 0.7984 0.7980 0.7980 0.7980 0.7980
2736.369583 0.7977 0.7967 0.7960 0.7960 0.7960
2740.768421 0.7960 0.7960 0.7960 0.7959 0.7954
2745.167258 0.7950 0.7950 0.7950 0.7950 0.7947
2749.566096 0.7937 0.7930 0.7930 0.7930 0.7930
2753.964934 0.7929 0.7924 0.7920 0.7920 0.7919
2758.363772 0.7914 0.7910 0.7910 0.7910 0.7910
2762.762610 0.7907 0.7897 0.7890 0.7890 0.7889
2767.161448 0.7884 0.7880 0.7880 0.7879 0.7874
2771.560286 0.7870 0.7870 0.7867 0.7857 0.7850
2775.959124 0.7850 0.7849 0.7844 0.7837 0.7827
2780.357962 0.7820 0.7820 0.7819 0.7814 0.7810
2784.756800 0.7810 0.7809 0.7804 0.7800 0.7800
2789.155638 0.7798 0.7788 0.7779 0.7774 0.7770
2793.554476 0.7770 0.7769 0.7764 0.7760 0.7760
2797.953314 0.7758 0.7748 0.7740 0.7740 0.7739
2802.352152 0.7734 0.7728 0.7718 0.7710 0.7710
2806.750990 0.7709 0.7704 0.7700 0.7700 0.7696
2811.149828 0.7682 0.7670 0.7670 0.7669 0.7664
2815.548666 0.7659 0.7654 0.7648 0.7638 0.7629
2819.947504 0.7624 0.7620 0.7620 0.7618 0.7608
2824.346342 0.7599 0.7594 0.7589 0.7584 0.7576
2828.745180 0.7556 0.7537 0.7522 0.7507 0.7492
2833.144018 0.7477 0.7462 0.7448 0.7438 0.7426
2837.542856 0.7406 0.7385 0.7360 0.7336 0.7316
2841.941694 0.7296 0.7276 0.7257 0.7242 0.7226
2846.340532 0.7206 0.7186 0.7166 0.7147 0.7132
2850.739370 0.7118 0.7108 0.7097 0.7082 0.7069
2855.138208 0.7064 0.7058 0.7048 0.7040 0.7040
2859.537046 0.7039 0.7034 0.7030 0.7030 0.7030
2863.935884 0.7030 0.7030 0.7030 0.7030 0.7030
2868.334722 0.7030 0.7030 0.7028 0.7018 0.7010
2872.733560 0.7010 0.7010 0.7010 0.7010 0.7010
2877.132398 0.7010 0.7010 0.7010 0.7010 0.7010
2881.531236 0.7010 0.7010 0.7010 0.7010 0.7010
2885.930074 0.7010 0.7010 0.7010 0.7010 0.7010
2890.328912 0.7010 0.7010 0.7010 0.7010 0.7010
2894.727749 0.7009 0.7004 0.7000 0.7000 0.7000
2899.126587 0.7000 0.6999 0.6994 0.6989 0.6979
2903.525425 0.6970 0.6970 0.6969 0.6964 0.6960
2907.924263 0.6960 0.6959 0.6954 0.6949 0.6939
2912.323101 0.6928 0.6913 0.6900 0.6900 0.6899
2916.721939 0.6894 0.6889 0.6884 0.6878 0.6863
2921.120777 0.6848 0.6833 0.6820 0.6820 0.6820
2925.519615 0.6820 0.6820 0.6820 0.6821 0.6831
2929.918453 0.6841 0.6846 0.6851 0.6856 0.6861
2934.317291 0.6871 0.6881 0.6886 0.6891 0.6896
2938.716129 0.6901 0.6911 0.6921 0.6926 0.6930
2943.114967 0.6930 0.6930 0.6930 0.6930 0.6930
2947.513805 0.6930 0.6930 0.6930 0.6925 0.6919
2951.912643 0.6909 0.6899 0.6889 0.6879 0.6864
2956.311481 0.6849 0.6834 0.6819 0.6804 0.6788
2960.710319 0.6768 0.6749 0.6739 0.6730 0.6735
2965.109157 0.6742 0.6767 0.6793 0.6839 0.6885
2969.507995 0.6945 0.7003 0.7038 0.7073 0.7113
2973.906833 0.7153 0.7188 0.7220 0.7225 0.7230
2978.305671 0.7230 0.7230 0.7230 0.7230 0.7230
2982.704509 0.7230 0.7230 0.7230 0.7230 0.7230
2987.103347 0.7230 0.7230 0.7225 0.7220 0.7215
2991.502185 0.7209 0.7199 0.7190 0.7185 0.7180
2995.901023 0.7180 0.7179 0.7164 0.7150 0.7145
3000.299861 0.7140 0.7130 0.7120 0.7120 0.7119
3004.698699 0.7110 0.7100 0.7100 0.7099 0.7084
3009.097537 0.7070 0.7070 0.7070 0.7070 0.7070
3013.496375 0.7070 0.7070 0.7070 0.7070 0.7070
3017.895213 0.7070 0.7065 0.7060 0.7060 0.7060
3022.294051 0.7050 0.7040 0.7040 0.7040 0.7035
3026.692889 0.7030 0.7030 0.7030 0.7020 0.7010
3031.091727 0.7005 0.7000 0.7000 0.7000 0.7000
3035.490565 0.7000 0.7000 0.7000 0.7000 0.7000
3039.889403 0.7000 0.7000 0.7000 0.7000 0.7000
3044.288240 0.7000 0.7000 0.7000 0.7000 0.7000
3048.687078 0.6995 0.6990 0.6980 0.6970 0.6965
3053.085916 0.6960 0.6945 0.6930 0.6930 0.6930
3057.484754 0.6925 0.6920 0.6910 0.6900 0.6890
3061.883592 0.6880 0.6865 0.6850 0.6820 0.6791
3066.282430 0.6780 0.6770 0.6755 0.6740 0.6721
3070.681268 0.6701 0.6690 0.6680 0.6660 0.6640
3075.080106 0.6596 0.6551 0.6521 0.6491 0.6475
3079.478944 0.6460 0.6460 0.6460 0.6460 0.6460
3083.877782 0.6470 0.6480 0.6494 0.6509 0.6529
3088.276620 0.6549 0.6555 0.6560 0.6579 0.6599
3092.675458 0.6600 0.6600 0.6600 0.6600 0.6600
3097.074296 0.6600 0.6595 0.6590 0.6580 0.6571
3101.473134 0.6561 0.6551 0.6531 0.6511 0.6501
3105.871972 0.6491 0.6476 0.6461 0.6455 0.6450
3110.270810 0.6431 0.6411 0.6405 0.6400 0.6391
3114.669648 0.6381 0.6366 0.6351 0.6341 0.6331
3119.068486 0.6316 0.6301 0.6286 0.6271 0.6265
3123.467324 0.6260 0.6242 0.6222 0.6206 0.6191
3127.866162 0.6167 0.6142 0.6117 0.6092 0.6071
3132.265000 0.6052 0.6041 0.6031 0.6016 0.6001
3136.663838 0.5982 0.5962 0.5942 0.5922 0.5911
3141.062676 0.5901 0.5859 0.5814 0.5765 0.5714
3145.461514 0.5696 0.5681 0.5666 0.5651 0.5645
3149.860352 0.5640 0.5626 0.5611 0.5601 0.5591
3154.259190 0.5559 0.5524 0.5502 0.5482 0.5453
3158.658028 0.5423 0.5402 0.5382 0.5353 0.5323
3163.056866 0.5298 0.5273 0.5243 0.5213 0.5201
3167.455704 0.5191 0.5181 0.5171 0.5166 0.5161
3171.854542 0.5125 0.5085 0.5049 0.5014 0.4984
3176.253380 0.4954 0.4946 0.4941 0.4927 0.4912
3180.652218 0.4910 0.4910 0.4910 0.4910 0.4910
3185.051056 0.4910 0.4910 0.4910 0.4910 0.4910
3189.449893 0.4919 0.4929 0.4939 0.4949 0.4971
3193.848731 0.4996 0.5009 0.5019 0.5033 0.5048
3198.247569 0.5054 0.5059 0.5073 0.5088 0.5107
3202.646407 0.5127 0.5156 0.5186 0.5211 0.5236
3207.045245 0.5270 0.5305 0.5340 0.5375 0.5409
3211.444083 0.5444 0.5471 0.5496 0.5529 0.5565
3215.842921 0.5595 0.5625 0.5647 0.5667 0.5683
3220.241759 0.5698 0.5721 0.5746 0.5779 0.5814
3224.640597 0.5882 0.5957 0.6003 0.6043 0.6087
3229.039435 0.6132 0.6144 0.6149 0.6171 0.6196
3233.438273 0.6237 0.6282 0.6315 0.6345 0.6371
3237.837111 0.6396 0.6421 0.6446 0.6462 0.6477
3242.235949 0.6509 0.6543 0.6578 0.6613 0.6652
3246.634787 0.6692 0.6728 0.6763 0.6790 0.6815
3251.033625 0.6836 0.6856 0.6872 0.6887 0.6914
3255.432463 0.6944 0.6982 0.7022 0.7034 0.7039
3259.831301 0.7056 0.7076 0.7096 0.7116 0.7128
3264.230139 0.7138 0.7144 0.7149 0.7162 0.7177
3268.628977 0.7192 0.7207 0.7218 0.7228 0.7238
3273.027815 0.7248 0.7270 0.7295 0.7316 0.7336
3277.426653 0.7352 0.7367 0.7386 0.7405 0.7418
3281.825491 0.7428 0.7434 0.7439 0.7452 0.7467
3286.224329 0.7470 0.7470 0.7482 0.7497 0.7504
3290.623167 0.7509 0.7522 0.7537 0.7548 0.7558
3295.022005 0.7560 0.7560 0.7568 0.7578 0.7584
3299.420843 0.7589 0.7594 0.7599 0.7608 0.7618
3303.819681 0.7620 0.7620 0.7624 0.7629 0.7638
3308.218519 0.7648 0.7650 0.7650 0.7654 0.7659
3312.617357 0.7664 0.7669 0.7670 0.7670 0.7677
3317.016195 0.7687 0.7694 0.7699 0.7700 0.7700
3321.415033 0.7704 0.7709 0.7710 0.7710 0.7717
3325.813871 0.7727 0.7730 0.7730 0.7734 0.7739
3330.212709 0.7740 0.7740 0.7740 0.7740 0.7740
3334.611547 0.7740 0.7740 0.7740 0.7740 0.7740
3339.010384 0.7740 0.7740 0.7740 0.7740 0.7740
3343.409222 0.7740 0.7740 0.7740 0.7740 0.7740
3347.808060 0.7740 0.7740 0.7740 0.7740 0.7740
3352.206898 0.7740 0.7740 0.7740 0.7740 0.7740
3356.605736 0.7740 0.7740 0.7740 0.7740 0.7736
3361.004574 0.7731 0.7730 0.7730 0.7730 0.7730
3365.403412 0.7730 0.7730 0.7730 0.7730 0.7730
3369.802250 0.7730 0.7723 0.7713 0.7710 0.7710
3374.201088 0.7710 0.7710 0.7710 0.7710 0.7710
3378.599926 0.7710 0.7707 0.7702 0.7700 0.7700
3382.998764 0.7700 0.7700 0.7700 0.7700 0.7697
3387.397602 0.7692 0.7690 0.7690 0.7690 0.7690
3391.796440 0.7690 0.7690 0.7683 0.7673 0.7670
3396.195278 0.7670 0.7670 0.7670 0.7670 0.7670
3400.594116 0.7670 0.7670 0.7670 0.7670 0.7670
3404.992954 0.7670 0.7670 0.7670 0.7667 0.7662
3409.391792 0.7660 0.7660 0.7660 0.7660 0.7660
3413.790630 0.7660 0.7660 0.7660 0.7660 0.7660
3418.189468 0.7660 0.7660 0.7660 0.7660 0.7660
3422.588306 0.7660 0.7660 0.7660 0.7660 0.7660
3426.987144 0.7660 0.7660 0.7660 0.7660 0.7663
3431.385982 0.7668 0.7670 0.7670 0.7676 0.7686
3435.784820 0.7690 0.7690 0.7693 0.7698 0.7703
3440.183658 0.7708 0.7710 0.7710 0.7710 0.7710
3444.582496 0.7710 0.7710 0.7710 0.7710 0.7710
3448.981334 0.7710 0.7710 0.7710 0.7710 0.7710
3453.380172 0.7710 0.7710 0.7710 0.7710 0.7710
3457.779010 0.7710 0.7710 0.7710 0.7710 0.7710
3462.177848 0.7710 0.7710 0.7710 0.7710 0.7710
3466.576686 0.7710 0.7710 0.7710 0.7710 0.7710
3470.975524 0.7710 0.7710 0.7707 0.7702 0.7700
3475.374362 0.7700 0.7700 0.7700 0.7700 0.7700
3479.773200 0.7700 0.7700 0.7700 0.7700 0.7697
3484.172038 0.7692 0.7690 0.7690 0.7690 0.7690
3488.570875 0.7690 0.7690 0.7690 0.7690 0.7684
3492.969713 0.7674 0.7670 0.7670 0.7670 0.7670
3497.368551 0.7670 0.7670 0.7670 0.7670 0.7667
3501.767389 0.7662 0.7660 0.7660 0.7660 0.7660
3506.166227 0.7660 0.7660 0.7660 0.7660 0.7652
3510.565065 0.7637 0.7630 0.7630 0.7627 0.7622
3514.963903 0.7620 0.7620 0.7620 0.7620 0.7620
3519.362741 0.7620 0.7620 0.7620 0.7620 0.7620
3523.761579 0.7620 0.7620 0.7620 0.7620 0.7620
3528.160417 0.7620 0.7620 0.7620 0.7620 0.7620
3532.559255 0.7620 0.7620 0.7620 0.7620 0.7620
3536.958093 0.7620 0.7620 0.7620 0.7615 0.7605
3541.356931 0.7600 0.7600 0.7600 0.7600 0.7600
3545.755769 0.7600 0.7600 0.7600 0.7600 0.7600
3550.154607 0.7600 0.7600 0.7600 0.7600 0.7600
3554.553445 0.7600 0.7600 0.7600 0.7600 0.7600
3558.952283 0.7600 0.7600 0.7600 0.7600 0.7600
3563.351121 0.7600 0.7600 0.7600 0.7600 0.7600
3567.749959 0.7597 0.7592 0.7590 0.7590 0.7590
3572.148797 0.7590 0.7590 0.7590 0.7590 0.7590
3576.547635 0.7588 0.7583 0.7580 0.7580 0.7580
3580.946473 0.7580 0.7580 0.7580 0.7580 0.7580
3585.345311 0.7575 0.7565 0.7560 0.7560 0.7560
3589.744149 0.7560 0.7560 0.7560 0.7560 0.7560
3594.142987 0.7560 0.7560 0.7560 0.7560 0.7560
3598.541825 0.7560 0.7560 0.7560 0.7560 0.7560
3602.940663 0.7560 0.7560 0.7560 0.7560 0.7560
3607.339501 0.7560 0.7560 0.7560 0.7560 0.7560
3611.738339 0.7560 0.7560 0.7560 0.7560 0.7560
3616.137177 0.7560 0.7560 0.7560 0.7560 0.7560
3620.536015 0.7560 0.7560 0.7560 0.7560 0.7560
3624.934853 0.7560 0.7560 0.7560 0.7558 0.7553
3629.333691 0.7550 0.7550 0.7550 0.7550 0.7550
3633.732528 0.7550 0.7550 0.7550 0.7550 0.7550
3638.131366 0.7550 0.7550 0.7550 0.7550 0.7550
3642.530204 0.7550 0.7548 0.7543 0.7540 0.7540
3646.929042 0.7540 0.7540 0.7536 0.7526 0.7520
3651.327880 0.7520 0.7520 0.7520 0.7518 0.7513
3655.726718 0.7510 0.7510 0.7510 0.7510 0.7508
3660.125556 0.7503 0.7500 0.7500 0.7496 0.7486
3664.524394 0.7480 0.7480 0.7480 0.7480 0.7480
3668.923232 0.7480 0.7478 0.7473 0.7470 0.7470
3673.322070 0.7470 0.7470 0.7466 0.7456 0.7450
3677.720908 0.7450 0.7450 0.7450 0.7448 0.7443
3682.119746 0.7440 0.7440 0.7438 0.7433 0.7430
3686.518584 0.7430 0.7430 0.7430 0.7430 0.7430
3690.917422 0.7430 0.7430 0.7430 0.7430 0.7430
3695.316260 0.7430 0.7430 0.7430 0.7430 0.7430
3699.715098 0.7430 0.7430 0.7430 0.7430 0.7430
3704.113936 0.7430 0.7426 0.7416 0.7410 0.7410
3708.512774 0.7410 0.7410 0.7410 0.7410 0.7410
3712.911612 0.7410 0.7410 0.7410 0.7410 0.7410
3717.310450 0.7410 0.7410 0.7410 0.7410 0.7410
3721.709288 0.7410 0.7410 0.7410 0.7410 0.7410
3726.108126 0.7410 0.7410 0.7410 0.7410 0.7410
3730.506964 0.7410 0.7410 0.7410 0.7410 0.7410
3734.905802 0.7410 0.7410 0.7408 0.7403 0.7400
3739.304640 0.7400 0.7400 0.7400 0.7400 0.7400
3743.703478 0.7400 0.7400 0.7398 0.7393 0.7390
3748.102316 0.7390 0.7390 0.7390 0.7387 0.7377
3752.501154 0.7370 0.7370 0.7368 0.7363 0.7360
3756.899992 0.7360 0.7357 0.7347 0.7340 0.7340
3761.298830 0.7338 0.7333 0.7330 0.7330 0.7328
3765.697668 0.7323 0.7320 0.7320 0.7320 0.7320
3770.096506 0.7317 0.7307 0.7300 0.7300 0.7300
3774.495344 0.7300 0.7300 0.7300 0.7298 0.7293
3778.894182 0.7290 0.7290 0.7288 0.7283 0.7280
3783.293019 0.7280 0.7280 0.7280 0.7280 0.7280
3787.691857 0.7280 0.7280 0.7280 0.7280 0.7280
3792.090695 0.7280 0.7280 0.7280 0.7280 0.7280
3796.489533 0.7280 0.7280 0.7280 0.7280 0.7280
3800.888371 0.7280 0.7280 0.7280
##END=
