##TITLE=VINYL CYCLOHEXENE MONOXIDE
##JCAMP-DX=4.24
##DATA TYPE=INFRARED SPECTRUM
##CLASS=COBLENTZ
##ORIGIN=WYANDOTTE CHEMICALS CORP., WYANDOTTE, MICHIGAN, USA
##OWNER=COBLENTZ SOCIETY
Collection (C) 2018 copyright by the U.S. Secretary of Commerce
on behalf of the United States of America. All rights reserved.
##DATE=Not specified, most likely prior to 1970
##MOLFORM=C8 H12 O
##SOURCE REFERENCE=COBLENTZ NO. 1289
##$NIST ID=B6001289
##$NIST SOURCE=COBLENTZ
##$NIST IMAGE=cob1289
##SPECTROMETER/DATA SYSTEM=Not specified, most likely a prism, grating, or hybrid spectrometer.
##STATE=LIQUID
##PATH LENGTH=0.003 CM
##SAMPLING PROCEDURE=TRANSMISSION
##RESOLUTION=4
##DATA PROCESSING=DIGITIZED BY NIST FROM HARD COPY
##XUNITS=MICROMETERS
##YUNITS=TRANSMITTANCE
##XFACTOR=1.000000
##YFACTOR=1
##DELTAX=000.006813
##FIRSTX=2.014
##LASTX=16.0141
##FIRSTY=0.953
##MAXX=16.0141
##MINX=2.014
##MAXY=0.955
##MINY=0.052
##NPOINTS=2056
##XYDATA=(X++(Y..Y))
2.014000 0.9530 0.9530 0.9530 0.9530 0.9530
2.048080 0.9530 0.9530 0.9530 0.9530 0.9550
2.082000 0.9550 0.9550 0.9530 0.9520 0.9500
2.116080 0.9500 0.9480 0.9430 0.9400 0.9380
2.150000 0.9380 0.9360 0.9360 0.9350 0.9310
2.184080 0.9300 0.9240 0.9180 0.9120 0.9120
2.218000 0.9120 0.9120 0.9120 0.9120 0.9110
2.252080 0.9110 0.9110 0.9110 0.9110 0.9110
2.286000 0.9110 0.9120 0.9120 0.9120 0.9120
2.320080 0.9120 0.9120 0.9120 0.9140 0.9140
2.354000 0.9140 0.9120 0.9140 0.9140 0.9140
2.388080 0.9140 0.9160 0.9180 0.9180 0.9180
2.422000 0.9180 0.9180 0.9180 0.9140 0.9120
2.456080 0.9110 0.9110 0.9090 0.9090 0.9090
2.491000 0.9110 0.9090 0.9090 0.9110 0.9110
2.525080 0.9110 0.9140 0.9160 0.9160 0.9160
2.559000 0.9140 0.9140 0.9120 0.9120 0.9120
2.593080 0.9110 0.9090 0.9070 0.9060 0.9060
2.627000 0.9070 0.9070 0.9090 0.9120 0.9160
2.661080 0.9180 0.9190 0.9190 0.9210 0.9210
2.695000 0.9210 0.9210 0.9210 0.9210 0.9210
2.729080 0.9190 0.9180 0.9180 0.9180 0.9160
2.763000 0.9140 0.9120 0.9110 0.9090 0.9090
2.797080 0.9090 0.9070 0.9070 0.9060 0.9060
2.831000 0.9040 0.9040 0.9040 0.9040 0.9020
2.865080 0.9010 0.8990 0.8990 0.8990 0.8990
2.899000 0.8990 0.8990 0.8990 0.8990 0.8990
2.933080 0.8990 0.8990 0.8990 0.8970 0.8940
2.967000 0.8900 0.8890 0.8890 0.8850 0.8830
3.001080 0.8820 0.8780 0.8750 0.8730 0.8700
3.036000 0.8680 0.8680 0.8680 0.8660 0.8660
3.070080 0.8660 0.8660 0.8660 0.8680 0.8680
3.104000 0.8700 0.8700 0.8700 0.8700 0.8700
3.138080 0.8700 0.8680 0.8660 0.8630 0.8610
3.172000 0.8560 0.8510 0.8460 0.8410 0.8320
3.206080 0.8070 0.7810 0.7350 0.5920 0.5060
3.240000 0.5060 0.5200 0.5810 0.6720 0.6920
3.274080 0.6920 0.6620 0.5590 0.5270 0.4940
3.308000 0.2230 0.0920 0.0830 0.0880 0.1120
3.342080 0.1800 0.2060 0.2090 0.2010 0.1330
3.376000 0.0730 0.0520 0.0520 0.0590 0.0920
3.410080 0.1070 0.1330 0.1720 0.2230 0.2660
3.444000 0.2960 0.3220 0.3320 0.3360 0.3320
3.478080 0.3220 0.3030 0.3020 0.3020 0.3220
3.512000 0.3750 0.4310 0.4670 0.6480 0.7110
3.546080 0.7520 0.7790 0.7880 0.7930 0.7980
3.581000 0.8020 0.8120 0.8190 0.8240 0.8270
3.615080 0.8310 0.8310 0.8320 0.8340 0.8370
3.649000 0.8410 0.8430 0.8440 0.8460 0.8460
3.683080 0.8460 0.8440 0.8430 0.8410 0.8410
3.717000 0.8390 0.8370 0.8370 0.8390 0.8390
3.751080 0.8430 0.8490 0.8560 0.8610 0.8630
3.785000 0.8660 0.8680 0.8700 0.8700 0.8700
3.819080 0.8700 0.8700 0.8700 0.8680 0.8680
3.853000 0.8700 0.8700 0.8700 0.8700 0.8700
3.887080 0.8700 0.8700 0.8700 0.8680 0.8680
3.921000 0.8680 0.8680 0.8700 0.8720 0.8720
3.955080 0.8730 0.8730 0.8730 0.8720 0.8720
3.989000 0.8720 0.8700 0.8680 0.8680 0.8680
4.023080 0.8680 0.8660 0.8680 0.8680 0.8680
4.057000 0.8680 0.8680 0.8660 0.8660 0.8650
4.091080 0.8650 0.8650 0.8660 0.8650 0.8630
4.126000 0.8630 0.8630 0.8650 0.8650 0.8660
4.160080 0.8680 0.8680 0.8660 0.8650 0.8630
4.194000 0.8650 0.8650 0.8630 0.8610 0.8610
4.228080 0.8610 0.8610 0.8610 0.8630 0.8650
4.262000 0.8680 0.8720 0.8730 0.8780 0.8780
4.296080 0.8780 0.8780 0.8800 0.8800 0.8830
4.330000 0.8890 0.8890 0.8850 0.8820 0.8800
4.364080 0.8800 0.8780 0.8750 0.8750 0.8700
4.398000 0.8630 0.8630 0.8610 0.8610 0.8610
4.432080 0.8600 0.8600 0.8580 0.8580 0.8560
4.466000 0.8560 0.8560 0.8560 0.8560 0.8580
4.500080 0.8580 0.8580 0.8600 0.8580 0.8580
4.534000 0.8580 0.8580 0.8580 0.8580 0.8580
4.568080 0.8580 0.8600 0.8600 0.8600 0.8610
4.602000 0.8630 0.8630 0.8610 0.8610 0.8610
4.636080 0.8610 0.8630 0.8610 0.8610 0.8600
4.671000 0.8600 0.8600 0.8610 0.8610 0.8610
4.705080 0.8610 0.8610 0.8610 0.8610 0.8610
4.739000 0.8610 0.8610 0.8630 0.8650 0.8680
4.773080 0.8680 0.8700 0.8700 0.8680 0.8630
4.807000 0.8610 0.8610 0.8610 0.8610 0.8610
4.841080 0.8610 0.8600 0.8580 0.8580 0.8580
4.875000 0.8580 0.8600 0.8600 0.8630 0.8650
4.909080 0.8630 0.8610 0.8600 0.8600 0.8600
4.943000 0.8610 0.8650 0.8680 0.8680 0.8680
4.977080 0.8650 0.8650 0.8630 0.8660 0.8680
5.011000 0.8680 0.8680 0.8660 0.8650 0.8630
5.045080 0.8610 0.8600 0.8530 0.8510 0.8490
5.079000 0.8480 0.8430 0.8430 0.8430 0.8430
5.113080 0.8430 0.8480 0.8490 0.8490 0.8510
5.147000 0.8530 0.8510 0.8510 0.8510 0.8530
5.181080 0.8540 0.8580 0.8580 0.8540 0.8530
5.216000 0.8530 0.8530 0.8530 0.8530 0.8540
5.250080 0.8540 0.8540 0.8530 0.8530 0.8530
5.284000 0.8510 0.8510 0.8510 0.8510 0.8510
5.318080 0.8510 0.8510 0.8510 0.8510 0.8510
5.352000 0.8490 0.8490 0.8480 0.8480 0.8460
5.386080 0.8440 0.8430 0.8320 0.8270 0.8220
5.420000 0.8190 0.8120 0.8120 0.8100 0.8080
5.454080 0.8030 0.7960 0.7880 0.7790 0.7740
5.488000 0.7730 0.7730 0.7730 0.7730 0.7760
5.522080 0.7830 0.7900 0.8000 0.8100 0.8150
5.556000 0.8200 0.8220 0.8240 0.8270 0.8290
5.590080 0.8290 0.8290 0.8290 0.8290 0.8290
5.624000 0.8290 0.8290 0.8290 0.8290 0.8290
5.658080 0.8290 0.8290 0.8290 0.8250 0.8240
5.692000 0.8220 0.8200 0.8190 0.8190 0.8170
5.726080 0.8150 0.8130 0.8120 0.8120 0.8120
5.761000 0.8130 0.8150 0.8190 0.8190 0.8200
5.795080 0.8220 0.8240 0.8240 0.8250 0.8250
5.829000 0.8290 0.8290 0.8290 0.8290 0.8290
5.863080 0.8290 0.8270 0.8250 0.8240 0.8190
5.897000 0.8170 0.8130 0.8130 0.8130 0.8120
5.931080 0.8100 0.8050 0.8020 0.7980 0.7900
5.965000 0.7880 0.7830 0.7780 0.7730 0.7710
5.999080 0.7620 0.7540 0.7450 0.7370 0.7080
6.033000 0.6500 0.5560 0.4940 0.4310 0.2470
6.067080 0.2450 0.2470 0.3800 0.4530 0.5810
6.101000 0.7010 0.7470 0.7570 0.7610 0.7670
6.135080 0.7690 0.7710 0.7780 0.7790 0.7840
6.169000 0.7880 0.7910 0.7930 0.7950 0.7980
6.203080 0.8020 0.8020 0.8030 0.8030 0.8030
6.237000 0.8030 0.8030 0.8030 0.8020 0.8000
6.271080 0.8000 0.8000 0.7980 0.7960 0.7960
6.306000 0.7950 0.7950 0.7950 0.7960 0.7980
6.340080 0.7980 0.7980 0.7980 0.7980 0.8000
6.374000 0.8000 0.8020 0.8050 0.8080 0.8100
6.408080 0.8120 0.8120 0.8120 0.8130 0.8130
6.442000 0.8130 0.8130 0.8130 0.8130 0.8130
6.476080 0.8130 0.8130 0.8150 0.8130 0.8130
6.510000 0.8100 0.8080 0.8080 0.8070 0.8050
6.544080 0.8020 0.8020 0.8020 0.8000 0.8000
6.578000 0.7980 0.7860 0.7790 0.7780 0.7690
6.612080 0.7550 0.7520 0.7500 0.7470 0.7380
6.646000 0.7300 0.7280 0.7320 0.7330 0.7380
6.680080 0.7400 0.7420 0.7420 0.7420 0.7420
6.714000 0.7420 0.7420 0.7400 0.7380 0.7320
6.748080 0.7230 0.7150 0.7060 0.6960 0.6870
6.782000 0.6740 0.6560 0.6340 0.6050 0.5680
6.816080 0.5350 0.5060 0.4760 0.4110 0.3650
6.851000 0.3440 0.3410 0.3390 0.3320 0.3200
6.885080 0.2960 0.2760 0.2620 0.2540 0.2470
6.919000 0.2350 0.2160 0.1770 0.1740 0.1740
6.953080 0.1750 0.2210 0.2540 0.2760 0.2930
6.987000 0.3030 0.3100 0.3190 0.3310 0.3460
7.021080 0.3560 0.3730 0.4060 0.4360 0.4700
7.055000 0.5400 0.5730 0.6020 0.6240 0.6390
7.089080 0.6460 0.6650 0.6740 0.6800 0.6890
7.123000 0.7010 0.7090 0.7130 0.7210 0.7280
7.157080 0.7300 0.7380 0.7380 0.7420 0.7420
7.191000 0.7440 0.7450 0.7470 0.7490 0.7470
7.225080 0.7440 0.7380 0.7320 0.7250 0.7210
7.259000 0.7180 0.7130 0.7110 0.7110 0.7090
7.293080 0.7060 0.7040 0.7010 0.6990 0.6940
7.327000 0.6890 0.6750 0.6620 0.6550 0.6530
7.361080 0.6510 0.6500 0.6480 0.6430 0.6410
7.396000 0.6310 0.6190 0.6100 0.6090 0.6090
7.430080 0.6090 0.6090 0.6100 0.6170 0.6290
7.464000 0.6460 0.6650 0.6800 0.6910 0.7010
7.498080 0.7080 0.7180 0.7280 0.7380 0.7400
7.532000 0.7490 0.7490 0.7520 0.7570 0.7570
7.566080 0.7540 0.7520 0.7500 0.7400 0.7300
7.600000 0.7200 0.7110 0.7040 0.6990 0.6970
7.634080 0.6920 0.6910 0.6890 0.6800 0.6790
7.668000 0.6790 0.6790 0.6800 0.6870 0.6870
7.702080 0.6860 0.6840 0.6800 0.6790 0.6790
7.736000 0.6800 0.6860 0.6910 0.6960 0.6990
7.770080 0.7010 0.7030 0.7030 0.7030 0.6990
7.804000 0.6990 0.6910 0.6890 0.6890 0.6870
7.838080 0.6820 0.6720 0.6620 0.6500 0.6330
7.873000 0.6140 0.5900 0.5460 0.5230 0.5000
7.907080 0.4690 0.4480 0.4470 0.4500 0.4670
7.941000 0.4960 0.5390 0.5490 0.5490 0.5460
7.975080 0.5420 0.5390 0.5320 0.5300 0.5340
8.009000 0.5640 0.5970 0.6240 0.6410 0.6670
8.043080 0.6790 0.6890 0.6910 0.6970 0.7040
8.077000 0.7090 0.7130 0.7180 0.7180 0.7230
8.111080 0.7230 0.7200 0.7110 0.7010 0.6960
8.145000 0.6800 0.6790 0.6790 0.6800 0.6890
8.179080 0.6990 0.7090 0.7150 0.7250 0.7330
8.213000 0.7380 0.7400 0.7470 0.7520 0.7570
8.247080 0.7610 0.7640 0.7670 0.7670 0.7670
8.281000 0.7670 0.7670 0.7710 0.7730 0.7780
8.315080 0.7780 0.7790 0.7790 0.7790 0.7790
8.349000 0.7790 0.7790 0.7810 0.7810 0.7790
8.383080 0.7780 0.7760 0.7730 0.7670 0.7620
8.418000 0.7570 0.7490 0.7380 0.7250 0.7040
8.452080 0.6890 0.6750 0.6650 0.6560 0.6550
8.486000 0.6580 0.6650 0.6680 0.6680 0.6680
8.520080 0.6700 0.6750 0.6800 0.6870 0.6960
8.554000 0.7040 0.7110 0.7200 0.7280 0.7320
8.588080 0.7330 0.7300 0.7260 0.7230 0.7210
8.622000 0.7210 0.7210 0.7210 0.7210 0.7230
8.656080 0.7250 0.7250 0.7260 0.7280 0.7300
8.690000 0.7370 0.7370 0.7380 0.7420 0.7470
8.724080 0.7490 0.7490 0.7500 0.7540 0.7540
8.758000 0.7500 0.7440 0.7330 0.7280 0.7210
8.792080 0.7160 0.7090 0.7080 0.7080 0.7080
8.826000 0.7080 0.7010 0.6990 0.6920 0.6890
8.860080 0.6860 0.6800 0.6800 0.6820 0.6870
8.894000 0.6910 0.6970 0.7010 0.7080 0.7090
8.928080 0.7110 0.7150 0.7160 0.7130 0.7130
8.963000 0.7110 0.7090 0.7080 0.7080 0.7130
8.997080 0.7210 0.7260 0.7330 0.7420 0.7490
9.031000 0.7520 0.7590 0.7620 0.7640 0.7640
9.065080 0.7640 0.7620 0.7620 0.7620 0.7620
9.099000 0.7620 0.7610 0.7610 0.7590 0.7590
9.133080 0.7570 0.7570 0.7550 0.7540 0.7500
9.167000 0.7400 0.7330 0.7260 0.7210 0.7130
9.201080 0.7080 0.6990 0.6970 0.6970 0.6970
9.235000 0.7010 0.7090 0.7110 0.7200 0.7210
9.269080 0.7280 0.7330 0.7380 0.7400 0.7440
9.303000 0.7490 0.7490 0.7520 0.7550 0.7590
9.337080 0.7590 0.7590 0.7590 0.7590 0.7550
9.371000 0.7550 0.7540 0.7540 0.7520 0.7500
9.405080 0.7470 0.7400 0.7320 0.7210 0.7130
9.439000 0.7030 0.6990 0.6890 0.6800 0.6740
9.473080 0.6650 0.6600 0.6530 0.6510 0.6510
9.508000 0.6580 0.6600 0.6580 0.6580 0.6510
9.542080 0.6510 0.6480 0.6390 0.6390 0.6360
9.576000 0.6340 0.6330 0.6330 0.6330 0.6330
9.610080 0.6340 0.6360 0.6390 0.6450 0.6500
9.644000 0.6500 0.6530 0.6550 0.6580 0.6580
9.678080 0.6600 0.6600 0.6600 0.6580 0.6530
9.712000 0.6530 0.6510 0.6500 0.6480 0.6450
9.746080 0.6410 0.6390 0.6330 0.6290 0.6210
9.780000 0.6140 0.6040 0.5930 0.5870 0.5760
9.814080 0.5710 0.5640 0.5560 0.5510 0.5460
9.848000 0.5420 0.5400 0.5340 0.5300 0.5250
9.882080 0.5200 0.5110 0.5060 0.5000 0.4860
9.916000 0.4700 0.4520 0.4280 0.4110 0.3900
9.950080 0.3720 0.3510 0.3310 0.3070 0.2910
9.984000 0.2690 0.2400 0.2110 0.1910 0.1600
10.018080 0.1390 0.1210 0.1070 0.0980 0.0930
10.053000 0.0930 0.0930 0.1000 0.1140 0.1270
10.087080 0.1480 0.1650 0.1750 0.2130 0.2300
10.121000 0.2490 0.2620 0.2790 0.2930 0.3050
10.155080 0.3150 0.3270 0.3340 0.3430 0.3510
10.189000 0.3530 0.3530 0.3490 0.3430 0.3390
10.223080 0.3320 0.3250 0.3240 0.3220 0.3220
10.257000 0.3270 0.3390 0.3490 0.3510 0.3600
10.291080 0.3610 0.3630 0.3630 0.3600 0.3600
10.325000 0.3580 0.3600 0.3660 0.3780 0.3970
10.359080 0.4190 0.4410 0.4570 0.4720 0.4860
10.393000 0.5220 0.5340 0.5440 0.5490 0.5490
10.427080 0.5510 0.5510 0.5510 0.5510 0.5490
10.461000 0.5470 0.5400 0.5340 0.5270 0.5250
10.495080 0.5270 0.5290 0.5320 0.5390 0.5440
10.529000 0.5490 0.5540 0.5630 0.5710 0.5780
10.563080 0.5830 0.5880 0.5920 0.5950 0.5950
10.598000 0.5950 0.5930 0.5920 0.5900 0.5850
10.632080 0.5800 0.5730 0.5630 0.5520 0.5490
10.666000 0.5350 0.5230 0.5010 0.4960 0.4890
10.700080 0.4640 0.4470 0.4240 0.4020 0.3770
10.734000 0.3390 0.3080 0.2830 0.2610 0.2420
10.768080 0.2250 0.2110 0.1960 0.1800 0.1700
10.802000 0.1620 0.1550 0.1510 0.1430 0.1390
10.836080 0.1340 0.1310 0.1290 0.1220 0.1190
10.870000 0.1140 0.1070 0.1000 0.0930 0.0870
10.904080 0.0850 0.0830 0.0810 0.0800 0.0750
10.938000 0.0710 0.0640 0.0610 0.0580 0.0560
10.972080 0.0540 0.0540 0.0560 0.0630 0.0640
11.006000 0.0660 0.0680 0.0690 0.0750 0.0800
11.040080 0.0850 0.0920 0.0980 0.1040 0.1120
11.074000 0.1240 0.1330 0.1410 0.1480 0.1560
11.108080 0.1630 0.1700 0.1790 0.1890 0.2030
11.143000 0.2180 0.2370 0.2570 0.2790 0.3050
11.177080 0.3360 0.3560 0.3900 0.4230 0.4530
11.211000 0.4690 0.4890 0.5250 0.5400 0.5540
11.245080 0.5660 0.5800 0.5850 0.5970 0.6020
11.279000 0.6100 0.6140 0.6210 0.6240 0.6290
11.313080 0.6330 0.6360 0.6390 0.6430 0.6430
11.347000 0.6480 0.6480 0.6500 0.6500 0.6500
11.381080 0.6450 0.6360 0.6260 0.6160 0.6050
11.415000 0.6020 0.5980 0.5900 0.5750 0.5580
11.449080 0.5350 0.5100 0.4980 0.4840 0.4590
11.483000 0.4310 0.4070 0.4040 0.4020 0.4020
11.517080 0.4060 0.4180 0.4410 0.4570 0.4760
11.551000 0.4910 0.5170 0.5340 0.5460 0.5470
11.585080 0.5610 0.5690 0.5750 0.5760 0.5780
11.619000 0.5780 0.5800 0.5800 0.5780 0.5730
11.653080 0.5630 0.5540 0.5420 0.5250 0.5050
11.688000 0.5010 0.4960 0.4720 0.4500 0.4280
11.722080 0.4090 0.3920 0.3700 0.3560 0.3410
11.756000 0.3320 0.3270 0.3250 0.3290 0.3390
11.790080 0.3630 0.3820 0.4110 0.4410 0.4550
11.824000 0.4810 0.5300 0.5510 0.5680 0.5830
11.858080 0.5950 0.6070 0.6160 0.6220 0.6360
11.892000 0.6410 0.6510 0.6620 0.6630 0.6680
11.926080 0.6700 0.6750 0.6770 0.6800 0.6800
11.960000 0.6820 0.6870 0.6890 0.6910 0.6940
11.994080 0.6940 0.6940 0.6940 0.6940 0.6920
12.028000 0.6920 0.6920 0.6910 0.6910 0.6890
12.062080 0.6890 0.6870 0.6870 0.6840 0.6820
12.096000 0.6820 0.6800 0.6790 0.6790 0.6720
12.130080 0.6650 0.6600 0.6580 0.6530 0.6480
12.164000 0.6430 0.6390 0.6360 0.6290 0.6170
12.198080 0.6020 0.5850 0.5680 0.5490 0.5320
12.233000 0.5150 0.5050 0.4940 0.4740 0.4360
12.267080 0.4110 0.3780 0.3560 0.3250 0.2930
12.301000 0.2710 0.2520 0.2370 0.2230 0.2150
12.335080 0.2060 0.2030 0.2010 0.1990 0.1990
12.369000 0.1990 0.2010 0.2110 0.2230 0.2370
12.403080 0.2570 0.2710 0.2840 0.2960 0.3100
12.437000 0.3250 0.3410 0.3560 0.3630 0.3680
12.471080 0.3720 0.3750 0.3750 0.3700 0.3560
12.505000 0.3440 0.3250 0.3100 0.2910 0.2670
12.539080 0.2490 0.2260 0.2040 0.1860 0.1670
12.573000 0.1480 0.1330 0.1190 0.1070 0.0950
12.607080 0.0870 0.0800 0.0760 0.0730 0.0730
12.641000 0.0730 0.0760 0.0810 0.0880 0.1040
12.675080 0.1270 0.1580 0.1920 0.2300 0.2660
12.709000 0.3000 0.3310 0.3560 0.3890 0.4110
12.743080 0.4350 0.4570 0.4740 0.4860 0.4960
12.778000 0.5060 0.5110 0.5150 0.5180 0.5180
12.812080 0.5180 0.5180 0.5200 0.5200 0.5220
12.846000 0.5300 0.5370 0.5470 0.5560 0.5680
12.880080 0.5800 0.5930 0.5980 0.6090 0.6120
12.914000 0.6210 0.6260 0.6360 0.6410 0.6450
12.948080 0.6500 0.6510 0.6510 0.6530 0.6550
12.982000 0.6560 0.6580 0.6580 0.6580 0.6580
13.016080 0.6580 0.6580 0.6560 0.6550 0.6530
13.050000 0.6510 0.6510 0.6510 0.6510 0.6510
13.084080 0.6510 0.6510 0.6510 0.6510 0.6510
13.118000 0.6530 0.6550 0.6580 0.6580 0.6580
13.152080 0.6560 0.6550 0.6530 0.6510 0.6500
13.186000 0.6460 0.6430 0.6340 0.6260 0.6170
13.220080 0.6120 0.6050 0.5980 0.5900 0.5800
13.255000 0.5680 0.5540 0.5440 0.5250 0.5060
13.289080 0.5010 0.4960 0.4810 0.4690 0.4570
13.323000 0.4450 0.4350 0.4190 0.4110 0.4010
13.357080 0.3920 0.3890 0.3890 0.3890 0.3920
13.391000 0.4060 0.4140 0.4260 0.4360 0.4480
13.425080 0.4590 0.4720 0.4860 0.5000 0.5270
13.459000 0.5440 0.5540 0.5690 0.5750 0.5930
13.493080 0.6020 0.6120 0.6240 0.6340 0.6410
13.527000 0.6480 0.6550 0.6600 0.6630 0.6680
13.561080 0.6720 0.6770 0.6790 0.6820 0.6870
13.595000 0.6970 0.7040 0.7060 0.7080 0.7090
13.629080 0.7130 0.7180 0.7200 0.7210 0.7250
13.663000 0.7260 0.7280 0.7280 0.7300 0.7320
13.697080 0.7330 0.7380 0.7400 0.7420 0.7440
13.731000 0.7450 0.7470 0.7490 0.7490 0.7490
13.765080 0.7490 0.7490 0.7490 0.7490 0.7490
13.800000 0.7490 0.7490 0.7500 0.7520 0.7550
13.834080 0.7550 0.7550 0.7540 0.7540 0.7540
13.868000 0.7550 0.7550 0.7550 0.7540 0.7540
13.902080 0.7540 0.7540 0.7520 0.7520 0.7520
13.936000 0.7520 0.7520 0.7520 0.7520 0.7540
13.970080 0.7540 0.7540 0.7540 0.7540 0.7540
14.004000 0.7550 0.7570 0.7570 0.7570 0.7570
14.038080 0.7570 0.7570 0.7570 0.7570 0.7570
14.072000 0.7570 0.7570 0.7570 0.7570 0.7570
14.106080 0.7550 0.7550 0.7550 0.7540 0.7520
14.140000 0.7540 0.7520 0.7520 0.7500 0.7490
14.174080 0.7490 0.7490 0.7490 0.7470 0.7470
14.208000 0.7490 0.7490 0.7490 0.7490 0.7490
14.242080 0.7470 0.7470 0.7450 0.7420 0.7420
14.276000 0.7400 0.7400 0.7380 0.7380 0.7350
14.310080 0.7350 0.7330 0.7330 0.7320 0.7300
14.345000 0.7300 0.7300 0.7300 0.7300 0.7300
14.379080 0.7300 0.7300 0.7330 0.7370 0.7370
14.413000 0.7370 0.7380 0.7380 0.7400 0.7400
14.447080 0.7420 0.7400 0.7400 0.7400 0.7400
14.481000 0.7400 0.7400 0.7420 0.7420 0.7400
14.515080 0.7400 0.7400 0.7400 0.7380 0.7380
14.549000 0.7380 0.7380 0.7370 0.7370 0.7350
14.583080 0.7350 0.7350 0.7350 0.7330 0.7330
14.617000 0.7330 0.7330 0.7330 0.7320 0.7320
14.651080 0.7300 0.7300 0.7280 0.7260 0.7230
14.685000 0.7200 0.7200 0.7180 0.7160 0.7160
14.719080 0.7150 0.7130 0.7090 0.7080 0.7080
14.753000 0.7080 0.7060 0.7040 0.7030 0.7010
14.787080 0.6990 0.6960 0.6910 0.6870 0.6870
14.821000 0.6860 0.6820 0.6800 0.6770 0.6740
14.855080 0.6700 0.6680 0.6670 0.6630 0.6600
14.890000 0.6560 0.6510 0.6480 0.6480 0.6460
14.924080 0.6430 0.6410 0.6380 0.6330 0.6290
14.958000 0.6270 0.6260 0.6240 0.6240 0.6220
14.992080 0.6210 0.6190 0.6170 0.6160 0.6120
15.026000 0.6090 0.6040 0.6040 0.6000 0.6000
15.060080 0.5980 0.5970 0.5950 0.5920 0.5920
15.094000 0.5870 0.5810 0.5780 0.5730 0.5680
15.128080 0.5630 0.5580 0.5520 0.5510 0.5490
15.162000 0.5470 0.5470 0.5470 0.5460 0.5440
15.196080 0.5400 0.5400 0.5400 0.5400 0.5420
15.230000 0.5420 0.5420 0.5420 0.5420 0.5420
15.264080 0.5420 0.5420 0.5420 0.5440 0.5470
15.298000 0.5510 0.5520 0.5540 0.5560 0.5580
15.332080 0.5580 0.5610 0.5630 0.5640 0.5640
15.366000 0.5690 0.5690 0.5690 0.5690 0.5690
15.400080 0.5710 0.5750 0.5760 0.5810 0.5850
15.435000 0.5880 0.5900 0.5920 0.5950 0.5980
15.469080 0.5980 0.6000 0.6020 0.6070 0.6090
15.503000 0.6100 0.6120 0.6140 0.6160 0.6170
15.537080 0.6190 0.6190 0.6190 0.6210 0.6220
15.571000 0.6240 0.6270 0.6270 0.6270 0.6290
15.605080 0.6290 0.6290 0.6290 0.6290 0.6310
15.639000 0.6310 0.6330 0.6340 0.6340 0.6360
15.673080 0.6380 0.6380 0.6390 0.6410 0.6410
15.707000 0.6410 0.6410 0.6430 0.6460 0.6480
15.741080 0.6500 0.6500 0.6500 0.6500 0.6510
15.775000 0.6530 0.6530 0.6530 0.6530 0.6530
15.809080 0.6550 0.6550 0.6550 0.6550 0.6550
15.843000 0.6560 0.6560 0.6580 0.6580 0.6580
15.877080 0.6600 0.6620 0.6620 0.6620 0.6630
15.911000 0.6630 0.6630 0.6650 0.6650 0.6670
15.945080 0.6680 0.6720 0.6720 0.6720 0.6720
15.980000 0.6740 0.6740 0.6750 0.6750 0.6750
16.014080 0.6750
##END=
