##TITLE=SUCCINIC ACID, DIAMMONIUM SALT
##JCAMP-DX=4.24
##DATA TYPE=INFRARED SPECTRUM
##CLASS=COBLENTZ III
##ORIGIN=DOW CHEMICAL COMPANY
##OWNER=COBLENTZ SOC.
Collection (C) 2018 copyright by the U.S. Secretary of Commerce
on behalf of the United States of America. All rights reserved.
##DATE=1964/08/25
##MOLFORM=C4 H12 N2 O4
##SOURCE REFERENCE=COBLENTZ NO. 07031
##$NIST ID=B6007031
##$NIST SOURCE=COBLENTZ
##$NIST IMAGE=cob7031
##SPECTROMETER/DATA SYSTEM=DOW KBr FOREPRISM-GRATING
##INSTRUMENT PARAMETERS=BLAZED AT 3.5, 12.0, 20.0 MICRON AND CHANGED AT 5.0, 7.5, 14.9 MICRON
##STATE=SOLID (SPLIT MULL), FLUOROLUBE FOR 3800-1330 CM^-^1, NUJOL FOR 1330-450 CM^-^1
##SAMPLING PROCEDURE=TRANSMISSION
##RESOLUTION=2
##DATA PROCESSING=DIGITIZED BY COBLENTZ SOCIETY (BATCH I) FROM HARD COPY
##XUNITS=1/CM
##YUNITS=TRANSMITTANCE
##XLABEL=Wavenumbers (cm-1)
##YLABEL=% Transmission
##XFACTOR=1
##YFACTOR=1
##DELTAX=1
##FIRSTX=457
##LASTX=3800
##FIRSTY=0.7353
##MAXX=3800
##MINX=457
##MAXY=0.8799
##MINY=0.0615
##NPOINTS=3344
##XYDATA=(X++(Y..Y))
457.000000 0.7353 0.7357 0.7357 0.7357 0.7357
462.000000 0.7357 0.7354 0.7351 0.7348 0.7345
467.000000 0.7343 0.7341 0.7339 0.7337 0.7336
472.000000 0.7334 0.7332 0.7331 0.7331 0.7331
477.000000 0.7333 0.7336 0.7338 0.7341 0.7344
482.000000 0.7355 0.7367 0.7378 0.7397 0.7415
487.000000 0.7432 0.7447 0.7461 0.7475 0.7491
492.000000 0.7505 0.7518 0.7530 0.7543 0.7556
497.000000 0.7568 0.7581 0.7593 0.7604 0.7611
502.000000 0.7617 0.7619 0.7619 0.7619 0.7619
507.000000 0.7621 0.7621 0.7622 0.7624 0.7625
512.000000 0.7626 0.7628 0.7631 0.7637 0.7646
517.000000 0.7655 0.7668 0.7682 0.7697 0.7715
522.000000 0.7735 0.7753 0.7775 0.7800 0.7825
527.000000 0.7850 0.7882 0.7917 0.7951 0.7985
532.000000 0.8000 0.8000 0.8000 0.8000 0.8000
537.000000 0.7999 0.7997 0.7996 0.7995 0.7993
542.000000 0.7989 0.7984 0.7975 0.7965 0.7949
547.000000 0.7930 0.7903 0.7868 0.7828 0.7785
552.000000 0.7731 0.7614 0.7405 0.7197 0.6989
557.000000 0.6780 0.6571 0.6542 0.6526 0.6893
562.000000 0.7084 0.7275 0.7465 0.7657 0.7710
567.000000 0.7715 0.7719 0.7668 0.7728 0.7488
572.000000 0.7397 0.7307 0.7215 0.7141 0.7160
577.000000 0.7311 0.7500 0.7690 0.7878 0.7965
582.000000 0.8115 0.8234 0.8328 0.8415 0.8452
587.000000 0.8483 0.8514 0.8534 0.8554 0.8570
592.000000 0.8583 0.8596 0.8609 0.8618 0.8627
597.000000 0.8636 0.8644 0.8652 0.8660 0.8665
602.000000 0.8671 0.8677 0.8682 0.8687 0.8687
607.000000 0.8688 0.8688 0.8689 0.8690 0.8690
612.000000 0.8691 0.8691 0.8691 0.8691 0.8691
617.000000 0.8691 0.8691 0.8691 0.8691 0.8691
622.000000 0.8691 0.8691 0.8691 0.8687 0.8684
627.000000 0.8681 0.8678 0.8671 0.8666 0.8660
632.000000 0.8654 0.8647 0.8639 0.8630 0.8621
637.000000 0.8612 0.8600 0.8588 0.8575 0.8556
642.000000 0.8534 0.8513 0.8491 0.8456 0.8412
647.000000 0.8364 0.8316 0.8267 0.8209 0.8151
652.000000 0.8094 0.8026 0.7945 0.7862 0.7747
657.000000 0.7611 0.7390 0.7130 0.6886 0.6732
662.000000 0.6578 0.5788 0.5166 0.4544 0.3922
667.000000 0.3300 0.2679 0.2319 0.2320 0.2344
672.000000 0.3223 0.3900 0.4580 0.5258 0.5937
677.000000 0.6345 0.6617 0.6962 0.7332 0.7495
682.000000 0.7646 0.7765 0.7884 0.7947 0.8008
687.000000 0.8069 0.8118 0.8161 0.8199 0.8221
692.000000 0.8244 0.8267 0.8289 0.8308 0.8323
697.000000 0.8338 0.8353 0.8368 0.8384 0.8399
702.000000 0.8410 0.8418 0.8428 0.8437 0.8440
707.000000 0.8442 0.8445 0.8489 0.8443 0.8436
712.000000 0.8427 0.8407 0.8387 0.8363 0.8328
717.000000 0.8294 0.8257 0.8218 0.8178 0.8133
722.000000 0.8086 0.8039 0.8014 0.8022 0.8018
727.000000 0.8080 0.8121 0.8164 0.8206 0.8246
732.000000 0.8283 0.8314 0.8336 0.8358 0.8374
737.000000 0.8387 0.8401 0.8414 0.8427 0.8441
742.000000 0.8453 0.8465 0.8477 0.8486 0.8494
747.000000 0.8502 0.8509 0.8517 0.8524 0.8532
752.000000 0.8539 0.8543 0.8547 0.8551 0.8555
757.000000 0.8559 0.8563 0.8566 0.8568 0.8570
762.000000 0.8573 0.8575 0.8577 0.8578 0.8578
767.000000 0.8578 0.8578 0.8577 0.8577 0.8575
772.000000 0.8575 0.8574 0.8571 0.8568 0.8567
777.000000 0.8564 0.8562 0.8559 0.8556 0.8553
782.000000 0.8549 0.8545 0.8542 0.8538 0.8534
787.000000 0.8531 0.8527 0.8523 0.8518 0.8510
792.000000 0.8498 0.8481 0.8461 0.8435 0.8401
797.000000 0.8367 0.8318 0.8255 0.8178 0.8094
802.000000 0.7971 0.7838 0.7708 0.7494 0.7182
807.000000 0.6595 0.6008 0.5421 0.5127 0.5140
812.000000 0.5482 0.6417 0.7351 0.7635 0.7798
817.000000 0.7939 0.8018 0.8093 0.8165 0.8218
822.000000 0.8271 0.8324 0.8367 0.8409 0.8444
827.000000 0.8460 0.8477 0.8494 0.8509 0.8515
832.000000 0.8521 0.8527 0.8531 0.8533 0.8536
837.000000 0.8538 0.8540 0.8542 0.8542 0.8542
842.000000 0.8542 0.8542 0.8544 0.8546 0.8547
847.000000 0.8549 0.8551 0.8552 0.8556 0.8561
852.000000 0.8565 0.8570 0.8575 0.8582 0.8589
857.000000 0.8596 0.8604 0.8611 0.8618 0.8625
862.000000 0.8628 0.8630 0.8631 0.8653 0.8634
867.000000 0.8634 0.8633 0.8631 0.8630 0.8628
872.000000 0.8628 0.8621 0.8616 0.8611 0.8605
877.000000 0.8599 0.8594 0.8587 0.8581 0.8575
882.000000 0.8568 0.8562 0.8556 0.8550 0.8545
887.000000 0.8539 0.8533 0.8527 0.8521 0.8517
892.000000 0.8512 0.8508 0.8503 0.8499 0.8494
897.000000 0.8492 0.8490 0.8489 0.8487 0.8486
902.000000 0.8485 0.8483 0.8481 0.8470 0.8459
907.000000 0.8448 0.8436 0.8421 0.8405 0.8390
912.000000 0.8374 0.8355 0.8332 0.8310 0.8288
917.000000 0.8236 0.8168 0.8107 0.8046 0.7964
922.000000 0.7871 0.7778 0.7254 0.6705 0.6156
927.000000 0.6142 0.6144 0.6147 0.6119 0.7384
932.000000 0.7999 0.8139 0.8232 0.8292 0.8334
937.000000 0.8377 0.8415 0.8446 0.8477 0.8498
942.000000 0.8506 0.8520 0.8518 0.8520 0.8520
947.000000 0.8517 0.8512 0.8506 0.8501 0.8496
952.000000 0.8491 0.8488 0.8484 0.8481 0.8478
957.000000 0.8474 0.8470 0.8466 0.8462 0.8458
962.000000 0.8454 0.8451 0.8448 0.8444 0.8441
967.000000 0.8437 0.8431 0.8425 0.8418 0.8412
972.000000 0.8405 0.8402 0.8399 0.8397 0.8396
977.000000 0.8396 0.8396 0.8397 0.8397 0.8397
982.000000 0.8397 0.8398 0.8399 0.8401 0.8402
987.000000 0.8404 0.8405 0.8406 0.8408 0.8408
992.000000 0.8409 0.8409 0.8409 0.8410 0.8410
997.000000 0.8410 0.8410 0.8411 0.8411 0.8411
1002.000000 0.8412 0.8412 0.8412 0.8412 0.8412
1007.000000 0.8412 0.8412 0.8412 0.8412 0.8412
1012.000000 0.8412 0.8411 0.8411 0.8410 0.8409
1017.000000 0.8408 0.8408 0.8407 0.8406 0.8405
1022.000000 0.8404 0.8404 0.8403 0.8402 0.8401
1027.000000 0.8399 0.8398 0.8396 0.8395 0.8393
1032.000000 0.8392 0.8390 0.8389 0.8387 0.8384
1037.000000 0.8382 0.8378 0.8377 0.8374 0.8371
1042.000000 0.8368 0.8367 0.8364 0.8362 0.8359
1047.000000 0.8356 0.8352 0.8348 0.8345 0.8341
1052.000000 0.8337 0.8333 0.8330 0.8325 0.8321
1057.000000 0.8318 0.8314 0.8311 0.8307 0.8303
1062.000000 0.8299 0.8295 0.8291 0.8287 0.8283
1067.000000 0.8278 0.8275 0.8271 0.8267 0.8263
1072.000000 0.8256 0.8245 0.8235 0.8224 0.8217
1077.000000 0.8217 0.8217 0.8225 0.8233 0.8241
1082.000000 0.8249 0.8256 0.8262 0.8268 0.8274
1087.000000 0.8281 0.8289 0.8298 0.8307 0.8316
1092.000000 0.8321 0.8325 0.8331 0.8336 0.8340
1097.000000 0.8345 0.8350 0.8354 0.8357 0.8361
1102.000000 0.8364 0.8367 0.8368 0.8371 0.8374
1107.000000 0.8377 0.8378 0.8382 0.8384 0.8385
1112.000000 0.8386 0.8387 0.8388 0.8390 0.8391
1117.000000 0.8392 0.8394 0.8395 0.8397 0.8398
1122.000000 0.8400 0.8401 0.8401 0.8385 0.8360
1127.000000 0.8340 0.8330 0.8323 0.8325 0.8343
1132.000000 0.8334 0.8324 0.8302 0.8278 0.8260
1137.000000 0.8242 0.8224 0.8211 0.8202 0.8194
1142.000000 0.8197 0.8206 0.8217 0.8221 0.8225
1147.000000 0.8224 0.8216 0.8199 0.8171 0.8140
1152.000000 0.8101 0.8060 0.7998 0.7943 0.7908
1157.000000 0.7901 0.7901 0.7911 0.7965 0.8008
1162.000000 0.8053 0.8092 0.8121 0.8128 0.8132
1167.000000 0.8132 0.8132 0.8132 0.8130 0.8128
1172.000000 0.8126 0.8122 0.8118 0.8111 0.8084
1177.000000 0.8038 0.7999 0.7987 0.7986 0.7985
1182.000000 0.7996 0.8047 0.8084 0.8092 0.8092
1187.000000 0.8090 0.8085 0.8081 0.8074 0.8067
1192.000000 0.8060 0.8049 0.8039 0.8024 0.8008
1197.000000 0.7989 0.7968 0.7948 0.7926 0.7900
1202.000000 0.7872 0.7847 0.7815 0.7775 0.7735
1207.000000 0.7696 0.7656 0.7615 0.7576 0.7508
1212.000000 0.7438 0.7319 0.7198 0.7078 0.6784
1217.000000 0.6032 0.5393 0.4754 0.4115 0.3476
1222.000000 0.2837 0.2198 0.1795 0.1807 0.2322
1227.000000 0.3308 0.4293 0.5279 0.6265 0.7250
1232.000000 0.7906 0.8003 0.8053 0.8082 0.8100
1237.000000 0.8118 0.8135 0.8144 0.8153 0.8190
1242.000000 0.8164 0.8162 0.8161 0.8156 0.8146
1247.000000 0.8128 0.8112 0.8097 0.8081 0.8065
1252.000000 0.8051 0.8036 0.8021 0.8011 0.8001
1257.000000 0.7992 0.7982 0.7971 0.7962 0.7953
1262.000000 0.7944 0.7934 0.7924 0.7915 0.7903
1267.000000 0.7890 0.7876 0.7865 0.7851 0.7839
1272.000000 0.7825 0.7811 0.7798 0.7783 0.7768
1277.000000 0.7754 0.7739 0.7719 0.7700 0.7681
1282.000000 0.7661 0.7642 0.7621 0.7601 0.7582
1287.000000 0.7561 0.7541 0.7521 0.7500 0.7480
1292.000000 0.7460 0.7440 0.7418 0.7399 0.7376
1297.000000 0.7356 0.7335 0.7312 0.7292 0.7271
1302.000000 0.7249 0.7225 0.7200 0.7175 0.7151
1307.000000 0.7126 0.7101 0.7071 0.7042 0.7012
1312.000000 0.6983 0.6954 0.6924 0.6895 0.6865
1317.000000 0.6836 0.6807 0.6776 0.6748 0.6718
1322.000000 0.6689 0.6660 0.6628 0.6599 0.6568
1327.000000 0.6539 0.6508 0.6475 0.6438 0.6400
1332.000000 0.6362 0.6325 0.6287 0.2632 0.2604
1337.000000 0.2573 0.2542 0.2511 0.2485 0.2462
1342.000000 0.2437 0.2407 0.2374 0.2342 0.2312
1347.000000 0.2281 0.2250 0.2219 0.2187 0.2156
1352.000000 0.2124 0.2093 0.2061 0.2029 0.1998
1357.000000 0.1966 0.1934 0.1902 0.1869 0.1831
1362.000000 0.1793 0.1754 0.1712 0.1668 0.1625
1367.000000 0.1581 0.1537 0.1492 0.1448 0.1403
1372.000000 0.1357 0.1306 0.1256 0.1205 0.1154
1377.000000 0.1102 0.1050 0.0996 0.0945 0.0892
1382.000000 0.0846 0.0801 0.0756 0.0710 0.0615
1387.000000 0.0619 0.0622 0.0627 0.0633 0.0640
1392.000000 0.0649 0.0657 0.0665 0.0674 0.0682
1397.000000 0.0695 0.0707 0.0719 0.0732 0.0744
1402.000000 0.0756 0.0769 0.0781 0.0793 0.0805
1407.000000 0.0819 0.0834 0.0849 0.0864 0.0889
1412.000000 0.0916 0.0965 0.1067 0.1169 0.1299
1417.000000 0.1377 0.1381 0.1322 0.1255 0.1188
1422.000000 0.1146 0.1145 0.1149 0.1450 0.1753
1427.000000 0.1120 0.2360 0.2664 0.2967 0.3271
1432.000000 0.3516 0.3655 0.3754 0.3828 0.3859
1437.000000 0.3859 0.3860 0.3850 0.3889 0.3790
1442.000000 0.3738 0.3689 0.3618 0.3539 0.3468
1447.000000 0.3409 0.3360 0.3312 0.3262 0.3214
1452.000000 0.3139 0.3054 0.2969 0.2878 0.2772
1457.000000 0.2664 0.2549 0.2434 0.2327 0.2227
1462.000000 0.2142 0.2051 0.1951 0.1887 0.1833
1467.000000 0.1779 0.1746 0.1731 0.1731 0.1717
1472.000000 0.1744 0.1762 0.1782 0.1812 0.1854
1477.000000 0.1908 0.1984 0.2079 0.2131 0.2183
1482.000000 0.2235 0.2288 0.2341 0.2387 0.2432
1487.000000 0.2477 0.2523 0.2575 0.2661 0.2742
1492.000000 0.2783 0.2824 0.2860 0.2882 0.2884
1497.000000 0.2884 0.2880 0.2876 0.2873 0.2869
1502.000000 0.2891 0.2857 0.2834 0.2797 0.2752
1507.000000 0.2714 0.2662 0.2613 0.2574 0.2535
1512.000000 0.2498 0.2459 0.2421 0.2379 0.2332
1517.000000 0.2284 0.2237 0.2185 0.2134 0.2084
1522.000000 0.2033 0.1985 0.1939 0.1893 0.1846
1527.000000 0.1801 0.1754 0.1699 0.1642 0.1585
1532.000000 0.1518 0.1452 0.1388 0.1333 0.1278
1537.000000 0.1223 0.1166 0.1109 0.1058 0.1022
1542.000000 0.0986 0.0950 0.0930 0.0912 0.0904
1547.000000 0.0896 0.0889 0.0882 0.0875 0.0867
1552.000000 0.0858 0.0849 0.0839 0.0830 0.0821
1557.000000 0.0813 0.0805 0.0798 0.0790 0.0783
1562.000000 0.0778 0.0775 0.0772 0.0769 0.0766
1567.000000 0.0766 0.0767 0.0768 0.0774 0.0787
1572.000000 0.0747 0.0845 0.0882 0.0921 0.0974
1577.000000 0.1015 0.1046 0.1078 0.1107 0.1134
1582.000000 0.1162 0.1189 0.1216 0.1281 0.1319
1587.000000 0.1358 0.1396 0.1436 0.1475 0.1530
1592.000000 0.1596 0.1684 0.1772 0.1894 0.2034
1597.000000 0.2180 0.2328 0.2452 0.2575 0.2689
1602.000000 0.2798 0.2908 0.3013 0.3116 0.3218
1607.000000 0.3324 0.3439 0.3553 0.3690 0.3856
1612.000000 0.3971 0.4059 0.4149 0.4225 0.4299
1617.000000 0.4372 0.4446 0.4529 0.4617 0.4705
1622.000000 0.4789 0.4871 0.4954 0.5050 0.5146
1627.000000 0.5233 0.5310 0.5376 0.5443 0.5488
1632.000000 0.5526 0.5564 0.5602 0.5643 0.5684
1637.000000 0.5736 0.5801 0.5866 0.5932 0.5998
1642.000000 0.6056 0.6112 0.6169 0.6223 0.6266
1647.000000 0.6310 0.6353 0.6389 0.6418 0.6448
1652.000000 0.6476 0.6506 0.6535 0.6564 0.6588
1657.000000 0.6608 0.6628 0.6650 0.6671 0.6691
1662.000000 0.6706 0.6721 0.6737 0.6753 0.6768
1667.000000 0.6784 0.6799 0.6815 0.6833 0.6849
1672.000000 0.6865 0.6883 0.6897 0.6903 0.6908
1677.000000 0.6915 0.6921 0.6928 0.6926 0.6950
1682.000000 0.6925 0.6918 0.6910 0.6897 0.6875
1687.000000 0.6848 0.6811 0.6765 0.6718 0.6669
1692.000000 0.6621 0.6569 0.6515 0.6457 0.6375
1697.000000 0.6269 0.6122 0.5797 0.5441 0.5199
1702.000000 0.5181 0.5177 0.5201 0.5516 0.5715
1707.000000 0.5915 0.6114 0.6312 0.6511 0.6708
1712.000000 0.6815 0.6938 0.6986 0.6998 0.6994
1717.000000 0.6996 0.6958 0.6825 0.6745 0.6744
1722.000000 0.6745 0.6745 0.6747 0.6739 0.6751
1727.000000 0.6754 0.6768 0.6836 0.6986 0.7101
1732.000000 0.7211 0.7315 0.7391 0.7461 0.7499
1737.000000 0.7528 0.7550 0.7571 0.7587 0.7603
1742.000000 0.7617 0.7631 0.7644 0.7653 0.7662
1747.000000 0.7671 0.7682 0.7690 0.7696 0.7701
1752.000000 0.7707 0.7711 0.7715 0.7719 0.7722
1757.000000 0.7725 0.7740 0.7730 0.7730 0.7731
1762.000000 0.7731 0.7732 0.7732 0.7732 0.7730
1767.000000 0.7728 0.7725 0.7724 0.7721 0.7718
1772.000000 0.7715 0.7711 0.7708 0.7705 0.7699
1777.000000 0.7692 0.7685 0.7678 0.7671 0.7664
1782.000000 0.7657 0.7650 0.7644 0.7638 0.7633
1787.000000 0.7628 0.7621 0.7617 0.7611 0.7606
1792.000000 0.7601 0.7595 0.7590 0.7584 0.7578
1797.000000 0.7572 0.7568 0.7561 0.7557 0.7551
1802.000000 0.7546 0.7539 0.7533 0.7525 0.7519
1807.000000 0.7512 0.7506 0.7500 0.7493 0.7487
1812.000000 0.7480 0.7474 0.7467 0.7460 0.7454
1817.000000 0.7447 0.7441 0.7432 0.7422 0.7412
1822.000000 0.7403 0.7393 0.7383 0.7372 0.7362
1827.000000 0.7354 0.7344 0.7334 0.7324 0.7314
1832.000000 0.7304 0.7293 0.7283 0.7272 0.7262
1837.000000 0.7253 0.7242 0.7232 0.7221 0.7211
1842.000000 0.7203 0.7193 0.7183 0.7174 0.7164
1847.000000 0.7155 0.7145 0.7136 0.7125 0.7115
1852.000000 0.7103 0.7086 0.7068 0.7051 0.7035
1857.000000 0.7018 0.7001 0.6983 0.6961 0.6941
1862.000000 0.6921 0.6900 0.6880 0.6860 0.6840
1867.000000 0.6819 0.6800 0.6781 0.6764 0.6747
1872.000000 0.6730 0.6712 0.6697 0.6671 0.6648
1877.000000 0.6638 0.6630 0.6622 0.6618 0.6615
1882.000000 0.6611 0.6608 0.6605 0.6601 0.6600
1887.000000 0.6597 0.6595 0.6593 0.6591 0.6589
1892.000000 0.6589 0.6590 0.6592 0.6594 0.6596
1897.000000 0.6598 0.6598 0.6597 0.6596 0.6595
1902.000000 0.6594 0.6593 0.6592 0.6591 0.6591
1907.000000 0.6590 0.6589 0.6610 0.6587 0.6586
1912.000000 0.6585 0.6584 0.6583 0.6582 0.6582
1917.000000 0.6580 0.6576 0.6574 0.6569 0.6564
1922.000000 0.6558 0.6551 0.6544 0.6538 0.6531
1927.000000 0.6525 0.6518 0.6514 0.6508 0.6503
1932.000000 0.6497 0.6491 0.6491 0.6492 0.6493
1937.000000 0.6495 0.6496 0.6498 0.6499 0.6500
1942.000000 0.6504 0.6510 0.6515 0.6522 0.6528
1947.000000 0.6535 0.6541 0.6547 0.6554 0.6565
1952.000000 0.6578 0.6592 0.6604 0.6617 0.6628
1957.000000 0.6642 0.6656 0.6672 0.6689 0.6705
1962.000000 0.6721 0.6738 0.6754 0.6769 0.6786
1967.000000 0.6801 0.6817 0.6833 0.6849 0.6865
1972.000000 0.6881 0.6897 0.6912 0.6925 0.6940
1977.000000 0.6953 0.6965 0.6980 0.6993 0.7006
1982.000000 0.7019 0.7033 0.7046 0.7058 0.7071
1987.000000 0.7083 0.7094 0.7106 0.7118 0.7130
1992.000000 0.7142 0.7154 0.7162 0.7171 0.7181
1997.000000 0.7190 0.7199 0.7208 0.7217 0.7225
2002.000000 0.7236 0.7242 0.7248 0.7254 0.7260
2007.000000 0.7265 0.7271 0.7278 0.7284 0.7290
2012.000000 0.7297 0.7303 0.7310 0.7315 0.7321
2017.000000 0.7326 0.7332 0.7337 0.7342 0.7346
2022.000000 0.7350 0.7354 0.7408 0.7361 0.7361
2027.000000 0.7361 0.7361 0.7358 0.7358 0.7354
2032.000000 0.7351 0.7345 0.7340 0.7334 0.7328
2037.000000 0.7321 0.7315 0.7308 0.7301 0.7294
2042.000000 0.7287 0.7280 0.7272 0.7265 0.7258
2047.000000 0.7253 0.7247 0.7240 0.7234 0.7228
2052.000000 0.7221 0.7215 0.7208 0.7203 0.7197
2057.000000 0.7189 0.7181 0.7172 0.7165 0.7157
2062.000000 0.7149 0.7141 0.7133 0.7125 0.7117
2067.000000 0.7108 0.7099 0.7088 0.7078 0.7068
2072.000000 0.7058 0.7047 0.7037 0.7026 0.7017
2077.000000 0.7006 0.6996 0.6985 0.6974 0.6961
2082.000000 0.6951 0.6939 0.6928 0.6915 0.6905
2087.000000 0.6893 0.6882 0.6869 0.6858 0.6847
2092.000000 0.6836 0.6824 0.6812 0.6801 0.6789
2097.000000 0.6776 0.6765 0.6754 0.6743 0.6731
2102.000000 0.6718 0.6706 0.6694 0.6682 0.6669
2107.000000 0.6658 0.6646 0.6634 0.6621 0.6610
2112.000000 0.6598 0.6585 0.6572 0.6561 0.6549
2117.000000 0.6537 0.6525 0.6511 0.6500 0.6487
2122.000000 0.6475 0.6461 0.6450 0.6437 0.6425
2127.000000 0.6411 0.6400 0.6387 0.6374 0.6358
2132.000000 0.6342 0.6326 0.6310 0.6294 0.6278
2137.000000 0.6262 0.6246 0.6230 0.6214 0.6198
2142.000000 0.6182 0.6168 0.6154 0.6140 0.6126
2147.000000 0.6110 0.6097 0.6083 0.6069 0.6056
2152.000000 0.6043 0.6035 0.6027 0.6019 0.6012
2157.000000 0.6004 0.5996 0.5988 0.5981 0.5975
2162.000000 0.5970 0.5965 0.5960 0.5954 0.5949
2167.000000 0.5944 0.5939 0.5934 0.5929 0.5928
2172.000000 0.5928 0.5928 0.5929 0.5932 0.5936
2177.000000 0.5941 0.5910 0.5950 0.5955 0.5965
2182.000000 0.5976 0.5986 0.5996 0.6008 0.6021
2187.000000 0.6035 0.6049 0.6062 0.6075 0.6088
2192.000000 0.6101 0.6112 0.6126 0.6138 0.6151
2197.000000 0.6162 0.6176 0.6188 0.6201 0.6215
2202.000000 0.6229 0.6244 0.6260 0.6275 0.6291
2207.000000 0.6305 0.6320 0.6334 0.6349 0.6362
2212.000000 0.6378 0.6392 0.6407 0.6418 0.6431
2217.000000 0.6442 0.6454 0.6465 0.6478 0.6484
2222.000000 0.6490 0.6494 0.6499 0.6501 0.6501
2227.000000 0.6501 0.6511 0.6500 0.6499 0.6498
2232.000000 0.6497 0.6495 0.6493 0.6490 0.6488
2237.000000 0.6485 0.6483 0.6480 0.6478 0.6475
2242.000000 0.6472 0.6469 0.6468 0.6465 0.6462
2247.000000 0.6460 0.6458 0.6455 0.6453 0.6450
2252.000000 0.6448 0.6445 0.6443 0.6438 0.6433
2257.000000 0.6426 0.6421 0.6417 0.6411 0.6407
2262.000000 0.6401 0.6397 0.6392 0.6386 0.6381
2267.000000 0.6376 0.6371 0.6362 0.6356 0.6348
2272.000000 0.6341 0.6333 0.6325 0.6317 0.6310
2277.000000 0.6302 0.6294 0.6285 0.6277 0.6268
2282.000000 0.6260 0.6251 0.6243 0.6234 0.6226
2287.000000 0.6217 0.6209 0.6201 0.6193 0.6184
2292.000000 0.6176 0.6167 0.6159 0.6150 0.6141
2297.000000 0.6132 0.6123 0.6112 0.6104 0.6095
2302.000000 0.6086 0.6077 0.6068 0.6059 0.6050
2307.000000 0.6040 0.6031 0.6022 0.6012 0.6004
2312.000000 0.5995 0.5985 0.5976 0.5966 0.5957
2317.000000 0.5948 0.5939 0.5929 0.5920 0.5910
2322.000000 0.5901 0.5891 0.5882 0.5873 0.5864
2327.000000 0.5854 0.5845 0.5835 0.5826 0.5819
2332.000000 0.5812 0.5806 0.5801 0.5795 0.5790
2337.000000 0.5789 0.5788 0.5787 0.5786 0.5785
2342.000000 0.5784 0.5783 0.5782 0.5768 0.5754
2347.000000 0.5738 0.5723 0.5706 0.5689 0.5682
2352.000000 0.5675 0.5670 0.5665 0.5660 0.5655
2357.000000 0.5650 0.5646 0.5643 0.5640 0.5637
2362.000000 0.5634 0.5631 0.5628 0.5624 0.5620
2367.000000 0.5615 0.5610 0.5605 0.5600 0.5594
2372.000000 0.5589 0.5584 0.5579 0.5572 0.5566
2377.000000 0.5557 0.5549 0.5540 0.5532 0.5523
2382.000000 0.5515 0.5506 0.5498 0.5489 0.5481
2387.000000 0.5473 0.5465 0.5456 0.5448 0.5439
2392.000000 0.5431 0.5422 0.5414 0.5405 0.5397
2397.000000 0.5388 0.5380 0.5372 0.5364 0.5355
2402.000000 0.5347 0.5338 0.5330 0.5321 0.5312
2407.000000 0.5304 0.5295 0.5285 0.5276 0.5266
2412.000000 0.5257 0.5247 0.5237 0.5227 0.5218
2417.000000 0.5208 0.5199 0.5189 0.5180 0.5171
2422.000000 0.5162 0.5154 0.5146 0.5137 0.5129
2427.000000 0.5120 0.5112 0.5104 0.5096 0.5087
2432.000000 0.5079 0.5071 0.5062 0.5054 0.5046
2437.000000 0.5038 0.5030 0.5021 0.5012 0.5004
2442.000000 0.4996 0.4987 0.4978 0.4968 0.4959
2447.000000 0.4950 0.4941 0.4931 0.4922 0.4912
2452.000000 0.4903 0.4894 0.4885 0.4875 0.4866
2457.000000 0.4856 0.4847 0.4838 0.4829 0.4819
2462.000000 0.4810 0.4800 0.4791 0.4781 0.4772
2467.000000 0.4762 0.4753 0.4743 0.4734 0.4724
2472.000000 0.4714 0.4704 0.4694 0.4684 0.4675
2477.000000 0.4665 0.4655 0.4645 0.4636 0.4626
2482.000000 0.4616 0.4606 0.4596 0.4586 0.4577
2487.000000 0.4567 0.4557 0.4547 0.4538 0.4528
2492.000000 0.4519 0.4510 0.4503 0.4494 0.4486
2497.000000 0.4477 0.4469 0.4460 0.4452 0.4443
2502.000000 0.4435 0.4427 0.4419 0.4410 0.4402
2507.000000 0.4393 0.4385 0.4376 0.4368 0.4359
2512.000000 0.4351 0.4343 0.4335 0.4326 0.4318
2517.000000 0.4309 0.4301 0.4292 0.4284 0.4275
2522.000000 0.4266 0.4257 0.4249 0.4240 0.4232
2527.000000 0.4223 0.4214 0.4205 0.4197 0.4188
2532.000000 0.4179 0.4170 0.4162 0.4153 0.4144
2537.000000 0.4135 0.4127 0.4118 0.4110 0.4101
2542.000000 0.4092 0.4082 0.4075 0.4064 0.4056
2547.000000 0.4045 0.4034 0.4024 0.4014 0.4003
2552.000000 0.3993 0.3982 0.3971 0.3959 0.3950
2557.000000 0.3939 0.3929 0.3918 0.3908 0.3897
2562.000000 0.3886 0.3875 0.3864 0.3852 0.3841
2567.000000 0.3829 0.3816 0.3805 0.3794 0.3782
2572.000000 0.3771 0.3759 0.3748 0.3736 0.3725
2577.000000 0.3712 0.3702 0.3690 0.3679 0.3666
2582.000000 0.3656 0.3643 0.3630 0.3614 0.3600
2587.000000 0.3587 0.3573 0.3558 0.3544 0.3530
2592.000000 0.3516 0.3500 0.3487 0.3473 0.3459
2597.000000 0.3444 0.3430 0.3416 0.3402 0.3386
2602.000000 0.3371 0.3355 0.3340 0.3324 0.3309
2607.000000 0.3293 0.3277 0.3260 0.3246 0.3230
2612.000000 0.3214 0.3199 0.3184 0.3168 0.3153
2617.000000 0.3137 0.3122 0.3106 0.3091 0.3075
2622.000000 0.3060 0.3046 0.3032 0.3017 0.3003
2627.000000 0.2989 0.2975 0.2961 0.2947 0.2933
2632.000000 0.2919 0.2904 0.2890 0.2876 0.2862
2637.000000 0.2848 0.2834 0.2819 0.2805 0.2791
2642.000000 0.2777 0.2763 0.2749 0.2734 0.2721
2647.000000 0.2708 0.2695 0.2683 0.2672 0.2660
2652.000000 0.2648 0.2635 0.2625 0.2613 0.2601
2657.000000 0.2589 0.2578 0.2566 0.2555 0.2543
2662.000000 0.2531 0.2519 0.2508 0.2496 0.2484
2667.000000 0.2471 0.2459 0.2446 0.2433 0.2420
2672.000000 0.2408 0.2395 0.2383 0.2370 0.2357
2677.000000 0.2344 0.2332 0.2319 0.2307 0.2294
2682.000000 0.2281 0.2268 0.2256 0.2244 0.2233
2687.000000 0.2222 0.2211 0.2199 0.2188 0.2177
2692.000000 0.2166 0.2154 0.2143 0.2132 0.2121
2697.000000 0.2109 0.2098 0.2087 0.2077 0.2069
2702.000000 0.2062 0.2054 0.2046 0.2039 0.2031
2707.000000 0.2023 0.2016 0.2008 0.2001 0.1994
2712.000000 0.1989 0.1983 0.1978 0.1972 0.1966
2717.000000 0.1960 0.1954 0.1949 0.1944 0.1937
2722.000000 0.1932 0.1926 0.1921 0.1917 0.1914
2727.000000 0.1911 0.1908 0.1904 0.1902 0.1899
2732.000000 0.1895 0.1893 0.1892 0.1893 0.1893
2737.000000 0.1894 0.1898 0.1900 0.1903 0.1906
2742.000000 0.1900 0.1911 0.1914 0.1917 0.1920
2747.000000 0.1923 0.1926 0.1929 0.1932 0.1934
2752.000000 0.1937 0.1941 0.1944 0.1946 0.1950
2757.000000 0.1954 0.1959 0.1963 0.1968 0.1972
2762.000000 0.1977 0.1981 0.1985 0.1990 0.1994
2767.000000 0.1999 0.2004 0.2009 0.2014 0.2020
2772.000000 0.2027 0.2034 0.2041 0.2048 0.2055
2777.000000 0.2062 0.2069 0.2076 0.2083 0.2090
2782.000000 0.2097 0.2099 0.2101 0.2102 0.2103
2787.000000 0.2097 0.2140 0.2085 0.2080 0.2074
2792.000000 0.2069 0.2063 0.2057 0.2051 0.2044
2797.000000 0.2039 0.2033 0.2027 0.2021 0.2015
2802.000000 0.2009 0.2003 0.1996 0.1991 0.1984
2807.000000 0.1979 0.1973 0.1967 0.1961 0.1954
2812.000000 0.1949 0.1943 0.1936 0.1931 0.1926
2817.000000 0.1920 0.1915 0.1909 0.1904 0.1902
2822.000000 0.1900 0.1899 0.1898 0.1896 0.1895
2827.000000 0.1894 0.1893 0.1892 0.1892 0.1893
2832.000000 0.1895 0.1899 0.1902 0.1904 0.1907
2837.000000 0.1909 0.1912 0.1914 0.1917 0.1920
2842.000000 0.1873 0.1929 0.1935 0.1942 0.1948
2847.000000 0.1954 0.1960 0.1966 0.1972 0.1978
2852.000000 0.1984 0.1992 0.2000 0.2009 0.2019
2857.000000 0.2028 0.2037 0.2046 0.2057 0.2065
2862.000000 0.2073 0.2080 0.2087 0.2094 0.2102
2867.000000 0.2109 0.2116 0.2123 0.2131 0.2138
2872.000000 0.2146 0.2153 0.2160 0.2167 0.2175
2877.000000 0.2182 0.2190 0.2197 0.2204 0.2211
2882.000000 0.2219 0.2226 0.2233 0.2240 0.2248
2887.000000 0.2253 0.2259 0.2265 0.2271 0.2277
2892.000000 0.2283 0.2289 0.2295 0.2301 0.2307
2897.000000 0.2319 0.2332 0.2344 0.2357 0.2370
2902.000000 0.2383 0.2394 0.2406 0.2412 0.2419
2907.000000 0.2421 0.2422 0.2421 0.2421 0.2419
2912.000000 0.2444 0.2416 0.2415 0.2410 0.2405
2917.000000 0.2400 0.2395 0.2390 0.2384 0.2380
2922.000000 0.2375 0.2370 0.2365 0.2361 0.2361
2927.000000 0.2362 0.2366 0.2365 0.2364 0.2379
2932.000000 0.2384 0.2384 0.2385 0.2380 0.2419
2937.000000 0.2366 0.2359 0.2348 0.2337 0.2326
2942.000000 0.2315 0.2304 0.2293 0.2265 0.2237
2947.000000 0.2211 0.2185 0.2167 0.2148 0.2129
2952.000000 0.2110 0.2094 0.2079 0.2079 0.2079
2957.000000 0.2079 0.2079 0.2080 0.2081 0.2148
2962.000000 0.2215 0.2271 0.2327 0.2354 0.2381
2967.000000 0.2393 0.2431 0.2405 0.2405 0.2403
2972.000000 0.2402 0.2400 0.2399 0.2397 0.2396
2977.000000 0.2394 0.2393 0.2389 0.2384 0.2380
2982.000000 0.2376 0.2372 0.2368 0.2363 0.2359
2987.000000 0.2355 0.2351 0.2347 0.2344 0.2340
2992.000000 0.2337 0.2334 0.2331 0.2327 0.2324
2997.000000 0.2320 0.2317 0.2313 0.2310 0.2306
3002.000000 0.2303 0.2300 0.2297 0.2293 0.2290
3007.000000 0.2287 0.2284 0.2281 0.2278 0.2274
3012.000000 0.2271 0.2268 0.2265 0.2262 0.2259
3017.000000 0.2256 0.2253 0.2249 0.2246 0.2243
3022.000000 0.2240 0.2237 0.2234 0.2229 0.2225
3027.000000 0.2220 0.2216 0.2211 0.2207 0.2202
3032.000000 0.2198 0.2193 0.2189 0.2184 0.2180
3037.000000 0.2175 0.2170 0.2165 0.2161 0.2156
3042.000000 0.2152 0.2146 0.2141 0.2134 0.2129
3047.000000 0.2122 0.2116 0.2110 0.2104 0.2097
3052.000000 0.2091 0.2084 0.2079 0.2073 0.2067
3057.000000 0.2060 0.2053 0.2044 0.2036 0.2028
3062.000000 0.2020 0.2012 0.2004 0.1994 0.1986
3067.000000 0.1979 0.1971 0.1962 0.1954 0.1944
3072.000000 0.1935 0.1926 0.1916 0.1906 0.1895
3077.000000 0.1890 0.1884 0.1879 0.1874 0.1875
3082.000000 0.1875 0.1876 0.1877 0.1878 0.1879
3087.000000 0.1884 0.1887 0.1896 0.1907 0.1916
3092.000000 0.1926 0.1934 0.1944 0.1956 0.1967
3097.000000 0.1981 0.1995 0.2011 0.2026 0.2043
3102.000000 0.2060 0.2077 0.2094 0.2110 0.2126
3107.000000 0.2142 0.2158 0.2172 0.2187 0.2197
3112.000000 0.2208 0.2218 0.2228 0.2235 0.2244
3117.000000 0.2248 0.2252 0.2255 0.2259 0.2262
3122.000000 0.2266 0.2269 0.2273 0.2276 0.2280
3127.000000 0.2283 0.2287 0.2289 0.2291 0.2291
3132.000000 0.2292 0.2292 0.2293 0.2293 0.2294
3137.000000 0.2296 0.2298 0.2305 0.2312 0.2328
3142.000000 0.2345 0.2363 0.2381 0.2398 0.2416
3147.000000 0.2429 0.2442 0.2453 0.2465 0.2478
3152.000000 0.2491 0.2506 0.2521 0.2535 0.2551
3157.000000 0.2566 0.2581 0.2598 0.2615 0.2639
3162.000000 0.2664 0.2688 0.2712 0.2737 0.2763
3167.000000 0.2788 0.2813 0.2834 0.2858 0.2860
3172.000000 0.2862 0.2864 0.2866 0.2868 0.2870
3177.000000 0.2872 0.2874 0.2874 0.2874 0.2872
3182.000000 0.2870 0.2868 0.2868 0.2868 0.2869
3187.000000 0.2872 0.2875 0.2878 0.2881 0.2900
3192.000000 0.2920 0.2949 0.2979 0.3003 0.3027
3197.000000 0.3050 0.3074 0.3097 0.3121 0.3144
3202.000000 0.3168 0.3194 0.3220 0.3253 0.3286
3207.000000 0.3318 0.3352 0.3443 0.3534 0.3595
3212.000000 0.3656 0.3728 0.3800 0.3873 0.3946
3217.000000 0.4012 0.4080 0.4132 0.4184 0.4230
3222.000000 0.4277 0.4323 0.4370 0.4416 0.4462
3227.000000 0.4518 0.4573 0.4628 0.4684 0.4739
3232.000000 0.4794 0.4836 0.4879 0.4921 0.4964
3237.000000 0.5006 0.5049 0.5089 0.5130 0.5169
3242.000000 0.5209 0.5248 0.5288 0.5327 0.5366
3247.000000 0.5405 0.5445 0.5484 0.5524 0.5560
3252.000000 0.5599 0.5636 0.5674 0.5710 0.5749
3257.000000 0.5786 0.5824 0.5860 0.5899 0.5946
3262.000000 0.5994 0.6044 0.6094 0.6144 0.6194
3267.000000 0.6244 0.6295 0.6347 0.6400 0.6451
3272.000000 0.6505 0.6558 0.6611 0.6660 0.6708
3277.000000 0.6749 0.6790 0.6830 0.6871 0.6911
3282.000000 0.6951 0.6992 0.7033 0.7069 0.7107
3287.000000 0.7141 0.7175 0.7210 0.7245 0.7280
3292.000000 0.7315 0.7346 0.7376 0.7397 0.7418
3297.000000 0.7438 0.7458 0.7478 0.7499 0.7518
3302.000000 0.7540 0.7560 0.7581 0.7601 0.7621
3307.000000 0.7642 0.7662 0.7683 0.7703 0.7722
3312.000000 0.7744 0.7764 0.7785 0.7808 0.7831
3317.000000 0.7854 0.7878 0.7901 0.7925 0.7949
3322.000000 0.7972 0.7997 0.8021 0.8044 0.8068
3327.000000 0.8091 0.8115 0.8137 0.8160 0.8182
3332.000000 0.8204 0.8225 0.8249 0.8271 0.8293
3337.000000 0.8316 0.8339 0.8355 0.8371 0.8384
3342.000000 0.8397 0.8410 0.8424 0.8437 0.8451
3347.000000 0.8464 0.8478 0.8491 0.8504 0.8517
3352.000000 0.8531 0.8544 0.8557 0.8573 0.8589
3357.000000 0.8599 0.8609 0.8618 0.8628 0.8637
3362.000000 0.8647 0.8656 0.8665 0.8674 0.8684
3367.000000 0.8692 0.8700 0.8706 0.8712 0.8718
3372.000000 0.8724 0.8730 0.8736 0.8740 0.8744
3377.000000 0.8747 0.8750 0.8753 0.8756 0.8759
3382.000000 0.8762 0.8765 0.8768 0.8771 0.8774
3387.000000 0.8777 0.8780 0.8781 0.8783 0.8784
3392.000000 0.8785 0.8786 0.8787 0.8788 0.8790
3397.000000 0.8791 0.8792 0.8793 0.8794 0.8795
3402.000000 0.8796 0.8797 0.8798 0.8799 0.8799
3407.000000 0.8799 0.8799 0.8798 0.8798 0.8798
3412.000000 0.8798 0.8797 0.8797 0.8797 0.8797
3417.000000 0.8796 0.8796 0.8795 0.8795 0.8794
3422.000000 0.8793 0.8792 0.8791 0.8790 0.8790
3427.000000 0.8789 0.8788 0.8787 0.8786 0.8785
3432.000000 0.8784 0.8782 0.8780 0.8778 0.8775
3437.000000 0.8774 0.8771 0.8770 0.8768 0.8766
3442.000000 0.8764 0.8762 0.8760 0.8758 0.8756
3447.000000 0.8754 0.8753 0.8751 0.8749 0.8746
3452.000000 0.8744 0.8741 0.8739 0.8736 0.8734
3457.000000 0.8731 0.8728 0.8725 0.8723 0.8720
3462.000000 0.8717 0.8714 0.8712 0.8709 0.8706
3467.000000 0.8703 0.8701 0.8698 0.8695 0.8692
3472.000000 0.8690 0.8688 0.8686 0.8684 0.8682
3477.000000 0.8678 0.8677 0.8675 0.8673 0.8671
3482.000000 0.8668 0.8667 0.8665 0.8662 0.8660
3487.000000 0.8658 0.8656 0.8654 0.8652 0.8650
3492.000000 0.8648 0.8645 0.8643 0.8641 0.8639
3497.000000 0.8637 0.8635 0.8633 0.8631 0.8628
3502.000000 0.8625 0.8624 0.8621 0.8620 0.8618
3507.000000 0.8616 0.8614 0.8611 0.8609 0.8607
3512.000000 0.8605 0.8603 0.8601 0.8599 0.8598
3517.000000 0.8596 0.8595 0.8593 0.8592 0.8590
3522.000000 0.8589 0.8587 0.8585 0.8583 0.8582
3527.000000 0.8580 0.8578 0.8577 0.8575 0.8574
3532.000000 0.8571 0.8570 0.8568 0.8567 0.8566
3537.000000 0.8564 0.8563 0.8561 0.8559 0.8557
3542.000000 0.8556 0.8554 0.8553 0.8551 0.8550
3547.000000 0.8548 0.8547 0.8545 0.8543 0.8541
3552.000000 0.8540 0.8538 0.8537 0.8535 0.8534
3557.000000 0.8532 0.8530 0.8528 0.8527 0.8525
3562.000000 0.8524 0.8521 0.8521 0.8513 0.8506
3567.000000 0.8497 0.8489 0.8480 0.8471 0.8441
3572.000000 0.8411 0.8418 0.8425 0.8433 0.8441
3577.000000 0.8448 0.8456 0.8462 0.8468 0.8475
3582.000000 0.8481 0.8485 0.8490 0.8488 0.8486
3587.000000 0.8483 0.8480 0.8475 0.8470 0.8465
3592.000000 0.8461 0.8454 0.8447 0.8434 0.8421
3597.000000 0.8408 0.8395 0.8397 0.8400 0.8412
3602.000000 0.8425 0.8428 0.8431 0.8433 0.8433
3607.000000 0.8433 0.8431 0.8428 0.8425 0.8423
3612.000000 0.8421 0.8418 0.8416 0.8412 0.8409
3617.000000 0.8405 0.8402 0.8398 0.8395 0.8391
3622.000000 0.8387 0.8383 0.8380 0.8375 0.8373
3627.000000 0.8368 0.8366 0.8364 0.8362 0.8359
3632.000000 0.8357 0.8354 0.8352 0.8350 0.8348
3637.000000 0.8345 0.8343 0.8341 0.8339 0.8336
3642.000000 0.8334 0.8331 0.8328 0.8327 0.8325
3647.000000 0.8321 0.8320 0.8317 0.8315 0.8313
3652.000000 0.8311 0.8309 0.8307 0.8305 0.8303
3657.000000 0.8301 0.8299 0.8297 0.8295 0.8293
3662.000000 0.8291 0.8289 0.8287 0.8285 0.8283
3667.000000 0.8281 0.8278 0.8277 0.8275 0.8273
3672.000000 0.8271 0.8268 0.8267 0.8265 0.8263
3677.000000 0.8260 0.8258 0.8255 0.8253 0.8250
3682.000000 0.8247 0.8244 0.8242 0.8239 0.8237
3687.000000 0.8234 0.8232 0.8228 0.8227 0.8224
3692.000000 0.8221 0.8218 0.8216 0.8213 0.8211
3697.000000 0.8208 0.8205 0.8202 0.8199 0.8196
3702.000000 0.8194 0.8191 0.8188 0.8185 0.8182
3707.000000 0.8178 0.8175 0.8172 0.8171 0.8168
3712.000000 0.8165 0.8162 0.8161 0.8158 0.8156
3717.000000 0.8153 0.8150 0.8147 0.8145 0.8142
3722.000000 0.8140 0.8137 0.8135 0.8132 0.8130
3727.000000 0.8126 0.8125 0.8121 0.8119 0.8117
3732.000000 0.8115 0.8111 0.8108 0.8106 0.8104
3737.000000 0.8101 0.8099 0.8096 0.8094 0.8091
3742.000000 0.8089 0.8086 0.8084 0.8081 0.8078
3747.000000 0.8075 0.8074 0.8071 0.8068 0.8065
3752.000000 0.8062 0.8060 0.8058 0.8055 0.8053
3757.000000 0.8050 0.8048 0.8045 0.8043 0.8040
3762.000000 0.8038 0.8035 0.8033 0.8030 0.8026
3767.000000 0.8024 0.8021 0.8018 0.8017 0.8014
3772.000000 0.8011 0.8008 0.8007 0.8004 0.8001
3777.000000 0.7999 0.7997 0.7994 0.7992 0.7989
3782.000000 0.7986 0.7983 0.7981 0.7978 0.7975
3787.000000 0.7972 0.7971 0.7968 0.7965 0.7962
3792.000000 0.7961 0.7958 0.7956 0.7953 0.7951
3797.000000 0.7948 0.7945 0.7944 0.7944
##END=
