##TITLE=Cacotheline
##JCAMP-DX=4.24
$$ By DXEDIT 1.05 (RS McDonald)
##DATA TYPE=INFRARED SPECTRUM
##CLASS=COBLENTZ II
##ORIGIN=DOW CHEMICAL COMPANY
##OWNER=COPYRIGHT (C) 1988 by COBLENTZ SOCIETY INC.
Collection (C) 2018 copyright by the U.S. Secretary of Commerce
on behalf of the United States of America. All rights reserved.
##DATE=1964/04/03
##MOLFORM=C21 H21 N3 O7
##SOURCE REFERENCE=COBLENTZ NO. 06085
##$NIST ID=B6006085
##$NIST SOURCE=COBLENTZ
##$NIST IMAGE=cob6085
##SPECTROMETER/DATA SYSTEM=DOW KBr FOREPRISM-GRATING
##INSTRUMENT PARAMETERS=BLAZED AT 3.5, 12.0, 20.0 MICRON AND CHANGED AT 5.0, 7.5, 14.9 MICRON
##STATE=SOLID (SPLIT MULL)
##SAMPLING PROCEDURE=TRANSMISSION
##RESOLUTION=2
##DATA PROCESSING=DIGITIZED BY COBLENTZ SOCIETY (BATCH I) FROM HARD COPY
##XUNITS=1/CM
##YUNITS=TRANSMITTANCE
##XFACTOR=1
##YFACTOR=1
##DELTAX=1
##FIRSTX=3800
##LASTX=450
##FIRSTY=0.6454
##MAXX=3800
##MINX=450
##MAXY=0.8964
##MINY=0.0574
##NPOINTS=3351
##XYDATA=(X++(Y..Y))
3800.000000 0.6454 0.6454 0.6454 0.6456 0.6458
3795.000000 0.6461 0.6465 0.6467 0.6469 0.6471
3790.000000 0.6475 0.6478 0.6481 0.6483 0.6486
3785.000000 0.6489 0.6492 0.6495 0.6499 0.6501
3780.000000 0.6505 0.6508 0.6511 0.6514 0.6517
3775.000000 0.6519 0.6522 0.6525 0.6528 0.6532
3770.000000 0.6535 0.6537 0.6539 0.6540 0.6542
3765.000000 0.6544 0.6546 0.6548 0.6550 0.6551
3760.000000 0.6554 0.6555 0.6557 0.6558 0.6561
3755.000000 0.6562 0.6565 0.6567 0.6568 0.6571
3750.000000 0.6572 0.6574 0.6575 0.6575 0.6578
3745.000000 0.6578 0.6581 0.6582 0.6583 0.6584
3740.000000 0.6586 0.6587 0.6589 0.6590 0.6591
3735.000000 0.6592 0.6594 0.6595 0.6596 0.6596
3730.000000 0.6596 0.6596 0.6597 0.6597 0.6598
3725.000000 0.6598 0.6598 0.6597 0.6597 0.6596
3720.000000 0.6596 0.6595 0.6595 0.6595 0.6596
3715.000000 0.6598 0.6600 0.6601 0.6603 0.6605
3710.000000 0.6607 0.6608 0.6610 0.6611 0.6615
3705.000000 0.6618 0.6621 0.6625 0.6628 0.6632
3700.000000 0.6636 0.6639 0.6643 0.6644 0.6644
3695.000000 0.6644 0.6644 0.6643 0.6643 0.6642
3690.000000 0.6642 0.6639 0.6636 0.6632 0.6628
3685.000000 0.6625 0.6622 0.6622 0.6622 0.6625
3680.000000 0.6630 0.6633 0.6637 0.6640 0.6643
3675.000000 0.6645 0.6647 0.6649 0.6651 0.6654
3670.000000 0.6656 0.6658 0.6661 0.6664 0.6667
3665.000000 0.6669 0.6672 0.6675 0.6678 0.6680
3660.000000 0.6682 0.6682 0.6682 0.6683 0.6684
3655.000000 0.6684 0.6684 0.6684 0.6684 0.6683
3650.000000 0.6682 0.6681 0.6680 0.6678 0.6678
3645.000000 0.6678 0.6676 0.6675 0.6675 0.6675
3640.000000 0.6674 0.6671 0.6671 0.6668 0.6665
3635.000000 0.6664 0.6661 0.6658 0.6657 0.6655
3630.000000 0.6653 0.6650 0.6648 0.6645 0.6643
3625.000000 0.6640 0.6638 0.6635 0.6633 0.6631
3620.000000 0.6628 0.6625 0.6624 0.6619 0.6615
3615.000000 0.6610 0.6605 0.6599 0.6594 0.6588
3610.000000 0.6583 0.6576 0.6571 0.6565 0.6561
3605.000000 0.6554 0.6548 0.6541 0.6534 0.6526
3600.000000 0.6519 0.6512 0.6506 0.6499 0.6493
3595.000000 0.6486 0.6478 0.6471 0.6465 0.6458
3590.000000 0.6451 0.6445 0.6439 0.6432 0.6425
3585.000000 0.6419 0.6415 0.6408 0.6404 0.6399
3580.000000 0.6394 0.6388 0.6383 0.6378 0.6373
3575.000000 0.6367 0.6362 0.6357 0.6352 0.6347
3570.000000 0.6342 0.6340 0.6326 0.6336 0.6336
3565.000000 0.6336 0.6337 0.6346 0.6356 0.6365
3560.000000 0.6374 0.6380 0.6387 0.6393 0.6400
3555.000000 0.6406 0.6412 0.6417 0.6421 0.6421
3550.000000 0.6421 0.6421 0.6421 0.6421 0.6421
3545.000000 0.6421 0.6422 0.6422 0.6422 0.6422
3540.000000 0.6422 0.6422 0.6424 0.6424 0.6425
3535.000000 0.6425 0.6425 0.6426 0.6428 0.6428
3530.000000 0.6430 0.6430 0.6431 0.6432 0.6433
3525.000000 0.6433 0.6434 0.6435 0.6436 0.6436
3520.000000 0.6437 0.6438 0.6439 0.6439 0.6440
3515.000000 0.6441 0.6442 0.6443 0.6445 0.6447
3510.000000 0.6449 0.6450 0.6451 0.6454 0.6456
3505.000000 0.6457 0.6458 0.6461 0.6462 0.6464
3500.000000 0.6465 0.6468 0.6469 0.6471 0.6472
3495.000000 0.6475 0.6476 0.6478 0.6480 0.6482
3490.000000 0.6484 0.6485 0.6487 0.6490 0.6493
3485.000000 0.6496 0.6499 0.6501 0.6505 0.6508
3480.000000 0.6511 0.6514 0.6517 0.6519 0.6524
3475.000000 0.6526 0.6530 0.6533 0.6536 0.6539
3470.000000 0.6542 0.6545 0.6549 0.6551 0.6555
3465.000000 0.6558 0.6561 0.6565 0.6569 0.6574
3460.000000 0.6578 0.6581 0.6585 0.6589 0.6593
3455.000000 0.6597 0.6601 0.6605 0.6608 0.6612
3450.000000 0.6617 0.6619 0.6624 0.6628 0.6632
3445.000000 0.6636 0.6640 0.6644 0.6648 0.6651
3440.000000 0.6656 0.6660 0.6665 0.6669 0.6675
3435.000000 0.6678 0.6684 0.6688 0.6693 0.6698
3430.000000 0.6703 0.6707 0.6711 0.6717 0.6721
3425.000000 0.6725 0.6730 0.6734 0.6738 0.6742
3420.000000 0.6747 0.6751 0.6755 0.6758 0.6764
3415.000000 0.6768 0.6771 0.6775 0.6781 0.6785
3410.000000 0.6790 0.6794 0.6799 0.6803 0.6808
3405.000000 0.6811 0.6817 0.6821 0.6825 0.6830
3400.000000 0.6835 0.6840 0.6845 0.6849 0.6854
3395.000000 0.6858 0.6864 0.6868 0.6872 0.6875
3390.000000 0.6878 0.6878 0.6881 0.6882 0.6883
3385.000000 0.6884 0.6886 0.6887 0.6889 0.6890
3380.000000 0.6892 0.6893 0.6894 0.6895 0.6896
3375.000000 0.6897 0.6898 0.6899 0.6900 0.6900
3370.000000 0.6900 0.6898 0.6893 0.6894 0.6895
3365.000000 0.6894 0.6893 0.6891 0.6890 0.6887
3360.000000 0.6884 0.6880 0.6876 0.6872 0.6868
3355.000000 0.6865 0.6861 0.6857 0.6854 0.6850
3350.000000 0.6846 0.6841 0.6836 0.6828 0.6822
3345.000000 0.6815 0.6810 0.6803 0.6797 0.6786
3340.000000 0.6775 0.6764 0.6751 0.6728 0.6707
3335.000000 0.6682 0.6658 0.6603 0.6549 0.6451
3330.000000 0.6355 0.6265 0.6175 0.5997 0.5819
3325.000000 0.5608 0.5398 0.5187 0.4977 0.4766
3320.000000 0.4556 0.4345 0.4134 0.3923 0.3712
3315.000000 0.3502 0.2983 0.3132 0.2972 0.2966
3310.000000 0.2961 0.3101 0.3242 0.3444 0.3646
3305.000000 0.3848 0.4050 0.4252 0.4454 0.4656
3300.000000 0.4858 0.5120 0.5383 0.5464 0.5546
3295.000000 0.5584 0.5623 0.5660 0.5700 0.5737
3290.000000 0.5775 0.5805 0.5836 0.5866 0.5897
3285.000000 0.5930 0.5962 0.5997 0.6032 0.6062
3280.000000 0.6094 0.6114 0.6135 0.6156 0.6177
3275.000000 0.6196 0.6216 0.6234 0.6253 0.6271
3270.000000 0.6290 0.6308 0.6327 0.6341 0.6355
3265.000000 0.6368 0.6382 0.6395 0.6408 0.6421
3260.000000 0.6435 0.6446 0.6457 0.6465 0.6475
3255.000000 0.6486 0.6496 0.6505 0.6514 0.6521
3250.000000 0.6528 0.6534 0.6541 0.6548 0.6555
3245.000000 0.6561 0.6568 0.6575 0.6583 0.6587
3240.000000 0.6592 0.6595 0.6599 0.6601 0.6605
3235.000000 0.6608 0.6611 0.6611 0.6614 0.6615
3230.000000 0.6615 0.6615 0.6617 0.6617 0.6618
3225.000000 0.6618 0.6619 0.6619 0.6621 0.6621
3220.000000 0.6621 0.6621 0.6622 0.6622 0.6624
3215.000000 0.6618 0.6615 0.6610 0.6606 0.6601
3210.000000 0.6597 0.6592 0.6587 0.6582 0.6578
3205.000000 0.6572 0.6568 0.6561 0.6553 0.6543
3200.000000 0.6533 0.6522 0.6514 0.6504 0.6494
3195.000000 0.6484 0.6475 0.6460 0.6445 0.6428
3190.000000 0.6414 0.6398 0.6383 0.6367 0.6351
3185.000000 0.6335 0.6319 0.6303 0.6287 0.6270
3180.000000 0.6253 0.6235 0.6218 0.6200 0.6182
3175.000000 0.6164 0.6146 0.6128 0.6110 0.6093
3170.000000 0.6075 0.6045 0.6015 0.5983 0.5952
3165.000000 0.5919 0.5887 0.5822 0.5757 0.5699
3160.000000 0.5642 0.5587 0.5533 0.5471 0.5409
3155.000000 0.5353 0.5297 0.5264 0.5232 0.5199
3150.000000 0.5167 0.5132 0.5098 0.5042 0.4986
3145.000000 0.4935 0.4884 0.4844 0.4804 0.4759
3140.000000 0.4715 0.4657 0.4600 0.4552 0.4505
3135.000000 0.4470 0.4435 0.4400 0.4365 0.4330
3130.000000 0.4295 0.4260 0.4226 0.4191 0.4156
3125.000000 0.4126 0.4097 0.4075 0.4053 0.4040
3120.000000 0.4027 0.4014 0.4004 0.3996 0.3988
3115.000000 0.3980 0.3974 0.3968 0.3962 0.3960
3110.000000 0.3959 0.3959 0.3958 0.3957 0.3956
3105.000000 0.3956 0.3956 0.3957 0.3958 0.3964
3100.000000 0.3971 0.3980 0.3990 0.3999 0.4008
3095.000000 0.4016 0.4026 0.4040 0.4054 0.4070
3090.000000 0.4086 0.4102 0.4118 0.4135 0.4152
3085.000000 0.4173 0.4195 0.4216 0.4237 0.4259
3080.000000 0.4281 0.4304 0.4327 0.4350 0.4373
3075.000000 0.4396 0.4419 0.4442 0.4466 0.4490
3070.000000 0.4514 0.4538 0.4562 0.4586 0.4610
3065.000000 0.4634 0.4658 0.4681 0.4704 0.4726
3060.000000 0.4749 0.4771 0.4794 0.4817 0.4840
3055.000000 0.4862 0.4885 0.4907 0.4929 0.4951
3050.000000 0.4974 0.4996 0.5018 0.5039 0.5060
3045.000000 0.5082 0.5103 0.5124 0.5146 0.5167
3040.000000 0.5189 0.5210 0.5232 0.5248 0.5265
3035.000000 0.5279 0.5294 0.5308 0.5323 0.5334
3030.000000 0.5346 0.5353 0.5360 0.5368 0.5376
3025.000000 0.5381 0.5387 0.5393 0.5399 0.5404
3020.000000 0.5410 0.5416 0.5422 0.5426 0.5430
3015.000000 0.5433 0.5437 0.5440 0.5443 0.5446
3010.000000 0.5450 0.5449 0.5448 0.5435 0.5423
3005.000000 0.5406 0.5389 0.5380 0.5372 0.5373
3000.000000 0.5374 0.5382 0.5391 0.5405 0.5419
2995.000000 0.5432 0.5446 0.5460 0.5474 0.5487
2990.000000 0.5501 0.5510 0.5522 0.5531 0.5540
2985.000000 0.5549 0.5559 0.5568 0.5577 0.5588
2980.000000 0.5599 0.5610 0.5622 0.5632 0.5643
2975.000000 0.5652 0.5660 0.5662 0.5698 0.5657
2970.000000 0.5650 0.5643 0.5636 0.5629 0.5622
2965.000000 0.5615 0.5620 0.5619 0.5619 0.5626
2960.000000 0.5634 0.5643 0.5652 0.5662 0.5672
2955.000000 0.5681 0.5691 0.5701 0.5710 0.5718
2950.000000 0.5726 0.5733 0.5740 0.5746 0.5753
2945.000000 0.5760 0.5767 0.5774 0.5781 0.5788
2940.000000 0.5795 0.5801 0.5808 0.5814 0.5821
2935.000000 0.5827 0.5833 0.5839 0.5845 0.5851
2930.000000 0.5857 0.5860 0.5865 0.5869 0.5873
2925.000000 0.5875 0.5877 0.5877 0.5877 0.5873
2920.000000 0.5910 0.5866 0.5862 0.5856 0.5850
2915.000000 0.5843 0.5836 0.5831 0.5827 0.5826
2910.000000 0.5825 0.5823 0.5822 0.5819 0.5816
2905.000000 0.5810 0.5805 0.5791 0.5777 0.5760
2900.000000 0.5745 0.5733 0.5722 0.5715 0.5708
2895.000000 0.5701 0.5695 0.5690 0.5685 0.5682
2890.000000 0.5679 0.5676 0.5674 0.5671 0.5668
2885.000000 0.5665 0.5662 0.5658 0.5654 0.5652
2880.000000 0.5651 0.5651 0.5651 0.5672 0.5643
2875.000000 0.5712 0.5732 0.5751 0.5770 0.5791
2870.000000 0.5812 0.5823 0.5835 0.5843 0.5851
2865.000000 0.5857 0.5864 0.5864 0.5864 0.5864
2860.000000 0.5864 0.5864 0.5864 0.5864 0.5864
2855.000000 0.5864 0.5864 0.5862 0.5862 0.5864
2850.000000 0.5866 0.5868 0.5871 0.5874 0.5877
2845.000000 0.5880 0.5884 0.5887 0.5891 0.5898
2840.000000 0.5905 0.5912 0.5920 0.5927 0.5935
2835.000000 0.5942 0.5949 0.5955 0.5962 0.5969
2830.000000 0.5976 0.5983 0.5991 0.5999 0.6007
2825.000000 0.6015 0.6024 0.6033 0.6042 0.6051
2820.000000 0.6060 0.6069 0.6078 0.6087 0.6096
2815.000000 0.6105 0.6114 0.6123 0.6132 0.6146
2810.000000 0.6160 0.6176 0.6192 0.6208 0.6225
2805.000000 0.6241 0.6257 0.6266 0.6276 0.6283
2800.000000 0.6291 0.6298 0.6306 0.6312 0.6321
2795.000000 0.6328 0.6336 0.6343 0.6351 0.6358
2790.000000 0.6366 0.6371 0.6377 0.6382 0.6388
2785.000000 0.6394 0.6400 0.6405 0.6411 0.6415
2780.000000 0.6421 0.6425 0.6428 0.6428 0.6430
2775.000000 0.6430 0.6431 0.6432 0.6433 0.6433
2770.000000 0.6434 0.6435 0.6436 0.6436 0.6437
2765.000000 0.6438 0.6440 0.6442 0.6444 0.6446
2760.000000 0.6449 0.6451 0.6453 0.6455 0.6457
2755.000000 0.6458 0.6461 0.6464 0.6465 0.6467
2750.000000 0.6468 0.6471 0.6472 0.6475 0.6476
2745.000000 0.6478 0.6481 0.6483 0.6486 0.6488
2740.000000 0.6491 0.6493 0.6496 0.6498 0.6501
2735.000000 0.6503 0.6506 0.6508 0.6511 0.6512
2730.000000 0.6515 0.6518 0.6521 0.6522 0.6525
2725.000000 0.6528 0.6530 0.6532 0.6535 0.6537
2720.000000 0.6540 0.6542 0.6545 0.6547 0.6550
2715.000000 0.6551 0.6555 0.6557 0.6558 0.6561
2710.000000 0.6564 0.6565 0.6568 0.6571 0.6572
2705.000000 0.6575 0.6578 0.6580 0.6583 0.6585
2700.000000 0.6588 0.6590 0.6593 0.6595 0.6598
2695.000000 0.6600 0.6603 0.6606 0.6608 0.6611
2690.000000 0.6614 0.6615 0.6618 0.6621 0.6624
2685.000000 0.6626 0.6630 0.6632 0.6635 0.6637
2680.000000 0.6640 0.6642 0.6645 0.6647 0.6649
2675.000000 0.6651 0.6654 0.6656 0.6658 0.6660
2670.000000 0.6661 0.6664 0.6665 0.6668 0.6669
2665.000000 0.6671 0.6674 0.6675 0.6678 0.6680
2660.000000 0.6682 0.6684 0.6687 0.6688 0.6690
2655.000000 0.6692 0.6694 0.6695 0.6697 0.6699
2650.000000 0.6701 0.6703 0.6705 0.6707 0.6710
2645.000000 0.6711 0.6715 0.6717 0.6718 0.6721
2640.000000 0.6724 0.6725 0.6728 0.6731 0.6734
2635.000000 0.6739 0.6745 0.6750 0.6756 0.6761
2630.000000 0.6767 0.6771 0.6778 0.6783 0.6789
2625.000000 0.6793 0.6798 0.6801 0.6807 0.6811
2620.000000 0.6815 0.6819 0.6824 0.6828 0.6833
2615.000000 0.6834 0.6835 0.6835 0.6835 0.6834
2610.000000 0.6834 0.6834 0.6834 0.6834 0.6834
2605.000000 0.6834 0.6834 0.6834 0.6834 0.6834
2600.000000 0.6834 0.6834 0.6834 0.6834 0.6835
2595.000000 0.6835 0.6836 0.6836 0.6837 0.6837
2590.000000 0.6838 0.6838 0.6839 0.6839 0.6840
2585.000000 0.6840 0.6841 0.6841 0.6841 0.6841
2580.000000 0.6842 0.6842 0.6843 0.6843 0.6844
2575.000000 0.6845 0.6846 0.6847 0.6848 0.6849
2570.000000 0.6850 0.6851 0.6853 0.6854 0.6855
2565.000000 0.6856 0.6858 0.6858 0.6860 0.6861
2560.000000 0.6861 0.6862 0.6865 0.6865 0.6867
2555.000000 0.6868 0.6869 0.6871 0.6871 0.6872
2550.000000 0.6874 0.6875 0.6876 0.6878 0.6881
2545.000000 0.6883 0.6885 0.6887 0.6889 0.6891
2540.000000 0.6893 0.6895 0.6897 0.6899 0.6901
2535.000000 0.6904 0.6906 0.6908 0.6910 0.6911
2530.000000 0.6914 0.6915 0.6918 0.6919 0.6921
2525.000000 0.6924 0.6925 0.6928 0.6930 0.6932
2520.000000 0.6934 0.6936 0.6938 0.6941 0.6945
2515.000000 0.6948 0.6951 0.6954 0.6958 0.6961
2510.000000 0.6964 0.6967 0.6969 0.6972 0.6976
2505.000000 0.6980 0.6983 0.6986 0.6990 0.6993
2500.000000 0.6996 0.6999 0.7001 0.7005 0.7008
2495.000000 0.7012 0.7018 0.7024 0.7030 0.7035
2490.000000 0.7041 0.7047 0.7053 0.7058 0.7065
2485.000000 0.7069 0.7075 0.7082 0.7088 0.7093
2480.000000 0.7099 0.7105 0.7111 0.7115 0.7121
2475.000000 0.7128 0.7134 0.7140 0.7147 0.7153
2470.000000 0.7158 0.7165 0.7171 0.7176 0.7183
2465.000000 0.7189 0.7195 0.7201 0.7207 0.7212
2460.000000 0.7218 0.7225 0.7231 0.7237 0.7243
2455.000000 0.7249 0.7255 0.7261 0.7268 0.7274
2450.000000 0.7280 0.7285 0.7290 0.7295 0.7301
2445.000000 0.7306 0.7311 0.7317 0.7322 0.7328
2440.000000 0.7334 0.7339 0.7345 0.7350 0.7356
2435.000000 0.7361 0.7365 0.7371 0.7376 0.7382
2430.000000 0.7388 0.7393 0.7399 0.7404 0.7410
2425.000000 0.7414 0.7418 0.7422 0.7428 0.7432
2420.000000 0.7437 0.7441 0.7446 0.7450 0.7455
2415.000000 0.7458 0.7464 0.7468 0.7472 0.7476
2410.000000 0.7482 0.7486 0.7491 0.7495 0.7499
2405.000000 0.7503 0.7507 0.7511 0.7515 0.7518
2400.000000 0.7521 0.7525 0.7530 0.7534 0.7538
2395.000000 0.7542 0.7546 0.7549 0.7553 0.7557
2390.000000 0.7561 0.7565 0.7568 0.7572 0.7576
2385.000000 0.7578 0.7582 0.7585 0.7588 0.7590
2380.000000 0.7593 0.7595 0.7598 0.7600 0.7603
2375.000000 0.7605 0.7608 0.7611 0.7614 0.7615
2370.000000 0.7618 0.7618 0.7621 0.7621 0.7621
2365.000000 0.7621 0.7621 0.7621 0.7621 0.7621
2360.000000 0.7621 0.7621 0.7621 0.7621 0.7621
2355.000000 0.7621 0.7621 0.7621 0.7621 0.7621
2350.000000 0.7621 0.7621 0.7621 0.7621 0.7622
2345.000000 0.7624 0.7625 0.7625 0.7626 0.7626
2340.000000 0.7626 0.7626 0.7625 0.7625 0.7624
2335.000000 0.7622 0.7622 0.7621 0.7621 0.7621
2330.000000 0.7624 0.7628 0.7633 0.7638 0.7643
2325.000000 0.7647 0.7651 0.7657 0.7661 0.7665
2320.000000 0.7669 0.7672 0.7676 0.7681 0.7685
2315.000000 0.7689 0.7693 0.7697 0.7701 0.7705
2310.000000 0.7708 0.7712 0.7717 0.7721 0.7725
2305.000000 0.7728 0.7733 0.7736 0.7740 0.7743
2300.000000 0.7747 0.7750 0.7754 0.7757 0.7761
2295.000000 0.7764 0.7768 0.7771 0.7775 0.7778
2290.000000 0.7782 0.7785 0.7789 0.7792 0.7796
2285.000000 0.7799 0.7803 0.7806 0.7810 0.7812
2280.000000 0.7817 0.7819 0.7824 0.7826 0.7831
2275.000000 0.7834 0.7838 0.7841 0.7845 0.7848
2270.000000 0.7851 0.7855 0.7858 0.7861 0.7865
2265.000000 0.7868 0.7872 0.7875 0.7880 0.7884
2260.000000 0.7888 0.7891 0.7895 0.7898 0.7901
2255.000000 0.7905 0.7908 0.7911 0.7915 0.7918
2250.000000 0.7922 0.7925 0.7930 0.7933 0.7937
2245.000000 0.7941 0.7945 0.7948 0.7951 0.7955
2240.000000 0.7958 0.7962 0.7968 0.7971 0.7976
2235.000000 0.7981 0.7985 0.7989 0.7994 0.7998
2230.000000 0.8001 0.8006 0.8011 0.8015 0.8019
2225.000000 0.8024 0.8028 0.8032 0.8037 0.8041
2220.000000 0.8046 0.8050 0.8054 0.8058 0.8062
2215.000000 0.8067 0.8071 0.8075 0.8080 0.8084
2210.000000 0.8089 0.8093 0.8097 0.8101 0.8105
2205.000000 0.8108 0.8112 0.8117 0.8121 0.8125
2200.000000 0.8128 0.8133 0.8137 0.8141 0.8145
2195.000000 0.8149 0.8153 0.8157 0.8161 0.8165
2190.000000 0.8168 0.8172 0.8176 0.8181 0.8185
2185.000000 0.8189 0.8193 0.8197 0.8201 0.8205
2180.000000 0.8209 0.8212 0.8216 0.8218 0.8221
2175.000000 0.8223 0.8225 0.8227 0.8230 0.8232
2170.000000 0.8235 0.8237 0.8239 0.8241 0.8244
2165.000000 0.8246 0.8248 0.8250 0.8253 0.8255
2160.000000 0.8257 0.8259 0.8262 0.8264 0.8267
2155.000000 0.8268 0.8271 0.8273 0.8275 0.8278
2150.000000 0.8282 0.8285 0.8288 0.8291 0.8295
2145.000000 0.8298 0.8301 0.8304 0.8308 0.8311
2140.000000 0.8314 0.8317 0.8321 0.8324 0.8327
2135.000000 0.8330 0.8333 0.8336 0.8340 0.8343
2130.000000 0.8346 0.8349 0.8353 0.8356 0.8359
2125.000000 0.8362 0.8366 0.8368 0.8373 0.8375
2120.000000 0.8378 0.8382 0.8386 0.8389 0.8393
2115.000000 0.8396 0.8400 0.8403 0.8406 0.8409
2110.000000 0.8413 0.8416 0.8420 0.8423 0.8427
2105.000000 0.8430 0.8433 0.8435 0.8438 0.8440
2100.000000 0.8442 0.8444 0.8447 0.8449 0.8451
2095.000000 0.8453 0.8455 0.8457 0.8460 0.8462
2090.000000 0.8464 0.8465 0.8466 0.8467 0.8468
2085.000000 0.8468 0.8471 0.8471 0.8473 0.8474
2080.000000 0.8475 0.8475 0.8478 0.8478 0.8480
2075.000000 0.8482 0.8484 0.8486 0.8488 0.8490
2070.000000 0.8492 0.8494 0.8496 0.8498 0.8501
2065.000000 0.8503 0.8505 0.8507 0.8509 0.8511
2060.000000 0.8514 0.8516 0.8518 0.8518 0.8521
2055.000000 0.8521 0.8524 0.8525 0.8527 0.8528
2050.000000 0.8531 0.8533 0.8535 0.8537 0.8540
2045.000000 0.8542 0.8545 0.8547 0.8550 0.8552
2040.000000 0.8555 0.8558 0.8561 0.8563 0.8566
2035.000000 0.8568 0.8570 0.8571 0.8573 0.8575
2030.000000 0.8577 0.8578 0.8581 0.8583 0.8586
2025.000000 0.8589 0.8592 0.8594 0.8597 0.8599
2020.000000 0.8602 0.8603 0.8605 0.8607 0.8609
2015.000000 0.8610 0.8612 0.8613 0.8615 0.8616
2010.000000 0.8618 0.8618 0.8618 0.8618 0.8620
2005.000000 0.8620 0.8621 0.8621 0.8621 0.8621
2000.000000 0.8621 0.8624 0.8625 0.8595 0.8562
1995.000000 0.8521 0.8483 0.8468 0.8494 0.8518
1990.000000 0.8541 0.8565 0.8588 0.8599 0.8603
1985.000000 0.8605 0.8607 0.8609 0.8610 0.8612
1980.000000 0.8614 0.8616 0.8618 0.8621 0.8623
1975.000000 0.8625 0.8628 0.8630 0.8632 0.8635
1970.000000 0.8637 0.8639 0.8639 0.8639 0.8638
1965.000000 0.8638 0.8638 0.8638 0.8638 0.8638
1960.000000 0.8638 0.8638 0.8638 0.8639 0.8640
1955.000000 0.8641 0.8642 0.8642 0.8643 0.8644
1950.000000 0.8645 0.8645 0.8646 0.8647 0.8647
1945.000000 0.8648 0.8648 0.8648 0.8649 0.8649
1940.000000 0.8649 0.8650 0.8650 0.8650 0.8651
1935.000000 0.8651 0.8651 0.8650 0.8648 0.8647
1930.000000 0.8645 0.8644 0.8644 0.8644 0.8643
1925.000000 0.8643 0.8644 0.8645 0.8646 0.8647
1920.000000 0.8648 0.8649 0.8650 0.8651 0.8652
1915.000000 0.8653 0.8654 0.8655 0.8656 0.8657
1910.000000 0.8659 0.8660 0.8661 0.8663 0.8664
1905.000000 0.8664 0.8663 0.8662 0.8662 0.8661
1900.000000 0.8660 0.8659 0.8656 0.8654 0.8651
1895.000000 0.8649 0.8647 0.8644 0.8642 0.8640
1890.000000 0.8636 0.8631 0.8628 0.8625 0.8625
1885.000000 0.8624 0.8624 0.8623 0.8621 0.8621
1880.000000 0.8621 0.8621 0.8621 0.8620 0.8620
1875.000000 0.8620 0.8618 0.8618 0.8618 0.8620
1870.000000 0.8621 0.8623 0.8625 0.8627 0.8630
1865.000000 0.8632 0.8636 0.8637 0.8640 0.8642
1860.000000 0.8645 0.8647 0.8649 0.8650 0.8651
1855.000000 0.8653 0.8654 0.8656 0.8657 0.8659
1850.000000 0.8660 0.8662 0.8663 0.8665 0.8666
1845.000000 0.8668 0.8668 0.8671 0.8671 0.8673
1840.000000 0.8674 0.8675 0.8677 0.8678 0.8678
1835.000000 0.8680 0.8681 0.8682 0.8683 0.8685
1830.000000 0.8686 0.8687 0.8688 0.8689 0.8691
1825.000000 0.8693 0.8696 0.8698 0.8700 0.8702
1820.000000 0.8704 0.8707 0.8709 0.8711 0.8713
1815.000000 0.8714 0.8716 0.8717 0.8718 0.8720
1810.000000 0.8721 0.8724 0.8725 0.8727 0.8728
1805.000000 0.8731 0.8731 0.8730 0.8728 0.8728
1800.000000 0.8727 0.8725 0.8725 0.8724 0.8718
1795.000000 0.8712 0.8706 0.8700 0.8694 0.8688
1790.000000 0.8682 0.8675 0.8668 0.8662 0.8655
1785.000000 0.8648 0.8641 0.8632 0.8624 0.8615
1780.000000 0.8606 0.8597 0.8584 0.8568 0.8554
1775.000000 0.8538 0.8523 0.8508 0.8488 0.8468
1770.000000 0.8449 0.8432 0.8413 0.8394 0.8375
1765.000000 0.8346 0.8309 0.8271 0.8233 0.8194
1760.000000 0.8155 0.8112 0.8062 0.8014 0.7951
1755.000000 0.7884 0.7828 0.7781 0.7732 0.7681
1750.000000 0.7628 0.7578 0.7525 0.7450 0.7356
1745.000000 0.7168 0.6961 0.6785 0.6519 0.6310
1740.000000 0.5667 0.5264 0.4860 0.4459 0.4056
1735.000000 0.3653 0.3250 0.2847 0.2444 0.2337
1730.000000 0.2357 0.2654 0.2950 0.3246 0.3543
1725.000000 0.3839 0.4136 0.4432 0.4729 0.5025
1720.000000 0.5322 0.5618 0.5915 0.6210 0.6472
1715.000000 0.6612 0.6728 0.6815 0.6917 0.7011
1710.000000 0.7047 0.7072 0.7100 0.7134 0.7122
1705.000000 0.7119 0.7092 0.7049 0.6975 0.6834
1700.000000 0.6515 0.6106 0.5697 0.5287 0.4877
1695.000000 0.4468 0.4246 0.4187 0.4143 0.4102
1690.000000 0.4060 0.4014 0.3964 0.3766 0.3418
1685.000000 0.3072 0.2724 0.2377 0.2250 0.2317
1680.000000 0.2503 0.2690 0.2876 0.3000 0.3022
1675.000000 0.3033 0.3041 0.3043 0.3043 0.3141
1670.000000 0.3304 0.3466 0.3629 0.3792 0.3955
1665.000000 0.4118 0.4281 0.4442 0.4600 0.4759
1660.000000 0.4917 0.5071 0.5194 0.5316 0.5455
1655.000000 0.5604 0.5738 0.5856 0.5974 0.6089
1650.000000 0.6201 0.6308 0.6368 0.6430 0.6512
1645.000000 0.6593 0.6668 0.6724 0.6765 0.6807
1640.000000 0.6851 0.6893 0.6921 0.6949 0.6972
1635.000000 0.6996 0.7010 0.7018 0.7021 0.7041
1630.000000 0.7026 0.7026 0.7024 0.7011 0.6999
1625.000000 0.6955 0.6904 0.6801 0.6618 0.6401
1620.000000 0.6226 0.5995 0.5660 0.5004 0.4285
1615.000000 0.4109 0.3992 0.3628 0.3037 0.2377
1610.000000 0.1716 0.1055 0.0740 0.0670 0.0629
1605.000000 0.0597 0.0580 0.0574 0.0594 0.0585
1600.000000 0.0742 0.1077 0.1319 0.1562 0.1804
1595.000000 0.2048 0.2291 0.2533 0.2776 0.3019
1590.000000 0.3262 0.3797 0.4092 0.4440 0.4731
1585.000000 0.4929 0.5110 0.5271 0.5492 0.5844
1580.000000 0.6028 0.6206 0.6294 0.6383 0.6471
1575.000000 0.6555 0.6628 0.6703 0.6776 0.6858
1570.000000 0.6948 0.7037 0.7119 0.7182 0.7245
1565.000000 0.7308 0.7371 0.7430 0.7488 0.7546
1560.000000 0.7603 0.7661 0.7712 0.7765 0.7815
1555.000000 0.7855 0.7888 0.7919 0.7953 0.7985
1550.000000 0.8015 0.8046 0.8071 0.8089 0.8108
1545.000000 0.8126 0.8145 0.8160 0.8172 0.8187
1540.000000 0.8201 0.8216 0.8230 0.8245 0.8260
1535.000000 0.8273 0.8285 0.8296 0.8308 0.8318
1530.000000 0.8331 0.8344 0.8356 0.8368 0.8380
1525.000000 0.8387 0.8394 0.8401 0.8408 0.8415
1520.000000 0.8418 0.8420 0.8421 0.8428 0.8435
1515.000000 0.8440 0.8443 0.8442 0.8441 0.8417
1510.000000 0.8418 0.8418 0.8403 0.8388 0.8371
1505.000000 0.8352 0.8321 0.8290 0.8255 0.8221
1500.000000 0.8185 0.8146 0.8107 0.8068 0.7998
1495.000000 0.7894 0.7751 0.7642 0.7515 0.7356
1490.000000 0.7122 0.6881 0.6530 0.6147 0.5765
1485.000000 0.5382 0.5000 0.4618 0.4550 0.4551
1480.000000 0.4551 0.4699 0.4881 0.5062 0.5245
1475.000000 0.5427 0.5609 0.5791 0.5973 0.6155
1470.000000 0.6298 0.6372 0.6424 0.6487 0.6544
1465.000000 0.6565 0.6557 0.6557 0.6557 0.6505
1460.000000 0.5897 0.5153 0.4409 0.3894 0.3880
1455.000000 0.3854 0.4039 0.4216 0.4394 0.4571
1450.000000 0.4749 0.4926 0.5104 0.5170 0.5191
1445.000000 0.5236 0.5100 0.4901 0.4703 0.4504
1440.000000 0.4306 0.4107 0.3909 0.3709 0.3512
1435.000000 0.3291 0.3226 0.3173 0.3195 0.3203
1430.000000 0.3264 0.3337 0.3409 0.3494 0.3594
1425.000000 0.3653 0.3682 0.3734 0.3694 0.3680
1420.000000 0.3662 0.3625 0.3589 0.3552 0.3514
1415.000000 0.3476 0.3438 0.3399 0.3359 0.3318
1410.000000 0.3250 0.3107 0.2868 0.2772 0.2693
1405.000000 0.2644 0.2618 0.2613 0.2585 0.2981
1400.000000 0.3107 0.3194 0.3268 0.3354 0.3464
1395.000000 0.3564 0.3645 0.3712 0.3791 0.3843
1390.000000 0.3859 0.3862 0.3864 0.3898 0.3777
1385.000000 0.3724 0.3582 0.3418 0.3209 0.3109
1380.000000 0.3030 0.2934 0.2909 0.2887 0.2866
1375.000000 0.2844 0.2816 0.2745 0.2612 0.2468
1370.000000 0.2325 0.2181 0.2037 0.1894 0.1751
1365.000000 0.1683 0.1699 0.1754 0.1909 0.2063
1360.000000 0.2216 0.2370 0.2524 0.2678 0.2832
1355.000000 0.2985 0.3132 0.3232 0.3294 0.3347
1350.000000 0.3393 0.3407 0.3416 0.3432 0.3425
1345.000000 0.3428 0.3408 0.3382 0.3309 0.3225
1340.000000 0.3126 0.3024 0.2934 0.2870 0.2807
1335.000000 0.2694 0.2527 0.2378 0.1742 0.1559
1330.000000 0.1400 0.1306 0.1269 0.1250 0.1255
1325.000000 0.1231 0.1230 0.1252 0.1382 0.1467
1320.000000 0.1527 0.1571 0.1610 0.1649 0.1696
1315.000000 0.1770 0.1844 0.1926 0.2014 0.2105
1310.000000 0.2202 0.2283 0.2349 0.2413 0.2478
1305.000000 0.2516 0.2554 0.2589 0.2623 0.2656
1300.000000 0.2673 0.2683 0.2695 0.2708 0.2740
1295.000000 0.2877 0.3048 0.3218 0.3347 0.3357
1290.000000 0.3356 0.3362 0.3295 0.3216 0.3137
1285.000000 0.3057 0.2978 0.2899 0.2819 0.2778
1280.000000 0.2803 0.3017 0.3252 0.3488 0.3724
1275.000000 0.3959 0.4195 0.4430 0.4666 0.4902
1270.000000 0.5137 0.5373 0.5600 0.5673 0.5739
1265.000000 0.5760 0.5770 0.5779 0.5782 0.5784
1260.000000 0.5825 0.5787 0.5787 0.5786 0.5783
1255.000000 0.5781 0.5775 0.5769 0.5762 0.5754
1250.000000 0.5730 0.5606 0.5297 0.5230 0.5193
1245.000000 0.5168 0.5142 0.5116 0.5017 0.4210
1240.000000 0.4077 0.3966 0.3858 0.3749 0.3641
1235.000000 0.3528 0.3414 0.3298 0.3198 0.3120
1230.000000 0.3067 0.3018 0.2956 0.2884 0.2819
1225.000000 0.2750 0.2698 0.2697 0.2701 0.2660
1220.000000 0.2906 0.3190 0.3474 0.3759 0.3957
1215.000000 0.3998 0.3986 0.3984 0.3968 0.3929
1210.000000 0.3795 0.3566 0.3388 0.3491 0.3750
1205.000000 0.4009 0.4268 0.4527 0.4674 0.4677
1200.000000 0.4578 0.4405 0.4231 0.3942 0.3973
1195.000000 0.3955 0.4003 0.4078 0.4148 0.4129
1190.000000 0.4000 0.3870 0.3739 0.3608 0.3449
1185.000000 0.3470 0.3547 0.3687 0.3826 0.3964
1180.000000 0.4104 0.4244 0.4383 0.4522 0.4660
1175.000000 0.4801 0.4940 0.5079 0.5218 0.5358
1170.000000 0.5497 0.5616 0.5625 0.5625 0.5618
1165.000000 0.5592 0.5552 0.5524 0.5588 0.5812
1160.000000 0.6037 0.6260 0.6485 0.6643 0.6707
1155.000000 0.6771 0.6834 0.6905 0.6972 0.7038
1150.000000 0.7103 0.7158 0.7212 0.7269 0.7305
1145.000000 0.7332 0.7348 0.7361 0.7371 0.7380
1140.000000 0.7399 0.7387 0.7374 0.7340 0.7265
1135.000000 0.7171 0.7111 0.7015 0.6871 0.6436
1130.000000 0.6326 0.6341 0.6407 0.6472 0.6540
1125.000000 0.6537 0.6518 0.5922 0.5327 0.4731
1120.000000 0.4135 0.3539 0.3327 0.3324 0.3722
1115.000000 0.4217 0.4712 0.5208 0.5703 0.6181
1110.000000 0.6565 0.6737 0.6845 0.6925 0.6998
1105.000000 0.7086 0.7171 0.7245 0.7265 0.7278
1100.000000 0.7278 0.7278 0.7221 0.7108 0.6994
1095.000000 0.6880 0.6767 0.6653 0.6539 0.6425
1090.000000 0.6310 0.6198 0.6084 0.6043 0.6036
1085.000000 0.6267 0.6521 0.6778 0.7033 0.7281
1080.000000 0.7311 0.7325 0.7256 0.7075 0.6896
1075.000000 0.6715 0.6586 0.6554 0.6687 0.6926
1070.000000 0.7167 0.7406 0.7500 0.7571 0.7645
1065.000000 0.7718 0.7786 0.7856 0.7930 0.7974
1060.000000 0.7987 0.7993 0.8011 0.7984 0.7965
1055.000000 0.7940 0.7907 0.7878 0.7875 0.7869
1050.000000 0.7864 0.7858 0.7841 0.7795 0.7701
1045.000000 0.7356 0.7006 0.6657 0.6307 0.5957
1040.000000 0.5896 0.5889 0.6125 0.6239 0.6271
1035.000000 0.6312 0.5939 0.5705 0.5687 0.5737
1030.000000 0.6108 0.6378 0.6331 0.6242 0.6219
1025.000000 0.6234 0.6517 0.6775 0.7035 0.7039
1020.000000 0.7065 0.6867 0.6669 0.6471 0.6275
1015.000000 0.6186 0.6306 0.6395 0.6336 0.6401
1010.000000 0.6174 0.6171 0.7051 0.7175 0.7290
1005.000000 0.7453 0.7551 0.7665 0.7726 0.7800
1000.000000 0.7821 0.7832 0.7839 0.7839 0.7839
995.000000 0.7760 0.7621 0.7425 0.7267 0.7232
990.000000 0.7225 0.7607 0.7691 0.7757 0.7799
985.000000 0.7806 0.7808 0.7803 0.7762 0.7711
980.000000 0.7675 0.7665 0.7672 0.7672 0.7754
975.000000 0.7836 0.7872 0.7895 0.7907 0.7918
970.000000 0.7919 0.7921 0.7937 0.7911 0.7900
965.000000 0.7888 0.7868 0.7819 0.7768 0.7725
960.000000 0.7672 0.7642 0.7626 0.7617 0.7596
955.000000 0.7548 0.7500 0.7482 0.7468 0.7432
950.000000 0.7464 0.7484 0.7515 0.7546 0.7561
945.000000 0.7571 0.7568 0.7412 0.7290 0.7167
940.000000 0.7096 0.7100 0.7244 0.7376 0.7511
935.000000 0.7575 0.7522 0.7417 0.7311 0.7205
930.000000 0.7110 0.7085 0.7078 0.7095 0.7291
925.000000 0.7530 0.7597 0.7664 0.7738 0.7803
920.000000 0.7858 0.7888 0.7908 0.7925 0.7936
915.000000 0.7946 0.7956 0.7961 0.7968 0.7985
910.000000 0.7975 0.7978 0.7978 0.7960 0.7922
905.000000 0.7868 0.7840 0.7818 0.7818 0.7824
900.000000 0.7881 0.7928 0.7934 0.7936 0.7931
895.000000 0.7915 0.7868 0.7528 0.7132 0.6735
890.000000 0.6615 0.6622 0.7030 0.7499 0.7583
885.000000 0.7665 0.7733 0.7793 0.7861 0.7903
880.000000 0.7943 0.7921 0.7925 0.7898 0.7655
875.000000 0.7542 0.7639 0.7760 0.7880 0.7999
870.000000 0.8045 0.8088 0.8126 0.8165 0.8200
865.000000 0.8232 0.8254 0.8267 0.8274 0.8275
860.000000 0.8275 0.8275 0.8280 0.8283 0.8271
855.000000 0.8259 0.8223 0.8181 0.8140 0.8021
850.000000 0.7910 0.6621 0.6610 0.6740 0.7017
845.000000 0.7294 0.7571 0.7782 0.7896 0.7996
840.000000 0.8074 0.8144 0.8175 0.8188 0.8198
835.000000 0.8199 0.8216 0.8201 0.8201 0.8191
830.000000 0.8164 0.8024 0.7575 0.7708 0.7600
825.000000 0.7624 0.7708 0.7683 0.7650 0.7564
820.000000 0.7590 0.7696 0.7848 0.7968 0.7971
815.000000 0.7988 0.8006 0.8051 0.8104 0.8157
810.000000 0.8220 0.8271 0.8302 0.8309 0.8324
805.000000 0.8285 0.8251 0.8188 0.8090 0.7901
800.000000 0.6868 0.4857 0.4908 0.5504 0.6101
795.000000 0.6697 0.7294 0.7644 0.7668 0.7691
790.000000 0.7600 0.7380 0.7147 0.7139 0.7161
785.000000 0.7597 0.7954 0.8057 0.8140 0.8208
780.000000 0.8236 0.8243 0.8257 0.8246 0.8235
775.000000 0.8225 0.8165 0.8019 0.7803 0.7722
770.000000 0.7747 0.7785 0.7908 0.8096 0.8126
765.000000 0.8135 0.8142 0.8151 0.8158 0.8168
760.000000 0.8175 0.8186 0.8196 0.8201 0.8205
755.000000 0.8208 0.8185 0.8169 0.8068 0.7858
750.000000 0.7538 0.7545 0.7575 0.7740 0.7903
745.000000 0.8065 0.8126 0.8156 0.8171 0.8196
740.000000 0.8178 0.8169 0.8156 0.8128 0.8072
735.000000 0.8004 0.7935 0.7865 0.7796 0.7725
730.000000 0.7617 0.7581 0.7546 0.7451 0.7330
725.000000 0.6949 0.6664 0.6375 0.6195 0.6176
720.000000 0.6214 0.6551 0.6878 0.6945 0.6967
715.000000 0.6974 0.6976 0.6968 0.6941 0.6933
710.000000 0.6948 0.7125 0.7303 0.7480 0.7540
705.000000 0.7558 0.7581 0.7628 0.7674 0.7718
700.000000 0.7715 0.7625 0.7465 0.7304 0.7143
695.000000 0.7011 0.6983 0.7001 0.7256 0.7530
690.000000 0.7765 0.7864 0.7906 0.7919 0.7978
685.000000 0.7931 0.7814 0.7697 0.7580 0.7462
680.000000 0.7346 0.7137 0.7150 0.7140 0.7378
675.000000 0.7601 0.7676 0.7744 0.7806 0.7861
670.000000 0.7835 0.7699 0.7506 0.7206 0.7218
665.000000 0.7341 0.7628 0.7918 0.8206 0.8432
660.000000 0.8600 0.8685 0.8753 0.8801 0.8842
655.000000 0.8868 0.8887 0.8902 0.8909 0.8917
650.000000 0.8923 0.8928 0.8933 0.8915 0.8939
645.000000 0.8943 0.8901 0.8767 0.8633 0.8499
640.000000 0.8365 0.8230 0.8083 0.8094 0.8357
635.000000 0.8643 0.8740 0.8778 0.8801 0.8818
630.000000 0.8817 0.8816 0.8640 0.8464 0.8316
625.000000 0.8307 0.8314 0.8490 0.8667 0.8728
620.000000 0.8780 0.8825 0.8864 0.8897 0.8915
615.000000 0.8928 0.8935 0.8964 0.8943 0.8944
610.000000 0.8940 0.8920 0.8893 0.8817 0.8706
605.000000 0.8587 0.8468 0.8351 0.8257 0.8254
600.000000 0.8316 0.8401 0.8486 0.8571 0.8578
595.000000 0.8578 0.8581 0.8592 0.8602 0.8640
590.000000 0.8697 0.8736 0.8763 0.8774 0.8797
585.000000 0.8782 0.8781 0.8778 0.8759 0.8721
580.000000 0.8696 0.8675 0.8658 0.8653 0.8644
575.000000 0.8625 0.8609 0.8571 0.8516 0.8450
570.000000 0.8430 0.8428 0.8428 0.8463 0.8575
565.000000 0.8630 0.8659 0.8671 0.8682 0.8685
560.000000 0.8689 0.8689 0.8688 0.8675 0.8616
555.000000 0.8554 0.8517 0.8493 0.8474 0.8464
550.000000 0.8453 0.8456 0.8494 0.8524 0.8544
545.000000 0.8561 0.8573 0.8582 0.8590 0.8596
540.000000 0.8601 0.8606 0.8612 0.8617 0.8621
535.000000 0.8625 0.8628 0.8632 0.8635 0.8638
530.000000 0.8643 0.8643 0.8645 0.8646 0.8647
525.000000 0.8646 0.8640 0.8633 0.8625 0.8618
520.000000 0.8610 0.8599 0.8588 0.8575 0.8566
515.000000 0.8555 0.8520 0.8458 0.8363 0.8105
510.000000 0.7924 0.7882 0.7868 0.7861 0.7861
505.000000 0.7912 0.7984 0.8065 0.8158 0.8244
500.000000 0.8293 0.8340 0.8381 0.8407 0.8428
495.000000 0.8450 0.8468 0.8481 0.8494 0.8504
490.000000 0.8512 0.8516 0.8494 0.8501 0.8455
485.000000 0.8400 0.8344 0.8287 0.8235 0.8201
480.000000 0.8172 0.8162 0.8164 0.8165 0.8167
475.000000 0.8169 0.8171 0.8171 0.8167 0.8161
470.000000 0.8132 0.8101 0.8083 0.8065 0.8047
465.000000 0.8028 0.8012 0.7999 0.7985 0.7971
460.000000 0.7958 0.7945 0.7932 0.7921 0.7914
455.000000 0.7907 0.7899 0.7895 0.7893 0.7889
450.000000 0.7883
##END=
