##TITLE=MAGNESIUM METABORATE
$$ C. P.
##JCAMP-DX=4.24
##DATA TYPE=INFRARED SPECTRUM
##CLASS=COBLENTZ
##ORIGIN=MELLON INSTITUTE
##OWNER=COBLENTZ SOCIETY
Collection (C) 2018 copyright by the U.S. Secretary of Commerce
on behalf of the United States of America. All rights reserved.
##DATE=Not specified, most likely prior to 1970
##MOLFORM=Mg ( B O2)2  * 8 H2 O
##SOURCE REFERENCE=COBLENTZ NO. 453
##$NIST ID=B6000453
##$NIST SOURCE=COBLENTZ
##$NIST IMAGE=cob453
##SPECTROMETER/DATA SYSTEM=Not specified, most likely a prism, grating, or hybrid spectrometer.
##STATE=SOLID (NUJOL MULL)
##PATH LENGTH=
$$SPECTRAL CONTAMINATION DUE TO OIL AROUND 2900 CM^-^1
##SAMPLING PROCEDURE=TRANSMISSION
##RESOLUTION=4
##DATA PROCESSING=DIGITIZED BY NIST FROM HARD COPY
##XUNITS=MICROMETERS
##YUNITS=TRANSMITTANCE
##XFACTOR=1.000000
##YFACTOR=1
##DELTAX=000.006655
##FIRSTX=2.008
##LASTX=15.8096
##FIRSTY=0.943
##MAXX=15.8096
##MINX=2.008
##MAXY=0.949
##MINY=0.149
##NPOINTS=2075
##XYDATA=(X++(Y..Y))
2.008000 0.9430 0.9430 0.9440 0.9440 0.9440
2.041289 0.9440 0.9440 0.9460 0.9460 0.9460
2.075000 0.9460 0.9460 0.9460 0.9460 0.9480
2.108289 0.9480 0.9460 0.9460 0.9440 0.9440
2.142000 0.9440 0.9440 0.9440 0.9430 0.9430
2.175289 0.9430 0.9430 0.9430 0.9430 0.9430
2.208000 0.9430 0.9430 0.9430 0.9430 0.9430
2.241289 0.9430 0.9410 0.9410 0.9410 0.9390
2.275000 0.9380 0.9380 0.9340 0.9320 0.9320
2.308289 0.9290 0.9260 0.9190 0.9190 0.9190
2.341000 0.9170 0.9170 0.9160 0.9160 0.9140
2.374289 0.9140 0.9140 0.9120 0.9120 0.9140
2.408000 0.9140 0.9110 0.9110 0.9090 0.9070
2.441289 0.9070 0.9060 0.9060 0.9040 0.9040
2.474000 0.9040 0.9040 0.9060 0.9060 0.9040
2.507289 0.9040 0.9040 0.9040 0.9040 0.9040
2.541000 0.9020 0.9020 0.9010 0.9010 0.8990
2.574289 0.8970 0.8960 0.8940 0.8940 0.8920
2.607000 0.8920 0.8910 0.8890 0.8870 0.8870
2.640289 0.8870 0.8820 0.8790 0.8770 0.8690
2.674000 0.8620 0.8540 0.8520 0.8500 0.8450
2.707289 0.8400 0.8300 0.8240 0.8050 0.7980
2.740000 0.7650 0.7470 0.7330 0.6850 0.6630
2.773289 0.6360 0.6030 0.5810 0.5340 0.5020
2.807000 0.4740 0.4380 0.4230 0.4050 0.3880
2.840289 0.3660 0.3480 0.3330 0.3280 0.3180
2.874000 0.3140 0.3130 0.3110 0.3110 0.3130
2.907289 0.3140 0.3190 0.3230 0.3230 0.3240
2.940000 0.3230 0.3180 0.3090 0.3040 0.2990
2.973289 0.2940 0.2930 0.2930 0.2930 0.2930
3.007000 0.2940 0.2990 0.3030 0.3080 0.3110
3.040289 0.3130 0.3140 0.3160 0.3210 0.3280
3.073000 0.3380 0.3480 0.3580 0.3750 0.3880
3.106289 0.3980 0.4130 0.4270 0.4370 0.4480
3.140000 0.4530 0.4690 0.4790 0.4900 0.5020
3.173289 0.5120 0.5190 0.5290 0.5390 0.5490
3.206000 0.5560 0.5660 0.5740 0.5870 0.5970
3.239289 0.6080 0.6210 0.6290 0.6430 0.6530
3.273000 0.6680 0.6760 0.6910 0.7010 0.7010
3.306289 0.7010 0.7000 0.6880 0.6480 0.5360
3.339000 0.5100 0.4790 0.4480 0.4000 0.3140
3.372289 0.2290 0.1940 0.1600 0.1500 0.1490
3.406000 0.1500 0.2010 0.2310 0.2690 0.2960
3.439289 0.3240 0.3550 0.3560 0.3480 0.3410
3.472000 0.3290 0.3280 0.3230 0.3230 0.3580
3.505289 0.3800 0.5070 0.5660 0.6360 0.7260
3.539000 0.7700 0.8090 0.8490 0.8670 0.8810
3.572289 0.8940 0.9010 0.9110 0.9170 0.9210
3.606000 0.9310 0.9320 0.9340 0.9340 0.9340
3.639289 0.9360 0.9360 0.9380 0.9380 0.9380
3.672000 0.9380 0.9380 0.9380 0.9390 0.9390
3.705289 0.9390 0.9390 0.9410 0.9390 0.9390
3.739000 0.9410 0.9410 0.9410 0.9410 0.9410
3.772289 0.9430 0.9430 0.9430 0.9430 0.9430
3.805000 0.9430 0.9440 0.9440 0.9460 0.9460
3.838289 0.9460 0.9460 0.9460 0.9480 0.9480
3.872000 0.9480 0.9490 0.9490 0.9490 0.9490
3.905289 0.9490 0.9490 0.9490 0.9490 0.9480
3.938000 0.9480 0.9480 0.9480 0.9490 0.9490
3.971289 0.9490 0.9480 0.9490 0.9480 0.9480
4.005000 0.9480 0.9480 0.9480 0.9460 0.9440
4.038289 0.9440 0.9440 0.9440 0.9430 0.9430
4.071000 0.9410 0.9390 0.9390 0.9380 0.9360
4.104289 0.9340 0.9320 0.9310 0.9290 0.9270
4.138000 0.9270 0.9270 0.9260 0.9240 0.9240
4.171289 0.9220 0.9220 0.9220 0.9210 0.9190
4.204000 0.9120 0.9090 0.9020 0.9020 0.8990
4.237289 0.8940 0.8920 0.8920 0.8920 0.8920
4.271000 0.8910 0.8910 0.8910 0.8910 0.8910
4.304289 0.8910 0.8890 0.8890 0.8890 0.8890
4.338000 0.8890 0.8890 0.8910 0.8920 0.8940
4.371289 0.8970 0.8990 0.9010 0.9010 0.9010
4.404000 0.9040 0.9090 0.9140 0.9160 0.9160
4.437289 0.9160 0.9160 0.9160 0.9170 0.9170
4.471000 0.9190 0.9170 0.9170 0.9190 0.9190
4.504289 0.9210 0.9210 0.9220 0.9220 0.9220
4.537000 0.9220 0.9240 0.9240 0.9260 0.9260
4.570289 0.9240 0.9240 0.9240 0.9260 0.9260
4.604000 0.9260 0.9270 0.9270 0.9270 0.9270
4.637289 0.9270 0.9260 0.9260 0.9270 0.9270
4.670000 0.9270 0.9270 0.9270 0.9270 0.9270
4.703289 0.9270 0.9270 0.9270 0.9290 0.9290
4.737000 0.9290 0.9290 0.9290 0.9290 0.9290
4.770289 0.9290 0.9290 0.9310 0.9310 0.9310
4.803000 0.9290 0.9310 0.9310 0.9310 0.9310
4.836289 0.9320 0.9320 0.9320 0.9320 0.9320
4.870000 0.9320 0.9340 0.9340 0.9340 0.9340
4.903289 0.9360 0.9340 0.9340 0.9340 0.9360
4.936000 0.9360 0.9360 0.9360 0.9360 0.9360
4.969289 0.9360 0.9360 0.9380 0.9360 0.9360
5.003000 0.9360 0.9360 0.9360 0.9360 0.9380
5.036289 0.9380 0.9380 0.9380 0.9380 0.9380
5.070000 0.9380 0.9380 0.9380 0.9380 0.9380
5.103289 0.9380 0.9380 0.9380 0.9380 0.9380
5.136000 0.9380 0.9380 0.9390 0.9390 0.9390
5.169289 0.9390 0.9380 0.9380 0.9380 0.9390
5.203000 0.9380 0.9390 0.9390 0.9390 0.9390
5.236289 0.9390 0.9390 0.9390 0.9390 0.9390
5.269000 0.9390 0.9390 0.9390 0.9390 0.9390
5.302289 0.9390 0.9380 0.9380 0.9380 0.9380
5.336000 0.9380 0.9380 0.9360 0.9360 0.9360
5.369289 0.9380 0.9380 0.9380 0.9380 0.9360
5.402000 0.9360 0.9360 0.9380 0.9360 0.9340
5.435289 0.9340 0.9340 0.9340 0.9340 0.9340
5.469000 0.9340 0.9320 0.9320 0.9320 0.9320
5.502289 0.9310 0.9310 0.9310 0.9310 0.9310
5.535000 0.9290 0.9290 0.9290 0.9290 0.9290
5.568289 0.9290 0.9290 0.9290 0.9290 0.9290
5.602000 0.9290 0.9290 0.9270 0.9270 0.9270
5.635289 0.9270 0.9270 0.9270 0.9270 0.9270
5.668000 0.9270 0.9270 0.9270 0.9290 0.9290
5.701289 0.9290 0.9290 0.9290 0.9290 0.9290
5.735000 0.9290 0.9290 0.9290 0.9270 0.9270
5.768289 0.9260 0.9240 0.9240 0.9220 0.9210
5.802000 0.9190 0.9170 0.9160 0.9160 0.9160
5.835289 0.9160 0.9140 0.9120 0.9090 0.9040
5.868000 0.9040 0.9040 0.9020 0.9010 0.8990
5.901289 0.8960 0.8940 0.8920 0.8890 0.8870
5.935000 0.8840 0.8820 0.8710 0.8600 0.8540
5.968289 0.8420 0.8340 0.8250 0.8170 0.8050
6.001000 0.8000 0.7980 0.7930 0.7900 0.7880
6.034289 0.7870 0.7850 0.7830 0.7830 0.7820
6.068000 0.7800 0.7780 0.7780 0.7780 0.7770
6.101289 0.7770 0.7770 0.7780 0.7770 0.7770
6.134000 0.7770 0.7770 0.7770 0.7780 0.7800
6.167289 0.7950 0.8040 0.8140 0.8220 0.8290
6.201000 0.8340 0.8400 0.8490 0.8500 0.8550
6.234289 0.8590 0.8640 0.8650 0.8690 0.8710
6.267000 0.8740 0.8760 0.8770 0.8770 0.8790
6.300289 0.8790 0.8790 0.8790 0.8790 0.8790
6.334000 0.8790 0.8790 0.8770 0.8770 0.8770
6.367289 0.8760 0.8740 0.8720 0.8720 0.8710
6.400000 0.8690 0.8690 0.8670 0.8670 0.8650
6.433289 0.8640 0.8640 0.8620 0.8600 0.8600
6.467000 0.8590 0.8570 0.8570 0.8550 0.8540
6.500289 0.8540 0.8520 0.8500 0.8500 0.8490
6.534000 0.8470 0.8450 0.8440 0.8440 0.8420
6.567289 0.8400 0.8390 0.8370 0.8350 0.8350
6.600000 0.8340 0.8300 0.8270 0.8250 0.8240
6.633289 0.8200 0.8190 0.8150 0.8090 0.8040
6.667000 0.7980 0.7850 0.7770 0.7650 0.7520
6.700289 0.7450 0.7280 0.7180 0.7030 0.6930
6.733000 0.6700 0.6590 0.6390 0.6130 0.5870
6.766289 0.5710 0.5490 0.5370 0.5150 0.5040
6.800000 0.4840 0.4570 0.4420 0.4300 0.4100
6.833289 0.3960 0.3850 0.3700 0.3550 0.3510
6.866000 0.3480 0.3410 0.3380 0.3330 0.3280
6.899289 0.3210 0.3190 0.3130 0.3060 0.3030
6.933000 0.2990 0.2980 0.2960 0.2930 0.2910
6.966289 0.2890 0.2880 0.2860 0.2830 0.2810
6.999000 0.2780 0.2740 0.2710 0.2680 0.2660
7.032289 0.2640 0.2620 0.2620 0.2610 0.2610
7.066000 0.2610 0.2610 0.2610 0.2610 0.2610
7.099289 0.2610 0.2620 0.2620 0.2620 0.2660
7.132000 0.2690 0.2710 0.2710 0.2740 0.2760
7.165289 0.2760 0.2760 0.2760 0.2760 0.2760
7.199000 0.2730 0.2710 0.2660 0.2610 0.2560
7.232289 0.2520 0.2470 0.2390 0.2340 0.2290
7.266000 0.2260 0.2220 0.2210 0.2190 0.2190
7.299289 0.2170 0.2160 0.2160 0.2140 0.2140
7.332000 0.2140 0.2120 0.2140 0.2140 0.2140
7.365289 0.2160 0.2160 0.2170 0.2210 0.2220
7.399000 0.2270 0.2340 0.2410 0.2520 0.2590
7.432289 0.2760 0.2810 0.2960 0.3130 0.3230
7.465000 0.3410 0.3550 0.3780 0.3960 0.4120
7.498289 0.4430 0.4570 0.4790 0.5100 0.5290
7.532000 0.5390 0.5460 0.5590 0.5660 0.5740
7.565289 0.5810 0.5970 0.6010 0.6090 0.6160
7.598000 0.6230 0.6310 0.6430 0.6490 0.6560
7.631289 0.6630 0.6680 0.6760 0.6800 0.6850
7.665000 0.6880 0.6910 0.6950 0.6980 0.7010
7.698289 0.7030 0.7030 0.7050 0.7110 0.7110
7.731000 0.7130 0.7150 0.7150 0.7160 0.7160
7.764289 0.7160 0.7180 0.7180 0.7180 0.7180
7.798000 0.7160 0.7150 0.7130 0.7110 0.7080
7.831289 0.7030 0.7010 0.6980 0.6960 0.6900
7.864000 0.6850 0.6810 0.6760 0.6700 0.6610
7.897289 0.6580 0.6480 0.6380 0.6330 0.6240
7.931000 0.6110 0.6040 0.6010 0.5970 0.5840
7.964289 0.5760 0.5660 0.5520 0.5370 0.5200
7.998000 0.5040 0.4970 0.4890 0.4800 0.4750
8.031289 0.4700 0.4580 0.4530 0.4470 0.4380
8.064000 0.4350 0.4320 0.4300 0.4280 0.4250
8.097289 0.4230 0.4220 0.4200 0.4200 0.4180
8.131000 0.4180 0.4170 0.4170 0.4150 0.4150
8.164289 0.4130 0.4130 0.4130 0.4120 0.4130
8.197000 0.4130 0.4130 0.4130 0.4150 0.4150
8.230289 0.4150 0.4170 0.4180 0.4180 0.4200
8.264000 0.4220 0.4220 0.4230 0.4230 0.4230
8.297289 0.4250 0.4250 0.4250 0.4250 0.4250
8.330000 0.4250 0.4250 0.4250 0.4250 0.4250
8.363289 0.4250 0.4250 0.4230 0.4230 0.4220
8.397000 0.4220 0.4200 0.4180 0.4150 0.4130
8.430289 0.4130 0.4120 0.4080 0.4030 0.4020
8.463000 0.4020 0.3980 0.3980 0.3960 0.3910
8.496289 0.3860 0.3750 0.3700 0.3650 0.3580
8.530000 0.3550 0.3530 0.3510 0.3500 0.3480
8.563289 0.3460 0.3430 0.3400 0.3380 0.3350
8.596000 0.3310 0.3260 0.3230 0.3190 0.3180
8.629289 0.3140 0.3130 0.3110 0.3090 0.3060
8.663000 0.3030 0.3010 0.2990 0.2990 0.2980
8.696289 0.2960 0.2930 0.2930 0.2910 0.2910
8.730000 0.2890 0.2880 0.2840 0.2840 0.2830
8.763289 0.2830 0.2830 0.2830 0.2830 0.2830
8.796000 0.2810 0.2810 0.2790 0.2790 0.2790
8.829289 0.2790 0.2790 0.2790 0.2790 0.2810
8.863000 0.2810 0.2810 0.2810 0.2810 0.2810
8.896289 0.2810 0.2810 0.2810 0.2810 0.2810
8.929000 0.2810 0.2810 0.2810 0.2790 0.2790
8.962289 0.2790 0.2790 0.2780 0.2760 0.2740
8.996000 0.2730 0.2730 0.2710 0.2710 0.2690
9.029289 0.2690 0.2680 0.2680 0.2640 0.2640
9.062000 0.2640 0.2620 0.2610 0.2610 0.2590
9.095289 0.2590 0.2560 0.2540 0.2540 0.2520
9.129000 0.2520 0.2520 0.2520 0.2520 0.2510
9.162289 0.2510 0.2490 0.2490 0.2490 0.2470
9.195000 0.2470 0.2470 0.2470 0.2470 0.2470
9.228289 0.2470 0.2470 0.2470 0.2490 0.2490
9.262000 0.2520 0.2520 0.2540 0.2570 0.2620
9.295289 0.2680 0.2760 0.2830 0.2910 0.2980
9.328000 0.3040 0.3130 0.3190 0.3260 0.3350
9.361289 0.3450 0.3530 0.3650 0.3750 0.3800
9.395000 0.3950 0.4000 0.4170 0.4230 0.4300
9.428289 0.4380 0.4430 0.4520 0.4600 0.4670
9.462000 0.4700 0.4750 0.4820 0.4820 0.4900
9.495289 0.4940 0.4970 0.5000 0.5020 0.5040
9.528000 0.5050 0.5070 0.5090 0.5090 0.5090
9.561289 0.5120 0.5140 0.5140 0.5140 0.5140
9.595000 0.5140 0.5120 0.5120 0.5100 0.5090
9.628289 0.5050 0.5040 0.5020 0.4990 0.4990
9.661000 0.4970 0.4940 0.4890 0.4890 0.4870
9.694289 0.4820 0.4790 0.4770 0.4720 0.4690
9.728000 0.4650 0.4620 0.4580 0.4550 0.4520
9.761289 0.4480 0.4480 0.4430 0.4420 0.4400
9.794000 0.4380 0.4350 0.4330 0.4320 0.4320
9.827289 0.4300 0.4280 0.4280 0.4270 0.4270
9.861000 0.4250 0.4230 0.4220 0.4200 0.4200
9.894289 0.4180 0.4180 0.4180 0.4180 0.4180
9.927000 0.4180 0.4180 0.4170 0.4170 0.4170
9.960289 0.4170 0.4170 0.4170 0.4170 0.4180
9.994000 0.4180 0.4200 0.4200 0.4220 0.4220
10.027289 0.4230 0.4230 0.4250 0.4280 0.4300
10.060000 0.4330 0.4370 0.4400 0.4420 0.4500
10.093289 0.4530 0.4550 0.4600 0.4630 0.4720
10.127000 0.4750 0.4800 0.4870 0.4920 0.4990
10.160289 0.5040 0.5100 0.5140 0.5190 0.5240
10.194000 0.5300 0.5390 0.5420 0.5490 0.5590
10.227289 0.5590 0.5640 0.5690 0.5760 0.5820
10.260000 0.5840 0.5910 0.5970 0.5990 0.6010
10.293289 0.6030 0.6040 0.6060 0.6110 0.6130
10.327000 0.6140 0.6140 0.6160 0.6160 0.6160
10.360289 0.6140 0.6140 0.6130 0.6090 0.6080
10.393000 0.6060 0.6010 0.5970 0.5870 0.5840
10.426289 0.5790 0.5720 0.5690 0.5660 0.5620
10.460000 0.5560 0.5520 0.5510 0.5510 0.5510
10.493289 0.5490 0.5490 0.5470 0.5490 0.5490
10.526000 0.5510 0.5540 0.5590 0.5620 0.5670
10.559289 0.5720 0.5790 0.5860 0.5990 0.6040
10.593000 0.6110 0.6190 0.6260 0.6380 0.6460
10.626289 0.6540 0.6610 0.6680 0.6800 0.6860
10.659000 0.6930 0.6980 0.7030 0.7080 0.7150
10.692289 0.7210 0.7260 0.7300 0.7350 0.7400
10.726000 0.7450 0.7500 0.7530 0.7570 0.7600
10.759289 0.7630 0.7670 0.7720 0.7770 0.7780
10.792000 0.7800 0.7830 0.7870 0.7880 0.7920
10.825289 0.7950 0.7980 0.8000 0.8020 0.8040
10.859000 0.8050 0.8070 0.8100 0.8120 0.8140
10.892289 0.8140 0.8150 0.8150 0.8150 0.8170
10.926000 0.8170 0.8190 0.8190 0.8190 0.8190
10.959289 0.8190 0.8190 0.8190 0.8190 0.8170
10.992000 0.8150 0.8140 0.8120 0.8120 0.8100
11.025289 0.8090 0.8090 0.8070 0.8050 0.8040
11.059000 0.8020 0.8020 0.7980 0.7980 0.7950
11.092289 0.7930 0.7920 0.7900 0.7880 0.7870
11.125000 0.7850 0.7830 0.7830 0.7820 0.7800
11.158289 0.7780 0.7780 0.7770 0.7770 0.7770
11.192000 0.7770 0.7770 0.7780 0.7780 0.7800
11.225289 0.7820 0.7820 0.7830 0.7830 0.7850
11.258000 0.7880 0.7900 0.7930 0.7950 0.7950
11.291289 0.7970 0.7970 0.7970 0.7980 0.7980
11.325000 0.8000 0.7980 0.7980 0.7980 0.7980
11.358289 0.7980 0.7970 0.7950 0.7930 0.7920
11.391000 0.7880 0.7850 0.7830 0.7780 0.7730
11.424289 0.7720 0.7700 0.7670 0.7630 0.7620
11.458000 0.7550 0.7530 0.7520 0.7480 0.7450
11.491289 0.7430 0.7380 0.7310 0.7250 0.7210
11.525000 0.7130 0.7100 0.7000 0.6930 0.6880
11.558289 0.6850 0.6780 0.6750 0.6700 0.6640
11.591000 0.6630 0.6560 0.6490 0.6430 0.6360
11.624289 0.6340 0.6310 0.6260 0.6190 0.6160
11.658000 0.6130 0.6080 0.6030 0.5990 0.5970
11.691289 0.5940 0.5920 0.5890 0.5860 0.5840
11.724000 0.5820 0.5810 0.5770 0.5760 0.5740
11.757289 0.5710 0.5690 0.5690 0.5670 0.5660
11.791000 0.5640 0.5620 0.5620 0.5610 0.5610
11.824289 0.5590 0.5570 0.5560 0.5560 0.5540
11.857000 0.5540 0.5540 0.5520 0.5520 0.5520
11.890289 0.5520 0.5520 0.5520 0.5510 0.5510
11.924000 0.5510 0.5510 0.5510 0.5510 0.5510
11.957289 0.5510 0.5510 0.5490 0.5490 0.5490
11.990000 0.5490 0.5490 0.5490 0.5490 0.5510
12.023289 0.5510 0.5510 0.5510 0.5520 0.5520
12.057000 0.5520 0.5520 0.5520 0.5520 0.5540
12.090289 0.5560 0.5610 0.5620 0.5640 0.5660
12.123000 0.5670 0.5670 0.5670 0.5670 0.5670
12.156289 0.5670 0.5670 0.5660 0.5640 0.5620
12.190000 0.5620 0.5590 0.5560 0.5520 0.5470
12.223289 0.5460 0.5390 0.5340 0.5240 0.5140
12.257000 0.4990 0.4920 0.4790 0.4700 0.4550
12.290289 0.4530 0.4430 0.4370 0.4280 0.4220
12.323000 0.4130 0.4120 0.4050 0.4020 0.4000
12.356289 0.3980 0.3980 0.3960 0.3930 0.3930
12.390000 0.3910 0.3910 0.3900 0.3900 0.3900
12.423289 0.3900 0.3910 0.3930 0.3930 0.3950
12.456000 0.3980 0.4000 0.4000 0.4020 0.4070
12.489289 0.4120 0.4170 0.4250 0.4300 0.4350
12.523000 0.4450 0.4530 0.4620 0.4700 0.4740
12.556289 0.4840 0.4890 0.4990 0.5040 0.5140
12.589000 0.5170 0.5240 0.5340 0.5410 0.5490
12.622289 0.5560 0.5610 0.5670 0.5760 0.5810
12.656000 0.5870 0.5910 0.5990 0.6040 0.6080
12.689289 0.6130 0.6210 0.6240 0.6280 0.6360
12.722000 0.6390 0.6440 0.6480 0.6530 0.6540
12.755289 0.6580 0.6610 0.6640 0.6660 0.6710
12.789000 0.6760 0.6780 0.6800 0.6830 0.6850
12.822289 0.6880 0.6910 0.6930 0.6980 0.7000
12.855000 0.7010 0.7030 0.7050 0.7100 0.7110
12.888289 0.7130 0.7150 0.7180 0.7200 0.7210
12.922000 0.7230 0.7250 0.7260 0.7260 0.7280
12.955289 0.7300 0.7330 0.7330 0.7350 0.7370
12.989000 0.7380 0.7380 0.7420 0.7430 0.7450
13.022289 0.7470 0.7480 0.7500 0.7520 0.7520
13.055000 0.7530 0.7550 0.7570 0.7570 0.7580
13.088289 0.7600 0.7620 0.7620 0.7630 0.7650
13.122000 0.7650 0.7670 0.7670 0.7680 0.7680
13.155289 0.7700 0.7700 0.7720 0.7730 0.7730
13.188000 0.7730 0.7750 0.7750 0.7770 0.7780
13.221289 0.7780 0.7800 0.7800 0.7800 0.7820
13.255000 0.7820 0.7820 0.7820 0.7830 0.7850
13.288289 0.7850 0.7850 0.7850 0.7850 0.7870
13.321000 0.7870 0.7880 0.7880 0.7880 0.7900
13.354289 0.7900 0.7920 0.7920 0.7920 0.7930
13.388000 0.7930 0.7930 0.7930 0.7930 0.7930
13.421289 0.7950 0.7950 0.7950 0.7950 0.7930
13.454000 0.7950 0.7950 0.7950 0.7950 0.7930
13.487289 0.7930 0.7930 0.7930 0.7930 0.7930
13.521000 0.7930 0.7920 0.7920 0.7900 0.7900
13.554289 0.7900 0.7900 0.7900 0.7880 0.7870
13.587000 0.7870 0.7870 0.7850 0.7850 0.7820
13.620289 0.7820 0.7800 0.7800 0.7780 0.7770
13.654000 0.7750 0.7750 0.7730 0.7720 0.7720
13.687289 0.7700 0.7700 0.7680 0.7670 0.7650
13.721000 0.7630 0.7620 0.7600 0.7580 0.7550
13.754289 0.7530 0.7520 0.7500 0.7480 0.7480
13.787000 0.7480 0.7450 0.7450 0.7450 0.7430
13.820289 0.7420 0.7370 0.7370 0.7350 0.7330
13.854000 0.7330 0.7310 0.7310 0.7300 0.7280
13.887289 0.7260 0.7260 0.7250 0.7230 0.7230
13.920000 0.7210 0.7200 0.7180 0.7180 0.7160
13.953289 0.7150 0.7130 0.7130 0.7110 0.7110
13.987000 0.7100 0.7100 0.7080 0.7060 0.7050
14.020289 0.7050 0.7030 0.7030 0.7030 0.7030
14.053000 0.7010 0.7010 0.7000 0.7000 0.7000
14.086289 0.6980 0.6980 0.6980 0.6960 0.6960
14.120000 0.6960 0.6960 0.6950 0.6950 0.6950
14.153289 0.6930 0.6930 0.6930 0.6930 0.6930
14.186000 0.6930 0.6930 0.6930 0.6930 0.6930
14.219289 0.6930 0.6930 0.6930 0.6930 0.6910
14.253000 0.6910 0.6910 0.6900 0.6900 0.6900
14.286289 0.6900 0.6900 0.6900 0.6900 0.6900
14.319000 0.6900 0.6900 0.6900 0.6880 0.6880
14.352289 0.6880 0.6860 0.6850 0.6850 0.6850
14.386000 0.6830 0.6810 0.6810 0.6810 0.6810
14.419289 0.6800 0.6780 0.6750 0.6750 0.6750
14.453000 0.6730 0.6730 0.6730 0.6710 0.6710
14.486289 0.6710 0.6700 0.6680 0.6680 0.6680
14.519000 0.6680 0.6660 0.6660 0.6660 0.6640
14.552289 0.6640 0.6630 0.6630 0.6630 0.6630
14.586000 0.6610 0.6590 0.6590 0.6590 0.6580
14.619289 0.6560 0.6560 0.6540 0.6540 0.6540
14.652000 0.6540 0.6530 0.6530 0.6510 0.6510
14.685289 0.6510 0.6510 0.6510 0.6490 0.6490
14.719000 0.6480 0.6480 0.6460 0.6480 0.6480
14.752289 0.6480 0.6480 0.6480 0.6460 0.6460
14.785000 0.6460 0.6460 0.6440 0.6440 0.6440
14.818289 0.6430 0.6430 0.6430 0.6410 0.6410
14.852000 0.6410 0.6410 0.6410 0.6410 0.6410
14.885289 0.6410 0.6390 0.6390 0.6390 0.6380
14.918000 0.6380 0.6380 0.6380 0.6380 0.6360
14.951289 0.6380 0.6360 0.6360 0.6360 0.6340
14.985000 0.6330 0.6330 0.6330 0.6330 0.6310
15.018289 0.6310 0.6290 0.6290 0.6290 0.6290
15.051000 0.6280 0.6280 0.6280 0.6280 0.6280
15.084289 0.6280 0.6280 0.6280 0.6280 0.6280
15.118000 0.6260 0.6260 0.6260 0.6260 0.6260
15.151289 0.6240 0.6240 0.6240 0.6240 0.6240
15.185000 0.6240 0.6240 0.6240 0.6240 0.6240
15.218289 0.6240 0.6240 0.6240 0.6240 0.6240
15.251000 0.6240 0.6230 0.6230 0.6210 0.6210
15.284289 0.6210 0.6190 0.6190 0.6190 0.6190
15.318000 0.6190 0.6190 0.6190 0.6180 0.6180
15.351289 0.6160 0.6160 0.6160 0.6160 0.6160
15.384000 0.6160 0.6160 0.6140 0.6140 0.6130
15.417289 0.6130 0.6130 0.6110 0.6110 0.6110
15.451000 0.6110 0.6110 0.6130 0.6130 0.6130
15.484289 0.6110 0.6110 0.6110 0.6110 0.6110
15.517000 0.6110 0.6110 0.6110 0.6090 0.6090
15.550289 0.6090 0.6090 0.6090 0.6090 0.6090
15.584000 0.6080 0.6090 0.6090 0.6080 0.6080
15.617289 0.6080 0.6080 0.6080 0.6080 0.6080
15.650000 0.6060 0.6060 0.6060 0.6060 0.6060
15.683289 0.6060 0.6040 0.6040 0.6040 0.6040
15.717000 0.6040 0.6040 0.6030 0.6030 0.6030
15.750289 0.6030 0.6030 0.6030 0.6030 0.6030
15.783000 0.6030 0.6030 0.6030 0.6030 0.6030
##END=
