##TITLE=o-HYDROXYBENZOYL RUTHENOCENE
##JCAMP-DX=4.24
##DATA TYPE=INFRARED SPECTRUM
##CLASS=COBLENTZ
##ORIGIN=WYANDOTTE CHEMICALS CORP., WYANDOTTE, MICHIGAN, USA
##OWNER=COBLENTZ SOCIETY
Collection (C) 2018 copyright by the U.S. Secretary of Commerce
on behalf of the United States of America. All rights reserved.
##DATE=Not specified, most likely prior to 1970
##MOLFORM=C17 H14 O2 Ru
##SOURCE REFERENCE=COBLENTZ NO. 3141
##$NIST ID=B6003141
##$NIST SOURCE=COBLENTZ
##$NIST IMAGE=cob3141
##SPECTROMETER/DATA SYSTEM=Not specified, most likely a prism, grating, or hybrid spectrometer.
##STATE=SOLID (MINERAL OIL MULL)
##PATH LENGTH=
$$SPECTRAL CONTAMINATION DUE TO OIL AROUND 2900 CM^-^1
##SAMPLING PROCEDURE=TRANSMISSION
##RESOLUTION=4
##DATA PROCESSING=DIGITIZED BY NIST FROM HARD COPY
##XUNITS=MICROMETERS
##YUNITS=TRANSMITTANCE
##XFACTOR=1.000000
##YFACTOR=1
##DELTAX=000.006793
##FIRSTX=2.014
##LASTX=15.9934
##FIRSTY=0.349
##MAXX=15.9934
##MINX=2.014
##MAXY=0.943
##MINY=0.04
##NPOINTS=2059
##XYDATA=(X++(Y..Y))
2.014000 0.3490 0.3530 0.3540 0.3540 0.3560
2.047981 0.3580 0.3580 0.3600 0.3610 0.3650
2.082000 0.3660 0.3680 0.3680 0.3700 0.3720
2.115981 0.3730 0.3730 0.3750 0.3770 0.3780
2.149000 0.3780 0.3800 0.3820 0.3830 0.3830
2.182981 0.3870 0.3890 0.3900 0.3920 0.3940
2.217000 0.3940 0.3950 0.3950 0.3990 0.3990
2.250981 0.4010 0.4020 0.4060 0.4070 0.4110
2.285000 0.4120 0.4160 0.4180 0.4190 0.4210
2.318981 0.4230 0.4260 0.4300 0.4330 0.4350
2.353000 0.4350 0.4350 0.4360 0.4360 0.4380
2.386981 0.4380 0.4400 0.4400 0.4430 0.4450
2.421000 0.4480 0.4500 0.4530 0.4550 0.4530
2.454981 0.4530 0.4530 0.4480 0.4470 0.4470
2.489000 0.4470 0.4470 0.4470 0.4480 0.4500
2.522981 0.4550 0.4600 0.4600 0.4620 0.4650
2.557000 0.4740 0.4810 0.4880 0.4910 0.4940
2.590981 0.4960 0.4980 0.4960 0.4910 0.4890
2.625000 0.4860 0.4860 0.4880 0.4960 0.4980
2.658981 0.5000 0.5050 0.5080 0.5100 0.5100
2.693000 0.5100 0.5110 0.5110 0.5110 0.5130
2.726981 0.5130 0.5150 0.5170 0.5180 0.5200
2.761000 0.5220 0.5220 0.5220 0.5250 0.5270
2.794981 0.5270 0.5290 0.5290 0.5300 0.5300
2.829000 0.5300 0.5300 0.5320 0.5320 0.5320
2.862981 0.5340 0.5340 0.5350 0.5350 0.5350
2.897000 0.5340 0.5350 0.5350 0.5370 0.5370
2.930981 0.5390 0.5390 0.5390 0.5390 0.5390
2.965000 0.5400 0.5400 0.5390 0.5400 0.5390
2.998981 0.5390 0.5370 0.5370 0.5350 0.5350
3.033000 0.5350 0.5340 0.5320 0.5320 0.5320
3.066981 0.5300 0.5290 0.5250 0.5230 0.5200
3.100000 0.5150 0.5110 0.5100 0.5080 0.5080
3.133981 0.5050 0.4980 0.4960 0.4910 0.4860
3.168000 0.4820 0.4810 0.4790 0.4790 0.4760
3.201981 0.4720 0.4690 0.4670 0.4650 0.4450
3.236000 0.4260 0.4110 0.3950 0.3800 0.3630
3.269981 0.3630 0.3700 0.3890 0.4060 0.4280
3.304000 0.4430 0.4450 0.4430 0.4380 0.4280
3.337981 0.4110 0.3830 0.3440 0.2910 0.2210
3.372000 0.1550 0.1190 0.0950 0.0830 0.0680
3.405981 0.0580 0.0520 0.0490 0.0490 0.0510
3.440000 0.0660 0.0900 0.1160 0.1460 0.1720
3.473981 0.2030 0.2080 0.2080 0.2030 0.2010
3.508000 0.1790 0.1800 0.2110 0.2500 0.3050
3.541981 0.3720 0.4450 0.5110 0.5690 0.6050
3.576000 0.6260 0.6330 0.6430 0.6530 0.6630
3.609981 0.6700 0.6700 0.6680 0.6680 0.6700
3.644000 0.6720 0.6720 0.6740 0.6770 0.6750
3.677981 0.6740 0.6740 0.6720 0.6720 0.6720
3.712000 0.6740 0.6740 0.6740 0.6740 0.6770
3.745981 0.6790 0.6840 0.6910 0.6910 0.6910
3.780000 0.6920 0.6920 0.6940 0.6970 0.6990
3.813981 0.6990 0.7030 0.7040 0.7040 0.7060
3.848000 0.7060 0.7080 0.7090 0.7110 0.7130
3.881981 0.7180 0.7200 0.7210 0.7230 0.7320
3.916000 0.7330 0.7350 0.7370 0.7380 0.7380
3.949981 0.7380 0.7370 0.7350 0.7330 0.7320
3.984000 0.7330 0.7370 0.7400 0.7450 0.7470
4.017981 0.7490 0.7500 0.7520 0.7520 0.7540
4.051000 0.7540 0.7540 0.7540 0.7550 0.7550
4.084981 0.7590 0.7610 0.7610 0.7590 0.7610
4.119000 0.7610 0.7620 0.7660 0.7710 0.7730
4.152981 0.7730 0.7740 0.7740 0.7740 0.7690
4.187000 0.7690 0.7730 0.7760 0.7780 0.7790
4.220981 0.7760 0.7760 0.7760 0.7740 0.7740
4.255000 0.7730 0.7730 0.7710 0.7730 0.7710
4.288981 0.7690 0.7690 0.7690 0.7690 0.7710
4.323000 0.7710 0.7730 0.7710 0.7730 0.7730
4.356981 0.7780 0.7790 0.7810 0.7830 0.7860
4.391000 0.7930 0.8020 0.8050 0.8130 0.8130
4.424981 0.8190 0.8200 0.8220 0.8220 0.8240
4.459000 0.8220 0.8240 0.8270 0.8270 0.8240
4.492981 0.8200 0.8190 0.8120 0.8020 0.8020
4.527000 0.8080 0.8100 0.8170 0.8200 0.8240
4.560981 0.8310 0.8320 0.8320 0.8340 0.8360
4.595000 0.8390 0.8430 0.8430 0.8440 0.8440
4.628981 0.8460 0.8480 0.8480 0.8480 0.8490
4.663000 0.8530 0.8560 0.8610 0.8630 0.8630
4.696981 0.8600 0.8600 0.8600 0.8610 0.8610
4.731000 0.8630 0.8610 0.8630 0.8630 0.8650
4.764981 0.8650 0.8660 0.8660 0.8660 0.8680
4.799000 0.8700 0.8700 0.8700 0.8720 0.8720
4.832981 0.8720 0.8720 0.8720 0.8730 0.8730
4.867000 0.8750 0.8800 0.8800 0.8830 0.8870
4.900981 0.8890 0.8890 0.8890 0.8900 0.8900
4.934000 0.8900 0.8900 0.8900 0.8920 0.8920
4.967981 0.8920 0.8920 0.8940 0.8950 0.8970
5.002000 0.9010 0.9020 0.9040 0.9060 0.9060
5.035981 0.9060 0.9060 0.9060 0.9060 0.9040
5.070000 0.9020 0.9020 0.9010 0.9020 0.9060
5.103981 0.9070 0.9110 0.9110 0.9110 0.9020
5.138000 0.9020 0.9020 0.9020 0.9040 0.9070
5.171981 0.9110 0.9110 0.9110 0.9020 0.8870
5.206000 0.8770 0.8720 0.8720 0.8730 0.8940
5.239981 0.9060 0.9140 0.9210 0.9210 0.9180
5.274000 0.9140 0.9120 0.9140 0.9230 0.9240
5.307981 0.9260 0.9300 0.9300 0.9310 0.9310
5.342000 0.9330 0.9350 0.9360 0.9380 0.9400
5.375981 0.9400 0.9410 0.9400 0.9400 0.9380
5.410000 0.9380 0.9430 0.9430 0.9410 0.9400
5.443981 0.9350 0.9330 0.9330 0.9330 0.9350
5.478000 0.9410 0.9410 0.9410 0.9400 0.9350
5.511981 0.9310 0.9260 0.9180 0.9020 0.9010
5.546000 0.9010 0.9010 0.9010 0.9090 0.9090
5.579981 0.9070 0.9070 0.9060 0.9020 0.9040
5.614000 0.9060 0.9090 0.9110 0.9110 0.9110
5.647981 0.9090 0.9070 0.9060 0.9040 0.9020
5.682000 0.9040 0.9070 0.9110 0.9120 0.9110
5.715981 0.9110 0.9110 0.9090 0.9090 0.9090
5.750000 0.9070 0.9090 0.9090 0.9090 0.9070
5.783981 0.9060 0.9040 0.9020 0.9010 0.8990
5.818000 0.8950 0.8890 0.8850 0.8850 0.8900
5.851981 0.8900 0.8940 0.8990 0.8990 0.8940
5.885000 0.8890 0.8890 0.8900 0.8940 0.9010
5.918981 0.9060 0.9060 0.9020 0.9020 0.9020
5.953000 0.9040 0.9040 0.9010 0.9010 0.8970
5.986981 0.8940 0.8900 0.8870 0.8850 0.8830
6.021000 0.8820 0.8770 0.8720 0.8660 0.8560
6.054981 0.8530 0.8490 0.8460 0.8360 0.8050
6.089000 0.7660 0.7320 0.7030 0.6750 0.6390
6.122981 0.5880 0.5110 0.4310 0.3580 0.2860
6.157000 0.2110 0.1290 0.1100 0.1100 0.1190
6.190981 0.2060 0.2540 0.2790 0.2900 0.2900
6.225000 0.2790 0.2470 0.1910 0.1500 0.1140
6.258981 0.0850 0.0510 0.0400 0.0400 0.0400
6.293000 0.0420 0.0610 0.0830 0.1090 0.1390
6.326981 0.1720 0.2060 0.2440 0.2790 0.3150
6.361000 0.3390 0.3610 0.3830 0.4010 0.4180
6.394981 0.4300 0.4890 0.5460 0.5810 0.6090
6.429000 0.6270 0.6390 0.6480 0.6530 0.6600
6.462981 0.6670 0.6770 0.6860 0.6960 0.7080
6.497000 0.7210 0.7300 0.7400 0.7450 0.7490
6.530981 0.7490 0.7500 0.7500 0.7490 0.7470
6.565000 0.7450 0.7440 0.7420 0.7440 0.7450
6.598981 0.7470 0.7490 0.7490 0.7490 0.7490
6.633000 0.7440 0.7350 0.7230 0.7060 0.6940
6.666981 0.6680 0.6380 0.6000 0.5610 0.5150
6.701000 0.4650 0.4140 0.3560 0.2960 0.2200
6.734981 0.1390 0.1360 0.1390 0.1860 0.2350
6.769000 0.2690 0.3000 0.3220 0.3370 0.3680
6.802981 0.3750 0.3750 0.3720 0.3530 0.3370
6.836000 0.3250 0.3150 0.3050 0.2950 0.2790
6.869981 0.2470 0.2210 0.1940 0.1580 0.1310
6.904000 0.1070 0.1000 0.1000 0.1100 0.1480
6.937981 0.1860 0.2250 0.2640 0.3070 0.3510
6.972000 0.3940 0.4380 0.4790 0.5180 0.5520
7.005981 0.5800 0.5950 0.6070 0.6170 0.6260
7.040000 0.6330 0.6390 0.6460 0.6530 0.6560
7.073981 0.6580 0.6530 0.6340 0.5970 0.5510
7.108000 0.5000 0.4720 0.4720 0.4890 0.5420
7.141981 0.5900 0.6260 0.6500 0.6510 0.6500
7.176000 0.6270 0.6000 0.5660 0.5110 0.5000
7.209981 0.5100 0.5200 0.5680 0.5680 0.5590
7.244000 0.5170 0.4600 0.3990 0.3360 0.2710
7.277981 0.2180 0.2110 0.2200 0.2780 0.3490
7.312000 0.4160 0.4700 0.5150 0.5440 0.5560
7.345981 0.5660 0.5730 0.5800 0.5850 0.5880
7.380000 0.5880 0.5880 0.5560 0.5100 0.4880
7.413981 0.4600 0.4550 0.4360 0.4310 0.4310
7.448000 0.4310 0.4330 0.4350 0.4380 0.4300
7.481981 0.4210 0.4110 0.3970 0.3830 0.3700
7.516000 0.3530 0.3310 0.3100 0.2910 0.2670
7.549981 0.2620 0.2710 0.3190 0.3610 0.4010
7.584000 0.4210 0.4380 0.4500 0.4520 0.4500
7.617981 0.4530 0.4590 0.4700 0.4890 0.4930
7.652000 0.4910 0.4670 0.4450 0.4060 0.3610
7.685981 0.3220 0.2910 0.2660 0.2470 0.2400
7.720000 0.2210 0.2200 0.2200 0.2210 0.2640
7.753981 0.3050 0.3480 0.3900 0.4350 0.4820
7.787000 0.5320 0.5830 0.6390 0.6600 0.6790
7.820981 0.6940 0.7060 0.7130 0.7200 0.7210
7.855000 0.7250 0.7280 0.7300 0.7280 0.7250
7.888981 0.7210 0.7160 0.7060 0.6920 0.6700
7.923000 0.6450 0.6120 0.5730 0.5250 0.4700
7.956981 0.4060 0.3430 0.2900 0.2450 0.2090
7.991000 0.1800 0.1530 0.1310 0.1100 0.0880
8.024981 0.0880 0.0980 0.1260 0.1560 0.1920
8.059000 0.2150 0.2380 0.2640 0.2900 0.3190
8.092981 0.3480 0.3800 0.4120 0.4470 0.4640
8.127000 0.4700 0.4720 0.4700 0.4500 0.4210
8.160981 0.3820 0.3410 0.3000 0.2520 0.2300
8.195000 0.1870 0.1450 0.1190 0.1050 0.1050
8.228981 0.1100 0.1270 0.1500 0.1890 0.2160
8.263000 0.2450 0.2550 0.2610 0.2620 0.2620
8.296981 0.2640 0.2760 0.2910 0.3100 0.3270
8.331000 0.3460 0.3560 0.3700 0.3850 0.3990
8.364981 0.4160 0.4330 0.4500 0.4700 0.4910
8.399000 0.5130 0.5320 0.5590 0.5660 0.5780
8.432981 0.5870 0.5970 0.6070 0.6190 0.6310
8.467000 0.6390 0.6460 0.6500 0.6530 0.6550
8.500981 0.6560 0.6600 0.6630 0.6700 0.6750
8.535000 0.6820 0.6920 0.7010 0.7090 0.7110
8.568981 0.7150 0.7200 0.7230 0.7350 0.7420
8.603000 0.7450 0.7450 0.7440 0.7420 0.7420
8.636981 0.7380 0.7320 0.7210 0.7090 0.6970
8.671000 0.6740 0.6460 0.6000 0.5470 0.4810
8.704981 0.4020 0.3360 0.2670 0.2130 0.1790
8.738000 0.1700 0.1700 0.1820 0.2210 0.2470
8.771981 0.2930 0.3580 0.4300 0.5030 0.5730
8.806000 0.6290 0.6670 0.6770 0.6920 0.7080
8.839981 0.7160 0.7250 0.7330 0.7400 0.7450
8.874000 0.7520 0.7550 0.7570 0.7570 0.7590
8.907981 0.7610 0.7640 0.7660 0.7690 0.7690
8.942000 0.7640 0.7550 0.7420 0.7230 0.7030
8.975981 0.6800 0.6650 0.6450 0.6430 0.6430
9.010000 0.6700 0.6800 0.7010 0.7150 0.7320
9.043981 0.7440 0.7500 0.7540 0.7570 0.7520
9.078000 0.7150 0.6600 0.5950 0.5250 0.5080
9.111981 0.5080 0.5400 0.6240 0.6860 0.7090
9.146000 0.7230 0.7280 0.7330 0.7400 0.7440
9.179981 0.7500 0.7550 0.7610 0.7670 0.7690
9.214000 0.7690 0.7710 0.7740 0.7760 0.7780
9.247981 0.7790 0.7790 0.7810 0.7790 0.7790
9.282000 0.7790 0.7790 0.7810 0.7810 0.7830
9.315981 0.7840 0.7840 0.7840 0.7880 0.7880
9.350000 0.7900 0.7900 0.7910 0.7910 0.7930
9.383981 0.7930 0.7930 0.7930 0.7910 0.7910
9.418000 0.7900 0.7840 0.7810 0.7760 0.7730
9.451981 0.7730 0.7710 0.7710 0.7690 0.7640
9.486000 0.7590 0.7420 0.7150 0.6840 0.6480
9.519981 0.6100 0.5760 0.5440 0.5180 0.5100
9.554000 0.5080 0.5100 0.5050 0.4890 0.4650
9.587981 0.4400 0.4360 0.4380 0.4910 0.5490
9.622000 0.6100 0.6720 0.7200 0.7500 0.7540
9.655981 0.7540 0.7490 0.7230 0.6960 0.6630
9.689000 0.6410 0.6220 0.6190 0.6190 0.6220
9.722981 0.6210 0.6160 0.5370 0.4790 0.4160
9.757000 0.3770 0.3750 0.3780 0.4280 0.5170
9.790981 0.6070 0.6680 0.7110 0.7370 0.7540
9.825000 0.7660 0.7780 0.7880 0.7910 0.8000
9.858981 0.8070 0.8120 0.8190 0.8240 0.8290
9.893000 0.8320 0.8360 0.8390 0.8390 0.8390
9.926981 0.8410 0.8410 0.8430 0.8490 0.8440
9.961000 0.8360 0.8200 0.8020 0.7860 0.7350
9.994981 0.6770 0.6170 0.5660 0.4810 0.4770
10.029000 0.4770 0.4960 0.5510 0.5980 0.6310
10.062981 0.6510 0.6620 0.6670 0.6700 0.6770
10.097000 0.6910 0.7110 0.7250 0.7350 0.7400
10.130981 0.7420 0.7380 0.7400 0.7420 0.7540
10.165000 0.7670 0.7840 0.8030 0.8120 0.8360
10.198981 0.8560 0.8660 0.8770 0.8800 0.8830
10.233000 0.8890 0.8920 0.8990 0.8970 0.8990
10.266981 0.9010 0.9010 0.9020 0.9020 0.9020
10.301000 0.9040 0.9040 0.9040 0.9040 0.9040
10.334981 0.9060 0.9060 0.9090 0.9090 0.9070
10.369000 0.9060 0.9060 0.9010 0.9010 0.8970
10.402981 0.8920 0.8830 0.8660 0.8480 0.8290
10.437000 0.8050 0.7830 0.7730 0.7730 0.7790
10.470981 0.7880 0.8070 0.8250 0.8320 0.8390
10.505000 0.8410 0.8410 0.8390 0.8070 0.7660
10.538981 0.7180 0.6670 0.6140 0.5560 0.4980
10.573000 0.4640 0.4640 0.4670 0.5180 0.5630
10.606981 0.6330 0.6860 0.7260 0.7590 0.7810
10.640000 0.7980 0.8130 0.8270 0.8410 0.8490
10.673981 0.8560 0.8660 0.8730 0.8770 0.8800
10.708000 0.8820 0.8850 0.8900 0.8940 0.8970
10.741981 0.9010 0.9020 0.9020 0.9020 0.9040
10.776000 0.9040 0.9040 0.9060 0.9060 0.9060
10.809981 0.9070 0.9070 0.9090 0.9090 0.9110
10.844000 0.9110 0.9110 0.9110 0.9110 0.9090
10.877981 0.9090 0.9090 0.9090 0.9070 0.9070
10.912000 0.9040 0.9040 0.9060 0.9060 0.9060
10.945981 0.9020 0.9010 0.8950 0.8870 0.8770
10.980000 0.8660 0.8600 0.8540 0.8410 0.8370
11.013981 0.8370 0.8370 0.8390 0.8460 0.8560
11.048000 0.8660 0.8720 0.8770 0.8800 0.8800
11.081981 0.8800 0.8820 0.8830 0.8830 0.8850
11.116000 0.8850 0.8780 0.8780 0.8750 0.8660
11.149981 0.8650 0.8650 0.8650 0.8650 0.8650
11.184000 0.8650 0.8660 0.8660 0.8700 0.8730
11.217981 0.8750 0.8770 0.8780 0.8800 0.8800
11.252000 0.8800 0.8800 0.8800 0.8770 0.8750
11.285981 0.8730 0.8680 0.8610 0.8600 0.8600
11.320000 0.8540 0.8480 0.8370 0.8220 0.8020
11.353981 0.7880 0.7660 0.7520 0.7420 0.7400
11.388000 0.7380 0.7400 0.7420 0.7590 0.7710
11.421981 0.7760 0.7860 0.7930 0.8000 0.8020
11.456000 0.8030 0.8030 0.8070 0.8070 0.8030
11.489981 0.7960 0.7860 0.7760 0.7670 0.7490
11.524000 0.7210 0.6910 0.6550 0.6160 0.5730
11.557981 0.5320 0.4910 0.4590 0.4310 0.4260
11.591000 0.4260 0.4400 0.4650 0.4940 0.5250
11.624981 0.5580 0.5800 0.5970 0.6070 0.6140
11.659000 0.6160 0.6190 0.6190 0.6210 0.6260
11.692981 0.6330 0.6390 0.6500 0.6580 0.6670
11.727000 0.6720 0.6800 0.6910 0.7010 0.7150
11.760981 0.7260 0.7400 0.7500 0.7570 0.7690
11.795000 0.7710 0.7710 0.7710 0.7690 0.7690
11.828981 0.7570 0.7470 0.7370 0.7280 0.7210
11.863000 0.7150 0.7090 0.7080 0.7060 0.7080
11.896981 0.7090 0.7090 0.6990 0.6920 0.6860
11.931000 0.6720 0.6620 0.6600 0.6620 0.6910
11.964981 0.7110 0.7400 0.7610 0.7670 0.7790
11.999000 0.7930 0.8020 0.8050 0.8070 0.8050
12.032981 0.8020 0.7960 0.7860 0.7760 0.7660
12.067000 0.7520 0.7380 0.7210 0.7040 0.6840
12.100981 0.6600 0.6330 0.6070 0.5800 0.5520
12.135000 0.5270 0.5010 0.4860 0.4690 0.4500
12.168981 0.4310 0.4110 0.3850 0.3580 0.3250
12.203000 0.2860 0.2550 0.2260 0.2030 0.1800
12.236981 0.1620 0.1460 0.1360 0.1290 0.1260
12.271000 0.1270 0.1310 0.1430 0.1600 0.1890
12.304981 0.2260 0.2660 0.3050 0.3460 0.3820
12.339000 0.4160 0.4470 0.4700 0.4910 0.5030
12.372981 0.5080 0.5080 0.5050 0.4910 0.4790
12.407000 0.4650 0.4530 0.4410 0.4280 0.4240
12.440981 0.4240 0.4260 0.4500 0.4760 0.5030
12.475000 0.5290 0.5560 0.5810 0.6040 0.6220
12.508981 0.6380 0.6530 0.6680 0.6820 0.6940
12.542000 0.6990 0.7040 0.7110 0.7110 0.7130
12.575981 0.7150 0.7130 0.7110 0.7060 0.7030
12.610000 0.6990 0.6920 0.6860 0.6790 0.6700
12.643981 0.6600 0.6460 0.6360 0.6270 0.6170
12.678000 0.6140 0.6000 0.5980 0.6000 0.6160
12.711981 0.6330 0.6510 0.6720 0.6960 0.7180
12.746000 0.7380 0.7550 0.7690 0.7760 0.7880
12.779981 0.7960 0.7980 0.8070 0.8130 0.8190
12.814000 0.8220 0.8240 0.8250 0.8290 0.8270
12.847981 0.8250 0.8220 0.8170 0.8130 0.8120
12.882000 0.8050 0.7960 0.7810 0.7690 0.7520
12.915981 0.7350 0.7130 0.6890 0.6620 0.6290
12.950000 0.5950 0.5560 0.5220 0.4790 0.4450
12.983981 0.4140 0.4010 0.3730 0.3580 0.3240
13.018000 0.3050 0.3030 0.3070 0.3130 0.3240
13.051981 0.3340 0.3480 0.3630 0.3780 0.3940
13.086000 0.4110 0.4260 0.4410 0.4530 0.4650
13.119981 0.4760 0.4880 0.4940 0.4980 0.5010
13.154000 0.5050 0.5110 0.5180 0.5200 0.5220
13.187981 0.5250 0.5250 0.5250 0.5230 0.5230
13.222000 0.5220 0.5220 0.5220 0.5220 0.5220
13.255981 0.5220 0.5200 0.5200 0.5180 0.5180
13.290000 0.5180 0.5150 0.5150 0.5130 0.5130
13.323981 0.5130 0.5130 0.5110 0.5110 0.5100
13.358000 0.5100 0.5100 0.5060 0.5060 0.5060
13.391981 0.5030 0.5010 0.5000 0.4980 0.4980
13.426000 0.4940 0.4930 0.4910 0.4880 0.4820
13.459981 0.4790 0.4740 0.4650 0.4600 0.4500
13.493000 0.4430 0.4380 0.4330 0.4260 0.4160
13.526981 0.4060 0.4010 0.3950 0.3850 0.3770
13.561000 0.3720 0.3660 0.3630 0.3560 0.3540
13.594981 0.3460 0.3430 0.3340 0.3310 0.3290
13.629000 0.3290 0.3290 0.3310 0.3310 0.3310
13.662981 0.3320 0.3310 0.3340 0.3370 0.3410
13.697000 0.3440 0.3480 0.3490 0.3530 0.3600
13.730981 0.3660 0.3750 0.3870 0.3990 0.4110
13.765000 0.4230 0.4360 0.4480 0.4600 0.4700
13.798981 0.4840 0.5030 0.5250 0.5390 0.5490
13.833000 0.5590 0.5690 0.5780 0.5850 0.5920
13.866981 0.5980 0.6050 0.6140 0.6240 0.6360
13.901000 0.6410 0.6500 0.6530 0.6650 0.6720
13.934981 0.6800 0.6910 0.6960 0.7030 0.7080
13.969000 0.7160 0.7230 0.7260 0.7330 0.7420
14.002981 0.7500 0.7590 0.7660 0.7690 0.7710
14.037000 0.7740 0.7780 0.7780 0.7710 0.7590
14.070981 0.7450 0.7230 0.7010 0.6700 0.6380
14.105000 0.6050 0.5730 0.5390 0.5060 0.4770
14.138981 0.4500 0.4280 0.4090 0.3990 0.3950
14.173000 0.3950 0.3990 0.4230 0.4470 0.4690
14.206981 0.4890 0.5110 0.5320 0.5510 0.5710
14.241000 0.5920 0.6100 0.6240 0.6380 0.6500
14.274981 0.6620 0.6740 0.6860 0.6960 0.7040
14.309000 0.7130 0.7210 0.7280 0.7320 0.7370
14.342981 0.7420 0.7490 0.7540 0.7590 0.7620
14.377000 0.7670 0.7690 0.7730 0.7790 0.7810
14.410981 0.7830 0.7840 0.7840 0.7880 0.7900
14.444000 0.7910 0.7950 0.7980 0.8000 0.8020
14.477981 0.8030 0.8100 0.8120 0.8130 0.8190
14.512000 0.8200 0.8220 0.8250 0.8290 0.8310
14.545981 0.8310 0.8320 0.8320 0.8340 0.8360
14.580000 0.8360 0.8370 0.8390 0.8390 0.8370
14.613981 0.8340 0.8340 0.8320 0.8320 0.8310
14.648000 0.8290 0.8290 0.8240 0.8220 0.8200
14.681981 0.8200 0.8200 0.8200 0.8200 0.8220
14.716000 0.8220 0.8200 0.8190 0.8170 0.8190
14.749981 0.8170 0.8130 0.8120 0.8120 0.8100
14.784000 0.8100 0.8070 0.8050 0.8020 0.8000
14.817981 0.7960 0.7950 0.7900 0.7860 0.7790
14.852000 0.7740 0.7690 0.7640 0.7540 0.7440
14.885981 0.7330 0.7210 0.7130 0.7030 0.6910
14.920000 0.6800 0.6680 0.6550 0.6410 0.6270
14.953981 0.6170 0.6050 0.6000 0.5950 0.5870
14.988000 0.5850 0.5780 0.5760 0.5760 0.5780
15.021981 0.5780 0.5780 0.5810 0.5810 0.5800
15.056000 0.5760 0.5760 0.5760 0.5760 0.5760
15.089981 0.5760 0.5760 0.5780 0.5780 0.5800
15.124000 0.5830 0.5900 0.5950 0.6020 0.6090
15.157981 0.6160 0.6240 0.6310 0.6390 0.6480
15.192000 0.6580 0.6670 0.6770 0.6870 0.6960
15.225981 0.7010 0.7030 0.7030 0.7060 0.7090
15.260000 0.7090 0.7110 0.7130 0.7160 0.7180
15.293981 0.7200 0.7200 0.7200 0.7200 0.7200
15.328000 0.7160 0.7150 0.7150 0.7130 0.7060
15.361981 0.7040 0.7030 0.7010 0.6990 0.6940
15.395000 0.6910 0.6890 0.6890 0.6870 0.6860
15.428981 0.6860 0.6840 0.6800 0.6770 0.6770
15.463000 0.6750 0.6740 0.6740 0.6720 0.6630
15.496981 0.6620 0.6620 0.6630 0.6630 0.6650
15.531000 0.6650 0.6630 0.6620 0.6620 0.6600
15.564981 0.6580 0.6550 0.6530 0.6510 0.6500
15.599000 0.6480 0.6460 0.6460 0.6450 0.6450
15.632981 0.6450 0.6450 0.6430 0.6430 0.6410
15.667000 0.6410 0.6390 0.6390 0.6380 0.6340
15.700981 0.6340 0.6310 0.6310 0.6290 0.6260
15.735000 0.6240 0.6220 0.6210 0.6190 0.6170
15.768981 0.6140 0.6120 0.6100 0.6070 0.6040
15.803000 0.6020 0.5980 0.5950 0.5920 0.5920
15.836981 0.5880 0.5870 0.5830 0.5800 0.5760
15.871000 0.5730 0.5730 0.5690 0.5680 0.5640
15.904981 0.5610 0.5610 0.5610 0.5610 0.5580
15.939000 0.5560 0.5520 0.5510 0.5470 0.5460
15.972981 0.5420 0.5390 0.5390 0.5350
##END=
