##TITLE=TRIMETHYLAMINE-TRIBORANE (7)
##JCAMP-DX=4.24
##DATA TYPE=INFRARED SPECTRUM
##CLASS=COBLENTZ
##ORIGIN=KALLERY CHEMICAL COMPANY
##OWNER=COBLENTZ SOCIETY
Collection (C) 2018 copyright by the U.S. Secretary of Commerce
on behalf of the United States of America. All rights reserved.
##DATE=1960
##MOLFORM=C3 H16 B3 N
##SOURCE REFERENCE=COBLENTZ NO. 846
##$NIST ID=B6000846
##$NIST SOURCE=COBLENTZ
##$NIST IMAGE=cob846
##SPECTROMETER/DATA SYSTEM=Not specified, most likely a prism, grating, or hybrid spectrometer.
##STATE=SOLID (KBr PELLET); $$ RESEARCH PURITY, CONTAINS A SMALL AMOUNT TRIMETHYLAMINE-BORANE
##SAMPLING PROCEDURE=TRANSMISSION
##RESOLUTION=4
##DATA PROCESSING=DIGITIZED BY NIST FROM HARD COPY (FROM TWO SEGMENTS)
##XUNITS=1/CM
##YUNITS=TRANSMITTANCE
##XFACTOR=1.000000
##YFACTOR=1
##DELTAX=0.896193
##FIRSTX=660.194
##LASTX=3977.9
##FIRSTY=0.756
##MAXX=3977.9
##MINX=660.194
##MAXY=0.939
##MINY=0.346
##NPOINTS=3703
##XYDATA=(X++(Y..Y))
660.194000 0.7560 0.7540 0.7520 0.8129 0.7562
664.674966 0.7540 0.7520 0.7520 0.7470 0.7450
669.155933 0.7450 0.7430 0.7430 0.7430 0.7430
673.636899 0.7430 0.7430 0.7450 0.7450 0.7470
678.117866 0.7490 0.7500 0.7520 0.7540 0.7580
682.598832 0.7590 0.7650 0.7700 0.7770 0.7820
687.079798 0.7880 0.7910 0.7950 0.8000 0.8060
691.560765 0.8090 0.8160 0.8200 0.8250 0.8300
696.041731 0.8360 0.8410 0.8410 0.8430 0.8460
700.522698 0.8500 0.8540 0.8570 0.8590 0.8610
705.003664 0.8640 0.8660 0.8680 0.8700 0.8700
709.484630 0.8730 0.8750 0.8770 0.8790 0.8800
713.965597 0.8820 0.8840 0.8860 0.8870 0.8890
718.446563 0.8910 0.8910 0.8910 0.8930 0.8930
722.927530 0.8950 0.8950 0.8950 0.8950 0.8950
727.408496 0.8950 0.8950 0.8950 0.8950 0.8950
731.889462 0.8930 0.8930 0.8910 0.8910 0.8890
736.370429 0.8890 0.8870 0.8860 0.8840 0.8820
740.851395 0.8800 0.8790 0.8770 0.8750 0.8710
745.332362 0.8680 0.8660 0.8640 0.8610 0.8590
749.813328 0.8570 0.8540 0.8480 0.8460 0.8450
754.294295 0.8410 0.8380 0.8360 0.8340 0.8320
758.775261 0.8290 0.8270 0.8230 0.8220 0.8200
763.256227 0.8160 0.8140 0.8130 0.8110 0.8110
767.737194 0.8090 0.8090 0.8070 0.8070 0.8070
772.218160 0.8070 0.8060 0.8060 0.8060 0.8060
776.699127 0.8060 0.8070 0.8070 0.8070 0.8070
781.180093 0.8070 0.8060 0.8060 0.8060 0.8040
785.661059 0.8000 0.7980 0.7970 0.7950 0.7930
790.142026 0.7900 0.7880 0.7840 0.7810 0.7750
794.622992 0.7700 0.7650 0.7590 0.7560 0.7540
799.103959 0.7490 0.7470 0.7430 0.7340 0.7290
803.584925 0.7250 0.7220 0.7180 0.7150 0.7110
808.065891 0.7080 0.7040 0.7020 0.6970 0.6970
812.546858 0.6930 0.6920 0.6920 0.6900 0.6860
817.027824 0.6850 0.6810 0.6790 0.6770 0.6740
821.508791 0.6700 0.6630 0.6630 0.6580 0.6490
825.989757 0.6440 0.6380 0.6241 0.6220 0.6190
830.470723 0.6130 0.6080 0.6060 0.5990 0.5960
834.951690 0.5940 0.5900 0.5870 0.5830 0.5800
839.432656 0.5760 0.5710 0.5690 0.5640 0.5580
843.913623 0.5560 0.5530 0.5510 0.5490 0.5480
848.394589 0.5480 0.5460 0.5440 0.5440 0.5440
852.875555 0.5420 0.5400 0.5400 0.5400 0.5400
857.356522 0.5400 0.5420 0.5420 0.5420 0.5420
861.837488 0.5440 0.5440 0.5440 0.5440 0.5460
866.318455 0.5460 0.5480 0.5480 0.5490 0.5510
870.799421 0.5550 0.5560 0.5620 0.5670 0.5710
875.280387 0.5760 0.5810 0.5900 0.5920 0.5970
879.761354 0.6060 0.6130 0.6220 0.6329 0.6420
884.242320 0.6530 0.6650 0.6740 0.6850 0.6950
888.723287 0.7020 0.7090 0.7170 0.7200 0.7240
893.204253 0.7270 0.7330 0.7380 0.7410 0.7430
897.685220 0.7470 0.7500 0.7520 0.7520 0.7609
902.166186 0.7630 0.7650 0.7650 0.7660 0.7660
906.647152 0.7660 0.7660 0.7650 0.7630 0.7610
911.128119 0.7580 0.7560 0.7490 0.7430 0.7380
915.609085 0.7340 0.7310 0.7290 0.7270 0.7270
920.090052 0.7270 0.7270 0.7270 0.7290 0.7310
924.571018 0.7340 0.7400 0.7450 0.7470 0.7490
929.051984 0.7500 0.7540 0.7560 0.7590 0.7650
933.532951 0.7660 0.7700 0.7740 0.7750 0.7790
938.013917 0.7820 0.7820 0.7840 0.7840 0.7860
942.494884 0.7860 0.7840 0.7810 0.7770 0.7770
946.975850 0.7720 0.7720 0.7680 0.7630 0.7590
951.456816 0.7450 0.7360 0.7310 0.7240 0.7150
955.937783 0.7080 0.6990 0.6880 0.6720 0.6560
960.418749 0.6420 0.6261 0.6121 0.5971 0.5761
964.899716 0.5440 0.5330 0.5210 0.5120 0.5000
969.380682 0.4920 0.4870 0.4760 0.4670 0.4640
973.861648 0.4570 0.4510 0.4480 0.4480 0.4480
978.342615 0.4500 0.4590 0.4600 0.4729 0.4849
982.823581 0.4960 0.5050 0.5120 0.5160 0.5190
987.304548 0.5190 0.4911 0.4800 0.4671 0.4600
991.785514 0.4510 0.4280 0.4120 0.4000 0.3910
996.266480 0.3790 0.3700 0.3640 0.3570 0.3500
1000.747447 0.3460 0.3460 0.3480 0.3500 0.3520
1005.228413 0.3550 0.3620 0.3660 0.3680 0.3710
1009.709380 0.3790 0.3820 0.3890 0.3950 0.4020
1014.190346 0.4050 0.4140 0.4210 0.4668 0.5117
1018.671312 0.5260 0.5350 0.5460 0.5510 0.5580
1023.152279 0.5650 0.5809 0.5939 0.6010 0.6099
1027.633245 0.6130 0.6190 0.6260 0.6290 0.6370
1032.114212 0.6440 0.6510 0.6530 0.6540 0.6540
1036.595178 0.6540 0.6530 0.6530 0.6490 0.6490
1041.076144 0.6510 0.6510 0.6530 0.6560 0.6580
1045.557111 0.6600 0.6630 0.6670 0.6670 0.6690
1050.038077 0.6690 0.6690 0.6670 0.6650 0.6580
1054.519044 0.6530 0.6510 0.6440 0.6400 0.6330
1059.000010 0.6240 0.6190 0.6130 0.6030 0.5960
1063.480977 0.5880 0.5810 0.5710 0.5580 0.5490
1067.961943 0.5440 0.5390 0.5300 0.5230 0.5160
1072.442909 0.5000 0.4940 0.4940 0.5000 0.5010
1076.923876 0.5010 0.5170 0.5280 0.5390 0.5480
1081.404842 0.5580 0.5690 0.5800 0.5920 0.6030
1085.885809 0.6120 0.6200 0.6310 0.6380 0.6450
1090.366775 0.6490 0.6560 0.6610 0.6670 0.6740
1094.847741 0.6790 0.6830 0.6850 0.6850 0.6860
1099.328708 0.6860 0.6850 0.6830 0.6830 0.6830
1103.809674 0.6830 0.6850 0.6850 0.6860 0.6900
1108.290641 0.6930 0.6950 0.6950 0.6950 0.6950
1112.771607 0.6920 0.6830 0.6770 0.6720 0.6670
1117.252573 0.6610 0.6560 0.6490 0.6440 0.6350
1121.733540 0.6310 0.6200 0.6041 0.5970 0.5851
1126.214506 0.5320 0.4640 0.4550 0.4500 0.4500
1130.695473 0.4510 0.4550 0.4590 0.4620 0.4690
1135.176439 0.4800 0.4940 0.5000 0.5070 0.5120
1139.657405 0.5170 0.5240 0.5260 0.5260 0.5260
1144.138372 0.5210 0.5170 0.5120 0.5120 0.4920
1148.619338 0.4800 0.4640 0.4570 0.4550 0.4510
1153.100305 0.4530 0.4590 0.4600 0.4670 0.4730
1157.581271 0.4780 0.4820 0.4850 0.4870 0.4920
1162.062237 0.4960 0.4980 0.5010 0.5030 0.5050
1166.543204 0.5070 0.5100 0.5120 0.5140 0.5160
1171.024170 0.5170 0.5190 0.5190 0.5210 0.5240
1175.505137 0.5300 0.5400 0.5440 0.5510 0.5560
1179.986103 0.5640 0.5710 0.5760 0.5800 0.5850
1184.467069 0.5940 0.5960 0.6040 0.6100 0.6130
1188.948036 0.6150 0.6170 0.6200 0.6240 0.6260
1193.429002 0.6280 0.6290 0.6310 0.6330 0.6330
1197.909969 0.6350 0.6380 0.6400 0.6420 0.6420
1202.390935 0.6440 0.6450 0.6470 0.6470 0.6490
1206.871901 0.6530 0.6540 0.6580 0.6600 0.6630
1211.352868 0.6670 0.6700 0.6720 0.6760 0.6790
1215.833834 0.6860 0.6900 0.6970 0.7010 0.7040
1220.314801 0.7090 0.7110 0.7130 0.7170 0.7200
1224.795767 0.7290 0.7290 0.7290 0.7330 0.7340
1229.276734 0.7380 0.7400 0.7430 0.7450 0.7450
1233.757700 0.7450 0.7430 0.7430 0.7340 0.7310
1238.238666 0.7220 0.7170 0.7021 0.6881 0.6771
1242.719633 0.6439 0.6040 0.5720 0.5690 0.5650
1247.200599 0.5620 0.5550 0.5420 0.5141 0.5140
1251.681566 0.5170 0.5230 0.5370 0.5420 0.5480
1256.162532 0.5530 0.5640 0.5710 0.5780 0.5969
1260.643498 0.6190 0.6370 0.6540 0.6690 0.6790
1265.124465 0.6850 0.6990 0.7040 0.7130 0.7200
1269.605431 0.7250 0.7290 0.7340 0.7400 0.7450
1274.086398 0.7490 0.7500 0.7520 0.7580 0.7610
1278.567364 0.7650 0.7660 0.7680 0.7700 0.7740
1283.048330 0.7790 0.7820 0.7840 0.7860 0.7900
1287.529297 0.7950 0.7970 0.7980 0.7980 0.7980
1292.010263 0.8000 0.8020 0.8040 0.8060 0.8070
1296.491230 0.8070 0.8090 0.8110 0.8130 0.8130
1300.972196 0.8130 0.8140 0.8160 0.8160 0.8160
1305.453162 0.8180 0.8180 0.8180 0.8200 0.8220
1309.934129 0.8220 0.8220 0.8230 0.8230 0.8250
1314.415095 0.8270 0.8290 0.8300 0.8300 0.8320
1318.896062 0.8320 0.8320 0.8340 0.8340 0.8340
1323.377028 0.8340 0.8340 0.8360 0.8360 0.8360
1327.857994 0.8380 0.8380 0.8380 0.8380 0.8380
1332.338961 0.8380 0.8390 0.8390 0.8390 0.8380
1336.819927 0.8380 0.8390 0.8390 0.8390 0.8390
1341.300894 0.8390 0.8390 0.8390 0.8390 0.8390
1345.781860 0.8390 0.8410 0.8410 0.8410 0.8410
1350.262826 0.8410 0.8410 0.8410 0.8410 0.8410
1354.743793 0.8390 0.8390 0.8380 0.8360 0.8360
1359.224759 0.8360 0.8340 0.8340 0.8340 0.8340
1363.705726 0.8320 0.8320 0.8300 0.8290 0.8290
1368.186692 0.8270 0.8270 0.8250 0.8230 0.8230
1372.667659 0.8230 0.8220 0.8220 0.8220 0.8200
1377.148625 0.8200 0.8180 0.8180 0.8180 0.8160
1381.629591 0.8160 0.8140 0.8140 0.8140 0.8140
1386.110558 0.8140 0.8130 0.8130 0.8130 0.8110
1390.591524 0.8090 0.8070 0.8060 0.8040 0.8020
1395.072491 0.7980 0.7970 0.7930 0.7900 0.7860
1399.553457 0.7810 0.7740 0.7630 0.7471 0.7311
1404.034423 0.7080 0.6920 0.6740 0.6690 0.6610
1408.515390 0.6201 0.6200 0.6280 0.6400 0.6609
1412.996356 0.6990 0.7180 0.7290 0.7430 0.7500
1417.477323 0.7560 0.7660 0.7750 0.7810 0.7880
1421.958289 0.7930 0.7970 0.7980 0.8000 0.8040
1426.439255 0.8060 0.8060 0.8060 0.8060 0.8040
1430.920222 0.8020 0.8000 0.8000 0.7970 0.7930
1435.401188 0.7880 0.7820 0.7790 0.7720 0.7660
1439.882155 0.7630 0.7450 0.7340 0.7220 0.7090
1444.363121 0.6990 0.6860 0.6740 0.6630 0.6510
1448.844087 0.6370 0.6240 0.6170 0.6150 0.6130
1453.325054 0.6130 0.6130 0.6130 0.6190 0.6190
1457.806020 0.6030 0.5920 0.5800 0.5690 0.5560
1462.286987 0.5440 0.5320 0.4911 0.4800 0.4641
1466.767953 0.4600 0.4550 0.4480 0.4350 0.4300
1471.248919 0.4250 0.4270 0.4300 0.4320 0.4350
1475.729886 0.4410 0.4440 0.4440 0.4460 0.4500
1480.210852 0.4500 0.4430 0.4390 0.4350 0.4390
1484.691819 0.4460 0.4550 0.4660 0.4850 0.4980
1489.172785 0.5100 0.5350 0.5579 0.5720 0.5899
1493.653751 0.6040 0.6170 0.6290 0.6420 0.6540
1498.134718 0.6650 0.6770 0.6880 0.6970 0.7020
1502.615684 0.7080 0.7130 0.7180 0.7220 0.7290
1507.096651 0.7330 0.7340 0.7380 0.7450 0.7470
1511.577617 0.7490 0.7520 0.7540 0.7580 0.7590
1516.058583 0.7650 0.7680 0.7700 0.7720 0.7790
1520.539550 0.7790 0.7810 0.7820 0.7880 0.7880
1525.020516 0.7950 0.7980 0.7980 0.8040 0.8070
1529.501483 0.8090 0.8090 0.8110 0.8130 0.8130
1533.982449 0.8140 0.8160 0.8180 0.8200 0.8200
1538.463416 0.8220 0.8220 0.8230 0.8250 0.8270
1542.944382 0.8270 0.8290 0.8300 0.8300 0.8320
1547.425348 0.8340 0.8360 0.8380 0.8380 0.8380
1551.906315 0.8390 0.8410 0.8410 0.8430 0.8430
1556.387281 0.8450 0.8460 0.8460 0.8480 0.8480
1560.868248 0.8500 0.8500 0.8500 0.8520 0.8520
1565.349214 0.8540 0.8540 0.8550 0.8550 0.8550
1569.830180 0.8550 0.8570 0.8570 0.8590 0.8570
1574.311147 0.8590 0.8590 0.8590 0.8590 0.8610
1578.792113 0.8610 0.8610 0.8610 0.8620 0.8620
1583.273080 0.8620 0.8640 0.8640 0.8640 0.8640
1587.754046 0.8640 0.8640 0.8660 0.8660 0.8660
1592.235012 0.8660 0.8680 0.8680 0.8680 0.8680
1596.715979 0.8680 0.8700 0.8700 0.8700 0.8680
1601.196945 0.8700 0.8680 0.8680 0.8680 0.8680
1605.677912 0.8680 0.8660 0.8660 0.8660 0.8660
1610.158878 0.8660 0.8680 0.8680 0.8680 0.8680
1614.639844 0.8680 0.8680 0.8700 0.8700 0.8700
1619.120811 0.8700 0.8700 0.8710 0.8710 0.8710
1623.601777 0.8710 0.8710 0.8710 0.8730 0.8730
1628.082744 0.8730 0.8750 0.8750 0.8750 0.8750
1632.563710 0.8770 0.8750 0.8750 0.8770 0.8750
1637.044676 0.8750 0.8770 0.8770 0.8770 0.8790
1641.525643 0.8790 0.8790 0.8790 0.8800 0.8800
1646.006609 0.8820 0.8820 0.8840 0.8840 0.8840
1650.487576 0.8860 0.8860 0.8860 0.8870 0.8870
1654.968542 0.8870 0.8890 0.8890 0.8890 0.8910
1659.449508 0.8890 0.8890 0.8890 0.8910 0.8910
1663.930475 0.8910 0.8910 0.8930 0.8910 0.8910
1668.411441 0.8930 0.8910 0.8910 0.8910 0.8910
1672.892408 0.8910 0.8910 0.8930 0.8930 0.8950
1677.373374 0.8950 0.8950 0.8950 0.8950 0.8950
1681.854341 0.8950 0.8950 0.8950 0.8950 0.8930
1686.335307 0.8930 0.8930 0.8950 0.8950 0.8950
1690.816273 0.8950 0.8950 0.8950 0.8950 0.8950
1695.297240 0.8930 0.8930 0.8930 0.8930 0.8910
1699.778206 0.8910 0.8950 0.8950 0.8950 0.8950
1704.259173 0.8950 0.8950 0.8950 0.8960 0.8960
1708.740139 0.8960 0.8960 0.8960 0.8960 0.8960
1713.221105 0.8980 0.8980 0.8980 0.8980 0.8980
1717.702072 0.8980 0.8980 0.8980 0.8980 0.8980
1722.183038 0.9000 0.9000 0.9000 0.9020 0.9020
1726.664005 0.9000 0.9000 0.9000 0.9000 0.9000
1731.144971 0.9000 0.9000 0.9000 0.9000 0.9000
1735.625937 0.9020 0.9020 0.9020 0.9020 0.9020
1740.106904 0.9020 0.9020 0.9020 0.9020 0.9020
1744.587870 0.9030 0.9030 0.9030 0.9050 0.9050
1749.068837 0.9050 0.9050 0.9050 0.9050 0.9050
1753.549803 0.9050 0.9050 0.9070 0.9070 0.9070
1758.030769 0.9070 0.9070 0.9090 0.9090 0.9090
1762.511736 0.9090 0.9090 0.9090 0.9090 0.9090
1766.992702 0.9110 0.9110 0.9110 0.9110 0.9110
1771.473669 0.9110 0.9120 0.9120 0.9120 0.9120
1775.954635 0.9140 0.9120 0.9120 0.9120 0.9120
1780.435601 0.9120 0.9120 0.9120 0.9120 0.9120
1784.916568 0.9120 0.9120 0.9120 0.9140 0.9140
1789.397534 0.9140 0.9140 0.9160 0.9160 0.9160
1793.878501 0.9160 0.9160 0.9160 0.9180 0.9180
1798.359467 0.9180 0.9180 0.9180 0.9190 0.9190
1802.840433 0.9190 0.9190 0.9190 0.9210 0.9210
1807.321400 0.9210 0.9210 0.9210 0.9210 0.9210
1811.802366 0.9230 0.9230 0.9230 0.9230 0.9230
1816.283333 0.9230 0.9230 0.9230 0.9250 0.9250
1820.764299 0.9250 0.9250 0.9250 0.9250 0.9270
1825.245265 0.9270 0.9270 0.9280 0.9280 0.9280
1829.726232 0.9280 0.9280 0.9280 0.9280 0.9300
1834.207198 0.9300 0.9300 0.9300 0.9300 0.9300
1838.688165 0.9300 0.9320 0.9320 0.9320 0.9320
1843.169131 0.9320 0.9320 0.9320 0.9320 0.9320
1847.650098 0.9320 0.9320 0.9320 0.9320 0.9320
1852.131064 0.9320 0.9340 0.9340 0.9340 0.9340
1856.612030 0.9340 0.9340 0.9340 0.9350 0.9350
1861.092997 0.9370 0.9350 0.9350 0.9350 0.9370
1865.573963 0.9370 0.9370 0.9390 0.9390 0.9390
1870.054930 0.9390 0.9390 0.9390 0.9390 0.9390
1874.535896 0.9390 0.9390 0.9390 0.9390 0.9390
1879.016862 0.9390 0.9390 0.9390 0.9390 0.9390
1883.497829 0.9390 0.9390 0.9390 0.9390 0.9390
1887.978795 0.9390 0.9390 0.9390 0.9390 0.9390
1892.459762 0.9390 0.9390 0.9390 0.9390 0.9390
1896.940728 0.9390 0.9390 0.9390 0.9390 0.9390
1901.421694 0.9390 0.9390 0.9390 0.9390 0.9390
1905.902661 0.9390 0.9390 0.9390 0.9370 0.9370
1910.383627 0.9370 0.9350 0.9350 0.9340 0.9340
1914.864594 0.9340 0.9340 0.9320 0.9320 0.9300
1919.345560 0.9300 0.9300 0.9280 0.9280 0.9280
1923.826526 0.9280 0.9270 0.9270 0.9270 0.9250
1928.307493 0.9250 0.9250 0.9230 0.9230 0.9230
1932.788459 0.9230 0.9230 0.9210 0.9210 0.9210
1937.269426 0.9190 0.9190 0.9190 0.9190 0.9180
1941.750392 0.9180 0.9160 0.9160 0.9160 0.9160
1946.231358 0.9160 0.9160 0.9160 0.9160 0.9160
1950.712325 0.9160 0.9140 0.9140 0.9140 0.9140
1955.193291 0.9140 0.9140 0.9140 0.9140 0.9140
1959.674258 0.9120 0.9120 0.9120 0.9120 0.9120
1964.155224 0.9120 0.9120 0.9110 0.9110 0.9110
1968.636190 0.9110 0.9110 0.9110 0.9090 0.9090
1973.117157 0.9090 0.9090 0.9090 0.9090 0.9090
1977.598123 0.9070 0.9070 0.9070 0.9050 0.9030
1982.079090 0.9030 0.9030 0.9030 0.9030 0.9030
1986.560056 0.9020 0.9020 0.9020 0.9000 0.9000
1991.041022 0.8980 0.8980 0.8960 0.8960 0.8950
1995.521989 0.8930 0.8910 0.8890 0.8870 0.8840
2000.002955 0.8820 0.8812 0.8805 0.8797 0.8790
2004.483922 0.8780 0.8770 0.8760 0.8750 0.8737
2008.964888 0.8724 0.8712 0.8699 0.8684 0.8669
2013.445855 0.8654 0.8639 0.8627 0.8614 0.8602
2017.926821 0.8589 0.8571 0.8554 0.8536 0.8519
2022.407787 0.8504 0.8488 0.8473 0.8458 0.8438
2026.888754 0.8418 0.8398 0.8378 0.8357 0.8337
2031.369720 0.8317 0.8298 0.8280 0.8262 0.8244
2035.850687 0.8227 0.8215 0.8202 0.8190 0.8173
2040.331653 0.8146 0.8118 0.8091 0.8062 0.8032
2044.812619 0.8002 0.7972 0.7941 0.7909 0.7876
2049.293586 0.7843 0.7809 0.7769 0.7728 0.7688
2053.774552 0.7636 0.7556 0.7476 0.7395 0.7327
2058.255519 0.7287 0.7247 0.7207 0.7166 0.7123
2062.736485 0.7081 0.7038 0.7003 0.6983 0.6963
2067.217451 0.6943 0.6924 0.6906 0.6888 0.6870
2071.698418 0.6854 0.6842 0.6829 0.6817 0.6808
2076.179384 0.6803 0.6798 0.6793 0.6811 0.6857
2080.660351 0.6902 0.6947 0.6994 0.7045 0.7095
2085.141317 0.7145 0.7176 0.7189 0.7201 0.7214
2089.622283 0.7226 0.7239 0.7252 0.7264 0.7275
2094.103250 0.7285 0.7295 0.7305 0.7314 0.7322
2098.584216 0.7329 0.7337 0.7346 0.7356 0.7366
2103.065183 0.7376 0.7390 0.7408 0.7426 0.7444
2107.546149 0.7457 0.7467 0.7477 0.7487 0.7490
2112.027115 0.7490 0.7490 0.7490 0.7487 0.7482
2116.508082 0.7476 0.7471 0.7470 0.7470 0.7470
2120.989048 0.7470 0.7466 0.7461 0.7456 0.7451
2125.470015 0.7441 0.7428 0.7416 0.7403 0.7387
2129.950981 0.7369 0.7352 0.7334 0.7315 0.7295
2134.431947 0.7274 0.7254 0.7230 0.7205 0.7180
2138.912914 0.7155 0.7132 0.7109 0.7086 0.7063
2143.393880 0.7049 0.7036 0.7024 0.7011 0.6985
2147.874847 0.6958 0.6930 0.6902 0.6875 0.6847
2152.355813 0.6820 0.6792 0.6783 0.6775 0.6768
2156.836780 0.6760 0.6746 0.6731 0.6716 0.6701
2161.317746 0.6698 0.6695 0.6693 0.6690 0.6690
2165.798712 0.6690 0.6690 0.6690 0.6685 0.6680
2170.279679 0.6675 0.6670 0.6665 0.6660 0.6655
2174.760645 0.6650 0.6650 0.6650 0.6650 0.6651
2179.241612 0.6656 0.6661 0.6666 0.6676 0.6723
2183.722578 0.6771 0.6819 0.6861 0.6871 0.6881
2188.203544 0.6891 0.6905 0.6940 0.6975 0.7011
2192.684511 0.7042 0.7052 0.7062 0.7072 0.7085
2197.165477 0.7115 0.7146 0.7176 0.7202 0.7215
2201.646444 0.7228 0.7240 0.7252 0.7262 0.7272
2206.127410 0.7282 0.7293 0.7305 0.7318 0.7330
2210.608376 0.7341 0.7346 0.7351 0.7357 0.7362
2215.089343 0.7367 0.7372 0.7377 0.7386 0.7403
2219.570309 0.7421 0.7439 0.7454 0.7464 0.7474
2224.051276 0.7484 0.7491 0.7493 0.7496 0.7498
2228.532242 0.7508 0.7528 0.7548 0.7568 0.7587
2233.013208 0.7605 0.7622 0.7640 0.7657 0.7675
2237.494175 0.7692 0.7710 0.7727 0.7745 0.7763
2241.975141 0.7780 0.7793 0.7801 0.7808 0.7816
2246.456108 0.7829 0.7850 0.7870 0.7891 0.7910
2250.937074 0.7927 0.7945 0.7962 0.7974 0.7982
2255.418040 0.7989 0.7997 0.8006 0.8016 0.8026
2259.899007 0.8036 0.8047 0.8060 0.8072 0.8085
2264.379973 0.8096 0.8106 0.8116 0.8126 0.8135
2268.860940 0.8142 0.8150 0.8157 0.8160 0.8160
2273.341906 0.8160 0.8160 0.8160 0.8160 0.8160
2277.822872 0.8160 0.8157 0.8152 0.8147 0.8142
2282.303839 0.8135 0.8127 0.8119 0.8112 0.8102
2286.784805 0.8092 0.8082 0.8072 0.8056 0.8039
2291.265772 0.8021 0.8004 0.7980 0.7955 0.7930
2295.746738 0.7905 0.7878 0.7850 0.7823 0.7795
2300.227704 0.7767 0.7740 0.7712 0.7685 0.7640
2304.708671 0.7592 0.7545 0.7497 0.7471 0.7448
2309.189637 0.7426 0.7403 0.7385 0.7367 0.7350
2313.670604 0.7332 0.7317 0.7302 0.7287 0.7272
2318.151570 0.7259 0.7246 0.7233 0.7220 0.7208
2322.632537 0.7195 0.7183 0.7170 0.7160 0.7150
2327.113503 0.7140 0.7130 0.7120 0.7110 0.7100
2331.594469 0.7090 0.7082 0.7075 0.7067 0.7060
2336.075436 0.7050 0.7040 0.7029 0.7020 0.7012
2340.556402 0.7005 0.6997 0.6989 0.6979 0.6969
2345.037369 0.6959 0.6949 0.6942 0.6934 0.6927
2349.518335 0.6919 0.6909 0.6899 0.6889 0.6879
2353.999301 0.6874 0.6869 0.6864 0.6858 0.6851
2358.480268 0.6843 0.6836 0.6828 0.6818 0.6808
2362.961234 0.6798 0.6788 0.6781 0.6773 0.6766
2367.442201 0.6759 0.6754 0.6749 0.6744 0.6737
2371.923167 0.6727 0.6717 0.6707 0.6698 0.6690
2376.404133 0.6683 0.6675 0.6665 0.6647 0.6630
2380.885100 0.6612 0.6595 0.6580 0.6565 0.6550
2385.366066 0.6525 0.6477 0.6429 0.6382 0.6333
2389.847033 0.6282 0.6231 0.6180 0.6131 0.6086
2394.327999 0.6041 0.5995 0.5951 0.5909 0.5866
2398.808965 0.5823 0.5782 0.5742 0.5702 0.5661
2403.289932 0.5619 0.5574 0.5529 0.5483 0.5438
2407.770898 0.5393 0.5348 0.5303 0.5231 0.5134
2412.251865 0.5036 0.4938 0.4862 0.4807 0.4751
2416.732831 0.4696 0.4642 0.4590 0.4537 0.4484
2421.213797 0.4423 0.4356 0.4288 0.4220 0.4180
2425.694764 0.4162 0.4144 0.4126 0.4112 0.4099
2430.175730 0.4087 0.4074 0.4063 0.4053 0.4043
2434.656697 0.4033 0.4025 0.4017 0.4010 0.4002
2439.137663 0.3997 0.3992 0.3987 0.3981 0.3975
2443.618629 0.3967 0.3960 0.3952 0.3936 0.3916
2448.099596 0.3895 0.3875 0.3861 0.3848 0.3836
2452.580562 0.3823 0.3807 0.3789 0.3772 0.3754
2457.061529 0.3742 0.3732 0.3722 0.3712 0.3710
2461.542495 0.3710 0.3710 0.3710 0.3723 0.3738
2466.023462 0.3753 0.3768 0.3777 0.3784 0.3792
2470.504428 0.3799 0.3809 0.3819 0.3829 0.3839
2474.985394 0.3851 0.3864 0.3876 0.3889 0.3890
2479.466361 0.3890 0.3890 0.3890 0.3895 0.3900
2483.947327 0.3905 0.3910 0.3910 0.3910 0.3910
2488.428294 0.3910 0.3905 0.3900 0.3895 0.3890
2492.909260 0.3883 0.3875 0.3868 0.3860 0.3860
2497.390226 0.3860 0.3860 0.3860 0.3855 0.3850
2501.871193 0.3845 0.3840 0.3846 0.3851 0.3856
2506.352159 0.3860 0.3863 0.3865 0.3868 0.3872
2510.833126 0.3887 0.3902 0.3917 0.3932 0.3950
2515.314092 0.3968 0.3985 0.4004 0.4026 0.4049
2519.795058 0.4071 0.4105 0.4193 0.4281 0.4369
2524.276025 0.4449 0.4500 0.4550 0.4600 0.4653
2528.756991 0.4715 0.4778 0.4841 0.4896 0.4924
2533.237958 0.4952 0.4980 0.5008 0.5033 0.5058
2537.718924 0.5083 0.5107 0.5130 0.5152 0.5175
2542.199890 0.5207 0.5257 0.5307 0.5357 0.5404
2546.680857 0.5444 0.5484 0.5524 0.5565 0.5608
2551.161823 0.5651 0.5693 0.5735 0.5775 0.5815
2555.642790 0.5856 0.5896 0.5936 0.5976 0.6016
2560.123756 0.6056 0.6096 0.6137 0.6177 0.6218
2564.604722 0.6261 0.6303 0.6346 0.6386 0.6421
2569.085689 0.6457 0.6493 0.6528 0.6563 0.6599
2573.566655 0.6634 0.6659 0.6677 0.6695 0.6712
2578.047622 0.6730 0.6747 0.6765 0.6782 0.6803
2582.528588 0.6825 0.6848 0.6871 0.6890 0.6908
2587.009554 0.6925 0.6943 0.6963 0.6986 0.7009
2591.490521 0.7031 0.7048 0.7060 0.7073 0.7085
2595.971487 0.7104 0.7127 0.7149 0.7172 0.7201
2600.452454 0.7234 0.7266 0.7299 0.7318 0.7331
2604.933420 0.7344 0.7357 0.7369 0.7382 0.7394
2609.414386 0.7407 0.7421 0.7436 0.7451 0.7467
2613.895353 0.7474 0.7479 0.7484 0.7489 0.7492
2618.376319 0.7494 0.7497 0.7500 0.7508 0.7518
2622.857286 0.7528 0.7538 0.7550 0.7563 0.7575
2627.338252 0.7588 0.7603 0.7618 0.7633 0.7648
2631.819219 0.7656 0.7664 0.7671 0.7679 0.7689
2636.300185 0.7699 0.7709 0.7719 0.7727 0.7734
2640.781151 0.7742 0.7750 0.7760 0.7770 0.7780
2645.262118 0.7790 0.7797 0.7805 0.7812 0.7820
2649.743084 0.7830 0.7840 0.7850 0.7860 0.7870
2654.224051 0.7880 0.7890 0.7900 0.7913 0.7925
2658.705017 0.7938 0.7950 0.7955 0.7960 0.7965
2663.185983 0.7970 0.7978 0.7985 0.7993 0.8000
2667.666950 0.8005 0.8010 0.8015 0.8020 0.8020
2672.147916 0.8020 0.8020 0.8021 0.8031 0.8041
2676.628883 0.8052 0.8060 0.8063 0.8065 0.8068
2681.109849 0.8070 0.8070 0.8070 0.8070 0.8071
2685.590815 0.8076 0.8081 0.8086 0.8091 0.8096
2690.071782 0.8101 0.8106 0.8110 0.8110 0.8110
2694.552748 0.8110 0.8111 0.8116 0.8121 0.8126
2699.033715 0.8130 0.8130 0.8130 0.8130 0.8131
2703.514681 0.8133 0.8136 0.8138 0.8143 0.8153
2707.995647 0.8163 0.8173 0.8183 0.8193 0.8204
2712.476614 0.8214 0.8221 0.8224 0.8226 0.8229
2716.957580 0.8232 0.8237 0.8242 0.8247 0.8250
2721.438547 0.8250 0.8250 0.8250 0.8252 0.8257
2725.919513 0.8262 0.8267 0.8272 0.8277 0.8282
2730.400479 0.8287 0.8291 0.8294 0.8296 0.8299
2734.881446 0.8300 0.8300 0.8300 0.8300 0.8305
2739.362412 0.8315 0.8325 0.8335 0.8343 0.8348
2743.843379 0.8353 0.8358 0.8360 0.8360 0.8360
2748.324345 0.8360 0.8363 0.8368 0.8373 0.8378
2752.805311 0.8380 0.8380 0.8380 0.8380 0.8382
2757.286278 0.8384 0.8387 0.8389 0.8397 0.8407
2761.767244 0.8417 0.8427 0.8430 0.8430 0.8430
2766.248211 0.8430 0.8430 0.8430 0.8430 0.8430
2770.729177 0.8434 0.8439 0.8444 0.8449 0.8450
2775.210144 0.8450 0.8450 0.8450 0.8450 0.8450
2779.691110 0.8450 0.8450 0.8450 0.8450 0.8450
2784.172076 0.8450 0.8450 0.8450 0.8450 0.8450
2788.653043 0.8450 0.8450 0.8450 0.8450 0.8450
2793.134009 0.8450 0.8450 0.8450 0.8450 0.8450
2797.614976 0.8450 0.8450 0.8445 0.8440 0.8435
2802.095942 0.8430 0.8425 0.8420 0.8415 0.8410
2806.576908 0.8410 0.8410 0.8410 0.8410 0.8405
2811.057875 0.8400 0.8395 0.8390 0.8390 0.8390
2815.538841 0.8390 0.8390 0.8390 0.8390 0.8390
2820.019808 0.8390 0.8387 0.8385 0.8382 0.8380
2824.500774 0.8375 0.8370 0.8365 0.8359 0.8349
2828.981740 0.8339 0.8329 0.8319 0.8312 0.8304
2833.462707 0.8297 0.8290 0.8290 0.8290 0.8290
2837.943673 0.8289 0.8284 0.8279 0.8274 0.8270
2842.424640 0.8270 0.8270 0.8270 0.8269 0.8264
2846.905606 0.8259 0.8254 0.8250 0.8250 0.8250
2851.386572 0.8250 0.8249 0.8244 0.8239 0.8234
2855.867539 0.8229 0.8227 0.8224 0.8222 0.8219
2860.348505 0.8213 0.8208 0.8203 0.8198 0.8193
2864.829472 0.8188 0.8183 0.8178 0.8173 0.8168
2869.310438 0.8163 0.8158 0.8153 0.8148 0.8143
2873.791404 0.8137 0.8130 0.8122 0.8115 0.8105
2878.272371 0.8093 0.8080 0.8068 0.8056 0.8046
2882.753337 0.8036 0.8026 0.8016 0.8006 0.7996
2887.234304 0.7986 0.7980 0.7980 0.7980 0.7980
2891.715270 0.7971 0.7954 0.7936 0.7919 0.7904
2896.196236 0.7891 0.7878 0.7866 0.7855 0.7845
2900.677203 0.7835 0.7825 0.7816 0.7808 0.7801
2905.158169 0.7793 0.7780 0.7763 0.7745 0.7727
2909.639136 0.7711 0.7696 0.7681 0.7666 0.7656
2914.120102 0.7648 0.7641 0.7633 0.7624 0.7614
2918.601068 0.7604 0.7594 0.7574 0.7549 0.7524
2923.082035 0.7499 0.7477 0.7457 0.7436 0.7416
2927.563001 0.7401 0.7388 0.7376 0.7363 0.7338
2932.043968 0.7308 0.7278 0.7247 0.7229 0.7214
2936.524934 0.7199 0.7184 0.7170 0.7158 0.7145
2941.005901 0.7133 0.7116 0.7099 0.7081 0.7064
2945.486867 0.7042 0.7019 0.6997 0.6974 0.6952
2949.967833 0.6929 0.6907 0.6884 0.6865 0.6848
2954.448800 0.6830 0.6813 0.6802 0.6792 0.6781
2958.929766 0.6771 0.6768 0.6765 0.6763 0.6760
2963.410733 0.6762 0.6765 0.6767 0.6770 0.6792
2967.891699 0.6814 0.6837 0.6859 0.6909 0.6959
2972.372665 0.7009 0.7059 0.7082 0.7105 0.7127
2976.853632 0.7150 0.7195 0.7240 0.7286 0.7331
2981.334598 0.7371 0.7411 0.7451 0.7490 0.7498
2985.815565 0.7505 0.7513 0.7520 0.7525 0.7530
2990.296531 0.7535 0.7540 0.7545 0.7550 0.7555
2994.777497 0.7560 0.7560 0.7560 0.7560 0.7557
2999.258464 0.7540 0.7522 0.7504 0.7485 0.7458
3003.739430 0.7430 0.7402 0.7373 0.7338 0.7303
3008.220397 0.7268 0.7233 0.7201 0.7168 0.7135
3012.701363 0.7109 0.7104 0.7099 0.7094 0.7090
3017.182329 0.7090 0.7090 0.7090 0.7093 0.7103
3021.663296 0.7113 0.7123 0.7133 0.7143 0.7153
3026.144262 0.7163 0.7175 0.7192 0.7210 0.7228
3030.625229 0.7248 0.7273 0.7299 0.7324 0.7352
3035.106195 0.7385 0.7418 0.7450 0.7481 0.7509
3039.587161 0.7536 0.7564 0.7620 0.7718 0.7816
3044.068128 0.7914 0.7975 0.7988 0.8000 0.8013
3048.549094 0.8028 0.8045 0.8063 0.8080 0.8096
3053.030061 0.8108 0.8121 0.8133 0.8147 0.8162
3057.511027 0.8177 0.8192 0.8202 0.8207 0.8212
3061.991993 0.8217 0.8224 0.8231 0.8239 0.8246
3066.472960 0.8253 0.8258 0.8263 0.8268 0.8273
3070.953926 0.8278 0.8283 0.8288 0.8292 0.8294
3075.434893 0.8297 0.8299 0.8300 0.8300 0.8300
3079.915859 0.8300 0.8303 0.8308 0.8313 0.8318
3084.396825 0.8323 0.8328 0.8333 0.8338 0.8343
3088.877792 0.8348 0.8353 0.8358 0.8363 0.8368
3093.358758 0.8374 0.8379 0.8380 0.8380 0.8380
3097.839725 0.8380 0.8382 0.8384 0.8387 0.8389
3102.320691 0.8390 0.8390 0.8390 0.8390 0.8398
3106.801658 0.8408 0.8418 0.8428 0.8434 0.8439
3111.282624 0.8444 0.8449 0.8450 0.8450 0.8450
3115.763590 0.8450 0.8450 0.8450 0.8450 0.8450
3120.244557 0.8452 0.8455 0.8457 0.8460 0.8460
3124.725523 0.8460 0.8460 0.8460 0.8460 0.8460
3129.206490 0.8460 0.8460 0.8460 0.8460 0.8460
3133.687456 0.8460 0.8460 0.8460 0.8460 0.8460
3138.168422 0.8465 0.8470 0.8475 0.8480 0.8480
3142.649389 0.8480 0.8480 0.8480 0.8480 0.8480
3147.130355 0.8480 0.8480 0.8480 0.8480 0.8480
3151.611322 0.8480 0.8480 0.8480 0.8480 0.8480
3156.092288 0.8480 0.8480 0.8480 0.8480 0.8480
3160.573254 0.8480 0.8480 0.8480 0.8480 0.8480
3165.054221 0.8480 0.8480 0.8480 0.8480 0.8480
3169.535187 0.8480 0.8480 0.8480 0.8480 0.8480
3174.016154 0.8480 0.8480 0.8480 0.8480 0.8480
3178.497120 0.8480 0.8480 0.8481 0.8486 0.8491
3182.978086 0.8496 0.8499 0.8494 0.8488 0.8483
3187.459053 0.8480 0.8480 0.8480 0.8480 0.8480
3191.940019 0.8480 0.8480 0.8480 0.8480 0.8480
3196.420986 0.8480 0.8480 0.8480 0.8480 0.8480
3200.901952 0.8480 0.8478 0.8473 0.8468 0.8463
3205.382918 0.8460 0.8460 0.8460 0.8460 0.8460
3209.863885 0.8460 0.8460 0.8460 0.8459 0.8456
3214.344851 0.8454 0.8451 0.8450 0.8450 0.8450
3218.825818 0.8450 0.8450 0.8450 0.8450 0.8450
3223.306784 0.8447 0.8442 0.8437 0.8432 0.8427
3227.787750 0.8422 0.8417 0.8412 0.8410 0.8410
3232.268717 0.8410 0.8410 0.8407 0.8402 0.8397
3236.749683 0.8392 0.8390 0.8390 0.8390 0.8390
3241.230650 0.8388 0.8386 0.8383 0.8381 0.8380
3245.711616 0.8380 0.8380 0.8380 0.8376 0.8371
3250.192583 0.8366 0.8361 0.8360 0.8360 0.8360
3254.673549 0.8360 0.8360 0.8360 0.8360 0.8360
3259.154515 0.8360 0.8360 0.8360 0.8360 0.8356
3263.635482 0.8351 0.8346 0.8341 0.8340 0.8340
3268.116448 0.8340 0.8340 0.8340 0.8340 0.8340
3272.597415 0.8340 0.8340 0.8340 0.8340 0.8340
3277.078381 0.8340 0.8340 0.8340 0.8340 0.8340
3281.559347 0.8340 0.8340 0.8340 0.8335 0.8330
3286.040314 0.8325 0.8320 0.8320 0.8320 0.8320
3290.521280 0.8320 0.8320 0.8320 0.8320 0.8320
3295.002247 0.8320 0.8320 0.8320 0.8320 0.8320
3299.483213 0.8320 0.8320 0.8320 0.8315 0.8310
3303.964179 0.8305 0.8300 0.8300 0.8300 0.8300
3308.445146 0.8300 0.8300 0.8300 0.8300 0.8300
3312.926112 0.8300 0.8300 0.8300 0.8300 0.8300
3317.407079 0.8300 0.8300 0.8300 0.8297 0.8295
3321.888045 0.8292 0.8290 0.8290 0.8290 0.8290
3326.369011 0.8289 0.8284 0.8279 0.8274 0.8270
3330.849978 0.8270 0.8270 0.8270 0.8270 0.8270
3335.330944 0.8270 0.8270 0.8269 0.8264 0.8259
3339.811911 0.8254 0.8250 0.8250 0.8250 0.8250
3344.292877 0.8250 0.8250 0.8250 0.8250 0.8250
3348.773843 0.8250 0.8250 0.8250 0.8250 0.8250
3353.254810 0.8250 0.8250 0.8248 0.8243 0.8238
3357.735776 0.8233 0.8230 0.8230 0.8230 0.8230
3362.216743 0.8230 0.8230 0.8230 0.8230 0.8230
3366.697709 0.8230 0.8230 0.8230 0.8229 0.8226
3371.178675 0.8224 0.8221 0.8220 0.8220 0.8220
3375.659642 0.8220 0.8220 0.8220 0.8220 0.8220
3380.140608 0.8218 0.8213 0.8208 0.8203 0.8198
3384.621575 0.8193 0.8188 0.8183 0.8180 0.8180
3389.102541 0.8180 0.8180 0.8177 0.8172 0.8167
3393.583507 0.8162 0.8160 0.8160 0.8160 0.8160
3398.064474 0.8160 0.8160 0.8160 0.8160 0.8157
3402.545440 0.8152 0.8147 0.8142 0.8138 0.8136
3407.026407 0.8133 0.8131 0.8130 0.8130 0.8130
3411.507373 0.8130 0.8130 0.8130 0.8130 0.8130
3415.988340 0.8127 0.8122 0.8117 0.8112 0.8110
3420.469306 0.8110 0.8110 0.8110 0.8110 0.8110
3424.950272 0.8110 0.8110 0.8110 0.8110 0.8110
3429.431239 0.8110 0.8110 0.8110 0.8110 0.8110
3433.912205 0.8110 0.8110 0.8110 0.8110 0.8110
3438.393172 0.8110 0.8110 0.8110 0.8110 0.8110
3442.874138 0.8110 0.8110 0.8110 0.8110 0.8110
3447.355104 0.8110 0.8110 0.8110 0.8110 0.8110
3451.836071 0.8110 0.8110 0.8110 0.8110 0.8110
3456.317037 0.8110 0.8110 0.8110 0.8110 0.8110
3460.798004 0.8110 0.8110 0.8110 0.8110 0.8110
3465.278970 0.8110 0.8110 0.8110 0.8110 0.8110
3469.759936 0.8110 0.8110 0.8110 0.8110 0.8110
3474.240903 0.8110 0.8110 0.8110 0.8115 0.8120
3478.721869 0.8125 0.8130 0.8130 0.8130 0.8130
3483.202836 0.8130 0.8133 0.8135 0.8138 0.8141
3487.683802 0.8146 0.8151 0.8156 0.8160 0.8160
3492.164768 0.8160 0.8160 0.8160 0.8160 0.8160
3496.645735 0.8160 0.8161 0.8166 0.8171 0.8176
3501.126701 0.8181 0.8186 0.8191 0.8196 0.8201
3505.607668 0.8206 0.8211 0.8216 0.8220 0.8220
3510.088634 0.8220 0.8220 0.8220 0.8220 0.8220
3514.569600 0.8220 0.8221 0.8223 0.8226 0.8228
3519.050567 0.8232 0.8237 0.8242 0.8247 0.8250
3523.531533 0.8250 0.8250 0.8250 0.8252 0.8257
3528.012500 0.8262 0.8267 0.8273 0.8281 0.8288
3532.493466 0.8296 0.8302 0.8307 0.8312 0.8317
3536.974432 0.8320 0.8320 0.8320 0.8320 0.8322
3541.455399 0.8327 0.8333 0.8338 0.8343 0.8348
3545.936365 0.8353 0.8358 0.8363 0.8368 0.8373
3550.417332 0.8378 0.8381 0.8384 0.8386 0.8389
3554.898298 0.8393 0.8398 0.8403 0.8408 0.8410
3559.379265 0.8410 0.8410 0.8410 0.8416 0.8426
3563.860231 0.8436 0.8446 0.8452 0.8454 0.8457
3568.341197 0.8459 0.8463 0.8468 0.8473 0.8478
3572.822164 0.8483 0.8489 0.8494 0.8499 0.8504
3577.303130 0.8509 0.8514 0.8519 0.8520 0.8520
3581.784097 0.8520 0.8520 0.8524 0.8529 0.8534
3586.265063 0.8539 0.8540 0.8540 0.8540 0.8540
3590.746029 0.8542 0.8544 0.8547 0.8549 0.8554
3595.226996 0.8559 0.8564 0.8569 0.8574 0.8579
3599.707962 0.8584 0.8589 0.8594 0.8599 0.8604
3604.188929 0.8609 0.8617 0.8624 0.8632 0.8639
3608.669895 0.8645 0.8650 0.8655 0.8660 0.8660
3613.150861 0.8660 0.8660 0.8660 0.8665 0.8670
3617.631828 0.8675 0.8680 0.8685 0.8690 0.8695
3622.112794 0.8700 0.8707 0.8715 0.8722 0.8730
3626.593761 0.8730 0.8730 0.8730 0.8730 0.8740
3631.074727 0.8750 0.8760 0.8770 0.8770 0.8770
3635.555693 0.8770 0.8770 0.8775 0.8780 0.8785
3640.036660 0.8790 0.8790 0.8790 0.8790 0.8790
3644.517626 0.8793 0.8795 0.8798 0.8801 0.8806
3648.998593 0.8811 0.8816 0.8820 0.8820 0.8820
3653.479559 0.8820 0.8821 0.8826 0.8831 0.8836
3657.960525 0.8841 0.8849 0.8857 0.8864 0.8870
3662.441492 0.8870 0.8870 0.8870 0.8871 0.8876
3666.922458 0.8881 0.8886 0.8890 0.8890 0.8890
3671.403425 0.8890 0.8893 0.8903 0.8913 0.8923
3675.884391 0.8930 0.8930 0.8930 0.8930 0.8932
3680.365357 0.8937 0.8942 0.8947 0.8950 0.8950
3684.846324 0.8950 0.8950 0.8951 0.8953 0.8956
3689.327290 0.8958 0.8962 0.8967 0.8972 0.8977
3693.808257 0.8980 0.8980 0.8980 0.8980 0.8982
3698.289223 0.8987 0.8992 0.8997 0.9000 0.9000
3702.770189 0.9000 0.9000 0.9000 0.9000 0.9000
3707.251156 0.9000 0.9002 0.9008 0.9013 0.9018
3711.732122 0.9020 0.9020 0.9020 0.9020 0.9021
3716.213089 0.9024 0.9026 0.9029 0.9030 0.9030
3720.694055 0.9030 0.9030 0.9030 0.9030 0.9030
3725.175022 0.9030 0.9030 0.9030 0.9030 0.9030
3729.655988 0.9030 0.9030 0.9030 0.9030 0.9033
3734.136954 0.9038 0.9043 0.9048 0.9050 0.9050
3738.617921 0.9050 0.9050 0.9050 0.9050 0.9050
3743.098887 0.9050 0.9050 0.9050 0.9050 0.9050
3747.579854 0.9050 0.9050 0.9050 0.9050 0.9050
3752.060820 0.9050 0.9050 0.9050 0.9050 0.9050
3756.541786 0.9050 0.9050 0.9050 0.9050 0.9050
3761.022753 0.9050 0.9050 0.9050 0.9050 0.9050
3765.503719 0.9054 0.9059 0.9064 0.9069 0.9070
3769.984686 0.9070 0.9070 0.9070 0.9070 0.9070
3774.465652 0.9070 0.9070 0.9070 0.9070 0.9070
3778.946618 0.9070 0.9070 0.9070 0.9070 0.9070
3783.427585 0.9070 0.9070 0.9070 0.9070 0.9070
3787.908551 0.9070 0.9070 0.9070 0.9070 0.9070
3792.389518 0.9070 0.9070 0.9070 0.9070 0.9070
3796.870484 0.9070 0.9070 0.9070 0.9070 0.9070
3801.351450 0.9065 0.9060 0.9055 0.9050 0.9050
3805.832417 0.9050 0.9050 0.9050 0.9050 0.9050
3810.313383 0.9050 0.9050 0.9050 0.9050 0.9050
3814.794350 0.9050 0.9050 0.9050 0.9050 0.9051
3819.275316 0.9056 0.9061 0.9066 0.9070 0.9070
3823.756282 0.9070 0.9070 0.9070 0.9070 0.9070
3828.237249 0.9070 0.9070 0.9070 0.9070 0.9070
3832.718215 0.9070 0.9070 0.9070 0.9070 0.9070
3837.199182 0.9070 0.9070 0.9070 0.9070 0.9070
3841.680148 0.9070 0.9070 0.9070 0.9070 0.9070
3846.161114 0.9070 0.9068 0.9063 0.9058 0.9053
3850.642081 0.9050 0.9050 0.9050 0.9050 0.9050
3855.123047 0.9050 0.9050 0.9050 0.9050 0.9050
3859.604014 0.9050 0.9050 0.9050 0.9050 0.9050
3864.084980 0.9050 0.9050 0.9050 0.9050 0.9050
3868.565946 0.9050 0.9050 0.9050 0.9050 0.9047
3873.046913 0.9042 0.9037 0.9032 0.9030 0.9030
3877.527879 0.9030 0.9030 0.9030 0.9030 0.9030
3882.008846 0.9030 0.9030 0.9030 0.9030 0.9030
3886.489812 0.9029 0.9026 0.9023 0.9021 0.9020
3890.970779 0.9020 0.9020 0.9020 0.9020 0.9020
3895.451745 0.9020 0.9020 0.9017 0.9012 0.9006
3899.932711 0.9001 0.9000 0.9000 0.9000 0.9000
3904.413678 0.9000 0.9000 0.9000 0.9000 0.9000
3908.894644 0.9000 0.9000 0.9000 0.9000 0.9000
3913.375611 0.9000 0.9000 0.9000 0.9000 0.9000
3917.856577 0.9000 0.9000 0.9000 0.9000 0.9000
3922.337543 0.8996 0.8991 0.8986 0.8981 0.8980
3926.818510 0.8980 0.8980 0.8980 0.8976 0.8970
3931.299476 0.8965 0.8960 0.8960 0.8960 0.8960
3935.780443 0.8960 0.8960 0.8960 0.8960 0.8960
3940.261409 0.8960 0.8960 0.8960 0.8960 0.8960
3944.742375 0.8960 0.8960 0.8960 0.8960 0.8960
3949.223342 0.8960 0.8960 0.8960 0.8960 0.8960
3953.704308 0.8960 0.8960 0.8960 0.8960 0.8960
3958.185275 0.8960 0.8960 0.8960 0.8960 0.8960
3962.666241 0.8960 0.8960 0.8960 0.8960 0.8960
3967.147207 0.8960 0.8960 0.8960 0.8960 0.8960
3971.628174 0.8960 0.8960 0.8960 0.8960 0.8961
3976.109140 0.8966 0.8971 0.8976
##END=
