##TITLE=Formic acid, (phenylazo)thio-, 2-phenylhydrazide, Ni-complex
##JCAMP-DX=4.24
##DATA TYPE=INFRARED SPECTRUM
##CLASS=COBLENTZ III
##ORIGIN=DOW CHEMICAL COMPANY
##OWNER=COBLENTZ SOC.
Collection (C) 2018 copyright by the U.S. Secretary of Commerce
on behalf of the United States of America. All rights reserved.
##DATE=Not specified, most likely prior to 1971
##NAMES=NICKEL, BIS[(PHENYLAZO)THIOFORMIC ACID 2-PHENYLHYDRAZIDATO]-
##MOLFORM=C26 H22 N8 Ni S2
##SOURCE REFERENCE=COBLENTZ NO. 08538
##$NIST ID=B6008538
##$NIST SOURCE=COBLENTZ
##$NIST IMAGE=cob8538
##SPECTROMETER/DATA SYSTEM=DOW KBr FOREPRISM-GRATING
##INSTRUMENT PARAMETERS=BLAZED AT 3.5, 12.0, 20.0 MICRON AND CHANGED AT 5.0, 7.5, 14.9 MICRON
##STATE=SOLID (SPLIT MULL), FLUOROLUBE FOR 3800-1330 CM^-^1, NUJOL FOR 1330-400 CM^-^1
##SAMPLING PROCEDURE=TRANSMISSION
##RESOLUTION=2
##DATA PROCESSING=DIGITIZED BY COBLENTZ SOCIETY (BATCH I) FROM HARD COPY
##XUNITS=1/CM
##YUNITS=TRANSMITTANCE
##XLABEL=Wavenumbers (cm-1)
##YLABEL=% Transmission
##XFACTOR=1
##YFACTOR=1
##DELTAX=1
##FIRSTX=382
##LASTX=3800
##FIRSTY=0.8421
##MAXX=3800
##MINX=382
##MAXY=0.8968
##MINY=0.0253
##NPOINTS=3419
##XYDATA=(X++(Y..Y))
382.000000 0.8421 0.8431 0.8439 0.8447 0.8454
387.000000 0.8460 0.8466 0.8471 0.8478 0.8485
392.000000 0.8491 0.8497 0.8470 0.8505 0.8509
397.000000 0.8513 0.8517 0.8521 0.8525 0.8525
402.000000 0.8527 0.8527 0.8528 0.8528 0.8528
407.000000 0.8528 0.8528 0.8528 0.8525 0.8521
412.000000 0.8517 0.8514 0.8510 0.8502 0.8488
417.000000 0.8474 0.8460 0.8434 0.8407 0.8378
422.000000 0.8327 0.8175 0.8093 0.8057 0.8051
427.000000 0.8051 0.8055 0.8032 0.8115 0.8189
432.000000 0.8300 0.8423 0.8599 0.8701 0.8706
437.000000 0.8711 0.8709 0.8708 0.8707 0.8696
442.000000 0.8689 0.8683 0.8677 0.8670 0.8664
447.000000 0.8657 0.8650 0.8642 0.8635 0.8628
452.000000 0.8621 0.8614 0.8608 0.8602 0.8596
457.000000 0.8590 0.8584 0.8578 0.8571 0.8562
462.000000 0.8551 0.8540 0.8528 0.8517 0.8506
467.000000 0.8495 0.8484 0.8473 0.8462 0.8450
472.000000 0.8438 0.8425 0.8414 0.8403 0.8391
477.000000 0.8373 0.8346 0.8320 0.8281 0.8230
482.000000 0.8178 0.8111 0.8040 0.7968 0.7892
487.000000 0.7750 0.7521 0.7086 0.6924 0.6811
492.000000 0.6799 0.6787 0.6775 0.6682 0.6485
497.000000 0.6289 0.6183 0.6208 0.6850 0.7328
502.000000 0.7807 0.8093 0.8093 0.8071 0.8057
507.000000 0.8039 0.8015 0.7982 0.7940 0.7899
512.000000 0.7845 0.7758 0.7649 0.7536 0.7421
517.000000 0.7291 0.7025 0.6865 0.6787 0.6751
522.000000 0.6749 0.6761 0.6788 0.6841 0.6926
527.000000 0.7024 0.7161 0.7730 0.8018 0.8148
532.000000 0.8199 0.8225 0.8234 0.8217 0.8208
537.000000 0.8196 0.8183 0.8057 0.7903 0.7748
542.000000 0.7594 0.7528 0.7551 0.7896 0.8101
547.000000 0.8308 0.8494 0.8536 0.8567 0.8588
552.000000 0.8606 0.8618 0.8627 0.8633 0.8639
557.000000 0.8644 0.8649 0.8655 0.8670 0.8660
562.000000 0.8662 0.8662 0.8658 0.8655 0.8651
567.000000 0.8648 0.8644 0.8640 0.8636 0.8632
572.000000 0.8628 0.8624 0.8620 0.8613 0.8604
577.000000 0.8595 0.8571 0.8537 0.8500 0.8403
582.000000 0.8368 0.8349 0.8350 0.8350 0.8347
587.000000 0.8345 0.8339 0.8297 0.8126 0.7978
592.000000 0.7860 0.7865 0.7892 0.7930 0.7971
597.000000 0.8041 0.8235 0.8425 0.8652 0.8673
602.000000 0.8675 0.8675 0.8675 0.8678 0.8655
607.000000 0.8590 0.8406 0.8247 0.8295 0.8371
612.000000 0.8449 0.8527 0.8567 0.8559 0.8550
617.000000 0.8539 0.8400 0.8100 0.7800 0.7531
622.000000 0.7554 0.8368 0.8843 0.8858 0.8874
627.000000 0.8893 0.8910 0.8921 0.8928 0.8935
632.000000 0.8942 0.8949 0.8954 0.8959 0.8964
637.000000 0.8968 0.8968 0.8968 0.8968 0.8967
642.000000 0.8966 0.8965 0.8964 0.8963 0.8959
647.000000 0.8955 0.8952 0.8948 0.8944 0.8936
652.000000 0.8927 0.8918 0.8911 0.8903 0.8895
657.000000 0.8886 0.8878 0.8871 0.8864 0.8857
662.000000 0.8850 0.8832 0.8791 0.8738 0.8675
667.000000 0.8631 0.8623 0.8618 0.8614 0.8608
672.000000 0.8602 0.8595 0.8580 0.8552 0.8497
677.000000 0.8412 0.8247 0.8111 0.8015 0.7911
682.000000 0.6904 0.5906 0.4908 0.4586 0.4589
687.000000 0.4836 0.5270 0.5704 0.6138 0.6571
692.000000 0.7006 0.7440 0.7874 0.8131 0.8244
697.000000 0.8373 0.8491 0.8555 0.8595 0.8631
702.000000 0.8637 0.8636 0.8634 0.8615 0.8596
707.000000 0.8575 0.8556 0.8531 0.8505 0.8450
712.000000 0.8387 0.8321 0.8253 0.8171 0.8042
717.000000 0.7508 0.6084 0.6066 0.6576 0.7005
722.000000 0.7433 0.7612 0.7637 0.7658 0.7665
727.000000 0.7665 0.7664 0.7682 0.7628 0.7590
732.000000 0.7350 0.6972 0.6596 0.6218 0.5841
737.000000 0.5795 0.5808 0.6162 0.6900 0.7603
742.000000 0.7665 0.7695 0.7708 0.7722 0.7693
747.000000 0.7646 0.7594 0.7387 0.6604 0.5821
752.000000 0.5037 0.4254 0.3536 0.3558 0.3956
757.000000 0.4782 0.5609 0.6436 0.7262 0.7626
762.000000 0.7721 0.7960 0.8111 0.8210 0.8266
767.000000 0.8309 0.8348 0.8380 0.8402 0.8416
772.000000 0.8430 0.8444 0.8458 0.8464 0.8467
777.000000 0.8471 0.8474 0.8502 0.8468 0.8463
782.000000 0.8449 0.8428 0.8398 0.8365 0.8325
787.000000 0.8277 0.8175 0.7805 0.7775 0.7869
792.000000 0.8043 0.8216 0.8389 0.8555 0.8589
797.000000 0.8599 0.8604 0.8606 0.8606 0.8605
802.000000 0.8591 0.8601 0.8599 0.8590 0.8580
807.000000 0.8570 0.8553 0.8537 0.8520 0.8503
812.000000 0.8486 0.8458 0.8428 0.8400 0.8359
817.000000 0.8324 0.8307 0.8307 0.8317 0.8340
822.000000 0.8371 0.8387 0.8389 0.8389 0.8388
827.000000 0.8386 0.8383 0.8374 0.8364 0.8355
832.000000 0.8344 0.8328 0.8308 0.8285 0.8193
837.000000 0.8043 0.7893 0.7843 0.8065 0.8324
842.000000 0.8470 0.8477 0.8478 0.8481 0.8481
847.000000 0.8481 0.8478 0.8475 0.8473 0.8468
852.000000 0.8458 0.8448 0.8438 0.8428 0.8409
857.000000 0.8343 0.8278 0.8212 0.8175 0.8182
862.000000 0.8245 0.8321 0.8354 0.8363 0.8368
867.000000 0.8368 0.8367 0.8365 0.8362 0.8360
872.000000 0.8356 0.8352 0.8347 0.8342 0.8337
877.000000 0.8331 0.8318 0.8307 0.8292 0.8271
882.000000 0.8238 0.8204 0.8167 0.8124 0.8072
887.000000 0.7968 0.7817 0.7624 0.7557 0.7695
892.000000 0.7939 0.8051 0.8051 0.8051 0.8044
897.000000 0.8038 0.8030 0.8017 0.8004 0.7988
902.000000 0.7964 0.7939 0.7907 0.7849 0.7739
907.000000 0.7628 0.7518 0.7446 0.7460 0.7574
912.000000 0.7687 0.7801 0.7825 0.7834 0.7842
917.000000 0.7847 0.7851 0.7860 0.7874 0.7888
922.000000 0.7891 0.7915 0.7893 0.7881 0.7864
927.000000 0.7846 0.7828 0.7810 0.7772 0.7735
932.000000 0.7689 0.7643 0.7550 0.7450 0.7301
937.000000 0.7004 0.6801 0.6787 0.7078 0.7449
942.000000 0.7754 0.7836 0.7907 0.7971 0.7995
947.000000 0.8004 0.8008 0.8011 0.7998 0.7994
952.000000 0.7985 0.7975 0.7961 0.7943 0.7925
957.000000 0.7875 0.7821 0.7778 0.7757 0.7743
962.000000 0.7797 0.7869 0.7943 0.7943 0.7943
967.000000 0.7957 0.7934 0.7930 0.7925 0.7915
972.000000 0.7904 0.7893 0.7881 0.7867 0.7853
977.000000 0.7840 0.7826 0.7814 0.7801 0.7790
982.000000 0.7781 0.7784 0.7784 0.7784 0.7754
987.000000 0.7676 0.7605 0.7565 0.7536 0.7511
992.000000 0.7497 0.7537 0.7571 0.7562 0.7543
997.000000 0.7507 0.7301 0.7015 0.6806 0.6794
1002.000000 0.6718 0.7568 0.7604 0.7625 0.7645
1007.000000 0.7661 0.7668 0.7671 0.7675 0.7675
1012.000000 0.7674 0.7665 0.7655 0.7645 0.7630
1017.000000 0.7601 0.7571 0.7540 0.7508 0.7474
1022.000000 0.7433 0.7391 0.7328 0.7203 0.7078
1027.000000 0.6958 0.6955 0.6996 0.7092 0.7188
1032.000000 0.7228 0.7212 0.7168 0.7108 0.7075
1037.000000 0.7071 0.7061 0.7093 0.7115 0.7145
1042.000000 0.7181 0.7217 0.7261 0.7307 0.7351
1047.000000 0.7397 0.7435 0.7469 0.7498 0.7511
1052.000000 0.7519 0.7519 0.7519 0.7546 0.7508
1057.000000 0.7499 0.7483 0.7455 0.7415 0.7375
1062.000000 0.7328 0.7282 0.7225 0.7156 0.7087
1067.000000 0.7015 0.6943 0.6386 0.5787 0.5407
1072.000000 0.5412 0.5381 0.5684 0.5957 0.6231
1077.000000 0.6505 0.6778 0.7025 0.7025 0.7025
1082.000000 0.7025 0.7008 0.6999 0.6989 0.6980
1087.000000 0.6962 0.6901 0.6838 0.6775 0.6712
1092.000000 0.6650 0.6588 0.6525 0.6461 0.6400
1097.000000 0.6337 0.6225 0.6105 0.5928 0.5787
1102.000000 0.5651 0.5647 0.5644 0.5655 0.5656
1107.000000 0.5672 0.5693 0.5729 0.5814 0.5954
1112.000000 0.6093 0.6232 0.6372 0.6511 0.6625
1117.000000 0.6707 0.6797 0.6882 0.6964 0.6997
1122.000000 0.7030 0.7062 0.7078 0.7091 0.7101
1127.000000 0.7100 0.7100 0.7099 0.7099 0.7098
1132.000000 0.7095 0.7091 0.7086 0.7082 0.7078
1137.000000 0.7078 0.7075 0.7075 0.7074 0.7074
1142.000000 0.7074 0.7075 0.7075 0.7074 0.7058
1147.000000 0.7044 0.7030 0.7015 0.7000 0.6985
1152.000000 0.6969 0.6992 0.6996 0.6998 0.6965
1157.000000 0.6896 0.6826 0.6778 0.6781 0.6858
1162.000000 0.6932 0.6931 0.6924 0.6878 0.6708
1167.000000 0.6538 0.6367 0.6196 0.6018 0.5920
1172.000000 0.5888 0.5496 0.5236 0.5260 0.5642
1177.000000 0.6224 0.6260 0.6253 0.6302 0.6129
1182.000000 0.6041 0.5952 0.5862 0.5774 0.5686
1187.000000 0.5597 0.5508 0.5426 0.5402 0.5384
1192.000000 0.5370 0.5356 0.5342 0.5329 0.5317
1197.000000 0.5301 0.5268 0.5224 0.5149 0.5044
1202.000000 0.4965 0.4889 0.4809 0.4723 0.4629
1207.000000 0.4454 0.4366 0.4076 0.3682 0.3291
1212.000000 0.2899 0.2506 0.2217 0.2041 0.1789
1217.000000 0.1666 0.1546 0.1414 0.1239 0.1058
1222.000000 0.0872 0.0748 0.0625 0.0432 0.0343
1227.000000 0.0285 0.0264 0.0263 0.0262 0.0253
1232.000000 0.0280 0.0292 0.0315 0.0368 0.0439
1237.000000 0.0524 0.0630 0.0782 0.1012 0.1492
1242.000000 0.1971 0.2451 0.2649 0.3230 0.3782
1247.000000 0.3984 0.4312 0.4433 0.4553 0.4635
1252.000000 0.4708 0.4781 0.4874 0.4977 0.5078
1257.000000 0.5165 0.5253 0.5330 0.5431 0.5610
1262.000000 0.5778 0.5890 0.5978 0.6051 0.6095
1267.000000 0.6122 0.6137 0.6146 0.6147 0.6147
1272.000000 0.6149 0.6129 0.6117 0.6095 0.6024
1277.000000 0.5936 0.5860 0.5792 0.5654 0.5502
1282.000000 0.5351 0.5199 0.5048 0.4896 0.4744
1287.000000 0.4669 0.4667 0.4690 0.4729 0.4794
1292.000000 0.5028 0.5312 0.5597 0.5793 0.5878
1297.000000 0.5977 0.6102 0.6212 0.6310 0.6316
1302.000000 0.6327 0.6286 0.6244 0.6183 0.6067
1307.000000 0.5882 0.5698 0.5512 0.5435 0.5495
1312.000000 0.5616 0.5736 0.5738 0.5731 0.5716
1317.000000 0.5679 0.5588 0.5326 0.5065 0.4804
1322.000000 0.4542 0.4281 0.4020 0.3754 0.3564
1327.000000 0.3391 0.3250 0.3031 0.2450 0.1869
1332.000000 0.1446 0.1356 0.1215 0.1139 0.1134
1337.000000 0.1167 0.1146 0.1381 0.1925 0.2469
1342.000000 0.3013 0.3557 0.4101 0.4776 0.4894
1347.000000 0.5310 0.5881 0.6451 0.7124 0.7268
1352.000000 0.7465 0.7567 0.7633 0.7698 0.7751
1357.000000 0.7804 0.7846 0.7882 0.7918 0.7955
1362.000000 0.7987 0.8017 0.8047 0.8076 0.8105
1367.000000 0.8132 0.8160 0.8188 0.8216 0.8248
1372.000000 0.8283 0.8317 0.8351 0.8391 0.8431
1377.000000 0.8471 0.8508 0.8540 0.8571 0.8597
1382.000000 0.8614 0.8614 0.8614 0.8612 0.8607
1387.000000 0.8603 0.8604 0.8608 0.8616 0.8625
1392.000000 0.8635 0.8644 0.8657 0.8673 0.8690
1397.000000 0.8705 0.8718 0.8733 0.8747 0.8751
1402.000000 0.8753 0.8746 0.8756 0.8756 0.8753
1407.000000 0.8750 0.8748 0.8745 0.8742 0.8739
1412.000000 0.8730 0.8720 0.8711 0.8702 0.8692
1417.000000 0.8683 0.8673 0.8664 0.8654 0.8643
1422.000000 0.8633 0.8618 0.8592 0.8566 0.8540
1427.000000 0.8507 0.8468 0.8428 0.8358 0.8268
1432.000000 0.8188 0.8110 0.7968 0.7882 0.7878
1437.000000 0.7847 0.7932 0.8108 0.8227 0.8278
1442.000000 0.8280 0.8308 0.8268 0.8240 0.8174
1447.000000 0.8128 0.8071 0.7903 0.7378 0.6854
1452.000000 0.6329 0.6198 0.6756 0.7865 0.8046
1457.000000 0.8054 0.8050 0.8071 0.8006 0.7976
1462.000000 0.7947 0.7911 0.7875 0.7834 0.7793
1467.000000 0.7726 0.7496 0.7028 0.6665 0.6515
1472.000000 0.6411 0.6359 0.6347 0.6346 0.6393
1477.000000 0.6508 0.6742 0.6998 0.7161 0.7184
1482.000000 0.7144 0.7090 0.6904 0.6661 0.6647
1487.000000 0.6635 0.6612 0.6546 0.6491 0.6428
1492.000000 0.6309 0.6153 0.5997 0.5840 0.5594
1497.000000 0.5573 0.5546 0.6067 0.7385 0.7489
1502.000000 0.7505 0.7505 0.7494 0.7480 0.7457
1507.000000 0.7417 0.7337 0.7221 0.7107 0.6997
1512.000000 0.6868 0.6735 0.6601 0.6435 0.6262
1517.000000 0.5990 0.5772 0.5631 0.5179 0.4712
1522.000000 0.4246 0.3780 0.3312 0.2856 0.2621
1527.000000 0.2224 0.1844 0.1633 0.1458 0.1408
1532.000000 0.1414 0.1445 0.1522 0.2101 0.3015
1537.000000 0.3930 0.4844 0.5758 0.6672 0.7441
1542.000000 0.7465 0.7537 0.7693 0.7918 0.8054
1547.000000 0.8161 0.8252 0.8318 0.8385 0.8440
1552.000000 0.8485 0.8528 0.8564 0.8592 0.8614
1557.000000 0.8620 0.8625 0.8625 0.8627 0.8620
1562.000000 0.8614 0.8607 0.8599 0.8585 0.8564
1567.000000 0.8541 0.8513 0.8485 0.8455 0.8414
1572.000000 0.8371 0.8331 0.8290 0.8246 0.8182
1577.000000 0.8118 0.8051 0.7971 0.7890 0.7785
1582.000000 0.7671 0.7535 0.7358 0.7090 0.6855
1587.000000 0.6649 0.6465 0.6117 0.5773 0.5429
1592.000000 0.5085 0.4742 0.4398 0.4054 0.3709
1597.000000 0.3366 0.3177 0.3183 0.3195 0.6028
1602.000000 0.7767 0.7814 0.7861 0.7897 0.7933
1607.000000 0.7981 0.8041 0.8149 0.8431 0.8746
1612.000000 0.8818 0.8845 0.8867 0.8875 0.8885
1617.000000 0.8885 0.8884 0.8896 0.8894 0.8892
1622.000000 0.8887 0.8881 0.8864 0.8846 0.8828
1627.000000 0.8810 0.8792 0.8775 0.8762 0.8748
1632.000000 0.8734 0.8717 0.8701 0.8685 0.8668
1637.000000 0.8652 0.8633 0.8610 0.8588 0.8564
1642.000000 0.8537 0.8511 0.8493 0.8485 0.8478
1647.000000 0.8478 0.8478 0.8478 0.8461 0.8492
1652.000000 0.8499 0.8508 0.8517 0.8524 0.8531
1657.000000 0.8538 0.8545 0.8552 0.8559 0.8567
1662.000000 0.8575 0.8584 0.8592 0.8601 0.8608
1667.000000 0.8614 0.8621 0.8627 0.8633 0.8640
1672.000000 0.8646 0.8652 0.8659 0.8665 0.8671
1677.000000 0.8678 0.8685 0.8691 0.8698 0.8704
1682.000000 0.8709 0.8714 0.8718 0.8723 0.8728
1687.000000 0.8732 0.8737 0.8740 0.8744 0.8748
1692.000000 0.8752 0.8756 0.8757 0.8757 0.8758
1697.000000 0.8758 0.8759 0.8759 0.8759 0.8760
1702.000000 0.8760 0.8760 0.8761 0.8765 0.8770
1707.000000 0.8775 0.8781 0.8786 0.8791 0.8796
1712.000000 0.8799 0.8802 0.8804 0.8807 0.8809
1717.000000 0.8812 0.8815 0.8818 0.8821 0.8825
1722.000000 0.8832 0.8840 0.8847 0.8851 0.8855
1727.000000 0.8858 0.8859 0.8861 0.8862 0.8864
1732.000000 0.8865 0.8867 0.8868 0.8870 0.8871
1737.000000 0.8871 0.8871 0.8871 0.8871 0.8871
1742.000000 0.8871 0.8871 0.8871 0.8871 0.8871
1747.000000 0.8871 0.8873 0.8873 0.8873 0.8873
1752.000000 0.8873 0.8873 0.8871 0.8865 0.8860
1757.000000 0.8854 0.8848 0.8837 0.8824 0.8812
1762.000000 0.8800 0.8788 0.8775 0.8767 0.8760
1767.000000 0.8753 0.8746 0.8740 0.8740 0.8740
1772.000000 0.8740 0.8741 0.8747 0.8753 0.8759
1777.000000 0.8765 0.8771 0.8777 0.8783 0.8789
1782.000000 0.8795 0.8800 0.8806 0.8811 0.8814
1787.000000 0.8816 0.8818 0.8821 0.8823 0.8825
1792.000000 0.8828 0.8828 0.8828 0.8827 0.8825
1797.000000 0.8825 0.8825 0.8824 0.8823 0.8821
1802.000000 0.8821 0.8821 0.8820 0.8818 0.8817
1807.000000 0.8814 0.8812 0.8809 0.8807 0.8804
1812.000000 0.8801 0.8799 0.8796 0.8794 0.8791
1817.000000 0.8788 0.8786 0.8783 0.8780 0.8778
1822.000000 0.8775 0.8771 0.8768 0.8766 0.8762
1827.000000 0.8758 0.8754 0.8750 0.8747 0.8743
1832.000000 0.8739 0.8735 0.8730 0.8724 0.8717
1837.000000 0.8711 0.8705 0.8699 0.8693 0.8693
1842.000000 0.8692 0.8692 0.8693 0.8694 0.8694
1847.000000 0.8694 0.8693 0.8692 0.8691 0.8690
1852.000000 0.8689 0.8687 0.8683 0.8677 0.8671
1857.000000 0.8665 0.8659 0.8654 0.8650 0.8646
1862.000000 0.8646 0.8646 0.8647 0.8649 0.8651
1867.000000 0.8652 0.8654 0.8655 0.8655 0.8656
1872.000000 0.8656 0.8657 0.8657 0.8658 0.8658
1877.000000 0.8657 0.8656 0.8656 0.8655 0.8655
1882.000000 0.8654 0.8653 0.8653 0.8652 0.8652
1887.000000 0.8651 0.8647 0.8644 0.8640 0.8637
1892.000000 0.8633 0.8628 0.8625 0.8621 0.8618
1897.000000 0.8615 0.8610 0.8605 0.8600 0.8594
1902.000000 0.8589 0.8584 0.8578 0.8574 0.8568
1907.000000 0.8564 0.8562 0.8560 0.8558 0.8557
1912.000000 0.8555 0.8553 0.8554 0.8555 0.8558
1917.000000 0.8563 0.8570 0.8577 0.8574 0.8570
1922.000000 0.8566 0.8559 0.8549 0.8540 0.8528
1927.000000 0.8518 0.8507 0.8496 0.8485 0.8475
1932.000000 0.8467 0.8460 0.8452 0.8444 0.8437
1937.000000 0.8428 0.8425 0.8433 0.8439 0.8444
1942.000000 0.8450 0.8456 0.8461 0.8462 0.8462
1947.000000 0.8463 0.8464 0.8458 0.8451 0.8445
1952.000000 0.8438 0.8431 0.8424 0.8416 0.8407
1957.000000 0.8399 0.8391 0.8382 0.8374 0.8365
1962.000000 0.8357 0.8352 0.8348 0.8344 0.8340
1967.000000 0.8337 0.8333 0.8328 0.8342 0.8368
1972.000000 0.8393 0.8406 0.8418 0.8432 0.8445
1977.000000 0.8454 0.8454 0.8454 0.8454 0.8452
1982.000000 0.8450 0.8448 0.8445 0.8435 0.8425
1987.000000 0.8415 0.8406 0.8395 0.8384 0.8373
1992.000000 0.8362 0.8351 0.8342 0.8334 0.8325
1997.000000 0.8318 0.8310 0.8354 0.8433 0.8446
2002.000000 0.8459 0.8455 0.8451 0.8447 0.8444
2007.000000 0.8440 0.8436 0.8432 0.8428 0.8425
2012.000000 0.8421 0.8417 0.8413 0.8408 0.8404
2017.000000 0.8400 0.8396 0.8391 0.8387 0.8383
2022.000000 0.8380 0.8377 0.8374 0.8370 0.8367
2027.000000 0.8363 0.8360 0.8356 0.8352 0.8347
2032.000000 0.8343 0.8338 0.8333 0.8328 0.8324
2037.000000 0.8318 0.8315 0.8310 0.8306 0.8301
2042.000000 0.8297 0.8292 0.8288 0.8283 0.8278
2047.000000 0.8275 0.8271 0.8266 0.8262 0.8256
2052.000000 0.8250 0.8244 0.8238 0.8232 0.8225
2057.000000 0.8220 0.8214 0.8208 0.8202 0.8196
2062.000000 0.8190 0.8185 0.8180 0.8176 0.8174
2067.000000 0.8169 0.8167 0.8164 0.8161 0.8158
2072.000000 0.8155 0.8151 0.8148 0.8145 0.8142
2077.000000 0.8139 0.8136 0.8132 0.8128 0.8125
2082.000000 0.8122 0.8119 0.8117 0.8114 0.8111
2087.000000 0.8107 0.8104 0.8101 0.8098 0.8095
2092.000000 0.8092 0.8089 0.8086 0.8083 0.8080
2097.000000 0.8076 0.8074 0.8071 0.8068 0.8065
2102.000000 0.8061 0.8058 0.8056 0.8053 0.8050
2107.000000 0.8047 0.8044 0.8041 0.8038 0.8034
2112.000000 0.8031 0.8028 0.8025 0.8021 0.8018
2117.000000 0.8015 0.8012 0.8010 0.8007 0.8004
2122.000000 0.8001 0.7997 0.7994 0.7990 0.7987
2127.000000 0.7983 0.7980 0.7975 0.7972 0.7968
2132.000000 0.7965 0.7961 0.7958 0.7955 0.7951
2137.000000 0.7948 0.7945 0.7941 0.7938 0.7934
2142.000000 0.7931 0.7926 0.7924 0.7919 0.7917
2147.000000 0.7912 0.7910 0.7906 0.7903 0.7899
2152.000000 0.7895 0.7891 0.7888 0.7884 0.7881
2157.000000 0.7876 0.7874 0.7869 0.7867 0.7862
2162.000000 0.7860 0.7856 0.7851 0.7847 0.7843
2167.000000 0.7838 0.7834 0.7828 0.7825 0.7819
2172.000000 0.7815 0.7811 0.7807 0.7801 0.7798
2177.000000 0.7793 0.7789 0.7784 0.7778 0.7774
2182.000000 0.7769 0.7765 0.7761 0.7756 0.7751
2187.000000 0.7748 0.7744 0.7740 0.7737 0.7733
2192.000000 0.7730 0.7725 0.7722 0.7718 0.7715
2197.000000 0.7711 0.7708 0.7705 0.7701 0.7698
2202.000000 0.7695 0.7691 0.7688 0.7684 0.7681
2207.000000 0.7676 0.7674 0.7669 0.7667 0.7662
2212.000000 0.7660 0.7656 0.7653 0.7649 0.7646
2217.000000 0.7642 0.7639 0.7635 0.7631 0.7625
2222.000000 0.7621 0.7618 0.7614 0.7608 0.7605
2227.000000 0.7601 0.7597 0.7593 0.7589 0.7584
2232.000000 0.7580 0.7575 0.7571 0.7567 0.7562
2237.000000 0.7558 0.7555 0.7551 0.7547 0.7542
2242.000000 0.7538 0.7534 0.7530 0.7525 0.7521
2247.000000 0.7517 0.7512 0.7508 0.7505 0.7500
2252.000000 0.7496 0.7492 0.7488 0.7483 0.7478
2257.000000 0.7475 0.7471 0.7465 0.7461 0.7457
2262.000000 0.7453 0.7449 0.7445 0.7440 0.7436
2267.000000 0.7432 0.7428 0.7422 0.7418 0.7414
2272.000000 0.7410 0.7406 0.7401 0.7398 0.7394
2277.000000 0.7391 0.7389 0.7386 0.7384 0.7381
2282.000000 0.7378 0.7375 0.7374 0.7371 0.7368
2287.000000 0.7365 0.7362 0.7360 0.7357 0.7349
2292.000000 0.7341 0.7332 0.7324 0.7315 0.7308
2297.000000 0.7300 0.7292 0.7281 0.7271 0.7260
2302.000000 0.7249 0.7237 0.7225 0.7214 0.7203
2307.000000 0.7192 0.7181 0.7178 0.7175 0.7172
2312.000000 0.7171 0.7171 0.7169 0.7168 0.7167
2317.000000 0.7165 0.7164 0.7161 0.7161 0.7160
2322.000000 0.7158 0.7157 0.7156 0.7155 0.7154
2327.000000 0.7151 0.7151 0.7148 0.7146 0.7143
2332.000000 0.7140 0.7137 0.7135 0.7132 0.7128
2337.000000 0.7125 0.7122 0.7119 0.7118 0.7117
2342.000000 0.7117 0.7117 0.7118 0.7118 0.7118
2347.000000 0.7118 0.7119 0.7119 0.7121 0.7121
2352.000000 0.7121 0.7121 0.7122 0.7122 0.7122
2357.000000 0.7121 0.7121 0.7119 0.7119 0.7118
2362.000000 0.7118 0.7117 0.7117 0.7115 0.7115
2367.000000 0.7114 0.7114 0.7111 0.7111 0.7107
2372.000000 0.7104 0.7101 0.7098 0.7095 0.7092
2377.000000 0.7089 0.7086 0.7083 0.7080 0.7075
2382.000000 0.7072 0.7069 0.7067 0.7064 0.7061
2387.000000 0.7058 0.7055 0.7051 0.7049 0.7045
2392.000000 0.7042 0.7039 0.7036 0.7033 0.7031
2397.000000 0.7028 0.7025 0.7021 0.7019 0.7017
2402.000000 0.7014 0.7011 0.7008 0.7006 0.7003
2407.000000 0.7000 0.6998 0.6995 0.6993 0.6990
2412.000000 0.6987 0.6984 0.6982 0.6978 0.6975
2417.000000 0.6972 0.6969 0.6967 0.6964 0.6961
2422.000000 0.6958 0.6955 0.6951 0.6949 0.6946
2427.000000 0.6943 0.6940 0.6937 0.6935 0.6932
2432.000000 0.6928 0.6926 0.6925 0.6921 0.6919
2437.000000 0.6918 0.6915 0.6914 0.6911 0.6910
2442.000000 0.6908 0.6906 0.6906 0.6906 0.6906
2447.000000 0.6907 0.6908 0.6908 0.6911 0.6911
2452.000000 0.6911 0.6911 0.6911 0.6911 0.6911
2457.000000 0.6911 0.6911 0.6911 0.6911 0.6910
2462.000000 0.6910 0.6908 0.6908 0.6907 0.6906
2467.000000 0.6905 0.6904 0.6901 0.6901 0.6900
2472.000000 0.6899 0.6898 0.6897 0.6895 0.6894
2477.000000 0.6893 0.6892 0.6891 0.6890 0.6887
2482.000000 0.6885 0.6882 0.6878 0.6875 0.6872
2487.000000 0.6869 0.6867 0.6862 0.6860 0.6856
2492.000000 0.6853 0.6849 0.6845 0.6841 0.6837
2497.000000 0.6833 0.6830 0.6825 0.6821 0.6818
2502.000000 0.6814 0.6810 0.6807 0.6803 0.6799
2507.000000 0.6795 0.6791 0.6787 0.6783 0.6778
2512.000000 0.6775 0.6769 0.6765 0.6761 0.6757
2517.000000 0.6753 0.6749 0.6744 0.6740 0.6735
2522.000000 0.6731 0.6726 0.6722 0.6718 0.6714
2527.000000 0.6708 0.6705 0.6701 0.6697 0.6692
2532.000000 0.6688 0.6684 0.6680 0.6675 0.6671
2537.000000 0.6668 0.6664 0.6658 0.6655 0.6651
2542.000000 0.6647 0.6643 0.6639 0.6635 0.6631
2547.000000 0.6625 0.6621 0.6618 0.6614 0.6610
2552.000000 0.6606 0.6601 0.6598 0.6594 0.6590
2557.000000 0.6585 0.6581 0.6576 0.6572 0.6568
2562.000000 0.6565 0.6561 0.6558 0.6554 0.6551
2567.000000 0.6548 0.6545 0.6541 0.6538 0.6534
2572.000000 0.6531 0.6528 0.6525 0.6521 0.6518
2577.000000 0.6514 0.6511 0.6508 0.6505 0.6501
2582.000000 0.6498 0.6494 0.6491 0.6487 0.6484
2587.000000 0.6481 0.6478 0.6474 0.6471 0.6467
2592.000000 0.6464 0.6461 0.6458 0.6454 0.6451
2597.000000 0.6447 0.6444 0.6441 0.6438 0.6434
2602.000000 0.6431 0.6426 0.6424 0.6419 0.6417
2607.000000 0.6414 0.6411 0.6407 0.6404 0.6400
2612.000000 0.6397 0.6394 0.6391 0.6387 0.6384
2617.000000 0.6380 0.6377 0.6374 0.6371 0.6367
2622.000000 0.6364 0.6360 0.6358 0.6354 0.6351
2627.000000 0.6347 0.6344 0.6341 0.6338 0.6334
2632.000000 0.6331 0.6327 0.6324 0.6321 0.6318
2637.000000 0.6314 0.6310 0.6308 0.6305 0.6301
2642.000000 0.6298 0.6294 0.6291 0.6288 0.6285
2647.000000 0.6281 0.6278 0.6274 0.6271 0.6268
2652.000000 0.6265 0.6260 0.6258 0.6255 0.6252
2657.000000 0.6248 0.6245 0.6241 0.6238 0.6234
2662.000000 0.6230 0.6226 0.6222 0.6218 0.6214
2667.000000 0.6209 0.6205 0.6201 0.6197 0.6193
2672.000000 0.6189 0.6185 0.6181 0.6176 0.6172
2677.000000 0.6168 0.6164 0.6160 0.6156 0.6152
2682.000000 0.6148 0.6144 0.6140 0.6135 0.6131
2687.000000 0.6127 0.6123 0.6119 0.6115 0.6110
2692.000000 0.6107 0.6102 0.6098 0.6095 0.6092
2697.000000 0.6088 0.6085 0.6081 0.6078 0.6074
2702.000000 0.6071 0.6068 0.6065 0.6060 0.6058
2707.000000 0.6054 0.6051 0.6047 0.6044 0.6041
2712.000000 0.6038 0.6034 0.6031 0.6028 0.6026
2717.000000 0.6024 0.6023 0.6021 0.6019 0.6017
2722.000000 0.6016 0.6014 0.6012 0.6012 0.6012
2727.000000 0.6010 0.6010 0.6009 0.6008 0.6007
2732.000000 0.6007 0.6004 0.6002 0.5999 0.5996
2737.000000 0.5993 0.5991 0.5988 0.5985 0.5982
2742.000000 0.5979 0.5975 0.5972 0.5967 0.5962
2747.000000 0.5958 0.5954 0.5950 0.5946 0.5941
2752.000000 0.5937 0.5932 0.5928 0.5923 0.5919
2757.000000 0.5915 0.5910 0.5906 0.5902 0.5898
2762.000000 0.5894 0.5890 0.5886 0.5882 0.5878
2767.000000 0.5874 0.5870 0.5866 0.5862 0.5858
2772.000000 0.5854 0.5850 0.5846 0.5842 0.5838
2777.000000 0.5834 0.5830 0.5826 0.5822 0.5818
2782.000000 0.5814 0.5810 0.5806 0.5802 0.5798
2787.000000 0.5794 0.5791 0.5787 0.5784 0.5780
2792.000000 0.5777 0.5773 0.5770 0.5766 0.5762
2797.000000 0.5759 0.5755 0.5751 0.5748 0.5744
2802.000000 0.5741 0.5737 0.5734 0.5730 0.5727
2807.000000 0.5723 0.5720 0.5716 0.5712 0.5709
2812.000000 0.5706 0.5702 0.5699 0.5695 0.5691
2817.000000 0.5687 0.5684 0.5680 0.5677 0.5673
2822.000000 0.5670 0.5666 0.5662 0.5659 0.5656
2827.000000 0.5652 0.5649 0.5645 0.5642 0.5638
2832.000000 0.5635 0.5631 0.5628 0.5624 0.5621
2837.000000 0.5617 0.5614 0.5610 0.5607 0.5603
2842.000000 0.5600 0.5597 0.5594 0.5590 0.5587
2847.000000 0.5583 0.5580 0.5576 0.5573 0.5569
2852.000000 0.5566 0.5562 0.5559 0.5555 0.5552
2857.000000 0.5548 0.5545 0.5541 0.5538 0.5534
2862.000000 0.5531 0.5527 0.5524 0.5521 0.5518
2867.000000 0.5515 0.5512 0.5508 0.5505 0.5502
2872.000000 0.5499 0.5496 0.5493 0.5490 0.5487
2877.000000 0.5483 0.5480 0.5477 0.5474 0.5471
2882.000000 0.5468 0.5465 0.5462 0.5458 0.5455
2887.000000 0.5452 0.5449 0.5446 0.5443 0.5440
2892.000000 0.5437 0.5433 0.5430 0.5427 0.5424
2897.000000 0.5421 0.5418 0.5415 0.5412 0.5409
2902.000000 0.5406 0.5403 0.5401 0.5398 0.5395
2907.000000 0.5392 0.5389 0.5386 0.5383 0.5380
2912.000000 0.5377 0.5374 0.5371 0.5368 0.5366
2917.000000 0.5362 0.5360 0.5357 0.5354 0.5351
2922.000000 0.5348 0.5345 0.5343 0.5340 0.5337
2927.000000 0.5334 0.5331 0.5328 0.5326 0.5323
2932.000000 0.5320 0.5317 0.5314 0.5310 0.5309
2937.000000 0.5306 0.5303 0.5300 0.5297 0.5294
2942.000000 0.5292 0.5289 0.5286 0.5283 0.5281
2947.000000 0.5278 0.5275 0.5272 0.5269 0.5266
2952.000000 0.5264 0.5260 0.5258 0.5255 0.5253
2957.000000 0.5250 0.5248 0.5245 0.5242 0.5239
2962.000000 0.5237 0.5234 0.5231 0.5227 0.5223
2967.000000 0.5219 0.5215 0.5210 0.5207 0.5203
2972.000000 0.5199 0.5194 0.5190 0.5186 0.5182
2977.000000 0.5176 0.5171 0.5165 0.5160 0.5155
2982.000000 0.5150 0.5144 0.5138 0.5132 0.5127
2987.000000 0.5121 0.5115 0.5109 0.5104 0.5098
2992.000000 0.5092 0.5086 0.5081 0.5075 0.5069
2997.000000 0.5062 0.5058 0.5052 0.5047 0.5041
3002.000000 0.5036 0.5030 0.5025 0.5019 0.5014
3007.000000 0.5008 0.5003 0.4997 0.4992 0.4986
3012.000000 0.4981 0.4975 0.4969 0.4962 0.4958
3017.000000 0.4951 0.4944 0.4936 0.4929 0.4921
3022.000000 0.4914 0.4906 0.4899 0.4891 0.4884
3027.000000 0.4876 0.4869 0.4859 0.4849 0.4839
3032.000000 0.4829 0.4818 0.4808 0.4798 0.4788
3037.000000 0.4768 0.4748 0.4693 0.4639 0.4618
3042.000000 0.4597 0.4588 0.4579 0.4579 0.4579
3047.000000 0.4578 0.4581 0.4588 0.4596 0.4606
3052.000000 0.4617 0.4627 0.4638 0.4642 0.4646
3057.000000 0.4647 0.4648 0.4638 0.4629 0.4580
3062.000000 0.4635 0.4516 0.4500 0.4499 0.4498
3067.000000 0.4539 0.4585 0.4679 0.4774 0.4812
3072.000000 0.4853 0.4853 0.4853 0.4853 0.4853
3077.000000 0.4850 0.4847 0.4843 0.4871 0.4836
3082.000000 0.4832 0.4828 0.4824 0.4820 0.4816
3087.000000 0.4812 0.4808 0.4804 0.4801 0.4797
3092.000000 0.4796 0.4797 0.4797 0.4800 0.4804
3097.000000 0.4808 0.4812 0.4815 0.4818 0.4820
3102.000000 0.4823 0.4825 0.4828 0.4829 0.4831
3107.000000 0.4831 0.4831 0.4831 0.4831 0.4831
3112.000000 0.4831 0.4828 0.4825 0.4822 0.4819
3117.000000 0.4816 0.4812 0.4810 0.4807 0.4802
3122.000000 0.4798 0.4794 0.4790 0.4786 0.4782
3127.000000 0.4778 0.4774 0.4770 0.4767 0.4764
3132.000000 0.4760 0.4757 0.4754 0.4751 0.4748
3137.000000 0.4744 0.4741 0.4738 0.4735 0.4731
3142.000000 0.4728 0.4725 0.4722 0.4718 0.4715
3147.000000 0.4710 0.4708 0.4704 0.4701 0.4697
3152.000000 0.4694 0.4690 0.4687 0.4683 0.4680
3157.000000 0.4676 0.4673 0.4669 0.4666 0.4662
3162.000000 0.4659 0.4655 0.4652 0.4648 0.4645
3167.000000 0.4641 0.4637 0.4633 0.4630 0.4626
3172.000000 0.4622 0.4618 0.4615 0.4610 0.4608
3177.000000 0.4604 0.4600 0.4596 0.4593 0.4589
3182.000000 0.4586 0.4582 0.4578 0.4574 0.4570
3187.000000 0.4565 0.4560 0.4555 0.4550 0.4545
3192.000000 0.4540 0.4535 0.4531 0.4526 0.4521
3197.000000 0.4516 0.4510 0.4506 0.4501 0.4496
3202.000000 0.4491 0.4486 0.4481 0.4476 0.4472
3207.000000 0.4467 0.4462 0.4457 0.4452 0.4445
3212.000000 0.4439 0.4431 0.4424 0.4416 0.4409
3217.000000 0.4402 0.4395 0.4387 0.4380 0.4372
3222.000000 0.4365 0.4357 0.4350 0.4343 0.4336
3227.000000 0.4326 0.4316 0.4302 0.4289 0.4276
3232.000000 0.4262 0.4246 0.4230 0.4202 0.4175
3237.000000 0.4147 0.4119 0.4082 0.4047 0.4008
3242.000000 0.3970 0.3912 0.3854 0.3736 0.3618
3247.000000 0.3495 0.3372 0.3266 0.3151 0.3162
3252.000000 0.3162 0.3273 0.3384 0.3586 0.3788
3257.000000 0.3989 0.4191 0.4340 0.4490 0.4496
3262.000000 0.4475 0.4503 0.4502 0.4502 0.4501
3267.000000 0.4500 0.4499 0.4498 0.4497 0.4494
3272.000000 0.4492 0.4490 0.4488 0.4485 0.4483
3277.000000 0.4480 0.4478 0.4475 0.4473 0.4470
3282.000000 0.4468 0.4466 0.4464 0.4460 0.4459
3287.000000 0.4456 0.4454 0.4451 0.4449 0.4446
3292.000000 0.4444 0.4442 0.4440 0.4438 0.4436
3297.000000 0.4434 0.4432 0.4430 0.4428 0.4426
3302.000000 0.4424 0.4422 0.4420 0.4418 0.4417
3307.000000 0.4415 0.4412 0.4410 0.4409 0.4407
3312.000000 0.4405 0.4403 0.4401 0.4399 0.4397
3317.000000 0.4395 0.4394 0.4392 0.4390 0.4388
3322.000000 0.4387 0.4385 0.4383 0.4381 0.4380
3327.000000 0.4378 0.4376 0.4374 0.4373 0.4371
3332.000000 0.4369 0.4367 0.4366 0.4364 0.4362
3337.000000 0.4360 0.4359 0.4357 0.4355 0.4353
3342.000000 0.4352 0.4350 0.4349 0.4347 0.4346
3347.000000 0.4344 0.4343 0.4341 0.4340 0.4338
3352.000000 0.4337 0.4335 0.4334 0.4332 0.4330
3357.000000 0.4328 0.4327 0.4325 0.4324 0.4322
3362.000000 0.4321 0.4319 0.4318 0.4316 0.4315
3367.000000 0.4312 0.4310 0.4309 0.4307 0.4305
3372.000000 0.4304 0.4302 0.4300 0.4298 0.4296
3377.000000 0.4294 0.4292 0.4290 0.4289 0.4287
3382.000000 0.4285 0.4283 0.4281 0.4279 0.4278
3387.000000 0.4276 0.4274 0.4272 0.4270 0.4268
3392.000000 0.4266 0.4264 0.4262 0.4260 0.4258
3397.000000 0.4256 0.4254 0.4251 0.4249 0.4247
3402.000000 0.4245 0.4243 0.4241 0.4239 0.4237
3407.000000 0.4234 0.4232 0.4230 0.4228 0.4226
3412.000000 0.4224 0.4222 0.4220 0.4217 0.4215
3417.000000 0.4212 0.4210 0.4209 0.4207 0.4205
3422.000000 0.4203 0.4200 0.4198 0.4196 0.4194
3427.000000 0.4192 0.4190 0.4188 0.4186 0.4183
3432.000000 0.4181 0.4178 0.4176 0.4173 0.4171
3437.000000 0.4168 0.4166 0.4162 0.4160 0.4158
3442.000000 0.4156 0.4153 0.4150 0.4147 0.4145
3447.000000 0.4142 0.4140 0.4137 0.4135 0.4132
3452.000000 0.4130 0.4127 0.4125 0.4122 0.4119
3457.000000 0.4116 0.4114 0.4110 0.4109 0.4106
3462.000000 0.4104 0.4101 0.4099 0.4096 0.4093
3467.000000 0.4090 0.4088 0.4084 0.4082 0.4080
3472.000000 0.4078 0.4075 0.4073 0.4070 0.4068
3477.000000 0.4064 0.4062 0.4059 0.4058 0.4056
3482.000000 0.4054 0.4050 0.4049 0.4046 0.4044
3487.000000 0.4042 0.4040 0.4037 0.4034 0.4032
3492.000000 0.4030 0.4028 0.4026 0.4023 0.4021
3497.000000 0.4018 0.4016 0.4014 0.4012 0.4009
3502.000000 0.4007 0.4004 0.4002 0.4000 0.3998
3507.000000 0.3995 0.3993 0.3990 0.3988 0.3986
3512.000000 0.3984 0.3980 0.3979 0.3976 0.3974
3517.000000 0.3972 0.3970 0.3966 0.3964 0.3962
3522.000000 0.3959 0.3956 0.3953 0.3950 0.3947
3527.000000 0.3943 0.3940 0.3937 0.3934 0.3930
3532.000000 0.3927 0.3924 0.3921 0.3918 0.3914
3537.000000 0.3910 0.3908 0.3905 0.3902 0.3898
3542.000000 0.3895 0.3892 0.3889 0.3884 0.3882
3547.000000 0.3879 0.3876 0.3872 0.3868 0.3866
3552.000000 0.3862 0.3859 0.3856 0.3853 0.3850
3557.000000 0.3846 0.3843 0.3840 0.3837 0.3832
3562.000000 0.3830 0.3827 0.3825 0.3822 0.3820
3567.000000 0.3816 0.3814 0.3812 0.3810 0.3808
3572.000000 0.3806 0.3803 0.3800 0.3798 0.3796
3577.000000 0.3793 0.3791 0.3788 0.3786 0.3782
3582.000000 0.3780 0.3778 0.3776 0.3773 0.3771
3587.000000 0.3768 0.3766 0.3764 0.3762 0.3759
3592.000000 0.3757 0.3754 0.3752 0.3749 0.3747
3597.000000 0.3744 0.3742 0.3739 0.3737 0.3734
3602.000000 0.3732 0.3729 0.3727 0.3725 0.3723
3607.000000 0.3721 0.3718 0.3716 0.3714 0.3712
3612.000000 0.3712 0.3709 0.3708 0.3706 0.3705
3617.000000 0.3703 0.3700 0.3699 0.3698 0.3696
3622.000000 0.3694 0.3692 0.3690 0.3688 0.3687
3627.000000 0.3684 0.3682 0.3680 0.3680 0.3678
3632.000000 0.3676 0.3674 0.3673 0.3671 0.3668
3637.000000 0.3666 0.3666 0.3664 0.3662 0.3659
3642.000000 0.3658 0.3656 0.3655 0.3653 0.3650
3647.000000 0.3649 0.3648 0.3646 0.3644 0.3642
3652.000000 0.3641 0.3639 0.3637 0.3634 0.3634
3657.000000 0.3632 0.3630 0.3628 0.3627 0.3625
3662.000000 0.3623 0.3621 0.3620 0.3618 0.3616
3667.000000 0.3614 0.3612 0.3610 0.3609 0.3607
3672.000000 0.3606 0.3604 0.3602 0.3600 0.3599
3677.000000 0.3597 0.3595 0.3593 0.3592 0.3590
3682.000000 0.3589 0.3587 0.3584 0.3582 0.3582
3687.000000 0.3580 0.3578 0.3576 0.3575 0.3573
3692.000000 0.3571 0.3568 0.3568 0.3566 0.3564
3697.000000 0.3562 0.3560 0.3559 0.3557 0.3555
3702.000000 0.3554 0.3552 0.3550 0.3549 0.3547
3707.000000 0.3545 0.3543 0.3541 0.3539 0.3537
3712.000000 0.3536 0.3534 0.3532 0.3530 0.3528
3717.000000 0.3526 0.3525 0.3523 0.3521 0.3518
3722.000000 0.3516 0.3514 0.3514 0.3512 0.3540
3727.000000 0.3508 0.3506 0.3504 0.3503 0.3500
3732.000000 0.3499 0.3497 0.3495 0.3493 0.3491
3737.000000 0.3489 0.3488 0.3486 0.3484 0.3482
3742.000000 0.3480 0.3478 0.3477 0.3475 0.3473
3747.000000 0.3471 0.3468 0.3466 0.3464 0.3462
3752.000000 0.3460 0.3459 0.3458 0.3456 0.3454
3757.000000 0.3452 0.3450 0.3448 0.3446 0.3444
3762.000000 0.3442 0.3440 0.3439 0.3437 0.3434
3767.000000 0.3432 0.3430 0.3429 0.3427 0.3425
3772.000000 0.3423 0.3421 0.3418 0.3416 0.3414
3777.000000 0.3412 0.3410 0.3409 0.3407 0.3405
3782.000000 0.3403 0.3400 0.3399 0.3397 0.3395
3787.000000 0.3392 0.3390 0.3388 0.3386 0.3384
3792.000000 0.3382 0.3380 0.3378 0.3376 0.3374
3797.000000 0.3372 0.3370 0.3368 0.3368
##END=
