##TITLE=COPPER SELENITE, DIHYDRATE
$$ C.P.
##JCAMP-DX=4.24
##DATA TYPE=INFRARED SPECTRUM
##CLASS=COBLENTZ
##ORIGIN=MELLON INSTITUTE
##OWNER=COBLENTZ SOCIETY
Collection (C) 2018 copyright by the U.S. Secretary of Commerce
on behalf of the United States of America. All rights reserved.
##DATE=Not specified, most likely prior to 1970
##MOLFORM=Cu Se O3  * 2 H2 O
##SOURCE REFERENCE=COBLENTZ NO. 479
##$NIST ID=B6000479
##$NIST SOURCE=COBLENTZ
##$NIST IMAGE=cob479
##SPECTROMETER/DATA SYSTEM=Not specified, most likely a prism, grating, or hybrid spectrometer.
##STATE=SOLID (NUJOL MULL)
$$PURITY UNKNOWN
##PATH LENGTH=
$$SPECTRAL CONTAMINATION DUE TO OIL AROUND 2900, 1450, 1380 CM^-^1
##SAMPLING PROCEDURE=TRANSMISSION
##RESOLUTION=4
##DATA PROCESSING=DIGITIZED BY NIST FROM HARD COPY
##XUNITS=MICROMETERS
##YUNITS=TRANSMITTANCE
##XFACTOR=1.000000
##YFACTOR=1
##DELTAX=000.006807
##FIRSTX=2.02
##LASTX=15.9808
##FIRSTY=0.463
##MAXX=15.9808
##MINX=2.02
##MAXY=0.946
##MINY=0.065
##NPOINTS=2052
##XYDATA=(X++(Y..Y))
2.020000 0.4630 0.4680 0.4710 0.4710 0.4730
2.054051 0.4750 0.4760 0.4780 0.4800 0.4800
2.088000 0.4800 0.4810 0.4830 0.4850 0.4870
2.122051 0.4870 0.4870 0.4880 0.4900 0.4920
2.156000 0.4930 0.4930 0.4950 0.4970 0.4970
2.190051 0.4990 0.4990 0.4990 0.5000 0.5000
2.224000 0.5000 0.5020 0.5020 0.5020 0.5020
2.258051 0.5070 0.5070 0.5090 0.5090 0.5110
2.292000 0.5120 0.5120 0.5140 0.5160 0.5180
2.326051 0.5190 0.5210 0.5210 0.5230 0.5230
2.360000 0.5240 0.5260 0.5280 0.5280 0.5300
2.394051 0.5310 0.5330 0.5360 0.5380 0.5400
2.428000 0.5400 0.5420 0.5450 0.5480 0.5500
2.462051 0.5520 0.5540 0.5570 0.5590 0.5620
2.496000 0.5640 0.5690 0.5720 0.5740 0.5780
2.530051 0.5810 0.5830 0.5840 0.5900 0.5910
2.564000 0.5960 0.5980 0.6000 0.6020 0.6080
2.598051 0.6100 0.6150 0.6200 0.6240 0.6310
2.632000 0.6340 0.6380 0.6410 0.6430 0.6440
2.666051 0.6480 0.6500 0.6510 0.6530 0.6530
2.700000 0.6550 0.6580 0.6580 0.6620 0.6630
2.734051 0.6650 0.6670 0.6680 0.6700 0.6720
2.769000 0.6720 0.6740 0.6750 0.6750 0.6750
2.803051 0.6770 0.6740 0.6630 0.6550 0.6360
2.837000 0.6190 0.6140 0.6120 0.6100 0.6080
2.871051 0.6030 0.6020 0.6020 0.6020 0.6020
2.905000 0.6020 0.6020 0.6020 0.6020 0.6020
2.939051 0.6020 0.6030 0.6050 0.6050 0.6050
2.973000 0.6030 0.6030 0.6020 0.6020 0.6000
3.007051 0.5980 0.5960 0.5960 0.5960 0.5900
3.041000 0.5860 0.5790 0.5720 0.5640 0.5500
3.075051 0.5400 0.5310 0.5160 0.5020 0.4970
3.109000 0.4900 0.4850 0.4800 0.4750 0.4710
3.143051 0.4680 0.4640 0.4610 0.4570 0.4520
3.177000 0.4520 0.4510 0.4490 0.4440 0.4400
3.211051 0.4370 0.4330 0.4320 0.4250 0.4180
3.245000 0.4090 0.3990 0.3890 0.3790 0.3680
3.279051 0.3610 0.3440 0.3270 0.3100 0.2950
3.313000 0.2600 0.2400 0.2260 0.2020 0.1730
3.347051 0.1500 0.1230 0.1080 0.0970 0.0820
3.381000 0.0780 0.0780 0.0770 0.0750 0.0730
3.415051 0.0730 0.0720 0.0720 0.0680 0.0660
3.449000 0.0650 0.0650 0.0680 0.0720 0.0870
3.483051 0.1140 0.1350 0.1500 0.1690 0.1860
3.517000 0.2020 0.2170 0.2290 0.2530 0.2710
3.551051 0.2860 0.2980 0.3120 0.3220 0.3240
3.585000 0.3320 0.3410 0.3490 0.3600 0.3770
3.619051 0.3840 0.3870 0.3910 0.3990 0.4040
3.653000 0.4110 0.4180 0.4230 0.4280 0.4350
3.687051 0.4420 0.4440 0.4490 0.4520 0.4570
3.722000 0.4630 0.4690 0.4750 0.4810 0.4870
3.756051 0.4920 0.4970 0.5000 0.5040 0.5070
3.790000 0.5140 0.5180 0.5240 0.5280 0.5330
3.824051 0.5360 0.5400 0.5430 0.5480 0.5500
3.858000 0.5540 0.5540 0.5550 0.5620 0.5640
3.892051 0.5640 0.5690 0.5720 0.5740 0.5780
3.926000 0.5810 0.5830 0.5860 0.5910 0.5930
3.960051 0.5980 0.6000 0.6020 0.6020 0.6050
3.994000 0.6080 0.6100 0.6140 0.6140 0.6190
4.028051 0.6200 0.6240 0.6260 0.6290 0.6310
4.062000 0.6320 0.6340 0.6360 0.6380 0.6390
4.096051 0.6410 0.6410 0.6430 0.6430 0.6440
4.130000 0.6460 0.6460 0.6480 0.6480 0.6480
4.164051 0.6500 0.6480 0.6480 0.6480 0.6480
4.198000 0.6480 0.6480 0.6460 0.6460 0.6440
4.232051 0.6460 0.6440 0.6440 0.6430 0.6430
4.266000 0.6430 0.6430 0.6430 0.6430 0.6430
4.300051 0.6410 0.6410 0.6410 0.6410 0.6410
4.334000 0.6410 0.6410 0.6410 0.6410 0.6430
4.368051 0.6430 0.6430 0.6430 0.6430 0.6430
4.402000 0.6430 0.6430 0.6430 0.6410 0.6410
4.436051 0.6410 0.6410 0.6410 0.6410 0.6410
4.470000 0.6410 0.6410 0.6430 0.6430 0.6440
4.504051 0.6440 0.6460 0.6460 0.6480 0.6480
4.538000 0.6500 0.6510 0.6510 0.6530 0.6530
4.572051 0.6530 0.6550 0.6560 0.6600 0.6620
4.606000 0.6630 0.6650 0.6650 0.6650 0.6670
4.640051 0.6680 0.6680 0.6700 0.6700 0.6700
4.675000 0.6720 0.6720 0.6740 0.6740 0.6750
4.709051 0.6770 0.6790 0.6800 0.6820 0.6840
4.743000 0.6840 0.6860 0.6890 0.6910 0.6920
4.777051 0.6940 0.6980 0.6980 0.6990 0.7010
4.811000 0.7030 0.7030 0.7040 0.7040 0.7080
4.845051 0.7100 0.7110 0.7110 0.7130 0.7150
4.879000 0.7160 0.7180 0.7200 0.7220 0.7230
4.913051 0.7250 0.7270 0.7300 0.7320 0.7340
4.947000 0.7370 0.7390 0.7420 0.7420 0.7440
4.981051 0.7460 0.7470 0.7490 0.7490 0.7510
5.015000 0.7530 0.7540 0.7590 0.7590 0.7610
5.049051 0.7630 0.7650 0.7660 0.7660 0.7680
5.083000 0.7700 0.7700 0.7700 0.7710 0.7730
5.117051 0.7750 0.7750 0.7770 0.7780 0.7780
5.151000 0.7800 0.7820 0.7820 0.7830 0.7830
5.185051 0.7850 0.7870 0.7890 0.7900 0.7900
5.219000 0.7900 0.7920 0.7920 0.7940 0.7970
5.253051 0.7970 0.7970 0.7970 0.7990 0.7990
5.287000 0.7990 0.8010 0.8010 0.8010 0.8010
5.321051 0.8020 0.8020 0.8020 0.8020 0.8020
5.355000 0.8040 0.8040 0.8040 0.8040 0.8040
5.389051 0.8040 0.8040 0.8040 0.8040 0.8040
5.423000 0.8040 0.8040 0.8040 0.8040 0.8040
5.457051 0.8040 0.8040 0.8060 0.8060 0.8060
5.491000 0.8060 0.8060 0.8060 0.8070 0.8090
5.525051 0.8090 0.8110 0.8110 0.8110 0.8110
5.559000 0.8110 0.8110 0.8130 0.8130 0.8130
5.593051 0.8140 0.8140 0.8140 0.8160 0.8160
5.627000 0.8160 0.8160 0.8180 0.8190 0.8190
5.661051 0.8190 0.8210 0.8230 0.8250 0.8250
5.696000 0.8280 0.8300 0.8330 0.8330 0.8350
5.730051 0.8380 0.8420 0.8450 0.8450 0.8470
5.764000 0.8500 0.8520 0.8540 0.8550 0.8570
5.798051 0.8610 0.8620 0.8640 0.8640 0.8660
5.832000 0.8690 0.8710 0.8730 0.8740 0.8740
5.866051 0.8760 0.8760 0.8760 0.8760 0.8780
5.900000 0.8780 0.8780 0.8760 0.8740 0.8730
5.934051 0.8690 0.8620 0.8590 0.8520 0.8490
5.968000 0.8400 0.8330 0.8060 0.7920 0.7730
6.002051 0.7590 0.7510 0.7440 0.7420 0.7440
6.036000 0.7440 0.7470 0.7470 0.7490 0.7510
6.070051 0.7510 0.7560 0.7590 0.7680 0.7770
6.104000 0.7820 0.7870 0.7940 0.7970 0.7990
6.138051 0.8010 0.8040 0.8090 0.8130 0.8130
6.172000 0.8140 0.8160 0.8180 0.8190 0.8210
6.206051 0.8230 0.8250 0.8250 0.8250 0.8250
6.240000 0.8210 0.8160 0.8090 0.8020 0.7950
6.274051 0.7800 0.7730 0.7650 0.7590 0.7540
6.308000 0.7530 0.7470 0.7470 0.7440 0.7420
6.342051 0.7420 0.7400 0.7390 0.7390 0.7390
6.376000 0.7370 0.7370 0.7390 0.7400 0.7420
6.410051 0.7470 0.7510 0.7540 0.7540 0.7590
6.444000 0.7610 0.7630 0.7650 0.7660 0.7700
6.478051 0.7730 0.7770 0.7770 0.7780 0.7780
6.512000 0.7800 0.7820 0.7830 0.7850 0.7870
6.546051 0.7870 0.7890 0.7900 0.7900 0.7920
6.580000 0.7940 0.7950 0.7970 0.7970 0.7990
6.614051 0.8010 0.8020 0.8020 0.8040 0.8090
6.649000 0.8110 0.8130 0.8140 0.8140 0.8140
6.683051 0.8160 0.8160 0.8140 0.8070 0.8020
6.717000 0.7900 0.7830 0.7750 0.7660 0.7540
6.751051 0.7110 0.6790 0.6430 0.6190 0.6000
6.785000 0.5760 0.5470 0.5310 0.5280 0.5240
6.819051 0.5230 0.5230 0.5230 0.5280 0.5350
6.853000 0.5430 0.5570 0.5810 0.6020 0.6150
6.887051 0.6290 0.6500 0.6620 0.6720 0.6920
6.921000 0.7060 0.7200 0.7530 0.7610 0.7680
6.955051 0.7820 0.7990 0.8020 0.8040 0.8110
6.989000 0.8140 0.8190 0.8210 0.8250 0.8260
7.023051 0.8310 0.8380 0.8450 0.8500 0.8550
7.057000 0.8620 0.8660 0.8670 0.8690 0.8710
7.091051 0.8710 0.8710 0.8710 0.8690 0.8690
7.125000 0.8660 0.8620 0.8550 0.8500 0.8430
7.159051 0.8350 0.8230 0.8090 0.7900 0.7730
7.193000 0.7510 0.7250 0.7110 0.7040 0.7010
7.227051 0.7040 0.7150 0.7250 0.7510 0.7580
7.261000 0.7630 0.7650 0.7710 0.7890 0.8020
7.295051 0.8060 0.8160 0.8230 0.8300 0.8380
7.329000 0.8420 0.8520 0.8550 0.8610 0.8640
7.363051 0.8670 0.8710 0.8710 0.8760 0.8790
7.397000 0.8830 0.8830 0.8850 0.8880 0.8910
7.431051 0.8930 0.8930 0.8950 0.8980 0.8980
7.465000 0.9000 0.9020 0.9020 0.9030 0.9030
7.499051 0.9030 0.9030 0.9090 0.9100 0.9100
7.533000 0.9100 0.9120 0.9120 0.9120 0.9120
7.567051 0.9140 0.9140 0.9140 0.9140 0.9140
7.601000 0.9150 0.9150 0.9150 0.9150 0.9150
7.635051 0.9170 0.9170 0.9170 0.9170 0.9170
7.670000 0.9170 0.9170 0.9170 0.9190 0.9190
7.704051 0.9190 0.9210 0.9210 0.9210 0.9210
7.738000 0.9210 0.9220 0.9220 0.9220 0.9240
7.772051 0.9220 0.9240 0.9260 0.9270 0.9270
7.806000 0.9290 0.9270 0.9270 0.9270 0.9290
7.840051 0.9290 0.9290 0.9310 0.9310 0.9310
7.874000 0.9310 0.9310 0.9330 0.9330 0.9330
7.908051 0.9330 0.9330 0.9340 0.9340 0.9340
7.942000 0.9340 0.9340 0.9340 0.9340 0.9360
7.976051 0.9360 0.9360 0.9380 0.9390 0.9380
8.010000 0.9380 0.9380 0.9380 0.9380 0.9380
8.044051 0.9380 0.9380 0.9390 0.9380 0.9390
8.078000 0.9390 0.9390 0.9390 0.9390 0.9390
8.112051 0.9390 0.9390 0.9390 0.9410 0.9410
8.146000 0.9410 0.9410 0.9430 0.9430 0.9430
8.180051 0.9430 0.9430 0.9450 0.9450 0.9450
8.214000 0.9450 0.9450 0.9450 0.9450 0.9450
8.248051 0.9450 0.9450 0.9450 0.9450 0.9450
8.282000 0.9450 0.9450 0.9450 0.9450 0.9450
8.316051 0.9450 0.9460 0.9460 0.9450 0.9450
8.350000 0.9450 0.9450 0.9450 0.9450 0.9450
8.384051 0.9450 0.9450 0.9450 0.9430 0.9430
8.418000 0.9430 0.9410 0.9410 0.9390 0.9390
8.452051 0.9390 0.9380 0.9380 0.9380 0.9360
8.486000 0.9340 0.9340 0.9340 0.9330 0.9310
8.520051 0.9290 0.9290 0.9270 0.9270 0.9260
8.554000 0.9260 0.9240 0.9240 0.9220 0.9220
8.588051 0.9220 0.9210 0.9210 0.9210 0.9210
8.623000 0.9210 0.9190 0.9190 0.9170 0.9170
8.657051 0.9170 0.9170 0.9170 0.9170 0.9170
8.691000 0.9170 0.9170 0.9170 0.9170 0.9190
8.725051 0.9190 0.9190 0.9190 0.9170 0.9170
8.759000 0.9170 0.9170 0.9190 0.9190 0.9190
8.793051 0.9170 0.9190 0.9170 0.9170 0.9170
8.827000 0.9190 0.9190 0.9190 0.9190 0.9190
8.861051 0.9190 0.9210 0.9210 0.9210 0.9210
8.895000 0.9210 0.9210 0.9210 0.9210 0.9210
8.929051 0.9210 0.9210 0.9210 0.9210 0.9210
8.963000 0.9210 0.9210 0.9210 0.9210 0.9210
8.997051 0.9210 0.9190 0.9190 0.9190 0.9190
9.031000 0.9190 0.9190 0.9190 0.9210 0.9210
9.065051 0.9210 0.9210 0.9210 0.9210 0.9220
9.099000 0.9220 0.9220 0.9220 0.9220 0.9220
9.133051 0.9220 0.9220 0.9240 0.9240 0.9240
9.167000 0.9240 0.9240 0.9240 0.9260 0.9270
9.201051 0.9270 0.9270 0.9270 0.9270 0.9270
9.235000 0.9270 0.9270 0.9290 0.9290 0.9290
9.269051 0.9290 0.9290 0.9310 0.9310 0.9310
9.303000 0.9310 0.9310 0.9330 0.9330 0.9330
9.337051 0.9330 0.9330 0.9330 0.9330 0.9330
9.371000 0.9330 0.9340 0.9340 0.9340 0.9340
9.405051 0.9340 0.9340 0.9340 0.9340 0.9340
9.439000 0.9340 0.9330 0.9330 0.9330 0.9330
9.473051 0.9330 0.9330 0.9330 0.9330 0.9310
9.507000 0.9310 0.9310 0.9310 0.9310 0.9290
9.541051 0.9290 0.9270 0.9270 0.9260 0.9240
9.575000 0.9240 0.9240 0.9240 0.9220 0.9210
9.609051 0.9210 0.9210 0.9210 0.9190 0.9190
9.644000 0.9190 0.9170 0.9170 0.9150 0.9140
9.678051 0.9140 0.9140 0.9140 0.9120 0.9120
9.712000 0.9120 0.9120 0.9120 0.9120 0.9120
9.746051 0.9120 0.9120 0.9120 0.9120 0.9120
9.780000 0.9120 0.9100 0.9120 0.9120 0.9120
9.814051 0.9140 0.9120 0.9120 0.9120 0.9120
9.848000 0.9120 0.9120 0.9120 0.9120 0.9120
9.882051 0.9120 0.9120 0.9120 0.9120 0.9120
9.916000 0.9140 0.9140 0.9140 0.9140 0.9140
9.950051 0.9140 0.9140 0.9140 0.9140 0.9140
9.984000 0.9140 0.9140 0.9140 0.9120 0.9120
10.018051 0.9120 0.9120 0.9120 0.9120 0.9120
10.052000 0.9120 0.9120 0.9100 0.9100 0.9090
10.086051 0.9090 0.9090 0.9090 0.9070 0.9030
10.120000 0.9030 0.9030 0.9020 0.9020 0.9020
10.154051 0.9020 0.9020 0.9000 0.9000 0.9000
10.188000 0.9000 0.9000 0.8980 0.8970 0.8970
10.222051 0.8970 0.8950 0.8930 0.8910 0.8910
10.256000 0.8900 0.8880 0.8860 0.8860 0.8830
10.290051 0.8830 0.8810 0.8790 0.8790 0.8780
10.324000 0.8740 0.8740 0.8730 0.8690 0.8660
10.358051 0.8640 0.8640 0.8620 0.8610 0.8550
10.392000 0.8520 0.8500 0.8470 0.8430 0.8430
10.426051 0.8420 0.8400 0.8350 0.8310 0.8280
10.460000 0.8230 0.8210 0.8180 0.8140 0.8070
10.494051 0.8040 0.7990 0.7920 0.7870 0.7820
10.528000 0.7730 0.7680 0.7630 0.7560 0.7510
10.562051 0.7470 0.7470 0.7440 0.7340 0.7270
10.597000 0.7220 0.7180 0.7150 0.7110 0.7060
10.631051 0.7030 0.7010 0.6990 0.6960 0.6940
10.665000 0.6910 0.6890 0.6860 0.6840 0.6840
10.699051 0.6800 0.6800 0.6790 0.6770 0.6750
10.733000 0.6750 0.6750 0.6740 0.6740 0.6720
10.767051 0.6720 0.6720 0.6720 0.6720 0.6700
10.801000 0.6700 0.6700 0.6700 0.6700 0.6700
10.835051 0.6700 0.6700 0.6700 0.6700 0.6700
10.869000 0.6700 0.6700 0.6700 0.6700 0.6700
10.903051 0.6720 0.6720 0.6720 0.6720 0.6720
10.937000 0.6740 0.6740 0.6750 0.6750 0.6750
10.971051 0.6770 0.6770 0.6770 0.6790 0.6800
11.005000 0.6790 0.6800 0.6800 0.6820 0.6820
11.039051 0.6820 0.6840 0.6840 0.6860 0.6870
11.073000 0.6870 0.6890 0.6910 0.6920 0.6940
11.107051 0.6960 0.6980 0.6990 0.7010 0.7010
11.141000 0.7030 0.7030 0.7100 0.7110 0.7130
11.175051 0.7130 0.7150 0.7160 0.7200 0.7230
11.209000 0.7250 0.7270 0.7280 0.7320 0.7340
11.243051 0.7350 0.7370 0.7400 0.7420 0.7440
11.277000 0.7470 0.7490 0.7510 0.7530 0.7530
11.311051 0.7540 0.7580 0.7590 0.7610 0.7630
11.345000 0.7650 0.7660 0.7680 0.7700 0.7700
11.379051 0.7710 0.7710 0.7730 0.7730 0.7770
11.413000 0.7780 0.7780 0.7800 0.7800 0.7800
11.447051 0.7820 0.7830 0.7850 0.7850 0.7870
11.481000 0.7890 0.7900 0.7900 0.7900 0.7920
11.515051 0.7940 0.7940 0.7940 0.7950 0.7950
11.550000 0.7970 0.7970 0.7970 0.7990 0.7990
11.584051 0.7990 0.8010 0.8010 0.8010 0.8010
11.618000 0.7990 0.8010 0.8010 0.8010 0.8010
11.652051 0.8010 0.8010 0.8010 0.8010 0.8010
11.686000 0.8010 0.8010 0.8010 0.8010 0.8010
11.720051 0.8010 0.8010 0.8020 0.8020 0.8020
11.754000 0.8020 0.8020 0.8020 0.8040 0.8020
11.788051 0.8020 0.8020 0.8020 0.8010 0.8010
11.822000 0.8010 0.7990 0.7990 0.7970 0.7970
11.856051 0.7970 0.7950 0.7920 0.7920 0.7900
11.890000 0.7890 0.7850 0.7830 0.7830 0.7800
11.924051 0.7780 0.7750 0.7730 0.7710 0.7680
11.958000 0.7660 0.7610 0.7580 0.7540 0.7530
11.992051 0.7490 0.7490 0.7460 0.7400 0.7340
12.026000 0.7320 0.7280 0.7250 0.7220 0.7180
12.060051 0.7130 0.7080 0.7040 0.6980 0.6920
12.094000 0.6870 0.6840 0.6770 0.6700 0.6650
12.128051 0.6620 0.6600 0.6510 0.6500 0.6440
12.162000 0.6410 0.6380 0.6360 0.6310 0.6240
12.196051 0.6190 0.6140 0.6080 0.6050 0.6000
12.230000 0.5980 0.5980 0.5910 0.5880 0.5830
12.264051 0.5790 0.5760 0.5720 0.5710 0.5690
12.298000 0.5660 0.5620 0.5600 0.5590 0.5540
12.332051 0.5540 0.5520 0.5500 0.5480 0.5430
12.366000 0.5420 0.5400 0.5360 0.5330 0.5310
12.400051 0.5280 0.5260 0.5240 0.5240 0.5230
12.434000 0.5190 0.5180 0.5160 0.5120 0.5110
12.468051 0.5040 0.5020 0.5000 0.4990 0.4930
12.502000 0.4920 0.4900 0.4850 0.4810 0.4800
12.536051 0.4730 0.4690 0.4660 0.4610 0.4560
12.571000 0.4540 0.4490 0.4440 0.4420 0.4330
12.605051 0.4280 0.4250 0.4230 0.4200 0.4150
12.639000 0.4090 0.4030 0.4010 0.3990 0.3920
12.673051 0.3890 0.3840 0.3790 0.3750 0.3720
12.707000 0.3670 0.3630 0.3610 0.3580 0.3530
12.741051 0.3490 0.3440 0.3410 0.3370 0.3340
12.775000 0.3310 0.3270 0.3240 0.3190 0.3170
12.809051 0.3150 0.3120 0.3100 0.3080 0.3030
12.843000 0.3010 0.3010 0.3000 0.3000 0.2980
12.877051 0.2960 0.2950 0.2950 0.2950 0.2950
12.911000 0.2950 0.2950 0.2930 0.2930 0.2930
12.945051 0.2930 0.2930 0.2930 0.2930 0.2930
12.979000 0.2930 0.2930 0.2910 0.2910 0.2890
13.013051 0.2880 0.2880 0.2880 0.2880 0.2880
13.047000 0.2890 0.2890 0.2890 0.2890 0.2890
13.081051 0.2890 0.2890 0.2910 0.2910 0.2910
13.115000 0.2910 0.2910 0.2910 0.2930 0.2930
13.149051 0.2930 0.2930 0.2930 0.2930 0.2930
13.183000 0.2930 0.2930 0.2930 0.2930 0.2930
13.217051 0.2930 0.2930 0.2930 0.2910 0.2910
13.251000 0.2910 0.2890 0.2890 0.2890 0.2890
13.285051 0.2890 0.2890 0.2880 0.2880 0.2860
13.319000 0.2840 0.2840 0.2830 0.2830 0.2810
13.353051 0.2790 0.2790 0.2770 0.2760 0.2720
13.387000 0.2710 0.2670 0.2650 0.2640 0.2600
13.421051 0.2590 0.2550 0.2530 0.2520 0.2480
13.455000 0.2450 0.2430 0.2410 0.2400 0.2380
13.489051 0.2330 0.2330 0.2290 0.2280 0.2260
13.524000 0.2240 0.2220 0.2190 0.2170 0.2160
13.558051 0.2120 0.2120 0.2100 0.2070 0.2070
13.592000 0.2020 0.2000 0.2000 0.2000 0.1980
13.626051 0.1970 0.1930 0.1930 0.1920 0.1900
13.660000 0.1860 0.1850 0.1810 0.1800 0.1800
13.694051 0.1780 0.1760 0.1740 0.1730 0.1730
13.728000 0.1710 0.1690 0.1680 0.1680 0.1660
13.762051 0.1640 0.1620 0.1620 0.1610 0.1610
13.796000 0.1590 0.1570 0.1570 0.1560 0.1560
13.830051 0.1560 0.1560 0.1540 0.1540 0.1540
13.864000 0.1520 0.1520 0.1500 0.1500 0.1500
13.898051 0.1500 0.1490 0.1490 0.1490 0.1490
13.932000 0.1490 0.1490 0.1490 0.1490 0.1490
13.966051 0.1490 0.1490 0.1490 0.1490 0.1490
14.000000 0.1490 0.1470 0.1470 0.1470 0.1490
14.034051 0.1490 0.1490 0.1490 0.1500 0.1520
14.068000 0.1520 0.1520 0.1520 0.1560 0.1570
14.102051 0.1590 0.1610 0.1610 0.1620 0.1660
14.136000 0.1680 0.1690 0.1730 0.1740 0.1760
14.170051 0.1800 0.1830 0.1850 0.1850 0.1880
14.204000 0.1900 0.1970 0.2000 0.2000 0.2020
14.238051 0.2090 0.2120 0.2140 0.2160 0.2210
14.272000 0.2220 0.2260 0.2290 0.2310 0.2340
14.306051 0.2380 0.2400 0.2410 0.2460 0.2480
14.340000 0.2500 0.2530 0.2590 0.2620 0.2640
14.374051 0.2710 0.2720 0.2740 0.2790 0.2830
14.408000 0.2860 0.2860 0.2890 0.2930 0.2960
14.442051 0.2980 0.3000 0.3010 0.3010 0.3080
14.476000 0.3100 0.3130 0.3170 0.3200 0.3220
14.510051 0.3250 0.3270 0.3310 0.3310 0.3320
14.545000 0.3360 0.3370 0.3390 0.3410 0.3430
14.579051 0.3440 0.3480 0.3490 0.3490 0.3530
14.613000 0.3530 0.3580 0.3580 0.3610 0.3610
14.647051 0.3630 0.3650 0.3670 0.3680 0.3700
14.681000 0.3720 0.3730 0.3750 0.3770 0.3790
14.715051 0.3800 0.3820 0.3840 0.3850 0.3890
14.749000 0.3890 0.3910 0.3920 0.3940 0.3970
14.783051 0.3970 0.3970 0.3990 0.4010 0.4030
14.817000 0.4030 0.4040 0.4040 0.4080 0.4080
14.851051 0.4080 0.4090 0.4110 0.4130 0.4130
14.885000 0.4150 0.4160 0.4160 0.4180 0.4180
14.919051 0.4180 0.4180 0.4200 0.4210 0.4210
14.953000 0.4210 0.4230 0.4230 0.4230 0.4250
14.987051 0.4250 0.4270 0.4250 0.4270 0.4270
15.021000 0.4270 0.4270 0.4270 0.4280 0.4280
15.055051 0.4280 0.4280 0.4280 0.4300 0.4300
15.089000 0.4320 0.4320 0.4320 0.4320 0.4320
15.123051 0.4320 0.4320 0.4330 0.4330 0.4330
15.157000 0.4330 0.4350 0.4350 0.4350 0.4350
15.191051 0.4350 0.4370 0.4370 0.4370 0.4370
15.225000 0.4370 0.4370 0.4390 0.4390 0.4390
15.259051 0.4370 0.4370 0.4390 0.4390 0.4390
15.293000 0.4400 0.4400 0.4400 0.4400 0.4400
15.327051 0.4400 0.4400 0.4420 0.4420 0.4420
15.361000 0.4420 0.4420 0.4420 0.4440 0.4440
15.395051 0.4440 0.4440 0.4420 0.4440 0.4440
15.429000 0.4440 0.4440 0.4440 0.4440 0.4450
15.463051 0.4450 0.4450 0.4450 0.4450 0.4450
15.498000 0.4450 0.4450 0.4450 0.4450 0.4450
15.532051 0.4450 0.4450 0.4470 0.4470 0.4470
15.566000 0.4470 0.4450 0.4470 0.4470 0.4470
15.600051 0.4470 0.4470 0.4470 0.4470 0.4470
15.634000 0.4470 0.4470 0.4490 0.4490 0.4490
15.668051 0.4490 0.4490 0.4510 0.4510 0.4490
15.702000 0.4490 0.4490 0.4510 0.4510 0.4510
15.736051 0.4510 0.4510 0.4510 0.4520 0.4520
15.770000 0.4520 0.4520 0.4540 0.4520 0.4540
15.804051 0.4540 0.4540 0.4540 0.4540 0.4540
15.838000 0.4540 0.4560 0.4570 0.4570 0.4570
15.872051 0.4570 0.4570 0.4570 0.4570 0.4570
15.906000 0.4590 0.4590 0.4590 0.4590 0.4610
15.940051 0.4610 0.4610 0.4610 0.4610 0.4630
15.974000 0.4630 0.4630
##END=
