##TITLE=CHROME YELLOW (PRIMOSE)
##JCAMP-DX=4.24
##DATA TYPE=INFRARED SPECTRUM
##CLASS=COBLENTZ
##ORIGIN=DESOTO CHEMICAL COATINGS, INC.
##OWNER=COBLENTZ SOCIETY
Collection (C) 2018 copyright by the U.S. Secretary of Commerce
on behalf of the United States of America. All rights reserved.
##DATE=Not specified, most likely prior to 1970
##MOLFORM=Pb Cr O4
$$ PbCrO4 63%, PbSO4 33%
##SOURCE REFERENCE=COBLENTZ NO. 4687
##$NIST ID=B6004687
##$NIST SOURCE=COBLENTZ
##$NIST IMAGE=cob4687
##SPECTROMETER/DATA SYSTEM=Not specified, most likely a grating spectrometer.
##STATE=SOLID (1.2 mg / 300 mg CsI PELLET)
##SAMPLING PROCEDURE=TRANSMISSION
##RESOLUTION=4
##DATA PROCESSING=DIGITIZED BY NIST FROM HARD COPY (FROM TWO SEGMENTS)
##XUNITS=1/CM
##YUNITS=TRANSMITTANCE
##XFACTOR=1.000000
##YFACTOR=1
##DELTAX=1.329397
##FIRSTX=200
##LASTX=3983.46
##FIRSTY=0.764
##MAXX=3983.46
##MINX=200
##MAXY=0.981
##MINY=0.138
##NPOINTS=2847
##XYDATA=(X++(Y..Y))
200.000000 0.7640 0.7660 0.7690 0.7640 0.7660
206.646985 0.7690 0.7690 0.7700 0.7720 0.7740
213.293970 0.7770 0.7800 0.7820 0.7880 0.7920
219.940955 0.7970 0.8010 0.8080 0.8100 0.8130
226.587940 0.8170 0.8200 0.8240 0.8300 0.8380
233.234924 0.8440 0.8480 0.8480 0.8520 0.8570
239.881909 0.8600 0.8640 0.8680 0.8720 0.8740
246.528894 0.8770 0.8780 0.8810 0.8820 0.8880
253.175879 0.8890 0.8900 0.8920 0.8970 0.8980
259.822864 0.9000 0.9000 0.9050 0.9080 0.9090
266.469849 0.9100 0.9100 0.9100 0.9120 0.9130
273.116834 0.9140 0.9140 0.9140 0.9140 0.9160
279.763819 0.9170 0.9170 0.9170 0.9170 0.9170
286.410804 0.9170 0.9170 0.9170 0.9170 0.9170
293.057788 0.9170 0.9170 0.9170 0.9160 0.9160
299.704773 0.9140 0.9140 0.9140 0.9120 0.9120
306.351758 0.9100 0.9100 0.9090 0.9090 0.9080
312.998743 0.9080 0.9050 0.9040 0.9040 0.9020
319.645728 0.9010 0.9010 0.9010 0.8980 0.8980
326.292713 0.8980 0.8960 0.8940 0.8930 0.8900
332.939698 0.8890 0.8880 0.8880 0.8810 0.8780
339.586683 0.8760 0.8730 0.8690 0.8680 0.8620
346.233668 0.8610 0.8580 0.8570 0.8560 0.8530
352.880652 0.8500 0.8480 0.8480 0.8410 0.8380
359.527637 0.8380 0.8360 0.8330 0.8300 0.8280
366.174622 0.8280 0.8280 0.8250 0.8250 0.8250
372.821607 0.8240 0.8240 0.8220 0.8200 0.8170
379.468592 0.8170 0.8160 0.8140 0.8140 0.8140
386.115577 0.8140 0.8140 0.8140 0.8130 0.8100
392.762562 0.8060 0.8020 0.8000 0.7970 0.7970
399.409547 0.7920 0.7890 0.7880 0.7860 0.7860
406.056532 0.7880 0.7890 0.7900 0.7940 0.8000
412.703516 0.8040 0.8080 0.8130 0.8180 0.8260
419.350501 0.8290 0.8330 0.8410 0.8450 0.8480
425.997486 0.8500 0.8540 0.8580 0.8640 0.8680
432.644471 0.8700 0.8720 0.8730 0.8730 0.8730
439.291456 0.8760 0.8770 0.8800 0.8810 0.8810
445.938441 0.8820 0.8840 0.8850 0.8880 0.8880
452.585426 0.8890 0.8890 0.8890 0.8900 0.8900
459.232411 0.8900 0.8900 0.8920 0.8930 0.8930
465.879396 0.8930 0.8930 0.8930 0.8920 0.8920
472.526380 0.8920 0.8930 0.8930 0.8940 0.8970
479.173365 0.8980 0.8980 0.9000 0.9000 0.9000
485.820350 0.8980 0.8980 0.8980 0.8980 0.8980
492.467335 0.8970 0.8970 0.8970 0.8970 0.8970
499.114320 0.8970 0.8970 0.8970 0.8970 0.8970
505.761305 0.8970 0.8970 0.8970 0.8970 0.8970
512.408290 0.8970 0.8970 0.8970 0.8970 0.8970
519.055275 0.8970 0.8980 0.8980 0.8980 0.8980
525.702260 0.8980 0.8980 0.8970 0.8970 0.8970
532.349244 0.8970 0.8960 0.8930 0.8930 0.8920
538.996229 0.8920 0.8930 0.8930 0.8900 0.8890
545.643214 0.8890 0.8890 0.8880 0.8880 0.8840
552.290199 0.8820 0.8810 0.8810 0.8810 0.8800
558.937184 0.8800 0.8800 0.8780 0.8780 0.8780
565.584169 0.8780 0.8770 0.8770 0.8760 0.8730
572.231154 0.8730 0.8720 0.8700 0.8700 0.8700
578.878139 0.8700 0.8690 0.8680 0.8680 0.8640
585.525124 0.8600 0.8540 0.8490 0.8420 0.8280
592.172108 0.8001 0.7741 0.7581 0.7401 0.7221
598.819093 0.7160 0.6970 0.6770 0.6640 0.6580
605.466078 0.6570 0.6580 0.6680 0.6819 0.6939
612.113063 0.7020 0.7120 0.7120 0.7180 0.7200
618.760048 0.7210 0.7220 0.7240 0.7220 0.7210
625.407033 0.7140 0.7010 0.6960 0.6880 0.6880
632.054018 0.7079 0.7160 0.7419 0.7738 0.7939
638.701003 0.8140 0.8280 0.8410 0.8460 0.8520
645.347988 0.8580 0.8680 0.8720 0.8760 0.8770
651.994972 0.8780 0.8780 0.8780 0.8780 0.8780
658.641957 0.8800 0.8820 0.8840 0.8850 0.8860
665.288942 0.8860 0.8880 0.8890 0.8890 0.8890
671.935927 0.8890 0.8900 0.8900 0.8900 0.8900
678.582912 0.8920 0.8930 0.8940 0.8940 0.8970
685.229897 0.8970 0.8980 0.8980 0.8980 0.8980
691.876882 0.8970 0.8970 0.8960 0.8960 0.8960
698.523867 0.8940 0.8930 0.8920 0.8900 0.8890
705.170852 0.8880 0.8860 0.8850 0.8840 0.8810
711.817836 0.8800 0.8780 0.8770 0.8760 0.8740
718.464821 0.8720 0.8680 0.8640 0.8600 0.8530
725.111806 0.8500 0.8480 0.8420 0.8400 0.8400
731.758791 0.8320 0.8210 0.8180 0.8090 0.8000
738.405776 0.7970 0.7880 0.7800 0.7740 0.7700
745.052761 0.7660 0.7570 0.7450 0.7360 0.7250
751.699746 0.7140 0.7040 0.6960 0.6890 0.6810
758.346731 0.6770 0.6690 0.6610 0.6500 0.6410
764.993716 0.6330 0.6210 0.6120 0.5921 0.5801
771.640700 0.5680 0.5560 0.5450 0.5410 0.5300
778.287685 0.5200 0.5160 0.5001 0.4901 0.4880
784.934670 0.4760 0.4650 0.4600 0.4500 0.4370
791.581655 0.4250 0.4200 0.4091 0.4010 0.3960
798.228640 0.3890 0.3780 0.3690 0.3580 0.3520
804.875625 0.3460 0.3380 0.3260 0.3180 0.3140
811.522610 0.2970 0.2890 0.2850 0.2800 0.2780
818.169595 0.2700 0.2610 0.2540 0.2490 0.2440
824.816580 0.2380 0.2380 0.2330 0.2290 0.2260
831.463564 0.2220 0.2210 0.2180 0.2130 0.2100
838.110549 0.2050 0.2040 0.2010 0.1980 0.1960
844.757534 0.1930 0.1900 0.1880 0.1860 0.1800
851.404519 0.1780 0.1730 0.1700 0.1640 0.1600
858.051504 0.1600 0.1530 0.1520 0.1490 0.1490
864.698489 0.1460 0.1450 0.1440 0.1440 0.1420
871.345474 0.1420 0.1410 0.1400 0.1400 0.1380
877.992459 0.1380 0.1380 0.1380 0.1380 0.1380
884.639443 0.1380 0.1380 0.1400 0.1400 0.1400
891.286428 0.1410 0.1410 0.1420 0.1440 0.1450
897.933413 0.1490 0.1490 0.1520 0.1530 0.1570
904.580398 0.1600 0.1620 0.1640 0.1690 0.1720
911.227383 0.1730 0.1780 0.1800 0.1840 0.1890
917.874368 0.1900 0.1980 0.2050 0.2080 0.2140
924.521353 0.2210 0.2300 0.2400 0.2460 0.2778
931.168338 0.2960 0.3040 0.3100 0.3290 0.3460
937.815323 0.3699 0.3939 0.4338 0.4639 0.4859
944.462307 0.5120 0.5400 0.5650 0.5890 0.5980
951.109292 0.6060 0.6299 0.6479 0.6639 0.6759
957.756277 0.6890 0.6970 0.7010 0.7090 0.7130
964.403262 0.7160 0.7200 0.7250 0.7290 0.7300
971.050247 0.7330 0.7480 0.7530 0.7580 0.7610
977.697232 0.7640 0.7650 0.7650 0.7660 0.7660
984.344217 0.7640 0.7620 0.7600 0.7560 0.7530
990.991202 0.7420 0.7380 0.7320 0.7260 0.7200
997.638187 0.7160 0.7100 0.7010 0.6920 0.6820
1004.285171 0.6730 0.6650 0.6580 0.6481 0.6321
1010.932156 0.6300 0.5940 0.5880 0.5820 0.5730
1017.579141 0.5610 0.5500 0.5400 0.5211 0.5101
1024.226126 0.5040 0.4980 0.4880 0.4780 0.4680
1030.873111 0.4460 0.4370 0.4250 0.4180 0.4090
1037.520096 0.4010 0.3980 0.3900 0.3810 0.3680
1044.167081 0.3650 0.3600 0.3540 0.3500 0.3490
1050.814066 0.3440 0.3380 0.3340 0.3320 0.3290
1057.461051 0.3260 0.3250 0.3240 0.3240 0.3220
1064.108035 0.3220 0.3210 0.3200 0.3170 0.3160
1070.755020 0.3160 0.3140 0.3140 0.3140 0.3140
1077.402005 0.3140 0.3160 0.3160 0.3180 0.3200
1084.048990 0.3220 0.3240 0.3250 0.3260 0.3280
1090.695975 0.3290 0.3320 0.3330 0.3330 0.3320
1097.342960 0.3300 0.3300 0.3300 0.3320 0.3330
1103.989945 0.3340 0.3370 0.3400 0.3480 0.3490
1110.636930 0.3500 0.3530 0.3600 0.3640 0.3700
1117.283915 0.3730 0.3760 0.3770 0.3850 0.3890
1123.930899 0.3930 0.3980 0.4040 0.4120 0.4200
1130.577884 0.4240 0.4290 0.4360 0.4400 0.4480
1137.224869 0.4520 0.4600 0.4650 0.4700 0.4809
1143.871854 0.4880 0.4900 0.4970 0.5040 0.5060
1150.518839 0.5160 0.5250 0.5340 0.5450 0.5500
1157.165824 0.5600 0.5690 0.5740 0.5890 0.5970
1163.812809 0.6040 0.6100 0.6200 0.6280 0.6370
1170.459794 0.6520 0.6560 0.6780 0.6920 0.7000
1177.106779 0.7100 0.7200 0.7290 0.7409 0.7519
1183.753763 0.7650 0.7780 0.7900 0.8000 0.8090
1190.400748 0.8160 0.8290 0.8400 0.8490 0.8540
1197.047733 0.8600 0.8650 0.8730 0.8820 0.8930
1203.694718 0.8970 0.9000 0.9020 0.9050 0.9090
1210.341703 0.9120 0.9140 0.9180 0.9240 0.9290
1216.988688 0.9290 0.9300 0.9330 0.9380 0.9420
1223.635673 0.9450 0.9480 0.9500 0.9530 0.9560
1230.282658 0.9580 0.9580 0.9600 0.9600 0.9600
1236.929643 0.9610 0.9650 0.9660 0.9680 0.9690
1243.576627 0.9690 0.9700 0.9720 0.9720 0.9720
1250.223612 0.9720 0.9720 0.9730 0.9730 0.9730
1256.870597 0.9730 0.9730 0.9720 0.9720 0.9720
1263.517582 0.9720 0.9720 0.9700 0.9690 0.9680
1270.164567 0.9680 0.9680 0.9680 0.9690 0.9690
1276.811552 0.9680 0.9660 0.9660 0.9650 0.9650
1283.458537 0.9620 0.9610 0.9610 0.9600 0.9600
1290.105522 0.9580 0.9580 0.9570 0.9530 0.9520
1296.752507 0.9500 0.9490 0.9490 0.9480 0.9480
1303.399491 0.9460 0.9450 0.9440 0.9420 0.9410
1310.046476 0.9400 0.9400 0.9370 0.9360 0.9340
1316.693461 0.9330 0.9290 0.9280 0.9280 0.9260
1323.340446 0.9250 0.9240 0.9210 0.9210 0.9210
1329.987431 0.9200 0.9160 0.9140 0.9120 0.9100
1336.634416 0.9090 0.9080 0.9050 0.9040 0.9020
1343.281401 0.9010 0.8980 0.8970 0.8920 0.8890
1349.928386 0.8860 0.8820 0.8780 0.8730 0.8720
1356.575371 0.8690 0.8620 0.8580 0.8560 0.8500
1363.222355 0.8480 0.8450 0.8400 0.8380 0.8370
1369.869340 0.8370 0.8370 0.8370 0.8380 0.8400
1376.516325 0.8400 0.8410 0.8420 0.8450 0.8490
1383.163310 0.8520 0.8520 0.8530 0.8540 0.8540
1389.810295 0.8540 0.8540 0.8540 0.8540 0.8530
1396.457280 0.8530 0.8530 0.8530 0.8520 0.8520
1403.104265 0.8520 0.8500 0.8500 0.8500 0.8490
1409.751250 0.8480 0.8480 0.8480 0.8480 0.8480
1416.398235 0.8480 0.8480 0.8490 0.8490 0.8490
1423.045219 0.8500 0.8500 0.8520 0.8500 0.8500
1429.692204 0.8500 0.8490 0.8490 0.8480 0.8480
1436.339189 0.8480 0.8480 0.8480 0.8480 0.8490
1442.986174 0.8490 0.8500 0.8500 0.8500 0.8520
1449.633159 0.8530 0.8530 0.8530 0.8560 0.8560
1456.280144 0.8580 0.8600 0.8600 0.8610 0.8610
1462.927129 0.8620 0.8620 0.8640 0.8640 0.8640
1469.574114 0.8650 0.8660 0.8690 0.8730 0.8770
1476.221099 0.8780 0.8800 0.8800 0.8810 0.8810
1482.868083 0.8820 0.8840 0.8840 0.8850 0.8860
1489.515068 0.8860 0.8860 0.8880 0.8880 0.8880
1496.162053 0.8890 0.8890 0.8900 0.8900 0.8900
1502.809038 0.8920 0.8930 0.8930 0.8940 0.8940
1509.456023 0.8940 0.8960 0.8970 0.8980 0.9000
1516.103008 0.9000 0.9010 0.9010 0.9020 0.9020
1522.749993 0.9040 0.9040 0.9050 0.9050 0.9060
1529.396978 0.9060 0.9080 0.9090 0.9090 0.9100
1536.043963 0.9100 0.9100 0.9100 0.9100 0.9120
1542.690947 0.9130 0.9140 0.9160 0.9170 0.9180
1549.337932 0.9180 0.9200 0.9200 0.9220 0.9220
1555.984917 0.9240 0.9250 0.9250 0.9260 0.9260
1562.631902 0.9280 0.9280 0.9280 0.9290 0.9290
1569.278887 0.9290 0.9290 0.9290 0.9300 0.9320
1575.925872 0.9320 0.9320 0.9320 0.9330 0.9320
1582.572857 0.9320 0.9300 0.9300 0.9290 0.9260
1589.219842 0.9250 0.9240 0.9210 0.9140 0.9120
1595.866827 0.9090 0.9050 0.8930 0.8860 0.8820
1602.513811 0.8780 0.8780 0.8770 0.8770 0.8770
1609.160796 0.8770 0.8780 0.8780 0.8780 0.8780
1615.807781 0.8800 0.8800 0.8800 0.8810 0.8810
1622.454766 0.8820 0.8840 0.8850 0.8860 0.8880
1629.101751 0.8880 0.8890 0.8900 0.8920 0.8940
1635.748736 0.8960 0.8970 0.8980 0.9000 0.9010
1642.395721 0.9010 0.9040 0.9050 0.9060 0.9080
1649.042706 0.9090 0.9100 0.9120 0.9120 0.9130
1655.689691 0.9130 0.9140 0.9140 0.9160 0.9160
1662.336675 0.9170 0.9180 0.9200 0.9210 0.9240
1668.983660 0.9260 0.9280 0.9300 0.9320 0.9330
1675.630645 0.9340 0.9360 0.9370 0.9380 0.9380
1682.277630 0.9380 0.9400 0.9450 0.9480 0.9500
1688.924615 0.9520 0.9530 0.9530 0.9540 0.9540
1695.571600 0.9560 0.9560 0.9570 0.9570 0.9580
1702.218585 0.9600 0.9610 0.9620 0.9620 0.9640
1708.865570 0.9640 0.9660 0.9660 0.9680 0.9690
1715.512555 0.9690 0.9690 0.9690 0.9680 0.9680
1722.159539 0.9680 0.9690 0.9690 0.9690 0.9690
1728.806524 0.9700 0.9700 0.9700 0.9690 0.9690
1735.453509 0.9690 0.9690 0.9690 0.9700 0.9700
1742.100494 0.9720 0.9720 0.9730 0.9730 0.9730
1748.747479 0.9730 0.9740 0.9740 0.9740 0.9740
1755.394464 0.9760 0.9770 0.9770 0.9770 0.9770
1762.041449 0.9760 0.9760 0.9760 0.9760 0.9760
1768.688434 0.9770 0.9770 0.9780 0.9780 0.9770
1775.335419 0.9770 0.9770 0.9770 0.9780 0.9780
1781.982403 0.9810 0.9810 0.9800 0.9800 0.9800
1788.629388 0.9800 0.9780 0.9780 0.9780 0.9800
1795.276373 0.9800 0.9800 0.9800 0.9800 0.9800
1801.923358 0.9780 0.9780 0.9800 0.9800 0.9800
1808.570343 0.9810 0.9810 0.9810 0.9810 0.9800
1815.217328 0.9800 0.9800 0.9800 0.9800 0.9800
1821.864313 0.9800 0.9800 0.9800 0.9800 0.9800
1828.511298 0.9800 0.9800 0.9800 0.9800 0.9810
1835.158283 0.9810 0.9810 0.9810 0.9800 0.9800
1841.805267 0.9800 0.9800 0.9800 0.9800 0.9810
1848.452252 0.9800 0.9800 0.9800 0.9800 0.9800
1855.099237 0.9810 0.9810 0.9810 0.9810 0.9810
1861.746222 0.9810 0.9810 0.9810 0.9810 0.9810
1868.393207 0.9810 0.9810 0.9810 0.9810 0.9800
1875.040192 0.9800 0.9800 0.9800 0.9800 0.9800
1881.687177 0.9810 0.9810 0.9810 0.9810 0.9810
1888.334162 0.9800 0.9800 0.9780 0.9780 0.9780
1894.981147 0.9770 0.9760 0.9760 0.9760 0.9770
1901.628131 0.9780 0.9780 0.9800 0.9800 0.9800
1908.275116 0.9800 0.9800 0.9800 0.9800 0.9800
1914.922101 0.9800 0.9800 0.9800 0.9800 0.9780
1921.569086 0.9780 0.9770 0.9770 0.9780 0.9780
1928.216071 0.9780 0.9780 0.9780 0.9780 0.9770
1934.863056 0.9770 0.9770 0.9770 0.9770 0.9780
1941.510041 0.9770 0.9770 0.9770 0.9770 0.9770
1948.157026 0.9770 0.9770 0.9770 0.9770 0.9770
1954.804011 0.9760 0.9760 0.9760 0.9760 0.9760
1961.450995 0.9760 0.9760 0.9760 0.9740 0.9740
1968.097980 0.9740 0.9740 0.9740 0.9740 0.9740
1974.744965 0.9740 0.9740 0.9740 0.9740 0.9740
1981.391950 0.9740 0.9740 0.9740 0.9740 0.9740
1988.038935 0.9740 0.9730 0.9730 0.9730 0.9730
1994.685920 0.9730 0.9720 0.9720 0.9720 0.9700
2001.332905 0.9700 0.9700 0.9695 0.9690 0.9690
2007.979890 0.9690 0.9685 0.9680 0.9665 0.9650
2014.626875 0.9635 0.9620 0.9615 0.9610 0.9605
2021.273859 0.9600 0.9600 0.9600 0.9600 0.9600
2027.920844 0.9600 0.9600 0.9600 0.9600 0.9600
2034.567829 0.9600 0.9600 0.9600 0.9605 0.9610
2041.214814 0.9610 0.9610 0.9605 0.9600 0.9590
2047.861799 0.9580 0.9580 0.9580 0.9580 0.9580
2054.508784 0.9580 0.9580 0.9590 0.9600 0.9600
2061.155769 0.9600 0.9600 0.9600 0.9600 0.9600
2067.802754 0.9600 0.9600 0.9600 0.9600 0.9600
2074.449739 0.9600 0.9590 0.9580 0.9580 0.9580
2081.096723 0.9580 0.9580 0.9575 0.9570 0.9570
2087.743708 0.9570 0.9570 0.9570 0.9570 0.9570
2094.390693 0.9575 0.9580 0.9580 0.9580 0.9580
2101.037678 0.9580 0.9580 0.9581 0.9591 0.9599
2107.684663 0.9589 0.9580 0.9580 0.9580 0.9580
2114.331648 0.9580 0.9575 0.9570 0.9570 0.9570
2120.978633 0.9570 0.9570 0.9570 0.9570 0.9565
2127.625618 0.9560 0.9560 0.9560 0.9560 0.9560
2134.272603 0.9560 0.9560 0.9560 0.9560 0.9560
2140.919587 0.9560 0.9560 0.9559 0.9549 0.9540
2147.566572 0.9540 0.9540 0.9540 0.9540 0.9540
2154.213557 0.9540 0.9540 0.9541 0.9551 0.9559
2160.860542 0.9549 0.9540 0.9540 0.9540 0.9540
2167.507527 0.9541 0.9551 0.9559 0.9549 0.9540
2174.154512 0.9540 0.9540 0.9540 0.9541 0.9551
2180.801497 0.9560 0.9560 0.9560 0.9560 0.9560
2187.448482 0.9560 0.9560 0.9560 0.9559 0.9549
2194.095466 0.9540 0.9540 0.9540 0.9540 0.9541
2200.742451 0.9551 0.9559 0.9549 0.9540 0.9540
2207.389436 0.9540 0.9540 0.9540 0.9540 0.9540
2214.036421 0.9540 0.9540 0.9540 0.9540 0.9540
2220.683406 0.9540 0.9540 0.9540 0.9540 0.9540
2227.330391 0.9540 0.9540 0.9540 0.9540 0.9540
2233.977376 0.9540 0.9540 0.9540 0.9540 0.9540
2240.624361 0.9540 0.9540 0.9540 0.9540 0.9540
2247.271346 0.9540 0.9540 0.9539 0.9534 0.9530
2253.918330 0.9530 0.9530 0.9530 0.9530 0.9530
2260.565315 0.9530 0.9530 0.9530 0.9530 0.9530
2267.212300 0.9530 0.9530 0.9530 0.9530 0.9530
2273.859285 0.9530 0.9530 0.9530 0.9530 0.9530
2280.506270 0.9530 0.9530 0.9530 0.9530 0.9530
2287.153255 0.9530 0.9530 0.9529 0.9524 0.9520
2293.800240 0.9520 0.9520 0.9520 0.9520 0.9520
2300.447225 0.9520 0.9520 0.9520 0.9520 0.9518
2307.094210 0.9508 0.9499 0.9494 0.9490 0.9490
2313.741194 0.9490 0.9490 0.9489 0.9484 0.9477
2320.388179 0.9467 0.9460 0.9460 0.9460 0.9460
2327.035164 0.9460 0.9460 0.9460 0.9460 0.9460
2333.682149 0.9460 0.9460 0.9460 0.9460 0.9460
2340.329134 0.9460 0.9460 0.9460 0.9460 0.9460
2346.976119 0.9460 0.9459 0.9454 0.9450 0.9450
2353.623104 0.9450 0.9450 0.9450 0.9450 0.9450
2360.270089 0.9450 0.9450 0.9450 0.9449 0.9444
2366.917074 0.9440 0.9440 0.9441 0.9446 0.9450
2373.564058 0.9450 0.9449 0.9444 0.9440 0.9440
2380.211043 0.9440 0.9440 0.9443 0.9453 0.9460
2386.858028 0.9460 0.9459 0.9454 0.9450 0.9450
2393.505013 0.9450 0.9450 0.9450 0.9450 0.9450
2400.151998 0.9450 0.9452 0.9457 0.9460 0.9460
2406.798983 0.9458 0.9453 0.9448 0.9443 0.9440
2413.445968 0.9440 0.9440 0.9440 0.9440 0.9440
2420.092953 0.9437 0.9427 0.9420 0.9420 0.9423
2426.739938 0.9433 0.9440 0.9440 0.9440 0.9440
2433.386922 0.9440 0.9440 0.9437 0.9427 0.9420
2440.033907 0.9420 0.9418 0.9413 0.9410 0.9410
2446.680892 0.9410 0.9410 0.9410 0.9410 0.9410
2453.327877 0.9410 0.9410 0.9410 0.9410 0.9410
2459.974862 0.9408 0.9403 0.9400 0.9400 0.9400
2466.621847 0.9400 0.9400 0.9400 0.9400 0.9400
2473.268832 0.9400 0.9400 0.9400 0.9400 0.9400
2479.915817 0.9400 0.9400 0.9400 0.9396 0.9386
2486.562802 0.9380 0.9380 0.9380 0.9380 0.9380
2493.209786 0.9380 0.9380 0.9380 0.9380 0.9380
2499.856771 0.9384 0.9394 0.9400 0.9400 0.9396
2506.503756 0.9386 0.9380 0.9380 0.9378 0.9373
2513.150741 0.9370 0.9370 0.9368 0.9363 0.9360
2519.797726 0.9360 0.9360 0.9360 0.9356 0.9346
2526.444711 0.9340 0.9340 0.9340 0.9340 0.9340
2533.091696 0.9340 0.9340 0.9340 0.9340 0.9340
2539.738681 0.9340 0.9340 0.9338 0.9333 0.9328
2546.385666 0.9323 0.9320 0.9320 0.9316 0.9306
2553.032650 0.9304 0.9314 0.9316 0.9306 0.9300
2559.679635 0.9300 0.9300 0.9300 0.9300 0.9300
2566.326620 0.9300 0.9300 0.9300 0.9300 0.9298
2572.973605 0.9293 0.9290 0.9290 0.9288 0.9283
2579.620590 0.9280 0.9280 0.9280 0.9280 0.9280
2586.267575 0.9280 0.9280 0.9280 0.9280 0.9280
2592.914560 0.9280 0.9280 0.9275 0.9265 0.9260
2599.561545 0.9260 0.9260 0.9260 0.9260 0.9260
2606.208530 0.9260 0.9260 0.9260 0.9260 0.9260
2612.855514 0.9260 0.9260 0.9260 0.9265 0.9275
2619.502499 0.9280 0.9280 0.9275 0.9265 0.9260
2626.149484 0.9260 0.9258 0.9253 0.9250 0.9250
2632.796469 0.9248 0.9243 0.9235 0.9225 0.9218
2639.443454 0.9213 0.9210 0.9210 0.9210 0.9210
2646.090439 0.9210 0.9210 0.9208 0.9203 0.9200
2652.737424 0.9200 0.9200 0.9200 0.9200 0.9200
2659.384409 0.9195 0.9185 0.9180 0.9180 0.9180
2666.031394 0.9180 0.9177 0.9172 0.9170 0.9170
2672.678378 0.9170 0.9170 0.9170 0.9170 0.9170
2679.325363 0.9170 0.9170 0.9170 0.9170 0.9170
2685.972348 0.9167 0.9162 0.9155 0.9145 0.9140
2692.619333 0.9140 0.9137 0.9132 0.9127 0.9122
2699.266318 0.9120 0.9120 0.9115 0.9105 0.9100
2705.913303 0.9100 0.9100 0.9100 0.9100 0.9100
2712.560288 0.9097 0.9092 0.9090 0.9090 0.9090
2719.207273 0.9090 0.9090 0.9090 0.9087 0.9082
2725.854258 0.9080 0.9080 0.9080 0.9080 0.9080
2732.501242 0.9080 0.9080 0.9080 0.9080 0.9080
2739.148227 0.9080 0.9080 0.9080 0.9080 0.9083
2745.795212 0.9088 0.9090 0.9090 0.9090 0.9090
2752.442197 0.9090 0.9090 0.9090 0.9090 0.9090
2759.089182 0.9090 0.9090 0.9090 0.9087 0.9082
2765.736167 0.9080 0.9080 0.9080 0.9080 0.9080
2772.383152 0.9080 0.9080 0.9080 0.9074 0.9064
2779.030137 0.9060 0.9060 0.9054 0.9044 0.9034
2785.677122 0.9024 0.9017 0.9012 0.9010 0.9010
2792.324106 0.9010 0.9010 0.9007 0.9002 0.9000
2798.971091 0.9000 0.9003 0.9008 0.9001 0.8986
2805.618076 0.8980 0.8980 0.8980 0.8980 0.8980
2812.265061 0.8980 0.8980 0.8980 0.8977 0.8972
2818.912046 0.8961 0.8946 0.8940 0.8940 0.8940
2825.559031 0.8940 0.8940 0.8940 0.8937 0.8932
2832.206016 0.8930 0.8930 0.8927 0.8922 0.8920
2838.853001 0.8920 0.8910 0.8895 0.8887 0.8882
2845.499986 0.8870 0.8855 0.8837 0.8817 0.8807
2852.146970 0.8802 0.8790 0.8775 0.8773 0.8778
2858.793955 0.8777 0.8772 0.8767 0.8762 0.8760
2865.440940 0.8760 0.8760 0.8760 0.8760 0.8760
2872.087925 0.8760 0.8760 0.8760 0.8760 0.8760
2878.734910 0.8760 0.8760 0.8760 0.8760 0.8760
2885.381895 0.8753 0.8743 0.8740 0.8740 0.8737
2892.028880 0.8732 0.8727 0.8722 0.8713 0.8703
2898.675865 0.8697 0.8692 0.8687 0.8681 0.8673
2905.322850 0.8663 0.8653 0.8643 0.8629 0.8614
2911.969834 0.8599 0.8584 0.8576 0.8571 0.8552
2918.616819 0.8527 0.8509 0.8494 0.8476 0.8456
2925.263804 0.8446 0.8441 0.8440 0.8440 0.8440
2931.910789 0.8440 0.8440 0.8440 0.8440 0.8440
2938.557774 0.8440 0.8440 0.8444 0.8449 0.8450
2945.204759 0.8450 0.8454 0.8459 0.8467 0.8477
2951.851744 0.8480 0.8480 0.8480 0.8480 0.8484
2958.498729 0.8489 0.8490 0.8490 0.8494 0.8499
2965.145714 0.8500 0.8500 0.8500 0.8500 0.8500
2971.792698 0.8500 0.8500 0.8500 0.8500 0.8500
2978.439683 0.8500 0.8500 0.8500 0.8500 0.8508
2985.086668 0.8518 0.8520 0.8520 0.8520 0.8520
2991.733653 0.8520 0.8520 0.8520 0.8520 0.8520
2998.380638 0.8520 0.8512 0.8502 0.8496 0.8491
3005.027623 0.8490 0.8490 0.8490 0.8490 0.8486
3011.674608 0.8481 0.8480 0.8480 0.8472 0.8462
3018.321593 0.8456 0.8451 0.8438 0.8423 0.8416
3024.968578 0.8411 0.8406 0.8401 0.8400 0.8400
3031.615562 0.8400 0.8400 0.8400 0.8400 0.8400
3038.262547 0.8400 0.8392 0.8382 0.8380 0.8380
3044.909532 0.8372 0.8362 0.8352 0.8342 0.8340
3051.556517 0.8340 0.8332 0.8322 0.8320 0.8320
3058.203502 0.8312 0.8302 0.8300 0.8300 0.8296
3064.850487 0.8291 0.8290 0.8290 0.8286 0.8281
3071.497472 0.8272 0.8262 0.8256 0.8251 0.8246
3078.144457 0.8241 0.8232 0.8222 0.8216 0.8211
3084.791442 0.8206 0.8201 0.8200 0.8200 0.8191
3091.438426 0.8182 0.8180 0.8180 0.8176 0.8171
3098.085411 0.8166 0.8161 0.8147 0.8132 0.8130
3104.732396 0.8130 0.8126 0.8121 0.8112 0.8102
3111.379381 0.8096 0.8091 0.8086 0.8081 0.8071
3118.026366 0.8061 0.8051 0.8041 0.8031 0.8021
3124.673351 0.8016 0.8011 0.8006 0.8001 0.7991
3131.320336 0.7981 0.7976 0.7971 0.7966 0.7961
3137.967321 0.7947 0.7932 0.7917 0.7902 0.7896
3144.614306 0.7891 0.7886 0.7881 0.7867 0.7852
3151.261290 0.7850 0.7850 0.7846 0.7841 0.7840
3157.908275 0.7840 0.7827 0.7812 0.7797 0.7782
3164.555260 0.7776 0.7771 0.7757 0.7741 0.7740
3171.202245 0.7740 0.7735 0.7730 0.7725 0.7720
3177.849230 0.7711 0.7701 0.7691 0.7681 0.7671
3184.496215 0.7661 0.7655 0.7650 0.7645 0.7640
3191.143200 0.7631 0.7621 0.7611 0.7601 0.7600
3197.790185 0.7600 0.7586 0.7571 0.7556 0.7541
3204.437170 0.7535 0.7530 0.7525 0.7520 0.7511
3211.084154 0.7501 0.7500 0.7500 0.7495 0.7490
3217.731139 0.7485 0.7480 0.7471 0.7460 0.7450
3224.378124 0.7440 0.7440 0.7440 0.7430 0.7420
3231.025109 0.7415 0.7410 0.7410 0.7410 0.7405
3237.672094 0.7400 0.7400 0.7400 0.7390 0.7380
3244.319079 0.7380 0.7380 0.7375 0.7370 0.7365
3250.966064 0.7360 0.7350 0.7340 0.7335 0.7330
3257.613049 0.7325 0.7320 0.7310 0.7300 0.7295
3264.260034 0.7290 0.7285 0.7280 0.7265 0.7250
3270.907018 0.7235 0.7220 0.7220 0.7220 0.7215
3277.554003 0.7210 0.7190 0.7170 0.7155 0.7140
3284.200988 0.7140 0.7140 0.7135 0.7130 0.7115
3290.847973 0.7100 0.7095 0.7090 0.7085 0.7080
3297.494958 0.7065 0.7050 0.7030 0.7010 0.7005
3304.141943 0.7000 0.6990 0.6980 0.6980 0.6980
3310.788928 0.6975 0.6970 0.6945 0.6920 0.6910
3317.435913 0.6900 0.6895 0.6890 0.6885 0.6880
3324.082898 0.6845 0.6810 0.6805 0.6799 0.6784
3330.729882 0.6769 0.6744 0.6720 0.6710 0.6700
3337.376867 0.6700 0.6699 0.6674 0.6649 0.6629
3344.023852 0.6609 0.6594 0.6580 0.6580 0.6579
3350.670837 0.6554 0.6529 0.6509 0.6490 0.6490
3357.317822 0.6489 0.6474 0.6458 0.6428 0.6399
3363.964807 0.6379 0.6359 0.6349 0.6340 0.6335
3370.611792 0.6329 0.6309 0.6289 0.6274 0.6260
3377.258777 0.6255 0.6249 0.6229 0.6209 0.6194
3383.905762 0.6178 0.6153 0.6130 0.6125 0.6119
3390.552746 0.6104 0.6090 0.6085 0.6079 0.6064
3397.199731 0.6047 0.6007 0.5969 0.5954 0.5939
3403.846716 0.5919 0.5900 0.5895 0.5890 0.5885
3410.493701 0.5879 0.5864 0.5849 0.5834 0.5820
3417.140686 0.5820 0.5820 0.5815 0.5810 0.5805
3423.787671 0.5799 0.5789 0.5779 0.5769 0.5759
3430.434656 0.5749 0.5740 0.5740 0.5739 0.5734
3437.081641 0.5730 0.5730 0.5729 0.5724 0.5720
3443.728626 0.5720 0.5719 0.5709 0.5700 0.5700
3450.375610 0.5700 0.5700 0.5700 0.5700 0.5700
3457.022595 0.5700 0.5700 0.5700 0.5701 0.5711
3463.669580 0.5721 0.5726 0.5731 0.5736 0.5740
3470.316565 0.5740 0.5742 0.5757 0.5770 0.5770
3476.963550 0.5771 0.5776 0.5780 0.5780 0.5781
3483.610535 0.5791 0.5800 0.5800 0.5802 0.5812
3490.257520 0.5822 0.5832 0.5842 0.5852 0.5863
3496.904505 0.5883 0.5903 0.5923 0.5942 0.5957
3503.551490 0.5971 0.5976 0.5982 0.5992 0.6001
3510.198474 0.6006 0.6012 0.6028 0.6040 0.6040
3516.845459 0.6044 0.6064 0.6081 0.6086 0.6094
3523.492444 0.6114 0.6133 0.6148 0.6161 0.6166
3530.139429 0.6171 0.6176 0.6184 0.6204 0.6225
3536.786414 0.6255 0.6281 0.6286 0.6294 0.6314
3543.433399 0.6334 0.6354 0.6374 0.6394 0.6417
3550.080384 0.6452 0.6481 0.6486 0.6493 0.6508
3556.727369 0.6522 0.6532 0.6547 0.6582 0.6619
3563.374353 0.6664 0.6702 0.6712 0.6727 0.6757
3570.021338 0.6783 0.6798 0.6813 0.6828 0.6846
3576.668323 0.6871 0.6896 0.6921 0.6944 0.6964
3583.315308 0.6988 0.7023 0.7053 0.7068 0.7085
3589.962293 0.7110 0.7133 0.7149 0.7166 0.7191
3596.609278 0.7223 0.7278 0.7325 0.7345 0.7366
3603.256263 0.7391 0.7416 0.7441 0.7464 0.7479
3609.903248 0.7494 0.7509 0.7527 0.7557 0.7585
3616.550233 0.7605 0.7627 0.7658 0.7683 0.7693
3623.197217 0.7704 0.7719 0.7737 0.7762 0.7784
3629.844202 0.7799 0.7814 0.7829 0.7845 0.7865
3636.491187 0.7883 0.7893 0.7909 0.7944 0.7974
3643.138172 0.7989 0.8001 0.8006 0.8011 0.8016
3649.785157 0.8024 0.8039 0.8054 0.8069 0.8080
3656.432142 0.8080 0.8081 0.8086 0.8091 0.8096
3663.079127 0.8100 0.8100 0.8103 0.8113 0.8120
3669.726112 0.8120 0.8123 0.8133 0.8143 0.8153
3676.373097 0.8162 0.8167 0.8172 0.8177 0.8180
3683.020081 0.8180 0.8183 0.8193 0.8202 0.8207
3689.667066 0.8212 0.8217 0.8220 0.8220 0.8223
3696.314051 0.8233 0.8242 0.8247 0.8250 0.8250
3702.961036 0.8252 0.8257 0.8263 0.8273 0.8280
3709.608021 0.8280 0.8280 0.8280 0.8282 0.8287
3716.255006 0.8290 0.8290 0.8288 0.8283 0.8280
3722.901991 0.8280 0.8280 0.8280 0.8280 0.8280
3729.548976 0.8282 0.8287 0.8290 0.8290 0.8290
3736.195961 0.8290 0.8290 0.8290 0.8290 0.8290
3742.842945 0.8288 0.8283 0.8275 0.8260 0.8250
3749.489930 0.8250 0.8250 0.8250 0.8250 0.8250
3756.136915 0.8248 0.8243 0.8240 0.8240 0.8240
3762.783900 0.8240 0.8240 0.8240 0.8236 0.8226
3769.430885 0.8220 0.8220 0.8220 0.8220 0.8220
3776.077870 0.8220 0.8220 0.8220 0.8218 0.8213
3782.724855 0.8210 0.8210 0.8210 0.8210 0.8210
3789.371840 0.8210 0.8210 0.8210 0.8210 0.8210
3796.018825 0.8210 0.8210 0.8208 0.8203 0.8200
3802.665809 0.8200 0.8200 0.8200 0.8196 0.8186
3809.312794 0.8180 0.8180 0.8180 0.8180 0.8180
3815.959779 0.8180 0.8184 0.8194 0.8200 0.8200
3822.606764 0.8200 0.8200 0.8196 0.8186 0.8180
3829.253749 0.8180 0.8180 0.8180 0.8180 0.8180
3835.900734 0.8180 0.8180 0.8178 0.8173 0.8168
3842.547719 0.8163 0.8156 0.8146 0.8140 0.8140
3849.194704 0.8138 0.8133 0.8130 0.8130 0.8128
3855.841689 0.8123 0.8120 0.8120 0.8115 0.8105
3862.488673 0.8100 0.8100 0.8100 0.8100 0.8100
3869.135658 0.8100 0.8098 0.8093 0.8090 0.8090
3875.782643 0.8090 0.8090 0.8090 0.8090 0.8090
3882.429628 0.8090 0.8088 0.8083 0.8080 0.8080
3889.076613 0.8080 0.8080 0.8080 0.8080 0.8080
3895.723598 0.8080 0.8080 0.8080 0.8080 0.8080
3902.370583 0.8075 0.8065 0.8060 0.8060 0.8060
3909.017568 0.8060 0.8060 0.8060 0.8060 0.8060
3915.664553 0.8058 0.8053 0.8050 0.8050 0.8050
3922.311537 0.8050 0.8048 0.8043 0.8040 0.8040
3928.958522 0.8040 0.8040 0.8035 0.8025 0.8020
3935.605507 0.8020 0.8020 0.8020 0.8020 0.8020
3942.252492 0.8020 0.8020 0.8017 0.8012 0.8010
3948.899477 0.8010 0.8010 0.8010 0.8007 0.8002
3955.546462 0.7995 0.7985 0.7980 0.7980 0.7980
3962.193447 0.7980 0.7980 0.7980 0.7980 0.7980
3968.840432 0.7980 0.7980 0.7980 0.7980 0.7980
3975.487417 0.7980 0.7980 0.7980 0.7980 0.7980
3982.134401 0.7977 0.7972
##END=
