##TITLE=1-Piperidinebutanol, Alpha,Alpha-diphenyl-, pamoate
##JCAMP-DX=4.24
##DATA TYPE=INFRARED SPECTRUM
##CLASS=COBLENTZ III
##ORIGIN=SMITH, KLINE & FRENCH LABS.
##OWNER=Copyright (C) 1987 by the Coblentz Society
Collection (C) 2018 copyright by the U.S. Secretary of Commerce
on behalf of the United States of America. All rights reserved.
##DATE=1968/04/19
##NAMES=PAMOIC ACID, DI-(1,1-DIPHENYL-4-PIPERIDINOBUTYL) ESTER
##MOLFORM=C65 H70 N2 O8
##SOURCE REFERENCE=COBLENTZ NO. 9832
##$NIST ID=B6009832
##$NIST SOURCE=COBLENTZ
##$NIST IMAGE=cob9832
##SPECTROMETER/DATA SYSTEM=PERKIN-ELMER 21 (GRATING)
##INSTRUMENT PARAMETERS=NaCl PRISM
##STATE=SOLID (OIL MULL)
$$SPECTRAL CONTAMINATION DUE TO OIL AROUND 2900, 1450 CM^-^1
##SAMPLING PROCEDURE=TRANSMISSION
##RESOLUTION=2
##DATA PROCESSING=DIGITIZED BY COBLENTZ SOCIETY (BATCH II) FROM HARD COPY
##XUNITS=1/CM
##YUNITS=TRANSMITTANCE
##XFACTOR=1.0
##YFACTOR=1
##FIRSTX=660
##LASTX=4000
##FIRSTY=0.6483
##MAXX=4000
##MINX=660
##MAXY=0.8332
##MINY=0.0438
##NPOINTS=3341
##XYDATA=(X++(Y..Y))
660.000000 0.6483 0.6531 0.6533 0.6504 0.6417
665.000000 0.6359 0.6365 0.6542 0.6659 0.6754
670.000000 0.6827 0.6889 0.6936 0.6973 0.7001
675.000000 0.7024 0.7040 0.7055 0.7054 0.7053
680.000000 0.7050 0.7074 0.7016 0.6997 0.6972
685.000000 0.6939 0.6875 0.6796 0.6708 0.6539
690.000000 0.6252 0.5764 0.5131 0.4443 0.4379
695.000000 0.4496 0.4772 0.5047 0.5169 0.5167
700.000000 0.4636 0.4128 0.3646 0.3490 0.3675
705.000000 0.4345 0.4804 0.4841 0.4464 0.3969
710.000000 0.3680 0.3694 0.4271 0.4791 0.5262
715.000000 0.5596 0.6046 0.6304 0.6503 0.6669
720.000000 0.6795 0.6900 0.6996 0.7089 0.7178
725.000000 0.7226 0.7265 0.7286 0.7302 0.7306
730.000000 0.7308 0.7304 0.7293 0.7266 0.7238
735.000000 0.7198 0.7150 0.7074 0.6951 0.6784
740.000000 0.6574 0.6297 0.5951 0.5176 0.4083
745.000000 0.2982 0.2293 0.2296 0.2705 0.3166
750.000000 0.3624 0.4081 0.4280 0.4299 0.4173
755.000000 0.4046 0.4031 0.4010 0.4179 0.4381
760.000000 0.4595 0.4791 0.4919 0.5036 0.5147
765.000000 0.5255 0.5310 0.5301 0.4909 0.4605
770.000000 0.4614 0.4612 0.5303 0.5776 0.6245
775.000000 0.6462 0.6554 0.6555 0.6510 0.6389
780.000000 0.6401 0.6495 0.6707 0.6940 0.7061
785.000000 0.7148 0.7188 0.7222 0.7252 0.7287
790.000000 0.7387 0.7739 0.7971 0.8050 0.8092
795.000000 0.8109 0.8138 0.8105 0.8093 0.8078
800.000000 0.8044 0.7991 0.7913 0.7812 0.7664
805.000000 0.7498 0.7290 0.6758 0.6285 0.5812
810.000000 0.5259 0.5094 0.5267 0.5877 0.6595
815.000000 0.7222 0.7534 0.7790 0.7914 0.7964
820.000000 0.7970 0.7979 0.7869 0.7787 0.7694
825.000000 0.7593 0.7444 0.7289 0.7130 0.6921
830.000000 0.6535 0.6105 0.5784 0.5745 0.5730
835.000000 0.6273 0.6686 0.7004 0.7112 0.7098
840.000000 0.7076 0.7088 0.7134 0.7190 0.7173
845.000000 0.7017 0.6961 0.6956 0.7004 0.7056
850.000000 0.7113 0.7172 0.7240 0.7346 0.7511
855.000000 0.7583 0.7597 0.7598 0.7600 0.7613
860.000000 0.7681 0.7743 0.7763 0.7722 0.7648
865.000000 0.7563 0.7456 0.7350 0.7265 0.7227
870.000000 0.7225 0.7234 0.7257 0.7280 0.7234
875.000000 0.7167 0.7103 0.7043 0.7010 0.7009
880.000000 0.7012 0.7050 0.7098 0.7144 0.7161
885.000000 0.7132 0.7062 0.6909 0.6736 0.6572
890.000000 0.6406 0.6287 0.6235 0.6213 0.6192
895.000000 0.6161 0.6128 0.6088 0.6067 0.6056
900.000000 0.6073 0.6100 0.6139 0.6194 0.6279
905.000000 0.6376 0.6491 0.6513 0.6499 0.6482
910.000000 0.6449 0.6409 0.6391 0.6447 0.6508
915.000000 0.6549 0.6566 0.6579 0.6543 0.6503
920.000000 0.6403 0.6245 0.6164 0.6117 0.6117
925.000000 0.6119 0.6264 0.6434 0.6558 0.6698
930.000000 0.6832 0.6959 0.7098 0.7187 0.7247
935.000000 0.7298 0.7328 0.7341 0.7343 0.7331
940.000000 0.7340 0.7319 0.7271 0.7192 0.7066
945.000000 0.6868 0.6667 0.6447 0.6300 0.6308
950.000000 0.6362 0.6378 0.6311 0.6201 0.6164
955.000000 0.6167 0.6381 0.6573 0.6764 0.6955
960.000000 0.7088 0.7126 0.7135 0.7151 0.7072
965.000000 0.7007 0.6923 0.6821 0.6725 0.6634
970.000000 0.6526 0.6432 0.6390 0.6356 0.6336
975.000000 0.6331 0.6296 0.6099 0.5868 0.5833
980.000000 0.5811 0.6020 0.6362 0.6663 0.6907
985.000000 0.7070 0.7162 0.7234 0.7294 0.7338
990.000000 0.7374 0.7400 0.7418 0.7433 0.7443
995.000000 0.7452 0.7459 0.7470 0.7481 0.7504
1000.000000 0.7566 0.7603 0.7611 0.7608 0.7578
1005.000000 0.7546 0.7465 0.7338 0.7214 0.6950
1010.000000 0.6691 0.6410 0.6211 0.5802 0.5687
1015.000000 0.5680 0.5694 0.5846 0.6246 0.6725
1020.000000 0.7020 0.7075 0.7067 0.7053 0.7031
1025.000000 0.6990 0.6973 0.6983 0.7002 0.7059
1030.000000 0.7143 0.7209 0.7250 0.7269 0.7287
1035.000000 0.7299 0.7304 0.7308 0.7312 0.7316
1040.000000 0.7321 0.7347 0.7392 0.7451 0.7493
1045.000000 0.7511 0.7524 0.7529 0.7539 0.7532
1050.000000 0.7515 0.7496 0.7471 0.7440 0.7385
1055.000000 0.7330 0.7276 0.7186 0.6810 0.6397
1060.000000 0.6240 0.6115 0.6010 0.5980 0.5988
1065.000000 0.6030 0.6308 0.6681 0.7054 0.7288
1070.000000 0.7327 0.7336 0.7327 0.7300 0.7258
1075.000000 0.7193 0.7093 0.7008 0.6929 0.6834
1080.000000 0.6745 0.6707 0.6690 0.6652 0.6556
1085.000000 0.6459 0.6411 0.6398 0.6393 0.6615
1090.000000 0.6813 0.7012 0.7209 0.7443 0.7605
1095.000000 0.7705 0.7778 0.7829 0.7866 0.7882
1100.000000 0.7892 0.7900 0.7907 0.7930 0.7903
1105.000000 0.7899 0.7889 0.7879 0.7870 0.7850
1110.000000 0.7826 0.7802 0.7776 0.7749 0.7723
1115.000000 0.7695 0.7666 0.7636 0.7607 0.7573
1120.000000 0.7519 0.7464 0.7409 0.7355 0.7302
1125.000000 0.7255 0.7224 0.7190 0.7212 0.7217
1130.000000 0.7223 0.7234 0.7245 0.7256 0.7270
1135.000000 0.7285 0.7301 0.7313 0.7309 0.7293
1140.000000 0.7308 0.7206 0.7146 0.7066 0.6967
1145.000000 0.6831 0.6670 0.6477 0.6376 0.6309
1150.000000 0.6298 0.6342 0.6388 0.6456 0.6515
1155.000000 0.6571 0.6630 0.6677 0.6688 0.6690
1160.000000 0.6684 0.6661 0.6620 0.6535 0.6410
1165.000000 0.6282 0.5967 0.5780 0.5690 0.5621
1170.000000 0.5572 0.5550 0.5542 0.5536 0.5550
1175.000000 0.5541 0.5545 0.5566 0.5592 0.5626
1180.000000 0.5677 0.5728 0.5779 0.5865 0.5959
1185.000000 0.6082 0.6217 0.6335 0.6367 0.6398
1190.000000 0.6352 0.6303 0.6220 0.6107 0.5968
1195.000000 0.5870 0.5807 0.5798 0.5759 0.5801
1200.000000 0.5915 0.6076 0.6284 0.6363 0.6390
1205.000000 0.6390 0.6401 0.6349 0.6288 0.6214
1210.000000 0.6131 0.6061 0.6035 0.6039 0.6021
1215.000000 0.6160 0.6231 0.6270 0.6273 0.6264
1220.000000 0.6287 0.6204 0.6130 0.6014 0.5732
1225.000000 0.5217 0.4683 0.4150 0.3902 0.3876
1230.000000 0.3883 0.3890 0.3980 0.4165 0.4898
1235.000000 0.5766 0.6066 0.6214 0.6337 0.6575
1240.000000 0.6735 0.6769 0.6786 0.6762 0.6746
1245.000000 0.6723 0.6689 0.6623 0.6506 0.6355
1250.000000 0.6324 0.6293 0.6265 0.6225 0.6062
1255.000000 0.5861 0.5719 0.5645 0.5617 0.5593
1260.000000 0.5584 0.5588 0.5577 0.5616 0.5634
1265.000000 0.5685 0.5743 0.5802 0.5843 0.5872
1270.000000 0.5880 0.5879 0.5874 0.5866 0.5856
1275.000000 0.5840 0.5823 0.5807 0.5796 0.5784
1280.000000 0.5780 0.5777 0.5775 0.5772 0.5770
1285.000000 0.5763 0.5756 0.5746 0.5723 0.5610
1290.000000 0.5496 0.5382 0.5269 0.5156 0.5043
1295.000000 0.4931 0.4790 0.4631 0.4562 0.4499
1300.000000 0.4445 0.4393 0.4343 0.4288 0.4215
1305.000000 0.4170 0.4148 0.4148 0.4151 0.4153
1310.000000 0.4205 0.4261 0.4388 0.4587 0.4691
1315.000000 0.4707 0.4703 0.4698 0.4726 0.4645
1320.000000 0.4576 0.4485 0.4399 0.4298 0.4068
1325.000000 0.3776 0.3490 0.3205 0.2920 0.2635
1330.000000 0.2391 0.2253 0.2137 0.2028 0.1943
1335.000000 0.1870 0.1824 0.1787 0.1750 0.1713
1340.000000 0.1681 0.1654 0.1287 0.1125 0.0898
1345.000000 0.0734 0.0598 0.0471 0.0467 0.0466
1350.000000 0.0470 0.0478 0.0488 0.0438 0.0743
1355.000000 0.0949 0.1128 0.1219 0.1295 0.1362
1360.000000 0.1419 0.1468 0.1514 0.1557 0.1577
1365.000000 0.1590 0.1602 0.1609 0.1616 0.1623
1370.000000 0.1631 0.1649 0.1682 0.1736 0.1847
1375.000000 0.1980 0.2079 0.2145 0.2179 0.2204
1380.000000 0.2180 0.2164 0.2016 0.1923 0.1812
1385.000000 0.1742 0.1678 0.1600 0.1507 0.1416
1390.000000 0.1363 0.1358 0.1388 0.1405 0.1461
1395.000000 0.1518 0.1660 0.2038 0.2414 0.2791
1400.000000 0.3167 0.3542 0.3916 0.4291 0.4639
1405.000000 0.4842 0.4951 0.5075 0.5318 0.5506
1410.000000 0.5714 0.5791 0.5851 0.5893 0.5910
1415.000000 0.5937 0.5919 0.5919 0.5912 0.5895
1420.000000 0.5842 0.5766 0.5693 0.5624 0.5545
1425.000000 0.5440 0.5323 0.5199 0.5017 0.4590
1430.000000 0.4031 0.3473 0.2927 0.2542 0.2368
1435.000000 0.2216 0.2069 0.1894 0.1695 0.1502
1440.000000 0.1314 0.0928 0.0792 0.0654 0.0541
1445.000000 0.0499 0.0494 0.0492 0.0492 0.0501
1450.000000 0.0513 0.0537 0.0593 0.0696 0.0774
1455.000000 0.0838 0.0901 0.0962 0.1025 0.1093
1460.000000 0.1164 0.1236 0.1333 0.1436 0.1540
1465.000000 0.1645 0.2109 0.2527 0.2754 0.2951
1470.000000 0.3149 0.3346 0.3543 0.3739 0.3935
1475.000000 0.4132 0.4327 0.4523 0.4718 0.4844
1480.000000 0.4862 0.4857 0.4823 0.4791 0.4753
1485.000000 0.4711 0.4682 0.4677 0.4711 0.4773
1490.000000 0.4836 0.4899 0.4960 0.4998 0.5005
1495.000000 0.5016 0.4997 0.4987 0.4966 0.4907
1500.000000 0.4723 0.4509 0.4296 0.4083 0.3870
1505.000000 0.3657 0.3445 0.3232 0.3049 0.3025
1510.000000 0.3002 0.3386 0.3745 0.4104 0.4463
1515.000000 0.4820 0.5178 0.5535 0.5904 0.6001
1520.000000 0.6059 0.6103 0.6128 0.6153 0.6171
1525.000000 0.6179 0.6178 0.6208 0.6166 0.6160
1530.000000 0.6150 0.6109 0.6059 0.6000 0.5934
1535.000000 0.5853 0.5767 0.5665 0.5552 0.5426
1540.000000 0.5276 0.5113 0.4949 0.4810 0.4679
1545.000000 0.4563 0.4471 0.3966 0.3843 0.3733
1550.000000 0.3621 0.3511 0.3400 0.3290 0.3180
1555.000000 0.3070 0.2960 0.2870 0.2842 0.2845
1560.000000 0.2841 0.2856 0.2894 0.2994 0.3124
1565.000000 0.3255 0.3385 0.3514 0.3643 0.3772
1570.000000 0.3901 0.4030 0.4158 0.4287 0.4415
1575.000000 0.4543 0.4671 0.4799 0.4931 0.5078
1580.000000 0.5193 0.5293 0.5389 0.5483 0.5577
1585.000000 0.5671 0.5765 0.5898 0.6054 0.6154
1590.000000 0.6227 0.6272 0.6302 0.6325 0.6341
1595.000000 0.6353 0.6366 0.6381 0.6396 0.6412
1600.000000 0.6429 0.6442 0.6451 0.6450 0.6446
1605.000000 0.6406 0.6350 0.6290 0.6222 0.6137
1610.000000 0.6035 0.5933 0.5847 0.5794 0.5770
1615.000000 0.5745 0.5731 0.5730 0.5727 0.5723
1620.000000 0.5720 0.5708 0.5646 0.5466 0.5258
1625.000000 0.5062 0.4866 0.4671 0.4475 0.4280
1630.000000 0.4085 0.3891 0.3697 0.3504 0.3326
1635.000000 0.3270 0.3178 0.3100 0.3077 0.3077
1640.000000 0.3099 0.3064 0.3219 0.3346 0.3533
1645.000000 0.3720 0.3906 0.4092 0.4278 0.4463
1650.000000 0.4649 0.4834 0.5019 0.5204 0.5389
1655.000000 0.5574 0.5757 0.5941 0.6114 0.6231
1660.000000 0.6313 0.6498 0.6579 0.6644 0.6767
1665.000000 0.6937 0.7098 0.7272 0.7488 0.7556
1670.000000 0.7611 0.7666 0.7720 0.7775 0.7829
1675.000000 0.7882 0.7927 0.7965 0.8002 0.8039
1680.000000 0.8074 0.8102 0.8129 0.8156 0.8183
1685.000000 0.8210 0.8238 0.8266 0.8294 0.8319
1690.000000 0.8324 0.8325 0.8326 0.8327 0.8328
1695.000000 0.8332 0.8330 0.8332 0.8330 0.8328
1700.000000 0.8326 0.8324 0.8322 0.8319 0.8317
1705.000000 0.8315 0.8314 0.8313 0.8311 0.8309
1710.000000 0.8308 0.8307 0.8306 0.8304 0.8303
1715.000000 0.8301 0.8300 0.8299 0.8297 0.8295
1720.000000 0.8292 0.8289 0.8286 0.8283 0.8280
1725.000000 0.8277 0.8274 0.8270 0.8265 0.8255
1730.000000 0.8245 0.8235 0.8224 0.8214 0.8199
1735.000000 0.8175 0.8149 0.8122 0.8094 0.8067
1740.000000 0.8044 0.8028 0.8015 0.8012 0.8012
1745.000000 0.8011 0.8011 0.8011 0.8010 0.8009
1750.000000 0.8009 0.8008 0.8007 0.8007 0.8006
1755.000000 0.8005 0.8005 0.8005 0.8005 0.8004
1760.000000 0.8004 0.8004 0.8004 0.8004 0.8004
1765.000000 0.8004 0.8004 0.8003 0.8003 0.8003
1770.000000 0.8003 0.8003 0.8003 0.8003 0.8003
1775.000000 0.8003 0.8003 0.8003 0.8003 0.8003
1780.000000 0.8003 0.8003 0.8002 0.8002 0.8001
1785.000000 0.8000 0.7999 0.7998 0.7998 0.7997
1790.000000 0.7996 0.7996 0.7996 0.7995 0.7994
1795.000000 0.7993 0.7993 0.7993 0.7992 0.7991
1800.000000 0.7991 0.7991 0.7991 0.7991 0.7992
1805.000000 0.7992 0.7992 0.7992 0.7992 0.7993
1810.000000 0.7993 0.7993 0.7993 0.7993 0.7993
1815.000000 0.7996 0.7999 0.8001 0.8003 0.8006
1820.000000 0.8009 0.8011 0.8014 0.8016 0.8019
1825.000000 0.8022 0.8025 0.8027 0.8030 0.8033
1830.000000 0.8036 0.8039 0.8042 0.8045 0.8050
1835.000000 0.8055 0.8060 0.8064 0.8069 0.8074
1840.000000 0.8079 0.8085 0.8091 0.8097 0.8102
1845.000000 0.8106 0.8105 0.8103 0.8101 0.8100
1850.000000 0.8098 0.8097 0.8095 0.8094 0.8092
1855.000000 0.8090 0.8088 0.8086 0.8084 0.8082
1860.000000 0.8079 0.8075 0.8070 0.8065 0.8060
1865.000000 0.8055 0.8050 0.8045 0.8040 0.8035
1870.000000 0.8030 0.8025 0.8020 0.8015 0.8010
1875.000000 0.8004 0.7998 0.7993 0.7987 0.7981
1880.000000 0.7976 0.7970 0.7964 0.7959 0.7953
1885.000000 0.7948 0.7942 0.7936 0.7931 0.7925
1890.000000 0.7920 0.7914 0.7909 0.7904 0.7898
1895.000000 0.7893 0.7887 0.7881 0.7876 0.7870
1900.000000 0.7865 0.7859 0.7854 0.7849 0.7844
1905.000000 0.7838 0.7833 0.7827 0.7822 0.7817
1910.000000 0.7812 0.7807 0.7803 0.7799 0.7794
1915.000000 0.7790 0.7786 0.7782 0.7778 0.7774
1920.000000 0.7769 0.7765 0.7761 0.7757 0.7753
1925.000000 0.7749 0.7745 0.7741 0.7736 0.7731
1930.000000 0.7725 0.7718 0.7711 0.7705 0.7699
1935.000000 0.7692 0.7686 0.7680 0.7673 0.7667
1940.000000 0.7661 0.7655 0.7649 0.7643 0.7637
1945.000000 0.7630 0.7626 0.7624 0.7622 0.7621
1950.000000 0.7621 0.7619 0.7619 0.7619 0.7619
1955.000000 0.7620 0.7620 0.7621 0.7622 0.7622
1960.000000 0.7624 0.7626 0.7629 0.7633 0.7636
1965.000000 0.7638 0.7641 0.7645 0.7647 0.7650
1970.000000 0.7652 0.7655 0.7657 0.7659 0.7662
1975.000000 0.7663 0.7663 0.7660 0.7656 0.7652
1980.000000 0.7648 0.7644 0.7641 0.7637 0.7634
1985.000000 0.7630 0.7627 0.7623 0.7620 0.7616
1990.000000 0.7613 0.7609 0.7606 0.7602 0.7598
1995.000000 0.7593 0.7588 0.7584 0.7579 0.7575
2000.000000 0.7570 0.7565 0.7561 0.7556 0.7551
2005.000000 0.7547 0.7542 0.7538 0.7533 0.7528
2010.000000 0.7523 0.7516 0.7509 0.7503 0.7496
2015.000000 0.7489 0.7482 0.7476 0.7470 0.7463
2020.000000 0.7456 0.7450 0.7443 0.7438 0.7432
2025.000000 0.7427 0.7421 0.7415 0.7409 0.7404
2030.000000 0.7398 0.7393 0.7387 0.7382 0.7376
2035.000000 0.7371 0.7365 0.7359 0.7353 0.7347
2040.000000 0.7340 0.7333 0.7327 0.7320 0.7313
2045.000000 0.7306 0.7300 0.7295 0.7292 0.7291
2050.000000 0.7290 0.7288 0.7288 0.7287 0.7286
2055.000000 0.7285 0.7283 0.7282 0.7281 0.7278
2060.000000 0.7276 0.7275 0.7272 0.7269 0.7266
2065.000000 0.7262 0.7258 0.7253 0.7249 0.7245
2070.000000 0.7241 0.7237 0.7232 0.7228 0.7223
2075.000000 0.7216 0.7207 0.7198 0.7190 0.7181
2080.000000 0.7172 0.7163 0.7154 0.7145 0.7137
2085.000000 0.7128 0.7119 0.7111 0.7102 0.7094
2090.000000 0.7085 0.7077 0.7068 0.7059 0.7050
2095.000000 0.7041 0.7032 0.7023 0.7015 0.7006
2100.000000 0.6997 0.6988 0.6980 0.6971 0.6962
2105.000000 0.6953 0.6944 0.6935 0.6927 0.6918
2110.000000 0.6910 0.6902 0.6893 0.6884 0.6875
2115.000000 0.6867 0.6859 0.6850 0.6842 0.6834
2120.000000 0.6825 0.6817 0.6809 0.6801 0.6793
2125.000000 0.6785 0.6776 0.6768 0.6760 0.6752
2130.000000 0.6744 0.6736 0.6728 0.6719 0.6712
2135.000000 0.6704 0.6696 0.6688 0.6680 0.6672
2140.000000 0.6664 0.6656 0.6648 0.6640 0.6632
2145.000000 0.6625 0.6617 0.6610 0.6604 0.6597
2150.000000 0.6590 0.6583 0.6576 0.6569 0.6562
2155.000000 0.6556 0.6549 0.6542 0.6535 0.6528
2160.000000 0.6521 0.6514 0.6508 0.6501 0.6494
2165.000000 0.6487 0.6480 0.6473 0.6466 0.6460
2170.000000 0.6453 0.6447 0.6440 0.6433 0.6426
2175.000000 0.6419 0.6412 0.6406 0.6399 0.6393
2180.000000 0.6386 0.6379 0.6372 0.6366 0.6360
2185.000000 0.6353 0.6348 0.6342 0.6336 0.6329
2190.000000 0.6324 0.6318 0.6312 0.6305 0.6300
2195.000000 0.6294 0.6288 0.6281 0.6275 0.6269
2200.000000 0.6264 0.6258 0.6251 0.6245 0.6240
2205.000000 0.6234 0.6228 0.6222 0.6216 0.6210
2210.000000 0.6204 0.6198 0.6193 0.6187 0.6181
2215.000000 0.6175 0.6169 0.6163 0.6157 0.6151
2220.000000 0.6145 0.6139 0.6134 0.6128 0.6122
2225.000000 0.6116 0.6110 0.6105 0.6098 0.6092
2230.000000 0.6085 0.6077 0.6070 0.6062 0.6055
2235.000000 0.6047 0.6039 0.6031 0.6024 0.6016
2240.000000 0.6009 0.6001 0.5994 0.5986 0.5979
2245.000000 0.5971 0.5963 0.5955 0.5948 0.5941
2250.000000 0.5933 0.5926 0.5918 0.5911 0.5904
2255.000000 0.5895 0.5886 0.5878 0.5869 0.5861
2260.000000 0.5853 0.5844 0.5835 0.5827 0.5819
2265.000000 0.5810 0.5801 0.5793 0.5784 0.5776
2270.000000 0.5767 0.5759 0.5750 0.5742 0.5734
2275.000000 0.5726 0.5717 0.5708 0.5700 0.5692
2280.000000 0.5683 0.5675 0.5665 0.5656 0.5642
2285.000000 0.5627 0.5613 0.5599 0.5584 0.5569
2290.000000 0.5555 0.5540 0.5526 0.5510 0.5495
2295.000000 0.5479 0.5463 0.5447 0.5431 0.5415
2300.000000 0.5399 0.5383 0.5367 0.5351 0.5336
2305.000000 0.5312 0.5286 0.5280 0.5280 0.5279
2310.000000 0.5279 0.5278 0.5278 0.5267 0.5279
2315.000000 0.5280 0.5281 0.5282 0.5282 0.5283
2320.000000 0.5284 0.5285 0.5287 0.5289 0.5291
2325.000000 0.5292 0.5294 0.5296 0.5298 0.5300
2330.000000 0.5303 0.5304 0.5306 0.5308 0.5310
2335.000000 0.5313 0.5316 0.5320 0.5324 0.5328
2340.000000 0.5331 0.5335 0.5339 0.5342 0.5347
2345.000000 0.5351 0.5355 0.5359 0.5363 0.5368
2350.000000 0.5373 0.5378 0.5383 0.5389 0.5394
2355.000000 0.5399 0.5404 0.5408 0.5413 0.5416
2360.000000 0.5420 0.5424 0.5428 0.5432 0.5436
2365.000000 0.5440 0.5444 0.5448 0.5449 0.5449
2370.000000 0.5448 0.5448 0.5447 0.5447 0.5447
2375.000000 0.5446 0.5446 0.5446 0.5446 0.5445
2380.000000 0.5445 0.5445 0.5445 0.5445 0.5443
2385.000000 0.5442 0.5440 0.5438 0.5435 0.5432
2390.000000 0.5430 0.5427 0.5424 0.5424 0.5424
2395.000000 0.5424 0.5424 0.5424 0.5424 0.5424
2400.000000 0.5424 0.5424 0.5424 0.5424 0.5425
2405.000000 0.5425 0.5425 0.5425 0.5425 0.5425
2410.000000 0.5425 0.5425 0.5428 0.5430 0.5433
2415.000000 0.5435 0.5438 0.5440 0.5443 0.5445
2420.000000 0.5447 0.5450 0.5452 0.5455 0.5457
2425.000000 0.5460 0.5462 0.5465 0.5465 0.5465
2430.000000 0.5464 0.5463 0.5462 0.5462 0.5461
2435.000000 0.5460 0.5459 0.5458 0.5457 0.5457
2440.000000 0.5454 0.5452 0.5449 0.5447 0.5445
2445.000000 0.5443 0.5441 0.5438 0.5436 0.5434
2450.000000 0.5432 0.5429 0.5427 0.5425 0.5423
2455.000000 0.5420 0.5418 0.5417 0.5415 0.5414
2460.000000 0.5412 0.5411 0.5410 0.5409 0.5407
2465.000000 0.5406 0.5405 0.5404 0.5402 0.5401
2470.000000 0.5400 0.5399 0.5397 0.5396 0.5395
2475.000000 0.5394 0.5393 0.5391 0.5390 0.5389
2480.000000 0.5388 0.5386 0.5385 0.5384 0.5383
2485.000000 0.5382 0.5380 0.5378 0.5377 0.5376
2490.000000 0.5375 0.5373 0.5372 0.5371 0.5369
2495.000000 0.5368 0.5366 0.5365 0.5364 0.5363
2500.000000 0.5362 0.5360 0.5358 0.5357 0.5356
2505.000000 0.5355 0.5353 0.5352 0.5351 0.5349
2510.000000 0.5348 0.5347 0.5346 0.5345 0.5344
2515.000000 0.5343 0.5341 0.5340 0.5339 0.5338
2520.000000 0.5338 0.5337 0.5335 0.5334 0.5333
2525.000000 0.5333 0.5332 0.5330 0.5329 0.5329
2530.000000 0.5328 0.5327 0.5326 0.5324 0.5323
2535.000000 0.5322 0.5321 0.5320 0.5320 0.5318
2540.000000 0.5317 0.5316 0.5315 0.5315 0.5315
2545.000000 0.5316 0.5317 0.5317 0.5318 0.5319
2550.000000 0.5320 0.5321 0.5322 0.5323 0.5324
2555.000000 0.5325 0.5325 0.5326 0.5327 0.5328
2560.000000 0.5328 0.5329 0.5330 0.5331 0.5331
2565.000000 0.5333 0.5334 0.5335 0.5335 0.5336
2570.000000 0.5337 0.5338 0.5338 0.5339 0.5340
2575.000000 0.5341 0.5342 0.5342 0.5343 0.5343
2580.000000 0.5343 0.5343 0.5343 0.5344 0.5344
2585.000000 0.5344 0.5344 0.5344 0.5344 0.5344
2590.000000 0.5344 0.5344 0.5344 0.5344 0.5345
2595.000000 0.5345 0.5345 0.5345 0.5345 0.5344
2600.000000 0.5344 0.5343 0.5342 0.5340 0.5339
2605.000000 0.5337 0.5336 0.5334 0.5333 0.5331
2610.000000 0.5330 0.5328 0.5327 0.5325 0.5322
2615.000000 0.5320 0.5316 0.5313 0.5310 0.5307
2620.000000 0.5304 0.5301 0.5298 0.5294 0.5291
2625.000000 0.5288 0.5285 0.5281 0.5278 0.5275
2630.000000 0.5272 0.5269 0.5267 0.5267 0.5267
2635.000000 0.5266 0.5266 0.5266 0.5265 0.5265
2640.000000 0.5264 0.5264 0.5264 0.5263 0.5263
2645.000000 0.5263 0.5262 0.5261 0.5261 0.5260
2650.000000 0.5260 0.5260 0.5260 0.5260 0.5260
2655.000000 0.5263 0.5265 0.5268 0.5271 0.5274
2660.000000 0.5277 0.5280 0.5282 0.5285 0.5287
2665.000000 0.5290 0.5292 0.5294 0.5295 0.5296
2670.000000 0.5298 0.5299 0.5300 0.5301 0.5303
2675.000000 0.5304 0.5305 0.5306 0.5307 0.5309
2680.000000 0.5310 0.5311 0.5312 0.5313 0.5315
2685.000000 0.5316 0.5317 0.5319 0.5320 0.5323
2690.000000 0.5326 0.5328 0.5331 0.5334 0.5337
2695.000000 0.5339 0.5342 0.5345 0.5348 0.5350
2700.000000 0.5353 0.5355 0.5358 0.5361 0.5367
2705.000000 0.5372 0.5378 0.5386 0.5394 0.5400
2710.000000 0.5403 0.5406 0.5408 0.5409 0.5410
2715.000000 0.5411 0.5413 0.5414 0.5415 0.5417
2720.000000 0.5418 0.5419 0.5421 0.5422 0.5423
2725.000000 0.5425 0.5426 0.5427 0.5429 0.5430
2730.000000 0.5431 0.5431 0.5431 0.5432 0.5432
2735.000000 0.5432 0.5433 0.5433 0.5433 0.5434
2740.000000 0.5434 0.5434 0.5434 0.5434 0.5434
2745.000000 0.5435 0.5435 0.5435 0.5436 0.5436
2750.000000 0.5436 0.5436 0.5436 0.5436 0.5435
2755.000000 0.5435 0.5435 0.5434 0.5434 0.5434
2760.000000 0.5415 0.5433 0.5433 0.5432 0.5432
2765.000000 0.5432 0.5431 0.5431 0.5430 0.5428
2770.000000 0.5425 0.5422 0.5418 0.5415 0.5413
2775.000000 0.5410 0.5406 0.5403 0.5400 0.5397
2780.000000 0.5394 0.5391 0.5388 0.5385 0.5381
2785.000000 0.5375 0.5368 0.5362 0.5352 0.5342
2790.000000 0.5332 0.5322 0.5312 0.5302 0.5287
2795.000000 0.5271 0.5255 0.5238 0.5220 0.5202
2800.000000 0.5182 0.5161 0.5139 0.5107 0.5050
2805.000000 0.4993 0.4926 0.4805 0.4684 0.4563
2810.000000 0.4443 0.4322 0.4201 0.4081 0.3960
2815.000000 0.3840 0.3719 0.3599 0.3479 0.3359
2820.000000 0.3240 0.3120 0.3000 0.2880 0.2760
2825.000000 0.2641 0.2521 0.2402 0.2283 0.2164
2830.000000 0.2045 0.1926 0.1807 0.1688 0.1569
2835.000000 0.1438 0.1297 0.1156 0.1051 0.1026
2840.000000 0.1000 0.0975 0.0964 0.0953 0.0942
2845.000000 0.0931 0.0920 0.0909 0.0898 0.0889
2850.000000 0.0879 0.0872 0.0870 0.0869 0.0867
2855.000000 0.0866 0.0865 0.0864 0.0862 0.0861
2860.000000 0.0860 0.0859 0.0858 0.0856 0.0854
2865.000000 0.0851 0.0847 0.0843 0.0835 0.0826
2870.000000 0.0818 0.0799 0.0777 0.0755 0.0729
2875.000000 0.0697 0.0666 0.0634 0.0603 0.0572
2880.000000 0.0540 0.0530 0.0524 0.0518 0.0513
2885.000000 0.0510 0.0507 0.0504 0.0502 0.0500
2890.000000 0.0498 0.0498 0.0500 0.0501 0.0502
2895.000000 0.0503 0.0504 0.0506 0.0509 0.0511
2900.000000 0.0514 0.0518 0.0523 0.0528 0.0535
2905.000000 0.0542 0.0550 0.0558 0.0569 0.0580
2910.000000 0.0591 0.0602 0.0614 0.0626 0.0640
2915.000000 0.0661 0.0682 0.0703 0.0729 0.0756
2920.000000 0.0783 0.0854 0.0979 0.1104 0.1227
2925.000000 0.1244 0.1260 0.1277 0.1294 0.1311
2930.000000 0.1327 0.1351 0.1405 0.1459 0.1513
2935.000000 0.1578 0.1647 0.1716 0.1785 0.1854
2940.000000 0.1923 0.1992 0.2061 0.2130 0.2198
2945.000000 0.2267 0.2336 0.2404 0.2473 0.2541
2950.000000 0.2610 0.2679 0.2747 0.2815 0.2884
2955.000000 0.2952 0.3014 0.3075 0.3137 0.3187
2960.000000 0.3221 0.3255 0.3290 0.3316 0.3342
2965.000000 0.3367 0.3409 0.3476 0.3542 0.3608
2970.000000 0.3694 0.3783 0.3871 0.3945 0.3994
2975.000000 0.4043 0.4091 0.4119 0.4141 0.4164
2980.000000 0.4186 0.4209 0.4231 0.4253 0.4275
2985.000000 0.4297 0.4319 0.4341 0.4358 0.4375
2990.000000 0.4392 0.4408 0.4424 0.4439 0.4454
2995.000000 0.4470 0.4485 0.4500 0.4516 0.4531
3000.000000 0.4546 0.4561 0.4584 0.4609 0.4634
3005.000000 0.4658 0.4684 0.4710 0.4736 0.4761
3010.000000 0.4787 0.4813 0.4839 0.4858 0.4877
3015.000000 0.4896 0.4913 0.4927 0.4941 0.4955
3020.000000 0.4969 0.4982 0.4996 0.5010 0.5024
3025.000000 0.5037 0.5051 0.5064 0.5078 0.5092
3030.000000 0.5105 0.5115 0.5124 0.5132 0.5141
3035.000000 0.5149 0.5158 0.5167 0.5175 0.5184
3040.000000 0.5192 0.5200 0.5209 0.5218 0.5226
3045.000000 0.5235 0.5243 0.5252 0.5260 0.5268
3050.000000 0.5277 0.5286 0.5294 0.5302 0.5310
3055.000000 0.5318 0.5326 0.5331 0.5336 0.5341
3060.000000 0.5346 0.5351 0.5356 0.5361 0.5366
3065.000000 0.5371 0.5375 0.5380 0.5385 0.5390
3070.000000 0.5395 0.5400 0.5405 0.5410 0.5415
3075.000000 0.5420 0.5425 0.5430 0.5435 0.5439
3080.000000 0.5440 0.5441 0.5443 0.5444 0.5445
3085.000000 0.5445 0.5446 0.5447 0.5448 0.5449
3090.000000 0.5450 0.5451 0.5452 0.5453 0.5453
3095.000000 0.5454 0.5455 0.5456 0.5457 0.5457
3100.000000 0.5458 0.5458 0.5458 0.5456 0.5454
3105.000000 0.5452 0.5453 0.5447 0.5445 0.5443
3110.000000 0.5440 0.5438 0.5436 0.5433 0.5431
3115.000000 0.5429 0.5426 0.5424 0.5419 0.5414
3120.000000 0.5409 0.5404 0.5399 0.5393 0.5388
3125.000000 0.5383 0.5377 0.5372 0.5367 0.5362
3130.000000 0.5352 0.5343 0.5333 0.5323 0.5311
3135.000000 0.5298 0.5286 0.5274 0.5262 0.5250
3140.000000 0.5239 0.5227 0.5216 0.5204 0.5193
3145.000000 0.5181 0.5170 0.5158 0.5147 0.5135
3150.000000 0.5123 0.5112 0.5100 0.5089 0.5077
3155.000000 0.5066 0.5054 0.5043 0.5031 0.5020
3160.000000 0.5009 0.4997 0.4986 0.4974 0.4963
3165.000000 0.4951 0.4940 0.4928 0.4917 0.4906
3170.000000 0.4894 0.4883 0.4871 0.4860 0.4849
3175.000000 0.4838 0.4826 0.4815 0.4804 0.4792
3180.000000 0.4781 0.4770 0.4758 0.4747 0.4736
3185.000000 0.4724 0.4713 0.4702 0.4690 0.4679
3190.000000 0.4668 0.4657 0.4646 0.4635 0.4624
3195.000000 0.4612 0.4601 0.4590 0.4578 0.4567
3200.000000 0.4556 0.4545 0.4534 0.4522 0.4511
3205.000000 0.4500 0.4489 0.4478 0.4467 0.4456
3210.000000 0.4445 0.4434 0.4423 0.4412 0.4400
3215.000000 0.4389 0.4378 0.4367 0.4356 0.4345
3220.000000 0.4334 0.4323 0.4312 0.4301 0.4290
3225.000000 0.4279 0.4268 0.4257 0.4246 0.4235
3230.000000 0.4224 0.4213 0.4202 0.4191 0.4180
3235.000000 0.4169 0.4158 0.4147 0.4136 0.4125
3240.000000 0.4115 0.4104 0.4093 0.4082 0.4072
3245.000000 0.4061 0.4050 0.4039 0.4028 0.4017
3250.000000 0.4006 0.3995 0.3984 0.3973 0.3963
3255.000000 0.3952 0.3941 0.3931 0.3920 0.3909
3260.000000 0.3899 0.3888 0.3877 0.3866 0.3855
3265.000000 0.3845 0.3834 0.3823 0.3812 0.3800
3270.000000 0.3787 0.3774 0.3762 0.3751 0.3740
3275.000000 0.3730 0.3719 0.3709 0.3698 0.3688
3280.000000 0.3677 0.3667 0.3655 0.3643 0.3632
3285.000000 0.3620 0.3607 0.3593 0.3579 0.3565
3290.000000 0.3554 0.3546 0.3538 0.3530 0.3522
3295.000000 0.3517 0.3511 0.3506 0.3500 0.3497
3300.000000 0.3493 0.3490 0.3486 0.3485 0.3485
3305.000000 0.3485 0.3485 0.3484 0.3484 0.3484
3310.000000 0.3484 0.3484 0.3483 0.3483 0.3483
3315.000000 0.3483 0.3483 0.3483 0.3484 0.3484
3320.000000 0.3484 0.3450 0.3485 0.3486 0.3486
3325.000000 0.3487 0.3487 0.3488 0.3488 0.3489
3330.000000 0.3489 0.3489 0.3490 0.3490 0.3492
3335.000000 0.3493 0.3495 0.3496 0.3498 0.3500
3340.000000 0.3503 0.3505 0.3508 0.3512 0.3518
3345.000000 0.3523 0.3528 0.3533 0.3540 0.3547
3350.000000 0.3554 0.3561 0.3569 0.3578 0.3586
3355.000000 0.3595 0.3603 0.3611 0.3620 0.3628
3360.000000 0.3637 0.3659 0.3685 0.3712 0.3738
3365.000000 0.3765 0.3794 0.3823 0.3852 0.3882
3370.000000 0.3911 0.3940 0.3969 0.3998 0.4027
3375.000000 0.4056 0.4085 0.4114 0.4143 0.4171
3380.000000 0.4200 0.4229 0.4258 0.4287 0.4316
3385.000000 0.4345 0.4373 0.4402 0.4431 0.4460
3390.000000 0.4488 0.4517 0.4546 0.4574 0.4603
3395.000000 0.4632 0.4660 0.4689 0.4718 0.4747
3400.000000 0.4775 0.4804 0.4832 0.4858 0.4885
3405.000000 0.4912 0.4939 0.4952 0.4966 0.4980
3410.000000 0.4994 0.5011 0.5033 0.5056 0.5079
3415.000000 0.5102 0.5130 0.5161 0.5192 0.5223
3420.000000 0.5254 0.5291 0.5327 0.5363 0.5399
3425.000000 0.5430 0.5452 0.5473 0.5495 0.5517
3430.000000 0.5531 0.5542 0.5552 0.5562 0.5573
3435.000000 0.5583 0.5594 0.5605 0.5615 0.5626
3440.000000 0.5636 0.5647 0.5657 0.5668 0.5678
3445.000000 0.5689 0.5699 0.5709 0.5720 0.5740
3450.000000 0.5763 0.5787 0.5810 0.5834 0.5864
3455.000000 0.5894 0.5924 0.5955 0.5985 0.6013
3460.000000 0.6042 0.6071 0.6099 0.6122 0.6137
3465.000000 0.6151 0.6166 0.6181 0.6195 0.6208
3470.000000 0.6222 0.6236 0.6249 0.6255 0.6258
3475.000000 0.6262 0.6265 0.6268 0.6271 0.6275
3480.000000 0.6278 0.6281 0.6284 0.6287 0.6290
3485.000000 0.6293 0.6296 0.6299 0.6302 0.6305
3490.000000 0.6309 0.6312 0.6315 0.6318 0.6321
3495.000000 0.6325 0.6328 0.6331 0.6334 0.6337
3500.000000 0.6340 0.6343 0.6345 0.6347 0.6348
3505.000000 0.6350 0.6351 0.6353 0.6354 0.6356
3510.000000 0.6357 0.6359 0.6361 0.6362 0.6364
3515.000000 0.6366 0.6367 0.6384 0.6370 0.6372
3520.000000 0.6374 0.6375 0.6376 0.6376 0.6376
3525.000000 0.6376 0.6376 0.6376 0.6376 0.6376
3530.000000 0.6376 0.6376 0.6375 0.6375 0.6375
3535.000000 0.6375 0.6375 0.6374 0.6374 0.6374
3540.000000 0.6374 0.6374 0.6373 0.6373 0.6373
3545.000000 0.6373 0.6373 0.6372 0.6372 0.6372
3550.000000 0.6372 0.6372 0.6371 0.6371 0.6370
3555.000000 0.6370 0.6370 0.6369 0.6369 0.6368
3560.000000 0.6368 0.6368 0.6367 0.6366 0.6366
3565.000000 0.6365 0.6365 0.6364 0.6364 0.6363
3570.000000 0.6363 0.6363 0.6362 0.6362 0.6361
3575.000000 0.6360 0.6360 0.6359 0.6359 0.6359
3580.000000 0.6358 0.6358 0.6357 0.6357 0.6356
3585.000000 0.6356 0.6355 0.6354 0.6354 0.6354
3590.000000 0.6353 0.6353 0.6352 0.6352 0.6351
3595.000000 0.6351 0.6350 0.6350 0.6349 0.6349
3600.000000 0.6348 0.6348 0.6348 0.6347 0.6347
3605.000000 0.6346 0.6345 0.6345 0.6344 0.6344
3610.000000 0.6343 0.6342 0.6342 0.6341 0.6341
3615.000000 0.6341 0.6340 0.6340 0.6339 0.6339
3620.000000 0.6338 0.6338 0.6337 0.6337 0.6336
3625.000000 0.6335 0.6335 0.6334 0.6334 0.6333
3630.000000 0.6333 0.6333 0.6332 0.6332 0.6331
3635.000000 0.6331 0.6330 0.6330 0.6329 0.6329
3640.000000 0.6328 0.6327 0.6327 0.6326 0.6326
3645.000000 0.6325 0.6325 0.6324 0.6324 0.6324
3650.000000 0.6323 0.6323 0.6322 0.6322 0.6321
3655.000000 0.6320 0.6320 0.6319 0.6319 0.6318
3660.000000 0.6318 0.6317 0.6317 0.6317 0.6316
3665.000000 0.6316 0.6315 0.6314 0.6313 0.6312
3670.000000 0.6311 0.6311 0.6310 0.6309 0.6308
3675.000000 0.6308 0.6307 0.6306 0.6305 0.6304
3680.000000 0.6303 0.6302 0.6301 0.6301 0.6300
3685.000000 0.6299 0.6298 0.6298 0.6297 0.6296
3690.000000 0.6295 0.6294 0.6293 0.6292 0.6292
3695.000000 0.6291 0.6290 0.6289 0.6289 0.6288
3700.000000 0.6287 0.6286 0.6285 0.6284 0.6283
3705.000000 0.6283 0.6282 0.6281 0.6280 0.6280
3710.000000 0.6279 0.6278 0.6277 0.6276 0.6275
3715.000000 0.6274 0.6274 0.6273 0.6272 0.6271
3720.000000 0.6271 0.6270 0.6269 0.6268 0.6267
3725.000000 0.6266 0.6265 0.6264 0.6264 0.6263
3730.000000 0.6262 0.6261 0.6260 0.6259 0.6259
3735.000000 0.6258 0.6257 0.6256 0.6256 0.6255
3740.000000 0.6254 0.6254 0.6253 0.6252 0.6252
3745.000000 0.6252 0.6251 0.6251 0.6251 0.6250
3750.000000 0.6250 0.6249 0.6248 0.6248 0.6247
3755.000000 0.6247 0.6247 0.6246 0.6246 0.6246
3760.000000 0.6245 0.6245 0.6244 0.6244 0.6243
3765.000000 0.6243 0.6242 0.6242 0.6241 0.6241
3770.000000 0.6241 0.6240 0.6240 0.6240 0.6239
3775.000000 0.6239 0.6239 0.6238 0.6238 0.6237
3780.000000 0.6237 0.6236 0.6236 0.6235 0.6235
3785.000000 0.6235 0.6234 0.6234 0.6233 0.6233
3790.000000 0.6232 0.6232 0.6231 0.6231 0.6230
3795.000000 0.6230 0.6230 0.6229 0.6229 0.6229
3800.000000 0.6228 0.6228 0.6228 0.6227 0.6227
3805.000000 0.6227 0.6226 0.6226 0.6225 0.6225
3810.000000 0.6224 0.6223 0.6223 0.6223 0.6222
3815.000000 0.6222 0.6222 0.6221 0.6221 0.6220
3820.000000 0.6220 0.6219 0.6219 0.6218 0.6218
3825.000000 0.6218 0.6217 0.6217 0.6217 0.6216
3830.000000 0.6216 0.6216 0.6215 0.6215 0.6215
3835.000000 0.6214 0.6214 0.6213 0.6213 0.6212
3840.000000 0.6212 0.6211 0.6211 0.6210 0.6210
3845.000000 0.6209 0.6209 0.6208 0.6208 0.6208
3850.000000 0.6207 0.6207 0.6207 0.6206 0.6206
3855.000000 0.6205 0.6205 0.6204 0.6204 0.6203
3860.000000 0.6203 0.6203 0.6202 0.6202 0.6201
3865.000000 0.6201 0.6200 0.6200 0.6199 0.6199
3870.000000 0.6198 0.6198 0.6197 0.6197 0.6196
3875.000000 0.6196 0.6195 0.6195 0.6195 0.6194
3880.000000 0.6194 0.6194 0.6193 0.6193 0.6192
3885.000000 0.6192 0.6192 0.6191 0.6191 0.6190
3890.000000 0.6190 0.6190 0.6189 0.6189 0.6189
3895.000000 0.6188 0.6188 0.6187 0.6187 0.6186
3900.000000 0.6186 0.6185 0.6185 0.6184 0.6184
3905.000000 0.6183 0.6183 0.6182 0.6182 0.6182
3910.000000 0.6181 0.6181 0.6181 0.6180 0.6180
3915.000000 0.6179 0.6179 0.6178 0.6178 0.6177
3920.000000 0.6176 0.6175 0.6175 0.6174 0.6173
3925.000000 0.6172 0.6171 0.6170 0.6169 0.6168
3930.000000 0.6167 0.6166 0.6165 0.6164 0.6163
3935.000000 0.6162 0.6161 0.6161 0.6159 0.6158
3940.000000 0.6157 0.6156 0.6155 0.6154 0.6153
3945.000000 0.6152 0.6151 0.6150 0.6149 0.6148
3950.000000 0.6147 0.6146 0.6145 0.6144 0.6143
3955.000000 0.6142 0.6141 0.6140 0.6139 0.6137
3960.000000 0.6136 0.6135 0.6133 0.6132 0.6130
3965.000000 0.6128 0.6126 0.6125 0.6123 0.6121
3970.000000 0.6120 0.6118 0.6117 0.6115 0.6113
3975.000000 0.6112 0.6110 0.6109 0.6107 0.6105
3980.000000 0.6104 0.6102 0.6101 0.6099 0.6097
3985.000000 0.6095 0.6094 0.6092 0.6090 0.6089
3990.000000 0.6087 0.6086 0.6084 0.6082 0.6081
3995.000000 0.6079 0.6077 0.6076 0.6074 0.6072
4000.000000 0.6071
##END=
