##TITLE=SODIUM CARBOXY METHYL METHYL CELLULOSE
$$ DOW CHEMICALS
##JCAMP-DX=4.24
##DATA TYPE=INFRARED SPECTRUM
##CLASS=COBLENTZ
##ORIGIN=WYANDOTTE CHEMICALS CORP., WYANDOTTE, MICHIGAN, USA
##OWNER=COBLENTZ SOCIETY
Collection (C) 2018 copyright by the U.S. Secretary of Commerce
on behalf of the United States of America. All rights reserved.
##DATE=Not specified, most likely prior to 1970
##MOLFORM=C14 H21 Na O12 X2
##SOURCE REFERENCE=COBLENTZ NO. 3071
##$NIST ID=B6003071
##$NIST SOURCE=COBLENTZ
##$NIST IMAGE=cob3071
##SPECTROMETER/DATA SYSTEM=Not specified, most likely a prism, grating, or hybrid spectrometer.
##STATE=SOLID (KBr PELLET)
##SAMPLING PROCEDURE=TRANSMISSION
##RESOLUTION=4
##DATA PROCESSING=DIGITIZED BY NIST FROM HARD COPY
##XUNITS=MICROMETERS
##YUNITS=TRANSMITTANCE
##XFACTOR=1.000000
##YFACTOR=1
##DELTAX=000.006809
##FIRSTX=2.007
##LASTX=15.966
##FIRSTY=0.863
##MAXX=15.966
##MINX=2.007
##MAXY=0.994
##MINY=0.244
##NPOINTS=2051
##XYDATA=(X++(Y..Y))
2.007000 0.8630 0.8630 0.8610 0.8610 0.8610
2.041063 0.8590 0.8580 0.8580 0.8560 0.8560
2.075000 0.8560 0.8560 0.8560 0.8580 0.8580
2.109063 0.8560 0.8560 0.8520 0.8520 0.8520
2.143000 0.8510 0.8490 0.8490 0.8470 0.8490
2.177063 0.8490 0.8490 0.8470 0.8470 0.8470
2.211000 0.8410 0.8410 0.8370 0.8370 0.8410
2.245063 0.8420 0.8510 0.8510 0.8560 0.8560
2.279000 0.8490 0.8470 0.8440 0.8420 0.8390
2.313063 0.8350 0.8320 0.8320 0.8320 0.8340
2.347000 0.8340 0.8340 0.8300 0.8270 0.8230
2.381063 0.8220 0.8200 0.8170 0.8150 0.8170
2.415000 0.8150 0.8130 0.8110 0.8030 0.8000
2.449063 0.7980 0.7980 0.7910 0.7910 0.7910
2.483000 0.7910 0.7890 0.7880 0.7880 0.7860
2.517063 0.7840 0.7840 0.7880 0.7880 0.7890
2.552000 0.7890 0.7890 0.7890 0.7880 0.7880
2.586063 0.7840 0.7840 0.7880 0.7890 0.7880
2.620000 0.7880 0.7860 0.7840 0.7810 0.7760
2.654063 0.7700 0.7640 0.7530 0.7520 0.7470
2.688000 0.7410 0.7350 0.7310 0.7230 0.7190
2.722063 0.7120 0.7020 0.6940 0.6830 0.6710
2.756000 0.6610 0.6470 0.6290 0.6270 0.5980
2.790063 0.5720 0.5520 0.5280 0.5020 0.4940
2.824000 0.4750 0.4520 0.4410 0.4270 0.4080
2.858063 0.4000 0.3820 0.3720 0.3640 0.3530
2.892000 0.3430 0.3400 0.3350 0.3280 0.3240
2.926063 0.3170 0.3120 0.3040 0.3040 0.2950
2.960000 0.2950 0.3000 0.3000 0.3040 0.3140
2.994063 0.3240 0.3350 0.3570 0.3790 0.4000
3.028000 0.4000 0.4110 0.4220 0.4440 0.4590
3.062063 0.4640 0.4800 0.4950 0.5020 0.5210
3.096000 0.5330 0.5400 0.5500 0.5650 0.5740
3.130063 0.5880 0.5940 0.6010 0.6110 0.6200
3.164000 0.6230 0.6370 0.6440 0.6520 0.6610
3.198063 0.6680 0.6750 0.6830 0.6850 0.6920
3.232000 0.6970 0.7000 0.7040 0.7040 0.7090
3.266063 0.7120 0.7120 0.7140 0.7160 0.7160
3.301000 0.7170 0.7160 0.7120 0.7040 0.6920
3.335063 0.6780 0.6610 0.6510 0.6490 0.6440
3.369000 0.6290 0.6200 0.6060 0.5940 0.5880
3.403063 0.5790 0.5690 0.5670 0.5650 0.5640
3.437000 0.5650 0.5670 0.5690 0.5720 0.5770
3.471063 0.5820 0.5910 0.6010 0.6110 0.6220
3.505000 0.6340 0.6420 0.6470 0.6540 0.6630
3.539063 0.6710 0.6800 0.6880 0.6950 0.7120
3.573000 0.7350 0.7570 0.7840 0.8150 0.8350
3.607063 0.8540 0.8610 0.8710 0.8820 0.8850
3.641000 0.8870 0.8880 0.8900 0.8940 0.8950
3.675063 0.8990 0.9000 0.9020 0.9040 0.9050
3.709000 0.9110 0.9140 0.9140 0.9160 0.9170
3.743063 0.9190 0.9210 0.9230 0.9240 0.9260
3.777000 0.9290 0.9360 0.9410 0.9450 0.9470
3.811063 0.9480 0.9480 0.9500 0.9500 0.9500
3.845000 0.9500 0.9500 0.9500 0.9500 0.9480
3.879063 0.9480 0.9470 0.9470 0.9470 0.9470
3.913000 0.9480 0.9480 0.9470 0.9470 0.9450
3.947063 0.9450 0.9450 0.9430 0.9430 0.9410
3.982000 0.9410 0.9400 0.9400 0.9410 0.9470
4.016063 0.9470 0.9480 0.9480 0.9480 0.9480
4.050000 0.9480 0.9480 0.9470 0.9450 0.9430
4.084063 0.9410 0.9400 0.9380 0.9400 0.9400
4.118000 0.9410 0.9430 0.9430 0.9430 0.9450
4.152063 0.9450 0.9480 0.9450 0.9450 0.9450
4.186000 0.9410 0.9410 0.9450 0.9500 0.9500
4.220063 0.9480 0.9480 0.9480 0.9430 0.9430
4.254000 0.9480 0.9500 0.9520 0.9550 0.9520
4.288063 0.9480 0.9430 0.9400 0.9360 0.9350
4.322000 0.9330 0.9310 0.9290 0.9280 0.9280
4.356063 0.9280 0.9260 0.9240 0.9230 0.9230
4.390000 0.9210 0.9190 0.9140 0.9140 0.9190
4.424063 0.9210 0.9230 0.9260 0.9290 0.9290
4.458000 0.9350 0.9290 0.9260 0.9230 0.9230
4.492063 0.9210 0.9210 0.9190 0.9190 0.9210
4.526000 0.9210 0.9210 0.9190 0.9170 0.9140
4.560063 0.9120 0.9110 0.9090 0.9090 0.9070
4.594000 0.9070 0.9040 0.9020 0.9000 0.9000
4.628063 0.9000 0.9000 0.9000 0.8990 0.8990
4.662000 0.8990 0.8970 0.8970 0.9000 0.9000
4.696063 0.8970 0.8970 0.8970 0.8950 0.8940
4.731000 0.8920 0.8900 0.8900 0.8920 0.8920
4.765063 0.8920 0.8920 0.8900 0.8880 0.8880
4.799000 0.8850 0.8820 0.8780 0.8730 0.8700
4.833063 0.8700 0.8710 0.8710 0.8710 0.8680
4.867000 0.8660 0.8630 0.8590 0.8590 0.8580
4.901063 0.8540 0.8580 0.8590 0.8610 0.8610
4.935000 0.8630 0.8610 0.8540 0.8540 0.8610
4.969063 0.8610 0.8660 0.8660 0.8610 0.8590
5.003000 0.8580 0.8560 0.8520 0.8510 0.8490
5.037063 0.8470 0.8470 0.8460 0.8470 0.8470
5.071000 0.8470 0.8470 0.8470 0.8470 0.8440
5.105063 0.8420 0.8390 0.8390 0.8370 0.8390
5.139000 0.8390 0.8420 0.8420 0.8410 0.8410
5.173063 0.8440 0.8440 0.8440 0.8440 0.8420
5.207000 0.8440 0.8460 0.8470 0.8470 0.8470
5.241063 0.8470 0.8470 0.8440 0.8420 0.8410
5.275000 0.8370 0.8350 0.8350 0.8300 0.8250
5.309063 0.8250 0.8220 0.8220 0.8250 0.8230
5.343000 0.8230 0.8220 0.8150 0.8130 0.8130
5.377063 0.8110 0.8100 0.8100 0.8050 0.8010
5.411000 0.8010 0.8000 0.7980 0.7940 0.7980
5.445063 0.7980 0.7980 0.7980 0.7980 0.7930
5.480000 0.7930 0.7930 0.7910 0.7910 0.7980
5.514063 0.7880 0.7820 0.7810 0.7770 0.7740
5.548000 0.7720 0.7690 0.7690 0.7650 0.7640
5.582063 0.7600 0.7580 0.7570 0.7550 0.7570
5.616000 0.7550 0.7550 0.7520 0.7480 0.7400
5.650063 0.7350 0.7330 0.7280 0.7240 0.7230
5.684000 0.7210 0.7190 0.7160 0.7140 0.7110
5.718063 0.7040 0.6990 0.6920 0.6850 0.6850
5.752000 0.6830 0.6830 0.6780 0.6680 0.6610
5.786063 0.6540 0.6470 0.6440 0.6410 0.6350
5.820000 0.6300 0.6250 0.6220 0.6150 0.6060
5.854063 0.6030 0.6030 0.6000 0.5940 0.5860
5.888000 0.5810 0.5770 0.5760 0.5760 0.5720
5.922063 0.5670 0.5550 0.5520 0.5450 0.5350
5.956000 0.5350 0.5330 0.5240 0.5160 0.5160
5.990063 0.5000 0.4850 0.4750 0.4640 0.4540
6.024000 0.4490 0.4350 0.4300 0.4150 0.4030
6.058063 0.4000 0.3860 0.3740 0.3640 0.3550
6.092000 0.3450 0.3350 0.3280 0.3240 0.3210
6.126063 0.3210 0.3190 0.3170 0.3160 0.3160
6.161000 0.3160 0.3160 0.3170 0.3230 0.3240
6.195063 0.3290 0.3350 0.3410 0.3450 0.3530
6.229000 0.3620 0.3700 0.3810 0.3960 0.4100
6.263063 0.4320 0.4520 0.4750 0.4990 0.5230
6.297000 0.5500 0.5690 0.5910 0.6110 0.6320
6.331063 0.6540 0.6800 0.6950 0.7120 0.7240
6.365000 0.7350 0.7450 0.7520 0.7580 0.7740
6.399063 0.7930 0.8030 0.8170 0.8290 0.8290
6.433000 0.8300 0.8340 0.8340 0.8320 0.8320
6.467063 0.8320 0.8320 0.8320 0.8250 0.8250
6.501000 0.8220 0.8170 0.8150 0.8150 0.8080
6.535063 0.8030 0.8030 0.8000 0.7890 0.7790
6.569000 0.7690 0.7690 0.7600 0.7550 0.7520
6.603063 0.7410 0.7350 0.7280 0.7230 0.7160
6.637000 0.7140 0.7040 0.7000 0.6940 0.6820
6.671063 0.6710 0.6680 0.6520 0.6490 0.6420
6.705000 0.6320 0.6180 0.6010 0.5890 0.5820
6.739063 0.5810 0.5770 0.5740 0.5720 0.5620
6.773000 0.5520 0.5500 0.5480 0.5430 0.5400
6.807063 0.5350 0.5280 0.5260 0.5240 0.5240
6.841000 0.5210 0.5170 0.5160 0.5140 0.5140
6.875063 0.5140 0.5140 0.5120 0.5110 0.5050
6.910000 0.5040 0.4990 0.4970 0.4990 0.4990
6.944063 0.4990 0.4990 0.4990 0.4940 0.4970
6.978000 0.4950 0.4950 0.4940 0.4920 0.4900
7.012063 0.4880 0.4870 0.4850 0.4880 0.4900
7.046000 0.4900 0.4900 0.4920 0.4920 0.4990
7.080063 0.5020 0.5070 0.5090 0.5120 0.5190
7.114000 0.5240 0.5330 0.5400 0.5600 0.5690
7.148063 0.5700 0.5740 0.5820 0.5840 0.5890
7.182000 0.5910 0.5910 0.5980 0.5890 0.5860
7.216063 0.5820 0.5810 0.5740 0.5720 0.5720
7.250000 0.5700 0.5690 0.5700 0.5740 0.5760
7.284063 0.5760 0.5790 0.5790 0.5820 0.5840
7.318000 0.5930 0.5980 0.6050 0.6050 0.6030
7.352063 0.6030 0.6030 0.6030 0.6060 0.6060
7.386000 0.5960 0.5930 0.5910 0.5880 0.5820
7.420063 0.5810 0.5740 0.5690 0.5650 0.5600
7.454000 0.5550 0.5530 0.5520 0.5520 0.5480
7.488063 0.5450 0.5430 0.5430 0.5430 0.5430
7.522000 0.5430 0.5430 0.5430 0.5430 0.5450
7.556063 0.5450 0.5480 0.5480 0.5530 0.5530
7.590000 0.5580 0.5620 0.5690 0.5720 0.5790
7.624063 0.5810 0.5820 0.5840 0.5940 0.6000
7.659000 0.6030 0.6030 0.6130 0.6200 0.6230
7.693063 0.6320 0.6420 0.6510 0.6540 0.6540
7.727000 0.6560 0.6580 0.6590 0.6660 0.6710
7.761063 0.6710 0.6710 0.6710 0.6730 0.6730
7.795000 0.6780 0.6800 0.6820 0.6820 0.6820
7.829063 0.6820 0.6820 0.6780 0.6750 0.6710
7.863000 0.6640 0.6630 0.6590 0.6540 0.6520
7.897063 0.6510 0.6470 0.6490 0.6510 0.6520
7.931000 0.6540 0.6590 0.6580 0.6540 0.6540
7.965063 0.6510 0.6460 0.6460 0.6440 0.6420
7.999000 0.6420 0.6420 0.6420 0.6410 0.6350
8.033063 0.6320 0.6290 0.6250 0.6200 0.6110
8.067000 0.6100 0.6060 0.6060 0.6060 0.6060
8.101063 0.6060 0.6050 0.6050 0.6010 0.6010
8.135000 0.5930 0.5860 0.5820 0.5810 0.5760
8.169063 0.5700 0.5640 0.5570 0.5520 0.5450
8.203000 0.5380 0.5310 0.5240 0.5230 0.5190
8.237063 0.5160 0.5140 0.5070 0.5040 0.5000
8.271000 0.4990 0.4990 0.4940 0.4900 0.4900
8.305063 0.4900 0.4870 0.4870 0.4850 0.4850
8.339000 0.4850 0.4850 0.4850 0.4850 0.4850
8.373063 0.4870 0.4870 0.4870 0.4850 0.4850
8.408000 0.4830 0.4820 0.4800 0.4780 0.4760
8.442063 0.4750 0.4700 0.4640 0.4630 0.4610
8.476000 0.4540 0.4490 0.4390 0.4340 0.4320
8.510063 0.4290 0.4220 0.4200 0.4150 0.4050
8.544000 0.4030 0.4000 0.3910 0.3880 0.3880
8.578063 0.3880 0.3860 0.3820 0.3810 0.3790
8.612000 0.3770 0.3760 0.3740 0.3720 0.3650
8.646063 0.3640 0.3620 0.3620 0.3600 0.3600
8.680000 0.3550 0.3550 0.3550 0.3550 0.3550
8.714063 0.3550 0.3550 0.3550 0.3530 0.3520
8.748000 0.3520 0.3500 0.3470 0.3450 0.3430
8.782063 0.3430 0.3410 0.3400 0.3380 0.3330
8.816000 0.3290 0.3260 0.3210 0.3160 0.3090
8.850063 0.3040 0.3020 0.3000 0.3000 0.3000
8.884000 0.2970 0.2950 0.2940 0.2920 0.2900
8.918063 0.2870 0.2870 0.2850 0.2870 0.2870
8.952000 0.2850 0.2850 0.2800 0.2760 0.2750
8.986063 0.2730 0.2760 0.2820 0.2830 0.2850
9.020000 0.2850 0.2870 0.2870 0.2850 0.2830
9.054063 0.2830 0.2830 0.2830 0.2870 0.2900
9.089000 0.2920 0.2920 0.2950 0.2950 0.2940
9.123063 0.2940 0.2940 0.2900 0.2880 0.2870
9.157000 0.2850 0.2850 0.2880 0.2880 0.2870
9.191063 0.2820 0.2760 0.2730 0.2730 0.2710
9.225000 0.2710 0.2700 0.2700 0.2680 0.2640
9.259063 0.2640 0.2610 0.2610 0.2610 0.2630
9.293000 0.2630 0.2590 0.2580 0.2560 0.2560
9.327063 0.2560 0.2540 0.2520 0.2520 0.2520
9.361000 0.2520 0.2510 0.2510 0.2510 0.2490
9.395063 0.2490 0.2490 0.2470 0.2460 0.2460
9.429000 0.2440 0.2440 0.2440 0.2440 0.2460
9.463063 0.2470 0.2490 0.2490 0.2490 0.2510
9.497000 0.2510 0.2520 0.2540 0.2640 0.2680
9.531063 0.2700 0.2710 0.2710 0.2710 0.2710
9.565000 0.2730 0.2730 0.2750 0.2800 0.2820
9.599063 0.2830 0.2850 0.2850 0.2850 0.2850
9.633000 0.2900 0.2940 0.3000 0.3020 0.3040
9.667063 0.3070 0.3070 0.3040 0.3040 0.3020
9.701000 0.3020 0.3000 0.3020 0.3020 0.3040
9.735063 0.3040 0.3090 0.3110 0.3110 0.3140
9.769000 0.3190 0.3210 0.3230 0.3230 0.3260
9.803063 0.3290 0.3330 0.3350 0.3360 0.3380
9.838000 0.3410 0.3450 0.3480 0.3480 0.3480
9.872063 0.3480 0.3500 0.3520 0.3530 0.3550
9.906000 0.3580 0.3600 0.3620 0.3690 0.3720
9.940063 0.3720 0.3740 0.3740 0.3770 0.3810
9.974000 0.3840 0.3860 0.3940 0.3980 0.4010
10.008063 0.4030 0.4050 0.4080 0.4110 0.4150
10.042000 0.4150 0.4150 0.4170 0.4200 0.4230
10.076063 0.4250 0.4320 0.4340 0.4350 0.4410
10.110000 0.4440 0.4490 0.4520 0.4540 0.4640
10.144063 0.4680 0.4700 0.4710 0.4750 0.4830
10.178000 0.4900 0.4900 0.4920 0.4990 0.5070
10.212063 0.5140 0.5210 0.5240 0.5240 0.5330
10.246000 0.5400 0.5480 0.5530 0.5580 0.5620
10.280063 0.5640 0.5740 0.5790 0.5820 0.5890
10.314000 0.5930 0.6000 0.6010 0.6030 0.6030
10.348063 0.6050 0.6080 0.6100 0.6100 0.6110
10.382000 0.6130 0.6170 0.6180 0.6230 0.6250
10.416063 0.6300 0.6300 0.6320 0.6300 0.6270
10.450000 0.6230 0.6200 0.6180 0.6180 0.6180
10.484063 0.6180 0.6180 0.6170 0.6150 0.6150
10.518000 0.6130 0.6110 0.6030 0.6010 0.6000
10.552063 0.6000 0.5980 0.5980 0.5940 0.5940
10.587000 0.5930 0.5910 0.5840 0.5820 0.5790
10.621063 0.5810 0.5820 0.5840 0.5890 0.5910
10.655000 0.5910 0.5930 0.5930 0.5940 0.5960
10.689063 0.5980 0.6000 0.6000 0.6030 0.6030
10.723000 0.6030 0.6060 0.6060 0.6080 0.6080
10.757063 0.6100 0.6180 0.6230 0.6300 0.6300
10.791000 0.6300 0.6300 0.6300 0.6320 0.6340
10.825063 0.6340 0.6370 0.6390 0.6420 0.6440
10.859000 0.6470 0.6490 0.6470 0.6470 0.6420
10.893063 0.6440 0.6470 0.6490 0.6510 0.6510
10.927000 0.6510 0.6520 0.6520 0.6540 0.6580
10.961063 0.6590 0.6610 0.6610 0.6610 0.6610
10.995000 0.6630 0.6640 0.6660 0.6700 0.6700
11.029063 0.6730 0.6780 0.6830 0.6850 0.6900
11.063000 0.6940 0.6990 0.7000 0.7040 0.7110
11.097063 0.7120 0.7140 0.7140 0.7170 0.7210
11.131000 0.7230 0.7230 0.7240 0.7290 0.7310
11.165063 0.7330 0.7400 0.7430 0.7450 0.7470
11.199000 0.7470 0.7450 0.7450 0.7450 0.7430
11.233063 0.7430 0.7430 0.7430 0.7450 0.7450
11.268000 0.7480 0.7500 0.7530 0.7580 0.7620
11.302063 0.7640 0.7650 0.7650 0.7670 0.7700
11.336000 0.7720 0.7810 0.7860 0.7910 0.7980
11.370063 0.8000 0.8030 0.8060 0.8110 0.8200
11.404000 0.8290 0.8340 0.8410 0.8420 0.8490
11.438063 0.8510 0.8580 0.8590 0.8630 0.8660
11.472000 0.8680 0.8680 0.8700 0.8710 0.8730
11.506063 0.8760 0.8820 0.8880 0.8900 0.8990
11.540000 0.9020 0.9070 0.9110 0.9120 0.9120
11.574063 0.9120 0.9120 0.9120 0.9170 0.9210
11.608000 0.9210 0.9210 0.9210 0.9230 0.9230
11.642063 0.9230 0.9260 0.9280 0.9290 0.9310
11.676000 0.9360 0.9360 0.9310 0.9280 0.9260
11.710063 0.9230 0.9210 0.9210 0.9230 0.9240
11.744000 0.9240 0.9240 0.9240 0.9240 0.9240
11.778063 0.9240 0.9260 0.9260 0.9260 0.9260
11.812000 0.9260 0.9280 0.9280 0.9280 0.9290
11.846063 0.9310 0.9330 0.9360 0.9360 0.9330
11.880000 0.9330 0.9310 0.9310 0.9290 0.9310
11.914063 0.9330 0.9360 0.9400 0.9410 0.9430
11.948000 0.9450 0.9450 0.9450 0.9470 0.9470
11.982063 0.9480 0.9500 0.9520 0.9530 0.9530
12.017000 0.9550 0.9530 0.9550 0.9550 0.9570
12.051063 0.9570 0.9580 0.9600 0.9670 0.9700
12.085000 0.9720 0.9720 0.9720 0.9720 0.9700
12.119063 0.9700 0.9700 0.9700 0.9700 0.9700
12.153000 0.9700 0.9700 0.9700 0.9720 0.9720
12.187063 0.9740 0.9760 0.9770 0.9770 0.9770
12.221000 0.9770 0.9790 0.9810 0.9820 0.9820
12.255063 0.9840 0.9860 0.9860 0.9890 0.9890
12.289000 0.9890 0.9880 0.9860 0.9820 0.9820
12.323063 0.9820 0.9820 0.9820 0.9820 0.9820
12.357000 0.9820 0.9820 0.9820 0.9820 0.9840
12.391063 0.9860 0.9860 0.9880 0.9880 0.9880
12.425000 0.9880 0.9880 0.9880 0.9880 0.9880
12.459063 0.9880 0.9880 0.9880 0.9880 0.9880
12.493000 0.9880 0.9890 0.9890 0.9890 0.9890
12.527063 0.9910 0.9930 0.9940 0.9930 0.9930
12.561000 0.9910 0.9910 0.9910 0.9890 0.9890
12.595063 0.9890 0.9910 0.9930 0.9930 0.9940
12.629000 0.9940 0.9910 0.9860 0.9860 0.9880
12.663063 0.9880 0.9880 0.9860 0.9860 0.9880
12.697000 0.9880 0.9880 0.9880 0.9880 0.9880
12.731063 0.9860 0.9860 0.9860 0.9860 0.9820
12.766000 0.9820 0.9820 0.9820 0.9820 0.9820
12.800063 0.9820 0.9820 0.9820 0.9810 0.9810
12.834000 0.9770 0.9770 0.9810 0.9820 0.9840
12.868063 0.9840 0.9820 0.9790 0.9790 0.9810
12.902000 0.9810 0.9810 0.9790 0.9770 0.9760
12.936063 0.9740 0.9740 0.9740 0.9740 0.9760
12.970000 0.9770 0.9770 0.9770 0.9770 0.9790
13.004063 0.9790 0.9740 0.9720 0.9720 0.9720
13.038000 0.9700 0.9670 0.9640 0.9670 0.9670
13.072063 0.9720 0.9720 0.9760 0.9760 0.9700
13.106000 0.9670 0.9620 0.9620 0.9650 0.9650
13.140063 0.9650 0.9650 0.9650 0.9640 0.9640
13.174000 0.9620 0.9620 0.9600 0.9580 0.9600
13.208063 0.9600 0.9600 0.9600 0.9580 0.9580
13.242000 0.9580 0.9580 0.9580 0.9580 0.9570
13.276063 0.9550 0.9530 0.9520 0.9520 0.9520
13.310000 0.9500 0.9480 0.9470 0.9470 0.9430
13.344063 0.9430 0.9410 0.9410 0.9410 0.9400
13.378000 0.9380 0.9380 0.9360 0.9350 0.9330
13.412063 0.9330 0.9330 0.9330 0.9330 0.9310
13.446000 0.9290 0.9240 0.9230 0.9230 0.9210
13.480063 0.9190 0.9190 0.9190 0.9190 0.9190
13.515000 0.9190 0.9190 0.9190 0.9190 0.9170
13.549063 0.9160 0.9160 0.9140 0.9120 0.9120
13.583000 0.9110 0.9090 0.9090 0.9070 0.9040
13.617063 0.9000 0.8990 0.8990 0.8970 0.8970
13.651000 0.8970 0.8970 0.8970 0.8950 0.8940
13.685063 0.8940 0.8920 0.8920 0.8880 0.8830
13.719000 0.8820 0.8800 0.8800 0.8780 0.8800
13.753063 0.8780 0.8750 0.8730 0.8730 0.8730
13.787000 0.8710 0.8710 0.8700 0.8680 0.8660
13.821063 0.8630 0.8610 0.8610 0.8630 0.8630
13.855000 0.8700 0.8700 0.8640 0.8610 0.8580
13.889063 0.8560 0.8520 0.8510 0.8510 0.8510
13.923000 0.8510 0.8560 0.8560 0.8520 0.8510
13.957063 0.8490 0.8510 0.8510 0.8490 0.8470
13.991000 0.8460 0.8420 0.8410 0.8410 0.8420
14.025063 0.8460 0.8470 0.8510 0.8540 0.8540
14.059000 0.8510 0.8490 0.8470 0.8460 0.8460
14.093063 0.8410 0.8350 0.8320 0.8320 0.8320
14.127000 0.8320 0.8320 0.8320 0.8320 0.8320
14.161063 0.8320 0.8320 0.8320 0.8320 0.8370
14.196000 0.8370 0.8350 0.8350 0.8350 0.8350
14.230063 0.8320 0.8320 0.8320 0.8320 0.8320
14.264000 0.8300 0.8290 0.8250 0.8220 0.8180
14.298063 0.8170 0.8130 0.8110 0.8110 0.8130
14.332000 0.8130 0.8150 0.8170 0.8170 0.8180
14.366063 0.8220 0.8270 0.8290 0.8300 0.8350
14.400000 0.8370 0.8370 0.8390 0.8390 0.8390
14.434063 0.8370 0.8370 0.8370 0.8370 0.8350
14.468000 0.8350 0.8320 0.8350 0.8350 0.8390
14.502063 0.8390 0.8390 0.8420 0.8390 0.8390
14.536000 0.8370 0.8370 0.8320 0.8320 0.8300
14.570063 0.8320 0.8320 0.8350 0.8320 0.8320
14.604000 0.8320 0.8300 0.8320 0.8320 0.8350
14.638063 0.8350 0.8320 0.8320 0.8320 0.8300
14.672000 0.8290 0.8290 0.8290 0.8270 0.8250
14.706063 0.8220 0.8200 0.8180 0.8150 0.8130
14.740000 0.8150 0.8170 0.8170 0.8180 0.8180
14.774063 0.8130 0.8110 0.8080 0.8000 0.8000
14.808000 0.8060 0.8060 0.8060 0.8050 0.8050
14.842063 0.8050 0.8010 0.8000 0.7960 0.7960
14.876000 0.7930 0.7930 0.7980 0.7980 0.7960
14.910063 0.7960 0.7960 0.7960 0.7910 0.7910
14.945000 0.7860 0.7810 0.7770 0.7760 0.7720
14.979063 0.7690 0.7600 0.7550 0.7480 0.7470
15.013000 0.7410 0.7380 0.7360 0.7310 0.7290
15.047063 0.7230 0.7230 0.7280 0.7280 0.7290
15.081000 0.7290 0.7310 0.7310 0.7310 0.7360
15.115063 0.7410 0.7500 0.7520 0.7550 0.7580
15.149000 0.7600 0.7620 0.7650 0.7650 0.7640
15.183063 0.7640 0.7600 0.7580 0.7520 0.7520
15.217000 0.7580 0.7580 0.7580 0.7600 0.7600
15.251063 0.7650 0.7650 0.7620 0.7600 0.7600
15.285000 0.7600 0.7600 0.7580 0.7550 0.7520
15.319063 0.7520 0.7520 0.7520 0.7520 0.7550
15.353000 0.7550 0.7520 0.7520 0.7500 0.7480
15.387063 0.7470 0.7470 0.7410 0.7410 0.7410
15.421000 0.7410 0.7400 0.7400 0.7380 0.7380
15.455063 0.7360 0.7330 0.7310 0.7290 0.7280
15.489000 0.7260 0.7230 0.7230 0.7260 0.7280
15.523063 0.7310 0.7290 0.7290 0.7290 0.7310
15.557000 0.7290 0.7280 0.7280 0.7280 0.7260
15.591063 0.7190 0.7190 0.7190 0.7190 0.7190
15.625000 0.7170 0.7160 0.7160 0.7120 0.7160
15.659063 0.7140 0.7120 0.7110 0.7090 0.7050
15.694000 0.7020 0.7020 0.7000 0.6990 0.6970
15.728063 0.6970 0.6920 0.6920 0.6900 0.6870
15.762000 0.6850 0.6830 0.6830 0.6830 0.6830
15.796063 0.6870 0.6870 0.6850 0.6830 0.6820
15.830000 0.6800 0.6760 0.6760 0.6780 0.6800
15.864063 0.6800 0.6780 0.6780 0.6760 0.6730
15.898000 0.6730 0.6730 0.6710 0.6710 0.6660
15.932063 0.6630 0.6610 0.6580 0.6560 0.6540
15.966000 0.6520
##END=
