##TITLE=Piperazine compound with citric acid
##JCAMP-DX=4.24
$$ By DXEDIT 1.05 (RS McDonald)
##DATA TYPE=INFRARED SPECTRUM
##CLASS=COBLENTZ III
##ORIGIN=DOW CHEMICAL COMPANY
##OWNER=COPYRIGHT (C) 1988 by COBLENTZ SOCIETY INC.
Collection (C) 2018 copyright by the U.S. Secretary of Commerce
on behalf of the United States of America. All rights reserved.
##DATE=1965/12/14
##MOLFORM=C10 H18 N2 O7
##SOURCE REFERENCE=COBLENTZ NO. 08886
##$NIST ID=B6008886
##$NIST SOURCE=COBLENTZ
##$NIST IMAGE=cob8886
##SPECTROMETER/DATA SYSTEM=DOW KBr FOREPRISM-GRATING
##INSTRUMENT PARAMETERS=BLAZED AT 3.5, 12.0, 20.0 MICRON AND CHANGED AT 5.0, 7.5, 14.9 MICRON
##STATE=SOLID (SPLIT MULL), FLUOROLUBE FOR 3800-1330 CM^-^1, NUJOL FOR 1330-400 CM^-^1
$$ STRUCTURE NOT VERIFIED, CLASS II TECHNICAL QUALITY
##SAMPLING PROCEDURE=TRANSMISSION
##RESOLUTION=2
##DATA PROCESSING=DIGITIZED BY COBLENTZ SOCIETY (BATCH I) FROM HARD COPY
##XUNITS=1/CM
##YUNITS=TRANSMITTANCE
##XFACTOR=1
##YFACTOR=1
##DELTAX=1
##FIRSTX=3798
##LASTX=384
##FIRSTY=0.8928
##MAXX=3798
##MINX=384
##MAXY=0.8928
##MINY=0.0623
##NPOINTS=3415
##XYDATA=(X++(Y..Y))
3798.000000 0.8928 0.8928 0.8928 0.8928 0.8928
3793.000000 0.8927 0.8927 0.8925 0.8925 0.8925
3788.000000 0.8925 0.8924 0.8924 0.8923 0.8923
3783.000000 0.8921 0.8921 0.8921 0.8921 0.8921
3778.000000 0.8921 0.8920 0.8920 0.8918 0.8918
3773.000000 0.8918 0.8918 0.8918 0.8918 0.8918
3768.000000 0.8918 0.8918 0.8918 0.8918 0.8918
3763.000000 0.8918 0.8918 0.8918 0.8918 0.8918
3758.000000 0.8918 0.8918 0.8918 0.8918 0.8918
3753.000000 0.8918 0.8918 0.8918 0.8918 0.8918
3748.000000 0.8918 0.8918 0.8918 0.8918 0.8918
3743.000000 0.8918 0.8918 0.8918 0.8920 0.8920
3738.000000 0.8921 0.8921 0.8921 0.8921 0.8923
3733.000000 0.8923 0.8923 0.8923 0.8924 0.8924
3728.000000 0.8925 0.8925 0.8925 0.8925 0.8925
3723.000000 0.8925 0.8925 0.8925 0.8925 0.8925
3718.000000 0.8924 0.8924 0.8924 0.8924 0.8924
3713.000000 0.8923 0.8923 0.8921 0.8921 0.8921
3708.000000 0.8920 0.8918 0.8918 0.8917 0.8917
3703.000000 0.8914 0.8911 0.8905 0.8900 0.8894
3698.000000 0.8889 0.8883 0.8878 0.8871 0.8867
3693.000000 0.8863 0.8859 0.8857 0.8856 0.8854
3688.000000 0.8853 0.8851 0.8850 0.8850 0.8850
3683.000000 0.8850 0.8850 0.8850 0.8850 0.8850
3678.000000 0.8850 0.8849 0.8848 0.8846 0.8844
3673.000000 0.8842 0.8840 0.8838 0.8837 0.8834
3668.000000 0.8831 0.8828 0.8825 0.8821 0.8818
3663.000000 0.8815 0.8812 0.8808 0.8805 0.8798
3658.000000 0.8792 0.8785 0.8778 0.8771 0.8766
3653.000000 0.8757 0.8748 0.8737 0.8727 0.8716
3648.000000 0.8706 0.8696 0.8686 0.8675 0.8665
3643.000000 0.8654 0.8644 0.8633 0.8623 0.8612
3638.000000 0.8601 0.8590 0.8580 0.8568 0.8559
3633.000000 0.8548 0.8537 0.8525 0.8516 0.8505
3628.000000 0.8494 0.8484 0.8475 0.8466 0.8457
3623.000000 0.8448 0.8440 0.8431 0.8421 0.8413
3618.000000 0.8405 0.8396 0.8387 0.8378 0.8370
3613.000000 0.8361 0.8352 0.8342 0.8332 0.8321
3608.000000 0.8313 0.8303 0.8294 0.8284 0.8274
3603.000000 0.8264 0.8255 0.8245 0.8235 0.8225
3598.000000 0.8216 0.8206 0.8196 0.8186 0.8176
3593.000000 0.8168 0.8158 0.8150 0.8142 0.8135
3588.000000 0.8128 0.8121 0.8114 0.8105 0.8096
3583.000000 0.8086 0.8076 0.8030 0.7984 0.7947
3578.000000 0.7911 0.7894 0.7878 0.7875 0.7875
3573.000000 0.7875 0.7878 0.7882 0.7885 0.7887
3568.000000 0.7890 0.7892 0.7894 0.7895 0.7897
3563.000000 0.7898 0.7898 0.7898 0.7898 0.7896
3558.000000 0.7894 0.7892 0.7890 0.7887 0.7885
3553.000000 0.7881 0.7876 0.7871 0.7868 0.7864
3548.000000 0.7860 0.7855 0.7851 0.7846 0.7841
3543.000000 0.7835 0.7828 0.7822 0.7817 0.7810
3538.000000 0.7804 0.7798 0.7792 0.7783 0.7775
3533.000000 0.7765 0.7758 0.7749 0.7740 0.7731
3528.000000 0.7721 0.7708 0.7696 0.7682 0.7668
3523.000000 0.7656 0.7643 0.7628 0.7615 0.7601
3518.000000 0.7586 0.7571 0.7556 0.7541 0.7525
3513.000000 0.7511 0.7496 0.7480 0.7465 0.7450
3508.000000 0.7436 0.7421 0.7406 0.7391 0.7375
3503.000000 0.7361 0.7346 0.7331 0.7315 0.7301
3498.000000 0.7286 0.7271 0.7256 0.7241 0.7225
3493.000000 0.7211 0.7196 0.7181 0.7165 0.7151
3488.000000 0.7136 0.7121 0.7106 0.7092 0.7078
3483.000000 0.7062 0.7049 0.7035 0.7021 0.7006
3478.000000 0.6992 0.6978 0.6965 0.6956 0.6946
3473.000000 0.6936 0.6925 0.6915 0.6906 0.6895
3468.000000 0.6885 0.6875 0.6865 0.6855 0.6845
3463.000000 0.6834 0.6822 0.6811 0.6800 0.6789
3458.000000 0.6778 0.6765 0.6755 0.6743 0.6732
3453.000000 0.6721 0.6711 0.6701 0.6693 0.6683
3448.000000 0.6674 0.6665 0.6657 0.6650 0.6643
3443.000000 0.6636 0.6628 0.6621 0.6615 0.6608
3438.000000 0.6601 0.6596 0.6590 0.6584 0.6578
3433.000000 0.6571 0.6565 0.6560 0.6554 0.6548
3428.000000 0.6542 0.6536 0.6530 0.6522 0.6517
3423.000000 0.6511 0.6506 0.6501 0.6497 0.6493
3418.000000 0.6485 0.6484 0.6480 0.6476 0.6475
3413.000000 0.6472 0.6471 0.6469 0.6468 0.6465
3408.000000 0.6464 0.6462 0.6462 0.6462 0.6462
3403.000000 0.6462 0.6462 0.6462 0.6462 0.6464
3398.000000 0.6465 0.6467 0.6468 0.6469 0.6471
3393.000000 0.6472 0.6475 0.6476 0.6478 0.6480
3388.000000 0.6482 0.6483 0.6485 0.6486 0.6487
3383.000000 0.6487 0.6488 0.6488 0.6489 0.6489
3378.000000 0.6490 0.6490 0.6491 0.6491 0.6492
3373.000000 0.6492 0.6493 0.6493 0.6494 0.6495
3368.000000 0.6496 0.6496 0.6497 0.6497 0.6497
3363.000000 0.6497 0.6498 0.6498 0.6499 0.6499
3358.000000 0.6500 0.6500 0.6500 0.6500 0.6501
3353.000000 0.6501 0.6501 0.6501 0.6501 0.6501
3348.000000 0.6503 0.6503 0.6504 0.6504 0.6504
3343.000000 0.6504 0.6504 0.6504 0.6504 0.6504
3338.000000 0.6504 0.6504 0.6504 0.6504 0.6504
3333.000000 0.6504 0.6504 0.6504 0.6504 0.6504
3328.000000 0.6504 0.6504 0.6504 0.6504 0.6504
3323.000000 0.6504 0.6504 0.6504 0.6504 0.6504
3318.000000 0.6504 0.6503 0.6503 0.6501 0.6501
3313.000000 0.6501 0.6501 0.6501 0.6501 0.6500
3308.000000 0.6500 0.6499 0.6499 0.6499 0.6499
3303.000000 0.6498 0.6498 0.6497 0.6496 0.6495
3298.000000 0.6494 0.6492 0.6491 0.6489 0.6488
3293.000000 0.6487 0.6486 0.6484 0.6483 0.6481
3288.000000 0.6480 0.6478 0.6478 0.6478 0.6478
3283.000000 0.6476 0.6476 0.6475 0.6475 0.6475
3278.000000 0.6475 0.6475 0.6475 0.6475 0.6475
3273.000000 0.6475 0.6475 0.6474 0.6474 0.6474
3268.000000 0.6474 0.6474 0.6474 0.6474 0.6474
3263.000000 0.6474 0.6474 0.6472 0.6472 0.6472
3258.000000 0.6472 0.6472 0.6472 0.6472 0.6472
3253.000000 0.6471 0.6471 0.6471 0.6471 0.6471
3248.000000 0.6471 0.6471 0.6472 0.6472 0.6472
3243.000000 0.6472 0.6474 0.6474 0.6474 0.6474
3238.000000 0.6474 0.6474 0.6475 0.6475 0.6475
3233.000000 0.6475 0.6475 0.6475 0.6475 0.6475
3228.000000 0.6475 0.6475 0.6475 0.6475 0.6475
3223.000000 0.6475 0.6475 0.6475 0.6475 0.6475
3218.000000 0.6475 0.6475 0.6475 0.6475 0.6475
3213.000000 0.6475 0.6475 0.6475 0.6476 0.6476
3208.000000 0.6476 0.6476 0.6478 0.6478 0.6478
3203.000000 0.6478 0.6478 0.6478 0.6478 0.6478
3198.000000 0.6478 0.6478 0.6478 0.6478 0.6478
3193.000000 0.6476 0.6476 0.6475 0.6475 0.6475
3188.000000 0.6475 0.6475 0.6475 0.6474 0.6474
3183.000000 0.6472 0.6471 0.6469 0.6468 0.6467
3178.000000 0.6465 0.6462 0.6461 0.6458 0.6456
3173.000000 0.6453 0.6451 0.6448 0.6445 0.6442
3168.000000 0.6440 0.6437 0.6434 0.6430 0.6426
3163.000000 0.6424 0.6421 0.6418 0.6415 0.6411
3158.000000 0.6408 0.6405 0.6401 0.6399 0.6396
3153.000000 0.6393 0.6390 0.6385 0.6381 0.6377
3148.000000 0.6373 0.6369 0.6366 0.6362 0.6358
3143.000000 0.6354 0.6351 0.6347 0.6343 0.6339
3138.000000 0.6335 0.6331 0.6328 0.6324 0.6320
3133.000000 0.6316 0.6312 0.6309 0.6305 0.6301
3128.000000 0.6297 0.6290 0.6284 0.6277 0.6270
3123.000000 0.6262 0.6256 0.6249 0.6242 0.6235
3118.000000 0.6228 0.6221 0.6214 0.6205 0.6197
3113.000000 0.6187 0.6178 0.6168 0.6159 0.6149
3108.000000 0.6139 0.6129 0.6120 0.6110 0.6101
3103.000000 0.6091 0.6082 0.6072 0.6062 0.6053
3098.000000 0.6043 0.6033 0.6023 0.6012 0.6003
3093.000000 0.5993 0.5983 0.5973 0.5962 0.5949
3088.000000 0.5936 0.5922 0.5909 0.5895 0.5882
3083.000000 0.5869 0.5856 0.5842 0.5829 0.5815
3078.000000 0.5801 0.5787 0.5773 0.5759 0.5745
3073.000000 0.5731 0.5717 0.5703 0.5689 0.5675
3068.000000 0.5660 0.5645 0.5630 0.5614 0.5599
3063.000000 0.5584 0.5569 0.5553 0.5538 0.5522
3058.000000 0.5507 0.5491 0.5476 0.5458 0.5440
3053.000000 0.5422 0.5405 0.5387 0.5369 0.5351
3048.000000 0.5333 0.5315 0.5297 0.5278 0.5260
3043.000000 0.5241 0.5223 0.5204 0.5186 0.5166
3038.000000 0.5147 0.5120 0.5094 0.5067 0.5041
3033.000000 0.5015 0.4989 0.4962 0.4937 0.4910
3028.000000 0.4886 0.4860 0.4834 0.4807 0.4781
3023.000000 0.4755 0.4730 0.4707 0.4684 0.4660
3018.000000 0.4638 0.4614 0.4591 0.4576 0.4560
3013.000000 0.4547 0.4534 0.4523 0.4512 0.4501
3008.000000 0.4491 0.4482 0.4474 0.4465 0.4457
3003.000000 0.4455 0.4453 0.4451 0.4450 0.4449
2998.000000 0.4449 0.4450 0.4451 0.4451 0.4452
2993.000000 0.4452 0.4452 0.4449 0.4446 0.4443
2988.000000 0.4441 0.4438 0.4436 0.4432 0.4428
2983.000000 0.4423 0.4419 0.4414 0.4410 0.4406
2978.000000 0.4402 0.4397 0.4393 0.4389 0.4385
2973.000000 0.4381 0.4378 0.4374 0.4370 0.4366
2968.000000 0.4362 0.4358 0.4354 0.4351 0.4365
2963.000000 0.4348 0.4348 0.4347 0.4347 0.4350
2958.000000 0.4354 0.4358 0.4362 0.4366 0.4371
2953.000000 0.4376 0.4381 0.4387 0.4393 0.4399
2948.000000 0.4406 0.4412 0.4418 0.4424 0.4431
2943.000000 0.4433 0.4436 0.4436 0.4437 0.4438
2938.000000 0.4439 0.4439 0.4440 0.4441 0.4442
2933.000000 0.4443 0.4444 0.4444 0.4445 0.4446
2928.000000 0.4447 0.4447 0.4448 0.4449 0.4450
2923.000000 0.4450 0.4451 0.4452 0.4453 0.4453
2918.000000 0.4453 0.4453 0.4453 0.4453 0.4453
2913.000000 0.4453 0.4453 0.4453 0.4453 0.4453
2908.000000 0.4453 0.4453 0.4453 0.4453 0.4453
2903.000000 0.4452 0.4452 0.4451 0.4451 0.4450
2898.000000 0.4449 0.4448 0.4448 0.4447 0.4447
2893.000000 0.4446 0.4445 0.4443 0.4442 0.4440
2888.000000 0.4438 0.4436 0.4435 0.4431 0.4427
2883.000000 0.4423 0.4419 0.4415 0.4410 0.4405
2878.000000 0.4400 0.4394 0.4389 0.4383 0.4377
2873.000000 0.4368 0.4360 0.4351 0.4343 0.4336
2868.000000 0.4329 0.4322 0.4315 0.4307 0.4299
2863.000000 0.4291 0.4283 0.4275 0.4267 0.4259
2858.000000 0.4252 0.4244 0.4237 0.4230 0.4223
2853.000000 0.4215 0.4208 0.4200 0.4193 0.4186
2848.000000 0.4179 0.4172 0.4165 0.4158 0.4152
2843.000000 0.4146 0.4140 0.4133 0.4127 0.4120
2838.000000 0.4114 0.4107 0.4101 0.4095 0.4089
2833.000000 0.4080 0.4073 0.4064 0.4057 0.4049
2828.000000 0.4041 0.4032 0.4024 0.4016 0.4008
2823.000000 0.4000 0.3992 0.3982 0.3975 0.3966
2818.000000 0.3958 0.3949 0.3941 0.3932 0.3924
2813.000000 0.3914 0.3906 0.3896 0.3887 0.3877
2808.000000 0.3866 0.3857 0.3848 0.3834 0.3822
2803.000000 0.3807 0.3792 0.3777 0.3762 0.3747
2798.000000 0.3732 0.3718 0.3706 0.3692 0.3679
2793.000000 0.3664 0.3652 0.3638 0.3625 0.3612
2788.000000 0.3600 0.3588 0.3576 0.3562 0.3550
2783.000000 0.3539 0.3527 0.3514 0.3504 0.3493
2778.000000 0.3482 0.3471 0.3459 0.3449 0.3438
2773.000000 0.3427 0.3416 0.3407 0.3399 0.3391
2768.000000 0.3382 0.3374 0.3366 0.3358 0.3350
2763.000000 0.3341 0.3332 0.3325 0.3316 0.3309
2758.000000 0.3303 0.3295 0.3288 0.3280 0.3273
2753.000000 0.3266 0.3259 0.3253 0.3248 0.3244
2748.000000 0.3240 0.3236 0.3232 0.3229 0.3226
2743.000000 0.3222 0.3218 0.3214 0.3212 0.3212
2738.000000 0.3210 0.3209 0.3208 0.3206 0.3205
2733.000000 0.3204 0.3203 0.3200 0.3200 0.3198
2728.000000 0.3197 0.3195 0.3194 0.3193 0.3192
2723.000000 0.3190 0.3189 0.3188 0.3187 0.3185
2718.000000 0.3185 0.3184 0.3184 0.3183 0.3182
2713.000000 0.3181 0.3180 0.3179 0.3179 0.3178
2708.000000 0.3177 0.3176 0.3175 0.3174 0.3174
2703.000000 0.3173 0.3172 0.3171 0.3170 0.3170
2698.000000 0.3170 0.3169 0.3169 0.3168 0.3168
2693.000000 0.3167 0.3167 0.3166 0.3166 0.3165
2688.000000 0.3165 0.3164 0.3164 0.3163 0.3163
2683.000000 0.3162 0.3161 0.3159 0.3158 0.3157
2678.000000 0.3156 0.3155 0.3154 0.3153 0.3152
2673.000000 0.3151 0.3150 0.3150 0.3150 0.3152
2668.000000 0.3155 0.3157 0.3160 0.3163 0.3166
2663.000000 0.3169 0.3173 0.3176 0.3180 0.3183
2658.000000 0.3187 0.3190 0.3194 0.3195 0.3197
2653.000000 0.3198 0.3199 0.3200 0.3202 0.3203
2648.000000 0.3205 0.3206 0.3206 0.3207 0.3206
2643.000000 0.3205 0.3205 0.3204 0.3203 0.3202
2638.000000 0.3202 0.3200 0.3200 0.3199 0.3198
2633.000000 0.3197 0.3197 0.3196 0.3195 0.3194
2628.000000 0.3194 0.3192 0.3190 0.3188 0.3187
2623.000000 0.3184 0.3183 0.3181 0.3179 0.3177
2618.000000 0.3175 0.3173 0.3172 0.3170 0.3168
2613.000000 0.3165 0.3163 0.3160 0.3158 0.3155
2608.000000 0.3153 0.3150 0.3148 0.3145 0.3143
2603.000000 0.3140 0.3138 0.3134 0.3133 0.3130
2598.000000 0.3128 0.3125 0.3123 0.3121 0.3119
2593.000000 0.3118 0.3117 0.3116 0.3115 0.3115
2588.000000 0.3116 0.3119 0.3123 0.3126 0.3130
2583.000000 0.3141 0.3152 0.3165 0.3179 0.3192
2578.000000 0.3205 0.3216 0.3230 0.3241 0.3253
2573.000000 0.3264 0.3277 0.3288 0.3300 0.3310
2568.000000 0.3322 0.3332 0.3343 0.3354 0.3364
2563.000000 0.3375 0.3386 0.3396 0.3407 0.3416
2558.000000 0.3425 0.3432 0.3442 0.3450 0.3458
2553.000000 0.3462 0.3468 0.3473 0.3479 0.3484
2548.000000 0.3489 0.3492 0.3496 0.3499 0.3503
2543.000000 0.3506 0.3509 0.3512 0.3514 0.3516
2538.000000 0.3516 0.3518 0.3518 0.3520 0.3520
2533.000000 0.3520 0.3518 0.3518 0.3518 0.3516
2528.000000 0.3514 0.3509 0.3507 0.3503 0.3499
2523.000000 0.3495 0.3492 0.3486 0.3480 0.3473
2518.000000 0.3466 0.3457 0.3448 0.3437 0.3427
2513.000000 0.3414 0.3404 0.3389 0.3375 0.3359
2508.000000 0.3345 0.3327 0.3309 0.3291 0.3273
2503.000000 0.3254 0.3236 0.3214 0.3194 0.3172
2498.000000 0.3151 0.3130 0.3109 0.3085 0.3064
2493.000000 0.3040 0.3017 0.2994 0.2971 0.2947
2488.000000 0.2924 0.2902 0.2881 0.2860 0.2840
2483.000000 0.2819 0.2798 0.2779 0.2761 0.2746
2478.000000 0.2731 0.2716 0.2701 0.2684 0.2670
2473.000000 0.2655 0.2640 0.2629 0.2618 0.2608
2468.000000 0.2598 0.2590 0.2582 0.2575 0.2568
2463.000000 0.2561 0.2555 0.2549 0.2543 0.2537
2458.000000 0.2531 0.2527 0.2524 0.2520 0.2517
2453.000000 0.2513 0.2510 0.2507 0.2505 0.2503
2448.000000 0.2503 0.2503 0.2505 0.2507 0.2509
2443.000000 0.2511 0.2513 0.2515 0.2518 0.2525
2438.000000 0.2533 0.2540 0.2548 0.2555 0.2563
2433.000000 0.2572 0.2581 0.2590 0.2600 0.2609
2428.000000 0.2619 0.2628 0.2638 0.2647 0.2657
2423.000000 0.2666 0.2676 0.2687 0.2699 0.2711
2418.000000 0.2723 0.2734 0.2746 0.2758 0.2770
2413.000000 0.2781 0.2793 0.2805 0.2817 0.2829
2408.000000 0.2842 0.2855 0.2868 0.2881 0.2894
2403.000000 0.2906 0.2919 0.2932 0.2945 0.2958
2398.000000 0.2972 0.2984 0.2998 0.3011 0.3024
2393.000000 0.3037 0.3051 0.3064 0.3078 0.3091
2388.000000 0.3105 0.3118 0.3131 0.3144 0.3158
2383.000000 0.3169 0.3181 0.3193 0.3205 0.3214
2378.000000 0.3224 0.3232 0.3240 0.3248 0.3256
2373.000000 0.3264 0.3272 0.3276 0.3280 0.3284
2368.000000 0.3290 0.3294 0.3298 0.3302 0.3306
2363.000000 0.3309 0.3312 0.3316 0.3321 0.3324
2358.000000 0.3328 0.3330 0.3334 0.3339 0.3343
2353.000000 0.3352 0.3360 0.3368 0.3378 0.3387
2348.000000 0.3397 0.3407 0.3418 0.3428 0.3439
2343.000000 0.3449 0.3459 0.3470 0.3480 0.3492
2338.000000 0.3503 0.3512 0.3524 0.3536 0.3549
2333.000000 0.3562 0.3578 0.3592 0.3606 0.3620
2328.000000 0.3634 0.3649 0.3662 0.3677 0.3692
2323.000000 0.3708 0.3725 0.3743 0.3762 0.3780
2318.000000 0.3799 0.3816 0.3836 0.3854 0.3873
2313.000000 0.3892 0.3910 0.3930 0.3949 0.3966
2308.000000 0.3986 0.4002 0.4018 0.4032 0.4048
2303.000000 0.4062 0.4077 0.4090 0.4104 0.4115
2298.000000 0.4126 0.4136 0.4147 0.4158 0.4169
2293.000000 0.4180 0.4192 0.4203 0.4214 0.4225
2288.000000 0.4237 0.4249 0.4260 0.4272 0.4284
2283.000000 0.4296 0.4308 0.4320 0.4332 0.4343
2278.000000 0.4355 0.4367 0.4379 0.4390 0.4402
2273.000000 0.4414 0.4426 0.4437 0.4449 0.4460
2268.000000 0.4472 0.4485 0.4499 0.4512 0.4526
2263.000000 0.4539 0.4553 0.4562 0.4571 0.4579
2258.000000 0.4587 0.4594 0.4601 0.4607 0.4614
2253.000000 0.4620 0.4626 0.4631 0.4637 0.4640
2248.000000 0.4639 0.4639 0.4634 0.4629 0.4624
2243.000000 0.4619 0.4615 0.4610 0.4606 0.4602
2238.000000 0.4598 0.4594 0.4591 0.4588 0.4586
2233.000000 0.4583 0.4580 0.4577 0.4574 0.4572
2228.000000 0.4570 0.4570 0.4571 0.4571 0.4572
2223.000000 0.4572 0.4573 0.4574 0.4576 0.4582
2218.000000 0.4589 0.4595 0.4601 0.4620 0.4640
2213.000000 0.4665 0.4690 0.4715 0.4740 0.4757
2208.000000 0.4774 0.4791 0.4808 0.4825 0.4842
2203.000000 0.4859 0.4876 0.4891 0.4906 0.4917
2198.000000 0.4929 0.4940 0.4951 0.4962 0.4973
2193.000000 0.4984 0.4995 0.5006 0.5018 0.5029
2188.000000 0.5040 0.5051 0.5062 0.5072 0.5083
2183.000000 0.5093 0.5104 0.5114 0.5125 0.5135
2178.000000 0.5146 0.5156 0.5167 0.5177 0.5188
2173.000000 0.5198 0.5209 0.5219 0.5229 0.5238
2168.000000 0.5247 0.5256 0.5266 0.5275 0.5284
2163.000000 0.5293 0.5303 0.5312 0.5321 0.5330
2158.000000 0.5340 0.5349 0.5358 0.5367 0.5377
2153.000000 0.5386 0.5395 0.5403 0.5412 0.5420
2148.000000 0.5429 0.5437 0.5446 0.5455 0.5464
2143.000000 0.5472 0.5481 0.5489 0.5497 0.5504
2138.000000 0.5512 0.5519 0.5526 0.5533 0.5541
2133.000000 0.5548 0.5556 0.5562 0.5571 0.5578
2128.000000 0.5586 0.5593 0.5601 0.5608 0.5616
2123.000000 0.5624 0.5632 0.5639 0.5647 0.5653
2118.000000 0.5659 0.5665 0.5672 0.5678 0.5685
2113.000000 0.5691 0.5698 0.5704 0.5710 0.5717
2108.000000 0.5723 0.5729 0.5735 0.5740 0.5746
2103.000000 0.5752 0.5758 0.5762 0.5769 0.5774
2098.000000 0.5780 0.5785 0.5791 0.5797 0.5803
2093.000000 0.5808 0.5814 0.5819 0.5825 0.5830
2088.000000 0.5836 0.5842 0.5848 0.5853 0.5859
2083.000000 0.5864 0.5870 0.5875 0.5881 0.5887
2078.000000 0.5893 0.5898 0.5904 0.5909 0.5915
2073.000000 0.5920 0.5926 0.5932 0.5938 0.5943
2068.000000 0.5949 0.5954 0.5960 0.5965 0.5971
2063.000000 0.5977 0.5983 0.5988 0.5994 0.5998
2058.000000 0.6003 0.6007 0.6010 0.6015 0.6019
2053.000000 0.6023 0.6027 0.6030 0.6033 0.6036
2048.000000 0.6039 0.6042 0.6045 0.6047 0.6050
2043.000000 0.6053 0.6056 0.6058 0.6060 0.6062
2038.000000 0.6064 0.6066 0.6069 0.6071 0.6073
2033.000000 0.6075 0.6078 0.6081 0.6084 0.6087
2028.000000 0.6090 0.6093 0.6097 0.6100 0.6103
2023.000000 0.6106 0.6110 0.6112 0.6115 0.6117
2018.000000 0.6119 0.6121 0.6124 0.6124 0.6125
2013.000000 0.6126 0.6127 0.6128 0.6130 0.6131
2008.000000 0.6133 0.6134 0.6135 0.6135 0.6135
2003.000000 0.6136 0.6138 0.6138 0.6138 0.6137
1998.000000 0.6136 0.6136 0.6135 0.6134 0.6133
1993.000000 0.6132 0.6132 0.6131 0.6130 0.6129
1988.000000 0.6128 0.6127 0.6127 0.6126 0.6125
1983.000000 0.6124 0.6122 0.6120 0.6118 0.6116
1978.000000 0.6112 0.6110 0.6109 0.6107 0.6105
1973.000000 0.6102 0.6100 0.6099 0.6099 0.6099
1968.000000 0.6099 0.6099 0.6099 0.6099 0.6099
1963.000000 0.6100 0.6103 0.6106 0.6109 0.6112
1958.000000 0.6115 0.6118 0.6122 0.6127 0.6131
1953.000000 0.6135 0.6139 0.6144 0.6149 0.6155
1948.000000 0.6162 0.6168 0.6175 0.6181 0.6188
1943.000000 0.6194 0.6200 0.6206 0.6212 0.6218
1938.000000 0.6224 0.6230 0.6236 0.6243 0.6249
1933.000000 0.6255 0.6265 0.6274 0.6284 0.6294
1928.000000 0.6303 0.6312 0.6322 0.6332 0.6341
1923.000000 0.6351 0.6362 0.6374 0.6385 0.6396
1918.000000 0.6407 0.6418 0.6430 0.6441 0.6451
1913.000000 0.6462 0.6474 0.6485 0.6497 0.6508
1908.000000 0.6518 0.6530 0.6542 0.6553 0.6564
1903.000000 0.6575 0.6587 0.6598 0.6608 0.6621
1898.000000 0.6633 0.6644 0.6656 0.6668 0.6680
1893.000000 0.6692 0.6704 0.6715 0.6728 0.6740
1888.000000 0.6751 0.6764 0.6775 0.6787 0.6798
1883.000000 0.6808 0.6819 0.6831 0.6842 0.6853
1878.000000 0.6865 0.6875 0.6887 0.6898 0.6908
1873.000000 0.6919 0.6930 0.6940 0.6950 0.6960
1868.000000 0.6968 0.6978 0.6989 0.6998 0.7008
1863.000000 0.7018 0.7026 0.7037 0.7047 0.7055
1858.000000 0.7061 0.7067 0.7072 0.7078 0.7084
1853.000000 0.7090 0.7096 0.7101 0.7106 0.7108
1848.000000 0.7111 0.7114 0.7117 0.7119 0.7121
1843.000000 0.7125 0.7128 0.7130 0.7132 0.7134
1838.000000 0.7136 0.7138 0.7140 0.7142 0.7144
1833.000000 0.7146 0.7148 0.7151 0.7153 0.7155
1828.000000 0.7157 0.7160 0.7161 0.7164 0.7165
1823.000000 0.7168 0.7171 0.7172 0.7175 0.7176
1818.000000 0.7178 0.7181 0.7183 0.7185 0.7188
1813.000000 0.7190 0.7192 0.7194 0.7196 0.7198
1808.000000 0.7200 0.7201 0.7206 0.7210 0.7212
1803.000000 0.7217 0.7221 0.7224 0.7228 0.7232
1798.000000 0.7236 0.7236 0.7236 0.7236 0.7236
1793.000000 0.7236 0.7236 0.7235 0.7234 0.7232
1788.000000 0.7231 0.7228 0.7228 0.7225 0.7224
1783.000000 0.7222 0.7221 0.7218 0.7215 0.7211
1778.000000 0.7208 0.7205 0.7201 0.7199 0.7196
1773.000000 0.7192 0.7188 0.7185 0.7181 0.7174
1768.000000 0.7167 0.7160 0.7153 0.7145 0.7137
1763.000000 0.7128 0.7117 0.7099 0.7081 0.7061
1758.000000 0.7036 0.7001 0.6961 0.6922 0.6886
1753.000000 0.6850 0.6815 0.6778 0.6741 0.6703
1748.000000 0.6665 0.6625 0.6575 0.6525 0.6476
1743.000000 0.6421 0.6357 0.6293 0.6205 0.6090
1738.000000 0.5925 0.5620 0.5504 0.5344 0.4883
1733.000000 0.4557 0.4217 0.4012 0.3875 0.3660
1728.000000 0.3158 0.3106 0.3075 0.3039 0.3004
1723.000000 0.2981 0.2964 0.2929 0.2947 0.2952
1718.000000 0.2975 0.3008 0.3060 0.3112 0.3163
1713.000000 0.3214 0.3264 0.3337 0.3426 0.3509
1708.000000 0.3584 0.3658 0.3732 0.3787 0.3842
1703.000000 0.3897 0.3952 0.4002 0.4048 0.4093
1698.000000 0.4139 0.4187 0.4237 0.4286 0.4333
1693.000000 0.4370 0.4407 0.4444 0.4478 0.4510
1688.000000 0.4542 0.4574 0.4636 0.4700 0.4758
1683.000000 0.4799 0.4839 0.4881 0.4929 0.4986
1678.000000 0.5023 0.5053 0.5071 0.5085 0.5097
1673.000000 0.5106 0.5121 0.5109 0.5092 0.5025
1668.000000 0.4937 0.4818 0.4654 0.4453 0.4273
1663.000000 0.4108 0.3979 0.3864 0.3760 0.3679
1658.000000 0.3606 0.3550 0.3518 0.3492 0.3450
1653.000000 0.3456 0.3471 0.3503 0.3545 0.3591
1648.000000 0.3632 0.3664 0.3696 0.3723 0.3744
1643.000000 0.3782 0.3762 0.3762 0.3759 0.3720
1638.000000 0.3662 0.3564 0.3489 0.3436 0.3374
1633.000000 0.3306 0.3245 0.3185 0.3156 0.3126
1628.000000 0.3105 0.3089 0.3078 0.3069 0.3067
1623.000000 0.3065 0.3102 0.3146 0.3191 0.3247
1618.000000 0.3305 0.3356 0.3394 0.3432 0.3464
1613.000000 0.3495 0.3526 0.3560 0.3600 0.3625
1608.000000 0.3658 0.3638 0.3636 0.3618 0.3595
1603.000000 0.3566 0.3526 0.3455 0.3387 0.3257
1598.000000 0.2946 0.2729 0.2571 0.2443 0.2333
1593.000000 0.2233 0.2143 0.2053 0.1912 0.1754
1588.000000 0.1669 0.1583 0.1505 0.1428 0.1352
1583.000000 0.1274 0.1196 0.1117 0.1059 0.1001
1578.000000 0.0955 0.0915 0.0876 0.0839 0.0805
1573.000000 0.0771 0.0732 0.0701 0.0678 0.0661
1568.000000 0.0647 0.0638 0.0631 0.0630 0.0627
1563.000000 0.0623 0.0625 0.0667 0.0712 0.0760
1558.000000 0.0807 0.0850 0.0884 0.0917 0.0950
1553.000000 0.0983 0.1016 0.1048 0.1079 0.1110
1548.000000 0.1140 0.1171 0.1208 0.1249 0.1290
1543.000000 0.1332 0.1373 0.1427 0.1492 0.1558
1538.000000 0.1623 0.1687 0.1762 0.1844 0.1925
1533.000000 0.1992 0.2059 0.2159 0.2281 0.2395
1528.000000 0.2508 0.2606 0.2697 0.2779 0.2851
1523.000000 0.2916 0.2980 0.3038 0.3085 0.3133
1518.000000 0.3181 0.3225 0.3264 0.3291 0.3316
1513.000000 0.3342 0.3368 0.3390 0.3398 0.3406
1508.000000 0.3403 0.3400 0.3397 0.3393 0.3387
1503.000000 0.3382 0.3376 0.3370 0.3366 0.3362
1498.000000 0.3359 0.3355 0.3352 0.3353 0.3355
1493.000000 0.3357 0.3359 0.3377 0.3395 0.3412
1488.000000 0.3436 0.3462 0.3489 0.3514 0.3542
1483.000000 0.3570 0.3598 0.3621 0.3642 0.3664
1478.000000 0.3682 0.3718 0.3697 0.3697 0.3687
1473.000000 0.3659 0.3674 0.3678 0.3684 0.3696
1468.000000 0.3699 0.3700 0.3676 0.3468 0.3339
1463.000000 0.3189 0.3040 0.2876 0.2703 0.2523
1458.000000 0.2463 0.2420 0.2460 0.2510 0.2581
1453.000000 0.2663 0.2767 0.2859 0.2927 0.2974
1448.000000 0.2935 0.2917 0.2898 0.2877 0.2856
1443.000000 0.2835 0.2817 0.2801 0.2784 0.2769
1438.000000 0.2756 0.2743 0.2730 0.2720 0.2719
1433.000000 0.2718 0.2753 0.2805 0.2869 0.2934
1428.000000 0.2983 0.3013 0.3035 0.3057 0.3084
1423.000000 0.3072 0.3064 0.3051 0.3038 0.3025
1418.000000 0.3012 0.3006 0.3003 0.3003 0.3002
1413.000000 0.3004 0.3004 0.3004 0.2997 0.2990
1408.000000 0.2988 0.2985 0.2957 0.2888 0.2822
1403.000000 0.2762 0.2703 0.2629 0.2543 0.2276
1398.000000 0.2196 0.2123 0.2053 0.1974 0.1870
1393.000000 0.1759 0.1590 0.1431 0.1207 0.1207
1388.000000 0.1207 0.1204 0.1228 0.1289 0.1387
1383.000000 0.1477 0.1505 0.1517 0.1512 0.1506
1378.000000 0.1496 0.1486 0.1475 0.1478 0.1486
1373.000000 0.1496 0.1510 0.1528 0.1545 0.1559
1368.000000 0.1555 0.1550 0.1542 0.1535 0.1530
1363.000000 0.1529 0.1528 0.1528 0.1532 0.1546
1358.000000 0.1576 0.1628 0.1695 0.1779 0.1854
1353.000000 0.1916 0.1978 0.2039 0.2114 0.2202
1348.000000 0.2291 0.2416 0.2541 0.2622 0.2715
1343.000000 0.2831 0.2929 0.3057 0.3153 0.3200
1338.000000 0.3229 0.3245 0.3255 0.3262 0.3309
1333.000000 0.3274 0.3274 0.3275 0.3256 0.3227
1328.000000 0.3198 0.3158 0.3117 0.3072 0.3022
1323.000000 0.2963 0.2904 0.2866 0.2830 0.2807
1318.000000 0.2785 0.2738 0.2771 0.2771 0.2854
1313.000000 0.2952 0.3030 0.3087 0.3145 0.3206
1308.000000 0.3276 0.3346 0.3412 0.3479 0.3539
1303.000000 0.3596 0.3659 0.3724 0.3757 0.3775
1298.000000 0.3780 0.3784 0.3786 0.3789 0.3791
1293.000000 0.3796 0.3802 0.3807 0.3853 0.3896
1288.000000 0.3932 0.3950 0.3968 0.3987 0.4000
1283.000000 0.4009 0.4027 0.4025 0.4002 0.3959
1278.000000 0.3912 0.3859 0.3802 0.3746 0.3697
1273.000000 0.3655 0.3616 0.3641 0.3680 0.3760
1268.000000 0.3842 0.3918 0.3996 0.4062 0.4116
1263.000000 0.4169 0.4222 0.4302 0.4351 0.4386
1258.000000 0.4414 0.4438 0.4460 0.4462 0.4479
1253.000000 0.4380 0.4289 0.4189 0.4089 0.3973
1248.000000 0.3847 0.3573 0.3487 0.3412 0.3345
1243.000000 0.3362 0.3372 0.3407 0.3443 0.3475
1238.000000 0.3506 0.3537 0.3559 0.3582 0.3600
1233.000000 0.3610 0.3614 0.3614 0.3606 0.3597
1228.000000 0.3578 0.3555 0.3532 0.3508 0.3482
1223.000000 0.3458 0.3430 0.3400 0.3370 0.3354
1218.000000 0.3343 0.3332 0.3321 0.3306 0.3288
1213.000000 0.3268 0.3249 0.3229 0.3208 0.3168
1208.000000 0.3128 0.3083 0.3032 0.2981 0.2907
1203.000000 0.2826 0.2692 0.2350 0.2253 0.2124
1198.000000 0.2196 0.2194 0.2485 0.2685 0.2775
1193.000000 0.2876 0.3048 0.3295 0.3410 0.3526
1188.000000 0.3600 0.3680 0.3766 0.3872 0.4088
1183.000000 0.4244 0.4383 0.4515 0.4610 0.4702
1178.000000 0.4809 0.4948 0.5066 0.5162 0.5259
1173.000000 0.5355 0.5487 0.5785 0.5848 0.5878
1168.000000 0.5894 0.5906 0.5910 0.5915 0.5921
1163.000000 0.5926 0.5931 0.5967 0.6046 0.6127
1158.000000 0.6207 0.6262 0.6314 0.6367 0.6422
1153.000000 0.6460 0.6496 0.6531 0.6560 0.6580
1148.000000 0.6600 0.6619 0.6635 0.6646 0.6651
1143.000000 0.6656 0.6657 0.6658 0.6651 0.6633
1138.000000 0.6619 0.6611 0.6611 0.6615 0.6661
1133.000000 0.6735 0.6818 0.6893 0.6958 0.7006
1128.000000 0.7031 0.7056 0.7068 0.7080 0.7087
1123.000000 0.7094 0.7101 0.7099 0.7122 0.7093
1118.000000 0.7081 0.7068 0.7057 0.7044 0.7028
1113.000000 0.7010 0.6992 0.6974 0.6956 0.6938
1108.000000 0.6915 0.6889 0.6861 0.6826 0.6775
1103.000000 0.6478 0.6438 0.6378 0.6036 0.5512
1098.000000 0.5437 0.5371 0.5327 0.5281 0.5249
1093.000000 0.5267 0.5642 0.5751 0.5917 0.6062
1088.000000 0.6194 0.6308 0.6408 0.6461 0.6512
1083.000000 0.6558 0.6597 0.6634 0.6654 0.6671
1078.000000 0.6671 0.6671 0.6646 0.6619 0.6601
1073.000000 0.6587 0.6572 0.6571 0.6571 0.6587
1068.000000 0.6618 0.6654 0.6691 0.6731 0.6764
1063.000000 0.6790 0.6818 0.6848 0.6908 0.6956
1058.000000 0.6991 0.7001 0.7011 0.7018 0.7018
1053.000000 0.7019 0.7021 0.7021 0.7024 0.7025
1048.000000 0.7058 0.7031 0.7031 0.7026 0.7022
1043.000000 0.7011 0.6997 0.6983 0.6968 0.6950
1038.000000 0.6932 0.6914 0.6868 0.6818 0.6678
1033.000000 0.6568 0.6504 0.6456 0.6421 0.6401
1028.000000 0.6395 0.6399 0.6407 0.6421 0.6434
1023.000000 0.6451 0.6474 0.6498 0.6519 0.6534
1018.000000 0.6538 0.6515 0.6471 0.6040 0.5934
1013.000000 0.5885 0.5873 0.5882 0.5925 0.6022
1008.000000 0.6166 0.6260 0.6354 0.6448 0.6542
1003.000000 0.6571 0.6592 0.6590 0.6589 0.6588
998.000000 0.6565 0.6116 0.6006 0.5921 0.5823
993.000000 0.5749 0.5760 0.5768 0.5793 0.6018
988.000000 0.6238 0.6428 0.6583 0.6696 0.6789
983.000000 0.6862 0.6933 0.7000 0.7057 0.7115
978.000000 0.7151 0.7182 0.7188 0.7186 0.7186
973.000000 0.7186 0.7188 0.7193 0.7200 0.7236
968.000000 0.7281 0.7319 0.7358 0.7396 0.7432
963.000000 0.7467 0.7496 0.7525 0.7554 0.7572
958.000000 0.7593 0.7606 0.7612 0.7615 0.7618
953.000000 0.7625 0.7619 0.7611 0.7605 0.7574
948.000000 0.7530 0.7454 0.7315 0.7121 0.6930
943.000000 0.6740 0.6708 0.6730 0.6705 0.6765
938.000000 0.6997 0.7141 0.7245 0.7310 0.7369
933.000000 0.7428 0.7490 0.7544 0.7589 0.7633
928.000000 0.7676 0.7718 0.7758 0.7780 0.7801
923.000000 0.7819 0.7834 0.7837 0.7839 0.7842
918.000000 0.7833 0.7818 0.7797 0.7774 0.7751
913.000000 0.7751 0.7751 0.7754 0.7757 0.7757
908.000000 0.7754 0.7721 0.7684 0.7653 0.7635
903.000000 0.7622 0.7618 0.7612 0.7603 0.7439
898.000000 0.7211 0.7121 0.7067 0.7035 0.7008
893.000000 0.6968 0.6968 0.7087 0.7255 0.7321
888.000000 0.7387 0.7449 0.7484 0.7514 0.7530
883.000000 0.7545 0.7639 0.7728 0.7796 0.7862
878.000000 0.7931 0.7980 0.8028 0.8075 0.8108
873.000000 0.8144 0.8178 0.8213 0.8248 0.8283
868.000000 0.8318 0.8353 0.8381 0.8409 0.8431
863.000000 0.8442 0.8454 0.8463 0.8468 0.8475
858.000000 0.8478 0.8508 0.8482 0.8482 0.8482
853.000000 0.8475 0.8446 0.8323 0.8145 0.8025
848.000000 0.7872 0.7730 0.7653 0.7582 0.7391
843.000000 0.7199 0.7008 0.6974 0.6993 0.7171
838.000000 0.7345 0.7517 0.7690 0.7764 0.7771
833.000000 0.7778 0.7778 0.7778 0.7807 0.7842
828.000000 0.7898 0.7949 0.7990 0.8018 0.8040
823.000000 0.8054 0.8054 0.8053 0.8018 0.7925
818.000000 0.7604 0.7217 0.6630 0.6628 0.6626
813.000000 0.6639 0.6686 0.7037 0.7882 0.8058
808.000000 0.8108 0.8157 0.8197 0.8237 0.8277
803.000000 0.8314 0.8349 0.8387 0.8415 0.8450
798.000000 0.8450 0.8451 0.8457 0.8459 0.8453
793.000000 0.8442 0.8398 0.8309 0.8065 0.7968
788.000000 0.7956 0.8008 0.8203 0.8294 0.8344
783.000000 0.8382 0.8414 0.8445 0.8475 0.8492
778.000000 0.8498 0.8497 0.8496 0.8495 0.8490
773.000000 0.8482 0.8474 0.8466 0.8449 0.8431
768.000000 0.8414 0.8385 0.8356 0.8327 0.8301
763.000000 0.8277 0.8267 0.8267 0.8268 0.8274
758.000000 0.8280 0.8286 0.8291 0.8295 0.8300
753.000000 0.8304 0.8305 0.8305 0.8305 0.8297
748.000000 0.8285 0.8268 0.8254 0.8238 0.8221
743.000000 0.8204 0.8189 0.8178 0.8167 0.8158
738.000000 0.8151 0.8144 0.8136 0.8125 0.8115
733.000000 0.8106 0.8091 0.8075 0.8058 0.8035
728.000000 0.8006 0.7975 0.7942 0.7901 0.7846
723.000000 0.7804 0.7768 0.7781 0.7832 0.7976
718.000000 0.8041 0.8095 0.8138 0.8175 0.8207
713.000000 0.8236 0.8265 0.8294 0.8314 0.8323
708.000000 0.8323 0.8323 0.8323 0.8323 0.8316
703.000000 0.8306 0.8292 0.8270 0.8249 0.8228
698.000000 0.8205 0.8180 0.8156 0.8135 0.8114
693.000000 0.8097 0.8085 0.8071 0.8061 0.8053
688.000000 0.8047 0.8048 0.8049 0.8060 0.8086
683.000000 0.8115 0.8141 0.8145 0.8146 0.8146
678.000000 0.8146 0.8143 0.8140 0.8137 0.8126
673.000000 0.8115 0.8058 0.7987 0.7910 0.7839
668.000000 0.7761 0.7660 0.7555 0.7433 0.7275
663.000000 0.7104 0.6691 0.6331 0.5759 0.5792
658.000000 0.5783 0.5774 0.5774 0.5794 0.5871
653.000000 0.5973 0.6105 0.6257 0.6377 0.6462
648.000000 0.6541 0.6495 0.6505 0.6500 0.6471
643.000000 0.6398 0.6255 0.6046 0.5906 0.5943
638.000000 0.5958 0.6050 0.6164 0.6296 0.6380
633.000000 0.6468 0.6554 0.6641 0.6728 0.6815
628.000000 0.6903 0.6991 0.7078 0.7165 0.7253
623.000000 0.7340 0.7426 0.7514 0.7589 0.7621
618.000000 0.7636 0.7631 0.7639 0.7635 0.7621
613.000000 0.7593 0.7515 0.7258 0.6828 0.6398
608.000000 0.5968 0.5538 0.5108 0.4678 0.4285
603.000000 0.4248 0.4240 0.4244 0.4289 0.4755
598.000000 0.5064 0.5373 0.5681 0.5990 0.6298
593.000000 0.6607 0.6915 0.7224 0.7510 0.7580
588.000000 0.7612 0.7635 0.7641 0.7643 0.7633
583.000000 0.7607 0.7565 0.7506 0.7464 0.7472
578.000000 0.7608 0.7745 0.7864 0.7933 0.7984
573.000000 0.8012 0.8036 0.8036 0.8036 0.8033
568.000000 0.8030 0.8025 0.8018 0.8010 0.7992
563.000000 0.7961 0.7899 0.7833 0.7765 0.7726
558.000000 0.7726 0.7731 0.7734 0.7728 0.7717
553.000000 0.7691 0.7645 0.7601 0.7558 0.7528
548.000000 0.7506 0.7483 0.7465 0.7451 0.7437
543.000000 0.7425 0.7415 0.7411 0.7407 0.7403
538.000000 0.7399 0.7428 0.7469 0.7519 0.7561
533.000000 0.7593 0.7622 0.7647 0.7671 0.7694
528.000000 0.7708 0.7718 0.7728 0.7739 0.7737
523.000000 0.7735 0.7733 0.7730 0.7728 0.7725
518.000000 0.7722 0.7721 0.7718 0.7715 0.7712
513.000000 0.7710 0.7708 0.7705 0.7703 0.7700
508.000000 0.7699 0.7698 0.7698 0.7697 0.7696
503.000000 0.7696 0.7695 0.7694 0.7694 0.7693
498.000000 0.7693 0.7693 0.7694 0.7695 0.7696
493.000000 0.7697 0.7698 0.7699 0.7700 0.7701
488.000000 0.7701 0.7703 0.7704 0.7704 0.7705
483.000000 0.7705 0.7706 0.7707 0.7708 0.7711
478.000000 0.7715 0.7718 0.7722 0.7725 0.7731
473.000000 0.7742 0.7768 0.7796 0.7817 0.7839
468.000000 0.7842 0.7832 0.7819 0.7814 0.7814
463.000000 0.7815 0.7821 0.7828 0.7833 0.7839
458.000000 0.7844 0.7850 0.7851 0.7851 0.7849
453.000000 0.7848 0.7846 0.7846 0.7845 0.7846
448.000000 0.7848 0.7849 0.7851 0.7853 0.7854
443.000000 0.7856 0.7858 0.7860 0.7861 0.7840
438.000000 0.7865 0.7864 0.7861 0.7858 0.7855
433.000000 0.7851 0.7849 0.7845 0.7840 0.7832
428.000000 0.7824 0.7815 0.7808 0.7801 0.7793
423.000000 0.7785 0.7776 0.7768 0.7757 0.7744
418.000000 0.7731 0.7718 0.7705 0.7692 0.7678
413.000000 0.7665 0.7651 0.7639 0.7625 0.7611
408.000000 0.7599 0.7586 0.7571 0.7558 0.7545
403.000000 0.7533 0.7521 0.7508 0.7496 0.7484
398.000000 0.7471 0.7460 0.7447 0.7435 0.7424
393.000000 0.7411 0.7400 0.7389 0.7376 0.7365
388.000000 0.7353 0.7350 0.7347 0.7344 0.7339
##END=
