##TITLE=O,M'-SULFONYL DIBENZOIC ACID
##JCAMP-DX=4.24
##DATA TYPE=INFRARED SPECTRUM
##CLASS=COBLENTZ
##ORIGIN=TENNESSEE EASTMAN COMPANY, RESEARCH LABORATORIES
##OWNER=COBLENTZ SOCIETY
Collection (C) 2018 copyright by the U.S. Secretary of Commerce
on behalf of the United States of America. All rights reserved.
##DATE=Not specified, most likely prior to 1970
##MOLFORM=C14 H10 O6 S
##SOURCE REFERENCE=COBLENTZ NO. 233
##$NIST ID=B6000233
##$NIST SOURCE=COBLENTZ
##$NIST IMAGE=cob233
##SPECTROMETER/DATA SYSTEM=Not specified, most likely a prism, grating, or hybrid spectrometer.
##STATE=SOLID (NUJOL MULL)
##SAMPLING PROCEDURE=TRANSMISSION
##RESOLUTION=4
##DATA PROCESSING=DIGITIZED BY NIST FROM HARD COPY
##XUNITS=MICROMETERS
##YUNITS=TRANSMITTANCE
##XFACTOR=1.000000
##YFACTOR=1
##DELTAX=000.006489
##FIRSTX=2.091
##LASTX=15.8294
##FIRSTY=0.798
##MAXX=15.8294
##MINX=2.091
##MAXY=0.93
##MINY=0.061
##NPOINTS=2118
##XYDATA=(X++(Y..Y))
2.091000 0.7980 0.7980 0.7980 0.7980 0.7980
2.123462 0.7980 0.7980 0.7960 0.7960 0.7960
2.156000 0.7960 0.7960 0.7960 0.8000 0.8000
2.188462 0.8010 0.8010 0.8030 0.8030 0.8060
2.221000 0.8060 0.8060 0.8060 0.8060 0.8080
2.253462 0.8080 0.8080 0.8080 0.8090 0.8090
2.286000 0.8090 0.8090 0.8090 0.8110 0.8110
2.318462 0.8110 0.8110 0.8110 0.8110 0.8110
2.351000 0.8110 0.8130 0.8130 0.8130 0.8130
2.383462 0.8130 0.8130 0.8140 0.8160 0.8170
2.416000 0.8170 0.8170 0.8210 0.8220 0.8240
2.448462 0.8260 0.8290 0.8340 0.8370 0.8390
2.481000 0.8400 0.8400 0.8420 0.8420 0.8430
2.513462 0.8450 0.8450 0.8470 0.8470 0.8480
2.546000 0.8480 0.8500 0.8500 0.8500 0.8520
2.578462 0.8520 0.8520 0.8520 0.8550 0.8550
2.611000 0.8560 0.8560 0.8580 0.8580 0.8600
2.643462 0.8630 0.8680 0.8710 0.8730 0.8730
2.676000 0.8740 0.8760 0.8780 0.8780 0.8810
2.708462 0.8840 0.8860 0.8860 0.8870 0.8870
2.740000 0.8870 0.8870 0.8870 0.8870 0.8870
2.772462 0.8870 0.8870 0.8870 0.8870 0.8870
2.805000 0.8870 0.8870 0.8870 0.8870 0.8870
2.837462 0.8870 0.8870 0.8870 0.8870 0.8860
2.870000 0.8860 0.8840 0.8840 0.8840 0.8820
2.902462 0.8820 0.8810 0.8810 0.8810 0.8760
2.935000 0.8730 0.8680 0.8630 0.8630 0.8560
2.967462 0.8550 0.8480 0.8470 0.8390 0.8340
3.000000 0.8290 0.8240 0.8220 0.8130 0.8040
3.032462 0.8000 0.7980 0.7860 0.7800 0.7700
3.065000 0.7650 0.7510 0.7470 0.7360 0.7250
3.097462 0.7150 0.7050 0.6910 0.6760 0.6680
3.130000 0.6600 0.6420 0.6350 0.6190 0.6090
3.162462 0.5900 0.5800 0.5720 0.5520 0.5440
3.195000 0.5280 0.5130 0.5000 0.4910 0.4630
3.227462 0.4400 0.4240 0.4060 0.3930 0.3880
3.260000 0.3880 0.3860 0.3850 0.3830 0.3720
3.292462 0.3650 0.3640 0.3340 0.3330 0.3230
3.324000 0.3120 0.2920 0.2760 0.2400 0.2010
3.356462 0.1620 0.1380 0.1230 0.1100 0.0940
3.389000 0.0890 0.0780 0.0740 0.0690 0.0690
3.421462 0.0660 0.0630 0.0610 0.0610 0.0610
3.454000 0.0610 0.0630 0.0630 0.0650 0.0660
3.486462 0.0690 0.0730 0.0820 0.1150 0.1430
3.519000 0.1700 0.1980 0.3020 0.3260 0.3600
3.551462 0.3720 0.3910 0.4030 0.4190 0.4300
3.584000 0.4430 0.4600 0.4690 0.4840 0.4970
3.616462 0.5070 0.5130 0.5170 0.5170 0.5180
3.649000 0.5180 0.5180 0.5180 0.5180 0.5180
3.681462 0.5180 0.5180 0.5180 0.5180 0.5170
3.714000 0.5170 0.5150 0.5130 0.5040 0.4990
3.746462 0.4910 0.4780 0.4610 0.4480 0.4450
3.779000 0.4420 0.4420 0.4420 0.4420 0.4430
3.811462 0.4470 0.4560 0.4660 0.4740 0.4840
3.844000 0.4990 0.5050 0.5070 0.5080 0.5120
3.876462 0.5150 0.5150 0.5170 0.5170 0.5170
3.909000 0.5170 0.5170 0.5130 0.5070 0.5040
3.941462 0.4970 0.4890 0.4860 0.4860 0.4860
3.973000 0.4860 0.4940 0.5000 0.5080 0.5180
4.005462 0.5280 0.5360 0.5490 0.5590 0.5750
4.038000 0.5900 0.6000 0.6130 0.6210 0.6260
4.070462 0.6340 0.6400 0.6520 0.6550 0.6610
4.103000 0.6730 0.6740 0.6820 0.6860 0.6920
4.135462 0.6940 0.6990 0.7050 0.7150 0.7180
4.168000 0.7210 0.7230 0.7260 0.7300 0.7330
4.200462 0.7390 0.7440 0.7470 0.7510 0.7560
4.233000 0.7650 0.7670 0.7690 0.7700 0.7720
4.265462 0.7750 0.7780 0.7800 0.7820 0.7850
4.298000 0.7860 0.7880 0.7910 0.7960 0.8000
4.330462 0.8010 0.8010 0.8080 0.8130 0.8190
4.363000 0.8220 0.8240 0.8300 0.8340 0.8350
4.395462 0.8400 0.8420 0.8420 0.8430 0.8430
4.428000 0.8450 0.8470 0.8470 0.8470 0.8470
4.460462 0.8480 0.8480 0.8500 0.8520 0.8530
4.493000 0.8550 0.8550 0.8580 0.8610 0.8650
4.525462 0.8660 0.8680 0.8680 0.8690 0.8690
4.557000 0.8730 0.8740 0.8760 0.8760 0.8790
4.589462 0.8810 0.8810 0.8820 0.8840 0.8870
4.622000 0.8870 0.8890 0.8910 0.8910 0.8920
4.654462 0.8940 0.8940 0.8950 0.8970 0.8970
4.687000 0.8990 0.8990 0.9000 0.9000 0.9000
4.719462 0.9000 0.9000 0.9000 0.9000 0.9000
4.752000 0.9000 0.9000 0.9040 0.9070 0.9080
4.784462 0.9100 0.9130 0.9150 0.9170 0.9200
4.817000 0.9230 0.9250 0.9250 0.9260 0.9260
4.849462 0.9280 0.9280 0.9300 0.9300 0.9300
4.882000 0.9300 0.9280 0.9280 0.9280 0.9280
4.914462 0.9260 0.9260 0.9260 0.9260 0.9260
4.947000 0.9250 0.9250 0.9250 0.9250 0.9230
4.979462 0.9230 0.9230 0.9210 0.9210 0.9210
5.012000 0.9210 0.9200 0.9200 0.9180 0.9180
5.044462 0.9170 0.9170 0.9150 0.9150 0.9130
5.077000 0.9130 0.9130 0.9130 0.9130 0.9130
5.109462 0.9120 0.9100 0.9100 0.9080 0.9070
5.141000 0.9040 0.9020 0.8990 0.8970 0.8970
5.173462 0.8970 0.8950 0.8970 0.8970 0.8970
5.206000 0.8970 0.8970 0.8970 0.8970 0.8970
5.238462 0.8970 0.8970 0.8970 0.8970 0.8970
5.271000 0.8970 0.8970 0.8970 0.8970 0.8970
5.303462 0.8970 0.8970 0.8950 0.8950 0.8940
5.336000 0.8920 0.8910 0.8870 0.8860 0.8780
5.368462 0.8730 0.8710 0.8710 0.8690 0.8690
5.401000 0.8690 0.8690 0.8710 0.8730 0.8730
5.433462 0.8730 0.8740 0.8740 0.8740 0.8760
5.466000 0.8760 0.8760 0.8760 0.8780 0.8780
5.498462 0.8780 0.8780 0.8780 0.8780 0.8790
5.531000 0.8790 0.8790 0.8790 0.8790 0.8790
5.563462 0.8790 0.8790 0.8790 0.8780 0.8780
5.596000 0.8760 0.8760 0.8740 0.8740 0.8730
5.628462 0.8730 0.8710 0.8660 0.8630 0.8580
5.661000 0.8560 0.8480 0.8420 0.8340 0.8170
5.693462 0.8140 0.8000 0.7800 0.7640 0.7460
5.726000 0.7300 0.7170 0.7080 0.7040 0.6870
5.758462 0.6740 0.6600 0.6110 0.5720 0.5520
5.790000 0.5040 0.4690 0.4480 0.3910 0.3390
5.822462 0.3100 0.2790 0.2340 0.1910 0.1460
5.855000 0.1310 0.1120 0.1050 0.1000 0.0990
5.887462 0.0940 0.0870 0.0840 0.0820 0.0760
5.920000 0.0730 0.0730 0.0740 0.0740 0.0910
5.952462 0.1130 0.1430 0.1950 0.2320 0.2610
5.985000 0.3170 0.4040 0.4470 0.4990 0.5310
6.017462 0.5440 0.5560 0.5730 0.5860 0.6010
6.050000 0.6160 0.6290 0.6390 0.6600 0.6790
6.082462 0.6870 0.7020 0.7050 0.7230 0.7280
6.115000 0.7330 0.7430 0.7510 0.7600 0.7670
6.147462 0.7750 0.7820 0.7850 0.7900 0.7930
6.180000 0.8000 0.8000 0.8000 0.8000 0.7850
6.212462 0.7600 0.7130 0.6760 0.6530 0.6300
6.245000 0.5950 0.5950 0.6060 0.6210 0.6240
6.277462 0.6190 0.6110 0.6090 0.6140 0.6320
6.310000 0.6530 0.6730 0.6780 0.6810 0.6860
6.342462 0.6950 0.7590 0.7910 0.8130 0.8290
6.374000 0.8370 0.8430 0.8450 0.8500 0.8550
6.406462 0.8560 0.8650 0.8730 0.8820 0.8860
6.439000 0.8870 0.8890 0.8910 0.8920 0.8940
6.471462 0.8970 0.9000 0.9020 0.9040 0.9070
6.504000 0.9080 0.9100 0.9100 0.9120 0.9120
6.536462 0.9120 0.9130 0.9130 0.9130 0.9130
6.569000 0.9130 0.9130 0.9130 0.9120 0.9120
6.601462 0.9100 0.9080 0.9050 0.9020 0.9000
6.634000 0.8870 0.8860 0.8780 0.8710 0.8680
6.666462 0.8580 0.8370 0.8300 0.8130 0.7860
6.699000 0.7540 0.7100 0.6690 0.6550 0.6400
6.731462 0.6060 0.5780 0.5600 0.5430 0.5000
6.764000 0.4680 0.4320 0.4080 0.3860 0.3460
6.796462 0.3430 0.3360 0.3340 0.3340 0.3340
6.829000 0.3340 0.3340 0.3330 0.3330 0.3330
6.861462 0.3330 0.3330 0.3330 0.3330 0.3330
6.894000 0.3330 0.3340 0.3380 0.3440 0.3780
6.926462 0.4040 0.4530 0.4820 0.5000 0.5260
6.958000 0.5340 0.5380 0.5460 0.5440 0.5360
6.990462 0.5250 0.5130 0.4990 0.4660 0.3960
7.023000 0.3860 0.3600 0.3380 0.3130 0.2970
7.055462 0.2950 0.2950 0.2950 0.3000 0.3080
7.088000 0.3300 0.3800 0.4090 0.4270 0.4630
7.120462 0.4910 0.5210 0.5490 0.5720 0.5950
7.153000 0.6190 0.6290 0.6350 0.6390 0.6350
7.185462 0.6240 0.6170 0.5860 0.5590 0.5560
7.218000 0.5120 0.4970 0.4860 0.4710 0.4650
7.250462 0.4650 0.4680 0.4730 0.4820 0.5000
7.283000 0.5440 0.5650 0.5800 0.5910 0.6000
7.315462 0.6130 0.6170 0.6320 0.6530 0.6630
7.348000 0.6870 0.7040 0.7150 0.7180 0.7260
7.380462 0.7280 0.7300 0.7310 0.7310 0.7310
7.413000 0.7310 0.7310 0.7310 0.7300 0.7280
7.445462 0.7260 0.7180 0.7100 0.6810 0.6690
7.478000 0.6580 0.6260 0.5850 0.5340 0.4780
7.510462 0.4130 0.3640 0.3330 0.3020 0.2520
7.543000 0.2060 0.1800 0.1750 0.1750 0.1770
7.575462 0.1820 0.1820 0.1780 0.1730 0.1670
7.607000 0.1590 0.1520 0.1330 0.1250 0.1230
7.639462 0.1080 0.1020 0.0990 0.0970 0.0970
7.672000 0.0970 0.0970 0.0970 0.0970 0.0970
7.704462 0.0970 0.0970 0.0970 0.0970 0.0970
7.737000 0.0970 0.0970 0.0970 0.1000 0.1050
7.769462 0.1150 0.1250 0.1410 0.1730 0.1960
7.802000 0.2170 0.2320 0.2420 0.2580 0.2730
7.834462 0.2760 0.2860 0.2920 0.2970 0.3000
7.867000 0.3020 0.3020 0.3000 0.2990 0.2990
7.899462 0.2990 0.3000 0.3040 0.3180 0.3670
7.932000 0.3960 0.4130 0.4450 0.4780 0.5040
7.964462 0.5250 0.5380 0.5590 0.5750 0.5900
7.997000 0.6060 0.6240 0.6370 0.6430 0.6500
8.029462 0.6630 0.6760 0.6810 0.6870 0.6940
8.062000 0.6990 0.7040 0.7150 0.7230 0.7260
8.094462 0.7310 0.7380 0.7410 0.7440 0.7470
8.127000 0.7540 0.7590 0.7620 0.7640 0.7670
8.159462 0.7700 0.7720 0.7750 0.7770 0.7800
8.191000 0.7830 0.7850 0.7880 0.7910 0.7950
8.223462 0.7960 0.8000 0.8030 0.8030 0.8040
8.256000 0.8060 0.8060 0.8080 0.8080 0.8090
8.288462 0.8110 0.8110 0.8130 0.8130 0.8140
8.321000 0.8140 0.8140 0.8140 0.8140 0.8140
8.353462 0.8140 0.8140 0.8130 0.8130 0.8080
8.386000 0.8060 0.7860 0.7770 0.7540 0.7390
8.418462 0.7210 0.7120 0.7000 0.6870 0.6740
8.451000 0.6690 0.6630 0.6470 0.6240 0.6030
8.483462 0.5800 0.5590 0.5020 0.4630 0.4220
8.516000 0.3910 0.3440 0.3300 0.3130 0.2950
8.548462 0.2730 0.2580 0.2480 0.2340 0.2260
8.581000 0.2160 0.2080 0.2080 0.2080 0.2080
8.613462 0.2130 0.2300 0.2480 0.2790 0.3100
8.646000 0.3600 0.3770 0.3910 0.4010 0.4110
8.678462 0.4210 0.4240 0.4290 0.4300 0.4300
8.711000 0.4260 0.4190 0.4030 0.3800 0.3560
8.743462 0.3380 0.3300 0.3200 0.3150 0.3120
8.775000 0.3120 0.3210 0.3800 0.4160 0.4530
8.807462 0.4780 0.5100 0.5250 0.5360 0.5430
8.840000 0.5460 0.5460 0.5430 0.5340 0.5170
8.872462 0.5050 0.4860 0.4780 0.4690 0.4630
8.905000 0.4630 0.4630 0.4650 0.4680 0.4760
8.937462 0.4860 0.5210 0.5380 0.5540 0.5800
8.970000 0.6010 0.6260 0.6300 0.6520 0.6860
9.002462 0.6950 0.6990 0.7150 0.7230 0.7310
9.035000 0.7390 0.7510 0.7570 0.7640 0.7690
9.067462 0.7730 0.7770 0.7800 0.7820 0.7850
9.100000 0.7850 0.7850 0.7850 0.7700 0.7690
9.132462 0.7590 0.7210 0.6810 0.6680 0.6550
9.165000 0.6240 0.5980 0.5750 0.5540 0.5390
9.197462 0.5380 0.5310 0.5260 0.5250 0.5250
9.230000 0.5260 0.5310 0.5330 0.5540 0.5910
9.262462 0.6080 0.6320 0.6920 0.7080 0.7330
9.295000 0.7490 0.7570 0.7780 0.7860 0.8000
9.327462 0.8030 0.8170 0.8260 0.8340 0.8400
9.360000 0.8430 0.8470 0.8480 0.8480 0.8500
9.392462 0.8500 0.8500 0.8500 0.8480 0.8450
9.424000 0.8430 0.8390 0.8320 0.8260 0.8170
9.456462 0.8080 0.8010 0.8000 0.8010 0.8010
9.489000 0.8040 0.8140 0.8210 0.8320 0.8400
9.521462 0.8430 0.8450 0.8470 0.8470 0.8470
9.554000 0.8470 0.8450 0.8430 0.8420 0.8420
9.586462 0.8420 0.8420 0.8420 0.8400 0.8420
9.619000 0.8430 0.8430 0.8430 0.8430 0.8470
9.651462 0.8480 0.8480 0.8500 0.8500 0.8500
9.684000 0.8520 0.8520 0.8550 0.8560 0.8560
9.716462 0.8580 0.8580 0.8600 0.8600 0.8610
9.749000 0.8610 0.8610 0.8610 0.8630 0.8630
9.781462 0.8630 0.8630 0.8630 0.8630 0.8630
9.814000 0.8630 0.8630 0.8610 0.8630 0.8630
9.846462 0.8610 0.8580 0.8550 0.8520 0.8500
9.879000 0.8470 0.8450 0.8430 0.8420 0.8400
9.911462 0.8390 0.8340 0.8300 0.8240 0.8190
9.944000 0.8110 0.8030 0.8010 0.8000 0.7960
9.976462 0.7960 0.7950 0.7960 0.7980 0.8010
10.008000 0.8010 0.8040 0.8090 0.8190 0.8290
10.040462 0.8340 0.8390 0.8420 0.8420 0.8420
10.073000 0.8420 0.8400 0.8400 0.8400 0.8400
10.105462 0.8400 0.8400 0.8400 0.8400 0.8390
10.138000 0.8370 0.8370 0.8340 0.8300 0.8270
10.170462 0.8240 0.8240 0.8110 0.8000 0.7980
10.203000 0.7880 0.7830 0.7800 0.7750 0.7730
10.235462 0.7690 0.7650 0.7620 0.7560 0.7540
10.268000 0.7520 0.7510 0.7510 0.7510 0.7510
10.300462 0.7490 0.7490 0.7490 0.7490 0.7470
10.333000 0.7460 0.7430 0.7380 0.7330 0.7260
10.365462 0.7230 0.7150 0.7130 0.7070 0.6950
10.398000 0.6870 0.6780 0.6690 0.6680 0.6650
10.430462 0.6550 0.6470 0.6400 0.6320 0.6220
10.463000 0.6170 0.6040 0.6010 0.5930 0.5900
10.495462 0.5780 0.5700 0.5600 0.5520 0.5510
10.528000 0.5440 0.5390 0.5340 0.5330 0.5310
10.560462 0.5310 0.5300 0.5300 0.5300 0.5310
10.592000 0.5310 0.5310 0.5360 0.5410 0.5430
10.624462 0.5490 0.5520 0.5570 0.5620 0.5650
10.657000 0.5700 0.5750 0.5750 0.5770 0.5780
10.689462 0.5800 0.5830 0.5830 0.5830 0.5830
10.722000 0.5830 0.5830 0.5830 0.5830 0.5830
10.754462 0.5830 0.5820 0.5780 0.5770 0.5750
10.787000 0.5720 0.5690 0.5640 0.5620 0.5620
10.819462 0.5620 0.5620 0.5620 0.5620 0.5620
10.852000 0.5640 0.5640 0.5640 0.5650 0.5690
10.884462 0.5770 0.5830 0.5860 0.6000 0.6030
10.917000 0.6090 0.6170 0.6240 0.6320 0.6350
10.949462 0.6420 0.6480 0.6580 0.6630 0.6730
10.982000 0.6810 0.6840 0.6870 0.6910 0.6950
11.014462 0.6970 0.7040 0.7120 0.7170 0.7180
11.047000 0.7230 0.7250 0.7260 0.7260 0.7280
11.079462 0.7280 0.7300 0.7300 0.7300 0.7330
11.112000 0.7330 0.7360 0.7390 0.7470 0.7510
11.144462 0.7540 0.7570 0.7600 0.7600 0.7620
11.177000 0.7620 0.7640 0.7640 0.7640 0.7650
11.209462 0.7670 0.7690 0.7720 0.7730 0.7780
11.241000 0.7820 0.7860 0.7900 0.8000 0.8010
11.273462 0.8030 0.8030 0.8090 0.8130 0.8160
11.306000 0.8190 0.8240 0.8260 0.8300 0.8340
11.338462 0.8350 0.8350 0.8370 0.8390 0.8390
11.371000 0.8390 0.8390 0.8400 0.8400 0.8400
11.403462 0.8400 0.8400 0.8400 0.8400 0.8400
11.436000 0.8400 0.8400 0.8400 0.8400 0.8400
11.468462 0.8400 0.8400 0.8400 0.8400 0.8400
11.501000 0.8400 0.8390 0.8390 0.8370 0.8350
11.533462 0.8340 0.8300 0.8260 0.8220 0.8190
11.566000 0.8090 0.8030 0.7980 0.7820 0.7700
11.598462 0.7640 0.7470 0.7390 0.7280 0.7210
11.631000 0.7100 0.7000 0.6920 0.6810 0.6730
11.663462 0.6710 0.6690 0.6690 0.6690 0.6690
11.696000 0.6690 0.6690 0.6730 0.6740 0.6780
11.728462 0.6860 0.6910 0.6990 0.7040 0.7180
11.761000 0.7260 0.7340 0.7460 0.7510 0.7600
11.793462 0.7730 0.7820 0.7850 0.8000 0.8040
11.825000 0.8080 0.8160 0.8240 0.8320 0.8350
11.857462 0.8400 0.8430 0.8450 0.8480 0.8500
11.890000 0.8520 0.8530 0.8550 0.8580 0.8610
11.922462 0.8650 0.8690 0.8730 0.8780 0.8810
11.955000 0.8860 0.8890 0.8910 0.8920 0.8950
11.987462 0.8990 0.8990 0.8990 0.8990 0.8990
12.020000 0.8990 0.8990 0.8970 0.8950 0.8940
12.052462 0.8910 0.8820 0.8740 0.8630 0.8430
12.085000 0.8350 0.8260 0.8110 0.8000 0.7910
12.117462 0.7780 0.7620 0.7520 0.7460 0.7300
12.150000 0.7260 0.7250 0.7250 0.7250 0.7250
12.182462 0.7250 0.7250 0.7250 0.7250 0.7250
12.215000 0.7250 0.7250 0.7250 0.7250 0.7250
12.247462 0.7250 0.7260 0.7260 0.7280 0.7280
12.280000 0.7280 0.7300 0.7300 0.7310 0.7310
12.312462 0.7310 0.7310 0.7310 0.7330 0.7360
12.345000 0.7360 0.7390 0.7430 0.7460 0.7520
12.377462 0.7560 0.7590 0.7620 0.7640 0.7620
12.409000 0.7620 0.7600 0.7590 0.7460 0.7260
12.441462 0.7150 0.7000 0.6810 0.6660 0.6600
12.474000 0.6520 0.6470 0.6320 0.6260 0.6160
12.506462 0.6130 0.6040 0.6010 0.6010 0.6060
12.539000 0.6080 0.6190 0.6340 0.6520 0.6920
12.571462 0.7040 0.7230 0.7340 0.7470 0.7620
12.604000 0.7700 0.7820 0.7900 0.8010 0.8030
12.636462 0.8110 0.8140 0.8220 0.8270 0.8350
12.669000 0.8400 0.8420 0.8430 0.8450 0.8470
12.701462 0.8470 0.8480 0.8480 0.8520 0.8530
12.734000 0.8530 0.8530 0.8530 0.8530 0.8530
12.766462 0.8530 0.8530 0.8530 0.8530 0.8530
12.799000 0.8530 0.8530 0.8530 0.8530 0.8530
12.831462 0.8530 0.8530 0.8480 0.8450 0.8430
12.864000 0.8370 0.8320 0.8220 0.8090 0.7830
12.896462 0.7690 0.7440 0.7210 0.6920 0.6710
12.929000 0.6600 0.6470 0.6350 0.6220 0.6190
12.961462 0.6140 0.6140 0.6130 0.6130 0.6130
12.994000 0.6130 0.6110 0.6090 0.6000 0.5930
13.026462 0.5750 0.5670 0.5390 0.5200 0.4910
13.058000 0.4660 0.4430 0.4080 0.3830 0.3570
13.090462 0.3390 0.3340 0.3280 0.3230 0.3230
13.123000 0.3250 0.3310 0.3620 0.3910 0.4130
13.155462 0.4370 0.4660 0.4860 0.5000 0.5200
13.188000 0.5340 0.5460 0.5590 0.5950 0.6170
13.220462 0.6370 0.6600 0.7080 0.7250 0.7380
13.253000 0.7470 0.7650 0.7770 0.7850 0.7980
13.285462 0.8030 0.8080 0.8110 0.8140 0.8210
13.318000 0.8210 0.8220 0.8220 0.8220 0.8220
13.350462 0.8220 0.8220 0.8220 0.8170 0.8160
13.383000 0.8080 0.8010 0.7960 0.7780 0.7720
13.415462 0.7540 0.7380 0.7230 0.7050 0.6810
13.448000 0.6730 0.6650 0.6370 0.6240 0.6010
13.480462 0.5730 0.5570 0.5380 0.5100 0.5000
13.513000 0.4920 0.4860 0.4790 0.4760 0.4760
13.545462 0.4760 0.4760 0.4780 0.4820 0.4920
13.578000 0.5070 0.5170 0.5250 0.5360 0.5560
13.610462 0.5690 0.5830 0.5950 0.6090 0.6220
13.642000 0.6270 0.6320 0.6370 0.6420 0.6470
13.674462 0.6530 0.6560 0.6610 0.6630 0.6650
13.707000 0.6650 0.6650 0.6650 0.6650 0.6660
13.739462 0.6660 0.6680 0.6680 0.6680 0.6680
13.772000 0.6680 0.6680 0.6660 0.6660 0.6660
13.804462 0.6650 0.6580 0.6550 0.6530 0.6320
13.837000 0.6300 0.6210 0.6040 0.5860 0.5720
13.869462 0.5520 0.5380 0.5120 0.5020 0.4920
13.902000 0.4820 0.4760 0.4660 0.4610 0.4600
13.934462 0.4600 0.4600 0.4610 0.4630 0.4650
13.967000 0.4740 0.4920 0.5050 0.5170 0.5280
13.999462 0.5410 0.5570 0.5770 0.6010 0.6210
14.032000 0.6340 0.6450 0.6530 0.6760 0.6810
14.064462 0.6860 0.6940 0.6990 0.7040 0.7120
14.097000 0.7180 0.7210 0.7250 0.7260 0.7280
14.129462 0.7280 0.7300 0.7300 0.7300 0.7300
14.162000 0.7300 0.7300 0.7300 0.7300 0.7300
14.194462 0.7300 0.7300 0.7260 0.7250 0.7180
14.226000 0.7150 0.7050 0.6990 0.6910 0.6820
14.258462 0.6740 0.6650 0.6580 0.6470 0.6390
14.291000 0.6260 0.6160 0.6010 0.5960 0.5830
14.323462 0.5730 0.5650 0.5590 0.5470 0.5440
14.356000 0.5410 0.5380 0.5360 0.5330 0.5330
14.388462 0.5330 0.5330 0.5340 0.5340 0.5380
14.421000 0.5390 0.5430 0.5460 0.5560 0.5620
14.453462 0.5650 0.5690 0.5780 0.5850 0.5910
14.486000 0.6000 0.6030 0.6060 0.6110 0.6160
14.518462 0.6190 0.6240 0.6290 0.6320 0.6390
14.551000 0.6390 0.6400 0.6430 0.6520 0.6530
14.583462 0.6560 0.6600 0.6610 0.6630 0.6660
14.616000 0.6680 0.6680 0.6690 0.6690 0.6690
14.648462 0.6680 0.6660 0.6660 0.6650 0.6630
14.681000 0.6610 0.6530 0.6480 0.6370 0.6300
14.713462 0.6190 0.6060 0.5980 0.5850 0.5720
14.746000 0.5600 0.5460 0.5410 0.5170 0.5120
14.778462 0.5040 0.5020 0.5000 0.5000 0.4990
14.811000 0.4970 0.4950 0.4950 0.4950 0.4950
14.843462 0.4970 0.4970 0.4970 0.5000 0.5070
14.875000 0.5150 0.5180 0.5260 0.5280 0.5330
14.907462 0.5470 0.5620 0.5730 0.5820 0.5960
14.940000 0.6030 0.6080 0.6260 0.6300 0.6400
14.972462 0.6470 0.6550 0.6650 0.6820 0.6860
15.005000 0.6890 0.6940 0.6970 0.7020 0.7070
15.037462 0.7080 0.7120 0.7150 0.7170 0.7200
15.070000 0.7210 0.7210 0.7210 0.7210 0.7210
15.102462 0.7210 0.7210 0.7210 0.7210 0.7200
15.135000 0.7200 0.7180 0.7170 0.7150 0.7150
15.167462 0.6990 0.6920 0.6820 0.6730 0.6680
15.200000 0.6630 0.6580 0.6470 0.6390 0.6260
15.232462 0.6190 0.6170 0.6060 0.5930 0.5860
15.265000 0.5800 0.5750 0.5720 0.5690 0.5650
15.297462 0.5620 0.5590 0.5570 0.5570 0.5560
15.330000 0.5540 0.5540 0.5520 0.5510 0.5510
15.362462 0.5510 0.5510 0.5510 0.5510 0.5510
15.395000 0.5510 0.5510 0.5520 0.5520 0.5520
15.427462 0.5520 0.5520 0.5520 0.5540 0.5560
15.459000 0.5560 0.5570 0.5570 0.5590 0.5590
15.491462 0.5600 0.5600 0.5640 0.5650 0.5670
15.524000 0.5690 0.5700 0.5720 0.5730 0.5750
15.556462 0.5750 0.5780 0.5800 0.5820 0.5830
15.589000 0.5830 0.5860 0.5910 0.5930 0.5960
15.621462 0.5980 0.6010 0.6040 0.6090 0.6110
15.654000 0.6140 0.6160 0.6190 0.6220 0.6240
15.686462 0.6270 0.6300 0.6340 0.6370 0.6390
15.719000 0.6420 0.6430 0.6470 0.6480 0.6520
15.751462 0.6530 0.6560 0.6560 0.6580 0.6600
15.784000 0.6600 0.6610 0.6630 0.6660 0.6680
15.816462 0.6680 0.6660 0.6680
##END=
