##TITLE=Pyrimidine, 4-chloro-6-hydrazino-5-nitro-
##JCAMP-DX=4.24
##DATA TYPE=INFRARED SPECTRUM
##CLASS=COBLENTZ III
##ORIGIN=SOUTHERN RESEARCH INSTITUTE
##OWNER=Copyright (C) 1987 by the Coblentz Society
Collection (C) 2018 copyright by the U.S. Secretary of Commerce
on behalf of the United States of America. All rights reserved.
##DATE=1959/07/17
##NAMES=4-chloro-6-hydrazino-5-nitropyrimidine
##MOLFORM=C4 H4 Cl N5 O2
##SOURCE REFERENCE=COBLENTZ NO. 8739
##$NIST ID=B6008739
##$NIST SOURCE=COBLENTZ
##$NIST IMAGE=cob8739
##SPECTROMETER/DATA SYSTEM=PERKIN-ELMER 21 (GRATING)
##INSTRUMENT PARAMETERS=FILTER CHANGE ABOUT 1090 CM^-^1
##STATE=SOLID (0.8 mg / 650 mg KBr DISC)
##SAMPLING PROCEDURE=TRANSMISSION
##RESOLUTION=2
##DATA PROCESSING=DIGITIZED BY COBLENTZ SOCIETY (BATCH II) FROM HARD COPY
##XUNITS=1/CM
##YUNITS=TRANSMITTANCE
##XFACTOR=1.0
##YFACTOR=1
##FIRSTX=606
##LASTX=4000
##FIRSTY=1.0205
##MAXX=4000
##MINX=606
##MAXY=1.0228
##MINY=0.1465
##NPOINTS=3395
##XYDATA=(X++(Y..Y))
606.000000 1.0205 1.0208 1.0212 1.0216 1.0221
611.000000 1.0227 1.0228 1.0227 1.0227 1.0226
616.000000 1.0226 1.0224 1.0223 1.0222 1.0221
621.000000 1.0219 1.0218 1.0217 1.0215 1.0213
626.000000 1.0212 1.0189 1.0206 1.0199 1.0192
631.000000 1.0186 1.0179 1.0172 1.0166 1.0159
636.000000 1.0153 1.0146 1.0135 1.0124 1.0113
641.000000 1.0102 1.0089 1.0074 1.0059 1.0045
646.000000 1.0030 1.0014 0.9998 0.9983 0.9967
651.000000 0.9951 0.9936 0.9919 0.9903 0.9888
656.000000 0.9880 0.9872 0.9861 0.9845 0.9828
661.000000 0.9805 0.9774 0.9744 0.9714 0.9691
666.000000 0.9671 0.9651 0.9635 0.9621 0.9607
671.000000 0.9597 0.9591 0.9584 0.9578 0.9556
676.000000 0.9535 0.9512 0.9479 0.9455 0.9447
681.000000 0.9438 0.9431 0.9427 0.9423 0.9419
686.000000 0.9416 0.9410 0.9403 0.9396 0.9389
691.000000 0.9382 0.9372 0.9361 0.9350 0.9334
696.000000 0.9315 0.9295 0.9272 0.9242 0.9211
701.000000 0.9181 0.9153 0.9127 0.9101 0.9076
706.000000 0.9052 0.9030 0.9008 0.8985 0.8954
711.000000 0.8917 0.8880 0.8779 0.8587 0.8381
716.000000 0.8235 0.8093 0.7970 0.7889 0.7881
721.000000 0.7884 0.7895 0.8563 0.8901 0.8962
726.000000 0.9014 0.9039 0.9052 0.9057 0.9057
731.000000 0.9079 0.9007 0.8956 0.8918 0.8893
736.000000 0.8875 0.8861 0.8847 0.8833 0.8818
741.000000 0.8804 0.8790 0.8776 0.8760 0.8743
746.000000 0.8726 0.8709 0.8692 0.8674 0.8657
751.000000 0.8641 0.8625 0.8608 0.8592 0.8577
756.000000 0.8562 0.8547 0.8532 0.8517 0.8439
761.000000 0.8365 0.8295 0.8242 0.8194 0.8157
766.000000 0.8131 0.8105 0.8080 0.8057 0.8034
771.000000 0.8011 0.7989 0.7967 0.7941 0.6998
776.000000 0.6898 0.6906 0.6906 0.7085 0.7323
781.000000 0.7561 0.7799 0.8036 0.8122 0.8138
786.000000 0.8151 0.8162 0.8162 0.8162 0.8156
791.000000 0.8167 0.8143 0.8134 0.8123 0.8113
796.000000 0.8103 0.8089 0.8070 0.8051 0.8032
801.000000 0.8012 0.7992 0.7973 0.7947 0.7922
806.000000 0.7896 0.7869 0.7835 0.7801 0.7767
811.000000 0.7732 0.7696 0.7660 0.7619 0.7576
816.000000 0.7533 0.7490 0.7448 0.7405 0.7361
821.000000 0.7302 0.7212 0.6664 0.6434 0.6321
826.000000 0.6200 0.6057 0.5700 0.5491 0.5361
831.000000 0.5129 0.4535 0.3942 0.3349 0.2998
836.000000 0.2966 0.2967 0.2970 0.3343 0.3826
841.000000 0.4309 0.4791 0.5274 0.5757 0.6240
846.000000 0.6722 0.7205 0.7383 0.7395 0.7380
851.000000 0.7376 0.7342 0.6850 0.6207 0.5564
856.000000 0.4921 0.4278 0.3776 0.3779 0.3784
861.000000 0.4327 0.4909 0.5492 0.6074 0.6657
866.000000 0.7239 0.7833 0.7924 0.7992 0.8067
871.000000 0.8161 0.8261 0.8363 0.8445 0.8493
876.000000 0.8540 0.8584 0.8627 0.8670 0.8742
881.000000 0.8801 0.8834 0.8848 0.8849 0.8849
886.000000 0.8849 0.8849 0.8850 0.8849 0.8848
891.000000 0.8847 0.8845 0.8844 0.8842 0.8841
896.000000 0.8840 0.8841 0.8841 0.8841 0.8841
901.000000 0.8841 0.8841 0.8841 0.8840 0.8840
906.000000 0.8838 0.8832 0.8827 0.8821 0.8811
911.000000 0.8802 0.8792 0.8790 0.8791 0.8791
916.000000 0.8788 0.8784 0.8780 0.8775 0.8762
921.000000 0.8750 0.8740 0.8735 0.8730 0.8721
926.000000 0.8709 0.8697 0.8687 0.8680 0.8673
931.000000 0.8666 0.8659 0.8652 0.8645 0.8638
936.000000 0.8636 0.8635 0.8634 0.8633 0.8632
941.000000 0.8631 0.8630 0.8629 0.8628 0.8628
946.000000 0.8628 0.8628 0.8628 0.8629 0.8629
951.000000 0.8628 0.8628 0.8628 0.8627 0.8627
956.000000 0.8618 0.8605 0.8591 0.8566 0.8533
961.000000 0.8496 0.8458 0.8421 0.8400 0.8380
966.000000 0.8346 0.8308 0.8272 0.8194 0.8181
971.000000 0.8187 0.8193 0.8207 0.8241 0.8290
976.000000 0.8339 0.8381 0.8422 0.8436 0.8438
981.000000 0.8441 0.8442 0.8441 0.8440 0.8439
986.000000 0.8439 0.8438 0.8438 0.8437 0.8437
991.000000 0.8436 0.8436 0.8435 0.8435 0.8434
996.000000 0.8433 0.8432 0.8430 0.8429 0.8428
1001.000000 0.8424 0.8421 0.8417 0.8403 0.8389
1006.000000 0.8376 0.8363 0.8352 0.8342 0.8333
1011.000000 0.8328 0.8324 0.8320 0.8316 0.8314
1016.000000 0.8312 0.8310 0.8309 0.8308 0.8307
1021.000000 0.8306 0.8305 0.8304 0.8303 0.8302
1026.000000 0.8302 0.8302 0.8302 0.8301 0.8301
1031.000000 0.8301 0.8300 0.8297 0.8294 0.8292
1036.000000 0.8289 0.8286 0.8284 0.8281 0.8279
1041.000000 0.8276 0.8272 0.8269 0.8265 0.8262
1046.000000 0.8258 0.8250 0.8242 0.8233 0.8225
1051.000000 0.8217 0.8209 0.8201 0.8193 0.8185
1056.000000 0.8176 0.8167 0.8159 0.8150 0.8145
1061.000000 0.8141 0.8137 0.8133 0.8128 0.8123
1066.000000 0.8118 0.8110 0.8095 0.8069 0.8029
1071.000000 0.8004 0.7980 0.7955 0.7919 0.7883
1076.000000 0.7853 0.7823 0.7801 0.7783 0.7781
1081.000000 0.7780 0.7786 0.7869 0.8136 0.8404
1086.000000 0.8671 0.8744 0.8633 0.8437 0.8241
1091.000000 0.8062 0.8051 0.8046 0.8041 0.8038
1096.000000 0.8035 0.8032 0.8028 0.8025 0.8021
1101.000000 0.8018 0.8014 0.8010 0.8005 0.7999
1106.000000 0.7993 0.7986 0.7980 0.7956 0.7936
1111.000000 0.7916 0.7894 0.7872 0.7849 0.7826
1116.000000 0.7800 0.7777 0.7760 0.7749 0.7745
1121.000000 0.7740 0.7736 0.7732 0.7727 0.7723
1126.000000 0.7722 0.7722 0.7723 0.7722 0.7719
1131.000000 0.7716 0.7713 0.7691 0.7679 0.7669
1136.000000 0.7658 0.7647 0.7637 0.7626 0.7616
1141.000000 0.7608 0.7602 0.7595 0.7588 0.7582
1146.000000 0.7576 0.7569 0.7563 0.7557 0.7550
1151.000000 0.7544 0.7538 0.7530 0.7522 0.7513
1156.000000 0.7505 0.7499 0.7497 0.7495 0.7493
1161.000000 0.7490 0.7488 0.7488 0.7495 0.7502
1166.000000 0.7509 0.7517 0.7543 0.7568 0.7592
1171.000000 0.7614 0.7622 0.7626 0.7626 0.7621
1176.000000 0.7611 0.7597 0.7580 0.7561 0.7539
1181.000000 0.7517 0.7494 0.7475 0.7463 0.7451
1186.000000 0.7438 0.7425 0.7409 0.7393 0.7376
1191.000000 0.7358 0.7342 0.7339 0.7335 0.7332
1196.000000 0.7329 0.7334 0.7341 0.7347 0.7352
1201.000000 0.7356 0.7361 0.7361 0.7359 0.7355
1206.000000 0.7351 0.7347 0.7343 0.7339 0.7334
1211.000000 0.7328 0.7319 0.7310 0.7302 0.7293
1216.000000 0.7284 0.7273 0.7261 0.7249 0.7235
1221.000000 0.7221 0.7207 0.7193 0.7173 0.7150
1226.000000 0.7128 0.7105 0.7079 0.7053 0.7027
1231.000000 0.7001 0.6969 0.6923 0.6876 0.6810
1236.000000 0.6733 0.6656 0.6591 0.6531 0.6471
1241.000000 0.6411 0.6351 0.6292 0.6232 0.6170
1246.000000 0.6107 0.6054 0.6036 0.6038 0.6039
1251.000000 0.6059 0.6055 0.6072 0.6104 0.6161
1256.000000 0.6280 0.6528 0.6586 0.6621 0.6640
1261.000000 0.6643 0.6641 0.6636 0.6631 0.6624
1266.000000 0.6617 0.6645 0.6590 0.6571 0.6552
1271.000000 0.6532 0.6513 0.6493 0.6474 0.6452
1276.000000 0.6430 0.6408 0.6385 0.6367 0.6351
1281.000000 0.6337 0.6332 0.6327 0.6323 0.6319
1286.000000 0.6319 0.6319 0.6321 0.6331 0.6342
1291.000000 0.6346 0.6349 0.6352 0.6351 0.6347
1296.000000 0.6336 0.6325 0.6307 0.6269 0.6210
1301.000000 0.6102 0.6039 0.5938 0.5813 0.5689
1306.000000 0.5584 0.5441 0.5281 0.5134 0.4647
1311.000000 0.4286 0.3925 0.3565 0.3204 0.2843
1316.000000 0.2750 0.2755 0.2776 0.3219 0.3647
1321.000000 0.4075 0.4503 0.4932 0.5360 0.5788
1326.000000 0.6216 0.6448 0.6574 0.6689 0.6751
1331.000000 0.6848 0.7088 0.7164 0.7212 0.7243
1336.000000 0.7260 0.7270 0.7278 0.7287 0.7294
1341.000000 0.7302 0.7304 0.7334 0.7298 0.7283
1346.000000 0.7250 0.7199 0.7157 0.7119 0.7069
1351.000000 0.7024 0.6994 0.6963 0.6932 0.6867
1356.000000 0.6810 0.6781 0.6777 0.6780 0.6785
1361.000000 0.6793 0.6814 0.6841 0.6863 0.6864
1366.000000 0.6859 0.6849 0.6830 0.6803 0.6738
1371.000000 0.6681 0.6607 0.6529 0.6465 0.6420
1376.000000 0.6380 0.6364 0.6349 0.6368 0.6375
1381.000000 0.6425 0.6623 0.6809 0.6890 0.7148
1386.000000 0.7213 0.7248 0.7254 0.7257 0.7252
1391.000000 0.7265 0.7236 0.7223 0.7210 0.7192
1396.000000 0.7173 0.7154 0.7135 0.7117 0.7101
1401.000000 0.7086 0.7070 0.7054 0.7036 0.7018
1406.000000 0.6994 0.6971 0.6928 0.6878 0.6825
1411.000000 0.6772 0.6729 0.6691 0.6650 0.6590
1416.000000 0.6500 0.6300 0.6100 0.5900 0.5701
1421.000000 0.5501 0.5284 0.5135 0.5029 0.4931
1426.000000 0.4842 0.4760 0.4668 0.4412 0.4156
1431.000000 0.3916 0.3921 0.3914 0.3914 0.3919
1436.000000 0.4279 0.4908 0.5538 0.6167 0.6797
1441.000000 0.7389 0.7475 0.7508 0.7529 0.7540
1446.000000 0.7566 0.7544 0.7529 0.7510 0.7493
1451.000000 0.7473 0.7450 0.7425 0.7398 0.7370
1456.000000 0.7339 0.7283 0.7220 0.7154 0.6993
1461.000000 0.6964 0.6946 0.6932 0.6915 0.6894
1466.000000 0.6873 0.6852 0.6831 0.6810 0.6789
1471.000000 0.6768 0.6746 0.6710 0.6674 0.6616
1476.000000 0.6554 0.6469 0.6365 0.6235 0.6065
1481.000000 0.5891 0.5743 0.5618 0.5509 0.5416
1486.000000 0.5334 0.5244 0.5195 0.5181 0.5166
1491.000000 0.5156 0.5146 0.5136 0.5127 0.5118
1496.000000 0.5092 0.5043 0.4973 0.4904 0.4853
1501.000000 0.4811 0.4781 0.4757 0.4716 0.4424
1506.000000 0.4332 0.4244 0.4222 0.4211 0.4199
1511.000000 0.4188 0.4174 0.4059 0.3905 0.3532
1516.000000 0.3259 0.3019 0.2905 0.2770 0.2629
1521.000000 0.2477 0.2194 0.1826 0.1770 0.1713
1526.000000 0.1657 0.1465 0.1485 0.1478 0.1482
1531.000000 0.1508 0.1587 0.1663 0.1752 0.1837
1536.000000 0.1881 0.1904 0.1920 0.1937 0.1933
1541.000000 0.1911 0.1873 0.1753 0.1678 0.1628
1546.000000 0.1578 0.1573 0.1573 0.1574 0.1580
1551.000000 0.1542 0.1750 0.2278 0.2406 0.2547
1556.000000 0.2571 0.2593 0.2613 0.2636 0.2665
1561.000000 0.2708 0.2802 0.2897 0.2992 0.3087
1566.000000 0.3182 0.3277 0.3372 0.3467 0.3562
1571.000000 0.3657 0.3752 0.3847 0.3986 0.4104
1576.000000 0.4270 0.4506 0.4568 0.4630 0.4707
1581.000000 0.4826 0.4946 0.5026 0.5083 0.5140
1586.000000 0.5197 0.5243 0.5288 0.5333 0.5377
1591.000000 0.5422 0.5466 0.5510 0.5553 0.5597
1596.000000 0.5640 0.5684 0.5729 0.5777 0.5824
1601.000000 0.5872 0.5910 0.5933 0.5956 0.5979
1606.000000 0.6002 0.6025 0.6042 0.6058 0.6075
1611.000000 0.6092 0.6101 0.6108 0.6116 0.6123
1616.000000 0.6131 0.6151 0.6182 0.6213 0.6243
1621.000000 0.6275 0.6307 0.6339 0.6370 0.6402
1626.000000 0.6434 0.6467 0.6499 0.6532 0.6564
1631.000000 0.6597 0.6629 0.6669 0.6710 0.6751
1636.000000 0.6792 0.6833 0.6873 0.6913 0.6952
1641.000000 0.6991 0.7023 0.7054 0.7085 0.7112
1646.000000 0.7122 0.7132 0.7142 0.7152 0.7162
1651.000000 0.7174 0.7189 0.7204 0.7219 0.7259
1656.000000 0.7307 0.7368 0.7411 0.7423 0.7435
1661.000000 0.7447 0.7460 0.7475 0.7489 0.7504
1666.000000 0.7520 0.7539 0.7558 0.7577 0.7596
1671.000000 0.7615 0.7633 0.7649 0.7665 0.7681
1676.000000 0.7696 0.7712 0.7728 0.7744 0.7758
1681.000000 0.7771 0.7779 0.7788 0.7796 0.7799
1686.000000 0.7802 0.7805 0.7808 0.7810 0.7813
1691.000000 0.7821 0.7831 0.7840 0.7850 0.7870
1696.000000 0.7896 0.7918 0.7940 0.7959 0.7972
1701.000000 0.7985 0.7998 0.8011 0.8026 0.8041
1706.000000 0.8058 0.8078 0.8098 0.8114 0.8129
1711.000000 0.8141 0.8147 0.8152 0.8157 0.8162
1716.000000 0.8168 0.8173 0.8178 0.8184 0.8189
1721.000000 0.8194 0.8199 0.8205 0.8210 0.8215
1726.000000 0.8221 0.8226 0.8231 0.8236 0.8242
1731.000000 0.8247 0.8252 0.8258 0.8265 0.8272
1736.000000 0.8279 0.8284 0.8288 0.8291 0.8295
1741.000000 0.8298 0.8302 0.8308 0.8313 0.8318
1746.000000 0.8324 0.8331 0.8339 0.8348 0.8356
1751.000000 0.8365 0.8371 0.8376 0.8380 0.8384
1756.000000 0.8388 0.8392 0.8397 0.8399 0.8400
1761.000000 0.8401 0.8402 0.8403 0.8403 0.8404
1766.000000 0.8405 0.8405 0.8405 0.8406 0.8406
1771.000000 0.8406 0.8406 0.8407 0.8410 0.8412
1776.000000 0.8415 0.8422 0.8430 0.8439 0.8448
1781.000000 0.8456 0.8455 0.8454 0.8454 0.8451
1786.000000 0.8445 0.8438 0.8431 0.8425 0.8419
1791.000000 0.8412 0.8406 0.8400 0.8393 0.8387
1796.000000 0.8380 0.8374 0.8367 0.8361 0.8354
1801.000000 0.8349 0.8366 0.8386 0.8406 0.8428
1806.000000 0.8451 0.8474 0.8483 0.8481 0.8478
1811.000000 0.8476 0.8467 0.8458 0.8434 0.8413
1816.000000 0.8406 0.8399 0.8394 0.8391 0.8387
1821.000000 0.8385 0.8385 0.8386 0.8388 0.8390
1826.000000 0.8393 0.8395 0.8398 0.8400 0.8402
1831.000000 0.8405 0.8407 0.8408 0.8409 0.8410
1836.000000 0.8411 0.8412 0.8413 0.8413 0.8413
1841.000000 0.8413 0.8413 0.8412 0.8412 0.8412
1846.000000 0.8412 0.8411 0.8411 0.8411 0.8411
1851.000000 0.8411 0.8410 0.8410 0.8410 0.8405
1856.000000 0.8400 0.8396 0.8391 0.8386 0.8381
1861.000000 0.8373 0.8366 0.8359 0.8352 0.8348
1866.000000 0.8345 0.8343 0.8340 0.8337 0.8336
1871.000000 0.8340 0.8343 0.8347 0.8351 0.8354
1876.000000 0.8358 0.8362 0.8366 0.8371 0.8376
1881.000000 0.8378 0.8376 0.8375 0.8373 0.8372
1886.000000 0.8371 0.8369 0.8367 0.8365 0.8363
1891.000000 0.8360 0.8358 0.8356 0.8353 0.8351
1896.000000 0.8346 0.8341 0.8337 0.8332 0.8328
1901.000000 0.8324 0.8320 0.8316 0.8312 0.8308
1906.000000 0.8304 0.8300 0.8298 0.8295 0.8293
1911.000000 0.8290 0.8288 0.8285 0.8282 0.8280
1916.000000 0.8277 0.8275 0.8272 0.8270 0.8267
1921.000000 0.8265 0.8262 0.8260 0.8257 0.8254
1926.000000 0.8252 0.8249 0.8247 0.8245 0.8242
1931.000000 0.8240 0.8238 0.8239 0.8243 0.8248
1936.000000 0.8252 0.8257 0.8261 0.8266 0.8275
1941.000000 0.8285 0.8294 0.8300 0.8303 0.8306
1946.000000 0.8309 0.8312 0.8315 0.8312 0.8307
1951.000000 0.8303 0.8299 0.8294 0.8290 0.8285
1956.000000 0.8281 0.8276 0.8276 0.8277 0.8278
1961.000000 0.8279 0.8280 0.8280 0.8282 0.8288
1966.000000 0.8295 0.8301 0.8306 0.8310 0.8313
1971.000000 0.8317 0.8320 0.8322 0.8321 0.8320
1976.000000 0.8319 0.8318 0.8317 0.8317 0.8316
1981.000000 0.8315 0.8314 0.8313 0.8311 0.8309
1986.000000 0.8307 0.8305 0.8303 0.8300 0.8298
1991.000000 0.8296 0.8294 0.8292 0.8290 0.8287
1996.000000 0.8283 0.8278 0.8274 0.8270 0.8265
2001.000000 0.8261 0.8257 0.8252 0.8248 0.8244
2006.000000 0.8239 0.8233 0.8228 0.8223 0.8217
2011.000000 0.8212 0.8207 0.8201 0.8196 0.8190
2016.000000 0.8185 0.8182 0.8181 0.8179 0.8178
2021.000000 0.8177 0.8176 0.8175 0.8174 0.8174
2026.000000 0.8176 0.8179 0.8181 0.8184 0.8186
2031.000000 0.8189 0.8192 0.8196 0.8200 0.8204
2036.000000 0.8208 0.8211 0.8215 0.8219 0.8223
2041.000000 0.8227 0.8231 0.8234 0.8237 0.8241
2046.000000 0.8244 0.8247 0.8250 0.8253 0.8256
2051.000000 0.8259 0.8262 0.8265 0.8267 0.8268
2056.000000 0.8269 0.8270 0.8271 0.8272 0.8272
2061.000000 0.8270 0.8268 0.8265 0.8263 0.8260
2066.000000 0.8258 0.8255 0.8254 0.8254 0.8253
2071.000000 0.8252 0.8255 0.8258 0.8261 0.8264
2076.000000 0.8267 0.8269 0.8271 0.8273 0.8275
2081.000000 0.8277 0.8279 0.8281 0.8283 0.8284
2086.000000 0.8285 0.8286 0.8287 0.8288 0.8286
2091.000000 0.8281 0.8275 0.8269 0.8263 0.8256
2096.000000 0.8250 0.8243 0.8236 0.8229 0.8225
2101.000000 0.8221 0.8217 0.8214 0.8215 0.8216
2106.000000 0.8216 0.8217 0.8218 0.8218 0.8219
2111.000000 0.8220 0.8220 0.8221 0.8227 0.8234
2116.000000 0.8241 0.8248 0.8254 0.8259 0.8261
2121.000000 0.8260 0.8258 0.8256 0.8255 0.8253
2126.000000 0.8250 0.8240 0.8231 0.8221 0.8216
2131.000000 0.8211 0.8206 0.8204 0.8207 0.8210
2136.000000 0.8214 0.8221 0.8228 0.8233 0.8234
2141.000000 0.8235 0.8237 0.8234 0.8231 0.8228
2146.000000 0.8225 0.8222 0.8219 0.8216 0.8211
2151.000000 0.8206 0.8201 0.8196 0.8191 0.8186
2156.000000 0.8183 0.8181 0.8178 0.8175 0.8173
2161.000000 0.8170 0.8167 0.8165 0.8163 0.8161
2166.000000 0.8159 0.8157 0.8155 0.8156 0.8161
2171.000000 0.8182 0.8204 0.8224 0.8244 0.8264
2176.000000 0.8282 0.8297 0.8293 0.8288 0.8272
2181.000000 0.8256 0.8239 0.8222 0.8208 0.8199
2186.000000 0.8191 0.8182 0.8180 0.8181 0.8182
2191.000000 0.8183 0.8184 0.8185 0.8188 0.8191
2196.000000 0.8194 0.8197 0.8200 0.8203 0.8206
2201.000000 0.8209 0.8211 0.8213 0.8215 0.8214
2206.000000 0.8213 0.8212 0.8211 0.8210 0.8209
2211.000000 0.8207 0.8205 0.8203 0.8201 0.8200
2216.000000 0.8198 0.8196 0.8190 0.8184 0.8177
2221.000000 0.8171 0.8164 0.8158 0.8152 0.8146
2226.000000 0.8141 0.8135 0.8130 0.8124 0.8119
2231.000000 0.8114 0.8114 0.8114 0.8115 0.8116
2236.000000 0.8118 0.8120 0.8121 0.8123 0.8125
2241.000000 0.8126 0.8128 0.8128 0.8127 0.8127
2246.000000 0.8126 0.8126 0.8125 0.8125 0.8124
2251.000000 0.8124 0.8123 0.8122 0.8121 0.8119
2256.000000 0.8118 0.8117 0.8115 0.8114 0.8113
2261.000000 0.8111 0.8110 0.8108 0.8106 0.8104
2266.000000 0.8103 0.8101 0.8099 0.8097 0.8096
2271.000000 0.8094 0.8092 0.8090 0.8090 0.8089
2276.000000 0.8088 0.8088 0.8087 0.8086 0.8086
2281.000000 0.8085 0.8082 0.8075 0.8068 0.8062
2286.000000 0.8055 0.8048 0.8042 0.8036 0.8032
2291.000000 0.8028 0.8027 0.8026 0.8025 0.8020
2296.000000 0.8011 0.8000 0.7989 0.7978 0.7967
2301.000000 0.7955 0.7944 0.7930 0.7911 0.7892
2306.000000 0.7873 0.7855 0.7831 0.7808 0.7784
2311.000000 0.7760 0.7737 0.7721 0.7711 0.7700
2316.000000 0.7690 0.7680 0.7676 0.7674 0.7672
2321.000000 0.7670 0.7668 0.7667 0.7669 0.7670
2326.000000 0.7671 0.7674 0.7680 0.7685 0.7690
2331.000000 0.7696 0.7702 0.7716 0.7729 0.7740
2336.000000 0.7747 0.7754 0.7761 0.7768 0.7771
2341.000000 0.7772 0.7774 0.7775 0.7777 0.7778
2346.000000 0.7781 0.7784 0.7786 0.7789 0.7793
2351.000000 0.7805 0.7817 0.7835 0.7859 0.7876
2356.000000 0.7891 0.7892 0.7894 0.7895 0.7894
2361.000000 0.7889 0.7883 0.7877 0.7872 0.7866
2366.000000 0.7860 0.7854 0.7848 0.7843 0.7837
2371.000000 0.7831 0.7826 0.7821 0.7819 0.7817
2376.000000 0.7815 0.7812 0.7810 0.7808 0.7806
2381.000000 0.7804 0.7802 0.7801 0.7801 0.7802
2386.000000 0.7802 0.7802 0.7802 0.7803 0.7803
2391.000000 0.7803 0.7805 0.7807 0.7809 0.7811
2396.000000 0.7813 0.7815 0.7817 0.7818 0.7820
2401.000000 0.7822 0.7824 0.7826 0.7830 0.7835
2406.000000 0.7839 0.7843 0.7847 0.7851 0.7856
2411.000000 0.7859 0.7862 0.7865 0.7868 0.7871
2416.000000 0.7874 0.7876 0.7874 0.7871 0.7868
2421.000000 0.7866 0.7863 0.7860 0.7859 0.7859
2426.000000 0.7859 0.7859 0.7859 0.7859 0.7858
2431.000000 0.7858 0.7858 0.7858 0.7858 0.7858
2436.000000 0.7857 0.7857 0.7856 0.7856 0.7852
2441.000000 0.7846 0.7840 0.7834 0.7828 0.7822
2446.000000 0.7815 0.7809 0.7810 0.7814 0.7818
2451.000000 0.7822 0.7827 0.7831 0.7835 0.7839
2456.000000 0.7844 0.7849 0.7855 0.7862 0.7871
2461.000000 0.7880 0.7880 0.7878 0.7876 0.7875
2466.000000 0.7873 0.7871 0.7868 0.7866 0.7863
2471.000000 0.7860 0.7857 0.7854 0.7850 0.7846
2476.000000 0.7842 0.7839 0.7835 0.7831 0.7828
2481.000000 0.7829 0.7830 0.7831 0.7832 0.7833
2486.000000 0.7838 0.7844 0.7850 0.7856 0.7862
2491.000000 0.7868 0.7872 0.7874 0.7877 0.7879
2496.000000 0.7881 0.7884 0.7886 0.7887 0.7884
2501.000000 0.7880 0.7877 0.7874 0.7870 0.7867
2506.000000 0.7864 0.7860 0.7855 0.7849 0.7842
2511.000000 0.7836 0.7830 0.7824 0.7818 0.7812
2516.000000 0.7807 0.7801 0.7796 0.7792 0.7787
2521.000000 0.7783 0.7779 0.7775 0.7770 0.7766
2526.000000 0.7762 0.7757 0.7754 0.7750 0.7747
2531.000000 0.7744 0.7742 0.7747 0.7751 0.7755
2536.000000 0.7760 0.7764 0.7769 0.7775 0.7781
2541.000000 0.7788 0.7794 0.7800 0.7806 0.7812
2546.000000 0.7819 0.7826 0.7834 0.7841 0.7838
2551.000000 0.7829 0.7821 0.7812 0.7802 0.7792
2556.000000 0.7781 0.7771 0.7767 0.7765 0.7764
2561.000000 0.7762 0.7762 0.7764 0.7766 0.7768
2566.000000 0.7770 0.7765 0.7757 0.7750 0.7742
2571.000000 0.7732 0.7721 0.7711 0.7701 0.7695
2576.000000 0.7695 0.7695 0.7697 0.7701 0.7706
2581.000000 0.7710 0.7714 0.7719 0.7721 0.7722
2586.000000 0.7723 0.7723 0.7724 0.7725 0.7726
2591.000000 0.7726 0.7725 0.7723 0.7721 0.7719
2596.000000 0.7718 0.7716 0.7713 0.7711 0.7709
2601.000000 0.7707 0.7708 0.7711 0.7713 0.7716
2606.000000 0.7719 0.7722 0.7725 0.7728 0.7730
2611.000000 0.7733 0.7736 0.7738 0.7741 0.7735
2616.000000 0.7729 0.7721 0.7712 0.7703 0.7694
2621.000000 0.7685 0.7677 0.7670 0.7663 0.7658
2626.000000 0.7658 0.7659 0.7659 0.7659 0.7659
2631.000000 0.7660 0.7662 0.7666 0.7670 0.7674
2636.000000 0.7678 0.7681 0.7685 0.7689 0.7692
2641.000000 0.7695 0.7699 0.7702 0.7705 0.7708
2646.000000 0.7710 0.7713 0.7715 0.7718 0.7720
2651.000000 0.7723 0.7724 0.7724 0.7725 0.7725
2656.000000 0.7725 0.7726 0.7728 0.7729 0.7731
2661.000000 0.7733 0.7734 0.7731 0.7726 0.7722
2666.000000 0.7713 0.7702 0.7687 0.7662 0.7646
2671.000000 0.7636 0.7627 0.7625 0.7626 0.7627
2676.000000 0.7628 0.7629 0.7630 0.7631 0.7634
2681.000000 0.7636 0.7638 0.7640 0.7641 0.7643
2686.000000 0.7644 0.7646 0.7647 0.7649 0.7650
2691.000000 0.7651 0.7653 0.7654 0.7656 0.7657
2696.000000 0.7658 0.7658 0.7658 0.7658 0.7658
2701.000000 0.7657 0.7657 0.7657 0.7657 0.7656
2706.000000 0.7655 0.7654 0.7653 0.7652 0.7651
2711.000000 0.7647 0.7641 0.7636 0.7631 0.7625
2716.000000 0.7617 0.7609 0.7601 0.7593 0.7591
2721.000000 0.7591 0.7591 0.7592 0.7595 0.7598
2726.000000 0.7601 0.7605 0.7609 0.7614 0.7617
2731.000000 0.7619 0.7620 0.7621 0.7622 0.7620
2736.000000 0.7618 0.7615 0.7613 0.7611 0.7608
2741.000000 0.7606 0.7603 0.7601 0.7598 0.7593
2746.000000 0.7588 0.7584 0.7579 0.7574 0.7569
2751.000000 0.7564 0.7559 0.7554 0.7550 0.7545
2756.000000 0.7540 0.7536 0.7531 0.7526 0.7522
2761.000000 0.7519 0.7515 0.7512 0.7508 0.7505
2766.000000 0.7503 0.7505 0.7507 0.7509 0.7511
2771.000000 0.7514 0.7518 0.7522 0.7526 0.7530
2776.000000 0.7534 0.7540 0.7547 0.7553 0.7559
2781.000000 0.7565 0.7570 0.7575 0.7581 0.7586
2786.000000 0.7590 0.7589 0.7589 0.7589 0.7589
2791.000000 0.7588 0.7588 0.7586 0.7581 0.7576
2796.000000 0.7572 0.7567 0.7562 0.7557 0.7552
2801.000000 0.7545 0.7538 0.7531 0.7524 0.7517
2806.000000 0.7509 0.7502 0.7495 0.7487 0.7480
2811.000000 0.7473 0.7465 0.7458 0.7451 0.7443
2816.000000 0.7436 0.7428 0.7421 0.7414 0.7407
2821.000000 0.7400 0.7393 0.7386 0.7379 0.7372
2826.000000 0.7365 0.7358 0.7351 0.7344 0.7338
2831.000000 0.7332 0.7326 0.7320 0.7314 0.7309
2836.000000 0.7303 0.7300 0.7300 0.7300 0.7301
2841.000000 0.7301 0.7301 0.7308 0.7315 0.7322
2846.000000 0.7330 0.7337 0.7344 0.7351 0.7358
2851.000000 0.7366 0.7373 0.7381 0.7388 0.7396
2856.000000 0.7402 0.7406 0.7411 0.7415 0.7420
2861.000000 0.7425 0.7429 0.7432 0.7433 0.7435
2866.000000 0.7436 0.7437 0.7433 0.7428 0.7423
2871.000000 0.7417 0.7412 0.7407 0.7402 0.7396
2876.000000 0.7391 0.7386 0.7375 0.7363 0.7352
2881.000000 0.7343 0.7341 0.7339 0.7337 0.7335
2886.000000 0.7333 0.7330 0.7327 0.7323 0.7320
2891.000000 0.7316 0.7308 0.7299 0.7289 0.7271
2896.000000 0.7252 0.7234 0.7216 0.7199 0.7183
2901.000000 0.7174 0.7166 0.7157 0.7148 0.7148
2906.000000 0.7149 0.7150 0.7151 0.7155 0.7160
2911.000000 0.7166 0.7171 0.7177 0.7182 0.7188
2916.000000 0.7195 0.7202 0.7209 0.7217 0.7224
2921.000000 0.7232 0.7240 0.7247 0.7255 0.7263
2926.000000 0.7270 0.7279 0.7287 0.7295 0.7303
2931.000000 0.7311 0.7316 0.7322 0.7327 0.7333
2936.000000 0.7338 0.7343 0.7348 0.7350 0.7353
2941.000000 0.7355 0.7357 0.7359 0.7361 0.7364
2946.000000 0.7366 0.7368 0.7370 0.7373 0.7373
2951.000000 0.7367 0.7362 0.7356 0.7350 0.7344
2956.000000 0.7339 0.7334 0.7329 0.7324 0.7319
2961.000000 0.7314 0.7309 0.7304 0.7299 0.7294
2966.000000 0.7289 0.7286 0.7288 0.7291 0.7293
2971.000000 0.7295 0.7298 0.7301 0.7305 0.7309
2976.000000 0.7312 0.7313 0.7313 0.7314 0.7315
2981.000000 0.7316 0.7317 0.7318 0.7320 0.7321
2986.000000 0.7328 0.7335 0.7343 0.7350 0.7351
2991.000000 0.7352 0.7353 0.7354 0.7355 0.7355
2996.000000 0.7351 0.7346 0.7342 0.7337 0.7333
3001.000000 0.7328 0.7324 0.7319 0.7314 0.7309
3006.000000 0.7304 0.7299 0.7294 0.7290 0.7285
3011.000000 0.7280 0.7275 0.7271 0.7266 0.7261
3016.000000 0.7258 0.7256 0.7254 0.7251 0.7249
3021.000000 0.7247 0.7244 0.7242 0.7240 0.7237
3026.000000 0.7234 0.7232 0.7229 0.7226 0.7223
3031.000000 0.7220 0.7218 0.7215 0.7211 0.7206
3036.000000 0.7201 0.7197 0.7192 0.7188 0.7188
3041.000000 0.7188 0.7188 0.7188 0.7188 0.7188
3046.000000 0.7188 0.7188 0.7188 0.7188 0.7188
3051.000000 0.7189 0.7190 0.7191 0.7192 0.7193
3056.000000 0.7194 0.7195 0.7196 0.7197 0.7199
3061.000000 0.7204 0.7208 0.7213 0.7217 0.7221
3066.000000 0.7220 0.7214 0.7208 0.7202 0.7196
3071.000000 0.7190 0.7177 0.7163 0.7150 0.7143
3076.000000 0.7137 0.7131 0.7126 0.7120 0.7119
3081.000000 0.7121 0.7122 0.7124 0.7126 0.7128
3086.000000 0.7131 0.7134 0.7136 0.7139 0.7145
3091.000000 0.7153 0.7161 0.7169 0.7178 0.7198
3096.000000 0.7218 0.7229 0.7230 0.7231 0.7233
3101.000000 0.7227 0.7217 0.7207 0.7194 0.7181
3106.000000 0.7167 0.7156 0.7151 0.7146 0.7141
3111.000000 0.7136 0.7131 0.7126 0.7124 0.7125
3116.000000 0.7126 0.7127 0.7128 0.7129 0.7129
3121.000000 0.7128 0.7127 0.7126 0.7125 0.7124
3126.000000 0.7124 0.7121 0.7118 0.7115 0.7112
3131.000000 0.7109 0.7106 0.7103 0.7100 0.7097
3136.000000 0.7094 0.7091 0.7089 0.7088 0.7086
3141.000000 0.7084 0.7083 0.7081 0.7080 0.7078
3146.000000 0.7077 0.7075 0.7073 0.7072 0.7071
3151.000000 0.7070 0.7069 0.7069 0.7068 0.7067
3156.000000 0.7066 0.7066 0.7065 0.7064 0.7063
3161.000000 0.7063 0.7058 0.7054 0.7050 0.7045
3166.000000 0.7041 0.7036 0.7032 0.7027 0.7016
3171.000000 0.7002 0.6989 0.6976 0.6978 0.6979
3176.000000 0.6981 0.6982 0.6984 0.6986 0.6988
3181.000000 0.6990 0.6993 0.6997 0.7000 0.7003
3186.000000 0.7001 0.6998 0.6996 0.6994 0.6990
3191.000000 0.6983 0.6976 0.6970 0.6963 0.6956
3196.000000 0.6950 0.6943 0.6937 0.6931 0.6924
3201.000000 0.6918 0.6912 0.6907 0.6902 0.6898
3206.000000 0.6893 0.6889 0.6885 0.6880 0.6876
3211.000000 0.6872 0.6868 0.6864 0.6860 0.6856
3216.000000 0.6853 0.6849 0.6845 0.6841 0.6838
3221.000000 0.6834 0.6831 0.6829 0.6826 0.6823
3226.000000 0.6821 0.6818 0.6815 0.6813 0.6810
3231.000000 0.6806 0.6800 0.6794 0.6788 0.6782
3236.000000 0.6777 0.6771 0.6765 0.6759 0.6753
3241.000000 0.6746 0.6740 0.6739 0.6740 0.6741
3246.000000 0.6742 0.6743 0.6744 0.6745 0.6746
3251.000000 0.6748 0.6749 0.6750 0.6750 0.6751
3256.000000 0.6752 0.6753 0.6754 0.6749 0.6743
3261.000000 0.6736 0.6730 0.6724 0.6719 0.6713
3266.000000 0.6708 0.6702 0.6697 0.6691 0.6686
3271.000000 0.6680 0.6675 0.6670 0.6667 0.6665
3276.000000 0.6662 0.6660 0.6658 0.6656 0.6656
3281.000000 0.6659 0.6661 0.6664 0.6669 0.6674
3286.000000 0.6678 0.6683 0.6688 0.6693 0.6697
3291.000000 0.6701 0.6705 0.6708 0.6711 0.6713
3296.000000 0.6708 0.6703 0.6699 0.6694 0.6689
3301.000000 0.6685 0.6679 0.6673 0.6667 0.6661
3306.000000 0.6656 0.6650 0.6645 0.6639 0.6633
3311.000000 0.6628 0.6622 0.6617 0.6611 0.6605
3316.000000 0.6599 0.6592 0.6586 0.6580 0.6574
3321.000000 0.6568 0.6562 0.6556 0.6550 0.6543
3326.000000 0.6536 0.6529 0.6522 0.6514 0.6507
3331.000000 0.6500 0.6493 0.6485 0.6478 0.6471
3336.000000 0.6467 0.6465 0.6464 0.6462 0.6461
3341.000000 0.6461 0.6462 0.6462 0.6462 0.6452
3346.000000 0.6442 0.6431 0.6421 0.6411 0.6399
3351.000000 0.6388 0.6376 0.6365 0.6353 0.6342
3356.000000 0.6331 0.6320 0.6309 0.6297 0.6286
3361.000000 0.6275 0.6264 0.6255 0.6245 0.6236
3366.000000 0.6226 0.6217 0.6207 0.6196 0.6183
3371.000000 0.6171 0.6158 0.6145 0.6140 0.6136
3376.000000 0.6133 0.6129 0.6126 0.6120 0.6114
3381.000000 0.6108 0.6101 0.6090 0.6079 0.6069
3386.000000 0.6061 0.6053 0.6045 0.6037 0.6028
3391.000000 0.6021 0.6013 0.6006 0.5999 0.5991
3396.000000 0.5984 0.5976 0.5969 0.5963 0.5956
3401.000000 0.5949 0.5942 0.5936 0.5929 0.5922
3406.000000 0.5916 0.5912 0.5908 0.5904 0.5900
3411.000000 0.5896 0.5893 0.5889 0.5886 0.5883
3416.000000 0.5879 0.5876 0.5872 0.5869 0.5866
3421.000000 0.5863 0.5860 0.5857 0.5854 0.5853
3426.000000 0.5854 0.5856 0.5857 0.5859 0.5860
3431.000000 0.5862 0.5863 0.5865 0.5867 0.5870
3436.000000 0.5874 0.5877 0.5881 0.5885 0.5888
3441.000000 0.5894 0.5899 0.5904 0.5909 0.5914
3446.000000 0.5919 0.5924 0.5930 0.5935 0.5940
3451.000000 0.5946 0.5951 0.5956 0.5962 0.5967
3456.000000 0.5973 0.5977 0.5982 0.5986 0.5990
3461.000000 0.5995 0.5999 0.6003 0.6008 0.6012
3466.000000 0.6016 0.6020 0.6024 0.6027 0.6031
3471.000000 0.6034 0.6038 0.6041 0.6045 0.6048
3476.000000 0.6052 0.6056 0.6060 0.6065 0.6070
3481.000000 0.6074 0.6079 0.6084 0.6088 0.6094
3486.000000 0.6104 0.6114 0.6124 0.6134 0.6144
3491.000000 0.6154 0.6164 0.6169 0.6174 0.6180
3496.000000 0.6185 0.6190 0.6195 0.6202 0.6210
3501.000000 0.6219 0.6228 0.6237 0.6248 0.6259
3506.000000 0.6269 0.6280 0.6287 0.6292 0.6296
3511.000000 0.6300 0.6304 0.6308 0.6312 0.6316
3516.000000 0.6320 0.6325 0.6331 0.6337 0.6344
3521.000000 0.6350 0.6356 0.6363 0.6369 0.6376
3526.000000 0.6382 0.6388 0.6395 0.6401 0.6407
3531.000000 0.6414 0.6420 0.6427 0.6433 0.6440
3536.000000 0.6446 0.6452 0.6459 0.6467 0.6476
3541.000000 0.6486 0.6496 0.6505 0.6515 0.6524
3546.000000 0.6534 0.6543 0.6553 0.6562 0.6572
3551.000000 0.6581 0.6591 0.6600 0.6610 0.6619
3556.000000 0.6629 0.6638 0.6646 0.6655 0.6665
3561.000000 0.6674 0.6684 0.6694 0.6703 0.6713
3566.000000 0.6722 0.6727 0.6731 0.6735 0.6739
3571.000000 0.6743 0.6747 0.6751 0.6754 0.6758
3576.000000 0.6762 0.6762 0.6763 0.6764 0.6765
3581.000000 0.6766 0.6770 0.6779 0.6787 0.6795
3586.000000 0.6803 0.6816 0.6829 0.6843 0.6856
3591.000000 0.6871 0.6886 0.6902 0.6918 0.6934
3596.000000 0.6948 0.6956 0.6963 0.6969 0.6974
3601.000000 0.6979 0.6983 0.6988 0.6992 0.6995
3606.000000 0.6998 0.7001 0.7004 0.7007 0.7012
3611.000000 0.7020 0.7028 0.7035 0.7045 0.7058
3616.000000 0.7072 0.7086 0.7102 0.7119 0.7136
3621.000000 0.7150 0.7160 0.7169 0.7179 0.7189
3626.000000 0.7199 0.7210 0.7221 0.7231 0.7242
3631.000000 0.7249 0.7254 0.7259 0.7265 0.7270
3636.000000 0.7276 0.7281 0.7286 0.7289 0.7292
3641.000000 0.7295 0.7299 0.7302 0.7305 0.7308
3646.000000 0.7310 0.7313 0.7315 0.7318 0.7320
3651.000000 0.7323 0.7325 0.7328 0.7331 0.7339
3656.000000 0.7346 0.7354 0.7361 0.7367 0.7372
3661.000000 0.7377 0.7381 0.7386 0.7391 0.7393
3666.000000 0.7396 0.7399 0.7402 0.7404 0.7407
3671.000000 0.7410 0.7412 0.7413 0.7413 0.7413
3676.000000 0.7414 0.7414 0.7414 0.7415 0.7408
3681.000000 0.7401 0.7394 0.7387 0.7380 0.7376
3686.000000 0.7371 0.7366 0.7363 0.7368 0.7373
3691.000000 0.7379 0.7386 0.7393 0.7401 0.7408
3696.000000 0.7416 0.7423 0.7430 0.7438 0.7445
3701.000000 0.7450 0.7452 0.7455 0.7457 0.7457
3706.000000 0.7457 0.7458 0.7458 0.7458 0.7458
3711.000000 0.7459 0.7459 0.7458 0.7457 0.7457
3716.000000 0.7456 0.7456 0.7455 0.7454 0.7454
3721.000000 0.7454 0.7455 0.7455 0.7456 0.7457
3726.000000 0.7458 0.7459 0.7459 0.7461 0.7462
3731.000000 0.7463 0.7465 0.7466 0.7468 0.7469
3736.000000 0.7468 0.7466 0.7464 0.7462 0.7460
3741.000000 0.7458 0.7456 0.7454 0.7452 0.7450
3746.000000 0.7448 0.7446 0.7444 0.7442 0.7440
3751.000000 0.7437 0.7435 0.7432 0.7430 0.7428
3756.000000 0.7425 0.7423 0.7420 0.7418 0.7417
3761.000000 0.7415 0.7414 0.7413 0.7412 0.7412
3766.000000 0.7424 0.7436 0.7449 0.7476 0.7488
3771.000000 0.7489 0.7491 0.7492 0.7494 0.7495
3776.000000 0.7496 0.7496 0.7495 0.7495 0.7495
3781.000000 0.7494 0.7494 0.7493 0.7491 0.7490
3786.000000 0.7489 0.7488 0.7486 0.7485 0.7484
3791.000000 0.7482 0.7481 0.7479 0.7476 0.7474
3796.000000 0.7472 0.7469 0.7467 0.7465 0.7463
3801.000000 0.7460 0.7459 0.7458 0.7457 0.7456
3806.000000 0.7455 0.7455 0.7456 0.7458 0.7460
3811.000000 0.7461 0.7463 0.7463 0.7462 0.7461
3816.000000 0.7457 0.7453 0.7449 0.7444 0.7440
3821.000000 0.7436 0.7432 0.7428 0.7424 0.7420
3826.000000 0.7416 0.7413 0.7408 0.7403 0.7398
3831.000000 0.7392 0.7387 0.7382 0.7376 0.7371
3836.000000 0.7365 0.7367 0.7369 0.7371 0.7373
3841.000000 0.7376 0.7378 0.7381 0.7385 0.7389
3846.000000 0.7393 0.7396 0.7400 0.7404 0.7408
3851.000000 0.7412 0.7414 0.7415 0.7417 0.7419
3856.000000 0.7421 0.7423 0.7424 0.7426 0.7426
3861.000000 0.7426 0.7426 0.7425 0.7425 0.7425
3866.000000 0.7425 0.7425 0.7425 0.7426 0.7428
3871.000000 0.7430 0.7432 0.7434 0.7436 0.7438
3876.000000 0.7441 0.7443 0.7447 0.7452 0.7457
3881.000000 0.7462 0.7467 0.7471 0.7476 0.7475
3886.000000 0.7474 0.7473 0.7472 0.7471 0.7469
3891.000000 0.7468 0.7467 0.7466 0.7465 0.7464
3896.000000 0.7463 0.7462 0.7461 0.7460 0.7459
3901.000000 0.7458 0.7457 0.7456 0.7455 0.7439
3906.000000 0.7453 0.7452 0.7451 0.7450 0.7449
3911.000000 0.7448 0.7447 0.7446 0.7444 0.7442
3916.000000 0.7440 0.7438 0.7436 0.7434 0.7432
3921.000000 0.7430 0.7428 0.7426 0.7424 0.7422
3926.000000 0.7420 0.7418 0.7416 0.7414 0.7412
3931.000000 0.7409 0.7407 0.7405 0.7403 0.7400
3936.000000 0.7398 0.7396 0.7394 0.7392 0.7390
3941.000000 0.7388 0.7387 0.7386 0.7385 0.7383
3946.000000 0.7382 0.7381 0.7380 0.7378 0.7377
3951.000000 0.7378 0.7378 0.7378 0.7378 0.7379
3956.000000 0.7379 0.7379 0.7380 0.7381 0.7387
3961.000000 0.7393 0.7398 0.7404 0.7410 0.7413
3966.000000 0.7414 0.7415 0.7417 0.7418 0.7415
3971.000000 0.7412 0.7409 0.7406 0.7403 0.7400
3976.000000 0.7394 0.7389 0.7383 0.7378 0.7374
3981.000000 0.7376 0.7378 0.7380 0.7382 0.7388
3986.000000 0.7395 0.7403 0.7410 0.7414 0.7418
3991.000000 0.7420 0.7419 0.7418 0.7418 0.7417
3996.000000 0.7416 0.7416 0.7415 0.7414 0.7414
##END=
