##TITLE=BARIUM THIOCYANATE
$$ C.P.
##JCAMP-DX=4.24
##DATA TYPE=INFRARED SPECTRUM
##CLASS=COBLENTZ
##ORIGIN=MELLON INSTITUTE
##OWNER=COBLENTZ SOCIETY
Collection (C) 2018 copyright by the U.S. Secretary of Commerce
on behalf of the United States of America. All rights reserved.
##DATE=Not specified, most likely prior to 1970
##MOLFORM=Ba ( S C N)2  * 2 H2 O
##SOURCE REFERENCE=COBLENTZ NO. 490
##$NIST ID=B6000490
##$NIST SOURCE=COBLENTZ
##$NIST IMAGE=cob490
##SPECTROMETER/DATA SYSTEM=Not specified, most likely a prism, grating, or hybrid spectrometer.
##STATE=SOLID (NUJOL MULL)
##PATH LENGTH=
$$SPECTRAL CONTAMINATION DUE TO OIL AROUND 2900, 1450, 1380 CM^-^1
##SAMPLING PROCEDURE=TRANSMISSION
##RESOLUTION=4
##DATA PROCESSING=DIGITIZED BY NIST FROM HARD COPY
##XUNITS=MICROMETERS
##YUNITS=TRANSMITTANCE
##XFACTOR=1.000000
##YFACTOR=1
##DELTAX=000.006832
##FIRSTX=2.064
##LASTX=16.0225
##FIRSTY=0.926
##MAXX=16.0225
##MINX=2.064
##MAXY=0.96
##MINY=0.18
##NPOINTS=2044
##XYDATA=(X++(Y..Y))
2.064000 0.9260 0.9270 0.9270 0.9270 0.9270
2.098178 0.9270 0.9270 0.9270 0.9270 0.9290
2.132000 0.9290 0.9310 0.9310 0.9310 0.9310
2.166178 0.9310 0.9310 0.9310 0.9310 0.9310
2.201000 0.9310 0.9330 0.9330 0.9330 0.9330
2.235178 0.9330 0.9330 0.9330 0.9310 0.9340
2.269000 0.9330 0.9310 0.9310 0.9290 0.9260
2.303178 0.9240 0.9220 0.9220 0.9220 0.9220
2.337000 0.9220 0.9220 0.9220 0.9220 0.9240
2.371178 0.9260 0.9240 0.9240 0.9240 0.9240
2.406000 0.9240 0.9240 0.9240 0.9240 0.9240
2.440178 0.9240 0.9240 0.9240 0.9260 0.9240
2.474000 0.9240 0.9240 0.9240 0.9260 0.9260
2.508178 0.9270 0.9260 0.9220 0.9220 0.9220
2.542000 0.9240 0.9240 0.9240 0.9260 0.9260
2.576178 0.9260 0.9240 0.9240 0.9240 0.9240
2.611000 0.9240 0.9240 0.9260 0.9260 0.9270
2.645178 0.9270 0.9310 0.9340 0.9340 0.9310
2.679000 0.9240 0.9210 0.9190 0.9170 0.9170
2.713178 0.9170 0.9150 0.9100 0.9050 0.8980
2.747000 0.8880 0.8790 0.8690 0.8140 0.7560
2.781178 0.7280 0.6990 0.6390 0.6100 0.5810
2.816000 0.5210 0.4900 0.4590 0.3960 0.3650
2.850178 0.3320 0.2930 0.2910 0.2910 0.2910
2.884000 0.2960 0.3220 0.3460 0.3650 0.3910
2.918178 0.4010 0.4080 0.4150 0.4210 0.4300
2.952000 0.4400 0.4520 0.4680 0.4750 0.4880
2.986178 0.5210 0.5360 0.5450 0.5590 0.5670
3.020000 0.5830 0.5980 0.6140 0.6380 0.6480
3.054178 0.6580 0.6670 0.6750 0.6820 0.6890
3.089000 0.6960 0.7010 0.7060 0.7160 0.7270
3.123178 0.7350 0.7420 0.7580 0.7680 0.7780
3.157000 0.7890 0.7920 0.7950 0.7990 0.8090
3.191178 0.8140 0.8190 0.8250 0.8280 0.8330
3.225000 0.8370 0.8420 0.8430 0.8470 0.8500
3.259178 0.8520 0.8520 0.8540 0.8540 0.8520
3.294000 0.8470 0.8370 0.8300 0.8160 0.7800
3.328178 0.7460 0.7100 0.6480 0.5860 0.4990
3.362000 0.4110 0.3890 0.3670 0.3340 0.2980
3.396178 0.2950 0.2960 0.3320 0.3440 0.3700
3.430000 0.4180 0.4450 0.4570 0.4680 0.4640
3.464178 0.4630 0.4470 0.4370 0.4330 0.4330
3.499000 0.4690 0.5790 0.6680 0.7040 0.7390
3.533178 0.7950 0.8180 0.8370 0.8540 0.8690
3.567000 0.8910 0.9000 0.9050 0.9070 0.9140
3.601178 0.9190 0.9210 0.9220 0.9220 0.9260
3.635000 0.9290 0.9290 0.9290 0.9310 0.9310
3.669178 0.9330 0.9330 0.9330 0.9340 0.9340
3.704000 0.9360 0.9360 0.9360 0.9380 0.9380
3.738178 0.9380 0.9380 0.9390 0.9390 0.9390
3.772000 0.9410 0.9410 0.9410 0.9410 0.9430
3.806178 0.9430 0.9430 0.9430 0.9430 0.9430
3.840000 0.9430 0.9430 0.9450 0.9450 0.9450
3.874178 0.9450 0.9460 0.9460 0.9500 0.9510
3.909000 0.9510 0.9510 0.9510 0.9510 0.9530
3.943178 0.9530 0.9530 0.9550 0.9550 0.9570
3.977000 0.9570 0.9570 0.9570 0.9580 0.9580
4.011178 0.9580 0.9580 0.9580 0.9580 0.9580
4.045000 0.9600 0.9600 0.9600 0.9580 0.9580
4.079178 0.9580 0.9580 0.9600 0.9600 0.9600
4.114000 0.9600 0.9580 0.9580 0.9580 0.9580
4.148178 0.9550 0.9550 0.9530 0.9530 0.9570
4.182000 0.9580 0.9600 0.9600 0.9600 0.9600
4.216178 0.9600 0.9580 0.9510 0.9510 0.9460
4.250000 0.9390 0.9380 0.9360 0.9340 0.9360
4.284178 0.9360 0.9360 0.9330 0.9290 0.9270
4.319000 0.9270 0.9290 0.9290 0.9290 0.9290
4.353178 0.9290 0.9290 0.9290 0.9310 0.9330
4.387000 0.9340 0.9360 0.9380 0.9390 0.9410
4.421178 0.9410 0.9410 0.9390 0.9390 0.9410
4.455000 0.9410 0.9430 0.9430 0.9430 0.9430
4.489178 0.9430 0.9430 0.9430 0.9430 0.9430
4.524000 0.9430 0.9430 0.9410 0.9410 0.9410
4.558178 0.9410 0.9390 0.9390 0.9360 0.9360
4.592000 0.9340 0.9340 0.9340 0.9340 0.9340
4.626178 0.9330 0.9330 0.9330 0.9310 0.9310
4.660000 0.9310 0.9290 0.9290 0.9270 0.9260
4.694178 0.9260 0.9240 0.9220 0.9220 0.9190
4.729000 0.9170 0.9140 0.9120 0.9050 0.9000
4.763178 0.8810 0.8660 0.8500 0.8370 0.8130
4.797000 0.7350 0.6560 0.5780 0.4990 0.3940
4.831178 0.2890 0.1830 0.1800 0.1830 0.1970
4.865000 0.2050 0.2170 0.2310 0.2430 0.2830
4.899178 0.3030 0.3170 0.3340 0.3550 0.4010
4.934000 0.4270 0.4540 0.4810 0.5400 0.5690
4.968178 0.5980 0.6510 0.6770 0.6990 0.7200
5.002000 0.7300 0.7340 0.7660 0.7800 0.7920
5.036178 0.8020 0.8110 0.8190 0.8260 0.8310
5.070000 0.8370 0.8420 0.8450 0.8500 0.8520
5.104178 0.8550 0.8590 0.8620 0.8660 0.8690
5.139000 0.8730 0.8790 0.8830 0.8850 0.8880
5.173178 0.8900 0.8930 0.8950 0.8980 0.9000
5.207000 0.9020 0.9030 0.9050 0.9070 0.9070
5.241178 0.9090 0.9120 0.9120 0.9120 0.9120
5.275000 0.9140 0.9140 0.9140 0.9140 0.9150
5.309178 0.9150 0.9150 0.9150 0.9170 0.9190
5.343000 0.9190 0.9190 0.9210 0.9210 0.9210
5.377178 0.9210 0.9220 0.9220 0.9220 0.9240
5.412000 0.9240 0.9240 0.9240 0.9260 0.9260
5.446178 0.9260 0.9260 0.9260 0.9260 0.9260
5.480000 0.9260 0.9260 0.9260 0.9260 0.9260
5.514178 0.9260 0.9260 0.9260 0.9260 0.9270
5.548000 0.9270 0.9290 0.9290 0.9290 0.9290
5.582178 0.9290 0.9290 0.9290 0.9290 0.9290
5.617000 0.9290 0.9290 0.9310 0.9290 0.9290
5.651178 0.9290 0.9310 0.9310 0.9330 0.9330
5.685000 0.9330 0.9330 0.9330 0.9340 0.9330
5.719178 0.9330 0.9340 0.9360 0.9340 0.9340
5.753000 0.9340 0.9340 0.9340 0.9360 0.9360
5.787178 0.9360 0.9360 0.9360 0.9360 0.9340
5.822000 0.9340 0.9340 0.9330 0.9330 0.9330
5.856178 0.9330 0.9330 0.9330 0.9330 0.9310
5.890000 0.9290 0.9270 0.9260 0.9260 0.9240
5.924178 0.9220 0.9210 0.9190 0.9170 0.9150
5.958000 0.9150 0.9120 0.9100 0.9070 0.9030
5.992178 0.8970 0.8910 0.8830 0.8790 0.8740
6.027000 0.8620 0.8540 0.8470 0.8380 0.8300
6.061178 0.8190 0.8110 0.7990 0.7890 0.7770
6.095000 0.7530 0.7390 0.7250 0.6720 0.6190
6.129178 0.5640 0.5620 0.5600 0.5620 0.5740
6.163000 0.5950 0.6120 0.6240 0.6410 0.6460
6.197178 0.6750 0.6990 0.7230 0.7730 0.7890
6.232000 0.8020 0.8130 0.8230 0.8330 0.8400
6.266178 0.8470 0.8520 0.8540 0.8550 0.8590
6.300000 0.8610 0.8640 0.8640 0.8660 0.8660
6.334178 0.8660 0.8620 0.8610 0.8610 0.8610
6.368000 0.8610 0.8620 0.8620 0.8640 0.8670
6.402178 0.8670 0.8670 0.8690 0.8690 0.8690
6.437000 0.8710 0.8730 0.8740 0.8780 0.8830
6.471178 0.8850 0.8860 0.8880 0.8950 0.8970
6.505000 0.8970 0.8950 0.8950 0.8950 0.8930
6.539178 0.8910 0.8910 0.8930 0.8930 0.8930
6.573000 0.8930 0.8950 0.8970 0.8980 0.8980
6.607178 0.9000 0.8980 0.8980 0.8980 0.8980
6.642000 0.8980 0.8980 0.8980 0.9000 0.9000
6.676178 0.9020 0.9020 0.9020 0.9020 0.9000
6.710000 0.9000 0.9000 0.9000 0.9000 0.9000
6.744178 0.8980 0.8950 0.8880 0.8790 0.8740
6.778000 0.8670 0.8520 0.8300 0.8090 0.7850
6.812178 0.7630 0.7530 0.7400 0.7250 0.7160
6.847000 0.7030 0.7030 0.7010 0.6990 0.6990
6.881178 0.6990 0.6990 0.6990 0.7010 0.7040
6.915000 0.7160 0.7230 0.7320 0.7370 0.7440
6.949178 0.7490 0.7560 0.7610 0.7680 0.7770
6.983000 0.7890 0.7990 0.8090 0.8160 0.8230
7.017178 0.8280 0.8330 0.8350 0.8370 0.8380
7.052000 0.8400 0.8430 0.8450 0.8500 0.8550
7.086178 0.8610 0.8660 0.8690 0.8730 0.8740
7.120000 0.8810 0.8830 0.8830 0.8850 0.8860
7.154178 0.8860 0.8880 0.8880 0.8880 0.8850
7.188000 0.8780 0.8740 0.8690 0.8590 0.8500
7.222178 0.8420 0.8300 0.8180 0.8020 0.7970
7.257000 0.7940 0.7940 0.7970 0.8020 0.8060
7.291178 0.8110 0.8140 0.8180 0.8210 0.8260
7.325000 0.8310 0.8370 0.8420 0.8490 0.8550
7.359178 0.8620 0.8660 0.8710 0.8730 0.8740
7.393000 0.8810 0.8860 0.8880 0.8900 0.8900
7.427178 0.8910 0.8910 0.8910 0.8910 0.8930
7.461000 0.8950 0.9000 0.9020 0.9020 0.9030
7.495178 0.9030 0.9050 0.9050 0.9050 0.9070
7.530000 0.9090 0.9090 0.9100 0.9100 0.9100
7.564178 0.9100 0.9100 0.9100 0.9100 0.9100
7.598000 0.9100 0.9100 0.9100 0.9100 0.9100
7.632178 0.9100 0.9100 0.9100 0.9100 0.9100
7.666000 0.9100 0.9100 0.9100 0.9100 0.9120
7.700178 0.9120 0.9120 0.9120 0.9120 0.9120
7.735000 0.9120 0.9120 0.9120 0.9120 0.9140
7.769178 0.9140 0.9150 0.9150 0.9150 0.9150
7.803000 0.9150 0.9150 0.9150 0.9150 0.9150
7.837178 0.9150 0.9150 0.9150 0.9150 0.9170
7.871000 0.9150 0.9140 0.9140 0.9140 0.9140
7.905178 0.9140 0.9140 0.9140 0.9140 0.9140
7.940000 0.9140 0.9140 0.9140 0.9140 0.9140
7.974178 0.9140 0.9140 0.9140 0.9140 0.9140
8.008000 0.9140 0.9150 0.9150 0.9150 0.9170
8.042178 0.9150 0.9150 0.9150 0.9150 0.9150
8.076000 0.9150 0.9170 0.9150 0.9150 0.9150
8.110178 0.9150 0.9150 0.9150 0.9150 0.9150
8.145000 0.9150 0.9150 0.9150 0.9150 0.9150
8.179178 0.9150 0.9150 0.9150 0.9150 0.9150
8.213000 0.9150 0.9150 0.9150 0.9150 0.9150
8.247178 0.9150 0.9150 0.9140 0.9140 0.9140
8.281000 0.9140 0.9140 0.9140 0.9140 0.9140
8.315178 0.9140 0.9140 0.9140 0.9140 0.9140
8.350000 0.9140 0.9140 0.9140 0.9140 0.9140
8.384178 0.9140 0.9140 0.9140 0.9140 0.9140
8.418000 0.9120 0.9120 0.9120 0.9120 0.9120
8.452178 0.9140 0.9140 0.9140 0.9140 0.9140
8.486000 0.9140 0.9140 0.9140 0.9140 0.9140
8.520178 0.9140 0.9140 0.9140 0.9140 0.9140
8.555000 0.9140 0.9140 0.9140 0.9140 0.9140
8.589178 0.9140 0.9140 0.9140 0.9140 0.9140
8.623000 0.9140 0.9140 0.9140 0.9140 0.9140
8.657178 0.9140 0.9140 0.9140 0.9120 0.9120
8.691000 0.9120 0.9120 0.9100 0.9100 0.9100
8.725178 0.9100 0.9100 0.9100 0.9100 0.9100
8.760000 0.9120 0.9120 0.9120 0.9120 0.9120
8.794178 0.9120 0.9120 0.9120 0.9100 0.9100
8.828000 0.9100 0.9100 0.9100 0.9100 0.9100
8.862178 0.9100 0.9100 0.9100 0.9100 0.9100
8.896000 0.9100 0.9100 0.9100 0.9100 0.9100
8.930178 0.9100 0.9100 0.9100 0.9100 0.9100
8.965000 0.9100 0.9100 0.9100 0.9100 0.9100
8.999178 0.9100 0.9100 0.9100 0.9100 0.9100
9.033000 0.9100 0.9100 0.9100 0.9100 0.9100
9.067178 0.9100 0.9100 0.9100 0.9090 0.9090
9.101000 0.9090 0.9090 0.9090 0.9090 0.9090
9.135178 0.9100 0.9100 0.9100 0.9100 0.9100
9.170000 0.9100 0.9100 0.9100 0.9100 0.9120
9.204178 0.9120 0.9120 0.9120 0.9120 0.9120
9.238000 0.9120 0.9120 0.9120 0.9120 0.9120
9.272178 0.9120 0.9120 0.9120 0.9120 0.9100
9.306000 0.9100 0.9100 0.9100 0.9120 0.9120
9.340178 0.9100 0.9100 0.9100 0.9100 0.9100
9.375000 0.9100 0.9100 0.9100 0.9100 0.9100
9.409178 0.9100 0.9100 0.9100 0.9100 0.9090
9.443000 0.9100 0.9100 0.9100 0.9090 0.9090
9.477178 0.9090 0.9090 0.9070 0.9070 0.9070
9.511000 0.9070 0.9070 0.9050 0.9050 0.9050
9.545178 0.9050 0.9030 0.9030 0.9030 0.9030
9.580000 0.9030 0.9030 0.9030 0.9030 0.9030
9.614178 0.9030 0.9030 0.9030 0.9030 0.9030
9.648000 0.9030 0.9030 0.9030 0.9030 0.9030
9.682178 0.9030 0.9030 0.9030 0.9030 0.9030
9.716000 0.9030 0.9030 0.9030 0.9030 0.9030
9.750178 0.9030 0.9030 0.9030 0.9030 0.9030
9.784000 0.9030 0.9030 0.9030 0.9030 0.9030
9.818178 0.9030 0.9050 0.9050 0.9050 0.9050
9.853000 0.9090 0.9090 0.9090 0.9090 0.9090
9.887178 0.9030 0.9030 0.9030 0.9030 0.9030
9.921000 0.9030 0.9030 0.9030 0.9030 0.9030
9.955178 0.9070 0.9070 0.9070 0.9050 0.9050
9.989000 0.9050 0.9050 0.9050 0.9050 0.9050
10.023178 0.9050 0.9030 0.9030 0.9030 0.9030
10.058000 0.9030 0.9030 0.9030 0.9020 0.9020
10.092178 0.9020 0.9020 0.9020 0.9020 0.9020
10.126000 0.9020 0.9020 0.9020 0.9020 0.9020
10.160178 0.9020 0.9020 0.9020 0.9020 0.9000
10.194000 0.9000 0.9000 0.9000 0.9000 0.9000
10.228178 0.9000 0.9000 0.9000 0.9000 0.9000
10.263000 0.9000 0.9000 0.9000 0.9000 0.9000
10.297178 0.9000 0.9000 0.9000 0.9000 0.9000
10.331000 0.9000 0.9000 0.9000 0.9000 0.9000
10.365178 0.9000 0.8980 0.8980 0.8980 0.8980
10.399000 0.8980 0.8970 0.8970 0.8970 0.8970
10.433178 0.8970 0.8970 0.8970 0.8980 0.8980
10.468000 0.8970 0.8970 0.8980 0.8980 0.8980
10.502178 0.8980 0.9000 0.9000 0.9000 0.9000
10.536000 0.9000 0.9000 0.9000 0.9020 0.9030
10.570178 0.9020 0.9020 0.9020 0.9020 0.9020
10.604000 0.9020 0.9020 0.9020 0.9020 0.9020
10.638178 0.9020 0.9020 0.9020 0.9020 0.9020
10.673000 0.9020 0.9020 0.9020 0.9020 0.9020
10.707178 0.9020 0.9020 0.9020 0.9020 0.9020
10.741000 0.9020 0.9020 0.9020 0.9020 0.9020
10.775178 0.9020 0.9020 0.9030 0.9030 0.9030
10.809000 0.9030 0.9030 0.9030 0.9020 0.9020
10.843178 0.9020 0.9020 0.9020 0.9000 0.9020
10.878000 0.9020 0.9020 0.9020 0.9020 0.9020
10.912178 0.9030 0.9030 0.9050 0.9050 0.9050
10.946000 0.9050 0.9070 0.9070 0.9090 0.9090
10.980178 0.9100 0.9100 0.9120 0.9120 0.9120
11.014000 0.9120 0.9120 0.9140 0.9140 0.9140
11.048178 0.9140 0.9140 0.9140 0.9140 0.9140
11.083000 0.9150 0.9150 0.9150 0.9150 0.9150
11.117178 0.9150 0.9150 0.9150 0.9150 0.9150
11.151000 0.9150 0.9150 0.9150 0.9150 0.9150
11.185178 0.9150 0.9150 0.9170 0.9170 0.9170
11.219000 0.9150 0.9150 0.9150 0.9170 0.9170
11.253178 0.9170 0.9170 0.9170 0.9170 0.9170
11.288000 0.9170 0.9170 0.9170 0.9170 0.9170
11.322178 0.9170 0.9170 0.9190 0.9190 0.9190
11.356000 0.9190 0.9210 0.9210 0.9220 0.9220
11.390178 0.9220 0.9210 0.9220 0.9220 0.9220
11.424000 0.9220 0.9220 0.9240 0.9240 0.9240
11.458178 0.9240 0.9240 0.9240 0.9240 0.9240
11.493000 0.9240 0.9240 0.9240 0.9240 0.9260
11.527178 0.9260 0.9260 0.9260 0.9260 0.9260
11.561000 0.9260 0.9260 0.9260 0.9260 0.9260
11.595178 0.9260 0.9240 0.9240 0.9240 0.9240
11.629000 0.9240 0.9240 0.9240 0.9240 0.9240
11.663178 0.9240 0.9240 0.9240 0.9240 0.9220
11.698000 0.9220 0.9220 0.9220 0.9220 0.9220
11.732178 0.9240 0.9240 0.9240 0.9240 0.9240
11.766000 0.9240 0.9240 0.9240 0.9240 0.9240
11.800178 0.9240 0.9240 0.9240 0.9240 0.9240
11.834000 0.9240 0.9240 0.9240 0.9240 0.9240
11.868178 0.9220 0.9220 0.9220 0.9220 0.9220
11.902000 0.9240 0.9260 0.9240 0.9240 0.9240
11.936178 0.9220 0.9220 0.9220 0.9220 0.9190
11.971000 0.9190 0.9190 0.9170 0.9170 0.9170
12.005178 0.9170 0.9150 0.9150 0.9150 0.9150
12.039000 0.9140 0.9150 0.9150 0.9140 0.9140
12.073178 0.9140 0.9140 0.9140 0.9140 0.9140
12.107000 0.9120 0.9120 0.9140 0.9150 0.9140
12.141178 0.9140 0.9140 0.9140 0.9140 0.9140
12.176000 0.9140 0.9140 0.9140 0.9140 0.9140
12.210178 0.9140 0.9140 0.9140 0.9120 0.9120
12.244000 0.9120 0.9120 0.9120 0.9120 0.9120
12.278178 0.9100 0.9100 0.9100 0.9100 0.9100
12.312000 0.9100 0.9100 0.9120 0.9120 0.9120
12.346178 0.9100 0.9100 0.9100 0.9100 0.9100
12.381000 0.9100 0.9100 0.9100 0.9090 0.9100
12.415178 0.9090 0.9090 0.9070 0.9070 0.9070
12.449000 0.9030 0.9030 0.9020 0.9020 0.9000
12.483178 0.9000 0.9000 0.9000 0.9000 0.9000
12.517000 0.9000 0.9000 0.9000 0.9000 0.9000
12.551178 0.9000 0.9000 0.9000 0.9020 0.9020
12.586000 0.9020 0.9000 0.8980 0.8980 0.8980
12.620178 0.8980 0.8980 0.8980 0.8980 0.8980
12.654000 0.8980 0.8980 0.8970 0.8970 0.8970
12.688178 0.8950 0.8950 0.8950 0.8950 0.8950
12.722000 0.8950 0.8950 0.8950 0.8930 0.8930
12.756178 0.8930 0.8930 0.8930 0.8930 0.8930
12.791000 0.8910 0.8910 0.8910 0.8910 0.8910
12.825178 0.8910 0.8900 0.8900 0.8880 0.8880
12.859000 0.8880 0.8880 0.8880 0.8880 0.8880
12.893178 0.8880 0.8880 0.8880 0.8860 0.8860
12.927000 0.8850 0.8850 0.8850 0.8830 0.8830
12.961178 0.8830 0.8810 0.8810 0.8790 0.8790
12.996000 0.8790 0.8780 0.8780 0.8780 0.8760
13.030178 0.8760 0.8760 0.8760 0.8740 0.8740
13.064000 0.8730 0.8730 0.8710 0.8710 0.8690
13.098178 0.8690 0.8670 0.8670 0.8660 0.8660
13.132000 0.8640 0.8640 0.8620 0.8610 0.8590
13.166178 0.8550 0.8550 0.8520 0.8500 0.8470
13.201000 0.8470 0.8450 0.8420 0.8400 0.8380
13.235178 0.8370 0.8370 0.8350 0.8350 0.8350
13.269000 0.8370 0.8370 0.8350 0.8350 0.8350
13.303178 0.8350 0.8350 0.8350 0.8350 0.8350
13.337000 0.8350 0.8330 0.8330 0.8330 0.8330
13.371178 0.8330 0.8330 0.8330 0.8330 0.8330
13.406000 0.8310 0.8310 0.8310 0.8310 0.8310
13.440178 0.8310 0.8310 0.8310 0.8310 0.8310
13.474000 0.8310 0.8310 0.8310 0.8310 0.8310
13.508178 0.8300 0.8300 0.8300 0.8300 0.8300
13.542000 0.8300 0.8300 0.8300 0.8300 0.8300
13.576178 0.8300 0.8300 0.8300 0.8300 0.8300
13.611000 0.8300 0.8300 0.8300 0.8300 0.8300
13.645178 0.8300 0.8300 0.8300 0.8300 0.8300
13.679000 0.8300 0.8300 0.8300 0.8300 0.8310
13.713178 0.8310 0.8310 0.8310 0.8310 0.8310
13.747000 0.8310 0.8300 0.8300 0.8300 0.8280
13.781178 0.8280 0.8280 0.8280 0.8260 0.8260
13.816000 0.8260 0.8250 0.8250 0.8250 0.8250
13.850178 0.8250 0.8250 0.8250 0.8250 0.8230
13.884000 0.8250 0.8230 0.8210 0.8210 0.8250
13.918178 0.8230 0.8230 0.8230 0.8230 0.8230
13.952000 0.8230 0.8250 0.8250 0.8250 0.8250
13.986178 0.8250 0.8250 0.8250 0.8230 0.8230
14.020000 0.8230 0.8230 0.8230 0.8230 0.8230
14.054178 0.8230 0.8230 0.8230 0.8230 0.8230
14.089000 0.8230 0.8230 0.8210 0.8210 0.8210
14.123178 0.8210 0.8190 0.8210 0.8210 0.8210
14.157000 0.8210 0.8190 0.8190 0.8190 0.8190
14.191178 0.8190 0.8190 0.8190 0.8190 0.8190
14.225000 0.8190 0.8190 0.8180 0.8180 0.8160
14.259178 0.8160 0.8160 0.8160 0.8140 0.8140
14.294000 0.8140 0.8140 0.8140 0.8130 0.8130
14.328178 0.8130 0.8110 0.8110 0.8110 0.8090
14.362000 0.8090 0.8090 0.8070 0.8070 0.8070
14.396178 0.8060 0.8060 0.8060 0.8060 0.8060
14.430000 0.8060 0.8060 0.8040 0.8040 0.8040
14.464178 0.8040 0.8040 0.8040 0.8040 0.8040
14.499000 0.8020 0.8020 0.8020 0.8010 0.8010
14.533178 0.8010 0.7990 0.7990 0.7990 0.7990
14.567000 0.7990 0.7990 0.7990 0.7970 0.7970
14.601178 0.7970 0.7950 0.7950 0.7940 0.7940
14.635000 0.7940 0.7940 0.7940 0.7940 0.7920
14.669178 0.7920 0.7900 0.7900 0.7900 0.7900
14.704000 0.7900 0.7890 0.7890 0.7870 0.7870
14.738178 0.7870 0.7850 0.7850 0.7830 0.7830
14.772000 0.7830 0.7820 0.7820 0.7800 0.7800
14.806178 0.7780 0.7780 0.7780 0.7780 0.7780
14.840000 0.7770 0.7770 0.7770 0.7770 0.7750
14.874178 0.7750 0.7750 0.7750 0.7730 0.7730
14.909000 0.7730 0.7710 0.7710 0.7710 0.7710
14.943178 0.7700 0.7700 0.7700 0.7700 0.7680
14.977000 0.7680 0.7680 0.7680 0.7660 0.7660
15.011178 0.7650 0.7650 0.7650 0.7630 0.7630
15.045000 0.7610 0.7610 0.7590 0.7590 0.7580
15.079178 0.7580 0.7560 0.7560 0.7560 0.7540
15.114000 0.7540 0.7540 0.7530 0.7530 0.7510
15.148178 0.7510 0.7510 0.7510 0.7490 0.7490
15.182000 0.7490 0.7470 0.7470 0.7460 0.7460
15.216178 0.7460 0.7460 0.7460 0.7460 0.7460
15.250000 0.7460 0.7460 0.7460 0.7460 0.7440
15.284178 0.7440 0.7440 0.7440 0.7420 0.7420
15.319000 0.7420 0.7400 0.7400 0.7420 0.7420
15.353178 0.7420 0.7420 0.7400 0.7400 0.7400
15.387000 0.7400 0.7400 0.7400 0.7390 0.7390
15.421178 0.7390 0.7370 0.7370 0.7370 0.7350
15.455000 0.7350 0.7340 0.7340 0.7340 0.7320
15.489178 0.7320 0.7320 0.7300 0.7300 0.7300
15.524000 0.7300 0.7300 0.7300 0.7300 0.7300
15.558178 0.7300 0.7300 0.7300 0.7300 0.7280
15.592000 0.7280 0.7280 0.7280 0.7270 0.7270
15.626178 0.7270 0.7270 0.7250 0.7250 0.7250
15.660000 0.7230 0.7230 0.7230 0.7220 0.7220
15.694178 0.7220 0.7200 0.7200 0.7180 0.7180
15.729000 0.7180 0.7180 0.7180 0.7180 0.7180
15.763178 0.7180 0.7180 0.7180 0.7180 0.7180
15.797000 0.7160 0.7160 0.7160 0.7160 0.7160
15.831178 0.7160 0.7160 0.7160 0.7160 0.7160
15.865000 0.7160 0.7160 0.7160 0.7160 0.7160
15.899178 0.7160 0.7160 0.7160 0.7160 0.7160
15.934000 0.7160 0.7160 0.7160 0.7160 0.7160
15.968178 0.7160 0.7160 0.7160 0.7160 0.7160
16.002000 0.7160 0.7160 0.7160 0.7160
##END=
