##TITLE=Acetanilide, 2,6-di-isopropyl-4-tert-butyl-
##JCAMP-DX=4.24
##DATA TYPE=INFRARED SPECTRUM
##CLASS=COBLENTZ III
##ORIGIN=MONSANTO (J. FREEMAN)
##OWNER=Copyright (C) 1987 by the Coblentz Society
Collection (C) 2018 copyright by the U.S. Secretary of Commerce
on behalf of the United States of America. All rights reserved.
##DATE=1959/06/12
##NAMES=N-(4-tert-butyl-2,6-diisopropylphenyl)acetamide
##MOLFORM=C18 H29 N O
##SOURCE REFERENCE=COBLENTZ NO. 9295
##$NIST ID=B6009295
##$NIST SOURCE=COBLENTZ
##$NIST IMAGE=cob9295
##SPECTROMETER/DATA SYSTEM=BECKMAN IR-4 (HYBRID PRISM-GRATING)
##INSTRUMENT PARAMETERS=NaCl PRISM
##STATE=SOLID (NUJOL MULL)
$$SPECTRAL CONTAMINATION DUE TO OIL AROUND 2900, 1450 CM^-^1
##SAMPLING PROCEDURE=TRANSMISSION
##RESOLUTION=2
##DATA PROCESSING=DIGITIZED BY COBLENTZ SOCIETY (BATCH II) FROM HARD COPY
##XUNITS=1/CM
##YUNITS=TRANSMITTANCE
##XFACTOR=1.0
##YFACTOR=1
##FIRSTX=627
##LASTX=4000
##FIRSTY=0.863
##MAXX=4000
##MINX=627
##MAXY=0.9839
##MINY=0.0037
##NPOINTS=3374
##XYDATA=(X++(Y..Y))
627.000000 0.8630 0.8629 0.8629 0.8631 0.8640
632.000000 0.8663 0.8678 0.8682 0.8680 0.8673
637.000000 0.8670 0.8666 0.8656 0.8647 0.8642
642.000000 0.8642 0.8645 0.8649 0.8655 0.8661
647.000000 0.8685 0.8710 0.8738 0.8769 0.8787
652.000000 0.8797 0.8816 0.8755 0.8711 0.8669
657.000000 0.8642 0.8638 0.8647 0.8669 0.8739
662.000000 0.8828 0.8897 0.8953 0.9023 0.9075
667.000000 0.9115 0.9149 0.9167 0.9184 0.9201
672.000000 0.9221 0.9237 0.9244 0.9249 0.9299
677.000000 0.9239 0.9233 0.9225 0.9209 0.9189
682.000000 0.9168 0.9141 0.9115 0.9089 0.9056
687.000000 0.9023 0.8989 0.8955 0.8922 0.8888
692.000000 0.8846 0.8802 0.8755 0.8707 0.8658
697.000000 0.8610 0.8555 0.8495 0.8436 0.8376
702.000000 0.8313 0.8248 0.8184 0.8120 0.8053
707.000000 0.7986 0.7920 0.7854 0.7777 0.7702
712.000000 0.7626 0.7548 0.7466 0.7386 0.7305
717.000000 0.7190 0.7072 0.6958 0.6846 0.6758
722.000000 0.6714 0.6747 0.6771 0.6833 0.6902
727.000000 0.6960 0.7014 0.7083 0.7155 0.7228
732.000000 0.7274 0.7317 0.7349 0.7373 0.7407
737.000000 0.7447 0.7492 0.7536 0.7565 0.7593
742.000000 0.7470 0.7305 0.7131 0.6981 0.6931
747.000000 0.6940 0.7054 0.7369 0.7866 0.8049
752.000000 0.8204 0.8357 0.8478 0.8561 0.8619
757.000000 0.8669 0.8722 0.8769 0.8805 0.8825
762.000000 0.8838 0.8852 0.8862 0.8867 0.8871
767.000000 0.8875 0.8881 0.8891 0.8902 0.8918
772.000000 0.8933 0.8949 0.8975 0.9004 0.9034
777.000000 0.9063 0.9093 0.9134 0.9174 0.9204
782.000000 0.9226 0.9247 0.9269 0.9297 0.9324
787.000000 0.9348 0.9367 0.9383 0.9400 0.9416
792.000000 0.9431 0.9442 0.9454 0.9466 0.9477
797.000000 0.9488 0.9496 0.9502 0.9508 0.9512
802.000000 0.9514 0.9512 0.9510 0.9487 0.9505
807.000000 0.9491 0.9478 0.9462 0.9441 0.9417
812.000000 0.9388 0.9359 0.9291 0.9197 0.9081
817.000000 0.8924 0.8743 0.8799 0.8892 0.9046
822.000000 0.9193 0.9291 0.9335 0.9365 0.9392
827.000000 0.9415 0.9436 0.9447 0.9452 0.9456
832.000000 0.9455 0.9454 0.9450 0.9445 0.9438
837.000000 0.9429 0.9415 0.9397 0.9369 0.9340
842.000000 0.9311 0.9282 0.9264 0.9257 0.9254
847.000000 0.9259 0.9267 0.9282 0.9298 0.9314
852.000000 0.9335 0.9356 0.9373 0.9389 0.9392
857.000000 0.9392 0.9393 0.9390 0.9379 0.9368
862.000000 0.9333 0.9295 0.9246 0.9193 0.9134
867.000000 0.9028 0.8902 0.8753 0.8535 0.7874
872.000000 0.7123 0.6374 0.5678 0.5639 0.5574
877.000000 0.7223 0.8168 0.8530 0.8712 0.8848
882.000000 0.8951 0.9002 0.9037 0.9060 0.9080
887.000000 0.9099 0.9114 0.9129 0.9148 0.9167
892.000000 0.9189 0.9211 0.9232 0.9252 0.9270
897.000000 0.9282 0.9294 0.9296 0.9295 0.9339
902.000000 0.9291 0.9285 0.9277 0.9264 0.9245
907.000000 0.9226 0.9204 0.9179 0.9153 0.9127
912.000000 0.9085 0.9042 0.8982 0.8894 0.8767
917.000000 0.8623 0.8466 0.8373 0.8254 0.8090
922.000000 0.7923 0.7875 0.7943 0.8039 0.8161
927.000000 0.8282 0.8383 0.8462 0.8511 0.8531
932.000000 0.8550 0.8518 0.8492 0.8445 0.8367
937.000000 0.8261 0.8183 0.8087 0.7979 0.7883
942.000000 0.7785 0.7738 0.7773 0.7858 0.8015
947.000000 0.8182 0.8328 0.8411 0.8483 0.8545
952.000000 0.8569 0.8569 0.8602 0.8551 0.8531
957.000000 0.8511 0.8488 0.8465 0.8436 0.8407
962.000000 0.8363 0.8315 0.8235 0.8091 0.7805
967.000000 0.7362 0.6920 0.6545 0.6449 0.6422
972.000000 0.6426 0.6776 0.7049 0.7321 0.7593
977.000000 0.7863 0.8111 0.8332 0.8465 0.8567
982.000000 0.8660 0.8724 0.8782 0.8824 0.8853
987.000000 0.8858 0.8862 0.8858 0.8890 0.8849
992.000000 0.8837 0.8822 0.8800 0.8775 0.8729
997.000000 0.8677 0.8619 0.8557 0.8473 0.8389
1002.000000 0.8312 0.8236 0.8160 0.8087 0.8048
1007.000000 0.8031 0.8034 0.8060 0.8142 0.8226
1012.000000 0.8310 0.8393 0.8477 0.8561 0.8644
1017.000000 0.8727 0.8802 0.8855 0.8913 0.8945
1022.000000 0.8962 0.8969 0.8958 0.8975 0.8972
1027.000000 0.8970 0.8954 0.8933 0.8904 0.8874
1032.000000 0.8845 0.8824 0.8802 0.8782 0.8796
1037.000000 0.8806 0.8819 0.8845 0.8872 0.8907
1042.000000 0.8946 0.8978 0.9011 0.9041 0.9068
1047.000000 0.9095 0.9121 0.9138 0.9152 0.9154
1052.000000 0.9156 0.9185 0.9153 0.9149 0.9139
1057.000000 0.9125 0.9095 0.9052 0.9002 0.8921
1062.000000 0.8835 0.8728 0.8653 0.8582 0.8503
1067.000000 0.8428 0.8380 0.8335 0.8313 0.8306
1072.000000 0.8274 0.8336 0.8398 0.8492 0.8584
1077.000000 0.8685 0.8773 0.8850 0.8917 0.8981
1082.000000 0.9038 0.9080 0.9124 0.9158 0.9177
1087.000000 0.9195 0.9200 0.9202 0.9205 0.9208
1092.000000 0.9203 0.9195 0.9183 0.9171 0.9160
1097.000000 0.9147 0.9126 0.9103 0.9081 0.9060
1102.000000 0.9038 0.9017 0.9005 0.8999 0.8992
1107.000000 0.8990 0.8993 0.8997 0.9005 0.9015
1112.000000 0.9025 0.9035 0.9050 0.9065 0.9080
1117.000000 0.9098 0.9116 0.9134 0.9155 0.9177
1122.000000 0.9199 0.9215 0.9228 0.9231 0.9233
1127.000000 0.9254 0.9239 0.9237 0.9234 0.9231
1132.000000 0.9228 0.9220 0.9211 0.9202 0.9193
1137.000000 0.9181 0.9165 0.9151 0.9135 0.9109
1142.000000 0.9082 0.9055 0.9026 0.8999 0.8970
1147.000000 0.8942 0.8914 0.8888 0.8864 0.8841
1152.000000 0.8817 0.8794 0.8789 0.8799 0.8812
1157.000000 0.8825 0.8824 0.8819 0.8813 0.8806
1162.000000 0.8780 0.8744 0.8694 0.8634 0.8568
1167.000000 0.8495 0.8475 0.8466 0.8442 0.8496
1172.000000 0.8539 0.8585 0.8657 0.8728 0.8767
1177.000000 0.8804 0.8829 0.8846 0.8848 0.8846
1182.000000 0.8876 0.8830 0.8815 0.8798 0.8755
1187.000000 0.8698 0.8629 0.8547 0.8448 0.8303
1192.000000 0.8148 0.7954 0.7789 0.7643 0.7519
1197.000000 0.7424 0.7344 0.7284 0.7261 0.7265
1202.000000 0.7319 0.7442 0.7771 0.8048 0.8180
1207.000000 0.8279 0.8363 0.8428 0.8488 0.8548
1212.000000 0.8602 0.8639 0.8664 0.8671 0.8676
1217.000000 0.8673 0.8670 0.8674 0.8657 0.8645
1222.000000 0.8630 0.8600 0.8570 0.8539 0.8508
1227.000000 0.8468 0.8428 0.8380 0.8327 0.8206
1232.000000 0.7923 0.7492 0.7062 0.6626 0.6395
1237.000000 0.6334 0.6308 0.6300 0.6303 0.6427
1242.000000 0.6619 0.6810 0.7002 0.7193 0.7384
1247.000000 0.7502 0.7509 0.7512 0.7514 0.7508
1252.000000 0.7503 0.7501 0.7501 0.7501 0.7501
1257.000000 0.7514 0.7529 0.7537 0.7543 0.7531
1262.000000 0.7521 0.7488 0.7457 0.7428 0.7371
1267.000000 0.7297 0.7217 0.7151 0.7092 0.7044
1272.000000 0.6997 0.6940 0.6858 0.6766 0.6678
1277.000000 0.6605 0.6533 0.6459 0.6380 0.6304
1282.000000 0.6244 0.6185 0.6128 0.6082 0.6044
1287.000000 0.6017 0.5987 0.5946 0.5816 0.5611
1292.000000 0.5351 0.5095 0.4839 0.4584 0.4330
1297.000000 0.4074 0.3820 0.3648 0.3593 0.3602
1302.000000 0.3587 0.3596 0.3708 0.3946 0.4190
1307.000000 0.4435 0.4679 0.4922 0.5165 0.5407
1312.000000 0.5650 0.5880 0.6175 0.6541 0.6709
1317.000000 0.6795 0.6863 0.6906 0.6942 0.6950
1322.000000 0.6959 0.6960 0.6960 0.6979 0.6945
1327.000000 0.6935 0.6912 0.6866 0.6801 0.6729
1332.000000 0.6645 0.6536 0.6408 0.6267 0.6189
1337.000000 0.6118 0.6070 0.6025 0.5982 0.5947
1342.000000 0.5913 0.5890 0.5869 0.5850 0.5832
1347.000000 0.5815 0.5763 0.5615 0.5510 0.5400
1352.000000 0.5256 0.5113 0.4871 0.4607 0.4345
1357.000000 0.4087 0.3830 0.3573 0.3316 0.3060
1362.000000 0.2804 0.2548 0.2291 0.2154 0.2076
1367.000000 0.2014 0.1968 0.1929 0.1902 0.1878
1372.000000 0.1855 0.1834 0.1818 0.1809 0.1803
1377.000000 0.1803 0.1812 0.1852 0.2133 0.2491
1382.000000 0.2849 0.3206 0.3564 0.3920 0.4275
1387.000000 0.4630 0.4923 0.5080 0.5140 0.5201
1392.000000 0.5270 0.5348 0.5426 0.5545 0.5716
1397.000000 0.5868 0.5980 0.6063 0.6083 0.6100
1402.000000 0.6105 0.6104 0.6109 0.6075 0.5939
1407.000000 0.5880 0.5831 0.5778 0.5720 0.5660
1412.000000 0.5599 0.5539 0.5493 0.5454 0.5414
1417.000000 0.5376 0.5340 0.5304 0.5267 0.5230
1422.000000 0.5190 0.5153 0.5121 0.5091 0.5053
1427.000000 0.4994 0.4936 0.4877 0.4745 0.4559
1432.000000 0.4373 0.4187 0.4003 0.3817 0.3632
1437.000000 0.3447 0.3263 0.3079 0.2895 0.2759
1442.000000 0.2635 0.2503 0.2384 0.1986 0.1753
1447.000000 0.1621 0.1491 0.1389 0.1330 0.1279
1452.000000 0.1228 0.1183 0.1150 0.1119 0.1088
1457.000000 0.1058 0.1028 0.1005 0.0984 0.0964
1462.000000 0.0947 0.0943 0.0942 0.0944 0.0948
1467.000000 0.0968 0.1072 0.1281 0.1471 0.1659
1472.000000 0.1847 0.2035 0.2223 0.2410 0.2598
1477.000000 0.2785 0.2972 0.3159 0.3345 0.4015
1482.000000 0.4131 0.4193 0.4254 0.4304 0.4339
1487.000000 0.4373 0.4407 0.4441 0.4460 0.4475
1492.000000 0.4477 0.4474 0.4471 0.4529 0.4458
1497.000000 0.4445 0.4416 0.4373 0.4339 0.4301
1502.000000 0.4256 0.4186 0.4112 0.4048 0.3904
1507.000000 0.3822 0.3740 0.3650 0.3561 0.3478
1512.000000 0.3399 0.3314 0.3222 0.3138 0.3057
1517.000000 0.2982 0.2909 0.2838 0.2781 0.2726
1522.000000 0.2671 0.2619 0.2568 0.2517 0.2468
1527.000000 0.2430 0.2406 0.2386 0.2371 0.2349
1532.000000 0.2367 0.2378 0.2404 0.2437 0.2486
1537.000000 0.2538 0.2593 0.2653 0.2811 0.3202
1542.000000 0.3683 0.4164 0.4643 0.5337 0.5541
1547.000000 0.5652 0.5771 0.5911 0.6094 0.6294
1552.000000 0.6493 0.6684 0.6930 0.7357 0.7507
1557.000000 0.7644 0.7761 0.7836 0.7887 0.7929
1562.000000 0.7955 0.7965 0.7963 0.7960 0.7955
1567.000000 0.7949 0.8001 0.7881 0.7833 0.7793
1572.000000 0.7754 0.7716 0.7683 0.7659 0.7645
1577.000000 0.7640 0.7641 0.7647 0.7654 0.7662
1582.000000 0.7670 0.7681 0.7693 0.7702 0.7709
1587.000000 0.7713 0.7626 0.7496 0.7364 0.7233
1592.000000 0.7101 0.6970 0.6839 0.6708 0.6578
1597.000000 0.6447 0.6316 0.6186 0.6116 0.6113
1602.000000 0.6127 0.6260 0.6511 0.6761 0.7012
1607.000000 0.7261 0.7491 0.7625 0.7627 0.7626
1612.000000 0.7618 0.7619 0.7481 0.7396 0.7312
1617.000000 0.7228 0.7144 0.7059 0.6975 0.6891
1622.000000 0.6808 0.6727 0.6672 0.6641 0.6623
1627.000000 0.6611 0.6597 0.6580 0.6553 0.6497
1632.000000 0.6430 0.6335 0.6065 0.5885 0.5706
1637.000000 0.5528 0.5349 0.5170 0.4992 0.4814
1642.000000 0.4636 0.4458 0.4281 0.4104 0.3927
1647.000000 0.3750 0.3574 0.3397 0.3221 0.3045
1652.000000 0.2869 0.2694 0.2519 0.2344 0.2169
1657.000000 0.1994 0.1706 0.1717 0.1717 0.1717
1662.000000 0.1718 0.1719 0.2177 0.3093 0.4190
1667.000000 0.5286 0.6149 0.6200 0.6248 0.6385
1672.000000 0.6525 0.6666 0.6799 0.6928 0.7058
1677.000000 0.7191 0.7327 0.7472 0.7779 0.8053
1682.000000 0.8191 0.8260 0.8312 0.8367 0.8432
1687.000000 0.8523 0.8613 0.8784 0.8908 0.9022
1692.000000 0.9122 0.9194 0.9238 0.9281 0.9325
1697.000000 0.9359 0.9392 0.9425 0.9457 0.9490
1702.000000 0.9521 0.9546 0.9570 0.9594 0.9618
1707.000000 0.9637 0.9651 0.9663 0.9675 0.9687
1712.000000 0.9700 0.9712 0.9724 0.9736 0.9748
1717.000000 0.9756 0.9763 0.9769 0.9775 0.9780
1722.000000 0.9783 0.9784 0.9784 0.9785 0.9785
1727.000000 0.9786 0.9786 0.9839 0.9787 0.9784
1732.000000 0.9780 0.9777 0.9774 0.9770 0.9766
1737.000000 0.9757 0.9747 0.9736 0.9725 0.9714
1742.000000 0.9703 0.9693 0.9681 0.9667 0.9650
1747.000000 0.9633 0.9617 0.9602 0.9588 0.9574
1752.000000 0.9559 0.9543 0.9525 0.9522 0.9519
1757.000000 0.9519 0.9519 0.9519 0.9519 0.9521
1762.000000 0.9524 0.9527 0.9531 0.9534 0.9539
1767.000000 0.9545 0.9552 0.9559 0.9567 0.9576
1772.000000 0.9587 0.9598 0.9610 0.9621 0.9633
1777.000000 0.9647 0.9659 0.9671 0.9681 0.9690
1782.000000 0.9699 0.9705 0.9710 0.9715 0.9720
1787.000000 0.9725 0.9728 0.9730 0.9733 0.9736
1792.000000 0.9738 0.9739 0.9739 0.9740 0.9740
1797.000000 0.9740 0.9741 0.9742 0.9742 0.9742
1802.000000 0.9743 0.9743 0.9745 0.9745 0.9747
1807.000000 0.9748 0.9749 0.9751 0.9752 0.9753
1812.000000 0.9754 0.9756 0.9756 0.9758 0.9759
1817.000000 0.9759 0.9759 0.9759 0.9759 0.9759
1822.000000 0.9759 0.9759 0.9759 0.9759 0.9759
1827.000000 0.9759 0.9760 0.9761 0.9761 0.9762
1832.000000 0.9763 0.9764 0.9764 0.9765 0.9766
1837.000000 0.9767 0.9767 0.9768 0.9768 0.9769
1842.000000 0.9769 0.9771 0.9772 0.9772 0.9773
1847.000000 0.9774 0.9775 0.9775 0.9775 0.9776
1852.000000 0.9777 0.9777 0.9778 0.9779 0.9780
1857.000000 0.9780 0.9780 0.9781 0.9781 0.9782
1862.000000 0.9783 0.9784 0.9784 0.9785 0.9785
1867.000000 0.9785 0.9786 0.9787 0.9788 0.9788
1872.000000 0.9788 0.9789 0.9789 0.9790 0.9790
1877.000000 0.9791 0.9791 0.9791 0.9792 0.9792
1882.000000 0.9793 0.9793 0.9794 0.9794 0.9794
1887.000000 0.9795 0.9795 0.9796 0.9796 0.9796
1892.000000 0.9797 0.9797 0.9798 0.9798 0.9799
1897.000000 0.9799 0.9799 0.9800 0.9800 0.9800
1902.000000 0.9800 0.9800 0.9800 0.9801 0.9801
1907.000000 0.9801 0.9801 0.9801 0.9802 0.9802
1912.000000 0.9802 0.9802 0.9802 0.9802 0.9802
1917.000000 0.9802 0.9803 0.9803 0.9803 0.9803
1922.000000 0.9803 0.9803 0.9804 0.9804 0.9804
1927.000000 0.9804 0.9804 0.9804 0.9804 0.9805
1932.000000 0.9805 0.9805 0.9805 0.9805 0.9805
1937.000000 0.9805 0.9804 0.9804 0.9804 0.9804
1942.000000 0.9804 0.9804 0.9804 0.9804 0.9804
1947.000000 0.9804 0.9804 0.9804 0.9804 0.9804
1952.000000 0.9804 0.9804 0.9804 0.9804 0.9804
1957.000000 0.9803 0.9803 0.9803 0.9803 0.9803
1962.000000 0.9803 0.9803 0.9803 0.9803 0.9803
1967.000000 0.9803 0.9803 0.9802 0.9801 0.9799
1972.000000 0.9798 0.9797 0.9795 0.9794 0.9793
1977.000000 0.9792 0.9790 0.9788 0.9787 0.9785
1982.000000 0.9784 0.9783 0.9782 0.9780 0.9779
1987.000000 0.9778 0.9777 0.9775 0.9773 0.9772
1992.000000 0.9771 0.9769 0.9768 0.9767 0.9766
1997.000000 0.9764 0.9763 0.9762 0.9761 0.9759
2002.000000 0.9758 0.9757 0.9756 0.9754 0.9753
2007.000000 0.9752 0.9751 0.9749 0.9748 0.9748
2012.000000 0.9747 0.9745 0.9744 0.9743 0.9742
2017.000000 0.9740 0.9739 0.9738 0.9737 0.9736
2022.000000 0.9735 0.9734 0.9733 0.9732 0.9731
2027.000000 0.9731 0.9732 0.9732 0.9733 0.9734
2032.000000 0.9734 0.9735 0.9735 0.9736 0.9737
2037.000000 0.9737 0.9738 0.9738 0.9739 0.9740
2042.000000 0.9740 0.9741 0.9741 0.9742 0.9743
2047.000000 0.9743 0.9744 0.9744 0.9744 0.9745
2052.000000 0.9745 0.9746 0.9746 0.9746 0.9747
2057.000000 0.9747 0.9747 0.9747 0.9748 0.9748
2062.000000 0.9749 0.9749 0.9749 0.9750 0.9750
2067.000000 0.9751 0.9751 0.9751 0.9751 0.9751
2072.000000 0.9751 0.9750 0.9750 0.9750 0.9750
2077.000000 0.9750 0.9750 0.9749 0.9749 0.9749
2082.000000 0.9749 0.9749 0.9748 0.9748 0.9748
2087.000000 0.9748 0.9748 0.9747 0.9747 0.9747
2092.000000 0.9747 0.9747 0.9746 0.9746 0.9746
2097.000000 0.9746 0.9746 0.9746 0.9745 0.9744
2102.000000 0.9743 0.9742 0.9742 0.9741 0.9740
2107.000000 0.9739 0.9738 0.9737 0.9736 0.9736
2112.000000 0.9735 0.9734 0.9733 0.9733 0.9732
2117.000000 0.9731 0.9730 0.9729 0.9729 0.9728
2122.000000 0.9727 0.9726 0.9726 0.9724 0.9723
2127.000000 0.9723 0.9722 0.9721 0.9720 0.9720
2132.000000 0.9719 0.9718 0.9717 0.9716 0.9715
2137.000000 0.9714 0.9714 0.9713 0.9712 0.9711
2142.000000 0.9711 0.9710 0.9709 0.9708 0.9706
2147.000000 0.9705 0.9703 0.9702 0.9701 0.9699
2152.000000 0.9698 0.9697 0.9696 0.9695 0.9693
2157.000000 0.9692 0.9690 0.9689 0.9688 0.9686
2162.000000 0.9685 0.9684 0.9683 0.9682 0.9680
2167.000000 0.9679 0.9678 0.9676 0.9675 0.9674
2172.000000 0.9673 0.9671 0.9670 0.9669 0.9667
2177.000000 0.9666 0.9665 0.9663 0.9662 0.9661
2182.000000 0.9660 0.9659 0.9658 0.9656 0.9655
2187.000000 0.9655 0.9654 0.9653 0.9652 0.9652
2192.000000 0.9651 0.9650 0.9649 0.9648 0.9648
2197.000000 0.9647 0.9647 0.9646 0.9645 0.9644
2202.000000 0.9644 0.9643 0.9643 0.9642 0.9641
2207.000000 0.9640 0.9640 0.9639 0.9639 0.9638
2212.000000 0.9637 0.9636 0.9636 0.9635 0.9635
2217.000000 0.9634 0.9633 0.9632 0.9632 0.9631
2222.000000 0.9631 0.9630 0.9629 0.9628 0.9628
2227.000000 0.9627 0.9627 0.9626 0.9626 0.9625
2232.000000 0.9624 0.9623 0.9623 0.9622 0.9622
2237.000000 0.9621 0.9621 0.9620 0.9620 0.9619
2242.000000 0.9619 0.9618 0.9618 0.9617 0.9617
2247.000000 0.9616 0.9615 0.9614 0.9614 0.9613
2252.000000 0.9613 0.9612 0.9612 0.9611 0.9611
2257.000000 0.9610 0.9610 0.9609 0.9609 0.9608
2262.000000 0.9608 0.9607 0.9606 0.9605 0.9605
2267.000000 0.9604 0.9604 0.9603 0.9603 0.9602
2272.000000 0.9602 0.9601 0.9601 0.9600 0.9600
2277.000000 0.9599 0.9599 0.9599 0.9599 0.9599
2282.000000 0.9598 0.9598 0.9598 0.9598 0.9597
2287.000000 0.9597 0.9597 0.9597 0.9596 0.9596
2292.000000 0.9596 0.9596 0.9596 0.9596 0.9595
2297.000000 0.9595 0.9595 0.9595 0.9594 0.9594
2302.000000 0.9594 0.9594 0.9594 0.9593 0.9593
2307.000000 0.9593 0.9593 0.9592 0.9592 0.9592
2312.000000 0.9592 0.9591 0.9591 0.9591 0.9591
2317.000000 0.9590 0.9590 0.9590 0.9590 0.9590
2322.000000 0.9589 0.9589 0.9588 0.9587 0.9586
2327.000000 0.9586 0.9585 0.9584 0.9583 0.9583
2332.000000 0.9583 0.9582 0.9581 0.9580 0.9580
2337.000000 0.9579 0.9578 0.9577 0.9577 0.9576
2342.000000 0.9575 0.9575 0.9574 0.9574 0.9573
2347.000000 0.9572 0.9571 0.9571 0.9570 0.9569
2352.000000 0.9568 0.9568 0.9568 0.9567 0.9566
2357.000000 0.9565 0.9565 0.9564 0.9563 0.9562
2362.000000 0.9562 0.9561 0.9561 0.9560 0.9559
2367.000000 0.9559 0.9558 0.9557 0.9556 0.9555
2372.000000 0.9554 0.9554 0.9553 0.9552 0.9552
2377.000000 0.9551 0.9550 0.9549 0.9548 0.9547
2382.000000 0.9547 0.9546 0.9545 0.9545 0.9544
2387.000000 0.9543 0.9542 0.9541 0.9541 0.9540
2392.000000 0.9539 0.9538 0.9538 0.9537 0.9536
2397.000000 0.9535 0.9535 0.9534 0.9533 0.9532
2402.000000 0.9531 0.9530 0.9528 0.9528 0.9527
2407.000000 0.9525 0.9524 0.9523 0.9522 0.9520
2412.000000 0.9519 0.9519 0.9517 0.9516 0.9515
2417.000000 0.9514 0.9512 0.9511 0.9510 0.9509
2422.000000 0.9508 0.9507 0.9506 0.9504 0.9503
2427.000000 0.9502 0.9501 0.9500 0.9499 0.9498
2432.000000 0.9496 0.9495 0.9494 0.9493 0.9491
2437.000000 0.9490 0.9489 0.9489 0.9487 0.9486
2442.000000 0.9485 0.9485 0.9484 0.9483 0.9483
2447.000000 0.9482 0.9481 0.9480 0.9480 0.9479
2452.000000 0.9479 0.9478 0.9477 0.9476 0.9475
2457.000000 0.9475 0.9475 0.9474 0.9473 0.9472
2462.000000 0.9471 0.9471 0.9470 0.9470 0.9469
2467.000000 0.9468 0.9467 0.9467 0.9466 0.9465
2472.000000 0.9465 0.9464 0.9464 0.9463 0.9462
2477.000000 0.9461 0.9460 0.9458 0.9457 0.9455
2482.000000 0.9454 0.9452 0.9450 0.9448 0.9446
2487.000000 0.9444 0.9443 0.9441 0.9440 0.9438
2492.000000 0.9436 0.9435 0.9433 0.9432 0.9430
2497.000000 0.9428 0.9427 0.9425 0.9423 0.9421
2502.000000 0.9419 0.9418 0.9416 0.9415 0.9413
2507.000000 0.9411 0.9409 0.9405 0.9402 0.9398
2512.000000 0.9395 0.9391 0.9387 0.9383 0.9379
2517.000000 0.9376 0.9372 0.9369 0.9365 0.9361
2522.000000 0.9357 0.9353 0.9350 0.9346 0.9343
2527.000000 0.9339 0.9336 0.9332 0.9328 0.9324
2532.000000 0.9319 0.9314 0.9308 0.9302 0.9296
2537.000000 0.9290 0.9284 0.9278 0.9272 0.9265
2542.000000 0.9260 0.9254 0.9248 0.9242 0.9235
2547.000000 0.9229 0.9222 0.9215 0.9207 0.9199
2552.000000 0.9190 0.9182 0.9173 0.9165 0.9157
2557.000000 0.9149 0.9141 0.9132 0.9124 0.9116
2562.000000 0.9108 0.9100 0.9091 0.9083 0.9075
2567.000000 0.9066 0.9058 0.9050 0.9042 0.9034
2572.000000 0.9026 0.9018 0.9010 0.9002 0.8993
2577.000000 0.8985 0.8978 0.8971 0.8964 0.8958
2582.000000 0.8952 0.8945 0.8938 0.8932 0.8925
2587.000000 0.8919 0.8912 0.8906 0.8899 0.8892
2592.000000 0.8886 0.8880 0.8873 0.8867 0.8860
2597.000000 0.8854 0.8847 0.8841 0.8835 0.8829
2602.000000 0.8823 0.8817 0.8811 0.8805 0.8799
2607.000000 0.8793 0.8787 0.8781 0.8775 0.8769
2612.000000 0.8763 0.8757 0.8751 0.8745 0.8739
2617.000000 0.8733 0.8727 0.8722 0.8716 0.8710
2622.000000 0.8706 0.8701 0.8696 0.8691 0.8687
2627.000000 0.8682 0.8677 0.8673 0.8668 0.8663
2632.000000 0.8659 0.8654 0.8649 0.8644 0.8639
2637.000000 0.8634 0.8629 0.8624 0.8619 0.8614
2642.000000 0.8610 0.8605 0.8600 0.8595 0.8590
2647.000000 0.8585 0.8580 0.8575 0.8570 0.8565
2652.000000 0.8560 0.8555 0.8550 0.8546 0.8542
2657.000000 0.8537 0.8533 0.8528 0.8524 0.8519
2662.000000 0.8515 0.8511 0.8506 0.8502 0.8497
2667.000000 0.8493 0.8489 0.8486 0.8484 0.8481
2672.000000 0.8479 0.8476 0.8474 0.8472 0.8469
2677.000000 0.8467 0.8464 0.8462 0.8459 0.8457
2682.000000 0.8454 0.8450 0.8445 0.8439 0.8434
2687.000000 0.8428 0.8422 0.8417 0.8411 0.8405
2692.000000 0.8397 0.8389 0.8381 0.8372 0.8363
2697.000000 0.8353 0.8344 0.8335 0.8326 0.8317
2702.000000 0.8308 0.8300 0.8295 0.8290 0.8284
2707.000000 0.8279 0.8274 0.8270 0.8268 0.8266
2712.000000 0.8265 0.8263 0.8262 0.8261 0.8260
2717.000000 0.8259 0.8258 0.8257 0.8256 0.8255
2722.000000 0.8254 0.8254 0.8253 0.8252 0.8252
2727.000000 0.8251 0.8250 0.8250 0.8249 0.8248
2732.000000 0.8248 0.8247 0.8246 0.8246 0.8245
2737.000000 0.8244 0.8244 0.8243 0.8242 0.8241
2742.000000 0.8240 0.8239 0.8239 0.8237 0.8235
2747.000000 0.8233 0.8231 0.8228 0.8226 0.8220
2752.000000 0.8214 0.8207 0.8172 0.8126 0.8079
2757.000000 0.8027 0.7971 0.7915 0.7859 0.7803
2762.000000 0.7747 0.7691 0.7635 0.7579 0.7523
2767.000000 0.7467 0.7412 0.7356 0.7301 0.7245
2772.000000 0.7189 0.7134 0.7078 0.7023 0.6968
2777.000000 0.6912 0.6857 0.6802 0.6747 0.6691
2782.000000 0.6636 0.6581 0.6526 0.6470 0.6415
2787.000000 0.6360 0.6306 0.6251 0.6196 0.6141
2792.000000 0.6087 0.6032 0.5977 0.5922 0.5868
2797.000000 0.5813 0.5759 0.5704 0.5650 0.5596
2802.000000 0.5541 0.5489 0.5444 0.5398 0.5349
2807.000000 0.5283 0.5217 0.5150 0.5054 0.4957
2812.000000 0.4861 0.4764 0.4668 0.4572 0.4476
2817.000000 0.4380 0.4284 0.4188 0.4092 0.3996
2822.000000 0.3900 0.3804 0.3708 0.3612 0.3517
2827.000000 0.3421 0.3326 0.3230 0.3135 0.3040
2832.000000 0.2945 0.2850 0.2755 0.2660 0.2565
2837.000000 0.2470 0.2376 0.2281 0.2186 0.2094
2842.000000 0.2039 0.1984 0.1929 0.1894 0.1861
2847.000000 0.1829 0.1800 0.1774 0.1748 0.1722
2852.000000 0.1696 0.1670 0.1618 0.1370 0.1122
2857.000000 0.0874 0.0805 0.0766 0.0727 0.0688
2862.000000 0.0650 0.0613 0.0578 0.0551 0.0525
2867.000000 0.0498 0.0484 0.0470 0.0455 0.0441
2872.000000 0.0427 0.0413 0.0399 0.0388 0.0376
2877.000000 0.0364 0.0352 0.0340 0.0328 0.0314
2882.000000 0.0299 0.0285 0.0271 0.0259 0.0246
2887.000000 0.0234 0.0223 0.0212 0.0200 0.0192
2892.000000 0.0184 0.0177 0.0170 0.0165 0.0159
2897.000000 0.0154 0.0148 0.0143 0.0138 0.0133
2902.000000 0.0128 0.0123 0.0119 0.0115 0.0111
2907.000000 0.0107 0.0104 0.0100 0.0096 0.0093
2912.000000 0.0090 0.0087 0.0084 0.0082 0.0079
2917.000000 0.0077 0.0075 0.0072 0.0070 0.0067
2922.000000 0.0065 0.0063 0.0060 0.0058 0.0056
2927.000000 0.0054 0.0053 0.0051 0.0050 0.0048
2932.000000 0.0047 0.0047 0.0046 0.0045 0.0043
2937.000000 0.0042 0.0041 0.0041 0.0040 0.0040
2942.000000 0.0039 0.0038 0.0038 0.0037 0.0037
2947.000000 0.0037 0.0037 0.0037 0.0037 0.0037
2952.000000 0.0037 0.0037 0.0037 0.0037 0.0037
2957.000000 0.0037 0.0037 0.0077 0.0172 0.0267
2962.000000 0.0362 0.0475 0.0588 0.0702 0.0816
2967.000000 0.0930 0.1043 0.1157 0.1270 0.1383
2972.000000 0.1497 0.1610 0.1723 0.1836 0.1949
2977.000000 0.2062 0.2175 0.2288 0.2401 0.2514
2982.000000 0.2626 0.2738 0.2851 0.2963 0.3075
2987.000000 0.3187 0.3299 0.3411 0.3523 0.3635
2992.000000 0.3747 0.3858 0.3970 0.4082 0.4194
2997.000000 0.4305 0.4417 0.4528 0.4639 0.4750
3002.000000 0.4835 0.4913 0.4991 0.5061 0.5099
3007.000000 0.5137 0.5174 0.5228 0.5292 0.5357
3012.000000 0.5421 0.5460 0.5496 0.5533 0.5565
3017.000000 0.5585 0.5606 0.5626 0.5647 0.5667
3022.000000 0.5688 0.5709 0.5740 0.5771 0.5802
3027.000000 0.5833 0.5864 0.5894 0.5925 0.5956
3032.000000 0.5987 0.6017 0.6048 0.6079 0.6109
3037.000000 0.6140 0.6171 0.6201 0.6231 0.6262
3042.000000 0.6292 0.6322 0.6353 0.6383 0.6414
3047.000000 0.6444 0.6475 0.6505 0.6536 0.6566
3052.000000 0.6596 0.6627 0.6657 0.6687 0.6717
3057.000000 0.6747 0.6777 0.6807 0.6837 0.6867
3062.000000 0.6898 0.6928 0.6958 0.6988 0.7018
3067.000000 0.7048 0.7075 0.7098 0.7121 0.7145
3072.000000 0.7167 0.7189 0.7212 0.7234 0.7241
3077.000000 0.7248 0.7255 0.7261 0.7265 0.7270
3082.000000 0.7274 0.7278 0.7281 0.7283 0.7286
3087.000000 0.7288 0.7290 0.7292 0.7293 0.7281
3092.000000 0.7296 0.7297 0.7298 0.7299 0.7299
3097.000000 0.7299 0.7298 0.7298 0.7298 0.7298
3102.000000 0.7297 0.7296 0.7295 0.7294 0.7285
3107.000000 0.7264 0.7244 0.7223 0.7191 0.7151
3112.000000 0.7110 0.7070 0.7029 0.6989 0.6948
3117.000000 0.6908 0.6867 0.6827 0.6787 0.6746
3122.000000 0.6706 0.6666 0.6626 0.6586 0.6545
3127.000000 0.6505 0.6465 0.6425 0.6385 0.6345
3132.000000 0.6305 0.6265 0.6225 0.6185 0.6145
3137.000000 0.6105 0.6065 0.6025 0.5986 0.5946
3142.000000 0.5906 0.5866 0.5826 0.5787 0.5747
3147.000000 0.5708 0.5668 0.5628 0.5589 0.5549
3152.000000 0.5510 0.5470 0.5431 0.5391 0.5352
3157.000000 0.5312 0.5273 0.5234 0.5194 0.5155
3162.000000 0.5116 0.5077 0.5037 0.4998 0.4959
3167.000000 0.4920 0.4881 0.4842 0.4803 0.4764
3172.000000 0.4724 0.4685 0.4647 0.4608 0.4569
3177.000000 0.4530 0.4491 0.4452 0.4413 0.4374
3182.000000 0.4335 0.4296 0.4257 0.4218 0.4180
3187.000000 0.4141 0.4102 0.4064 0.4025 0.3987
3192.000000 0.3948 0.3910 0.3871 0.3833 0.3794
3197.000000 0.3756 0.3717 0.3679 0.3641 0.3602
3202.000000 0.3564 0.3526 0.3488 0.3449 0.3411
3207.000000 0.3373 0.3335 0.3297 0.3259 0.3221
3212.000000 0.3183 0.3144 0.3106 0.3069 0.3031
3217.000000 0.2993 0.2955 0.2917 0.2879 0.2841
3222.000000 0.2814 0.2805 0.2797 0.2789 0.2782
3227.000000 0.2780 0.2777 0.2775 0.2773 0.2773
3232.000000 0.2773 0.2773 0.2773 0.2802 0.2773
3237.000000 0.2774 0.2774 0.2775 0.2777 0.2778
3242.000000 0.2780 0.2823 0.2915 0.3008 0.3100
3247.000000 0.3202 0.3331 0.3461 0.3591 0.3721
3252.000000 0.3850 0.3980 0.4110 0.4239 0.4369
3257.000000 0.4498 0.4627 0.4756 0.4885 0.5014
3262.000000 0.5143 0.5272 0.5401 0.5530 0.5658
3267.000000 0.5786 0.5915 0.6043 0.6172 0.6300
3272.000000 0.6428 0.6556 0.6684 0.6812 0.6940
3277.000000 0.7067 0.7195 0.7323 0.7450 0.7578
3282.000000 0.7705 0.7832 0.7959 0.8086 0.8155
3287.000000 0.8213 0.8272 0.8330 0.8373 0.8402
3292.000000 0.8432 0.8461 0.8490 0.8518 0.8546
3297.000000 0.8574 0.8602 0.8626 0.8648 0.8671
3302.000000 0.8694 0.8714 0.8732 0.8751 0.8769
3307.000000 0.8786 0.8800 0.8814 0.8828 0.8842
3312.000000 0.8856 0.8870 0.8884 0.8897 0.8913
3317.000000 0.8933 0.8953 0.8973 0.8992 0.9011
3322.000000 0.9030 0.9049 0.9068 0.9082 0.9093
3327.000000 0.9103 0.9114 0.9125 0.9135 0.9146
3332.000000 0.9157 0.9168 0.9176 0.9183 0.9189
3337.000000 0.9196 0.9202 0.9206 0.9209 0.9212
3342.000000 0.9216 0.9219 0.9222 0.9226 0.9229
3347.000000 0.9232 0.9236 0.9239 0.9242 0.9246
3352.000000 0.9248 0.9250 0.9252 0.9254 0.9256
3357.000000 0.9258 0.9260 0.9261 0.9263 0.9265
3362.000000 0.9266 0.9268 0.9269 0.9271 0.9272
3367.000000 0.9274 0.9276 0.9277 0.9279 0.9281
3372.000000 0.9282 0.9284 0.9286 0.9287 0.9289
3377.000000 0.9290 0.9292 0.9293 0.9295 0.9297
3382.000000 0.9298 0.9300 0.9300 0.9301 0.9301
3387.000000 0.9302 0.9303 0.9304 0.9305 0.9306
3392.000000 0.9306 0.9307 0.9308 0.9309 0.9310
3397.000000 0.9311 0.9312 0.9312 0.9313 0.9314
3402.000000 0.9315 0.9316 0.9317 0.9318 0.9319
3407.000000 0.9319 0.9320 0.9321 0.9322 0.9323
3412.000000 0.9324 0.9325 0.9325 0.9326 0.9327
3417.000000 0.9328 0.9328 0.9329 0.9330 0.9330
3422.000000 0.9331 0.9332 0.9333 0.9334 0.9335
3427.000000 0.9335 0.9336 0.9337 0.9338 0.9339
3432.000000 0.9339 0.9340 0.9340 0.9341 0.9342
3437.000000 0.9342 0.9343 0.9344 0.9344 0.9345
3442.000000 0.9346 0.9346 0.9347 0.9347 0.9348
3447.000000 0.9349 0.9349 0.9350 0.9351 0.9351
3452.000000 0.9352 0.9352 0.9353 0.9354 0.9354
3457.000000 0.9355 0.9356 0.9356 0.9357 0.9357
3462.000000 0.9358 0.9359 0.9359 0.9359 0.9359
3467.000000 0.9359 0.9360 0.9360 0.9361 0.9361
3472.000000 0.9361 0.9362 0.9362 0.9362 0.9362
3477.000000 0.9362 0.9363 0.9363 0.9364 0.9364
3482.000000 0.9365 0.9365 0.9365 0.9365 0.9365
3487.000000 0.9366 0.9366 0.9366 0.9367 0.9367
3492.000000 0.9368 0.9368 0.9368 0.9369 0.9369
3497.000000 0.9370 0.9370 0.9370 0.9370 0.9370
3502.000000 0.9371 0.9371 0.9372 0.9372 0.9372
3507.000000 0.9373 0.9373 0.9373 0.9373 0.9373
3512.000000 0.9374 0.9374 0.9375 0.9375 0.9375
3517.000000 0.9376 0.9376 0.9376 0.9376 0.9376
3522.000000 0.9377 0.9377 0.9378 0.9378 0.9378
3527.000000 0.9379 0.9379 0.9379 0.9379 0.9379
3532.000000 0.9380 0.9380 0.9381 0.9381 0.9381
3537.000000 0.9382 0.9382 0.9382 0.9382 0.9382
3542.000000 0.9383 0.9383 0.9384 0.9384 0.9384
3547.000000 0.9385 0.9385 0.9385 0.9385 0.9385
3552.000000 0.9386 0.9386 0.9387 0.9387 0.9387
3557.000000 0.9388 0.9388 0.9388 0.9388 0.9388
3562.000000 0.9389 0.9389 0.9389 0.9389 0.9389
3567.000000 0.9379 0.9390 0.9390 0.9390 0.9390
3572.000000 0.9390 0.9390 0.9390 0.9390 0.9390
3577.000000 0.9390 0.9390 0.9390 0.9390 0.9390
3582.000000 0.9391 0.9391 0.9391 0.9391 0.9391
3587.000000 0.9391 0.9391 0.9391 0.9391 0.9391
3592.000000 0.9391 0.9391 0.9391 0.9391 0.9391
3597.000000 0.9391 0.9392 0.9392 0.9392 0.9392
3602.000000 0.9392 0.9392 0.9392 0.9392 0.9392
3607.000000 0.9392 0.9392 0.9392 0.9392 0.9392
3612.000000 0.9392 0.9393 0.9393 0.9393 0.9393
3617.000000 0.9393 0.9393 0.9393 0.9393 0.9393
3622.000000 0.9393 0.9393 0.9393 0.9393 0.9393
3627.000000 0.9393 0.9393 0.9394 0.9394 0.9394
3632.000000 0.9394 0.9394 0.9393 0.9393 0.9393
3637.000000 0.9393 0.9393 0.9393 0.9392 0.9391
3642.000000 0.9391 0.9390 0.9390 0.9389 0.9389
3647.000000 0.9388 0.9387 0.9387 0.9386 0.9386
3652.000000 0.9386 0.9385 0.9385 0.9384 0.9384
3657.000000 0.9383 0.9383 0.9382 0.9382 0.9381
3662.000000 0.9381 0.9380 0.9379 0.9379 0.9378
3667.000000 0.9378 0.9377 0.9377 0.9376 0.9376
3672.000000 0.9375 0.9375 0.9374 0.9374 0.9374
3677.000000 0.9373 0.9373 0.9372 0.9372 0.9371
3682.000000 0.9370 0.9370 0.9369 0.9369 0.9368
3687.000000 0.9368 0.9367 0.9366 0.9365 0.9363
3692.000000 0.9362 0.9361 0.9360 0.9359 0.9358
3697.000000 0.9357 0.9356 0.9355 0.9354 0.9352
3702.000000 0.9351 0.9350 0.9349 0.9348 0.9347
3707.000000 0.9346 0.9345 0.9344 0.9343 0.9342
3712.000000 0.9340 0.9339 0.9338 0.9337 0.9336
3717.000000 0.9335 0.9334 0.9333 0.9332 0.9331
3722.000000 0.9330 0.9329 0.9327 0.9326 0.9325
3727.000000 0.9324 0.9323 0.9322 0.9321 0.9320
3732.000000 0.9319 0.9318 0.9317 0.9316 0.9314
3737.000000 0.9313 0.9313 0.9312 0.9311 0.9310
3742.000000 0.9309 0.9308 0.9307 0.9306 0.9305
3747.000000 0.9304 0.9303 0.9301 0.9300 0.9299
3752.000000 0.9298 0.9296 0.9295 0.9294 0.9293
3757.000000 0.9291 0.9290 0.9289 0.9288 0.9286
3762.000000 0.9285 0.9283 0.9282 0.9281 0.9279
3767.000000 0.9278 0.9277 0.9276 0.9274 0.9273
3772.000000 0.9272 0.9270 0.9269 0.9268 0.9266
3777.000000 0.9265 0.9264 0.9262 0.9261 0.9260
3782.000000 0.9259 0.9257 0.9256 0.9255 0.9253
3787.000000 0.9252 0.9250 0.9249 0.9248 0.9247
3792.000000 0.9245 0.9244 0.9243 0.9242 0.9240
3797.000000 0.9239 0.9237 0.9236 0.9235 0.9234
3802.000000 0.9232 0.9231 0.9230 0.9229 0.9227
3807.000000 0.9226 0.9225 0.9223 0.9222 0.9220
3812.000000 0.9219 0.9218 0.9217 0.9216 0.9214
3817.000000 0.9213 0.9212 0.9211 0.9210 0.9208
3822.000000 0.9207 0.9206 0.9205 0.9203 0.9202
3827.000000 0.9201 0.9199 0.9198 0.9197 0.9196
3832.000000 0.9194 0.9193 0.9192 0.9191 0.9190
3837.000000 0.9188 0.9187 0.9186 0.9185 0.9183
3842.000000 0.9182 0.9181 0.9179 0.9178 0.9177
3847.000000 0.9176 0.9174 0.9173 0.9172 0.9171
3852.000000 0.9170 0.9168 0.9167 0.9166 0.9165
3857.000000 0.9164 0.9163 0.9161 0.9160 0.9159
3862.000000 0.9157 0.9156 0.9154 0.9153 0.9152
3867.000000 0.9151 0.9150 0.9149 0.9147 0.9146
3872.000000 0.9145 0.9144 0.9143 0.9142 0.9140
3877.000000 0.9139 0.9138 0.9136 0.9135 0.9134
3882.000000 0.9132 0.9131 0.9130 0.9129 0.9128
3887.000000 0.9127 0.9126 0.9124 0.9123 0.9122
3892.000000 0.9121 0.9120 0.9119 0.9117 0.9116
3897.000000 0.9115 0.9113 0.9112 0.9111 0.9110
3902.000000 0.9108 0.9107 0.9106 0.9105 0.9104
3907.000000 0.9103 0.9101 0.9100 0.9099 0.9097
3912.000000 0.9096 0.9094 0.9093 0.9091 0.9089
3917.000000 0.9087 0.9085 0.9084 0.9082 0.9080
3922.000000 0.9078 0.9076 0.9074 0.9072 0.9070
3927.000000 0.9068 0.9067 0.9065 0.9063 0.9061
3932.000000 0.9059 0.9058 0.9056 0.9054 0.9052
3937.000000 0.9051 0.9049 0.9047 0.9045 0.9043
3942.000000 0.9042 0.9040 0.9038 0.9036 0.9034
3947.000000 0.9032 0.9030 0.9028 0.9027 0.9025
3952.000000 0.9023 0.9021 0.9019 0.9018 0.9016
3957.000000 0.9014 0.9012 0.9011 0.9009 0.9007
3962.000000 0.9005 0.9004 0.9002 0.9000 0.8998
3967.000000 0.8996 0.8994 0.8992 0.8990 0.8989
3972.000000 0.8987 0.8985 0.8983 0.8982 0.8980
3977.000000 0.8977 0.8975 0.8973 0.8971 0.8969
3982.000000 0.8967 0.8965 0.8963 0.8960 0.8958
3987.000000 0.8956 0.8954 0.8952 0.8950 0.8948
3992.000000 0.8946 0.8944 0.8942 0.8939 0.8937
3997.000000 0.8935 0.8933 0.8931 0.8929
##END=
