##TITLE=COPPER DICHROMATE
$$ C.P.
##JCAMP-DX=4.24
##DATA TYPE=INFRARED SPECTRUM
##CLASS=COBLENTZ
##ORIGIN=MELLON INSTITUTE
##OWNER=COBLENTZ SOCIETY
Collection (C) 2018 copyright by the U.S. Secretary of Commerce
on behalf of the United States of America. All rights reserved.
##DATE=Not specified, most likely prior to 1970
##MOLFORM=Cu Cr2 O7  * 2 H2 O
##SOURCE REFERENCE=COBLENTZ NO. 465
##$NIST ID=B6000465
##$NIST SOURCE=COBLENTZ
##$NIST IMAGE=cob465
##SPECTROMETER/DATA SYSTEM=Not specified, most likely a prism, grating, or hybrid spectrometer.
##STATE=SOLID (NUJOL MULL)
##PATH LENGTH=
$$SPECTRAL CONTAMINATION DUE TO OIL AROUND 2900, 1450, 1380 CM^-^1
##SAMPLING PROCEDURE=TRANSMISSION
##RESOLUTION=4
##DATA PROCESSING=DIGITIZED BY NIST FROM HARD COPY
##XUNITS=MICROMETERS
##YUNITS=TRANSMITTANCE
##XFACTOR=1.000000
##YFACTOR=1
##DELTAX=000.006832
##FIRSTX=2.016
##LASTX=16.0087
##FIRSTY=0.878
##MAXX=16.0087
##MINX=2.016
##MAXY=0.979
##MINY=0.3
##NPOINTS=2049
##XYDATA=(X++(Y..Y))
2.016000 0.8780 0.8810 0.8830 0.8860 0.8860
2.050178 0.8880 0.8900 0.8910 0.8950 0.8970
2.084000 0.8980 0.8980 0.8980 0.9000 0.9020
2.118178 0.9020 0.9020 0.9030 0.9050 0.9070
2.153000 0.9070 0.9070 0.9070 0.9090 0.9090
2.187178 0.9120 0.9120 0.9120 0.9120 0.9120
2.221000 0.9120 0.9140 0.9140 0.9150 0.9170
2.255178 0.9190 0.9190 0.9190 0.9210 0.9210
2.289000 0.9210 0.9210 0.9210 0.9220 0.9220
2.323178 0.9220 0.9240 0.9240 0.9240 0.9240
2.358000 0.9240 0.9260 0.9260 0.9260 0.9270
2.392178 0.9270 0.9270 0.9270 0.9270 0.9270
2.426000 0.9270 0.9270 0.9270 0.9270 0.9270
2.460178 0.9270 0.9270 0.9270 0.9260 0.9260
2.494000 0.9260 0.9270 0.9270 0.9270 0.9290
2.528178 0.9290 0.9310 0.9310 0.9330 0.9330
2.563000 0.9340 0.9340 0.9360 0.9380 0.9390
2.597178 0.9390 0.9410 0.9410 0.9410 0.9390
2.631000 0.9390 0.9380 0.9360 0.9340 0.9340
2.665178 0.9330 0.9330 0.9270 0.9210 0.9170
2.699000 0.9020 0.8830 0.8710 0.8400 0.8090
2.733178 0.7590 0.6960 0.6360 0.5760 0.5190
2.768000 0.4680 0.4330 0.4200 0.4010 0.3870
2.802178 0.3730 0.3580 0.3430 0.3370 0.3290
2.836000 0.3240 0.3200 0.3190 0.3150 0.3120
2.870178 0.3100 0.3080 0.3070 0.3050 0.3050
2.904000 0.3070 0.3080 0.3100 0.3130 0.3150
2.938178 0.3170 0.3200 0.3240 0.3310 0.3370
2.973000 0.3480 0.3480 0.3580 0.3670 0.3820
3.007178 0.3910 0.3990 0.4030 0.4080 0.4110
3.041000 0.4160 0.4200 0.4250 0.4300 0.4370
3.075178 0.4400 0.4470 0.4510 0.4520 0.4610
3.109000 0.4660 0.4710 0.4780 0.4810 0.4920
3.143178 0.4970 0.5060 0.5120 0.5210 0.5260
3.178000 0.5330 0.5380 0.5450 0.5480 0.5550
3.212178 0.5590 0.5640 0.5690 0.5720 0.5780
3.246000 0.5810 0.5860 0.5880 0.5900 0.5910
3.280178 0.5900 0.5830 0.5640 0.5420 0.5300
3.314000 0.5040 0.4930 0.4870 0.4850 0.4680
3.348178 0.4520 0.4680 0.4870 0.4950 0.5330
3.383000 0.5550 0.5720 0.5880 0.6020 0.6100
3.417178 0.6100 0.6030 0.6030 0.6080 0.6140
3.451000 0.6310 0.6360 0.6550 0.7040 0.7680
3.485178 0.7830 0.7950 0.8010 0.8130 0.8180
3.519000 0.8230 0.8300 0.8330 0.8370 0.8400
3.553178 0.8450 0.8490 0.8500 0.8540 0.8540
3.588000 0.8590 0.8610 0.8620 0.8670 0.8690
3.622178 0.8730 0.8740 0.8780 0.8790 0.8830
3.656000 0.8850 0.8880 0.8900 0.8910 0.8930
3.690178 0.8930 0.8970 0.8980 0.9000 0.9020
3.724000 0.9020 0.9020 0.9030 0.9030 0.9050
3.758178 0.9070 0.9090 0.9100 0.9100 0.9120
3.793000 0.9120 0.9140 0.9150 0.9170 0.9170
3.827178 0.9190 0.9190 0.9210 0.9210 0.9210
3.861000 0.9210 0.9210 0.9210 0.9220 0.9220
3.895178 0.9240 0.9240 0.9240 0.9260 0.9260
3.929000 0.9270 0.9270 0.9270 0.9270 0.9270
3.963178 0.9270 0.9270 0.9290 0.9290 0.9290
3.998000 0.9290 0.9290 0.9290 0.9310 0.9310
4.032178 0.9310 0.9310 0.9310 0.9310 0.9330
4.066000 0.9330 0.9310 0.9310 0.9310 0.9310
4.100178 0.9310 0.9310 0.9310 0.9330 0.9310
4.134000 0.9310 0.9310 0.9330 0.9330 0.9330
4.168178 0.9330 0.9330 0.9330 0.9330 0.9330
4.202000 0.9330 0.9330 0.9330 0.9310 0.9330
4.236178 0.9330 0.9330 0.9330 0.9310 0.9310
4.271000 0.9310 0.9330 0.9310 0.9310 0.9330
4.305178 0.9310 0.9310 0.9310 0.9310 0.9310
4.339000 0.9310 0.9310 0.9310 0.9310 0.9310
4.373178 0.9310 0.9310 0.9310 0.9310 0.9310
4.407000 0.9310 0.9310 0.9310 0.9310 0.9310
4.441178 0.9310 0.9310 0.9310 0.9290 0.9290
4.476000 0.9290 0.9290 0.9290 0.9290 0.9290
4.510178 0.9290 0.9290 0.9290 0.9290 0.9290
4.544000 0.9290 0.9290 0.9290 0.9270 0.9270
4.578178 0.9270 0.9270 0.9270 0.9270 0.9270
4.612000 0.9290 0.9290 0.9290 0.9290 0.9270
4.646178 0.9270 0.9290 0.9290 0.9290 0.9290
4.681000 0.9290 0.9290 0.9290 0.9290 0.9290
4.715178 0.9290 0.9310 0.9310 0.9310 0.9310
4.749000 0.9310 0.9310 0.9310 0.9310 0.9330
4.783178 0.9330 0.9330 0.9330 0.9330 0.9330
4.817000 0.9330 0.9330 0.9330 0.9330 0.9340
4.851178 0.9330 0.9330 0.9330 0.9330 0.9330
4.886000 0.9330 0.9330 0.9330 0.9340 0.9340
4.920178 0.9340 0.9360 0.9360 0.9360 0.9360
4.954000 0.9360 0.9360 0.9360 0.9360 0.9380
4.988178 0.9380 0.9380 0.9380 0.9380 0.9380
5.022000 0.9380 0.9390 0.9390 0.9390 0.9390
5.056178 0.9390 0.9410 0.9390 0.9390 0.9390
5.091000 0.9410 0.9410 0.9430 0.9430 0.9430
5.125178 0.9430 0.9450 0.9450 0.9460 0.9460
5.159000 0.9460 0.9460 0.9460 0.9460 0.9480
5.193178 0.9480 0.9480 0.9480 0.9480 0.9480
5.227000 0.9480 0.9500 0.9500 0.9500 0.9500
5.261178 0.9500 0.9500 0.9500 0.9500 0.9500
5.296000 0.9500 0.9500 0.9500 0.9500 0.9500
5.330178 0.9500 0.9500 0.9500 0.9500 0.9500
5.364000 0.9500 0.9500 0.9500 0.9500 0.9500
5.398178 0.9500 0.9500 0.9500 0.9510 0.9510
5.432000 0.9510 0.9510 0.9510 0.9510 0.9510
5.466178 0.9510 0.9510 0.9500 0.9500 0.9500
5.501000 0.9510 0.9510 0.9510 0.9510 0.9530
5.535178 0.9530 0.9530 0.9530 0.9530 0.9530
5.569000 0.9530 0.9530 0.9550 0.9550 0.9550
5.603178 0.9550 0.9550 0.9550 0.9550 0.9550
5.637000 0.9550 0.9570 0.9570 0.9570 0.9570
5.671178 0.9580 0.9580 0.9600 0.9600 0.9600
5.706000 0.9600 0.9600 0.9600 0.9600 0.9600
5.740178 0.9600 0.9600 0.9600 0.9600 0.9600
5.774000 0.9620 0.9600 0.9600 0.9600 0.9580
5.808178 0.9580 0.9570 0.9570 0.9550 0.9530
5.842000 0.9510 0.9510 0.9500 0.9450 0.9430
5.876178 0.9410 0.9380 0.9380 0.9360 0.9340
5.911000 0.9310 0.9310 0.9290 0.9240 0.9220
5.945178 0.9170 0.9140 0.9070 0.8970 0.8850
5.979000 0.8760 0.8640 0.8470 0.8400 0.8250
6.013178 0.8070 0.7970 0.7890 0.7770 0.7700
6.047000 0.7630 0.7490 0.7350 0.7200 0.7060
6.081178 0.6960 0.6800 0.6630 0.6390 0.6340
6.116000 0.6240 0.6220 0.6190 0.6190 0.6190
6.150178 0.6220 0.6260 0.6270 0.6360 0.6430
6.184000 0.6500 0.6560 0.6750 0.6910 0.7080
6.218178 0.7200 0.7300 0.7350 0.7440 0.7540
6.252000 0.7650 0.7830 0.7890 0.8020 0.8040
6.286178 0.8160 0.8210 0.8250 0.8280 0.8300
6.320000 0.8330 0.8350 0.8350 0.8370 0.8380
6.354178 0.8400 0.8430 0.8490 0.8490 0.8500
6.389000 0.8520 0.8550 0.8590 0.8620 0.8660
6.423178 0.8690 0.8710 0.8730 0.8760 0.8810
6.457000 0.8850 0.8880 0.8930 0.8950 0.8950
6.491178 0.8970 0.9000 0.9000 0.9000 0.9000
6.525000 0.9000 0.9020 0.9030 0.9030 0.9070
6.559178 0.9090 0.9090 0.9100 0.9100 0.9120
6.594000 0.9140 0.9150 0.9170 0.9190 0.9210
6.628178 0.9220 0.9220 0.9240 0.9240 0.9260
6.662000 0.9260 0.9260 0.9270 0.9290 0.9310
6.696178 0.9330 0.9340 0.9340 0.9340 0.9360
6.730000 0.9340 0.9340 0.9330 0.9290 0.9240
6.764178 0.9210 0.9170 0.9140 0.9090 0.9050
6.799000 0.9000 0.8970 0.8930 0.8910 0.8900
6.833178 0.8880 0.8880 0.8860 0.8860 0.8880
6.867000 0.8900 0.8900 0.8910 0.8930 0.8950
6.901178 0.8980 0.9000 0.9020 0.9030 0.9050
6.935000 0.9090 0.9120 0.9140 0.9150 0.9190
6.969178 0.9220 0.9240 0.9260 0.9270 0.9290
7.004000 0.9310 0.9330 0.9330 0.9330 0.9330
7.038178 0.9330 0.9330 0.9340 0.9340 0.9360
7.072000 0.9360 0.9380 0.9390 0.9410 0.9410
7.106178 0.9430 0.9450 0.9450 0.9450 0.9450
7.140000 0.9460 0.9460 0.9460 0.9480 0.9480
7.174178 0.9500 0.9500 0.9510 0.9510 0.9480
7.209000 0.9460 0.9430 0.9430 0.9390 0.9340
7.243178 0.9340 0.9330 0.9330 0.9330 0.9330
7.277000 0.9340 0.9340 0.9340 0.9360 0.9360
7.311178 0.9380 0.9390 0.9430 0.9450 0.9460
7.345000 0.9480 0.9510 0.9530 0.9530 0.9530
7.379178 0.9550 0.9530 0.9550 0.9550 0.9570
7.414000 0.9580 0.9580 0.9580 0.9580 0.9580
7.448178 0.9600 0.9600 0.9600 0.9600 0.9600
7.482000 0.9600 0.9600 0.9580 0.9570 0.9580
7.516178 0.9580 0.9600 0.9600 0.9600 0.9620
7.550000 0.9620 0.9620 0.9630 0.9630 0.9630
7.584178 0.9630 0.9630 0.9630 0.9630 0.9630
7.619000 0.9630 0.9630 0.9630 0.9630 0.9630
7.653178 0.9630 0.9630 0.9630 0.9630 0.9630
7.687000 0.9630 0.9630 0.9630 0.9650 0.9650
7.721178 0.9650 0.9650 0.9650 0.9650 0.9650
7.755000 0.9650 0.9650 0.9650 0.9650 0.9670
7.789178 0.9670 0.9690 0.9690 0.9700 0.9700
7.824000 0.9700 0.9700 0.9720 0.9720 0.9720
7.858178 0.9720 0.9740 0.9740 0.9740 0.9740
7.892000 0.9740 0.9740 0.9750 0.9750 0.9750
7.926178 0.9750 0.9750 0.9750 0.9770 0.9770
7.960000 0.9770 0.9770 0.9770 0.9770 0.9790
7.994178 0.9790 0.9790 0.9790 0.9790 0.9790
8.029000 0.9790 0.9790 0.9790 0.9790 0.9790
8.063178 0.9790 0.9790 0.9790 0.9770 0.9770
8.097000 0.9770 0.9770 0.9770 0.9770 0.9770
8.131178 0.9770 0.9770 0.9750 0.9750 0.9770
8.165000 0.9770 0.9770 0.9770 0.9770 0.9770
8.199178 0.9750 0.9750 0.9750 0.9750 0.9750
8.234000 0.9770 0.9770 0.9770 0.9770 0.9750
8.268178 0.9750 0.9770 0.9770 0.9770 0.9770
8.302000 0.9770 0.9770 0.9790 0.9790 0.9790
8.336178 0.9790 0.9770 0.9770 0.9770 0.9770
8.370000 0.9770 0.9770 0.9770 0.9770 0.9770
8.404178 0.9770 0.9770 0.9770 0.9770 0.9770
8.439000 0.9770 0.9770 0.9770 0.9770 0.9770
8.473178 0.9770 0.9750 0.9750 0.9750 0.9750
8.507000 0.9750 0.9740 0.9740 0.9740 0.9740
8.541178 0.9720 0.9720 0.9700 0.9700 0.9700
8.575000 0.9690 0.9690 0.9690 0.9670 0.9670
8.609178 0.9670 0.9650 0.9650 0.9630 0.9630
8.643000 0.9630 0.9630 0.9630 0.9630 0.9630
8.677178 0.9630 0.9620 0.9620 0.9620 0.9620
8.712000 0.9620 0.9620 0.9600 0.9600 0.9580
8.746178 0.9580 0.9570 0.9570 0.9570 0.9570
8.780000 0.9550 0.9550 0.9550 0.9550 0.9550
8.814178 0.9550 0.9550 0.9550 0.9550 0.9550
8.848000 0.9530 0.9530 0.9530 0.9530 0.9530
8.882178 0.9530 0.9530 0.9530 0.9510 0.9510
8.917000 0.9510 0.9510 0.9510 0.9510 0.9510
8.951178 0.9510 0.9510 0.9500 0.9500 0.9500
8.985000 0.9500 0.9500 0.9510 0.9510 0.9500
9.019178 0.9510 0.9510 0.9510 0.9510 0.9510
9.053000 0.9510 0.9510 0.9530 0.9530 0.9530
9.087178 0.9530 0.9530 0.9530 0.9530 0.9550
9.122000 0.9550 0.9550 0.9550 0.9550 0.9550
9.156178 0.9550 0.9550 0.9570 0.9580 0.9570
9.190000 0.9570 0.9580 0.9570 0.9580 0.9580
9.224178 0.9580 0.9570 0.9570 0.9570 0.9570
9.258000 0.9580 0.9580 0.9580 0.9580 0.9580
9.292178 0.9570 0.9570 0.9570 0.9570 0.9580
9.327000 0.9570 0.9570 0.9570 0.9570 0.9570
9.361178 0.9570 0.9570 0.9570 0.9570 0.9570
9.395000 0.9570 0.9570 0.9570 0.9570 0.9570
9.429178 0.9570 0.9570 0.9570 0.9580 0.9580
9.463000 0.9580 0.9580 0.9580 0.9580 0.9570
9.497178 0.9570 0.9570 0.9550 0.9550 0.9550
9.532000 0.9550 0.9550 0.9550 0.9530 0.9530
9.566178 0.9550 0.9550 0.9530 0.9530 0.9530
9.600000 0.9530 0.9530 0.9530 0.9530 0.9530
9.634178 0.9510 0.9510 0.9510 0.9510 0.9510
9.668000 0.9510 0.9510 0.9510 0.9510 0.9510
9.702178 0.9510 0.9510 0.9510 0.9510 0.9510
9.737000 0.9510 0.9500 0.9500 0.9500 0.9500
9.771178 0.9500 0.9480 0.9480 0.9480 0.9480
9.805000 0.9460 0.9460 0.9450 0.9450 0.9430
9.839178 0.9430 0.9430 0.9430 0.9410 0.9390
9.873000 0.9380 0.9380 0.9360 0.9360 0.9340
9.907178 0.9360 0.9340 0.9340 0.9340 0.9330
9.942000 0.9310 0.9270 0.9260 0.9240 0.9220
9.976178 0.9210 0.9190 0.9150 0.9140 0.9100
10.010000 0.9030 0.8970 0.8880 0.8810 0.8790
10.044178 0.8690 0.8620 0.8540 0.8430 0.8330
10.078000 0.8260 0.8180 0.8040 0.7850 0.7820
10.112178 0.7680 0.7560 0.7490 0.7340 0.7270
10.147000 0.7220 0.7040 0.6940 0.6860 0.6720
10.181178 0.6630 0.6480 0.6360 0.6240 0.6030
10.215000 0.5980 0.5860 0.5780 0.5720 0.5520
10.249178 0.5450 0.5350 0.5240 0.5140 0.5000
10.283000 0.4900 0.4830 0.4750 0.4630 0.4540
10.317178 0.4450 0.4370 0.4270 0.4200 0.4130
10.352000 0.4040 0.4010 0.3970 0.3960 0.3870
10.386178 0.3800 0.3730 0.3670 0.3560 0.3530
10.420000 0.3510 0.3480 0.3430 0.3390 0.3360
10.454178 0.3320 0.3310 0.3250 0.3220 0.3200
10.488000 0.3190 0.3150 0.3130 0.3120 0.3080
10.522178 0.3050 0.3050 0.3030 0.3030 0.3030
10.557000 0.3030 0.3030 0.3030 0.3010 0.3010
10.591178 0.3010 0.3010 0.3010 0.3010 0.3010
10.625000 0.3010 0.3010 0.3010 0.3000 0.3000
10.659178 0.3000 0.3000 0.3000 0.3000 0.3000
10.693000 0.3010 0.3010 0.3010 0.3010 0.3030
10.727178 0.3030 0.3030 0.3030 0.3030 0.3030
10.761000 0.3030 0.3030 0.3050 0.3100 0.3130
10.795178 0.3190 0.3220 0.3310 0.3360 0.3410
10.830000 0.3460 0.3530 0.3650 0.3750 0.3840
10.864178 0.3970 0.4040 0.4250 0.4350 0.4490
10.898000 0.4540 0.4630 0.4730 0.4800 0.4880
10.932178 0.4990 0.5020 0.5060 0.5110 0.5160
10.966000 0.5190 0.5240 0.5260 0.5300 0.5330
11.000178 0.5350 0.5380 0.5400 0.5420 0.5430
11.035000 0.5450 0.5450 0.5480 0.5480 0.5500
11.069178 0.5520 0.5540 0.5540 0.5550 0.5550
11.103000 0.5590 0.5600 0.5620 0.5620 0.5640
11.137178 0.5660 0.5670 0.5670 0.5690 0.5710
11.171000 0.5710 0.5710 0.5710 0.5720 0.5720
11.205178 0.5740 0.5760 0.5780 0.5780 0.5780
11.240000 0.5780 0.5780 0.5790 0.5790 0.5790
11.274178 0.5810 0.5810 0.5810 0.5810 0.5810
11.308000 0.5830 0.5830 0.5830 0.5830 0.5840
11.342178 0.5840 0.5840 0.5860 0.5860 0.5860
11.376000 0.5860 0.5880 0.5880 0.5880 0.5880
11.410178 0.5900 0.5910 0.5910 0.5930 0.5930
11.445000 0.5950 0.5960 0.5980 0.6000 0.6000
11.479178 0.6000 0.6000 0.6000 0.6020 0.6020
11.513000 0.6030 0.6030 0.6030 0.6030 0.6030
11.547178 0.6050 0.6050 0.6100 0.6100 0.6120
11.581000 0.6120 0.6140 0.6150 0.6170 0.6170
11.615178 0.6200 0.6220 0.6220 0.6220 0.6240
11.650000 0.6260 0.6260 0.6270 0.6270 0.6290
11.684178 0.6290 0.6290 0.6310 0.6320 0.6320
11.718000 0.6340 0.6360 0.6360 0.6380 0.6380
11.752178 0.6390 0.6390 0.6410 0.6410 0.6430
11.786000 0.6430 0.6430 0.6430 0.6430 0.6440
11.820178 0.6440 0.6440 0.6440 0.6460 0.6460
11.855000 0.6460 0.6480 0.6480 0.6480 0.6500
11.889178 0.6500 0.6480 0.6480 0.6500 0.6500
11.923000 0.6500 0.6500 0.6500 0.6510 0.6510
11.957178 0.6510 0.6510 0.6510 0.6510 0.6510
11.991000 0.6510 0.6500 0.6500 0.6500 0.6480
12.025178 0.6480 0.6480 0.6460 0.6440 0.6440
12.060000 0.6440 0.6440 0.6440 0.6430 0.6430
12.094178 0.6430 0.6410 0.6410 0.6410 0.6410
12.128000 0.6390 0.6390 0.6390 0.6380 0.6380
12.162178 0.6360 0.6340 0.6320 0.6320 0.6310
12.196000 0.6290 0.6270 0.6260 0.6240 0.6240
12.230178 0.6220 0.6200 0.6190 0.6170 0.6170
12.265000 0.6150 0.6140 0.6120 0.6120 0.6080
12.299178 0.6070 0.6030 0.6020 0.6000 0.5980
12.333000 0.5950 0.5930 0.5910 0.5910 0.5900
12.367178 0.5860 0.5830 0.5810 0.5790 0.5760
12.401000 0.5720 0.5670 0.5670 0.5660 0.5660
12.435178 0.5620 0.5570 0.5540 0.5520 0.5480
12.470000 0.5450 0.5420 0.5400 0.5350 0.5330
12.504178 0.5310 0.5280 0.5240 0.5210 0.5190
12.538000 0.5160 0.5120 0.5090 0.5040 0.5040
12.572178 0.5020 0.5000 0.5000 0.4990 0.4970
12.606000 0.4920 0.4900 0.4880 0.4880 0.4850
12.640178 0.4850 0.4830 0.4810 0.4800 0.4780
12.675000 0.4780 0.4750 0.4750 0.4730 0.4730
12.709178 0.4710 0.4690 0.4690 0.4680 0.4660
12.743000 0.4640 0.4630 0.4630 0.4610 0.4590
12.777178 0.4590 0.4590 0.4560 0.4540 0.4540
12.811000 0.4540 0.4520 0.4520 0.4510 0.4490
12.845178 0.4490 0.4490 0.4470 0.4470 0.4470
12.880000 0.4450 0.4440 0.4440 0.4440 0.4400
12.914178 0.4400 0.4400 0.4420 0.4400 0.4400
12.948000 0.4390 0.4370 0.4370 0.4350 0.4350
12.982178 0.4330 0.4330 0.4330 0.4330 0.4320
13.016000 0.4320 0.4300 0.4300 0.4300 0.4280
13.050178 0.4270 0.4270 0.4270 0.4250 0.4250
13.084000 0.4250 0.4230 0.4210 0.4210 0.4210
13.118178 0.4210 0.4200 0.4200 0.4200 0.4200
13.153000 0.4200 0.4180 0.4180 0.4180 0.4180
13.187178 0.4180 0.4180 0.4180 0.4160 0.4160
13.221000 0.4150 0.4150 0.4150 0.4150 0.4150
13.255178 0.4150 0.4150 0.4150 0.4150 0.4150
13.289000 0.4150 0.4150 0.4130 0.4130 0.4130
13.323178 0.4130 0.4130 0.4130 0.4150 0.4150
13.358000 0.4150 0.4150 0.4150 0.4150 0.4130
13.392178 0.4150 0.4150 0.4130 0.4130 0.4130
13.426000 0.4130 0.4150 0.4150 0.4150 0.4150
13.460178 0.4150 0.4150 0.4150 0.4150 0.4150
13.494000 0.4150 0.4150 0.4150 0.4150 0.4160
13.528178 0.4180 0.4200 0.4200 0.4210 0.4210
13.563000 0.4230 0.4230 0.4230 0.4230 0.4230
13.597178 0.4270 0.4280 0.4280 0.4300 0.4320
13.631000 0.4320 0.4320 0.4330 0.4350 0.4350
13.665178 0.4370 0.4390 0.4400 0.4420 0.4420
13.699000 0.4450 0.4470 0.4490 0.4490 0.4510
13.733178 0.4520 0.4540 0.4560 0.4570 0.4590
13.768000 0.4630 0.4630 0.4640 0.4680 0.4690
13.802178 0.4690 0.4730 0.4760 0.4780 0.4800
13.836000 0.4810 0.4830 0.4850 0.4900 0.4900
13.870178 0.4920 0.4930 0.4990 0.5000 0.5000
13.904000 0.5020 0.5040 0.5060 0.5110 0.5120
13.938178 0.5140 0.5180 0.5190 0.5230 0.5230
13.973000 0.5260 0.5300 0.5310 0.5330 0.5360
14.007178 0.5400 0.5420 0.5430 0.5450 0.5470
14.041000 0.5480 0.5500 0.5500 0.5520 0.5520
14.075178 0.5540 0.5570 0.5600 0.5640 0.5660
14.109000 0.5660 0.5690 0.5710 0.5720 0.5740
14.143178 0.5760 0.5760 0.5790 0.5790 0.5810
14.178000 0.5830 0.5840 0.5860 0.5860 0.5880
14.212178 0.5880 0.5910 0.5950 0.5960 0.5980
14.246000 0.5980 0.6000 0.6000 0.6000 0.6030
14.280178 0.6030 0.6030 0.6050 0.6070 0.6080
14.314000 0.6100 0.6100 0.6120 0.6140 0.6140
14.348178 0.6150 0.6170 0.6190 0.6190 0.6200
14.383000 0.6220 0.6220 0.6220 0.6240 0.6240
14.417178 0.6240 0.6260 0.6270 0.6290 0.6310
14.451000 0.6310 0.6320 0.6340 0.6340 0.6360
14.485178 0.6380 0.6380 0.6380 0.6390 0.6390
14.519000 0.6390 0.6390 0.6390 0.6410 0.6410
14.553178 0.6410 0.6410 0.6410 0.6430 0.6430
14.588000 0.6440 0.6440 0.6440 0.6460 0.6460
14.622178 0.6460 0.6440 0.6440 0.6440 0.6440
14.656000 0.6460 0.6460 0.6460 0.6460 0.6460
14.690178 0.6480 0.6480 0.6480 0.6500 0.6500
14.724000 0.6480 0.6480 0.6480 0.6480 0.6480
14.758178 0.6480 0.6480 0.6500 0.6500 0.6500
14.793000 0.6480 0.6480 0.6500 0.6500 0.6480
14.827178 0.6480 0.6460 0.6480 0.6480 0.6480
14.861000 0.6480 0.6480 0.6460 0.6460 0.6460
14.895178 0.6460 0.6460 0.6460 0.6480 0.6480
14.929000 0.6480 0.6480 0.6500 0.6480 0.6500
14.963178 0.6480 0.6480 0.6460 0.6460 0.6480
14.998000 0.6480 0.6500 0.6500 0.6500 0.6500
15.032178 0.6480 0.6500 0.6480 0.6460 0.6460
15.066000 0.6460 0.6480 0.6480 0.6480 0.6460
15.100178 0.6480 0.6480 0.6480 0.6460 0.6480
15.134000 0.6480 0.6480 0.6460 0.6460 0.6460
15.168178 0.6460 0.6460 0.6440 0.6440 0.6440
15.202000 0.6440 0.6440 0.6430 0.6440 0.6440
15.236178 0.6430 0.6430 0.6430 0.6430 0.6430
15.271000 0.6410 0.6410 0.6410 0.6410 0.6410
15.305178 0.6390 0.6390 0.6390 0.6390 0.6390
15.339000 0.6390 0.6390 0.6380 0.6380 0.6380
15.373178 0.6380 0.6380 0.6360 0.6360 0.6360
15.407000 0.6340 0.6340 0.6340 0.6340 0.6340
15.441178 0.6340 0.6340 0.6320 0.6320 0.6320
15.476000 0.6320 0.6320 0.6320 0.6310 0.6310
15.510178 0.6310 0.6310 0.6310 0.6310 0.6310
15.544000 0.6310 0.6310 0.6310 0.6310 0.6310
15.578178 0.6310 0.6310 0.6310 0.6310 0.6310
15.612000 0.6310 0.6310 0.6310 0.6310 0.6310
15.646178 0.6290 0.6310 0.6310 0.6310 0.6310
15.681000 0.6310 0.6310 0.6290 0.6290 0.6290
15.715178 0.6290 0.6290 0.6290 0.6290 0.6270
15.749000 0.6270 0.6270 0.6270 0.6270 0.6270
15.783178 0.6270 0.6270 0.6270 0.6270 0.6260
15.817000 0.6260 0.6260 0.6260 0.6260 0.6240
15.851178 0.6240 0.6240 0.6240 0.6220 0.6220
15.886000 0.6240 0.6240 0.6240 0.6240 0.6240
15.920178 0.6240 0.6240 0.6240 0.6220 0.6220
15.954000 0.6240 0.6240 0.6220 0.6220 0.6220
15.988178 0.6220 0.6220 0.6220 0.6220
##END=
