##TITLE=MANGANESE SULFATE
$$ C.P.
##JCAMP-DX=4.24
##DATA TYPE=INFRARED SPECTRUM
##CLASS=COBLENTZ
##ORIGIN=MELLON INSTITUTE
##OWNER=COBLENTZ SOCIETY
Collection (C) 2018 copyright by the U.S. Secretary of Commerce
on behalf of the United States of America. All rights reserved.
##DATE=Not specified, most likely prior to 1970
##MOLFORM=Mn S O4  * 2 H2 O
##SOURCE REFERENCE=COBLENTZ NO. 548
##$NIST ID=B6000548
##$NIST SOURCE=COBLENTZ
##$NIST IMAGE=cob548
##SPECTROMETER/DATA SYSTEM=Not specified, most likely a prism, grating, or hybrid spectrometer.
##STATE=SOLID (NUJOL MULL)
##PATH LENGTH=
$$SPECTRAL CONTAMINATION DUE TO OIL AROUND 2900, 1450, 1380 CM^-^1
##SAMPLING PROCEDURE=TRANSMISSION
##RESOLUTION=4
##DATA PROCESSING=DIGITIZED BY NIST FROM HARD COPY
##XUNITS=MICROMETERS
##YUNITS=TRANSMITTANCE
##XFACTOR=1.000000
##YFACTOR=1
##DELTAX=000.006651
##FIRSTX=2.042
##LASTX=16.008
##FIRSTY=0.909
##MAXX=16.008
##MINX=2.042
##MAXY=0.971
##MINY=0.123
##NPOINTS=2101
##XYDATA=(X++(Y..Y))
2.042000 0.9090 0.9090 0.9090 0.9110 0.9110
2.075269 0.9110 0.9120 0.9120 0.9140 0.9140
2.109000 0.9160 0.9160 0.9160 0.9160 0.9160
2.142269 0.9160 0.9170 0.9170 0.9170 0.9170
2.175000 0.9170 0.9170 0.9170 0.9170 0.9170
2.208269 0.9170 0.9170 0.9170 0.9170 0.9170
2.242000 0.9160 0.9160 0.9160 0.9160 0.9160
2.275269 0.9160 0.9160 0.9140 0.9140 0.9140
2.308000 0.9140 0.9140 0.9140 0.9140 0.9140
2.341269 0.9140 0.9140 0.9140 0.9140 0.9140
2.375000 0.9140 0.9120 0.9120 0.9120 0.9140
2.408269 0.9140 0.9140 0.9140 0.9140 0.9140
2.441000 0.9160 0.9160 0.9160 0.9160 0.9160
2.474269 0.9160 0.9160 0.9160 0.9160 0.9160
2.508000 0.9170 0.9170 0.9190 0.9190 0.9190
2.541269 0.9190 0.9190 0.9190 0.9170 0.9170
2.574000 0.9170 0.9170 0.9190 0.9190 0.9190
2.607269 0.9170 0.9190 0.9190 0.9190 0.9190
2.641000 0.9210 0.9210 0.9210 0.9210 0.9210
2.674269 0.9210 0.9210 0.9220 0.9220 0.9220
2.707000 0.9240 0.9240 0.9240 0.9240 0.9240
2.740269 0.9240 0.9240 0.9220 0.9220 0.9220
2.774000 0.9210 0.9190 0.9170 0.9160 0.9160
2.807269 0.9120 0.9120 0.9110 0.9110 0.9060
2.840000 0.9020 0.8990 0.8960 0.8910 0.8810
2.873269 0.8720 0.8650 0.8590 0.8520 0.8470
2.907000 0.8390 0.8300 0.8140 0.8020 0.7800
2.940269 0.7720 0.7650 0.7580 0.7480 0.7370
2.973000 0.7310 0.7210 0.7180 0.7130 0.7080
3.006269 0.7030 0.7010 0.7000 0.7000 0.6960
3.040000 0.6950 0.6910 0.6880 0.6860 0.6850
3.073269 0.6830 0.6810 0.6810 0.6810 0.6800
3.106000 0.6800 0.6800 0.6800 0.6800 0.6800
3.139269 0.6800 0.6800 0.6800 0.6800 0.6800
3.173000 0.6810 0.6830 0.6830 0.6830 0.6850
3.206269 0.6850 0.6880 0.6880 0.6910 0.6930
3.239000 0.6930 0.6950 0.6960 0.6980 0.7000
3.272269 0.7010 0.7010 0.7030 0.7010 0.7000
3.306000 0.6950 0.6880 0.6680 0.6510 0.6340
3.339269 0.5960 0.5540 0.4570 0.4120 0.3750
3.372000 0.3550 0.3460 0.3450 0.3480 0.3510
3.405269 0.3650 0.3900 0.4200 0.4500 0.4570
3.439000 0.4570 0.4550 0.4550 0.4530 0.4530
3.472269 0.4570 0.4670 0.5250 0.6010 0.6410
3.505000 0.7450 0.7550 0.7830 0.7980 0.8150
3.538269 0.8220 0.8390 0.8500 0.8590 0.8650
3.572000 0.8710 0.8760 0.8810 0.8860 0.8910
3.605269 0.8940 0.8960 0.8990 0.9020 0.9040
3.638000 0.9040 0.9060 0.9090 0.9110 0.9120
3.671269 0.9140 0.9140 0.9160 0.9170 0.9190
3.705000 0.9190 0.9190 0.9210 0.9220 0.9240
3.738269 0.9240 0.9260 0.9270 0.9270 0.9270
3.771000 0.9270 0.9290 0.9290 0.9290 0.9310
3.804269 0.9310 0.9310 0.9310 0.9310 0.9320
3.838000 0.9320 0.9340 0.9340 0.9340 0.9360
3.871269 0.9360 0.9360 0.9360 0.9360 0.9380
3.904000 0.9380 0.9380 0.9390 0.9390 0.9390
3.937269 0.9390 0.9390 0.9410 0.9410 0.9430
3.971000 0.9430 0.9430 0.9430 0.9430 0.9430
4.004269 0.9430 0.9430 0.9440 0.9440 0.9440
4.037000 0.9440 0.9440 0.9440 0.9440 0.9440
4.070269 0.9460 0.9460 0.9460 0.9460 0.9480
4.104000 0.9480 0.9480 0.9480 0.9490 0.9490
4.137269 0.9490 0.9510 0.9510 0.9510 0.9510
4.170000 0.9490 0.9490 0.9480 0.9480 0.9460
4.203269 0.9440 0.9440 0.9440 0.9440 0.9440
4.237000 0.9440 0.9440 0.9440 0.9440 0.9440
4.270269 0.9440 0.9440 0.9440 0.9440 0.9440
4.304000 0.9440 0.9440 0.9430 0.9430 0.9430
4.337269 0.9430 0.9430 0.9430 0.9440 0.9440
4.370000 0.9440 0.9430 0.9430 0.9430 0.9430
4.403269 0.9410 0.9410 0.9410 0.9410 0.9390
4.437000 0.9410 0.9410 0.9410 0.9390 0.9390
4.470269 0.9380 0.9380 0.9360 0.9360 0.9340
4.503000 0.9340 0.9340 0.9340 0.9340 0.9340
4.536269 0.9340 0.9360 0.9360 0.9360 0.9380
4.570000 0.9380 0.9380 0.9380 0.9390 0.9390
4.603269 0.9390 0.9390 0.9390 0.9390 0.9410
4.636000 0.9390 0.9390 0.9390 0.9390 0.9390
4.669269 0.9390 0.9390 0.9380 0.9380 0.9380
4.703000 0.9380 0.9360 0.9360 0.9360 0.9360
4.736269 0.9360 0.9360 0.9360 0.9380 0.9360
4.769000 0.9360 0.9360 0.9360 0.9360 0.9360
4.802269 0.9380 0.9380 0.9380 0.9380 0.9380
4.836000 0.9380 0.9380 0.9380 0.9390 0.9390
4.869269 0.9390 0.9390 0.9390 0.9390 0.9390
4.902000 0.9390 0.9390 0.9390 0.9390 0.9390
4.935269 0.9390 0.9390 0.9390 0.9390 0.9390
4.969000 0.9390 0.9390 0.9390 0.9390 0.9390
5.002269 0.9390 0.9410 0.9390 0.9390 0.9390
5.035000 0.9410 0.9410 0.9410 0.9410 0.9410
5.068269 0.9410 0.9410 0.9410 0.9410 0.9410
5.102000 0.9410 0.9410 0.9430 0.9430 0.9430
5.135269 0.9430 0.9430 0.9430 0.9440 0.9430
5.168000 0.9430 0.9430 0.9430 0.9430 0.9430
5.201269 0.9440 0.9440 0.9440 0.9440 0.9440
5.235000 0.9460 0.9460 0.9460 0.9480 0.9480
5.268269 0.9480 0.9480 0.9480 0.9480 0.9490
5.301000 0.9490 0.9490 0.9490 0.9510 0.9510
5.334269 0.9510 0.9510 0.9510 0.9530 0.9530
5.368000 0.9510 0.9510 0.9510 0.9530 0.9530
5.401269 0.9530 0.9530 0.9530 0.9530 0.9530
5.434000 0.9530 0.9530 0.9530 0.9530 0.9530
5.467269 0.9540 0.9540 0.9540 0.9540 0.9540
5.501000 0.9560 0.9580 0.9580 0.9590 0.9590
5.534269 0.9590 0.9590 0.9590 0.9610 0.9610
5.567000 0.9610 0.9610 0.9610 0.9610 0.9610
5.600269 0.9630 0.9630 0.9630 0.9630 0.9640
5.634000 0.9640 0.9640 0.9640 0.9640 0.9640
5.667269 0.9640 0.9640 0.9640 0.9660 0.9660
5.700000 0.9660 0.9660 0.9640 0.9640 0.9660
5.733269 0.9680 0.9680 0.9660 0.9660 0.9660
5.767000 0.9680 0.9690 0.9690 0.9690 0.9690
5.800269 0.9710 0.9710 0.9710 0.9710 0.9710
5.833000 0.9710 0.9710 0.9710 0.9710 0.9710
5.866269 0.9710 0.9710 0.9690 0.9680 0.9680
5.900000 0.9690 0.9690 0.9690 0.9690 0.9680
5.933269 0.9680 0.9680 0.9680 0.9680 0.9660
5.966000 0.9660 0.9660 0.9660 0.9640 0.9640
5.999269 0.9630 0.9610 0.9610 0.9610 0.9610
6.033000 0.9590 0.9590 0.9590 0.9590 0.9590
6.066269 0.9590 0.9560 0.9560 0.9560 0.9560
6.099000 0.9560 0.9560 0.9560 0.9560 0.9560
6.132269 0.9560 0.9560 0.9560 0.9560 0.9560
6.166000 0.9560 0.9560 0.9560 0.9560 0.9580
6.199269 0.9590 0.9610 0.9610 0.9630 0.9630
6.232000 0.9640 0.9640 0.9660 0.9680 0.9680
6.265269 0.9680 0.9680 0.9680 0.9680 0.9680
6.299000 0.9680 0.9660 0.9660 0.9660 0.9660
6.332269 0.9660 0.9640 0.9640 0.9640 0.9630
6.365000 0.9630 0.9630 0.9630 0.9640 0.9640
6.398269 0.9640 0.9630 0.9630 0.9630 0.9630
6.432000 0.9640 0.9630 0.9630 0.9630 0.9630
6.465269 0.9610 0.9630 0.9610 0.9590 0.9590
6.498000 0.9580 0.9560 0.9560 0.9540 0.9530
6.531269 0.9490 0.9480 0.9460 0.9440 0.9410
6.565000 0.9380 0.9360 0.9340 0.9310 0.9310
6.598269 0.9270 0.9240 0.9210 0.9210 0.9190
6.631000 0.9170 0.9140 0.9110 0.9070 0.9040
6.664269 0.9020 0.9010 0.8970 0.8960 0.8940
6.698000 0.8920 0.8910 0.8890 0.8870 0.8860
6.731269 0.8840 0.8820 0.8790 0.8760 0.8690
6.764000 0.8550 0.8420 0.8350 0.8270 0.8100
6.797269 0.7830 0.7730 0.7630 0.7550 0.7500
6.831000 0.7480 0.7480 0.7480 0.7480 0.7520
6.864269 0.7580 0.7670 0.7770 0.7800 0.7970
6.897000 0.8000 0.8100 0.8220 0.8290 0.8350
6.930269 0.8390 0.8470 0.8520 0.8600 0.8720
6.964000 0.8840 0.8970 0.9040 0.9110 0.9160
6.997269 0.9190 0.9190 0.9240 0.9260 0.9270
7.030000 0.9290 0.9320 0.9340 0.9380 0.9410
7.063269 0.9430 0.9440 0.9480 0.9490 0.9510
7.097000 0.9540 0.9560 0.9560 0.9580 0.9590
7.130269 0.9590 0.9590 0.9590 0.9590 0.9560
7.163000 0.9530 0.9480 0.9430 0.9390 0.9270
7.196269 0.9160 0.9110 0.8960 0.8860 0.8820
7.230000 0.8810 0.8820 0.8860 0.8940 0.8990
7.263269 0.9010 0.9040 0.9090 0.9120 0.9160
7.296000 0.9210 0.9240 0.9270 0.9320 0.9360
7.329269 0.9380 0.9390 0.9410 0.9430 0.9440
7.363000 0.9460 0.9480 0.9490 0.9510 0.9530
7.396269 0.9530 0.9530 0.9530 0.9530 0.9540
7.429000 0.9540 0.9540 0.9540 0.9560 0.9560
7.462269 0.9560 0.9590 0.9590 0.9610 0.9610
7.496000 0.9610 0.9630 0.9630 0.9640 0.9640
7.529269 0.9640 0.9640 0.9640 0.9640 0.9640
7.562000 0.9640 0.9660 0.9660 0.9680 0.9680
7.595269 0.9680 0.9680 0.9680 0.9680 0.9690
7.629000 0.9680 0.9680 0.9680 0.9680 0.9680
7.662269 0.9680 0.9680 0.9680 0.9660 0.9660
7.695000 0.9660 0.9660 0.9660 0.9660 0.9660
7.728269 0.9660 0.9660 0.9660 0.9660 0.9660
7.762000 0.9660 0.9660 0.9660 0.9660 0.9660
7.795269 0.9660 0.9640 0.9640 0.9630 0.9610
7.828000 0.9610 0.9590 0.9580 0.9580 0.9560
7.861269 0.9580 0.9560 0.9560 0.9560 0.9540
7.895000 0.9530 0.9510 0.9510 0.9490 0.9480
7.928269 0.9480 0.9460 0.9460 0.9460 0.9460
7.961000 0.9460 0.9460 0.9440 0.9440 0.9440
7.994269 0.9430 0.9410 0.9390 0.9380 0.9360
8.028000 0.9360 0.9340 0.9320 0.9290 0.9260
8.061269 0.9240 0.9220 0.9220 0.9210 0.9160
8.094000 0.9160 0.9120 0.9110 0.9070 0.9060
8.127269 0.9010 0.9010 0.8960 0.8910 0.8840
8.161000 0.8770 0.8690 0.8590 0.8500 0.8440
8.194269 0.8390 0.8290 0.8100 0.8040 0.7980
8.227000 0.7970 0.7830 0.7680 0.7600 0.7520
8.260269 0.7350 0.7200 0.7060 0.6980 0.6860
8.294000 0.6760 0.6630 0.6480 0.6310 0.6230
8.327269 0.6140 0.5960 0.5820 0.5570 0.5150
8.360000 0.5020 0.4970 0.4770 0.4500 0.4320
8.393269 0.4220 0.4050 0.3860 0.3760 0.3600
8.427000 0.3510 0.3380 0.3230 0.3160 0.3090
8.460269 0.3010 0.2840 0.2730 0.2620 0.2490
8.493000 0.2460 0.2420 0.2370 0.2310 0.2240
8.526269 0.2170 0.2060 0.2010 0.1950 0.1920
8.560000 0.1840 0.1820 0.1790 0.1750 0.1740
8.593269 0.1700 0.1650 0.1620 0.1590 0.1540
8.626000 0.1520 0.1490 0.1490 0.1490 0.1490
8.659269 0.1490 0.1490 0.1470 0.1470 0.1450
8.693000 0.1420 0.1390 0.1370 0.1350 0.1340
8.726269 0.1320 0.1300 0.1300 0.1280 0.1280
8.759000 0.1270 0.1270 0.1270 0.1270 0.1250
8.792269 0.1250 0.1250 0.1250 0.1250 0.1230
8.826000 0.1250 0.1250 0.1250 0.1250 0.1250
8.859269 0.1250 0.1250 0.1250 0.1250 0.1250
8.892000 0.1250 0.1270 0.1270 0.1280 0.1280
8.925269 0.1280 0.1300 0.1300 0.1320 0.1320
8.959000 0.1320 0.1340 0.1350 0.1350 0.1370
8.992269 0.1390 0.1400 0.1420 0.1450 0.1470
9.025000 0.1490 0.1500 0.1520 0.1550 0.1590
9.058269 0.1640 0.1670 0.1720 0.1770 0.1850
9.092000 0.1990 0.2040 0.2060 0.2160 0.2240
9.125269 0.2320 0.2410 0.2490 0.2570 0.2690
9.158000 0.2790 0.2930 0.3060 0.3230 0.3290
9.191269 0.3430 0.3500 0.3680 0.3900 0.3980
9.225000 0.4030 0.4200 0.4380 0.4530 0.4670
9.258269 0.4790 0.4890 0.5020 0.5100 0.5220
9.291000 0.5360 0.5410 0.5510 0.5570 0.5660
9.324269 0.5690 0.5760 0.5810 0.5870 0.6060
9.358000 0.6090 0.6210 0.6310 0.6410 0.6510
9.391269 0.6610 0.6750 0.6830 0.6880 0.6950
9.424000 0.7010 0.7050 0.7060 0.7130 0.7160
9.457269 0.7210 0.7260 0.7300 0.7330 0.7380
9.491000 0.7450 0.7470 0.7520 0.7530 0.7570
9.524269 0.7600 0.7630 0.7650 0.7680 0.7720
9.557000 0.7750 0.7770 0.7820 0.7850 0.7880
9.590269 0.7900 0.7950 0.8020 0.8040 0.8070
9.624000 0.8070 0.8090 0.8140 0.8150 0.8170
9.657269 0.8190 0.8200 0.8240 0.8240 0.8240
9.690000 0.8240 0.8240 0.8240 0.8190 0.8150
9.723269 0.8100 0.8050 0.7930 0.7780 0.7730
9.757000 0.7630 0.7570 0.7520 0.7520 0.7570
9.790269 0.7570 0.7580 0.7620 0.7630 0.7670
9.823000 0.7700 0.7770 0.7830 0.7920 0.8020
9.856269 0.8020 0.8040 0.8070 0.8120 0.8150
9.890000 0.8190 0.8240 0.8250 0.8290 0.8300
9.923269 0.8320 0.8340 0.8370 0.8390 0.8440
9.956000 0.8450 0.8450 0.8470 0.8500 0.8500
9.989269 0.8540 0.8550 0.8570 0.8590 0.8600
10.023000 0.8620 0.8640 0.8640 0.8650 0.8650
10.056269 0.8670 0.8690 0.8690 0.8690 0.8710
10.089000 0.8720 0.8740 0.8760 0.8760 0.8770
10.122269 0.8770 0.8790 0.8810 0.8810 0.8820
10.156000 0.8840 0.8840 0.8860 0.8860 0.8860
10.189269 0.8860 0.8870 0.8890 0.8910 0.8920
10.222000 0.8940 0.8970 0.8990 0.9010 0.9020
10.255269 0.9060 0.9060 0.9060 0.9110 0.9120
10.289000 0.9120 0.9140 0.9140 0.9160 0.9160
10.322269 0.9170 0.9170 0.9190 0.9190 0.9210
10.356000 0.9220 0.9220 0.9220 0.9240 0.9240
10.389269 0.9240 0.9240 0.9240 0.9240 0.9240
10.422000 0.9240 0.9240 0.9240 0.9240 0.9260
10.455269 0.9260 0.9260 0.9260 0.9260 0.9260
10.489000 0.9240 0.9240 0.9260 0.9260 0.9260
10.522269 0.9270 0.9270 0.9270 0.9270 0.9270
10.555000 0.9270 0.9270 0.9290 0.9290 0.9290
10.588269 0.9290 0.9290 0.9290 0.9290 0.9290
10.622000 0.9290 0.9290 0.9290 0.9290 0.9290
10.655269 0.9290 0.9270 0.9270 0.9270 0.9270
10.688000 0.9270 0.9270 0.9270 0.9270 0.9270
10.721269 0.9270 0.9270 0.9260 0.9260 0.9260
10.755000 0.9260 0.9260 0.9270 0.9270 0.9270
10.788269 0.9270 0.9270 0.9270 0.9270 0.9270
10.821000 0.9260 0.9260 0.9260 0.9260 0.9260
10.854269 0.9260 0.9270 0.9270 0.9270 0.9270
10.888000 0.9270 0.9270 0.9270 0.9270 0.9290
10.921269 0.9290 0.9290 0.9290 0.9270 0.9270
10.954000 0.9270 0.9270 0.9270 0.9270 0.9290
10.987269 0.9290 0.9290 0.9290 0.9290 0.9290
11.021000 0.9290 0.9290 0.9290 0.9270 0.9270
11.054269 0.9260 0.9260 0.9260 0.9260 0.9270
11.087000 0.9270 0.9260 0.9260 0.9260 0.9260
11.120269 0.9260 0.9260 0.9260 0.9260 0.9260
11.154000 0.9260 0.9240 0.9240 0.9240 0.9240
11.187269 0.9240 0.9240 0.9240 0.9220 0.9210
11.220000 0.9190 0.9170 0.9190 0.9190 0.9190
11.253269 0.9170 0.9170 0.9170 0.9160 0.9160
11.287000 0.9160 0.9140 0.9140 0.9120 0.9110
11.320269 0.9090 0.9070 0.9070 0.9070 0.9070
11.353000 0.9060 0.9060 0.9040 0.9020 0.9020
11.386269 0.8990 0.8970 0.8960 0.8940 0.8920
11.420000 0.8910 0.8870 0.8870 0.8870 0.8870
11.453269 0.8870 0.8870 0.8870 0.8840 0.8820
11.486000 0.8770 0.8720 0.8690 0.8670 0.8670
11.519269 0.8670 0.8670 0.8670 0.8650 0.8650
11.553000 0.8640 0.8620 0.8570 0.8550 0.8540
11.586269 0.8520 0.8500 0.8450 0.8440 0.8390
11.619000 0.8370 0.8370 0.8340 0.8320 0.8270
11.652269 0.8220 0.8170 0.8150 0.8120 0.8070
11.686000 0.8070 0.8040 0.8020 0.7920 0.7880
11.719269 0.7850 0.7830 0.7820 0.7770 0.7730
11.752000 0.7700 0.7670 0.7650 0.7630 0.7600
11.785269 0.7580 0.7570 0.7550 0.7520 0.7500
11.819000 0.7470 0.7420 0.7380 0.7310 0.7260
11.852269 0.7210 0.7150 0.7110 0.7060 0.7050
11.885000 0.7010 0.7010 0.6930 0.6900 0.6830
11.918269 0.6780 0.6750 0.6710 0.6700 0.6680
11.952000 0.6660 0.6630 0.6610 0.6580 0.6560
11.985269 0.6540 0.6530 0.6510 0.6490 0.6460
12.018000 0.6440 0.6430 0.6410 0.6390 0.6380
12.051269 0.6360 0.6340 0.6340 0.6330 0.6330
12.085000 0.6330 0.6330 0.6310 0.6310 0.6290
12.118269 0.6290 0.6290 0.6290 0.6310 0.6310
12.151000 0.6310 0.6330 0.6310 0.6330 0.6330
12.184269 0.6330 0.6340 0.6360 0.6380 0.6380
12.218000 0.6390 0.6410 0.6430 0.6460 0.6480
12.251269 0.6490 0.6530 0.6540 0.6580 0.6610
12.284000 0.6640 0.6660 0.6730 0.6750 0.6780
12.317269 0.6800 0.6830 0.6860 0.6880 0.6910
12.351000 0.6930 0.6950 0.7000 0.7010 0.7030
12.384269 0.7030 0.7060 0.7100 0.7130 0.7200
12.417000 0.7200 0.7200 0.7250 0.7280 0.7330
12.450269 0.7380 0.7420 0.7470 0.7520 0.7570
12.484000 0.7580 0.7620 0.7620 0.7670 0.7680
12.517269 0.7720 0.7750 0.7770 0.7780 0.7800
12.550000 0.7830 0.7830 0.7850 0.7870 0.7880
12.583269 0.7920 0.7930 0.7950 0.8000 0.8020
12.617000 0.8020 0.8020 0.8040 0.8040 0.8040
12.650269 0.8050 0.8070 0.8100 0.8120 0.8140
12.683000 0.8150 0.8170 0.8190 0.8200 0.8240
12.716269 0.8250 0.8270 0.8290 0.8320 0.8340
12.750000 0.8340 0.8350 0.8370 0.8370 0.8390
12.783269 0.8400 0.8420 0.8440 0.8450 0.8450
12.816000 0.8470 0.8470 0.8500 0.8520 0.8540
12.849269 0.8550 0.8570 0.8570 0.8590 0.8620
12.883000 0.8640 0.8650 0.8670 0.8690 0.8720
12.916269 0.8740 0.8740 0.8760 0.8790 0.8810
12.949000 0.8820 0.8820 0.8840 0.8860 0.8860
12.982269 0.8860 0.8870 0.8870 0.8890 0.8910
13.016000 0.8920 0.8920 0.8920 0.8940 0.8940
13.049269 0.8940 0.8960 0.8960 0.8970 0.8970
13.082000 0.8990 0.9010 0.9020 0.9010 0.9020
13.115269 0.9020 0.9020 0.9020 0.9020 0.9040
13.149000 0.9040 0.9040 0.9040 0.9040 0.9040
13.182269 0.9060 0.9060 0.9060 0.9060 0.9060
13.215000 0.9060 0.9060 0.9060 0.9060 0.9060
13.248269 0.9060 0.9060 0.9060 0.9060 0.9060
13.282000 0.9060 0.9070 0.9070 0.9070 0.9070
13.315269 0.9060 0.9060 0.9060 0.9060 0.9060
13.348000 0.9060 0.9060 0.9060 0.9060 0.9060
13.381269 0.9060 0.9060 0.9040 0.9040 0.9040
13.415000 0.9040 0.9020 0.9020 0.9020 0.9020
13.448269 0.9020 0.9010 0.9010 0.9010 0.9010
13.481000 0.9010 0.9010 0.9010 0.9010 0.9010
13.514269 0.9010 0.9010 0.9010 0.8990 0.8990
13.548000 0.8990 0.8990 0.8990 0.8990 0.8990
13.581269 0.8970 0.8970 0.8970 0.8970 0.8970
13.614000 0.8960 0.8960 0.8970 0.8970 0.8970
13.647269 0.8960 0.8960 0.8960 0.8960 0.8940
13.681000 0.8940 0.8920 0.8910 0.8910 0.8890
13.714269 0.8870 0.8860 0.8840 0.8820 0.8810
13.747000 0.8810 0.8810 0.8790 0.8790 0.8770
13.780269 0.8770 0.8760 0.8760 0.8760 0.8760
13.814000 0.8740 0.8740 0.8740 0.8720 0.8720
13.847269 0.8720 0.8720 0.8740 0.8740 0.8740
13.880000 0.8740 0.8760 0.8760 0.8760 0.8760
13.913269 0.8760 0.8760 0.8760 0.8760 0.8760
13.947000 0.8760 0.8740 0.8740 0.8720 0.8720
13.980269 0.8740 0.8740 0.8740 0.8740 0.8720
14.013000 0.8710 0.8710 0.8710 0.8690 0.8690
14.046269 0.8690 0.8690 0.8690 0.8670 0.8670
14.080000 0.8670 0.8670 0.8670 0.8670 0.8670
14.113269 0.8670 0.8650 0.8650 0.8650 0.8650
14.146000 0.8650 0.8640 0.8640 0.8640 0.8640
14.179269 0.8620 0.8620 0.8620 0.8620 0.8600
14.213000 0.8590 0.8570 0.8570 0.8570 0.8550
14.246269 0.8550 0.8550 0.8540 0.8540 0.8520
14.279000 0.8520 0.8520 0.8520 0.8500 0.8490
14.312269 0.8490 0.8490 0.8470 0.8470 0.8450
14.346000 0.8450 0.8450 0.8450 0.8440 0.8420
14.379269 0.8420 0.8420 0.8400 0.8400 0.8390
14.412000 0.8390 0.8390 0.8370 0.8370 0.8370
14.445269 0.8350 0.8320 0.8320 0.8320 0.8320
14.479000 0.8300 0.8290 0.8290 0.8270 0.8250
14.512269 0.8250 0.8250 0.8240 0.8240 0.8240
14.545000 0.8220 0.8200 0.8190 0.8170 0.8170
14.578269 0.8170 0.8170 0.8150 0.8150 0.8150
14.612000 0.8140 0.8140 0.8120 0.8120 0.8120
14.645269 0.8120 0.8120 0.8120 0.8070 0.8070
14.678000 0.8050 0.8050 0.8040 0.8040 0.8040
14.711269 0.8020 0.8020 0.8000 0.7970 0.7930
14.745000 0.7920 0.7880 0.7850 0.7820 0.7800
14.778269 0.7780 0.7770 0.7750 0.7750 0.7770
14.811000 0.7770 0.7780 0.7800 0.7820 0.7820
14.844269 0.7820 0.7820 0.7780 0.7770 0.7750
14.878000 0.7730 0.7720 0.7700 0.7670 0.7650
14.911269 0.7600 0.7570 0.7530 0.7470 0.7430
14.944000 0.7420 0.7380 0.7350 0.7310 0.7260
14.977269 0.7230 0.7230 0.7210 0.7130 0.7100
15.011000 0.7060 0.7060 0.7030 0.7000 0.6960
15.044269 0.6910 0.6830 0.6800 0.6780 0.6760
15.077000 0.6730 0.6710 0.6700 0.6680 0.6680
15.110269 0.6660 0.6660 0.6630 0.6590 0.6580
15.144000 0.6560 0.6540 0.6540 0.6540 0.6540
15.177269 0.6540 0.6540 0.6560 0.6580 0.6610
15.210000 0.6610 0.6630 0.6630 0.6640 0.6660
15.243269 0.6660 0.6680 0.6700 0.6700 0.6710
15.277000 0.6710 0.6710 0.6730 0.6730 0.6750
15.310269 0.6750 0.6780 0.6780 0.6780 0.6800
15.343000 0.6800 0.6810 0.6810 0.6810 0.6810
15.376269 0.6810 0.6830 0.6830 0.6830 0.6850
15.410000 0.6850 0.6860 0.6860 0.6860 0.6860
15.443269 0.6880 0.6880 0.6880 0.6880 0.6880
15.476000 0.6880 0.6880 0.6880 0.6860 0.6860
15.509269 0.6860 0.6860 0.6860 0.6860 0.6860
15.543000 0.6860 0.6880 0.6880 0.6900 0.6900
15.576269 0.6900 0.6900 0.6900 0.6910 0.6910
15.609000 0.6930 0.6930 0.6930 0.6950 0.6950
15.642269 0.6950 0.6960 0.6960 0.6960 0.6980
15.676000 0.6980 0.6980 0.6980 0.6980 0.7000
15.709269 0.7000 0.7010 0.7030 0.7030 0.7010
15.742000 0.7010 0.7010 0.7010 0.7030 0.7030
15.775269 0.7030 0.7030 0.7050 0.7030 0.7030
15.809000 0.7050 0.7050 0.7050 0.7050 0.7050
15.842269 0.7050 0.7050 0.7050 0.7060 0.7080
15.875000 0.7080 0.7080 0.7100 0.7110 0.7110
15.908269 0.7130 0.7130 0.7130 0.7130 0.7150
15.942000 0.7160 0.7160 0.7180 0.7180 0.7200
15.975269 0.7210 0.7210 0.7230 0.7230 0.7210
16.008000 0.7230
##END=
