##TITLE=1-(1'-ACENAPHTHYL)-4-METHYL-PIPERAZINE
##JCAMP-DX=4.24
##DATA TYPE=INFRARED SPECTRUM
##CLASS=COBLENTZ
##OWNER=COBLENTZ SOCIETY
Collection (C) 2018 copyright by the U.S. Secretary of Commerce
on behalf of the United States of America. All rights reserved.
##DATE=Not specified, most likely prior to 1970
##NAMES=1-(1,2-dihydro-1-acenaphthylenyl)-4-methylpiperazine
##MOLFORM=C17 H20 N2
##SOURCE REFERENCE=COBLENTZ NO. 659
##$NIST ID=B6000659
##$NIST SOURCE=COBLENTZ
##$NIST IMAGE=cob659
##SPECTROMETER/DATA SYSTEM=Not specified, most likely a prism, grating, or hybrid spectrometer.
##STATE=SOLUTION (7% CHCl3)
##PATH LENGTH=0.01 CM
$$SPECTRAL CONTAMINATION DUE TO INACTIVE CHCl3 AROUND 700-800 CM^-^1
##SAMPLING PROCEDURE=TRANSMISSION
##RESOLUTION=4
##DATA PROCESSING=DIGITIZED BY NIST FROM HARD COPY
##XUNITS=MICROMETERS
##YUNITS=TRANSMITTANCE
##XFACTOR=1.000000
##YFACTOR=1
##DELTAX=000.006623
##FIRSTX=2.06
##LASTX=15.5494
##FIRSTY=0.982
##MAXX=15.5494
##MINX=2.06
##MAXY=1.008
##MINY=0.312
##NPOINTS=2038
##XYDATA=(X++(Y..Y))
2.060000 0.9820 0.9800 0.9740 0.9720 0.9720
2.093129 0.9720 0.9720 0.9720 0.9740 0.9750
2.126000 0.9770 0.9780 0.9770 0.9750 0.9740
2.159129 0.9740 0.9700 0.9700 0.9700 0.9700
2.192000 0.9690 0.9670 0.9690 0.9690 0.9690
2.225129 0.9690 0.9690 0.9690 0.9690 0.9690
2.258000 0.9690 0.9720 0.9720 0.9700 0.9670
2.291129 0.9670 0.9660 0.9660 0.9640 0.9640
2.325000 0.9640 0.9620 0.9620 0.9620 0.9610
2.358129 0.9610 0.9610 0.9610 0.9610 0.9610
2.391000 0.9610 0.9610 0.9620 0.9640 0.9690
2.424129 0.9740 0.9740 0.9690 0.9570 0.9510
2.457000 0.9490 0.9460 0.9440 0.9430 0.9430
2.490129 0.9430 0.9440 0.9430 0.9410 0.9410
2.523000 0.9410 0.9410 0.9410 0.9430 0.9460
2.556129 0.9490 0.9490 0.9460 0.9460 0.9480
2.589000 0.9490 0.9510 0.9530 0.9530 0.9530
2.622129 0.9540 0.9530 0.9530 0.9530 0.9530
2.656000 0.9530 0.9530 0.9530 0.9530 0.9530
2.689129 0.9530 0.9530 0.9530 0.9530 0.9530
2.722000 0.9530 0.9530 0.9530 0.9530 0.9530
2.755129 0.9530 0.9530 0.9530 0.9530 0.9530
2.788000 0.9530 0.9530 0.9540 0.9640 0.9720
2.821129 0.9750 0.9750 0.9740 0.9640 0.9540
2.854000 0.9430 0.9380 0.9380 0.9380 0.9400
2.887129 0.9430 0.9460 0.9480 0.9480 0.9480
2.921000 0.9480 0.9440 0.9440 0.9430 0.9410
2.954129 0.9350 0.9320 0.9280 0.9270 0.9250
2.987000 0.9230 0.9200 0.9150 0.9090 0.9020
3.020129 0.9010 0.8990 0.8990 0.8960 0.8940
3.053000 0.8940 0.8930 0.8930 0.8910 0.8910
3.086129 0.8890 0.8880 0.8860 0.8860 0.8830
3.119000 0.8810 0.8800 0.8780 0.8770 0.8750
3.152129 0.8730 0.8720 0.8700 0.8670 0.8650
3.185000 0.8620 0.8600 0.8600 0.8600 0.8620
3.218129 0.8620 0.8640 0.8650 0.8670 0.8670
3.252000 0.8700 0.8720 0.8720 0.8700 0.8680
3.285129 0.8640 0.8570 0.8520 0.8460 0.8170
3.318000 0.7760 0.7630 0.7630 0.7750 0.7750
3.351129 0.7730 0.7620 0.7550 0.7370 0.7200
3.384000 0.7110 0.7030 0.6650 0.6030 0.5420
3.417129 0.4320 0.3990 0.3650 0.3200 0.3120
3.450000 0.3120 0.3150 0.3260 0.3360 0.3540
3.483129 0.3770 0.3980 0.4150 0.4220 0.4380
3.517000 0.4570 0.4770 0.5010 0.5060 0.5060
3.550129 0.4910 0.4560 0.4320 0.4270 0.4220
3.583000 0.4060 0.3960 0.3720 0.3490 0.3470
3.616129 0.3510 0.4010 0.4870 0.5210 0.5500
3.649000 0.5970 0.6140 0.6270 0.6400 0.6500
3.682129 0.6600 0.6660 0.6730 0.6790 0.6990
3.715000 0.7110 0.7450 0.7630 0.7830 0.7940
3.748129 0.8000 0.8020 0.8070 0.8090 0.8100
3.781000 0.8120 0.8130 0.8150 0.8180 0.8230
3.814129 0.8300 0.8380 0.8490 0.8520 0.8700
3.848000 0.8780 0.8860 0.8880 0.8930 0.8960
3.881129 0.8980 0.8980 0.8980 0.8980 0.8980
3.914000 0.8980 0.8960 0.8960 0.8930 0.8930
3.947129 0.8910 0.8890 0.8880 0.8880 0.8860
3.980000 0.8850 0.8810 0.8800 0.8780 0.8750
4.013129 0.8720 0.8650 0.8600 0.8570 0.8550
4.046000 0.8520 0.8510 0.8470 0.8460 0.8460
4.079129 0.8440 0.8440 0.8470 0.8510 0.8550
4.113000 0.8650 0.8700 0.8770 0.8810 0.8860
4.146129 0.8890 0.8980 0.9020 0.9020 0.9040
4.179000 0.9040 0.9040 0.9070 0.9090 0.9140
4.212129 0.9190 0.9200 0.9220 0.9220 0.9220
4.245000 0.9200 0.9200 0.9200 0.9200 0.9200
4.278129 0.9230 0.9250 0.9280 0.9380 0.9430
4.311000 0.9430 0.9430 0.9430 0.9430 0.9410
4.344129 0.9410 0.9400 0.9400 0.9360 0.9330
4.377000 0.9280 0.9230 0.9200 0.9170 0.9170
4.410129 0.9150 0.9170 0.9170 0.9170 0.9150
4.444000 0.9150 0.9150 0.9170 0.9220 0.9220
4.477129 0.9220 0.9220 0.9150 0.9150 0.9150
4.510000 0.9170 0.9200 0.9220 0.9220 0.9220
4.543129 0.9220 0.9200 0.9200 0.9200 0.9220
4.576000 0.9220 0.9200 0.9200 0.9200 0.9190
4.609129 0.9190 0.9200 0.9230 0.9250 0.9250
4.642000 0.9250 0.9270 0.9270 0.9250 0.9220
4.675129 0.9200 0.9200 0.9200 0.9220 0.9220
4.709000 0.9220 0.9220 0.9220 0.9250 0.9230
4.742129 0.9200 0.9220 0.9230 0.9270 0.9270
4.775000 0.9270 0.9280 0.9280 0.9280 0.9270
4.808129 0.9280 0.9280 0.9270 0.9250 0.9250
4.841000 0.9230 0.9220 0.9230 0.9230 0.9230
4.874129 0.9230 0.9230 0.9220 0.9220 0.9220
4.907000 0.9200 0.9200 0.9200 0.9200 0.9220
4.940129 0.9220 0.9230 0.9250 0.9270 0.9270
4.974000 0.9280 0.9300 0.9280 0.9300 0.9300
5.007129 0.9300 0.9300 0.9320 0.9300 0.9300
5.040000 0.9300 0.9300 0.9280 0.9270 0.9230
5.073129 0.9220 0.9200 0.9200 0.9220 0.9230
5.106000 0.9250 0.9270 0.9270 0.9270 0.9270
5.139129 0.9270 0.9270 0.9270 0.9200 0.9150
5.172000 0.9200 0.9200 0.9190 0.9140 0.9110
5.205129 0.9110 0.9040 0.8960 0.8910 0.8860
5.238000 0.8880 0.8890 0.8930 0.8990 0.9010
5.271129 0.9040 0.9060 0.9070 0.9110 0.9140
5.305000 0.9150 0.9170 0.9190 0.9190 0.9220
5.338129 0.9220 0.9200 0.9190 0.9170 0.9170
5.371000 0.9150 0.9150 0.9140 0.9120 0.9120
5.404129 0.9120 0.9110 0.9110 0.9110 0.9110
5.437000 0.9110 0.9120 0.9140 0.9150 0.9170
5.470129 0.9170 0.9150 0.9120 0.9110 0.9120
5.503000 0.9190 0.9220 0.9220 0.9220 0.9200
5.536129 0.9200 0.9190 0.9170 0.9150 0.9150
5.570000 0.9150 0.9150 0.9140 0.9140 0.9190
5.603129 0.9170 0.9170 0.9170 0.9170 0.9120
5.636000 0.9070 0.9060 0.9020 0.9040 0.9060
5.669129 0.9070 0.9090 0.9120 0.9110 0.9110
5.702000 0.9110 0.9070 0.9120 0.9190 0.9200
5.735129 0.9170 0.9120 0.9120 0.9120 0.9120
5.768000 0.9140 0.9140 0.9140 0.9140 0.9120
5.801129 0.9120 0.9120 0.9110 0.9060 0.9020
5.834000 0.9020 0.9020 0.9020 0.9020 0.9040
5.867129 0.9070 0.9120 0.9120 0.9090 0.9020
5.901000 0.9020 0.9060 0.9070 0.9090 0.9110
5.934129 0.9120 0.9090 0.8990 0.8980 0.9010
5.967000 0.9020 0.9060 0.9090 0.9090 0.9060
6.000129 0.9010 0.9010 0.9060 0.9060 0.9040
6.033000 0.9040 0.9020 0.9010 0.9010 0.8990
6.066129 0.9010 0.9020 0.9040 0.9060 0.9060
6.099000 0.9040 0.9020 0.9010 0.8940 0.8910
6.132129 0.8890 0.8930 0.8990 0.8960 0.8930
6.166000 0.8930 0.8910 0.8890 0.8830 0.8720
6.199129 0.8600 0.8470 0.8380 0.8310 0.8340
6.232000 0.8330 0.8310 0.8170 0.7570 0.7340
6.265129 0.7340 0.7370 0.7620 0.7760 0.7970
6.298000 0.8050 0.8090 0.8220 0.8300 0.8470
6.331129 0.8550 0.8770 0.8780 0.8800 0.8850
6.364000 0.8940 0.8980 0.9010 0.8990 0.9010
6.397129 0.9020 0.9060 0.9070 0.9070 0.9020
6.430000 0.9060 0.9070 0.9110 0.9150 0.9250
6.463129 0.9250 0.9220 0.9170 0.9140 0.9140
6.497000 0.9170 0.9200 0.9220 0.9200 0.9250
6.530129 0.9280 0.9280 0.9270 0.9250 0.9200
6.563000 0.9190 0.9190 0.9230 0.9220 0.9190
6.596129 0.9190 0.9190 0.9200 0.9200 0.9150
6.629000 0.9140 0.9070 0.9040 0.9010 0.8990
6.662129 0.8990 0.9040 0.9040 0.9020 0.8990
6.695000 0.8930 0.8800 0.8640 0.8470 0.8300
6.728129 0.7550 0.7570 0.7650 0.7700 0.7920
6.762000 0.8050 0.8220 0.8340 0.8520 0.8680
6.795129 0.8750 0.8770 0.8780 0.8770 0.8680
6.828000 0.8620 0.8440 0.8260 0.7650 0.7020
6.861129 0.6580 0.6440 0.6310 0.6180 0.6060
6.894000 0.6000 0.5840 0.5720 0.5610 0.5220
6.927129 0.5140 0.5140 0.5190 0.5430 0.6110
6.960000 0.6320 0.6530 0.6810 0.6970 0.7310
6.993129 0.7410 0.7500 0.7570 0.7700 0.7760
7.026000 0.7810 0.7830 0.7840 0.7840 0.7810
7.059129 0.7680 0.7620 0.7570 0.7570 0.7620
7.093000 0.7710 0.7730 0.7780 0.7860 0.7940
7.126129 0.8040 0.8120 0.8230 0.8330 0.8430
7.159000 0.8520 0.8620 0.8650 0.8750 0.8780
7.192129 0.8810 0.8810 0.8830 0.8850 0.8850
7.225000 0.8860 0.8860 0.8860 0.8850 0.8860
7.258129 0.8860 0.8810 0.8700 0.8640 0.8550
7.291000 0.8460 0.8200 0.7890 0.7450 0.7200
7.324129 0.7110 0.7030 0.6530 0.6320 0.6260
7.358000 0.6240 0.6260 0.6310 0.6390 0.6480
7.391129 0.6610 0.6770 0.6990 0.7500 0.7580
7.424000 0.7660 0.7680 0.7660 0.7580 0.7520
7.457129 0.7360 0.6940 0.6500 0.5900 0.5300
7.490000 0.5250 0.5270 0.5530 0.6080 0.6470
7.523129 0.6840 0.7330 0.7330 0.7150 0.6900
7.556000 0.6660 0.6050 0.6050 0.6310 0.6730
7.589129 0.6950 0.7070 0.7570 0.7750 0.7910
7.623000 0.7970 0.8020 0.8120 0.8200 0.8220
7.656129 0.8250 0.8260 0.8250 0.8230 0.8200
7.689000 0.8180 0.8180 0.8200 0.8200 0.8220
7.722129 0.8220 0.8220 0.8200 0.8150 0.8070
7.755000 0.8020 0.7890 0.7630 0.7370 0.7230
7.788129 0.7080 0.6270 0.5820 0.5370 0.4330
7.821000 0.4120 0.3910 0.3460 0.3410 0.3410
7.854129 0.3570 0.4640 0.4900 0.5420 0.5640
7.887000 0.6110 0.6260 0.6420 0.6530 0.6600
7.920129 0.6650 0.6730 0.6810 0.6840 0.6900
7.954000 0.6970 0.7050 0.7130 0.7280 0.7360
7.987129 0.7370 0.7410 0.7440 0.7450 0.7490
8.020000 0.7500 0.7520 0.7520 0.7580 0.7600
8.053129 0.7700 0.7730 0.7750 0.7730 0.7700
8.086000 0.7700 0.7750 0.7760 0.7780 0.7780
8.119129 0.7750 0.7730 0.7710 0.7680 0.7650
8.152000 0.7630 0.7620 0.7620 0.7650 0.7650
8.185129 0.7680 0.7710 0.7750 0.7830 0.7920
8.219000 0.7970 0.8020 0.8040 0.8070 0.8100
8.252129 0.8120 0.8130 0.8150 0.8170 0.8180
8.285000 0.8200 0.8230 0.8260 0.8310 0.8340
8.318129 0.8360 0.8380 0.8410 0.8440 0.8470
8.351000 0.8490 0.8510 0.8520 0.8540 0.8540
8.384129 0.8550 0.8550 0.8540 0.8540 0.8520
8.417000 0.8510 0.8470 0.8460 0.8410 0.8340
8.450129 0.8220 0.8040 0.7780 0.7620 0.7230
8.483000 0.7080 0.6920 0.6550 0.6110 0.5900
8.516129 0.5690 0.5480 0.5110 0.5030 0.5030
8.550000 0.5120 0.5250 0.5370 0.5510 0.5690
8.583129 0.5800 0.6030 0.6210 0.6470 0.6790
8.616000 0.7230 0.7210 0.7280 0.7310 0.7340
8.649129 0.7340 0.7330 0.7230 0.7130 0.6900
8.682000 0.6600 0.6290 0.5980 0.5740 0.5640
8.715129 0.5550 0.5400 0.5290 0.5240 0.5210
8.748000 0.5170 0.5140 0.5080 0.5010 0.4930
8.781129 0.4870 0.4800 0.4640 0.4300 0.4190
8.815000 0.4060 0.4040 0.3830 0.3810 0.3810
8.848129 0.3850 0.4020 0.4090 0.4250 0.4720
8.881000 0.5010 0.5240 0.5480 0.5970 0.6220
8.914129 0.6470 0.6690 0.6900 0.7100 0.7410
8.947000 0.7490 0.7570 0.7620 0.7650 0.7730
8.980129 0.7750 0.7760 0.7760 0.7780 0.7780
9.013000 0.7790 0.7790 0.7790 0.7790 0.7790
9.046129 0.7780 0.7780 0.7780 0.7790 0.7810
9.079000 0.7830 0.7860 0.7880 0.7920 0.7920
9.112129 0.7940 0.7970 0.8000 0.8050 0.8090
9.146000 0.8100 0.8120 0.8120 0.8130 0.8130
9.179129 0.8090 0.8000 0.7990 0.7970 0.7960
9.212000 0.7940 0.7920 0.7890 0.7860 0.7860
9.245129 0.7810 0.7790 0.7790 0.7830 0.7910
9.278000 0.8000 0.8050 0.8150 0.8180 0.8170
9.311129 0.8020 0.7890 0.7880 0.7830 0.7840
9.344000 0.7860 0.7910 0.7990 0.8090 0.8180
9.377129 0.8300 0.8410 0.8520 0.8700 0.8880
9.411000 0.8980 0.9090 0.9120 0.9120 0.9170
9.444129 0.9190 0.9200 0.9200 0.9200 0.9190
9.477000 0.9170 0.9170 0.9170 0.9150 0.9140
9.510129 0.9110 0.9010 0.8980 0.8940 0.8830
9.543000 0.8730 0.8670 0.8590 0.8490 0.8380
9.576129 0.8230 0.8220 0.8220 0.8280 0.8410
9.609000 0.8510 0.8520 0.8600 0.8800 0.8940
9.642129 0.9040 0.9090 0.9120 0.9140 0.9170
9.675000 0.9190 0.9220 0.9250 0.9270 0.9300
9.708129 0.9320 0.9300 0.9280 0.9280 0.9250
9.742000 0.9200 0.9090 0.9010 0.8910 0.8650
9.775129 0.8550 0.8440 0.8300 0.8200 0.8170
9.808000 0.8170 0.8150 0.8120 0.8100 0.8090
9.841129 0.8100 0.8100 0.8050 0.7960 0.7750
9.874000 0.7330 0.6990 0.6630 0.6100 0.5550
9.907129 0.4640 0.4250 0.3860 0.3520 0.3490
9.940000 0.3490 0.3640 0.3990 0.4780 0.5170
9.973129 0.5550 0.6100 0.6310 0.6520 0.6760
10.007000 0.7050 0.7520 0.7540 0.7570 0.7750
10.040129 0.7810 0.7830 0.7830 0.7830 0.7830
10.073000 0.7830 0.7840 0.7860 0.7890 0.7940
10.106129 0.8000 0.8070 0.8120 0.8150 0.8230
10.139000 0.8330 0.8390 0.8470 0.8510 0.8550
10.172129 0.8680 0.8700 0.8720 0.8750 0.8770
10.205000 0.8770 0.8810 0.8880 0.8940 0.8960
10.238129 0.8940 0.8890 0.8890 0.8930 0.8980
10.272000 0.8980 0.8980 0.8980 0.8980 0.8980
10.305129 0.8860 0.8810 0.8780 0.8670 0.8600
10.338000 0.8520 0.8440 0.8380 0.8340 0.8340
10.371129 0.8390 0.8460 0.8510 0.8550 0.8640
10.404000 0.8670 0.8700 0.8750 0.8780 0.8810
10.437129 0.8810 0.8830 0.8830 0.8860 0.8890
10.470000 0.8910 0.8960 0.8980 0.8980 0.9010
10.503129 0.8980 0.9010 0.9020 0.9040 0.9040
10.536000 0.9020 0.9020 0.9020 0.9040 0.9060
10.569129 0.9070 0.9070 0.9060 0.9060 0.9060
10.603000 0.9070 0.9090 0.9110 0.9090 0.9020
10.636129 0.8980 0.8940 0.8850 0.8720 0.8590
10.669000 0.8550 0.8510 0.8340 0.8180 0.8150
10.702129 0.8170 0.8260 0.8330 0.8390 0.8470
10.735000 0.8540 0.8650 0.8680 0.8720 0.8770
10.768129 0.8800 0.8810 0.8810 0.8850 0.8850
10.801000 0.8850 0.8860 0.8860 0.8890 0.8890
10.834129 0.8890 0.8880 0.8830 0.8830 0.8860
10.868000 0.8890 0.8830 0.8830 0.8890 0.8990
10.901129 0.8990 0.8930 0.8880 0.8880 0.8860
10.934000 0.8880 0.8880 0.8880 0.8880 0.8880
10.967129 0.8890 0.8910 0.8890 0.8890 0.8880
11.000000 0.8880 0.8880 0.8880 0.8860 0.8830
11.033129 0.8810 0.8780 0.8770 0.8700 0.8650
11.066000 0.8640 0.8620 0.8600 0.8590 0.8570
11.099129 0.8570 0.8550 0.8570 0.8600 0.8620
11.132000 0.8680 0.8720 0.8750 0.8780 0.8800
11.165129 0.8810 0.8850 0.8880 0.8890 0.8930
11.199000 0.8930 0.8960 0.8990 0.8990 0.9010
11.232129 0.9010 0.9040 0.9070 0.9070 0.9090
11.265000 0.9110 0.9120 0.9120 0.9120 0.9120
11.298129 0.9120 0.9120 0.9120 0.9120 0.9120
11.331000 0.9110 0.9110 0.9090 0.9090 0.9090
11.364129 0.9070 0.9060 0.9040 0.9020 0.9010
11.397000 0.8980 0.8980 0.8960 0.8980 0.8980
11.430129 0.9010 0.9020 0.9010 0.9010 0.9010
11.464000 0.8990 0.9010 0.9010 0.9010 0.9020
11.497129 0.9060 0.9110 0.9120 0.9120 0.9120
11.530000 0.9110 0.9090 0.9070 0.9060 0.9040
11.563129 0.9060 0.9070 0.9110 0.9140 0.9140
11.596000 0.9120 0.9120 0.9110 0.9090 0.9040
11.629129 0.9010 0.8990 0.8980 0.8940 0.8930
11.662000 0.8940 0.8980 0.8980 0.8830 0.8770
11.695129 0.8700 0.8640 0.8570 0.8540 0.8510
11.728000 0.8440 0.8390 0.8380 0.8410 0.8440
11.761129 0.8490 0.8540 0.8590 0.8600 0.8640
11.795000 0.8650 0.8670 0.8670 0.8680 0.8670
11.828129 0.8670 0.8650 0.8640 0.8640 0.8600
11.861000 0.8590 0.8590 0.8590 0.8620 0.8640
11.894129 0.8680 0.8700 0.8700 0.8720 0.8730
11.927000 0.8750 0.8780 0.8810 0.8850 0.8860
11.960129 0.8910 0.8930 0.8940 0.8940 0.8940
11.993000 0.8930 0.8930 0.8930 0.8910 0.8890
12.026129 0.8880 0.8850 0.8850 0.8850 0.8830
12.060000 0.8810 0.8800 0.8770 0.8730 0.8700
12.093129 0.8650 0.8600 0.8590 0.8550 0.8490
12.126000 0.8440 0.8380 0.8280 0.7970 0.7490
12.159129 0.7130 0.6770 0.5870 0.5300 0.4720
12.192000 0.4380 0.4020 0.3570 0.3230 0.3200
12.225129 0.3220 0.3230 0.3330 0.3490 0.3780
12.258000 0.4090 0.4690 0.4980 0.5270 0.5550
12.291129 0.6060 0.6320 0.6550 0.6770 0.6990
12.325000 0.7340 0.7490 0.7620 0.7730 0.7880
12.358129 0.7940 0.8000 0.8100 0.8180 0.8260
12.391000 0.8340 0.8430 0.8490 0.8520 0.8550
12.424129 0.8700 0.8720 0.8720 0.8720 0.8720
12.457000 0.8720 0.8700 0.8680 0.8680 0.8670
12.490129 0.8650 0.8620 0.8570 0.8570 0.8550
12.523000 0.8550 0.8550 0.8590 0.8600 0.8620
12.556129 0.8620 0.8570 0.8570 0.8570 0.8590
12.589000 0.8620 0.8650 0.8650 0.8670 0.8680
12.622129 0.8700 0.8720 0.8730 0.8730 0.8750
12.656000 0.8780 0.8830 0.8860 0.8860 0.8880
12.689129 0.8890 0.8910 0.8930 0.8960 0.8980
12.722000 0.8990 0.9010 0.9020 0.9060 0.9070
12.755129 0.9090 0.9090 0.9120 0.9140 0.9170
12.788000 0.9200 0.9250 0.9300 0.9350 0.9430
12.821129 0.9530 0.9570 0.9610 0.9640 0.9670
12.854000 0.9700 0.9740 0.9750 0.9780 0.9820
12.887129 0.9850 0.9880 0.9910 0.9950 0.9980
12.921000 1.0030 1.0060 1.0060 1.0060 1.0080
12.954129 1.0080 1.0080 1.0080 1.0080 1.0080
12.987000 1.0080 1.0080 1.0080 1.0080 1.0080
13.020129 1.0080 1.0080 1.0080 1.0060 1.0060
13.053000 1.0060 1.0060 1.0060 1.0060 1.0060
13.086129 1.0060 1.0060 1.0060 1.0060 1.0060
13.119000 1.0060 1.0060 1.0060 1.0060 1.0060
13.152129 1.0060 1.0060 1.0060 1.0060 1.0060
13.185000 1.0060 1.0060 1.0060 1.0060 1.0060
13.218129 1.0060 1.0060 1.0060 1.0060 1.0060
13.252000 1.0060 1.0060 1.0060 1.0060 1.0060
13.285129 1.0060 1.0060 1.0060 1.0060 1.0060
13.318000 1.0060 1.0060 1.0060 1.0060 1.0060
13.351129 1.0060 1.0060 1.0060 1.0060 1.0060
13.384000 1.0060 1.0060 1.0060 1.0060 1.0060
13.417129 1.0060 1.0060 1.0060 1.0060 1.0060
13.450000 1.0080 1.0080 1.0080 1.0080 1.0080
13.483129 1.0080 1.0080 1.0080 1.0080 1.0080
13.517000 1.0080 1.0080 1.0080 1.0080 1.0080
13.550129 1.0080 1.0080 1.0080 1.0080 1.0060
13.583000 1.0060 1.0060 1.0060 1.0060 1.0060
13.616129 1.0060 1.0060 1.0040 1.0040 1.0040
13.649000 1.0040 1.0040 1.0040 1.0040 1.0040
13.682129 1.0040 1.0040 1.0040 1.0040 1.0040
13.715000 1.0040 1.0040 1.0040 1.0040 1.0040
13.748129 1.0040 1.0040 1.0040 1.0040 1.0040
13.781000 1.0040 1.0060 1.0060 1.0060 1.0060
13.814129 1.0060 1.0060 1.0060 1.0060 1.0060
13.848000 1.0060 1.0060 1.0060 1.0060 1.0060
13.881129 1.0060 1.0060 1.0060 1.0060 1.0060
13.914000 1.0060 1.0060 1.0060 1.0060 1.0060
13.947129 1.0040 1.0040 1.0030 1.0030 1.0010
13.980000 1.0010 1.0010 1.0000 1.0000 1.0000
14.013129 1.0000 0.9980 0.9980 0.9960 0.9960
14.046000 0.9950 0.9930 0.9910 0.9880 0.9870
14.079129 0.9850 0.9800 0.9770 0.9750 0.9720
14.113000 0.9700 0.9670 0.9670 0.9660 0.9660
14.146129 0.9660 0.9640 0.9660 0.9660 0.9670
14.179000 0.9660 0.9640 0.9610 0.9590 0.9590
14.212129 0.9560 0.9560 0.9540 0.9540 0.9540
14.245000 0.9530 0.9510 0.9490 0.9490 0.9480
14.278129 0.9440 0.9410 0.9330 0.9300 0.9270
14.311000 0.9230 0.9190 0.9170 0.9150 0.9140
14.344129 0.9140 0.9120 0.9120 0.9110 0.9110
14.377000 0.9110 0.9090 0.9090 0.9070 0.9070
14.410129 0.9060 0.9020 0.9010 0.9010 0.8990
14.444000 0.8960 0.8940 0.8860 0.8830 0.8830
14.477129 0.8810 0.8800 0.8800 0.8800 0.8800
14.510000 0.8810 0.8830 0.8850 0.8880 0.8890
14.543129 0.8930 0.8940 0.8960 0.8980 0.8980
14.576000 0.8980 0.8990 0.8990 0.8990 0.8990
14.609129 0.8990 0.9010 0.9010 0.9010 0.9020
14.642000 0.9020 0.9040 0.9060 0.9070 0.9090
14.675129 0.9090 0.9110 0.9120 0.9140 0.9140
14.709000 0.9150 0.9150 0.9170 0.9190 0.9200
14.742129 0.9200 0.9220 0.9220 0.9220 0.9220
14.775000 0.9230 0.9250 0.9280 0.9300 0.9330
14.808129 0.9350 0.9360 0.9410 0.9430 0.9440
14.841000 0.9460 0.9480 0.9510 0.9540 0.9560
14.874129 0.9570 0.9590 0.9620 0.9640 0.9640
14.907000 0.9660 0.9660 0.9640 0.9640 0.9590
14.940129 0.9530 0.9530 0.9570 0.9620 0.9640
14.974000 0.9640 0.9670 0.9620 0.9640 0.9660
15.007129 0.9690 0.9700 0.9740 0.9750 0.9770
15.040000 0.9720 0.9720 0.9740 0.9780 0.9780
15.073129 0.9770 0.9720 0.9670 0.9660 0.9620
15.106000 0.9540 0.9380 0.9140 0.8830 0.8670
15.139129 0.8490 0.8130 0.7760 0.7410 0.7240
15.172000 0.7080 0.6790 0.6560 0.6390 0.6340
15.205129 0.6320 0.6320 0.6320 0.6340 0.6350
15.238000 0.6440 0.6500 0.6560 0.6650 0.6730
15.271129 0.6820 0.6940 0.7030 0.7280 0.7410
15.305000 0.7520 0.7650 0.7760 0.7880 0.8000
15.338129 0.8100 0.8200 0.8300 0.8380 0.8460
15.371000 0.8510 0.8550 0.8600 0.8620 0.8650
15.404129 0.8700 0.8750 0.8770 0.8780 0.8800
15.437000 0.8800 0.8810 0.8830 0.8860 0.8880
15.470129 0.8910 0.8910 0.8930 0.8930 0.8940
15.503000 0.8940 0.8930 0.8910 0.8910 0.8930
15.536129 0.8930 0.8940 0.8940
##END=
