##TITLE=Magnesium phosphate, tribasic, octahydrate
##JCAMP-DX=4.24
##DATA TYPE=INFRARED SPECTRUM
##CLASS=COBLENTZ III
##ORIGIN=COLGATE-PALMOLIVE COMPANY (KELLENBACH)
##OWNER=Copyright (C) 1987 by the Coblentz Society
Collection (C) 2018 copyright by the U.S. Secretary of Commerce
on behalf of the United States of America. All rights reserved.
##DATE=1970/06/16
##MOLFORM=O8 P2 Mg3  * 8 H2 O
##SOURCE REFERENCE=COBLENTZ NO. 9793
##$NIST ID=B6009793
##$NIST SOURCE=COBLENTZ
##$NIST IMAGE=cob9793
##SPECTROMETER/DATA SYSTEM=BECKMAN IR-12 (GRATING)
##INSTRUMENT PARAMETERS=GRATING
##STATE=SOLID (1 mg / 100 mg, KBr DISC)
$$ SOURCE - VICTOR CHEM.
##SAMPLING PROCEDURE=TRANSMISSION
##RESOLUTION=2
##DATA PROCESSING=DIGITIZED BY COBLENTZ SOCIETY (BATCH II) FROM HARD COPY
##XUNITS=1/CM
##YUNITS=TRANSMITTANCE
##XFACTOR=1.0
##YFACTOR=1
##FIRSTX=205
##LASTX=4000
##FIRSTY=0.1083
##MAXX=4000
##MINX=205
##MAXY=0.9379
##MINY=0.0553
##NPOINTS=3796
##XYDATA=(X++(Y..Y))
205.000000 0.1083 0.1082 0.1080 0.1078 0.1075
210.000000 0.1072 0.1069 0.1066 0.1064 0.1061
215.000000 0.1065 0.1072 0.1079 0.1086 0.1110
220.000000 0.1142 0.1175 0.1209 0.1244 0.1279
225.000000 0.1314 0.1351 0.1387 0.1479 0.1640
230.000000 0.1801 0.1962 0.2122 0.2283 0.2444
235.000000 0.2605 0.2766 0.2926 0.3087 0.3248
240.000000 0.3409 0.3570 0.3731 0.3891 0.4052
245.000000 0.4079 0.4095 0.4111 0.4126 0.4141
250.000000 0.4156 0.4171 0.4203 0.4236 0.4265
255.000000 0.4293 0.4330 0.4452 0.4574 0.4695
260.000000 0.4817 0.4939 0.5061 0.5183 0.5305
265.000000 0.5427 0.5548 0.5670 0.5792 0.5914
270.000000 0.6036 0.6158 0.6280 0.6401 0.6524
275.000000 0.6630 0.6690 0.6710 0.6723 0.6724
280.000000 0.6726 0.6727 0.6727 0.6723 0.6719
285.000000 0.6731 0.6710 0.6706 0.6699 0.6691
290.000000 0.6661 0.6619 0.6551 0.6485 0.6424
295.000000 0.6362 0.6310 0.6262 0.6213 0.6170
300.000000 0.6148 0.6127 0.6105 0.6084 0.6063
305.000000 0.6049 0.6035 0.6021 0.6008 0.5993
310.000000 0.5918 0.5843 0.5768 0.5693 0.5619
315.000000 0.5544 0.5469 0.5394 0.5320 0.5245
320.000000 0.5170 0.5095 0.5020 0.4946 0.4871
325.000000 0.4796 0.4721 0.4647 0.4572 0.4497
330.000000 0.4415 0.4342 0.4271 0.4201 0.4133
335.000000 0.4065 0.3997 0.3921 0.3837 0.3754
340.000000 0.3671 0.3593 0.3516 0.3439 0.3341
345.000000 0.3243 0.3151 0.3131 0.3118 0.3105
350.000000 0.3094 0.3094 0.3093 0.3094 0.3090
355.000000 0.3104 0.3113 0.3131 0.3159 0.3227
360.000000 0.3305 0.3382 0.3460 0.3537 0.3614
365.000000 0.3692 0.3769 0.3846 0.3924 0.4001
370.000000 0.4079 0.4173 0.4240 0.4293 0.4330
375.000000 0.4366 0.4399 0.4424 0.4449 0.4474
380.000000 0.4494 0.4513 0.4532 0.4548 0.4562
385.000000 0.4572 0.4574 0.4559 0.4547 0.4531
390.000000 0.4514 0.4491 0.4467 0.4439 0.4410
395.000000 0.4380 0.4349 0.4318 0.4301 0.4283
400.000000 0.4266 0.4251 0.4245 0.4240 0.4235
405.000000 0.4235 0.4241 0.4254 0.4270 0.4292
410.000000 0.4321 0.4374 0.4426 0.4479 0.4532
415.000000 0.4584 0.4637 0.4689 0.4742 0.4794
420.000000 0.4847 0.4899 0.4952 0.5004 0.5057
425.000000 0.5109 0.5162 0.5214 0.5267 0.5320
430.000000 0.5372 0.5431 0.5500 0.5546 0.5592
435.000000 0.5637 0.5679 0.5720 0.5762 0.5792
440.000000 0.5822 0.5852 0.5881 0.5909 0.5934
445.000000 0.5958 0.5983 0.6007 0.6032 0.6057
450.000000 0.6083 0.6108 0.6131 0.6148 0.6165
455.000000 0.6177 0.6184 0.6192 0.6199 0.6206
460.000000 0.6209 0.6212 0.6214 0.6217 0.6219
465.000000 0.6225 0.6232 0.6239 0.6246 0.6253
470.000000 0.6258 0.6267 0.6264 0.6252 0.6238
475.000000 0.6222 0.6204 0.6184 0.6164 0.6144
480.000000 0.6124 0.6103 0.6081 0.6055 0.6030
485.000000 0.6005 0.5976 0.5946 0.5921 0.5909
490.000000 0.5896 0.5895 0.5885 0.5903 0.5925
495.000000 0.5989 0.6054 0.6075 0.6086 0.6091
500.000000 0.6093 0.6090 0.6080 0.6068 0.6052
505.000000 0.6036 0.6025 0.6014 0.6003 0.5994
510.000000 0.5986 0.5979 0.5972 0.5964 0.5957
515.000000 0.5951 0.5945 0.5939 0.5931 0.5918
520.000000 0.5906 0.5893 0.5869 0.5841 0.5807
525.000000 0.5772 0.5738 0.5707 0.5675 0.5644
530.000000 0.5612 0.5581 0.5510 0.5414 0.5318
535.000000 0.5222 0.5126 0.5030 0.4934 0.4838
540.000000 0.4742 0.4646 0.4549 0.4453 0.4357
545.000000 0.4210 0.4123 0.4039 0.3966 0.3892
550.000000 0.3837 0.3783 0.3729 0.3666 0.3579
555.000000 0.3492 0.3421 0.3355 0.3290 0.3224
560.000000 0.3157 0.3082 0.3008 0.2934 0.2863
565.000000 0.2811 0.2758 0.2705 0.2652 0.2600
570.000000 0.2565 0.2529 0.2493 0.2457 0.2422
575.000000 0.2386 0.2350 0.2324 0.2298 0.2272
580.000000 0.2246 0.2219 0.2193 0.2167 0.2141
585.000000 0.2116 0.2095 0.2073 0.2052 0.2031
590.000000 0.2003 0.1971 0.1939 0.1906 0.1875
595.000000 0.1851 0.1844 0.1840 0.1841 0.1841
600.000000 0.1841 0.1839 0.1843 0.1850 0.1861
605.000000 0.1876 0.1900 0.1935 0.1973 0.2016
610.000000 0.2061 0.2173 0.2284 0.2396 0.2508
615.000000 0.2619 0.2731 0.2843 0.2954 0.3066
620.000000 0.3178 0.3290 0.3401 0.3513 0.3625
625.000000 0.3736 0.3848 0.3960 0.4071 0.4183
630.000000 0.4295 0.4406 0.4518 0.4630 0.4742
635.000000 0.4853 0.4965 0.5071 0.5169 0.5290
640.000000 0.5395 0.5485 0.5586 0.5712 0.5793
645.000000 0.5852 0.5912 0.5971 0.6030 0.6092
650.000000 0.6154 0.6216 0.6278 0.6323 0.6364
655.000000 0.6405 0.6445 0.6486 0.6518 0.6549
660.000000 0.6580 0.6611 0.6642 0.6670 0.6698
665.000000 0.6725 0.6753 0.6769 0.6784 0.6799
670.000000 0.6806 0.6808 0.6809 0.6814 0.6818
675.000000 0.6835 0.6853 0.6871 0.6890 0.6907
680.000000 0.6922 0.6937 0.6949 0.6952 0.6954
685.000000 0.6957 0.6958 0.6958 0.6958 0.6958
690.000000 0.6958 0.6957 0.6957 0.6955 0.6954
695.000000 0.6952 0.6951 0.6950 0.6948 0.6947
700.000000 0.6946 0.6944 0.6942 0.6941 0.6939
705.000000 0.6937 0.6937 0.6943 0.6948 0.6954
710.000000 0.6963 0.6976 0.6990 0.7003 0.7017
715.000000 0.7036 0.7054 0.7072 0.7091 0.7112
720.000000 0.7132 0.7153 0.7173 0.7193 0.7212
725.000000 0.7231 0.7249 0.7268 0.7287 0.7304
730.000000 0.7320 0.7336 0.7352 0.7368 0.7384
735.000000 0.7398 0.7408 0.7418 0.7428 0.7438
740.000000 0.7446 0.7448 0.7451 0.7453 0.7455
745.000000 0.7458 0.7460 0.7462 0.7459 0.7466
750.000000 0.7454 0.7452 0.7450 0.7447 0.7445
755.000000 0.7436 0.7426 0.7415 0.7404 0.7383
760.000000 0.7360 0.7291 0.7211 0.7131 0.7050
765.000000 0.6970 0.6890 0.6810 0.6730 0.6650
770.000000 0.6570 0.6490 0.6423 0.6388 0.6366
775.000000 0.6345 0.6324 0.6304 0.6291 0.6295
780.000000 0.6298 0.6305 0.6319 0.6337 0.6367
785.000000 0.6436 0.6505 0.6575 0.6644 0.6713
790.000000 0.6782 0.6852 0.6903 0.6938 0.6972
795.000000 0.7009 0.7046 0.7079 0.7105 0.7132
800.000000 0.7157 0.7177 0.7196 0.7216 0.7235
805.000000 0.7251 0.7261 0.7272 0.7303 0.7275
810.000000 0.7272 0.7258 0.7231 0.7182 0.7133
815.000000 0.7084 0.7035 0.6986 0.6937 0.6888
820.000000 0.6838 0.6789 0.6740 0.6691 0.6642
825.000000 0.6593 0.6544 0.6495 0.6446 0.6397
830.000000 0.6348 0.6299 0.6249 0.6200 0.6151
835.000000 0.6102 0.6053 0.6004 0.5955 0.5906
840.000000 0.5857 0.5808 0.5759 0.5709 0.5660
845.000000 0.5611 0.5562 0.5513 0.5464 0.5415
850.000000 0.5372 0.5336 0.5301 0.5268 0.5234
855.000000 0.5201 0.5167 0.5134 0.5100 0.5070
860.000000 0.5049 0.5027 0.5018 0.5012 0.5003
865.000000 0.5017 0.5028 0.5050 0.5096 0.5140
870.000000 0.5180 0.5236 0.5292 0.5347 0.5403
875.000000 0.5459 0.5514 0.5570 0.5626 0.5681
880.000000 0.5737 0.5792 0.5848 0.5904 0.5959
885.000000 0.6015 0.6071 0.6148 0.6261 0.6355
890.000000 0.6398 0.6441 0.6484 0.6519 0.6544
895.000000 0.6568 0.6592 0.6617 0.6641 0.6666
900.000000 0.6690 0.6711 0.6728 0.6745 0.6762
905.000000 0.6779 0.6796 0.6813 0.6825 0.6835
910.000000 0.6845 0.6854 0.6864 0.6874 0.6883
915.000000 0.6886 0.6888 0.6889 0.6891 0.6892
920.000000 0.6890 0.6911 0.6864 0.6836 0.6808
925.000000 0.6779 0.6747 0.6715 0.6684 0.6579
930.000000 0.6350 0.6120 0.5891 0.5661 0.5431
935.000000 0.5202 0.4972 0.4743 0.4513 0.4283
940.000000 0.3973 0.3894 0.3816 0.3762 0.3722
945.000000 0.3682 0.3647 0.3634 0.3621 0.3609
950.000000 0.3615 0.3607 0.3652 0.3715 0.3778
955.000000 0.3841 0.3904 0.3967 0.4030 0.4093
960.000000 0.4156 0.4214 0.4224 0.4233 0.4228
965.000000 0.4221 0.4136 0.4050 0.3964 0.3878
970.000000 0.3792 0.3707 0.3621 0.3535 0.3449
975.000000 0.3363 0.3278 0.3192 0.3106 0.3020
980.000000 0.2934 0.2849 0.2763 0.2677 0.2591
985.000000 0.2505 0.2421 0.2358 0.2296 0.2233
990.000000 0.2145 0.2056 0.1977 0.1911 0.1844
995.000000 0.1778 0.1714 0.1659 0.1604 0.1549
1000.000000 0.1494 0.1445 0.1398 0.1350 0.1302
1005.000000 0.1257 0.1225 0.1192 0.1160 0.1131
1010.000000 0.1113 0.1096 0.1078 0.1065 0.1057
1015.000000 0.1050 0.1043 0.1035 0.1028 0.1033
1020.000000 0.1035 0.1060 0.1097 0.1135 0.1175
1025.000000 0.1201 0.1214 0.1217 0.1221 0.1224
1030.000000 0.1215 0.1224 0.1198 0.1184 0.1166
1035.000000 0.1146 0.1117 0.1088 0.1054 0.1020
1040.000000 0.0986 0.0956 0.0925 0.0895 0.0859
1045.000000 0.0816 0.0774 0.0746 0.0726 0.0706
1050.000000 0.0687 0.0670 0.0662 0.0654 0.0646
1055.000000 0.0638 0.0630 0.0622 0.0614 0.0607
1060.000000 0.0602 0.0597 0.0593 0.0588 0.0584
1065.000000 0.0579 0.0575 0.0570 0.0566 0.0561
1070.000000 0.0559 0.0559 0.0558 0.0558 0.0557
1075.000000 0.0557 0.0556 0.0556 0.0555 0.0555
1080.000000 0.0560 0.0554 0.0553 0.0553 0.0554
1085.000000 0.0556 0.0559 0.0561 0.0564 0.0567
1090.000000 0.0569 0.0572 0.0579 0.0591 0.0604
1095.000000 0.0616 0.0629 0.0641 0.0654 0.0704
1100.000000 0.0758 0.0812 0.0867 0.0921 0.0975
1105.000000 0.1029 0.1084 0.1138 0.1192 0.1246
1110.000000 0.1301 0.1355 0.1409 0.1463 0.1517
1115.000000 0.1572 0.1626 0.1680 0.1734 0.1789
1120.000000 0.1843 0.1897 0.1949 0.1981 0.2001
1125.000000 0.2020 0.2040 0.2043 0.2046 0.2064
1130.000000 0.2039 0.2026 0.2014 0.2003 0.1991
1135.000000 0.1980 0.1968 0.1956 0.1945 0.1935
1140.000000 0.1925 0.1927 0.1948 0.1936 0.1943
1145.000000 0.1951 0.1960 0.1977 0.2056 0.2136
1150.000000 0.2215 0.2295 0.2375 0.2454 0.2534
1155.000000 0.2613 0.2693 0.2772 0.2852 0.2931
1160.000000 0.3040 0.3110 0.3180 0.3250 0.3319
1165.000000 0.3389 0.3458 0.3527 0.3597 0.3690
1170.000000 0.3787 0.3883 0.4121 0.4211 0.4303
1175.000000 0.4397 0.4491 0.4585 0.4707 0.4835
1180.000000 0.4969 0.5132 0.5308 0.5503 0.5643
1185.000000 0.5770 0.5880 0.5975 0.6070 0.6169
1190.000000 0.6270 0.6371 0.6435 0.6499 0.6563
1195.000000 0.6626 0.6686 0.6745 0.6805 0.6872
1200.000000 0.6939 0.7006 0.7073 0.7121 0.7165
1205.000000 0.7210 0.7254 0.7298 0.7342 0.7376
1210.000000 0.7405 0.7433 0.7462 0.7491 0.7519
1215.000000 0.7548 0.7576 0.7605 0.7633 0.7661
1220.000000 0.7690 0.7718 0.7746 0.7775 0.7803
1225.000000 0.7831 0.7857 0.7878 0.7899 0.7920
1230.000000 0.7941 0.7962 0.7983 0.8004 0.8025
1235.000000 0.8044 0.8060 0.8076 0.8092 0.8108
1240.000000 0.8124 0.8140 0.8156 0.8173 0.8189
1245.000000 0.8205 0.8221 0.8237 0.8253 0.8269
1250.000000 0.8285 0.8301 0.8318 0.8334 0.8350
1255.000000 0.8366 0.8379 0.8391 0.8403 0.8416
1260.000000 0.8428 0.8440 0.8453 0.8465 0.8477
1265.000000 0.8490 0.8502 0.8514 0.8527 0.8539
1270.000000 0.8550 0.8562 0.8573 0.8584 0.8595
1275.000000 0.8606 0.8616 0.8625 0.8634 0.8643
1280.000000 0.8653 0.8662 0.8671 0.8681 0.8690
1285.000000 0.8699 0.8708 0.8718 0.8727 0.8735
1290.000000 0.8744 0.8753 0.8762 0.8771 0.8780
1295.000000 0.8789 0.8798 0.8807 0.8816 0.8825
1300.000000 0.8834 0.8843 0.8852 0.8861 0.8870
1305.000000 0.8879 0.8888 0.8897 0.8905 0.8914
1310.000000 0.8923 0.8932 0.8941 0.8949 0.8957
1315.000000 0.8965 0.8972 0.8980 0.8988 0.8996
1320.000000 0.9004 0.9012 0.9019 0.9027 0.9035
1325.000000 0.9043 0.9051 0.9058 0.9065 0.9071
1330.000000 0.9077 0.9082 0.9088 0.9094 0.9100
1335.000000 0.9106 0.9112 0.9117 0.9123 0.9129
1340.000000 0.9135 0.9141 0.9147 0.9152 0.9158
1345.000000 0.9164 0.9171 0.9177 0.9184 0.9190
1350.000000 0.9197 0.9203 0.9210 0.9216 0.9223
1355.000000 0.9229 0.9235 0.9240 0.9245 0.9250
1360.000000 0.9254 0.9259 0.9264 0.9269 0.9274
1365.000000 0.9276 0.9276 0.9275 0.9274 0.9272
1370.000000 0.9270 0.9269 0.9267 0.9266 0.9264
1375.000000 0.9263 0.9273 0.9285 0.9299 0.9314
1380.000000 0.9330 0.9346 0.9356 0.9362 0.9360
1385.000000 0.9358 0.9356 0.9354 0.9351 0.9347
1390.000000 0.9343 0.9339 0.9334 0.9333 0.9333
1395.000000 0.9332 0.9332 0.9332 0.9332 0.9331
1400.000000 0.9331 0.9331 0.9331 0.9332 0.9337
1405.000000 0.9323 0.9348 0.9353 0.9357 0.9362
1410.000000 0.9367 0.9372 0.9375 0.9376 0.9377
1415.000000 0.9378 0.9379 0.9364 0.9344 0.9328
1420.000000 0.9314 0.9299 0.9295 0.9294 0.9293
1425.000000 0.9292 0.9291 0.9289 0.9288 0.9287
1430.000000 0.9285 0.9284 0.9282 0.9281 0.9280
1435.000000 0.9281 0.9282 0.9284 0.9285 0.9287
1440.000000 0.9288 0.9290 0.9291 0.9291 0.9292
1445.000000 0.9292 0.9288 0.9282 0.9276 0.9270
1450.000000 0.9263 0.9256 0.9247 0.9237 0.9227
1455.000000 0.9217 0.9207 0.9195 0.9185 0.9191
1460.000000 0.9197 0.9206 0.9218 0.9230 0.9238
1465.000000 0.9244 0.9240 0.9232 0.9223 0.9215
1470.000000 0.9205 0.9195 0.9185 0.9183 0.9186
1475.000000 0.9192 0.9198 0.9204 0.9211 0.9217
1480.000000 0.9223 0.9228 0.9229 0.9219 0.9215
1485.000000 0.9207 0.9199 0.9191 0.9183 0.9175
1490.000000 0.9166 0.9158 0.9150 0.9140 0.9130
1495.000000 0.9120 0.9110 0.9101 0.9092 0.9083
1500.000000 0.9071 0.9056 0.9041 0.9022 0.8993
1505.000000 0.8961 0.8932 0.8916 0.8905 0.8902
1510.000000 0.8903 0.8905 0.8912 0.8929 0.8950
1515.000000 0.8953 0.8953 0.8952 0.8952 0.8945
1520.000000 0.8938 0.8923 0.8902 0.8880 0.8858
1525.000000 0.8835 0.8812 0.8789 0.8766 0.8741
1530.000000 0.8715 0.8689 0.8663 0.8638 0.8612
1535.000000 0.8589 0.8565 0.8541 0.8518 0.8494
1540.000000 0.8467 0.8423 0.8413 0.8404 0.8395
1545.000000 0.8386 0.8378 0.8370 0.8362 0.8354
1550.000000 0.8318 0.8241 0.8190 0.8147 0.8109
1555.000000 0.8073 0.8039 0.8008 0.7987 0.7979
1560.000000 0.7972 0.7966 0.7961 0.7956 0.7951
1565.000000 0.7945 0.7938 0.7905 0.7866 0.7814
1570.000000 0.7770 0.7735 0.7700 0.7665 0.7630
1575.000000 0.7598 0.7566 0.7543 0.7537 0.7530
1580.000000 0.7524 0.7517 0.7511 0.7504 0.7498
1585.000000 0.7491 0.7485 0.7478 0.7471 0.7464
1590.000000 0.7457 0.7450 0.7442 0.7435 0.7428
1595.000000 0.7421 0.7414 0.7407 0.7400 0.7392
1600.000000 0.7385 0.7377 0.7367 0.7358 0.7349
1605.000000 0.7340 0.7331 0.7321 0.7312 0.7303
1610.000000 0.7289 0.7275 0.7262 0.7248 0.7234
1615.000000 0.7221 0.7207 0.7188 0.7168 0.7148
1620.000000 0.7128 0.7108 0.7087 0.7067 0.7044
1625.000000 0.7019 0.6993 0.6967 0.6941 0.6915
1630.000000 0.6889 0.6852 0.6815 0.6777 0.6740
1635.000000 0.6703 0.6675 0.6649 0.6623 0.6597
1640.000000 0.6571 0.6548 0.6532 0.6516 0.6499
1645.000000 0.6482 0.6460 0.6438 0.6417 0.6404
1650.000000 0.6391 0.6378 0.6377 0.6377 0.6376
1655.000000 0.6376 0.6367 0.6375 0.6374 0.6376
1660.000000 0.6379 0.6381 0.6384 0.6387 0.6389
1665.000000 0.6393 0.6401 0.6408 0.6416 0.6423
1670.000000 0.6434 0.6447 0.6461 0.6477 0.6495
1675.000000 0.6512 0.6546 0.6595 0.6635 0.6675
1680.000000 0.6722 0.6752 0.6773 0.6797 0.6822
1685.000000 0.6860 0.6904 0.6947 0.7012 0.7079
1690.000000 0.7145 0.7209 0.7267 0.7285 0.7303
1695.000000 0.7322 0.7342 0.7374 0.7413 0.7479
1700.000000 0.7574 0.7623 0.7669 0.7714 0.7760
1705.000000 0.7806 0.7855 0.7904 0.7953 0.7987
1710.000000 0.8006 0.8024 0.8042 0.8060 0.8079
1715.000000 0.8098 0.8143 0.8199 0.8266 0.8326
1720.000000 0.8382 0.8394 0.8406 0.8418 0.8430
1725.000000 0.8442 0.8454 0.8465 0.8476 0.8486
1730.000000 0.8497 0.8507 0.8518 0.8529 0.8539
1735.000000 0.8553 0.8570 0.8587 0.8604 0.8621
1740.000000 0.8636 0.8643 0.8651 0.8658 0.8665
1745.000000 0.8672 0.8680 0.8687 0.8703 0.8719
1750.000000 0.8736 0.8760 0.8786 0.8811 0.8836
1755.000000 0.8861 0.8886 0.8911 0.8936 0.8975
1760.000000 0.9014 0.9023 0.9032 0.9041 0.9050
1765.000000 0.9051 0.9053 0.9054 0.9056 0.9058
1770.000000 0.9059 0.9062 0.9067 0.9072 0.9078
1775.000000 0.9112 0.9123 0.9133 0.9140 0.9141
1780.000000 0.9142 0.9143 0.9144 0.9143 0.9141
1785.000000 0.9138 0.9136 0.9134 0.9132 0.9124
1790.000000 0.9114 0.9111 0.9109 0.9107 0.9109
1795.000000 0.9110 0.9112 0.9114 0.9116 0.9118
1800.000000 0.9120 0.9122 0.9124 0.9126 0.9128
1805.000000 0.9130 0.9132 0.9133 0.9134 0.9136
1810.000000 0.9137 0.9138 0.9139 0.9138 0.9137
1815.000000 0.9136 0.9135 0.9134 0.9133 0.9131
1820.000000 0.9130 0.9121 0.9111 0.9101 0.9092
1825.000000 0.9084 0.9075 0.9094 0.9072 0.9074
1830.000000 0.9076 0.9081 0.9086 0.9091 0.9096
1835.000000 0.9103 0.9110 0.9116 0.9123 0.9138
1840.000000 0.9155 0.9154 0.9153 0.9152 0.9150
1845.000000 0.9149 0.9149 0.9161 0.9174 0.9185
1850.000000 0.9197 0.9208 0.9217 0.9225 0.9233
1855.000000 0.9235 0.9236 0.9238 0.9240 0.9240
1860.000000 0.9237 0.9235 0.9232 0.9230 0.9227
1865.000000 0.9225 0.9216 0.9207 0.9199 0.9190
1870.000000 0.9179 0.9168 0.9157 0.9146 0.9135
1875.000000 0.9125 0.9116 0.9106 0.9096 0.9087
1880.000000 0.9078 0.9070 0.9063 0.9057 0.9052
1885.000000 0.9047 0.9042 0.9037 0.9032 0.9027
1890.000000 0.9022 0.9017 0.9013 0.9010 0.9007
1895.000000 0.9004 0.9001 0.8997 0.8994 0.8991
1900.000000 0.8988 0.8985 0.8981 0.8978 0.8975
1905.000000 0.8972 0.8969 0.8965 0.8962 0.8959
1910.000000 0.8954 0.8947 0.8940 0.8932 0.8919
1915.000000 0.8901 0.8876 0.8846 0.8817 0.8796
1920.000000 0.8779 0.8763 0.8748 0.8740 0.8732
1925.000000 0.8724 0.8716 0.8711 0.8705 0.8700
1930.000000 0.8694 0.8689 0.8684 0.8678 0.8673
1935.000000 0.8667 0.8662 0.8657 0.8651 0.8646
1940.000000 0.8641 0.8636 0.8630 0.8625 0.8620
1945.000000 0.8615 0.8609 0.8605 0.8601 0.8597
1950.000000 0.8594 0.8590 0.8586 0.8582 0.8579
1955.000000 0.8575 0.8571 0.8568 0.8565 0.8561
1960.000000 0.8558 0.8554 0.8551 0.8548 0.8544
1965.000000 0.8541 0.8538 0.8534 0.8531 0.8528
1970.000000 0.8524 0.8521 0.8518 0.8514 0.8511
1975.000000 0.8508 0.8506 0.8503 0.8501 0.8498
1980.000000 0.8496 0.8496 0.8497 0.8498 0.8499
1985.000000 0.8501 0.8502 0.8503 0.8507 0.8512
1990.000000 0.8517 0.8523 0.8528 0.8534 0.8544
1995.000000 0.8556 0.8562 0.8559 0.8553 0.8547
2000.000000 0.8539 0.8524 0.8509 0.8499 0.8490
2005.000000 0.8480 0.8471 0.8462 0.8453 0.8445
2010.000000 0.8438 0.8430 0.8423 0.8415 0.8408
2015.000000 0.8405 0.8402 0.8400 0.8399 0.8397
2020.000000 0.8396 0.8394 0.8393 0.8391 0.8390
2025.000000 0.8389 0.8389 0.8388 0.8388 0.8388
2030.000000 0.8388 0.8388 0.8388 0.8388 0.8388
2035.000000 0.8388 0.8388 0.8389 0.8390 0.8391
2040.000000 0.8393 0.8394 0.8396 0.8397 0.8399
2045.000000 0.8400 0.8402 0.8403 0.8405 0.8407
2050.000000 0.8409 0.8410 0.8412 0.8413 0.8415
2055.000000 0.8416 0.8418 0.8419 0.8421 0.8422
2060.000000 0.8424 0.8425 0.8427 0.8428 0.8430
2065.000000 0.8431 0.8433 0.8433 0.8434 0.8434
2070.000000 0.8434 0.8434 0.8434 0.8434 0.8434
2075.000000 0.8434 0.8434 0.8434 0.8434 0.8433
2080.000000 0.8433 0.8432 0.8432 0.8429 0.8426
2085.000000 0.8423 0.8421 0.8418 0.8415 0.8412
2090.000000 0.8409 0.8406 0.8404 0.8401 0.8398
2095.000000 0.8395 0.8393 0.8390 0.8387 0.8383
2100.000000 0.8379 0.8375 0.8371 0.8366 0.8362
2105.000000 0.8358 0.8354 0.8350 0.8346 0.8341
2110.000000 0.8337 0.8333 0.8329 0.8325 0.8321
2115.000000 0.8316 0.8312 0.8308 0.8304 0.8300
2120.000000 0.8296 0.8291 0.8287 0.8283 0.8279
2125.000000 0.8275 0.8271 0.8267 0.8264 0.8260
2130.000000 0.8256 0.8252 0.8249 0.8245 0.8241
2135.000000 0.8237 0.8234 0.8230 0.8226 0.8222
2140.000000 0.8219 0.8215 0.8211 0.8207 0.8204
2145.000000 0.8200 0.8196 0.8192 0.8189 0.8185
2150.000000 0.8181 0.8177 0.8174 0.8170 0.8166
2155.000000 0.8161 0.8157 0.8152 0.8148 0.8143
2160.000000 0.8139 0.8134 0.8130 0.8125 0.8121
2165.000000 0.8117 0.8113 0.8108 0.8104 0.8099
2170.000000 0.8095 0.8090 0.8086 0.8081 0.8077
2175.000000 0.8072 0.8068 0.8063 0.8059 0.8055
2180.000000 0.8051 0.8046 0.8042 0.8037 0.8033
2185.000000 0.8028 0.8024 0.8019 0.8015 0.8010
2190.000000 0.8006 0.8002 0.7998 0.7993 0.7989
2195.000000 0.7984 0.7980 0.7975 0.7971 0.7966
2200.000000 0.7962 0.7957 0.7952 0.7947 0.7943
2205.000000 0.7938 0.7934 0.7929 0.7925 0.7920
2210.000000 0.7916 0.7911 0.7907 0.7902 0.7898
2215.000000 0.7893 0.7889 0.7884 0.7880 0.7875
2220.000000 0.7871 0.7866 0.7862 0.7857 0.7853
2225.000000 0.7848 0.7844 0.7840 0.7836 0.7832
2230.000000 0.7828 0.7823 0.7819 0.7815 0.7811
2235.000000 0.7807 0.7803 0.7798 0.7794 0.7790
2240.000000 0.7786 0.7782 0.7778 0.7773 0.7769
2245.000000 0.7765 0.7761 0.7757 0.7753 0.7749
2250.000000 0.7745 0.7740 0.7736 0.7732 0.7728
2255.000000 0.7724 0.7721 0.7717 0.7713 0.7709
2260.000000 0.7706 0.7702 0.7698 0.7694 0.7691
2265.000000 0.7687 0.7683 0.7679 0.7676 0.7672
2270.000000 0.7668 0.7664 0.7661 0.7657 0.7653
2275.000000 0.7649 0.7646 0.7642 0.7638 0.7634
2280.000000 0.7631 0.7627 0.7624 0.7620 0.7616
2285.000000 0.7612 0.7609 0.7606 0.7603 0.7600
2290.000000 0.7598 0.7595 0.7592 0.7589 0.7586
2295.000000 0.7583 0.7580 0.7577 0.7575 0.7572
2300.000000 0.7569 0.7566 0.7563 0.7560 0.7557
2305.000000 0.7554 0.7552 0.7549 0.7546 0.7543
2310.000000 0.7540 0.7537 0.7534 0.7531 0.7529
2315.000000 0.7526 0.7523 0.7520 0.7517 0.7514
2320.000000 0.7512 0.7509 0.7506 0.7503 0.7500
2325.000000 0.7497 0.7495 0.7492 0.7490 0.7488
2330.000000 0.7486 0.7484 0.7483 0.7481 0.7479
2335.000000 0.7477 0.7475 0.7473 0.7472 0.7470
2340.000000 0.7468 0.7466 0.7465 0.7465 0.7466
2345.000000 0.7467 0.7459 0.7469 0.7471 0.7472
2350.000000 0.7473 0.7474 0.7475 0.7476 0.7478
2355.000000 0.7481 0.7485 0.7489 0.7493 0.7496
2360.000000 0.7500 0.7504 0.7508 0.7516 0.7524
2365.000000 0.7532 0.7541 0.7550 0.7559 0.7572
2370.000000 0.7586 0.7599 0.7612 0.7625 0.7639
2375.000000 0.7654 0.7670 0.7686 0.7702 0.7718
2380.000000 0.7734 0.7750 0.7766 0.7781 0.7797
2385.000000 0.7813 0.7829 0.7845 0.7861 0.7875
2390.000000 0.7890 0.7902 0.7914 0.7926 0.7938
2395.000000 0.7948 0.7959 0.7969 0.7979 0.7986
2400.000000 0.7993 0.7994 0.7995 0.7995 0.7996
2405.000000 0.7997 0.7998 0.7998 0.7999 0.7997
2410.000000 0.7996 0.7994 0.7993 0.7991 0.7990
2415.000000 0.7988 0.7987 0.7985 0.7984 0.7982
2420.000000 0.7981 0.7979 0.7978 0.7976 0.7975
2425.000000 0.7974 0.7973 0.7972 0.7972 0.7971
2430.000000 0.7971 0.7970 0.7959 0.7969 0.7968
2435.000000 0.7967 0.7967 0.7966 0.7966 0.7965
2440.000000 0.7965 0.7964 0.7964 0.7962 0.7961
2445.000000 0.7959 0.7958 0.7956 0.7955 0.7953
2450.000000 0.7952 0.7951 0.7950 0.7948 0.7947
2455.000000 0.7945 0.7943 0.7940 0.7938 0.7936
2460.000000 0.7934 0.7931 0.7929 0.7926 0.7924
2465.000000 0.7922 0.7920 0.7917 0.7915 0.7912
2470.000000 0.7910 0.7908 0.7906 0.7903 0.7901
2475.000000 0.7898 0.7896 0.7894 0.7892 0.7889
2480.000000 0.7887 0.7883 0.7880 0.7876 0.7873
2485.000000 0.7869 0.7865 0.7861 0.7858 0.7854
2490.000000 0.7851 0.7847 0.7844 0.7840 0.7837
2495.000000 0.7833 0.7830 0.7826 0.7823 0.7819
2500.000000 0.7816 0.7812 0.7809 0.7805 0.7802
2505.000000 0.7798 0.7795 0.7791 0.7788 0.7784
2510.000000 0.7781 0.7776 0.7772 0.7768 0.7764
2515.000000 0.7759 0.7755 0.7750 0.7746 0.7741
2520.000000 0.7737 0.7732 0.7728 0.7723 0.7719
2525.000000 0.7714 0.7710 0.7705 0.7700 0.7694
2530.000000 0.7689 0.7684 0.7679 0.7674 0.7669
2535.000000 0.7664 0.7659 0.7653 0.7648 0.7643
2540.000000 0.7638 0.7633 0.7628 0.7623 0.7618
2545.000000 0.7612 0.7607 0.7602 0.7597 0.7592
2550.000000 0.7587 0.7582 0.7577 0.7572 0.7567
2555.000000 0.7561 0.7555 0.7549 0.7543 0.7536
2560.000000 0.7530 0.7524 0.7518 0.7512 0.7506
2565.000000 0.7500 0.7494 0.7487 0.7481 0.7475
2570.000000 0.7469 0.7463 0.7457 0.7450 0.7444
2575.000000 0.7438 0.7432 0.7426 0.7420 0.7413
2580.000000 0.7407 0.7401 0.7395 0.7389 0.7383
2585.000000 0.7376 0.7370 0.7363 0.7357 0.7350
2590.000000 0.7343 0.7336 0.7330 0.7323 0.7316
2595.000000 0.7309 0.7302 0.7295 0.7289 0.7282
2600.000000 0.7275 0.7268 0.7261 0.7254 0.7248
2605.000000 0.7241 0.7234 0.7227 0.7220 0.7213
2610.000000 0.7207 0.7200 0.7193 0.7186 0.7180
2615.000000 0.7173 0.7166 0.7159 0.7152 0.7144
2620.000000 0.7136 0.7127 0.7119 0.7111 0.7103
2625.000000 0.7095 0.7087 0.7079 0.7071 0.7062
2630.000000 0.7054 0.7046 0.7038 0.7030 0.7022
2635.000000 0.7014 0.7006 0.6998 0.6990 0.6981
2640.000000 0.6973 0.6965 0.6957 0.6947 0.6937
2645.000000 0.6926 0.6916 0.6905 0.6895 0.6884
2650.000000 0.6873 0.6862 0.6852 0.6841 0.6831
2655.000000 0.6820 0.6810 0.6799 0.6789 0.6775
2660.000000 0.6762 0.6748 0.6734 0.6720 0.6706
2665.000000 0.6692 0.6678 0.6664 0.6650 0.6636
2670.000000 0.6622 0.6608 0.6594 0.6580 0.6566
2675.000000 0.6551 0.6537 0.6521 0.6506 0.6490
2680.000000 0.6475 0.6459 0.6444 0.6428 0.6413
2685.000000 0.6397 0.6382 0.6366 0.6351 0.6335
2690.000000 0.6320 0.6309 0.6299 0.6288 0.6277
2695.000000 0.6266 0.6255 0.6244 0.6233 0.6222
2700.000000 0.6211 0.6200 0.6189 0.6178 0.6167
2705.000000 0.6156 0.6145 0.6134 0.6123 0.6112
2710.000000 0.6101 0.6090 0.6080 0.6069 0.6058
2715.000000 0.6047 0.6036 0.6025 0.6014 0.6003
2720.000000 0.5992 0.5977 0.5963 0.5948 0.5933
2725.000000 0.5918 0.5904 0.5889 0.5874 0.5859
2730.000000 0.5845 0.5830 0.5815 0.5800 0.5786
2735.000000 0.5771 0.5756 0.5741 0.5727 0.5712
2740.000000 0.5697 0.5682 0.5668 0.5653 0.5639
2745.000000 0.5625 0.5612 0.5598 0.5584 0.5570
2750.000000 0.5556 0.5542 0.5529 0.5515 0.5502
2755.000000 0.5492 0.5483 0.5474 0.5465 0.5455
2760.000000 0.5446 0.5436 0.5427 0.5418 0.5409
2765.000000 0.5399 0.5390 0.5380 0.5371 0.5362
2770.000000 0.5353 0.5343 0.5334 0.5324 0.5315
2775.000000 0.5306 0.5297 0.5287 0.5278 0.5268
2780.000000 0.5259 0.5249 0.5240 0.5229 0.5219
2785.000000 0.5209 0.5199 0.5188 0.5178 0.5167
2790.000000 0.5157 0.5147 0.5137 0.5126 0.5116
2795.000000 0.5105 0.5095 0.5085 0.5075 0.5064
2800.000000 0.5054 0.5044 0.5034 0.5024 0.5014
2805.000000 0.5004 0.4994 0.4983 0.4973 0.4963
2810.000000 0.4953 0.4943 0.4933 0.4923 0.4913
2815.000000 0.4903 0.4893 0.4882 0.4872 0.4862
2820.000000 0.4853 0.4844 0.4836 0.4827 0.4819
2825.000000 0.4810 0.4802 0.4793 0.4785 0.4776
2830.000000 0.4768 0.4759 0.4751 0.4742 0.4734
2835.000000 0.4725 0.4717 0.4708 0.4700 0.4691
2840.000000 0.4683 0.4674 0.4666 0.4657 0.4649
2845.000000 0.4640 0.4632 0.4623 0.4615 0.4606
2850.000000 0.4597 0.4588 0.4580 0.4571 0.4562
2855.000000 0.4553 0.4545 0.4536 0.4528 0.4519
2860.000000 0.4510 0.4501 0.4493 0.4484 0.4475
2865.000000 0.4466 0.4457 0.4446 0.4436 0.4425
2870.000000 0.4414 0.4403 0.4393 0.4382 0.4371
2875.000000 0.4360 0.4350 0.4339 0.4328 0.4317
2880.000000 0.4307 0.4296 0.4286 0.4275 0.4264
2885.000000 0.4253 0.4243 0.4232 0.4221 0.4210
2890.000000 0.4200 0.4190 0.4180 0.4170 0.4161
2895.000000 0.4151 0.4141 0.4131 0.4121 0.4111
2900.000000 0.4101 0.4091 0.4081 0.4071 0.4062
2905.000000 0.4052 0.4042 0.4032 0.4022 0.4012
2910.000000 0.4002 0.3992 0.3982 0.3972 0.3963
2915.000000 0.3953 0.3943 0.3933 0.3923 0.3915
2920.000000 0.3907 0.3899 0.3892 0.3884 0.3877
2925.000000 0.3869 0.3862 0.3854 0.3847 0.3839
2930.000000 0.3832 0.3824 0.3817 0.3809 0.3802
2935.000000 0.3794 0.3787 0.3779 0.3772 0.3764
2940.000000 0.3757 0.3749 0.3742 0.3734 0.3727
2945.000000 0.3719 0.3712 0.3704 0.3697 0.3690
2950.000000 0.3683 0.3675 0.3668 0.3660 0.3653
2955.000000 0.3645 0.3638 0.3628 0.3619 0.3609
2960.000000 0.3599 0.3588 0.3578 0.3567 0.3557
2965.000000 0.3547 0.3537 0.3526 0.3516 0.3506
2970.000000 0.3496 0.3485 0.3475 0.3464 0.3454
2975.000000 0.3444 0.3434 0.3423 0.3413 0.3403
2980.000000 0.3393 0.3382 0.3372 0.3361 0.3351
2985.000000 0.3340 0.3329 0.3317 0.3306 0.3294
2990.000000 0.3283 0.3271 0.3260 0.3248 0.3237
2995.000000 0.3225 0.3214 0.3202 0.3191 0.3179
3000.000000 0.3168 0.3156 0.3144 0.3132 0.3121
3005.000000 0.3109 0.3098 0.3086 0.3075 0.3063
3010.000000 0.3051 0.3038 0.3025 0.3012 0.3000
3015.000000 0.2987 0.2974 0.2961 0.2949 0.2936
3020.000000 0.2923 0.2910 0.2898 0.2885 0.2873
3025.000000 0.2860 0.2847 0.2834 0.2822 0.2809
3030.000000 0.2796 0.2783 0.2771 0.2758 0.2746
3035.000000 0.2733 0.2721 0.2708 0.2696 0.2683
3040.000000 0.2671 0.2658 0.2646 0.2635 0.2624
3045.000000 0.2613 0.2602 0.2591 0.2580 0.2569
3050.000000 0.2559 0.2548 0.2537 0.2526 0.2515
3055.000000 0.2505 0.2495 0.2487 0.2479 0.2470
3060.000000 0.2462 0.2454 0.2446 0.2437 0.2429
3065.000000 0.2422 0.2415 0.2409 0.2403 0.2397
3070.000000 0.2391 0.2385 0.2379 0.2373 0.2367
3075.000000 0.2362 0.2358 0.2356 0.2354 0.2352
3080.000000 0.2350 0.2348 0.2346 0.2344 0.2342
3085.000000 0.2340 0.2338 0.2337 0.2337 0.2337
3090.000000 0.2337 0.2337 0.2337 0.2337 0.2337
3095.000000 0.2337 0.2337 0.2337 0.2337 0.2337
3100.000000 0.2337 0.2337 0.2338 0.2338 0.2339
3105.000000 0.2340 0.2331 0.2342 0.2343 0.2344
3110.000000 0.2345 0.2346 0.2347 0.2347 0.2348
3115.000000 0.2349 0.2350 0.2351 0.2352 0.2353
3120.000000 0.2354 0.2355 0.2356 0.2356 0.2357
3125.000000 0.2358 0.2360 0.2361 0.2363 0.2364
3130.000000 0.2366 0.2367 0.2369 0.2370 0.2372
3135.000000 0.2373 0.2375 0.2376 0.2378 0.2379
3140.000000 0.2381 0.2382 0.2384 0.2385 0.2387
3145.000000 0.2388 0.2390 0.2391 0.2393 0.2394
3150.000000 0.2396 0.2398 0.2400 0.2402 0.2404
3155.000000 0.2406 0.2408 0.2409 0.2411 0.2413
3160.000000 0.2415 0.2417 0.2419 0.2421 0.2423
3165.000000 0.2425 0.2427 0.2430 0.2433 0.2436
3170.000000 0.2440 0.2443 0.2446 0.2449 0.2453
3175.000000 0.2456 0.2460 0.2463 0.2467 0.2470
3180.000000 0.2474 0.2477 0.2481 0.2485 0.2489
3185.000000 0.2493 0.2498 0.2502 0.2506 0.2510
3190.000000 0.2514 0.2518 0.2522 0.2526 0.2530
3195.000000 0.2534 0.2538 0.2542 0.2546 0.2550
3200.000000 0.2555 0.2560 0.2566 0.2573 0.2580
3205.000000 0.2586 0.2593 0.2599 0.2606 0.2613
3210.000000 0.2620 0.2626 0.2633 0.2640 0.2647
3215.000000 0.2653 0.2660 0.2666 0.2673 0.2680
3220.000000 0.2687 0.2693 0.2700 0.2707 0.2714
3225.000000 0.2720 0.2727 0.2734 0.2742 0.2750
3230.000000 0.2758 0.2766 0.2774 0.2782 0.2790
3235.000000 0.2798 0.2806 0.2814 0.2822 0.2829
3240.000000 0.2837 0.2845 0.2853 0.2861 0.2870
3245.000000 0.2878 0.2887 0.2895 0.2904 0.2912
3250.000000 0.2920 0.2928 0.2936 0.2944 0.2952
3255.000000 0.2958 0.2964 0.2969 0.2975 0.2981
3260.000000 0.2987 0.2992 0.2998 0.3003 0.3009
3265.000000 0.3014 0.3020 0.3025 0.3031 0.3036
3270.000000 0.3042 0.3048 0.3054 0.3059 0.3065
3275.000000 0.3070 0.3076 0.3080 0.3085 0.3088
3280.000000 0.3092 0.3095 0.3099 0.3102 0.3105
3285.000000 0.3108 0.3112 0.3115 0.3119 0.3122
3290.000000 0.3125 0.3128 0.3132 0.3135 0.3139
3295.000000 0.3142 0.3145 0.3148 0.3152 0.3155
3300.000000 0.3159 0.3162 0.3165 0.3168 0.3172
3305.000000 0.3175 0.3179 0.3182 0.3185 0.3188
3310.000000 0.3192 0.3195 0.3199 0.3202 0.3205
3315.000000 0.3208 0.3212 0.3215 0.3218 0.3221
3320.000000 0.3225 0.3228 0.3231 0.3234 0.3238
3325.000000 0.3241 0.3245 0.3248 0.3251 0.3254
3330.000000 0.3258 0.3261 0.3264 0.3267 0.3271
3335.000000 0.3274 0.3278 0.3282 0.3287 0.3291
3340.000000 0.3296 0.3300 0.3305 0.3313 0.3321
3345.000000 0.3331 0.3341 0.3358 0.3376 0.3392
3350.000000 0.3409 0.3415 0.3422 0.3429 0.3436
3355.000000 0.3443 0.3450 0.3457 0.3464 0.3469
3360.000000 0.3475 0.3477 0.3480 0.3482 0.3485
3365.000000 0.3487 0.3490 0.3492 0.3495 0.3497
3370.000000 0.3500 0.3502 0.3505 0.3507 0.3510
3375.000000 0.3512 0.3515 0.3519 0.3523 0.3528
3380.000000 0.3533 0.3538 0.3543 0.3548 0.3554
3385.000000 0.3559 0.3564 0.3569 0.3574 0.3579
3390.000000 0.3584 0.3593 0.3602 0.3611 0.3620
3395.000000 0.3629 0.3639 0.3648 0.3657 0.3665
3400.000000 0.3673 0.3681 0.3689 0.3695 0.3702
3405.000000 0.3702 0.3702 0.3702 0.3711 0.3703
3410.000000 0.3703 0.3702 0.3702 0.3700 0.3698
3415.000000 0.3696 0.3695 0.3693 0.3691 0.3689
3420.000000 0.3688 0.3684 0.3681 0.3677 0.3674
3425.000000 0.3670 0.3667 0.3663 0.3660 0.3654
3430.000000 0.3648 0.3642 0.3636 0.3630 0.3625
3435.000000 0.3619 0.3613 0.3607 0.3602 0.3596
3440.000000 0.3590 0.3584 0.3579 0.3568 0.3558
3445.000000 0.3547 0.3536 0.3524 0.3513 0.3501
3450.000000 0.3490 0.3478 0.3467 0.3456 0.3445
3455.000000 0.3433 0.3422 0.3410 0.3399 0.3387
3460.000000 0.3376 0.3364 0.3353 0.3341 0.3330
3465.000000 0.3318 0.3307 0.3295 0.3284 0.3273
3470.000000 0.3263 0.3252 0.3242 0.3231 0.3221
3475.000000 0.3210 0.3200 0.3189 0.3179 0.3168
3480.000000 0.3158 0.3147 0.3137 0.3127 0.3117
3485.000000 0.3107 0.3097 0.3089 0.3081 0.3078
3490.000000 0.3076 0.3073 0.3070 0.3067 0.3065
3495.000000 0.3062 0.3060 0.3057 0.3055 0.3056
3500.000000 0.3057 0.3057 0.3058 0.3061 0.3053
3505.000000 0.3071 0.3078 0.3084 0.3091 0.3105
3510.000000 0.3119 0.3133 0.3148 0.3164 0.3180
3515.000000 0.3196 0.3213 0.3231 0.3250 0.3269
3520.000000 0.3288 0.3307 0.3327 0.3346 0.3366
3525.000000 0.3389 0.3412 0.3437 0.3462 0.3523
3530.000000 0.3585 0.3628 0.3672 0.3715 0.3758
3535.000000 0.3789 0.3821 0.3844 0.3867 0.3890
3540.000000 0.3913 0.3936 0.3959 0.3982 0.4005
3545.000000 0.4028 0.4051 0.4074 0.4097 0.4122
3550.000000 0.4147 0.4171 0.4196 0.4220 0.4245
3555.000000 0.4270 0.4295 0.4319 0.4343 0.4366
3560.000000 0.4390 0.4414 0.4438 0.4462 0.4486
3565.000000 0.4509 0.4533 0.4560 0.4587 0.4615
3570.000000 0.4643 0.4670 0.4698 0.4726 0.4754
3575.000000 0.4775 0.4796 0.4814 0.4833 0.4851
3580.000000 0.4870 0.4888 0.4907 0.4925 0.4944
3585.000000 0.4962 0.4981 0.4999 0.5017 0.5031
3590.000000 0.5045 0.5059 0.5073 0.5086 0.5100
3595.000000 0.5114 0.5128 0.5142 0.5156 0.5170
3600.000000 0.5184 0.5198 0.5212 0.5226 0.5240
3605.000000 0.5254 0.5268 0.5282 0.5296 0.5306
3610.000000 0.5316 0.5322 0.5328 0.5334 0.5340
3615.000000 0.5345 0.5351 0.5369 0.5388 0.5408
3620.000000 0.5428 0.5451 0.5474 0.5497 0.5521
3625.000000 0.5545 0.5569 0.5591 0.5614 0.5636
3630.000000 0.5658 0.5680 0.5703 0.5725 0.5748
3635.000000 0.5771 0.5794 0.5817 0.5841 0.5864
3640.000000 0.5887 0.5910 0.5933 0.5956 0.5980
3645.000000 0.6003 0.6026 0.6057 0.6089 0.6128
3650.000000 0.6168 0.6209 0.6250 0.6297 0.6344
3655.000000 0.6390 0.6437 0.6479 0.6522 0.6564
3660.000000 0.6607 0.6630 0.6653 0.6672 0.6691
3665.000000 0.6700 0.6709 0.6714 0.6719 0.6724
3670.000000 0.6730 0.6735 0.6740 0.6747 0.6755
3675.000000 0.6764 0.6774 0.6785 0.6797 0.6816
3680.000000 0.6836 0.6855 0.6874 0.6882 0.6891
3685.000000 0.6899 0.6908 0.6917 0.6926 0.6933
3690.000000 0.6941 0.6947 0.6953 0.6959 0.6965
3695.000000 0.6971 0.6978 0.6984 0.6990 0.6996
3700.000000 0.7003 0.7009 0.7015 0.7021 0.7027
3705.000000 0.7033 0.7040 0.7046 0.7052 0.7058
3710.000000 0.7064 0.7070 0.7077 0.7083 0.7089
3715.000000 0.7095 0.7101 0.7107 0.7113 0.7119
3720.000000 0.7125 0.7131 0.7137 0.7143 0.7149
3725.000000 0.7155 0.7161 0.7167 0.7173 0.7179
3730.000000 0.7185 0.7191 0.7197 0.7203 0.7209
3735.000000 0.7215 0.7221 0.7226 0.7231 0.7236
3740.000000 0.7242 0.7247 0.7253 0.7258 0.7264
3745.000000 0.7269 0.7275 0.7280 0.7286 0.7291
3750.000000 0.7296 0.7301 0.7307 0.7312 0.7318
3755.000000 0.7323 0.7329 0.7334 0.7340 0.7345
3760.000000 0.7350 0.7355 0.7361 0.7366 0.7372
3765.000000 0.7377 0.7383 0.7388 0.7393 0.7398
3770.000000 0.7404 0.7409 0.7415 0.7420 0.7425
3775.000000 0.7430 0.7436 0.7441 0.7447 0.7452
3780.000000 0.7457 0.7462 0.7468 0.7473 0.7478
3785.000000 0.7481 0.7484 0.7486 0.7488 0.7490
3790.000000 0.7492 0.7494 0.7496 0.7498 0.7500
3795.000000 0.7501 0.7503 0.7501 0.7500 0.7497
3800.000000 0.7495 0.7493 0.7491 0.7488 0.7486
3805.000000 0.7484 0.7482 0.7479 0.7477 0.7477
3810.000000 0.7478 0.7479 0.7480 0.7481 0.7482
3815.000000 0.7483 0.7484 0.7485 0.7486 0.7487
3820.000000 0.7488 0.7489 0.7491 0.7494 0.7497
3825.000000 0.7499 0.7502 0.7505 0.7508 0.7512
3830.000000 0.7516 0.7522 0.7528 0.7534 0.7541
3835.000000 0.7547 0.7553 0.7559 0.7565 0.7570
3840.000000 0.7576 0.7582 0.7588 0.7592 0.7597
3845.000000 0.7596 0.7595 0.7594 0.7593 0.7592
3850.000000 0.7591 0.7589 0.7588 0.7587 0.7586
3855.000000 0.7583 0.7581 0.7579 0.7577 0.7575
3860.000000 0.7573 0.7570 0.7568 0.7566 0.7564
3865.000000 0.7563 0.7562 0.7562 0.7562 0.7562
3870.000000 0.7562 0.7562 0.7562 0.7562 0.7562
3875.000000 0.7562 0.7562 0.7562 0.7562 0.7563
3880.000000 0.7565 0.7567 0.7569 0.7570 0.7572
3885.000000 0.7573 0.7575 0.7576 0.7578 0.7580
3890.000000 0.7582 0.7583 0.7585 0.7586 0.7588
3895.000000 0.7589 0.7591 0.7593 0.7595 0.7597
3900.000000 0.7599 0.7601 0.7603 0.7605 0.7607
3905.000000 0.7609 0.7611 0.7613 0.7615 0.7617
3910.000000 0.7620 0.7622 0.7624 0.7626 0.7628
3915.000000 0.7630 0.7633 0.7635 0.7638 0.7640
3920.000000 0.7643 0.7645 0.7648 0.7650 0.7653
3925.000000 0.7655 0.7658 0.7660 0.7663 0.7665
3930.000000 0.7668 0.7670 0.7673 0.7675 0.7678
3935.000000 0.7680 0.7683 0.7685 0.7687 0.7689
3940.000000 0.7691 0.7692 0.7694 0.7696 0.7698
3945.000000 0.7700 0.7702 0.7704 0.7706 0.7708
3950.000000 0.7713 0.7711 0.7713 0.7714 0.7716
3955.000000 0.7717 0.7718 0.7719 0.7720 0.7721
3960.000000 0.7723 0.7724 0.7725 0.7726 0.7727
3965.000000 0.7728 0.7730 0.7730 0.7731 0.7731
3970.000000 0.7732 0.7732 0.7732 0.7732 0.7733
3975.000000 0.7733 0.7734 0.7734 0.7735 0.7735
3980.000000 0.7736 0.7736 0.7737 0.7737 0.7738
3985.000000 0.7738 0.7739 0.7739 0.7740 0.7740
3990.000000 0.7741 0.7741 0.7741 0.7741 0.7742
3995.000000 0.7742 0.7743 0.7743 0.7744 0.7744
4000.000000 0.7744
##END=
