##TITLE=SODIUM TARTRATE DIHYDRATE
##JCAMP-DX=4.24
##DATA TYPE=INFRARED SPECTRUM
##CLASS=COBLENTZ
##ORIGIN=DOW CHEMICAL COMPANY
##OWNER=COBLENTZ SOCIETY
Collection (C) 2018 copyright by the U.S. Secretary of Commerce
on behalf of the United States of America. All rights reserved.
##DATE=Not specified, most likely prior to 1970
##MOLFORM=C4 H4 O6 Na2  * 2 H2 O
##SOURCE REFERENCE=COBLENTZ NO. 2269
##$NIST ID=B6002269
##$NIST SOURCE=COBLENTZ
##$NIST IMAGE=cob2269
##SPECTROMETER/DATA SYSTEM=Not specified, most likely a prism, grating, or hybrid spectrometer.
##STATE=SOLID (MINERAL OIL MULL)
##SAMPLING PROCEDURE=TRANSMISSION
##RESOLUTION=4
##DATA PROCESSING=DIGITIZED BY NIST FROM HARD COPY
##XUNITS=MICROMETERS
##YUNITS=TRANSMITTANCE
##XFACTOR=1.000000
##YFACTOR=1
##DELTAX=000.006683
##FIRSTX=2.04
##LASTX=15.9064
##FIRSTY=0.899
##MAXX=15.9064
##MINX=2.04
##MAXY=0.916
##MINY=0.05
##NPOINTS=2076
##XYDATA=(X++(Y..Y))
2.040000 0.8990 0.8990 0.9010 0.9010 0.9030
2.073429 0.9030 0.9030 0.9030 0.9030 0.9030
2.107000 0.9030 0.9030 0.9030 0.9030 0.9030
2.140429 0.9010 0.9010 0.9010 0.8990 0.8990
2.174000 0.8990 0.8990 0.8990 0.8990 0.8980
2.207429 0.8960 0.8940 0.8930 0.8890 0.8840
2.241000 0.8780 0.8760 0.8740 0.8730 0.8710
2.274429 0.8690 0.8690 0.8690 0.8690 0.8710
2.307000 0.8730 0.8730 0.8740 0.8740 0.8760
2.340429 0.8760 0.8780 0.8780 0.8780 0.8780
2.374000 0.8780 0.8780 0.8780 0.8780 0.8780
2.407429 0.8780 0.8790 0.8790 0.8790 0.8810
2.441000 0.8830 0.8840 0.8840 0.8860 0.8860
2.474429 0.8880 0.8890 0.8890 0.8890 0.8890
2.508000 0.8890 0.8890 0.8890 0.8880 0.8860
2.541429 0.8860 0.8860 0.8880 0.8890 0.8890
2.575000 0.8890 0.8910 0.8910 0.8910 0.8910
2.608429 0.8910 0.8890 0.8890 0.8880 0.8840
2.642000 0.8790 0.8780 0.8760 0.8760 0.8740
2.675429 0.8710 0.8660 0.8610 0.8530 0.8440
2.708000 0.8330 0.8190 0.8030 0.7970 0.7860
2.741429 0.7710 0.7540 0.7320 0.7060 0.6790
2.775000 0.6470 0.6120 0.6010 0.5600 0.5570
2.808429 0.5570 0.5600 0.5690 0.5720 0.5700
2.842000 0.5550 0.5370 0.5150 0.4890 0.4620
2.875429 0.4440 0.4170 0.3970 0.3820 0.3670
2.909000 0.3500 0.3420 0.3420 0.3420 0.3480
2.942429 0.3720 0.3920 0.4120 0.4290 0.4440
2.976000 0.4570 0.4640 0.4670 0.4700 0.4790
3.009429 0.4800 0.4800 0.4800 0.4800 0.4770
3.042000 0.4750 0.4740 0.4720 0.4670 0.4640
3.075429 0.4570 0.4520 0.4440 0.4420 0.4420
3.109000 0.4440 0.4650 0.4890 0.5140 0.5370
3.142429 0.5600 0.5820 0.5950 0.6060 0.6140
3.176000 0.6220 0.6310 0.6410 0.6520 0.6690
3.209429 0.6770 0.6810 0.6840 0.6890 0.6910
3.243000 0.6920 0.6920 0.6910 0.6910 0.6890
3.276429 0.6840 0.6810 0.6760 0.6560 0.6370
3.310000 0.6220 0.5920 0.5650 0.5400 0.4900
3.343429 0.4190 0.3270 0.2480 0.1960 0.1650
3.377000 0.0510 0.0500 0.0500 0.0500 0.0500
3.410429 0.0510 0.0680 0.0800 0.0930 0.1060
3.443000 0.1210 0.1330 0.1400 0.1410 0.1480
3.476429 0.1660 0.2130 0.3130 0.5220 0.5940
3.510000 0.6240 0.6810 0.7170 0.7460 0.7590
3.543429 0.7710 0.7820 0.7920 0.8030 0.8110
3.577000 0.8190 0.8260 0.8290 0.8310 0.8310
3.610429 0.8310 0.8330 0.8330 0.8330 0.8330
3.644000 0.8330 0.8340 0.8340 0.8340 0.8380
3.677429 0.8380 0.8410 0.8430 0.8430 0.8430
3.711000 0.8410 0.8410 0.8410 0.8410 0.8410
3.744429 0.8410 0.8410 0.8430 0.8440 0.8480
3.778000 0.8540 0.8610 0.8660 0.8680 0.8690
3.811429 0.8710 0.8710 0.8730 0.8740 0.8740
3.844000 0.8760 0.8760 0.8780 0.8790 0.8790
3.877429 0.8810 0.8830 0.8830 0.8840 0.8860
3.911000 0.8860 0.8880 0.8880 0.8890 0.8890
3.944429 0.8910 0.8910 0.8930 0.8940 0.8940
3.978000 0.8960 0.8960 0.8980 0.8980 0.8990
4.011429 0.9030 0.9040 0.9040 0.9040 0.9030
4.045000 0.9030 0.9030 0.9030 0.8990 0.8990
4.078429 0.8990 0.8990 0.8980 0.8980 0.8980
4.112000 0.9010 0.9010 0.9010 0.9010 0.9010
4.145429 0.9010 0.8960 0.8890 0.8880 0.8860
4.179000 0.8860 0.8860 0.8880 0.8890 0.8930
4.212429 0.8930 0.8940 0.8940 0.8960 0.8960
4.245000 0.8990 0.9010 0.9030 0.9030 0.9040
4.278429 0.9040 0.9040 0.9030 0.9010 0.8990
4.312000 0.8980 0.8960 0.8960 0.8960 0.8960
4.345429 0.8940 0.8940 0.8940 0.8940 0.8960
4.379000 0.8960 0.8980 0.8980 0.8980 0.8990
4.412429 0.8990 0.9010 0.9010 0.9010 0.9010
4.446000 0.9010 0.9010 0.8990 0.8990 0.8990
4.479429 0.8990 0.8980 0.8980 0.8980 0.8980
4.513000 0.8960 0.8960 0.8960 0.8960 0.8960
4.546429 0.8960 0.8960 0.8960 0.8960 0.8960
4.579000 0.8960 0.8960 0.8940 0.8940 0.8940
4.612429 0.8940 0.8980 0.8980 0.8990 0.8990
4.646000 0.9010 0.9010 0.9010 0.9010 0.9010
4.679429 0.9010 0.9030 0.9030 0.9030 0.9030
4.713000 0.9030 0.9030 0.9030 0.9030 0.9010
4.746429 0.9010 0.9010 0.9010 0.9010 0.9010
4.780000 0.9010 0.9010 0.9010 0.9010 0.9030
4.813429 0.9030 0.9030 0.9030 0.9030 0.9030
4.847000 0.9040 0.9040 0.9040 0.9040 0.9040
4.880429 0.9040 0.9060 0.9060 0.9060 0.9080
4.914000 0.9080 0.9090 0.9090 0.9110 0.9110
4.947429 0.9110 0.9130 0.9130 0.9140 0.9140
4.980000 0.9140 0.9140 0.9140 0.9140 0.9140
5.013429 0.9160 0.9160 0.9160 0.9160 0.9160
5.047000 0.9160 0.9160 0.9160 0.9160 0.9160
5.080429 0.9160 0.9160 0.9160 0.9160 0.9160
5.114000 0.9160 0.9160 0.9160 0.9160 0.9140
5.147429 0.9140 0.9140 0.9140 0.9130 0.9130
5.181000 0.9130 0.9130 0.9130 0.9130 0.9130
5.214429 0.9130 0.9130 0.9130 0.9130 0.9110
5.248000 0.9110 0.9090 0.9090 0.9090 0.9080
5.281429 0.9080 0.9060 0.9040 0.9040 0.9030
5.315000 0.9010 0.9010 0.9010 0.9010 0.9040
5.348429 0.9040 0.9040 0.9040 0.9040 0.9040
5.381000 0.9040 0.9040 0.9030 0.9030 0.9030
5.414429 0.9030 0.9030 0.9030 0.9010 0.9010
5.448000 0.8990 0.8990 0.8980 0.8960 0.8960
5.481429 0.8940 0.8930 0.8930 0.8930 0.8910
5.515000 0.8880 0.8860 0.8860 0.8860 0.8860
5.548429 0.8840 0.8840 0.8830 0.8830 0.8810
5.582000 0.8790 0.8780 0.8760 0.8730 0.8710
5.615429 0.8690 0.8690 0.8690 0.8680 0.8680
5.649000 0.8660 0.8630 0.8610 0.8590 0.8560
5.682429 0.8540 0.8540 0.8510 0.8510 0.8490
5.716000 0.8480 0.8460 0.8460 0.8440 0.8410
5.749429 0.8390 0.8380 0.8340 0.8330 0.8290
5.782000 0.8240 0.8180 0.8160 0.8110 0.8060
5.815429 0.8010 0.7970 0.7910 0.7840 0.7770
5.849000 0.7670 0.7560 0.7470 0.7370 0.7210
5.882429 0.6970 0.6740 0.6570 0.6360 0.6160
5.916000 0.5990 0.5750 0.5700 0.5520 0.5450
5.949429 0.5350 0.5250 0.5120 0.5040 0.4920
5.983000 0.4820 0.4570 0.4440 0.4350 0.4220
6.016429 0.4150 0.4090 0.4000 0.3970 0.3900
6.050000 0.3870 0.3680 0.3470 0.3350 0.3180
6.083429 0.2970 0.2720 0.2470 0.2220 0.1980
6.116000 0.1750 0.1550 0.1380 0.1230 0.1130
6.149429 0.1130 0.1130 0.1130 0.1180 0.1330
6.183000 0.1430 0.1700 0.1860 0.2000 0.2150
6.216429 0.2300 0.2400 0.2480 0.2600 0.2720
6.250000 0.2880 0.3070 0.3580 0.3870 0.4200
6.283429 0.4520 0.4800 0.5020 0.5150 0.5420
6.317000 0.5590 0.5770 0.5970 0.6040 0.6160
6.350429 0.6240 0.6310 0.6370 0.6440 0.6510
6.384000 0.6610 0.6740 0.6910 0.7040 0.7120
6.417429 0.7170 0.7210 0.7210 0.7220 0.7220
6.451000 0.7290 0.7360 0.7460 0.7470 0.7510
6.484429 0.7520 0.7540 0.7540 0.7520 0.7520
6.517000 0.7520 0.7520 0.7520 0.7520 0.7570
6.550429 0.7620 0.7660 0.7690 0.7690 0.7690
6.584000 0.7690 0.7690 0.7690 0.7670 0.7660
6.617429 0.7640 0.7620 0.7610 0.7590 0.7560
6.651000 0.7510 0.7490 0.7440 0.7410 0.7410
6.684429 0.7390 0.7310 0.7260 0.7160 0.7010
6.718000 0.6940 0.6770 0.6570 0.6440 0.6210
6.751429 0.5900 0.5700 0.5450 0.5020 0.4720
6.785000 0.4290 0.3980 0.3750 0.3550 0.3320
6.818429 0.3180 0.3070 0.3030 0.3030 0.3050
6.852000 0.3080 0.3200 0.3350 0.3480 0.3650
6.885429 0.3780 0.3930 0.4000 0.4050 0.4140
6.918000 0.4220 0.4340 0.4450 0.4570 0.4690
6.951429 0.4870 0.4970 0.5120 0.5150 0.5150
6.985000 0.5140 0.5000 0.4840 0.4640 0.4420
7.018429 0.4220 0.4040 0.3850 0.3630 0.3380
7.052000 0.3070 0.2830 0.2820 0.2820 0.2830
7.085429 0.2900 0.3070 0.3220 0.3370 0.3520
7.119000 0.3630 0.3720 0.3730 0.3720 0.3700
7.152429 0.3650 0.3550 0.3420 0.3250 0.3120
7.186000 0.2970 0.2870 0.2620 0.2520 0.2420
7.219429 0.2230 0.2080 0.2050 0.2000 0.1960
7.253000 0.1960 0.1980 0.2050 0.2270 0.2450
7.286429 0.2650 0.2770 0.2870 0.2980 0.3150
7.319000 0.3280 0.3400 0.3520 0.3630 0.3700
7.352429 0.3720 0.3700 0.3630 0.3530 0.3480
7.386000 0.3400 0.3330 0.3180 0.3020 0.2930
7.419429 0.2930 0.2950 0.2980 0.3130 0.3250
7.453000 0.3450 0.3650 0.3830 0.4370 0.4820
7.486429 0.5220 0.5470 0.5640 0.5720 0.5820
7.520000 0.5920 0.5990 0.6070 0.6160 0.6270
7.553429 0.6370 0.6470 0.6590 0.6670 0.6760
7.587000 0.6820 0.6860 0.6890 0.6940 0.7010
7.620429 0.7140 0.7320 0.7390 0.7410 0.7440
7.653000 0.7440 0.7420 0.7420 0.7390 0.7370
7.686429 0.7370 0.7390 0.7410 0.7420 0.7420
7.720000 0.7440 0.7440 0.7440 0.7410 0.7370
7.753429 0.7260 0.7160 0.7060 0.6960 0.6910
7.787000 0.6890 0.6840 0.6770 0.6760 0.6760
7.820429 0.6770 0.6790 0.6820 0.6890 0.6960
7.854000 0.7040 0.7120 0.7190 0.7220 0.7270
7.887429 0.7310 0.7360 0.7390 0.7420 0.7420
7.921000 0.7460 0.7460 0.7460 0.7460 0.7440
7.954429 0.7420 0.7390 0.7370 0.7310 0.7260
7.988000 0.7260 0.7220 0.7160 0.7090 0.7040
8.021429 0.7020 0.7020 0.7040 0.7120 0.7140
8.054000 0.7210 0.7410 0.7510 0.7640 0.7710
8.087429 0.7770 0.7810 0.7860 0.7920 0.7990
8.121000 0.8010 0.8010 0.8010 0.8030 0.8030
8.154429 0.8030 0.8010 0.7970 0.7920 0.7810
8.188000 0.7790 0.7720 0.7620 0.7510 0.7410
8.221429 0.7370 0.7320 0.7320 0.7320 0.7320
8.255000 0.7360 0.7470 0.7560 0.7610 0.7660
8.288429 0.7710 0.7720 0.7760 0.7790 0.7820
8.322000 0.7870 0.7910 0.7960 0.8030 0.8060
8.355429 0.8110 0.8130 0.8140 0.8160 0.8180
8.389000 0.8190 0.8210 0.8230 0.8240 0.8260
8.422429 0.8280 0.8280 0.8280 0.8280 0.8280
8.455000 0.8260 0.8260 0.8260 0.8240 0.8240
8.488429 0.8240 0.8240 0.8240 0.8230 0.8230
8.522000 0.8230 0.8210 0.8210 0.8210 0.8210
8.555429 0.8210 0.8210 0.8210 0.8210 0.8230
8.589000 0.8240 0.8260 0.8260 0.8260 0.8260
8.622429 0.8260 0.8240 0.8240 0.8230 0.8210
8.656000 0.8210 0.8190 0.8190 0.8190 0.8190
8.689429 0.8190 0.8190 0.8190 0.8190 0.8190
8.723000 0.8190 0.8190 0.8190 0.8180 0.8180
8.756429 0.8140 0.8130 0.8110 0.8090 0.8060
8.789000 0.8030 0.7990 0.7960 0.7920 0.7870
8.822429 0.7820 0.7770 0.7710 0.7620 0.7540
8.856000 0.7460 0.7340 0.7160 0.7060 0.6940
8.889429 0.6810 0.6660 0.6490 0.6310 0.6090
8.923000 0.5850 0.5590 0.5290 0.4870 0.4550
8.956429 0.4340 0.4020 0.3800 0.3570 0.3320
8.990000 0.3200 0.3180 0.3220 0.3330 0.3530
9.023429 0.3800 0.4100 0.4440 0.4790 0.5140
9.057000 0.5640 0.5950 0.6170 0.6340 0.6540
9.090429 0.6790 0.6870 0.7010 0.7120 0.7210
9.124000 0.7290 0.7320 0.7540 0.7620 0.7640
9.157429 0.7690 0.7710 0.7720 0.7770 0.7770
9.190000 0.7790 0.7790 0.7790 0.7790 0.7790
9.223429 0.7790 0.7790 0.7740 0.7670 0.7560
9.257000 0.7490 0.7440 0.7310 0.7240 0.7060
9.290429 0.6940 0.6670 0.6410 0.6060 0.5970
9.324000 0.5770 0.5450 0.5140 0.4870 0.4600
9.357429 0.4250 0.4000 0.3800 0.3600 0.3470
9.391000 0.3430 0.3420 0.3420 0.3580 0.4190
9.424429 0.4650 0.4900 0.5250 0.5600 0.5900
9.458000 0.6190 0.6390 0.6470 0.6740 0.6910
9.491429 0.7040 0.7160 0.7270 0.7370 0.7470
9.525000 0.7540 0.7620 0.7690 0.7720 0.7810
9.558429 0.7820 0.7870 0.7910 0.7920 0.7940
9.591000 0.7970 0.7990 0.8040 0.8090 0.8090
9.624429 0.8130 0.8140 0.8160 0.8180 0.8190
9.658000 0.8190 0.8210 0.8210 0.8230 0.8230
9.691429 0.8240 0.8240 0.8260 0.8260 0.8290
9.725000 0.8290 0.8310 0.8340 0.8360 0.8380
9.758429 0.8390 0.8390 0.8410 0.8430 0.8430
9.792000 0.8440 0.8440 0.8440 0.8440 0.8440
9.825429 0.8430 0.8430 0.8410 0.8410 0.8410
9.859000 0.8410 0.8410 0.8410 0.8410 0.8410
9.892429 0.8410 0.8410 0.8410 0.8390 0.8390
9.926000 0.8380 0.8340 0.8310 0.8260 0.8190
9.959429 0.8160 0.8040 0.7940 0.7840 0.7740
9.992000 0.7660 0.7560 0.7440 0.7320 0.7210
10.025429 0.7040 0.6990 0.6990 0.6990 0.6990
10.059000 0.6990 0.7010 0.7140 0.7240 0.7310
10.092429 0.7440 0.7520 0.7590 0.7660 0.7720
10.126000 0.7760 0.7810 0.7890 0.7920 0.7960
10.159429 0.7990 0.8040 0.8110 0.8140 0.8190
10.193000 0.8190 0.8210 0.8230 0.8240 0.8240
10.226429 0.8260 0.8280 0.8280 0.8290 0.8310
10.260000 0.8310 0.8310 0.8310 0.8310 0.8310
10.293429 0.8330 0.8330 0.8330 0.8330 0.8330
10.326000 0.8330 0.8340 0.8340 0.8380 0.8390
10.359429 0.8410 0.8410 0.8410 0.8410 0.8410
10.393000 0.8390 0.8390 0.8390 0.8390 0.8390
10.426429 0.8410 0.8410 0.8430 0.8430 0.8430
10.460000 0.8430 0.8440 0.8440 0.8460 0.8460
10.493429 0.8480 0.8480 0.8480 0.8480 0.8460
10.527000 0.8460 0.8440 0.8440 0.8430 0.8430
10.560429 0.8430 0.8430 0.8430 0.8430 0.8430
10.594000 0.8430 0.8430 0.8430 0.8430 0.8430
10.627429 0.8430 0.8410 0.8390 0.8390 0.8360
10.661000 0.8330 0.8330 0.8310 0.8290 0.8280
10.694429 0.8260 0.8230 0.8190 0.8130 0.8080
10.727000 0.8040 0.8010 0.7940 0.7820 0.7720
10.760429 0.7560 0.7460 0.7360 0.7260 0.7160
10.794000 0.7020 0.6940 0.6620 0.6270 0.6110
10.827429 0.5950 0.5900 0.5720 0.5690 0.5690
10.861000 0.5690 0.5720 0.5920 0.6060 0.6270
10.894429 0.6460 0.6640 0.6770 0.6920 0.7090
10.928000 0.7310 0.7560 0.7620 0.7670 0.7720
10.961429 0.7790 0.7840 0.7910 0.7940 0.7990
10.995000 0.8030 0.8040 0.8080 0.8130 0.8160
11.028429 0.8190 0.8190 0.8210 0.8210 0.8230
11.062000 0.8230 0.8230 0.8230 0.8210 0.8210
11.095429 0.8190 0.8190 0.8190 0.8180 0.8180
11.128000 0.8160 0.8160 0.8140 0.8130 0.8060
11.161429 0.8060 0.8040 0.8030 0.8010 0.7970
11.195000 0.7940 0.7910 0.7840 0.7770 0.7690
11.228429 0.7570 0.7540 0.7460 0.7390 0.7360
11.262000 0.7260 0.7220 0.7160 0.7140 0.7140
11.295429 0.7160 0.7190 0.7260 0.7360 0.7460
11.329000 0.7560 0.7660 0.7760 0.7840 0.7890
11.362429 0.7960 0.8010 0.8090 0.8130 0.8180
11.396000 0.8190 0.8210 0.8260 0.8280 0.8280
11.429429 0.8290 0.8310 0.8330 0.8330 0.8330
11.463000 0.8330 0.8330 0.8340 0.8340 0.8340
11.496429 0.8340 0.8360 0.8360 0.8360 0.8360
11.529000 0.8360 0.8380 0.8380 0.8360 0.8340
11.562429 0.8340 0.8340 0.8340 0.8330 0.8330
11.596000 0.8310 0.8310 0.8310 0.8290 0.8280
11.629429 0.8280 0.8260 0.8260 0.8260 0.8260
11.663000 0.8260 0.8260 0.8260 0.8240 0.8230
11.696429 0.8190 0.8140 0.8110 0.8080 0.8060
11.730000 0.8040 0.8010 0.7970 0.7960 0.7890
11.763429 0.7860 0.7810 0.7790 0.7790 0.7790
11.797000 0.7790 0.7810 0.7820 0.7890 0.7920
11.830429 0.7960 0.7970 0.7970 0.7990 0.8010
11.863000 0.8030 0.8030 0.8040 0.8060 0.8060
11.896429 0.8080 0.8080 0.8080 0.8080 0.8080
11.930000 0.8080 0.8080 0.8080 0.8080 0.8080
11.963429 0.8090 0.8090 0.8110 0.8110 0.8110
11.997000 0.8110 0.8110 0.8110 0.8090 0.8080
12.030429 0.8080 0.8060 0.8040 0.8010 0.8010
12.064000 0.7990 0.7970 0.7960 0.7940 0.7920
12.097429 0.7920 0.7920 0.7920 0.7910 0.7910
12.131000 0.7910 0.7890 0.7870 0.7860 0.7840
12.164429 0.7840 0.7820 0.7810 0.7790 0.7770
12.198000 0.7770 0.7760 0.7740 0.7720 0.7710
12.231429 0.7710 0.7670 0.7660 0.7640 0.7620
12.264000 0.7620 0.7610 0.7570 0.7540 0.7540
12.297429 0.7520 0.7520 0.7520 0.7510 0.7490
12.331000 0.7460 0.7420 0.7390 0.7370 0.7340
12.364429 0.7320 0.7320 0.7310 0.7310 0.7310
12.398000 0.7310 0.7310 0.7310 0.7320 0.7320
12.431429 0.7340 0.7360 0.7360 0.7370 0.7460
12.465000 0.7470 0.7470 0.7490 0.7490 0.7490
12.498429 0.7490 0.7490 0.7490 0.7490 0.7490
12.532000 0.7470 0.7470 0.7470 0.7460 0.7420
12.565429 0.7410 0.7390 0.7360 0.7340 0.7310
12.599000 0.7290 0.7260 0.7240 0.7210 0.7170
12.632429 0.7110 0.7070 0.7070 0.7060 0.7060
12.665000 0.7040 0.7010 0.6990 0.6960 0.6920
12.698429 0.6910 0.6870 0.6820 0.6810 0.6790
12.732000 0.6760 0.6720 0.6710 0.6690 0.6660
12.765429 0.6620 0.6590 0.6560 0.6520 0.6510
12.799000 0.6490 0.6470 0.6440 0.6410 0.6370
12.832429 0.6320 0.6310 0.6260 0.6240 0.6220
12.866000 0.6210 0.6140 0.6120 0.6110 0.6090
12.899429 0.6070 0.6060 0.6040 0.6020 0.6010
12.933000 0.5970 0.5970 0.5950 0.5950 0.5940
12.966429 0.5920 0.5900 0.5900 0.5890 0.5870
13.000000 0.5870 0.5870 0.5870 0.5870 0.5870
13.033429 0.5870 0.5870 0.5870 0.5870 0.5890
13.066000 0.5900 0.5900 0.5900 0.5900 0.5920
13.099429 0.5940 0.5990 0.6010 0.6020 0.6020
13.133000 0.6020 0.6040 0.6040 0.6060 0.6060
13.166429 0.6070 0.6070 0.6070 0.6070 0.6070
13.200000 0.6070 0.6070 0.6070 0.6070 0.6070
13.233429 0.6070 0.6070 0.6070 0.6070 0.6070
13.267000 0.6090 0.6110 0.6110 0.6120 0.6140
13.300429 0.6140 0.6140 0.6140 0.6140 0.6120
13.334000 0.6120 0.6110 0.6110 0.6090 0.6090
13.367429 0.6070 0.6040 0.6040 0.6020 0.6020
13.400000 0.6020 0.6020 0.6010 0.5990 0.5950
13.433429 0.5920 0.5890 0.5890 0.5850 0.5840
13.467000 0.5820 0.5800 0.5800 0.5790 0.5750
13.500429 0.5740 0.5720 0.5720 0.5700 0.5690
13.534000 0.5650 0.5640 0.5600 0.5590 0.5550
13.567429 0.5540 0.5500 0.5490 0.5470 0.5450
13.601000 0.5440 0.5400 0.5370 0.5340 0.5300
13.634429 0.5290 0.5250 0.5240 0.5220 0.5200
13.668000 0.5190 0.5150 0.5100 0.5050 0.5050
13.701429 0.5000 0.4970 0.4940 0.4900 0.4890
13.735000 0.4870 0.4840 0.4820 0.4800 0.4770
13.768429 0.4720 0.4670 0.4640 0.4600 0.4570
13.801000 0.4550 0.4540 0.4500 0.4490 0.4470
13.834429 0.4450 0.4440 0.4420 0.4390 0.4390
13.868000 0.4370 0.4370 0.4370 0.4390 0.4400
13.901429 0.4420 0.4440 0.4450 0.4450 0.4490
13.935000 0.4550 0.4600 0.4640 0.4650 0.4650
13.968429 0.4690 0.4700 0.4720 0.4720 0.4740
14.002000 0.4770 0.4800 0.4870 0.4890 0.4900
14.035429 0.4900 0.4920 0.4940 0.4950 0.4970
14.069000 0.4970 0.4990 0.5000 0.5000 0.5020
14.102429 0.5040 0.5040 0.5050 0.5050 0.5050
14.136000 0.5070 0.5070 0.5070 0.5090 0.5090
14.169429 0.5100 0.5100 0.5100 0.5100 0.5100
14.202000 0.5100 0.5100 0.5100 0.5090 0.5090
14.235429 0.5090 0.5090 0.5100 0.5120 0.5120
14.269000 0.5120 0.5120 0.5100 0.5100 0.5100
14.302429 0.5090 0.5090 0.5090 0.5070 0.5070
14.336000 0.5070 0.5070 0.5090 0.5090 0.5090
14.369429 0.5090 0.5090 0.5090 0.5100 0.5100
14.403000 0.5090 0.5090 0.5090 0.5090 0.5070
14.436429 0.5070 0.5070 0.5050 0.5050 0.5050
14.470000 0.5050 0.5050 0.5050 0.5040 0.5040
14.503429 0.5040 0.5040 0.5040 0.5040 0.5040
14.537000 0.5040 0.5040 0.5040 0.5040 0.5020
14.570429 0.5020 0.5020 0.5020 0.5000 0.5000
14.603000 0.4990 0.4970 0.4950 0.4950 0.4950
14.636429 0.4950 0.4950 0.4950 0.4950 0.4970
14.670000 0.4970 0.4970 0.4970 0.4970 0.4970
14.703429 0.4970 0.4950 0.4950 0.4940 0.4920
14.737000 0.4900 0.4890 0.4870 0.4870 0.4850
14.770429 0.4850 0.4850 0.4850 0.4850 0.4840
14.804000 0.4840 0.4840 0.4800 0.4770 0.4770
14.837429 0.4750 0.4740 0.4740 0.4740 0.4740
14.871000 0.4720 0.4720 0.4720 0.4720 0.4700
14.904429 0.4700 0.4700 0.4690 0.4690 0.4670
14.937000 0.4670 0.4650 0.4650 0.4650 0.4640
14.970429 0.4640 0.4620 0.4590 0.4570 0.4550
15.004000 0.4550 0.4550 0.4540 0.4540 0.4540
15.037429 0.4500 0.4490 0.4490 0.4470 0.4470
15.071000 0.4470 0.4450 0.4440 0.4420 0.4400
15.104429 0.4370 0.4350 0.4350 0.4340 0.4340
15.138000 0.4300 0.4290 0.4270 0.4250 0.4240
15.171429 0.4220 0.4200 0.4200 0.4200 0.4200
15.205000 0.4200 0.4190 0.4190 0.4140 0.4120
15.238429 0.4100 0.4070 0.4050 0.4040 0.4020
15.272000 0.4020 0.4000 0.4000 0.3980 0.3980
15.305429 0.3970 0.3950 0.3930 0.3900 0.3870
15.338000 0.3800 0.3750 0.3720 0.3680 0.3650
15.371429 0.3620 0.3580 0.3570 0.3530 0.3500
15.405000 0.3480 0.3470 0.3400 0.3370 0.3320
15.438429 0.3280 0.3250 0.3220 0.3180 0.3150
15.472000 0.3120 0.3050 0.3050 0.3020 0.2970
15.505429 0.2920 0.2870 0.2850 0.2820 0.2800
15.539000 0.2770 0.2700 0.2680 0.2670 0.2630
15.572429 0.2620 0.2580 0.2570 0.2550 0.2520
15.606000 0.2500 0.2470 0.2470 0.2450 0.2430
15.639429 0.2420 0.2400 0.2400 0.2400 0.2400
15.673000 0.2400 0.2380 0.2380 0.2380 0.2370
15.706429 0.2370 0.2350 0.2350 0.2350 0.2350
15.739000 0.2350 0.2330 0.2330 0.2320 0.2320
15.772429 0.2320 0.2300 0.2280 0.2280 0.2280
15.806000 0.2280 0.2280 0.2280 0.2280 0.2280
15.839429 0.2280 0.2270 0.2270 0.2270 0.2270
15.873000 0.2270 0.2270 0.2280 0.2280 0.2300
15.906429 0.2300
##END=
