##TITLE=Aniline, 2-tert-butyl-N-Beta-cyanoethyl-
##JCAMP-DX=4.24
##DATA TYPE=INFRARED SPECTRUM
##CLASS=COBLENTZ III
##ORIGIN=MONSANTO (J. FREEMAN)
##OWNER=Copyright (C) 1987 by the Coblentz Society
Collection (C) 2018 copyright by the U.S. Secretary of Commerce
on behalf of the United States of America. All rights reserved.
##DATE=1959/04/15
##NAMES=3-(2-tert-butylanilino)propanenitrile
BENZENAMINE,2-Tert-BUTYL-N-2'-CYANOETHYL-
##MOLFORM=C13 H18 N2
##SOURCE REFERENCE=COBLENTZ NO. 9280
##$NIST ID=B6009280
##$NIST SOURCE=COBLENTZ
##$NIST IMAGE=cob9280
##SPECTROMETER/DATA SYSTEM=BECKMAN IR-4 (HYBRID PRISM-GRATING)
##INSTRUMENT PARAMETERS=NaCl PRISM
##STATE=SOLID (NUJOL MULL)
$$SPECTRAL CONTAMINATION DUE TO OIL AROUND 2900, 1450 CM^-^1
##SAMPLING PROCEDURE=TRANSMISSION
##RESOLUTION=2
##DATA PROCESSING=DIGITIZED BY COBLENTZ SOCIETY (BATCH II) FROM HARD COPY
##XUNITS=1/CM
##YUNITS=TRANSMITTANCE
##XFACTOR=1.0
##YFACTOR=1
##FIRSTX=626
##LASTX=4000
##FIRSTY=0.9293
##MAXX=4000
##MINX=626
##MAXY=1.0309
##MINY=0.0288
##NPOINTS=3375
##XYDATA=(X++(Y..Y))
626.000000 0.9293 0.9363 0.9434 0.9502 0.9552
631.000000 0.9595 0.9639 0.9681 0.9723 0.9762
636.000000 0.9800 0.9835 0.9865 0.9892 0.9914
641.000000 0.9934 0.9954 0.9974 0.9992 1.0009
646.000000 1.0026 1.0043 1.0058 1.0074 1.0090
651.000000 1.0100 1.0108 1.0117 1.0132 1.0160
656.000000 1.0192 1.0228 1.0268 1.0293 1.0309
661.000000 1.0295 1.0264 1.0242 1.0258 1.0283
666.000000 1.0300 1.0294 1.0272 1.0249 1.0225
671.000000 1.0200 1.0174 1.0149 1.0122 1.0096
676.000000 1.0069 1.0042 1.0015 0.9988 0.9962
681.000000 0.9936 0.9925 0.9922 0.9950 0.9988
686.000000 1.0030 1.0057 1.0081 1.0095 1.0095
691.000000 1.0094 1.0091 1.0078 1.0064 1.0049
696.000000 1.0032 1.0015 0.9998 0.9983 0.9968
701.000000 0.9952 0.9937 0.9918 0.9898 0.9879
706.000000 0.9859 0.9832 0.9804 0.9775 0.9730
711.000000 0.9684 0.9632 0.9575 0.9519 0.9464
716.000000 0.9409 0.9354 0.9290 0.9211 0.9150
721.000000 0.9104 0.9069 0.9046 0.9026 0.9009
726.000000 0.8993 0.8976 0.8928 0.8805 0.8654
731.000000 0.8508 0.8349 0.8180 0.7836 0.7479
736.000000 0.6949 0.6304 0.5901 0.5077 0.4365
741.000000 0.3655 0.2815 0.2399 0.2369 0.2401
746.000000 0.2918 0.3478 0.4037 0.4594 0.5149
751.000000 0.5703 0.6237 0.6635 0.6867 0.6922
756.000000 0.6907 0.6836 0.6824 0.6865 0.7061
761.000000 0.7347 0.7689 0.8005 0.8296 0.8549
766.000000 0.8719 0.8848 0.8921 0.8977 0.9030
771.000000 0.9076 0.9114 0.9150 0.9186 0.9220
776.000000 0.9254 0.9286 0.9316 0.9346 0.9374
781.000000 0.9400 0.9418 0.9434 0.9444 0.9453
786.000000 0.9463 0.9469 0.9473 0.9475 0.9475
791.000000 0.9474 0.9473 0.9470 0.9468 0.9483
796.000000 0.9513 0.9541 0.9568 0.9595 0.9627
801.000000 0.9650 0.9670 0.9691 0.9703 0.9701
806.000000 0.9699 0.9697 0.9695 0.9690 0.9686
811.000000 0.9681 0.9675 0.9664 0.9665 0.9667
816.000000 0.9668 0.9670 0.9685 0.9699 0.9712
821.000000 0.9720 0.9722 0.9715 0.9706 0.9698
826.000000 0.9685 0.9671 0.9644 0.9614 0.9583
831.000000 0.9538 0.9493 0.9459 0.9431 0.9421
836.000000 0.9427 0.9435 0.9453 0.9479 0.9488
841.000000 0.9491 0.9477 0.9466 0.9464 0.9465
846.000000 0.9470 0.9477 0.9485 0.9494 0.9506
851.000000 0.9518 0.9538 0.9560 0.9583 0.9610
856.000000 0.9637 0.9671 0.9702 0.9725 0.9726
861.000000 0.9726 0.9725 0.9725 0.9724 0.9722
866.000000 0.9719 0.9717 0.9715 0.9716 0.9716
871.000000 0.9716 0.9717 0.9717 0.9716 0.9714
876.000000 0.9711 0.9708 0.9706 0.9705 0.9700
881.000000 0.9698 0.9695 0.9693 0.9689 0.9684
886.000000 0.9679 0.9675 0.9670 0.9666 0.9661
891.000000 0.9656 0.9652 0.9647 0.9643 0.9639
896.000000 0.9639 0.9639 0.9640 0.9640 0.9636
901.000000 0.9631 0.9626 0.9622 0.9618 0.9615
906.000000 0.9612 0.9604 0.9580 0.9551 0.9519
911.000000 0.9479 0.9429 0.9369 0.9317 0.9272
916.000000 0.9240 0.9234 0.9238 0.9243 0.9236
921.000000 0.9197 0.9156 0.9124 0.9108 0.9107
926.000000 0.9122 0.9134 0.9138 0.9134 0.9114
931.000000 0.9093 0.9089 0.9107 0.9138 0.9179
936.000000 0.9211 0.9236 0.9250 0.9269 0.9305
941.000000 0.9334 0.9358 0.9372 0.9387 0.9400
946.000000 0.9408 0.9414 0.9414 0.9414 0.9404
951.000000 0.9393 0.9369 0.9348 0.9336 0.9340
956.000000 0.9362 0.9388 0.9410 0.9427 0.9435
961.000000 0.9440 0.9445 0.9415 0.9450 0.9447
966.000000 0.9443 0.9438 0.9433 0.9427 0.9421
971.000000 0.9415 0.9409 0.9402 0.9396 0.9392
976.000000 0.9387 0.9383 0.9379 0.9374 0.9370
981.000000 0.9364 0.9360 0.9355 0.9349 0.9342
986.000000 0.9334 0.9322 0.9305 0.9288 0.9265
991.000000 0.9216 0.9146 0.9033 0.8915 0.8815
996.000000 0.8733 0.8646 0.8603 0.8634 0.8646
1001.000000 0.8699 0.8821 0.8946 0.9083 0.9189
1006.000000 0.9254 0.9298 0.9324 0.9334 0.9335
1011.000000 0.9371 0.9310 0.9270 0.9202 0.9147
1016.000000 0.9079 0.9034 0.9011 0.9060 0.9157
1021.000000 0.9254 0.9320 0.9320 0.9309 0.9283
1026.000000 0.9232 0.9128 0.9024 0.8921 0.8818
1031.000000 0.8715 0.8612 0.8509 0.8416 0.8411
1036.000000 0.8420 0.8382 0.8571 0.8706 0.8934
1041.000000 0.9039 0.9100 0.9130 0.9133 0.9141
1046.000000 0.9116 0.9099 0.9078 0.9047 0.9001
1051.000000 0.8939 0.8819 0.8610 0.8278 0.7941
1056.000000 0.7603 0.7266 0.6931 0.6636 0.6649
1061.000000 0.6622 0.7480 0.7928 0.8560 0.8802
1066.000000 0.8871 0.8881 0.8861 0.8829 0.8794
1071.000000 0.8755 0.8709 0.8665 0.8655 0.8664
1076.000000 0.8691 0.8837 0.8928 0.9006 0.9090
1081.000000 0.9162 0.9208 0.9239 0.9253 0.9255
1086.000000 0.9267 0.9242 0.9229 0.9212 0.9187
1091.000000 0.9158 0.9130 0.9098 0.9041 0.8965
1096.000000 0.8856 0.8729 0.8562 0.8404 0.8211
1101.000000 0.8010 0.7887 0.7763 0.7546 0.7255
1106.000000 0.6965 0.6675 0.6386 0.6097 0.6031
1111.000000 0.5997 0.7709 0.8221 0.8461 0.8732
1116.000000 0.8924 0.9047 0.9119 0.9179 0.9218
1121.000000 0.9255 0.9279 0.9297 0.9303 0.9307
1126.000000 0.9338 0.9301 0.9288 0.9269 0.9236
1131.000000 0.9197 0.9155 0.9113 0.9043 0.8940
1136.000000 0.8775 0.8572 0.8380 0.8178 0.7976
1141.000000 0.7773 0.7571 0.7370 0.7251 0.7252
1146.000000 0.7398 0.7258 0.7954 0.8200 0.8355
1151.000000 0.8432 0.8600 0.8738 0.8827 0.8906
1156.000000 0.8978 0.9028 0.9066 0.9087 0.9100
1161.000000 0.9114 0.9107 0.9095 0.9080 0.9047
1166.000000 0.8984 0.8877 0.8788 0.8707 0.8677
1171.000000 0.8675 0.8700 0.8650 0.8822 0.8879
1176.000000 0.8927 0.8966 0.8996 0.9012 0.9019
1181.000000 0.9028 0.9005 0.8988 0.8957 0.8929
1186.000000 0.8904 0.8857 0.8787 0.8657 0.8455
1191.000000 0.8319 0.8170 0.8075 0.7990 0.7894
1196.000000 0.7795 0.7720 0.7663 0.7622 0.7601
1201.000000 0.7583 0.7569 0.7568 0.7567 0.7569
1206.000000 0.7581 0.7734 0.7556 0.8097 0.8216
1211.000000 0.8359 0.8552 0.8690 0.8733 0.8772
1216.000000 0.8793 0.8812 0.8824 0.8811 0.8826
1221.000000 0.8816 0.8803 0.8789 0.8771 0.8744
1226.000000 0.8715 0.8685 0.8655 0.8616 0.8573
1231.000000 0.8522 0.8472 0.8421 0.8352 0.8267
1236.000000 0.8150 0.7983 0.7817 0.7650 0.7484
1241.000000 0.7318 0.7151 0.6986 0.6858 0.6778
1246.000000 0.6687 0.6599 0.6519 0.6445 0.6397
1251.000000 0.6353 0.6309 0.6259 0.6193 0.6126
1256.000000 0.5891 0.5654 0.5417 0.5180 0.4945
1261.000000 0.4709 0.4473 0.4325 0.4318 0.4327
1266.000000 0.4543 0.5013 0.5481 0.5949 0.6416
1271.000000 0.6972 0.7224 0.7298 0.7362 0.7426
1276.000000 0.7489 0.7553 0.7616 0.7672 0.7686
1281.000000 0.7680 0.7603 0.7375 0.7142 0.6909
1286.000000 0.6676 0.6445 0.6214 0.5982 0.5752
1291.000000 0.5685 0.5675 0.5697 0.5898 0.6063
1296.000000 0.6228 0.6363 0.6396 0.6314 0.6049
1301.000000 0.5763 0.5477 0.5282 0.5282 0.5422
1306.000000 0.5271 0.5792 0.5975 0.6159 0.6342
1311.000000 0.6520 0.6537 0.6528 0.6515 0.6494
1316.000000 0.6460 0.6426 0.6411 0.6409 0.6474
1321.000000 0.6599 0.6724 0.6755 0.6676 0.6737
1326.000000 0.6367 0.6211 0.6056 0.5901 0.5746
1331.000000 0.5591 0.5504 0.5522 0.5578 0.6458
1336.000000 0.7404 0.8367 0.8420 0.8451 0.8478
1341.000000 0.8497 0.8515 0.8525 0.8531 0.8537
1346.000000 0.8542 0.8559 0.8547 0.8546 0.8545
1351.000000 0.8543 0.8538 0.8531 0.8525 0.8518
1356.000000 0.8510 0.8502 0.8492 0.8481 0.8471
1361.000000 0.8451 0.8424 0.8388 0.8348 0.8305
1366.000000 0.8255 0.8202 0.8109 0.7987 0.7795
1371.000000 0.7392 0.6989 0.6588 0.6187 0.5786
1376.000000 0.5385 0.4986 0.4587 0.4189 0.3792
1381.000000 0.3553 0.3528 0.3935 0.4245 0.4554
1386.000000 0.4862 0.5171 0.5478 0.5786 0.6093
1391.000000 0.6398 0.6704 0.7010 0.7315 0.7587
1396.000000 0.7610 0.7610 0.7507 0.7317 0.7161
1401.000000 0.7142 0.7257 0.7439 0.7621 0.7803
1406.000000 0.7985 0.8157 0.8213 0.8230 0.8229
1411.000000 0.8222 0.8148 0.7958 0.7757 0.7556
1416.000000 0.7355 0.7154 0.6954 0.6754 0.6554
1421.000000 0.6424 0.6378 0.6344 0.6334 0.6330
1426.000000 0.6365 0.6438 0.6513 0.6589 0.6664
1431.000000 0.6740 0.6764 0.6768 0.6772 0.6589
1436.000000 0.6178 0.5745 0.5313 0.4882 0.4450
1441.000000 0.4039 0.3843 0.3655 0.3538 0.3421
1446.000000 0.3304 0.3195 0.3146 0.3148 0.3169
1451.000000 0.3217 0.3268 0.3319 0.3370 0.3397
1456.000000 0.3392 0.3338 0.3207 0.3076 0.2945
1461.000000 0.2815 0.2684 0.2554 0.2424 0.2294
1466.000000 0.2236 0.2302 0.2453 0.2614 0.2774
1471.000000 0.2934 0.3093 0.3253 0.3412 0.3571
1476.000000 0.3730 0.3889 0.4042 0.4103 0.4107
1481.000000 0.4061 0.3990 0.3917 0.3846 0.3774
1486.000000 0.3728 0.3727 0.3889 0.4137 0.4390
1491.000000 0.4642 0.4893 0.5145 0.5396 0.5647
1496.000000 0.5897 0.6147 0.6292 0.6274 0.6276
1501.000000 0.6179 0.5904 0.5596 0.5289 0.4982
1506.000000 0.4676 0.4377 0.4182 0.4111 0.4014
1511.000000 0.3867 0.3647 0.3401 0.3157 0.2912
1516.000000 0.2698 0.2677 0.2699 0.2814 0.3031
1521.000000 0.3248 0.3465 0.3682 0.3898 0.4160
1526.000000 0.4369 0.4498 0.4592 0.4695 0.4805
1531.000000 0.5113 0.5422 0.5635 0.5847 0.6059
1536.000000 0.6271 0.6482 0.6694 0.6905 0.7116
1541.000000 0.7327 0.7537 0.7747 0.8101 0.8254
1546.000000 0.8361 0.8450 0.8537 0.8616 0.8685
1551.000000 0.8724 0.8760 0.8786 0.8801 0.8816
1556.000000 0.8824 0.8834 0.8829 0.8828 0.8827
1561.000000 0.8822 0.8807 0.8787 0.8752 0.8658
1566.000000 0.8562 0.8499 0.8266 0.8054 0.7948
1571.000000 0.7767 0.7417 0.7004 0.6591 0.6179
1576.000000 0.5767 0.5355 0.4991 0.4908 0.4955
1581.000000 0.5160 0.5411 0.5662 0.5913 0.6164
1586.000000 0.6415 0.6665 0.6915 0.7164 0.7413
1591.000000 0.7652 0.7734 0.7737 0.7569 0.7255
1596.000000 0.6913 0.6570 0.6228 0.5887 0.5546
1601.000000 0.5205 0.4865 0.4663 0.4663 0.4661
1606.000000 0.5172 0.5527 0.5881 0.6234 0.6588
1611.000000 0.6940 0.7293 0.7645 0.7988 0.8179
1616.000000 0.8231 0.8466 0.8622 0.8724 0.8815
1621.000000 0.8901 0.8961 0.9012 0.9061 0.9107
1626.000000 0.9148 0.9180 0.9202 0.9222 0.9237
1631.000000 0.9247 0.9257 0.9267 0.9276 0.9281
1636.000000 0.9288 0.9293 0.9299 0.9305 0.9309
1641.000000 0.9312 0.9313 0.9314 0.9316 0.9317
1646.000000 0.9319 0.9321 0.9320 0.9320 0.9319
1651.000000 0.9318 0.9316 0.9314 0.9311 0.9306
1656.000000 0.9301 0.9296 0.9291 0.9286 0.9281
1661.000000 0.9276 0.9272 0.9268 0.9265 0.9262
1666.000000 0.9259 0.9255 0.9252 0.9250 0.9250
1671.000000 0.9252 0.9255 0.9258 0.9263 0.9271
1676.000000 0.9280 0.9289 0.9297 0.9306 0.9315
1681.000000 0.9325 0.9335 0.9345 0.9355 0.9362
1686.000000 0.9364 0.9366 0.9368 0.9370 0.9372
1691.000000 0.9373 0.9374 0.9375 0.9375 0.9376
1696.000000 0.9376 0.9376 0.9377 0.9378 0.9379
1701.000000 0.9380 0.9381 0.9381 0.9382 0.9383
1706.000000 0.9384 0.9385 0.9387 0.9389 0.9386
1711.000000 0.9392 0.9395 0.9397 0.9398 0.9400
1716.000000 0.9402 0.9403 0.9404 0.9406 0.9408
1721.000000 0.9409 0.9408 0.9407 0.9407 0.9406
1726.000000 0.9405 0.9405 0.9404 0.9403 0.9403
1731.000000 0.9402 0.9401 0.9401 0.9400 0.9399
1736.000000 0.9396 0.9392 0.9387 0.9382 0.9377
1741.000000 0.9373 0.9367 0.9361 0.9354 0.9347
1746.000000 0.9340 0.9334 0.9327 0.9321 0.9314
1751.000000 0.9306 0.9299 0.9291 0.9283 0.9276
1756.000000 0.9268 0.9260 0.9253 0.9245 0.9237
1761.000000 0.9228 0.9219 0.9217 0.9220 0.9223
1766.000000 0.9227 0.9231 0.9235 0.9239 0.9241
1771.000000 0.9242 0.9243 0.9244 0.9245 0.9245
1776.000000 0.9242 0.9236 0.9230 0.9224 0.9217
1781.000000 0.9210 0.9203 0.9195 0.9188 0.9180
1786.000000 0.9172 0.9165 0.9158 0.9150 0.9144
1791.000000 0.9139 0.9135 0.9131 0.9127 0.9123
1796.000000 0.9119 0.9116 0.9112 0.9108 0.9105
1801.000000 0.9104 0.9102 0.9100 0.9098 0.9097
1806.000000 0.9095 0.9094 0.9092 0.9090 0.9089
1811.000000 0.9087 0.9085 0.9083 0.9082 0.9080
1816.000000 0.9078 0.9076 0.9075 0.9073 0.9071
1821.000000 0.9069 0.9066 0.9063 0.9060 0.9056
1826.000000 0.9050 0.9043 0.9035 0.9027 0.9019
1831.000000 0.9011 0.9002 0.8994 0.8983 0.8973
1836.000000 0.8963 0.8952 0.8942 0.8932 0.8921
1841.000000 0.8911 0.8906 0.8902 0.8898 0.8895
1846.000000 0.8891 0.8889 0.8889 0.8889 0.8889
1851.000000 0.8890 0.8891 0.8891 0.8892 0.8892
1856.000000 0.8892 0.8892 0.8891 0.8889 0.8885
1861.000000 0.8881 0.8877 0.8873 0.8869 0.8865
1866.000000 0.8861 0.8857 0.8848 0.8838 0.8828
1871.000000 0.8819 0.8809 0.8799 0.8790 0.8779
1876.000000 0.8766 0.8753 0.8739 0.8740 0.8748
1881.000000 0.8757 0.8765 0.8775 0.8788 0.8801
1886.000000 0.8810 0.8817 0.8825 0.8832 0.8838
1891.000000 0.8844 0.8849 0.8851 0.8849 0.8849
1896.000000 0.8845 0.8839 0.8833 0.8827 0.8821
1901.000000 0.8814 0.8809 0.8803 0.8797 0.8787
1906.000000 0.8772 0.8754 0.8732 0.8707 0.8683
1911.000000 0.8680 0.8680 0.8682 0.8682 0.8684
1916.000000 0.8691 0.8711 0.8741 0.8777 0.8819
1921.000000 0.8840 0.8854 0.8862 0.8869 0.8875
1926.000000 0.8877 0.8881 0.8884 0.8886 0.8889
1931.000000 0.8891 0.8891 0.8891 0.8891 0.8892
1936.000000 0.8892 0.8891 0.8890 0.8889 0.8888
1941.000000 0.8886 0.8885 0.8884 0.8883 0.8881
1946.000000 0.8880 0.8879 0.8877 0.8876 0.8874
1951.000000 0.8872 0.8871 0.8870 0.8868 0.8866
1956.000000 0.8864 0.8862 0.8860 0.8858 0.8856
1961.000000 0.8854 0.8853 0.8851 0.8849 0.8847
1966.000000 0.8845 0.8843 0.8841 0.8840 0.8838
1971.000000 0.8836 0.8834 0.8832 0.8830 0.8828
1976.000000 0.8825 0.8823 0.8820 0.8818 0.8815
1981.000000 0.8813 0.8811 0.8808 0.8806 0.8804
1986.000000 0.8802 0.8799 0.8797 0.8794 0.8792
1991.000000 0.8789 0.8788 0.8785 0.8783 0.8780
1996.000000 0.8778 0.8776 0.8774 0.8771 0.8769
2001.000000 0.8766 0.8764 0.8762 0.8760 0.8757
2006.000000 0.8755 0.8752 0.8751 0.8748 0.8746
2011.000000 0.8743 0.8741 0.8738 0.8736 0.8734
2016.000000 0.8732 0.8729 0.8727 0.8725 0.8723
2021.000000 0.8721 0.8718 0.8716 0.8713 0.8711
2026.000000 0.8709 0.8707 0.8704 0.8702 0.8700
2031.000000 0.8697 0.8695 0.8692 0.8690 0.8688
2036.000000 0.8686 0.8684 0.8681 0.8679 0.8676
2041.000000 0.8674 0.8672 0.8669 0.8667 0.8664
2046.000000 0.8662 0.8660 0.8657 0.8655 0.8653
2051.000000 0.8650 0.8648 0.8646 0.8644 0.8642
2056.000000 0.8639 0.8637 0.8635 0.8632 0.8630
2061.000000 0.8628 0.8626 0.8624 0.8622 0.8620
2066.000000 0.8618 0.8616 0.8614 0.8612 0.8611
2071.000000 0.8609 0.8607 0.8605 0.8603 0.8601
2076.000000 0.8599 0.8597 0.8596 0.8594 0.8592
2081.000000 0.8590 0.8588 0.8586 0.8584 0.8583
2086.000000 0.8581 0.8579 0.8576 0.8573 0.8571
2091.000000 0.8569 0.8567 0.8564 0.8561 0.8559
2096.000000 0.8556 0.8554 0.8552 0.8550 0.8547
2101.000000 0.8544 0.8542 0.8540 0.8537 0.8535
2106.000000 0.8533 0.8530 0.8527 0.8524 0.8521
2111.000000 0.8518 0.8515 0.8512 0.8509 0.8506
2116.000000 0.8503 0.8500 0.8497 0.8494 0.8491
2121.000000 0.8488 0.8485 0.8482 0.8480 0.8476
2126.000000 0.8473 0.8470 0.8468 0.8465 0.8462
2131.000000 0.8458 0.8456 0.8453 0.8450 0.8447
2136.000000 0.8444 0.8441 0.8438 0.8435 0.8432
2141.000000 0.8429 0.8426 0.8423 0.8420 0.8417
2146.000000 0.8414 0.8411 0.8408 0.8405 0.8402
2151.000000 0.8399 0.8396 0.8393 0.8390 0.8387
2156.000000 0.8384 0.8381 0.8378 0.8375 0.8372
2161.000000 0.8369 0.8366 0.8363 0.8360 0.8357
2166.000000 0.8355 0.8351 0.8347 0.8341 0.8335
2171.000000 0.8329 0.8324 0.8318 0.8312 0.8306
2176.000000 0.8300 0.8295 0.8289 0.8283 0.8277
2181.000000 0.8272 0.8267 0.8261 0.8255 0.8250
2186.000000 0.8245 0.8239 0.8233 0.8228 0.8223
2191.000000 0.8218 0.8213 0.8208 0.8204 0.8199
2196.000000 0.8194 0.8190 0.8185 0.8181 0.8176
2201.000000 0.8172 0.8169 0.8165 0.8162 0.8158
2206.000000 0.8154 0.8151 0.8147 0.8144 0.8140
2211.000000 0.8135 0.8128 0.8122 0.8116 0.8110
2216.000000 0.8103 0.8096 0.8088 0.8076 0.8063
2221.000000 0.8050 0.8037 0.8017 0.7995 0.7926
2226.000000 0.7845 0.7756 0.7664 0.7573 0.7482
2231.000000 0.7391 0.7300 0.7210 0.7119 0.7028
2236.000000 0.6938 0.6847 0.6757 0.6667 0.6576
2241.000000 0.6486 0.6396 0.6380 0.6377 0.6381
2246.000000 0.6382 0.6448 0.6528 0.6637 0.6753
2251.000000 0.6869 0.6984 0.7100 0.7216 0.7331
2256.000000 0.7447 0.7562 0.7677 0.7793 0.7908
2261.000000 0.8022 0.8135 0.8200 0.8227 0.8245
2266.000000 0.8255 0.8265 0.8276 0.8286 0.8295
2271.000000 0.8302 0.8303 0.8305 0.8306 0.8308
2276.000000 0.8309 0.8311 0.8311 0.8287 0.8309
2281.000000 0.8308 0.8306 0.8304 0.8302 0.8301
2286.000000 0.8299 0.8297 0.8295 0.8293 0.8291
2291.000000 0.8289 0.8287 0.8285 0.8283 0.8281
2296.000000 0.8279 0.8276 0.8274 0.8271 0.8268
2301.000000 0.8265 0.8262 0.8258 0.8255 0.8252
2306.000000 0.8248 0.8245 0.8242 0.8239 0.8235
2311.000000 0.8232 0.8229 0.8225 0.8222 0.8219
2316.000000 0.8216 0.8212 0.8210 0.8207 0.8204
2321.000000 0.8200 0.8197 0.8194 0.8191 0.8187
2326.000000 0.8184 0.8182 0.8179 0.8176 0.8173
2331.000000 0.8171 0.8169 0.8166 0.8164 0.8161
2336.000000 0.8159 0.8156 0.8154 0.8152 0.8149
2341.000000 0.8147 0.8144 0.8142 0.8139 0.8137
2346.000000 0.8135 0.8132 0.8130 0.8127 0.8125
2351.000000 0.8122 0.8120 0.8118 0.8116 0.8113
2356.000000 0.8110 0.8108 0.8106 0.8103 0.8101
2361.000000 0.8099 0.8096 0.8093 0.8092 0.8090
2366.000000 0.8088 0.8087 0.8085 0.8084 0.8082
2371.000000 0.8081 0.8079 0.8078 0.8076 0.8074
2376.000000 0.8073 0.8071 0.8070 0.8068 0.8067
2381.000000 0.8065 0.8064 0.8062 0.8060 0.8058
2386.000000 0.8057 0.8056 0.8054 0.8052 0.8051
2391.000000 0.8049 0.8048 0.8046 0.8045 0.8043
2396.000000 0.8041 0.8038 0.8037 0.8035 0.8033
2401.000000 0.8031 0.8029 0.8027 0.8025 0.8024
2406.000000 0.8022 0.8020 0.8018 0.8016 0.8014
2411.000000 0.8012 0.8010 0.8008 0.8006 0.8004
2416.000000 0.8003 0.8001 0.7999 0.7997 0.7995
2421.000000 0.7993 0.7991 0.7989 0.7987 0.7985
2426.000000 0.7984 0.7982 0.7980 0.7978 0.7977
2431.000000 0.7974 0.7972 0.7971 0.7969 0.7967
2436.000000 0.7965 0.7963 0.7960 0.7958 0.7955
2441.000000 0.7953 0.7951 0.7948 0.7946 0.7944
2446.000000 0.7942 0.7939 0.7937 0.7935 0.7933
2451.000000 0.7930 0.7928 0.7925 0.7923 0.7920
2456.000000 0.7918 0.7916 0.7914 0.7912 0.7909
2461.000000 0.7907 0.7905 0.7903 0.7900 0.7898
2466.000000 0.7895 0.7893 0.7891 0.7889 0.7886
2471.000000 0.7884 0.7882 0.7880 0.7878 0.7875
2476.000000 0.7873 0.7870 0.7868 0.7866 0.7864
2481.000000 0.7861 0.7859 0.7857 0.7855 0.7853
2486.000000 0.7850 0.7848 0.7845 0.7843 0.7841
2491.000000 0.7837 0.7834 0.7831 0.7828 0.7826
2496.000000 0.7823 0.7820 0.7817 0.7814 0.7812
2501.000000 0.7809 0.7806 0.7803 0.7800 0.7797
2506.000000 0.7794 0.7791 0.7788 0.7785 0.7783
2511.000000 0.7780 0.7777 0.7774 0.7772 0.7769
2516.000000 0.7766 0.7762 0.7759 0.7757 0.7754
2521.000000 0.7751 0.7748 0.7746 0.7743 0.7740
2526.000000 0.7737 0.7735 0.7732 0.7729 0.7726
2531.000000 0.7723 0.7720 0.7717 0.7715 0.7712
2536.000000 0.7709 0.7706 0.7704 0.7701 0.7698
2541.000000 0.7695 0.7692 0.7689 0.7686 0.7683
2546.000000 0.7680 0.7676 0.7673 0.7670 0.7667
2551.000000 0.7664 0.7660 0.7657 0.7654 0.7651
2556.000000 0.7647 0.7644 0.7641 0.7638 0.7635
2561.000000 0.7632 0.7629 0.7625 0.7622 0.7619
2566.000000 0.7616 0.7613 0.7610 0.7607 0.7604
2571.000000 0.7601 0.7598 0.7594 0.7591 0.7587
2576.000000 0.7584 0.7581 0.7578 0.7575 0.7572
2581.000000 0.7569 0.7566 0.7562 0.7559 0.7556
2586.000000 0.7553 0.7550 0.7547 0.7544 0.7542
2591.000000 0.7539 0.7536 0.7533 0.7531 0.7528
2596.000000 0.7526 0.7523 0.7520 0.7517 0.7514
2601.000000 0.7512 0.7509 0.7507 0.7504 0.7501
2606.000000 0.7498 0.7495 0.7493 0.7490 0.7487
2611.000000 0.7485 0.7482 0.7480 0.7477 0.7474
2616.000000 0.7471 0.7469 0.7466 0.7463 0.7461
2621.000000 0.7458 0.7456 0.7453 0.7451 0.7448
2626.000000 0.7446 0.7443 0.7441 0.7438 0.7435
2631.000000 0.7433 0.7430 0.7428 0.7425 0.7423
2636.000000 0.7420 0.7418 0.7415 0.7413 0.7410
2641.000000 0.7408 0.7405 0.7403 0.7401 0.7399
2646.000000 0.7397 0.7395 0.7393 0.7391 0.7389
2651.000000 0.7387 0.7385 0.7383 0.7381 0.7380
2656.000000 0.7378 0.7376 0.7374 0.7373 0.7371
2661.000000 0.7368 0.7366 0.7364 0.7363 0.7361
2666.000000 0.7359 0.7357 0.7356 0.7354 0.7351
2671.000000 0.7349 0.7348 0.7346 0.7344 0.7342
2676.000000 0.7340 0.7338 0.7336 0.7334 0.7332
2681.000000 0.7330 0.7328 0.7326 0.7324 0.7322
2686.000000 0.7320 0.7318 0.7316 0.7314 0.7312
2691.000000 0.7311 0.7309 0.7306 0.7304 0.7303
2696.000000 0.7301 0.7299 0.7298 0.7297 0.7295
2701.000000 0.7293 0.7292 0.7290 0.7289 0.7287
2706.000000 0.7286 0.7284 0.7282 0.7281 0.7280
2711.000000 0.7278 0.7277 0.7275 0.7273 0.7272
2716.000000 0.7270 0.7269 0.7267 0.7266 0.7264
2721.000000 0.7263 0.7261 0.7260 0.7259 0.7257
2726.000000 0.7256 0.7255 0.7253 0.7252 0.7251
2731.000000 0.7250 0.7249 0.7247 0.7246 0.7245
2736.000000 0.7244 0.7243 0.7242 0.7240 0.7239
2741.000000 0.7238 0.7237 0.7236 0.7236 0.7235
2746.000000 0.7234 0.7234 0.7233 0.7232 0.7232
2751.000000 0.7231 0.7230 0.7230 0.7229 0.7228
2756.000000 0.7227 0.7226 0.7225 0.7225 0.7224
2761.000000 0.7223 0.7223 0.7222 0.7221 0.7221
2766.000000 0.7220 0.7220 0.7220 0.7219 0.7219
2771.000000 0.7219 0.7219 0.7219 0.7219 0.7218
2776.000000 0.7218 0.7218 0.7218 0.7218 0.7218
2781.000000 0.7217 0.7217 0.7217 0.7216 0.7199
2786.000000 0.7182 0.7166 0.7147 0.7129 0.7111
2791.000000 0.7093 0.7075 0.7058 0.7038 0.7017
2796.000000 0.6995 0.6970 0.6943 0.6915 0.6886
2801.000000 0.6857 0.6827 0.6797 0.6767 0.6736
2806.000000 0.6705 0.6674 0.6642 0.6610 0.6576
2811.000000 0.6542 0.6508 0.6470 0.6432 0.6394
2816.000000 0.6353 0.6310 0.6268 0.6225 0.6180
2821.000000 0.6135 0.6080 0.6004 0.5929 0.5852
2826.000000 0.5767 0.5681 0.5595 0.5561 0.5530
2831.000000 0.5499 0.5473 0.5448 0.5422 0.5398
2836.000000 0.5374 0.5350 0.5328 0.5311 0.5293
2841.000000 0.5276 0.5262 0.5247 0.5233 0.5218
2846.000000 0.5204 0.5189 0.5175 0.5161 0.5147
2851.000000 0.4703 0.3537 0.2371 0.1344 0.1345
2856.000000 0.1347 0.1348 0.1350 0.1351 0.1353
2861.000000 0.1354 0.1355 0.1356 0.1357 0.1357
2866.000000 0.1357 0.1358 0.1358 0.1358 0.1358
2871.000000 0.1358 0.1358 0.1358 0.1357 0.1357
2876.000000 0.1356 0.1355 0.1351 0.1347 0.1342
2881.000000 0.1314 0.1281 0.1247 0.1213 0.1179
2886.000000 0.1144 0.1110 0.1076 0.1042 0.1007
2891.000000 0.0973 0.0939 0.0904 0.0870 0.0836
2896.000000 0.0801 0.0767 0.0733 0.0699 0.0664
2901.000000 0.0631 0.0597 0.0563 0.0529 0.0495
2906.000000 0.0461 0.0427 0.0404 0.0381 0.0358
2911.000000 0.0345 0.0339 0.0332 0.0326 0.0318
2916.000000 0.0310 0.0303 0.0300 0.0298 0.0296
2921.000000 0.0295 0.0294 0.0293 0.0291 0.0290
2926.000000 0.0289 0.0288 0.0289 0.0292 0.0294
2931.000000 0.0301 0.0325 0.0349 0.0374 0.0427
2936.000000 0.0491 0.0555 0.0619 0.0683 0.0747
2941.000000 0.0811 0.0875 0.0939 0.1003 0.1066
2946.000000 0.1130 0.1194 0.1257 0.1321 0.1384
2951.000000 0.1448 0.1511 0.1575 0.1638 0.1701
2956.000000 0.1764 0.1828 0.1891 0.1954 0.2017
2961.000000 0.2079 0.2142 0.2205 0.2268 0.2331
2966.000000 0.2394 0.2456 0.2519 0.2582 0.2645
2971.000000 0.2707 0.2770 0.2832 0.2895 0.2957
2976.000000 0.3020 0.3082 0.3144 0.3207 0.3269
2981.000000 0.3331 0.3393 0.3455 0.3517 0.3579
2986.000000 0.3641 0.3703 0.3765 0.3826 0.3888
2991.000000 0.3950 0.4011 0.4073 0.4135 0.4196
2996.000000 0.4258 0.4319 0.4381 0.4442 0.4504
3001.000000 0.4565 0.4624 0.4682 0.4740 0.4795
3006.000000 0.4837 0.4880 0.4922 0.4962 0.4999
3011.000000 0.5036 0.5074 0.5097 0.5120 0.5143
3016.000000 0.5164 0.5181 0.5198 0.5215 0.5225
3021.000000 0.5232 0.5240 0.5247 0.5254 0.5260
3026.000000 0.5267 0.5274 0.5281 0.5288 0.5294
3031.000000 0.5299 0.5302 0.5305 0.5309 0.5312
3036.000000 0.5315 0.5318 0.5320 0.5323 0.5325
3041.000000 0.5328 0.5329 0.5329 0.5329 0.5329
3046.000000 0.5329 0.5329 0.5329 0.5329 0.5329
3051.000000 0.5329 0.5329 0.5329 0.5329 0.5329
3056.000000 0.5329 0.5329 0.5329 0.5329 0.5330
3061.000000 0.5330 0.5331 0.5332 0.5333 0.5334
3066.000000 0.5335 0.5336 0.5337 0.5338 0.5339
3071.000000 0.5339 0.5343 0.5347 0.5352 0.5356
3076.000000 0.5363 0.5370 0.5377 0.5384 0.5392
3081.000000 0.5401 0.5409 0.5424 0.5448 0.5473
3086.000000 0.5497 0.5528 0.5564 0.5600 0.5636
3091.000000 0.5669 0.5700 0.5732 0.5764 0.5790
3096.000000 0.5816 0.5842 0.5867 0.5882 0.5896
3101.000000 0.5911 0.5923 0.5929 0.5936 0.5942
3106.000000 0.5948 0.5954 0.5960 0.5966 0.5971
3111.000000 0.5977 0.5982 0.5988 0.5992 0.5996
3116.000000 0.5999 0.6003 0.6006 0.6009 0.6013
3121.000000 0.6016 0.6019 0.6021 0.6023 0.6026
3126.000000 0.6027 0.6029 0.6030 0.6032 0.6033
3131.000000 0.6035 0.6036 0.6038 0.6039 0.6040
3136.000000 0.6042 0.6043 0.6044 0.6046 0.6047
3141.000000 0.6049 0.6049 0.6050 0.6050 0.6051
3146.000000 0.6052 0.6052 0.6053 0.6054 0.6054
3151.000000 0.6055 0.6055 0.6056 0.6057 0.6057
3156.000000 0.6058 0.6059 0.6059 0.6059 0.6059
3161.000000 0.6058 0.6058 0.6057 0.6057 0.6056
3166.000000 0.6056 0.6055 0.6055 0.6054 0.6054
3171.000000 0.6053 0.6053 0.6052 0.6052 0.6051
3176.000000 0.6051 0.6050 0.6050 0.6049 0.6049
3181.000000 0.6048 0.6048 0.6047 0.6047 0.6046
3186.000000 0.6046 0.6046 0.6046 0.6045 0.6045
3191.000000 0.6044 0.6044 0.6043 0.6043 0.6042
3196.000000 0.6042 0.6041 0.6041 0.6041 0.6041
3201.000000 0.6041 0.6040 0.6040 0.6039 0.6039
3206.000000 0.6038 0.6037 0.6036 0.6036 0.6035
3211.000000 0.6034 0.6033 0.6033 0.6032 0.6031
3216.000000 0.6031 0.6030 0.6029 0.6028 0.6027
3221.000000 0.6026 0.6025 0.6025 0.6024 0.6023
3226.000000 0.6022 0.6021 0.6019 0.6018 0.6016
3231.000000 0.6015 0.6013 0.6011 0.6009 0.6007
3236.000000 0.6005 0.6003 0.6001 0.5999 0.5997
3241.000000 0.5995 0.5993 0.5991 0.5989 0.5987
3246.000000 0.5985 0.5983 0.5981 0.5979 0.5977
3251.000000 0.5975 0.5972 0.5969 0.5965 0.5962
3256.000000 0.5959 0.5956 0.5953 0.5950 0.5947
3261.000000 0.5944 0.5941 0.5938 0.5934 0.5931
3266.000000 0.5927 0.5924 0.5920 0.5917 0.5913
3271.000000 0.5909 0.5905 0.5902 0.5898 0.5894
3276.000000 0.5890 0.5886 0.5882 0.5878 0.5875
3281.000000 0.5871 0.5867 0.5863 0.5859 0.5855
3286.000000 0.5851 0.5848 0.5844 0.5840 0.5836
3291.000000 0.5833 0.5829 0.5825 0.5821 0.5817
3296.000000 0.5814 0.5810 0.5807 0.5803 0.5800
3301.000000 0.5796 0.5792 0.5789 0.5785 0.5781
3306.000000 0.5778 0.5774 0.5770 0.5767 0.5763
3311.000000 0.5759 0.5756 0.5752 0.5749 0.5745
3316.000000 0.5741 0.5737 0.5733 0.5730 0.5726
3321.000000 0.5721 0.5717 0.5712 0.5708 0.5703
3326.000000 0.5699 0.5694 0.5690 0.5685 0.5681
3331.000000 0.5676 0.5672 0.5668 0.5664 0.5659
3336.000000 0.5655 0.5650 0.5646 0.5641 0.5637
3341.000000 0.5633 0.5629 0.5623 0.5618 0.5612
3346.000000 0.5607 0.5601 0.5595 0.5589 0.5583
3351.000000 0.5577 0.5571 0.5565 0.5559 0.5553
3356.000000 0.5547 0.5541 0.5535 0.5529 0.5523
3361.000000 0.5517 0.5511 0.5505 0.5499 0.5493
3366.000000 0.5485 0.5478 0.5470 0.5463 0.5455
3371.000000 0.5448 0.5441 0.5433 0.5426 0.5419
3376.000000 0.5411 0.5404 0.5396 0.5389 0.5381
3381.000000 0.5374 0.5367 0.5359 0.5351 0.5342
3386.000000 0.5334 0.5325 0.5316 0.5307 0.5297
3391.000000 0.5288 0.5279 0.5269 0.5260 0.5251
3396.000000 0.5241 0.5232 0.5223 0.5214 0.5205
3401.000000 0.5196 0.5186 0.5176 0.5166 0.5156
3406.000000 0.5145 0.5135 0.5124 0.5114 0.5103
3411.000000 0.5093 0.5083 0.5072 0.5062 0.5052
3416.000000 0.5041 0.5031 0.5020 0.5010 0.4999
3421.000000 0.4989 0.4978 0.4967 0.4957 0.4946
3426.000000 0.4935 0.4925 0.4915 0.4904 0.4892
3431.000000 0.4879 0.4865 0.4852 0.4838 0.4823
3436.000000 0.4808 0.4792 0.4777 0.4752 0.4692
3441.000000 0.4633 0.4573 0.4514 0.4454 0.4394
3446.000000 0.4334 0.4273 0.4213 0.4153 0.4093
3451.000000 0.4033 0.3974 0.3914 0.3859 0.3805
3456.000000 0.3750 0.3696 0.3651 0.3651 0.3650
3461.000000 0.3650 0.3649 0.3649 0.3649 0.3649
3466.000000 0.3649 0.3649 0.3649 0.3649 0.3650
3471.000000 0.3650 0.3650 0.3660 0.3694 0.3719
3476.000000 0.3744 0.3768 0.3821 0.3875 0.3930
3481.000000 0.3984 0.4038 0.4092 0.4147 0.4201
3486.000000 0.4255 0.4309 0.4363 0.4417 0.4471
3491.000000 0.4525 0.4579 0.4633 0.4687 0.4741
3496.000000 0.4794 0.4848 0.4902 0.4956 0.5009
3501.000000 0.5063 0.5117 0.5170 0.5224 0.5277
3506.000000 0.5331 0.5384 0.5438 0.5491 0.5544
3511.000000 0.5598 0.5643 0.5686 0.5729 0.5772
3516.000000 0.5815 0.5828 0.5834 0.5840 0.5846
3521.000000 0.5852 0.5856 0.5859 0.5863 0.5867
3526.000000 0.5870 0.5873 0.5876 0.5879 0.5882
3531.000000 0.5885 0.5887 0.5889 0.5890 0.5892
3536.000000 0.5893 0.5894 0.5894 0.5895 0.5895
3541.000000 0.5895 0.5896 0.5897 0.5897 0.5898
3546.000000 0.5898 0.5903 0.5898 0.5897 0.5897
3551.000000 0.5897 0.5896 0.5895 0.5895 0.5894
3556.000000 0.5894 0.5893 0.5892 0.5891 0.5890
3561.000000 0.5890 0.5889 0.5887 0.5886 0.5885
3566.000000 0.5884 0.5883 0.5882 0.5880 0.5879
3571.000000 0.5878 0.5877 0.5876 0.5874 0.5873
3576.000000 0.5872 0.5871 0.5870 0.5869 0.5868
3581.000000 0.5867 0.5866 0.5865 0.5864 0.5863
3586.000000 0.5861 0.5860 0.5858 0.5857 0.5855
3591.000000 0.5853 0.5851 0.5850 0.5848 0.5846
3596.000000 0.5844 0.5843 0.5841 0.5839 0.5838
3601.000000 0.5836 0.5834 0.5832 0.5830 0.5828
3606.000000 0.5826 0.5824 0.5822 0.5820 0.5818
3611.000000 0.5816 0.5814 0.5812 0.5810 0.5808
3616.000000 0.5806 0.5804 0.5802 0.5800 0.5799
3621.000000 0.5797 0.5795 0.5793 0.5791 0.5789
3626.000000 0.5787 0.5785 0.5782 0.5780 0.5779
3631.000000 0.5777 0.5775 0.5773 0.5771 0.5769
3636.000000 0.5767 0.5765 0.5763 0.5761 0.5759
3641.000000 0.5757 0.5755 0.5753 0.5751 0.5749
3646.000000 0.5747 0.5745 0.5744 0.5742 0.5740
3651.000000 0.5738 0.5736 0.5734 0.5732 0.5729
3656.000000 0.5728 0.5726 0.5724 0.5722 0.5720
3661.000000 0.5718 0.5716 0.5714 0.5712 0.5710
3666.000000 0.5708 0.5706 0.5704 0.5702 0.5700
3671.000000 0.5698 0.5696 0.5694 0.5692 0.5689
3676.000000 0.5687 0.5686 0.5684 0.5682 0.5680
3681.000000 0.5678 0.5676 0.5674 0.5672 0.5670
3686.000000 0.5667 0.5665 0.5663 0.5661 0.5659
3691.000000 0.5656 0.5654 0.5652 0.5650 0.5648
3696.000000 0.5645 0.5643 0.5641 0.5639 0.5637
3701.000000 0.5635 0.5633 0.5631 0.5629 0.5627
3706.000000 0.5624 0.5622 0.5620 0.5618 0.5616
3711.000000 0.5614 0.5611 0.5609 0.5607 0.5605
3716.000000 0.5603 0.5601 0.5598 0.5596 0.5594
3721.000000 0.5592 0.5590 0.5588 0.5585 0.5583
3726.000000 0.5581 0.5579 0.5577 0.5575 0.5572
3731.000000 0.5570 0.5568 0.5566 0.5564 0.5562
3736.000000 0.5559 0.5557 0.5555 0.5553 0.5551
3741.000000 0.5549 0.5548 0.5545 0.5543 0.5541
3746.000000 0.5539 0.5537 0.5535 0.5533 0.5531
3751.000000 0.5529 0.5527 0.5525 0.5523 0.5521
3756.000000 0.5519 0.5517 0.5515 0.5513 0.5511
3761.000000 0.5509 0.5507 0.5506 0.5504 0.5502
3766.000000 0.5500 0.5498 0.5496 0.5494 0.5492
3771.000000 0.5490 0.5488 0.5486 0.5484 0.5482
3776.000000 0.5480 0.5478 0.5476 0.5474 0.5472
3781.000000 0.5470 0.5468 0.5466 0.5464 0.5462
3786.000000 0.5460 0.5458 0.5456 0.5454 0.5452
3791.000000 0.5451 0.5449 0.5447 0.5445 0.5443
3796.000000 0.5441 0.5439 0.5437 0.5435 0.5433
3801.000000 0.5431 0.5430 0.5428 0.5426 0.5424
3806.000000 0.5422 0.5420 0.5418 0.5416 0.5414
3811.000000 0.5411 0.5410 0.5408 0.5406 0.5404
3816.000000 0.5402 0.5400 0.5398 0.5396 0.5394
3821.000000 0.5393 0.5391 0.5389 0.5387 0.5385
3826.000000 0.5383 0.5381 0.5378 0.5377 0.5375
3831.000000 0.5373 0.5371 0.5369 0.5367 0.5365
3836.000000 0.5363 0.5361 0.5359 0.5357 0.5355
3841.000000 0.5353 0.5351 0.5349 0.5348 0.5346
3846.000000 0.5344 0.5342 0.5340 0.5338 0.5336
3851.000000 0.5335 0.5333 0.5331 0.5329 0.5327
3856.000000 0.5325 0.5323 0.5321 0.5319 0.5317
3861.000000 0.5315 0.5313 0.5311 0.5309 0.5308
3866.000000 0.5306 0.5304 0.5302 0.5300 0.5298
3871.000000 0.5297 0.5295 0.5293 0.5291 0.5289
3876.000000 0.5287 0.5286 0.5284 0.5282 0.5281
3881.000000 0.5279 0.5277 0.5276 0.5274 0.5272
3886.000000 0.5270 0.5268 0.5267 0.5265 0.5263
3891.000000 0.5261 0.5259 0.5257 0.5256 0.5254
3896.000000 0.5252 0.5251 0.5249 0.5247 0.5246
3901.000000 0.5244 0.5242 0.5240 0.5239 0.5237
3906.000000 0.5235 0.5233 0.5231 0.5230 0.5228
3911.000000 0.5226 0.5224 0.5222 0.5221 0.5219
3916.000000 0.5218 0.5216 0.5214 0.5213 0.5211
3921.000000 0.5209 0.5208 0.5206 0.5205 0.5203
3926.000000 0.5202 0.5200 0.5199 0.5197 0.5196
3931.000000 0.5194 0.5193 0.5191 0.5189 0.5188
3936.000000 0.5186 0.5185 0.5183 0.5182 0.5180
3941.000000 0.5179 0.5177 0.5176 0.5174 0.5173
3946.000000 0.5171 0.5169 0.5168 0.5166 0.5165
3951.000000 0.5163 0.5161 0.5160 0.5158 0.5157
3956.000000 0.5155 0.5154 0.5152 0.5151 0.5149
3961.000000 0.5148 0.5146 0.5145 0.5143 0.5142
3966.000000 0.5140 0.5138 0.5137 0.5135 0.5134
3971.000000 0.5133 0.5131 0.5130 0.5128 0.5127
3976.000000 0.5125 0.5124 0.5122 0.5120 0.5119
3981.000000 0.5117 0.5116 0.5114 0.5113 0.5111
3986.000000 0.5109 0.5108 0.5106 0.5104 0.5103
3991.000000 0.5101 0.5099 0.5098 0.5096 0.5094
3996.000000 0.5092 0.5090 0.5088 0.5086 0.5085
##END=
