##TITLE=PYRAN, 2,3-DIHYDRO-
##JCAMP-DX=4.24
##DATA TYPE=INFRARED SPECTRUM
##CLASS=COBLENTZ III
##ORIGIN=DOW CORNING CORP.
##OWNER=COBLENTZ SOCIETY
Collection (C) 2018 copyright by the U.S. Secretary of Commerce
on behalf of the United States of America. All rights reserved.
##DATE=1965/07/20
##NAMES=3,4-dihydro-2H-pyran
##MOLFORM=C5 H8 0
##SOURCE REFERENCE=COBLENTZ NO. 4301
##$NIST ID=B6004301
##$NIST SOURCE=COBLENTZ
##$NIST IMAGE=cob4301
##SPECTROMETER/DATA SYSTEM=PERKIN-ELMER 521 (GRATING)
##INSTRUMENT PARAMETERS=FILTERS AT 3150, 2500, 2000, 1150, 700, 410; GRATING CHANGES AT 2000, 630 CM^-^1
##STATE=SOLUTION (10% IN CCl4 FOR 3800-1300, 10% IN CS2 FOR 1300-650, AND 10% IN CCl4 FOR 650-250 CM^-^1) VERSUS SOLVENT
##PATH LENGTH=0.011, 0.011, AND 0.020 CM (CsBr CELL)
##SAMPLING PROCEDURE=TRANSMISSION
##RESOLUTION=4
##DATA PROCESSING=DIGITIZED BY NIST FROM HARD COPY (FROM TWO SEGMENTS)
##XUNITS=1/CM
##YUNITS=TRANSMITTANCE
##XFACTOR=1.000000
##YFACTOR=1
##DELTAX=1.280006
##FIRSTX=247.68
##LASTX=3790.74
##FIRSTY=0.854
##MAXX=3790.74
##MINX=247.68
##MAXY=0.927
##MINY=0
##NPOINTS=2769
##XYDATA=(X++(Y..Y))
247.680000 0.8540 0.8520 0.8540 0.8520 0.8520
254.080031 0.8520 0.8500 0.8500 0.8520 0.8609
260.480062 0.8620 0.8610 0.8610 0.8590 0.8590
266.880092 0.8570 0.8540 0.8520 0.8520 0.8540
273.280123 0.8550 0.8570 0.8590 0.8610 0.8610
279.680154 0.8570 0.8550 0.8540 0.8540 0.8570
286.080185 0.8570 0.8590 0.8590 0.8610 0.8620
292.480215 0.8680 0.8730 0.8750 0.8760 0.8760
298.880246 0.8780 0.8780 0.8760 0.8710 0.8690
305.280277 0.8690 0.8710 0.8730 0.8750 0.8760
311.680308 0.8780 0.8780 0.8780 0.8780 0.8780
318.080338 0.8780 0.8780 0.8800 0.8800 0.8810
324.480369 0.8810 0.8830 0.8830 0.8850 0.8850
330.880400 0.8870 0.8870 0.8880 0.8880 0.8880
337.280431 0.8900 0.8900 0.8900 0.8900 0.8900
343.680461 0.8900 0.8900 0.8880 0.8880 0.8880
350.080492 0.8880 0.8880 0.8880 0.8880 0.8870
356.480523 0.8870 0.8870 0.8870 0.8870 0.8870
362.880554 0.8850 0.8850 0.8850 0.8830 0.8830
369.280584 0.8830 0.8830 0.8830 0.8810 0.8810
375.680615 0.8810 0.8800 0.8780 0.8760 0.8750
382.080646 0.8730 0.8730 0.8710 0.8710 0.8690
388.480677 0.8680 0.8660 0.8660 0.8640 0.8640
394.880707 0.8640 0.8640 0.8640 0.8640 0.8620
401.280738 0.8610 0.8590 0.8590 0.8590 0.8570
407.680769 0.8570 0.8570 0.8550 0.8550 0.8540
414.080800 0.8520 0.8500 0.8450 0.8420 0.8380
420.480830 0.8240 0.8140 0.7861 0.7770 0.7720
426.880861 0.7480 0.7410 0.7250 0.6821 0.6451
433.280892 0.5852 0.4774 0.4252 0.3404 0.2813
439.680923 0.0810 0.0520 0.0520 0.0720 0.0930
446.080953 0.1119 0.2336 0.3983 0.5373 0.5788
452.480984 0.6211 0.6920 0.7110 0.7320 0.7579
458.881015 0.7690 0.7760 0.7820 0.7949 0.8049
465.281046 0.8070 0.8100 0.8100 0.8090 0.8070
471.681076 0.8020 0.7861 0.7820 0.7790 0.7770
478.081107 0.7720 0.7690 0.7600 0.7560 0.7430
484.481138 0.7231 0.6921 0.6661 0.6421 0.4869
490.881169 0.4110 0.4110 0.4820 0.5190 0.5529
497.281199 0.6208 0.6768 0.6770 0.5456 0.5261
503.681230 0.4559 0.3480 0.3380 0.3000 0.3020
510.081261 0.4576 0.5527 0.6466 0.6968 0.7477
516.481292 0.7760 0.7960 0.8120 0.8220 0.8380
522.881323 0.8450 0.8500 0.8540 0.8550 0.8570
529.281353 0.8590 0.8590 0.8610 0.8610 0.8620
535.681384 0.8620 0.8620 0.8620 0.8640 0.8660
542.081415 0.8710 0.8730 0.8750 0.8760 0.8760
548.481446 0.8780 0.8780 0.8780 0.8780 0.8780
554.881476 0.8780 0.8800 0.8780 0.8780 0.8780
561.281507 0.8750 0.8710 0.8660 0.8620 0.8660
567.681538 0.8730 0.8760 0.8830 0.8870 0.8900
574.081569 0.8940 0.8940 0.8970 0.8990 0.9010
580.481599 0.8990 0.9010 0.9010 0.9010 0.9010
586.881630 0.9020 0.9020 0.9020 0.9020 0.9020
593.281661 0.9020 0.9020 0.9020 0.9020 0.9020
599.681692 0.9020 0.9040 0.9060 0.9060 0.9070
606.081722 0.9070 0.9070 0.9090 0.9090 0.9090
612.481753 0.9110 0.9110 0.9110 0.9110 0.9110
618.881784 0.9110 0.9110 0.9110 0.9110 0.9110
625.281815 0.9090 0.9090 0.9070 0.9070 0.9060
631.681845 0.9020 0.9010 0.8990 0.8950 0.8940
638.081876 0.8940 0.8940 0.8940 0.8920 0.8920
644.481907 0.8920 0.8920 0.8920 0.8920 0.8900
650.881938 0.8830 0.8750 0.8680 0.8660 0.8660
657.281968 0.8660 0.8660 0.8680 0.8680 0.8660
663.681999 0.8660 0.8660 0.8660 0.8640 0.8570
670.082030 0.8520 0.8500 0.8500 0.8520 0.8540
676.482061 0.8550 0.8550 0.8550 0.8540 0.8540
682.882091 0.8540 0.8550 0.8550 0.8550 0.8570
689.282122 0.8550 0.8520 0.8470 0.8380 0.8360
695.682153 0.8360 0.8350 0.8310 0.8290 0.8260
702.082184 0.8210 0.8100 0.8000 0.7960 0.7930
708.482214 0.7770 0.7690 0.7480 0.7250 0.7100
714.882245 0.6900 0.6491 0.6181 0.5881 0.4676
721.282276 0.4058 0.2889 0.2389 0.0721 0.0670
727.682307 0.0480 0.0480 0.0789 0.1298 0.1778
734.082337 0.2821 0.3221 0.4140 0.4890 0.5449
740.482368 0.5670 0.5879 0.6139 0.6140 0.6110
746.882399 0.5379 0.5099 0.4340 0.3470 0.2581
753.282430 0.2580 0.3617 0.5025 0.5528 0.6038
759.682460 0.6561 0.7270 0.7620 0.7810 0.7820
766.082491 0.8020 0.8070 0.8140 0.8309 0.8360
772.482522 0.8450 0.8520 0.8540 0.8570 0.8620
778.882553 0.8660 0.8710 0.8750 0.8760 0.8760
785.282584 0.8800 0.8810 0.8810 0.8830 0.8830
791.682614 0.8830 0.8830 0.8830 0.8830 0.8830
798.082645 0.8830 0.8810 0.8810 0.8810 0.8800
804.482676 0.8780 0.8760 0.8750 0.8730 0.8710
810.882707 0.8660 0.8620 0.8570 0.8540 0.8450
817.282737 0.8430 0.8400 0.8360 0.8260 0.8210
823.682768 0.8140 0.8020 0.7790 0.7650 0.7440
830.082799 0.7270 0.6611 0.5463 0.4673 0.3883
836.482830 0.3379 0.2960 0.2962 0.5170 0.6229
842.882860 0.7269 0.7599 0.7789 0.7890 0.7960
849.282891 0.7980 0.7980 0.7980 0.7960 0.7930
855.682922 0.7910 0.7840 0.7810 0.7740 0.7601
862.082953 0.7500 0.7390 0.7290 0.7110 0.6870
868.482983 0.6610 0.6380 0.4964 0.4820 0.4820
874.883014 0.5080 0.5121 0.5460 0.5480 0.5240
881.283045 0.5030 0.4681 0.4271 0.3642 0.2953
887.683076 0.2097 0.0720 0.0670 0.0500 0.0500
894.083106 0.0860 0.1329 0.1799 0.3086 0.4225
900.483137 0.5241 0.5601 0.5951 0.6470 0.6560
906.883168 0.6630 0.6680 0.6700 0.6730 0.6730
913.283199 0.6730 0.6730 0.6710 0.6710 0.6640
919.683229 0.6590 0.6470 0.6330 0.6091 0.5293
926.083260 0.4679 0.4159 0.3709 0.2650 0.2650
932.483291 0.3020 0.3988 0.5257 0.5669 0.6088
938.883322 0.6510 0.6700 0.6960 0.7010 0.7010
945.283352 0.6990 0.6990 0.7010 0.7169 0.7409
951.683383 0.7621 0.7810 0.8000 0.8090 0.8140
958.083414 0.8150 0.8170 0.8210 0.8210 0.8220
964.483445 0.8220 0.8220 0.8210 0.8210 0.8190
970.883475 0.8190 0.8170 0.8170 0.8150 0.8150
977.283506 0.8120 0.8120 0.8090 0.8030 0.8020
983.683537 0.7980 0.7950 0.7930 0.7860 0.7820
990.083568 0.7810 0.7770 0.7760 0.7700 0.7650
996.483598 0.7630 0.7580 0.7510 0.7460 0.7360
1002.883629 0.7250 0.7110 0.7080 0.6840 0.6540
1009.283660 0.6510 0.6450 0.6091 0.5950 0.5920
1015.683691 0.5759 0.5260 0.5030 0.5030 0.5130
1022.083721 0.5190 0.5340 0.5450 0.5530 0.5689
1028.483752 0.5830 0.5830 0.5810 0.5780 0.5740
1034.883783 0.5710 0.5710 0.5650 0.5550 0.5311
1041.283814 0.5029 0.4719 0.4459 0.4059 0.3380
1047.683845 0.3020 0.2621 0.2231 0.1841 0.1451
1054.083875 0.1454 0.2650 0.2630 0.2530 0.2370
1060.483906 0.2320 0.1990 0.1521 0.0244 0.0081
1066.883937 0.0000 0.0000 0.0000 0.0010 0.0050
1073.283968 0.0080 0.0200 0.0360 0.0500 0.0719
1079.683998 0.1021 0.1301 0.1510 0.1610 0.1610
1086.084029 0.1730 0.2010 0.2619 0.3149 0.3778
1092.484060 0.4061 0.4461 0.4891 0.5360 0.5530
1098.884091 0.5690 0.5970 0.6309 0.6679 0.6730
1105.284121 0.6770 0.6820 0.6900 0.6970 0.7230
1111.684152 0.7370 0.7410 0.7430 0.7440 0.7500
1118.084183 0.7510 0.7530 0.7560 0.7620 0.7630
1124.484214 0.7670 0.7690 0.7690 0.7690 0.7700
1130.884244 0.7760 0.7810 0.7910 0.7980 0.8000
1137.284275 0.8020 0.8050 0.8100 0.8100 0.8120
1143.684306 0.8120 0.8120 0.8100 0.8100 0.8090
1150.084337 0.8050 0.8050 0.8020 0.7960 0.7880
1156.484367 0.7820 0.7790 0.7770 0.7770 0.7670
1162.884398 0.7650 0.7630 0.7630 0.7630 0.7620
1169.284429 0.7600 0.7600 0.7580 0.7460 0.7410
1175.684460 0.7320 0.7250 0.7150 0.7110 0.6841
1182.084490 0.6539 0.6208 0.5459 0.5100 0.5100
1188.484521 0.5220 0.5460 0.5690 0.6039 0.6349
1194.884552 0.6450 0.6470 0.6490 0.6700 0.6750
1201.284583 0.6800 0.6840 0.6850 0.6820 0.6770
1207.684613 0.6710 0.6680 0.6560 0.6370 0.6280
1214.084644 0.6020 0.5390 0.5120 0.4791 0.4531
1220.484675 0.3618 0.3067 0.2149 0.1729 0.0810
1226.884706 0.0810 0.0980 0.1160 0.1519 0.1849
1233.284736 0.2130 0.2126 0.0639 0.0320 0.0010
1239.684767 0.0000 0.0000 0.0000 0.0030 0.0100
1246.084798 0.0221 0.0530 0.0642 0.1451 0.2271
1252.484829 0.3150 0.3969 0.4140 0.4559 0.4889
1258.884859 0.5011 0.5260 0.5340 0.5360 0.5340
1265.284890 0.5290 0.5170 0.5120 0.5100 0.5080
1271.684921 0.5101 0.5450 0.5550 0.5640 0.5810
1278.084952 0.5830 0.6190 0.6899 0.6920 0.7498
1284.484982 0.7811 0.7981 0.8140 0.8220 0.8290
1290.885013 0.8450 0.8470 0.8500 0.8540 0.8570
1297.285044 0.8590 0.8610 0.8610 0.8610 0.8610
1303.685075 0.8590 0.8590 0.8590 0.8570 0.8550
1310.085106 0.8540 0.8500 0.8420 0.8330 0.8220
1316.485136 0.8020 0.7770 0.7650 0.7341 0.7011
1322.885167 0.5310 0.5312 0.5791 0.6262 0.7181
1329.285198 0.7700 0.7810 0.7950 0.7950 0.7860
1335.685229 0.7810 0.7770 0.7670 0.7580 0.7580
1342.085259 0.7760 0.8070 0.8210 0.8470 0.8540
1348.485290 0.8550 0.8550 0.8540 0.8500 0.8470
1354.885321 0.8420 0.8360 0.8310 0.8240 0.8220
1361.285352 0.8029 0.7840 0.7719 0.7479 0.7200
1367.685382 0.7200 0.7340 0.7480 0.7740 0.7999
1374.085413 0.8220 0.8240 0.8290 0.8290 0.8290
1380.485444 0.8280 0.8260 0.8240 0.8220 0.8220
1386.885475 0.8210 0.8210 0.8170 0.8120 0.8030
1393.285505 0.7760 0.7430 0.7100 0.6711 0.6451
1399.685536 0.5950 0.5953 0.6802 0.7621 0.7861
1406.085567 0.8350 0.8380 0.8430 0.8480 0.8500
1412.485598 0.8520 0.8520 0.8520 0.8500 0.8480
1418.885628 0.8450 0.8430 0.8400 0.8310 0.8260
1425.285659 0.8139 0.8000 0.7950 0.7950 0.7760
1431.685690 0.7560 0.6940 0.6630 0.6161 0.5342
1438.085721 0.4870 0.4872 0.5311 0.5722 0.6470
1444.485751 0.6469 0.5100 0.5060 0.4341 0.4340
1450.885782 0.5314 0.6260 0.6350 0.6400 0.6420
1457.285813 0.6450 0.6440 0.6420 0.6370 0.6250
1463.685844 0.5359 0.5218 0.4730 0.4731 0.5271
1470.085874 0.5790 0.6310 0.6700 0.7819 0.7960
1476.485905 0.8141 0.8260 0.8350 0.8380 0.8470
1482.885936 0.8540 0.8620 0.8710 0.8760 0.8800
1489.285967 0.8900 0.8950 0.8970 0.8990 0.9010
1495.685997 0.9010 0.9010 0.9020 0.9020 0.9020
1502.086028 0.9040 0.9040 0.9040 0.9060 0.9060
1508.486059 0.9090 0.9090 0.9090 0.9090 0.9090
1514.886090 0.9110 0.9110 0.9110 0.9110 0.9110
1521.286120 0.9110 0.9110 0.9110 0.9110 0.9110
1527.686151 0.9110 0.9130 0.9130 0.9130 0.9130
1534.086182 0.9130 0.9130 0.9130 0.9130 0.9130
1540.486213 0.9110 0.9110 0.9110 0.9110 0.9090
1546.886243 0.9090 0.9090 0.9070 0.9070 0.9060
1553.286274 0.9060 0.9040 0.9040 0.9020 0.9010
1559.686305 0.9010 0.9020 0.9020 0.9020 0.9020
1566.086336 0.9010 0.9010 0.8990 0.8950 0.8920
1572.486366 0.8880 0.8870 0.8870 0.8870 0.8850
1578.886397 0.8830 0.8810 0.8760 0.8760 0.8750
1585.286428 0.8730 0.8710 0.8660 0.8640 0.8620
1591.686459 0.8610 0.8570 0.8540 0.8520 0.8450
1598.086490 0.8380 0.8360 0.8260 0.8170 0.8150
1604.486520 0.8150 0.8150 0.8140 0.8120 0.8030
1610.886551 0.8000 0.7860 0.7650 0.7560 0.7300
1617.286582 0.7129 0.6919 0.6779 0.6509 0.6299
1623.686613 0.5969 0.5480 0.5270 0.5120 0.5030
1630.086643 0.4769 0.4538 0.4198 0.3779 0.3449
1636.486674 0.2929 0.2390 0.1840 0.1510 0.0781
1642.886705 0.0339 0.0220 0.0150 0.0120 0.0100
1649.286736 0.0100 0.0120 0.0130 0.0240 0.0270
1655.686766 0.0621 0.0860 0.0953 0.1853 0.2743
1662.086797 0.3802 0.5130 0.5380 0.5620 0.6020
1668.486828 0.6451 0.6701 0.6921 0.7230 0.7390
1674.886859 0.7440 0.7620 0.7810 0.8000 0.8090
1681.286889 0.8190 0.8240 0.8280 0.8290 0.8310
1687.686920 0.8310 0.8330 0.8350 0.8420 0.8520
1694.086951 0.8540 0.8570 0.8610 0.8620 0.8640
1700.486982 0.8690 0.8730 0.8750 0.8760 0.8760
1706.887012 0.8750 0.8730 0.8710 0.8690 0.8680
1713.287043 0.8660 0.8640 0.8590 0.8550 0.8520
1719.687074 0.8480 0.8399 0.8280 0.8190 0.8100
1726.087105 0.8020 0.7890 0.7770 0.7670 0.7440
1732.487135 0.7410 0.7431 0.7550 0.7670 0.7760
1738.887166 0.7880 0.7960 0.8210 0.8260 0.8330
1745.287197 0.8361 0.8500 0.8540 0.8660 0.8710
1751.687228 0.8730 0.8780 0.8800 0.8810 0.8810
1758.087258 0.8810 0.8800 0.8800 0.8780 0.8760
1764.487289 0.8760 0.8780 0.8800 0.8830 0.8900
1770.887320 0.8921 0.9010 0.9040 0.9040 0.9060
1777.287351 0.9060 0.9060 0.9060 0.9060 0.9060
1783.687381 0.9060 0.9060 0.9070 0.9070 0.9070
1790.087412 0.9070 0.9070 0.9070 0.9090 0.9090
1796.487443 0.9090 0.9090 0.9090 0.9090 0.9090
1802.887474 0.9110 0.9110 0.9110 0.9090 0.9090
1809.287504 0.9070 0.9070 0.9060 0.9060 0.9010
1815.687535 0.8990 0.8950 0.8950 0.8880 0.8850
1822.087566 0.8810 0.8800 0.8750 0.8690 0.8590
1828.487597 0.8550 0.8550 0.8570 0.8640 0.8680
1834.887627 0.8710 0.8750 0.8811 0.8920 0.8920
1841.287658 0.8970 0.9020 0.9060 0.9060 0.9090
1847.687689 0.9110 0.9110 0.9130 0.9130 0.9140
1854.087720 0.9140 0.9130 0.9110 0.9110 0.9110
1860.487751 0.9110 0.9130 0.9140 0.9140 0.9160
1866.887781 0.9160 0.9180 0.9180 0.9160 0.9160
1873.287812 0.9140 0.9130 0.9130 0.9130 0.9130
1879.687843 0.9110 0.9110 0.9070 0.9060 0.9020
1886.087874 0.9010 0.9010 0.9020 0.9040 0.9060
1892.487904 0.9060 0.9060 0.9060 0.9040 0.9010
1898.887935 0.8990 0.8950 0.8920 0.8829 0.8690
1905.287966 0.8550 0.8380 0.8350 0.8360 0.8500
1911.687997 0.8641 0.8751 0.8970 0.9020 0.9060
1918.088027 0.9070 0.9070 0.9070 0.9090 0.9090
1924.488058 0.9090 0.9110 0.9110 0.9110 0.9110
1930.888089 0.9110 0.9110 0.9090 0.9090 0.9060
1937.288120 0.9040 0.9020 0.9010 0.8990 0.8950
1943.688150 0.8920 0.8900 0.8870 0.8850 0.8810
1950.088181 0.8800 0.8780 0.8760 0.8690 0.8660
1956.488212 0.8550 0.8520 0.8470 0.8330 0.8260
1962.888243 0.8240 0.8261 0.8350 0.8360 0.8450
1969.288273 0.8591 0.8780 0.8920 0.8990 0.9020
1975.688304 0.9040 0.9060 0.9070 0.9070 0.9110
1982.088335 0.9130 0.9130 0.9110 0.9110 0.9090
1988.488366 0.9090 0.9070 0.9070 0.9070 0.9060
1994.888396 0.9060 0.9060 0.9070 0.9090 0.9110
2001.288427 0.9120 0.9130 0.9135 0.9140 0.9160
2007.688458 0.9180 0.9190 0.9200 0.9205 0.9210
2014.088489 0.9220 0.9230 0.9230 0.9230 0.9240
2020.488519 0.9250 0.9250 0.9250 0.9260 0.9270
2026.888550 0.9270 0.9270 0.9270 0.9270 0.9270
2033.288581 0.9270 0.9260 0.9250 0.9250 0.9250
2039.688612 0.9240 0.9230 0.9220 0.9210 0.9210
2046.088642 0.9210 0.9205 0.9200 0.9200 0.9200
2052.488673 0.9200 0.9200 0.9190 0.9180 0.9170
2058.888704 0.9160 0.9150 0.9140 0.9140 0.9140
2065.288735 0.9135 0.9130 0.9120 0.9110 0.9066
2071.688765 0.9021 0.8981 0.8941 0.8905 0.8870
2078.088796 0.8860 0.8850 0.8860 0.8870 0.8910
2084.488827 0.8950 0.9040 0.9130 0.9130 0.9130
2090.888858 0.9145 0.9160 0.9160 0.9160 0.9150
2097.288888 0.9140 0.9140 0.9140 0.9135 0.9130
2103.688919 0.9110 0.9090 0.9075 0.9060 0.9015
2110.088950 0.8970 0.8960 0.8950 0.8945 0.8940
2116.488981 0.8940 0.8940 0.8940 0.8940 0.8940
2122.889012 0.8940 0.8930 0.8920 0.8920 0.8920
2129.289042 0.8895 0.8870 0.8850 0.8830 0.8805
2135.689073 0.8780 0.8765 0.8750 0.8740 0.8730
2142.089104 0.8710 0.8690 0.8690 0.8690 0.8710
2148.489135 0.8730 0.8823 0.8918 0.8920 0.8920
2154.889165 0.8920 0.8920 0.8910 0.8900 0.8890
2161.289196 0.8880 0.8875 0.8870 0.8860 0.8850
2167.689227 0.8850 0.8850 0.8850 0.8850 0.8860
2174.089258 0.8870 0.8885 0.8900 0.8920 0.8940
2180.489288 0.8965 0.8990 0.9000 0.9010 0.9025
2186.889319 0.9040 0.9040 0.9040 0.9040 0.9040
2193.289350 0.9040 0.9040 0.9040 0.9040 0.9040
2199.689381 0.9040 0.9030 0.9020 0.9015 0.9010
2206.089411 0.9000 0.8990 0.8990 0.8990 0.8990
2212.489442 0.8990 0.9000 0.9010 0.9010 0.9010
2218.889473 0.9025 0.9040 0.9050 0.9060 0.9085
2225.289504 0.9110 0.9110 0.9110 0.9100 0.9090
2231.689534 0.9080 0.9070 0.9070 0.9070 0.9070
2238.089565 0.9070 0.9070 0.9070 0.9070 0.9070
2244.489596 0.9065 0.9060 0.9060 0.9060 0.9060
2250.889627 0.9060 0.9060 0.9060 0.9060 0.9060
2257.289657 0.9050 0.9040 0.9040 0.9040 0.9040
2263.689688 0.9040 0.9030 0.9020 0.9020 0.9020
2270.089719 0.9015 0.9010 0.9010 0.9010 0.9010
2276.489750 0.9010 0.9000 0.8990 0.8980 0.8970
2282.889780 0.8960 0.8950 0.8945 0.8940 0.8920
2289.289811 0.8900 0.8900 0.8900 0.8890 0.8880
2295.689842 0.8880 0.8880 0.8875 0.8870 0.8870
2302.089873 0.8870 0.8850 0.8830 0.8815 0.8800
2308.489903 0.8780 0.8760 0.8760 0.8760 0.8770
2314.889934 0.8780 0.8840 0.8900 0.8925 0.8950
2321.289965 0.8950 0.8950 0.8960 0.8970 0.8980
2327.689996 0.8990 0.9015 0.9040 0.9050 0.9060
2334.090026 0.9060 0.9060 0.9050 0.9040 0.9040
2340.490057 0.9040 0.9030 0.9020 0.9020 0.9020
2346.890088 0.9020 0.9020 0.9030 0.9040 0.9040
2353.290119 0.9040 0.9030 0.9020 0.9020 0.9020
2359.690149 0.9020 0.9020 0.9020 0.9020 0.9020
2366.090180 0.9020 0.9020 0.9020 0.9020 0.9020
2372.490211 0.9015 0.9010 0.9010 0.9010 0.9010
2378.890242 0.9010 0.9010 0.9010 0.9000 0.8990
2385.290273 0.9000 0.9010 0.9000 0.8990 0.8990
2391.690303 0.8990 0.9000 0.9010 0.9010 0.9010
2398.090334 0.9015 0.9020 0.9020 0.9020 0.9005
2404.490365 0.8990 0.8980 0.8970 0.8955 0.8940
2410.890396 0.8940 0.8940 0.8940 0.8940 0.8940
2417.290426 0.8940 0.8945 0.8950 0.8960 0.8970
2423.690457 0.8990 0.9010 0.9015 0.9020 0.9020
2430.090488 0.9020 0.9020 0.9020 0.9020 0.9020
2436.490519 0.9020 0.9020 0.9005 0.8990 0.8970
2442.890549 0.8950 0.8945 0.8940 0.8940 0.8940
2449.290580 0.8940 0.8940 0.8940 0.8940 0.8940
2455.690611 0.8940 0.8930 0.8920 0.8920 0.8920
2462.090642 0.8900 0.8880 0.8845 0.8810 0.8810
2468.490672 0.8810 0.8820 0.8830 0.8830 0.8830
2474.890703 0.8840 0.8850 0.8850 0.8850 0.8840
2481.290734 0.8830 0.8820 0.8810 0.8805 0.8800
2487.690765 0.8805 0.8810 0.8830 0.8850 0.8865
2494.090795 0.8880 0.8890 0.8900 0.8910 0.8920
2500.490826 0.8920 0.8920 0.8920 0.8920 0.8910
2506.890857 0.8900 0.8900 0.8900 0.8900 0.8900
2513.290888 0.8890 0.8880 0.8880 0.8880 0.8880
2519.690918 0.8880 0.8880 0.8880 0.8880 0.8880
2526.090949 0.8890 0.8900 0.8900 0.8900 0.8890
2532.490980 0.8880 0.8880 0.8880 0.8880 0.8880
2538.891011 0.8875 0.8870 0.8870 0.8870 0.8870
2545.291041 0.8870 0.8860 0.8850 0.8840 0.8830
2551.691072 0.8830 0.8830 0.8820 0.8810 0.8810
2558.091103 0.8810 0.8795 0.8780 0.8765 0.8750
2564.491134 0.8730 0.8710 0.8700 0.8690 0.8690
2570.891164 0.8690 0.8690 0.8690 0.8690 0.8690
2577.291195 0.8700 0.8710 0.8720 0.8730 0.8740
2583.691226 0.8750 0.8755 0.8760 0.8770 0.8780
2590.091257 0.8780 0.8780 0.8790 0.8800 0.8805
2596.491287 0.8810 0.8810 0.8810 0.8805 0.8800
2602.891318 0.8800 0.8800 0.8790 0.8780 0.8780
2609.291349 0.8780 0.8770 0.8760 0.8755 0.8750
2615.691380 0.8750 0.8750 0.8740 0.8730 0.8705
2622.091410 0.8680 0.8645 0.8610 0.8590 0.8570
2628.491441 0.8555 0.8540 0.8530 0.8520 0.8500
2634.891472 0.8480 0.8475 0.8470 0.8475 0.8480
2641.291503 0.8500 0.8520 0.8545 0.8570 0.8630
2647.691534 0.8690 0.8690 0.8690 0.8655 0.8620
2654.091564 0.8620 0.8620 0.8615 0.8610 0.8610
2660.491595 0.8610 0.8600 0.8590 0.8590 0.8590
2666.891626 0.8590 0.8590 0.8590 0.8590 0.8590
2673.291657 0.8590 0.8580 0.8570 0.8560 0.8550
2679.691687 0.8525 0.8500 0.8490 0.8480 0.8480
2686.091718 0.8480 0.8480 0.8480 0.8480 0.8480
2692.491749 0.8480 0.8480 0.8480 0.8480 0.8480
2698.891780 0.8480 0.8475 0.8470 0.8450 0.8430
2705.291810 0.8405 0.8380 0.8330 0.8281 0.8216
2711.691841 0.8151 0.8086 0.8021 0.7890 0.7759
2718.091872 0.7634 0.7510 0.7510 0.7511 0.7650
2724.491903 0.7790 0.7850 0.7910 0.7965 0.8020
2730.891933 0.8080 0.8140 0.8259 0.8379 0.8390
2737.291964 0.8400 0.8449 0.8499 0.8520 0.8540
2743.691995 0.8520 0.8500 0.8460 0.8420 0.8350
2750.092026 0.8280 0.8200 0.8120 0.8085 0.8050
2756.492056 0.7931 0.7811 0.7800 0.7790 0.7904
2762.892087 0.8018 0.8187 0.8357 0.8390 0.8420
2769.292118 0.8420 0.8420 0.8400 0.8380 0.8355
2775.692149 0.8330 0.8305 0.8280 0.8250 0.8220
2782.092179 0.8195 0.8170 0.8145 0.8120 0.8095
2788.492210 0.8070 0.8060 0.8050 0.8040 0.8030
2794.892241 0.8040 0.8050 0.8060 0.8070 0.8070
2801.292272 0.8070 0.8035 0.8000 0.7965 0.7930
2807.692302 0.7870 0.7810 0.7775 0.7740 0.7646
2814.092333 0.7551 0.7516 0.7481 0.7480 0.7480
2820.492364 0.7455 0.7430 0.7375 0.7320 0.7200
2826.892395 0.7080 0.6960 0.6840 0.6715 0.6591
2833.292425 0.6506 0.6421 0.6222 0.6022 0.5704
2839.692456 0.5384 0.5089 0.4795 0.4416 0.4034
2846.092487 0.3470 0.2907 0.2432 0.1960 0.1870
2852.492518 0.1780 0.1375 0.0971 0.0970 0.0970
2858.892548 0.1204 0.1438 0.1668 0.1898 0.1910
2865.292579 0.1920 0.2083 0.2247 0.2250 0.2248
2871.692610 0.2074 0.1899 0.1804 0.1710 0.1615
2878.092641 0.1520 0.1520 0.1520 0.1590 0.1660
2884.492671 0.1730 0.1799 0.1850 0.1899 0.2518
2890.892702 0.3142 0.3150 0.3150 0.3050 0.2949
2897.292733 0.2869 0.2789 0.2710 0.2630 0.2630
2903.692764 0.2630 0.2795 0.2960 0.2980 0.3000
2910.092795 0.2975 0.2950 0.2895 0.2841 0.2791
2916.492825 0.2741 0.2637 0.2532 0.2261 0.1987
2922.892856 0.1713 0.1439 0.1349 0.1259 0.1034
2929.292887 0.0810 0.0705 0.0600 0.0595 0.0590
2935.692918 0.0595 0.0600 0.0645 0.0690 0.0715
2942.092948 0.0740 0.0799 0.0859 0.0860 0.0859
2948.492979 0.0810 0.0760 0.0705 0.0650 0.0650
2954.893010 0.0650 0.0790 0.0930 0.0950 0.0970
2961.293041 0.1124 0.1279 0.1424 0.1569 0.1718
2967.693071 0.1868 0.1880 0.1890 0.1835 0.1780
2974.093102 0.1745 0.1709 0.1640 0.1570 0.1570
2980.493133 0.1570 0.1675 0.1780 0.2014 0.2249
2986.893164 0.2449 0.2649 0.3002 0.3357 0.3746
2993.293194 0.4135 0.4372 0.4606 0.4984 0.5362
2999.693225 0.5562 0.5761 0.5951 0.6141 0.6411
3006.093256 0.6680 0.6860 0.7040 0.7190 0.7339
3012.493287 0.7390 0.7440 0.7519 0.7599 0.7659
3018.893317 0.7719 0.7755 0.7789 0.7815 0.7840
3025.293348 0.7865 0.7890 0.7890 0.7890 0.7885
3031.693379 0.7880 0.7870 0.7860 0.7840 0.7820
3038.093410 0.7820 0.7820 0.7790 0.7760 0.7671
3044.493440 0.7581 0.7545 0.7511 0.7450 0.7389
3050.893471 0.7304 0.7219 0.7059 0.6900 0.6800
3057.293502 0.6699 0.6075 0.5451 0.5126 0.4801
3063.693533 0.4472 0.4142 0.4100 0.4060 0.3773
3070.093563 0.3484 0.3480 0.3480 0.3769 0.4064
3076.493594 0.4464 0.4863 0.5258 0.5653 0.6202
3082.893625 0.6750 0.6905 0.7060 0.7120 0.7180
3089.293656 0.7240 0.7300 0.7429 0.7559 0.7684
3095.693686 0.7808 0.7919 0.8028 0.8155 0.8281
3102.093717 0.8351 0.8420 0.8435 0.8450 0.8475
3108.493748 0.8500 0.8510 0.8520 0.8520 0.8520
3114.893779 0.8530 0.8540 0.8540 0.8540 0.8545
3121.293809 0.8550 0.8580 0.8610 0.8615 0.8620
3127.693840 0.8650 0.8680 0.8705 0.8730 0.8745
3134.093871 0.8760 0.8770 0.8780 0.8790 0.8800
3140.493902 0.8805 0.8810 0.8810 0.8810 0.8810
3146.893932 0.8810 0.8805 0.8800 0.8790 0.8780
3153.293963 0.8780 0.8780 0.8770 0.8760 0.8760
3159.693994 0.8760 0.8760 0.8760 0.8760 0.8760
3166.094025 0.8760 0.8760 0.8770 0.8780 0.8780
3172.494056 0.8780 0.8780 0.8780 0.8780 0.8780
3178.894086 0.8790 0.8800 0.8800 0.8800 0.8800
3185.294117 0.8800 0.8800 0.8800 0.8800 0.8800
3191.694148 0.8800 0.8800 0.8800 0.8800 0.8800
3198.094179 0.8800 0.8800 0.8800 0.8800 0.8800
3204.494209 0.8800 0.8800 0.8800 0.8800 0.8800
3210.894240 0.8800 0.8800 0.8800 0.8800 0.8800
3217.294271 0.8800 0.8800 0.8800 0.8800 0.8790
3223.694302 0.8780 0.8780 0.8780 0.8780 0.8780
3230.094332 0.8780 0.8780 0.8780 0.8780 0.8770
3236.494363 0.8760 0.8760 0.8760 0.8760 0.8760
3242.894394 0.8760 0.8760 0.8760 0.8760 0.8760
3249.294425 0.8760 0.8760 0.8760 0.8770 0.8780
3255.694455 0.8780 0.8780 0.8780 0.8780 0.8770
3262.094486 0.8760 0.8760 0.8760 0.8755 0.8750
3268.494517 0.8750 0.8750 0.8750 0.8750 0.8750
3274.894548 0.8750 0.8740 0.8730 0.8710 0.8690
3281.294578 0.8685 0.8680 0.8670 0.8660 0.8650
3287.694609 0.8640 0.8630 0.8620 0.8615 0.8610
3294.094640 0.8615 0.8620 0.8640 0.8660 0.8685
3300.494671 0.8710 0.8720 0.8730 0.8740 0.8750
3306.894701 0.8750 0.8750 0.8740 0.8730 0.8730
3313.294732 0.8730 0.8730 0.8730 0.8730 0.8730
3319.694763 0.8720 0.8710 0.8710 0.8710 0.8710
3326.094794 0.8710 0.8700 0.8690 0.8690 0.8690
3332.494824 0.8685 0.8680 0.8670 0.8660 0.8650
3338.894855 0.8640 0.8630 0.8620 0.8620 0.8620
3345.294886 0.8620 0.8620 0.8615 0.8610 0.8610
3351.694917 0.8610 0.8600 0.8590 0.8590 0.8590
3358.094947 0.8590 0.8590 0.8590 0.8590 0.8590
3364.494978 0.8590 0.8590 0.8590 0.8580 0.8570
3370.895009 0.8570 0.8570 0.8560 0.8550 0.8550
3377.295040 0.8550 0.8550 0.8550 0.8550 0.8550
3383.695070 0.8550 0.8550 0.8550 0.8550 0.8550
3390.095101 0.8550 0.8550 0.8550 0.8550 0.8550
3396.495132 0.8545 0.8540 0.8540 0.8540 0.8540
3402.895163 0.8540 0.8540 0.8540 0.8540 0.8540
3409.295193 0.8540 0.8540 0.8530 0.8520 0.8520
3415.695224 0.8520 0.8520 0.8520 0.8520 0.8520
3422.095255 0.8510 0.8500 0.8500 0.8500 0.8490
3428.495286 0.8480 0.8475 0.8470 0.8460 0.8450
3434.895317 0.8450 0.8450 0.8450 0.8450 0.8450
3441.295347 0.8450 0.8450 0.8450 0.8440 0.8430
3447.695378 0.8430 0.8430 0.8425 0.8420 0.8420
3454.095409 0.8420 0.8420 0.8420 0.8420 0.8420
3460.495440 0.8420 0.8420 0.8420 0.8420 0.8420
3466.895470 0.8420 0.8425 0.8430 0.8430 0.8430
3473.295501 0.8430 0.8430 0.8430 0.8430 0.8430
3479.695532 0.8430 0.8430 0.8430 0.8430 0.8430
3486.095563 0.8430 0.8430 0.8430 0.8430 0.8430
3492.495593 0.8430 0.8430 0.8430 0.8430 0.8430
3498.895624 0.8440 0.8450 0.8450 0.8450 0.8460
3505.295655 0.8470 0.8470 0.8470 0.8470 0.8470
3511.695686 0.8475 0.8480 0.8490 0.8500 0.8500
3518.095716 0.8500 0.8500 0.8500 0.8510 0.8520
3524.495747 0.8520 0.8520 0.8520 0.8520 0.8530
3530.895778 0.8540 0.8540 0.8540 0.8540 0.8540
3537.295809 0.8540 0.8540 0.8545 0.8550 0.8560
3543.695839 0.8570 0.8570 0.8570 0.8570 0.8570
3550.095870 0.8570 0.8570 0.8570 0.8570 0.8570
3556.495901 0.8570 0.8570 0.8570 0.8580 0.8590
3562.895932 0.8605 0.8620 0.8640 0.8660 0.8660
3569.295962 0.8660 0.8650 0.8640 0.8640 0.8640
3575.695993 0.8640 0.8640 0.8660 0.8680 0.8695
3582.096024 0.8710 0.8720 0.8730 0.8710 0.8690
3588.496055 0.8675 0.8660 0.8660 0.8660 0.8640
3594.896085 0.8620 0.8595 0.8570 0.8560 0.8550
3601.296116 0.8545 0.8540 0.8530 0.8520 0.8530
3607.696147 0.8540 0.8555 0.8570 0.8590 0.8610
3614.096178 0.8615 0.8620 0.8630 0.8640 0.8685
3620.496208 0.8730 0.8745 0.8760 0.8780 0.8800
3626.896239 0.8805 0.8810 0.8840 0.8870 0.8850
3633.296270 0.8830 0.8830 0.8830 0.8820 0.8810
3639.696301 0.8810 0.8810 0.8830 0.8850 0.8885
3646.096331 0.8920 0.8965 0.9010 0.9010 0.9010
3652.496362 0.8965 0.8920 0.8920 0.8920 0.8910
3658.896393 0.8900 0.8885 0.8870 0.8875 0.8880
3665.296424 0.8900 0.8920 0.8965 0.9010 0.9010
3671.696454 0.9010 0.8990 0.8970 0.8945 0.8920
3678.096485 0.8865 0.8810 0.8810 0.8810 0.8845
3684.496516 0.8880 0.8890 0.8900 0.8900 0.8900
3690.896547 0.8890 0.8880 0.8865 0.8850 0.8850
3697.296577 0.8850 0.8860 0.8870 0.8870 0.8870
3703.696608 0.8875 0.8880 0.8890 0.8900 0.8900
3710.096639 0.8900 0.8890 0.8880 0.8880 0.8880
3716.496670 0.8880 0.8880 0.8890 0.8900 0.8900
3722.896701 0.8900 0.8910 0.8920 0.8920 0.8920
3729.296731 0.8935 0.8950 0.8960 0.8970 0.8970
3735.696762 0.8970 0.8980 0.8990 0.8990 0.8990
3742.096793 0.8980 0.8970 0.8970 0.8970 0.8960
3748.496824 0.8950 0.8945 0.8940 0.8940 0.8940
3754.896854 0.8930 0.8920 0.8920 0.8920 0.8910
3761.296885 0.8900 0.8900 0.8900 0.8900 0.8900
3767.696916 0.8885 0.8870 0.8850 0.8830 0.8830
3774.096947 0.8830 0.8830 0.8830 0.8830 0.8830
3780.496977 0.8820 0.8810 0.8810 0.8810 0.8810
3786.897008 0.8810 0.8810 0.8810 0.8820
##END=
