##TITLE=4H-3,1-Benzoxazine-2,4(1H)-dione, 6,7,8-trimethoxy-N-methyl-
##JCAMP-DX=4.24
##DATA TYPE=INFRARED SPECTRUM
##CLASS=COBLENTZ
##ORIGIN=ABBOTT LABORATORIES
##OWNER=Copyright (C) 1987 by the Coblentz Society
Collection (C) 2018 copyright by the U.S. Secretary of Commerce
on behalf of the United States of America. All rights reserved.
##DATE=1964/06/08
##NAMES=6,7,8-trimethoxy-1-methyl-2H-3,1-benzoxazine-2,4(1H)-dione
##MOLFORM=C12 H13 N O6
##MP=121-122 C
##SOURCE REFERENCE=COBLENTZ NO. 5270
##$NIST ID=B6005270
##$NIST SOURCE=COBLENTZ
##$NIST IMAGE=cob5270
##SPECTROMETER/DATA SYSTEM=PERKIN-ELMER 421 (GRATING)
$$ INACTIVE (CHCl3) AROUND 650-800 AND 1200-1250 CM^-^
##INSTRUMENT PARAMETERS=GRATING CHANGE AT 1999 CM^-^
##STATE=SOLUTION 7% (CHCl3 FOR 2-15 microns)
##PATH LENGTH=0.01 CM
##RESOLUTION=2
##XUNITS=1/CM
##YUNITS=TRANSMITTANCE
##XFACTOR=1.0
##YFACTOR=1
##FIRSTX=726
##LASTX=4000
##FIRSTY=0.7543
##MAXX=4000
##MINX=726
##MAXY=0.9595
##MINY=0.0245
##NPOINTS=3275
##XYDATA=(X++(Y..Y))
726.000000 0.7543 0.7544 0.7545 0.7546 0.7547
731.000000 0.7548 0.7549 0.7550 0.7551 0.7552
736.000000 0.7553 0.7554 0.7555 0.7557 0.7560
741.000000 0.7563 0.7566 0.7569 0.7572 0.7575
746.000000 0.7578 0.7581 0.7584 0.7586 0.7589
751.000000 0.7588 0.7586 0.7585 0.7584 0.7583
756.000000 0.7582 0.7581 0.7579 0.7578 0.7577
761.000000 0.7576 0.7575 0.7575 0.7579 0.7583
766.000000 0.7586 0.7590 0.7594 0.7597 0.7601
771.000000 0.7604 0.7608 0.7611 0.7614 0.7617
776.000000 0.7620 0.7623 0.7626 0.7629 0.7632
781.000000 0.7635 0.7638 0.7635 0.7612 0.7624
786.000000 0.7618 0.7613 0.7607 0.7602 0.7597
791.000000 0.7593 0.7590 0.7586 0.7583 0.7579
796.000000 0.7576 0.7580 0.7590 0.7600 0.7621
801.000000 0.7653 0.7686 0.7727 0.7778 0.7829
806.000000 0.7881 0.7974 0.8067 0.8188 0.8326
811.000000 0.8482 0.8645 0.8824 0.8930 0.8997
816.000000 0.9014 0.9031 0.9049 0.9064 0.9066
821.000000 0.9068 0.9070 0.9076 0.9075 0.9075
826.000000 0.9070 0.9066 0.9058 0.9048 0.9038
831.000000 0.9026 0.9003 0.8980 0.8957 0.8934
836.000000 0.8903 0.8865 0.8823 0.8762 0.8702
841.000000 0.8622 0.8521 0.8421 0.8288 0.8145
846.000000 0.8006 0.7874 0.7741 0.7601 0.7288
851.000000 0.7227 0.7213 0.7199 0.7182 0.7186
856.000000 0.7203 0.7373 0.7556 0.7739 0.7922
861.000000 0.8104 0.8287 0.8470 0.8653 0.8756
866.000000 0.8807 0.8849 0.8882 0.8883 0.8884
871.000000 0.8885 0.8885 0.8884 0.8882 0.8882
876.000000 0.8897 0.8882 0.8882 0.8882 0.8882
881.000000 0.8877 0.8872 0.8867 0.8862 0.8856
886.000000 0.8846 0.8836 0.8826 0.8816 0.8806
891.000000 0.8789 0.8770 0.8752 0.8723 0.8692
896.000000 0.8662 0.8598 0.8498 0.8290 0.8077
901.000000 0.7865 0.7652 0.7440 0.7228 0.7015
906.000000 0.6803 0.6601 0.6582 0.6580 0.6581
911.000000 0.6579 0.6594 0.6659 0.6864 0.7070
916.000000 0.7276 0.7481 0.7687 0.7892 0.8098
921.000000 0.8342 0.8426 0.8442 0.8454 0.8456
926.000000 0.8452 0.8448 0.8458 0.8433 0.8419
931.000000 0.8405 0.8378 0.8345 0.8289 0.8196
936.000000 0.8010 0.7728 0.7446 0.7164 0.6882
941.000000 0.6600 0.6318 0.6036 0.5754 0.5472
946.000000 0.5189 0.4907 0.4642 0.4576 0.4545
951.000000 0.4525 0.4506 0.4543 0.4916 0.5146
956.000000 0.5377 0.5608 0.5838 0.6069 0.6299
961.000000 0.6312 0.6314 0.6316 0.6231 0.6136
966.000000 0.6040 0.5945 0.5912 0.5914 0.6068
971.000000 0.6292 0.6515 0.6739 0.6963 0.7145
976.000000 0.7241 0.7323 0.7525 0.7643 0.7665
981.000000 0.7678 0.7692 0.7710 0.7674 0.7659
986.000000 0.7641 0.7619 0.7580 0.7539 0.7496
991.000000 0.7452 0.7400 0.7310 0.7172 0.6884
996.000000 0.6595 0.6307 0.6018 0.5729 0.5441
1001.000000 0.5152 0.4864 0.4575 0.4286 0.3998
1006.000000 0.3709 0.3421 0.3283 0.3060 0.3048
1011.000000 0.3035 0.3022 0.3014 0.3021 0.3027
1016.000000 0.3058 0.3084 0.3107 0.3117 0.3116
1021.000000 0.3116 0.2989 0.2825 0.2661 0.2496
1026.000000 0.2332 0.2168 0.2020 0.2020 0.2020
1031.000000 0.2030 0.2038 0.2210 0.2406 0.2601
1036.000000 0.2797 0.2992 0.3187 0.3383 0.3523
1041.000000 0.3560 0.3595 0.3632 0.3621 0.3634
1046.000000 0.3639 0.3637 0.3631 0.3488 0.3227
1051.000000 0.2967 0.2707 0.2446 0.2186 0.1925
1056.000000 0.1665 0.1405 0.1144 0.0935 0.0935
1061.000000 0.0954 0.0949 0.0969 0.1253 0.1547
1066.000000 0.1841 0.2135 0.2429 0.2722 0.3016
1071.000000 0.3310 0.3604 0.3898 0.4192 0.4486
1076.000000 0.4780 0.5074 0.5284 0.5305 0.5313
1081.000000 0.5320 0.5319 0.5317 0.5324 0.5073
1086.000000 0.4699 0.4326 0.3953 0.3579 0.3206
1091.000000 0.2832 0.2459 0.2085 0.1712 0.1338
1096.000000 0.1179 0.1132 0.1150 0.1114 0.1126
1101.000000 0.1261 0.1590 0.1919 0.2248 0.2577
1106.000000 0.2906 0.3235 0.3564 0.3893 0.4222
1111.000000 0.4551 0.4880 0.5209 0.5538 0.5867
1116.000000 0.5905 0.5905 0.5932 0.5889 0.5876
1121.000000 0.5686 0.5481 0.5275 0.5069 0.4863
1126.000000 0.4658 0.4452 0.4246 0.4040 0.3907
1131.000000 0.3707 0.3680 0.3653 0.3642 0.3644
1136.000000 0.3652 0.4174 0.4500 0.4826 0.5152
1141.000000 0.5478 0.5804 0.6130 0.6456 0.6551
1146.000000 0.6569 0.6578 0.6578 0.6578 0.6559
1151.000000 0.6548 0.6527 0.6460 0.6373 0.6157
1156.000000 0.5942 0.5726 0.5511 0.5296 0.5080
1161.000000 0.4865 0.4649 0.4434 0.4219 0.4003
1166.000000 0.3847 0.3851 0.3853 0.3873 0.3963
1171.000000 0.4053 0.4143 0.4233 0.4323 0.4408
1176.000000 0.4465 0.4532 0.4584 0.4618 0.4650
1181.000000 0.4680 0.4710 0.4740 0.4770 0.4800
1186.000000 0.4817 0.4831 0.4845 0.4860 0.4874
1191.000000 0.4888 0.4898 0.4897 0.4896 0.4896
1196.000000 0.4895 0.4893 0.4888 0.4883 0.4878
1201.000000 0.4873 0.4868 0.4863 0.4858 0.4853
1206.000000 0.4848 0.4835 0.4822 0.4809 0.4795
1211.000000 0.4783 0.4773 0.4762 0.4751 0.4740
1216.000000 0.4730 0.4719 0.4708 0.4698 0.4687
1221.000000 0.4683 0.4689 0.4695 0.4701 0.4708
1226.000000 0.4721 0.4746 0.4877 0.5026 0.5175
1231.000000 0.5325 0.5465 0.5593 0.5714 0.5834
1236.000000 0.5965 0.6105 0.6245 0.6388 0.6531
1241.000000 0.6626 0.6722 0.6818 0.6916 0.7012
1246.000000 0.7081 0.7146 0.7192 0.7228 0.7238
1251.000000 0.7248 0.7253 0.7255 0.7257 0.7256
1256.000000 0.7252 0.7245 0.7239 0.7225 0.7209
1261.000000 0.7192 0.7134 0.7058 0.6992 0.6931
1266.000000 0.6817 0.6583 0.6350 0.6116 0.5883
1271.000000 0.5649 0.5416 0.5182 0.4949 0.4715
1276.000000 0.4518 0.4477 0.4467 0.4466 0.4469
1281.000000 0.4473 0.4476 0.4478 0.4470 0.4431
1286.000000 0.4330 0.4036 0.3738 0.3439 0.3141
1291.000000 0.2843 0.2545 0.2246 0.1948 0.1650
1296.000000 0.1435 0.1284 0.1186 0.1167 0.1168
1301.000000 0.1159 0.1175 0.1195 0.1215 0.1239
1306.000000 0.1269 0.1299 0.1337 0.1377 0.1421
1311.000000 0.1466 0.1510 0.1564 0.1628 0.2003
1316.000000 0.2327 0.2650 0.2974 0.3297 0.3621
1321.000000 0.3944 0.4267 0.4591 0.4914 0.5238
1326.000000 0.5524 0.5663 0.5703 0.5712 0.5713
1331.000000 0.5706 0.5709 0.5696 0.5643 0.5576
1336.000000 0.5498 0.5379 0.5288 0.5230 0.5172
1341.000000 0.5094 0.4993 0.4796 0.4455 0.4059
1346.000000 0.3662 0.3266 0.2869 0.2472 0.2076
1351.000000 0.1679 0.1283 0.1005 0.0706 0.0556
1356.000000 0.0441 0.0383 0.0368 0.0354 0.0354
1361.000000 0.0355 0.0371 0.0386 0.0409 0.0446
1366.000000 0.0542 0.0791 0.1040 0.1290 0.1539
1371.000000 0.1788 0.2037 0.2286 0.2536 0.2785
1376.000000 0.3034 0.3283 0.3532 0.3781 0.4031
1381.000000 0.4280 0.4529 0.4778 0.5027 0.5277
1386.000000 0.5363 0.5575 0.5747 0.5772 0.5774
1391.000000 0.5775 0.5775 0.5775 0.5779 0.5769
1396.000000 0.5760 0.5745 0.5724 0.5567 0.5273
1401.000000 0.4980 0.4687 0.4393 0.4100 0.3807
1406.000000 0.3513 0.3220 0.2926 0.2633 0.2442
1411.000000 0.2333 0.2254 0.1992 0.1902 0.1828
1416.000000 0.1765 0.1728 0.1706 0.1703 0.1731
1421.000000 0.1720 0.1736 0.2042 0.2204 0.2242
1426.000000 0.2321 0.2442 0.2564 0.2685 0.2807
1431.000000 0.2929 0.3050 0.3172 0.3226 0.3236
1436.000000 0.3154 0.3047 0.2939 0.2831 0.2723
1441.000000 0.2615 0.2507 0.2399 0.2291 0.2198
1446.000000 0.2153 0.2096 0.2034 0.1961 0.1873
1451.000000 0.1786 0.1702 0.1616 0.1513 0.1410
1456.000000 0.1289 0.1096 0.0880 0.0766 0.0692
1461.000000 0.0621 0.0556 0.0501 0.0467 0.0434
1466.000000 0.0400 0.0369 0.0339 0.0323 0.0318
1471.000000 0.0323 0.0337 0.0339 0.0353 0.0373
1476.000000 0.0394 0.0425 0.0464 0.0520 0.0641
1481.000000 0.1418 0.1627 0.1843 0.2463 0.3034
1486.000000 0.3605 0.4176 0.4691 0.4741 0.4788
1491.000000 0.4863 0.5271 0.5571 0.5870 0.6170
1496.000000 0.6469 0.6769 0.6968 0.7014 0.7056
1501.000000 0.7098 0.7112 0.7126 0.7139 0.7152
1506.000000 0.7166 0.7269 0.7580 0.7643 0.7706
1511.000000 0.7754 0.7798 0.7817 0.7835 0.7852
1516.000000 0.7870 0.7885 0.7894 0.7903 0.7912
1521.000000 0.7922 0.7931 0.7937 0.7940 0.7943
1526.000000 0.7946 0.7949 0.7949 0.7948 0.7947
1531.000000 0.7944 0.7942 0.7940 0.7935 0.7930
1536.000000 0.7924 0.7919 0.7914 0.7902 0.7889
1541.000000 0.7875 0.7862 0.7841 0.7815 0.7788
1546.000000 0.7764 0.7764 0.7762 0.7760 0.7757
1551.000000 0.7755 0.7752 0.7725 0.7685 0.7637
1556.000000 0.7579 0.7542 0.7505 0.7461 0.7402
1561.000000 0.7343 0.7284 0.7223 0.7139 0.7055
1566.000000 0.6972 0.6876 0.6771 0.6644 0.6495
1571.000000 0.6465 0.6459 0.6453 0.6456 0.6481
1576.000000 0.6519 0.6551 0.6566 0.6571 0.6568
1581.000000 0.6566 0.6560 0.6552 0.6541 0.6519
1586.000000 0.6444 0.6235 0.6026 0.5817 0.5607
1591.000000 0.5398 0.5189 0.4980 0.4770 0.4561
1596.000000 0.4352 0.4223 0.4197 0.4540 0.6893
1601.000000 0.7127 0.7253 0.7322 0.7390 0.7458
1606.000000 0.7524 0.7590 0.7638 0.7666 0.7694
1611.000000 0.7723 0.7751 0.7774 0.7797 0.7820
1616.000000 0.7842 0.7855 0.7869 0.7882 0.7889
1621.000000 0.7892 0.7896 0.7900 0.7905 0.7909
1626.000000 0.7912 0.7915 0.7918 0.7921 0.7924
1631.000000 0.7926 0.7928 0.7930 0.7933 0.7933
1636.000000 0.7935 0.7937 0.7936 0.7935 0.7934
1641.000000 0.7933 0.7928 0.7921 0.7914 0.7907
1646.000000 0.7900 0.7855 0.7772 0.7692 0.7612
1651.000000 0.7533 0.7453 0.7373 0.7293 0.7213
1656.000000 0.7134 0.7054 0.6974 0.6894 0.6815
1661.000000 0.6753 0.6731 0.6695 0.6588 0.6443
1666.000000 0.6297 0.6152 0.6007 0.5861 0.5748
1671.000000 0.5650 0.5615 0.5597 0.5583 0.5573
1676.000000 0.5500 0.5428 0.5337 0.5221 0.4813
1681.000000 0.4406 0.3998 0.3591 0.3183 0.2775
1686.000000 0.2368 0.1960 0.1273 0.1157 0.0974
1691.000000 0.0771 0.0671 0.0571 0.0516 0.0462
1696.000000 0.0408 0.0356 0.0321 0.0286 0.0252
1701.000000 0.0279 0.0245 0.0252 0.0259 0.0268
1706.000000 0.0278 0.0288 0.0298 0.0307 0.0317
1711.000000 0.0327 0.0342 0.0362 0.0387 0.0432
1716.000000 0.0546 0.0694 0.0842 0.0990 0.1139
1721.000000 0.1287 0.1435 0.1583 0.1731 0.1879
1726.000000 0.2027 0.2266 0.2380 0.2417 0.2438
1731.000000 0.2457 0.2463 0.2468 0.2518 0.2474
1736.000000 0.2472 0.2462 0.2449 0.2434 0.2388
1741.000000 0.2228 0.2023 0.1818 0.1612 0.1407
1746.000000 0.1202 0.0997 0.0791 0.0590 0.0512
1751.000000 0.0457 0.0402 0.0347 0.0339 0.0333
1756.000000 0.0333 0.0341 0.0339 0.0347 0.0358
1761.000000 0.0372 0.0386 0.0401 0.0417 0.0435
1766.000000 0.0454 0.0476 0.0498 0.0520 0.0550
1771.000000 0.0582 0.0629 0.0746 0.0835 0.1440
1776.000000 0.1952 0.2465 0.2978 0.3490 0.4003
1781.000000 0.4515 0.5028 0.5216 0.5304 0.5385
1786.000000 0.5450 0.5515 0.5580 0.5627 0.5656
1791.000000 0.5684 0.5711 0.5735 0.5757 0.5778
1796.000000 0.5800 0.5857 0.5958 0.6029 0.6076
1801.000000 0.6124 0.6174 0.6228 0.6282 0.6336
1806.000000 0.6398 0.6478 0.6559 0.6640 0.6720
1811.000000 0.6788 0.6857 0.6926 0.6994 0.7060
1816.000000 0.7112 0.7163 0.7214 0.7266 0.7317
1821.000000 0.7368 0.7434 0.7507 0.7580 0.7653
1826.000000 0.7718 0.7781 0.7844 0.7908 0.8003
1831.000000 0.8097 0.8211 0.8356 0.8634 0.8770
1836.000000 0.8840 0.8884 0.8899 0.8914 0.8929
1841.000000 0.8942 0.8948 0.8955 0.8962 0.8968
1846.000000 0.8975 0.8982 0.8988 0.8994 0.8999
1851.000000 0.9003 0.9008 0.9012 0.9016 0.9021
1856.000000 0.9022 0.9024 0.9026 0.9028 0.9030
1861.000000 0.9031 0.9033 0.9035 0.9037 0.9038
1866.000000 0.9039 0.9038 0.9037 0.9036 0.9035
1871.000000 0.9034 0.9033 0.9030 0.9023 0.9015
1876.000000 0.9008 0.9001 0.8998 0.8995 0.8991
1881.000000 0.8988 0.8985 0.8982 0.8978 0.8976
1886.000000 0.8974 0.8972 0.8970 0.8968 0.8966
1891.000000 0.8964 0.8962 0.8961 0.8959 0.8957
1896.000000 0.8955 0.8954 0.8952 0.8950 0.8948
1901.000000 0.8946 0.8945 0.8943 0.8941 0.8939
1906.000000 0.8937 0.8936 0.8934 0.8932 0.8930
1911.000000 0.8929 0.8928 0.8927 0.8926 0.8925
1916.000000 0.8924 0.8923 0.8922 0.8923 0.8924
1921.000000 0.8926 0.8927 0.8929 0.8930 0.8932
1926.000000 0.8933 0.8948 0.8964 0.8979 0.8993
1931.000000 0.9008 0.9023 0.9037 0.9049 0.9052
1936.000000 0.9056 0.9059 0.9062 0.9066 0.9068
1941.000000 0.9070 0.9072 0.9074 0.9076 0.9078
1946.000000 0.9079 0.9080 0.9080 0.9081 0.9081
1951.000000 0.9082 0.9083 0.9082 0.9080 0.9078
1956.000000 0.9076 0.9074 0.9072 0.9070 0.9068
1961.000000 0.9066 0.9064 0.9063 0.9062 0.9061
1966.000000 0.9060 0.9059 0.9058 0.9057 0.9058
1971.000000 0.9060 0.9061 0.9063 0.9065 0.9066
1976.000000 0.9068 0.9070 0.9072 0.9073 0.9075
1981.000000 0.9079 0.9085 0.9090 0.9095 0.9100
1986.000000 0.9106 0.9120 0.9136 0.9151 0.9166
1991.000000 0.9180 0.9193 0.9207 0.9219 0.9229
1996.000000 0.9239 0.9249 0.9259 0.9264 0.9268
2001.000000 0.9273 0.9273 0.9269 0.9266 0.9263
2006.000000 0.9256 0.9249 0.9242 0.9235 0.9228
2011.000000 0.9220 0.9213 0.9206 0.9199 0.9192
2016.000000 0.9186 0.9182 0.9179 0.9175 0.9172
2021.000000 0.9168 0.9166 0.9164 0.9161 0.9159
2026.000000 0.9157 0.9155 0.9153 0.9153 0.9154
2031.000000 0.9155 0.9156 0.9157 0.9158 0.9158
2036.000000 0.9159 0.9160 0.9161 0.9163 0.9164
2041.000000 0.9166 0.9167 0.9168 0.9170 0.9171
2046.000000 0.9173 0.9174 0.9175 0.9177 0.9178
2051.000000 0.9180 0.9181 0.9183 0.9185 0.9187
2056.000000 0.9189 0.9191 0.9192 0.9194 0.9196
2061.000000 0.9198 0.9200 0.9202 0.9203 0.9226
2066.000000 0.9207 0.9209 0.9211 0.9213 0.9214
2071.000000 0.9216 0.9218 0.9220 0.9222 0.9224
2076.000000 0.9225 0.9227 0.9229 0.9231 0.9233
2081.000000 0.9235 0.9237 0.9239 0.9241 0.9242
2086.000000 0.9244 0.9246 0.9248 0.9250 0.9252
2091.000000 0.9254 0.9256 0.9258 0.9259 0.9261
2096.000000 0.9261 0.9262 0.9262 0.9263 0.9263
2101.000000 0.9264 0.9264 0.9265 0.9267 0.9268
2106.000000 0.9269 0.9270 0.9272 0.9273 0.9274
2111.000000 0.9275 0.9277 0.9278 0.9279 0.9281
2116.000000 0.9284 0.9287 0.9290 0.9293 0.9296
2121.000000 0.9299 0.9302 0.9307 0.9311 0.9316
2126.000000 0.9321 0.9326 0.9331 0.9335 0.9340
2131.000000 0.9345 0.9350 0.9354 0.9359 0.9363
2136.000000 0.9368 0.9366 0.9364 0.9362 0.9360
2141.000000 0.9358 0.9356 0.9354 0.9352 0.9350
2146.000000 0.9349 0.9347 0.9345 0.9343 0.9341
2151.000000 0.9339 0.9337 0.9332 0.9327 0.9323
2156.000000 0.9318 0.9313 0.9308 0.9304 0.9299
2161.000000 0.9293 0.9287 0.9281 0.9275 0.9269
2166.000000 0.9262 0.9257 0.9255 0.9256 0.9259
2171.000000 0.9262 0.9265 0.9265 0.9264 0.9264
2176.000000 0.9263 0.9263 0.9262 0.9260 0.9254
2181.000000 0.9248 0.9241 0.9235 0.9229 0.9223
2186.000000 0.9221 0.9218 0.9216 0.9213 0.9211
2191.000000 0.9208 0.9206 0.9203 0.9201 0.9201
2196.000000 0.9202 0.9203 0.9203 0.9204 0.9205
2201.000000 0.9205 0.9206 0.9207 0.9208 0.9209
2206.000000 0.9210 0.9211 0.9212 0.9212 0.9212
2211.000000 0.9211 0.9211 0.9210 0.9210 0.9209
2216.000000 0.9209 0.9207 0.9203 0.9200 0.9196
2221.000000 0.9193 0.9189 0.9186 0.9182 0.9177
2226.000000 0.9171 0.9167 0.9170 0.9173 0.9176
2231.000000 0.9181 0.9188 0.9196 0.9204 0.9212
2236.000000 0.9221 0.9228 0.9226 0.9225 0.9223
2241.000000 0.9222 0.9220 0.9220 0.9219 0.9218
2246.000000 0.9218 0.9217 0.9216 0.9214 0.9212
2251.000000 0.9210 0.9208 0.9206 0.9205 0.9204
2256.000000 0.9203 0.9202 0.9201 0.9200 0.9199
2261.000000 0.9198 0.9197 0.9196 0.9195 0.9195
2266.000000 0.9194 0.9193 0.9192 0.9191 0.9190
2271.000000 0.9191 0.9191 0.9192 0.9192 0.9192
2276.000000 0.9193 0.9193 0.9194 0.9194 0.9194
2281.000000 0.9194 0.9197 0.9201 0.9204 0.9207
2286.000000 0.9213 0.9223 0.9234 0.9245 0.9256
2291.000000 0.9263 0.9265 0.9266 0.9266 0.9262
2296.000000 0.9256 0.9248 0.9240 0.9232 0.9223
2301.000000 0.9211 0.9207 0.9208 0.9210 0.9211
2306.000000 0.9213 0.9214 0.9216 0.9217 0.9220
2311.000000 0.9223 0.9225 0.9228 0.9229 0.9230
2316.000000 0.9230 0.9231 0.9231 0.9232 0.9232
2321.000000 0.9232 0.9233 0.9234 0.9235 0.9235
2326.000000 0.9236 0.9237 0.9238 0.9238 0.9239
2331.000000 0.9240 0.9241 0.9243 0.9245 0.9247
2336.000000 0.9250 0.9252 0.9254 0.9256 0.9258
2341.000000 0.9260 0.9262 0.9264 0.9266 0.9268
2346.000000 0.9270 0.9272 0.9274 0.9276 0.9277
2351.000000 0.9279 0.9281 0.9283 0.9286 0.9289
2356.000000 0.9291 0.9294 0.9297 0.9300 0.9303
2361.000000 0.9310 0.9316 0.9323 0.9330 0.9336
2366.000000 0.9343 0.9351 0.9364 0.9377 0.9391
2371.000000 0.9404 0.9417 0.9430 0.9444 0.9457
2376.000000 0.9470 0.9484 0.9506 0.9531 0.9555
2381.000000 0.9580 0.9591 0.9595 0.9576 0.9544
2386.000000 0.9529 0.9521 0.9507 0.9492 0.9476
2391.000000 0.9455 0.9424 0.9393 0.9362 0.9325
2396.000000 0.9286 0.9248 0.9209 0.9176 0.9161
2401.000000 0.9145 0.9134 0.9126 0.9118 0.9110
2406.000000 0.9106 0.9104 0.9103 0.9103 0.9102
2411.000000 0.9102 0.9101 0.9101 0.9100 0.9100
2416.000000 0.9099 0.9097 0.9094 0.9091 0.9089
2421.000000 0.9085 0.9082 0.9079 0.9075 0.9073
2426.000000 0.9070 0.9068 0.9066 0.9064 0.9061
2431.000000 0.9059 0.9057 0.9055 0.9056 0.9056
2436.000000 0.9057 0.9058 0.9058 0.9059 0.9060
2441.000000 0.9061 0.9061 0.9062 0.9063 0.9064
2446.000000 0.9064 0.9065 0.9066 0.9067 0.9068
2451.000000 0.9069 0.9069 0.9070 0.9069 0.9067
2456.000000 0.9066 0.9064 0.9063 0.9061 0.9060
2461.000000 0.9059 0.9059 0.9058 0.9058 0.9058
2466.000000 0.9057 0.9057 0.9057 0.9056 0.9056
2471.000000 0.9056 0.9055 0.9054 0.9053 0.9052
2476.000000 0.9051 0.9049 0.9048 0.9047 0.9046
2481.000000 0.9044 0.9043 0.9043 0.9042 0.9041
2486.000000 0.9041 0.9040 0.9039 0.9038 0.9038
2491.000000 0.9037 0.9041 0.9049 0.9058 0.9066
2496.000000 0.9074 0.9074 0.9072 0.9071 0.9070
2501.000000 0.9068 0.9067 0.9066 0.9064 0.9063
2506.000000 0.9065 0.9067 0.9069 0.9071 0.9075
2511.000000 0.9080 0.9085 0.9089 0.9092 0.9096
2516.000000 0.9099 0.9102 0.9102 0.9102 0.9102
2521.000000 0.9102 0.9102 0.9102 0.9102 0.9101
2526.000000 0.9100 0.9099 0.9098 0.9097 0.9096
2531.000000 0.9096 0.9095 0.9094 0.9093 0.9093
2536.000000 0.9092 0.9091 0.9090 0.9087 0.9083
2541.000000 0.9079 0.9075 0.9071 0.9067 0.9063
2546.000000 0.9059 0.9054 0.9050 0.9045 0.9041
2551.000000 0.9036 0.9032 0.9027 0.9022 0.9018
2556.000000 0.9013 0.9009 0.9004 0.9000 0.8995
2561.000000 0.8991 0.8986 0.8982 0.8977 0.8973
2566.000000 0.8968 0.8963 0.8959 0.8954 0.8950
2571.000000 0.8945 0.8941 0.8936 0.8932 0.8927
2576.000000 0.8923 0.8918 0.8914 0.8910 0.8907
2581.000000 0.8903 0.8900 0.8896 0.8896 0.8895
2586.000000 0.8894 0.8893 0.8893 0.8892 0.8891
2591.000000 0.8890 0.8890 0.8889 0.8892 0.8894
2596.000000 0.8897 0.8900 0.8902 0.8905 0.8908
2601.000000 0.8910 0.8913 0.8916 0.8918 0.8921
2606.000000 0.8924 0.8926 0.8929 0.8932 0.8937
2611.000000 0.8941 0.8946 0.8950 0.8955 0.8960
2616.000000 0.8964 0.8969 0.8973 0.8978 0.8982
2621.000000 0.8987 0.8991 0.8998 0.9005 0.9012
2626.000000 0.9019 0.9023 0.9026 0.9029 0.9033
2631.000000 0.9036 0.9040 0.9043 0.9046 0.9045
2636.000000 0.9045 0.9044 0.9043 0.9043 0.9042
2641.000000 0.9038 0.9034 0.9031 0.9027 0.9024
2646.000000 0.9020 0.9016 0.9021 0.9026 0.9031
2651.000000 0.9036 0.9040 0.9045 0.9050 0.9054
2656.000000 0.9055 0.9057 0.9058 0.9059 0.9061
2661.000000 0.9061 0.9059 0.9057 0.9056 0.9054
2666.000000 0.9052 0.9050 0.9049 0.9047 0.9045
2671.000000 0.9043 0.9040 0.9036 0.9032 0.9028
2676.000000 0.9024 0.9020 0.9016 0.9018 0.9020
2681.000000 0.9023 0.9025 0.9027 0.9029 0.9032
2686.000000 0.9034 0.9036 0.9038 0.9042 0.9046
2691.000000 0.9051 0.9055 0.9056 0.9058 0.9057
2696.000000 0.9054 0.9051 0.9049 0.9046 0.9043
2701.000000 0.9040 0.9038 0.9036 0.9034 0.9032
2706.000000 0.9030 0.9027 0.9025 0.9022 0.9019
2711.000000 0.9017 0.9014 0.9012 0.9009 0.9007
2716.000000 0.9004 0.9003 0.9001 0.9000 0.8999
2721.000000 0.8997 0.8996 0.8994 0.8993 0.8991
2726.000000 0.8990 0.8988 0.8987 0.8985 0.8984
2731.000000 0.8982 0.8982 0.8982 0.8982 0.8982
2736.000000 0.8982 0.8982 0.8982 0.8982 0.8982
2741.000000 0.8982 0.8981 0.8980 0.8979 0.8978
2746.000000 0.8977 0.8976 0.8975 0.8974 0.8974
2751.000000 0.8973 0.8972 0.8969 0.8966 0.8962
2756.000000 0.8958 0.8954 0.8950 0.8946 0.8943
2761.000000 0.8939 0.8935 0.8931 0.8927 0.8922
2766.000000 0.8915 0.8909 0.8902 0.8896 0.8889
2771.000000 0.8882 0.8876 0.8869 0.8860 0.8843
2776.000000 0.8826 0.8809 0.8796 0.8786 0.8777
2781.000000 0.8767 0.8758 0.8748 0.8739 0.8729
2786.000000 0.8720 0.8710 0.8703 0.8697 0.8690
2791.000000 0.8684 0.8678 0.8671 0.8665 0.8659
2796.000000 0.8652 0.8645 0.8635 0.8624 0.8613
2801.000000 0.8602 0.8591 0.8581 0.8570 0.8559
2806.000000 0.8548 0.8537 0.8527 0.8516 0.8505
2811.000000 0.8486 0.8468 0.8450 0.8432 0.8407
2816.000000 0.8254 0.8102 0.7949 0.7797 0.7645
2821.000000 0.7492 0.7340 0.7187 0.7035 0.6883
2826.000000 0.6730 0.6633 0.6581 0.6566 0.6566
2831.000000 0.6566 0.6528 0.6654 0.6812 0.6970
2836.000000 0.7128 0.7286 0.7444 0.7543 0.7605
2841.000000 0.7664 0.7721 0.7778 0.7841 0.7905
2846.000000 0.7968 0.8030 0.8078 0.8127 0.8178
2851.000000 0.8166 0.8173 0.8175 0.8168 0.8160
2856.000000 0.8153 0.8146 0.8135 0.8122 0.8109
2861.000000 0.8097 0.8081 0.8063 0.8043 0.8015
2866.000000 0.7987 0.7959 0.7931 0.7904 0.7878
2871.000000 0.7852 0.7825 0.7799 0.7769 0.7739
2876.000000 0.7708 0.7678 0.7648 0.7617 0.7589
2881.000000 0.7563 0.7537 0.7511 0.7485 0.7459
2886.000000 0.7433 0.7412 0.7390 0.7369 0.7347
2891.000000 0.7326 0.7304 0.7291 0.7282 0.7273
2896.000000 0.7264 0.7259 0.7262 0.7265 0.7268
2901.000000 0.7269 0.7269 0.7269 0.7269 0.7270
2906.000000 0.7270 0.7264 0.7246 0.7203 0.7080
2911.000000 0.6957 0.6834 0.6711 0.6588 0.6465
2916.000000 0.6342 0.6219 0.6096 0.5973 0.5850
2921.000000 0.5726 0.5603 0.5480 0.5357 0.5234
2926.000000 0.5111 0.4988 0.4889 0.4832 0.4801
2931.000000 0.4770 0.4741 0.4735 0.4730 0.4736
2936.000000 0.4699 0.4753 0.4770 0.4830 0.5070
2941.000000 0.5310 0.5550 0.5790 0.5878 0.5890
2946.000000 0.5885 0.5922 0.5870 0.5857 0.5842
2951.000000 0.5810 0.5774 0.5722 0.5674 0.5626
2956.000000 0.5584 0.5556 0.5527 0.5519 0.5490
2961.000000 0.5525 0.5528 0.5538 0.5550 0.5563
2966.000000 0.5638 0.5737 0.5833 0.5927 0.6019
2971.000000 0.6084 0.6140 0.6240 0.6331 0.6341
2976.000000 0.6348 0.6373 0.6354 0.6348 0.6342
2981.000000 0.6335 0.6326 0.6306 0.6286 0.6255
2986.000000 0.6223 0.6176 0.6117 0.6042 0.5950
2991.000000 0.5842 0.5735 0.5627 0.5519 0.5411
2996.000000 0.5304 0.5196 0.5088 0.4976 0.4860
3001.000000 0.4776 0.4712 0.4670 0.4628 0.4595
3006.000000 0.4579 0.4562 0.4559 0.4555 0.4552
3011.000000 0.4548 0.4570 0.4554 0.4558 0.4561
3016.000000 0.4574 0.4594 0.4614 0.4634 0.4669
3021.000000 0.4709 0.4749 0.4904 0.5114 0.5324
3026.000000 0.5534 0.5737 0.5874 0.6001 0.6351
3031.000000 0.6416 0.6480 0.6547 0.6616 0.6685
3036.000000 0.6759 0.6875 0.6991 0.7104 0.7169
3041.000000 0.7234 0.7299 0.7362 0.7417 0.7473
3046.000000 0.7529 0.7564 0.7595 0.7626 0.7657
3051.000000 0.7678 0.7698 0.7719 0.7740 0.7761
3056.000000 0.7781 0.7802 0.7823 0.7843 0.7864
3061.000000 0.7883 0.7903 0.7922 0.7941 0.7961
3066.000000 0.7980 0.7992 0.8002 0.8013 0.8024
3071.000000 0.8034 0.8041 0.8047 0.8052 0.8058
3076.000000 0.8064 0.8070 0.8076 0.8081 0.8087
3081.000000 0.8089 0.8090 0.8090 0.8091 0.8091
3086.000000 0.8092 0.8092 0.8093 0.8095 0.8099
3091.000000 0.8103 0.8116 0.8141 0.8166 0.8192
3096.000000 0.8217 0.8258 0.8297 0.8332 0.8356
3101.000000 0.8380 0.8404 0.8428 0.8444 0.8455
3106.000000 0.8467 0.8478 0.8489 0.8500 0.8510
3111.000000 0.8517 0.8525 0.8532 0.8540 0.8548
3116.000000 0.8555 0.8563 0.8571 0.8578 0.8586
3121.000000 0.8593 0.8601 0.8608 0.8614 0.8620
3126.000000 0.8626 0.8632 0.8637 0.8643 0.8649
3131.000000 0.8655 0.8659 0.8663 0.8667 0.8671
3136.000000 0.8675 0.8679 0.8683 0.8687 0.8691
3141.000000 0.8695 0.8699 0.8703 0.8707 0.8711
3146.000000 0.8715 0.8718 0.8721 0.8724 0.8727
3151.000000 0.8729 0.8732 0.8735 0.8738 0.8741
3156.000000 0.8743 0.8746 0.8749 0.8752 0.8755
3161.000000 0.8758 0.8760 0.8763 0.8766 0.8769
3166.000000 0.8772 0.8824 0.8778 0.8781 0.8784
3171.000000 0.8787 0.8790 0.8793 0.8796 0.8798
3176.000000 0.8801 0.8804 0.8803 0.8801 0.8799
3181.000000 0.8798 0.8796 0.8794 0.8792 0.8790
3186.000000 0.8786 0.8782 0.8777 0.8773 0.8772
3191.000000 0.8774 0.8777 0.8779 0.8782 0.8787
3196.000000 0.8793 0.8799 0.8805 0.8810 0.8816
3201.000000 0.8822 0.8828 0.8834 0.8840 0.8846
3206.000000 0.8850 0.8854 0.8858 0.8862 0.8866
3211.000000 0.8870 0.8873 0.8876 0.8877 0.8879
3216.000000 0.8881 0.8883 0.8885 0.8886 0.8888
3221.000000 0.8890 0.8892 0.8894 0.8895 0.8897
3226.000000 0.8899 0.8901 0.8903 0.8905 0.8905
3231.000000 0.8906 0.8906 0.8907 0.8907 0.8908
3236.000000 0.8908 0.8908 0.8909 0.8909 0.8910
3241.000000 0.8910 0.8911 0.8911 0.8912 0.8912
3246.000000 0.8912 0.8912 0.8912 0.8912 0.8911
3251.000000 0.8911 0.8911 0.8911 0.8910 0.8910
3256.000000 0.8910 0.8910 0.8909 0.8909 0.8909
3261.000000 0.8909 0.8908 0.8908 0.8908 0.8907
3266.000000 0.8907 0.8907 0.8907 0.8906 0.8906
3271.000000 0.8906 0.8906 0.8905 0.8905 0.8904
3276.000000 0.8904 0.8903 0.8903 0.8902 0.8902
3281.000000 0.8901 0.8900 0.8900 0.8899 0.8899
3286.000000 0.8898 0.8898 0.8897 0.8897 0.8896
3291.000000 0.8895 0.8895 0.8894 0.8892 0.8889
3296.000000 0.8886 0.8883 0.8880 0.8877 0.8874
3301.000000 0.8871 0.8868 0.8865 0.8861 0.8858
3306.000000 0.8855 0.8852 0.8849 0.8847 0.8846
3311.000000 0.8844 0.8842 0.8840 0.8839 0.8837
3316.000000 0.8835 0.8834 0.8832 0.8830 0.8829
3321.000000 0.8827 0.8826 0.8825 0.8824 0.8824
3326.000000 0.8823 0.8822 0.8822 0.8821 0.8820
3331.000000 0.8820 0.8819 0.8818 0.8818 0.8817
3336.000000 0.8816 0.8816 0.8815 0.8814 0.8812
3341.000000 0.8811 0.8809 0.8808 0.8806 0.8805
3346.000000 0.8803 0.8802 0.8800 0.8799 0.8797
3351.000000 0.8796 0.8794 0.8793 0.8791 0.8790
3356.000000 0.8788 0.8787 0.8785 0.8784 0.8782
3361.000000 0.8781 0.8779 0.8778 0.8776 0.8775
3366.000000 0.8774 0.8773 0.8772 0.8770 0.8769
3371.000000 0.8768 0.8767 0.8766 0.8765 0.8764
3376.000000 0.8762 0.8760 0.8756 0.8752 0.8748
3381.000000 0.8744 0.8739 0.8735 0.8731 0.8726
3386.000000 0.8719 0.8711 0.8704 0.8697 0.8689
3391.000000 0.8682 0.8675 0.8668 0.8661 0.8658
3396.000000 0.8655 0.8652 0.8649 0.8645 0.8642
3401.000000 0.8639 0.8636 0.8632 0.8629 0.8626
3406.000000 0.8623 0.8619 0.8616 0.8613 0.8610
3411.000000 0.8607 0.8604 0.8603 0.8602 0.8600
3416.000000 0.8599 0.8597 0.8596 0.8595 0.8593
3421.000000 0.8592 0.8590 0.8589 0.8588 0.8586
3426.000000 0.8585 0.8583 0.8582 0.8581 0.8579
3431.000000 0.8578 0.8576 0.8575 0.8572 0.8570
3436.000000 0.8567 0.8564 0.8562 0.8559 0.8557
3441.000000 0.8554 0.8551 0.8549 0.8546 0.8544
3446.000000 0.8541 0.8536 0.8532 0.8527 0.8522
3451.000000 0.8517 0.8513 0.8508 0.8505 0.8502
3456.000000 0.8499 0.8495 0.8492 0.8489 0.8486
3461.000000 0.8483 0.8480 0.8483 0.8487 0.8492
3466.000000 0.8496 0.8500 0.8504 0.8508 0.8512
3471.000000 0.8517 0.8523 0.8529 0.8535 0.8542
3476.000000 0.8548 0.8556 0.8568 0.8581 0.8591
3481.000000 0.8598 0.8605 0.8612 0.8619 0.8626
3486.000000 0.8633 0.8640 0.8646 0.8653 0.8656
3491.000000 0.8656 0.8656 0.8654 0.8650 0.8646
3496.000000 0.8642 0.8638 0.8634 0.8630 0.8625
3501.000000 0.8621 0.8616 0.8611 0.8607 0.8605
3506.000000 0.8604 0.8603 0.8602 0.8601 0.8600
3511.000000 0.8598 0.8597 0.8596 0.8596 0.8597
3516.000000 0.8599 0.8600 0.8602 0.8604 0.8605
3521.000000 0.8607 0.8609 0.8612 0.8614 0.8616
3526.000000 0.8619 0.8621 0.8624 0.8626 0.8628
3531.000000 0.8631 0.8633 0.8635 0.8638 0.8640
3536.000000 0.8643 0.8645 0.8647 0.8650 0.8654
3541.000000 0.8658 0.8662 0.8666 0.8670 0.8674
3546.000000 0.8678 0.8682 0.8686 0.8690 0.8694
3551.000000 0.8700 0.8706 0.8712 0.8718 0.8724
3556.000000 0.8730 0.8736 0.8742 0.8748 0.8751
3561.000000 0.8747 0.8741 0.8735 0.8729 0.8723
3566.000000 0.8717 0.8711 0.8713 0.8717 0.8729
3571.000000 0.8747 0.8765 0.8783 0.8801 0.8810
3576.000000 0.8819 0.8827 0.8836 0.8844 0.8846
3581.000000 0.8847 0.8848 0.8850 0.8851 0.8851
3586.000000 0.8849 0.8846 0.8844 0.8841 0.8838
3591.000000 0.8836 0.8832 0.8829 0.8826 0.8823
3596.000000 0.8825 0.8834 0.8842 0.8851 0.8859
3601.000000 0.8868 0.8878 0.8888 0.8898 0.8906
3606.000000 0.8909 0.8912 0.8915 0.8918 0.8919
3611.000000 0.8920 0.8921 0.8922 0.8923 0.8923
3616.000000 0.8924 0.8925 0.8924 0.8923 0.8922
3621.000000 0.8921 0.8920 0.8919 0.8919 0.8918
3626.000000 0.8912 0.8905 0.8899 0.8892 0.8886
3631.000000 0.8879 0.8872 0.8866 0.8859 0.8854
3636.000000 0.8849 0.8845 0.8840 0.8836 0.8831
3641.000000 0.8827 0.8822 0.8818 0.8813 0.8809
3646.000000 0.8804 0.8799 0.8795 0.8793 0.8791
3651.000000 0.8788 0.8786 0.8784 0.8781 0.8779
3656.000000 0.8777 0.8775 0.8772 0.8770 0.8770
3661.000000 0.8773 0.8775 0.8777 0.8780 0.8782
3666.000000 0.8784 0.8786 0.8789 0.8791 0.8793
3671.000000 0.8796 0.8798 0.8800 0.8803 0.8805
3676.000000 0.8807 0.8810 0.8812 0.8814 0.8817
3681.000000 0.8819 0.8822 0.8824 0.8826 0.8829
3686.000000 0.8831 0.8834 0.8836 0.8838 0.8841
3691.000000 0.8843 0.8847 0.8850 0.8853 0.8857
3696.000000 0.8860 0.8863 0.8867 0.8870 0.8873
3701.000000 0.8877 0.8880 0.8883 0.8887 0.8890
3706.000000 0.8893 0.8895 0.8897 0.8899 0.8901
3711.000000 0.8903 0.8905 0.8907 0.8909 0.8911
3716.000000 0.8912 0.8912 0.8912 0.8913 0.8913
3721.000000 0.8914 0.8914 0.8915 0.8915 0.8916
3726.000000 0.8917 0.8918 0.8918 0.8920 0.8922
3731.000000 0.8924 0.8925 0.8927 0.8929 0.8931
3736.000000 0.8933 0.8935 0.8937 0.8939 0.8941
3741.000000 0.8942 0.8942 0.8942 0.8943 0.8943
3746.000000 0.8943 0.8943 0.8944 0.8944 0.8944
3751.000000 0.8944 0.8944 0.8945 0.8945 0.8945
3756.000000 0.8945 0.8945 0.8946 0.8946 0.8946
3761.000000 0.8945 0.8944 0.8944 0.8943 0.8942
3766.000000 0.8942 0.8941 0.8940 0.8940 0.8939
3771.000000 0.8938 0.8938 0.8937 0.8936 0.8936
3776.000000 0.8935 0.8933 0.8931 0.8929 0.8927
3781.000000 0.8926 0.8924 0.8922 0.8920 0.8918
3786.000000 0.8916 0.8914 0.8912 0.8910 0.8908
3791.000000 0.8906 0.8904 0.8902 0.8900 0.8898
3796.000000 0.8895 0.8891 0.8887 0.8882 0.8878
3801.000000 0.8874 0.8870 0.8866 0.8862 0.8858
3806.000000 0.8853 0.8849 0.8845 0.8841 0.8837
3811.000000 0.8833 0.8829 0.8828 0.8828 0.8827
3816.000000 0.8827 0.8827 0.8826 0.8826 0.8826
3821.000000 0.8825 0.8825 0.8825 0.8828 0.8831
3826.000000 0.8834 0.8837 0.8840 0.8843 0.8845
3831.000000 0.8848 0.8851 0.8852 0.8852 0.8852
3836.000000 0.8852 0.8852 0.8852 0.8853 0.8853
3841.000000 0.8853 0.8853 0.8853 0.8853 0.8853
3846.000000 0.8854 0.8854 0.8854 0.8854 0.8854
3851.000000 0.8854 0.8855 0.8855 0.8855 0.8855
3856.000000 0.8855 0.8855 0.8855 0.8856 0.8855
3861.000000 0.8854 0.8852 0.8851 0.8850 0.8849
3866.000000 0.8847 0.8846 0.8845 0.8843 0.8842
3871.000000 0.8841 0.8840 0.8838 0.8837 0.8836
3876.000000 0.8835 0.8833 0.8832 0.8831 0.8830
3881.000000 0.8828 0.8827 0.8826 0.8825 0.8823
3886.000000 0.8822 0.8821 0.8820 0.8818 0.8817
3891.000000 0.8817 0.8816 0.8815 0.8815 0.8814
3896.000000 0.8813 0.8813 0.8812 0.8812 0.8811
3901.000000 0.8810 0.8810 0.8809 0.8808 0.8808
3906.000000 0.8807 0.8806 0.8806 0.8805 0.8804
3911.000000 0.8804 0.8803 0.8802 0.8802 0.8801
3916.000000 0.8800 0.8800 0.8799 0.8798 0.8798
3921.000000 0.8797 0.8796 0.8796 0.8795 0.8795
3926.000000 0.8795 0.8795 0.8795 0.8795 0.8795
3931.000000 0.8795 0.8796 0.8796 0.8796 0.8796
3936.000000 0.8796 0.8796 0.8796 0.8796 0.8796
3941.000000 0.8796 0.8796 0.8796 0.8796 0.8796
3946.000000 0.8796 0.8796 0.8796 0.8796 0.8796
3951.000000 0.8796 0.8796 0.8797 0.8797 0.8798
3956.000000 0.8799 0.8800 0.8800 0.8801 0.8802
3961.000000 0.8803 0.8803 0.8804 0.8805 0.8806
3966.000000 0.8806 0.8807 0.8808 0.8809 0.8809
3971.000000 0.8810 0.8811 0.8812 0.8814 0.8815
3976.000000 0.8817 0.8818 0.8820 0.8822 0.8823
3981.000000 0.8825 0.8826 0.8828 0.8829 0.8831
3986.000000 0.8833 0.8834 0.8836 0.8837 0.8839
3991.000000 0.8841 0.8842 0.8844 0.8845 0.8847
3996.000000 0.8848 0.8850 0.8852 0.8853 0.8854
##END=
