##TITLE=POTASSIUM PYROSULFATE
$$ J. T. BAKER
##JCAMP-DX=4.24
##DATA TYPE=INFRARED SPECTRUM
##CLASS=COBLENTZ
##ORIGIN=WYANDOTTE CHEMICALS CORP., WYANDOTTE, MICHIGAN, USA
##OWNER=COBLENTZ SOCIETY
Collection (C) 2018 copyright by the U.S. Secretary of Commerce
on behalf of the United States of America. All rights reserved.
##DATE=Not specified, most likely prior to 1970
##MOLFORM=K2 S2 O7
##SOURCE REFERENCE=COBLENTZ NO. 3070
##$NIST ID=B6003070
##$NIST SOURCE=COBLENTZ
##$NIST IMAGE=cob3070
##SPECTROMETER/DATA SYSTEM=Not specified, most likely a prism, grating, or hybrid spectrometer.
##STATE=SOLID (MINERAL OIL MULL)
##PATH LENGTH=
$$SPECTRAL CONTAMINATION DUE TO OIL AROUND 2900, 1450 CM^-^1
##SAMPLING PROCEDURE=TRANSMISSION
##RESOLUTION=4
##DATA PROCESSING=DIGITIZED BY NIST FROM HARD COPY
##XUNITS=MICROMETERS
##YUNITS=TRANSMITTANCE
##XFACTOR=1.000000
##YFACTOR=1
##DELTAX=000.006823
##FIRSTX=2.014
##LASTX=15.973
##FIRSTY=0.981
##MAXX=15.973
##MINX=2.014
##MAXY=0.989
##MINY=0.056
##NPOINTS=2047
##XYDATA=(X++(Y..Y))
2.014000 0.9810 0.9810 0.9820 0.9820 0.9820
2.048130 0.9820 0.9820 0.9810 0.9810 0.9790
2.082000 0.9790 0.9810 0.9860 0.9860 0.9840
2.116130 0.9840 0.9840 0.9820 0.9790 0.9760
2.150000 0.9720 0.9720 0.9700 0.9690 0.9690
2.184130 0.9690 0.9670 0.9650 0.9600 0.9580
2.218000 0.9580 0.9580 0.9580 0.9580 0.9580
2.252130 0.9600 0.9580 0.9580 0.9580 0.9580
2.287000 0.9580 0.9570 0.9570 0.9570 0.9570
2.321130 0.9570 0.9550 0.9550 0.9550 0.9570
2.355000 0.9550 0.9550 0.9570 0.9580 0.9580
2.389130 0.9600 0.9600 0.9600 0.9620 0.9640
2.423000 0.9640 0.9620 0.9620 0.9580 0.9570
2.457130 0.9580 0.9580 0.9550 0.9550 0.9520
2.491000 0.9550 0.9550 0.9600 0.9650 0.9690
2.525130 0.9720 0.9760 0.9760 0.9770 0.9820
2.559000 0.9840 0.9820 0.9760 0.9690 0.9600
2.593130 0.9580 0.9580 0.9600 0.9720 0.9820
2.628000 0.9880 0.9890 0.9880 0.9840 0.9810
2.662130 0.9770 0.9770 0.9790 0.9790 0.9760
2.696000 0.9740 0.9740 0.9700 0.9700 0.9720
2.730130 0.9720 0.9700 0.9690 0.9690 0.9650
2.764000 0.9640 0.9620 0.9580 0.9530 0.9500
2.798130 0.9480 0.9450 0.9450 0.9430 0.9410
2.832000 0.9380 0.9330 0.9310 0.9280 0.9240
2.866130 0.9240 0.9220 0.9210 0.9140 0.9120
2.901000 0.9120 0.9120 0.9140 0.9120 0.9090
2.935130 0.9020 0.9000 0.9000 0.9000 0.8980
2.969000 0.8970 0.8930 0.8900 0.8860 0.8800
3.003130 0.8730 0.8690 0.8680 0.8640 0.8570
3.037000 0.8510 0.8450 0.8400 0.8400 0.8350
3.071130 0.8270 0.8200 0.8130 0.8110 0.8040
3.105000 0.8010 0.7990 0.7910 0.7840 0.7800
3.139130 0.7730 0.7670 0.7630 0.7550 0.7460
3.173000 0.7390 0.7320 0.7270 0.7170 0.7120
3.207130 0.7080 0.7020 0.6980 0.6900 0.6830
3.242000 0.6790 0.6760 0.6710 0.6590 0.6480
3.276130 0.6380 0.6280 0.6160 0.6020 0.5830
3.310000 0.5560 0.5200 0.4720 0.4100 0.3270
3.344130 0.2410 0.1600 0.1190 0.1010 0.0990
3.378000 0.0950 0.0920 0.0890 0.0890 0.0900
3.412130 0.1040 0.1180 0.1310 0.1450 0.1590
3.446000 0.1810 0.2020 0.2050 0.2030 0.1900
3.480130 0.1810 0.1790 0.1810 0.2150 0.2750
3.515000 0.3560 0.4220 0.4940 0.5440 0.5710
3.549130 0.5890 0.6020 0.6110 0.6190 0.6310
3.583000 0.6380 0.6430 0.6520 0.6600 0.6660
3.617130 0.6670 0.6690 0.6710 0.6760 0.6830
3.651000 0.6860 0.6880 0.6900 0.6910 0.6960
3.685130 0.7020 0.7050 0.7080 0.7150 0.7220
3.719000 0.7290 0.7310 0.7310 0.7220 0.7220
3.753130 0.7260 0.7260 0.7260 0.7220 0.7200
3.788000 0.7200 0.7190 0.7140 0.7100 0.7050
3.822130 0.7020 0.6980 0.6960 0.6950 0.6950
3.856000 0.6950 0.6950 0.6960 0.7050 0.7140
3.890130 0.7200 0.7200 0.7240 0.7260 0.7270
3.924000 0.7290 0.7290 0.7290 0.7290 0.7290
3.958130 0.7270 0.7260 0.7240 0.7200 0.7190
3.992000 0.7120 0.7050 0.7020 0.6980 0.6980
4.026130 0.6900 0.6840 0.6840 0.6840 0.6860
4.060000 0.6860 0.6860 0.6860 0.6860 0.6860
4.094130 0.6880 0.6910 0.6930 0.6930 0.6950
4.129000 0.6950 0.6930 0.6930 0.6930 0.6930
4.163130 0.6930 0.6930 0.6930 0.6950 0.6960
4.197000 0.6960 0.6960 0.6950 0.6900 0.6790
4.231130 0.6690 0.6640 0.6640 0.6670 0.6720
4.265000 0.6830 0.6960 0.7050 0.7120 0.7190
4.299130 0.7260 0.7270 0.7310 0.7410 0.7510
4.333000 0.7600 0.7750 0.7870 0.7970 0.8030
4.367130 0.8060 0.8080 0.8080 0.8080 0.8060
4.402000 0.7960 0.7890 0.7870 0.7850 0.7840
4.436130 0.7800 0.7790 0.7770 0.7800 0.7910
4.470000 0.7990 0.8010 0.8030 0.8030 0.8090
4.504130 0.8130 0.8150 0.8160 0.8160 0.8200
4.538000 0.8210 0.8210 0.8210 0.8230 0.8250
4.572130 0.8250 0.8270 0.8280 0.8270 0.8300
4.606000 0.8300 0.8300 0.8300 0.8300 0.8320
4.640130 0.8320 0.8330 0.8350 0.8390 0.8400
4.674000 0.8400 0.8420 0.8450 0.8470 0.8490
4.708130 0.8490 0.8510 0.8520 0.8520 0.8540
4.743000 0.8570 0.8610 0.8630 0.8630 0.8640
4.777130 0.8640 0.8660 0.8660 0.8680 0.8690
4.811000 0.8690 0.8710 0.8750 0.8760 0.8780
4.845130 0.8780 0.8780 0.8780 0.8780 0.8780
4.879000 0.8800 0.8810 0.8860 0.8880 0.8900
4.913130 0.8920 0.8920 0.8920 0.8930 0.8930
4.947000 0.8950 0.8930 0.8950 0.8980 0.8980
4.981130 0.9000 0.9000 0.9020 0.9020 0.9020
5.016000 0.9020 0.9000 0.9000 0.8970 0.8860
5.050130 0.8860 0.8900 0.8970 0.8970 0.8980
5.084000 0.9000 0.8980 0.9000 0.9000 0.9000
5.118130 0.9000 0.9020 0.9020 0.9000 0.8970
5.152000 0.8970 0.8950 0.8950 0.8970 0.9040
5.186130 0.9050 0.9050 0.9020 0.8970 0.8920
5.220000 0.8900 0.8920 0.8920 0.8930 0.8930
5.254130 0.9000 0.9000 0.8950 0.8930 0.8930
5.288000 0.8930 0.8950 0.9000 0.9000 0.9000
5.322130 0.9000 0.9000 0.8930 0.8880 0.8850
5.357000 0.8850 0.8920 0.9000 0.9020 0.9020
5.391130 0.8970 0.8920 0.8920 0.8900 0.8850
5.425000 0.8850 0.8880 0.8930 0.8970 0.9000
5.459130 0.8920 0.8850 0.8830 0.8850 0.9020
5.493000 0.9040 0.9020 0.8900 0.8850 0.8830
5.527130 0.8850 0.8830 0.8830 0.8810 0.8800
5.561000 0.8800 0.8780 0.8800 0.8830 0.8850
5.595130 0.8850 0.8800 0.8710 0.8690 0.8690
5.630000 0.8690 0.8710 0.8750 0.8780 0.8780
5.664130 0.8710 0.8640 0.8610 0.8540 0.8510
5.698000 0.8470 0.8510 0.8470 0.8470 0.8450
5.732130 0.8420 0.8420 0.8490 0.8630 0.8630
5.766000 0.8560 0.8320 0.8230 0.8230 0.8350
5.800130 0.8470 0.8510 0.8510 0.8370 0.8280
5.834000 0.8210 0.8180 0.8180 0.8230 0.8330
5.868130 0.8510 0.8540 0.8540 0.8400 0.8250
5.903000 0.8250 0.8280 0.8330 0.8330 0.8300
5.937130 0.8160 0.8130 0.8130 0.8130 0.8210
5.971000 0.8200 0.8110 0.8080 0.8040 0.7960
6.005130 0.7890 0.7890 0.7970 0.8090 0.8130
6.039000 0.8150 0.8130 0.7940 0.7940 0.7990
6.073130 0.8150 0.8160 0.8110 0.8040 0.7990
6.107000 0.8010 0.8060 0.8090 0.8130 0.8160
6.141130 0.8180 0.8180 0.8180 0.8180 0.8160
6.175000 0.8160 0.8160 0.8160 0.8150 0.8180
6.209130 0.8200 0.8230 0.8300 0.8320 0.8330
6.244000 0.8320 0.8280 0.8280 0.8280 0.8270
6.278130 0.8300 0.8330 0.8350 0.8370 0.8370
6.312000 0.8390 0.8390 0.8350 0.8230 0.8130
6.346130 0.8110 0.8130 0.8180 0.8280 0.8330
6.380000 0.8350 0.8350 0.8280 0.8110 0.8010
6.414130 0.7920 0.7890 0.7910 0.7940 0.8010
6.448000 0.8060 0.8080 0.8080 0.8060 0.8010
6.482130 0.7990 0.7960 0.7920 0.7920 0.7940
6.517000 0.7990 0.8010 0.8010 0.8040 0.8080
6.551130 0.8080 0.8060 0.7910 0.7910 0.7970
6.585000 0.8060 0.8130 0.8160 0.8160 0.8060
6.619130 0.8030 0.8010 0.8010 0.8010 0.8010
6.653000 0.7990 0.7990 0.7970 0.7940 0.7870
6.687130 0.7840 0.7680 0.7530 0.7460 0.7320
6.721000 0.7220 0.6980 0.6660 0.6250 0.5780
6.755130 0.5290 0.5000 0.4860 0.4670 0.4500
6.789000 0.4450 0.4410 0.4410 0.4500 0.4700
6.823130 0.4860 0.4980 0.5010 0.5030 0.5150
6.858000 0.5320 0.5470 0.5580 0.5750 0.5830
6.892130 0.5900 0.5990 0.6140 0.6350 0.6550
6.926000 0.6810 0.7020 0.7120 0.7200 0.7290
6.960130 0.7340 0.7380 0.7430 0.7440 0.7480
6.994000 0.7500 0.7510 0.7510 0.7510 0.7530
7.028130 0.7530 0.7530 0.7530 0.7530 0.7510
7.062000 0.7500 0.7440 0.7430 0.7430 0.7460
7.096130 0.7460 0.7410 0.7360 0.7320 0.7340
7.131000 0.7340 0.7320 0.7290 0.7220 0.7140
7.165130 0.6960 0.6640 0.6420 0.6210 0.5970
7.199000 0.5730 0.5560 0.5420 0.5300 0.5080
7.233130 0.5010 0.5010 0.5080 0.5420 0.5560
7.267000 0.5660 0.5700 0.5680 0.5610 0.5530
7.301130 0.5580 0.5700 0.5800 0.5850 0.5870
7.335000 0.5830 0.5730 0.5630 0.5510 0.5410
7.369130 0.5320 0.5230 0.5130 0.5080 0.5010
7.404000 0.4770 0.4520 0.4430 0.4340 0.4260
7.438130 0.4170 0.4050 0.3980 0.3850 0.3610
7.472000 0.3450 0.3300 0.3230 0.3200 0.3130
7.506130 0.2990 0.2840 0.2680 0.2560 0.2440
7.540000 0.2310 0.2220 0.2140 0.2020 0.1830
7.574130 0.1670 0.1590 0.1500 0.1430 0.1330
7.608000 0.1210 0.1130 0.1040 0.1020 0.0990
7.642130 0.0920 0.0890 0.0850 0.0830 0.0820
7.676000 0.0770 0.0750 0.0710 0.0650 0.0590
7.710130 0.0580 0.0560 0.0560 0.0560 0.0590
7.745000 0.0630 0.0700 0.0730 0.0820 0.0830
7.779130 0.0850 0.0900 0.0940 0.0990 0.1040
7.813000 0.1060 0.1060 0.1020 0.1010 0.0990
7.847130 0.0920 0.0870 0.0850 0.0830 0.0800
7.881000 0.0750 0.0730 0.0710 0.0710 0.0700
7.915130 0.0700 0.0700 0.0700 0.0710 0.0750
7.949000 0.0800 0.0870 0.0900 0.0940 0.1010
7.983130 0.1060 0.1090 0.1110 0.1140 0.1260
8.018000 0.1380 0.1470 0.1550 0.1640 0.1690
8.052130 0.1710 0.1760 0.1840 0.1930 0.2000
8.086000 0.2020 0.2020 0.2030 0.2030 0.2020
8.120130 0.2050 0.2070 0.2100 0.2150 0.2220
8.154000 0.2270 0.2310 0.2320 0.2340 0.2340
8.188130 0.2360 0.2380 0.2390 0.2340 0.2340
8.222000 0.2360 0.2410 0.2410 0.2380 0.2340
8.256130 0.2290 0.2240 0.2150 0.2100 0.2050
8.290000 0.2030 0.1980 0.1910 0.1840 0.1830
8.324130 0.1760 0.1660 0.1550 0.1520 0.1500
8.359000 0.1480 0.1450 0.1420 0.1360 0.1350
8.393130 0.1330 0.1300 0.1250 0.1210 0.1180
8.427000 0.1160 0.1160 0.1140 0.1140 0.1140
8.461130 0.1160 0.1180 0.1180 0.1190 0.1230
8.495000 0.1300 0.1350 0.1380 0.1430 0.1500
8.529130 0.1550 0.1640 0.1720 0.1810 0.1900
8.563000 0.2020 0.2120 0.2320 0.2410 0.2510
8.597130 0.2600 0.2700 0.2840 0.2990 0.3080
8.632000 0.3230 0.3330 0.3450 0.3560 0.3680
8.666130 0.3780 0.3900 0.4020 0.4140 0.4260
8.700000 0.4380 0.4480 0.4570 0.4650 0.4740
8.734130 0.4820 0.4890 0.5000 0.5050 0.5100
8.768000 0.5150 0.5230 0.5290 0.5320 0.5370
8.802130 0.5420 0.5470 0.5530 0.5530 0.5540
8.836000 0.5560 0.5580 0.5590 0.5610 0.5610
8.870130 0.5630 0.5660 0.5710 0.5770 0.5820
8.904000 0.5830 0.5830 0.5830 0.5850 0.5870
8.938130 0.5900 0.5920 0.5950 0.6010 0.6020
8.973000 0.6020 0.6040 0.6040 0.6040 0.6020
9.007130 0.6010 0.5700 0.5510 0.5250 0.4880
9.041000 0.4460 0.4090 0.3800 0.3510 0.3490
9.075130 0.3520 0.3970 0.4400 0.4760 0.5010
9.109000 0.5220 0.5350 0.5470 0.5540 0.5580
9.143130 0.5590 0.5610 0.5700 0.5710 0.5730
9.177000 0.5780 0.5870 0.5890 0.5900 0.5820
9.211130 0.5680 0.5650 0.5510 0.5300 0.5080
9.246000 0.4820 0.4550 0.4260 0.4000 0.3730
9.280130 0.3490 0.3250 0.3010 0.2940 0.2940
9.314000 0.2990 0.3090 0.3320 0.3610 0.3920
9.348130 0.4210 0.4480 0.4700 0.4860 0.5000
9.382000 0.5110 0.5270 0.5320 0.5350 0.5370
9.416130 0.5370 0.5320 0.5150 0.4960 0.4640
9.450000 0.4260 0.3900 0.3400 0.2890 0.2510
9.484130 0.2100 0.1860 0.1760 0.1760 0.1880
9.519000 0.2220 0.2800 0.3370 0.3970 0.4640
9.553130 0.5100 0.5510 0.5820 0.6040 0.6160
9.587000 0.6250 0.6300 0.6360 0.6420 0.6420
9.621130 0.6420 0.6420 0.6430 0.6480 0.6520
9.655000 0.6540 0.6540 0.6500 0.6500 0.6480
9.689130 0.6430 0.6350 0.6230 0.6110 0.6060
9.723000 0.6020 0.5990 0.5970 0.5800 0.5750
9.757130 0.5650 0.5510 0.5370 0.5230 0.5060
9.791000 0.5050 0.4940 0.4810 0.4700 0.4550
9.825130 0.4450 0.4330 0.4240 0.4160 0.4100
9.860000 0.4050 0.4040 0.3980 0.3950 0.3930
9.894130 0.3930 0.3950 0.4000 0.4050 0.4140
9.928000 0.4220 0.4290 0.4400 0.4500 0.4650
9.962130 0.4770 0.4910 0.5030 0.5110 0.5180
9.996000 0.5300 0.5470 0.5590 0.5710 0.5780
10.030130 0.5870 0.5970 0.6020 0.6110 0.6190
10.064000 0.6260 0.6330 0.6400 0.6420 0.6480
10.098130 0.6500 0.6550 0.6620 0.6690 0.6760
10.133000 0.6830 0.6860 0.6880 0.6900 0.6910
10.167130 0.6980 0.7000 0.7030 0.7050 0.7080
10.201000 0.7120 0.7170 0.7200 0.7200 0.7220
10.235130 0.7220 0.7220 0.7240 0.7260 0.7290
10.269000 0.7310 0.7320 0.7380 0.7390 0.7390
10.303130 0.7410 0.7410 0.7430 0.7430 0.7440
10.337000 0.7440 0.7460 0.7500 0.7510 0.7510
10.371130 0.7530 0.7530 0.7530 0.7550 0.7580
10.405000 0.7610 0.7650 0.7670 0.7680 0.7680
10.439130 0.7700 0.7700 0.7720 0.7720 0.7720
10.474000 0.7720 0.7730 0.7750 0.7770 0.7770
10.508130 0.7770 0.7790 0.7800 0.7800 0.7800
10.542000 0.7820 0.7840 0.7800 0.7800 0.7820
10.576130 0.7850 0.7870 0.7890 0.7910 0.7910
10.610000 0.7910 0.7910 0.7920 0.7920 0.7920
10.644130 0.7920 0.7910 0.7890 0.7910 0.7920
10.678000 0.7920 0.7910 0.7910 0.7890 0.7890
10.712130 0.7890 0.7890 0.7910 0.7920 0.7920
10.747000 0.7920 0.7920 0.7920 0.7920 0.7940
10.781130 0.7940 0.7940 0.7940 0.7920 0.7920
10.815000 0.7920 0.7920 0.7910 0.7890 0.7890
10.849130 0.7850 0.7850 0.7840 0.7850 0.7850
10.883000 0.7820 0.7800 0.7750 0.7730 0.7720
10.917130 0.7700 0.7680 0.7630 0.7610 0.7600
10.951000 0.7580 0.7580 0.7600 0.7600 0.7580
10.985130 0.7560 0.7530 0.7510 0.7480 0.7410
11.019000 0.7380 0.7320 0.7270 0.7220 0.7200
11.053130 0.7190 0.7170 0.7100 0.7020 0.6910
11.088000 0.6840 0.6780 0.6720 0.6640 0.6520
11.122130 0.6400 0.6260 0.6130 0.5990 0.5850
11.156000 0.5730 0.5610 0.5420 0.5230 0.5050
11.190130 0.4910 0.4740 0.4550 0.4400 0.4280
11.224000 0.4170 0.4020 0.3920 0.3860 0.3810
11.258130 0.3760 0.3690 0.3680 0.3710 0.3760
11.292000 0.3750 0.3760 0.3760 0.3810 0.3920
11.326130 0.3980 0.4000 0.4040 0.4120 0.4210
11.361000 0.4240 0.4310 0.4340 0.4380 0.4380
11.395130 0.4380 0.4380 0.4340 0.4310 0.4290
11.429000 0.4280 0.4220 0.4220 0.4220 0.4220
11.463130 0.4220 0.4240 0.4310 0.4340 0.4460
11.497000 0.4530 0.4620 0.4690 0.4740 0.4810
11.531130 0.4890 0.4960 0.5000 0.5030 0.5030
11.565000 0.5080 0.5130 0.5170 0.5170 0.5170
11.599130 0.5180 0.5200 0.5200 0.5170 0.5110
11.634000 0.5010 0.4960 0.4860 0.4720 0.4570
11.668130 0.4460 0.4330 0.4100 0.3950 0.3730
11.702000 0.3540 0.3400 0.3280 0.3180 0.3090
11.736130 0.3010 0.3010 0.3010 0.3010 0.3090
11.770000 0.3200 0.3370 0.3540 0.3660 0.3760
11.804130 0.3950 0.4210 0.4410 0.4570 0.4720
11.838000 0.4860 0.4980 0.5060 0.5170 0.5290
11.872130 0.5390 0.5470 0.5490 0.5540 0.5650
11.906000 0.5710 0.5770 0.5800 0.5820 0.5820
11.940130 0.5850 0.5870 0.5890 0.5890 0.5900
11.975000 0.5900 0.5920 0.5940 0.5950 0.5950
12.009130 0.5970 0.5970 0.5970 0.5990 0.5970
12.043000 0.5970 0.5990 0.5990 0.5970 0.5920
12.077130 0.5890 0.5870 0.5850 0.5830 0.5820
12.111000 0.5800 0.5780 0.5770 0.5730 0.5680
12.145130 0.5630 0.5590 0.5580 0.5530 0.5490
12.179000 0.5460 0.5410 0.5370 0.5300 0.5230
12.213130 0.5200 0.5180 0.5180 0.5060 0.5010
12.248000 0.4980 0.4930 0.4890 0.4840 0.4790
12.282130 0.4720 0.4640 0.4530 0.4500 0.4480
12.316000 0.4410 0.4340 0.4240 0.4170 0.4140
12.350130 0.4040 0.3980 0.3880 0.3800 0.3730
12.384000 0.3690 0.3640 0.3570 0.3490 0.3370
12.418130 0.3320 0.3300 0.3230 0.3200 0.3130
12.452000 0.3030 0.2990 0.2920 0.2840 0.2770
12.486130 0.2730 0.2720 0.2670 0.2610 0.2530
12.520000 0.2480 0.2410 0.2390 0.2320 0.2310
12.554130 0.2310 0.2290 0.2270 0.2220 0.2140
12.589000 0.2050 0.2020 0.2000 0.1980 0.1980
12.623130 0.1960 0.1960 0.1950 0.1930 0.1910
12.657000 0.1910 0.1930 0.1950 0.1960 0.1960
12.691130 0.1980 0.2000 0.2000 0.2020 0.2050
12.725000 0.2140 0.2150 0.2190 0.2220 0.2260
12.759130 0.2290 0.2320 0.2360 0.2380 0.2390
12.793000 0.2410 0.2430 0.2500 0.2530 0.2560
12.827130 0.2550 0.2500 0.2480 0.2500 0.2510
12.862000 0.2530 0.2530 0.2530 0.2530 0.2550
12.896130 0.2580 0.2580 0.2610 0.2630 0.2670
12.930000 0.2720 0.2790 0.2850 0.2960 0.2990
12.964130 0.3030 0.3110 0.3250 0.3320 0.3370
12.998000 0.3470 0.3560 0.3680 0.3760 0.3860
13.032130 0.3920 0.4000 0.4090 0.4160 0.4240
13.066000 0.4340 0.4430 0.4520 0.4600 0.4670
13.100130 0.4700 0.4770 0.4880 0.4960 0.5000
13.135000 0.5030 0.5100 0.5180 0.5250 0.5270
13.169130 0.5300 0.5370 0.5390 0.5420 0.5460
13.203000 0.5510 0.5590 0.5610 0.5630 0.5650
13.237130 0.5650 0.5650 0.5660 0.5680 0.5680
13.271000 0.5660 0.5660 0.5660 0.5660 0.5680
13.305130 0.5680 0.5660 0.5630 0.5580 0.5510
13.339000 0.5470 0.5420 0.5390 0.5320 0.5250
13.373130 0.5200 0.5110 0.5030 0.4980 0.4880
13.407000 0.4790 0.4650 0.4620 0.4480 0.4410
13.441130 0.4330 0.4240 0.4210 0.4140 0.4050
13.476000 0.4000 0.3980 0.3930 0.3920 0.3920
13.510130 0.3930 0.3930 0.3930 0.3980 0.4020
13.544000 0.4120 0.4220 0.4290 0.4340 0.4430
13.578130 0.4530 0.4670 0.4820 0.4960 0.5030
13.612000 0.5180 0.5270 0.5410 0.5530 0.5630
13.646130 0.5730 0.5830 0.5900 0.5950 0.6010
13.680000 0.6130 0.6210 0.6280 0.6330 0.6380
13.714130 0.6450 0.6480 0.6540 0.6600 0.6670
13.749000 0.6720 0.6760 0.6780 0.6790 0.6830
13.783130 0.6860 0.6910 0.6950 0.6980 0.6980
13.817000 0.6910 0.6950 0.6960 0.7000 0.7030
13.851130 0.7050 0.7000 0.7000 0.7000 0.7000
13.885000 0.7030 0.7050 0.7050 0.7070 0.7100
13.919130 0.7140 0.7170 0.7200 0.7260 0.7290
13.953000 0.7290 0.7290 0.7310 0.7320 0.7320
13.987130 0.7360 0.7380 0.7390 0.7430 0.7440
14.021000 0.7480 0.7500 0.7510 0.7550 0.7530
14.055130 0.7500 0.7480 0.7480 0.7500 0.7600
14.090000 0.7630 0.7630 0.7610 0.7610 0.7600
14.124130 0.7580 0.7580 0.7580 0.7600 0.7600
14.158000 0.7610 0.7600 0.7610 0.7610 0.7630
14.192130 0.7650 0.7670 0.7680 0.7670 0.7670
14.226000 0.7650 0.7650 0.7670 0.7670 0.7680
14.260130 0.7720 0.7720 0.7700 0.7700 0.7700
14.294000 0.7680 0.7680 0.7680 0.7680 0.7680
14.328130 0.7700 0.7700 0.7700 0.7680 0.7680
14.363000 0.7670 0.7650 0.7650 0.7650 0.7650
14.397130 0.7650 0.7650 0.7650 0.7650 0.7650
14.431000 0.7650 0.7650 0.7610 0.7600 0.7600
14.465130 0.7600 0.7600 0.7610 0.7600 0.7580
14.499000 0.7580 0.7560 0.7560 0.7560 0.7560
14.533130 0.7560 0.7580 0.7580 0.7580 0.7580
14.567000 0.7560 0.7550 0.7550 0.7530 0.7530
14.601130 0.7530 0.7510 0.7510 0.7510 0.7510
14.635000 0.7510 0.7510 0.7510 0.7510 0.7500
14.669130 0.7500 0.7480 0.7480 0.7460 0.7440
14.704000 0.7440 0.7440 0.7460 0.7460 0.7460
14.738130 0.7440 0.7430 0.7390 0.7360 0.7340
14.772000 0.7340 0.7340 0.7340 0.7360 0.7360
14.806130 0.7340 0.7320 0.7320 0.7320 0.7310
14.840000 0.7310 0.7310 0.7310 0.7310 0.7310
14.874130 0.7310 0.7310 0.7290 0.7270 0.7240
14.908000 0.7220 0.7220 0.7200 0.7170 0.7150
14.942130 0.7140 0.7120 0.7120 0.7100 0.7080
14.977000 0.7020 0.7000 0.6930 0.6860 0.6790
15.011130 0.6740 0.6690 0.6660 0.6640 0.6660
15.045000 0.6670 0.6690 0.6710 0.6760 0.6810
15.079130 0.6860 0.6910 0.6960 0.7000 0.7030
15.113000 0.7050 0.7050 0.7050 0.7050 0.7050
15.147130 0.7050 0.7050 0.7050 0.7030 0.7030
15.181000 0.7030 0.7020 0.6980 0.6960 0.6930
15.215130 0.6930 0.6930 0.6900 0.6860 0.6810
15.250000 0.6780 0.6760 0.6780 0.6760 0.6740
15.284130 0.6720 0.6710 0.6720 0.6710 0.6670
15.318000 0.6660 0.6660 0.6640 0.6620 0.6620
15.352130 0.6600 0.6590 0.6550 0.6540 0.6520
15.386000 0.6500 0.6500 0.6520 0.6520 0.6540
15.420130 0.6550 0.6570 0.6570 0.6590 0.6590
15.454000 0.6620 0.6620 0.6620 0.6640 0.6670
15.488130 0.6720 0.6720 0.6690 0.6670 0.6670
15.522000 0.6670 0.6690 0.6690 0.6710 0.6710
15.556130 0.6710 0.6710 0.6690 0.6690 0.6710
15.591000 0.6690 0.6690 0.6690 0.6710 0.6710
15.625130 0.6690 0.6670 0.6670 0.6660 0.6660
15.659000 0.6660 0.6640 0.6620 0.6620 0.6640
15.693130 0.6640 0.6640 0.6640 0.6640 0.6640
15.727000 0.6620 0.6600 0.6590 0.6590 0.6590
15.761130 0.6570 0.6570 0.6570 0.6590 0.6590
15.795000 0.6590 0.6590 0.6590 0.6590 0.6570
15.829130 0.6550 0.6550 0.6500 0.6500 0.6500
15.864000 0.6540 0.6540 0.6540 0.6520 0.6520
15.898130 0.6480 0.6450 0.6430 0.6430 0.6430
15.932000 0.6400 0.6400 0.6400 0.6380 0.6360
15.966130 0.6360 0.6330
##END=
