##TITLE=3Alpha,5Alpha-Cycloandrostan-6Beta-ol,17-ethylenedioxy
##JCAMP-DX=4.24
##DATA TYPE=INFRARED SPECTRUM
##CLASS=COBLENTZ
##ORIGIN=ABBOTT LABORATORIES
##OWNER=Copyright (C) 1987 by the Coblentz Society
Collection (C) 2018 copyright by the U.S. Secretary of Commerce
on behalf of the United States of America. All rights reserved.
##DATE=1960/09/28
##MOLFORM=C21 H32 O3
##SOURCE REFERENCE=COBLENTZ NO. 5240
##$NIST ID=B6005240
##$NIST SOURCE=COBLENTZ
##$NIST IMAGE=cob5240
##SPECTROMETER/DATA SYSTEM=PERKIN-ELMER 21 (GRATING)
$$ INACTIVE (CHCl3) AROUND 650-800 AND 1200-1250 CM^-^1
##INSTRUMENT PARAMETERS=FILTER AT ABOUT 10 MICRONS
$$ SPECTRAL FEATURE AT 996 CM^-^1 IS AN ARTIFACT CAUSED BY FILTER CHANGE
##STATE=SOLUTION 7% (CHCl3 FOR 2.5-15 microns)
##PATH LENGTH=0.01 CM
##RESOLUTION=2
##XUNITS=1/CM
##YUNITS=TRANSMITTANCE
##XFACTOR=1.0
##YFACTOR=1
##FIRSTX=665
##LASTX=4000
##FIRSTY=1.0024
##MAXX=4000
##MINX=665
##MAXY=1.0041
##MINY=0.2174
##NPOINTS=3336
##XYDATA=(X++(Y..Y))
665.000000 1.0024 1.0027 1.0031 1.0035 1.0037
670.000000 1.0037 1.0037 1.0038 1.0038 1.0039
675.000000 1.0039 1.0039 1.0040 1.0040 1.0041
680.000000 1.0040 1.0039 1.0038 1.0037 1.0035
685.000000 1.0034 1.0034 1.0033 1.0032 1.0031
690.000000 1.0030 1.0029 1.0028 1.0028 1.0027
695.000000 1.0027 1.0026 1.0025 1.0025 1.0024
700.000000 1.0024 1.0023 1.0022 1.0021 1.0020
705.000000 1.0019 1.0018 1.0017 1.0017 1.0013
710.000000 1.0010 1.0007 1.0003 1.0000 0.9997
715.000000 0.9993 0.9985 0.9977 0.9970 0.9963
720.000000 0.9955 0.9947 0.9936 0.9920 0.9904
725.000000 0.9887 0.9871 0.9860 0.9869 0.9890
730.000000 0.9912 0.9937 0.9953 0.9965 0.9970
735.000000 0.9971 0.9973 0.9974 0.9979 0.9985
740.000000 0.9990 0.9996 1.0000 0.9999 0.9998
745.000000 0.9998 0.9997 0.9996 0.9995 0.9994
750.000000 0.9992 0.9990 0.9988 0.9987 0.9985
755.000000 0.9983 0.9981 0.9982 0.9986 0.9992
760.000000 0.9996 1.0000 1.0006 1.0010 1.0014
765.000000 1.0020 1.0022 1.0023 1.0023 1.0023
770.000000 1.0023 1.0024 1.0024 1.0024 1.0025
775.000000 1.0025 1.0025 1.0024 1.0018 1.0013
780.000000 1.0008 1.0003 0.9997 0.9992 0.9987
785.000000 0.9982 0.9976 0.9970 0.9958 0.9945
790.000000 0.9933 0.9920 0.9908 0.9898 0.9890
795.000000 0.9881 0.9871 0.9859 0.9846 0.9785
800.000000 0.9723 0.9626 0.9563 0.9500 0.9442
805.000000 0.9388 0.9351 0.9317 0.9281 0.9249
810.000000 0.9220 0.9194 0.9171 0.9148 0.9122
815.000000 0.9094 0.9038 0.8980 0.8894 0.8808
820.000000 0.8750 0.8704 0.8668 0.8640 0.8618
825.000000 0.8628 0.8623 0.8618 0.8603 0.8575
830.000000 0.8503 0.8429 0.8378 0.8327 0.8328
835.000000 0.8349 0.8381 0.8420 0.8458 0.8491
840.000000 0.8501 0.8491 0.8472 0.8471 0.8485
845.000000 0.8562 0.8644 0.8731 0.8746 0.8748
850.000000 0.8738 0.8709 0.8682 0.8651 0.8619
855.000000 0.8583 0.8544 0.8504 0.8464 0.8422
860.000000 0.8379 0.8336 0.8289 0.8242 0.8195
865.000000 0.8139 0.8079 0.8017 0.7917 0.7811
870.000000 0.7682 0.7548 0.7426 0.7301 0.7169
875.000000 0.7002 0.6854 0.6924 0.7007 0.7087
880.000000 0.7163 0.7238 0.7318 0.7402 0.7478
885.000000 0.7541 0.7603 0.7656 0.7690 0.7704
890.000000 0.7702 0.7675 0.7643 0.7588 0.7517
895.000000 0.7428 0.7341 0.7258 0.7210 0.7192
900.000000 0.7193 0.7180 0.7145 0.7073 0.6904
905.000000 0.6553 0.6200 0.5921 0.5832 0.5840
910.000000 0.6095 0.6363 0.6632 0.6899 0.7082
915.000000 0.7104 0.7093 0.7066 0.7027 0.6986
920.000000 0.6945 0.6749 0.6474 0.6231 0.6205
925.000000 0.6179 0.6365 0.6674 0.6983 0.7291
930.000000 0.7517 0.7562 0.7563 0.7552 0.7509
935.000000 0.7423 0.7306 0.7169 0.6846 0.6261
940.000000 0.5664 0.5066 0.4471 0.3661 0.3479
945.000000 0.3458 0.3515 0.3768 0.4173 0.4577
950.000000 0.4981 0.5384 0.5786 0.6187 0.6564
955.000000 0.6701 0.6769 0.6787 0.6776 0.6734
960.000000 0.6639 0.6405 0.6164 0.5985 0.5960
965.000000 0.5961 0.6086 0.6252 0.6417 0.6582
970.000000 0.6746 0.6909 0.7064 0.7172 0.7319
975.000000 0.7420 0.7449 0.7477 0.7453 0.7428
980.000000 0.7367 0.7281 0.7154 0.6980 0.6840
985.000000 0.6729 0.6721 0.6711 0.6791 0.6863
990.000000 0.7081 0.7267 0.7350 0.7339 0.7324
995.000000 0.7187 0.7045 0.7130 0.7382 0.7614
1000.000000 0.7644 0.7022 0.6954 0.6884 0.6782
1005.000000 0.6675 0.6559 0.6369 0.6154 0.5977
1010.000000 0.5468 0.5233 0.5166 0.5098 0.4927
1015.000000 0.4721 0.4172 0.3595 0.3018 0.2443
1020.000000 0.2225 0.2202 0.2315 0.2579 0.2842
1025.000000 0.3105 0.3366 0.3553 0.3569 0.3570
1030.000000 0.3573 0.3554 0.3541 0.3527 0.3499
1035.000000 0.3438 0.3335 0.3217 0.3049 0.2916
1040.000000 0.2794 0.2731 0.2660 0.2695 0.2870
1045.000000 0.3069 0.3268 0.3411 0.3387 0.3330
1050.000000 0.3230 0.3182 0.3209 0.3454 0.3710
1055.000000 0.3966 0.4221 0.4475 0.4728 0.4987
1060.000000 0.5035 0.5056 0.5072 0.5189 0.5342
1065.000000 0.5454 0.5577 0.5706 0.5836 0.5993
1070.000000 0.6159 0.6243 0.6303 0.6314 0.6301
1075.000000 0.6324 0.6170 0.6043 0.5925 0.5836
1080.000000 0.5748 0.5679 0.5676 0.5675 0.5676
1085.000000 0.5677 0.5678 0.5654 0.5628 0.5565
1090.000000 0.5459 0.5237 0.4986 0.4735 0.4486
1095.000000 0.4236 0.3987 0.3738 0.3494 0.3256
1100.000000 0.3128 0.3048 0.3014 0.3006 0.3020
1105.000000 0.3075 0.3270 0.3587 0.3903 0.4219
1110.000000 0.4534 0.4849 0.5163 0.5476 0.5695
1115.000000 0.5714 0.5712 0.5703 0.5692 0.5680
1120.000000 0.5642 0.5584 0.5489 0.5470 0.5459
1125.000000 0.5447 0.5432 0.5418 0.5407 0.5397
1130.000000 0.5386 0.5377 0.5409 0.5470 0.5557
1135.000000 0.5656 0.5708 0.5719 0.5712 0.5702
1140.000000 0.5692 0.5690 0.5713 0.5796 0.5891
1145.000000 0.5973 0.5983 0.6063 0.5905 0.5780
1150.000000 0.5658 0.5473 0.5295 0.5153 0.5014
1155.000000 0.4847 0.4647 0.4441 0.4211 0.4033
1160.000000 0.3862 0.3731 0.3615 0.3529 0.3492
1165.000000 0.3492 0.3499 0.3511 0.3528 0.3549
1170.000000 0.3577 0.3606 0.3635 0.3666 0.3695
1175.000000 0.3726 0.3757 0.3791 0.3824 0.3975
1180.000000 0.4284 0.4592 0.4901 0.5209 0.5516
1185.000000 0.5823 0.6129 0.6435 0.6741 0.7003
1190.000000 0.7116 0.7225 0.7284 0.7295 0.7306
1195.000000 0.7279 0.7268 0.7219 0.7155 0.7064
1200.000000 0.6980 0.6931 0.6887 0.6844 0.6800
1205.000000 0.6756 0.6713 0.6669 0.6626 0.6582
1210.000000 0.6539 0.6496 0.6453 0.6410 0.6367
1215.000000 0.6324 0.6281 0.6238 0.6195 0.6153
1220.000000 0.6110 0.6068 0.6025 0.5982 0.5941
1225.000000 0.5898 0.5856 0.5814 0.5772 0.5730
1230.000000 0.5688 0.5646 0.5605 0.5601 0.5613
1235.000000 0.5626 0.5640 0.5654 0.5668 0.5679
1240.000000 0.5691 0.5706 0.5726 0.5748 0.5775
1245.000000 0.5801 0.5829 0.5878 0.5932 0.5994
1250.000000 0.6093 0.6195 0.6321 0.6456 0.6631
1255.000000 0.6827 0.6878 0.6908 0.6920 0.6932
1260.000000 0.6938 0.6935 0.6929 0.6910 0.6879
1265.000000 0.6821 0.6716 0.6608 0.6501 0.6392
1270.000000 0.6285 0.6178 0.6071 0.5964 0.5857
1275.000000 0.5751 0.5645 0.5538 0.5432 0.5381
1280.000000 0.5389 0.5397 0.5733 0.5916 0.6099
1285.000000 0.6280 0.6463 0.6644 0.6826 0.6972
1290.000000 0.7038 0.7060 0.7081 0.7081 0.7127
1295.000000 0.7055 0.7029 0.6984 0.6931 0.6804
1300.000000 0.6497 0.6184 0.5872 0.5561 0.5250
1305.000000 0.4940 0.4630 0.4353 0.4305 0.4322
1310.000000 0.4449 0.4641 0.4834 0.5026 0.5217
1315.000000 0.5409 0.5600 0.5790 0.5981 0.6171
1320.000000 0.6361 0.6552 0.6727 0.6846 0.6950
1325.000000 0.7037 0.7119 0.7196 0.7246 0.7271
1330.000000 0.7290 0.7276 0.7273 0.7268 0.7240
1335.000000 0.7188 0.7123 0.7057 0.6985 0.6913
1340.000000 0.6841 0.6770 0.6698 0.6627 0.6556
1345.000000 0.6485 0.6414 0.6378 0.6355 0.6439
1350.000000 0.6563 0.6692 0.6820 0.6948 0.7059
1355.000000 0.7097 0.7123 0.7153 0.7183 0.7213
1360.000000 0.7242 0.7272 0.7302 0.7332 0.7360
1365.000000 0.7365 0.7361 0.7358 0.7140 0.6954
1370.000000 0.6767 0.6581 0.6395 0.6209 0.6022
1375.000000 0.5837 0.5652 0.5467 0.5283 0.5199
1380.000000 0.5212 0.5375 0.5599 0.5822 0.6045
1385.000000 0.6267 0.6490 0.6631 0.6635 0.6633
1390.000000 0.6608 0.6514 0.6403 0.6292 0.6181
1395.000000 0.6069 0.5959 0.5849 0.5739 0.5714
1400.000000 0.5719 0.5729 0.5836 0.5989 0.6142
1405.000000 0.6295 0.6448 0.6600 0.6752 0.6904
1410.000000 0.7057 0.7208 0.7359 0.7510 0.7661
1415.000000 0.7749 0.7789 0.7827 0.7861 0.7868
1420.000000 0.7853 0.7841 0.7826 0.7797 0.7766
1425.000000 0.7735 0.7705 0.7543 0.7348 0.7153
1430.000000 0.6959 0.6764 0.6570 0.6405 0.6346
1435.000000 0.6353 0.6370 0.6402 0.6434 0.6466
1440.000000 0.6498 0.6530 0.6562 0.6593 0.6625
1445.000000 0.6657 0.6690 0.6676 0.6638 0.6503
1450.000000 0.6337 0.6170 0.6004 0.5838 0.5673
1455.000000 0.5577 0.5567 0.5567 0.5539 0.5569
1460.000000 0.5572 0.5577 0.5584 0.5610 0.5654
1465.000000 0.5708 0.5755 0.5802 0.5849 0.5895
1470.000000 0.5942 0.5989 0.6035 0.6089 0.6145
1475.000000 0.6467 0.6548 0.6607 0.6671 0.6838
1480.000000 0.7045 0.7223 0.7334 0.7441 0.7573
1485.000000 0.7760 0.7876 0.7933 0.7991 0.8049
1490.000000 0.8106 0.8163 0.8221 0.8278 0.8329
1495.000000 0.8373 0.8417 0.8460 0.8504 0.8547
1500.000000 0.8587 0.8616 0.8644 0.8673 0.8701
1505.000000 0.8729 0.8758 0.8786 0.8814 0.8838
1510.000000 0.8860 0.8881 0.8903 0.8925 0.8946
1515.000000 0.8962 0.8969 0.8976 0.8982 0.8989
1520.000000 0.8995 0.8998 0.9005 0.8998 0.8998
1525.000000 0.8998 0.8998 0.8993 0.8981 0.8967
1530.000000 0.8953 0.8937 0.8921 0.8906 0.8890
1535.000000 0.8873 0.8858 0.8842 0.8825 0.8809
1540.000000 0.8794 0.8780 0.8765 0.8751 0.8739
1545.000000 0.8726 0.8713 0.8701 0.8688 0.8676
1550.000000 0.8663 0.8651 0.8640 0.8632 0.8624
1555.000000 0.8615 0.8607 0.8600 0.8591 0.8583
1560.000000 0.8575 0.8568 0.8561 0.8555 0.8551
1565.000000 0.8546 0.8541 0.8537 0.8531 0.8526
1570.000000 0.8522 0.8517 0.8512 0.8507 0.8503
1575.000000 0.8503 0.8503 0.8502 0.8502 0.8502
1580.000000 0.8502 0.8501 0.8501 0.8501 0.8501
1585.000000 0.8501 0.8501 0.8501 0.8502 0.8503
1590.000000 0.8503 0.8504 0.8505 0.8505 0.8506
1595.000000 0.8507 0.8508 0.8508 0.8509 0.8510
1600.000000 0.8510 0.8511 0.8512 0.8512 0.8512
1605.000000 0.8512 0.8512 0.8511 0.8511 0.8511
1610.000000 0.8511 0.8511 0.8511 0.8510 0.8510
1615.000000 0.8510 0.8510 0.8510 0.8509 0.8509
1620.000000 0.8508 0.8508 0.8507 0.8507 0.8506
1625.000000 0.8506 0.8505 0.8504 0.8504 0.8504
1630.000000 0.8505 0.8507 0.8508 0.8510 0.8512
1635.000000 0.8513 0.8514 0.8516 0.8518 0.8520
1640.000000 0.8521 0.8523 0.8524 0.8527 0.8530
1645.000000 0.8533 0.8536 0.8540 0.8543 0.8546
1650.000000 0.8550 0.8553 0.8556 0.8559 0.8563
1655.000000 0.8566 0.8569 0.8572 0.8575 0.8577
1660.000000 0.8578 0.8579 0.8580 0.8582 0.8583
1665.000000 0.8584 0.8586 0.8587 0.8588 0.8590
1670.000000 0.8590 0.8591 0.8591 0.8591 0.8590
1675.000000 0.8590 0.8590 0.8590 0.8589 0.8589
1680.000000 0.8589 0.8589 0.8588 0.8587 0.8586
1685.000000 0.8585 0.8583 0.8582 0.8581 0.8580
1690.000000 0.8579 0.8577 0.8576 0.8575 0.8573
1695.000000 0.8572 0.8572 0.8570 0.8569 0.8567
1700.000000 0.8566 0.8565 0.8565 0.8565 0.8565
1705.000000 0.8565 0.8565 0.8565 0.8565 0.8566
1710.000000 0.8566 0.8566 0.8566 0.8566 0.8566
1715.000000 0.8566 0.8566 0.8566 0.8568 0.8570
1720.000000 0.8572 0.8573 0.8574 0.8576 0.8577
1725.000000 0.8579 0.8581 0.8582 0.8583 0.8585
1730.000000 0.8586 0.8588 0.8590 0.8591 0.8592
1735.000000 0.8594 0.8594 0.8595 0.8596 0.8597
1740.000000 0.8598 0.8600 0.8600 0.8601 0.8602
1745.000000 0.8603 0.8604 0.8605 0.8606 0.8607
1750.000000 0.8608 0.8609 0.8610 0.8610 0.8611
1755.000000 0.8612 0.8612 0.8613 0.8613 0.8614
1760.000000 0.8614 0.8615 0.8616 0.8616 0.8616
1765.000000 0.8617 0.8617 0.8618 0.8618 0.8618
1770.000000 0.8617 0.8616 0.8615 0.8615 0.8614
1775.000000 0.8613 0.8612 0.8611 0.8611 0.8610
1780.000000 0.8609 0.8608 0.8607 0.8607 0.8606
1785.000000 0.8605 0.8604 0.8602 0.8602 0.8601
1790.000000 0.8600 0.8599 0.8599 0.8598 0.8597
1795.000000 0.8596 0.8595 0.8595 0.8595 0.8594
1800.000000 0.8594 0.8594 0.8593 0.8593 0.8592
1805.000000 0.8592 0.8592 0.8591 0.8591 0.8590
1810.000000 0.8590 0.8590 0.8589 0.8589 0.8589
1815.000000 0.8588 0.8587 0.8587 0.8587 0.8586
1820.000000 0.8586 0.8587 0.8587 0.8588 0.8589
1825.000000 0.8589 0.8589 0.8590 0.8591 0.8592
1830.000000 0.8592 0.8592 0.8593 0.8594 0.8594
1835.000000 0.8595 0.8596 0.8596 0.8596 0.8597
1840.000000 0.8598 0.8599 0.8599 0.8599 0.8600
1845.000000 0.8600 0.8601 0.8602 0.8603 0.8603
1850.000000 0.8603 0.8604 0.8605 0.8605 0.8605
1855.000000 0.8605 0.8604 0.8604 0.8603 0.8602
1860.000000 0.8602 0.8601 0.8601 0.8600 0.8600
1865.000000 0.8599 0.8598 0.8598 0.8598 0.8597
1870.000000 0.8596 0.8596 0.8595 0.8594 0.8594
1875.000000 0.8594 0.8593 0.8592 0.8592 0.8591
1880.000000 0.8590 0.8590 0.8590 0.8589 0.8586
1885.000000 0.8585 0.8584 0.8582 0.8580 0.8578
1890.000000 0.8577 0.8576 0.8574 0.8572 0.8570
1895.000000 0.8569 0.8567 0.8565 0.8564 0.8562
1900.000000 0.8560 0.8559 0.8557 0.8556 0.8556
1905.000000 0.8557 0.8558 0.8559 0.8560 0.8561
1910.000000 0.8562 0.8562 0.8563 0.8565 0.8565
1915.000000 0.8567 0.8568 0.8568 0.8570 0.8571
1920.000000 0.8571 0.8573 0.8574 0.8574 0.8576
1925.000000 0.8577 0.8577 0.8579 0.8580 0.8580
1930.000000 0.8581 0.8580 0.8580 0.8580 0.8579
1935.000000 0.8578 0.8578 0.8578 0.8577 0.8577
1940.000000 0.8576 0.8576 0.8576 0.8575 0.8575
1945.000000 0.8574 0.8574 0.8574 0.8573 0.8572
1950.000000 0.8572 0.8572 0.8571 0.8571 0.8570
1955.000000 0.8570 0.8570 0.8569 0.8568 0.8568
1960.000000 0.8568 0.8567 0.8567 0.8566 0.8566
1965.000000 0.8566 0.8565 0.8565 0.8565 0.8565
1970.000000 0.8565 0.8565 0.8564 0.8564 0.8564
1975.000000 0.8564 0.8564 0.8563 0.8563 0.8563
1980.000000 0.8563 0.8563 0.8563 0.8562 0.8562
1985.000000 0.8562 0.8562 0.8562 0.8561 0.8561
1990.000000 0.8561 0.8561 0.8561 0.8561 0.8560
1995.000000 0.8560 0.8560 0.8560 0.8560 0.8559
2000.000000 0.8559 0.8559 0.8559 0.8559 0.8559
2005.000000 0.8558 0.8558 0.8558 0.8558 0.8558
2010.000000 0.8558 0.8558 0.8557 0.8557 0.8557
2015.000000 0.8558 0.8558 0.8558 0.8558 0.8558
2020.000000 0.8559 0.8559 0.8559 0.8559 0.8559
2025.000000 0.8560 0.8560 0.8560 0.8561 0.8561
2030.000000 0.8561 0.8561 0.8561 0.8562 0.8562
2035.000000 0.8562 0.8562 0.8562 0.8563 0.8563
2040.000000 0.8563 0.8564 0.8564 0.8564 0.8564
2045.000000 0.8564 0.8565 0.8565 0.8565 0.8565
2050.000000 0.8565 0.8566 0.8566 0.8566 0.8568
2055.000000 0.8570 0.8573 0.8574 0.8576 0.8578
2060.000000 0.8580 0.8582 0.8584 0.8586 0.8589
2065.000000 0.8591 0.8592 0.8594 0.8596 0.8598
2070.000000 0.8600 0.8602 0.8604 0.8607 0.8608
2075.000000 0.8610 0.8613 0.8616 0.8618 0.8621
2080.000000 0.8624 0.8627 0.8629 0.8632 0.8634
2085.000000 0.8637 0.8640 0.8643 0.8645 0.8647
2090.000000 0.8649 0.8650 0.8650 0.8650 0.8651
2095.000000 0.8651 0.8652 0.8652 0.8653 0.8653
2100.000000 0.8653 0.8654 0.8654 0.8655 0.8655
2105.000000 0.8656 0.8656 0.8657 0.8657 0.8657
2110.000000 0.8657 0.8657 0.8658 0.8658 0.8658
2115.000000 0.8658 0.8658 0.8658 0.8658 0.8659
2120.000000 0.8659 0.8659 0.8659 0.8659 0.8659
2125.000000 0.8660 0.8660 0.8660 0.8660 0.8660
2130.000000 0.8660 0.8660 0.8661 0.8661 0.8661
2135.000000 0.8661 0.8661 0.8661 0.8661 0.8661
2140.000000 0.8661 0.8661 0.8661 0.8661 0.8661
2145.000000 0.8660 0.8660 0.8660 0.8660 0.8660
2150.000000 0.8660 0.8660 0.8659 0.8659 0.8659
2155.000000 0.8659 0.8659 0.8659 0.8659 0.8659
2160.000000 0.8659 0.8658 0.8658 0.8658 0.8658
2165.000000 0.8658 0.8658 0.8658 0.8658 0.8658
2170.000000 0.8658 0.8657 0.8657 0.8657 0.8657
2175.000000 0.8657 0.8657 0.8657 0.8656 0.8656
2180.000000 0.8656 0.8656 0.8656 0.8656 0.8656
2185.000000 0.8656 0.8656 0.8656 0.8656 0.8656
2190.000000 0.8656 0.8656 0.8656 0.8656 0.8656
2195.000000 0.8656 0.8656 0.8656 0.8656 0.8656
2200.000000 0.8656 0.8656 0.8656 0.8655 0.8655
2205.000000 0.8655 0.8655 0.8655 0.8655 0.8655
2210.000000 0.8655 0.8655 0.8655 0.8655 0.8655
2215.000000 0.8655 0.8655 0.8655 0.8655 0.8655
2220.000000 0.8655 0.8655 0.8655 0.8655 0.8655
2225.000000 0.8655 0.8655 0.8655 0.8655 0.8655
2230.000000 0.8655 0.8655 0.8655 0.8654 0.8654
2235.000000 0.8654 0.8654 0.8654 0.8654 0.8654
2240.000000 0.8654 0.8654 0.8654 0.8654 0.8654
2245.000000 0.8653 0.8653 0.8653 0.8653 0.8653
2250.000000 0.8653 0.8653 0.8653 0.8653 0.8653
2255.000000 0.8653 0.8653 0.8653 0.8653 0.8652
2260.000000 0.8652 0.8652 0.8652 0.8652 0.8653
2265.000000 0.8654 0.8655 0.8656 0.8656 0.8657
2270.000000 0.8658 0.8659 0.8660 0.8661 0.8662
2275.000000 0.8663 0.8665 0.8667 0.8670 0.8674
2280.000000 0.8677 0.8679 0.8683 0.8686 0.8689
2285.000000 0.8692 0.8695 0.8698 0.8701 0.8704
2290.000000 0.8707 0.8710 0.8713 0.8717 0.8720
2295.000000 0.8723 0.8726 0.8729 0.8732 0.8735
2300.000000 0.8739 0.8742 0.8744 0.8748 0.8751
2305.000000 0.8754 0.8758 0.8761 0.8763 0.8766
2310.000000 0.8770 0.8773 0.8775 0.8777 0.8780
2315.000000 0.8782 0.8784 0.8786 0.8788 0.8790
2320.000000 0.8792 0.8794 0.8796 0.8799 0.8801
2325.000000 0.8802 0.8804 0.8806 0.8808 0.8810
2330.000000 0.8813 0.8814 0.8816 0.8819 0.8821
2335.000000 0.8823 0.8825 0.8827 0.8830 0.8834
2340.000000 0.8837 0.8840 0.8843 0.8846 0.8850
2345.000000 0.8853 0.8856 0.8859 0.8863 0.8866
2350.000000 0.8870 0.8873 0.8876 0.8879 0.8882
2355.000000 0.8886 0.8889 0.8892 0.8896 0.8900
2360.000000 0.8904 0.8908 0.8913 0.8918 0.8923
2365.000000 0.8928 0.8932 0.8937 0.8941 0.8946
2370.000000 0.8951 0.8956 0.8961 0.8968 0.8974
2375.000000 0.8981 0.8988 0.8995 0.9002 0.9009
2380.000000 0.9015 0.9022 0.9027 0.9031 0.9036
2385.000000 0.9040 0.9043 0.9045 0.9047 0.9049
2390.000000 0.9051 0.9030 0.9006 0.8983 0.8959
2395.000000 0.8935 0.8911 0.8888 0.8864 0.8840
2400.000000 0.8817 0.8793 0.8769 0.8746 0.8722
2405.000000 0.8699 0.8675 0.8654 0.8634 0.8620
2410.000000 0.8611 0.8603 0.8596 0.8588 0.8582
2415.000000 0.8575 0.8569 0.8563 0.8556 0.8549
2420.000000 0.8542 0.8536 0.8530 0.8525 0.8521
2425.000000 0.8518 0.8515 0.8512 0.8509 0.8507
2430.000000 0.8504 0.8501 0.8498 0.8496 0.8494
2435.000000 0.8492 0.8489 0.8487 0.8484 0.8482
2440.000000 0.8479 0.8477 0.8474 0.8471 0.8469
2445.000000 0.8467 0.8465 0.8463 0.8461 0.8459
2450.000000 0.8457 0.8455 0.8453 0.8451 0.8450
2455.000000 0.8450 0.8450 0.8450 0.8450 0.8450
2460.000000 0.8450 0.8450 0.8450 0.8450 0.8450
2465.000000 0.8451 0.8452 0.8453 0.8454 0.8454
2470.000000 0.8454 0.8455 0.8456 0.8457 0.8458
2475.000000 0.8460 0.8462 0.8464 0.8466 0.8468
2480.000000 0.8469 0.8471 0.8473 0.8475 0.8477
2485.000000 0.8478 0.8480 0.8482 0.8484 0.8485
2490.000000 0.8486 0.8487 0.8488 0.8489 0.8489
2495.000000 0.8489 0.8490 0.8491 0.8492 0.8493
2500.000000 0.8494 0.8494 0.8494 0.8495 0.8496
2505.000000 0.8496 0.8497 0.8497 0.8496 0.8495
2510.000000 0.8495 0.8494 0.8494 0.8493 0.8492
2515.000000 0.8492 0.8491 0.8490 0.8489 0.8489
2520.000000 0.8489 0.8488 0.8487 0.8486 0.8486
2525.000000 0.8486 0.8485 0.8484 0.8483 0.8483
2530.000000 0.8482 0.8481 0.8481 0.8480 0.8480
2535.000000 0.8479 0.8478 0.8478 0.8478 0.8477
2540.000000 0.8476 0.8475 0.8474 0.8473 0.8472
2545.000000 0.8471 0.8470 0.8470 0.8469 0.8468
2550.000000 0.8467 0.8466 0.8465 0.8464 0.8463
2555.000000 0.8462 0.8462 0.8461 0.8460 0.8459
2560.000000 0.8458 0.8457 0.8456 0.8455 0.8455
2565.000000 0.8454 0.8453 0.8452 0.8452 0.8451
2570.000000 0.8450 0.8449 0.8448 0.8447 0.8446
2575.000000 0.8445 0.8443 0.8442 0.8440 0.8439
2580.000000 0.8437 0.8436 0.8434 0.8433 0.8432
2585.000000 0.8431 0.8429 0.8428 0.8426 0.8425
2590.000000 0.8424 0.8422 0.8421 0.8420 0.8419
2595.000000 0.8417 0.8416 0.8414 0.8413 0.8411
2600.000000 0.8410 0.8409 0.8408 0.8406 0.8405
2605.000000 0.8403 0.8402 0.8400 0.8399 0.8397
2610.000000 0.8396 0.8395 0.8394 0.8393 0.8391
2615.000000 0.8390 0.8388 0.8387 0.8385 0.8384
2620.000000 0.8383 0.8382 0.8380 0.8379 0.8378
2625.000000 0.8377 0.8376 0.8374 0.8373 0.8371
2630.000000 0.8370 0.8368 0.8367 0.8366 0.8365
2635.000000 0.8364 0.8362 0.8361 0.8359 0.8358
2640.000000 0.8356 0.8355 0.8354 0.8353 0.8352
2645.000000 0.8350 0.8349 0.8348 0.8347 0.8347
2650.000000 0.8347 0.8347 0.8347 0.8348 0.8349
2655.000000 0.8349 0.8349 0.8350 0.8350 0.8351
2660.000000 0.8352 0.8352 0.8352 0.8353 0.8353
2665.000000 0.8353 0.8354 0.8355 0.8355 0.8356
2670.000000 0.8356 0.8357 0.8357 0.8358 0.8359
2675.000000 0.8359 0.8359 0.8360 0.8360 0.8360
2680.000000 0.8360 0.8359 0.8359 0.8358 0.8358
2685.000000 0.8358 0.8357 0.8356 0.8356 0.8355
2690.000000 0.8355 0.8355 0.8354 0.8353 0.8352
2695.000000 0.8352 0.8352 0.8351 0.8351 0.8350
2700.000000 0.8349 0.8349 0.8349 0.8348 0.8348
2705.000000 0.8347 0.8346 0.8346 0.8346 0.8345
2710.000000 0.8345 0.8345 0.8343 0.8341 0.8339
2715.000000 0.8337 0.8335 0.8333 0.8331 0.8329
2720.000000 0.8326 0.8324 0.8322 0.8320 0.8318
2725.000000 0.8316 0.8313 0.8311 0.8309 0.8307
2730.000000 0.8305 0.8303 0.8301 0.8299 0.8296
2735.000000 0.8294 0.8292 0.8290 0.8288 0.8285
2740.000000 0.8282 0.8278 0.8274 0.8270 0.8266
2745.000000 0.8261 0.8257 0.8254 0.8249 0.8245
2750.000000 0.8241 0.8236 0.8232 0.8228 0.8222
2755.000000 0.8215 0.8209 0.8201 0.8192 0.8183
2760.000000 0.8174 0.8165 0.8155 0.8146 0.8138
2765.000000 0.8129 0.8119 0.8108 0.8097 0.8086
2770.000000 0.8074 0.8061 0.8049 0.8036 0.8024
2775.000000 0.8012 0.8000 0.7988 0.7976 0.7963
2780.000000 0.7951 0.7939 0.7924 0.7910 0.7896
2785.000000 0.7881 0.7866 0.7852 0.7837 0.7822
2790.000000 0.7807 0.7792 0.7778 0.7763 0.7748
2795.000000 0.7733 0.7719 0.7703 0.7687 0.7670
2800.000000 0.7654 0.7637 0.7620 0.7603 0.7586
2805.000000 0.7569 0.7552 0.7535 0.7518 0.7501
2810.000000 0.7484 0.7467 0.7450 0.7432 0.7414
2815.000000 0.7396 0.7369 0.7337 0.7306 0.7274
2820.000000 0.7243 0.7212 0.7148 0.7019 0.6889
2825.000000 0.6756 0.6601 0.6445 0.6289 0.6134
2830.000000 0.5979 0.5823 0.5668 0.5513 0.5358
2835.000000 0.5203 0.5048 0.4893 0.4739 0.4584
2840.000000 0.4430 0.4275 0.4122 0.3968 0.3814
2845.000000 0.3660 0.3507 0.3353 0.3224 0.3110
2850.000000 0.2996 0.2923 0.2918 0.2914 0.2909
2855.000000 0.2904 0.2900 0.2895 0.2891 0.2886
2860.000000 0.2881 0.2877 0.2872 0.2868 0.2863
2865.000000 0.2859 0.2854 0.2849 0.2845 0.2841
2870.000000 0.2838 0.2833 0.2829 0.2825 0.2821
2875.000000 0.2816 0.2812 0.2808 0.2804 0.2800
2880.000000 0.2796 0.2792 0.2788 0.2784 0.2781
2885.000000 0.2777 0.2773 0.2768 0.2760 0.2751
2890.000000 0.2743 0.2727 0.2709 0.2691 0.2670
2895.000000 0.2646 0.2622 0.2596 0.2561 0.2526
2900.000000 0.2491 0.2461 0.2433 0.2405 0.2378
2905.000000 0.2351 0.2325 0.2298 0.2283 0.2268
2910.000000 0.2253 0.2240 0.2228 0.2216 0.2206
2915.000000 0.2203 0.2201 0.2198 0.2195 0.2193
2920.000000 0.2190 0.2174 0.2186 0.2184 0.2182
2925.000000 0.2191 0.2200 0.2210 0.2230 0.2258
2930.000000 0.2285 0.2313 0.2337 0.2362 0.2387
2935.000000 0.2407 0.2426 0.2444 0.2463 0.2481
2940.000000 0.2500 0.2518 0.2549 0.2582 0.2614
2945.000000 0.2657 0.2718 0.2779 0.2840 0.2913
2950.000000 0.2988 0.3063 0.3138 0.3212 0.3287
2955.000000 0.3361 0.3436 0.3511 0.3585 0.3660
2960.000000 0.3734 0.3809 0.3883 0.3957 0.4032
2965.000000 0.4106 0.4180 0.4254 0.4328 0.4403
2970.000000 0.4476 0.4550 0.4624 0.4698 0.4772
2975.000000 0.4846 0.4919 0.4993 0.5067 0.5140
2980.000000 0.5214 0.5287 0.5361 0.5434 0.5507
2985.000000 0.5580 0.5654 0.5727 0.5800 0.5873
2990.000000 0.5946 0.6019 0.6092 0.6165 0.6238
2995.000000 0.6310 0.6383 0.6456 0.6528 0.6601
3000.000000 0.6673 0.6746 0.6818 0.6891 0.6963
3005.000000 0.7035 0.7108 0.7180 0.7252 0.7324
3010.000000 0.7396 0.7468 0.7540 0.7612 0.7684
3015.000000 0.7756 0.7827 0.7899 0.7971 0.8042
3020.000000 0.8091 0.8130 0.8168 0.8206 0.8226
3025.000000 0.8246 0.8267 0.8282 0.8291 0.8299
3030.000000 0.8307 0.8315 0.8323 0.8331 0.8339
3035.000000 0.8346 0.8354 0.8361 0.8368 0.8373
3040.000000 0.8377 0.8382 0.8387 0.8391 0.8396
3045.000000 0.8401 0.8406 0.8410 0.8415 0.8420
3050.000000 0.8424 0.8429 0.8433 0.8438 0.8442
3055.000000 0.8447 0.8451 0.8458 0.8464 0.8471
3060.000000 0.8478 0.8487 0.8496 0.8506 0.8515
3065.000000 0.8524 0.8533 0.8542 0.8551 0.8561
3070.000000 0.8570 0.8579 0.8590 0.8601 0.8612
3075.000000 0.8623 0.8633 0.8642 0.8652 0.8660
3080.000000 0.8664 0.8667 0.8670 0.8674 0.8677
3085.000000 0.8681 0.8684 0.8686 0.8688 0.8690
3090.000000 0.8691 0.8692 0.8693 0.8694 0.8695
3095.000000 0.8696 0.8698 0.8699 0.8700 0.8700
3100.000000 0.8701 0.8702 0.8703 0.8703 0.8704
3105.000000 0.8705 0.8705 0.8705 0.8704 0.8704
3110.000000 0.8703 0.8703 0.8703 0.8703 0.8702
3115.000000 0.8702 0.8701 0.8701 0.8700 0.8700
3120.000000 0.8699 0.8699 0.8698 0.8697 0.8696
3125.000000 0.8696 0.8695 0.8694 0.8693 0.8693
3130.000000 0.8694 0.8695 0.8696 0.8697 0.8698
3135.000000 0.8699 0.8701 0.8702 0.8703 0.8704
3140.000000 0.8706 0.8707 0.8708 0.8709 0.8711
3145.000000 0.8712 0.8713 0.8714 0.8716 0.8717
3150.000000 0.8718 0.8720 0.8721 0.8722 0.8723
3155.000000 0.8725 0.8726 0.8727 0.8728 0.8728
3160.000000 0.8729 0.8730 0.8731 0.8731 0.8732
3165.000000 0.8733 0.8734 0.8735 0.8736 0.8737
3170.000000 0.8738 0.8738 0.8739 0.8740 0.8741
3175.000000 0.8742 0.8743 0.8744 0.8745 0.8745
3180.000000 0.8746 0.8747 0.8747 0.8748 0.8749
3185.000000 0.8750 0.8751 0.8752 0.8753 0.8754
3190.000000 0.8755 0.8757 0.8758 0.8760 0.8761
3195.000000 0.8763 0.8764 0.8766 0.8767 0.8769
3200.000000 0.8771 0.8772 0.8774 0.8775 0.8777
3205.000000 0.8778 0.8780 0.8781 0.8783 0.8784
3210.000000 0.8786 0.8787 0.8789 0.8790 0.8792
3215.000000 0.8793 0.8795 0.8797 0.8798 0.8800
3220.000000 0.8801 0.8803 0.8804 0.8805 0.8807
3225.000000 0.8808 0.8810 0.8811 0.8812 0.8813
3230.000000 0.8815 0.8816 0.8817 0.8819 0.8820
3235.000000 0.8821 0.8822 0.8823 0.8824 0.8801
3240.000000 0.8824 0.8824 0.8824 0.8823 0.8823
3245.000000 0.8823 0.8823 0.8822 0.8822 0.8822
3250.000000 0.8822 0.8821 0.8821 0.8821 0.8820
3255.000000 0.8820 0.8819 0.8819 0.8819 0.8819
3260.000000 0.8818 0.8817 0.8816 0.8815 0.8814
3265.000000 0.8813 0.8812 0.8811 0.8809 0.8808
3270.000000 0.8807 0.8805 0.8804 0.8802 0.8801
3275.000000 0.8800 0.8798 0.8797 0.8795 0.8794
3280.000000 0.8793 0.8791 0.8790 0.8788 0.8787
3285.000000 0.8786 0.8785 0.8783 0.8782 0.8781
3290.000000 0.8780 0.8778 0.8777 0.8776 0.8774
3295.000000 0.8773 0.8772 0.8771 0.8770 0.8768
3300.000000 0.8767 0.8766 0.8764 0.8763 0.8762
3305.000000 0.8761 0.8760 0.8758 0.8757 0.8756
3310.000000 0.8755 0.8754 0.8753 0.8752 0.8750
3315.000000 0.8749 0.8748 0.8747 0.8745 0.8744
3320.000000 0.8743 0.8741 0.8740 0.8738 0.8737
3325.000000 0.8736 0.8734 0.8733 0.8732 0.8730
3330.000000 0.8729 0.8728 0.8726 0.8725 0.8724
3335.000000 0.8722 0.8721 0.8720 0.8718 0.8717
3340.000000 0.8716 0.8714 0.8713 0.8711 0.8710
3345.000000 0.8709 0.8707 0.8706 0.8705 0.8703
3350.000000 0.8702 0.8701 0.8699 0.8698 0.8697
3355.000000 0.8695 0.8694 0.8693 0.8691 0.8690
3360.000000 0.8689 0.8687 0.8686 0.8685 0.8683
3365.000000 0.8682 0.8681 0.8679 0.8677 0.8676
3370.000000 0.8674 0.8672 0.8670 0.8668 0.8666
3375.000000 0.8664 0.8662 0.8660 0.8657 0.8655
3380.000000 0.8653 0.8651 0.8649 0.8647 0.8645
3385.000000 0.8643 0.8641 0.8639 0.8637 0.8635
3390.000000 0.8633 0.8631 0.8629 0.8627 0.8624
3395.000000 0.8622 0.8620 0.8618 0.8616 0.8614
3400.000000 0.8612 0.8610 0.8608 0.8606 0.8604
3405.000000 0.8602 0.8600 0.8598 0.8596 0.8594
3410.000000 0.8592 0.8590 0.8588 0.8586 0.8584
3415.000000 0.8582 0.8580 0.8578 0.8576 0.8574
3420.000000 0.8571 0.8570 0.8568 0.8566 0.8564
3425.000000 0.8562 0.8560 0.8558 0.8556 0.8554
3430.000000 0.8552 0.8550 0.8548 0.8546 0.8544
3435.000000 0.8542 0.8540 0.8538 0.8536 0.8534
3440.000000 0.8532 0.8530 0.8528 0.8526 0.8525
3445.000000 0.8523 0.8521 0.8520 0.8518 0.8517
3450.000000 0.8517 0.8516 0.8516 0.8516 0.8515
3455.000000 0.8515 0.8514 0.8514 0.8513 0.8513
3460.000000 0.8513 0.8512 0.8512 0.8511 0.8511
3465.000000 0.8511 0.8511 0.8511 0.8510 0.8510
3470.000000 0.8509 0.8509 0.8509 0.8508 0.8508
3475.000000 0.8507 0.8507 0.8507 0.8506 0.8506
3480.000000 0.8505 0.8505 0.8505 0.8505 0.8505
3485.000000 0.8505 0.8505 0.8506 0.8506 0.8507
3490.000000 0.8508 0.8508 0.8509 0.8509 0.8510
3495.000000 0.8511 0.8511 0.8512 0.8513 0.8514
3500.000000 0.8514 0.8515 0.8516 0.8516 0.8517
3505.000000 0.8518 0.8518 0.8519 0.8520 0.8521
3510.000000 0.8521 0.8522 0.8523 0.8524 0.8524
3515.000000 0.8525 0.8525 0.8526 0.8527 0.8527
3520.000000 0.8528 0.8528 0.8529 0.8530 0.8530
3525.000000 0.8531 0.8531 0.8529 0.8526 0.8523
3530.000000 0.8520 0.8517 0.8499 0.8481 0.8463
3535.000000 0.8444 0.8426 0.8404 0.8382 0.8360
3540.000000 0.8337 0.8315 0.8293 0.8271 0.8249
3545.000000 0.8227 0.8205 0.8183 0.8161 0.8139
3550.000000 0.8117 0.8095 0.8072 0.8050 0.8028
3555.000000 0.8006 0.7984 0.7962 0.7940 0.7918
3560.000000 0.7896 0.7874 0.7852 0.7830 0.7808
3565.000000 0.7787 0.7765 0.7743 0.7721 0.7699
3570.000000 0.7678 0.7656 0.7634 0.7612 0.7591
3575.000000 0.7569 0.7547 0.7525 0.7504 0.7482
3580.000000 0.7461 0.7439 0.7419 0.7404 0.7389
3585.000000 0.7373 0.7358 0.7345 0.7345 0.7344
3590.000000 0.7344 0.7343 0.7340 0.7344 0.7344
3595.000000 0.7345 0.7346 0.7347 0.7364 0.7383
3600.000000 0.7402 0.7421 0.7440 0.7473 0.7514
3605.000000 0.7554 0.7594 0.7634 0.7674 0.7714
3610.000000 0.7755 0.7795 0.7835 0.7875 0.7915
3615.000000 0.7955 0.7995 0.8035 0.8075 0.8114
3620.000000 0.8154 0.8194 0.8233 0.8273 0.8313
3625.000000 0.8353 0.8392 0.8432 0.8472 0.8509
3630.000000 0.8544 0.8580 0.8615 0.8650 0.8679
3635.000000 0.8691 0.8703 0.8715 0.8727 0.8739
3640.000000 0.8745 0.8752 0.8758 0.8764 0.8770
3645.000000 0.8776 0.8782 0.8788 0.8794 0.8800
3650.000000 0.8805 0.8808 0.8811 0.8815 0.8818
3655.000000 0.8822 0.8823 0.8824 0.8825 0.8826
3660.000000 0.8827 0.8828 0.8830 0.8831 0.8832
3665.000000 0.8834 0.8835 0.8836 0.8837 0.8838
3670.000000 0.8839 0.8840 0.8842 0.8843 0.8844
3675.000000 0.8846 0.8847 0.8848 0.8849 0.8850
3680.000000 0.8851 0.8853 0.8854 0.8854 0.8855
3685.000000 0.8856 0.8857 0.8857 0.8858 0.8858
3690.000000 0.8858 0.8858 0.8858 0.8859 0.8859
3695.000000 0.8859 0.8859 0.8859 0.8859 0.8859
3700.000000 0.8859 0.8859 0.8859 0.8859 0.8860
3705.000000 0.8860 0.8860 0.8860 0.8860 0.8860
3710.000000 0.8854 0.8861 0.8861 0.8861 0.8861
3715.000000 0.8862 0.8862 0.8862 0.8862 0.8862
3720.000000 0.8862 0.8863 0.8863 0.8863 0.8863
3725.000000 0.8863 0.8864 0.8864 0.8864 0.8864
3730.000000 0.8864 0.8864 0.8864 0.8864 0.8864
3735.000000 0.8863 0.8863 0.8862 0.8862 0.8861
3740.000000 0.8860 0.8860 0.8859 0.8858 0.8857
3745.000000 0.8857 0.8856 0.8855 0.8855 0.8854
3750.000000 0.8854 0.8853 0.8852 0.8852 0.8851
3755.000000 0.8851 0.8850 0.8849 0.8848 0.8848
3760.000000 0.8847 0.8846 0.8846 0.8845 0.8844
3765.000000 0.8844 0.8843 0.8842 0.8842 0.8841
3770.000000 0.8841 0.8840 0.8840 0.8839 0.8838
3775.000000 0.8838 0.8837 0.8836 0.8835 0.8835
3780.000000 0.8834 0.8833 0.8833 0.8832 0.8832
3785.000000 0.8831 0.8830 0.8830 0.8829 0.8829
3790.000000 0.8828 0.8828 0.8827 0.8827 0.8826
3795.000000 0.8826 0.8825 0.8825 0.8824 0.8824
3800.000000 0.8823 0.8823 0.8822 0.8822 0.8821
3805.000000 0.8821 0.8820 0.8820 0.8819 0.8819
3810.000000 0.8818 0.8817 0.8817 0.8816 0.8816
3815.000000 0.8815 0.8815 0.8814 0.8814 0.8813
3820.000000 0.8813 0.8812 0.8812 0.8811 0.8811
3825.000000 0.8810 0.8810 0.8809 0.8809 0.8808
3830.000000 0.8808 0.8807 0.8807 0.8806 0.8806
3835.000000 0.8805 0.8805 0.8804 0.8804 0.8803
3840.000000 0.8803 0.8802 0.8802 0.8801 0.8801
3845.000000 0.8800 0.8800 0.8799 0.8799 0.8798
3850.000000 0.8798 0.8797 0.8797 0.8796 0.8796
3855.000000 0.8795 0.8795 0.8794 0.8794 0.8793
3860.000000 0.8793 0.8792 0.8791 0.8791 0.8790
3865.000000 0.8790 0.8789 0.8789 0.8788 0.8788
3870.000000 0.8787 0.8787 0.8786 0.8786 0.8785
3875.000000 0.8785 0.8784 0.8784 0.8784 0.8784
3880.000000 0.8784 0.8784 0.8784 0.8784 0.8784
3885.000000 0.8784 0.8784 0.8784 0.8784 0.8783
3890.000000 0.8783 0.8783 0.8783 0.8783 0.8783
3895.000000 0.8782 0.8782 0.8782 0.8782 0.8782
3900.000000 0.8782 0.8781 0.8781 0.8781 0.8781
3905.000000 0.8781 0.8781 0.8780 0.8780 0.8780
3910.000000 0.8780 0.8780 0.8780 0.8779 0.8779
3915.000000 0.8779 0.8779 0.8779 0.8779 0.8778
3920.000000 0.8778 0.8778 0.8778 0.8778 0.8778
3925.000000 0.8778 0.8778 0.8778 0.8778 0.8778
3930.000000 0.8778 0.8777 0.8777 0.8777 0.8777
3935.000000 0.8777 0.8777 0.8777 0.8777 0.8777
3940.000000 0.8777 0.8777 0.8777 0.8777 0.8777
3945.000000 0.8777 0.8777 0.8777 0.8777 0.8777
3950.000000 0.8776 0.8776 0.8776 0.8776 0.8776
3955.000000 0.8776 0.8776 0.8776 0.8776 0.8776
3960.000000 0.8776 0.8776 0.8775 0.8775 0.8775
3965.000000 0.8775 0.8775 0.8775 0.8775 0.8775
3970.000000 0.8775 0.8775 0.8775 0.8775 0.8775
3975.000000 0.8774 0.8774 0.8774 0.8774 0.8774
3980.000000 0.8774 0.8774 0.8774 0.8774 0.8774
3985.000000 0.8774 0.8774 0.8774 0.8773 0.8773
3990.000000 0.8773 0.8773 0.8773 0.8773 0.8773
3995.000000 0.8773 0.8773 0.8773 0.8773 0.8773
4000.000000 0.8773
##END=
