##TITLE=POTASSIUM CARBONATE
$$ A.R.
##JCAMP-DX=4.24
##DATA TYPE=INFRARED SPECTRUM
##CLASS=COBLENTZ
##ORIGIN=MELLON INSTITUTE
##OWNER=COBLENTZ SOCIETY
Collection (C) 2018 copyright by the U.S. Secretary of Commerce
on behalf of the United States of America. All rights reserved.
##DATE=Not specified, most likely prior to 1970
##MOLFORM=K2 C O3
##SOURCE REFERENCE=COBLENTZ NO. 504
##$NIST ID=B6000504
##$NIST SOURCE=COBLENTZ
##$NIST IMAGE=cob504
##SPECTROMETER/DATA SYSTEM=Not specified, most likely a prism, grating, or hybrid spectrometer.
##STATE=SOLID (NUJOL MULL)
##PATH LENGTH=
$$SPECTRAL CONTAMINATION DUE TO OIL AROUND 2900 CM^-^1
##SAMPLING PROCEDURE=TRANSMISSION
##RESOLUTION=4
##DATA PROCESSING=DIGITIZED BY NIST FROM HARD COPY
##XUNITS=MICROMETERS
##YUNITS=TRANSMITTANCE
##XFACTOR=1.000000
##YFACTOR=1
##DELTAX=000.006820
##FIRSTX=2.032
##LASTX=16.012
##FIRSTY=0.872
##MAXX=16.012
##MINX=2.032
##MAXY=0.984
##MINY=0.219
##NPOINTS=2051
##XYDATA=(X++(Y..Y))
2.032000 0.8720 0.8720 0.8710 0.8690 0.8690
2.066115 0.8670 0.8670 0.8690 0.8690 0.8690
2.100000 0.8690 0.8710 0.8720 0.8740 0.8740
2.134115 0.8720 0.8740 0.8760 0.8740 0.8760
2.168000 0.8780 0.8780 0.8760 0.8780 0.8780
2.202115 0.8790 0.8810 0.8810 0.8790 0.8790
2.236000 0.8790 0.8780 0.8780 0.8780 0.8780
2.270115 0.8780 0.8780 0.8760 0.8780 0.8760
2.304000 0.8740 0.8720 0.8720 0.8720 0.8720
2.338115 0.8720 0.8720 0.8720 0.8740 0.8780
2.373000 0.8790 0.8790 0.8780 0.8780 0.8790
2.407115 0.8740 0.8740 0.8740 0.8740 0.8760
2.441000 0.8780 0.8790 0.8790 0.8790 0.8790
2.475115 0.8780 0.8790 0.8790 0.8790 0.8790
2.509000 0.8790 0.8790 0.8790 0.8810 0.8810
2.543115 0.8830 0.8830 0.8840 0.8840 0.8840
2.577000 0.8840 0.8840 0.8840 0.8840 0.8860
2.611115 0.8860 0.8860 0.8860 0.8840 0.8840
2.645000 0.8830 0.8830 0.8830 0.8810 0.8790
2.679115 0.8780 0.8760 0.8760 0.8760 0.8740
2.714000 0.8740 0.8740 0.8720 0.8690 0.8650
2.748115 0.8620 0.8600 0.8570 0.8530 0.8480
2.782000 0.8450 0.8400 0.8360 0.8310 0.8260
2.816115 0.8190 0.8140 0.8070 0.8000 0.7930
2.850000 0.7850 0.7760 0.7660 0.7590 0.7540
2.884115 0.7490 0.7430 0.7420 0.7400 0.7400
2.918000 0.7400 0.7380 0.7370 0.7350 0.7330
2.952115 0.7310 0.7300 0.7300 0.7260 0.7260
2.986000 0.7250 0.7230 0.7230 0.7190 0.7190
3.020115 0.7180 0.7160 0.7160 0.7140 0.7140
3.055000 0.7130 0.7130 0.7130 0.7130 0.7140
3.089115 0.7160 0.7160 0.7160 0.7180 0.7180
3.123000 0.7180 0.7180 0.7180 0.7180 0.7180
3.157115 0.7180 0.7180 0.7180 0.7180 0.7180
3.191000 0.7180 0.7180 0.7180 0.7180 0.7180
3.225115 0.7180 0.7180 0.7160 0.7160 0.7160
3.259000 0.7140 0.7110 0.7090 0.7010 0.6870
3.293115 0.6660 0.6400 0.6060 0.5630 0.5420
3.327000 0.5100 0.4810 0.4390 0.4310 0.4310
3.361115 0.4360 0.4700 0.5000 0.5180 0.5420
3.396000 0.5600 0.5700 0.5790 0.5790 0.5770
3.430115 0.5750 0.5730 0.5750 0.6130 0.6520
3.464000 0.6800 0.7040 0.7260 0.7430 0.7610
3.498115 0.7740 0.7860 0.7970 0.8070 0.8140
3.532000 0.8190 0.8240 0.8290 0.8330 0.8360
3.566115 0.8400 0.8410 0.8450 0.8480 0.8520
3.600000 0.8550 0.8600 0.8650 0.8670 0.8690
3.634115 0.8710 0.8720 0.8740 0.8760 0.8790
3.668000 0.8810 0.8830 0.8840 0.8860 0.8860
3.702115 0.8880 0.8880 0.8900 0.8910 0.8910
3.737000 0.8930 0.8930 0.8950 0.8950 0.8960
3.771115 0.8960 0.8980 0.8980 0.8980 0.9000
3.805000 0.9000 0.9000 0.9000 0.9000 0.9000
3.839115 0.9000 0.9000 0.9000 0.9000 0.9000
3.873000 0.9000 0.9000 0.9000 0.9000 0.9000
3.907115 0.9000 0.9000 0.9000 0.9000 0.9000
3.941000 0.9000 0.9000 0.9000 0.9000 0.9000
3.975115 0.9000 0.9000 0.9000 0.9000 0.9000
4.009000 0.9000 0.9000 0.9000 0.9000 0.9000
4.043115 0.9000 0.9000 0.9020 0.9030 0.9070
4.077000 0.9080 0.9080 0.9100 0.9100 0.9100
4.111115 0.9100 0.9100 0.9120 0.9100 0.9100
4.146000 0.9080 0.9080 0.9080 0.9070 0.9050
4.180115 0.9050 0.9030 0.9030 0.9020 0.9020
4.214000 0.9000 0.8980 0.8960 0.8960 0.8950
4.248115 0.8930 0.8930 0.8930 0.8900 0.8900
4.282000 0.8900 0.8900 0.8880 0.8880 0.8880
4.316115 0.8880 0.8880 0.8900 0.8930 0.8960
4.350000 0.8980 0.9000 0.9020 0.9030 0.9050
4.384115 0.9070 0.9070 0.9080 0.9080 0.9100
4.418000 0.9100 0.9100 0.9080 0.9080 0.9080
4.452115 0.9080 0.9080 0.9080 0.9080 0.9080
4.487000 0.9080 0.9100 0.9100 0.9140 0.9140
4.521115 0.9140 0.9150 0.9140 0.9140 0.9120
4.555000 0.9120 0.9120 0.9120 0.9100 0.9100
4.589115 0.9100 0.9100 0.9100 0.9100 0.9100
4.623000 0.9080 0.9100 0.9100 0.9100 0.9100
4.657115 0.9120 0.9140 0.9190 0.9190 0.9200
4.691000 0.9200 0.9190 0.9190 0.9200 0.9200
4.725115 0.9200 0.9200 0.9200 0.9200 0.9200
4.759000 0.9200 0.9190 0.9190 0.9170 0.9150
4.793115 0.9150 0.9150 0.9150 0.9150 0.9150
4.828000 0.9170 0.9170 0.9170 0.9150 0.9150
4.862115 0.9150 0.9170 0.9170 0.9190 0.9190
4.896000 0.9200 0.9190 0.9200 0.9220 0.9220
4.930115 0.9220 0.9240 0.9240 0.9240 0.9240
4.964000 0.9240 0.9240 0.9240 0.9240 0.9240
4.998115 0.9220 0.9220 0.9200 0.9200 0.9200
5.032000 0.9190 0.9170 0.9170 0.9170 0.9170
5.066115 0.9170 0.9170 0.9170 0.9170 0.9170
5.100000 0.9170 0.9170 0.9170 0.9170 0.9170
5.134115 0.9170 0.9170 0.9170 0.9170 0.9190
5.169000 0.9200 0.9190 0.9220 0.9220 0.9240
5.203115 0.9260 0.9260 0.9260 0.9260 0.9260
5.237000 0.9260 0.9260 0.9260 0.9260 0.9260
5.271115 0.9240 0.9240 0.9240 0.9240 0.9240
5.305000 0.9260 0.9260 0.9240 0.9240 0.9260
5.339115 0.9260 0.9260 0.9240 0.9240 0.9220
5.373000 0.9200 0.9200 0.9200 0.9200 0.9200
5.407115 0.9200 0.9200 0.9200 0.9200 0.9200
5.441000 0.9200 0.9200 0.9200 0.9200 0.9200
5.475115 0.9220 0.9220 0.9220 0.9220 0.9220
5.510000 0.9220 0.9220 0.9220 0.9240 0.9240
5.544115 0.9240 0.9240 0.9240 0.9260 0.9270
5.578000 0.9290 0.9310 0.9320 0.9320 0.9320
5.612115 0.9320 0.9320 0.9320 0.9310 0.9290
5.646000 0.9270 0.9260 0.9260 0.9240 0.9220
5.680115 0.9220 0.9200 0.9190 0.9190 0.9190
5.714000 0.9170 0.9150 0.9150 0.9150 0.9150
5.748115 0.9150 0.9150 0.9140 0.9150 0.9150
5.782000 0.9150 0.9150 0.9150 0.9150 0.9140
5.816115 0.9140 0.9120 0.9120 0.9100 0.9100
5.851000 0.9070 0.9070 0.9050 0.9050 0.9050
5.885115 0.9030 0.9030 0.9030 0.9020 0.9020
5.919000 0.9000 0.9000 0.8980 0.8960 0.8950
5.953115 0.8950 0.8930 0.8910 0.8900 0.8880
5.987000 0.8860 0.8860 0.8840 0.8810 0.8790
6.021115 0.8760 0.8740 0.8740 0.8740 0.8740
6.055000 0.8760 0.8810 0.8810 0.8840 0.8840
6.089115 0.8840 0.8830 0.8830 0.8830 0.8810
6.123000 0.8830 0.8830 0.8840 0.8860 0.8860
6.157115 0.8860 0.8860 0.8860 0.8860 0.8860
6.192000 0.8860 0.8860 0.8860 0.8830 0.8830
6.226115 0.8830 0.8790 0.8810 0.8790 0.8780
6.260000 0.8760 0.8740 0.8720 0.8710 0.8690
6.294115 0.8670 0.8650 0.8640 0.8620 0.8600
6.328000 0.8590 0.8570 0.8550 0.8530 0.8520
6.362115 0.8500 0.8480 0.8450 0.8430 0.8410
6.396000 0.8380 0.8350 0.8330 0.8290 0.8260
6.430115 0.8230 0.8170 0.8140 0.8090 0.8050
6.464000 0.7980 0.7950 0.7900 0.7850 0.7800
6.498115 0.7730 0.7680 0.7610 0.7540 0.7470
6.533000 0.7400 0.7330 0.7250 0.7160 0.7070
6.567115 0.6990 0.6900 0.6800 0.6710 0.6610
6.601000 0.6510 0.6400 0.6300 0.6180 0.6060
6.635115 0.5960 0.5840 0.5720 0.5580 0.5460
6.669000 0.5320 0.5180 0.5060 0.4910 0.4820
6.703115 0.4740 0.4620 0.4510 0.4390 0.4270
6.737000 0.4150 0.4030 0.3900 0.3780 0.3650
6.771115 0.3530 0.3410 0.3310 0.3190 0.3100
6.805000 0.3000 0.2930 0.2860 0.2800 0.2740
6.839115 0.2710 0.2620 0.2560 0.2500 0.2450
6.874000 0.2420 0.2350 0.2310 0.2210 0.2210
6.908115 0.2190 0.2190 0.2190 0.2210 0.2260
6.942000 0.2350 0.2430 0.2560 0.2690 0.2850
6.976115 0.3000 0.3170 0.3360 0.3550 0.3740
7.010000 0.3910 0.4100 0.4270 0.4310 0.4310
7.044115 0.4310 0.4310 0.4310 0.4310 0.4320
7.078000 0.4460 0.4580 0.4690 0.4790 0.4870
7.112115 0.4980 0.5060 0.5170 0.5250 0.5340
7.146000 0.5440 0.5530 0.5610 0.5700 0.5790
7.180115 0.5870 0.5960 0.6040 0.6130 0.6210
7.215000 0.6300 0.6390 0.6470 0.6560 0.6640
7.249115 0.6730 0.6820 0.6900 0.6970 0.7060
7.283000 0.7140 0.7230 0.7310 0.7400 0.7490
7.317115 0.7570 0.7660 0.7710 0.7760 0.7810
7.351000 0.7860 0.7920 0.7970 0.8000 0.8050
7.385115 0.8070 0.8090 0.8120 0.8120 0.8160
7.419000 0.8190 0.8240 0.8280 0.8290 0.8330
7.453115 0.8350 0.8380 0.8400 0.8430 0.8450
7.487000 0.8470 0.8480 0.8500 0.8520 0.8530
7.521115 0.8550 0.8550 0.8570 0.8570 0.8590
7.555000 0.8620 0.8650 0.8690 0.8710 0.8720
7.589115 0.8720 0.8760 0.8780 0.8790 0.8790
7.624000 0.8810 0.8830 0.8840 0.8840 0.8860
7.658115 0.8880 0.8900 0.8910 0.8930 0.8930
7.692000 0.8950 0.8960 0.8980 0.8980 0.9000
7.726115 0.9020 0.9030 0.9030 0.9050 0.9070
7.760000 0.9070 0.9080 0.9100 0.9100 0.9100
7.794115 0.9120 0.9120 0.9120 0.9140 0.9140
7.828000 0.9140 0.9140 0.9140 0.9150 0.9150
7.862115 0.9150 0.9170 0.9170 0.9170 0.9190
7.896000 0.9200 0.9200 0.9200 0.9220 0.9200
7.930115 0.9220 0.9220 0.9220 0.9220 0.9220
7.965000 0.9240 0.9240 0.9260 0.9260 0.9260
7.999115 0.9260 0.9260 0.9260 0.9270 0.9270
8.033000 0.9290 0.9290 0.9290 0.9290 0.9310
8.067115 0.9310 0.9310 0.9310 0.9320 0.9320
8.101000 0.9320 0.9320 0.9320 0.9320 0.9320
8.135115 0.9320 0.9320 0.9320 0.9320 0.9320
8.169000 0.9320 0.9320 0.9320 0.9320 0.9320
8.203115 0.9320 0.9320 0.9340 0.9340 0.9340
8.237000 0.9360 0.9360 0.9360 0.9360 0.9360
8.271115 0.9360 0.9360 0.9360 0.9360 0.9360
8.306000 0.9360 0.9360 0.9360 0.9360 0.9360
8.340115 0.9360 0.9360 0.9360 0.9360 0.9360
8.374000 0.9360 0.9360 0.9340 0.9340 0.9340
8.408115 0.9340 0.9340 0.9340 0.9340 0.9340
8.442000 0.9340 0.9340 0.9340 0.9340 0.9340
8.476115 0.9340 0.9340 0.9340 0.9320 0.9320
8.510000 0.9310 0.9310 0.9310 0.9310 0.9310
8.544115 0.9340 0.9340 0.9360 0.9360 0.9360
8.578000 0.9360 0.9360 0.9360 0.9390 0.9390
8.612115 0.9390 0.9390 0.9390 0.9390 0.9390
8.647000 0.9390 0.9380 0.9380 0.9380 0.9380
8.681115 0.9380 0.9360 0.9380 0.9380 0.9390
8.715000 0.9390 0.9390 0.9410 0.9410 0.9410
8.749115 0.9430 0.9430 0.9430 0.9430 0.9450
8.783000 0.9450 0.9450 0.9450 0.9450 0.9450
8.817115 0.9450 0.9450 0.9460 0.9460 0.9460
8.851000 0.9480 0.9480 0.9480 0.9480 0.9500
8.885115 0.9500 0.9500 0.9500 0.9500 0.9500
8.919000 0.9500 0.9500 0.9480 0.9480 0.9460
8.953115 0.9450 0.9430 0.9430 0.9430 0.9430
8.988000 0.9430 0.9430 0.9430 0.9430 0.9430
9.022115 0.9450 0.9450 0.9450 0.9460 0.9480
9.056000 0.9500 0.9480 0.9480 0.9460 0.9460
9.090115 0.9450 0.9460 0.9460 0.9460 0.9450
9.124000 0.9450 0.9450 0.9450 0.9450 0.9450
9.158115 0.9450 0.9450 0.9450 0.9450 0.9450
9.192000 0.9450 0.9450 0.9450 0.9450 0.9460
9.226115 0.9460 0.9460 0.9460 0.9460 0.9460
9.260000 0.9460 0.9460 0.9460 0.9460 0.9460
9.294115 0.9480 0.9480 0.9480 0.9480 0.9480
9.329000 0.9480 0.9480 0.9480 0.9480 0.9480
9.363115 0.9480 0.9480 0.9480 0.9500 0.9500
9.397000 0.9500 0.9500 0.9500 0.9500 0.9510
9.431115 0.9510 0.9510 0.9510 0.9510 0.9500
9.465000 0.9510 0.9510 0.9510 0.9510 0.9510
9.499115 0.9510 0.9550 0.9550 0.9550 0.9550
9.533000 0.9580 0.9580 0.9580 0.9580 0.9580
9.567115 0.9580 0.9580 0.9580 0.9580 0.9580
9.601000 0.9570 0.9570 0.9570 0.9570 0.9570
9.635115 0.9570 0.9570 0.9570 0.9570 0.9580
9.670000 0.9580 0.9580 0.9600 0.9600 0.9600
9.704115 0.9620 0.9620 0.9570 0.9580 0.9570
9.738000 0.9580 0.9600 0.9600 0.9600 0.9600
9.772115 0.9600 0.9600 0.9600 0.9600 0.9600
9.806000 0.9600 0.9580 0.9570 0.9570 0.9550
9.840115 0.9580 0.9580 0.9600 0.9580 0.9600
9.874000 0.9600 0.9600 0.9580 0.9580 0.9580
9.908115 0.9580 0.9580 0.9580 0.9580 0.9580
9.942000 0.9600 0.9600 0.9600 0.9600 0.9620
9.976115 0.9620 0.9620 0.9620 0.9600 0.9600
10.011000 0.9620 0.9620 0.9620 0.9600 0.9620
10.045115 0.9600 0.9600 0.9620 0.9620 0.9620
10.079000 0.9620 0.9600 0.9550 0.9530 0.9530
10.113115 0.9530 0.9530 0.9580 0.9580 0.9600
10.147000 0.9600 0.9600 0.9600 0.9600 0.9620
10.181115 0.9620 0.9620 0.9620 0.9620 0.9620
10.215000 0.9620 0.9620 0.9620 0.9620 0.9620
10.249115 0.9600 0.9550 0.9530 0.9580 0.9580
10.283000 0.9580 0.9580 0.9580 0.9570 0.9580
10.317115 0.9620 0.9620 0.9620 0.9600 0.9580
10.352000 0.9580 0.9600 0.9620 0.9600 0.9600
10.386115 0.9600 0.9620 0.9620 0.9620 0.9620
10.420000 0.9620 0.9600 0.9600 0.9600 0.9600
10.454115 0.9600 0.9580 0.9600 0.9600 0.9620
10.488000 0.9620 0.9600 0.9600 0.9570 0.9550
10.522115 0.9550 0.9530 0.9530 0.9510 0.9510
10.556000 0.9500 0.9460 0.9450 0.9430 0.9390
10.590115 0.9380 0.9390 0.9390 0.9390 0.9390
10.624000 0.9390 0.9430 0.9450 0.9430 0.9450
10.658115 0.9460 0.9460 0.9460 0.9450 0.9450
10.692000 0.9430 0.9430 0.9430 0.9430 0.9410
10.726115 0.9410 0.9390 0.9390 0.9390 0.9390
10.761000 0.9390 0.9390 0.9410 0.9410 0.9380
10.795115 0.9380 0.9380 0.9380 0.9360 0.9340
10.829000 0.9320 0.9310 0.9310 0.9290 0.9290
10.863115 0.9290 0.9270 0.9270 0.9270 0.9270
10.897000 0.9270 0.9260 0.9270 0.9270 0.9270
10.931115 0.9270 0.9240 0.9260 0.9240 0.9220
10.965000 0.9200 0.9220 0.9200 0.9190 0.9190
10.999115 0.9170 0.9150 0.9140 0.9140 0.9120
11.033000 0.9100 0.9070 0.9050 0.9050 0.9030
11.067115 0.9020 0.9000 0.8980 0.8950 0.8950
11.102000 0.8950 0.8950 0.8950 0.8960 0.8980
11.136115 0.9000 0.9000 0.9020 0.9030 0.9070
11.170000 0.9100 0.9100 0.9120 0.9120 0.9140
11.204115 0.9140 0.9140 0.9140 0.9140 0.9140
11.238000 0.9140 0.9140 0.9140 0.9140 0.9140
11.272115 0.9120 0.9120 0.9120 0.9120 0.9100
11.306000 0.9100 0.9100 0.9080 0.9080 0.9080
11.340115 0.9070 0.9070 0.9050 0.9050 0.9030
11.374000 0.9030 0.9020 0.9000 0.8960 0.8930
11.408115 0.8880 0.8830 0.8780 0.8710 0.8640
11.443000 0.8590 0.8500 0.8430 0.8350 0.8260
11.477115 0.8170 0.8070 0.7950 0.7850 0.7730
11.511000 0.7590 0.7450 0.7420 0.7420 0.7420
11.545115 0.7420 0.7420 0.7420 0.7430 0.7520
11.579000 0.7590 0.7730 0.7830 0.7930 0.8040
11.613115 0.8140 0.8230 0.8310 0.8380 0.8450
11.647000 0.8520 0.8590 0.8640 0.8690 0.8740
11.681115 0.8790 0.8840 0.8900 0.8930 0.8980
11.715000 0.9020 0.9050 0.9050 0.9080 0.9120
11.749115 0.9140 0.9150 0.9170 0.9190 0.9220
11.784000 0.9240 0.9270 0.9310 0.9320 0.9340
11.818115 0.9360 0.9360 0.9380 0.9390 0.9410
11.852000 0.9430 0.9450 0.9460 0.9460 0.9480
11.886115 0.9480 0.9500 0.9510 0.9530 0.9530
11.920000 0.9500 0.9510 0.9550 0.9570 0.9570
11.954115 0.9570 0.9580 0.9580 0.9580 0.9580
11.988000 0.9580 0.9580 0.9600 0.9600 0.9620
12.022115 0.9620 0.9620 0.9630 0.9630 0.9650
12.056000 0.9670 0.9690 0.9700 0.9720 0.9720
12.090115 0.9740 0.9750 0.9740 0.9740 0.9740
12.125000 0.9740 0.9720 0.9720 0.9720 0.9720
12.159115 0.9720 0.9720 0.9720 0.9720 0.9700
12.193000 0.9700 0.9720 0.9740 0.9750 0.9750
12.227115 0.9770 0.9770 0.9770 0.9770 0.9770
12.261000 0.9790 0.9770 0.9770 0.9770 0.9750
12.295115 0.9750 0.9750 0.9740 0.9740 0.9740
12.329000 0.9720 0.9740 0.9740 0.9740 0.9740
12.363115 0.9740 0.9740 0.9740 0.9740 0.9740
12.397000 0.9750 0.9750 0.9750 0.9750 0.9750
12.431115 0.9750 0.9750 0.9750 0.9770 0.9770
12.466000 0.9750 0.9750 0.9770 0.9790 0.9790
12.500115 0.9810 0.9790 0.9810 0.9810 0.9810
12.534000 0.9820 0.9820 0.9840 0.9840 0.9840
12.568115 0.9840 0.9840 0.9840 0.9840 0.9840
12.602000 0.9840 0.9840 0.9820 0.9820 0.9820
12.636115 0.9820 0.9810 0.9810 0.9790 0.9790
12.670000 0.9790 0.9790 0.9790 0.9790 0.9790
12.704115 0.9790 0.9790 0.9790 0.9790 0.9790
12.738000 0.9790 0.9790 0.9790 0.9790 0.9790
12.772115 0.9790 0.9790 0.9790 0.9790 0.9770
12.807000 0.9770 0.9750 0.9750 0.9720 0.9720
12.841115 0.9740 0.9740 0.9740 0.9750 0.9750
12.875000 0.9750 0.9750 0.9750 0.9750 0.9750
12.909115 0.9750 0.9740 0.9740 0.9740 0.9740
12.943000 0.9720 0.9720 0.9720 0.9720 0.9700
12.977115 0.9700 0.9700 0.9700 0.9700 0.9700
13.011000 0.9700 0.9700 0.9690 0.9690 0.9670
13.045115 0.9650 0.9630 0.9620 0.9620 0.9620
13.079000 0.9600 0.9600 0.9600 0.9620 0.9620
13.113115 0.9620 0.9620 0.9630 0.9630 0.9630
13.148000 0.9620 0.9620 0.9620 0.9620 0.9620
13.182115 0.9620 0.9620 0.9620 0.9600 0.9600
13.216000 0.9600 0.9600 0.9600 0.9600 0.9600
13.250115 0.9600 0.9580 0.9580 0.9580 0.9570
13.284000 0.9570 0.9570 0.9570 0.9550 0.9550
13.318115 0.9550 0.9550 0.9530 0.9530 0.9530
13.352000 0.9530 0.9530 0.9530 0.9530 0.9510
13.386115 0.9510 0.9510 0.9510 0.9530 0.9530
13.420000 0.9530 0.9530 0.9530 0.9510 0.9500
13.454115 0.9480 0.9450 0.9430 0.9410 0.9390
13.489000 0.9390 0.9380 0.9380 0.9380 0.9360
13.523115 0.9380 0.9380 0.9380 0.9380 0.9360
13.557000 0.9340 0.9340 0.9320 0.9340 0.9320
13.591115 0.9320 0.9320 0.9320 0.9320 0.9340
13.625000 0.9320 0.9320 0.9320 0.9310 0.9320
13.659115 0.9320 0.9320 0.9320 0.9310 0.9310
13.693000 0.9310 0.9290 0.9310 0.9310 0.9310
13.727115 0.9290 0.9290 0.9270 0.9260 0.9240
13.761000 0.9260 0.9240 0.9220 0.9200 0.9190
13.795115 0.9190 0.9170 0.9170 0.9150 0.9150
13.830000 0.9140 0.9120 0.9120 0.9120 0.9120
13.864115 0.9120 0.9120 0.9120 0.9120 0.9120
13.898000 0.9120 0.9120 0.9140 0.9150 0.9140
13.932115 0.9140 0.9140 0.9140 0.9140 0.9140
13.966000 0.9120 0.9100 0.9080 0.9070 0.9070
14.000115 0.9070 0.9050 0.9050 0.9030 0.9030
14.034000 0.9030 0.9020 0.9020 0.9020 0.9020
14.068115 0.9020 0.9020 0.9020 0.9000 0.9000
14.102000 0.8980 0.8960 0.8960 0.8960 0.8950
14.136115 0.8930 0.8910 0.8900 0.8880 0.8860
14.170000 0.8880 0.8860 0.8840 0.8840 0.8860
14.204115 0.8840 0.8860 0.8840 0.8840 0.8830
14.239000 0.8830 0.8810 0.8810 0.8830 0.8810
14.273115 0.8810 0.8790 0.8780 0.8760 0.8740
14.307000 0.8720 0.8710 0.8690 0.8690 0.8670
14.341115 0.8650 0.8640 0.8620 0.8600 0.8600
14.375000 0.8590 0.8570 0.8550 0.8530 0.8520
14.409115 0.8500 0.8470 0.8450 0.8430 0.8430
14.443000 0.8400 0.8360 0.8330 0.8310 0.8280
14.477115 0.8260 0.8230 0.8210 0.8210 0.8210
14.511000 0.8210 0.8230 0.8240 0.8240 0.8240
14.545115 0.8240 0.8240 0.8240 0.8240 0.8240
14.580000 0.8230 0.8230 0.8230 0.8230 0.8210
14.614115 0.8210 0.8210 0.8210 0.8230 0.8230
14.648000 0.8230 0.8240 0.8230 0.8230 0.8230
14.682115 0.8210 0.8230 0.8230 0.8230 0.8210
14.716000 0.8190 0.8210 0.8190 0.8190 0.8160
14.750115 0.8160 0.8140 0.8140 0.8160 0.8160
14.784000 0.8160 0.8160 0.8160 0.8140 0.8140
14.818115 0.8140 0.8160 0.8160 0.8170 0.8170
14.852000 0.8190 0.8170 0.8170 0.8170 0.8160
14.886115 0.8160 0.8140 0.8140 0.8120 0.8100
14.921000 0.8090 0.8070 0.8050 0.8040 0.8020
14.955115 0.8000 0.7980 0.7970 0.7930 0.7920
14.989000 0.7920 0.7900 0.7880 0.7880 0.7880
15.023115 0.7850 0.7850 0.7850 0.7830 0.7830
15.057000 0.7810 0.7800 0.7810 0.7810 0.7810
15.091115 0.7810 0.7800 0.7780 0.7780 0.7780
15.125000 0.7780 0.7780 0.7780 0.7800 0.7800
15.159115 0.7800 0.7780 0.7800 0.7800 0.7810
15.193000 0.7830 0.7830 0.7850 0.7850 0.7860
15.227115 0.7850 0.7850 0.7830 0.7810 0.7800
15.262000 0.7780 0.7760 0.7780 0.7780 0.7760
15.296115 0.7740 0.7730 0.7710 0.7710 0.7730
15.330000 0.7730 0.7740 0.7740 0.7760 0.7760
15.364115 0.7760 0.7760 0.7760 0.7760 0.7760
15.398000 0.7760 0.7760 0.7740 0.7740 0.7710
15.432115 0.7710 0.7710 0.7730 0.7730 0.7740
15.466000 0.7740 0.7740 0.7760 0.7760 0.7740
15.500115 0.7740 0.7740 0.7740 0.7740 0.7730
15.534000 0.7740 0.7730 0.7730 0.7730 0.7730
15.568115 0.7710 0.7710 0.7690 0.7690 0.7690
15.603000 0.7680 0.7680 0.7680 0.7680 0.7680
15.637115 0.7690 0.7690 0.7690 0.7690 0.7710
15.671000 0.7710 0.7730 0.7730 0.7690 0.7690
15.705115 0.7690 0.7690 0.7680 0.7680 0.7680
15.739000 0.7690 0.7710 0.7730 0.7760 0.7780
15.773115 0.7800 0.7810 0.7810 0.7800 0.7780
15.807000 0.7740 0.7760 0.7760 0.7780 0.7780
15.841115 0.7800 0.7810 0.7810 0.7830 0.7830
15.875000 0.7830 0.7830 0.7830 0.7810 0.7810
15.909115 0.7800 0.7800 0.7830 0.7830 0.7830
15.944000 0.7850 0.7850 0.7860 0.7860 0.7860
15.978115 0.7860 0.7860 0.7860 0.7860 0.7860
16.012000 0.7860
##END=
