##TITLE=1,1'-BIS (Beta-HYDROXYETHYL) FERROCENE
##JCAMP-DX=4.24
##DATA TYPE=INFRARED SPECTRUM
##CLASS=COBLENTZ
##ORIGIN=WYANDOTTE CHEMICALS CORP., WYANDOTTE, MICHIGAN, USA
##OWNER=COBLENTZ SOCIETY
Collection (C) 2018 copyright by the U.S. Secretary of Commerce
on behalf of the United States of America. All rights reserved.
##DATE=Not specified, most likely prior to 1970
##MOLFORM=C14 H18 Fe O2
##MP=43-45 C
##SOURCE REFERENCE=COBLENTZ NO. 3018
##$NIST ID=B6003018
##$NIST SOURCE=COBLENTZ
##$NIST IMAGE=cob3018
##SPECTROMETER/DATA SYSTEM=Not specified, most likely a prism, grating, or hybrid spectrometer.
##STATE=SOLID (MINERAL OIL MULL)
##PATH LENGTH=
$$SPECTRAL CONTAMINATION DUE TO OIL AROUND 2900 CM^-^1
##SAMPLING PROCEDURE=TRANSMISSION
##RESOLUTION=4
##DATA PROCESSING=DIGITIZED BY NIST FROM HARD COPY
##XUNITS=MICROMETERS
##YUNITS=TRANSMITTANCE
##XFACTOR=1.000000
##YFACTOR=1
##DELTAX=000.006803
##FIRSTX=2.007
##LASTX=15.9928
##FIRSTY=0.699
##MAXX=15.9928
##MINX=2.007
##MAXY=0.948
##MINY=0.136
##NPOINTS=2057
##XYDATA=(X++(Y..Y))
2.007000 0.6990 0.6970 0.6970 0.6960 0.6960
2.041030 0.6960 0.6970 0.6990 0.7060 0.7080
2.075000 0.7110 0.7130 0.7150 0.7160 0.7160
2.109030 0.7180 0.7180 0.7180 0.7200 0.7200
2.143000 0.7200 0.7200 0.7200 0.7200 0.7200
2.177030 0.7200 0.7200 0.7200 0.7210 0.7210
2.211000 0.7210 0.7230 0.7230 0.7250 0.7260
2.245030 0.7280 0.7280 0.7250 0.7250 0.7260
2.279000 0.7280 0.7300 0.7300 0.7320 0.7320
2.313030 0.7330 0.7330 0.7350 0.7350 0.7370
2.347000 0.7440 0.7470 0.7520 0.7550 0.7570
2.381030 0.7570 0.7570 0.7570 0.7550 0.7550
2.415000 0.7550 0.7550 0.7550 0.7570 0.7570
2.449030 0.7570 0.7550 0.7470 0.7440 0.7440
2.483000 0.7470 0.7540 0.7570 0.7570 0.7590
2.517030 0.7610 0.7640 0.7670 0.7730 0.7780
2.551000 0.7810 0.7810 0.7790 0.7730 0.7640
2.585030 0.7640 0.7670 0.7760 0.7830 0.7860
2.619000 0.7900 0.7910 0.7950 0.7980 0.8000
2.653030 0.8030 0.8070 0.8080 0.8100 0.8120
2.687000 0.8120 0.8120 0.8120 0.8120 0.8120
2.721030 0.8120 0.8120 0.8100 0.8080 0.8030
2.755000 0.7980 0.7950 0.7910 0.7860 0.7810
2.789030 0.7790 0.7690 0.7540 0.7380 0.7260
2.823000 0.7090 0.6990 0.6960 0.6840 0.6700
2.857030 0.6530 0.6410 0.6260 0.6090 0.5920
2.891000 0.5760 0.5630 0.5470 0.5290 0.5100
2.925030 0.4860 0.4590 0.4500 0.4350 0.4180
2.959000 0.3950 0.3750 0.3540 0.3340 0.3200
2.993030 0.3080 0.2900 0.2740 0.2620 0.2500
3.027000 0.2350 0.2280 0.2210 0.2110 0.2080
3.061030 0.2090 0.2110 0.2160 0.2160 0.2160
3.095000 0.2150 0.2150 0.2150 0.2150 0.2160
3.129030 0.2280 0.2380 0.2490 0.2550 0.2640
3.163000 0.2710 0.2790 0.2840 0.2910 0.2980
3.197030 0.3050 0.3120 0.3170 0.3190 0.3240
3.231000 0.3310 0.3430 0.3600 0.3900 0.4090
3.265030 0.4280 0.4360 0.4480 0.4520 0.4520
3.299000 0.4480 0.4400 0.4010 0.3600 0.3220
3.333030 0.2830 0.2470 0.2130 0.1840 0.1580
3.367000 0.1480 0.1430 0.1390 0.1360 0.1360
3.401030 0.1380 0.1430 0.1510 0.1620 0.1700
3.435000 0.1750 0.1800 0.1840 0.1870 0.1920
3.469030 0.1990 0.2010 0.2090 0.2320 0.2620
3.503000 0.3000 0.3390 0.3820 0.4240 0.4670
3.537030 0.5030 0.5340 0.5490 0.5660 0.5800
3.571000 0.5970 0.6050 0.6140 0.6210 0.6330
3.605030 0.6410 0.6460 0.6500 0.6530 0.6550
3.639000 0.6580 0.6620 0.6630 0.6670 0.6720
3.673030 0.6740 0.6750 0.6840 0.6890 0.6920
3.707000 0.6960 0.6970 0.6990 0.7010 0.7030
3.741030 0.7060 0.7060 0.7080 0.7080 0.7080
3.776000 0.7110 0.7150 0.7200 0.7250 0.7300
3.810030 0.7320 0.7380 0.7420 0.7420 0.7440
3.844000 0.7470 0.7490 0.7540 0.7590 0.7640
3.878030 0.7690 0.7710 0.7740 0.7780 0.7790
3.912000 0.7830 0.7840 0.7860 0.7860 0.7880
3.946030 0.7900 0.7960 0.7980 0.8020 0.8080
3.980000 0.8100 0.8120 0.8000 0.7980 0.8000
4.014030 0.8050 0.8130 0.8290 0.8410 0.8490
4.048000 0.8490 0.8410 0.8370 0.8310 0.8220
4.082030 0.8080 0.8080 0.8220 0.8150 0.8080
4.116000 0.8070 0.8030 0.8070 0.8120 0.8220
4.150030 0.8290 0.8340 0.8390 0.8430 0.8490
4.184000 0.8490 0.8510 0.8510 0.8490 0.8360
4.218030 0.8290 0.8290 0.8310 0.8310 0.8310
4.252000 0.8310 0.8320 0.8340 0.8360 0.8370
4.286030 0.8390 0.8410 0.8410 0.8430 0.8410
4.320000 0.8430 0.8440 0.8460 0.8480 0.8490
4.354030 0.8600 0.8700 0.8720 0.8730 0.8750
4.388000 0.8750 0.8680 0.8680 0.8700 0.8700
4.422030 0.8720 0.8770 0.8900 0.8920 0.8900
4.456000 0.8890 0.8870 0.8800 0.8720 0.8680
4.490030 0.8630 0.8610 0.8630 0.8680 0.8720
4.524000 0.8750 0.8680 0.8750 0.8820 0.8900
4.558030 0.8990 0.8990 0.8920 0.8720 0.8770
4.592000 0.8800 0.8920 0.8990 0.9020 0.8990
4.626030 0.9020 0.9060 0.9040 0.9020 0.8990
4.660000 0.8920 0.8770 0.8730 0.8730 0.8730
4.694030 0.8770 0.8900 0.8920 0.8940 0.8990
4.728000 0.9090 0.9120 0.9110 0.8990 0.8920
4.762030 0.8900 0.8900 0.8920 0.8990 0.9020
4.796000 0.9040 0.9020 0.9020 0.9020 0.9020
4.830030 0.9010 0.8990 0.8970 0.8950 0.8920
4.864000 0.8900 0.8900 0.8900 0.8920 0.8940
4.898030 0.8990 0.8990 0.8990 0.8990 0.8990
4.932000 0.8970 0.8970 0.8970 0.8970 0.8970
4.966030 0.8990 0.9010 0.9020 0.9040 0.9040
5.000000 0.9070 0.9070 0.9090 0.9120 0.9180
5.034030 0.9180 0.9180 0.9180 0.9140 0.9140
5.068000 0.9160 0.9160 0.9160 0.9180 0.9190
5.102030 0.9190 0.9190 0.9210 0.9210 0.9240
5.136000 0.9280 0.9280 0.9300 0.9300 0.9280
5.170030 0.9260 0.9280 0.9300 0.9330 0.9330
5.204000 0.9350 0.9350 0.9360 0.9360 0.9360
5.238030 0.9380 0.9400 0.9400 0.9400 0.9410
5.272000 0.9410 0.9410 0.9400 0.9400 0.9400
5.306030 0.9380 0.9380 0.9380 0.9380 0.9400
5.340000 0.9400 0.9410 0.9410 0.9430 0.9450
5.374030 0.9470 0.9480 0.9480 0.9480 0.9430
5.408000 0.9410 0.9410 0.9400 0.9380 0.9380
5.442030 0.9400 0.9410 0.9430 0.9430 0.9430
5.476000 0.9410 0.9410 0.9410 0.9410 0.9400
5.510030 0.9400 0.9400 0.9400 0.9410 0.9410
5.544000 0.9400 0.9360 0.9350 0.9330 0.9330
5.578030 0.9330 0.9310 0.9300 0.9260 0.9230
5.612000 0.9180 0.9120 0.9070 0.9020 0.8990
5.646030 0.8950 0.8920 0.8900 0.8890 0.8870
5.680000 0.8800 0.8720 0.8650 0.8580 0.8540
5.714030 0.8540 0.8540 0.8530 0.8510 0.8460
5.748000 0.8440 0.8490 0.8490 0.8480 0.8440
5.782030 0.8430 0.8430 0.8390 0.8410 0.8410
5.816000 0.8410 0.8410 0.8410 0.8410 0.8390
5.850030 0.8360 0.8340 0.8310 0.8310 0.8270
5.884000 0.8220 0.8120 0.8050 0.8020 0.8020
5.918030 0.8020 0.8030 0.8030 0.8030 0.8030
5.952000 0.8030 0.8030 0.8030 0.8030 0.8030
5.986030 0.8020 0.8000 0.7980 0.7960 0.7900
6.020000 0.7840 0.7840 0.7880 0.7880 0.7880
6.054030 0.7880 0.7860 0.7790 0.7790 0.7860
6.088000 0.8200 0.8240 0.8100 0.8100 0.8100
6.122030 0.8100 0.8100 0.8120 0.8190 0.8270
6.156000 0.8340 0.8430 0.8490 0.8530 0.8560
6.190030 0.8630 0.8770 0.8890 0.8900 0.8890
6.224000 0.8870 0.8870 0.8820 0.8820 0.8850
6.258030 0.8900 0.8900 0.8890 0.8700 0.8650
6.293000 0.8610 0.8600 0.8600 0.8610 0.8700
6.327030 0.8720 0.8650 0.8650 0.8700 0.8680
6.361000 0.8680 0.8660 0.8650 0.8650 0.8650
6.395030 0.8630 0.8560 0.8480 0.8390 0.8320
6.429000 0.8290 0.8250 0.8240 0.8240 0.8240
6.463030 0.8240 0.8250 0.8290 0.8290 0.8290
6.497000 0.8310 0.8310 0.8270 0.8240 0.8200
6.531030 0.8170 0.8190 0.8190 0.8170 0.8130
6.565000 0.8080 0.8020 0.7960 0.7900 0.7830
6.599030 0.7780 0.7710 0.7640 0.7520 0.7420
6.633000 0.7250 0.7060 0.6910 0.6800 0.6700
6.667030 0.6600 0.6460 0.6340 0.6140 0.5900
6.701000 0.5660 0.5420 0.5230 0.5060 0.4910
6.735030 0.4700 0.4520 0.4360 0.4240 0.4040
6.769000 0.3830 0.3680 0.3580 0.3530 0.3460
6.803030 0.3340 0.3320 0.3320 0.3370 0.3560
6.837000 0.3720 0.3820 0.3950 0.3990 0.4070
6.871030 0.4160 0.4190 0.4210 0.4230 0.4240
6.905000 0.4260 0.4280 0.4300 0.4350 0.4500
6.939030 0.4700 0.4840 0.4960 0.5050 0.5200
6.973000 0.5350 0.5420 0.5460 0.5470 0.5490
7.007030 0.5510 0.5540 0.5580 0.5630 0.5710
7.041000 0.5800 0.5830 0.5870 0.5900 0.5920
7.075030 0.5970 0.5980 0.5980 0.6040 0.6070
7.109000 0.6090 0.6050 0.6020 0.6000 0.6000
7.143030 0.5980 0.5980 0.6000 0.6050 0.6050
7.177000 0.6020 0.6000 0.5950 0.5900 0.5810
7.211030 0.5680 0.5560 0.5460 0.5350 0.5270
7.245000 0.5180 0.5150 0.5170 0.5230 0.5340
7.279030 0.5520 0.5630 0.5690 0.5750 0.5800
7.313000 0.5900 0.6000 0.6070 0.6190 0.6220
7.347030 0.6240 0.6260 0.6270 0.6270 0.6270
7.381000 0.6290 0.6290 0.6290 0.6290 0.6290
7.415030 0.6290 0.6270 0.6270 0.6290 0.6330
7.449000 0.6380 0.6460 0.6550 0.6650 0.6700
7.483030 0.6680 0.6700 0.6720 0.6750 0.6800
7.517000 0.6890 0.6990 0.7080 0.7130 0.7230
7.551030 0.7250 0.7260 0.7300 0.7330 0.7400
7.585000 0.7440 0.7490 0.7520 0.7500 0.7500
7.619030 0.7500 0.7490 0.7470 0.7470 0.7440
7.653000 0.7400 0.7370 0.7260 0.7210 0.7150
7.687030 0.6960 0.6840 0.6740 0.6680 0.6600
7.721000 0.6530 0.6500 0.6450 0.6390 0.6380
7.755030 0.6360 0.6380 0.6410 0.6480 0.6510
7.789000 0.6530 0.6550 0.6560 0.6580 0.6630
7.823030 0.6630 0.6600 0.6600 0.6550 0.6550
7.857000 0.6600 0.6790 0.6860 0.6910 0.6940
7.891030 0.7010 0.7080 0.7110 0.7200 0.7300
7.925000 0.7350 0.7400 0.7470 0.7550 0.7660
7.959030 0.7740 0.7790 0.7840 0.7900 0.7980
7.993000 0.8000 0.8000 0.7980 0.7910 0.7900
8.027030 0.7860 0.7760 0.7640 0.7540 0.7400
8.061000 0.7230 0.7060 0.7010 0.6890 0.6720
8.095030 0.6630 0.6560 0.6510 0.6500 0.6500
8.129000 0.6500 0.6550 0.6560 0.6580 0.6620
8.163030 0.6680 0.6770 0.6910 0.7040 0.7160
8.197000 0.7440 0.7550 0.7590 0.7620 0.7620
8.231030 0.7590 0.7590 0.7590 0.7570 0.7570
8.265000 0.7570 0.7550 0.7520 0.7500 0.7470
8.299030 0.7380 0.7330 0.7330 0.7350 0.7400
8.333000 0.7440 0.7490 0.7500 0.7540 0.7620
8.367030 0.7640 0.7610 0.7590 0.7590 0.7570
8.401000 0.7540 0.7490 0.7440 0.7300 0.7230
8.435030 0.7160 0.7090 0.7030 0.7030 0.6990
8.469000 0.6970 0.6970 0.6970 0.6970 0.6990
8.503030 0.6990 0.7010 0.7010 0.7030 0.7040
8.537000 0.7080 0.7080 0.7110 0.7150 0.7200
8.571030 0.7250 0.7300 0.7300 0.7320 0.7350
8.605000 0.7400 0.7470 0.7500 0.7520 0.7520
8.639030 0.7590 0.7670 0.7760 0.7790 0.7840
8.673000 0.7950 0.7980 0.8030 0.8170 0.8200
8.707030 0.8240 0.8270 0.8320 0.8390 0.8460
8.741000 0.8490 0.8510 0.8540 0.8630 0.8700
8.775030 0.8730 0.8750 0.8720 0.8730 0.8750
8.810000 0.8770 0.8780 0.8800 0.8800 0.8820
8.844030 0.8820 0.8820 0.8820 0.8820 0.8780
8.878000 0.8780 0.8820 0.8830 0.8820 0.8820
8.912030 0.8780 0.8770 0.8770 0.8770 0.8780
8.946000 0.8780 0.8800 0.8800 0.8800 0.8800
8.980030 0.8800 0.8780 0.8770 0.8750 0.8750
9.014000 0.8730 0.8730 0.8720 0.8720 0.8680
9.048030 0.8650 0.8630 0.8600 0.8580 0.8560
9.082000 0.8510 0.8480 0.8480 0.8460 0.8440
9.116030 0.8460 0.8460 0.8440 0.8390 0.8360
9.150000 0.8310 0.8290 0.8240 0.8170 0.8120
9.184030 0.8120 0.8100 0.8030 0.7910 0.7840
9.218000 0.7740 0.7670 0.7620 0.7570 0.7500
9.252030 0.7420 0.7300 0.7250 0.7160 0.7030
9.286000 0.6940 0.6770 0.6630 0.6460 0.6260
9.320030 0.6050 0.5810 0.5580 0.5300 0.5050
9.354000 0.4770 0.4500 0.4230 0.3970 0.3730
9.388030 0.3490 0.3290 0.3100 0.2950 0.2810
9.422000 0.2710 0.2620 0.2590 0.2550 0.2520
9.456030 0.2490 0.2450 0.2440 0.2420 0.2400
9.490000 0.2420 0.2440 0.2450 0.2470 0.2490
9.524030 0.2520 0.2540 0.2550 0.2570 0.2590
9.558000 0.2610 0.2620 0.2640 0.2640 0.2610
9.592030 0.2540 0.2470 0.2320 0.2250 0.2180
9.626000 0.2110 0.2060 0.2040 0.2060 0.2080
9.660030 0.2110 0.2150 0.2210 0.2300 0.2450
9.694000 0.2500 0.2540 0.2550 0.2540 0.2520
9.728030 0.2500 0.2490 0.2420 0.2370 0.2320
9.762000 0.2260 0.2230 0.2200 0.2160 0.2160
9.796030 0.2180 0.2180 0.2200 0.2200 0.2200
9.830000 0.2210 0.2200 0.2200 0.2200 0.2200
9.864030 0.2200 0.2200 0.2210 0.2250 0.2300
9.898000 0.2370 0.2400 0.2420 0.2450 0.2490
9.932030 0.2570 0.2710 0.2830 0.2980 0.3130
9.966000 0.3310 0.3530 0.3660 0.3800 0.3950
10.000030 0.4230 0.4650 0.4790 0.4890 0.5000
10.034000 0.5110 0.5300 0.5540 0.5660 0.5750
10.068030 0.5870 0.5970 0.6070 0.6170 0.6310
10.102000 0.6460 0.6560 0.6670 0.6750 0.6820
10.136030 0.6890 0.6990 0.7040 0.7090 0.7180
10.170000 0.7250 0.7320 0.7350 0.7380 0.7420
10.204030 0.7490 0.7550 0.7570 0.7590 0.7590
10.238000 0.7610 0.7620 0.7660 0.7710 0.7730
10.272030 0.7780 0.7810 0.7860 0.7910 0.7950
10.306000 0.7950 0.7960 0.7980 0.7980 0.8000
10.340030 0.8020 0.8020 0.8030 0.8070 0.8070
10.374000 0.8080 0.8080 0.8080 0.8100 0.8080
10.408030 0.8100 0.8120 0.8120 0.8130 0.8130
10.442000 0.8150 0.8170 0.8170 0.8190 0.8200
10.476030 0.8200 0.8220 0.8220 0.8200 0.8220
10.510000 0.8250 0.8310 0.8370 0.8390 0.8410
10.544030 0.8430 0.8430 0.8460 0.8460 0.8460
10.578000 0.8460 0.8480 0.8480 0.8490 0.8490
10.612030 0.8480 0.8440 0.8460 0.8480 0.8460
10.646000 0.8460 0.8440 0.8430 0.8410 0.8390
10.680030 0.8390 0.8410 0.8480 0.8480 0.8430
10.714000 0.8410 0.8370 0.8360 0.8340 0.8310
10.748030 0.8290 0.8200 0.8120 0.8020 0.7860
10.782000 0.7740 0.7640 0.7500 0.7330 0.7040
10.816030 0.6910 0.6750 0.6650 0.6600 0.6550
10.850000 0.6510 0.6510 0.6550 0.6580 0.6600
10.884030 0.6620 0.6600 0.6620 0.6650 0.6700
10.918000 0.6770 0.6860 0.6970 0.7090 0.7210
10.952030 0.7350 0.7450 0.7540 0.7590 0.7640
10.986000 0.7670 0.7730 0.7760 0.7810 0.7860
11.020030 0.7900 0.7910 0.7900 0.7910 0.7950
11.054000 0.7960 0.7980 0.8020 0.8020 0.7980
11.088030 0.7880 0.7830 0.7830 0.7810 0.7810
11.122000 0.7810 0.7810 0.7810 0.7830 0.7900
11.156030 0.7930 0.7960 0.8000 0.8030 0.8070
11.190000 0.8120 0.8130 0.8120 0.8100 0.8100
11.224030 0.8080 0.8080 0.8080 0.8080 0.8080
11.259000 0.8080 0.8070 0.8070 0.8050 0.8020
11.293030 0.8020 0.7980 0.7960 0.7910 0.7910
11.327000 0.7900 0.7880 0.7840 0.7830 0.7780
11.361030 0.7760 0.7730 0.7710 0.7670 0.7660
11.395000 0.7640 0.7590 0.7570 0.7570 0.7590
11.429030 0.7590 0.7590 0.7590 0.7570 0.7570
11.463000 0.7570 0.7550 0.7540 0.7490 0.7400
11.497030 0.7250 0.7180 0.7130 0.7030 0.6910
11.531000 0.6790 0.6650 0.6550 0.6450 0.6310
11.565030 0.6210 0.6100 0.6020 0.5950 0.5880
11.599000 0.5810 0.5780 0.5750 0.5750 0.5760
11.633030 0.5800 0.5830 0.5830 0.5850 0.5870
11.667000 0.5870 0.5870 0.5880 0.5880 0.5900
11.701030 0.5920 0.5920 0.5930 0.5950 0.5980
11.735000 0.6020 0.6040 0.6090 0.6090 0.6100
11.769030 0.6100 0.6120 0.6120 0.6140 0.6160
11.803000 0.6160 0.6170 0.6190 0.6210 0.6260
11.837030 0.6310 0.6330 0.6360 0.6430 0.6480
11.871000 0.6480 0.6500 0.6500 0.6500 0.6480
11.905030 0.6480 0.6430 0.6330 0.6220 0.6070
11.939000 0.5980 0.5880 0.5810 0.5760 0.5660
11.973030 0.5560 0.5490 0.5420 0.5390 0.5320
12.007000 0.5200 0.5150 0.5100 0.5080 0.5060
12.041030 0.5080 0.5250 0.5350 0.5350 0.5290
12.075000 0.5290 0.5300 0.5370 0.5420 0.5490
12.109030 0.5540 0.5590 0.5630 0.5690 0.5750
12.143000 0.5780 0.5810 0.5870 0.5900 0.5950
12.177030 0.5980 0.6050 0.6100 0.6140 0.6170
12.211000 0.6160 0.6170 0.6190 0.6190 0.6170
12.245030 0.6160 0.6140 0.6100 0.6020 0.5950
12.279000 0.5800 0.5680 0.5580 0.5470 0.5370
12.313030 0.5250 0.5100 0.4880 0.4620 0.4280
12.347000 0.4070 0.3900 0.3750 0.3600 0.3480
12.381030 0.3370 0.3290 0.3240 0.3200 0.3130
12.415000 0.3120 0.3070 0.3020 0.2980 0.2950
12.449030 0.2930 0.2950 0.2960 0.3020 0.3070
12.483000 0.3190 0.3360 0.3480 0.3580 0.3770
12.517030 0.3970 0.4180 0.4410 0.4640 0.4840
12.551000 0.5000 0.5170 0.5320 0.5510 0.5680
12.585030 0.5830 0.5950 0.6020 0.6220 0.6260
12.619000 0.6270 0.6290 0.6330 0.6360 0.6390
12.653030 0.6460 0.6530 0.6560 0.6620 0.6620
12.687000 0.6650 0.6680 0.6750 0.6820 0.6840
12.721030 0.6890 0.6890 0.6860 0.6840 0.6790
12.755000 0.6740 0.6720 0.6700 0.6680 0.6670
12.789030 0.6670 0.6680 0.6680 0.6680 0.6680
12.823000 0.6680 0.6680 0.6700 0.6740 0.6800
12.857030 0.6840 0.6860 0.6870 0.6890 0.6890
12.891000 0.6890 0.6870 0.6890 0.6890 0.6920
12.925030 0.6970 0.6990 0.6970 0.6990 0.7010
12.959000 0.7010 0.7030 0.7030 0.7030 0.7030
12.993030 0.7030 0.7030 0.7040 0.7040 0.7060
13.027000 0.7060 0.7060 0.7080 0.7080 0.7090
13.061030 0.7090 0.7090 0.7080 0.7080 0.7060
13.095000 0.7060 0.7060 0.7060 0.7040 0.7040
13.129030 0.7040 0.7040 0.7040 0.7080 0.7080
13.163000 0.7080 0.7090 0.7090 0.7090 0.7090
13.197030 0.7090 0.7080 0.7060 0.7040 0.7040
13.231000 0.7040 0.7040 0.7040 0.7040 0.7040
13.265030 0.7040 0.7040 0.7030 0.7030 0.7030
13.299000 0.7030 0.7030 0.7030 0.7030 0.7030
13.333030 0.7030 0.7060 0.7060 0.7080 0.7090
13.367000 0.7090 0.7080 0.7080 0.7060 0.7040
13.401030 0.7060 0.7040 0.7040 0.7030 0.7010
13.435000 0.7010 0.6990 0.6960 0.6920 0.6920
13.469030 0.6970 0.6970 0.6970 0.6970 0.6970
13.503000 0.6970 0.6970 0.6940 0.6890 0.6820
13.537030 0.6790 0.6800 0.6840 0.6860 0.6860
13.571000 0.6860 0.6860 0.6860 0.6860 0.6840
13.605030 0.6820 0.6800 0.6770 0.6750 0.6770
13.639000 0.6770 0.6770 0.6770 0.6770 0.6750
13.673030 0.6740 0.6740 0.6720 0.6720 0.6700
13.707000 0.6680 0.6680 0.6670 0.6650 0.6650
13.741030 0.6650 0.6620 0.6580 0.6530 0.6510
13.776000 0.6510 0.6510 0.6510 0.6510 0.6510
13.810030 0.6510 0.6510 0.6510 0.6510 0.6510
13.844000 0.6510 0.6510 0.6510 0.6550 0.6560
13.878030 0.6580 0.6600 0.6600 0.6600 0.6600
13.912000 0.6600 0.6600 0.6600 0.6600 0.6600
13.946030 0.6600 0.6580 0.6580 0.6620 0.6670
13.980000 0.6680 0.6700 0.6700 0.6700 0.6650
14.014030 0.6670 0.6670 0.6680 0.6700 0.6740
14.048000 0.6740 0.6720 0.6700 0.6680 0.6670
14.082030 0.6680 0.6680 0.6670 0.6630 0.6620
14.116000 0.6620 0.6630 0.6650 0.6650 0.6630
14.150030 0.6630 0.6630 0.6630 0.6620 0.6600
14.184000 0.6600 0.6620 0.6630 0.6680 0.6700
14.218030 0.6680 0.6650 0.6620 0.6620 0.6600
14.252000 0.6600 0.6550 0.6510 0.6510 0.6550
14.286030 0.6600 0.6620 0.6600 0.6510 0.6480
14.320000 0.6500 0.6510 0.6530 0.6530 0.6550
14.354030 0.6530 0.6550 0.6560 0.6580 0.6580
14.388000 0.6580 0.6580 0.6580 0.6560 0.6560
14.422030 0.6530 0.6510 0.6530 0.6510 0.6510
14.456000 0.6510 0.6500 0.6500 0.6480 0.6480
14.490030 0.6500 0.6500 0.6500 0.6510 0.6510
14.524000 0.6510 0.6510 0.6510 0.6510 0.6500
14.558030 0.6500 0.6500 0.6500 0.6500 0.6480
14.592000 0.6480 0.6510 0.6510 0.6500 0.6500
14.626030 0.6480 0.6480 0.6480 0.6480 0.6480
14.660000 0.6460 0.6480 0.6510 0.6500 0.6480
14.694030 0.6430 0.6360 0.6330 0.6330 0.6360
14.728000 0.6360 0.6340 0.6340 0.6310 0.6290
14.762030 0.6270 0.6270 0.6270 0.6270 0.6270
14.796000 0.6270 0.6290 0.6310 0.6310 0.6310
14.830030 0.6310 0.6310 0.6310 0.6310 0.6290
14.864000 0.6270 0.6220 0.6210 0.6210 0.6210
14.898030 0.6220 0.6240 0.6240 0.6240 0.6260
14.932000 0.6260 0.6260 0.6260 0.6260 0.6240
14.966030 0.6240 0.6220 0.6240 0.6240 0.6240
15.000000 0.6240 0.6220 0.6190 0.6140 0.6090
15.034030 0.6100 0.6090 0.6090 0.6040 0.6020
15.068000 0.6020 0.6000 0.5980 0.5970 0.5920
15.102030 0.5900 0.5880 0.5870 0.5850 0.5850
15.136000 0.5850 0.5850 0.5870 0.5880 0.5900
15.170030 0.5900 0.5900 0.5900 0.5920 0.5920
15.204000 0.5970 0.5970 0.5980 0.5980 0.6000
15.238030 0.6020 0.6050 0.6050 0.6100 0.6120
15.272000 0.6160 0.6160 0.6140 0.6140 0.6140
15.306030 0.6140 0.6140 0.6140 0.6140 0.6140
15.340000 0.6140 0.6120 0.6090 0.6050 0.6020
15.374030 0.6000 0.6020 0.6040 0.6070 0.6090
15.408000 0.6100 0.6100 0.6100 0.6120 0.6120
15.442030 0.6100 0.6100 0.6090 0.6090 0.6050
15.476000 0.6050 0.6050 0.6050 0.6050 0.6050
15.510030 0.6050 0.6040 0.6040 0.6020 0.6020
15.544000 0.6020 0.6020 0.6020 0.6020 0.6020
15.578030 0.6020 0.6020 0.6020 0.6020 0.6020
15.612000 0.6020 0.6040 0.6040 0.6040 0.6050
15.646030 0.6050 0.6050 0.6040 0.5980 0.5980
15.680000 0.6000 0.6000 0.6000 0.6040 0.6040
15.714030 0.6040 0.6040 0.6040 0.6020 0.6000
15.748000 0.5970 0.5970 0.5970 0.5970 0.5970
15.782030 0.6000 0.6000 0.6000 0.6000 0.5930
15.816000 0.5930 0.5930 0.5930 0.5930 0.5930
15.850030 0.5930 0.5950 0.5950 0.5970 0.5980
15.884000 0.5980 0.6020 0.6040 0.6050 0.6070
15.918030 0.6050 0.6000 0.5950 0.5920 0.5900
15.952000 0.5920 0.5950 0.5970 0.5970 0.5970
15.986030 0.5970 0.5950
##END=
