##TITLE=(OXAZOLIDIN-2-ONE-3-METHYL)CYCLOHEXANE, 1,4-BIS-
##JCAMP-DX=4.24
##DATA TYPE=INFRARED SPECTRUM
##CLASS=COBLENTZ III
##ORIGIN=SOUTHERN RESEARCH INSTITUTE
##OWNER=Copyright (C) 1987 by the Coblentz Society
Collection (C) 2018 copyright by the U.S. Secretary of Commerce
on behalf of the United States of America. All rights reserved.
##DATE=1967/03/31
##NAMES=3-((4-[(2-oxo-1,3-oxazolidin-3-yl)methyl]cyclohexyl)methyl)-1,3-oxazolidin-2-one
2-Oxazolidinone, 3,3'-( (1,4-cyclo-hexylene)dimethylene)di-
##MOLFORM=C14 H22 N2 O4
##SOURCE REFERENCE=COBLENTZ NO. 8208
##$NIST ID=B6008208
##$NIST SOURCE=COBLENTZ
##$NIST IMAGE=cob8208
##SPECTROMETER/DATA SYSTEM=PERKIN-ELMER 521 (GRATING)
##INSTRUMENT PARAMETERS=FILTERS AT 3130, 2475, 2000, 1150, 700, 410. GRATING CHANGES: 2000, 620 CM^-^1
##STATE=SOLID (1 mg / 650 mg KBr DISC)
##SAMPLING PROCEDURE=TRANSMISSION
##RESOLUTION=2
##DATA PROCESSING=DIGITIZED BY COBLENTZ SOCIETY (BATCH II) FROM HARD COPY (ADJUSTED \addcm-1\10-8-2\)
##XUNITS=1/CM
##YUNITS=TRANSMITTANCE
##XFACTOR=1.0
##YFACTOR=1
##DELTAX=1.003421
##FIRSTX=249.167
##LASTX=4012
##FIRSTY=0.2355
##MAXX=4012
##MINX=249.167
##MAXY=0.8714
##MINY=0.123984
##NPOINTS=3751
##XYDATA=(X++(Y..Y))
249.166667 0.2355 0.2385 0.2414 0.2444 0.2474
254.183773 0.2503 0.2533 0.2558 0.2581 0.2604
259.200880 0.2627 0.2662 0.2710 0.2758 0.2810
264.217986 0.2861 0.2912 0.2964 0.3041 0.3119
269.235093 0.3209 0.3338 0.3453 0.3543 0.3633
274.252199 0.3723 0.3769 0.3814 0.3859 0.3904
279.269306 0.3949 0.3995 0.4048 0.4100 0.4153
284.286413 0.4206 0.4260 0.4325 0.4390 0.4454
289.303519 0.4519 0.4591 0.4669 0.4747 0.4825
294.320626 0.4893 0.4951 0.5009 0.5067 0.5125
299.337732 0.5177 0.5223 0.5269 0.5316 0.5362
304.354839 0.5399 0.5422 0.5445 0.5468 0.5491
309.371945 0.5514 0.5537 0.5560 0.5587 0.5618
314.389052 0.5649 0.5680 0.5711 0.5742 0.5773
319.406158 0.5804 0.5835 0.5890 0.5948 0.5993
324.423265 0.6035 0.6068 0.6095 0.6122 0.6156
329.440371 0.6191 0.6225 0.6257 0.6287 0.6317
334.457478 0.6347 0.6377 0.6408 0.6439 0.6476
339.474585 0.6512 0.6549 0.6585 0.6627 0.6674
344.491691 0.6721 0.6765 0.6795 0.6826 0.6857
349.508798 0.6888 0.6918 0.6949 0.6976 0.7003
354.525904 0.7030 0.7057 0.7084 0.7108 0.7128
359.543011 0.7148 0.7167 0.7187 0.7207 0.7227
364.560117 0.7248 0.7270 0.7292 0.7313 0.7335
369.577224 0.7356 0.7376 0.7392 0.7409 0.7425
374.594330 0.7442 0.7458 0.7470 0.7481 0.7493
379.611437 0.7505 0.7516 0.7528 0.7540 0.7552
384.628543 0.7563 0.7575 0.7587 0.7598 0.7606
389.645650 0.7615 0.7623 0.7631 0.7639 0.7647
394.662757 0.7656 0.7661 0.7667 0.7672 0.7677
399.679863 0.7682 0.7687 0.7692 0.7697 0.7702
404.696970 0.7707 0.7712 0.7716 0.7721 0.7725
409.714076 0.7730 0.7734 0.7739 0.7743 0.7748
414.731183 0.7753 0.7758 0.7762 0.7767 0.7771
419.748289 0.7773 0.7776 0.7779 0.7782 0.7785
424.765396 0.7788 0.7790 0.7793 0.7796 0.7799
429.782502 0.7802 0.7805 0.7808 0.7811 0.7814
434.799609 0.7820 0.7828 0.7835 0.7843 0.7850
439.816716 0.7858 0.7865 0.7869 0.7873 0.7876
444.833822 0.7879 0.7882 0.7884 0.7884 0.7884
449.850929 0.7885 0.7885 0.7885 0.7885 0.7885
454.868035 0.7886 0.7886 0.7886 0.7886 0.7886
459.885142 0.7886 0.7887 0.7895 0.7903 0.7911
464.902248 0.7919 0.7927 0.7935 0.7943 0.7951
469.919355 0.7964 0.7977 0.7987 0.7987 0.7987
474.936461 0.7984 0.7982 0.7979 0.7969 0.7959
479.953568 0.7950 0.7939 0.7920 0.7900 0.7881
484.970674 0.7858 0.7835 0.7811 0.7771 0.7742
489.987781 0.7728 0.7719 0.7725 0.7731 0.7678
495.004888 0.7769 0.7793 0.7817 0.7841 0.7868
500.021994 0.7900 0.7947 0.7964 0.7982 0.7999
505.039101 0.8016 0.8033 0.8045 0.8055 0.8066
510.056207 0.8074 0.8076 0.8079 0.8081 0.8081
515.073314 0.8080 0.8079 0.8078 0.8078 0.8079
520.090420 0.8079 0.8079 0.8079 0.8077 0.8074
525.107527 0.8072 0.8070 0.8067 0.8065 0.8063
530.124633 0.8061 0.8061 0.8061 0.8061 0.8062
535.141740 0.8062 0.8062 0.8062 0.8062 0.8063
540.158847 0.8064 0.8064 0.8065 0.8066 0.8066
545.175953 0.8067 0.8068 0.8073 0.8078 0.8083
550.193060 0.8088 0.8092 0.8097 0.8102 0.8107
555.210166 0.8112 0.8118 0.8125 0.8132 0.8139
560.227273 0.8146 0.8153 0.8155 0.8156 0.8157
565.244379 0.8158 0.8160 0.8161 0.8162 0.8164
570.261486 0.8165 0.8166 0.8167 0.8168 0.8169
575.278592 0.8169 0.8170 0.8171 0.8171 0.8172
580.295699 0.8173 0.8174 0.8195 0.8173 0.8173
585.312805 0.8174 0.8174 0.8174 0.8174 0.8174
590.329912 0.8174 0.8175 0.8175 0.8175 0.8175
595.347019 0.8175 0.8176 0.8176 0.8176 0.8176
600.364125 0.8176 0.8177 0.8179 0.8180 0.8182
605.381232 0.8183 0.8185 0.8186 0.8188 0.8189
610.398338 0.8191 0.8192 0.8194 0.8195 0.8197
615.415445 0.8199 0.8201 0.8203 0.8206 0.8210
620.432551 0.8215 0.8219 0.8223 0.8227 0.8231
625.449658 0.8238 0.8247 0.8255 0.8262 0.8268
630.466764 0.8275 0.8281 0.8283 0.8286 0.8288
635.483871 0.8290 0.8293 0.8293 0.8292 0.8291
640.500978 0.8291 0.8290 0.8289 0.8289 0.8288
645.518084 0.8287 0.8281 0.8276 0.8270 0.8264
650.535191 0.8258 0.8248 0.8188 0.8129 0.8070
655.552297 0.8010 0.7951 0.7893 0.7860 0.7861
660.569404 0.7863 0.7875 0.7867 0.7950 0.7987
665.586510 0.8024 0.8061 0.8098 0.8135 0.8172
670.603617 0.8205 0.8206 0.8208 0.8209 0.8207
675.620723 0.8210 0.8197 0.8188 0.8180 0.8170
680.637830 0.8154 0.8131 0.8096 0.8057 0.8017
685.654936 0.7966 0.7834 0.7665 0.7497 0.7328
690.672043 0.7163 0.7089 0.7089 0.7079 0.7310
695.689150 0.7483 0.7657 0.7831 0.8004 0.8178
700.706256 0.8342 0.8395 0.8443 0.8483 0.8519
705.723363 0.8529 0.8538 0.8548 0.8557 0.8563
710.740469 0.8564 0.8565 0.8566 0.8567 0.8568
715.757576 0.8567 0.8567 0.8568 0.8602 0.8565
720.774682 0.8564 0.8561 0.8559 0.8556 0.8554
725.791789 0.8552 0.8547 0.8540 0.8533 0.8527
730.808895 0.8520 0.8513 0.8506 0.8498 0.8490
735.826002 0.8482 0.8473 0.8465 0.8456 0.8445
740.843109 0.8433 0.8421 0.8407 0.8373 0.8338
745.860215 0.8297 0.8243 0.8001 0.7732 0.7462
750.877322 0.7193 0.6924 0.6654 0.6387 0.6159
755.894428 0.6161 0.6162 0.6168 0.6956 0.7395
760.911535 0.7833 0.8256 0.8364 0.8360 0.8348
765.928641 0.8331 0.8296 0.8249 0.8238 0.8231
770.945748 0.8236 0.8267 0.8321 0.8403 0.8449
775.962854 0.8473 0.8482 0.8483 0.8500 0.8472
780.979961 0.8467 0.8461 0.8454 0.8445 0.8434
785.997067 0.8418 0.8402 0.8386 0.8361 0.8333
791.014174 0.8305 0.8278 0.8249 0.8211 0.8172
796.031281 0.8132 0.8069 0.7979 0.7864 0.7842
801.048387 0.7816 0.7835 0.7839 0.7879 0.7913
806.065494 0.7952 0.8026 0.8101 0.8173 0.8244
811.082600 0.8315 0.8383 0.8446 0.8487 0.8513
816.099707 0.8532 0.8547 0.8556 0.8565 0.8573
821.116813 0.8577 0.8582 0.8586 0.8589 0.8592
826.133920 0.8595 0.8578 0.8599 0.8600 0.8599
831.151026 0.8599 0.8599 0.8598 0.8598 0.8597
836.168133 0.8595 0.8594 0.8593 0.8592 0.8590
841.185239 0.8589 0.8588 0.8586 0.8582 0.8579
846.202346 0.8576 0.8573 0.8569 0.8566 0.8563
851.219453 0.8560 0.8556 0.8553 0.8550 0.8545
856.236559 0.8539 0.8533 0.8528 0.8522 0.8516
861.253666 0.8510 0.8505 0.8499 0.8494 0.8488
866.270772 0.8483 0.8478 0.8472 0.8467 0.8462
871.287879 0.8456 0.8452 0.8450 0.8449 0.8449
876.304985 0.8448 0.8448 0.8447 0.8446 0.8446
881.322092 0.8445 0.8445 0.8447 0.8450 0.8452
886.339198 0.8454 0.8457 0.8459 0.8461 0.8463
891.356305 0.8466 0.8455 0.8440 0.8413 0.8380
896.373412 0.8347 0.8302 0.8253 0.8196 0.8135
901.390518 0.8072 0.8001 0.7922 0.7864 0.7840
906.407625 0.7837 0.7964 0.8087 0.8188 0.8288
911.424731 0.8381 0.8426 0.8444 0.8450 0.8454
916.441838 0.8453 0.8449 0.8453 0.8438 0.8415
921.458944 0.8395 0.8375 0.8350 0.8318 0.8286
926.476051 0.8254 0.8224 0.8193 0.8160 0.8127
931.493157 0.8087 0.8031 0.7946 0.7849 0.7776
936.510264 0.7744 0.7728 0.7718 0.7725 0.7802
941.527370 0.7919 0.8036 0.8109 0.8121 0.8095
946.544477 0.8001 0.7865 0.7729 0.7593 0.7457
951.561584 0.7392 0.7395 0.7453 0.7556 0.7669
956.578690 0.7780 0.7892 0.7978 0.7990 0.7957
961.595797 0.7905 0.7834 0.7763 0.7692 0.7620
966.612903 0.7549 0.7478 0.7407 0.7360 0.7342
971.630010 0.7401 0.7527 0.7633 0.7739 0.7845
976.647116 0.7952 0.8058 0.8139 0.8179 0.8206
981.664223 0.8223 0.8233 0.8236 0.8237 0.8238
986.681329 0.8244 0.8246 0.8238 0.8235 0.8231
991.698436 0.8227 0.8221 0.8211 0.8201 0.8186
996.715543 0.8164 0.8141 0.8116 0.8089 0.8054
1001.732649 0.8017 0.7976 0.7931 0.7883 0.7829
1006.749756 0.7756 0.7663 0.7568 0.7496 0.7404
1011.766862 0.7262 0.7122 0.6982 0.6851 0.6772
1016.783969 0.6767 0.6771 0.6808 0.6848 0.6888
1021.801075 0.6926 0.6951 0.6919 0.6765 0.6607
1026.818182 0.6450 0.6292 0.6134 0.5975 0.5817
1031.835288 0.5659 0.5513 0.5438 0.5467 0.5643
1036.852395 0.5932 0.6222 0.6511 0.6801 0.7090
1041.869501 0.7352 0.7389 0.7374 0.7353 0.7328
1046.886608 0.7296 0.7236 0.7058 0.6828 0.6597
1051.903715 0.6367 0.6137 0.5906 0.5676 0.5445
1056.920821 0.5215 0.4984 0.4758 0.4705 0.4699
1061.937928 0.4909 0.5161 0.5413 0.5665 0.5918
1066.955034 0.6170 0.6422 0.6675 0.6927 0.7179
1071.972141 0.7432 0.7501 0.7515 0.7525 0.7533
1076.989247 0.7544 0.7556 0.7576 0.7640 0.7776
1082.006354 0.7858 0.7869 0.7871 0.7871 0.7871
1087.023460 0.7848 0.7811 0.7751 0.7721 0.7718
1092.040567 0.7720 0.7722 0.7727 0.7738 0.7759
1097.057674 0.7814 0.7889 0.7943 0.7980 0.8000
1102.074780 0.8017 0.8017 0.8021 0.8020 0.8011
1107.091887 0.7997 0.7978 0.7958 0.7938 0.7921
1112.108993 0.7907 0.7894 0.7887 0.7881 0.7876
1117.126100 0.7871 0.7862 0.7786 0.7685 0.7583
1122.143206 0.7483 0.7381 0.7280 0.7178 0.7077
1127.160313 0.6975 0.6874 0.6803 0.6778 0.6851
1132.177419 0.6970 0.7091 0.7211 0.7332 0.7453
1137.194526 0.7573 0.7693 0.7803 0.7869 0.7906
1142.211632 0.7933 0.7953 0.7975 0.7997 0.8018
1147.228739 0.8037 0.8048 0.8050 0.8048 0.8050
1152.245846 0.8047 0.8039 0.8033 0.8028 0.8018
1157.262952 0.8002 0.7987 0.7969 0.7949 0.7929
1162.280059 0.7899 0.7860 0.7819 0.7772 0.7720
1167.297165 0.7661 0.7597 0.7538 0.7489 0.7453
1172.314272 0.7427 0.7415 0.7429 0.7473 0.7532
1177.331378 0.7590 0.7630 0.7636 0.7631 0.7624
1182.348485 0.7615 0.7605 0.7590 0.7571 0.7546
1187.365591 0.7516 0.7474 0.7410 0.7330 0.7205
1192.382698 0.7012 0.6741 0.6469 0.6198 0.5969
1197.399804 0.5873 0.5868 0.5910 0.6063 0.6168
1202.416911 0.6272 0.6377 0.6481 0.6586 0.6690
1207.434018 0.6795 0.6899 0.7004 0.7115 0.7209
1212.451124 0.7168 0.7091 0.6999 0.6908 0.6816
1217.468231 0.6724 0.6633 0.6545 0.6483 0.6477
1222.485337 0.6478 0.6485 0.6505 0.6545 0.6601
1227.502444 0.6644 0.6681 0.6693 0.6689 0.6685
1232.519550 0.6673 0.6643 0.6546 0.6248 0.6137
1237.536657 0.6072 0.6015 0.5973 0.5958 0.5945
1242.553763 0.5933 0.5929 0.5898 0.5554 0.5210
1247.570870 0.4865 0.4520 0.4176 0.3839 0.3676
1252.587977 0.3676 0.3627 0.3686 0.3832 0.4077
1257.605083 0.4322 0.4567 0.4812 0.5057 0.5302
1262.622190 0.5547 0.5791 0.5995 0.6070 0.6127
1267.639296 0.6184 0.6249 0.6320 0.6411 0.6521
1272.656403 0.6936 0.7073 0.7215 0.7333 0.7420
1277.673509 0.7512 0.7614 0.7691 0.7760 0.7817
1282.690616 0.7861 0.7875 0.7885 0.7894 0.7903
1287.707722 0.7912 0.7921 0.7930 0.7945 0.7959
1292.724829 0.7973 0.7984 0.7964 0.7914 0.7849
1297.741935 0.7776 0.7731 0.7722 0.7723 0.7731
1302.759042 0.7780 0.7838 0.7898 0.7967 0.8027
1307.776149 0.8067 0.8095 0.8122 0.8154 0.8182
1312.793255 0.8204 0.8217 0.8223 0.8229 0.8234
1317.810362 0.8236 0.8237 0.8237 0.8237 0.8235
1322.827468 0.8244 0.8245 0.8206 0.8187 0.8163
1327.844575 0.8139 0.8117 0.8094 0.8078 0.8072
1332.861681 0.8078 0.8093 0.8114 0.8137 0.8159
1337.878788 0.8171 0.8173 0.8171 0.8160 0.8131
1342.895894 0.8095 0.8057 0.8007 0.7946 0.7857
1347.913001 0.7424 0.7086 0.7045 0.7086 0.7133
1352.930108 0.7179 0.7226 0.7266 0.7278 0.7247
1357.947214 0.7181 0.7105 0.7029 0.6953 0.6880
1362.964321 0.6853 0.6896 0.6969 0.7045 0.7121
1367.981427 0.7196 0.7272 0.7351 0.7392 0.7360
1372.998534 0.7316 0.7273 0.7183 0.6982 0.6757
1378.015640 0.6556 0.6455 0.6449 0.6481 0.6741
1383.032747 0.7075 0.7410 0.7737 0.7984 0.8049
1388.049853 0.8089 0.8109 0.8126 0.8135 0.8139
1393.066960 0.8138 0.8137 0.8135 0.8131 0.8126
1398.084066 0.8114 0.8101 0.8086 0.8072 0.8053
1403.101173 0.8030 0.8001 0.7961 0.7912 0.7848
1408.118280 0.7770 0.7640 0.7432 0.7190 0.6948
1413.135386 0.6706 0.6464 0.6222 0.5981 0.5739
1418.152493 0.5518 0.5376 0.5322 0.5295 0.5287
1423.169599 0.5285 0.5293 0.5348 0.5418 0.5499
1428.186706 0.5537 0.5572 0.5618 0.5757 0.5933
1433.203812 0.6108 0.6283 0.6457 0.6606 0.6610
1438.220919 0.6597 0.6516 0.6434 0.6351 0.6268
1443.238025 0.6185 0.6102 0.6020 0.5966 0.5998
1448.255132 0.6179 0.6398 0.6616 0.6823 0.6978
1453.272239 0.7123 0.7252 0.7364 0.7456 0.7517
1458.289345 0.7564 0.7605 0.7638 0.7671 0.7702
1463.306452 0.7729 0.7754 0.7772 0.7780 0.7787
1468.323558 0.7788 0.7760 0.7672 0.7545 0.7418
1473.340665 0.7291 0.7164 0.7038 0.6911 0.6801
1478.357771 0.6791 0.6787 0.6736 0.6526 0.6314
1483.374878 0.6104 0.5892 0.5682 0.5673 0.5654
1488.391984 0.5852 0.6045 0.6236 0.6427 0.6618
1493.409091 0.6809 0.7001 0.7191 0.7382 0.7573
1498.426197 0.7741 0.7846 0.7918 0.7977 0.8025
1503.443304 0.8069 0.8103 0.8125 0.8142 0.8159
1508.460411 0.8177 0.8191 0.8200 0.8212 0.8215
1513.477517 0.8209 0.8207 0.8204 0.8198 0.8189
1518.494624 0.8179 0.8160 0.8123 0.8069 0.8019
1523.511730 0.8002 0.8002 0.8028 0.8075 0.8118
1528.528837 0.8183 0.8243 0.8274 0.8295 0.8311
1533.545943 0.8326 0.8337 0.8348 0.8359 0.8368
1538.563050 0.8377 0.8386 0.8392 0.8396 0.8400
1543.580156 0.8404 0.8408 0.8411 0.8415 0.8418
1548.597263 0.8421 0.8424 0.8426 0.8429 0.8432
1553.614370 0.8432 0.8440 0.8434 0.8427 0.8426
1558.631476 0.8424 0.8423 0.8422 0.8420 0.8419
1563.648583 0.8417 0.8414 0.8412 0.8409 0.8407
1568.665689 0.8405 0.8402 0.8400 0.8397 0.8393
1573.682796 0.8388 0.8384 0.8379 0.8374 0.8369
1578.699902 0.8364 0.8359 0.8354 0.8349 0.8342
1583.717009 0.8334 0.8326 0.8316 0.8307 0.8299
1588.734115 0.8290 0.8281 0.8272 0.8264 0.8255
1593.751222 0.8246 0.8237 0.8224 0.8210 0.8195
1598.768328 0.8180 0.8166 0.8151 0.8137 0.8123
1603.785435 0.8108 0.8094 0.8079 0.8061 0.8039
1608.802542 0.8017 0.7995 0.7973 0.7951 0.7930
1613.819648 0.7911 0.7896 0.7880 0.7865 0.7850
1618.836755 0.7834 0.7819 0.7805 0.7800 0.7792
1623.853861 0.7802 0.7806 0.7809 0.7813 0.7818
1628.870968 0.7823 0.7828 0.7833 0.7838 0.7845
1633.888074 0.7851 0.7858 0.7864 0.7871 0.7877
1638.905181 0.7883 0.7888 0.7894 0.7899 0.7904
1643.922287 0.7910 0.7913 0.7913 0.7913 0.7913
1648.939394 0.7912 0.7912 0.7912 0.7929 0.7912
1653.956500 0.7908 0.7902 0.7896 0.7890 0.7884
1658.973607 0.7878 0.7872 0.7865 0.7855 0.7845
1663.990714 0.7836 0.7826 0.7816 0.7805 0.7790
1669.007820 0.7776 0.7761 0.7747 0.7728 0.7707
1674.024927 0.7685 0.7664 0.7635 0.7598 0.7560
1679.042033 0.7520 0.7460 0.7402 0.7344 0.7296
1684.059140 0.7247 0.7201 0.7174 0.7148 0.7127
1689.076246 0.7110 0.7092 0.7075 0.7064 0.7053
1694.093353 0.7043 0.7031 0.7012 0.6979 0.6916
1699.110459 0.6853 0.6788 0.6722 0.6653 0.6556
1704.127566 0.6452 0.6318 0.6154 0.5956 0.5745
1709.144673 0.5393 0.4458 0.4241 0.4053 0.3809
1714.161779 0.3450 0.3063 0.2677 0.2291 0.1904
1719.178886 0.1528 0.1256 0.1254 0.1240 0.1309
1724.195992 0.1451 0.1592 0.1733 0.1874 0.2016
1729.213099 0.2157 0.2298 0.2439 0.2580 0.2702
1734.230205 0.2746 0.2746 0.2713 0.2571 0.2429
1739.247312 0.2287 0.2145 0.2003 0.1864 0.1770
1744.264418 0.1770 0.1769 0.1860 0.2208 0.2569
1749.281525 0.2930 0.3292 0.3653 0.3997 0.4360
1754.298631 0.4778 0.4959 0.5104 0.5240 0.5381
1759.315738 0.5578 0.5815 0.5943 0.6091 0.6247
1764.332845 0.6382 0.6505 0.6619 0.6726 0.6829
1769.349951 0.6925 0.7020 0.7115 0.7215 0.7310
1774.367058 0.7381 0.7434 0.7486 0.7533 0.7575
1779.384164 0.7616 0.7657 0.7693 0.7721 0.7750
1784.401271 0.7778 0.7807 0.7836 0.7865 0.7890
1789.418377 0.7909 0.7926 0.7942 0.7958 0.7975
1794.435484 0.7991 0.8007 0.8022 0.8037 0.8052
1799.452590 0.8067 0.8081 0.8094 0.8107 0.8120
1804.469697 0.8132 0.8145 0.8158 0.8170 0.8181
1809.486804 0.8191 0.8200 0.8209 0.8219 0.8228
1814.503910 0.8237 0.8247 0.8255 0.8264 0.8272
1819.521017 0.8281 0.8289 0.8298 0.8306 0.8315
1824.538123 0.8323 0.8329 0.8335 0.8340 0.8346
1829.555230 0.8352 0.8358 0.8364 0.8370 0.8375
1834.572336 0.8380 0.8385 0.8389 0.8393 0.8397
1839.589443 0.8401 0.8405 0.8409 0.8412 0.8416
1844.606549 0.8420 0.8424 0.8428 0.8432 0.8436
1849.623656 0.8439 0.8443 0.8447 0.8451 0.8455
1854.640762 0.8459 0.8462 0.8464 0.8467 0.8469
1859.657869 0.8472 0.8474 0.8477 0.8479 0.8482
1864.674976 0.8484 0.8487 0.8489 0.8492 0.8495
1869.692082 0.8497 0.8500 0.8502 0.8505 0.8507
1874.709189 0.8509 0.8510 0.8511 0.8512 0.8513
1879.726295 0.8514 0.8516 0.8517 0.8518 0.8519
1884.743402 0.8520 0.8521 0.8522 0.8524 0.8525
1889.760508 0.8526 0.8527 0.8528 0.8529 0.8530
1894.777615 0.8531 0.8532 0.8532 0.8533 0.8534
1899.794721 0.8535 0.8536 0.8537 0.8538 0.8539
1904.811828 0.8540 0.8541 0.8542 0.8543 0.8544
1909.828935 0.8545 0.8545 0.8546 0.8546 0.8546
1914.846041 0.8546 0.8546 0.8546 0.8546 0.8546
1919.863148 0.8546 0.8546 0.8546 0.8546 0.8546
1924.880254 0.8546 0.8546 0.8546 0.8546 0.8546
1929.897361 0.8546 0.8546 0.8546 0.8546 0.8546
1934.914467 0.8546 0.8547 0.8547 0.8547 0.8547
1939.931574 0.8547 0.8547 0.8548 0.8548 0.8548
1944.948680 0.8548 0.8548 0.8549 0.8549 0.8549
1949.965787 0.8549 0.8549 0.8549 0.8550 0.8550
1954.982893 0.8550 0.8550 0.8550 0.8551 0.8551
1960.000000 0.8551 0.8551 0.8551 0.8551 0.8552
1965.017107 0.8552 0.8552 0.8552 0.8552 0.8553
1970.034213 0.8553 0.8552 0.8552 0.8552 0.8552
1975.051320 0.8551 0.8551 0.8551 0.8551 0.8551
1980.068426 0.8550 0.8550 0.8550 0.8550 0.8549
1985.085533 0.8549 0.8549 0.8549 0.8548 0.8548
1990.102639 0.8548 0.8548 0.8547 0.8547 0.8547
1995.119746 0.8547 0.8547 0.8546 0.8546 0.8546
2000.136852 0.8546 0.8545 0.8545 0.8545 0.8545
2005.153959 0.8544 0.8544 0.8544 0.8544 0.8544
2010.171065 0.8545 0.8545 0.8545 0.8545 0.8546
2015.188172 0.8546 0.8546 0.8547 0.8547 0.8547
2020.205279 0.8548 0.8548 0.8548 0.8548 0.8549
2025.222385 0.8549 0.8549 0.8550 0.8550 0.8550
2030.239492 0.8551 0.8551 0.8551 0.8551 0.8552
2035.256598 0.8552 0.8552 0.8553 0.8553 0.8553
2040.273705 0.8553 0.8554 0.8554 0.8554 0.8555
2045.290811 0.8555 0.8555 0.8556 0.8556 0.8556
2050.307918 0.8556 0.8557 0.8557 0.8557 0.8558
2055.325024 0.8558 0.8558 0.8558 0.8559 0.8559
2060.342131 0.8559 0.8560 0.8560 0.8560 0.8560
2065.359238 0.8561 0.8561 0.8561 0.8562 0.8562
2070.376344 0.8562 0.8563 0.8563 0.8563 0.8563
2075.393451 0.8564 0.8564 0.8564 0.8565 0.8565
2080.410557 0.8565 0.8566 0.8566 0.8566 0.8567
2085.427664 0.8567 0.8567 0.8568 0.8568 0.8569
2090.444770 0.8569 0.8569 0.8570 0.8570 0.8570
2095.461877 0.8571 0.8571 0.8572 0.8572 0.8572
2100.478983 0.8573 0.8573 0.8573 0.8574 0.8574
2105.496090 0.8575 0.8575 0.8575 0.8576 0.8576
2110.513196 0.8576 0.8577 0.8577 0.8577 0.8578
2115.530303 0.8578 0.8579 0.8579 0.8579 0.8580
2120.547410 0.8580 0.8580 0.8580 0.8580 0.8580
2125.564516 0.8580 0.8580 0.8580 0.8580 0.8580
2130.581623 0.8580 0.8580 0.8580 0.8580 0.8580
2135.598729 0.8580 0.8579 0.8579 0.8579 0.8579
2140.615836 0.8579 0.8579 0.8579 0.8579 0.8579
2145.632942 0.8579 0.8579 0.8579 0.8579 0.8579
2150.650049 0.8579 0.8578 0.8578 0.8578 0.8578
2155.667155 0.8578 0.8578 0.8578 0.8578 0.8578
2160.684262 0.8578 0.8578 0.8578 0.8578 0.8578
2165.701369 0.8577 0.8577 0.8577 0.8577 0.8578
2170.718475 0.8578 0.8578 0.8578 0.8578 0.8578
2175.735582 0.8579 0.8579 0.8579 0.8579 0.8579
2180.752688 0.8580 0.8580 0.8580 0.8580 0.8580
2185.769795 0.8580 0.8581 0.8581 0.8581 0.8581
2190.786901 0.8581 0.8582 0.8582 0.8582 0.8582
2195.804008 0.8582 0.8582 0.8583 0.8583 0.8583
2200.821114 0.8583 0.8583 0.8584 0.8584 0.8584
2205.838221 0.8584 0.8584 0.8584 0.8585 0.8585
2210.855327 0.8585 0.8586 0.8586 0.8586 0.8587
2215.872434 0.8587 0.8587 0.8588 0.8588 0.8588
2220.889541 0.8589 0.8589 0.8589 0.8590 0.8590
2225.906647 0.8590 0.8591 0.8591 0.8591 0.8592
2230.923754 0.8592 0.8592 0.8593 0.8593 0.8593
2235.940860 0.8593 0.8594 0.8595 0.8595 0.8596
2240.957967 0.8596 0.8597 0.8598 0.8598 0.8599
2245.975073 0.8600 0.8600 0.8601 0.8601 0.8602
2250.992180 0.8603 0.8603 0.8604 0.8605 0.8605
2256.009286 0.8606 0.8606 0.8607 0.8608 0.8608
2261.026393 0.8609 0.8610 0.8610 0.8611 0.8613
2266.043500 0.8615 0.8617 0.8618 0.8620 0.8622
2271.060606 0.8624 0.8625 0.8627 0.8629 0.8630
2276.077713 0.8632 0.8634 0.8636 0.8637 0.8639
2281.094819 0.8641 0.8643 0.8644 0.8647 0.8650
2286.111926 0.8653 0.8656 0.8659 0.8662 0.8665
2291.129032 0.8667 0.8670 0.8673 0.8676 0.8679
2296.146139 0.8682 0.8685 0.8687 0.8689 0.8690
2301.163245 0.8691 0.8693 0.8694 0.8695 0.8696
2306.180352 0.8698 0.8699 0.8700 0.8701 0.8703
2311.197458 0.8704 0.8705 0.8707 0.8708 0.8709
2316.214565 0.8710 0.8710 0.8708 0.8705 0.8703
2321.231672 0.8701 0.8699 0.8697 0.8695 0.8693
2326.248778 0.8691 0.8688 0.8685 0.8682 0.8678
2331.265885 0.8675 0.8672 0.8669 0.8665 0.8662
2336.282991 0.8659 0.8655 0.8650 0.8646 0.8642
2341.300098 0.8637 0.8633 0.8629 0.8624 0.8620
2346.317204 0.8616 0.8611 0.8607 0.8604 0.8600
2351.334311 0.8597 0.8594 0.8591 0.8588 0.8585
2356.351417 0.8582 0.8578 0.8576 0.8574 0.8573
2361.368524 0.8571 0.8570 0.8568 0.8566 0.8565
2366.385630 0.8563 0.8562 0.8560 0.8558 0.8557
2371.402737 0.8556 0.8556 0.8556 0.8556 0.8557
2376.419844 0.8557 0.8558 0.8558 0.8558 0.8559
2381.436950 0.8559 0.8560 0.8560 0.8560 0.8561
2386.454057 0.8561 0.8562 0.8562 0.8562 0.8563
2391.471163 0.8563 0.8564 0.8564 0.8565 0.8566
2396.488270 0.8566 0.8567 0.8567 0.8568 0.8568
2401.505376 0.8569 0.8569 0.8570 0.8570 0.8571
2406.522483 0.8572 0.8572 0.8573 0.8573 0.8574
2411.539589 0.8574 0.8575 0.8574 0.8574 0.8573
2416.556696 0.8573 0.8572 0.8572 0.8572 0.8571
2421.573803 0.8571 0.8570 0.8570 0.8569 0.8569
2426.590909 0.8569 0.8568 0.8568 0.8567 0.8567
2431.608016 0.8566 0.8566 0.8566 0.8565 0.8565
2436.625122 0.8564 0.8564 0.8564 0.8563 0.8563
2441.642229 0.8562 0.8562 0.8561 0.8561 0.8561
2446.659335 0.8560 0.8560 0.8560 0.8560 0.8559
2451.676442 0.8559 0.8559 0.8559 0.8558 0.8558
2456.693548 0.8558 0.8558 0.8557 0.8557 0.8557
2461.710655 0.8557 0.8556 0.8556 0.8556 0.8556
2466.727761 0.8555 0.8555 0.8555 0.8554 0.8554
2471.744868 0.8553 0.8552 0.8551 0.8550 0.8549
2476.761975 0.8548 0.8547 0.8545 0.8544 0.8543
2481.779081 0.8542 0.8541 0.8540 0.8539 0.8538
2486.796188 0.8536 0.8535 0.8534 0.8533 0.8532
2491.813294 0.8531 0.8530 0.8529 0.8527 0.8526
2496.830401 0.8526 0.8525 0.8524 0.8524 0.8523
2501.847507 0.8522 0.8522 0.8521 0.8520 0.8520
2506.864614 0.8519 0.8518 0.8518 0.8517 0.8516
2511.881720 0.8515 0.8515 0.8514 0.8513 0.8513
2516.898827 0.8512 0.8511 0.8511 0.8510 0.8509
2521.915934 0.8509 0.8508 0.8509 0.8509 0.8509
2526.933040 0.8509 0.8509 0.8510 0.8510 0.8510
2531.950147 0.8510 0.8510 0.8510 0.8511 0.8511
2536.967253 0.8511 0.8511 0.8511 0.8512 0.8512
2541.984360 0.8512 0.8512 0.8512 0.8512 0.8513
2547.001466 0.8513 0.8513 0.8513 0.8513 0.8514
2552.018573 0.8514 0.8514 0.8514 0.8514 0.8515
2557.035679 0.8515 0.8516 0.8516 0.8516 0.8517
2562.052786 0.8517 0.8518 0.8518 0.8519 0.8519
2567.069892 0.8519 0.8520 0.8520 0.8521 0.8521
2572.086999 0.8521 0.8522 0.8522 0.8523 0.8523
2577.104106 0.8524 0.8524 0.8524 0.8525 0.8525
2582.121212 0.8526 0.8526 0.8526 0.8527 0.8527
2587.138319 0.8528 0.8528 0.8529 0.8529 0.8529
2592.155425 0.8529 0.8530 0.8530 0.8530 0.8531
2597.172532 0.8531 0.8531 0.8532 0.8532 0.8532
2602.189638 0.8532 0.8533 0.8533 0.8533 0.8534
2607.206745 0.8534 0.8534 0.8535 0.8535 0.8535
2612.223851 0.8535 0.8536 0.8536 0.8536 0.8537
2617.240958 0.8537 0.8537 0.8537 0.8538 0.8538
2622.258065 0.8538 0.8539 0.8539 0.8539 0.8539
2627.275171 0.8539 0.8539 0.8539 0.8539 0.8539
2632.292278 0.8539 0.8539 0.8539 0.8539 0.8539
2637.309384 0.8539 0.8539 0.8539 0.8539 0.8538
2642.326491 0.8538 0.8538 0.8538 0.8538 0.8538
2647.343597 0.8538 0.8538 0.8538 0.8538 0.8538
2652.360704 0.8538 0.8538 0.8538 0.8538 0.8538
2657.377810 0.8538 0.8538 0.8538 0.8538 0.8538
2662.394917 0.8538 0.8538 0.8538 0.8537 0.8537
2667.412023 0.8536 0.8536 0.8535 0.8535 0.8534
2672.429130 0.8534 0.8533 0.8533 0.8532 0.8532
2677.446237 0.8531 0.8530 0.8530 0.8529 0.8529
2682.463343 0.8528 0.8528 0.8527 0.8527 0.8526
2687.480450 0.8526 0.8525 0.8525 0.8524 0.8523
2692.497556 0.8523 0.8522 0.8522 0.8521 0.8521
2697.514663 0.8520 0.8520 0.8519 0.8519 0.8518
2702.531769 0.8518 0.8517 0.8516 0.8516 0.8515
2707.548876 0.8515 0.8515 0.8514 0.8514 0.8514
2712.565982 0.8514 0.8514 0.8514 0.8514 0.8514
2717.583089 0.8513 0.8513 0.8513 0.8513 0.8513
2722.600196 0.8513 0.8513 0.8512 0.8512 0.8512
2727.617302 0.8512 0.8512 0.8512 0.8512 0.8511
2732.634409 0.8511 0.8511 0.8510 0.8510 0.8509
2737.651515 0.8509 0.8508 0.8508 0.8507 0.8507
2742.668622 0.8507 0.8506 0.8506 0.8505 0.8505
2747.685728 0.8504 0.8504 0.8503 0.8503 0.8502
2752.702835 0.8502 0.8501 0.8501 0.8501 0.8500
2757.719941 0.8499 0.8498 0.8497 0.8497 0.8496
2762.737048 0.8495 0.8494 0.8493 0.8492 0.8491
2767.754154 0.8490 0.8490 0.8489 0.8488 0.8487
2772.771261 0.8486 0.8485 0.8484 0.8482 0.8479
2777.788368 0.8476 0.8473 0.8470 0.8467 0.8464
2782.805474 0.8460 0.8457 0.8454 0.8451 0.8448
2787.822581 0.8445 0.8442 0.8438 0.8435 0.8432
2792.839687 0.8428 0.8424 0.8419 0.8415 0.8411
2797.856794 0.8406 0.8402 0.8398 0.8393 0.8389
2802.873900 0.8385 0.8380 0.8375 0.8367 0.8358
2807.891007 0.8349 0.8341 0.8332 0.8323 0.8314
2812.908113 0.8305 0.8296 0.8287 0.8275 0.8258
2817.925220 0.8240 0.8223 0.8206 0.8189 0.8171
2822.942326 0.8154 0.8134 0.8114 0.8094 0.8074
2827.959433 0.8054 0.8034 0.8014 0.7993 0.7964
2832.976540 0.7934 0.7904 0.7874 0.7844 0.7814
2837.993646 0.7784 0.7751 0.7697 0.7642 0.7586
2843.010753 0.7536 0.7487 0.7438 0.7388 0.7330
2848.027859 0.7272 0.7200 0.7050 0.6933 0.6894
2853.044966 0.6875 0.6908 0.6922 0.6964 0.7032
2858.062072 0.7100 0.7162 0.7221 0.7271 0.7321
2863.079179 0.7367 0.7412 0.7457 0.7499 0.7535
2868.096285 0.7562 0.7586 0.7598 0.7601 0.7614
2873.113392 0.7592 0.7586 0.7573 0.7547 0.7514
2878.130499 0.7477 0.7440 0.7402 0.7359 0.7316
2883.147605 0.7271 0.7218 0.7164 0.7108 0.7051
2888.164712 0.6994 0.6937 0.6881 0.6826 0.6770
2893.181818 0.6715 0.6659 0.6601 0.6540 0.6480
2898.198925 0.6418 0.6355 0.6285 0.6214 0.6146
2903.216031 0.6087 0.6037 0.5987 0.5936 0.5877
2908.233138 0.5814 0.5754 0.5708 0.5677 0.5666
2913.250244 0.5651 0.5674 0.5677 0.5687 0.5697
2918.267351 0.5714 0.5743 0.5774 0.5812 0.5855
2923.284457 0.5891 0.5921 0.5951 0.6001 0.6099
2928.301564 0.6186 0.6269 0.6361 0.6462 0.6554
2933.318671 0.6633 0.6713 0.6812 0.6954 0.7092
2938.335777 0.7209 0.7309 0.7387 0.7436 0.7481
2943.352884 0.7512 0.7536 0.7559 0.7577 0.7584
2948.369990 0.7592 0.7600 0.7607 0.7615 0.7626
2953.387097 0.7639 0.7652 0.7665 0.7682 0.7707
2958.404203 0.7736 0.7764 0.7793 0.7818 0.7837
2963.421310 0.7854 0.7871 0.7888 0.7905 0.7922
2968.438416 0.7940 0.7957 0.7971 0.7985 0.7998
2973.455523 0.8012 0.8025 0.8038 0.8051 0.8062
2978.472630 0.8073 0.8084 0.8095 0.8107 0.8117
2983.489736 0.8124 0.8131 0.8139 0.8146 0.8152
2988.506843 0.8155 0.8156 0.8158 0.8160 0.8162
2993.523949 0.8164 0.8166 0.8167 0.8168 0.8168
2998.541056 0.8169 0.8170 0.8171 0.8173 0.8176
3003.558162 0.8179 0.8182 0.8185 0.8192 0.8209
3008.575269 0.8231 0.8260 0.8292 0.8323 0.8347
3013.592375 0.8365 0.8377 0.8385 0.8393 0.8401
3018.609482 0.8411 0.8424 0.8436 0.8446 0.8454
3023.626588 0.8463 0.8469 0.8474 0.8478 0.8483
3028.643695 0.8487 0.8492 0.8495 0.8497 0.8499
3033.660802 0.8501 0.8503 0.8505 0.8507 0.8509
3038.677908 0.8511 0.8512 0.8513 0.8515 0.8516
3043.695015 0.8518 0.8519 0.8520 0.8522 0.8523
3048.712121 0.8524 0.8524 0.8525 0.8526 0.8527
3053.729228 0.8527 0.8527 0.8528 0.8528 0.8528
3058.746334 0.8528 0.8528 0.8528 0.8529 0.8529
3063.763441 0.8529 0.8529 0.8529 0.8530 0.8530
3068.780547 0.8530 0.8530 0.8530 0.8530 0.8531
3073.797654 0.8531 0.8531 0.8531 0.8531 0.8532
3078.814761 0.8532 0.8532 0.8532 0.8532 0.8532
3083.831867 0.8533 0.8533 0.8533 0.8533 0.8533
3088.848974 0.8534 0.8534 0.8534 0.8534 0.8534
3093.866080 0.8534 0.8535 0.8535 0.8535 0.8535
3098.883187 0.8535 0.8536 0.8536 0.8536 0.8536
3103.900293 0.8536 0.8536 0.8537 0.8537 0.8537
3108.917400 0.8538 0.8538 0.8539 0.8540 0.8540
3113.934506 0.8541 0.8541 0.8542 0.8543 0.8544
3118.951613 0.8546 0.8548 0.8549 0.8551 0.8553
3123.968719 0.8555 0.8558 0.8563 0.8568 0.8574
3128.985826 0.8579 0.8584 0.8581 0.8577 0.8561
3134.002933 0.8545 0.8528 0.8505 0.8480 0.8456
3139.020039 0.8441 0.8426 0.8416 0.8414 0.8413
3144.037146 0.8411 0.8409 0.8407 0.8405 0.8404
3149.054252 0.8403 0.8405 0.8406 0.8408 0.8409
3154.071359 0.8411 0.8412 0.8412 0.8412 0.8412
3159.088465 0.8412 0.8413 0.8413 0.8413 0.8413
3164.105572 0.8413 0.8414 0.8413 0.8411 0.8410
3169.122678 0.8408 0.8406 0.8405 0.8403 0.8402
3174.139785 0.8400 0.8397 0.8394 0.8390 0.8387
3179.156891 0.8383 0.8380 0.8376 0.8373 0.8369
3184.173998 0.8365 0.8362 0.8358 0.8355 0.8351
3189.191105 0.8347 0.8343 0.8338 0.8334 0.8329
3194.208211 0.8325 0.8321 0.8316 0.8312 0.8308
3199.225318 0.8303 0.8299 0.8295 0.8290 0.8286
3204.242424 0.8281 0.8276 0.8272 0.8267 0.8262
3209.259531 0.8257 0.8253 0.8248 0.8243 0.8239
3214.276637 0.8234 0.8229 0.8225 0.8220 0.8215
3219.293744 0.8211 0.8206 0.8201 0.8198 0.8194
3224.310850 0.8190 0.8186 0.8182 0.8178 0.8174
3229.327957 0.8170 0.8166 0.8163 0.8159 0.8155
3234.345064 0.8151 0.8147 0.8143 0.8139 0.8135
3239.362170 0.8132 0.8129 0.8125 0.8122 0.8119
3244.379277 0.8115 0.8112 0.8109 0.8106 0.8102
3249.396383 0.8099 0.8096 0.8093 0.8089 0.8086
3254.413490 0.8083 0.8080 0.8076 0.8073 0.8070
3259.430596 0.8067 0.8064 0.8061 0.8058 0.8055
3264.447703 0.8052 0.8049 0.8046 0.8043 0.8040
3269.464809 0.8038 0.8035 0.8032 0.8029 0.8026
3274.481916 0.8023 0.8020 0.8017 0.8014 0.8012
3279.499022 0.8008 0.8005 0.8002 0.7999 0.7996
3284.516129 0.7993 0.7990 0.7987 0.7984 0.7981
3289.533236 0.7978 0.7975 0.7972 0.7969 0.7966
3294.550342 0.7963 0.7960 0.7954 0.7948 0.7941
3299.567449 0.7935 0.7928 0.7921 0.7915 0.7908
3304.584555 0.7901 0.7895 0.7888 0.7881 0.7875
3309.601662 0.7868 0.7860 0.7852 0.7843 0.7835
3314.618768 0.7827 0.7818 0.7810 0.7802 0.7794
3319.635875 0.7786 0.7777 0.7768 0.7759 0.7750
3324.652981 0.7741 0.7733 0.7724 0.7715 0.7706
3329.670088 0.7697 0.7688 0.7680 0.7671 0.7662
3334.687195 0.7653 0.7644 0.7635 0.7626 0.7617
3339.704301 0.7608 0.7597 0.7586 0.7575 0.7564
3344.721408 0.7553 0.7542 0.7531 0.7520 0.7509
3349.738514 0.7498 0.7487 0.7477 0.7467 0.7456
3354.755621 0.7446 0.7436 0.7426 0.7416 0.7406
3359.772727 0.7396 0.7386 0.7377 0.7367 0.7357
3364.789834 0.7347 0.7337 0.7326 0.7313 0.7298
3369.806940 0.7284 0.7270 0.7256 0.7241 0.7227
3374.824047 0.7212 0.7198 0.7183 0.7169 0.7155
3379.841153 0.7140 0.7126 0.7112 0.7098 0.7083
3384.858260 0.7069 0.7055 0.7041 0.7026 0.7014
3389.875367 0.7007 0.7001 0.6994 0.6987 0.6981
3394.892473 0.6974 0.6967 0.6961 0.6954 0.6947
3399.909580 0.6941 0.6934 0.6927 0.6920 0.6914
3404.926686 0.6907 0.6900 0.6893 0.6887 0.6880
3409.943793 0.6873 0.6867 0.6860 0.6853 0.6847
3414.960899 0.6840 0.6835 0.6832 0.6829 0.6827
3419.978006 0.6824 0.6822 0.6819 0.6816 0.6814
3424.995112 0.6811 0.6808 0.6806 0.6803 0.6802
3430.012219 0.6801 0.6800 0.6800 0.6799 0.6798
3435.029326 0.6797 0.6796 0.6796 0.6795 0.6794
3440.046432 0.6793 0.6795 0.6798 0.6802 0.6805
3445.063539 0.6809 0.6812 0.6816 0.6819 0.6823
3450.080645 0.6827 0.6830 0.6834 0.6837 0.6841
3455.097752 0.6845 0.6850 0.6855 0.6859 0.6863
3460.114858 0.6868 0.6872 0.6876 0.6881 0.6886
3465.131965 0.6890 0.6894 0.6900 0.6908 0.6917
3470.149071 0.6926 0.6934 0.6943 0.6951 0.6960
3475.166178 0.6968 0.6977 0.6986 0.6994 0.7003
3480.183284 0.7011 0.7020 0.7028 0.7036 0.7044
3485.200391 0.7051 0.7059 0.7067 0.7074 0.7082
3490.217498 0.7090 0.7098 0.7105 0.7113 0.7121
3495.234604 0.7128 0.7136 0.7144 0.7151 0.7159
3500.251711 0.7167 0.7175 0.7185 0.7195 0.7204
3505.268817 0.7214 0.7224 0.7233 0.7243 0.7253
3510.285924 0.7262 0.7272 0.7282 0.7291 0.7301
3515.303030 0.7311 0.7320 0.7330 0.7341 0.7351
3520.320137 0.7362 0.7372 0.7383 0.7393 0.7403
3525.337243 0.7414 0.7424 0.7435 0.7445 0.7456
3530.354350 0.7466 0.7477 0.7487 0.7497 0.7507
3535.371457 0.7517 0.7528 0.7538 0.7548 0.7558
3540.388563 0.7568 0.7578 0.7588 0.7598 0.7608
3545.405670 0.7619 0.7630 0.7641 0.7652 0.7663
3550.422776 0.7674 0.7685 0.7696 0.7707 0.7718
3555.439883 0.7729 0.7740 0.7751 0.7762 0.7772
3560.456989 0.7782 0.7792 0.7802 0.7811 0.7821
3565.474096 0.7831 0.7840 0.7850 0.7860 0.7870
3570.491202 0.7879 0.7889 0.7899 0.7909 0.7918
3575.508309 0.7928 0.7939 0.7950 0.7961 0.7971
3580.525415 0.7982 0.7993 0.8004 0.8015 0.8026
3585.542522 0.8037 0.8048 0.8059 0.8070 0.8081
3590.559629 0.8091 0.8102 0.8113 0.8124 0.8135
3595.576735 0.8146 0.8157 0.8168 0.8179 0.8190
3600.593842 0.8202 0.8213 0.8224 0.8234 0.8245
3605.610948 0.8256 0.8266 0.8276 0.8284 0.8293
3610.628055 0.8301 0.8310 0.8318 0.8327 0.8335
3615.645161 0.8344 0.8353 0.8361 0.8370 0.8378
3620.662268 0.8387 0.8395 0.8404 0.8414 0.8423
3625.679374 0.8432 0.8441 0.8450 0.8459 0.8468
3630.696481 0.8477 0.8486 0.8495 0.8504 0.8510
3635.713587 0.8515 0.8520 0.8525 0.8530 0.8535
3640.730694 0.8540 0.8545 0.8550 0.8553 0.8555
3645.747801 0.8558 0.8559 0.8562 0.8564 0.8566
3650.764907 0.8568 0.8570 0.8570 0.8571 0.8571
3655.782014 0.8571 0.8571 0.8571 0.8571 0.8572
3660.799120 0.8572 0.8572 0.8572 0.8572 0.8571
3665.816227 0.8571 0.8570 0.8570 0.8570 0.8569
3670.833333 0.8569 0.8568 0.8568 0.8568 0.8567
3675.850440 0.8567 0.8569 0.8572 0.8575 0.8578
3680.867546 0.8580 0.8583 0.8586 0.8588 0.8591
3685.884653 0.8596 0.8603 0.8610 0.8618 0.8625
3690.901760 0.8632 0.8640 0.8649 0.8658 0.8667
3695.918866 0.8676 0.8685 0.8690 0.8691 0.8693
3700.935973 0.8695 0.8696 0.8698 0.8699 0.8701
3705.953079 0.8702 0.8704 0.8706 0.8707 0.8707
3710.970186 0.8708 0.8708 0.8709 0.8709 0.8709
3715.987292 0.8710 0.8710 0.8711 0.8711 0.8712
3721.004399 0.8712 0.8712 0.8713 0.8713 0.8714
3726.021505 0.8714 0.8714 0.8713 0.8713 0.8713
3731.038612 0.8713 0.8713 0.8713 0.8713 0.8713
3736.055718 0.8713 0.8713 0.8713 0.8713 0.8713
3741.072825 0.8713 0.8712 0.8712 0.8711 0.8711
3746.089932 0.8711 0.8710 0.8710 0.8710 0.8709
3751.107038 0.8709 0.8708 0.8708 0.8708 0.8707
3756.124145 0.8707 0.8706 0.8706 0.8706 0.8705
3761.141251 0.8705 0.8705 0.8704 0.8704 0.8703
3766.158358 0.8703 0.8703 0.8702 0.8702 0.8701
3771.175464 0.8701 0.8701 0.8700 0.8700 0.8699
3776.192571 0.8699 0.8699 0.8698 0.8698 0.8697
3781.209677 0.8697 0.8696 0.8696 0.8696 0.8695
3786.226784 0.8695 0.8694 0.8694 0.8694 0.8693
3791.243891 0.8693 0.8692 0.8692 0.8692 0.8691
3796.260997 0.8691 0.8690 0.8690 0.8689 0.8689
3801.278104 0.8689 0.8688 0.8688 0.8687 0.8687
3806.295210 0.8687 0.8686 0.8686 0.8686 0.8686
3811.312317 0.8686 0.8686 0.8686 0.8686 0.8686
3816.329423 0.8686 0.8686 0.8687 0.8687 0.8687
3821.346530 0.8687 0.8687 0.8687 0.8687 0.8687
3826.363636 0.8687 0.8687 0.8687 0.8687 0.8688
3831.380743 0.8688 0.8688 0.8688 0.8688 0.8688
3836.397849 0.8688 0.8688 0.8688 0.8688 0.8688
3841.414956 0.8689 0.8689 0.8689 0.8689 0.8689
3846.432063 0.8689 0.8689 0.8689 0.8689 0.8689
3851.449169 0.8689 0.8689 0.8689 0.8689 0.8689
3856.466276 0.8689 0.8689 0.8689 0.8688 0.8688
3861.483382 0.8688 0.8688 0.8688 0.8688 0.8688
3866.500489 0.8688 0.8688 0.8688 0.8687 0.8687
3871.517595 0.8687 0.8687 0.8687 0.8687 0.8687
3876.534702 0.8687 0.8687 0.8687 0.8686 0.8686
3881.551808 0.8686 0.8686 0.8685 0.8685 0.8685
3886.568915 0.8685 0.8685 0.8684 0.8684 0.8684
3891.586022 0.8684 0.8683 0.8683 0.8683 0.8683
3896.603128 0.8682 0.8682 0.8682 0.8682 0.8682
3901.620235 0.8681 0.8681 0.8681 0.8681 0.8680
3906.637341 0.8680 0.8681 0.8681 0.8681 0.8682
3911.654448 0.8682 0.8683 0.8683 0.8684 0.8684
3916.671554 0.8684 0.8685 0.8685 0.8686 0.8686
3921.688661 0.8687 0.8687 0.8687 0.8688 0.8688
3926.705767 0.8689 0.8689 0.8690 0.8690 0.8690
3931.722874 0.8691 0.8691 0.8692 0.8692 0.8693
3936.739980 0.8693 0.8693 0.8694 0.8694 0.8694
3941.757087 0.8694 0.8694 0.8694 0.8694 0.8694
3946.774194 0.8694 0.8694 0.8694 0.8694 0.8694
3951.791300 0.8694 0.8694 0.8694 0.8694 0.8694
3956.808407 0.8694 0.8694 0.8694 0.8694 0.8694
3961.825513 0.8694 0.8695 0.8696 0.8697 0.8698
3966.842620 0.8699 0.8700 0.8700 0.8701 0.8702
3971.859726 0.8703 0.8704 0.8705 0.8706 0.8707
3976.876833 0.8708 0.8709 0.8705 0.8698 0.8689
3981.893939 0.8681 0.8673 0.8665 0.8663 0.8661
3986.911046 0.8660 0.8659 0.8659 0.8659 0.8659
3991.928152 0.8659 0.8659 0.8659 0.8658 0.8658
3996.945259 0.8658 0.8658 0.8658 0.8658 0.8658
4001.962366 0.8657 0.8657 0.8657 0.8657 0.8657
4006.979472 0.8657 0.8657 0.8656 0.8656 0.8656
4011.996579 0.8656
##END=
