##TITLE=THIAMINE HYDROCHLORIDE
##JCAMP-DX=4.24
##DATA TYPE=INFRARED SPECTRUM
##CLASS=COBLENTZ
##ORIGIN=DOW CHEMICAL COMPANY
##OWNER=COBLENTZ SOCIETY
Collection (C) 2018 copyright by the U.S. Secretary of Commerce
on behalf of the United States of America. All rights reserved.
##DATE=Not specified, most likely prior to 1970
##NAMES=VITAMINE B1
##MOLFORM=C12 H18 Cl2 N4 O S
##SOURCE REFERENCE=COBLENTZ NO. 1851
##$NIST ID=B6001851
##$NIST SOURCE=COBLENTZ
##$NIST IMAGE=cob1851
##SPECTROMETER/DATA SYSTEM=Not specified, most likely a prism, grating, or hybrid spectrometer.
##STATE=SOLID (MINERAL OIL MULL)
##PATH LENGTH=THICK LAYER
##SAMPLING PROCEDURE=TRANSMISSION
##RESOLUTION=4
##DATA PROCESSING=DIGITIZED BY NIST FROM HARD COPY
##XUNITS=MICROMETERS
##YUNITS=TRANSMITTANCE
##XFACTOR=1.000000
##YFACTOR=1
##DELTAX=000.006849
##FIRSTX=2.041
##LASTX=15.9044
##FIRSTY=0.377
##MAXX=15.9044
##MINX=2.041
##MAXY=0.919
##MINY=0.013
##NPOINTS=2025
##XYDATA=(X++(Y..Y))
2.041000 0.3770 0.3820 0.3850 0.3890 0.3920
2.075263 0.3970 0.3990 0.4040 0.4110 0.4150
2.110000 0.4160 0.4180 0.4200 0.4210 0.4230
2.144263 0.4250 0.4280 0.4320 0.4330 0.4370
2.178000 0.4390 0.4400 0.4420 0.4450 0.4470
2.212263 0.4490 0.4510 0.4510 0.4510 0.4510
2.247000 0.4510 0.4510 0.4510 0.4510 0.4510
2.281263 0.4510 0.4510 0.4510 0.4510 0.4510
2.315000 0.4520 0.4560 0.4590 0.4630 0.4660
2.349263 0.4690 0.4730 0.4780 0.4810 0.4830
2.384000 0.4870 0.4900 0.4950 0.4990 0.5020
2.418263 0.5070 0.5120 0.5160 0.5190 0.5210
2.452000 0.5230 0.5240 0.5260 0.5300 0.5330
2.486263 0.5420 0.5450 0.5500 0.5520 0.5550
2.521000 0.5590 0.5600 0.5640 0.5670 0.5710
2.555263 0.5720 0.5720 0.5760 0.5780 0.5810
2.589000 0.5860 0.5900 0.5930 0.5960 0.5980
2.623263 0.6000 0.6050 0.6100 0.6170 0.6220
2.658000 0.6260 0.6290 0.6290 0.6290 0.6310
2.692263 0.6310 0.6360 0.6410 0.6460 0.6550
2.726000 0.6620 0.6650 0.6700 0.6700 0.6720
2.760263 0.6740 0.6750 0.6750 0.6770 0.6770
2.795000 0.6770 0.6750 0.6720 0.6650 0.6550
2.829263 0.6380 0.6120 0.5790 0.5360 0.5110
2.863000 0.4400 0.4010 0.3650 0.3410 0.3370
2.897263 0.3370 0.3460 0.3460 0.3460 0.3390
2.932000 0.3250 0.2980 0.2770 0.2770 0.3720
2.966263 0.4270 0.4300 0.4300 0.4280 0.3790
3.000000 0.3290 0.2960 0.2620 0.2310 0.2040
3.034263 0.1810 0.1620 0.1490 0.1370 0.1320
3.068000 0.1250 0.1130 0.1090 0.1090 0.1110
3.102263 0.1180 0.1260 0.1400 0.1560 0.1680
3.137000 0.1690 0.1730 0.1740 0.1740 0.1740
3.171263 0.1730 0.1710 0.1610 0.1490 0.1330
3.205000 0.1140 0.1010 0.0900 0.0800 0.0730
3.239263 0.0680 0.0610 0.0600 0.0600 0.0580
3.274000 0.0560 0.0540 0.0540 0.0560 0.0560
3.308263 0.0560 0.0580 0.0600 0.0610 0.0610
3.342000 0.0540 0.0490 0.0490 0.0460 0.0460
3.376263 0.0460 0.0460 0.0460 0.0460 0.0440
3.411000 0.0360 0.0220 0.0150 0.0130 0.0130
3.445263 0.0130 0.0130 0.0150 0.0150 0.0170
3.479000 0.0180 0.0200 0.0220 0.0240 0.0250
3.513263 0.0270 0.0290 0.0290 0.0300 0.0410
3.548000 0.0580 0.0720 0.0870 0.0940 0.1010
3.582263 0.1040 0.1090 0.1090 0.1090 0.1090
3.616000 0.1020 0.0900 0.0850 0.0780 0.0720
3.650263 0.0630 0.0580 0.0560 0.0530 0.0530
3.685000 0.0530 0.0530 0.0530 0.0530 0.0540
3.719263 0.0540 0.0580 0.0600 0.0610 0.0650
3.753000 0.0680 0.0680 0.0720 0.0770 0.0820
3.787263 0.0900 0.0990 0.1080 0.1160 0.1250
3.822000 0.1320 0.1350 0.1370 0.1420 0.1470
3.856263 0.1520 0.1570 0.1640 0.1710 0.1780
3.890000 0.1850 0.1930 0.2020 0.2100 0.2170
3.924263 0.2310 0.2430 0.2550 0.2650 0.2770
3.959000 0.2880 0.2980 0.3100 0.3220 0.3360
3.993263 0.3490 0.3650 0.3820 0.4010 0.4210
4.027000 0.4270 0.4320 0.4400 0.4510 0.4610
4.061263 0.4690 0.4800 0.4880 0.4950 0.5000
4.096000 0.4920 0.5020 0.5070 0.5140 0.5230
4.130263 0.5300 0.5380 0.5470 0.5550 0.5620
4.164000 0.5670 0.5740 0.5790 0.5830 0.5840
4.198263 0.5860 0.5880 0.5880 0.5900 0.5910
4.233000 0.5930 0.5930 0.6000 0.6050 0.6080
4.267263 0.6140 0.6200 0.6310 0.6460 0.6560
4.301000 0.6650 0.6770 0.6910 0.6990 0.7040
4.335263 0.7110 0.7130 0.7130 0.7130 0.7130
4.370000 0.7160 0.7180 0.7230 0.7300 0.7370
4.404263 0.7400 0.7440 0.7460 0.7470 0.7490
4.438000 0.7510 0.7530 0.7560 0.7590 0.7590
4.472263 0.7610 0.7630 0.7650 0.7680 0.7710
4.507000 0.7730 0.7730 0.7780 0.7780 0.7780
4.541263 0.7780 0.7780 0.7780 0.7780 0.7780
4.575000 0.7780 0.7780 0.7780 0.7780 0.7800
4.609263 0.7820 0.7830 0.7850 0.7870 0.7890
4.644000 0.7890 0.7900 0.7940 0.7970 0.8010
4.678263 0.8020 0.8020 0.8020 0.8040 0.8040
4.712000 0.8040 0.8040 0.8040 0.8020 0.8020
4.746263 0.7990 0.7970 0.7950 0.7950 0.7940
4.781000 0.7920 0.7920 0.7920 0.7920 0.7950
4.815263 0.7970 0.7990 0.8020 0.8060 0.8130
4.849000 0.8210 0.8310 0.8350 0.8380 0.8400
4.883263 0.8420 0.8430 0.8470 0.8500 0.8540
4.918000 0.8570 0.8610 0.8640 0.8640 0.8640
4.952263 0.8640 0.8640 0.8640 0.8620 0.8610
4.986000 0.8610 0.8610 0.8570 0.8540 0.8490
5.020263 0.8420 0.8350 0.8280 0.8250 0.8210
5.055000 0.8180 0.8140 0.8110 0.8010 0.7990
5.089263 0.7990 0.7990 0.8010 0.8180 0.8330
5.123000 0.8550 0.8570 0.8620 0.8640 0.8640
5.157263 0.8640 0.8640 0.8640 0.8660 0.8670
5.192000 0.8710 0.8740 0.8780 0.8790 0.8810
5.226263 0.8810 0.8810 0.8790 0.8790 0.8790
5.260000 0.8790 0.8790 0.8790 0.8780 0.8780
5.294263 0.8780 0.8780 0.8760 0.8740 0.8740
5.329000 0.8740 0.8760 0.8760 0.8790 0.8810
5.363263 0.8850 0.8930 0.9050 0.9120 0.9150
5.397000 0.9170 0.9190 0.9190 0.9190 0.9190
5.431263 0.9190 0.9190 0.9170 0.9170 0.9170
5.466000 0.9120 0.9090 0.9030 0.8980 0.8950
5.500263 0.8900 0.8860 0.8830 0.8790 0.8730
5.534000 0.8690 0.8660 0.8620 0.8610 0.8570
5.568263 0.8520 0.8430 0.8380 0.8350 0.8280
5.603000 0.8160 0.7970 0.7660 0.7560 0.7460
5.637263 0.7370 0.7340 0.7340 0.7340 0.7370
5.671000 0.7460 0.7590 0.7900 0.8090 0.8210
5.705263 0.8280 0.8310 0.8330 0.8370 0.8420
5.740000 0.8520 0.8610 0.8660 0.8710 0.8760
5.774263 0.8830 0.8900 0.8950 0.9000 0.9020
5.808000 0.9050 0.9050 0.9020 0.8950 0.8880
5.842263 0.8780 0.8670 0.8550 0.8450 0.8370
5.877000 0.8330 0.8230 0.8090 0.7950 0.7830
5.911263 0.7580 0.7370 0.7160 0.6980 0.6530
5.945000 0.6140 0.5840 0.5540 0.5230 0.4610
5.979263 0.4300 0.3970 0.3960 0.2570 0.2190
6.014000 0.1780 0.1370 0.0960 0.0540 0.0530
6.048263 0.0300 0.0220 0.0220 0.0220 0.0220
6.082000 0.0220 0.0240 0.0410 0.0510 0.0720
6.116263 0.0940 0.1140 0.1380 0.1640 0.1920
6.151000 0.2220 0.2550 0.2910 0.3000 0.3130
6.185263 0.3170 0.3170 0.3070 0.2770 0.2380
6.219000 0.1970 0.1560 0.1230 0.0990 0.0770
6.253263 0.0720 0.0770 0.1350 0.1920 0.2280
6.288000 0.2550 0.2840 0.3240 0.3840 0.4750
6.322263 0.4950 0.5040 0.5120 0.5300 0.5360
6.356000 0.5470 0.5550 0.5590 0.5600 0.5590
6.390263 0.5590 0.5570 0.5520 0.5400 0.5280
6.425000 0.5210 0.5110 0.4660 0.4420 0.4150
6.459263 0.3890 0.3630 0.3390 0.3150 0.2950
6.493000 0.2770 0.2640 0.2520 0.2450 0.2360
6.527263 0.2290 0.2210 0.2170 0.2160 0.2160
6.562000 0.2160 0.2140 0.2140 0.2140 0.2140
6.596263 0.2140 0.2140 0.2140 0.2160 0.2160
6.630000 0.2160 0.2170 0.2190 0.2210 0.2220
6.664263 0.2220 0.2240 0.2280 0.2330 0.2410
6.699000 0.2480 0.2570 0.2650 0.2710 0.2710
6.733263 0.2710 0.2710 0.2640 0.2480 0.2290
6.767000 0.2140 0.1980 0.1880 0.1830 0.1760
6.801263 0.1680 0.1590 0.1500 0.1420 0.1330
6.836000 0.1250 0.1160 0.1090 0.1020 0.0960
6.870263 0.0900 0.0870 0.0840 0.0820 0.0820
6.904000 0.0820 0.0820 0.0840 0.0840 0.0890
6.938263 0.0970 0.1090 0.1210 0.1330 0.1470
6.973000 0.1620 0.1780 0.1950 0.2140 0.2340
7.007263 0.2590 0.2830 0.3000 0.3100 0.3200
7.041000 0.3270 0.3370 0.3480 0.3550 0.3600
7.075263 0.3610 0.3630 0.3630 0.3610 0.3480
7.110000 0.3370 0.3220 0.3080 0.2930 0.2790
7.144263 0.2670 0.2590 0.2520 0.2480 0.2450
7.178000 0.2410 0.2360 0.2310 0.2260 0.2170
7.212263 0.2050 0.1850 0.1540 0.1420 0.1300
7.247000 0.1230 0.1160 0.1140 0.1160 0.1200
7.281263 0.1350 0.1540 0.1810 0.2070 0.2170
7.315000 0.2530 0.2570 0.2570 0.2530 0.2330
7.349263 0.2100 0.1970 0.1850 0.1780 0.1760
7.384000 0.1760 0.1740 0.1780 0.2050 0.2240
7.418263 0.2460 0.2690 0.2840 0.2910 0.2950
7.452000 0.2980 0.3010 0.3050 0.3120 0.3240
7.486263 0.3370 0.3530 0.3650 0.3790 0.3910
7.521000 0.4040 0.4160 0.4270 0.4370 0.4490
7.555263 0.4570 0.4680 0.4750 0.4800 0.4800
7.589000 0.4810 0.4810 0.4810 0.4830 0.4850
7.623263 0.4880 0.4920 0.4970 0.5020 0.5060
7.658000 0.5140 0.5240 0.5260 0.5360 0.5400
7.692263 0.5470 0.5500 0.5520 0.5520 0.5540
7.726000 0.5540 0.5520 0.5450 0.5350 0.5240
7.760263 0.5140 0.5040 0.4880 0.4850 0.4810
7.795000 0.4810 0.4920 0.5000 0.5470 0.5810
7.829263 0.6070 0.6260 0.6390 0.6480 0.6550
7.863000 0.6620 0.6670 0.6700 0.6740 0.6770
7.897263 0.6860 0.6910 0.6920 0.6980 0.6990
7.932000 0.6990 0.7010 0.7010 0.6920 0.6800
7.966263 0.6600 0.6410 0.6240 0.5900 0.5570
8.000000 0.5350 0.5140 0.4370 0.4130 0.4110
8.034263 0.4150 0.4250 0.4470 0.4690 0.4830
8.068000 0.4900 0.4900 0.4900 0.4900 0.4900
8.102263 0.4920 0.4970 0.5020 0.5120 0.5260
8.137000 0.5500 0.5520 0.5520 0.5500 0.5310
8.171263 0.5120 0.4640 0.4270 0.3970 0.3920
8.205000 0.3920 0.3920 0.4010 0.4810 0.5090
8.239263 0.5360 0.5760 0.6020 0.6320 0.6530
8.274000 0.6670 0.6860 0.6920 0.7060 0.7080
8.308263 0.7160 0.7200 0.7200 0.7220 0.7220
8.342000 0.7220 0.7200 0.7110 0.7010 0.6910
8.376263 0.6790 0.6680 0.6580 0.6500 0.6440
8.411000 0.6440 0.6440 0.6480 0.6510 0.6620
8.445263 0.6770 0.6790 0.6870 0.6910 0.6890
8.479000 0.6890 0.6890 0.6910 0.6920 0.6980
8.513263 0.7010 0.7100 0.7160 0.7230 0.7300
8.548000 0.7390 0.7470 0.7530 0.7560 0.7590
8.582263 0.7610 0.7650 0.7700 0.7750 0.7770
8.616000 0.7800 0.7820 0.7820 0.7820 0.7820
8.650263 0.7820 0.7820 0.7820 0.7830 0.7830
8.685000 0.7830 0.7830 0.7830 0.7870 0.7870
8.719263 0.7890 0.7900 0.7940 0.7950 0.7990
8.753000 0.7990 0.8010 0.8040 0.8040 0.8060
8.787263 0.8060 0.8070 0.8070 0.8090 0.8130
8.822000 0.8180 0.8190 0.8190 0.8210 0.8210
8.856263 0.8210 0.8210 0.8210 0.8230 0.8230
8.890000 0.8210 0.8210 0.8210 0.8210 0.8210
8.924263 0.8210 0.8210 0.8190 0.8190 0.8190
8.959000 0.8190 0.8180 0.8160 0.8140 0.8140
8.993263 0.8130 0.8130 0.8110 0.8090 0.8070
9.027000 0.8040 0.8010 0.7990 0.7970 0.7950
9.061263 0.7940 0.7890 0.7830 0.7770 0.7680
9.096000 0.7590 0.7510 0.7400 0.7250 0.7100
9.130263 0.7030 0.6990 0.6960 0.6940 0.6940
9.164000 0.6940 0.6980 0.6990 0.7010 0.7060
9.198263 0.7130 0.7220 0.7300 0.7320 0.7320
9.233000 0.7320 0.7300 0.7270 0.7220 0.7110
9.267263 0.7030 0.6920 0.6820 0.6670 0.6560
9.301000 0.6440 0.6340 0.6270 0.6200 0.6170
9.335263 0.6150 0.6140 0.6120 0.6120 0.6120
9.370000 0.6080 0.6070 0.6030 0.6020 0.5880
9.404263 0.5740 0.5600 0.5470 0.5380 0.5280
9.438000 0.5240 0.5230 0.5210 0.5190 0.5210
9.472263 0.5240 0.5260 0.5300 0.5300 0.5240
9.507000 0.5180 0.5120 0.4830 0.4660 0.4440
9.541263 0.4210 0.4030 0.3870 0.3700 0.3550
9.575000 0.3360 0.3190 0.2960 0.2790 0.2720
9.609263 0.2720 0.2720 0.2790 0.3030 0.3320
9.644000 0.3650 0.4010 0.4330 0.4640 0.4920
9.678263 0.5020 0.5110 0.5210 0.5330 0.5420
9.712000 0.5480 0.5540 0.5590 0.5620 0.5670
9.746263 0.5710 0.5740 0.5790 0.5840 0.5910
9.781000 0.6000 0.6100 0.6220 0.6360 0.6530
9.815263 0.6670 0.6800 0.6920 0.7030 0.7130
9.849000 0.7220 0.7280 0.7320 0.7340 0.7340
9.883263 0.7340 0.7340 0.7320 0.7270 0.7180
9.918000 0.7080 0.7040 0.6980 0.6920 0.6890
9.952263 0.6870 0.6870 0.6890 0.6940 0.6990
9.986000 0.7040 0.7080 0.7110 0.7150 0.7160
10.020263 0.7160 0.7160 0.7180 0.7200 0.7230
10.055000 0.7280 0.7350 0.7460 0.7470 0.7560
10.089263 0.7590 0.7590 0.7590 0.7590 0.7530
10.123000 0.7370 0.7270 0.7110 0.7010 0.6890
10.157263 0.6800 0.6790 0.6770 0.6790 0.6920
10.192000 0.7010 0.7250 0.7440 0.7610 0.7750
10.226263 0.7870 0.7950 0.8040 0.8110 0.8140
10.260000 0.8190 0.8210 0.8250 0.8260 0.8300
10.294263 0.8300 0.8310 0.8330 0.8350 0.8350
10.329000 0.8370 0.8370 0.8380 0.8400 0.8400
10.363263 0.8400 0.8400 0.8400 0.8400 0.8400
10.397000 0.8380 0.8370 0.8370 0.8330 0.8300
10.431263 0.8250 0.8180 0.8110 0.8040 0.7940
10.466000 0.7830 0.7710 0.7590 0.7470 0.7320
10.500263 0.7180 0.7010 0.6860 0.6790 0.6680
10.534000 0.6630 0.6620 0.6620 0.6620 0.6620
10.568263 0.6630 0.6890 0.7060 0.7220 0.7340
10.603000 0.7460 0.7580 0.7680 0.7680 0.7700
10.637263 0.7700 0.7610 0.7510 0.7420 0.7300
10.671000 0.7250 0.7200 0.7160 0.7130 0.7110
10.705263 0.7110 0.7150 0.7280 0.7400 0.7680
10.740000 0.7770 0.7870 0.7950 0.8060 0.8110
10.774263 0.8190 0.8250 0.8260 0.8280 0.8300
10.808000 0.8300 0.8300 0.8280 0.8260 0.8230
10.842263 0.8210 0.8160 0.8160 0.8060 0.8060
10.877000 0.7950 0.7900 0.7820 0.7750 0.7680
10.911263 0.7630 0.7560 0.7470 0.7420 0.7370
10.945000 0.7270 0.7180 0.7080 0.7030 0.6940
10.979263 0.6870 0.6860 0.6820 0.6790 0.6770
11.014000 0.6770 0.6770 0.6770 0.6770 0.6770
11.048263 0.6770 0.6770 0.6770 0.6750 0.6700
11.082000 0.6510 0.6430 0.6320 0.6220 0.6100
11.116263 0.6000 0.5880 0.5780 0.5670 0.5620
11.151000 0.5620 0.5620 0.5620 0.5620 0.5710
11.185263 0.5780 0.5860 0.5960 0.6070 0.6170
11.219000 0.6290 0.6410 0.6530 0.6650 0.6770
11.253263 0.6890 0.7010 0.7130 0.7230 0.7350
11.288000 0.7460 0.7540 0.7630 0.7710 0.7780
11.322263 0.7830 0.7870 0.7970 0.8010 0.8070
11.356000 0.8110 0.8110 0.8140 0.8190 0.8210
11.390263 0.8230 0.8300 0.8300 0.8310 0.8310
11.425000 0.8310 0.8310 0.8310 0.8310 0.8310
11.459263 0.8310 0.8300 0.8180 0.8090 0.7990
11.493000 0.7920 0.7820 0.7710 0.7650 0.7560
11.527263 0.7490 0.7420 0.7400 0.7400 0.7400
11.562000 0.7420 0.7530 0.7680 0.7820 0.7940
11.596263 0.8070 0.8180 0.8280 0.8380 0.8450
11.630000 0.8500 0.8550 0.8610 0.8660 0.8690
11.664263 0.8730 0.8760 0.8780 0.8790 0.8790
11.699000 0.8810 0.8810 0.8810 0.8830 0.8830
11.733263 0.8830 0.8850 0.8850 0.8850 0.8850
11.767000 0.8850 0.8850 0.8830 0.8810 0.8790
11.801263 0.8740 0.8730 0.8690 0.8670 0.8660
11.836000 0.8640 0.8620 0.8610 0.8550 0.8550
11.870263 0.8500 0.8470 0.8450 0.8370 0.8310
11.904000 0.8260 0.8210 0.8180 0.8130 0.8060
11.938263 0.8010 0.7940 0.7870 0.7780 0.7700
11.973000 0.7590 0.7470 0.7320 0.7280 0.7180
12.007263 0.7010 0.6820 0.6600 0.6360 0.6140
12.041000 0.5930 0.5760 0.5620 0.5540 0.5420
12.075263 0.5400 0.5400 0.5420 0.5520 0.5690
12.110000 0.6000 0.6290 0.6530 0.6770 0.6980
12.144263 0.7150 0.7320 0.7460 0.7560 0.7650
12.178000 0.7700 0.7730 0.7750 0.7770 0.7780
12.212263 0.7820 0.7850 0.7890 0.7890 0.7890
12.247000 0.7890 0.7820 0.7750 0.7630 0.7510
12.281263 0.7400 0.7220 0.7040 0.6920 0.6770
12.315000 0.6530 0.6410 0.6270 0.6170 0.6100
12.349263 0.6030 0.6020 0.6020 0.6020 0.6020
12.384000 0.6100 0.6310 0.6390 0.6510 0.6650
12.418263 0.6800 0.6960 0.7110 0.7220 0.7370
12.452000 0.7470 0.7580 0.7660 0.7730 0.7830
12.486263 0.7890 0.7920 0.7970 0.8020 0.8040
12.521000 0.8060 0.8110 0.8130 0.8140 0.8140
12.555263 0.8190 0.8190 0.8210 0.8210 0.8230
12.589000 0.8230 0.8230 0.8250 0.8250 0.8250
12.623263 0.8230 0.8210 0.8190 0.8180 0.8180
12.658000 0.8160 0.8140 0.8070 0.8020 0.7970
12.692263 0.7950 0.7940 0.7920 0.7900 0.7900
12.726000 0.7890 0.7890 0.7830 0.7820 0.7800
12.760263 0.7750 0.7710 0.7660 0.7610 0.7560
12.795000 0.7540 0.7470 0.7400 0.7340 0.7280
12.829263 0.7220 0.7160 0.7100 0.7040 0.6910
12.863000 0.6860 0.6800 0.6600 0.6510 0.6270
12.897263 0.6170 0.5980 0.5760 0.5500 0.5280
12.932000 0.5110 0.4810 0.4640 0.4450 0.4320
12.966263 0.4300 0.4300 0.4320 0.4510 0.4610
13.000000 0.4830 0.5040 0.5240 0.5350 0.5400
13.034263 0.5790 0.6100 0.6290 0.6360 0.6410
13.068000 0.6560 0.6650 0.6680 0.6680 0.6680
13.102263 0.6680 0.6680 0.6680 0.6680 0.6680
13.137000 0.6650 0.6560 0.6530 0.6460 0.6380
13.171263 0.6360 0.6310 0.6260 0.6220 0.6150
13.205000 0.6100 0.6020 0.5950 0.5880 0.5810
13.239263 0.5740 0.5690 0.5600 0.5520 0.5420
13.274000 0.5330 0.5230 0.5110 0.5000 0.4780
13.308263 0.4680 0.4590 0.4560 0.4520 0.4520
13.342000 0.4510 0.4490 0.4490 0.4520 0.4640
13.376263 0.4760 0.4880 0.4990 0.5040 0.5090
13.411000 0.5210 0.5310 0.5400 0.5500 0.5590
13.445263 0.5660 0.5720 0.5780 0.5830 0.5860
13.479000 0.5900 0.5960 0.6000 0.6020 0.6050
13.513263 0.6070 0.6100 0.6120 0.6150 0.6170
13.548000 0.6220 0.6240 0.6260 0.6260 0.6270
13.582263 0.6290 0.6290 0.6290 0.6290 0.6290
13.616000 0.6290 0.6290 0.6290 0.6290 0.6290
13.650263 0.6290 0.6290 0.6290 0.6270 0.6270
13.685000 0.6240 0.6240 0.6220 0.6200 0.6200
13.719263 0.6190 0.6170 0.6140 0.6080 0.6080
13.753000 0.6050 0.6050 0.6030 0.6020 0.6000
13.787263 0.6000 0.5980 0.5980 0.5960 0.5880
13.822000 0.5880 0.5860 0.5860 0.5860 0.5840
13.856263 0.5830 0.5830 0.5810 0.5810 0.5810
13.890000 0.5810 0.5810 0.5810 0.5810 0.5810
13.924263 0.5810 0.5790 0.5790 0.5790 0.5790
13.959000 0.5790 0.5790 0.5790 0.5790 0.5790
13.993263 0.5790 0.5790 0.5790 0.5790 0.5760
14.027000 0.5740 0.5720 0.5670 0.5620 0.5550
14.061263 0.5520 0.5500 0.5450 0.5420 0.5360
14.096000 0.5350 0.5260 0.5210 0.5120 0.5040
14.130263 0.4870 0.4800 0.4750 0.4680 0.4610
14.164000 0.4540 0.4470 0.4400 0.4320 0.4250
14.198263 0.4160 0.4090 0.4010 0.3910 0.3840
14.233000 0.3770 0.3750 0.3670 0.3560 0.3560
14.267263 0.3530 0.3490 0.3410 0.3390 0.3390
14.301000 0.3390 0.3370 0.3370 0.3370 0.3390
14.335263 0.3410 0.3430 0.3440 0.3510 0.3580
14.370000 0.3650 0.3720 0.3770 0.3800 0.3940
14.404263 0.4060 0.4150 0.4250 0.4320 0.4370
14.438000 0.4440 0.4470 0.4510 0.4540 0.4570
14.472263 0.4590 0.4590 0.4590 0.4610 0.4610
14.507000 0.4610 0.4610 0.4610 0.4590 0.4560
14.541263 0.4540 0.4490 0.4450 0.4420 0.4370
14.575000 0.4320 0.4270 0.4230 0.4210 0.4180
14.609263 0.4130 0.4130 0.4110 0.4090 0.4090
14.644000 0.4080 0.4060 0.4060 0.4040 0.4040
14.678263 0.4040 0.4060 0.4080 0.4110 0.4150
14.712000 0.4150 0.4180 0.4230 0.4270 0.4300
14.746263 0.4320 0.4370 0.4420 0.4450 0.4490
14.781000 0.4510 0.4520 0.4520 0.4560 0.4560
14.815263 0.4570 0.4570 0.4590 0.4610 0.4610
14.849000 0.4610 0.4630 0.4630 0.4630 0.4630
14.883263 0.4630 0.4640 0.4640 0.4640 0.4640
14.918000 0.4660 0.4640 0.4640 0.4660 0.4660
14.952263 0.4660 0.4660 0.4680 0.4680 0.4680
14.986000 0.4690 0.4690 0.4710 0.4710 0.4710
15.020263 0.4710 0.4710 0.4710 0.4710 0.4710
15.055000 0.4710 0.4710 0.4690 0.4690 0.4680
15.089263 0.4680 0.4680 0.4660 0.4640 0.4630
15.123000 0.4630 0.4610 0.4610 0.4590 0.4590
15.157263 0.4570 0.4560 0.4560 0.4540 0.4520
15.192000 0.4520 0.4510 0.4490 0.4470 0.4450
15.226263 0.4450 0.4450 0.4440 0.4440 0.4440
15.260000 0.4420 0.4420 0.4400 0.4390 0.4390
15.294263 0.4350 0.4330 0.4320 0.4320 0.4320
15.329000 0.4320 0.4300 0.4300 0.4280 0.4280
15.363263 0.4250 0.4230 0.4210 0.4210 0.4200
15.397000 0.4200 0.4180 0.4160 0.4150 0.4110
15.431263 0.4110 0.4090 0.4040 0.4030 0.3970
15.466000 0.3960 0.3940 0.3910 0.3890 0.3850
15.500263 0.3840 0.3800 0.3790 0.3730 0.3700
15.534000 0.3680 0.3630 0.3600 0.3560 0.3550
15.568263 0.3490 0.3460 0.3410 0.3390 0.3360
15.603000 0.3340 0.3340 0.3290 0.3250 0.3240
15.637263 0.3220 0.3200 0.3190 0.3150 0.3120
15.671000 0.3080 0.3080 0.3070 0.3030 0.3030
15.705263 0.3010 0.2960 0.2960 0.2930 0.2930
15.740000 0.2910 0.2910 0.2890 0.2880 0.2880
15.774263 0.2860 0.2840 0.2830 0.2830 0.2830
15.808000 0.2830 0.2810 0.2790 0.2770 0.2720
15.842263 0.2720 0.2710 0.2710 0.2710 0.2710
15.877000 0.2710 0.2690 0.2690 0.2690 0.2670
##END=
