##TITLE=BIPHENYL, HEXABROMO-
##JCAMP-DX=4.24
##DATA TYPE=INFRARED SPECTRUM
##CLASS=COBLENTZ
##ORIGIN=PERKIN-ELMER
##OWNER=COBLENTZ SOCIETY
Collection (C) 2018 copyright by the U.S. Secretary of Commerce
on behalf of the United States of America. All rights reserved.
##DATE=1978/05/27
##NAMES=FIRE MASTER BP-6 (COMMERCIAL FLAME RETARDANT)
##MOLFORM=C12 H4 Br6
##SOURCE REFERENCE=COBLENTZ NO. 10296
##$NIST ID=B6010296
##$NIST SOURCE=COBLENTZ
##$NIST IMAGE=cob10296
##SPECTROMETER/DATA SYSTEM=PERKIN-ELMER 283
##STATE=SOLID (5 mg / 250 mg CsI DISC)
##SAMPLING PROCEDURE=TRANSMISSION
##RESOLUTION=4
##DATA PROCESSING=DIGITIZED BY NIST FROM HARD COPY (FROM TWO SEGMENTS)
##XUNITS=1/CM
##YUNITS=TRANSMITTANCE
##XFACTOR=1.000000
##YFACTOR=1
##DELTAX=0.974661
##FIRSTX=199.805
##LASTX=3997.08
##FIRSTY=0.801
##MAXX=3997.08
##MINX=199.805
##MAXY=0.894
##MINY=0.01
##NPOINTS=3897
##XYDATA=(X++(Y..Y))
199.805000 0.8010 0.8010 0.8010 0.8000 0.8000
204.678303 0.8000 0.7980 0.7980 0.7980 0.7980
209.551607 0.7980 0.7980 0.7980 0.7980 0.8000
214.424910 0.8000 0.8010 0.8040 0.8050 0.8070
219.298214 0.8090 0.8110 0.8130 0.8140 0.8150
224.171517 0.8170 0.8170 0.8150 0.8150 0.8150
229.044821 0.8150 0.8150 0.8150 0.8150 0.8150
233.918124 0.8150 0.8140 0.8140 0.8130 0.8110
238.791428 0.8100 0.8070 0.8070 0.8060 0.8050
243.664731 0.8040 0.8040 0.8010 0.8000 0.7970
248.538035 0.7930 0.7910 0.7890 0.7890 0.7910
253.411338 0.7920 0.7920 0.7920 0.7930 0.7950
258.284642 0.7950 0.7960 0.7970 0.8000 0.8010
263.157945 0.8010 0.8010 0.8000 0.7980 0.7980
268.031249 0.7980 0.7980 0.7970 0.7970 0.7970
272.904552 0.7970 0.7960 0.7960 0.7960 0.7960
277.777856 0.7950 0.7930 0.7920 0.7920 0.7930
282.651159 0.7930 0.7930 0.7950 0.7960 0.7960
287.524463 0.7970 0.7980 0.7980 0.7980 0.7980
292.397766 0.7970 0.7960 0.7950 0.7950 0.7930
297.271070 0.7930 0.7890 0.7860 0.7820 0.7790
302.144373 0.7770 0.7740 0.7730 0.7710 0.7700
307.017677 0.7710 0.7750 0.7800 0.7830 0.7870
311.890980 0.7880 0.7880 0.7880 0.7890 0.7890
316.764284 0.7910 0.7910 0.7920 0.7920 0.7910
321.637587 0.7890 0.7890 0.7890 0.7910 0.7910
326.510891 0.7910 0.7920 0.7920 0.7930 0.7950
331.384194 0.7950 0.7930 0.7930 0.7890 0.7880
336.257498 0.7870 0.7860 0.7840 0.7840 0.7860
341.130801 0.7860 0.7870 0.7890 0.7890 0.7880
346.004105 0.7820 0.7780 0.7740 0.7710 0.7660
350.877408 0.7640 0.7640 0.7650 0.7690 0.7730
355.750712 0.7750 0.7780 0.7790 0.7790 0.7800
360.624015 0.7820 0.7840 0.7870 0.7910 0.7920
365.497319 0.7930 0.7930 0.7970 0.7980 0.8000
370.370622 0.8020 0.8050 0.8060 0.8060 0.8060
375.243926 0.8070 0.8070 0.8090 0.8090 0.8100
380.117229 0.8100 0.8100 0.8090 0.8090 0.8040
384.990532 0.8010 0.7980 0.7970 0.7960 0.7960
389.863836 0.7970 0.8000 0.8020 0.8040 0.8020
394.737139 0.8010 0.8000 0.7980 0.7930 0.7860
399.610443 0.7820 0.7800 0.7790 0.7790 0.7790
404.483746 0.7800 0.7820 0.7830 0.7840 0.7880
409.357050 0.7890 0.7890 0.7890 0.7880 0.7880
414.230353 0.7870 0.7820 0.7790 0.7740 0.7550
419.103657 0.7161 0.6981 0.6771 0.6551 0.6341
423.976960 0.6310 0.6410 0.6410 0.6180 0.5970
428.850264 0.5771 0.5551 0.5550 0.5849 0.6139
433.723567 0.6440 0.6660 0.6900 0.6990 0.6990
438.596871 0.6900 0.6920 0.7020 0.7100 0.7249
443.470174 0.7380 0.7480 0.7520 0.7570 0.7590
448.343478 0.7610 0.7650 0.7700 0.7710 0.7700
453.216781 0.7700 0.7690 0.7680 0.7560 0.7400
458.090085 0.7190 0.6981 0.6671 0.6371 0.6370
462.963388 0.6680 0.6810 0.7080 0.7440 0.7530
467.836692 0.7570 0.7600 0.7650 0.7660 0.7680
472.709995 0.7640 0.7570 0.7510 0.7440 0.7300
477.583299 0.7250 0.7150 0.7030 0.6930 0.6811
482.456602 0.6710 0.6610 0.6450 0.6410 0.6400
487.329906 0.6350 0.6300 0.6001 0.5741 0.5192
492.203209 0.5150 0.5150 0.5500 0.5690 0.5740
497.076513 0.6089 0.6349 0.6679 0.6919 0.6920
501.949816 0.7150 0.7160 0.7150 0.7120 0.7100
506.823120 0.7080 0.7070 0.7070 0.7100 0.7239
511.696423 0.7350 0.7440 0.7530 0.7600 0.7680
516.569727 0.7700 0.7740 0.7800 0.7870 0.7920
521.443030 0.7920 0.7910 0.7890 0.7880 0.7870
526.316334 0.7870 0.7830 0.7780 0.7730 0.7640
531.189637 0.7600 0.7600 0.7620 0.7650 0.7750
536.062941 0.7800 0.7830 0.7870 0.7840 0.7830
540.936244 0.7790 0.7770 0.7750 0.7710 0.7680
545.809548 0.7530 0.7390 0.7280 0.7021 0.6791
550.682851 0.6670 0.6670 0.6770 0.6950 0.7130
555.556155 0.7300 0.7460 0.7610 0.7730 0.7820
560.429458 0.7870 0.7910 0.7910 0.7920 0.7910
565.302761 0.7860 0.7800 0.7740 0.7680 0.7590
570.176065 0.7480 0.7460 0.7480 0.7550 0.7690
575.049368 0.7800 0.7880 0.7910 0.7950 0.7980
579.922672 0.8020 0.8060 0.8090 0.8090 0.8090
584.795975 0.8070 0.8070 0.8090 0.8100 0.8130
589.669279 0.8180 0.8150 0.8130 0.8110 0.8090
594.542582 0.8020 0.7980 0.7960 0.7920 0.7840
599.415886 0.7780 0.7780 0.7910 0.7920 0.7910
604.289189 0.7910 0.7890 0.7880 0.7880 0.7840
609.162493 0.7790 0.7710 0.7620 0.7500 0.7340
614.035796 0.7130 0.6851 0.6611 0.6610 0.6729
618.909100 0.6790 0.6970 0.7120 0.7310 0.7470
623.782403 0.7570 0.7610 0.7640 0.7680 0.7690
628.655707 0.7790 0.7920 0.7960 0.7970 0.7980
633.529010 0.8000 0.8010 0.8020 0.8040 0.8040
638.402314 0.8040 0.8040 0.8020 0.8020 0.8020
643.275617 0.8020 0.8020 0.8010 0.8010 0.8000
648.148921 0.8000 0.7980 0.7970 0.7960 0.7910
653.022224 0.7910 0.7890 0.7800 0.7601 0.7341
657.895528 0.7260 0.6970 0.6970 0.7340 0.7430
662.768831 0.7510 0.7610 0.7480 0.7470 0.7480
667.642135 0.7570 0.7640 0.7730 0.7820 0.7880
672.515438 0.7890 0.7910 0.7910 0.7880 0.7870
677.388742 0.7880 0.7910 0.7960 0.7980 0.8000
682.262045 0.8000 0.8000 0.8000 0.8000 0.8000
687.135349 0.8000 0.7980 0.7890 0.7820 0.7770
692.008652 0.7740 0.7730 0.7710 0.7700 0.7710
696.881956 0.7750 0.7710 0.7700 0.7620 0.7530
701.755259 0.7420 0.7290 0.7190 0.7100 0.7030
706.628563 0.6970 0.6890 0.6790 0.6700 0.6700
711.501866 0.6730 0.6840 0.6880 0.6880 0.6751
716.375170 0.6750 0.6790 0.6980 0.7210 0.7330
721.248473 0.7400 0.7400 0.7390 0.7380 0.7380
726.121777 0.7370 0.7340 0.7290 0.7280 0.7300
730.995080 0.7370 0.7430 0.7500 0.7520 0.7510
735.868384 0.7500 0.7440 0.7340 0.7220 0.6980
740.741687 0.6700 0.6450 0.6430 0.5951 0.5940
745.614991 0.5960 0.6100 0.6260 0.6360 0.6430
750.488294 0.6500 0.6590 0.6630 0.6640 0.6670
755.361597 0.6640 0.6540 0.6320 0.5950 0.5601
760.234901 0.5301 0.5001 0.5000 0.5110 0.5210
765.108204 0.5300 0.5510 0.5830 0.5900 0.5900
769.981508 0.5860 0.5820 0.5790 0.5810 0.5860
774.854811 0.5950 0.6210 0.6550 0.6840 0.7150
779.728115 0.7390 0.7510 0.7650 0.7680 0.7730
784.601418 0.7790 0.7830 0.7880 0.7910 0.7950
789.474722 0.8000 0.8010 0.8020 0.8040 0.8050
794.348025 0.8060 0.8070 0.8070 0.8070 0.8070
799.221329 0.8070 0.8060 0.8050 0.8020 0.8010
804.094632 0.7980 0.7930 0.7870 0.7840 0.7820
808.967936 0.7750 0.7730 0.7680 0.7590 0.7510
813.841239 0.7420 0.7370 0.7310 0.7290 0.7210
818.714543 0.7190 0.7170 0.7190 0.7220 0.7290
823.587846 0.7380 0.7440 0.7520 0.7640 0.7710
828.461150 0.7740 0.7800 0.7820 0.7840 0.7860
833.334453 0.7870 0.7870 0.7870 0.7860 0.7840
838.207757 0.7800 0.7770 0.7710 0.7680 0.7640
843.081060 0.7610 0.7600 0.7570 0.7520 0.7460
847.954364 0.7370 0.7220 0.7040 0.6841 0.6491
852.827667 0.6480 0.6490 0.6610 0.6730 0.6810
857.700971 0.6940 0.6970 0.6970 0.6920 0.6790
862.574274 0.6550 0.6300 0.6050 0.5830 0.5560
867.447578 0.5390 0.5210 0.4981 0.4721 0.4571
872.320881 0.4570 0.5110 0.5250 0.5370 0.5590
877.194185 0.5600 0.5590 0.5381 0.4961 0.3456
882.067488 0.3059 0.2609 0.1750 0.1260 0.1260
886.940792 0.1480 0.1680 0.1929 0.3087 0.4136
891.814095 0.4360 0.4650 0.5030 0.5390 0.5790
896.687399 0.6119 0.6409 0.6699 0.6939 0.7169
901.560702 0.7370 0.7530 0.7650 0.7700 0.7790
906.434006 0.7870 0.7880 0.7890 0.7910 0.7970
911.307309 0.8040 0.8050 0.8090 0.8100 0.8110
916.180613 0.8150 0.8170 0.8180 0.8180 0.8180
921.053916 0.8170 0.8170 0.8150 0.8150 0.8150
925.927220 0.8170 0.8170 0.8180 0.8180 0.8190
930.800523 0.8190 0.8200 0.8200 0.8200 0.8220
935.673826 0.8230 0.8220 0.8200 0.8190 0.8190
940.547130 0.8180 0.8190 0.8190 0.8200 0.8200
945.420433 0.8190 0.8170 0.8150 0.8150 0.8180
950.293737 0.8190 0.8220 0.8230 0.8230 0.8230
955.167040 0.8230 0.8220 0.8220 0.8220 0.8220
960.040344 0.8230 0.8230 0.8240 0.8240 0.8240
964.913647 0.8240 0.8230 0.8230 0.8220 0.8220
969.786951 0.8200 0.8180 0.8170 0.8150 0.8170
974.660254 0.8170 0.8180 0.8190 0.8190 0.8170
979.533558 0.8150 0.8100 0.8070 0.8050 0.8050
984.406861 0.8050 0.8050 0.8060 0.8070 0.8070
989.280165 0.8070 0.8060 0.8050 0.8020 0.8000
994.153468 0.7980 0.7980 0.7980 0.7980 0.7970
999.026772 0.7950 0.7890 0.7870 0.7830 0.7770
1003.900075 0.7650 0.7460 0.7201 0.6761 0.6262
1008.773379 0.5758 0.4139 0.3410 0.2640 0.1861
1013.646682 0.1091 0.0880 0.0850 0.0671 0.0301
1018.519986 0.0302 0.1141 0.1901 0.2680 0.2910
1023.393289 0.3110 0.3360 0.3719 0.4159 0.4659
1028.266593 0.5181 0.5680 0.6090 0.6300 0.6490
1033.139896 0.6490 0.6490 0.6410 0.6250 0.6130
1038.013200 0.6120 0.6120 0.6060 0.5970 0.5860
1042.886503 0.5690 0.5480 0.5231 0.4781 0.4262
1047.759807 0.3888 0.2819 0.2110 0.1520 0.0940
1052.633110 0.0680 0.0680 0.1169 0.1190 0.2616
1057.506414 0.3201 0.4001 0.4620 0.4940 0.4960
1062.379717 0.5320 0.5679 0.6009 0.6389 0.6609
1067.253021 0.6790 0.6940 0.7080 0.7200 0.7290
1072.126324 0.7380 0.7380 0.7340 0.7310 0.7280
1076.999628 0.7210 0.7170 0.7160 0.7160 0.7170
1081.872931 0.7240 0.7240 0.7210 0.7040 0.6183
1086.746235 0.5940 0.5670 0.5390 0.5140 0.5140
1091.619538 0.5410 0.5600 0.5999 0.6568 0.6719
1096.492842 0.6890 0.6900 0.6900 0.6770 0.6610
1101.366145 0.6450 0.6410 0.6250 0.6150 0.6050
1106.239449 0.5960 0.5900 0.5850 0.5700 0.5550
1111.112752 0.5360 0.5110 0.4960 0.4661 0.4311
1115.986055 0.3809 0.3439 0.2890 0.2440 0.2160
1120.859359 0.2160 0.2649 0.3489 0.4248 0.4888
1125.732662 0.5451 0.5900 0.6190 0.6410 0.6630
1130.605966 0.6850 0.6930 0.6980 0.7010 0.7030
1135.479269 0.7110 0.7200 0.7310 0.7370 0.7390
1140.352573 0.7420 0.7440 0.7480 0.7560 0.7570
1145.225876 0.7590 0.7590 0.7570 0.7520 0.7460
1150.099180 0.7370 0.7250 0.7130 0.7010 0.6880
1154.972483 0.6750 0.6530 0.6400 0.6370 0.6390
1159.845787 0.6500 0.6700 0.6790 0.6790 0.6730
1164.719090 0.6540 0.6440 0.6260 0.6220 0.6220
1169.592394 0.6310 0.6450 0.6610 0.6800 0.6920
1174.465697 0.7060 0.7260 0.7430 0.7560 0.7700
1179.339001 0.7790 0.7880 0.7890 0.7890 0.7880
1184.212304 0.7870 0.7870 0.7860 0.7840 0.7840
1189.085608 0.7830 0.7820 0.7800 0.7790 0.7790
1193.958911 0.7790 0.7790 0.7800 0.7830 0.7840
1198.832215 0.7880 0.7890 0.7890 0.7830 0.7820
1203.705518 0.7820 0.7820 0.7820 0.7820 0.7800
1208.578822 0.7780 0.7770 0.7730 0.7710 0.7690
1213.452125 0.7680 0.7650 0.7620 0.7610 0.7600
1218.325429 0.7610 0.7620 0.7650 0.7690 0.7710
1223.198732 0.7740 0.7780 0.7780 0.7750 0.7710
1228.072036 0.7690 0.7680 0.7680 0.7650 0.7600
1232.945339 0.7550 0.7460 0.7350 0.7250 0.7150
1237.818643 0.7060 0.7020 0.6990 0.6980 0.6980
1242.691946 0.6990 0.6990 0.6990 0.6990 0.6980
1247.565250 0.6970 0.6950 0.6900 0.6860 0.6840
1252.438553 0.6730 0.6660 0.6630 0.6640 0.6810
1257.311857 0.6950 0.7060 0.7150 0.7330 0.7460
1262.185160 0.7560 0.7610 0.7680 0.7690 0.7690
1267.058464 0.7690 0.7690 0.7690 0.7710 0.7800
1271.931767 0.7840 0.7870 0.7890 0.7890 0.7920
1276.805071 0.7950 0.7970 0.7960 0.7950 0.7910
1281.678374 0.7890 0.7880 0.7870 0.7820 0.7790
1286.551678 0.7690 0.7610 0.7550 0.7310 0.7041
1291.424981 0.6759 0.6500 0.6340 0.6140 0.5860
1296.298284 0.5610 0.5410 0.5200 0.5110 0.4801
1301.171588 0.4399 0.4000 0.3720 0.3650 0.3310
1306.044891 0.3150 0.3150 0.3180 0.3260 0.3380
1310.918195 0.3501 0.3840 0.3950 0.4160 0.4360
1315.791498 0.4580 0.4850 0.5010 0.5140 0.5389
1320.664802 0.5410 0.5390 0.5390 0.5340 0.5250
1325.538105 0.5210 0.5110 0.4970 0.4870 0.4671
1330.411409 0.4510 0.4350 0.4160 0.4110 0.4020
1335.284712 0.3890 0.3760 0.3690 0.3600 0.3311
1340.158016 0.2979 0.2640 0.2400 0.2420 0.2800
1345.031319 0.3060 0.3559 0.4049 0.4379 0.4569
1349.904623 0.5231 0.5700 0.5720 0.6000 0.6210
1354.777926 0.6450 0.6550 0.6710 0.6810 0.6900
1359.651230 0.6950 0.6980 0.6950 0.6940 0.6920
1364.524533 0.6890 0.6810 0.6770 0.6660 0.6580
1369.397837 0.6540 0.6400 0.6300 0.6210 0.6180
1374.271140 0.6130 0.6050 0.6000 0.5870 0.5820
1379.144444 0.5810 0.5780 0.5760 0.5740 0.5730
1384.017747 0.5720 0.5700 0.5640 0.5470 0.5241
1388.891051 0.5049 0.4709 0.4390 0.4110 0.3850
1393.764354 0.3730 0.3720 0.3730 0.3930 0.4090
1398.637658 0.4380 0.4531 0.5091 0.5590 0.5740
1403.510961 0.5910 0.6090 0.6120 0.6120 0.6120
1408.384265 0.6080 0.6060 0.6030 0.5990 0.5900
1413.257568 0.5830 0.5780 0.5740 0.5690 0.5650
1418.130872 0.5570 0.5510 0.5250 0.4900 0.4530
1423.004175 0.4420 0.4300 0.4080 0.4050 0.4050
1427.877479 0.4230 0.4229 0.3719 0.3059 0.2380
1432.750782 0.1700 0.1120 0.0880 0.0630 0.0371
1437.624086 0.0339 0.0100 0.0101 0.0970 0.1930
1442.497389 0.3069 0.3779 0.4020 0.4419 0.4759
1447.370693 0.5100 0.5109 0.4759 0.4420 0.4130
1452.243996 0.3820 0.3510 0.3510 0.3770 0.4029
1457.117300 0.4261 0.4600 0.4760 0.4890 0.5190
1461.990603 0.5190 0.5020 0.5020 0.5120 0.5280
1466.863907 0.5431 0.5790 0.6100 0.6520 0.6750
1471.737210 0.6940 0.7120 0.7250 0.7370 0.7430
1476.610514 0.7500 0.7510 0.7520 0.7550 0.7570
1481.483817 0.7560 0.7550 0.7520 0.7480 0.7390
1486.357120 0.7300 0.7280 0.7190 0.7160 0.7170
1491.230424 0.7250 0.7380 0.7550 0.7610 0.7680
1496.103727 0.7710 0.7730 0.7740 0.7730 0.7660
1500.977031 0.7600 0.7480 0.7370 0.7260 0.7150
1505.850334 0.7030 0.7020 0.7010 0.7010 0.6990
1510.723638 0.6980 0.6990 0.7070 0.7110 0.7190
1515.596941 0.7260 0.7350 0.7400 0.7430 0.7470
1520.470245 0.7500 0.7530 0.7560 0.7590 0.7590
1525.343548 0.7600 0.7600 0.7600 0.7600 0.7600
1530.216852 0.7590 0.7590 0.7570 0.7570 0.7570
1535.090155 0.7570 0.7570 0.7570 0.7590 0.7620
1539.963459 0.7680 0.7700 0.7750 0.7770 0.7780
1544.836762 0.7770 0.7740 0.7740 0.7730 0.7710
1549.710066 0.7710 0.7700 0.7680 0.7650 0.7620
1554.583369 0.7600 0.7590 0.7530 0.7440 0.7330
1559.456673 0.6790 0.6620 0.6430 0.6230 0.6040
1564.329976 0.6041 0.6340 0.6500 0.6660 0.6810
1569.203280 0.6980 0.7130 0.7330 0.7510 0.7689
1574.076583 0.7700 0.7700 0.7700 0.7690 0.7690
1578.949887 0.7680 0.7660 0.7660 0.7690 0.7740
1583.823190 0.7780 0.7800 0.7880 0.7890 0.7910
1588.696494 0.7950 0.7970 0.8010 0.8050 0.8090
1593.569797 0.8090 0.8090 0.8090 0.8090 0.8090
1598.443101 0.8070 0.8070 0.8060 0.8050 0.8010
1603.316404 0.8010 0.8000 0.8000 0.7980 0.7970
1608.189708 0.7970 0.7970 0.7980 0.7980 0.8000
1613.063011 0.8000 0.8000 0.7970 0.7970 0.7980
1617.936315 0.8010 0.8020 0.8040 0.8070 0.8090
1622.809618 0.8100 0.8110 0.8130 0.8170 0.8190
1627.682922 0.8190 0.8190 0.8190 0.8200 0.8220
1632.556225 0.8220 0.8220 0.8240 0.8240 0.8240
1637.429529 0.8270 0.8280 0.8280 0.8280 0.8310
1642.302832 0.8330 0.8330 0.8350 0.8360 0.8360
1647.176136 0.8360 0.8360 0.8360 0.8360 0.8360
1652.049439 0.8360 0.8370 0.8370 0.8370 0.8370
1656.922743 0.8370 0.8370 0.8380 0.8380 0.8400
1661.796046 0.8410 0.8410 0.8400 0.8380 0.8380
1666.669349 0.8370 0.8370 0.8370 0.8370 0.8360
1671.542653 0.8360 0.8360 0.8370 0.8370 0.8370
1676.415956 0.8380 0.8380 0.8400 0.8400 0.8400
1681.289260 0.8410 0.8410 0.8400 0.8400 0.8380
1686.162563 0.8380 0.8380 0.8380 0.8380 0.8370
1691.035867 0.8380 0.8420 0.8450 0.8450 0.8450
1695.909170 0.8440 0.8440 0.8420 0.8380 0.8380
1700.782474 0.8370 0.8370 0.8370 0.8380 0.8380
1705.655777 0.8380 0.8370 0.8370 0.8370 0.8370
1710.529081 0.8370 0.8370 0.8370 0.8370 0.8360
1715.402384 0.8360 0.8350 0.8350 0.8320 0.8310
1720.275688 0.8260 0.8220 0.8190 0.8180 0.8170
1725.148991 0.8150 0.8140 0.8130 0.8110 0.8100
1730.022295 0.8060 0.8010 0.7920 0.7840 0.7800
1734.895598 0.7790 0.7790 0.7790 0.7800 0.7800
1739.768902 0.7820 0.7830 0.7840 0.7870 0.7880
1744.642205 0.7890 0.7890 0.7880 0.7820 0.7790
1749.515509 0.7750 0.7660 0.7600 0.7520 0.7500
1754.388812 0.7500 0.7520 0.7570 0.7650 0.7750
1759.262116 0.7830 0.7910 0.8000 0.8020 0.8050
1764.135419 0.8060 0.8070 0.8070 0.8070 0.8070
1769.008723 0.8090 0.8090 0.8110 0.8130 0.8150
1773.882026 0.8170 0.8180 0.8190 0.8200 0.8220
1778.755330 0.8220 0.8220 0.8240 0.8280 0.8330
1783.628633 0.8360 0.8370 0.8370 0.8380 0.8380
1788.501937 0.8380 0.8400 0.8440 0.8460 0.8470
1793.375240 0.8490 0.8490 0.8460 0.8460 0.8470
1798.248544 0.8490 0.8500 0.8510 0.8500 0.8510
1803.121847 0.8530 0.8540 0.8540 0.8550 0.8560
1807.995151 0.8560 0.8510 0.8500 0.8500 0.8510
1812.868454 0.8510 0.8510 0.8540 0.8540 0.8560
1817.741758 0.8580 0.8580 0.8580 0.8560 0.8540
1822.615061 0.8540 0.8540 0.8540 0.8540 0.8540
1827.488365 0.8550 0.8560 0.8580 0.8580 0.8580
1832.361668 0.8560 0.8550 0.8550 0.8550 0.8540
1837.234972 0.8540 0.8540 0.8550 0.8530 0.8530
1842.108275 0.8560 0.8580 0.8550 0.8550 0.8540
1846.981578 0.8540 0.8550 0.8550 0.8580 0.8590
1851.854882 0.8590 0.8550 0.8540 0.8530 0.8530
1856.728185 0.8550 0.8550 0.8560 0.8580 0.8590
1861.601489 0.8600 0.8560 0.8560 0.8560 0.8560
1866.474792 0.8560 0.8580 0.8580 0.8590 0.8590
1871.348096 0.8590 0.8590 0.8590 0.8590 0.8590
1876.221399 0.8580 0.8580 0.8550 0.8540 0.8510
1881.094703 0.8500 0.8500 0.8510 0.8510 0.8530
1885.968006 0.8540 0.8550 0.8560 0.8580 0.8580
1890.841310 0.8580 0.8560 0.8540 0.8530 0.8510
1895.714613 0.8510 0.8510 0.8530 0.8530 0.8540
1900.587917 0.8540 0.8550 0.8560 0.8580 0.8560
1905.461220 0.8580 0.8580 0.8590 0.8590 0.8620
1910.334524 0.8620 0.8580 0.8580 0.8580 0.8580
1915.207827 0.8580 0.8590 0.8590 0.8590 0.8590
1920.081131 0.8590 0.8590 0.8580 0.8560 0.8560
1924.954434 0.8590 0.8590 0.8590 0.8590 0.8590
1929.827738 0.8590 0.8600 0.8620 0.8620 0.8630
1934.701041 0.8640 0.8650 0.8650 0.8630 0.8630
1939.574345 0.8630 0.8640 0.8640 0.8620 0.8620
1944.447648 0.8620 0.8600 0.8590 0.8590 0.8590
1949.320952 0.8590 0.8600 0.8600 0.8620 0.8630
1954.194255 0.8640 0.8640 0.8650 0.8650 0.8650
1959.067559 0.8640 0.8640 0.8620 0.8590 0.8560
1963.940862 0.8560 0.8550 0.8560 0.8580 0.8580
1968.814166 0.8590 0.8600 0.8600 0.8620 0.8640
1973.687469 0.8650 0.8640 0.8640 0.8630 0.8630
1978.560773 0.8620 0.8600 0.8590 0.8590 0.8590
1983.434076 0.8590 0.8600 0.8630 0.8630 0.8630
1988.307380 0.8630 0.8620 0.8630 0.8640 0.8670
1993.180683 0.8680 0.8670 0.8640 0.8640 0.8630
1998.053987 0.8630 0.8620 0.8620 0.8620 0.8620
2002.927290 0.8610 0.8600 0.8590 0.8580 0.8570
2007.800594 0.8560 0.8555 0.8550 0.8550 0.8550
2012.673897 0.8555 0.8560 0.8575 0.8590 0.8590
2017.547201 0.8590 0.8590 0.8591 0.8606 0.8620
2022.420504 0.8625 0.8630 0.8635 0.8639 0.8629
2027.293807 0.8620 0.8620 0.8620 0.8620 0.8620
2032.167111 0.8620 0.8620 0.8620 0.8620 0.8620
2037.040414 0.8620 0.8620 0.8620 0.8625 0.8630
2041.913718 0.8635 0.8641 0.8657 0.8671 0.8676
2046.787021 0.8680 0.8680 0.8680 0.8680 0.8678
2051.660325 0.8663 0.8650 0.8650 0.8649 0.8644
2056.533628 0.8640 0.8640 0.8639 0.8634 0.8630
2061.406932 0.8630 0.8630 0.8630 0.8630 0.8630
2066.280235 0.8631 0.8636 0.8639 0.8634 0.8629
2071.153539 0.8624 0.8620 0.8620 0.8620 0.8620
2076.026842 0.8620 0.8620 0.8620 0.8620 0.8621
2080.900146 0.8626 0.8630 0.8630 0.8626 0.8606
2085.773449 0.8590 0.8590 0.8591 0.8596 0.8602
2090.646753 0.8612 0.8620 0.8620 0.8621 0.8626
2095.520056 0.8631 0.8636 0.8640 0.8640 0.8640
2100.393360 0.8640 0.8639 0.8634 0.8631 0.8636
2105.266663 0.8639 0.8634 0.8630 0.8630 0.8630
2110.139967 0.8630 0.8629 0.8624 0.8620 0.8620
2115.013270 0.8620 0.8620 0.8620 0.8620 0.8620
2119.886574 0.8620 0.8621 0.8626 0.8633 0.8643
2124.759877 0.8653 0.8663 0.8671 0.8676 0.8680
2129.633181 0.8680 0.8680 0.8680 0.8680 0.8680
2134.506484 0.8680 0.8680 0.8680 0.8680 0.8678
2139.379788 0.8673 0.8670 0.8670 0.8667 0.8657
2144.253091 0.8648 0.8643 0.8638 0.8633 0.8625
2149.126395 0.8610 0.8598 0.8593 0.8585 0.8570
2153.999698 0.8560 0.8560 0.8567 0.8587 0.8607
2158.873002 0.8627 0.8649 0.8674 0.8694 0.8704
2163.746305 0.8710 0.8710 0.8704 0.8689 0.8678
2168.619609 0.8673 0.8670 0.8670 0.8672 0.8677
2173.492912 0.8680 0.8680 0.8682 0.8687 0.8690
2178.366216 0.8690 0.8690 0.8690 0.8690 0.8690
2183.239519 0.8688 0.8683 0.8680 0.8680 0.8680
2188.112823 0.8680 0.8678 0.8673 0.8670 0.8670
2192.986126 0.8666 0.8655 0.8650 0.8650 0.8650
2197.859430 0.8650 0.8650 0.8650 0.8650 0.8650
2202.732733 0.8650 0.8650 0.8655 0.8665 0.8670
2207.606037 0.8670 0.8670 0.8670 0.8670 0.8670
2212.479340 0.8672 0.8677 0.8672 0.8657 0.8650
2217.352643 0.8650 0.8655 0.8665 0.8670 0.8670
2222.225947 0.8670 0.8670 0.8670 0.8670 0.8673
2227.099250 0.8678 0.8683 0.8688 0.8690 0.8690
2231.972554 0.8690 0.8690 0.8685 0.8674 0.8670
2236.845857 0.8670 0.8670 0.8670 0.8673 0.8678
2241.719161 0.8683 0.8688 0.8696 0.8706 0.8710
2246.592464 0.8710 0.8710 0.8710 0.8710 0.8710
2251.465768 0.8701 0.8686 0.8680 0.8680 0.8680
2256.339071 0.8680 0.8689 0.8704 0.8710 0.8710
2261.212375 0.8701 0.8686 0.8680 0.8680 0.8677
2266.085678 0.8672 0.8673 0.8678 0.8680 0.8680
2270.958982 0.8683 0.8688 0.8700 0.8715 0.8723
2275.832285 0.8728 0.8730 0.8730 0.8736 0.8746
2280.705589 0.8743 0.8733 0.8717 0.8697 0.8683
2285.578892 0.8673 0.8670 0.8670 0.8670 0.8670
2290.452196 0.8673 0.8678 0.8680 0.8680 0.8683
2295.325499 0.8688 0.8690 0.8690 0.8690 0.8690
2300.198803 0.8697 0.8707 0.8710 0.8710 0.8699
2305.072106 0.8684 0.8680 0.8680 0.8684 0.8689
2309.945410 0.8690 0.8690 0.8690 0.8690 0.8690
2314.818713 0.8690 0.8686 0.8681 0.8680 0.8680
2319.692017 0.8680 0.8680 0.8680 0.8680 0.8684
2324.565320 0.8689 0.8686 0.8681 0.8680 0.8680
2329.438624 0.8676 0.8671 0.8670 0.8670 0.8674
2334.311927 0.8679 0.8680 0.8680 0.8676 0.8671
2339.185231 0.8662 0.8652 0.8642 0.8632 0.8626
2344.058534 0.8621 0.8624 0.8629 0.8634 0.8639
2348.931838 0.8640 0.8640 0.8644 0.8649 0.8650
2353.805141 0.8650 0.8650 0.8650 0.8642 0.8632
2358.678445 0.8618 0.8602 0.8592 0.8582 0.8567
2363.551748 0.8552 0.8546 0.8541 0.8540 0.8540
2368.425052 0.8544 0.8549 0.8550 0.8550 0.8563
2373.298355 0.8578 0.8589 0.8599 0.8613 0.8628
2378.171659 0.8634 0.8639 0.8658 0.8678 0.8684
2383.044962 0.8689 0.8699 0.8709 0.8710 0.8710
2387.918266 0.8710 0.8710 0.8710 0.8710 0.8715
2392.791569 0.8720 0.8715 0.8710 0.8710 0.8710
2397.664872 0.8701 0.8691 0.8690 0.8690 0.8699
2402.538176 0.8709 0.8715 0.8720 0.8720 0.8720
2407.411479 0.8720 0.8720 0.8725 0.8730 0.8730
2412.284783 0.8730 0.8730 0.8730 0.8730 0.8730
2417.158086 0.8730 0.8730 0.8730 0.8730 0.8711
2422.031390 0.8690 0.8700 0.8710 0.8710 0.8710
2426.904693 0.8720 0.8730 0.8740 0.8750 0.8755
2431.777997 0.8760 0.8760 0.8760 0.8765 0.8770
2436.651300 0.8770 0.8770 0.8770 0.8770 0.8770
2441.524604 0.8770 0.8765 0.8760 0.8760 0.8760
2446.397907 0.8755 0.8750 0.8740 0.8730 0.8730
2451.271211 0.8730 0.8730 0.8730 0.8725 0.8720
2456.144514 0.8720 0.8720 0.8725 0.8730 0.8730
2461.017818 0.8731 0.8741 0.8750 0.8755 0.8760
2465.891121 0.8760 0.8760 0.8765 0.8770 0.8765
2470.764425 0.8760 0.8755 0.8749 0.8739 0.8729
2475.637728 0.8724 0.8718 0.8703 0.8689 0.8684
2480.511032 0.8679 0.8674 0.8670 0.8670 0.8670
2485.384335 0.8670 0.8670 0.8670 0.8670 0.8670
2490.257639 0.8670 0.8670 0.8670 0.8670 0.8670
2495.130942 0.8670 0.8670 0.8670 0.8670 0.8670
2500.004246 0.8670 0.8670 0.8670 0.8670 0.8671
2504.877549 0.8676 0.8681 0.8686 0.8692 0.8702
2509.750853 0.8711 0.8716 0.8720 0.8720 0.8720
2514.624156 0.8720 0.8720 0.8720 0.8720 0.8720
2519.497460 0.8721 0.8726 0.8730 0.8730 0.8732
2524.370763 0.8742 0.8751 0.8756 0.8760 0.8760
2529.244067 0.8759 0.8754 0.8750 0.8750 0.8750
2534.117370 0.8750 0.8750 0.8750 0.8748 0.8738
2538.990674 0.8730 0.8730 0.8728 0.8717 0.8707
2543.863977 0.8697 0.8689 0.8684 0.8680 0.8680
2548.737281 0.8680 0.8680 0.8681 0.8686 0.8690
2553.610584 0.8690 0.8693 0.8703 0.8710 0.8710
2558.483888 0.8710 0.8710 0.8711 0.8716 0.8722
2563.357191 0.8727 0.8733 0.8743 0.8750 0.8750
2568.230495 0.8750 0.8750 0.8747 0.8737 0.8728
2573.103798 0.8723 0.8718 0.8713 0.8707 0.8697
2577.977101 0.8690 0.8690 0.8690 0.8690 0.8688
2582.850405 0.8683 0.8680 0.8680 0.8680 0.8680
2587.723708 0.8680 0.8680 0.8678 0.8673 0.8670
2592.597012 0.8670 0.8672 0.8677 0.8680 0.8680
2597.470315 0.8680 0.8680 0.8680 0.8680 0.8682
2602.343619 0.8687 0.8694 0.8704 0.8712 0.8717
2607.216922 0.8720 0.8720 0.8720 0.8720 0.8722
2612.090226 0.8727 0.8730 0.8730 0.8728 0.8723
2616.963529 0.8720 0.8720 0.8720 0.8720 0.8722
2621.836833 0.8727 0.8730 0.8730 0.8728 0.8723
2626.710136 0.8720 0.8720 0.8720 0.8720 0.8720
2631.583440 0.8720 0.8722 0.8727 0.8735 0.8745
2636.456743 0.8752 0.8757 0.8762 0.8767 0.8777
2641.330047 0.8792 0.8800 0.8800 0.8795 0.8785
2646.203350 0.8780 0.8780 0.8780 0.8780 0.8780
2651.076654 0.8780 0.8780 0.8780 0.8780 0.8780
2655.949957 0.8780 0.8780 0.8780 0.8780 0.8777
2660.823261 0.8772 0.8767 0.8762 0.8749 0.8729
2665.696564 0.8717 0.8712 0.8710 0.8710 0.8710
2670.569868 0.8710 0.8710 0.8710 0.8710 0.8710
2675.443171 0.8704 0.8694 0.8684 0.8674 0.8650
2680.316475 0.8614 0.8594 0.8584 0.8580 0.8580
2685.189778 0.8586 0.8596 0.8606 0.8616 0.8623
2690.063082 0.8628 0.8648 0.8678 0.8696 0.8706
2694.936385 0.8716 0.8726 0.8736 0.8746 0.8750
2699.809689 0.8750 0.8737 0.8717 0.8710 0.8710
2704.682992 0.8713 0.8718 0.8720 0.8720 0.8720
2709.556296 0.8720 0.8717 0.8712 0.8710 0.8710
2714.429599 0.8710 0.8710 0.8713 0.8718 0.8723
2719.302903 0.8728 0.8740 0.8755 0.8763 0.8768
2724.176206 0.8770 0.8770 0.8773 0.8778 0.8780
2729.049510 0.8780 0.8780 0.8780 0.8777 0.8771
2733.922813 0.8770 0.8770 0.8766 0.8761 0.8760
2738.796117 0.8760 0.8756 0.8751 0.8743 0.8733
2743.669420 0.8726 0.8721 0.8720 0.8720 0.8720
2748.542724 0.8720 0.8720 0.8720 0.8716 0.8711
2753.416027 0.8710 0.8710 0.8710 0.8710 0.8710
2758.289330 0.8710 0.8710 0.8710 0.8698 0.8683
2763.162634 0.8668 0.8653 0.8650 0.8650 0.8642
2768.035937 0.8632 0.8634 0.8639 0.8652 0.8667
2772.909241 0.8674 0.8679 0.8684 0.8689 0.8702
2777.782544 0.8717 0.8732 0.8747 0.8762 0.8777
2782.655848 0.8788 0.8798 0.8800 0.8800 0.8804
2787.529151 0.8809 0.8810 0.8810 0.8797 0.8782
2792.402455 0.8767 0.8752 0.8725 0.8695 0.8686
2797.275758 0.8681 0.8684 0.8689 0.8690 0.8690
2802.149062 0.8707 0.8727 0.8739 0.8749 0.8750
2807.022365 0.8750 0.8741 0.8731 0.8730 0.8730
2811.895669 0.8730 0.8730 0.8730 0.8730 0.8730
2816.768972 0.8730 0.8739 0.8749 0.8755 0.8760
2821.642276 0.8742 0.8722 0.8734 0.8749 0.8750
2826.515579 0.8750 0.8750 0.8750 0.8750 0.8750
2831.388883 0.8741 0.8731 0.8721 0.8711 0.8701
2836.262186 0.8690 0.8690 0.8690 0.8690 0.8690
2841.135490 0.8690 0.8690 0.8700 0.8710 0.8710
2846.008793 0.8710 0.8710 0.8710 0.8710 0.8710
2850.882097 0.8700 0.8690 0.8690 0.8690 0.8680
2855.755400 0.8670 0.8655 0.8640 0.8640 0.8640
2860.628704 0.8645 0.8650 0.8680 0.8710 0.8720
2865.502007 0.8730 0.8740 0.8750 0.8750 0.8750
2870.375311 0.8750 0.8750 0.8740 0.8730 0.8725
2875.248614 0.8719 0.8704 0.8690 0.8685 0.8680
2880.121918 0.8685 0.8691 0.8706 0.8720 0.8725
2884.995221 0.8730 0.8730 0.8730 0.8725 0.8719
2889.868525 0.8699 0.8680 0.8675 0.8669 0.8659
2894.741828 0.8651 0.8661 0.8670 0.8675 0.8680
2899.615132 0.8680 0.8680 0.8686 0.8690 0.8690
2904.488435 0.8690 0.8690 0.8689 0.8684 0.8678
2909.361739 0.8663 0.8649 0.8644 0.8639 0.8634
2914.235042 0.8629 0.8624 0.8620 0.8620 0.8619
2919.108346 0.8609 0.8599 0.8589 0.8579 0.8569
2923.981649 0.8559 0.8554 0.8551 0.8556 0.8562
2928.854953 0.8577 0.8590 0.8590 0.8591 0.8596
2933.728256 0.8602 0.8612 0.8620 0.8620 0.8620
2938.601560 0.8620 0.8617 0.8602 0.8590 0.8590
2943.474863 0.8590 0.8590 0.8590 0.8590 0.8590
2948.348166 0.8590 0.8591 0.8596 0.8603 0.8618
2953.221470 0.8632 0.8642 0.8650 0.8650 0.8649
2958.094773 0.8644 0.8641 0.8646 0.8654 0.8669
2962.968077 0.8680 0.8680 0.8680 0.8680 0.8676
2967.841380 0.8661 0.8650 0.8650 0.8649 0.8644
2972.714684 0.8640 0.8640 0.8639 0.8634 0.8630
2977.587987 0.8630 0.8629 0.8624 0.8616 0.8601
2982.461291 0.8589 0.8584 0.8580 0.8580 0.8580
2987.334594 0.8580 0.8577 0.8567 0.8560 0.8560
2992.207898 0.8563 0.8573 0.8580 0.8580 0.8577
2997.081201 0.8567 0.8560 0.8560 0.8560 0.8560
3001.954505 0.8560 0.8560 0.8565 0.8580 0.8590
3006.827808 0.8590 0.8590 0.8590 0.8590 0.8590
3011.701112 0.8590 0.8590 0.8588 0.8583 0.8580
3016.574415 0.8580 0.8576 0.8566 0.8558 0.8553
3021.447719 0.8550 0.8550 0.8550 0.8550 0.8552
3026.321022 0.8557 0.8560 0.8560 0.8566 0.8581
3031.194326 0.8584 0.8569 0.8558 0.8553 0.8550
3036.067629 0.8550 0.8546 0.8536 0.8530 0.8530
3040.940933 0.8526 0.8516 0.8510 0.8510 0.8508
3045.814236 0.8503 0.8498 0.8493 0.8479 0.8454
3050.687540 0.8435 0.8425 0.8418 0.8413 0.8403
3055.560843 0.8388 0.8366 0.8336 0.8297 0.8247
3060.434147 0.8213 0.8198 0.8178 0.8153 0.8138
3065.307450 0.8133 0.8125 0.8115 0.8095 0.8065
3070.180754 0.8040 0.8020 0.7985 0.7935 0.7781
3075.054057 0.7525 0.7341 0.7226 0.7111 0.6996
3079.927361 0.6881 0.6766 0.6650 0.6535 0.6415
3084.800664 0.6290 0.6230 0.6230 0.6291 0.6407
3089.673968 0.6556 0.6731 0.6890 0.7035 0.7153
3094.547271 0.7248 0.7326 0.7391 0.7484 0.7599
3099.420575 0.7700 0.7791 0.7855 0.7900 0.7979
3104.293878 0.8085 0.8173 0.8248 0.8283 0.8288
3109.167182 0.8299 0.8314 0.8338 0.8368 0.8389
3114.040485 0.8404 0.8413 0.8418 0.8426 0.8436
3118.913789 0.8449 0.8464 0.8479 0.8494 0.8503
3123.787092 0.8508 0.8516 0.8526 0.8530 0.8530
3128.660395 0.8524 0.8514 0.8510 0.8510 0.8526
3133.533699 0.8551 0.8579 0.8609 0.8636 0.8661
3138.407002 0.8677 0.8687 0.8697 0.8707 0.8713
3143.280306 0.8718 0.8720 0.8720 0.8720 0.8720
3148.153609 0.8717 0.8712 0.8710 0.8710 0.8710
3153.026913 0.8710 0.8710 0.8710 0.8710 0.8710
3157.900216 0.8713 0.8718 0.8730 0.8746 0.8761
3162.773520 0.8776 0.8787 0.8797 0.8800 0.8800
3167.646823 0.8793 0.8783 0.8780 0.8780 0.8776
3172.520127 0.8771 0.8766 0.8761 0.8764 0.8769
3177.393430 0.8774 0.8779 0.8780 0.8780 0.8787
3182.266734 0.8797 0.8815 0.8835 0.8840 0.8840
3187.140037 0.8832 0.8822 0.8820 0.8820 0.8816
3192.013341 0.8811 0.8810 0.8810 0.8810 0.8810
3196.886644 0.8794 0.8774 0.8766 0.8761 0.8776
3201.759948 0.8796 0.8804 0.8809 0.8810 0.8810
3206.633251 0.8810 0.8810 0.8806 0.8801 0.8800
3211.506555 0.8800 0.8792 0.8782 0.8780 0.8780
3216.379858 0.8780 0.8780 0.8793 0.8808 0.8797
3221.253162 0.8782 0.8767 0.8752 0.8741 0.8731
3226.126465 0.8730 0.8730 0.8730 0.8730 0.8739
3230.999769 0.8749 0.8763 0.8778 0.8793 0.8808
3235.873072 0.8814 0.8819 0.8820 0.8820 0.8820
3240.746376 0.8820 0.8829 0.8839 0.8840 0.8840
3245.619679 0.8840 0.8840 0.8831 0.8821 0.8811
3250.492983 0.8801 0.8800 0.8800 0.8800 0.8800
3255.366286 0.8800 0.8800 0.8800 0.8800 0.8805
3260.239590 0.8810 0.8815 0.8820 0.8829 0.8840
3265.112893 0.8830 0.8820 0.8815 0.8810 0.8796
3269.986197 0.8781 0.8770 0.8760 0.8760 0.8760
3274.859500 0.8779 0.8799 0.8805 0.8810 0.8810
3279.732804 0.8810 0.8805 0.8800 0.8775 0.8750
3284.606107 0.8740 0.8730 0.8730 0.8730 0.8740
3289.479411 0.8750 0.8750 0.8750 0.8755 0.8760
3294.352714 0.8765 0.8770 0.8775 0.8780 0.8795
3299.226018 0.8810 0.8810 0.8810 0.8815 0.8820
3304.099321 0.8830 0.8840 0.8840 0.8839 0.8829
3308.972624 0.8820 0.8820 0.8821 0.8831 0.8840
3313.845928 0.8840 0.8839 0.8829 0.8820 0.8820
3318.719231 0.8820 0.8820 0.8820 0.8815 0.8810
3323.592535 0.8810 0.8810 0.8810 0.8810 0.8810
3328.465838 0.8810 0.8804 0.8800 0.8800 0.8799
3333.339142 0.8789 0.8779 0.8774 0.8770 0.8770
3338.212445 0.8769 0.8764 0.8759 0.8754 0.8748
3343.085749 0.8733 0.8719 0.8714 0.8710 0.8710
3347.959052 0.8710 0.8710 0.8711 0.8716 0.8720
3352.832356 0.8720 0.8720 0.8720 0.8720 0.8720
3357.705659 0.8721 0.8726 0.8732 0.8742 0.8750
3362.578963 0.8750 0.8750 0.8750 0.8748 0.8738
3367.452266 0.8730 0.8730 0.8730 0.8730 0.8729
3372.325570 0.8724 0.8720 0.8720 0.8719 0.8714
3377.198873 0.8710 0.8710 0.8708 0.8698 0.8689
3382.072177 0.8684 0.8680 0.8680 0.8680 0.8680
3386.945480 0.8680 0.8680 0.8676 0.8661 0.8644
3391.818784 0.8619 0.8600 0.8600 0.8599 0.8594
3396.692087 0.8590 0.8590 0.8591 0.8596 0.8604
3401.565391 0.8619 0.8631 0.8636 0.8641 0.8646
3406.438694 0.8650 0.8650 0.8650 0.8650 0.8649
3411.311998 0.8644 0.8637 0.8627 0.8617 0.8607
3416.185301 0.8597 0.8587 0.8577 0.8567 0.8560
3421.058605 0.8560 0.8560 0.8560 0.8563 0.8573
3425.931908 0.8580 0.8580 0.8582 0.8587 0.8590
3430.805212 0.8590 0.8590 0.8590 0.8588 0.8583
3435.678515 0.8580 0.8580 0.8577 0.8566 0.8560
3440.551819 0.8560 0.8560 0.8560 0.8560 0.8560
3445.425122 0.8560 0.8560 0.8564 0.8574 0.8580
3450.298426 0.8580 0.8580 0.8580 0.8582 0.8587
3455.171729 0.8590 0.8590 0.8590 0.8590 0.8588
3460.045033 0.8583 0.8576 0.8566 0.8558 0.8553
3464.918336 0.8550 0.8550 0.8550 0.8550 0.8552
3469.791640 0.8557 0.8564 0.8574 0.8580 0.8580
3474.664943 0.8582 0.8587 0.8590 0.8590 0.8588
3479.538247 0.8583 0.8575 0.8565 0.8558 0.8553
3484.411550 0.8550 0.8550 0.8552 0.8557 0.8565
3489.284853 0.8575 0.8582 0.8587 0.8592 0.8597
3494.158157 0.8600 0.8600 0.8600 0.8600 0.8597
3499.031460 0.8592 0.8590 0.8590 0.8590 0.8590
3503.904764 0.8593 0.8598 0.8600 0.8600 0.8600
3508.778067 0.8600 0.8600 0.8600 0.8600 0.8600
3513.651371 0.8605 0.8615 0.8620 0.8620 0.8620
3518.524674 0.8620 0.8623 0.8628 0.8630 0.8630
3523.397978 0.8630 0.8630 0.8633 0.8638 0.8643
3528.271281 0.8648 0.8650 0.8650 0.8650 0.8650
3533.144585 0.8647 0.8642 0.8637 0.8632 0.8618
3538.017888 0.8598 0.8590 0.8590 0.8593 0.8598
3542.891192 0.8615 0.8640 0.8656 0.8666 0.8673
3547.764495 0.8678 0.8683 0.8688 0.8696 0.8706
3552.637799 0.8713 0.8718 0.8720 0.8720 0.8717
3557.511102 0.8712 0.8704 0.8694 0.8687 0.8682
3562.384406 0.8680 0.8680 0.8680 0.8680 0.8680
3567.257709 0.8680 0.8683 0.8688 0.8697 0.8707
3572.131013 0.8713 0.8718 0.8723 0.8728 0.8730
3577.004316 0.8730 0.8730 0.8730 0.8737 0.8747
3581.877620 0.8750 0.8750 0.8750 0.8750 0.8750
3586.750923 0.8750 0.8743 0.8733 0.8730 0.8730
3591.624227 0.8730 0.8730 0.8730 0.8730 0.8741
3596.497530 0.8756 0.8767 0.8777 0.8787 0.8797
3601.370834 0.8800 0.8800 0.8793 0.8783 0.8780
3606.244137 0.8780 0.8780 0.8780 0.8787 0.8797
3611.117441 0.8804 0.8809 0.8810 0.8810 0.8814
3615.990744 0.8819 0.8828 0.8838 0.8844 0.8849
3620.864048 0.8854 0.8859 0.8872 0.8887 0.8890
3625.737351 0.8890 0.8882 0.8872 0.8858 0.8843
3630.610655 0.8828 0.8813 0.8810 0.8810 0.8822
3635.483958 0.8837 0.8852 0.8867 0.8870 0.8870
3640.357262 0.8878 0.8888 0.8890 0.8890 0.8873
3645.230565 0.8853 0.8850 0.8850 0.8846 0.8841
3650.103869 0.8840 0.8840 0.8844 0.8849 0.8854
3654.977172 0.8859 0.8860 0.8860 0.8864 0.8869
3659.850476 0.8879 0.8889 0.8894 0.8899 0.8904
3664.723779 0.8909 0.8919 0.8929 0.8930 0.8930
3669.597083 0.8921 0.8911 0.8910 0.8910 0.8905
3674.470386 0.8900 0.8900 0.8900 0.8900 0.8900
3679.343689 0.8900 0.8900 0.8905 0.8910 0.8919
3684.216993 0.8929 0.8930 0.8930 0.8935 0.8940
3689.090296 0.8940 0.8940 0.8935 0.8930 0.8920
3693.963600 0.8910 0.8905 0.8900 0.8895 0.8890
3698.836903 0.8880 0.8870 0.8870 0.8870 0.8870
3703.710207 0.8870 0.8870 0.8870 0.8870 0.8870
3708.583510 0.8880 0.8890 0.8890 0.8890 0.8890
3713.456814 0.8890 0.8890 0.8890 0.8890 0.8890
3718.330117 0.8895 0.8900 0.8900 0.8900 0.8895
3723.203421 0.8890 0.8890 0.8890 0.8890 0.8890
3728.076724 0.8880 0.8870 0.8870 0.8870 0.8870
3732.950028 0.8870 0.8870 0.8870 0.8870 0.8870
3737.823331 0.8870 0.8870 0.8865 0.8860 0.8855
3742.696635 0.8850 0.8850 0.8850 0.8850 0.8850
3747.569938 0.8855 0.8860 0.8860 0.8860 0.8860
3752.443242 0.8860 0.8860 0.8860 0.8865 0.8870
3757.316545 0.8870 0.8870 0.8870 0.8870 0.8870
3762.189849 0.8870 0.8870 0.8870 0.8870 0.8870
3767.063152 0.8870 0.8870 0.8870 0.8870 0.8870
3771.936456 0.8871 0.8881 0.8890 0.8890 0.8891
3776.809759 0.8896 0.8900 0.8900 0.8900 0.8900
3781.683063 0.8899 0.8894 0.8890 0.8890 0.8890
3786.556366 0.8890 0.8888 0.8878 0.8870 0.8870
3791.429670 0.8870 0.8870 0.8870 0.8870 0.8872
3796.302973 0.8882 0.8891 0.8896 0.8900 0.8900
3801.176277 0.8901 0.8906 0.8912 0.8922 0.8930
3806.049580 0.8930 0.8928 0.8918 0.8910 0.8910
3810.922884 0.8909 0.8904 0.8899 0.8894 0.8888
3815.796187 0.8878 0.8870 0.8870 0.8870 0.8870
3820.669491 0.8872 0.8882 0.8892 0.8902 0.8910
3825.542794 0.8910 0.8913 0.8923 0.8930 0.8930
3830.416098 0.8930 0.8930 0.8930 0.8930 0.8930
3835.289401 0.8930 0.8930 0.8930 0.8927 0.8917
3840.162705 0.8910 0.8910 0.8910 0.8910 0.8909
3845.036008 0.8904 0.8900 0.8900 0.8900 0.8900
3849.909312 0.8900 0.8900 0.8898 0.8893 0.8890
3854.782615 0.8890 0.8890 0.8890 0.8890 0.8890
3859.655918 0.8890 0.8890 0.8890 0.8890 0.8890
3864.529222 0.8890 0.8890 0.8890 0.8890 0.8890
3869.402525 0.8890 0.8890 0.8890 0.8890 0.8892
3874.275829 0.8897 0.8900 0.8900 0.8902 0.8907
3879.149132 0.8910 0.8910 0.8910 0.8910 0.8910
3884.022436 0.8910 0.8914 0.8924 0.8930 0.8930
3888.895739 0.8930 0.8930 0.8930 0.8930 0.8930
3893.769043 0.8930 0.8930 0.8930 0.8926 0.8916
3898.642346 0.8910 0.8910 0.8908 0.8903 0.8900
3903.515650 0.8900 0.8898 0.8893 0.8890 0.8890
3908.388953 0.8890 0.8890 0.8890 0.8890 0.8890
3913.262257 0.8890 0.8890 0.8890 0.8885 0.8875
3918.135560 0.8870 0.8870 0.8870 0.8870 0.8870
3923.008864 0.8870 0.8870 0.8870 0.8870 0.8870
3927.882167 0.8870 0.8870 0.8867 0.8862 0.8860
3932.755471 0.8860 0.8860 0.8860 0.8860 0.8860
3937.628774 0.8860 0.8860 0.8860 0.8860 0.8860
3942.502078 0.8860 0.8863 0.8868 0.8875 0.8885
3947.375381 0.8890 0.8890 0.8890 0.8890 0.8890
3952.248685 0.8890 0.8890 0.8890 0.8890 0.8890
3957.121988 0.8884 0.8874 0.8870 0.8870 0.8870
3961.995292 0.8870 0.8870 0.8870 0.8870 0.8870
3966.868595 0.8870 0.8870 0.8870 0.8870 0.8870
3971.741899 0.8870 0.8876 0.8886 0.8890 0.8890
3976.615202 0.8893 0.8898 0.8903 0.8908 0.8910
3981.488506 0.8910 0.8910 0.8910 0.8910 0.8910
3986.361809 0.8910 0.8910 0.8910 0.8910 0.8916
3991.235113 0.8926 0.8930 0.8930 0.8930 0.8930
3996.108416 0.8930 0.8930
##END=
