##TITLE=2-PROPANOL, 2-METHYL-D
##JCAMP-DX=4.24
##DATA TYPE=INFRARED SPECTRUM
##CLASS=COBLENTZ III
##ORIGIN=DOW CHEMICAL COMPANY
##OWNER=COBLENTZ SOCIETY
Collection (C) 2018 copyright by the U.S. Secretary of Commerce
on behalf of the United States of America. All rights reserved.
##DATE=1966/02/24
##NAMES=2-methyl-2-propanol
##MOLFORM=C4 H9 D O
##SOURCE REFERENCE=COBLENTZ NO. 10146
##$NIST ID=B6010146
##$NIST SOURCE=COBLENTZ
##$NIST IMAGE=cob10146
##SPECTROMETER/DATA SYSTEM=DOW KBr FOREPRISM-GRATING
##INSTRUMENT PARAMETERS=BLAZED AT 3.5, 12.0, 20.0 MICRON, CHANGED AT 5.0, 7.5, 14.9 MICRON
##STATE=SOLUTION (2% IN CCl4 FOR 3800-1333, 2% IN CS2 FOR 1333-400 CM^-^1) VS. SOLVENT
##PATH LENGTH=0.011, 0.011 CM
##SAMPLING PROCEDURE=TRANSMISSION
##RESOLUTION=4
##DATA PROCESSING=DIGITIZED BY NIST FROM HARD COPY (FROM TWO SEGMENTS)
##XUNITS=1/CM
##YUNITS=TRANSMITTANCE
##XFACTOR=1.000000
##YFACTOR=1
##DELTAX=0.870577
##FIRSTX=399.013
##LASTX=3796.88
##FIRSTY=0.911
##MAXX=3796.88
##MINX=399.013
##MAXY=1
##MINY=0.212319
##NPOINTS=3904
##XYDATA=(X++(Y..Y))
399.013000 0.9110 0.9110 0.9110 0.9110 0.9110
403.365886 0.9110 0.9110 0.9100 0.9100 0.9100
407.718772 0.9100 0.9100 0.9110 0.9110 0.9110
412.071658 0.9110 0.9110 0.9110 0.9110 0.9110
416.424544 0.9110 0.9110 0.9110 0.9110 0.9110
420.777430 0.9110 0.9110 0.9110 0.9110 0.9110
425.130315 0.9110 0.9110 0.9110 0.9100 0.9100
429.483201 0.9080 0.9070 0.9040 0.9030 0.9020
433.836087 0.9000 0.8990 0.8970 0.8960 0.8950
438.188973 0.8930 0.8920 0.8910 0.8890 0.8810
442.541859 0.8780 0.8760 0.8720 0.8700 0.8660
446.894745 0.8630 0.8620 0.8590 0.8580 0.8570
451.247631 0.8550 0.8540 0.8540 0.8530 0.8530
455.600517 0.8530 0.8530 0.8530 0.8540 0.8540
459.953403 0.8540 0.8550 0.8570 0.8580 0.8590
464.306289 0.8610 0.8620 0.8630 0.8660 0.8700
468.659174 0.8700 0.8730 0.8740 0.8770 0.8770
473.012060 0.8800 0.8810 0.8820 0.8850 0.8880
477.364946 0.8910 0.8910 0.8920 0.8930 0.8930
481.717832 0.8930 0.8930 0.8950 0.8950 0.8950
486.070718 0.8950 0.8970 0.8970 0.8970 0.8970
490.423604 0.8990 0.8990 0.8990 0.8990 0.9000
494.776490 0.9000 0.9020 0.9020 0.9020 0.9020
499.129376 0.9030 0.9040 0.9030 0.9030 0.9040
503.482262 0.9040 0.9040 0.9040 0.9040 0.9060
507.835148 0.9060 0.9060 0.9070 0.9080 0.9080
512.188033 0.9080 0.9080 0.9100 0.9100 0.9100
516.540919 0.9100 0.9100 0.9110 0.9110 0.9110
520.893805 0.9110 0.9120 0.9120 0.9120 0.9120
525.246691 0.9140 0.9140 0.9140 0.9150 0.9150
529.599577 0.9150 0.9170 0.9180 0.9180 0.9180
533.952463 0.9190 0.9210 0.9210 0.9220 0.9220
538.305349 0.9230 0.9230 0.9250 0.9250 0.9260
542.658235 0.9260 0.9270 0.9290 0.9290 0.9300
547.011121 0.9300 0.9300 0.9310 0.9310 0.9310
551.364007 0.9330 0.9330 0.9330 0.9340 0.9330
555.716892 0.9340 0.9340 0.9360 0.9360 0.9360
560.069778 0.9370 0.9370 0.9370 0.9380 0.9380
564.422664 0.9400 0.9400 0.9410 0.9410 0.9420
568.775550 0.9420 0.9440 0.9440 0.9440 0.9440
573.128436 0.9440 0.9440 0.9450 0.9450 0.9450
577.481322 0.9450 0.9450 0.9450 0.9450 0.9450
581.834208 0.9460 0.9460 0.9460 0.9460 0.9480
586.187094 0.9480 0.9490 0.9510 0.9510 0.9520
590.539980 0.9520 0.9530 0.9550 0.9550 0.9550
594.892866 0.9560 0.9560 0.9560 0.9560 0.9570
599.245751 0.9570 0.9570 0.9570 0.9570 0.9570
603.598637 0.9570 0.9570 0.9570 0.9570 0.9570
607.951523 0.9590 0.9590 0.9600 0.9600 0.9600
612.304409 0.9600 0.9600 0.9600 0.9600 0.9600
616.657295 0.9610 0.9610 0.9610 0.9630 0.9630
621.010181 0.9640 0.9650 0.9650 0.9670 0.9670
625.363067 0.9670 0.9680 0.9680 0.9680 0.9680
629.715953 0.9700 0.9710 0.9710 0.9710 0.9710
634.068839 0.9710 0.9710 0.9700 0.9700 0.9700
638.421725 0.9700 0.9700 0.9700 0.9700 0.9700
642.774610 0.9700 0.9700 0.9700 0.9700 0.9700
647.127496 0.9700 0.9700 0.9700 0.9700 0.9700
651.480382 0.9710 0.9710 0.9710 0.9710 0.9720
655.833268 0.9740 0.9750 0.9750 0.9750 0.9740
660.186154 0.9740 0.9740 0.9740 0.9740 0.9750
664.539040 0.9750 0.9750 0.9750 0.9750 0.9760
668.891926 0.9760 0.9750 0.9750 0.9750 0.9750
673.244812 0.9760 0.9760 0.9780 0.9790 0.9790
677.597698 0.9800 0.9800 0.9800 0.9790 0.9790
681.950584 0.9790 0.9790 0.9790 0.9790 0.9790
686.303469 0.9790 0.9790 0.9790 0.9790 0.9790
690.656355 0.9790 0.9790 0.9790 0.9790 0.9790
695.009241 0.9790 0.9790 0.9790 0.9790 0.9790
699.362127 0.9790 0.9780 0.9780 0.9780 0.9780
703.715013 0.9780 0.9780 0.9780 0.9760 0.9760
708.067899 0.9760 0.9750 0.9750 0.9760 0.9760
712.420785 0.9760 0.9760 0.9760 0.9760 0.9760
716.773671 0.9760 0.9760 0.9760 0.9760 0.9750
721.126557 0.9750 0.9750 0.9740 0.9740 0.9740
725.479443 0.9740 0.9740 0.9750 0.9750 0.9740
729.832328 0.9700 0.9670 0.9650 0.9650 0.9640
734.185214 0.9640 0.9630 0.9610 0.9600 0.9570
738.538100 0.9570 0.9550 0.9520 0.9460 0.9360
742.890986 0.9290 0.9140 0.9030 0.8880 0.8691
747.243872 0.8440 0.8440 0.8700 0.8990 0.9260
751.596758 0.9510 0.9530 0.9550 0.9570 0.9590
755.949644 0.9600 0.9610 0.9610 0.9610 0.9630
760.302530 0.9630 0.9640 0.9640 0.9640 0.9650
764.655416 0.9650 0.9650 0.9650 0.9650 0.9650
769.008302 0.9650 0.9650 0.9650 0.9650 0.9650
773.361187 0.9650 0.9650 0.9650 0.9650 0.9650
777.714073 0.9650 0.9650 0.9650 0.9650 0.9650
782.066959 0.9640 0.9630 0.9610 0.9610 0.9610
786.419845 0.9610 0.9610 0.9610 0.9610 0.9600
790.772731 0.9600 0.9600 0.9600 0.9600 0.9600
795.125617 0.9600 0.9610 0.9610 0.9610 0.9610
799.478503 0.9610 0.9610 0.9610 0.9610 0.9610
803.831389 0.9600 0.9570 0.9560 0.9560 0.9560
808.184275 0.9560 0.9560 0.9560 0.9550 0.9550
812.537161 0.9530 0.9530 0.9530 0.9510 0.9490
816.890046 0.9490 0.9480 0.9480 0.9480 0.9480
821.242932 0.9480 0.9480 0.9480 0.9480 0.9480
825.595818 0.9480 0.9480 0.9460 0.9460 0.9450
829.948704 0.9450 0.9460 0.9460 0.9460 0.9460
834.301590 0.9450 0.9440 0.9400 0.9380 0.9380
838.654476 0.9370 0.9370 0.9340 0.9340 0.9340
843.007362 0.9330 0.9330 0.9310 0.9270 0.9270
847.360248 0.9270 0.9260 0.9250 0.9220 0.9210
851.713134 0.9210 0.9190 0.9170 0.9140 0.9140
856.066020 0.9110 0.9100 0.9040 0.9030 0.9000
860.418905 0.8970 0.8950 0.8920 0.8910 0.8890
864.771791 0.8880 0.8810 0.8770 0.8740 0.8690
869.124677 0.8630 0.8530 0.8400 0.8350 0.8230
873.477563 0.8100 0.7930 0.7681 0.7421 0.7291
877.830449 0.7250 0.7250 0.7290 0.7420 0.7630
882.183335 0.7790 0.7950 0.8120 0.8190 0.8240
886.536221 0.8290 0.8310 0.8320 0.8310 0.8310
890.889107 0.8290 0.8290 0.8270 0.8240 0.8190
895.241993 0.8130 0.8020 0.7950 0.7820 0.7710
899.594879 0.7410 0.7171 0.7060 0.6841 0.6681
903.947764 0.6420 0.6090 0.5830 0.5490 0.5250
908.300650 0.4821 0.4461 0.4001 0.3591 0.3002
912.653536 0.2890 0.2760 0.2760 0.2930 0.3180
917.006422 0.3460 0.3750 0.4099 0.4459 0.4809
921.359308 0.5180 0.5460 0.5760 0.6120 0.6340
925.712194 0.6620 0.6730 0.6770 0.6800 0.6820
930.065080 0.6840 0.6840 0.6820 0.6810 0.6800
934.417966 0.6770 0.6760 0.6740 0.6720 0.6690
938.770852 0.6660 0.6620 0.6590 0.6580 0.6570
943.123738 0.6570 0.6580 0.6590 0.6610 0.6650
947.476623 0.6690 0.6730 0.6760 0.6910 0.7000
951.829509 0.7070 0.7150 0.7230 0.7330 0.7420
956.182395 0.7520 0.7610 0.7710 0.7780 0.7930
960.535281 0.8040 0.8100 0.8140 0.8200 0.8250
964.888167 0.8310 0.8340 0.8390 0.8400 0.8470
969.241053 0.8500 0.8540 0.8580 0.8590 0.8620
973.593939 0.8630 0.8690 0.8700 0.8720 0.8730
977.946825 0.8760 0.8780 0.8810 0.8840 0.8840
982.299711 0.8870 0.8880 0.8880 0.8890 0.8910
986.652597 0.8920 0.8920 0.8950 0.8960 0.8960
991.005482 0.8990 0.9000 0.9000 0.8990 0.8990
995.358368 0.8990 0.8990 0.8990 0.8990 0.8990
999.711254 0.8970 0.8970 0.8970 0.8960 0.8960
1004.064140 0.8970 0.8970 0.8970 0.8970 0.8970
1008.417026 0.8970 0.8970 0.8970 0.8970 0.8960
1012.769912 0.8950 0.8950 0.8930 0.8920 0.8920
1017.122798 0.8910 0.8910 0.8910 0.8890 0.8850
1021.475684 0.8810 0.8800 0.8780 0.8760 0.8730
1025.828570 0.8720 0.8720 0.8720 0.8720 0.8730
1030.181456 0.8730 0.8730 0.8720 0.8700 0.8690
1034.534341 0.8650 0.8610 0.8580 0.8530 0.8500
1038.887227 0.8440 0.8360 0.8320 0.8250 0.8200
1043.240113 0.8170 0.8140 0.8140 0.8160 0.8190
1047.592999 0.8240 0.8320 0.8420 0.8540 0.8630
1051.945885 0.8700 0.8730 0.8780 0.8820 0.8850
1056.298771 0.8910 0.8910 0.8920 0.8950 0.8960
1060.651657 0.8970 0.8970 0.8990 0.8990 0.9000
1065.004543 0.9020 0.9020 0.9030 0.9030 0.9030
1069.357429 0.9040 0.9040 0.9060 0.9060 0.9060
1073.710315 0.9070 0.9070 0.9100 0.9100 0.9110
1078.063200 0.9110 0.9110 0.9110 0.9110 0.9100
1082.416086 0.9100 0.9100 0.9100 0.9080 0.9080
1086.768972 0.9100 0.9100 0.9110 0.9110 0.9070
1091.121858 0.9070 0.9070 0.9070 0.9070 0.9070
1095.474744 0.9060 0.9040 0.9040 0.9030 0.9030
1099.827630 0.9030 0.9030 0.9040 0.9040 0.9060
1104.180516 0.9060 0.9060 0.9070 0.9070 0.9070
1108.533402 0.9070 0.9060 0.9040 0.9040 0.9040
1112.886288 0.9030 0.9030 0.9020 0.9000 0.8990
1117.239174 0.8990 0.8990 0.8990 0.8990 0.8970
1121.592059 0.8960 0.8960 0.8960 0.8970 0.8970
1125.944945 0.8990 0.9000 0.9000 0.8970 0.8950
1130.297831 0.8910 0.8870 0.8870 0.8840 0.8840
1134.650717 0.8820 0.8820 0.8820 0.8840 0.8840
1139.003603 0.8840 0.8870 0.8850 0.8840 0.8820
1143.356489 0.8810 0.8780 0.8780 0.8780 0.8780
1147.709375 0.8780 0.8780 0.8770 0.8770 0.8760
1152.062261 0.8760 0.8760 0.8760 0.8740 0.8720
1156.415147 0.8700 0.8690 0.8660 0.8630 0.8610
1160.768033 0.8580 0.8540 0.8530 0.8510 0.8510
1165.120918 0.8500 0.8480 0.8440 0.8430 0.8420
1169.473804 0.8360 0.8350 0.8320 0.8310 0.8310
1173.826690 0.8270 0.8250 0.8210 0.8160 0.8120
1178.179576 0.8090 0.8040 0.7950 0.7890 0.7790
1182.532462 0.7750 0.7610 0.7520 0.7410 0.7300
1186.885348 0.7230 0.7140 0.7030 0.6910 0.6770
1191.238234 0.6620 0.6470 0.6360 0.6200 0.6040
1195.591120 0.5890 0.5550 0.5360 0.5080 0.4771
1199.944006 0.4459 0.4059 0.3750 0.3440 0.3110
1204.296892 0.3000 0.2890 0.2780 0.2760 0.2770
1208.649777 0.2950 0.3101 0.3670 0.4020 0.4350
1213.002663 0.5000 0.5300 0.5530 0.5799 0.6009
1217.355549 0.6170 0.6320 0.6590 0.6820 0.6970
1221.708435 0.7110 0.7140 0.7190 0.7230 0.7260
1226.061321 0.7260 0.7250 0.7250 0.7210 0.7170
1230.414207 0.7110 0.7070 0.7000 0.6910 0.6820
1234.767093 0.6740 0.6610 0.6510 0.6480 0.6470
1239.119979 0.6470 0.6480 0.6540 0.6550 0.6759
1243.472865 0.6920 0.7070 0.7150 0.7230 0.7360
1247.825751 0.7380 0.7420 0.7450 0.7520 0.7550
1252.178636 0.7560 0.7590 0.7590 0.7600 0.7630
1256.531522 0.7630 0.7630 0.7630 0.7610 0.7610
1260.884408 0.7600 0.7570 0.7520 0.7510 0.7490
1265.237294 0.7440 0.7400 0.7310 0.7270 0.7190
1269.590180 0.7140 0.7100 0.7060 0.7040 0.7030
1273.943066 0.7040 0.7070 0.7230 0.7420 0.7639
1278.295952 0.7831 0.8281 0.8720 0.8960 0.9000
1282.648838 0.9040 0.9110 0.9140 0.9170 0.9210
1287.001724 0.9230 0.9260 0.9270 0.9310 0.9340
1291.354610 0.9360 0.9370 0.9380 0.9410 0.9420
1295.707495 0.9420 0.9440 0.9450 0.9450 0.9460
1300.060381 0.9480 0.9480 0.9490 0.9490 0.9510
1304.413267 0.9510 0.9510 0.9510 0.9510 0.9510
1308.766153 0.9510 0.9510 0.9510 0.9510 0.9510
1313.119039 0.9510 0.9510 0.9520 0.9520 0.9520
1317.471925 0.9520 0.9510 0.9490 0.9480 0.9460
1321.824811 0.9450 0.9420 0.9420 0.9410 0.9410
1326.177697 0.9410 0.9410 0.9400 0.9400 0.9400
1330.530583 0.9380 0.9380 0.9380 0.9380 0.9380
1334.883469 0.9380 0.9380 0.9380 0.9380 0.9370
1339.236354 0.9360 0.9340 0.9340 0.9330 0.9330
1343.589240 0.9310 0.9310 0.9260 0.9250 0.9220
1347.942126 0.9210 0.9150 0.9110 0.9060 0.8950
1352.295012 0.8880 0.8780 0.8760 0.8650 0.8530
1356.647898 0.8289 0.8089 0.7869 0.7609 0.7139
1361.000784 0.6610 0.6190 0.5640 0.5081 0.4591
1365.353670 0.4078 0.3559 0.3040 0.3041 0.3511
1369.706556 0.4270 0.5530 0.6459 0.7678 0.7950
1374.059442 0.8171 0.8390 0.8500 0.8590 0.8690
1378.412328 0.8690 0.8730 0.8740 0.8730 0.8700
1382.765213 0.8590 0.8510 0.8320 0.8230 0.8050
1387.118099 0.7780 0.7520 0.7250 0.7250 0.7709
1391.470985 0.7801 0.8061 0.8430 0.8581 0.8960
1395.823871 0.9110 0.9140 0.9190 0.9230 0.9260
1400.176757 0.9290 0.9310 0.9330 0.9340 0.9360
1404.529643 0.9380 0.9400 0.9420 0.9440 0.9440
1408.882529 0.9440 0.9440 0.9440 0.9440 0.9440
1413.235415 0.9440 0.9450 0.9460 0.9460 0.9460
1417.588301 0.9460 0.9460 0.9460 0.9450 0.9450
1421.941187 0.9450 0.9440 0.9440 0.9440 0.9440
1426.294072 0.9420 0.9400 0.9380 0.9370 0.9360
1430.646958 0.9340 0.9340 0.9340 0.9330 0.9310
1434.999844 0.9290 0.9270 0.9230 0.9210 0.9210
1439.352730 0.9210 0.9210 0.9210 0.9190 0.9150
1443.705616 0.9120 0.9110 0.9070 0.9030 0.8990
1448.058502 0.8950 0.8920 0.8840 0.8780 0.8730
1452.411388 0.8700 0.8660 0.8610 0.8570 0.8540
1456.764274 0.8510 0.8500 0.8460 0.8420 0.8380
1461.117160 0.8320 0.8310 0.8190 0.8120 0.8000
1465.470046 0.7830 0.7650 0.7480 0.7400 0.7290
1469.822931 0.7291 0.7511 0.7750 0.7850 0.8060
1474.175817 0.8310 0.8430 0.8800 0.8910 0.9000
1478.528703 0.9070 0.9110 0.9180 0.9210 0.9210
1482.881589 0.9230 0.9250 0.9260 0.9290 0.9300
1487.234475 0.9300 0.9310 0.9330 0.9330 0.9330
1491.587361 0.9340 0.9360 0.9370 0.9380 0.9400
1495.940247 0.9400 0.9410 0.9410 0.9410 0.9420
1500.293133 0.9440 0.9450 0.9450 0.9460 0.9460
1504.646019 0.9480 0.9480 0.9490 0.9510 0.9510
1508.998905 0.9510 0.9520 0.9530 0.9530 0.9530
1513.351790 0.9530 0.9530 0.9530 0.9550 0.9550
1517.704676 0.9550 0.9550 0.9570 0.9570 0.9560
1522.057562 0.9560 0.9570 0.9590 0.9600 0.9600
1526.410448 0.9600 0.9590 0.9590 0.9590 0.9590
1530.763334 0.9610 0.9610 0.9610 0.9610 0.9630
1535.116220 0.9630 0.9630 0.9630 0.9630 0.9630
1539.469106 0.9630 0.9630 0.9640 0.9640 0.9650
1543.821992 0.9650 0.9650 0.9650 0.9650 0.9650
1548.174878 0.9640 0.9640 0.9640 0.9630 0.9630
1552.527764 0.9630 0.9630 0.9630 0.9630 0.9630
1556.880649 0.9630 0.9630 0.9630 0.9640 0.9640
1561.233535 0.9650 0.9650 0.9650 0.9650 0.9670
1565.586421 0.9670 0.9670 0.9670 0.9670 0.9670
1569.939307 0.9670 0.9670 0.9670 0.9670 0.9670
1574.292193 0.9670 0.9670 0.9670 0.9670 0.9670
1578.645079 0.9670 0.9670 0.9650 0.9650 0.9670
1582.997965 0.9670 0.9670 0.9670 0.9650 0.9650
1587.350851 0.9650 0.9650 0.9650 0.9650 0.9670
1591.703737 0.9670 0.9670 0.9680 0.9700 0.9700
1596.056623 0.9700 0.9700 0.9700 0.9700 0.9700
1600.409509 0.9700 0.9680 0.9680 0.9680 0.9700
1604.762394 0.9700 0.9700 0.9700 0.9700 0.9700
1609.115280 0.9700 0.9700 0.9700 0.9700 0.9700
1613.468166 0.9700 0.9710 0.9710 0.9720 0.9720
1617.821052 0.9740 0.9750 0.9750 0.9720 0.9720
1622.173938 0.9710 0.9710 0.9710 0.9710 0.9720
1626.526824 0.9720 0.9720 0.9720 0.9710 0.9710
1630.879710 0.9710 0.9710 0.9710 0.9700 0.9700
1635.232596 0.9710 0.9710 0.9710 0.9710 0.9710
1639.585482 0.9710 0.9700 0.9700 0.9680 0.9650
1643.938368 0.9640 0.9640 0.9630 0.9630 0.9610
1648.291253 0.9610 0.9610 0.9610 0.9610 0.9630
1652.644139 0.9630 0.9630 0.9640 0.9640 0.9640
1656.997025 0.9640 0.9640 0.9640 0.9650 0.9650
1661.349911 0.9670 0.9670 0.9670 0.9680 0.9680
1665.702797 0.9700 0.9700 0.9710 0.9710 0.9710
1670.055683 0.9720 0.9720 0.9720 0.9720 0.9720
1674.408569 0.9720 0.9720 0.9720 0.9740 0.9750
1678.761455 0.9750 0.9740 0.9750 0.9750 0.9760
1683.114341 0.9760 0.9760 0.9750 0.9750 0.9750
1687.467227 0.9750 0.9750 0.9740 0.9720 0.9720
1691.820112 0.9720 0.9720 0.9720 0.9720 0.9720
1696.172998 0.9720 0.9720 0.9720 0.9740 0.9740
1700.525884 0.9740 0.9740 0.9740 0.9740 0.9740
1704.878770 0.9740 0.9740 0.9740 0.9740 0.9740
1709.231656 0.9740 0.9740 0.9740 0.9750 0.9750
1713.584542 0.9750 0.9750 0.9750 0.9750 0.9750
1717.937428 0.9750 0.9750 0.9750 0.9750 0.9750
1722.290314 0.9750 0.9750 0.9750 0.9750 0.9750
1726.643200 0.9750 0.9750 0.9750 0.9750 0.9750
1730.996086 0.9750 0.9750 0.9750 0.9750 0.9750
1735.348971 0.9760 0.9760 0.9760 0.9760 0.9760
1739.701857 0.9760 0.9760 0.9760 0.9760 0.9760
1744.054743 0.9760 0.9760 0.9760 0.9760 0.9760
1748.407629 0.9750 0.9750 0.9740 0.9740 0.9740
1752.760515 0.9740 0.9740 0.9720 0.9720 0.9740
1757.113401 0.9740 0.9740 0.9740 0.9720 0.9720
1761.466287 0.9720 0.9710 0.9710 0.9720 0.9720
1765.819173 0.9720 0.9720 0.9720 0.9720 0.9740
1770.172059 0.9740 0.9720 0.9720 0.9720 0.9720
1774.524945 0.9720 0.9720 0.9720 0.9740 0.9740
1778.877830 0.9740 0.9740 0.9740 0.9740 0.9720
1783.230716 0.9710 0.9700 0.9680 0.9670 0.9670
1787.583602 0.9670 0.9670 0.9670 0.9670 0.9670
1791.936488 0.9670 0.9670 0.9650 0.9650 0.9640
1796.289374 0.9630 0.9610 0.9610 0.9610 0.9610
1800.642260 0.9600 0.9600 0.9600 0.9600 0.9600
1804.995146 0.9590 0.9590 0.9590 0.9570 0.9570
1809.348032 0.9570 0.9590 0.9590 0.9590 0.9590
1813.700918 0.9590 0.9590 0.9590 0.9590 0.9590
1818.053804 0.9570 0.9550 0.9550 0.9550 0.9550
1822.406689 0.9530 0.9530 0.9530 0.9530 0.9530
1826.759575 0.9550 0.9550 0.9550 0.9550 0.9550
1831.112461 0.9560 0.9560 0.9560 0.9560 0.9590
1835.465347 0.9590 0.9590 0.9600 0.9600 0.9600
1839.818233 0.9610 0.9610 0.9610 0.9610 0.9610
1844.171119 0.9600 0.9600 0.9600 0.9600 0.9600
1848.524005 0.9600 0.9600 0.9600 0.9600 0.9600
1852.876891 0.9610 0.9600 0.9600 0.9590 0.9590
1857.229777 0.9590 0.9590 0.9590 0.9590 0.9590
1861.582663 0.9590 0.9590 0.9590 0.9590 0.9600
1865.935548 0.9600 0.9600 0.9600 0.9600 0.9590
1870.288434 0.9590 0.9590 0.9600 0.9600 0.9600
1874.641320 0.9600 0.9600 0.9600 0.9600 0.9590
1878.994206 0.9590 0.9590 0.9590 0.9570 0.9570
1883.347092 0.9570 0.9560 0.9550 0.9550 0.9550
1887.699978 0.9550 0.9550 0.9550 0.9560 0.9560
1892.052864 0.9560 0.9560 0.9560 0.9560 0.9570
1896.405750 0.9590 0.9590 0.9590 0.9590 0.9570
1900.758636 0.9570 0.9590 0.9600 0.9600 0.9600
1905.111522 0.9600 0.9600 0.9600 0.9600 0.9600
1909.464407 0.9600 0.9600 0.9600 0.9600 0.9600
1913.817293 0.9590 0.9560 0.9560 0.9550 0.9550
1918.170179 0.9550 0.9530 0.9530 0.9550 0.9550
1922.523065 0.9550 0.9550 0.9550 0.9550 0.9550
1926.875951 0.9550 0.9550 0.9560 0.9560 0.9560
1931.228837 0.9560 0.9570 0.9590 0.9590 0.9590
1935.581723 0.9600 0.9600 0.9600 0.9600 0.9600
1939.934609 0.9600 0.9600 0.9600 0.9590 0.9590
1944.287495 0.9570 0.9560 0.9560 0.9560 0.9560
1948.640381 0.9550 0.9550 0.9550 0.9530 0.9530
1952.993266 0.9530 0.9530 0.9530 0.9510 0.9510
1957.346152 0.9490 0.9480 0.9480 0.9490 0.9490
1961.699038 0.9530 0.9530 0.9530 0.9550 0.9550
1966.051924 0.9560 0.9560 0.9560 0.9560 0.9560
1970.404810 0.9560 0.9560 0.9560 0.9560 0.9550
1974.757696 0.9550 0.9530 0.9530 0.9530 0.9530
1979.110582 0.9530 0.9530 0.9530 0.9490 0.9490
1983.463468 0.9490 0.9490 0.9490 0.9480 0.9460
1987.816354 0.9460 0.9450 0.9450 0.9450 0.9450
1992.169240 0.9450 0.9440 0.9420 0.9410 0.9410
1996.522125 0.9420 0.9440 0.9440 0.9450 0.9450
2000.875011 0.9450 0.9450 0.9450 0.9450 0.9450
2005.227897 0.9450 0.9450 0.9450 0.9450 0.9450
2009.580783 0.9455 0.9460 0.9460 0.9460 0.9460
2013.933669 0.9460 0.9460 0.9460 0.9460 0.9460
2018.286555 0.9460 0.9460 0.9470 0.9480 0.9480
2022.639441 0.9480 0.9480 0.9480 0.9485 0.9490
2026.992327 0.9490 0.9490 0.9490 0.9490 0.9490
2031.345213 0.9490 0.9490 0.9490 0.9490 0.9490
2035.698099 0.9490 0.9490 0.9490 0.9490 0.9490
2040.050984 0.9490 0.9490 0.9490 0.9490 0.9490
2044.403870 0.9490 0.9490 0.9490 0.9490 0.9490
2048.756756 0.9490 0.9490 0.9490 0.9490 0.9490
2053.109642 0.9500 0.9510 0.9510 0.9510 0.9510
2057.462528 0.9510 0.9510 0.9510 0.9510 0.9510
2061.815414 0.9510 0.9510 0.9510 0.9510 0.9510
2066.168300 0.9510 0.9510 0.9510 0.9500 0.9490
2070.521186 0.9490 0.9490 0.9485 0.9480 0.9470
2074.874072 0.9460 0.9460 0.9460 0.9460 0.9460
2079.226958 0.9455 0.9450 0.9445 0.9440 0.9440
2083.579843 0.9440 0.9440 0.9440 0.9440 0.9440
2087.932729 0.9440 0.9440 0.9430 0.9420 0.9420
2092.285615 0.9420 0.9420 0.9420 0.9415 0.9410
2096.638501 0.9410 0.9410 0.9410 0.9410 0.9405
2100.991387 0.9400 0.9390 0.9380 0.9380 0.9380
2105.344273 0.9390 0.9400 0.9400 0.9400 0.9400
2109.697159 0.9400 0.9405 0.9410 0.9410 0.9410
2114.050045 0.9415 0.9420 0.9420 0.9420 0.9430
2118.402931 0.9440 0.9440 0.9440 0.9440 0.9440
2122.755817 0.9445 0.9450 0.9450 0.9450 0.9450
2127.108702 0.9450 0.9450 0.9450 0.9450 0.9450
2131.461588 0.9445 0.9440 0.9440 0.9440 0.9440
2135.814474 0.9440 0.9440 0.9440 0.9440 0.9440
2140.167360 0.9440 0.9440 0.9440 0.9440 0.9440
2144.520246 0.9440 0.9440 0.9440 0.9440 0.9440
2148.873132 0.9440 0.9440 0.9440 0.9440 0.9431
2153.226018 0.9421 0.9420 0.9420 0.9420 0.9420
2157.578904 0.9420 0.9420 0.9420 0.9420 0.9415
2161.931790 0.9410 0.9410 0.9410 0.9410 0.9410
2166.284676 0.9410 0.9410 0.9410 0.9410 0.9410
2170.637561 0.9410 0.9410 0.9410 0.9410 0.9410
2174.990447 0.9415 0.9420 0.9420 0.9420 0.9420
2179.343333 0.9420 0.9420 0.9420 0.9420 0.9420
2183.696219 0.9429 0.9439 0.9440 0.9440 0.9440
2188.049105 0.9440 0.9431 0.9421 0.9420 0.9420
2192.401991 0.9429 0.9439 0.9440 0.9440 0.9440
2196.754877 0.9440 0.9440 0.9440 0.9440 0.9440
2201.107763 0.9440 0.9440 0.9440 0.9440 0.9440
2205.460649 0.9440 0.9440 0.9440 0.9440 0.9440
2209.813535 0.9440 0.9440 0.9445 0.9450 0.9450
2214.166420 0.9450 0.9450 0.9450 0.9450 0.9450
2218.519306 0.9450 0.9450 0.9450 0.9450 0.9450
2222.872192 0.9450 0.9450 0.9450 0.9450 0.9450
2227.225078 0.9445 0.9440 0.9431 0.9421 0.9420
2231.577964 0.9420 0.9420 0.9420 0.9415 0.9410
2235.930850 0.9410 0.9410 0.9410 0.9410 0.9415
2240.283736 0.9420 0.9420 0.9420 0.9420 0.9420
2244.636622 0.9420 0.9420 0.9420 0.9420 0.9420
2248.989508 0.9420 0.9420 0.9420 0.9420 0.9420
2253.342394 0.9420 0.9420 0.9420 0.9420 0.9415
2257.695279 0.9410 0.9410 0.9410 0.9410 0.9410
2262.048165 0.9405 0.9400 0.9400 0.9400 0.9400
2266.401051 0.9400 0.9400 0.9400 0.9400 0.9400
2270.753937 0.9400 0.9400 0.9400 0.9400 0.9400
2275.106823 0.9400 0.9400 0.9400 0.9400 0.9400
2279.459709 0.9400 0.9400 0.9400 0.9400 0.9405
2283.812595 0.9410 0.9415 0.9420 0.9420 0.9420
2288.165481 0.9420 0.9420 0.9429 0.9439 0.9440
2292.518367 0.9440 0.9444 0.9449 0.9450 0.9450
2296.871253 0.9455 0.9460 0.9469 0.9479 0.9521
2301.224138 0.9566 0.9570 0.9570 0.9552 0.9532
2305.577024 0.9512 0.9492 0.9490 0.9490 0.9486
2309.929910 0.9481 0.9480 0.9480 0.9480 0.9480
2314.282796 0.9485 0.9490 0.9490 0.9490 0.9490
2318.635682 0.9490 0.9490 0.9490 0.9486 0.9481
2322.988568 0.9480 0.9480 0.9471 0.9461 0.9460
2327.341454 0.9460 0.9456 0.9451 0.9446 0.9441
2331.694340 0.9427 0.9412 0.9410 0.9410 0.9410
2336.047226 0.9410 0.9410 0.9410 0.9410 0.9410
2340.400112 0.9410 0.9410 0.9410 0.9410 0.9397
2344.752997 0.9382 0.9371 0.9361 0.9360 0.9360
2349.105883 0.9347 0.9332 0.9330 0.9330 0.9321
2353.458769 0.9311 0.9310 0.9310 0.9310 0.9310
2357.811655 0.9310 0.9310 0.9310 0.9310 0.9306
2362.164541 0.9301 0.9300 0.9300 0.9300 0.9300
2366.517427 0.9300 0.9300 0.9300 0.9300 0.9296
2370.870313 0.9291 0.9281 0.9271 0.9270 0.9270
2375.223199 0.9270 0.9270 0.9266 0.9261 0.9256
2379.576085 0.9251 0.9250 0.9250 0.9241 0.9231
2383.928971 0.9226 0.9221 0.9220 0.9220 0.9220
2388.281856 0.9220 0.9220 0.9220 0.9220 0.9220
2392.634742 0.9198 0.9173 0.9161 0.9151 0.9150
2396.987628 0.9150 0.9146 0.9141 0.9140 0.9140
2401.340514 0.9131 0.9121 0.9120 0.9120 0.9116
2405.693400 0.9111 0.9110 0.9110 0.9093 0.9073
2410.046286 0.9057 0.9042 0.9036 0.9031 0.9030
2414.399172 0.9030 0.9026 0.9021 0.9011 0.9001
2418.752058 0.8996 0.8991 0.8977 0.8962 0.8943
2423.104944 0.8923 0.8916 0.8911 0.8910 0.8910
2427.457830 0.8910 0.8910 0.8880 0.8845 0.8815
2431.810715 0.8785 0.8776 0.8771 0.8766 0.8761
2436.163601 0.8747 0.8732 0.8726 0.8721 0.8682
2440.516487 0.8637 0.8609 0.8584 0.8567 0.8552
2444.869373 0.8542 0.8532 0.8522 0.8512 0.8489
2449.222259 0.8464 0.8435 0.8405 0.8392 0.8381
2453.575145 0.8354 0.8324 0.8316 0.8311 0.8301
2457.928031 0.8292 0.8269 0.8244 0.8206 0.8166
2462.280917 0.8143 0.8123 0.8120 0.8120 0.8087
2466.633803 0.8047 0.8032 0.8022 0.8012 0.8002
2470.986689 0.7979 0.7954 0.7933 0.7913 0.7893
2475.339574 0.7873 0.7862 0.7852 0.7850 0.7850
2479.692460 0.7842 0.7832 0.7830 0.7830 0.7830
2484.045346 0.7830 0.7830 0.7830 0.7838 0.7848
2488.398232 0.7854 0.7859 0.7860 0.7860 0.7877
2492.751118 0.7897 0.7904 0.7909 0.7918 0.7928
2497.104004 0.7934 0.7939 0.7944 0.7949 0.7958
2501.456890 0.7968 0.7982 0.7997 0.8004 0.8009
2505.809776 0.8023 0.8038 0.8057 0.8077 0.8097
2510.162662 0.8117 0.8128 0.8138 0.8169 0.8204
2514.515548 0.8210 0.8210 0.8218 0.8228 0.8255
2518.868433 0.8285 0.8298 0.8308 0.8322 0.8337
2523.221319 0.8348 0.8358 0.8368 0.8378 0.8384
2527.574205 0.8389 0.8394 0.8399 0.8412 0.8427
2531.927091 0.8434 0.8439 0.8448 0.8458 0.8464
2536.279977 0.8469 0.8474 0.8479 0.8488 0.8498
2540.632863 0.8500 0.8500 0.8504 0.8509 0.8510
2544.985749 0.8510 0.8510 0.8510 0.8510 0.8510
2549.338635 0.8518 0.8528 0.8534 0.8539 0.8540
2553.691521 0.8540 0.8540 0.8540 0.8536 0.8531
2558.044407 0.8530 0.8530 0.8522 0.8512 0.8510
2562.397292 0.8510 0.8510 0.8510 0.8510 0.8510
2566.750178 0.8510 0.8510 0.8518 0.8528 0.8530
2571.103064 0.8530 0.8534 0.8539 0.8544 0.8549
2575.455950 0.8558 0.8568 0.8574 0.8579 0.8580
2579.808836 0.8580 0.8592 0.8607 0.8626 0.8646
2584.161722 0.8666 0.8686 0.8694 0.8699 0.8708
2588.514608 0.8718 0.8736 0.8756 0.8780 0.8805
2592.867494 0.8834 0.8864 0.8886 0.8906 0.8914
2597.220380 0.8919 0.8940 0.8965 0.8998 0.9033
2601.573266 0.9056 0.9076 0.9096 0.9116 0.9128
2605.926151 0.9138 0.9144 0.9149 0.9174 0.9204
2610.279037 0.9226 0.9246 0.9250 0.9250 0.9254
2614.631923 0.9259 0.9276 0.9296 0.9304 0.9309
2618.984809 0.9318 0.9328 0.9334 0.9339 0.9340
2623.337695 0.9340 0.9340 0.9340 0.9340 0.9340
2627.690581 0.9336 0.9331 0.9330 0.9330 0.9330
2632.043467 0.9330 0.9334 0.9339 0.9340 0.9340
2636.396353 0.9340 0.9340 0.9340 0.9340 0.9328
2640.749239 0.9313 0.9294 0.9274 0.9270 0.9270
2645.102125 0.9262 0.9252 0.9250 0.9250 0.9234
2649.455010 0.9214 0.9183 0.9148 0.9074 0.8989
2653.807896 0.8912 0.8837 0.8789 0.8749 0.8705
2658.160782 0.8660 0.8461 0.8216 0.8028 0.7857
2662.513668 0.7777 0.7722 0.7608 0.7478 0.7450
2666.866554 0.7450 0.7664 0.7939 0.8050 0.8115
2671.219440 0.8308 0.8537 0.8759 0.8979 0.9134
2675.572326 0.9268 0.9315 0.9335 0.9355 0.9376
2679.925212 0.9396 0.9416 0.9432 0.9447 0.9450
2684.278098 0.9450 0.9454 0.9459 0.9468 0.9478
2688.630984 0.9484 0.9489 0.9490 0.9490 0.9486
2692.983869 0.9481 0.9480 0.9480 0.9480 0.9480
2697.336755 0.9472 0.9462 0.9460 0.9460 0.9460
2701.689641 0.9460 0.9460 0.9460 0.9460 0.9460
2706.042527 0.9460 0.9460 0.9460 0.9460 0.9468
2710.395413 0.9478 0.9480 0.9480 0.9484 0.9489
2714.748299 0.9490 0.9490 0.9490 0.9490 0.9498
2719.101185 0.9508 0.9510 0.9510 0.9514 0.9519
2723.454071 0.9524 0.9529 0.9530 0.9530 0.9530
2727.806957 0.9530 0.9530 0.9530 0.9538 0.9548
2732.159843 0.9550 0.9550 0.9550 0.9550 0.9554
2736.512728 0.9559 0.9560 0.9560 0.9560 0.9560
2740.865614 0.9560 0.9560 0.9560 0.9560 0.9560
2745.218500 0.9560 0.9560 0.9560 0.9564 0.9569
2749.571386 0.9570 0.9570 0.9570 0.9570 0.9570
2753.924272 0.9570 0.9570 0.9570 0.9570 0.9570
2758.277158 0.9570 0.9570 0.9570 0.9570 0.9570
2762.630044 0.9570 0.9570 0.9570 0.9570 0.9570
2766.982930 0.9578 0.9587 0.9590 0.9590 0.9590
2771.335816 0.9590 0.9590 0.9590 0.9590 0.9590
2775.688702 0.9583 0.9573 0.9570 0.9570 0.9566
2780.041588 0.9561 0.9560 0.9560 0.9560 0.9560
2784.394473 0.9560 0.9560 0.9560 0.9560 0.9556
2788.747359 0.9551 0.9543 0.9533 0.9523 0.9513
2793.100245 0.9503 0.9493 0.9490 0.9490 0.9486
2797.453131 0.9481 0.9469 0.9454 0.9439 0.9424
2801.806017 0.9413 0.9403 0.9393 0.9383 0.9373
2806.158903 0.9363 0.9360 0.9360 0.9353 0.9343
2810.511789 0.9340 0.9340 0.9340 0.9340 0.9340
2814.864675 0.9340 0.9340 0.9340 0.9340 0.9340
2819.217561 0.9336 0.9331 0.9330 0.9330 0.9323
2823.570447 0.9313 0.9303 0.9293 0.9283 0.9273
2827.923332 0.9270 0.9270 0.9270 0.9270 0.9266
2832.276218 0.9261 0.9260 0.9260 0.9260 0.9260
2836.629104 0.9256 0.9251 0.9235 0.9215 0.9196
2840.981990 0.9176 0.9152 0.9127 0.9098 0.9068
2845.334876 0.9039 0.9009 0.8996 0.8991 0.8976
2849.687762 0.8956 0.8925 0.8890 0.8837 0.8777
2854.040648 0.8731 0.8691 0.8648 0.8603 0.8568
2858.393534 0.8539 0.8391 0.8196 0.8001 0.7806
2862.746420 0.7732 0.7707 0.7661 0.7606 0.7527
2867.099306 0.7437 0.7410 0.7410 0.7495 0.7616
2871.452191 0.7686 0.7736 0.7800 0.7870 0.7975
2875.805077 0.8095 0.8134 0.8139 0.8161 0.8191
2880.157963 0.8204 0.8209 0.8210 0.8210 0.8203
2884.510849 0.8193 0.8180 0.8165 0.8149 0.8134
2888.863735 0.8059 0.7959 0.7870 0.7785 0.7739
2893.216621 0.7709 0.7661 0.7606 0.7516 0.7412
2897.569507 0.7380 0.7380 0.7404 0.7439 0.7485
2901.922393 0.7535 0.7571 0.7601 0.7617 0.7627
2906.275279 0.7644 0.7664 0.7674 0.7679 0.7680
2910.628165 0.7680 0.7670 0.7655 0.7622 0.7582
2914.981050 0.7528 0.7468 0.7374 0.7264 0.7175
2919.333936 0.7095 0.7019 0.6944 0.6851 0.6750
2923.686822 0.6682 0.6627 0.6530 0.6415 0.6380
2928.039708 0.6380 0.6397 0.6422 0.6447 0.6472
2932.392594 0.6501 0.6531 0.6550 0.6565 0.6597
2936.745480 0.6637 0.6681 0.6726 0.6747 0.6757
2941.098366 0.6774 0.6794 0.6800 0.6800 0.6790
2945.451252 0.6775 0.6760 0.6745 0.6702 0.6647
2949.804138 0.6586 0.6521 0.6364 0.6164 0.5965
2954.157024 0.5765 0.5565 0.5365 0.5188 0.5022
2958.509909 0.4850 0.4675 0.4500 0.4325 0.4147
2962.862795 0.3967 0.3791 0.3616 0.3441 0.3267
2967.215681 0.3071 0.2867 0.2739 0.2650 0.2546
2971.568567 0.2436 0.2313 0.2183 0.2133 0.2123
2975.921453 0.2127 0.2137 0.2266 0.2451 0.2635
2980.274339 0.2820 0.3046 0.3290 0.3511 0.3721
2984.627225 0.4068 0.4483 0.4724 0.4878 0.5153
2988.980111 0.5488 0.5935 0.6439 0.6840 0.7188
2993.332997 0.7493 0.7778 0.7934 0.8029 0.8157
2997.685883 0.8302 0.8394 0.8458 0.8523 0.8588
3002.038768 0.8647 0.8701 0.8776 0.8861 0.8953
3006.391654 0.9048 0.9087 0.9097 0.9130 0.9175
3010.744540 0.9217 0.9257 0.9290 0.9320 0.9343
3015.097426 0.9363 0.9373 0.9378 0.9390 0.9405
3019.450312 0.9413 0.9418 0.9430 0.9445 0.9460
3023.803198 0.9475 0.9490 0.9505 0.9513 0.9518
3028.156084 0.9530 0.9545 0.9550 0.9550 0.9553
3032.508970 0.9558 0.9560 0.9560 0.9560 0.9560
3036.861856 0.9560 0.9560 0.9563 0.9568 0.9576
3041.214742 0.9586 0.9593 0.9598 0.9603 0.9608
3045.567627 0.9617 0.9627 0.9630 0.9630 0.9630
3049.920513 0.9630 0.9633 0.9638 0.9643 0.9648
3054.273399 0.9650 0.9650 0.9650 0.9650 0.9656
3058.626285 0.9666 0.9670 0.9670 0.9670 0.9670
3062.979171 0.9673 0.9678 0.9680 0.9680 0.9680
3067.332057 0.9680 0.9680 0.9680 0.9680 0.9680
3071.684943 0.9680 0.9680 0.9680 0.9680 0.9677
3076.037829 0.9672 0.9664 0.9654 0.9650 0.9650
3080.390715 0.9650 0.9650 0.9650 0.9650 0.9650
3084.743601 0.9650 0.9650 0.9650 0.9650 0.9650
3089.096486 0.9650 0.9650 0.9650 0.9650 0.9650
3093.449372 0.9650 0.9656 0.9666 0.9670 0.9670
3097.802258 0.9664 0.9654 0.9650 0.9650 0.9650
3102.155144 0.9650 0.9650 0.9650 0.9656 0.9666
3106.508030 0.9670 0.9670 0.9670 0.9670 0.9670
3110.860916 0.9670 0.9664 0.9654 0.9650 0.9650
3115.213802 0.9650 0.9650 0.9650 0.9650 0.9650
3119.566688 0.9650 0.9650 0.9650 0.9650 0.9650
3123.919574 0.9650 0.9650 0.9650 0.9650 0.9650
3128.272460 0.9650 0.9647 0.9642 0.9640 0.9640
3132.625345 0.9640 0.9640 0.9640 0.9640 0.9640
3136.978231 0.9640 0.9640 0.9640 0.9640 0.9640
3141.331117 0.9640 0.9640 0.9640 0.9640 0.9640
3145.684003 0.9640 0.9640 0.9640 0.9637 0.9632
3150.036889 0.9630 0.9630 0.9630 0.9630 0.9630
3154.389775 0.9630 0.9630 0.9630 0.9630 0.9630
3158.742661 0.9630 0.9630 0.9630 0.9630 0.9630
3163.095547 0.9630 0.9624 0.9614 0.9610 0.9610
3167.448433 0.9610 0.9610 0.9610 0.9610 0.9610
3171.801319 0.9610 0.9610 0.9610 0.9610 0.9610
3176.154204 0.9610 0.9610 0.9610 0.9610 0.9610
3180.507090 0.9610 0.9616 0.9626 0.9630 0.9630
3184.859976 0.9633 0.9638 0.9640 0.9640 0.9640
3189.212862 0.9640 0.9640 0.9640 0.9640 0.9640
3193.565748 0.9643 0.9648 0.9650 0.9650 0.9650
3197.918634 0.9650 0.9650 0.9650 0.9650 0.9650
3202.271520 0.9656 0.9666 0.9670 0.9670 0.9673
3206.624406 0.9678 0.9680 0.9680 0.9680 0.9680
3210.977292 0.9680 0.9680 0.9680 0.9680 0.9680
3215.330178 0.9680 0.9680 0.9680 0.9677 0.9672
3219.683063 0.9661 0.9646 0.9640 0.9640 0.9637
3224.035949 0.9632 0.9630 0.9630 0.9630 0.9630
3228.388835 0.9630 0.9630 0.9630 0.9630 0.9630
3232.741721 0.9630 0.9630 0.9630 0.9633 0.9638
3237.094607 0.9640 0.9640 0.9640 0.9640 0.9643
3241.447493 0.9648 0.9650 0.9650 0.9650 0.9650
3245.800379 0.9656 0.9666 0.9670 0.9670 0.9670
3250.153265 0.9670 0.9670 0.9670 0.9670 0.9670
3254.506151 0.9673 0.9678 0.9680 0.9680 0.9680
3258.859037 0.9680 0.9680 0.9680 0.9680 0.9680
3263.211922 0.9680 0.9680 0.9680 0.9680 0.9680
3267.564808 0.9680 0.9680 0.9680 0.9680 0.9680
3271.917694 0.9680 0.9680 0.9686 0.9696 0.9700
3276.270580 0.9700 0.9700 0.9700 0.9700 0.9700
3280.623466 0.9700 0.9700 0.9700 0.9700 0.9703
3284.976352 0.9708 0.9710 0.9710 0.9710 0.9710
3289.329238 0.9710 0.9710 0.9707 0.9702 0.9694
3293.682124 0.9684 0.9680 0.9680 0.9671 0.9656
3298.035010 0.9650 0.9650 0.9647 0.9642 0.9637
3302.387896 0.9632 0.9630 0.9630 0.9630 0.9630
3306.740781 0.9630 0.9630 0.9630 0.9630 0.9630
3311.093667 0.9630 0.9630 0.9630 0.9633 0.9638
3315.446553 0.9640 0.9640 0.9640 0.9640 0.9640
3319.799439 0.9640 0.9640 0.9640 0.9643 0.9648
3324.152325 0.9650 0.9650 0.9650 0.9650 0.9650
3328.505211 0.9650 0.9650 0.9650 0.9656 0.9666
3332.858097 0.9670 0.9670 0.9670 0.9670 0.9673
3337.210983 0.9678 0.9680 0.9680 0.9686 0.9696
3341.563869 0.9700 0.9700 0.9700 0.9700 0.9700
3345.916755 0.9700 0.9700 0.9700 0.9700 0.9700
3350.269640 0.9700 0.9700 0.9700 0.9700 0.9700
3354.622526 0.9700 0.9703 0.9708 0.9710 0.9710
3358.975412 0.9710 0.9710 0.9710 0.9710 0.9710
3363.328298 0.9710 0.9713 0.9718 0.9720 0.9720
3367.681184 0.9720 0.9720 0.9720 0.9720 0.9720
3372.034070 0.9720 0.9720 0.9720 0.9720 0.9720
3376.386956 0.9720 0.9720 0.9720 0.9720 0.9725
3380.739842 0.9735 0.9740 0.9740 0.9740 0.9740
3385.092728 0.9740 0.9740 0.9740 0.9740 0.9735
3389.445614 0.9725 0.9720 0.9720 0.9720 0.9720
3393.798499 0.9720 0.9720 0.9720 0.9720 0.9720
3398.151385 0.9720 0.9720 0.9720 0.9720 0.9720
3402.504271 0.9725 0.9735 0.9743 0.9748 0.9750
3406.857157 0.9750 0.9750 0.9750 0.9753 0.9758
3411.210043 0.9760 0.9760 0.9757 0.9752 0.9750
3415.562929 0.9750 0.9750 0.9750 0.9750 0.9750
3419.915815 0.9753 0.9758 0.9760 0.9760 0.9760
3424.268701 0.9760 0.9760 0.9760 0.9760 0.9760
3428.621587 0.9760 0.9760 0.9760 0.9760 0.9765
3432.974473 0.9775 0.9780 0.9780 0.9780 0.9780
3437.327358 0.9780 0.9780 0.9783 0.9788 0.9790
3441.680244 0.9790 0.9790 0.9790 0.9790 0.9790
3446.033130 0.9790 0.9790 0.9793 0.9798 0.9800
3450.386016 0.9800 0.9800 0.9800 0.9800 0.9800
3454.738902 0.9800 0.9800 0.9800 0.9800 0.9800
3459.091788 0.9800 0.9800 0.9800 0.9800 0.9800
3463.444674 0.9805 0.9815 0.9820 0.9820 0.9823
3467.797560 0.9828 0.9830 0.9830 0.9835 0.9845
3472.150446 0.9853 0.9858 0.9860 0.9860 0.9860
3476.503332 0.9860 0.9860 0.9860 0.9860 0.9860
3480.856217 0.9857 0.9852 0.9845 0.9835 0.9830
3485.209103 0.9830 0.9830 0.9830 0.9830 0.9830
3489.561989 0.9830 0.9830 0.9830 0.9830 0.9830
3493.914875 0.9830 0.9830 0.9830 0.9830 0.9830
3498.267761 0.9830 0.9830 0.9835 0.9845 0.9853
3502.620647 0.9858 0.9860 0.9860 0.9860 0.9860
3506.973533 0.9860 0.9860 0.9860 0.9860 0.9860
3511.326419 0.9860 0.9860 0.9860 0.9862 0.9868
3515.679305 0.9870 0.9870 0.9870 0.9870 0.9870
3520.032191 0.9870 0.9870 0.9870 0.9870 0.9870
3524.385076 0.9870 0.9870 0.9870 0.9870 0.9870
3528.737962 0.9870 0.9870 0.9870 0.9870 0.9870
3533.090848 0.9870 0.9870 0.9870 0.9870 0.9870
3537.443734 0.9870 0.9870 0.9870 0.9875 0.9885
3541.796620 0.9890 0.9890 0.9892 0.9897 0.9900
3546.149506 0.9900 0.9900 0.9900 0.9900 0.9900
3550.502392 0.9898 0.9893 0.9890 0.9890 0.9890
3554.855278 0.9890 0.9890 0.9890 0.9890 0.9890
3559.208164 0.9890 0.9890 0.9890 0.9890 0.9890
3563.561050 0.9890 0.9890 0.9890 0.9890 0.9890
3567.913935 0.9890 0.9890 0.9890 0.9890 0.9892
3572.266821 0.9897 0.9900 0.9900 0.9900 0.9900
3576.619707 0.9900 0.9900 0.9898 0.9893 0.9874
3580.972593 0.9839 0.9813 0.9798 0.9792 0.9797
3585.325479 0.9814 0.9844 0.9862 0.9867 0.9875
3589.678365 0.9885 0.9890 0.9890 0.9890 0.9890
3594.031251 0.9892 0.9897 0.9900 0.9900 0.9900
3598.384137 0.9900 0.9900 0.9900 0.9900 0.9900
3602.737023 0.9898 0.9893 0.9873 0.9838 0.9811
3607.089909 0.9791 0.9775 0.9765 0.9760 0.9760
3611.442794 0.9760 0.9760 0.9765 0.9775 0.9780
3615.795680 0.9780 0.9782 0.9787 0.9792 0.9797
3620.148566 0.9805 0.9815 0.9827 0.9842 0.9852
3624.501452 0.9857 0.9862 0.9867 0.9875 0.9885
3628.854338 0.9890 0.9890 0.9892 0.9897 0.9900
3633.207224 0.9900 0.9900 0.9900 0.9900 0.9900
3637.560110 0.9900 0.9900 0.9902 0.9907 0.9910
3641.912996 0.9910 0.9910 0.9910 0.9910 0.9910
3646.265882 0.9910 0.9910 0.9915 0.9924 0.9930
3650.618768 0.9930 0.9930 0.9930 0.9930 0.9930
3654.971653 0.9930 0.9930 0.9930 0.9930 0.9930
3659.324539 0.9930 0.9932 0.9937 0.9940 0.9940
3663.677425 0.9942 0.9947 0.9950 0.9950 0.9954
3668.030311 0.9964 0.9970 0.9970 0.9970 0.9970
3672.383197 0.9965 0.9955 0.9948 0.9943 0.9938
3676.736083 0.9933 0.9930 0.9930 0.9930 0.9930
3681.088969 0.9930 0.9930 0.9930 0.9930 0.9932
3685.441855 0.9937 0.9940 0.9940 0.9942 0.9947
3689.794741 0.9954 0.9964 0.9970 0.9970 0.9972
3694.147627 0.9977 0.9980 0.9980 0.9984 0.9994
3698.500512 1.0000 1.0000 1.0000 1.0000 0.9996
3702.853398 0.9986 0.9974 0.9959 0.9948 0.9943
3707.206284 0.9940 0.9940 0.9938 0.9933 0.9930
3711.559170 0.9930 0.9930 0.9930 0.9930 0.9930
3715.912056 0.9932 0.9937 0.9940 0.9940 0.9940
3720.264942 0.9940 0.9940 0.9940 0.9942 0.9947
3724.617828 0.9954 0.9964 0.9970 0.9970 0.9972
3728.970714 0.9977 0.9980 0.9980 0.9984 0.9994
3733.323600 1.0000 1.0000 1.0000 1.0000 1.0000
3737.676486 1.0000 1.0000 1.0000 1.0000 1.0000
3742.029371 0.9996 0.9986 0.9980 0.9980 0.9980
3746.382257 0.9980 0.9978 0.9973 0.9970 0.9970
3750.735143 0.9966 0.9956 0.9950 0.9950 0.9950
3755.088029 0.9950 0.9948 0.9943 0.9940 0.9940
3759.440915 0.9940 0.9940 0.9940 0.9940 0.9940
3763.793801 0.9940 0.9940 0.9940 0.9940 0.9940
3768.146687 0.9938 0.9933 0.9930 0.9930 0.9930
3772.499573 0.9930 0.9930 0.9930 0.9930 0.9930
3776.852459 0.9930 0.9930 0.9930 0.9930 0.9930
3781.205345 0.9930 0.9930 0.9930 0.9930 0.9930
3785.558230 0.9930 0.9930 0.9930 0.9930 0.9930
3789.911116 0.9930 0.9930 0.9930 0.9930 0.9930
3794.264002 0.9930 0.9930 0.9930 0.9930
##END=
