##TITLE=BENZENE, Beta-DEUTEROETHYNYL-
##JCAMP-DX=4.24
##DATA TYPE=INFRARED SPECTRUM
##CLASS=COBLENTZ
##ORIGIN=DOW CHEMICAL COMPANY
##OWNER=COBLENTZ SOCIETY
Collection (C) 2018 copyright by the U.S. Secretary of Commerce
on behalf of the United States of America. All rights reserved.
##DATE=1960
##NAMES=ethynylbenzene
##MOLFORM=C8 H5 D
##SOURCE REFERENCE=COBLENTZ NO. 10491
##$NIST ID=B6010491
##$NIST SOURCE=COBLENTZ
##$NIST IMAGE=cob10491
##SPECTROMETER/DATA SYSTEM=Not specified, most likely a prism, grating, or hybrid spectrometer.
##STATE=GAS (VAPOR PRESSURE OF LIQUID AT ROOM TEMPERATURE)
##PATH LENGTH=400 CM CELL
$$ SPECTRAL CONTAMINATION DUE TO C6H5CH AT 3335, 1230, 1219, 645, AND 613 CM^-^1
$$ SEE SPECTRUM NO. 10137 FOR "SOLUTION" STATE
##SAMPLING PROCEDURE=TRANSMISSION
##RESOLUTION=4
##DATA PROCESSING=DIGITIZED BY NIST FROM HARD COPY (FROM TWO SEGMENTS)
##XUNITS=1/CM
##YUNITS=TRANSMITTANCE
##XFACTOR=1.000000
##YFACTOR=1
##DELTAX=0.854702
##FIRSTX=451.282
##LASTX=3798.29
##FIRSTY=0.932
##MAXX=3798.29
##MINX=451.282
##MAXY=1.055
##MINY=0
##NPOINTS=3917
##XYDATA=(X++(Y..Y))
451.282000 0.9320 0.9300 0.9290 0.9280 0.9250
455.555508 0.9200 0.9170 0.9140 0.9100 0.9080
459.829016 0.9010 0.8930 0.8810 0.8670 0.8520
464.102524 0.8360 0.7842 0.7422 0.7161 0.6991
468.376033 0.4580 0.3860 0.2991 0.1323 0.1130
472.649541 0.1030 0.0930 0.0731 0.0591 0.0461
476.923049 0.0330 0.0190 0.0070 0.0060 0.0090
481.196557 0.0190 0.0389 0.0549 0.0580 0.0610
485.470065 0.0650 0.0660 0.1429 0.2219 0.2649
489.743573 0.3528 0.4597 0.6304 0.6380 0.6698
494.017081 0.7270 0.7670 0.8040 0.8350 0.9098
498.290589 0.9299 0.9440 0.9530 0.9679 0.9859
502.564098 0.9900 0.9920 0.9920 0.9900 0.9880
506.837606 0.9840 0.9800 0.9780 0.9760 0.9730
511.111114 0.9690 0.9620 0.9610 0.9560 0.9360
515.384622 0.9131 0.8931 0.8641 0.8431 0.7893
519.658130 0.7480 0.6780 0.5971 0.5291 0.4681
523.931638 0.4211 0.4060 0.4010 0.3960 0.3920
528.205146 0.2240 0.1740 0.1151 0.0571 0.2336
532.478654 0.2919 0.4086 0.4518 0.4620 0.4839
536.752163 0.5030 0.5250 0.5380 0.5969 0.6349
541.025671 0.6699 0.7238 0.7429 0.7848 0.8368
545.299179 0.8930 0.9080 0.9200 0.9260 0.9529
549.572687 0.9640 0.9780 0.9880 0.9930 1.0020
553.846195 1.0060 1.0130 1.0180 1.0190 1.0230
558.119703 1.0250 1.0260 1.0270 1.0300 1.0330
562.393211 1.0340 1.0350 1.0410 1.0470 1.0500
566.666719 1.0490 1.0470 1.0460 1.0450 1.0470
570.940228 1.0500 1.0540 1.0530 1.0530 1.0470
575.213736 1.0470 1.0500 1.0510 1.0510 1.0510
579.487244 1.0530 1.0530 1.0540 1.0540 1.0550
583.760752 1.0550 1.0540 1.0490 1.0510 1.0530
588.034260 1.0530 1.0510 1.0490 1.0470 1.0450
592.307768 1.0450 1.0430 1.0380 1.0310 1.0310
596.581276 1.0290 1.0250 1.0190 1.0100 1.0020
600.854784 0.9980 0.9940 0.9890 0.9850 0.9810
605.128293 0.9780 0.9770 0.9760 0.9600 0.9560
609.401801 0.9241 0.8692 0.8252 0.7553 0.6843
613.675309 0.6860 0.8080 0.9099 0.9120 0.8651
617.948817 0.8351 0.8350 0.8749 0.8760 0.8780
622.222325 0.8800 0.8800 0.8850 0.9040 0.9210
626.495833 0.9410 0.9570 0.9769 0.9820 1.0009
630.769341 1.0060 1.0100 1.0100 1.0000 0.9890
635.042850 0.9780 0.9620 0.9560 0.9371 0.9241
639.316358 0.9210 0.9020 0.8920 0.8590 0.8350
643.589866 0.7921 0.7750 0.7750 0.8288 0.8320
647.863374 0.9170 0.9500 0.9500 0.9240 0.9090
652.136882 0.8930 0.8890 0.8850 0.8820 0.8810
656.410390 0.8810 0.8800 0.8780 0.8770 0.8750
660.683898 0.8690 0.8650 0.8550 0.8401 0.8360
664.957406 0.8320 0.8150 0.7810 0.7121 0.6840
669.230915 0.6800 0.6621 0.6321 0.5453 0.5141
673.504423 0.4680 0.4560 0.4290 0.4060 0.3631
677.777931 0.3401 0.3270 0.2931 0.2801 0.2531
682.051439 0.2440 0.2260 0.2060 0.1760 0.1760
686.324947 0.1870 0.2030 0.2030 0.1064 0.0074
690.598455 0.0071 0.1280 0.1880 0.1870 0.1710
694.871963 0.1710 0.1909 0.2040 0.2060 0.2070
699.145471 0.2270 0.2400 0.2930 0.3160 0.3310
703.418980 0.3400 0.3629 0.4049 0.4249 0.4688
707.692488 0.5110 0.5350 0.5490 0.6009 0.6619
711.965996 0.7069 0.7240 0.7469 0.7669 0.8267
716.239504 0.8440 0.8650 0.8840 0.8860 0.8900
720.513012 0.9419 0.9490 0.9640 0.9650 0.9779
724.786520 0.9780 0.9650 0.9640 0.9560 0.9460
729.060028 0.9440 0.9211 0.8971 0.8761 0.8352
733.333536 0.8130 0.7690 0.7300 0.6801 0.6221
737.607045 0.5751 0.5192 0.4901 0.4252 0.3115
741.880553 0.2890 0.2480 0.2030 0.1660 0.1510
746.154061 0.1171 0.1020 0.1010 0.0940 0.0860
750.427569 0.0670 0.0650 0.0630 0.0630 0.0610
754.701077 0.0311 0.0170 0.0070 0.0000 0.0000
758.974585 0.0330 0.0620 0.0650 0.0650 0.0650
763.248093 0.0650 0.0660 0.0700 0.0730 0.1049
767.521601 0.1280 0.1510 0.1820 0.2060 0.2809
771.795110 0.3040 0.3389 0.3779 0.4179 0.4578
776.068618 0.5110 0.5510 0.5930 0.6340 0.6709
780.342126 0.7349 0.7689 0.8328 0.8549 0.8769
784.615634 0.8970 0.9240 0.9330 0.9360 0.9640
788.889142 0.9660 0.9690 0.9740 0.9840 0.9890
793.162650 0.9890 0.9780 0.9820 0.9860 0.9900
797.436158 0.9840 0.9820 0.9800 0.9810 0.9860
801.709667 0.9900 0.9920 0.9920 0.9850 0.9820
805.983175 0.9800 0.9820 0.9890 0.9880 0.9940
810.256683 0.9820 0.9810 0.9800 0.9770 0.9740
814.530191 0.9730 0.9680 0.9650 0.9620 0.9640
818.803699 0.9720 0.9720 0.9730 0.9770 0.9740
823.077207 0.9650 0.9570 0.9560 0.9570 0.9580
827.350715 0.9640 0.9730 0.9760 0.9780 0.9860
831.624223 0.9800 0.9800 0.9820 0.9860 0.9880
835.897732 1.0020 1.0030 1.0060 1.0070 1.0090
840.171240 1.0090 1.0100 1.0110 1.0130 1.0130
844.444748 1.0110 1.0100 1.0100 1.0100 1.0090
848.718256 1.0090 1.0070 1.0060 1.0050 1.0030
852.991764 1.0020 1.0010 1.0010 1.0000 0.9980
857.265272 0.9900 0.9880 0.9810 0.9760 0.9660
861.538780 0.9560 0.9480 0.9460 0.9400 0.9330
865.812288 0.9330 0.9340 0.9340 0.9340 0.9330
870.085797 0.9320 0.9160 0.9120 0.9090 0.9060
874.359305 0.9040 0.9020 0.9000 0.8960 0.8920
878.632813 0.8850 0.8820 0.8760 0.8840 0.8860
882.906321 0.8890 0.8940 0.9119 0.9130 0.9170
887.179829 0.9240 0.9210 0.9200 0.9140 0.9130
891.453337 0.9090 0.9080 0.9090 0.9130 0.9160
895.726845 0.9180 0.9240 0.9240 0.9220 0.9200
900.000353 0.9080 0.9010 0.8930 0.8840 0.8820
904.273862 0.8730 0.8610 0.8590 0.8510 0.8470
908.547370 0.8430 0.8430 0.8400 0.8320 0.8280
912.820878 0.8270 0.8170 0.7990 0.7950 0.5343
917.094386 0.5340 0.7705 0.8448 0.8510 0.8520
921.367894 0.8510 0.8440 0.8440 0.8470 0.8510
925.641402 0.8520 0.8530 0.8570 0.8650 0.8730
929.914910 0.8780 0.8840 0.8860 0.8980 0.9010
934.188418 0.9080 0.9210 0.9300 0.9340 0.9360
938.461927 0.9330 0.9290 0.9250 0.9180 0.9050
942.735435 0.8900 0.8721 0.8371 0.8071 0.7602
947.008943 0.7100 0.6390 0.5791 0.5291 0.4771
951.282451 0.4411 0.4410 0.4520 0.4560 0.4689
955.555959 0.4930 0.5290 0.5020 0.4770 0.4770
959.829467 0.5229 0.5061 0.4960 0.4930 0.4960
964.102975 0.5190 0.5490 0.5790 0.6479 0.6919
968.376483 0.7279 0.7828 0.8199 0.8718 0.8820
972.649992 0.9090 0.9130 0.9130 0.9180 0.9280
976.923500 0.9330 0.9370 0.9370 0.9280 0.9300
981.197008 0.9330 0.9340 0.9320 0.9330 0.9250
985.470516 0.9240 0.9250 0.9330 0.9440 0.9440
989.744024 0.9370 0.9360 0.9320 0.9280 0.9260
994.017532 0.9250 0.9240 0.9240 0.9220 0.9200
998.291040 0.9160 0.9120 0.9020 0.8930 0.8720
1002.564549 0.8600 0.8391 0.8320 0.8151 0.8001
1006.838057 0.7950 0.7870 0.7800 0.7790 0.7690
1011.111565 0.7520 0.7341 0.7569 0.7510 0.7420
1015.385073 0.7120 0.6940 0.6790 0.6640 0.6620
1019.658581 0.6580 0.6620 0.6640 0.6839 0.6920
1023.932089 0.7030 0.7070 0.7080 0.7140 0.7030
1028.205597 0.6920 0.6860 0.6840 0.6860 0.6950
1032.479105 0.7240 0.7350 0.7470 0.7500 0.7590
1036.752614 0.7770 0.7890 0.8089 0.8160 0.8170
1041.026122 0.8190 0.8230 0.8370 0.8560 0.8590
1045.299630 0.8720 0.8850 0.8920 0.8920 0.8880
1049.573138 0.8860 0.8810 0.8760 0.8730 0.8680
1053.846646 0.8590 0.8550 0.8510 0.8331 0.8131
1058.120154 0.7990 0.7950 0.7920 0.7760 0.7630
1062.393662 0.7480 0.7420 0.7300 0.7230 0.7200
1066.667170 0.7200 0.7270 0.7430 0.7600 0.7770
1070.940679 0.7840 0.7870 0.7870 0.7352 0.7231
1075.214187 0.7230 0.7260 0.7280 0.7350 0.7480
1079.487695 0.7600 0.7680 0.7949 0.8030 0.8130
1083.761203 0.8200 0.8310 0.8330 0.8410 0.8440
1088.034711 0.8480 0.8510 0.8510 0.8530 0.8550
1092.308219 0.8590 0.8600 0.8630 0.8650 0.8670
1096.581727 0.8710 0.8750 0.8770 0.8770 0.8760
1100.855235 0.8750 0.8730 0.8730 0.8750 0.8770
1105.128744 0.8800 0.8840 0.8920 0.8980 0.9020
1109.402252 0.9020 0.9060 0.9130 0.9140 0.9170
1113.675760 0.9210 0.9220 0.9260 0.9330 0.9340
1117.949268 0.9340 0.9360 0.9370 0.9370 0.9450
1122.222776 0.9450 0.9420 0.9420 0.9410 0.9360
1126.496284 0.9440 0.9440 0.9440 0.9450 0.9450
1130.769792 0.9360 0.9360 0.9500 0.9500 0.9400
1135.043300 0.9400 0.9380 0.9360 0.9340 0.9340
1139.316809 0.9290 0.9220 0.9200 0.9160 0.9140
1143.590317 0.9140 0.9120 0.9120 0.9220 0.9290
1147.863825 0.9290 0.9200 0.9180 0.9160 0.9130
1152.137333 0.9100 0.9090 0.9080 0.9060 0.9060
1156.410841 0.9080 0.9090 0.9060 0.9050 0.9020
1160.684349 0.9020 0.9000 0.8980 0.8930 0.8920
1164.957857 0.8920 0.8890 0.8890 0.8890 0.8880
1169.231366 0.8860 0.8850 0.8840 0.8820 0.8780
1173.504874 0.8780 0.8840 0.8820 0.8770 0.8710
1177.778382 0.8650 0.8600 0.8560 0.8550 0.8350
1182.051890 0.8210 0.8160 0.8130 0.8120 0.8070
1186.325398 0.8010 0.7920 0.7920 0.8110 0.8150
1190.598906 0.8230 0.8320 0.7881 0.7880 0.8248
1194.872414 0.8360 0.8360 0.8160 0.8050 0.8030
1199.145922 0.8070 0.8210 0.8409 0.8669 0.8889
1203.419431 0.9040 0.9060 0.9220 0.9320 0.9290
1207.692939 0.9290 0.9260 0.9210 0.9180 0.9130
1211.966447 0.9010 0.8900 0.8850 0.8760 0.8670
1216.239955 0.8560 0.8450 0.8440 0.8390 0.8390
1220.513463 0.8430 0.8510 0.8530 0.8670 0.8650
1224.786971 0.8610 0.8570 0.8560 0.8520 0.8391
1229.060479 0.8390 0.8440 0.8550 0.8600 0.8680
1233.333987 0.8730 0.8760 0.8919 0.8970 0.9020
1237.607496 0.9050 0.8980 0.8940 0.9010 0.9050
1241.881004 0.9080 0.9090 0.9120 0.9050 0.9040
1246.154512 0.9080 0.9100 0.9130 0.9120 0.9140
1250.428020 0.9200 0.9250 0.9280 0.9250 0.9250
1254.701528 0.9250 0.9220 0.9290 0.9290 0.9210
1258.975036 0.9160 0.9130 0.9130 0.9090 0.9060
1263.248544 0.9060 0.9040 0.9040 0.9040 0.9020
1267.522052 0.9000 0.8970 0.8940 0.8900 0.8860
1271.795561 0.8820 0.8770 0.8770 0.8810 0.8810
1276.069069 0.8820 0.8940 0.9020 0.8970 0.8900
1280.342577 0.8860 0.8760 0.8760 0.8780 0.8780
1284.616085 0.8770 0.8770 0.8800 0.8920 0.8930
1288.889593 0.8940 0.8940 0.8960 0.8940 0.8930
1293.163101 0.8920 0.8900 0.8890 0.8880 0.8900
1297.436609 0.8940 0.8940 0.8940 0.8980 0.8980
1301.710117 0.8920 0.8890 0.8920 0.8960 0.8970
1305.983626 0.9000 0.9010 0.9020 0.9020 0.8970
1310.257134 0.8930 0.8930 0.9020 0.9050 0.9060
1314.530642 0.9040 0.8920 0.8880 0.8880 0.8930
1318.804150 0.8940 0.8860 0.8800 0.8800 0.8929
1323.077658 0.8920 0.8900 0.8890 0.8860 0.8850
1327.351166 0.8850 0.8810 0.8840 0.8850 0.8900
1331.624674 0.8920 0.8930 0.8930 0.8930 0.8930
1335.898183 0.8930 0.8920 0.8561 0.8510 0.8480
1340.171691 0.8410 0.8330 0.8370 0.8470 0.8530
1344.445199 0.8680 0.8640 0.8630 0.8630 0.8630
1348.718707 0.8600 0.8590 0.8550 0.8530 0.8530
1352.992215 0.8520 0.8510 0.8490 0.8450 0.8440
1357.265723 0.8360 0.8330 0.8280 0.8250 0.8250
1361.539231 0.8370 0.8350 0.8200 0.8190 0.7951
1365.812739 0.7950 0.8200 0.8200 0.8120 0.8120
1370.086248 0.8110 0.8080 0.8040 0.8030 0.8010
1374.359756 0.8000 0.7990 0.7970 0.7990 0.8050
1378.633264 0.8130 0.8150 0.8200 0.8290 0.8330
1382.906772 0.8350 0.8390 0.8430 0.8430 0.8400
1387.180280 0.8390 0.8310 0.8230 0.8230 0.8320
1391.453788 0.8400 0.8430 0.8520 0.8440 0.8440
1395.727296 0.8240 0.8240 0.8410 0.8440 0.8440
1400.000804 0.8230 0.8230 0.8360 0.8530 0.8550
1404.274313 0.8530 0.8510 0.8370 0.8370 0.8509
1408.547821 0.8530 0.8450 0.8450 0.8560 0.8560
1412.821329 0.8490 0.8490 0.8550 0.8550 0.8600
1417.094837 0.8600 0.8360 0.8320 0.8250 0.8070
1421.368345 0.8070 0.8399 0.8400 0.8151 0.8090
1425.641853 0.8090 0.8230 0.8200 0.8160 0.8070
1429.915361 0.8050 0.7970 0.7681 0.7570 0.7520
1434.188869 0.7400 0.7280 0.6910 0.6480 0.6460
1438.462378 0.6440 0.6420 0.6360 0.6101 0.5941
1442.735886 0.5940 0.6030 0.6170 0.6340 0.6600
1447.009394 0.6909 0.7020 0.6641 0.6431 0.6310
1451.282902 0.6010 0.5890 0.5980 0.6070 0.6320
1455.556410 0.6510 0.6749 0.6900 0.6910 0.7069
1459.829918 0.7230 0.7260 0.7420 0.7530 0.7760
1464.103426 0.7760 0.7800 0.7810 0.7601 0.7839
1468.376934 0.7990 0.8010 0.8050 0.8110 0.8120
1472.650443 0.8010 0.7641 0.7750 0.7750 0.7770
1476.923951 0.7600 0.7310 0.7180 0.7120 0.6860
1481.197459 0.6011 0.5132 0.4223 0.3532 0.2614
1485.470967 0.2390 0.2190 0.2180 0.2190 0.2160
1489.744475 0.2100 0.2160 0.2240 0.2360 0.2430
1494.017983 0.2561 0.3070 0.2560 0.2280 0.2020
1498.291491 0.2020 0.2439 0.2949 0.3319 0.3778
1502.565000 0.4881 0.5900 0.6310 0.6750 0.7070
1506.838508 0.7080 0.7100 0.7160 0.7240 0.7389
1511.112016 0.7510 0.7610 0.7640 0.7670 0.7670
1515.385524 0.7730 0.7520 0.7510 0.7351 0.7350
1519.659032 0.7680 0.7790 0.7510 0.7510 0.7630
1523.932540 0.7710 0.7710 0.7929 0.7960 0.7960
1528.206048 0.8050 0.7990 0.8050 0.8330 0.8330
1532.479556 0.8240 0.8000 0.7930 0.7771 0.7890
1536.753065 0.8110 0.8120 0.8310 0.7910 0.7750
1541.026573 0.7750 0.7950 0.8070 0.8150 0.8120
1545.300081 0.8150 0.8150 0.8230 0.8430 0.8530
1549.573589 0.8530 0.8241 0.8240 0.8509 0.8490
1553.847097 0.8450 0.8110 0.8090 0.8400 0.8400
1558.120605 0.7961 0.7800 0.7800 0.7850 0.8049
1562.394113 0.8400 0.8400 0.8360 0.8310 0.7990
1566.667621 0.7990 0.8309 0.8270 0.8240 0.7851
1570.941130 0.7600 0.7960 0.7930 0.7930 0.7880
1575.214638 0.7850 0.7730 0.7261 0.7390 0.7789
1579.488146 0.7840 0.7930 0.7930 0.7760 0.7610
1583.761654 0.7380 0.7300 0.7230 0.7220 0.7200
1588.035162 0.7190 0.7160 0.7160 0.7150 0.7070
1592.308670 0.6960 0.6910 0.6780 0.6511 0.6341
1596.582178 0.6230 0.6180 0.6130 0.6090 0.6090
1600.855686 0.5750 0.5900 0.6129 0.6349 0.6460
1605.129195 0.6460 0.6520 0.6420 0.6460 0.6660
1609.402703 0.6760 0.6910 0.7119 0.7240 0.7380
1613.676211 0.7710 0.7760 0.7790 0.7800 0.7840
1617.949719 0.8150 0.8320 0.8350 0.8360 0.8450
1622.223227 0.8450 0.8150 0.8150 0.8410 0.8490
1626.496735 0.8490 0.8270 0.8190 0.8409 0.8440
1630.770243 0.8440 0.8450 0.8450 0.8430 0.8110
1635.043751 0.7880 0.7880 0.8319 0.8350 0.8370
1639.317260 0.8400 0.8490 0.8490 0.8510 0.8510
1643.590768 0.8430 0.8280 0.8110 0.8110 0.8190
1647.864276 0.8230 0.8450 0.8450 0.8410 0.8230
1652.137784 0.7850 0.7810 0.8239 0.8280 0.8320
1656.411292 0.8320 0.8290 0.8250 0.8230 0.8130
1660.684800 0.8040 0.7870 0.7720 0.7690 0.7680
1664.958308 0.7710 0.7730 0.7730 0.7600 0.7570
1669.231817 0.7420 0.7390 0.7420 0.7929 0.7751
1673.505325 0.7600 0.7470 0.7630 0.7790 0.7810
1677.778833 0.7850 0.7930 0.7930 0.8169 0.8170
1682.052341 0.7880 0.7840 0.7840 0.8040 0.8400
1686.325849 0.8430 0.8270 0.8280 0.8290 0.8400
1690.599357 0.8490 0.8450 0.8410 0.8310 0.8040
1694.872865 0.8010 0.8040 0.8309 0.8320 0.8091
1699.146373 0.7890 0.7880 0.7890 0.8320 0.8390
1703.419882 0.8230 0.8130 0.8120 0.8150 0.8230
1707.693390 0.8350 0.8370 0.8320 0.8120 0.8320
1711.966898 0.8170 0.8040 0.7970 0.7950 0.7930
1716.240406 0.7710 0.7710 0.7760 0.7910 0.7950
1720.513914 0.7970 0.7970 0.7930 0.7870 0.7830
1724.787422 0.7800 0.7790 0.7760 0.7690 0.7500
1729.060930 0.7430 0.7390 0.7390 0.7340 0.7190
1733.334438 0.7190 0.7320 0.7420 0.7570 0.7510
1737.607947 0.7440 0.7420 0.7390 0.7320 0.7220
1741.881455 0.7200 0.7140 0.7080 0.7070 0.7070
1746.154963 0.7100 0.7150 0.7200 0.7260 0.7280
1750.428471 0.7180 0.7310 0.7420 0.7560 0.7610
1754.701979 0.7500 0.7390 0.7390 0.7440 0.7470
1758.975487 0.7470 0.7480 0.7530 0.7630 0.7790
1763.248995 0.7890 0.7960 0.8030 0.8120 0.8150
1767.522503 0.7850 0.7850 0.8200 0.8230 0.7930
1771.796012 0.7930 0.8110 0.8230 0.8240 0.8330
1776.069520 0.8370 0.8370 0.8320 0.8290 0.8280
1780.343028 0.8290 0.8310 0.8360 0.8400 0.8400
1784.616536 0.8330 0.8330 0.8330 0.8320 0.8240
1788.890044 0.8150 0.8070 0.7990 0.7801 0.7760
1793.163552 0.7750 0.7730 0.7610 0.7590 0.7600
1797.437060 0.7550 0.7510 0.7480 0.7460 0.7430
1801.710568 0.7400 0.7380 0.7430 0.7670 0.7670
1805.984077 0.7520 0.7520 0.7480 0.7460 0.7440
1810.257585 0.7460 0.7560 0.7830 0.7950 0.8050
1814.531093 0.8070 0.8120 0.8130 0.8150 0.8200
1818.804601 0.8240 0.8250 0.8270 0.8240 0.8210
1823.078109 0.8050 0.7910 0.7910 0.7950 0.8070
1827.351617 0.8080 0.8190 0.7960 0.8120 0.8190
1831.625125 0.8310 0.8330 0.8350 0.8330 0.8310
1835.898633 0.8280 0.8310 0.8330 0.8400 0.8490
1840.172142 0.8510 0.8510 0.8480 0.8430 0.8131
1844.445650 0.8130 0.8330 0.8470 0.8490 0.8490
1848.719158 0.8490 0.8490 0.8480 0.8480 0.8470
1852.992666 0.8450 0.8450 0.8440 0.8430 0.8390
1857.266174 0.8360 0.8350 0.8330 0.8330 0.8320
1861.539682 0.8310 0.8280 0.8240 0.8230 0.8200
1865.813190 0.8050 0.8030 0.7960 0.7920 0.7910
1870.086699 0.7880 0.7870 0.7830 0.7790 0.7770
1874.360207 0.7770 0.7750 0.7750 0.7800 0.7810
1878.633715 0.7840 0.7870 0.7930 0.7910 0.7850
1882.907223 0.7690 0.7600 0.7510 0.7480 0.7460
1887.180731 0.7420 0.7390 0.7380 0.7240 0.7360
1891.454239 0.7380 0.7400 0.7440 0.7550 0.7590
1895.727747 0.7670 0.7520 0.7520 0.7650 0.7770
1900.001255 0.7930 0.7870 0.7840 0.7830 0.7800
1904.274764 0.7830 0.7890 0.8080 0.8160 0.8200
1908.548272 0.8230 0.8330 0.8350 0.8400 0.8430
1912.821780 0.8440 0.8450 0.8450 0.8450 0.8450
1917.095288 0.8440 0.8430 0.8400 0.8290 0.8400
1921.368796 0.8390 0.8370 0.8160 0.8360 0.8350
1925.642304 0.8350 0.8330 0.8310 0.8290 0.8250
1929.915812 0.8230 0.8210 0.8200 0.8160 0.8090
1934.189320 0.8080 0.7970 0.7960 0.7840 0.7810
1938.462829 0.7760 0.7730 0.7650 0.7630 0.7550
1942.736337 0.7500 0.7420 0.7500 0.7520 0.7560
1947.009845 0.7650 0.7690 0.7730 0.7750 0.7760
1951.283353 0.7630 0.7480 0.7460 0.7390 0.7360
1955.556861 0.7310 0.7310 0.7360 0.7400 0.7650
1959.830369 0.7650 0.7470 0.7470 0.7510 0.7550
1964.103877 0.7560 0.7570 0.7670 0.7640 0.7510
1968.377385 0.7680 0.7870 0.7870 0.7840 0.7790
1972.650894 0.7760 0.7750 0.7770 0.7830 0.8010
1976.924402 0.8120 0.8250 0.8270 0.8320 0.8410
1981.197910 0.8400 0.8430 0.8470 0.8490 0.8490
1985.471418 0.8450 0.8450 0.8530 0.8570 0.8520
1989.744926 0.8480 0.8450 0.8450 0.8450 0.8430
1994.018434 0.8400 0.8330 0.8490 0.8490 0.8480
1998.291942 0.8440 0.8430 0.8440 0.8455 0.8470
2002.565450 0.8500 0.8531 0.8606 0.8681 0.8751
2006.838959 0.8820 0.8830 0.8840 0.8840 0.8840
2011.112467 0.8845 0.8850 0.8850 0.8850 0.8855
2015.385975 0.8860 0.8870 0.8880 0.8885 0.8890
2019.659483 0.8890 0.8890 0.8895 0.8900 0.8900
2023.932991 0.8898 0.8873 0.8849 0.8834 0.8821
2028.206499 0.8836 0.8852 0.8872 0.8890 0.8890
2032.480007 0.8890 0.8896 0.8900 0.8900 0.8899
2036.753516 0.8889 0.8880 0.8880 0.8879 0.8869
2041.027024 0.8857 0.8837 0.8823 0.8843 0.8862
2045.300532 0.8877 0.8890 0.8890 0.8889 0.8884
2049.574040 0.8880 0.8880 0.8880 0.8880 0.8880
2053.847548 0.8880 0.8878 0.8868 0.8859 0.8854
2058.121056 0.8847 0.8832 0.8818 0.8808 0.8801
2062.394564 0.8806 0.8813 0.8828 0.8844 0.8864
2066.668072 0.8880 0.8880 0.8875 0.8855 0.8840
2070.941581 0.8840 0.8840 0.8840 0.8838 0.8828
2075.215089 0.8822 0.8832 0.8840 0.8840 0.8841
2079.488597 0.8846 0.8850 0.8850 0.8850 0.8850
2083.762105 0.8851 0.8856 0.8863 0.8873 0.8881
2088.035613 0.8886 0.8890 0.8890 0.8889 0.8884
2092.309121 0.8875 0.8860 0.8845 0.8830 0.8817
2096.582629 0.8807 0.8800 0.8800 0.8800 0.8800
2100.856137 0.8800 0.8800 0.8800 0.8800 0.8797
2105.129646 0.8787 0.8776 0.8766 0.8755 0.8740
2109.403154 0.8728 0.8723 0.8720 0.8720 0.8720
2113.676662 0.8720 0.8718 0.8713 0.8710 0.8710
2117.950170 0.8697 0.8661 0.8634 0.8619 0.8606
2122.223678 0.8596 0.8584 0.8569 0.8558 0.8553
2126.497186 0.8546 0.8536 0.8530 0.8530 0.8528
2130.770694 0.8523 0.8522 0.8527 0.8534 0.8544
2135.044202 0.8559 0.8579 0.8595 0.8605 0.8615
2139.317711 0.8625 0.8635 0.8645 0.8657 0.8672
2143.591219 0.8680 0.8680 0.8682 0.8687 0.8690
2147.864727 0.8690 0.8688 0.8683 0.8673 0.8658
2152.138235 0.8667 0.8703 0.8720 0.8720 0.8723
2156.411743 0.8728 0.8730 0.8730 0.8730 0.8730
2160.685251 0.8730 0.8730 0.8725 0.8715 0.8702
2164.958759 0.8687 0.8688 0.8703 0.8702 0.8687
2169.232267 0.8672 0.8657 0.8647 0.8642 0.8654
2173.505776 0.8679 0.8702 0.8722 0.8730 0.8730
2177.779284 0.8727 0.8722 0.8720 0.8720 0.8720
2182.052792 0.8720 0.8717 0.8712 0.8710 0.8710
2186.326300 0.8710 0.8710 0.8704 0.8694 0.8684
2190.599808 0.8674 0.8670 0.8670 0.8673 0.8678
2194.873316 0.8683 0.8688 0.8690 0.8690 0.8697
2199.146824 0.8707 0.8713 0.8718 0.8720 0.8720
2203.420333 0.8717 0.8712 0.8700 0.8685 0.8666
2207.693841 0.8646 0.8657 0.8682 0.8697 0.8707
2211.967349 0.8714 0.8719 0.8716 0.8711 0.8703
2216.240857 0.8693 0.8690 0.8690 0.8686 0.8681
2220.514365 0.8676 0.8671 0.8663 0.8653 0.8650
2224.787873 0.8650 0.8650 0.8650 0.8650 0.8650
2229.061381 0.8658 0.8668 0.8674 0.8679 0.8684
2233.334889 0.8689 0.8690 0.8690 0.8686 0.8681
2237.608398 0.8676 0.8671 0.8670 0.8670 0.8654
2241.881906 0.8634 0.8614 0.8594 0.8578 0.8563
2246.155414 0.8548 0.8533 0.8526 0.8521 0.8508
2250.428922 0.8493 0.8502 0.8517 0.8553 0.8593
2254.702430 0.8600 0.8600 0.8583 0.8563 0.8560
2258.975938 0.8560 0.8560 0.8560 0.8560 0.8560
2263.249446 0.8538 0.8513 0.8479 0.8444 0.8440
2267.522954 0.8440 0.8506 0.8581 0.8594 0.8599
2271.796463 0.8596 0.8590 0.8576 0.8561 0.8542
2276.069971 0.8522 0.8506 0.8491 0.8490 0.8490
2280.343479 0.8518 0.8548 0.8559 0.8569 0.8570
2284.616987 0.8570 0.8547 0.8521 0.8515 0.8510
2288.890495 0.8515 0.8520 0.8544 0.8569 0.8599
2293.164003 0.8629 0.8635 0.8640 0.8635 0.8630
2297.437511 0.8615 0.8600 0.8585 0.8570 0.8570
2301.711019 0.8570 0.8585 0.8600 0.8615 0.8630
2305.984528 0.8650 0.8670 0.8670 0.8670 0.8660
2310.258036 0.8649 0.8624 0.8599 0.8564 0.8529
2314.531544 0.8499 0.8469 0.8439 0.8408 0.8363
2318.805052 0.8322 0.8367 0.8412 0.8452 0.8485
2323.078560 0.8399 0.8317 0.8282 0.8250 0.8250
2327.352068 0.8251 0.8261 0.8270 0.8270 0.8272
2331.625576 0.8292 0.8311 0.8321 0.8330 0.8330
2335.899084 0.8331 0.8341 0.8350 0.8350 0.8350
2340.172593 0.8350 0.8349 0.8339 0.8330 0.8330
2344.446101 0.8329 0.8324 0.8319 0.8314 0.8307
2348.719609 0.8287 0.8267 0.8247 0.8224 0.8183
2352.993117 0.8157 0.8197 0.8241 0.8306 0.8360
2357.266625 0.8360 0.8363 0.8378 0.8392 0.8402
2361.540133 0.8414 0.8434 0.8450 0.8450 0.8449
2365.813641 0.8444 0.8440 0.8440 0.8440 0.8440
2370.087150 0.8440 0.8440 0.8441 0.8446 0.8453
2374.360658 0.8469 0.8485 0.8505 0.8520 0.8520
2378.634166 0.8521 0.8526 0.8530 0.8530 0.8533
2382.907674 0.8543 0.8550 0.8550 0.8547 0.8537
2387.181182 0.8529 0.8524 0.8519 0.8514 0.8511
2391.454690 0.8517 0.8522 0.8527 0.8533 0.8543
2395.728198 0.8552 0.8557 0.8560 0.8560 0.8560
2400.001706 0.8560 0.8562 0.8567 0.8573 0.8583
2404.275215 0.8587 0.8577 0.8567 0.8557 0.8550
2408.548723 0.8550 0.8550 0.8550 0.8550 0.8550
2412.822231 0.8550 0.8550 0.8552 0.8557 0.8560
2417.095739 0.8560 0.8558 0.8553 0.8546 0.8536
2421.369247 0.8528 0.8523 0.8520 0.8520 0.8514
2425.642755 0.8499 0.8494 0.8504 0.8512 0.8517
2429.916263 0.8520 0.8520 0.8509 0.8484 0.8466
2434.189771 0.8456 0.8441 0.8421 0.8406 0.8396
2438.463280 0.8386 0.8375 0.8375 0.8385 0.8418
2442.736788 0.8478 0.8510 0.8510 0.8495 0.8465
2447.010296 0.8448 0.8443 0.8440 0.8440 0.8457
2451.283804 0.8492 0.8513 0.8518 0.8517 0.8512
2455.557312 0.8505 0.8495 0.8490 0.8490 0.8485
2459.830820 0.8475 0.8462 0.8447 0.8426 0.8401
2464.104328 0.8382 0.8367 0.8352 0.8337 0.8347
2468.377836 0.8377 0.8390 0.8390 0.8390 0.8390
2472.651345 0.8384 0.8374 0.8359 0.8339 0.8324
2476.924853 0.8314 0.8313 0.8318 0.8320 0.8320
2481.198361 0.8323 0.8328 0.8339 0.8354 0.8375
2485.471869 0.8400 0.8404 0.8394 0.8390 0.8390
2489.745377 0.8390 0.8390 0.8393 0.8398 0.8416
2494.018885 0.8441 0.8450 0.8450 0.8443 0.8433
2498.292393 0.8430 0.8430 0.8430 0.8430 0.8423
2502.565901 0.8413 0.8407 0.8402 0.8400 0.8400
2506.839410 0.8397 0.8392 0.8383 0.8373 0.8370
2511.112918 0.8370 0.8363 0.8353 0.8329 0.8299
2515.386426 0.8290 0.8290 0.8301 0.8316 0.8320
2519.659934 0.8320 0.8335 0.8355 0.8364 0.8369
2523.933442 0.8370 0.8370 0.8377 0.8387 0.8394
2528.206950 0.8399 0.8400 0.8400 0.8396 0.8391
2532.480458 0.8382 0.8372 0.8378 0.8388 0.8390
2536.753967 0.8390 0.8382 0.8372 0.8370 0.8370
2541.027475 0.8362 0.8352 0.8338 0.8323 0.8308
2545.300983 0.8293 0.8286 0.8281 0.8276 0.8271
2549.574491 0.8274 0.8279 0.8297 0.8317 0.8307
2553.847999 0.8292 0.8248 0.8198 0.8182 0.8172
2558.121507 0.8166 0.8161 0.8156 0.8151 0.8137
2562.395015 0.8122 0.8102 0.8082 0.8031 0.7976
2566.668523 0.7948 0.7923 0.7862 0.7797 0.7727
2570.942032 0.7657 0.7583 0.7508 0.7464 0.7424
2575.215540 0.7348 0.7267 0.7215 0.7164 0.7137
2579.489048 0.7112 0.6871 0.6616 0.6346 0.6076
2583.762556 0.5739 0.5398 0.5228 0.5068 0.4594
2588.036064 0.4103 0.3770 0.3444 0.2778 0.2097
2592.309572 0.1757 0.1431 0.1270 0.1115 0.1046
2596.583080 0.0981 0.0915 0.0850 0.0691 0.0530
2600.856588 0.0435 0.0340 0.0260 0.0180 0.0140
2605.130097 0.0100 0.0095 0.0090 0.0095 0.0100
2609.403605 0.0105 0.0111 0.0166 0.0220 0.0236
2613.677113 0.0273 0.0754 0.1222 0.1458 0.1737
2617.950621 0.2759 0.3766 0.4532 0.5280 0.5751
2622.224129 0.6232 0.6853 0.7451 0.7752 0.8030
2626.497637 0.8030 0.8033 0.8073 0.8112 0.8137
2630.771145 0.8161 0.8166 0.8171 0.8181 0.8191
2635.044653 0.8201 0.8210 0.8210 0.8212 0.8227
2639.318162 0.8241 0.8246 0.8250 0.8250 0.8249
2643.591670 0.8244 0.8239 0.8234 0.8228 0.8213
2647.865178 0.8199 0.8194 0.8188 0.8178 0.8170
2652.138686 0.8170 0.8172 0.8182 0.8191 0.8196
2656.412194 0.8200 0.8200 0.8203 0.8218 0.8235
2660.685702 0.8260 0.8283 0.8298 0.8311 0.8316
2664.959210 0.8319 0.8314 0.8303 0.8273 0.8249
2669.232718 0.8244 0.8239 0.8234 0.8231 0.8236
2673.506227 0.8245 0.8265 0.8281 0.8286 0.8284
2677.779735 0.8259 0.8234 0.8209 0.8201 0.8247
2682.053243 0.8280 0.8280 0.8276 0.8261 0.8247
2686.326751 0.8237 0.8227 0.8217 0.8210 0.8210
2690.600259 0.8209 0.8204 0.8200 0.8200 0.8200
2694.873767 0.8200 0.8200 0.8200 0.8200 0.8200
2699.147275 0.8207 0.8227 0.8240 0.8240 0.8252
2703.420784 0.8287 0.8310 0.8310 0.8300 0.8270
2707.694292 0.8250 0.8250 0.8250 0.8250 0.8246
2711.967800 0.8236 0.8219 0.8189 0.8188 0.8239
2716.241308 0.8270 0.8270 0.8278 0.8298 0.8298
2720.514816 0.8268 0.8240 0.8215 0.8192 0.8172
2724.788324 0.8150 0.8125 0.8126 0.8167 0.8190
2729.061832 0.8190 0.8186 0.8176 0.8168 0.8163
2733.335340 0.8151 0.8131 0.8113 0.8098 0.8088
2737.608849 0.8083 0.8080 0.8080 0.8108 0.8168
2741.882357 0.8200 0.8200 0.8184 0.8149 0.8128
2746.155865 0.8123 0.8118 0.8113 0.8100 0.8080
2750.429373 0.8083 0.8108 0.8107 0.8082 0.8055
2754.702881 0.8025 0.7995 0.7965 0.7984 0.8049
2758.976389 0.8077 0.8072 0.8065 0.8055 0.8050
2763.249897 0.8050 0.8050 0.8050 0.8050 0.8050
2767.523405 0.8047 0.8042 0.8043 0.8048 0.8059
2771.796914 0.8074 0.8083 0.8088 0.8099 0.8114
2776.070422 0.8120 0.8120 0.8120 0.8120 0.8120
2780.343930 0.8120 0.8129 0.8144 0.8150 0.8150
2784.617438 0.8141 0.8126 0.8111 0.8096 0.8090
2788.890946 0.8090 0.8090 0.8090 0.8090 0.8090
2793.164454 0.8087 0.8082 0.8077 0.8072 0.8073
2797.437962 0.8078 0.8090 0.8105 0.8113 0.8118
2801.711470 0.8123 0.8128 0.8140 0.8155 0.8150
2805.984979 0.8135 0.8140 0.8155 0.8163 0.8168
2810.258487 0.8170 0.8170 0.8170 0.8170 0.8177
2814.531995 0.8187 0.8194 0.8199 0.8182 0.8157
2818.805503 0.8143 0.8133 0.8126 0.8121 0.8120
2823.079011 0.8120 0.8120 0.8120 0.8124 0.8129
2827.352519 0.8137 0.8148 0.8169 0.8194 0.8200
2831.626027 0.8200 0.8185 0.8165 0.8148 0.8133
2835.899535 0.8126 0.8121 0.8120 0.8120 0.8116
2840.173044 0.8111 0.8094 0.8074 0.8070 0.8070
2844.446552 0.8090 0.8115 0.8116 0.8111 0.8110
2848.720060 0.8110 0.8094 0.8074 0.8062 0.8052
2852.993568 0.8046 0.8041 0.8036 0.8031 0.8017
2857.267076 0.8002 0.8000 0.8000 0.8000 0.8000
2861.540584 0.7996 0.7991 0.7981 0.7971 0.7970
2865.814092 0.7970 0.7961 0.7951 0.7950 0.7950
2870.087600 0.7941 0.7931 0.7930 0.7930 0.7930
2874.361109 0.7930 0.7930 0.7930 0.7925 0.7920
2878.634617 0.7920 0.7920 0.7920 0.7920 0.7906
2882.908125 0.7891 0.7885 0.7880 0.7875 0.7870
2887.181633 0.7860 0.7850 0.7845 0.7840 0.7835
2891.455141 0.7830 0.7811 0.7791 0.7780 0.7770
2895.728649 0.7770 0.7770 0.7770 0.7770 0.7785
2900.002157 0.7800 0.7820 0.7840 0.7845 0.7850
2904.275666 0.7860 0.7870 0.7870 0.7870 0.7855
2908.549174 0.7840 0.7840 0.7840 0.7835 0.7830
2912.822682 0.7820 0.7810 0.7805 0.7800 0.7800
2917.096190 0.7800 0.7795 0.7790 0.7790 0.7789
2921.369698 0.7779 0.7770 0.7770 0.7769 0.7759
2925.643206 0.7750 0.7750 0.7749 0.7739 0.7730
2929.916714 0.7725 0.7720 0.7720 0.7720 0.7715
2934.190222 0.7709 0.7699 0.7689 0.7679 0.7668
2938.463731 0.7653 0.7640 0.7640 0.7642 0.7657
2942.737239 0.7671 0.7681 0.7691 0.7701 0.7711
2947.010747 0.7716 0.7722 0.7737 0.7751 0.7756
2951.284255 0.7761 0.7766 0.7770 0.7770 0.7770
2955.557763 0.7770 0.7770 0.7770 0.7770 0.7770
2959.831271 0.7770 0.7770 0.7772 0.7782 0.7795
2964.104779 0.7820 0.7841 0.7846 0.7850 0.7850
2968.378287 0.7849 0.7844 0.7821 0.7735 0.7662
2972.651796 0.7626 0.7600 0.7600 0.7609 0.7644
2976.925304 0.7671 0.7676 0.7679 0.7674 0.7667
2981.198812 0.7657 0.7647 0.7637 0.7630 0.7630
2985.472320 0.7631 0.7636 0.7640 0.7640 0.7644
2989.745828 0.7660 0.7673 0.7683 0.7695 0.7710
2994.019336 0.7722 0.7727 0.7730 0.7730 0.7727
2998.292844 0.7717 0.7710 0.7710 0.7707 0.7697
3002.566352 0.7683 0.7663 0.7648 0.7643 0.7638
3006.839861 0.7633 0.7625 0.7610 0.7591 0.7566
3011.113369 0.7537 0.7502 0.7465 0.7425 0.7370
3015.386877 0.7290 0.7232 0.7212 0.7185 0.7145
3019.660385 0.7049 0.6863 0.6689 0.6532 0.6329
3023.933893 0.6058 0.5856 0.5751 0.5665 0.5605
3028.207401 0.5549 0.5499 0.5453 0.5413 0.5310
3032.480909 0.5125 0.4907 0.4646 0.4399 0.4168
3036.754417 0.3954 0.3758 0.3641 0.3621 0.3619
3041.027926 0.3639 0.3659 0.3680 0.3697 0.3712
3045.301434 0.3720 0.3720 0.3722 0.3727 0.3762
3049.574942 0.3827 0.3894 0.3965 0.4020 0.4060
3053.848450 0.4250 0.4590 0.4760 0.4760 0.4707
3058.121958 0.4607 0.4480 0.4330 0.4137 0.3907
3062.395466 0.3647 0.3361 0.3200 0.3145 0.2970
3066.668974 0.2694 0.2488 0.2337 0.2223 0.2138
3070.942483 0.2047 0.1952 0.1853 0.1752 0.1707
3075.215991 0.1702 0.1738 0.1803 0.1924 0.2085
3079.489499 0.2147 0.2142 0.2023 0.1828 0.1750
3083.763007 0.1750 0.1798 0.1879 0.2032 0.2232
3088.036515 0.2384 0.2504 0.2587 0.2648 0.2750
3092.310023 0.2875 0.2920 0.2920 0.2881 0.2821
3096.583531 0.2774 0.2734 0.2694 0.2654 0.2640
3100.857039 0.2640 0.2756 0.2931 0.3047 0.3132
3105.130548 0.3281 0.3461 0.3578 0.3664 0.3909
3109.404056 0.4225 0.4450 0.4635 0.4746 0.4826
3113.677564 0.4949 0.5089 0.5173 0.5233 0.5322
3117.951072 0.5422 0.5630 0.5880 0.6153 0.6433
3122.224580 0.6688 0.6934 0.7026 0.7061 0.7142
3126.498088 0.7237 0.7309 0.7374 0.7436 0.7496
3130.771596 0.7544 0.7590 0.7635 0.7680 0.7713
3135.045104 0.7743 0.7773 0.7803 0.7826 0.7846
3139.318613 0.7850 0.7850 0.7846 0.7841 0.7824
3143.592121 0.7804 0.7767 0.7727 0.7708 0.7693
3147.865629 0.7690 0.7690 0.7719 0.7754 0.7760
3152.139137 0.7760 0.7722 0.7677 0.7662 0.7652
3156.412645 0.7658 0.7668 0.7661 0.7651 0.7633
3160.686153 0.7613 0.7601 0.7591 0.7590 0.7590
3164.959661 0.7612 0.7637 0.7644 0.7649 0.7663
3169.233169 0.7678 0.7747 0.7822 0.7839 0.7849
3173.506678 0.7868 0.7888 0.7908 0.7928 0.7925
3177.780186 0.7920 0.7906 0.7891 0.7881 0.7871
3182.053694 0.7856 0.7841 0.7835 0.7830 0.7816
3186.327202 0.7801 0.7795 0.7790 0.7795 0.7800
3190.600710 0.7805 0.7810 0.7829 0.7850 0.7845
3194.874218 0.7840 0.7855 0.7870 0.7875 0.7880
3199.147726 0.7880 0.7880 0.7880 0.7880 0.7885
3203.421234 0.7890 0.7900 0.7910 0.7870 0.7830
3207.694743 0.7830 0.7831 0.7881 0.7930 0.7930
3211.968251 0.7928 0.7888 0.7850 0.7860 0.7870
3216.241759 0.7870 0.7870 0.7870 0.7871 0.7881
3220.515267 0.7889 0.7869 0.7850 0.7845 0.7840
3224.788775 0.7835 0.7830 0.7835 0.7842 0.7862
3229.062283 0.7882 0.7902 0.7921 0.7926 0.7929
3233.335791 0.7924 0.7916 0.7876 0.7837 0.7812
3237.609300 0.7797 0.7857 0.7909 0.7899 0.7886
3241.882808 0.7856 0.7833 0.7859 0.7880 0.7880
3246.156316 0.7879 0.7874 0.7870 0.7870 0.7870
3250.429824 0.7870 0.7871 0.7876 0.7877 0.7862
3254.703332 0.7850 0.7850 0.7855 0.7885 0.7907
3258.976840 0.7892 0.7880 0.7880 0.7879 0.7874
3263.250348 0.7868 0.7858 0.7850 0.7850 0.7852
3267.523856 0.7862 0.7872 0.7882 0.7890 0.7890
3271.797365 0.7889 0.7884 0.7880 0.7880 0.7879
3276.070873 0.7874 0.7870 0.7870 0.7870 0.7870
3280.344381 0.7867 0.7857 0.7832 0.7767 0.7720
3284.617889 0.7720 0.7738 0.7803 0.7850 0.7850
3288.891397 0.7850 0.7850 0.7849 0.7844 0.7836
3293.164905 0.7821 0.7807 0.7797 0.7785 0.7770
3297.438413 0.7755 0.7740 0.7728 0.7723 0.7720
3301.711921 0.7720 0.7718 0.7713 0.7707 0.7697
3305.985430 0.7688 0.7683 0.7661 0.7606 0.7552
3310.258938 0.7502 0.7457 0.7422 0.7381 0.7331
3314.532446 0.7294 0.7279 0.7260 0.7235 0.7193
3318.805954 0.7123 0.7060 0.7010 0.6968 0.6938
3323.079462 0.6918 0.6913 0.6904 0.6889 0.6876
3327.352970 0.6866 0.6804 0.6667 0.6531 0.6396
3331.626478 0.6287 0.6212 0.6163 0.6148 0.6147
3335.899986 0.6162 0.6217 0.6323 0.6391 0.6416
3340.173495 0.6446 0.6481 0.6502 0.6507 0.6482
3344.447003 0.6422 0.6390 0.6390 0.6447 0.6562
3348.720511 0.6692 0.6837 0.6980 0.7120 0.7261
3352.994019 0.7401 0.7521 0.7621 0.7685 0.7715
3357.267527 0.7725 0.7715 0.7700 0.7680 0.7691
3361.541035 0.7731 0.7753 0.7758 0.7760 0.7760
3365.814543 0.7757 0.7752 0.7750 0.7750 0.7750
3370.088051 0.7750 0.7744 0.7734 0.7730 0.7730
3374.361560 0.7730 0.7730 0.7736 0.7746 0.7753
3378.635068 0.7758 0.7745 0.7720 0.7713 0.7718
3382.908576 0.7735 0.7760 0.7776 0.7786 0.7790
3387.182084 0.7790 0.7781 0.7766 0.7760 0.7760
3391.455592 0.7732 0.7687 0.7698 0.7744 0.7763
3395.729100 0.7768 0.7767 0.7762 0.7757 0.7752
3400.002608 0.7750 0.7750 0.7737 0.7717 0.7703
3404.276117 0.7693 0.7690 0.7690 0.7697 0.7707
3408.549625 0.7710 0.7710 0.7713 0.7718 0.7723
3412.823133 0.7728 0.7737 0.7747 0.7750 0.7750
3417.096641 0.7750 0.7750 0.7743 0.7733 0.7726
3421.370149 0.7721 0.7716 0.7711 0.7699 0.7684
3425.643657 0.7676 0.7671 0.7663 0.7653 0.7695
3429.917165 0.7755 0.7770 0.7770 0.7751 0.7726
3434.190673 0.7720 0.7720 0.7720 0.7720 0.7716
3438.464182 0.7711 0.7726 0.7746 0.7750 0.7750
3442.737690 0.7742 0.7732 0.7730 0.7730 0.7730
3447.011198 0.7730 0.7730 0.7730 0.7722 0.7712
3451.284706 0.7702 0.7692 0.7686 0.7681 0.7680
3455.558214 0.7680 0.7676 0.7671 0.7670 0.7670
3459.831722 0.7687 0.7707 0.7719 0.7729 0.7730
3464.105230 0.7730 0.7730 0.7730 0.7712 0.7692
3468.378738 0.7717 0.7747 0.7750 0.7750 0.7714
3472.652247 0.7674 0.7670 0.7670 0.7693 0.7718
3476.925755 0.7720 0.7720 0.7725 0.7730 0.7739
3481.199263 0.7749 0.7750 0.7750 0.7755 0.7760
3485.472771 0.7760 0.7760 0.7760 0.7760 0.7760
3489.746279 0.7760 0.7755 0.7750 0.7702 0.7652
3494.019787 0.7703 0.7758 0.7760 0.7760 0.7765
3498.293295 0.7770 0.7780 0.7790 0.7790 0.7790
3502.566803 0.7760 0.7730 0.7725 0.7720 0.7700
3506.840312 0.7680 0.7680 0.7681 0.7721 0.7760
3511.113820 0.7775 0.7790 0.7795 0.7800 0.7805
3515.387328 0.7810 0.7805 0.7800 0.7795 0.7789
3519.660836 0.7774 0.7759 0.7744 0.7730 0.7730
3523.934344 0.7729 0.7719 0.7709 0.7694 0.7680
3528.207852 0.7680 0.7681 0.7696 0.7712 0.7737
3532.481360 0.7760 0.7766 0.7771 0.7781 0.7791
3536.754868 0.7796 0.7800 0.7800 0.7801 0.7806
3541.028377 0.7811 0.7821 0.7827 0.7807 0.7788
3545.301885 0.7773 0.7756 0.7731 0.7710 0.7710
3549.575393 0.7712 0.7722 0.7730 0.7730 0.7730
3553.848901 0.7730 0.7734 0.7754 0.7772 0.7782
3558.122409 0.7791 0.7796 0.7803 0.7818 0.7830
3562.395917 0.7830 0.7823 0.7788 0.7755 0.7730
3566.669425 0.7690 0.7594 0.7538 0.7619 0.7691
3570.942934 0.7736 0.7777 0.7807 0.7830 0.7830
3575.216442 0.7828 0.7818 0.7810 0.7810 0.7807
3579.489950 0.7797 0.7787 0.7777 0.7767 0.7757
3583.763458 0.7745 0.7724 0.7707 0.7697 0.7684
3588.036966 0.7664 0.7650 0.7650 0.7666 0.7722
3592.310474 0.7758 0.7753 0.7729 0.7658 0.7607
3596.583982 0.7597 0.7590 0.7590 0.7603 0.7643
3600.857490 0.7685 0.7730 0.7762 0.7767 0.7768
3605.130999 0.7763 0.7760 0.7760 0.7748 0.7712
3609.404507 0.7683 0.7663 0.7648 0.7643 0.7634
3613.678015 0.7619 0.7606 0.7596 0.7592 0.7597
3617.951523 0.7606 0.7621 0.7638 0.7658 0.7678
3622.225031 0.7698 0.7718 0.7738 0.7750 0.7750
3626.498539 0.7717 0.7636 0.7584 0.7569 0.7577
3630.772047 0.7617 0.7649 0.7669 0.7682 0.7687
3635.045555 0.7697 0.7712 0.7727 0.7742 0.7741
3639.319064 0.7721 0.7703 0.7688 0.7678 0.7673
3643.592572 0.7661 0.7640 0.7589 0.7504 0.7450
3647.866080 0.7430 0.7430 0.7450 0.7472 0.7497
3652.139588 0.7525 0.7555 0.7570 0.7570 0.7557
3656.413096 0.7532 0.7530 0.7551 0.7602 0.7682
3660.686604 0.7728 0.7743 0.7750 0.7750 0.7728
3664.960112 0.7688 0.7654 0.7624 0.7583 0.7533
3669.233620 0.7491 0.7455 0.7434 0.7424 0.7423
3673.507129 0.7428 0.7465 0.7525 0.7556 0.7566
3677.780637 0.7599 0.7649 0.7676 0.7686 0.7690
3682.054145 0.7690 0.7660 0.7610 0.7569 0.7534
3686.327653 0.7520 0.7520 0.7548 0.7593 0.7629
3690.601161 0.7659 0.7683 0.7703 0.7716 0.7726
3694.874669 0.7740 0.7755 0.7760 0.7760 0.7750
3699.148177 0.7735 0.7710 0.7680 0.7663 0.7653
3703.421685 0.7647 0.7642 0.7637 0.7632 0.7592
3707.695194 0.7537 0.7489 0.7444 0.7458 0.7498
3711.968702 0.7552 0.7612 0.7634 0.7639 0.7640
3716.242210 0.7640 0.7636 0.7631 0.7630 0.7630
3720.515718 0.7623 0.7613 0.7606 0.7601 0.7596
3724.789226 0.7591 0.7582 0.7572 0.7566 0.7561
3729.062734 0.7541 0.7516 0.7480 0.7439 0.7430
3733.336242 0.7430 0.7461 0.7501 0.7529 0.7554
3737.609750 0.7548 0.7533 0.7522 0.7512 0.7498
3741.883259 0.7483 0.7480 0.7480 0.7500 0.7525
3746.156767 0.7546 0.7566 0.7578 0.7588 0.7594
3750.430275 0.7599 0.7617 0.7637 0.7657 0.7677
3754.703783 0.7709 0.7745 0.7750 0.7750 0.7724
3758.977291 0.7694 0.7668 0.7643 0.7627 0.7612
3763.250799 0.7610 0.7610 0.7628 0.7648 0.7668
3767.524307 0.7688 0.7690 0.7690 0.7686 0.7681
3771.797816 0.7680 0.7680 0.7680 0.7680 0.7675
3776.071324 0.7670 0.7670 0.7670 0.7656 0.7641
3780.344832 0.7621 0.7601 0.7600 0.7600 0.7633
3784.618340 0.7668 0.7670 0.7670 0.7642 0.7612
3788.891848 0.7581 0.7551 0.7535 0.7520 0.7515
3793.165356 0.7510 0.7510 0.7510 0.7505 0.7500
3797.438864 0.7490 0.7480
##END=
