##TITLE=4-IMIDAZOLECARBOXYLIC ACID, 5-(3-METHYLTRIAZEN-1-YL)-, METHYL ESTER, WITH COPPER CHLORIDE
##JCAMP-DX=4.24
##DATA TYPE=INFRARED SPECTRUM
##CLASS=COBLENTZ III
##ORIGIN=SOUTHERN RESEARCH INSTITUTE
##OWNER=COBLENTZ SOCIETY
Collection (C) 2018 copyright by the U.S. Secretary of Commerce
on behalf of the United States of America. All rights reserved.
##DATE=1968/08/08
##NAMES=methyl 5-[(1E)-3-methyl-1-triazenyl]-1H-imidazole-4-carboxylate compound with dichlorocopper (1:1)
##MOLFORM=C6 H9 N5 O2  * Cu Cl2
##SOURCE REFERENCE=COBLENTZ NO. 10397
##$NIST ID=B6010397
##$NIST SOURCE=COBLENTZ
##$NIST IMAGE=cob10397
##SPECTROMETER/DATA SYSTEM=PERKIN-ELMER 521 (GRATING)
##STATE=SOLID (1 mg / 500 mg KBr DISC)
##PATH LENGTH=
$$SPECTRAL CONTAMINATION DUE TO H2O AROUND 3450 CM^-^1
$$ PURITY - ANALYTICAL
##SAMPLING PROCEDURE=TRANSMISSION
##RESOLUTION=4
##DATA PROCESSING=DIGITIZED BY NIST FROM HARD COPY (FROM TWO SEGMENTS)
##XUNITS=1/CM
##YUNITS=TRANSMITTANCE
##XFACTOR=1.000000
##YFACTOR=1
##DELTAX=1.318107
##FIRSTX=264.06
##LASTX=3998.26
##FIRSTY=0.4
##MAXX=3998.26
##MINX=264.06
##MAXY=0.975
##MINY=0.119002
##NPOINTS=2834
##XYDATA=(X++(Y..Y))
264.060000 0.4000 0.4070 0.4090 0.4170 0.4230
270.650534 0.4340 0.4499 0.4749 0.4830 0.4909
277.241069 0.4990 0.5040 0.5050 0.5130 0.5190
283.831603 0.5240 0.5240 0.5240 0.5250 0.5250
290.422137 0.5260 0.5260 0.5290 0.5290 0.5300
297.012671 0.5320 0.5370 0.5400 0.5609 0.5660
303.603206 0.5740 0.5750 0.5760 0.5760 0.5750
310.193740 0.5720 0.5670 0.5610 0.5540 0.5470
316.784274 0.5380 0.5290 0.5200 0.5120 0.5110
323.374808 0.5120 0.5150 0.5190 0.5250 0.5498
329.965343 0.5710 0.5970 0.6250 0.6460 0.6759
336.555877 0.6919 0.7030 0.7199 0.7349 0.7489
343.146411 0.7760 0.7850 0.7920 0.7970 0.8100
349.736945 0.8160 0.8190 0.8260 0.8310 0.8380
356.327480 0.8440 0.8470 0.8510 0.8520 0.8520
362.918014 0.8520 0.8540 0.8540 0.8540 0.8540
369.508548 0.8550 0.8550 0.8580 0.8590 0.8620
376.099082 0.8650 0.8680 0.8690 0.8690 0.8670
382.689617 0.8670 0.8650 0.8640 0.8620 0.8590
389.280151 0.8590 0.8580 0.8580 0.8560 0.8560
395.870685 0.8540 0.8510 0.8480 0.8470 0.8460
402.461220 0.8460 0.8460 0.8470 0.8470 0.8480
409.051754 0.8520 0.8540 0.8540 0.8550 0.8550
415.642288 0.8540 0.8510 0.8430 0.8370 0.8330
422.232822 0.8180 0.8090 0.8060 0.8050 0.8040
428.823357 0.8010 0.8000 0.7980 0.7970 0.7960
435.413891 0.7950 0.7950 0.7960 0.8050 0.8170
442.004425 0.8310 0.8479 0.8589 0.8729 0.8849
448.594959 0.8920 0.8970 0.8980 0.9080 0.9110
455.185494 0.9130 0.9140 0.9170 0.9170 0.9180
461.776028 0.9190 0.9210 0.9230 0.9230 0.9250
468.366562 0.9260 0.9260 0.9270 0.9290 0.9300
474.957096 0.9310 0.9320 0.9320 0.9320 0.9340
481.547631 0.9340 0.9340 0.9340 0.9340 0.9340
488.138165 0.9340 0.9350 0.9350 0.9350 0.9350
494.728699 0.9350 0.9340 0.9320 0.9340 0.9340
501.319233 0.9340 0.9340 0.9340 0.9340 0.9340
507.909768 0.9340 0.9340 0.9340 0.9340 0.9340
514.500302 0.9340 0.9340 0.9340 0.9340 0.9340
521.090836 0.9340 0.9340 0.9340 0.9340 0.9340
527.681370 0.9340 0.9320 0.9310 0.9310 0.9300
534.271905 0.9290 0.9270 0.9260 0.9260 0.9250
540.862439 0.9250 0.9230 0.9220 0.9220 0.9210
547.452973 0.9210 0.9190 0.9190 0.9190 0.9190
554.043508 0.9180 0.9170 0.9150 0.9140 0.9110
560.634042 0.9090 0.9080 0.9050 0.9040 0.9020
567.224576 0.9000 0.8940 0.8900 0.8830 0.8790
573.815110 0.8730 0.8640 0.8590 0.8520 0.8470
580.405645 0.8390 0.8370 0.8350 0.8340 0.8340
586.996179 0.8330 0.8310 0.8181 0.7911 0.7791
593.586713 0.7760 0.7710 0.7660 0.7560 0.7420
600.177247 0.7250 0.7031 0.6761 0.6451 0.6301
606.767782 0.6110 0.5830 0.5660 0.5570 0.5550
613.358316 0.5570 0.5630 0.5700 0.6009 0.6487
619.948850 0.6830 0.7160 0.7470 0.7880 0.7980
626.539384 0.8080 0.8090 0.8100 0.8120 0.8130
633.129919 0.8160 0.8180 0.8230 0.8290 0.8310
639.720453 0.8340 0.8380 0.8400 0.8400 0.8370
646.310987 0.8330 0.8300 0.8260 0.8230 0.8220
652.901521 0.8230 0.8260 0.8340 0.8519 0.8649
659.492056 0.8720 0.8810 0.8850 0.8900 0.9010
666.082590 0.9110 0.9130 0.9140 0.9150 0.9180
672.673124 0.9190 0.9210 0.9210 0.9220 0.9220
679.263659 0.9220 0.9220 0.9220 0.9220 0.9220
685.854193 0.9220 0.9210 0.9210 0.9210 0.9190
692.444727 0.9190 0.9190 0.9190 0.9180 0.9150
699.035261 0.9140 0.9130 0.9010 0.8930 0.8900
705.625796 0.8471 0.8300 0.8300 0.8479 0.8958
712.216330 0.9270 0.9380 0.9430 0.9470 0.9470
718.806864 0.9460 0.9440 0.9430 0.9420 0.9420
725.397398 0.9420 0.9400 0.9400 0.9400 0.9390
731.987933 0.9390 0.9390 0.9390 0.9390 0.9390
738.578467 0.9380 0.9380 0.9360 0.9360 0.9350
745.169001 0.9340 0.9310 0.9300 0.9260 0.9210
751.759535 0.9150 0.9140 0.9100 0.9010 0.8940
758.350070 0.8880 0.8790 0.8730 0.8561 0.8470
764.940604 0.7969 0.7700 0.7410 0.7000 0.6491
771.531138 0.6410 0.5921 0.5920 0.6617 0.7954
778.121672 0.7960 0.7950 0.7930 0.7910 0.7770
784.712207 0.7720 0.7660 0.7630 0.7620 0.7620
791.302741 0.7630 0.7640 0.7660 0.7670 0.7770
797.893275 0.7850 0.7910 0.7910 0.7950 0.7950
804.483810 0.7970 0.8040 0.8230 0.8380 0.8560
811.074344 0.8730 0.8880 0.9000 0.9109 0.9219
817.664878 0.9300 0.9320 0.9340 0.9350 0.9350
824.255412 0.9360 0.9360 0.9360 0.9360 0.9360
830.845947 0.9350 0.9350 0.9350 0.9350 0.9310
837.436481 0.9270 0.9260 0.9250 0.9250 0.9250
844.027015 0.9230 0.9220 0.9210 0.9190 0.9190
850.617549 0.9190 0.9180 0.9190 0.9190 0.9180
857.208084 0.9180 0.9170 0.9150 0.9130 0.9090
863.798618 0.9080 0.9080 0.9060 0.9080 0.9080
870.389152 0.9080 0.9080 0.9080 0.9080 0.9060
876.979686 0.9040 0.9040 0.9020 0.9020 0.9000
883.570221 0.8980 0.8970 0.8980 0.9000 0.9040
890.160755 0.9130 0.9210 0.9250 0.9340 0.9420
896.751289 0.9510 0.9560 0.9610 0.9610 0.9610
903.341823 0.9610 0.9610 0.9610 0.9610 0.9610
909.932358 0.9600 0.9590 0.9590 0.9570 0.9590
916.522892 0.9570 0.9570 0.9560 0.9570 0.9550
923.113426 0.9520 0.9470 0.9400 0.9380 0.9350
929.703961 0.9320 0.9260 0.9180 0.9140 0.9080
936.294495 0.8970 0.8850 0.8690 0.8510 0.8270
942.885029 0.8170 0.8170 0.8300 0.8668 0.8859
949.475563 0.9010 0.9110 0.9170 0.9180 0.9190
956.066098 0.9190 0.9180 0.9140 0.9110 0.9080
962.656632 0.8980 0.8920 0.8810 0.8640 0.8310
969.247166 0.8180 0.8020 0.7870 0.7790 0.7700
975.837700 0.7960 0.8160 0.8420 0.8480 0.8770
982.428235 0.9109 0.9180 0.9230 0.9250 0.9250
989.018769 0.9230 0.9220 0.9190 0.9150 0.9110
995.609303 0.9020 0.9000 0.9010 0.9080 0.9100
1002.199837 0.9130 0.9150 0.9170 0.9170 0.9170
1008.790372 0.9150 0.9110 0.9080 0.9060 0.9040
1015.380906 0.9020 0.9000 0.8960 0.8940 0.8930
1021.971440 0.8920 0.8880 0.8860 0.8850 0.8840
1028.561974 0.8810 0.8790 0.8730 0.8680 0.8650
1035.152509 0.8640 0.8620 0.8590 0.8590 0.8580
1041.743043 0.8580 0.8560 0.8550 0.8540 0.8510
1048.333577 0.8480 0.8470 0.8460 0.8440 0.8400
1054.924111 0.8390 0.8380 0.8340 0.8290 0.8250
1061.514646 0.8190 0.8170 0.8130 0.8060 0.7950
1068.105180 0.7800 0.7720 0.7630 0.7450 0.7260
1074.695714 0.7080 0.6910 0.6760 0.6640 0.6550
1081.286249 0.6410 0.6290 0.6140 0.5960 0.5500
1087.876783 0.5490 0.5470 0.5899 0.6408 0.6749
1094.467317 0.7011 0.7251 0.7910 0.8020 0.8020
1101.057851 0.8000 0.8000 0.7980 0.7980 0.8000
1107.648386 0.8010 0.8020 0.8060 0.8100 0.8130
1114.238920 0.8170 0.8210 0.8210 0.8180 0.8180
1120.829454 0.8120 0.8010 0.7960 0.7920 0.7760
1127.419988 0.7620 0.7470 0.7310 0.7081 0.6891
1134.010523 0.6710 0.6580 0.6410 0.6080 0.5860
1140.601057 0.5720 0.5660 0.5630 0.5620 0.5580
1147.191591 0.5510 0.5440 0.5330 0.5240 0.5150
1153.782125 0.5130 0.5150 0.5210 0.5589 0.5909
1160.372660 0.6211 0.6420 0.6580 0.6590 0.6580
1166.963194 0.6510 0.6430 0.6360 0.6290 0.6071
1173.553728 0.5760 0.5650 0.5500 0.5340 0.5200
1180.144262 0.5030 0.5569 0.5829 0.5860 0.6258
1186.734797 0.6300 0.6330 0.6320 0.6240 0.6080
1193.325331 0.5960 0.5720 0.5501 0.5410 0.5320
1199.915865 0.5119 0.4909 0.4670 0.4660 0.4670
1206.506400 0.4750 0.4870 0.5708 0.6069 0.6369
1213.096934 0.6661 0.6911 0.7140 0.7350 0.7550
1219.687468 0.7660 0.7700 0.7720 0.7730 0.7750
1226.278002 0.7750 0.7750 0.7730 0.7710 0.7640
1232.868537 0.7580 0.7510 0.7490 0.7390 0.7290
1239.459071 0.7170 0.7060 0.6990 0.6800 0.6780
1246.049605 0.6780 0.6790 0.6880 0.6930 0.7000
1252.640139 0.7130 0.7250 0.7300 0.7380 0.7410
1259.230674 0.7410 0.7390 0.7390 0.7380 0.7340
1265.821208 0.7310 0.7260 0.7210 0.7160 0.7090
1272.411742 0.7010 0.6920 0.6810 0.6581 0.6361
1279.002276 0.6109 0.5869 0.5610 0.5470 0.5340
1285.592811 0.5040 0.4730 0.4291 0.4071 0.3791
1292.183345 0.3530 0.3531 0.3770 0.3790 0.4130
1298.773879 0.5829 0.6319 0.6510 0.6630 0.6640
1305.364413 0.6640 0.6630 0.6530 0.6500 0.6530
1311.954948 0.6580 0.6620 0.6870 0.7050 0.7209
1318.545482 0.7310 0.7390 0.7460 0.7500 0.7510
1325.136016 0.7510 0.7510 0.7510 0.7510 0.7500
1331.726551 0.7390 0.7340 0.7290 0.7240 0.7170
1338.317085 0.7100 0.7030 0.6930 0.6840 0.6740
1344.907619 0.6619 0.6470 0.6320 0.6140 0.5960
1351.498153 0.5740 0.5500 0.5370 0.5240 0.4951
1358.088688 0.4629 0.4279 0.3899 0.3499 0.3100
1364.679222 0.2890 0.2650 0.2410 0.2181 0.1941
1371.269756 0.1720 0.1721 0.1930 0.1990 0.2260
1377.860290 0.2260 0.2010 0.1730 0.1471 0.1201
1384.450825 0.1201 0.1451 0.1701 0.1950 0.2181
1391.041359 0.4110 0.4789 0.5838 0.6708 0.7797
1397.631893 0.7830 0.7931 0.8160 0.8190 0.8210
1404.222427 0.8210 0.8210 0.8180 0.8100 0.8060
1410.812962 0.7970 0.7840 0.7750 0.7660 0.7420
1417.403496 0.7140 0.6790 0.6381 0.5901 0.5671
1423.994030 0.5448 0.4958 0.4278 0.3539 0.3160
1430.584564 0.2770 0.2530 0.2530 0.2660 0.2859
1437.175099 0.3423 0.4210 0.4240 0.4240 0.4230
1443.765633 0.4210 0.4210 0.4210 0.4210 0.4190
1450.356167 0.4130 0.4080 0.4000 0.3900 0.3750
1456.946701 0.3310 0.3180 0.3030 0.2870 0.2621
1463.537236 0.2369 0.2080 0.2060 0.2070 0.2220
1470.127770 0.2290 0.2750 0.3629 0.4059 0.4449
1476.718304 0.4833 0.5800 0.5870 0.5870 0.5860
1483.308839 0.5720 0.5540 0.5420 0.5290 0.5031
1489.899373 0.4779 0.4580 0.4460 0.4450 0.4480
1496.489907 0.4630 0.4750 0.5069 0.5240 0.5320
1503.080441 0.5330 0.5340 0.5370 0.5610 0.5820
1509.670976 0.6070 0.6360 0.6629 0.6919 0.7169
1516.261510 0.7371 0.7790 0.7930 0.8010 0.8050
1522.852044 0.8100 0.8210 0.8300 0.8340 0.8390
1529.442578 0.8480 0.8510 0.8540 0.8560 0.8580
1536.033113 0.8590 0.8590 0.8600 0.8600 0.8600
1542.623647 0.8600 0.8600 0.8600 0.8600 0.8590
1549.214181 0.8580 0.8580 0.8580 0.8580 0.8580
1555.804715 0.8580 0.8580 0.8560 0.8550 0.8540
1562.395250 0.8500 0.8470 0.8440 0.8420 0.8380
1568.985784 0.8330 0.8300 0.8260 0.8250 0.8220
1575.576318 0.8170 0.8080 0.7960 0.7810 0.7730
1582.166852 0.7639 0.7459 0.7239 0.7000 0.6680
1588.757387 0.6120 0.5700 0.5680 0.5700 0.5740
1595.347921 0.5790 0.5921 0.6170 0.6340 0.6490
1601.938455 0.6600 0.6740 0.6880 0.7010 0.7140
1608.528990 0.7270 0.7390 0.7500 0.7590 0.7670
1615.119524 0.7750 0.7770 0.7800 0.7810 0.7840
1621.710058 0.7850 0.7850 0.7880 0.7910 0.7920
1628.300592 0.7920 0.7910 0.7890 0.7880 0.7870
1634.891127 0.7870 0.7870 0.7850 0.7840 0.7810
1641.481661 0.7770 0.7720 0.7670 0.7630 0.7550
1648.072195 0.7410 0.7300 0.7240 0.7210 0.7200
1654.662729 0.7180 0.7170 0.7120 0.7040 0.6920
1661.253264 0.6779 0.6629 0.6470 0.6320 0.6170
1667.843798 0.5910 0.5650 0.5380 0.5031 0.4541
1674.434332 0.3988 0.3409 0.3119 0.2829 0.2290
1681.024866 0.1810 0.1400 0.1200 0.1190 0.1200
1687.615401 0.1240 0.1301 0.1450 0.1570 0.1620
1694.205935 0.1730 0.1860 0.2020 0.2200 0.2399
1700.796469 0.2611 0.2811 0.3001 0.3350 0.3480
1707.387003 0.3560 0.3730 0.3910 0.4110 0.4319
1713.977538 0.4551 0.4791 0.5041 0.5551 0.5820
1720.568072 0.6070 0.6320 0.6570 0.6800 0.7029
1727.158606 0.7241 0.7431 0.7750 0.7880 0.7970
1733.749141 0.8040 0.8130 0.8190 0.8370 0.8480
1740.339675 0.8580 0.8670 0.8750 0.8810 0.8880
1746.930209 0.8940 0.9000 0.9040 0.9080 0.9090
1753.520743 0.9100 0.9100 0.9100 0.9100 0.9090
1760.111278 0.9090 0.9090 0.9090 0.9080 0.9010
1766.701812 0.8970 0.8940 0.8930 0.8920 0.8930
1773.292346 0.8930 0.8940 0.8940 0.8960 0.8980
1779.882880 0.9000 0.9020 0.9050 0.9080 0.9140
1786.473415 0.9180 0.9260 0.9310 0.9340 0.9360
1793.063949 0.9390 0.9430 0.9460 0.9500 0.9550
1799.654483 0.9570 0.9610 0.9630 0.9650 0.9650
1806.245017 0.9670 0.9670 0.9680 0.9690 0.9690
1812.835552 0.9690 0.9690 0.9690 0.9690 0.9690
1819.426086 0.9690 0.9690 0.9690 0.9690 0.9690
1826.016620 0.9690 0.9690 0.9690 0.9690 0.9690
1832.607154 0.9690 0.9690 0.9690 0.9690 0.9690
1839.197689 0.9690 0.9690 0.9690 0.9710 0.9710
1845.788223 0.9710 0.9710 0.9710 0.9710 0.9710
1852.378757 0.9690 0.9690 0.9690 0.9680 0.9680
1858.969292 0.9680 0.9680 0.9680 0.9680 0.9690
1865.559826 0.9690 0.9690 0.9680 0.9680 0.9690
1872.150360 0.9690 0.9690 0.9690 0.9690 0.9690
1878.740894 0.9690 0.9690 0.9710 0.9710 0.9710
1885.331429 0.9720 0.9710 0.9720 0.9730 0.9730
1891.921963 0.9730 0.9730 0.9720 0.9730 0.9750
1898.512497 0.9750 0.9750 0.9750 0.9750 0.9750
1905.103031 0.9750 0.9750 0.9750 0.9750 0.9750
1911.693566 0.9750 0.9750 0.9730 0.9730 0.9730
1918.284100 0.9730 0.9730 0.9720 0.9720 0.9720
1924.874634 0.9720 0.9720 0.9710 0.9710 0.9710
1931.465168 0.9690 0.9690 0.9690 0.9690 0.9690
1938.055703 0.9690 0.9690 0.9680 0.9680 0.9680
1944.646237 0.9680 0.9680 0.9680 0.9670 0.9670
1951.236771 0.9670 0.9670 0.9670 0.9670 0.9670
1957.827305 0.9650 0.9650 0.9650 0.9640 0.9640
1964.417840 0.9640 0.9640 0.9640 0.9630 0.9630
1971.008374 0.9630 0.9630 0.9630 0.9630 0.9610
1977.598908 0.9600 0.9600 0.9590 0.9590 0.9590
1984.189442 0.9590 0.9590 0.9590 0.9590 0.9590
1990.779977 0.9590 0.9590 0.9590 0.9590 0.9590
1997.370511 0.9590 0.9590 0.9590 0.9600 0.9610
2003.961045 0.9650 0.9670 0.9670 0.9680 0.9690
2010.551580 0.9690 0.9690 0.9690 0.9690 0.9690
2017.142114 0.9690 0.9690 0.9690 0.9680 0.9680
2023.732648 0.9670 0.9670 0.9651 0.9650 0.9650
2030.323182 0.9650 0.9650 0.9650 0.9650 0.9650
2036.913717 0.9650 0.9650 0.9650 0.9668 0.9670
2043.504251 0.9670 0.9652 0.9650 0.9650 0.9650
2050.094785 0.9650 0.9650 0.9650 0.9641 0.9640
2056.685319 0.9640 0.9631 0.9630 0.9612 0.9610
2063.275854 0.9610 0.9610 0.9601 0.9600 0.9600
2069.866388 0.9600 0.9600 0.9600 0.9600 0.9600
2076.456922 0.9600 0.9600 0.9600 0.9600 0.9600
2083.047456 0.9600 0.9600 0.9600 0.9592 0.9590
2089.637991 0.9590 0.9590 0.9590 0.9590 0.9590
2096.228525 0.9590 0.9598 0.9600 0.9600 0.9600
2102.819059 0.9600 0.9600 0.9600 0.9600 0.9600
2109.409593 0.9600 0.9600 0.9600 0.9600 0.9600
2116.000128 0.9600 0.9600 0.9600 0.9600 0.9600
2122.590662 0.9600 0.9600 0.9592 0.9590 0.9590
2129.181196 0.9590 0.9590 0.9590 0.9590 0.9590
2135.771731 0.9590 0.9590 0.9590 0.9590 0.9590
2142.362265 0.9590 0.9597 0.9600 0.9600 0.9593
2148.952799 0.9590 0.9590 0.9590 0.9576 0.9570
2155.543333 0.9570 0.9570 0.9570 0.9570 0.9570
2162.133868 0.9570 0.9563 0.9560 0.9560 0.9560
2168.724402 0.9560 0.9560 0.9560 0.9560 0.9560
2175.314936 0.9560 0.9560 0.9560 0.9560 0.9560
2181.905470 0.9560 0.9560 0.9560 0.9554 0.9550
2188.496005 0.9550 0.9550 0.9550 0.9550 0.9550
2195.086539 0.9550 0.9550 0.9550 0.9550 0.9550
2201.677073 0.9550 0.9550 0.9550 0.9550 0.9550
2208.267607 0.9550 0.9550 0.9550 0.9556 0.9560
2214.858142 0.9560 0.9560 0.9560 0.9560 0.9554
2221.448676 0.9550 0.9544 0.9540 0.9529 0.9520
2228.039210 0.9520 0.9515 0.9510 0.9505 0.9500
2234.629744 0.9500 0.9489 0.9480 0.9480 0.9480
2241.220279 0.9480 0.9480 0.9480 0.9480 0.9480
2247.810813 0.9480 0.9480 0.9480 0.9480 0.9480
2254.401347 0.9480 0.9480 0.9480 0.9480 0.9480
2260.991882 0.9480 0.9480 0.9475 0.9470 0.9470
2267.582416 0.9470 0.9470 0.9470 0.9470 0.9470
2274.172950 0.9465 0.9460 0.9460 0.9460 0.9460
2280.763484 0.9460 0.9451 0.9440 0.9440 0.9440
2287.354019 0.9440 0.9440 0.9436 0.9426 0.9420
2293.944553 0.9420 0.9420 0.9412 0.9400 0.9400
2300.535087 0.9400 0.9396 0.9390 0.9390 0.9390
2307.125621 0.9390 0.9386 0.9380 0.9380 0.9380
2313.716156 0.9373 0.9360 0.9360 0.9360 0.9360
2320.306690 0.9360 0.9360 0.9360 0.9360 0.9356
2326.897224 0.9350 0.9350 0.9350 0.9350 0.9350
2333.487758 0.9350 0.9350 0.9350 0.9350 0.9350
2340.078293 0.9350 0.9350 0.9350 0.9350 0.9350
2346.668827 0.9350 0.9350 0.9350 0.9350 0.9350
2353.259361 0.9350 0.9350 0.9350 0.9350 0.9350
2359.849895 0.9350 0.9350 0.9350 0.9350 0.9350
2366.440430 0.9350 0.9350 0.9350 0.9350 0.9350
2373.030964 0.9350 0.9350 0.9350 0.9350 0.9350
2379.621498 0.9350 0.9348 0.9340 0.9340 0.9340
2386.212032 0.9340 0.9340 0.9340 0.9340 0.9340
2392.802567 0.9340 0.9340 0.9340 0.9340 0.9340
2399.393101 0.9340 0.9340 0.9340 0.9340 0.9340
2405.983635 0.9340 0.9340 0.9340 0.9340 0.9340
2412.574170 0.9340 0.9340 0.9342 0.9350 0.9350
2419.164704 0.9350 0.9348 0.9340 0.9337 0.9317
2425.755238 0.9295 0.9269 0.9256 0.9229 0.9219
2432.345772 0.9210 0.9210 0.9210 0.9210 0.9210
2438.936307 0.9210 0.9210 0.9208 0.9190 0.9189
2445.526841 0.9179 0.9170 0.9170 0.9170 0.9170
2452.117375 0.9170 0.9170 0.9170 0.9168 0.9150
2458.707909 0.9150 0.9150 0.9150 0.9150 0.9150
2465.298444 0.9150 0.9150 0.9150 0.9151 0.9170
2471.888978 0.9170 0.9170 0.9170 0.9170 0.9170
2478.479512 0.9170 0.9170 0.9170 0.9169 0.9150
2485.070046 0.9150 0.9150 0.9150 0.9150 0.9140
2491.660581 0.9140 0.9140 0.9140 0.9130 0.9130
2498.251115 0.9130 0.9130 0.9130 0.9130 0.9130
2504.841649 0.9130 0.9130 0.9110 0.9110 0.9110
2511.432183 0.9110 0.9110 0.9110 0.9110 0.9110
2518.022718 0.9110 0.9100 0.9100 0.9090 0.9090
2524.613252 0.9080 0.9080 0.9052 0.9041 0.9021
2531.203786 0.9020 0.9011 0.9001 0.9000 0.8981
2537.794321 0.8980 0.8980 0.8980 0.8980 0.8980
2544.384855 0.8980 0.8980 0.8980 0.8980 0.8980
2550.975389 0.8980 0.8980 0.8980 0.8980 0.8980
2557.565923 0.8980 0.8980 0.8980 0.8980 0.8980
2564.156458 0.8980 0.8980 0.8980 0.8980 0.8980
2570.746992 0.8980 0.8980 0.8980 0.8980 0.8980
2577.337526 0.8980 0.8980 0.8980 0.8980 0.8980
2583.928060 0.8980 0.8972 0.8970 0.8970 0.8962
2590.518595 0.8960 0.8960 0.8944 0.8940 0.8932
2597.109129 0.8930 0.8930 0.8922 0.8896 0.8866
2603.699663 0.8852 0.8842 0.8832 0.8830 0.8814
2610.290197 0.8810 0.8802 0.8792 0.8790 0.8775
2616.880732 0.8770 0.8762 0.8760 0.8760 0.8752
2623.471266 0.8735 0.8730 0.8722 0.8720 0.8720
2630.061800 0.8720 0.8727 0.8730 0.8745 0.8750
2636.652334 0.8750 0.8750 0.8750 0.8750 0.8750
2643.242869 0.8757 0.8760 0.8760 0.8760 0.8760
2649.833403 0.8760 0.8760 0.8760 0.8760 0.8760
2656.423937 0.8767 0.8770 0.8770 0.8770 0.8770
2663.014472 0.8770 0.8770 0.8770 0.8770 0.8770
2669.605006 0.8783 0.8790 0.8777 0.8770 0.8770
2676.195540 0.8770 0.8770 0.8770 0.8770 0.8770
2682.786074 0.8770 0.8770 0.8770 0.8764 0.8760
2689.376609 0.8760 0.8760 0.8760 0.8760 0.8760
2695.967143 0.8754 0.8750 0.8738 0.8730 0.8730
2702.557677 0.8730 0.8730 0.8730 0.8730 0.8730
2709.148211 0.8730 0.8742 0.8750 0.8750 0.8756
2715.738746 0.8760 0.8766 0.8781 0.8790 0.8790
2722.329280 0.8796 0.8800 0.8800 0.8800 0.8794
2728.919814 0.8790 0.8779 0.8770 0.8770 0.8765
2735.510348 0.8755 0.8739 0.8730 0.8730 0.8725
2742.100883 0.8720 0.8720 0.8720 0.8720 0.8715
2748.691417 0.8710 0.8710 0.8710 0.8715 0.8720
2755.281951 0.8720 0.8720 0.8725 0.8730 0.8730
2761.872485 0.8725 0.8720 0.8715 0.8710 0.8710
2768.463020 0.8701 0.8690 0.8690 0.8685 0.8675
2775.053554 0.8656 0.8640 0.8636 0.8630 0.8626
2781.644088 0.8620 0.8611 0.8600 0.8596 0.8590
2788.234623 0.8586 0.8572 0.8560 0.8556 0.8550
2794.825157 0.8550 0.8550 0.8550 0.8546 0.8540
2801.415691 0.8540 0.8540 0.8540 0.8540 0.8540
2808.006225 0.8540 0.8532 0.8520 0.8516 0.8506
2814.596760 0.8500 0.8493 0.8476 0.8459 0.8436
2821.187294 0.8426 0.8409 0.8386 0.8369 0.8350
2827.777828 0.8347 0.8337 0.8323 0.8307 0.8290
2834.368362 0.8267 0.8260 0.8257 0.8243 0.8227
2840.958897 0.8217 0.8200 0.8180 0.8177 0.8170
2847.549431 0.8167 0.8160 0.8160 0.8154 0.8140
2854.139965 0.8140 0.8140 0.8140 0.8140 0.8140
2860.730499 0.8140 0.8140 0.8137 0.8130 0.8130
2867.321034 0.8130 0.8127 0.8115 0.8095 0.8062
2873.911568 0.8002 0.7977 0.7965 0.7950 0.7943
2880.502102 0.7920 0.7913 0.7885 0.7865 0.7848
2887.092636 0.7838 0.7830 0.7825 0.7808 0.7800
2893.683171 0.7798 0.7790 0.7790 0.7790 0.7786
2900.273705 0.7770 0.7770 0.7768 0.7758 0.7750
2906.864239 0.7750 0.7746 0.7730 0.7728 0.7720
2913.454773 0.7722 0.7730 0.7733 0.7752 0.7762
2920.045308 0.7770 0.7773 0.7790 0.7790 0.7790
2926.635842 0.7792 0.7800 0.7801 0.7810 0.7810
2933.226376 0.7809 0.7799 0.7790 0.7787 0.7767
2939.816911 0.7747 0.7728 0.7706 0.7679 0.7662
2946.407445 0.7598 0.7576 0.7536 0.7497 0.7469
2952.997979 0.7459 0.7448 0.7430 0.7430 0.7429
2959.588513 0.7420 0.7420 0.7421 0.7431 0.7451
2966.179048 0.7460 0.7461 0.7472 0.7501 0.7512
2972.769582 0.7551 0.7560 0.7561 0.7580 0.7580
2979.360116 0.7579 0.7560 0.7560 0.7550 0.7540
2985.950650 0.7540 0.7539 0.7520 0.7520 0.7520
2992.541185 0.7520 0.7520 0.7520 0.7520 0.7520
2999.131719 0.7510 0.7500 0.7500 0.7500 0.7490
3005.722253 0.7490 0.7470 0.7460 0.7450 0.7450
3012.312787 0.7430 0.7420 0.7410 0.7391 0.7380
3018.903322 0.7351 0.7331 0.7291 0.7261 0.7250
3025.493856 0.7240 0.7240 0.7212 0.7182 0.7161
3032.084390 0.7132 0.7102 0.7091 0.7062 0.7051
3038.674924 0.6967 0.6895 0.6844 0.6803 0.6782
3045.265459 0.6743 0.6676 0.6606 0.6555 0.6541
3051.855993 0.6549 0.6577 0.6616 0.6629 0.6666
3058.446527 0.6697 0.6744 0.6785 0.6799 0.6809
3065.037062 0.6810 0.6810 0.6810 0.6810 0.6810
3071.627596 0.6801 0.6800 0.6791 0.6756 0.6716
3078.218130 0.6668 0.6609 0.6558 0.6516 0.6493
3084.808664 0.6456 0.6383 0.6312 0.6250 0.6182
3091.399199 0.6121 0.6053 0.5983 0.5913 0.5819
3097.989733 0.5694 0.5589 0.5481 0.5444 0.5376
3104.580267 0.5201 0.5152 0.5150 0.5158 0.5192
3111.170801 0.5239 0.5313 0.5470 0.5564 0.5719
3117.761336 0.5837 0.5898 0.5918 0.5920 0.5912
3124.351870 0.5910 0.5910 0.5902 0.5885 0.5873
3130.942404 0.5840 0.5800 0.5768 0.5753 0.5728
3137.532938 0.5683 0.5641 0.5594 0.5529 0.5503
3144.123473 0.5479 0.5434 0.5392 0.5366 0.5339
3150.714007 0.5302 0.5262 0.5215 0.5172 0.5125
3157.304541 0.5069 0.5016 0.4959 0.4899 0.4846
3163.895075 0.4789 0.4729 0.4670 0.4610 0.4557
3170.485610 0.4500 0.4467 0.4421 0.4348 0.4268
3177.076144 0.4214 0.4200 0.4116 0.4018 0.3958
3183.666678 0.3927 0.3907 0.3881 0.3845 0.3805
3190.257213 0.3708 0.3604 0.3539 0.3483 0.3423
3196.847747 0.3357 0.3300 0.3262 0.3238 0.3188
3203.438281 0.3130 0.3080 0.3024 0.2970 0.2926
3210.028815 0.2881 0.2831 0.2764 0.2713 0.2688
3216.619350 0.2669 0.2660 0.2654 0.2650 0.2650
3223.209884 0.2650 0.2650 0.2650 0.2650 0.2650
3229.800418 0.2655 0.2676 0.2706 0.2725 0.2762
3236.390952 0.2806 0.2836 0.2861 0.2901 0.2967
3242.981487 0.3021 0.3071 0.3131 0.3247 0.3376
3249.572021 0.3471 0.3560 0.3635 0.3705 0.3755
3256.162555 0.3775 0.3785 0.3800 0.3810 0.3800
3262.753089 0.3790 0.3785 0.3780 0.3780 0.3766
3269.343624 0.3741 0.3711 0.3658 0.3592 0.3533
3275.934158 0.3491 0.3471 0.3456 0.3454 0.3469
3282.524692 0.3489 0.3518 0.3553 0.3574 0.3619
3289.115226 0.3696 0.3789 0.3904 0.3983 0.4068
3295.705761 0.4170 0.4290 0.4409 0.4537 0.4685
3302.296295 0.4844 0.4976 0.5069 0.5177 0.5351
3308.886829 0.5565 0.5700 0.5826 0.5934 0.6024
3315.477363 0.6125 0.6222 0.6319 0.6464 0.6573
3322.067898 0.6659 0.6735 0.6798 0.6844 0.6891
3328.658432 0.6954 0.7031 0.7107 0.7164 0.7220
3335.248966 0.7250 0.7283 0.7317 0.7343 0.7383
3341.839501 0.7413 0.7433 0.7463 0.7476 0.7490
3348.430035 0.7493 0.7503 0.7510 0.7510 0.7510
3355.020569 0.7510 0.7510 0.7510 0.7510 0.7507
3361.611103 0.7500 0.7500 0.7497 0.7490 0.7490
3368.201638 0.7485 0.7470 0.7470 0.7470 0.7470
3374.792172 0.7470 0.7470 0.7470 0.7470 0.7470
3381.382706 0.7470 0.7468 0.7460 0.7460 0.7460
3387.973240 0.7458 0.7450 0.7450 0.7446 0.7430
3394.563775 0.7430 0.7428 0.7420 0.7420 0.7414
3401.154309 0.7388 0.7380 0.7378 0.7370 0.7366
3407.744843 0.7348 0.7334 0.7308 0.7300 0.7300
3414.335377 0.7298 0.7290 0.7290 0.7292 0.7300
3420.925912 0.7298 0.7287 0.7268 0.7257 0.7240
3427.516446 0.7237 0.7217 0.7197 0.7179 0.7169
3434.106980 0.7160 0.7157 0.7139 0.7126 0.7099
3440.697514 0.7090 0.7089 0.7080 0.7081 0.7090
3447.288049 0.7091 0.7106 0.7166 0.7228 0.7307
3453.878583 0.7374 0.7414 0.7450 0.7454 0.7491
3460.469117 0.7504 0.7551 0.7562 0.7580 0.7581
3467.059652 0.7591 0.7601 0.7623 0.7661 0.7670
3473.650186 0.7671 0.7680 0.7680 0.7681 0.7700
3480.240720 0.7710 0.7710 0.7710 0.7720 0.7710
3486.831254 0.7720 0.7720 0.7730 0.7730 0.7750
3493.421789 0.7750 0.7760 0.7760 0.7770 0.7770
3500.012323 0.7790 0.7790 0.7800 0.7810 0.7830
3506.602857 0.7850 0.7870 0.7880 0.7880 0.7880
3513.193391 0.7890 0.7890 0.7909 0.7910 0.7920
3519.783926 0.7920 0.7930 0.7930 0.7949 0.7950
3526.374460 0.7960 0.7960 0.7998 0.8019 0.8048
3532.964994 0.8059 0.8079 0.8080 0.8080 0.8080
3539.555528 0.8099 0.8118 0.8120 0.8120 0.8129
3546.146063 0.8130 0.8139 0.8158 0.8178 0.8189
3552.736597 0.8208 0.8219 0.8220 0.8229 0.8248
3559.327131 0.8259 0.8260 0.8260 0.8260 0.8269
3565.917665 0.8287 0.8299 0.8309 0.8327 0.8330
3572.508200 0.8339 0.8340 0.8340 0.8349 0.8376
3579.098734 0.8397 0.8417 0.8428 0.8438 0.8457
3585.689268 0.8468 0.8470 0.8478 0.8497 0.8500
3592.279803 0.8508 0.8510 0.8518 0.8536 0.8548
3598.870337 0.8558 0.8560 0.8576 0.8596 0.8616
3605.460871 0.8636 0.8640 0.8648 0.8666 0.8678
3612.051405 0.8680 0.8688 0.8706 0.8718 0.8720
3618.641940 0.8743 0.8758 0.8760 0.8760 0.8768
3625.232474 0.8770 0.8770 0.8785 0.8790 0.8790
3631.823008 0.8797 0.8800 0.8807 0.8810 0.8810
3638.413542 0.8810 0.8825 0.8830 0.8830 0.8830
3645.004077 0.8830 0.8830 0.8816 0.8810 0.8824
3651.594611 0.8830 0.8830 0.8830 0.8830 0.8830
3658.185145 0.8816 0.8810 0.8810 0.8810 0.8810
3664.775679 0.8810 0.8810 0.8810 0.8810 0.8823
3671.366214 0.8830 0.8830 0.8837 0.8847 0.8850
3677.956748 0.8857 0.8860 0.8860 0.8860 0.8860
3684.547282 0.8860 0.8873 0.8880 0.8880 0.8880
3691.137816 0.8880 0.8880 0.8880 0.8880 0.8880
3697.728351 0.8880 0.8880 0.8880 0.8880 0.8880
3704.318885 0.8880 0.8868 0.8860 0.8860 0.8860
3710.909419 0.8854 0.8850 0.8844 0.8840 0.8840
3717.499954 0.8840 0.8840 0.8840 0.8840 0.8834
3724.090488 0.8830 0.8830 0.8830 0.8835 0.8840
3730.681022 0.8835 0.8830 0.8830 0.8830 0.8830
3737.271556 0.8819 0.8810 0.8821 0.8830 0.8830
3743.862091 0.8830 0.8830 0.8830 0.8820 0.8820
3750.452625 0.8830 0.8830 0.8820 0.8810 0.8810
3757.043159 0.8810 0.8810 0.8810 0.8810 0.8810
3763.633693 0.8810 0.8810 0.8810 0.8805 0.8800
3770.224228 0.8805 0.8810 0.8810 0.8810 0.8810
3776.814762 0.8810 0.8810 0.8806 0.8800 0.8800
3783.405296 0.8800 0.8800 0.8800 0.8800 0.8800
3789.995830 0.8796 0.8790 0.8790 0.8790 0.8790
3796.586365 0.8790 0.8794 0.8788 0.8778 0.8790
3803.176899 0.8790 0.8790 0.8790 0.8790 0.8790
3809.767433 0.8790 0.8782 0.8770 0.8770 0.8770
3816.357967 0.8770 0.8770 0.8770 0.8766 0.8760
3822.948502 0.8760 0.8760 0.8760 0.8760 0.8760
3829.539036 0.8760 0.8760 0.8760 0.8760 0.8760
3836.129570 0.8757 0.8753 0.8757 0.8750 0.8750
3842.720104 0.8750 0.8750 0.8750 0.8750 0.8750
3849.310639 0.8744 0.8727 0.8720 0.8720 0.8720
3855.901173 0.8720 0.8717 0.8713 0.8717 0.8710
3862.491707 0.8710 0.8710 0.8704 0.8696 0.8705
3869.082242 0.8690 0.8690 0.8690 0.8690 0.8690
3875.672776 0.8690 0.8690 0.8687 0.8680 0.8680
3882.263310 0.8678 0.8670 0.8670 0.8670 0.8670
3888.853844 0.8670 0.8665 0.8650 0.8650 0.8650
3895.444379 0.8650 0.8654 0.8670 0.8666 0.8650
3902.034913 0.8648 0.8640 0.8640 0.8640 0.8640
3908.625447 0.8640 0.8640 0.8640 0.8640 0.8640
3915.215981 0.8640 0.8640 0.8640 0.8640 0.8640
3921.806516 0.8640 0.8642 0.8648 0.8640 0.8640
3928.397050 0.8640 0.8640 0.8640 0.8640 0.8639
3934.987584 0.8630 0.8630 0.8629 0.8620 0.8620
3941.578118 0.8620 0.8621 0.8629 0.8620 0.8620
3948.168653 0.8620 0.8620 0.8620 0.8618 0.8600
3954.759187 0.8600 0.8600 0.8602 0.8618 0.8600
3961.349721 0.8600 0.8599 0.8590 0.8590 0.8590
3967.940255 0.8589 0.8581 0.8590 0.8590 0.8590
3974.530790 0.8590 0.8590 0.8591 0.8600 0.8600
3981.121324 0.8590 0.8590 0.8590 0.8590 0.8590
3987.711858 0.8590 0.8590 0.8590 0.8590 0.8590
3994.302393 0.8590 0.8590 0.8590 0.8590
##END=
