##TITLE=CHOLINE, CYTIDINE 5'-PYROPHOSPHATE, MONOSODIUM SALT
##JCAMP-DX=4.24
##DATA TYPE=INFRARED SPECTRUM
##CLASS=COBLENTZ III
##ORIGIN=WESTERN REGIONAL RES. USDA
##OWNER=COBLENTZ SOCIETY
Collection (C) 2018 copyright by the U.S. Secretary of Commerce
on behalf of the United States of America. All rights reserved.
##DATE=1966/02/07
##MOLFORM=C14 H25 N4 O11 P2 Na
##SOURCE REFERENCE=COBLENTZ NO. 10435
##$NIST ID=B6010435
##$NIST SOURCE=COBLENTZ
##$NIST IMAGE=cob10435
##SPECTROMETER/DATA SYSTEM=CARY 90 (GRATING)
##INSTRUMENT PARAMETERS=GRATING CHANGES AT 3000, 2000, 1200 CM^-^1
##STATE=SOLID (KBr DISC)
##SAMPLING PROCEDURE=TRANSMISSION
##RESOLUTION=4
##DATA PROCESSING=DIGITIZED BY NIST FROM HARD COPY (FROM TWO SEGMENTS)
##XUNITS=1/CM
##YUNITS=TRANSMITTANCE
##XFACTOR=1.000000
##YFACTOR=1
##DELTAX=0.907545
##FIRSTX=455.36
##LASTX=3989.34
##FIRSTY=0.317
##MAXX=3989.34
##MINX=455.36
##MAXY=0.981
##MINY=0.067001
##NPOINTS=3895
##XYDATA=(X++(Y..Y))
455.360000 0.3170 0.3210 0.3170 0.3210 0.3290
459.897724 0.3310 0.3380 0.3440 0.3510 0.3580
464.435447 0.3650 0.3720 0.3730 0.3810 0.3850
468.973171 0.3880 0.3910 0.3930 0.3950 0.3990
473.510895 0.4010 0.4000 0.3990 0.3950 0.3930
478.048619 0.3920 0.3870 0.3810 0.3661 0.3640
482.586342 0.3640 0.3650 0.3660 0.3750 0.3830
487.124066 0.3850 0.3910 0.3920 0.3930 0.3910
491.661790 0.3870 0.3780 0.3700 0.3610 0.3520
496.199513 0.3400 0.3300 0.3230 0.3170 0.3150
500.737237 0.3130 0.3120 0.3110 0.3070 0.3040
505.274961 0.2990 0.2950 0.2900 0.2432 0.2141
509.812685 0.1810 0.1490 0.1180 0.1180 0.1350
514.350408 0.1519 0.1689 0.1859 0.1999 0.2268
518.888132 0.2400 0.2520 0.2700 0.2890 0.3030
523.425856 0.3070 0.3080 0.3060 0.3040 0.3020
527.963580 0.3030 0.3100 0.3160 0.3240 0.3320
532.501303 0.3400 0.3460 0.3490 0.3500 0.3500
537.039027 0.3490 0.3480 0.3370 0.3230 0.3210
541.576751 0.3230 0.3459 0.3639 0.3789 0.3919
546.114474 0.4040 0.4130 0.4220 0.4290 0.4350
550.652198 0.4390 0.4430 0.4460 0.4490 0.4520
555.189922 0.4540 0.4560 0.4580 0.4610 0.4640
559.727646 0.4640 0.4650 0.4640 0.4620 0.4610
564.265369 0.4550 0.4490 0.4460 0.4320 0.4260
568.803093 0.4200 0.4120 0.4050 0.3950 0.3841
573.340817 0.3780 0.3830 0.3920 0.3970 0.4010
577.878540 0.4080 0.4160 0.4279 0.4370 0.4460
582.416264 0.4550 0.4680 0.4850 0.4880 0.4960
586.953988 0.4990 0.5010 0.5060 0.5070 0.5100
591.491712 0.5100 0.5090 0.5080 0.4970 0.4820
596.029435 0.4371 0.4131 0.3901 0.3671 0.3431
600.567159 0.3430 0.3900 0.4120 0.4220 0.4280
605.104883 0.4559 0.4749 0.4840 0.4969 0.5000
609.642607 0.5020 0.5070 0.5110 0.5160 0.5190
614.180330 0.5250 0.5260 0.5280 0.5280 0.5290
618.718054 0.5310 0.5310 0.5290 0.5280 0.5270
623.255778 0.5250 0.5230 0.5170 0.5140 0.5110
627.793501 0.5100 0.5090 0.5080 0.4970 0.4900
632.331225 0.4850 0.4820 0.4780 0.4740 0.4680
636.868949 0.4610 0.4490 0.4370 0.4200 0.4010
641.406673 0.3950 0.3950 0.4129 0.4200 0.4260
645.944396 0.4460 0.4680 0.4800 0.4850 0.4900
650.482120 0.4900 0.4920 0.4920 0.4930 0.4940
655.019844 0.4940 0.4960 0.4970 0.4980 0.4980
659.557567 0.4980 0.4990 0.5000 0.5000 0.5000
664.095291 0.5010 0.5020 0.5020 0.5030 0.5050
668.633015 0.5050 0.5060 0.5070 0.5080 0.5120
673.170739 0.5170 0.5310 0.5320 0.5370 0.5420
677.708462 0.5450 0.5470 0.5510 0.5530 0.5550
682.246186 0.5580 0.5600 0.5630 0.5670 0.5690
686.783910 0.5720 0.5730 0.5760 0.5780 0.5780
691.321634 0.5790 0.5800 0.5800 0.5800 0.5790
695.859357 0.5780 0.5770 0.5740 0.5730 0.5710
700.397081 0.5670 0.5600 0.5530 0.5370 0.5280
704.934805 0.5240 0.5170 0.5100 0.4971 0.4900
709.472528 0.4830 0.4760 0.4710 0.4700 0.4710
714.010252 0.4730 0.4750 0.4790 0.4800 0.4810
718.547976 0.4810 0.4810 0.4810 0.4810 0.4800
723.085700 0.4800 0.4790 0.4780 0.4760 0.4750
727.623423 0.4740 0.4730 0.4670 0.4620 0.4610
732.161147 0.4620 0.4740 0.4790 0.4880 0.4970
736.698871 0.5010 0.5050 0.5160 0.5200 0.5290
741.236594 0.5350 0.5380 0.5380 0.5360 0.5340
745.774318 0.5310 0.5280 0.5240 0.5170 0.5100
750.312042 0.4920 0.4820 0.4720 0.4610 0.4501
754.849766 0.4380 0.4280 0.4170 0.4050 0.3950
759.387489 0.3731 0.3551 0.3401 0.3301 0.3230
763.925213 0.3190 0.3170 0.3190 0.3240 0.3260
768.462937 0.3300 0.3320 0.3330 0.3330 0.3330
773.000661 0.3320 0.3250 0.3160 0.3060 0.2980
777.538384 0.2910 0.2880 0.2870 0.2880 0.2900
782.076108 0.2940 0.3010 0.3060 0.3200 0.3370
786.613832 0.3589 0.3829 0.4059 0.4299 0.4499
791.151555 0.4650 0.4990 0.5080 0.5170 0.5260
795.689279 0.5310 0.5370 0.5460 0.5530 0.5590
800.227003 0.5620 0.5650 0.5680 0.5730 0.5730
804.764727 0.5740 0.5740 0.5720 0.5690 0.5670
809.302450 0.5620 0.5590 0.5560 0.5550 0.5500
813.840174 0.5450 0.5400 0.5350 0.5280 0.5260
818.377898 0.5270 0.5310 0.5340 0.5370 0.5410
822.915621 0.5500 0.5600 0.5680 0.5730 0.5780
827.453345 0.5830 0.5890 0.5940 0.5980 0.6020
831.991069 0.6030 0.6050 0.6060 0.6050 0.5990
836.528793 0.5900 0.5770 0.5650 0.5520 0.5420
841.066516 0.5360 0.5201 0.5180 0.5200 0.5439
845.604240 0.5470 0.5630 0.5830 0.5970 0.6090
850.141964 0.6210 0.6340 0.6390 0.6529 0.6600
854.679688 0.6580 0.6570 0.6500 0.6450 0.6350
859.217411 0.6121 0.5911 0.5601 0.4904 0.4701
863.755135 0.4630 0.4630 0.4810 0.4940 0.5080
868.292859 0.5309 0.5450 0.5619 0.5640 0.5640
872.830582 0.5530 0.5210 0.4980 0.4211 0.3990
877.368306 0.3741 0.3491 0.3241 0.3240 0.3658
881.906030 0.4060 0.4120 0.4550 0.4810 0.5069
886.443754 0.5339 0.5519 0.5689 0.5829 0.5929
890.981477 0.5930 0.5910 0.5790 0.5650 0.5580
895.519201 0.5490 0.5360 0.4981 0.4801 0.4571
900.056925 0.4310 0.4030 0.3730 0.3391 0.3340
904.594648 0.3260 0.3190 0.3110 0.3030 0.3020
909.132372 0.3030 0.3040 0.3060 0.3140 0.3190
913.670096 0.3200 0.3210 0.3210 0.3210 0.3200
918.207820 0.3190 0.3140 0.3100 0.3060 0.3020
922.745543 0.2980 0.2890 0.2840 0.2760 0.2670
927.283267 0.2480 0.2270 0.2070 0.1880 0.1710
931.820991 0.1550 0.1400 0.1280 0.1170 0.1071
936.358715 0.0990 0.0920 0.0870 0.0850 0.0840
940.896438 0.0850 0.0870 0.0910 0.0940 0.0980
945.434162 0.1010 0.1040 0.1080 0.1110 0.1190
949.971886 0.1200 0.1330 0.1420 0.1530 0.1639
954.509609 0.1770 0.1870 0.2020 0.2190 0.2290
959.047333 0.2480 0.2600 0.2710 0.2869 0.2979
963.585057 0.3060 0.3140 0.3230 0.3280 0.3300
968.122781 0.3310 0.3320 0.3320 0.3230 0.3121
972.660504 0.3020 0.2930 0.2820 0.2800 0.2810
977.198228 0.2930 0.2960 0.3159 0.3280 0.3380
981.735952 0.3590 0.3870 0.3970 0.4060 0.4170
986.273675 0.4270 0.4390 0.4529 0.4669 0.4819
990.811399 0.4980 0.5070 0.5150 0.5330 0.5450
995.349123 0.5540 0.5610 0.5680 0.5740 0.5770
999.886847 0.5800 0.5800 0.5770 0.5620 0.5510
1004.424570 0.5380 0.5270 0.5190 0.4971 0.4761
1008.962294 0.4620 0.4520 0.4430 0.4270 0.4230
1013.500018 0.4190 0.4160 0.4110 0.4050 0.4000
1018.037742 0.3840 0.3630 0.3350 0.3080 0.2810
1022.575465 0.2331 0.2290 0.2230 0.2110 0.2020
1027.113189 0.1890 0.1890 0.1920 0.2040 0.2080
1031.650913 0.2150 0.2170 0.2270 0.2399 0.2460
1036.188636 0.2510 0.2540 0.2630 0.2660 0.2670
1040.726360 0.2391 0.2310 0.2131 0.1891 0.1661
1045.264084 0.1490 0.1200 0.1160 0.1160 0.1240
1049.801808 0.1599 0.1839 0.1979 0.2139 0.2309
1054.339531 0.2490 0.2580 0.2670 0.2840 0.2990
1058.877255 0.3130 0.3230 0.3389 0.3549 0.3560
1063.414979 0.3550 0.3540 0.3420 0.3260 0.3100
1067.952702 0.2911 0.2412 0.2171 0.2041 0.1841
1072.490426 0.1810 0.1730 0.1660 0.1580 0.1520
1077.028150 0.1520 0.1560 0.1620 0.1700 0.1859
1081.565874 0.1970 0.2020 0.2020 0.2090 0.2180
1086.103597 0.2180 0.2150 0.2140 0.2130 0.2140
1090.641321 0.2240 0.2330 0.2400 0.2480 0.2540
1095.179045 0.2610 0.2750 0.2840 0.3019 0.3110
1099.716769 0.3120 0.3110 0.3070 0.2850 0.2800
1104.254492 0.2670 0.2401 0.2370 0.2241 0.2230
1108.792216 0.2240 0.2260 0.2270 0.2260 0.2160
1113.329940 0.2020 0.1861 0.1810 0.1571 0.1291
1117.867663 0.1180 0.1170 0.1330 0.1800 0.2100
1122.405387 0.2110 0.2130 0.2220 0.2359 0.2460
1126.943111 0.2570 0.2680 0.2760 0.2860 0.2960
1131.480835 0.3100 0.3140 0.3140 0.2951 0.2811
1136.018558 0.2660 0.2340 0.2180 0.2020 0.2020
1140.556282 0.2419 0.2570 0.2710 0.2780 0.2840
1145.094006 0.3460 0.3480 0.3880 0.4279 0.4629
1149.631729 0.4809 0.4959 0.5089 0.5369 0.5688
1154.169453 0.5930 0.6140 0.6220 0.6310 0.6410
1158.707177 0.6500 0.6580 0.6610 0.6680 0.6730
1163.244901 0.6760 0.6780 0.6800 0.6820 0.6830
1167.782624 0.6840 0.6840 0.6840 0.6820 0.6790
1172.320348 0.6780 0.6760 0.6730 0.6690 0.6640
1176.858072 0.6580 0.6530 0.6480 0.6430 0.6390
1181.395796 0.6250 0.6120 0.6000 0.5880 0.5780
1185.933519 0.5670 0.5550 0.5420 0.5281 0.4961
1190.471243 0.4750 0.4270 0.3701 0.3400 0.2272
1195.008967 0.2220 0.2160 0.1971 0.1711 0.1392
1199.546690 0.1100 0.0860 0.0680 0.0670 0.0680
1204.084414 0.0730 0.0770 0.0780 0.0850 0.0960
1208.622138 0.1100 0.1250 0.1400 0.1530 0.1620
1213.159862 0.1650 0.1750 0.1820 0.1910 0.2000
1217.697585 0.2060 0.2290 0.2400 0.2500 0.2670
1222.235309 0.2820 0.2950 0.3060 0.3150 0.3240
1226.773033 0.3310 0.3430 0.3440 0.3480 0.3590
1231.310756 0.3680 0.3770 0.3840 0.3920 0.3990
1235.848480 0.4040 0.4090 0.4130 0.4190 0.4210
1240.386204 0.4230 0.4310 0.4370 0.4370 0.4340
1244.923928 0.4340 0.4270 0.4270 0.4220 0.4160
1249.461651 0.4060 0.3940 0.3780 0.3581 0.3401
1253.999375 0.3250 0.3160 0.3070 0.3010 0.2900
1258.537099 0.2860 0.2800 0.2720 0.2670 0.2640
1263.074823 0.2620 0.2620 0.2600 0.2550 0.2480
1267.612546 0.2440 0.2400 0.2350 0.2270 0.2180
1272.150270 0.2050 0.2020 0.2000 0.1900 0.1800
1276.687994 0.1730 0.1650 0.1580 0.1510 0.1450
1281.225717 0.1390 0.1370 0.1370 0.1400 0.1480
1285.763441 0.1560 0.1640 0.1750 0.1870 0.2009
1290.301165 0.2170 0.2350 0.2430 0.2510 0.2620
1294.838889 0.2780 0.2979 0.3209 0.3469 0.3739
1299.376612 0.4030 0.4310 0.4580 0.4890 0.5030
1303.914336 0.5180 0.5549 0.5769 0.5909 0.6000
1308.452060 0.6130 0.6320 0.6450 0.6580 0.6690
1312.989783 0.6780 0.6870 0.6940 0.7010 0.7050
1317.527507 0.7100 0.7120 0.7120 0.7180 0.7210
1322.065231 0.7230 0.7240 0.7240 0.7240 0.7260
1326.602955 0.7260 0.7260 0.7260 0.7230 0.7230
1331.140678 0.7220 0.7210 0.7200 0.7200 0.7190
1335.678402 0.7180 0.7170 0.7140 0.7120 0.7100
1340.216126 0.7040 0.7010 0.6960 0.6940 0.6940
1344.753850 0.6920 0.6910 0.6890 0.6870 0.6870
1349.291573 0.6840 0.6770 0.6700 0.6700 0.6730
1353.829297 0.6920 0.7040 0.7110 0.7180 0.7260
1358.367021 0.7310 0.7330 0.7370 0.7370 0.7330
1362.904744 0.7280 0.7220 0.7150 0.7090 0.7020
1367.442468 0.6890 0.6701 0.6491 0.6271 0.6091
1371.980192 0.5960 0.5510 0.5320 0.5320 0.5350
1376.517916 0.5380 0.5400 0.5360 0.5191 0.4822
1381.055639 0.4590 0.4350 0.4320 0.4350 0.4410
1385.593363 0.4649 0.4969 0.5090 0.5210 0.5449
1390.131087 0.5630 0.5870 0.6040 0.6270 0.6410
1394.668810 0.6450 0.6470 0.6440 0.6390 0.6320
1399.206534 0.6210 0.6070 0.5910 0.5760 0.5610
1403.744258 0.5470 0.5121 0.5110 0.5140 0.5230
1408.281982 0.5270 0.5350 0.5430 0.5510 0.5590
1412.819705 0.5620 0.5800 0.5989 0.6060 0.6160
1417.357429 0.6270 0.6350 0.6390 0.6440 0.6450
1421.895153 0.6450 0.6450 0.6470 0.6480 0.6480
1426.432877 0.6490 0.6520 0.6550 0.6580 0.6580
1430.970600 0.6600 0.6610 0.6600 0.6570 0.6510
1435.508324 0.6490 0.6450 0.6420 0.6380 0.6300
1440.046048 0.6220 0.6140 0.6080 0.6030 0.5960
1444.583771 0.5910 0.5850 0.5790 0.5720 0.5650
1449.121495 0.5580 0.5470 0.5370 0.5250 0.4961
1453.659219 0.4780 0.4670 0.4570 0.4360 0.4190
1458.196943 0.4020 0.3861 0.3730 0.3591 0.3491
1462.734666 0.3390 0.3320 0.3260 0.3200 0.3110
1467.272390 0.3030 0.2950 0.2801 0.2750 0.2422
1471.810114 0.2290 0.2200 0.2140 0.2080 0.2020
1476.347837 0.1960 0.1890 0.1790 0.1740 0.1700
1480.885561 0.1660 0.1620 0.1600 0.1560 0.1540
1485.423285 0.1530 0.1530 0.1540 0.1570 0.1610
1489.961009 0.1650 0.1670 0.1790 0.1820 0.1890
1494.498732 0.2010 0.2110 0.2230 0.2360 0.2440
1499.036456 0.2520 0.2700 0.2880 0.3060 0.3250
1503.574180 0.3430 0.3560 0.3680 0.3809 0.3939
1508.111904 0.4060 0.4180 0.4290 0.4380 0.4450
1512.649627 0.4500 0.4550 0.4550 0.4540 0.4520
1517.187351 0.4490 0.4460 0.4440 0.4400 0.4360
1521.725075 0.4340 0.4300 0.4270 0.4230 0.4210
1526.262798 0.4200 0.4210 0.4230 0.4290 0.4350
1530.800522 0.4450 0.4560 0.4759 0.4899 0.5019
1535.338246 0.5180 0.5370 0.5610 0.5810 0.5990
1539.875970 0.6170 0.6339 0.6509 0.6669 0.6839
1544.413693 0.7020 0.7030 0.7190 0.7220 0.7260
1548.951417 0.7300 0.7350 0.7360 0.7370 0.7380
1553.489141 0.7390 0.7390 0.7370 0.7350 0.7320
1558.026864 0.7290 0.7240 0.7190 0.7140 0.7080
1562.564588 0.7020 0.6950 0.6830 0.6710 0.6610
1567.102312 0.6520 0.6450 0.6410 0.6380 0.6251
1571.640036 0.6200 0.6160 0.6140 0.6130 0.6120
1576.177759 0.6090 0.6080 0.6080 0.6070 0.6050
1580.715483 0.6030 0.5980 0.5940 0.5860 0.5760
1585.253207 0.5670 0.5620 0.5530 0.5371 0.5290
1589.790931 0.4960 0.4870 0.4660 0.4400 0.4080
1594.328654 0.3970 0.3761 0.3511 0.3291 0.3131
1598.866378 0.2990 0.2810 0.2151 0.2070 0.1970
1603.404102 0.1870 0.1750 0.1650 0.1550 0.1450
1607.941825 0.1350 0.1270 0.1200 0.1130 0.1090
1612.479549 0.1030 0.1020 0.1030 0.1070 0.1090
1617.017273 0.1120 0.1140 0.1250 0.1260 0.1330
1621.554997 0.1420 0.1450 0.1460 0.1520 0.1540
1626.092720 0.1550 0.1600 0.1620 0.1630 0.1640
1630.630444 0.1650 0.1660 0.1660 0.1640 0.1630
1635.168168 0.1550 0.1490 0.1480 0.1490 0.1510
1639.705891 0.1510 0.1510 0.1490 0.1490 0.1480
1644.243615 0.1470 0.1430 0.1370 0.1310 0.1300
1648.781339 0.1260 0.1210 0.1051 0.0950 0.0940
1653.319063 0.0870 0.0830 0.0810 0.0800 0.0810
1657.856786 0.0830 0.0910 0.0980 0.1020 0.1120
1662.394510 0.1270 0.1460 0.1650 0.1860 0.2080
1666.932234 0.2309 0.2420 0.2520 0.2749 0.2969
1671.469958 0.3190 0.3410 0.3630 0.3840 0.3970
1676.007681 0.4120 0.4290 0.4469 0.4679 0.4919
1680.545405 0.5020 0.5110 0.5120 0.5290 0.5450
1685.083129 0.5590 0.5710 0.5810 0.5910 0.6019
1689.620852 0.6140 0.6270 0.6420 0.6500 0.6610
1694.158576 0.6730 0.6830 0.6930 0.7010 0.7100
1698.696300 0.7180 0.7260 0.7330 0.7420 0.7470
1703.234024 0.7510 0.7620 0.7720 0.7830 0.7910
1707.771747 0.7980 0.8030 0.8080 0.8110 0.8130
1712.309471 0.8150 0.8180 0.8200 0.8210 0.8250
1716.847195 0.8280 0.8290 0.8300 0.8340 0.8360
1721.384918 0.8390 0.8420 0.8440 0.8470 0.8500
1725.922642 0.8530 0.8550 0.8570 0.8610 0.8630
1730.460366 0.8660 0.8680 0.8700 0.8720 0.8740
1734.998090 0.8770 0.8790 0.8810 0.8820 0.8850
1739.535813 0.8870 0.8890 0.8910 0.8940 0.8960
1744.073537 0.8970 0.8980 0.8990 0.9000 0.9030
1748.611261 0.9040 0.9050 0.9060 0.9080 0.9090
1753.148985 0.9100 0.9120 0.9140 0.9150 0.9160
1757.686708 0.9170 0.9180 0.9210 0.9220 0.9230
1762.224432 0.9240 0.9240 0.9250 0.9260 0.9270
1766.762156 0.9270 0.9280 0.9300 0.9310 0.9310
1771.299879 0.9320 0.9330 0.9340 0.9340 0.9350
1775.837603 0.9360 0.9370 0.9390 0.9390 0.9400
1780.375327 0.9400 0.9410 0.9420 0.9420 0.9430
1784.913051 0.9440 0.9440 0.9450 0.9470 0.9470
1789.450774 0.9480 0.9490 0.9490 0.9500 0.9510
1793.988498 0.9510 0.9520 0.9530 0.9530 0.9540
1798.526222 0.9560 0.9560 0.9570 0.9570 0.9570
1803.063945 0.9580 0.9580 0.9590 0.9590 0.9600
1807.601669 0.9600 0.9610 0.9610 0.9610 0.9620
1812.139393 0.9620 0.9630 0.9630 0.9630 0.9650
1816.677117 0.9650 0.9650 0.9660 0.9660 0.9660
1821.214840 0.9670 0.9670 0.9670 0.9680 0.9680
1825.752564 0.9680 0.9690 0.9690 0.9700 0.9700
1830.290288 0.9700 0.9700 0.9710 0.9710 0.9710
1834.828012 0.9710 0.9710 0.9720 0.9720 0.9720
1839.365735 0.9720 0.9720 0.9740 0.9740 0.9740
1843.903459 0.9740 0.9740 0.9750 0.9750 0.9750
1848.441183 0.9750 0.9750 0.9760 0.9760 0.9760
1852.978906 0.9760 0.9760 0.9770 0.9770 0.9770
1857.516630 0.9770 0.9770 0.9780 0.9780 0.9780
1862.054354 0.9780 0.9780 0.9790 0.9790 0.9790
1866.592078 0.9790 0.9790 0.9800 0.9800 0.9800
1871.129801 0.9800 0.9800 0.9790 0.9790 0.9790
1875.667525 0.9800 0.9800 0.9800 0.9800 0.9800
1880.205249 0.9800 0.9810 0.9810 0.9810 0.9810
1884.742972 0.9810 0.9810 0.9810 0.9810 0.9810
1889.280696 0.9810 0.9800 0.9800 0.9800 0.9800
1893.818420 0.9790 0.9790 0.9790 0.9780 0.9780
1898.356144 0.9780 0.9780 0.9780 0.9780 0.9780
1902.893867 0.9780 0.9780 0.9780 0.9770 0.9770
1907.431591 0.9770 0.9770 0.9770 0.9770 0.9770
1911.969315 0.9770 0.9770 0.9770 0.9770 0.9770
1916.507039 0.9770 0.9770 0.9770 0.9770 0.9770
1921.044762 0.9770 0.9770 0.9770 0.9770 0.9770
1925.582486 0.9770 0.9770 0.9770 0.9770 0.9770
1930.120210 0.9770 0.9770 0.9770 0.9770 0.9770
1934.657933 0.9770 0.9770 0.9770 0.9770 0.9770
1939.195657 0.9770 0.9770 0.9770 0.9770 0.9770
1943.733381 0.9770 0.9770 0.9770 0.9770 0.9770
1948.271105 0.9770 0.9770 0.9770 0.9770 0.9770
1952.808828 0.9770 0.9770 0.9770 0.9770 0.9770
1957.346552 0.9770 0.9770 0.9770 0.9770 0.9770
1961.884276 0.9770 0.9760 0.9760 0.9760 0.9760
1966.421999 0.9760 0.9750 0.9750 0.9750 0.9750
1970.959723 0.9750 0.9740 0.9740 0.9740 0.9740
1975.497447 0.9740 0.9720 0.9720 0.9720 0.9720
1980.035171 0.9720 0.9710 0.9710 0.9700 0.9700
1984.572894 0.9700 0.9690 0.9690 0.9690 0.9680
1989.110618 0.9680 0.9680 0.9670 0.9670 0.9670
1993.648342 0.9660 0.9660 0.9660 0.9650 0.9650
1998.186066 0.9650 0.9630 0.9630 0.9630 0.9630
2002.723789 0.9625 0.9620 0.9620 0.9620 0.9620
2007.261513 0.9620 0.9615 0.9610 0.9610 0.9610
2011.799237 0.9610 0.9610 0.9610 0.9610 0.9610
2016.336960 0.9610 0.9610 0.9610 0.9610 0.9610
2020.874684 0.9610 0.9610 0.9605 0.9600 0.9600
2025.412408 0.9600 0.9600 0.9600 0.9600 0.9600
2029.950132 0.9600 0.9600 0.9600 0.9600 0.9600
2034.487855 0.9600 0.9595 0.9590 0.9590 0.9590
2039.025579 0.9590 0.9590 0.9590 0.9590 0.9590
2043.563303 0.9590 0.9590 0.9590 0.9590 0.9590
2048.101026 0.9585 0.9580 0.9580 0.9580 0.9580
2052.638750 0.9580 0.9580 0.9580 0.9580 0.9580
2057.176474 0.9580 0.9580 0.9580 0.9580 0.9575
2061.714198 0.9570 0.9570 0.9570 0.9570 0.9570
2066.251921 0.9570 0.9570 0.9570 0.9570 0.9570
2070.789645 0.9570 0.9570 0.9570 0.9570 0.9570
2075.327369 0.9570 0.9570 0.9570 0.9570 0.9565
2079.865093 0.9560 0.9560 0.9560 0.9560 0.9560
2084.402816 0.9560 0.9560 0.9560 0.9560 0.9560
2088.940540 0.9560 0.9560 0.9560 0.9560 0.9560
2093.478264 0.9560 0.9560 0.9560 0.9560 0.9560
2098.015987 0.9560 0.9560 0.9560 0.9565 0.9570
2102.553711 0.9570 0.9570 0.9570 0.9570 0.9570
2107.091435 0.9570 0.9570 0.9570 0.9570 0.9570
2111.629159 0.9570 0.9570 0.9570 0.9570 0.9570
2116.166882 0.9570 0.9570 0.9570 0.9570 0.9570
2120.704606 0.9570 0.9570 0.9570 0.9570 0.9570
2125.242330 0.9570 0.9570 0.9570 0.9570 0.9570
2129.780053 0.9570 0.9570 0.9570 0.9570 0.9570
2134.317777 0.9570 0.9570 0.9571 0.9576 0.9580
2138.855501 0.9580 0.9580 0.9580 0.9580 0.9580
2143.393225 0.9580 0.9580 0.9580 0.9580 0.9580
2147.930948 0.9580 0.9580 0.9580 0.9580 0.9580
2152.468672 0.9580 0.9580 0.9580 0.9580 0.9581
2157.006396 0.9586 0.9590 0.9590 0.9590 0.9590
2161.544120 0.9590 0.9590 0.9590 0.9590 0.9590
2166.081843 0.9590 0.9590 0.9590 0.9590 0.9590
2170.619567 0.9590 0.9590 0.9590 0.9590 0.9590
2175.157291 0.9590 0.9591 0.9596 0.9600 0.9600
2179.695014 0.9600 0.9600 0.9600 0.9600 0.9600
2184.232738 0.9600 0.9600 0.9600 0.9600 0.9600
2188.770462 0.9600 0.9600 0.9600 0.9600 0.9600
2193.308186 0.9600 0.9600 0.9600 0.9600 0.9600
2197.845909 0.9600 0.9600 0.9600 0.9600 0.9600
2202.383633 0.9600 0.9600 0.9600 0.9600 0.9600
2206.921357 0.9600 0.9600 0.9600 0.9600 0.9600
2211.459080 0.9600 0.9600 0.9600 0.9600 0.9600
2215.996804 0.9600 0.9600 0.9600 0.9600 0.9600
2220.534528 0.9600 0.9600 0.9600 0.9600 0.9600
2225.072252 0.9600 0.9600 0.9600 0.9600 0.9599
2229.609975 0.9594 0.9590 0.9590 0.9590 0.9590
2234.147699 0.9590 0.9590 0.9590 0.9590 0.9590
2238.685423 0.9590 0.9590 0.9590 0.9590 0.9590
2243.223147 0.9589 0.9584 0.9580 0.9580 0.9580
2247.760870 0.9580 0.9580 0.9580 0.9580 0.9580
2252.298594 0.9580 0.9580 0.9580 0.9580 0.9579
2256.836318 0.9574 0.9570 0.9570 0.9570 0.9570
2261.374041 0.9570 0.9570 0.9570 0.9570 0.9570
2265.911765 0.9570 0.9570 0.9570 0.9569 0.9564
2270.449489 0.9560 0.9560 0.9560 0.9560 0.9557
2274.987213 0.9547 0.9540 0.9540 0.9540 0.9540
2279.524936 0.9540 0.9540 0.9539 0.9534 0.9530
2284.062660 0.9530 0.9530 0.9530 0.9530 0.9530
2288.600384 0.9529 0.9524 0.9520 0.9520 0.9520
2293.138107 0.9520 0.9520 0.9520 0.9520 0.9520
2297.675831 0.9520 0.9520 0.9519 0.9514 0.9510
2302.213555 0.9510 0.9510 0.9510 0.9510 0.9510
2306.751279 0.9510 0.9510 0.9508 0.9503 0.9500
2311.289002 0.9500 0.9500 0.9500 0.9500 0.9500
2315.826726 0.9500 0.9500 0.9500 0.9500 0.9498
2320.364450 0.9493 0.9490 0.9490 0.9490 0.9490
2324.902174 0.9490 0.9490 0.9490 0.9490 0.9488
2329.439897 0.9483 0.9480 0.9480 0.9480 0.9480
2333.977621 0.9480 0.9480 0.9480 0.9480 0.9480
2338.515345 0.9480 0.9480 0.9480 0.9480 0.9480
2343.053068 0.9480 0.9480 0.9480 0.9480 0.9480
2347.590792 0.9480 0.9480 0.9480 0.9480 0.9480
2352.128516 0.9480 0.9480 0.9480 0.9480 0.9480
2356.666240 0.9480 0.9480 0.9480 0.9480 0.9480
2361.203963 0.9480 0.9480 0.9480 0.9480 0.9480
2365.741687 0.9480 0.9480 0.9480 0.9480 0.9480
2370.279411 0.9480 0.9480 0.9480 0.9480 0.9480
2374.817134 0.9480 0.9480 0.9480 0.9480 0.9480
2379.354858 0.9480 0.9480 0.9480 0.9480 0.9480
2383.892582 0.9480 0.9480 0.9480 0.9480 0.9480
2388.430306 0.9480 0.9480 0.9480 0.9480 0.9480
2392.968029 0.9480 0.9480 0.9480 0.9480 0.9480
2397.505753 0.9480 0.9480 0.9480 0.9480 0.9480
2402.043477 0.9480 0.9480 0.9480 0.9480 0.9480
2406.581201 0.9480 0.9480 0.9480 0.9480 0.9480
2411.118924 0.9480 0.9480 0.9480 0.9480 0.9480
2415.656648 0.9480 0.9480 0.9480 0.9480 0.9480
2420.194372 0.9480 0.9480 0.9480 0.9478 0.9473
2424.732095 0.9470 0.9470 0.9470 0.9470 0.9470
2429.269819 0.9470 0.9470 0.9470 0.9470 0.9470
2433.807543 0.9470 0.9470 0.9470 0.9470 0.9470
2438.345267 0.9470 0.9466 0.9456 0.9450 0.9450
2442.882990 0.9450 0.9450 0.9450 0.9450 0.9450
2447.420714 0.9450 0.9450 0.9450 0.9450 0.9450
2451.958438 0.9450 0.9450 0.9450 0.9450 0.9448
2456.496161 0.9443 0.9440 0.9440 0.9438 0.9433
2461.033885 0.9430 0.9430 0.9430 0.9430 0.9430
2465.571609 0.9430 0.9430 0.9430 0.9428 0.9423
2470.109333 0.9420 0.9420 0.9420 0.9420 0.9420
2474.647056 0.9420 0.9418 0.9413 0.9410 0.9410
2479.184780 0.9408 0.9403 0.9400 0.9400 0.9400
2483.722504 0.9400 0.9398 0.9393 0.9390 0.9390
2488.260228 0.9385 0.9375 0.9370 0.9370 0.9370
2492.797951 0.9370 0.9368 0.9363 0.9360 0.9360
2497.335675 0.9358 0.9353 0.9350 0.9350 0.9350
2501.873399 0.9350 0.9348 0.9343 0.9340 0.9340
2506.411122 0.9340 0.9340 0.9337 0.9333 0.9330
2510.948846 0.9330 0.9330 0.9330 0.9327 0.9323
2515.486570 0.9320 0.9320 0.9320 0.9320 0.9317
2520.024294 0.9313 0.9310 0.9310 0.9307 0.9303
2524.562017 0.9295 0.9285 0.9277 0.9272 0.9267
2529.099741 0.9262 0.9260 0.9260 0.9257 0.9252
2533.637465 0.9247 0.9242 0.9237 0.9232 0.9230
2538.175188 0.9230 0.9227 0.9222 0.9217 0.9212
2542.712912 0.9205 0.9195 0.9190 0.9190 0.9187
2547.250636 0.9182 0.9177 0.9172 0.9167 0.9162
2551.788360 0.9157 0.9152 0.9147 0.9142 0.9140
2556.326083 0.9140 0.9137 0.9132 0.9127 0.9122
2560.863807 0.9115 0.9105 0.9100 0.9100 0.9097
2565.401531 0.9092 0.9087 0.9082 0.9077 0.9072
2569.939255 0.9070 0.9070 0.9067 0.9062 0.9057
2574.476978 0.9052 0.9047 0.9042 0.9040 0.9040
2579.014702 0.9037 0.9032 0.9030 0.9030 0.9024
2583.552426 0.9014 0.9010 0.9010 0.9010 0.9010
2588.090149 0.9007 0.9002 0.9000 0.9000 0.8997
2592.627873 0.8992 0.8990 0.8990 0.8990 0.8990
2597.165597 0.8990 0.8990 0.8990 0.8990 0.8993
2601.703321 0.8998 0.9000 0.9000 0.9000 0.9000
2606.241044 0.9000 0.9000 0.9003 0.9008 0.9010
2610.778768 0.9010 0.9010 0.9010 0.9010 0.9010
2615.316492 0.9016 0.9026 0.9030 0.9030 0.9030
2619.854215 0.9030 0.9030 0.9030 0.9024 0.9014
2624.391939 0.9010 0.9010 0.9007 0.9002 0.9000
2628.929663 0.9000 0.8997 0.8992 0.8987 0.8982
2633.467387 0.8977 0.8972 0.8970 0.8970 0.8967
2638.005110 0.8962 0.8957 0.8952 0.8947 0.8942
2642.542834 0.8934 0.8924 0.8917 0.8912 0.8907
2647.080558 0.8902 0.8897 0.8892 0.8887 0.8882
2651.618281 0.8877 0.8872 0.8867 0.8862 0.8857
2656.156005 0.8852 0.8844 0.8834 0.8827 0.8822
2660.693729 0.8817 0.8812 0.8804 0.8794 0.8787
2665.231453 0.8782 0.8777 0.8772 0.8764 0.8754
2669.769176 0.8747 0.8742 0.8737 0.8732 0.8727
2674.306900 0.8722 0.8717 0.8712 0.8707 0.8702
2678.844624 0.8693 0.8683 0.8667 0.8647 0.8630
2683.382348 0.8615 0.8603 0.8593 0.8577 0.8557
2687.920071 0.8543 0.8533 0.8523 0.8513 0.8507
2692.457795 0.8502 0.8490 0.8475 0.8463 0.8453
2696.995519 0.8447 0.8442 0.8437 0.8432 0.8427
2701.533242 0.8422 0.8417 0.8412 0.8403 0.8393
2706.070966 0.8390 0.8390 0.8387 0.8382 0.8377
2710.608690 0.8372 0.8367 0.8362 0.8360 0.8360
2715.146414 0.8357 0.8352 0.8347 0.8342 0.8337
2719.684137 0.8332 0.8330 0.8330 0.8327 0.8322
2724.221861 0.8313 0.8303 0.8296 0.8291 0.8290
2728.759585 0.8290 0.8286 0.8281 0.8276 0.8271
2733.297308 0.8266 0.8261 0.8256 0.8251 0.8246
2737.835032 0.8241 0.8233 0.8223 0.8216 0.8211
2742.372756 0.8206 0.8201 0.8196 0.8191 0.8186
2746.910480 0.8181 0.8176 0.8171 0.8166 0.8161
2751.448203 0.8156 0.8151 0.8143 0.8133 0.8126
2755.985927 0.8121 0.8120 0.8120 0.8116 0.8111
2760.523651 0.8106 0.8101 0.8096 0.8091 0.8083
2765.061375 0.8073 0.8059 0.8044 0.8036 0.8031
2769.599098 0.8026 0.8021 0.8013 0.8003 0.7996
2774.136822 0.7991 0.7983 0.7973 0.7963 0.7953
2778.674546 0.7946 0.7941 0.7936 0.7931 0.7930
2783.212269 0.7930 0.7926 0.7921 0.7916 0.7911
2787.749993 0.7906 0.7901 0.7900 0.7900 0.7896
2792.287717 0.7891 0.7886 0.7881 0.7872 0.7862
2796.825441 0.7856 0.7851 0.7846 0.7841 0.7840
2801.363164 0.7840 0.7836 0.7831 0.7826 0.7821
2805.900888 0.7816 0.7811 0.7810 0.7810 0.7806
2810.438612 0.7801 0.7796 0.7791 0.7778 0.7763
2814.976335 0.7756 0.7751 0.7742 0.7732 0.7726
2819.514059 0.7721 0.7716 0.7711 0.7698 0.7683
2824.051783 0.7676 0.7671 0.7666 0.7661 0.7652
2828.589507 0.7642 0.7640 0.7640 0.7632 0.7622
2833.127230 0.7604 0.7584 0.7568 0.7553 0.7546
2837.664954 0.7541 0.7511 0.7476 0.7462 0.7452
2842.202678 0.7438 0.7423 0.7408 0.7393 0.7374
2846.740402 0.7354 0.7329 0.7304 0.7263 0.7218
2851.278125 0.7206 0.7201 0.7196 0.7191 0.7156
2855.815849 0.7116 0.7102 0.7092 0.7090 0.7090
2860.353573 0.7044 0.6989 0.6955 0.6925 0.6899
2864.891296 0.6874 0.6853 0.6833 0.6809 0.6784
2869.429020 0.6759 0.6734 0.6691 0.6646 0.6593
2873.966744 0.6538 0.6517 0.6502 0.6461 0.6416
2878.504468 0.6341 0.6261 0.6199 0.6139 0.6100
2883.042191 0.6065 0.6051 0.6041 0.6001 0.5956
2887.579915 0.5933 0.5913 0.5893 0.5873 0.5861
2892.117639 0.5851 0.5841 0.5831 0.5839 0.5849
2896.655362 0.5854 0.5859 0.5877 0.5897 0.5904
2901.193086 0.5909 0.5932 0.5957 0.5969 0.5979
2905.730810 0.6002 0.6027 0.6043 0.6058 0.6069
2910.268534 0.6079 0.6093 0.6108 0.6114 0.6119
2914.806257 0.6124 0.6129 0.6134 0.6139 0.6140
2919.343981 0.6140 0.6140 0.6140 0.6131 0.6121
2923.881705 0.6115 0.6110 0.6092 0.6072 0.6038
2928.419429 0.6003 0.5968 0.5933 0.5907 0.5882
2932.957152 0.5871 0.5861 0.5860 0.5860 0.5865
2937.494876 0.5870 0.5879 0.5889 0.5899 0.5909
2942.032600 0.5924 0.5939 0.5945 0.5950 0.5955
2946.570323 0.5960 0.5969 0.5979 0.5985 0.5990
2951.108047 0.5990 0.5990 0.5990 0.5990 0.5985
2955.645771 0.5980 0.5975 0.5970 0.5970 0.5970
2960.183495 0.5979 0.5989 0.6004 0.6019 0.6039
2964.721218 0.6059 0.6069 0.6079 0.6094 0.6109
2969.258942 0.6110 0.6110 0.6115 0.6120 0.6120
2973.796666 0.6120 0.6115 0.6110 0.6110 0.6110
2978.334389 0.6100 0.6090 0.6085 0.6080 0.6075
2982.872113 0.6070 0.6070 0.6070 0.6065 0.6060
2987.409837 0.6060 0.6060 0.6065 0.6070 0.6070
2991.947561 0.6070 0.6089 0.6109 0.6115 0.6120
2996.485284 0.6120 0.6120 0.6130 0.6140 0.6130
3001.023008 0.6120 0.6115 0.6110 0.6095 0.6080
3005.560732 0.6060 0.6040 0.6011 0.5981 0.5955
3010.098456 0.5930 0.5901 0.5871 0.5841 0.5811
3014.636179 0.5785 0.5760 0.5730 0.5700 0.5670
3019.173903 0.5640 0.5615 0.5590 0.5560 0.5530
3023.711627 0.5500 0.5470 0.5445 0.5420 0.5395
3028.249350 0.5370 0.5350 0.5330 0.5305 0.5280
3032.787074 0.5265 0.5250 0.5225 0.5200 0.5185
3037.324798 0.5170 0.5145 0.5120 0.5100 0.5080
3041.862522 0.5055 0.5029 0.4994 0.4960 0.4940
3046.400245 0.4920 0.4900 0.4880 0.4860 0.4840
3050.937969 0.4825 0.4809 0.4794 0.4779 0.4754
3055.475693 0.4729 0.4714 0.4699 0.4679 0.4659
3060.013416 0.4644 0.4629 0.4604 0.4579 0.4564
3064.551140 0.4549 0.4534 0.4519 0.4494 0.4469
3069.088864 0.4454 0.4439 0.4414 0.4389 0.4369
3073.626588 0.4349 0.4324 0.4299 0.4279 0.4258
3078.164311 0.4223 0.4188 0.4153 0.4118 0.4088
3082.702035 0.4059 0.4039 0.4019 0.4004 0.3989
3087.239759 0.3963 0.3939 0.3929 0.3919 0.3899
3091.777483 0.3879 0.3859 0.3838 0.3813 0.3789
3096.315206 0.3769 0.3748 0.3718 0.3687 0.3647
3100.852930 0.3607 0.3562 0.3516 0.3466 0.3415
3105.390654 0.3350 0.3289 0.3274 0.3256 0.3211
3109.928377 0.3169 0.3154 0.3140 0.3135 0.3130
3114.466101 0.3125 0.3120 0.3115 0.3110 0.3105
3119.003825 0.3100 0.3100 0.3099 0.3084 0.3070
3123.541549 0.3070 0.3069 0.3064 0.3060 0.3060
3128.079272 0.3059 0.3054 0.3049 0.3039 0.3029
3132.616996 0.3019 0.3008 0.2988 0.2969 0.2959
3137.154720 0.2948 0.2928 0.2908 0.2893 0.2879
3141.692443 0.2869 0.2858 0.2838 0.2818 0.2803
3146.230167 0.2789 0.2779 0.2768 0.2748 0.2729
3150.767891 0.2719 0.2708 0.2693 0.2679 0.2669
3155.305615 0.2658 0.2643 0.2629 0.2619 0.2609
3159.843338 0.2599 0.2589 0.2579 0.2568 0.2553
3164.381062 0.2539 0.2534 0.2529 0.2519 0.2509
3168.918786 0.2499 0.2489 0.2484 0.2479 0.2469
3173.456510 0.2459 0.2454 0.2450 0.2450 0.2449
3177.994233 0.2444 0.2440 0.2440 0.2441 0.2446
3182.531957 0.2451 0.2456 0.2462 0.2472 0.2481
3187.069681 0.2486 0.2491 0.2496 0.2501 0.2506
3191.607404 0.2511 0.2516 0.2522 0.2537 0.2552
3196.145128 0.2568 0.2582 0.2592 0.2604 0.2624
3200.682852 0.2645 0.2675 0.2704 0.2729 0.2753
3205.220576 0.2768 0.2782 0.2792 0.2802 0.2812
3209.758299 0.2824 0.2844 0.2864 0.2889 0.2914
3214.296023 0.2940 0.2965 0.2990 0.3015 0.3040
3218.833747 0.3065 0.3090 0.3114 0.3134 0.3155
3223.371470 0.3180 0.3203 0.3218 0.3232 0.3242
3227.909194 0.3258 0.3298 0.3331 0.3336 0.3345
3232.446918 0.3370 0.3397 0.3432 0.3465 0.3490
3236.984642 0.3515 0.3540 0.3563 0.3578 0.3594
3241.522365 0.3614 0.3633 0.3648 0.3662 0.3672
3246.060089 0.3682 0.3692 0.3703 0.3718 0.3731
3250.597813 0.3736 0.3741 0.3746 0.3751 0.3756
3255.135537 0.3761 0.3766 0.3771 0.3776 0.3781
3259.673260 0.3786 0.3792 0.3802 0.3811 0.3816
3264.210984 0.3821 0.3826 0.3832 0.3842 0.3851
3268.748708 0.3856 0.3860 0.3860 0.3861 0.3866
3273.286431 0.3874 0.3889 0.3900 0.3900 0.3902
3277.824155 0.3912 0.3921 0.3926 0.3932 0.3942
3282.361879 0.3951 0.3956 0.3961 0.3966 0.3970
3286.899603 0.3970 0.3974 0.3989 0.4000 0.4000
3291.437326 0.3999 0.3994 0.3990 0.3990 0.3987
3295.975050 0.3977 0.3969 0.3964 0.3959 0.3954
3300.512774 0.3947 0.3937 0.3927 0.3917 0.3905
3305.050497 0.3884 0.3866 0.3851 0.3837 0.3827
3309.588221 0.3814 0.3794 0.3774 0.3754 0.3737
3314.125945 0.3727 0.3714 0.3694 0.3676 0.3661
3318.663669 0.3644 0.3624 0.3607 0.3597 0.3589
3323.201392 0.3584 0.3580 0.3580 0.3578 0.3573
3327.739116 0.3568 0.3563 0.3557 0.3547 0.3537
3332.276840 0.3527 0.3517 0.3507 0.3498 0.3493
3336.814564 0.3487 0.3477 0.3465 0.3450 0.3435
3341.352287 0.3420 0.3407 0.3397 0.3382 0.3357
3345.890011 0.3334 0.3314 0.3290 0.3260 0.3237
3350.427735 0.3227 0.3215 0.3200 0.3182 0.3157
3354.965458 0.3130 0.3100 0.3072 0.3047 0.3020
3359.503182 0.2990 0.2963 0.2943 0.2910 0.2850
3364.040906 0.2807 0.2797 0.2778 0.2743 0.2705
3368.578630 0.2660 0.2622 0.2597 0.2575 0.2560
3373.116353 0.2547 0.2537 0.2516 0.2477 0.2443
3377.654077 0.2423 0.2399 0.2369 0.2348 0.2343
3382.191801 0.2335 0.2320 0.2303 0.2283 0.2266
3386.729524 0.2256 0.2248 0.2243 0.2238 0.2233
3391.267248 0.2228 0.2223 0.2216 0.2206 0.2200
3395.804972 0.2200 0.2204 0.2214 0.2222 0.2227
3400.342696 0.2234 0.2244 0.2256 0.2271 0.2286
3404.880419 0.2301 0.2314 0.2324 0.2336 0.2351
3409.418143 0.2369 0.2394 0.2414 0.2424 0.2441
3413.955867 0.2472 0.2498 0.2518 0.2540 0.2565
3418.493591 0.2584 0.2594 0.2622 0.2677 0.2728
3423.031314 0.2773 0.2808 0.2828 0.2860 0.2910
3427.569038 0.2958 0.3003 0.3038 0.3058 0.3086
3432.106762 0.3126 0.3158 0.3178 0.3202 0.3232
3436.644485 0.3268 0.3313 0.3358 0.3403 0.3446
3441.182209 0.3486 0.3520 0.3545 0.3574 0.3609
3445.719933 0.3644 0.3679 0.3704 0.3714 0.3730
3450.257657 0.3756 0.3783 0.3813 0.3845 0.3880
3454.795380 0.3911 0.3936 0.3965 0.4000 0.4033
3459.333104 0.4063 0.4091 0.4116 0.4141 0.4166
3463.870828 0.4189 0.4209 0.4229 0.4249 0.4264
3468.408551 0.4274 0.4289 0.4309 0.4331 0.4356
3472.946275 0.4379 0.4399 0.4414 0.4424 0.4439
3477.483999 0.4459 0.4477 0.4492 0.4511 0.4536
3482.021723 0.4557 0.4572 0.4591 0.4616 0.4641
3486.559446 0.4666 0.4689 0.4709 0.4727 0.4742
3491.097170 0.4759 0.4779 0.4792 0.4797 0.4800
3495.634894 0.4800 0.4809 0.4829 0.4849 0.4869
3500.172618 0.4889 0.4909 0.4920 0.4920 0.4929
3504.710341 0.4950 0.4962 0.4967 0.4972 0.4977
3509.248065 0.4982 0.4987 0.4992 0.4997 0.5002
3513.785789 0.5007 0.5020 0.5040 0.5052 0.5057
3518.323512 0.5062 0.5067 0.5072 0.5077 0.5082
3522.861236 0.5087 0.5095 0.5105 0.5110 0.5110
3527.398960 0.5117 0.5132 0.5142 0.5147 0.5150
3531.936684 0.5150 0.5152 0.5157 0.5165 0.5175
3536.474407 0.5182 0.5187 0.5192 0.5197 0.5203
3541.012131 0.5208 0.5218 0.5233 0.5250 0.5270
3545.549855 0.5290 0.5310 0.5328 0.5343 0.5376
3550.087578 0.5426 0.5455 0.5465 0.5488 0.5523
3554.625302 0.5553 0.5578 0.5611 0.5651 0.5686
3559.163026 0.5716 0.5757 0.5807 0.5849 0.5884
3563.700750 0.5911 0.5931 0.5972 0.6032 0.6065
3568.238473 0.6075 0.6115 0.6180 0.6215 0.6225
3572.776197 0.6275 0.6360 0.6408 0.6423 0.6457
3577.313921 0.6507 0.6566 0.6631 0.6679 0.6714
3581.851645 0.6738 0.6753 0.6777 0.6807 0.6850
3586.389368 0.6905 0.6958 0.7008 0.7038 0.7053
3590.927092 0.7068 0.7083 0.7104 0.7129 0.7162
3595.464816 0.7203 0.7260 0.7330 0.7386 0.7431
3600.002539 0.7473 0.7513 0.7539 0.7554 0.7588
3604.540263 0.7638 0.7677 0.7707 0.7726 0.7736
3609.077987 0.7766 0.7811 0.7856 0.7901 0.7937
3613.615711 0.7968 0.7983 0.7988 0.8002 0.8022
3618.153434 0.8059 0.8109 0.8148 0.8178 0.8205
3622.691158 0.8230 0.8246 0.8256 0.8266 0.8276
3627.228882 0.8295 0.8320 0.8348 0.8378 0.8396
3631.766605 0.8406 0.8416 0.8426 0.8457 0.8502
3636.304329 0.8523 0.8528 0.8566 0.8626 0.8668
3640.842053 0.8698 0.8713 0.8718 0.8723 0.8728
3645.379777 0.8736 0.8746 0.8762 0.8782 0.8808
3649.917500 0.8839 0.8862 0.8882 0.8899 0.8914
3654.455224 0.8929 0.8944 0.8956 0.8966 0.8973
3658.992948 0.8978 0.8983 0.8988 0.8996 0.9006
3663.530672 0.9019 0.9034 0.9046 0.9056 0.9066
3668.068395 0.9076 0.9083 0.9088 0.9100 0.9115
3672.606119 0.9123 0.9128 0.9133 0.9138 0.9143
3677.143843 0.9148 0.9156 0.9166 0.9173 0.9178
3681.681566 0.9183 0.9188 0.9196 0.9206 0.9213
3686.219290 0.9218 0.9223 0.9228 0.9233 0.9238
3690.757014 0.9243 0.9248 0.9253 0.9258 0.9263
3695.294738 0.9268 0.9273 0.9278 0.9287 0.9297
3699.832461 0.9303 0.9308 0.9313 0.9318 0.9323
3704.370185 0.9328 0.9330 0.9330 0.9333 0.9338
3708.907909 0.9343 0.9348 0.9353 0.9358 0.9360
3713.445632 0.9360 0.9360 0.9360 0.9360 0.9360
3717.983356 0.9360 0.9360 0.9363 0.9368 0.9370
3722.521080 0.9370 0.9370 0.9370 0.9370 0.9370
3727.058804 0.9370 0.9370 0.9377 0.9387 0.9393
3731.596527 0.9398 0.9403 0.9408 0.9410 0.9410
3736.134251 0.9413 0.9418 0.9420 0.9420 0.9424
3740.671975 0.9429 0.9430 0.9430 0.9430 0.9430
3745.209699 0.9430 0.9430 0.9430 0.9430 0.9430
3749.747422 0.9430 0.9430 0.9430 0.9430 0.9430
3754.285146 0.9426 0.9421 0.9420 0.9420 0.9416
3758.822870 0.9411 0.9406 0.9401 0.9400 0.9400
3763.360593 0.9400 0.9400 0.9400 0.9400 0.9396
3767.898317 0.9391 0.9390 0.9390 0.9390 0.9390
3772.436041 0.9390 0.9390 0.9390 0.9390 0.9390
3776.973765 0.9390 0.9394 0.9399 0.9400 0.9400
3781.511488 0.9400 0.9400 0.9400 0.9400 0.9404
3786.049212 0.9409 0.9410 0.9410 0.9410 0.9410
3790.586936 0.9410 0.9410 0.9414 0.9419 0.9420
3795.124659 0.9420 0.9420 0.9420 0.9420 0.9420
3799.662383 0.9420 0.9420 0.9420 0.9420 0.9420
3804.200107 0.9420 0.9420 0.9420 0.9420 0.9420
3808.737831 0.9420 0.9420 0.9420 0.9420 0.9420
3813.275554 0.9420 0.9420 0.9420 0.9420 0.9420
3817.813278 0.9420 0.9420 0.9420 0.9420 0.9416
3822.351002 0.9411 0.9410 0.9410 0.9410 0.9410
3826.888726 0.9410 0.9410 0.9410 0.9410 0.9410
3831.426449 0.9410 0.9406 0.9401 0.9400 0.9400
3835.964173 0.9400 0.9400 0.9400 0.9400 0.9400
3840.501897 0.9400 0.9400 0.9400 0.9396 0.9391
3845.039620 0.9390 0.9390 0.9390 0.9390 0.9390
3849.577344 0.9390 0.9390 0.9390 0.9390 0.9390
3854.115068 0.9390 0.9390 0.9382 0.9372 0.9370
3858.652792 0.9370 0.9370 0.9370 0.9370 0.9370
3863.190515 0.9370 0.9370 0.9370 0.9370 0.9366
3867.728239 0.9361 0.9360 0.9360 0.9360 0.9360
3872.265963 0.9360 0.9360 0.9360 0.9360 0.9360
3876.803686 0.9360 0.9356 0.9351 0.9350 0.9350
3881.341410 0.9350 0.9350 0.9350 0.9350 0.9350
3885.879134 0.9350 0.9346 0.9341 0.9340 0.9340
3890.416858 0.9340 0.9340 0.9340 0.9340 0.9340
3894.954581 0.9340 0.9336 0.9331 0.9330 0.9330
3899.492305 0.9330 0.9330 0.9330 0.9330 0.9330
3904.030029 0.9330 0.9326 0.9321 0.9320 0.9320
3908.567753 0.9320 0.9320 0.9320 0.9320 0.9320
3913.105476 0.9320 0.9316 0.9311 0.9310 0.9310
3917.643200 0.9310 0.9310 0.9310 0.9310 0.9310
3922.180924 0.9310 0.9306 0.9301 0.9300 0.9300
3926.718647 0.9300 0.9300 0.9300 0.9300 0.9300
3931.256371 0.9300 0.9291 0.9281 0.9280 0.9280
3935.794095 0.9276 0.9271 0.9270 0.9270 0.9270
3940.331819 0.9270 0.9265 0.9260 0.9260 0.9260
3944.869542 0.9255 0.9250 0.9250 0.9250 0.9250
3949.407266 0.9250 0.9245 0.9240 0.9240 0.9240
3953.944990 0.9235 0.9230 0.9230 0.9230 0.9230
3958.482713 0.9230 0.9225 0.9220 0.9220 0.9220
3963.020437 0.9215 0.9210 0.9210 0.9210 0.9210
3967.558161 0.9210 0.9201 0.9191 0.9190 0.9190
3972.095885 0.9185 0.9180 0.9180 0.9180 0.9175
3976.633608 0.9170 0.9170 0.9170 0.9170 0.9170
3981.171332 0.9165 0.9160 0.9160 0.9160 0.9155
3985.709056 0.9150 0.9145 0.9140 0.9140 0.9140
##END=
