##TITLE=BENZENE, 2,4-DIISOCYANATO-1-METHYL- AND BENZENE, 2,6-DIISOCYANATO-1-METHYL-
##JCAMP-DX=4.24
##DATA TYPE=INFRARED SPECTRUM
##CLASS=COBLENTZ
##ORIGIN=DOW CHEMICAL COMPANY
##OWNER=COBLENTZ SOCIETY
Collection (C) 2018 copyright by the U.S. Secretary of Commerce
on behalf of the United States of America. All rights reserved.
##DATE=1960/03/21
##NAMES=TOLUENE DIISOCYANATE (TDI)
$$ ABOUT 80% 2,4-ISOMER AND ABOUT 20% 2,6-ISOMER
##MOLFORM=C9 H6 N2 O2
##SOURCE REFERENCE=COBLENTZ NO. 10108
##$NIST ID=B6010108
##$NIST SOURCE=COBLENTZ
##$NIST IMAGE=cob10108
##SPECTROMETER/DATA SYSTEM=DOW KBr FOREPRISM-GRATING
##INSTRUMENT PARAMETERS=BLAZED AT 3.5, 12.0, 20.0 MICRON, CHANGED AT 5.0, 7.5, 14.9 MICRON
##STATE=SOLUTION (10% IN CCl4 FOR 3800-1330 AND 10% IN CS2 FOR 1330-420 CM^-^1)
##PATH LENGTH=0.011, 0.011 CM
$$ SPECTRAL FEATURES AROUND 1018, 784, 703 CM^-^1 BELONG TO 2,6-ISOMER (ABOUT 20%)
##SAMPLING PROCEDURE=TRANSMISSION
##RESOLUTION=4
##DATA PROCESSING=DIGITIZED BY NIST FROM HARD COPY (FROM TWO SEGMENTS)
##XUNITS=1/CM
##YUNITS=TRANSMITTANCE
##XFACTOR=1.000000
##YFACTOR=1
##DELTAX=0.851065
##FIRSTX=405.106
##LASTX=3798.3
##FIRSTY=0.916
##MAXX=3798.3
##MINX=405.106
##MAXY=1.057
##MINY=0.002
##NPOINTS=3988
##XYDATA=(X++(Y..Y))
405.106000 0.9160 0.9170 0.9170 0.9180 0.9180
409.361326 0.9180 0.9180 0.9180 0.9180 0.9180
413.616651 0.9180 0.9180 0.9180 0.9180 0.9180
417.871977 0.9180 0.9180 0.9180 0.9180 0.9180
422.127303 0.9180 0.9170 0.9170 0.9170 0.9170
426.382629 0.9160 0.9160 0.9160 0.9160 0.9160
430.637954 0.9140 0.9140 0.9140 0.9140 0.9140
434.893280 0.9160 0.9160 0.9160 0.9170 0.9180
439.148606 0.9180 0.9170 0.9170 0.9170 0.9170
443.403931 0.9170 0.9170 0.9170 0.9170 0.9180
447.659257 0.9200 0.9300 0.9400 0.9520 0.9650
451.914583 0.9720 0.9770 0.9780 0.9820 0.9890
456.169908 0.9900 0.9920 1.0020 1.0100 1.0160
460.425234 1.0200 1.0220 1.0250 1.0260 1.0280
464.680560 1.0280 1.0290 1.0300 1.0320 1.0340
468.935886 1.0370 1.0370 1.0370 1.0380 1.0380
473.191211 1.0380 1.0410 1.0440 1.0450 1.0460
477.446537 1.0480 1.0490 1.0500 1.0500 1.0500
481.701863 1.0500 1.0520 1.0530 1.0540 1.0560
485.957188 1.0560 1.0570 1.0570 1.0570 1.0570
490.212514 1.0560 1.0560 1.0560 1.0540 1.0540
494.467840 1.0530 1.0520 1.0500 1.0490 1.0480
498.723165 1.0460 1.0410 1.0400 1.0340 1.0280
502.978491 1.0210 1.0130 1.0060 1.0020 0.9980
507.233817 0.9930 0.9880 0.9800 0.9730 0.9720
511.489143 0.9730 0.9820 1.0009 1.0040 1.0050
515.744468 1.0050 1.0050 1.0050 1.0020 1.0000
519.999794 0.9960 0.9850 0.9780 0.9720 0.9581
524.255120 0.9410 0.9320 0.9220 0.9210 0.9260
528.510445 0.9400 0.9490 0.9520 0.9520 0.9490
532.765771 0.9480 0.9460 0.9450 0.9400 0.9370
537.021097 0.9340 0.9300 0.9180 0.9051 0.8901
541.276422 0.8780 0.8690 0.8540 0.8400 0.8250
545.531748 0.8100 0.7961 0.7801 0.7611 0.7381
549.787074 0.7140 0.6850 0.6500 0.6101 0.5841
554.042400 0.5581 0.5321 0.5061 0.4801 0.4501
558.297725 0.4170 0.3800 0.3361 0.3001 0.2850
562.553051 0.2810 0.2800 0.2810 0.2850 0.2900
566.808377 0.3000 0.3060 0.3280 0.3490 0.3759
571.063702 0.4039 0.4199 0.4379 0.4599 0.4809
575.319028 0.5020 0.5220 0.5410 0.5560 0.5650
579.574354 0.5800 0.5900 0.6020 0.6090 0.6130
583.829679 0.6170 0.6170 0.6140 0.6130 0.6120
588.085005 0.6060 0.6010 0.5920 0.5811 0.5651
592.340331 0.5330 0.5080 0.5000 0.4401 0.3771
596.595657 0.3141 0.3140 0.3838 0.4647 0.5924
600.850982 0.6280 0.6320 0.6330 0.6330 0.6330
605.106308 0.6340 0.6340 0.6330 0.6330 0.6290
609.361634 0.6250 0.6180 0.6120 0.6080 0.6040
613.616959 0.6010 0.5970 0.5930 0.5860 0.5810
617.872285 0.5730 0.5660 0.5640 0.5560 0.5540
622.127611 0.5520 0.5480 0.5440 0.5400 0.5380
626.382936 0.5380 0.5380 0.5400 0.5400 0.5410
630.638262 0.5420 0.5440 0.5450 0.5490 0.5500
634.893588 0.5520 0.5570 0.5640 0.5660 0.5740
639.148914 0.5840 0.5999 0.6100 0.6130 0.6220
643.404239 0.6330 0.6440 0.6560 0.6650 0.6760
647.659565 0.6840 0.6900 0.7040 0.7169 0.7220
651.914891 0.7290 0.7320 0.7450 0.7580 0.7730
656.170216 0.7820 0.7920 0.7970 0.8020 0.8060
660.425542 0.8250 0.8360 0.8400 0.8520 0.8570
664.680868 0.8620 0.8650 0.8700 0.8760 0.8820
668.936193 0.8860 0.8880 0.8880 0.8880 0.8900
673.191519 0.8920 0.8920 0.8900 0.8880 0.8850
677.446845 0.8850 0.8880 0.8900 0.8920 0.8940
681.702171 0.8960 0.8960 0.8960 0.8940 0.8930
685.957496 0.8920 0.8880 0.8840 0.8800 0.8760
690.212822 0.8730 0.8720 0.8700 0.8610 0.8530
694.468148 0.8440 0.8360 0.8300 0.8050 0.7810
698.723473 0.7730 0.7610 0.7132 0.6542 0.6162
702.978799 0.5540 0.5540 0.6419 0.6680 0.7358
707.234125 0.8078 0.8289 0.8499 0.8570 0.8640
711.489450 0.8650 0.8720 0.8780 0.8860 0.8920
715.744776 0.8970 0.9060 0.9120 0.9160 0.9180
720.000102 0.9260 0.9300 0.9340 0.9360 0.9400
724.255428 0.9460 0.9520 0.9560 0.9560 0.9540
728.510753 0.9540 0.9560 0.9570 0.9570 0.9570
732.766079 0.9570 0.9570 0.9540 0.9500 0.9460
737.021405 0.9400 0.9290 0.9160 0.9090 0.8930
741.276730 0.8641 0.8530 0.8520 0.8530 0.8530
745.532056 0.8560 0.8570 0.8580 0.8650 0.8720
749.787382 0.8780 0.8880 0.8930 0.8960 0.9020
754.042708 0.9140 0.9180 0.9320 0.9410 0.9490
758.298033 0.9580 0.9680 0.9780 0.9850 0.9900
762.553359 1.0020 1.0020 1.0040 1.0040 1.0040
766.808685 1.0050 1.0050 1.0040 0.9980 0.9920
771.064010 0.9840 0.9800 0.9720 0.9610 0.9440
775.319336 0.9290 0.9051 0.8542 0.7972 0.7652
779.574662 0.7279 0.6490 0.5140 0.4451 0.3821
783.829987 0.3800 0.3820 0.4179 0.4609 0.5198
788.085313 0.6220 0.7300 0.8089 0.8779 0.8920
792.340639 0.9159 0.9320 0.9360 0.9410 0.9420
796.595965 0.9420 0.9420 0.9370 0.9290 0.9160
800.851290 0.9010 0.8811 0.8611 0.8361 0.8042
805.106616 0.7580 0.7010 0.6240 0.5880 0.4532
809.361942 0.3103 0.2920 0.2920 0.2960 0.2970
813.617267 0.2980 0.2980 0.3010 0.3050 0.3060
817.872593 0.3130 0.4486 0.5756 0.6637 0.6660
822.127919 0.6980 0.7620 0.7730 0.8638 0.8840
826.383244 0.9039 0.9140 0.9260 0.9300 0.9300
830.638570 0.9280 0.9260 0.9250 0.9220 0.9170
834.893896 0.9120 0.9040 0.8970 0.8930 0.8771
839.149222 0.8570 0.8450 0.8290 0.8170 0.8000
843.404547 0.7860 0.7691 0.7531 0.7410 0.7320
847.659873 0.7240 0.7080 0.6860 0.6650 0.6440
851.915199 0.6251 0.6081 0.5801 0.5571 0.5321
856.170524 0.5090 0.4890 0.4730 0.4580 0.4450
860.425850 0.4340 0.4220 0.4120 0.3981 0.3801
864.681176 0.3490 0.3240 0.3080 0.2890 0.2880
868.936501 0.2890 0.3219 0.3519 0.3640 0.3769
873.191827 0.3850 0.3890 0.3920 0.3980 0.4000
877.447153 0.4090 0.4369 0.4858 0.5378 0.5957
881.702479 0.6200 0.6240 0.6240 0.6220 0.6050
885.957804 0.5840 0.5581 0.5440 0.4922 0.4303
890.213130 0.3920 0.3560 0.3530 0.3540 0.3620
894.468456 0.3680 0.3730 0.3889 0.4039 0.4209
898.723781 0.4460 0.4690 0.4970 0.5180 0.5330
902.979107 0.5420 0.5540 0.5779 0.6039 0.6379
907.234433 0.6770 0.6940 0.7440 0.7890 0.8319
911.489758 0.8659 0.8919 0.9040 0.9289 0.9449
915.745084 0.9570 0.9640 0.9720 0.9780 0.9820
920.000410 0.9900 0.9980 1.0020 1.0040 1.0060
924.255736 1.0080 1.0060 1.0050 1.0040 1.0050
928.511061 1.0080 1.0090 1.0100 1.0100 1.0100
932.766387 1.0100 1.0090 1.0080 1.0050 1.0050
937.021713 1.0040 1.0020 1.0020 1.0020 1.0040
941.277038 1.0040 1.0050 1.0080 1.0080 1.0080
945.532364 1.0090 1.0090 1.0100 1.0120 1.0120
949.787690 1.0130 1.0120 1.0120 1.0120 1.0120
954.043015 1.0120 1.0100 1.0050 1.0020 1.0010
958.298341 1.0010 1.0020 1.0020 1.0050 1.0050
962.553667 1.0060 1.0100 1.0120 1.0120 1.0120
966.808993 1.0120 1.0100 1.0090 1.0050 1.0040
971.064318 1.0020 1.0020 1.0020 1.0010 1.0010
975.319644 1.0000 0.9980 0.9960 0.9930 0.9920
979.574970 0.9900 0.9860 0.9810 0.9780 0.9700
983.830295 0.9660 0.9610 0.9570 0.9490 0.9400
988.085621 0.9330 0.9061 0.8861 0.8501 0.8361
992.340947 0.8119 0.7600 0.7020 0.6800 0.6540
996.596272 0.6280 0.6250 0.6260 0.6918 0.7099
1000.851598 0.8180 0.8480 0.8580 0.8730 0.8740
1005.106924 0.8730 0.8720 0.8720 0.8680 0.8620
1009.362250 0.8450 0.8290 0.8050 0.7930 0.7700
1013.617575 0.7481 0.7141 0.6861 0.6561 0.6202
1017.872901 0.6180 0.6200 0.6370 0.6640 0.6970
1022.128227 0.7329 0.7619 0.7929 0.8179 0.8399
1026.383552 0.8600 0.8770 0.8810 0.8820 0.8810
1030.638878 0.8740 0.8700 0.8700 0.8690 0.8690
1034.894204 0.8720 0.8770 0.8860 0.8960 0.9000
1039.149529 0.9170 0.9280 0.9330 0.9340 0.9360
1043.404855 0.9360 0.9370 0.9370 0.9380 0.9400
1047.660181 0.9410 0.9420 0.9460 0.9560 0.9610
1051.915507 0.9680 0.9690 0.9730 0.9800 0.9800
1056.170832 0.9810 0.9780 0.9760 0.9720 0.9680
1060.426158 0.9640 0.9570 0.9530 0.9480 0.9360
1064.681484 0.9160 0.9020 0.8811 0.8531 0.8301
1068.936809 0.7840 0.7460 0.6580 0.5541 0.5091
1073.192135 0.3343 0.2422 0.2400 0.2799 0.3179
1077.447461 0.3210 0.3800 0.4170 0.5359 0.6738
1081.702787 0.7049 0.7519 0.8168 0.8539 0.8799
1085.958112 0.9100 0.9200 0.9300 0.9340 0.9480
1090.213438 0.9580 0.9600 0.9600 0.9600 0.9600
1094.468764 0.9600 0.9580 0.9570 0.9560 0.9530
1098.724089 0.9480 0.9380 0.9320 0.9240 0.9170
1102.979415 0.9080 0.8970 0.8940 0.8840 0.8720
1107.234741 0.8620 0.8560 0.8381 0.8221 0.8200
1111.490066 0.8080 0.8000 0.7960 0.7890 0.7840
1115.745392 0.7770 0.7720 0.7700 0.7700 0.7690
1120.000718 0.7660 0.7660 0.7650 0.7640 0.7620
1124.256044 0.7620 0.7600 0.7600 0.7540 0.7500
1128.511369 0.7480 0.7340 0.7250 0.7200 0.7170
1132.766695 0.7120 0.7080 0.7000 0.6980 0.7000
1137.022021 0.7090 0.7130 0.7300 0.7530 0.7800
1141.277346 0.7980 0.8090 0.8170 0.8240 0.8280
1145.532672 0.8330 0.8330 0.8330 0.8330 0.8250
1149.787998 0.8170 0.8090 0.8000 0.7980 0.7970
1154.043323 0.7960 0.7960 0.7960 0.7960 0.7940
1158.298649 0.7900 0.7810 0.7780 0.7680 0.7640
1162.553975 0.7610 0.7520 0.7440 0.7370 0.7300
1166.809301 0.7290 0.7290 0.7300 0.7420 0.7579
1171.064626 0.7770 0.7880 0.8040 0.8260 0.8450
1175.319952 0.8610 0.8760 0.8900 0.9020 0.9090
1179.575278 0.9300 0.9380 0.9400 0.9440 0.9520
1183.830603 0.9650 0.9810 0.9850 0.9880 0.9890
1188.085929 0.9920 0.9930 0.9940 0.9940 0.9930
1192.341255 0.9930 0.9940 0.9960 1.0010 1.0020
1196.596580 1.0020 1.0010 1.0000 0.9940 0.9900
1200.851906 0.9860 0.9840 0.9810 0.9770 0.9621
1205.107232 0.9450 0.9330 0.9140 0.9000 0.8800
1209.362558 0.8760 0.8810 0.8880 0.9000 0.9159
1213.617883 0.9330 0.9380 0.9420 0.9460 0.9520
1217.873209 0.9600 0.9760 0.9810 1.0039 1.0130
1222.128535 1.0170 1.0200 1.0220 1.0260 1.0280
1226.383860 1.0280 1.0280 1.0280 1.0290 1.0290
1230.639186 1.0320 1.0330 1.0330 1.0300 1.0300
1234.894512 1.0280 1.0260 1.0260 1.0260 1.0260
1239.149837 1.0260 1.0260 1.0260 1.0260 1.0250
1243.405163 1.0250 1.0220 1.0210 1.0200 1.0200
1247.660489 1.0200 1.0180 1.0170 1.0160 1.0120
1251.915815 1.0100 1.0090 1.0050 1.0010 1.0010
1256.171140 0.9970 0.9920 0.9900 0.9860 0.9840
1260.426466 0.9810 0.9800 0.9770 0.9690 0.9570
1264.681792 0.9440 0.9260 0.9130 0.8860 0.8810
1268.937117 0.8810 0.8840 0.9059 0.9249 0.9370
1273.192443 0.9460 0.9560 0.9570 0.9570 0.9570
1277.447769 0.9560 0.9520 0.9520 0.9420 0.9340
1281.703094 0.9290 0.9260 0.9210 0.9140 0.9020
1285.958420 0.8960 0.8930 0.8920 0.8900 0.8900
1290.213746 0.8890 0.8890 0.8900 0.8930 0.8940
1294.469072 0.8970 0.9100 0.9210 0.9340 0.9370
1298.724397 0.9440 0.9570 0.9680 0.9720 0.9780
1302.979723 0.9810 0.9890 1.0010 1.0020 1.0020
1307.235049 1.0020 1.0040 1.0050 1.0080 1.0080
1311.490374 1.0090 1.0090 1.0100 1.0100 1.0120
1315.745700 1.0120 1.0130 1.0130 1.0130 1.0120
1320.001026 1.0100 1.0100 1.0090 1.0090 1.0090
1324.256351 1.0090 1.0090 1.0090 1.0090 1.0080
1328.511677 1.0040 1.0040 1.0040 1.0040 1.0040
1332.767003 1.0040 1.0040 1.0040 1.0040 1.0040
1337.022329 1.0050 1.0050 1.0040 1.0020 1.0020
1341.277654 1.0020 1.0020 1.0010 1.0010 1.0010
1345.532980 1.0000 1.0000 0.9980 0.9970 0.9960
1349.788306 0.9930 0.9890 0.9860 0.9860 0.9860
1354.043631 0.9850 0.9820 0.9800 0.9780 0.9740
1358.298957 0.9740 0.9720 0.9690 0.9580 0.9560
1362.554283 0.9500 0.9490 0.9490 0.9480 0.9480
1366.809609 0.9460 0.9460 0.9450 0.9450 0.9380
1371.064934 0.9360 0.9340 0.9300 0.9250 0.9160
1375.320260 0.9080 0.8970 0.8900 0.8770 0.8450
1379.575586 0.8060 0.7761 0.7211 0.7100 0.7100
1383.830911 0.7250 0.7700 0.7960 0.8170 0.8330
1388.086237 0.8440 0.8530 0.8580 0.8620 0.8640
1392.341563 0.8650 0.8650 0.8660 0.8680 0.8720
1396.596888 0.8800 0.8810 0.8840 0.8860 0.8970
1400.852214 0.9100 0.9170 0.9180 0.9200 0.9210
1405.107540 0.9220 0.9220 0.9210 0.9210 0.9210
1409.362866 0.9180 0.9160 0.9120 0.9090 0.9060
1413.618191 0.9010 0.8960 0.8920 0.8810 0.8740
1417.873517 0.8720 0.8720 0.8760 0.8760 0.8760
1422.128843 0.8760 0.8740 0.8740 0.8740 0.8730
1426.384168 0.8720 0.8640 0.8620 0.8610 0.8530
1430.639494 0.8340 0.8290 0.8210 0.8140 0.7961
1434.894820 0.7780 0.7650 0.7500 0.7300 0.7140
1439.150145 0.6920 0.6810 0.6700 0.6640 0.6600
1443.405471 0.6570 0.6570 0.6560 0.6540 0.6500
1447.660797 0.6480 0.6410 0.6370 0.6320 0.6290
1451.916123 0.6280 0.6290 0.6290 0.6330 0.6360
1456.171448 0.6570 0.6879 0.7129 0.7280 0.7370
1460.426774 0.7410 0.7450 0.7460 0.7480 0.7490
1464.682100 0.7490 0.7480 0.7460 0.7450 0.7450
1468.937425 0.7450 0.7450 0.7500 0.7500 0.7500
1473.192751 0.7490 0.7420 0.7360 0.7320 0.7290
1477.448077 0.7250 0.7210 0.7170 0.7130 0.7080
1481.703402 0.7080 0.6980 0.6930 0.6800 0.6660
1485.958728 0.6490 0.6360 0.6290 0.6010 0.5850
1490.214054 0.5660 0.5460 0.5330 0.5161 0.5021
1494.469380 0.4920 0.4740 0.4500 0.4330 0.4180
1498.724705 0.4000 0.3820 0.3660 0.3480 0.3400
1502.980031 0.3330 0.3260 0.3210 0.3170 0.3050
1507.235357 0.2860 0.2780 0.2700 0.2650 0.2570
1511.490682 0.2540 0.2450 0.2340 0.2250 0.2130
1515.746008 0.2040 0.1930 0.1820 0.1610 0.1341
1520.001334 0.1170 0.1040 0.0960 0.0880 0.0730
1524.256659 0.0660 0.0620 0.0570 0.0560 0.0540
1528.511985 0.0530 0.0540 0.0570 0.0580 0.0640
1532.767311 0.0650 0.1209 0.1559 0.1819 0.1920
1537.022637 0.1980 0.2010 0.2050 0.2130 0.2260
1541.277962 0.2280 0.2330 0.2400 0.2500 0.2560
1545.533288 0.2610 0.2680 0.2800 0.2800 0.2930
1549.788614 0.3050 0.3170 0.3290 0.3360 0.3380
1554.043939 0.3410 0.3440 0.3450 0.3450 0.3420
1558.299265 0.3400 0.3380 0.3330 0.3260 0.3250
1562.554591 0.3210 0.3170 0.3090 0.2900 0.2680
1566.809916 0.2520 0.2410 0.2250 0.2001 0.1651
1571.065242 0.1370 0.1290 0.1130 0.1010 0.0930
1575.320568 0.0850 0.0800 0.0690 0.0640 0.0620
1579.575894 0.0610 0.0610 0.0620 0.0640 0.0680
1583.831219 0.1080 0.1320 0.1580 0.1740 0.1880
1588.086545 0.1971 0.2290 0.2340 0.2340 0.2330
1592.341871 0.2290 0.2220 0.2160 0.2130 0.2080
1596.597196 0.2060 0.2060 0.2180 0.2290 0.2380
1600.852522 0.2490 0.2690 0.2690 0.2650 0.2640
1605.107848 0.2540 0.2380 0.2280 0.2180 0.1930
1609.363173 0.1720 0.1211 0.1140 0.1020 0.0940
1613.618499 0.0860 0.0650 0.0530 0.0500 0.0490
1617.873825 0.0490 0.0490 0.0500 0.0530 0.0610
1622.129151 0.0651 0.1200 0.1660 0.2240 0.2580
1626.384476 0.3119 0.3609 0.3959 0.5047 0.5658
1630.639802 0.6370 0.6491 0.6820 0.7260 0.7570
1634.895128 0.7920 0.8399 0.8540 0.8720 0.8860
1639.150453 0.9000 0.9090 0.9170 0.9240 0.9280
1643.405779 0.9340 0.9410 0.9460 0.9530 0.9600
1647.661105 0.9660 0.9700 0.9760 0.9770 0.9780
1651.916430 0.9780 0.9800 0.9800 0.9810 0.9820
1656.171756 0.9820 0.9820 0.9840 0.9840 0.9850
1660.427082 0.9850 0.9860 0.9890 0.9890 0.9890
1664.682408 0.9900 0.9900 0.9890 0.9890 0.9890
1668.937733 0.9880 0.9880 0.9880 0.9890 0.9900
1673.193059 0.9900 0.9920 0.9930 0.9940 0.9960
1677.448385 0.9970 0.9980 1.0000 1.0010 1.0010
1681.703710 1.0040 1.0050 1.0060 1.0080 1.0080
1685.959036 1.0060 1.0050 1.0060 1.0060 1.0090
1690.214362 1.0120 1.0120 1.0120 1.0130 1.0160
1694.469688 1.0170 1.0170 1.0160 1.0160 1.0160
1698.725013 1.0160 1.0160 1.0160 1.0170 1.0170
1702.980339 1.0170 1.0180 1.0200 1.0210 1.0220
1707.235665 1.0240 1.0240 1.0210 1.0200 1.0200
1711.490990 1.0200 1.0200 1.0240 1.0240 1.0240
1715.746316 1.0210 1.0180 1.0140 1.0130 1.0100
1720.001642 1.0080 1.0050 1.0040 1.0020 1.0010
1724.256967 1.0000 1.0000 0.9970 0.9960 0.9940
1728.512293 0.9940 0.9920 0.9900 0.9900 0.9920
1732.767619 0.9930 0.9960 0.9970 0.9970 0.9980
1737.022945 1.0000 1.0000 1.0000 1.0000 0.9980
1741.278270 0.9980 0.9980 0.9980 1.0000 1.0020
1745.533596 1.0020 1.0010 1.0000 0.9980 0.9960
1749.788922 0.9960 0.9940 0.9940 0.9940 0.9960
1754.044247 0.9970 0.9970 0.9970 1.0020 1.0020
1758.299573 1.0020 1.0040 1.0040 1.0050 1.0050
1762.554899 1.0060 1.0080 1.0080 1.0090 1.0090
1766.810224 1.0090 1.0100 1.0120 1.0130 1.0130
1771.065550 1.0130 1.0120 1.0090 1.0060 1.0050
1775.320876 1.0040 1.0040 1.0050 1.0060 1.0050
1779.576202 1.0040 1.0010 1.0010 1.0000 1.0000
1783.831527 0.9980 0.9970 0.9970 0.9970 0.9980
1788.086853 1.0010 1.0020 1.0020 1.0040 1.0050
1792.342179 1.0060 1.0160 1.0180 1.0180 1.0170
1796.597504 1.0170 1.0170 1.0180 1.0200 1.0180
1800.852830 1.0160 1.0160 1.0160 1.0160 1.0160
1805.108156 1.0160 1.0160 1.0160 1.0160 1.0160
1809.363481 1.0160 1.0160 1.0160 1.0160 1.0140
1813.618807 1.0130 1.0130 1.0120 1.0120 1.0120
1817.874133 1.0130 1.0130 1.0130 1.0140 1.0140
1822.129459 1.0140 1.0140 1.0170 1.0170 1.0170
1826.384784 1.0160 1.0160 1.0160 1.0160 1.0180
1830.640110 1.0200 1.0200 1.0200 1.0200 1.0200
1834.895436 1.0180 1.0160 1.0130 1.0130 1.0120
1839.150761 1.0120 1.0120 1.0100 1.0100 1.0100
1843.406087 1.0090 1.0090 1.0090 1.0090 1.0080
1847.661413 1.0060 1.0060 1.0050 1.0050 1.0050
1851.916738 1.0080 1.0080 1.0080 1.0090 1.0090
1856.172064 1.0100 1.0100 1.0100 1.0100 1.0100
1860.427390 1.0140 1.0140 1.0140 1.0160 1.0160
1864.682716 1.0140 1.0140 1.0130 1.0120 1.0120
1868.938041 1.0100 1.0090 1.0080 1.0060 1.0040
1873.193367 1.0020 1.0000 0.9960 0.9920 0.9880
1877.448693 0.9840 0.9820 0.9810 0.9800 0.9740
1881.704018 0.9730 0.9730 0.9730 0.9740 0.9740
1885.959344 0.9740 0.9740 0.9760 0.9770 0.9770
1890.214670 0.9800 0.9840 0.9920 0.9920 0.9940
1894.469995 1.0020 1.0040 1.0080 1.0120 1.0130
1898.725321 1.0130 1.0140 1.0140 1.0140 1.0140
1902.980647 1.0140 1.0140 1.0160 1.0160 1.0160
1907.235973 1.0160 1.0160 1.0160 1.0160 1.0140
1911.491298 1.0140 1.0140 1.0140 1.0140 1.0130
1915.746624 1.0130 1.0120 1.0100 1.0100 1.0100
1920.001950 1.0090 1.0090 1.0100 1.0120 1.0160
1924.257275 1.0180 1.0210 1.0240 1.0240 1.0250
1928.512601 1.0250 1.0250 1.0260 1.0260 1.0260
1932.767927 1.0260 1.0260 1.0250 1.0260 1.0260
1937.023252 1.0280 1.0280 1.0280 1.0260 1.0260
1941.278578 1.0260 1.0260 1.0260 1.0260 1.0250
1945.533904 1.0250 1.0250 1.0250 1.0250 1.0250
1949.789230 1.0300 1.0300 1.0260 1.0250 1.0250
1954.044555 1.0240 1.0240 1.0240 1.0220 1.0220
1958.299881 1.0280 1.0360 1.0420 1.0530 1.0261
1962.555207 1.0250 1.0250 1.0210 1.0180 1.0180
1966.810532 1.0180 1.0180 1.0180 1.0180 1.0180
1971.065858 1.0200 1.0200 1.0210 1.0210 1.0200
1975.321184 1.0170 1.0170 1.0170 1.0170 1.0170
1979.576509 1.0180 1.0180 1.0200 1.0200 1.0210
1983.831835 1.0210 1.0210 1.0200 1.0200 1.0180
1988.087161 1.0180 1.0180 1.0180 1.0180 1.0180
1992.342487 1.0180 1.0180 1.0170 1.0170 1.0160
1996.597812 1.0140 1.0140 1.0130 1.0130 1.0120
2000.853138 1.0120 1.0120 1.0120 1.0120 1.0110
2005.108464 1.0100 1.0100 1.0100 1.0095 1.0090
2009.363789 1.0085 1.0080 1.0070 1.0060 1.0055
2013.619115 1.0050 1.0045 1.0040 1.0030 1.0020
2017.874441 1.0010 1.0000 0.9980 0.9960 0.9950
2022.129767 0.9940 0.9935 0.9930 0.9930 0.9930
2026.385092 0.9925 0.9920 0.9920 0.9920 0.9920
2030.640418 0.9920 0.9910 0.9900 0.9890 0.9880
2034.895744 0.9865 0.9850 0.9850 0.9850 0.9845
2039.151069 0.9840 0.9840 0.9840 0.9825 0.9810
2043.406395 0.9805 0.9800 0.9790 0.9780 0.9775
2047.661721 0.9770 0.9756 0.9741 0.9711 0.9681
2051.917046 0.9641 0.9601 0.9585 0.9570 0.9570
2056.172372 0.9570 0.9546 0.9521 0.9462 0.9402
2060.427698 0.9371 0.9341 0.9321 0.9301 0.9281
2064.683024 0.9261 0.9250 0.9241 0.9226 0.9211
2068.938349 0.9191 0.9171 0.9165 0.9160 0.9150
2073.193675 0.9140 0.9140 0.9140 0.9140 0.9140
2077.449001 0.9140 0.9140 0.9149 0.9159 0.9160
2081.704326 0.9160 0.9160 0.9160 0.9151 0.9140
2085.959652 0.9140 0.9140 0.9140 0.9140 0.9135
2090.214978 0.9130 0.9111 0.9091 0.9071 0.9051
2094.470303 0.9031 0.9011 0.8991 0.8971 0.8951
2098.725629 0.8931 0.8907 0.8882 0.8847 0.8812
2102.980955 0.8772 0.8732 0.8692 0.8652 0.8617
2107.236281 0.8582 0.8571 0.8561 0.8467 0.8367
2111.491606 0.8327 0.8292 0.8258 0.8223 0.8192
2115.746932 0.8162 0.8128 0.8093 0.8034 0.7974
2120.002258 0.7895 0.7815 0.7698 0.7578 0.7472
2124.257583 0.7368 0.7304 0.7244 0.7157 0.7067
2128.512909 0.6908 0.6743 0.6583 0.6423 0.6264
2132.768235 0.6104 0.5967 0.5832 0.5719 0.5608
2137.023560 0.5544 0.5485 0.5300 0.5105 0.4975
2141.278886 0.4850 0.4657 0.4457 0.4376 0.4306
2145.534212 0.4241 0.4176 0.4116 0.4056 0.3996
2149.789538 0.3936 0.3844 0.3749 0.3695 0.3644
2154.044863 0.3631 0.3621 0.3615 0.3610 0.3610
2158.300189 0.3610 0.3605 0.3600 0.3591 0.3581
2162.555515 0.3575 0.3571 0.3566 0.3561 0.3547
2166.810840 0.3532 0.3517 0.3502 0.3491 0.3481
2171.066166 0.3448 0.3413 0.3378 0.3343 0.3295
2175.321492 0.3245 0.3186 0.3126 0.3053 0.2978
2179.576817 0.2903 0.2828 0.2758 0.2688 0.2613
2183.832143 0.2539 0.2459 0.2379 0.2312 0.2247
2188.087469 0.2186 0.2126 0.2071 0.2016 0.1974
2192.342795 0.1934 0.1899 0.1864 0.1838 0.1813
2196.598120 0.1726 0.1631 0.1541 0.1451 0.1370
2200.853446 0.1290 0.1210 0.1130 0.1089 0.1054
2205.108772 0.1019 0.0984 0.0922 0.0858 0.0801
2209.364097 0.0747 0.0696 0.0646 0.0592 0.0537
2213.619423 0.0499 0.0464 0.0434 0.0404 0.0400
2217.874749 0.0400 0.0383 0.0363 0.0290 0.0210
2222.130074 0.0156 0.0106 0.0096 0.0091 0.0077
2226.385400 0.0062 0.0056 0.0051 0.0046 0.0041
2230.640726 0.0040 0.0040 0.0040 0.0040 0.0040
2234.896052 0.0040 0.0040 0.0040 0.0031 0.0021
2239.151377 0.0020 0.0020 0.0020 0.0020 0.0020
2243.406703 0.0020 0.0020 0.0020 0.0020 0.0020
2247.662029 0.0020 0.0020 0.0020 0.0020 0.0020
2251.917354 0.0020 0.0020 0.0020 0.0020 0.0020
2256.172680 0.0020 0.0020 0.0020 0.0020 0.0020
2260.428006 0.0020 0.0020 0.0020 0.0020 0.0020
2264.683331 0.0020 0.0020 0.0020 0.0020 0.0020
2268.938657 0.0020 0.0020 0.0020 0.0020 0.0020
2273.193983 0.0020 0.0020 0.0020 0.0020 0.0020
2277.449309 0.0020 0.0020 0.0020 0.0020 0.0020
2281.704634 0.0020 0.0020 0.0020 0.0020 0.0020
2285.959960 0.0020 0.0020 0.0020 0.0020 0.0020
2290.215286 0.0020 0.0020 0.0028 0.0038 0.0040
2294.470611 0.0040 0.0040 0.0040 0.0040 0.0040
2298.725937 0.0044 0.0049 0.0050 0.0050 0.0054
2302.981263 0.0059 0.0060 0.0060 0.0068 0.0078
2307.236588 0.0080 0.0080 0.0080 0.0080 0.0084
2311.491914 0.0089 0.0106 0.0126 0.0159 0.0194
2315.747240 0.0204 0.0209 0.0222 0.0237 0.0272
2320.002566 0.0312 0.0352 0.0392 0.0457 0.0528
2324.257891 0.0598 0.0667 0.0721 0.0771 0.0894
2328.513217 0.1034 0.1109 0.1169 0.1212 0.1252
2332.768543 0.1308 0.1368 0.1408 0.1443 0.1478
2337.023868 0.1513 0.1552 0.1592 0.1624 0.1654
2341.279194 0.1688 0.1723 0.1758 0.1793 0.1820
2345.534520 0.1845 0.1866 0.1886 0.1902 0.1917
2349.789846 0.2020 0.2145 0.2265 0.2385 0.2458
2354.045171 0.2517 0.2577 0.2637 0.2698 0.2758
2358.300497 0.2802 0.2842 0.2934 0.3039 0.3076
2362.555823 0.3096 0.3108 0.3118 0.3124 0.3129
2366.811148 0.3134 0.3139 0.3152 0.3167 0.3197
2371.066474 0.3232 0.3248 0.3258 0.3272 0.3287
2375.321800 0.3302 0.3317 0.3324 0.3329 0.3358
2379.577125 0.3393 0.3435 0.3480 0.3517 0.3552
2383.832451 0.3591 0.3631 0.3675 0.3720 0.3776
2388.087777 0.3836 0.3896 0.3956 0.4013 0.4068
2392.343103 0.4127 0.4187 0.4235 0.4280 0.4317
2396.598428 0.4352 0.4461 0.4591 0.4728 0.4868
2400.853754 0.5039 0.5218 0.5344 0.5454 0.5610
2405.109080 0.5780 0.5881 0.5961 0.6080 0.6211
2409.364405 0.6364 0.6524 0.6676 0.6826 0.6952
2413.619731 0.7072 0.7146 0.7206 0.7289 0.7379
2417.875057 0.7438 0.7488 0.7530 0.7570 0.7591
2422.130382 0.7606 0.7712 0.7846 0.7910 0.7951
2426.385708 0.8006 0.8066 0.8095 0.8115 0.8196
2430.641034 0.8296 0.8365 0.8425 0.8459 0.8484
2434.896360 0.8516 0.8551 0.8582 0.8612 0.8657
2439.151685 0.8707 0.8753 0.8798 0.8844 0.8889
2443.407011 0.8930 0.8970 0.9006 0.9041 0.9069
2447.662337 0.9094 0.9122 0.9152 0.9190 0.9230
2451.917662 0.9270 0.9310 0.9335 0.9355 0.9367
2456.172988 0.9377 0.9402 0.9432 0.9455 0.9475
2460.428314 0.9495 0.9515 0.9527 0.9537 0.9547
2464.683639 0.9557 0.9564 0.9569 0.9585 0.9605
2468.938965 0.9614 0.9619 0.9642 0.9672 0.9687
2473.194291 0.9697 0.9700 0.9700 0.9707 0.9717
2477.449617 0.9735 0.9755 0.9775 0.9795 0.9807
2481.704942 0.9817 0.9842 0.9872 0.9887 0.9897
2485.960268 0.9900 0.9900 0.9907 0.9917 0.9924
2490.215594 0.9929 0.9941 0.9956 0.9967 0.9977
2494.470919 0.9980 0.9980 0.9987 0.9997 1.0004
2498.726245 1.0009 1.0010 1.0010 1.0010 1.0010
2502.981571 1.0010 1.0010 1.0010 1.0010 1.0007
2507.236896 1.0002 1.0004 1.0009 1.0021 1.0036
2511.492222 1.0040 1.0040 1.0040 1.0040 1.0044
2515.747548 1.0049 1.0050 1.0050 1.0050 1.0050
2520.002874 1.0054 1.0059 1.0060 1.0060 1.0060
2524.258199 1.0060 1.0067 1.0077 1.0080 1.0080
2528.513525 1.0084 1.0089 1.0090 1.0090 1.0090
2532.768851 1.0090 1.0094 1.0099 1.0100 1.0100
2537.024176 1.0093 1.0083 1.0080 1.0080 1.0073
2541.279502 1.0063 1.0060 1.0060 1.0056 1.0052
2545.534828 1.0050 1.0050 1.0050 1.0050 1.0050
2549.790153 1.0050 1.0047 1.0042 1.0033 1.0023
2554.045479 1.0020 1.0020 1.0020 1.0020 1.0020
2558.300805 1.0020 1.0017 1.0012 1.0010 1.0010
2562.556131 1.0007 1.0002 0.9990 0.9975 0.9967
2566.811456 0.9962 0.9960 0.9960 0.9953 0.9943
2571.066782 0.9940 0.9940 0.9940 0.9940 0.9947
2575.322108 0.9957 0.9963 0.9968 0.9970 0.9970
2579.577433 0.9984 1.0004 1.0013 1.0018 1.0020
2583.832759 1.0020 1.0020 1.0020 1.0020 1.0020
2588.088085 1.0027 1.0037 1.0043 1.0048 1.0053
2592.343410 1.0058 1.0070 1.0085 1.0093 1.0098
2596.598736 1.0100 1.0100 1.0107 1.0117 1.0120
2600.854062 1.0120 1.0120 1.0120 1.0120 1.0120
2605.109388 1.0123 1.0128 1.0133 1.0138 1.0147
2609.364713 1.0156 1.0163 1.0168 1.0170 1.0170
2613.620039 1.0170 1.0170 1.0170 1.0170 1.0170
2617.875365 1.0170 1.0167 1.0162 1.0150 1.0135
2622.130690 1.0130 1.0130 1.0130 1.0130 1.0127
2626.386016 1.0122 1.0120 1.0120 1.0120 1.0120
2630.641342 1.0120 1.0120 1.0120 1.0120 1.0114
2634.896667 1.0104 1.0100 1.0100 1.0100 1.0100
2639.151993 1.0097 1.0092 1.0080 1.0066 1.0060
2643.407319 1.0060 1.0057 1.0052 1.0050 1.0050
2647.662645 1.0050 1.0050 1.0047 1.0042 1.0040
2651.917970 1.0040 1.0034 1.0024 1.0017 1.0012
2656.173296 1.0010 1.0010 1.0007 1.0002 0.9994
2660.428622 0.9984 0.9968 0.9948 0.9934 0.9924
2664.683947 0.9910 0.9896 0.9887 0.9882 0.9867
2668.939273 0.9847 0.9831 0.9816 0.9801 0.9786
2673.194599 0.9777 0.9772 0.9767 0.9762 0.9760
2677.449925 0.9760 0.9763 0.9768 0.9770 0.9770
2681.705250 0.9779 0.9794 0.9800 0.9800 0.9800
2685.960576 0.9800 0.9800 0.9800 0.9800 0.9800
2690.215902 0.9803 0.9808 0.9813 0.9818 0.9832
2694.471227 0.9852 0.9860 0.9860 0.9866 0.9876
2698.726553 0.9883 0.9888 0.9890 0.9890 0.9893
2702.981879 0.9898 0.9906 0.9916 0.9923 0.9928
2707.237204 0.9930 0.9930 0.9930 0.9930 0.9927
2711.492530 0.9922 0.9914 0.9904 0.9900 0.9900
2715.747856 0.9900 0.9900 0.9900 0.9900 0.9894
2720.003182 0.9884 0.9874 0.9864 0.9860 0.9860
2724.258507 0.9857 0.9852 0.9850 0.9850 0.9850
2728.513833 0.9850 0.9847 0.9842 0.9828 0.9808
2732.769159 0.9791 0.9776 0.9770 0.9770 0.9773
2737.024484 0.9778 0.9786 0.9796 0.9800 0.9800
2741.279810 0.9806 0.9816 0.9829 0.9844 0.9862
2745.535136 0.9881 0.9893 0.9898 0.9920 0.9955
2749.790461 0.9993 1.0033 1.0053 1.0058 1.0060
2754.045787 1.0060 1.0060 1.0060 1.0060 1.0060
2758.301113 1.0060 1.0060 1.0057 1.0052 1.0050
2762.556439 1.0050 1.0050 1.0050 1.0050 1.0050
2766.811764 1.0050 1.0050 1.0050 1.0050 1.0050
2771.067090 1.0050 1.0050 1.0050 1.0050 1.0050
2775.322416 1.0050 1.0050 1.0050 1.0050 1.0050
2779.577741 1.0050 1.0047 1.0042 1.0040 1.0040
2783.833067 1.0040 1.0040 1.0040 1.0040 1.0043
2788.088393 1.0048 1.0050 1.0050 1.0050 1.0050
2792.343718 1.0050 1.0050 1.0050 1.0050 1.0050
2796.599044 1.0050 1.0050 1.0050 1.0050 1.0050
2800.854370 1.0050 1.0050 1.0050 1.0050 1.0047
2805.109696 1.0042 1.0040 1.0040 1.0040 1.0040
2809.365021 1.0040 1.0040 1.0040 1.0040 1.0035
2813.620347 1.0025 1.0020 1.0020 1.0020 1.0020
2817.875673 1.0017 1.0012 1.0010 1.0010 1.0007
2822.130998 1.0002 0.9981 0.9946 0.9919 0.9899
2826.386324 0.9887 0.9882 0.9880 0.9880 0.9875
2830.641650 0.9865 0.9857 0.9852 0.9842 0.9827
2834.896975 0.9817 0.9812 0.9807 0.9802 0.9800
2839.152301 0.9800 0.9795 0.9785 0.9780 0.9780
2843.407627 0.9780 0.9780 0.9780 0.9780 0.9767
2847.662953 0.9742 0.9712 0.9677 0.9647 0.9622
2851.918278 0.9586 0.9541 0.9491 0.9436 0.9389
2856.173604 0.9349 0.9327 0.9322 0.9278 0.9199
2860.428930 0.9103 0.8993 0.8886 0.8781 0.8727
2864.684255 0.8722 0.8723 0.8728 0.8743 0.8768
2868.939581 0.8809 0.8864 0.8911 0.8951 0.8993
2873.194907 0.9038 0.9070 0.9090 0.9100 0.9100
2877.450232 0.9097 0.9092 0.9090 0.9090 0.9082
2881.705558 0.9068 0.9035 0.8985 0.8950 0.8930
2885.960884 0.8915 0.8905 0.8900 0.8900 0.8900
2890.216210 0.8900 0.8905 0.8915 0.8925 0.8935
2894.471535 0.8945 0.8955 0.8965 0.8975 0.8985
2898.726861 0.8995 0.9002 0.9007 0.9008 0.9003
2902.982187 0.8990 0.8970 0.8955 0.8945 0.8935
2907.237512 0.8925 0.8915 0.8905 0.8878 0.8833
2911.492838 0.8761 0.8661 0.8569 0.8484 0.8423
2915.748164 0.8388 0.8341 0.8281 0.8173 0.8012
2920.003489 0.7854 0.7699 0.7571 0.7471 0.7366
2924.258815 0.7257 0.7193 0.7178 0.7177 0.7192
2928.514141 0.7291 0.7481 0.7604 0.7654 0.7720
2932.769467 0.7805 0.7916 0.8056 0.8130 0.8130
2937.024792 0.8123 0.8108 0.8090 0.8070 0.8050
2941.280118 0.8030 0.8008 0.7983 0.7958 0.7933
2945.535444 0.7913 0.7898 0.7888 0.7883 0.7882
2949.790769 0.7887 0.7892 0.7897 0.7907 0.7922
2954.046095 0.7942 0.7967 0.7987 0.8002 0.8029
2958.301421 0.8069 0.8111 0.8156 0.8199 0.8238
2962.556746 0.8267 0.8282 0.8306 0.8341 0.8355
2966.812072 0.8345 0.8329 0.8304 0.8281 0.8261
2971.067398 0.8241 0.8221 0.8198 0.8174 0.8144
2975.322724 0.8109 0.8081 0.8061 0.8048 0.8043
2979.578049 0.8035 0.8026 0.8024 0.8034 0.8044
2983.833375 0.8054 0.8073 0.8103 0.8131 0.8156
2988.088701 0.8186 0.8221 0.8278 0.8363 0.8437
2992.344026 0.8497 0.8572 0.8667 0.8729 0.8749
2996.599352 0.8778 0.8818 0.8853 0.8883 0.8913
3000.854678 0.8943 0.8969 0.8989 0.9009 0.9029
3005.110004 0.9042 0.9047 0.9052 0.9057 0.9060
3009.365329 0.9060 0.9058 0.9053 0.9043 0.9029
3013.620655 0.9009 0.8984 0.8968 0.8963 0.8956
3017.875981 0.8946 0.8938 0.8933 0.8928 0.8923
3022.131306 0.8920 0.8920 0.8920 0.8920 0.8922
3026.386632 0.8927 0.8932 0.8937 0.8953 0.8983
3030.641958 0.9011 0.9035 0.9065 0.9100 0.9130
3034.897283 0.9155 0.9180 0.9205 0.9228 0.9248
3039.152609 0.9264 0.9274 0.9280 0.9280 0.9276
3043.407935 0.9266 0.9260 0.9260 0.9258 0.9253
3047.663261 0.9244 0.9229 0.9216 0.9206 0.9194
3051.918586 0.9179 0.9164 0.9149 0.9138 0.9133
3056.173912 0.9128 0.9123 0.9116 0.9106 0.9104
3060.429238 0.9114 0.9122 0.9127 0.9138 0.9158
3064.684563 0.9170 0.9170 0.9176 0.9191 0.9200
3068.939889 0.9200 0.9208 0.9228 0.9250 0.9275
3073.195215 0.9306 0.9346 0.9386 0.9426 0.9466
3077.450540 0.9506 0.9536 0.9551 0.9568 0.9588
3081.705866 0.9612 0.9642 0.9672 0.9702 0.9728
3085.961192 0.9748 0.9762 0.9767 0.9772 0.9777
3090.216518 0.9794 0.9829 0.9852 0.9857 0.9864
3094.471843 0.9874 0.9880 0.9880 0.9880 0.9880
3098.727169 0.9880 0.9880 0.9880 0.9880 0.9882
3102.982495 0.9887 0.9888 0.9883 0.9880 0.9880
3107.237820 0.9880 0.9880 0.9880 0.9880 0.9880
3111.493146 0.9880 0.9876 0.9866 0.9858 0.9853
3115.748472 0.9848 0.9843 0.9836 0.9826 0.9820
3120.003797 0.9820 0.9820 0.9820 0.9818 0.9813
3124.259123 0.9810 0.9810 0.9810 0.9810 0.9810
3128.514449 0.9810 0.9810 0.9810 0.9810 0.9810
3132.769775 0.9810 0.9810 0.9810 0.9810 0.9808
3137.025100 0.9803 0.9800 0.9800 0.9800 0.9800
3141.280426 0.9796 0.9786 0.9778 0.9773 0.9768
3145.535752 0.9763 0.9755 0.9740 0.9725 0.9710
3149.791077 0.9689 0.9659 0.9628 0.9593 0.9568
3154.046403 0.9563 0.9550 0.9520 0.9498 0.9493
3158.301729 0.9485 0.9470 0.9446 0.9406 0.9371
3162.557054 0.9346 0.9325 0.9310 0.9298 0.9293
3166.812380 0.9290 0.9290 0.9292 0.9297 0.9305
3171.067706 0.9320 0.9332 0.9337 0.9347 0.9367
3175.323032 0.9387 0.9407 0.9427 0.9447 0.9472
3179.578357 0.9507 0.9542 0.9577 0.9617 0.9667
3183.833683 0.9710 0.9740 0.9767 0.9787 0.9807
3188.089009 0.9827 0.9848 0.9873 0.9910 0.9970
3192.344334 1.0019 1.0044 1.0070 1.0100 1.0120
3196.599660 1.0120 1.0123 1.0133 1.0143 1.0153
3200.854986 1.0162 1.0167 1.0172 1.0177 1.0183
3205.110311 1.0193 1.0200 1.0200 1.0200 1.0200
3209.365637 1.0203 1.0213 1.0225 1.0240 1.0252
3213.620963 1.0257 1.0263 1.0273 1.0280 1.0280
3217.876289 1.0282 1.0287 1.0290 1.0290 1.0290
3222.131614 1.0290 1.0290 1.0290 1.0290 1.0290
3226.386940 1.0290 1.0290 1.0290 1.0290 1.0292
3230.642266 1.0297 1.0300 1.0300 1.0300 1.0300
3234.897591 1.0300 1.0300 1.0300 1.0300 1.0303
3239.152917 1.0313 1.0320 1.0320 1.0320 1.0320
3243.408243 1.0320 1.0320 1.0320 1.0320 1.0320
3247.663568 1.0320 1.0317 1.0307 1.0297 1.0287
3251.918894 1.0280 1.0280 1.0277 1.0267 1.0260
3256.174220 1.0260 1.0260 1.0260 1.0260 1.0260
3260.429546 1.0260 1.0260 1.0260 1.0260 1.0260
3264.684871 1.0260 1.0260 1.0260 1.0260 1.0260
3268.940197 1.0260 1.0260 1.0260 1.0260 1.0260
3273.195523 1.0260 1.0260 1.0260 1.0263 1.0273
3277.450848 1.0280 1.0280 1.0276 1.0261 1.0249
3281.706174 1.0244 1.0240 1.0240 1.0240 1.0240
3285.961500 1.0240 1.0240 1.0240 1.0240 1.0240
3290.216826 1.0240 1.0241 1.0246 1.0250 1.0250
3294.472151 1.0250 1.0250 1.0250 1.0250 1.0250
3298.727477 1.0250 1.0249 1.0244 1.0240 1.0240
3302.982803 1.0240 1.0240 1.0240 1.0240 1.0240
3307.238128 1.0240 1.0241 1.0246 1.0250 1.0250
3311.493454 1.0249 1.0244 1.0240 1.0240 1.0240
3315.748780 1.0240 1.0240 1.0240 1.0237 1.0227
3320.004105 1.0217 1.0207 1.0192 1.0162 1.0139
3324.259431 1.0134 1.0129 1.0124 1.0120 1.0120
3328.514757 1.0117 1.0107 1.0097 1.0087 1.0072
3332.770083 1.0042 1.0019 1.0014 1.0010 1.0010
3337.025408 1.0009 1.0004 0.9993 0.9963 0.9933
3341.280734 0.9903 0.9873 0.9843 0.9819 0.9814
3345.536060 0.9809 0.9804 0.9800 0.9800 0.9797
3349.791385 0.9788 0.9780 0.9780 0.9780 0.9780
3354.046711 0.9782 0.9792 0.9800 0.9800 0.9800
3358.302037 0.9800 0.9800 0.9800 0.9801 0.9806
3362.557362 0.9810 0.9810 0.9811 0.9816 0.9822
3366.812688 0.9832 0.9840 0.9840 0.9840 0.9840
3371.068014 0.9840 0.9840 0.9838 0.9828 0.9819
3375.323340 0.9814 0.9809 0.9804 0.9798 0.9788
3379.578665 0.9779 0.9774 0.9766 0.9751 0.9734
3383.833991 0.9709 0.9682 0.9647 0.9615 0.9595
3388.089317 0.9573 0.9543 0.9512 0.9477 0.9445
3392.344642 0.9420 0.9394 0.9364 0.9335 0.9309
3396.599968 0.9287 0.9272 0.9255 0.9236 0.9219
3400.855294 0.9214 0.9209 0.9204 0.9200 0.9200
3405.110619 0.9200 0.9200 0.9200 0.9200 0.9200
3409.365945 0.9200 0.9200 0.9200 0.9198 0.9188
3413.621271 0.9178 0.9168 0.9160 0.9160 0.9160
3417.876597 0.9160 0.9160 0.9160 0.9158 0.9148
3422.131922 0.9140 0.9140 0.9140 0.9140 0.9140
3426.387248 0.9140 0.9142 0.9152 0.9164 0.9184
3430.642574 0.9205 0.9230 0.9257 0.9292 0.9324
3434.897899 0.9344 0.9362 0.9372 0.9382 0.9392
3439.153225 0.9408 0.9448 0.9486 0.9516 0.9547
3443.408551 0.9582 0.9620 0.9675 0.9721 0.9726
3447.663876 0.9734 0.9754 0.9771 0.9776 0.9783
3451.919202 0.9798 0.9817 0.9852 0.9882 0.9892
3456.174528 0.9903 0.9918 0.9930 0.9930 0.9937
3460.429854 0.9977 1.0010 1.0010 1.0010 1.0010
3464.685179 1.0010 1.0010 1.0010 1.0010 1.0010
3468.940505 1.0010 1.0011 1.0016 1.0020 1.0020
3473.195831 1.0022 1.0032 1.0041 1.0046 1.0050
3477.451156 1.0050 1.0051 1.0056 1.0063 1.0078
3481.706482 1.0090 1.0090 1.0090 1.0090 1.0091
3485.961808 1.0096 1.0100 1.0100 1.0102 1.0112
3490.217133 1.0122 1.0132 1.0142 1.0152 1.0161
3494.472459 1.0166 1.0170 1.0170 1.0171 1.0176
3498.727785 1.0182 1.0192 1.0202 1.0212 1.0222
3502.983111 1.0232 1.0241 1.0246 1.0250 1.0250
3507.238436 1.0250 1.0250 1.0250 1.0250 1.0251
3511.493762 1.0256 1.0260 1.0260 1.0260 1.0260
3515.749088 1.0262 1.0272 1.0280 1.0280 1.0281
3520.004413 1.0286 1.0290 1.0290 1.0288 1.0273
3524.259739 1.0260 1.0260 1.0260 1.0260 1.0259
3528.515065 1.0254 1.0250 1.0250 1.0250 1.0250
3532.770390 1.0250 1.0250 1.0250 1.0250 1.0250
3537.025716 1.0250 1.0250 1.0250 1.0250 1.0250
3541.281042 1.0250 1.0250 1.0250 1.0250 1.0250
3545.536368 1.0250 1.0250 1.0250 1.0250 1.0250
3549.791693 1.0250 1.0250 1.0251 1.0256 1.0260
3554.047019 1.0260 1.0260 1.0260 1.0260 1.0260
3558.302345 1.0260 1.0260 1.0261 1.0271 1.0280
3562.557670 1.0280 1.0280 1.0280 1.0280 1.0280
3566.812996 1.0280 1.0280 1.0280 1.0280 1.0279
3571.068322 1.0269 1.0260 1.0260 1.0259 1.0254
3575.323647 1.0250 1.0250 1.0250 1.0250 1.0250
3579.578973 1.0250 1.0250 1.0250 1.0250 1.0250
3583.834299 1.0250 1.0250 1.0250 1.0250 1.0250
3588.089625 1.0250 1.0250 1.0250 1.0249 1.0244
3592.344950 1.0240 1.0240 1.0239 1.0229 1.0220
3596.600276 1.0220 1.0220 1.0215 1.0209 1.0193
3600.855602 1.0179 1.0169 1.0159 1.0149 1.0139
3605.110927 1.0135 1.0130 1.0125 1.0120 1.0120
3609.366253 1.0119 1.0104 1.0088 1.0068 1.0050
3613.621579 1.0045 1.0039 1.0029 1.0020 1.0015
3617.876905 1.0010 1.0005 0.9998 0.9983 0.9968
3622.132230 0.9948 0.9929 0.9914 0.9896 0.9856
3626.387556 0.9820 0.9815 0.9810 0.9805 0.9798
3630.642882 0.9778 0.9757 0.9728 0.9698 0.9678
3634.898207 0.9658 0.9638 0.9619 0.9609 0.9599
3639.153533 0.9584 0.9569 0.9554 0.9538 0.9513
3643.408859 0.9490 0.9485 0.9480 0.9480 0.9480
3647.664184 0.9480 0.9479 0.9464 0.9449 0.9434
3651.919510 0.9419 0.9409 0.9399 0.9389 0.9380
3656.174836 0.9375 0.9370 0.9370 0.9370 0.9370
3660.430162 0.9370 0.9370 0.9370 0.9370 0.9370
3664.685487 0.9370 0.9370 0.9365 0.9359 0.9344
3668.940813 0.9327 0.9292 0.9258 0.9239 0.9219
3673.196139 0.9209 0.9199 0.9179 0.9159 0.9149
3677.451464 0.9140 0.9140 0.9141 0.9151 0.9160
3681.706790 0.9165 0.9171 0.9186 0.9201 0.9227
3685.962116 0.9250 0.9255 0.9261 0.9276 0.9290
3690.217441 0.9295 0.9300 0.9300 0.9301 0.9311
3694.472767 0.9320 0.9320 0.9320 0.9325 0.9330
3698.728093 0.9330 0.9330 0.9335 0.9340 0.9351
3702.983419 0.9360 0.9365 0.9370 0.9375 0.9380
3707.238744 0.9380 0.9381 0.9390 0.9400 0.9405
3711.494070 0.9411 0.9431 0.9451 0.9476 0.9500
3715.749396 0.9500 0.9501 0.9516 0.9531 0.9546
3720.004721 0.9560 0.9570 0.9580 0.9590 0.9600
3724.260047 0.9600 0.9600 0.9610 0.9620 0.9630
3728.515373 0.9640 0.9640 0.9640 0.9645 0.9650
3732.770698 0.9650 0.9650 0.9645 0.9640 0.9640
3737.026024 0.9640 0.9630 0.9620 0.9615 0.9609
3741.281350 0.9594 0.9580 0.9575 0.9570 0.9570
3745.536676 0.9570 0.9555 0.9539 0.9514 0.9490
3749.792001 0.9475 0.9460 0.9455 0.9450 0.9435
3754.047327 0.9420 0.9410 0.9400 0.9400 0.9400
3758.302653 0.9405 0.9410 0.9425 0.9440 0.9445
3762.557978 0.9450 0.9465 0.9480 0.9485 0.9490
3766.813304 0.9505 0.9520 0.9525 0.9530 0.9545
3771.068630 0.9560 0.9565 0.9570 0.9585 0.9600
3775.323955 0.9610 0.9620 0.9635 0.9650 0.9655
3779.579281 0.9660 0.9710 0.9760 0.9780 0.9800
3783.834607 0.9805 0.9810 0.9815 0.9820 0.9830
3788.089933 0.9840 0.9850 0.9860 0.9875 0.9890
3792.345258 0.9895 0.9900 0.9910 0.9920 0.9920
3796.600584 0.9920 0.9910 0.9900
##END=
