##TITLE=PHOSPHINE, TRIPHENYL-, HYDROBROMIDE
##JCAMP-DX=4.24
##DATA TYPE=INFRARED SPECTRUM
##CLASS=COBLENTZ III
##ORIGIN=DOW CHEMICAL COMPANY
##OWNER=COBLENTZ SOCIETY
Collection (C) 2018 copyright by the U.S. Secretary of Commerce
on behalf of the United States of America. All rights reserved.
##DATE=1968/09/17
##MOLFORM=C15 H16 Br P
##SOURCE REFERENCE=COBLENTZ NO. 10230
##$NIST ID=B6010230
##$NIST SOURCE=COBLENTZ
##$NIST IMAGE=cob10230
##SPECTROMETER/DATA SYSTEM=DOW KBr FOREPRISM-GRATING
##INSTRUMENT PARAMETERS=BLAZED AT 3.5, 12.0, 20.0 MICRON, CHANGED AT 5.0, 7.5, 14.9 MICRON
##STATE=SOLID (SPLIT MULL, FLUOROLUBE FOR 3800-1340 AND NUJOL FOR 1340-470 CM ^-^1)
##SAMPLING PROCEDURE=TRANSMISSION
##RESOLUTION=4
##DATA PROCESSING=DIGITIZED BY NIST FROM HARD COPY (FROM TWO SEGMENTS)
##XUNITS=1/CM
##YUNITS=TRANSMITTANCE
##XFACTOR=1.000000
##YFACTOR=1
##DELTAX=0.852759
##FIRSTX=465.89
##LASTX=3799.33
##FIRSTY=0.872
##MAXX=3799.33
##MINX=465.89
##MAXY=1.05
##MINY=0.124
##NPOINTS=3910
##XYDATA=(X++(Y..Y))
465.890000 0.8720 0.8700 0.8690 0.8650 0.8640
470.153797 0.8570 0.8520 0.8460 0.8410 0.8340
474.417594 0.8320 0.8210 0.8160 0.8120 0.8010
478.681390 0.7960 0.7800 0.7621 0.7441 0.7211
482.945187 0.6940 0.6620 0.6250 0.5781 0.5211
487.208984 0.3734 0.3212 0.2861 0.2103 0.2000
491.472781 0.2000 0.2160 0.2360 0.2410 0.2979
495.736578 0.3679 0.4318 0.5845 0.5920 0.7045
500.000374 0.7960 0.8090 0.8160 0.8220 0.8340
504.264171 0.8360 0.8340 0.8330 0.8300 0.8280
508.527968 0.8210 0.8090 0.7940 0.7621 0.7251
512.791765 0.6971 0.5854 0.5501 0.4465 0.3336
517.055561 0.2490 0.2480 0.2920 0.3449 0.4458
521.319358 0.5687 0.7316 0.8357 0.8778 0.9198
525.583155 0.9370 0.9500 0.9530 0.9540 0.9560
529.846952 0.9560 0.9560 0.9560 0.9560 0.9540
534.110749 0.9540 0.9540 0.9520 0.9460 0.9400
538.374545 0.9330 0.9240 0.9130 0.9040 0.8980
542.638342 0.8930 0.8930 0.8960 0.9020 0.9100
546.902139 0.9180 0.9220 0.9240 0.9260 0.9300
551.165936 0.9320 0.9330 0.9380 0.9420 0.9480
555.429733 0.9530 0.9600 0.9660 0.9740 0.9800
559.693529 0.9900 1.0020 1.0100 1.0120 1.0140
563.957326 1.0160 1.0210 1.0210 1.0220 1.0240
568.221123 1.0240 1.0260 1.0280 1.0290 1.0290
572.484920 1.0290 1.0290 1.0290 1.0290 1.0290
576.748716 1.0290 1.0300 1.0320 1.0320 1.0330
581.012513 1.0330 1.0330 1.0340 1.0360 1.0370
585.276310 1.0380 1.0400 1.0410 1.0410 1.0420
589.540107 1.0420 1.0420 1.0440 1.0440 1.0440
593.803904 1.0440 1.0440 1.0440 1.0440 1.0440
598.067700 1.0440 1.0440 1.0440 1.0440 1.0440
602.331497 1.0440 1.0450 1.0450 1.0450 1.0450
606.595294 1.0450 1.0450 1.0450 1.0450 1.0450
610.859091 1.0450 1.0440 1.0410 1.0360 1.0300
615.122888 1.0290 1.0290 1.0280 1.0260 1.0250
619.386684 1.0240 1.0250 1.0340 1.0400 1.0420
623.650481 1.0480 1.0480 1.0490 1.0490 1.0490
627.914278 1.0490 1.0490 1.0490 1.0490 1.0490
632.178075 1.0490 1.0490 1.0500 1.0500 1.0500
636.441871 1.0500 1.0500 1.0500 1.0500 1.0500
640.705668 1.0500 1.0500 1.0500 1.0500 1.0500
644.969465 1.0500 1.0500 1.0500 1.0490 1.0490
649.233262 1.0480 1.0480 1.0460 1.0450 1.0440
653.497059 1.0420 1.0410 1.0400 1.0370 1.0360
657.760855 1.0340 1.0290 1.0240 1.0220 1.0200
662.024652 1.0160 1.0120 1.0010 1.0000 0.9980
666.288449 0.9860 0.9780 0.9660 0.9540 0.9440
670.552246 0.9370 0.9330 0.9290 0.9180 0.9100
674.816043 0.8960 0.8880 0.8700 0.8530 0.8381
679.079839 0.7860 0.7380 0.6700 0.5451 0.4961
683.343636 0.4960 0.3972 0.2963 0.2960 0.3368
687.607433 0.4291 0.5290 0.5460 0.5460 0.4042
691.871230 0.3890 0.3890 0.4089 0.4160 0.4220
696.135026 0.4280 0.4300 0.4320 0.4330 0.4300
700.398823 0.4130 0.3611 0.3291 0.3300 0.3609
704.662620 0.4081 0.5010 0.5680 0.6499 0.7219
708.926417 0.7649 0.8019 0.8199 0.8260 0.8290
713.190214 0.8160 0.7860 0.7300 0.6290 0.3532
717.454010 0.1902 0.1900 0.3007 0.4296 0.5795
721.717807 0.7140 0.7160 0.7130 0.6980 0.6690
725.981604 0.6361 0.5612 0.5490 0.5560 0.6367
730.245401 0.6770 0.7010 0.7220 0.7220 0.7160
734.509198 0.6900 0.6571 0.5742 0.2818 0.1445
738.772994 0.1240 0.1240 0.1720 0.3439 0.4099
743.036791 0.4779 0.5698 0.6518 0.6929 0.7219
747.300588 0.7280 0.7280 0.7090 0.6860 0.6820
751.564385 0.6421 0.6211 0.6051 0.6050 0.6359
755.828181 0.6541 0.6900 0.7410 0.7690 0.7700
760.091978 0.7660 0.7530 0.7281 0.7091 0.6572
764.355775 0.5569 0.4300 0.3180 0.2441 0.2061
768.619572 0.2060 0.2898 0.3179 0.4167 0.5315
772.883369 0.6211 0.6891 0.7410 0.8020 0.8250
777.147165 0.8480 0.8610 0.8760 0.8880 0.9000
781.410962 0.9080 0.9120 0.9160 0.9200 0.9250
785.674759 0.9300 0.9320 0.9340 0.9340 0.9400
789.938556 0.9410 0.9420 0.9440 0.9450 0.9460
794.202353 0.9490 0.9500 0.9520 0.9520 0.9530
798.466149 0.9540 0.9560 0.9570 0.9570 0.9580
802.729946 0.9580 0.9580 0.9600 0.9600 0.9610
806.993743 0.9610 0.9610 0.9620 0.9640 0.9640
811.257540 0.9640 0.9640 0.9640 0.9640 0.9640
815.521336 0.9650 0.9650 0.9640 0.9640 0.9640
819.785133 0.9640 0.9640 0.9620 0.9620 0.9620
824.048930 0.9620 0.9610 0.9600 0.9600 0.9570
828.312727 0.9570 0.9560 0.9530 0.9530 0.9520
832.576524 0.9460 0.9450 0.9420 0.9400 0.9330
836.840320 0.9220 0.9010 0.8860 0.8840 0.8860
841.104117 0.9120 0.9200 0.9290 0.9330 0.9340
845.367914 0.9340 0.9360 0.9360 0.9340 0.9340
849.631711 0.9330 0.9300 0.9280 0.9260 0.9250
853.895508 0.9220 0.9170 0.9130 0.9100 0.9040
858.159304 0.9010 0.8930 0.8890 0.8810 0.8730
862.423101 0.8690 0.8610 0.8530 0.8490 0.8450
866.686898 0.8440 0.8420 0.8440 0.8480 0.8560
870.950695 0.8600 0.8600 0.8570 0.8560 0.8520
875.214492 0.8490 0.8400 0.8300 0.8250 0.8180
879.478288 0.8010 0.7850 0.7611 0.7490 0.7281
883.742085 0.7160 0.7020 0.6730 0.6500 0.6370
888.005882 0.6260 0.6210 0.6170 0.6170 0.6220
892.269679 0.6300 0.6440 0.6570 0.6690 0.6810
896.533475 0.6930 0.7080 0.7210 0.7360 0.7460
900.797272 0.7580 0.7700 0.7780 0.7900 0.7940
905.061069 0.8000 0.8050 0.8120 0.8140 0.8160
909.324866 0.8210 0.8250 0.8290 0.8320 0.8330
913.588663 0.8370 0.8400 0.8420 0.8480 0.8490
917.852459 0.8490 0.8480 0.8440 0.8410 0.8330
922.116256 0.8290 0.8180 0.8120 0.8060 0.8040
926.380053 0.8010 0.7960 0.7940 0.7900 0.7850
930.643850 0.7760 0.7650 0.7600 0.7540 0.7401
934.907647 0.7240 0.7050 0.6880 0.6610 0.6400
939.171443 0.6140 0.5860 0.5660 0.5490 0.5490
943.435240 0.5530 0.5610 0.5860 0.6090 0.6420
947.699037 0.6700 0.6920 0.7409 0.7839 0.7980
951.962834 0.8170 0.8320 0.8420 0.8520 0.8580
956.226630 0.8640 0.8690 0.8720 0.8740 0.8770
960.490427 0.8800 0.8810 0.8810 0.8820 0.8840
964.754224 0.8850 0.8860 0.8880 0.8880 0.8880
969.018021 0.8880 0.8880 0.8860 0.8850 0.8850
973.281818 0.8850 0.8850 0.8840 0.8840 0.8820
977.545614 0.8810 0.8810 0.8800 0.8720 0.8640
981.809411 0.8580 0.8500 0.8340 0.8091 0.7761
986.073208 0.7600 0.7600 0.7780 0.7970 0.8020
990.337005 0.8100 0.8260 0.8400 0.8440 0.8440
994.600802 0.8450 0.8420 0.8320 0.8180 0.7930
998.864598 0.7660 0.7320 0.7320 0.7480 0.8078
1003.128395 0.8520 0.8770 0.8900 0.8980 0.9000
1007.392192 0.9010 0.9010 0.8970 0.8960 0.8960
1011.655989 0.8970 0.8970 0.8980 0.9000 0.9010
1015.919785 0.9010 0.9020 0.9040 0.9040 0.9050
1020.183582 0.9050 0.9020 0.9010 0.8970 0.8930
1024.447379 0.8900 0.8880 0.8840 0.8820 0.8840
1028.711176 0.8850 0.8850 0.8820 0.8800 0.8730
1032.974973 0.8690 0.8700 0.8800 0.8930 0.9090
1037.238769 0.9140 0.9140 0.9180 0.9200 0.9200
1041.502566 0.9170 0.9170 0.9160 0.9160 0.9140
1045.766363 0.9130 0.9130 0.9120 0.9120 0.9120
1050.030160 0.9100 0.9090 0.9060 0.9050 0.9040
1054.293957 0.9020 0.9010 0.9000 0.8970 0.8970
1058.557753 0.8970 0.8960 0.8940 0.8920 0.8900
1062.821550 0.8880 0.8840 0.8810 0.8770 0.8720
1067.085347 0.8690 0.8690 0.8680 0.8610 0.8570
1071.349144 0.8500 0.8460 0.8440 0.8450 0.8500
1075.612940 0.8530 0.8640 0.8690 0.8690 0.8700
1079.876737 0.8690 0.8690 0.8680 0.8640 0.8610
1084.140534 0.8580 0.8560 0.8530 0.8520 0.8520
1088.404331 0.8530 0.8530 0.8520 0.8500 0.8490
1092.668128 0.8480 0.8400 0.8300 0.8180 0.8020
1096.931924 0.7920 0.7799 0.7450 0.7020 0.6480
1101.195721 0.5900 0.5570 0.5171 0.5140 0.5130
1105.459518 0.5120 0.5120 0.5060 0.4920 0.4700
1109.723315 0.4480 0.4180 0.3691 0.3461 0.3181
1113.987112 0.2969 0.2720 0.2490 0.2440 0.2440
1118.250908 0.2850 0.3260 0.3520 0.4079 0.4599
1122.514705 0.5091 0.5531 0.5930 0.6260 0.6540
1126.778502 0.7140 0.7330 0.7500 0.7729 0.7850
1131.042299 0.7960 0.7970 0.8020 0.8100 0.8130
1135.306095 0.8210 0.8290 0.8330 0.8400 0.8480
1139.569892 0.8530 0.8600 0.8620 0.8620 0.8610
1143.833689 0.8580 0.8560 0.8520 0.8490 0.8480
1148.097486 0.8440 0.8370 0.8300 0.8210 0.8130
1152.361283 0.8020 0.7920 0.7760 0.7541 0.7520
1156.625079 0.7520 0.7540 0.7540 0.7560 0.7560
1160.888876 0.7560 0.7490 0.7410 0.7081 0.7080
1165.152673 0.7332 0.8330 0.8580 0.8720 0.8800
1169.416470 0.8900 0.8900 0.8890 0.8850 0.8820
1173.680267 0.8800 0.8740 0.8690 0.8530 0.8450
1177.944063 0.8340 0.8210 0.8130 0.8130 0.8200
1182.207860 0.8280 0.8360 0.8400 0.8410 0.8420
1186.471657 0.8480 0.8490 0.8520 0.8610 0.8700
1190.735454 0.8810 0.8890 0.8930 0.9010 0.9060
1194.999250 0.9120 0.9130 0.9140 0.9170 0.9180
1199.263047 0.9220 0.9240 0.9250 0.9260 0.9290
1203.526844 0.9290 0.9300 0.9300 0.9300 0.9300
1207.790641 0.9300 0.9300 0.9300 0.9320 0.9320
1212.054438 0.9320 0.9320 0.9330 0.9330 0.9330
1216.318234 0.9340 0.9360 0.9370 0.9370 0.9380
1220.582031 0.9400 0.9400 0.9410 0.9410 0.9410
1224.845828 0.9420 0.9420 0.9420 0.9420 0.9420
1229.109625 0.9420 0.9420 0.9420 0.9420 0.9420
1233.373422 0.9420 0.9420 0.9420 0.9420 0.9410
1237.637218 0.9410 0.9410 0.9410 0.9410 0.9400
1241.901015 0.9400 0.9400 0.9400 0.9400 0.9400
1246.164812 0.9380 0.9380 0.9380 0.9370 0.9370
1250.428609 0.9380 0.9400 0.9400 0.9400 0.9400
1254.692405 0.9380 0.9370 0.9340 0.9330 0.9330
1258.956202 0.9330 0.9320 0.9300 0.9280 0.9260
1263.219999 0.9250 0.9240 0.9220 0.9210 0.9200
1267.483796 0.9180 0.9170 0.9140 0.9120 0.9100
1271.747593 0.9100 0.9060 0.9050 0.9040 0.9020
1276.011389 0.9010 0.9010 0.9000 0.9000 0.8980
1280.275186 0.8980 0.8970 0.8970 0.8970 0.8970
1284.538983 0.8970 0.8980 0.9000 0.9000 0.9010
1288.802780 0.9010 0.9020 0.9040 0.9040 0.9050
1293.066577 0.9050 0.9050 0.9040 0.9020 0.9000
1297.330373 0.8980 0.8970 0.8940 0.8920 0.8880
1301.594170 0.8850 0.8810 0.8770 0.8740 0.8720
1305.857967 0.8690 0.8620 0.8580 0.8500 0.8490
1310.121764 0.8490 0.8500 0.8520 0.8540 0.8570
1314.385561 0.8600 0.8610 0.8620 0.8650 0.8660
1318.649357 0.8660 0.8620 0.8610 0.8600 0.8570
1322.913154 0.8540 0.8540 0.8560 0.8560 0.8580
1327.176951 0.8610 0.8640 0.8690 0.8730 0.8820
1331.440748 0.8900 0.8930 0.8970 0.9010 0.9040
1335.704544 0.9100 0.9120 0.9140 0.9170 0.9200
1339.968341 0.9210 0.9250 0.9280 0.9290 0.9300
1344.232138 0.9320 0.9330 0.9360 0.9380 0.9400
1348.495935 0.9410 0.9420 0.9440 0.9440 0.9450
1352.759732 0.9480 0.9480 0.9490 0.9500 0.9530
1357.023528 0.9530 0.9540 0.9540 0.9560 0.9580
1361.287325 0.9600 0.9600 0.9610 0.9610 0.9610
1365.551122 0.9610 0.9620 0.9620 0.9620 0.9620
1369.814919 0.9620 0.9640 0.9640 0.9640 0.9640
1374.078716 0.9640 0.9640 0.9640 0.9640 0.9650
1378.342512 0.9650 0.9650 0.9660 0.9680 0.9690
1382.606309 0.9720 0.9760 0.9780 0.9820 0.9840
1386.870106 0.9840 0.9810 0.9800 0.9690 0.9620
1391.133903 0.9570 0.9540 0.9520 0.9490 0.9460
1395.397699 0.9450 0.9440 0.9420 0.9410 0.9380
1399.661496 0.9340 0.9320 0.9300 0.9300 0.9260
1403.925293 0.9250 0.9240 0.9220 0.9220 0.9210
1408.189090 0.9210 0.9210 0.9210 0.9210 0.9210
1412.452887 0.9200 0.9200 0.9200 0.9180 0.9180
1416.716683 0.9180 0.9170 0.9170 0.9160 0.9130
1420.980480 0.9130 0.9120 0.9100 0.9060 0.9020
1425.244277 0.8980 0.8960 0.8900 0.8890 0.8840
1429.508074 0.8640 0.8499 0.8210 0.8100 0.7850
1433.771871 0.7680 0.7290 0.6740 0.5781 0.4452
1438.035667 0.3969 0.3770 0.3772 0.4560 0.4680
1442.299464 0.4741 0.6770 0.7679 0.9238 0.9579
1446.563261 0.9770 0.9810 0.9820 0.9860 0.9880
1450.827058 0.9880 0.9880 0.9860 0.9850 0.9850
1455.090854 0.9840 0.9840 0.9840 0.9840 0.9820
1459.354651 0.9820 0.9820 0.9820 0.9810 0.9810
1463.618448 0.9810 0.9810 0.9810 0.9800 0.9800
1467.882245 0.9800 0.9800 0.9780 0.9770 0.9760
1472.146042 0.9720 0.9680 0.9650 0.9620 0.9560
1476.409838 0.9520 0.9440 0.9370 0.9240 0.9130
1480.673635 0.9020 0.8890 0.8810 0.8600 0.8260
1484.937432 0.8040 0.7940 0.7880 0.7770 0.7770
1489.201229 0.7850 0.7982 0.8642 0.9450 0.9640
1493.465026 0.9780 0.9850 0.9890 0.9920 0.9940
1497.728822 0.9970 0.9980 0.9980 1.0000 1.0000
1501.992619 0.9980 0.9980 0.9980 0.9980 0.9980
1506.256416 0.9980 0.9980 1.0000 1.0010 1.0010
1510.520213 1.0020 1.0060 1.0090 1.0100 1.0100
1514.784009 1.0100 1.0100 1.0100 1.0100 1.0100
1519.047806 1.0100 1.0090 1.0090 1.0090 1.0090
1523.311603 1.0090 1.0080 1.0060 1.0060 1.0060
1527.575400 1.0060 1.0050 1.0050 1.0050 1.0050
1531.839197 1.0050 1.0050 1.0040 1.0040 1.0040
1536.102993 1.0020 1.0020 1.0020 1.0020 1.0020
1540.366790 1.0020 1.0020 1.0020 1.0010 1.0010
1544.630587 1.0010 1.0000 1.0000 1.0000 1.0000
1548.894384 1.0000 0.9980 0.9980 0.9980 0.9980
1553.158181 0.9980 0.9980 0.9980 0.9970 0.9970
1557.421977 0.9980 0.9980 0.9970 0.9970 0.9970
1561.685774 0.9970 0.9960 0.9960 0.9930 0.9920
1565.949571 0.9900 0.9890 0.9880 0.9860 0.9850
1570.213368 0.9820 0.9800 0.9760 0.9720 0.9650
1574.477164 0.9610 0.9570 0.9520 0.9480 0.9460
1578.740961 0.9480 0.9520 0.9600 0.9600 0.9540
1583.004758 0.9459 0.9119 0.8880 0.8880 0.9120
1587.268555 0.9140 0.9210 0.9360 0.9570 0.9650
1591.532352 0.9740 0.9760 0.9770 0.9800 0.9840
1595.796148 0.9880 0.9890 0.9900 0.9900 0.9900
1600.059945 0.9890 0.9880 0.9880 0.9880 0.9860
1604.323742 0.9850 0.9840 0.9840 0.9840 0.9820
1608.587539 0.9820 0.9820 0.9820 0.9810 0.9800
1612.851336 0.9800 0.9780 0.9780 0.9780 0.9770
1617.115132 0.9770 0.9770 0.9770 0.9780 0.9780
1621.378929 0.9770 0.9770 0.9770 0.9760 0.9760
1625.642726 0.9760 0.9760 0.9760 0.9760 0.9760
1629.906523 0.9760 0.9760 0.9760 0.9760 0.9760
1634.170319 0.9760 0.9760 0.9760 0.9770 0.9770
1638.434116 0.9780 0.9780 0.9780 0.9780 0.9780
1642.697913 0.9780 0.9800 0.9800 0.9800 0.9800
1646.961710 0.9800 0.9800 0.9800 0.9810 0.9810
1651.225507 0.9800 0.9780 0.9780 0.9780 0.9780
1655.489303 0.9780 0.9780 0.9770 0.9770 0.9770
1659.753100 0.9760 0.9740 0.9740 0.9730 0.9730
1664.016897 0.9720 0.9720 0.9720 0.9720 0.9720
1668.280694 0.9720 0.9700 0.9700 0.9690 0.9690
1672.544491 0.9690 0.9690 0.9690 0.9690 0.9690
1676.808287 0.9680 0.9680 0.9660 0.9650 0.9650
1681.072084 0.9640 0.9640 0.9620 0.9610 0.9600
1685.335881 0.9580 0.9580 0.9570 0.9570 0.9570
1689.599678 0.9570 0.9560 0.9540 0.9540 0.9530
1693.863475 0.9520 0.9500 0.9490 0.9490 0.9490
1698.127271 0.9490 0.9490 0.9480 0.9480 0.9460
1702.391068 0.9460 0.9460 0.9460 0.9460 0.9450
1706.654865 0.9440 0.9440 0.9420 0.9420 0.9420
1710.918662 0.9410 0.9400 0.9400 0.9380 0.9380
1715.182458 0.9380 0.9380 0.9370 0.9370 0.9360
1719.446255 0.9340 0.9340 0.9330 0.9330 0.9330
1723.710052 0.9320 0.9320 0.9300 0.9300 0.9290
1727.973849 0.9290 0.9280 0.9280 0.9280 0.9260
1732.237646 0.9260 0.9280 0.9280 0.9290 0.9290
1736.501442 0.9300 0.9320 0.9320 0.9330 0.9340
1740.765239 0.9340 0.9340 0.9340 0.9330 0.9330
1745.029036 0.9330 0.9330 0.9330 0.9330 0.9330
1749.292833 0.9330 0.9330 0.9320 0.9320 0.9300
1753.556630 0.9300 0.9300 0.9300 0.9300 0.9300
1757.820426 0.9300 0.9290 0.9290 0.9290 0.9290
1762.084223 0.9290 0.9290 0.9280 0.9280 0.9280
1766.348020 0.9280 0.9280 0.9280 0.9280 0.9280
1770.611817 0.9280 0.9260 0.9260 0.9260 0.9250
1774.875613 0.9250 0.9250 0.9250 0.9240 0.9240
1779.139410 0.9240 0.9220 0.9220 0.9210 0.9210
1783.403207 0.9210 0.9210 0.9210 0.9220 0.9220
1787.667004 0.9220 0.9240 0.9240 0.9240 0.9240
1791.930801 0.9240 0.9240 0.9250 0.9250 0.9250
1796.194597 0.9250 0.9250 0.9250 0.9250 0.9250
1800.458394 0.9240 0.9240 0.9220 0.9220 0.9220
1804.722191 0.9210 0.9210 0.9210 0.9210 0.9220
1808.985988 0.9220 0.9220 0.9220 0.9220 0.9220
1813.249785 0.9240 0.9240 0.9240 0.9240 0.9240
1817.513581 0.9240 0.9240 0.9240 0.9250 0.9260
1821.777378 0.9250 0.9250 0.9250 0.9250 0.9250
1826.041175 0.9240 0.9240 0.9220 0.9220 0.9220
1830.304972 0.9220 0.9210 0.9210 0.9210 0.9210
1834.568768 0.9210 0.9200 0.9200 0.9200 0.9200
1838.832565 0.9200 0.9210 0.9210 0.9210 0.9210
1843.096362 0.9210 0.9210 0.9210 0.9210 0.9210
1847.360159 0.9210 0.9210 0.9210 0.9210 0.9200
1851.623956 0.9200 0.9200 0.9180 0.9180 0.9180
1855.887752 0.9170 0.9160 0.9160 0.9140 0.9140
1860.151549 0.9130 0.9120 0.9100 0.9100 0.9100
1864.415346 0.9080 0.9060 0.9050 0.9020 0.9010
1868.679143 0.9000 0.8980 0.8970 0.8960 0.8960
1872.942940 0.8960 0.8940 0.8940 0.8960 0.8960
1877.206736 0.8970 0.8980 0.8980 0.9010 0.9020
1881.470533 0.9050 0.9050 0.9060 0.9100 0.9100
1885.734330 0.9120 0.9130 0.9130 0.9160 0.9170
1889.998127 0.9170 0.9170 0.9180 0.9200 0.9200
1894.261923 0.9200 0.9210 0.9210 0.9220 0.9220
1898.525720 0.9220 0.9220 0.9240 0.9240 0.9240
1902.789517 0.9240 0.9240 0.9240 0.9240 0.9220
1907.053314 0.9220 0.9220 0.9220 0.9220 0.9210
1911.317111 0.9210 0.9210 0.9210 0.9210 0.9200
1915.580907 0.9200 0.9180 0.9180 0.9180 0.9180
1919.844704 0.9170 0.9170 0.9160 0.9160 0.9160
1924.108501 0.9160 0.9140 0.9140 0.9140 0.9140
1928.372298 0.9140 0.9140 0.9140 0.9140 0.9140
1932.636095 0.9130 0.9130 0.9130 0.9130 0.9130
1936.899891 0.9130 0.9130 0.9130 0.9130 0.9130
1941.163688 0.9140 0.9140 0.9140 0.9140 0.9140
1945.427485 0.9140 0.9140 0.9140 0.9140 0.9140
1949.691282 0.9140 0.9140 0.9140 0.9140 0.9140
1953.955078 0.9140 0.9130 0.9130 0.9130 0.9130
1958.218875 0.9140 0.9170 0.9200 0.9280 0.9280
1962.482672 0.9250 0.9200 0.9170 0.9140 0.9130
1966.746469 0.9120 0.9100 0.9100 0.9080 0.9080
1971.010266 0.9080 0.9060 0.9060 0.9050 0.9050
1975.274062 0.9040 0.9040 0.9020 0.9020 0.9020
1979.537859 0.9020 0.9010 0.9010 0.9010 0.9010
1983.801656 0.9010 0.9010 0.9010 0.9000 0.9000
1988.065453 0.9000 0.9000 0.8980 0.8970 0.8970
1992.329250 0.8960 0.8940 0.8940 0.8930 0.8930
1996.593046 0.8930 0.8920 0.8920 0.8900 0.8900
2000.856843 0.8895 0.8890 0.8890 0.8890 0.8890
2005.120640 0.8890 0.8885 0.8880 0.8880 0.8880
2009.384437 0.8870 0.8860 0.8860 0.8860 0.8855
2013.648233 0.8850 0.8850 0.8850 0.8845 0.8840
2017.912030 0.8830 0.8820 0.8815 0.8810 0.8805
2022.175827 0.8800 0.8790 0.8780 0.8775 0.8770
2026.439624 0.8770 0.8770 0.8770 0.8770 0.8770
2030.703421 0.8770 0.8765 0.8760 0.8760 0.8760
2034.967217 0.8760 0.8760 0.8750 0.8740 0.8740
2039.231014 0.8740 0.8721 0.8701 0.8691 0.8681
2043.494811 0.8666 0.8651 0.8636 0.8621 0.8615
2047.758608 0.8610 0.8596 0.8581 0.8571 0.8561
2052.022405 0.8551 0.8541 0.8540 0.8540 0.8535
2056.286201 0.8530 0.8530 0.8530 0.8525 0.8520
2060.549998 0.8511 0.8501 0.8495 0.8490 0.8490
2064.813795 0.8490 0.8490 0.8490 0.8485 0.8480
2069.077592 0.8471 0.8461 0.8455 0.8450 0.8445
2073.341388 0.8440 0.8431 0.8421 0.8415 0.8410
2077.605185 0.8397 0.8382 0.8362 0.8342 0.8336
2081.868982 0.8331 0.8326 0.8321 0.8320 0.8320
2086.132779 0.8311 0.8301 0.8278 0.8253 0.8237
2090.396576 0.8222 0.8202 0.8182 0.8180 0.8180
2094.660372 0.8176 0.8171 0.8170 0.8170 0.8157
2098.924169 0.8142 0.8131 0.8121 0.8094 0.8064
2103.187966 0.8051 0.8041 0.8027 0.8012 0.8010
2107.451763 0.8010 0.7988 0.7963 0.7951 0.7941
2111.715560 0.7931 0.7921 0.7903 0.7883 0.7872
2115.979356 0.7862 0.7860 0.7860 0.7839 0.7814
2120.243153 0.7797 0.7782 0.7771 0.7762 0.7752
2124.506950 0.7742 0.7736 0.7731 0.7717 0.7702
2128.770747 0.7692 0.7682 0.7668 0.7653 0.7646
2133.034544 0.7641 0.7632 0.7622 0.7616 0.7611
2137.298340 0.7606 0.7601 0.7583 0.7563 0.7560
2141.562137 0.7560 0.7548 0.7533 0.7518 0.7503
2145.825934 0.7500 0.7500 0.7496 0.7491 0.7486
2150.089731 0.7481 0.7472 0.7462 0.7456 0.7451
2154.353527 0.7450 0.7450 0.7446 0.7441 0.7440
2158.617324 0.7440 0.7432 0.7422 0.7420 0.7420
2162.881121 0.7420 0.7420 0.7420 0.7420 0.7420
2167.144918 0.7420 0.7420 0.7420 0.7428 0.7438
2171.408715 0.7440 0.7440 0.7440 0.7440 0.7440
2175.672511 0.7440 0.7444 0.7449 0.7454 0.7459
2179.936308 0.7460 0.7460 0.7468 0.7478 0.7480
2184.200105 0.7480 0.7484 0.7489 0.7490 0.7490
2188.463902 0.7494 0.7499 0.7508 0.7518 0.7524
2192.727699 0.7529 0.7534 0.7539 0.7540 0.7540
2196.991495 0.7551 0.7566 0.7574 0.7579 0.7587
2201.255292 0.7597 0.7604 0.7609 0.7614 0.7619
2205.519089 0.7628 0.7637 0.7647 0.7657 0.7667
2209.782886 0.7677 0.7680 0.7680 0.7684 0.7689
2214.046682 0.7701 0.7716 0.7724 0.7729 0.7734
2218.310479 0.7739 0.7747 0.7757 0.7760 0.7760
2222.574276 0.7764 0.7769 0.7774 0.7779 0.7787
2226.838073 0.7797 0.7804 0.7809 0.7814 0.7819
2231.101870 0.7827 0.7837 0.7844 0.7849 0.7854
2235.365666 0.7859 0.7867 0.7877 0.7887 0.7897
2239.629463 0.7911 0.7926 0.7930 0.7930 0.7934
2243.893260 0.7938 0.7940 0.7940 0.7947 0.7957
2248.157057 0.7963 0.7968 0.7980 0.7995 0.8003
2252.420854 0.8008 0.8010 0.8010 0.8013 0.8018
2256.684650 0.8027 0.8037 0.8043 0.8048 0.8050
2260.948447 0.8050 0.8053 0.8058 0.8060 0.8060
2265.212244 0.8067 0.8077 0.8083 0.8088 0.8100
2269.476041 0.8115 0.8120 0.8120 0.8120 0.8120
2273.739837 0.8123 0.8128 0.8130 0.8130 0.8130
2278.003634 0.8130 0.8133 0.8138 0.8153 0.8173
2282.267431 0.8180 0.8180 0.8186 0.8196 0.8203
2286.531228 0.8208 0.8210 0.8210 0.8213 0.8218
2290.795025 0.8220 0.8220 0.8230 0.8245 0.8250
2295.058821 0.8250 0.8253 0.8258 0.8266 0.8276
2299.322618 0.8280 0.8280 0.8280 0.8280 0.8283
2303.586415 0.8288 0.8290 0.8290 0.8290 0.8290
2307.850212 0.8290 0.8290 0.8290 0.8290 0.8287
2312.114009 0.8282 0.8280 0.8280 0.8280 0.8280
2316.377805 0.8280 0.8280 0.8280 0.8280 0.8280
2320.641602 0.8280 0.8274 0.8264 0.8260 0.8260
2324.905399 0.8260 0.8260 0.8260 0.8260 0.8260
2329.169196 0.8260 0.8260 0.8260 0.8260 0.8260
2333.432992 0.8260 0.8260 0.8260 0.8260 0.8257
2337.696789 0.8252 0.8250 0.8250 0.8250 0.8250
2341.960586 0.8250 0.8250 0.8250 0.8250 0.8250
2346.224383 0.8250 0.8250 0.8250 0.8250 0.8250
2350.488180 0.8250 0.8250 0.8250 0.8250 0.8250
2354.751976 0.8250 0.8250 0.8250 0.8250 0.8250
2359.015773 0.8250 0.8250 0.8250 0.8250 0.8250
2363.279570 0.8250 0.8253 0.8258 0.8260 0.8260
2367.543367 0.8265 0.8275 0.8280 0.8280 0.8283
2371.807164 0.8288 0.8293 0.8298 0.8300 0.8300
2376.070960 0.8300 0.8300 0.8300 0.8300 0.8305
2380.334757 0.8315 0.8320 0.8320 0.8320 0.8320
2384.598554 0.8320 0.8320 0.8323 0.8328 0.8330
2388.862351 0.8330 0.8333 0.8338 0.8345 0.8355
2393.126147 0.8360 0.8360 0.8363 0.8368 0.8370
2397.389944 0.8370 0.8370 0.8370 0.8370 0.8370
2401.653741 0.8370 0.8370 0.8370 0.8370 0.8370
2405.917538 0.8370 0.8370 0.8370 0.8370 0.8370
2410.181335 0.8372 0.8377 0.8378 0.8373 0.8370
2414.445131 0.8370 0.8370 0.8370 0.8370 0.8370
2418.708928 0.8368 0.8363 0.8360 0.8360 0.8353
2422.972725 0.8338 0.8330 0.8330 0.8330 0.8330
2427.236522 0.8328 0.8323 0.8320 0.8320 0.8315
2431.500319 0.8305 0.8300 0.8300 0.8300 0.8300
2435.764115 0.8300 0.8300 0.8298 0.8293 0.8288
2440.027912 0.8283 0.8280 0.8280 0.8276 0.8265
2444.291709 0.8258 0.8253 0.8250 0.8250 0.8250
2448.555506 0.8250 0.8250 0.8250 0.8250 0.8250
2452.819302 0.8250 0.8250 0.8250 0.8250 0.8250
2457.083099 0.8250 0.8250 0.8250 0.8250 0.8250
2461.346896 0.8248 0.8243 0.8240 0.8240 0.8240
2465.610693 0.8240 0.8240 0.8240 0.8236 0.8226
2469.874490 0.8220 0.8220 0.8220 0.8220 0.8220
2474.138286 0.8220 0.8220 0.8220 0.8220 0.8220
2478.402083 0.8218 0.8213 0.8210 0.8210 0.8210
2482.665880 0.8210 0.8208 0.8203 0.8200 0.8200
2486.929677 0.8196 0.8186 0.8178 0.8173 0.8168
2491.193474 0.8163 0.8160 0.8160 0.8160 0.8160
2495.457270 0.8156 0.8146 0.8144 0.8154 0.8160
2499.721067 0.8160 0.8156 0.8146 0.8140 0.8140
2503.984864 0.8140 0.8140 0.8140 0.8140 0.8138
2508.248661 0.8133 0.8130 0.8130 0.8130 0.8130
2512.512458 0.8130 0.8130 0.8130 0.8130 0.8130
2516.776254 0.8130 0.8130 0.8130 0.8130 0.8130
2521.040051 0.8130 0.8130 0.8130 0.8130 0.8128
2525.303848 0.8123 0.8120 0.8120 0.8120 0.8120
2529.567645 0.8120 0.8120 0.8120 0.8120 0.8117
2533.831441 0.8107 0.8098 0.8093 0.8090 0.8090
2538.095238 0.8090 0.8090 0.8090 0.8090 0.8088
2542.359035 0.8083 0.8080 0.8080 0.8077 0.8067
2546.622832 0.8060 0.8060 0.8060 0.8060 0.8058
2550.886629 0.8053 0.8048 0.8043 0.8040 0.8040
2555.150425 0.8040 0.8040 0.8040 0.8040 0.8037
2559.414222 0.8027 0.8020 0.8020 0.8019 0.8013
2563.678019 0.8010 0.8010 0.8008 0.8003 0.7997
2567.941816 0.7987 0.7980 0.7980 0.7980 0.7980
2572.205613 0.7979 0.7974 0.7970 0.7970 0.7969
2576.469409 0.7964 0.7960 0.7960 0.7960 0.7960
2580.733206 0.7960 0.7960 0.7960 0.7960 0.7960
2584.997003 0.7960 0.7957 0.7947 0.7940 0.7940
2589.260800 0.7940 0.7940 0.7940 0.7940 0.7940
2593.524596 0.7940 0.7940 0.7940 0.7940 0.7940
2597.788393 0.7940 0.7940 0.7939 0.7934 0.7930
2602.052190 0.7930 0.7930 0.7930 0.7930 0.7930
2606.315987 0.7929 0.7924 0.7920 0.7920 0.7920
2610.579784 0.7920 0.7920 0.7920 0.7920 0.7920
2614.843580 0.7918 0.7908 0.7899 0.7894 0.7890
2619.107377 0.7890 0.7889 0.7884 0.7880 0.7880
2623.371174 0.7880 0.7880 0.7880 0.7880 0.7880
2627.634971 0.7880 0.7880 0.7880 0.7880 0.7880
2631.898768 0.7880 0.7880 0.7880 0.7880 0.7880
2636.162564 0.7880 0.7880 0.7880 0.7880 0.7880
2640.426361 0.7878 0.7868 0.7860 0.7860 0.7860
2644.690158 0.7860 0.7860 0.7860 0.7860 0.7860
2648.953955 0.7859 0.7854 0.7850 0.7850 0.7849
2653.217751 0.7844 0.7840 0.7840 0.7838 0.7828
2657.481548 0.7820 0.7820 0.7819 0.7814 0.7809
2661.745345 0.7804 0.7798 0.7788 0.7779 0.7774
2666.009142 0.7770 0.7770 0.7770 0.7770 0.7769
2670.272939 0.7764 0.7760 0.7760 0.7758 0.7748
2674.536735 0.7740 0.7740 0.7740 0.7740 0.7740
2678.800532 0.7740 0.7739 0.7734 0.7730 0.7730
2683.064329 0.7730 0.7730 0.7729 0.7724 0.7720
2687.328126 0.7720 0.7720 0.7720 0.7719 0.7709
2691.591923 0.7700 0.7700 0.7701 0.7711 0.7719
2695.855719 0.7709 0.7700 0.7700 0.7700 0.7700
2700.119516 0.7700 0.7700 0.7700 0.7700 0.7701
2704.383313 0.7711 0.7720 0.7720 0.7720 0.7720
2708.647110 0.7719 0.7709 0.7700 0.7700 0.7700
2712.910906 0.7700 0.7700 0.7700 0.7700 0.7700
2717.174703 0.7700 0.7700 0.7699 0.7694 0.7689
2721.438500 0.7684 0.7680 0.7680 0.7680 0.7680
2725.702297 0.7680 0.7680 0.7680 0.7680 0.7679
2729.966094 0.7669 0.7660 0.7655 0.7650 0.7650
2734.229890 0.7650 0.7650 0.7650 0.7645 0.7640
2738.493687 0.7640 0.7639 0.7629 0.7620 0.7620
2742.757484 0.7620 0.7620 0.7620 0.7620 0.7620
2747.021281 0.7615 0.7610 0.7610 0.7610 0.7610
2751.285078 0.7610 0.7610 0.7610 0.7610 0.7610
2755.548874 0.7605 0.7600 0.7600 0.7600 0.7600
2759.812671 0.7600 0.7600 0.7600 0.7600 0.7600
2764.076468 0.7590 0.7580 0.7580 0.7580 0.7580
2768.340265 0.7580 0.7580 0.7580 0.7575 0.7570
2772.604061 0.7570 0.7570 0.7565 0.7560 0.7560
2776.867858 0.7560 0.7560 0.7560 0.7560 0.7560
2781.131655 0.7550 0.7540 0.7535 0.7530 0.7530
2785.395452 0.7530 0.7525 0.7520 0.7510 0.7500
2789.659249 0.7495 0.7490 0.7485 0.7480 0.7480
2793.923045 0.7480 0.7470 0.7460 0.7460 0.7460
2798.186842 0.7460 0.7460 0.7450 0.7440 0.7440
2802.450639 0.7440 0.7430 0.7420 0.7420 0.7420
2806.714436 0.7420 0.7420 0.7415 0.7410 0.7410
2810.978233 0.7410 0.7410 0.7410 0.7415 0.7420
2815.242029 0.7420 0.7420 0.7420 0.7420 0.7415
2819.505826 0.7410 0.7410 0.7410 0.7410 0.7410
2823.769623 0.7410 0.7410 0.7410 0.7410 0.7410
2828.033420 0.7410 0.7410 0.7410 0.7405 0.7400
2832.297216 0.7400 0.7400 0.7400 0.7400 0.7400
2836.561013 0.7400 0.7390 0.7380 0.7370 0.7360
2840.824810 0.7350 0.7340 0.7340 0.7340 0.7335
2845.088607 0.7330 0.7330 0.7330 0.7325 0.7320
2849.352404 0.7320 0.7320 0.7320 0.7320 0.7320
2853.616200 0.7320 0.7320 0.7320 0.7311 0.7301
2857.879997 0.7295 0.7290 0.7285 0.7280 0.7271
2862.143794 0.7261 0.7260 0.7260 0.7260 0.7260
2866.407591 0.7255 0.7250 0.7250 0.7250 0.7250
2870.671388 0.7250 0.7245 0.7240 0.7240 0.7240
2874.935184 0.7231 0.7221 0.7220 0.7220 0.7220
2879.198981 0.7220 0.7215 0.7210 0.7210 0.7210
2883.462778 0.7210 0.7210 0.7197 0.7182 0.7180
2887.726575 0.7180 0.7175 0.7170 0.7165 0.7160
2891.990371 0.7151 0.7141 0.7136 0.7131 0.7126
2896.254168 0.7121 0.7111 0.7101 0.7096 0.7091
2900.517965 0.7086 0.7081 0.7080 0.7080 0.7071
2904.781762 0.7061 0.7060 0.7060 0.7056 0.7051
2909.045559 0.7050 0.7050 0.7046 0.7041 0.7040
2913.309355 0.7040 0.7040 0.7040 0.7031 0.7021
2917.573152 0.7016 0.7011 0.7006 0.7001 0.6991
2921.836949 0.6981 0.6980 0.6980 0.6980 0.6980
2926.100746 0.6976 0.6971 0.6970 0.6970 0.6966
2930.364543 0.6961 0.6952 0.6942 0.6940 0.6940
2934.628339 0.6936 0.6931 0.6930 0.6930 0.6930
2938.892136 0.6930 0.6930 0.6930 0.6930 0.6930
2943.155933 0.6930 0.6930 0.6930 0.6930 0.6930
2947.419730 0.6930 0.6930 0.6930 0.6930 0.6930
2951.683527 0.6926 0.6921 0.6912 0.6902 0.6900
2955.947323 0.6900 0.6896 0.6891 0.6886 0.6881
2960.211120 0.6864 0.6844 0.6832 0.6822 0.6812
2964.474917 0.6802 0.6800 0.6800 0.6792 0.6782
2968.738714 0.6780 0.6780 0.6772 0.6762 0.6752
2973.002510 0.6742 0.6736 0.6731 0.6718 0.6703
2977.266307 0.6700 0.6700 0.6692 0.6682 0.6672
2981.530104 0.6662 0.6644 0.6624 0.6616 0.6611
2985.793901 0.6606 0.6601 0.6592 0.6582 0.6572
2990.057698 0.6562 0.6552 0.6542 0.6540 0.6540
2994.321494 0.6548 0.6558 0.6560 0.6560 0.6564
2998.585291 0.6569 0.6570 0.6570 0.6566 0.6561
3002.849088 0.6545 0.6525 0.6505 0.6485 0.6472
3007.112885 0.6462 0.6445 0.6425 0.6405 0.6385
3011.376682 0.6376 0.6371 0.6366 0.6361 0.6360
3015.640478 0.6360 0.6364 0.6369 0.6370 0.6370
3019.904275 0.6370 0.6370 0.6374 0.6379 0.6387
3024.168072 0.6397 0.6404 0.6409 0.6410 0.6410
3028.431869 0.6414 0.6419 0.6420 0.6420 0.6420
3032.695665 0.6420 0.6427 0.6437 0.6447 0.6457
3036.959462 0.6488 0.6528 0.6568 0.6608 0.6645
3041.223259 0.6680 0.6704 0.6724 0.6741 0.6756
3045.487056 0.6760 0.6760 0.6753 0.6743 0.6726
3049.750853 0.6706 0.6683 0.6658 0.6647 0.6642
3054.014649 0.6630 0.6615 0.6607 0.6602 0.6593
3058.278446 0.6583 0.6580 0.6580 0.6577 0.6572
3062.542243 0.6570 0.6570 0.6570 0.6570 0.6567
3066.806040 0.6562 0.6553 0.6543 0.6537 0.6532
3071.069837 0.6517 0.6497 0.6487 0.6482 0.6473
3075.333633 0.6463 0.6457 0.6452 0.6450 0.6450
3079.597430 0.6450 0.6450 0.6453 0.6458 0.6473
3083.861227 0.6493 0.6500 0.6500 0.6513 0.6533
3088.125024 0.6553 0.6573 0.6593 0.6613 0.6643
3092.388820 0.6678 0.6706 0.6731 0.6740 0.6740
3096.652617 0.6750 0.6765 0.6780 0.6795 0.6816
3100.916414 0.6841 0.6853 0.6858 0.6866 0.6876
3105.180211 0.6880 0.6880 0.6880 0.6880 0.6880
3109.444008 0.6880 0.6880 0.6880 0.6874 0.6864
3113.707804 0.6860 0.6860 0.6857 0.6852 0.6850
3117.971601 0.6850 0.6850 0.6850 0.6847 0.6842
3122.235398 0.6840 0.6840 0.6834 0.6824 0.6817
3126.499195 0.6812 0.6810 0.6810 0.6810 0.6810
3130.762992 0.6810 0.6810 0.6810 0.6810 0.6810
3135.026788 0.6810 0.6807 0.6802 0.6800 0.6800
3139.290585 0.6800 0.6800 0.6800 0.6800 0.6800
3143.554382 0.6800 0.6794 0.6784 0.6777 0.6772
3147.818179 0.6770 0.6770 0.6770 0.6770 0.6767
3152.081975 0.6762 0.6760 0.6760 0.6760 0.6760
3156.345772 0.6760 0.6760 0.6760 0.6760 0.6754
3160.609569 0.6744 0.6740 0.6740 0.6740 0.6740
3164.873366 0.6740 0.6740 0.6740 0.6740 0.6746
3169.137163 0.6756 0.6760 0.6760 0.6760 0.6760
3173.400959 0.6760 0.6760 0.6760 0.6760 0.6760
3177.664756 0.6760 0.6760 0.6760 0.6760 0.6760
3181.928553 0.6760 0.6760 0.6755 0.6745 0.6740
3186.192350 0.6740 0.6737 0.6732 0.6730 0.6730
3190.456147 0.6727 0.6722 0.6715 0.6705 0.6700
3194.719943 0.6700 0.6700 0.6700 0.6697 0.6692
3198.983740 0.6690 0.6690 0.6690 0.6690 0.6687
3203.247537 0.6682 0.6680 0.6680 0.6680 0.6680
3207.511334 0.6680 0.6680 0.6675 0.6665 0.6658
3211.775130 0.6652 0.6650 0.6650 0.6650 0.6650
3216.038927 0.6650 0.6650 0.6650 0.6650 0.6648
3220.302724 0.6643 0.6635 0.6625 0.6620 0.6620
3224.566521 0.6620 0.6620 0.6620 0.6620 0.6618
3228.830318 0.6613 0.6610 0.6610 0.6608 0.6603
3233.094114 0.6600 0.6600 0.6600 0.6600 0.6595
3237.357911 0.6585 0.6580 0.6580 0.6578 0.6573
3241.621708 0.6570 0.6570 0.6570 0.6570 0.6568
3245.885505 0.6563 0.6555 0.6545 0.6540 0.6540
3250.149302 0.6538 0.6533 0.6530 0.6530 0.6530
3254.413098 0.6530 0.6530 0.6530 0.6528 0.6523
3258.676895 0.6520 0.6520 0.6520 0.6520 0.6520
3262.940692 0.6520 0.6516 0.6506 0.6500 0.6500
3267.204489 0.6500 0.6500 0.6500 0.6500 0.6498
3271.468285 0.6493 0.6490 0.6490 0.6490 0.6490
3275.732082 0.6488 0.6483 0.6480 0.6480 0.6480
3279.995879 0.6480 0.6476 0.6466 0.6460 0.6460
3284.259676 0.6460 0.6460 0.6458 0.6453 0.6450
3288.523473 0.6450 0.6448 0.6443 0.6440 0.6440
3292.787269 0.6440 0.6440 0.6440 0.6440 0.6436
3297.051066 0.6426 0.6420 0.6420 0.6420 0.6420
3301.314863 0.6420 0.6420 0.6418 0.6413 0.6408
3305.578660 0.6403 0.6400 0.6400 0.6396 0.6386
3309.842457 0.6380 0.6380 0.6378 0.6373 0.6370
3314.106253 0.6370 0.6368 0.6363 0.6360 0.6360
3318.370050 0.6360 0.6360 0.6356 0.6346 0.6340
3322.633847 0.6340 0.6340 0.6340 0.6340 0.6340
3326.897644 0.6338 0.6333 0.6330 0.6330 0.6330
3331.161441 0.6330 0.6328 0.6323 0.6320 0.6320
3335.425237 0.6320 0.6320 0.6320 0.6320 0.6317
3339.689034 0.6307 0.6300 0.6300 0.6300 0.6300
3343.952831 0.6298 0.6293 0.6290 0.6290 0.6290
3348.216628 0.6290 0.6288 0.6283 0.6280 0.6280
3352.480424 0.6280 0.6280 0.6277 0.6267 0.6260
3356.744221 0.6260 0.6258 0.6253 0.6250 0.6250
3361.008018 0.6248 0.6243 0.6240 0.6240 0.6237
3365.271815 0.6227 0.6220 0.6220 0.6218 0.6213
3369.535612 0.6210 0.6210 0.6208 0.6203 0.6200
3373.799408 0.6200 0.6197 0.6187 0.6180 0.6180
3378.063205 0.6179 0.6174 0.6170 0.6170 0.6170
3382.327002 0.6170 0.6169 0.6164 0.6160 0.6160
3386.590799 0.6160 0.6160 0.6160 0.6160 0.6157
3390.854596 0.6147 0.6140 0.6140 0.6140 0.6140
3395.118392 0.6139 0.6134 0.6130 0.6130 0.6129
3399.382189 0.6124 0.6120 0.6120 0.6120 0.6120
3403.645986 0.6117 0.6107 0.6099 0.6094 0.6090
3407.909783 0.6090 0.6089 0.6084 0.6080 0.6080
3412.173579 0.6080 0.6080 0.6080 0.6080 0.6078
3416.437376 0.6068 0.6060 0.6060 0.6060 0.6060
3420.701173 0.6059 0.6054 0.6050 0.6050 0.6050
3424.964970 0.6050 0.6049 0.6044 0.6040 0.6040
3429.228767 0.6040 0.6040 0.6038 0.6028 0.6020
3433.492563 0.6020 0.6020 0.6020 0.6019 0.6014
3437.756360 0.6010 0.6010 0.6010 0.6010 0.6009
3442.020157 0.6004 0.6000 0.6000 0.6000 0.6000
3446.283954 0.6000 0.6000 0.6000 0.6000 0.5998
3450.547751 0.5988 0.5980 0.5980 0.5980 0.5980
3454.811547 0.5980 0.5980 0.5980 0.5980 0.5979
3459.075344 0.5974 0.5970 0.5970 0.5970 0.5970
3463.339141 0.5970 0.5970 0.5969 0.5964 0.5958
3467.602938 0.5948 0.5940 0.5940 0.5940 0.5940
3471.866734 0.5940 0.5940 0.5940 0.5940 0.5940
3476.130531 0.5940 0.5939 0.5934 0.5930 0.5930
3480.394328 0.5929 0.5924 0.5920 0.5920 0.5920
3484.658125 0.5920 0.5920 0.5920 0.5920 0.5920
3488.921922 0.5920 0.5920 0.5918 0.5908 0.5900
3493.185718 0.5900 0.5900 0.5900 0.5900 0.5900
3497.449515 0.5900 0.5900 0.5900 0.5900 0.5899
3501.713312 0.5894 0.5890 0.5890 0.5890 0.5890
3505.977109 0.5890 0.5890 0.5890 0.5890 0.5890
3510.240906 0.5890 0.5889 0.5884 0.5880 0.5880
3514.504702 0.5880 0.5880 0.5880 0.5880 0.5880
3518.768499 0.5880 0.5880 0.5880 0.5880 0.5880
3523.032296 0.5880 0.5880 0.5880 0.5880 0.5880
3527.296093 0.5880 0.5880 0.5880 0.5880 0.5880
3531.559889 0.5879 0.5869 0.5860 0.5860 0.5860
3535.823686 0.5860 0.5860 0.5860 0.5860 0.5860
3540.087483 0.5860 0.5860 0.5860 0.5860 0.5860
3544.351280 0.5860 0.5860 0.5860 0.5860 0.5860
3548.615077 0.5860 0.5860 0.5860 0.5860 0.5860
3552.878873 0.5855 0.5850 0.5850 0.5850 0.5850
3557.142670 0.5850 0.5850 0.5850 0.5845 0.5840
3561.406467 0.5840 0.5840 0.5840 0.5839 0.5829
3565.670264 0.5820 0.5820 0.5820 0.5820 0.5820
3569.934061 0.5820 0.5820 0.5815 0.5810 0.5810
3574.197857 0.5810 0.5810 0.5810 0.5810 0.5810
3578.461654 0.5810 0.5810 0.5810 0.5810 0.5810
3582.725451 0.5810 0.5810 0.5810 0.5810 0.5810
3586.989248 0.5810 0.5810 0.5810 0.5810 0.5805
3591.253044 0.5800 0.5800 0.5800 0.5805 0.5810
3595.516841 0.5810 0.5810 0.5810 0.5810 0.5810
3599.780638 0.5810 0.5810 0.5810 0.5810 0.5810
3604.044435 0.5810 0.5810 0.5810 0.5810 0.5810
3608.308232 0.5810 0.5810 0.5810 0.5810 0.5810
3612.572028 0.5805 0.5800 0.5800 0.5800 0.5800
3616.835825 0.5800 0.5800 0.5800 0.5800 0.5800
3621.099622 0.5790 0.5780 0.5780 0.5780 0.5780
3625.363419 0.5780 0.5780 0.5780 0.5780 0.5780
3629.627216 0.5780 0.5780 0.5780 0.5780 0.5780
3633.891012 0.5780 0.5775 0.5770 0.5770 0.5770
3638.154809 0.5770 0.5770 0.5770 0.5770 0.5770
3642.418606 0.5770 0.5765 0.5760 0.5760 0.5760
3646.682403 0.5760 0.5760 0.5760 0.5760 0.5760
3650.946199 0.5760 0.5760 0.5760 0.5760 0.5760
3655.209996 0.5760 0.5760 0.5750 0.5740 0.5740
3659.473793 0.5740 0.5740 0.5740 0.5740 0.5740
3663.737590 0.5740 0.5740 0.5740 0.5740 0.5740
3668.001387 0.5740 0.5740 0.5740 0.5740 0.5740
3672.265183 0.5735 0.5730 0.5730 0.5730 0.5730
3676.528980 0.5730 0.5725 0.5720 0.5720 0.5720
3680.792777 0.5711 0.5701 0.5700 0.5700 0.5695
3685.056574 0.5690 0.5690 0.5690 0.5685 0.5680
3689.320371 0.5680 0.5680 0.5680 0.5680 0.5680
3693.584167 0.5680 0.5671 0.5661 0.5660 0.5660
3697.847964 0.5660 0.5660 0.5660 0.5660 0.5656
3702.111761 0.5651 0.5650 0.5650 0.5650 0.5650
3706.375558 0.5650 0.5650 0.5650 0.5650 0.5646
3710.639355 0.5641 0.5640 0.5640 0.5640 0.5640
3714.903151 0.5640 0.5640 0.5640 0.5640 0.5640
3719.166948 0.5640 0.5640 0.5640 0.5640 0.5640
3723.430745 0.5640 0.5640 0.5640 0.5640 0.5640
3727.694542 0.5640 0.5631 0.5621 0.5620 0.5620
3731.958338 0.5620 0.5620 0.5620 0.5620 0.5620
3736.222135 0.5620 0.5620 0.5620 0.5616 0.5611
3740.485932 0.5610 0.5610 0.5606 0.5601 0.5600
3744.749729 0.5600 0.5600 0.5600 0.5592 0.5582
3749.013526 0.5580 0.5580 0.5580 0.5580 0.5576
3753.277322 0.5571 0.5566 0.5561 0.5560 0.5560
3757.541119 0.5552 0.5542 0.5540 0.5540 0.5536
3761.804916 0.5531 0.5530 0.5530 0.5526 0.5521
3766.068713 0.5520 0.5520 0.5520 0.5520 0.5520
3770.332510 0.5520 0.5512 0.5502 0.5500 0.5500
3774.596306 0.5500 0.5500 0.5500 0.5500 0.5500
3778.860103 0.5500 0.5500 0.5500 0.5500 0.5500
3783.123900 0.5500 0.5500 0.5500 0.5500 0.5500
3787.387697 0.5500 0.5500 0.5500 0.5496 0.5491
3791.651493 0.5490 0.5490 0.5490 0.5490 0.5486
3795.915290 0.5481 0.5480 0.5480 0.5480 0.5480
##END=
