##TITLE=BENZENAMINE, 2-METHYL-, SULFATE
##JCAMP-DX=4.24
##DATA TYPE=INFRARED SPECTRUM
##CLASS=COBLENTZ III
##ORIGIN=DOW CHEMICAL COMPANY
##OWNER=COBLENTZ SOCIETY
Collection (C) 2018 copyright by the U.S. Secretary of Commerce
on behalf of the United States of America. All rights reserved.
##DATE=1969/10/07
##NAMES=o-TOLUIDINE SULFATE
##MOLFORM=C14 H20 N2 O4 S
##SOURCE REFERENCE=COBLENTZ NO. 10253
##$NIST ID=B6010253
##$NIST SOURCE=COBLENTZ
##$NIST IMAGE=cob10253
##SPECTROMETER/DATA SYSTEM=DOW KBr FOREPRISM-GRATING
##INSTRUMENT PARAMETERS=BLAZED AT 3.5, 12.0, 20.0 MICRON, CHANGED AT 5.0, 7.5, 14.9 MICRON
##STATE=SOLID (SPLIT MULL, FLUOROLUBE FOR 3800-1340 AND NUJOL FOR 1340-470 CM ^-^1)
##SAMPLING PROCEDURE=TRANSMISSION
##RESOLUTION=4
##DATA PROCESSING=DIGITIZED BY NIST FROM HARD COPY (FROM TWO SEGMENTS)
##XUNITS=1/CM
##YUNITS=TRANSMITTANCE
##XFACTOR=1.000000
##YFACTOR=1
##DELTAX=0.869566
##FIRSTX=466.087
##LASTX=3795.66
##FIRSTY=0.931
##MAXX=3795.66
##MINX=466.087
##MAXY=0.993
##MINY=0.035
##NPOINTS=3830
##XYDATA=(X++(Y..Y))
466.087000 0.9310 0.9330 0.9340 0.9360 0.9380
470.434832 0.9410 0.9450 0.9490 0.9530 0.9530
474.782665 0.9550 0.9570 0.9600 0.9600 0.9610
479.130497 0.9640 0.9640 0.9650 0.9670 0.9670
483.478329 0.9680 0.9680 0.9680 0.9700 0.9700
487.826161 0.9710 0.9710 0.9720 0.9740 0.9750
492.173994 0.9750 0.9750 0.9750 0.9760 0.9760
496.521826 0.9760 0.9760 0.9760 0.9760 0.9750
500.869658 0.9750 0.9740 0.9720 0.9710 0.9710
505.217491 0.9700 0.9680 0.9650 0.9640 0.9590
509.565323 0.9560 0.9510 0.9440 0.9370 0.9270
513.913155 0.9140 0.8951 0.8771 0.8471 0.7913
518.260988 0.7340 0.6680 0.6191 0.5831 0.5750
522.608820 0.5830 0.5890 0.6159 0.6608 0.6948
526.956652 0.7380 0.7780 0.8129 0.8619 0.8919
531.304484 0.9149 0.9260 0.9360 0.9410 0.9460
535.652317 0.9530 0.9560 0.9600 0.9630 0.9650
540.000149 0.9670 0.9680 0.9700 0.9710 0.9710
544.347981 0.9710 0.9720 0.9740 0.9740 0.9740
548.695814 0.9720 0.9720 0.9720 0.9710 0.9710
553.043646 0.9710 0.9710 0.9710 0.9710 0.9710
557.391478 0.9710 0.9710 0.9710 0.9700 0.9700
561.739310 0.9700 0.9700 0.9680 0.9670 0.9670
566.087143 0.9640 0.9630 0.9570 0.9550 0.9530
570.434975 0.9480 0.9410 0.9370 0.9340 0.9310
574.782807 0.9220 0.9100 0.9000 0.8801 0.8611
579.130640 0.8400 0.8000 0.7550 0.7230 0.7230
583.478472 0.7260 0.7440 0.7669 0.7859 0.8039
587.826304 0.8350 0.8530 0.8610 0.8690 0.8700
592.174137 0.8690 0.8630 0.8590 0.8540 0.8440
596.521969 0.8380 0.8120 0.7930 0.7611 0.7121
600.869801 0.6292 0.5861 0.5402 0.5002 0.4483
605.217633 0.4010 0.3610 0.3220 0.3000 0.2740
609.565466 0.2461 0.2051 0.2020 0.2050 0.2458
613.913298 0.2760 0.3230 0.3650 0.4059 0.4589
618.261130 0.4889 0.5059 0.5299 0.5529 0.5550
622.608963 0.5410 0.5250 0.5000 0.4581 0.4001
626.956795 0.3481 0.3081 0.2662 0.2252 0.2250
631.304627 0.2540 0.3080 0.3260 0.3630 0.4139
635.652460 0.4719 0.5298 0.5858 0.6388 0.6689
640.000292 0.6990 0.7330 0.7630 0.7860 0.7940
644.348124 0.8060 0.8130 0.8250 0.8389 0.8509
648.695956 0.8660 0.8730 0.8850 0.8990 0.9070
653.043789 0.9110 0.9150 0.9210 0.9250 0.9260
657.391621 0.9270 0.9270 0.9270 0.9270 0.9310
661.739453 0.9340 0.9360 0.9380 0.9410 0.9440
666.087286 0.9450 0.9460 0.9490 0.9510 0.9520
670.435118 0.9520 0.9520 0.9530 0.9550 0.9550
674.782950 0.9560 0.9560 0.9560 0.9560 0.9560
679.130782 0.9560 0.9560 0.9560 0.9560 0.9560
683.478615 0.9560 0.9560 0.9560 0.9550 0.9530
687.826447 0.9530 0.9510 0.9480 0.9480 0.9490
692.174279 0.9520 0.9530 0.9530 0.9530 0.9550
696.522112 0.9550 0.9550 0.9550 0.9530 0.9520
700.869944 0.9480 0.9440 0.9370 0.9290 0.9210
705.217776 0.9100 0.8761 0.7983 0.7223 0.7101
709.565609 0.7100 0.7410 0.8010 0.8609 0.9189
713.913441 0.9190 0.9180 0.9140 0.9110 0.9040
718.261273 0.8970 0.8920 0.8850 0.8800 0.8770
722.609105 0.8760 0.8740 0.8760 0.8770 0.8780
726.956938 0.8810 0.8810 0.8820 0.8820 0.8810
731.304770 0.8780 0.8730 0.8720 0.8690 0.8610
735.652602 0.8540 0.8480 0.8270 0.7970 0.7631
740.000435 0.7301 0.6662 0.5524 0.3129 0.1866
744.348267 0.0590 0.0590 0.0990 0.1340 0.1370
748.696099 0.1420 0.1450 0.1948 0.2428 0.2888
753.043931 0.3290 0.3600 0.3790 0.4200 0.4849
757.391764 0.5599 0.6348 0.6759 0.7298 0.7788
761.739596 0.8170 0.8470 0.8500 0.8500 0.8540
766.087428 0.8700 0.8840 0.9019 0.9140 0.9230
770.435261 0.9290 0.9310 0.9330 0.9340 0.9340
774.783093 0.9340 0.9360 0.9360 0.9380 0.9410
779.130925 0.9440 0.9450 0.9450 0.9480 0.9490
783.478758 0.9490 0.9510 0.9530 0.9530 0.9530
787.826590 0.9550 0.9550 0.9570 0.9530 0.9570
792.174422 0.9550 0.9530 0.9550 0.9530 0.9530
796.522254 0.9530 0.9530 0.9530 0.9530 0.9530
800.870087 0.9520 0.9520 0.9530 0.9530 0.9530
805.217919 0.9530 0.9530 0.9530 0.9530 0.9530
809.565751 0.9530 0.9520 0.9510 0.9510 0.9510
813.913584 0.9490 0.9490 0.9490 0.9490 0.9480
818.261416 0.9460 0.9460 0.9450 0.9450 0.9440
822.609248 0.9440 0.9440 0.9420 0.9420 0.9410
826.957081 0.9380 0.9380 0.9370 0.9370 0.9360
831.304913 0.9330 0.9300 0.9310 0.9230 0.9180
835.652745 0.9120 0.9110 0.9120 0.9170 0.9250
840.000577 0.9290 0.9310 0.9340 0.9340 0.9360
844.348410 0.9360 0.9370 0.9370 0.9370 0.9380
848.696242 0.9370 0.9380 0.9370 0.9370 0.9370
853.044074 0.9370 0.9360 0.9370 0.9360 0.9340
857.391907 0.9340 0.9330 0.9310 0.9300 0.9270
861.739739 0.9250 0.9230 0.9230 0.9230 0.9220
866.087571 0.9220 0.9220 0.9220 0.9220 0.9230
870.435403 0.9250 0.9260 0.9260 0.9270 0.9270
874.783236 0.9270 0.9270 0.9270 0.9270 0.9260
879.131068 0.9250 0.9250 0.9230 0.9220 0.9220
883.478900 0.9190 0.9170 0.9150 0.9140 0.9140
887.826733 0.9120 0.9120 0.9110 0.9110 0.9110
892.174565 0.9110 0.9110 0.9110 0.9110 0.9110
896.522397 0.9110 0.9100 0.9110 0.9110 0.9100
900.870230 0.9080 0.9060 0.9040 0.9030 0.9020
905.218062 0.8990 0.8970 0.8960 0.8950 0.8930
909.565894 0.8930 0.8920 0.8910 0.8910 0.8910
913.913726 0.8890 0.8850 0.8840 0.8810 0.8770
918.261559 0.8760 0.8740 0.8740 0.8730 0.8730
922.609391 0.8720 0.8700 0.8700 0.8690 0.8690
926.957223 0.8630 0.8610 0.8580 0.8580 0.8570
931.305056 0.8530 0.8530 0.8500 0.8460 0.8430
935.652888 0.8390 0.8340 0.8310 0.8210 0.8170
940.000720 0.8140 0.8100 0.8080 0.8060 0.8060
944.348552 0.8050 0.8050 0.8060 0.8060 0.8060
948.696385 0.8060 0.8060 0.8050 0.8040 0.8020
953.044217 0.8010 0.8000 0.7970 0.7940 0.7930
957.392049 0.7870 0.7820 0.7790 0.7740 0.7670
961.739882 0.7610 0.7530 0.7440 0.7380 0.7260
966.087714 0.7100 0.7000 0.6801 0.6511 0.6381
970.435546 0.5759 0.4820 0.4400 0.4010 0.4010
974.783379 0.4170 0.4320 0.4499 0.5098 0.5797
979.131211 0.6270 0.6531 0.7150 0.7450 0.7480
983.479043 0.7490 0.7490 0.7480 0.7450 0.7440
987.826875 0.7400 0.7310 0.7290 0.7150 0.7070
992.174708 0.6930 0.6890 0.6840 0.6840 0.6840
996.522540 0.6840 0.6820 0.6810 0.6810 0.6780
1000.870372 0.6760 0.6740 0.6700 0.6660 0.6630
1005.218205 0.6590 0.6530 0.6470 0.6430 0.6420
1009.566037 0.6320 0.6240 0.6160 0.6090 0.6010
1013.913869 0.5930 0.5870 0.5780 0.5700 0.5600
1018.261702 0.5490 0.5450 0.5181 0.4991 0.4801
1022.609534 0.4680 0.4550 0.4440 0.4270 0.4100
1026.957366 0.3930 0.3711 0.3531 0.3112 0.2772
1031.305198 0.2610 0.2470 0.2400 0.2320 0.2230
1035.653031 0.2170 0.2120 0.2080 0.2080 0.2040
1040.000863 0.2020 0.1980 0.1930 0.1870 0.1790
1044.348695 0.1720 0.1640 0.1570 0.1490 0.1410
1048.696528 0.1330 0.1250 0.1170 0.1110 0.1060
1053.044360 0.1000 0.0950 0.0880 0.0800 0.0760
1057.392192 0.0680 0.0620 0.0550 0.0530 0.0510
1061.740024 0.0500 0.0500 0.0480 0.0480 0.0480
1066.087857 0.0480 0.0480 0.0480 0.0500 0.0510
1070.435689 0.0530 0.0570 0.0610 0.0620 0.0630
1074.783521 0.0680 0.0690 0.0720 0.0760 0.0760
1079.131354 0.0770 0.0770 0.0770 0.0760 0.0760
1083.479186 0.0730 0.0730 0.0720 0.0700 0.0680
1087.827018 0.0630 0.0620 0.0590 0.0570 0.0530
1092.174851 0.0480 0.0470 0.0420 0.0400 0.0380
1096.522683 0.0380 0.0360 0.0350 0.0350 0.0360
1100.870515 0.0360 0.0360 0.0360 0.0380 0.0380
1105.218347 0.0380 0.0380 0.0390 0.0400 0.0400
1109.566180 0.0400 0.0400 0.0420 0.0420 0.0420
1113.914012 0.0430 0.0430 0.0440 0.0440 0.0460
1118.261844 0.0470 0.0470 0.0480 0.0500 0.0530
1122.609677 0.0580 0.0610 0.0630 0.0690 0.0760
1126.957509 0.0780 0.0820 0.0870 0.1000 0.1060
1131.305341 0.1110 0.1120 0.1170 0.1170 0.1180
1135.653173 0.1190 0.1180 0.1170 0.1150 0.1080
1140.001006 0.1030 0.1000 0.0990 0.0960 0.0920
1144.348838 0.0890 0.0870 0.0850 0.0840 0.0820
1148.696670 0.0810 0.0810 0.0820 0.1039 0.1120
1153.044503 0.1210 0.1270 0.1360 0.1440 0.1530
1157.392335 0.1650 0.1780 0.1930 0.2090 0.2239
1161.740167 0.2360 0.2460 0.2510 0.2580 0.2650
1166.088000 0.2760 0.2810 0.2870 0.2910 0.2970
1170.435832 0.3030 0.3110 0.3210 0.3260 0.3340
1174.783664 0.3450 0.3570 0.3700 0.3889 0.4019
1179.131496 0.4160 0.4440 0.4680 0.4920 0.5190
1183.479329 0.5360 0.5410 0.5410 0.5360 0.5021
1187.827161 0.4609 0.4060 0.3890 0.3890 0.4120
1192.174993 0.4430 0.4839 0.5488 0.5829 0.6049
1196.522826 0.6350 0.6650 0.6880 0.6930 0.7070
1200.870658 0.7210 0.7380 0.7440 0.7520 0.7570
1205.218490 0.7610 0.7670 0.7760 0.7830 0.7870
1209.566323 0.7940 0.7970 0.8040 0.8120 0.8130
1213.914155 0.8160 0.8230 0.8250 0.8270 0.8310
1218.261987 0.8320 0.8350 0.8360 0.8380 0.8390
1222.609819 0.8400 0.8400 0.8390 0.8380 0.8360
1226.957652 0.8320 0.8310 0.8230 0.8160 0.8050
1231.305484 0.7940 0.7760 0.7600 0.7600 0.7640
1235.653316 0.7750 0.7930 0.8120 0.8309 0.8400
1240.001149 0.8500 0.8570 0.8620 0.8660 0.8690
1244.348981 0.8690 0.8700 0.8720 0.8720 0.8720
1248.696813 0.8720 0.8730 0.8730 0.8740 0.8740
1253.044645 0.8740 0.8730 0.8730 0.8730 0.8720
1257.392478 0.8720 0.8720 0.8720 0.8720 0.8720
1261.740310 0.8720 0.8720 0.8720 0.8720 0.8720
1266.088142 0.8720 0.8720 0.8730 0.8740 0.8740
1270.435975 0.8740 0.8740 0.8740 0.8740 0.8760
1274.783807 0.8760 0.8770 0.8780 0.8800 0.8800
1279.131639 0.8780 0.8780 0.8760 0.8730 0.8720
1283.479472 0.8700 0.8700 0.8690 0.8690 0.8660
1287.827304 0.8620 0.8580 0.8540 0.8480 0.8400
1292.175136 0.8400 0.8460 0.8510 0.8540 0.8570
1296.522968 0.8590 0.8590 0.8570 0.8570 0.8530
1300.870801 0.8480 0.8430 0.8380 0.8310 0.8160
1305.218633 0.8020 0.7751 0.7381 0.6314 0.5981
1309.566465 0.5629 0.5290 0.5290 0.5590 0.5970
1313.914298 0.6629 0.7309 0.7669 0.8208 0.8967
1318.262130 0.9340 0.9510 0.9570 0.9610 0.9710
1322.609962 0.9790 0.9800 0.9860 0.9900 0.9910
1326.957794 0.9930 0.9930 0.9910 0.9910 0.9910
1331.305627 0.9910 0.9930 0.9930 0.9930 0.9930
1335.653459 0.9910 0.9900 0.9890 0.9890 0.9890
1340.001291 0.9890 0.9890 0.9890 0.9930 0.9930
1344.349124 0.9910 0.9900 0.9900 0.9900 0.9900
1348.696956 0.9900 0.9890 0.9890 0.9890 0.9870
1353.044788 0.9860 0.9860 0.9850 0.9850 0.9850
1357.392621 0.9850 0.9850 0.9850 0.9850 0.9830
1361.740453 0.9800 0.9800 0.9800 0.9790 0.9780
1366.088285 0.9780 0.9760 0.9760 0.9760 0.9760
1370.436117 0.9750 0.9680 0.9670 0.9650 0.9630
1374.783950 0.9600 0.9560 0.9480 0.9360 0.9250
1379.131782 0.9140 0.9140 0.9230 0.9330 0.9400
1383.479614 0.9460 0.9480 0.9460 0.9440 0.9400
1387.827447 0.9360 0.9300 0.9260 0.9250 0.9260
1392.175279 0.9370 0.9440 0.9490 0.9560 0.9600
1396.523111 0.9650 0.9700 0.9710 0.9720 0.9740
1400.870944 0.9740 0.9740 0.9740 0.9720 0.9720
1405.218776 0.9720 0.9710 0.9700 0.9680 0.9680
1409.566608 0.9670 0.9670 0.9610 0.9570 0.9560
1413.914440 0.9550 0.9550 0.9550 0.9550 0.9550
1418.262273 0.9530 0.9490 0.9490 0.9480 0.9440
1422.610105 0.9420 0.9410 0.9400 0.9360 0.9310
1426.957937 0.9260 0.9230 0.9180 0.9140 0.9110
1431.305770 0.8960 0.8880 0.8870 0.8870 0.8890
1435.653602 0.8910 0.8920 0.8910 0.8910 0.8850
1440.001434 0.8840 0.8760 0.8700 0.8620 0.8570
1444.349266 0.8360 0.8210 0.8120 0.8010 0.8010
1448.697099 0.8050 0.8100 0.8200 0.8310 0.8380
1453.044931 0.8380 0.8310 0.8240 0.8170 0.8021
1457.392763 0.7940 0.7700 0.7570 0.7380 0.6930
1461.740596 0.6440 0.6170 0.5940 0.5820 0.5820
1466.088428 0.5940 0.6140 0.6440 0.6770 0.6970
1470.436260 0.7180 0.7589 0.7909 0.8000 0.8209
1474.784093 0.8310 0.8340 0.8360 0.8360 0.8350
1479.131925 0.8310 0.8310 0.8240 0.8160 0.8040
1483.479757 0.7950 0.7830 0.7670 0.7460 0.7260
1487.827589 0.7070 0.6800 0.6541 0.6360 0.5762
1492.175422 0.5370 0.5180 0.4960 0.4890 0.4930
1496.523254 0.5230 0.5400 0.5639 0.5680 0.5740
1500.871086 0.5630 0.5250 0.4950 0.4660 0.4550
1505.218919 0.4550 0.4879 0.5249 0.5738 0.6059
1509.566751 0.6500 0.6741 0.7330 0.7780 0.7970
1513.914583 0.8190 0.8340 0.8540 0.8700 0.8740
1518.262415 0.8780 0.8820 0.8850 0.8850 0.8820
1522.610248 0.8810 0.8770 0.8720 0.8700 0.8610
1526.958080 0.8570 0.8510 0.8420 0.8360 0.8320
1531.305912 0.8170 0.8080 0.7950 0.7860 0.7800
1535.653745 0.7740 0.7670 0.7600 0.7530 0.7480
1540.001577 0.7450 0.7270 0.7170 0.7060 0.6930
1544.349409 0.6770 0.6620 0.6470 0.6310 0.6160
1548.697242 0.5930 0.5700 0.5461 0.5221 0.4911
1553.045074 0.4649 0.4360 0.4090 0.3790 0.3610
1557.392906 0.3440 0.3310 0.3290 0.3310 0.3460
1561.740738 0.3700 0.3830 0.4010 0.4200 0.4470
1566.088571 0.4680 0.4910 0.5110 0.5260 0.5380
1570.436403 0.5530 0.5610 0.5630 0.5650 0.5640
1574.784235 0.5610 0.5600 0.5520 0.5480 0.5420
1579.132068 0.5370 0.5370 0.5410 0.5450 0.5510
1583.479900 0.5550 0.5610 0.5670 0.5760 0.5870
1587.827732 0.5930 0.6000 0.6010 0.6020 0.6020
1592.175565 0.6010 0.5930 0.5890 0.5870 0.5760
1596.523397 0.5700 0.5670 0.5640 0.5630 0.5640
1600.871229 0.5670 0.5680 0.5740 0.5750 0.5740
1605.219061 0.5720 0.5710 0.5700 0.5680 0.5670
1609.566894 0.5670 0.5650 0.5650 0.5640 0.5630
1613.914726 0.5630 0.5610 0.5600 0.5590 0.5560
1618.262558 0.5530 0.5490 0.5450 0.5400 0.5360
1622.610391 0.5250 0.5170 0.5110 0.5030 0.5000
1626.958223 0.4920 0.4880 0.4880 0.4870 0.4880
1631.306055 0.4890 0.4930 0.4930 0.4960 0.4990
1635.653887 0.5000 0.5020 0.5070 0.5140 0.5170
1640.001720 0.5340 0.5490 0.5750 0.5980 0.6170
1644.349552 0.6480 0.6680 0.7069 0.7180 0.7449
1648.697384 0.7670 0.7800 0.7980 0.8160 0.8340
1653.045217 0.8480 0.8530 0.8610 0.8700 0.8740
1657.393049 0.8800 0.8910 0.8930 0.8970 0.9020
1661.740881 0.9060 0.9080 0.9100 0.9110 0.9140
1666.088714 0.9150 0.9170 0.9180 0.9190 0.9210
1670.436546 0.9220 0.9230 0.9270 0.9310 0.9310
1674.784378 0.9310 0.9330 0.9340 0.9340 0.9370
1679.132210 0.9380 0.9380 0.9400 0.9410 0.9410
1683.480043 0.9410 0.9410 0.9420 0.9420 0.9420
1687.827875 0.9420 0.9440 0.9440 0.9420 0.9420
1692.175707 0.9440 0.9440 0.9450 0.9460 0.9460
1696.523540 0.9480 0.9490 0.9490 0.9510 0.9530
1700.871372 0.9550 0.9570 0.9630 0.9640 0.9650
1705.219204 0.9670 0.9680 0.9700 0.9700 0.9700
1709.567036 0.9710 0.9710 0.9720 0.9750 0.9760
1713.914869 0.9760 0.9760 0.9760 0.9760 0.9760
1718.262701 0.9760 0.9760 0.9760 0.9760 0.9760
1722.610533 0.9740 0.9740 0.9740 0.9740 0.9760
1726.958366 0.9760 0.9760 0.9760 0.9760 0.9760
1731.306198 0.9780 0.9780 0.9760 0.9760 0.9760
1735.654030 0.9760 0.9750 0.9750 0.9740 0.9740
1740.001863 0.9760 0.9760 0.9780 0.9780 0.9780
1744.349695 0.9780 0.9790 0.9790 0.9790 0.9790
1748.697527 0.9800 0.9800 0.9820 0.9820 0.9830
1753.045359 0.9850 0.9830 0.9830 0.9830 0.9830
1757.393192 0.9830 0.9850 0.9850 0.9850 0.9850
1761.741024 0.9850 0.9830 0.9850 0.9830 0.9830
1766.088856 0.9820 0.9800 0.9800 0.9790 0.9790
1770.436689 0.9790 0.9780 0.9780 0.9760 0.9760
1774.784521 0.9760 0.9760 0.9750 0.9750 0.9750
1779.132353 0.9740 0.9720 0.9720 0.9710 0.9710
1783.480186 0.9700 0.9700 0.9670 0.9650 0.9640
1787.828018 0.9630 0.9610 0.9610 0.9570 0.9560
1792.175850 0.9550 0.9550 0.9510 0.9490 0.9480
1796.523682 0.9460 0.9420 0.9410 0.9400 0.9380
1800.871515 0.9380 0.9370 0.9370 0.9360 0.9360
1805.219347 0.9340 0.9340 0.9340 0.9340 0.9340
1809.567179 0.9340 0.9360 0.9370 0.9380 0.9380
1813.915012 0.9410 0.9410 0.9420 0.9420 0.9440
1818.262844 0.9420 0.9420 0.9440 0.9440 0.9420
1822.610676 0.9420 0.9420 0.9410 0.9410 0.9400
1826.958508 0.9400 0.9380 0.9370 0.9360 0.9340
1831.306341 0.9340 0.9330 0.9290 0.9270 0.9260
1835.654173 0.9250 0.9230 0.9230 0.9230 0.9250
1840.002005 0.9250 0.9260 0.9260 0.9270 0.9270
1844.349838 0.9270 0.9270 0.9270 0.9270 0.9270
1848.697670 0.9290 0.9300 0.9310 0.9330 0.9330
1853.045502 0.9310 0.9310 0.9300 0.9300 0.9310
1857.393335 0.9330 0.9330 0.9330 0.9330 0.9330
1861.741167 0.9310 0.9310 0.9310 0.9310 0.9310
1866.088999 0.9310 0.9300 0.9290 0.9290 0.9290
1870.436831 0.9270 0.9260 0.9250 0.9250 0.9230
1874.784664 0.9220 0.9210 0.9190 0.9180 0.9180
1879.132496 0.9170 0.9170 0.9150 0.9140 0.9120
1883.480328 0.9110 0.9110 0.9110 0.9110 0.9110
1887.828161 0.9100 0.9080 0.9070 0.9060 0.9040
1892.175993 0.9040 0.9040 0.9040 0.9040 0.9030
1896.523825 0.9030 0.9030 0.9030 0.9030 0.9030
1900.871657 0.9030 0.9000 0.9000 0.8990 0.8970
1905.219490 0.8960 0.8930 0.8910 0.8910 0.8840
1909.567322 0.8810 0.8770 0.8730 0.8700 0.8690
1913.915154 0.8650 0.8630 0.8620 0.8610 0.8590
1918.262987 0.8590 0.8580 0.8580 0.8580 0.8580
1922.610819 0.8590 0.8590 0.8590 0.8610 0.8610
1926.958651 0.8620 0.8630 0.8660 0.8660 0.8660
1931.306484 0.8660 0.8650 0.8650 0.8630 0.8630
1935.654316 0.8630 0.8620 0.8620 0.8610 0.8610
1940.002148 0.8590 0.8570 0.8550 0.8530 0.8510
1944.349980 0.8500 0.8440 0.8420 0.8400 0.8400
1948.697813 0.8390 0.8380 0.8360 0.8340 0.8320
1953.045645 0.8320 0.8310 0.8310 0.8310 0.8310
1957.393477 0.8310 0.8290 0.8290 0.8290 0.8280
1961.741310 0.8270 0.8250 0.8240 0.8230 0.8200
1966.089142 0.8160 0.8140 0.8130 0.8130 0.8120
1970.436974 0.8090 0.8060 0.8040 0.8010 0.7980
1974.784807 0.7950 0.7940 0.7930 0.7930 0.7870
1979.132639 0.7850 0.7850 0.7820 0.7800 0.7790
1983.480471 0.7780 0.7760 0.7750 0.7740 0.7710
1987.828303 0.7680 0.7670 0.7650 0.7640 0.7600
1992.176136 0.7590 0.7550 0.7510 0.7490 0.7460
1996.523968 0.7460 0.7480 0.7490 0.7510 0.7490
2000.871800 0.7485 0.7480 0.7470 0.7460 0.7455
2005.219633 0.7450 0.7445 0.7440 0.7425 0.7410
2009.567465 0.7405 0.7400 0.7390 0.7380 0.7380
2013.915297 0.7380 0.7380 0.7380 0.7370 0.7359
2018.263129 0.7334 0.7310 0.7310 0.7309 0.7269
2022.610962 0.7229 0.7189 0.7149 0.7129 0.7109
2026.958794 0.7094 0.7080 0.7080 0.7080 0.7070
2031.306626 0.7058 0.7013 0.6969 0.6938 0.6907
2035.654459 0.6862 0.6818 0.6788 0.6759 0.6749
2040.002291 0.6736 0.6671 0.6607 0.6567 0.6527
2044.350123 0.6482 0.6439 0.6419 0.6399 0.6379
2048.697956 0.6359 0.6339 0.6319 0.6304 0.6284
2053.045788 0.6219 0.6156 0.6116 0.6077 0.6042
2057.393620 0.6008 0.5988 0.5968 0.5948 0.5922
2061.741452 0.5837 0.5758 0.5738 0.5718 0.5693
2066.089285 0.5669 0.5654 0.5639 0.5623 0.5609
2070.437117 0.5604 0.5599 0.5594 0.5590 0.5590
2074.784949 0.5591 0.5596 0.5601 0.5606 0.5611
2079.132782 0.5621 0.5631 0.5641 0.5652 0.5667
2083.480614 0.5681 0.5691 0.5700 0.5700 0.5701
2087.828446 0.5706 0.5710 0.5710 0.5711 0.5716
2092.176278 0.5720 0.5720 0.5720 0.5720 0.5720
2096.524111 0.5720 0.5720 0.5720 0.5720 0.5720
2100.871943 0.5722 0.5732 0.5738 0.5728 0.5720
2105.219775 0.5720 0.5720 0.5720 0.5720 0.5720
2109.567608 0.5722 0.5732 0.5741 0.5746 0.5755
2113.915440 0.5780 0.5800 0.5800 0.5802 0.5812
2118.263272 0.5820 0.5820 0.5823 0.5838 0.5850
2122.611105 0.5850 0.5852 0.5862 0.5873 0.5888
2126.958937 0.5903 0.5918 0.5932 0.5942 0.5956
2131.306769 0.5986 0.6017 0.6052 0.6080 0.6080
2135.654601 0.6082 0.6092 0.6104 0.6125 0.6147
2140.002434 0.6177 0.6204 0.6219 0.6239 0.6279
2144.350266 0.6310 0.6310 0.6316 0.6341 0.6364
2148.698098 0.6379 0.6396 0.6421 0.6447 0.6477
2153.045931 0.6504 0.6519 0.6541 0.6587 0.6628
2157.393763 0.6658 0.6688 0.6718 0.6744 0.6759
2161.741595 0.6777 0.6802 0.6829 0.6864 0.6893
2166.089428 0.6903 0.6915 0.6935 0.6955 0.6975
2170.437260 0.7001 0.7041 0.7074 0.7089 0.7101
2174.785092 0.7106 0.7111 0.7116 0.7120 0.7120
2179.132924 0.7120 0.7120 0.7124 0.7139 0.7153
2183.480757 0.7163 0.7170 0.7170 0.7170 0.7170
2187.828589 0.7171 0.7177 0.7180 0.7180 0.7180
2192.176421 0.7180 0.7180 0.7180 0.7180 0.7180
2196.524254 0.7178 0.7173 0.7170 0.7170 0.7165
2200.872086 0.7150 0.7135 0.7120 0.7108 0.7103
2205.219918 0.7097 0.7087 0.7078 0.7073 0.7070
2209.567750 0.7070 0.7061 0.7036 0.7016 0.7006
2213.915583 0.7000 0.7000 0.6995 0.6980 0.6963
2218.263415 0.6943 0.6926 0.6916 0.6899 0.6869
2222.611247 0.6845 0.6830 0.6816 0.6806 0.6789
2226.959080 0.6759 0.6738 0.6733 0.6715 0.6675
2231.306912 0.6639 0.6609 0.6582 0.6562 0.6540
2235.654744 0.6515 0.6492 0.6472 0.6456 0.6446
2240.002577 0.6430 0.6405 0.6382 0.6362 0.6344
2244.350409 0.6329 0.6318 0.6313 0.6306 0.6296
2248.698241 0.6282 0.6262 0.6242 0.6222 0.6202
2253.046073 0.6182 0.6164 0.6149 0.6138 0.6133
2257.393906 0.6124 0.6109 0.6100 0.6100 0.6096
2261.741738 0.6086 0.6080 0.6080 0.6080 0.6080
2266.089570 0.6071 0.6051 0.6040 0.6040 0.6033
2270.437403 0.6018 0.6008 0.6003 0.5993 0.5978
2274.785235 0.5957 0.5927 0.5906 0.5895 0.5890
2279.133067 0.5890 0.5874 0.5839 0.5811 0.5791
2283.480899 0.5773 0.5758 0.5743 0.5728 0.5711
2287.828732 0.5691 0.5680 0.5680 0.5661 0.5621
2292.176564 0.5583 0.5548 0.5525 0.5515 0.5503
2296.524396 0.5488 0.5470 0.5450 0.5430 0.5410
2300.872229 0.5390 0.5370 0.5353 0.5338 0.5312
2305.220061 0.5277 0.5257 0.5252 0.5245 0.5235
2309.567893 0.5210 0.5170 0.5140 0.5120 0.5107
2313.915726 0.5102 0.5082 0.5047 0.5022 0.5007
2318.263558 0.4997 0.4992 0.4964 0.4914 0.4879
2322.611390 0.4859 0.4839 0.4819 0.4802 0.4787
2326.959222 0.4777 0.4772 0.4770 0.4770 0.4767
2331.307055 0.4762 0.4749 0.4729 0.4712 0.4697
2335.654887 0.4687 0.4682 0.4674 0.4664 0.4657
2340.002719 0.4652 0.4639 0.4619 0.4610 0.4610
2344.350552 0.4602 0.4587 0.4577 0.4572 0.4570
2348.698384 0.4570 0.4561 0.4546 0.4531 0.4516
2353.046216 0.4495 0.4470 0.4454 0.4444 0.4437
2357.394048 0.4432 0.4415 0.4390 0.4371 0.4356
2361.741881 0.4347 0.4342 0.4334 0.4324 0.4320
2366.089713 0.4320 0.4311 0.4296 0.4287 0.4282
2370.437545 0.4277 0.4272 0.4270 0.4270 0.4270
2374.785378 0.4270 0.4261 0.4246 0.4240 0.4240
2379.133210 0.4225 0.4200 0.4184 0.4174 0.4170
2383.481042 0.4170 0.4167 0.4162 0.4154 0.4144
2387.828875 0.4140 0.4140 0.4114 0.4074 0.4054
2392.176707 0.4044 0.4027 0.4007 0.3990 0.3975
2396.524539 0.3964 0.3954 0.3943 0.3933 0.3910
2400.872371 0.3880 0.3857 0.3837 0.3813 0.3788
2405.220204 0.3767 0.3747 0.3733 0.3723 0.3713
2409.568036 0.3703 0.3680 0.3650 0.3626 0.3606
2413.915868 0.3600 0.3600 0.3576 0.3541 0.3530
2418.263701 0.3530 0.3502 0.3462 0.3432 0.3407
2422.611533 0.3389 0.3374 0.3366 0.3361 0.3335
2426.959365 0.3300 0.3276 0.3256 0.3222 0.3182
2431.307198 0.3159 0.3144 0.3126 0.3106 0.3075
2435.655030 0.3040 0.3019 0.3004 0.2974 0.2939
2440.002862 0.2912 0.2887 0.2869 0.2854 0.2835
2444.350694 0.2815 0.2806 0.2801 0.2785 0.2765
2448.698527 0.2738 0.2708 0.2693 0.2682 0.2654
2453.046359 0.2619 0.2595 0.2575 0.2562 0.2552
2457.394191 0.2542 0.2532 0.2496 0.2451 0.2425
2461.742024 0.2405 0.2392 0.2382 0.2365 0.2345
2466.089856 0.2332 0.2322 0.2305 0.2284 0.2264
2470.437688 0.2244 0.2236 0.2231 0.2206 0.2176
2474.785520 0.2150 0.2125 0.2120 0.2120 0.2096
2479.133353 0.2066 0.2044 0.2024 0.2016 0.2011
2483.481185 0.1994 0.1974 0.1970 0.1970 0.1954
2487.829017 0.1934 0.1914 0.1894 0.1874 0.1854
2492.176850 0.1830 0.1805 0.1796 0.1791 0.1786
2496.524682 0.1781 0.1768 0.1753 0.1734 0.1714
2500.872514 0.1694 0.1674 0.1658 0.1642 0.1623
2505.220347 0.1603 0.1587 0.1572 0.1570 0.1570
2509.568179 0.1549 0.1524 0.1495 0.1465 0.1443
2513.916011 0.1423 0.1403 0.1383 0.1363 0.1343
2518.263843 0.1323 0.1303 0.1296 0.1291 0.1273
2522.611676 0.1253 0.1241 0.1231 0.1226 0.1221
2526.959508 0.1216 0.1211 0.1197 0.1182 0.1162
2531.307340 0.1142 0.1131 0.1121 0.1098 0.1073
2535.655173 0.1066 0.1061 0.1033 0.1003 0.0995
2540.003005 0.0990 0.0981 0.0971 0.0970 0.0970
2544.350837 0.0947 0.0922 0.0915 0.0910 0.0896
2548.698669 0.0881 0.0875 0.0870 0.0861 0.0851
2553.046502 0.0850 0.0850 0.0845 0.0840 0.0826
2557.394334 0.0811 0.0805 0.0800 0.0786 0.0771
2561.742166 0.0756 0.0741 0.0735 0.0730 0.0725
2566.089999 0.0720 0.0711 0.0701 0.0695 0.0690
2570.437831 0.0676 0.0661 0.0660 0.0660 0.0660
2574.785663 0.0660 0.0660 0.0660 0.0660 0.0660
2579.133496 0.0655 0.0650 0.0640 0.0630 0.0630
2583.481328 0.0630 0.0630 0.0630 0.0630 0.0630
2587.829160 0.0625 0.0620 0.0615 0.0610 0.0610
2592.176992 0.0610 0.0610 0.0610 0.0610 0.0610
2596.524825 0.0600 0.0590 0.0590 0.0590 0.0585
2600.872657 0.0580 0.0585 0.0590 0.0590 0.0590
2605.220489 0.0590 0.0590 0.0590 0.0590 0.0585
2609.568322 0.0580 0.0580 0.0580 0.0585 0.0590
2613.916154 0.0600 0.0610 0.0610 0.0610 0.0610
2618.263986 0.0610 0.0615 0.0620 0.0625 0.0631
2622.611819 0.0656 0.0680 0.0685 0.0691 0.0706
2626.959651 0.0721 0.0741 0.0760 0.0770 0.0781
2631.307483 0.0796 0.0811 0.0831 0.0851 0.0861
2635.655315 0.0871 0.0881 0.0891 0.0901 0.0912
2640.003148 0.0957 0.1000 0.1000 0.1001 0.1016
2644.350980 0.1031 0.1046 0.1060 0.1065 0.1070
2648.698812 0.1070 0.1071 0.1086 0.1101 0.1111
2653.046645 0.1121 0.1131 0.1140 0.1145 0.1151
2657.394477 0.1161 0.1170 0.1175 0.1183 0.1208
2661.742309 0.1232 0.1252 0.1271 0.1281 0.1291
2666.090141 0.1301 0.1313 0.1338 0.1361 0.1371
2670.437974 0.1384 0.1424 0.1462 0.1477 0.1491
2674.785806 0.1501 0.1513 0.1544 0.1575 0.1610
2679.133638 0.1645 0.1680 0.1716 0.1761 0.1805
2683.481471 0.1840 0.1871 0.1881 0.1893 0.1918
2687.829303 0.1943 0.1963 0.1983 0.2003 0.2024
2692.177135 0.2054 0.2081 0.2092 0.2100 0.2100
2696.524968 0.2105 0.2135 0.2161 0.2166 0.2172
2700.872800 0.2187 0.2202 0.2217 0.2231 0.2236
2705.220632 0.2240 0.2240 0.2241 0.2246 0.2256
2709.568464 0.2291 0.2322 0.2332 0.2340 0.2340
2713.916297 0.2340 0.2340 0.2338 0.2328 0.2320
2718.264129 0.2320 0.2317 0.2302 0.2289 0.2284
2722.611961 0.2280 0.2280 0.2279 0.2274 0.2270
2726.959794 0.2270 0.2268 0.2258 0.2246 0.2226
2731.307626 0.2209 0.2204 0.2197 0.2182 0.2167
2735.655458 0.2152 0.2138 0.2128 0.2116 0.2096
2740.003290 0.2073 0.2043 0.2019 0.2014 0.2007
2744.351123 0.1992 0.1979 0.1974 0.1963 0.1933
2748.698955 0.1905 0.1885 0.1865 0.1845 0.1825
2753.046787 0.1805 0.1790 0.1790 0.1785 0.1765
2757.394620 0.1746 0.1731 0.1719 0.1714 0.1705
2761.742452 0.1685 0.1667 0.1657 0.1647 0.1637
2766.090284 0.1630 0.1630 0.1627 0.1617 0.1610
2770.438117 0.1610 0.1613 0.1623 0.1630 0.1630
2774.785949 0.1630 0.1630 0.1630 0.1630 0.1630
2779.133781 0.1630 0.1627 0.1617 0.1610 0.1610
2783.481613 0.1608 0.1603 0.1598 0.1593 0.1587
2787.829446 0.1577 0.1568 0.1563 0.1560 0.1560
2792.177278 0.1558 0.1553 0.1547 0.1537 0.1528
2796.525110 0.1523 0.1518 0.1513 0.1502 0.1477
2800.872943 0.1460 0.1460 0.1458 0.1453 0.1445
2805.220775 0.1430 0.1418 0.1413 0.1405 0.1390
2809.568607 0.1377 0.1367 0.1357 0.1347 0.1333
2813.916440 0.1313 0.1298 0.1293 0.1285 0.1270
2818.264272 0.1253 0.1233 0.1213 0.1193 0.1178
2822.612104 0.1173 0.1170 0.1170 0.1164 0.1149
2826.959936 0.1136 0.1126 0.1113 0.1093 0.1073
2831.307769 0.1053 0.1036 0.1026 0.1020 0.1020
2835.655601 0.1016 0.1006 0.0998 0.0993 0.0986
2840.003433 0.0976 0.0958 0.0928 0.0904 0.0889
2844.351266 0.0880 0.0880 0.0878 0.0873 0.0870
2848.699098 0.0870 0.0870 0.0870 0.0870 0.0870
2853.046930 0.0870 0.0870 0.0870 0.0870 0.0872
2857.394762 0.0877 0.0880 0.0880 0.0882 0.0887
2861.742595 0.0890 0.0890 0.0894 0.0904 0.0910
2866.090427 0.0910 0.0912 0.0917 0.0922 0.0927
2870.438259 0.0935 0.0945 0.0952 0.0957 0.0962
2874.786092 0.0967 0.0975 0.0985 0.0992 0.0997
2879.133924 0.1000 0.1000 0.1005 0.1015 0.1020
2883.481756 0.1020 0.1022 0.1027 0.1030 0.1030
2887.829589 0.1032 0.1037 0.1045 0.1055 0.1065
2892.177421 0.1075 0.1085 0.1095 0.1102 0.1107
2896.525253 0.1112 0.1117 0.1127 0.1142 0.1155
2900.873085 0.1165 0.1172 0.1178 0.1183 0.1188
2905.220918 0.1190 0.1190 0.1195 0.1205 0.1210
2909.568750 0.1210 0.1213 0.1218 0.1220 0.1220
2913.916582 0.1223 0.1228 0.1235 0.1245 0.1250
2918.264415 0.1250 0.1255 0.1265 0.1275 0.1285
2922.612247 0.1293 0.1298 0.1308 0.1323 0.1338
2926.960079 0.1353 0.1360 0.1360 0.1376 0.1406
2931.307911 0.1420 0.1420 0.1428 0.1443 0.1466
2935.655744 0.1496 0.1524 0.1549 0.1563 0.1568
2940.003576 0.1579 0.1594 0.1609 0.1624 0.1633
2944.351408 0.1638 0.1649 0.1664 0.1679 0.1694
2948.699241 0.1703 0.1708 0.1710 0.1710 0.1713
2953.047073 0.1718 0.1726 0.1736 0.1743 0.1748
2957.394905 0.1750 0.1750 0.1759 0.1774 0.1780
2961.742738 0.1780 0.1786 0.1796 0.1806 0.1816
2966.090570 0.1829 0.1844 0.1862 0.1882 0.1908
2970.438402 0.1938 0.1959 0.1974 0.1986 0.1996
2974.786234 0.2006 0.2016 0.2039 0.2069 0.2086
2979.134067 0.2096 0.2113 0.2133 0.2149 0.2164
2983.481899 0.2183 0.2203 0.2216 0.2226 0.2233
2987.829731 0.2238 0.2250 0.2265 0.2293 0.2328
2992.177564 0.2343 0.2348 0.2353 0.2358 0.2396
2996.525396 0.2451 0.2506 0.2561 0.2613 0.2663
3000.873228 0.2700 0.2730 0.2753 0.2773 0.2790
3005.221061 0.2805 0.2833 0.2869 0.2897 0.2922
3009.568893 0.2951 0.2981 0.3004 0.3024 0.3040
3013.916725 0.3055 0.3060 0.3060 0.3063 0.3068
3018.264557 0.3070 0.3070 0.3070 0.3070 0.3070
3022.612390 0.3070 0.3070 0.3070 0.3074 0.3079
3026.960222 0.3080 0.3080 0.3105 0.3140 0.3164
3031.308054 0.3184 0.3204 0.3224 0.3255 0.3290
3035.655887 0.3325 0.3360 0.3395 0.3430 0.3454
3040.003719 0.3474 0.3491 0.3506 0.3514 0.3519
3044.351551 0.3524 0.3529 0.3537 0.3547 0.3550
3048.699383 0.3550 0.3543 0.3533 0.3530 0.3530
3053.047216 0.3530 0.3530 0.3537 0.3547 0.3565
3057.395048 0.3585 0.3613 0.3643 0.3704 0.3774
3061.742880 0.3821 0.3861 0.3878 0.3888 0.3925
3066.090713 0.3970 0.4007 0.4042 0.4093 0.4148
3070.438545 0.4218 0.4293 0.4345 0.4390 0.4427
3074.786377 0.4462 0.4501 0.4542 0.4594 0.4649
3079.134210 0.4704 0.4759 0.4802 0.4842 0.4878
3083.482042 0.4913 0.4952 0.4992 0.5008 0.5018
3087.829874 0.5040 0.5065 0.5090 0.5115 0.5144
3092.177706 0.5174 0.5180 0.5180 0.5197 0.5217
3096.525539 0.5224 0.5229 0.5238 0.5248 0.5258
3100.873371 0.5268 0.5287 0.5307 0.5322 0.5338
3105.221203 0.5340 0.5340 0.5348 0.5358 0.5364
3109.569036 0.5369 0.5391 0.5416 0.5446 0.5476
3113.916868 0.5484 0.5489 0.5499 0.5509 0.5544
3118.264700 0.5584 0.5599 0.5609 0.5640 0.5675
3122.612532 0.5706 0.5736 0.5749 0.5759 0.5786
3126.960365 0.5816 0.5842 0.5867 0.5897 0.5927
3131.308197 0.5952 0.5977 0.6007 0.6037 0.6062
3135.656029 0.6087 0.6108 0.6128 0.6157 0.6187
3140.003862 0.6208 0.6228 0.6266 0.6306 0.6341
3144.351694 0.6376 0.6407 0.6437 0.6454 0.6469
3148.699526 0.6520 0.6575 0.6612 0.6647 0.6673
3153.047359 0.6698 0.6718 0.6738 0.6749 0.6759
3157.395191 0.6783 0.6808 0.6856 0.6906 0.6919
3161.743023 0.6929 0.6949 0.6969 0.6979 0.6989
3166.090855 0.7014 0.7039 0.7054 0.7069 0.7089
3170.438688 0.7109 0.7124 0.7139 0.7154 0.7169
3174.786520 0.7175 0.7180 0.7204 0.7229 0.7240
3179.134352 0.7250 0.7260 0.7270 0.7280 0.7290
3183.482185 0.7295 0.7300 0.7315 0.7330 0.7335
3187.830017 0.7340 0.7369 0.7399 0.7405 0.7410
3192.177849 0.7425 0.7440 0.7450 0.7460 0.7470
3196.525682 0.7480 0.7495 0.7510 0.7540 0.7570
3200.873514 0.7620 0.7670 0.7685 0.7700 0.7720
3205.221346 0.7740 0.7745 0.7750 0.7770 0.7790
3209.569178 0.7805 0.7820 0.7855 0.7890 0.7915
3213.917011 0.7940 0.7945 0.7951 0.7981 0.8010
3218.264843 0.8025 0.8041 0.8061 0.8081 0.8111
3222.612675 0.8140 0.8150 0.8161 0.8176 0.8191
3226.960508 0.8211 0.8230 0.8240 0.8251 0.8281
3231.308340 0.8310 0.8310 0.8311 0.8326 0.8340
3235.656172 0.8345 0.8351 0.8366 0.8382 0.8407
3240.004004 0.8431 0.8451 0.8471 0.8491 0.8510
3244.351837 0.8510 0.8511 0.8521 0.8530 0.8535
3248.699669 0.8541 0.8556 0.8573 0.8603 0.8631
3253.047501 0.8646 0.8661 0.8676 0.8690 0.8690
3257.395334 0.8690 0.8695 0.8701 0.8716 0.8731
3261.743166 0.8746 0.8761 0.8771 0.8781 0.8791
3266.090998 0.8800 0.8806 0.8812 0.8827 0.8841
3270.438831 0.8846 0.8852 0.8867 0.8881 0.8886
3274.786663 0.8891 0.8901 0.8910 0.8910 0.8911
3279.134495 0.8916 0.8920 0.8920 0.8920 0.8920
3283.482327 0.8921 0.8926 0.8930 0.8930 0.8930
3287.830160 0.8930 0.8931 0.8941 0.8951 0.8956
3292.177992 0.8960 0.8960 0.8961 0.8966 0.8970
3296.525824 0.8970 0.8972 0.8982 0.8992 0.9007
3300.873657 0.9020 0.9020 0.9020 0.9020 0.9021
3305.221489 0.9026 0.9030 0.9030 0.9030 0.9030
3309.569321 0.9030 0.9030 0.9029 0.9024 0.9020
3313.917153 0.9020 0.9020 0.9020 0.9018 0.9008
3318.264986 0.9000 0.9000 0.9002 0.9012 0.9020
3322.612818 0.9020 0.9020 0.9020 0.9018 0.9008
3326.960650 0.9002 0.9012 0.9020 0.9020 0.9018
3331.308483 0.9008 0.9000 0.9000 0.9000 0.9000
3335.656315 0.8999 0.8994 0.8990 0.8990 0.8988
3340.004147 0.8978 0.8972 0.8982 0.8990 0.8990
3344.351980 0.8990 0.8990 0.8990 0.8990 0.8990
3348.699812 0.8990 0.8988 0.8978 0.8970 0.8970
3353.047644 0.8969 0.8964 0.8960 0.8960 0.8959
3357.395476 0.8954 0.8947 0.8937 0.8930 0.8930
3361.743309 0.8930 0.8930 0.8930 0.8930 0.8930
3366.091141 0.8930 0.8930 0.8930 0.8930 0.8930
3370.438973 0.8929 0.8924 0.8920 0.8920 0.8920
3374.786806 0.8920 0.8920 0.8920 0.8921 0.8926
3379.134638 0.8930 0.8930 0.8927 0.8917 0.8910
3383.482470 0.8910 0.8910 0.8910 0.8907 0.8897
3387.830303 0.8890 0.8890 0.8890 0.8890 0.8890
3392.178135 0.8890 0.8890 0.8890 0.8890 0.8890
3396.525967 0.8890 0.8890 0.8890 0.8890 0.8890
3400.873799 0.8890 0.8888 0.8883 0.8880 0.8880
3405.221632 0.8880 0.8880 0.8880 0.8880 0.8880
3409.569464 0.8880 0.8880 0.8880 0.8880 0.8880
3413.917296 0.8878 0.8873 0.8866 0.8856 0.8850
3418.265129 0.8850 0.8850 0.8850 0.8850 0.8850
3422.612961 0.8848 0.8843 0.8840 0.8840 0.8840
3426.960793 0.8840 0.8840 0.8840 0.8840 0.8840
3431.308625 0.8840 0.8840 0.8840 0.8840 0.8840
3435.656458 0.8840 0.8836 0.8826 0.8820 0.8820
3440.004290 0.8820 0.8820 0.8820 0.8820 0.8820
3444.352122 0.8820 0.8818 0.8813 0.8810 0.8810
3448.699955 0.8812 0.8817 0.8820 0.8820 0.8820
3453.047787 0.8820 0.8820 0.8820 0.8820 0.8820
3457.395619 0.8818 0.8813 0.8808 0.8803 0.8800
3461.743452 0.8800 0.8800 0.8800 0.8796 0.8786
3466.091284 0.8780 0.8780 0.8778 0.8773 0.8772
3470.439116 0.8777 0.8780 0.8780 0.8780 0.8780
3474.786948 0.8780 0.8780 0.8780 0.8780 0.8778
3479.134781 0.8773 0.8770 0.8770 0.8770 0.8770
3483.482613 0.8768 0.8763 0.8760 0.8760 0.8760
3487.830445 0.8760 0.8760 0.8760 0.8760 0.8760
3492.178278 0.8762 0.8767 0.8770 0.8770 0.8770
3496.526110 0.8770 0.8770 0.8770 0.8768 0.8763
3500.873942 0.8755 0.8745 0.8740 0.8740 0.8740
3505.221774 0.8740 0.8740 0.8740 0.8735 0.8725
3509.569607 0.8720 0.8720 0.8720 0.8720 0.8720
3513.917439 0.8720 0.8720 0.8720 0.8720 0.8720
3518.265271 0.8720 0.8720 0.8720 0.8720 0.8720
3522.613104 0.8720 0.8720 0.8720 0.8720 0.8720
3526.960936 0.8720 0.8720 0.8720 0.8720 0.8720
3531.308768 0.8720 0.8720 0.8720 0.8720 0.8720
3535.656601 0.8720 0.8720 0.8720 0.8720 0.8720
3540.004433 0.8720 0.8720 0.8720 0.8720 0.8720
3544.352265 0.8720 0.8720 0.8720 0.8720 0.8723
3548.700097 0.8728 0.8730 0.8730 0.8727 0.8722
3553.047930 0.8720 0.8720 0.8720 0.8720 0.8720
3557.395762 0.8720 0.8720 0.8720 0.8714 0.8704
3561.743594 0.8700 0.8700 0.8700 0.8700 0.8697
3566.091427 0.8692 0.8690 0.8690 0.8690 0.8690
3570.439259 0.8690 0.8690 0.8687 0.8682 0.8674
3574.787091 0.8664 0.8657 0.8652 0.8653 0.8658
3579.134924 0.8660 0.8660 0.8670 0.8685 0.8690
3583.482756 0.8690 0.8690 0.8690 0.8690 0.8690
3587.830588 0.8693 0.8698 0.8700 0.8700 0.8700
3592.178420 0.8700 0.8700 0.8700 0.8700 0.8700
3596.526253 0.8697 0.8692 0.8690 0.8690 0.8690
3600.874085 0.8690 0.8690 0.8690 0.8690 0.8690
3605.221917 0.8690 0.8690 0.8693 0.8698 0.8697
3609.569750 0.8692 0.8690 0.8690 0.8690 0.8690
3613.917582 0.8690 0.8690 0.8687 0.8682 0.8680
3618.265414 0.8680 0.8680 0.8680 0.8680 0.8680
3622.613246 0.8673 0.8663 0.8656 0.8651 0.8650
3626.961079 0.8650 0.8654 0.8659 0.8660 0.8660
3631.308911 0.8660 0.8660 0.8660 0.8660 0.8660
3635.656743 0.8660 0.8660 0.8660 0.8660 0.8660
3640.004576 0.8656 0.8651 0.8650 0.8650 0.8643
3644.352408 0.8633 0.8630 0.8630 0.8630 0.8630
3648.700240 0.8630 0.8630 0.8630 0.8630 0.8630
3653.048073 0.8630 0.8626 0.8621 0.8616 0.8611
3657.395905 0.8610 0.8610 0.8602 0.8592 0.8590
3661.743737 0.8590 0.8590 0.8590 0.8590 0.8590
3666.091569 0.8590 0.8590 0.8586 0.8581 0.8584
3670.439402 0.8589 0.8590 0.8590 0.8590 0.8590
3674.787234 0.8590 0.8590 0.8590 0.8590 0.8586
3679.135066 0.8581 0.8580 0.8580 0.8580 0.8580
3683.482899 0.8580 0.8580 0.8580 0.8580 0.8576
3687.830731 0.8571 0.8574 0.8579 0.8576 0.8571
3692.178563 0.8570 0.8570 0.8570 0.8570 0.8570
3696.526395 0.8570 0.8558 0.8543 0.8544 0.8549
3700.874228 0.8546 0.8541 0.8540 0.8540 0.8536
3705.222060 0.8531 0.8530 0.8530 0.8522 0.8512
3709.569892 0.8510 0.8510 0.8510 0.8510 0.8510
3713.917725 0.8510 0.8510 0.8510 0.8510 0.8510
3718.265557 0.8510 0.8510 0.8506 0.8501 0.8500
3722.613389 0.8500 0.8500 0.8500 0.8500 0.8500
3726.961222 0.8500 0.8500 0.8500 0.8500 0.8500
3731.309054 0.8500 0.8491 0.8481 0.8480 0.8480
3735.656886 0.8476 0.8471 0.8466 0.8460 0.8451
3740.004718 0.8441 0.8440 0.8440 0.8435 0.8430
3744.352551 0.8430 0.8430 0.8425 0.8420 0.8420
3748.700383 0.8420 0.8420 0.8420 0.8411 0.8401
3753.048215 0.8400 0.8400 0.8400 0.8400 0.8400
3757.396048 0.8400 0.8400 0.8400 0.8395 0.8390
3761.743880 0.8390 0.8390 0.8390 0.8390 0.8390
3766.091712 0.8390 0.8385 0.8380 0.8380 0.8380
3770.439545 0.8380 0.8380 0.8380 0.8380 0.8380
3774.787377 0.8380 0.8380 0.8380 0.8370 0.8360
3779.135209 0.8360 0.8360 0.8360 0.8360 0.8360
3783.483041 0.8360 0.8360 0.8360 0.8355 0.8350
3787.830874 0.8350 0.8350 0.8350 0.8350 0.8350
3792.178706 0.8350 0.8350 0.8350 0.8350 0.8350
##END=
