##TITLE=PROPYLTHIOPHOSPHONIC ACID, 3-AMINO-2-HYDROXY-, MONOSODIUM SALT, TETRAHYDRATE
##JCAMP-DX=4.24
##DATA TYPE=INFRARED SPECTRUM
##CLASS=COBLENTZ III
##ORIGIN=SOUTHERN RESEARCH INSTITUTE
##OWNER=COBLENTZ SOCIETY
Collection (C) 2018 copyright by the U.S. Secretary of Commerce
on behalf of the United States of America. All rights reserved.
##DATE=1967/06/19
##MOLFORM=C3 H9 N O4 S P Na  * 4 H2 O
##SOURCE REFERENCE=COBLENTZ NO. 10387
##$NIST ID=B6010387
##$NIST SOURCE=COBLENTZ
##$NIST IMAGE=cob10387
##SPECTROMETER/DATA SYSTEM=PERKIN-ELMER 521 (GRATING)
##STATE=SOLID (1 mg / 650 mg KBr DISC)
##PATH LENGTH=
$$ PURITY - ANALYTICAL
##SAMPLING PROCEDURE=TRANSMISSION
##RESOLUTION=4
##DATA PROCESSING=DIGITIZED BY NIST FROM HARD COPY (FROM TWO SEGMENTS)
##XUNITS=1/CM
##YUNITS=TRANSMITTANCE
##XFACTOR=1.000000
##YFACTOR=1
##DELTAX=1.312336
##FIRSTX=252.848
##LASTX=3998.25
##FIRSTY=0.236
##MAXX=3998.25
##MINX=252.848
##MAXY=0.91
##MINY=0.159
##NPOINTS=2855
##XYDATA=(X++(Y..Y))
252.848000 0.2360 0.2380 0.2390 0.2400 0.2420
259.409680 0.2430 0.2499 0.2510 0.2569 0.2629
265.971360 0.2718 0.2759 0.2799 0.2849 0.2908
272.533040 0.2978 0.3067 0.3138 0.3159 0.3275
279.094720 0.3328 0.3359 0.3370 0.3437 0.3516
285.656400 0.3587 0.3666 0.3746 0.3835 0.3897
292.218080 0.3947 0.3969 0.3989 0.4037 0.4078
298.779760 0.4089 0.4099 0.4119 0.4120 0.4120
305.341440 0.4120 0.4101 0.4091 0.4072 0.4070
311.903120 0.4052 0.4041 0.4004 0.4000 0.3991
318.464800 0.3954 0.3932 0.3921 0.3920 0.3920
325.026480 0.3929 0.3948 0.3959 0.3987 0.4026
331.588160 0.4066 0.4150 0.4267 0.4413 0.4492
338.149840 0.4606 0.4682 0.4839 0.4982 0.5096
344.711520 0.5259 0.5542 0.5632 0.5718 0.5765
351.273200 0.5822 0.5899 0.5919 0.5920 0.5920
357.834880 0.5911 0.5910 0.5910 0.5910 0.5918
364.396560 0.5920 0.5954 0.5994 0.6025 0.6064
370.958240 0.6137 0.6217 0.6280 0.6348 0.6393
377.519920 0.6425 0.6447 0.6450 0.6450 0.6434
384.081600 0.6430 0.6430 0.6414 0.6369 0.6336
390.643280 0.6306 0.6284 0.6207 0.6166 0.6128
397.204960 0.6120 0.6072 0.6004 0.5934 0.5880
403.766640 0.5830 0.5796 0.5774 0.5770 0.5754
410.328320 0.5750 0.5774 0.5819 0.5877 0.5929
416.890000 0.5987 0.6046 0.6083 0.6121 0.6130
423.451680 0.6145 0.6150 0.6150 0.6135 0.6130
430.013360 0.6122 0.6097 0.6075 0.6062 0.6038
436.575040 0.6007 0.5992 0.5967 0.5945 0.5918
443.136720 0.5873 0.5838 0.5793 0.5751 0.5711
449.698400 0.5663 0.5599 0.5551 0.5504 0.5454
456.260080 0.5382 0.5331 0.5284 0.5248 0.5233
462.821760 0.5223 0.5220 0.5220 0.5206 0.5193
469.383440 0.5155 0.5133 0.5088 0.5028 0.4989
475.945120 0.4924 0.4865 0.4829 0.4785 0.4673
482.506800 0.4582 0.4491 0.4439 0.4369 0.4320
489.068480 0.4276 0.4219 0.4186 0.4146 0.4103
495.630160 0.4077 0.4043 0.4010 0.3993 0.3977
502.191840 0.3957 0.3950 0.3937 0.3930 0.3930
508.753520 0.3943 0.3950 0.3957 0.3979 0.4003
515.315200 0.4029 0.4046 0.4082 0.4126 0.4166
521.876880 0.4218 0.4265 0.4286 0.4296 0.4300
528.438560 0.4300 0.4300 0.4300 0.4300 0.4294
535.000240 0.4284 0.4280 0.4268 0.4229 0.4192
541.561920 0.4156 0.4134 0.4112 0.4094 0.4084
548.123600 0.4062 0.4002 0.3934 0.3880 0.3836
554.685280 0.3784 0.3748 0.3734 0.3695 0.3588
561.246960 0.3460 0.3375 0.3309 0.3211 0.3080
567.808640 0.2980 0.2915 0.2815 0.2726 0.2671
574.370320 0.2582 0.2519 0.2493 0.2474 0.2464
580.932000 0.2449 0.2434 0.2436 0.2451 0.2482
587.493680 0.2505 0.2515 0.2536 0.2577 0.2638
594.055360 0.2703 0.2746 0.2771 0.2802 0.2863
600.617040 0.2969 0.3099 0.3250 0.3388 0.3482
607.178720 0.3525 0.3551 0.3617 0.3696 0.3761
613.740400 0.3836 0.3921 0.3975 0.4041 0.4115
620.302080 0.4175 0.4246 0.4290 0.4365 0.4445
626.863760 0.4470 0.4515 0.4570 0.4605 0.4644
633.425440 0.4680 0.4719 0.4774 0.4829 0.4894
639.987120 0.4954 0.4980 0.4994 0.5015 0.5039
646.548800 0.5093 0.5135 0.5145 0.5164 0.5185
653.110480 0.5195 0.5232 0.5288 0.5333 0.5374
659.672160 0.5399 0.5419 0.5435 0.5445 0.5481
666.233840 0.5529 0.5549 0.5564 0.5583 0.5609
672.795520 0.5620 0.5629 0.5640 0.5649 0.5682
679.357200 0.5723 0.5753 0.5774 0.5793 0.5814
685.918880 0.5833 0.5867 0.5898 0.5914 0.5928
692.480560 0.5948 0.5984 0.6028 0.6040 0.6056
699.042240 0.6084 0.6106 0.6154 0.6198 0.6226
705.603920 0.6262 0.6280 0.6288 0.6308 0.6324
712.165600 0.6345 0.6374 0.6388 0.6404 0.6410
718.727280 0.6410 0.6410 0.6410 0.6410 0.6406
725.288960 0.6400 0.6400 0.6393 0.6380 0.6376
731.850640 0.6356 0.6326 0.6309 0.6269 0.6206
738.412320 0.6143 0.6068 0.5980 0.5957 0.5953
744.974000 0.5970 0.6004 0.6047 0.6103 0.6176
751.535680 0.6250 0.6303 0.6343 0.6373 0.6393
758.097360 0.6423 0.6430 0.6436 0.6453 0.6460
764.659040 0.6463 0.6476 0.6490 0.6493 0.6512
771.220720 0.6543 0.6559 0.6583 0.6599 0.6623
777.782400 0.6633 0.6646 0.6666 0.6686 0.6706
784.344080 0.6732 0.6771 0.6808 0.6836 0.6858
790.905760 0.6883 0.6898 0.6923 0.6938 0.6963
797.467440 0.6989 0.7043 0.7058 0.7096 0.7140
804.029120 0.7153 0.7206 0.7263 0.7303 0.7310
810.590800 0.7313 0.7325 0.7342 0.7352 0.7365
817.152480 0.7382 0.7397 0.7432 0.7484 0.7537
823.714160 0.7567 0.7592 0.7602 0.7615 0.7632
830.275840 0.7640 0.7640 0.7633 0.7608 0.7591
836.837520 0.7540 0.7461 0.7419 0.7376 0.7358
843.399200 0.7350 0.7350 0.7350 0.7352 0.7364
849.960880 0.7380 0.7380 0.7380 0.7382 0.7392
856.522560 0.7406 0.7445 0.7527 0.7615 0.7702
863.084240 0.7811 0.7873 0.7934 0.7961 0.8013
869.645920 0.8030 0.8030 0.8030 0.8030 0.8030
876.207600 0.8028 0.8020 0.8020 0.8018 0.8007
882.769280 0.7990 0.7984 0.7950 0.7950 0.7949
889.330960 0.7940 0.7940 0.7939 0.7927 0.7907
895.892640 0.7887 0.7862 0.7804 0.7763 0.7720
902.454320 0.7715 0.7671 0.7607 0.7586 0.7555
909.016000 0.7510 0.7433 0.7370 0.7295 0.7252
915.577680 0.7179 0.7086 0.7040 0.6952 0.6868
922.139360 0.6755 0.6693 0.6537 0.6411 0.6313
928.701040 0.6147 0.6009 0.5886 0.5728 0.5590
935.262720 0.5469 0.5339 0.5218 0.5063 0.4735
941.824400 0.4427 0.4138 0.3850 0.3563 0.3185
948.386080 0.2815 0.2448 0.2276 0.2085 0.2009
954.947760 0.2001 0.2013 0.2061 0.2089 0.2255
961.509440 0.2359 0.2541 0.2737 0.2870 0.3070
968.071120 0.3291 0.3553 0.3870 0.4141 0.4461
974.632800 0.4777 0.5005 0.5135 0.5279 0.5560
981.194480 0.5570 0.5580 0.5570 0.5560 0.5540
987.756160 0.5520 0.5509 0.5479 0.5400 0.5370
994.317840 0.5360 0.5350 0.5360 0.5370 0.5400
1000.879520 0.5410 0.5440 0.5470 0.5480 0.5490
1007.441200 0.5490 0.5480 0.5431 0.5410 0.5390
1014.002880 0.5341 0.5281 0.5231 0.5171 0.5053
1020.564560 0.4923 0.4774 0.4644 0.4485 0.4432
1027.126240 0.4334 0.4205 0.4056 0.3877 0.3678
1033.687920 0.3536 0.3358 0.3245 0.3003 0.2971
1040.249600 0.2951 0.2950 0.2969 0.2970 0.2970
1046.811280 0.2951 0.2903 0.2844 0.2738 0.2609
1053.372960 0.2489 0.2285 0.2131 0.2009 0.1982
1059.934640 0.1860 0.1804 0.1763 0.1742 0.1722
1066.496320 0.1702 0.1700 0.1682 0.1671 0.1643
1073.058000 0.1622 0.1602 0.1591 0.1590 0.1599
1079.619680 0.1627 0.1711 0.1747 0.1821 0.1910
1086.181360 0.1973 0.1998 0.2018 0.2038 0.2040
1092.743040 0.2023 0.2011 0.2001 0.1974 0.1961
1099.304720 0.1934 0.1921 0.1911 0.1893 0.1890
1105.866400 0.1890 0.1890 0.1907 0.1910 0.1919
1112.428080 0.1929 0.1947 0.1975 0.2014 0.2070
1118.989760 0.2097 0.2159 0.2220 0.2264 0.2303
1125.551440 0.2352 0.2385 0.2465 0.2497 0.2541
1132.113120 0.2649 0.2744 0.2834 0.2883 0.2931
1138.674800 0.2981 0.3112 0.3181 0.3230 0.3304
1145.236480 0.3360 0.3410 0.3501 0.3576 0.3670
1151.798160 0.3762 0.3891 0.3991 0.4105 0.4162
1158.359840 0.4296 0.4409 0.4462 0.4541 0.4623
1164.921520 0.4695 0.4757 0.4863 0.4960 0.5034
1171.483200 0.5111 0.5207 0.5315 0.5363 0.5424
1178.044880 0.5516 0.5570 0.5603 0.5618 0.5665
1184.606560 0.5718 0.5760 0.5808 0.5858 0.5907
1191.168240 0.5950 0.6005 0.6050 0.6082 0.6112
1197.729920 0.6171 0.6256 0.6317 0.6403 0.6459
1204.291600 0.6499 0.6539 0.6586 0.6629 0.6690
1210.853280 0.6760 0.6802 0.6832 0.6869 0.6909
1217.414960 0.6941 0.6957 0.7002 0.7048 0.7074
1223.976640 0.7122 0.7161 0.7184 0.7204 0.7217
1230.538320 0.7227 0.7244 0.7250 0.7236 0.7230
1237.100000 0.7223 0.7172 0.7075 0.6965 0.6896
1243.661680 0.6873 0.6857 0.6863 0.6877 0.6900
1250.223360 0.6923 0.6977 0.7060 0.7123 0.7186
1256.785040 0.7236 0.7309 0.7379 0.7446 0.7496
1263.346720 0.7523 0.7556 0.7589 0.7606 0.7629
1269.908400 0.7666 0.7693 0.7713 0.7726 0.7762
1276.470080 0.7793 0.7800 0.7800 0.7806 0.7810
1283.031760 0.7810 0.7810 0.7810 0.7810 0.7810
1289.593440 0.7810 0.7810 0.7810 0.7810 0.7804
1296.155120 0.7800 0.7800 0.7800 0.7800 0.7800
1302.716800 0.7788 0.7780 0.7780 0.7774 0.7770
1309.278480 0.7764 0.7748 0.7734 0.7724 0.7720
1315.840160 0.7720 0.7708 0.7700 0.7700 0.7700
1322.401840 0.7711 0.7720 0.7726 0.7753 0.7776
1328.963520 0.7791 0.7806 0.7810 0.7816 0.7820
1335.525200 0.7820 0.7820 0.7820 0.7815 0.7805
1342.086880 0.7789 0.7775 0.7770 0.7765 0.7760
1348.648560 0.7749 0.7735 0.7709 0.7637 0.7511
1355.210240 0.7377 0.7262 0.7121 0.6961 0.6859
1361.771920 0.6820 0.6810 0.6825 0.6860 0.6966
1368.333600 0.7111 0.7277 0.7441 0.7566 0.7650
1374.895280 0.7675 0.7700 0.7705 0.7685 0.7680
1381.456960 0.7675 0.7670 0.7660 0.7626 0.7585
1388.018640 0.7565 0.7555 0.7555 0.7565 0.7584
1394.580320 0.7605 0.7624 0.7659 0.7689 0.7709
1401.142000 0.7720 0.7697 0.7642 0.7592 0.7565
1407.703680 0.7533 0.7468 0.7412 0.7331 0.7219
1414.265360 0.7098 0.6997 0.6980 0.7024 0.7194
1420.827040 0.7357 0.7441 0.7533 0.7554 0.7560
1427.388720 0.7556 0.7550 0.7537 0.7512 0.7483
1433.950400 0.7447 0.7417 0.7396 0.7373 0.7346
1440.512080 0.7303 0.7238 0.7208 0.7174 0.7138
1447.073760 0.7108 0.7038 0.6916 0.6814 0.6752
1453.635440 0.6740 0.6744 0.6766 0.6809 0.6859
1460.197120 0.6917 0.6991 0.7071 0.7147 0.7220
1466.758800 0.7304 0.7375 0.7422 0.7479 0.7517
1473.320480 0.7541 0.7571 0.7590 0.7590 0.7594
1479.882160 0.7600 0.7604 0.7610 0.7610 0.7610
1486.443840 0.7610 0.7610 0.7603 0.7580 0.7557
1493.005520 0.7550 0.7543 0.7530 0.7520 0.7480
1499.567200 0.7423 0.7387 0.7370 0.7340 0.7317
1506.128880 0.7303 0.7277 0.7228 0.7155 0.7087
1512.690560 0.7054 0.7012 0.6925 0.6835 0.6723
1519.252240 0.6600 0.6485 0.6409 0.6336 0.6220
1525.813920 0.6056 0.5976 0.5863 0.5703 0.5622
1532.375600 0.5577 0.5567 0.5560 0.5563 0.5573
1538.937280 0.5591 0.5637 0.5683 0.5704 0.5751
1545.498960 0.5827 0.5961 0.6009 0.6087 0.6202
1552.060640 0.6370 0.6533 0.6611 0.6661 0.6741
1558.622320 0.6818 0.6885 0.6958 0.7060 0.7132
1565.184000 0.7180 0.7215 0.7237 0.7270 0.7305
1571.745680 0.7325 0.7340 0.7335 0.7320 0.7320
1578.307360 0.7320 0.7318 0.7310 0.7308 0.7291
1584.869040 0.7253 0.7221 0.7177 0.7113 0.7035
1591.430720 0.6976 0.6950 0.6889 0.6806 0.6780
1597.992400 0.6716 0.6594 0.6466 0.6344 0.6226
1604.554080 0.6153 0.6063 0.5971 0.5867 0.5749
1611.115760 0.5645 0.5567 0.5506 0.5488 0.5480
1617.677440 0.5478 0.5470 0.5470 0.5470 0.5470
1624.239120 0.5470 0.5470 0.5470 0.5470 0.5470
1630.800800 0.5472 0.5480 0.5482 0.5493 0.5510
1637.362480 0.5512 0.5521 0.5530 0.5531 0.5543
1643.924160 0.5560 0.5561 0.5574 0.5606 0.5645
1650.485840 0.5684 0.5719 0.5786 0.5833 0.5855
1657.047520 0.5896 0.5945 0.5986 0.6036 0.6088
1663.609200 0.6151 0.6171 0.6262 0.6287 0.6349
1670.170880 0.6424 0.6467 0.6534 0.6573 0.6603
1676.732560 0.6631 0.6644 0.6686 0.6742 0.6766
1683.294240 0.6832 0.6853 0.6893 0.6925 0.6983
1689.855920 0.7022 0.7051 0.7063 0.7103 0.7144
1696.417600 0.7192 0.7221 0.7234 0.7295 0.7364
1702.979280 0.7423 0.7472 0.7511 0.7532 0.7562
1709.540960 0.7591 0.7612 0.7654 0.7724 0.7805
1716.102640 0.7900 0.7911 0.7932 0.7972 0.8033
1722.664320 0.8101 0.8142 0.8191 0.8211 0.8241
1729.226000 0.8281 0.8331 0.8361 0.8400 0.8420
1735.787680 0.8440 0.8460 0.8491 0.8520 0.8540
1742.349360 0.8560 0.8591 0.8650 0.8670 0.8690
1748.911040 0.8700 0.8710 0.8730 0.8740 0.8750
1755.472720 0.8750 0.8780 0.8790 0.8800 0.8800
1762.034400 0.8800 0.8820 0.8820 0.8840 0.8869
1768.596080 0.8870 0.8899 0.8910 0.8910 0.8920
1775.157760 0.8920 0.8930 0.8959 0.8970 0.8970
1781.719440 0.8989 0.8990 0.8990 0.8990 0.8999
1788.281120 0.9000 0.9000 0.9000 0.9009 0.9010
1794.842800 0.9029 0.9030 0.9039 0.9040 0.9031
1801.404480 0.9039 0.9040 0.9040 0.9049 0.9050
1807.966160 0.9050 0.9068 0.9052 0.9068 0.9070
1814.527840 0.9070 0.9070 0.9079 0.9080 0.9071
1821.089520 0.9079 0.9080 0.9080 0.9080 0.9080
1827.651200 0.9080 0.9089 0.9090 0.9090 0.9090
1834.212880 0.9090 0.9090 0.9090 0.9090 0.9090
1840.774560 0.9099 0.9100 0.9100 0.9100 0.9100
1847.336240 0.9100 0.9100 0.9100 0.9100 0.9100
1853.897920 0.9100 0.9100 0.9100 0.9100 0.9100
1860.459600 0.9100 0.9100 0.9100 0.9100 0.9100
1867.021280 0.9100 0.9100 0.9092 0.9090 0.9098
1873.582960 0.9100 0.9100 0.9100 0.9100 0.9100
1880.144640 0.9092 0.9098 0.9100 0.9100 0.9100
1886.706320 0.9100 0.9092 0.9090 0.9090 0.9090
1893.268000 0.9090 0.9090 0.9082 0.9080 0.9072
1899.829680 0.9054 0.9042 0.9040 0.9040 0.9040
1906.391360 0.9040 0.9032 0.9030 0.9030 0.9030
1912.953040 0.9030 0.9030 0.9030 0.9030 0.9030
1919.514720 0.9030 0.9030 0.9030 0.9030 0.9030
1926.076400 0.9030 0.9030 0.9015 0.9010 0.9002
1932.638080 0.9000 0.9000 0.9000 0.9000 0.8992
1939.199760 0.8990 0.8990 0.8975 0.8970 0.8970
1945.761440 0.8963 0.8953 0.8935 0.8930 0.8923
1952.323120 0.8920 0.8920 0.8913 0.8910 0.8903
1958.884800 0.8900 0.8900 0.8900 0.8886 0.8880
1965.446480 0.8873 0.8870 0.8870 0.8863 0.8839
1972.008160 0.8823 0.8806 0.8800 0.8800 0.8793
1978.569840 0.8783 0.8766 0.8753 0.8750 0.8743
1985.131520 0.8733 0.8730 0.8716 0.8710 0.8703
1991.693200 0.8693 0.8676 0.8670 0.8670 0.8670
1998.254880 0.8663 0.8640 0.8623 0.8613 0.8597
2004.816560 0.8570 0.8540 0.8523 0.8507 0.8493
2011.378240 0.8483 0.8480 0.8467 0.8460 0.8460
2017.939920 0.8453 0.8443 0.8407 0.8350 0.8323
2024.501600 0.8313 0.8297 0.8277 0.8270 0.8257
2031.063280 0.8243 0.8240 0.8233 0.8217 0.8190
2037.624960 0.8153 0.8127 0.8113 0.8090 0.8073
2044.186640 0.8063 0.8040 0.8023 0.8000 0.7957
2050.748320 0.7933 0.7917 0.7903 0.7880 0.7857
2057.310000 0.7850 0.7830 0.7807 0.7773 0.7740
2063.871680 0.7723 0.7700 0.7663 0.7637 0.7603
2070.433360 0.7577 0.7563 0.7540 0.7530 0.7497
2076.995040 0.7447 0.7423 0.7393 0.7367 0.7347
2083.556720 0.7327 0.7313 0.7297 0.7277 0.7257
2090.118400 0.7237 0.7217 0.7197 0.7183 0.7160
2096.680080 0.7143 0.7133 0.7110 0.7093 0.7083
2103.241760 0.7080 0.7067 0.7060 0.7053 0.7050
2109.803440 0.7050 0.7043 0.7040 0.7040 0.7040
2116.365120 0.7040 0.7040 0.7047 0.7050 0.7050
2122.926800 0.7050 0.7057 0.7073 0.7080 0.7087
2129.488480 0.7090 0.7097 0.7113 0.7127 0.7137
2136.050160 0.7147 0.7170 0.7187 0.7190 0.7203
2142.611840 0.7210 0.7217 0.7227 0.7230 0.7250
2149.173520 0.7260 0.7267 0.7270 0.7290 0.7300
2155.735200 0.7300 0.7307 0.7310 0.7317 0.7320
2162.296880 0.7340 0.7357 0.7373 0.7380 0.7387
2168.858560 0.7397 0.7400 0.7413 0.7420 0.7427
2175.420240 0.7437 0.7440 0.7453 0.7473 0.7480
2181.981920 0.7493 0.7500 0.7507 0.7517 0.7520
2188.543600 0.7520 0.7527 0.7530 0.7530 0.7543
2195.105280 0.7550 0.7557 0.7560 0.7560 0.7567
2201.666960 0.7583 0.7590 0.7590 0.7590 0.7590
2208.228640 0.7590 0.7590 0.7590 0.7590 0.7590
2214.790320 0.7590 0.7590 0.7590 0.7590 0.7590
2221.352000 0.7577 0.7570 0.7570 0.7570 0.7570
2227.913680 0.7563 0.7560 0.7560 0.7553 0.7550
2234.475360 0.7550 0.7537 0.7530 0.7523 0.7520
2241.037040 0.7513 0.7503 0.7487 0.7473 0.7470
2247.598720 0.7470 0.7463 0.7460 0.7447 0.7440
2254.160400 0.7433 0.7430 0.7423 0.7420 0.7407
2260.722080 0.7400 0.7400 0.7393 0.7383 0.7367
2267.283760 0.7353 0.7343 0.7340 0.7327 0.7320
2273.845440 0.7320 0.7320 0.7320 0.7313 0.7310
2280.407120 0.7310 0.7303 0.7293 0.7290 0.7277
2286.968800 0.7270 0.7257 0.7237 0.7223 0.7220
2293.530480 0.7213 0.7210 0.7197 0.7177 0.7170
2300.092160 0.7157 0.7143 0.7140 0.7140 0.7133
2306.653840 0.7130 0.7123 0.7100 0.7083 0.7067
2313.215520 0.7060 0.7053 0.7050 0.7030 0.7013
2319.777200 0.6990 0.6973 0.6963 0.6953 0.6937
2326.338880 0.6923 0.6900 0.6857 0.6833 0.6810
2332.900560 0.6793 0.6783 0.6767 0.6753 0.6750
2339.462240 0.6743 0.6727 0.6713 0.6703 0.6700
2346.023920 0.6687 0.6667 0.6647 0.6627 0.6620
2352.585600 0.6607 0.6600 0.6593 0.6577 0.6557
2359.147280 0.6523 0.6503 0.6493 0.6470 0.6460
2365.708960 0.6453 0.6450 0.6437 0.6430 0.6423
2372.270640 0.6420 0.6413 0.6410 0.6410 0.6403
2378.832320 0.6387 0.6380 0.6373 0.6363 0.6360
2385.394000 0.6347 0.6327 0.6320 0.6307 0.6300
2391.955680 0.6300 0.6300 0.6293 0.6290 0.6290
2398.517360 0.6283 0.6280 0.6267 0.6260 0.6240
2405.079040 0.6217 0.6197 0.6170 0.6153 0.6130
2411.640720 0.6113 0.6097 0.6083 0.6073 0.6063
2418.202400 0.6060 0.6033 0.6000 0.5983 0.5967
2424.764080 0.5953 0.5930 0.5907 0.5900 0.5880
2431.325760 0.5863 0.5860 0.5853 0.5823 0.5797
2437.887440 0.5763 0.5737 0.5710 0.5687 0.5667
2444.449120 0.5647 0.5627 0.5620 0.5613 0.5603
2451.010800 0.5587 0.5567 0.5547 0.5533 0.5517
2457.572480 0.5510 0.5510 0.5497 0.5477 0.5430
2464.134160 0.5397 0.5377 0.5363 0.5353 0.5330
2470.695840 0.5313 0.5310 0.5303 0.5273 0.5260
2477.257520 0.5247 0.5240 0.5233 0.5230 0.5210
2483.819200 0.5187 0.5147 0.5117 0.5097 0.5077
2490.380880 0.5070 0.5063 0.5060 0.5053 0.5037
2496.942560 0.5023 0.5020 0.5013 0.5003 0.5000
2503.504240 0.4987 0.4980 0.4973 0.4970 0.4963
2510.065920 0.4960 0.4960 0.4947 0.4940 0.4940
2516.627600 0.4933 0.4930 0.4930 0.4923 0.4900
2523.189280 0.4890 0.4870 0.4860 0.4860 0.4853
2529.750960 0.4850 0.4843 0.4840 0.4827 0.4820
2536.312640 0.4813 0.4810 0.4803 0.4800 0.4780
2542.874320 0.4743 0.4723 0.4713 0.4697 0.4683
2549.436000 0.4660 0.4650 0.4643 0.4633 0.4610
2555.997680 0.4573 0.4547 0.4540 0.4527 0.4513
2562.559360 0.4503 0.4500 0.4500 0.4487 0.4480
2569.121040 0.4473 0.4470 0.4470 0.4470 0.4470
2575.682720 0.4470 0.4470 0.4470 0.4470 0.4470
2582.244400 0.4470 0.4470 0.4470 0.4470 0.4470
2588.806080 0.4470 0.4470 0.4470 0.4470 0.4470
2595.367760 0.4470 0.4470 0.4470 0.4470 0.4470
2601.929440 0.4470 0.4470 0.4470 0.4470 0.4470
2608.491120 0.4470 0.4463 0.4460 0.4460 0.4453
2615.052800 0.4450 0.4437 0.4417 0.4410 0.4397
2621.614480 0.4390 0.4383 0.4380 0.4380 0.4373
2628.176160 0.4357 0.4337 0.4317 0.4303 0.4300
2634.737840 0.4293 0.4290 0.4283 0.4280 0.4267
2641.299520 0.4260 0.4253 0.4250 0.4250 0.4250
2647.861200 0.4257 0.4260 0.4260 0.4260 0.4260
2654.422880 0.4273 0.4280 0.4280 0.4280 0.4280
2660.984560 0.4287 0.4297 0.4300 0.4307 0.4323
2667.546240 0.4330 0.4337 0.4347 0.4350 0.4363
2674.107920 0.4370 0.4377 0.4387 0.4390 0.4403
2680.669600 0.4410 0.4417 0.4420 0.4427 0.4430
2687.231280 0.4443 0.4450 0.4450 0.4450 0.4457
2693.792960 0.4460 0.4460 0.4460 0.4460 0.4460
2700.354640 0.4460 0.4460 0.4460 0.4460 0.4460
2706.916320 0.4460 0.4453 0.4450 0.4437 0.4430
2713.478000 0.4423 0.4420 0.4413 0.4410 0.4397
2720.039680 0.4390 0.4383 0.4373 0.4370 0.4357
2726.601360 0.4343 0.4333 0.4317 0.4297 0.4283
2733.163040 0.4260 0.4230 0.4213 0.4203 0.4187
2739.724720 0.4153 0.4133 0.4130 0.4123 0.4120
2746.286400 0.4107 0.4100 0.4093 0.4083 0.4080
2752.848080 0.4080 0.4080 0.4073 0.4070 0.4057
2759.409760 0.4050 0.4050 0.4050 0.4050 0.4063
2765.971440 0.4070 0.4070 0.4070 0.4070 0.4070
2772.533120 0.4070 0.4070 0.4070 0.4070 0.4070
2779.094800 0.4070 0.4070 0.4077 0.4080 0.4080
2785.656480 0.4080 0.4080 0.4080 0.4080 0.4080
2792.218160 0.4080 0.4080 0.4080 0.4080 0.4080
2798.779840 0.4080 0.4080 0.4080 0.4080 0.4080
2805.341520 0.4080 0.4080 0.4080 0.4073 0.4070
2811.903200 0.4070 0.4057 0.4050 0.4050 0.4043
2818.464880 0.4033 0.4017 0.4010 0.4003 0.3993
2825.026560 0.3977 0.3963 0.3953 0.3937 0.3923
2831.588240 0.3913 0.3903 0.3887 0.3880 0.3873
2838.149920 0.3870 0.3863 0.3860 0.3847 0.3840
2844.711600 0.3840 0.3840 0.3840 0.3840 0.3840
2851.273280 0.3853 0.3860 0.3860 0.3867 0.3870
2857.834960 0.3870 0.3877 0.3880 0.3893 0.3907
2864.396640 0.3910 0.3910 0.3923 0.3930 0.3930
2870.958320 0.3943 0.3957 0.3960 0.3967 0.3970
2877.520000 0.3990 0.4000 0.4000 0.4007 0.4010
2884.081680 0.4010 0.4010 0.4010 0.4010 0.4023
2890.643360 0.4030 0.4030 0.4030 0.4030 0.4030
2897.205040 0.4030 0.4030 0.4030 0.4030 0.4030
2903.766720 0.4030 0.4030 0.4030 0.4030 0.4037
2910.328400 0.4040 0.4040 0.4040 0.4040 0.4040
2916.890080 0.4047 0.4050 0.4050 0.4063 0.4070
2923.451760 0.4077 0.4080 0.4080 0.4080 0.4080
2930.013440 0.4080 0.4080 0.4080 0.4087 0.4090
2936.575120 0.4090 0.4083 0.4080 0.4073 0.4050
2943.136800 0.4033 0.4017 0.4010 0.4003 0.3993
2949.698480 0.3990 0.3990 0.3977 0.3970 0.3970
2956.260160 0.3970 0.3970 0.3970 0.3970 0.3970
2962.821840 0.3970 0.3970 0.3963 0.3960 0.3960
2969.383520 0.3953 0.3950 0.3950 0.3937 0.3930
2975.945200 0.3930 0.3930 0.3930 0.3930 0.3923
2982.506880 0.3920 0.3913 0.3910 0.3903 0.3900
2989.068560 0.3887 0.3880 0.3880 0.3880 0.3873
2995.630240 0.3870 0.3870 0.3870 0.3870 0.3863
3002.191920 0.3860 0.3847 0.3833 0.3803 0.3790
3008.753600 0.3783 0.3767 0.3753 0.3750 0.3737
3015.315280 0.3717 0.3710 0.3703 0.3700 0.3693
3021.876960 0.3677 0.3663 0.3653 0.3637 0.3623
3028.438640 0.3613 0.3597 0.3583 0.3580 0.3573
3035.000320 0.3570 0.3563 0.3547 0.3540 0.3533
3041.562000 0.3530 0.3523 0.3507 0.3493 0.3483
3048.123680 0.3460 0.3443 0.3420 0.3397 0.3390
3054.685360 0.3377 0.3363 0.3340 0.3330 0.3323
3061.247040 0.3313 0.3310 0.3310 0.3310 0.3297
3067.808720 0.3290 0.3290 0.3290 0.3290 0.3290
3074.370400 0.3290 0.3290 0.3290 0.3290 0.3283
3080.932080 0.3280 0.3280 0.3280 0.3273 0.3270
3087.493760 0.3270 0.3270 0.3257 0.3243 0.3240
3094.055440 0.3233 0.3217 0.3210 0.3203 0.3193
3100.617120 0.3190 0.3190 0.3190 0.3183 0.3180
3107.178800 0.3180 0.3180 0.3167 0.3160 0.3160
3113.740480 0.3160 0.3160 0.3153 0.3150 0.3150
3120.302160 0.3150 0.3150 0.3143 0.3140 0.3140
3126.863840 0.3140 0.3140 0.3140 0.3140 0.3140
3133.425520 0.3140 0.3140 0.3140 0.3147 0.3150
3139.987200 0.3150 0.3150 0.3157 0.3160 0.3160
3146.548880 0.3160 0.3160 0.3160 0.3160 0.3173
3153.110560 0.3180 0.3187 0.3190 0.3190 0.3190
3159.672240 0.3190 0.3190 0.3190 0.3190 0.3190
3166.233920 0.3190 0.3190 0.3190 0.3190 0.3190
3172.795600 0.3183 0.3180 0.3180 0.3180 0.3180
3179.357280 0.3180 0.3180 0.3180 0.3167 0.3160
3185.918960 0.3160 0.3160 0.3160 0.3160 0.3160
3192.480640 0.3160 0.3160 0.3160 0.3160 0.3153
3199.042320 0.3150 0.3143 0.3140 0.3140 0.3127
3205.604000 0.3120 0.3120 0.3113 0.3103 0.3100
3212.165680 0.3087 0.3080 0.3073 0.3070 0.3063
3218.727360 0.3040 0.3030 0.3023 0.3020 0.3013
3225.289040 0.3010 0.2997 0.2990 0.2990 0.2983
3231.850720 0.2980 0.2980 0.2973 0.2970 0.2970
3238.412400 0.2970 0.2970 0.2970 0.2957 0.2950
3244.974080 0.2943 0.2933 0.2917 0.2910 0.2903
3251.535760 0.2900 0.2893 0.2877 0.2870 0.2870
3258.097440 0.2870 0.2863 0.2860 0.2853 0.2850
3264.659120 0.2850 0.2843 0.2840 0.2840 0.2827
3271.220800 0.2813 0.2810 0.2810 0.2803 0.2800
3277.782480 0.2800 0.2800 0.2800 0.2800 0.2800
3284.344160 0.2800 0.2787 0.2780 0.2773 0.2750
3290.905840 0.2740 0.2740 0.2733 0.2730 0.2723
3297.467520 0.2720 0.2707 0.2693 0.2683 0.2673
3304.029200 0.2657 0.2643 0.2640 0.2640 0.2633
3310.590880 0.2630 0.2630 0.2617 0.2603 0.2600
3317.152560 0.2593 0.2570 0.2553 0.2537 0.2530
3323.714240 0.2530 0.2523 0.2520 0.2513 0.2510
3330.275920 0.2503 0.2500 0.2487 0.2473 0.2470
3336.837600 0.2463 0.2460 0.2447 0.2433 0.2430
3343.399280 0.2423 0.2407 0.2400 0.2393 0.2383
3349.960960 0.2367 0.2353 0.2350 0.2343 0.2327
3356.522640 0.2300 0.2277 0.2263 0.2260 0.2253
3363.084320 0.2250 0.2250 0.2237 0.2230 0.2223
3369.646000 0.2220 0.2220 0.2213 0.2197 0.2190
3376.207680 0.2183 0.2173 0.2170 0.2170 0.2170
3382.769360 0.2157 0.2150 0.2150 0.2143 0.2140
3389.331040 0.2140 0.2140 0.2133 0.2130 0.2130
3395.892720 0.2123 0.2120 0.2120 0.2120 0.2120
3402.454400 0.2120 0.2120 0.2120 0.2120 0.2120
3409.016080 0.2120 0.2120 0.2127 0.2130 0.2130
3415.577760 0.2130 0.2130 0.2137 0.2140 0.2147
3422.139440 0.2150 0.2163 0.2177 0.2180 0.2180
3428.701120 0.2187 0.2190 0.2190 0.2190 0.2190
3435.262800 0.2190 0.2203 0.2210 0.2217 0.2220
3441.824480 0.2220 0.2220 0.2220 0.2220 0.2227
3448.386160 0.2243 0.2250 0.2257 0.2260 0.2267
3454.947840 0.2270 0.2283 0.2290 0.2297 0.2300
3461.509520 0.2307 0.2330 0.2347 0.2357 0.2373
3468.071200 0.2387 0.2397 0.2400 0.2413 0.2420
3474.632880 0.2427 0.2430 0.2437 0.2440 0.2453
3481.194560 0.2467 0.2477 0.2480 0.2493 0.2507
3487.756240 0.2510 0.2523 0.2557 0.2583 0.2597
3494.317920 0.2600 0.2607 0.2610 0.2637 0.2670
3500.879600 0.2693 0.2713 0.2720 0.2727 0.2730
3507.441280 0.2737 0.2753 0.2767 0.2777 0.2800
3514.002960 0.2817 0.2820 0.2833 0.2847 0.2863
3520.564640 0.2890 0.2927 0.2967 0.2987 0.3003
3527.126320 0.3023 0.3037 0.3040 0.3067 0.3100
3533.688000 0.3130 0.3147 0.3157 0.3173 0.3193
3540.249680 0.3227 0.3247 0.3263 0.3277 0.3287
3546.811360 0.3317 0.3357 0.3417 0.3447 0.3457
3553.373040 0.3473 0.3487 0.3510 0.3547 0.3567
3559.934720 0.3603 0.3640 0.3677 0.3703 0.3730
3566.496400 0.3767 0.3807 0.3860 0.3893 0.3913
3573.058080 0.3927 0.3957 0.3983 0.4003 0.4050
3579.619760 0.4083 0.4123 0.4153 0.4167 0.4177
3586.181440 0.4227 0.4277 0.4323 0.4373 0.4430
3592.743120 0.4463 0.4470 0.4490 0.4527 0.4553
3599.304800 0.4573 0.4620 0.4687 0.4743 0.4767
3605.866480 0.4783 0.4823 0.4873 0.4910 0.4947
3612.428160 0.4967 0.4997 0.5017 0.5074 0.5120
3618.989840 0.5143 0.5197 0.5247 0.5267 0.5290
3625.551520 0.5333 0.5363 0.5424 0.5470 0.5507
3632.113200 0.5533 0.5567 0.5600 0.5617 0.5633
3638.674880 0.5673 0.5703 0.5737 0.5763 0.5797
3645.236560 0.5850 0.5890 0.5927 0.5967 0.5993
3651.798240 0.6013 0.6027 0.6037 0.6040 0.6060
3658.359920 0.6083 0.6103 0.6123 0.6143 0.6157
3664.921600 0.6167 0.6183 0.6203 0.6223 0.6237
3671.483280 0.6267 0.6287 0.6297 0.6327 0.6360
3678.044960 0.6390 0.6413 0.6427 0.6443 0.6463
3684.606640 0.6497 0.6530 0.6567 0.6587 0.6597
3691.168320 0.6613 0.6627 0.6650 0.6673 0.6693
3697.730000 0.6700 0.6707 0.6710 0.6717 0.6720
3704.291680 0.6733 0.6753 0.6773 0.6793 0.6820
3710.853360 0.6837 0.6840 0.6840 0.6840 0.6847
3717.415040 0.6863 0.6883 0.6903 0.6910 0.6917
3723.976720 0.6920 0.6927 0.6943 0.6950 0.6957
3730.538400 0.6967 0.6977 0.6993 0.7000 0.7000
3737.100080 0.7000 0.7000 0.7007 0.7010 0.7017
3743.661760 0.7033 0.7040 0.7047 0.7070 0.7087
3750.223440 0.7097 0.7100 0.7120 0.7137 0.7140
3756.785120 0.7147 0.7170 0.7180 0.7187 0.7190
3763.346800 0.7203 0.7210 0.7210 0.7210 0.7217
3769.908480 0.7220 0.7220 0.7220 0.7227 0.7243
3776.470160 0.7250 0.7257 0.7260 0.7260 0.7267
3783.031840 0.7270 0.7270 0.7283 0.7290 0.7290
3789.593520 0.7290 0.7290 0.7297 0.7300 0.7307
3796.155200 0.7310 0.7310 0.7317 0.7333 0.7353
3802.716880 0.7360 0.7373 0.7380 0.7380 0.7380
3809.278560 0.7387 0.7390 0.7390 0.7390 0.7397
3815.840240 0.7413 0.7427 0.7430 0.7430 0.7437
3822.401920 0.7440 0.7440 0.7440 0.7440 0.7440
3828.963600 0.7453 0.7460 0.7467 0.7477 0.7493
3835.525280 0.7513 0.7527 0.7530 0.7530 0.7543
3842.086960 0.7550 0.7550 0.7550 0.7550 0.7557
3848.648640 0.7560 0.7560 0.7560 0.7560 0.7567
3855.210320 0.7570 0.7570 0.7570 0.7583 0.7590
3861.772000 0.7590 0.7590 0.7597 0.7600 0.7607
3868.333680 0.7623 0.7637 0.7640 0.7640 0.7640
3874.895360 0.7640 0.7640 0.7647 0.7650 0.7663
3881.457040 0.7670 0.7677 0.7680 0.7687 0.7690
3888.018720 0.7697 0.7700 0.7700 0.7700 0.7700
3894.580400 0.7713 0.7720 0.7720 0.7720 0.7727
3901.142080 0.7730 0.7730 0.7730 0.7730 0.7730
3907.703760 0.7730 0.7737 0.7740 0.7753 0.7767
3914.265440 0.7770 0.7777 0.7780 0.7780 0.7780
3920.827120 0.7780 0.7793 0.7800 0.7807 0.7817
3927.388800 0.7820 0.7820 0.7820 0.7820 0.7820
3933.950480 0.7820 0.7820 0.7820 0.7820 0.7820
3940.512160 0.7833 0.7847 0.7850 0.7857 0.7867
3947.073840 0.7870 0.7883 0.7890 0.7890 0.7897
3953.635520 0.7900 0.7900 0.7907 0.7910 0.7910
3960.197200 0.7923 0.7930 0.7930 0.7930 0.7930
3966.758880 0.7930 0.7930 0.7930 0.7930 0.7930
3973.320560 0.7930 0.7937 0.7940 0.7947 0.7950
3979.882240 0.7950 0.7950 0.7963 0.7970 0.7970
3986.443920 0.7970 0.7970 0.7970 0.7970 0.7970
3993.005600 0.7970 0.7970 0.7970 0.7970 0.7970
##END=
