##TITLE=1,2,4-BENZENETRICARBOXYLIC ACID, TRIS(HEPTYL/NONYL) ESTER
##JCAMP-DX=4.24
##DATA TYPE=INFRARED SPECTRUM
##CLASS=COBLENTZ III
##ORIGIN=DOW CHEMICAL COMPANY
##OWNER=COBLENTZ SOCIETY
Collection (C) 2018 copyright by the U.S. Secretary of Commerce
on behalf of the United States of America. All rights reserved.
##DATE=1977/02/13
##NAMES=SANTICIZER 79 TM - MONSANTO
##MOLFORM=C30-36 H48-60 O6
##SOURCE REFERENCE=COBLENTZ NO. 10099
##$NIST ID=B6010099
##$NIST SOURCE=COBLENTZ
##$NIST IMAGE=cob10099
##SPECTROMETER/DATA SYSTEM=PERKIN-ELMER 180
##STATE=SOLUTION (10% IN CCl4 FOR 4000-1330, 10% IN CS2 FOR 1330-420 CM^-^1) VS. SOLVENT
##PATH LENGTH=0.011, 0.011 CM
##SAMPLING PROCEDURE=TRANSMISSION
##RESOLUTION=4
##DATA PROCESSING=DIGITIZED BY NIST FROM HARD COPY (FROM TWO SEGMENTS)
##XUNITS=1/CM
##YUNITS=TRANSMITTANCE
##XFACTOR=1.000000
##YFACTOR=1
##DELTAX=1.013945
##FIRSTX=420.279
##LASTX=3997.48
##FIRSTY=0.954
##MAXX=3997.48
##MINX=420.279
##MAXY=0.989
##MINY=0.001
##NPOINTS=3529
##XYDATA=(X++(Y..Y))
420.279000 0.9540 0.9550 0.9560 0.9560 0.9560
425.348723 0.9560 0.9560 0.9560 0.9560 0.9560
430.418446 0.9560 0.9570 0.9560 0.9550 0.9550
435.488170 0.9550 0.9570 0.9570 0.9570 0.9560
440.557893 0.9560 0.9560 0.9560 0.9560 0.9570
445.627616 0.9570 0.9560 0.9560 0.9560 0.9560
450.697339 0.9560 0.9570 0.9570 0.9570 0.9570
455.767062 0.9570 0.9560 0.9560 0.9560 0.9550
460.836785 0.9540 0.9530 0.9520 0.9500 0.9480
465.906509 0.9470 0.9460 0.9450 0.9440 0.9430
470.976232 0.9420 0.9410 0.9400 0.9380 0.9370
476.045955 0.9360 0.9360 0.9350 0.9350 0.9340
481.115678 0.9340 0.9330 0.9330 0.9320 0.9320
486.185401 0.9320 0.9310 0.9310 0.9300 0.9300
491.255125 0.9300 0.9300 0.9300 0.9300 0.9300
496.324848 0.9300 0.9310 0.9310 0.9310 0.9320
501.394571 0.9330 0.9330 0.9340 0.9340 0.9350
506.464294 0.9350 0.9360 0.9360 0.9360 0.9360
511.534017 0.9370 0.9370 0.9380 0.9380 0.9390
516.603740 0.9390 0.9400 0.9410 0.9410 0.9420
521.673464 0.9430 0.9430 0.9440 0.9450 0.9450
526.743187 0.9460 0.9470 0.9480 0.9480 0.9490
531.812910 0.9490 0.9490 0.9490 0.9500 0.9500
536.882633 0.9500 0.9500 0.9510 0.9510 0.9510
541.952356 0.9520 0.9530 0.9530 0.9530 0.9530
547.022080 0.9530 0.9530 0.9530 0.9520 0.9510
552.091803 0.9510 0.9520 0.9520 0.9510 0.9510
557.161526 0.9490 0.9490 0.9490 0.9480 0.9480
562.231249 0.9480 0.9490 0.9490 0.9490 0.9490
567.300972 0.9490 0.9490 0.9490 0.9480 0.9480
572.370695 0.9470 0.9460 0.9450 0.9450 0.9440
577.440419 0.9440 0.9430 0.9430 0.9430 0.9430
582.510142 0.9430 0.9430 0.9430 0.9440 0.9450
587.579865 0.9460 0.9480 0.9480 0.9490 0.9500
592.649588 0.9530 0.9550 0.9560 0.9570 0.9580
597.719311 0.9600 0.9610 0.9630 0.9660 0.9680
602.789035 0.9700 0.9730 0.9740 0.9760 0.9770
607.858758 0.9780 0.9790 0.9810 0.9830 0.9850
612.928481 0.9860 0.9870 0.9880 0.9890 0.9890
617.998204 0.9890 0.9890 0.9890 0.9890 0.9880
623.067927 0.9880 0.9880 0.9880 0.9880 0.9880
628.137650 0.9870 0.9870 0.9860 0.9860 0.9860
633.207374 0.9860 0.9860 0.9850 0.9840 0.9840
638.277097 0.9840 0.9820 0.9800 0.9770 0.9750
643.346820 0.9730 0.9720 0.9710 0.9680 0.9640
648.416543 0.9620 0.9590 0.9580 0.9570 0.9570
653.486266 0.9570 0.9560 0.9520 0.9490 0.9440
658.555990 0.9410 0.9370 0.9240 0.9220 0.9240
663.625713 0.9250 0.9340 0.9420 0.9500 0.9560
668.695436 0.9650 0.9720 0.9740 0.9750 0.9750
673.765159 0.9750 0.9740 0.9720 0.9700 0.9670
678.834882 0.9640 0.9600 0.9570 0.9540 0.9500
683.904605 0.9480 0.9430 0.9350 0.9260 0.9150
688.974329 0.9050 0.8940 0.8830 0.8740 0.8650
694.044052 0.8590 0.8540 0.8450 0.8440 0.8440
699.113775 0.8470 0.8540 0.8580 0.8600 0.8610
704.183498 0.8610 0.8600 0.8560 0.8520 0.8430
709.253221 0.8300 0.8150 0.7981 0.7791 0.7581
714.322945 0.7380 0.7190 0.7020 0.6840 0.6830
719.392668 0.6840 0.7039 0.7120 0.7210 0.7290
724.462391 0.7380 0.7460 0.7540 0.7600 0.7640
729.532114 0.7660 0.7660 0.7650 0.7590 0.7520
734.601837 0.7420 0.7300 0.7170 0.7000 0.6800
739.671560 0.6581 0.5753 0.5332 0.5031 0.4861
744.741284 0.4690 0.4390 0.4120 0.3930 0.3890
749.811007 0.3930 0.4100 0.4120 0.4379 0.5186
754.880730 0.5520 0.5820 0.6100 0.6370 0.6640
759.950453 0.6899 0.7189 0.7290 0.7380 0.7460
765.020176 0.7530 0.7600 0.7660 0.7740 0.7790
770.089900 0.7850 0.7900 0.7950 0.7990 0.8040
775.159623 0.8090 0.8140 0.8190 0.8240 0.8290
780.229346 0.8330 0.8340 0.8330 0.8330 0.8290
785.299069 0.8230 0.8180 0.8060 0.8000 0.7980
790.368792 0.7970 0.7980 0.8060 0.8199 0.8359
795.438515 0.8490 0.8580 0.8640 0.8690 0.8720
800.508239 0.8730 0.8730 0.8730 0.8730 0.8710
805.577962 0.8710 0.8720 0.8730 0.8750 0.8760
810.647685 0.8770 0.8780 0.8800 0.8810 0.8820
815.717408 0.8820 0.8830 0.8820 0.8810 0.8790
820.787131 0.8770 0.8750 0.8740 0.8730 0.8730
825.856855 0.8730 0.8740 0.8750 0.8750 0.8750
830.926578 0.8750 0.8750 0.8740 0.8730 0.8710
835.996301 0.8690 0.8670 0.8650 0.8630 0.8590
841.066024 0.8560 0.8510 0.8430 0.8370 0.8280
846.135747 0.8180 0.8080 0.7980 0.7900 0.7850
851.205470 0.7830 0.7750 0.7740 0.7750 0.7770
856.275194 0.7800 0.7850 0.7910 0.8010 0.8100
861.344917 0.8190 0.8270 0.8350 0.8430 0.8510
866.414640 0.8580 0.8640 0.8700 0.8750 0.8790
871.484363 0.8820 0.8850 0.8860 0.8870 0.8870
876.554086 0.8880 0.8880 0.8880 0.8870 0.8860
881.623809 0.8830 0.8800 0.8760 0.8730 0.8690
886.693533 0.8660 0.8630 0.8600 0.8570 0.8530
891.763256 0.8510 0.8480 0.8440 0.8410 0.8380
896.832979 0.8350 0.8310 0.8280 0.8260 0.8250
901.902702 0.8240 0.8240 0.8230 0.8200 0.8200
906.972425 0.8180 0.8150 0.8120 0.8080 0.8040
912.042149 0.7990 0.7950 0.7900 0.7860 0.7810
917.111872 0.7740 0.7670 0.7610 0.7560 0.7530
922.181595 0.7490 0.7470 0.7450 0.7430 0.7420
927.251318 0.7430 0.7440 0.7480 0.7510 0.7530
932.321041 0.7540 0.7560 0.7580 0.7590 0.7590
937.390764 0.7590 0.7570 0.7570 0.7530 0.7500
942.460488 0.7460 0.7430 0.7390 0.7350 0.7300
947.530211 0.7240 0.7160 0.7080 0.6990 0.6890
952.599934 0.6800 0.6710 0.6610 0.6510 0.6410
957.669657 0.6320 0.6230 0.6120 0.6040 0.5950
962.739380 0.5880 0.5810 0.5770 0.5720 0.5700
967.809104 0.5690 0.5680 0.5680 0.5690 0.5700
972.878827 0.5740 0.5780 0.5830 0.5890 0.5950
977.948550 0.6020 0.6080 0.6160 0.6240 0.6330
983.018273 0.6430 0.6530 0.6630 0.6720 0.6800
988.087996 0.6870 0.7000 0.7090 0.7160 0.7220
993.157719 0.7270 0.7310 0.7330 0.7360 0.7370
998.227443 0.7420 0.7460 0.7500 0.7520 0.7550
1003.297166 0.7570 0.7590 0.7610 0.7630 0.7630
1008.366889 0.7630 0.7620 0.7610 0.7590 0.7580
1013.436612 0.7570 0.7560 0.7570 0.7590 0.7600
1018.506335 0.7610 0.7620 0.7630 0.7630 0.7630
1023.576059 0.7620 0.7620 0.7610 0.7600 0.7580
1028.645782 0.7570 0.7560 0.7560 0.7550 0.7550
1033.715505 0.7530 0.7520 0.7510 0.7480 0.7470
1038.785228 0.7450 0.7390 0.7300 0.7250 0.7180
1043.854951 0.7090 0.6970 0.6820 0.6680 0.6511
1048.924674 0.6330 0.6110 0.5860 0.5590 0.5240
1053.994398 0.5050 0.4860 0.4461 0.4051 0.3652
1059.064121 0.3299 0.2990 0.2750 0.2630 0.2620
1064.133844 0.2630 0.2710 0.2800 0.2969 0.3169
1069.203567 0.3451 0.3800 0.4140 0.4460 0.5079
1074.273290 0.5350 0.5599 0.5819 0.5999 0.6259
1079.343014 0.6460 0.6600 0.6710 0.6770 0.6780
1084.412737 0.6780 0.6780 0.6770 0.6710 0.6650
1089.482460 0.6489 0.6209 0.5920 0.5630 0.5310
1094.552183 0.5140 0.4970 0.4581 0.4141 0.3512
1099.621906 0.2859 0.2189 0.1480 0.1180 0.0970
1104.691629 0.0830 0.0740 0.0700 0.0690 0.0680
1109.761353 0.0690 0.0700 0.0770 0.0860 0.0940
1114.831076 0.1030 0.1110 0.1200 0.1280 0.1370
1119.900799 0.1460 0.1560 0.1650 0.1740 0.1840
1124.970522 0.1930 0.2030 0.2120 0.2220 0.2330
1130.040245 0.2430 0.2540 0.2620 0.2660 0.2690
1135.109969 0.2710 0.2730 0.2740 0.2730 0.2760
1140.179692 0.2770 0.2880 0.2910 0.2990 0.3170
1145.249415 0.3370 0.3590 0.3850 0.4040 0.4449
1150.319138 0.5230 0.5441 0.5790 0.6070 0.6330
1155.388861 0.6550 0.6750 0.6940 0.7090 0.7220
1160.458584 0.7330 0.7430 0.7510 0.7570 0.7620
1165.528308 0.7660 0.7700 0.7720 0.7730 0.7780
1170.598031 0.7800 0.7800 0.7800 0.7790 0.7780
1175.667754 0.7770 0.7760 0.7740 0.7720 0.7700
1180.737477 0.7670 0.7650 0.7630 0.7600 0.7570
1185.807200 0.7530 0.7480 0.7450 0.7380 0.7310
1190.876924 0.7240 0.7190 0.7150 0.7090 0.7010
1195.946647 0.6930 0.6830 0.6730 0.6620 0.6491
1201.016370 0.6360 0.6210 0.6050 0.5880 0.5690
1206.086093 0.5490 0.5260 0.5030 0.4910 0.4780
1211.155816 0.4509 0.4229 0.3920 0.3590 0.3250
1216.225539 0.2880 0.2490 0.2071 0.1641 0.1181
1221.295263 0.0690 0.0540 0.0410 0.0310 0.0220
1226.364986 0.0160 0.0110 0.0070 0.0050 0.0040
1231.434709 0.0050 0.0050 0.0060 0.0080 0.0110
1236.504432 0.0120 0.0150 0.0180 0.0220 0.0280
1241.574155 0.0310 0.0360 0.0410 0.0460 0.0500
1246.643879 0.0530 0.0580 0.0620 0.0650 0.0680
1251.713602 0.0710 0.0720 0.0740 0.0750 0.0770
1256.783325 0.0780 0.0780 0.0780 0.0780 0.0780
1261.853048 0.0770 0.0740 0.0710 0.0690 0.0660
1266.922771 0.0640 0.0620 0.0590 0.0560 0.0520
1271.992494 0.0490 0.0450 0.0430 0.0410 0.0400
1277.062218 0.0410 0.0420 0.0470 0.0520 0.0570
1282.131941 0.0620 0.0680 0.0740 0.0830 0.0890
1287.201664 0.0990 0.1010 0.1030 0.1030 0.1020
1292.271387 0.0990 0.0950 0.0910 0.0880 0.0840
1297.341110 0.0810 0.0800 0.0800 0.0810 0.0810
1302.410834 0.0830 0.0840 0.0860 0.0890 0.0950
1307.480557 0.1030 0.1120 0.1449 0.1779 0.2089
1312.550280 0.2401 0.2691 0.2961 0.3230 0.3460
1317.620003 0.3680 0.3870 0.4270 0.4549 0.4769
1322.689726 0.5010 0.5090 0.5190 0.5310 0.5490
1327.759449 0.5830 0.6100 0.6330 0.6500 0.6640
1332.829173 0.6740 0.6820 0.6870 0.6930 0.6970
1337.898896 0.7020 0.7070 0.7130 0.7170 0.7210
1342.968619 0.7270 0.7270 0.7270 0.7270 0.7250
1348.038342 0.7250 0.7260 0.7270 0.7270 0.7260
1353.108065 0.7260 0.7250 0.7240 0.7230 0.7200
1358.177789 0.7150 0.7090 0.7010 0.6930 0.6820
1363.247512 0.6710 0.6590 0.6450 0.6290 0.6110
1368.317235 0.5910 0.5690 0.5460 0.5181 0.5070
1373.386958 0.4950 0.4920 0.4930 0.5120 0.5220
1378.456681 0.5300 0.5390 0.5460 0.5550 0.5650
1383.526404 0.5791 0.5971 0.6211 0.6470 0.6640
1388.596128 0.6990 0.7280 0.7280 0.7270 0.7270
1393.665851 0.7260 0.7230 0.7190 0.7140 0.7080
1398.735574 0.7000 0.6890 0.6780 0.6710 0.6640
1403.805297 0.6620 0.6630 0.6780 0.6890 0.7050
1408.875020 0.7260 0.7420 0.7630 0.7680 0.7780
1413.944744 0.7870 0.7980 0.8000 0.8000 0.8000
1419.014467 0.7990 0.7970 0.7910 0.7820 0.7720
1424.084190 0.7590 0.7460 0.7340 0.7230 0.7140
1429.153913 0.7080 0.7040 0.7000 0.6940 0.6840
1434.223636 0.6740 0.6630 0.6500 0.6350 0.6190
1439.293359 0.6010 0.5830 0.5640 0.5440 0.5230
1444.363083 0.5020 0.4920 0.4810 0.4580 0.4280
1449.432806 0.4030 0.3830 0.3680 0.3580 0.3490
1454.502529 0.3420 0.3360 0.3300 0.3230 0.3130
1459.572252 0.2990 0.2690 0.2680 0.2690 0.2840
1464.641975 0.3002 0.3631 0.4232 0.5300 0.5780
1469.711699 0.6220 0.6620 0.6979 0.7279 0.7469
1474.781422 0.7570 0.7670 0.7680 0.7680 0.7670
1479.851145 0.7590 0.7430 0.7380 0.7310 0.7240
1484.920868 0.7230 0.7240 0.7310 0.7380 0.7510
1489.990591 0.7680 0.7840 0.7970 0.8090 0.8190
1495.060314 0.8280 0.8360 0.8440 0.8510 0.8560
1500.130038 0.8610 0.8650 0.8680 0.8710 0.8740
1505.199761 0.8770 0.8800 0.8820 0.8850 0.8880
1510.269484 0.8910 0.8960 0.8980 0.8990 0.9020
1515.339207 0.9030 0.9050 0.9060 0.9070 0.9080
1520.408930 0.9080 0.9090 0.9100 0.9100 0.9120
1525.478654 0.9130 0.9140 0.9150 0.9160 0.9170
1530.548377 0.9200 0.9220 0.9240 0.9250 0.9260
1535.618100 0.9260 0.9250 0.9250 0.9240 0.9240
1540.687823 0.9220 0.9220 0.9210 0.9200 0.9200
1545.757546 0.9190 0.9190 0.9180 0.9170 0.9160
1550.827269 0.9160 0.9140 0.9120 0.9090 0.9050
1555.896993 0.9010 0.8990 0.8980 0.8940 0.8890
1560.966716 0.8820 0.8760 0.8690 0.8630 0.8560
1566.036439 0.8510 0.8450 0.8440 0.8440 0.8470
1571.106162 0.8560 0.8590 0.8640 0.8710 0.8770
1576.175885 0.8840 0.8890 0.8950 0.9000 0.9030
1581.245609 0.9050 0.9050 0.9040 0.9030 0.9010
1586.315332 0.8990 0.8990 0.8970 0.8960 0.8950
1591.385055 0.8940 0.8920 0.8900 0.8880 0.8860
1596.454778 0.8820 0.8790 0.8740 0.8680 0.8610
1601.524501 0.8600 0.8550 0.8440 0.8380 0.8370
1606.594224 0.8380 0.8430 0.8500 0.8560 0.8650
1611.663948 0.8720 0.8780 0.8830 0.8880 0.8930
1616.733671 0.8960 0.8980 0.8990 0.8990 0.8990
1621.803394 0.8990 0.8990 0.8990 0.8990 0.8990
1626.873117 0.8990 0.8980 0.8980 0.8970 0.8970
1631.942840 0.8950 0.8940 0.8920 0.8920 0.8910
1637.012564 0.8910 0.8900 0.8900 0.8880 0.8870
1642.082287 0.8870 0.8860 0.8850 0.8840 0.8820
1647.152010 0.8810 0.8800 0.8800 0.8790 0.8790
1652.221733 0.8780 0.8760 0.8740 0.8720 0.8710
1657.291456 0.8690 0.8680 0.8670 0.8660 0.8640
1662.361179 0.8610 0.8590 0.8560 0.8530 0.8480
1667.430903 0.8430 0.8370 0.8320 0.8250 0.8190
1672.500626 0.8120 0.8050 0.7970 0.7900 0.7820
1677.570349 0.7750 0.7660 0.7580 0.7510 0.7430
1682.640072 0.7390 0.7350 0.7300 0.7240 0.7190
1687.709795 0.7120 0.7050 0.6970 0.6870 0.6770
1692.779518 0.6660 0.6530 0.6390 0.6240 0.6060
1697.849242 0.5869 0.5579 0.5319 0.5100 0.4990
1702.918965 0.4880 0.4650 0.4360 0.4000 0.3631
1707.988688 0.3148 0.2608 0.2069 0.1559 0.1090
1713.058411 0.0670 0.0370 0.0180 0.0130 0.0050
1718.128134 0.0030 0.0020 0.0010 0.0010 0.0010
1723.197858 0.0020 0.0020 0.0030 0.0040 0.0050
1728.267581 0.0070 0.0080 0.0100 0.0120 0.0160
1733.337304 0.0200 0.0230 0.0300 0.0410 0.0550
1738.407027 0.0721 0.0951 0.1191 0.1461 0.1770
1743.476750 0.2110 0.2470 0.2850 0.3270 0.3699
1748.546473 0.4164 0.5122 0.5631 0.5911 0.6190
1753.616197 0.6440 0.6660 0.6870 0.7070 0.7220
1758.685920 0.7340 0.7430 0.7580 0.7630 0.7720
1763.755643 0.7790 0.7840 0.7930 0.7990 0.8050
1768.825366 0.8100 0.8150 0.8190 0.8240 0.8280
1773.895089 0.8310 0.8350 0.8390 0.8420 0.8450
1778.964813 0.8500 0.8530 0.8560 0.8590 0.8620
1784.034536 0.8650 0.8680 0.8700 0.8720 0.8740
1789.104259 0.8760 0.8780 0.8810 0.8830 0.8850
1794.173982 0.8860 0.8880 0.8900 0.8920 0.8930
1799.243705 0.8950 0.8960 0.8980 0.8990 0.9000
1804.313428 0.9010 0.9010 0.9020 0.9040 0.9050
1809.383152 0.9050 0.9060 0.9060 0.9070 0.9080
1814.452875 0.9090 0.9100 0.9100 0.9110 0.9110
1819.522598 0.9080 0.9080 0.9090 0.9090 0.9090
1824.592321 0.9100 0.9110 0.9110 0.9120 0.9130
1829.662044 0.9140 0.9150 0.9160 0.9170 0.9180
1834.731768 0.9190 0.9200 0.9220 0.9240 0.9260
1839.801491 0.9260 0.9270 0.9280 0.9280 0.9280
1844.871214 0.9290 0.9290 0.9290 0.9290 0.9290
1849.940937 0.9290 0.9290 0.9290 0.9290 0.9290
1855.010660 0.9290 0.9290 0.9280 0.9280 0.9270
1860.080383 0.9270 0.9270 0.9280 0.9280 0.9280
1865.150107 0.9280 0.9290 0.9290 0.9300 0.9320
1870.219830 0.9350 0.9370 0.9400 0.9410 0.9410
1875.289553 0.9420 0.9420 0.9420 0.9420 0.9420
1880.359276 0.9410 0.9410 0.9410 0.9410 0.9410
1885.428999 0.9410 0.9410 0.9390 0.9390 0.9380
1890.498723 0.9380 0.9390 0.9390 0.9390 0.9390
1895.568446 0.9390 0.9390 0.9390 0.9400 0.9410
1900.638169 0.9420 0.9430 0.9430 0.9430 0.9430
1905.707892 0.9430 0.9430 0.9430 0.9440 0.9440
1910.777615 0.9440 0.9440 0.9430 0.9430 0.9430
1915.847338 0.9420 0.9420 0.9410 0.9410 0.9400
1920.917062 0.9380 0.9370 0.9370 0.9360 0.9350
1925.986785 0.9340 0.9320 0.9300 0.9280 0.9270
1931.056508 0.9270 0.9270 0.9270 0.9270 0.9280
1936.126231 0.9280 0.9280 0.9290 0.9290 0.9290
1941.195954 0.9280 0.9290 0.9290 0.9310 0.9310
1946.265678 0.9350 0.9370 0.9390 0.9400 0.9400
1951.335401 0.9400 0.9400 0.9410 0.9410 0.9430
1956.405124 0.9440 0.9450 0.9450 0.9460 0.9460
1961.474847 0.9440 0.9440 0.9440 0.9440 0.9470
1966.544570 0.9470 0.9470 0.9470 0.9480 0.9480
1971.614293 0.9460 0.9470 0.9480 0.9480 0.9480
1976.684017 0.9480 0.9480 0.9490 0.9470 0.9470
1981.753740 0.9470 0.9460 0.9460 0.9460 0.9460
1986.823463 0.9460 0.9460 0.9460 0.9460 0.9460
1991.893186 0.9460 0.9460 0.9460 0.9470 0.9470
1996.962909 0.9470 0.9460 0.9460 0.9460 0.9460
2002.032633 0.9460 0.9455 0.9450 0.9450 0.9450
2007.102356 0.9450 0.9450 0.9445 0.9440 0.9440
2012.172079 0.9440 0.9435 0.9430 0.9420 0.9410
2017.241802 0.9405 0.9400 0.9395 0.9390 0.9390
2022.311525 0.9390 0.9390 0.9390 0.9395 0.9400
2027.381248 0.9395 0.9390 0.9385 0.9380 0.9380
2032.450972 0.9380 0.9375 0.9370 0.9370 0.9370
2037.520695 0.9375 0.9380 0.9385 0.9390 0.9395
2042.590418 0.9400 0.9405 0.9410 0.9415 0.9420
2047.660141 0.9425 0.9430 0.9430 0.9430 0.9430
2052.729864 0.9430 0.9425 0.9420 0.9415 0.9410
2057.799588 0.9400 0.9390 0.9385 0.9380 0.9380
2062.869311 0.9380 0.9385 0.9390 0.9395 0.9400
2067.939034 0.9400 0.9400 0.9405 0.9410 0.9405
2073.008757 0.9400 0.9410 0.9420 0.9420 0.9420
2078.078480 0.9425 0.9430 0.9430 0.9430 0.9430
2083.148203 0.9430 0.9430 0.9430 0.9420 0.9410
2088.217927 0.9400 0.9390 0.9390 0.9390 0.9395
2093.287650 0.9400 0.9405 0.9410 0.9420 0.9430
2098.357373 0.9430 0.9430 0.9430 0.9430 0.9430
2103.427096 0.9430 0.9425 0.9420 0.9425 0.9430
2108.496819 0.9440 0.9450 0.9455 0.9460 0.9460
2113.566543 0.9460 0.9460 0.9460 0.9455 0.9450
2118.636266 0.9440 0.9430 0.9420 0.9410 0.9405
2123.705989 0.9400 0.9405 0.9410 0.9415 0.9420
2128.775712 0.9430 0.9440 0.9445 0.9450 0.9445
2133.845435 0.9440 0.9440 0.9440 0.9440 0.9440
2138.915158 0.9440 0.9440 0.9435 0.9430 0.9425
2143.984882 0.9420 0.9420 0.9420 0.9420 0.9420
2149.054605 0.9420 0.9420 0.9420 0.9420 0.9420
2154.124328 0.9420 0.9420 0.9420 0.9410 0.9401
2159.194051 0.9395 0.9390 0.9390 0.9390 0.9390
2164.263774 0.9390 0.9390 0.9390 0.9390 0.9390
2169.333498 0.9404 0.9419 0.9425 0.9430 0.9430
2174.403221 0.9430 0.9430 0.9430 0.9430 0.9430
2179.472944 0.9425 0.9420 0.9420 0.9420 0.9420
2184.542667 0.9420 0.9410 0.9400 0.9400 0.9400
2189.612390 0.9400 0.9400 0.9395 0.9390 0.9390
2194.682113 0.9390 0.9390 0.9390 0.9395 0.9400
2199.751837 0.9405 0.9410 0.9410 0.9410 0.9415
2204.821560 0.9420 0.9420 0.9420 0.9420 0.9420
2209.891283 0.9420 0.9420 0.9420 0.9420 0.9420
2214.961006 0.9420 0.9420 0.9420 0.9420 0.9420
2220.030729 0.9420 0.9420 0.9425 0.9430 0.9430
2225.100453 0.9430 0.9430 0.9430 0.9435 0.9440
2230.170176 0.9445 0.9450 0.9455 0.9460 0.9465
2235.239899 0.9470 0.9470 0.9470 0.9470 0.9470
2240.309622 0.9475 0.9480 0.9480 0.9480 0.9480
2245.379345 0.9480 0.9471 0.9461 0.9455 0.9450
2250.449068 0.9445 0.9440 0.9440 0.9440 0.9440
2255.518792 0.9440 0.9440 0.9440 0.9440 0.9440
2260.588515 0.9440 0.9440 0.9440 0.9440 0.9454
2265.658238 0.9469 0.9470 0.9470 0.9470 0.9470
2270.727961 0.9470 0.9470 0.9470 0.9470 0.9470
2275.797684 0.9470 0.9470 0.9470 0.9470 0.9470
2280.867408 0.9470 0.9470 0.9470 0.9470 0.9461
2285.937131 0.9451 0.9441 0.9431 0.9425 0.9420
2291.006854 0.9425 0.9430 0.9430 0.9430 0.9430
2296.076577 0.9430 0.9430 0.9430 0.9439 0.9449
2301.146300 0.9459 0.9469 0.9470 0.9470 0.9470
2306.216023 0.9470 0.9470 0.9470 0.9461 0.9451
2311.285747 0.9445 0.9440 0.9440 0.9440 0.9431
2316.355470 0.9421 0.9411 0.9401 0.9395 0.9390
2321.425193 0.9404 0.9419 0.9420 0.9420 0.9420
2326.494916 0.9420 0.9420 0.9420 0.9415 0.9410
2331.564639 0.9387 0.9362 0.9355 0.9350 0.9350
2336.634363 0.9350 0.9355 0.9360 0.9369 0.9379
2341.704086 0.9385 0.9390 0.9390 0.9390 0.9385
2346.773809 0.9380 0.9385 0.9390 0.9395 0.9400
2351.843532 0.9405 0.9410 0.9415 0.9420 0.9415
2356.913255 0.9410 0.9383 0.9353 0.9327 0.9303
2361.982978 0.9296 0.9291 0.9290 0.9290 0.9295
2367.052702 0.9300 0.9300 0.9300 0.9300 0.9300
2372.122425 0.9314 0.9329 0.9348 0.9368 0.9375
2377.192148 0.9379 0.9384 0.9389 0.9354 0.9314
2382.261871 0.9310 0.9310 0.9323 0.9339 0.9349
2387.331594 0.9359 0.9369 0.9379 0.9380 0.9380
2392.401318 0.9385 0.9389 0.9390 0.9390 0.9390
2397.471041 0.9390 0.9390 0.9390 0.9394 0.9399
2402.540764 0.9396 0.9391 0.9386 0.9380 0.9385
2407.610487 0.9390 0.9395 0.9400 0.9404 0.9409
2412.680210 0.9414 0.9419 0.9424 0.9429 0.9434
2417.749933 0.9439 0.9449 0.9459 0.9456 0.9451
2422.819657 0.9446 0.9441 0.9436 0.9431 0.9434
2427.889380 0.9439 0.9444 0.9449 0.9450 0.9450
2432.959103 0.9454 0.9459 0.9460 0.9460 0.9460
2438.028826 0.9460 0.9456 0.9451 0.9450 0.9450
2443.098549 0.9446 0.9441 0.9440 0.9440 0.9440
2448.168273 0.9440 0.9440 0.9440 0.9440 0.9440
2453.237996 0.9440 0.9440 0.9440 0.9440 0.9440
2458.307719 0.9440 0.9440 0.9440 0.9440 0.9440
2463.377442 0.9440 0.9440 0.9440 0.9440 0.9440
2468.447165 0.9440 0.9444 0.9449 0.9450 0.9450
2473.516888 0.9454 0.9459 0.9460 0.9460 0.9456
2478.586612 0.9451 0.9450 0.9450 0.9450 0.9450
2483.656335 0.9450 0.9450 0.9446 0.9441 0.9436
2488.726058 0.9431 0.9430 0.9430 0.9421 0.9411
2493.795781 0.9406 0.9401 0.9400 0.9400 0.9413
2498.865504 0.9428 0.9430 0.9430 0.9426 0.9421
2503.935227 0.9416 0.9411 0.9410 0.9410 0.9401
2509.004951 0.9391 0.9390 0.9390 0.9386 0.9381
2514.074674 0.9376 0.9371 0.9370 0.9370 0.9366
2519.144397 0.9361 0.9356 0.9351 0.9341 0.9331
2524.214120 0.9326 0.9321 0.9316 0.9311 0.9306
2529.283843 0.9301 0.9300 0.9300 0.9309 0.9319
2534.353567 0.9333 0.9348 0.9359 0.9369 0.9379
2539.423290 0.9389 0.9390 0.9390 0.9390 0.9390
2544.493013 0.9390 0.9390 0.9381 0.9371 0.9366
2549.562736 0.9361 0.9356 0.9351 0.9350 0.9350
2554.632459 0.9346 0.9341 0.9340 0.9340 0.9331
2559.702182 0.9321 0.9307 0.9292 0.9290 0.9290
2564.771906 0.9290 0.9290 0.9290 0.9290 0.9290
2569.841629 0.9290 0.9290 0.9290 0.9290 0.9290
2574.911352 0.9286 0.9281 0.9284 0.9289 0.9290
2579.981075 0.9290 0.9290 0.9290 0.9290 0.9290
2585.050798 0.9290 0.9290 0.9290 0.9290 0.9290
2590.120522 0.9290 0.9286 0.9281 0.9280 0.9280
2595.190245 0.9276 0.9271 0.9270 0.9270 0.9266
2600.259968 0.9261 0.9264 0.9269 0.9270 0.9270
2605.329691 0.9270 0.9270 0.9270 0.9270 0.9270
2610.399414 0.9270 0.9270 0.9270 0.9270 0.9270
2615.469137 0.9270 0.9270 0.9266 0.9261 0.9256
2620.538861 0.9251 0.9246 0.9241 0.9232 0.9222
2625.608584 0.9220 0.9220 0.9220 0.9220 0.9220
2630.678307 0.9220 0.9216 0.9211 0.9206 0.9201
2635.748030 0.9200 0.9200 0.9196 0.9191 0.9190
2640.817753 0.9190 0.9186 0.9181 0.9180 0.9180
2645.887477 0.9176 0.9171 0.9170 0.9170 0.9166
2650.957200 0.9161 0.9152 0.9142 0.9136 0.9131
2656.026923 0.9113 0.9093 0.9086 0.9081 0.9080
2661.096646 0.9080 0.9084 0.9089 0.9090 0.9090
2666.166369 0.9098 0.9108 0.9110 0.9110 0.9114
2671.236092 0.9119 0.9120 0.9120 0.9124 0.9129
2676.305816 0.9130 0.9130 0.9134 0.9139 0.9140
2681.375539 0.9140 0.9140 0.9140 0.9140 0.9140
2686.445262 0.9140 0.9140 0.9144 0.9149 0.9150
2691.514985 0.9150 0.9150 0.9150 0.9150 0.9150
2696.584708 0.9146 0.9141 0.9136 0.9131 0.9130
2701.654432 0.9130 0.9122 0.9112 0.9102 0.9092
2706.724155 0.9090 0.9090 0.9086 0.9081 0.9076
2711.793878 0.9071 0.9062 0.9052 0.9038 0.9023
2716.863601 0.9008 0.8993 0.8978 0.8963 0.8956
2721.933324 0.8951 0.8954 0.8959 0.8964 0.8969
2727.003047 0.8974 0.8979 0.8984 0.8989 0.8990
2732.072771 0.8990 0.8990 0.8990 0.8994 0.8999
2737.142494 0.9004 0.9009 0.9010 0.9010 0.9010
2742.212217 0.9010 0.9010 0.9010 0.9014 0.9019
2747.281940 0.9020 0.9020 0.9016 0.9011 0.9010
2752.351663 0.9010 0.9006 0.9001 0.9000 0.9000
2757.421387 0.8996 0.8991 0.8986 0.8981 0.8972
2762.491110 0.8962 0.8956 0.8951 0.8946 0.8941
2767.560833 0.8932 0.8922 0.8916 0.8911 0.8902
2772.630556 0.8892 0.8878 0.8863 0.8852 0.8842
2777.700279 0.8832 0.8822 0.8808 0.8793 0.8782
2782.770002 0.8772 0.8758 0.8743 0.8724 0.8704
2787.839726 0.8684 0.8664 0.8644 0.8624 0.8600
2792.909449 0.8575 0.8554 0.8534 0.8506 0.8476
2797.979172 0.8442 0.8407 0.8376 0.8346 0.8312
2803.048895 0.8277 0.8238 0.8198 0.8162 0.8127
2808.118618 0.8085 0.8040 0.7994 0.7949 0.7900
2813.188342 0.7850 0.7800 0.7750 0.7688 0.7623
2818.258065 0.7566 0.7511 0.7441 0.7366 0.7275
2823.327788 0.7180 0.7061 0.6937 0.6792 0.6642
2828.397511 0.6465 0.6280 0.6055 0.5818 0.5547
2833.467234 0.5267 0.5083 0.4923 0.4755 0.4585
2838.536957 0.4246 0.3861 0.3425 0.2976 0.2472
2843.606681 0.1952 0.1660 0.1430 0.1204 0.0980
2848.676404 0.0926 0.0921 0.0924 0.0929 0.1005
2853.746127 0.1100 0.1215 0.1335 0.1506 0.1691
2858.815850 0.1805 0.1899 0.1971 0.2036 0.2054
2863.885573 0.2059 0.2068 0.2078 0.2096 0.2115
2868.955297 0.2178 0.2253 0.2414 0.2601 0.2849
2874.025020 0.3114 0.3311 0.3491 0.3530 0.3530
2879.094743 0.3510 0.3486 0.3293 0.3054 0.2934
2884.164466 0.2849 0.2733 0.2609 0.2488 0.2368
2889.234189 0.2252 0.2137 0.2048 0.1967 0.1883
2894.303912 0.1799 0.1706 0.1611 0.1512 0.1412
2899.373636 0.1312 0.1213 0.1117 0.1022 0.0931
2904.443359 0.0841 0.0751 0.0661 0.0583 0.0508
2909.513082 0.0444 0.0384 0.0332 0.0281 0.0243
2914.582805 0.0208 0.0188 0.0173 0.0131 0.0081
2919.652528 0.0066 0.0061 0.0064 0.0069 0.0089
2924.722252 0.0114 0.0131 0.0146 0.0173 0.0203
2929.791975 0.0237 0.0271 0.0326 0.0386 0.0427
2934.861698 0.0462 0.0559 0.0673 0.0715 0.0735
2939.931421 0.0740 0.0740 0.0732 0.0722 0.0667
2945.001144 0.0597 0.0542 0.0492 0.0454 0.0419
2950.070867 0.0369 0.0314 0.0296 0.0291 0.0294
2955.140591 0.0299 0.0373 0.0468 0.0547 0.0622
2960.210314 0.0773 0.0948 0.1062 0.1157 0.1282
2965.280037 0.1417 0.1668 0.1958 0.2281 0.2616
2970.349760 0.2872 0.3102 0.3326 0.3548 0.3798
2975.419483 0.4058 0.4474 0.4938 0.5205 0.5410
2980.489207 0.5604 0.5793 0.5975 0.6155 0.6316
2985.558930 0.6471 0.6611 0.6746 0.6873 0.6998
2990.628653 0.7112 0.7222 0.7302 0.7373 0.7462
2995.698376 0.7557 0.7644 0.7729 0.7806 0.7881
3000.768099 0.7953 0.8022 0.8085 0.8145 0.8197
3005.837822 0.8247 0.8297 0.8347 0.8390 0.8430
3010.907546 0.8470 0.8509 0.8542 0.8573 0.8599
3015.977269 0.8624 0.8649 0.8674 0.8691 0.8706
3021.046992 0.8725 0.8745 0.8757 0.8767 0.8777
3026.116715 0.8787 0.8797 0.8807 0.8817 0.8827
3031.186438 0.8834 0.8839 0.8847 0.8857 0.8864
3036.256162 0.8869 0.8877 0.8887 0.8894 0.8899
3041.325885 0.8907 0.8917 0.8924 0.8929 0.8941
3046.395608 0.8956 0.8967 0.8977 0.8980 0.8980
3051.465331 0.8984 0.8989 0.8990 0.8990 0.8986
3056.535054 0.8981 0.8980 0.8980 0.8969 0.8954
3061.604777 0.8950 0.8950 0.8954 0.8959 0.8960
3066.674501 0.8960 0.8964 0.8969 0.8977 0.8987
3071.744224 0.8997 0.9007 0.9025 0.9045 0.9065
3076.813947 0.9085 0.9108 0.9133 0.9155 0.9175
3081.883670 0.9191 0.9206 0.9210 0.9210 0.9214
3086.953393 0.9219 0.9227 0.9237 0.9240 0.9240
3092.023117 0.9240 0.9240 0.9244 0.9249 0.9254
3097.092840 0.9259 0.9267 0.9277 0.9284 0.9289
3102.162563 0.9294 0.9299 0.9300 0.9300 0.9300
3107.232286 0.9300 0.9296 0.9291 0.9290 0.9290
3112.302009 0.9290 0.9290 0.9290 0.9290 0.9290
3117.371732 0.9290 0.9290 0.9290 0.9290 0.9290
3122.441456 0.9290 0.9290 0.9290 0.9290 0.9290
3127.511179 0.9290 0.9290 0.9290 0.9290 0.9290
3132.580902 0.9290 0.9290 0.9290 0.9290 0.9294
3137.650625 0.9299 0.9300 0.9300 0.9307 0.9317
3142.720348 0.9327 0.9337 0.9354 0.9374 0.9384
3147.790072 0.9389 0.9390 0.9390 0.9390 0.9390
3152.859795 0.9383 0.9373 0.9363 0.9353 0.9350
3157.929518 0.9350 0.9346 0.9341 0.9340 0.9340
3162.999241 0.9344 0.9349 0.9354 0.9359 0.9360
3168.068964 0.9360 0.9364 0.9369 0.9370 0.9370
3173.138687 0.9370 0.9370 0.9374 0.9379 0.9380
3178.208411 0.9380 0.9387 0.9397 0.9400 0.9400
3183.278134 0.9404 0.9409 0.9414 0.9419 0.9420
3188.347857 0.9420 0.9423 0.9428 0.9437 0.9447
3193.417580 0.9450 0.9450 0.9450 0.9450 0.9454
3198.487303 0.9459 0.9460 0.9460 0.9460 0.9460
3203.557027 0.9460 0.9460 0.9463 0.9468 0.9470
3208.626750 0.9470 0.9473 0.9478 0.9480 0.9480
3213.696473 0.9483 0.9488 0.9490 0.9490 0.9490
3218.766196 0.9490 0.9490 0.9490 0.9490 0.9490
3223.835919 0.9490 0.9490 0.9490 0.9490 0.9490
3228.905642 0.9490 0.9493 0.9498 0.9500 0.9500
3233.975366 0.9503 0.9508 0.9510 0.9510 0.9513
3239.045089 0.9518 0.9520 0.9520 0.9527 0.9537
3244.114812 0.9540 0.9540 0.9543 0.9548 0.9550
3249.184535 0.9550 0.9550 0.9550 0.9550 0.9550
3254.254258 0.9550 0.9550 0.9550 0.9550 0.9550
3259.323982 0.9550 0.9547 0.9542 0.9543 0.9548
3264.393705 0.9547 0.9542 0.9537 0.9532 0.9530
3269.463428 0.9530 0.9530 0.9530 0.9533 0.9538
3274.533151 0.9543 0.9548 0.9553 0.9558 0.9560
3279.602874 0.9560 0.9553 0.9543 0.9540 0.9540
3284.672597 0.9537 0.9532 0.9530 0.9530 0.9530
3289.742321 0.9530 0.9530 0.9530 0.9527 0.9522
3294.812044 0.9520 0.9520 0.9520 0.9520 0.9527
3299.881767 0.9537 0.9547 0.9557 0.9560 0.9560
3304.951490 0.9560 0.9560 0.9560 0.9560 0.9560
3310.021213 0.9560 0.9560 0.9560 0.9557 0.9552
3315.090936 0.9550 0.9550 0.9553 0.9558 0.9560
3320.160660 0.9560 0.9553 0.9543 0.9537 0.9532
3325.230383 0.9530 0.9530 0.9530 0.9530 0.9530
3330.300106 0.9530 0.9530 0.9530 0.9530 0.9530
3335.369829 0.9533 0.9538 0.9540 0.9540 0.9543
3340.439552 0.9548 0.9550 0.9550 0.9553 0.9558
3345.509276 0.9560 0.9560 0.9560 0.9560 0.9563
3350.578999 0.9568 0.9570 0.9570 0.9567 0.9562
3355.648722 0.9560 0.9560 0.9557 0.9552 0.9550
3360.718445 0.9550 0.9547 0.9542 0.9540 0.9540
3365.788168 0.9543 0.9548 0.9550 0.9550 0.9550
3370.857891 0.9550 0.9553 0.9558 0.9560 0.9560
3375.927615 0.9563 0.9568 0.9573 0.9578 0.9580
3380.997338 0.9580 0.9577 0.9572 0.9560 0.9545
3386.067061 0.9540 0.9540 0.9533 0.9523 0.9520
3391.136784 0.9520 0.9514 0.9504 0.9500 0.9500
3396.206507 0.9497 0.9492 0.9490 0.9490 0.9487
3401.276231 0.9482 0.9477 0.9472 0.9463 0.9453
3406.345954 0.9447 0.9442 0.9434 0.9424 0.9414
3411.415677 0.9404 0.9390 0.9375 0.9364 0.9354
3416.485400 0.9340 0.9325 0.9310 0.9295 0.9280
3421.555123 0.9265 0.9253 0.9244 0.9230 0.9215
3426.624846 0.9207 0.9202 0.9197 0.9192 0.9193
3431.694570 0.9198 0.9200 0.9200 0.9206 0.9216
3436.764293 0.9229 0.9244 0.9253 0.9258 0.9266
3441.834016 0.9276 0.9286 0.9296 0.9300 0.9300
3446.903739 0.9303 0.9308 0.9313 0.9318 0.9330
3451.973462 0.9345 0.9366 0.9391 0.9406 0.9416
3457.043186 0.9426 0.9436 0.9443 0.9448 0.9453
3462.112909 0.9458 0.9463 0.9468 0.9473 0.9478
3467.182632 0.9486 0.9496 0.9503 0.9508 0.9516
3472.252355 0.9526 0.9536 0.9546 0.9553 0.9558
3477.322078 0.9563 0.9568 0.9570 0.9570 0.9573
3482.391801 0.9578 0.9580 0.9580 0.9580 0.9580
3487.461525 0.9580 0.9580 0.9580 0.9580 0.9583
3492.531248 0.9588 0.9593 0.9598 0.9600 0.9600
3497.600971 0.9600 0.9600 0.9603 0.9608 0.9610
3502.670694 0.9610 0.9607 0.9602 0.9600 0.9600
3507.740417 0.9600 0.9600 0.9600 0.9600 0.9600
3512.810141 0.9600 0.9603 0.9608 0.9610 0.9610
3517.879864 0.9610 0.9610 0.9610 0.9610 0.9607
3522.949587 0.9602 0.9600 0.9600 0.9597 0.9592
3528.019310 0.9593 0.9598 0.9597 0.9592 0.9590
3533.089033 0.9590 0.9590 0.9590 0.9587 0.9582
3538.158756 0.9583 0.9588 0.9590 0.9590 0.9596
3543.228480 0.9606 0.9610 0.9610 0.9613 0.9618
3548.298203 0.9620 0.9620 0.9617 0.9612 0.9610
3553.367926 0.9610 0.9604 0.9594 0.9587 0.9582
3558.437649 0.9580 0.9580 0.9583 0.9588 0.9599
3563.507372 0.9614 0.9617 0.9612 0.9616 0.9626
3568.577096 0.9639 0.9654 0.9666 0.9676 0.9686
3573.646819 0.9696 0.9703 0.9708 0.9704 0.9694
3578.716542 0.9687 0.9682 0.9665 0.9640 0.9615
3583.786265 0.9590 0.9580 0.9580 0.9577 0.9572
3588.855988 0.9570 0.9570 0.9567 0.9562 0.9557
3593.925711 0.9552 0.9544 0.9534 0.9530 0.9530
3598.995435 0.9524 0.9514 0.9510 0.9510 0.9510
3604.065158 0.9510 0.9513 0.9518 0.9523 0.9528
3609.134881 0.9530 0.9530 0.9533 0.9538 0.9546
3614.204604 0.9556 0.9563 0.9568 0.9567 0.9562
3619.274327 0.9554 0.9544 0.9537 0.9532 0.9530
3624.344051 0.9530 0.9527 0.9522 0.9520 0.9520
3629.413774 0.9520 0.9520 0.9517 0.9512 0.9510
3634.483497 0.9510 0.9510 0.9510 0.9510 0.9510
3639.553220 0.9510 0.9510 0.9510 0.9510 0.9513
3644.622943 0.9518 0.9520 0.9520 0.9523 0.9528
3649.692666 0.9530 0.9530 0.9533 0.9538 0.9540
3654.762390 0.9540 0.9540 0.9540 0.9537 0.9532
3659.832113 0.9530 0.9530 0.9530 0.9530 0.9524
3664.901836 0.9514 0.9510 0.9510 0.9504 0.9494
3669.971559 0.9487 0.9482 0.9480 0.9480 0.9489
3675.041282 0.9504 0.9510 0.9510 0.9513 0.9518
3680.111006 0.9520 0.9520 0.9517 0.9512 0.9510
3685.180729 0.9510 0.9510 0.9510 0.9513 0.9518
3690.250452 0.9520 0.9520 0.9520 0.9520 0.9520
3695.320175 0.9520 0.9520 0.9520 0.9520 0.9520
3700.389898 0.9517 0.9512 0.9504 0.9494 0.9487
3705.459621 0.9482 0.9480 0.9480 0.9483 0.9488
3710.529345 0.9496 0.9506 0.9510 0.9510 0.9513
3715.599068 0.9518 0.9523 0.9528 0.9533 0.9538
3720.668791 0.9540 0.9540 0.9546 0.9556 0.9566
3725.738514 0.9576 0.9574 0.9564 0.9557 0.9552
3730.808237 0.9547 0.9542 0.9540 0.9540 0.9540
3735.877961 0.9540 0.9540 0.9540 0.9540 0.9540
3740.947684 0.9540 0.9540 0.9537 0.9532 0.9530
3746.017407 0.9530 0.9530 0.9530 0.9530 0.9530
3751.087130 0.9536 0.9546 0.9550 0.9550 0.9547
3756.156853 0.9542 0.9540 0.9540 0.9537 0.9532
3761.226576 0.9527 0.9522 0.9520 0.9520 0.9517
3766.296300 0.9512 0.9510 0.9510 0.9510 0.9510
3771.366023 0.9510 0.9510 0.9513 0.9518 0.9520
3776.435746 0.9520 0.9526 0.9536 0.9543 0.9548
3781.505469 0.9553 0.9558 0.9563 0.9568 0.9570
3786.575192 0.9570 0.9570 0.9570 0.9570 0.9570
3791.644916 0.9570 0.9570 0.9567 0.9562 0.9557
3796.714639 0.9552 0.9547 0.9542 0.9540 0.9540
3801.784362 0.9540 0.9540 0.9540 0.9540 0.9537
3806.854085 0.9532 0.9530 0.9530 0.9530 0.9530
3811.923808 0.9530 0.9530 0.9530 0.9530 0.9530
3816.993531 0.9530 0.9533 0.9538 0.9540 0.9540
3822.063255 0.9543 0.9548 0.9550 0.9550 0.9550
3827.132978 0.9550 0.9550 0.9550 0.9550 0.9550
3832.202701 0.9550 0.9550 0.9545 0.9535 0.9530
3837.272424 0.9530 0.9535 0.9545 0.9553 0.9558
3842.342147 0.9560 0.9560 0.9557 0.9552 0.9550
3847.411871 0.9550 0.9550 0.9550 0.9553 0.9558
3852.481594 0.9565 0.9575 0.9580 0.9580 0.9580
3857.551317 0.9580 0.9577 0.9572 0.9562 0.9547
3862.621040 0.9540 0.9540 0.9537 0.9532 0.9527
3867.690763 0.9522 0.9523 0.9528 0.9533 0.9538
3872.760486 0.9540 0.9540 0.9540 0.9540 0.9540
3877.830210 0.9540 0.9540 0.9540 0.9543 0.9548
3882.899933 0.9550 0.9550 0.9550 0.9550 0.9550
3887.969656 0.9550 0.9550 0.9550 0.9550 0.9550
3893.039379 0.9547 0.9542 0.9540 0.9540 0.9537
3898.109102 0.9532 0.9530 0.9530 0.9527 0.9522
3903.178826 0.9520 0.9520 0.9520 0.9520 0.9517
3908.248549 0.9512 0.9513 0.9518 0.9520 0.9520
3913.318272 0.9523 0.9528 0.9533 0.9538 0.9537
3918.387995 0.9532 0.9533 0.9538 0.9540 0.9540
3923.457718 0.9540 0.9540 0.9540 0.9540 0.9540
3928.527441 0.9540 0.9540 0.9540 0.9540 0.9540
3933.597165 0.9540 0.9540 0.9537 0.9532 0.9530
3938.666888 0.9530 0.9530 0.9530 0.9530 0.9530
3943.736611 0.9530 0.9530 0.9530 0.9530 0.9530
3948.806334 0.9530 0.9533 0.9538 0.9540 0.9540
3953.876057 0.9543 0.9548 0.9550 0.9550 0.9547
3958.945781 0.9542 0.9535 0.9525 0.9517 0.9512
3964.015504 0.9510 0.9510 0.9510 0.9510 0.9507
3969.085227 0.9502 0.9503 0.9508 0.9510 0.9510
3974.154950 0.9513 0.9518 0.9520 0.9520 0.9517
3979.224673 0.9512 0.9502 0.9487 0.9477 0.9473
3984.294396 0.9470 0.9470 0.9470 0.9470 0.9470
3989.364120 0.9470 0.9470 0.9470 0.9470 0.9470
3994.433843 0.9473 0.9478 0.9480 0.9480
##END=
