##TITLE=3,4,5-PYRIDINETRIAMINE, DIHYDROCHLORIDE
##JCAMP-DX=4.24
##DATA TYPE=INFRARED SPECTRUM
##CLASS=COBLENTZ III
##ORIGIN=SOUTHERN RESEARCH INSTITUTE
##OWNER=COBLENTZ SOCIETY
Collection (C) 2018 copyright by the U.S. Secretary of Commerce
on behalf of the United States of America. All rights reserved.
##DATE=1968/01/19
##MOLFORM=C5 H10 Cl2 N4
##SOURCE REFERENCE=COBLENTZ NO. 10409
##$NIST ID=B6010409
##$NIST SOURCE=COBLENTZ
##$NIST IMAGE=cob10409
##SPECTROMETER/DATA SYSTEM=PERKIN-ELMER 521 (GRATING)
##STATE=SOLID (1 mg / 650 mg KBr DISC)
##PATH LENGTH=
$$SPECTRAL CONTAMINATION DUE TO H2O AROUND 3500 CM^-^1
$$ PURITY - ANALYTICAL
##SAMPLING PROCEDURE=TRANSMISSION
##RESOLUTION=4
##DATA PROCESSING=DIGITIZED BY NIST FROM HARD COPY (FROM TWO SEGMENTS)
##XUNITS=1/CM
##YUNITS=TRANSMITTANCE
##XFACTOR=1.000000
##YFACTOR=1
##DELTAX=1.316949
##FIRSTX=253.731
##LASTX=3996.5
##FIRSTY=0.276
##MAXX=3996.5
##MINX=253.731
##MAXY=0.992
##MINY=0.104003
##NPOINTS=2843
##XYDATA=(X++(Y..Y))
253.731000 0.2760 0.2840 0.2910 0.2940 0.2970
260.315746 0.3040 0.3140 0.3200 0.3270 0.3320
266.900492 0.3330 0.3370 0.3410 0.3460 0.3520
273.485238 0.3590 0.3660 0.3730 0.3760 0.4028
280.069984 0.4200 0.4340 0.4390 0.4550 0.4680
286.654730 0.4819 0.4939 0.5069 0.5179 0.5299
293.239476 0.5390 0.5490 0.5570 0.5660 0.5740
299.824222 0.5810 0.5870 0.5920 0.5940 0.5950
306.408968 0.5960 0.5960 0.5980 0.5980 0.5960
312.993714 0.5940 0.5920 0.5900 0.5870 0.5850
319.578460 0.5830 0.5820 0.5810 0.5790 0.5790
326.163206 0.5790 0.5810 0.5820 0.5830 0.5850
332.747952 0.5910 0.5980 0.6040 0.6120 0.6250
339.332698 0.6370 0.6450 0.6579 0.6709 0.6780
345.917444 0.6840 0.6920 0.7040 0.7060 0.7190
352.502190 0.7270 0.7340 0.7380 0.7430 0.7500
359.086936 0.7570 0.7680 0.7760 0.7800 0.7840
365.671682 0.7890 0.7950 0.8020 0.8080 0.8159
372.256427 0.8230 0.8290 0.8330 0.8410 0.8420
378.841173 0.8440 0.8410 0.8400 0.8311 0.8290
385.425919 0.8290 0.8310 0.8310 0.8320 0.8320
392.010665 0.8320 0.8310 0.8310 0.8320 0.8330
398.595411 0.8350 0.8350 0.8350 0.8330 0.8330
405.180157 0.8320 0.8320 0.8310 0.8280 0.8270
411.764903 0.8250 0.8250 0.8240 0.8230 0.8210
418.349649 0.8210 0.8190 0.8180 0.8160 0.8160
424.934395 0.8150 0.8140 0.8140 0.8120 0.8120
431.519141 0.8120 0.8110 0.8110 0.8100 0.8100
438.103887 0.8100 0.8100 0.8080 0.8070 0.8070
444.688633 0.8060 0.8040 0.8030 0.8020 0.8010
451.273379 0.7980 0.7970 0.7940 0.7910 0.7900
457.858125 0.7890 0.7870 0.7850 0.7780 0.7730
464.442871 0.7690 0.7650 0.7610 0.7560 0.7500
471.027617 0.7390 0.7310 0.7191 0.7081 0.7040
477.612363 0.6980 0.6880 0.6870 0.6880 0.7010
484.197109 0.7060 0.7179 0.7250 0.7290 0.7320
490.781855 0.7340 0.7320 0.7290 0.7230 0.7170
497.366601 0.7090 0.7010 0.6970 0.6920 0.6811
503.951347 0.6660 0.6540 0.6460 0.6400 0.6370
510.536093 0.6340 0.6320 0.6290 0.6260 0.6240
517.120839 0.6210 0.6190 0.6150 0.6120 0.6110
523.705585 0.6090 0.6070 0.6070 0.6060 0.6060
530.290331 0.6060 0.6040 0.6040 0.6030 0.6030
536.875077 0.6030 0.6030 0.6020 0.6020 0.6020
543.459823 0.6020 0.6000 0.6000 0.6000 0.6000
550.044569 0.6000 0.6000 0.6000 0.6000 0.6000
556.629315 0.6000 0.6000 0.5990 0.5990 0.5960
563.214061 0.5910 0.5820 0.5820 0.6148 0.6289
569.798807 0.6340 0.6370 0.6400 0.6410 0.6420
576.383553 0.6430 0.6430 0.6450 0.6460 0.6500
582.968299 0.6510 0.6540 0.6570 0.6600 0.6620
589.553045 0.7088 0.7508 0.7530 0.7560 0.7610
596.137791 0.7650 0.7670 0.7720 0.7810 0.7840
602.722536 0.7850 0.7900 0.7930 0.7950 0.7970
609.307282 0.7980 0.8030 0.8070 0.8080 0.8110
615.892028 0.8120 0.8140 0.8160 0.8160 0.8180
622.476774 0.8190 0.8190 0.8190 0.8200 0.8210
629.061520 0.8210 0.8210 0.8210 0.8210 0.8200
635.646266 0.8200 0.8190 0.8180 0.8120 0.8110
642.231012 0.8180 0.8190 0.8240 0.8250 0.8270
648.815758 0.8280 0.8290 0.8290 0.8290 0.8290
655.400504 0.8290 0.8280 0.8270 0.8250 0.8230
661.985250 0.8200 0.8190 0.8150 0.8120 0.8120
668.569996 0.8110 0.8100 0.8100 0.8080 0.8070
675.154742 0.8080 0.8100 0.8100 0.8110 0.8110
681.739488 0.8110 0.8110 0.8100 0.8100 0.8100
688.324234 0.8100 0.8070 0.8030 0.7990 0.7980
694.908980 0.7970 0.7970 0.7980 0.7990 0.8020
701.493726 0.8040 0.8060 0.8070 0.8070 0.8070
708.078472 0.8080 0.8080 0.8080 0.8060 0.8030
714.663218 0.7990 0.7950 0.7940 0.7930 0.7910
721.247964 0.7840 0.7800 0.7700 0.7591 0.7431
727.832710 0.7190 0.7050 0.6910 0.6371 0.6150
734.417456 0.6150 0.7017 0.7757 0.8437 0.8907
741.002202 0.8970 0.9030 0.9070 0.9080 0.9080
747.586948 0.9080 0.9090 0.9090 0.9080 0.9080
754.171694 0.9080 0.9070 0.9070 0.9040 0.9000
760.756440 0.8970 0.8950 0.8930 0.8920 0.8910
767.341186 0.8860 0.8780 0.8730 0.8580 0.8530
773.925932 0.8440 0.8350 0.8250 0.8250 0.8389
780.510678 0.8440 0.8460 0.8580 0.8700 0.8740
787.095424 0.8750 0.8750 0.8740 0.8740 0.8730
793.680170 0.8700 0.8690 0.8660 0.8650 0.8560
800.264916 0.8450 0.8370 0.8270 0.8121 0.7971
806.849662 0.7810 0.7630 0.7430 0.7230 0.7040
813.434408 0.6930 0.6830 0.6541 0.6241 0.5753
820.019154 0.5620 0.5620 0.5680 0.6089 0.6419
826.603900 0.7118 0.7439 0.7729 0.7979 0.8199
833.188646 0.8360 0.8460 0.8490 0.8500 0.8520
839.773391 0.8520 0.8500 0.8460 0.8390 0.8281
846.358137 0.8180 0.8020 0.7840 0.7600 0.7470
852.942883 0.7470 0.7550 0.7699 0.7839 0.7890
859.527629 0.8660 0.9010 0.9100 0.9100 0.9130
866.112375 0.9140 0.9160 0.9160 0.9140 0.9100
872.697121 0.9080 0.9040 0.8960 0.8900 0.8860
879.281867 0.8630 0.8620 0.8630 0.8700 0.8750
885.866613 0.8840 0.8930 0.9010 0.9120 0.9160
892.451359 0.9170 0.9180 0.9180 0.9180 0.9180
899.036105 0.9180 0.9170 0.9160 0.9160 0.9140
905.620851 0.9140 0.9140 0.9140 0.9140 0.9140
912.205597 0.9130 0.9120 0.9080 0.9030 0.8970
918.790343 0.8930 0.8930 0.8900 0.8840 0.8780
925.375089 0.8710 0.8630 0.8540 0.8450 0.8350
931.959835 0.8230 0.8160 0.8080 0.8070 0.8080
938.544581 0.8200 0.8290 0.8410 0.8480 0.8580
945.129327 0.8690 0.8750 0.8800 0.8820 0.8840
951.714073 0.8860 0.8860 0.8860 0.8840 0.8840
958.298819 0.8830 0.8790 0.8780 0.8780 0.8780
964.883565 0.8780 0.8780 0.8780 0.8780 0.8790
971.468311 0.8790 0.8790 0.8790 0.8790 0.8780
978.053057 0.8780 0.8760 0.8760 0.8750 0.8750
984.637803 0.8740 0.8740 0.8740 0.8730 0.8730
991.222549 0.8710 0.8700 0.8670 0.8660 0.8650
997.807295 0.8620 0.8590 0.8580 0.8560 0.8540
1004.392041 0.8520 0.8500 0.8490 0.8490 0.8480
1010.976787 0.8460 0.8450 0.8440 0.8420 0.8410
1017.561533 0.8400 0.8390 0.8370 0.8360 0.8330
1024.146279 0.8320 0.8310 0.8290 0.8290 0.8280
1030.731025 0.8280 0.8270 0.8270 0.8250 0.8230
1037.315771 0.8210 0.8200 0.8180 0.8140 0.8120
1043.900517 0.8110 0.8100 0.8080 0.8070 0.8020
1050.485263 0.7980 0.7970 0.7940 0.7930 0.7910
1057.070009 0.7840 0.7800 0.7780 0.7760 0.7720
1063.654755 0.7680 0.7650 0.7640 0.7640 0.7640
1070.239500 0.7650 0.7650 0.7650 0.7670 0.7670
1076.824246 0.7670 0.7670 0.7650 0.7630 0.7600
1083.408992 0.7550 0.7500 0.7420 0.7360 0.7300
1089.993738 0.7250 0.7190 0.7150 0.7130 0.7100
1096.578484 0.7090 0.7050 0.7020 0.6980 0.6920
1103.163230 0.6830 0.6740 0.6640 0.6570 0.6470
1109.747976 0.6380 0.6280 0.6120 0.6060 0.5990
1116.332722 0.5910 0.5870 0.5790 0.5690 0.5541
1122.917468 0.5370 0.5170 0.4900 0.4600 0.4220
1129.502214 0.4000 0.3781 0.3690 0.3690 0.3998
1136.086960 0.4160 0.4370 0.4630 0.4970 0.5430
1142.671706 0.5889 0.6199 0.6469 0.6998 0.7259
1149.256452 0.7480 0.7690 0.7840 0.7940 0.7980
1155.841198 0.8080 0.8120 0.8150 0.8180 0.8200
1162.425944 0.8200 0.8200 0.8200 0.8190 0.8160
1169.010690 0.8150 0.8140 0.8150 0.8150 0.8190
1175.595436 0.8230 0.8270 0.8290 0.8330 0.8420
1182.180182 0.8480 0.8530 0.8570 0.8620 0.8630
1188.764928 0.8630 0.8650 0.8650 0.8650 0.8650
1195.349674 0.8650 0.8650 0.8620 0.8590 0.8570
1201.934420 0.8540 0.8530 0.8520 0.8520 0.8500
1208.519166 0.8500 0.8500 0.8500 0.8500 0.8500
1215.103912 0.8490 0.8450 0.8400 0.8320 0.8240
1221.688658 0.8160 0.8070 0.7970 0.7860 0.7800
1228.273404 0.7770 0.7760 0.7720 0.7650 0.7520
1234.858150 0.7440 0.7380 0.7350 0.7340 0.7350
1241.442896 0.7430 0.7610 0.7940 0.8200 0.8330
1248.027642 0.8530 0.8670 0.8740 0.8760 0.8760
1254.612388 0.8760 0.8780 0.8780 0.8780 0.8780
1261.197134 0.8780 0.8780 0.8780 0.8780 0.8780
1267.781880 0.8780 0.8780 0.8760 0.8750 0.8710
1274.366626 0.8670 0.8630 0.8610 0.8570 0.8530
1280.951372 0.8500 0.8460 0.8410 0.8330 0.8290
1287.536118 0.8270 0.8250 0.8240 0.8240 0.8230
1294.120864 0.8230 0.8210 0.8200 0.8190 0.8020
1300.705609 0.7870 0.7740 0.7610 0.7480 0.7341
1307.290355 0.7150 0.7130 0.7130 0.7250 0.7520
1313.875101 0.7680 0.7810 0.7940 0.8119 0.8160
1320.459847 0.8160 0.8120 0.8120 0.8110 0.8110
1327.044593 0.8120 0.8150 0.8190 0.8230 0.8290
1333.629339 0.8360 0.8370 0.8370 0.8360 0.8310
1340.214085 0.8280 0.8190 0.8080 0.7970 0.7870
1346.798831 0.7769 0.7429 0.7180 0.7090 0.6980
1353.383577 0.6850 0.6780 0.6720 0.6700 0.6680
1359.968323 0.6711 0.7220 0.7390 0.7570 0.7760
1366.553069 0.7980 0.8060 0.8120 0.8200 0.8210
1373.137815 0.8210 0.8200 0.8160 0.8140 0.8120
1379.722561 0.8110 0.8100 0.8080 0.8060 0.7990
1386.307307 0.7970 0.7870 0.7780 0.7700 0.7600
1392.892053 0.7480 0.7340 0.7180 0.7080 0.6970
1399.476799 0.6708 0.6110 0.5890 0.5570 0.5560
1406.061545 0.5570 0.5730 0.5999 0.6289 0.6569
1412.646291 0.6741 0.7080 0.7210 0.7290 0.7310
1419.231037 0.7320 0.7340 0.7320 0.7320 0.7310
1425.815783 0.7310 0.7300 0.7270 0.7260 0.7230
1432.400529 0.7220 0.7190 0.7170 0.7140 0.7090
1438.985275 0.7010 0.6970 0.6930 0.6830 0.6720
1445.570021 0.6620 0.6510 0.6400 0.6260 0.6150
1452.154767 0.6020 0.5890 0.5750 0.5640 0.5490
1458.739513 0.5400 0.5220 0.5050 0.4900 0.4771
1465.324259 0.4650 0.4550 0.4470 0.4390 0.4310
1471.909005 0.4300 0.4300 0.4330 0.4330 0.4340
1478.493751 0.4330 0.4310 0.4280 0.4210 0.4120
1485.078497 0.4010 0.3960 0.3900 0.3741 0.3451
1491.663243 0.3159 0.2899 0.2680 0.2480 0.2350
1498.247989 0.2290 0.2270 0.2290 0.2350 0.2400
1504.832735 0.2500 0.2570 0.2690 0.2810 0.2990
1511.417481 0.3110 0.3330 0.3569 0.3739 0.4009
1518.002227 0.4130 0.4260 0.4430 0.4630 0.4880
1524.586973 0.5140 0.5450 0.5470 0.5470 0.5370
1531.171718 0.5200 0.5140 0.5070 0.5000 0.4890
1537.756464 0.4880 0.4890 0.4920 0.4970 0.4970
1544.341210 0.4900 0.4799 0.4459 0.4090 0.3910
1550.925956 0.3730 0.3370 0.3041 0.2721 0.2401
1557.510702 0.2089 0.1779 0.1470 0.1240 0.1110
1564.095448 0.1060 0.1040 0.1070 0.1239 0.1369
1570.680194 0.1631 0.2011 0.2461 0.2951 0.4160
1577.264940 0.4370 0.4350 0.4180 0.4090 0.3990
1583.849686 0.3779 0.3579 0.3390 0.3391 0.4080
1590.434432 0.4120 0.5069 0.5769 0.6259 0.6599
1597.019178 0.7100 0.7140 0.7140 0.7130 0.7090
1603.603924 0.7000 0.6920 0.6830 0.6601 0.6421
1610.188670 0.6149 0.5869 0.5619 0.5370 0.5180
1616.773416 0.5010 0.4820 0.4750 0.4720 0.4710
1623.358162 0.4720 0.4710 0.4690 0.4620 0.4420
1629.942908 0.4070 0.3760 0.3461 0.2842 0.2740
1636.527654 0.2740 0.2801 0.3211 0.3501 0.4370
1643.112400 0.4720 0.5050 0.5569 0.6039 0.6469
1649.697146 0.7131 0.7350 0.7480 0.7570 0.7590
1656.281892 0.7570 0.7510 0.7430 0.7191 0.7051
1662.866638 0.6909 0.6569 0.6199 0.5789 0.5360
1669.451384 0.4880 0.4351 0.4080 0.3791 0.3292
1676.036130 0.3200 0.3200 0.3231 0.4140 0.4680
1682.620876 0.5480 0.5999 0.6399 0.7228 0.7609
1689.205622 0.7971 0.8291 0.8591 0.8860 0.9080
1695.790368 0.9280 0.9430 0.9540 0.9600 0.9730
1702.375114 0.9810 0.9860 0.9880 0.9890 0.9890
1708.959860 0.9890 0.9900 0.9900 0.9920 0.9920
1715.544606 0.9920 0.9920 0.9920 0.9900 0.9890
1722.129352 0.9880 0.9880 0.9880 0.9880 0.9860
1728.714098 0.9860 0.9860 0.9840 0.9800 0.9770
1735.298844 0.9760 0.9750 0.9750 0.9730 0.9730
1741.883590 0.9720 0.9710 0.9690 0.9680 0.9670
1748.468336 0.9640 0.9620 0.9590 0.9580 0.9560
1755.053082 0.9550 0.9540 0.9510 0.9480 0.9470
1761.637827 0.9470 0.9460 0.9460 0.9470 0.9470
1768.222573 0.9480 0.9500 0.9500 0.9500 0.9500
1774.807319 0.9500 0.9500 0.9500 0.9500 0.9480
1781.392065 0.9480 0.9470 0.9470 0.9430 0.9390
1787.976811 0.9370 0.9350 0.9330 0.9330 0.9330
1794.561557 0.9310 0.9310 0.9310 0.9310 0.9300
1801.146303 0.9300 0.9290 0.9280 0.9260 0.9250
1807.731049 0.9250 0.9240 0.9220 0.9210 0.9200
1814.315795 0.9180 0.9180 0.9180 0.9170 0.9160
1820.900541 0.9140 0.9120 0.9120 0.9100 0.9100
1827.485287 0.9090 0.9080 0.9070 0.9040 0.9010
1834.070033 0.8950 0.8930 0.8910 0.8900 0.8880
1840.654779 0.8860 0.8830 0.8800 0.8780 0.8740
1847.239525 0.8700 0.8630 0.8590 0.8560 0.8520
1853.824271 0.8490 0.8490 0.8480 0.8480 0.8460
1860.409017 0.8460 0.8480 0.8490 0.8500 0.8520
1866.993763 0.8540 0.8570 0.8580 0.8590 0.8620
1873.578509 0.8630 0.8660 0.8690 0.8700 0.8710
1880.163255 0.8730 0.8740 0.8750 0.8750 0.8760
1886.748001 0.8760 0.8760 0.8760 0.8760 0.8760
1893.332747 0.8760 0.8760 0.8760 0.8760 0.8760
1899.917493 0.8750 0.8750 0.8740 0.8740 0.8730
1906.502239 0.8730 0.8700 0.8690 0.8690 0.8660
1913.086985 0.8660 0.8660 0.8650 0.8650 0.8650
1919.671731 0.8650 0.8650 0.8650 0.8650 0.8630
1926.256477 0.8630 0.8630 0.8630 0.8630 0.8630
1932.841223 0.8630 0.8620 0.8620 0.8620 0.8620
1939.425969 0.8620 0.8610 0.8610 0.8610 0.8610
1946.010715 0.8610 0.8590 0.8590 0.8590 0.8580
1952.595461 0.8580 0.8580 0.8580 0.8570 0.8570
1959.180207 0.8570 0.8560 0.8560 0.8560 0.8560
1965.764953 0.8540 0.8540 0.8540 0.8530 0.8530
1972.349699 0.8530 0.8520 0.8520 0.8520 0.8500
1978.934445 0.8500 0.8500 0.8490 0.8490 0.8490
1985.519191 0.8480 0.8480 0.8460 0.8460 0.8450
1992.103937 0.8440 0.8420 0.8390 0.8370 0.8350
1998.688682 0.8310 0.8280 0.8250 0.8240 0.8210
2005.273428 0.8200 0.8190 0.8160 0.8150 0.8140
2011.858174 0.8120 0.8110 0.8100 0.8080 0.8070
2018.442920 0.8070 0.8060 0.8040 0.8030 0.8020
2025.027666 0.8010 0.8010 0.7990 0.7990 0.7980
2031.612412 0.7970 0.7970 0.7950 0.7950 0.7950
2038.197158 0.7940 0.7940 0.7930 0.7930 0.7930
2044.781904 0.7910 0.7910 0.7910 0.7910 0.7900
2051.366650 0.7900 0.7900 0.7890 0.7890 0.7870
2057.951396 0.7850 0.7850 0.7840 0.7840 0.7820
2064.536142 0.7810 0.7810 0.7800 0.7780 0.7780
2071.120888 0.7770 0.7770 0.7770 0.7770 0.7770
2077.705634 0.7770 0.7770 0.7760 0.7760 0.7760
2084.290380 0.7760 0.7760 0.7740 0.7730 0.7700
2090.875126 0.7680 0.7670 0.7640 0.7640 0.7630
2097.459872 0.7630 0.7610 0.7610 0.7600 0.7600
2104.044618 0.7600 0.7600 0.7590 0.7590 0.7560
2110.629364 0.7550 0.7550 0.7530 0.7510 0.7510
2117.214110 0.7500 0.7500 0.7480 0.7480 0.7470
2123.798856 0.7470 0.7460 0.7440 0.7440 0.7430
2130.383602 0.7420 0.7400 0.7390 0.7380 0.7360
2136.968348 0.7340 0.7340 0.7320 0.7320 0.7320
2143.553094 0.7320 0.7310 0.7310 0.7310 0.7290
2150.137840 0.7290 0.7260 0.7260 0.7250 0.7250
2156.722586 0.7230 0.7230 0.7230 0.7230 0.7230
2163.307332 0.7220 0.7210 0.7190 0.7180 0.7180
2169.892078 0.7170 0.7170 0.7150 0.7140 0.7140
2176.476824 0.7130 0.7130 0.7100 0.7080 0.7080
2183.061570 0.7060 0.7060 0.7050 0.7050 0.7050
2189.646316 0.7040 0.7040 0.7020 0.7020 0.7010
2196.231062 0.7010 0.7000 0.7000 0.6980 0.6980
2202.815808 0.6970 0.6970 0.6960 0.6960 0.6950
2209.400554 0.6930 0.6920 0.6890 0.6850 0.6840
2215.985300 0.6830 0.6830 0.6810 0.6810 0.6800
2222.570046 0.6790 0.6780 0.6760 0.6750 0.6750
2229.154791 0.6740 0.6720 0.6720 0.6710 0.6700
2235.739537 0.6680 0.6670 0.6660 0.6660 0.6630
2242.324283 0.6620 0.6590 0.6580 0.6570 0.6550
2248.909029 0.6540 0.6540 0.6540 0.6530 0.6530
2255.493775 0.6510 0.6510 0.6500 0.6490 0.6470
2262.078521 0.6460 0.6450 0.6420 0.6420 0.6410
2268.663267 0.6410 0.6400 0.6400 0.6380 0.6380
2275.248013 0.6370 0.6360 0.6340 0.6330 0.6320
2281.832759 0.6320 0.6300 0.6290 0.6280 0.6260
2288.417505 0.6260 0.6240 0.6210 0.6200 0.6190
2295.002251 0.6190 0.6170 0.6160 0.6150 0.6130
2301.586997 0.6120 0.6110 0.6090 0.6080 0.6080
2308.171743 0.6070 0.6060 0.6040 0.6020 0.5990
2314.756489 0.5980 0.5960 0.5950 0.5940 0.5920
2321.341235 0.5900 0.5860 0.5830 0.5790 0.5770
2327.925981 0.5740 0.5730 0.5710 0.5710 0.5710
2334.510727 0.5700 0.5700 0.5700 0.5690 0.5680
2341.095473 0.5660 0.5650 0.5620 0.5600 0.5570
2347.680219 0.5540 0.5520 0.5490 0.5480 0.5450
2354.264965 0.5440 0.5440 0.5430 0.5430 0.5410
2360.849711 0.5400 0.5400 0.5390 0.5370 0.5360
2367.434457 0.5350 0.5340 0.5320 0.5310 0.5300
2374.019203 0.5300 0.5280 0.5280 0.5270 0.5260
2380.603949 0.5230 0.5220 0.5220 0.5190 0.5180
2387.188695 0.5170 0.5150 0.5130 0.5100 0.5090
2393.773441 0.5060 0.5030 0.5010 0.5000 0.4970
2400.358187 0.4960 0.4930 0.4920 0.4890 0.4880
2406.942933 0.4860 0.4850 0.4840 0.4800 0.4790
2413.527679 0.4760 0.4750 0.4730 0.4710 0.4680
2420.112425 0.4670 0.4650 0.4630 0.4620 0.4560
2426.697171 0.4550 0.4540 0.4540 0.4520 0.4510
2433.281917 0.4500 0.4500 0.4480 0.4470 0.4460
2439.866663 0.4450 0.4430 0.4420 0.4410 0.4390
2446.451409 0.4380 0.4370 0.4340 0.4310 0.4290
2453.036155 0.4280 0.4260 0.4260 0.4240 0.4210
2459.620900 0.4170 0.4140 0.4100 0.4080 0.4050
2466.205646 0.4040 0.4030 0.4000 0.3990 0.3970
2472.790392 0.3970 0.3960 0.3950 0.3930 0.3910
2479.375138 0.3900 0.3880 0.3880 0.3870 0.3870
2485.959884 0.3860 0.3840 0.3840 0.3830 0.3830
2492.544630 0.3820 0.3800 0.3800 0.3790 0.3780
2499.129376 0.3760 0.3760 0.3750 0.3740 0.3740
2505.714122 0.3740 0.3740 0.3730 0.3730 0.3730
2512.298868 0.3710 0.3710 0.3700 0.3700 0.3700
2518.883614 0.3700 0.3700 0.3700 0.3700 0.3700
2525.468360 0.3700 0.3700 0.3700 0.3700 0.3700
2532.053106 0.3700 0.3700 0.3700 0.3700 0.3700
2538.637852 0.3710 0.3710 0.3710 0.3710 0.3710
2545.222598 0.3710 0.3710 0.3710 0.3710 0.3710
2551.807344 0.3710 0.3710 0.3710 0.3730 0.3730
2558.392090 0.3730 0.3730 0.3730 0.3730 0.3740
2564.976836 0.3740 0.3750 0.3750 0.3760 0.3760
2571.561582 0.3780 0.3790 0.3790 0.3800 0.3820
2578.146328 0.3820 0.3820 0.3820 0.3820 0.3830
2584.731074 0.3830 0.3830 0.3830 0.3830 0.3830
2591.315820 0.3840 0.3840 0.3860 0.3860 0.3860
2597.900566 0.3870 0.3870 0.3870 0.3870 0.3870
2604.485312 0.3860 0.3860 0.3860 0.3840 0.3840
2611.070058 0.3830 0.3820 0.3800 0.3800 0.3790
2617.654804 0.3790 0.3790 0.3790 0.3800 0.3800
2624.239550 0.3800 0.3800 0.3800 0.3800 0.3820
2630.824296 0.3830 0.3840 0.3840 0.3860 0.3870
2637.409042 0.3870 0.3880 0.3880 0.3880 0.3880
2643.993788 0.3880 0.3880 0.3880 0.3880 0.3870
2650.578534 0.3870 0.3870 0.3880 0.3880 0.3880
2657.163280 0.3880 0.3880 0.3880 0.3870 0.3870
2663.748026 0.3870 0.3870 0.3870 0.3870 0.3880
2670.332772 0.3880 0.3880 0.3870 0.3870 0.3860
2676.917518 0.3840 0.3830 0.3800 0.3800 0.3790
2683.502264 0.3790 0.3790 0.3790 0.3790 0.3790
2690.087009 0.3790 0.3780 0.3780 0.3750 0.3740
2696.671755 0.3730 0.3710 0.3700 0.3690 0.3670
2703.256501 0.3670 0.3660 0.3660 0.3650 0.3650
2709.841247 0.3650 0.3620 0.3620 0.3610 0.3590
2716.425993 0.3580 0.3570 0.3560 0.3540 0.3520
2723.010739 0.3500 0.3500 0.3490 0.3460 0.3450
2729.595485 0.3440 0.3440 0.3420 0.3410 0.3390
2736.180231 0.3370 0.3360 0.3360 0.3360 0.3360
2742.764977 0.3350 0.3350 0.3350 0.3330 0.3320
2749.349723 0.3310 0.3290 0.3280 0.3270 0.3250
2755.934469 0.3240 0.3230 0.3210 0.3210 0.3200
2762.519215 0.3190 0.3180 0.3150 0.3120 0.3120
2769.103961 0.3110 0.3100 0.3080 0.3070 0.3060
2775.688707 0.3040 0.3040 0.3030 0.3020 0.3020
2782.273453 0.3010 0.2990 0.2990 0.2980 0.2950
2788.858199 0.2950 0.2940 0.2940 0.2930 0.2930
2795.442945 0.2910 0.2910 0.2900 0.2900 0.2890
2802.027691 0.2890 0.2870 0.2870 0.2870 0.2860
2808.612437 0.2860 0.2860 0.2850 0.2850 0.2850
2815.197183 0.2850 0.2850 0.2850 0.2850 0.2850
2821.781929 0.2860 0.2870 0.2870 0.2890 0.2890
2828.366675 0.2890 0.2890 0.2900 0.2900 0.2900
2834.951421 0.2900 0.2900 0.2900 0.2910 0.2910
2841.536167 0.2910 0.2910 0.2930 0.2930 0.2930
2848.120913 0.2930 0.2950 0.2950 0.2950 0.2970
2854.705659 0.2970 0.2980 0.2980 0.2990 0.2990
2861.290405 0.3010 0.3010 0.3020 0.3020 0.3020
2867.875151 0.3020 0.3020 0.3030 0.3040 0.3040
2874.459897 0.3040 0.3060 0.3060 0.3060 0.3060
2881.044643 0.3060 0.3070 0.3070 0.3070 0.3070
2887.629389 0.3080 0.3080 0.3080 0.3080 0.3080
2894.214135 0.3080 0.3080 0.3080 0.3080 0.3080
2900.798881 0.3080 0.3080 0.3070 0.3070 0.3070
2907.383627 0.3060 0.3060 0.3060 0.3040 0.3030
2913.968373 0.3030 0.3020 0.3020 0.3010 0.2990
2920.553119 0.2990 0.2970 0.2950 0.2950 0.2940
2927.137864 0.2930 0.2910 0.2910 0.2910 0.2910
2933.722610 0.2910 0.2910 0.2910 0.2910 0.2910
2940.307356 0.2910 0.2910 0.2910 0.2910 0.2910
2946.892102 0.2910 0.2910 0.2900 0.2900 0.2900
2953.476848 0.2900 0.2890 0.2890 0.2890 0.2870
2960.061594 0.2860 0.2850 0.2820 0.2800 0.2770
2966.646340 0.2740 0.2730 0.2720 0.2720 0.2690
2973.231086 0.2680 0.2670 0.2670 0.2670 0.2650
2979.815832 0.2650 0.2650 0.2640 0.2640 0.2640
2986.400578 0.2630 0.2630 0.2630 0.2630 0.2630
2992.985324 0.2630 0.2630 0.2630 0.2630 0.2630
2999.570070 0.2630 0.2610 0.2610 0.2600 0.2600
3006.154816 0.2590 0.2560 0.2530 0.2510 0.2510
3012.739562 0.2500 0.2480 0.2460 0.2430 0.2420
3019.324308 0.2400 0.2390 0.2380 0.2360 0.2350
3025.909054 0.2340 0.2340 0.2320 0.2320 0.2310
3032.493800 0.2300 0.2260 0.2230 0.2220 0.2210
3039.078546 0.2190 0.2180 0.2170 0.2140 0.2120
3045.663292 0.2080 0.2040 0.2040 0.2010 0.2010
3052.248038 0.1980 0.1980 0.1970 0.1950 0.1950
3058.832784 0.1930 0.1930 0.1920 0.1920 0.1910
3065.417530 0.1910 0.1910 0.1910 0.1920 0.1920
3072.002276 0.1920 0.1930 0.1950 0.1950 0.1960
3078.587022 0.1970 0.1970 0.1980 0.1980 0.1980
3085.171768 0.1970 0.1970 0.1970 0.1960 0.1950
3091.756514 0.1930 0.1920 0.1880 0.1850 0.1840
3098.341260 0.1810 0.1790 0.1720 0.1680 0.1680
3104.926006 0.1670 0.1660 0.1640 0.1630 0.1630
3111.510752 0.1620 0.1620 0.1600 0.1590 0.1590
3118.095498 0.1580 0.1570 0.1570 0.1540 0.1540
3124.680244 0.1510 0.1490 0.1470 0.1470 0.1460
3131.264990 0.1460 0.1460 0.1460 0.1460 0.1460
3137.849736 0.1460 0.1460 0.1460 0.1460 0.1460
3144.434482 0.1460 0.1460 0.1460 0.1460 0.1460
3151.019228 0.1460 0.1460 0.1460 0.1460 0.1460
3157.603973 0.1460 0.1460 0.1460 0.1460 0.1470
3164.188719 0.1470 0.1490 0.1500 0.1540 0.1550
3170.773465 0.1570 0.1600 0.1640 0.1700 0.1760
3177.358211 0.1810 0.1880 0.1930 0.2000 0.2050
3183.942957 0.2150 0.2190 0.2250 0.2311 0.2400
3190.527703 0.2480 0.2560 0.2640 0.2690 0.2720
3197.112449 0.2760 0.2800 0.2850 0.2890 0.2950
3203.697195 0.3010 0.3060 0.3100 0.3150 0.3180
3210.281941 0.3200 0.3210 0.3230 0.3240 0.3240
3216.866687 0.3250 0.3250 0.3270 0.3270 0.3280
3223.451433 0.3280 0.3280 0.3290 0.3320 0.3330
3230.036179 0.3360 0.3360 0.3370 0.3370 0.3370
3236.620925 0.3370 0.3360 0.3360 0.3350 0.3320
3243.205671 0.3320 0.3310 0.3290 0.3250 0.3240
3249.790417 0.3230 0.3230 0.3230 0.3230 0.3210
3256.375163 0.3210 0.3210 0.3210 0.3210 0.3210
3262.959909 0.3210 0.3210 0.3210 0.3200 0.3190
3269.544655 0.3190 0.3180 0.3160 0.3160 0.3150
3276.129401 0.3100 0.3060 0.3030 0.2980 0.2930
3282.714147 0.2890 0.2870 0.2860 0.2860 0.2860
3289.298893 0.2870 0.2890 0.2900 0.2930 0.2970
3295.883639 0.3010 0.3070 0.3100 0.3150 0.3280
3302.468385 0.3360 0.3420 0.3450 0.3490 0.3540
3309.053131 0.3560 0.3610 0.3620 0.3620 0.3630
3315.637877 0.3630 0.3610 0.3590 0.3570 0.3530
3322.222623 0.3490 0.3420 0.3390 0.3330 0.3270
3328.807369 0.3230 0.3190 0.3150 0.3149 0.3060
3335.392115 0.3020 0.2990 0.2940 0.2890 0.2860
3341.976861 0.2860 0.2860 0.2870 0.2890 0.2910
3348.561607 0.2940 0.2980 0.3060 0.3180 0.3200
3355.146353 0.3280 0.3330 0.3390 0.3411 0.3530
3361.731099 0.3540 0.3560 0.3560 0.3540 0.3520
3368.315845 0.3480 0.3410 0.3360 0.3290 0.3280
3374.900591 0.3290 0.3320 0.3360 0.3400 0.3450
3381.485337 0.3520 0.3581 0.3651 0.3730 0.3800
3388.070082 0.3881 0.4050 0.4130 0.4210 0.4290
3394.654828 0.4350 0.4421 0.4500 0.4550 0.4620
3401.239574 0.4690 0.4770 0.4850 0.4960 0.5070
3407.824320 0.5200 0.5351 0.5531 0.5691 0.5791
3414.409066 0.5900 0.5980 0.6070 0.6150 0.6210
3420.993812 0.6260 0.6300 0.6331 0.6410 0.6460
3427.578558 0.6500 0.6510 0.6540 0.6550 0.6570
3434.163304 0.6580 0.6600 0.6620 0.6640 0.6660
3440.748050 0.6670 0.6670 0.6680 0.6680 0.6700
3447.332796 0.6710 0.6720 0.6740 0.6740 0.6750
3453.917542 0.6760 0.6760 0.6780 0.6780 0.6790
3460.502288 0.6790 0.6790 0.6800 0.6800 0.6800
3467.087034 0.6810 0.6810 0.6810 0.6810 0.6810
3473.671780 0.6810 0.6830 0.6830 0.6830 0.6840
3480.256526 0.6850 0.6850 0.6870 0.6870 0.6880
3486.841272 0.6880 0.6880 0.6890 0.6910 0.6910
3493.426018 0.6920 0.6920 0.6920 0.6930 0.6930
3500.010764 0.6950 0.6950 0.6960 0.6960 0.6960
3506.595510 0.6970 0.6970 0.6970 0.6980 0.6980
3513.180256 0.7000 0.7000 0.7010 0.7010 0.7050
3519.765002 0.7050 0.7060 0.7080 0.7080 0.7090
3526.349748 0.7100 0.7100 0.7120 0.7130 0.7130
3532.934494 0.7130 0.7140 0.7150 0.7150 0.7170
3539.519240 0.7190 0.7210 0.7220 0.7230 0.7230
3546.103986 0.7230 0.7250 0.7250 0.7260 0.7260
3552.688732 0.7270 0.7270 0.7290 0.7310 0.7320
3559.273478 0.7340 0.7350 0.7360 0.7380 0.7390
3565.858224 0.7400 0.7420 0.7420 0.7420 0.7420
3572.442970 0.7430 0.7440 0.7470 0.7480 0.7500
3579.027716 0.7500 0.7520 0.7530 0.7530 0.7550
3585.612462 0.7550 0.7550 0.7550 0.7550 0.7550
3592.197208 0.7560 0.7560 0.7590 0.7600 0.7610
3598.781954 0.7630 0.7630 0.7630 0.7640 0.7640
3605.366700 0.7650 0.7670 0.7680 0.7700 0.7720
3611.951446 0.7720 0.7730 0.7730 0.7740 0.7740
3618.536191 0.7760 0.7760 0.7760 0.7760 0.7770
3625.120937 0.7770 0.7770 0.7770 0.7770 0.7770
3631.705683 0.7770 0.7770 0.7770 0.7770 0.7770
3638.290429 0.7770 0.7770 0.7770 0.7770 0.7770
3644.875175 0.7770 0.7770 0.7770 0.7770 0.7770
3651.459921 0.7770 0.7770 0.7760 0.7760 0.7740
3658.044667 0.7740 0.7730 0.7730 0.7720 0.7680
3664.629413 0.7670 0.7650 0.7640 0.7640 0.7640
3671.214159 0.7630 0.7630 0.7630 0.7630 0.7610
3677.798905 0.7610 0.7610 0.7610 0.7610 0.7630
3684.383651 0.7630 0.7640 0.7640 0.7640 0.7640
3690.968397 0.7640 0.7640 0.7630 0.7630 0.7630
3697.553143 0.7630 0.7630 0.7610 0.7610 0.7600
3704.137889 0.7590 0.7570 0.7570 0.7570 0.7560
3710.722635 0.7560 0.7550 0.7550 0.7530 0.7530
3717.307381 0.7530 0.7530 0.7530 0.7530 0.7520
3723.892127 0.7510 0.7510 0.7500 0.7500 0.7480
3730.476873 0.7470 0.7470 0.7460 0.7440 0.7440
3737.061619 0.7440 0.7430 0.7430 0.7420 0.7420
3743.646365 0.7420 0.7400 0.7400 0.7390 0.7390
3750.231111 0.7390 0.7380 0.7380 0.7360 0.7360
3756.815857 0.7360 0.7360 0.7350 0.7350 0.7350
3763.400603 0.7350 0.7340 0.7340 0.7340 0.7340
3769.985349 0.7340 0.7340 0.7320 0.7320 0.7310
3776.570095 0.7310 0.7300 0.7300 0.7270 0.7270
3783.154841 0.7260 0.7260 0.7250 0.7250 0.7230
3789.739587 0.7230 0.7210 0.7210 0.7190 0.7190
3796.324333 0.7190 0.7180 0.7170 0.7150 0.7150
3802.909079 0.7140 0.7140 0.7140 0.7130 0.7130
3809.493825 0.7120 0.7120 0.7100 0.7100 0.7090
3816.078571 0.7090 0.7090 0.7080 0.7080 0.7080
3822.663317 0.7060 0.7060 0.7050 0.7040 0.7040
3829.248063 0.7040 0.7040 0.7020 0.7020 0.7020
3835.832809 0.7020 0.7020 0.7010 0.7010 0.7000
3842.417555 0.7000 0.7000 0.6980 0.6970 0.6970
3849.002301 0.6960 0.6960 0.6960 0.6950 0.6920
3855.587046 0.6920 0.6910 0.6910 0.6890 0.6880
3862.171792 0.6870 0.6870 0.6870 0.6870 0.6850
3868.756538 0.6850 0.6840 0.6840 0.6830 0.6830
3875.341284 0.6830 0.6810 0.6810 0.6800 0.6790
3881.926030 0.6790 0.6780 0.6780 0.6760 0.6750
3888.510776 0.6750 0.6750 0.6750 0.6740 0.6740
3895.095522 0.6740 0.6720 0.6720 0.6720 0.6720
3901.680268 0.6710 0.6710 0.6710 0.6700 0.6680
3908.265014 0.6680 0.6680 0.6670 0.6660 0.6660
3914.849760 0.6660 0.6660 0.6660 0.6660 0.6660
3921.434506 0.6660 0.6660 0.6660 0.6660 0.6660
3928.019252 0.6640 0.6640 0.6630 0.6630 0.6630
3934.603998 0.6630 0.6630 0.6630 0.6620 0.6600
3941.188744 0.6600 0.6600 0.6600 0.6600 0.6590
3947.773490 0.6590 0.6590 0.6590 0.6580 0.6580
3954.358236 0.6580 0.6580 0.6570 0.6570 0.6570
3960.942982 0.6550 0.6550 0.6540 0.6540 0.6540
3967.527728 0.6540 0.6540 0.6540 0.6540 0.6530
3974.112474 0.6530 0.6530 0.6530 0.6530 0.6530
3980.697220 0.6510 0.6510 0.6510 0.6510 0.6500
3987.281966 0.6490 0.6490 0.6490 0.6490 0.6470
3993.866712 0.6470 0.6470 0.6460
##END=
