##TITLE=7-OXABICYCLO[4.1.0]HEPTANE, OXIRANYL-
##JCAMP-DX=4.24
##DATA TYPE=INFRARED SPECTRUM
##CLASS=COBLENTZ III
##ORIGIN=STANDARD OIL OF OHIO
##OWNER=COBLENTZ SOCIETY
Collection (C) 2018 copyright by the U.S. Secretary of Commerce
on behalf of the United States of America. All rights reserved.
##DATE=1966/06/20
##NAMES=VINYLCYCLOHEXENE DIOXIDE
##MOLFORM=C8 H12 O2
##SOURCE REFERENCE=COBLENTZ NO. 10234
##$NIST ID=B6010234
##$NIST SOURCE=COBLENTZ
##$NIST IMAGE=cob10234
##SPECTROMETER/DATA SYSTEM=PERKIN-ELMER 521 (GRATING)
##INSTRUMENT PARAMETERS=FILTERS AT 3150, 2500, 2000, 1150, 700, 410 AND GRATING CHANGES AT 2000, 630 CM^-^1
##STATE=LIQUID (NEAT)
##PATH LENGTH=0.0015 CM KBr CELL
##SAMPLING PROCEDURE=TRANSMISSION
##RESOLUTION=4
##DATA PROCESSING=DIGITIZED BY NIST FROM HARD COPY (FROM TWO SEGMENTS)
##XUNITS=1/CM
##YUNITS=TRANSMITTANCE
##XFACTOR=1.000000
##YFACTOR=1
##DELTAX=0.954809
##FIRSTX=378.74
##LASTX=3993.65
##FIRSTY=0.626
##MAXX=3993.65
##MINX=378.74
##MAXY=0.988
##MINY=0.175
##NPOINTS=3787
##XYDATA=(X++(Y..Y))
378.740000 0.6260 0.6330 0.6530 0.6570 0.6590
383.514043 0.6600 0.6610 0.6650 0.6700 0.6750
388.288086 0.6780 0.6820 0.6840 0.6850 0.6860
393.062129 0.6850 0.6830 0.6820 0.6800 0.6800
397.836171 0.6790 0.6790 0.6790 0.6780 0.6780
402.610214 0.6790 0.6790 0.6800 0.6860 0.6940
407.384257 0.7000 0.7050 0.7150 0.7300 0.7410
412.158300 0.7530 0.7670 0.7790 0.8019 0.8219
416.932343 0.8330 0.8350 0.8390 0.8420 0.8420
421.706386 0.8440 0.8460 0.8480 0.8520 0.8540
426.480428 0.8550 0.8570 0.8580 0.8610 0.8630
431.254471 0.8630 0.8650 0.8660 0.8690 0.8710
436.028514 0.8710 0.8710 0.8710 0.8700 0.8700
440.802557 0.8690 0.8670 0.8660 0.8650 0.8630
445.576600 0.8590 0.8530 0.8510 0.8460 0.8350
450.350643 0.8300 0.8280 0.8270 0.8220 0.8190
455.124685 0.8130 0.8070 0.8020 0.7860 0.7760
459.898728 0.7710 0.7690 0.7670 0.7690 0.7700
464.672771 0.7710 0.7710 0.7690 0.7550 0.7420
469.446814 0.7171 0.7090 0.7080 0.7090 0.7259
474.220857 0.7390 0.7480 0.7510 0.7520 0.7510
478.994900 0.7410 0.7230 0.7011 0.7000 0.7010
483.768942 0.7100 0.7200 0.7450 0.7720 0.8020
488.542985 0.8279 0.8529 0.8709 0.8820 0.8910
493.317028 0.8970 0.9030 0.9080 0.9100 0.9140
498.091071 0.9160 0.9170 0.9190 0.9200 0.9210
502.865114 0.9210 0.9230 0.9250 0.9260 0.9270
507.639157 0.9270 0.9280 0.9280 0.9280 0.9280
512.413199 0.9280 0.9290 0.9300 0.9300 0.9300
517.187242 0.9290 0.9280 0.9270 0.9250 0.9230
521.961285 0.9220 0.9210 0.9160 0.9130 0.9090
526.735328 0.9070 0.9020 0.9000 0.8900 0.8820
531.509371 0.8730 0.8630 0.8520 0.8400 0.8330
536.283414 0.8150 0.7971 0.7801 0.7780 0.7780
541.057457 0.7800 0.7920 0.8040 0.8200 0.8350
545.831499 0.8480 0.8630 0.8750 0.8850 0.8959
550.605542 0.9040 0.9100 0.9130 0.9140 0.9160
555.379585 0.9170 0.9170 0.9190 0.9190 0.9170
560.153628 0.9140 0.9130 0.9100 0.9080 0.9080
564.927671 0.9070 0.9050 0.9010 0.8900 0.8880
569.701714 0.8890 0.8910 0.8970 0.9030 0.9130
574.475756 0.9140 0.9150 0.9150 0.9190 0.9210
579.249799 0.9280 0.9340 0.9390 0.9440 0.9450
584.023842 0.9460 0.9470 0.9500 0.9510 0.9510
588.797885 0.9510 0.9510 0.9520 0.9520 0.9520
593.571928 0.9530 0.9530 0.9530 0.9530 0.9540
598.345971 0.9550 0.9550 0.9570 0.9570 0.9580
603.120013 0.9580 0.9600 0.9600 0.9610 0.9630
607.894056 0.9630 0.9640 0.9650 0.9650 0.9660
612.668099 0.9670 0.9670 0.9690 0.9700 0.9700
617.442142 0.9710 0.9720 0.9720 0.9730 0.9750
622.216185 0.9750 0.9760 0.9770 0.9770 0.9780
626.990228 0.9780 0.9790 0.9790 0.9790 0.9790
631.764270 0.9790 0.9800 0.9800 0.9800 0.9800
636.538313 0.9800 0.9800 0.9790 0.9780 0.9670
641.312356 0.9600 0.9530 0.9500 0.9470 0.9470
646.086399 0.9460 0.9460 0.9470 0.9510 0.9520
650.860442 0.9550 0.9610 0.9610 0.9590 0.9570
655.634485 0.9510 0.9470 0.9340 0.9280 0.9300
660.408527 0.9400 0.9470 0.9480 0.9480 0.9530
665.182570 0.9590 0.9650 0.9690 0.9720 0.9730
669.956613 0.9760 0.9770 0.9780 0.9790 0.9820
674.730656 0.9830 0.9840 0.9850 0.9880 0.9880
679.504699 0.9850 0.9820 0.9820 0.9790 0.9780
684.278742 0.9760 0.9750 0.9730 0.9720 0.9710
689.052785 0.9710 0.9700 0.9700 0.9710 0.9710
693.826827 0.9710 0.9710 0.9720 0.9730 0.9730
698.600870 0.9750 0.9760 0.9760 0.9760 0.9760
703.374913 0.9760 0.9760 0.9760 0.9750 0.9750
708.148956 0.9730 0.9720 0.9720 0.9710 0.9700
712.922999 0.9700 0.9690 0.9660 0.9600 0.9580
717.697042 0.9540 0.9520 0.9510 0.9480 0.9480
722.471084 0.9400 0.9360 0.9320 0.9260 0.9170
727.245127 0.9070 0.8980 0.8840 0.8671 0.8501
732.019170 0.8340 0.8110 0.7860 0.7580 0.7270
736.793213 0.7000 0.6721 0.6471 0.6440 0.6440
741.567256 0.6500 0.6690 0.6860 0.7040 0.7260
746.341299 0.7390 0.7510 0.7570 0.7729 0.7999
751.115341 0.8080 0.8160 0.8250 0.8290 0.8290
755.889384 0.8200 0.8170 0.8140 0.8140 0.8190
760.663427 0.8220 0.8260 0.8320 0.8350 0.8360
765.437470 0.8350 0.8230 0.8130 0.7971 0.7711
770.211513 0.7339 0.6980 0.6750 0.6530 0.6390
774.985556 0.6200 0.6030 0.5701 0.5301 0.4802
779.759598 0.4079 0.3449 0.2910 0.2390 0.2380
784.533641 0.2400 0.2580 0.2780 0.2979 0.3080
789.307684 0.3210 0.3300 0.3360 0.3540 0.3910
794.081727 0.4349 0.4939 0.5379 0.5719 0.5979
798.855770 0.6220 0.6450 0.6470 0.6470 0.6110
803.629813 0.5591 0.5151 0.4571 0.3952 0.3452
808.403855 0.2970 0.2730 0.2720 0.2780 0.2960
813.177898 0.3220 0.3639 0.4109 0.4728 0.5468
817.951941 0.6021 0.6441 0.6840 0.7190 0.7450
822.725984 0.7610 0.7720 0.7770 0.7770 0.7750
827.500027 0.7730 0.7690 0.7610 0.7570 0.7400
832.274070 0.7210 0.7010 0.6790 0.6501 0.6231
837.048113 0.5899 0.5500 0.5190 0.4760 0.4380
841.822155 0.3980 0.3640 0.3361 0.3141 0.2881
846.596198 0.2710 0.2630 0.2580 0.2530 0.2440
851.370241 0.2340 0.2270 0.2250 0.2260 0.2340
856.144284 0.2470 0.2650 0.2830 0.2910 0.2980
860.918327 0.3010 0.3130 0.3250 0.3409 0.3530
865.692370 0.3630 0.3650 0.3670 0.3700 0.3650
870.466412 0.3510 0.3400 0.3380 0.3390 0.3669
875.240455 0.4071 0.4690 0.5080 0.5520 0.5800
880.014498 0.6040 0.6319 0.6510 0.6699 0.6939
884.788541 0.7070 0.7150 0.7160 0.7150 0.7030
889.562584 0.6970 0.6830 0.6650 0.6520 0.6400
894.336627 0.6250 0.6200 0.6200 0.6260 0.6460
899.110669 0.6630 0.6780 0.6920 0.7000 0.7000
903.884712 0.6769 0.6280 0.6150 0.6010 0.5660
908.658755 0.5590 0.5590 0.5700 0.5730 0.5720
913.432798 0.5630 0.5420 0.5080 0.4800 0.4480
918.206841 0.4380 0.4380 0.4440 0.4639 0.4829
922.980884 0.5090 0.5330 0.5420 0.5600 0.5710
927.754926 0.5920 0.6030 0.6220 0.6469 0.6629
932.528969 0.6780 0.6960 0.7040 0.7090 0.7090
937.303012 0.7040 0.6980 0.6880 0.6790 0.6790
942.077055 0.6820 0.6900 0.6980 0.7030 0.7200
946.851098 0.7300 0.7390 0.7410 0.7450 0.7480
951.625141 0.7510 0.7530 0.7610 0.7630 0.7630
956.399183 0.7630 0.7600 0.7530 0.7480 0.7360
961.173226 0.7130 0.6980 0.6770 0.6570 0.6260
965.947269 0.5760 0.5340 0.4961 0.4890 0.4890
970.721312 0.4980 0.5171 0.5450 0.5820 0.6000
975.495355 0.6050 0.6100 0.6150 0.6290 0.6410
980.269398 0.6480 0.6480 0.6480 0.6440 0.6390
985.043441 0.6210 0.5960 0.5591 0.5540 0.5540
989.817483 0.5641 0.5881 0.6281 0.6770 0.7230
994.591526 0.7540 0.7770 0.7960 0.8010 0.8020
999.365569 0.8010 0.7980 0.7950 0.7940 0.7940
1004.139612 0.7970 0.8020 0.8080 0.8100 0.8170
1008.913655 0.8220 0.8280 0.8330 0.8360 0.8460
1013.687698 0.8530 0.8540 0.8540 0.8540 0.8530
1018.461740 0.8510 0.8420 0.8360 0.8320 0.8290
1023.235783 0.8270 0.8230 0.8200 0.8190 0.8160
1028.009826 0.8100 0.8070 0.8020 0.7980 0.7880
1032.783869 0.7780 0.7730 0.7690 0.7660 0.7650
1037.557912 0.7650 0.7670 0.7690 0.7700 0.7720
1042.331955 0.7710 0.7710 0.7700 0.7700 0.7700
1047.105997 0.7720 0.7780 0.7960 0.8100 0.8270
1051.880040 0.8420 0.8470 0.8530 0.8610 0.8660
1056.654083 0.8690 0.8700 0.8700 0.8670 0.8650
1061.428126 0.8580 0.8510 0.8500 0.8450 0.8440
1066.202169 0.8420 0.8440 0.8470 0.8510 0.8570
1070.976212 0.8640 0.8670 0.8700 0.8720 0.8730
1075.750254 0.8750 0.8750 0.8760 0.8770 0.8790
1080.524297 0.8800 0.8880 0.8900 0.8940 0.8970
1085.298340 0.8970 0.8960 0.8940 0.8940 0.8960
1090.072383 0.8970 0.8970 0.8970 0.8960 0.8940
1094.846426 0.8940 0.8910 0.8840 0.8830 0.8770
1099.620469 0.8700 0.8640 0.8580 0.8510 0.8480
1104.394511 0.8410 0.8380 0.8360 0.8350 0.8350
1109.168554 0.8350 0.8350 0.8340 0.8280 0.8220
1113.942597 0.8110 0.8010 0.7960 0.7890 0.7880
1118.716640 0.7880 0.7860 0.7820 0.7760 0.7720
1123.490683 0.7690 0.7580 0.7510 0.7450 0.7360
1128.264726 0.7300 0.7290 0.7350 0.7420 0.7480
1133.038769 0.7530 0.7590 0.7690 0.7730 0.7770
1137.812811 0.7780 0.7780 0.7760 0.7750 0.7750
1142.586854 0.7760 0.7800 0.7840 0.7910 0.7980
1147.360897 0.8030 0.8110 0.8210 0.8270 0.8290
1152.134940 0.8300 0.8300 0.8300 0.8290 0.8280
1156.908983 0.8280 0.8280 0.8280 0.8280 0.8270
1161.683026 0.8260 0.8220 0.8200 0.8190 0.8170
1166.457068 0.8190 0.8200 0.8200 0.8190 0.8190
1171.231111 0.8170 0.8160 0.8160 0.8170 0.8230
1176.005154 0.8340 0.8470 0.8580 0.8690 0.8780
1180.779197 0.8840 0.8960 0.9010 0.9040 0.9070
1185.553240 0.9080 0.9080 0.9080 0.9080 0.9080
1190.327283 0.9090 0.9090 0.9050 0.9030 0.9010
1195.101325 0.9010 0.9000 0.9000 0.9000 0.8980
1199.875368 0.8970 0.8950 0.8920 0.8900 0.8880
1204.649411 0.8850 0.8820 0.8780 0.8750 0.8690
1209.423454 0.8530 0.8460 0.8360 0.8220 0.8030
1214.197497 0.7910 0.7890 0.7890 0.7910 0.7970
1218.971540 0.8100 0.8210 0.8280 0.8380 0.8410
1223.745582 0.8420 0.8410 0.8380 0.8350 0.8320
1228.519625 0.8280 0.8230 0.8150 0.8030 0.7940
1233.293668 0.7700 0.7630 0.7340 0.7041 0.6821
1238.067711 0.6519 0.6279 0.6000 0.5750 0.5650
1242.841754 0.5650 0.5660 0.5710 0.5720 0.5700
1247.615797 0.5610 0.5600 0.5580 0.5550 0.5530
1252.389839 0.5510 0.5480 0.5480 0.5470 0.5480
1257.163882 0.5500 0.5590 0.5760 0.5980 0.6290
1261.937925 0.6660 0.6950 0.7170 0.7350 0.7510
1266.711968 0.7640 0.7690 0.7780 0.7840 0.7900
1271.486011 0.8020 0.8140 0.8170 0.8250 0.8300
1276.260054 0.8410 0.8480 0.8510 0.8570 0.8580
1281.034097 0.8590 0.8580 0.8570 0.8520 0.8510
1285.808139 0.8480 0.8450 0.8410 0.8390 0.8330
1290.582182 0.8280 0.8210 0.8100 0.8000 0.7950
1295.356225 0.7950 0.7980 0.8040 0.8260 0.8400
1300.130268 0.8500 0.8610 0.8730 0.8830 0.8890
1304.904311 0.8980 0.9000 0.9010 0.9070 0.9110
1309.678354 0.9140 0.9140 0.9150 0.9140 0.9140
1314.452396 0.9110 0.9110 0.9070 0.9040 0.9020
1319.226439 0.9010 0.9000 0.8920 0.8890 0.8850
1324.000482 0.8830 0.8790 0.8720 0.8690 0.8640
1328.774525 0.8540 0.8480 0.8380 0.8200 0.7920
1333.548568 0.7710 0.7580 0.7480 0.7450 0.7440
1338.322611 0.7450 0.7460 0.7480 0.7500 0.7510
1343.096653 0.7580 0.7700 0.7820 0.7830 0.7800
1347.870696 0.7750 0.7690 0.7600 0.7530 0.7420
1352.644739 0.7420 0.7510 0.7650 0.7760 0.7860
1357.418782 0.7970 0.8170 0.8190 0.8190 0.8170
1362.192825 0.8160 0.8150 0.8130 0.8130 0.8150
1366.966868 0.8270 0.8400 0.8580 0.8630 0.8650
1371.740910 0.8670 0.8700 0.8720 0.8750 0.8760
1376.514953 0.8760 0.8770 0.8770 0.8770 0.8770
1381.288996 0.8780 0.8780 0.8770 0.8730 0.8710
1386.063039 0.8660 0.8610 0.8520 0.8410 0.8300
1390.837082 0.8250 0.8150 0.7969 0.7660 0.7470
1395.611125 0.7360 0.7170 0.6940 0.6860 0.6860
1400.385167 0.6920 0.6940 0.7080 0.7150 0.7210
1405.159210 0.7220 0.7220 0.7170 0.7050 0.6910
1409.933253 0.6749 0.6550 0.6400 0.6360 0.6330
1414.707296 0.6300 0.6290 0.6250 0.6040 0.5830
1419.481339 0.5709 0.5530 0.5470 0.5380 0.5280
1424.255382 0.5150 0.5010 0.4710 0.4151 0.3711
1429.029425 0.3640 0.3701 0.3890 0.3970 0.4030
1433.803467 0.4250 0.4480 0.4670 0.4780 0.4880
1438.577510 0.5001 0.5201 0.5410 0.5441 0.5840
1443.351553 0.5880 0.5910 0.5920 0.5920 0.5940
1448.125596 0.5960 0.6051 0.6331 0.6750 0.6900
1452.899639 0.6960 0.7030 0.7160 0.7330 0.7540
1457.673682 0.7731 0.7950 0.8040 0.8090 0.8140
1462.447724 0.8150 0.8170 0.8170 0.8040 0.8020
1467.221767 0.8020 0.8010 0.7970 0.7790 0.7630
1471.995810 0.7510 0.7270 0.7030 0.6720 0.6470
1476.769853 0.6360 0.6350 0.6401 0.6651 0.6961
1481.543896 0.7280 0.7510 0.7910 0.8090 0.8150
1486.317939 0.8170 0.8250 0.8350 0.8510 0.8690
1491.091981 0.8760 0.8780 0.8820 0.8850 0.8880
1495.866024 0.8950 0.9000 0.9080 0.9130 0.9170
1500.640067 0.9200 0.9250 0.9260 0.9260 0.9260
1505.414110 0.9260 0.9270 0.9280 0.9280 0.9320
1510.188153 0.9330 0.9340 0.9350 0.9350 0.9380
1514.962196 0.9380 0.9390 0.9390 0.9410 0.9420
1519.736238 0.9450 0.9450 0.9440 0.9440 0.9440
1524.510281 0.9440 0.9440 0.9440 0.9450 0.9450
1529.284324 0.9460 0.9450 0.9450 0.9420 0.9410
1534.058367 0.9420 0.9450 0.9450 0.9460 0.9460
1538.832410 0.9460 0.9460 0.9460 0.9460 0.9450
1543.606453 0.9450 0.9450 0.9450 0.9450 0.9450
1548.380495 0.9450 0.9420 0.9420 0.9410 0.9400
1553.154538 0.9410 0.9410 0.9420 0.9420 0.9420
1557.928581 0.9420 0.9420 0.9410 0.9410 0.9400
1562.702624 0.9400 0.9390 0.9390 0.9360 0.9360
1567.476667 0.9360 0.9350 0.9340 0.9330 0.9330
1572.250710 0.9320 0.9300 0.9300 0.9290 0.9280
1577.024752 0.9280 0.9270 0.9270 0.9260 0.9260
1581.798795 0.9260 0.9260 0.9250 0.9250 0.9250
1586.572838 0.9250 0.9260 0.9260 0.9260 0.9250
1591.346881 0.9250 0.9230 0.9230 0.9230 0.9250
1596.120924 0.9230 0.9230 0.9220 0.9220 0.9220
1600.894967 0.9220 0.9230 0.9230 0.9230 0.9230
1605.669010 0.9230 0.9230 0.9230 0.9250 0.9260
1610.443052 0.9260 0.9250 0.9250 0.9250 0.9230
1615.217095 0.9230 0.9230 0.9230 0.9230 0.9220
1619.991138 0.9210 0.9190 0.9170 0.9170 0.9170
1624.765181 0.9170 0.9170 0.9170 0.9190 0.9190
1629.539224 0.9200 0.9200 0.9190 0.9170 0.9170
1634.313267 0.9170 0.9170 0.9190 0.9210 0.9280
1639.087309 0.9320 0.9340 0.9340 0.9350 0.9350
1643.861352 0.9350 0.9350 0.9350 0.9360 0.9380
1648.635395 0.9390 0.9390 0.9390 0.9390 0.9390
1653.409438 0.9390 0.9390 0.9400 0.9400 0.9400
1658.183481 0.9400 0.9400 0.9400 0.9410 0.9410
1662.957524 0.9410 0.9410 0.9410 0.9420 0.9440
1667.731566 0.9440 0.9450 0.9450 0.9450 0.9450
1672.505609 0.9460 0.9460 0.9460 0.9470 0.9470
1677.279652 0.9470 0.9480 0.9480 0.9500 0.9500
1682.053695 0.9480 0.9480 0.9480 0.9500 0.9480
1686.827738 0.9480 0.9480 0.9470 0.9480 0.9470
1691.601781 0.9460 0.9460 0.9440 0.9440 0.9420
1696.375823 0.9420 0.9420 0.9410 0.9410 0.9400
1701.149866 0.9400 0.9390 0.9390 0.9380 0.9380
1705.923909 0.9380 0.9360 0.9330 0.9320 0.9320
1710.697952 0.9300 0.9300 0.9300 0.9290 0.9260
1715.471995 0.9210 0.9190 0.9190 0.9170 0.9160
1720.246038 0.9150 0.9100 0.9070 0.9050 0.9040
1725.020080 0.9040 0.9020 0.9010 0.9010 0.9000
1729.794123 0.9000 0.9010 0.9030 0.9050 0.9080
1734.568166 0.9130 0.9160 0.9200 0.9230 0.9280
1739.342209 0.9330 0.9390 0.9450 0.9470 0.9480
1744.116252 0.9480 0.9480 0.9480 0.9480 0.9500
1748.890295 0.9510 0.9520 0.9520 0.9520 0.9520
1753.664338 0.9520 0.9520 0.9520 0.9520 0.9520
1758.438380 0.9520 0.9520 0.9510 0.9510 0.9510
1763.212423 0.9510 0.9510 0.9510 0.9510 0.9510
1767.986466 0.9500 0.9500 0.9500 0.9480 0.9480
1772.760509 0.9480 0.9480 0.9480 0.9480 0.9480
1777.534552 0.9480 0.9480 0.9480 0.9480 0.9500
1782.308595 0.9510 0.9520 0.9530 0.9530 0.9530
1787.082637 0.9530 0.9520 0.9520 0.9520 0.9520
1791.856680 0.9530 0.9540 0.9550 0.9550 0.9550
1796.630723 0.9550 0.9550 0.9550 0.9540 0.9540
1801.404766 0.9530 0.9520 0.9520 0.9520 0.9530
1806.178809 0.9530 0.9540 0.9540 0.9550 0.9550
1810.952852 0.9550 0.9550 0.9550 0.9540 0.9540
1815.726894 0.9540 0.9540 0.9550 0.9550 0.9550
1820.500937 0.9570 0.9570 0.9570 0.9550 0.9550
1825.274980 0.9540 0.9540 0.9540 0.9540 0.9550
1830.049023 0.9550 0.9550 0.9570 0.9570 0.9580
1834.823066 0.9570 0.9580 0.9580 0.9580 0.9590
1839.597109 0.9590 0.9590 0.9590 0.9570 0.9570
1844.371151 0.9570 0.9570 0.9570 0.9570 0.9570
1849.145194 0.9570 0.9570 0.9570 0.9570 0.9570
1853.919237 0.9570 0.9580 0.9580 0.9580 0.9570
1858.693280 0.9570 0.9570 0.9570 0.9580 0.9590
1863.467323 0.9590 0.9580 0.9570 0.9580 0.9580
1868.241366 0.9580 0.9580 0.9590 0.9580 0.9580
1873.015408 0.9580 0.9570 0.9570 0.9570 0.9570
1877.789451 0.9570 0.9570 0.9570 0.9550 0.9540
1882.563494 0.9540 0.9570 0.9580 0.9580 0.9580
1887.337537 0.9570 0.9570 0.9570 0.9580 0.9570
1892.111580 0.9540 0.9540 0.9540 0.9540 0.9550
1896.885623 0.9570 0.9570 0.9570 0.9570 0.9570
1901.659666 0.9570 0.9550 0.9550 0.9550 0.9540
1906.433708 0.9550 0.9550 0.9570 0.9570 0.9540
1911.207751 0.9540 0.9550 0.9550 0.9540 0.9540
1915.981794 0.9540 0.9520 0.9520 0.9520 0.9520
1920.755837 0.9520 0.9520 0.9520 0.9520 0.9520
1925.529880 0.9520 0.9520 0.9530 0.9520 0.9520
1930.303923 0.9510 0.9510 0.9520 0.9520 0.9520
1935.077965 0.9520 0.9520 0.9510 0.9510 0.9510
1939.852008 0.9510 0.9510 0.9510 0.9510 0.9510
1944.626051 0.9510 0.9510 0.9530 0.9530 0.9540
1949.400094 0.9540 0.9520 0.9510 0.9510 0.9510
1954.174137 0.9510 0.9510 0.9510 0.9510 0.9510
1958.948180 0.9510 0.9510 0.9510 0.9510 0.9530
1963.722222 0.9530 0.9530 0.9530 0.9530 0.9530
1968.496265 0.9530 0.9530 0.9530 0.9520 0.9520
1973.270308 0.9520 0.9520 0.9510 0.9510 0.9530
1978.044351 0.9530 0.9520 0.9510 0.9510 0.9500
1982.818394 0.9520 0.9520 0.9520 0.9510 0.9510
1987.592437 0.9500 0.9500 0.9500 0.9500 0.9500
1992.366479 0.9500 0.9500 0.9500 0.9500 0.9500
1997.140522 0.9500 0.9510 0.9520 0.9530 0.9535
2001.914565 0.9540 0.9545 0.9550 0.9550 0.9550
2006.688608 0.9550 0.9550 0.9545 0.9540 0.9555
2011.462651 0.9570 0.9570 0.9570 0.9575 0.9580
2016.236694 0.9575 0.9570 0.9570 0.9570 0.9570
2021.010736 0.9570 0.9570 0.9570 0.9561 0.9551
2025.784779 0.9550 0.9550 0.9550 0.9550 0.9545
2030.558822 0.9540 0.9545 0.9550 0.9550 0.9550
2035.332865 0.9550 0.9550 0.9545 0.9540 0.9535
2040.106908 0.9530 0.9535 0.9540 0.9540 0.9540
2044.880951 0.9536 0.9531 0.9526 0.9521 0.9520
2049.654994 0.9520 0.9520 0.9520 0.9520 0.9520
2054.429036 0.9524 0.9529 0.9530 0.9530 0.9530
2059.203079 0.9530 0.9534 0.9539 0.9540 0.9540
2063.977122 0.9536 0.9531 0.9526 0.9521 0.9520
2068.751165 0.9520 0.9516 0.9511 0.9514 0.9519
2073.525208 0.9520 0.9520 0.9516 0.9511 0.9506
2078.299251 0.9501 0.9500 0.9500 0.9500 0.9500
2083.073293 0.9508 0.9518 0.9516 0.9511 0.9510
2087.847336 0.9510 0.9510 0.9510 0.9518 0.9528
2092.621379 0.9530 0.9530 0.9526 0.9521 0.9520
2097.395422 0.9520 0.9524 0.9529 0.9530 0.9530
2102.169465 0.9530 0.9530 0.9530 0.9530 0.9530
2106.943508 0.9530 0.9530 0.9530 0.9530 0.9530
2111.717550 0.9530 0.9530 0.9530 0.9530 0.9530
2116.491593 0.9530 0.9530 0.9530 0.9530 0.9530
2121.265636 0.9530 0.9530 0.9530 0.9530 0.9534
2126.039679 0.9539 0.9540 0.9540 0.9540 0.9540
2130.813722 0.9537 0.9532 0.9530 0.9530 0.9530
2135.587765 0.9530 0.9530 0.9530 0.9527 0.9522
2140.361807 0.9520 0.9520 0.9520 0.9520 0.9520
2145.135850 0.9520 0.9523 0.9528 0.9524 0.9514
2149.909893 0.9510 0.9510 0.9500 0.9485 0.9480
2154.683936 0.9480 0.9480 0.9480 0.9477 0.9472
2159.457979 0.9470 0.9470 0.9473 0.9478 0.9480
2164.232022 0.9480 0.9480 0.9480 0.9477 0.9472
2169.006064 0.9470 0.9470 0.9470 0.9470 0.9464
2173.780107 0.9454 0.9450 0.9450 0.9450 0.9450
2178.554150 0.9450 0.9450 0.9450 0.9450 0.9450
2183.328193 0.9450 0.9447 0.9442 0.9440 0.9440
2188.102236 0.9440 0.9440 0.9440 0.9440 0.9440
2192.876279 0.9440 0.9440 0.9440 0.9435 0.9425
2197.650322 0.9420 0.9420 0.9420 0.9420 0.9420
2202.424364 0.9420 0.9417 0.9412 0.9410 0.9410
2207.198407 0.9410 0.9410 0.9410 0.9410 0.9407
2211.972450 0.9402 0.9400 0.9400 0.9400 0.9400
2216.746493 0.9400 0.9400 0.9400 0.9400 0.9398
2221.520536 0.9393 0.9390 0.9390 0.9390 0.9390
2226.294579 0.9390 0.9390 0.9390 0.9390 0.9392
2231.068621 0.9397 0.9400 0.9400 0.9398 0.9393
2235.842664 0.9390 0.9390 0.9390 0.9390 0.9388
2240.616707 0.9383 0.9380 0.9380 0.9380 0.9380
2245.390750 0.9376 0.9366 0.9360 0.9360 0.9360
2250.164793 0.9360 0.9358 0.9353 0.9350 0.9350
2254.938836 0.9350 0.9350 0.9350 0.9350 0.9350
2259.712878 0.9350 0.9350 0.9350 0.9350 0.9350
2264.486921 0.9348 0.9343 0.9340 0.9340 0.9342
2269.260964 0.9347 0.9350 0.9350 0.9350 0.9350
2274.035007 0.9350 0.9350 0.9350 0.9350 0.9350
2278.809050 0.9350 0.9350 0.9350 0.9350 0.9350
2283.583093 0.9350 0.9350 0.9350 0.9350 0.9350
2288.357135 0.9350 0.9350 0.9350 0.9350 0.9350
2293.131178 0.9350 0.9350 0.9352 0.9357 0.9365
2297.905221 0.9380 0.9397 0.9422 0.9444 0.9459
2302.679264 0.9471 0.9476 0.9483 0.9493 0.9500
2307.453307 0.9500 0.9500 0.9500 0.9501 0.9506
2312.227350 0.9510 0.9510 0.9511 0.9516 0.9520
2317.001392 0.9520 0.9521 0.9526 0.9530 0.9530
2321.775435 0.9530 0.9530 0.9530 0.9530 0.9531
2326.549478 0.9536 0.9540 0.9540 0.9541 0.9546
2331.323521 0.9550 0.9550 0.9550 0.9550 0.9550
2336.097564 0.9550 0.9549 0.9544 0.9539 0.9534
2340.871607 0.9529 0.9524 0.9519 0.9514 0.9510
2345.645650 0.9510 0.9511 0.9516 0.9522 0.9532
2350.419692 0.9540 0.9540 0.9540 0.9540 0.9540
2355.193735 0.9540 0.9540 0.9540 0.9540 0.9540
2359.967778 0.9539 0.9534 0.9530 0.9530 0.9529
2364.741821 0.9524 0.9520 0.9520 0.9520 0.9520
2369.515864 0.9521 0.9526 0.9531 0.9536 0.9540
2374.289907 0.9540 0.9539 0.9534 0.9529 0.9524
2379.063949 0.9519 0.9514 0.9508 0.9493 0.9479
2383.837992 0.9474 0.9470 0.9470 0.9470 0.9475
2388.612035 0.9480 0.9480 0.9481 0.9491 0.9500
2393.386078 0.9500 0.9500 0.9505 0.9510 0.9510
2398.160121 0.9510 0.9505 0.9500 0.9500 0.9500
2402.934164 0.9500 0.9499 0.9484 0.9470 0.9465
2407.708206 0.9460 0.9465 0.9470 0.9475 0.9480
2412.482249 0.9490 0.9500 0.9500 0.9500 0.9500
2417.256292 0.9500 0.9505 0.9510 0.9510 0.9510
2422.030335 0.9510 0.9510 0.9510 0.9510 0.9505
2426.804378 0.9500 0.9500 0.9500 0.9500 0.9500
2431.578421 0.9500 0.9500 0.9500 0.9500 0.9505
2436.352463 0.9510 0.9510 0.9510 0.9510 0.9510
2441.126506 0.9510 0.9510 0.9510 0.9510 0.9510
2445.900549 0.9510 0.9515 0.9520 0.9515 0.9510
2450.674592 0.9505 0.9500 0.9500 0.9500 0.9505
2455.448635 0.9510 0.9515 0.9520 0.9525 0.9530
2460.222678 0.9516 0.9501 0.9491 0.9481 0.9480
2464.996720 0.9480 0.9480 0.9480 0.9480 0.9480
2469.770763 0.9480 0.9480 0.9480 0.9480 0.9489
2474.544806 0.9499 0.9500 0.9500 0.9500 0.9500
2479.318849 0.9491 0.9481 0.9480 0.9480 0.9480
2484.092892 0.9480 0.9480 0.9480 0.9480 0.9480
2488.866935 0.9480 0.9480 0.9493 0.9508 0.9506
2493.640978 0.9501 0.9487 0.9473 0.9462 0.9452
2498.415020 0.9450 0.9450 0.9450 0.9450 0.9454
2503.189063 0.9459 0.9460 0.9460 0.9460 0.9460
2507.963106 0.9460 0.9460 0.9460 0.9460 0.9464
2512.737149 0.9469 0.9470 0.9470 0.9470 0.9470
2517.511192 0.9470 0.9470 0.9470 0.9470 0.9470
2522.285235 0.9470 0.9474 0.9479 0.9480 0.9480
2527.059277 0.9480 0.9480 0.9480 0.9480 0.9480
2531.833320 0.9480 0.9480 0.9480 0.9480 0.9480
2536.607363 0.9480 0.9480 0.9476 0.9471 0.9470
2541.381406 0.9470 0.9474 0.9479 0.9480 0.9480
2546.155449 0.9476 0.9471 0.9470 0.9470 0.9470
2550.929492 0.9470 0.9470 0.9470 0.9470 0.9470
2555.703534 0.9470 0.9470 0.9470 0.9470 0.9473
2560.477577 0.9478 0.9480 0.9480 0.9487 0.9497
2565.251620 0.9500 0.9500 0.9500 0.9500 0.9500
2570.025663 0.9500 0.9500 0.9500 0.9493 0.9483
2574.799706 0.9480 0.9480 0.9477 0.9472 0.9467
2579.573749 0.9462 0.9460 0.9460 0.9457 0.9452
2584.347791 0.9450 0.9450 0.9447 0.9442 0.9440
2589.121834 0.9440 0.9440 0.9440 0.9440 0.9440
2593.895877 0.9434 0.9424 0.9420 0.9420 0.9417
2598.669920 0.9412 0.9410 0.9410 0.9410 0.9410
2603.443963 0.9407 0.9402 0.9400 0.9400 0.9400
2608.218006 0.9400 0.9400 0.9400 0.9406 0.9416
2612.992048 0.9420 0.9420 0.9420 0.9420 0.9420
2617.766091 0.9420 0.9420 0.9420 0.9420 0.9420
2622.540134 0.9415 0.9405 0.9400 0.9400 0.9400
2627.314177 0.9400 0.9400 0.9400 0.9403 0.9408
2632.088220 0.9410 0.9410 0.9413 0.9418 0.9420
2636.862263 0.9420 0.9420 0.9420 0.9417 0.9412
2641.636306 0.9410 0.9410 0.9410 0.9410 0.9408
2646.410348 0.9403 0.9400 0.9400 0.9398 0.9393
2651.184391 0.9388 0.9383 0.9380 0.9380 0.9375
2655.958434 0.9365 0.9360 0.9360 0.9358 0.9353
2660.732477 0.9343 0.9328 0.9316 0.9306 0.9298
2665.506520 0.9293 0.9288 0.9283 0.9280 0.9280
2670.280563 0.9280 0.9280 0.9280 0.9280 0.9280
2675.054605 0.9280 0.9280 0.9280 0.9280 0.9280
2679.828648 0.9282 0.9287 0.9290 0.9290 0.9292
2684.602691 0.9297 0.9300 0.9300 0.9304 0.9314
2689.376734 0.9320 0.9320 0.9316 0.9306 0.9300
2694.150777 0.9300 0.9304 0.9314 0.9320 0.9320
2698.924820 0.9316 0.9306 0.9298 0.9293 0.9288
2703.698862 0.9283 0.9280 0.9280 0.9283 0.9294
2708.472905 0.9300 0.9300 0.9300 0.9300 0.9303
2713.246948 0.9313 0.9322 0.9327 0.9330 0.9330
2718.020991 0.9330 0.9330 0.9333 0.9343 0.9350
2722.795034 0.9350 0.9348 0.9344 0.9339 0.9333
2727.569077 0.9330 0.9330 0.9330 0.9330 0.9329
2732.343119 0.9324 0.9320 0.9320 0.9317 0.9307
2737.117162 0.9300 0.9300 0.9300 0.9300 0.9300
2741.891205 0.9300 0.9299 0.9294 0.9289 0.9284
2746.665248 0.9280 0.9280 0.9280 0.9280 0.9279
2751.439291 0.9274 0.9268 0.9258 0.9250 0.9250
2756.213334 0.9248 0.9238 0.9230 0.9230 0.9229
2760.987376 0.9224 0.9219 0.9214 0.9209 0.9204
2765.761419 0.9199 0.9194 0.9190 0.9190 0.9188
2770.535462 0.9178 0.9169 0.9164 0.9159 0.9154
2775.309505 0.9150 0.9150 0.9149 0.9144 0.9140
2780.083548 0.9140 0.9139 0.9134 0.9126 0.9101
2784.857591 0.9079 0.9074 0.9067 0.9053 0.9038
2789.631634 0.9023 0.9009 0.9004 0.9000 0.9000
2794.405676 0.8999 0.8989 0.8979 0.8974 0.8969
2799.179719 0.8964 0.8958 0.8938 0.8919 0.8909
2803.953762 0.8896 0.8866 0.8837 0.8812 0.8788
2808.727805 0.8773 0.8758 0.8738 0.8716 0.8676
2813.501848 0.8638 0.8618 0.8596 0.8556 0.8517
2818.275891 0.8482 0.8447 0.8412 0.8376 0.8315
2823.049933 0.8255 0.8200 0.8144 0.8075 0.7999
2827.823976 0.7855 0.7711 0.7571 0.7428 0.7228
2832.598019 0.7032 0.6893 0.6751 0.6572 0.6393
2837.372062 0.6218 0.6047 0.5962 0.5877 0.5766
2842.146105 0.5658 0.5618 0.5579 0.5559 0.5540
2846.920148 0.5525 0.5509 0.5484 0.5460 0.5440
2851.694190 0.5420 0.5410 0.5400 0.5395 0.5390
2856.468233 0.5400 0.5410 0.5445 0.5480 0.5500
2861.242276 0.5520 0.5585 0.5649 0.5699 0.5749
2866.016319 0.5784 0.5819 0.5859 0.5899 0.5910
2870.790362 0.5920 0.5920 0.5920 0.5910 0.5900
2875.564405 0.5867 0.5832 0.5769 0.5704 0.5624
2880.338447 0.5544 0.5492 0.5443 0.5374 0.5304
2885.112490 0.5248 0.5194 0.5148 0.5103 0.5072
2889.886533 0.5042 0.4985 0.4925 0.4861 0.4796
2894.660576 0.4690 0.4581 0.4489 0.4399 0.4219
2899.434619 0.4027 0.3879 0.3734 0.3603 0.3473
2904.208662 0.3317 0.3157 0.3082 0.3018 0.2909
2908.982704 0.2794 0.2679 0.2565 0.2463 0.2363
2913.756747 0.2268 0.2173 0.2096 0.2021 0.1954
2918.530790 0.1889 0.1837 0.1787 0.1767 0.1752
2923.304833 0.1750 0.1750 0.1754 0.1759 0.1785
2928.078876 0.1815 0.1837 0.1857 0.1885 0.1915
2932.852919 0.1957 0.2002 0.2063 0.2128 0.2197
2937.626962 0.2267 0.2358 0.2452 0.2547 0.2642
2942.401004 0.2753 0.2867 0.2978 0.3087 0.3205
2947.175047 0.3325 0.3429 0.3528 0.3616 0.3701
2951.949090 0.3782 0.3862 0.3891 0.3906 0.3910
2956.723133 0.3910 0.3906 0.3901 0.3896 0.3891
2961.497176 0.3852 0.3802 0.3752 0.3702 0.3671
2966.271219 0.3646 0.3596 0.3536 0.3491 0.3451
2971.045261 0.3411 0.3371 0.3328 0.3283 0.3248
2975.819304 0.3218 0.3181 0.3141 0.3101 0.3061
2980.593347 0.3039 0.3024 0.3013 0.3003 0.2993
2985.367390 0.2983 0.2977 0.2972 0.2973 0.2978
2990.141433 0.2990 0.3005 0.3030 0.3060 0.3121
2994.915476 0.3196 0.3264 0.3329 0.3391 0.3450
2999.689518 0.3547 0.3662 0.3846 0.4066 0.4249
3004.463561 0.4413 0.4561 0.4701 0.4840 0.4980
3009.237604 0.5129 0.5284 0.5435 0.5585 0.5738
3014.011647 0.5894 0.6046 0.6195 0.6335 0.6470
3018.785690 0.6598 0.6723 0.6832 0.6932 0.7022
3023.559733 0.7107 0.7198 0.7292 0.7363 0.7418
3028.333775 0.7443 0.7448 0.7447 0.7442 0.7434
3033.107818 0.7424 0.7408 0.7388 0.7356 0.7317
3037.881861 0.7274 0.7229 0.7181 0.7131 0.7087
3042.655904 0.7047 0.7016 0.6991 0.6977 0.6972
3047.429947 0.6973 0.6978 0.6988 0.7003 0.7026
3052.203990 0.7056 0.7106 0.7171 0.7241 0.7316
3056.978032 0.7393 0.7473 0.7558 0.7647 0.7740
3061.752075 0.7835 0.7924 0.8009 0.8101 0.8201
3066.526118 0.8290 0.8370 0.8445 0.8515 0.8585
3071.300161 0.8655 0.8708 0.8743 0.8785 0.8835
3076.074204 0.8875 0.8905 0.8939 0.8979 0.9005
3080.848247 0.9015 0.9037 0.9072 0.9102 0.9127
3085.622290 0.9147 0.9162 0.9177 0.9192 0.9202
3090.396332 0.9207 0.9212 0.9217 0.9229 0.9249
3095.170375 0.9262 0.9267 0.9272 0.9277 0.9284
3099.944418 0.9294 0.9300 0.9300 0.9304 0.9314
3104.718461 0.9320 0.9320 0.9322 0.9327 0.9332
3109.492504 0.9337 0.9344 0.9354 0.9360 0.9360
3114.266547 0.9364 0.9374 0.9382 0.9387 0.9392
3119.040589 0.9397 0.9402 0.9407 0.9410 0.9410
3123.814632 0.9412 0.9417 0.9420 0.9420 0.9424
3128.588675 0.9434 0.9440 0.9440 0.9442 0.9447
3133.362718 0.9450 0.9450 0.9454 0.9464 0.9472
3138.136761 0.9477 0.9480 0.9480 0.9483 0.9493
3142.910804 0.9500 0.9500 0.9500 0.9500 0.9500
3147.684846 0.9500 0.9500 0.9500 0.9502 0.9507
3152.458889 0.9510 0.9510 0.9510 0.9510 0.9510
3157.232932 0.9510 0.9510 0.9510 0.9510 0.9510
3162.006975 0.9510 0.9510 0.9510 0.9510 0.9511
3166.781018 0.9516 0.9520 0.9520 0.9520 0.9520
3171.555061 0.9520 0.9520 0.9520 0.9520 0.9521
3176.329103 0.9526 0.9530 0.9530 0.9530 0.9530
3181.103146 0.9530 0.9530 0.9530 0.9530 0.9530
3185.877189 0.9530 0.9530 0.9530 0.9530 0.9530
3190.651232 0.9530 0.9530 0.9530 0.9530 0.9530
3195.425275 0.9530 0.9530 0.9530 0.9529 0.9524
3200.199318 0.9520 0.9520 0.9520 0.9520 0.9520
3204.973360 0.9520 0.9520 0.9520 0.9520 0.9520
3209.747403 0.9520 0.9520 0.9520 0.9520 0.9520
3214.521446 0.9520 0.9520 0.9520 0.9520 0.9520
3219.295489 0.9520 0.9520 0.9520 0.9520 0.9520
3224.069532 0.9520 0.9520 0.9520 0.9519 0.9514
3228.843575 0.9510 0.9510 0.9510 0.9510 0.9510
3233.617618 0.9510 0.9510 0.9510 0.9510 0.9510
3238.391660 0.9510 0.9510 0.9510 0.9510 0.9510
3243.165703 0.9510 0.9510 0.9510 0.9510 0.9515
3247.939746 0.9520 0.9520 0.9520 0.9515 0.9510
3252.713789 0.9510 0.9510 0.9510 0.9510 0.9510
3257.487832 0.9510 0.9510 0.9510 0.9510 0.9510
3262.261875 0.9505 0.9500 0.9500 0.9500 0.9500
3267.035917 0.9500 0.9500 0.9500 0.9500 0.9500
3271.809960 0.9505 0.9510 0.9510 0.9510 0.9510
3276.584003 0.9510 0.9510 0.9510 0.9510 0.9510
3281.358046 0.9510 0.9510 0.9510 0.9510 0.9510
3286.132089 0.9510 0.9510 0.9510 0.9510 0.9510
3290.906132 0.9510 0.9510 0.9510 0.9510 0.9510
3295.680174 0.9510 0.9510 0.9510 0.9510 0.9510
3300.454217 0.9510 0.9510 0.9510 0.9510 0.9505
3305.228260 0.9500 0.9500 0.9500 0.9500 0.9500
3310.002303 0.9500 0.9500 0.9500 0.9500 0.9500
3314.776346 0.9500 0.9500 0.9500 0.9500 0.9500
3319.550389 0.9500 0.9500 0.9500 0.9500 0.9500
3324.324431 0.9500 0.9500 0.9500 0.9500 0.9500
3329.098474 0.9500 0.9500 0.9500 0.9500 0.9500
3333.872517 0.9500 0.9500 0.9500 0.9500 0.9500
3338.646560 0.9500 0.9500 0.9500 0.9500 0.9500
3343.420603 0.9500 0.9491 0.9481 0.9480 0.9480
3348.194646 0.9480 0.9480 0.9480 0.9480 0.9480
3352.968688 0.9480 0.9480 0.9480 0.9480 0.9480
3357.742731 0.9480 0.9480 0.9480 0.9480 0.9476
3362.516774 0.9471 0.9470 0.9470 0.9466 0.9461
3367.290817 0.9460 0.9460 0.9460 0.9460 0.9460
3372.064860 0.9460 0.9460 0.9460 0.9456 0.9451
3376.838903 0.9450 0.9450 0.9446 0.9441 0.9440
3381.612946 0.9440 0.9440 0.9440 0.9432 0.9422
3386.386988 0.9420 0.9420 0.9420 0.9420 0.9420
3391.161031 0.9420 0.9420 0.9420 0.9420 0.9420
3395.935074 0.9416 0.9411 0.9410 0.9410 0.9410
3400.709117 0.9410 0.9406 0.9401 0.9396 0.9391
3405.483160 0.9386 0.9381 0.9380 0.9380 0.9373
3410.257203 0.9363 0.9360 0.9360 0.9357 0.9352
3415.031245 0.9350 0.9350 0.9350 0.9350 0.9350
3419.805288 0.9350 0.9347 0.9342 0.9340 0.9340
3424.579331 0.9340 0.9340 0.9337 0.9332 0.9330
3429.353374 0.9330 0.9327 0.9322 0.9320 0.9320
3434.127417 0.9313 0.9303 0.9293 0.9283 0.9277
3438.901460 0.9272 0.9267 0.9262 0.9260 0.9260
3443.675502 0.9257 0.9252 0.9250 0.9250 0.9244
3448.449545 0.9234 0.9227 0.9222 0.9217 0.9212
3453.223588 0.9210 0.9210 0.9207 0.9202 0.9197
3457.997631 0.9192 0.9184 0.9174 0.9167 0.9162
3462.771674 0.9157 0.9152 0.9147 0.9142 0.9137
3467.545717 0.9132 0.9124 0.9114 0.9107 0.9102
3472.319759 0.9097 0.9092 0.9087 0.9082 0.9077
3477.093802 0.9072 0.9070 0.9070 0.9065 0.9055
3481.867845 0.9047 0.9042 0.9040 0.9040 0.9037
3486.641888 0.9032 0.9027 0.9022 0.9020 0.9020
3491.415931 0.9017 0.9012 0.9007 0.9002 0.8995
3496.189974 0.8985 0.8980 0.8980 0.8977 0.8972
3500.964016 0.8970 0.8970 0.8970 0.8970 0.8968
3505.738059 0.8963 0.8960 0.8960 0.8960 0.8960
3510.512102 0.8960 0.8960 0.8960 0.8960 0.8960
3515.286145 0.8960 0.8960 0.8960 0.8962 0.8967
3520.060188 0.8970 0.8970 0.8972 0.8977 0.8980
3524.834231 0.8980 0.8984 0.8994 0.9000 0.9000
3529.608274 0.9000 0.9000 0.9002 0.9007 0.9010
3534.382316 0.9010 0.9010 0.9010 0.9010 0.9010
3539.156359 0.9012 0.9017 0.9020 0.9020 0.9020
3543.930402 0.9020 0.9022 0.9027 0.9032 0.9037
3548.704445 0.9040 0.9040 0.9040 0.9040 0.9040
3553.478488 0.9040 0.9040 0.9040 0.9042 0.9047
3558.252531 0.9050 0.9050 0.9054 0.9064 0.9072
3563.026573 0.9077 0.9080 0.9080 0.9080 0.9080
3567.800616 0.9080 0.9080 0.9075 0.9060 0.9050
3572.574659 0.9050 0.9047 0.9037 0.9030 0.9030
3577.348702 0.9030 0.9030 0.9028 0.9023 0.9018
3582.122745 0.9013 0.9010 0.9010 0.9010 0.9010
3586.896788 0.9010 0.9010 0.9010 0.9010 0.9010
3591.670830 0.9010 0.9010 0.9010 0.9010 0.9010
3596.444873 0.9010 0.9010 0.9011 0.9016 0.9021
3601.218916 0.9026 0.9033 0.9043 0.9053 0.9062
3605.992959 0.9071 0.9076 0.9080 0.9080 0.9081
3610.767002 0.9086 0.9090 0.9090 0.9090 0.9090
3615.541045 0.9090 0.9090 0.9090 0.9090 0.9091
3620.315087 0.9096 0.9101 0.9106 0.9112 0.9122
3625.089130 0.9134 0.9154 0.9170 0.9170 0.9172
3629.863173 0.9182 0.9191 0.9196 0.9200 0.9200
3634.637216 0.9200 0.9200 0.9200 0.9200 0.9201
3639.411259 0.9206 0.9211 0.9216 0.9224 0.9249
3644.185302 0.9272 0.9287 0.9303 0.9323 0.9342
3648.959344 0.9352 0.9362 0.9372 0.9380 0.9380
3653.733387 0.9381 0.9386 0.9390 0.9390 0.9390
3658.507430 0.9390 0.9391 0.9396 0.9400 0.9400
3663.281473 0.9402 0.9422 0.9442 0.9462 0.9481
3668.055516 0.9491 0.9501 0.9506 0.9510 0.9510
3672.829559 0.9510 0.9515 0.9520 0.9520 0.9520
3677.603602 0.9525 0.9530 0.9530 0.9530 0.9530
3682.377644 0.9530 0.9535 0.9540 0.9540 0.9540
3687.151687 0.9545 0.9550 0.9550 0.9550 0.9550
3691.925730 0.9550 0.9550 0.9550 0.9550 0.9550
3696.699773 0.9550 0.9550 0.9550 0.9550 0.9545
3701.473816 0.9540 0.9540 0.9540 0.9535 0.9530
3706.247859 0.9530 0.9530 0.9525 0.9520 0.9520
3711.021901 0.9520 0.9520 0.9520 0.9520 0.9520
3715.795944 0.9520 0.9520 0.9515 0.9510 0.9510
3720.569987 0.9510 0.9510 0.9510 0.9505 0.9500
3725.344030 0.9490 0.9480 0.9480 0.9480 0.9475
3730.118073 0.9470 0.9470 0.9470 0.9470 0.9470
3734.892116 0.9470 0.9470 0.9470 0.9470 0.9470
3739.666158 0.9470 0.9475 0.9480 0.9480 0.9480
3744.440201 0.9480 0.9480 0.9480 0.9480 0.9480
3749.214244 0.9480 0.9489 0.9499 0.9500 0.9500
3753.988287 0.9500 0.9500 0.9500 0.9500 0.9500
3758.762330 0.9500 0.9500 0.9500 0.9491 0.9481
3763.536373 0.9480 0.9480 0.9476 0.9471 0.9470
3768.310415 0.9470 0.9470 0.9470 0.9470 0.9470
3773.084458 0.9470 0.9470 0.9470 0.9470 0.9474
3777.858501 0.9479 0.9480 0.9480 0.9480 0.9480
3782.632544 0.9480 0.9480 0.9480 0.9480 0.9480
3787.406587 0.9480 0.9480 0.9480 0.9480 0.9480
3792.180630 0.9488 0.9498 0.9500 0.9500 0.9504
3796.954672 0.9509 0.9514 0.9519 0.9528 0.9538
3801.728715 0.9540 0.9540 0.9536 0.9531 0.9522
3806.502758 0.9512 0.9510 0.9510 0.9510 0.9510
3811.276801 0.9510 0.9510 0.9506 0.9501 0.9500
3816.050844 0.9500 0.9511 0.9527 0.9534 0.9539
3820.824887 0.9551 0.9566 0.9570 0.9570 0.9548
3825.598929 0.9518 0.9510 0.9510 0.9510 0.9510
3830.372972 0.9510 0.9510 0.9514 0.9519 0.9524
3835.147015 0.9529 0.9530 0.9530 0.9534 0.9539
3839.921058 0.9536 0.9531 0.9530 0.9530 0.9526
3844.695101 0.9522 0.9517 0.9512 0.9507 0.9502
3849.469144 0.9500 0.9500 0.9500 0.9500 0.9500
3854.243187 0.9500 0.9500 0.9500 0.9503 0.9508
3859.017229 0.9510 0.9510 0.9513 0.9518 0.9520
3863.791272 0.9520 0.9523 0.9528 0.9530 0.9530
3868.565315 0.9530 0.9530 0.9533 0.9538 0.9540
3873.339358 0.9540 0.9540 0.9540 0.9537 0.9532
3878.113401 0.9530 0.9530 0.9530 0.9530 0.9527
3882.887444 0.9522 0.9520 0.9520 0.9520 0.9520
3887.661486 0.9520 0.9520 0.9520 0.9520 0.9517
3892.435529 0.9512 0.9510 0.9510 0.9510 0.9510
3897.209572 0.9510 0.9510 0.9510 0.9510 0.9510
3901.983615 0.9510 0.9510 0.9510 0.9513 0.9518
3906.757658 0.9520 0.9520 0.9520 0.9520 0.9520
3911.531701 0.9520 0.9517 0.9512 0.9510 0.9510
3916.305743 0.9507 0.9502 0.9503 0.9508 0.9513
3921.079786 0.9518 0.9520 0.9520 0.9523 0.9528
3925.853829 0.9527 0.9522 0.9520 0.9520 0.9520
3930.627872 0.9520 0.9518 0.9513 0.9510 0.9510
3935.401915 0.9510 0.9510 0.9512 0.9517 0.9522
3940.175958 0.9527 0.9530 0.9530 0.9528 0.9523
3944.950000 0.9520 0.9520 0.9520 0.9520 0.9520
3949.724043 0.9520 0.9522 0.9527 0.9532 0.9537
3954.498086 0.9540 0.9540 0.9538 0.9533 0.9530
3959.272129 0.9530 0.9530 0.9530 0.9530 0.9530
3964.046172 0.9530 0.9530 0.9530 0.9530 0.9530
3968.820215 0.9530 0.9530 0.9530 0.9530 0.9530
3973.594257 0.9530 0.9530 0.9530 0.9530 0.9530
3978.368300 0.9530 0.9530 0.9530 0.9530 0.9530
3983.142343 0.9532 0.9537 0.9542 0.9547 0.9550
3987.916386 0.9550 0.9550 0.9550 0.9548 0.9543
3992.690429 0.9540 0.9540
##END=
