##TITLE=2-METHYLPIPERIDINE HYDROCHLORIDE
##JCAMP-DX=4.24
##DATA TYPE=INFRARED SPECTRUM
##CLASS=COBLENTZ III
##ORIGIN=DOW CHEMICAL COMPANY
##OWNER=COBLENTZ SOCIETY
Collection (C) 2018 copyright by the U.S. Secretary of Commerce
on behalf of the United States of America. All rights reserved.
##DATE=1963/07/17
##MOLFORM=C6 H14 Cl N
##SOURCE REFERENCE=COBLENTZ NO. 10250
##$NIST ID=B6010250
##$NIST SOURCE=COBLENTZ
##$NIST IMAGE=cob10250
##SPECTROMETER/DATA SYSTEM=DOW KBr FOREPRISM-GRATING
##INSTRUMENT PARAMETERS=BLAZED AT 3.5, 12.0, 20.0 MICRON, CHANGED AT 5.0, 7.5, 14.9 MICRON
##STATE=SOLID (SPLIT MULL, FLUOROLUBE FOR 3800-1330 AND NUJOL FOR 1330-450 CM ^-^1)
##PATH LENGTH=
$$SPECTRAL CONTAMINATION DUE TO OIL AROUND 720 CM^-^1
##SAMPLING PROCEDURE=TRANSMISSION
##RESOLUTION=4
##DATA PROCESSING=DIGITIZED BY NIST FROM HARD COPY (FROM TWO SEGMENTS)
##XUNITS=1/CM
##YUNITS=TRANSMITTANCE
##XFACTOR=1.000000
##YFACTOR=1
##DELTAX=0.866551
##FIRSTX=448.873
##LASTX=3795.49
##FIRSTY=0.907
##MAXX=3795.49
##MINX=448.873
##MAXY=1.008
##MINY=0.037
##NPOINTS=3863
##XYDATA=(X++(Y..Y))
448.873000 0.9070 0.9070 0.9090 0.9090 0.9110
453.205757 0.9130 0.9150 0.9150 0.9150 0.9150
457.538514 0.9150 0.9130 0.9130 0.9120 0.9120
461.871271 0.9120 0.9110 0.9090 0.9090 0.9080
466.204028 0.9050 0.9040 0.8970 0.8910 0.8850
470.536785 0.8800 0.8750 0.8680 0.8531 0.8411
474.869542 0.8290 0.8140 0.7970 0.7830 0.7351
479.202299 0.7001 0.6701 0.6352 0.6350 0.6569
483.535056 0.6800 0.7199 0.7589 0.8059 0.8598
487.867813 0.9028 0.9299 0.9429 0.9520 0.9540
492.200570 0.9610 0.9610 0.9630 0.9660 0.9670
496.533327 0.9730 0.9750 0.9770 0.9780 0.9780
500.866084 0.9780 0.9780 0.9780 0.9780 0.9780
505.198841 0.9780 0.9780 0.9780 0.9790 0.9790
509.531598 0.9790 0.9790 0.9790 0.9790 0.9810
513.864355 0.9810 0.9820 0.9820 0.9830 0.9850
518.197112 0.9850 0.9860 0.9860 0.9860 0.9860
522.529869 0.9870 0.9870 0.9860 0.9860 0.9860
526.862626 0.9860 0.9860 0.9860 0.9860 0.9860
531.195383 0.9860 0.9870 0.9890 0.9900 0.9900
535.528140 0.9900 0.9900 0.9930 0.9940 0.9950
539.860897 0.9950 0.9950 0.9950 0.9950 0.9950
544.193654 0.9950 0.9950 0.9950 0.9940 0.9930
548.526411 0.9910 0.9910 0.9900 0.9890 0.9870
552.859168 0.9850 0.9770 0.9730 0.9670 0.9520
557.191925 0.9430 0.8912 0.8233 0.7255 0.5868
561.524682 0.5840 0.5870 0.6249 0.6769 0.7538
565.857439 0.8617 0.9417 0.9739 0.9849 0.9890
570.190196 0.9910 0.9950 0.9950 0.9950 0.9970
574.522953 0.9980 0.9980 0.9980 1.0000 1.0020
578.855709 1.0020 1.0040 1.0040 1.0040 1.0040
583.188466 1.0040 1.0040 1.0040 1.0040 1.0040
587.521223 1.0040 1.0040 1.0040 1.0040 1.0050
591.853980 1.0050 1.0050 1.0060 1.0050 1.0050
596.186737 1.0050 1.0060 1.0060 1.0060 1.0060
600.519494 1.0060 1.0060 1.0050 1.0050 1.0040
604.852251 1.0040 1.0050 1.0040 1.0040 1.0040
609.185008 1.0040 1.0040 1.0040 1.0040 1.0040
613.517765 1.0020 1.0020 1.0020 1.0020 1.0020
617.850522 1.0020 1.0020 1.0010 1.0010 1.0010
622.183279 1.0010 1.0010 1.0010 1.0010 1.0010
626.516036 1.0010 1.0010 1.0010 1.0000 1.0000
630.848793 1.0000 1.0000 1.0000 0.9980 0.9980
635.181550 0.9980 0.9980 0.9970 0.9970 0.9970
639.514307 0.9950 0.9950 0.9950 0.9950 0.9940
643.847064 0.9940 0.9930 0.9930 0.9930 0.9910
648.179821 0.9910 0.9910 0.9900 0.9900 0.9900
652.512578 0.9890 0.9890 0.9890 0.9870 0.9870
656.845335 0.9860 0.9860 0.9860 0.9850 0.9850
661.178092 0.9850 0.9830 0.9830 0.9830 0.9820
665.510849 0.9820 0.9810 0.9810 0.9810 0.9790
669.843606 0.9790 0.9790 0.9780 0.9780 0.9750
674.176363 0.9750 0.9750 0.9750 0.9740 0.9740
678.509120 0.9740 0.9730 0.9730 0.9730 0.9730
682.841877 0.9710 0.9710 0.9710 0.9700 0.9700
687.174634 0.9700 0.9690 0.9690 0.9670 0.9670
691.507391 0.9670 0.9670 0.9670 0.9660 0.9660
695.840148 0.9660 0.9660 0.9660 0.9650 0.9650
700.172905 0.9650 0.9650 0.9650 0.9630 0.9630
704.505662 0.9620 0.9610 0.9590 0.9580 0.9550
708.838419 0.9540 0.9520 0.9510 0.9460 0.9440
713.171176 0.9430 0.9400 0.9360 0.9320 0.9280
717.503933 0.9230 0.9160 0.9110 0.9080 0.9080
721.836690 0.9090 0.9090 0.9120 0.9150 0.9190
726.169447 0.9200 0.9270 0.9300 0.9320 0.9340
730.502204 0.9350 0.9360 0.9400 0.9420 0.9430
734.834961 0.9440 0.9460 0.9460 0.9470 0.9500
739.167718 0.9510 0.9510 0.9510 0.9510 0.9520
743.500475 0.9520 0.9540 0.9550 0.9560 0.9550
747.833232 0.9550 0.9560 0.9560 0.9580 0.9590
752.165989 0.9590 0.9590 0.9590 0.9590 0.9590
756.498746 0.9580 0.9580 0.9580 0.9590 0.9590
760.831503 0.9590 0.9590 0.9610 0.9610 0.9610
765.164260 0.9610 0.9620 0.9620 0.9620 0.9620
769.497017 0.9620 0.9620 0.9620 0.9620 0.9620
773.829774 0.9620 0.9610 0.9590 0.9580 0.9560
778.162531 0.9550 0.9540 0.9550 0.9560 0.9630
782.495288 0.9650 0.9660 0.9660 0.9660 0.9660
786.828045 0.9660 0.9670 0.9670 0.9670 0.9670
791.160802 0.9670 0.9690 0.9690 0.9690 0.9690
795.493559 0.9690 0.9690 0.9650 0.9650 0.9660
799.826316 0.9660 0.9660 0.9660 0.9660 0.9660
804.159073 0.9650 0.9650 0.9650 0.9650 0.9650
808.491830 0.9630 0.9630 0.9620 0.9620 0.9580
812.824587 0.9550 0.9540 0.9520 0.9500 0.9500
817.157344 0.9500 0.9510 0.9540 0.9560 0.9560
821.490101 0.9610 0.9620 0.9630 0.9630 0.9630
825.822858 0.9630 0.9650 0.9650 0.9660 0.9660
830.155615 0.9650 0.9620 0.9620 0.9630 0.9630
834.488372 0.9630 0.9630 0.9620 0.9620 0.9620
838.821128 0.9610 0.9610 0.9610 0.9610 0.9610
843.153885 0.9610 0.9590 0.9550 0.9520 0.9520
847.486642 0.9510 0.9320 0.9080 0.9080 0.9279
851.819399 0.9519 0.9540 0.9520 0.9510 0.9510
856.152156 0.9510 0.9470 0.9420 0.9320 0.9190
860.484913 0.9190 0.9260 0.9459 0.9550 0.9560
864.817670 0.9580 0.9580 0.9590 0.9610 0.9610
869.150427 0.9610 0.9610 0.9610 0.9610 0.9610
873.483184 0.9610 0.9610 0.9590 0.9590 0.9590
877.815941 0.9580 0.9560 0.9560 0.9550 0.9550
882.148698 0.9540 0.9520 0.9510 0.9460 0.9440
886.481455 0.9430 0.9340 0.9230 0.9051 0.8871
890.814212 0.8870 0.9090 0.9110 0.9160 0.9419
895.146969 0.9510 0.9510 0.9520 0.9540 0.9540
899.479726 0.9540 0.9540 0.9540 0.9550 0.9550
903.812483 0.9540 0.9540 0.9520 0.9520 0.9520
908.145240 0.9520 0.9510 0.9510 0.9510 0.9510
912.477997 0.9510 0.9510 0.9510 0.9510 0.9510
916.810754 0.9510 0.9520 0.9520 0.9510 0.9500
921.143511 0.9480 0.9480 0.9470 0.9460 0.9440
925.476268 0.9430 0.9430 0.9360 0.9270 0.9240
929.809025 0.9190 0.9150 0.9031 0.8911 0.8801
934.141782 0.8540 0.8270 0.7711 0.7251 0.7050
938.474539 0.7249 0.7429 0.7440 0.7559 0.8147
942.807296 0.8889 0.9110 0.9230 0.9310 0.9320
947.140053 0.9360 0.9390 0.9400 0.9400 0.9420
951.472810 0.9420 0.9420 0.9420 0.9420 0.9400
955.805567 0.9400 0.9390 0.9380 0.9360 0.9350
960.138324 0.9340 0.9320 0.9220 0.9120 0.8960
964.471081 0.8880 0.8681 0.8401 0.8400 0.8450
968.803838 0.8620 0.8880 0.8990 0.9110 0.9230
973.136595 0.9270 0.9280 0.9280 0.9280 0.9270
977.469352 0.9270 0.9230 0.9220 0.9220 0.9240
981.802109 0.9280 0.9310 0.9380 0.9390 0.9400
986.134866 0.9420 0.9420 0.9420 0.9400 0.9390
990.467623 0.9360 0.9320 0.9300 0.9220 0.9130
994.800380 0.9090 0.8910 0.8640 0.8311 0.7881
999.133137 0.7402 0.6972 0.6970 0.7288 0.7787
1003.465894 0.8330 0.8440 0.8889 0.9030 0.9150
1007.798651 0.9190 0.9240 0.9300 0.9300 0.9310
1012.131408 0.9320 0.9340 0.9380 0.9390 0.9390
1016.464165 0.9390 0.9390 0.9380 0.9340 0.9320
1020.796922 0.9300 0.9240 0.9220 0.9200 0.9150
1025.129679 0.9090 0.9010 0.8930 0.8681 0.8372
1029.462436 0.8090 0.7720 0.7401 0.6761 0.5444
1033.795193 0.5440 0.5679 0.6576 0.7127 0.7786
1038.127950 0.8520 0.8810 0.9070 0.9090 0.9180
1042.460707 0.9240 0.9270 0.9300 0.9310 0.9340
1046.793464 0.9350 0.9380 0.9390 0.9400 0.9400
1051.126221 0.9420 0.9420 0.9420 0.9400 0.9400
1055.458978 0.9400 0.9400 0.9400 0.9420 0.9420
1059.791735 0.9400 0.9400 0.9390 0.9360 0.9340
1064.124492 0.9310 0.9300 0.9240 0.9190 0.9110
1068.457249 0.9090 0.8921 0.8830 0.8641 0.8302
1072.790006 0.7910 0.7750 0.7880 0.8519 0.8799
1077.122763 0.8920 0.8960 0.8960 0.8920 0.8910
1081.455520 0.8910 0.8890 0.8810 0.8690 0.8570
1085.788277 0.8420 0.8291 0.8180 0.7742 0.7720
1090.121034 0.7750 0.7870 0.7980 0.8289 0.8520
1094.453791 0.8690 0.8770 0.8880 0.8930 0.9000
1098.786547 0.9090 0.9110 0.9160 0.9180 0.9220
1103.119304 0.9230 0.9240 0.9300 0.9300 0.9300
1107.452061 0.9300 0.9300 0.9260 0.9200 0.9150
1111.784818 0.9090 0.8970 0.8801 0.8690 0.8610
1116.117575 0.8610 0.8640 0.8810 0.9109 0.9280
1120.450332 0.9310 0.9340 0.9420 0.9440 0.9470
1124.783089 0.9500 0.9510 0.9510 0.9510 0.9520
1129.115846 0.9520 0.9510 0.9480 0.9470 0.9460
1133.448603 0.9440 0.9430 0.9420 0.9400 0.9350
1137.781360 0.9260 0.9220 0.9180 0.9110 0.9090
1142.114117 0.9030 0.9000 0.8970 0.8920 0.8810
1146.446874 0.8601 0.8600 0.8690 0.9029 0.9269
1150.779631 0.9380 0.9390 0.9420 0.9420 0.9430
1155.112388 0.9460 0.9460 0.9470 0.9480 0.9510
1159.445145 0.9510 0.9500 0.9480 0.9480 0.9480
1163.777902 0.9480 0.9480 0.9480 0.9480 0.9480
1168.110659 0.9480 0.9500 0.9500 0.9500 0.9500
1172.443416 0.9500 0.9500 0.9480 0.9460 0.9440
1176.776173 0.9440 0.9430 0.9400 0.9380 0.9380
1181.108930 0.9420 0.9440 0.9470 0.9480 0.9520
1185.441687 0.9550 0.9550 0.9560 0.9580 0.9580
1189.774444 0.9560 0.9580 0.9580 0.9560 0.9560
1194.107201 0.9550 0.9560 0.9550 0.9550 0.9550
1198.439958 0.9540 0.9540 0.9540 0.9540 0.9540
1202.772715 0.9540 0.9540 0.9520 0.9520 0.9520
1207.105472 0.9520 0.9520 0.9500 0.9470 0.9460
1211.438229 0.9430 0.9390 0.9360 0.9310 0.9260
1215.770986 0.9180 0.9070 0.8891 0.8681 0.8133
1220.103743 0.8130 0.8230 0.8580 0.8909 0.9119
1224.436500 0.9309 0.9350 0.9380 0.9400 0.9400
1228.769257 0.9400 0.9420 0.9430 0.9430 0.9440
1233.102014 0.9440 0.9460 0.9460 0.9460 0.9460
1237.434771 0.9460 0.9460 0.9460 0.9460 0.9440
1241.767528 0.9440 0.9440 0.9440 0.9420 0.9420
1246.100285 0.9400 0.9390 0.9380 0.9360 0.9350
1250.433042 0.9350 0.9340 0.9320 0.9320 0.9310
1254.765799 0.9310 0.9310 0.9300 0.9300 0.9280
1259.098556 0.9270 0.9260 0.9220 0.9190 0.9160
1263.431313 0.9130 0.9120 0.9040 0.8990 0.8970
1267.764070 0.8920 0.8880 0.8800 0.8770 0.8770
1272.096827 0.8760 0.8760 0.8790 0.8830 0.8920
1276.429584 0.8990 0.9070 0.9090 0.9110 0.9130
1280.762341 0.9130 0.9120 0.9120 0.9120 0.9110
1285.095098 0.9110 0.9120 0.9120 0.9130 0.9130
1289.427855 0.9150 0.9150 0.9150 0.9150 0.9130
1293.760612 0.9120 0.9090 0.9090 0.9090 0.9080
1298.093369 0.9050 0.9010 0.9000 0.8970 0.8920
1302.426126 0.8920 0.8910 0.8910 0.8890 0.8880
1306.758883 0.8830 0.8800 0.8600 0.8490 0.8261
1311.091640 0.8190 0.8150 0.8170 0.8230 0.8300
1315.424397 0.8400 0.8560 0.8690 0.8800 0.8890
1319.757154 0.8960 0.8970 0.8990 0.8990 0.8990
1324.089911 0.8960 0.8930 0.8890 0.8830 0.8810
1328.422668 0.8720 0.8580 0.8441 0.8301 0.8260
1332.755425 0.8230 0.8210 0.8170 0.8140 0.8110
1337.088182 0.8100 0.8070 0.8070 0.8060 0.8050
1341.420939 0.8050 0.8030 0.8020 0.8020 0.8020
1345.753696 0.8030 0.8100 0.8110 0.8150 0.8220
1350.086453 0.8270 0.8290 0.8300 0.8300 0.8290
1354.419209 0.8290 0.8230 0.8180 0.8140 0.8100
1358.751966 0.7940 0.7760 0.7281 0.7010 0.6820
1363.084723 0.6820 0.7408 0.7659 0.7949 0.8517
1367.417480 0.8530 0.8540 0.8530 0.8530 0.8520
1371.750237 0.8490 0.8380 0.8340 0.8231 0.8170
1376.082994 0.8110 0.8010 0.7930 0.7840 0.7750
1380.415751 0.7620 0.7580 0.7411 0.7231 0.7061
1384.748508 0.6970 0.6900 0.6820 0.6730 0.6491
1389.081265 0.6390 0.6390 0.6420 0.6629 0.6889
1393.414022 0.7230 0.7390 0.7750 0.8109 0.8260
1397.746779 0.8529 0.8699 0.8790 0.8830 0.8830
1402.079536 0.8840 0.8850 0.8850 0.8850 0.8840
1406.412293 0.8830 0.8830 0.8790 0.8730 0.8690
1410.745050 0.8600 0.8570 0.8560 0.8560 0.8540
1415.077807 0.8530 0.8520 0.8490 0.8480 0.8331
1419.410564 0.8300 0.8290 0.8300 0.8340 0.8400
1423.743321 0.8420 0.8450 0.8480 0.8450 0.8420
1428.076078 0.8330 0.8230 0.8060 0.7820 0.7660
1432.408835 0.7411 0.6902 0.5804 0.5800 0.6457
1436.741592 0.6680 0.7020 0.7499 0.7749 0.7760
1441.074349 0.7760 0.7740 0.7640 0.7501 0.7082
1445.407106 0.6930 0.6920 0.6900 0.6860 0.6780
1449.739863 0.6591 0.6580 0.6590 0.6739 0.6770
1454.072620 0.6820 0.6850 0.6850 0.6810 0.6591
1458.405377 0.6231 0.5712 0.5182 0.4663 0.4133
1462.738134 0.3650 0.3270 0.2840 0.2840 0.3768
1467.070891 0.4229 0.4699 0.5158 0.5608 0.6058
1471.403648 0.6070 0.6759 0.7449 0.7969 0.8179
1475.736405 0.8559 0.8968 0.9030 0.9130 0.9190
1480.069162 0.9230 0.9240 0.9240 0.9240 0.9260
1484.401919 0.9260 0.9300 0.9390 0.9420 0.9430
1488.734676 0.9460 0.9480 0.9460 0.9420 0.9390
1493.067433 0.9380 0.9380 0.9380 0.9400 0.9390
1497.400190 0.9360 0.9350 0.9340 0.9320 0.9310
1501.732947 0.9310 0.9310 0.9310 0.9310 0.9350
1506.065704 0.9350 0.9340 0.9310 0.9300 0.9270
1510.398461 0.9260 0.9240 0.9240 0.9260 0.9260
1514.731218 0.9310 0.9320 0.9320 0.9320 0.9300
1519.063975 0.9300 0.9340 0.9340 0.9310 0.9310
1523.396732 0.9310 0.9310 0.9350 0.9350 0.9360
1527.729489 0.9380 0.9380 0.9300 0.9310 0.9360
1532.062246 0.9420 0.9440 0.9440 0.9390 0.9380
1536.395003 0.9400 0.9420 0.9430 0.9460 0.9460
1540.727760 0.9460 0.9440 0.9440 0.9430 0.9420
1545.060517 0.9420 0.9420 0.9420 0.9420 0.9460
1549.393274 0.9470 0.9470 0.9480 0.9470 0.9470
1553.726031 0.9470 0.9470 0.9480 0.9520 0.9610
1558.058788 0.9660 0.9650 0.9540 0.9510 0.9510
1562.391545 0.9510 0.9520 0.9520 0.9520 0.9520
1566.724302 0.9520 0.9540 0.9610 0.9620 0.9580
1571.057059 0.9520 0.9510 0.9510 0.9510 0.9510
1575.389816 0.9470 0.9460 0.9360 0.9320 0.9180
1579.722573 0.9090 0.8960 0.8751 0.8680 0.8382
1584.055330 0.7950 0.7590 0.7130 0.6141 0.5042
1588.388087 0.3135 0.2622 0.2620 0.3108 0.4991
1592.720844 0.6350 0.7309 0.8099 0.8370 0.8699
1597.053601 0.8879 0.9010 0.9229 0.9379 0.9460
1601.386358 0.9480 0.9510 0.9470 0.9440 0.9310
1605.719115 0.9001 0.8791 0.8720 0.8720 0.8929
1610.051872 0.9500 0.9700 0.9750 0.9790 0.9810
1614.384628 0.9830 0.9860 0.9870 0.9870 0.9870
1618.717385 0.9860 0.9870 0.9900 0.9910 0.9910
1623.050142 0.9870 0.9860 0.9860 0.9860 0.9900
1627.382899 0.9900 0.9900 0.9750 0.9750 0.9770
1631.715656 0.9770 0.9820 0.9860 0.9870 0.9850
1636.048413 0.9770 0.9750 0.9750 0.9750 0.9750
1640.381170 0.9750 0.9750 0.9750 0.9770 0.9780
1644.713927 0.9790 0.9790 0.9790 0.9790 0.9790
1649.046684 0.9790 0.9830 0.9850 0.9870 0.9870
1653.379441 0.9850 0.9790 0.9750 0.9700 0.9630
1657.712198 0.9620 0.9620 0.9610 0.9580 0.9560
1662.044955 0.9550 0.9540 0.9520 0.9500 0.9500
1666.377712 0.9510 0.9510 0.9540 0.9580 0.9590
1670.710469 0.9590 0.9610 0.9610 0.9610 0.9610
1675.043226 0.9610 0.9610 0.9610 0.9610 0.9610
1679.375983 0.9620 0.9630 0.9650 0.9670 0.9730
1683.708740 1.0019 1.0020 0.9910 0.9810 0.9790
1688.041497 0.9780 0.9780 0.9780 0.9780 0.9780
1692.374254 0.9780 0.9810 0.9820 0.9870 0.9890
1696.707011 0.9870 0.9890 0.9900 0.9910 0.9910
1701.039768 0.9900 0.9870 0.9860 0.9850 0.9860
1705.372525 0.9850 0.9820 0.9790 0.9770 0.9770
1709.705282 0.9770 0.9820 0.9850 0.9860 0.9860
1714.038039 0.9900 0.9930 0.9940 0.9940 0.9950
1718.370796 0.9970 0.9970 0.9980 0.9980 0.9930
1722.703553 0.9910 0.9910 0.9910 0.9910 0.9910
1727.036310 0.9910 0.9910 0.9910 0.9930 0.9950
1731.369067 0.9970 0.9970 0.9950 0.9930 0.9890
1735.701824 0.9850 0.9850 0.9860 0.9870 0.9910
1740.034581 0.9910 0.9850 0.9820 0.9820 0.9810
1744.367338 0.9810 0.9780 0.9780 0.9770 0.9770
1748.700095 0.9770 0.9780 0.9780 0.9770 0.9770
1753.032852 0.9740 0.9730 0.9740 0.9740 0.9750
1757.365609 0.9740 0.9740 0.9740 0.9750 0.9770
1761.698366 0.9770 0.9770 0.9770 0.9750 0.9770
1766.031123 0.9820 0.9890 0.9910 0.9930 0.9930
1770.363880 0.9910 0.9910 0.9910 0.9900 0.9860
1774.696637 0.9830 0.9820 0.9780 0.9770 0.9770
1779.029394 0.9750 0.9750 0.9750 0.9750 0.9740
1783.362151 0.9740 0.9740 0.9740 0.9730 0.9740
1787.694908 0.9740 0.9750 0.9750 0.9770 0.9770
1792.027665 0.9770 0.9770 0.9770 0.9770 0.9750
1796.360422 0.9750 0.9750 0.9740 0.9740 0.9730
1800.693179 0.9700 0.9690 0.9670 0.9670 0.9670
1805.025936 0.9690 0.9700 0.9740 0.9740 0.9750
1809.358693 0.9750 0.9770 0.9780 0.9790 0.9790
1813.691450 0.9810 0.9810 0.9810 0.9810 0.9810
1818.024207 0.9790 0.9790 0.9790 0.9790 0.9790
1822.356964 0.9790 0.9810 0.9810 0.9810 0.9810
1826.689721 0.9810 0.9810 0.9820 0.9850 0.9820
1831.022478 0.9770 0.9750 0.9740 0.9740 0.9740
1835.355235 0.9750 0.9750 0.9750 0.9750 0.9770
1839.687992 0.9780 0.9780 0.9790 0.9790 0.9790
1844.020749 0.9810 0.9820 0.9770 0.9750 0.9750
1848.353506 0.9770 0.9770 0.9750 0.9750 0.9740
1852.686263 0.9740 0.9740 0.9700 0.9700 0.9700
1857.019020 0.9700 0.9700 0.9690 0.9690 0.9660
1861.351777 0.9620 0.9610 0.9590 0.9540 0.9520
1865.684534 0.9520 0.9520 0.9520 0.9520 0.9510
1870.017291 0.9480 0.9470 0.9430 0.9390 0.9350
1874.350047 0.9320 0.9310 0.9310 0.9310 0.9310
1878.682804 0.9310 0.9320 0.9340 0.9340 0.9350
1883.015561 0.9350 0.9360 0.9360 0.9380 0.9400
1887.348318 0.9430 0.9440 0.9470 0.9520 0.9560
1891.681075 0.9590 0.9590 0.9610 0.9610 0.9630
1896.013832 0.9660 0.9690 0.9700 0.9740 0.9750
1900.346589 0.9770 0.9770 0.9770 0.9770 0.9770
1904.679346 0.9770 0.9770 0.9770 0.9770 0.9750
1909.012103 0.9750 0.9750 0.9740 0.9740 0.9740
1913.344860 0.9740 0.9750 0.9750 0.9750 0.9750
1917.677617 0.9750 0.9740 0.9730 0.9710 0.9690
1922.010374 0.9670 0.9670 0.9690 0.9690 0.9710
1926.343131 0.9730 0.9740 0.9750 0.9770 0.9770
1930.675888 0.9780 0.9790 0.9810 0.9810 0.9810
1935.008645 0.9820 0.9820 0.9820 0.9820 0.9820
1939.341402 0.9820 0.9820 0.9820 0.9820 0.9820
1943.674159 0.9820 0.9820 0.9820 0.9820 0.9820
1948.006916 0.9820 0.9820 0.9820 0.9820 0.9820
1952.339673 0.9820 0.9820 0.9820 0.9820 0.9830
1956.672430 0.9820 0.9820 0.9820 0.9820 0.9830
1961.005187 0.9830 0.9820 0.9820 0.9810 0.9810
1965.337944 0.9810 0.9820 0.9810 0.9810 0.9820
1969.670701 0.9820 0.9820 0.9820 0.9820 0.9820
1974.003458 0.9820 0.9830 0.9830 0.9830 0.9830
1978.336215 0.9830 0.9830 0.9820 0.9820 0.9820
1982.668972 0.9810 0.9790 0.9790 0.9790 0.9790
1987.001729 0.9790 0.9780 0.9780 0.9780 0.9790
1991.334486 1.0080 1.0010 0.9940 0.9910 0.9900
1995.667243 0.9890 0.9870 0.9860 0.9830 0.9631
2000.000000 0.9630 0.9700 0.9770 0.9795 0.9820
2004.332757 0.9825 0.9830 0.9850 0.9870 0.9885
2008.665514 0.9900 0.9900 0.9900 0.9884 0.9870
2012.998271 0.9865 0.9860 0.9860 0.9860 0.9860
2017.331028 0.9860 0.9860 0.9860 0.9860 0.9860
2021.663785 0.9855 0.9849 0.9839 0.9828 0.9802
2025.996542 0.9780 0.9780 0.9780 0.9780 0.9780
2030.329299 0.9780 0.9779 0.9774 0.9770 0.9770
2034.662056 0.9771 0.9776 0.9781 0.9786 0.9792
2038.994813 0.9802 0.9808 0.9798 0.9788 0.9778
2043.327570 0.9770 0.9770 0.9768 0.9758 0.9750
2047.660327 0.9750 0.9749 0.9744 0.9737 0.9722
2051.993084 0.9710 0.9710 0.9710 0.9710 0.9709
2056.325841 0.9704 0.9699 0.9694 0.9681 0.9646
2060.658598 0.9611 0.9576 0.9541 0.9506 0.9463
2064.991355 0.9398 0.9349 0.9344 0.9336 0.9321
2069.324112 0.9276 0.9160 0.9031 0.8871 0.8735
2073.656869 0.8655 0.8584 0.8534 0.8500 0.8500
2077.989626 0.8513 0.8553 0.8597 0.8647 0.8694
2082.322383 0.8734 0.8772 0.8807 0.8841 0.8871
2086.655140 0.8890 0.8890 0.8898 0.8918 0.8945
2090.987897 0.8986 0.9037 0.9108 0.9180 0.9255
2095.320654 0.9308 0.9328 0.9365 0.9425 0.9470
2099.653411 0.9495 0.9533 0.9588 0.9629 0.9649
2103.986168 0.9660 0.9660 0.9662 0.9667 0.9670
2108.318925 0.9670 0.9675 0.9685 0.9690 0.9690
2112.651682 0.9690 0.9690 0.9692 0.9697 0.9700
2116.984439 0.9700 0.9698 0.9693 0.9685 0.9675
2121.317196 0.9667 0.9662 0.9652 0.9637 0.9630
2125.649953 0.9630 0.9627 0.9622 0.9620 0.9620
2129.982709 0.9628 0.9643 0.9656 0.9666 0.9670
2134.315466 0.9670 0.9667 0.9662 0.9660 0.9660
2138.648223 0.9657 0.9652 0.9644 0.9634 0.9624
2142.980980 0.9614 0.9604 0.9594 0.9581 0.9566
2147.313737 0.9554 0.9544 0.9530 0.9515 0.9481
2151.646494 0.9436 0.9381 0.9321 0.9264 0.9208
2155.979251 0.9163 0.9123 0.9100 0.9085 0.9077
2160.312008 0.9072 0.9060 0.9045 0.9037 0.9032
2164.644765 0.9023 0.9013 0.9010 0.9010 0.9017
2168.977522 0.9027 0.9037 0.9047 0.9087 0.9137
2173.310279 0.9195 0.9255 0.9304 0.9349 0.9371
2177.643036 0.9386 0.9394 0.9399 0.9412 0.9427
2181.975793 0.9434 0.9439 0.9440 0.9440 0.9448
2186.308550 0.9458 0.9460 0.9460 0.9460 0.9460
2190.641307 0.9460 0.9460 0.9460 0.9460 0.9460
2194.974064 0.9460 0.9460 0.9460 0.9464 0.9469
2199.306821 0.9474 0.9479 0.9480 0.9480 0.9476
2203.639578 0.9471 0.9466 0.9461 0.9451 0.9441
2207.972335 0.9436 0.9430 0.9416 0.9401 0.9382
2212.305092 0.9362 0.9351 0.9341 0.9331 0.9321
2216.637849 0.9320 0.9320 0.9301 0.9281 0.9271
2220.970606 0.9261 0.9251 0.9241 0.9235 0.9230
2225.303363 0.9215 0.9200 0.9210 0.9220 0.9225
2229.636120 0.9230 0.9230 0.9230 0.9230 0.9230
2233.968877 0.9230 0.9230 0.9235 0.9240 0.9240
2238.301634 0.9240 0.9240 0.9240 0.9240 0.9240
2242.634391 0.9235 0.9229 0.9214 0.9200 0.9195
2246.967148 0.9190 0.9190 0.9190 0.9185 0.9179
2251.299905 0.9169 0.9160 0.9155 0.9150 0.9150
2255.632662 0.9149 0.9139 0.9129 0.9119 0.9109
2259.965419 0.9099 0.9086 0.9056 0.9029 0.9019
2264.298176 0.9010 0.9010 0.9010 0.9010 0.9009
2268.630933 0.9004 0.8998 0.8983 0.8969 0.8964
2272.963690 0.8959 0.8954 0.8948 0.8938 0.8930
2277.296447 0.8930 0.8929 0.8924 0.8919 0.8914
2281.629204 0.8910 0.8910 0.8908 0.8898 0.8890
2285.961961 0.8890 0.8890 0.8890 0.8892 0.8902
2290.294718 0.8911 0.8916 0.8921 0.8926 0.8933
2294.627475 0.8943 0.8950 0.8950 0.8951 0.8956
2298.960232 0.8960 0.8960 0.8959 0.8954 0.8947
2303.292989 0.8937 0.8930 0.8930 0.8930 0.8930
2307.625746 0.8930 0.8930 0.8930 0.8930 0.8928
2311.958503 0.8923 0.8918 0.8913 0.8906 0.8896
2316.291260 0.8888 0.8883 0.8880 0.8880 0.8878
2320.624017 0.8873 0.8870 0.8870 0.8870 0.8870
2324.956774 0.8870 0.8870 0.8870 0.8870 0.8870
2329.289531 0.8870 0.8870 0.8870 0.8870 0.8870
2333.622288 0.8866 0.8856 0.8848 0.8843 0.8838
2337.955045 0.8833 0.8821 0.8801 0.8776 0.8746
2342.287802 0.8723 0.8708 0.8700 0.8700 0.8698
2346.620559 0.8692 0.8690 0.8690 0.8693 0.8698
2350.953316 0.8705 0.8715 0.8720 0.8720 0.8728
2355.286073 0.8743 0.8753 0.8758 0.8763 0.8768
2359.618830 0.8775 0.8785 0.8782 0.8767 0.8749
2363.951587 0.8728 0.8711 0.8696 0.8667 0.8627
2368.284344 0.8607 0.8602 0.8594 0.8584 0.8562
2372.617101 0.8532 0.8508 0.8488 0.8471 0.8456
2376.949858 0.8447 0.8442 0.8427 0.8407 0.8381
2381.282615 0.8350 0.8327 0.8307 0.8300 0.8300
2385.615372 0.8287 0.8267 0.8243 0.8218 0.8190
2389.948128 0.8160 0.8143 0.8133 0.8109 0.8079
2394.280885 0.8035 0.7985 0.7963 0.7953 0.7889
2398.613642 0.7803 0.7714 0.7624 0.7486 0.7331
2402.946399 0.7160 0.6985 0.6843 0.6713 0.6417
2407.279156 0.6066 0.5870 0.5725 0.5698 0.5708
2411.611913 0.5867 0.6073 0.6222 0.6353 0.6456
2415.944670 0.6551 0.6594 0.6624 0.6670 0.6721
2420.277427 0.6759 0.6794 0.6866 0.6946 0.7030
2424.610184 0.7115 0.7172 0.7222 0.7335 0.7460
2428.942941 0.7577 0.7692 0.7757 0.7813 0.7846
2433.275698 0.7876 0.7889 0.7899 0.7865 0.7825
2437.608455 0.7811 0.7801 0.7742 0.7677 0.7620
2441.941212 0.7565 0.7510 0.7455 0.7427 0.7402
2446.273969 0.7345 0.7285 0.7224 0.7163 0.7013
2450.606726 0.6858 0.6736 0.6615 0.6596 0.6581
2454.939483 0.6580 0.6580 0.6585 0.6590 0.6600
2459.272240 0.6610 0.6610 0.6610 0.6482 0.6351
2463.604997 0.6290 0.6230 0.6215 0.6200 0.6190
2467.937754 0.6179 0.6149 0.6116 0.5975 0.5834
2472.270511 0.5679 0.5524 0.5389 0.5253 0.5108
2476.603268 0.4961 0.4801 0.4639 0.4448 0.4270
2480.936025 0.4270 0.4292 0.4611 0.4912 0.5043
2485.268782 0.5184 0.5419 0.5636 0.5697 0.5757
2489.601539 0.5817 0.5879 0.5954 0.6033 0.6138
2493.934296 0.6234 0.6264 0.6301 0.6381 0.6464
2498.267053 0.6564 0.6680 0.6888 0.7063 0.7078
2502.599810 0.7090 0.7090 0.7080 0.7025 0.6974
2506.932567 0.6944 0.6916 0.6896 0.6869 0.6814
2511.265324 0.6725 0.6504 0.6283 0.6057 0.5879
2515.598081 0.5874 0.5867 0.5851 0.5704 0.5147
2519.930838 0.4647 0.4316 0.3957 0.3516 0.3101
2524.263595 0.2760 0.2510 0.2510 0.2601 0.2937
2528.596352 0.3268 0.3584 0.3908 0.4254 0.4585
2532.929109 0.4881 0.5108 0.5169 0.5215 0.5230
2537.261866 0.5256 0.5306 0.5350 0.5380 0.5419
2541.594623 0.5474 0.5527 0.5577 0.5620 0.5651
2545.927380 0.5681 0.5711 0.5741 0.5771 0.5792
2550.260137 0.5797 0.5793 0.5772 0.5661 0.5410
2554.592894 0.5220 0.5120 0.4985 0.4799 0.4597
2558.925651 0.4372 0.4156 0.3956 0.3747 0.3526
2563.258408 0.3338 0.3192 0.3110 0.3110 0.3174
2567.591165 0.3319 0.3465 0.3612 0.3761 0.3911
2571.923922 0.4059 0.4204 0.4343 0.4473 0.4667
2576.256679 0.4927 0.5107 0.5202 0.5287 0.5363
2580.589436 0.5450 0.5551 0.5643 0.5729 0.5827
2584.922193 0.5937 0.6014 0.6059 0.6121 0.6196
2589.254950 0.6269 0.6339 0.6387 0.6417 0.6430
2593.587707 0.6430 0.6404 0.6359 0.6314 0.6269
2597.920464 0.6212 0.6147 0.6038 0.5898 0.5831
2602.253221 0.5816 0.5810 0.5810 0.5863 0.5948
2606.585978 0.6018 0.6078 0.6160 0.6255 0.6319
2610.918735 0.6364 0.6390 0.6405 0.6449 0.6509
2615.251492 0.6533 0.6538 0.6563 0.6598 0.6617
2619.584249 0.6627 0.6640 0.6655 0.6660 0.6660
2623.917006 0.6660 0.6660 0.6656 0.6651 0.6629
2628.249763 0.6599 0.6558 0.6513 0.6482 0.6457
2632.582520 0.6406 0.6346 0.6293 0.6243 0.6160
2636.915277 0.6064 0.6010 0.5969 0.5871 0.5756
2641.248034 0.5695 0.5650 0.5636 0.5631 0.5622
2645.580791 0.5612 0.5618 0.5628 0.5630 0.5630
2649.913547 0.5614 0.5594 0.5533 0.5463 0.5389
2654.246304 0.5314 0.5259 0.5208 0.5090 0.4960
2658.579061 0.4778 0.4588 0.4474 0.4374 0.4334
2662.911818 0.4304 0.4283 0.4263 0.4225 0.4185
2667.244575 0.4096 0.4001 0.3888 0.3773 0.3618
2671.577332 0.3457 0.3300 0.3143 0.3061 0.2986
2675.910089 0.2841 0.2691 0.2657 0.2632 0.2630
2680.242846 0.2630 0.2649 0.2669 0.2675 0.2680
2684.575603 0.2709 0.2739 0.2759 0.2779 0.2804
2688.908360 0.2829 0.2850 0.2870 0.2875 0.2880
2693.241117 0.2875 0.2870 0.2865 0.2860 0.2819
2697.573874 0.2779 0.2744 0.2708 0.2623 0.2537
2701.906631 0.2427 0.2317 0.2211 0.2110 0.2100
2706.239388 0.2085 0.1969 0.1852 0.1726 0.1599
2710.572145 0.1443 0.1291 0.1181 0.1076 0.1031
2714.904902 0.0988 0.0968 0.0948 0.0928 0.0900
2719.237659 0.0800 0.0708 0.0693 0.0680 0.0680
2723.570416 0.0680 0.0680 0.0680 0.0680 0.0680
2727.903173 0.0680 0.0678 0.0663 0.0648 0.0638
2732.235930 0.0624 0.0589 0.0557 0.0537 0.0517
2736.568687 0.0502 0.0488 0.0478 0.0466 0.0446
2740.901444 0.0430 0.0430 0.0427 0.0412 0.0400
2745.234201 0.0400 0.0398 0.0388 0.0380 0.0380
2749.566958 0.0382 0.0392 0.0400 0.0400 0.0401
2753.899715 0.0406 0.0413 0.0423 0.0435 0.0455
2758.232472 0.0478 0.0509 0.0556 0.0647 0.0764
2762.565229 0.0944 0.1078 0.1103 0.1123 0.1133
2766.897986 0.1137 0.1127 0.1112 0.1087 0.1062
2771.230743 0.1037 0.1010 0.0980 0.0945 0.0900
2775.563500 0.0863 0.0843 0.0823 0.0803 0.0790
2779.896257 0.0790 0.0790 0.0790 0.0792 0.0797
2784.229014 0.0800 0.0800 0.0808 0.0828 0.0896
2788.561771 0.1037 0.1165 0.1275 0.1371 0.1446
2792.894528 0.1490 0.1490 0.1477 0.1447 0.1410
2797.227285 0.1365 0.1308 0.1238 0.1182 0.1142
2801.560042 0.1108 0.1083 0.1068 0.1063 0.1055
2805.892799 0.1045 0.1040 0.1040 0.1038 0.1033
2810.225556 0.1030 0.1030 0.1027 0.1022 0.1020
2814.558313 0.1020 0.1020 0.1020 0.1015 0.1005
2818.891070 0.0997 0.0992 0.0990 0.0990 0.0987
2823.223827 0.0982 0.0980 0.0980 0.0974 0.0964
2827.556584 0.0954 0.0944 0.0922 0.0892 0.0877
2831.889341 0.0872 0.0867 0.0862 0.0863 0.0868
2836.222098 0.0910 0.0975 0.1034 0.1089 0.1173
2840.554855 0.1273 0.1405 0.1555 0.1639 0.1684
2844.887612 0.1752 0.1833 0.1883 0.1918 0.1940
2849.220369 0.1955 0.1967 0.1977 0.1994 0.2014
2853.553126 0.2041 0.2071 0.2104 0.2139 0.2157
2857.885883 0.2167 0.2255 0.2375 0.2506 0.2642
2862.218640 0.2760 0.2871 0.2941 0.2996 0.3047
2866.551397 0.3098 0.3155 0.3215 0.3260 0.3301
2870.884154 0.3329 0.3354 0.3379 0.3404 0.3457
2875.216911 0.3517 0.3561 0.3601 0.3681 0.3771
2879.549668 0.3826 0.3872 0.3884 0.3889 0.3886
2883.882425 0.3881 0.3868 0.3853 0.3808 0.3758
2888.215182 0.3695 0.3630 0.3497 0.3352 0.3168
2892.547939 0.2977 0.2877 0.2792 0.2681 0.2565
2896.880696 0.2454 0.2342 0.2250 0.2159 0.2083
2901.213453 0.2007 0.1914 0.1819 0.1760 0.1705
2905.546209 0.1677 0.1652 0.1613 0.1573 0.1570
2909.878966 0.1570 0.1607 0.1647 0.1688 0.1728
2914.211723 0.1768 0.1809 0.1849 0.1889 0.1895
2918.544480 0.1900 0.1900 0.1900 0.1890 0.1880
2922.877237 0.1850 0.1820 0.1795 0.1770 0.1710
2927.209994 0.1650 0.1574 0.1499 0.1404 0.1308
2931.542751 0.1212 0.1118 0.1078 0.1039 0.1019
2935.875508 0.0999 0.0979 0.0955 0.0859 0.0766
2940.208265 0.0695 0.0626 0.0566 0.0509 0.0494
2944.541022 0.0479 0.0464 0.0449 0.0439 0.0428
2948.873779 0.0402 0.0379 0.0374 0.0370 0.0370
2953.206536 0.0372 0.0387 0.0410 0.0485 0.0560
2957.539293 0.0630 0.0720 0.0931 0.1139 0.1335
2961.872050 0.1506 0.1546 0.1583 0.1603 0.1627
2966.204807 0.1667 0.1706 0.1736 0.1786 0.1916
2970.537564 0.2050 0.2201 0.2339 0.2429 0.2519
2974.870321 0.2609 0.2709 0.2839 0.2952 0.3008
2979.203078 0.3052 0.3062 0.3125 0.3361 0.3550
2983.535835 0.3590 0.3644 0.3734 0.3831 0.3946
2987.868592 0.4052 0.4132 0.4218 0.4319 0.4414
2992.201349 0.4500 0.4575 0.4625 0.4664 0.4680
2996.534106 0.4708 0.4768 0.4841 0.4941 0.5048
3000.866863 0.5170 0.5291 0.5411 0.5502 0.5537
3005.199620 0.5593 0.5689 0.5798 0.5934 0.6073
3009.532377 0.6218 0.6358 0.6488 0.6594 0.6660
3013.865134 0.6736 0.6831 0.6900 0.6925 0.6974
3018.197891 0.7060 0.7137 0.7202 0.7267 0.7333
3022.530648 0.7398 0.7463 0.7513 0.7543 0.7578
3026.863405 0.7618 0.7667 0.7727 0.7798 0.7883
3031.196162 0.7957 0.8017 0.8078 0.8138 0.8182
3035.528919 0.8207 0.8237 0.8272 0.8310 0.8350
3039.861676 0.8383 0.8408 0.8445 0.8496 0.8541
3044.194433 0.8581 0.8610 0.8630 0.8650 0.8671
3048.527190 0.8699 0.8734 0.8761 0.8781 0.8804
3052.859947 0.8829 0.8854 0.8879 0.8890 0.8890
3057.192704 0.8899 0.8914 0.8932 0.8952 0.8969
3061.525461 0.8984 0.9008 0.9038 0.9071 0.9106
3065.858218 0.9120 0.9120 0.9141 0.9176 0.9199
3070.190975 0.9215 0.9239 0.9269 0.9299 0.9329
3074.523732 0.9343 0.9348 0.9353 0.9358 0.9370
3078.856489 0.9385 0.9403 0.9423 0.9440 0.9455
3083.189246 0.9467 0.9477 0.9490 0.9505 0.9520
3087.522003 0.9536 0.9540 0.9540 0.9540 0.9540
3091.854760 0.9544 0.9549 0.9554 0.9559 0.9567
3096.187517 0.9577 0.9584 0.9589 0.9597 0.9608
3100.520274 0.9610 0.9610 0.9614 0.9619 0.9624
3104.853031 0.9629 0.9638 0.9648 0.9654 0.9659
3109.185788 0.9692 0.9732 0.9752 0.9767 0.9770
3113.518545 0.9770 0.9770 0.9770 0.9770 0.9770
3117.851302 0.9762 0.9752 0.9779 0.9814 0.9837
3122.184059 0.9857 0.9864 0.9869 0.9870 0.9870
3126.516816 0.9866 0.9861 0.9856 0.9851 0.9850
3130.849573 0.9850 0.9854 0.9859 0.9874 0.9889
3135.182330 0.9895 0.9900 0.9905 0.9910 0.9910
3139.515087 0.9910 0.9901 0.9891 0.9881 0.9870
3143.847844 0.9880 0.9890 0.9895 0.9900 0.9905
3148.180601 0.9910 0.9920 0.9930 0.9940 0.9950
3152.513358 0.9950 0.9950 0.9965 0.9980 0.9980
3156.846115 0.9980 0.9975 0.9970 0.9960 0.9950
3161.178872 0.9929 0.9910 0.9905 0.9900 0.9905
3165.511628 0.9910 0.9910 0.9910 0.9910 0.9909
3169.844385 0.9899 0.9889 0.9874 0.9858 0.9822
3174.177142 0.9789 0.9779 0.9766 0.9726 0.9687
3178.509899 0.9657 0.9629 0.9619 0.9608 0.9593
3182.842656 0.9577 0.9546 0.9518 0.9498 0.9477
3187.175413 0.9457 0.9433 0.9383 0.9335 0.9300
3191.508170 0.9270 0.9270 0.9281 0.9346 0.9417
3195.840927 0.9512 0.9595 0.9625 0.9652 0.9662
3200.173684 0.9683 0.9754 0.9814 0.9834 0.9850
3204.506441 0.9850 0.9850 0.9850 0.9850 0.9850
3208.839198 0.9851 0.9856 0.9861 0.9866 0.9873
3213.171955 0.9883 0.9891 0.9896 0.9905 0.9925
3217.504712 0.9940 0.9940 0.9941 0.9946 0.9953
3221.837469 0.9963 0.9970 0.9970 0.9971 0.9977
3226.170226 0.9980 0.9980 0.9980 0.9980 0.9980
3230.502983 0.9980 0.9978 0.9973 0.9970 0.9970
3234.835740 0.9970 0.9970 0.9967 0.9957 0.9950
3239.168497 0.9950 0.9950 0.9950 0.9950 0.9950
3243.501254 0.9950 0.9950 0.9950 0.9950 0.9950
3247.834011 0.9950 0.9954 0.9964 0.9970 0.9970
3252.166768 0.9970 0.9970 0.9970 0.9970 0.9970
3256.499525 0.9970 0.9970 0.9970 0.9963 0.9948
3260.832282 0.9938 0.9933 0.9930 0.9930 0.9930
3265.165039 0.9930 0.9932 0.9937 0.9940 0.9940
3269.497796 0.9940 0.9940 0.9942 0.9948 0.9950
3273.830553 0.9950 0.9947 0.9942 0.9940 0.9940
3278.163310 0.9937 0.9932 0.9922 0.9907 0.9900
3282.496067 0.9900 0.9900 0.9900 0.9900 0.9900
3286.828824 0.9900 0.9900 0.9897 0.9892 0.9881
3291.161581 0.9866 0.9860 0.9860 0.9863 0.9868
3295.494338 0.9870 0.9870 0.9876 0.9886 0.9890
3299.827095 0.9890 0.9890 0.9890 0.9890 0.9890
3304.159852 0.9890 0.9890 0.9890 0.9890 0.9890
3308.492609 0.9890 0.9890 0.9890 0.9890 0.9890
3312.825366 0.9890 0.9890 0.9890 0.9890 0.9890
3317.158123 0.9890 0.9883 0.9873 0.9866 0.9861
3321.490880 0.9856 0.9851 0.9850 0.9850 0.9850
3325.823637 0.9850 0.9854 0.9859 0.9860 0.9860
3330.156394 0.9860 0.9860 0.9860 0.9860 0.9856
3334.489151 0.9851 0.9850 0.9850 0.9842 0.9832
3338.821908 0.9838 0.9848 0.9842 0.9832 0.9830
3343.154665 0.9830 0.9830 0.9830 0.9826 0.9821
3347.487422 0.9816 0.9811 0.9810 0.9810 0.9801
3351.820179 0.9791 0.9790 0.9790 0.9790 0.9790
3356.152936 0.9790 0.9790 0.9790 0.9790 0.9790
3360.485693 0.9790 0.9790 0.9790 0.9790 0.9790
3364.818450 0.9790 0.9790 0.9790 0.9790 0.9790
3369.151207 0.9790 0.9790 0.9790 0.9785 0.9780
3373.483964 0.9780 0.9780 0.9780 0.9780 0.9780
3377.816721 0.9780 0.9775 0.9770 0.9760 0.9750
3382.149478 0.9750 0.9750 0.9750 0.9750 0.9750
3386.482235 0.9750 0.9750 0.9750 0.9750 0.9750
3390.814992 0.9750 0.9750 0.9760 0.9770 0.9770
3395.147749 0.9770 0.9770 0.9770 0.9770 0.9770
3399.480506 0.9775 0.9780 0.9775 0.9769 0.9759
3403.813263 0.9750 0.9745 0.9740 0.9740 0.9740
3408.146020 0.9735 0.9730 0.9730 0.9729 0.9719
3412.478777 0.9710 0.9710 0.9710 0.9710 0.9710
3416.811534 0.9710 0.9710 0.9710 0.9710 0.9710
3421.144291 0.9712 0.9722 0.9732 0.9742 0.9750
3425.477047 0.9750 0.9752 0.9762 0.9770 0.9770
3429.809804 0.9768 0.9758 0.9748 0.9738 0.9726
3434.142561 0.9706 0.9686 0.9666 0.9647 0.9632
3438.475318 0.9620 0.9620 0.9619 0.9614 0.9610
3442.808075 0.9610 0.9615 0.9635 0.9651 0.9656
3447.140832 0.9661 0.9666 0.9673 0.9683 0.9690
3451.473589 0.9690 0.9686 0.9671 0.9654 0.9634
3455.806346 0.9618 0.9613 0.9610 0.9610 0.9612
3460.139103 0.9617 0.9622 0.9627 0.9630 0.9630
3464.471860 0.9630 0.9630 0.9630 0.9630 0.9628
3468.804617 0.9623 0.9620 0.9620 0.9618 0.9613
3473.137374 0.9610 0.9610 0.9610 0.9610 0.9610
3477.470131 0.9610 0.9610 0.9610 0.9612 0.9617
3481.802888 0.9620 0.9620 0.9618 0.9613 0.9610
3486.135645 0.9610 0.9606 0.9596 0.9588 0.9583
3490.468402 0.9580 0.9580 0.9575 0.9565 0.9560
3494.801159 0.9560 0.9558 0.9553 0.9550 0.9550
3499.133916 0.9550 0.9550 0.9550 0.9550 0.9550
3503.466673 0.9550 0.9553 0.9558 0.9565 0.9575
3507.799430 0.9580 0.9580 0.9588 0.9603 0.9610
3512.132187 0.9610 0.9613 0.9618 0.9623 0.9628
3516.464944 0.9636 0.9646 0.9639 0.9618 0.9604
3520.797701 0.9594 0.9581 0.9566 0.9560 0.9560
3525.130458 0.9560 0.9560 0.9560 0.9560 0.9560
3529.463215 0.9560 0.9557 0.9552 0.9550 0.9550
3533.795972 0.9550 0.9550 0.9553 0.9558 0.9560
3538.128729 0.9560 0.9560 0.9560 0.9560 0.9560
3542.461486 0.9560 0.9560 0.9560 0.9560 0.9560
3546.794243 0.9560 0.9560 0.9560 0.9567 0.9577
3551.127000 0.9584 0.9589 0.9590 0.9590 0.9590
3555.459757 0.9590 0.9597 0.9607 0.9614 0.9619
3559.792514 0.9616 0.9611 0.9599 0.9584 0.9572
3564.125271 0.9562 0.9556 0.9551 0.9550 0.9550
3568.458028 0.9546 0.9541 0.9532 0.9522 0.9512
3572.790785 0.9502 0.9492 0.9482 0.9459 0.9434
3577.123542 0.9430 0.9430 0.9463 0.9503 0.9527
3581.456299 0.9547 0.9554 0.9559 0.9560 0.9560
3585.789056 0.9560 0.9560 0.9560 0.9560 0.9560
3590.121813 0.9560 0.9560 0.9560 0.9560 0.9560
3594.454570 0.9560 0.9560 0.9560 0.9560 0.9560
3598.787327 0.9560 0.9569 0.9579 0.9571 0.9561
3603.120084 0.9560 0.9560 0.9560 0.9560 0.9560
3607.452841 0.9560 0.9570 0.9580 0.9580 0.9580
3611.785598 0.9580 0.9580 0.9580 0.9580 0.9580
3616.118355 0.9580 0.9595 0.9610 0.9620 0.9630
3620.451112 0.9630 0.9630 0.9589 0.9549 0.9534
3624.783869 0.9520 0.9515 0.9510 0.9515 0.9521
3629.116626 0.9531 0.9540 0.9545 0.9550 0.9550
3633.449383 0.9550 0.9550 0.9551 0.9572 0.9591
3637.782140 0.9606 0.9620 0.9620 0.9618 0.9603
3642.114897 0.9588 0.9573 0.9560 0.9560 0.9560
3646.447654 0.9560 0.9560 0.9560 0.9559 0.9554
3650.780411 0.9548 0.9533 0.9519 0.9514 0.9511
3655.113168 0.9516 0.9523 0.9543 0.9566 0.9602
3659.445925 0.9632 0.9642 0.9651 0.9656 0.9664
3663.778682 0.9684 0.9700 0.9700 0.9696 0.9676
3668.111439 0.9655 0.9630 0.9603 0.9573 0.9547
3672.444196 0.9532 0.9520 0.9520 0.9524 0.9539
3676.776953 0.9555 0.9575 0.9589 0.9584 0.9576
3681.109709 0.9561 0.9549 0.9544 0.9537 0.9527
3685.442466 0.9520 0.9520 0.9520 0.9520 0.9518
3689.775223 0.9513 0.9510 0.9510 0.9508 0.9503
3694.107980 0.9500 0.9500 0.9500 0.9500 0.9500
3698.440737 0.9500 0.9500 0.9500 0.9500 0.9500
3702.773494 0.9500 0.9500 0.9500 0.9500 0.9500
3707.106251 0.9500 0.9500 0.9500 0.9500 0.9500
3711.439008 0.9502 0.9507 0.9510 0.9510 0.9512
3715.771765 0.9517 0.9524 0.9534 0.9542 0.9547
3720.104522 0.9552 0.9557 0.9560 0.9560 0.9565
3724.437279 0.9575 0.9582 0.9587 0.9590 0.9590
3728.770036 0.9588 0.9583 0.9580 0.9580 0.9580
3733.102793 0.9580 0.9575 0.9565 0.9557 0.9552
3737.435550 0.9537 0.9512 0.9492 0.9477 0.9467
3741.768307 0.9462 0.9452 0.9437 0.9430 0.9430
3746.101064 0.9427 0.9422 0.9420 0.9420 0.9420
3750.433821 0.9420 0.9414 0.9404 0.9400 0.9400
3754.766578 0.9400 0.9400 0.9406 0.9416 0.9420
3759.099335 0.9420 0.9420 0.9420 0.9420 0.9420
3763.432092 0.9420 0.9420 0.9414 0.9404 0.9397
3767.764849 0.9392 0.9390 0.9390 0.9387 0.9382
3772.097606 0.9380 0.9380 0.9380 0.9380 0.9380
3776.430363 0.9380 0.9380 0.9380 0.9384 0.9389
3780.763120 0.9390 0.9390 0.9390 0.9390 0.9390
3785.095877 0.9390 0.9386 0.9381 0.9380 0.9380
3789.428634 0.9380 0.9380 0.9380 0.9380 0.9380
3793.761391 0.9380 0.9380 0.9380
##END=
