##TITLE=1,2,3-PROPANETRICARBOXYLIC ACID, 2-HYDROXY-, SODIUM SALT, DIHYDRATE
##JCAMP-DX=4.24
##DATA TYPE=INFRARED SPECTRUM
##CLASS=COBLENTZ III
##ORIGIN=DOW CHEMICAL COMPANY
##OWNER=COBLENTZ SOCIETY
Collection (C) 2018 copyright by the U.S. Secretary of Commerce
on behalf of the United States of America. All rights reserved.
##DATE=1965/05/19
##NAMES=SODIUM CITRATE, DIHYDRATE
##MOLFORM=C6 H5 O7 Na3  * 2 H2 O
##SOURCE REFERENCE=COBLENTZ NO. 10186
##$NIST ID=B6010186
##$NIST SOURCE=COBLENTZ
##$NIST IMAGE=cob10186
##SPECTROMETER/DATA SYSTEM=DOW KBr FOREPRISM-GRATING
##INSTRUMENT PARAMETERS=BLAZED AT 3.5, 12.0, 20.0 MICRON, CHANGED AT 5.0, 7.5, 14.9 MICRON
##STATE=SOLID (SPLIT MULL, FLUOROLUBE FOR 3800-1340 AND NUJOL FOR 1340-400 CM ^-^1)
##SAMPLING PROCEDURE=TRANSMISSION
##RESOLUTION=4
##DATA PROCESSING=DIGITIZED BY NIST FROM HARD COPY (FROM TWO SEGMENTS)
##XUNITS=1/CM
##YUNITS=TRANSMITTANCE
##XFACTOR=1.000000
##YFACTOR=1
##DELTAX=0.853243
##FIRSTX=385.666
##LASTX=3794.37
##FIRSTY=0.617
##MAXX=3794.37
##MINX=385.666
##MAXY=0.957
##MINY=0.018
##NPOINTS=3996
##XYDATA=(X++(Y..Y))
385.666000 0.6170 0.6170 0.6170 0.6170 0.6170
389.932214 0.6170 0.6170 0.6170 0.6170 0.6170
394.198428 0.6160 0.6160 0.6160 0.6160 0.6140
398.464642 0.6130 0.6100 0.6080 0.6040 0.6000
402.730856 0.5940 0.5890 0.5840 0.5780 0.5730
406.997070 0.5690 0.5640 0.5600 0.5560 0.5520
411.263284 0.5500 0.5500 0.5530 0.5560 0.5600
415.529498 0.5680 0.5800 0.6079 0.6279 0.6489
419.795712 0.6950 0.7520 0.7790 0.8100 0.8160
424.061926 0.8260 0.8320 0.8380 0.8420 0.8460
428.328140 0.8500 0.8520 0.8540 0.8560 0.8580
432.594354 0.8590 0.8600 0.8620 0.8620 0.8630
436.860568 0.8640 0.8660 0.8660 0.8670 0.8680
441.126782 0.8680 0.8680 0.8680 0.8670 0.8670
445.392996 0.8670 0.8670 0.8670 0.8670 0.8670
449.659210 0.8670 0.8670 0.8670 0.8670 0.8660
453.925424 0.8640 0.8640 0.8640 0.8640 0.8630
458.191638 0.8630 0.8630 0.8620 0.8600 0.8590
462.457852 0.8590 0.8580 0.8580 0.8580 0.8560
466.724066 0.8550 0.8550 0.8550 0.8540 0.8520
470.990281 0.8520 0.8510 0.8510 0.8500 0.8500
475.256495 0.8500 0.8480 0.8460 0.8440 0.8440
479.522709 0.8430 0.8420 0.8400 0.8390 0.8380
483.788923 0.8380 0.8360 0.8350 0.8350 0.8320
488.055137 0.8320 0.8310 0.8280 0.8230 0.8200
492.321351 0.8190 0.8160 0.8140 0.8110 0.8100
496.587565 0.8070 0.8030 0.8000 0.7980 0.7950
500.853779 0.7910 0.7860 0.7820 0.7790 0.7750
505.119993 0.7700 0.7660 0.7600 0.7590 0.7560
509.386207 0.7510 0.7450 0.7400 0.7360 0.7290
513.652421 0.7240 0.7190 0.7150 0.7090 0.7040
517.918635 0.6990 0.6910 0.6790 0.6631 0.6560
522.184849 0.6450 0.6310 0.6040 0.5740 0.5450
526.451063 0.5260 0.5060 0.4851 0.4631 0.4630
530.717277 0.5050 0.5160 0.5320 0.5330 0.5330
534.983491 0.5330 0.5300 0.5290 0.5260 0.5240
539.249705 0.5180 0.5060 0.4670 0.4550 0.4260
543.515919 0.4060 0.3870 0.3601 0.3401 0.2832
547.782133 0.2640 0.2400 0.2400 0.3029 0.3240
552.048347 0.3858 0.3940 0.3950 0.3970 0.3970
556.314561 0.3950 0.3950 0.3890 0.3890 0.3810
560.580775 0.3720 0.3630 0.3560 0.3540 0.3470
564.846989 0.3430 0.3360 0.3270 0.3150 0.3110
569.113203 0.3040 0.2840 0.2631 0.2600 0.2580
573.379417 0.2580 0.2560 0.2560 0.2550 0.2550
577.645631 0.2550 0.2550 0.2540 0.2540 0.2540
581.911845 0.2520 0.2520 0.2510 0.2500 0.2500
586.178059 0.2480 0.2480 0.2430 0.2390 0.2290
590.444273 0.2170 0.2050 0.1830 0.1570 0.1430
594.710487 0.1390 0.1430 0.1450 0.1450 0.1470
598.976701 0.1650 0.1990 0.2270 0.2400 0.2480
603.242915 0.2480 0.2470 0.2440 0.2430 0.2390
607.509129 0.2360 0.2330 0.2210 0.2110 0.1950
611.775343 0.1731 0.1650 0.1600 0.1122 0.1001
616.041557 0.0860 0.0850 0.0860 0.0900 0.1080
620.307771 0.1200 0.1290 0.1370 0.1400 0.1440
624.573985 0.1470 0.1480 0.1490 0.1490 0.1510
628.840199 0.1520 0.1550 0.1560 0.1570 0.1570
633.106413 0.1590 0.1600 0.1630 0.1640 0.1640
637.372627 0.1650 0.1670 0.1690 0.1720 0.1730
641.638842 0.1750 0.1770 0.1790 0.1790 0.1800
645.905056 0.1810 0.1840 0.1850 0.1870 0.1880
650.171270 0.1910 0.1930 0.1970 0.2000 0.2050
654.437484 0.2090 0.2130 0.2190 0.2240 0.2280
658.703698 0.2360 0.2410 0.2480 0.2520 0.2580
662.969912 0.2600 0.2600 0.2620 0.2620 0.2620
667.236126 0.2600 0.2580 0.2550 0.2470 0.2360
671.502340 0.2280 0.2270 0.2290 0.2469 0.2799
675.768554 0.3110 0.3340 0.3460 0.3660 0.3890
680.034768 0.4389 0.4500 0.4590 0.4610 0.4660
684.300982 0.4670 0.4700 0.4750 0.4770 0.4780
688.567196 0.4790 0.4790 0.4820 0.4830 0.4850
692.833410 0.4860 0.4870 0.4870 0.4860 0.4860
697.099624 0.4860 0.4850 0.4830 0.4830 0.4810
701.365838 0.4780 0.4780 0.4770 0.4750 0.4710
705.632052 0.4660 0.4650 0.4610 0.4580 0.4570
709.898266 0.4510 0.4460 0.4370 0.4300 0.4260
714.164480 0.4180 0.4090 0.3980 0.3950 0.3831
718.430694 0.3740 0.3680 0.3460 0.3340 0.3150
722.696908 0.3070 0.3000 0.2950 0.2870 0.2820
726.963122 0.2800 0.2820 0.2870 0.2920 0.3000
731.229336 0.3080 0.3180 0.3270 0.3400 0.3510
735.495550 0.3540 0.3540 0.3520 0.3520 0.3510
739.761764 0.3510 0.3460 0.3400 0.3340 0.3310
744.027978 0.3260 0.3160 0.3000 0.2940 0.2840
748.294192 0.2710 0.2640 0.2520 0.2370 0.2231
752.560406 0.2130 0.2120 0.2130 0.2160 0.2190
756.826620 0.2250 0.2290 0.2310 0.2360 0.2410
761.092834 0.2510 0.2620 0.2700 0.2830 0.2940
765.359048 0.3070 0.3150 0.3200 0.3280 0.3300
769.625262 0.3380 0.3500 0.3600 0.3680 0.3720
773.891476 0.3790 0.3890 0.3980 0.4050 0.4140
778.157690 0.4170 0.4250 0.4350 0.4450 0.4490
782.423904 0.4570 0.4630 0.4660 0.4690 0.4710
786.690118 0.4750 0.4770 0.4780 0.4780 0.4780
790.956332 0.4770 0.4740 0.4700 0.4670 0.4650
795.222546 0.4650 0.4570 0.4540 0.4460 0.4410
799.488760 0.4310 0.4180 0.4050 0.3980 0.3930
803.754974 0.3810 0.3710 0.3680 0.3670 0.3670
808.021188 0.3680 0.3700 0.3720 0.3780 0.3890
812.287403 0.4010 0.4070 0.4150 0.4250 0.4370
816.553617 0.4550 0.4660 0.4790 0.4949 0.5179
820.819831 0.5610 0.5850 0.6000 0.6090 0.6200
825.086045 0.6310 0.6430 0.6480 0.6550 0.6570
829.352259 0.6550 0.6510 0.6330 0.5801 0.5640
833.618473 0.5480 0.5121 0.4751 0.4730 0.4730
837.884687 0.4710 0.4670 0.4270 0.3471 0.2841
842.150901 0.2251 0.1651 0.1650 0.1849 0.2049
846.417115 0.2431 0.2830 0.3220 0.3700 0.3860
850.683329 0.4259 0.5607 0.5730 0.5919 0.6159
854.949543 0.6320 0.6470 0.6630 0.6810 0.6920
859.215757 0.7070 0.7230 0.7390 0.7539 0.7600
863.481971 0.7710 0.7780 0.7830 0.7920 0.7950
867.748185 0.7960 0.8060 0.8110 0.8140 0.8190
872.014399 0.8220 0.8230 0.8230 0.8240 0.8240
876.280613 0.8240 0.8240 0.8230 0.8230 0.8220
880.546827 0.8190 0.8160 0.8120 0.8110 0.8000
884.813041 0.7940 0.7760 0.7580 0.7401 0.7241
889.079255 0.6719 0.6180 0.5820 0.5460 0.4431
893.345469 0.4070 0.4070 0.4748 0.5737 0.6218
897.611683 0.6320 0.6330 0.6330 0.6050 0.5571
901.877897 0.5340 0.5121 0.4791 0.4451 0.3972
906.144111 0.3480 0.3460 0.3470 0.3680 0.3900
910.410325 0.4180 0.5857 0.6439 0.6649 0.6949
914.676539 0.7410 0.7800 0.8040 0.8190 0.8310
918.942753 0.8400 0.8540 0.8630 0.8670 0.8700
923.208967 0.8710 0.8720 0.8750 0.8770 0.8780
927.475181 0.8780 0.8790 0.8790 0.8780 0.8780
931.741395 0.8770 0.8740 0.8720 0.8710 0.8700
936.007609 0.8620 0.8550 0.8400 0.8350 0.8061
940.273823 0.7280 0.6970 0.6600 0.6290 0.6290
944.540037 0.6879 0.6970 0.7159 0.7469 0.7450
948.806251 0.7330 0.7199 0.6590 0.5960 0.6010
953.072465 0.6669 0.7119 0.8188 0.8439 0.8550
957.338679 0.8670 0.8710 0.8720 0.8770 0.8790
961.604893 0.8810 0.8830 0.8850 0.8860 0.8870
965.871107 0.8890 0.8900 0.8900 0.8910 0.8930
970.137321 0.8930 0.8950 0.8980 0.8990 0.9010
974.403535 0.9020 0.9050 0.9060 0.9090 0.9090
978.669749 0.9100 0.9110 0.9110 0.9130 0.9130
982.935964 0.9130 0.9130 0.9130 0.9130 0.9130
987.202178 0.9130 0.9130 0.9130 0.9110 0.9110
991.468392 0.9110 0.9110 0.9110 0.9110 0.9110
995.734606 0.9100 0.9100 0.9100 0.9090 0.9090
1000.000820 0.9090 0.9090 0.9090 0.9090 0.9070
1004.267034 0.9070 0.9070 0.9070 0.9070 0.9060
1008.533248 0.9060 0.9060 0.9070 0.9070 0.9070
1012.799462 0.9070 0.9070 0.9060 0.9060 0.9060
1017.065676 0.9060 0.9060 0.9050 0.9050 0.9030
1021.331890 0.9020 0.9010 0.8990 0.8990 0.8980
1025.598104 0.8980 0.8980 0.8970 0.8970 0.8950
1029.864318 0.8950 0.8930 0.8930 0.8910 0.8910
1034.130532 0.8910 0.8910 0.8900 0.8900 0.8860
1038.396746 0.8850 0.8850 0.8820 0.8820 0.8810
1042.662960 0.8790 0.8790 0.8780 0.8750 0.8720
1046.929174 0.8700 0.8680 0.8680 0.8670 0.8630
1051.195388 0.8580 0.8520 0.8500 0.8420 0.8360
1055.461602 0.8310 0.8180 0.8060 0.7940 0.7582
1059.727816 0.6930 0.6890 0.6810 0.6430 0.6330
1063.994030 0.5961 0.6010 0.6309 0.6749 0.7308
1068.260244 0.7510 0.7520 0.7520 0.7430 0.7250
1072.526458 0.7150 0.6771 0.6471 0.5642 0.5281
1076.792672 0.4899 0.3860 0.2820 0.2820 0.3339
1081.058886 0.3849 0.4488 0.6165 0.6599 0.7108
1085.325100 0.7680 0.7950 0.8100 0.8120 0.8150
1089.591314 0.8190 0.8220 0.8260 0.8300 0.8300
1093.857528 0.8310 0.8310 0.8320 0.8350 0.8360
1098.123742 0.8380 0.8380 0.8390 0.8390 0.8380
1102.389956 0.8380 0.8380 0.8360 0.8360 0.8360
1106.656170 0.8350 0.8340 0.8320 0.8320 0.8310
1110.922384 0.8300 0.8300 0.8260 0.8230 0.8220
1115.188598 0.8200 0.8180 0.8150 0.8120 0.8100
1119.454812 0.8070 0.8030 0.7990 0.7980 0.7960
1123.721026 0.7920 0.7860 0.7800 0.7780 0.7750
1127.987240 0.7740 0.7740 0.7670 0.7590 0.7560
1132.253454 0.7500 0.7440 0.7400 0.7330 0.7270
1136.519668 0.7190 0.7080 0.6990 0.6950 0.6800
1140.785882 0.6640 0.6480 0.6320 0.6171 0.6021
1145.052096 0.5880 0.5620 0.5520 0.5400 0.5240
1149.318310 0.5010 0.4770 0.4491 0.4181 0.3891
1153.584525 0.3700 0.3430 0.3180 0.2900 0.2870
1157.850739 0.2880 0.3000 0.3110 0.3220 0.3628
1162.116953 0.4070 0.4260 0.4690 0.5540 0.5760
1166.383167 0.6159 0.6409 0.6510 0.6590 0.6720
1170.649381 0.6830 0.6910 0.6950 0.6970 0.6990
1174.915595 0.6990 0.6990 0.6970 0.6970 0.6960
1179.181809 0.6920 0.6920 0.6890 0.6810 0.6790
1183.448023 0.6750 0.6730 0.6630 0.6480 0.6350
1187.714237 0.6210 0.6120 0.5820 0.5650 0.5480
1191.980451 0.5051 0.4661 0.4231 0.3931 0.3930
1196.246665 0.4050 0.4670 0.5170 0.5979 0.6439
1200.512879 0.6719 0.6830 0.6840 0.6840 0.6850
1204.779093 0.6850 0.6840 0.6840 0.6830 0.6810
1209.045307 0.6810 0.6770 0.6760 0.6730 0.6720
1213.311521 0.6680 0.6650 0.6610 0.6600 0.6590
1217.577735 0.6570 0.6570 0.6530 0.6480 0.6450
1221.843949 0.6440 0.6430 0.6430 0.6390 0.6360
1226.110163 0.6330 0.6310 0.6290 0.6280 0.6240
1230.376377 0.6180 0.6170 0.6140 0.6130 0.6080
1234.642591 0.6050 0.6020 0.6000 0.5900 0.5880
1238.908805 0.5860 0.5780 0.5730 0.5700 0.5660
1243.175019 0.5600 0.5600 0.5540 0.5490 0.5420
1247.441233 0.5340 0.5250 0.5250 0.5160 0.5120
1251.707447 0.5010 0.4930 0.4860 0.4780 0.4700
1255.973661 0.4590 0.4470 0.4380 0.4260 0.4210
1260.239875 0.4030 0.3950 0.3781 0.3621 0.3520
1264.506089 0.3300 0.2990 0.2800 0.2520 0.2250
1268.772303 0.2010 0.1651 0.1311 0.1091 0.1090
1273.038517 0.1270 0.1280 0.1290 0.1290 0.1290
1277.304731 0.1280 0.1180 0.1120 0.1040 0.0930
1281.570945 0.0810 0.0650 0.0450 0.0420 0.0420
1285.837159 0.0440 0.0480 0.0640 0.1049 0.1638
1290.103373 0.2271 0.2761 0.3310 0.3830 0.4050
1294.369587 0.4070 0.4070 0.4050 0.3970 0.3870
1298.635801 0.3779 0.3120 0.2790 0.2440 0.2270
1302.902015 0.1751 0.1251 0.1041 0.0940 0.0840
1307.168229 0.0410 0.0380 0.0380 0.0400 0.0540
1311.434443 0.0800 0.2277 0.2519 0.2999 0.3279
1315.700657 0.3700 0.4150 0.4550 0.5040 0.5170
1319.966871 0.5290 0.5340 0.5370 0.5370 0.5360
1324.233086 0.5340 0.5320 0.5280 0.5240 0.5220
1328.499300 0.5210 0.5100 0.5080 0.5040 0.4980
1332.765514 0.4930 0.4900 0.4890 0.4870 0.4850
1337.031728 0.4830 0.4820 0.4810 0.4780 0.4770
1341.297942 0.4750 0.4740 0.4710 0.4700 0.4690
1345.564156 0.4670 0.4660 0.4650 0.4650 0.4620
1349.830370 0.4610 0.4590 0.4580 0.4540 0.4540
1354.096584 0.4490 0.4450 0.4430 0.4380 0.4340
1358.362798 0.4330 0.4250 0.4180 0.4140 0.4060
1362.629012 0.3950 0.3890 0.3820 0.3770 0.3680
1366.895226 0.3620 0.3590 0.3540 0.3500 0.3400
1371.161440 0.3110 0.3040 0.2960 0.2830 0.2700
1375.427654 0.2520 0.2400 0.2270 0.2150 0.2120
1379.693868 0.1880 0.1561 0.1480 0.1281 0.1210
1383.960082 0.1020 0.0940 0.0850 0.0840 0.0810
1388.226296 0.0810 0.0800 0.0800 0.0780 0.0780
1392.492510 0.0780 0.0800 0.0800 0.0820 0.0840
1396.758724 0.0880 0.0920 0.0980 0.1000 0.1000
1401.024938 0.0980 0.0970 0.0960 0.0940 0.0940
1405.291152 0.1040 0.1180 0.1679 0.2069 0.2090
1409.557366 0.2080 0.1990 0.1790 0.1570 0.1530
1413.823580 0.1250 0.1080 0.1050 0.1040 0.1040
1418.089794 0.1050 0.1060 0.1090 0.1130 0.1160
1422.356008 0.1240 0.1320 0.1350 0.1370 0.1400
1426.622222 0.1450 0.1510 0.1530 0.1550 0.1570
1430.888436 0.1600 0.1600 0.1600 0.1590 0.1570
1435.154650 0.1560 0.1490 0.1470 0.1440 0.1440
1439.420864 0.1430 0.1430 0.1440 0.1470 0.1530
1443.687078 0.1560 0.1690 0.1810 0.2040 0.2230
1447.953292 0.2310 0.2619 0.3059 0.3239 0.3340
1452.219506 0.3360 0.3520 0.3710 0.3970 0.4070
1456.485720 0.4180 0.4260 0.4330 0.4350 0.4460
1460.751934 0.4570 0.4670 0.4770 0.4780 0.4810
1465.018148 0.4870 0.4900 0.4980 0.5000 0.5040
1469.284362 0.5090 0.5130 0.5170 0.5220 0.5260
1473.550576 0.5290 0.5330 0.5340 0.5370 0.5400
1477.816790 0.5450 0.5460 0.5480 0.5520 0.5560
1482.083004 0.5560 0.5580 0.5600 0.5610 0.5620
1486.349218 0.5640 0.5650 0.5660 0.5660 0.5680
1490.615432 0.5680 0.5690 0.5690 0.5700 0.5720
1494.881647 0.5730 0.5740 0.5740 0.5760 0.5770
1499.147861 0.5770 0.5780 0.5780 0.5780 0.5770
1503.414075 0.5740 0.5730 0.5720 0.5690 0.5680
1507.680289 0.5660 0.5650 0.5620 0.5610 0.5600
1511.946503 0.5580 0.5530 0.5500 0.5500 0.5490
1516.212717 0.5480 0.5460 0.5440 0.5410 0.5400
1520.478931 0.5370 0.5340 0.5280 0.5250 0.5220
1524.745145 0.5210 0.5160 0.5120 0.5100 0.5020
1529.011359 0.5010 0.5000 0.4900 0.4860 0.4780
1533.277573 0.4750 0.4700 0.4660 0.4590 0.4550
1537.543787 0.4540 0.4460 0.4450 0.4330 0.4180
1541.810001 0.4090 0.4030 0.3980 0.3950 0.3930
1546.076215 0.3870 0.3860 0.3850 0.3780 0.3710
1550.342429 0.3620 0.3550 0.3500 0.3470 0.3430
1554.608643 0.3350 0.3220 0.3140 0.2990 0.2870
1558.874857 0.2800 0.2640 0.2500 0.2360 0.2201
1563.141071 0.2120 0.2000 0.1910 0.1800 0.1720
1567.407285 0.1600 0.1530 0.1440 0.1290 0.1141
1571.673499 0.1010 0.0980 0.0930 0.0860 0.0760
1575.939713 0.0620 0.0500 0.0400 0.0330 0.0290
1580.205927 0.0240 0.0200 0.0180 0.0180 0.0180
1584.472141 0.0180 0.0180 0.0180 0.0180 0.0200
1588.738355 0.0200 0.0200 0.0210 0.0220 0.0240
1593.004569 0.0250 0.0260 0.0280 0.0280 0.0300
1597.270783 0.0320 0.0340 0.0360 0.0410 0.0440
1601.536997 0.0460 0.0480 0.0490 0.0500 0.0500
1605.803211 0.0530 0.0540 0.0560 0.0570 0.0580
1610.069425 0.0600 0.0610 0.0620 0.0690 0.0760
1614.335639 0.0800 0.0860 0.1000 0.1010 0.1060
1618.601853 0.1140 0.1330 0.1490 0.1600 0.1680
1622.868067 0.1760 0.1880 0.1950 0.2010 0.2090
1627.134281 0.2150 0.2210 0.2240 0.2330 0.2470
1631.400495 0.2781 0.3070 0.3140 0.3200 0.3280
1635.666709 0.3360 0.3440 0.3600 0.3710 0.3820
1639.932923 0.3870 0.3970 0.4010 0.4050 0.4050
1644.199137 0.4060 0.4060 0.4060 0.4050 0.4050
1648.465351 0.4050 0.4030 0.4030 0.4030 0.4030
1652.731565 0.4030 0.4050 0.4050 0.4060 0.4060
1656.997779 0.4090 0.4090 0.4100 0.4110 0.4140
1661.263993 0.4180 0.4300 0.4330 0.4350 0.4450
1665.530208 0.4470 0.4540 0.4650 0.4670 0.4750
1669.796422 0.4770 0.4860 0.4870 0.4930 0.4950
1674.062636 0.4980 0.5010 0.5100 0.5120 0.5240
1678.328850 0.5580 0.5740 0.5860 0.5980 0.6120
1682.595064 0.6280 0.6440 0.6590 0.6670 0.6750
1686.861278 0.6890 0.6950 0.7080 0.7249 0.7399
1691.127492 0.7480 0.7600 0.7710 0.7750 0.7800
1695.393706 0.7910 0.7940 0.7990 0.8030 0.8070
1699.659920 0.8120 0.8160 0.8180 0.8190 0.8230
1703.926134 0.8270 0.8280 0.8300 0.8320 0.8350
1708.192348 0.8360 0.8380 0.8400 0.8420 0.8470
1712.458562 0.8480 0.8500 0.8500 0.8510 0.8520
1716.724776 0.8540 0.8550 0.8580 0.8590 0.8600
1720.990990 0.8620 0.8640 0.8660 0.8670 0.8680
1725.257204 0.8700 0.8710 0.8720 0.8720 0.8740
1729.523418 0.8770 0.8780 0.8790 0.8820 0.8830
1733.789632 0.8830 0.8870 0.8890 0.8900 0.8900
1738.055846 0.8910 0.8930 0.8950 0.8970 0.8990
1742.322060 0.9030 0.9030 0.9050 0.9070 0.9090
1746.588274 0.9090 0.9100 0.9110 0.9130 0.9130
1750.854488 0.9150 0.9180 0.9180 0.9190 0.9210
1755.120702 0.9210 0.9220 0.9230 0.9230 0.9230
1759.386916 0.9250 0.9250 0.9260 0.9270 0.9290
1763.653130 0.9290 0.9290 0.9300 0.9300 0.9300
1767.919344 0.9300 0.9300 0.9300 0.9300 0.9310
1772.185558 0.9310 0.9310 0.9330 0.9330 0.9330
1776.451772 0.9330 0.9330 0.9340 0.9340 0.9350
1780.717986 0.9350 0.9370 0.9370 0.9370 0.9370
1784.984200 0.9380 0.9380 0.9380 0.9390 0.9390
1789.250414 0.9390 0.9390 0.9410 0.9420 0.9420
1793.516628 0.9430 0.9450 0.9450 0.9450 0.9460
1797.782842 0.9460 0.9460 0.9460 0.9460 0.9460
1802.049056 0.9460 0.9470 0.9470 0.9470 0.9470
1806.315270 0.9470 0.9470 0.9490 0.9490 0.9490
1810.581484 0.9500 0.9510 0.9530 0.9530 0.9530
1814.847698 0.9510 0.9510 0.9510 0.9510 0.9510
1819.113912 0.9510 0.9510 0.9510 0.9510 0.9510
1823.380126 0.9510 0.9510 0.9510 0.9510 0.9530
1827.646340 0.9530 0.9510 0.9510 0.9510 0.9510
1831.912554 0.9510 0.9510 0.9530 0.9530 0.9530
1836.178769 0.9530 0.9530 0.9530 0.9530 0.9510
1840.444983 0.9510 0.9510 0.9510 0.9510 0.9510
1844.711197 0.9510 0.9510 0.9510 0.9510 0.9510
1848.977411 0.9510 0.9510 0.9510 0.9510 0.9510
1853.243625 0.9510 0.9510 0.9510 0.9510 0.9510
1857.509839 0.9530 0.9530 0.9530 0.9530 0.9530
1861.776053 0.9540 0.9540 0.9550 0.9550 0.9550
1866.042267 0.9550 0.9550 0.9550 0.9550 0.9550
1870.308481 0.9550 0.9550 0.9550 0.9550 0.9550
1874.574695 0.9550 0.9550 0.9550 0.9550 0.9550
1878.840909 0.9550 0.9550 0.9550 0.9550 0.9550
1883.107123 0.9550 0.9550 0.9550 0.9550 0.9550
1887.373337 0.9550 0.9550 0.9550 0.9550 0.9570
1891.639551 0.9570 0.9550 0.9550 0.9550 0.9550
1895.905765 0.9550 0.9550 0.9550 0.9550 0.9550
1900.171979 0.9550 0.9550 0.9540 0.9540 0.9540
1904.438193 0.9540 0.9540 0.9530 0.9530 0.9530
1908.704407 0.9530 0.9530 0.9530 0.9530 0.9530
1912.970621 0.9530 0.9530 0.9530 0.9530 0.9530
1917.236835 0.9530 0.9530 0.9530 0.9530 0.9530
1921.503049 0.9530 0.9530 0.9530 0.9530 0.9530
1925.769263 0.9530 0.9530 0.9530 0.9530 0.9530
1930.035477 0.9510 0.9510 0.9510 0.9510 0.9510
1934.301691 0.9510 0.9500 0.9500 0.9500 0.9500
1938.567905 0.9500 0.9500 0.9500 0.9500 0.9510
1942.834119 0.9510 0.9510 0.9510 0.9510 0.9510
1947.100333 0.9510 0.9510 0.9510 0.9510 0.9510
1951.366547 0.9530 0.9540 0.9540 0.9540 0.9550
1955.632761 0.9550 0.9570 0.9570 0.9570 0.9570
1959.898975 0.9550 0.9540 0.9460 0.9450 0.9450
1964.165189 0.9430 0.9430 0.9420 0.9420 0.9420
1968.431403 0.9410 0.9410 0.9390 0.9390 0.9390
1972.697617 0.9390 0.9390 0.9390 0.9380 0.9380
1976.963831 0.9380 0.9380 0.9380 0.9380 0.9370
1981.230045 0.9370 0.9370 0.9370 0.9370 0.9370
1985.496259 0.9380 0.9380 0.9370 0.9370 0.9370
1989.762473 0.9370 0.9350 0.9340 0.9340 0.9340
1994.028687 0.9340 0.9340 0.9340 0.9350 0.9350
1998.294901 0.9350 0.9370 0.9370 0.9370 0.9370
2002.561115 0.9375 0.9380 0.9385 0.9390 0.9390
2006.827330 0.9390 0.9390 0.9390 0.9390 0.9390
2011.093544 0.9400 0.9410 0.9410 0.9410 0.9395
2015.359758 0.9380 0.9380 0.9380 0.9380 0.9380
2019.625972 0.9380 0.9380 0.9380 0.9380 0.9380
2023.892186 0.9380 0.9380 0.9380 0.9380 0.9380
2028.158400 0.9380 0.9380 0.9375 0.9370 0.9360
2032.424614 0.9350 0.9350 0.9350 0.9345 0.9340
2036.690828 0.9340 0.9340 0.9335 0.9330 0.9330
2040.957042 0.9330 0.9330 0.9330 0.9330 0.9330
2045.223256 0.9320 0.9310 0.9310 0.9310 0.9310
2049.489470 0.9310 0.9310 0.9310 0.9305 0.9300
2053.755684 0.9300 0.9300 0.9300 0.9300 0.9300
2058.021898 0.9300 0.9300 0.9300 0.9295 0.9290
2062.288112 0.9276 0.9261 0.9255 0.9250 0.9250
2066.554326 0.9250 0.9250 0.9250 0.9255 0.9260
2070.820540 0.9260 0.9260 0.9265 0.9270 0.9270
2075.086754 0.9270 0.9270 0.9270 0.9265 0.9260
2079.352968 0.9260 0.9260 0.9255 0.9250 0.9241
2083.619182 0.9231 0.9230 0.9230 0.9230 0.9230
2087.885396 0.9225 0.9220 0.9220 0.9220 0.9220
2092.151610 0.9220 0.9215 0.9210 0.9210 0.9210
2096.417824 0.9201 0.9191 0.9185 0.9180 0.9180
2100.684038 0.9180 0.9175 0.9170 0.9161 0.9151
2104.950252 0.9145 0.9140 0.9135 0.9130 0.9130
2109.216466 0.9130 0.9121 0.9111 0.9110 0.9110
2113.482680 0.9105 0.9100 0.9100 0.9100 0.9100
2117.748894 0.9100 0.9100 0.9100 0.9100 0.9100
2122.015108 0.9100 0.9100 0.9100 0.9100 0.9095
2126.281322 0.9090 0.9090 0.9090 0.9090 0.9090
2130.547536 0.9081 0.9071 0.9065 0.9060 0.9055
2134.813750 0.9050 0.9050 0.9050 0.9041 0.9031
2139.079964 0.9030 0.9030 0.9030 0.9030 0.9025
2143.346178 0.9020 0.9020 0.9020 0.9015 0.9010
2147.612392 0.9010 0.9010 0.9010 0.9010 0.9010
2151.878606 0.9010 0.9001 0.8991 0.8990 0.8990
2156.144820 0.8985 0.8980 0.8975 0.8970 0.8970
2160.411034 0.8970 0.8961 0.8951 0.8946 0.8941
2164.677248 0.8940 0.8940 0.8936 0.8931 0.8930
2168.943462 0.8930 0.8930 0.8930 0.8930 0.8930
2173.209676 0.8921 0.8911 0.8906 0.8901 0.8900
2177.475891 0.8900 0.8896 0.8891 0.8877 0.8862
2181.742105 0.8847 0.8832 0.8830 0.8830 0.8826
2186.008319 0.8821 0.8820 0.8820 0.8820 0.8820
2190.274533 0.8816 0.8811 0.8797 0.8782 0.8767
2194.540747 0.8752 0.8750 0.8750 0.8737 0.8722
2198.806961 0.8720 0.8720 0.8716 0.8711 0.8706
2203.073175 0.8701 0.8691 0.8681 0.8680 0.8680
2207.339389 0.8680 0.8680 0.8680 0.8680 0.8676
2211.605603 0.8671 0.8657 0.8642 0.8623 0.8603
2215.871817 0.8591 0.8581 0.8580 0.8580 0.8567
2220.138031 0.8552 0.8533 0.8513 0.8506 0.8501
2224.404245 0.8491 0.8481 0.8463 0.8443 0.8436
2228.670459 0.8431 0.8417 0.8402 0.8391 0.8381
2232.936673 0.8363 0.8343 0.8331 0.8321 0.8311
2237.202887 0.8302 0.8291 0.8281 0.8263 0.8243
2241.469101 0.8218 0.8194 0.8186 0.8181 0.8180
2245.735315 0.8180 0.8180 0.8180 0.8180 0.8180
2250.001529 0.8180 0.8180 0.8180 0.8180 0.8184
2254.267743 0.8189 0.8194 0.8199 0.8200 0.8200
2258.533957 0.8209 0.8218 0.8224 0.8229 0.8247
2262.800171 0.8267 0.8270 0.8270 0.8274 0.8279
2267.066385 0.8280 0.8280 0.8280 0.8280 0.8280
2271.332599 0.8280 0.8280 0.8280 0.8280 0.8280
2275.598813 0.8288 0.8298 0.8300 0.8300 0.8304
2279.865027 0.8309 0.8314 0.8319 0.8320 0.8320
2284.131241 0.8316 0.8311 0.8310 0.8310 0.8314
2288.397455 0.8319 0.8328 0.8338 0.8340 0.8340
2292.663669 0.8348 0.8358 0.8360 0.8360 0.8360
2296.929883 0.8360 0.8356 0.8351 0.8350 0.8350
2301.196097 0.8346 0.8341 0.8340 0.8340 0.8340
2305.462311 0.8340 0.8344 0.8349 0.8354 0.8359
2309.728525 0.8376 0.8396 0.8412 0.8427 0.8446
2313.994739 0.8466 0.8470 0.8470 0.8474 0.8479
2318.260953 0.8480 0.8480 0.8480 0.8480 0.8480
2322.527167 0.8480 0.8480 0.8480 0.8480 0.8480
2326.793381 0.8480 0.8480 0.8480 0.8480 0.8480
2331.059595 0.8480 0.8488 0.8498 0.8500 0.8500
2335.325809 0.8504 0.8509 0.8514 0.8519 0.8520
2339.592023 0.8520 0.8528 0.8538 0.8540 0.8540
2343.858237 0.8532 0.8522 0.8520 0.8520 0.8520
2348.124452 0.8520 0.8528 0.8538 0.8540 0.8540
2352.390666 0.8544 0.8549 0.8554 0.8559 0.8568
2356.656880 0.8578 0.8580 0.8580 0.8580 0.8580
2360.923094 0.8584 0.8589 0.8590 0.8590 0.8590
2365.189308 0.8590 0.8590 0.8590 0.8590 0.8590
2369.455522 0.8590 0.8590 0.8590 0.8590 0.8590
2373.721736 0.8590 0.8590 0.8590 0.8590 0.8590
2377.987950 0.8590 0.8590 0.8590 0.8590 0.8590
2382.254164 0.8590 0.8590 0.8590 0.8590 0.8590
2386.520378 0.8590 0.8590 0.8590 0.8590 0.8590
2390.786592 0.8590 0.8590 0.8590 0.8590 0.8590
2395.052806 0.8590 0.8590 0.8590 0.8590 0.8590
2399.319020 0.8590 0.8590 0.8590 0.8590 0.8590
2403.585234 0.8586 0.8581 0.8580 0.8580 0.8580
2407.851448 0.8580 0.8572 0.8562 0.8560 0.8560
2412.117662 0.8560 0.8560 0.8560 0.8560 0.8560
2416.383876 0.8560 0.8560 0.8560 0.8560 0.8560
2420.650090 0.8560 0.8560 0.8560 0.8560 0.8560
2424.916304 0.8560 0.8560 0.8560 0.8560 0.8560
2429.182518 0.8560 0.8560 0.8560 0.8560 0.8560
2433.448732 0.8560 0.8560 0.8560 0.8560 0.8560
2437.714946 0.8560 0.8560 0.8560 0.8560 0.8560
2441.981160 0.8560 0.8556 0.8551 0.8550 0.8550
2446.247374 0.8550 0.8550 0.8550 0.8550 0.8550
2450.513588 0.8550 0.8546 0.8541 0.8540 0.8540
2454.779802 0.8533 0.8523 0.8520 0.8520 0.8520
2459.046016 0.8520 0.8520 0.8520 0.8520 0.8520
2463.312230 0.8520 0.8520 0.8516 0.8511 0.8510
2467.578444 0.8510 0.8510 0.8510 0.8514 0.8519
2471.844658 0.8520 0.8520 0.8516 0.8511 0.8510
2476.110872 0.8510 0.8510 0.8510 0.8510 0.8510
2480.377086 0.8506 0.8501 0.8500 0.8500 0.8504
2484.643300 0.8509 0.8510 0.8510 0.8510 0.8510
2488.909514 0.8510 0.8510 0.8510 0.8510 0.8510
2493.175728 0.8510 0.8506 0.8501 0.8500 0.8500
2497.441942 0.8500 0.8500 0.8500 0.8500 0.8500
2501.708156 0.8500 0.8504 0.8509 0.8506 0.8501
2505.974370 0.8500 0.8500 0.8500 0.8500 0.8493
2510.240584 0.8483 0.8480 0.8480 0.8487 0.8497
2514.506798 0.8500 0.8500 0.8500 0.8500 0.8500
2518.773013 0.8500 0.8500 0.8500 0.8500 0.8500
2523.039227 0.8493 0.8483 0.8480 0.8480 0.8480
2527.305441 0.8480 0.8480 0.8480 0.8480 0.8480
2531.571655 0.8477 0.8472 0.8470 0.8470 0.8470
2535.837869 0.8470 0.8470 0.8470 0.8467 0.8462
2540.104083 0.8460 0.8460 0.8453 0.8443 0.8437
2544.370297 0.8432 0.8427 0.8422 0.8420 0.8420
2548.636511 0.8420 0.8420 0.8420 0.8420 0.8420
2552.902725 0.8420 0.8420 0.8420 0.8420 0.8420
2557.168939 0.8420 0.8420 0.8413 0.8403 0.8400
2561.435153 0.8400 0.8397 0.8392 0.8390 0.8390
2565.701367 0.8390 0.8390 0.8390 0.8390 0.8390
2569.967581 0.8390 0.8387 0.8382 0.8373 0.8363
2574.233795 0.8360 0.8360 0.8357 0.8352 0.8347
2578.500009 0.8342 0.8340 0.8340 0.8340 0.8340
2582.766223 0.8333 0.8323 0.8320 0.8320 0.8320
2587.032437 0.8320 0.8320 0.8320 0.8320 0.8320
2591.298651 0.8320 0.8320 0.8320 0.8320 0.8317
2595.564865 0.8312 0.8310 0.8310 0.8310 0.8310
2599.831079 0.8310 0.8310 0.8307 0.8302 0.8300
2604.097293 0.8300 0.8300 0.8300 0.8300 0.8300
2608.363507 0.8294 0.8284 0.8274 0.8264 0.8260
2612.629721 0.8260 0.8260 0.8260 0.8254 0.8244
2616.895935 0.8237 0.8232 0.8230 0.8230 0.8227
2621.162149 0.8222 0.8214 0.8204 0.8197 0.8192
2625.428363 0.8187 0.8182 0.8180 0.8180 0.8171
2629.694577 0.8156 0.8147 0.8142 0.8134 0.8124
2633.960791 0.8117 0.8112 0.8107 0.8102 0.8100
2638.227005 0.8100 0.8091 0.8076 0.8067 0.8062
2642.493219 0.8054 0.8044 0.8040 0.8040 0.8037
2646.759433 0.8032 0.8030 0.8030 0.8027 0.8022
2651.025647 0.8011 0.7996 0.7981 0.7966 0.7960
2655.291861 0.7960 0.7954 0.7944 0.7940 0.7940
2659.558075 0.7940 0.7940 0.7934 0.7924 0.7917
2663.824289 0.7912 0.7907 0.7902 0.7900 0.7900
2668.090503 0.7894 0.7884 0.7877 0.7872 0.7867
2672.356717 0.7862 0.7854 0.7844 0.7840 0.7840
2676.622931 0.7837 0.7832 0.7827 0.7822 0.7814
2680.889145 0.7804 0.7794 0.7784 0.7780 0.7780
2685.155359 0.7774 0.7764 0.7757 0.7752 0.7747
2689.421574 0.7742 0.7734 0.7724 0.7717 0.7712
2693.687788 0.7707 0.7702 0.7694 0.7684 0.7677
2697.954002 0.7672 0.7670 0.7670 0.7658 0.7638
2702.220216 0.7627 0.7622 0.7614 0.7604 0.7597
2706.486430 0.7592 0.7590 0.7590 0.7587 0.7582
2710.752644 0.7574 0.7564 0.7557 0.7552 0.7538
2715.018858 0.7518 0.7507 0.7502 0.7494 0.7484
2719.285072 0.7477 0.7472 0.7461 0.7446 0.7437
2723.551286 0.7432 0.7424 0.7414 0.7407 0.7402
2727.817500 0.7397 0.7392 0.7384 0.7374 0.7364
2732.083714 0.7354 0.7341 0.7326 0.7317 0.7312
2736.349928 0.7304 0.7294 0.7284 0.7274 0.7261
2740.616142 0.7246 0.7237 0.7232 0.7224 0.7214
2744.882356 0.7210 0.7210 0.7210 0.7210 0.7204
2749.148570 0.7194 0.7182 0.7166 0.7149 0.7129
2753.414784 0.7117 0.7112 0.7104 0.7094 0.7087
2757.680998 0.7082 0.7077 0.7072 0.7064 0.7054
2761.947212 0.7050 0.7050 0.7050 0.7050 0.7047
2766.213426 0.7042 0.7040 0.7040 0.7032 0.7017
2770.479640 0.6999 0.6979 0.6964 0.6954 0.6942
2774.745854 0.6927 0.6917 0.6912 0.6910 0.6910
2779.012068 0.6910 0.6910 0.6902 0.6887 0.6867
2783.278282 0.6842 0.6825 0.6815 0.6807 0.6802
2787.544496 0.6800 0.6800 0.6789 0.6769 0.6752
2791.810710 0.6737 0.6730 0.6730 0.6719 0.6699
2796.076924 0.6690 0.6690 0.6687 0.6682 0.6672
2800.343138 0.6657 0.6645 0.6635 0.6619 0.6599
2804.609352 0.6585 0.6575 0.6567 0.6562 0.6552
2808.875566 0.6537 0.6519 0.6499 0.6485 0.6475
2813.141780 0.6465 0.6455 0.6445 0.6435 0.6430
2817.407994 0.6430 0.6420 0.6399 0.6379 0.6359
2821.674208 0.6339 0.6319 0.6305 0.6295 0.6287
2825.940422 0.6282 0.6277 0.6272 0.6262 0.6247
2830.206636 0.6225 0.6195 0.6175 0.6165 0.6155
2834.472850 0.6145 0.6137 0.6132 0.6127 0.6122
2838.739064 0.6104 0.6074 0.6044 0.6015 0.5995
2843.005278 0.5985 0.5980 0.5980 0.5977 0.5972
2847.271492 0.5970 0.5970 0.5962 0.5947 0.5935
2851.537706 0.5925 0.5912 0.5897 0.5890 0.5890
2855.803920 0.5887 0.5882 0.5880 0.5880 0.5875
2860.070135 0.5865 0.5860 0.5860 0.5860 0.5860
2864.336349 0.5860 0.5860 0.5860 0.5860 0.5860
2868.602563 0.5860 0.5858 0.5853 0.5850 0.5850
2872.868777 0.5847 0.5843 0.5835 0.5825 0.5818
2877.134991 0.5813 0.5808 0.5803 0.5793 0.5778
2881.401205 0.5770 0.5770 0.5768 0.5763 0.5760
2885.667419 0.5760 0.5760 0.5760 0.5755 0.5745
2889.933633 0.5728 0.5703 0.5688 0.5683 0.5673
2894.199847 0.5658 0.5643 0.5628 0.5615 0.5605
2898.466061 0.5590 0.5570 0.5551 0.5531 0.5515
2902.732275 0.5505 0.5498 0.5493 0.5483 0.5468
2906.998489 0.5455 0.5445 0.5426 0.5396 0.5351
2911.264703 0.5292 0.5227 0.5157 0.5092 0.5032
2915.530917 0.4995 0.4985 0.4980 0.4980 0.4985
2919.797131 0.4995 0.5009 0.5029 0.5111 0.5261
2924.063345 0.5347 0.5362 0.5368 0.5363 0.5355
2928.329559 0.5345 0.5338 0.5333 0.5328 0.5323
2932.595773 0.5315 0.5305 0.5295 0.5285 0.5275
2936.861987 0.5265 0.5258 0.5253 0.5248 0.5243
2941.128201 0.5235 0.5225 0.5220 0.5220 0.5218
2945.394415 0.5213 0.5208 0.5203 0.5191 0.5171
2949.660629 0.5153 0.5138 0.5123 0.5108 0.5098
2953.926843 0.5093 0.5072 0.5032 0.5003 0.4988
2958.193057 0.4978 0.4973 0.4963 0.4948 0.4851
2962.459271 0.4651 0.4531 0.4511 0.4597 0.4817
2966.725485 0.4964 0.5019 0.5065 0.5100 0.5122
2970.991699 0.5127 0.5130 0.5130 0.5130 0.5130
2975.257913 0.5130 0.5130 0.5130 0.5130 0.5130
2979.524127 0.5130 0.5130 0.5130 0.5128 0.5123
2983.790341 0.5120 0.5120 0.5120 0.5120 0.5120
2988.056555 0.5120 0.5120 0.5120 0.5120 0.5120
2992.322769 0.5120 0.5120 0.5120 0.5120 0.5120
2996.588983 0.5120 0.5120 0.5120 0.5120 0.5120
3000.855197 0.5116 0.5106 0.5100 0.5100 0.5098
3005.121411 0.5093 0.5090 0.5090 0.5090 0.5090
3009.387625 0.5088 0.5083 0.5074 0.5059 0.5050
3013.653839 0.5050 0.5048 0.5043 0.5040 0.5040
3017.920053 0.5036 0.5026 0.5018 0.5013 0.5008
3022.186267 0.5003 0.5000 0.5000 0.4996 0.4986
3026.452481 0.4980 0.4980 0.4978 0.4973 0.4964
3030.718696 0.4949 0.4940 0.4940 0.4938 0.4933
3034.984910 0.4930 0.4930 0.4926 0.4916 0.4910
3039.251124 0.4910 0.4906 0.4896 0.4890 0.4890
3043.517338 0.4886 0.4876 0.4868 0.4863 0.4858
3047.783552 0.4853 0.4850 0.4850 0.4846 0.4836
3052.049766 0.4828 0.4823 0.4818 0.4813 0.4806
3056.315980 0.4796 0.4788 0.4783 0.4778 0.4773
3060.582194 0.4766 0.4756 0.4750 0.4750 0.4748
3064.848408 0.4743 0.4732 0.4712 0.4700 0.4700
3069.114622 0.4694 0.4679 0.4670 0.4670 0.4668
3073.380836 0.4663 0.4658 0.4653 0.4646 0.4636
3077.647050 0.4630 0.4630 0.4628 0.4623 0.4618
3081.913264 0.4613 0.4606 0.4596 0.4588 0.4583
3086.179478 0.4580 0.4580 0.4578 0.4573 0.4570
3090.445692 0.4570 0.4566 0.4556 0.4548 0.4543
3094.711906 0.4540 0.4540 0.4538 0.4533 0.4524
3098.978120 0.4509 0.4495 0.4480 0.4468 0.4463
3103.244334 0.4458 0.4453 0.4446 0.4436 0.4428
3107.510548 0.4423 0.4420 0.4420 0.4413 0.4393
3111.776762 0.4378 0.4373 0.4366 0.4356 0.4348
3116.042976 0.4343 0.4340 0.4340 0.4331 0.4306
3120.309190 0.4283 0.4263 0.4247 0.4237 0.4227
3124.575404 0.4217 0.4207 0.4196 0.4190 0.4190
3128.841618 0.4188 0.4183 0.4175 0.4160 0.4146
3133.107832 0.4137 0.4120 0.4090 0.4067 0.4057
3137.374046 0.4045 0.4030 0.4015 0.4000 0.3988
3141.640260 0.3983 0.3975 0.3960 0.3948 0.3943
3145.906474 0.3935 0.3920 0.3908 0.3903 0.3895
3150.172688 0.3880 0.3867 0.3857 0.3840 0.3810
3154.438902 0.3787 0.3777 0.3767 0.3757 0.3745
3158.705116 0.3730 0.3710 0.3680 0.3653 0.3633
3162.971330 0.3615 0.3600 0.3585 0.3570 0.3557
3167.237544 0.3547 0.3537 0.3527 0.3512 0.3487
3171.503758 0.3465 0.3450 0.3438 0.3433 0.3424
3175.769972 0.3404 0.3385 0.3370 0.3353 0.3333
3180.036186 0.3307 0.3267 0.3232 0.3207 0.3185
3184.302400 0.3170 0.3154 0.3134 0.3118 0.3113
3188.568614 0.3102 0.3077 0.3041 0.2982 0.2931
3192.834828 0.2901 0.2872 0.2847 0.2825 0.2810
3197.101042 0.2792 0.2767 0.2748 0.2743 0.2729
3201.367257 0.2694 0.2665 0.2650 0.2638 0.2633
3205.633471 0.2628 0.2624 0.2616 0.2601 0.2589
3209.899685 0.2584 0.2577 0.2567 0.2557 0.2547
3214.165899 0.2537 0.2527 0.2518 0.2513 0.2509
3218.432113 0.2504 0.2497 0.2487 0.2479 0.2474
3222.698327 0.2467 0.2457 0.2449 0.2444 0.2436
3226.964541 0.2421 0.2410 0.2410 0.2409 0.2404
3231.230755 0.2400 0.2400 0.2399 0.2394 0.2387
3235.496969 0.2377 0.2369 0.2364 0.2359 0.2354
3239.763183 0.2347 0.2337 0.2327 0.2317 0.2310
3244.029397 0.2310 0.2307 0.2297 0.2290 0.2290
3248.295611 0.2289 0.2284 0.2280 0.2280 0.2279
3252.561825 0.2274 0.2270 0.2270 0.2270 0.2270
3256.828039 0.2270 0.2270 0.2271 0.2276 0.2281
3261.094253 0.2286 0.2293 0.2303 0.2310 0.2310
3265.360467 0.2313 0.2323 0.2330 0.2330 0.2335
3269.626681 0.2355 0.2374 0.2389 0.2404 0.2419
3273.892895 0.2431 0.2436 0.2444 0.2459 0.2471
3278.159109 0.2476 0.2489 0.2524 0.2559 0.2594
3282.425323 0.2623 0.2633 0.2644 0.2659 0.2675
3286.691537 0.2695 0.2714 0.2729 0.2752 0.2796
3290.957751 0.2844 0.2899 0.2945 0.2965 0.2985
3295.223965 0.3005 0.3026 0.3051 0.3077 0.3101
3299.490179 0.3128 0.3158 0.3185 0.3205 0.3223
3303.756393 0.3233 0.3242 0.3252 0.3262 0.3272
3308.022607 0.3285 0.3305 0.3322 0.3332 0.3341
3312.288821 0.3346 0.3350 0.3350 0.3350 0.3350
3316.555035 0.3351 0.3356 0.3360 0.3360 0.3362
3320.821249 0.3372 0.3380 0.3380 0.3381 0.3386
3325.087463 0.3390 0.3390 0.3390 0.3390 0.3391
3329.353677 0.3396 0.3400 0.3400 0.3400 0.3400
3333.619891 0.3400 0.3400 0.3399 0.3394 0.3390
3337.886105 0.3390 0.3389 0.3384 0.3378 0.3368
3342.152319 0.3360 0.3360 0.3360 0.3360 0.3359
3346.418533 0.3354 0.3350 0.3350 0.3351 0.3356
3350.684747 0.3360 0.3360 0.3360 0.3360 0.3360
3354.950961 0.3360 0.3362 0.3372 0.3380 0.3380
3359.217175 0.3380 0.3380 0.3380 0.3380 0.3381
3363.483389 0.3386 0.3390 0.3390 0.3391 0.3396
3367.749603 0.3402 0.3412 0.3420 0.3420 0.3421
3372.015818 0.3426 0.3430 0.3430 0.3430 0.3430
3376.282032 0.3430 0.3430 0.3430 0.3430 0.3431
3380.548246 0.3436 0.3440 0.3440 0.3440 0.3440
3384.814460 0.3440 0.3440 0.3440 0.3440 0.3440
3389.080674 0.3440 0.3440 0.3440 0.3440 0.3440
3393.346888 0.3440 0.3440 0.3440 0.3440 0.3440
3397.613102 0.3440 0.3439 0.3434 0.3431 0.3436
3401.879316 0.3439 0.3434 0.3429 0.3424 0.3418
3406.145530 0.3408 0.3399 0.3394 0.3389 0.3384
3410.411744 0.3378 0.3368 0.3356 0.3336 0.3319
3414.677958 0.3314 0.3309 0.3304 0.3296 0.3276
3418.944172 0.3251 0.3201 0.3152 0.3107 0.3062
3423.210386 0.3017 0.2971 0.2921 0.2875 0.2845
3427.476600 0.2809 0.2750 0.2684 0.2595 0.2506
3431.742814 0.2427 0.2346 0.2260 0.2185 0.2155
3436.009028 0.2125 0.2101 0.2066 0.1986 0.1903
3440.275242 0.1809 0.1723 0.1683 0.1649 0.1644
3444.541456 0.1640 0.1640 0.1642 0.1657 0.1674
3448.807670 0.1699 0.1730 0.1790 0.1847 0.1887
3453.073884 0.1926 0.1961 0.1995 0.2025 0.2057
3457.340098 0.2097 0.2138 0.2188 0.2240 0.2299
3461.606312 0.2359 0.2419 0.2473 0.2493 0.2517
3465.872526 0.2562 0.2606 0.2646 0.2682 0.2697
3470.138740 0.2732 0.2872 0.3005 0.3100 0.3182
3474.404954 0.3192 0.3205 0.3235 0.3269 0.3329
3478.671168 0.3389 0.3449 0.3507 0.3557 0.3608
3482.937382 0.3663 0.3713 0.3733 0.3753 0.3773
3487.203596 0.3804 0.3899 0.3992 0.4072 0.4149
3491.469810 0.4214 0.4276 0.4316 0.4354 0.4384
3495.736024 0.4414 0.4444 0.4477 0.4532 0.4585
3500.002238 0.4625 0.4667 0.4723 0.4779 0.4844
3504.268452 0.4908 0.4963 0.5018 0.5073 0.5124
3508.534666 0.5154 0.5187 0.5237 0.5296 0.5415
3512.800880 0.5531 0.5616 0.5694 0.5729 0.5765
3517.067094 0.5810 0.5852 0.5873 0.5898 0.5958
3521.333308 0.6016 0.6061 0.6103 0.6123 0.6145
3525.599522 0.6185 0.6222 0.6237 0.6254 0.6289
3529.865736 0.6327 0.6387 0.6445 0.6485 0.6526
3534.131950 0.6581 0.6631 0.6636 0.6646 0.6691
3538.398164 0.6734 0.6769 0.6805 0.6850 0.6894
3542.664379 0.6929 0.6966 0.7021 0.7071 0.7076
3546.930593 0.7083 0.7108 0.7134 0.7174 0.7218
3551.196807 0.7298 0.7374 0.7414 0.7453 0.7483
3555.463021 0.7512 0.7527 0.7542 0.7562 0.7583
3559.729235 0.7608 0.7636 0.7691 0.7742 0.7767
3563.995449 0.7792 0.7812 0.7832 0.7857 0.7882
3568.261663 0.7902 0.7923 0.7958 0.7994 0.8034
3572.527877 0.8072 0.8086 0.8100 0.8105 0.8112
3576.794091 0.8132 0.8151 0.8166 0.8182 0.8207
3581.060305 0.8233 0.8273 0.8312 0.8337 0.8362
3585.326519 0.8382 0.8401 0.8411 0.8423 0.8453
3589.592733 0.8481 0.8491 0.8501 0.8511 0.8521
3593.858947 0.8531 0.8540 0.8545 0.8550 0.8555
3598.125161 0.8561 0.8576 0.8591 0.8606 0.8621
3602.391375 0.8631 0.8641 0.8656 0.8670 0.8675
3606.657589 0.8681 0.8696 0.8710 0.8710 0.8711
3610.923803 0.8726 0.8740 0.8745 0.8751 0.8771
3615.190017 0.8790 0.8790 0.8791 0.8801 0.8810
3619.456231 0.8815 0.8821 0.8836 0.8850 0.8855
3623.722445 0.8860 0.8860 0.8860 0.8865 0.8871
3627.988659 0.8881 0.8890 0.8890 0.8890 0.8890
3632.254873 0.8890 0.8890 0.8890 0.8895 0.8900
3636.521087 0.8900 0.8900 0.8905 0.8910 0.8910
3640.787301 0.8911 0.8921 0.8930 0.8930 0.8930
3645.053515 0.8935 0.8940 0.8940 0.8941 0.8956
3649.319729 0.8970 0.8980 0.8990 0.9000 0.9010
3653.585943 0.9015 0.9020 0.9020 0.9020 0.9020
3657.852157 0.9020 0.9020 0.9020 0.9020 0.9020
3662.118371 0.9020 0.9020 0.9020 0.9020 0.9020
3666.384585 0.9020 0.9020 0.9020 0.9020 0.9020
3670.650799 0.9020 0.9020 0.9020 0.9020 0.9015
3674.917013 0.9010 0.9010 0.9010 0.9010 0.9010
3679.183227 0.9000 0.8990 0.8985 0.8980 0.8980
3683.449441 0.8980 0.8980 0.8980 0.8980 0.8980
3687.715655 0.8980 0.8980 0.8985 0.8990 0.8990
3691.981869 0.8990 0.8990 0.8990 0.8990 0.8990
3696.248083 0.8990 0.8990 0.8990 0.8990 0.8985
3700.514297 0.8980 0.8980 0.8980 0.8980 0.8980
3704.780511 0.8975 0.8970 0.8970 0.8970 0.8960
3709.046725 0.8950 0.8950 0.8950 0.8945 0.8940
3713.312940 0.8940 0.8940 0.8940 0.8940 0.8940
3717.579154 0.8940 0.8945 0.8950 0.8950 0.8950
3721.845368 0.8950 0.8950 0.8950 0.8950 0.8950
3726.111582 0.8950 0.8950 0.8950 0.8950 0.8950
3730.377796 0.8945 0.8940 0.8940 0.8940 0.8940
3734.644010 0.8940 0.8940 0.8940 0.8940 0.8940
3738.910224 0.8935 0.8930 0.8930 0.8930 0.8930
3743.176438 0.8930 0.8930 0.8930 0.8930 0.8930
3747.442652 0.8930 0.8930 0.8930 0.8930 0.8930
3751.708866 0.8930 0.8930 0.8930 0.8935 0.8940
3755.975080 0.8935 0.8930 0.8920 0.8910 0.8905
3760.241294 0.8900 0.8900 0.8900 0.8900 0.8900
3764.507508 0.8905 0.8910 0.8910 0.8910 0.8910
3768.773722 0.8910 0.8905 0.8900 0.8900 0.8900
3773.039936 0.8900 0.8900 0.8905 0.8910 0.8905
3777.306150 0.8900 0.8895 0.8890 0.8890 0.8890
3781.572364 0.8890 0.8890 0.8890 0.8890 0.8890
3785.838578 0.8890 0.8890 0.8890 0.8890 0.8890
3790.104792 0.8890 0.8890 0.8890 0.8890 0.8890
3794.371006 0.8890
##END=
