##TITLE=2,7-NAPHTHALENEDISULFONIC ACID, 4-HYDROXY-5(SALICYLIDENEAMINO)-, MONOSODIUM SALT, HYDRATE
##JCAMP-DX=4.24
##DATA TYPE=INFRARED SPECTRUM
##CLASS=COBLENTZ III
##ORIGIN=DOW CHEMICAL COMPANY
##OWNER=COBLENTZ SOCIETY
Collection (C) 2018 copyright by the U.S. Secretary of Commerce
on behalf of the United States of America. All rights reserved.
##DATE=1966/01/14
##MOLFORM=C17 H12 N O8 S2 Na  * H2 O
##SOURCE REFERENCE=COBLENTZ NO. 10368
##$NIST ID=B6010368
##$NIST SOURCE=COBLENTZ
##$NIST IMAGE=cob10368
##SPECTROMETER/DATA SYSTEM=DOW KBr FOREPRISM-GRATING
##INSTRUMENT PARAMETERS=BLAZED AT 3.5, 12.0, 20.0 MICRON, CHANGED AT 5.0, 7.5, 14.9 MICRON
##STATE=SOLID (SPLIT MULL, FLUOROLUBE FOR 3800-1333 AND NUJOL FOR 1333-400 CM ^-^1)
##SAMPLING PROCEDURE=TRANSMISSION
##RESOLUTION=4
##DATA PROCESSING=DIGITIZED BY NIST FROM HARD COPY (FROM TWO SEGMENTS)
##XUNITS=1/CM
##YUNITS=TRANSMITTANCE
##XFACTOR=1.000000
##YFACTOR=1
##DELTAX=0.879252
##FIRSTX=383.939
##LASTX=3797.19
##FIRSTY=1.004
##MAXX=3797.19
##MINX=383.939
##MAXY=1.008
##MINY=0.0670016
##NPOINTS=3883
##XYDATA=(X++(Y..Y))
383.939000 1.0040 1.0040 1.0040 1.0040 1.0050
388.335259 1.0050 1.0050 1.0060 1.0060 1.0060
392.731518 1.0060 1.0060 1.0080 1.0060 1.0060
397.127777 1.0060 1.0060 1.0060 1.0050 1.0050
401.524036 1.0060 1.0060 1.0050 1.0050 1.0050
405.920295 1.0050 1.0050 1.0050 1.0050 1.0050
410.316554 1.0040 1.0040 1.0040 1.0040 1.0020
414.712813 1.0020 1.0010 1.0010 1.0010 1.0010
419.109072 1.0010 1.0020 1.0010 1.0010 1.0000
423.505331 1.0000 1.0000 1.0000 1.0000 1.0000
427.901590 1.0000 1.0000 1.0000 1.0000 0.9980
432.297850 0.9980 0.9970 0.9970 0.9970 0.9950
436.694109 0.9940 0.9930 0.9930 0.9910 0.9900
441.090368 0.9870 0.9840 0.9830 0.9800 0.9790
445.486627 0.9760 0.9720 0.9610 0.9530 0.9420
449.882886 0.9410 0.9390 0.9360 0.9350 0.9340
454.279145 0.9320 0.9320 0.9060 0.8890 0.8670
458.675404 0.8451 0.8450 0.8729 0.9019 0.9269
463.071663 0.9310 0.9320 0.9320 0.9320 0.9310
467.467922 0.9310 0.9310 0.9320 0.9320 0.9320
471.864181 0.9320 0.9310 0.9280 0.9210 0.9150
476.260440 0.9100 0.8970 0.8821 0.8820 0.8870
480.656699 0.8910 0.9010 0.9170 0.9360 0.9540
485.052958 0.9560 0.9570 0.9600 0.9610 0.9610
489.449217 0.9610 0.9600 0.9600 0.9580 0.9570
493.845476 0.9570 0.9570 0.9560 0.9530 0.9470
498.241735 0.9460 0.9460 0.9320 0.9270 0.9200
502.637994 0.9120 0.9010 0.8751 0.8720 0.8720
507.034253 0.8750 0.8820 0.8840 0.8930 0.9060
511.430512 0.9150 0.9210 0.9310 0.9340 0.9340
515.826771 0.9350 0.9360 0.9360 0.9360 0.9350
520.223031 0.9350 0.9350 0.9340 0.9320 0.9310
524.619290 0.9300 0.9270 0.9190 0.9150 0.9120
529.015549 0.9060 0.8671 0.8560 0.8560 0.8610
533.411808 0.8650 0.8670 0.8680 0.8710 0.8710
537.808067 0.8710 0.8710 0.8690 0.8670 0.8531
542.204326 0.8430 0.8420 0.8420 0.8430 0.8450
546.600585 0.8520 0.8600 0.8690 0.8760 0.8889
550.996844 0.8940 0.8980 0.9040 0.9040 0.9020
555.393103 0.9020 0.9000 0.8940 0.8900 0.8830
559.789362 0.8780 0.8500 0.8380 0.8380 0.8420
564.185621 0.8430 0.8450 0.8470 0.8470 0.8430
568.581880 0.8390 0.8230 0.8000 0.7171 0.6431
572.978139 0.6430 0.6600 0.6909 0.7598 0.7859
577.374398 0.7860 0.7790 0.7450 0.7120 0.6801
581.770657 0.6311 0.5981 0.5681 0.5232 0.4762
586.166916 0.4761 0.5870 0.6270 0.6760 0.7130
590.563175 0.7380 0.7500 0.7630 0.7760 0.8158
594.959434 0.8320 0.8720 0.8870 0.8910 0.8950
599.355693 0.8970 0.8980 0.8980 0.8980 0.8970
603.751952 0.8970 0.8950 0.8900 0.8800 0.8780
608.148212 0.8760 0.8760 0.8750 0.8710 0.8600
612.544471 0.8520 0.8460 0.8230 0.7950 0.7641
616.940730 0.7101 0.6571 0.5892 0.5452 0.5002
621.336989 0.5011 0.5570 0.5930 0.6060 0.6350
625.733248 0.6530 0.6929 0.7279 0.7758 0.8009
630.129507 0.8520 0.8710 0.8720 0.8690 0.8690
634.525766 0.8650 0.8650 0.8710 0.8780 0.8870
638.922025 0.8890 0.8870 0.8860 0.8830 0.8830
643.318284 0.8760 0.8730 0.8710 0.8670 0.8580
647.714543 0.8520 0.8470 0.8340 0.8160 0.7980
652.110802 0.7780 0.7561 0.7241 0.6901 0.6601
656.507061 0.6189 0.5580 0.5410 0.5210 0.5520
660.903320 0.5530 0.5720 0.5910 0.6099 0.6299
665.299579 0.6470 0.6520 0.6520 0.6490 0.6310
669.695838 0.6280 0.5971 0.5581 0.5500 0.5420
674.092097 0.5009 0.4530 0.3900 0.3540 0.2901
678.488356 0.2521 0.2101 0.2060 0.2100 0.2518
682.884615 0.2670 0.3160 0.3640 0.4269 0.4580
687.280874 0.5628 0.6119 0.6778 0.7308 0.7828
691.677133 0.7980 0.8160 0.8520 0.8710 0.8800
696.073393 0.8860 0.8930 0.9020 0.9080 0.9100
700.469652 0.9130 0.9150 0.9170 0.9190 0.9190
704.865911 0.9190 0.9190 0.9190 0.9190 0.9170
709.262170 0.9170 0.9160 0.9130 0.9130 0.9120
713.658429 0.9120 0.9090 0.9050 0.9020 0.9010
718.054688 0.8980 0.8940 0.8870 0.8780 0.8750
722.450947 0.8730 0.8720 0.8730 0.8760 0.8790
726.847206 0.8830 0.8860 0.8860 0.8860 0.8890
731.243465 0.8890 0.8890 0.8890 0.8890 0.8870
735.639724 0.8870 0.8870 0.8870 0.8870 0.8900
740.035983 0.8980 0.9080 0.9269 0.9310 0.9340
744.432242 0.9350 0.9380 0.9390 0.9390 0.9390
748.828501 0.9390 0.9380 0.9380 0.9350 0.9340
753.224760 0.9340 0.9270 0.9260 0.9190 0.9150
757.621019 0.9130 0.9100 0.9020 0.8940 0.8900
762.017278 0.8820 0.8800 0.8710 0.8570 0.8520
766.413537 0.8120 0.7890 0.7611 0.6693 0.5544
770.809796 0.5170 0.4800 0.4020 0.3340 0.3340
775.206055 0.6195 0.6779 0.7937 0.8040 0.8130
779.602314 0.8341 0.8720 0.8900 0.9130 0.9270
783.998574 0.9350 0.9450 0.9500 0.9570 0.9610
788.394833 0.9650 0.9670 0.9670 0.9670 0.9670
792.791092 0.9650 0.9640 0.9630 0.9610 0.9490
797.187351 0.9420 0.9320 0.9320 0.9520 0.9630
801.583610 0.9710 0.9730 0.9790 0.9790 0.9790
805.979869 0.9800 0.9800 0.9800 0.9800 0.9820
810.376128 0.9820 0.9820 0.9820 0.9820 0.9820
814.772387 0.9800 0.9800 0.9800 0.9800 0.9800
819.168646 0.9800 0.9800 0.9800 0.9800 0.9790
823.564905 0.9790 0.9790 0.9790 0.9790 0.9790
827.961164 0.9780 0.9780 0.9780 0.9760 0.9760
832.357423 0.9730 0.9720 0.9720 0.9690 0.9680
836.753682 0.9680 0.9670 0.9650 0.9610 0.9560
841.149941 0.9430 0.9360 0.9200 0.8930 0.8381
845.546200 0.7651 0.7650 0.8308 0.8579 0.8829
849.942459 0.9080 0.9100 0.9100 0.9080 0.9080
854.338718 0.9050 0.9000 0.8970 0.8910 0.8751
858.734977 0.8570 0.8270 0.8270 0.8710 0.8710
863.131236 0.8670 0.8640 0.8600 0.8540 0.8530
867.527495 0.8320 0.8260 0.8260 0.8300 0.8470
871.923755 0.8720 0.8800 0.8950 0.9419 0.9540
876.320014 0.9560 0.9570 0.9580 0.9600 0.9580
880.716273 0.9540 0.9490 0.9470 0.9450 0.9430
885.112532 0.9420 0.9360 0.9340 0.9320 0.9300
889.508791 0.9230 0.9130 0.9020 0.8821 0.8790
893.905050 0.8800 0.8910 0.9010 0.9130 0.9160
898.301309 0.9170 0.9160 0.9150 0.9100 0.9060
902.697568 0.8970 0.8940 0.8639 0.7420 0.7420
907.093827 0.7610 0.7760 0.8079 0.8519 0.8689
911.490086 0.8710 0.8710 0.8710 0.8690 0.8630
915.886345 0.8530 0.8500 0.8450 0.8360 0.8270
920.282604 0.8099 0.7680 0.7680 0.7720 0.7730
924.678863 0.7730 0.7730 0.7730 0.7710 0.7710
929.075122 0.7930 0.8160 0.8430 0.8530 0.8710
933.471381 0.8720 0.8750 0.8840 0.8930 0.8970
937.867640 0.9010 0.9040 0.9100 0.9130 0.9160
942.263899 0.9170 0.9190 0.9200 0.9210 0.9240
946.660158 0.9240 0.9260 0.9260 0.9260 0.9260
951.056417 0.9240 0.9240 0.9240 0.9240 0.9240
955.452676 0.9240 0.9230 0.9210 0.9210 0.9200
959.848936 0.9170 0.9120 0.9000 0.8900 0.8890
964.245195 0.8900 0.9010 0.9130 0.9190 0.9230
968.641454 0.9240 0.9240 0.9300 0.9300 0.9310
973.037713 0.9310 0.9320 0.9310 0.9310 0.9310
977.433972 0.9310 0.9310 0.9310 0.9320 0.9320
981.830231 0.9320 0.9310 0.9310 0.9310 0.9310
986.226490 0.9310 0.9280 0.9270 0.9270 0.9240
990.622749 0.9200 0.9170 0.9150 0.9120 0.9050
995.019008 0.8980 0.8900 0.8471 0.8470 0.8679
999.415267 0.8870 0.8910 0.8950 0.8980 0.8980
1003.811526 0.8970 0.8970 0.8970 0.8940 0.8930
1008.207785 0.8910 0.8910 0.8900 0.8860 0.8820
1012.604044 0.8790 0.8720 0.8690 0.8610 0.8560
1017.000303 0.8520 0.8500 0.8490 0.8310 0.8130
1021.396562 0.7930 0.7820 0.7471 0.7021 0.7020
1025.792821 0.7200 0.7260 0.7270 0.7270 0.7170
1030.189080 0.7060 0.6910 0.6750 0.6501 0.6340
1034.585339 0.6020 0.5790 0.5610 0.5420 0.5230
1038.981598 0.5060 0.4800 0.4521 0.4271 0.4061
1043.377857 0.3710 0.3569 0.3189 0.2570 0.2210
1047.774117 0.2080 0.1571 0.1091 0.0890 0.0681
1052.170376 0.0670 0.0680 0.0690 0.0750 0.1310
1056.566635 0.1540 0.2039 0.2230 0.2818 0.3298
1060.962894 0.3320 0.3380 0.3530 0.3640 0.4270
1065.359153 0.4790 0.5599 0.6019 0.6020 0.5840
1069.755412 0.5580 0.5420 0.5260 0.4900 0.4900
1074.151671 0.5649 0.6169 0.6629 0.7129 0.7758
1078.547930 0.7971 0.8310 0.8540 0.8640 0.8720
1082.944189 0.8790 0.8830 0.8870 0.8890 0.8900
1087.340448 0.8900 0.8900 0.8900 0.8900 0.8900
1091.736707 0.8890 0.8890 0.8890 0.8870 0.8840
1096.132966 0.8840 0.8830 0.8820 0.8800 0.8790
1100.529225 0.8730 0.8680 0.8630 0.8570 0.8500
1104.925484 0.8430 0.8160 0.8040 0.7580 0.7340
1109.321743 0.7060 0.6790 0.6531 0.6530 0.6789
1113.718002 0.6930 0.7100 0.7160 0.7150 0.7060
1118.114261 0.7000 0.6900 0.6820 0.6720 0.6630
1122.510520 0.6630 0.6830 0.7080 0.7300 0.7530
1126.906779 0.7540 0.7560 0.7560 0.7450 0.7281
1131.303038 0.7090 0.6930 0.6750 0.6460 0.6170
1135.699298 0.5820 0.5530 0.5240 0.4911 0.4272
1140.095557 0.3450 0.3350 0.3350 0.3540 0.3790
1144.491816 0.3970 0.4190 0.4360 0.4460 0.4719
1148.888075 0.4830 0.5000 0.5020 0.5020 0.5010
1153.284334 0.5000 0.4910 0.4820 0.4780 0.4581
1157.680593 0.4560 0.4450 0.4300 0.4120 0.3970
1162.076852 0.3830 0.3800 0.3800 0.3830 0.3890
1166.473111 0.3900 0.3970 0.3980 0.4060 0.4090
1170.869370 0.4150 0.4200 0.4200 0.4200 0.4190
1175.265629 0.4150 0.4050 0.4000 0.3750 0.3570
1179.661888 0.3350 0.3040 0.2561 0.2450 0.2151
1184.058147 0.1829 0.1380 0.1350 0.1360 0.1380
1188.454406 0.1420 0.1450 0.1560 0.1690 0.1730
1192.850665 0.1890 0.1980 0.2170 0.2410 0.2470
1197.246924 0.2630 0.3049 0.3210 0.3390 0.3599
1201.643183 0.3830 0.4020 0.4080 0.4360 0.4460
1206.039442 0.4520 0.4610 0.4680 0.4730 0.4750
1210.435701 0.4760 0.4780 0.4750 0.4710 0.4680
1214.831960 0.4540 0.4490 0.4420 0.4350 0.4320
1219.228219 0.4310 0.4350 0.4520 0.4730 0.4790
1223.624479 0.4800 0.4820 0.4830 0.4820 0.4790
1228.020738 0.4780 0.4730 0.4690 0.4540 0.4380
1232.416997 0.4310 0.4090 0.3940 0.3721 0.3521
1236.813256 0.3229 0.2869 0.2490 0.2230 0.2200
1241.209515 0.2210 0.2280 0.2390 0.2650 0.2840
1245.605774 0.3051 0.3310 0.3390 0.3430 0.3530
1250.002033 0.3580 0.3610 0.3640 0.3640 0.3680
1254.398292 0.3720 0.3800 0.3980 0.4060 0.4160
1258.794551 0.4310 0.4470 0.4490 0.4470 0.4460
1263.190810 0.4170 0.3979 0.3570 0.3230 0.2690
1267.587069 0.2130 0.1720 0.1690 0.1720 0.1860
1271.983328 0.2130 0.2261 0.2641 0.3230 0.3460
1276.379587 0.3800 0.4190 0.4520 0.4710 0.4840
1280.775846 0.5161 0.5570 0.5640 0.5750 0.5840
1285.172105 0.5890 0.6000 0.6020 0.6040 0.6050
1289.568364 0.6050 0.6020 0.5840 0.5600 0.5520
1293.964623 0.5420 0.5390 0.5580 0.5820 0.6050
1298.360882 0.6421 0.6760 0.7020 0.7270 0.7470
1302.757141 0.7520 0.7580 0.7670 0.7690 0.7750
1307.153400 0.7800 0.7820 0.7840 0.7840 0.7860
1311.549660 0.7840 0.7830 0.7800 0.7760 0.7750
1315.945919 0.7720 0.7710 0.7720 0.7730 0.7760
1320.342178 0.7780 0.7830 0.7870 0.7940 0.8120
1324.738437 0.8240 0.8350 0.8420 0.8460 0.8460
1329.134696 0.8460 0.8450 0.8340 0.8260 0.8160
1333.530955 0.8059 0.7580 0.7460 0.7260 0.6560
1337.927214 0.6310 0.6240 0.6050 0.5870 0.5710
1342.323473 0.5680 0.5690 0.5710 0.5730 0.5760
1346.719732 0.5800 0.5820 0.5820 0.5820 0.5800
1351.115991 0.5680 0.5580 0.5520 0.5430 0.5160
1355.512250 0.5160 0.5240 0.5310 0.5340 0.5559
1359.908509 0.5780 0.5930 0.5950 0.5950 0.5950
1364.304768 0.5930 0.5900 0.5870 0.5780 0.5750
1368.701027 0.5680 0.5570 0.5470 0.5380 0.5170
1373.097286 0.5040 0.4910 0.4571 0.4430 0.4280
1377.493545 0.4150 0.4000 0.4000 0.4120 0.4340
1381.889804 0.4490 0.4670 0.4680 0.4670 0.4640
1386.286063 0.4580 0.4530 0.4500 0.4470 0.4470
1390.682322 0.4540 0.4680 0.4980 0.5210 0.5459
1395.078581 0.6121 0.6310 0.6340 0.6460 0.6530
1399.474841 0.6640 0.6910 0.7130 0.7320 0.7500
1403.871100 0.7691 0.7910 0.7970 0.8060 0.8130
1408.267359 0.8160 0.8190 0.8200 0.8210 0.8200
1412.663618 0.8130 0.8120 0.8060 0.8020 0.7940
1417.059877 0.7870 0.7800 0.7630 0.7520 0.7231
1421.456136 0.7060 0.7060 0.7190 0.7200 0.7460
1425.852395 0.7580 0.7790 0.7970 0.8040 0.8050
1430.248654 0.8050 0.8020 0.8000 0.7950 0.7940
1434.644913 0.7840 0.7670 0.7570 0.7500 0.7410
1439.041172 0.7190 0.7160 0.7160 0.7170 0.7190
1443.437431 0.7210 0.7270 0.7410 0.7460 0.7530
1447.833690 0.7580 0.7610 0.7630 0.7640 0.7680
1452.229949 0.7720 0.7730 0.7750 0.7750 0.7760
1456.626208 0.7760 0.7750 0.7730 0.7710 0.7670
1461.022467 0.7640 0.7600 0.7560 0.7500 0.7420
1465.418726 0.7270 0.7230 0.7210 0.7230 0.7240
1469.814985 0.7310 0.7540 0.7730 0.7900 0.8090
1474.211244 0.8300 0.8430 0.8520 0.8570 0.8600
1478.607503 0.8610 0.8610 0.8610 0.8600 0.8580
1483.003762 0.8570 0.8560 0.8530 0.8520 0.8500
1487.400022 0.8490 0.8470 0.8460 0.8380 0.8320
1491.796281 0.8270 0.8170 0.8130 0.8080 0.8040
1496.192540 0.7930 0.7760 0.7690 0.7680 0.7690
1500.588799 0.7760 0.7830 0.7970 0.8090 0.8120
1504.985058 0.8190 0.8310 0.8340 0.8350 0.8360
1509.381317 0.8360 0.8360 0.8340 0.8320 0.8310
1513.777576 0.8310 0.8280 0.8150 0.8120 0.8100
1518.173835 0.7910 0.7820 0.7780 0.7760 0.7780
1522.570094 0.7790 0.7830 0.7860 0.7870 0.7890
1526.966353 0.7890 0.7870 0.7870 0.7870 0.7870
1531.362612 0.7860 0.7840 0.7830 0.7820 0.7820
1535.758871 0.7800 0.7790 0.7760 0.7750 0.7730
1540.155130 0.7680 0.7600 0.7560 0.7490 0.7450
1544.551389 0.7420 0.7390 0.7310 0.7240 0.7190
1548.947648 0.7120 0.7050 0.6930 0.6780 0.6640
1553.343907 0.6570 0.6470 0.6450 0.6300 0.6160
1557.740166 0.6040 0.5820 0.5630 0.5490 0.5340
1562.136425 0.5039 0.4730 0.4560 0.4300 0.3980
1566.532684 0.3580 0.3340 0.2890 0.2531 0.2151
1570.928943 0.1910 0.1900 0.1910 0.2050 0.2260
1575.325203 0.2500 0.3090 0.3380 0.3929 0.4200
1579.721462 0.4471 0.4761 0.5040 0.5080 0.5100
1584.117721 0.5100 0.5080 0.5020 0.5010 0.4930
1588.513980 0.4790 0.4679 0.4339 0.3929 0.3529
1592.910239 0.3090 0.3080 0.3090 0.3210 0.3460
1597.306498 0.3931 0.4241 0.4710 0.4780 0.4790
1601.702757 0.4790 0.4080 0.2981 0.1892 0.1281
1606.099016 0.1281 0.1432 0.2092 0.2801 0.3091
1610.495275 0.4211 0.5060 0.6040 0.6160 0.6609
1614.891534 0.6730 0.6760 0.6730 0.6640 0.6610
1619.287793 0.6600 0.6600 0.6610 0.6630 0.6630
1623.684052 0.6600 0.6600 0.6540 0.6460 0.6230
1628.080311 0.6160 0.6060 0.5790 0.5610 0.5430
1632.476570 0.5129 0.4789 0.4449 0.4089 0.3670
1636.872829 0.3160 0.2190 0.1780 0.1750 0.1780
1641.269088 0.2421 0.2711 0.3151 0.3381 0.4021
1645.665347 0.4460 0.4910 0.5940 0.6090 0.6469
1650.061606 0.6722 0.7281 0.7671 0.7940 0.8150
1654.457865 0.8210 0.8390 0.8580 0.8690 0.8730
1658.854124 0.8800 0.8890 0.8930 0.9040 0.9090
1663.250384 0.9100 0.9120 0.9130 0.9150 0.9170
1667.646643 0.9200 0.9210 0.9260 0.9300 0.9320
1672.042902 0.9340 0.9340 0.9350 0.9350 0.9350
1676.439161 0.9360 0.9360 0.9360 0.9360 0.9360
1680.835420 0.9380 0.9380 0.9360 0.9360 0.9360
1685.231679 0.9360 0.9360 0.9360 0.9350 0.9340
1689.627938 0.9340 0.9320 0.9300 0.9270 0.9260
1694.024197 0.9240 0.9230 0.9210 0.9200 0.9190
1698.420456 0.9190 0.9200 0.9210 0.9230 0.9240
1702.816715 0.9240 0.9260 0.9270 0.9270 0.9270
1707.212974 0.9270 0.9270 0.9270 0.9270 0.9280
1711.609233 0.9280 0.9270 0.9270 0.9260 0.9260
1716.005492 0.9260 0.9240 0.9240 0.9230 0.9210
1720.401751 0.9200 0.9190 0.9170 0.9170 0.9160
1724.798010 0.9150 0.9130 0.9120 0.9120 0.9120
1729.194269 0.9120 0.9120 0.9120 0.9120 0.9120
1733.590528 0.9120 0.9130 0.9130 0.9130 0.9130
1737.986787 0.9130 0.9150 0.9150 0.9150 0.9150
1742.383046 0.9160 0.9160 0.9160 0.9160 0.9160
1746.779305 0.9160 0.9160 0.9160 0.9160 0.9160
1751.175565 0.9150 0.9150 0.9130 0.9120 0.9120
1755.571824 0.9120 0.9120 0.9100 0.9100 0.9100
1759.968083 0.9080 0.9060 0.9060 0.9050 0.9050
1764.364342 0.9050 0.9050 0.9050 0.9050 0.9050
1768.760601 0.9050 0.9050 0.9050 0.9040 0.9040
1773.156860 0.9040 0.9020 0.9020 0.9010 0.9010
1777.553119 0.9010 0.9000 0.9000 0.9000 0.9000
1781.949378 0.9000 0.9000 0.9000 0.9000 0.9000
1786.345637 0.9000 0.9000 0.9000 0.9000 0.8980
1790.741896 0.8980 0.8970 0.8970 0.8970 0.8970
1795.138155 0.8970 0.8970 0.8950 0.8940 0.8940
1799.534414 0.8930 0.8930 0.8930 0.8930 0.8910
1803.930673 0.8910 0.8900 0.8900 0.8900 0.8890
1808.326932 0.8870 0.8860 0.8840 0.8820 0.8790
1812.723191 0.8760 0.8750 0.8730 0.8730 0.8750
1817.119450 0.8760 0.8820 0.8840 0.8870 0.8870
1821.515709 0.8890 0.8890 0.8900 0.8900 0.8900
1825.911968 0.8900 0.8900 0.8890 0.8890 0.8890
1830.308227 0.8890 0.8870 0.8870 0.8870 0.8860
1834.704486 0.8860 0.8840 0.8840 0.8840 0.8830
1839.100746 0.8830 0.8820 0.8800 0.8790 0.8790
1843.497005 0.8790 0.8780 0.8780 0.8780 0.8780
1847.893264 0.8780 0.8760 0.8760 0.8760 0.8760
1852.289523 0.8750 0.8750 0.8750 0.8760 0.8750
1856.685782 0.8750 0.8750 0.8750 0.8750 0.8750
1861.082041 0.8750 0.8750 0.8750 0.8750 0.8750
1865.478300 0.8750 0.8750 0.8750 0.8750 0.8750
1869.874559 0.8750 0.8750 0.8750 0.8750 0.8730
1874.270818 0.8730 0.8730 0.8730 0.8730 0.8730
1878.667077 0.8730 0.8730 0.8730 0.8730 0.8720
1883.063336 0.8720 0.8720 0.8720 0.8720 0.8710
1887.459595 0.8710 0.8710 0.8710 0.8710 0.8710
1891.855854 0.8690 0.8690 0.8690 0.8690 0.8690
1896.252113 0.8690 0.8690 0.8690 0.8690 0.8710
1900.648372 0.8710 0.8710 0.8710 0.8710 0.8710
1905.044631 0.8720 0.8710 0.8710 0.8710 0.8690
1909.440890 0.8690 0.8690 0.8680 0.8680 0.8670
1913.837149 0.8670 0.8670 0.8670 0.8670 0.8650
1918.233408 0.8650 0.8650 0.8650 0.8650 0.8640
1922.629667 0.8640 0.8640 0.8640 0.8640 0.8640
1927.025927 0.8640 0.8640 0.8640 0.8630 0.8630
1931.422186 0.8610 0.8610 0.8610 0.8600 0.8600
1935.818445 0.8600 0.8600 0.8600 0.8600 0.8600
1940.214704 0.8580 0.8580 0.8580 0.8580 0.8580
1944.610963 0.8580 0.8570 0.8540 0.8530 0.8530
1949.007222 0.8530 0.8530 0.8520 0.8520 0.8520
1953.403481 0.8520 0.8520 0.8520 0.8500 0.8470
1957.799740 0.8470 0.8460 0.8450 0.8420 0.8410
1962.195999 0.8390 0.8390 0.8380 0.8380 0.8380
1966.592258 0.8380 0.8380 0.8360 0.8360 0.8360
1970.988517 0.8360 0.8360 0.8360 0.8360 0.8360
1975.384776 0.8360 0.8360 0.8360 0.8380 0.8380
1979.781035 0.8380 0.8380 0.8390 0.8390 0.8390
1984.177294 0.8410 0.8410 0.8420 0.8430 0.8430
1988.573553 0.8430 0.8430 0.8450 0.8450 0.8450
1992.969812 0.8450 0.8450 0.8460 0.8460 0.8460
1997.366071 0.8460 0.8460 0.8460 0.8460 0.8460
2001.762330 0.8460 0.8455 0.8450 0.8450 0.8450
2006.158589 0.8450 0.8450 0.8440 0.8430 0.8430
2010.554848 0.8430 0.8430 0.8430 0.8425 0.8420
2014.951108 0.8415 0.8410 0.8410 0.8410 0.8400
2019.347367 0.8390 0.8390 0.8390 0.8385 0.8380
2023.743626 0.8380 0.8380 0.8370 0.8360 0.8360
2028.139885 0.8360 0.8360 0.8360 0.8350 0.8340
2032.536144 0.8340 0.8340 0.8340 0.8340 0.8330
2036.932403 0.8320 0.8320 0.8320 0.8315 0.8310
2041.328662 0.8310 0.8310 0.8305 0.8300 0.8300
2045.724921 0.8300 0.8290 0.8280 0.8280 0.8280
2050.121180 0.8275 0.8269 0.8254 0.8239 0.8224
2054.517439 0.8210 0.8205 0.8200 0.8195 0.8189
2058.913698 0.8169 0.8149 0.8139 0.8130 0.8130
2063.309957 0.8130 0.8130 0.8130 0.8130 0.8130
2067.706216 0.8130 0.8130 0.8130 0.8129 0.8114
2072.102475 0.8100 0.8100 0.8100 0.8095 0.8090
2076.498734 0.8090 0.8089 0.8074 0.8060 0.8055
2080.894993 0.8049 0.8034 0.8020 0.8020 0.8020
2085.291252 0.8015 0.8010 0.8005 0.7999 0.7989
2089.687511 0.7980 0.7975 0.7969 0.7959 0.7950
2094.083770 0.7950 0.7950 0.7950 0.7950 0.7945
2098.480029 0.7940 0.7940 0.7940 0.7935 0.7930
2102.876289 0.7930 0.7930 0.7930 0.7929 0.7919
2107.272548 0.7910 0.7910 0.7909 0.7904 0.7899
2111.668807 0.7894 0.7889 0.7879 0.7870 0.7870
2116.065066 0.7870 0.7870 0.7870 0.7870 0.7870
2120.461325 0.7870 0.7869 0.7864 0.7860 0.7860
2124.857584 0.7859 0.7849 0.7840 0.7840 0.7839
2129.253843 0.7834 0.7829 0.7824 0.7820 0.7820
2133.650102 0.7819 0.7809 0.7800 0.7800 0.7799
2138.046361 0.7794 0.7790 0.7790 0.7790 0.7790
2142.442620 0.7790 0.7790 0.7790 0.7790 0.7789
2146.838879 0.7784 0.7780 0.7780 0.7779 0.7769
2151.235138 0.7759 0.7754 0.7749 0.7739 0.7729
2155.631397 0.7719 0.7710 0.7710 0.7708 0.7693
2160.027656 0.7678 0.7663 0.7649 0.7644 0.7640
2164.423915 0.7640 0.7639 0.7634 0.7628 0.7618
2168.820174 0.7610 0.7610 0.7608 0.7593 0.7579
2173.216433 0.7574 0.7568 0.7552 0.7539 0.7534
2177.612692 0.7529 0.7524 0.7518 0.7508 0.7497
2182.008951 0.7482 0.7469 0.7464 0.7460 0.7460
2186.405210 0.7459 0.7454 0.7450 0.7450 0.7448
2190.801470 0.7438 0.7430 0.7430 0.7429 0.7424
2195.197729 0.7420 0.7420 0.7419 0.7414 0.7410
2199.593988 0.7410 0.7408 0.7398 0.7389 0.7384
2203.990247 0.7378 0.7368 0.7359 0.7354 0.7350
2208.386506 0.7350 0.7349 0.7344 0.7336 0.7316
2212.782765 0.7296 0.7276 0.7257 0.7242 0.7228
2217.179024 0.7218 0.7210 0.7210 0.7209 0.7204
2221.575283 0.7199 0.7194 0.7188 0.7178 0.7166
2225.971542 0.7146 0.7129 0.7124 0.7118 0.7108
2230.367801 0.7099 0.7094 0.7087 0.7072 0.7059
2234.764060 0.7054 0.7049 0.7044 0.7037 0.7022
2239.160319 0.7009 0.7004 0.7000 0.7000 0.6998
2243.556578 0.6988 0.6979 0.6974 0.6967 0.6957
2247.952837 0.6949 0.6944 0.6936 0.6921 0.6909
2252.349096 0.6904 0.6896 0.6881 0.6870 0.6870
2256.745355 0.6870 0.6870 0.6866 0.6851 0.6840
2261.141614 0.6840 0.6839 0.6834 0.6830 0.6830
2265.537873 0.6829 0.6824 0.6820 0.6820 0.6817
2269.934132 0.6807 0.6799 0.6794 0.6790 0.6790
2274.330391 0.6789 0.6784 0.6777 0.6767 0.6759
2278.726651 0.6754 0.6750 0.6750 0.6744 0.6724
2283.122910 0.6707 0.6697 0.6689 0.6684 0.6680
2287.519169 0.6680 0.6679 0.6674 0.6666 0.6651
2291.915428 0.6639 0.6634 0.6627 0.6617 0.6610
2296.311687 0.6610 0.6610 0.6610 0.6610 0.6610
2300.707946 0.6610 0.6610 0.6610 0.6610 0.6610
2305.104205 0.6610 0.6610 0.6610 0.6608 0.6603
2309.500464 0.6600 0.6600 0.6595 0.6580 0.6564
2313.896723 0.6544 0.6519 0.6484 0.6449 0.6414
2318.292982 0.6385 0.6370 0.6358 0.6353 0.6350
2322.689241 0.6350 0.6348 0.6343 0.6337 0.6327
2327.085500 0.6320 0.6320 0.6320 0.6320 0.6320
2331.481759 0.6320 0.6320 0.6320 0.6320 0.6320
2335.878018 0.6318 0.6313 0.6310 0.6310 0.6310
2340.274277 0.6310 0.6310 0.6310 0.6310 0.6310
2344.670536 0.6310 0.6310 0.6310 0.6310 0.6308
2349.066795 0.6303 0.6300 0.6300 0.6300 0.6300
2353.463054 0.6296 0.6286 0.6280 0.6280 0.6280
2357.859313 0.6280 0.6280 0.6280 0.6284 0.6294
2362.255572 0.6300 0.6300 0.6300 0.6300 0.6300
2366.651832 0.6300 0.6300 0.6300 0.6300 0.6300
2371.048091 0.6300 0.6300 0.6300 0.6300 0.6300
2375.444350 0.6300 0.6296 0.6286 0.6280 0.6280
2379.840609 0.6280 0.6280 0.6278 0.6273 0.6268
2384.236868 0.6263 0.6260 0.6260 0.6256 0.6246
2388.633127 0.6238 0.6233 0.6226 0.6216 0.6208
2393.029386 0.6203 0.6200 0.6200 0.6200 0.6200
2397.425645 0.6198 0.6193 0.6186 0.6176 0.6168
2401.821904 0.6163 0.6160 0.6160 0.6160 0.6160
2406.218163 0.6160 0.6160 0.6158 0.6153 0.6150
2410.614422 0.6150 0.6146 0.6136 0.6130 0.6130
2415.010681 0.6128 0.6123 0.6120 0.6120 0.6114
2419.406940 0.6099 0.6090 0.6090 0.6088 0.6083
2423.803199 0.6076 0.6066 0.6060 0.6060 0.6060
2428.199458 0.6060 0.6058 0.6053 0.6048 0.6043
2432.595717 0.6040 0.6040 0.6040 0.6040 0.6040
2436.991976 0.6040 0.6040 0.6040 0.6036 0.6026
2441.388235 0.6020 0.6020 0.6018 0.6013 0.6010
2445.784494 0.6010 0.6008 0.6003 0.5993 0.5978
2450.180753 0.5963 0.5948 0.5933 0.5918 0.5908
2454.577013 0.5903 0.5900 0.5900 0.5900 0.5900
2458.973272 0.5898 0.5893 0.5885 0.5875 0.5870
2463.369531 0.5870 0.5863 0.5848 0.5840 0.5840
2467.765790 0.5835 0.5825 0.5815 0.5805 0.5800
2472.162049 0.5800 0.5795 0.5785 0.5780 0.5780
2476.558308 0.5780 0.5780 0.5780 0.5780 0.5775
2480.954567 0.5765 0.5760 0.5760 0.5758 0.5753
2485.350826 0.5750 0.5750 0.5743 0.5728 0.5718
2489.747085 0.5713 0.5710 0.5710 0.5703 0.5688
2494.143344 0.5678 0.5673 0.5670 0.5670 0.5665
2498.539603 0.5655 0.5640 0.5620 0.5603 0.5588
2502.935862 0.5575 0.5565 0.5555 0.5545 0.5540
2507.332121 0.5540 0.5535 0.5525 0.5515 0.5505
2511.728380 0.5500 0.5500 0.5497 0.5492 0.5485
2516.124639 0.5475 0.5470 0.5470 0.5465 0.5455
2520.520898 0.5442 0.5427 0.5417 0.5412 0.5402
2524.917157 0.5387 0.5375 0.5365 0.5355 0.5345
2529.313416 0.5335 0.5325 0.5320 0.5320 0.5317
2533.709675 0.5312 0.5307 0.5302 0.5292 0.5277
2538.105934 0.5267 0.5262 0.5260 0.5260 0.5255
2542.502194 0.5245 0.5232 0.5217 0.5205 0.5195
2546.898453 0.5190 0.5190 0.5182 0.5167 0.5160
2551.294712 0.5160 0.5160 0.5160 0.5157 0.5152
2555.690971 0.5150 0.5150 0.5153 0.5158 0.5160
2560.087230 0.5160 0.5160 0.5160 0.5163 0.5168
2564.483489 0.5170 0.5170 0.5170 0.5170 0.5176
2568.879748 0.5186 0.5201 0.5221 0.5233 0.5238
2573.276007 0.5246 0.5256 0.5260 0.5260 0.5263
2577.672266 0.5268 0.5270 0.5270 0.5273 0.5278
2582.068525 0.5286 0.5296 0.5300 0.5300 0.5294
2586.464784 0.5284 0.5280 0.5280 0.5280 0.5280
2590.861043 0.5280 0.5280 0.5277 0.5272 0.5270
2595.257302 0.5270 0.5267 0.5262 0.5260 0.5260
2599.653561 0.5254 0.5244 0.5237 0.5232 0.5224
2604.049820 0.5214 0.5207 0.5202 0.5197 0.5192
2608.446079 0.5184 0.5174 0.5164 0.5154 0.5144
2612.842338 0.5134 0.5127 0.5122 0.5111 0.5096
2617.238597 0.5090 0.5090 0.5087 0.5082 0.5074
2621.634856 0.5064 0.5057 0.5052 0.5047 0.5042
2626.031115 0.5034 0.5024 0.5017 0.5012 0.5007
2630.427375 0.5002 0.4994 0.4984 0.4977 0.4972
2634.823634 0.4964 0.4954 0.4947 0.4942 0.4930
2639.219893 0.4915 0.4894 0.4869 0.4850 0.4835
2643.616152 0.4820 0.4805 0.4794 0.4784 0.4780
2648.012411 0.4780 0.4774 0.4763 0.4757 0.4752
2652.408670 0.4740 0.4725 0.4717 0.4712 0.4703
2656.804929 0.4693 0.4690 0.4690 0.4687 0.4682
2661.201188 0.4680 0.4680 0.4680 0.4680 0.4680
2665.597447 0.4680 0.4683 0.4688 0.4690 0.4690
2669.993706 0.4690 0.4690 0.4697 0.4707 0.4713
2674.389965 0.4718 0.4723 0.4728 0.4730 0.4730
2678.786224 0.4737 0.4747 0.4750 0.4750 0.4750
2683.182483 0.4750 0.4750 0.4750 0.4743 0.4733
2687.578742 0.4730 0.4730 0.4730 0.4730 0.4727
2691.975001 0.4722 0.4717 0.4712 0.4703 0.4693
2696.371260 0.4690 0.4690 0.4687 0.4682 0.4677
2700.767519 0.4672 0.4663 0.4653 0.4650 0.4650
2705.163778 0.4650 0.4650 0.4650 0.4650 0.4646
2709.560037 0.4641 0.4640 0.4640 0.4640 0.4640
2713.956296 0.4640 0.4640 0.4640 0.4640 0.4640
2718.352556 0.4640 0.4640 0.4640 0.4640 0.4640
2722.748815 0.4640 0.4640 0.4644 0.4649 0.4650
2727.145074 0.4650 0.4650 0.4650 0.4646 0.4641
2731.541333 0.4640 0.4640 0.4640 0.4640 0.4636
2735.937592 0.4631 0.4630 0.4630 0.4623 0.4613
2740.333851 0.4610 0.4610 0.4610 0.4610 0.4606
2744.730110 0.4601 0.4593 0.4583 0.4576 0.4571
2749.126369 0.4566 0.4561 0.4553 0.4543 0.4536
2753.522628 0.4531 0.4526 0.4521 0.4512 0.4502
2757.918887 0.4496 0.4491 0.4482 0.4472 0.4470
2762.315146 0.4470 0.4466 0.4461 0.4449 0.4434
2766.711405 0.4430 0.4430 0.4426 0.4421 0.4405
2771.107664 0.4385 0.4368 0.4353 0.4350 0.4350
2775.503923 0.4346 0.4341 0.4340 0.4340 0.4332
2779.900182 0.4322 0.4312 0.4302 0.4288 0.4273
2784.296441 0.4266 0.4261 0.4252 0.4242 0.4236
2788.692700 0.4231 0.4218 0.4203 0.4196 0.4191
2793.088959 0.4190 0.4190 0.4182 0.4172 0.4166
2797.485218 0.4161 0.4160 0.4160 0.4160 0.4160
2801.881477 0.4160 0.4160 0.4160 0.4160 0.4160
2806.277737 0.4160 0.4156 0.4151 0.4142 0.4132
2810.673996 0.4118 0.4103 0.4100 0.4100 0.4096
2815.070255 0.4091 0.4090 0.4090 0.4086 0.4081
2819.466514 0.4080 0.4080 0.4072 0.4062 0.4056
2823.862773 0.4051 0.4050 0.4050 0.4038 0.4023
2828.259032 0.4020 0.4020 0.4016 0.4011 0.4006
2832.655291 0.4001 0.4000 0.4000 0.3988 0.3973
2837.051550 0.3945 0.3915 0.3906 0.3901 0.3888
2841.447809 0.3873 0.3866 0.3861 0.3851 0.3841
2845.844068 0.3831 0.3821 0.3811 0.3801 0.3791
2850.240327 0.3782 0.3780 0.3780 0.3767 0.3752
2854.636586 0.3742 0.3732 0.3730 0.3730 0.3726
2859.032845 0.3721 0.3703 0.3683 0.3667 0.3652
2863.429104 0.3646 0.3641 0.3636 0.3631 0.3621
2867.825363 0.3611 0.3610 0.3610 0.3606 0.3601
2872.221622 0.3600 0.3600 0.3587 0.3572 0.3566
2876.617881 0.3561 0.3551 0.3541 0.3536 0.3531
2881.014140 0.3517 0.3502 0.3487 0.3472 0.3461
2885.410399 0.3451 0.3441 0.3431 0.3426 0.3421
2889.806658 0.3416 0.3411 0.3401 0.3391 0.3377
2894.202918 0.3362 0.3356 0.3350 0.3336 0.3321
2898.599177 0.3315 0.3310 0.3305 0.3300 0.3300
2902.995436 0.3300 0.3291 0.3281 0.3275 0.3270
2907.391695 0.3270 0.3270 0.3256 0.3241 0.3235
2911.787954 0.3231 0.3230 0.3230 0.3212 0.3192
2916.184213 0.3172 0.3152 0.3127 0.3102 0.3091
2920.580472 0.3081 0.3071 0.3061 0.3060 0.3060
2924.976731 0.3060 0.3060 0.3060 0.3060 0.3060
2929.372990 0.3060 0.3060 0.3060 0.3069 0.3079
2933.769249 0.3080 0.3080 0.3085 0.3090 0.3090
2938.165508 0.3090 0.3090 0.3090 0.3095 0.3100
2942.561767 0.3109 0.3119 0.3125 0.3130 0.3139
2946.958026 0.3149 0.3150 0.3150 0.3150 0.3150
2951.354285 0.3155 0.3160 0.3160 0.3160 0.3160
2955.750544 0.3160 0.3165 0.3170 0.3170 0.3170
2960.146803 0.3170 0.3170 0.3184 0.3199 0.3200
2964.543062 0.3200 0.3205 0.3210 0.3220 0.3230
2968.939321 0.3230 0.3230 0.3235 0.3240 0.3250
2973.335580 0.3260 0.3260 0.3260 0.3260 0.3260
2977.731839 0.3260 0.3260 0.3260 0.3260 0.3265
2982.128099 0.3270 0.3270 0.3270 0.3275 0.3280
2986.524358 0.3280 0.3280 0.3280 0.3280 0.3280
2990.920617 0.3280 0.3280 0.3280 0.3280 0.3280
2995.316876 0.3280 0.3280 0.3290 0.3300 0.3300
2999.713135 0.3300 0.3305 0.3310 0.3310 0.3310
3004.109394 0.3315 0.3320 0.3320 0.3320 0.3320
3008.505653 0.3320 0.3320 0.3320 0.3320 0.3320
3012.901912 0.3320 0.3320 0.3320 0.3320 0.3320
3017.298171 0.3320 0.3320 0.3320 0.3315 0.3310
3021.694430 0.3310 0.3310 0.3305 0.3300 0.3300
3026.090689 0.3300 0.3300 0.3300 0.3280 0.3260
3030.486948 0.3245 0.3230 0.3215 0.3200 0.3180
3034.883207 0.3159 0.3119 0.3077 0.3012 0.2949
3039.279466 0.2919 0.2887 0.2817 0.2749 0.2734
3043.675725 0.2720 0.2715 0.2710 0.2710 0.2710
3048.071984 0.2715 0.2720 0.2725 0.2730 0.2740
3052.468243 0.2750 0.2750 0.2750 0.2755 0.2761
3056.864502 0.2776 0.2790 0.2790 0.2791 0.2806
3061.260761 0.2820 0.2825 0.2831 0.2846 0.2861
3065.657020 0.2881 0.2902 0.2937 0.2971 0.2991
3070.053280 0.3011 0.3037 0.3060 0.3060 0.3061
3074.449539 0.3076 0.3091 0.3106 0.3120 0.3125
3078.845798 0.3131 0.3146 0.3161 0.3176 0.3191
3083.242057 0.3201 0.3212 0.3237 0.3260 0.3265
3087.638316 0.3273 0.3314 0.3350 0.3355 0.3361
3092.034575 0.3371 0.3381 0.3396 0.3411 0.3421
3096.430834 0.3431 0.3441 0.3450 0.3450 0.3451
3100.827093 0.3461 0.3471 0.3481 0.3490 0.3495
3105.223352 0.3501 0.3511 0.3521 0.3526 0.3531
3109.619611 0.3536 0.3540 0.3540 0.3541 0.3551
3114.015870 0.3561 0.3566 0.3571 0.3576 0.3580
3118.412129 0.3580 0.3581 0.3591 0.3601 0.3606
3122.808388 0.3611 0.3621 0.3631 0.3636 0.3641
3127.204647 0.3646 0.3651 0.3661 0.3670 0.3670
3131.600906 0.3671 0.3676 0.3681 0.3686 0.3691
3135.997165 0.3701 0.3710 0.3710 0.3711 0.3716
3140.393424 0.3720 0.3720 0.3721 0.3726 0.3730
3144.789683 0.3730 0.3731 0.3741 0.3750 0.3750
3149.185942 0.3751 0.3756 0.3762 0.3777 0.3790
3153.582201 0.3790 0.3791 0.3796 0.3800 0.3800
3157.978461 0.3800 0.3800 0.3802 0.3812 0.3821
3162.374720 0.3826 0.3831 0.3836 0.3842 0.3852
3166.770979 0.3861 0.3866 0.3872 0.3887 0.3901
3171.167238 0.3906 0.3912 0.3927 0.3940 0.3940
3175.563497 0.3941 0.3946 0.3950 0.3950 0.3952
3179.959756 0.3962 0.3970 0.3970 0.3971 0.3976
3184.356015 0.3980 0.3980 0.3982 0.3992 0.4001
3188.752274 0.4006 0.4010 0.4010 0.4011 0.4016
3193.148533 0.4022 0.4032 0.4040 0.4040 0.4041
3197.544792 0.4046 0.4050 0.4050 0.4051 0.4056
3201.941051 0.4062 0.4072 0.4080 0.4080 0.4080
3206.337310 0.4080 0.4080 0.4080 0.4081 0.4086
3210.733569 0.4090 0.4090 0.4090 0.4090 0.4090
3215.129828 0.4090 0.4090 0.4090 0.4090 0.4090
3219.526087 0.4090 0.4090 0.4090 0.4090 0.4090
3223.922346 0.4090 0.4090 0.4090 0.4090 0.4090
3228.318605 0.4090 0.4090 0.4090 0.4090 0.4089
3232.714864 0.4084 0.4080 0.4080 0.4078 0.4068
3237.111123 0.4060 0.4060 0.4060 0.4060 0.4060
3241.507382 0.4060 0.4059 0.4054 0.4050 0.4050
3245.903642 0.4050 0.4050 0.4050 0.4050 0.4049
3250.299901 0.4044 0.4040 0.4040 0.4037 0.4027
3254.696160 0.4019 0.4014 0.4010 0.4010 0.4009
3259.092419 0.4004 0.4000 0.4000 0.4000 0.4000
3263.488678 0.4000 0.4000 0.4000 0.4000 0.4000
3267.884937 0.4000 0.3997 0.3987 0.3979 0.3974
3272.281196 0.3970 0.3970 0.3967 0.3957 0.3950
3276.677455 0.3950 0.3950 0.3950 0.3949 0.3944
3281.073714 0.3940 0.3940 0.3939 0.3934 0.3930
3285.469973 0.3930 0.3927 0.3917 0.3909 0.3904
3289.866232 0.3899 0.3894 0.3887 0.3877 0.3870
3294.262491 0.3870 0.3869 0.3864 0.3856 0.3841
3298.658750 0.3829 0.3823 0.3817 0.3807 0.3798
3303.055009 0.3793 0.3790 0.3790 0.3788 0.3783
3307.451268 0.3777 0.3767 0.3758 0.3753 0.3750
3311.847527 0.3750 0.3747 0.3737 0.3728 0.3723
3316.243786 0.3718 0.3713 0.3707 0.3697 0.3687
3320.640045 0.3677 0.3667 0.3657 0.3648 0.3643
3325.036304 0.3640 0.3640 0.3638 0.3633 0.3625
3329.432563 0.3610 0.3600 0.3600 0.3595 0.3580
3333.828823 0.3568 0.3563 0.3557 0.3547 0.3538
3338.225082 0.3533 0.3528 0.3523 0.3517 0.3507
3342.621341 0.3498 0.3493 0.3487 0.3477 0.3467
3347.017600 0.3457 0.3447 0.3437 0.3428 0.3423
3351.413859 0.3415 0.3400 0.3390 0.3390 0.3388
3355.810118 0.3383 0.3376 0.3366 0.3358 0.3353
3360.206377 0.3350 0.3350 0.3350 0.3350 0.3348
3364.602636 0.3343 0.3340 0.3340 0.3340 0.3340
3368.998895 0.3342 0.3347 0.3350 0.3350 0.3352
3373.395154 0.3357 0.3360 0.3360 0.3360 0.3360
3377.791413 0.3360 0.3360 0.3364 0.3374 0.3380
3382.187672 0.3380 0.3380 0.3380 0.3380 0.3380
3386.583931 0.3380 0.3380 0.3380 0.3380 0.3380
3390.980190 0.3380 0.3380 0.3380 0.3380 0.3380
3395.376449 0.3382 0.3387 0.3390 0.3390 0.3390
3399.772708 0.3390 0.3390 0.3390 0.3388 0.3383
3404.168967 0.3380 0.3380 0.3380 0.3380 0.3376
3408.565226 0.3366 0.3360 0.3360 0.3360 0.3360
3412.961485 0.3358 0.3353 0.3350 0.3350 0.3350
3417.357744 0.3350 0.3348 0.3343 0.3340 0.3340
3421.754004 0.3340 0.3340 0.3340 0.3340 0.3336
3426.150263 0.3326 0.3320 0.3320 0.3320 0.3320
3430.546522 0.3320 0.3320 0.3320 0.3320 0.3320
3434.942781 0.3320 0.3320 0.3320 0.3320 0.3320
3439.339040 0.3324 0.3334 0.3340 0.3340 0.3340
3443.735299 0.3340 0.3340 0.3340 0.3340 0.3340
3448.131558 0.3340 0.3340 0.3340 0.3340 0.3342
3452.527817 0.3347 0.3352 0.3357 0.3360 0.3360
3456.924076 0.3360 0.3360 0.3360 0.3360 0.3360
3461.320335 0.3360 0.3360 0.3360 0.3365 0.3375
3465.716594 0.3380 0.3380 0.3382 0.3387 0.3390
3470.112853 0.3390 0.3395 0.3405 0.3410 0.3410
3474.509112 0.3412 0.3417 0.3422 0.3427 0.3435
3478.905371 0.3445 0.3452 0.3457 0.3460 0.3460
3483.301630 0.3467 0.3482 0.3492 0.3497 0.3505
3487.697889 0.3515 0.3522 0.3527 0.3532 0.3537
3492.094148 0.3545 0.3555 0.3563 0.3568 0.3573
3496.490407 0.3578 0.3588 0.3603 0.3618 0.3633
3500.886666 0.3648 0.3663 0.3675 0.3685 0.3698
3505.282925 0.3713 0.3728 0.3743 0.3753 0.3758
3509.679185 0.3770 0.3790 0.3808 0.3823 0.3840
3514.075444 0.3860 0.3878 0.3893 0.3913 0.3938
3518.471703 0.3955 0.3965 0.3973 0.3978 0.3985
3522.867962 0.3995 0.4005 0.4015 0.4025 0.4035
3527.264221 0.4043 0.4048 0.4058 0.4073 0.4093
3531.660480 0.4118 0.4138 0.4153 0.4163 0.4168
3536.056739 0.4175 0.4185 0.4195 0.4205 0.4218
3540.452998 0.4233 0.4248 0.4263 0.4278 0.4293
3544.849257 0.4305 0.4316 0.4328 0.4343 0.4353
3549.245516 0.4358 0.4366 0.4376 0.4391 0.4411
3553.641775 0.4431 0.4451 0.4463 0.4468 0.4476
3558.038034 0.4486 0.4498 0.4513 0.4531 0.4551
3562.434293 0.4563 0.4568 0.4573 0.4578 0.4594
3566.830552 0.4619 0.4641 0.4661 0.4673 0.4678
3571.226811 0.4689 0.4704 0.4716 0.4726 0.4730
3575.623070 0.4730 0.4739 0.4754 0.4766 0.4776
3580.019329 0.4786 0.4796 0.4818 0.4848 0.4869
3584.415588 0.4884 0.4893 0.4898 0.4900 0.4900
3588.811847 0.4909 0.4924 0.4933 0.4938 0.4943
3593.208106 0.4948 0.4959 0.4974 0.4986 0.4996
3597.604366 0.5003 0.5008 0.5010 0.5010 0.5013
3602.000625 0.5018 0.5020 0.5020 0.5029 0.5044
3606.396884 0.5050 0.5050 0.5062 0.5082 0.5093
3610.793143 0.5098 0.5106 0.5116 0.5120 0.5120
3615.189402 0.5123 0.5128 0.5136 0.5146 0.5153
3619.585661 0.5158 0.5169 0.5184 0.5190 0.5190
3623.981920 0.5193 0.5198 0.5200 0.5200 0.5203
3628.378179 0.5208 0.5216 0.5226 0.5233 0.5238
3632.774438 0.5240 0.5240 0.5237 0.5232 0.5230
3637.170697 0.5230 0.5233 0.5238 0.5240 0.5240
3641.566956 0.5246 0.5256 0.5260 0.5260 0.5260
3645.963215 0.5260 0.5260 0.5260 0.5263 0.5268
3650.359474 0.5270 0.5270 0.5270 0.5270 0.5267
3654.755733 0.5262 0.5260 0.5260 0.5260 0.5260
3659.151992 0.5260 0.5260 0.5253 0.5243 0.5237
3663.548251 0.5232 0.5230 0.5230 0.5223 0.5213
3667.944510 0.5210 0.5210 0.5210 0.5210 0.5207
3672.340769 0.5202 0.5200 0.5200 0.5197 0.5192
3676.737028 0.5183 0.5173 0.5170 0.5170 0.5167
3681.133287 0.5162 0.5160 0.5160 0.5157 0.5152
3685.529547 0.5150 0.5150 0.5143 0.5133 0.5130
3689.925806 0.5130 0.5130 0.5130 0.5127 0.5122
3694.322065 0.5120 0.5120 0.5120 0.5120 0.5120
3698.718324 0.5120 0.5110 0.5095 0.5087 0.5082
3703.114583 0.5073 0.5063 0.5056 0.5051 0.5050
3707.510842 0.5050 0.5046 0.5041 0.5040 0.5040
3711.907101 0.5033 0.5023 0.5020 0.5020 0.5020
3716.303360 0.5020 0.5016 0.5011 0.5010 0.5010
3720.699619 0.5010 0.5010 0.5006 0.5001 0.5000
3725.095878 0.5000 0.5000 0.5000 0.4993 0.4983
3729.492137 0.4980 0.4980 0.4976 0.4971 0.4970
3733.888396 0.4970 0.4970 0.4970 0.4963 0.4953
3738.284655 0.4950 0.4950 0.4946 0.4941 0.4940
3742.680914 0.4940 0.4936 0.4931 0.4930 0.4930
3747.077173 0.4923 0.4913 0.4910 0.4910 0.4910
3751.473432 0.4910 0.4906 0.4901 0.4900 0.4900
3755.869691 0.4900 0.4900 0.4896 0.4891 0.4890
3760.265950 0.4890 0.4890 0.4890 0.4882 0.4872
3764.662209 0.4870 0.4870 0.4866 0.4861 0.4852
3769.058468 0.4842 0.4840 0.4840 0.4836 0.4831
3773.454728 0.4830 0.4830 0.4826 0.4821 0.4820
3777.850987 0.4820 0.4812 0.4802 0.4796 0.4791
3782.247246 0.4790 0.4790 0.4790 0.4790 0.4790
3786.643505 0.4790 0.4790 0.4790 0.4786 0.4781
3791.039764 0.4780 0.4780 0.4780 0.4780 0.4780
3795.436023 0.4780 0.4772 0.4762
##END=
