##TITLE=IMIDAZOLE-4-CARBOXAMIDE, N-BUTYL-5-NITRO-
##JCAMP-DX=4.24
##DATA TYPE=INFRARED SPECTRUM
##CLASS=COBLENTZ III
##ORIGIN=SOUTHERN RESEARCH INSTITUTE
##OWNER=COBLENTZ SOCIETY
Collection (C) 2018 copyright by the U.S. Secretary of Commerce
on behalf of the United States of America. All rights reserved.
##DATE=1960/06/06
##NAMES=N-butyl-5-nitro-1H-imidazole-4-carboxamide
##MOLFORM=C8 H12 N4 O3
##SOURCE REFERENCE=COBLENTZ NO. 10470
##$NIST ID=B6010470
##$NIST SOURCE=COBLENTZ
##$NIST IMAGE=cob10470
##SPECTROMETER/DATA SYSTEM=PERKIN-ELMER 21 (GRATING)
##INSTRUMENT PARAMETERS=FILTER CHANGE AT 1025 CM^-^1
##STATE=SOLID (1 mg / 650 mg KBr DISC)
##SAMPLING PROCEDURE=TRANSMISSION
##RESOLUTION=4
##DATA PROCESSING=DIGITIZED BY NIST FROM HARD COPY (FROM TWO SEGMENTS)
##XUNITS=1/CM
##YUNITS=TRANSMITTANCE
##XFACTOR=1.000000
##YFACTOR=1
##DELTAX=1.314554
##FIRSTX=605.303
##LASTX=4016.57
##FIRSTY=0.545
##MAXX=4016.57
##MINX=605.303
##MAXY=0.777969
##MINY=0.119
##NPOINTS=2596
##XYDATA=(X++(Y..Y))
605.303000 0.5450 0.5410 0.5381 0.5380 0.5370
611.875770 0.5370 0.5361 0.5341 0.5340 0.5331
618.448540 0.5330 0.5330 0.5330 0.5330 0.5295
625.021310 0.5255 0.5241 0.5206 0.5175 0.5162
631.594080 0.5135 0.5114 0.5086 0.5072 0.5054
638.166850 0.5034 0.4999 0.4967 0.4922 0.4873
644.739620 0.4815 0.4763 0.4714 0.4671 0.4653
651.312390 0.4650 0.4664 0.4711 0.4790 0.4886
657.885160 0.5362 0.5668 0.5761 0.5841 0.5901
664.457930 0.5957 0.6016 0.6064 0.6104 0.6132
671.030700 0.6169 0.6207 0.6237 0.6255 0.6265
677.603470 0.6281 0.6300 0.6320 0.6335 0.6340
684.176240 0.6345 0.6355 0.6360 0.6369 0.6385
690.749010 0.6390 0.6394 0.6400 0.6408 0.6420
697.321780 0.6424 0.6434 0.6440 0.6448 0.6460
703.894550 0.6464 0.6470 0.6470 0.6473 0.6480
710.467320 0.6486 0.6500 0.6500 0.6500 0.6500
717.040090 0.6500 0.6500 0.6500 0.6500 0.6500
723.612860 0.6500 0.6500 0.6496 0.6478 0.6470
730.185630 0.6468 0.6454 0.6425 0.6397 0.6375
736.758400 0.6349 0.6339 0.6330 0.6331 0.6340
743.331170 0.6342 0.6360 0.6360 0.6360 0.6359
749.903940 0.6349 0.6340 0.6339 0.6330 0.6330
756.476710 0.6340 0.6350 0.6380 0.6430 0.6479
763.049480 0.6548 0.6609 0.6668 0.6651 0.6641
769.622250 0.6631 0.6611 0.6592 0.6563 0.6551
776.195020 0.6532 0.6530 0.6548 0.6550 0.6550
782.767790 0.6550 0.6550 0.6550 0.6533 0.6530
789.340560 0.6522 0.6512 0.6502 0.6500 0.6500
795.913330 0.6485 0.6480 0.6472 0.6448 0.6411
802.486100 0.6371 0.6353 0.6321 0.6296 0.6241
809.058870 0.6158 0.6103 0.6043 0.5981 0.5882
815.631640 0.5789 0.5735 0.5764 0.5796 0.5873
822.204410 0.5974 0.6075 0.6149 0.6181 0.6224
828.777180 0.6256 0.6266 0.6281 0.6344 0.6416
835.349950 0.6456 0.6475 0.6480 0.6475 0.6451
841.922720 0.6411 0.6376 0.6332 0.6250 0.6132
848.495490 0.6004 0.5875 0.5763 0.5678 0.5618
855.068260 0.5588 0.5547 0.5506 0.5496 0.5479
861.641030 0.5450 0.5423 0.5394 0.5341 0.5272
868.213800 0.5183 0.5096 0.5037 0.5041 0.5075
874.786570 0.5111 0.5190 0.5311 0.5538 0.5699
881.359340 0.5847 0.5914 0.5940 0.6000 0.6084
887.932110 0.6113 0.6173 0.6201 0.6265 0.6293
894.504880 0.6317 0.6364 0.6395 0.6431 0.6443
901.077650 0.6473 0.6498 0.6479 0.6468 0.6439
907.650420 0.6419 0.6399 0.6379 0.6350 0.6339
914.223190 0.6300 0.6270 0.6250 0.6191 0.6132
920.795960 0.6062 0.6012 0.5972 0.5923 0.5780
927.368730 0.5705 0.5663 0.5596 0.5572 0.5517
933.941500 0.5466 0.5390 0.5267 0.5138 0.5026
940.514270 0.4959 0.4850 0.4797 0.4741 0.4674
947.087040 0.4612 0.4490 0.4217 0.3793 0.3529
953.659810 0.3404 0.3260 0.3213 0.3217 0.3227
960.232580 0.3258 0.3305 0.3425 0.3477 0.3712
966.805350 0.3833 0.4179 0.4357 0.5282 0.6152
973.378120 0.6360 0.6446 0.6635 0.6726 0.6880
979.950890 0.7004 0.7037 0.7061 0.7098 0.7131
986.523660 0.7145 0.7155 0.7171 0.7185 0.7195
993.096430 0.7200 0.7200 0.7200 0.7200 0.7195
999.669200 0.7190 0.7186 0.7180 0.7171 0.7160
1006.241970 0.7156 0.7146 0.7128 0.7106 0.7096
1012.814740 0.7083 0.7066 0.7056 0.7043 0.7027
1019.387510 0.7017 0.7003 0.6990 0.6987 0.6983
1025.960280 0.6996 0.7016 0.7041 0.7089 0.7143
1032.533050 0.7153 0.7160 0.7158 0.7148 0.7136
1039.105820 0.7118 0.7108 0.7098 0.7086 0.7068
1045.678590 0.7058 0.7047 0.7027 0.7004 0.6970
1052.251360 0.6968 0.6950 0.6949 0.6938 0.6918
1058.824130 0.6899 0.6888 0.6859 0.6838 0.6800
1065.396900 0.6799 0.6770 0.6760 0.6739 0.6710
1071.969670 0.6690 0.6690 0.6670 0.6612 0.6572
1078.542440 0.6551 0.6475 0.6423 0.6364 0.6277
1085.115210 0.5987 0.5915 0.5812 0.5791 0.5799
1091.687980 0.5878 0.5967 0.6099 0.6171 0.6239
1098.260750 0.6283 0.6347 0.6441 0.6508 0.6560
1104.833520 0.6593 0.6608 0.6625 0.6645 0.6650
1111.406290 0.6643 0.6640 0.6633 0.6616 0.6596
1117.979060 0.6576 0.6563 0.6553 0.6536 0.6530
1124.551830 0.6530 0.6543 0.6550 0.6550 0.6538
1131.124600 0.6530 0.6518 0.6492 0.6474 0.6464
1137.697370 0.6448 0.6434 0.6430 0.6425 0.6420
1144.270140 0.6409 0.6400 0.6395 0.6390 0.6390
1150.842910 0.6395 0.6410 0.6439 0.6479 0.6509
1157.415680 0.6533 0.6554 0.6564 0.6578 0.6594
1163.988450 0.6604 0.6618 0.6634 0.6640 0.6640
1170.561220 0.6640 0.6636 0.6630 0.6630 0.6623
1177.133990 0.6610 0.6607 0.6597 0.6590 0.6584
1183.706760 0.6567 0.6560 0.6557 0.6550 0.6543
1190.279530 0.6518 0.6508 0.6496 0.6476 0.6454
1196.852300 0.6430 0.6423 0.6383 0.6347 0.6320
1203.425070 0.6268 0.6253 0.6201 0.6137 0.6113
1209.997840 0.6056 0.6016 0.5979 0.5964 0.5876
1216.570610 0.5704 0.5624 0.5524 0.5411 0.5192
1223.143380 0.4937 0.4799 0.4699 0.4571 0.4500
1229.716150 0.4480 0.4451 0.4479 0.4537 0.4644
1236.288920 0.4744 0.4852 0.4970 0.5080 0.5154
1242.861690 0.5124 0.5084 0.5009 0.4983 0.4963
1249.434460 0.4627 0.4106 0.3461 0.2962 0.2707
1256.007230 0.2670 0.2799 0.2878 0.2929 0.3259
1262.580000 0.3535 0.3750 0.4085 0.4417 0.4869
1269.152770 0.5556 0.5933 0.6036 0.6071 0.6108
1275.725540 0.6120 0.6107 0.6093 0.6018 0.5967
1282.298310 0.5889 0.5786 0.5693 0.5617 0.5560
1288.871080 0.5522 0.5498 0.5467 0.5416 0.5350
1295.443850 0.5281 0.5184 0.5065 0.4951 0.4842
1302.016620 0.4738 0.4644 0.4545 0.4446 0.4347
1308.589390 0.4247 0.4144 0.4034 0.3926 0.3803
1315.162160 0.3670 0.3518 0.3371 0.3264 0.3182
1321.734930 0.3077 0.2942 0.2820 0.2661 0.2560
1328.307700 0.2685 0.2927 0.2953 0.3006 0.3082
1334.880470 0.3133 0.3143 0.3159 0.3208 0.3299
1341.453240 0.3363 0.3410 0.3452 0.3495 0.3510
1348.026010 0.3483 0.3360 0.3236 0.3170 0.3119
1354.598780 0.3054 0.2951 0.2770 0.2497 0.2126
1361.171550 0.2034 0.1966 0.1719 0.1567 0.1543
1367.744320 0.1583 0.1716 0.1784 0.1839 0.1967
1374.317090 0.2094 0.2335 0.2458 0.3188 0.3466
1380.889860 0.3783 0.4060 0.4397 0.4655 0.4913
1387.462630 0.5105 0.5784 0.5972 0.6131 0.6215
1394.035400 0.6229 0.6267 0.6270 0.6288 0.6290
1400.608170 0.6272 0.6261 0.6251 0.6198 0.6173
1407.180940 0.6128 0.6095 0.6016 0.5968 0.5920
1413.753710 0.5878 0.5814 0.5761 0.5719 0.5618
1420.326480 0.5552 0.5488 0.5455 0.5399 0.5344
1426.899250 0.5294 0.5138 0.4870 0.4725 0.4612
1433.472020 0.4422 0.4304 0.4143 0.3980 0.3727
1440.044790 0.3478 0.3319 0.3245 0.3218 0.3174
1446.617560 0.3144 0.3134 0.3119 0.3110 0.3121
1453.190330 0.3135 0.3145 0.3166 0.3222 0.3332
1459.763100 0.3430 0.3460 0.3450 0.3383 0.3301
1466.335870 0.3239 0.3144 0.3023 0.2866 0.2727
1472.908640 0.2653 0.2597 0.2518 0.2470 0.2535
1479.481410 0.2711 0.3005 0.3304 0.3381 0.3572
1486.054180 0.3814 0.4063 0.4158 0.4420 0.4707
1492.626950 0.5051 0.5164 0.5200 0.5165 0.5018
1499.199720 0.4830 0.4669 0.4496 0.4213 0.3622
1505.772490 0.3124 0.2655 0.2247 0.2051 0.1776
1512.345260 0.1702 0.1655 0.1630 0.1629 0.1621
1518.918030 0.1635 0.1675 0.1715 0.1764 0.1804
1525.490800 0.1843 0.1885 0.1951 0.1972 0.2002
1532.063570 0.2041 0.2072 0.2120 0.2140 0.2140
1538.636340 0.2130 0.2130 0.2130 0.2140 0.2140
1545.209110 0.2159 0.2169 0.2179 0.2199 0.2218
1551.781880 0.2339 0.2422 0.2528 0.2611 0.2716
1558.354650 0.3128 0.3354 0.3577 0.3627 0.3680
1564.927420 0.3756 0.3974 0.4068 0.4128 0.4187
1571.500190 0.4270 0.4282 0.4272 0.4255 0.4242
1578.072960 0.4225 0.4176 0.4131 0.4106 0.4058
1584.645730 0.4019 0.3913 0.3856 0.3803 0.3767
1591.218500 0.3760 0.3766 0.3847 0.3903 0.4003
1597.791270 0.4146 0.4255 0.4356 0.4471 0.4526
1604.364040 0.4536 0.4540 0.4534 0.4514 0.4479
1610.936810 0.4439 0.4410 0.4364 0.4300 0.4245
1617.509580 0.4147 0.4012 0.3861 0.3705 0.3590
1624.082350 0.3490 0.3370 0.3185 0.2873 0.2533
1630.655120 0.2301 0.2069 0.1856 0.1573 0.1314
1637.227890 0.1196 0.1190 0.1193 0.1210 0.1247
1643.800660 0.1322 0.1447 0.1548 0.1631 0.1767
1650.373430 0.1901 0.2018 0.2058 0.2115 0.2137
1656.946200 0.2162 0.2172 0.2180 0.2178 0.2170
1663.518970 0.2164 0.2136 0.2111 0.2070 0.2073
1670.091740 0.2104 0.2227 0.2554 0.2872 0.3161
1676.664510 0.3667 0.4004 0.4248 0.4435 0.4615
1683.237280 0.4819 0.5092 0.5294 0.5372 0.5411
1689.810050 0.5433 0.5601 0.5712 0.5890 0.5979
1696.382820 0.6078 0.6119 0.6168 0.6208 0.6229
1702.955590 0.6258 0.6288 0.6290 0.6382 0.6399
1709.528360 0.6400 0.6427 0.6456 0.6504 0.6544
1716.101130 0.6559 0.6594 0.6608 0.6627 0.6638
1722.673900 0.6640 0.6648 0.6674 0.6688 0.6713
1729.246670 0.6735 0.6740 0.6755 0.6775 0.6810
1735.819440 0.6835 0.6847 0.6857 0.6874 0.6887
1742.392210 0.6897 0.6913 0.6927 0.6943 0.6963
1748.964980 0.6976 0.6986 0.7003 0.7016 0.7020
1755.537750 0.7026 0.7030 0.7024 0.7020 0.7014
1762.110520 0.7010 0.6999 0.6990 0.6990 0.6990
1768.683290 0.6990 0.6990 0.6985 0.6975 0.6960
1775.256060 0.6950 0.6950 0.6945 0.6936 0.6930
1781.828830 0.6930 0.6930 0.6930 0.6930 0.6930
1788.401600 0.6930 0.6930 0.6930 0.6926 0.6920
1794.974370 0.6920 0.6913 0.6900 0.6897 0.6887
1801.547140 0.6871 0.6847 0.6834 0.6820 0.6817
1808.119910 0.6807 0.6795 0.6778 0.6768 0.6760
1814.692680 0.6760 0.6756 0.6740 0.6744 0.6756
1821.265450 0.6740 0.6740 0.6740 0.6740 0.6739
1827.838220 0.6730 0.6730 0.6730 0.6730 0.6730
1834.410990 0.6730 0.6730 0.6730 0.6730 0.6730
1840.983760 0.6730 0.6730 0.6730 0.6730 0.6730
1847.556530 0.6730 0.6730 0.6730 0.6730 0.6720
1854.129300 0.6720 0.6720 0.6720 0.6720 0.6720
1860.702070 0.6720 0.6720 0.6729 0.6766 0.6779
1867.274840 0.6780 0.6780 0.6780 0.6780 0.6797
1873.847610 0.6800 0.6800 0.6800 0.6800 0.6800
1880.420380 0.6808 0.6818 0.6836 0.6848 0.6881
1886.993150 0.6898 0.6915 0.6971 0.7019 0.7030
1893.565920 0.7044 0.7057 0.7067 0.7084 0.7097
1900.138690 0.7113 0.7140 0.7150 0.7156 0.7160
1906.711460 0.7173 0.7186 0.7190 0.7196 0.7200
1913.284230 0.7200 0.7217 0.7247 0.7266 0.7276
1919.857000 0.7291 0.7305 0.7315 0.7320 0.7320
1926.429770 0.7320 0.7325 0.7330 0.7340 0.7350
1933.002540 0.7350 0.7355 0.7360 0.7364 0.7370
1939.575310 0.7378 0.7398 0.7418 0.7434 0.7444
1946.148080 0.7450 0.7450 0.7457 0.7470 0.7470
1952.720850 0.7470 0.7473 0.7480 0.7480 0.7480
1959.293620 0.7480 0.7480 0.7483 0.7493 0.7500
1965.866390 0.7500 0.7505 0.7522 0.7530 0.7532
1972.439160 0.7544 0.7560 0.7562 0.7570 0.7570
1979.011930 0.7572 0.7580 0.7583 0.7600 0.7600
1985.584700 0.7600 0.7600 0.7601 0.7611 0.7622
1992.157470 0.7640 0.7641 0.7650 0.7650 0.7651
1998.730240 0.7661 0.7680 0.7680 0.7680 0.7680
2005.303010 0.7680 0.7680 0.7680 0.7680 0.7680
2011.875780 0.7680 0.7690 0.7690 0.7690 0.7690
2018.448550 0.7690 0.7690 0.7690 0.7690 0.7700
2025.021320 0.7700 0.7700 0.7700 0.7700 0.7700
2031.594090 0.7700 0.7700 0.7700 0.7700 0.7710
2038.166860 0.7710 0.7711 0.7730 0.7730 0.7740
2044.739630 0.7740 0.7740 0.7740 0.7750 0.7750
2051.312400 0.7750 0.7751 0.7770 0.7770 0.7770
2057.885170 0.7770 0.7770 0.7770 0.7770 0.7770
2064.457940 0.7770 0.7770 0.7770 0.7770 0.7770
2071.030710 0.7770 0.7780 0.7770 0.7770 0.7770
2077.603480 0.7770 0.7770 0.7770 0.7770 0.7770
2084.176250 0.7770 0.7770 0.7770 0.7769 0.7750
2090.749020 0.7750 0.7750 0.7750 0.7750 0.7750
2097.321790 0.7750 0.7750 0.7750 0.7750 0.7750
2103.894560 0.7750 0.7750 0.7750 0.7750 0.7750
2110.467330 0.7750 0.7750 0.7750 0.7750 0.7750
2117.040100 0.7750 0.7750 0.7750 0.7750 0.7750
2123.612870 0.7750 0.7750 0.7750 0.7750 0.7750
2130.185640 0.7750 0.7751 0.7770 0.7770 0.7770
2136.758410 0.7780 0.7770 0.7770 0.7769 0.7750
2143.331180 0.7750 0.7740 0.7740 0.7740 0.7740
2149.903950 0.7740 0.7740 0.7740 0.7730 0.7730
2156.476720 0.7730 0.7730 0.7729 0.7710 0.7710
2163.049490 0.7710 0.7710 0.7700 0.7700 0.7700
2169.622260 0.7700 0.7700 0.7700 0.7690 0.7690
2176.195030 0.7690 0.7680 0.7680 0.7679 0.7660
2182.767800 0.7660 0.7660 0.7660 0.7660 0.7660
2189.340570 0.7660 0.7660 0.7660 0.7660 0.7660
2195.913340 0.7660 0.7660 0.7650 0.7650 0.7650
2202.486110 0.7650 0.7640 0.7639 0.7620 0.7620
2209.058880 0.7620 0.7620 0.7620 0.7620 0.7620
2215.631650 0.7610 0.7610 0.7610 0.7600 0.7599
2222.204420 0.7580 0.7580 0.7570 0.7570 0.7560
2228.777190 0.7560 0.7560 0.7560 0.7560 0.7559
2235.349960 0.7540 0.7540 0.7540 0.7540 0.7530
2241.922730 0.7530 0.7530 0.7530 0.7530 0.7529
2248.495500 0.7499 0.7480 0.7469 0.7450 0.7450
2255.068270 0.7450 0.7450 0.7450 0.7450 0.7450
2261.641040 0.7450 0.7450 0.7440 0.7440 0.7440
2268.213810 0.7429 0.7410 0.7400 0.7389 0.7360
2274.786580 0.7349 0.7310 0.7310 0.7299 0.7269
2281.359350 0.7239 0.7200 0.7200 0.7198 0.7139
2287.932120 0.7089 0.7049 0.7018 0.6969 0.6939
2294.504890 0.6919 0.6899 0.6879 0.6849 0.6819
2301.077660 0.6799 0.6769 0.6730 0.6720 0.6709
2307.650430 0.6669 0.6639 0.6610 0.6610 0.6599
2314.223200 0.6570 0.6560 0.6549 0.6530 0.6529
2320.795970 0.6510 0.6510 0.6499 0.6480 0.6480
2327.368740 0.6470 0.6470 0.6460 0.6460 0.6460
2333.941510 0.6460 0.6460 0.6459 0.6440 0.6430
2340.514280 0.6419 0.6400 0.6400 0.6400 0.6400
2347.087050 0.6390 0.6390 0.6390 0.6390 0.6380
2353.659820 0.6380 0.6380 0.6380 0.6390 0.6390
2360.232590 0.6400 0.6400 0.6400 0.6400 0.6400
2366.805360 0.6400 0.6400 0.6400 0.6400 0.6390
2373.378130 0.6390 0.6390 0.6390 0.6379 0.6360
2379.950900 0.6360 0.6360 0.6350 0.6340 0.6329
2386.523670 0.6310 0.6310 0.6300 0.6289 0.6270
2393.096440 0.6270 0.6260 0.6259 0.6230 0.6219
2399.669210 0.6179 0.6139 0.6120 0.6119 0.6090
2406.241980 0.6079 0.6060 0.6050 0.6050 0.6039
2412.814750 0.6019 0.5999 0.5980 0.5970 0.5969
2419.387520 0.5929 0.5889 0.5848 0.5799 0.5770
2425.960290 0.5760 0.5759 0.5719 0.5699 0.5669
2432.533060 0.5640 0.5639 0.5620 0.5619 0.5600
2439.105830 0.5600 0.5590 0.5580 0.5580 0.5569
2445.678600 0.5550 0.5550 0.5539 0.5510 0.5500
2452.251370 0.5500 0.5500 0.5490 0.5489 0.5470
2458.824140 0.5469 0.5449 0.5430 0.5419 0.5389
2465.396910 0.5369 0.5340 0.5330 0.5319 0.5289
2471.969680 0.5259 0.5239 0.5210 0.5198 0.5149
2478.542450 0.5129 0.5109 0.5080 0.5069 0.5040
2485.115220 0.5029 0.4998 0.4948 0.4899 0.4869
2491.687990 0.4830 0.4819 0.4800 0.4789 0.4769
2498.260760 0.4750 0.4740 0.4729 0.4700 0.4689
2504.833530 0.4670 0.4660 0.4660 0.4650 0.4649
2511.406300 0.4630 0.4630 0.4630 0.4630 0.4630
2517.979070 0.4630 0.4630 0.4620 0.4609 0.4580
2524.551840 0.4579 0.4559 0.4530 0.4530 0.4519
2531.124610 0.4489 0.4460 0.4450 0.4440 0.4439
2537.697380 0.4420 0.4409 0.4370 0.4360 0.4349
2544.270150 0.4330 0.4320 0.4309 0.4280 0.4269
2550.842920 0.4250 0.4240 0.4240 0.4230 0.4230
2557.415690 0.4220 0.4220 0.4220 0.4220 0.4220
2563.988460 0.4230 0.4240 0.4240 0.4240 0.4240
2570.561230 0.4240 0.4250 0.4250 0.4250 0.4240
2577.134000 0.4240 0.4240 0.4240 0.4240 0.4240
2583.706770 0.4240 0.4250 0.4250 0.4250 0.4250
2590.279540 0.4239 0.4219 0.4200 0.4190 0.4179
2596.852310 0.4160 0.4150 0.4139 0.4120 0.4110
2603.425080 0.4110 0.4100 0.4100 0.4099 0.4080
2609.997850 0.4080 0.4070 0.4070 0.4060 0.4060
2616.570620 0.4060 0.4060 0.4060 0.4060 0.4070
2623.143390 0.4070 0.4070 0.4060 0.4060 0.4060
2629.716160 0.4070 0.4070 0.4081 0.4111 0.4140
2636.288930 0.4152 0.4201 0.4220 0.4220 0.4220
2642.861700 0.4230 0.4230 0.4240 0.4240 0.4240
2649.434470 0.4240 0.4230 0.4230 0.4230 0.4230
2656.007240 0.4230 0.4230 0.4230 0.4219 0.4199
2662.580010 0.4179 0.4159 0.4140 0.4139 0.4110
2669.152780 0.4100 0.4099 0.4070 0.4059 0.4030
2675.725550 0.4019 0.3990 0.3980 0.3979 0.3940
2682.298320 0.3928 0.3870 0.3860 0.3860 0.3850
2688.871090 0.3839 0.3819 0.3799 0.3780 0.3780
2695.443860 0.3770 0.3770 0.3759 0.3740 0.3730
2702.016630 0.3719 0.3700 0.3700 0.3700 0.3690
2708.589400 0.3680 0.3680 0.3679 0.3660 0.3660
2715.162170 0.3660 0.3661 0.3680 0.3679 0.3660
2721.734940 0.3660 0.3660 0.3660 0.3660 0.3660
2728.307710 0.3660 0.3660 0.3660 0.3650 0.3650
2734.880480 0.3640 0.3629 0.3600 0.3590 0.3589
2741.453250 0.3570 0.3560 0.3549 0.3530 0.3530
2748.026020 0.3520 0.3520 0.3520 0.3520 0.3520
2754.598790 0.3520 0.3520 0.3520 0.3520 0.3520
2761.171560 0.3520 0.3520 0.3520 0.3520 0.3520
2767.744330 0.3520 0.3520 0.3520 0.3520 0.3520
2774.317100 0.3520 0.3520 0.3530 0.3531 0.3550
2780.889870 0.3550 0.3560 0.3560 0.3571 0.3590
2787.462640 0.3600 0.3611 0.3630 0.3630 0.3640
2794.035410 0.3640 0.3650 0.3660 0.3661 0.3680
2800.608180 0.3680 0.3680 0.3690 0.3690 0.3690
2807.180950 0.3690 0.3690 0.3690 0.3690 0.3690
2813.753720 0.3700 0.3700 0.3690 0.3690 0.3690
2820.326490 0.3690 0.3690 0.3690 0.3690 0.3690
2826.899260 0.3680 0.3679 0.3660 0.3649 0.3610
2833.472030 0.3600 0.3589 0.3559 0.3529 0.3509
2840.044800 0.3479 0.3459 0.3418 0.3360 0.3359
2846.617570 0.3339 0.3310 0.3299 0.3279 0.3260
2853.190340 0.3260 0.3260 0.3250 0.3249 0.3230
2859.763110 0.3230 0.3220 0.3220 0.3220 0.3220
2866.335880 0.3220 0.3220 0.3220 0.3220 0.3220
2872.908650 0.3220 0.3209 0.3190 0.3180 0.3170
2879.481420 0.3169 0.3150 0.3139 0.3109 0.3089
2886.054190 0.3069 0.3050 0.3050 0.3039 0.3020
2892.626960 0.3010 0.3010 0.2999 0.2980 0.2970
2899.199730 0.2959 0.2940 0.2929 0.2900 0.2900
2905.772500 0.2890 0.2890 0.2880 0.2880 0.2870
2912.345270 0.2870 0.2870 0.2870 0.2870 0.2870
2918.918040 0.2880 0.2880 0.2890 0.2890 0.2900
2925.490810 0.2900 0.2901 0.2920 0.2930 0.2941
2932.063580 0.2960 0.2960 0.2970 0.2981 0.3000
2938.636350 0.3010 0.3021 0.3041 0.3060 0.3071
2945.209120 0.3091 0.3111 0.3131 0.3170 0.3181
2951.781890 0.3222 0.3272 0.3323 0.3435 0.3613
2958.354660 0.3722 0.3800 0.3811 0.3846 0.4031
2964.927430 0.4071 0.4111 0.4142 0.4221 0.4240
2971.500200 0.4251 0.4271 0.4291 0.4311 0.4331
2978.072970 0.4372 0.4421 0.4440 0.4450 0.4451
2984.645740 0.4481 0.4500 0.4501 0.4530 0.4540
2991.218510 0.4541 0.4561 0.4580 0.4581 0.4600
2997.791280 0.4610 0.4620 0.4620 0.4630 0.4630
3004.364050 0.4631 0.4649 0.4630 0.4630 0.4631
3010.936820 0.4650 0.4650 0.4650 0.4650 0.4650
3017.509590 0.4650 0.4660 0.4660 0.4660 0.4660
3024.082360 0.4670 0.4671 0.4690 0.4690 0.4700
3030.655130 0.4711 0.4730 0.4740 0.4740 0.4750
3037.227900 0.4751 0.4770 0.4780 0.4790 0.4790
3043.800670 0.4801 0.4820 0.4830 0.4841 0.4860
3050.373440 0.4870 0.4881 0.4900 0.4910 0.4910
3056.946210 0.4921 0.4940 0.4950 0.4950 0.4961
3063.518980 0.4980 0.4980 0.4990 0.4990 0.5001
3070.091750 0.5030 0.5040 0.5051 0.5080 0.5091
3076.664520 0.5121 0.5151 0.5171 0.5201 0.5220
3083.237290 0.5221 0.5250 0.5261 0.5280 0.5281
3089.810060 0.5321 0.5341 0.5360 0.5370 0.5380
3096.382830 0.5391 0.5410 0.5420 0.5431 0.5450
3102.955600 0.5460 0.5471 0.5500 0.5511 0.5530
3109.528370 0.5540 0.5551 0.5570 0.5580 0.5590
3116.101140 0.5600 0.5601 0.5620 0.5620 0.5620
3122.673910 0.5620 0.5630 0.5630 0.5640 0.5640
3129.246680 0.5641 0.5660 0.5660 0.5670 0.5670
3135.819450 0.5680 0.5680 0.5681 0.5700 0.5700
3142.392220 0.5710 0.5721 0.5740 0.5751 0.5771
3148.964990 0.5811 0.5851 0.5870 0.5880 0.5891
3155.537760 0.5910 0.5920 0.5931 0.5950 0.5960
3162.110530 0.5970 0.5981 0.6000 0.6010 0.6021
3168.683300 0.6040 0.6040 0.6040 0.6040 0.6050
3175.256070 0.6050 0.6050 0.6050 0.6050 0.6050
3181.828840 0.6050 0.6050 0.6050 0.6050 0.6050
3188.401610 0.6050 0.6050 0.6050 0.6050 0.6050
3194.974380 0.6050 0.6060 0.6060 0.6060 0.6060
3201.547150 0.6060 0.6060 0.6050 0.6050 0.6050
3208.119920 0.6039 0.6020 0.6020 0.6010 0.5999
3214.692690 0.5980 0.5980 0.5970 0.5960 0.5949
3221.265460 0.5930 0.5920 0.5909 0.5889 0.5869
3227.838230 0.5839 0.5809 0.5789 0.5770 0.5760
3234.411000 0.5750 0.5739 0.5719 0.5678 0.5629
3240.983770 0.5600 0.5590 0.5579 0.5549 0.5529
3247.556540 0.5509 0.5489 0.5459 0.5419 0.5379
3254.129310 0.5359 0.5319 0.5279 0.5238 0.5157
3260.702080 0.5037 0.4920 0.4907 0.4819 0.4789
3267.274850 0.4748 0.4698 0.4630 0.4619 0.4579
3273.847620 0.4538 0.4457 0.4359 0.4329 0.4289
3280.420390 0.4248 0.4178 0.4099 0.4077 0.3977
3286.993160 0.3858 0.3798 0.3728 0.3658 0.3609
3293.565930 0.3589 0.3559 0.3519 0.3470 0.3459
3300.138700 0.3419 0.3398 0.3339 0.3318 0.3269
3306.711470 0.3249 0.3230 0.3220 0.3220 0.3220
3313.284240 0.3230 0.3231 0.3250 0.3250 0.3260
3319.857010 0.3270 0.3281 0.3300 0.3310 0.3321
3326.429780 0.3340 0.3350 0.3361 0.3391 0.3431
3333.002550 0.3461 0.3491 0.3521 0.3560 0.3571
3339.575320 0.3591 0.3631 0.3661 0.3693 0.3770
3346.148090 0.3783 0.3871 0.3891 0.3932 0.3992
3352.720860 0.4060 0.4071 0.4111 0.4152 0.4222
3359.293630 0.4283 0.4363 0.4452 0.4502 0.4561
3365.866400 0.4583 0.4673 0.4751 0.4782 0.4833
3372.439170 0.4913 0.4990 0.5001 0.5031 0.5071
3379.011940 0.5092 0.5161 0.5201 0.5240 0.5253
3385.584710 0.5330 0.5341 0.5361 0.5381 0.5421
3392.157480 0.5460 0.5471 0.5501 0.5530 0.5541
3398.730250 0.5571 0.5590 0.5601 0.5620 0.5630
3405.303020 0.5640 0.5641 0.5661 0.5681 0.5700
3411.875790 0.5710 0.5721 0.5740 0.5750 0.5750
3418.448560 0.5760 0.5770 0.5771 0.5790 0.5801
3425.021330 0.5830 0.5840 0.5851 0.5880 0.5891
3431.594100 0.5910 0.5920 0.5931 0.5950 0.5951
3438.166870 0.5970 0.5970 0.5970 0.5981 0.6000
3444.739640 0.6010 0.6010 0.6010 0.6020 0.6021
3451.312410 0.6040 0.6050 0.6060 0.6061 0.6080
3457.885180 0.6080 0.6090 0.6100 0.6101 0.6120
3464.457950 0.6120 0.6120 0.6120 0.6130 0.6130
3471.030720 0.6140 0.6151 0.6170 0.6170 0.6180
3477.603490 0.6191 0.6211 0.6231 0.6250 0.6261
3484.176260 0.6290 0.6290 0.6300 0.6300 0.6311
3490.749030 0.6330 0.6330 0.6340 0.6340 0.6350
3497.321800 0.6351 0.6380 0.6380 0.6390 0.6401
3503.894570 0.6430 0.6440 0.6440 0.6441 0.6470
3510.467340 0.6470 0.6481 0.6500 0.6510 0.6510
3517.040110 0.6510 0.6520 0.6530 0.6531 0.6550
3523.612880 0.6560 0.6560 0.6570 0.6570 0.6571
3530.185650 0.6590 0.6590 0.6600 0.6611 0.6630
3536.758420 0.6630 0.6630 0.6640 0.6650 0.6651
3543.331190 0.6670 0.6680 0.6691 0.6710 0.6720
3549.903960 0.6730 0.6730 0.6740 0.6741 0.6760
3556.476730 0.6770 0.6781 0.6800 0.6810 0.6821
3563.049500 0.6850 0.6861 0.6891 0.6930 0.6940
3569.622270 0.6951 0.6971 0.7010 0.7021 0.7071
3576.195040 0.7100 0.7111 0.7140 0.7150 0.7150
3582.767810 0.7161 0.7180 0.7190 0.7190 0.7201
3589.340580 0.7220 0.7220 0.7230 0.7231 0.7260
3595.913350 0.7260 0.7270 0.7281 0.7300 0.7300
3602.486120 0.7310 0.7321 0.7350 0.7360 0.7371
3609.058890 0.7390 0.7400 0.7400 0.7411 0.7431
3615.631660 0.7451 0.7470 0.7480 0.7490 0.7501
3622.204430 0.7520 0.7520 0.7530 0.7541 0.7560
3628.777200 0.7560 0.7570 0.7570 0.7570 0.7570
3635.349970 0.7580 0.7580 0.7580 0.7581 0.7599
3641.922740 0.7581 0.7600 0.7600 0.7600 0.7600
3648.495510 0.7600 0.7600 0.7600 0.7600 0.7600
3655.068280 0.7600 0.7600 0.7600 0.7600 0.7600
3661.641050 0.7600 0.7600 0.7600 0.7600 0.7600
3668.213820 0.7600 0.7600 0.7600 0.7600 0.7600
3674.786590 0.7600 0.7600 0.7600 0.7600 0.7600
3681.359360 0.7600 0.7600 0.7600 0.7600 0.7600
3687.932130 0.7600 0.7600 0.7600 0.7600 0.7600
3694.504900 0.7600 0.7600 0.7600 0.7600 0.7600
3701.077670 0.7600 0.7610 0.7610 0.7610 0.7610
3707.650440 0.7610 0.7610 0.7610 0.7610 0.7610
3714.223210 0.7610 0.7610 0.7610 0.7610 0.7610
3720.795980 0.7620 0.7620 0.7620 0.7620 0.7620
3727.368750 0.7620 0.7620 0.7620 0.7620 0.7620
3733.941520 0.7620 0.7620 0.7621 0.7640 0.7640
3740.514290 0.7640 0.7640 0.7640 0.7640 0.7640
3747.087060 0.7640 0.7640 0.7640 0.7640 0.7640
3753.659830 0.7640 0.7650 0.7650 0.7650 0.7650
3760.232600 0.7660 0.7660 0.7660 0.7661 0.7680
3766.805370 0.7680 0.7680 0.7690 0.7700 0.7700
3773.378140 0.7700 0.7710 0.7710 0.7710 0.7710
3779.950910 0.7711 0.7730 0.7730 0.7730 0.7730
3786.523680 0.7730 0.7730 0.7730 0.7730 0.7729
3793.096450 0.7710 0.7700 0.7690 0.7680 0.7680
3799.669220 0.7680 0.7679 0.7660 0.7661 0.7679
3806.241990 0.7660 0.7660 0.7660 0.7660 0.7660
3812.814760 0.7660 0.7660 0.7650 0.7650 0.7650
3819.387530 0.7650 0.7640 0.7640 0.7640 0.7640
3825.960300 0.7640 0.7640 0.7640 0.7640 0.7640
3832.533070 0.7640 0.7640 0.7640 0.7640 0.7640
3839.105840 0.7640 0.7650 0.7650 0.7650 0.7650
3845.678610 0.7650 0.7650 0.7650 0.7650 0.7650
3852.251380 0.7650 0.7640 0.7640 0.7640 0.7639
3858.824150 0.7620 0.7610 0.7610 0.7610 0.7610
3865.396920 0.7610 0.7610 0.7610 0.7620 0.7621
3871.969690 0.7640 0.7640 0.7639 0.7621 0.7640
3878.542460 0.7640 0.7640 0.7640 0.7640 0.7640
3885.115230 0.7650 0.7640 0.7650 0.7650 0.7650
3891.688000 0.7650 0.7650 0.7650 0.7650 0.7650
3898.260770 0.7650 0.7650 0.7660 0.7660 0.7661
3904.833540 0.7680 0.7680 0.7680 0.7680 0.7680
3911.406310 0.7680 0.7680 0.7680 0.7679 0.7660
3917.979080 0.7660 0.7661 0.7680 0.7680 0.7680
3924.551850 0.7680 0.7680 0.7680 0.7680 0.7690
3931.124620 0.7690 0.7690 0.7690 0.7689 0.7660
3937.697390 0.7660 0.7660 0.7660 0.7660 0.7650
3944.270160 0.7650 0.7650 0.7650 0.7660 0.7650
3950.842930 0.7650 0.7650 0.7650 0.7650 0.7660
3957.415700 0.7660 0.7661 0.7680 0.7680 0.7680
3963.988470 0.7680 0.7680 0.7680 0.7680 0.7690
3970.561240 0.7690 0.7690 0.7690 0.7690 0.7690
3977.134010 0.7680 0.7680 0.7679 0.7660 0.7660
3983.706780 0.7660 0.7660 0.7661 0.7680 0.7680
3990.279550 0.7680 0.7680 0.7680 0.7680 0.7679
3996.852320 0.7660 0.7660 0.7660 0.7650 0.7650
4003.425090 0.7650 0.7640 0.7639 0.7619 0.7599
4009.997860 0.7570 0.7559 0.7540 0.7530 0.7519
4016.570630 0.7500
##END=
