##TITLE=IMIDAZOLE, 5-AMINO-4-PYRROLIDINYLCARBONYL-
##JCAMP-DX=4.24
##DATA TYPE=INFRARED SPECTRUM
##CLASS=COBLENTZ III
##ORIGIN=SOUTHERN RESEARCH INSTITUTE
##OWNER=COBLENTZ SOCIETY
Collection (C) 2018 copyright by the U.S. Secretary of Commerce
on behalf of the United States of America. All rights reserved.
##DATE=1962/05/30
##NAMES=4-(1-pyrrolidinylcarbonyl)-1H-imidazol-5-amine
4-(1-pyrrolidinylcarbonyl)-1H-imidazol-5-ylamine
##MOLFORM=C8 H12 N4 O
##SOURCE REFERENCE=COBLENTZ NO. 10456
##$NIST ID=B6010456
##$NIST SOURCE=COBLENTZ
##$NIST IMAGE=cob10456
##SPECTROMETER/DATA SYSTEM=PERKIN-ELMER 221 (GRATING)
##INSTRUMENT PARAMETERS=GRATING FOR 4000-1428, FILTERS AT 2490, 980, NaCl PRISM FOR 1428-650 CM^-^1
##STATE=SOLID (1 mg / 650 mg KBr DISC)
##PATH LENGTH=
$$ PURITY - ANALYTICAL
##SAMPLING PROCEDURE=TRANSMISSION
##RESOLUTION=4
##DATA PROCESSING=DIGITIZED BY NIST FROM HARD COPY (FROM TWO SEGMENTS)
##XUNITS=1/CM
##YUNITS=TRANSMITTANCE
##XFACTOR=1.000000
##YFACTOR=1
##DELTAX=1.317027
##FIRSTX=658.122
##LASTX=4020.49
##FIRSTY=0.534
##MAXX=4020.49
##MINX=658.122
##MAXY=0.923
##MINY=0.06
##NPOINTS=2554
##XYDATA=(X++(Y..Y))
658.122000 0.5340 0.5340 0.5340 0.5350 0.5350
664.707135 0.5350 0.5350 0.5350 0.5350 0.5350
671.292270 0.5350 0.5350 0.5350 0.5350 0.5350
677.877405 0.5350 0.5350 0.5350 0.5350 0.5359
684.462540 0.5360 0.5386 0.5399 0.5417 0.5420
691.047675 0.5428 0.5430 0.5430 0.5430 0.5430
697.632810 0.5438 0.5456 0.5460 0.5475 0.5511
704.217945 0.5550 0.5583 0.5590 0.5597 0.5600
710.803080 0.5593 0.5525 0.5457 0.5412 0.5316
717.388215 0.5211 0.5125 0.5046 0.4987 0.4937
723.973350 0.4900 0.4870 0.4834 0.4820 0.4814
730.558485 0.4754 0.4640 0.4572 0.4554 0.4538
737.143620 0.4530 0.4542 0.4562 0.4610 0.4713
743.728755 0.4837 0.4928 0.4998 0.5110 0.5217
750.313890 0.5255 0.5265 0.5270 0.5265 0.5255
756.899025 0.5230 0.5191 0.5118 0.4999 0.4801
763.484160 0.4531 0.4299 0.4096 0.3770 0.3341
770.069295 0.3045 0.2926 0.2924 0.3002 0.3224
776.654430 0.3652 0.4147 0.4383 0.4594 0.4742
783.239565 0.4791 0.4810 0.4807 0.4800 0.4800
789.824700 0.4794 0.4780 0.4780 0.4780 0.4780
796.409835 0.4780 0.4774 0.4752 0.4730 0.4727
802.994970 0.4717 0.4700 0.4665 0.4648 0.4638
809.580105 0.4630 0.4624 0.4598 0.4582 0.4542
816.165240 0.4508 0.4496 0.4478 0.4468 0.4460
822.750375 0.4455 0.4429 0.4412 0.4357 0.4338
829.335510 0.4320 0.4318 0.4298 0.4279 0.4270
835.920645 0.4269 0.4260 0.4260 0.4261 0.4270
842.505780 0.4270 0.4271 0.4280 0.4281 0.4300
849.090915 0.4310 0.4321 0.4400 0.4500 0.4569
855.676050 0.4648 0.4797 0.4858 0.4860 0.4879
862.261185 0.4890 0.4918 0.4929 0.4958 0.4960
868.846320 0.4969 0.4979 0.5044 0.5140 0.5186
875.431455 0.5261 0.5314 0.5416 0.5464 0.5504
882.016590 0.5518 0.5512 0.5502 0.5483 0.5447
888.601725 0.5366 0.5010 0.4585 0.4373 0.4222
895.186860 0.4081 0.3996 0.3934 0.4142 0.4308
901.771995 0.4542 0.4899 0.5235 0.5574 0.5857
908.357130 0.6072 0.6158 0.6170 0.6142 0.5971
914.942265 0.5716 0.5448 0.5300 0.5178 0.5026
921.527400 0.4738 0.4597 0.4590 0.4596 0.4606
928.112535 0.4653 0.4710 0.4748 0.4754 0.4727
934.697670 0.4675 0.4575 0.4469 0.4424 0.4420
941.282805 0.4425 0.4435 0.4456 0.4512 0.4617
947.867940 0.4746 0.4906 0.5191 0.5573 0.6038
954.453075 0.6416 0.6789 0.7164 0.7282 0.7329
961.038210 0.7340 0.7327 0.7297 0.7267 0.7233
967.623345 0.7152 0.7042 0.6984 0.6944 0.6912
974.208480 0.6900 0.6911 0.6967 0.7055 0.7104
980.793615 0.7162 0.7314 0.7433 0.7476 0.7516
987.378750 0.7536 0.7550 0.7550 0.7550 0.7544
993.963885 0.7530 0.7527 0.7520 0.7517 0.7510
1000.549020 0.7508 0.7495 0.7475 0.7455 0.7436
1007.134155 0.7416 0.7398 0.7384 0.7356 0.7329
1013.719290 0.7275 0.7240 0.7182 0.7135 0.7110
1020.304425 0.7109 0.7096 0.7065 0.7024 0.6960
1026.889560 0.6795 0.6744 0.6684 0.6627 0.6600
1033.474695 0.6601 0.6611 0.6631 0.6653 0.6710
1040.059830 0.6720 0.6730 0.6720 0.6720 0.6720
1046.644965 0.6710 0.6690 0.6670 0.6650 0.6611
1053.230100 0.6600 0.6600 0.6590 0.6590 0.6571
1059.815235 0.6570 0.6570 0.6589 0.6590 0.6590
1066.400370 0.6599 0.6600 0.6600 0.6609 0.6610
1072.985505 0.6601 0.6600 0.6600 0.6600 0.6600
1079.570640 0.6600 0.6575 0.6553 0.6534 0.6506
1086.155775 0.6484 0.6464 0.6436 0.6422 0.6404
1092.740910 0.6392 0.6360 0.6320 0.6287 0.6273
1099.326045 0.6263 0.6223 0.6181 0.6056 0.5960
1105.911180 0.5884 0.5798 0.5742 0.5723 0.5727
1112.496315 0.5817 0.5900 0.5953 0.5976 0.5993
1119.081450 0.6006 0.6010 0.6016 0.6020 0.6020
1125.666585 0.6020 0.6014 0.6010 0.6010 0.6004
1132.251720 0.5989 0.5969 0.5943 0.5908 0.5874
1138.836855 0.5849 0.5777 0.5652 0.5554 0.5480
1145.421990 0.5380 0.5266 0.5171 0.5038 0.4821
1152.007125 0.4624 0.4499 0.4431 0.4402 0.4371
1158.592260 0.4369 0.4397 0.4458 0.4560 0.4687
1165.177395 0.4834 0.4966 0.5032 0.5054 0.5060
1171.762530 0.5056 0.5032 0.4972 0.4850 0.4669
1178.347665 0.4520 0.4384 0.4291 0.4244 0.4236
1184.932800 0.4253 0.4297 0.4430 0.4592 0.4813
1191.517935 0.5047 0.5303 0.5545 0.5706 0.5904
1198.103070 0.6014 0.6163 0.6306 0.6404 0.6420
1204.688205 0.6416 0.6398 0.6383 0.6343 0.6303
1211.273340 0.6260 0.6198 0.6120 0.6039 0.5899
1217.858475 0.5754 0.5638 0.5548 0.5533 0.5571
1224.443610 0.5686 0.5855 0.6017 0.6101 0.6111
1231.028745 0.6129 0.6109 0.6096 0.6017 0.5934
1237.613880 0.5776 0.5647 0.5478 0.5310 0.5300
1244.199015 0.5300 0.5280 0.5270 0.5221 0.5114
1250.784150 0.5033 0.5020 0.5020 0.5029 0.5049
1257.369285 0.5059 0.5069 0.5097 0.5173 0.5252
1263.954420 0.5331 0.5411 0.5543 0.5639 0.5781
1270.539555 0.5904 0.5988 0.6008 0.6010 0.6002
1277.124690 0.6000 0.6000 0.5984 0.5948 0.5868
1283.709825 0.5747 0.5625 0.5491 0.5375 0.5342
1290.294960 0.5385 0.5497 0.5575 0.5620 0.5674
1296.880095 0.5690 0.5704 0.5696 0.5676 0.5649
1303.465230 0.5619 0.5596 0.5516 0.5413 0.5353
1310.050365 0.5300 0.5260 0.5237 0.5198 0.5130
1316.635500 0.5025 0.4906 0.4757 0.4593 0.4452
1323.220635 0.4352 0.4232 0.4072 0.3943 0.3844
1329.805770 0.3711 0.3574 0.3434 0.3317 0.3269
1336.390905 0.3265 0.3369 0.3761 0.4201 0.4424
1342.976040 0.4554 0.4624 0.4640 0.4640 0.4626
1349.561175 0.4605 0.4582 0.4480 0.4349 0.4276
1356.146310 0.4196 0.4117 0.4050 0.4012 0.4000
1362.731445 0.4000 0.3992 0.3980 0.3980 0.3976
1369.316580 0.3966 0.3953 0.3937 0.3917 0.3877
1375.901715 0.3834 0.3778 0.3711 0.3649 0.3588
1382.486850 0.3551 0.3516 0.3466 0.3419 0.3379
1389.071985 0.3347 0.3335 0.3320 0.3318 0.3310
1395.657120 0.3310 0.3310 0.3312 0.3320 0.3318
1402.242255 0.3299 0.3239 0.3181 0.3127 0.3050
1408.827390 0.2977 0.2818 0.2622 0.2567 0.2466
1415.412525 0.1893 0.1831 0.1756 0.1715 0.1661
1421.997660 0.1567 0.1528 0.1507 0.1465 0.1386
1428.582795 0.1318 0.1280 0.1270 0.1281 0.1321
1435.167930 0.1361 0.1400 0.1430 0.1460 0.1500
1441.753065 0.1510 0.1510 0.1364 0.1215 0.1143
1448.338200 0.1055 0.0984 0.0924 0.0892 0.0862
1454.923335 0.0851 0.0859 0.0878 0.0898 0.0918
1461.508470 0.0920 0.0850 0.0805 0.0723 0.0676
1468.093605 0.0653 0.0642 0.0640 0.0648 0.0650
1474.678740 0.0666 0.0670 0.0686 0.0737 0.0774
1481.263875 0.0811 0.1015 0.1224 0.1461 0.1709
1487.849010 0.1897 0.1984 0.2007 0.2003 0.1971
1494.434145 0.1874 0.1762 0.1639 0.1503 0.1364
1501.019280 0.1232 0.1103 0.1033 0.0987 0.0918
1507.604415 0.0857 0.0814 0.0749 0.0714 0.0716
1514.189550 0.0726 0.0742 0.0756 0.0766 0.0788
1520.774685 0.0812 0.0832 0.0840 0.0846 0.0850
1527.359820 0.0850 0.0855 0.0871 0.0943 0.1036
1533.944955 0.1127 0.1246 0.1440 0.1639 0.1831
1540.530090 0.2032 0.2166 0.2299 0.2462 0.2637
1547.115225 0.2752 0.2890 0.3130 0.3332 0.3472
1553.700360 0.3657 0.3844 0.3862 0.3884 0.3890
1560.285495 0.3879 0.3838 0.3774 0.3665 0.3504
1566.870630 0.3386 0.3256 0.3064 0.2876 0.2700
1573.455765 0.2517 0.2336 0.2124 0.1938 0.1823
1580.040900 0.1686 0.1546 0.1470 0.1435 0.1395
1586.626035 0.1305 0.1248 0.1182 0.1074 0.1018
1593.211170 0.1004 0.0968 0.0906 0.0844 0.0809
1599.796305 0.0744 0.0667 0.0648 0.0638 0.0627
1606.381440 0.0610 0.0609 0.0600 0.0600 0.0601
1612.966575 0.0610 0.0612 0.0630 0.0632 0.0653
1619.551710 0.0693 0.0732 0.0763 0.0811 0.0821
1626.136845 0.0861 0.1107 0.1285 0.1464 0.1652
1632.721980 0.1811 0.2000 0.2337 0.2546 0.2687
1639.307115 0.2798 0.2936 0.3132 0.3302 0.3424
1645.892250 0.3552 0.3681 0.3829 0.4115 0.4267
1652.477385 0.4407 0.4537 0.4639 0.4721 0.4800
1659.062520 0.4949 0.5074 0.5158 0.5289 0.5344
1665.647655 0.5392 0.5509 0.5588 0.5723 0.5839
1672.232790 0.5884 0.5954 0.6017 0.6085 0.6131
1678.817925 0.6202 0.6266 0.6303 0.6370 0.6427
1685.403060 0.6462 0.6492 0.6514 0.6549 0.6588
1691.988195 0.6663 0.6774 0.6858 0.6894 0.6920
1698.573330 0.6977 0.7013 0.7053 0.7135 0.7208
1705.158465 0.7243 0.7307 0.7365 0.7429 0.7521
1711.743600 0.7578 0.7602 0.7622 0.7636 0.7646
1718.328735 0.7684 0.7772 0.7859 0.7907 0.7931
1724.913870 0.7983 0.8036 0.8055 0.8075 0.8095
1731.499005 0.8105 0.8130 0.8170 0.8209 0.8244
1738.084140 0.8265 0.8288 0.8315 0.8329 0.8344
1744.669275 0.8363 0.8389 0.8408 0.8437 0.8468
1751.254410 0.8488 0.8500 0.8500 0.8504 0.8510
1757.839545 0.8514 0.8524 0.8530 0.8537 0.8553
1764.424680 0.8563 0.8570 0.8576 0.8590 0.8593
1771.009815 0.8609 0.8633 0.8643 0.8656 0.8670
1777.594950 0.8670 0.8673 0.8680 0.8680 0.8680
1784.180085 0.8682 0.8690 0.8694 0.8710 0.8710
1790.765220 0.8712 0.8720 0.8725 0.8752 0.8763
1797.350355 0.8786 0.8826 0.8865 0.8897 0.8948
1803.935490 0.9003 0.9025 0.9065 0.9101 0.9112
1810.520625 0.9131 0.9141 0.9150 0.9152 0.9170
1817.105760 0.9170 0.9171 0.9180 0.9180 0.9180
1823.690895 0.9180 0.9180 0.9180 0.9180 0.9180
1830.276030 0.9180 0.9180 0.9180 0.9180 0.9180
1836.861165 0.9180 0.9180 0.9180 0.9180 0.9189
1843.446300 0.9190 0.9190 0.9190 0.9190 0.9208
1850.031435 0.9210 0.9210 0.9210 0.9210 0.9219
1856.616570 0.9220 0.9220 0.9220 0.9220 0.9220
1863.201705 0.9220 0.9220 0.9220 0.9220 0.9220
1869.786840 0.9220 0.9212 0.9210 0.9210 0.9195
1876.371975 0.9190 0.9190 0.9190 0.9190 0.9190
1882.957110 0.9190 0.9190 0.9190 0.9190 0.9190
1889.542245 0.9190 0.9190 0.9190 0.9190 0.9190
1896.127380 0.9190 0.9190 0.9203 0.9216 0.9220
1902.712515 0.9220 0.9220 0.9214 0.9216 0.9220
1909.297650 0.9220 0.9226 0.9230 0.9230 0.9230
1915.882785 0.9230 0.9230 0.9230 0.9230 0.9225
1922.467920 0.9215 0.9210 0.9200 0.9190 0.9190
1929.053055 0.9190 0.9190 0.9190 0.9190 0.9190
1935.638190 0.9190 0.9199 0.9210 0.9201 0.9190
1942.223325 0.9190 0.9190 0.9186 0.9184 0.9190
1948.808460 0.9186 0.9176 0.9170 0.9170 0.9170
1955.393595 0.9163 0.9157 0.9170 0.9170 0.9170
1961.978730 0.9170 0.9164 0.9150 0.9150 0.9147
1968.563865 0.9140 0.9140 0.9140 0.9140 0.9140
1975.149000 0.9143 0.9155 0.9170 0.9165 0.9148
1981.734135 0.9140 0.9140 0.9140 0.9140 0.9140
1988.319270 0.9140 0.9140 0.9140 0.9140 0.9142
1994.904405 0.9153 0.9170 0.9171 0.9179 0.9167
2001.489540 0.9149 0.9140 0.9139 0.9130 0.9130
2008.074675 0.9130 0.9130 0.9130 0.9127 0.9110
2014.659810 0.9110 0.9110 0.9110 0.9110 0.9110
2021.244945 0.9109 0.9100 0.9100 0.9100 0.9096
2027.830080 0.9070 0.9069 0.9060 0.9059 0.9050
2034.415215 0.9047 0.9029 0.9019 0.9009 0.9000
2041.000350 0.8997 0.8980 0.8980 0.8980 0.8980
2047.585485 0.8979 0.8970 0.8970 0.8970 0.8969
2054.170620 0.8960 0.8960 0.8957 0.8940 0.8940
2060.755755 0.8939 0.8930 0.8930 0.8929 0.8920
2067.340890 0.8920 0.8920 0.8920 0.8920 0.8920
2073.926025 0.8920 0.8920 0.8920 0.8920 0.8920
2080.511160 0.8917 0.8900 0.8899 0.8890 0.8890
2087.096295 0.8889 0.8877 0.8860 0.8859 0.8850
2093.681430 0.8850 0.8850 0.8850 0.8850 0.8850
2100.266565 0.8849 0.8840 0.8840 0.8840 0.8840
2106.851700 0.8840 0.8837 0.8820 0.8820 0.8819
2113.436835 0.8810 0.8810 0.8809 0.8800 0.8800
2120.021970 0.8797 0.8780 0.8779 0.8770 0.8770
2126.607105 0.8770 0.8770 0.8770 0.8769 0.8760
2133.192240 0.8760 0.8760 0.8760 0.8760 0.8760
2139.777375 0.8760 0.8760 0.8760 0.8761 0.8770
2146.362510 0.8770 0.8770 0.8769 0.8759 0.8750
2152.947645 0.8750 0.8750 0.8750 0.8750 0.8750
2159.532780 0.8750 0.8747 0.8729 0.8720 0.8719
2166.117915 0.8710 0.8710 0.8710 0.8710 0.8710
2172.703050 0.8710 0.8710 0.8710 0.8710 0.8710
2179.288185 0.8707 0.8690 0.8690 0.8690 0.8690
2185.873320 0.8690 0.8689 0.8679 0.8667 0.8650
2192.458455 0.8649 0.8640 0.8640 0.8640 0.8639
2199.043590 0.8627 0.8610 0.8610 0.8610 0.8610
2205.628725 0.8610 0.8610 0.8610 0.8610 0.8610
2212.213860 0.8610 0.8610 0.8610 0.8609 0.8600
2218.798995 0.8599 0.8586 0.8559 0.8550 0.8547
2225.384130 0.8530 0.8530 0.8530 0.8530 0.8530
2231.969265 0.8530 0.8530 0.8529 0.8519 0.8509
2238.554400 0.8500 0.8500 0.8500 0.8500 0.8500
2245.139535 0.8500 0.8500 0.8500 0.8500 0.8500
2251.724670 0.8501 0.8510 0.8510 0.8509 0.8500
2258.309805 0.8500 0.8500 0.8500 0.8500 0.8497
2264.894940 0.8480 0.8479 0.8470 0.8470 0.8469
2271.480075 0.8460 0.8460 0.8460 0.8457 0.8440
2278.065210 0.8440 0.8440 0.8440 0.8440 0.8440
2284.650345 0.8440 0.8440 0.8440 0.8439 0.8429
2291.235480 0.8420 0.8420 0.8420 0.8417 0.8400
2297.820615 0.8400 0.8400 0.8400 0.8399 0.8390
2304.405750 0.8390 0.8389 0.8376 0.8345 0.8306
2310.990885 0.8276 0.8246 0.8219 0.8207 0.8189
2317.576020 0.8179 0.8170 0.8167 0.8149 0.8139
2324.161155 0.8127 0.8109 0.8100 0.8099 0.8090
2330.746290 0.8087 0.8070 0.8069 0.8060 0.8059
2337.331425 0.8047 0.8030 0.8030 0.8030 0.8030
2343.916560 0.8030 0.8029 0.8020 0.8020 0.8020
2350.501695 0.8020 0.8020 0.8020 0.8019 0.8009
2357.086830 0.8000 0.7997 0.7980 0.7979 0.7970
2363.671965 0.7971 0.7980 0.7983 0.8001 0.8011
2370.257100 0.8021 0.8033 0.8051 0.8060 0.8061
2376.842235 0.8070 0.8070 0.8070 0.8070 0.8070
2383.427370 0.8070 0.8070 0.8070 0.8070 0.8070
2390.012505 0.8070 0.8069 0.8060 0.8060 0.8060
2396.597640 0.8060 0.8060 0.8060 0.8060 0.8060
2403.182775 0.8060 0.8060 0.8060 0.8060 0.8059
2409.767910 0.8050 0.8047 0.8030 0.8030 0.8029
2416.353045 0.8020 0.8020 0.8020 0.8020 0.8020
2422.938180 0.8019 0.8009 0.7996 0.7969 0.7957
2429.523315 0.7940 0.7939 0.7929 0.7920 0.7917
2436.108450 0.7900 0.7900 0.7900 0.7899 0.7890
2442.693585 0.7890 0.7889 0.7877 0.7857 0.7836
2449.278720 0.7806 0.7780 0.7779 0.7767 0.7750
2455.863855 0.7747 0.7730 0.7729 0.7720 0.7719
2462.448990 0.7710 0.7707 0.7689 0.7676 0.7650
2469.034125 0.7649 0.7640 0.7639 0.7630 0.7630
2475.619260 0.7627 0.7609 0.7600 0.7599 0.7587
2482.204395 0.7569 0.7560 0.7559 0.7545 0.7506
2488.789530 0.7475 0.7437 0.7415 0.7377 0.7359
2495.374665 0.7349 0.7336 0.7306 0.7279 0.7267
2501.959800 0.7247 0.7229 0.7220 0.7219 0.7210
2508.544935 0.7207 0.7190 0.7189 0.7180 0.7179
2515.130070 0.7170 0.7167 0.7150 0.7150 0.7150
2521.715205 0.7150 0.7150 0.7150 0.7150 0.7150
2528.300340 0.7150 0.7150 0.7150 0.7150 0.7149
2534.885475 0.7140 0.7140 0.7140 0.7139 0.7130
2541.470610 0.7130 0.7130 0.7127 0.7110 0.7110
2548.055745 0.7110 0.7110 0.7109 0.7100 0.7100
2554.640880 0.7099 0.7090 0.7090 0.7090 0.7090
2561.226015 0.7087 0.7070 0.7069 0.7060 0.7059
2567.811150 0.7046 0.7019 0.7009 0.6997 0.6979
2574.396285 0.6969 0.6960 0.6960 0.6957 0.6939
2580.981420 0.6930 0.6929 0.6920 0.6920 0.6920
2587.566555 0.6917 0.6899 0.6890 0.6889 0.6880
2594.151690 0.6880 0.6880 0.6880 0.6877 0.6857
2600.736825 0.6837 0.6819 0.6809 0.6797 0.6780
2607.321960 0.6779 0.6769 0.6760 0.6759 0.6747
2613.907095 0.6729 0.6719 0.6708 0.6685 0.6643
2620.492230 0.6596 0.6567 0.6546 0.6519 0.6510
2627.077365 0.6506 0.6477 0.6455 0.6417 0.6399
2633.662500 0.6389 0.6376 0.6349 0.6337 0.6319
2640.247635 0.6309 0.6297 0.6279 0.6270 0.6269
2646.832770 0.6260 0.6259 0.6250 0.6250 0.6247
2653.417905 0.6230 0.6230 0.6229 0.6220 0.6219
2660.003040 0.6210 0.6210 0.6210 0.6210 0.6210
2666.588175 0.6210 0.6210 0.6207 0.6190 0.6189
2673.173310 0.6180 0.6179 0.6170 0.6167 0.6149
2679.758445 0.6140 0.6140 0.6139 0.6127 0.6109
2686.343580 0.6099 0.6090 0.6087 0.6067 0.6046
2692.928715 0.6019 0.6005 0.5969 0.5955 0.5916
2699.513850 0.5883 0.5835 0.5794 0.5745 0.5705
2706.098985 0.5665 0.5627 0.5607 0.5587 0.5569
2712.684120 0.5556 0.5527 0.5509 0.5495 0.5450
2719.269255 0.5376 0.5349 0.5337 0.5315 0.5277
2725.854390 0.5255 0.5219 0.5206 0.5175 0.5135
2732.439525 0.5099 0.5090 0.5087 0.5069 0.5059
2739.024660 0.5050 0.5047 0.5027 0.5009 0.4995
2745.609795 0.4956 0.4926 0.4899 0.4889 0.4877
2752.194930 0.4850 0.4776 0.4746 0.4715 0.4679
2758.780065 0.4667 0.4649 0.4640 0.4639 0.4630
2765.365200 0.4627 0.4609 0.4600 0.4600 0.4600
2771.950335 0.4600 0.4601 0.4613 0.4633 0.4654
2778.535470 0.4685 0.4724 0.4751 0.4761 0.4774
2785.120605 0.4801 0.4811 0.4825 0.4860 0.4863
2791.705740 0.4880 0.4881 0.4890 0.4890 0.4890
2798.290875 0.4890 0.4889 0.4880 0.4880 0.4877
2804.876010 0.4860 0.4860 0.4860 0.4860 0.4860
2811.461145 0.4860 0.4860 0.4859 0.4849 0.4835
2818.046280 0.4796 0.4769 0.4759 0.4747 0.4727
2824.631415 0.4705 0.4662 0.4605 0.4567 0.4545
2831.216550 0.4505 0.4469 0.4457 0.4439 0.4426
2837.801685 0.4395 0.4352 0.4295 0.4255 0.4216
2844.386820 0.4187 0.4156 0.4055 0.4015 0.3979
2850.971955 0.3965 0.3919 0.3830 0.3756 0.3722
2857.557090 0.3654 0.3538 0.3451 0.3380 0.3300
2864.142225 0.3217 0.3116 0.2999 0.2839 0.2759
2870.727360 0.2750 0.2750 0.2750 0.2751 0.2760
2877.312495 0.2761 0.2771 0.2784 0.2820 0.2895
2883.897630 0.2935 0.2974 0.3008 0.3070 0.3141
2890.482765 0.3155 0.3195 0.3234 0.3266 0.3317
2897.067900 0.3376 0.3486 0.3533 0.3551 0.3560
2903.653035 0.3561 0.3573 0.3590 0.3587 0.3569
2910.238170 0.3560 0.3556 0.3530 0.3529 0.3514
2916.823305 0.3465 0.3429 0.3416 0.3386 0.3355
2923.408440 0.3315 0.3276 0.3245 0.3206 0.3180
2929.993575 0.3179 0.3170 0.3167 0.3150 0.3149
2936.578710 0.3139 0.3125 0.3085 0.3047 0.3027
2943.163845 0.3004 0.2952 0.2889 0.2802 0.2745
2949.748980 0.2706 0.2679 0.2665 0.2625 0.2582
2956.334115 0.2527 0.2509 0.2497 0.2479 0.2470
2962.919250 0.2466 0.2440 0.2439 0.2430 0.2429
2969.504385 0.2420 0.2421 0.2431 0.2445 0.2485
2976.089520 0.2532 0.2626 0.2740 0.2814 0.2843
2982.674655 0.2863 0.2888 0.2951 0.3044 0.3145
2989.259790 0.3184 0.3216 0.3266 0.3319 0.3393
2995.844925 0.3484 0.3513 0.3538 0.3591 0.3600
3002.430060 0.3601 0.3610 0.3613 0.3630 0.3630
3009.015195 0.3630 0.3630 0.3630 0.3627 0.3610
3015.600330 0.3609 0.3600 0.3596 0.3567 0.3550
3022.185465 0.3547 0.3530 0.3529 0.3520 0.3519
3028.770600 0.3509 0.3497 0.3479 0.3466 0.3439
3035.355735 0.3429 0.3417 0.3399 0.3389 0.3376
3041.940870 0.3346 0.3319 0.3309 0.3297 0.3277
3048.526005 0.3259 0.3247 0.3229 0.3219 0.3206
3055.111140 0.3179 0.3167 0.3149 0.3139 0.3127
3061.696275 0.3110 0.3109 0.3100 0.3099 0.3090
3068.281410 0.3090 0.3087 0.3070 0.3070 0.3070
3074.866545 0.3073 0.3087 0.3070 0.3070 0.3069
3081.451680 0.3060 0.3060 0.3059 0.3050 0.3050
3088.036815 0.3047 0.3029 0.3020 0.3019 0.3009
3094.621950 0.2997 0.2979 0.2969 0.2957 0.2939
3101.207085 0.2929 0.2920 0.2918 0.2900 0.2899
3107.792220 0.2890 0.2889 0.2880 0.2880 0.2880
3114.377355 0.2880 0.2880 0.2880 0.2880 0.2880
3120.962490 0.2880 0.2880 0.2880 0.2880 0.2880
3127.547625 0.2880 0.2880 0.2880 0.2880 0.2877
3134.132760 0.2860 0.2860 0.2860 0.2860 0.2860
3140.717895 0.2863 0.2880 0.2880 0.2880 0.2881
3147.303030 0.2890 0.2890 0.2890 0.2890 0.2890
3153.888165 0.2890 0.2890 0.2890 0.2890 0.2890
3160.473300 0.2890 0.2890 0.2891 0.2900 0.2900
3167.058435 0.2903 0.2920 0.2921 0.2930 0.2930
3173.643570 0.2930 0.2930 0.2931 0.2940 0.2940
3180.228705 0.2940 0.2943 0.2960 0.2960 0.2960
3186.813840 0.2961 0.2970 0.2970 0.2970 0.2970
3193.398975 0.2970 0.2970 0.2970 0.2970 0.2970
3199.984110 0.2970 0.2970 0.2970 0.2970 0.2971
3206.569245 0.2980 0.2980 0.2980 0.2983 0.3000
3213.154380 0.3000 0.3001 0.3010 0.3010 0.3010
3219.739515 0.3009 0.3000 0.2997 0.2980 0.2980
3226.324650 0.2979 0.2970 0.2969 0.2960 0.2957
3232.909785 0.2940 0.2940 0.2939 0.2929 0.2917
3239.494920 0.2899 0.2890 0.2889 0.2880 0.2880
3246.080055 0.2877 0.2860 0.2860 0.2860 0.2860
3252.665190 0.2860 0.2860 0.2860 0.2860 0.2860
3259.250325 0.2863 0.2877 0.2860 0.2860 0.2863
3265.835460 0.2880 0.2880 0.2881 0.2890 0.2891
3272.420595 0.2903 0.2921 0.2930 0.2930 0.2931
3279.005730 0.2940 0.2943 0.2963 0.2983 0.3001
3285.590865 0.3010 0.3011 0.3024 0.3056 0.3105
3292.176000 0.3144 0.3170 0.3173 0.3194 0.3221
3298.761135 0.3234 0.3261 0.3271 0.3284 0.3315
3305.346270 0.3355 0.3399 0.3461 0.3471 0.3483
3311.931405 0.3503 0.3525 0.3561 0.3575 0.3614
3318.516540 0.3650 0.3721 0.3734 0.3766 0.3815
3325.101675 0.3854 0.3888 0.3940 0.3944 0.3974
3331.686810 0.4003 0.4021 0.4033 0.4050 0.4051
3338.271945 0.4060 0.4061 0.4070 0.4070 0.4070
3344.857080 0.4069 0.4059 0.4046 0.4020 0.4019
3351.442215 0.4010 0.4010 0.4010 0.4011 0.4020
3358.027350 0.4021 0.4030 0.4034 0.4064 0.4091
3364.612485 0.4101 0.4114 0.4141 0.4153 0.4171
3371.197620 0.4181 0.4193 0.4210 0.4211 0.4220
3377.782755 0.4220 0.4220 0.4219 0.4205 0.4167
3384.367890 0.4149 0.4139 0.4127 0.4109 0.4099
3390.953025 0.4086 0.4056 0.4026 0.3996 0.3966
3397.538160 0.3935 0.3892 0.3835 0.3796 0.3765
3404.123295 0.3727 0.3706 0.3679 0.3666 0.3640
3410.708430 0.3639 0.3630 0.3630 0.3631 0.3641
3417.293565 0.3654 0.3684 0.3711 0.3721 0.3735
3423.878700 0.3775 0.3814 0.3846 0.3900 0.3974
3430.463835 0.4003 0.4025 0.4070 0.4150 0.4228
3437.048970 0.4288 0.4345 0.4390 0.4466 0.4516
3443.634105 0.4564 0.4596 0.4650 0.4728 0.4788
3450.219240 0.4841 0.4856 0.4914 0.5011 0.5021
3456.804375 0.5034 0.5070 0.5154 0.5254 0.5284
3463.389510 0.5310 0.5311 0.5324 0.5354 0.5388
3469.974645 0.5462 0.5624 0.5730 0.5805 0.5848
3476.559780 0.5914 0.6025 0.6138 0.6198 0.6261
3483.144915 0.6348 0.6408 0.6468 0.6526 0.6574
3489.730050 0.6606 0.6658 0.6719 0.6785 0.6828
3496.315185 0.6885 0.6921 0.6931 0.6951 0.7035
3502.900320 0.7074 0.7104 0.7131 0.7141 0.7150
3509.485455 0.7153 0.7170 0.7173 0.7190 0.7193
3516.070590 0.7210 0.7211 0.7220 0.7221 0.7234
3522.655725 0.7263 0.7284 0.7311 0.7323 0.7341
3529.240860 0.7354 0.7383 0.7404 0.7431 0.7440
3535.825995 0.7443 0.7460 0.7461 0.7470 0.7470
3542.411130 0.7474 0.7503 0.7526 0.7570 0.7570
3548.996265 0.7573 0.7591 0.7605 0.7641 0.7653
3555.581400 0.7670 0.7671 0.7681 0.7694 0.7721
3562.166535 0.7735 0.7775 0.7810 0.7811 0.7820
3568.751670 0.7824 0.7850 0.7854 0.7883 0.7908
3575.336805 0.7961 0.7971 0.7980 0.7983 0.8000
3581.921940 0.8001 0.8010 0.8011 0.8024 0.8053
3588.507075 0.8073 0.8091 0.8100 0.8101 0.8113
3595.092210 0.8131 0.8141 0.8153 0.8171 0.8181
3601.677345 0.8193 0.8211 0.8221 0.8233 0.8251
3608.262480 0.8263 0.8283 0.8300 0.8301 0.8310
3614.847615 0.8314 0.8341 0.8354 0.8381 0.8394
3621.432750 0.8423 0.8444 0.8474 0.8501 0.8510
3628.017885 0.8510 0.8511 0.8521 0.8530 0.8533
3634.603020 0.8550 0.8551 0.8560 0.8561 0.8570
3641.188155 0.8573 0.8590 0.8590 0.8590 0.8590
3647.773290 0.8590 0.8590 0.8590 0.8590 0.8590
3654.358425 0.8590 0.8590 0.8590 0.8590 0.8590
3660.943560 0.8590 0.8590 0.8590 0.8590 0.8587
3667.528695 0.8570 0.8570 0.8569 0.8559 0.8550
3674.113830 0.8550 0.8550 0.8550 0.8550 0.8547
3680.698965 0.8529 0.8520 0.8520 0.8521 0.8530
3687.284100 0.8533 0.8551 0.8561 0.8570 0.8570
3693.869235 0.8573 0.8590 0.8590 0.8590 0.8590
3700.454370 0.8590 0.8590 0.8590 0.8590 0.8590
3707.039505 0.8590 0.8590 0.8590 0.8590 0.8587
3713.624640 0.8570 0.8570 0.8570 0.8569 0.8560
3720.209775 0.8560 0.8560 0.8559 0.8550 0.8547
3726.794910 0.8530 0.8529 0.8519 0.8510 0.8509
3733.380045 0.8500 0.8500 0.8500 0.8500 0.8500
3739.965180 0.8500 0.8500 0.8500 0.8500 0.8497
3746.550315 0.8480 0.8480 0.8480 0.8479 0.8470
3753.135450 0.8470 0.8470 0.8471 0.8480 0.8483
3759.720585 0.8501 0.8511 0.8520 0.8520 0.8520
3766.305720 0.8520 0.8519 0.8510 0.8510 0.8509
3772.890855 0.8500 0.8500 0.8500 0.8497 0.8480
3779.475990 0.8480 0.8479 0.8470 0.8470 0.8470
3786.061125 0.8470 0.8470 0.8470 0.8470 0.8470
3792.646260 0.8470 0.8470 0.8470 0.8470 0.8469
3799.231395 0.8460 0.8457 0.8440 0.8439 0.8430
3805.816530 0.8429 0.8417 0.8399 0.8386 0.8359
3812.401665 0.8349 0.8337 0.8320 0.8319 0.8310
3818.986800 0.8310 0.8309 0.8300 0.8297 0.8280
3825.571935 0.8280 0.8280 0.8280 0.8280 0.8283
3832.157070 0.8300 0.8300 0.8300 0.8300 0.8300
3838.742205 0.8300 0.8300 0.8300 0.8300 0.8300
3845.327340 0.8297 0.8280 0.8279 0.8270 0.8270
3851.912475 0.8270 0.8270 0.8270 0.8271 0.8280
3858.497610 0.8283 0.8300 0.8300 0.8301 0.8309
3865.082745 0.8300 0.8300 0.8297 0.8280 0.8280
3871.667880 0.8280 0.8283 0.8300 0.8300 0.8300
3878.253015 0.8300 0.8300 0.8300 0.8300 0.8297
3884.838150 0.8280 0.8280 0.8280 0.8280 0.8280
3891.423285 0.8280 0.8280 0.8280 0.8280 0.8280
3898.008420 0.8280 0.8280 0.8280 0.8280 0.8280
3904.593555 0.8283 0.8300 0.8297 0.8280 0.8280
3911.178690 0.8280 0.8283 0.8300 0.8300 0.8297
3917.763825 0.8279 0.8271 0.8280 0.8280 0.8280
3924.348960 0.8279 0.8270 0.8271 0.8280 0.8280
3930.934095 0.8280 0.8279 0.8270 0.8270 0.8270
3937.519230 0.8270 0.8270 0.8270 0.8270 0.8270
3944.104365 0.8270 0.8270 0.8270 0.8270 0.8270
3950.689500 0.8270 0.8270 0.8270 0.8270 0.8270
3957.274635 0.8271 0.8283 0.8300 0.8300 0.8300
3963.859770 0.8297 0.8280 0.8279 0.8270 0.8271
3970.444905 0.8280 0.8280 0.8280 0.8283 0.8297
3977.030040 0.8283 0.8300 0.8301 0.8310 0.8309
3983.615175 0.8297 0.8280 0.8280 0.8280 0.8280
3990.200310 0.8280 0.8280 0.8279 0.8271 0.8280
3996.785445 0.8280 0.8280 0.8280 0.8280 0.8279
4003.370580 0.8270 0.8269 0.8260 0.8260 0.8260
4009.955715 0.8260 0.8260 0.8261 0.8269 0.8260
4016.540850 0.8260 0.8260 0.8260 0.8260
##END=
