##TITLE=SODIUM PROPIONATE
##JCAMP-DX=4.24
##DATA TYPE=INFRARED SPECTRUM
##CLASS=COBLENTZ III
##ORIGIN=DOW CHEMICAL COMPANY
##OWNER=COBLENTZ SOCIETY
Collection (C) 2018 copyright by the U.S. Secretary of Commerce
on behalf of the United States of America. All rights reserved.
##DATE=1964/04/07
##NAMES=PROPANOIC ACID, SODIUM SALT
##MOLFORM=C3 H5 O2 Na
##SOURCE REFERENCE=COBLENTZ NO. 10184
##$NIST ID=B6010184
##$NIST SOURCE=COBLENTZ
##$NIST IMAGE=cob10184
##SPECTROMETER/DATA SYSTEM=DOW KBr FOREPRISM-GRATING
##INSTRUMENT PARAMETERS=BLAZED AT 3.5, 12.0, 20.0 MICRON, CHANGED AT 5.0, 7.5, 14.9 MICRON
##STATE=SOLID (SPLIT MULL, FLUOROLUBE FOR 3800-1333 AND NUJOL FOR 1333-400 CM ^-^1)
##SAMPLING PROCEDURE=TRANSMISSION
##RESOLUTION=4
##DATA PROCESSING=DIGITIZED BY NIST FROM HARD COPY (FROM TWO SEGMENTS)
##XUNITS=1/CM
##YUNITS=TRANSMITTANCE
##XFACTOR=1.000000
##YFACTOR=1
##DELTAX=0.852274
##FIRSTX=383.239
##LASTX=3788.07
##FIRSTY=0.602
##MAXX=3788.07
##MINX=383.239
##MAXY=0.998
##MINY=0.033
##NPOINTS=3996
##XYDATA=(X++(Y..Y))
383.239000 0.6020 0.6040 0.6040 0.6050 0.6050
387.500371 0.6010 0.6010 0.6000 0.6000 0.6000
391.761741 0.6010 0.6020 0.6050 0.6060 0.6060
396.023112 0.6080 0.6080 0.6090 0.6090 0.6100
400.284483 0.6120 0.6130 0.6140 0.6160 0.6170
404.545854 0.6180 0.6220 0.6220 0.6240 0.6240
408.807224 0.6250 0.6250 0.6250 0.6270 0.6270
413.068595 0.6280 0.6280 0.6290 0.6290 0.6320
417.329966 0.6330 0.6330 0.6330 0.6350 0.6350
421.591337 0.6360 0.6370 0.6390 0.6400 0.6410
425.852707 0.6410 0.6410 0.6410 0.6430 0.6430
430.114078 0.6440 0.6450 0.6470 0.6470 0.6480
434.375449 0.6490 0.6490 0.6520 0.6530 0.6550
438.636820 0.6550 0.6560 0.6560 0.6570 0.6570
442.898190 0.6590 0.6590 0.6590 0.6590 0.6600
447.159561 0.6600 0.6610 0.6630 0.6640 0.6640
451.420932 0.6640 0.6630 0.6630 0.6630 0.6610
455.682302 0.6610 0.6610 0.6610 0.6610 0.6630
459.943673 0.6630 0.6630 0.6640 0.6640 0.6640
464.205044 0.6650 0.6670 0.6680 0.6680 0.6690
468.466415 0.6710 0.6720 0.6730 0.6730 0.6730
472.727785 0.6750 0.6750 0.6760 0.6760 0.6770
476.989156 0.6770 0.6770 0.6790 0.6790 0.6790
481.250527 0.6800 0.6800 0.6810 0.6810 0.6830
485.511898 0.6830 0.6840 0.6840 0.6840 0.6840
489.773268 0.6840 0.6830 0.6830 0.6800 0.6770
494.034639 0.6760 0.6750 0.6690 0.6640 0.6590
498.296010 0.6550 0.6530 0.6450 0.6291 0.6101
502.557380 0.5890 0.5690 0.5500 0.5380 0.5260
506.818751 0.4871 0.4780 0.4780 0.4820 0.5009
511.080122 0.5620 0.5850 0.6050 0.6210 0.6350
515.341493 0.6450 0.6530 0.6600 0.6640 0.6680
519.602863 0.6720 0.6760 0.6800 0.6840 0.6890
523.864234 0.6910 0.6950 0.6960 0.7000 0.7010
528.125605 0.7030 0.7040 0.7080 0.7090 0.7110
532.386976 0.7110 0.7120 0.7130 0.7130 0.7150
536.648346 0.7160 0.7160 0.7170 0.7190 0.7190
540.909717 0.7200 0.7200 0.7210 0.7210 0.7210
545.171088 0.7210 0.7230 0.7230 0.7230 0.7230
549.432459 0.7230 0.7240 0.7240 0.7240 0.7240
553.693829 0.7240 0.7240 0.7240 0.7240 0.7240
557.955200 0.7240 0.7240 0.7240 0.7230 0.7230
562.216571 0.7230 0.7200 0.7200 0.7190 0.7170
566.477941 0.7170 0.7160 0.7150 0.7130 0.7120
570.739312 0.7110 0.7090 0.7080 0.7070 0.7050
575.000683 0.7030 0.7030 0.7010 0.7000 0.6990
579.262054 0.6970 0.6970 0.6960 0.6960 0.6970
583.523424 0.6970 0.6990 0.7000 0.7010 0.7030
587.784795 0.7040 0.7070 0.7090 0.7120 0.7130
592.046166 0.7130 0.7160 0.7160 0.7170 0.7190
596.307537 0.7200 0.7210 0.7240 0.7250 0.7270
600.568907 0.7270 0.7270 0.7280 0.7280 0.7280
604.830278 0.7290 0.7290 0.7310 0.7320 0.7320
609.091649 0.7330 0.7330 0.7330 0.7330 0.7320
613.353020 0.7320 0.7320 0.7320 0.7320 0.7320
617.614390 0.7320 0.7310 0.7310 0.7310 0.7290
621.875761 0.7290 0.7280 0.7280 0.7270 0.7270
626.137132 0.7250 0.7250 0.7240 0.7240 0.7230
630.398502 0.7200 0.7130 0.7110 0.7090 0.7050
634.659873 0.7040 0.6960 0.6920 0.6850 0.6810
638.921244 0.6720 0.6610 0.6490 0.6390 0.6290
643.182615 0.6210 0.6170 0.6170 0.6200 0.6280
647.443985 0.6320 0.6390 0.6490 0.6590 0.6680
651.705356 0.6760 0.6830 0.6880 0.6930 0.6990
655.966727 0.7030 0.7070 0.7090 0.7120 0.7150
660.228098 0.7160 0.7190 0.7190 0.7200 0.7210
664.489468 0.7210 0.7210 0.7210 0.7230 0.7230
668.750839 0.7240 0.7240 0.7250 0.7270 0.7270
673.012210 0.7280 0.7280 0.7290 0.7290 0.7290
677.273580 0.7290 0.7310 0.7310 0.7310 0.7320
681.534951 0.7320 0.7320 0.7320 0.7320 0.7320
685.796322 0.7310 0.7310 0.7310 0.7310 0.7320
690.057693 0.7320 0.7320 0.7310 0.7310 0.7290
694.319063 0.7290 0.7290 0.7280 0.7280 0.7280
698.580434 0.7270 0.7270 0.7270 0.7250 0.7250
702.841805 0.7240 0.7240 0.7230 0.7230 0.7230
707.103176 0.7210 0.7200 0.7190 0.7170 0.7160
711.364546 0.7150 0.7110 0.7090 0.7080 0.7070
715.625917 0.7050 0.6960 0.6920 0.6910 0.6870
719.887288 0.6770 0.6720 0.6680 0.6670 0.6680
724.148659 0.6710 0.6730 0.6790 0.6830 0.6870
728.410029 0.6890 0.6920 0.6930 0.6960 0.6970
732.671400 0.6990 0.6990 0.7000 0.7030 0.7040
736.932771 0.7050 0.7050 0.7070 0.7080 0.7090
741.194141 0.7110 0.7110 0.7120 0.7120 0.7130
745.455512 0.7130 0.7150 0.7160 0.7170 0.7190
749.716883 0.7190 0.7200 0.7200 0.7200 0.7210
753.978254 0.7210 0.7230 0.7230 0.7230 0.7230
758.239624 0.7230 0.7240 0.7240 0.7250 0.7250
762.500995 0.7240 0.7240 0.7240 0.7240 0.7240
766.762366 0.7240 0.7250 0.7250 0.7240 0.7240
771.023737 0.7240 0.7240 0.7230 0.7230 0.7230
775.285107 0.7210 0.7200 0.7200 0.7190 0.7190
779.546478 0.7190 0.7200 0.7210 0.7210 0.7210
783.807849 0.7230 0.7230 0.7230 0.7230 0.7230
788.069220 0.7230 0.7230 0.7210 0.7200 0.7200
792.330590 0.7190 0.7170 0.7170 0.7150 0.7120
796.591961 0.7110 0.7090 0.7090 0.7080 0.7040
800.853332 0.7000 0.6970 0.6950 0.6920 0.6890
805.114702 0.6830 0.6760 0.6720 0.6640 0.6550
809.376073 0.6370 0.6080 0.5780 0.5640 0.5490
813.637444 0.5140 0.4711 0.4151 0.4070 0.4070
817.898815 0.4151 0.4740 0.5210 0.5620 0.5880
822.160185 0.6239 0.6320 0.6470 0.6600 0.6680
826.421556 0.6750 0.6810 0.6850 0.6880 0.6930
830.682927 0.6970 0.7010 0.7050 0.7070 0.7070
834.944298 0.7080 0.7090 0.7120 0.7130 0.7150
839.205668 0.7160 0.7160 0.7170 0.7170 0.7190
843.467039 0.7190 0.7200 0.7200 0.7210 0.7210
847.728410 0.7230 0.7240 0.7240 0.7250 0.7250
851.989780 0.7270 0.7270 0.7270 0.7270 0.7270
856.251151 0.7270 0.7270 0.7270 0.7270 0.7270
860.512522 0.7250 0.7240 0.7240 0.7240 0.7240
864.773893 0.7230 0.7230 0.7210 0.7190 0.7190
869.035263 0.7170 0.7130 0.7090 0.7080 0.7040
873.296634 0.6990 0.6890 0.6670 0.6490 0.6281
877.558005 0.6180 0.5800 0.5410 0.4610 0.3811
881.819376 0.3810 0.5517 0.6428 0.6609 0.6769
886.080746 0.6930 0.7000 0.7050 0.7050 0.7090
890.342117 0.7130 0.7150 0.7160 0.7170 0.7170
894.603488 0.7190 0.7190 0.7200 0.7210 0.7210
898.864859 0.7230 0.7230 0.7250 0.7250 0.7240
903.126229 0.7240 0.7250 0.7250 0.7240 0.7240
907.387600 0.7240 0.7230 0.7230 0.7230 0.7240
911.648971 0.7240 0.7240 0.7230 0.7230 0.7230
915.910341 0.7210 0.7210 0.7210 0.7210 0.7210
920.171712 0.7210 0.7200 0.7200 0.7200 0.7200
924.433083 0.7200 0.7200 0.7200 0.7190 0.7190
928.694454 0.7170 0.7170 0.7160 0.7160 0.7160
932.955824 0.7160 0.7150 0.7150 0.7150 0.7150
937.217195 0.7130 0.7130 0.7130 0.7130 0.7130
941.478566 0.7130 0.7130 0.7130 0.7130 0.7130
945.739937 0.7130 0.7120 0.7120 0.7120 0.7110
950.001307 0.7110 0.7090 0.7080 0.7080 0.7080
954.262678 0.7070 0.7070 0.7070 0.7070 0.7070
958.524049 0.7070 0.7070 0.7070 0.7050 0.7050
962.785420 0.7050 0.7030 0.7030 0.7010 0.7010
967.046790 0.7010 0.7010 0.7000 0.7000 0.7000
971.308161 0.7000 0.7010 0.7010 0.7010 0.7010
975.569532 0.7030 0.7040 0.7040 0.7050 0.7050
979.830902 0.7050 0.7040 0.7030 0.7000 0.7000
984.092273 0.6990 0.6990 0.6970 0.6960 0.6960
988.353644 0.6950 0.6920 0.6910 0.6880 0.6850
992.615015 0.6810 0.6790 0.6730 0.6630 0.6520
996.876385 0.6430 0.6310 0.6200 0.6050 0.5690
1001.137756 0.5600 0.5600 0.5820 0.6219 0.6409
1005.399127 0.6560 0.6640 0.6710 0.6730 0.6790
1009.660498 0.6840 0.6890 0.6920 0.6930 0.6930
1013.921868 0.6950 0.6960 0.6960 0.6970 0.6970
1018.183239 0.6970 0.6970 0.6990 0.6990 0.6990
1022.444610 0.6970 0.6970 0.6960 0.6960 0.6960
1026.705980 0.6960 0.6960 0.6960 0.6960 0.6960
1030.967351 0.6950 0.6950 0.6930 0.6930 0.6920
1035.228722 0.6920 0.6920 0.6910 0.6910 0.6910
1039.490093 0.6890 0.6890 0.6880 0.6880 0.6880
1043.751463 0.6880 0.6870 0.6870 0.6870 0.6850
1048.012834 0.6850 0.6850 0.6840 0.6830 0.6810
1052.274205 0.6800 0.6800 0.6790 0.6770 0.6760
1056.535576 0.6750 0.6730 0.6710 0.6710 0.6690
1060.796946 0.6650 0.6630 0.6610 0.6610 0.6590
1065.058317 0.6570 0.6520 0.6480 0.6470 0.6430
1069.319688 0.6240 0.6090 0.5811 0.5601 0.5480
1073.581059 0.5339 0.4890 0.4390 0.4390 0.5659
1077.842429 0.5680 0.5900 0.6100 0.6289 0.6350
1082.103800 0.6430 0.6440 0.6440 0.6450 0.6470
1086.365171 0.6490 0.6520 0.6550 0.6560 0.6570
1090.626541 0.6590 0.6590 0.6590 0.6590 0.6600
1094.887912 0.6600 0.6600 0.6610 0.6610 0.6630
1099.149283 0.6630 0.6640 0.6650 0.6670 0.6670
1103.410654 0.6670 0.6670 0.6670 0.6670 0.6670
1107.672024 0.6680 0.6680 0.6690 0.6710 0.6710
1111.933395 0.6690 0.6690 0.6690 0.6690 0.6690
1116.194766 0.6690 0.6690 0.6690 0.6710 0.6720
1120.456137 0.6720 0.6720 0.6730 0.6730 0.6730
1124.717507 0.6720 0.6720 0.6720 0.6720 0.6720
1128.978878 0.6720 0.6750 0.6750 0.6730 0.6730
1133.240249 0.6730 0.6730 0.6730 0.6750 0.6750
1137.501620 0.6750 0.6750 0.6750 0.6750 0.6730
1141.762990 0.6730 0.6730 0.6720 0.6720 0.6710
1146.024361 0.6710 0.6710 0.6710 0.6690 0.6680
1150.285732 0.6690 0.6690 0.6690 0.6690 0.6690
1154.547102 0.6690 0.6690 0.6690 0.6680 0.6680
1158.808473 0.6670 0.6680 0.6680 0.6680 0.6680
1163.069844 0.6680 0.6680 0.6670 0.6670 0.6650
1167.331215 0.6670 0.6670 0.6670 0.6680 0.6690
1171.592585 0.6720 0.6730 0.6730 0.6730 0.6730
1175.853956 0.6730 0.6720 0.6720 0.6720 0.6730
1180.115327 0.6730 0.6730 0.6730 0.6720 0.6720
1184.376698 0.6730 0.6730 0.6730 0.6730 0.6730
1188.638068 0.6730 0.6730 0.6750 0.6730 0.6720
1192.899439 0.6720 0.6720 0.6730 0.6730 0.6730
1197.160810 0.6730 0.6710 0.6710 0.6710 0.6710
1201.422180 0.6710 0.6710 0.6710 0.6710 0.6710
1205.683551 0.6720 0.6720 0.6720 0.6720 0.6730
1209.944922 0.6750 0.6730 0.6750 0.6750 0.6750
1214.206293 0.6750 0.6750 0.6760 0.6760 0.6760
1218.467663 0.6760 0.6760 0.6760 0.6760 0.6750
1222.729034 0.6750 0.6750 0.6750 0.6750 0.6730
1226.990405 0.6730 0.6750 0.6750 0.6730 0.6730
1231.251776 0.6730 0.6730 0.6730 0.6730 0.6730
1235.513146 0.6710 0.6710 0.6710 0.6710 0.6710
1239.774517 0.6730 0.6730 0.6730 0.6690 0.6650
1244.035888 0.6640 0.6610 0.6590 0.6550 0.6520
1248.297259 0.6510 0.6520 0.6560 0.6600 0.6610
1252.558629 0.6610 0.6630 0.6630 0.6630 0.6630
1256.820000 0.6630 0.6610 0.6610 0.6600 0.6600
1261.081371 0.6590 0.6590 0.6570 0.6570 0.6530
1265.342741 0.6520 0.6510 0.6490 0.6490 0.6470
1269.604112 0.6450 0.6440 0.6430 0.6400 0.6390
1273.865483 0.6360 0.6330 0.6310 0.6290 0.6280
1278.126854 0.6220 0.6170 0.6130 0.6040 0.5940
1282.388224 0.5850 0.5770 0.5660 0.5600 0.5520
1286.649595 0.5420 0.5320 0.5170 0.5050 0.4870
1290.910966 0.4650 0.4420 0.4210 0.3981 0.3791
1295.172337 0.3600 0.3460 0.3460 0.3500 0.3600
1299.433707 0.3720 0.3870 0.4169 0.4549 0.4949
1303.695078 0.5571 0.5840 0.6010 0.6130 0.6180
1307.956449 0.6270 0.6310 0.6330 0.6430 0.6470
1312.217820 0.6480 0.6510 0.6520 0.6550 0.6550
1316.479190 0.6570 0.6570 0.6570 0.6570 0.6590
1320.740561 0.6590 0.6570 0.6560 0.6550 0.6550
1325.001932 0.6530 0.6530 0.6520 0.6520 0.6520
1329.263302 0.6520 0.6520 0.6510 0.6490 0.6480
1333.524673 0.6480 0.6470 0.6470 0.6450 0.6440
1337.786044 0.6430 0.6410 0.6370 0.6320 0.6290
1342.047415 0.6270 0.6240 0.6160 0.6140 0.6130
1346.308785 0.6140 0.6160 0.6170 0.6200 0.6240
1350.570156 0.6250 0.6270 0.6280 0.6280 0.6290
1354.831527 0.6310 0.6310 0.6290 0.6290 0.6270
1359.092898 0.6210 0.6170 0.6100 0.5861 0.5700
1363.354268 0.5560 0.5520 0.5460 0.5200 0.5000
1367.615639 0.4780 0.4450 0.3941 0.2512 0.2001
1371.877010 0.2002 0.3030 0.3081 0.3791 0.4570
1376.138380 0.4750 0.4750 0.4450 0.4340 0.4340
1380.399751 0.4510 0.4692 0.6010 0.6090 0.6100
1384.661122 0.6130 0.6130 0.6130 0.6130 0.6100
1388.922493 0.6100 0.6060 0.5980 0.5940 0.5920
1393.183863 0.5890 0.5810 0.5650 0.5540 0.5500
1397.445234 0.5460 0.5400 0.5340 0.5290 0.5220
1401.706605 0.5140 0.5090 0.5020 0.5000 0.4930
1405.967976 0.4900 0.4860 0.4780 0.4700 0.4670
1410.229346 0.4610 0.4410 0.4250 0.4100 0.3980
1414.490717 0.3829 0.3500 0.3180 0.2720 0.2390
1418.752088 0.2360 0.2430 0.2480 0.2819 0.3069
1423.013459 0.3080 0.3060 0.2870 0.2700 0.2520
1427.274829 0.2360 0.2230 0.2090 0.1960 0.1800
1431.536200 0.1770 0.1770 0.1880 0.1990 0.2170
1435.797571 0.2320 0.2560 0.3099 0.3350 0.3589
1440.058941 0.3931 0.4550 0.4690 0.4860 0.4870
1444.320312 0.4860 0.4810 0.4690 0.4550 0.4540
1448.581683 0.4550 0.4660 0.4850 0.5100 0.5250
1452.843054 0.5250 0.5240 0.5220 0.5220 0.5180
1457.104424 0.5060 0.4889 0.4670 0.4460 0.4170
1461.365795 0.3910 0.3580 0.3420 0.3140 0.2801
1465.627166 0.2680 0.2660 0.2720 0.2830 0.2980
1469.888537 0.3180 0.3390 0.3620 0.3870 0.4139
1474.149907 0.4390 0.4512 0.5640 0.5890 0.6040
1478.411278 0.6120 0.6170 0.6210 0.6310 0.6320
1482.672649 0.6330 0.6370 0.6400 0.6430 0.6430
1486.934020 0.6430 0.6410 0.6400 0.6390 0.6350
1491.195390 0.6320 0.6310 0.6290 0.6280 0.6210
1495.456761 0.6170 0.6160 0.6130 0.6060 0.6040
1499.718132 0.5980 0.5890 0.5810 0.5760 0.5760
1503.979502 0.5680 0.5610 0.5500 0.5490 0.5480
1508.240873 0.5380 0.5340 0.5290 0.5220 0.5100
1512.502244 0.4950 0.4900 0.4820 0.4770 0.4700
1516.763615 0.4650 0.4550 0.4460 0.4390 0.4330
1521.024985 0.4250 0.4170 0.4090 0.4050 0.4010
1525.286356 0.3970 0.3870 0.3810 0.3750 0.3700
1529.547727 0.3640 0.3510 0.3320 0.3220 0.3160
1533.809098 0.3140 0.3070 0.3020 0.2990 0.2920
1538.070468 0.2880 0.2830 0.2790 0.2640 0.2440
1542.331839 0.2400 0.2270 0.2170 0.2030 0.1990
1546.593210 0.1880 0.1690 0.1570 0.1490 0.1410
1550.854581 0.1280 0.1160 0.1040 0.0970 0.0890
1555.115951 0.0780 0.0740 0.0660 0.0580 0.0490
1559.377322 0.0440 0.0400 0.0370 0.0340 0.0330
1563.638693 0.0330 0.0340 0.0340 0.0360 0.0370
1567.900063 0.0370 0.0370 0.0380 0.0400 0.0450
1572.161434 0.0490 0.0490 0.0500 0.0530 0.0610
1576.422805 0.0640 0.0780 0.0880 0.1020 0.1100
1580.684176 0.1220 0.1360 0.1510 0.1610 0.1730
1584.945546 0.1880 0.1990 0.2110 0.2200 0.2320
1589.206917 0.2480 0.2680 0.2880 0.3060 0.3200
1593.468288 0.3340 0.3430 0.3580 0.3670 0.3850
1597.729659 0.3980 0.4060 0.4220 0.4410 0.4590
1601.991029 0.4710 0.4820 0.4910 0.5020 0.5130
1606.252400 0.5260 0.5360 0.5600 0.5680 0.5760
1610.513771 0.5880 0.5960 0.6020 0.6090 0.6170
1614.775141 0.6290 0.6320 0.6360 0.6440 0.6470
1619.036512 0.6490 0.6560 0.6640 0.6730 0.6760
1623.297883 0.6800 0.6850 0.6910 0.6950 0.7000
1627.559254 0.7070 0.7080 0.7090 0.7160 0.7240
1631.820624 0.7290 0.7370 0.7400 0.7430 0.7470
1636.081995 0.7500 0.7560 0.7590 0.7630 0.7670
1640.343366 0.7750 0.7760 0.7820 0.7860 0.7880
1644.604737 0.7920 0.7940 0.7960 0.7980 0.8030
1648.866107 0.8060 0.8100 0.8120 0.8180 0.8220
1653.127478 0.8230 0.8260 0.8310 0.8320 0.8340
1657.388849 0.8360 0.8400 0.8430 0.8460 0.8500
1661.650220 0.8510 0.8520 0.8540 0.8580 0.8600
1665.911590 0.8630 0.8660 0.8670 0.8700 0.8720
1670.172961 0.8750 0.8750 0.8780 0.8810 0.8820
1674.434332 0.8820 0.8850 0.8860 0.8870 0.8900
1678.695702 0.8900 0.8910 0.8910 0.8930 0.8940
1682.957073 0.8940 0.8950 0.8970 0.8970 0.8970
1687.218444 0.8980 0.8980 0.8980 0.8990 0.8990
1691.479815 0.8980 0.8980 0.8990 0.8990 0.9020
1695.741185 0.9030 0.9030 0.9050 0.9070 0.9090
1700.002556 0.9100 0.9110 0.9110 0.9130 0.9140
1704.263927 0.9170 0.9180 0.9210 0.9230 0.9250
1708.525298 0.9260 0.9290 0.9310 0.9330 0.9350
1712.786668 0.9350 0.9380 0.9390 0.9390 0.9410
1717.048039 0.9420 0.9450 0.9460 0.9470 0.9500
1721.309410 0.9510 0.9530 0.9540 0.9550 0.9550
1725.570781 0.9550 0.9570 0.9570 0.9580 0.9580
1729.832151 0.9590 0.9610 0.9620 0.9650 0.9650
1734.093522 0.9660 0.9670 0.9670 0.9690 0.9690
1738.354893 0.9690 0.9690 0.9690 0.9700 0.9710
1742.616263 0.9710 0.9710 0.9710 0.9710 0.9710
1746.877634 0.9710 0.9710 0.9740 0.9750 0.9770
1751.139005 0.9780 0.9780 0.9780 0.9790 0.9790
1755.400376 0.9810 0.9810 0.9810 0.9810 0.9820
1759.661746 0.9820 0.9820 0.9810 0.9810 0.9790
1763.923117 0.9810 0.9820 0.9820 0.9850 0.9850
1768.184488 0.9830 0.9830 0.9830 0.9830 0.9830
1772.445859 0.9850 0.9850 0.9860 0.9860 0.9870
1776.707229 0.9860 0.9850 0.9850 0.9850 0.9850
1780.968600 0.9850 0.9850 0.9850 0.9850 0.9850
1785.229971 0.9850 0.9860 0.9860 0.9860 0.9860
1789.491341 0.9860 0.9860 0.9870 0.9870 0.9870
1793.752712 0.9870 0.9860 0.9860 0.9860 0.9860
1798.014083 0.9860 0.9860 0.9850 0.9850 0.9850
1802.275454 0.9850 0.9860 0.9860 0.9870 0.9870
1806.536824 0.9870 0.9890 0.9890 0.9900 0.9900
1810.798195 0.9900 0.9900 0.9900 0.9900 0.9900
1815.059566 0.9900 0.9900 0.9910 0.9930 0.9930
1819.320937 0.9940 0.9940 0.9940 0.9940 0.9940
1823.582307 0.9940 0.9940 0.9940 0.9940 0.9930
1827.843678 0.9930 0.9930 0.9930 0.9930 0.9930
1832.105049 0.9940 0.9940 0.9940 0.9940 0.9940
1836.366420 0.9930 0.9930 0.9930 0.9930 0.9930
1840.627790 0.9910 0.9910 0.9910 0.9930 0.9930
1844.889161 0.9940 0.9940 0.9940 0.9940 0.9940
1849.150532 0.9940 0.9940 0.9930 0.9910 0.9900
1853.411902 0.9900 0.9910 0.9910 0.9910 0.9910
1857.673273 0.9910 0.9910 0.9910 0.9910 0.9910
1861.934644 0.9910 0.9910 0.9910 0.9910 0.9910
1866.196015 0.9910 0.9910 0.9910 0.9910 0.9910
1870.457385 0.9910 0.9910 0.9910 0.9910 0.9910
1874.718756 0.9900 0.9890 0.9890 0.9900 0.9900
1878.980127 0.9900 0.9900 0.9890 0.9900 0.9900
1883.241498 0.9900 0.9910 0.9930 0.9930 0.9940
1887.502868 0.9940 0.9940 0.9940 0.9940 0.9930
1891.764239 0.9930 0.9940 0.9950 0.9970 0.9980
1896.025610 0.9980 0.9970 0.9970 0.9970 0.9970
1900.286981 0.9970 0.9970 0.9970 0.9970 0.9970
1904.548351 0.9970 0.9970 0.9970 0.9950 0.9950
1908.809722 0.9940 0.9940 0.9950 0.9970 0.9980
1913.071093 0.9980 0.9980 0.9950 0.9940 0.9940
1917.332463 0.9950 0.9970 0.9970 0.9980 0.9970
1921.593834 0.9940 0.9940 0.9950 0.9970 0.9980
1925.855205 0.9970 0.9980 0.9980 0.9980 0.9980
1930.116576 0.9980 0.9980 0.9980 0.9970 0.9970
1934.377946 0.9970 0.9970 0.9950 0.9950 0.9940
1938.639317 0.9940 0.9940 0.9940 0.9950 0.9940
1942.900688 0.9940 0.9940 0.9940 0.9930 0.9930
1947.162059 0.9910 0.9910 0.9930 0.9930 0.9940
1951.423429 0.9940 0.9940 0.9940 0.9940 0.9940
1955.684800 0.9940 0.9940 0.9930 0.9930 0.9930
1959.946171 0.9910 0.9900 0.9890 0.9890 0.9890
1964.207541 0.9890 0.9890 0.9900 0.9900 0.9900
1968.468912 0.9900 0.9900 0.9890 0.9890 0.9890
1972.730283 0.9890 0.9890 0.9890 0.9890 0.9870
1976.991654 0.9870 0.9860 0.9860 0.9860 0.9860
1981.253024 0.9860 0.9860 0.9860 0.9850 0.9830
1985.514395 0.9820 0.9820 0.9810 0.9810 0.9810
1989.775766 0.9790 0.9790 0.9790 0.9780 0.9770
1994.037137 0.9770 0.9770 0.9770 0.9770 0.9770
1998.298507 0.9770 0.9770 0.9770 0.9770 0.9770
2002.559878 0.9770 0.9770 0.9770 0.9770 0.9760
2006.821249 0.9750 0.9750 0.9750 0.9750 0.9750
2011.082620 0.9750 0.9750 0.9750 0.9750 0.9750
2015.343990 0.9750 0.9750 0.9750 0.9750 0.9750
2019.605361 0.9750 0.9750 0.9750 0.9750 0.9750
2023.866732 0.9750 0.9750 0.9750 0.9750 0.9750
2028.128102 0.9750 0.9750 0.9745 0.9740 0.9740
2032.389473 0.9740 0.9740 0.9740 0.9740 0.9740
2036.650844 0.9740 0.9740 0.9740 0.9740 0.9735
2040.912215 0.9730 0.9730 0.9730 0.9730 0.9730
2045.173585 0.9720 0.9710 0.9710 0.9710 0.9710
2049.434956 0.9710 0.9710 0.9710 0.9710 0.9710
2053.696327 0.9710 0.9710 0.9705 0.9700 0.9700
2057.957698 0.9700 0.9700 0.9700 0.9695 0.9690
2062.219068 0.9690 0.9690 0.9690 0.9690 0.9690
2066.480439 0.9690 0.9680 0.9670 0.9665 0.9660
2070.741810 0.9660 0.9660 0.9655 0.9650 0.9650
2075.003181 0.9650 0.9650 0.9650 0.9655 0.9660
2079.264551 0.9660 0.9660 0.9660 0.9660 0.9660
2083.525922 0.9660 0.9660 0.9660 0.9660 0.9660
2087.787293 0.9655 0.9650 0.9650 0.9650 0.9640
2092.048663 0.9630 0.9630 0.9630 0.9640 0.9650
2096.310034 0.9640 0.9630 0.9630 0.9630 0.9630
2100.571405 0.9630 0.9630 0.9630 0.9625 0.9620
2104.832776 0.9620 0.9620 0.9620 0.9620 0.9620
2109.094146 0.9620 0.9615 0.9610 0.9610 0.9610
2113.355517 0.9610 0.9610 0.9600 0.9590 0.9590
2117.616888 0.9590 0.9590 0.9590 0.9590 0.9590
2121.878259 0.9585 0.9580 0.9580 0.9580 0.9575
2126.139629 0.9570 0.9575 0.9580 0.9580 0.9580
2130.401000 0.9580 0.9580 0.9575 0.9570 0.9570
2134.662371 0.9570 0.9570 0.9570 0.9560 0.9550
2138.923741 0.9550 0.9550 0.9550 0.9550 0.9545
2143.185112 0.9540 0.9540 0.9540 0.9540 0.9540
2147.446483 0.9535 0.9530 0.9530 0.9530 0.9530
2151.707854 0.9530 0.9530 0.9530 0.9530 0.9530
2155.969224 0.9530 0.9530 0.9530 0.9530 0.9530
2160.230595 0.9530 0.9530 0.9530 0.9530 0.9530
2164.491966 0.9530 0.9530 0.9520 0.9510 0.9510
2168.753337 0.9510 0.9505 0.9500 0.9500 0.9500
2173.014707 0.9495 0.9490 0.9480 0.9470 0.9470
2177.276078 0.9470 0.9465 0.9460 0.9460 0.9460
2181.537449 0.9460 0.9460 0.9455 0.9450 0.9450
2185.798820 0.9450 0.9440 0.9430 0.9430 0.9430
2190.060190 0.9430 0.9430 0.9425 0.9420 0.9420
2194.321561 0.9420 0.9420 0.9420 0.9420 0.9420
2198.582932 0.9420 0.9420 0.9425 0.9430 0.9425
2202.844302 0.9420 0.9420 0.9420 0.9420 0.9420
2207.105673 0.9415 0.9410 0.9410 0.9410 0.9410
2211.367044 0.9410 0.9410 0.9410 0.9400 0.9390
2215.628415 0.9390 0.9390 0.9390 0.9390 0.9390
2219.889785 0.9390 0.9385 0.9380 0.9375 0.9370
2224.151156 0.9370 0.9370 0.9360 0.9350 0.9345
2228.412527 0.9340 0.9335 0.9330 0.9320 0.9310
2232.673898 0.9310 0.9310 0.9310 0.9310 0.9305
2236.935268 0.9300 0.9300 0.9300 0.9285 0.9270
2241.196639 0.9260 0.9250 0.9240 0.9230 0.9230
2245.458010 0.9230 0.9225 0.9220 0.9215 0.9210
2249.719381 0.9200 0.9190 0.9180 0.9170 0.9160
2253.980751 0.9150 0.9150 0.9150 0.9145 0.9140
2258.242122 0.9140 0.9140 0.9140 0.9140 0.9135
2262.503493 0.9130 0.9130 0.9130 0.9130 0.9130
2266.764863 0.9135 0.9140 0.9135 0.9130 0.9120
2271.026234 0.9110 0.9110 0.9110 0.9105 0.9100
2275.287605 0.9100 0.9100 0.9100 0.9100 0.9100
2279.548976 0.9100 0.9095 0.9090 0.9090 0.9090
2283.810346 0.9080 0.9070 0.9065 0.9060 0.9060
2288.071717 0.9060 0.9060 0.9060 0.9060 0.9060
2292.333088 0.9055 0.9050 0.9050 0.9050 0.9040
2296.594459 0.9030 0.9030 0.9030 0.9030 0.9030
2300.855829 0.9040 0.9050 0.9040 0.9030 0.9030
2305.117200 0.9030 0.9025 0.9020 0.9020 0.9020
2309.378571 0.9020 0.9020 0.9020 0.9020 0.9020
2313.639941 0.9020 0.9020 0.9020 0.9020 0.9020
2317.901312 0.9020 0.9020 0.9020 0.9020 0.9020
2322.162683 0.9020 0.9020 0.9020 0.9020 0.9020
2326.424054 0.9020 0.9020 0.9020 0.9020 0.9015
2330.685424 0.9010 0.9010 0.9010 0.9010 0.9010
2334.946795 0.9015 0.9020 0.9020 0.9020 0.9025
2339.208166 0.9030 0.9030 0.9030 0.9040 0.9050
2343.469537 0.9050 0.9050 0.9050 0.9050 0.9050
2347.730907 0.9050 0.9050 0.9050 0.9055 0.9060
2351.992278 0.9060 0.9060 0.9065 0.9070 0.9070
2356.253649 0.9070 0.9070 0.9070 0.9070 0.9070
2360.515020 0.9080 0.9090 0.9095 0.9100 0.9105
2364.776390 0.9110 0.9110 0.9110 0.9110 0.9110
2369.037761 0.9110 0.9110 0.9105 0.9100 0.9100
2373.299132 0.9100 0.9100 0.9100 0.9100 0.9100
2377.560502 0.9100 0.9100 0.9105 0.9110 0.9110
2381.821873 0.9110 0.9120 0.9130 0.9130 0.9130
2386.083244 0.9130 0.9130 0.9135 0.9140 0.9140
2390.344615 0.9140 0.9140 0.9140 0.9145 0.9150
2394.605985 0.9150 0.9150 0.9150 0.9150 0.9160
2398.867356 0.9170 0.9170 0.9170 0.9170 0.9170
2403.128727 0.9170 0.9170 0.9170 0.9170 0.9170
2407.390098 0.9170 0.9170 0.9170 0.9160 0.9150
2411.651468 0.9150 0.9150 0.9150 0.9150 0.9150
2415.912839 0.9150 0.9150 0.9150 0.9150 0.9150
2420.174210 0.9150 0.9150 0.9150 0.9150 0.9150
2424.435581 0.9150 0.9150 0.9150 0.9145 0.9140
2428.696951 0.9140 0.9140 0.9140 0.9140 0.9140
2432.958322 0.9140 0.9140 0.9140 0.9140 0.9140
2437.219693 0.9140 0.9140 0.9140 0.9140 0.9140
2441.481063 0.9140 0.9140 0.9140 0.9140 0.9140
2445.742434 0.9145 0.9150 0.9150 0.9150 0.9160
2450.003805 0.9170 0.9175 0.9180 0.9180 0.9180
2454.265176 0.9180 0.9180 0.9185 0.9190 0.9190
2458.526546 0.9190 0.9190 0.9190 0.9190 0.9190
2462.787917 0.9190 0.9190 0.9190 0.9190 0.9190
2467.049288 0.9190 0.9190 0.9190 0.9190 0.9190
2471.310659 0.9200 0.9210 0.9210 0.9210 0.9210
2475.572029 0.9210 0.9210 0.9210 0.9210 0.9210
2479.833400 0.9210 0.9210 0.9210 0.9210 0.9200
2484.094771 0.9190 0.9190 0.9190 0.9185 0.9180
2488.356141 0.9180 0.9180 0.9175 0.9170 0.9170
2492.617512 0.9170 0.9170 0.9170 0.9180 0.9190
2496.878883 0.9190 0.9190 0.9200 0.9210 0.9220
2501.140254 0.9230 0.9240 0.9250 0.9255 0.9260
2505.401624 0.9260 0.9260 0.9260 0.9260 0.9265
2509.662995 0.9270 0.9280 0.9290 0.9290 0.9290
2513.924366 0.9290 0.9290 0.9290 0.9290 0.9290
2518.185737 0.9290 0.9290 0.9290 0.9290 0.9290
2522.447107 0.9290 0.9290 0.9290 0.9290 0.9290
2526.708478 0.9290 0.9295 0.9300 0.9300 0.9300
2530.969849 0.9300 0.9300 0.9300 0.9300 0.9300
2535.231220 0.9300 0.9305 0.9310 0.9310 0.9310
2539.492590 0.9310 0.9310 0.9310 0.9310 0.9310
2543.753961 0.9310 0.9310 0.9310 0.9310 0.9310
2548.015332 0.9310 0.9310 0.9310 0.9310 0.9310
2552.276702 0.9310 0.9310 0.9310 0.9310 0.9310
2556.538073 0.9310 0.9310 0.9310 0.9310 0.9310
2560.799444 0.9310 0.9310 0.9310 0.9310 0.9310
2565.060815 0.9305 0.9300 0.9300 0.9300 0.9300
2569.322185 0.9300 0.9300 0.9300 0.9295 0.9290
2573.583556 0.9280 0.9270 0.9265 0.9260 0.9255
2577.844927 0.9250 0.9250 0.9250 0.9240 0.9230
2582.106298 0.9230 0.9230 0.9230 0.9230 0.9230
2586.367668 0.9230 0.9240 0.9250 0.9255 0.9260
2590.629039 0.9265 0.9270 0.9270 0.9270 0.9270
2594.890410 0.9270 0.9270 0.9270 0.9280 0.9290
2599.151781 0.9290 0.9290 0.9280 0.9270 0.9270
2603.413151 0.9270 0.9270 0.9270 0.9280 0.9290
2607.674522 0.9290 0.9290 0.9295 0.9300 0.9300
2611.935893 0.9300 0.9285 0.9270 0.9270 0.9270
2616.197263 0.9270 0.9270 0.9270 0.9270 0.9270
2620.458634 0.9270 0.9280 0.9290 0.9290 0.9290
2624.720005 0.9290 0.9290 0.9290 0.9290 0.9280
2628.981376 0.9270 0.9270 0.9270 0.9270 0.9270
2633.242746 0.9270 0.9270 0.9265 0.9260 0.9260
2637.504117 0.9260 0.9260 0.9260 0.9260 0.9260
2641.765488 0.9255 0.9250 0.9250 0.9250 0.9250
2646.026859 0.9250 0.9240 0.9230 0.9240 0.9250
2650.288229 0.9250 0.9250 0.9240 0.9230 0.9230
2654.549600 0.9230 0.9230 0.9230 0.9230 0.9230
2658.810971 0.9230 0.9230 0.9230 0.9230 0.9225
2663.072341 0.9220 0.9220 0.9220 0.9215 0.9210
2667.333712 0.9210 0.9210 0.9210 0.9210 0.9200
2671.595083 0.9190 0.9185 0.9180 0.9180 0.9180
2675.856454 0.9180 0.9180 0.9175 0.9170 0.9170
2680.117824 0.9170 0.9170 0.9170 0.9170 0.9170
2684.379195 0.9160 0.9150 0.9150 0.9150 0.9150
2688.640566 0.9150 0.9150 0.9150 0.9145 0.9140
2692.901937 0.9140 0.9140 0.9140 0.9140 0.9145
2697.163307 0.9150 0.9145 0.9140 0.9135 0.9130
2701.424678 0.9130 0.9130 0.9120 0.9110 0.9110
2705.686049 0.9110 0.9110 0.9110 0.9105 0.9100
2709.947420 0.9100 0.9100 0.9100 0.9100 0.9085
2714.208790 0.9070 0.9070 0.9070 0.9065 0.9060
2718.470161 0.9060 0.9060 0.9060 0.9060 0.9055
2722.731532 0.9050 0.9050 0.9050 0.9050 0.9050
2726.992902 0.9050 0.9050 0.9050 0.9050 0.9050
2731.254273 0.9050 0.9055 0.9060 0.9065 0.9070
2735.515644 0.9070 0.9070 0.9070 0.9070 0.9065
2739.777015 0.9060 0.9055 0.9050 0.9050 0.9050
2744.038385 0.9050 0.9050 0.9050 0.9050 0.9050
2748.299756 0.9050 0.9050 0.9050 0.9040 0.9030
2752.561127 0.9030 0.9030 0.9030 0.9030 0.9030
2756.822498 0.9030 0.9030 0.9030 0.9030 0.9030
2761.083868 0.9030 0.9030 0.9030 0.9030 0.9025
2765.345239 0.9020 0.9020 0.9020 0.9020 0.9020
2769.606610 0.9015 0.9010 0.9000 0.8990 0.8990
2773.867981 0.8990 0.8990 0.8990 0.8990 0.8990
2778.129351 0.8990 0.8990 0.9000 0.9010 0.9010
2782.390722 0.9010 0.8995 0.8980 0.8975 0.8970
2786.652093 0.8950 0.8930 0.8930 0.8930 0.8935
2790.913463 0.8940 0.8940 0.8940 0.8935 0.8930
2795.174834 0.8930 0.8930 0.8930 0.8930 0.8930
2799.436205 0.8930 0.8920 0.8910 0.8905 0.8900
2803.697576 0.8900 0.8900 0.8895 0.8890 0.8880
2807.958946 0.8870 0.8865 0.8860 0.8845 0.8830
2812.220317 0.8820 0.8810 0.8800 0.8790 0.8785
2816.481688 0.8780 0.8765 0.8750 0.8735 0.8720
2820.743059 0.8715 0.8710 0.8705 0.8700 0.8700
2825.004429 0.8700 0.8690 0.8680 0.8675 0.8670
2829.265800 0.8650 0.8630 0.8610 0.8590 0.8585
2833.527171 0.8580 0.8580 0.8580 0.8570 0.8560
2837.788541 0.8550 0.8540 0.8540 0.8540 0.8530
2842.049912 0.8520 0.8515 0.8510 0.8505 0.8500
2846.311283 0.8500 0.8500 0.8490 0.8480 0.8480
2850.572654 0.8480 0.8480 0.8480 0.8490 0.8500
2854.834024 0.8505 0.8510 0.8510 0.8510 0.8505
2859.095395 0.8500 0.8490 0.8480 0.8450 0.8420
2863.356766 0.8390 0.8360 0.8340 0.8320 0.8261
2867.618137 0.8201 0.8135 0.8070 0.8015 0.7960
2871.879507 0.7900 0.7840 0.7795 0.7750 0.7710
2876.140878 0.7670 0.7670 0.7670 0.7715 0.7760
2880.402249 0.7854 0.7949 0.8014 0.8079 0.8120
2884.663620 0.8160 0.8190 0.8220 0.8225 0.8230
2888.924990 0.8230 0.8230 0.8205 0.8180 0.8170
2893.186361 0.8160 0.8150 0.8140 0.8140 0.8140
2897.447732 0.8130 0.8120 0.8115 0.8110 0.8095
2901.709102 0.8080 0.8075 0.8070 0.8055 0.8040
2905.970473 0.8040 0.8040 0.8035 0.8030 0.8030
2910.231844 0.8030 0.8025 0.8020 0.8020 0.8020
2914.493215 0.8010 0.8000 0.7990 0.7980 0.7970
2918.754585 0.7960 0.7940 0.7920 0.7830 0.7740
2923.015956 0.7685 0.7630 0.7605 0.7580 0.7540
2927.277327 0.7500 0.7415 0.7330 0.7181 0.7031
2931.538698 0.6797 0.6562 0.6416 0.6272 0.6102
2935.800068 0.5932 0.5766 0.5600 0.5520 0.5440
2940.061439 0.5350 0.5260 0.5260 0.5260 0.5400
2944.322810 0.5540 0.5520 0.5500 0.5480 0.5460
2948.584181 0.5435 0.5410 0.5861 0.6316 0.6839
2952.845551 0.7364 0.7420 0.7470 0.7485 0.7500
2957.106922 0.7425 0.7350 0.7230 0.7110 0.7030
2961.368293 0.6950 0.6935 0.6920 0.6920 0.6920
2965.629663 0.6905 0.6890 0.6469 0.6044 0.5906
2969.891034 0.5772 0.5630 0.5485 0.4531 0.3579
2974.152405 0.3224 0.2870 0.2715 0.2560 0.2560
2978.413776 0.2560 0.2999 0.3438 0.3783 0.4128
2982.675146 0.4458 0.4787 0.5400 0.6014 0.6243
2986.936517 0.6467 0.6899 0.7332 0.7616 0.7901
2991.197888 0.8071 0.8240 0.8330 0.8420 0.8460
2995.459259 0.8500 0.8520 0.8540 0.8580 0.8620
2999.720629 0.8640 0.8660 0.8685 0.8710 0.8715
3003.982000 0.8720 0.8735 0.8750 0.8765 0.8780
3008.243371 0.8795 0.8810 0.8815 0.8820 0.8825
3012.504741 0.8830 0.8830 0.8830 0.8830 0.8830
3016.766112 0.8840 0.8850 0.8850 0.8850 0.8855
3021.027483 0.8860 0.8865 0.8870 0.8870 0.8870
3025.288854 0.8880 0.8890 0.8890 0.8890 0.8890
3029.550224 0.8890 0.8895 0.8900 0.8900 0.8900
3033.811595 0.8900 0.8900 0.8900 0.8900 0.8900
3038.072966 0.8900 0.8900 0.8900 0.8900 0.8900
3042.334337 0.8900 0.8900 0.8900 0.8900 0.8895
3046.595707 0.8890 0.8890 0.8890 0.8895 0.8900
3050.857078 0.8900 0.8900 0.8900 0.8900 0.8900
3055.118449 0.8900 0.8900 0.8900 0.8900 0.8900
3059.379820 0.8900 0.8900 0.8905 0.8910 0.8910
3063.641190 0.8910 0.8910 0.8910 0.8910 0.8910
3067.902561 0.8910 0.8910 0.8910 0.8910 0.8905
3072.163932 0.8900 0.8900 0.8900 0.8900 0.8900
3076.425302 0.8900 0.8900 0.8900 0.8900 0.8900
3080.686673 0.8900 0.8900 0.8900 0.8900 0.8900
3084.948044 0.8900 0.8900 0.8900 0.8900 0.8900
3089.209415 0.8900 0.8900 0.8900 0.8900 0.8900
3093.470785 0.8900 0.8900 0.8900 0.8900 0.8900
3097.732156 0.8900 0.8895 0.8890 0.8890 0.8890
3101.993527 0.8895 0.8900 0.8900 0.8900 0.8895
3106.254898 0.8890 0.8890 0.8890 0.8890 0.8890
3110.516268 0.8890 0.8890 0.8880 0.8870 0.8870
3114.777639 0.8870 0.8865 0.8860 0.8860 0.8860
3119.039010 0.8855 0.8850 0.8850 0.8850 0.8855
3123.300381 0.8860 0.8860 0.8860 0.8855 0.8850
3127.561751 0.8840 0.8830 0.8830 0.8830 0.8830
3131.823122 0.8830 0.8830 0.8830 0.8830 0.8830
3136.084493 0.8830 0.8830 0.8830 0.8830 0.8830
3140.345863 0.8830 0.8825 0.8820 0.8820 0.8820
3144.607234 0.8820 0.8820 0.8820 0.8820 0.8820
3148.868605 0.8820 0.8820 0.8820 0.8820 0.8820
3153.129976 0.8820 0.8820 0.8820 0.8820 0.8820
3157.391346 0.8820 0.8820 0.8820 0.8815 0.8810
3161.652717 0.8810 0.8810 0.8800 0.8790 0.8785
3165.914088 0.8780 0.8780 0.8780 0.8780 0.8780
3170.175459 0.8780 0.8780 0.8780 0.8780 0.8780
3174.436829 0.8780 0.8780 0.8780 0.8780 0.8780
3178.698200 0.8780 0.8780 0.8780 0.8780 0.8780
3182.959571 0.8780 0.8775 0.8770 0.8760 0.8750
3187.220941 0.8745 0.8740 0.8740 0.8740 0.8740
3191.482312 0.8740 0.8730 0.8720 0.8720 0.8720
3195.743683 0.8720 0.8720 0.8715 0.8710 0.8715
3200.005054 0.8720 0.8720 0.8720 0.8720 0.8720
3204.266424 0.8720 0.8720 0.8720 0.8720 0.8720
3208.527795 0.8720 0.8720 0.8720 0.8720 0.8720
3212.789166 0.8720 0.8720 0.8720 0.8720 0.8715
3217.050537 0.8710 0.8710 0.8710 0.8710 0.8710
3221.311907 0.8710 0.8710 0.8710 0.8710 0.8710
3225.573278 0.8710 0.8710 0.8710 0.8705 0.8700
3229.834649 0.8700 0.8700 0.8700 0.8700 0.8700
3234.096020 0.8700 0.8700 0.8700 0.8700 0.8700
3238.357390 0.8690 0.8680 0.8680 0.8680 0.8675
3242.618761 0.8670 0.8670 0.8670 0.8670 0.8670
3246.880132 0.8670 0.8670 0.8670 0.8670 0.8670
3251.141502 0.8670 0.8665 0.8660 0.8660 0.8660
3255.402873 0.8650 0.8640 0.8640 0.8640 0.8640
3259.664244 0.8640 0.8640 0.8640 0.8635 0.8630
3263.925615 0.8630 0.8630 0.8630 0.8630 0.8630
3268.186985 0.8630 0.8630 0.8630 0.8630 0.8630
3272.448356 0.8630 0.8630 0.8630 0.8630 0.8630
3276.709727 0.8630 0.8630 0.8630 0.8630 0.8630
3280.971098 0.8630 0.8630 0.8630 0.8630 0.8625
3285.232468 0.8620 0.8620 0.8620 0.8620 0.8620
3289.493839 0.8610 0.8600 0.8600 0.8600 0.8600
3293.755210 0.8600 0.8600 0.8600 0.8600 0.8600
3298.016581 0.8600 0.8600 0.8595 0.8590 0.8590
3302.277951 0.8590 0.8590 0.8590 0.8590 0.8590
3306.539322 0.8590 0.8590 0.8590 0.8590 0.8590
3310.800693 0.8590 0.8590 0.8590 0.8590 0.8590
3315.062063 0.8585 0.8580 0.8580 0.8580 0.8570
3319.323434 0.8560 0.8560 0.8560 0.8560 0.8560
3323.584805 0.8560 0.8560 0.8555 0.8550 0.8550
3327.846176 0.8550 0.8550 0.8550 0.8550 0.8550
3332.107546 0.8550 0.8550 0.8550 0.8550 0.8545
3336.368917 0.8540 0.8540 0.8540 0.8540 0.8540
3340.630288 0.8540 0.8540 0.8540 0.8540 0.8530
3344.891659 0.8520 0.8520 0.8520 0.8520 0.8520
3349.153029 0.8520 0.8520 0.8520 0.8520 0.8520
3353.414400 0.8520 0.8520 0.8520 0.8520 0.8520
3357.675771 0.8520 0.8520 0.8520 0.8520 0.8520
3361.937141 0.8520 0.8520 0.8520 0.8520 0.8520
3366.198512 0.8515 0.8510 0.8510 0.8510 0.8510
3370.459883 0.8510 0.8510 0.8510 0.8510 0.8510
3374.721254 0.8510 0.8510 0.8510 0.8510 0.8510
3378.982624 0.8510 0.8510 0.8510 0.8510 0.8510
3383.243995 0.8510 0.8510 0.8510 0.8510 0.8510
3387.505366 0.8510 0.8510 0.8510 0.8515 0.8520
3391.766737 0.8520 0.8520 0.8515 0.8510 0.8510
3396.028107 0.8510 0.8510 0.8510 0.8505 0.8500
3400.289478 0.8500 0.8500 0.8500 0.8500 0.8500
3404.550849 0.8500 0.8500 0.8500 0.8500 0.8500
3408.812220 0.8500 0.8500 0.8500 0.8500 0.8500
3413.073590 0.8500 0.8500 0.8500 0.8500 0.8500
3417.334961 0.8500 0.8500 0.8500 0.8500 0.8500
3421.596332 0.8500 0.8500 0.8500 0.8500 0.8500
3425.857702 0.8500 0.8500 0.8500 0.8500 0.8500
3430.119073 0.8500 0.8505 0.8510 0.8510 0.8510
3434.380444 0.8510 0.8510 0.8510 0.8510 0.8510
3438.641815 0.8510 0.8515 0.8520 0.8520 0.8520
3442.903185 0.8520 0.8520 0.8515 0.8510 0.8510
3447.164556 0.8510 0.8510 0.8510 0.8510 0.8510
3451.425927 0.8510 0.8510 0.8510 0.8510 0.8510
3455.687298 0.8510 0.8510 0.8510 0.8515 0.8520
3459.948668 0.8530 0.8540 0.8540 0.8540 0.8540
3464.210039 0.8540 0.8540 0.8540 0.8540 0.8540
3468.471410 0.8540 0.8540 0.8540 0.8540 0.8530
3472.732781 0.8520 0.8520 0.8520 0.8520 0.8520
3476.994151 0.8520 0.8520 0.8530 0.8540 0.8545
3481.255522 0.8550 0.8555 0.8560 0.8560 0.8560
3485.516893 0.8560 0.8560 0.8560 0.8560 0.8560
3489.778263 0.8560 0.8560 0.8560 0.8570 0.8580
3494.039634 0.8580 0.8580 0.8580 0.8580 0.8580
3498.301005 0.8580 0.8585 0.8590 0.8585 0.8580
3502.562376 0.8580 0.8580 0.8580 0.8580 0.8580
3506.823746 0.8580 0.8580 0.8580 0.8585 0.8590
3511.085117 0.8590 0.8590 0.8590 0.8590 0.8590
3515.346488 0.8590 0.8585 0.8580 0.8580 0.8580
3519.607859 0.8580 0.8580 0.8580 0.8580 0.8585
3523.869229 0.8590 0.8590 0.8590 0.8595 0.8600
3528.130600 0.8600 0.8600 0.8600 0.8600 0.8600
3532.391971 0.8600 0.8600 0.8600 0.8600 0.8600
3536.653341 0.8600 0.8600 0.8600 0.8600 0.8600
3540.914712 0.8600 0.8600 0.8600 0.8600 0.8600
3545.176083 0.8600 0.8600 0.8610 0.8620 0.8625
3549.437454 0.8630 0.8635 0.8640 0.8640 0.8640
3553.698824 0.8650 0.8660 0.8660 0.8660 0.8660
3557.960195 0.8660 0.8660 0.8660 0.8660 0.8660
3562.221566 0.8660 0.8660 0.8660 0.8660 0.8660
3566.482937 0.8660 0.8660 0.8660 0.8660 0.8660
3570.744307 0.8660 0.8660 0.8660 0.8660 0.8660
3575.005678 0.8660 0.8665 0.8670 0.8675 0.8680
3579.267049 0.8680 0.8680 0.8591 0.8501 0.8500
3583.528420 0.8500 0.8510 0.8520 0.8560 0.8600
3587.789790 0.8630 0.8660 0.8680 0.8700 0.8700
3592.051161 0.8700 0.8700 0.8700 0.8700 0.8700
3596.312532 0.8700 0.8700 0.8705 0.8710 0.8715
3600.573902 0.8720 0.8730 0.8740 0.8740 0.8740
3604.835273 0.8660 0.8580 0.8580 0.8580 0.8645
3609.096644 0.8710 0.8705 0.8700 0.8700 0.8700
3613.358015 0.8690 0.8680 0.8680 0.8680 0.8690
3617.619385 0.8700 0.8705 0.8710 0.8710 0.8710
3621.880756 0.8705 0.8700 0.8700 0.8700 0.8700
3626.142127 0.8700 0.8700 0.8700 0.8705 0.8710
3630.403498 0.8710 0.8710 0.8715 0.8720 0.8720
3634.664868 0.8720 0.8720 0.8720 0.8720 0.8720
3638.926239 0.8720 0.8720 0.8720 0.8720 0.8720
3643.187610 0.8720 0.8720 0.8720 0.8715 0.8710
3647.448981 0.8710 0.8710 0.8710 0.8710 0.8725
3651.710351 0.8740 0.8730 0.8720 0.8720 0.8720
3655.971722 0.8720 0.8720 0.8720 0.8720 0.8735
3660.233093 0.8750 0.8750 0.8750 0.8745 0.8740
3664.494463 0.8740 0.8740 0.8740 0.8740 0.8745
3668.755834 0.8750 0.8750 0.8750 0.8745 0.8740
3673.017205 0.8740 0.8740 0.8745 0.8750 0.8750
3677.278576 0.8750 0.8750 0.8750 0.8745 0.8740
3681.539946 0.8740 0.8740 0.8740 0.8740 0.8740
3685.801317 0.8740 0.8740 0.8740 0.8730 0.8720
3690.062688 0.8715 0.8710 0.8710 0.8710 0.8705
3694.324059 0.8700 0.8690 0.8680 0.8680 0.8680
3698.585429 0.8690 0.8700 0.8725 0.8750 0.8750
3702.846800 0.8750 0.8745 0.8740 0.8740 0.8740
3707.108171 0.8745 0.8750 0.8750 0.8750 0.8745
3711.369542 0.8740 0.8740 0.8740 0.8740 0.8740
3715.630912 0.8745 0.8750 0.8745 0.8740 0.8740
3719.892283 0.8740 0.8740 0.8740 0.8730 0.8720
3724.153654 0.8730 0.8740 0.8740 0.8740 0.8740
3728.415024 0.8740 0.8740 0.8740 0.8740 0.8740
3732.676395 0.8730 0.8720 0.8720 0.8720 0.8720
3736.937766 0.8720 0.8720 0.8720 0.8720 0.8720
3741.199137 0.8720 0.8720 0.8720 0.8720 0.8720
3745.460507 0.8720 0.8720 0.8720 0.8720 0.8720
3749.721878 0.8720 0.8720 0.8720 0.8720 0.8720
3753.983249 0.8720 0.8720 0.8720 0.8720 0.8720
3758.244620 0.8720 0.8720 0.8720 0.8720 0.8720
3762.505990 0.8720 0.8720 0.8720 0.8720 0.8720
3766.767361 0.8720 0.8720 0.8730 0.8740 0.8740
3771.028732 0.8740 0.8740 0.8740 0.8740 0.8740
3775.290102 0.8740 0.8740 0.8740 0.8740 0.8745
3779.551473 0.8750 0.8750 0.8750 0.8750 0.8750
3783.812844 0.8750 0.8750 0.8760 0.8770 0.8770
3788.074215 0.8770
##END=
