##TITLE=2-PROPANOL, 2-METHYL-D
##JCAMP-DX=4.24
##DATA TYPE=INFRARED SPECTRUM
##CLASS=COBLENTZ III
##ORIGIN=DOW CHEMICAL COMPANY
##OWNER=COBLENTZ SOCIETY
Collection (C) 2018 copyright by the U.S. Secretary of Commerce
on behalf of the United States of America. All rights reserved.
##DATE=1966/02/24
##NAMES=2-methyl-2-propanol
##MOLFORM=C4 H9 D O
##SOURCE REFERENCE=COBLENTZ NO. 10145
##$NIST ID=B6010145
##$NIST SOURCE=COBLENTZ
##$NIST IMAGE=cob10145
##SPECTROMETER/DATA SYSTEM=DOW KBr FOREPRISM-GRATING
##INSTRUMENT PARAMETERS=BLAZED AT 3.5, 12.0, 20.0 MICRON, CHANGED AT 5.0, 7.5, 14.9 MICRON
##STATE=SOLUTION (10% IN CCl4 FOR 3800-1330, 10% IN CS2 FOR 1330-400 CM^-^1) VS. SOLVENT
##PATH LENGTH=0.011, 0.011 CM
##SAMPLING PROCEDURE=TRANSMISSION
##RESOLUTION=4
##DATA PROCESSING=DIGITIZED BY NIST FROM HARD COPY (FROM TWO SEGMENTS)
##XUNITS=1/CM
##YUNITS=TRANSMITTANCE
##XFACTOR=1.000000
##YFACTOR=1
##DELTAX=0.870072
##FIRSTX=401.682
##LASTX=3785.39
##FIRSTY=0.764
##MAXX=3785.39
##MINX=401.682
##MAXY=1.009
##MINY=0.005
##NPOINTS=3890
##XYDATA=(X++(Y..Y))
401.682000 0.7640 0.7640 0.7640 0.7640 0.7640
406.032359 0.7640 0.7640 0.7640 0.7640 0.7640
410.382717 0.7640 0.7630 0.7610 0.7600 0.7600
414.733076 0.7600 0.7610 0.7630 0.7640 0.7650
419.083435 0.7680 0.7720 0.7750 0.7780 0.7780
423.433794 0.7820 0.7830 0.7850 0.7860 0.7870
427.784152 0.7890 0.7900 0.7910 0.7910 0.7910
432.134511 0.7900 0.7900 0.7870 0.7860 0.7850
436.484870 0.7820 0.7800 0.7760 0.7720 0.7700
440.835229 0.7670 0.7610 0.7560 0.7510 0.7460
445.185587 0.7400 0.7340 0.7270 0.7250 0.7190
449.535946 0.7140 0.7070 0.7020 0.6990 0.6960
453.886305 0.6910 0.6880 0.6810 0.6760 0.6700
458.236664 0.6590 0.6470 0.6340 0.6201 0.6100
462.587022 0.6020 0.6010 0.5980 0.5970 0.5970
466.937381 0.5980 0.5980 0.6000 0.6010 0.6020
471.287740 0.6050 0.6060 0.6080 0.6130 0.6140
475.638099 0.6160 0.6170 0.6190 0.6210 0.6230
479.988457 0.6240 0.6250 0.6280 0.6290 0.6310
484.338816 0.6310 0.6320 0.6320 0.6340 0.6350
488.689175 0.6360 0.6380 0.6380 0.6390 0.6390
493.039534 0.6400 0.6420 0.6420 0.6430 0.6440
497.389892 0.6460 0.6480 0.6530 0.6570 0.6580
501.740251 0.6580 0.6610 0.6620 0.6650 0.6680
506.090610 0.6700 0.6730 0.6770 0.6800 0.6820
510.440969 0.6880 0.6920 0.6960 0.7040 0.7070
514.791327 0.7100 0.7140 0.7190 0.7250 0.7260
519.141686 0.7300 0.7360 0.7410 0.7450 0.7490
523.492045 0.7520 0.7590 0.7610 0.7650 0.7680
527.842404 0.7720 0.7760 0.7820 0.7890 0.7950
532.192762 0.7970 0.7970 0.8020 0.8050 0.8090
536.543121 0.8130 0.8140 0.8160 0.8200 0.8240
540.893480 0.8280 0.8310 0.8320 0.8320 0.8350
545.243839 0.8350 0.8380 0.8400 0.8430 0.8460
549.594197 0.8470 0.8500 0.8530 0.8540 0.8570
553.944556 0.8570 0.8590 0.8610 0.8620 0.8650
558.294915 0.8660 0.8700 0.8720 0.8740 0.8740
562.645274 0.8770 0.8780 0.8810 0.8820 0.8850
566.995632 0.8910 0.8920 0.8930 0.8930 0.8960
571.345991 0.8990 0.8990 0.9000 0.9020 0.9040
575.696350 0.9060 0.9070 0.9080 0.9110 0.9120
580.046709 0.9120 0.9140 0.9140 0.9150 0.9170
584.397067 0.9180 0.9190 0.9220 0.9230 0.9250
588.747426 0.9260 0.9290 0.9310 0.9330 0.9340
593.097785 0.9340 0.9370 0.9380 0.9400 0.9410
597.448144 0.9420 0.9440 0.9460 0.9480 0.9490
601.798502 0.9490 0.9520 0.9520 0.9530 0.9550
606.148861 0.9560 0.9570 0.9590 0.9600 0.9610
610.499220 0.9640 0.9650 0.9650 0.9670 0.9680
614.849579 0.9700 0.9710 0.9720 0.9740 0.9750
619.199937 0.9760 0.9780 0.9790 0.9790 0.9800
623.550296 0.9820 0.9830 0.9850 0.9850 0.9860
627.900655 0.9860 0.9870 0.9890 0.9900 0.9900
632.251014 0.9900 0.9900 0.9910 0.9910 0.9910
636.601372 0.9930 0.9930 0.9930 0.9930 0.9940
640.951731 0.9940 0.9940 0.9950 0.9950 0.9950
645.302090 0.9950 0.9950 0.9970 0.9980 0.9980
649.652449 1.0010 1.0010 1.0010 1.0010 1.0020
654.002807 1.0020 1.0040 1.0040 1.0040 1.0040
658.353166 1.0040 1.0040 1.0050 1.0050 1.0040
662.703525 1.0040 1.0020 1.0020 1.0020 1.0020
667.053884 1.0040 1.0040 1.0040 1.0040 1.0040
671.404242 1.0050 1.0050 1.0050 1.0060 1.0080
675.754601 1.0080 1.0080 1.0090 1.0090 1.0090
680.104960 1.0080 1.0080 1.0060 1.0060 1.0060
684.455319 1.0060 1.0060 1.0060 1.0060 1.0060
688.805677 1.0060 1.0060 1.0050 1.0050 1.0050
693.156036 1.0060 1.0060 1.0060 1.0080 1.0080
697.506395 1.0080 1.0080 1.0080 1.0080 1.0080
701.856754 1.0080 1.0080 1.0060 1.0060 1.0060
706.207112 1.0080 1.0080 1.0080 1.0080 1.0080
710.557471 1.0080 1.0080 1.0060 1.0060 1.0060
714.907830 1.0050 1.0050 1.0050 1.0050 1.0040
719.258189 1.0040 1.0040 1.0020 1.0020 1.0020
723.608547 1.0020 1.0020 1.0020 1.0020 1.0010
727.958906 1.0010 1.0010 1.0000 0.9980 0.9970
732.309265 0.9940 0.9910 0.9890 0.9860 0.9800
736.659624 0.9790 0.9710 0.9640 0.9511 0.9251
741.009982 0.8840 0.8780 0.8390 0.7970 0.7181
745.360341 0.6890 0.6591 0.5453 0.4443 0.4440
749.710700 0.7311 0.8210 0.8620 0.8810 0.9170
754.061059 0.9609 0.9780 0.9830 0.9890 0.9910
758.411417 0.9940 0.9970 0.9980 0.9980 0.9980
762.761776 1.0010 1.0010 1.0010 1.0020 1.0020
767.112135 1.0020 1.0020 1.0040 1.0040 1.0050
771.462494 1.0050 1.0060 1.0080 1.0080 1.0080
775.812852 1.0080 1.0080 1.0080 1.0080 1.0080
780.163211 1.0080 1.0080 1.0080 1.0080 1.0080
784.513570 1.0080 1.0080 1.0060 1.0060 1.0050
788.863929 1.0050 1.0060 1.0060 1.0060 1.0060
793.214287 1.0060 1.0060 1.0060 1.0060 1.0060
797.564646 1.0050 1.0040 1.0020 1.0010 1.0010
801.915005 1.0020 1.0020 1.0020 1.0020 1.0020
806.265364 1.0020 1.0020 1.0020 1.0010 1.0010
810.615722 1.0010 1.0010 1.0000 0.9980 0.9950
814.966081 0.9940 0.9930 0.9930 0.9910 0.9910
819.316440 0.9890 0.9870 0.9870 0.9860 0.9850
823.666799 0.9850 0.9830 0.9830 0.9820 0.9820
828.017157 0.9800 0.9800 0.9790 0.9780 0.9780
832.367516 0.9780 0.9780 0.9760 0.9750 0.9740
836.717875 0.9710 0.9700 0.9680 0.9650 0.9650
841.068234 0.9640 0.9640 0.9640 0.9630 0.9610
845.418592 0.9590 0.9560 0.9550 0.9530 0.9490
849.768951 0.9450 0.9400 0.9310 0.9300 0.9250
854.119310 0.9180 0.9140 0.9080 0.9030 0.9000
858.469669 0.8950 0.8920 0.8850 0.8770 0.8730
862.820027 0.8650 0.8580 0.8510 0.8440 0.8350
867.170386 0.8240 0.8170 0.7971 0.7761 0.7551
871.520745 0.7330 0.7170 0.7000 0.6840 0.6500
875.871104 0.6121 0.6060 0.5900 0.5900 0.6049
880.221462 0.6090 0.6310 0.6530 0.6680 0.6740
884.571821 0.6770 0.6770 0.6770 0.6760 0.6740
888.922180 0.6720 0.6590 0.6470 0.6310 0.6240
893.272539 0.6010 0.5641 0.5381 0.5141 0.4911
897.622897 0.4720 0.4240 0.3640 0.3030 0.2650
901.973256 0.2630 0.2460 0.2131 0.1821 0.1641
906.323615 0.1440 0.1260 0.1070 0.0970 0.0880
910.673974 0.0730 0.0531 0.0510 0.0510 0.0530
915.024332 0.0530 0.0550 0.0610 0.0620 0.0660
919.374691 0.0760 0.1069 0.1309 0.1519 0.1699
923.725050 0.2090 0.2210 0.2270 0.2280 0.2270
928.075409 0.2190 0.2160 0.2080 0.2000 0.1861
932.425767 0.1820 0.1750 0.1670 0.1570 0.1520
936.776126 0.1440 0.1340 0.1300 0.1260 0.1180
941.126485 0.1120 0.1100 0.1080 0.1100 0.1120
945.476844 0.1140 0.1170 0.1230 0.1260 0.1300
949.827202 0.1400 0.1550 0.1610 0.1740 0.1790
954.177561 0.2000 0.2060 0.2210 0.2439 0.2659
958.527920 0.2810 0.2920 0.3270 0.3380 0.3760
962.878279 0.4119 0.4250 0.4360 0.4589 0.4690
967.228637 0.4890 0.5040 0.5230 0.5380 0.5600
971.578996 0.5760 0.5890 0.6010 0.6080 0.6210
975.929355 0.6360 0.6480 0.6630 0.6740 0.7080
980.279714 0.7250 0.7380 0.7490 0.7600 0.7680
984.630072 0.7760 0.7830 0.7940 0.8040 0.8090
988.980431 0.8190 0.8280 0.8340 0.8360 0.8380
993.330790 0.8430 0.8470 0.8500 0.8530 0.8540
997.681149 0.8570 0.8580 0.8610 0.8620 0.8630
1002.031507 0.8630 0.8650 0.8660 0.8680 0.8700
1006.381866 0.8700 0.8700 0.8700 0.8700 0.8690
1010.732225 0.8680 0.8650 0.8630 0.8620 0.8590
1015.082584 0.8570 0.8530 0.8500 0.8480 0.8440
1019.432942 0.8320 0.8210 0.8090 0.7970 0.7820
1023.783301 0.7640 0.7510 0.7460 0.7420 0.7490
1028.133660 0.7510 0.7520 0.7510 0.7400 0.7300
1032.484019 0.7230 0.7100 0.6960 0.6770 0.6511
1036.834377 0.6310 0.6140 0.5940 0.5670 0.5250
1041.184736 0.4621 0.4460 0.4161 0.4080 0.3980
1045.535095 0.4060 0.4170 0.4350 0.4460 0.4880
1049.885454 0.5249 0.5998 0.6190 0.6399 0.6549
1054.235812 0.7250 0.7420 0.7610 0.7860 0.8010
1058.586171 0.8140 0.8210 0.8340 0.8510 0.8540
1062.936530 0.8610 0.8650 0.8700 0.8740 0.8810
1067.286889 0.8890 0.8910 0.8950 0.9000 0.9070
1071.637247 0.9080 0.9110 0.9110 0.9140 0.9140
1075.987606 0.9150 0.9180 0.9190 0.9210 0.9220
1080.337965 0.9220 0.9250 0.9250 0.9260 0.9260
1084.688324 0.9270 0.9270 0.9290 0.9290 0.9300
1089.038682 0.9310 0.9310 0.9300 0.9310 0.9310
1093.389041 0.9330 0.9330 0.9330 0.9330 0.9340
1097.739400 0.9340 0.9360 0.9360 0.9370 0.9380
1102.089759 0.9380 0.9370 0.9370 0.9360 0.9340
1106.440117 0.9330 0.9310 0.9310 0.9300 0.9300
1110.790476 0.9300 0.9290 0.9290 0.9290 0.9290
1115.140835 0.9290 0.9290 0.9290 0.9290 0.9290
1119.491194 0.9290 0.9290 0.9290 0.9300 0.9310
1123.841552 0.9310 0.9310 0.9310 0.9290 0.9270
1128.191911 0.9260 0.9250 0.9220 0.9210 0.9190
1132.542270 0.9190 0.9170 0.9120 0.9110 0.9070
1136.892629 0.9040 0.9030 0.9030 0.8970 0.8930
1141.242987 0.8910 0.8870 0.8840 0.8840 0.8810
1145.593346 0.8780 0.8740 0.8720 0.8700 0.8660
1149.943705 0.8610 0.8540 0.8470 0.8360 0.8320
1154.294064 0.8190 0.8080 0.7970 0.7870 0.7790
1158.644422 0.7600 0.7420 0.7260 0.7110 0.7070
1162.994781 0.7020 0.6960 0.6910 0.6850 0.6780
1167.345140 0.6760 0.6700 0.6680 0.6540 0.6460
1171.695499 0.6350 0.6310 0.6190 0.6050 0.5940
1176.045857 0.5800 0.5740 0.5560 0.5440 0.5270
1180.396216 0.5000 0.4690 0.4530 0.4320 0.4121
1184.746575 0.3900 0.3700 0.3550 0.3220 0.2870
1189.096934 0.2620 0.2360 0.2120 0.1741 0.1571
1193.447292 0.1299 0.1080 0.0950 0.0800 0.0550
1197.797651 0.0390 0.0190 0.0130 0.0100 0.0100
1202.148010 0.0090 0.0090 0.0090 0.0100 0.0100
1206.498369 0.0120 0.0160 0.0280 0.0360 0.0589
1210.848727 0.1041 0.1310 0.1510 0.1740 0.2000
1215.199086 0.2280 0.2590 0.3069 0.3220 0.3380
1219.549445 0.3631 0.4080 0.4190 0.4190 0.4170
1223.899804 0.4160 0.4100 0.4050 0.3980 0.3890
1228.250162 0.3740 0.3630 0.3459 0.3040 0.2660
1232.600521 0.2510 0.2280 0.2080 0.2040 0.2090
1236.950880 0.2190 0.2380 0.2660 0.2851 0.4020
1241.301239 0.4190 0.4290 0.4550 0.4770 0.4989
1245.651597 0.5110 0.5230 0.5460 0.5530 0.5610
1250.001956 0.5740 0.5760 0.5820 0.5860 0.5870
1254.352315 0.5870 0.5850 0.5800 0.5740 0.5710
1258.702674 0.5650 0.5550 0.5380 0.5180 0.5070
1263.053032 0.4989 0.4770 0.4570 0.4350 0.4060
1267.403391 0.3890 0.3710 0.3420 0.3121 0.3040
1271.753750 0.2730 0.2730 0.2930 0.3231 0.4530
1276.104109 0.4820 0.5369 0.5600 0.5790 0.6209
1280.454467 0.7681 0.7860 0.8010 0.8210 0.8380
1284.804826 0.8440 0.8540 0.8630 0.8730 0.8840
1289.155185 0.8950 0.9020 0.9070 0.9120 0.9120
1293.505544 0.9140 0.9150 0.9180 0.9210 0.9220
1297.855902 0.9230 0.9250 0.9260 0.9290 0.9300
1302.206261 0.9300 0.9310 0.9310 0.9330 0.9330
1306.556620 0.9340 0.9340 0.9360 0.9360 0.9370
1310.906979 0.9360 0.9360 0.9340 0.9330 0.9310
1315.257337 0.9290 0.9270 0.9260 0.9230 0.9230
1319.607696 0.9210 0.9150 0.9140 0.9120 0.9120
1323.958055 0.9110 0.9110 0.9060 0.9030 0.9020
1328.308414 0.9000 0.8960 0.8920 0.8880 0.8870
1332.658772 0.8850 0.8850 0.8840 0.8820 0.8820
1337.009131 0.8800 0.8770 0.8770 0.8730 0.8700
1341.359490 0.8680 0.8620 0.8590 0.8550 0.8510
1345.709849 0.8430 0.8350 0.8240 0.8190 0.7970
1350.060207 0.7759 0.7459 0.7180 0.7070 0.6960
1354.410566 0.6840 0.6480 0.6160 0.5751 0.5271
1358.760925 0.5109 0.4549 0.3978 0.2480 0.2060
1363.111284 0.1610 0.1170 0.0721 0.0321 0.0200
1367.461642 0.0080 0.0050 0.0080 0.0160 0.0311
1371.812001 0.1020 0.2240 0.3039 0.4238 0.4779
1376.162360 0.5300 0.5440 0.5650 0.5860 0.5930
1380.512719 0.6010 0.6000 0.5950 0.5760 0.5491
1384.863077 0.5228 0.4499 0.3949 0.3400 0.3040
1389.213436 0.2690 0.2340 0.1981 0.1980 0.3476
1393.563795 0.4531 0.5001 0.5401 0.6010 0.6440
1397.914154 0.7419 0.7670 0.7790 0.7910 0.8089
1402.264512 0.8320 0.8340 0.8390 0.8440 0.8510
1406.614871 0.8540 0.8580 0.8590 0.8620 0.8650
1410.965230 0.8680 0.8700 0.8700 0.8720 0.8730
1415.315589 0.8740 0.8740 0.8760 0.8770 0.8780
1419.665947 0.8780 0.8770 0.8770 0.8760 0.8730
1424.016306 0.8720 0.8700 0.8690 0.8680 0.8650
1428.366665 0.8650 0.8620 0.8580 0.8540 0.8500
1432.717024 0.8500 0.8440 0.8420 0.8400 0.8360
1437.067382 0.8340 0.8290 0.8190 0.8100 0.7980
1441.417741 0.7950 0.7940 0.7930 0.7830 0.7750
1445.768100 0.7640 0.7590 0.7490 0.7380 0.7230
1450.118459 0.7080 0.6930 0.6660 0.6590 0.6440
1454.468817 0.6310 0.6160 0.5980 0.5750 0.5560
1458.819176 0.5450 0.5260 0.5210 0.5070 0.5060
1463.169535 0.4990 0.4870 0.4770 0.4540 0.4350
1467.519894 0.4140 0.3910 0.3670 0.3231 0.3190
1471.870252 0.2590 0.2591 0.3060 0.3300 0.3480
1476.220611 0.4460 0.4950 0.5489 0.5819 0.6159
1480.570970 0.7061 0.7380 0.7530 0.7651 0.7940
1484.921329 0.8040 0.8160 0.8310 0.8390 0.8480
1489.271687 0.8510 0.8570 0.8630 0.8700 0.8700
1493.622046 0.8740 0.8770 0.8810 0.8850 0.8910
1497.972405 0.8930 0.8990 0.9040 0.9100 0.9140
1502.322764 0.9180 0.9190 0.9220 0.9230 0.9260
1506.673122 0.9270 0.9310 0.9330 0.9340 0.9370
1511.023481 0.9380 0.9410 0.9420 0.9450 0.9460
1515.373840 0.9490 0.9520 0.9550 0.9570 0.9590
1519.724199 0.9610 0.9630 0.9650 0.9670 0.9680
1524.074557 0.9700 0.9720 0.9750 0.9760 0.9760
1528.424916 0.9780 0.9790 0.9800 0.9830 0.9860
1532.775275 0.9860 0.9870 0.9890 0.9900 0.9900
1537.125634 0.9910 0.9930 0.9930 0.9930 0.9940
1541.475992 0.9940 0.9940 0.9950 0.9950 0.9950
1545.826351 0.9940 0.9940 0.9930 0.9930 0.9940
1550.176710 0.9940 0.9940 0.9940 0.9940 0.9940
1554.527069 0.9950 0.9950 0.9980 1.0000 1.0000
1558.877427 1.0000 1.0000 1.0000 1.0000 1.0000
1563.227786 1.0000 1.0000 1.0000 1.0000 0.9980
1567.578145 0.9980 0.9980 0.9980 0.9980 0.9980
1571.928504 0.9980 0.9980 0.9980 0.9980 0.9970
1576.278862 0.9970 0.9970 0.9970 0.9970 0.9970
1580.629221 0.9970 0.9970 0.9970 0.9970 0.9970
1584.979580 0.9970 0.9950 0.9950 0.9950 0.9950
1589.329939 0.9950 0.9970 0.9970 0.9950 0.9940
1593.680297 0.9940 0.9940 0.9930 0.9930 0.9930
1598.030656 0.9930 0.9930 0.9930 0.9930 0.9910
1602.381015 0.9910 0.9910 0.9900 0.9890 0.9890
1606.731374 0.9870 0.9860 0.9860 0.9860 0.9850
1611.081732 0.9830 0.9830 0.9830 0.9820 0.9820
1615.432091 0.9820 0.9800 0.9800 0.9790 0.9790
1619.782450 0.9780 0.9780 0.9780 0.9760 0.9760
1624.132809 0.9760 0.9760 0.9750 0.9740 0.9720
1628.483167 0.9710 0.9710 0.9710 0.9710 0.9720
1632.833526 0.9720 0.9720 0.9720 0.9720 0.9710
1637.183885 0.9700 0.9680 0.9670 0.9630 0.9600
1641.534244 0.9590 0.9570 0.9560 0.9550 0.9510
1645.884602 0.9480 0.9480 0.9460 0.9460 0.9450
1650.234961 0.9450 0.9450 0.9450 0.9450 0.9460
1654.585320 0.9460 0.9480 0.9480 0.9490 0.9510
1658.935679 0.9520 0.9520 0.9560 0.9570 0.9590
1663.286037 0.9600 0.9610 0.9640 0.9650 0.9670
1667.636396 0.9670 0.9680 0.9700 0.9710 0.9710
1671.986755 0.9720 0.9720 0.9720 0.9720 0.9740
1676.337114 0.9740 0.9740 0.9720 0.9720 0.9720
1680.687472 0.9720 0.9720 0.9720 0.9720 0.9720
1685.037831 0.9720 0.9720 0.9720 0.9720 0.9720
1689.388190 0.9720 0.9720 0.9720 0.9720 0.9720
1693.738549 0.9720 0.9720 0.9720 0.9720 0.9720
1698.088907 0.9720 0.9720 0.9720 0.9720 0.9720
1702.439266 0.9740 0.9740 0.9720 0.9720 0.9720
1706.789625 0.9720 0.9720 0.9720 0.9720 0.9720
1711.139984 0.9740 0.9740 0.9750 0.9750 0.9760
1715.490342 0.9760 0.9760 0.9780 0.9780 0.9780
1719.840701 0.9780 0.9780 0.9780 0.9780 0.9780
1724.191060 0.9760 0.9760 0.9760 0.9760 0.9750
1728.541419 0.9750 0.9750 0.9750 0.9750 0.9750
1732.891777 0.9750 0.9740 0.9740 0.9740 0.9740
1737.242136 0.9750 0.9750 0.9750 0.9760 0.9760
1741.592495 0.9760 0.9760 0.9760 0.9760 0.9760
1745.942854 0.9760 0.9780 0.9780 0.9780 0.9780
1750.293212 0.9780 0.9780 0.9780 0.9790 0.9790
1754.643571 0.9790 0.9790 0.9790 0.9800 0.9800
1758.993930 0.9800 0.9800 0.9800 0.9800 0.9790
1763.344289 0.9790 0.9780 0.9780 0.9760 0.9760
1767.694647 0.9750 0.9750 0.9750 0.9740 0.9720
1772.045006 0.9720 0.9720 0.9720 0.9710 0.9710
1776.395365 0.9710 0.9700 0.9700 0.9700 0.9700
1780.745724 0.9680 0.9670 0.9670 0.9650 0.9650
1785.096082 0.9650 0.9640 0.9640 0.9630 0.9630
1789.446441 0.9610 0.9600 0.9600 0.9590 0.9590
1793.796800 0.9560 0.9550 0.9550 0.9520 0.9490
1798.147159 0.9480 0.9460 0.9450 0.9420 0.9410
1802.497517 0.9380 0.9360 0.9340 0.9330 0.9310
1806.847876 0.9290 0.9250 0.9230 0.9230 0.9220
1811.198235 0.9220 0.9220 0.9220 0.9220 0.9220
1815.548594 0.9220 0.9220 0.9220 0.9230 0.9250
1819.898952 0.9250 0.9260 0.9260 0.9260 0.9260
1824.249311 0.9270 0.9270 0.9270 0.9270 0.9270
1828.599670 0.9270 0.9270 0.9270 0.9270 0.9270
1832.950029 0.9270 0.9270 0.9270 0.9270 0.9270
1837.300387 0.9270 0.9270 0.9270 0.9270 0.9290
1841.650746 0.9290 0.9290 0.9300 0.9300 0.9300
1846.001105 0.9310 0.9300 0.9310 0.9310 0.9310
1850.351464 0.9330 0.9330 0.9330 0.9330 0.9310
1854.701822 0.9330 0.9330 0.9330 0.9340 0.9340
1859.052181 0.9340 0.9340 0.9360 0.9360 0.9360
1863.402540 0.9360 0.9360 0.9360 0.9360 0.9360
1867.752899 0.9370 0.9370 0.9370 0.9370 0.9370
1872.103257 0.9370 0.9370 0.9360 0.9360 0.9360
1876.453616 0.9360 0.9340 0.9340 0.9340 0.9330
1880.803975 0.9330 0.9310 0.9310 0.9310 0.9310
1885.154334 0.9300 0.9300 0.9290 0.9290 0.9270
1889.504692 0.9270 0.9270 0.9290 0.9290 0.9290
1893.855051 0.9290 0.9290 0.9310 0.9310 0.9310
1898.205410 0.9310 0.9310 0.9310 0.9330 0.9330
1902.555769 0.9330 0.9330 0.9310 0.9310 0.9310
1906.906127 0.9310 0.9310 0.9310 0.9310 0.9310
1911.256486 0.9310 0.9310 0.9330 0.9330 0.9330
1915.606845 0.9340 0.9340 0.9340 0.9340 0.9340
1919.957204 0.9340 0.9370 0.9340 0.9360 0.9360
1924.307562 0.9360 0.9360 0.9360 0.9360 0.9360
1928.657921 0.9360 0.9360 0.9360 0.9370 0.9370
1933.008280 0.9380 0.9380 0.9380 0.9400 0.9400
1937.358639 0.9400 0.9400 0.9410 0.9410 0.9420
1941.708997 0.9420 0.9420 0.9420 0.9420 0.9420
1946.059356 0.9440 0.9440 0.9440 0.9440 0.9440
1950.409715 0.9450 0.9450 0.9440 0.9420 0.9400
1954.760074 0.9400 0.9400 0.9410 0.9410 0.9440
1959.110432 0.9450 0.9450 0.9460 0.9460 0.9460
1963.460791 0.9460 0.9460 0.9460 0.9460 0.9460
1967.811150 0.9460 0.9460 0.9460 0.9460 0.9460
1972.161509 0.9460 0.9460 0.9450 0.9450 0.9420
1976.511867 0.9400 0.9380 0.9370 0.9370 0.9360
1980.862226 0.9360 0.9360 0.9340 0.9340 0.9330
1985.212585 0.9310 0.9300 0.9300 0.9300 0.9290
1989.562944 0.9260 0.9260 0.9250 0.9230 0.9230
1993.913302 0.9230 0.9250 0.9250 0.9250 0.9260
1998.263661 0.9260 0.9260 0.9260 0.9260 0.9260
2002.614020 0.9260 0.9260 0.9265 0.9270 0.9270
2006.964379 0.9270 0.9280 0.9290 0.9300 0.9310
2011.314737 0.9310 0.9310 0.9310 0.9310 0.9310
2015.665096 0.9310 0.9320 0.9330 0.9330 0.9330
2020.015455 0.9330 0.9330 0.9335 0.9340 0.9350
2024.365814 0.9360 0.9360 0.9360 0.9370 0.9380
2028.716172 0.9390 0.9400 0.9405 0.9410 0.9410
2033.066531 0.9410 0.9415 0.9420 0.9420 0.9420
2037.416890 0.9430 0.9440 0.9440 0.9440 0.9445
2041.767249 0.9450 0.9450 0.9450 0.9450 0.9450
2046.117607 0.9455 0.9460 0.9460 0.9460 0.9460
2050.467966 0.9460 0.9460 0.9460 0.9470 0.9480
2054.818325 0.9480 0.9480 0.9480 0.9480 0.9485
2059.168684 0.9490 0.9490 0.9490 0.9490 0.9490
2063.519042 0.9490 0.9490 0.9490 0.9490 0.9490
2067.869401 0.9490 0.9500 0.9509 0.9499 0.9490
2072.219760 0.9490 0.9490 0.9490 0.9490 0.9490
2076.570119 0.9490 0.9490 0.9490 0.9485 0.9480
2080.920477 0.9470 0.9460 0.9450 0.9440 0.9430
2085.270836 0.9420 0.9409 0.9400 0.9400 0.9399
2089.621195 0.9389 0.9380 0.9375 0.9370 0.9365
2093.971554 0.9360 0.9360 0.9359 0.9349 0.9340
2098.321912 0.9335 0.9330 0.9330 0.9329 0.9314
2102.672271 0.9299 0.9273 0.9248 0.9218 0.9190
2107.022630 0.9185 0.9179 0.9164 0.9151 0.9161
2111.372989 0.9171 0.9191 0.9210 0.9215 0.9220
2115.723347 0.9225 0.9231 0.9241 0.9250 0.9255
2120.073706 0.9261 0.9276 0.9291 0.9301 0.9311
2124.424065 0.9321 0.9330 0.9335 0.9341 0.9351
2128.774424 0.9360 0.9360 0.9360 0.9365 0.9370
2133.124782 0.9375 0.9380 0.9380 0.9380 0.9380
2137.475141 0.9380 0.9375 0.9370 0.9365 0.9360
2141.825500 0.9360 0.9360 0.9365 0.9370 0.9370
2146.175858 0.9370 0.9370 0.9370 0.9365 0.9359
2150.526217 0.9349 0.9340 0.9340 0.9340 0.9340
2154.876576 0.9341 0.9351 0.9360 0.9360 0.9361
2159.226935 0.9366 0.9370 0.9370 0.9370 0.9370
2163.577293 0.9370 0.9370 0.9369 0.9364 0.9360
2167.927652 0.9360 0.9360 0.9360 0.9358 0.9343
2172.278011 0.9329 0.9319 0.9310 0.9310 0.9310
2176.628370 0.9310 0.9309 0.9304 0.9300 0.9300
2180.978728 0.9300 0.9300 0.9301 0.9306 0.9311
2185.329087 0.9321 0.9330 0.9330 0.9330 0.9330
2189.679446 0.9330 0.9330 0.9330 0.9330 0.9329
2194.029805 0.9319 0.9310 0.9310 0.9310 0.9310
2198.380163 0.9309 0.9304 0.9300 0.9300 0.9299
2202.730522 0.9294 0.9290 0.9290 0.9288 0.9273
2207.080881 0.9260 0.9260 0.9257 0.9237 0.9218
2211.431240 0.9203 0.9187 0.9167 0.9148 0.9133
2215.781598 0.9119 0.9114 0.9108 0.9093 0.9079
2220.131957 0.9074 0.9069 0.9064 0.9060 0.9060
2224.482316 0.9060 0.9060 0.9060 0.9060 0.9060
2228.832675 0.9060 0.9061 0.9066 0.9070 0.9070
2233.183033 0.9070 0.9070 0.9070 0.9070 0.9070
2237.533392 0.9070 0.9070 0.9070 0.9070 0.9070
2241.883751 0.9069 0.9064 0.9060 0.9060 0.9060
2246.234110 0.9060 0.9060 0.9060 0.9060 0.9060
2250.584468 0.9060 0.9060 0.9058 0.9048 0.9040
2254.934827 0.9040 0.9040 0.9040 0.9039 0.9034
2259.285186 0.9029 0.9024 0.9018 0.9008 0.8999
2263.635545 0.8994 0.8988 0.8978 0.8968 0.8958
2267.985903 0.8950 0.8950 0.8947 0.8932 0.8920
2272.336262 0.8920 0.8919 0.8914 0.8908 0.8898
2276.686621 0.8888 0.8878 0.8868 0.8858 0.8850
2281.036980 0.8850 0.8850 0.8850 0.8852 0.8862
2285.387338 0.8871 0.8876 0.8880 0.8880 0.8883
2289.737697 0.8898 0.8910 0.8910 0.8910 0.8910
2294.088056 0.8910 0.8910 0.8908 0.8898 0.8890
2298.438415 0.8890 0.8888 0.8878 0.8867 0.8852
2302.788773 0.8838 0.8828 0.8820 0.8820 0.8819
2307.139132 0.8814 0.8806 0.8786 0.8765 0.8740
2311.489491 0.8720 0.8720 0.8718 0.8708 0.8691
2315.839850 0.8651 0.8619 0.8614 0.8599 0.8549
2320.190208 0.8506 0.8486 0.8462 0.8422 0.8387
2324.540567 0.8372 0.8358 0.8348 0.8335 0.8310
2328.890926 0.8285 0.8260 0.8237 0.8222 0.8209
2333.241285 0.8204 0.8197 0.8182 0.8169 0.8164
2337.591643 0.8158 0.8148 0.8138 0.8128 0.8116
2341.942002 0.8096 0.8076 0.8056 0.8036 0.8016
2346.292361 0.7994 0.7969 0.7948 0.7938 0.7921
2350.642720 0.7881 0.7843 0.7813 0.7785 0.7765
2354.993078 0.7749 0.7744 0.7735 0.7715 0.7697
2359.343437 0.7682 0.7668 0.7658 0.7649 0.7644
2363.693796 0.7639 0.7634 0.7626 0.7611 0.7600
2368.044155 0.7600 0.7599 0.7594 0.7588 0.7578
2372.394513 0.7570 0.7570 0.7570 0.7570 0.7569
2376.744872 0.7564 0.7555 0.7535 0.7511 0.7477
2381.095231 0.7446 0.7431 0.7412 0.7382 0.7347
2385.445590 0.7297 0.7251 0.7216 0.7181 0.7146
2389.795948 0.7114 0.7089 0.7065 0.7045 0.7022
2394.146307 0.6992 0.6965 0.6945 0.6927 0.6917
2398.496666 0.6893 0.6828 0.6758 0.6678 0.6604
2402.847025 0.6544 0.6491 0.6456 0.6419 0.6379
2407.197383 0.6346 0.6331 0.6299 0.6219 0.6145
2411.547742 0.6090 0.6030 0.5955 0.5885 0.5830
2415.898101 0.5785 0.5764 0.5733 0.5673 0.5613
2420.248460 0.5553 0.5476 0.5356 0.5253 0.5193
2424.598818 0.5144 0.5124 0.5089 0.5014 0.4938
2428.949177 0.4858 0.4779 0.4704 0.4618 0.4503
2433.299536 0.4399 0.4323 0.4249 0.4179 0.4118
2437.649895 0.4078 0.4035 0.3985 0.3916 0.3801
2442.000253 0.3697 0.3617 0.3534 0.3444 0.3373
2446.350612 0.3348 0.3303 0.3208 0.3107 0.2992
2450.700971 0.2872 0.2741 0.2622 0.2532 0.2456
2455.051330 0.2411 0.2369 0.2334 0.2278 0.2173
2459.401688 0.2068 0.1963 0.1876 0.1831 0.1782
2463.752047 0.1722 0.1669 0.1634 0.1598 0.1558
2468.102406 0.1513 0.1458 0.1410 0.1380 0.1346
2472.452765 0.1301 0.1267 0.1257 0.1245 0.1230
2476.803123 0.1214 0.1194 0.1175 0.1160 0.1145
2481.153482 0.1130 0.1120 0.1120 0.1118 0.1113
2485.503841 0.1110 0.1110 0.1112 0.1117 0.1120
2489.854200 0.1120 0.1125 0.1140 0.1153 0.1163
2494.204558 0.1172 0.1177 0.1182 0.1187 0.1195
2498.554917 0.1210 0.1225 0.1240 0.1252 0.1257
2502.905276 0.1262 0.1267 0.1275 0.1290 0.1310
2507.255635 0.1340 0.1370 0.1400 0.1425 0.1440
2511.605993 0.1460 0.1490 0.1518 0.1543 0.1565
2515.956352 0.1580 0.1600 0.1630 0.1662 0.1697
2520.306711 0.1734 0.1774 0.1816 0.1861 0.1904
2524.657070 0.1944 0.1977 0.1997 0.2031 0.2091
2529.007428 0.2148 0.2198 0.2249 0.2304 0.2357
2533.357787 0.2407 0.2445 0.2460 0.2477 0.2497
2537.708146 0.2528 0.2578 0.2634 0.2699 0.2778
2542.058505 0.2883 0.2979 0.3059 0.3117 0.3137
2546.408863 0.3155 0.3170 0.3196 0.3241 0.3288
2550.759222 0.3338 0.3379 0.3404 0.3436 0.3481
2555.109581 0.3514 0.3524 0.3538 0.3558 0.3583
2559.459940 0.3618 0.3653 0.3688 0.3731 0.3786
2563.810298 0.3841 0.3896 0.3952 0.4012 0.4067
2568.160657 0.4112 0.4157 0.4202 0.4241 0.4271
2572.511016 0.4303 0.4338 0.4376 0.4416 0.4452
2576.861375 0.4482 0.4529 0.4604 0.4673 0.4733
2581.211733 0.4791 0.4846 0.4897 0.4942 0.4982
2585.562092 0.5011 0.5051 0.5106 0.5163 0.5223
2589.912451 0.5295 0.5386 0.5474 0.5559 0.5658
2594.262810 0.5778 0.5862 0.5892 0.5932 0.5987
2598.613168 0.6066 0.6181 0.6256 0.6271 0.6320
2602.963527 0.6420 0.6502 0.6557 0.6620 0.6695
2607.313886 0.6815 0.7007 0.7159 0.7254 0.7345
2611.664245 0.7430 0.7511 0.7586 0.7652 0.7707
2616.014603 0.7748 0.7768 0.7813 0.7893 0.7956
2620.364962 0.7996 0.8042 0.8097 0.8150 0.8200
2624.715321 0.8246 0.8287 0.8316 0.8331 0.8357
2629.065680 0.8397 0.8424 0.8434 0.8453 0.8483
2633.416038 0.8508 0.8528 0.8546 0.8561 0.8572
2637.766397 0.8577 0.8580 0.8580 0.8586 0.8601
2642.116756 0.8614 0.8624 0.8630 0.8630 0.8630
2646.467115 0.8630 0.8628 0.8623 0.8618 0.8613
2650.817473 0.8604 0.8589 0.8565 0.8530 0.8493
2655.167832 0.8453 0.8404 0.8344 0.8134 0.7724
2659.518191 0.7423 0.7267 0.7144 0.7064 0.6980
2663.868550 0.6890 0.6764 0.6594 0.6420 0.6240
2668.218908 0.6118 0.6068 0.6062 0.6112 0.6381
2672.569267 0.6925 0.7312 0.7496 0.7681 0.7866
2676.919626 0.8021 0.8137 0.8294 0.8499 0.8679
2681.269985 0.8829 0.8949 0.9034 0.9087 0.9102
2685.620343 0.9110 0.9110 0.9117 0.9132 0.9147
2689.970702 0.9162 0.9175 0.9185 0.9190 0.9190
2694.321061 0.9190 0.9190 0.9190 0.9190 0.9188
2698.671420 0.9183 0.9180 0.9180 0.9178 0.9173
2703.021778 0.9165 0.9155 0.9148 0.9143 0.9135
2707.372137 0.9125 0.9106 0.9076 0.9055 0.9045
2711.722496 0.9031 0.9010 0.8983 0.8948 0.8928
2716.072855 0.8923 0.8922 0.8927 0.8952 0.8997
2720.423213 0.9039 0.9079 0.9119 0.9159 0.9199
2724.773572 0.9239 0.9272 0.9297 0.9310 0.9310
2729.123931 0.9315 0.9325 0.9332 0.9337 0.9338
2733.474290 0.9333 0.9323 0.9308 0.9298 0.9293
2737.824648 0.9285 0.9275 0.9270 0.9270 0.9277
2742.175007 0.9292 0.9307 0.9322 0.9330 0.9330
2746.525366 0.9332 0.9337 0.9350 0.9370 0.9385
2750.875725 0.9395 0.9403 0.9408 0.9413 0.9418
2755.226083 0.9420 0.9420 0.9425 0.9435 0.9440
2759.576442 0.9440 0.9440 0.9440 0.9440 0.9440
2763.926801 0.9440 0.9440 0.9435 0.9425 0.9420
2768.277160 0.9420 0.9417 0.9412 0.9410 0.9410
2772.627518 0.9410 0.9410 0.9413 0.9418 0.9420
2776.977877 0.9420 0.9420 0.9420 0.9417 0.9412
2781.328236 0.9407 0.9402 0.9389 0.9369 0.9355
2785.678595 0.9345 0.9340 0.9340 0.9337 0.9332
2790.028953 0.9325 0.9315 0.9294 0.9264 0.9229
2794.379312 0.9189 0.9162 0.9147 0.9130 0.9110
2798.729671 0.9089 0.9069 0.9049 0.9029 0.9004
2803.080030 0.8974 0.8947 0.8922 0.8899 0.8879
2807.430388 0.8843 0.8793 0.8751 0.8716 0.8671
2811.780747 0.8616 0.8577 0.8552 0.8537 0.8532
2816.131106 0.8525 0.8515 0.8507 0.8502 0.8494
2820.481465 0.8484 0.8480 0.8480 0.8480 0.8480
2824.831823 0.8480 0.8480 0.8477 0.8472 0.8467
2829.182182 0.8462 0.8449 0.8429 0.8412 0.8397
2833.532541 0.8387 0.8382 0.8374 0.8364 0.8360
2837.882900 0.8360 0.8349 0.8329 0.8317 0.8312
2842.233258 0.8268 0.8193 0.8143 0.8113 0.8064
2846.583617 0.7999 0.7886 0.7736 0.7598 0.7468
2850.933976 0.7323 0.7167 0.7057 0.6982 0.6907
2855.284335 0.6832 0.6740 0.6635 0.6478 0.6283
2859.634693 0.6083 0.5878 0.5587 0.5233 0.4923
2863.985052 0.4648 0.4405 0.4185 0.3965 0.3745
2868.335411 0.3616 0.3555 0.3483 0.3403 0.3247
2872.685770 0.3037 0.2950 0.2950 0.3073 0.3283
2877.036128 0.3393 0.3433 0.3610 0.3885 0.4073
2881.386487 0.4198 0.4337 0.4487 0.4556 0.4566
2885.736846 0.4576 0.4586 0.4590 0.4590 0.4530
2890.087205 0.4430 0.4301 0.4151 0.4075 0.4050
2894.437563 0.4019 0.3984 0.3905 0.3795 0.3685
2898.787922 0.3575 0.3465 0.3355 0.3248 0.3143
2903.138281 0.3034 0.2923 0.2880 0.2880 0.2913
2907.488640 0.2968 0.3026 0.3086 0.3146 0.3206
2911.838998 0.3269 0.3334 0.3387 0.3432 0.3459
2916.189357 0.3474 0.3480 0.3480 0.3444 0.3384
2920.539716 0.3308 0.3222 0.3115 0.2995 0.2885
2924.890075 0.2780 0.2690 0.2610 0.2453 0.2248
2929.240433 0.2136 0.2081 0.2035 0.1995 0.1878
2933.590792 0.1713 0.1650 0.1650 0.1715 0.1820
2937.941151 0.1888 0.1933 0.1959 0.1974 0.1999
2942.291510 0.2029 0.2065 0.2105 0.2120 0.2120
2946.641868 0.2126 0.2136 0.2140 0.2140 0.2127
2950.992227 0.2107 0.2069 0.2019 0.1969 0.1919
2955.342586 0.1884 0.1859 0.1708 0.1488 0.1304
2959.692945 0.1139 0.1013 0.0908 0.0799 0.0689
2964.043303 0.0519 0.0314 0.0218 0.0183 0.0157
2968.393662 0.0137 0.0114 0.0089 0.0070 0.0055
2972.744021 0.0050 0.0050 0.0053 0.0058 0.0060
2977.094380 0.0060 0.0067 0.0077 0.0083 0.0088
2981.444738 0.0090 0.0090 0.0100 0.0115 0.0127
2985.795097 0.0137 0.0150 0.0165 0.0238 0.0343
2990.145456 0.0672 0.1121 0.1454 0.1729 0.2000
2994.495815 0.2270 0.2467 0.2627 0.2883 0.3188
2998.846173 0.3682 0.4272 0.4659 0.4944 0.5229
3003.196532 0.5514 0.5769 0.6009 0.6156 0.6256
3007.546891 0.6387 0.6533 0.6641 0.6731 0.6943
3011.897250 0.7213 0.7435 0.7635 0.7727 0.7767
3016.247608 0.7810 0.7855 0.7968 0.8113 0.8214
3020.597967 0.8294 0.8347 0.8387 0.8437 0.8492
3024.948326 0.8524 0.8544 0.8574 0.8609 0.8655
3029.298685 0.8704 0.8737 0.8762 0.8804 0.8854
3033.649043 0.8898 0.8938 0.8967 0.8992 0.9014
3037.999402 0.9034 0.9064 0.9099 0.9120 0.9135
3042.349761 0.9154 0.9174 0.9191 0.9206 0.9224
3046.700120 0.9244 0.9254 0.9259 0.9278 0.9303
3051.050478 0.9320 0.9335 0.9340 0.9340 0.9350
3055.400837 0.9365 0.9373 0.9378 0.9387 0.9397
3059.751196 0.9407 0.9417 0.9427 0.9437 0.9444
3064.101555 0.9449 0.9454 0.9459 0.9467 0.9477
3068.451913 0.9484 0.9489 0.9497 0.9507 0.9510
3072.802272 0.9510 0.9514 0.9519 0.9524 0.9529
3077.152631 0.9537 0.9547 0.9550 0.9550 0.9550
3081.502990 0.9550 0.9550 0.9550 0.9550 0.9550
3085.853348 0.9550 0.9550 0.9550 0.9550 0.9554
3090.203707 0.9559 0.9560 0.9560 0.9560 0.9560
3094.554066 0.9560 0.9560 0.9560 0.9560 0.9560
3098.904425 0.9560 0.9560 0.9560 0.9560 0.9560
3103.254783 0.9560 0.9560 0.9560 0.9560 0.9560
3107.605142 0.9560 0.9560 0.9560 0.9560 0.9560
3111.955501 0.9556 0.9551 0.9550 0.9550 0.9550
3116.305860 0.9550 0.9550 0.9550 0.9543 0.9533
3120.656218 0.9530 0.9530 0.9530 0.9530 0.9530
3125.006577 0.9530 0.9530 0.9530 0.9530 0.9530
3129.356936 0.9530 0.9530 0.9530 0.9530 0.9530
3133.707295 0.9530 0.9526 0.9521 0.9520 0.9520
3138.057653 0.9520 0.9520 0.9516 0.9511 0.9510
3142.408012 0.9510 0.9510 0.9510 0.9502 0.9492
3146.758371 0.9490 0.9490 0.9486 0.9481 0.9480
3151.108730 0.9480 0.9472 0.9462 0.9456 0.9451
3155.459088 0.9446 0.9441 0.9440 0.9440 0.9440
3159.809447 0.9440 0.9432 0.9422 0.9420 0.9420
3164.159806 0.9416 0.9411 0.9410 0.9410 0.9406
3168.510165 0.9401 0.9392 0.9382 0.9364 0.9344
3172.860523 0.9336 0.9331 0.9322 0.9312 0.9306
3177.210882 0.9301 0.9300 0.9300 0.9296 0.9291
3181.561241 0.9290 0.9290 0.9290 0.9290 0.9294
3185.911600 0.9299 0.9300 0.9300 0.9300 0.9300
3190.261958 0.9304 0.9309 0.9318 0.9328 0.9330
3194.612317 0.9330 0.9330 0.9330 0.9342 0.9357
3198.962676 0.9360 0.9360 0.9364 0.9369 0.9370
3203.313035 0.9370 0.9370 0.9370 0.9370 0.9370
3207.663393 0.9370 0.9370 0.9370 0.9370 0.9366
3212.013752 0.9361 0.9360 0.9360 0.9360 0.9360
3216.364111 0.9360 0.9360 0.9360 0.9360 0.9352
3220.714470 0.9342 0.9328 0.9313 0.9310 0.9310
3225.064828 0.9290 0.9265 0.9260 0.9260 0.9256
3229.415187 0.9251 0.9242 0.9232 0.9230 0.9230
3233.765546 0.9226 0.9221 0.9220 0.9220 0.9224
3238.115905 0.9229 0.9238 0.9248 0.9250 0.9250
3242.466263 0.9254 0.9259 0.9264 0.9269 0.9278
3246.816622 0.9288 0.9298 0.9308 0.9310 0.9310
3251.166981 0.9318 0.9328 0.9334 0.9339 0.9340
3255.517340 0.9340 0.9348 0.9358 0.9364 0.9369
3259.867698 0.9374 0.9379 0.9380 0.9380 0.9388
3264.218057 0.9398 0.9400 0.9400 0.9400 0.9400
3268.568416 0.9400 0.9400 0.9400 0.9400 0.9400
3272.918775 0.9400 0.9400 0.9400 0.9400 0.9400
3277.269133 0.9400 0.9400 0.9392 0.9382 0.9376
3281.619492 0.9371 0.9366 0.9361 0.9360 0.9360
3285.969851 0.9351 0.9341 0.9340 0.9340 0.9340
3290.320210 0.9340 0.9336 0.9331 0.9321 0.9311
3294.670568 0.9306 0.9301 0.9296 0.9291 0.9281
3299.020927 0.9271 0.9261 0.9251 0.9241 0.9231
3303.371286 0.9221 0.9211 0.9192 0.9172 0.9157
3307.721645 0.9142 0.9131 0.9121 0.9116 0.9111
3312.072003 0.9106 0.9101 0.9100 0.9100 0.9100
3316.422362 0.9100 0.9104 0.9109 0.9110 0.9110
3320.772721 0.9114 0.9119 0.9120 0.9120 0.9129
3325.123080 0.9139 0.9140 0.9140 0.9140 0.9140
3329.473438 0.9153 0.9168 0.9174 0.9179 0.9184
3333.823797 0.9189 0.9199 0.9209 0.9210 0.9210
3338.174156 0.9210 0.9210 0.9215 0.9220 0.9225
3342.524515 0.9230 0.9239 0.9249 0.9250 0.9250
3346.874873 0.9250 0.9250 0.9250 0.9250 0.9250
3351.225232 0.9250 0.9254 0.9259 0.9260 0.9260
3355.575591 0.9265 0.9270 0.9270 0.9270 0.9270
3359.925950 0.9270 0.9284 0.9299 0.9305 0.9310
3364.276308 0.9310 0.9310 0.9310 0.9310 0.9310
3368.626667 0.9310 0.9310 0.9310 0.9305 0.9300
3372.977026 0.9300 0.9300 0.9286 0.9271 0.9265
3377.327385 0.9260 0.9255 0.9250 0.9241 0.9231
3381.677743 0.9230 0.9230 0.9230 0.9230 0.9230
3386.028102 0.9230 0.9230 0.9230 0.9239 0.9249
3390.378461 0.9250 0.9250 0.9255 0.9260 0.9260
3394.728820 0.9260 0.9265 0.9270 0.9279 0.9289
3399.079178 0.9295 0.9300 0.9305 0.9310 0.9310
3403.429537 0.9310 0.9319 0.9329 0.9330 0.9330
3407.779896 0.9335 0.9340 0.9340 0.9340 0.9349
3412.130255 0.9359 0.9360 0.9360 0.9365 0.9370
3416.480613 0.9375 0.9380 0.9380 0.9380 0.9389
3420.830972 0.9399 0.9400 0.9400 0.9405 0.9410
3425.181331 0.9415 0.9420 0.9420 0.9420 0.9430
3429.531690 0.9440 0.9440 0.9440 0.9445 0.9450
3433.882048 0.9455 0.9460 0.9460 0.9460 0.9470
3438.232407 0.9480 0.9485 0.9490 0.9509 0.9529
3442.582766 0.9540 0.9550 0.9555 0.9560 0.9565
3446.933125 0.9570 0.9570 0.9570 0.9570 0.9570
3451.283483 0.9580 0.9590 0.9595 0.9600 0.9605
3455.633842 0.9610 0.9620 0.9630 0.9630 0.9630
3459.984201 0.9635 0.9640 0.9645 0.9650 0.9650
3464.334560 0.9650 0.9650 0.9650 0.9660 0.9670
3468.684918 0.9670 0.9670 0.9675 0.9680 0.9680
3473.035277 0.9680 0.9690 0.9700 0.9700 0.9700
3477.385636 0.9700 0.9700 0.9700 0.9700 0.9720
3481.735995 0.9740 0.9745 0.9750 0.9750 0.9750
3486.086353 0.9750 0.9750 0.9750 0.9750 0.9755
3490.436712 0.9760 0.9760 0.9760 0.9760 0.9760
3494.787071 0.9770 0.9780 0.9780 0.9780 0.9785
3499.137430 0.9790 0.9790 0.9790 0.9795 0.9800
3503.487788 0.9800 0.9800 0.9810 0.9820 0.9825
3507.838147 0.9830 0.9830 0.9830 0.9840 0.9850
3512.188506 0.9850 0.9850 0.9855 0.9860 0.9860
3516.538865 0.9860 0.9865 0.9870 0.9870 0.9870
3520.889223 0.9865 0.9860 0.9860 0.9860 0.9865
3525.239582 0.9870 0.9870 0.9870 0.9870 0.9870
3529.589941 0.9870 0.9870 0.9880 0.9890 0.9890
3533.940300 0.9890 0.9890 0.9890 0.9895 0.9900
3538.290658 0.9900 0.9900 0.9900 0.9900 0.9900
3542.641017 0.9900 0.9905 0.9910 0.9910 0.9910
3546.991376 0.9920 0.9930 0.9930 0.9930 0.9935
3551.341735 0.9940 0.9940 0.9940 0.9940 0.9940
3555.692093 0.9940 0.9940 0.9940 0.9940 0.9940
3560.042452 0.9940 0.9940 0.9940 0.9940 0.9940
3564.392811 0.9940 0.9940 0.9940 0.9940 0.9940
3568.743170 0.9940 0.9945 0.9950 0.9960 0.9970
3573.093528 0.9975 0.9980 0.9980 0.9980 0.9980
3577.443887 0.9980 0.9975 0.9970 0.9960 0.9950
3581.794246 0.9945 0.9940 0.9935 0.9930 0.9930
3586.144605 0.9930 0.9935 0.9941 0.9961 0.9980
3590.494963 0.9980 0.9981 0.9991 1.0000 1.0000
3594.845322 1.0000 1.0000 1.0000 1.0000 1.0000
3599.195681 1.0000 0.9999 0.9984 0.9969 0.9954
3603.546040 0.9940 0.9935 0.9928 0.9898 0.9869
3607.896398 0.9859 0.9849 0.9839 0.9831 0.9841
3612.246757 0.9850 0.9855 0.9860 0.9865 0.9871
3616.597116 0.9881 0.9890 0.9890 0.9891 0.9901
3620.947475 0.9912 0.9932 0.9951 0.9961 0.9970
3625.297833 0.9975 0.9981 0.9996 1.0010 1.0010
3629.648192 1.0010 1.0010 1.0010 1.0010 1.0010
3633.998551 1.0005 1.0000 1.0000 1.0000 1.0000
3638.348910 1.0000 1.0006 1.0010 1.0010 1.0010
3642.699268 1.0010 1.0011 1.0015 1.0020 1.0015
3647.049627 1.0010 1.0010 1.0010 1.0010 1.0010
3651.399986 1.0010 1.0010 1.0010 1.0010 1.0010
3655.750345 1.0010 1.0010 1.0010 1.0005 1.0000
3660.100703 1.0006 1.0010 1.0010 1.0010 1.0010
3664.451062 1.0010 1.0010 1.0010 1.0010 1.0011
3668.801421 1.0016 1.0020 1.0020 1.0019 1.0014
3673.151780 1.0010 1.0010 1.0010 1.0010 1.0010
3677.502138 1.0010 1.0010 1.0010 1.0011 1.0016
3681.852497 1.0020 1.0020 1.0021 1.0031 1.0041
3686.202856 1.0046 1.0050 1.0050 1.0050 1.0050
3690.553215 1.0051 1.0056 1.0060 1.0060 1.0060
3694.903573 1.0060 1.0060 1.0060 1.0060 1.0060
3699.253932 1.0059 1.0054 1.0049 1.0044 1.0040
3703.604291 1.0040 1.0040 1.0040 1.0039 1.0029
3707.954650 1.0020 1.0020 1.0019 1.0014 1.0010
3712.305008 1.0010 1.0010 1.0010 1.0009 1.0004
3716.655367 1.0000 1.0000 0.9999 0.9989 0.9980
3721.005726 0.9980 0.9980 0.9980 0.9982 0.9992
3725.356085 1.0000 1.0000 1.0001 1.0006 1.0010
3729.706443 1.0010 1.0010 1.0010 1.0010 1.0010
3734.056802 1.0011 1.0016 1.0020 1.0020 1.0020
3738.407161 1.0020 1.0020 1.0020 1.0020 1.0020
3742.757520 1.0020 1.0020 1.0020 1.0020 1.0019
3747.107878 1.0014 1.0010 1.0010 1.0010 1.0010
3751.458237 1.0010 1.0010 1.0009 1.0004 1.0000
3755.808596 1.0000 1.0000 1.0000 0.9998 0.9988
3760.158955 0.9980 0.9980 0.9980 0.9980 0.9979
3764.509313 0.9974 0.9968 0.9958 0.9950 0.9950
3768.859672 0.9950 0.9950 0.9949 0.9944 0.9940
3773.210031 0.9940 0.9940 0.9940 0.9940 0.9940
3777.560390 0.9940 0.9940 0.9940 0.9940 0.9940
3781.910748 0.9940 0.9940 0.9940 0.9940 0.9940
##END=
