##TITLE=PROPANOIC ACID, 3-HYDROXY-2[3-(2-CHLOROETHYL)UREIDO]-
##JCAMP-DX=4.24
##DATA TYPE=INFRARED SPECTRUM
##CLASS=COBLENTZ III
##ORIGIN=SOUTHERN RESEARCH INSTITUTE
##OWNER=COBLENTZ SOCIETY
Collection (C) 2018 copyright by the U.S. Secretary of Commerce
on behalf of the United States of America. All rights reserved.
##DATE=1972/09/22
##NAMES=N-([(2-chloroethyl)amino]carbonyl)serine
##MOLFORM=C6 H11 Cl N2 O4
##SOURCE REFERENCE=COBLENTZ NO. 10420
##$NIST ID=B6010420
##$NIST SOURCE=COBLENTZ
##$NIST IMAGE=cob10420
##SPECTROMETER/DATA SYSTEM=PERKIN-ELMER 621
##STATE=SOLID (1 mg / 500 mg KBr DISC)
##PATH LENGTH=
$$ PURITY - ANALYTICAL
##SAMPLING PROCEDURE=TRANSMISSION
##RESOLUTION=4
##DATA PROCESSING=DIGITIZED BY NIST FROM HARD COPY (FROM TWO SEGMENTS)
##XUNITS=1/CM
##YUNITS=TRANSMITTANCE
##XFACTOR=1.000000
##YFACTOR=1
##DELTAX=1.308902
##FIRSTX=255.236
##LASTX=4000.01
##FIRSTY=0.147
##MAXX=4000.01
##MINX=255.236
##MAXY=0.9143
##MINY=0.053005
##NPOINTS=2862
##XYDATA=(X++(Y..Y))
255.236000 0.1470 0.1520 0.1580 0.1600 0.1660
261.780511 0.1670 0.1899 0.2009 0.2099 0.2219
268.325022 0.2310 0.2360 0.2390 0.2450 0.2560
274.869533 0.2660 0.2770 0.2869 0.2979 0.3069
281.414044 0.3170 0.3280 0.3380 0.3490 0.3550
287.958555 0.3719 0.3839 0.3930 0.3980 0.4020
294.503066 0.4050 0.4100 0.4160 0.4240 0.4280
301.047577 0.4360 0.4390 0.4400 0.4430 0.4698
307.592089 0.4710 0.4940 0.5160 0.5689 0.6129
314.136600 0.6140 0.6160 0.6160 0.6190 0.6190
320.681111 0.6190 0.6190 0.6190 0.6190 0.6190
327.225622 0.6190 0.6190 0.6190 0.6190 0.6180
333.770133 0.6180 0.6160 0.6140 0.6140 0.6130
340.314644 0.6110 0.6090 0.6060 0.6030 0.6010
346.859155 0.5980 0.5970 0.5960 0.5960 0.5970
353.403666 0.5980 0.6020 0.6100 0.6199 0.6299
359.948177 0.6390 0.6490 0.6580 0.6670 0.6780
366.492688 0.6870 0.6960 0.7040 0.7129 0.7209
373.037199 0.7290 0.7350 0.7420 0.7470 0.7500
379.581710 0.7510 0.7520 0.7520 0.7520 0.7520
386.126221 0.7520 0.7520 0.7520 0.7520 0.7520
392.670732 0.7520 0.7510 0.7510 0.7500 0.7490
399.215243 0.7470 0.7460 0.7430 0.7410 0.7390
405.759754 0.7380 0.7380 0.7380 0.7380 0.7390
412.304266 0.7390 0.7390 0.7390 0.7380 0.7380
418.848777 0.7380 0.7370 0.7350 0.7320 0.7260
425.393288 0.7170 0.7080 0.6950 0.6820 0.6690
431.937799 0.6670 0.6690 0.6790 0.6939 0.7109
438.482310 0.7220 0.7350 0.7450 0.7460 0.7470
445.026821 0.7470 0.7460 0.7460 0.7430 0.7420
451.571332 0.7410 0.7380 0.7350 0.7300 0.7280
458.115843 0.7220 0.7160 0.7120 0.7080 0.7050
464.660354 0.7040 0.7030 0.7010 0.6990 0.6950
471.204865 0.6900 0.6820 0.6750 0.6740 0.6740
477.749376 0.6730 0.6730 0.6730 0.6710 0.6700
484.293887 0.6670 0.6640 0.6620 0.6620 0.6640
490.838398 0.6640 0.6660 0.6700 0.6710 0.6710
497.382909 0.6700 0.6690 0.6670 0.6660 0.6650
503.927420 0.6650 0.6640 0.6640 0.6640 0.6610
510.471931 0.6600 0.6560 0.6520 0.6450 0.6390
517.016443 0.6320 0.6230 0.6150 0.6060 0.6010
523.560954 0.5980 0.6010 0.6050 0.6090 0.6140
530.105465 0.6220 0.6270 0.6330 0.6410 0.6470
536.649976 0.6500 0.6540 0.6540 0.6560 0.6570
543.194487 0.6570 0.6570 0.6570 0.6570 0.6570
549.738998 0.6570 0.6570 0.6570 0.6570 0.6580
556.283509 0.6580 0.6570 0.6570 0.6570 0.6560
562.828020 0.6540 0.6540 0.6530 0.6530 0.6500
569.372531 0.6490 0.6470 0.6440 0.6410 0.6370
575.917042 0.6330 0.6300 0.6260 0.6220 0.6180
582.461553 0.6150 0.6100 0.6060 0.6010 0.5970
589.006064 0.5900 0.5840 0.5760 0.5670 0.5551
595.550575 0.5490 0.5420 0.5290 0.5170 0.5080
602.095086 0.5030 0.4940 0.4840 0.4751 0.4661
608.639597 0.4570 0.4490 0.4470 0.4470 0.4540
615.184108 0.4859 0.4960 0.4960 0.4950 0.4940
621.728620 0.4840 0.4770 0.4700 0.4660 0.4610
628.273131 0.4520 0.4490 0.4470 0.4450 0.4430
634.817642 0.4410 0.4400 0.4400 0.4400 0.4390
641.362153 0.4390 0.4390 0.4400 0.4400 0.4400
647.906664 0.4410 0.4410 0.4430 0.4440 0.4450
654.451175 0.4480 0.4490 0.4520 0.4540 0.4580
660.995686 0.4650 0.4730 0.4920 0.5090 0.5240
667.540197 0.5370 0.5579 0.5670 0.5760 0.5840
674.084708 0.5900 0.5970 0.6050 0.6110 0.6240
680.629219 0.6350 0.6440 0.6530 0.6620 0.6700
687.173730 0.6790 0.6860 0.6940 0.7000 0.7070
693.718241 0.7130 0.7200 0.7250 0.7290 0.7340
700.262752 0.7380 0.7420 0.7450 0.7470 0.7500
706.807263 0.7510 0.7550 0.7560 0.7600 0.7620
713.351774 0.7630 0.7630 0.7630 0.7620 0.7620
719.896286 0.7600 0.7590 0.7550 0.7540 0.7520
726.440797 0.7500 0.7470 0.7430 0.7410 0.7380
732.985308 0.7370 0.7350 0.7340 0.7330 0.7320
739.529819 0.7290 0.7260 0.7220 0.7180 0.7180
746.074330 0.7340 0.7420 0.7619 0.7719 0.7790
752.618841 0.7830 0.7840 0.7850 0.7860 0.7890
759.163352 0.7900 0.7920 0.7930 0.7930 0.7890
765.707863 0.7850 0.7800 0.7760 0.7720 0.7670
772.252374 0.7590 0.7510 0.7430 0.7340 0.7429
778.796885 0.7620 0.7890 0.7930 0.7930 0.7900
785.341396 0.7800 0.7710 0.7660 0.7561 0.7471
791.885907 0.7540 0.7800 0.7850 0.8020 0.8130
798.430418 0.8309 0.8469 0.8649 0.8660 0.8660
804.974929 0.8660 0.8650 0.8650 0.8640 0.8620
811.519440 0.8600 0.8570 0.8540 0.8530 0.8520
818.063951 0.8500 0.8480 0.8470 0.8440 0.8400
824.608463 0.8370 0.8330 0.8310 0.8270 0.8230
831.152974 0.8180 0.8130 0.8060 0.7980 0.7880
837.697485 0.7770 0.7710 0.7660 0.7561 0.7500
844.241996 0.7490 0.7500 0.7520 0.7560 0.7590
850.786507 0.7620 0.7620 0.7620 0.7600 0.7580
857.331018 0.7550 0.7430 0.7300 0.7210 0.7200
863.875529 0.7110 0.7090 0.7110 0.7130 0.7210
870.420040 0.7320 0.7380 0.7470 0.7520 0.7580
876.964551 0.7590 0.7600 0.7600 0.7620 0.7620
883.509062 0.7620 0.7600 0.7600 0.7600 0.7590
890.053573 0.7590 0.7550 0.7490 0.7420 0.7340
896.598084 0.7280 0.7220 0.7170 0.7130 0.7080
903.142595 0.7040 0.6990 0.6960 0.6920 0.6900
909.687106 0.6870 0.6840 0.6820 0.6810 0.6770
916.231617 0.6750 0.6710 0.6700 0.6700 0.6690
922.776128 0.6690 0.6670 0.6670 0.6660 0.6660
929.320640 0.6660 0.6670 0.6670 0.6690 0.6730
935.865151 0.6740 0.6900 0.7010 0.7110 0.7160
942.409662 0.7200 0.7200 0.7120 0.7030 0.6911
948.954173 0.6750 0.6710 0.6570 0.6570 0.6879
955.498684 0.7010 0.7179 0.7339 0.7380 0.7589
962.043195 0.7830 0.7890 0.7900 0.7900 0.7900
968.587706 0.7900 0.7900 0.7900 0.7900 0.7900
975.132217 0.7900 0.7900 0.7900 0.7900 0.7900
981.676728 0.7890 0.7890 0.7880 0.7880 0.7860
988.221239 0.7840 0.7800 0.7760 0.7710 0.7670
994.765750 0.7640 0.7600 0.7550 0.7421 0.7321
1001.310261 0.7220 0.7150 0.7070 0.7010 0.6960
1007.854772 0.6910 0.6870 0.6810 0.6750 0.6690
1014.399283 0.6600 0.6500 0.6370 0.6200 0.5561
1020.943794 0.5470 0.5370 0.5081 0.4772 0.4452
1027.488305 0.4140 0.4140 0.4500 0.4640 0.5498
1034.032817 0.5520 0.5510 0.5470 0.5430 0.5350
1040.577328 0.5280 0.5250 0.5250 0.5769 0.5850
1047.121839 0.5840 0.5631 0.5520 0.5291 0.5041
1053.666350 0.4750 0.4580 0.4580 0.4999 0.5160
1060.210861 0.5728 0.6159 0.6389 0.6400 0.6410
1066.755372 0.6410 0.6400 0.6400 0.6400 0.6370
1073.299883 0.6360 0.6320 0.6310 0.6300 0.6260
1079.844394 0.6230 0.6220 0.6200 0.6220 0.6310
1086.388905 0.6390 0.6480 0.6570 0.6660 0.6909
1092.933416 0.6940 0.6940 0.6920 0.6910 0.6880
1099.477927 0.6840 0.6740 0.6601 0.6431 0.6261
1106.022438 0.6100 0.5970 0.5880 0.5750 0.5660
1112.566949 0.5640 0.5670 0.5790 0.5929 0.6049
1119.111460 0.6350 0.6570 0.6750 0.6900 0.7000
1125.655971 0.7080 0.7130 0.7200 0.7210 0.7210
1132.200483 0.7210 0.7200 0.7200 0.7180 0.7170
1138.744994 0.7160 0.7130 0.7110 0.7110 0.7090
1145.289505 0.7080 0.7070 0.7050 0.7030 0.7000
1151.834016 0.6960 0.6940 0.6910 0.6880 0.6860
1158.378527 0.6810 0.6740 0.6650 0.6580 0.6500
1164.923038 0.6400 0.6280 0.6180 0.6051 0.5931
1171.467549 0.5830 0.5720 0.5630 0.5560 0.5510
1178.012060 0.5500 0.5470 0.5450 0.5410 0.5340
1184.556571 0.5280 0.5180 0.5090 0.5000 0.4900
1191.101082 0.4790 0.4690 0.4561 0.4431 0.4301
1197.645593 0.4180 0.4090 0.4030 0.4010 0.4010
1204.190104 0.4000 0.4000 0.4000 0.4000 0.3980
1210.734615 0.3920 0.3850 0.3710 0.3680 0.3670
1217.279126 0.3670 0.3670 0.3670 0.3670 0.3660
1223.823637 0.3640 0.3560 0.3460 0.3350 0.3250
1230.368148 0.3180 0.3080 0.2980 0.2950 0.2940
1236.912660 0.2940 0.2940 0.2940 0.2940 0.2940
1243.457171 0.2940 0.2950 0.2990 0.3030 0.3090
1250.001682 0.3160 0.3320 0.3490 0.3620 0.3730
1256.546193 0.3840 0.3930 0.4010 0.4090 0.4150
1263.090704 0.4220 0.4310 0.4450 0.4600 0.4610
1269.635215 0.4600 0.4570 0.4450 0.4410 0.4350
1276.179726 0.4330 0.4350 0.4400 0.4410 0.4470
1282.724237 0.4500 0.4540 0.4560 0.4570 0.4580
1289.268748 0.4600 0.4610 0.4660 0.4690 0.4710
1295.813259 0.4740 0.4820 0.4949 0.5089 0.5249
1302.357770 0.5540 0.5660 0.5720 0.5810 0.5880
1308.902281 0.5890 0.5880 0.5860 0.5830 0.5800
1315.446792 0.5790 0.5770 0.5770 0.5770 0.5770
1321.991303 0.5770 0.5770 0.5760 0.5680 0.5660
1328.535814 0.5640 0.5640 0.5670 0.5710 0.5790
1335.080325 0.5890 0.5970 0.6070 0.6130 0.6180
1341.624837 0.6190 0.6190 0.6180 0.6180 0.6180
1348.169348 0.6180 0.6180 0.6180 0.6180 0.6180
1354.713859 0.6180 0.6160 0.6150 0.6140 0.6140
1361.258370 0.6150 0.6190 0.6260 0.6330 0.6439
1367.802881 0.6530 0.6540 0.6540 0.6530 0.6520
1374.347392 0.6520 0.6530 0.6620 0.6690 0.6780
1380.891903 0.6790 0.6780 0.6770 0.6740 0.6710
1387.436414 0.6670 0.6650 0.6610 0.6600 0.6570
1393.980925 0.6570 0.6560 0.6560 0.6540 0.6530
1400.525436 0.6470 0.6390 0.6320 0.6230 0.6131
1407.069947 0.6010 0.5880 0.5730 0.5580 0.5500
1413.614458 0.5420 0.5260 0.5091 0.4921 0.4840
1420.158969 0.4710 0.4670 0.4650 0.4540 0.4500
1426.703480 0.4470 0.4440 0.4430 0.4440 0.4490
1433.247991 0.4580 0.4780 0.5120 0.5390 0.5640
1439.792502 0.5800 0.5979 0.6428 0.6430 0.6370
1446.337014 0.6350 0.6350 0.6430 0.6700 0.6700
1452.881525 0.6690 0.6451 0.6370 0.6320 0.6221
1459.426036 0.6140 0.6130 0.6140 0.6320 0.6530
1465.970547 0.6660 0.6790 0.6920 0.7030 0.7239
1472.515058 0.7250 0.7250 0.7220 0.7220 0.7210
1479.059569 0.7180 0.7130 0.7110 0.7090 0.7040
1485.604080 0.6980 0.6880 0.6790 0.6690 0.6580
1492.148591 0.6480 0.6390 0.6300 0.6220 0.6150
1498.693102 0.6000 0.5890 0.5830 0.5800 0.5770
1505.237613 0.5760 0.5750 0.5710 0.5630 0.5550
1511.782124 0.5500 0.5450 0.5340 0.5240 0.5150
1518.326635 0.5070 0.5040 0.5040 0.5030 0.5010
1524.871146 0.5010 0.5000 0.4980 0.4940 0.4870
1531.415657 0.4810 0.4710 0.4600 0.4481 0.4331
1537.960168 0.4160 0.4010 0.3840 0.3660 0.3490
1544.504680 0.3330 0.3160 0.3011 0.2881 0.2751
1551.049191 0.2410 0.2220 0.2090 0.1920 0.1770
1557.593702 0.1630 0.1421 0.1320 0.1290 0.1280
1564.138213 0.1260 0.1260 0.1260 0.1260 0.1260
1570.682724 0.1260 0.1260 0.1280 0.1290 0.1300
1577.227235 0.1340 0.1370 0.1410 0.1510 0.1580
1583.771746 0.1630 0.1750 0.1880 0.1999 0.2159
1590.316257 0.2310 0.2470 0.2600 0.2730 0.2830
1596.860768 0.2830 0.2840 0.2840 0.2830 0.2731
1603.405279 0.2670 0.2610 0.2540 0.2480 0.2400
1609.949790 0.2310 0.2220 0.2110 0.2000 0.1851
1616.494301 0.1620 0.1470 0.1180 0.1070 0.0940
1623.038812 0.0750 0.0650 0.0570 0.0540 0.0530
1629.583323 0.0540 0.0610 0.0670 0.0780 0.1010
1636.127834 0.1160 0.1320 0.1499 0.1679 0.1899
1642.672345 0.2140 0.2310 0.2480 0.2640 0.2870
1649.216857 0.3050 0.3200 0.3290 0.3350 0.3390
1655.761368 0.3420 0.3430 0.3430 0.3420 0.3350
1662.305879 0.3300 0.3250 0.3180 0.3130 0.3070
1668.850390 0.2990 0.2980 0.2980 0.2990 0.2990
1675.394901 0.3030 0.3090 0.3220 0.3240 0.3240
1681.939412 0.3220 0.3210 0.3160 0.3110 0.3070
1688.483923 0.3050 0.3070 0.3080 0.3120 0.3150
1695.028434 0.3200 0.3260 0.3330 0.3420 0.3500
1701.572945 0.3600 0.3690 0.3770 0.3840 0.3850
1708.117456 0.3850 0.3840 0.3770 0.3680 0.3520
1714.661967 0.3320 0.3011 0.2651 0.2262 0.1792
1721.206478 0.1760 0.1790 0.1930 0.2020 0.2190
1727.750989 0.2619 0.2999 0.3319 0.3589 0.3799
1734.295500 0.3960 0.4060 0.4090 0.4240 0.4390
1740.840011 0.4520 0.4650 0.4770 0.4899 0.5000
1747.384522 0.5110 0.5210 0.5320 0.5510 0.5590
1753.929034 0.5680 0.5770 0.5860 0.5940 0.6020
1760.473545 0.6140 0.6230 0.6300 0.6360 0.6430
1767.018056 0.6490 0.6540 0.6620 0.6700 0.6740
1773.562567 0.6780 0.6820 0.6860 0.6900 0.6950
1780.107078 0.6980 0.6990 0.7010 0.7070 0.7080
1786.651589 0.7090 0.7120 0.7160 0.7180 0.7210
1793.196100 0.7240 0.7260 0.7280 0.7300 0.7330
1799.740611 0.7340 0.7350 0.7380 0.7390 0.7410
1806.285122 0.7420 0.7430 0.7460 0.7500 0.7510
1812.829633 0.7540 0.7550 0.7580 0.7590 0.7630
1819.374144 0.7660 0.7670 0.7670 0.7680 0.7690
1825.918655 0.7710 0.7720 0.7750 0.7770 0.7800
1832.463166 0.7800 0.7810 0.7830 0.7840 0.7850
1839.007677 0.7880 0.7890 0.7920 0.7940 0.7960
1845.552188 0.7970 0.7980 0.7980 0.8000 0.8010
1852.096699 0.8020 0.8030 0.8060 0.8070 0.8090
1858.641211 0.8100 0.8100 0.8130 0.8140 0.8150
1865.185722 0.8160 0.8190 0.8200 0.8220 0.8230
1871.730233 0.8240 0.8260 0.8280 0.8310 0.8320
1878.274744 0.8320 0.8330 0.8330 0.8350 0.8350
1884.819255 0.8360 0.8370 0.8370 0.8400 0.8410
1891.363766 0.8440 0.8450 0.8470 0.8470 0.8480
1897.908277 0.8480 0.8480 0.8480 0.8490 0.8490
1904.452788 0.8500 0.8520 0.8530 0.8540 0.8570
1910.997299 0.8580 0.8600 0.8600 0.8600 0.8610
1917.541810 0.8610 0.8620 0.8620 0.8640 0.8640
1924.086321 0.8640 0.8650 0.8650 0.8660 0.8660
1930.630832 0.8670 0.8670 0.8690 0.8690 0.8700
1937.175343 0.8700 0.8710 0.8730 0.8730 0.8740
1943.719854 0.8740 0.8750 0.8770 0.8770 0.8770
1950.264365 0.8780 0.8780 0.8780 0.8790 0.8790
1956.808877 0.8810 0.8810 0.8820 0.8820 0.8820
1963.353388 0.8830 0.8830 0.8840 0.8840 0.8840
1969.897899 0.8840 0.8860 0.8870 0.8870 0.8870
1976.442410 0.8870 0.8870 0.8870 0.8880 0.8880
1982.986921 0.8880 0.8900 0.8900 0.8910 0.8910
1989.531432 0.8910 0.8920 0.8920 0.8920 0.8920
1996.075943 0.8910 0.8910 0.8920 0.8920 0.8920
2002.620454 0.8920 0.8940 0.8940 0.8940 0.8950
2009.164965 0.8950 0.8950 0.8950 0.8960 0.8960
2015.709476 0.8960 0.8960 0.8960 0.8979 0.8980
2022.253987 0.8980 0.8980 0.8980 0.8980 0.8980
2028.798498 0.8989 0.8990 0.8990 0.8990 0.8990
2035.343009 0.8990 0.8990 0.8990 0.8990 0.8990
2041.887520 0.8990 0.8990 0.8990 0.8990 0.8990
2048.432031 0.8990 0.8990 0.8990 0.8990 0.8990
2054.976542 0.8990 0.8990 0.8990 0.8990 0.8990
2061.521054 0.8990 0.8990 0.8990 0.8990 0.8990
2068.065565 0.8990 0.8990 0.8990 0.8998 0.9000
2074.610076 0.9007 0.9010 0.9025 0.9037 0.9040
2081.154587 0.9047 0.9050 0.9050 0.9064 0.9070
2087.699098 0.9070 0.9077 0.9080 0.9087 0.9090
2094.243609 0.9090 0.9090 0.9090 0.9090 0.9090
2100.788120 0.9103 0.9110 0.9110 0.9110 0.9110
2107.332631 0.9116 0.9120 0.9120 0.9120 0.9120
2113.877142 0.9120 0.9120 0.9120 0.9120 0.9120
2120.421653 0.9120 0.9120 0.9120 0.9120 0.9120
2126.966164 0.9120 0.9120 0.9120 0.9120 0.9120
2133.510675 0.9120 0.9120 0.9120 0.9120 0.9120
2140.055186 0.9120 0.9120 0.9120 0.9120 0.9120
2146.599697 0.9120 0.9120 0.9120 0.9120 0.9120
2153.144208 0.9120 0.9120 0.9120 0.9120 0.9120
2159.688719 0.9115 0.9110 0.9101 0.9090 0.9090
2166.233231 0.9090 0.9086 0.9080 0.9080 0.9080
2172.777742 0.9080 0.9080 0.9080 0.9076 0.9070
2179.322253 0.9070 0.9070 0.9070 0.9070 0.9062
2185.866764 0.9050 0.9050 0.9050 0.9050 0.9050
2192.411275 0.9050 0.9046 0.9040 0.9040 0.9040
2198.955786 0.9040 0.9040 0.9040 0.9040 0.9040
2205.500297 0.9040 0.9040 0.9040 0.9037 0.9030
2212.044808 0.9024 0.9010 0.9010 0.9010 0.9010
2218.589319 0.9010 0.9010 0.9010 0.9010 0.9010
2225.133830 0.9010 0.9010 0.9010 0.9008 0.9000
2231.678341 0.9000 0.8998 0.8990 0.8990 0.8988
2238.222852 0.8980 0.8976 0.8960 0.8960 0.8958
2244.767363 0.8950 0.8950 0.8950 0.8950 0.8950
2251.311874 0.8950 0.8948 0.8940 0.8940 0.8940
2257.856385 0.8937 0.8920 0.8920 0.8919 0.8910
2264.400896 0.8910 0.8909 0.8900 0.8898 0.8879
2270.945408 0.8869 0.8860 0.8860 0.8860 0.8860
2277.489919 0.8860 0.8860 0.8859 0.8840 0.8840
2284.034430 0.8840 0.8840 0.8830 0.8820 0.8809
2290.578941 0.8790 0.8780 0.8780 0.8780 0.8770
2297.123452 0.8750 0.8740 0.8730 0.8730 0.8710
2303.667963 0.8700 0.8690 0.8690 0.8671 0.8660
2310.212474 0.8641 0.8621 0.8610 0.8600 0.8581
2316.756985 0.8571 0.8570 0.8561 0.8560 0.8560
2323.301496 0.8542 0.8540 0.8531 0.8530 0.8521
2329.846007 0.8520 0.8502 0.8500 0.8491 0.8481
2336.390518 0.8480 0.8471 0.8470 0.8453 0.8450
2342.935029 0.8441 0.8440 0.8432 0.8430 0.8405
2349.479540 0.8392 0.8390 0.8374 0.8370 0.8362
2356.024051 0.8360 0.8360 0.8352 0.8350 0.8334
2362.568562 0.8330 0.8322 0.8320 0.8312 0.8310
2369.113074 0.8310 0.8310 0.8310 0.8310 0.8302
2375.657585 0.8300 0.8300 0.8285 0.8280 0.8251
2382.202096 0.8225 0.8206 0.8200 0.8193 0.8190
2388.746607 0.8190 0.8190 0.8183 0.8166 0.8153
2395.291118 0.8150 0.8143 0.8133 0.8130 0.8117
2401.835629 0.8103 0.8093 0.8077 0.8064 0.8054
2408.380140 0.8031 0.8007 0.7987 0.7974 0.7970
2414.924651 0.7964 0.7960 0.7948 0.7934 0.7924
2421.469162 0.7902 0.7884 0.7868 0.7848 0.7834
2428.013673 0.7819 0.7804 0.7794 0.7779 0.7764
2434.558184 0.7754 0.7739 0.7725 0.7715 0.7699
2441.102695 0.7690 0.7685 0.7680 0.7675 0.7670
2447.647206 0.7665 0.7650 0.7630 0.7610 0.7595
2454.191717 0.7585 0.7566 0.7545 0.7531 0.7511
2460.736228 0.7495 0.7476 0.7455 0.7436 0.7407
2467.280739 0.7386 0.7367 0.7346 0.7331 0.7312
2473.825251 0.7296 0.7286 0.7272 0.7260 0.7256
2480.369762 0.7246 0.7232 0.7220 0.7216 0.7206
2486.914273 0.7192 0.7180 0.7173 0.7156 0.7150
2493.458784 0.7143 0.7127 0.7120 0.7110 0.7087
2500.003295 0.7070 0.7047 0.7030 0.7007 0.6997
2506.547806 0.6987 0.6974 0.6957 0.6950 0.6947
2513.092317 0.6931 0.6907 0.6892 0.6867 0.6855
2519.636828 0.6837 0.6827 0.6817 0.6805 0.6790
2526.181339 0.6788 0.6780 0.6778 0.6770 0.6765
2532.725850 0.6748 0.6738 0.6724 0.6698 0.6686
2539.270361 0.6670 0.6668 0.6660 0.6658 0.6648
2545.814872 0.6635 0.6608 0.6595 0.6570 0.6568
2552.359383 0.6557 0.6537 0.6517 0.6499 0.6489
2558.903894 0.6480 0.6480 0.6480 0.6480 0.6480
2565.448405 0.6480 0.6480 0.6480 0.6480 0.6480
2571.992916 0.6480 0.6480 0.6480 0.6480 0.6480
2578.537428 0.6480 0.6480 0.6480 0.6480 0.6480
2585.081939 0.6480 0.6480 0.6480 0.6480 0.6480
2591.626450 0.6480 0.6480 0.6470 0.6450 0.6440
2598.170961 0.6440 0.6430 0.6390 0.6360 0.6350
2604.715472 0.6330 0.6330 0.6320 0.6310 0.6281
2611.259983 0.6280 0.6270 0.6270 0.6261 0.6241
2617.804494 0.6240 0.6240 0.6240 0.6240 0.6258
2624.349005 0.6269 0.6270 0.6279 0.6298 0.6309
2630.893516 0.6310 0.6319 0.6329 0.6330 0.6348
2637.438027 0.6359 0.6360 0.6360 0.6369 0.6370
2643.982538 0.6387 0.6399 0.6400 0.6408 0.6427
2650.527049 0.6438 0.6440 0.6440 0.6440 0.6448
2657.071560 0.6466 0.6478 0.6488 0.6498 0.6524
2663.616071 0.6538 0.6556 0.6560 0.6568 0.6578
2670.160582 0.6580 0.6595 0.6600 0.6600 0.6600
2676.705093 0.6600 0.6607 0.6610 0.6610 0.6610
2683.249605 0.6610 0.6610 0.6610 0.6610 0.6610
2689.794116 0.6610 0.6603 0.6586 0.6580 0.6573
2696.338627 0.6570 0.6563 0.6547 0.6533 0.6523
2702.883138 0.6520 0.6507 0.6500 0.6494 0.6484
2709.427649 0.6480 0.6474 0.6470 0.6470 0.6458
2715.972160 0.6450 0.6444 0.6440 0.6440 0.6440
2722.516671 0.6440 0.6440 0.6440 0.6434 0.6430
2729.061182 0.6419 0.6404 0.6394 0.6379 0.6365
2735.605693 0.6360 0.6355 0.6339 0.6330 0.6330
2742.150204 0.6325 0.6315 0.6310 0.6305 0.6290
2748.694715 0.6275 0.6265 0.6250 0.6240 0.6230
2755.239226 0.6220 0.6210 0.6200 0.6195 0.6190
2761.783737 0.6185 0.6180 0.6171 0.6156 0.6150
2768.328248 0.6146 0.6140 0.6136 0.6130 0.6122
2774.872759 0.6110 0.6106 0.6100 0.6088 0.6066
2781.417271 0.6056 0.6042 0.6030 0.6026 0.6020
2787.961782 0.6016 0.6006 0.6000 0.5993 0.5976
2794.506293 0.5966 0.5953 0.5937 0.5920 0.5897
2801.050804 0.5887 0.5873 0.5857 0.5847 0.5837
2807.595315 0.5824 0.5804 0.5781 0.5748 0.5711
2814.139826 0.5684 0.5661 0.5637 0.5627 0.5615
2820.684337 0.5587 0.5550 0.5547 0.5533 0.5508
2827.228848 0.5498 0.5485 0.5468 0.5458 0.5443
2833.773359 0.5418 0.5404 0.5374 0.5348 0.5332
2840.317870 0.5292 0.5256 0.5236 0.5218 0.5208
2846.862381 0.5196 0.5178 0.5170 0.5170 0.5168
2853.406892 0.5160 0.5160 0.5159 0.5150 0.5147
2859.951403 0.5129 0.5119 0.5110 0.5108 0.5088
2866.495914 0.5068 0.5049 0.5037 0.5010 0.5009
2873.040425 0.5000 0.4999 0.4990 0.4990 0.4989
2879.584936 0.4978 0.4949 0.4939 0.4919 0.4897
2886.129448 0.4839 0.4819 0.4789 0.4769 0.4729
2892.673959 0.4689 0.4649 0.4620 0.4610 0.4610
2899.218470 0.4610 0.4620 0.4640 0.4650 0.4650
2905.762981 0.4660 0.4660 0.4660 0.4660 0.4650
2912.307492 0.4640 0.4621 0.4601 0.4572 0.4532
2918.852003 0.4502 0.4491 0.4481 0.4452 0.4432
2925.396514 0.4375 0.4334 0.4312 0.4283 0.4271
2931.941025 0.4270 0.4279 0.4298 0.4300 0.4300
2938.485536 0.4300 0.4283 0.4280 0.4271 0.4261
2945.030047 0.4243 0.4206 0.4192 0.4182 0.4163
2951.574558 0.4160 0.4160 0.4176 0.4180 0.4196
2958.119069 0.4224 0.4238 0.4256 0.4276 0.4296
2964.663580 0.4324 0.4346 0.4365 0.4393 0.4438
2971.208091 0.4480 0.4520 0.4560 0.4600 0.4610
2977.752602 0.4632 0.4647 0.4657 0.4660 0.4667
2984.297113 0.4670 0.4670 0.4670 0.4670 0.4670
2990.841625 0.4670 0.4663 0.4660 0.4660 0.4660
2997.386136 0.4660 0.4660 0.4660 0.4660 0.4660
3003.930647 0.4660 0.4666 0.4670 0.4670 0.4683
3010.475158 0.4690 0.4696 0.4700 0.4706 0.4710
3017.019669 0.4710 0.4722 0.4736 0.4746 0.4750
3023.564180 0.4762 0.4770 0.4776 0.4780 0.4780
3030.108691 0.4786 0.4790 0.4801 0.4816 0.4825
3036.653202 0.4835 0.4851 0.4860 0.4871 0.4880
3043.197713 0.4890 0.4900 0.4905 0.4910 0.4915
3049.742224 0.4930 0.4940 0.4945 0.4950 0.4955
3056.286735 0.4960 0.4960 0.4960 0.4969 0.4980
3062.831246 0.4985 0.4990 0.4990 0.4994 0.5000
3069.375757 0.5004 0.5010 0.5019 0.5030 0.5034
3075.920268 0.5040 0.5040 0.5040 0.5040 0.5040
3082.464779 0.5044 0.5050 0.5050 0.5050 0.5050
3089.009290 0.5046 0.5040 0.5040 0.5040 0.5040
3095.553802 0.5037 0.5030 0.5023 0.5010 0.5010
3102.098313 0.5010 0.5007 0.5000 0.5000 0.5000
3108.642824 0.4997 0.4990 0.4990 0.4990 0.4990
3115.187335 0.4987 0.4980 0.4980 0.4980 0.4980
3121.731846 0.4980 0.4983 0.4990 0.4992 0.5000
3128.276357 0.5000 0.5002 0.5010 0.5017 0.5042
3134.820868 0.5054 0.5072 0.5080 0.5082 0.5090
3141.365379 0.5090 0.5090 0.5090 0.5090 0.5090
3147.909890 0.5090 0.5090 0.5090 0.5090 0.5090
3154.454401 0.5090 0.5090 0.5090 0.5090 0.5090
3160.998912 0.5090 0.5090 0.5090 0.5090 0.5090
3167.543423 0.5090 0.5089 0.5080 0.5080 0.5080
3174.087934 0.5080 0.5080 0.5080 0.5080 0.5080
3180.632445 0.5080 0.5080 0.5079 0.5070 0.5070
3187.176956 0.5070 0.5070 0.5070 0.5069 0.5050
3193.721468 0.5039 0.5010 0.5000 0.5000 0.4990
3200.265979 0.4980 0.4980 0.4960 0.4950 0.4950
3206.810490 0.4940 0.4921 0.4910 0.4900 0.4900
3213.355001 0.4881 0.4870 0.4861 0.4860 0.4832
3219.899512 0.4821 0.4792 0.4781 0.4752 0.4732
3226.444023 0.4703 0.4691 0.4663 0.4651 0.4641
3232.988534 0.4613 0.4601 0.4573 0.4544 0.4523
3239.533045 0.4494 0.4473 0.4444 0.4414 0.4393
3246.077556 0.4365 0.4335 0.4305 0.4267 0.4243
3252.622067 0.4223 0.4187 0.4147 0.4108 0.4068
3259.166578 0.4028 0.3988 0.3948 0.3900 0.3866
3265.711089 0.3837 0.3799 0.3767 0.3737 0.3692
3272.255600 0.3642 0.3592 0.3527 0.3465 0.3390
3278.800111 0.3318 0.3241 0.3169 0.3099 0.3022
3285.344622 0.2943 0.2877 0.2810 0.2748 0.2688
3291.889133 0.2635 0.2586 0.2543 0.2510 0.2487
3298.433645 0.2460 0.2437 0.2403 0.2364 0.2330
3304.978156 0.2294 0.2248 0.2204 0.2165 0.2137
3311.522667 0.2105 0.2065 0.2031 0.1995 0.1974
3318.067178 0.1964 0.1948 0.1934 0.1930 0.1936
3324.611689 0.1952 0.1972 0.1997 0.2033 0.2078
3331.156200 0.2123 0.2162 0.2208 0.2252 0.2297
3337.700711 0.2336 0.2371 0.2411 0.2441 0.2471
3344.245222 0.2516 0.2561 0.2600 0.2635 0.2670
3350.789733 0.2700 0.2725 0.2745 0.2750 0.2764
3357.334244 0.2785 0.2809 0.2849 0.2889 0.2924
3363.878755 0.2949 0.2978 0.3018 0.3058 0.3102
3370.423266 0.3147 0.3200 0.3261 0.3315 0.3379
3376.967777 0.3449 0.3514 0.3578 0.3648 0.3722
3383.512288 0.3797 0.3871 0.3943 0.4010 0.4086
3390.056799 0.4152 0.4204 0.4241 0.4278 0.4324
3396.601310 0.4357 0.4380 0.4403 0.4420 0.4443
3403.145822 0.4456 0.4470 0.4470 0.4470 0.4470
3409.690333 0.4470 0.4464 0.4450 0.4438 0.4404
3416.234844 0.4379 0.4339 0.4299 0.4257 0.4209
3422.779355 0.4167 0.4115 0.4055 0.3993 0.3926
3429.323866 0.3864 0.3796 0.3732 0.3650 0.3571
3435.868377 0.3536 0.3518 0.3508 0.3500 0.3500
3442.412888 0.3502 0.3510 0.3512 0.3524 0.3542
3448.957399 0.3552 0.3565 0.3595 0.3628 0.3679
3455.501910 0.3739 0.3800 0.3870 0.3937 0.3989
3462.046421 0.4056 0.4105 0.4149 0.4226 0.4275
3468.590932 0.4325 0.4376 0.4434 0.4475 0.4524
3475.135443 0.4562 0.4582 0.4612 0.4641 0.4662
3481.679954 0.4692 0.4731 0.4753 0.4812 0.4842
3488.224465 0.4882 0.4942 0.4992 0.5052 0.5111
3494.768976 0.5171 0.5221 0.5290 0.5350 0.5410
3501.313487 0.5550 0.5620 0.5669 0.5709 0.5749
3507.857999 0.5789 0.5838 0.5879 0.5919 0.5968
3514.402510 0.6008 0.6057 0.6098 0.6147 0.6197
3520.947021 0.6237 0.6295 0.6328 0.6385 0.6427
3527.491532 0.6466 0.6515 0.6556 0.6596 0.6645
3534.036043 0.6685 0.6734 0.6775 0.6815 0.6864
3540.580554 0.6896 0.6934 0.6974 0.6997 0.7025
3547.125065 0.7047 0.7067 0.7078 0.7122 0.7171
3553.669576 0.7213 0.7245 0.7283 0.7314 0.7344
3560.214087 0.7374 0.7412 0.7452 0.7499 0.7541
3566.758598 0.7558 0.7575 0.7595 0.7623 0.7653
3573.303109 0.7675 0.7688 0.7705 0.7740 0.7765
3579.847620 0.7799 0.7832 0.7847 0.7857 0.7874
3586.392131 0.7894 0.7914 0.7934 0.7954 0.7988
3592.936642 0.8014 0.8041 0.8057 0.8067 0.8090
3599.481153 0.8107 0.8136 0.8176 0.8197 0.8220
3606.025665 0.8236 0.8253 0.8266 0.8270 0.8289
3612.570176 0.8306 0.8322 0.8348 0.8366 0.8382
3619.114687 0.8396 0.8418 0.8442 0.8468 0.8486
3625.659198 0.8496 0.8500 0.8511 0.8526 0.8553
3632.203709 0.8587 0.8606 0.8610 0.8615 0.8620
3638.748220 0.8631 0.8640 0.8645 0.8650 0.8650
3645.292731 0.8655 0.8660 0.8665 0.8670 0.8680
3651.837242 0.8690 0.8690 0.8695 0.8700 0.8700
3658.381753 0.8700 0.8700 0.8700 0.8700 0.8700
3664.926264 0.8700 0.8700 0.8700 0.8700 0.8704
3671.470775 0.8706 0.8704 0.8710 0.8718 0.8730
3678.015286 0.8734 0.8744 0.8766 0.8798 0.8810
3684.559797 0.8814 0.8820 0.8820 0.8824 0.8834
3691.104308 0.8840 0.8847 0.8864 0.8870 0.8873
3697.648819 0.8887 0.8900 0.8900 0.8900 0.8903
3704.193330 0.8910 0.8910 0.8910 0.8910 0.8910
3710.737842 0.8913 0.8920 0.8920 0.8920 0.8920
3717.282353 0.8920 0.8920 0.8920 0.8920 0.8920
3723.826864 0.8920 0.8925 0.8942 0.8950 0.8957
3730.371375 0.8980 0.8980 0.8980 0.8980 0.8980
3736.915886 0.8982 0.8988 0.8982 0.8990 0.8990
3743.460397 0.8990 0.8990 0.8992 0.9000 0.9000
3750.004908 0.9000 0.9000 0.9000 0.9000 0.8999
3756.549419 0.8991 0.9000 0.9001 0.9010 0.9010
3763.093930 0.9013 0.9030 0.9030 0.9030 0.9030
3769.638441 0.9030 0.9030 0.9030 0.9028 0.9012
3776.182952 0.9030 0.9031 0.9040 0.9040 0.9041
3782.727463 0.9049 0.9041 0.9050 0.9050 0.9050
3789.271974 0.9050 0.9050 0.9050 0.9050 0.9050
3795.816485 0.9070 0.9050 0.9050 0.9050 0.9050
3802.360996 0.9050 0.9050 0.9070 0.9050 0.9050
3808.905507 0.9050 0.9050 0.9050 0.9069 0.9070
3815.450019 0.9070 0.9070 0.9070 0.9070 0.9070
3821.994530 0.9070 0.9070 0.9070 0.9070 0.9070
3828.539041 0.9070 0.9079 0.9080 0.9071 0.9070
3835.083552 0.9070 0.9070 0.9070 0.9079 0.9080
3841.628063 0.9080 0.9080 0.9080 0.9080 0.9080
3848.172574 0.9080 0.9080 0.9080 0.9080 0.9080
3854.717085 0.9080 0.9080 0.9080 0.9080 0.9080
3861.261596 0.9080 0.9080 0.9080 0.9080 0.9080
3867.806107 0.9072 0.9070 0.9070 0.9070 0.9078
3874.350618 0.9080 0.9080 0.9080 0.9080 0.9080
3880.895129 0.9080 0.9080 0.9087 0.9090 0.9083
3887.439640 0.9080 0.9080 0.9080 0.9080 0.9080
3893.984151 0.9080 0.9080 0.9087 0.9083 0.9080
3900.528662 0.9080 0.9080 0.9080 0.9080 0.9086
3907.073173 0.9090 0.9090 0.9084 0.9080 0.9080
3913.617684 0.9080 0.9080 0.9080 0.9080 0.9080
3920.162196 0.9086 0.9090 0.9090 0.9102 0.9110
3926.706707 0.9110 0.9110 0.9110 0.9110 0.9099
3933.251218 0.9101 0.9110 0.9110 0.9110 0.9110
3939.795729 0.9110 0.9110 0.9110 0.9110 0.9110
3946.340240 0.9110 0.9110 0.9115 0.9115 0.9115
3952.884751 0.9120 0.9120 0.9120 0.9120 0.9120
3959.429262 0.9120 0.9120 0.9120 0.9125 0.9130
3965.973773 0.9130 0.9130 0.9130 0.9130 0.9130
3972.518284 0.9130 0.9130 0.9130 0.9130 0.9130
3979.062795 0.9130 0.9130 0.9130 0.9130 0.9130
3985.607306 0.9130 0.9130 0.9130 0.9130 0.9126
3992.151817 0.9124 0.9137 0.9143 0.9130 0.9130
3998.696328 0.9130 0.9130
##END=
