##TITLE=1,2,4-BENZENETRICARBOXYLIC ACID, TRIS(OCTYL/DECYL) ESTER
##JCAMP-DX=4.24
##DATA TYPE=INFRARED SPECTRUM
##CLASS=COBLENTZ III
##ORIGIN=DOW CHEMICAL COMPANY
##OWNER=COBLENTZ SOCIETY
Collection (C) 2018 copyright by the U.S. Secretary of Commerce
on behalf of the United States of America. All rights reserved.
##DATE=1977/02/23
##NAMES=MORFLEX 525 - PFIZER CHEMICAL
##MOLFORM=C33-39 H54-66 O6
##SOURCE REFERENCE=COBLENTZ NO. 10098
##$NIST ID=B6010098
##$NIST SOURCE=COBLENTZ
##$NIST IMAGE=cob10098
##SPECTROMETER/DATA SYSTEM=PERKIN-ELMER 180
##STATE=SOLUTION (10% IN CCl4 FOR 4000-1330, 10% IN CS2 FOR 1330-420 CM^-^1) VS. SOLVENT
##PATH LENGTH=0.011, 0.011 CM
##SAMPLING PROCEDURE=TRANSMISSION
##RESOLUTION=4
##DATA PROCESSING=DIGITIZED BY NIST FROM HARD COPY (FROM TWO SEGMENTS)
##XUNITS=1/CM
##YUNITS=TRANSMITTANCE
##XFACTOR=1.000000
##YFACTOR=1
##DELTAX=1.013945
##FIRSTX=420.279
##LASTX=3975.17
##FIRSTY=0.917
##MAXX=3975.17
##MINX=420.279
##MAXY=0.966
##MINY=0
##NPOINTS=3507
##XYDATA=(X++(Y..Y))
420.279000 0.9170 0.9150 0.9170 0.9190 0.9200
425.348723 0.9210 0.9230 0.9250 0.9270 0.9280
430.418446 0.9290 0.9300 0.9300 0.9300 0.9300
435.488170 0.9300 0.9300 0.9290 0.9290 0.9290
440.557893 0.9290 0.9280 0.9270 0.9270 0.9270
445.627616 0.9270 0.9270 0.9280 0.9280 0.9290
450.697339 0.9300 0.9300 0.9300 0.9300 0.9300
455.767062 0.9300 0.9300 0.9290 0.9280 0.9280
460.836785 0.9270 0.9260 0.9250 0.9240 0.9230
465.906509 0.9220 0.9200 0.9180 0.9150 0.9140
470.976232 0.9120 0.9120 0.9110 0.9100 0.9090
476.045955 0.9080 0.9070 0.9070 0.9060 0.9060
481.115678 0.9060 0.9050 0.9050 0.9050 0.9050
486.185401 0.9040 0.9040 0.9030 0.9030 0.9020
491.255125 0.9000 0.8980 0.8960 0.8960 0.8970
496.324848 0.8990 0.9010 0.9010 0.9040 0.9050
501.394571 0.9050 0.9060 0.9060 0.9060 0.9060
506.464294 0.9070 0.9070 0.9070 0.9080 0.9100
511.534017 0.9100 0.9110 0.9120 0.9110 0.9130
516.603740 0.9130 0.9130 0.9130 0.9140 0.9130
521.673464 0.9140 0.9150 0.9150 0.9170 0.9170
526.743187 0.9180 0.9180 0.9190 0.9190 0.9200
531.812910 0.9210 0.9220 0.9230 0.9240 0.9250
536.882633 0.9250 0.9250 0.9260 0.9260 0.9270
541.952356 0.9290 0.9300 0.9310 0.9320 0.9320
547.022080 0.9330 0.9330 0.9320 0.9320 0.9310
552.091803 0.9310 0.9310 0.9300 0.9300 0.9300
557.161526 0.9290 0.9270 0.9260 0.9260 0.9260
562.231249 0.9260 0.9270 0.9270 0.9270 0.9280
567.300972 0.9280 0.9280 0.9280 0.9280 0.9280
572.370695 0.9270 0.9240 0.9220 0.9200 0.9190
577.440419 0.9190 0.9180 0.9170 0.9130 0.9120
582.510142 0.9100 0.9100 0.9100 0.9110 0.9110
587.579865 0.9110 0.9110 0.9110 0.9120 0.9150
592.649588 0.9190 0.9210 0.9240 0.9270 0.9290
597.719311 0.9320 0.9340 0.9370 0.9390 0.9410
602.789035 0.9430 0.9470 0.9480 0.9490 0.9490
607.858758 0.9500 0.9510 0.9510 0.9520 0.9520
612.928481 0.9530 0.9540 0.9550 0.9560 0.9570
617.998204 0.9570 0.9580 0.9590 0.9590 0.9590
623.067927 0.9590 0.9590 0.9590 0.9580 0.9570
628.137650 0.9560 0.9550 0.9550 0.9550 0.9540
633.207374 0.9540 0.9540 0.9540 0.9540 0.9530
638.277097 0.9520 0.9510 0.9510 0.9500 0.9490
643.346820 0.9480 0.9460 0.9450 0.9440 0.9430
648.416543 0.9410 0.9400 0.9380 0.9350 0.9290
653.486266 0.9240 0.9230 0.9270 0.9280 0.9290
658.555990 0.9270 0.9220 0.9140 0.9110 0.9090
663.625713 0.9020 0.8920 0.8920 0.8940 0.8990
668.695436 0.9050 0.9110 0.9230 0.9330 0.9390
673.765159 0.9430 0.9450 0.9460 0.9460 0.9450
678.834882 0.9440 0.9430 0.9420 0.9380 0.9340
683.904605 0.9320 0.9300 0.9280 0.9250 0.9200
688.974329 0.9150 0.9070 0.8970 0.8851 0.8751
694.044052 0.8670 0.8600 0.8530 0.8470 0.8400
699.113775 0.8310 0.8300 0.8320 0.8360 0.8370
704.183498 0.8370 0.8360 0.8360 0.8350 0.8310
709.253221 0.8250 0.8200 0.8011 0.7861 0.7741
714.322945 0.7590 0.7400 0.7150 0.6920 0.6730
719.392668 0.6501 0.6460 0.6460 0.6500 0.6570
724.462391 0.6810 0.6950 0.7060 0.7160 0.7240
729.532114 0.7280 0.7390 0.7500 0.7520 0.7520
734.601837 0.7510 0.7510 0.7450 0.7390 0.7340
739.671560 0.7250 0.7190 0.6971 0.6641 0.6212
744.741284 0.5719 0.5200 0.4810 0.4500 0.4350
749.811007 0.3981 0.3960 0.3970 0.4209 0.4359
754.880730 0.4620 0.4920 0.5260 0.5590 0.5929
759.950453 0.6239 0.6509 0.6749 0.6919 0.7049
765.020176 0.7150 0.7250 0.7340 0.7420 0.7510
770.089900 0.7570 0.7630 0.7690 0.7750 0.7800
775.159623 0.7860 0.7910 0.7960 0.8020 0.8080
780.229346 0.8150 0.8220 0.8290 0.8300 0.8290
785.299069 0.8280 0.8270 0.8210 0.8120 0.8030
790.368792 0.7960 0.7810 0.7800 0.7820 0.7890
795.438515 0.7960 0.8100 0.8200 0.8290 0.8370
800.508239 0.8440 0.8500 0.8540 0.8550 0.8560
805.577962 0.8570 0.8580 0.8580 0.8590 0.8600
810.647685 0.8610 0.8620 0.8630 0.8630 0.8630
815.717408 0.8620 0.8610 0.8600 0.8590 0.8590
820.787131 0.8570 0.8540 0.8530 0.8520 0.8520
825.856855 0.8510 0.8520 0.8530 0.8540 0.8540
830.926578 0.8540 0.8550 0.8550 0.8540 0.8540
835.996301 0.8530 0.8530 0.8520 0.8500 0.8470
841.066024 0.8430 0.8390 0.8320 0.8270 0.8200
846.135747 0.8130 0.8050 0.7980 0.7890 0.7810
851.205470 0.7720 0.7630 0.7500 0.7480 0.7480
856.275194 0.7500 0.7510 0.7560 0.7610 0.7680
861.344917 0.7760 0.7860 0.7950 0.8040 0.8130
866.414640 0.8190 0.8220 0.8270 0.8280 0.8300
871.484363 0.8310 0.8320 0.8340 0.8340 0.8340
876.554086 0.8350 0.8350 0.8350 0.8360 0.8360
881.623809 0.8360 0.8370 0.8370 0.8390 0.8400
886.693533 0.8400 0.8410 0.8420 0.8420 0.8440
891.763256 0.8440 0.8410 0.8410 0.8410 0.8410
896.832979 0.8420 0.8430 0.8430 0.8430 0.8430
901.902702 0.8410 0.8400 0.8400 0.8380 0.8360
906.972425 0.8320 0.8300 0.8270 0.8250 0.8190
912.042149 0.8150 0.8110 0.8070 0.8030 0.7980
917.111872 0.7930 0.7880 0.7840 0.7800 0.7760
922.181595 0.7720 0.7710 0.7680 0.7670 0.7660
927.251318 0.7650 0.7640 0.7640 0.7630 0.7630
932.321041 0.7630 0.7630 0.7630 0.7630 0.7620
937.390764 0.7610 0.7590 0.7560 0.7470 0.7360
942.460488 0.7260 0.7170 0.7080 0.7000 0.6920
947.530211 0.6860 0.6800 0.6740 0.6690 0.6640
952.599934 0.6600 0.6570 0.6540 0.6520 0.6500
957.669657 0.6490 0.6440 0.6430 0.6380 0.6330
962.739380 0.6290 0.6280 0.6220 0.6170 0.6130
967.809104 0.6110 0.6090 0.6070 0.6040 0.6030
972.878827 0.6020 0.6030 0.6060 0.6070 0.6090
977.948550 0.6140 0.6210 0.6270 0.6440 0.6580
983.018273 0.6700 0.6800 0.6880 0.6970 0.7060
988.087996 0.7200 0.7300 0.7380 0.7440 0.7500
993.157719 0.7540 0.7560 0.7590 0.7610 0.7630
998.227443 0.7640 0.7640 0.7640 0.7640 0.7630
1003.297166 0.7610 0.7600 0.7600 0.7580 0.7570
1008.366889 0.7560 0.7560 0.7550 0.7530 0.7520
1013.436612 0.7510 0.7500 0.7480 0.7460 0.7440
1018.506335 0.7420 0.7410 0.7390 0.7380 0.7350
1023.576059 0.7320 0.7300 0.7280 0.7280 0.7270
1028.645782 0.7270 0.7270 0.7270 0.7260 0.7260
1033.715505 0.7250 0.7250 0.7240 0.7230 0.7220
1038.785228 0.7210 0.7200 0.7180 0.7140 0.7110
1043.854951 0.7080 0.7030 0.6980 0.6900 0.6820
1048.924674 0.6690 0.6520 0.6320 0.6110 0.5890
1053.994398 0.5630 0.5381 0.5111 0.4831 0.4551
1059.064121 0.4279 0.3990 0.3720 0.3450 0.3180
1064.133844 0.3010 0.3000 0.3010 0.3100 0.3190
1069.203567 0.3280 0.3540 0.3710 0.4120 0.4310
1074.273290 0.4550 0.4829 0.5099 0.5339 0.5489
1079.343014 0.5680 0.5870 0.6020 0.6150 0.6270
1084.412737 0.6370 0.6460 0.6520 0.6570 0.6610
1089.482460 0.6620 0.6620 0.6590 0.6460 0.6380
1094.552183 0.6220 0.6060 0.5860 0.5611 0.5281
1099.621906 0.4829 0.4259 0.3509 0.2570 0.2090
1104.691629 0.1471 0.1220 0.1021 0.0940 0.0811
1109.761353 0.0800 0.0810 0.0840 0.0890 0.0950
1114.831076 0.1040 0.1140 0.1240 0.1330 0.1400
1119.900799 0.1570 0.1700 0.1800 0.1870 0.1930
1124.970522 0.1990 0.2060 0.2150 0.2260 0.2360
1130.040245 0.2460 0.2550 0.2640 0.2710 0.2760
1135.109969 0.2810 0.2840 0.2850 0.2840 0.2830
1140.179692 0.2820 0.2830 0.2880 0.2940 0.3010
1145.249415 0.3140 0.3300 0.3500 0.3739 0.4029
1150.319138 0.4401 0.4831 0.5230 0.5580 0.5790
1155.388861 0.6170 0.6469 0.6729 0.6929 0.7079
1160.458584 0.7200 0.7290 0.7350 0.7400 0.7430
1165.528308 0.7450 0.7480 0.7510 0.7530 0.7540
1170.598031 0.7540 0.7530 0.7530 0.7530 0.7520
1175.667754 0.7520 0.7520 0.7520 0.7520 0.7510
1180.737477 0.7510 0.7500 0.7500 0.7480 0.7480
1185.807200 0.7450 0.7430 0.7410 0.7380 0.7350
1190.876924 0.7310 0.7280 0.7240 0.7200 0.7160
1195.946647 0.7120 0.7080 0.7040 0.7000 0.6870
1201.016370 0.6720 0.6700 0.6690 0.6550 0.6390
1206.086093 0.6220 0.6030 0.5820 0.5601 0.5361
1211.155816 0.5109 0.4839 0.4570 0.4290 0.3990
1216.225539 0.3690 0.3380 0.3051 0.2721 0.1902
1221.295263 0.1369 0.1060 0.0850 0.0660 0.0400
1226.364986 0.0290 0.0230 0.0200 0.0150 0.0140
1231.434709 0.0140 0.0150 0.0160 0.0180 0.0190
1236.504432 0.0210 0.0220 0.0230 0.0270 0.0300
1241.574155 0.0350 0.0410 0.0470 0.0530 0.0600
1246.643879 0.0660 0.0710 0.0770 0.0820 0.0870
1251.713602 0.0910 0.0920 0.0930 0.0940 0.0970
1256.783325 0.0980 0.0990 0.0990 0.1000 0.1000
1261.853048 0.1000 0.1000 0.0990 0.0980 0.0950
1266.922771 0.0930 0.0900 0.0880 0.0840 0.0800
1271.992494 0.0760 0.0730 0.0680 0.0640 0.0590
1277.062218 0.0580 0.0570 0.0580 0.0640 0.0730
1282.131941 0.0760 0.0840 0.0940 0.1030 0.1110
1287.201664 0.1150 0.1190 0.1250 0.1260 0.1250
1292.271387 0.1240 0.1180 0.1120 0.1070 0.1020
1297.341110 0.0970 0.0940 0.0910 0.0900 0.0900
1302.410834 0.0910 0.0930 0.0970 0.0990 0.1040
1307.480557 0.1130 0.1210 0.1390 0.1629 0.1929
1312.550280 0.2261 0.2611 0.2961 0.3290 0.3600
1317.620003 0.3850 0.4030 0.4120 0.4469 0.4709
1322.689726 0.4880 0.5000 0.5070 0.5140 0.5200
1327.759449 0.5290 0.5410 0.5500 0.5700 0.5750
1332.829173 0.5920 0.6080 0.6240 0.6380 0.6530
1337.898896 0.6670 0.6780 0.6880 0.6970 0.7030
1342.968619 0.7070 0.7080 0.7130 0.7170 0.7210
1348.038342 0.7230 0.7250 0.7250 0.7250 0.7240
1353.108065 0.7190 0.7180 0.7180 0.7190 0.7210
1358.177789 0.7220 0.7230 0.7230 0.7230 0.7220
1363.247512 0.7210 0.7190 0.7160 0.7130 0.7070
1368.317235 0.7000 0.6920 0.6820 0.6690 0.6461
1373.386958 0.6309 0.6099 0.5849 0.5480 0.5350
1378.456681 0.5350 0.5410 0.5450 0.5540 0.5620
1383.526404 0.5660 0.5740 0.5810 0.5930 0.6030
1388.596128 0.6160 0.6310 0.6470 0.6650 0.6840
1393.665851 0.7000 0.7150 0.7280 0.7360 0.7380
1398.735574 0.7380 0.7360 0.7340 0.7220 0.7110
1403.805297 0.7030 0.6960 0.6890 0.6830 0.6750
1408.875020 0.6700 0.6690 0.6710 0.6850 0.7020
1413.944744 0.7180 0.7340 0.7520 0.7640 0.7740
1419.014467 0.7780 0.7870 0.7890 0.7890 0.7880
1424.084190 0.7860 0.7810 0.7750 0.7660 0.7570
1429.153913 0.7500 0.7340 0.7230 0.7060 0.6970
1434.223636 0.6890 0.6820 0.6770 0.6720 0.6690
1439.293359 0.6650 0.6540 0.6430 0.6310 0.6190
1444.363083 0.6060 0.5920 0.5740 0.5560 0.5350
1449.432806 0.5090 0.4860 0.4580 0.4271 0.4021
1454.502529 0.3850 0.3730 0.3650 0.3600 0.3560
1459.572252 0.3510 0.3450 0.3360 0.3210 0.3090
1464.641975 0.2800 0.2740 0.2740 0.2770 0.3160
1469.711699 0.3740 0.4449 0.5059 0.5569 0.6019
1474.781422 0.6401 0.6721 0.7001 0.7250 0.7470
1479.851145 0.7620 0.7630 0.7630 0.7620 0.7560
1484.920868 0.7520 0.7390 0.7160 0.7110 0.7110
1489.990591 0.7130 0.7190 0.7270 0.7360 0.7460
1495.060314 0.7590 0.7710 0.7830 0.7940 0.8060
1500.130038 0.8160 0.8240 0.8310 0.8380 0.8430
1505.199761 0.8470 0.8500 0.8540 0.8560 0.8580
1510.269484 0.8600 0.8620 0.8640 0.8660 0.8680
1515.339207 0.8690 0.8690 0.8700 0.8700 0.8700
1520.408930 0.8700 0.8700 0.8710 0.8710 0.8710
1525.478654 0.8720 0.8720 0.8730 0.8730 0.8750
1530.548377 0.8760 0.8780 0.8800 0.8800 0.8810
1535.618100 0.8810 0.8800 0.8790 0.8790 0.8790
1540.687823 0.8780 0.8780 0.8780 0.8770 0.8770
1545.757546 0.8760 0.8760 0.8750 0.8740 0.8720
1550.827269 0.8700 0.8690 0.8690 0.8680 0.8680
1555.896993 0.8670 0.8670 0.8670 0.8660 0.8650
1560.966716 0.8630 0.8620 0.8610 0.8570 0.8530
1566.036439 0.8480 0.8420 0.8370 0.8310 0.8260
1571.106162 0.8190 0.8170 0.8180 0.8210 0.8230
1576.175885 0.8300 0.8360 0.8420 0.8480 0.8550
1581.245609 0.8620 0.8670 0.8690 0.8700 0.8720
1586.315332 0.8720 0.8750 0.8770 0.8770 0.8780
1591.385055 0.8780 0.8770 0.8770 0.8760 0.8760
1596.454778 0.8750 0.8740 0.8730 0.8680 0.8640
1601.524501 0.8600 0.8570 0.8530 0.8490 0.8450
1606.594224 0.8390 0.8310 0.8230 0.8210 0.8220
1611.663948 0.8270 0.8290 0.8350 0.8410 0.8490
1616.733671 0.8560 0.8610 0.8650 0.8690 0.8720
1621.803394 0.8740 0.8770 0.8790 0.8790 0.8800
1626.873117 0.8810 0.8810 0.8820 0.8820 0.8810
1631.942840 0.8800 0.8790 0.8780 0.8770 0.8750
1637.012564 0.8730 0.8710 0.8710 0.8710 0.8710
1642.082287 0.8700 0.8690 0.8690 0.8680 0.8670
1647.152010 0.8650 0.8650 0.8640 0.8630 0.8620
1652.221733 0.8610 0.8600 0.8590 0.8590 0.8580
1657.291456 0.8570 0.8560 0.8540 0.8530 0.8510
1662.361179 0.8500 0.8500 0.8490 0.8460 0.8430
1667.430903 0.8410 0.8390 0.8370 0.8320 0.8290
1672.500626 0.8240 0.8180 0.8130 0.8070 0.8000
1677.570349 0.7940 0.7870 0.7790 0.7700 0.7600
1682.640072 0.7520 0.7440 0.7380 0.7330 0.7290
1687.709795 0.7260 0.7230 0.7190 0.7140 0.7100
1692.779518 0.7040 0.6990 0.6920 0.6850 0.6760
1697.849242 0.6670 0.6550 0.6430 0.6270 0.6120
1702.918965 0.5940 0.5730 0.5500 0.5260 0.4970
1707.988688 0.4679 0.4359 0.3989 0.3539 0.2929
1713.058411 0.2460 0.1850 0.1290 0.0881 0.0541
1718.128134 0.0419 0.0230 0.0120 0.0070 0.0060
1723.197858 0.0050 0.0050 0.0050 0.0050 0.0060
1728.267581 0.0070 0.0080 0.0080 0.0100 0.0110
1733.337304 0.0140 0.0160 0.0200 0.0240 0.0280
1738.407027 0.0331 0.0490 0.0620 0.0740 0.0920
1743.476750 0.1150 0.1420 0.1740 0.2100 0.2479
1748.546473 0.2892 0.3312 0.3741 0.4191 0.4621
1753.616197 0.5050 0.5450 0.5840 0.6060 0.6290
1758.685920 0.6521 0.6741 0.6950 0.7120 0.7270
1763.755643 0.7370 0.7410 0.7500 0.7580 0.7650
1768.825366 0.7710 0.7800 0.7870 0.7940 0.7990
1773.895089 0.8030 0.8070 0.8110 0.8140 0.8170
1778.964813 0.8190 0.8240 0.8290 0.8320 0.8370
1784.034536 0.8400 0.8420 0.8450 0.8470 0.8490
1789.104259 0.8500 0.8520 0.8540 0.8550 0.8570
1794.173982 0.8590 0.8610 0.8630 0.8650 0.8670
1799.243705 0.8680 0.8690 0.8700 0.8710 0.8720
1804.313428 0.8730 0.8760 0.8780 0.8780 0.8790
1809.383152 0.8800 0.8810 0.8820 0.8840 0.8850
1814.452875 0.8850 0.8860 0.8870 0.8870 0.8870
1819.522598 0.8870 0.8870 0.8870 0.8880 0.8880
1824.592321 0.8880 0.8890 0.8900 0.8900 0.8910
1829.662044 0.8910 0.8910 0.8920 0.8920 0.8930
1834.731768 0.8940 0.8950 0.8960 0.8970 0.8970
1839.801491 0.8980 0.8990 0.9000 0.9010 0.9010
1844.871214 0.9020 0.9040 0.9050 0.9050 0.9060
1849.940937 0.9070 0.9070 0.9080 0.9080 0.9090
1855.010660 0.9080 0.9090 0.9090 0.9090 0.9090
1860.080383 0.9090 0.9090 0.9090 0.9100 0.9100
1865.150107 0.9100 0.9110 0.9110 0.9120 0.9130
1870.219830 0.9140 0.9150 0.9170 0.9180 0.9180
1875.289553 0.9190 0.9190 0.9200 0.9200 0.9200
1880.359276 0.9200 0.9200 0.9200 0.9190 0.9190
1885.428999 0.9180 0.9180 0.9180 0.9170 0.9170
1890.498723 0.9170 0.9180 0.9180 0.9180 0.9180
1895.568446 0.9180 0.9180 0.9180 0.9180 0.9150
1900.638169 0.9150 0.9150 0.9170 0.9170 0.9190
1905.707892 0.9190 0.9200 0.9200 0.9200 0.9210
1910.777615 0.9200 0.9210 0.9200 0.9200 0.9200
1915.847338 0.9200 0.9190 0.9200 0.9200 0.9200
1920.917062 0.9190 0.9190 0.9190 0.9190 0.9190
1925.986785 0.9180 0.9180 0.9180 0.9180 0.9180
1931.056508 0.9180 0.9170 0.9150 0.9140 0.9130
1936.126231 0.9120 0.9120 0.9110 0.9110 0.9110
1941.195954 0.9100 0.9100 0.9110 0.9120 0.9120
1946.265678 0.9120 0.9120 0.9130 0.9130 0.9140
1951.335401 0.9140 0.9170 0.9180 0.9180 0.9190
1956.405124 0.9200 0.9200 0.9210 0.9210 0.9220
1961.474847 0.9220 0.9220 0.9220 0.9220 0.9220
1966.544570 0.9220 0.9220 0.9220 0.9230 0.9230
1971.614293 0.9240 0.9250 0.9250 0.9260 0.9260
1976.684017 0.9260 0.9260 0.9250 0.9260 0.9260
1981.753740 0.9270 0.9280 0.9280 0.9280 0.9280
1986.823463 0.9280 0.9280 0.9270 0.9270 0.9260
1991.893186 0.9260 0.9250 0.9250 0.9250 0.9250
1996.962909 0.9250 0.9250 0.9240 0.9240 0.9225
2002.032633 0.9210 0.9205 0.9200 0.9195 0.9190
2007.102356 0.9190 0.9190 0.9190 0.9190 0.9190
2012.172079 0.9190 0.9185 0.9180 0.9180 0.9180
2017.241802 0.9165 0.9150 0.9150 0.9150 0.9150
2022.311525 0.9150 0.9150 0.9150 0.9150 0.9150
2027.381248 0.9150 0.9150 0.9150 0.9150 0.9150
2032.450972 0.9150 0.9150 0.9150 0.9150 0.9150
2037.520695 0.9150 0.9150 0.9165 0.9180 0.9185
2042.590418 0.9190 0.9180 0.9170 0.9170 0.9170
2047.660141 0.9175 0.9180 0.9185 0.9190 0.9190
2052.729864 0.9190 0.9190 0.9190 0.9190 0.9190
2057.799588 0.9190 0.9190 0.9180 0.9170 0.9170
2062.869311 0.9170 0.9175 0.9180 0.9180 0.9180
2067.939034 0.9180 0.9180 0.9180 0.9180 0.9180
2073.008757 0.9180 0.9185 0.9190 0.9190 0.9190
2078.078480 0.9190 0.9190 0.9195 0.9200 0.9200
2083.148203 0.9200 0.9200 0.9200 0.9205 0.9210
2088.217927 0.9210 0.9210 0.9210 0.9210 0.9210
2093.287650 0.9210 0.9210 0.9210 0.9210 0.9210
2098.357373 0.9210 0.9210 0.9205 0.9200 0.9200
2103.427096 0.9200 0.9200 0.9200 0.9200 0.9200
2108.496819 0.9200 0.9200 0.9195 0.9190 0.9190
2113.566543 0.9190 0.9190 0.9190 0.9185 0.9180
2118.636266 0.9180 0.9180 0.9194 0.9210 0.9215
2123.705989 0.9220 0.9220 0.9220 0.9220 0.9220
2128.775712 0.9215 0.9210 0.9210 0.9210 0.9210
2133.845435 0.9210 0.9205 0.9200 0.9205 0.9210
2138.915158 0.9210 0.9210 0.9205 0.9200 0.9195
2143.984882 0.9190 0.9190 0.9190 0.9190 0.9190
2149.054605 0.9190 0.9190 0.9195 0.9200 0.9200
2154.124328 0.9200 0.9200 0.9200 0.9200 0.9200
2159.194051 0.9205 0.9210 0.9205 0.9200 0.9200
2164.263774 0.9200 0.9200 0.9200 0.9205 0.9210
2169.333498 0.9210 0.9210 0.9210 0.9210 0.9210
2174.403221 0.9210 0.9210 0.9210 0.9210 0.9210
2179.472944 0.9210 0.9210 0.9210 0.9210 0.9205
2184.542667 0.9200 0.9195 0.9190 0.9185 0.9180
2189.612390 0.9185 0.9190 0.9190 0.9190 0.9195
2194.682113 0.9200 0.9200 0.9200 0.9200 0.9200
2199.751837 0.9205 0.9210 0.9215 0.9220 0.9220
2204.821560 0.9220 0.9220 0.9220 0.9220 0.9220
2209.891283 0.9220 0.9220 0.9220 0.9220 0.9220
2214.961006 0.9220 0.9220 0.9220 0.9220 0.9220
2220.030729 0.9220 0.9220 0.9220 0.9220 0.9225
2225.100453 0.9230 0.9230 0.9230 0.9235 0.9240
2230.170176 0.9240 0.9240 0.9240 0.9240 0.9240
2235.239899 0.9240 0.9235 0.9230 0.9230 0.9230
2240.309622 0.9230 0.9230 0.9225 0.9220 0.9220
2245.379345 0.9220 0.9220 0.9220 0.9220 0.9220
2250.449068 0.9220 0.9220 0.9220 0.9220 0.9220
2255.518792 0.9220 0.9220 0.9220 0.9220 0.9220
2260.588515 0.9225 0.9230 0.9230 0.9230 0.9235
2265.658238 0.9240 0.9245 0.9250 0.9255 0.9260
2270.727961 0.9255 0.9250 0.9245 0.9240 0.9240
2275.797684 0.9240 0.9235 0.9230 0.9230 0.9230
2280.867408 0.9225 0.9220 0.9215 0.9210 0.9210
2285.937131 0.9210 0.9210 0.9210 0.9215 0.9220
2291.006854 0.9225 0.9230 0.9230 0.9230 0.9235
2296.076577 0.9240 0.9245 0.9250 0.9245 0.9240
2301.146300 0.9235 0.9230 0.9230 0.9230 0.9225
2306.216023 0.9220 0.9225 0.9230 0.9225 0.9220
2311.285747 0.9220 0.9220 0.9215 0.9210 0.9210
2316.355470 0.9210 0.9205 0.9200 0.9200 0.9200
2321.425193 0.9200 0.9200 0.9205 0.9210 0.9210
2326.494916 0.9210 0.9210 0.9210 0.9210 0.9210
2331.564639 0.9210 0.9210 0.9210 0.9210 0.9210
2336.634363 0.9210 0.9210 0.9210 0.9205 0.9200
2341.704086 0.9186 0.9171 0.9161 0.9151 0.9150
2346.773809 0.9150 0.9150 0.9150 0.9150 0.9150
2351.843532 0.9150 0.9150 0.9150 0.9150 0.9150
2356.913255 0.9150 0.9168 0.9188 0.9190 0.9190
2361.982978 0.9172 0.9152 0.9150 0.9150 0.9150
2367.052702 0.9150 0.9150 0.9150 0.9150 0.9150
2372.122425 0.9150 0.9150 0.9150 0.9150 0.9150
2377.192148 0.9150 0.9150 0.9150 0.9150 0.9150
2382.261871 0.9150 0.9150 0.9145 0.9140 0.9145
2387.331594 0.9150 0.9164 0.9179 0.9185 0.9190
2392.401318 0.9195 0.9199 0.9204 0.9209 0.9210
2397.471041 0.9210 0.9210 0.9210 0.9201 0.9191
2402.540764 0.9190 0.9190 0.9190 0.9190 0.9190
2407.610487 0.9190 0.9195 0.9200 0.9204 0.9209
2412.680210 0.9210 0.9210 0.9214 0.9219 0.9220
2417.749933 0.9220 0.9216 0.9211 0.9219 0.9229
2422.819657 0.9239 0.9249 0.9250 0.9250 0.9254
2427.889380 0.9259 0.9256 0.9251 0.9250 0.9250
2432.959103 0.9246 0.9241 0.9240 0.9240 0.9244
2438.028826 0.9249 0.9254 0.9259 0.9264 0.9269
2443.098549 0.9270 0.9270 0.9274 0.9279 0.9284
2448.168273 0.9289 0.9290 0.9290 0.9290 0.9290
2453.237996 0.9290 0.9290 0.9290 0.9290 0.9290
2458.307719 0.9290 0.9290 0.9290 0.9290 0.9290
2463.377442 0.9290 0.9290 0.9290 0.9290 0.9290
2468.447165 0.9290 0.9290 0.9290 0.9290 0.9290
2473.516888 0.9290 0.9290 0.9290 0.9290 0.9290
2478.586612 0.9290 0.9290 0.9290 0.9286 0.9281
2483.656335 0.9280 0.9280 0.9280 0.9280 0.9280
2488.726058 0.9280 0.9271 0.9261 0.9260 0.9260
2493.795781 0.9256 0.9251 0.9250 0.9250 0.9250
2498.865504 0.9250 0.9250 0.9250 0.9246 0.9241
2503.935227 0.9240 0.9240 0.9236 0.9231 0.9230
2509.004951 0.9230 0.9226 0.9221 0.9220 0.9220
2514.074674 0.9224 0.9229 0.9230 0.9230 0.9226
2519.144397 0.9221 0.9220 0.9220 0.9216 0.9211
2524.214120 0.9210 0.9210 0.9197 0.9182 0.9176
2529.283843 0.9171 0.9170 0.9170 0.9170 0.9170
2534.353567 0.9174 0.9179 0.9180 0.9180 0.9180
2539.423290 0.9180 0.9180 0.9180 0.9184 0.9189
2544.493013 0.9190 0.9190 0.9190 0.9190 0.9194
2549.562736 0.9199 0.9200 0.9200 0.9196 0.9191
2554.632459 0.9190 0.9190 0.9190 0.9190 0.9190
2559.702182 0.9190 0.9190 0.9190 0.9190 0.9190
2564.771906 0.9186 0.9181 0.9180 0.9180 0.9176
2569.841629 0.9171 0.9157 0.9142 0.9140 0.9140
2574.911352 0.9136 0.9131 0.9130 0.9130 0.9130
2579.981075 0.9130 0.9126 0.9121 0.9120 0.9120
2585.050798 0.9116 0.9111 0.9110 0.9110 0.9110
2590.120522 0.9110 0.9106 0.9101 0.9096 0.9091
2595.190245 0.9090 0.9090 0.9090 0.9090 0.9086
2600.259968 0.9081 0.9080 0.9080 0.9076 0.9071
2605.329691 0.9074 0.9079 0.9080 0.9080 0.9076
2610.399414 0.9071 0.9066 0.9061 0.9056 0.9051
2615.469137 0.9050 0.9050 0.9050 0.9050 0.9046
2620.538861 0.9041 0.9040 0.9040 0.9040 0.9040
2625.608584 0.9036 0.9031 0.9030 0.9030 0.9026
2630.678307 0.9021 0.9020 0.9020 0.9020 0.9020
2635.748030 0.9016 0.9011 0.9010 0.9010 0.9006
2640.817753 0.9001 0.9000 0.9000 0.8996 0.8991
2645.887477 0.8986 0.8981 0.8980 0.8980 0.8980
2650.957200 0.8980 0.8980 0.8980 0.8976 0.8971
2656.026923 0.8966 0.8961 0.8956 0.8951 0.8942
2661.096646 0.8932 0.8926 0.8921 0.8912 0.8902
2666.166369 0.8896 0.8891 0.8886 0.8881 0.8880
2671.236092 0.8880 0.8880 0.8880 0.8880 0.8880
2676.305816 0.8880 0.8880 0.8884 0.8889 0.8894
2681.375539 0.8899 0.8900 0.8900 0.8900 0.8900
2686.445262 0.8904 0.8909 0.8914 0.8919 0.8924
2691.514985 0.8929 0.8934 0.8939 0.8940 0.8940
2696.584708 0.8940 0.8940 0.8944 0.8949 0.8946
2701.654432 0.8941 0.8936 0.8931 0.8930 0.8930
2706.724155 0.8926 0.8921 0.8920 0.8920 0.8916
2711.793878 0.8911 0.8910 0.8910 0.8906 0.8901
2716.863601 0.8900 0.8900 0.8896 0.8891 0.8886
2721.933324 0.8881 0.8860 0.8835 0.8822 0.8812
2727.003047 0.8806 0.8801 0.8800 0.8800 0.8804
2732.072771 0.8809 0.8810 0.8810 0.8814 0.8819
2737.142494 0.8824 0.8829 0.8834 0.8839 0.8844
2742.212217 0.8849 0.8850 0.8850 0.8850 0.8850
2747.281940 0.8846 0.8841 0.8840 0.8840 0.8840
2752.351663 0.8840 0.8836 0.8831 0.8830 0.8830
2757.421387 0.8826 0.8821 0.8816 0.8811 0.8810
2762.491110 0.8810 0.8806 0.8801 0.8800 0.8800
2767.560833 0.8796 0.8791 0.8786 0.8781 0.8776
2772.630556 0.8771 0.8758 0.8743 0.8732 0.8722
2777.700279 0.8708 0.8693 0.8682 0.8672 0.8658
2782.770002 0.8643 0.8636 0.8631 0.8622 0.8612
2787.839726 0.8598 0.8583 0.8572 0.8562 0.8548
2792.909449 0.8533 0.8514 0.8494 0.8474 0.8454
2797.979172 0.8434 0.8414 0.8390 0.8365 0.8336
2803.048895 0.8306 0.8276 0.8246 0.8216 0.8186
2808.118618 0.8152 0.8117 0.8082 0.8047 0.8004
2813.188342 0.7959 0.7914 0.7869 0.7824 0.7779
2818.258065 0.7726 0.7671 0.7616 0.7561 0.7499
2823.327788 0.7434 0.7369 0.7304 0.7231 0.7156
2828.397511 0.7066 0.6971 0.6867 0.6761 0.6636
2833.467234 0.6506 0.6373 0.6238 0.6087 0.5932
2838.536957 0.5730 0.5515 0.5190 0.4836 0.4414
2843.606681 0.3975 0.3500 0.3016 0.2539 0.2065
2848.676404 0.1629 0.1205 0.0973 0.0796 0.0669
2853.746127 0.0554 0.0526 0.0521 0.0555 0.0600
2858.815850 0.0712 0.0842 0.0991 0.1146 0.1363
2863.885573 0.1598 0.1751 0.1881 0.1949 0.1999
2868.955297 0.2025 0.2045 0.2077 0.2113 0.2195
2874.025020 0.2290 0.2424 0.2569 0.2870 0.3215
2879.094743 0.3368 0.3468 0.3490 0.3490 0.3486
2884.164466 0.3481 0.3383 0.3259 0.3149 0.3044
2889.234189 0.2913 0.2773 0.2624 0.2473 0.2334
2894.303912 0.2199 0.2069 0.1939 0.1821 0.1706
2899.373636 0.1595 0.1485 0.1383 0.1283 0.1187
2904.443359 0.1092 0.1009 0.0929 0.0845 0.0760
2909.513082 0.0690 0.0626 0.0560 0.0494 0.0433
2914.582805 0.0373 0.0321 0.0271 0.0221 0.0171
2919.652528 0.0125 0.0080 0.0043 0.0008 0.0000
2924.722252 0.0000 0.0000 0.0000 0.0019 0.0044
2929.791975 0.0061 0.0076 0.0091 0.0107 0.0125
2934.861698 0.0145 0.0181 0.0221 0.0268 0.0318
2939.931421 0.0384 0.0453 0.0527 0.0602 0.0624
2945.001144 0.0629 0.0630 0.0630 0.0622 0.0612
2950.070867 0.0569 0.0514 0.0477 0.0447 0.0425
2955.140591 0.0405 0.0396 0.0391 0.0398 0.0408
2960.210314 0.0478 0.0568 0.0677 0.0792 0.0828
2965.280037 0.0838 0.0938 0.1068 0.1269 0.1493
2970.349760 0.1767 0.2056 0.2378 0.2711 0.3042
2975.419483 0.3371 0.3674 0.3969 0.4222 0.4462
2980.489207 0.4630 0.4774 0.4994 0.5239 0.5390
2985.558930 0.5510 0.5652 0.5802 0.5963 0.6128
2990.628653 0.6270 0.6405 0.6533 0.6660 0.6770
2995.698376 0.6874 0.6979 0.7084 0.7193 0.7303
3000.768099 0.7398 0.7487 0.7566 0.7641 0.7708
3005.837822 0.7773 0.7838 0.7903 0.7957 0.8007
3010.907546 0.8057 0.8107 0.8153 0.8199 0.8236
3015.977269 0.8271 0.8310 0.8350 0.8379 0.8404
3021.046992 0.8429 0.8454 0.8479 0.8504 0.8521
3026.116715 0.8536 0.8551 0.8566 0.8581 0.8596
3031.186438 0.8611 0.8626 0.8637 0.8647 0.8657
3036.256162 0.8667 0.8677 0.8687 0.8697 0.8707
3041.325885 0.8717 0.8727 0.8737 0.8747 0.8757
3046.395608 0.8767 0.8774 0.8779 0.8784 0.8789
3051.465331 0.8797 0.8807 0.8817 0.8827 0.8841
3056.535054 0.8856 0.8875 0.8895 0.8904 0.8909
3061.604777 0.8910 0.8910 0.8906 0.8901 0.8896
3066.674501 0.8891 0.8886 0.8881 0.8880 0.8880
3071.744224 0.8880 0.8880 0.8884 0.8889 0.8894
3076.813947 0.8899 0.8904 0.8909 0.8921 0.8936
3081.883670 0.8947 0.8957 0.8971 0.8986 0.8997
3086.953393 0.9007 0.9021 0.9036 0.9051 0.9066
3092.023117 0.9077 0.9087 0.9097 0.9107 0.9110
3097.092840 0.9110 0.9121 0.9136 0.9151 0.9166
3102.162563 0.9170 0.9170 0.9174 0.9179 0.9180
3107.232286 0.9180 0.9180 0.9180 0.9184 0.9189
3112.302009 0.9190 0.9190 0.9194 0.9199 0.9200
3117.371732 0.9200 0.9204 0.9209 0.9214 0.9219
3122.441456 0.9224 0.9229 0.9230 0.9230 0.9234
3127.511179 0.9239 0.9244 0.9249 0.9254 0.9259
3132.580902 0.9256 0.9251 0.9254 0.9259 0.9264
3137.650625 0.9269 0.9270 0.9270 0.9274 0.9279
3142.720348 0.9280 0.9280 0.9280 0.9280 0.9276
3147.790072 0.9271 0.9270 0.9270 0.9270 0.9270
3152.859795 0.9274 0.9279 0.9284 0.9289 0.9294
3157.929518 0.9299 0.9300 0.9300 0.9307 0.9317
3162.999241 0.9324 0.9329 0.9326 0.9321 0.9320
3168.068964 0.9320 0.9316 0.9311 0.9306 0.9302
3173.138687 0.9293 0.9283 0.9276 0.9271 0.9270
3178.208411 0.9270 0.9274 0.9279 0.9287 0.9297
3183.278134 0.9304 0.9309 0.9310 0.9310 0.9314
3188.347857 0.9318 0.9323 0.9328 0.9333 0.9338
3193.417580 0.9340 0.9340 0.9343 0.9349 0.9350
3198.487303 0.9350 0.9354 0.9359 0.9364 0.9369
3203.557027 0.9370 0.9370 0.9370 0.9370 0.9370
3208.626750 0.9370 0.9370 0.9370 0.9370 0.9370
3213.696473 0.9370 0.9370 0.9370 0.9370 0.9374
3218.766196 0.9379 0.9380 0.9380 0.9383 0.9388
3223.835919 0.9393 0.9398 0.9400 0.9400 0.9400
3228.905642 0.9400 0.9403 0.9408 0.9410 0.9410
3233.975366 0.9413 0.9418 0.9420 0.9420 0.9423
3239.045089 0.9428 0.9430 0.9430 0.9423 0.9413
3244.114812 0.9410 0.9410 0.9410 0.9410 0.9413
3249.184535 0.9418 0.9420 0.9420 0.9420 0.9420
3254.254258 0.9420 0.9420 0.9420 0.9420 0.9420
3259.323982 0.9420 0.9423 0.9428 0.9430 0.9430
3264.393705 0.9433 0.9438 0.9440 0.9440 0.9443
3269.463428 0.9448 0.9450 0.9450 0.9450 0.9450
3274.533151 0.9460 0.9475 0.9480 0.9480 0.9470
3279.602874 0.9455 0.9450 0.9450 0.9447 0.9442
3284.672597 0.9440 0.9440 0.9443 0.9448 0.9450
3289.742321 0.9450 0.9450 0.9450 0.9450 0.9450
3294.812044 0.9453 0.9458 0.9463 0.9468 0.9470
3299.881767 0.9470 0.9473 0.9478 0.9480 0.9480
3304.951490 0.9480 0.9480 0.9477 0.9472 0.9473
3310.021213 0.9478 0.9483 0.9488 0.9490 0.9490
3315.090936 0.9490 0.9490 0.9490 0.9490 0.9480
3320.160660 0.9465 0.9460 0.9460 0.9460 0.9460
3325.230383 0.9460 0.9460 0.9460 0.9460 0.9460
3330.300106 0.9460 0.9460 0.9460 0.9460 0.9460
3335.369829 0.9460 0.9460 0.9460 0.9460 0.9460
3340.439552 0.9460 0.9460 0.9460 0.9463 0.9468
3345.509276 0.9470 0.9470 0.9470 0.9470 0.9470
3350.578999 0.9470 0.9470 0.9470 0.9470 0.9470
3355.648722 0.9467 0.9462 0.9460 0.9460 0.9463
3360.718445 0.9468 0.9473 0.9478 0.9480 0.9480
3365.788168 0.9480 0.9480 0.9483 0.9488 0.9490
3370.857891 0.9490 0.9493 0.9498 0.9500 0.9500
3375.927615 0.9503 0.9508 0.9510 0.9510 0.9507
3380.997338 0.9502 0.9493 0.9483 0.9477 0.9472
3386.067061 0.9470 0.9470 0.9470 0.9470 0.9470
3391.136784 0.9470 0.9470 0.9470 0.9473 0.9478
3396.206507 0.9483 0.9488 0.9487 0.9482 0.9480
3401.276231 0.9480 0.9477 0.9472 0.9467 0.9462
3406.345954 0.9457 0.9452 0.9450 0.9450 0.9444
3411.415677 0.9434 0.9430 0.9430 0.9424 0.9414
3416.485400 0.9400 0.9385 0.9367 0.9347 0.9324
3421.555123 0.9299 0.9277 0.9257 0.9240 0.9225
3426.624846 0.9214 0.9204 0.9197 0.9192 0.9184
3431.694570 0.9174 0.9170 0.9170 0.9173 0.9178
3436.764293 0.9189 0.9204 0.9213 0.9218 0.9223
3441.834016 0.9228 0.9236 0.9246 0.9256 0.9266
3446.903739 0.9276 0.9286 0.9296 0.9306 0.9316
3451.973462 0.9326 0.9336 0.9346 0.9356 0.9366
3457.043186 0.9376 0.9386 0.9396 0.9406 0.9420
3462.112909 0.9435 0.9443 0.9448 0.9456 0.9466
3467.182632 0.9473 0.9478 0.9483 0.9488 0.9493
3472.252355 0.9498 0.9503 0.9508 0.9513 0.9518
3477.322078 0.9523 0.9528 0.9533 0.9538 0.9540
3482.391801 0.9540 0.9543 0.9548 0.9553 0.9558
3487.461525 0.9563 0.9568 0.9570 0.9570 0.9573
3492.531248 0.9578 0.9580 0.9580 0.9580 0.9580
3497.600971 0.9580 0.9580 0.9580 0.9580 0.9580
3502.670694 0.9580 0.9580 0.9580 0.9583 0.9588
3507.740417 0.9590 0.9590 0.9590 0.9590 0.9590
3512.810141 0.9590 0.9590 0.9590 0.9590 0.9590
3517.879864 0.9590 0.9590 0.9590 0.9590 0.9587
3522.949587 0.9582 0.9580 0.9580 0.9580 0.9580
3528.019310 0.9580 0.9580 0.9580 0.9580 0.9580
3533.089033 0.9580 0.9577 0.9572 0.9570 0.9570
3538.158756 0.9564 0.9554 0.9550 0.9550 0.9550
3543.228480 0.9550 0.9547 0.9542 0.9540 0.9540
3548.298203 0.9537 0.9532 0.9530 0.9530 0.9530
3553.367926 0.9530 0.9530 0.9530 0.9530 0.9530
3558.437649 0.9530 0.9530 0.9527 0.9522 0.9517
3563.507372 0.9512 0.9510 0.9510 0.9513 0.9518
3568.577096 0.9520 0.9520 0.9529 0.9544 0.9556
3573.646819 0.9566 0.9585 0.9610 0.9629 0.9644
3578.716542 0.9653 0.9658 0.9660 0.9660 0.9657
3583.786265 0.9652 0.9638 0.9618 0.9595 0.9570
3588.855988 0.9548 0.9528 0.9517 0.9512 0.9510
3593.925711 0.9510 0.9507 0.9502 0.9500 0.9500
3598.995435 0.9500 0.9500 0.9500 0.9500 0.9497
3604.065158 0.9492 0.9487 0.9482 0.9477 0.9472
3609.134881 0.9470 0.9470 0.9470 0.9470 0.9470
3614.204604 0.9470 0.9470 0.9470 0.9470 0.9470
3619.274327 0.9467 0.9462 0.9460 0.9460 0.9457
3624.344051 0.9452 0.9447 0.9442 0.9440 0.9440
3629.413774 0.9440 0.9440 0.9443 0.9448 0.9450
3634.483497 0.9450 0.9453 0.9458 0.9460 0.9460
3639.553220 0.9460 0.9460 0.9463 0.9468 0.9470
3644.622943 0.9470 0.9470 0.9470 0.9473 0.9478
3649.692666 0.9480 0.9480 0.9483 0.9488 0.9490
3654.762390 0.9490 0.9490 0.9490 0.9490 0.9490
3659.832113 0.9490 0.9490 0.9490 0.9490 0.9490
3664.901836 0.9490 0.9487 0.9482 0.9480 0.9480
3669.971559 0.9483 0.9488 0.9487 0.9482 0.9480
3675.041282 0.9480 0.9480 0.9480 0.9477 0.9472
3680.111006 0.9470 0.9470 0.9470 0.9470 0.9467
3685.180729 0.9462 0.9460 0.9460 0.9460 0.9460
3690.250452 0.9460 0.9460 0.9457 0.9452 0.9453
3695.320175 0.9458 0.9463 0.9468 0.9473 0.9478
3700.389898 0.9480 0.9480 0.9480 0.9480 0.9483
3705.459621 0.9488 0.9490 0.9490 0.9490 0.9490
3710.529345 0.9481 0.9466 0.9460 0.9460 0.9460
3715.599068 0.9460 0.9463 0.9468 0.9470 0.9470
3720.668791 0.9476 0.9486 0.9490 0.9490 0.9493
3725.738514 0.9498 0.9494 0.9484 0.9480 0.9480
3730.808237 0.9477 0.9472 0.9470 0.9470 0.9470
3735.877961 0.9470 0.9484 0.9509 0.9520 0.9520
3740.947684 0.9514 0.9504 0.9500 0.9500 0.9494
3746.017407 0.9484 0.9477 0.9472 0.9467 0.9462
3751.087130 0.9466 0.9476 0.9486 0.9496 0.9503
3756.156853 0.9508 0.9510 0.9510 0.9510 0.9510
3761.226576 0.9513 0.9518 0.9520 0.9520 0.9520
3766.296300 0.9520 0.9520 0.9520 0.9520 0.9520
3771.366023 0.9520 0.9520 0.9520 0.9520 0.9523
3776.435746 0.9528 0.9530 0.9530 0.9530 0.9530
3781.505469 0.9530 0.9530 0.9530 0.9530 0.9533
3786.575192 0.9538 0.9540 0.9540 0.9540 0.9540
3791.644916 0.9543 0.9548 0.9550 0.9550 0.9550
3796.714639 0.9550 0.9547 0.9542 0.9537 0.9532
3801.784362 0.9530 0.9530 0.9527 0.9522 0.9520
3806.854085 0.9520 0.9520 0.9520 0.9523 0.9528
3811.923808 0.9530 0.9530 0.9530 0.9530 0.9530
3816.993531 0.9530 0.9533 0.9538 0.9540 0.9540
3822.063255 0.9537 0.9532 0.9530 0.9530 0.9530
3827.132978 0.9530 0.9527 0.9522 0.9520 0.9520
3832.202701 0.9520 0.9520 0.9520 0.9520 0.9523
3837.272424 0.9528 0.9530 0.9530 0.9530 0.9530
3842.342147 0.9530 0.9530 0.9530 0.9530 0.9527
3847.411871 0.9522 0.9520 0.9520 0.9520 0.9520
3852.481594 0.9517 0.9512 0.9510 0.9510 0.9510
3857.551317 0.9510 0.9510 0.9510 0.9513 0.9518
3862.621040 0.9520 0.9520 0.9520 0.9520 0.9520
3867.690763 0.9520 0.9520 0.9520 0.9525 0.9535
3872.760486 0.9540 0.9540 0.9540 0.9540 0.9545
3877.830210 0.9555 0.9560 0.9560 0.9560 0.9560
3882.899933 0.9560 0.9560 0.9560 0.9560 0.9560
3887.969656 0.9560 0.9560 0.9560 0.9557 0.9552
3893.039379 0.9547 0.9542 0.9540 0.9540 0.9537
3898.109102 0.9532 0.9530 0.9530 0.9530 0.9530
3903.178826 0.9533 0.9538 0.9540 0.9540 0.9545
3908.248549 0.9555 0.9563 0.9568 0.9570 0.9570
3913.318272 0.9570 0.9570 0.9570 0.9570 0.9570
3918.387995 0.9570 0.9565 0.9555 0.9547 0.9542
3923.457718 0.9540 0.9540 0.9543 0.9548 0.9553
3928.527441 0.9558 0.9560 0.9560 0.9563 0.9568
3933.597165 0.9570 0.9570 0.9573 0.9578 0.9580
3938.666888 0.9580 0.9580 0.9580 0.9580 0.9580
3943.736611 0.9580 0.9580 0.9577 0.9572 0.9570
3948.806334 0.9570 0.9565 0.9555 0.9550 0.9550
3953.876057 0.9550 0.9550 0.9547 0.9542 0.9540
3958.945781 0.9540 0.9545 0.9555 0.9560 0.9560
3964.015504 0.9560 0.9560 0.9560 0.9560 0.9560
3969.085227 0.9560 0.9560 0.9560 0.9557 0.9552
3974.154950 0.9550 0.9550
##END=
