##TITLE=PALLADIUM (II), BIS(ACETYLACETONATO)-
##JCAMP-DX=4.24
##DATA TYPE=INFRARED SPECTRUM
##CLASS=COBLENTZ III
##ORIGIN=SOUTHERN RESEARCH INSTITUTE
##OWNER=COBLENTZ SOCIETY
Collection (C) 2018 copyright by the U.S. Secretary of Commerce
on behalf of the United States of America. All rights reserved.
##DATE=1966/04/13
##MOLFORM=C10 H14 O4 Pd
##SOURCE REFERENCE=COBLENTZ NO. 10473
##$NIST ID=B6010473
##$NIST SOURCE=COBLENTZ
##$NIST IMAGE=cob10473
##SPECTROMETER/DATA SYSTEM=PERKIN-ELMER 521 (GRATING)
##INSTRUMENT PARAMETERS=GRATING FOR 2000, 620, FILTERS AT 3130, 2475, 2000, 1150, 700, 410 CM^-^1
##STATE=SOLID (1 mg / 650 mg KBr DISC)
##PATH LENGTH=
$$SPECTRAL CONTAMINATION DUE TO H2O AROUND 3430 CM^-^1
##SAMPLING PROCEDURE=TRANSMISSION
##RESOLUTION=4
##DATA PROCESSING=DIGITIZED BY NIST FROM HARD COPY (FROM TWO SEGMENTS)
##XUNITS=1/CM
##YUNITS=TRANSMITTANCE
##XFACTOR=1.000000
##YFACTOR=1
##DELTAX=1.303538
##FIRSTX=251.429
##LASTX=3812.69
##FIRSTY=0.269
##MAXX=3812.69
##MINX=251.429
##MAXY=0.964
##MINY=0.178075
##NPOINTS=2733
##XYDATA=(X++(Y..Y))
251.429000 0.2690 0.2730 0.2769 0.2790 0.2819
257.946690 0.2858 0.2908 0.3156 0.3273 0.3420
264.464380 0.3569 0.3718 0.3886 0.4027 0.4157
270.982070 0.4277 0.4387 0.4488 0.4578 0.4659
277.499760 0.4722 0.4798 0.4869 0.4930 0.4990
284.017450 0.5016 0.5053 0.5068 0.5086 0.5090
290.535140 0.5090 0.5090 0.5105 0.5148 0.5236
297.052830 0.5523 0.5736 0.5883 0.6044 0.6191
303.570520 0.6287 0.6360 0.6422 0.6475 0.6524
310.088210 0.6567 0.6620 0.6653 0.6680 0.6696
316.605900 0.6719 0.6762 0.6805 0.6851 0.6889
323.123590 0.6912 0.6962 0.7002 0.7028 0.7046
329.641280 0.7067 0.7103 0.7148 0.7192 0.7221
336.158970 0.7246 0.7265 0.7291 0.7331 0.7386
342.676660 0.7445 0.7490 0.7515 0.7535 0.7560
349.194350 0.7589 0.7642 0.7707 0.7758 0.7793
355.712040 0.7819 0.7843 0.7877 0.7908 0.7932
362.229730 0.7962 0.7988 0.8012 0.8045 0.8077
368.747420 0.8101 0.8131 0.8154 0.8163 0.8180
375.265110 0.8200 0.8203 0.8210 0.8213 0.8226
381.782800 0.8246 0.8266 0.8286 0.8314 0.8350
388.300490 0.8347 0.8335 0.8315 0.8307 0.8335
394.818180 0.8363 0.8412 0.8422 0.8436 0.8462
401.335870 0.8476 0.8504 0.8520 0.8520 0.8518
407.853560 0.8512 0.8523 0.8540 0.8541 0.8550
414.371250 0.8550 0.8550 0.8550 0.8550 0.8550
420.888940 0.8550 0.8550 0.8550 0.8549 0.8539
427.406630 0.8520 0.8520 0.8510 0.8499 0.8480
433.924320 0.8470 0.8429 0.8380 0.8330 0.8251
440.442010 0.8152 0.8121 0.8130 0.8283 0.8376
446.959700 0.8389 0.8381 0.8371 0.8296 0.8217
453.477390 0.8128 0.8039 0.7887 0.7701 0.7416
459.995080 0.7014 0.6707 0.6255 0.5805 0.5341
466.512770 0.5245 0.5665 0.6163 0.6618 0.7283
473.030460 0.8110 0.8520 0.8604 0.8665 0.8734
479.548150 0.8773 0.8795 0.8815 0.8835 0.8840
486.065840 0.8847 0.8872 0.8887 0.8890 0.8890
492.583530 0.8890 0.8890 0.8883 0.8880 0.8880
499.101220 0.8880 0.8880 0.8880 0.8880 0.8880
505.618910 0.8886 0.8890 0.8890 0.8896 0.8900
512.136600 0.8900 0.8900 0.8900 0.8900 0.8900
518.654290 0.8894 0.8884 0.8880 0.8869 0.8860
525.171980 0.8860 0.8860 0.8860 0.8860 0.8860
531.689670 0.8870 0.8880 0.8885 0.8890 0.8890
538.207360 0.8890 0.8890 0.8894 0.8896 0.8890
544.725050 0.8890 0.8890 0.8886 0.8888 0.8900
551.242740 0.8904 0.8906 0.8900 0.8900 0.8900
557.760430 0.8900 0.8900 0.8900 0.8900 0.8900
564.278120 0.8903 0.8910 0.8910 0.8910 0.8910
570.795810 0.8910 0.8915 0.8930 0.8930 0.8932
577.313500 0.8940 0.8940 0.8940 0.8940 0.8940
583.831190 0.8942 0.8950 0.8954 0.8970 0.8970
590.348880 0.8972 0.8980 0.8980 0.8980 0.8980
596.866570 0.8980 0.8980 0.8980 0.8980 0.8980
603.384260 0.8979 0.8971 0.8980 0.8980 0.8980
609.901950 0.8978 0.8950 0.8950 0.8950 0.8950
616.419640 0.8950 0.8951 0.8980 0.8980 0.8980
622.937330 0.8980 0.8980 0.8980 0.8980 0.8980
629.455020 0.8980 0.8970 0.8970 0.8970 0.8970
635.972710 0.8970 0.8970 0.8952 0.8941 0.8940
642.490400 0.8931 0.8930 0.8912 0.8910 0.8901
649.008090 0.8891 0.8864 0.8852 0.8817 0.8769
655.525780 0.8752 0.8408 0.7948 0.7610 0.7550
662.043470 0.7898 0.8506 0.8665 0.8655 0.8544
668.561160 0.8465 0.8324 0.8110 0.7932 0.7708
675.078850 0.7510 0.7104 0.6840 0.6790 0.7582
681.596540 0.7947 0.8462 0.8717 0.8753 0.8777
688.114230 0.8800 0.8810 0.8778 0.8660 0.8526
694.631920 0.8315 0.7945 0.7548 0.7388 0.7386
701.149610 0.7517 0.7982 0.8564 0.8933 0.9078
707.667300 0.9110 0.9126 0.9156 0.9180 0.9190
714.184990 0.9190 0.9190 0.9190 0.9190 0.9190
720.702680 0.9181 0.9170 0.9170 0.9170 0.9166
727.220370 0.9160 0.9160 0.9156 0.9150 0.9150
733.738060 0.9150 0.9150 0.9150 0.9150 0.9150
740.255750 0.9150 0.9150 0.9150 0.9150 0.9147
746.773440 0.9140 0.9134 0.9120 0.9117 0.9107
753.291130 0.9094 0.9077 0.9067 0.9054 0.9035
759.808820 0.9010 0.8967 0.8918 0.8863 0.8789
766.326510 0.8692 0.8569 0.8424 0.8247 0.8028
772.844200 0.7755 0.7327 0.6561 0.6190 0.6238
779.361890 0.6523 0.6750 0.6667 0.6105 0.5627
785.879580 0.5198 0.5336 0.6784 0.8689 0.8785
792.397270 0.8942 0.9071 0.9191 0.9201 0.9210
798.914960 0.9210 0.9210 0.9210 0.9211 0.9230
805.432650 0.9230 0.9230 0.9230 0.9230 0.9230
811.950340 0.9230 0.9230 0.9230 0.9230 0.9230
818.468030 0.9230 0.9230 0.9239 0.9240 0.9249
824.985720 0.9250 0.9250 0.9250 0.9241 0.9231
831.503410 0.9212 0.9210 0.9201 0.9200 0.9192
838.021100 0.9190 0.9173 0.9170 0.9170 0.9170
844.538790 0.9170 0.9170 0.9170 0.9170 0.9170
851.056480 0.9170 0.9162 0.9160 0.9160 0.9153
857.574170 0.9150 0.9150 0.9143 0.9140 0.9140
864.091860 0.9126 0.9120 0.9120 0.9113 0.9110
870.609550 0.9110 0.9110 0.9110 0.9110 0.9110
877.127240 0.9104 0.9100 0.9100 0.9100 0.9088
883.644930 0.9080 0.9080 0.9080 0.9080 0.9074
890.162620 0.9070 0.9064 0.9060 0.9060 0.9049
896.680310 0.9035 0.9025 0.9015 0.9010 0.9000
903.198000 0.8990 0.8985 0.8975 0.8970 0.8961
909.715690 0.8932 0.8901 0.8886 0.8867 0.8820
916.233380 0.8767 0.8734 0.8698 0.8668 0.8642
922.751070 0.8614 0.8563 0.8483 0.8373 0.8229
929.268760 0.8043 0.7808 0.7516 0.7152 0.6762
935.786450 0.6537 0.6539 0.6769 0.7404 0.7882
942.304140 0.8236 0.8479 0.8642 0.8748 0.8813
948.821830 0.8860 0.8904 0.8955 0.8975 0.8990
955.339520 0.8994 0.9010 0.9006 0.8988 0.8974
961.857210 0.8950 0.8948 0.8940 0.8938 0.8930
968.374900 0.8927 0.8910 0.8910 0.8909 0.8898
974.892590 0.8877 0.8847 0.8818 0.8798 0.8779
981.410280 0.8769 0.8759 0.8748 0.8709 0.8678
987.927970 0.8638 0.8599 0.8579 0.8550 0.8540
994.445660 0.8520 0.8500 0.8470 0.8421 0.8371
1000.963350 0.8302 0.8214 0.8096 0.8052 0.7994
1007.481040 0.7906 0.7799 0.7671 0.7533 0.7366
1013.998730 0.7197 0.7011 0.6805 0.6474 0.6395
1020.516420 0.6390 0.6399 0.6543 0.6654 0.6795
1027.034110 0.6944 0.7134 0.7349 0.7551 0.7734
1033.551800 0.7881 0.8012 0.8133 0.8229 0.8319
1040.069490 0.8393 0.8463 0.8532 0.8587 0.8629
1046.587180 0.8669 0.8687 0.8711 0.8727 0.8744
1053.104870 0.8750 0.8757 0.8767 0.8777 0.8793
1059.622560 0.8806 0.8810 0.8816 0.8820 0.8832
1066.140250 0.8840 0.8840 0.8846 0.8850 0.8850
1072.657940 0.8844 0.8840 0.8840 0.8840 0.8840
1079.175630 0.8840 0.8840 0.8840 0.8840 0.8840
1085.693320 0.8840 0.8840 0.8850 0.8860 0.8860
1092.211010 0.8860 0.8860 0.8860 0.8860 0.8860
1098.728700 0.8860 0.8856 0.8850 0.8850 0.8850
1105.246390 0.8850 0.8854 0.8860 0.8856 0.8850
1111.764080 0.8846 0.8840 0.8844 0.8860 0.8883
1118.281770 0.8893 0.8903 0.8910 0.8907 0.8897
1124.799460 0.8878 0.8847 0.8843 0.8853 0.8865
1131.317150 0.8883 0.8890 0.8890 0.8883 0.8865
1137.834840 0.8880 0.8882 0.8892 0.8898 0.8890
1144.352530 0.8884 0.8858 0.8848 0.8837 0.8818
1150.870220 0.8810 0.8808 0.8800 0.8800 0.8800
1157.387910 0.8800 0.8800 0.8800 0.8800 0.8800
1163.905600 0.8800 0.8800 0.8800 0.8799 0.8780
1170.423290 0.8779 0.8770 0.8770 0.8769 0.8750
1176.940980 0.8750 0.8730 0.8730 0.8730 0.8730
1183.458670 0.8720 0.8710 0.8691 0.8651 0.8631
1189.976360 0.8564 0.8504 0.8435 0.8374 0.8223
1196.494050 0.8017 0.7991 0.7999 0.8653 0.8792
1203.011740 0.8809 0.8810 0.8819 0.8820 0.8812
1209.529430 0.8810 0.8810 0.8802 0.8784 0.8780
1216.047120 0.8772 0.8770 0.8770 0.8762 0.8760
1222.564810 0.8752 0.8750 0.8735 0.8722 0.8720
1229.082500 0.8713 0.8710 0.8696 0.8690 0.8690
1235.600190 0.8683 0.8673 0.8670 0.8656 0.8643
1242.117880 0.8620 0.8597 0.8570 0.8554 0.8544
1248.635570 0.8540 0.8527 0.8514 0.8492 0.8425
1255.153260 0.8354 0.8306 0.8273 0.8237 0.8203
1261.670950 0.8156 0.8052 0.7846 0.7490 0.6882
1268.188640 0.6139 0.5785 0.5785 0.5952 0.6279
1274.706330 0.6958 0.7490 0.7630 0.7860 0.8058
1281.224020 0.8266 0.8416 0.8464 0.8470 0.8470
1287.741710 0.8470 0.8470 0.8466 0.8456 0.8450
1294.259400 0.8434 0.8399 0.8380 0.8369 0.8346
1300.777090 0.8333 0.8306 0.8270 0.8237 0.8197
1307.294780 0.8157 0.8118 0.8078 0.8044 0.8019
1313.812470 0.7982 0.7957 0.7942 0.7917 0.7895
1320.330160 0.7835 0.7785 0.7763 0.7735 0.7711
1326.847850 0.7669 0.7622 0.7578 0.7520 0.7469
1333.365540 0.7408 0.7335 0.7247 0.7168 0.7087
1339.883230 0.6996 0.6893 0.6777 0.6674 0.6545
1346.400920 0.6414 0.6266 0.6124 0.5956 0.5790
1352.918610 0.5660 0.5528 0.5501 0.5522 0.5553
1359.436300 0.5623 0.5692 0.5761 0.5821 0.5870
1365.953990 0.5880 0.5890 0.5890 0.5870 0.5724
1372.471680 0.5672 0.5593 0.5542 0.5493 0.5396
1378.989370 0.5288 0.5169 0.5040 0.4939 0.4821
1385.507060 0.4657 0.4471 0.4406 0.4374 0.4361
1392.024750 0.4360 0.4360 0.4360 0.4368 0.4412
1398.542440 0.4453 0.4485 0.4604 0.4638 0.4704
1405.060130 0.4783 0.4863 0.4974 0.5077 0.5169
1411.577820 0.5251 0.5330 0.5387 0.5488 0.5556
1418.095510 0.5606 0.5649 0.5696 0.5745 0.5809
1424.613200 0.5864 0.5928 0.5984 0.6053 0.6119
1431.130890 0.6192 0.6278 0.6368 0.6451 0.6536
1437.648580 0.6626 0.6715 0.6804 0.6899 0.6993
1444.166270 0.7071 0.7140 0.7216 0.7284 0.7338
1450.683960 0.7382 0.7422 0.7456 0.7475 0.7480
1457.201650 0.7475 0.7470 0.7465 0.7445 0.7425
1463.719340 0.7410 0.7400 0.7395 0.7385 0.7371
1470.237030 0.7360 0.7356 0.7350 0.7350 0.7346
1476.754720 0.7336 0.7322 0.7306 0.7288 0.7262
1483.272410 0.7220 0.7155 0.7101 0.7022 0.6946
1489.790100 0.6863 0.6760 0.6668 0.6562 0.6440
1496.307790 0.6311 0.6179 0.6031 0.5856 0.5692
1502.825480 0.5596 0.5507 0.5377 0.5114 0.4800
1509.343170 0.4455 0.4088 0.3709 0.3311 0.2944
1515.860860 0.2583 0.2251 0.1969 0.1825 0.1800
1522.378550 0.1803 0.1823 0.1849 0.1909 0.1979
1528.896240 0.2125 0.2324 0.2520 0.2702 0.2913
1535.413930 0.3135 0.3190 0.3178 0.3028 0.2859
1541.931620 0.2687 0.2474 0.2356 0.2260 0.2250
1548.449310 0.2268 0.2683 0.2953 0.3210 0.3339
1554.967000 0.3449 0.3460 0.3460 0.3084 0.2831
1561.484690 0.2564 0.2315 0.2065 0.1807 0.1781
1568.002380 0.1789 0.2026 0.2321 0.2573 0.2857
1574.520070 0.3197 0.3667 0.4139 0.4562 0.4954
1581.037760 0.5595 0.5952 0.6225 0.6468 0.6698
1587.555450 0.6902 0.7084 0.7240 0.7389 0.7506
1594.073140 0.7623 0.7735 0.7836 0.7935 0.8027
1600.590830 0.8124 0.8201 0.8271 0.8333 0.8393
1607.108520 0.8438 0.8464 0.8477 0.8501 0.8530
1613.626210 0.8573 0.8603 0.8636 0.8650 0.8663
1620.143900 0.8670 0.8676 0.8686 0.8690 0.8702
1626.661590 0.8716 0.8720 0.8726 0.8730 0.8730
1633.179280 0.8741 0.8761 0.8776 0.8796 0.8831
1639.696970 0.8871 0.8900 0.8925 0.8955 0.8975
1646.214660 0.8995 0.9015 0.9025 0.9030 0.9035
1652.732350 0.9040 0.9049 0.9060 0.9064 0.9070
1659.250040 0.9074 0.9080 0.9092 0.9114 0.9128
1665.767730 0.9144 0.9150 0.9154 0.9164 0.9181
1672.285420 0.9211 0.9244 0.9273 0.9287 0.9307
1678.803110 0.9320 0.9323 0.9333 0.9340 0.9346
1685.320800 0.9363 0.9373 0.9385 0.9403 0.9413
1691.838490 0.9427 0.9450 0.9452 0.9462 0.9470
1698.356180 0.9470 0.9474 0.9490 0.9492 0.9502
1704.873870 0.9510 0.9513 0.9530 0.9530 0.9532
1711.391560 0.9540 0.9540 0.9540 0.9541 0.9550
1717.909250 0.9550 0.9552 0.9570 0.9570 0.9571
1724.426940 0.9580 0.9580 0.9580 0.9580 0.9580
1730.944630 0.9580 0.9590 0.9600 0.9590 0.9600
1737.462320 0.9600 0.9600 0.9600 0.9620 0.9620
1743.980010 0.9620 0.9620 0.9620 0.9620 0.9620
1750.497700 0.9620 0.9620 0.9620 0.9620 0.9620
1757.015390 0.9620 0.9620 0.9629 0.9630 0.9639
1763.533080 0.9640 0.9640 0.9640 0.9640 0.9640
1770.050770 0.9640 0.9640 0.9640 0.9640 0.9640
1776.568460 0.9640 0.9640 0.9640 0.9640 0.9640
1783.086150 0.9640 0.9640 0.9640 0.9640 0.9640
1789.603840 0.9640 0.9640 0.9640 0.9640 0.9633
1796.121530 0.9630 0.9623 0.9620 0.9607 0.9600
1802.639220 0.9600 0.9600 0.9600 0.9600 0.9600
1809.156910 0.9600 0.9600 0.9600 0.9600 0.9600
1815.674600 0.9600 0.9600 0.9600 0.9600 0.9600
1822.192290 0.9600 0.9600 0.9600 0.9600 0.9600
1828.709980 0.9600 0.9600 0.9600 0.9600 0.9600
1835.227670 0.9600 0.9600 0.9600 0.9600 0.9600
1841.745360 0.9600 0.9600 0.9600 0.9600 0.9600
1848.263050 0.9596 0.9590 0.9590 0.9590 0.9586
1854.780740 0.9580 0.9580 0.9580 0.9580 0.9580
1861.298430 0.9580 0.9580 0.9580 0.9580 0.9580
1867.816120 0.9583 0.9590 0.9593 0.9600 0.9600
1874.333810 0.9600 0.9600 0.9600 0.9600 0.9600
1880.851500 0.9600 0.9600 0.9600 0.9600 0.9600
1887.369190 0.9600 0.9600 0.9600 0.9600 0.9600
1893.886880 0.9600 0.9600 0.9600 0.9600 0.9600
1900.404570 0.9600 0.9600 0.9600 0.9600 0.9600
1906.922260 0.9600 0.9600 0.9599 0.9590 0.9590
1913.439950 0.9590 0.9590 0.9590 0.9590 0.9590
1919.957640 0.9590 0.9590 0.9590 0.9590 0.9590
1926.475330 0.9590 0.9590 0.9590 0.9590 0.9580
1932.993020 0.9580 0.9580 0.9571 0.9570 0.9570
1939.510710 0.9570 0.9552 0.9550 0.9550 0.9550
1946.028400 0.9550 0.9550 0.9550 0.9533 0.9513
1952.546090 0.9510 0.9510 0.9510 0.9510 0.9510
1959.063780 0.9510 0.9510 0.9510 0.9510 0.9510
1965.581470 0.9510 0.9510 0.9510 0.9510 0.9510
1972.099160 0.9510 0.9510 0.9510 0.9532 0.9540
1978.616850 0.9540 0.9547 0.9550 0.9550 0.9543
1985.134540 0.9540 0.9540 0.9540 0.9540 0.9546
1991.652230 0.9550 0.9550 0.9538 0.9530 0.9530
1998.169920 0.9518 0.9504 0.9494 0.9490 0.9478
2004.687610 0.9470 0.9458 0.9450 0.9450 0.9450
2011.205300 0.9450 0.9450 0.9450 0.9450 0.9450
2017.722990 0.9450 0.9450 0.9450 0.9450 0.9444
2024.240680 0.9440 0.9440 0.9440 0.9440 0.9440
2030.758370 0.9440 0.9440 0.9440 0.9440 0.9446
2037.276060 0.9450 0.9450 0.9444 0.9440 0.9440
2043.793750 0.9440 0.9440 0.9440 0.9440 0.9440
2050.311440 0.9440 0.9440 0.9440 0.9440 0.9440
2056.829130 0.9428 0.9420 0.9420 0.9420 0.9420
2063.346820 0.9420 0.9420 0.9420 0.9420 0.9420
2069.864510 0.9420 0.9432 0.9440 0.9440 0.9440
2076.382200 0.9440 0.9452 0.9460 0.9460 0.9460
2082.899890 0.9460 0.9460 0.9460 0.9466 0.9464
2089.417580 0.9460 0.9454 0.9450 0.9450 0.9450
2095.935270 0.9450 0.9450 0.9450 0.9450 0.9450
2102.452960 0.9450 0.9450 0.9444 0.9440 0.9440
2108.970650 0.9428 0.9420 0.9414 0.9410 0.9410
2115.488340 0.9410 0.9410 0.9410 0.9410 0.9410
2122.006030 0.9416 0.9414 0.9404 0.9388 0.9380
2128.523720 0.9380 0.9380 0.9380 0.9380 0.9380
2135.041410 0.9398 0.9410 0.9410 0.9410 0.9410
2141.559100 0.9410 0.9416 0.9420 0.9420 0.9420
2148.076790 0.9420 0.9420 0.9414 0.9410 0.9410
2154.594480 0.9410 0.9410 0.9416 0.9420 0.9420
2161.112170 0.9420 0.9420 0.9420 0.9420 0.9420
2167.629860 0.9420 0.9420 0.9420 0.9420 0.9420
2174.147550 0.9420 0.9420 0.9420 0.9420 0.9420
2180.665240 0.9420 0.9420 0.9420 0.9414 0.9410
2187.182930 0.9410 0.9410 0.9410 0.9410 0.9410
2193.700620 0.9410 0.9410 0.9410 0.9404 0.9400
2200.218310 0.9400 0.9400 0.9400 0.9400 0.9400
2206.736000 0.9400 0.9400 0.9400 0.9400 0.9400
2213.253690 0.9400 0.9400 0.9400 0.9400 0.9400
2219.771380 0.9400 0.9400 0.9388 0.9380 0.9380
2226.289070 0.9380 0.9380 0.9380 0.9380 0.9380
2232.806760 0.9380 0.9380 0.9392 0.9400 0.9400
2239.324450 0.9388 0.9380 0.9380 0.9380 0.9380
2245.842140 0.9380 0.9380 0.9380 0.9380 0.9380
2252.359830 0.9380 0.9374 0.9370 0.9370 0.9370
2258.877520 0.9370 0.9370 0.9364 0.9360 0.9360
2265.395210 0.9360 0.9360 0.9348 0.9340 0.9340
2271.912900 0.9340 0.9340 0.9340 0.9340 0.9334
2278.430590 0.9330 0.9330 0.9330 0.9330 0.9330
2284.948280 0.9330 0.9330 0.9330 0.9330 0.9330
2291.465970 0.9330 0.9330 0.9330 0.9330 0.9330
2297.983660 0.9330 0.9330 0.9330 0.9330 0.9330
2304.501350 0.9330 0.9330 0.9330 0.9330 0.9330
2311.019040 0.9330 0.9330 0.9330 0.9330 0.9330
2317.536730 0.9330 0.9330 0.9330 0.9330 0.9330
2324.054420 0.9330 0.9330 0.9330 0.9330 0.9330
2330.572110 0.9330 0.9330 0.9330 0.9330 0.9330
2337.089800 0.9330 0.9330 0.9330 0.9330 0.9330
2343.607490 0.9336 0.9334 0.9324 0.9320 0.9320
2350.125180 0.9332 0.9340 0.9334 0.9330 0.9330
2356.642870 0.9312 0.9300 0.9300 0.9294 0.9290
2363.160560 0.9290 0.9290 0.9290 0.9290 0.9290
2369.678250 0.9284 0.9280 0.9280 0.9280 0.9280
2376.195940 0.9280 0.9280 0.9280 0.9280 0.9292
2382.713630 0.9300 0.9300 0.9300 0.9300 0.9288
2389.231320 0.9280 0.9280 0.9274 0.9270 0.9270
2395.749010 0.9282 0.9290 0.9296 0.9300 0.9312
2402.266700 0.9320 0.9320 0.9308 0.9300 0.9288
2408.784390 0.9280 0.9286 0.9290 0.9290 0.9284
2415.302080 0.9280 0.9280 0.9280 0.9280 0.9286
2421.819770 0.9290 0.9284 0.9280 0.9274 0.9270
2428.337460 0.9258 0.9244 0.9234 0.9218 0.9204
2434.855150 0.9194 0.9196 0.9182 0.9182 0.9190
2441.372840 0.9178 0.9170 0.9164 0.9154 0.9150
2447.890530 0.9144 0.9146 0.9150 0.9156 0.9166
2454.408220 0.9170 0.9170 0.9170 0.9170 0.9170
2460.925910 0.9170 0.9158 0.9150 0.9144 0.9140
2467.443600 0.9146 0.9186 0.9234 0.9292 0.9332
2473.961290 0.9340 0.9334 0.9253 0.9194 0.9190
2480.478980 0.9196 0.9200 0.9200 0.9194 0.9190
2486.996670 0.9190 0.9190 0.9178 0.9170 0.9164
2493.514360 0.9160 0.9160 0.9160 0.9166 0.9158
2500.032050 0.9150 0.9150 0.9150 0.9156 0.9160
2506.549740 0.9160 0.9160 0.9160 0.9160 0.9154
2513.067430 0.9150 0.9150 0.9150 0.9150 0.9150
2519.585120 0.9150 0.9150 0.9156 0.9160 0.9160
2526.102810 0.9154 0.9150 0.9150 0.9150 0.9150
2532.620500 0.9150 0.9150 0.9150 0.9150 0.9150
2539.138190 0.9150 0.9150 0.9150 0.9150 0.9150
2545.655880 0.9150 0.9150 0.9150 0.9150 0.9150
2552.173570 0.9150 0.9150 0.9156 0.9154 0.9144
2558.691260 0.9140 0.9140 0.9140 0.9140 0.9140
2565.208950 0.9140 0.9140 0.9140 0.9140 0.9140
2571.726640 0.9128 0.9120 0.9120 0.9120 0.9120
2578.244330 0.9120 0.9120 0.9120 0.9120 0.9120
2584.762020 0.9120 0.9120 0.9120 0.9120 0.9120
2591.279710 0.9120 0.9120 0.9120 0.9120 0.9120
2597.797400 0.9120 0.9120 0.9120 0.9120 0.9120
2604.315090 0.9120 0.9120 0.9120 0.9120 0.9120
2610.832780 0.9120 0.9120 0.9120 0.9120 0.9120
2617.350470 0.9120 0.9120 0.9120 0.9120 0.9120
2623.868160 0.9120 0.9120 0.9120 0.9120 0.9120
2630.385850 0.9120 0.9132 0.9140 0.9140 0.9140
2636.903540 0.9140 0.9140 0.9140 0.9140 0.9140
2643.421230 0.9140 0.9140 0.9140 0.9140 0.9140
2649.938920 0.9140 0.9140 0.9140 0.9140 0.9140
2656.456610 0.9140 0.9140 0.9140 0.9140 0.9140
2662.974300 0.9140 0.9140 0.9140 0.9140 0.9140
2669.491990 0.9140 0.9140 0.9140 0.9140 0.9140
2676.009680 0.9128 0.9120 0.9120 0.9120 0.9120
2682.527370 0.9120 0.9120 0.9120 0.9120 0.9120
2689.045060 0.9114 0.9110 0.9110 0.9110 0.9110
2695.562750 0.9110 0.9110 0.9110 0.9110 0.9110
2702.080440 0.9110 0.9110 0.9110 0.9110 0.9110
2708.598130 0.9110 0.9104 0.9100 0.9100 0.9100
2715.115820 0.9100 0.9088 0.9080 0.9080 0.9080
2721.633510 0.9080 0.9080 0.9080 0.9080 0.9080
2728.151200 0.9074 0.9070 0.9070 0.9070 0.9070
2734.668890 0.9070 0.9076 0.9080 0.9080 0.9080
2741.186580 0.9080 0.9080 0.9080 0.9080 0.9080
2747.704270 0.9074 0.9070 0.9070 0.9070 0.9070
2754.221960 0.9064 0.9060 0.9060 0.9060 0.9060
2760.739650 0.9060 0.9048 0.9040 0.9040 0.9040
2767.257340 0.9040 0.9040 0.9034 0.9030 0.9030
2773.775030 0.9030 0.9030 0.9030 0.9030 0.9030
2780.292720 0.9030 0.9030 0.9030 0.9030 0.9030
2786.810410 0.9030 0.9030 0.9030 0.9030 0.9030
2793.328100 0.9030 0.9024 0.9020 0.9002 0.8990
2799.845790 0.8984 0.8980 0.8974 0.8970 0.8970
2806.363480 0.8970 0.8958 0.8950 0.8950 0.8950
2812.881170 0.8950 0.8950 0.8950 0.8950 0.8950
2819.398860 0.8944 0.8940 0.8934 0.8918 0.8910
2825.916550 0.8910 0.8910 0.8904 0.8900 0.8894
2832.434240 0.8890 0.8884 0.8880 0.8880 0.8868
2838.951930 0.8860 0.8854 0.8844 0.8828 0.8814
2845.469620 0.8804 0.8788 0.8780 0.8780 0.8780
2851.987310 0.8780 0.8792 0.8800 0.8800 0.8800
2858.505000 0.8800 0.8800 0.8800 0.8800 0.8800
2865.022690 0.8800 0.8800 0.8800 0.8800 0.8800
2871.540380 0.8788 0.8780 0.8774 0.8770 0.8770
2878.058070 0.8764 0.8754 0.8738 0.8724 0.8720
2884.575760 0.8714 0.8710 0.8710 0.8710 0.8698
2891.093450 0.8690 0.8684 0.8674 0.8658 0.8638
2897.611140 0.8618 0.8604 0.8594 0.8572 0.8554
2904.128830 0.8544 0.8528 0.8514 0.8475 0.8426
2910.646520 0.8392 0.8344 0.8302 0.8284 0.8268
2917.164210 0.8260 0.8260 0.8272 0.8286 0.8296
2923.681900 0.8329 0.8386 0.8440 0.8484 0.8530
2930.199590 0.8568 0.8598 0.8610 0.8628 0.8646
2936.717280 0.8662 0.8670 0.8670 0.8670 0.8658
2943.234970 0.8650 0.8644 0.8640 0.8640 0.8640
2949.752660 0.8640 0.8640 0.8640 0.8640 0.8646
2956.270350 0.8650 0.8650 0.8662 0.8670 0.8670
2962.788040 0.8676 0.8686 0.8702 0.8710 0.8716
2969.305730 0.8720 0.8726 0.8730 0.8742 0.8750
2975.823420 0.8750 0.8750 0.8750 0.8750 0.8750
2982.341110 0.8750 0.8750 0.8750 0.8750 0.8750
2988.858800 0.8738 0.8724 0.8702 0.8684 0.8674
2995.376490 0.8670 0.8670 0.8670 0.8670 0.8670
3001.894180 0.8676 0.8680 0.8686 0.8708 0.8720
3008.411870 0.8726 0.8730 0.8742 0.8756 0.8760
3014.929560 0.8766 0.8770 0.8770 0.8776 0.8780
3021.447250 0.8780 0.8780 0.8780 0.8774 0.8770
3027.964940 0.8770 0.8770 0.8770 0.8776 0.8780
3034.482630 0.8792 0.8800 0.8800 0.8800 0.8800
3041.000320 0.8800 0.8800 0.8800 0.8800 0.8800
3047.518010 0.8800 0.8782 0.8770 0.8770 0.8770
3054.035700 0.8770 0.8770 0.8770 0.8770 0.8770
3060.553390 0.8776 0.8780 0.8780 0.8780 0.8780
3067.071080 0.8780 0.8780 0.8780 0.8774 0.8764
3073.588770 0.8760 0.8766 0.8770 0.8776 0.8780
3080.106460 0.8780 0.8792 0.8800 0.8806 0.8804
3086.624150 0.8806 0.8810 0.8810 0.8816 0.8820
3093.141840 0.8820 0.8820 0.8820 0.8808 0.8800
3099.659530 0.8800 0.8800 0.8800 0.8800 0.8806
3106.177220 0.8810 0.8810 0.8810 0.8828 0.8840
3112.694910 0.8846 0.8874 0.8902 0.8934 0.8962
3119.212600 0.8970 0.8958 0.8920 0.8876 0.8812
3125.730290 0.8774 0.8770 0.8770 0.8770 0.8770
3132.247980 0.8770 0.8770 0.8776 0.8780 0.8780
3138.765670 0.8792 0.8800 0.8800 0.8800 0.8800
3145.283360 0.8800 0.8800 0.8806 0.8810 0.8810
3151.801050 0.8810 0.8804 0.8800 0.8800 0.8800
3158.318740 0.8800 0.8788 0.8792 0.8800 0.8800
3164.836430 0.8788 0.8780 0.8774 0.8770 0.8764
3171.354120 0.8760 0.8760 0.8760 0.8760 0.8760
3177.871810 0.8760 0.8760 0.8760 0.8760 0.8760
3184.389500 0.8760 0.8760 0.8760 0.8754 0.8750
3190.907190 0.8750 0.8750 0.8738 0.8730 0.8730
3197.424880 0.8730 0.8730 0.8724 0.8720 0.8720
3203.942570 0.8720 0.8720 0.8714 0.8710 0.8710
3210.460260 0.8710 0.8698 0.8690 0.8690 0.8690
3216.977950 0.8690 0.8690 0.8690 0.8684 0.8680
3223.495640 0.8674 0.8670 0.8670 0.8658 0.8650
3230.013330 0.8644 0.8640 0.8640 0.8640 0.8640
3236.531020 0.8640 0.8640 0.8634 0.8630 0.8618
3243.048710 0.8610 0.8610 0.8610 0.8604 0.8600
3249.566400 0.8600 0.8600 0.8594 0.8590 0.8590
3256.084090 0.8590 0.8584 0.8580 0.8580 0.8568
3262.601780 0.8560 0.8560 0.8560 0.8554 0.8550
3269.119470 0.8550 0.8544 0.8540 0.8540 0.8540
3275.637160 0.8528 0.8520 0.8520 0.8520 0.8520
3282.154850 0.8514 0.8510 0.8510 0.8510 0.8510
3288.672540 0.8510 0.8510 0.8510 0.8510 0.8510
3295.190230 0.8504 0.8500 0.8500 0.8500 0.8488
3301.707920 0.8480 0.8474 0.8470 0.8470 0.8464
3308.225610 0.8460 0.8460 0.8454 0.8438 0.8424
3314.743300 0.8414 0.8410 0.8410 0.8398 0.8390
3321.260990 0.8390 0.8390 0.8384 0.8380 0.8380
3327.778680 0.8374 0.8370 0.8370 0.8358 0.8350
3334.296370 0.8350 0.8344 0.8340 0.8334 0.8330
3340.814060 0.8324 0.8320 0.8320 0.8308 0.8300
3347.331750 0.8294 0.8284 0.8280 0.8268 0.8254
3353.849440 0.8250 0.8244 0.8240 0.8240 0.8228
3360.367130 0.8208 0.8182 0.8170 0.8164 0.8160
3366.884820 0.8160 0.8160 0.8154 0.8150 0.8138
3373.402510 0.8130 0.8124 0.8120 0.8120 0.8114
3379.920200 0.8110 0.8110 0.8098 0.8090 0.8090
3386.437890 0.8084 0.8080 0.8074 0.8070 0.8058
3392.955580 0.8050 0.8050 0.8044 0.8040 0.8034
3399.473270 0.8024 0.8020 0.8008 0.7994 0.7990
3405.990960 0.7984 0.7980 0.7968 0.7960 0.7960
3412.508650 0.7960 0.7960 0.7960 0.7960 0.7960
3419.026340 0.7954 0.7950 0.7950 0.7950 0.7950
3425.544030 0.7950 0.7950 0.7950 0.7950 0.7950
3432.061720 0.7950 0.7950 0.7950 0.7956 0.7960
3438.579410 0.7960 0.7960 0.7960 0.7960 0.7960
3445.097100 0.7960 0.7960 0.7960 0.7960 0.7960
3451.614790 0.7972 0.7980 0.7980 0.7980 0.7986
3458.132480 0.7990 0.7990 0.7990 0.7990 0.7990
3464.650170 0.7996 0.8000 0.8000 0.8000 0.8012
3471.167860 0.8020 0.8020 0.8020 0.8020 0.8020
3477.685550 0.8020 0.8020 0.8020 0.8020 0.8026
3484.203240 0.8030 0.8036 0.8040 0.8040 0.8046
3490.720930 0.8050 0.8050 0.8050 0.8050 0.8050
3497.238620 0.8050 0.8050 0.8050 0.8050 0.8062
3503.756310 0.8070 0.8076 0.8080 0.8086 0.8090
3510.274000 0.8102 0.8110 0.8116 0.8120 0.8126
3516.791690 0.8130 0.8148 0.8166 0.8182 0.8190
3523.309380 0.8196 0.8200 0.8200 0.8200 0.8206
3529.827070 0.8210 0.8210 0.8210 0.8216 0.8232
3536.344760 0.8246 0.8256 0.8260 0.8272 0.8280
3542.862450 0.8280 0.8280 0.8286 0.8290 0.8296
3549.380140 0.8312 0.8320 0.8326 0.8336 0.8346
3555.897830 0.8350 0.8350 0.8362 0.8376 0.8380
3562.415520 0.8386 0.8390 0.8390 0.8402 0.8410
3568.933210 0.8416 0.8420 0.8426 0.8430 0.8442
3575.450900 0.8450 0.8456 0.8466 0.8470 0.8470
3581.968590 0.8470 0.8476 0.8480 0.8480 0.8492
3588.486280 0.8500 0.8500 0.8500 0.8506 0.8510
3595.003970 0.8516 0.8520 0.8532 0.8546 0.8550
3601.521660 0.8556 0.8560 0.8572 0.8586 0.8590
3608.039350 0.8590 0.8590 0.8590 0.8596 0.8600
3614.557040 0.8600 0.8606 0.8622 0.8642 0.8650
3621.074730 0.8662 0.8670 0.8676 0.8680 0.8680
3627.592420 0.8686 0.8690 0.8690 0.8690 0.8702
3634.110110 0.8710 0.8710 0.8716 0.8720 0.8720
3640.627800 0.8720 0.8720 0.8720 0.8720 0.8720
3647.145490 0.8720 0.8720 0.8720 0.8720 0.8720
3653.663180 0.8720 0.8720 0.8720 0.8720 0.8720
3660.180870 0.8720 0.8720 0.8720 0.8726 0.8730
3666.698560 0.8730 0.8730 0.8724 0.8714 0.8710
3673.216250 0.8710 0.8710 0.8698 0.8690 0.8690
3679.733940 0.8702 0.8710 0.8710 0.8722 0.8730
3686.251630 0.8742 0.8750 0.8750 0.8750 0.8756
3692.769320 0.8760 0.8760 0.8760 0.8760 0.8760
3699.287010 0.8760 0.8760 0.8760 0.8760 0.8742
3705.804700 0.8730 0.8730 0.8730 0.8748 0.8760
3712.322390 0.8760 0.8760 0.8760 0.8760 0.8760
3718.840080 0.8760 0.8760 0.8760 0.8760 0.8760
3725.357770 0.8760 0.8760 0.8760 0.8760 0.8760
3731.875460 0.8760 0.8760 0.8760 0.8760 0.8760
3738.393150 0.8760 0.8760 0.8754 0.8750 0.8738
3744.910840 0.8730 0.8730 0.8730 0.8730 0.8730
3751.428530 0.8730 0.8730 0.8730 0.8730 0.8748
3757.946220 0.8760 0.8754 0.8750 0.8750 0.8750
3764.463910 0.8750 0.8750 0.8750 0.8750 0.8750
3770.981600 0.8750 0.8738 0.8730 0.8730 0.8724
3777.499290 0.8720 0.8720 0.8720 0.8720 0.8720
3784.016980 0.8720 0.8720 0.8720 0.8720 0.8720
3790.534670 0.8720 0.8720 0.8720 0.8720 0.8720
3797.052360 0.8720 0.8720 0.8720 0.8720 0.8720
3803.570050 0.8720 0.8720 0.8720 0.8738 0.8750
3810.087740 0.8738 0.8730 0.8730
##END=
