##TITLE=PIPERIDINE HYDROCHLORIDE
##JCAMP-DX=4.24
##DATA TYPE=INFRARED SPECTRUM
##CLASS=COBLENTZ III
##ORIGIN=DOW CHEMICAL COMPANY
##OWNER=COBLENTZ SOCIETY
Collection (C) 2018 copyright by the U.S. Secretary of Commerce
on behalf of the United States of America. All rights reserved.
##DATE=1965/06/28
##MOLFORM=C5 H12 Cl N
##SOURCE REFERENCE=COBLENTZ NO. 10249
##$NIST ID=B6010249
##$NIST SOURCE=COBLENTZ
##$NIST IMAGE=cob10249
##SPECTROMETER/DATA SYSTEM=DOW KBr FOREPRISM-GRATING
##INSTRUMENT PARAMETERS=BLAZED AT 3.5, 12.0, 20.0 MICRON, CHANGED AT 5.0, 7.5, 14.9 MICRON
##STATE=SOLID (SPLIT MULL, FLUOROLUBE FOR 3800-1330 AND NUJOL FOR 1330-460 CM ^-^1)
##PATH LENGTH=
$$SPECTRAL CONTAMINATION DUE TO OIL AROUND 720 CM^-^1
##SAMPLING PROCEDURE=TRANSMISSION
##RESOLUTION=4
##DATA PROCESSING=DIGITIZED BY NIST FROM HARD COPY (FROM TWO SEGMENTS)
##XUNITS=1/CM
##YUNITS=TRANSMITTANCE
##XFACTOR=1.000000
##YFACTOR=1
##DELTAX=0.866552
##FIRSTX=455.806
##LASTX=3796.36
##FIRSTY=0.874
##MAXX=3796.36
##MINX=455.806
##MAXY=0.981
##MINY=0.079
##NPOINTS=3856
##XYDATA=(X++(Y..Y))
455.806000 0.8740 0.8740 0.8740 0.8740 0.8740
460.138758 0.8720 0.8720 0.8720 0.8720 0.8720
464.471517 0.8710 0.8710 0.8710 0.8710 0.8710
468.804275 0.8710 0.8710 0.8710 0.8710 0.8710
473.137033 0.8710 0.8710 0.8710 0.8710 0.8710
477.469792 0.8720 0.8720 0.8720 0.8720 0.8740
481.802550 0.8740 0.8740 0.8750 0.8750 0.8770
486.135308 0.8770 0.8770 0.8790 0.8790 0.8780
490.468067 0.8780 0.8780 0.8780 0.8780 0.8780
494.800825 0.8780 0.8780 0.8780 0.8780 0.8790
499.133583 0.8790 0.8790 0.8780 0.8780 0.8780
503.466342 0.8780 0.8780 0.8790 0.8810 0.8810
507.799100 0.8820 0.8820 0.8820 0.8820 0.8830
512.131859 0.8830 0.8850 0.8850 0.8850 0.8860
516.464617 0.8860 0.8860 0.8850 0.8850 0.8850
520.797375 0.8850 0.8860 0.8860 0.8870 0.8870
525.130134 0.8890 0.8890 0.8870 0.8870 0.8870
529.462892 0.8870 0.8870 0.8870 0.8890 0.8890
533.795650 0.8890 0.8890 0.8890 0.8890 0.8890
538.128409 0.8890 0.8890 0.8890 0.8870 0.8860
542.461167 0.8850 0.8850 0.8850 0.8850 0.8830
546.793925 0.8810 0.8770 0.8710 0.8660 0.8521
551.126684 0.8430 0.8160 0.7471 0.7121 0.6771
555.459442 0.6511 0.5932 0.5721 0.5720 0.5859
559.792200 0.7160 0.7440 0.7740 0.7820 0.8578
564.124959 0.8700 0.8710 0.8780 0.8810 0.8830
568.457717 0.8870 0.8900 0.8910 0.8930 0.8940
572.790475 0.8950 0.8950 0.8950 0.8970 0.8980
577.123234 0.9000 0.9000 0.9010 0.9020 0.9020
581.455992 0.9020 0.9020 0.9020 0.9020 0.9040
585.788750 0.9040 0.9040 0.9050 0.9040 0.9040
590.121509 0.9040 0.9040 0.9040 0.9040 0.9050
594.454267 0.9100 0.9100 0.9120 0.9130 0.9130
598.787025 0.9130 0.9140 0.9140 0.9140 0.9140
603.119784 0.9140 0.9130 0.9130 0.9120 0.9120
607.452542 0.9120 0.9120 0.9160 0.9160 0.9170
611.785301 0.9170 0.9160 0.9160 0.9160 0.9160
616.118059 0.9170 0.9180 0.9210 0.9210 0.9210
620.450817 0.9210 0.9210 0.9210 0.9210 0.9210
624.783576 0.9220 0.9240 0.9250 0.9250 0.9290
629.116334 0.9290 0.9310 0.9310 0.9310 0.9280
633.449092 0.9250 0.9250 0.9270 0.9290 0.9310
637.781851 0.9320 0.9350 0.9360 0.9370 0.9390
642.114609 0.9400 0.9400 0.9400 0.9400 0.9400
646.447367 0.9400 0.9410 0.9430 0.9410 0.9410
650.780126 0.9410 0.9410 0.9410 0.9410 0.9410
655.112884 0.9410 0.9430 0.9410 0.9410 0.9410
659.445642 0.9410 0.9410 0.9410 0.9410 0.9410
663.778401 0.9410 0.9410 0.9410 0.9410 0.9430
668.111159 0.9430 0.9430 0.9440 0.9440 0.9440
672.443917 0.9450 0.9450 0.9450 0.9470 0.9480
676.776676 0.9540 0.9480 0.9470 0.9450 0.9470
681.109434 0.9480 0.9520 0.9540 0.9540 0.9470
685.442192 0.9450 0.9450 0.9450 0.9470 0.9480
689.774951 0.9500 0.9510 0.9540 0.9520 0.9470
694.107709 0.9440 0.9410 0.9410 0.9410 0.9430
698.440468 0.9440 0.9450 0.9470 0.9470 0.9450
702.773226 0.9410 0.9400 0.9370 0.9360 0.9360
707.105984 0.9350 0.9330 0.9320 0.9320 0.9310
711.438743 0.9310 0.9250 0.9220 0.9170 0.9120
715.771501 0.9120 0.9060 0.9040 0.9040 0.9050
720.104259 0.9050 0.9090 0.9100 0.9120 0.9130
724.437018 0.9160 0.9180 0.9210 0.9220 0.9240
728.769776 0.9240 0.9240 0.9270 0.9290 0.9290
733.102534 0.9310 0.9310 0.9310 0.9310 0.9320
737.435293 0.9330 0.9330 0.9350 0.9360 0.9360
741.768051 0.9360 0.9370 0.9370 0.9390 0.9390
746.100809 0.9390 0.9390 0.9390 0.9390 0.9400
750.433568 0.9400 0.9410 0.9410 0.9410 0.9410
754.766326 0.9410 0.9410 0.9410 0.9430 0.9440
759.099084 0.9440 0.9440 0.9440 0.9430 0.9430
763.431843 0.9430 0.9430 0.9430 0.9430 0.9430
767.764601 0.9430 0.9430 0.9430 0.9430 0.9430
772.097359 0.9440 0.9450 0.9450 0.9450 0.9450
776.430118 0.9450 0.9450 0.9450 0.9450 0.9450
780.762876 0.9450 0.9450 0.9450 0.9450 0.9450
785.095634 0.9450 0.9470 0.9470 0.9470 0.9470
789.428393 0.9470 0.9470 0.9450 0.9450 0.9450
793.761151 0.9450 0.9450 0.9450 0.9430 0.9430
798.093910 0.9410 0.9400 0.9400 0.9400 0.9400
802.426668 0.9400 0.9400 0.9410 0.9430 0.9430
806.759426 0.9440 0.9440 0.9450 0.9450 0.9450
811.092185 0.9450 0.9450 0.9450 0.9450 0.9450
815.424943 0.9450 0.9450 0.9440 0.9430 0.9430
819.757701 0.9430 0.9430 0.9430 0.9430 0.9440
824.090460 0.9440 0.9450 0.9450 0.9400 0.9350
828.423218 0.9330 0.9320 0.9320 0.9310 0.9320
832.755976 0.9330 0.9350 0.9370 0.9370 0.9370
837.088735 0.9370 0.9390 0.9390 0.9400 0.9400
841.421493 0.9400 0.9400 0.9390 0.9390 0.9390
845.754251 0.9390 0.9390 0.9390 0.9390 0.9390
850.087010 0.9370 0.9370 0.9370 0.9360 0.9330
854.419768 0.9310 0.9210 0.9120 0.9000 0.8471
858.752526 0.7931 0.7930 0.9156 0.9309 0.9320
863.085285 0.9330 0.9360 0.9370 0.9370 0.9330
867.418043 0.9210 0.9120 0.9120 0.9220 0.9310
871.750801 0.9320 0.9330 0.9330 0.9350 0.9350
876.083560 0.9350 0.9360 0.9360 0.9350 0.9330
880.416318 0.9330 0.9330 0.9330 0.9320 0.9320
884.749076 0.9320 0.9320 0.9320 0.9330 0.9330
889.081835 0.9330 0.9330 0.9330 0.9350 0.9350
893.414593 0.9330 0.9330 0.9330 0.9330 0.9350
897.747352 0.9350 0.9330 0.9330 0.9330 0.9330
902.080110 0.9330 0.9330 0.9330 0.9320 0.9320
906.412868 0.9320 0.9330 0.9320 0.9320 0.9320
910.745627 0.9320 0.9320 0.9320 0.9320 0.9320
915.078385 0.9320 0.9320 0.9330 0.9330 0.9320
919.411143 0.9320 0.9320 0.9320 0.9320 0.9320
923.743902 0.9320 0.9310 0.9310 0.9270 0.9220
928.076660 0.9200 0.9140 0.9120 0.9090 0.9090
932.409418 0.9050 0.8980 0.8900 0.8870 0.8630
936.742177 0.8271 0.7871 0.7322 0.7320 0.7947
941.074935 0.8050 0.8050 0.7591 0.7350 0.7051
945.407693 0.6980 0.6910 0.7767 0.8746 0.9138
949.740452 0.9170 0.9200 0.9220 0.9250 0.9250
954.073210 0.9270 0.9290 0.9290 0.9310 0.9310
958.405968 0.9310 0.9310 0.9320 0.9320 0.9320
962.738727 0.9320 0.9320 0.9320 0.9320 0.9320
967.071485 0.9330 0.9330 0.9330 0.9330 0.9330
971.404243 0.9330 0.9330 0.9350 0.9360 0.9360
975.737002 0.9360 0.9360 0.9370 0.9370 0.9390
980.069760 0.9390 0.9400 0.9400 0.9400 0.9390
984.402518 0.9390 0.9390 0.9390 0.9390 0.9390
988.735277 0.9390 0.9390 0.9390 0.9390 0.9390
993.068035 0.9400 0.9400 0.9400 0.9400 0.9410
997.400794 0.9410 0.9390 0.9370 0.9370 0.9390
1001.733552 0.9390 0.9390 0.9390 0.9390 0.9370
1006.066310 0.9370 0.9360 0.9360 0.9360 0.9360
1010.399069 0.9360 0.9350 0.9330 0.9320 0.9310
1014.731827 0.9290 0.9250 0.9210 0.9120 0.9090
1019.064585 0.9020 0.8980 0.8910 0.8830 0.8680
1023.397344 0.8401 0.8201 0.8130 0.7702 0.7222
1027.730102 0.7000 0.6750 0.6211 0.7218 0.7589
1032.062860 0.8737 0.8890 0.8900 0.8910 0.8910
1036.395619 0.8900 0.8910 0.8940 0.8980 0.9020
1040.728377 0.9100 0.9130 0.9140 0.9160 0.9160
1045.061135 0.9160 0.9160 0.9130 0.9120 0.9090
1049.393894 0.9050 0.8980 0.8950 0.8910 0.8890
1053.726652 0.8770 0.8660 0.8660 0.8770 0.8930
1058.059410 0.9100 0.9200 0.9210 0.9210 0.9210
1062.392169 0.9200 0.9180 0.9160 0.9130 0.9100
1066.724927 0.9040 0.8950 0.8900 0.8751 0.8680
1071.057685 0.8500 0.8160 0.7910 0.7820 0.7820
1075.390444 0.7950 0.7980 0.8080 0.8210 0.8310
1079.723202 0.8330 0.8370 0.8480 0.8510 0.8740
1084.055961 0.8910 0.9000 0.9090 0.9130 0.9180
1088.388719 0.9240 0.9290 0.9290 0.9290 0.9310
1092.721477 0.9310 0.9320 0.9320 0.9320 0.9320
1097.054236 0.9330 0.9320 0.9320 0.9320 0.9320
1101.386994 0.9320 0.9320 0.9320 0.9310 0.9310
1105.719752 0.9290 0.9290 0.9310 0.9310 0.9310
1110.052511 0.9310 0.9310 0.9310 0.9310 0.9310
1114.385269 0.9310 0.9310 0.9290 0.9290 0.9290
1118.718027 0.9310 0.9310 0.9320 0.9320 0.9320
1123.050786 0.9330 0.9330 0.9330 0.9330 0.9350
1127.383544 0.9360 0.9360 0.9330 0.9320 0.9320
1131.716302 0.9310 0.9310 0.9290 0.9290 0.9250
1136.049061 0.9200 0.9200 0.9220 0.9270 0.9290
1140.381819 0.9290 0.9290 0.9290 0.9290 0.9290
1144.714577 0.9290 0.9290 0.9290 0.9290 0.9280
1149.047336 0.9270 0.9270 0.9270 0.9250 0.9240
1153.380094 0.9210 0.9200 0.9140 0.9120 0.8971
1157.712852 0.8809 0.8290 0.7630 0.7630 0.7910
1162.045611 0.8319 0.9088 0.9160 0.9200 0.9250
1166.378369 0.9280 0.9290 0.9310 0.9310 0.9290
1170.711127 0.9290 0.9270 0.9240 0.9160 0.9080
1175.043886 0.9020 0.9000 0.9100 0.9170 0.9250
1179.376644 0.9320 0.9320 0.9320 0.9320 0.9320
1183.709403 0.9330 0.9360 0.9360 0.9360 0.9350
1188.042161 0.9350 0.9330 0.9350 0.9330 0.9330
1192.374919 0.9330 0.9330 0.9330 0.9330 0.9330
1196.707678 0.9330 0.9330 0.9330 0.9350 0.9360
1201.040436 0.9360 0.9350 0.9360 0.9370 0.9370
1205.373194 0.9370 0.9370 0.9370 0.9370 0.9370
1209.705953 0.9370 0.9370 0.9360 0.9350 0.9350
1214.038711 0.9330 0.9330 0.9330 0.9330 0.9350
1218.371469 0.9330 0.9330 0.9330 0.9330 0.9330
1222.704228 0.9330 0.9330 0.9330 0.9330 0.9330
1227.036986 0.9350 0.9330 0.9330 0.9330 0.9320
1231.369744 0.9310 0.9310 0.9310 0.9280 0.9280
1235.702503 0.9280 0.9270 0.9270 0.9250 0.9220
1240.035261 0.9210 0.9200 0.9200 0.9180 0.9170
1244.368019 0.9160 0.9160 0.9160 0.9130 0.9120
1248.700778 0.9120 0.9100 0.9090 0.9090 0.9090
1253.033536 0.9090 0.9080 0.9080 0.9080 0.9060
1257.366294 0.9050 0.9040 0.9010 0.8980 0.8950
1261.699053 0.8930 0.8910 0.8900 0.8900 0.8910
1266.031811 0.8910 0.8930 0.8930 0.8930 0.8900
1270.364569 0.8900 0.8780 0.8700 0.8590 0.8510
1274.697328 0.8510 0.8600 0.8779 0.8900 0.8930
1279.030086 0.9000 0.9000 0.9010 0.9020 0.9040
1283.362845 0.9040 0.9040 0.9040 0.9050 0.9040
1287.695603 0.9040 0.9040 0.9020 0.9020 0.9020
1292.028361 0.9010 0.9010 0.9000 0.8980 0.8950
1296.361120 0.8950 0.8950 0.8940 0.8940 0.8930
1300.693878 0.8930 0.8910 0.8910 0.8900 0.8900
1305.026636 0.8900 0.8890 0.8870 0.8830 0.8820
1309.359395 0.8820 0.8810 0.8780 0.8720 0.8640
1313.692153 0.8600 0.8480 0.8450 0.8450 0.8550
1318.024911 0.8789 0.8860 0.8890 0.8890 0.8900
1322.357670 0.8900 0.8900 0.8900 0.8890 0.8890
1326.690428 0.8870 0.8860 0.8820 0.8820 0.8810
1331.023186 0.8780 0.8750 0.8710 0.8700 0.8700
1335.355945 0.8700 0.8680 0.8680 0.8660 0.8630
1339.688703 0.8630 0.8600 0.8590 0.8560 0.8550
1344.021461 0.8520 0.8520 0.8510 0.8510 0.8500
1348.354220 0.8480 0.8430 0.8400 0.8370 0.8360
1352.686978 0.8350 0.8360 0.8370 0.8400 0.8430
1357.019736 0.8480 0.8500 0.8540 0.8560 0.8580
1361.352495 0.8590 0.8600 0.8620 0.8620 0.8640
1365.685253 0.8660 0.8680 0.8680 0.8700 0.8700
1370.018011 0.8700 0.8700 0.8680 0.8680 0.8680
1374.350770 0.8660 0.8640 0.8630 0.8600 0.8560
1378.683528 0.8540 0.8510 0.8480 0.8430 0.8350
1383.016287 0.8310 0.8240 0.8200 0.8200 0.8240
1387.349045 0.8290 0.8360 0.8480 0.8510 0.8520
1391.681803 0.8540 0.8560 0.8560 0.8550 0.8510
1396.014562 0.8500 0.8500 0.8510 0.8600 0.8710
1400.347320 0.8900 0.8950 0.8980 0.9010 0.9020
1404.680078 0.9020 0.9010 0.9010 0.9000 0.8980
1409.012837 0.8980 0.8980 0.8980 0.8970 0.8950
1413.345595 0.8930 0.8910 0.8900 0.8890 0.8820
1417.678353 0.8720 0.8590 0.8400 0.8330 0.8270
1422.011112 0.8220 0.8240 0.8330 0.8430 0.8480
1426.343870 0.8480 0.8470 0.8440 0.8310 0.8130
1430.676628 0.8000 0.7910 0.7830 0.7830 0.7810
1435.009387 0.7750 0.7720 0.7480 0.7330 0.7330
1439.342145 0.7889 0.7900 0.7860 0.7790 0.7740
1443.674903 0.7720 0.7710 0.7710 0.7720 0.7740
1448.007662 0.7740 0.7750 0.7750 0.7740 0.7561
1452.340420 0.7240 0.7000 0.6750 0.5511 0.5470
1456.673178 0.5450 0.5360 0.5171 0.5100 0.5100
1461.005937 0.5210 0.5250 0.5240 0.4890 0.4890
1465.338695 0.5719 0.6558 0.7627 0.8198 0.8539
1469.671454 0.8890 0.8930 0.8980 0.9010 0.9020
1474.004212 0.9020 0.9010 0.9000 0.8980 0.8980
1478.336970 0.9040 0.9120 0.9200 0.9220 0.9250
1482.669729 0.9270 0.9280 0.9290 0.9290 0.9310
1487.002487 0.9320 0.9320 0.9320 0.9310 0.9310
1491.335245 0.9310 0.9310 0.9310 0.9290 0.9280
1495.668004 0.9280 0.9280 0.9290 0.9310 0.9310
1500.000762 0.9320 0.9320 0.9330 0.9350 0.9350
1504.333520 0.9320 0.9320 0.9310 0.9310 0.9290
1508.666279 0.9290 0.9290 0.9280 0.9280 0.9280
1512.999037 0.9280 0.9270 0.9270 0.9270 0.9270
1517.331795 0.9270 0.9270 0.9270 0.9270 0.9280
1521.664554 0.9290 0.9290 0.9310 0.9310 0.9320
1525.997312 0.9330 0.9330 0.9350 0.9360 0.9370
1530.330070 0.9390 0.9400 0.9400 0.9410 0.9410
1534.662829 0.9430 0.9440 0.9450 0.9470 0.9480
1538.995587 0.9480 0.9470 0.9480 0.9500 0.9510
1543.328345 0.9520 0.9510 0.9520 0.9520 0.9520
1547.661104 0.9540 0.9510 0.9510 0.9510 0.9520
1551.993862 0.9520 0.9520 0.9540 0.9540 0.9540
1556.326620 0.9540 0.9540 0.9540 0.9510 0.9510
1560.659379 0.9520 0.9520 0.9520 0.9520 0.9520
1564.992137 0.9520 0.9480 0.9470 0.9440 0.9410
1569.324896 0.9400 0.9400 0.9410 0.9410 0.9410
1573.657654 0.9390 0.9350 0.9320 0.9310 0.9290
1577.990412 0.9210 0.9120 0.9040 0.9000 0.8910
1582.323171 0.8790 0.8710 0.8540 0.8310 0.8020
1586.655929 0.7501 0.6971 0.5544 0.4892 0.4252
1590.988687 0.4250 0.4750 0.5240 0.7048 0.7669
1595.321446 0.8129 0.8429 0.8669 0.8939 0.9159
1599.654204 0.9290 0.9430 0.9470 0.9510 0.9520
1603.986962 0.9520 0.9510 0.9500 0.9360 0.9221
1608.319721 0.9100 0.9100 0.9210 0.9290 0.9390
1612.652479 0.9430 0.9450 0.9470 0.9540 0.9550
1616.985237 0.9590 0.9630 0.9660 0.9680 0.9700
1621.317996 0.9680 0.9680 0.9680 0.9700 0.9700
1625.650754 0.9700 0.9680 0.9680 0.9680 0.9680
1629.983512 0.9670 0.9660 0.9660 0.9640 0.9620
1634.316271 0.9600 0.9600 0.9620 0.9620 0.9620
1638.649029 0.9600 0.9600 0.9600 0.9600 0.9590
1642.981787 0.9580 0.9560 0.9560 0.9580 0.9580
1647.314546 0.9580 0.9580 0.9590 0.9590 0.9590
1651.647304 0.9590 0.9580 0.9560 0.9550 0.9550
1655.980062 0.9540 0.9540 0.9520 0.9510 0.9500
1660.312821 0.9480 0.9450 0.9450 0.9440 0.9430
1664.645579 0.9400 0.9370 0.9370 0.9360 0.9350
1668.978338 0.9350 0.9350 0.9330 0.9330 0.9320
1673.311096 0.9320 0.9330 0.9360 0.9370 0.9390
1677.643854 0.9410 0.9440 0.9500 0.9510 0.9520
1681.976613 0.9540 0.9550 0.9560 0.9580 0.9580
1686.309371 0.9600 0.9600 0.9620 0.9630 0.9630
1690.642129 0.9630 0.9640 0.9640 0.9660 0.9660
1694.974888 0.9670 0.9670 0.9660 0.9630 0.9630
1699.307646 0.9630 0.9640 0.9640 0.9660 0.9660
1703.640404 0.9670 0.9680 0.9680 0.9700 0.9700
1707.973163 0.9680 0.9680 0.9680 0.9680 0.9680
1712.305921 0.9680 0.9700 0.9700 0.9680 0.9680
1716.638679 0.9680 0.9680 0.9680 0.9680 0.9700
1720.971438 0.9700 0.9700 0.9680 0.9680 0.9680
1725.304196 0.9680 0.9680 0.9680 0.9700 0.9700
1729.636954 0.9670 0.9660 0.9640 0.9630 0.9630
1733.969713 0.9620 0.9620 0.9630 0.9640 0.9640
1738.302471 0.9640 0.9670 0.9670 0.9660 0.9660
1742.635229 0.9660 0.9660 0.9670 0.9680 0.9680
1746.967988 0.9680 0.9670 0.9670 0.9670 0.9670
1751.300746 0.9670 0.9680 0.9680 0.9700 0.9700
1755.633504 0.9680 0.9670 0.9670 0.9660 0.9640
1759.966263 0.9640 0.9640 0.9640 0.9660 0.9670
1764.299021 0.9670 0.9670 0.9670 0.9670 0.9670
1768.631780 0.9660 0.9640 0.9630 0.9620 0.9580
1772.964538 0.9540 0.9540 0.9480 0.9450 0.9450
1777.297296 0.9440 0.9450 0.9480 0.9510 0.9520
1781.630055 0.9540 0.9540 0.9560 0.9590 0.9630
1785.962813 0.9660 0.9670 0.9670 0.9670 0.9670
1790.295571 0.9670 0.9680 0.9680 0.9680 0.9700
1794.628330 0.9700 0.9680 0.9680 0.9680 0.9680
1798.961088 0.9680 0.9680 0.9700 0.9680 0.9670
1803.293846 0.9670 0.9680 0.9680 0.9680 0.9680
1807.626605 0.9680 0.9700 0.9700 0.9710 0.9710
1811.959363 0.9710 0.9710 0.9710 0.9700 0.9700
1816.292121 0.9680 0.9680 0.9680 0.9700 0.9700
1820.624880 0.9680 0.9680 0.9670 0.9670 0.9670
1824.957638 0.9670 0.9670 0.9660 0.9660 0.9660
1829.290396 0.9660 0.9660 0.9660 0.9670 0.9660
1833.623155 0.9660 0.9660 0.9660 0.9660 0.9670
1837.955913 0.9670 0.9670 0.9670 0.9670 0.9670
1842.288671 0.9670 0.9670 0.9640 0.9630 0.9620
1846.621430 0.9620 0.9630 0.9630 0.9630 0.9630
1850.954188 0.9620 0.9600 0.9620 0.9620 0.9590
1855.286947 0.9580 0.9580 0.9580 0.9560 0.9550
1859.619705 0.9540 0.9520 0.9510 0.9500 0.9480
1863.952463 0.9450 0.9440 0.9430 0.9400 0.9400
1868.285222 0.9370 0.9330 0.9310 0.9290 0.9250
1872.617980 0.9220 0.9210 0.9200 0.9170 0.9160
1876.950738 0.9130 0.9120 0.9100 0.9080 0.9060
1881.283497 0.9050 0.9020 0.9010 0.9000 0.8980
1885.616255 0.8980 0.8980 0.9000 0.9080 0.9120
1889.949013 0.9170 0.9250 0.9310 0.9320 0.9330
1894.281772 0.9370 0.9400 0.9430 0.9430 0.9440
1898.614530 0.9450 0.9500 0.9500 0.9510 0.9520
1902.947288 0.9540 0.9560 0.9560 0.9580 0.9590
1907.280047 0.9600 0.9600 0.9600 0.9620 0.9620
1911.612805 0.9630 0.9630 0.9630 0.9630 0.9640
1915.945563 0.9640 0.9640 0.9640 0.9640 0.9640
1920.278322 0.9630 0.9630 0.9630 0.9630 0.9630
1924.611080 0.9640 0.9640 0.9640 0.9630 0.9630
1928.943838 0.9630 0.9620 0.9620 0.9620 0.9620
1933.276597 0.9630 0.9630 0.9630 0.9630 0.9630
1937.609355 0.9620 0.9620 0.9620 0.9620 0.9620
1941.942113 0.9620 0.9620 0.9600 0.9600 0.9620
1946.274872 0.9620 0.9620 0.9580 0.9580 0.9600
1950.607630 0.9630 0.9640 0.9670 0.9680 0.9680
1954.940389 0.9630 0.9620 0.9590 0.9580 0.9580
1959.273147 0.9580 0.9580 0.9580 0.9580 0.9580
1963.605905 0.9560 0.9550 0.9550 0.9550 0.9540
1967.938664 0.9540 0.9520 0.9540 0.9540 0.9510
1972.271422 0.9510 0.9480 0.9470 0.9450 0.9440
1976.604180 0.9430 0.9430 0.9430 0.9400 0.9360
1980.936939 0.9330 0.9320 0.9320 0.9310 0.9250
1985.269697 0.9250 0.9250 0.9240 0.9220 0.9220
1989.602455 0.9170 0.9050 0.8830 0.8810 0.8830
1993.935214 0.8940 0.9279 0.9559 0.9560 0.9560
1998.267972 0.9550 0.9520 0.9510 0.9495 0.9480
2002.600730 0.9475 0.9470 0.9470 0.9470 0.9475
2006.933489 0.9480 0.9490 0.9500 0.9525 0.9551
2011.266247 0.9586 0.9620 0.9646 0.9670 0.9675
2015.599005 0.9680 0.9696 0.9710 0.9710 0.9712
2019.931764 0.9742 0.9771 0.9781 0.9791 0.9801
2024.264522 0.9810 0.9810 0.9810 0.9810 0.9809
2028.597280 0.9799 0.9789 0.9779 0.9768 0.9738
2032.930039 0.9708 0.9683 0.9659 0.9644 0.9630
2037.262797 0.9625 0.9620 0.9620 0.9621 0.9631
2041.595555 0.9639 0.9634 0.9629 0.9624 0.9620
2045.928314 0.9620 0.9620 0.9620 0.9620 0.9620
2050.261072 0.9621 0.9626 0.9636 0.9676 0.9714
2054.593831 0.9744 0.9771 0.9776 0.9780 0.9780
2058.926589 0.9780 0.9780 0.9782 0.9797 0.9810
2063.259347 0.9810 0.9808 0.9798 0.9789 0.9784
2067.592106 0.9780 0.9780 0.9780 0.9780 0.9779
2071.924864 0.9774 0.9768 0.9758 0.9749 0.9744
2076.257622 0.9738 0.9728 0.9716 0.9696 0.9676
2080.590381 0.9656 0.9640 0.9640 0.9644 0.9664
2084.923139 0.9682 0.9692 0.9702 0.9712 0.9726
2089.255897 0.9751 0.9770 0.9770 0.9764 0.9739
2093.588656 0.9719 0.9714 0.9710 0.9710 0.9709
2097.921414 0.9704 0.9697 0.9687 0.9679 0.9674
2102.254172 0.9669 0.9664 0.9657 0.9647 0.9640
2106.586931 0.9640 0.9639 0.9634 0.9630 0.9630
2110.919689 0.9631 0.9636 0.9640 0.9640 0.9643
2115.252447 0.9653 0.9660 0.9660 0.9655 0.9640
2119.585206 0.9625 0.9610 0.9594 0.9573 0.9558
2123.917964 0.9553 0.9550 0.9550 0.9548 0.9543
2128.250722 0.9540 0.9540 0.9543 0.9553 0.9560
2132.583481 0.9560 0.9560 0.9560 0.9563 0.9573
2136.916239 0.9580 0.9580 0.9576 0.9566 0.9556
2141.248997 0.9546 0.9536 0.9526 0.9516 0.9506
2145.581756 0.9481 0.9431 0.9375 0.9310 0.9243
2149.914514 0.9173 0.9091 0.8991 0.8887 0.8777
2154.247273 0.8710 0.8710 0.8739 0.8809 0.8863
2158.580031 0.8893 0.8923 0.8953 0.8972 0.8977
2162.912789 0.8980 0.8980 0.8965 0.8930 0.8910
2167.245548 0.8910 0.8956 0.9061 0.9153 0.9228
2171.578306 0.9292 0.9343 0.9389 0.9429 0.9466
2175.911064 0.9501 0.9527 0.9542 0.9550 0.9550
2180.243823 0.9550 0.9550 0.9550 0.9550 0.9550
2184.576581 0.9550 0.9552 0.9557 0.9565 0.9575
2188.909339 0.9580 0.9580 0.9575 0.9565 0.9557
2193.242098 0.9552 0.9550 0.9550 0.9550 0.9550
2197.574856 0.9547 0.9542 0.9540 0.9540 0.9540
2201.907614 0.9540 0.9535 0.9525 0.9509 0.9489
2206.240373 0.9469 0.9449 0.9432 0.9417 0.9404
2210.573131 0.9394 0.9382 0.9367 0.9363 0.9368
2214.905889 0.9376 0.9386 0.9393 0.9398 0.9400
2219.238648 0.9400 0.9400 0.9400 0.9403 0.9408
2223.571406 0.9410 0.9410 0.9410 0.9410 0.9410
2227.904164 0.9410 0.9410 0.9410 0.9407 0.9402
2232.236923 0.9400 0.9400 0.9397 0.9392 0.9381
2236.569681 0.9366 0.9351 0.9336 0.9327 0.9322
2240.902440 0.9317 0.9312 0.9297 0.9277 0.9264
2245.235198 0.9253 0.9247 0.9242 0.9230 0.9215
2249.567956 0.9207 0.9202 0.9193 0.9183 0.9180
2253.900715 0.9180 0.9180 0.9180 0.9180 0.9180
2258.233473 0.9177 0.9172 0.9167 0.9162 0.9153
2262.566231 0.9143 0.9140 0.9140 0.9147 0.9157
2266.898990 0.9160 0.9160 0.9164 0.9169 0.9181
2271.231748 0.9196 0.9200 0.9200 0.9200 0.9200
2275.564506 0.9207 0.9217 0.9231 0.9246 0.9250
2279.897265 0.9250 0.9239 0.9224 0.9205 0.9185
2284.230023 0.9172 0.9162 0.9152 0.9142 0.9140
2288.562781 0.9140 0.9136 0.9131 0.9130 0.9130
2292.895540 0.9126 0.9121 0.9124 0.9129 0.9130
2297.228298 0.9130 0.9130 0.9130 0.9134 0.9139
2301.561056 0.9148 0.9158 0.9164 0.9169 0.9174
2305.893815 0.9179 0.9172 0.9162 0.9120 0.9070
2310.226573 0.9035 0.9005 0.9000 0.9000 0.9017
2314.559331 0.9037 0.9044 0.9049 0.9050 0.9050
2318.892090 0.9033 0.9013 0.9010 0.9010 0.9006
2323.224848 0.9001 0.9000 0.9000 0.8987 0.8972
2327.557606 0.8970 0.8970 0.8961 0.8951 0.8946
2331.890365 0.8941 0.8936 0.8931 0.8921 0.8911
2336.223123 0.8910 0.8910 0.8906 0.8901 0.8900
2340.555882 0.8900 0.8896 0.8891 0.8890 0.8890
2344.888640 0.8881 0.8871 0.8865 0.8860 0.8855
2349.221398 0.8850 0.8831 0.8811 0.8791 0.8771
2353.554157 0.8747 0.8722 0.8720 0.8720 0.8701
2357.886915 0.8681 0.8661 0.8641 0.8635 0.8630
2362.219673 0.8616 0.8600 0.8590 0.8580 0.8580
2366.552432 0.8580 0.8565 0.8550 0.8530 0.8510
2370.885190 0.8505 0.8500 0.8475 0.8450 0.8445
2375.217948 0.8440 0.8440 0.8440 0.8420 0.8400
2379.550707 0.8375 0.8350 0.8340 0.8330 0.8330
2383.883465 0.8330 0.8325 0.8320 0.8320 0.8320
2388.216223 0.8315 0.8310 0.8310 0.8310 0.8315
2392.548982 0.8320 0.8320 0.8319 0.8294 0.8269
2396.881740 0.8233 0.8197 0.8147 0.8098 0.8068
2401.214498 0.8037 0.7987 0.7935 0.7870 0.7808
2405.547257 0.7778 0.7724 0.7379 0.7060 0.7060
2409.880015 0.7066 0.7147 0.7220 0.7220 0.7220
2414.212773 0.7215 0.7208 0.7188 0.7163 0.7098
2418.545532 0.7037 0.7007 0.6976 0.6941 0.6892
2422.878290 0.6736 0.6582 0.6437 0.6299 0.6209
2427.211048 0.6081 0.5690 0.5335 0.5220 0.5135
2431.543807 0.5252 0.5380 0.5575 0.5779 0.6030
2435.876565 0.6247 0.6292 0.6389 0.6755 0.7069
2440.209324 0.7124 0.7177 0.7217 0.7253 0.7268
2444.542082 0.7294 0.7374 0.7459 0.7569 0.7681
2448.874840 0.7797 0.7911 0.8016 0.8118 0.8208
2453.207599 0.8283 0.8298 0.8310 0.8310 0.8306
2457.540357 0.8286 0.8264 0.8234 0.8209 0.8204
2461.873115 0.8198 0.8188 0.8179 0.8174 0.8167
2466.205874 0.8151 0.8139 0.8134 0.8126 0.8111
2470.538632 0.8094 0.8069 0.8045 0.8025 0.8002
2474.871390 0.7972 0.7940 0.7900 0.7857 0.7807
2479.204149 0.7762 0.7732 0.7710 0.7710 0.7715
2483.536907 0.7736 0.7750 0.7750 0.7754 0.7769
2487.869665 0.7779 0.7773 0.7749 0.7679 0.7613
2492.202424 0.7558 0.7491 0.7396 0.7301 0.7206
2496.535182 0.7120 0.7055 0.7004 0.6984 0.6960
2500.867940 0.6930 0.6902 0.6876 0.6851 0.6826
2505.200699 0.6805 0.6790 0.6742 0.6632 0.6518
2509.533457 0.6398 0.6251 0.6056 0.5862 0.5672
2513.866215 0.5514 0.5414 0.5296 0.5146 0.5002
2518.198974 0.4871 0.4686 0.4416 0.4205 0.4090
2522.531732 0.3975 0.3860 0.3719 0.3539 0.3319
2526.864490 0.3039 0.2840 0.2765 0.2720 0.2720
2531.197249 0.2764 0.2875 0.3188 0.3799 0.4323
2535.530007 0.4723 0.5097 0.5437 0.5673 0.5774
2539.862766 0.6064 0.6600 0.6900 0.6900 0.6898
2544.195524 0.6893 0.6883 0.6868 0.6842 0.6802
2548.528282 0.6764 0.6729 0.6703 0.6688 0.6694
2552.861041 0.6724 0.6762 0.6807 0.6871 0.6956
2557.193799 0.7031 0.7097 0.7149 0.7189 0.7225
2561.526557 0.7255 0.7280 0.7300 0.7315 0.7325
2565.859316 0.7347 0.7382 0.7402 0.7408 0.7407
2570.192074 0.7402 0.7369 0.7308 0.7262 0.7227
2574.524832 0.7141 0.7011 0.6883 0.6758 0.6641
2578.857591 0.6531 0.6424 0.6318 0.6211 0.6100
2583.190349 0.5990 0.5880 0.5830 0.5830 0.5910
2587.523107 0.6057 0.6180 0.6285 0.6447 0.6653
2591.855866 0.6754 0.6779 0.6790 0.6790 0.6787
2596.188624 0.6782 0.6748 0.6693 0.6620 0.6535
2600.521382 0.6471 0.6420 0.6347 0.6257 0.6208
2604.854141 0.6188 0.6180 0.6180 0.6226 0.6302
2609.186899 0.6374 0.6444 0.6482 0.6503 0.6488
2613.519657 0.6453 0.6399 0.6334 0.6282 0.6236
2617.852416 0.6102 0.5917 0.5697 0.5456 0.5283
2622.185174 0.5146 0.5093 0.5083 0.5073 0.5063
2626.517933 0.5053 0.5043 0.5003 0.4948 0.4890
2630.850691 0.4830 0.4763 0.4693 0.4633 0.4578
2635.183449 0.4560 0.4560 0.4652 0.4787 0.4851
2639.516208 0.4881 0.4950 0.5035 0.5071 0.5086
2643.848966 0.5094 0.5099 0.5111 0.5126 0.5159
2648.181724 0.5199 0.5253 0.5313 0.5370 0.5425
2652.514483 0.5465 0.5500 0.5525 0.5545 0.5646
2656.847241 0.5778 0.5833 0.5863 0.5870 0.5870
2661.179999 0.5847 0.5817 0.5776 0.5731 0.5701
2665.512758 0.5676 0.5670 0.5670 0.5709 0.5759
2669.845516 0.5851 0.5956 0.6058 0.6158 0.6176
2674.178274 0.6171 0.6166 0.6161 0.6128 0.6088
2678.511033 0.6064 0.6044 0.5987 0.5922 0.5873
2682.843791 0.5828 0.5787 0.5747 0.5716 0.5685
2687.176549 0.5647 0.5607 0.5530 0.5445 0.5338
2691.509308 0.5227 0.5142 0.5062 0.5008 0.4957
2695.842066 0.4895 0.4830 0.4769 0.4709 0.4593
2700.174824 0.4468 0.4377 0.4292 0.4194 0.4094
2704.507583 0.4054 0.4024 0.3998 0.3973 0.3939
2708.840341 0.3904 0.3851 0.3796 0.3651 0.3496
2713.173099 0.3345 0.3195 0.3162 0.3142 0.3104
2717.505858 0.3064 0.2983 0.2898 0.2795 0.2689
2721.838616 0.2625 0.2565 0.2491 0.2416 0.2387
2726.171375 0.2362 0.2252 0.2137 0.1767 0.1382
2730.504133 0.1346 0.1331 0.1325 0.1320 0.1320
2734.836891 0.1320 0.1325 0.1330 0.1344 0.1359
2739.169650 0.1374 0.1389 0.1419 0.1449 0.1450
2743.502408 0.1450 0.1460 0.1470 0.1485 0.1500
2747.835166 0.1525 0.1550 0.1585 0.1620 0.1685
2752.167925 0.1750 0.1800 0.1850 0.1870 0.1890
2756.500683 0.1895 0.1900 0.1885 0.1870 0.1839
2760.833441 0.1809 0.1779 0.1749 0.1729 0.1710
2765.166200 0.1705 0.1701 0.1721 0.1741 0.1776
2769.498958 0.1820 0.2040 0.2262 0.2528 0.2791
2773.831716 0.3006 0.3211 0.3226 0.3240 0.3240
2778.164475 0.3238 0.3218 0.3193 0.3103 0.3013
2782.497233 0.2933 0.2857 0.2817 0.2777 0.2742
2786.829991 0.2703 0.2623 0.2529 0.2304 0.2084
2791.162750 0.1919 0.1769 0.1754 0.1741 0.1746
2795.495508 0.1751 0.1761 0.1769 0.1759 0.1747
2799.828266 0.1722 0.1698 0.1683 0.1669 0.1664
2804.161025 0.1660 0.1660 0.1661 0.1666 0.1674
2808.493783 0.1699 0.1728 0.1783 0.1837 0.1888
2812.826541 0.1938 0.1983 0.2020 0.2020 0.2029
2817.159300 0.2079 0.2129 0.2179 0.2225 0.2255
2821.492058 0.2285 0.2310 0.2334 0.2354 0.2370
2825.824817 0.2370 0.2370 0.2370 0.2369 0.2364
2830.157575 0.2352 0.2317 0.2290 0.2290 0.2288
2834.490333 0.2278 0.2268 0.2258 0.2249 0.2244
2838.823092 0.2232 0.2197 0.2162 0.2127 0.2099
2843.155850 0.2094 0.2090 0.2090 0.2105 0.2165
2847.488608 0.2226 0.2286 0.2358 0.2463 0.2568
2851.821367 0.2673 0.2781 0.2896 0.2979 0.2974
2856.154125 0.2988 0.3053 0.3132 0.3247 0.3366
2860.486883 0.3497 0.3623 0.3738 0.3871 0.4048
2864.819642 0.4227 0.4412 0.4540 0.4540 0.4526
2869.152400 0.4481 0.4448 0.4443 0.4435 0.4420
2873.485158 0.4410 0.4410 0.4413 0.4423 0.4432
2877.817917 0.4437 0.4440 0.4440 0.4432 0.4406
2882.150675 0.4379 0.4349 0.4316 0.4276 0.4250
2886.483433 0.4250 0.4257 0.4277 0.4308 0.4358
2890.816192 0.4407 0.4452 0.4486 0.4501 0.4517
2895.148950 0.4537 0.4550 0.4550 0.4514 0.4418
2899.481708 0.4324 0.4234 0.4160 0.4110 0.4058
2903.814467 0.4003 0.3917 0.3787 0.3700 0.3675
2908.147225 0.3637 0.3582 0.3519 0.3444 0.3375
2912.479983 0.3315 0.3255 0.3195 0.3151 0.3131
2916.812742 0.3031 0.2831 0.2716 0.2706 0.2691
2921.145500 0.2671 0.2637 0.2587 0.2487 0.2327
2925.478259 0.2208 0.2138 0.2079 0.2034 0.1975
2929.811017 0.1900 0.1851 0.1831 0.1820 0.1820
2934.143775 0.1842 0.1887 0.1910 0.1910 0.1880
2938.476534 0.1820 0.1760 0.1700 0.1627 0.1542
2942.809292 0.1455 0.1364 0.1282 0.1207 0.1147
2947.142050 0.1102 0.1052 0.0997 0.0939 0.0878
2951.474809 0.0834 0.0804 0.0790 0.0790 0.0912
2955.807567 0.1138 0.1295 0.1395 0.1481 0.1556
2960.140325 0.1626 0.1691 0.1762 0.1837 0.1931
2964.473084 0.2041 0.2152 0.2262 0.2333 0.2373
2968.805842 0.2428 0.2493 0.2567 0.2647 0.2754
2973.138600 0.2879 0.2998 0.3113 0.3205 0.3280
2977.471359 0.3382 0.3502 0.3622 0.3742 0.3865
2981.804117 0.3991 0.4070 0.4120 0.4140 0.4140
2986.136875 0.4187 0.4262 0.4341 0.4421 0.4466
2990.469634 0.4491 0.4526 0.4566 0.4583 0.4588
2994.802392 0.4613 0.4648 0.4663 0.4668 0.4709
2999.135150 0.4769 0.4823 0.4873 0.4910 0.4940
3003.467909 0.5001 0.5076 0.5110 0.5125 0.5178
3007.800667 0.5248 0.5352 0.5472 0.5579 0.5679
3012.133426 0.5789 0.5905 0.6009 0.6109 0.6175
3016.466184 0.6225 0.6299 0.6385 0.6477 0.6573
3020.798942 0.6661 0.6747 0.6883 0.7038 0.7109
3025.131701 0.7149 0.7248 0.7368 0.7426 0.7461
3029.464459 0.7496 0.7531 0.7588 0.7653 0.7766
3033.797217 0.7897 0.7934 0.7939 0.7978 0.8028
3038.129976 0.8078 0.8129 0.8190 0.8255 0.8317
3042.462734 0.8377 0.8421 0.8461 0.8474 0.8479
3046.795492 0.8511 0.8551 0.8588 0.8623 0.8662
3051.128251 0.8702 0.8734 0.8764 0.8810 0.8861
3055.461009 0.8882 0.8897 0.8904 0.8909 0.8918
3059.793767 0.8928 0.8975 0.9030 0.9077 0.9122
3064.126526 0.9134 0.9139 0.9152 0.9168 0.9183
3068.459284 0.9198 0.9208 0.9218 0.9241 0.9266
3072.792042 0.9279 0.9289 0.9299 0.9309 0.9319
3077.124801 0.9329 0.9343 0.9358 0.9377 0.9397
3081.457559 0.9404 0.9409 0.9410 0.9410 0.9419
3085.790317 0.9429 0.9430 0.9430 0.9430 0.9430
3090.123076 0.9435 0.9440 0.9454 0.9469 0.9475
3094.455834 0.9480 0.9480 0.9480 0.9498 0.9518
3098.788592 0.9529 0.9539 0.9540 0.9540 0.9540
3103.121351 0.9540 0.9545 0.9550 0.9550 0.9550
3107.454109 0.9550 0.9550 0.9555 0.9560 0.9570
3111.786868 0.9580 0.9585 0.9590 0.9595 0.9600
3116.119626 0.9610 0.9620 0.9620 0.9620 0.9625
3120.452384 0.9630 0.9635 0.9640 0.9650 0.9660
3124.785143 0.9665 0.9670 0.9675 0.9680 0.9680
3129.117901 0.9680 0.9690 0.9700 0.9705 0.9710
3133.450659 0.9710 0.9710 0.9715 0.9720 0.9720
3137.783418 0.9720 0.9720 0.9720 0.9730 0.9740
3142.116176 0.9745 0.9750 0.9760 0.9770 0.9770
3146.448934 0.9770 0.9770 0.9770 0.9770 0.9770
3150.781693 0.9770 0.9770 0.9770 0.9770 0.9770
3155.114451 0.9770 0.9770 0.9770 0.9770 0.9770
3159.447209 0.9770 0.9769 0.9759 0.9750 0.9750
3163.779968 0.9750 0.9750 0.9749 0.9744 0.9740
3168.112726 0.9740 0.9739 0.9729 0.9720 0.9720
3172.445484 0.9718 0.9698 0.9679 0.9669 0.9659
3176.778243 0.9649 0.9636 0.9606 0.9579 0.9569
3181.111001 0.9559 0.9554 0.9549 0.9544 0.9538
3185.443759 0.9528 0.9519 0.9514 0.9507 0.9487
3189.776518 0.9464 0.9424 0.9388 0.9372 0.9356
3194.109276 0.9336 0.9320 0.9320 0.9329 0.9374
3198.442034 0.9423 0.9488 0.9544 0.9564 0.9584
3202.774793 0.9604 0.9622 0.9632 0.9640 0.9640
3207.107551 0.9642 0.9652 0.9661 0.9666 0.9671
3211.440310 0.9676 0.9682 0.9692 0.9700 0.9700
3215.773068 0.9700 0.9700 0.9700 0.9700 0.9700
3220.105826 0.9700 0.9700 0.9700 0.9701 0.9706
3224.438585 0.9710 0.9710 0.9710 0.9710 0.9710
3228.771343 0.9710 0.9711 0.9716 0.9720 0.9720
3233.104101 0.9720 0.9720 0.9723 0.9733 0.9740
3237.436860 0.9740 0.9740 0.9740 0.9740 0.9740
3241.769618 0.9737 0.9727 0.9720 0.9720 0.9720
3246.102376 0.9720 0.9720 0.9720 0.9720 0.9720
3250.435135 0.9720 0.9720 0.9720 0.9720 0.9720
3254.767893 0.9720 0.9718 0.9713 0.9710 0.9710
3259.100651 0.9708 0.9703 0.9697 0.9686 0.9680
3263.433410 0.9680 0.9680 0.9680 0.9680 0.9680
3267.766168 0.9680 0.9680 0.9678 0.9673 0.9668
3272.098926 0.9663 0.9660 0.9660 0.9660 0.9660
3276.431685 0.9660 0.9660 0.9662 0.9667 0.9670
3280.764443 0.9670 0.9668 0.9663 0.9660 0.9660
3285.097201 0.9660 0.9660 0.9660 0.9660 0.9656
3289.429960 0.9646 0.9640 0.9640 0.9638 0.9633
3293.762718 0.9628 0.9623 0.9620 0.9620 0.9620
3298.095476 0.9620 0.9620 0.9620 0.9620 0.9620
3302.428235 0.9620 0.9620 0.9620 0.9620 0.9615
3306.760993 0.9605 0.9600 0.9600 0.9600 0.9600
3311.093752 0.9595 0.9585 0.9580 0.9580 0.9580
3315.426510 0.9580 0.9580 0.9580 0.9580 0.9580
3319.759268 0.9575 0.9565 0.9557 0.9552 0.9550
3324.092027 0.9550 0.9550 0.9550 0.9550 0.9550
3328.424785 0.9550 0.9550 0.9550 0.9550 0.9542
3332.757543 0.9527 0.9520 0.9520 0.9517 0.9512
3337.090302 0.9507 0.9502 0.9500 0.9500 0.9500
3341.423060 0.9500 0.9494 0.9484 0.9477 0.9472
3345.755818 0.9470 0.9470 0.9470 0.9470 0.9470
3350.088577 0.9470 0.9464 0.9454 0.9450 0.9450
3354.421335 0.9447 0.9442 0.9437 0.9432 0.9430
3358.754093 0.9430 0.9433 0.9438 0.9440 0.9440
3363.086852 0.9440 0.9440 0.9440 0.9440 0.9440
3367.419610 0.9440 0.9430 0.9415 0.9403 0.9393
3371.752368 0.9383 0.9373 0.9367 0.9362 0.9360
3376.085127 0.9360 0.9360 0.9360 0.9360 0.9360
3380.417885 0.9360 0.9360 0.9357 0.9352 0.9350
3384.750643 0.9350 0.9350 0.9350 0.9350 0.9350
3389.083402 0.9354 0.9359 0.9360 0.9360 0.9360
3393.416160 0.9360 0.9360 0.9360 0.9360 0.9360
3397.748919 0.9360 0.9360 0.9360 0.9360 0.9356
3402.081677 0.9351 0.9343 0.9333 0.9330 0.9330
3406.414435 0.9330 0.9330 0.9330 0.9330 0.9330
3410.747194 0.9330 0.9330 0.9330 0.9338 0.9348
3415.079952 0.9342 0.9332 0.9330 0.9330 0.9330
3419.412710 0.9330 0.9330 0.9330 0.9330 0.9330
3423.745469 0.9330 0.9330 0.9330 0.9330 0.9330
3428.078227 0.9330 0.9326 0.9321 0.9320 0.9320
3432.410985 0.9320 0.9320 0.9320 0.9320 0.9320
3436.743744 0.9320 0.9324 0.9329 0.9326 0.9321
3441.076502 0.9320 0.9320 0.9320 0.9320 0.9320
3445.409260 0.9320 0.9316 0.9311 0.9310 0.9310
3449.742019 0.9310 0.9310 0.9310 0.9310 0.9301
3454.074777 0.9291 0.9290 0.9290 0.9290 0.9290
3458.407535 0.9290 0.9290 0.9290 0.9290 0.9286
3462.740294 0.9281 0.9280 0.9280 0.9280 0.9280
3467.073052 0.9280 0.9280 0.9280 0.9280 0.9285
3471.405810 0.9290 0.9290 0.9290 0.9290 0.9290
3475.738569 0.9290 0.9290 0.9285 0.9280 0.9280
3480.071327 0.9280 0.9275 0.9270 0.9270 0.9270
3484.404085 0.9275 0.9280 0.9280 0.9280 0.9280
3488.736844 0.9280 0.9280 0.9280 0.9280 0.9280
3493.069602 0.9280 0.9280 0.9280 0.9280 0.9280
3497.402361 0.9280 0.9280 0.9280 0.9275 0.9270
3501.735119 0.9260 0.9250 0.9250 0.9250 0.9250
3506.067877 0.9250 0.9250 0.9250 0.9265 0.9281
3510.400636 0.9306 0.9330 0.9330 0.9330 0.9325
3514.733394 0.9320 0.9320 0.9320 0.9320 0.9319
3519.066152 0.9304 0.9290 0.9285 0.9280 0.9280
3523.398911 0.9280 0.9280 0.9280 0.9280 0.9280
3527.731669 0.9280 0.9280 0.9285 0.9291 0.9301
3532.064427 0.9311 0.9321 0.9330 0.9330 0.9330
3536.397186 0.9330 0.9330 0.9330 0.9330 0.9330
3540.729944 0.9328 0.9308 0.9290 0.9290 0.9290
3545.062702 0.9290 0.9290 0.9290 0.9291 0.9301
3549.395461 0.9311 0.9316 0.9322 0.9337 0.9350
3553.728219 0.9350 0.9350 0.9350 0.9351 0.9356
3558.060977 0.9359 0.9354 0.9348 0.9338 0.9330
3562.393736 0.9330 0.9330 0.9330 0.9330 0.9330
3566.726494 0.9329 0.9324 0.9319 0.9314 0.9311
3571.059252 0.9316 0.9320 0.9320 0.9321 0.9326
3575.392011 0.9330 0.9330 0.9330 0.9330 0.9332
3579.724769 0.9342 0.9350 0.9350 0.9350 0.9350
3584.057527 0.9350 0.9350 0.9350 0.9350 0.9351
3588.390286 0.9356 0.9359 0.9354 0.9350 0.9350
3592.723044 0.9350 0.9350 0.9350 0.9350 0.9350
3597.055803 0.9350 0.9351 0.9356 0.9360 0.9360
3601.388561 0.9360 0.9360 0.9360 0.9360 0.9360
3605.721319 0.9360 0.9361 0.9366 0.9370 0.9370
3610.054078 0.9370 0.9370 0.9370 0.9370 0.9370
3614.386836 0.9370 0.9370 0.9370 0.9368 0.9363
3618.719594 0.9355 0.9340 0.9330 0.9330 0.9328
3623.052353 0.9323 0.9318 0.9313 0.9310 0.9310
3627.385111 0.9312 0.9317 0.9320 0.9320 0.9322
3631.717869 0.9327 0.9330 0.9330 0.9334 0.9344
3636.050628 0.9354 0.9364 0.9370 0.9370 0.9366
3640.383386 0.9356 0.9346 0.9336 0.9330 0.9330
3644.716144 0.9328 0.9323 0.9320 0.9320 0.9318
3649.048903 0.9313 0.9310 0.9310 0.9312 0.9317
3653.381661 0.9320 0.9320 0.9322 0.9327 0.9336
3657.714419 0.9351 0.9360 0.9360 0.9358 0.9353
3662.047178 0.9346 0.9336 0.9330 0.9330 0.9328
3666.379936 0.9323 0.9318 0.9313 0.9312 0.9317
3670.712694 0.9327 0.9342 0.9350 0.9350 0.9352
3675.045453 0.9357 0.9360 0.9360 0.9353 0.9338
3679.378211 0.9318 0.9293 0.9278 0.9273 0.9265
3683.710969 0.9255 0.9248 0.9243 0.9240 0.9240
3688.043728 0.9247 0.9262 0.9280 0.9300 0.9312
3692.376486 0.9317 0.9320 0.9320 0.9320 0.9320
3696.709245 0.9317 0.9312 0.9305 0.9295 0.9287
3701.042003 0.9282 0.9280 0.9280 0.9280 0.9280
3705.374761 0.9283 0.9288 0.9290 0.9290 0.9290
3709.707520 0.9290 0.9290 0.9290 0.9296 0.9306
3714.040278 0.9310 0.9310 0.9313 0.9318 0.9320
3718.373036 0.9320 0.9323 0.9328 0.9330 0.9330
3722.705795 0.9330 0.9330 0.9330 0.9330 0.9330
3727.038553 0.9330 0.9330 0.9330 0.9330 0.9330
3731.371311 0.9324 0.9314 0.9310 0.9310 0.9310
3735.704070 0.9310 0.9298 0.9277 0.9261 0.9246
3740.036828 0.9231 0.9216 0.9210 0.9210 0.9207
3744.369586 0.9202 0.9200 0.9200 0.9200 0.9200
3748.702345 0.9193 0.9183 0.9180 0.9180 0.9180
3753.035103 0.9180 0.9177 0.9172 0.9170 0.9170
3757.367861 0.9167 0.9162 0.9160 0.9160 0.9160
3761.700620 0.9160 0.9153 0.9143 0.9136 0.9131
3766.033378 0.9130 0.9130 0.9126 0.9121 0.9120
3770.366136 0.9120 0.9120 0.9120 0.9120 0.9120
3774.698895 0.9120 0.9120 0.9124 0.9129 0.9134
3779.031653 0.9139 0.9151 0.9166 0.9170 0.9170
3783.364412 0.9166 0.9161 0.9152 0.9142 0.9140
3787.697170 0.9140 0.9132 0.9122 0.9120 0.9120
3792.029928 0.9112 0.9102 0.9108 0.9118 0.9112
3796.362687 0.9102
##END=
