##TITLE=1,2-BENZENEDICARBOXYLIC ACID, (HEPTYL, NONYL)- PHENYLMETHYL ESTER
##JCAMP-DX=4.24
##DATA TYPE=INFRARED SPECTRUM
##CLASS=COBLENTZ III
##ORIGIN=DOW CHEMICAL COMPANY
##OWNER=COBLENTZ SOCIETY
Collection (C) 2018 copyright by the U.S. Secretary of Commerce
on behalf of the United States of America. All rights reserved.
##DATE=1977/02/19
##NAMES=SANTICIZER 261 - MONSANTO
##MOLFORM=C22-24 H26-30 O4
##SOURCE REFERENCE=COBLENTZ NO. 10093
##$NIST ID=B6010093
##$NIST SOURCE=COBLENTZ
##$NIST IMAGE=cob10093
##SPECTROMETER/DATA SYSTEM=PERKIN-ELMER 180
##STATE=SOLUTION (10% IN CCl4 FOR 4000-1300, AND 10% IN CS2 FOR 1300-420 CM^-^1) VS. SOLVENT
##PATH LENGTH=0.011, 0.011 CM
##SAMPLING PROCEDURE=TRANSMISSION
##RESOLUTION=4
##DATA PROCESSING=DIGITIZED BY NIST FROM HARD COPY (FROM TWO SEGMENTS)
##XUNITS=1/CM
##YUNITS=TRANSMITTANCE
##XFACTOR=1.000000
##YFACTOR=1
##DELTAX=1.013945
##FIRSTX=419.265
##LASTX=3985.31
##FIRSTY=0.888
##MAXX=3985.31
##MINX=419.265
##MAXY=0.966
##MINY=0.004
##NPOINTS=3518
##XYDATA=(X++(Y..Y))
419.265000 0.8880 0.8900 0.8930 0.8950 0.8960
424.334725 0.8990 0.9010 0.9030 0.9050 0.9060
429.404450 0.9060 0.9080 0.9080 0.9080 0.9070
434.474176 0.9070 0.9070 0.9060 0.9060 0.9050
439.543901 0.9040 0.9040 0.9030 0.9010 0.9010
444.613626 0.9000 0.9000 0.8990 0.8980 0.8950
449.683351 0.8920 0.8900 0.8870 0.8850 0.8840
454.753077 0.8830 0.8820 0.8800 0.8790 0.8780
459.822802 0.8770 0.8750 0.8740 0.8730 0.8710
464.892527 0.8700 0.8690 0.8680 0.8660 0.8630
469.962252 0.8600 0.8580 0.8560 0.8540 0.8520
475.031978 0.8510 0.8500 0.8490 0.8490 0.8490
480.101703 0.8500 0.8530 0.8570 0.8630 0.8680
485.171428 0.8720 0.8760 0.8800 0.8820 0.8840
490.241153 0.8880 0.8910 0.8940 0.8960 0.8980
495.310879 0.8990 0.8990 0.9000 0.9010 0.9010
500.380604 0.9020 0.9030 0.9040 0.9040 0.9040
505.450329 0.9040 0.9040 0.9030 0.9030 0.9030
510.520054 0.9020 0.9020 0.9020 0.9020 0.9010
515.589780 0.9000 0.8990 0.8980 0.8970 0.8960
520.659505 0.8940 0.8920 0.8900 0.8880 0.8860
525.729230 0.8830 0.8830 0.8810 0.8800 0.8790
530.798955 0.8790 0.8790 0.8780 0.8780 0.8780
535.868681 0.8770 0.8770 0.8760 0.8760 0.8760
540.938406 0.8750 0.8730 0.8720 0.8720 0.8700
546.008131 0.8670 0.8630 0.8590 0.8530 0.8470
551.077856 0.8390 0.8320 0.8240 0.8140 0.8050
556.147582 0.8030 0.7950 0.7940 0.7950 0.8059
561.217307 0.8150 0.8260 0.8340 0.8410 0.8480
566.287032 0.8530 0.8570 0.8620 0.8650 0.8680
571.356757 0.8710 0.8720 0.8720 0.8710 0.8700
576.426483 0.8690 0.8620 0.8560 0.8530 0.8470
581.496208 0.8370 0.8370 0.8380 0.8400 0.8470
586.565933 0.8520 0.8550 0.8550 0.8540 0.8480
591.635658 0.8430 0.8360 0.8270 0.8150 0.8030
596.705384 0.8010 0.8040 0.8150 0.8319 0.8489
601.775109 0.8630 0.8760 0.8870 0.8970 0.9030
606.844834 0.9080 0.9140 0.9170 0.9200 0.9200
611.914559 0.9190 0.9190 0.9190 0.9200 0.9200
616.984285 0.9200 0.9210 0.9220 0.9230 0.9230
622.054010 0.9240 0.9240 0.9240 0.9240 0.9240
627.123735 0.9230 0.9220 0.9220 0.9210 0.9200
632.193460 0.9190 0.9170 0.9150 0.9130 0.9080
637.263186 0.9040 0.8990 0.8920 0.8850 0.8751
642.332911 0.8640 0.8520 0.8370 0.8200 0.7990
647.402636 0.7970 0.7970 0.8030 0.8199 0.8399
652.472361 0.8570 0.8700 0.8820 0.8900 0.8950
657.542087 0.8990 0.9000 0.9010 0.9000 0.8990
662.611812 0.8980 0.8960 0.8930 0.8890 0.8850
667.681537 0.8810 0.8780 0.8740 0.8670 0.8600
672.751262 0.8530 0.8480 0.8430 0.8390 0.8360
677.820988 0.8330 0.8240 0.8130 0.8020 0.7861
682.890713 0.7660 0.7390 0.7010 0.6541 0.5931
687.960438 0.4803 0.3803 0.2953 0.2482 0.2460
693.030163 0.2570 0.2680 0.2730 0.3030 0.3320
698.099889 0.3619 0.3790 0.4149 0.4220 0.4449
703.169614 0.4740 0.5210 0.5600 0.5920 0.6189
708.239339 0.6449 0.6689 0.6730 0.6730 0.6710
713.309064 0.6650 0.6540 0.6390 0.6200 0.5990
718.378790 0.5760 0.5501 0.5211 0.4921 0.4611
723.448515 0.4290 0.3980 0.3670 0.3350 0.3060
728.518240 0.2780 0.2501 0.2251 0.2031 0.1841
733.587965 0.1680 0.1550 0.1450 0.1350 0.1340
738.657691 0.1350 0.1460 0.1639 0.1730 0.1889
743.727416 0.2000 0.2150 0.2410 0.2650 0.2760
748.797141 0.2880 0.3080 0.3728 0.4288 0.4778
753.866866 0.5190 0.5550 0.5850 0.6090 0.6280
758.936592 0.6440 0.6560 0.6650 0.6710 0.6760
764.006317 0.6790 0.6820 0.6840 0.6860 0.6890
769.076042 0.6910 0.6930 0.6960 0.6970 0.6980
774.145767 0.6980 0.6960 0.6950 0.6950 0.6940
779.215493 0.6940 0.6940 0.6940 0.6950 0.6960
784.285218 0.6980 0.7000 0.7010 0.7020 0.7020
789.354943 0.7040 0.7060 0.7080 0.7120 0.7170
794.424668 0.7250 0.7380 0.7500 0.7660 0.7790
799.494394 0.7900 0.7980 0.8040 0.8090 0.8130
804.564119 0.8160 0.8190 0.8200 0.8220 0.8240
809.633844 0.8270 0.8310 0.8350 0.8370 0.8370
814.703569 0.8350 0.8340 0.8340 0.8350 0.8350
819.773295 0.8350 0.8360 0.8370 0.8380 0.8390
824.843020 0.8400 0.8410 0.8430 0.8460 0.8500
829.912745 0.8510 0.8510 0.8510 0.8500 0.8500
834.982470 0.8490 0.8490 0.8480 0.8470 0.8460
840.052196 0.8450 0.8440 0.8420 0.8420 0.8410
845.121921 0.8400 0.8390 0.8380 0.8360 0.8350
850.191646 0.8340 0.8330 0.8320 0.8310 0.8310
855.261371 0.8310 0.8310 0.8310 0.8320 0.8320
860.331097 0.8330 0.8340 0.8340 0.8340 0.8330
865.400822 0.8320 0.8300 0.8290 0.8290 0.8260
870.470547 0.8220 0.8200 0.8160 0.8130 0.8100
875.540272 0.8060 0.8020 0.7960 0.7900 0.7840
880.609998 0.7800 0.7790 0.7800 0.7800 0.7810
885.679723 0.7820 0.7840 0.7850 0.7870 0.7900
890.749448 0.7910 0.7910 0.7910 0.7900 0.7880
895.819173 0.7860 0.7820 0.7790 0.7710 0.7610
900.888899 0.7490 0.7380 0.7260 0.7160 0.7060
905.958624 0.6890 0.6860 0.6860 0.6920 0.7060
911.028349 0.7260 0.7529 0.7650 0.7780 0.7890
916.098074 0.7960 0.8030 0.8040 0.8040 0.8030
921.167800 0.8000 0.7990 0.7960 0.7920 0.7890
926.237525 0.7870 0.7840 0.7840 0.7810 0.7770
931.307250 0.7710 0.7640 0.7550 0.7460 0.7360
936.376975 0.7250 0.7140 0.7040 0.6930 0.6830
941.446701 0.6730 0.6640 0.6580 0.6490 0.6400
946.516426 0.6300 0.6200 0.6100 0.6000 0.5900
951.586151 0.5820 0.5740 0.5670 0.5620 0.5580
956.655876 0.5530 0.5520 0.5530 0.5560 0.5610
961.725602 0.5650 0.5690 0.5750 0.5810 0.5880
966.795327 0.5960 0.6100 0.6220 0.6250 0.6280
971.865052 0.6420 0.6550 0.6610 0.6670 0.6720
976.934777 0.6770 0.6800 0.6840 0.6900 0.6950
982.004503 0.7000 0.7050 0.7120 0.7200 0.7290
987.074228 0.7360 0.7430 0.7480 0.7540 0.7580
992.143953 0.7620 0.7630 0.7670 0.7690 0.7640
997.213678 0.7640 0.7610 0.7590 0.7590 0.7610
1002.283404 0.7750 0.7790 0.7810 0.7830 0.7840
1007.353129 0.7830 0.7830 0.7810 0.7800 0.7790
1012.422854 0.7770 0.7760 0.7730 0.7700 0.7670
1017.492579 0.7620 0.7560 0.7470 0.7320 0.7120
1022.562305 0.6860 0.6570 0.6211 0.5791 0.5760
1027.632030 0.6180 0.6200 0.6180 0.5920 0.5610
1032.701755 0.5250 0.5040 0.4791 0.4551 0.4291
1037.771480 0.4291 0.4661 0.4961 0.5630 0.6460
1042.841206 0.6700 0.6790 0.6790 0.6780 0.6760
1047.910931 0.6660 0.6540 0.6300 0.6070 0.5830
1052.980656 0.5580 0.5291 0.4951 0.4561 0.4072
1058.050381 0.3488 0.2679 0.2090 0.1680 0.1410
1063.120107 0.1260 0.1160 0.1100 0.1090 0.1100
1068.189832 0.1200 0.1340 0.1500 0.1680 0.1900
1073.259557 0.2150 0.2429 0.2749 0.3099 0.3479
1078.329282 0.3891 0.4381 0.4801 0.5590 0.5840
1083.399008 0.6090 0.6290 0.6450 0.6560 0.6650
1088.468733 0.6740 0.6760 0.6760 0.6740 0.6720
1093.538458 0.6640 0.6550 0.6440 0.6290 0.6130
1098.608183 0.5939 0.5700 0.5420 0.5100 0.4720
1103.677909 0.4370 0.3961 0.3521 0.3051 0.2452
1108.747634 0.1689 0.1329 0.0920 0.0770 0.0640
1113.817359 0.0540 0.0450 0.0380 0.0370 0.0380
1118.887084 0.0390 0.0460 0.0500 0.0520 0.0550
1123.956810 0.0580 0.0620 0.0670 0.0720 0.0790
1129.026535 0.0840 0.0890 0.0940 0.1000 0.1080
1134.096260 0.1210 0.1370 0.1590 0.1889 0.2109
1139.165985 0.2632 0.3151 0.3641 0.4090 0.4520
1144.235711 0.4930 0.5280 0.5600 0.5869 0.6089
1149.305436 0.6250 0.6340 0.6450 0.6560 0.6600
1154.375161 0.6690 0.6700 0.6700 0.6680 0.6680
1159.444886 0.6750 0.6830 0.6950 0.7080 0.7250
1164.514612 0.7450 0.7540 0.7590 0.7630 0.7650
1169.584337 0.7680 0.7720 0.7760 0.7770 0.7780
1174.654062 0.7790 0.7800 0.7810 0.7820 0.7820
1179.723787 0.7840 0.7860 0.7860 0.7860 0.7850
1184.793513 0.7840 0.7830 0.7830 0.7810 0.7810
1189.863238 0.7800 0.7780 0.7730 0.7710 0.7680
1194.932963 0.7650 0.7610 0.7570 0.7520 0.7460
1200.002688 0.7390 0.7320 0.7220 0.7130 0.7030
1205.072414 0.6930 0.6820 0.6710 0.6580 0.6550
1210.142139 0.6400 0.6380 0.6390 0.6420 0.6450
1215.211864 0.6460 0.6480 0.6490 0.6470 0.6440
1220.281589 0.6340 0.6180 0.6130 0.6060 0.5930
1225.351314 0.5780 0.5610 0.5440 0.5300 0.4991
1230.421040 0.4739 0.4370 0.4160 0.3890 0.3560
1235.490765 0.3240 0.2920 0.2610 0.2331 0.2071
1240.560490 0.1850 0.1660 0.1520 0.1330 0.1170
1245.630215 0.1030 0.0920 0.0810 0.0730 0.0650
1250.699941 0.0570 0.0500 0.0440 0.0380 0.0320
1255.769666 0.0280 0.0230 0.0200 0.0160 0.0140
1260.839391 0.0120 0.0110 0.0100 0.0100 0.0090
1265.909116 0.0090 0.0070 0.0070 0.0070 0.0070
1270.978842 0.0080 0.0080 0.0080 0.0090 0.0090
1276.048567 0.0100 0.0100 0.0110 0.0110 0.0110
1281.118292 0.0110 0.0120 0.0130 0.0130 0.0140
1286.188017 0.0140 0.0150 0.0180 0.0240 0.0310
1291.257743 0.0400 0.0510 0.0630 0.0750 0.0950
1296.327468 0.1140 0.1340 0.1540 0.1740 0.1959
1301.397193 0.2171 0.2391 0.2600 0.2820 0.3040
1306.466918 0.3250 0.3460 0.3680 0.3890 0.4089
1311.536644 0.4281 0.4470 0.4670 0.4840 0.5010
1316.606369 0.5180 0.5330 0.5480 0.5610 0.5730
1321.676094 0.5840 0.5940 0.6020 0.6080 0.6150
1326.745819 0.6210 0.6270 0.6330 0.6400 0.6470
1331.815545 0.6530 0.6610 0.6680 0.6760 0.6840
1336.885270 0.6930 0.7030 0.7130 0.7230 0.7290
1341.954995 0.7340 0.7390 0.7430 0.7470 0.7510
1347.024720 0.7530 0.7550 0.7550 0.7580 0.7590
1352.094446 0.7580 0.7580 0.7570 0.7550 0.7510
1357.164171 0.7480 0.7460 0.7420 0.7330 0.7140
1362.233896 0.7090 0.6970 0.6790 0.6570 0.6310
1367.303621 0.6020 0.5730 0.5411 0.5111 0.4791
1372.373347 0.4649 0.4490 0.4480 0.4490 0.4750
1377.443072 0.5000 0.5230 0.5590 0.5869 0.6129
1382.512797 0.6220 0.6340 0.6480 0.6580 0.6750
1387.582522 0.6890 0.7030 0.7300 0.7520 0.7710
1392.652248 0.7870 0.8000 0.8100 0.8200 0.8270
1397.721973 0.8320 0.8360 0.8400 0.8430 0.8460
1402.791698 0.8480 0.8490 0.8490 0.8510 0.8520
1407.861423 0.8520 0.8530 0.8530 0.8540 0.8540
1412.931149 0.8540 0.8530 0.8530 0.8510 0.8500
1418.000874 0.8480 0.8450 0.8430 0.8400 0.8370
1423.070599 0.8340 0.8280 0.8220 0.8140 0.8050
1428.140324 0.8040 0.7930 0.7790 0.7640 0.7540
1433.210050 0.7510 0.7410 0.7290 0.7130 0.6960
1438.279775 0.6760 0.6510 0.6220 0.5881 0.5481
1443.349500 0.5099 0.4870 0.4750 0.4690 0.4660
1448.419225 0.4610 0.4500 0.4290 0.3941 0.3780
1453.488951 0.3781 0.3980 0.4120 0.4210 0.4400
1458.558676 0.4410 0.4430 0.4440 0.4450 0.4460
1463.628401 0.4501 0.4791 0.5071 0.5350 0.5700
1468.698126 0.6100 0.6500 0.6840 0.7139 0.7310
1473.767852 0.7470 0.7590 0.7680 0.7690 0.7680
1478.837577 0.7620 0.7570 0.7480 0.7380 0.7240
1483.907302 0.6979 0.6760 0.6760 0.6950 0.7010
1488.977027 0.7040 0.7100 0.7100 0.7090 0.6890
1494.046753 0.6638 0.6180 0.6030 0.5990 0.5991
1499.116478 0.6891 0.7940 0.8210 0.8350 0.8410
1504.186203 0.8470 0.8510 0.8530 0.8570 0.8590
1509.255928 0.8600 0.8630 0.8660 0.8670 0.8680
1514.325654 0.8680 0.8690 0.8700 0.8710 0.8720
1519.395379 0.8720 0.8730 0.8730 0.8730 0.8730
1524.465104 0.8730 0.8730 0.8730 0.8730 0.8730
1529.534829 0.8730 0.8730 0.8740 0.8740 0.8740
1534.604555 0.8750 0.8760 0.8770 0.8780 0.8780
1539.674280 0.8780 0.8780 0.8780 0.8770 0.8770
1544.744005 0.8770 0.8760 0.8760 0.8760 0.8760
1549.813730 0.8760 0.8750 0.8740 0.8730 0.8720
1554.883456 0.8720 0.8710 0.8710 0.8700 0.8690
1559.953181 0.8660 0.8580 0.8530 0.8490 0.8470
1565.022906 0.8430 0.8380 0.8300 0.8240 0.8110
1570.092631 0.7940 0.7730 0.7490 0.7240 0.6980
1575.162357 0.6729 0.6500 0.6460 0.6450 0.6491
1580.232082 0.6810 0.7140 0.7300 0.7420 0.7550
1585.301807 0.7640 0.7710 0.7800 0.7810 0.7800
1590.371532 0.7720 0.7560 0.7450 0.7300 0.7090
1595.441258 0.6899 0.6650 0.6510 0.6510 0.6551
1600.510983 0.6930 0.7120 0.7450 0.7690 0.7880
1605.580708 0.8010 0.8120 0.8200 0.8270 0.8340
1610.650433 0.8410 0.8460 0.8480 0.8500 0.8510
1615.720159 0.8540 0.8550 0.8550 0.8570 0.8570
1620.789884 0.8570 0.8580 0.8580 0.8580 0.8580
1625.859609 0.8580 0.8580 0.8580 0.8580 0.8580
1630.929334 0.8580 0.8580 0.8580 0.8580 0.8570
1635.999060 0.8570 0.8560 0.8550 0.8550 0.8540
1641.068785 0.8530 0.8530 0.8530 0.8520 0.8520
1646.138510 0.8510 0.8510 0.8500 0.8490 0.8470
1651.208235 0.8450 0.8440 0.8440 0.8430 0.8420
1656.277961 0.8410 0.8390 0.8380 0.8360 0.8330
1661.347686 0.8300 0.8280 0.8260 0.8240 0.8210
1666.417411 0.8170 0.8140 0.8110 0.8070 0.8020
1671.487136 0.7960 0.7910 0.7850 0.7780 0.7710
1676.556862 0.7650 0.7580 0.7510 0.7430 0.7290
1681.626587 0.7170 0.7110 0.7040 0.6980 0.6900
1686.696312 0.6820 0.6750 0.6730 0.6660 0.6610
1691.766037 0.6540 0.6480 0.6410 0.6320 0.6230
1696.835763 0.6129 0.6010 0.5889 0.5740 0.5580
1701.905488 0.5380 0.5170 0.4940 0.4690 0.4390
1706.975213 0.4079 0.3739 0.3349 0.2939 0.2489
1712.044938 0.1999 0.1460 0.1050 0.0760 0.0520
1717.114664 0.0389 0.0270 0.0180 0.0120 0.0080
1722.184389 0.0060 0.0050 0.0050 0.0040 0.0040
1727.254114 0.0040 0.0050 0.0080 0.0090 0.0100
1732.323839 0.0110 0.0120 0.0140 0.0170 0.0210
1737.393565 0.0250 0.0320 0.0420 0.0550 0.0720
1742.463290 0.0920 0.1140 0.1400 0.1680 0.2000
1747.533015 0.2352 0.2732 0.3132 0.3561 0.4021
1752.602740 0.4241 0.4600 0.4880 0.5150 0.5520
1757.672466 0.5761 0.5911 0.6251 0.6460 0.6630
1762.742191 0.6760 0.6870 0.6990 0.7090 0.7200
1767.811916 0.7310 0.7410 0.7500 0.7580 0.7670
1772.881641 0.7750 0.7820 0.7890 0.7950 0.8020
1777.951367 0.8070 0.8120 0.8170 0.8220 0.8250
1783.021092 0.8280 0.8320 0.8360 0.8380 0.8400
1788.090817 0.8410 0.8440 0.8460 0.8480 0.8480
1793.160542 0.8490 0.8500 0.8500 0.8500 0.8490
1798.230268 0.8470 0.8470 0.8460 0.8470 0.8480
1803.299993 0.8480 0.8510 0.8520 0.8550 0.8580
1808.369718 0.8600 0.8620 0.8680 0.8710 0.8710
1813.439443 0.8730 0.8740 0.8750 0.8750 0.8760
1818.509169 0.8760 0.8770 0.8770 0.8770 0.8770
1823.578894 0.8770 0.8770 0.8770 0.8770 0.8770
1828.648619 0.8770 0.8770 0.8770 0.8770 0.8770
1833.718344 0.8770 0.8770 0.8780 0.8780 0.8790
1838.788070 0.8790 0.8800 0.8820 0.8870 0.8890
1843.857795 0.8900 0.8910 0.8920 0.8930 0.8930
1848.927520 0.8940 0.8940 0.8930 0.8930 0.8920
1853.997245 0.8910 0.8900 0.8890 0.8880 0.8870
1859.066971 0.8870 0.8830 0.8810 0.8800 0.8780
1864.136696 0.8770 0.8770 0.8770 0.8780 0.8790
1869.206421 0.8800 0.8810 0.8840 0.8870 0.8890
1874.276146 0.8900 0.8910 0.8930 0.8950 0.8970
1879.345872 0.8990 0.8990 0.9000 0.9000 0.9010
1884.415597 0.9010 0.9010 0.9010 0.9020 0.9020
1889.485322 0.9030 0.9040 0.9050 0.9050 0.9050
1894.555047 0.9060 0.9080 0.9080 0.9100 0.9100
1899.624773 0.9100 0.9110 0.9100 0.9100 0.9080
1904.694498 0.9080 0.9080 0.9070 0.9070 0.9070
1909.764223 0.9060 0.9060 0.9060 0.9060 0.9070
1914.833948 0.9080 0.9100 0.9100 0.9100 0.9100
1919.903674 0.9080 0.9070 0.9070 0.9060 0.9050
1924.973399 0.9040 0.9020 0.9010 0.8990 0.8970
1930.043124 0.8940 0.8900 0.8880 0.8850 0.8810
1935.112849 0.8770 0.8730 0.8700 0.8680 0.8670
1940.182575 0.8660 0.8660 0.8660 0.8670 0.8690
1945.252300 0.8710 0.8740 0.8790 0.8810 0.8860
1950.322025 0.8890 0.8950 0.8960 0.8950 0.8950
1955.391750 0.8950 0.8940 0.8940 0.8920 0.8910
1960.461476 0.8900 0.8900 0.8900 0.8900 0.8900
1965.531201 0.8910 0.8910 0.8930 0.8960 0.8980
1970.600926 0.9000 0.9040 0.9060 0.9100 0.9120
1975.670651 0.9140 0.9160 0.9170 0.9170 0.9170
1980.740377 0.9180 0.9180 0.9190 0.9190 0.9200
1985.810102 0.9210 0.9210 0.9220 0.9220 0.9220
1990.879827 0.9220 0.9220 0.9220 0.9220 0.9220
1995.949552 0.9220 0.9220 0.9220 0.9220 0.9210
2001.019278 0.9200 0.9190 0.9185 0.9180 0.9190
2006.089003 0.9200 0.9200 0.9200 0.9205 0.9210
2011.158728 0.9210 0.9210 0.9205 0.9200 0.9200
2016.228453 0.9200 0.9195 0.9190 0.9190 0.9190
2021.298178 0.9190 0.9190 0.9195 0.9200 0.9200
2026.367904 0.9200 0.9205 0.9210 0.9210 0.9210
2031.437629 0.9210 0.9210 0.9205 0.9200 0.9200
2036.507354 0.9200 0.9200 0.9200 0.9200 0.9200
2041.577079 0.9205 0.9210 0.9210 0.9210 0.9205
2046.646805 0.9200 0.9200 0.9200 0.9195 0.9190
2051.716530 0.9185 0.9180 0.9185 0.9190 0.9190
2056.786255 0.9190 0.9185 0.9180 0.9175 0.9170
2061.855980 0.9170 0.9170 0.9165 0.9160 0.9160
2066.925706 0.9160 0.9160 0.9160 0.9160 0.9160
2071.995431 0.9160 0.9160 0.9160 0.9160 0.9160
2077.065156 0.9160 0.9160 0.9160 0.9160 0.9160
2082.134881 0.9160 0.9160 0.9160 0.9160 0.9160
2087.204607 0.9160 0.9165 0.9170 0.9170 0.9170
2092.274332 0.9175 0.9180 0.9175 0.9170 0.9175
2097.344057 0.9180 0.9185 0.9190 0.9195 0.9200
2102.413782 0.9205 0.9210 0.9210 0.9210 0.9210
2107.483508 0.9210 0.9210 0.9210 0.9210 0.9210
2112.553233 0.9210 0.9210 0.9210 0.9210 0.9210
2117.622958 0.9211 0.9221 0.9230 0.9230 0.9230
2122.692683 0.9225 0.9220 0.9220 0.9220 0.9215
2127.762409 0.9210 0.9205 0.9200 0.9200 0.9200
2132.832134 0.9200 0.9200 0.9200 0.9200 0.9200
2137.901859 0.9200 0.9205 0.9210 0.9216 0.9221
2142.971584 0.9226 0.9229 0.9224 0.9221 0.9226
2148.041310 0.9230 0.9230 0.9230 0.9230 0.9231
2153.111035 0.9236 0.9240 0.9240 0.9241 0.9246
2158.180760 0.9250 0.9250 0.9250 0.9250 0.9249
2163.250485 0.9244 0.9239 0.9234 0.9229 0.9224
2168.320211 0.9220 0.9220 0.9220 0.9220 0.9220
2173.389936 0.9220 0.9220 0.9220 0.9219 0.9214
2178.459661 0.9210 0.9210 0.9211 0.9221 0.9231
2183.529386 0.9236 0.9241 0.9246 0.9250 0.9250
2188.599112 0.9249 0.9239 0.9230 0.9230 0.9230
2193.668837 0.9230 0.9230 0.9230 0.9230 0.9230
2198.738562 0.9229 0.9224 0.9220 0.9220 0.9220
2203.808287 0.9220 0.9220 0.9220 0.9220 0.9220
2208.878013 0.9221 0.9226 0.9231 0.9236 0.9240
2213.947738 0.9240 0.9240 0.9240 0.9240 0.9240
2219.017463 0.9239 0.9234 0.9229 0.9224 0.9220
2224.087188 0.9220 0.9220 0.9220 0.9219 0.9214
2229.156914 0.9209 0.9204 0.9199 0.9194 0.9190
2234.226639 0.9190 0.9190 0.9190 0.9189 0.9184
2239.296364 0.9180 0.9180 0.9180 0.9180 0.9181
2244.366089 0.9186 0.9191 0.9196 0.9200 0.9200
2249.435815 0.9201 0.9206 0.9210 0.9210 0.9211
2254.505540 0.9216 0.9219 0.9214 0.9211 0.9216
2259.575265 0.9221 0.9226 0.9230 0.9230 0.9230
2264.644990 0.9230 0.9229 0.9224 0.9220 0.9220
2269.714716 0.9219 0.9214 0.9211 0.9216 0.9221
2274.784441 0.9226 0.9230 0.9230 0.9230 0.9230
2279.854166 0.9231 0.9236 0.9241 0.9246 0.9250
2284.923891 0.9250 0.9250 0.9250 0.9250 0.9250
2289.993617 0.9250 0.9250 0.9250 0.9250 0.9250
2295.063342 0.9250 0.9248 0.9238 0.9230 0.9230
2300.133067 0.9229 0.9224 0.9219 0.9214 0.9210
2305.202792 0.9210 0.9211 0.9216 0.9219 0.9214
2310.272518 0.9210 0.9210 0.9209 0.9204 0.9200
2315.342243 0.9200 0.9199 0.9194 0.9189 0.9184
2320.411968 0.9178 0.9168 0.9159 0.9154 0.9149
2325.481693 0.9144 0.9138 0.9128 0.9120 0.9120
2330.551419 0.9120 0.9120 0.9120 0.9120 0.9122
2335.621144 0.9132 0.9140 0.9140 0.9141 0.9146
2340.690869 0.9151 0.9156 0.9161 0.9166 0.9171
2345.760594 0.9176 0.9179 0.9174 0.9171 0.9176
2350.830320 0.9180 0.9180 0.9181 0.9186 0.9190
2355.900045 0.9190 0.9190 0.9190 0.9187 0.9177
2360.969770 0.9169 0.9164 0.9160 0.9160 0.9164
2366.039495 0.9179 0.9190 0.9190 0.9190 0.9190
2371.109221 0.9190 0.9190 0.9190 0.9190 0.9190
2376.178946 0.9190 0.9187 0.9177 0.9170 0.9170
2381.248671 0.9170 0.9170 0.9171 0.9176 0.9181
2386.318396 0.9186 0.9191 0.9196 0.9200 0.9200
2391.388122 0.9200 0.9200 0.9199 0.9194 0.9189
2396.457847 0.9184 0.9179 0.9174 0.9170 0.9170
2401.527572 0.9169 0.9164 0.9160 0.9160 0.9158
2406.597297 0.9153 0.9152 0.9157 0.9160 0.9160
2411.667023 0.9163 0.9173 0.9180 0.9180 0.9182
2416.736748 0.9187 0.9192 0.9197 0.9202 0.9207
2421.806473 0.9212 0.9217 0.9222 0.9227 0.9230
2426.876198 0.9230 0.9232 0.9237 0.9242 0.9247
2431.945924 0.9252 0.9257 0.9260 0.9260 0.9262
2437.015649 0.9267 0.9270 0.9270 0.9272 0.9277
2442.085374 0.9280 0.9280 0.9280 0.9280 0.9282
2447.155099 0.9287 0.9292 0.9297 0.9300 0.9300
2452.224825 0.9302 0.9307 0.9308 0.9303 0.9302
2457.294550 0.9307 0.9312 0.9317 0.9320 0.9320
2462.364275 0.9320 0.9320 0.9318 0.9313 0.9310
2467.434000 0.9310 0.9310 0.9310 0.9308 0.9303
2472.503726 0.9300 0.9300 0.9298 0.9293 0.9290
2477.573451 0.9290 0.9288 0.9283 0.9278 0.9273
2482.643176 0.9270 0.9270 0.9270 0.9270 0.9270
2487.712901 0.9270 0.9270 0.9270 0.9268 0.9263
2492.782627 0.9260 0.9260 0.9260 0.9260 0.9260
2497.852352 0.9260 0.9260 0.9260 0.9258 0.9253
2502.922077 0.9250 0.9250 0.9248 0.9243 0.9238
2507.991802 0.9233 0.9228 0.9223 0.9220 0.9220
2513.061528 0.9218 0.9213 0.9210 0.9210 0.9210
2518.131253 0.9210 0.9208 0.9203 0.9200 0.9200
2523.200978 0.9200 0.9200 0.9200 0.9200 0.9200
2528.270703 0.9200 0.9202 0.9207 0.9210 0.9210
2533.340429 0.9212 0.9217 0.9220 0.9220 0.9220
2538.410154 0.9220 0.9220 0.9220 0.9220 0.9220
2543.479879 0.9218 0.9213 0.9208 0.9203 0.9200
2548.549604 0.9200 0.9198 0.9193 0.9190 0.9190
2553.619330 0.9190 0.9190 0.9190 0.9190 0.9190
2558.689055 0.9190 0.9190 0.9190 0.9190 0.9190
2563.758780 0.9188 0.9183 0.9182 0.9187 0.9190
2568.828505 0.9190 0.9190 0.9190 0.9188 0.9183
2573.898231 0.9180 0.9180 0.9180 0.9180 0.9178
2578.967956 0.9173 0.9170 0.9170 0.9170 0.9170
2584.037681 0.9170 0.9170 0.9172 0.9177 0.9180
2589.107406 0.9180 0.9182 0.9187 0.9190 0.9190
2594.177132 0.9190 0.9190 0.9190 0.9190 0.9188
2599.246857 0.9183 0.9178 0.9173 0.9168 0.9163
2604.316582 0.9158 0.9153 0.9150 0.9150 0.9150
2609.386307 0.9150 0.9152 0.9157 0.9162 0.9167
2614.456033 0.9170 0.9170 0.9172 0.9177 0.9182
2619.525758 0.9187 0.9190 0.9190 0.9188 0.9183
2624.595483 0.9180 0.9180 0.9180 0.9180 0.9180
2629.665208 0.9180 0.9180 0.9180 0.9182 0.9187
2634.734934 0.9190 0.9190 0.9190 0.9190 0.9190
2639.804659 0.9190 0.9188 0.9183 0.9178 0.9173
2644.874384 0.9172 0.9177 0.9178 0.9173 0.9168
2649.944109 0.9163 0.9160 0.9160 0.9158 0.9153
2655.013835 0.9148 0.9143 0.9140 0.9140 0.9138
2660.083560 0.9133 0.9130 0.9130 0.9130 0.9130
2665.153285 0.9128 0.9123 0.9120 0.9120 0.9117
2670.223010 0.9112 0.9110 0.9110 0.9113 0.9118
2675.292736 0.9123 0.9128 0.9130 0.9130 0.9133
2680.362461 0.9138 0.9143 0.9148 0.9150 0.9150
2685.432186 0.9150 0.9150 0.9153 0.9158 0.9160
2690.501911 0.9160 0.9163 0.9168 0.9170 0.9170
2695.571637 0.9170 0.9170 0.9167 0.9162 0.9157
2700.641362 0.9152 0.9150 0.9150 0.9147 0.9142
2705.711087 0.9140 0.9140 0.9140 0.9140 0.9137
2710.780812 0.9132 0.9130 0.9130 0.9130 0.9130
2715.850538 0.9127 0.9122 0.9115 0.9105 0.9092
2720.920263 0.9077 0.9065 0.9055 0.9045 0.9035
2725.989988 0.9025 0.9015 0.9010 0.9010 0.9010
2731.059713 0.9010 0.9013 0.9018 0.9020 0.9020
2736.129439 0.9026 0.9036 0.9043 0.9048 0.9056
2741.199164 0.9066 0.9070 0.9070 0.9073 0.9078
2746.268889 0.9080 0.9080 0.9080 0.9080 0.9080
2751.338614 0.9080 0.9080 0.9080 0.9080 0.9080
2756.408340 0.9080 0.9080 0.9080 0.9080 0.9077
2761.478065 0.9072 0.9070 0.9070 0.9067 0.9062
2766.547790 0.9060 0.9060 0.9060 0.9060 0.9057
2771.617515 0.9052 0.9047 0.9042 0.9040 0.9040
2776.687241 0.9034 0.9024 0.9017 0.9012 0.9007
2781.756966 0.9002 0.8994 0.8984 0.8980 0.8980
2786.826691 0.8974 0.8964 0.8954 0.8944 0.8934
2791.896416 0.8924 0.8914 0.8904 0.8891 0.8876
2796.966142 0.8861 0.8846 0.8831 0.8816 0.8801
2802.035867 0.8786 0.8768 0.8748 0.8728 0.8708
2807.105592 0.8688 0.8668 0.8645 0.8620 0.8595
2812.175317 0.8570 0.8545 0.8520 0.8492 0.8462
2817.245042 0.8429 0.8394 0.8359 0.8324 0.8285
2822.314768 0.8245 0.8199 0.8149 0.8099 0.8049
2827.384493 0.7999 0.7949 0.7896 0.7840 0.7779
2832.454218 0.7714 0.7633 0.7543 0.7425 0.7290
2837.523943 0.7133 0.6963 0.6768 0.6558 0.6326
2842.593669 0.6081 0.5814 0.5534 0.5242 0.4942
2847.663394 0.4623 0.4293 0.3945 0.3587 0.3337
2852.733119 0.3147 0.3067 0.3047 0.3040 0.3040
2857.802844 0.3079 0.3139 0.3527 0.4097 0.4310
2862.872570 0.4325 0.4333 0.4338 0.4340 0.4340
2867.942295 0.4295 0.4225 0.4206 0.4217 0.4309
2873.012020 0.4444 0.4592 0.4747 0.4978 0.5248
2878.081745 0.5350 0.5365 0.5360 0.5345 0.5324
2883.151471 0.5299 0.5227 0.5132 0.5057 0.4992
2888.221196 0.4891 0.4771 0.4664 0.4563 0.4486
2893.290921 0.4421 0.4356 0.4291 0.4229 0.4169
2898.360646 0.4096 0.4016 0.3956 0.3906 0.3833
2903.430372 0.3748 0.3643 0.3528 0.3406 0.3281
2908.500097 0.3146 0.3006 0.2851 0.2690 0.2533
2913.569822 0.2378 0.2219 0.2059 0.1896 0.1731
2918.639547 0.1570 0.1410 0.1329 0.1284 0.1211
2923.709273 0.1126 0.1097 0.1092 0.1093 0.1098
2928.778998 0.1141 0.1201 0.1272 0.1348 0.1423
2933.848723 0.1498 0.1619 0.1759 0.1913 0.2073
2938.918448 0.2166 0.2231 0.2296 0.2361 0.2376
2943.988174 0.2371 0.2345 0.2310 0.2254 0.2189
2949.057899 0.2107 0.2017 0.1919 0.1818 0.1714
2954.127624 0.1609 0.1576 0.1571 0.1577 0.1587
2959.197349 0.1720 0.1900 0.1986 0.2036 0.2151
2964.267075 0.2291 0.2416 0.2536 0.2703 0.2888
2969.336800 0.3102 0.3327 0.3586 0.3859 0.4137
2974.406525 0.4417 0.4704 0.4994 0.5276 0.5556
2979.476250 0.5814 0.6064 0.6285 0.6495 0.6646
2984.545976 0.6776 0.6891 0.7001 0.7096 0.7186
2989.615701 0.7272 0.7357 0.7432 0.7503 0.7565
2994.685426 0.7625 0.7678 0.7728 0.7770 0.7810
2999.755151 0.7850 0.7890 0.7926 0.7961 0.7996
3004.824877 0.8031 0.8066 0.8101 0.8140 0.8180
3009.894602 0.8197 0.8207 0.8210 0.8210 0.8206
3014.964327 0.8201 0.8196 0.8191 0.8155 0.8110
3020.034052 0.8046 0.7976 0.7891 0.7801 0.7688
3025.103778 0.7568 0.7425 0.7275 0.7102 0.6922
3030.173503 0.6815 0.6730 0.6710 0.6710 0.6726
3035.243228 0.6746 0.6860 0.7000 0.7186 0.7386
3040.312953 0.7551 0.7706 0.7877 0.8052 0.8094
3045.382679 0.8099 0.8100 0.8100 0.8096 0.8091
3050.452404 0.8059 0.8019 0.7963 0.7902 0.7830
3055.522129 0.7755 0.7664 0.7569 0.7474 0.7379
3060.591854 0.7216 0.7037 0.6996 0.6991 0.6994
3065.661580 0.6999 0.7048 0.7108 0.7219 0.7344
3070.731305 0.7438 0.7523 0.7560 0.7585 0.7631
3075.801030 0.7681 0.7731 0.7781 0.7965 0.8180
3080.870755 0.8224 0.8229 0.8226 0.8221 0.8220
3085.940481 0.8220 0.8208 0.8193 0.8190 0.8190
3091.010206 0.8222 0.8262 0.8360 0.8471 0.8585
3096.079931 0.8700 0.8761 0.8811 0.8828 0.8838
3101.149656 0.8861 0.8886 0.8894 0.8899 0.8900
3106.219382 0.8900 0.8900 0.8900 0.8904 0.8909
3111.289107 0.8922 0.8937 0.8957 0.8977 0.9005
3116.358832 0.9035 0.9044 0.9049 0.9092 0.9142
3121.428557 0.9167 0.9187 0.9198 0.9208 0.9214
3126.498283 0.9219 0.9220 0.9220 0.9224 0.9229
3131.568008 0.9230 0.9230 0.9230 0.9230 0.9230
3136.637733 0.9230 0.9230 0.9230 0.9230 0.9230
3141.707458 0.9234 0.9239 0.9240 0.9240 0.9240
3146.777184 0.9240 0.9240 0.9240 0.9240 0.9240
3151.846909 0.9236 0.9231 0.9230 0.9230 0.9226
3156.916634 0.9221 0.9220 0.9220 0.9216 0.9211
3161.986359 0.9210 0.9210 0.9210 0.9210 0.9210
3167.056085 0.9210 0.9210 0.9210 0.9210 0.9210
3172.125810 0.9210 0.9210 0.9214 0.9219 0.9224
3177.195535 0.9229 0.9243 0.9258 0.9273 0.9288
3182.265260 0.9290 0.9290 0.9294 0.9299 0.9304
3187.334986 0.9309 0.9310 0.9310 0.9310 0.9310
3192.404711 0.9310 0.9310 0.9310 0.9310 0.9310
3197.474436 0.9310 0.9319 0.9329 0.9330 0.9330
3202.544161 0.9335 0.9340 0.9345 0.9350 0.9350
3207.613887 0.9350 0.9350 0.9350 0.9355 0.9360
3212.683612 0.9360 0.9360 0.9360 0.9360 0.9365
3217.753337 0.9370 0.9370 0.9370 0.9375 0.9380
3222.823062 0.9380 0.9380 0.9385 0.9390 0.9390
3227.892788 0.9390 0.9390 0.9390 0.9395 0.9400
3232.962513 0.9400 0.9400 0.9405 0.9410 0.9410
3238.032238 0.9410 0.9410 0.9410 0.9405 0.9400
3243.101963 0.9395 0.9390 0.9390 0.9390 0.9390
3248.171689 0.9390 0.9390 0.9390 0.9390 0.9390
3253.241414 0.9395 0.9400 0.9400 0.9400 0.9400
3258.311139 0.9400 0.9405 0.9410 0.9405 0.9400
3263.380864 0.9400 0.9400 0.9400 0.9400 0.9405
3268.450590 0.9410 0.9410 0.9410 0.9410 0.9410
3273.520315 0.9410 0.9410 0.9410 0.9410 0.9410
3278.590040 0.9410 0.9405 0.9400 0.9405 0.9410
3283.659765 0.9410 0.9410 0.9410 0.9410 0.9415
3288.729491 0.9420 0.9425 0.9430 0.9430 0.9430
3293.799216 0.9425 0.9420 0.9415 0.9410 0.9410
3298.868941 0.9410 0.9410 0.9410 0.9410 0.9410
3303.938666 0.9410 0.9410 0.9410 0.9410 0.9415
3309.008392 0.9420 0.9420 0.9420 0.9425 0.9430
3314.078117 0.9430 0.9430 0.9430 0.9430 0.9430
3319.147842 0.9430 0.9430 0.9430 0.9430 0.9430
3324.217567 0.9430 0.9430 0.9430 0.9430 0.9430
3329.287293 0.9430 0.9435 0.9440 0.9445 0.9450
3334.357018 0.9450 0.9450 0.9450 0.9450 0.9455
3339.426743 0.9460 0.9460 0.9460 0.9460 0.9460
3344.496468 0.9465 0.9470 0.9470 0.9470 0.9470
3349.566194 0.9470 0.9470 0.9470 0.9470 0.9470
3354.635919 0.9470 0.9470 0.9470 0.9470 0.9470
3359.705644 0.9470 0.9470 0.9470 0.9470 0.9470
3364.775369 0.9470 0.9470 0.9470 0.9470 0.9470
3369.845095 0.9470 0.9470 0.9470 0.9465 0.9460
3374.914820 0.9460 0.9460 0.9455 0.9450 0.9450
3379.984545 0.9450 0.9450 0.9450 0.9455 0.9460
3385.054270 0.9460 0.9460 0.9460 0.9460 0.9460
3390.123996 0.9460 0.9465 0.9470 0.9470 0.9470
3395.193721 0.9465 0.9460 0.9460 0.9460 0.9455
3400.263446 0.9450 0.9445 0.9439 0.9429 0.9419
3405.333171 0.9409 0.9400 0.9400 0.9400 0.9395
3410.402897 0.9390 0.9390 0.9390 0.9385 0.9379
3415.472622 0.9369 0.9359 0.9344 0.9329 0.9314
3420.542347 0.9299 0.9284 0.9269 0.9259 0.9249
3425.612072 0.9239 0.9230 0.9225 0.9219 0.9209
3430.681798 0.9200 0.9200 0.9199 0.9189 0.9180
3435.751523 0.9175 0.9170 0.9170 0.9170 0.9170
3440.821248 0.9170 0.9175 0.9181 0.9191 0.9200
3445.890973 0.9205 0.9211 0.9221 0.9231 0.9246
3450.960699 0.9261 0.9271 0.9281 0.9291 0.9301
3456.030424 0.9311 0.9322 0.9342 0.9361 0.9366
3461.100149 0.9371 0.9376 0.9381 0.9391 0.9401
3466.169874 0.9406 0.9411 0.9421 0.9430 0.9430
3471.239600 0.9431 0.9441 0.9452 0.9466 0.9480
3476.309325 0.9480 0.9480 0.9486 0.9491 0.9496
3481.379050 0.9501 0.9506 0.9510 0.9510 0.9511
3486.448775 0.9516 0.9520 0.9520 0.9520 0.9520
3491.518501 0.9521 0.9526 0.9530 0.9530 0.9530
3496.588226 0.9530 0.9530 0.9530 0.9531 0.9536
3501.657951 0.9540 0.9540 0.9540 0.9540 0.9540
3506.727676 0.9540 0.9540 0.9540 0.9540 0.9540
3511.797402 0.9540 0.9540 0.9540 0.9540 0.9540
3516.867127 0.9540 0.9540 0.9540 0.9539 0.9534
3521.936852 0.9530 0.9530 0.9530 0.9530 0.9529
3527.006577 0.9524 0.9520 0.9520 0.9519 0.9514
3532.076303 0.9510 0.9510 0.9510 0.9510 0.9510
3537.146028 0.9510 0.9510 0.9510 0.9510 0.9510
3542.215753 0.9510 0.9510 0.9509 0.9504 0.9500
3547.285478 0.9500 0.9500 0.9500 0.9500 0.9500
3552.355204 0.9501 0.9506 0.9511 0.9516 0.9520
3557.424929 0.9520 0.9521 0.9526 0.9531 0.9536
3562.494654 0.9540 0.9540 0.9540 0.9540 0.9541
3567.564379 0.9546 0.9550 0.9550 0.9552 0.9562
3572.634105 0.9571 0.9576 0.9584 0.9609 0.9633
3577.703830 0.9648 0.9660 0.9660 0.9658 0.9648
3582.773555 0.9635 0.9610 0.9587 0.9572 0.9559
3587.843280 0.9554 0.9549 0.9544 0.9540 0.9540
3592.913006 0.9539 0.9534 0.9530 0.9530 0.9529
3597.982731 0.9524 0.9520 0.9520 0.9518 0.9508
3603.052456 0.9499 0.9494 0.9489 0.9484 0.9480
3608.122181 0.9480 0.9481 0.9486 0.9490 0.9490
3613.191906 0.9490 0.9490 0.9490 0.9490 0.9490
3618.261632 0.9490 0.9490 0.9490 0.9490 0.9490
3623.331357 0.9491 0.9496 0.9500 0.9500 0.9500
3628.401082 0.9500 0.9500 0.9500 0.9500 0.9500
3633.470807 0.9500 0.9500 0.9499 0.9494 0.9490
3638.540533 0.9490 0.9490 0.9490 0.9488 0.9478
3643.610258 0.9469 0.9464 0.9459 0.9454 0.9449
3648.679983 0.9444 0.9440 0.9440 0.9441 0.9446
3653.749708 0.9450 0.9450 0.9451 0.9456 0.9460
3658.819434 0.9460 0.9460 0.9460 0.9460 0.9460
3663.889159 0.9460 0.9460 0.9460 0.9460 0.9460
3668.958884 0.9460 0.9460 0.9460 0.9459 0.9454
3674.028609 0.9449 0.9444 0.9437 0.9427 0.9417
3679.098335 0.9407 0.9397 0.9387 0.9380 0.9380
3684.168060 0.9381 0.9386 0.9391 0.9396 0.9400
3689.237785 0.9400 0.9401 0.9406 0.9411 0.9416
3694.307510 0.9421 0.9426 0.9430 0.9430 0.9431
3699.377236 0.9436 0.9441 0.9446 0.9451 0.9456
3704.446961 0.9460 0.9460 0.9461 0.9466 0.9471
3709.516686 0.9476 0.9480 0.9480 0.9480 0.9480
3714.586411 0.9480 0.9480 0.9480 0.9480 0.9481
3719.656137 0.9486 0.9490 0.9490 0.9492 0.9497
3724.725862 0.9500 0.9500 0.9500 0.9500 0.9502
3729.795587 0.9507 0.9510 0.9510 0.9510 0.9510
3734.865312 0.9510 0.9510 0.9509 0.9504 0.9500
3739.935038 0.9500 0.9500 0.9500 0.9500 0.9500
3745.004763 0.9498 0.9493 0.9490 0.9490 0.9490
3750.074488 0.9490 0.9490 0.9490 0.9490 0.9490
3755.144213 0.9492 0.9497 0.9500 0.9500 0.9500
3760.213939 0.9500 0.9500 0.9500 0.9498 0.9493
3765.283664 0.9490 0.9490 0.9492 0.9497 0.9500
3770.353389 0.9500 0.9502 0.9507 0.9512 0.9517
3775.423114 0.9520 0.9520 0.9520 0.9520 0.9522
3780.492840 0.9527 0.9530 0.9530 0.9530 0.9530
3785.562565 0.9530 0.9530 0.9530 0.9530 0.9530
3790.632290 0.9530 0.9530 0.9530 0.9530 0.9530
3795.702015 0.9530 0.9530 0.9530 0.9530 0.9530
3800.771741 0.9530 0.9530 0.9530 0.9530 0.9530
3805.841466 0.9526 0.9516 0.9510 0.9510 0.9508
3810.911191 0.9503 0.9500 0.9500 0.9502 0.9507
3815.980916 0.9512 0.9517 0.9520 0.9520 0.9522
3821.050642 0.9527 0.9530 0.9530 0.9530 0.9530
3826.120367 0.9530 0.9530 0.9530 0.9530 0.9530
3831.190092 0.9530 0.9530 0.9530 0.9530 0.9530
3836.259817 0.9530 0.9530 0.9530 0.9530 0.9530
3841.329543 0.9530 0.9530 0.9530 0.9530 0.9530
3846.399268 0.9530 0.9530 0.9530 0.9530 0.9530
3851.468993 0.9530 0.9528 0.9523 0.9520 0.9520
3856.538718 0.9520 0.9520 0.9520 0.9520 0.9522
3861.608444 0.9527 0.9532 0.9537 0.9540 0.9540
3866.678169 0.9540 0.9540 0.9538 0.9533 0.9530
3871.747894 0.9530 0.9530 0.9530 0.9530 0.9530
3876.817619 0.9530 0.9530 0.9532 0.9537 0.9540
3881.887345 0.9540 0.9540 0.9540 0.9540 0.9540
3886.957070 0.9540 0.9540 0.9540 0.9540 0.9538
3892.026795 0.9533 0.9530 0.9530 0.9530 0.9530
3897.096520 0.9530 0.9530 0.9530 0.9530 0.9530
3902.166246 0.9530 0.9530 0.9530 0.9530 0.9530
3907.235971 0.9530 0.9530 0.9530 0.9530 0.9526
3912.305696 0.9516 0.9510 0.9510 0.9510 0.9510
3917.375421 0.9510 0.9510 0.9508 0.9503 0.9500
3922.445147 0.9500 0.9502 0.9507 0.9510 0.9510
3927.514872 0.9512 0.9517 0.9520 0.9520 0.9522
3932.584597 0.9527 0.9530 0.9530 0.9530 0.9530
3937.654322 0.9530 0.9530 0.9528 0.9523 0.9520
3942.724048 0.9520 0.9520 0.9520 0.9520 0.9520
3947.793773 0.9520 0.9520 0.9522 0.9527 0.9530
3952.863498 0.9530 0.9530 0.9530 0.9530 0.9530
3957.933223 0.9532 0.9537 0.9540 0.9540 0.9538
3963.002949 0.9533 0.9530 0.9530 0.9530 0.9530
3968.072674 0.9528 0.9523 0.9520 0.9520 0.9520
3973.142399 0.9520 0.9520 0.9520 0.9520 0.9520
3978.212124 0.9520 0.9520 0.9520 0.9520 0.9520
3983.281850 0.9520 0.9520 0.9520
##END=
