##TITLE=OCTYLTHIOSULFURIC ACID, 2-AMINO-2-METHYL-
##JCAMP-DX=4.24
##DATA TYPE=INFRARED SPECTRUM
##CLASS=COBLENTZ III
##ORIGIN=SOUTHERN RESEARCH INSTITUTE
##OWNER=COBLENTZ SOCIETY
Collection (C) 2018 copyright by the U.S. Secretary of Commerce
on behalf of the United States of America. All rights reserved.
##DATE=1962/11/29
##NAMES=S-(2-amino-2-methyloctyl) hydrogen thiosulfate
##MOLFORM=C9 H21 N O3 S2
##SOURCE REFERENCE=COBLENTZ NO. 10460
##$NIST ID=B6010460
##$NIST SOURCE=COBLENTZ
##$NIST IMAGE=cob10460
##SPECTROMETER/DATA SYSTEM=PERKIN-ELMER 221 (GRATING)
##INSTRUMENT PARAMETERS=GRATING FOR 4000-1428, FILTERS AT 2490, 980, NaCl PRISM FOR 1428-650 CM^-^1
##STATE=SOLID (1 mg / 650 mg KBr DISC)
##PATH LENGTH=
$$ PURITY - ANALYTICAL
$$SPECTRAL CONTAMINATION DUE TO H2O AROUND 3410 CM^-^1
##SAMPLING PROCEDURE=TRANSMISSION
##RESOLUTION=4
##DATA PROCESSING=DIGITIZED BY NIST FROM HARD COPY (FROM TWO SEGMENTS)
##XUNITS=1/CM
##YUNITS=TRANSMITTANCE
##XFACTOR=1.000000
##YFACTOR=1
##DELTAX=1.289134
##FIRSTX=673.203
##LASTX=4010.77
##FIRSTY=0.807
##MAXX=4010.77
##MINX=673.203
##MAXY=0.935
##MINY=0.075
##NPOINTS=2590
##XYDATA=(X++(Y..Y))
673.203000 0.8070 0.8070 0.8128 0.8178 0.8218
679.648670 0.8266 0.8306 0.8337 0.8375 0.8423
686.094340 0.8464 0.8512 0.8562 0.8635 0.8714
692.540010 0.8762 0.8778 0.8795 0.8822 0.8837
698.985680 0.8840 0.8840 0.8840 0.8826 0.8807
705.431350 0.8780 0.8745 0.8705 0.8648 0.8585
711.877020 0.8438 0.8247 0.8086 0.7809 0.7440
718.322690 0.7096 0.6756 0.6580 0.6739 0.7151
724.768360 0.7443 0.7473 0.7549 0.7699 0.7878
731.214030 0.8090 0.8319 0.8536 0.8733 0.8881
737.659700 0.8985 0.9038 0.9083 0.9090 0.9093
744.105370 0.9107 0.9134 0.9154 0.9172 0.9180
750.551040 0.9182 0.9193 0.9210 0.9210 0.9210
756.996710 0.9210 0.9210 0.9210 0.9209 0.9190
763.442380 0.9190 0.9179 0.9150 0.9101 0.9051
769.888050 0.8992 0.8914 0.8836 0.8702 0.8564
776.333720 0.8417 0.8277 0.8260 0.8430 0.8719
782.779390 0.8877 0.9045 0.9088 0.9082 0.9065
789.225060 0.9015 0.8933 0.8844 0.8763 0.8740
795.670730 0.8849 0.8960 0.9036 0.9137 0.9186
802.116400 0.9208 0.9226 0.9248 0.9260 0.9266
808.562070 0.9275 0.9291 0.9300 0.9305 0.9315
815.007740 0.9334 0.9350 0.9345 0.9331 0.9316
821.453410 0.9306 0.9288 0.9251 0.9191 0.9126
827.899080 0.9083 0.9011 0.8867 0.8721 0.8709
834.344750 0.8803 0.9013 0.9079 0.9202 0.9312
840.790420 0.9320 0.9318 0.9310 0.9310 0.9310
847.236090 0.9310 0.9310 0.9310 0.9309 0.9300
853.681760 0.9300 0.9300 0.9299 0.9280 0.9280
860.127430 0.9280 0.9270 0.9260 0.9241 0.9221
866.573100 0.9192 0.9172 0.9143 0.9122 0.9094
873.018770 0.9064 0.9052 0.9042 0.9016 0.8978
879.464440 0.8954 0.8935 0.8922 0.8920 0.8913
885.910110 0.8903 0.8879 0.8863 0.8664 0.8333
892.355780 0.8210 0.8317 0.8541 0.8731 0.8873
898.801450 0.8942 0.8950 0.8933 0.8920 0.8915
905.247120 0.8890 0.8855 0.8835 0.8816 0.8791
911.692790 0.8776 0.8753 0.8718 0.8692 0.8657
918.138460 0.8605 0.8573 0.8546 0.8503 0.8444
924.584130 0.8353 0.8215 0.8066 0.8043 0.8102
931.029800 0.8182 0.8220 0.8218 0.8202 0.8159
937.475470 0.8092 0.7980 0.7855 0.7739 0.7575
943.921140 0.7433 0.7255 0.7057 0.6711 0.6556
950.366810 0.6240 0.6247 0.6760 0.7183 0.7597
956.812480 0.7887 0.7909 0.8132 0.8159 0.8124
963.258150 0.8049 0.7917 0.7814 0.7800 0.7842
969.703820 0.7915 0.7986 0.8063 0.8119 0.8153
976.149490 0.8152 0.8135 0.8101 0.8047 0.7975
982.595160 0.7896 0.7837 0.7794 0.7774 0.7720
989.040830 0.7653 0.7582 0.7503 0.7436 0.7366
995.486500 0.7287 0.7245 0.7199 0.7110 0.7016
1001.932170 0.6951 0.6838 0.6650 0.6472 0.6295
1008.377840 0.6118 0.5936 0.5742 0.5520 0.5261
1014.823510 0.4965 0.4620 0.4237 0.3793 0.3275
1021.269180 0.2675 0.2003 0.1435 0.1418 0.1406
1027.714850 0.1382 0.1346 0.1330 0.1377 0.1670
1034.160520 0.1944 0.2294 0.3267 0.3927 0.4365
1040.606190 0.4707 0.5290 0.5699 0.5953 0.6100
1047.051860 0.6189 0.6258 0.6318 0.6358 0.6482
1053.497530 0.6666 0.6880 0.7097 0.7270 0.7359
1059.943200 0.7438 0.7467 0.7486 0.7490 0.7498
1066.388870 0.7500 0.7492 0.7475 0.7455 0.7363
1072.834540 0.7266 0.7219 0.7183 0.7090 0.6700
1079.280210 0.6449 0.6410 0.6534 0.6816 0.7286
1085.725880 0.7693 0.7826 0.7868 0.7916 0.7935
1092.171550 0.7945 0.7950 0.7950 0.7945 0.7908
1098.617220 0.7866 0.7856 0.7830 0.7773 0.7696
1105.062890 0.7606 0.7518 0.7429 0.7304 0.7167
1111.508560 0.7160 0.7171 0.7203 0.7215 0.7230
1117.954230 0.7225 0.7208 0.7184 0.7101 0.6995
1124.399900 0.6856 0.6707 0.6550 0.6404 0.6270
1130.845570 0.6172 0.6077 0.5812 0.5700 0.5718
1137.291240 0.6173 0.6300 0.6320 0.6369 0.6389
1143.736910 0.6390 0.6182 0.6133 0.6103 0.6082
1150.182580 0.6080 0.6019 0.5856 0.5654 0.5430
1156.628250 0.5251 0.5147 0.5059 0.4962 0.4849
1163.073920 0.4708 0.4546 0.4378 0.4204 0.4026
1169.519590 0.3848 0.3656 0.3446 0.3236 0.3017
1175.965260 0.2784 0.2524 0.2381 0.2247 0.2144
1182.410930 0.2146 0.2171 0.2185 0.2190 0.2185
1188.856600 0.2124 0.2037 0.1961 0.1832 0.1670
1195.302270 0.1506 0.1343 0.1138 0.0941 0.0845
1201.747940 0.0757 0.0750 0.0750 0.0753 0.0763
1208.193610 0.0778 0.0803 0.0817 0.0844 0.0866
1214.639280 0.0894 0.0910 0.0910 0.0908 0.0899
1221.084950 0.0890 0.0891 0.0908 0.0982 0.1001
1227.530620 0.1026 0.1139 0.1354 0.1482 0.1610
1233.976290 0.1728 0.1857 0.1995 0.2133 0.2289
1240.421960 0.2438 0.2595 0.2735 0.2890 0.3030
1246.867630 0.3160 0.3272 0.3364 0.3445 0.3516
1253.313300 0.3546 0.3550 0.3610 0.3696 0.3807
1259.758970 0.3932 0.4075 0.4216 0.4368 0.4519
1266.204640 0.4666 0.4808 0.4934 0.5040 0.5127
1272.650310 0.5183 0.5206 0.5215 0.5247 0.5348
1279.095980 0.5501 0.5624 0.5703 0.5735 0.5712
1285.541650 0.5651 0.5575 0.5511 0.5426 0.5299
1291.987320 0.5046 0.4780 0.4908 0.5163 0.5185
1298.432990 0.5229 0.5256 0.5374 0.5707 0.5924
1304.878660 0.6131 0.6300 0.6432 0.6537 0.6622
1311.324330 0.6692 0.6773 0.6861 0.6935 0.6971
1317.770000 0.6981 0.6992 0.7021 0.7030 0.7030
1324.215670 0.7020 0.7010 0.6980 0.6931 0.6891
1330.661340 0.6804 0.6716 0.6590 0.6571 0.6579
1337.107010 0.6650 0.6712 0.6797 0.6903 0.7036
1343.552680 0.7166 0.7302 0.7409 0.7499 0.7565
1349.998350 0.7662 0.7712 0.7720 0.7713 0.7696
1356.444020 0.7690 0.7683 0.7674 0.7651 0.7609
1362.889690 0.7560 0.7522 0.7498 0.7479 0.7459
1369.335360 0.7369 0.7232 0.7012 0.6761 0.6646
1375.781030 0.6635 0.6699 0.6849 0.7058 0.7212
1382.226700 0.7234 0.7228 0.7210 0.7206 0.7173
1388.672370 0.7032 0.6781 0.6579 0.6369 0.6150
1395.118040 0.6308 0.6795 0.6923 0.6841 0.6567
1401.563710 0.6218 0.5642 0.4990 0.5070 0.5581
1408.009380 0.6082 0.6546 0.6805 0.7237 0.7334
1414.455050 0.7543 0.7621 0.8181 0.8210 0.8220
1420.900720 0.8220 0.8220 0.8220 0.8220 0.8211
1427.346390 0.8210 0.8210 0.8201 0.8200 0.8183
1433.792060 0.8129 0.8053 0.7966 0.7870 0.7779
1440.237730 0.7690 0.7602 0.7528 0.7466 0.7421
1446.683400 0.7396 0.7383 0.7325 0.7260 0.7194
1453.129070 0.7011 0.6739 0.6496 0.6356 0.6308
1459.574740 0.6289 0.6274 0.6248 0.6098 0.5862
1466.020410 0.5565 0.5191 0.4990 0.5068 0.5264
1472.466080 0.5525 0.5843 0.6182 0.6460 0.6720
1478.911750 0.7086 0.7339 0.7486 0.7603 0.7607
1485.357420 0.7597 0.7582 0.7549 0.7515 0.7490
1491.803090 0.7449 0.7395 0.7321 0.7226 0.7141
1498.248760 0.7031 0.6923 0.6868 0.6772 0.6591
1504.694430 0.6205 0.5799 0.5365 0.4921 0.4464
1511.140100 0.4021 0.3578 0.3203 0.2760 0.2740
1517.585770 0.2749 0.3151 0.3538 0.3904 0.4254
1524.031440 0.4573 0.4870 0.5158 0.5410 0.5648
1530.477110 0.5876 0.6087 0.6270 0.6448 0.6604
1536.922780 0.6752 0.6885 0.6999 0.7107 0.7215
1543.368450 0.7324 0.7419 0.7508 0.7584 0.7653
1549.814120 0.7710 0.7748 0.7812 0.7873 0.7895
1556.259790 0.7905 0.7920 0.7930 0.7930 0.7940
1562.705460 0.7950 0.7968 0.7994 0.8008 0.8020
1569.151130 0.8020 0.8024 0.8030 0.8030 0.8030
1575.596800 0.8030 0.8027 0.8014 0.7997 0.7982
1582.042470 0.7952 0.7920 0.7876 0.7819 0.7768
1588.488140 0.7706 0.7639 0.7579 0.7511 0.7449
1594.933810 0.7370 0.7293 0.7223 0.7144 0.7056
1601.379480 0.6829 0.6634 0.6475 0.6298 0.6131
1607.825150 0.5934 0.5698 0.5414 0.5072 0.4764
1614.270820 0.4584 0.4525 0.4511 0.4536 0.4617
1620.716490 0.4706 0.4778 0.4880 0.4972 0.5076
1627.162160 0.5193 0.5319 0.5447 0.5598 0.5748
1633.607830 0.5910 0.6084 0.6295 0.6509 0.6696
1640.053500 0.6868 0.7018 0.7150 0.7272 0.7372
1646.499170 0.7461 0.7544 0.7612 0.7666 0.7715
1652.944840 0.7760 0.7800 0.7834 0.7868 0.7899
1659.390510 0.7927 0.7967 0.8006 0.8045 0.8089
1665.836180 0.8138 0.8188 0.8230 0.8263 0.8296
1672.281850 0.8322 0.8358 0.8385 0.8405 0.8425
1678.727520 0.8447 0.8472 0.8482 0.8497 0.8533
1685.173190 0.8552 0.8561 0.8571 0.8582 0.8601
1691.618860 0.8611 0.8621 0.8641 0.8650 0.8650
1698.064530 0.8660 0.8660 0.8680 0.8680 0.8699
1704.510200 0.8700 0.8709 0.8710 0.8728 0.8748
1710.955870 0.8768 0.8770 0.8778 0.8788 0.8798
1717.401540 0.8800 0.8816 0.8828 0.8830 0.8838
1723.847210 0.8840 0.8855 0.8867 0.8870 0.8877
1730.292880 0.8893 0.8900 0.8906 0.8910 0.8910
1736.738550 0.8916 0.8920 0.8926 0.8941 0.8950
1743.184220 0.8950 0.8955 0.8960 0.8960 0.8965
1749.629890 0.8970 0.8970 0.8979 0.8990 0.8990
1756.075560 0.8994 0.9000 0.9004 0.9010 0.9010
1762.521230 0.9013 0.9020 0.9026 0.9040 0.9043
1768.966900 0.9050 0.9052 0.9060 0.9060 0.9064
1775.412570 0.9080 0.9082 0.9090 0.9090 0.9091
1781.858240 0.9100 0.9100 0.9102 0.9120 0.9120
1788.303910 0.9120 0.9120 0.9120 0.9120 0.9130
1794.749580 0.9130 0.9140 0.9140 0.9149 0.9150
1801.195250 0.9168 0.9170 0.9170 0.9179 0.9180
1807.640920 0.9188 0.9190 0.9190 0.9206 0.9210
1814.086590 0.9218 0.9220 0.9220 0.9220 0.9227
1820.532260 0.9230 0.9230 0.9230 0.9230 0.9237
1826.977930 0.9240 0.9240 0.9240 0.9240 0.9240
1833.423600 0.9251 0.9260 0.9260 0.9260 0.9260
1839.869270 0.9265 0.9270 0.9270 0.9270 0.9270
1846.314940 0.9270 0.9270 0.9270 0.9270 0.9270
1852.760610 0.9270 0.9270 0.9270 0.9270 0.9270
1859.206280 0.9270 0.9270 0.9270 0.9270 0.9270
1865.651950 0.9270 0.9270 0.9268 0.9260 0.9260
1872.097620 0.9260 0.9257 0.9240 0.9240 0.9240
1878.543290 0.9239 0.9230 0.9230 0.9230 0.9230
1884.988960 0.9230 0.9230 0.9220 0.9220 0.9210
1891.434630 0.9210 0.9210 0.9192 0.9190 0.9190
1897.880300 0.9181 0.9180 0.9172 0.9170 0.9170
1904.325970 0.9170 0.9170 0.9170 0.9155 0.9150
1910.771640 0.9150 0.9143 0.9140 0.9126 0.9120
1917.217310 0.9107 0.9100 0.9100 0.9094 0.9090
1923.662980 0.9090 0.9084 0.9080 0.9069 0.9060
1930.108650 0.9055 0.9050 0.9045 0.9040 0.9031
1936.554320 0.9020 0.9011 0.8987 0.8966 0.8956
1942.999990 0.8950 0.8939 0.8920 0.8917 0.8907
1949.445660 0.8900 0.8894 0.8877 0.8867 0.8860
1955.891330 0.8855 0.8838 0.8823 0.8800 0.8800
1962.337000 0.8798 0.8790 0.8787 0.8767 0.8749
1968.782670 0.8739 0.8730 0.8728 0.8709 0.8700
1975.228340 0.8699 0.8679 0.8640 0.8610 0.8570
1981.674010 0.8550 0.8521 0.8491 0.8471 0.8442
1988.119680 0.8422 0.8402 0.8391 0.8381 0.8380
1994.565350 0.8355 0.8342 0.8332 0.8314 0.8294
2001.011020 0.8227 0.8187 0.8164 0.8137 0.8130
2007.456690 0.8114 0.8110 0.8110 0.8094 0.8090
2013.902360 0.8082 0.8080 0.8072 0.8070 0.8054
2020.348030 0.8042 0.8040 0.8024 0.8020 0.8004
2026.793700 0.8000 0.8000 0.8016 0.8075 0.8113
2033.239370 0.8151 0.8168 0.8201 0.8233 0.8256
2039.685040 0.8268 0.8286 0.8290 0.8298 0.8300
2046.130710 0.8323 0.8338 0.8348 0.8350 0.8358
2052.576380 0.8360 0.8376 0.8380 0.8396 0.8400
2059.022050 0.8416 0.8428 0.8430 0.8469 0.8519
2065.467720 0.8569 0.8627 0.8648 0.8658 0.8676
2071.913390 0.8696 0.8708 0.8726 0.8730 0.8738
2078.359060 0.8748 0.8789 0.8823 0.8861 0.8870
2084.804730 0.8878 0.8896 0.8900 0.8908 0.8910
2091.250400 0.8910 0.8918 0.8920 0.8920 0.8920
2097.696070 0.8920 0.8928 0.8930 0.8930 0.8930
2104.141740 0.8930 0.8930 0.8930 0.8946 0.8950
2110.587410 0.8950 0.8950 0.8958 0.8960 0.8960
2117.033080 0.8960 0.8960 0.8960 0.8960 0.8960
2123.478750 0.8952 0.8950 0.8950 0.8934 0.8930
2129.924420 0.8922 0.8920 0.8920 0.8920 0.8920
2136.370090 0.8928 0.8930 0.8977 0.8998 0.9008
2142.815760 0.9010 0.9010 0.9010 0.9010 0.9010
2149.261430 0.9010 0.9018 0.9020 0.9020 0.9020
2155.707100 0.9020 0.9036 0.9040 0.9040 0.9040
2162.152770 0.9040 0.9040 0.9048 0.9050 0.9050
2168.598440 0.9050 0.9058 0.9060 0.9060 0.9060
2175.044110 0.9076 0.9080 0.9080 0.9088 0.9090
2181.489780 0.9090 0.9098 0.9100 0.9100 0.9100
2187.935450 0.9116 0.9120 0.9120 0.9120 0.9120
2194.381120 0.9120 0.9120 0.9120 0.9120 0.9120
2200.826790 0.9120 0.9120 0.9104 0.9100 0.9092
2207.272460 0.9090 0.9082 0.9080 0.9080 0.9064
2213.718130 0.9060 0.9052 0.9027 0.9012 0.9010
2220.163800 0.9002 0.8992 0.8974 0.8954 0.8927
2226.609470 0.8889 0.8841 0.8807 0.8784 0.8757
2233.055140 0.8742 0.8717 0.8702 0.8684 0.8680
2239.500810 0.8664 0.8660 0.8660 0.8676 0.8688
2245.946480 0.8706 0.8726 0.8761 0.8793 0.8855
2252.392150 0.8909 0.8943 0.8958 0.8968 0.8970
2258.837820 0.8986 0.8990 0.8990 0.8990 0.8998
2265.283490 0.9000 0.9000 0.9000 0.9000 0.9000
2271.729160 0.9000 0.9008 0.9010 0.9018 0.9020
2278.174830 0.9036 0.9040 0.9056 0.9060 0.9076
2284.620500 0.9080 0.9088 0.9090 0.9090 0.9090
2291.066170 0.9090 0.9090 0.9090 0.9090 0.9098
2297.511840 0.9100 0.9100 0.9116 0.9120 0.9120
2303.957510 0.9120 0.9128 0.9122 0.9120 0.9104
2310.403180 0.9100 0.9100 0.9100 0.9100 0.9100
2316.848850 0.9092 0.9090 0.9090 0.9082 0.9064
2323.294520 0.9052 0.9042 0.9040 0.9024 0.9020
2329.740190 0.9020 0.9020 0.9012 0.9010 0.9010
2336.185860 0.9018 0.9012 0.9010 0.9010 0.9010
2342.631530 0.9002 0.9000 0.9000 0.8992 0.8990
2349.077200 0.8974 0.8970 0.8970 0.8962 0.8960
2355.522870 0.8960 0.8960 0.8968 0.8970 0.8970
2361.968540 0.8970 0.8970 0.8986 0.8990 0.8998
2368.414210 0.9008 0.9018 0.9020 0.9020 0.9020
2374.859880 0.9020 0.9020 0.9020 0.9020 0.9020
2381.305550 0.9012 0.9010 0.9010 0.9010 0.9002
2387.751220 0.9000 0.9000 0.8992 0.8990 0.8990
2394.196890 0.8974 0.8970 0.8970 0.8970 0.8962
2400.642560 0.8960 0.8952 0.8950 0.8950 0.8934
2407.088230 0.8930 0.8930 0.8930 0.8922 0.8920
2413.533900 0.8920 0.8920 0.8912 0.8902 0.8900
2419.979570 0.8900 0.8884 0.8880 0.8872 0.8847
2426.425240 0.8840 0.8832 0.8807 0.8792 0.8774
2432.870910 0.8739 0.8730 0.8714 0.8694 0.8682
2439.316580 0.8657 0.8642 0.8624 0.8620 0.8612
2445.762250 0.8602 0.8569 0.8498 0.8449 0.8377
2452.207920 0.8352 0.8319 0.8279 0.8247 0.8209
2458.653590 0.8177 0.8162 0.8152 0.8158 0.8160
2465.099260 0.8176 0.8211 0.8236 0.8240 0.8248
2471.544930 0.8250 0.8250 0.8258 0.8260 0.8260
2477.990600 0.8260 0.8260 0.8268 0.8286 0.8290
2484.436270 0.8298 0.8308 0.8333 0.8340 0.8348
2490.881940 0.8350 0.8342 0.8340 0.8317 0.8279
2497.327610 0.8247 0.8209 0.8177 0.8154 0.8134
2503.773280 0.8122 0.8120 0.8120 0.8128 0.8146
2510.218950 0.8158 0.8168 0.8201 0.8280 0.8323
2516.664620 0.8338 0.8348 0.8350 0.8350 0.8350
2523.110290 0.8350 0.8342 0.8332 0.8314 0.8302
2529.555960 0.8292 0.8259 0.8211 0.8184 0.8157
2536.001630 0.8119 0.8063 0.8027 0.7997 0.7967
2542.447300 0.7944 0.7917 0.7902 0.7877 0.7854
2548.892970 0.7819 0.7771 0.7698 0.7610 0.7520
2555.338640 0.7437 0.7373 0.7313 0.7261 0.7234
2561.784310 0.7214 0.7210 0.7210 0.7226 0.7238
2568.229980 0.7248 0.7266 0.7270 0.7270 0.7270
2574.675650 0.7254 0.7242 0.7232 0.7214 0.7210
2581.121320 0.7202 0.7200 0.7200 0.7208 0.7226
2587.566990 0.7230 0.7246 0.7289 0.7370 0.7453
2594.012660 0.7533 0.7613 0.7693 0.7749 0.7799
2600.458330 0.7841 0.7858 0.7883 0.7890 0.7890
2606.904000 0.7890 0.7890 0.7898 0.7900 0.7900
2613.349670 0.7900 0.7900 0.7900 0.7892 0.7890
2619.795340 0.7874 0.7870 0.7870 0.7862 0.7860
2626.241010 0.7860 0.7860 0.7852 0.7850 0.7850
2632.686680 0.7850 0.7850 0.7834 0.7830 0.7830
2639.132350 0.7822 0.7804 0.7738 0.7666 0.7642
2645.578020 0.7640 0.7640 0.7648 0.7650 0.7650
2652.023690 0.7650 0.7642 0.7632 0.7630 0.7630
2658.469360 0.7614 0.7594 0.7582 0.7564 0.7552
2664.915030 0.7527 0.7481 0.7462 0.7429 0.7397
2671.360700 0.7390 0.7390 0.7390 0.7382 0.7380
2677.806370 0.7380 0.7380 0.7380 0.7380 0.7380
2684.252040 0.7380 0.7380 0.7380 0.7380 0.7372
2690.697710 0.7370 0.7370 0.7370 0.7370 0.7370
2697.143380 0.7370 0.7370 0.7370 0.7370 0.7378
2703.589050 0.7489 0.7567 0.7596 0.7631 0.7648
2710.034720 0.7650 0.7650 0.7642 0.7632 0.7630
2716.480390 0.7614 0.7610 0.7594 0.7590 0.7567
2722.926060 0.7521 0.7479 0.7439 0.7414 0.7394
2729.371730 0.7390 0.7390 0.7382 0.7380 0.7380
2735.817400 0.7380 0.7380 0.7380 0.7388 0.7390
2742.263070 0.7390 0.7382 0.7380 0.7380 0.7364
2748.708740 0.7344 0.7332 0.7330 0.7330 0.7330
2755.154410 0.7307 0.7292 0.7282 0.7272 0.7254
2761.600080 0.7242 0.7240 0.7240 0.7232 0.7230
2768.045750 0.7214 0.7202 0.7192 0.7174 0.7154
2774.491420 0.7127 0.7089 0.7041 0.6999 0.6943
2780.937090 0.6922 0.6904 0.6869 0.6821 0.6779
2787.382760 0.6723 0.6679 0.6631 0.6581 0.6531
2793.828430 0.6489 0.6433 0.6381 0.6339 0.6291
2800.274100 0.6249 0.6224 0.6189 0.6157 0.6142
2806.719770 0.6117 0.6110 0.6102 0.6100 0.6100
2813.165440 0.6108 0.6110 0.6126 0.6130 0.6130
2819.611110 0.6114 0.6102 0.6092 0.6067 0.6044
2826.056780 0.6024 0.6004 0.5961 0.5903 0.5835
2832.502450 0.5758 0.5685 0.5615 0.5538 0.5465
2838.948120 0.5348 0.5234 0.5124 0.5022 0.4922
2845.393790 0.4806 0.4663 0.4490 0.4279 0.4003
2851.839460 0.3776 0.3550 0.3406 0.3286 0.3205
2858.285130 0.3167 0.3152 0.3158 0.3238 0.3299
2864.730800 0.3482 0.3702 0.3758 0.3760 0.3768
2871.176470 0.3770 0.3786 0.3798 0.3901 0.4165
2877.622140 0.4285 0.4331 0.4410 0.4430 0.4430
2884.067810 0.4414 0.4379 0.4331 0.4265 0.4211
2890.513480 0.4145 0.4083 0.4023 0.3955 0.3878
2896.959150 0.3813 0.3738 0.3658 0.3586 0.3507
2903.404820 0.3427 0.3363 0.3287 0.3207 0.3128
2909.850490 0.3055 0.2978 0.2898 0.2818 0.2761
2916.296160 0.2672 0.2556 0.2428 0.2291 0.2158
2922.741830 0.2052 0.1866 0.1812 0.1818 0.1851
2929.187500 0.1993 0.2077 0.2129 0.2203 0.2259
2935.633170 0.2325 0.2371 0.2396 0.2408 0.2433
2942.078840 0.2448 0.2450 0.2442 0.2440 0.2432
2948.524510 0.2414 0.2394 0.2351 0.2317 0.2302
2954.970180 0.2300 0.2308 0.2373 0.2421 0.2438
2961.415850 0.2448 0.2450 0.2450 0.2466 0.2517
2967.861520 0.2593 0.2712 0.2873 0.3012 0.3095
2974.307190 0.3149 0.3191 0.3247 0.3283 0.3321
2980.752860 0.3346 0.3366 0.3378 0.3403 0.3433
2987.198530 0.3495 0.3541 0.3573 0.3588 0.3598
2993.644200 0.3600 0.3616 0.3620 0.3620 0.3620
3000.089870 0.3620 0.3620 0.3620 0.3620 0.3620
3006.535540 0.3620 0.3620 0.3604 0.3584 0.3557
3012.981210 0.3542 0.3517 0.3494 0.3467 0.3421
3019.426880 0.3386 0.3341 0.3291 0.3249 0.3201
3025.872550 0.3167 0.3152 0.3142 0.3078 0.3013
3032.318220 0.2977 0.2947 0.2932 0.2914 0.2855
3038.763890 0.2778 0.2721 0.2679 0.2662 0.2621
3045.209560 0.2579 0.2539 0.2507 0.2484 0.2418
3051.655230 0.2361 0.2311 0.2277 0.2254 0.2227
3058.100900 0.2212 0.2187 0.2164 0.2137 0.2122
3064.546570 0.2104 0.2084 0.2057 0.2034 0.2014
3070.992240 0.2010 0.2002 0.2000 0.1992 0.1990
3077.437910 0.1990 0.1990 0.1990 0.1990 0.1990
3083.883580 0.1990 0.1990 0.1990 0.1990 0.1990
3090.329250 0.1998 0.2023 0.2030 0.2038 0.2056
3096.774920 0.2076 0.2096 0.2147 0.2176 0.2188
3103.220590 0.2206 0.2210 0.2218 0.2243 0.2258
3109.666260 0.2268 0.2301 0.2318 0.2343 0.2358
3116.111930 0.2376 0.2380 0.2380 0.2388 0.2390
3122.557600 0.2390 0.2390 0.2390 0.2398 0.2400
3129.003270 0.2400 0.2400 0.2400 0.2400 0.2400
3135.448940 0.2400 0.2408 0.2433 0.2479 0.2521
3141.894610 0.2538 0.2540 0.2540 0.2556 0.2560
3148.340280 0.2591 0.2623 0.2693 0.2773 0.2821
3154.785950 0.2869 0.2903 0.2933 0.2971 0.3011
3161.231620 0.3059 0.3117 0.3169 0.3219 0.3269
3167.677290 0.3319 0.3369 0.3403 0.3457 0.3493
3174.122960 0.3555 0.3609 0.3659 0.3701 0.3741
3180.568630 0.3781 0.3806 0.3833 0.3856 0.3883
3187.014300 0.3929 0.4010 0.4053 0.4107 0.4120
3193.459970 0.4143 0.4189 0.4247 0.4314 0.4369
3199.905640 0.4435 0.4497 0.4541 0.4558 0.4560
3206.351310 0.4568 0.4617 0.4646 0.4712 0.4769
3212.796980 0.4811 0.4851 0.4868 0.4893 0.4900
3219.242650 0.4908 0.4918 0.4936 0.4940 0.4940
3225.688320 0.4948 0.4950 0.4958 0.4960 0.4960
3232.133990 0.4960 0.4976 0.4980 0.4988 0.4998
3238.579660 0.5008 0.5033 0.5063 0.5093 0.5131
3245.025330 0.5156 0.5191 0.5239 0.5289 0.5347
3251.471000 0.5407 0.5443 0.5466 0.5509 0.5536
3257.916670 0.5595 0.5657 0.5725 0.5787 0.5855
3264.362340 0.5933 0.5997 0.6033 0.6056 0.6083
3270.808010 0.6121 0.6161 0.6193 0.6231 0.6271
3277.253680 0.6311 0.6359 0.6393 0.6431 0.6456
3283.699350 0.6483 0.6513 0.6536 0.6563 0.6586
3290.145020 0.6614 0.6628 0.6638 0.6656 0.6668
3296.590690 0.6678 0.6696 0.6723 0.6746 0.6789
3303.036360 0.6824 0.6838 0.6840 0.6840 0.6848
3309.482030 0.6858 0.6883 0.6890 0.6898 0.6916
3315.927700 0.6920 0.6920 0.6920 0.6928 0.6930
3322.373370 0.6938 0.6948 0.6950 0.6950 0.6966
3328.819040 0.6970 0.6970 0.6970 0.6970 0.6978
3335.264710 0.6980 0.6980 0.6980 0.6980 0.6980
3341.710380 0.6980 0.6972 0.6970 0.6970 0.6970
3348.156050 0.6970 0.6978 0.6980 0.6980 0.6980
3354.601720 0.6980 0.6972 0.6970 0.6954 0.6942
3361.047390 0.6940 0.6940 0.6940 0.6940 0.6940
3367.493060 0.6940 0.6940 0.6940 0.6932 0.6930
3373.938730 0.6922 0.6920 0.6920 0.6920 0.6904
3380.384400 0.6900 0.6900 0.6900 0.6892 0.6890
3386.830070 0.6890 0.6890 0.6890 0.6890 0.6890
3393.275740 0.6890 0.6890 0.6882 0.6880 0.6880
3399.721410 0.6880 0.6857 0.6850 0.6850 0.6850
3406.167080 0.6850 0.6850 0.6850 0.6850 0.6850
3412.612750 0.6850 0.6842 0.6840 0.6840 0.6840
3419.058420 0.6840 0.6848 0.6850 0.6858 0.6860
3425.504090 0.6860 0.6876 0.6880 0.6880 0.6880
3431.949760 0.6880 0.6888 0.6890 0.6890 0.6890
3438.395430 0.6898 0.6900 0.6916 0.6920 0.6920
3444.841100 0.6920 0.6928 0.6930 0.6930 0.6938
3451.286770 0.6948 0.6950 0.6950 0.6966 0.6970
3457.732440 0.6970 0.6978 0.6980 0.6980 0.6980
3464.178110 0.6980 0.6988 0.6990 0.6990 0.6990
3470.623780 0.6990 0.6990 0.6990 0.6990 0.6990
3477.069450 0.7006 0.7018 0.7028 0.7046 0.7058
3483.515120 0.7060 0.7068 0.7078 0.7080 0.7096
3489.960790 0.7100 0.7100 0.7108 0.7118 0.7136
3496.406460 0.7156 0.7168 0.7170 0.7186 0.7198
3502.852130 0.7200 0.7208 0.7210 0.7226 0.7230
3509.297800 0.7230 0.7238 0.7240 0.7240 0.7240
3515.743470 0.7240 0.7240 0.7248 0.7266 0.7293
3522.189140 0.7324 0.7354 0.7368 0.7370 0.7378
3528.634810 0.7380 0.7388 0.7406 0.7418 0.7428
3535.080480 0.7454 0.7468 0.7486 0.7498 0.7516
3541.526150 0.7520 0.7536 0.7540 0.7540 0.7540
3547.971820 0.7548 0.7550 0.7558 0.7576 0.7596
3554.417490 0.7608 0.7610 0.7626 0.7630 0.7630
3560.863160 0.7638 0.7640 0.7663 0.7678 0.7680
3567.308830 0.7680 0.7680 0.7688 0.7690 0.7706
3573.754500 0.7718 0.7728 0.7730 0.7738 0.7740
3580.200170 0.7740 0.7740 0.7763 0.7778 0.7796
3586.645840 0.7800 0.7808 0.7818 0.7820 0.7828
3593.091510 0.7853 0.7868 0.7886 0.7906 0.7933
3599.537180 0.7940 0.7948 0.7950 0.7958 0.7960
3605.982850 0.7960 0.7960 0.7960 0.7976 0.7980
3612.428520 0.7988 0.7998 0.8000 0.8016 0.8028
3618.874190 0.8030 0.8038 0.8048 0.8066 0.8070
3625.319860 0.8078 0.8080 0.8088 0.8090 0.8090
3631.765530 0.8106 0.8110 0.8118 0.8120 0.8128
3638.211200 0.8146 0.8158 0.8168 0.8193 0.8200
3644.656870 0.8208 0.8233 0.8240 0.8240 0.8240
3651.102540 0.8240 0.8248 0.8250 0.8250 0.8250
3657.548210 0.8250 0.8258 0.8268 0.8270 0.8286
3663.993880 0.8290 0.8290 0.8290 0.8274 0.8270
3670.439550 0.8270 0.8270 0.8270 0.8270 0.8286
3676.885220 0.8290 0.8290 0.8290 0.8298 0.8300
3683.330890 0.8300 0.8300 0.8308 0.8310 0.8310
3689.776560 0.8310 0.8310 0.8326 0.8330 0.8330
3696.222230 0.8330 0.8338 0.8340 0.8340 0.8348
3702.667900 0.8350 0.8358 0.8360 0.8376 0.8380
3709.113570 0.8388 0.8390 0.8390 0.8390 0.8390
3715.559240 0.8390 0.8390 0.8390 0.8390 0.8390
3722.004910 0.8390 0.8390 0.8382 0.8380 0.8380
3728.450580 0.8380 0.8380 0.8380 0.8380 0.8380
3734.896250 0.8380 0.8380 0.8388 0.8390 0.8390
3741.341920 0.8382 0.8380 0.8380 0.8388 0.8382
3747.787590 0.8380 0.8380 0.8380 0.8380 0.8380
3754.233260 0.8380 0.8364 0.8360 0.8360 0.8376
3760.678930 0.8380 0.8388 0.8390 0.8398 0.8392
3767.124600 0.8398 0.8400 0.8400 0.8400 0.8416
3773.570270 0.8420 0.8420 0.8420 0.8420 0.8420
3780.015940 0.8420 0.8420 0.8420 0.8420 0.8420
3786.461610 0.8428 0.8422 0.8420 0.8420 0.8420
3792.907280 0.8420 0.8420 0.8420 0.8428 0.8430
3799.352950 0.8430 0.8430 0.8430 0.8430 0.8430
3805.798620 0.8430 0.8430 0.8430 0.8422 0.8420
3812.244290 0.8404 0.8400 0.8400 0.8416 0.8420
3818.689960 0.8420 0.8420 0.8428 0.8430 0.8430
3825.135630 0.8430 0.8430 0.8430 0.8430 0.8430
3831.581300 0.8430 0.8430 0.8430 0.8430 0.8430
3838.026970 0.8430 0.8430 0.8430 0.8422 0.8420
3844.472640 0.8420 0.8420 0.8420 0.8420 0.8420
3850.918310 0.8420 0.8404 0.8400 0.8400 0.8416
3857.363980 0.8420 0.8420 0.8428 0.8422 0.8404
3863.809650 0.8392 0.8382 0.8380 0.8380 0.8388
3870.255320 0.8398 0.8416 0.8428 0.8430 0.8430
3876.700990 0.8430 0.8422 0.8420 0.8420 0.8428
3883.146660 0.8430 0.8430 0.8422 0.8404 0.8400
3889.592330 0.8400 0.8400 0.8416 0.8428 0.8430
3896.038000 0.8438 0.8432 0.8430 0.8430 0.8430
3902.483670 0.8430 0.8430 0.8430 0.8430 0.8430
3908.929340 0.8430 0.8430 0.8430 0.8430 0.8430
3915.375010 0.8430 0.8422 0.8428 0.8430 0.8430
3921.820680 0.8430 0.8430 0.8430 0.8430 0.8430
3928.266350 0.8430 0.8430 0.8430 0.8430 0.8430
3934.712020 0.8430 0.8430 0.8430 0.8430 0.8430
3941.157690 0.8430 0.8430 0.8430 0.8430 0.8430
3947.603360 0.8430 0.8430 0.8422 0.8420 0.8420
3954.049030 0.8420 0.8420 0.8420 0.8420 0.8420
3960.494700 0.8420 0.8428 0.8430 0.8430 0.8438
3966.940370 0.8440 0.8440 0.8440 0.8432 0.8430
3973.386040 0.8430 0.8430 0.8422 0.8404 0.8392
3979.831710 0.8390 0.8382 0.8380 0.8380 0.8380
3986.277380 0.8380 0.8380 0.8388 0.8390 0.8390
3992.723050 0.8398 0.8400 0.8400 0.8400 0.8416
3999.168720 0.8420 0.8420 0.8420 0.8420 0.8420
4005.614390 0.8428 0.8430 0.8422 0.8420 0.8420
##END=
