##TITLE=BENZENE, Beta-DEUTEROETHYNYL-
##JCAMP-DX=4.24
##DATA TYPE=INFRARED SPECTRUM
##CLASS=COBLENTZ III
##ORIGIN=DOW CHEMICAL COMPANY
##OWNER=COBLENTZ SOCIETY
Collection (C) 2018 copyright by the U.S. Secretary of Commerce
on behalf of the United States of America. All rights reserved.
##DATE=1959/11/03
##NAMES=ethynylbenzene
##MOLFORM=C8 H5 D
##SOURCE REFERENCE=COBLENTZ NO. 10137
##$NIST ID=B6010137
##$NIST SOURCE=COBLENTZ
##$NIST IMAGE=cob10137
##SPECTROMETER/DATA SYSTEM=DOW KBr FOREPRISM-GRATING
##INSTRUMENT PARAMETERS=BLAZED AT 3.5, 12.0, 20.0 MICRON, CHANGED AT 5.0, 7.5, 14.9 MICRON
##STATE=SOLUTION (10% IN CCl4 FOR 3800-1333, 10% IN CS2 FOR 1333-450 CM^-^1)
##PATH LENGTH=0.011, 0.010 CM
$$ SPECTRAL CONTAMINATION DUE TO CCl4 AROUND 1550, AND CS2 AROUND 855 CM^-^1
$$ SPECTRAL FEATURES AROUND 3315, 650, AND 610 CM^-^1 BELONG TO PHENYL ACETYLENE
##SAMPLING PROCEDURE=TRANSMISSION
##RESOLUTION=4
##DATA PROCESSING=DIGITIZED BY NIST FROM HARD COPY (FROM TWO SEGMENTS)
##XUNITS=1/CM
##YUNITS=TRANSMITTANCE
##XFACTOR=1.000000
##YFACTOR=1
##DELTAX=0.869565
##FIRSTX=452.174
##LASTX=3796.52
##FIRSTY=0.785
##MAXX=3796.52
##MINX=452.174
##MAXY=1.028
##MINY=0.004
##NPOINTS=3847
##XYDATA=(X++(Y..Y))
452.174000 0.7850 0.7820 0.7810 0.7770 0.7740
456.521826 0.7660 0.7620 0.7590 0.7590 0.7580
460.869652 0.7560 0.7500 0.7400 0.7330 0.7250
465.217478 0.7140 0.6991 0.6751 0.6541 0.6222
469.565303 0.5820 0.5470 0.4831 0.3941 0.2812
473.913129 0.2521 0.1732 0.1192 0.1011 0.0821
478.260955 0.0670 0.0540 0.0430 0.0310 0.0290
482.608781 0.0290 0.0290 0.0290 0.0310 0.0419
486.956607 0.1140 0.1719 0.2219 0.2330 0.2928
491.304433 0.4136 0.4927 0.6065 0.6438 0.6878
495.652258 0.7240 0.7590 0.7920 0.8090 0.8280
500.000084 0.8489 0.8699 0.8889 0.9039 0.9209
504.347910 0.9230 0.9270 0.9340 0.9370 0.9380
508.695736 0.9440 0.9440 0.9450 0.9440 0.9420
513.043562 0.9400 0.9370 0.9360 0.9340 0.9330
517.391388 0.9320 0.9250 0.9170 0.9110 0.8941
521.739213 0.8800 0.8390 0.8120 0.7601 0.7091
526.087039 0.1843 0.1352 0.0882 0.0392 0.0390
530.434865 0.1380 0.2349 0.4327 0.5947 0.6569
534.782691 0.7587 0.7979 0.8488 0.8828 0.9109
539.130517 0.9320 0.9380 0.9530 0.9590 0.9710
543.478343 0.9740 0.9750 0.9800 0.9830 0.9860
547.826169 0.9890 0.9890 0.9900 0.9910 0.9930
552.173994 1.0010 1.0010 1.0020 1.0050 1.0060
556.521820 1.0090 1.0120 1.0120 1.0120 1.0130
560.869646 1.0140 1.0160 1.0170 1.0190 1.0190
565.217472 1.0190 1.0200 1.0200 1.0210 1.0210
569.565298 1.0210 1.0230 1.0230 1.0200 1.0200
573.913124 1.0200 1.0200 1.0200 1.0200 1.0210
578.260949 1.0210 1.0210 1.0230 1.0240 1.0240
582.608775 1.0240 1.0240 1.0250 1.0270 1.0280
586.956601 1.0280 1.0280 1.0270 1.0270 1.0270
591.304427 1.0240 1.0240 1.0240 1.0230 1.0210
595.652253 1.0200 1.0190 1.0190 1.0170 1.0160
600.000079 1.0130 1.0080 1.0060 1.0020 1.0000
604.347904 0.9970 0.9940 0.9890 0.9820 0.9760
608.695730 0.9750 0.9720 0.9710 0.9700 0.9680
613.043556 0.9680 0.9700 0.9760 0.9780 0.9820
617.391382 0.9870 0.9900 0.9910 0.9910 0.9900
621.739208 0.9900 0.9900 0.9900 0.9910 0.9910
626.087034 0.9930 0.9910 0.9910 0.9900 0.9890
630.434860 0.9890 0.9870 0.9860 0.9850 0.9820
634.782685 0.9780 0.9760 0.9750 0.9720 0.9680
639.130511 0.9640 0.9610 0.9530 0.9450 0.9380
643.478337 0.9270 0.9140 0.9110 0.9070 0.9040
647.826163 0.9040 0.9040 0.9030 0.9030 0.9000
652.173989 0.9000 0.8990 0.8990 0.9000 0.9000
656.521815 0.9030 0.9060 0.9060 0.9040 0.9030
660.869640 0.8990 0.8920 0.8880 0.8830 0.8720
665.217466 0.8501 0.8420 0.8281 0.8151 0.8120
669.565292 0.8110 0.8110 0.8110 0.8090 0.8090
673.913118 0.8070 0.8040 0.7930 0.7741 0.7561
678.260944 0.7260 0.6990 0.6351 0.5861 0.5351
682.608770 0.4822 0.4451 0.3613 0.2137 0.1374
686.956596 0.0610 0.0350 0.0090 0.0090 0.0190
691.304421 0.0389 0.0569 0.1496 0.1898 0.2357
695.652247 0.2970 0.3230 0.3620 0.3640 0.4229
700.000073 0.5417 0.5430 0.6157 0.6867 0.7696
704.347899 0.7920 0.8160 0.8530 0.8720 0.8890
708.695725 0.8980 0.9080 0.9150 0.9250 0.9320
713.043551 0.9330 0.9340 0.9330 0.9320 0.9290
717.391376 0.9260 0.9260 0.9290 0.9340 0.9400
721.739202 0.9520 0.9530 0.9530 0.9530 0.9530
726.087028 0.9520 0.9520 0.9480 0.9450 0.9380
730.434854 0.9360 0.9330 0.9320 0.9300 0.9270
734.782680 0.9250 0.9210 0.9140 0.9100 0.9001
739.130506 0.8920 0.8880 0.8690 0.8510 0.8300
743.478331 0.8090 0.7791 0.7471 0.7072 0.6204
747.826157 0.5510 0.4870 0.3551 0.2322 0.1482
752.173983 0.0632 0.0102 0.0050 0.0040 0.0040
756.521809 0.0040 0.0050 0.0090 0.0310 0.1298
760.869635 0.1988 0.2847 0.3975 0.4468 0.5246
765.217461 0.5810 0.6190 0.6440 0.6640 0.7059
769.565287 0.7499 0.7729 0.8169 0.8529 0.8689
773.913112 0.8730 0.8810 0.8890 0.8890 0.8910
778.260938 0.9020 0.9110 0.9150 0.9269 0.9320
782.608764 0.9340 0.9370 0.9410 0.9440 0.9450
786.956590 0.9480 0.9520 0.9530 0.9570 0.9600
791.304416 0.9630 0.9640 0.9660 0.9660 0.9660
795.652242 0.9660 0.9660 0.9660 0.9660 0.9660
800.000067 0.9640 0.9640 0.9660 0.9660 0.9660
804.347893 0.9660 0.9660 0.9660 0.9660 0.9660
808.695719 0.9660 0.9660 0.9640 0.9640 0.9630
813.043545 0.9630 0.9630 0.9610 0.9600 0.9570
817.391371 0.9530 0.9520 0.9520 0.9510 0.9490
821.739197 0.9490 0.9490 0.9510 0.9510 0.9520
826.087022 0.9530 0.9530 0.9530 0.9520 0.9520
830.434848 0.9480 0.9440 0.9400 0.9380 0.9330
834.782674 0.9300 0.9260 0.9250 0.9180 0.9130
839.130500 0.9100 0.9080 0.9030 0.8980 0.8890
843.478326 0.8880 0.8830 0.8800 0.8770 0.8700
847.826152 0.8610 0.8540 0.8530 0.8490 0.8430
852.173978 0.8350 0.8270 0.8260 0.8230 0.8220
856.521803 0.8220 0.8200 0.8200 0.8200 0.8200
860.869629 0.8220 0.8230 0.8260 0.8280 0.8300
865.217455 0.8300 0.8300 0.8280 0.8230 0.8190
869.565281 0.8130 0.8020 0.7940 0.7940 0.7980
873.913107 0.8090 0.8220 0.8350 0.8489 0.8599
878.260933 0.8640 0.8720 0.8800 0.8890 0.8980
882.608758 0.9040 0.9110 0.9140 0.9210 0.9250
886.956584 0.9270 0.9330 0.9370 0.9410 0.9450
891.304410 0.9470 0.9470 0.9480 0.9480 0.9470
895.652236 0.9450 0.9440 0.9410 0.9380 0.9340
900.000062 0.9300 0.9250 0.9190 0.9130 0.9040
904.347888 0.8940 0.8870 0.8700 0.8620 0.8500
908.695713 0.8301 0.8091 0.7751 0.5889 0.5512
913.043539 0.5140 0.4440 0.4440 0.4949 0.5479
917.391365 0.5999 0.6628 0.7936 0.8239 0.8389
921.739191 0.8920 0.9140 0.9190 0.9230 0.9250
926.087017 0.9250 0.9250 0.9250 0.9250 0.9260
930.434843 0.9270 0.9300 0.9300 0.9300 0.9270
934.782669 0.9270 0.9260 0.9220 0.9111 0.9020
939.130494 0.8990 0.8980 0.8850 0.8700 0.8500
943.478320 0.8300 0.8130 0.8020 0.7831 0.7551
947.826146 0.7390 0.7240 0.7100 0.6970 0.6840
952.173972 0.6830 0.6820 0.6830 0.6840 0.6900
956.521798 0.6970 0.7060 0.7210 0.7360 0.7430
960.869624 0.7599 0.7769 0.7890 0.8079 0.8150
965.217449 0.8310 0.8410 0.8490 0.8660 0.8750
969.565275 0.8770 0.8840 0.8920 0.8990 0.9060
973.913101 0.9110 0.9140 0.9170 0.9180 0.9210
978.260927 0.9220 0.9220 0.9210 0.9210 0.9210
982.608753 0.9210 0.9220 0.9250 0.9300 0.9300
986.956579 0.9320 0.9330 0.9330 0.9330 0.9360
991.304404 0.9380 0.9410 0.9410 0.9400 0.9380
995.652230 0.9360 0.9340 0.9330 0.9320 0.9320
1000.000056 0.9320 0.9300 0.9290 0.9260 0.9250
1004.347882 0.9210 0.9180 0.9110 0.9020 0.8871
1008.695708 0.8720 0.8610 0.8500 0.8490 0.8500
1013.043534 0.8580 0.8610 0.8650 0.8680 0.8650
1017.391360 0.8610 0.8530 0.8490 0.8430 0.8151
1021.739185 0.7821 0.7032 0.6442 0.6271 0.5892
1026.087011 0.5890 0.6770 0.7259 0.7779 0.8528
1030.434837 0.8729 0.8889 0.8910 0.8890 0.8890
1034.782663 0.8830 0.8760 0.8760 0.9029 0.9110
1039.130489 0.9289 0.9410 0.9510 0.9590 0.9610
1043.478315 0.9630 0.9630 0.9630 0.9630 0.9630
1047.826140 0.9610 0.9600 0.9590 0.9570 0.9560
1052.173966 0.9530 0.9520 0.9480 0.9450 0.9410
1056.521792 0.9370 0.9320 0.9260 0.9210 0.9130
1060.869618 0.9060 0.8980 0.8770 0.8501 0.8281
1065.217444 0.8071 0.7731 0.7252 0.6752 0.6412
1069.565270 0.6040 0.6040 0.6440 0.7179 0.7998
1073.913096 0.8339 0.8689 0.8909 0.9109 0.9219
1078.260921 0.9300 0.9340 0.9380 0.9470 0.9520
1082.608747 0.9530 0.9550 0.9550 0.9560 0.9570
1086.956573 0.9600 0.9630 0.9660 0.9660 0.9660
1091.304399 0.9640 0.9610 0.9560 0.9520 0.9480
1095.652225 0.9400 0.9340 0.9320 0.9230 0.9220
1100.000051 0.9220 0.9320 0.9410 0.9490 0.9560
1104.347876 0.9630 0.9670 0.9750 0.9780 0.9790
1108.695702 0.9800 0.9830 0.9860 0.9930 0.9940
1113.043528 0.9950 1.0000 1.0020 1.0040 1.0040
1117.391354 1.0040 1.0040 1.0050 1.0050 1.0050
1121.739180 1.0050 1.0020 1.0010 1.0000 1.0000
1126.087006 0.9980 0.9980 0.9980 0.9980 0.9970
1130.434831 0.9970 0.9980 0.9980 0.9950 0.9950
1134.782657 0.9940 0.9930 0.9910 0.9890 0.9870
1139.130483 0.9830 0.9800 0.9780 0.9760 0.9750
1143.478309 0.9740 0.9710 0.9700 0.9670 0.9660
1147.826135 0.9640 0.9610 0.9560 0.9530 0.9510
1152.173961 0.9470 0.9410 0.9340 0.9320 0.9290
1156.521787 0.9210 0.9170 0.9170 0.9180 0.9210
1160.869612 0.9260 0.9300 0.9340 0.9340 0.9340
1165.217438 0.9330 0.9330 0.9320 0.9300 0.9290
1169.565264 0.9290 0.9260 0.9220 0.9170 0.9110
1173.913090 0.9080 0.9070 0.9040 0.9040 0.9070
1178.260916 0.9190 0.9220 0.9220 0.9230 0.9260
1182.608742 0.9290 0.9340 0.9400 0.9380 0.9370
1186.956567 0.9340 0.9290 0.9210 0.9101 0.8991
1191.304393 0.8990 0.9080 0.9360 0.9630 0.9670
1195.652219 0.9700 0.9750 0.9790 0.9820 0.9850
1200.000045 0.9870 0.9890 0.9890 0.9940 0.9950
1204.347871 0.9970 0.9970 0.9980 0.9980 0.9980
1208.695697 0.9980 0.9980 0.9980 0.9980 0.9980
1213.043522 0.9980 0.9980 0.9980 0.9970 0.9970
1217.391348 0.9970 0.9970 0.9970 0.9950 0.9940
1221.739174 1.0000 1.0040 1.0040 1.0050 1.0050
1226.087000 1.0060 1.0060 1.0080 1.0090 1.0090
1230.434826 1.0100 1.0100 1.0090 1.0090 1.0090
1234.782652 1.0080 1.0050 1.0020 1.0000 0.9970
1239.130478 0.9910 0.9900 0.9900 0.9900 0.9910
1243.478303 0.9940 0.9970 0.9970 0.9970 0.9970
1247.826129 0.9970 0.9970 0.9970 0.9970 0.9970
1252.173955 0.9980 0.9980 0.9970 0.9970 0.9970
1256.521781 0.9970 0.9970 0.9970 0.9940 0.9940
1260.869607 0.9940 0.9940 0.9940 0.9930 0.9930
1265.217433 0.9930 0.9930 0.9930 0.9910 0.9900
1269.565258 0.9870 0.9850 0.9830 0.9780 0.9710
1273.913084 0.9680 0.9630 0.9530 0.9470 0.9341
1278.260910 0.9210 0.9170 0.9110 0.9110 0.9190
1282.608736 0.9250 0.9419 0.9420 0.9440 0.9440
1286.956562 0.9440 0.9470 0.9520 0.9600 0.9680
1291.304388 0.9740 0.9790 0.9820 0.9850 0.9850
1295.652213 0.9860 0.9890 0.9890 0.9890 0.9890
1300.000039 0.9890 0.9890 0.9890 0.9870 0.9870
1304.347865 0.9870 0.9870 0.9870 0.9860 0.9860
1308.695691 0.9860 0.9860 0.9850 0.9850 0.9850
1313.043517 0.9830 0.9830 0.9820 0.9820 0.9800
1317.391343 0.9800 0.9800 0.9780 0.9760 0.9750
1321.739169 0.9740 0.9660 0.9610 0.9560 0.9550
1326.086994 0.9530 0.9520 0.9520 0.9530 0.9530
1330.434820 0.9560 0.9600 0.9640 0.9750 0.9760
1334.782646 0.9780 0.9780 0.9790 0.9800 0.9800
1339.130472 0.9800 0.9820 0.9820 0.9830 0.9830
1343.478298 0.9850 0.9850 0.9850 0.9860 0.9860
1347.826124 0.9860 0.9870 0.9870 0.9870 0.9890
1352.173949 0.9890 0.9890 0.9890 0.9890 0.9890
1356.521775 0.9870 0.9870 0.9850 0.9830 0.9830
1360.869601 0.9820 0.9800 0.9790 0.9780 0.9760
1365.217427 0.9740 0.9720 0.9710 0.9700 0.9670
1369.565253 0.9660 0.9640 0.9630 0.9610 0.9590
1373.913079 0.9590 0.9590 0.9590 0.9590 0.9570
1378.260904 0.9570 0.9570 0.9550 0.9550 0.9520
1382.608730 0.9520 0.9530 0.9530 0.9550 0.9570
1386.956556 0.9630 0.9670 0.9740 0.9750 0.9760
1391.304382 0.9760 0.9750 0.9720 0.9720 0.9710
1395.652208 0.9700 0.9710 0.9740 0.9740 0.9750
1400.000034 0.9790 0.9800 0.9820 0.9820 0.9790
1404.347860 0.9780 0.9780 0.9760 0.9760 0.9760
1408.695685 0.9760 0.9760 0.9750 0.9750 0.9740
1413.043511 0.9740 0.9740 0.9740 0.9710 0.9710
1417.391337 0.9700 0.9680 0.9680 0.9670 0.9670
1421.739163 0.9660 0.9660 0.9660 0.9640 0.9640
1426.086989 0.9630 0.9630 0.9600 0.9560 0.9530
1430.434815 0.9530 0.9480 0.9420 0.9400 0.9320
1434.782640 0.9210 0.9110 0.8990 0.8491 0.8350
1439.130466 0.8340 0.8230 0.7981 0.6955 0.4533
1443.478292 0.2100 0.2100 0.3349 0.5207 0.6118
1447.826118 0.6768 0.8126 0.8578 0.8700 0.8829
1452.173944 0.8940 0.8980 0.9020 0.9110 0.9250
1456.521770 0.9290 0.9290 0.9290 0.9290 0.9290
1460.869596 0.9290 0.9290 0.9290 0.9290 0.9260
1465.217421 0.9250 0.9230 0.9230 0.9230 0.9220
1469.565247 0.9220 0.9210 0.9150 0.9100 0.8960
1473.913073 0.8890 0.8880 0.8880 0.8830 0.8721
1478.260899 0.8570 0.8530 0.8450 0.8111 0.7751
1482.608725 0.6833 0.5694 0.4684 0.3097 0.2374
1486.956551 0.1650 0.1300 0.0931 0.0232 0.1447
1491.304376 0.2586 0.5987 0.6418 0.7027 0.7289
1495.652202 0.7470 0.7740 0.7930 0.7980 0.8020
1500.000028 0.8040 0.8040 0.8020 0.8010 0.7980
1504.347854 0.7940 0.7900 0.7740 0.7620 0.7580
1508.695680 0.7550 0.7540 0.7510 0.7440 0.7410
1513.043506 0.7370 0.7240 0.7210 0.7210 0.7200
1517.391331 0.7200 0.7200 0.7200 0.7200 0.7160
1521.739157 0.7100 0.7070 0.7060 0.7030 0.6990
1526.086983 0.6900 0.6820 0.6770 0.6670 0.6580
1530.434809 0.6570 0.6370 0.6290 0.6160 0.6050
1534.782635 0.6000 0.5990 0.5920 0.5850 0.5731
1539.130461 0.5590 0.5540 0.5460 0.5360 0.5320
1543.478287 0.5280 0.5240 0.5200 0.5170 0.5170
1547.826112 0.5160 0.5160 0.5170 0.5190 0.5200
1552.173938 0.5270 0.5380 0.5430 0.5460 0.5470
1556.521764 0.5730 0.5950 0.5990 0.5990 0.5970
1560.869590 0.5990 0.6000 0.6070 0.6160 0.6220
1565.217416 0.6270 0.6270 0.6250 0.6230 0.6190
1569.565242 0.6180 0.6160 0.6070 0.5970 0.5612
1573.913067 0.5480 0.5480 0.6259 0.6370 0.6490
1578.260893 0.6600 0.6750 0.6820 0.6870 0.6900
1582.608719 0.6920 0.6940 0.6950 0.6950 0.6950
1586.956545 0.6940 0.6940 0.6910 0.6910 0.6900
1591.304371 0.6860 0.6820 0.6720 0.6650 0.6600
1595.652197 0.6520 0.6500 0.6520 0.6560 0.6640
1600.000022 0.7020 0.7330 0.7630 0.7930 0.8229
1604.347848 0.8499 0.8610 0.8769 0.8830 0.8890
1608.695674 0.9030 0.9070 0.9110 0.9140 0.9190
1613.043500 0.9270 0.9340 0.9380 0.9450 0.9470
1617.391326 0.9480 0.9480 0.9490 0.9520 0.9530
1621.739152 0.9550 0.9560 0.9560 0.9560 0.9560
1626.086978 0.9570 0.9590 0.9600 0.9610 0.9610
1630.434803 0.9610 0.9610 0.9640 0.9670 0.9700
1634.782629 0.9700 0.9710 0.9710 0.9710 0.9720
1639.130455 0.9720 0.9720 0.9750 0.9750 0.9750
1643.478281 0.9760 0.9760 0.9760 0.9760 0.9760
1647.826107 0.9760 0.9750 0.9750 0.9750 0.9740
1652.173933 0.9710 0.9700 0.9680 0.9680 0.9670
1656.521758 0.9670 0.9660 0.9640 0.9630 0.9600
1660.869584 0.9590 0.9560 0.9530 0.9510 0.9450
1665.217410 0.9370 0.9320 0.9210 0.9130 0.9110
1669.565236 0.9130 0.9140 0.9180 0.9230 0.9360
1673.913062 0.9520 0.9560 0.9590 0.9630 0.9680
1678.260888 0.9760 0.9780 0.9790 0.9820 0.9830
1682.608713 0.9830 0.9850 0.9850 0.9850 0.9850
1686.956539 0.9850 0.9860 0.9870 0.9870 0.9890
1691.304365 0.9910 0.9930 0.9950 0.9970 0.9970
1695.652191 0.9970 0.9970 0.9950 0.9940 0.9940
1700.000017 0.9950 0.9950 0.9950 0.9940 0.9930
1704.347843 0.9930 0.9910 0.9910 0.9900 0.9900
1708.695669 0.9890 0.9890 0.9890 0.9870 0.9870
1713.043494 0.9860 0.9850 0.9830 0.9820 0.9800
1717.391320 0.9790 0.9790 0.9800 0.9800 0.9830
1721.739146 0.9850 0.9860 0.9860 0.9860 0.9860
1726.086972 0.9860 0.9860 0.9860 0.9850 0.9830
1730.434798 0.9820 0.9790 0.9790 0.9780 0.9780
1734.782624 0.9780 0.9760 0.9760 0.9760 0.9750
1739.130449 0.9750 0.9750 0.9720 0.9680 0.9630
1743.478275 0.9600 0.9570 0.9530 0.9520 0.9420
1747.826101 0.9360 0.9300 0.9270 0.9170 0.9110
1752.173927 0.9100 0.9100 0.9130 0.9180 0.9230
1756.521753 0.9340 0.9440 0.9530 0.9570 0.9680
1760.869579 0.9750 0.9760 0.9780 0.9790 0.9830
1765.217404 0.9860 0.9890 0.9910 0.9930 0.9940
1769.565230 0.9970 0.9970 0.9970 0.9950 0.9930
1773.913056 0.9910 0.9900 0.9890 0.9860 0.9850
1778.260882 0.9820 0.9800 0.9800 0.9820 0.9860
1782.608708 0.9890 0.9890 0.9890 0.9890 0.9890
1786.956534 0.9890 0.9870 0.9870 0.9860 0.9830
1791.304360 0.9790 0.9760 0.9750 0.9680 0.9660
1795.652185 0.9600 0.9530 0.9470 0.9321 0.9230
1800.000011 0.9130 0.9020 0.8910 0.8830 0.8830
1804.347837 0.8890 0.9030 0.9140 0.9250 0.9340
1808.695663 0.9470 0.9520 0.9600 0.9660 0.9670
1813.043489 0.9680 0.9680 0.9700 0.9680 0.9670
1817.391315 0.9640 0.9610 0.9610 0.9600 0.9590
1821.739140 0.9590 0.9600 0.9600 0.9610 0.9630
1826.086966 0.9630 0.9670 0.9740 0.9740 0.9740
1830.434792 0.9750 0.9800 0.9830 0.9850 0.9870
1834.782618 0.9900 0.9910 0.9910 0.9910 0.9910
1839.130444 0.9910 0.9910 0.9940 0.9940 0.9950
1843.478270 0.9950 0.9950 0.9940 0.9940 0.9940
1847.826096 0.9930 0.9930 0.9930 0.9930 0.9930
1852.173921 0.9930 0.9930 0.9910 0.9910 0.9910
1856.521747 0.9900 0.9890 0.9890 0.9890 0.9870
1860.869573 0.9860 0.9830 0.9830 0.9820 0.9790
1865.217399 0.9760 0.9750 0.9740 0.9740 0.9720
1869.565225 0.9700 0.9600 0.9520 0.9420 0.9340
1873.913051 0.9320 0.9220 0.9110 0.8991 0.8841
1878.260876 0.8700 0.8700 0.8750 0.8800 0.8940
1882.608702 0.9110 0.9269 0.9330 0.9439 0.9520
1886.956528 0.9520 0.9520 0.9520 0.9520 0.9490
1891.304354 0.9450 0.9380 0.9290 0.9190 0.9100
1895.652180 0.9020 0.9020 0.9060 0.9110 0.9150
1900.000006 0.9290 0.9410 0.9530 0.9640 0.9740
1904.347831 0.9750 0.9780 0.9800 0.9820 0.9830
1908.695657 0.9850 0.9860 0.9860 0.9860 0.9860
1913.043483 0.9870 0.9870 0.9870 0.9870 0.9900
1917.391309 0.9910 0.9910 0.9930 0.9930 0.9930
1921.739135 0.9910 0.9910 0.9900 0.9890 0.9870
1926.086961 0.9860 0.9850 0.9830 0.9800 0.9790
1930.434787 0.9760 0.9750 0.9740 0.9740 0.9720
1934.782612 0.9710 0.9680 0.9640 0.9600 0.9570
1939.130438 0.9550 0.9530 0.9380 0.9270 0.9100
1943.478264 0.9030 0.8950 0.8791 0.8641 0.8530
1947.826090 0.8530 0.8540 0.8680 0.8700 0.8870
1952.173916 0.9059 0.9210 0.9320 0.9410 0.9450
1956.521742 0.9520 0.9570 0.9790 0.9850 0.9850
1960.869567 0.9551 0.9361 0.9290 0.9230 0.9140
1965.217393 0.9080 0.9070 0.9080 0.9130 0.9150
1969.565219 0.9220 0.9300 0.9380 0.9450 0.9510
1973.913045 0.9520 0.9530 0.9560 0.9590 0.9590
1978.260871 0.9570 0.9560 0.9550 0.9530 0.9530
1982.608697 0.9520 0.9520 0.9480 0.9450 0.9440
1986.956522 0.9410 0.9400 0.9370 0.9370 0.9370
1991.304348 0.9380 0.9450 0.9490 0.9520 0.9530
1995.652174 0.9510 0.9440 0.9410 0.9410 0.9510
2000.000000 0.9600 0.9650 0.9700 0.9745 0.9790
2004.347826 0.9845 0.9900 0.9915 0.9930 0.9930
2008.695652 0.9930 0.9930 0.9930 0.9930 0.9930
2013.043478 0.9920 0.9910 0.9910 0.9910 0.9910
2017.391303 0.9910 0.9900 0.9890 0.9890 0.9890
2021.739129 0.9920 0.9950 0.9950 0.9950 0.9960
2026.086955 0.9970 0.9975 0.9980 0.9990 1.0000
2030.434781 1.0000 1.0000 1.0000 1.0000 0.9990
2034.782607 0.9980 0.9990 1.0000 1.0005 1.0010
2039.130433 1.0015 1.0020 1.0030 1.0040 1.0040
2043.478258 1.0040 1.0040 1.0040 1.0040 1.0040
2047.826084 1.0040 1.0040 1.0040 1.0040 1.0030
2052.173910 1.0020 1.0015 1.0010 1.0010 1.0010
2056.521736 1.0010 1.0010 1.0010 1.0010 1.0025
2060.869562 1.0040 1.0040 1.0040 1.0040 1.0040
2065.217388 1.0045 1.0050 1.0055 1.0060 1.0060
2069.565213 1.0060 1.0060 1.0060 1.0070 1.0080
2073.913039 1.0080 1.0080 1.0085 1.0090 1.0090
2078.260865 1.0090 1.0090 1.0090 1.0085 1.0080
2082.608691 1.0080 1.0080 1.0080 1.0080 1.0080
2086.956517 1.0080 1.0070 1.0060 1.0060 1.0060
2091.304343 1.0060 1.0060 1.0060 1.0060 1.0060
2095.652169 1.0060 1.0060 1.0060 1.0060 1.0060
2099.999994 1.0055 1.0050 1.0050 1.0050 1.0045
2104.347820 1.0040 1.0040 1.0040 1.0030 1.0020
2108.695646 1.0020 1.0020 1.0020 1.0020 1.0015
2113.043472 1.0010 1.0010 1.0010 1.0010 1.0010
2117.391298 1.0015 1.0020 1.0030 1.0040 1.0045
2121.739124 1.0050 1.0055 1.0060 1.0060 1.0060
2126.086949 1.0060 1.0060 1.0055 1.0050 1.0050
2130.434775 1.0050 1.0050 1.0050 1.0050 1.0050
2134.782601 1.0050 1.0050 1.0050 1.0050 1.0050
2139.130427 1.0050 1.0050 1.0050 1.0050 1.0050
2143.478253 1.0050 1.0050 1.0050 1.0050 1.0055
2147.826079 1.0060 1.0060 1.0060 1.0070 1.0080
2152.173904 1.0080 1.0080 1.0080 1.0080 1.0080
2156.521730 1.0080 1.0080 1.0080 1.0080 1.0080
2160.869556 1.0080 1.0080 1.0080 1.0080 1.0080
2165.217382 1.0080 1.0070 1.0060 1.0060 1.0060
2169.565208 1.0060 1.0060 1.0055 1.0050 1.0050
2173.913034 1.0050 1.0050 1.0050 1.0050 1.0050
2178.260860 1.0055 1.0060 1.0070 1.0080 1.0080
2182.608685 1.0080 1.0080 1.0080 1.0080 1.0080
2186.956511 1.0080 1.0080 1.0080 1.0080 1.0070
2191.304337 1.0060 1.0060 1.0060 1.0060 1.0060
2195.652163 1.0060 1.0060 1.0055 1.0050 1.0050
2199.999989 1.0050 1.0050 1.0050 1.0050 1.0050
2204.347815 1.0055 1.0060 1.0060 1.0060 1.0060
2208.695640 1.0060 1.0055 1.0050 1.0050 1.0050
2213.043466 1.0045 1.0040 1.0040 1.0040 1.0040
2217.391292 1.0040 1.0040 1.0040 1.0025 1.0010
2221.739118 1.0010 1.0010 1.0005 1.0000 1.0005
2226.086944 1.0010 1.0010 1.0010 1.0010 1.0010
2230.434770 1.0005 1.0000 1.0000 1.0000 1.0000
2234.782596 1.0000 1.0000 1.0000 0.9990 0.9980
2239.130421 0.9980 0.9980 0.9980 0.9980 0.9955
2243.478247 0.9930 0.9915 0.9900 0.9895 0.9890
2247.826073 0.9880 0.9870 0.9870 0.9870 0.9880
2252.173899 0.9890 0.9900 0.9910 0.9954 0.9999
2256.521725 1.0000 1.0000 0.9990 0.9980 0.9965
2260.869551 0.9950 0.9930 0.9910 0.9900 0.9890
2265.217376 0.9875 0.9860 0.9855 0.9850 0.9850
2269.565202 0.9850 0.9850 0.9850 0.9825 0.9800
2273.913028 0.9775 0.9750 0.9750 0.9750 0.9755
2278.260854 0.9760 0.9760 0.9760 0.9770 0.9780
2282.608680 0.9785 0.9790 0.9795 0.9800 0.9800
2286.956506 0.9800 0.9800 0.9800 0.9800 0.9800
2291.304331 0.9800 0.9800 0.9810 0.9820 0.9820
2295.652157 0.9820 0.9820 0.9820 0.9825 0.9830
2299.999983 0.9840 0.9850 0.9855 0.9860 0.9895
2304.347809 0.9930 0.9940 0.9950 0.9960 0.9970
2308.695635 0.9975 0.9980 0.9980 0.9980 0.9965
2313.043461 0.9950 0.9945 0.9940 0.9935 0.9930
2317.391287 0.9920 0.9910 0.9910 0.9910 0.9905
2321.739112 0.9900 0.9905 0.9910 0.9930 0.9950
2326.086938 0.9960 0.9970 0.9970 0.9970 0.9975
2330.434764 0.9980 0.9980 0.9980 0.9990 1.0000
2334.782590 1.0000 1.0000 0.9975 0.9950 0.9930
2339.130416 0.9910 0.9910 0.9910 0.9954 0.9999
2343.478242 0.9990 0.9980 0.9965 0.9950 0.9950
2347.826067 0.9950 0.9930 0.9910 0.9910 0.9910
2352.173893 0.9930 0.9950 0.9965 0.9980 0.9980
2356.521719 0.9980 0.9980 0.9980 0.9990 1.0000
2360.869545 1.0000 1.0000 1.0000 1.0000 0.9990
2365.217371 0.9980 0.9980 0.9980 0.9980 0.9980
2369.565197 0.9980 0.9980 0.9980 0.9980 0.9980
2373.913022 0.9980 0.9980 0.9980 0.9980 0.9980
2378.260848 0.9980 0.9980 0.9980 0.9980 0.9980
2382.608674 0.9980 0.9990 1.0000 1.0000 1.0000
2386.956500 1.0000 1.0000 1.0000 1.0000 1.0000
2391.304326 1.0000 1.0000 1.0000 1.0000 1.0000
2395.652152 0.9990 0.9980 0.9980 0.9980 0.9980
2399.999978 0.9980 0.9980 0.9980 0.9980 0.9980
2404.347803 0.9980 0.9980 0.9980 0.9980 0.9980
2408.695629 0.9980 0.9980 0.9980 0.9980 0.9980
2413.043455 0.9980 0.9980 0.9980 0.9980 0.9980
2417.391281 0.9980 0.9980 0.9980 0.9980 0.9980
2421.739107 0.9980 0.9980 0.9980 0.9980 0.9980
2426.086933 0.9980 0.9975 0.9970 0.9970 0.9970
2430.434758 0.9970 0.9970 0.9970 0.9970 0.9970
2434.782584 0.9970 0.9970 0.9970 0.9970 0.9970
2439.130410 0.9970 0.9970 0.9960 0.9950 0.9950
2443.478236 0.9950 0.9950 0.9950 0.9950 0.9950
2447.826062 0.9945 0.9940 0.9940 0.9940 0.9940
2452.173888 0.9940 0.9940 0.9940 0.9935 0.9930
2456.521713 0.9930 0.9930 0.9930 0.9930 0.9920
2460.869539 0.9910 0.9910 0.9910 0.9905 0.9900
2465.217365 0.9900 0.9900 0.9900 0.9900 0.9895
2469.565191 0.9890 0.9890 0.9890 0.9895 0.9900
2473.913017 0.9900 0.9900 0.9905 0.9910 0.9910
2478.260843 0.9910 0.9920 0.9930 0.9935 0.9940
2482.608669 0.9940 0.9940 0.9940 0.9940 0.9940
2486.956494 0.9940 0.9940 0.9940 0.9940 0.9940
2491.304320 0.9940 0.9940 0.9935 0.9930 0.9920
2495.652146 0.9910 0.9905 0.9900 0.9900 0.9900
2499.999972 0.9895 0.9890 0.9890 0.9890 0.9880
2504.347798 0.9870 0.9870 0.9870 0.9865 0.9860
2508.695624 0.9860 0.9860 0.9860 0.9860 0.9860
2513.043449 0.9860 0.9860 0.9860 0.9865 0.9870
2517.391275 0.9870 0.9870 0.9870 0.9870 0.9870
2521.739101 0.9870 0.9865 0.9860 0.9855 0.9850
2526.086927 0.9835 0.9820 0.9810 0.9800 0.9790
2530.434753 0.9780 0.9765 0.9750 0.9750 0.9750
2534.782579 0.9730 0.9710 0.9705 0.9700 0.9690
2539.130404 0.9680 0.9655 0.9630 0.9590 0.9550
2543.478230 0.9535 0.9520 0.9505 0.9490 0.9470
2547.826056 0.9450 0.9415 0.9380 0.9350 0.9320
2552.173882 0.9285 0.9251 0.9211 0.9171 0.9125
2556.521708 0.9080 0.9010 0.8940 0.8761 0.8581
2560.869534 0.8446 0.8311 0.8285 0.8260 0.8196
2565.217360 0.8131 0.8071 0.8011 0.7921 0.7831
2569.565185 0.7618 0.7403 0.7194 0.6984 0.6494
2573.913011 0.6000 0.5740 0.5480 0.4548 0.3614
2578.260837 0.3013 0.2413 0.2082 0.1753 0.1572
2582.608663 0.1392 0.1286 0.1181 0.1111 0.1041
2586.956489 0.0966 0.0891 0.0683 0.0474 0.0331
2591.304315 0.0190 0.0135 0.0080 0.0070 0.0060
2595.652140 0.0070 0.0080 0.1173 0.2272 0.3049
2599.999966 0.3823 0.4458 0.5093 0.5614 0.6133
2604.347792 0.6682 0.7232 0.7712 0.8192 0.8309
2608.695618 0.8420 0.8605 0.8790 0.8910 0.9029
2613.043444 0.9070 0.9110 0.9145 0.9180 0.9200
2617.391270 0.9220 0.9225 0.9230 0.9265 0.9300
2621.739096 0.9349 0.9399 0.9434 0.9469 0.9490
2626.086921 0.9510 0.9515 0.9520 0.9535 0.9550
2630.434747 0.9575 0.9600 0.9620 0.9640 0.9660
2634.782573 0.9680 0.9690 0.9700 0.9720 0.9740
2639.130399 0.9745 0.9750 0.9750 0.9750 0.9765
2643.478225 0.9780 0.9780 0.9780 0.9785 0.9790
2647.826051 0.9795 0.9800 0.9800 0.9800 0.9810
2652.173876 0.9820 0.9820 0.9820 0.9820 0.9820
2656.521702 0.9820 0.9820 0.9820 0.9820 0.9820
2660.869528 0.9820 0.9825 0.9830 0.9830 0.9830
2665.217354 0.9830 0.9830 0.9830 0.9830 0.9825
2669.565180 0.9820 0.9810 0.9800 0.9790 0.9780
2673.913006 0.9780 0.9780 0.9785 0.9790 0.9805
2678.260831 0.9820 0.9820 0.9820 0.9825 0.9830
2682.608657 0.9845 0.9860 0.9860 0.9860 0.9865
2686.956483 0.9870 0.9870 0.9870 0.9870 0.9870
2691.304309 0.9880 0.9890 0.9890 0.9890 0.9890
2695.652135 0.9890 0.9890 0.9890 0.9890 0.9890
2699.999961 0.9890 0.9890 0.9895 0.9900 0.9895
2704.347787 0.9890 0.9890 0.9890 0.9890 0.9890
2708.695612 0.9890 0.9890 0.9890 0.9890 0.9880
2713.043438 0.9870 0.9870 0.9870 0.9870 0.9870
2717.391264 0.9865 0.9860 0.9860 0.9860 0.9855
2721.739090 0.9850 0.9850 0.9850 0.9850 0.9850
2726.086916 0.9840 0.9830 0.9830 0.9830 0.9810
2730.434742 0.9790 0.9785 0.9780 0.9770 0.9760
2734.782567 0.9760 0.9760 0.9760 0.9760 0.9755
2739.130393 0.9750 0.9745 0.9740 0.9740 0.9740
2743.478219 0.9725 0.9710 0.9705 0.9700 0.9685
2747.826045 0.9670 0.9665 0.9660 0.9665 0.9670
2752.173871 0.9685 0.9700 0.9710 0.9720 0.9735
2756.521697 0.9750 0.9765 0.9780 0.9790 0.9800
2760.869522 0.9810 0.9820 0.9825 0.9830 0.9830
2765.217348 0.9830 0.9830 0.9830 0.9830 0.9830
2769.565174 0.9830 0.9830 0.9830 0.9830 0.9830
2773.913000 0.9830 0.9830 0.9830 0.9825 0.9820
2778.260826 0.9810 0.9800 0.9800 0.9800 0.9790
2782.608652 0.9780 0.9780 0.9780 0.9780 0.9780
2786.956478 0.9785 0.9790 0.9805 0.9820 0.9825
2791.304303 0.9830 0.9850 0.9870 0.9880 0.9890
2795.652129 0.9895 0.9900 0.9900 0.9900 0.9900
2799.999955 0.9900 0.9905 0.9910 0.9910 0.9910
2804.347781 0.9910 0.9910 0.9910 0.9910 0.9910
2808.695607 0.9910 0.9910 0.9910 0.9920 0.9930
2813.043433 0.9930 0.9930 0.9920 0.9910 0.9910
2817.391258 0.9910 0.9910 0.9910 0.9910 0.9910
2821.739084 0.9910 0.9910 0.9920 0.9930 0.9930
2826.086910 0.9930 0.9930 0.9930 0.9920 0.9910
2830.434736 0.9910 0.9910 0.9905 0.9900 0.9895
2834.782562 0.9890 0.9880 0.9870 0.9870 0.9870
2839.130388 0.9865 0.9860 0.9860 0.9860 0.9855
2843.478213 0.9850 0.9850 0.9850 0.9850 0.9850
2847.826039 0.9850 0.9850 0.9850 0.9850 0.9850
2852.173865 0.9850 0.9850 0.9850 0.9840 0.9830
2856.521691 0.9830 0.9830 0.9825 0.9820 0.9810
2860.869517 0.9800 0.9795 0.9790 0.9785 0.9780
2865.217343 0.9780 0.9780 0.9780 0.9780 0.9770
2869.565169 0.9760 0.9760 0.9760 0.9770 0.9780
2873.912994 0.9780 0.9780 0.9780 0.9780 0.9780
2878.260820 0.9780 0.9770 0.9760 0.9760 0.9760
2882.608646 0.9760 0.9760 0.9775 0.9790 0.9795
2886.956472 0.9800 0.9800 0.9800 0.9800 0.9800
2891.304298 0.9790 0.9780 0.9770 0.9760 0.9760
2895.652124 0.9760 0.9760 0.9760 0.9760 0.9760
2899.999949 0.9775 0.9790 0.9795 0.9800 0.9800
2904.347775 0.9800 0.9800 0.9800 0.9795 0.9790
2908.695601 0.9790 0.9790 0.9790 0.9790 0.9785
2913.043427 0.9780 0.9770 0.9760 0.9755 0.9750
2917.391253 0.9750 0.9750 0.9745 0.9740 0.9725
2921.739079 0.9710 0.9685 0.9660 0.9630 0.9600
2926.086904 0.9600 0.9600 0.9605 0.9610 0.9665
2930.434730 0.9719 0.9735 0.9750 0.9750 0.9750
2934.782556 0.9755 0.9760 0.9760 0.9760 0.9760
2939.130382 0.9760 0.9760 0.9760 0.9755 0.9750
2943.478208 0.9750 0.9750 0.9750 0.9750 0.9750
2947.826034 0.9750 0.9750 0.9750 0.9750 0.9750
2952.173860 0.9745 0.9740 0.9725 0.9710 0.9705
2956.521685 0.9700 0.9700 0.9700 0.9690 0.9680
2960.869511 0.9675 0.9670 0.9665 0.9660 0.9645
2965.217337 0.9630 0.9615 0.9600 0.9595 0.9590
2969.565163 0.9600 0.9610 0.9620 0.9630 0.9635
2973.912989 0.9640 0.9640 0.9640 0.9640 0.9640
2978.260815 0.9635 0.9630 0.9620 0.9610 0.9610
2982.608640 0.9610 0.9605 0.9600 0.9600 0.9600
2986.956466 0.9595 0.9590 0.9580 0.9570 0.9560
2991.304292 0.9550 0.9520 0.9490 0.9480 0.9470
2995.652118 0.9470 0.9470 0.9460 0.9450 0.9435
2999.999944 0.9420 0.9400 0.9380 0.9360 0.9340
3004.347770 0.9320 0.9300 0.9285 0.9270 0.9245
3008.695596 0.9220 0.9175 0.9130 0.9080 0.9030
3013.043421 0.8931 0.8831 0.8726 0.8621 0.8466
3017.391247 0.8312 0.8107 0.7902 0.7658 0.7413
3021.739073 0.7070 0.6725 0.6720 0.6720 0.7126
3026.086899 0.7540 0.7645 0.7750 0.7745 0.7740
3030.434725 0.7591 0.7441 0.7256 0.7071 0.6951
3034.782551 0.6831 0.6830 0.6830 0.7111 0.7396
3039.130376 0.7439 0.7479 0.7687 0.7896 0.7900
3043.478202 0.7900 0.7860 0.7820 0.7805 0.7790
3047.826028 0.7750 0.7710 0.7606 0.7501 0.7391
3052.173854 0.7281 0.7112 0.6942 0.6678 0.6414
3056.521680 0.6287 0.6162 0.6160 0.6160 0.6215
3060.869506 0.6270 0.6270 0.6270 0.6270 0.6270
3065.217331 0.6265 0.6260 0.6260 0.6260 0.6374
3069.565157 0.6489 0.6628 0.6768 0.6859 0.6949
3073.912983 0.6935 0.6920 0.6910 0.6900 0.6870
3078.260809 0.6840 0.6630 0.6420 0.6211 0.6001
3082.608635 0.5736 0.5472 0.5470 0.5470 0.5539
3086.956461 0.5609 0.6050 0.6495 0.6633 0.6768
3091.304287 0.6844 0.6919 0.7461 0.8010 0.8020
3095.652112 0.8020 0.8015 0.8010 0.7990 0.7970
3099.999938 0.7970 0.7970 0.8114 0.8259 0.8399
3104.347764 0.8539 0.8634 0.8729 0.8873 0.9018
3108.695590 0.9059 0.9099 0.9134 0.9169 0.9200
3113.043416 0.9230 0.9285 0.9340 0.9395 0.9450
3117.391242 0.9485 0.9520 0.9525 0.9530 0.9560
3121.739067 0.9590 0.9600 0.9610 0.9625 0.9640
3126.086893 0.9650 0.9660 0.9670 0.9680 0.9690
3130.434719 0.9700 0.9700 0.9700 0.9700 0.9700
3134.782545 0.9700 0.9700 0.9700 0.9700 0.9700
3139.130371 0.9700 0.9690 0.9680 0.9675 0.9670
3143.478197 0.9665 0.9660 0.9630 0.9601 0.9580
3147.826022 0.9560 0.9555 0.9550 0.9540 0.9530
3152.173848 0.9540 0.9550 0.9605 0.9660 0.9724
3156.521674 0.9789 0.9790 0.9790 0.9790 0.9790
3160.869500 0.9785 0.9780 0.9780 0.9780 0.9780
3165.217326 0.9780 0.9780 0.9780 0.9780 0.9780
3169.565152 0.9780 0.9780 0.9780 0.9780 0.9780
3173.912978 0.9780 0.9780 0.9780 0.9780 0.9780
3178.260803 0.9780 0.9780 0.9785 0.9790 0.9790
3182.608629 0.9790 0.9795 0.9800 0.9810 0.9820
3186.956455 0.9820 0.9820 0.9825 0.9830 0.9840
3191.304281 0.9850 0.9855 0.9860 0.9865 0.9870
3195.652107 0.9870 0.9870 0.9870 0.9870 0.9870
3199.999933 0.9870 0.9880 0.9890 0.9890 0.9890
3204.347758 0.9890 0.9890 0.9890 0.9890 0.9890
3208.695584 0.9890 0.9890 0.9890 0.9895 0.9900
3213.043410 0.9905 0.9910 0.9910 0.9910 0.9910
3217.391236 0.9910 0.9910 0.9910 0.9910 0.9910
3221.739062 0.9920 0.9930 0.9935 0.9940 0.9940
3226.086888 0.9940 0.9940 0.9940 0.9940 0.9940
3230.434713 0.9945 0.9950 0.9950 0.9950 0.9950
3234.782539 0.9950 0.9950 0.9950 0.9945 0.9940
3239.130365 0.9940 0.9940 0.9940 0.9940 0.9940
3243.478191 0.9940 0.9940 0.9940 0.9940 0.9940
3247.826017 0.9940 0.9940 0.9940 0.9940 0.9940
3252.173843 0.9940 0.9940 0.9940 0.9940 0.9940
3256.521669 0.9945 0.9950 0.9950 0.9950 0.9950
3260.869494 0.9950 0.9950 0.9950 0.9945 0.9940
3265.217320 0.9940 0.9940 0.9940 0.9940 0.9940
3269.565146 0.9940 0.9940 0.9940 0.9935 0.9930
3273.912972 0.9930 0.9930 0.9930 0.9930 0.9920
3278.260798 0.9910 0.9905 0.9900 0.9895 0.9890
3282.608624 0.9880 0.9870 0.9865 0.9860 0.9845
3286.956449 0.9830 0.9830 0.9830 0.9815 0.9800
3291.304275 0.9790 0.9780 0.9770 0.9760 0.9755
3295.652101 0.9750 0.9730 0.9710 0.9705 0.9700
3299.999927 0.9670 0.9640 0.9601 0.9561 0.9540
3304.347753 0.9520 0.9515 0.9510 0.9500 0.9490
3308.695579 0.9490 0.9490 0.9485 0.9480 0.9450
3313.043404 0.9420 0.9420 0.9420 0.9430 0.9440
3317.391230 0.9445 0.9450 0.9460 0.9470 0.9475
3321.739056 0.9480 0.9515 0.9550 0.9570 0.9590
3326.086882 0.9625 0.9660 0.9680 0.9700 0.9740
3330.434708 0.9780 0.9800 0.9820 0.9835 0.9850
3334.782534 0.9860 0.9870 0.9870 0.9870 0.9880
3339.130360 0.9890 0.9890 0.9890 0.9895 0.9900
3343.478185 0.9900 0.9900 0.9905 0.9910 0.9920
3347.826011 0.9930 0.9930 0.9930 0.9930 0.9930
3352.173837 0.9930 0.9930 0.9930 0.9930 0.9930
3356.521663 0.9930 0.9930 0.9930 0.9930 0.9930
3360.869489 0.9935 0.9940 0.9940 0.9940 0.9935
3365.217315 0.9930 0.9930 0.9930 0.9930 0.9930
3369.565140 0.9930 0.9930 0.9930 0.9930 0.9930
3373.912966 0.9930 0.9930 0.9930 0.9930 0.9930
3378.260792 0.9930 0.9930 0.9920 0.9910 0.9910
3382.608618 0.9910 0.9905 0.9900 0.9900 0.9900
3386.956444 0.9905 0.9910 0.9910 0.9910 0.9920
3391.304270 0.9930 0.9930 0.9930 0.9930 0.9930
3395.652096 0.9930 0.9930 0.9930 0.9930 0.9930
3399.999921 0.9930 0.9920 0.9910 0.9910 0.9910
3404.347747 0.9910 0.9910 0.9910 0.9910 0.9910
3408.695573 0.9910 0.9910 0.9910 0.9910 0.9910
3413.043399 0.9910 0.9910 0.9920 0.9930 0.9930
3417.391225 0.9930 0.9930 0.9930 0.9930 0.9930
3421.739051 0.9930 0.9930 0.9930 0.9930 0.9930
3426.086876 0.9930 0.9935 0.9940 0.9940 0.9940
3430.434702 0.9940 0.9940 0.9940 0.9940 0.9940
3434.782528 0.9940 0.9940 0.9940 0.9940 0.9940
3439.130354 0.9940 0.9940 0.9955 0.9970 0.9970
3443.478180 0.9970 0.9970 0.9970 0.9970 0.9970
3447.826006 0.9985 1.0000 1.0000 1.0000 1.0000
3452.173831 1.0000 0.9990 0.9980 0.9980 0.9980
3456.521657 0.9980 0.9980 0.9980 0.9980 0.9980
3460.869483 0.9980 0.9980 0.9980 0.9980 0.9980
3465.217309 0.9980 0.9980 0.9980 0.9980 0.9980
3469.565135 0.9980 0.9990 1.0000 1.0000 1.0000
3473.912961 1.0000 1.0000 1.0000 1.0000 1.0000
3478.260787 1.0000 1.0000 1.0000 1.0005 1.0010
3482.608612 1.0010 1.0010 1.0010 1.0010 1.0010
3486.956438 1.0010 1.0010 1.0010 1.0015 1.0020
3491.304264 1.0020 1.0020 1.0015 1.0010 1.0010
3495.652090 1.0010 1.0010 1.0010 1.0015 1.0020
3499.999916 1.0030 1.0040 1.0030 1.0020 1.0020
3504.347742 1.0020 1.0020 1.0020 1.0020 1.0020
3508.695567 1.0020 1.0020 1.0020 1.0020 1.0020
3513.043393 1.0020 1.0020 1.0020 1.0020 1.0020
3517.391219 1.0020 1.0020 1.0030 1.0040 1.0040
3521.739045 1.0040 1.0030 1.0020 1.0020 1.0020
3526.086871 1.0020 1.0020 1.0020 1.0020 1.0020
3530.434697 1.0020 1.0020 1.0020 1.0020 1.0020
3534.782522 1.0020 1.0020 1.0020 1.0020 1.0020
3539.130348 1.0020 1.0020 1.0020 1.0020 1.0020
3543.478174 1.0020 1.0020 1.0020 1.0020 1.0020
3547.826000 1.0020 1.0020 1.0020 1.0030 1.0040
3552.173826 1.0040 1.0040 1.0040 1.0040 1.0040
3556.521652 1.0040 1.0040 1.0040 1.0045 1.0050
3560.869478 1.0050 1.0050 1.0045 1.0040 1.0040
3565.217303 1.0040 1.0030 1.0020 1.0020 1.0020
3569.565129 1.0030 1.0040 1.0040 1.0040 1.0025
3573.912955 1.0010 1.0010 1.0010 1.0010 1.0010
3578.260781 1.0010 1.0010 1.0005 1.0000 1.0000
3582.608607 1.0000 1.0000 1.0000 1.0005 1.0010
3586.956433 1.0010 1.0010 1.0010 1.0010 1.0005
3591.304258 1.0000 1.0000 1.0000 1.0000 1.0000
3595.652084 1.0000 1.0000 1.0005 1.0010 1.0005
3599.999910 1.0000 1.0000 1.0000 1.0000 1.0000
3604.347736 1.0000 1.0000 1.0000 1.0000 1.0000
3608.695562 1.0000 1.0000 1.0000 1.0000 1.0000
3613.043388 1.0005 1.0010 1.0010 1.0010 1.0010
3617.391213 1.0010 1.0010 1.0010 1.0010 1.0010
3621.739039 1.0010 1.0010 1.0005 1.0000 1.0000
3626.086865 1.0000 1.0000 1.0000 1.0000 1.0000
3630.434691 1.0000 1.0000 1.0000 1.0000 1.0000
3634.782517 1.0000 1.0000 1.0000 1.0000 1.0000
3639.130343 1.0000 1.0000 1.0000 1.0000 1.0000
3643.478169 1.0000 1.0000 1.0000 0.9990 0.9980
3647.825994 0.9980 0.9980 0.9980 0.9980 0.9965
3652.173820 0.9950 0.9940 0.9930 0.9920 0.9910
3656.521646 0.9910 0.9910 0.9920 0.9930 0.9965
3660.869472 1.0000 1.0005 1.0010 1.0015 1.0020
3665.217298 1.0020 1.0020 1.0020 1.0020 1.0030
3669.565124 1.0040 1.0040 1.0040 1.0030 1.0020
3673.912949 1.0020 1.0020 1.0020 1.0020 1.0020
3678.260775 1.0020 1.0020 1.0020 1.0020 1.0020
3682.608601 1.0020 1.0020 1.0020 1.0020 1.0020
3686.956427 1.0020 1.0020 1.0020 1.0015 1.0010
3691.304253 1.0005 1.0000 1.0000 1.0000 1.0000
3695.652079 1.0000 1.0000 1.0000 1.0000 1.0000
3699.999904 0.9990 0.9980 0.9975 0.9970 0.9970
3704.347730 0.9970 0.9970 0.9970 0.9970 0.9970
3708.695556 0.9975 0.9980 0.9990 1.0000 1.0000
3713.043382 1.0000 1.0000 1.0000 1.0000 1.0000
3717.391208 1.0000 1.0000 1.0005 1.0010 1.0025
3721.739034 1.0040 1.0040 1.0040 1.0045 1.0050
3726.086860 1.0050 1.0050 1.0050 1.0050 1.0050
3730.434685 1.0050 1.0050 1.0050 1.0050 1.0050
3734.782511 1.0050 1.0050 1.0050 1.0050 1.0050
3739.130337 1.0050 1.0045 1.0040 1.0030 1.0020
3743.478163 1.0015 1.0010 1.0010 1.0010 1.0010
3747.825989 1.0010 1.0010 1.0010 1.0005 1.0000
3752.173815 1.0000 1.0000 1.0005 1.0010 1.0010
3756.521640 1.0010 1.0010 1.0010 1.0010 1.0010
3760.869466 1.0010 1.0010 1.0010 1.0010 1.0010
3765.217292 1.0010 1.0010 1.0010 1.0005 1.0000
3769.565118 1.0000 1.0000 1.0000 1.0000 1.0000
3773.912944 1.0000 1.0000 1.0000 1.0000 1.0000
3778.260770 1.0005 1.0010 1.0010 1.0010 1.0010
3782.608596 1.0010 1.0010 1.0010 1.0015 1.0020
3786.956421 1.0020 1.0020 1.0030 1.0040 1.0040
3791.304247 1.0040 1.0040 1.0040 1.0030 1.0020
3795.652073 1.0020 1.0020
##END=
