##TITLE=m-TOLUIC ACID, 4-(TRIFLUOROACETAMIDO)-
##JCAMP-DX=4.24
##DATA TYPE=INFRARED SPECTRUM
##CLASS=COBLENTZ III
##ORIGIN=SOUTHERN RESEARCH INSTITUTE
##OWNER=COBLENTZ SOCIETY
Collection (C) 2018 copyright by the U.S. Secretary of Commerce
on behalf of the United States of America. All rights reserved.
##DATE=1967/01/19
##NAMES=3-methyl-4-[(trifluoroacetyl)amino]benzoic acid
##MOLFORM=C10 H8 F3 N O3
##SOURCE REFERENCE=COBLENTZ NO. 10447
##$NIST ID=B6010447
##$NIST SOURCE=COBLENTZ
##$NIST IMAGE=cob10447
##SPECTROMETER/DATA SYSTEM=PERKIN-ELMER 521 (GRATING)
##INSTRUMENT PARAMETERS=GRATING CHANGES AT 2000, 620, FILTERS AT 3130, 2475, 2000, 1150, 700, 410 CM^-^1
##STATE=SOLID (1 mg / 650 mg KBr DISC)
##SAMPLING PROCEDURE=TRANSMISSION
##RESOLUTION=4
##DATA PROCESSING=DIGITIZED BY NIST FROM HARD COPY
##XUNITS=1/CM
##YUNITS=TRANSMITTANCE
##XFACTOR=1.000000
##YFACTOR=1
##DELTAX=001.603421
##FIRSTX=236.451
##LASTX=3805.67
##FIRSTY=0.256
##MAXX=3805.67
##MINX=236.451
##MAXY=0.852
##MINY=0.121
##NPOINTS=2227
##XYDATA=(X++(Y..Y))
236.451000 0.2560 0.2700 0.2830 0.2850 0.2940
244.471706 0.3040 0.3130 0.3230 0.3320 0.3420
252.485000 0.3510 0.3640 0.3820 0.3960 0.4090
260.505706 0.4200 0.4290 0.4370 0.4440 0.4490
268.520000 0.4520 0.4580 0.4660 0.4730 0.4800
276.540706 0.4880 0.4960 0.5050 0.5130 0.5220
284.554000 0.5310 0.5400 0.5560 0.5640 0.5720
292.574706 0.5790 0.5860 0.5930 0.5990 0.6040
300.588000 0.6090 0.6120 0.6140 0.6160 0.6170
308.608706 0.6180 0.6190 0.6200 0.6200 0.6210
316.622000 0.6230 0.6250 0.6270 0.6300 0.6300
324.642706 0.6380 0.6440 0.6510 0.6570 0.6630
332.656000 0.6690 0.6730 0.6790 0.6840 0.6880
340.676706 0.6930 0.6970 0.7020 0.7060 0.7100
348.691000 0.7150 0.7190 0.7240 0.7290 0.7330
356.711706 0.7380 0.7420 0.7440 0.7480 0.7490
364.725000 0.7510 0.7530 0.7540 0.7550 0.7550
372.745706 0.7560 0.7560 0.7560 0.7570 0.7570
380.759000 0.7550 0.7540 0.7520 0.7500 0.7440
388.779706 0.7410 0.7400 0.7410 0.7450 0.7490
396.793000 0.7510 0.7580 0.7670 0.7750 0.7780
404.813706 0.7790 0.7780 0.7740 0.7700 0.7690
412.827000 0.7650 0.7570 0.7490 0.7480 0.7490
420.847706 0.7640 0.7650 0.7630 0.7610 0.7550
428.862000 0.7510 0.7290 0.7120 0.6840 0.6600
436.882706 0.6600 0.6790 0.6970 0.7070 0.7090
444.896000 0.7110 0.7150 0.7190 0.7250 0.7380
452.916706 0.7510 0.7630 0.7730 0.7810 0.7870
460.930000 0.7930 0.7970 0.8000 0.8030 0.8040
468.950706 0.8060 0.8070 0.8080 0.8080 0.8080
476.964000 0.8090 0.8090 0.8090 0.8090 0.8090
484.984706 0.8080 0.8080 0.8080 0.8070 0.8060
492.998000 0.8050 0.8030 0.8000 0.7960 0.7920
501.018706 0.7840 0.7750 0.7630 0.7490 0.7310
509.033000 0.7240 0.7240 0.7250 0.7320 0.7410
517.053706 0.7500 0.7620 0.7640 0.7640 0.7630
525.067000 0.7620 0.7610 0.7570 0.7510 0.7510
533.087706 0.7630 0.7680 0.7740 0.7750 0.7750
541.101000 0.7680 0.7590 0.7490 0.7480 0.7460
549.121706 0.7450 0.7430 0.7360 0.7280 0.7140
557.135000 0.7010 0.6760 0.6740 0.6760 0.6950
565.155706 0.7150 0.7340 0.7510 0.7650 0.7690
573.169000 0.7800 0.7820 0.7850 0.7930 0.7970
581.189706 0.7980 0.8000 0.8020 0.8030 0.8040
589.204000 0.8050 0.8050 0.8050 0.8050 0.8040
597.224706 0.8040 0.8040 0.8040 0.8040 0.8030
605.238000 0.8030 0.8020 0.8000 0.8000 0.7980
613.258706 0.7970 0.7960 0.7950 0.7930 0.7920
621.272000 0.7900 0.7880 0.7850 0.7830 0.7800
629.292706 0.7770 0.7730 0.7690 0.7630 0.7510
637.306000 0.7490 0.7490 0.7520 0.7560 0.7670
645.326706 0.7700 0.7690 0.7590 0.7550 0.7520
653.340000 0.7510 0.7480 0.7470 0.7250 0.7240
661.360706 0.7240 0.7210 0.7150 0.7100 0.6990
669.375000 0.6880 0.6810 0.6750 0.6710 0.6660
677.395706 0.6620 0.6610 0.6620 0.6690 0.6770
685.409000 0.6830 0.6890 0.6960 0.7090 0.7270
693.429706 0.7330 0.7330 0.7210 0.7060 0.6910
701.443000 0.6770 0.6770 0.7260 0.7500 0.7820
709.463706 0.7830 0.7830 0.7810 0.7580 0.7270
717.477000 0.6240 0.5220 0.3940 0.3940 0.7030
725.497706 0.7480 0.7810 0.7960 0.7960 0.8000
733.511000 0.8130 0.8240 0.8240 0.8120 0.8030
741.531706 0.8010 0.8010 0.7810 0.7580 0.7140
749.546000 0.6800 0.6420 0.6050 0.5860 0.5640
757.566706 0.5640 0.6090 0.6100 0.6120 0.6200
765.580000 0.6580 0.6870 0.7150 0.7420 0.7670
773.600706 0.7890 0.8080 0.8220 0.8300 0.8300
781.614000 0.8310 0.8310 0.8310 0.8300 0.8290
789.634706 0.8270 0.8250 0.8120 0.8000 0.7890
797.648000 0.7790 0.7790 0.7930 0.8080 0.8180
805.668706 0.8260 0.8320 0.8330 0.8340 0.8330
813.682000 0.8330 0.8320 0.8310 0.8300 0.8290
821.702706 0.8260 0.8170 0.8120 0.8060 0.8000
829.717000 0.7800 0.7550 0.7410 0.7250 0.7090
837.737706 0.6760 0.6750 0.6760 0.6920 0.6960
845.751000 0.7650 0.7970 0.8180 0.8190 0.8190
853.771706 0.8170 0.8160 0.8140 0.8110 0.8080
861.785000 0.8050 0.8030 0.8010 0.7990 0.7970
869.805706 0.7950 0.7930 0.7910 0.7890 0.7850
877.819000 0.7840 0.7780 0.7700 0.7590 0.7480
885.839706 0.7370 0.7280 0.7030 0.6870 0.6660
893.854000 0.6590 0.6250 0.6250 0.6780 0.6970
901.874706 0.7120 0.7140 0.7110 0.6800 0.6500
909.888000 0.6160 0.5830 0.5510 0.5490 0.5330
917.908706 0.5180 0.5530 0.6040 0.6270 0.6390
925.922000 0.6580 0.6620 0.6760 0.6760 0.6800
933.942706 0.6820 0.6860 0.6870 0.7040 0.7080
941.956000 0.7170 0.7300 0.7440 0.7560 0.7650
949.976706 0.7670 0.7740 0.7790 0.7800 0.7810
957.990000 0.7810 0.7800 0.7780 0.7770 0.7780
966.010706 0.7790 0.7820 0.7890 0.7930 0.7960
974.025000 0.8000 0.8000 0.8000 0.8000 0.8000
982.045706 0.8000 0.8000 0.7980 0.7960 0.7950
990.059000 0.7930 0.7930 0.7900 0.7890 0.7890
998.079706 0.7890 0.7890 0.7890 0.7900 0.7900
1006.093000 0.7900 0.7900 0.7900 0.7890 0.7890
1014.113706 0.7890 0.7890 0.7860 0.7850 0.7840
1022.127000 0.7820 0.7810 0.7770 0.7740 0.7690
1030.147706 0.7600 0.7590 0.7590 0.7610 0.7640
1038.161000 0.7680 0.7740 0.7800 0.7820 0.7830
1046.181706 0.7830 0.7820 0.7820 0.7820 0.7810
1054.196000 0.7800 0.7800 0.7790 0.7780 0.7780
1062.216706 0.7780 0.7770 0.7750 0.7740 0.7740
1070.230000 0.7720 0.7700 0.7700 0.7680 0.7660
1078.250706 0.7640 0.7630 0.7570 0.7500 0.7450
1086.264000 0.7410 0.7370 0.7320 0.7240 0.7110
1094.284706 0.6930 0.6910 0.6910 0.6890 0.6880
1102.298000 0.6870 0.6860 0.6850 0.6750 0.6610
1110.318706 0.6460 0.6320 0.6170 0.6020 0.5860
1118.332000 0.5710 0.5530 0.5450 0.5360 0.5170
1126.352706 0.5150 0.5150 0.5070 0.4970 0.4790
1134.367000 0.4620 0.4430 0.4220 0.4010 0.3850
1142.387706 0.3590 0.3200 0.3080 0.2850 0.2550
1150.401000 0.2320 0.2060 0.1770 0.1510 0.1230
1158.421706 0.1210 0.1230 0.1410 0.1470 0.1580
1166.435000 0.1590 0.1590 0.1580 0.1540 0.1500
1174.455706 0.1460 0.1450 0.1440 0.1450 0.1480
1182.469000 0.1520 0.1540 0.1610 0.1690 0.1770
1190.489706 0.1840 0.1850 0.1880 0.1880 0.1940
1198.503000 0.2180 0.2230 0.2810 0.3300 0.3730
1206.523706 0.4110 0.4430 0.4720 0.4970 0.5190
1214.538000 0.5590 0.5770 0.5960 0.6150 0.6270
1222.558706 0.6350 0.6360 0.6350 0.6220 0.6160
1230.572000 0.5930 0.5710 0.5600 0.5480 0.5240
1238.592706 0.4970 0.4710 0.4440 0.4170 0.3980
1246.606000 0.3900 0.3900 0.4090 0.4290 0.4300
1254.626706 0.4490 0.4480 0.4060 0.3870 0.3360
1262.640000 0.3100 0.2740 0.2220 0.1450 0.1450
1270.660706 0.1810 0.2920 0.4080 0.4480 0.4480
1278.674000 0.4230 0.4130 0.4050 0.3960 0.3960
1286.694706 0.4060 0.4170 0.4270 0.4480 0.4480
1294.709000 0.4440 0.4350 0.4230 0.4130 0.3780
1302.729706 0.3540 0.3340 0.3340 0.3510 0.3930
1310.743000 0.4290 0.4620 0.4920 0.5170 0.5600
1318.763706 0.5770 0.5970 0.6060 0.6090 0.6150
1326.777000 0.6160 0.6150 0.6050 0.6010 0.5970
1334.797706 0.5960 0.5970 0.6100 0.6250 0.6390
1342.811000 0.6500 0.6610 0.6690 0.6770 0.6840
1350.831706 0.6890 0.6930 0.6960 0.7000 0.7010
1358.846000 0.7020 0.7010 0.7010 0.6980 0.6950
1366.866706 0.6910 0.6880 0.6850 0.6820 0.6800
1374.880000 0.6790 0.6800 0.6800 0.6840 0.6860
1382.900706 0.6870 0.6870 0.6810 0.6580 0.6320
1390.914000 0.6130 0.5920 0.5710 0.5490 0.5490
1398.934706 0.5710 0.5830 0.5990 0.5990 0.5980
1406.948000 0.5860 0.5720 0.5590 0.5450 0.5060
1414.968706 0.4810 0.4620 0.4340 0.4060 0.3770
1422.982000 0.3770 0.4090 0.4330 0.4500 0.4830
1431.002706 0.5140 0.5670 0.5820 0.5950 0.6080
1439.017000 0.6200 0.6300 0.6400 0.6500 0.6600
1447.037706 0.6690 0.6770 0.6860 0.6950 0.7030
1455.051000 0.7100 0.7190 0.7280 0.7360 0.7450
1463.071706 0.7500 0.7510 0.7510 0.7510 0.7500
1471.085000 0.7490 0.7480 0.7470 0.7430 0.7370
1479.105706 0.7300 0.7240 0.7180 0.7120 0.7020
1487.119000 0.6960 0.6960 0.6980 0.7010 0.7040
1495.139706 0.7060 0.7110 0.7120 0.7130 0.7120
1503.153000 0.7060 0.6970 0.6870 0.6760 0.6480
1511.173706 0.6280 0.6130 0.5980 0.5810 0.5560
1519.188000 0.5400 0.5220 0.4740 0.4070 0.3570
1527.208706 0.3350 0.3080 0.2810 0.2550 0.2550
1535.222000 0.2740 0.2940 0.3140 0.3310 0.3830
1543.242706 0.4610 0.5750 0.6160 0.6520 0.6830
1551.256000 0.7150 0.7170 0.7180 0.7540 0.7550
1559.276706 0.7550 0.7550 0.7550 0.7540 0.7530
1567.290000 0.7510 0.7450 0.7260 0.7030 0.6840
1575.310706 0.6650 0.6340 0.5870 0.5510 0.5150
1583.324000 0.4350 0.3900 0.3900 0.4110 0.4210
1591.344706 0.4520 0.4590 0.5620 0.6170 0.6170
1599.359000 0.6010 0.5770 0.5550 0.5480 0.5400
1607.379706 0.5640 0.6320 0.6690 0.7100 0.7310
1615.393000 0.7440 0.7540 0.7550 0.7550 0.7540
1623.413706 0.7520 0.7480 0.7430 0.7420 0.7370
1631.427000 0.7330 0.7290 0.7230 0.7180 0.7100
1639.447706 0.7000 0.6880 0.6720 0.6720 0.6650
1647.461000 0.6540 0.6390 0.6200 0.5970 0.5700
1655.481706 0.5560 0.5410 0.5090 0.4750 0.4390
1663.495000 0.4040 0.3670 0.3300 0.2930 0.2560
1671.515706 0.2210 0.1870 0.1600 0.1590 0.1580
1679.530000 0.1580 0.1580 0.1570 0.1570 0.1570
1687.550706 0.1550 0.1530 0.1500 0.1500 0.1500
1695.564000 0.1500 0.1480 0.1460 0.1430 0.1340
1703.584706 0.1250 0.1240 0.1240 0.1270 0.1420
1711.598000 0.1550 0.1690 0.1840 0.1980 0.2140
1719.618706 0.2310 0.2490 0.2690 0.3040 0.3340
1727.632000 0.3600 0.3830 0.4030 0.4210 0.4360
1735.652706 0.4500 0.4620 0.4740 0.4850 0.4970
1743.667000 0.5100 0.5230 0.5550 0.5790 0.6010
1751.687706 0.6200 0.6370 0.6510 0.6640 0.6740
1759.701000 0.6840 0.6910 0.6980 0.7030 0.7080
1767.721706 0.7120 0.7160 0.7200 0.7230 0.7260
1775.735000 0.7280 0.7300 0.7330 0.7380 0.7420
1783.755706 0.7450 0.7480 0.7490 0.7510 0.7510
1791.769000 0.7520 0.7530 0.7540 0.7540 0.7550
1799.789706 0.7550 0.7560 0.7580 0.7590 0.7630
1807.803000 0.7660 0.7690 0.7700 0.7710 0.7720
1815.823706 0.7730 0.7760 0.7760 0.7780 0.7800
1823.838000 0.7810 0.7840 0.7850 0.7850 0.7860
1831.858706 0.7870 0.7880 0.7890 0.7900 0.7910
1839.872000 0.7930 0.7930 0.7950 0.7960 0.7970
1847.892706 0.7980 0.7990 0.8000 0.8000 0.8000
1855.906000 0.8010 0.8030 0.8030 0.8040 0.8040
1863.926706 0.8050 0.8060 0.8070 0.8070 0.8070
1871.940000 0.8080 0.8080 0.8090 0.8090 0.8100
1879.960706 0.8100 0.8110 0.8120 0.8120 0.8130
1887.974000 0.8150 0.8170 0.8180 0.8190 0.8190
1895.994706 0.8190 0.8200 0.8200 0.8200 0.8200
1904.009000 0.8200 0.8190 0.8190 0.8190 0.8190
1912.029706 0.8190 0.8180 0.8180 0.8170 0.8170
1920.043000 0.8180 0.8190 0.8210 0.8260 0.8280
1928.063706 0.8290 0.8300 0.8300 0.8300 0.8300
1936.077000 0.8310 0.8310 0.8320 0.8320 0.8330
1944.097706 0.8330 0.8330 0.8340 0.8340 0.8340
1952.111000 0.8340 0.8340 0.8350 0.8350 0.8360
1960.131706 0.8360 0.8380 0.8380 0.8390 0.8400
1968.145000 0.8400 0.8410 0.8420 0.8420 0.8420
1976.165706 0.8420 0.8420 0.8430 0.8430 0.8430
1984.180000 0.8430 0.8430 0.8430 0.8430 0.8420
1992.200706 0.8420 0.8420 0.8420 0.8420 0.8410
2000.214000 0.8410 0.8410 0.8410 0.8410 0.8400
2008.234706 0.8400 0.8400 0.8400 0.8400 0.8400
2016.248000 0.8400 0.8400 0.8400 0.8400 0.8400
2024.268706 0.8400 0.8400 0.8400 0.8400 0.8400
2032.282000 0.8400 0.8400 0.8410 0.8410 0.8420
2040.302706 0.8420 0.8420 0.8430 0.8440 0.8440
2048.316000 0.8450 0.8450 0.8450 0.8460 0.8460
2056.336706 0.8470 0.8490 0.8490 0.8490 0.8490
2064.351000 0.8500 0.8500 0.8500 0.8500 0.8500
2072.371706 0.8500 0.8500 0.8500 0.8500 0.8500
2080.385000 0.8500 0.8490 0.8490 0.8490 0.8490
2088.405706 0.8490 0.8490 0.8490 0.8490 0.8490
2096.419000 0.8500 0.8500 0.8500 0.8500 0.8500
2104.439706 0.8500 0.8510 0.8510 0.8510 0.8510
2112.453000 0.8510 0.8510 0.8510 0.8510 0.8510
2120.473706 0.8500 0.8490 0.8490 0.8490 0.8490
2128.487000 0.8490 0.8490 0.8480 0.8480 0.8480
2136.507706 0.8470 0.8470 0.8460 0.8450 0.8450
2144.522000 0.8450 0.8440 0.8440 0.8430 0.8430
2152.542706 0.8420 0.8420 0.8420 0.8410 0.8410
2160.556000 0.8410 0.8410 0.8400 0.8400 0.8400
2168.576706 0.8390 0.8390 0.8380 0.8380 0.8380
2176.590000 0.8380 0.8380 0.8380 0.8380 0.8380
2184.610706 0.8380 0.8380 0.8380 0.8380 0.8380
2192.624000 0.8380 0.8380 0.8380 0.8380 0.8390
2200.644706 0.8390 0.8390 0.8390 0.8400 0.8390
2208.658000 0.8390 0.8380 0.8380 0.8380 0.8380
2216.678706 0.8380 0.8380 0.8380 0.8380 0.8380
2224.693000 0.8380 0.8380 0.8380 0.8380 0.8380
2232.713706 0.8370 0.8360 0.8360 0.8360 0.8360
2240.727000 0.8360 0.8360 0.8360 0.8360 0.8360
2248.747706 0.8350 0.8350 0.8350 0.8340 0.8340
2256.761000 0.8340 0.8340 0.8340 0.8330 0.8330
2264.781706 0.8330 0.8320 0.8320 0.8300 0.8300
2272.795000 0.8300 0.8300 0.8290 0.8290 0.8280
2280.815706 0.8280 0.8270 0.8270 0.8260 0.8250
2288.830000 0.8250 0.8240 0.8230 0.8230 0.8230
2296.850706 0.8230 0.8230 0.8230 0.8230 0.8220
2304.864000 0.8210 0.8200 0.8190 0.8180 0.8170
2312.884706 0.8170 0.8170 0.8170 0.8170 0.8170
2320.898000 0.8160 0.8160 0.8160 0.8150 0.8150
2328.918706 0.8150 0.8140 0.8130 0.8130 0.8120
2336.932000 0.8110 0.8080 0.8050 0.8030 0.8030
2344.952706 0.8030 0.8020 0.8020 0.8020 0.8010
2352.966000 0.8010 0.8010 0.8010 0.8010 0.8010
2360.986706 0.8000 0.8000 0.8000 0.8000 0.8000
2369.000000 0.7990 0.7990 0.7980 0.7980 0.7970
2377.020706 0.7960 0.7960 0.7960 0.7950 0.7940
2385.035000 0.7930 0.7920 0.7900 0.7890 0.7890
2393.055706 0.7880 0.7880 0.7870 0.7860 0.7860
2401.069000 0.7860 0.7850 0.7850 0.7850 0.7850
2409.089706 0.7850 0.7840 0.7820 0.7820 0.7810
2417.103000 0.7810 0.7800 0.7790 0.7780 0.7770
2425.123706 0.7740 0.7730 0.7720 0.7700 0.7680
2433.137000 0.7670 0.7660 0.7650 0.7640 0.7630
2441.157706 0.7630 0.7630 0.7620 0.7600 0.7550
2449.172000 0.7540 0.7530 0.7510 0.7510 0.7510
2457.192706 0.7510 0.7500 0.7490 0.7480 0.7440
2465.206000 0.7410 0.7380 0.7350 0.7330 0.7300
2473.226706 0.7280 0.7260 0.7240 0.7230 0.7210
2481.240000 0.7200 0.7190 0.7180 0.7180 0.7160
2489.260706 0.7130 0.7100 0.7070 0.7050 0.7030
2497.274000 0.7000 0.6980 0.6960 0.6950 0.6930
2505.294706 0.6910 0.6900 0.6870 0.6820 0.6770
2513.308000 0.6730 0.6700 0.6680 0.6660 0.6650
2521.328706 0.6640 0.6640 0.6630 0.6630 0.6620
2529.343000 0.6620 0.6620 0.6620 0.6620 0.6620
2537.363706 0.6620 0.6620 0.6620 0.6620 0.6620
2545.377000 0.6620 0.6620 0.6620 0.6620 0.6620
2553.397706 0.6620 0.6620 0.6630 0.6630 0.6630
2561.411000 0.6630 0.6630 0.6640 0.6640 0.6640
2569.431706 0.6630 0.6630 0.6630 0.6630 0.6630
2577.445000 0.6630 0.6630 0.6640 0.6640 0.6650
2585.465706 0.6650 0.6660 0.6680 0.6690 0.6710
2593.479000 0.6720 0.6720 0.6730 0.6740 0.6750
2601.499706 0.6750 0.6750 0.6750 0.6740 0.6730
2609.514000 0.6730 0.6720 0.6720 0.6710 0.6700
2617.534706 0.6690 0.6690 0.6670 0.6660 0.6650
2625.548000 0.6630 0.6610 0.6610 0.6610 0.6600
2633.568706 0.6560 0.6520 0.6490 0.6470 0.6460
2641.582000 0.6460 0.6460 0.6450 0.6450 0.6450
2649.602706 0.6440 0.6440 0.6430 0.6420 0.6420
2657.616000 0.6420 0.6420 0.6430 0.6440 0.6450
2665.636706 0.6450 0.6460 0.6460 0.6470 0.6480
2673.650000 0.6480 0.6500 0.6520 0.6560 0.6580
2681.670706 0.6600 0.6610 0.6620 0.6630 0.6650
2689.685000 0.6650 0.6660 0.6660 0.6660 0.6660
2697.705706 0.6660 0.6670 0.6680 0.6690 0.6710
2705.719000 0.6730 0.6740 0.6760 0.6760 0.6770
2713.739706 0.6770 0.6780 0.6790 0.6800 0.6800
2721.753000 0.6810 0.6810 0.6810 0.6820 0.6820
2729.773706 0.6820 0.6820 0.6820 0.6820 0.6820
2737.787000 0.6820 0.6820 0.6810 0.6810 0.6800
2745.807706 0.6800 0.6790 0.6780 0.6770 0.6760
2753.822000 0.6750 0.6740 0.6720 0.6710 0.6690
2761.842706 0.6680 0.6650 0.6640 0.6610 0.6580
2769.856000 0.6550 0.6510 0.6500 0.6480 0.6470
2777.876706 0.6450 0.6420 0.6390 0.6350 0.6310
2785.890000 0.6280 0.6260 0.6250 0.6230 0.6200
2793.910706 0.6180 0.6160 0.6150 0.6140 0.6120
2801.924000 0.6110 0.6110 0.6080 0.6050 0.6030
2809.944706 0.6010 0.5990 0.5980 0.5970 0.5950
2817.958000 0.5940 0.5930 0.5920 0.5900 0.5880
2825.978706 0.5870 0.5860 0.5860 0.5860 0.5860
2833.992000 0.5860 0.5850 0.5850 0.5830 0.5820
2842.012706 0.5800 0.5780 0.5770 0.5750 0.5750
2850.027000 0.5730 0.5720 0.5710 0.5690 0.5680
2858.047706 0.5670 0.5650 0.5630 0.5630 0.5630
2866.061000 0.5620 0.5620 0.5620 0.5630 0.5630
2874.081706 0.5630 0.5630 0.5640 0.5640 0.5660
2882.095000 0.5670 0.5680 0.5680 0.5690 0.5700
2890.115706 0.5700 0.5710 0.5710 0.5710 0.5710
2898.129000 0.5710 0.5710 0.5710 0.5710 0.5710
2906.149706 0.5690 0.5680 0.5670 0.5670 0.5670
2914.164000 0.5670 0.5680 0.5680 0.5690 0.5700
2922.184706 0.5700 0.5710 0.5710 0.5710 0.5720
2930.198000 0.5720 0.5730 0.5740 0.5750 0.5750
2938.218706 0.5750 0.5750 0.5750 0.5750 0.5740
2946.232000 0.5720 0.5710 0.5690 0.5680 0.5670
2954.252706 0.5660 0.5660 0.5650 0.5650 0.5640
2962.266000 0.5630 0.5630 0.5630 0.5630 0.5630
2970.286706 0.5630 0.5630 0.5630 0.5630 0.5630
2978.300000 0.5630 0.5630 0.5630 0.5630 0.5630
2986.320706 0.5630 0.5630 0.5640 0.5650 0.5650
2994.334000 0.5650 0.5660 0.5660 0.5670 0.5670
3002.354706 0.5670 0.5670 0.5680 0.5680 0.5690
3010.369000 0.5700 0.5710 0.5710 0.5730 0.5730
3018.389706 0.5750 0.5750 0.5760 0.5760 0.5750
3026.403000 0.5750 0.5750 0.5740 0.5740 0.5730
3034.423706 0.5710 0.5700 0.5690 0.5670 0.5660
3042.437000 0.5660 0.5650 0.5650 0.5640 0.5630
3050.457706 0.5630 0.5630 0.5610 0.5600 0.5600
3058.471000 0.5590 0.5560 0.5550 0.5540 0.5540
3066.491706 0.5540 0.5540 0.5550 0.5550 0.5560
3074.506000 0.5560 0.5570 0.5570 0.5580 0.5600
3082.526706 0.5600 0.5610 0.5620 0.5630 0.5650
3090.540000 0.5670 0.5740 0.5790 0.5850 0.5890
3098.560706 0.5930 0.5950 0.5970 0.6000 0.6010
3106.574000 0.6010 0.6010 0.6010 0.6020 0.6020
3114.594706 0.6030 0.6040 0.6050 0.6080 0.6080
3122.608000 0.6090 0.6090 0.6120 0.6160 0.6210
3130.628706 0.6240 0.6270 0.6270 0.6300 0.6310
3138.642000 0.6310 0.6320 0.6330 0.6340 0.6350
3146.662706 0.6360 0.6390 0.6420 0.6420 0.6440
3154.677000 0.6450 0.6460 0.6460 0.6460 0.6460
3162.697706 0.6470 0.6470 0.6470 0.6470 0.6470
3170.711000 0.6470 0.6470 0.6470 0.6480 0.6480
3178.731706 0.6490 0.6490 0.6490 0.6490 0.6490
3186.745000 0.6490 0.6490 0.6490 0.6490 0.6480
3194.765706 0.6480 0.6470 0.6460 0.6460 0.6440
3202.779000 0.6420 0.6410 0.6400 0.6390 0.6370
3210.799706 0.6350 0.6340 0.6330 0.6310 0.6310
3218.813000 0.6270 0.6220 0.6160 0.6130 0.6120
3226.833706 0.6080 0.6030 0.5980 0.5930 0.5870
3234.848000 0.5810 0.5740 0.5670 0.5600 0.5520
3242.868706 0.5480 0.5440 0.5360 0.5270 0.5180
3250.882000 0.5100 0.5010 0.4920 0.4820 0.4730
3258.902706 0.4630 0.4530 0.4430 0.4330 0.4230
3266.916000 0.4130 0.4030 0.3930 0.3830 0.3730
3274.936706 0.3630 0.3570 0.3490 0.3410 0.3390
3282.950000 0.3380 0.3380 0.3390 0.3400 0.3420
3290.970706 0.3450 0.3510 0.3570 0.3640 0.3730
3298.984000 0.3830 0.3930 0.4050 0.4170 0.4280
3307.004706 0.4410 0.4540 0.4670 0.4790 0.4920
3315.019000 0.5030 0.5150 0.5260 0.5350 0.5510
3323.039706 0.5610 0.5710 0.5790 0.5880 0.5970
3331.053000 0.6050 0.6120 0.6190 0.6260 0.6320
3339.073706 0.6390 0.6450 0.6500 0.6560 0.6610
3347.087000 0.6660 0.6710 0.6760 0.6800 0.6840
3355.107706 0.6870 0.6910 0.6950 0.6990 0.7020
3363.121000 0.7050 0.7070 0.7100 0.7130 0.7150
3371.141706 0.7170 0.7190 0.7210 0.7230 0.7260
3379.156000 0.7290 0.7310 0.7330 0.7360 0.7390
3387.176706 0.7400 0.7420 0.7430 0.7440 0.7450
3395.190000 0.7460 0.7470 0.7480 0.7480 0.7480
3403.210706 0.7480 0.7480 0.7490 0.7490 0.7490
3411.224000 0.7500 0.7500 0.7500 0.7500 0.7510
3419.244706 0.7510 0.7510 0.7510 0.7510 0.7510
3427.258000 0.7510 0.7510 0.7520 0.7520 0.7540
3435.278706 0.7550 0.7550 0.7560 0.7580 0.7600
3443.292000 0.7630 0.7640 0.7660 0.7660 0.7660
3451.312706 0.7670 0.7680 0.7680 0.7690 0.7700
3459.326000 0.7710 0.7740 0.7750 0.7760 0.7770
3467.346706 0.7780 0.7780 0.7790 0.7810 0.7810
3475.361000 0.7830 0.7840 0.7840 0.7850 0.7850
3483.381706 0.7850 0.7850 0.7860 0.7860 0.7860
3491.395000 0.7870 0.7870 0.7880 0.7880 0.7890
3499.415706 0.7890 0.7910 0.7930 0.7930 0.7940
3507.429000 0.7950 0.7950 0.7960 0.7960 0.7970
3515.449706 0.7980 0.7990 0.8000 0.8000 0.8000
3523.463000 0.8010 0.8020 0.8030 0.8040 0.8040
3531.483706 0.8040 0.8050 0.8060 0.8070 0.8080
3539.498000 0.8080 0.8080 0.8080 0.8100 0.8110
3547.518706 0.8120 0.8120 0.8130 0.8140 0.8150
3555.532000 0.8150 0.8150 0.8160 0.8170 0.8180
3563.552706 0.8190 0.8190 0.8190 0.8220 0.8230
3571.566000 0.8230 0.8240 0.8240 0.8250 0.8260
3579.586706 0.8270 0.8270 0.8270 0.8270 0.8290
3587.600000 0.8290 0.8300 0.8300 0.8310 0.8310
3595.620706 0.8310 0.8320 0.8320 0.8330 0.8340
3603.634000 0.8350 0.8350 0.8360 0.8380 0.8380
3611.654706 0.8390 0.8400 0.8400 0.8400 0.8410
3619.669000 0.8410 0.8420 0.8420 0.8430 0.8440
3627.689706 0.8440 0.8450 0.8450 0.8450 0.8450
3635.703000 0.8460 0.8460 0.8460 0.8460 0.8460
3643.723706 0.8460 0.8470 0.8470 0.8470 0.8480
3651.737000 0.8480 0.8480 0.8480 0.8480 0.8480
3659.757706 0.8480 0.8480 0.8480 0.8480 0.8480
3667.771000 0.8480 0.8480 0.8480 0.8480 0.8480
3675.791706 0.8480 0.8480 0.8480 0.8480 0.8480
3683.805000 0.8480 0.8480 0.8480 0.8480 0.8490
3691.825706 0.8490 0.8490 0.8500 0.8500 0.8510
3699.840000 0.8510 0.8510 0.8510 0.8510 0.8510
3707.860706 0.8510 0.8510 0.8510 0.8510 0.8510
3715.874000 0.8510 0.8510 0.8510 0.8510 0.8510
3723.894706 0.8510 0.8510 0.8510 0.8510 0.8510
3731.908000 0.8510 0.8510 0.8510 0.8510 0.8510
3739.928706 0.8510 0.8510 0.8500 0.8500 0.8500
3747.942000 0.8490 0.8490 0.8500 0.8500 0.8510
3755.962706 0.8510 0.8510 0.8520 0.8520 0.8520
3763.977000 0.8520 0.8520 0.8520 0.8520 0.8520
3771.997706 0.8520 0.8520 0.8520 0.8520 0.8520
3780.011000 0.8520 0.8520 0.8520 0.8520 0.8520
3788.031706 0.8520 0.8520 0.8520 0.8520 0.8520
3796.045000 0.8520 0.8520 0.8520 0.8520 0.8520
3804.065706 0.8520 0.8520
##END=
