##TITLE=1,2,4-BENZENETRICARBOXYLIC ACID, TRIOCTYL ESTER (ISO)
##JCAMP-DX=4.24
##DATA TYPE=INFRARED SPECTRUM
##CLASS=COBLENTZ III
##ORIGIN=DOW CHEMICAL COMPANY
##OWNER=COBLENTZ SOCIETY
Collection (C) 2018 copyright by the U.S. Secretary of Commerce
on behalf of the United States of America. All rights reserved.
##DATE=1977/02/24
##NAMES=trioctyl 1,2,4-benzenetricarboxylate
PX-337 - USS CHEMICAL
##MOLFORM=C33 H54 O6
##SOURCE REFERENCE=COBLENTZ NO. 10096
##$NIST ID=B6010096
##$NIST SOURCE=COBLENTZ
##$NIST IMAGE=cob10096
##SPECTROMETER/DATA SYSTEM=PERKIN-ELMER 180
##STATE=SOLUTION (10% IN CCl4 FOR 4000-1330, 10% IN CS2 FOR 1330-420 CM^-^1) VS. SOLVENT
##PATH LENGTH=0.011, 0.011 CM
##SAMPLING PROCEDURE=TRANSMISSION
##RESOLUTION=4
##DATA PROCESSING=DIGITIZED BY NIST FROM HARD COPY (FROM TWO SEGMENTS)
##XUNITS=1/CM
##YUNITS=TRANSMITTANCE
##XFACTOR=1.000000
##YFACTOR=1
##DELTAX=1.013302
##FIRSTX=422.293
##LASTX=3991.14
##FIRSTY=0.916
##MAXX=3991.14
##MINX=422.293
##MAXY=0.963979
##MINY=0
##NPOINTS=3523
##XYDATA=(X++(Y..Y))
422.293000 0.9160 0.9160 0.9170 0.9180 0.9190
427.359511 0.9200 0.9210 0.9220 0.9220 0.9220
432.426023 0.9220 0.9210 0.9210 0.9210 0.9210
437.492534 0.9200 0.9200 0.9200 0.9190 0.9180
442.559046 0.9180 0.9170 0.9170 0.9170 0.9170
447.625557 0.9180 0.9180 0.9180 0.9190 0.9190
452.692069 0.9200 0.9200 0.9210 0.9210 0.9210
457.758580 0.9210 0.9210 0.9220 0.9220 0.9210
462.825091 0.9210 0.9200 0.9190 0.9180 0.9170
467.891603 0.9160 0.9150 0.9140 0.9140 0.9130
472.958114 0.9130 0.9120 0.9120 0.9110 0.9100
478.024626 0.9100 0.9100 0.9100 0.9100 0.9100
483.091137 0.9090 0.9090 0.9080 0.9080 0.9080
488.157648 0.9070 0.9060 0.9040 0.9020 0.9020
493.224160 0.9010 0.9010 0.9010 0.9010 0.9010
498.290671 0.9020 0.9020 0.9020 0.9040 0.9040
503.357183 0.9050 0.9060 0.9060 0.9070 0.9070
508.423694 0.9080 0.9080 0.9100 0.9120 0.9120
513.490206 0.9120 0.9130 0.9130 0.9130 0.9130
518.556717 0.9120 0.9110 0.9110 0.9110 0.9110
523.623228 0.9120 0.9130 0.9140 0.9150 0.9160
528.689740 0.9170 0.9190 0.9190 0.9200 0.9210
533.756251 0.9220 0.9220 0.9220 0.9230 0.9240
538.822763 0.9240 0.9250 0.9250 0.9250 0.9250
543.889274 0.9240 0.9240 0.9230 0.9210 0.9210
548.955785 0.9200 0.9190 0.9180 0.9170 0.9170
554.022297 0.9160 0.9160 0.9160 0.9160 0.9160
559.088808 0.9160 0.9170 0.9170 0.9170 0.9170
564.155320 0.9180 0.9180 0.9180 0.9180 0.9180
569.221831 0.9180 0.9180 0.9180 0.9180 0.9180
574.288343 0.9180 0.9180 0.9170 0.9170 0.9160
579.354854 0.9150 0.9140 0.9120 0.9110 0.9100
584.421365 0.9100 0.9110 0.9110 0.9120 0.9130
589.487877 0.9150 0.9160 0.9180 0.9190 0.9210
594.554388 0.9210 0.9230 0.9250 0.9270 0.9310
599.620900 0.9340 0.9370 0.9390 0.9410 0.9430
604.687411 0.9440 0.9460 0.9480 0.9490 0.9490
609.753922 0.9500 0.9520 0.9540 0.9550 0.9570
614.820434 0.9590 0.9600 0.9610 0.9610 0.9610
619.886945 0.9610 0.9610 0.9610 0.9610 0.9610
624.953457 0.9610 0.9610 0.9610 0.9610 0.9610
630.019968 0.9610 0.9600 0.9600 0.9590 0.9590
635.086480 0.9580 0.9580 0.9570 0.9560 0.9560
640.152991 0.9560 0.9540 0.9520 0.9500 0.9490
645.219502 0.9490 0.9480 0.9460 0.9450 0.9430
650.286014 0.9400 0.9350 0.9300 0.9290 0.9290
655.352525 0.9330 0.9330 0.9320 0.9300 0.9250
660.419037 0.9170 0.9090 0.9050 0.9000 0.8990
665.485548 0.9000 0.9040 0.9110 0.9160 0.9320
670.552059 0.9390 0.9470 0.9480 0.9480 0.9490
675.618571 0.9490 0.9480 0.9480 0.9470 0.9460
680.685082 0.9460 0.9440 0.9420 0.9390 0.9360
685.751594 0.9310 0.9260 0.9190 0.9110 0.9010
690.818105 0.8910 0.8800 0.8700 0.8600 0.8510
695.884617 0.8450 0.8400 0.8390 0.8390 0.8430
700.951128 0.8530 0.8620 0.8690 0.8740 0.8790
706.017639 0.8830 0.8850 0.8860 0.8860 0.8840
711.084151 0.8790 0.8760 0.8710 0.8660 0.8590
716.150662 0.8500 0.8410 0.8320 0.8220 0.8100
721.217174 0.7980 0.7970 0.7970 0.7980 0.7990
726.283685 0.8000 0.8020 0.8030 0.8060 0.8090
731.350196 0.8100 0.8090 0.8090 0.8040 0.7990
736.416708 0.7930 0.7810 0.7740 0.7560 0.7410
741.483219 0.7130 0.6691 0.6231 0.5542 0.5042
746.549731 0.4639 0.4330 0.4030 0.3840 0.3790
751.616242 0.3840 0.4119 0.4250 0.4409 0.4808
756.682754 0.5181 0.5560 0.5780 0.6230 0.6740
761.749265 0.6880 0.6990 0.7110 0.7220 0.7300
766.815776 0.7380 0.7450 0.7520 0.7580 0.7640
771.882288 0.7710 0.7770 0.7830 0.7900 0.7950
776.948799 0.8020 0.8080 0.8140 0.8210 0.8270
782.015311 0.8300 0.8300 0.8290 0.8260 0.8190
787.081822 0.8100 0.8070 0.8010 0.7890 0.7870
792.148333 0.7890 0.7930 0.8050 0.8090 0.8190
797.214845 0.8340 0.8470 0.8530 0.8590 0.8640
802.281356 0.8650 0.8640 0.8630 0.8620 0.8610
807.347868 0.8610 0.8610 0.8610 0.8610 0.8610
812.414379 0.8610 0.8610 0.8600 0.8590 0.8590
817.480891 0.8580 0.8560 0.8550 0.8530 0.8520
822.547402 0.8490 0.8480 0.8460 0.8450 0.8440
827.613913 0.8440 0.8430 0.8430 0.8430 0.8420
832.680425 0.8420 0.8420 0.8410 0.8410 0.8410
837.746936 0.8400 0.8400 0.8390 0.8370 0.8350
842.813448 0.8320 0.8290 0.8240 0.8190 0.8130
847.879959 0.8070 0.8010 0.7940 0.7800 0.7700
852.946470 0.7630 0.7590 0.7570 0.7560 0.7560
858.012982 0.7570 0.7640 0.7770 0.7890 0.7990
863.079493 0.8090 0.8170 0.8250 0.8320 0.8380
868.146005 0.8440 0.8480 0.8530 0.8580 0.8600
873.212516 0.8610 0.8620 0.8630 0.8640 0.8650
878.279028 0.8650 0.8660 0.8670 0.8680 0.8690
883.345539 0.8690 0.8690 0.8680 0.8680 0.8670
888.412050 0.8650 0.8640 0.8630 0.8630 0.8610
893.478562 0.8590 0.8560 0.8550 0.8520 0.8500
898.545073 0.8500 0.8480 0.8440 0.8410 0.8370
903.611585 0.8350 0.8340 0.8310 0.8290 0.8260
908.678096 0.8220 0.8170 0.8120 0.8050 0.8010
913.744607 0.7950 0.7880 0.7810 0.7750 0.7700
918.811119 0.7650 0.7610 0.7580 0.7550 0.7530
923.877630 0.7510 0.7490 0.7480 0.7470 0.7460
928.944142 0.7450 0.7450 0.7440 0.7440 0.7440
934.010653 0.7430 0.7410 0.7400 0.7380 0.7330
939.077165 0.7260 0.7200 0.7120 0.7050 0.6980
944.143676 0.6910 0.6830 0.6760 0.6680 0.6640
949.210187 0.6600 0.6530 0.6450 0.6360 0.6280
954.276699 0.6200 0.6130 0.6050 0.5980 0.5900
959.343210 0.5830 0.5760 0.5680 0.5620 0.5560
964.409722 0.5500 0.5440 0.5390 0.5340 0.5300
969.476233 0.5250 0.5200 0.5150 0.5120 0.5110
974.542744 0.5120 0.5140 0.5160 0.5190 0.5230
979.609256 0.5290 0.5370 0.5490 0.5550 0.5650
984.675767 0.5760 0.5880 0.6010 0.6130 0.6210
989.742279 0.6370 0.6500 0.6710 0.6800 0.6880
994.808790 0.6960 0.7030 0.7110 0.7210 0.7310
999.875302 0.7410 0.7510 0.7610 0.7670 0.7680
1004.941813 0.7690 0.7700 0.7710 0.7700 0.7700
1010.008324 0.7690 0.7680 0.7670 0.7650 0.7620
1015.074836 0.7580 0.7540 0.7510 0.7470 0.7430
1020.141347 0.7400 0.7360 0.7320 0.7290 0.7250
1025.207859 0.7220 0.7180 0.7150 0.7120 0.7090
1030.274370 0.7090 0.7120 0.7150 0.7160 0.7170
1035.340882 0.7180 0.7180 0.7180 0.7160 0.7150
1040.407393 0.7130 0.7100 0.7060 0.7020 0.7000
1045.473904 0.6940 0.6880 0.6760 0.6690 0.6620
1050.540416 0.6450 0.6260 0.6060 0.5830 0.5580
1055.606927 0.5320 0.5050 0.4741 0.4441 0.4111
1060.673439 0.3769 0.3410 0.3230 0.3040 0.2890
1065.739950 0.2670 0.2660 0.2670 0.2780 0.2880
1070.806461 0.3101 0.3550 0.3820 0.4090 0.4380
1075.872973 0.4700 0.5050 0.5409 0.5619 0.6009
1080.939484 0.6241 0.6530 0.6780 0.6880 0.6930
1086.005996 0.6960 0.6920 0.6890 0.6830 0.6750
1091.072507 0.6670 0.6590 0.6390 0.6190 0.5900
1096.139019 0.5570 0.5141 0.4641 0.4062 0.3372
1101.205530 0.2969 0.2549 0.1779 0.1290 0.1030
1106.272041 0.0890 0.0830 0.0760 0.0660 0.0640
1111.338553 0.0650 0.0670 0.0740 0.0790 0.0850
1116.405064 0.0940 0.1020 0.1080 0.1220 0.1290
1121.471576 0.1360 0.1460 0.1550 0.1650 0.1760
1126.538087 0.1870 0.1980 0.2090 0.2200 0.2310
1131.604598 0.2400 0.2490 0.2570 0.2630 0.2660
1136.671110 0.2670 0.2670 0.2670 0.2660 0.2660
1141.737621 0.2680 0.2720 0.2770 0.2860 0.2970
1146.804133 0.3110 0.3559 0.3909 0.4080 0.4150
1151.870644 0.4182 0.4930 0.5160 0.5410 0.5590
1156.937156 0.5800 0.5990 0.6160 0.6320 0.6470
1162.003667 0.6730 0.6850 0.6960 0.7050 0.7160
1167.070178 0.7240 0.7320 0.7390 0.7460 0.7550
1172.136690 0.7590 0.7640 0.7690 0.7710 0.7730
1177.203201 0.7740 0.7760 0.7780 0.7790 0.7780
1182.269713 0.7780 0.7780 0.7770 0.7760 0.7730
1187.336224 0.7700 0.7650 0.7600 0.7540 0.7480
1192.402735 0.7410 0.7340 0.7260 0.7180 0.7080
1197.469247 0.6980 0.6880 0.6770 0.6710 0.6650
1202.535758 0.6520 0.6370 0.6220 0.6050 0.5880
1207.602270 0.5680 0.5480 0.5260 0.5031 0.4741
1212.668781 0.4439 0.4139 0.3819 0.3470 0.3290
1217.735293 0.3110 0.2690 0.2251 0.1741 0.1251
1222.801804 0.0939 0.0680 0.0480 0.0340 0.0240
1227.868315 0.0180 0.0140 0.0110 0.0090 0.0080
1232.934827 0.0090 0.0100 0.0110 0.0110 0.0130
1238.001338 0.0140 0.0170 0.0190 0.0240 0.0270
1243.067850 0.0300 0.0340 0.0390 0.0440 0.0490
1248.134361 0.0540 0.0600 0.0640 0.0670 0.0700
1253.200872 0.0730 0.0740 0.0750 0.0770 0.0780
1258.267384 0.0800 0.0810 0.0810 0.0820 0.0820
1263.333895 0.0810 0.0810 0.0800 0.0780 0.0760
1268.400407 0.0750 0.0730 0.0700 0.0670 0.0650
1273.466918 0.0610 0.0560 0.0490 0.0450 0.0440
1278.533430 0.0430 0.0440 0.0520 0.0540 0.0590
1283.599941 0.0650 0.0740 0.0800 0.0880 0.0940
1288.666452 0.0980 0.1070 0.1090 0.1080 0.1070
1293.732964 0.1030 0.1000 0.0960 0.0900 0.0850
1298.799475 0.0810 0.0780 0.0770 0.0760 0.0750
1303.865987 0.0750 0.0750 0.0760 0.0800 0.0860
1308.932498 0.0950 0.1090 0.1260 0.1470 0.1689
1313.999009 0.1941 0.2221 0.2500 0.2781 0.3370
1319.065521 0.3670 0.3950 0.4210 0.4469 0.4699
1324.132032 0.4891 0.5080 0.5250 0.5400 0.5550
1329.198544 0.5680 0.5820 0.5940 0.6040 0.6140
1334.265055 0.6240 0.6320 0.6400 0.6490 0.6550
1339.331567 0.6670 0.6730 0.6780 0.6820 0.6870
1344.398078 0.6900 0.6930 0.6940 0.6960 0.6970
1349.464589 0.6960 0.6920 0.6870 0.6840 0.6780
1354.531101 0.6690 0.6640 0.6580 0.6460 0.6310
1359.597612 0.6040 0.5730 0.5530 0.5290 0.5270
1364.664124 0.5290 0.5380 0.5490 0.5490 0.5410
1369.730635 0.5310 0.5000 0.4830 0.4581 0.4321
1374.797146 0.4039 0.3880 0.3770 0.3740 0.3770
1379.863658 0.3800 0.3870 0.3970 0.4080 0.4359
1384.930169 0.4671 0.5011 0.5371 0.5660 0.5910
1389.996681 0.6280 0.6760 0.6890 0.7000 0.7080
1395.063192 0.7090 0.7090 0.7080 0.7030 0.7000
1400.129704 0.6920 0.6780 0.6670 0.6620 0.6560
1405.196215 0.6500 0.6500 0.6550 0.6770 0.7030
1410.262726 0.7240 0.7390 0.7520 0.7610 0.7690
1415.329238 0.7750 0.7800 0.7860 0.7880 0.7890
1420.395749 0.7890 0.7860 0.7800 0.7740 0.7660
1425.462261 0.7570 0.7480 0.7390 0.7310 0.7240
1430.528772 0.7180 0.7120 0.7090 0.7030 0.6980
1435.595283 0.6890 0.6760 0.6700 0.6630 0.6530
1440.661795 0.6130 0.5860 0.5660 0.5470 0.5251
1445.728306 0.4909 0.4569 0.4259 0.3980 0.3740
1450.794818 0.3530 0.3340 0.3270 0.3190 0.3050
1455.861329 0.2940 0.2840 0.2750 0.2680 0.2580
1460.927841 0.2570 0.2580 0.2620 0.2760 0.2920
1465.994352 0.3431 0.3761 0.4091 0.4440 0.4770
1471.060863 0.5080 0.5430 0.5810 0.6189 0.6868
1476.127375 0.7121 0.7280 0.7300 0.7320 0.7320
1481.193886 0.7290 0.7190 0.7090 0.6950 0.6940
1486.260398 0.6950 0.7000 0.7040 0.7150 0.7270
1491.326909 0.7410 0.7540 0.7680 0.7820 0.7950
1496.393420 0.8060 0.8150 0.8210 0.8310 0.8390
1501.459932 0.8460 0.8500 0.8540 0.8580 0.8610
1506.526443 0.8620 0.8640 0.8660 0.8690 0.8710
1511.592955 0.8720 0.8730 0.8740 0.8750 0.8760
1516.659466 0.8770 0.8780 0.8780 0.8790 0.8790
1521.725978 0.8790 0.8800 0.8800 0.8800 0.8800
1526.792489 0.8810 0.8810 0.8810 0.8820 0.8820
1531.859000 0.8830 0.8830 0.8820 0.8820 0.8810
1536.925512 0.8800 0.8790 0.8790 0.8780 0.8780
1541.992023 0.8780 0.8770 0.8770 0.8770 0.8760
1547.058535 0.8750 0.8750 0.8740 0.8740 0.8720
1552.125046 0.8720 0.8710 0.8700 0.8690 0.8680
1557.191558 0.8660 0.8640 0.8610 0.8580 0.8530
1562.258069 0.8480 0.8430 0.8380 0.8320 0.8260
1567.324580 0.8190 0.8150 0.8150 0.8160 0.8220
1572.391092 0.8240 0.8280 0.8340 0.8430 0.8480
1577.457603 0.8540 0.8560 0.8660 0.8710 0.8760
1582.524115 0.8770 0.8780 0.8790 0.8800 0.8800
1587.590626 0.8800 0.8800 0.8800 0.8790 0.8780
1592.657137 0.8780 0.8770 0.8750 0.8730 0.8690
1597.723649 0.8640 0.8560 0.8500 0.8430 0.8380
1602.790160 0.8330 0.8270 0.8230 0.8210 0.8200
1607.856672 0.8210 0.8280 0.8340 0.8420 0.8490
1612.923183 0.8540 0.8610 0.8670 0.8700 0.8730
1617.989695 0.8750 0.8760 0.8770 0.8780 0.8780
1623.056206 0.8780 0.8780 0.8780 0.8780 0.8780
1628.122717 0.8780 0.8770 0.8760 0.8760 0.8750
1633.189229 0.8750 0.8730 0.8730 0.8720 0.8710
1638.255740 0.8710 0.8690 0.8680 0.8670 0.8650
1643.322252 0.8650 0.8640 0.8630 0.8620 0.8600
1648.388763 0.8600 0.8590 0.8580 0.8580 0.8560
1653.455274 0.8540 0.8520 0.8510 0.8500 0.8490
1658.521786 0.8490 0.8460 0.8430 0.8410 0.8390
1663.588297 0.8380 0.8360 0.8340 0.8300 0.8270
1668.654809 0.8220 0.8180 0.8120 0.8060 0.8000
1673.721320 0.7930 0.7840 0.7760 0.7650 0.7560
1678.787832 0.7480 0.7400 0.7340 0.7290 0.7240
1683.854343 0.7190 0.7150 0.7100 0.7050 0.7000
1688.920854 0.6950 0.6890 0.6820 0.6740 0.6690
1693.987366 0.6640 0.6560 0.6450 0.6310 0.6160
1699.053877 0.5989 0.5789 0.5539 0.5279 0.4970
1704.120389 0.4680 0.4340 0.3950 0.3481 0.3221
1709.186900 0.2958 0.2327 0.1539 0.0989 0.0630
1714.253411 0.0400 0.0250 0.0110 0.0080 0.0010
1719.319923 0.0000 0.0000 0.0000 0.0000 0.0000
1724.386434 0.0000 0.0010 0.0010 0.0020 0.0030
1729.452946 0.0030 0.0050 0.0080 0.0100 0.0160
1734.519457 0.0200 0.0260 0.0360 0.0480 0.0640
1739.585969 0.0831 0.1051 0.1291 0.1561 0.1850
1744.652480 0.2180 0.2520 0.2880 0.3669 0.4089
1749.718991 0.4532 0.4972 0.5441 0.5720 0.5970
1754.785503 0.6200 0.6430 0.6820 0.6990 0.7150
1759.852014 0.7281 0.7420 0.7480 0.7540 0.7610
1764.918526 0.7670 0.7730 0.7790 0.7830 0.7900
1769.985037 0.7960 0.8010 0.8060 0.8110 0.8150
1775.051548 0.8180 0.8220 0.8250 0.8290 0.8310
1780.118060 0.8340 0.8370 0.8390 0.8410 0.8450
1785.184571 0.8470 0.8490 0.8500 0.8510 0.8520
1790.251083 0.8580 0.8600 0.8610 0.8620 0.8650
1795.317594 0.8670 0.8680 0.8700 0.8720 0.8750
1800.384106 0.8770 0.8800 0.8820 0.8830 0.8830
1805.450617 0.8850 0.8850 0.8860 0.8860 0.8870
1810.517128 0.8880 0.8880 0.8890 0.8890 0.8900
1815.583640 0.8900 0.8900 0.8900 0.8910 0.8910
1820.650151 0.8910 0.8910 0.8900 0.8900 0.8910
1825.716663 0.8910 0.8930 0.8950 0.8960 0.8970
1830.783174 0.8970 0.8970 0.8980 0.8990 0.9000
1835.849685 0.9000 0.9010 0.9010 0.9030 0.9040
1840.916197 0.9050 0.9060 0.9070 0.9070 0.9070
1845.982708 0.9060 0.9060 0.9060 0.9060 0.9070
1851.049220 0.9080 0.9080 0.9080 0.9090 0.9100
1856.115731 0.9110 0.9110 0.9120 0.9120 0.9120
1861.182243 0.9120 0.9130 0.9130 0.9130 0.9140
1866.248754 0.9140 0.9150 0.9160 0.9170 0.9180
1871.315265 0.9180 0.9190 0.9190 0.9200 0.9200
1876.381777 0.9200 0.9200 0.9200 0.9200 0.9200
1881.448288 0.9200 0.9200 0.9200 0.9200 0.9200
1886.514800 0.9200 0.9200 0.9200 0.9200 0.9200
1891.581311 0.9200 0.9200 0.9200 0.9200 0.9210
1896.647822 0.9210 0.9210 0.9210 0.9210 0.9210
1901.714334 0.9210 0.9210 0.9220 0.9220 0.9220
1906.780845 0.9220 0.9220 0.9220 0.9220 0.9220
1911.847357 0.9220 0.9220 0.9210 0.9210 0.9210
1916.913868 0.9220 0.9220 0.9220 0.9220 0.9220
1921.980380 0.9220 0.9220 0.9220 0.9220 0.9210
1927.046891 0.9200 0.9200 0.9180 0.9170 0.9160
1932.113402 0.9150 0.9140 0.9130 0.9130 0.9120
1937.179914 0.9120 0.9120 0.9120 0.9130 0.9130
1942.246425 0.9140 0.9140 0.9150 0.9160 0.9170
1947.312937 0.9170 0.9180 0.9190 0.9200 0.9210
1952.379448 0.9220 0.9220 0.9220 0.9230 0.9230
1957.445959 0.9240 0.9240 0.9240 0.9240 0.9240
1962.512471 0.9250 0.9250 0.9250 0.9250 0.9250
1967.578982 0.9260 0.9260 0.9260 0.9260 0.9260
1972.645494 0.9260 0.9270 0.9270 0.9270 0.9270
1977.712005 0.9270 0.9270 0.9290 0.9290 0.9290
1982.778517 0.9300 0.9300 0.9300 0.9310 0.9310
1987.845028 0.9320 0.9320 0.9320 0.9320 0.9320
1992.911539 0.9310 0.9310 0.9310 0.9300 0.9300
1997.978051 0.9270 0.9260 0.9250 0.9250 0.9250
2003.044562 0.9245 0.9240 0.9235 0.9230 0.9230
2008.111074 0.9230 0.9230 0.9230 0.9230 0.9230
2013.177585 0.9230 0.9230 0.9230 0.9230 0.9230
2018.244096 0.9230 0.9230 0.9230 0.9230 0.9230
2023.310608 0.9230 0.9230 0.9230 0.9230 0.9230
2028.377119 0.9230 0.9230 0.9230 0.9230 0.9230
2033.443631 0.9235 0.9240 0.9245 0.9250 0.9245
2038.510142 0.9240 0.9240 0.9240 0.9240 0.9240
2043.576654 0.9240 0.9240 0.9240 0.9240 0.9240
2048.643165 0.9240 0.9240 0.9240 0.9240 0.9240
2053.709676 0.9240 0.9240 0.9236 0.9231 0.9230
2058.776188 0.9230 0.9226 0.9221 0.9220 0.9220
2063.842699 0.9220 0.9220 0.9220 0.9220 0.9220
2068.909211 0.9220 0.9220 0.9220 0.9220 0.9220
2073.975722 0.9220 0.9220 0.9216 0.9211 0.9210
2079.042233 0.9210 0.9218 0.9229 0.9230 0.9230
2084.108745 0.9226 0.9221 0.9220 0.9220 0.9220
2089.175256 0.9220 0.9220 0.9220 0.9220 0.9220
2094.241768 0.9220 0.9220 0.9224 0.9229 0.9234
2099.308279 0.9239 0.9240 0.9240 0.9236 0.9231
2104.374791 0.9234 0.9239 0.9240 0.9240 0.9244
2109.441302 0.9249 0.9250 0.9250 0.9258 0.9268
2114.507813 0.9270 0.9270 0.9270 0.9270 0.9266
2119.574325 0.9261 0.9256 0.9251 0.9246 0.9241
2124.640836 0.9240 0.9240 0.9240 0.9240 0.9240
2129.707348 0.9240 0.9244 0.9249 0.9254 0.9259
2134.773859 0.9260 0.9260 0.9260 0.9260 0.9260
2139.840371 0.9260 0.9260 0.9260 0.9260 0.9260
2144.906882 0.9260 0.9260 0.9260 0.9260 0.9260
2149.973393 0.9260 0.9260 0.9260 0.9264 0.9269
2155.039905 0.9266 0.9262 0.9260 0.9260 0.9257
2160.106416 0.9252 0.9247 0.9242 0.9240 0.9240
2165.172928 0.9240 0.9240 0.9240 0.9240 0.9240
2170.239439 0.9240 0.9240 0.9240 0.9240 0.9240
2175.305950 0.9240 0.9240 0.9247 0.9257 0.9260
2180.372462 0.9260 0.9257 0.9252 0.9247 0.9242
2185.438973 0.9237 0.9232 0.9230 0.9230 0.9230
2190.505485 0.9230 0.9230 0.9230 0.9230 0.9230
2195.571996 0.9230 0.9230 0.9230 0.9230 0.9230
2200.638508 0.9230 0.9230 0.9230 0.9230 0.9230
2205.705019 0.9230 0.9230 0.9230 0.9230 0.9230
2210.771530 0.9230 0.9230 0.9230 0.9233 0.9238
2215.838042 0.9243 0.9248 0.9253 0.9258 0.9260
2220.904553 0.9260 0.9260 0.9260 0.9260 0.9260
2225.971065 0.9260 0.9260 0.9260 0.9260 0.9260
2231.037576 0.9260 0.9260 0.9260 0.9260 0.9260
2236.104087 0.9260 0.9260 0.9260 0.9260 0.9260
2241.170599 0.9260 0.9260 0.9260 0.9263 0.9268
2246.237110 0.9270 0.9270 0.9270 0.9270 0.9270
2251.303622 0.9270 0.9270 0.9270 0.9270 0.9270
2256.370133 0.9270 0.9270 0.9270 0.9270 0.9270
2261.436645 0.9270 0.9270 0.9270 0.9270 0.9270
2266.503156 0.9270 0.9270 0.9270 0.9270 0.9270
2271.569667 0.9270 0.9270 0.9270 0.9270 0.9270
2276.636179 0.9270 0.9270 0.9268 0.9263 0.9260
2281.702690 0.9260 0.9260 0.9260 0.9260 0.9260
2286.769202 0.9260 0.9260 0.9260 0.9260 0.9260
2291.835713 0.9260 0.9258 0.9253 0.9250 0.9250
2296.902224 0.9250 0.9250 0.9250 0.9250 0.9248
2301.968736 0.9243 0.9240 0.9240 0.9240 0.9240
2307.035247 0.9240 0.9240 0.9240 0.9240 0.9240
2312.101759 0.9240 0.9240 0.9240 0.9240 0.9240
2317.168270 0.9240 0.9240 0.9238 0.9233 0.9230
2322.234782 0.9230 0.9230 0.9230 0.9228 0.9223
2327.301293 0.9218 0.9213 0.9210 0.9210 0.9208
2332.367804 0.9203 0.9200 0.9200 0.9198 0.9193
2337.434316 0.9188 0.9183 0.9180 0.9180 0.9180
2342.500827 0.9180 0.9180 0.9180 0.9180 0.9180
2347.567339 0.9180 0.9180 0.9180 0.9180 0.9180
2352.633850 0.9180 0.9180 0.9180 0.9180 0.9180
2357.700361 0.9178 0.9173 0.9170 0.9170 0.9170
2362.766873 0.9170 0.9170 0.9170 0.9170 0.9170
2367.833384 0.9170 0.9170 0.9170 0.9170 0.9170
2372.899896 0.9170 0.9170 0.9170 0.9170 0.9170
2377.966407 0.9170 0.9170 0.9173 0.9183 0.9190
2383.032919 0.9190 0.9190 0.9190 0.9190 0.9190
2388.099430 0.9190 0.9190 0.9189 0.9184 0.9180
2393.165941 0.9180 0.9179 0.9174 0.9170 0.9170
2398.232453 0.9170 0.9170 0.9171 0.9176 0.9180
2403.298964 0.9180 0.9181 0.9186 0.9190 0.9190
2408.365476 0.9191 0.9196 0.9200 0.9200 0.9201
2413.431987 0.9206 0.9210 0.9210 0.9212 0.9222
2418.498498 0.9230 0.9230 0.9231 0.9236 0.9241
2423.565010 0.9246 0.9251 0.9256 0.9260 0.9260
2428.631521 0.9261 0.9266 0.9270 0.9270 0.9270
2433.698033 0.9270 0.9270 0.9270 0.9270 0.9270
2438.764544 0.9270 0.9270 0.9270 0.9270 0.9270
2443.831056 0.9270 0.9270 0.9270 0.9270 0.9270
2448.897567 0.9270 0.9270 0.9270 0.9270 0.9270
2453.964078 0.9270 0.9270 0.9270 0.9270 0.9270
2459.030590 0.9270 0.9270 0.9270 0.9270 0.9270
2464.097101 0.9270 0.9270 0.9270 0.9270 0.9270
2469.163613 0.9270 0.9270 0.9270 0.9270 0.9270
2474.230124 0.9270 0.9270 0.9270 0.9270 0.9270
2479.296635 0.9270 0.9270 0.9270 0.9265 0.9260
2484.363147 0.9260 0.9260 0.9255 0.9250 0.9245
2489.429658 0.9240 0.9240 0.9240 0.9245 0.9250
2494.496170 0.9250 0.9250 0.9245 0.9240 0.9240
2499.562681 0.9240 0.9240 0.9240 0.9240 0.9240
2504.629193 0.9240 0.9240 0.9240 0.9240 0.9240
2509.695704 0.9240 0.9235 0.9230 0.9230 0.9230
2514.762215 0.9225 0.9220 0.9220 0.9220 0.9220
2519.828727 0.9220 0.9215 0.9210 0.9210 0.9210
2524.895238 0.9205 0.9200 0.9200 0.9200 0.9200
2529.961750 0.9200 0.9200 0.9200 0.9200 0.9200
2535.028261 0.9200 0.9200 0.9200 0.9200 0.9200
2540.094772 0.9200 0.9195 0.9190 0.9190 0.9190
2545.161284 0.9190 0.9190 0.9185 0.9180 0.9180
2550.227795 0.9180 0.9175 0.9170 0.9170 0.9170
2555.294307 0.9165 0.9160 0.9160 0.9160 0.9155
2560.360818 0.9150 0.9145 0.9140 0.9135 0.9130
2565.427330 0.9130 0.9130 0.9130 0.9130 0.9125
2570.493841 0.9120 0.9115 0.9110 0.9110 0.9110
2575.560352 0.9105 0.9100 0.9095 0.9090 0.9085
2580.626864 0.9080 0.9071 0.9061 0.9051 0.9041
2585.693375 0.9036 0.9031 0.9030 0.9030 0.9030
2590.759887 0.9030 0.9030 0.9030 0.9030 0.9030
2595.826398 0.9030 0.9030 0.9034 0.9039 0.9044
2600.892909 0.9049 0.9050 0.9050 0.9050 0.9050
2605.959421 0.9050 0.9050 0.9050 0.9050 0.9046
2611.025932 0.9041 0.9040 0.9040 0.9040 0.9040
2616.092444 0.9048 0.9058 0.9064 0.9069 0.9074
2621.158955 0.9079 0.9080 0.9080 0.9080 0.9080
2626.225467 0.9080 0.9080 0.9080 0.9080 0.9080
2631.291978 0.9080 0.9080 0.9080 0.9080 0.9080
2636.358489 0.9080 0.9080 0.9080 0.9080 0.9076
2641.425001 0.9071 0.9070 0.9070 0.9066 0.9061
2646.491512 0.9056 0.9051 0.9050 0.9050 0.9046
2651.558024 0.9041 0.9040 0.9040 0.9040 0.9040
2656.624535 0.9036 0.9031 0.9030 0.9030 0.9030
2661.691047 0.9030 0.9026 0.9021 0.9020 0.9020
2666.757558 0.9020 0.9020 0.9020 0.9020 0.9020
2671.824069 0.9020 0.9020 0.9020 0.9020 0.9020
2676.890581 0.9020 0.9020 0.9020 0.9020 0.9016
2681.957092 0.9011 0.9010 0.9010 0.9006 0.9001
2687.023604 0.9000 0.9000 0.8996 0.8991 0.8990
2692.090115 0.8990 0.8983 0.8973 0.8967 0.8962
2697.156626 0.8960 0.8960 0.8957 0.8952 0.8947
2702.223138 0.8942 0.8937 0.8932 0.8923 0.8913
2707.289649 0.8897 0.8877 0.8863 0.8853 0.8843
2712.356161 0.8833 0.8820 0.8805 0.8800 0.8800
2717.422672 0.8793 0.8783 0.8780 0.8780 0.8783
2722.489184 0.8788 0.8790 0.8790 0.8796 0.8806
2727.555695 0.8813 0.8818 0.8829 0.8845 0.8853
2732.622206 0.8858 0.8863 0.8868 0.8876 0.8886
2737.688718 0.8893 0.8898 0.8900 0.8900 0.8900
2742.755229 0.8900 0.8897 0.8892 0.8890 0.8890
2747.821741 0.8887 0.8882 0.8880 0.8880 0.8880
2752.888252 0.8880 0.8880 0.8880 0.8880 0.8880
2757.954763 0.8877 0.8872 0.8870 0.8870 0.8867
2763.021275 0.8862 0.8860 0.8860 0.8857 0.8852
2768.087786 0.8847 0.8842 0.8837 0.8832 0.8827
2773.154298 0.8822 0.8817 0.8812 0.8810 0.8810
2778.220809 0.8802 0.8787 0.8769 0.8749 0.8732
2783.287321 0.8717 0.8702 0.8687 0.8672 0.8657
2788.353832 0.8640 0.8620 0.8602 0.8587 0.8567
2793.420343 0.8542 0.8517 0.8492 0.8467 0.8442
2798.486855 0.8412 0.8377 0.8340 0.8300 0.8260
2803.553366 0.8220 0.8183 0.8148 0.8113 0.8078
2808.619878 0.8041 0.8001 0.7961 0.7921 0.7876
2813.686389 0.7826 0.7774 0.7719 0.7664 0.7609
2818.752900 0.7547 0.7478 0.7403 0.7324 0.7237
2823.819412 0.7142 0.7043 0.6938 0.6854 0.6794
2828.885923 0.6732 0.6667 0.6569 0.6428 0.6279
2833.952435 0.6119 0.5927 0.5693 0.5473 0.5274
2839.018946 0.5083 0.4904 0.4737 0.4587 0.4442
2844.085458 0.4302 0.4169 0.4044 0.3922 0.3802
2849.151969 0.3678 0.3549 0.3446 0.3386 0.3324
2854.218480 0.3259 0.3164 0.3024 0.2883 0.2738
2859.284992 0.2582 0.2407 0.2229 0.2045 0.1866
2864.351503 0.1696 0.1583 0.1563 0.1550 0.1550
2869.418015 0.1563 0.1598 0.1684 0.1866 0.2024
2874.484526 0.2144 0.2251 0.2336 0.2447 0.2607
2879.551037 0.2714 0.2723 0.2730 0.2730 0.2725
2884.617549 0.2710 0.2665 0.2560 0.2464 0.2384
2889.684060 0.2298 0.2198 0.2106 0.2030 0.1963
2894.750572 0.1914 0.1857 0.1787 0.1719 0.1654
2899.817083 0.1596 0.1551 0.1506 0.1461 0.1419
2904.883595 0.1385 0.1351 0.1321 0.1291 0.1261
2909.950106 0.1231 0.1202 0.1172 0.1141 0.1110
2915.016617 0.1075 0.1037 0.0992 0.0945 0.0890
2920.083129 0.0838 0.0793 0.0757 0.0747 0.0741
2925.149640 0.0746 0.0758 0.0788 0.0815 0.0835
2930.216152 0.0860 0.0900 0.0941 0.0986 0.1023
2935.282663 0.1033 0.1040 0.1040 0.1011 0.0891
2940.349174 0.0785 0.0720 0.0657 0.0602 0.0549
2945.415686 0.0499 0.0447 0.0387 0.0327 0.0267
2950.482197 0.0207 0.0148 0.0098 0.0088 0.0081
2955.548709 0.0086 0.0095 0.0120 0.0150 0.0200
2960.615220 0.0250 0.0300 0.0350 0.0400 0.0468
2965.681732 0.0618 0.0768 0.0923 0.1090 0.1314
2970.748243 0.1537 0.1757 0.1978 0.2210 0.2440
2975.814754 0.2659 0.2920 0.3379 0.3796 0.4010
2980.881266 0.4226 0.4445 0.4664 0.4878 0.5091
2985.947777 0.5295 0.5498 0.5693 0.5886 0.6070
2991.014289 0.6275 0.6614 0.6929 0.7080 0.7228
2996.080800 0.7358 0.7486 0.7600 0.7713 0.7813
3001.147311 0.7909 0.7984 0.8057 0.8117 0.8173
3006.213823 0.8203 0.8233 0.8258 0.8283 0.8313
3011.280334 0.8342 0.8367 0.8393 0.8428 0.8463
3016.346846 0.8493 0.8523 0.8553 0.8583 0.8613
3021.413357 0.8642 0.8662 0.8681 0.8696 0.8711
3026.479869 0.8721 0.8731 0.8751 0.8770 0.8775
3031.546380 0.8780 0.8785 0.8791 0.8801 0.8810
3036.612891 0.8815 0.8821 0.8831 0.8840 0.8845
3041.679403 0.8850 0.8860 0.8870 0.8870 0.8870
3046.745914 0.8875 0.8880 0.8890 0.8900 0.8905
3051.812426 0.8910 0.8915 0.8920 0.8920 0.8920
3056.878937 0.8925 0.8930 0.8930 0.8930 0.8925
3061.945448 0.8920 0.8920 0.8920 0.8910 0.8900
3067.011960 0.8895 0.8890 0.8890 0.8890 0.8890
3072.078471 0.8890 0.8895 0.8900 0.8920 0.8940
3077.144983 0.8955 0.8970 0.8980 0.8990 0.9005
3082.211494 0.9020 0.9035 0.9050 0.9055 0.9060
3087.278006 0.9070 0.9080 0.9090 0.9099 0.9100
3092.344517 0.9100 0.9105 0.9110 0.9110 0.9110
3097.411028 0.9110 0.9110 0.9110 0.9110 0.9110
3102.477540 0.9110 0.9110 0.9110 0.9115 0.9120
3107.544051 0.9120 0.9120 0.9125 0.9130 0.9130
3112.610563 0.9130 0.9135 0.9140 0.9145 0.9150
3117.677074 0.9155 0.9160 0.9160 0.9160 0.9160
3122.743585 0.9160 0.9160 0.9160 0.9160 0.9160
3127.810097 0.9160 0.9160 0.9160 0.9160 0.9156
3132.876608 0.9151 0.9150 0.9150 0.9150 0.9150
3137.943120 0.9154 0.9159 0.9160 0.9160 0.9156
3143.009631 0.9151 0.9150 0.9150 0.9146 0.9141
3148.076143 0.9140 0.9140 0.9140 0.9140 0.9144
3153.142654 0.9149 0.9150 0.9150 0.9150 0.9150
3158.209165 0.9150 0.9150 0.9146 0.9141 0.9140
3163.275677 0.9140 0.9136 0.9131 0.9130 0.9130
3168.342188 0.9130 0.9130 0.9130 0.9130 0.9130
3173.408700 0.9130 0.9134 0.9139 0.9140 0.9140
3178.475211 0.9148 0.9158 0.9160 0.9160 0.9168
3183.541722 0.9178 0.9184 0.9189 0.9190 0.9190
3188.608234 0.9194 0.9199 0.9204 0.9209 0.9218
3193.674745 0.9228 0.9234 0.9239 0.9244 0.9249
3198.741257 0.9250 0.9250 0.9254 0.9259 0.9260
3203.807768 0.9260 0.9264 0.9269 0.9270 0.9270
3208.874280 0.9277 0.9287 0.9294 0.9299 0.9304
3213.940791 0.9309 0.9310 0.9310 0.9314 0.9319
3219.007302 0.9320 0.9320 0.9327 0.9337 0.9340
3224.073814 0.9340 0.9340 0.9340 0.9340 0.9340
3229.140325 0.9343 0.9348 0.9350 0.9350 0.9350
3234.206837 0.9350 0.9353 0.9358 0.9360 0.9360
3239.273348 0.9363 0.9368 0.9373 0.9378 0.9377
3244.339860 0.9372 0.9373 0.9378 0.9380 0.9380
3249.406371 0.9380 0.9380 0.9380 0.9380 0.9383
3254.472882 0.9388 0.9390 0.9390 0.9390 0.9390
3259.539394 0.9390 0.9390 0.9390 0.9390 0.9390
3264.605905 0.9390 0.9393 0.9398 0.9400 0.9400
3269.672417 0.9400 0.9400 0.9400 0.9400 0.9400
3274.738928 0.9400 0.9400 0.9400 0.9400 0.9400
3279.805439 0.9400 0.9400 0.9400 0.9400 0.9400
3284.871951 0.9400 0.9400 0.9400 0.9400 0.9400
3289.938462 0.9400 0.9400 0.9403 0.9408 0.9410
3295.004974 0.9410 0.9413 0.9418 0.9420 0.9420
3300.071485 0.9420 0.9420 0.9420 0.9420 0.9420
3305.137997 0.9420 0.9417 0.9412 0.9410 0.9410
3310.204508 0.9410 0.9410 0.9410 0.9410 0.9410
3315.271019 0.9410 0.9413 0.9418 0.9417 0.9412
3320.337531 0.9410 0.9410 0.9407 0.9402 0.9400
3325.404042 0.9400 0.9403 0.9408 0.9410 0.9410
3330.470554 0.9413 0.9417 0.9420 0.9420 0.9420
3335.537065 0.9420 0.9420 0.9420 0.9420 0.9420
3340.603576 0.9422 0.9427 0.9430 0.9430 0.9430
3345.670088 0.9430 0.9430 0.9430 0.9430 0.9430
3350.736599 0.9430 0.9430 0.9430 0.9430 0.9432
3355.803111 0.9437 0.9440 0.9440 0.9440 0.9440
3360.869622 0.9440 0.9440 0.9440 0.9440 0.9442
3365.936134 0.9447 0.9448 0.9443 0.9440 0.9440
3371.002645 0.9440 0.9440 0.9440 0.9440 0.9440
3376.069156 0.9440 0.9442 0.9447 0.9450 0.9450
3381.135668 0.9448 0.9443 0.9440 0.9440 0.9440
3386.202179 0.9440 0.9440 0.9440 0.9440 0.9440
3391.268691 0.9438 0.9433 0.9430 0.9430 0.9428
3396.335202 0.9423 0.9418 0.9413 0.9406 0.9396
3401.401713 0.9388 0.9383 0.9380 0.9380 0.9378
3406.468225 0.9373 0.9365 0.9350 0.9335 0.9320
3411.534736 0.9303 0.9283 0.9265 0.9250 0.9235
3416.601248 0.9220 0.9205 0.9190 0.9175 0.9160
3421.667759 0.9147 0.9137 0.9127 0.9117 0.9108
3426.734271 0.9103 0.9098 0.9093 0.9092 0.9097
3431.800782 0.9102 0.9107 0.9115 0.9130 0.9143
3436.867293 0.9153 0.9163 0.9173 0.9181 0.9186
3441.933805 0.9193 0.9203 0.9214 0.9229 0.9243
3447.000316 0.9253 0.9261 0.9266 0.9273 0.9283
3452.066828 0.9291 0.9296 0.9301 0.9306 0.9314
3457.133339 0.9329 0.9344 0.9359 0.9373 0.9383
3462.199850 0.9393 0.9403 0.9411 0.9416 0.9423
3467.266362 0.9433 0.9441 0.9446 0.9451 0.9456
3472.332873 0.9461 0.9466 0.9471 0.9476 0.9480
3477.399385 0.9480 0.9481 0.9486 0.9490 0.9490
3482.465896 0.9490 0.9490 0.9490 0.9490 0.9490
3487.532408 0.9490 0.9490 0.9490 0.9490 0.9490
3492.598919 0.9490 0.9490 0.9490 0.9490 0.9490
3497.665430 0.9490 0.9490 0.9490 0.9490 0.9490
3502.731942 0.9490 0.9490 0.9490 0.9490 0.9490
3507.798453 0.9490 0.9490 0.9490 0.9490 0.9490
3512.864965 0.9490 0.9490 0.9490 0.9490 0.9490
3517.931476 0.9490 0.9490 0.9490 0.9490 0.9490
3522.997987 0.9490 0.9490 0.9490 0.9490 0.9490
3528.064499 0.9490 0.9490 0.9490 0.9490 0.9490
3533.131010 0.9490 0.9490 0.9490 0.9490 0.9491
3538.197522 0.9496 0.9500 0.9500 0.9499 0.9489
3543.264033 0.9480 0.9480 0.9480 0.9480 0.9480
3548.330545 0.9480 0.9480 0.9480 0.9480 0.9480
3553.397056 0.9480 0.9480 0.9480 0.9480 0.9480
3558.463567 0.9480 0.9480 0.9485 0.9490 0.9490
3563.530079 0.9490 0.9495 0.9501 0.9511 0.9522
3568.596590 0.9547 0.9571 0.9586 0.9601 0.9616
3573.663102 0.9630 0.9635 0.9640 0.9635 0.9629
3578.729613 0.9594 0.9559 0.9524 0.9490 0.9485
3583.796124 0.9480 0.9480 0.9480 0.9480 0.9480
3588.862636 0.9480 0.9480 0.9480 0.9480 0.9480
3593.929147 0.9480 0.9485 0.9490 0.9495 0.9500
3598.995659 0.9495 0.9490 0.9495 0.9500 0.9495
3604.062170 0.9490 0.9490 0.9490 0.9490 0.9490
3609.128682 0.9490 0.9490 0.9490 0.9490 0.9490
3614.195193 0.9490 0.9485 0.9480 0.9485 0.9490
3619.261704 0.9490 0.9490 0.9490 0.9490 0.9490
3624.328216 0.9490 0.9490 0.9490 0.9490 0.9490
3629.394727 0.9485 0.9480 0.9475 0.9470 0.9465
3634.461239 0.9460 0.9460 0.9460 0.9474 0.9489
3639.527750 0.9490 0.9490 0.9481 0.9471 0.9470
3644.594261 0.9470 0.9465 0.9460 0.9460 0.9460
3649.660773 0.9460 0.9460 0.9460 0.9460 0.9465
3654.727284 0.9469 0.9470 0.9470 0.9474 0.9479
3659.793796 0.9480 0.9480 0.9480 0.9480 0.9467
3664.860307 0.9452 0.9441 0.9431 0.9426 0.9421
3669.926819 0.9424 0.9429 0.9439 0.9449 0.9454
3674.993330 0.9459 0.9464 0.9469 0.9478 0.9488
3680.059841 0.9490 0.9490 0.9473 0.9453 0.9450
3685.126353 0.9450 0.9454 0.9459 0.9460 0.9460
3690.192864 0.9460 0.9460 0.9460 0.9460 0.9460
3695.259376 0.9460 0.9460 0.9460 0.9460 0.9460
3700.325887 0.9460 0.9460 0.9456 0.9451 0.9446
3705.392398 0.9441 0.9444 0.9449 0.9450 0.9450
3710.458910 0.9454 0.9459 0.9460 0.9460 0.9460
3715.525421 0.9460 0.9460 0.9460 0.9460 0.9460
3720.591933 0.9460 0.9460 0.9460 0.9460 0.9460
3725.658444 0.9460 0.9460 0.9460 0.9460 0.9460
3730.724956 0.9460 0.9460 0.9468 0.9478 0.9484
3735.791467 0.9489 0.9490 0.9490 0.9490 0.9490
3740.857978 0.9479 0.9464 0.9456 0.9451 0.9450
3745.924490 0.9450 0.9450 0.9450 0.9454 0.9459
3750.991001 0.9467 0.9477 0.9480 0.9480 0.9480
3756.057513 0.9480 0.9484 0.9489 0.9490 0.9490
3761.124024 0.9487 0.9482 0.9480 0.9480 0.9480
3766.190535 0.9480 0.9480 0.9480 0.9480 0.9480
3771.257047 0.9480 0.9480 0.9483 0.9488 0.9490
3776.323558 0.9490 0.9493 0.9498 0.9500 0.9500
3781.390070 0.9487 0.9467 0.9460 0.9460 0.9470
3786.456581 0.9485 0.9490 0.9490 0.9490 0.9490
3791.523093 0.9490 0.9490 0.9490 0.9490 0.9490
3796.589604 0.9490 0.9490 0.9490 0.9493 0.9498
3801.656115 0.9497 0.9492 0.9490 0.9490 0.9490
3806.722627 0.9490 0.9487 0.9482 0.9480 0.9480
3811.789138 0.9477 0.9472 0.9470 0.9470 0.9476
3816.855650 0.9486 0.9490 0.9490 0.9490 0.9490
3821.922161 0.9490 0.9490 0.9490 0.9490 0.9484
3826.988673 0.9474 0.9470 0.9470 0.9467 0.9462
3832.055184 0.9460 0.9460 0.9468 0.9483 0.9493
3837.121695 0.9498 0.9500 0.9500 0.9500 0.9500
3842.188207 0.9492 0.9477 0.9470 0.9470 0.9465
3847.254718 0.9455 0.9450 0.9450 0.9455 0.9465
3852.321230 0.9475 0.9485 0.9493 0.9498 0.9500
3857.387741 0.9500 0.9500 0.9500 0.9495 0.9485
3862.454252 0.9477 0.9473 0.9470 0.9470 0.9470
3867.520764 0.9470 0.9470 0.9470 0.9470 0.9470
3872.587275 0.9470 0.9470 0.9470 0.9470 0.9470
3877.653787 0.9470 0.9470 0.9470 0.9470 0.9470
3882.720298 0.9470 0.9470 0.9470 0.9470 0.9472
3887.786810 0.9477 0.9480 0.9480 0.9480 0.9480
3892.853321 0.9482 0.9487 0.9492 0.9497 0.9498
3897.919832 0.9493 0.9492 0.9497 0.9498 0.9493
3902.986344 0.9490 0.9490 0.9486 0.9476 0.9470
3908.052855 0.9470 0.9470 0.9470 0.9470 0.9470
3913.119367 0.9474 0.9484 0.9490 0.9490 0.9492
3918.185878 0.9497 0.9502 0.9507 0.9510 0.9510
3923.252389 0.9510 0.9510 0.9510 0.9510 0.9510
3928.318901 0.9510 0.9510 0.9510 0.9510 0.9510
3933.385412 0.9510 0.9510 0.9506 0.9496 0.9494
3938.451924 0.9504 0.9512 0.9517 0.9520 0.9520
3943.518435 0.9520 0.9520 0.9520 0.9520 0.9520
3948.584947 0.9520 0.9520 0.9520 0.9520 0.9520
3953.651458 0.9520 0.9520 0.9520 0.9520 0.9518
3958.717969 0.9513 0.9510 0.9510 0.9508 0.9503
3963.784481 0.9498 0.9493 0.9490 0.9490 0.9490
3968.850992 0.9490 0.9490 0.9490 0.9488 0.9483
3973.917504 0.9480 0.9480 0.9480 0.9480 0.9480
3978.984015 0.9480 0.9483 0.9493 0.9500 0.9500
3984.050526 0.9499 0.9494 0.9490 0.9490 0.9490
3989.117038 0.9490 0.9490 0.9490
##END=
