##TITLE=OCTANOIC ACID, PENTADECAFLUORO-, SODIUM SALT
##JCAMP-DX=4.24
##DATA TYPE=INFRARED SPECTRUM
##CLASS=COBLENTZ III
##ORIGIN=DOW CHEMICAL COMPANY
##OWNER=COBLENTZ SOCIETY
Collection (C) 2018 copyright by the U.S. Secretary of Commerce
on behalf of the United States of America. All rights reserved.
##DATE=1967/02/13
##MOLFORM=C8 F15 O2 Na
##SOURCE REFERENCE=COBLENTZ NO. 10313
##$NIST ID=B6010313
##$NIST SOURCE=COBLENTZ
##$NIST IMAGE=cob10313
##SPECTROMETER/DATA SYSTEM=DOW KBr FOREPRISM-GRATING
##INSTRUMENT PARAMETERS=BLAZED AT 3.5, 12.0, 20.0 MICRON, CHANGED AT 5.0, 7.5, 14.9 MICRON
##STATE=SOLID (SPLIT MULL, FLUOROLUBE FOR 3800-1333 AND NUJOL FOR 1333-400 CM ^-^1)
##SAMPLING PROCEDURE=TRANSMISSION
##RESOLUTION=4
##DATA PROCESSING=DIGITIZED BY NIST FROM HARD COPY (FROM TWO SEGMENTS)
##XUNITS=1/CM
##YUNITS=TRANSMITTANCE
##XFACTOR=1.000000
##YFACTOR=1
##DELTAX=0.874638
##FIRSTX=400.292
##LASTX=3803.51
##FIRSTY=0.702
##MAXX=3803.51
##MINX=400.292
##MAXY=1.047
##MINY=0.071
##NPOINTS=3892
##XYDATA=(X++(Y..Y))
400.292000 0.7020 0.7000 0.7000 0.6990 0.6990
404.665188 0.6980 0.6980 0.6960 0.6960 0.6980
409.038375 0.7020 0.7060 0.7090 0.7170 0.7180
413.411563 0.7260 0.7340 0.7430 0.7510 0.7600
417.784750 0.7690 0.7770 0.7850 0.7930 0.8000
422.157938 0.8040 0.8080 0.8120 0.8150 0.8210
426.531126 0.8300 0.8340 0.8440 0.8490 0.8570
430.904313 0.8640 0.8670 0.8680 0.8720 0.8780
435.277501 0.8810 0.8870 0.8900 0.8970 0.9010
439.650688 0.9040 0.9070 0.9070 0.9080 0.9110
444.023876 0.9120 0.9160 0.9200 0.9230 0.9260
448.397064 0.9280 0.9350 0.9410 0.9420 0.9420
452.770251 0.9420 0.9420 0.9430 0.9450 0.9460
457.143439 0.9490 0.9520 0.9560 0.9590 0.9600
461.516626 0.9600 0.9600 0.9610 0.9610 0.9630
465.889814 0.9640 0.9670 0.9680 0.9680 0.9690
470.263002 0.9690 0.9690 0.9670 0.9670 0.9680
474.636189 0.9720 0.9740 0.9760 0.9780 0.9820
479.009377 0.9860 0.9890 0.9900 0.9910 0.9950
483.382565 0.9950 0.9970 1.0000 1.0010 1.0010
487.755752 1.0040 1.0040 1.0040 1.0050 1.0060
492.128940 1.0080 1.0090 1.0100 1.0100 1.0120
496.502127 1.0120 1.0120 1.0130 1.0130 1.0130
500.875315 1.0130 1.0130 1.0120 1.0100 1.0090
505.248503 1.0090 1.0090 1.0080 1.0060 1.0040
509.621690 1.0040 1.0020 1.0010 0.9980 0.9940
513.994878 0.9900 0.9840 0.9780 0.9710 0.9640
518.368065 0.9560 0.9460 0.9350 0.9260 0.9150
522.741253 0.9050 0.8940 0.8820 0.8680 0.8550
527.114441 0.8380 0.8191 0.7971 0.7801 0.7770
531.487628 0.7810 0.7950 0.8040 0.8290 0.8570
535.860816 0.8720 0.8850 0.8900 0.9079 0.9130
540.234003 0.9150 0.9150 0.9150 0.9130 0.9090
544.607191 0.9030 0.8920 0.8830 0.8740 0.8670
548.980379 0.8590 0.8490 0.8460 0.8450 0.8440
553.353566 0.8440 0.8420 0.8420 0.8400 0.8290
557.726754 0.7840 0.7560 0.7400 0.7390 0.7400
562.099941 0.7620 0.7780 0.8109 0.8409 0.8559
566.473129 0.8750 0.8820 0.9080 0.9220 0.9370
570.846317 0.9450 0.9530 0.9600 0.9690 0.9750
575.219504 0.9780 0.9800 0.9840 0.9900 0.9940
579.592692 0.9950 0.9970 0.9940 0.9930 0.9910
583.965879 0.9890 0.9860 0.9830 0.9800 0.9790
588.339067 0.9800 0.9820 0.9860 0.9890 0.9910
592.712255 0.9930 0.9950 0.9970 0.9970 0.9980
597.085442 0.9980 0.9950 0.9890 0.9860 0.9780
601.458630 0.9760 0.9750 0.9710 0.9680 0.9670
605.831817 0.9650 0.9650 0.9640 0.9640 0.9630
610.205005 0.9630 0.9610 0.9610 0.9610 0.9600
614.578193 0.9600 0.9600 0.9590 0.9570 0.9560
618.951380 0.9500 0.9430 0.9370 0.9350 0.9330
623.324568 0.9300 0.9230 0.9190 0.9130 0.9110
627.697756 0.9070 0.9010 0.8960 0.8870 0.8850
632.070943 0.8820 0.8750 0.8680 0.8600 0.8530
636.444131 0.8490 0.8440 0.8400 0.8360 0.8340
640.817318 0.8330 0.8330 0.8330 0.8340 0.8440
645.190506 0.8520 0.8600 0.8640 0.8890 0.9239
649.563694 0.9350 0.9420 0.9450 0.9460 0.9490
653.936881 0.9460 0.9380 0.9260 0.9050 0.8551
658.310069 0.8400 0.8141 0.7661 0.7431 0.7171
662.683256 0.7040 0.6910 0.6760 0.6680 0.6550
667.056444 0.6540 0.7109 0.7549 0.7839 0.7890
671.429632 0.7930 0.8030 0.8150 0.8250 0.8360
675.802819 0.8520 0.8620 0.8750 0.8889 0.8940
680.176007 0.9030 0.9040 0.9050 0.9070 0.9090
684.549194 0.9110 0.9130 0.9240 0.9409 0.9559
688.922382 0.9680 0.9720 0.9790 0.9820 0.9900
693.295570 0.9930 0.9940 0.9970 0.9970 0.9950
697.668757 0.9950 0.9940 0.9910 0.9910 0.9900
702.041945 0.9900 0.9900 0.9890 0.9890 0.9860
706.415132 0.9830 0.9800 0.9760 0.9710 0.9610
710.788320 0.9570 0.9520 0.9410 0.9330 0.9300
715.161508 0.9190 0.9010 0.8900 0.8710 0.8630
719.534695 0.8460 0.8310 0.8100 0.7950 0.7950
723.907883 0.8420 0.8530 0.8560 0.8600 0.8600
728.281070 0.8590 0.8530 0.8520 0.8520 0.8560
732.654258 0.8560 0.8300 0.8040 0.7950 0.7770
737.027446 0.7770 0.8209 0.8360 0.8589 0.8939
741.400633 0.9050 0.9150 0.9230 0.9260 0.9310
745.773821 0.9310 0.9270 0.9160 0.9040 0.8980
750.147008 0.9000 0.9050 0.9110 0.9150 0.9300
754.520196 0.9500 0.9799 0.9900 1.0000 1.0040
758.893384 1.0090 1.0100 1.0100 1.0120 1.0130
763.266571 1.0130 1.0150 1.0150 1.0150 1.0160
767.639759 1.0160 1.0150 1.0150 1.0150 1.0150
772.012947 1.0120 1.0010 0.9840 0.9680 0.9560
776.386134 0.9560 0.9610 0.9670 0.9790 0.9840
780.759322 0.9840 1.0040 1.0150 1.0200 1.0210
785.132509 1.0230 1.0240 1.0230 1.0160 1.0090
789.505697 1.0040 1.0000 1.0000 0.9980 1.0000
793.878885 1.0010 1.0020 1.0040 1.0100 1.0200
798.252072 1.0230 1.0240 1.0240 1.0240 1.0230
802.625260 1.0210 1.0150 1.0080 1.0040 1.0010
806.998447 1.0000 1.0000 0.9980 0.9970 0.9950
811.371635 0.9910 0.9860 0.9780 0.9740 0.9600
815.744823 0.9480 0.9270 0.8721 0.8191 0.7582
820.118010 0.7260 0.6950 0.6370 0.5750 0.5430
824.491198 0.5430 0.5600 0.6308 0.7257 0.8485
828.864385 0.8971 0.9350 0.9460 0.9600 0.9750
833.237573 0.9830 0.9910 1.0010 1.0020 1.0060
837.610761 1.0100 1.0130 1.0150 1.0150 1.0160
841.983948 1.0170 1.0200 1.0210 1.0230 1.0230
846.357136 1.0250 1.0280 1.0300 1.0310 1.0320
850.730323 1.0340 1.0360 1.0380 1.0400 1.0420
855.103511 1.0420 1.0430 1.0450 1.0460 1.0460
859.476699 1.0470 1.0470 1.0470 1.0470 1.0470
863.849886 1.0470 1.0470 1.0470 1.0470 1.0470
868.223074 1.0470 1.0470 1.0470 1.0470 1.0470
872.596261 1.0470 1.0470 1.0470 1.0470 1.0470
876.969449 1.0470 1.0460 1.0460 1.0400 1.0390
881.342637 1.0350 1.0340 1.0250 1.0200 1.0080
885.715824 1.0040 0.9980 0.9790 0.9600 0.9411
890.089012 0.9310 0.9310 0.9390 0.9600 0.9800
894.462200 0.9890 1.0000 1.0010 1.0020 1.0090
898.835387 1.0130 1.0150 1.0150 1.0160 1.0160
903.208575 1.0170 1.0170 1.0170 1.0170 1.0190
907.581762 1.0190 1.0170 1.0160 1.0150 1.0120
911.954950 1.0090 1.0020 1.0010 1.0000 0.9970
916.328138 0.9930 0.9890 0.9870 0.9870 0.9900
920.701325 0.9930 0.9970 1.0000 1.0010 1.0020
925.074513 1.0020 1.0040 1.0050 1.0060 1.0060
929.447700 1.0060 1.0060 1.0080 1.0080 1.0090
933.820888 1.0090 1.0090 1.0090 1.0100 1.0100
938.194076 1.0100 1.0100 1.0120 1.0120 1.0120
942.567263 1.0120 1.0120 1.0120 1.0120 1.0120
946.940451 1.0130 1.0130 1.0120 1.0090 1.0090
951.313638 1.0080 1.0080 1.0080 1.0060 1.0060
955.686826 1.0050 1.0050 1.0040 1.0040 1.0040
960.060014 1.0020 1.0020 1.0010 1.0000 1.0000
964.433201 0.9980 0.9980 0.9970 0.9970 0.9930
968.806389 0.9890 0.9860 0.9830 0.9820 0.9800
973.179576 0.9780 0.9720 0.9670 0.9590 0.9540
977.552764 0.9520 0.9380 0.9200 0.9010 0.8860
981.925952 0.8770 0.8620 0.8480 0.8360 0.8270
986.299139 0.8230 0.8230 0.8360 0.8660 0.9070
990.672327 0.9240 0.9370 0.9520 0.9590 0.9720
995.045514 0.9780 0.9790 0.9790 0.9800 0.9840
999.418702 0.9860 0.9860 0.9860 0.9840 0.9800
1003.791890 0.9750 0.9570 0.9450 0.9280 0.9160
1008.165077 0.9000 0.8970 0.8970 0.8980 0.9000
1012.538265 0.9010 0.8999 0.8310 0.8070 0.7840
1016.911452 0.7600 0.7370 0.7140 0.7140 0.7629
1021.284640 0.8121 0.8510 0.8640 0.9010 0.9160
1025.657828 0.9310 0.9410 0.9460 0.9590 0.9650
1030.031015 0.9740 0.9760 0.9780 0.9780 0.9790
1034.404203 0.9800 0.9820 0.9820 0.9830 0.9830
1038.777391 0.9820 0.9820 0.9830 0.9830 0.9830
1043.150578 0.9830 0.9840 0.9860 0.9860 0.9870
1047.523766 0.9870 0.9870 0.9840 0.9840 0.9820
1051.896953 0.9800 0.9790 0.9790 0.9790 0.9790
1056.270141 0.9790 0.9790 0.9790 0.9790 0.9780
1060.643329 0.9780 0.9760 0.9750 0.9690 0.9630
1065.016516 0.9570 0.9540 0.9520 0.9500 0.9490
1069.389704 0.9500 0.9520 0.9530 0.9530 0.9540
1073.762891 0.9540 0.9540 0.9540 0.9540 0.9540
1078.136079 0.9540 0.9540 0.9540 0.9540 0.9540
1082.509267 0.9530 0.9490 0.9460 0.9430 0.9390
1086.882454 0.9350 0.9350 0.9340 0.9330 0.9330
1091.255642 0.9310 0.9300 0.9220 0.9160 0.9110
1095.628829 0.9070 0.8970 0.8810 0.8561 0.8071
1100.002017 0.7499 0.7030 0.6990 0.6930 0.6780
1104.375205 0.6460 0.5901 0.5900 0.6020 0.7277
1108.748392 0.7770 0.7900 0.7970 0.8000 0.8010
1113.121580 0.8030 0.8010 0.7950 0.7820 0.7710
1117.494767 0.7580 0.7410 0.7190 0.7070 0.6930
1121.867955 0.6620 0.6240 0.5791 0.5271 0.5021
1126.241143 0.4429 0.3830 0.3710 0.3600 0.3440
1130.614330 0.3420 0.3420 0.3440 0.3460 0.3480
1134.987518 0.3480 0.3450 0.3379 0.3000 0.2660
1139.360705 0.2360 0.2100 0.1850 0.1630 0.1440
1143.733893 0.1240 0.1050 0.1020 0.0980 0.0870
1148.107081 0.0830 0.0800 0.0760 0.0730 0.0720
1152.480268 0.0730 0.0800 0.1010 0.1160 0.1330
1156.853456 0.1510 0.1730 0.1980 0.2240 0.2549
1161.226643 0.2890 0.2991 0.3211 0.3510 0.3750
1165.599831 0.4200 0.4370 0.4500 0.4570 0.4680
1169.973019 0.4760 0.4760 0.4740 0.4650 0.4560
1174.346206 0.4460 0.4350 0.4180 0.4080 0.3980
1178.719394 0.3850 0.3790 0.3710 0.3600 0.3490
1183.092582 0.3400 0.3290 0.3160 0.3070 0.2960
1187.465769 0.2850 0.2690 0.2520 0.2360 0.2210
1191.838957 0.2040 0.1910 0.1760 0.1620 0.1500
1196.212144 0.1370 0.1280 0.1170 0.1090 0.1020
1200.585332 0.0990 0.0960 0.0920 0.0900 0.0880
1204.958520 0.0840 0.0810 0.0800 0.0770 0.0760
1209.331707 0.0750 0.0750 0.0760 0.0770 0.0800
1213.704895 0.0830 0.1010 0.1050 0.1050 0.1130
1218.078082 0.1180 0.1240 0.1270 0.1310 0.1320
1222.451270 0.1350 0.1370 0.1390 0.1420 0.1440
1226.824458 0.1440 0.1460 0.1460 0.1460 0.1460
1231.197645 0.1440 0.1440 0.1420 0.1390 0.1370
1235.570833 0.1350 0.1350 0.1330 0.1350 0.1370
1239.944020 0.1420 0.1460 0.1510 0.1550 0.1620
1244.317208 0.1730 0.1770 0.1800 0.1830 0.1880
1248.690396 0.1980 0.2040 0.2100 0.2170 0.2220
1253.063583 0.2280 0.2340 0.2410 0.2470 0.2540
1257.436771 0.2600 0.2670 0.2750 0.2820 0.2930
1261.809958 0.3030 0.3110 0.3190 0.3290 0.3370
1266.183146 0.3460 0.3550 0.3660 0.3770 0.4000
1270.556334 0.4120 0.4230 0.4310 0.4420 0.4560
1274.929521 0.4650 0.4740 0.4790 0.4830 0.4870
1279.302709 0.4930 0.4970 0.5020 0.5040 0.5100
1283.675896 0.5160 0.5240 0.5270 0.5300 0.5340
1288.049084 0.5360 0.5400 0.5430 0.5460 0.5490
1292.422272 0.5510 0.5530 0.5530 0.5540 0.5560
1296.795459 0.5560 0.5560 0.5570 0.5570 0.5580
1301.168647 0.5600 0.5640 0.5660 0.5730 0.5860
1305.541834 0.5980 0.6030 0.6070 0.6170 0.6200
1309.915022 0.6280 0.6330 0.6420 0.6430 0.6430
1314.288210 0.6440 0.6440 0.6440 0.6440 0.6440
1318.661397 0.6400 0.6350 0.6250 0.6170 0.6100
1323.034585 0.6060 0.5990 0.5980 0.5990 0.6090
1327.407773 0.6181 0.6351 0.6540 0.6740 0.6910
1331.780960 0.6920 0.6930 0.7000 0.7020 0.7040
1336.154148 0.7040 0.7040 0.7040 0.7040 0.7040
1340.527335 0.7040 0.7040 0.7040 0.7060 0.7060
1344.900523 0.7060 0.7070 0.7090 0.7130 0.7170
1349.273711 0.7180 0.7240 0.7250 0.7250 0.7260
1353.646898 0.7260 0.7260 0.7250 0.7240 0.7170
1358.020086 0.7030 0.6920 0.6810 0.6530 0.6021
1362.393273 0.5619 0.5360 0.5360 0.5450 0.5600
1366.766461 0.5720 0.6010 0.6390 0.7219 0.7430
1371.139649 0.7580 0.7670 0.7770 0.7880 0.7950
1375.512836 0.7970 0.7990 0.8080 0.8100 0.8150
1379.886024 0.8190 0.8220 0.8260 0.8290 0.8300
1384.259211 0.8310 0.8310 0.8330 0.8330 0.8330
1388.632399 0.8340 0.8340 0.8360 0.8370 0.8380
1393.005587 0.8380 0.8370 0.8370 0.8370 0.8360
1397.378774 0.8340 0.8300 0.8210 0.8180 0.8150
1401.751962 0.8100 0.8000 0.7850 0.7740 0.7630
1406.125149 0.7469 0.7279 0.7060 0.6960 0.6870
1410.498337 0.6720 0.6620 0.6550 0.6430 0.6310
1414.871525 0.6170 0.6060 0.5960 0.5880 0.5770
1419.244712 0.5660 0.5560 0.5490 0.5470 0.5460
1423.617900 0.5460 0.5470 0.5600 0.5690 0.5840
1427.991087 0.6060 0.6290 0.6540 0.6760 0.7099
1432.364275 0.7280 0.7440 0.7590 0.7730 0.7850
1436.737463 0.7970 0.8080 0.8180 0.8270 0.8370
1441.110650 0.8410 0.8480 0.8510 0.8530 0.8550
1445.483838 0.8570 0.8600 0.8600 0.8640 0.8700
1449.857025 0.8740 0.8750 0.8770 0.8780 0.8790
1454.230213 0.8810 0.8810 0.8810 0.8810 0.8820
1458.603401 0.8850 0.8870 0.8890 0.8900 0.8920
1462.976588 0.8920 0.8930 0.8930 0.8960 0.8980
1467.349776 0.9000 0.9030 0.9040 0.9070 0.9080
1471.722964 0.9090 0.9110 0.9130 0.9150 0.9150
1476.096151 0.9160 0.9180 0.9180 0.9180 0.9190
1480.469339 0.9200 0.9200 0.9220 0.9220 0.9230
1484.842526 0.9230 0.9240 0.9240 0.9240 0.9240
1489.215714 0.9260 0.9260 0.9260 0.9260 0.9270
1493.588902 0.9270 0.9270 0.9270 0.9270 0.9270
1497.962089 0.9280 0.9280 0.9280 0.9280 0.9280
1502.335277 0.9280 0.9300 0.9300 0.9300 0.9300
1506.708464 0.9300 0.9300 0.9310 0.9310 0.9310
1511.081652 0.9310 0.9330 0.9330 0.9330 0.9340
1515.454840 0.9350 0.9350 0.9350 0.9350 0.9350
1519.828027 0.9350 0.9350 0.9350 0.9370 0.9370
1524.201215 0.9370 0.9380 0.9390 0.9390 0.9410
1528.574402 0.9410 0.9410 0.9420 0.9430 0.9430
1532.947590 0.9430 0.9430 0.9450 0.9450 0.9450
1537.320778 0.9450 0.9450 0.9450 0.9450 0.9450
1541.693965 0.9450 0.9450 0.9450 0.9450 0.9450
1546.067153 0.9450 0.9450 0.9450 0.9460 0.9460
1550.440340 0.9480 0.9480 0.9480 0.9480 0.9490
1554.813528 0.9490 0.9490 0.9490 0.9490 0.9490
1559.186716 0.9490 0.9490 0.9480 0.9490 0.9490
1563.559903 0.9490 0.9490 0.9490 0.9490 0.9490
1567.933091 0.9490 0.9500 0.9500 0.9520 0.9520
1572.306278 0.9530 0.9530 0.9530 0.9530 0.9530
1576.679466 0.9530 0.9540 0.9540 0.9540 0.9540
1581.052654 0.9540 0.9540 0.9540 0.9540 0.9540
1585.425841 0.9540 0.9540 0.9540 0.9540 0.9540
1589.799029 0.9540 0.9540 0.9540 0.9540 0.9540
1594.172217 0.9540 0.9540 0.9540 0.9540 0.9540
1598.545404 0.9540 0.9530 0.9530 0.9530 0.9530
1602.918592 0.9530 0.9530 0.9530 0.9530 0.9530
1607.291779 0.9520 0.9520 0.9520 0.9500 0.9500
1611.664967 0.9490 0.9490 0.9480 0.9480 0.9460
1616.038155 0.9460 0.9460 0.9460 0.9450 0.9430
1620.411342 0.9420 0.9410 0.9410 0.9410 0.9410
1624.784530 0.9390 0.9390 0.9390 0.9370 0.9350
1629.157717 0.9340 0.9330 0.9300 0.9270 0.9230
1633.530905 0.9200 0.9160 0.9110 0.9030 0.8970
1637.904093 0.8940 0.8860 0.8820 0.8810 0.8820
1642.277280 0.8830 0.8860 0.8870 0.8890 0.8900
1646.650468 0.8920 0.8920 0.8920 0.8920 0.8900
1651.023655 0.8870 0.8850 0.8810 0.8780 0.8770
1655.396843 0.8720 0.8700 0.8620 0.8590 0.8520
1659.770031 0.8450 0.8340 0.8310 0.8190 0.8060
1664.143218 0.7950 0.7860 0.7770 0.7690 0.7600
1668.516406 0.7429 0.7239 0.7030 0.6960 0.6890
1672.889593 0.6850 0.6690 0.6420 0.6100 0.5900
1677.262781 0.5509 0.5038 0.4459 0.4160 0.3849
1681.635969 0.3230 0.2660 0.2150 0.1760 0.1550
1686.009156 0.1400 0.1370 0.1290 0.1250 0.1180
1690.382344 0.1060 0.1010 0.0940 0.0840 0.0760
1694.755531 0.0730 0.0720 0.0710 0.0710 0.0721
1699.128719 0.1090 0.1430 0.1700 0.1950 0.2140
1703.501907 0.2331 0.2511 0.2700 0.2890 0.3140
1707.875094 0.3180 0.3530 0.3770 0.4130 0.4300
1712.248282 0.4461 0.4641 0.4800 0.4980 0.5160
1716.621469 0.5340 0.5500 0.5660 0.5840 0.6010
1720.994657 0.6161 0.6321 0.6460 0.6540 0.6630
1725.367845 0.6770 0.6910 0.7000 0.7130 0.7260
1729.741032 0.7360 0.7430 0.7470 0.7540 0.7590
1734.114220 0.7650 0.7770 0.7840 0.7860 0.7920
1738.487408 0.7960 0.8000 0.8080 0.8120 0.8150
1742.860595 0.8180 0.8250 0.8300 0.8310 0.8330
1747.233783 0.8360 0.8380 0.8440 0.8480 0.8490
1751.606970 0.8520 0.8530 0.8550 0.8560 0.8590
1755.980158 0.8600 0.8620 0.8630 0.8640 0.8680
1760.353346 0.8700 0.8710 0.8710 0.8720 0.8740
1764.726533 0.8780 0.8810 0.8820 0.8830 0.8850
1769.099721 0.8850 0.8860 0.8870 0.8890 0.8900
1773.472908 0.8920 0.8930 0.8940 0.8940 0.8960
1777.846096 0.8970 0.8970 0.8970 0.8980 0.9000
1782.219284 0.9010 0.9010 0.9040 0.9040 0.9050
1786.592471 0.9050 0.9070 0.9070 0.9070 0.9080
1790.965659 0.9090 0.9090 0.9110 0.9110 0.9120
1795.338846 0.9120 0.9120 0.9130 0.9130 0.9130
1799.712034 0.9150 0.9150 0.9160 0.9160 0.9180
1804.085222 0.9180 0.9190 0.9190 0.9200 0.9200
1808.458409 0.9220 0.9230 0.9230 0.9230 0.9230
1812.831597 0.9230 0.9240 0.9240 0.9260 0.9260
1817.204784 0.9260 0.9270 0.9270 0.9280 0.9280
1821.577972 0.9300 0.9300 0.9300 0.9300 0.9300
1825.951160 0.9300 0.9310 0.9310 0.9310 0.9310
1830.324347 0.9310 0.9310 0.9330 0.9330 0.9330
1834.697535 0.9330 0.9330 0.9340 0.9340 0.9340
1839.070722 0.9340 0.9350 0.9350 0.9350 0.9350
1843.443910 0.9350 0.9350 0.9370 0.9370 0.9370
1847.817098 0.9370 0.9370 0.9380 0.9380 0.9390
1852.190285 0.9390 0.9390 0.9390 0.9390 0.9390
1856.563473 0.9390 0.9410 0.9410 0.9410 0.9410
1860.936660 0.9410 0.9410 0.9410 0.9410 0.9410
1865.309848 0.9410 0.9410 0.9410 0.9420 0.9420
1869.683036 0.9430 0.9430 0.9450 0.9450 0.9450
1874.056223 0.9450 0.9450 0.9450 0.9460 0.9450
1878.429411 0.9460 0.9480 0.9480 0.9480 0.9480
1882.802599 0.9480 0.9490 0.9490 0.9490 0.9480
1887.175786 0.9490 0.9490 0.9490 0.9500 0.9500
1891.548974 0.9500 0.9520 0.9520 0.9520 0.9520
1895.922161 0.9520 0.9520 0.9520 0.9530 0.9530
1900.295349 0.9540 0.9540 0.9540 0.9540 0.9540
1904.668537 0.9540 0.9530 0.9540 0.9540 0.9540
1909.041724 0.9540 0.9560 0.9560 0.9560 0.9560
1913.414912 0.9560 0.9560 0.9560 0.9560 0.9570
1917.788099 0.9570 0.9570 0.9570 0.9560 0.9570
1922.161287 0.9570 0.9570 0.9570 0.9590 0.9570
1926.534475 0.9570 0.9590 0.9590 0.9590 0.9590
1930.907662 0.9590 0.9590 0.9590 0.9590 0.9590
1935.280850 0.9590 0.9600 0.9600 0.9600 0.9600
1939.654037 0.9600 0.9600 0.9610 0.9610 0.9610
1944.027225 0.9610 0.9610 0.9610 0.9610 0.9630
1948.400413 0.9630 0.9630 0.9640 0.9630 0.9610
1952.773600 0.9610 0.9610 0.9610 0.9610 0.9610
1957.146788 0.9610 0.9610 0.9610 0.9610 0.9630
1961.519975 0.9630 0.9630 0.9630 0.9630 0.9630
1965.893163 0.9630 0.9630 0.9630 0.9630 0.9640
1970.266351 0.9630 0.9630 0.9630 0.9630 0.9630
1974.639538 0.9630 0.9630 0.9630 0.9630 0.9630
1979.012726 0.9640 0.9630 0.9630 0.9630 0.9630
1983.385913 0.9640 0.9640 0.9630 0.9630 0.9630
1987.759101 0.9630 0.9640 0.9640 0.9640 0.9640
1992.132289 0.9630 0.9630 0.9630 0.9630 0.9630
1996.505476 0.9630 0.9630 0.9630 0.9630 0.9630
2000.878664 0.9635 0.9640 0.9640 0.9640 0.9640
2005.251851 0.9640 0.9640 0.9640 0.9640 0.9640
2009.625039 0.9645 0.9650 0.9645 0.9640 0.9640
2013.998227 0.9640 0.9640 0.9640 0.9640 0.9640
2018.371414 0.9640 0.9640 0.9640 0.9640 0.9640
2022.744602 0.9640 0.9640 0.9640 0.9640 0.9640
2027.117790 0.9640 0.9640 0.9645 0.9650 0.9650
2031.490977 0.9650 0.9650 0.9650 0.9650 0.9650
2035.864165 0.9650 0.9650 0.9650 0.9650 0.9650
2040.237352 0.9650 0.9650 0.9650 0.9650 0.9650
2044.610540 0.9650 0.9650 0.9650 0.9650 0.9650
2048.983728 0.9650 0.9650 0.9650 0.9650 0.9650
2053.356915 0.9650 0.9650 0.9650 0.9650 0.9650
2057.730103 0.9650 0.9646 0.9641 0.9640 0.9640
2062.103290 0.9640 0.9640 0.9640 0.9640 0.9640
2066.476478 0.9640 0.9640 0.9640 0.9640 0.9640
2070.849666 0.9640 0.9640 0.9636 0.9631 0.9621
2075.222853 0.9611 0.9610 0.9610 0.9610 0.9610
2079.596041 0.9610 0.9610 0.9619 0.9629 0.9630
2083.969228 0.9630 0.9630 0.9630 0.9621 0.9611
2088.342416 0.9610 0.9610 0.9610 0.9610 0.9610
2092.715604 0.9610 0.9610 0.9610 0.9610 0.9610
2097.088791 0.9618 0.9628 0.9630 0.9630 0.9630
2101.461979 0.9630 0.9622 0.9612 0.9610 0.9610
2105.835166 0.9610 0.9610 0.9610 0.9610 0.9610
2110.208354 0.9610 0.9610 0.9610 0.9610 0.9610
2114.581542 0.9610 0.9610 0.9610 0.9610 0.9610
2118.954729 0.9610 0.9610 0.9610 0.9610 0.9610
2123.327917 0.9606 0.9601 0.9600 0.9600 0.9600
2127.701104 0.9600 0.9600 0.9600 0.9600 0.9600
2132.074292 0.9600 0.9600 0.9600 0.9600 0.9600
2136.447480 0.9600 0.9600 0.9600 0.9600 0.9600
2140.820667 0.9600 0.9600 0.9600 0.9600 0.9600
2145.193855 0.9600 0.9600 0.9600 0.9600 0.9600
2149.567042 0.9600 0.9600 0.9600 0.9600 0.9600
2153.940230 0.9600 0.9596 0.9591 0.9590 0.9590
2158.313418 0.9590 0.9590 0.9590 0.9590 0.9583
2162.686605 0.9573 0.9570 0.9570 0.9570 0.9570
2167.059793 0.9570 0.9570 0.9570 0.9570 0.9566
2171.432981 0.9561 0.9560 0.9560 0.9560 0.9560
2175.806168 0.9560 0.9560 0.9560 0.9560 0.9560
2180.179356 0.9560 0.9553 0.9543 0.9540 0.9540
2184.552543 0.9540 0.9540 0.9540 0.9540 0.9537
2188.925731 0.9532 0.9530 0.9530 0.9530 0.9530
2193.298919 0.9533 0.9538 0.9537 0.9532 0.9530
2197.672106 0.9530 0.9530 0.9530 0.9527 0.9522
2202.045294 0.9520 0.9520 0.9520 0.9520 0.9514
2206.418481 0.9504 0.9500 0.9500 0.9500 0.9500
2210.791669 0.9500 0.9500 0.9506 0.9516 0.9514
2215.164857 0.9504 0.9500 0.9500 0.9497 0.9492
2219.538044 0.9490 0.9490 0.9487 0.9482 0.9480
2223.911232 0.9480 0.9474 0.9464 0.9457 0.9452
2228.284419 0.9444 0.9434 0.9427 0.9422 0.9417
2232.657607 0.9412 0.9410 0.9410 0.9410 0.9410
2237.030795 0.9404 0.9394 0.9390 0.9390 0.9387
2241.403982 0.9382 0.9380 0.9380 0.9377 0.9372
2245.777170 0.9370 0.9370 0.9364 0.9354 0.9347
2250.150357 0.9342 0.9340 0.9340 0.9340 0.9340
2254.523545 0.9340 0.9340 0.9340 0.9340 0.9340
2258.896733 0.9340 0.9340 0.9340 0.9337 0.9332
2263.269920 0.9330 0.9330 0.9324 0.9314 0.9310
2267.643108 0.9310 0.9307 0.9302 0.9300 0.9300
2272.016295 0.9300 0.9300 0.9295 0.9285 0.9280
2276.389483 0.9280 0.9277 0.9272 0.9270 0.9270
2280.762671 0.9270 0.9270 0.9270 0.9270 0.9270
2285.135858 0.9270 0.9267 0.9262 0.9260 0.9260
2289.509046 0.9260 0.9260 0.9255 0.9245 0.9240
2293.882234 0.9240 0.9238 0.9233 0.9230 0.9230
2298.255421 0.9230 0.9230 0.9230 0.9230 0.9230
2302.628609 0.9230 0.9228 0.9223 0.9220 0.9220
2307.001796 0.9215 0.9205 0.9198 0.9193 0.9190
2311.374984 0.9190 0.9190 0.9190 0.9190 0.9190
2315.748172 0.9190 0.9190 0.9188 0.9183 0.9180
2320.121359 0.9180 0.9180 0.9180 0.9180 0.9180
2324.494547 0.9180 0.9180 0.9180 0.9180 0.9180
2328.867734 0.9180 0.9180 0.9180 0.9180 0.9180
2333.240922 0.9180 0.9180 0.9180 0.9180 0.9180
2337.614110 0.9180 0.9180 0.9180 0.9180 0.9180
2341.987297 0.9180 0.9180 0.9180 0.9180 0.9180
2346.360485 0.9180 0.9182 0.9187 0.9190 0.9190
2350.733672 0.9190 0.9190 0.9190 0.9190 0.9190
2355.106860 0.9190 0.9190 0.9190 0.9190 0.9190
2359.480048 0.9190 0.9190 0.9192 0.9197 0.9200
2363.853235 0.9200 0.9200 0.9200 0.9200 0.9200
2368.226423 0.9204 0.9214 0.9220 0.9220 0.9220
2372.599610 0.9220 0.9220 0.9220 0.9220 0.9220
2376.972798 0.9222 0.9227 0.9232 0.9237 0.9240
2381.345986 0.9240 0.9240 0.9240 0.9240 0.9240
2385.719173 0.9240 0.9240 0.9240 0.9240 0.9244
2390.092361 0.9254 0.9260 0.9260 0.9260 0.9260
2394.465548 0.9260 0.9260 0.9260 0.9260 0.9262
2398.838736 0.9267 0.9270 0.9270 0.9270 0.9270
2403.211924 0.9270 0.9270 0.9270 0.9270 0.9270
2407.585111 0.9270 0.9272 0.9277 0.9280 0.9280
2411.958299 0.9280 0.9280 0.9280 0.9280 0.9283
2416.331486 0.9293 0.9300 0.9300 0.9300 0.9300
2420.704674 0.9300 0.9300 0.9300 0.9300 0.9300
2425.077862 0.9300 0.9300 0.9300 0.9300 0.9300
2429.451049 0.9301 0.9306 0.9310 0.9310 0.9310
2433.824237 0.9310 0.9313 0.9323 0.9327 0.9317
2438.197425 0.9313 0.9323 0.9330 0.9330 0.9330
2442.570612 0.9330 0.9330 0.9330 0.9331 0.9336
2446.943800 0.9340 0.9340 0.9340 0.9340 0.9340
2451.316987 0.9340 0.9340 0.9340 0.9340 0.9340
2455.690175 0.9341 0.9346 0.9350 0.9350 0.9350
2460.063363 0.9350 0.9350 0.9350 0.9350 0.9350
2464.436550 0.9350 0.9350 0.9352 0.9362 0.9370
2468.809738 0.9370 0.9370 0.9370 0.9370 0.9370
2473.182925 0.9370 0.9370 0.9370 0.9370 0.9371
2477.556113 0.9376 0.9380 0.9380 0.9380 0.9380
2481.929301 0.9380 0.9380 0.9380 0.9380 0.9380
2486.302488 0.9380 0.9381 0.9386 0.9390 0.9390
2490.675676 0.9390 0.9390 0.9390 0.9390 0.9392
2495.048863 0.9402 0.9410 0.9410 0.9410 0.9410
2499.422051 0.9410 0.9410 0.9411 0.9416 0.9420
2503.795239 0.9420 0.9420 0.9420 0.9421 0.9426
2508.168426 0.9430 0.9430 0.9430 0.9430 0.9430
2512.541614 0.9430 0.9430 0.9430 0.9430 0.9430
2516.914801 0.9430 0.9430 0.9430 0.9430 0.9430
2521.287989 0.9430 0.9430 0.9430 0.9431 0.9441
2525.661177 0.9451 0.9456 0.9460 0.9460 0.9460
2530.034364 0.9460 0.9460 0.9460 0.9460 0.9460
2534.407552 0.9460 0.9460 0.9460 0.9460 0.9461
2538.780739 0.9471 0.9480 0.9480 0.9480 0.9480
2543.153927 0.9480 0.9480 0.9480 0.9480 0.9480
2547.527115 0.9480 0.9480 0.9480 0.9480 0.9480
2551.900302 0.9480 0.9480 0.9480 0.9480 0.9480
2556.273490 0.9480 0.9480 0.9480 0.9480 0.9480
2560.646677 0.9480 0.9480 0.9480 0.9480 0.9480
2565.019865 0.9485 0.9490 0.9490 0.9490 0.9490
2569.393053 0.9490 0.9490 0.9490 0.9490 0.9490
2573.766240 0.9490 0.9490 0.9490 0.9490 0.9490
2578.139428 0.9490 0.9490 0.9490 0.9495 0.9500
2582.512616 0.9500 0.9500 0.9500 0.9500 0.9500
2586.885803 0.9500 0.9500 0.9500 0.9500 0.9500
2591.258991 0.9500 0.9500 0.9500 0.9500 0.9510
2595.632178 0.9520 0.9520 0.9520 0.9520 0.9520
2600.005366 0.9520 0.9520 0.9520 0.9520 0.9520
2604.378554 0.9520 0.9520 0.9520 0.9525 0.9530
2608.751741 0.9530 0.9530 0.9530 0.9530 0.9530
2613.124929 0.9530 0.9530 0.9530 0.9530 0.9530
2617.498116 0.9530 0.9530 0.9530 0.9530 0.9530
2621.871304 0.9530 0.9530 0.9530 0.9530 0.9530
2626.244492 0.9530 0.9530 0.9530 0.9530 0.9530
2630.617679 0.9530 0.9530 0.9530 0.9530 0.9530
2634.990867 0.9530 0.9530 0.9530 0.9530 0.9530
2639.364054 0.9530 0.9530 0.9530 0.9530 0.9530
2643.737242 0.9530 0.9530 0.9530 0.9530 0.9530
2648.110430 0.9530 0.9530 0.9530 0.9530 0.9530
2652.483617 0.9530 0.9530 0.9530 0.9530 0.9530
2656.856805 0.9530 0.9530 0.9530 0.9530 0.9530
2661.229992 0.9530 0.9530 0.9530 0.9530 0.9526
2665.603180 0.9521 0.9520 0.9520 0.9520 0.9520
2669.976368 0.9520 0.9520 0.9520 0.9520 0.9520
2674.349555 0.9520 0.9520 0.9520 0.9520 0.9520
2678.722743 0.9520 0.9520 0.9520 0.9520 0.9520
2683.095930 0.9520 0.9520 0.9520 0.9520 0.9520
2687.469118 0.9520 0.9520 0.9520 0.9520 0.9520
2691.842306 0.9520 0.9520 0.9520 0.9520 0.9520
2696.215493 0.9520 0.9520 0.9524 0.9529 0.9530
2700.588681 0.9530 0.9530 0.9530 0.9530 0.9530
2704.961868 0.9530 0.9530 0.9530 0.9530 0.9530
2709.335056 0.9530 0.9530 0.9530 0.9530 0.9530
2713.708244 0.9530 0.9530 0.9530 0.9530 0.9530
2718.081431 0.9530 0.9526 0.9521 0.9520 0.9520
2722.454619 0.9520 0.9520 0.9520 0.9520 0.9520
2726.827807 0.9520 0.9512 0.9502 0.9500 0.9500
2731.200994 0.9500 0.9500 0.9500 0.9500 0.9500
2735.574182 0.9500 0.9500 0.9500 0.9496 0.9491
2739.947369 0.9490 0.9490 0.9490 0.9490 0.9490
2744.320557 0.9490 0.9490 0.9490 0.9490 0.9490
2748.693745 0.9490 0.9490 0.9490 0.9490 0.9486
2753.066932 0.9481 0.9480 0.9480 0.9480 0.9480
2757.440120 0.9480 0.9480 0.9480 0.9480 0.9480
2761.813307 0.9480 0.9480 0.9480 0.9480 0.9480
2766.186495 0.9480 0.9480 0.9480 0.9480 0.9480
2770.559683 0.9480 0.9480 0.9480 0.9480 0.9480
2774.932870 0.9480 0.9480 0.9480 0.9480 0.9480
2779.306058 0.9480 0.9480 0.9480 0.9480 0.9480
2783.679245 0.9480 0.9480 0.9480 0.9480 0.9473
2788.052433 0.9463 0.9460 0.9460 0.9460 0.9460
2792.425621 0.9460 0.9460 0.9460 0.9460 0.9460
2796.798808 0.9460 0.9460 0.9460 0.9460 0.9460
2801.171996 0.9457 0.9452 0.9450 0.9450 0.9450
2805.545183 0.9450 0.9450 0.9450 0.9450 0.9450
2809.918371 0.9450 0.9450 0.9450 0.9450 0.9450
2814.291559 0.9450 0.9450 0.9450 0.9444 0.9434
2818.664746 0.9430 0.9430 0.9427 0.9422 0.9420
2823.037934 0.9420 0.9417 0.9412 0.9404 0.9394
2827.411121 0.9390 0.9390 0.9387 0.9382 0.9380
2831.784309 0.9380 0.9377 0.9372 0.9370 0.9370
2836.157497 0.9364 0.9354 0.9350 0.9350 0.9350
2840.530684 0.9350 0.9347 0.9342 0.9337 0.9332
2844.903872 0.9330 0.9330 0.9324 0.9314 0.9310
2849.277059 0.9310 0.9310 0.9310 0.9310 0.9310
2853.650247 0.9310 0.9310 0.9310 0.9310 0.9310
2858.023435 0.9310 0.9310 0.9310 0.9310 0.9310
2862.396622 0.9307 0.9302 0.9300 0.9300 0.9300
2866.769810 0.9300 0.9300 0.9300 0.9300 0.9300
2871.142998 0.9300 0.9300 0.9300 0.9300 0.9300
2875.516185 0.9300 0.9300 0.9300 0.9300 0.9300
2879.889373 0.9300 0.9300 0.9300 0.9300 0.9295
2884.262560 0.9285 0.9280 0.9280 0.9280 0.9280
2888.635748 0.9280 0.9280 0.9280 0.9280 0.9280
2893.008936 0.9280 0.9280 0.9280 0.9280 0.9280
2897.382123 0.9280 0.9280 0.9280 0.9280 0.9278
2901.755311 0.9273 0.9270 0.9270 0.9270 0.9270
2906.128498 0.9268 0.9263 0.9260 0.9260 0.9260
2910.501686 0.9260 0.9260 0.9260 0.9260 0.9260
2914.874874 0.9255 0.9245 0.9240 0.9240 0.9235
2919.248061 0.9225 0.9215 0.9205 0.9198 0.9193
2923.621249 0.9188 0.9183 0.9176 0.9166 0.9160
2927.994436 0.9160 0.9160 0.9160 0.9160 0.9160
2932.367624 0.9164 0.9174 0.9180 0.9180 0.9180
2936.740812 0.9180 0.9182 0.9187 0.9190 0.9190
2941.113999 0.9190 0.9190 0.9190 0.9190 0.9190
2945.487187 0.9190 0.9190 0.9190 0.9190 0.9190
2949.860374 0.9190 0.9190 0.9190 0.9190 0.9190
2954.233562 0.9190 0.9190 0.9190 0.9190 0.9190
2958.606750 0.9190 0.9190 0.9192 0.9197 0.9200
2962.979937 0.9200 0.9200 0.9200 0.9200 0.9200
2967.353125 0.9200 0.9200 0.9204 0.9214 0.9222
2971.726312 0.9227 0.9230 0.9230 0.9230 0.9230
2976.099500 0.9232 0.9237 0.9240 0.9240 0.9240
2980.472688 0.9240 0.9244 0.9254 0.9260 0.9260
2984.845875 0.9260 0.9260 0.9262 0.9267 0.9270
2989.219063 0.9270 0.9270 0.9270 0.9270 0.9270
2993.592251 0.9272 0.9277 0.9280 0.9280 0.9280
2997.965438 0.9280 0.9280 0.9280 0.9280 0.9280
3002.338626 0.9280 0.9280 0.9280 0.9280 0.9280
3006.711813 0.9280 0.9280 0.9280 0.9280 0.9280
3011.085001 0.9280 0.9280 0.9280 0.9280 0.9280
3015.458189 0.9280 0.9280 0.9280 0.9280 0.9280
3019.831376 0.9280 0.9280 0.9280 0.9280 0.9280
3024.204564 0.9280 0.9280 0.9280 0.9280 0.9280
3028.577751 0.9280 0.9280 0.9280 0.9280 0.9280
3032.950939 0.9280 0.9280 0.9280 0.9279 0.9274
3037.324127 0.9270 0.9270 0.9270 0.9270 0.9270
3041.697314 0.9270 0.9270 0.9270 0.9270 0.9270
3046.070502 0.9270 0.9270 0.9270 0.9270 0.9270
3050.443689 0.9270 0.9269 0.9264 0.9260 0.9260
3054.816877 0.9260 0.9260 0.9258 0.9248 0.9240
3059.190065 0.9240 0.9240 0.9240 0.9240 0.9240
3063.563252 0.9239 0.9234 0.9230 0.9230 0.9230
3067.936440 0.9230 0.9230 0.9230 0.9229 0.9224
3072.309627 0.9220 0.9220 0.9218 0.9208 0.9200
3076.682815 0.9200 0.9199 0.9194 0.9190 0.9190
3081.056003 0.9189 0.9184 0.9178 0.9168 0.9159
3085.429190 0.9154 0.9148 0.9138 0.9130 0.9130
3089.802378 0.9129 0.9124 0.9120 0.9120 0.9119
3094.175565 0.9114 0.9110 0.9110 0.9110 0.9110
3098.548753 0.9110 0.9110 0.9111 0.9116 0.9120
3102.921941 0.9120 0.9120 0.9120 0.9120 0.9120
3107.295128 0.9121 0.9126 0.9130 0.9130 0.9130
3111.668316 0.9130 0.9130 0.9130 0.9130 0.9130
3116.041503 0.9130 0.9130 0.9130 0.9130 0.9130
3120.414691 0.9130 0.9130 0.9130 0.9130 0.9130
3124.787879 0.9130 0.9130 0.9130 0.9130 0.9130
3129.161066 0.9130 0.9130 0.9130 0.9130 0.9130
3133.534254 0.9130 0.9130 0.9131 0.9141 0.9150
3137.907442 0.9150 0.9150 0.9150 0.9150 0.9150
3142.280629 0.9150 0.9150 0.9150 0.9150 0.9150
3146.653817 0.9150 0.9150 0.9150 0.9150 0.9150
3151.027004 0.9150 0.9150 0.9150 0.9150 0.9150
3155.400192 0.9150 0.9150 0.9150 0.9150 0.9150
3159.773380 0.9150 0.9150 0.9150 0.9150 0.9150
3164.146567 0.9150 0.9150 0.9150 0.9150 0.9150
3168.519755 0.9150 0.9150 0.9150 0.9150 0.9150
3172.892942 0.9150 0.9150 0.9150 0.9150 0.9150
3177.266130 0.9150 0.9155 0.9160 0.9160 0.9160
3181.639318 0.9160 0.9160 0.9160 0.9160 0.9160
3186.012505 0.9160 0.9160 0.9160 0.9160 0.9160
3190.385693 0.9160 0.9160 0.9160 0.9160 0.9160
3194.758880 0.9160 0.9160 0.9160 0.9170 0.9180
3199.132068 0.9180 0.9180 0.9180 0.9180 0.9180
3203.505256 0.9180 0.9180 0.9180 0.9180 0.9180
3207.878443 0.9180 0.9180 0.9180 0.9180 0.9180
3212.251631 0.9180 0.9180 0.9180 0.9180 0.9180
3216.624818 0.9180 0.9180 0.9180 0.9180 0.9170
3220.998006 0.9160 0.9160 0.9160 0.9160 0.9160
3225.371194 0.9160 0.9160 0.9160 0.9160 0.9155
3229.744381 0.9150 0.9150 0.9150 0.9150 0.9150
3234.117569 0.9150 0.9150 0.9150 0.9150 0.9141
3238.490756 0.9131 0.9130 0.9130 0.9130 0.9130
3242.863944 0.9130 0.9130 0.9125 0.9120 0.9120
3247.237132 0.9120 0.9120 0.9120 0.9120 0.9120
3251.610319 0.9120 0.9120 0.9120 0.9120 0.9120
3255.983507 0.9120 0.9120 0.9120 0.9120 0.9120
3260.356694 0.9120 0.9120 0.9120 0.9120 0.9116
3264.729882 0.9111 0.9110 0.9110 0.9110 0.9110
3269.103070 0.9110 0.9110 0.9101 0.9091 0.9090
3273.476257 0.9090 0.9090 0.9090 0.9090 0.9090
3277.849445 0.9090 0.9090 0.9090 0.9090 0.9090
3282.222633 0.9090 0.9090 0.9090 0.9090 0.9090
3286.595820 0.9090 0.9090 0.9090 0.9090 0.9090
3290.969008 0.9090 0.9086 0.9081 0.9080 0.9080
3295.342195 0.9080 0.9080 0.9080 0.9080 0.9080
3299.715383 0.9080 0.9076 0.9071 0.9070 0.9070
3304.088571 0.9070 0.9070 0.9070 0.9070 0.9070
3308.461758 0.9070 0.9062 0.9052 0.9050 0.9050
3312.834946 0.9050 0.9050 0.9050 0.9050 0.9050
3317.208133 0.9050 0.9050 0.9050 0.9050 0.9050
3321.581321 0.9046 0.9041 0.9040 0.9040 0.9040
3325.954509 0.9040 0.9040 0.9040 0.9040 0.9040
3330.327696 0.9040 0.9040 0.9040 0.9040 0.9036
3334.700884 0.9031 0.9030 0.9030 0.9030 0.9030
3339.074071 0.9030 0.9030 0.9030 0.9030 0.9030
3343.447259 0.9030 0.9030 0.9030 0.9023 0.9013
3347.820447 0.9010 0.9010 0.9010 0.9010 0.9010
3352.193634 0.9010 0.9010 0.9010 0.9010 0.9010
3356.566822 0.9010 0.9010 0.9010 0.9010 0.9010
3360.940009 0.9010 0.9010 0.9010 0.9010 0.9010
3365.313197 0.9010 0.9010 0.9006 0.9001 0.9000
3369.686385 0.9000 0.9000 0.9000 0.9000 0.9000
3374.059572 0.9000 0.9000 0.9000 0.9000 0.8993
3378.432760 0.8983 0.8980 0.8980 0.8980 0.8980
3382.805947 0.8980 0.8980 0.8976 0.8972 0.8970
3387.179135 0.8970 0.8970 0.8970 0.8970 0.8970
3391.552323 0.8970 0.8970 0.8970 0.8970 0.8970
3395.925510 0.8970 0.8970 0.8970 0.8970 0.8970
3400.298698 0.8967 0.8962 0.8960 0.8960 0.8960
3404.671885 0.8960 0.8960 0.8960 0.8953 0.8943
3409.045073 0.8940 0.8940 0.8940 0.8940 0.8940
3413.418261 0.8940 0.8937 0.8932 0.8930 0.8930
3417.791448 0.8930 0.8930 0.8930 0.8930 0.8927
3422.164636 0.8922 0.8920 0.8920 0.8920 0.8920
3426.537824 0.8920 0.8920 0.8920 0.8920 0.8920
3430.911011 0.8920 0.8920 0.8920 0.8920 0.8920
3435.284199 0.8920 0.8920 0.8920 0.8920 0.8920
3439.657386 0.8920 0.8920 0.8920 0.8920 0.8920
3444.030574 0.8920 0.8920 0.8923 0.8928 0.8930
3448.403762 0.8930 0.8930 0.8930 0.8930 0.8930
3452.776949 0.8930 0.8930 0.8930 0.8930 0.8930
3457.150137 0.8930 0.8930 0.8930 0.8930 0.8930
3461.523324 0.8930 0.8930 0.8930 0.8930 0.8930
3465.896512 0.8930 0.8930 0.8930 0.8930 0.8930
3470.269700 0.8930 0.8930 0.8930 0.8930 0.8930
3474.642887 0.8930 0.8930 0.8930 0.8930 0.8930
3479.016075 0.8930 0.8930 0.8933 0.8938 0.8940
3483.389262 0.8940 0.8940 0.8940 0.8940 0.8940
3487.762450 0.8940 0.8940 0.8940 0.8940 0.8940
3492.135638 0.8940 0.8940 0.8940 0.8940 0.8940
3496.508825 0.8940 0.8940 0.8940 0.8940 0.8940
3500.882013 0.8940 0.8940 0.8940 0.8940 0.8940
3505.255200 0.8940 0.8940 0.8940 0.8940 0.8940
3509.628388 0.8940 0.8940 0.8940 0.8940 0.8940
3514.001576 0.8940 0.8940 0.8940 0.8940 0.8940
3518.374763 0.8940 0.8940 0.8940 0.8940 0.8940
3522.747951 0.8940 0.8940 0.8945 0.8955 0.8960
3527.121138 0.8960 0.8960 0.8960 0.8960 0.8960
3531.494326 0.8960 0.8960 0.8962 0.8967 0.8970
3535.867514 0.8970 0.8970 0.8970 0.8970 0.8970
3540.240701 0.8970 0.8970 0.8970 0.8970 0.8970
3544.613889 0.8970 0.8970 0.8970 0.8970 0.8970
3548.987076 0.8970 0.8970 0.8970 0.8970 0.8970
3553.360264 0.8970 0.8970 0.8970 0.8970 0.8970
3557.733452 0.8970 0.8970 0.8970 0.8970 0.8970
3562.106639 0.8970 0.8970 0.8970 0.8970 0.8970
3566.479827 0.8970 0.8970 0.8970 0.8970 0.8970
3570.853015 0.8970 0.8970 0.8970 0.8968 0.8963
3575.226202 0.8960 0.8960 0.8960 0.8960 0.8956
3579.599390 0.8946 0.8940 0.8940 0.8938 0.8933
3583.972577 0.8928 0.8923 0.8920 0.8920 0.8916
3588.345765 0.8907 0.8900 0.8900 0.8903 0.8913
3592.718953 0.8922 0.8927 0.8930 0.8930 0.8932
3597.092140 0.8937 0.8940 0.8940 0.8943 0.8953
3601.465328 0.8960 0.8960 0.8960 0.8960 0.8960
3605.838515 0.8960 0.8960 0.8960 0.8960 0.8960
3610.211703 0.8962 0.8967 0.8970 0.8970 0.8970
3614.584891 0.8970 0.8970 0.8970 0.8970 0.8970
3618.958078 0.8970 0.8970 0.8970 0.8970 0.8970
3623.331266 0.8970 0.8970 0.8970 0.8970 0.8970
3627.704453 0.8970 0.8970 0.8970 0.8970 0.8970
3632.077641 0.8970 0.8970 0.8970 0.8970 0.8970
3636.450829 0.8970 0.8970 0.8970 0.8970 0.8970
3640.824016 0.8970 0.8970 0.8970 0.8970 0.8970
3645.197204 0.8970 0.8970 0.8970 0.8970 0.8970
3649.570391 0.8970 0.8970 0.8970 0.8970 0.8970
3653.943579 0.8970 0.8970 0.8970 0.8970 0.8970
3658.316767 0.8970 0.8970 0.8970 0.8970 0.8970
3662.689954 0.8970 0.8970 0.8970 0.8970 0.8970
3667.063142 0.8970 0.8970 0.8970 0.8970 0.8970
3671.436329 0.8970 0.8970 0.8970 0.8970 0.8970
3675.809517 0.8970 0.8970 0.8970 0.8970 0.8970
3680.182705 0.8970 0.8970 0.8970 0.8970 0.8970
3684.555892 0.8970 0.8970 0.8970 0.8970 0.8970
3688.929080 0.8970 0.8970 0.8970 0.8970 0.8970
3693.302268 0.8970 0.8970 0.8970 0.8970 0.8970
3697.675455 0.8970 0.8970 0.8970 0.8970 0.8970
3702.048643 0.8970 0.8970 0.8970 0.8970 0.8970
3706.421830 0.8970 0.8970 0.8970 0.8970 0.8970
3710.795018 0.8970 0.8970 0.8970 0.8970 0.8970
3715.168206 0.8970 0.8970 0.8970 0.8970 0.8970
3719.541393 0.8970 0.8970 0.8970 0.8970 0.8970
3723.914581 0.8970 0.8970 0.8970 0.8970 0.8970
3728.287768 0.8970 0.8970 0.8970 0.8970 0.8970
3732.660956 0.8970 0.8970 0.8970 0.8970 0.8970
3737.034144 0.8970 0.8970 0.8970 0.8970 0.8970
3741.407331 0.8970 0.8970 0.8970 0.8970 0.8970
3745.780519 0.8970 0.8970 0.8970 0.8970 0.8970
3750.153706 0.8970 0.8970 0.8970 0.8970 0.8970
3754.526894 0.8970 0.8970 0.8970 0.8970 0.8970
3758.900082 0.8970 0.8970 0.8970 0.8970 0.8970
3763.273269 0.8970 0.8970 0.8970 0.8970 0.8970
3767.646457 0.8970 0.8970 0.8970 0.8970 0.8970
3772.019644 0.8970 0.8970 0.8970 0.8970 0.8970
3776.392832 0.8970 0.8970 0.8970 0.8970 0.8970
3780.766020 0.8970 0.8970 0.8970 0.8970 0.8970
3785.139207 0.8970 0.8970 0.8970 0.8970 0.8970
3789.512395 0.8970 0.8970 0.8970 0.8970 0.8970
3793.885582 0.8970 0.8970 0.8970 0.8970 0.8970
3798.258770 0.8970 0.8970 0.8970 0.8970 0.8970
3802.631958 0.8970 0.8970
##END=
