##TITLE=PROPANETHIOL, 2,3-DIAMINO-, DIHYDROBROMIDE
##JCAMP-DX=4.24
##DATA TYPE=INFRARED SPECTRUM
##CLASS=COBLENTZ III
##ORIGIN=SOUTHERN RESEARCH INSTITUTE
##OWNER=COBLENTZ SOCIETY
Collection (C) 2018 copyright by the U.S. Secretary of Commerce
on behalf of the United States of America. All rights reserved.
##DATE=1968/01/15
##MOLFORM=C3 H12 Br2 N2 S
##SOURCE REFERENCE=COBLENTZ NO. 10385
##$NIST ID=B6010385
##$NIST SOURCE=COBLENTZ
##$NIST IMAGE=cob10385
##SPECTROMETER/DATA SYSTEM=PERKIN-ELMER 621
##STATE=SOLID (1 mg / 500 mg KBr DISC)
##PATH LENGTH=
$$SPECTRAL CONTAMINATION DUE TO H2O AROUND 3430 CM^-^1
$$ PURITY - ANALYTICAL
##SAMPLING PROCEDURE=TRANSMISSION
##RESOLUTION=4
##DATA PROCESSING=DIGITIZED BY NIST FROM HARD COPY (FROM TWO SEGMENTS)
##XUNITS=1/CM
##YUNITS=TRANSMITTANCE
##XFACTOR=1.000000
##YFACTOR=1
##DELTAX=1.308900
##FIRSTX=263.78
##LASTX=4002
##FIRSTY=0.143
##MAXX=4002
##MINX=263.78
##MAXY=0.993
##MINY=0.044
##NPOINTS=2857
##XYDATA=(X++(Y..Y))
263.780000 0.1430 0.1540 0.1639 0.1739 0.1829
270.324500 0.1918 0.2028 0.2137 0.2266 0.2415
276.869000 0.2605 0.3979 0.4155 0.4401 0.4487
283.413500 0.4547 0.4617 0.4706 0.4767 0.4827
289.958000 0.4915 0.4996 0.5066 0.5145 0.5225
296.502500 0.5305 0.5384 0.5473 0.5535 0.5613
303.047000 0.5694 0.5773 0.5835 0.5904 0.5964
309.591500 0.6033 0.6085 0.6144 0.6204 0.6246
316.136000 0.6295 0.6318 0.6400 0.6463 0.6514
322.680500 0.6555 0.6604 0.6645 0.6667 0.6722
329.225000 0.6791 0.6869 0.7009 0.7082 0.7167
335.769500 0.7248 0.7336 0.7418 0.7506 0.7554
342.314000 0.7619 0.7714 0.7780 0.7857 0.7928
348.858500 0.8023 0.8081 0.8115 0.8153 0.8209
355.403000 0.8269 0.8321 0.8362 0.8402 0.8426
361.947500 0.8462 0.8494 0.8516 0.8552 0.8599
368.492000 0.8634 0.8648 0.8674 0.8688 0.8706
375.036500 0.8710 0.8695 0.8682 0.8672 0.8647
381.581000 0.8617 0.8564 0.8512 0.8447 0.8332
388.125500 0.8173 0.7996 0.7876 0.7710 0.7528
394.670000 0.7473 0.7529 0.7652 0.7836 0.8122
401.214500 0.8419 0.8651 0.8853 0.9024 0.9198
407.759000 0.9335 0.9398 0.9445 0.9495 0.9531
414.303500 0.9547 0.9571 0.9587 0.9611 0.9620
420.848000 0.9627 0.9630 0.9630 0.9630 0.9630
427.392500 0.9630 0.9630 0.9623 0.9620 0.9620
433.937000 0.9620 0.9620 0.9607 0.9600 0.9587
440.481500 0.9561 0.9537 0.9511 0.9468 0.9406
447.026000 0.9317 0.9223 0.9177 0.9182 0.9240
453.570500 0.9313 0.9414 0.9545 0.9679 0.9766
460.115000 0.9820 0.9870 0.9896 0.9918 0.9930
466.659500 0.9930 0.9930 0.9930 0.9924 0.9920
473.204000 0.9926 0.9930 0.9930 0.9930 0.9930
479.748500 0.9930 0.9930 0.9930 0.9930 0.9930
486.293000 0.9924 0.9920 0.9920 0.9920 0.9920
492.837500 0.9909 0.9900 0.9900 0.9900 0.9890
499.382000 0.9880 0.9880 0.9870 0.9855 0.9845
505.926500 0.9825 0.9790 0.9770 0.9760 0.9740
512.471000 0.9715 0.9685 0.9650 0.9600 0.9550
519.015500 0.9515 0.9471 0.9392 0.9311 0.9237
525.560000 0.9128 0.8998 0.8855 0.8765 0.8765
532.104500 0.8811 0.8915 0.9062 0.9295 0.9523
538.649000 0.9645 0.9713 0.9739 0.9750 0.9750
545.193500 0.9741 0.9730 0.9726 0.9720 0.9720
551.738000 0.9720 0.9716 0.9710 0.9710 0.9710
558.282500 0.9706 0.9700 0.9692 0.9680 0.9680
564.827000 0.9680 0.9688 0.9700 0.9700 0.9704
571.371500 0.9714 0.9720 0.9724 0.9730 0.9730
577.916000 0.9730 0.9730 0.9730 0.9730 0.9730
584.460500 0.9730 0.9730 0.9730 0.9730 0.9730
591.005000 0.9730 0.9730 0.9730 0.9737 0.9750
597.549500 0.9750 0.9743 0.9730 0.9730 0.9730
604.094000 0.9730 0.9727 0.9720 0.9720 0.9717
610.638500 0.9661 0.9511 0.9414 0.9400 0.9403
617.183000 0.9410 0.9410 0.9410 0.9410 0.9413
623.727500 0.9420 0.9420 0.9420 0.9425 0.9440
630.272000 0.9443 0.9455 0.9478 0.9503 0.9510
636.816500 0.9510 0.9510 0.9510 0.9510 0.9510
643.361000 0.9510 0.9510 0.9510 0.9510 0.9510
649.905500 0.9510 0.9508 0.9498 0.9486 0.9464
656.450000 0.9436 0.9407 0.9354 0.9324 0.9294
662.994500 0.9258 0.9196 0.9119 0.8998 0.8804
669.539000 0.8536 0.8397 0.8208 0.7993 0.7847
676.083500 0.7737 0.7723 0.7836 0.8419 0.9013
682.628000 0.9494 0.9754 0.9882 0.9890 0.9890
689.172500 0.9890 0.9890 0.9890 0.9890 0.9889
695.717000 0.9880 0.9877 0.9860 0.9859 0.9849
702.261500 0.9840 0.9840 0.9840 0.9839 0.9830
708.806000 0.9830 0.9830 0.9828 0.9810 0.9810
715.350500 0.9809 0.9800 0.9800 0.9799 0.9790
721.895000 0.9790 0.9788 0.9770 0.9769 0.9759
728.439500 0.9750 0.9749 0.9730 0.9728 0.9699
734.984000 0.9679 0.9658 0.9618 0.9589 0.9568
741.528500 0.9527 0.9468 0.9407 0.9316 0.9206
748.073000 0.9066 0.8891 0.8589 0.8560 0.8586
754.617500 0.8882 0.9031 0.9101 0.9201 0.9380
761.162000 0.9380 0.9339 0.9110 0.9100 0.9110
767.706500 0.9338 0.9547 0.9619 0.9630 0.9620
774.251000 0.9601 0.9590 0.9580 0.9551 0.9550
780.795500 0.9540 0.9502 0.9471 0.9451 0.9384
787.340000 0.9304 0.9243 0.9174 0.9113 0.9035
793.884500 0.8918 0.8723 0.8496 0.8220 0.7960
800.429000 0.7627 0.7323 0.7014 0.6751 0.6712
806.973500 0.7275 0.7702 0.8400 0.9038 0.9423
813.518000 0.9612 0.9756 0.9788 0.9790 0.9790
820.062500 0.9772 0.9770 0.9770 0.9761 0.9751
826.607000 0.9733 0.9713 0.9701 0.9683 0.9663
833.151500 0.9643 0.9640 0.9631 0.9630 0.9622
839.696000 0.9620 0.9603 0.9592 0.9590 0.9582
846.240500 0.9555 0.9542 0.9532 0.9530 0.9514
852.785000 0.9510 0.9510 0.9502 0.9492 0.9458
859.329500 0.9426 0.9412 0.9402 0.9376 0.9370
865.874000 0.9338 0.9322 0.9296 0.9259 0.9219
872.418500 0.9179 0.9131 0.9105 0.9069 0.8937
878.963000 0.8755 0.8649 0.8477 0.8323 0.8282
885.507500 0.8295 0.8450 0.8672 0.8782 0.8881
892.052000 0.8991 0.9079 0.9174 0.9288 0.9327
898.596500 0.9323 0.9306 0.9293 0.9290 0.9283
905.141000 0.9273 0.9249 0.9212 0.9193 0.9176
911.685500 0.9149 0.9126 0.9106 0.9079 0.9036
918.230000 0.8986 0.8915 0.8856 0.8820 0.8769
924.774500 0.8710 0.8542 0.8437 0.8420 0.8440
931.319000 0.8542 0.8669 0.8776 0.8856 0.8887
937.863500 0.8890 0.8884 0.8880 0.8861 0.8850
944.408000 0.8825 0.8778 0.8735 0.8714 0.8691
950.952500 0.8661 0.8638 0.8605 0.8565 0.8489
957.497000 0.8353 0.8138 0.7985 0.7841 0.7638
964.041500 0.7532 0.7538 0.7780 0.8145 0.8296
970.586000 0.8294 0.8290 0.8290 0.8284 0.8240
977.130500 0.8181 0.8143 0.8124 0.8114 0.8093
983.675000 0.8058 0.8007 0.7958 0.7896 0.7783
990.219500 0.7682 0.7623 0.7535 0.7389 0.7193
996.764000 0.7021 0.6891 0.6672 0.6367 0.6043
1003.308500 0.5704 0.5365 0.5026 0.4565 0.3982
1009.853000 0.3650 0.3610 0.3992 0.4664 0.5292
1016.397500 0.5856 0.6476 0.6909 0.6930 0.6910
1022.942000 0.6848 0.6604 0.6257 0.5968 0.5585
1029.486500 0.5315 0.5315 0.5357 0.5583 0.5940
1036.031000 0.6119 0.6121 0.5953 0.5528 0.5107
1042.575500 0.4826 0.4619 0.4436 0.4201 0.4070
1049.120000 0.4087 0.4389 0.5118 0.5800 0.6278
1055.664500 0.6904 0.7601 0.8035 0.8294 0.8300
1062.209000 0.8300 0.8296 0.8286 0.8264 0.8209
1068.753500 0.8129 0.8042 0.7950 0.7874 0.7781
1075.298000 0.7637 0.7449 0.7213 0.6995 0.6838
1081.842500 0.6589 0.6175 0.5696 0.5139 0.4695
1088.387000 0.4627 0.4627 0.4889 0.5363 0.5370
1094.931500 0.5279 0.5097 0.5179 0.5529 0.5980
1101.476000 0.6512 0.7241 0.7346 0.7383 0.7402
1108.020500 0.7495 0.7726 0.7989 0.8210 0.8409
1114.565000 0.8591 0.8716 0.8818 0.8916 0.8930
1121.109500 0.8930 0.8924 0.8910 0.8910 0.8907
1127.654000 0.8895 0.8875 0.8857 0.8850 0.8847
1134.198500 0.8840 0.8832 0.8810 0.8810 0.8810
1140.743000 0.8810 0.8808 0.8800 0.8800 0.8800
1147.287500 0.8795 0.8780 0.8778 0.8770 0.8768
1153.832000 0.8758 0.8750 0.8746 0.8719 0.8678
1160.376500 0.8666 0.8646 0.8626 0.8604 0.8574
1166.921000 0.8537 0.8474 0.8437 0.8373 0.8329
1173.465500 0.8267 0.8192 0.8084 0.7926 0.7757
1180.010000 0.7740 0.7743 0.7763 0.7801 0.7927
1186.554500 0.8053 0.8259 0.8373 0.8390 0.8390
1193.099000 0.8390 0.8390 0.8390 0.8389 0.8376
1199.643500 0.8347 0.8329 0.8318 0.8299 0.8287
1206.188000 0.8256 0.8217 0.8186 0.8148 0.8129
1212.732500 0.8116 0.8076 0.8036 0.7995 0.7934
1219.277000 0.7863 0.7784 0.7711 0.7602 0.7500
1225.821500 0.7362 0.7123 0.6892 0.6780 0.6806
1232.366000 0.7230 0.7576 0.7866 0.8121 0.8130
1238.910500 0.8130 0.8130 0.8120 0.8109 0.8089
1245.455000 0.8068 0.8018 0.7948 0.7889 0.7848
1251.999500 0.7778 0.7697 0.7558 0.7397 0.7158
1258.544000 0.6939 0.6700 0.6660 0.6660 0.6690
1265.088500 0.7088 0.7259 0.7636 0.7817 0.7899
1271.633000 0.7959 0.7980 0.7980 0.7980 0.7980
1278.177500 0.7961 0.7960 0.7950 0.7950 0.7940
1284.722000 0.7921 0.7911 0.7900 0.7872 0.7861
1291.266500 0.7822 0.7811 0.7791 0.7762 0.7732
1297.811000 0.7684 0.7643 0.7631 0.7602 0.7591
1304.355500 0.7572 0.7570 0.7561 0.7560 0.7551
1310.900000 0.7550 0.7532 0.7503 0.7464 0.7406
1317.444500 0.7355 0.7297 0.7255 0.7224 0.7176
1323.989000 0.7091 0.7019 0.6931 0.6842 0.6630
1330.533500 0.6349 0.6078 0.5800 0.5418 0.4850
1337.078000 0.4684 0.4670 0.4746 0.5715 0.6858
1343.622500 0.7074 0.7080 0.7013 0.6934 0.6780
1350.167000 0.6676 0.6619 0.6421 0.6224 0.6190
1356.711500 0.6279 0.6332 0.6493 0.6731 0.6956
1363.256000 0.7159 0.7224 0.7294 0.7326 0.7314
1369.800500 0.7310 0.7310 0.7310 0.7302 0.7300
1376.345000 0.7292 0.7259 0.7235 0.7215 0.7187
1382.889500 0.7165 0.7137 0.7100 0.7060 0.7020
1389.434000 0.6980 0.6948 0.6925 0.6876 0.6808
1395.978500 0.6746 0.6679 0.6624 0.6574 0.6524
1402.523000 0.6481 0.6406 0.6294 0.6181 0.5951
1409.067500 0.5665 0.5362 0.5263 0.5274 0.5516
1415.612000 0.5800 0.6299 0.6524 0.6533 0.6516
1422.156500 0.6483 0.6389 0.6330 0.6280 0.6180
1428.701000 0.6087 0.6027 0.5977 0.5927 0.5838
1435.245500 0.5741 0.5658 0.5546 0.5332 0.5093
1441.790000 0.4876 0.4673 0.4486 0.4248 0.4144
1448.334500 0.4146 0.4225 0.4407 0.4638 0.4908
1454.879000 0.5173 0.5282 0.5290 0.5253 0.5078
1461.423500 0.4932 0.4816 0.4659 0.4466 0.4250
1467.968000 0.4084 0.3954 0.3748 0.3483 0.3219
1474.512500 0.2949 0.2681 0.2439 0.2215 0.1951
1481.057000 0.1809 0.1811 0.1926 0.2144 0.2394
1487.601500 0.2730 0.3080 0.3329 0.3452 0.3480
1494.146000 0.3443 0.3368 0.3197 0.2958 0.2723
1500.690500 0.2516 0.2300 0.2108 0.2045 0.2178
1507.235000 0.2361 0.2692 0.3217 0.3919 0.4530
1513.779500 0.4800 0.5024 0.5175 0.5200 0.5176
1520.324000 0.5131 0.5024 0.4854 0.4684 0.4471
1526.868500 0.4198 0.3970 0.3811 0.3563 0.3215
1533.413000 0.2847 0.2468 0.2088 0.1712 0.1492
1539.957500 0.1470 0.1488 0.1514 0.1516 0.1497
1546.502000 0.1467 0.1446 0.1457 0.1591 0.1833
1553.046500 0.2115 0.2671 0.3286 0.3578 0.3919
1559.591000 0.4331 0.4606 0.4750 0.4722 0.4589
1566.135500 0.4387 0.4204 0.3985 0.3716 0.3394
1572.680000 0.3130 0.2898 0.2667 0.2420 0.2207
1579.224500 0.2096 0.2094 0.2262 0.2697 0.3073
1585.769000 0.3529 0.4181 0.4800 0.5405 0.5723
1592.313500 0.6022 0.6318 0.6690 0.7129 0.7362
1598.858000 0.7578 0.7775 0.7935 0.8062 0.8143
1605.402500 0.8176 0.8184 0.8167 0.8157 0.8144
1611.947000 0.8127 0.8120 0.8120 0.8117 0.8110
1618.491500 0.8110 0.8110 0.8110 0.8113 0.8120
1625.036000 0.8123 0.8135 0.8155 0.8175 0.8195
1631.580500 0.8213 0.8228 0.8258 0.8283 0.8300
1638.125000 0.8335 0.8355 0.8372 0.8387 0.8415
1644.669500 0.8435 0.8457 0.8487 0.8521 0.8569
1651.214000 0.8602 0.8616 0.8646 0.8674 0.8696
1657.758500 0.8726 0.8752 0.8760 0.8760 0.8760
1664.303000 0.8760 0.8760 0.8760 0.8758 0.8746
1670.847500 0.8730 0.8730 0.8728 0.8718 0.8707
1677.392000 0.8688 0.8680 0.8678 0.8670 0.8667
1683.936500 0.8650 0.8648 0.8638 0.8627 0.8609
1690.481000 0.8599 0.8589 0.8577 0.8559 0.8549
1697.025500 0.8537 0.8520 0.8519 0.8510 0.8510
1703.570000 0.8510 0.8510 0.8510 0.8509 0.8500
1710.114500 0.8500 0.8500 0.8498 0.8479 0.8470
1716.659000 0.8469 0.8460 0.8459 0.8447 0.8419
1723.203500 0.8408 0.8390 0.8389 0.8379 0.8368
1729.748000 0.8339 0.8329 0.8319 0.8299 0.8290
1736.292500 0.8289 0.8279 0.8260 0.8249 0.8220
1742.837000 0.8210 0.8200 0.8190 0.8189 0.8169
1749.381500 0.8150 0.8150 0.8130 0.8130 0.8120
1755.926000 0.8120 0.8090 0.8090 0.8080 0.8080
1762.470500 0.8070 0.8050 0.8050 0.8040 0.8030
1769.015000 0.8020 0.8000 0.8000 0.7990 0.7990
1775.559500 0.7980 0.7980 0.7961 0.7960 0.7950
1782.104000 0.7940 0.7921 0.7910 0.7910 0.7900
1788.648500 0.7872 0.7861 0.7851 0.7850 0.7831
1795.193000 0.7821 0.7811 0.7782 0.7761 0.7741
1801.737500 0.7731 0.7730 0.7721 0.7702 0.7691
1808.282000 0.7663 0.7660 0.7651 0.7641 0.7631
1814.826500 0.7603 0.7591 0.7572 0.7561 0.7551
1821.371000 0.7532 0.7521 0.7520 0.7511 0.7501
1827.915500 0.7483 0.7445 0.7440 0.7423 0.7403
1834.460000 0.7383 0.7354 0.7342 0.7315 0.7302
1841.004500 0.7292 0.7273 0.7262 0.7252 0.7233
1847.549000 0.7213 0.7210 0.7202 0.7184 0.7172
1854.093500 0.7162 0.7160 0.7144 0.7140 0.7140
1860.638000 0.7132 0.7130 0.7130 0.7130 0.7130
1867.182500 0.7130 0.7130 0.7130 0.7130 0.7130
1873.727000 0.7130 0.7130 0.7130 0.7130 0.7130
1880.271500 0.7130 0.7138 0.7140 0.7140 0.7140
1886.816000 0.7140 0.7140 0.7155 0.7160 0.7160
1893.360500 0.7167 0.7170 0.7177 0.7180 0.7195
1899.905000 0.7207 0.7217 0.7227 0.7252 0.7267
1906.449500 0.7284 0.7326 0.7368 0.7387 0.7397
1912.994000 0.7414 0.7427 0.7437 0.7454 0.7488
1919.538500 0.7521 0.7544 0.7557 0.7567 0.7583
1926.083000 0.7590 0.7597 0.7600 0.7600 0.7600
1932.627500 0.7600 0.7600 0.7600 0.7607 0.7610
1939.172000 0.7623 0.7636 0.7640 0.7640 0.7640
1945.716500 0.7640 0.7640 0.7640 0.7634 0.7630
1952.261000 0.7630 0.7630 0.7630 0.7618 0.7610
1958.805500 0.7604 0.7594 0.7590 0.7590 0.7578
1965.350000 0.7570 0.7564 0.7560 0.7554 0.7538
1971.894500 0.7518 0.7504 0.7488 0.7480 0.7480
1978.439000 0.7474 0.7470 0.7464 0.7460 0.7466
1984.983500 0.7470 0.7476 0.7491 0.7533 0.7587
1991.528000 0.7632 0.7650 0.7655 0.7660 0.7660
1998.072500 0.7660 0.7660 0.7660 0.7671 0.7691
2004.617000 0.7711 0.7725 0.7735 0.7750 0.7760
2011.161500 0.7760 0.7760 0.7760 0.7760 0.7760
2017.706000 0.7760 0.7760 0.7760 0.7760 0.7760
2024.250500 0.7760 0.7760 0.7760 0.7749 0.7740
2030.795000 0.7740 0.7740 0.7740 0.7740 0.7740
2037.339500 0.7735 0.7730 0.7730 0.7725 0.7720
2043.884000 0.7720 0.7710 0.7700 0.7695 0.7685
2050.428500 0.7680 0.7670 0.7660 0.7660 0.7660
2056.973000 0.7660 0.7670 0.7680 0.7680 0.7685
2063.517500 0.7690 0.7690 0.7690 0.7690 0.7685
2070.062000 0.7670 0.7660 0.7655 0.7645 0.7635
2076.606500 0.7630 0.7614 0.7595 0.7590 0.7590
2083.151000 0.7590 0.7580 0.7570 0.7570 0.7570
2089.695500 0.7565 0.7560 0.7555 0.7550 0.7550
2096.240000 0.7550 0.7550 0.7550 0.7540 0.7530
2102.784500 0.7530 0.7530 0.7530 0.7525 0.7509
2109.329000 0.7490 0.7480 0.7475 0.7465 0.7450
2115.873500 0.7435 0.7425 0.7420 0.7420 0.7409
2122.418000 0.7400 0.7400 0.7395 0.7390 0.7390
2128.962500 0.7390 0.7390 0.7390 0.7390 0.7390
2135.507000 0.7385 0.7380 0.7380 0.7370 0.7360
2142.051500 0.7360 0.7355 0.7350 0.7350 0.7345
2148.596000 0.7340 0.7335 0.7330 0.7320 0.7310
2155.140500 0.7305 0.7295 0.7279 0.7270 0.7265
2161.685000 0.7260 0.7255 0.7250 0.7240 0.7230
2168.229500 0.7225 0.7220 0.7215 0.7205 0.7200
2174.774000 0.7190 0.7180 0.7180 0.7175 0.7170
2181.318500 0.7165 0.7160 0.7160 0.7149 0.7140
2187.863000 0.7135 0.7130 0.7125 0.7120 0.7110
2194.407500 0.7095 0.7085 0.7080 0.7075 0.7070
2200.952000 0.7060 0.7045 0.7040 0.7040 0.7040
2207.496500 0.7040 0.7040 0.7035 0.7030 0.7030
2214.041000 0.7020 0.7005 0.7000 0.6995 0.6980
2220.585500 0.6970 0.6965 0.6955 0.6950 0.6950
2227.130000 0.6950 0.6950 0.6950 0.6950 0.6950
2233.674500 0.6950 0.6950 0.6945 0.6940 0.6940
2240.219000 0.6940 0.6930 0.6920 0.6920 0.6915
2246.763500 0.6910 0.6905 0.6900 0.6889 0.6880
2253.308000 0.6875 0.6865 0.6860 0.6850 0.6830
2259.852500 0.6810 0.6795 0.6785 0.6780 0.6780
2266.397000 0.6775 0.6760 0.6745 0.6724 0.6705
2272.941500 0.6695 0.6680 0.6659 0.6650 0.6645
2279.486000 0.6624 0.6605 0.6590 0.6580 0.6575
2286.030500 0.6570 0.6565 0.6544 0.6519 0.6499
2292.575000 0.6480 0.6470 0.6460 0.6445 0.6424
2299.119500 0.6405 0.6395 0.6374 0.6349 0.6319
2305.664000 0.6284 0.6265 0.6234 0.6194 0.6164
2312.208500 0.6140 0.6114 0.6095 0.6085 0.6069
2318.753000 0.6055 0.6050 0.6045 0.6040 0.6030
2325.297500 0.6020 0.6015 0.6010 0.6005 0.6000
2331.842000 0.5990 0.5975 0.5965 0.5955 0.5940
2338.386500 0.5925 0.5904 0.5879 0.5854 0.5819
2344.931000 0.5790 0.5764 0.5734 0.5715 0.5700
2351.475500 0.5680 0.5665 0.5660 0.5660 0.5660
2358.020000 0.5660 0.5660 0.5655 0.5650 0.5650
2364.564500 0.5650 0.5640 0.5630 0.5625 0.5615
2371.109000 0.5610 0.5600 0.5590 0.5585 0.5580
2377.653500 0.5575 0.5560 0.5539 0.5514 0.5495
2384.198000 0.5485 0.5470 0.5455 0.5429 0.5389
2390.742500 0.5360 0.5340 0.5325 0.5320 0.5320
2397.287000 0.5325 0.5330 0.5340 0.5350 0.5350
2403.831500 0.5350 0.5350 0.5339 0.5325 0.5315
2410.376000 0.5300 0.5290 0.5285 0.5275 0.5265
2416.920500 0.5244 0.5209 0.5169 0.5139 0.5119
2423.465000 0.5105 0.5095 0.5080 0.5065 0.5034
2430.009500 0.4994 0.4975 0.4965 0.4944 0.4909
2436.554000 0.4890 0.4869 0.4829 0.4805 0.4795
2443.098500 0.4790 0.4780 0.4770 0.4765 0.4755
2449.643000 0.4750 0.4734 0.4710 0.4700 0.4690
2456.187500 0.4675 0.4665 0.4649 0.4629 0.4604
2462.732000 0.4580 0.4560 0.4540 0.4509 0.4474
2469.276500 0.4439 0.4399 0.4354 0.4304 0.4254
2475.821000 0.4199 0.4139 0.4084 0.4039 0.3999
2482.365500 0.3959 0.3924 0.3894 0.3869 0.3855
2488.910000 0.3855 0.3870 0.3890 0.3916 0.3940
2495.454500 0.3987 0.4030 0.4056 0.4086 0.4111
2501.999000 0.4131 0.4140 0.4130 0.4110 0.4079
2508.543500 0.4039 0.3999 0.3938 0.3853 0.3763
2515.088000 0.3678 0.3593 0.3513 0.3443 0.3363
2521.632500 0.3283 0.3245 0.3245 0.3255 0.3307
2528.177000 0.3403 0.3523 0.3674 0.3802 0.3881
2534.721500 0.3931 0.3960 0.3975 0.3980 0.3975
2541.266000 0.3970 0.3970 0.3960 0.3950 0.3945
2547.810500 0.3940 0.3935 0.3914 0.3895 0.3890
2554.355000 0.3895 0.3905 0.3920 0.3940 0.3960
2560.899500 0.3975 0.3985 0.3990 0.4001 0.4010
2567.444000 0.4010 0.4010 0.4010 0.4010 0.4000
2573.988500 0.3990 0.3985 0.3980 0.3980 0.3975
2580.533000 0.3960 0.3945 0.3940 0.3935 0.3930
2587.077500 0.3920 0.3894 0.3869 0.3855 0.3845
2593.622000 0.3830 0.3820 0.3815 0.3810 0.3810
2600.166500 0.3810 0.3810 0.3810 0.3810 0.3810
2606.711000 0.3810 0.3805 0.3800 0.3790 0.3754
2613.255500 0.3725 0.3715 0.3689 0.3649 0.3614
2619.800000 0.3595 0.3574 0.3555 0.3550 0.3550
2626.344500 0.3550 0.3545 0.3540 0.3540 0.3540
2632.889000 0.3540 0.3540 0.3540 0.3540 0.3540
2639.433500 0.3540 0.3530 0.3520 0.3515 0.3505
2645.978000 0.3500 0.3490 0.3475 0.3465 0.3444
2652.522500 0.3425 0.3404 0.3385 0.3364 0.3339
2659.067000 0.3314 0.3279 0.3255 0.3234 0.3210
2665.611500 0.3184 0.3149 0.3119 0.3094 0.3064
2672.156000 0.3045 0.3035 0.3030 0.3025 0.3020
2678.700500 0.3020 0.3010 0.2995 0.2990 0.2985
2685.245000 0.2980 0.2980 0.2980 0.2985 0.2995
2691.789500 0.3010 0.3020 0.3020 0.3025 0.3030
2698.334000 0.3030 0.3030 0.3025 0.3020 0.3010
2704.878500 0.2995 0.2974 0.2949 0.2924 0.2889
2711.423000 0.2859 0.2829 0.2794 0.2770 0.2739
2717.967500 0.2704 0.2674 0.2649 0.2624 0.2599
2724.512000 0.2590 0.2574 0.2560 0.2555 0.2540
2731.056500 0.2525 0.2515 0.2505 0.2479 0.2444
2737.601000 0.2404 0.2359 0.2319 0.2295 0.2280
2744.145500 0.2265 0.2244 0.2230 0.2225 0.2215
2750.690000 0.2194 0.2170 0.2144 0.2109 0.2069
2757.234500 0.2029 0.1989 0.1954 0.1924 0.1889
2763.779000 0.1854 0.1830 0.1810 0.1795 0.1764
2770.323500 0.1714 0.1674 0.1649 0.1640 0.1629
2776.868000 0.1620 0.1615 0.1610 0.1605 0.1590
2783.412500 0.1575 0.1565 0.1544 0.1525 0.1515
2789.957000 0.1500 0.1485 0.1475 0.1454 0.1440
2796.501500 0.1424 0.1394 0.1369 0.1349 0.1319
2803.046000 0.1274 0.1229 0.1189 0.1154 0.1119
2809.590500 0.1090 0.1080 0.1064 0.1050 0.1045
2816.135000 0.1030 0.1015 0.1005 0.0990 0.0980
2822.679500 0.0980 0.0975 0.0970 0.0965 0.0960
2829.224000 0.0960 0.0955 0.0940 0.0930 0.0925
2835.768500 0.0915 0.0900 0.0885 0.0875 0.0849
2842.313000 0.0825 0.0804 0.0785 0.0770 0.0755
2848.857500 0.0750 0.0734 0.0720 0.0715 0.0705
2855.402000 0.0695 0.0690 0.0674 0.0660 0.0655
2861.946500 0.0650 0.0640 0.0625 0.0615 0.0599
2868.491000 0.0585 0.0575 0.0560 0.0545 0.0540
2875.035500 0.0535 0.0530 0.0525 0.0520 0.0509
2881.580000 0.0495 0.0490 0.0490 0.0490 0.0485
2888.124500 0.0480 0.0480 0.0480 0.0480 0.0480
2894.669000 0.0480 0.0480 0.0480 0.0470 0.0460
2901.213500 0.0460 0.0460 0.0460 0.0460 0.0460
2907.758000 0.0460 0.0460 0.0460 0.0460 0.0460
2914.302500 0.0460 0.0460 0.0471 0.0480 0.0480
2920.847000 0.0480 0.0480 0.0480 0.0480 0.0480
2927.391500 0.0480 0.0480 0.0480 0.0480 0.0480
2933.936000 0.0480 0.0480 0.0485 0.0490 0.0490
2940.480500 0.0490 0.0490 0.0490 0.0495 0.0500
2947.025000 0.0500 0.0500 0.0500 0.0500 0.0500
2953.569500 0.0500 0.0500 0.0495 0.0490 0.0485
2960.114000 0.0480 0.0480 0.0470 0.0460 0.0455
2966.658500 0.0450 0.0445 0.0440 0.0440 0.0440
2973.203000 0.0440 0.0440 0.0440 0.0440 0.0440
2979.747500 0.0440 0.0440 0.0440 0.0440 0.0440
2986.292000 0.0440 0.0440 0.0440 0.0440 0.0440
2992.836500 0.0440 0.0440 0.0440 0.0440 0.0440
2999.381000 0.0440 0.0440 0.0440 0.0440 0.0440
3005.925500 0.0440 0.0440 0.0440 0.0440 0.0440
3012.470000 0.0440 0.0440 0.0440 0.0445 0.0450
3019.014500 0.0450 0.0450 0.0455 0.0460 0.0476
3025.559000 0.0490 0.0495 0.0500 0.0510 0.0520
3032.103500 0.0525 0.0540 0.0561 0.0575 0.0585
3038.648000 0.0601 0.0615 0.0625 0.0630 0.0640
3045.192500 0.0650 0.0650 0.0650 0.0650 0.0655
3051.737000 0.0665 0.0680 0.0690 0.0700 0.0710
3058.281500 0.0731 0.0755 0.0771 0.0791 0.0811
3064.826000 0.0825 0.0835 0.0845 0.0866 0.0896
3071.370500 0.0920 0.0940 0.0966 0.0991 0.1000
3077.915000 0.1011 0.1030 0.1045 0.1066 0.1090
3084.459500 0.1105 0.1120 0.1135 0.1161 0.1185
3091.004000 0.1206 0.1225 0.1240 0.1255 0.1270
3097.548500 0.1290 0.1310 0.1336 0.1366 0.1385
3104.093000 0.1395 0.1416 0.1435 0.1456 0.1491
3110.637500 0.1520 0.1546 0.1571 0.1596 0.1642
3117.182000 0.1723 0.1770 0.1801 0.1872 0.1931
3123.726500 0.1981 0.2041 0.2086 0.2132 0.2186
3130.271000 0.2231 0.2281 0.2347 0.2422 0.2481
3136.815500 0.2510 0.2541 0.2576 0.2658 0.2767
3143.360000 0.2821 0.2888 0.2971 0.3037 0.3112
3149.904500 0.3181 0.3257 0.3337 0.3412 0.3481
3156.449000 0.3536 0.3581 0.3605 0.3683 0.3787
3162.993500 0.3856 0.3953 0.4042 0.4091 0.4157
3169.538000 0.4237 0.4307 0.4377 0.4426 0.4456
3176.082500 0.4501 0.4561 0.4632 0.4712 0.4792
3182.627000 0.4867 0.4937 0.4996 0.5083 0.5203
3189.171500 0.5312 0.5407 0.5503 0.5603 0.5697
3195.716000 0.5787 0.5877 0.5967 0.6052 0.6137
3202.260500 0.6222 0.6307 0.6392 0.6472 0.6547
3208.805000 0.6627 0.6712 0.6797 0.6929 0.7031
3215.349500 0.7076 0.7137 0.7196 0.7262 0.7347
3221.894000 0.7416 0.7477 0.7536 0.7581 0.7616
3228.438500 0.7661 0.7727 0.7776 0.7806 0.7862
3234.983000 0.7910 0.7941 0.7970 0.8011 0.8061
3241.527500 0.8096 0.8131 0.8155 0.8176 0.8200
3248.072000 0.8226 0.8245 0.8266 0.8290 0.8316
3254.616500 0.8335 0.8345 0.8361 0.8375 0.8385
3261.161000 0.8400 0.8410 0.8415 0.8425 0.8430
3267.705500 0.8440 0.8450 0.8455 0.8460 0.8460
3274.250000 0.8460 0.8460 0.8460 0.8465 0.8470
3280.794500 0.8475 0.8480 0.8480 0.8480 0.8480
3287.339000 0.8480 0.8480 0.8480 0.8475 0.8470
3293.883500 0.8470 0.8470 0.8470 0.8470 0.8465
3300.428000 0.8460 0.8455 0.8450 0.8440 0.8430
3306.972500 0.8425 0.8415 0.8399 0.8385 0.8364
3313.517000 0.8340 0.8314 0.8295 0.8274 0.8250
3320.061500 0.8224 0.8205 0.8200 0.8184 0.8160
3326.606000 0.8134 0.8104 0.8085 0.8064 0.8040
3333.150500 0.8014 0.7979 0.7939 0.7909 0.7884
3339.695000 0.7860 0.7829 0.7794 0.7759 0.7730
3346.239500 0.7699 0.7659 0.7624 0.7589 0.7559
3352.784000 0.7529 0.7489 0.7465 0.7450 0.7435
3359.328500 0.7414 0.7374 0.7324 0.7279 0.7234
3365.873000 0.7194 0.7175 0.7165 0.7123 0.7080
3372.417500 0.7039 0.7005 0.6984 0.6959 0.6945
3378.962000 0.6930 0.6915 0.6894 0.6854 0.6814
3385.506500 0.6790 0.6754 0.6719 0.6699 0.6669
3392.051000 0.6634 0.6610 0.6590 0.6570 0.6550
3398.595500 0.6530 0.6515 0.6489 0.6454 0.6435
3405.140000 0.6420 0.6405 0.6395 0.6385 0.6370
3411.684500 0.6350 0.6324 0.6310 0.6305 0.6300
3418.229000 0.6290 0.6275 0.6270 0.6270 0.6270
3424.773500 0.6270 0.6265 0.6260 0.6260 0.6260
3431.318000 0.6260 0.6255 0.6250 0.6250 0.6250
3437.862500 0.6250 0.6250 0.6255 0.6260 0.6260
3444.407000 0.6265 0.6270 0.6270 0.6270 0.6275
3450.951500 0.6280 0.6280 0.6291 0.6300 0.6300
3457.496000 0.6305 0.6310 0.6315 0.6320 0.6330
3464.040500 0.6345 0.6350 0.6355 0.6371 0.6380
3470.585000 0.6385 0.6390 0.6395 0.6400 0.6405
3477.129500 0.6410 0.6420 0.6430 0.6435 0.6440
3483.674000 0.6440 0.6440 0.6445 0.6450 0.6460
3490.218500 0.6470 0.6475 0.6480 0.6485 0.6490
3496.763000 0.6501 0.6510 0.6515 0.6525 0.6546
3503.307500 0.6565 0.6575 0.6591 0.6605 0.6615
3509.852000 0.6636 0.6660 0.6680 0.6695 0.6705
3516.396500 0.6720 0.6735 0.6745 0.6761 0.6775
3522.941000 0.6790 0.6816 0.6835 0.6850 0.6870
3529.485500 0.6890 0.6905 0.6915 0.6931 0.6945
3536.030000 0.6976 0.7021 0.7045 0.7060 0.7075
3542.574500 0.7080 0.7090 0.7121 0.7156 0.7186
3549.119000 0.7210 0.7236 0.7255 0.7265 0.7280
3555.663500 0.7295 0.7305 0.7326 0.7345 0.7366
3562.208000 0.7390 0.7410 0.7430 0.7450 0.7460
3568.752500 0.7465 0.7475 0.7496 0.7521 0.7541
3575.297000 0.7555 0.7565 0.7570 0.7580 0.7595
3581.841500 0.7605 0.7626 0.7645 0.7655 0.7660
3588.386000 0.7670 0.7690 0.7716 0.7746 0.7770
3594.930500 0.7785 0.7800 0.7815 0.7825 0.7846
3601.475000 0.7876 0.7895 0.7910 0.7936 0.7966
3608.019500 0.7985 0.7990 0.7995 0.8011 0.8025
3614.564000 0.8035 0.8056 0.8075 0.8085 0.8100
3621.108500 0.8115 0.8120 0.8125 0.8130 0.8140
3627.653000 0.8150 0.8150 0.8150 0.8155 0.8160
3634.197500 0.8160 0.8160 0.8160 0.8160 0.8165
3640.742000 0.8170 0.8170 0.8170 0.8170 0.8170
3647.286500 0.8170 0.8170 0.8170 0.8165 0.8160
3653.831000 0.8160 0.8155 0.8150 0.8150 0.8150
3660.375500 0.8150 0.8150 0.8139 0.8130 0.8125
3666.920000 0.8120 0.8120 0.8120 0.8115 0.8100
3673.464500 0.8090 0.8090 0.8101 0.8110 0.8115
3680.009000 0.8120 0.8125 0.8130 0.8130 0.8130
3686.553500 0.8140 0.8150 0.8150 0.8150 0.8150
3693.098000 0.8150 0.8150 0.8150 0.8150 0.8150
3699.642500 0.8150 0.8150 0.8150 0.8150 0.8150
3706.187000 0.8140 0.8130 0.8130 0.8130 0.8125
3712.731500 0.8120 0.8120 0.8115 0.8110 0.8110
3719.276000 0.8100 0.8085 0.8080 0.8075 0.8070
3725.820500 0.8070 0.8070 0.8059 0.8050 0.8050
3732.365000 0.8045 0.8040 0.8040 0.8035 0.8030
3738.909500 0.8030 0.8030 0.8025 0.8020 0.8020
3745.454000 0.8020 0.8010 0.8000 0.8000 0.8000
3751.998500 0.8000 0.7995 0.7990 0.7990 0.7990
3758.543000 0.7985 0.7980 0.7980 0.7980 0.7970
3765.087500 0.7960 0.7960 0.7960 0.7955 0.7950
3771.632000 0.7950 0.7950 0.7950 0.7945 0.7940
3778.176500 0.7940 0.7930 0.7915 0.7910 0.7910
3784.721000 0.7905 0.7895 0.7880 0.7865 0.7860
3791.265500 0.7860 0.7855 0.7850 0.7850 0.7850
3797.810000 0.7850 0.7850 0.7850 0.7850 0.7850
3804.354500 0.7840 0.7830 0.7830 0.7830 0.7830
3810.899000 0.7825 0.7815 0.7810 0.7810 0.7800
3817.443500 0.7790 0.7790 0.7790 0.7790 0.7785
3823.988000 0.7780 0.7775 0.7770 0.7770 0.7765
3830.532500 0.7760 0.7750 0.7740 0.7735 0.7725
3837.077000 0.7720 0.7720 0.7720 0.7720 0.7710
3843.621500 0.7700 0.7695 0.7690 0.7685 0.7680
3850.166000 0.7670 0.7660 0.7660 0.7660 0.7660
3856.710500 0.7655 0.7650 0.7650 0.7650 0.7650
3863.255000 0.7645 0.7640 0.7640 0.7635 0.7630
3869.799500 0.7630 0.7620 0.7610 0.7610 0.7610
3876.344000 0.7610 0.7610 0.7610 0.7610 0.7610
3882.888500 0.7605 0.7600 0.7600 0.7595 0.7590
3889.433000 0.7590 0.7595 0.7600 0.7600 0.7600
3895.977500 0.7600 0.7595 0.7579 0.7559 0.7540
3902.522000 0.7520 0.7505 0.7500 0.7490 0.7480
3909.066500 0.7475 0.7470 0.7465 0.7460 0.7450
3915.611000 0.7435 0.7430 0.7430 0.7430 0.7425
3922.155500 0.7420 0.7420 0.7409 0.7400 0.7400
3928.700000 0.7400 0.7400 0.7400 0.7400 0.7400
3935.244500 0.7400 0.7400 0.7400 0.7400 0.7400
3941.789000 0.7400 0.7400 0.7400 0.7400 0.7400
3948.333500 0.7400 0.7400 0.7400 0.7400 0.7400
3954.878000 0.7400 0.7400 0.7400 0.7390 0.7380
3961.422500 0.7370 0.7355 0.7350 0.7350 0.7350
3967.967000 0.7350 0.7350 0.7350 0.7350 0.7350
3974.511500 0.7350 0.7350 0.7350 0.7350 0.7350
3981.056000 0.7350 0.7350 0.7350 0.7350 0.7350
3987.600500 0.7350 0.7350 0.7350 0.7350 0.7350
3994.145000 0.7350 0.7350 0.7350 0.7350 0.7350
4000.689500 0.7350 0.7350
##END=
