##TITLE=OXALIC ACID, DIHYDRATE
##JCAMP-DX=4.24
##DATA TYPE=INFRARED SPECTRUM
##CLASS=COBLENTZ III
##ORIGIN=DOW CHEMICAL COMPANY
##OWNER=COBLENTZ SOCIETY
Collection (C) 2018 copyright by the U.S. Secretary of Commerce
on behalf of the United States of America. All rights reserved.
##DATE=1965/11/11
##MOLFORM=C2 H2 O4  * 2 H2 O
##SOURCE REFERENCE=COBLENTZ NO. 10643
##$NIST ID=B6010643
##$NIST SOURCE=COBLENTZ
##$NIST IMAGE=cob10643
##SPECTROMETER/DATA SYSTEM=DOW KBr FOREPRISM-GRATING
##INSTRUMENT PARAMETERS=BLAZED AT 3.5, 12.0, 20.0 MICRON, CHANGED AT 5.0, 7.5, 14.9 MICRON
##STATE=SOLID (SPLIT MULL, FLUOROLUBE FOR 3800-1330 AND NUJOL FOR 1330-400 CM ^-^1)
##SAMPLING PROCEDURE=TRANSMISSION
##RESOLUTION=4
##DATA PROCESSING=DIGITIZED BY NIST FROM HARD COPY (FROM TWO SEGMENTS)
##XUNITS=1/CM
##YUNITS=TRANSMITTANCE
##XFACTOR=1.000000
##YFACTOR=1
##DELTAX=0.946971
##FIRSTX=385.417
##LASTX=3800.19
##FIRSTY=0.695
##MAXX=3800.19
##MINX=385.417
##MAXY=0.989
##MINY=0.089
##NPOINTS=3607
##XYDATA=(X++(Y..Y))
385.417000 0.6950 0.6950 0.6950 0.6950 0.6970
390.151855 0.6970 0.6970 0.6970 0.6970 0.6970
394.886710 0.6970 0.6970 0.6970 0.6970 0.6970
399.621566 0.6980 0.6980 0.6980 0.6980 0.6980
404.356421 0.6980 0.7000 0.7000 0.7000 0.7000
409.091276 0.7010 0.7010 0.7010 0.7010 0.7010
413.826131 0.7010 0.7010 0.7010 0.7010 0.7010
418.560986 0.7010 0.7010 0.7010 0.7010 0.7010
423.295842 0.7010 0.7010 0.7010 0.7020 0.7010
428.030697 0.7010 0.7010 0.7010 0.7010 0.7010
432.765552 0.7010 0.7010 0.7010 0.7010 0.7010
437.500407 0.7010 0.7010 0.7010 0.7010 0.7010
442.235263 0.7010 0.7010 0.7010 0.7010 0.7010
446.970118 0.7010 0.7000 0.7000 0.7010 0.7010
451.704973 0.7010 0.7010 0.7010 0.7010 0.7010
456.439828 0.7010 0.7010 0.7010 0.7010 0.7010
461.174683 0.7000 0.7000 0.7000 0.7000 0.7010
465.909539 0.7010 0.7010 0.7000 0.7000 0.7000
470.644394 0.7000 0.7000 0.7010 0.7010 0.7010
475.379249 0.7010 0.7010 0.7010 0.7010 0.7010
480.114104 0.7020 0.7020 0.7040 0.7050 0.7050
484.848959 0.7050 0.7050 0.7050 0.7050 0.7050
489.583815 0.7050 0.7070 0.7070 0.7070 0.7070
494.318670 0.7070 0.7070 0.7070 0.7070 0.7050
499.053525 0.7050 0.7070 0.7070 0.7070 0.7070
503.788380 0.7080 0.7080 0.7100 0.7110 0.7130
508.523236 0.7160 0.7190 0.7190 0.7200 0.7200
513.258091 0.7220 0.7220 0.7220 0.7220 0.7220
517.992946 0.7200 0.7200 0.7170 0.7170 0.7170
522.727801 0.7160 0.7160 0.7140 0.7140 0.7130
527.462656 0.7130 0.7100 0.7080 0.7050 0.7040
532.197512 0.7020 0.7010 0.7000 0.7000 0.6980
536.932367 0.6940 0.6940 0.6920 0.6890 0.6880
541.667222 0.6860 0.6850 0.6830 0.6820 0.6800
546.402077 0.6770 0.6760 0.6730 0.6700 0.6670
551.136932 0.6660 0.6640 0.6640 0.6630 0.6610
555.871788 0.6600 0.6580 0.6570 0.6550 0.6500
560.606643 0.6480 0.6470 0.6470 0.6450 0.6440
565.341498 0.6440 0.6410 0.6410 0.6390 0.6380
570.076353 0.6380 0.6360 0.6360 0.6350 0.6330
574.811208 0.6320 0.6320 0.6300 0.6300 0.6290
579.546064 0.6290 0.6270 0.6270 0.6260 0.6260
584.280919 0.6260 0.6250 0.6250 0.6230 0.6230
589.015774 0.6220 0.6220 0.6200 0.6200 0.6190
593.750629 0.6190 0.6170 0.6170 0.6170 0.6170
598.485485 0.6170 0.6170 0.6190 0.6190 0.6200
603.220340 0.6220 0.6220 0.6230 0.6250 0.6270
607.955195 0.6290 0.6300 0.6320 0.6330 0.6360
612.690050 0.6380 0.6410 0.6440 0.6470 0.6500
617.424905 0.6510 0.6540 0.6550 0.6600 0.6630
622.159761 0.6640 0.6700 0.6730 0.6760 0.6760
626.894616 0.6790 0.6830 0.6850 0.6880 0.6890
631.629471 0.6920 0.6940 0.6950 0.7000 0.7010
636.364326 0.7020 0.7050 0.7080 0.7110 0.7140
641.099181 0.7160 0.7200 0.7230 0.7250 0.7270
645.834037 0.7320 0.7330 0.7360 0.7410 0.7410
650.568892 0.7440 0.7500 0.7520 0.7550 0.7580
655.303747 0.7600 0.7630 0.7670 0.7690 0.7720
660.038602 0.7760 0.7790 0.7790 0.7820 0.7820
664.773457 0.7820 0.7820 0.7820 0.7830 0.7850
669.508313 0.7860 0.7910 0.7920 0.7940 0.7940
674.243168 0.7950 0.7970 0.7980 0.8020 0.8020
678.978023 0.8050 0.8050 0.8070 0.8080 0.8100
683.712878 0.8110 0.8110 0.8110 0.8110 0.8130
688.447734 0.8130 0.8130 0.8110 0.8110 0.8110
693.182589 0.8080 0.8070 0.8070 0.8050 0.8050
697.917444 0.8040 0.8020 0.7980 0.7970 0.7940
702.652299 0.7940 0.7890 0.7860 0.7790 0.7760
707.387154 0.7670 0.7660 0.7580 0.7420 0.7300
712.122010 0.7250 0.7100 0.7020 0.6940 0.6791
716.856865 0.6630 0.6450 0.6350 0.6170 0.5691
721.591720 0.5440 0.5260 0.5160 0.5130 0.5130
726.326575 0.5140 0.5200 0.5260 0.5570 0.5860
731.061430 0.5890 0.6099 0.6319 0.6539 0.7157
735.796286 0.7170 0.7300 0.7420 0.7550 0.7640
740.531141 0.7820 0.7970 0.8130 0.8160 0.8230
745.265996 0.8320 0.8330 0.8390 0.8420 0.8500
750.000851 0.8510 0.8520 0.8540 0.8550 0.8580
754.735707 0.8600 0.8600 0.8630 0.8630 0.8640
759.470562 0.8660 0.8660 0.8670 0.8690 0.8690
764.205417 0.8700 0.8700 0.8700 0.8700 0.8700
768.940272 0.8700 0.8700 0.8700 0.8700 0.8700
773.675127 0.8700 0.8720 0.8720 0.8720 0.8720
778.409983 0.8720 0.8720 0.8720 0.8720 0.8720
783.144838 0.8730 0.8730 0.8730 0.8730 0.8730
787.879693 0.8730 0.8730 0.8730 0.8730 0.8730
792.614548 0.8730 0.8730 0.8730 0.8720 0.8720
797.349403 0.8720 0.8720 0.8720 0.8720 0.8720
802.084259 0.8700 0.8700 0.8700 0.8700 0.8700
806.819114 0.8700 0.8700 0.8700 0.8700 0.8700
811.553969 0.8700 0.8700 0.8700 0.8700 0.8700
816.288824 0.8700 0.8700 0.8700 0.8700 0.8700
821.023679 0.8690 0.8690 0.8690 0.8690 0.8690
825.758535 0.8690 0.8690 0.8690 0.8690 0.8670
830.493390 0.8660 0.8660 0.8640 0.8640 0.8640
835.228245 0.8640 0.8630 0.8630 0.8630 0.8630
839.963100 0.8630 0.8630 0.8630 0.8630 0.8610
844.697956 0.8610 0.8610 0.8600 0.8580 0.8580
849.432811 0.8580 0.8580 0.8580 0.8570 0.8570
854.167666 0.8570 0.8570 0.8570 0.8570 0.8570
858.902521 0.8570 0.8550 0.8550 0.8550 0.8540
863.637376 0.8540 0.8540 0.8540 0.8540 0.8520
868.372232 0.8520 0.8510 0.8510 0.8500 0.8500
873.107087 0.8500 0.8480 0.8470 0.8470 0.8470
877.841942 0.8470 0.8450 0.8440 0.8420 0.8420
882.576797 0.8410 0.8410 0.8390 0.8390 0.8380
887.311652 0.8380 0.8360 0.8350 0.8350 0.8350
892.046508 0.8330 0.8330 0.8330 0.8330 0.8330
896.781363 0.8330 0.8320 0.8320 0.8320 0.8320
901.516218 0.8320 0.8300 0.8300 0.8270 0.8270
906.251073 0.8270 0.8260 0.8260 0.8250 0.8230
910.985928 0.8220 0.8220 0.8200 0.8190 0.8190
915.720784 0.8170 0.8160 0.8160 0.8160 0.8140
920.455639 0.8140 0.8140 0.8130 0.8130 0.8130
925.190494 0.8110 0.8100 0.8080 0.8070 0.8050
929.925349 0.8050 0.8050 0.8040 0.8040 0.8040
934.660205 0.8020 0.8020 0.8010 0.8010 0.8000
939.395060 0.8000 0.8000 0.7980 0.7980 0.7970
944.129915 0.7970 0.7950 0.7940 0.7920 0.7910
948.864770 0.7890 0.7880 0.7850 0.7850 0.7830
953.599625 0.7830 0.7820 0.7800 0.7800 0.7790
958.334481 0.7770 0.7760 0.7760 0.7750 0.7730
963.069336 0.7720 0.7720 0.7700 0.7690 0.7690
967.804191 0.7670 0.7670 0.7660 0.7660 0.7640
972.539046 0.7640 0.7630 0.7610 0.7610 0.7610
977.273901 0.7610 0.7610 0.7600 0.7600 0.7600
982.008757 0.7600 0.7580 0.7580 0.7570 0.7550
986.743612 0.7540 0.7520 0.7510 0.7500 0.7480
991.478467 0.7470 0.7450 0.7440 0.7420 0.7410
996.213322 0.7390 0.7380 0.7360 0.7350 0.7330
1000.948178 0.7320 0.7300 0.7290 0.7270 0.7260
1005.683033 0.7250 0.7230 0.7220 0.7200 0.7200
1010.417888 0.7190 0.7170 0.7160 0.7140 0.7140
1015.152743 0.7130 0.7110 0.7100 0.7070 0.7050
1019.887598 0.7040 0.7020 0.7010 0.7000 0.7000
1024.622454 0.6980 0.6970 0.6940 0.6920 0.6910
1029.357309 0.6890 0.6880 0.6860 0.6850 0.6830
1034.092164 0.6820 0.6790 0.6760 0.6750 0.6730
1038.827019 0.6720 0.6700 0.6690 0.6670 0.6660
1043.561874 0.6640 0.6630 0.6610 0.6600 0.6580
1048.296730 0.6550 0.6540 0.6520 0.6510 0.6500
1053.031585 0.6470 0.6450 0.6440 0.6420 0.6410
1057.766440 0.6380 0.6350 0.6330 0.6320 0.6300
1062.501295 0.6270 0.6260 0.6250 0.6230 0.6220
1067.236150 0.6200 0.6170 0.6160 0.6140 0.6130
1071.971006 0.6110 0.6100 0.6070 0.6040 0.6020
1076.705861 0.6010 0.6000 0.5980 0.5970 0.5950
1081.440716 0.5940 0.5920 0.5890 0.5860 0.5850
1086.175571 0.5830 0.5820 0.5800 0.5790 0.5770
1090.910427 0.5760 0.5750 0.5730 0.5700 0.5670
1095.645282 0.5640 0.5630 0.5610 0.5580 0.5570
1100.380137 0.5550 0.5520 0.5510 0.5500 0.5470
1105.114992 0.5440 0.5420 0.5390 0.5380 0.5360
1109.849847 0.5330 0.5320 0.5290 0.5260 0.5250
1114.584703 0.5230 0.5220 0.5200 0.5190 0.5170
1119.319558 0.5160 0.5160 0.5140 0.5140 0.5130
1124.054413 0.5130 0.5130 0.5130 0.5140 0.5140
1128.789268 0.5160 0.5160 0.5160 0.5170 0.5170
1133.524123 0.5190 0.5200 0.5220 0.5230 0.5250
1138.258979 0.5260 0.5270 0.5290 0.5300 0.5320
1142.993834 0.5350 0.5380 0.5410 0.5440 0.5470
1147.728689 0.5480 0.5480 0.5510 0.5550 0.5600
1152.463544 0.5600 0.5610 0.5630 0.5630 0.5630
1157.198400 0.5630 0.5640 0.5660 0.5700 0.5750
1161.933255 0.5750 0.5750 0.5720 0.5700 0.5690
1166.668110 0.5670 0.5660 0.5660 0.5660 0.5660
1171.402965 0.5640 0.5640 0.5640 0.5640 0.5640
1176.137820 0.5640 0.5630 0.5630 0.5630 0.5610
1180.872676 0.5610 0.5610 0.5600 0.5580 0.5550
1185.607531 0.5510 0.5500 0.5500 0.5480 0.5440
1190.342386 0.5410 0.5390 0.5380 0.5360 0.5300
1195.077241 0.5270 0.5260 0.5250 0.5230 0.5200
1199.812096 0.5140 0.5130 0.5110 0.5100 0.5050
1204.546952 0.5020 0.4980 0.4950 0.4910 0.4880
1209.281807 0.4850 0.4800 0.4770 0.4750 0.4720
1214.016662 0.4670 0.4640 0.4610 0.4540 0.4470
1218.751517 0.4420 0.4360 0.4300 0.4230 0.4160
1223.486372 0.4100 0.4040 0.4010 0.3980 0.3880
1228.221228 0.3790 0.3730 0.3660 0.3600 0.3500
1232.956083 0.3420 0.3290 0.3190 0.3100 0.3010
1237.690938 0.2910 0.2820 0.2750 0.2670 0.2600
1242.425793 0.2520 0.2420 0.2350 0.2290 0.2250
1247.160649 0.2190 0.2130 0.2080 0.2070 0.2070
1251.895504 0.2070 0.2080 0.2110 0.2130 0.2160
1256.630359 0.2200 0.2220 0.2300 0.2470 0.2500
1261.365214 0.2600 0.2700 0.2820 0.2920 0.3109
1266.100069 0.3130 0.3260 0.3390 0.3630 0.3640
1270.834925 0.3790 0.4229 0.4250 0.4390 0.4689
1275.569780 0.4700 0.4790 0.4880 0.4970 0.5140
1280.304635 0.5160 0.5270 0.5499 0.5510 0.5580
1285.039490 0.5660 0.5800 0.5800 0.5860 0.5920
1289.774345 0.5970 0.6050 0.6070 0.6080 0.6100
1294.509201 0.6100 0.6110 0.6130 0.6140 0.6160
1299.244056 0.6160 0.6160 0.6170 0.6170 0.6190
1303.978911 0.6190 0.6200 0.6200 0.6200 0.6220
1308.713766 0.6220 0.6220 0.6220 0.6220 0.6220
1313.448621 0.6230 0.6230 0.6230 0.6230 0.6230
1318.183477 0.6230 0.6230 0.6230 0.6230 0.6230
1322.918332 0.6230 0.6220 0.6220 0.6200 0.6190
1327.653187 0.6170 0.6160 0.6140 0.6110 0.6110
1332.388042 0.6100 0.6080 0.6070 0.6050 0.6040
1337.122898 0.6020 0.6010 0.6000 0.5980 0.5970
1341.857753 0.5950 0.5950 0.5970 0.5980 0.6010
1346.592608 0.6020 0.6040 0.6070 0.6110 0.6110
1351.327463 0.6130 0.6140 0.6160 0.6160 0.6170
1356.062318 0.6190 0.6200 0.6200 0.6220 0.6230
1360.797174 0.6250 0.6250 0.6260 0.6260 0.6270
1365.532029 0.6270 0.6290 0.6290 0.6300 0.6300
1370.266884 0.6320 0.6320 0.6320 0.6330 0.6330
1375.001739 0.6320 0.6320 0.6320 0.6320 0.6320
1379.736594 0.6320 0.6300 0.6300 0.6300 0.6300
1384.471450 0.6300 0.6300 0.6300 0.6300 0.6320
1389.206305 0.6320 0.6320 0.6320 0.6320 0.6300
1393.941160 0.6300 0.6290 0.6270 0.6260 0.6260
1398.676015 0.6250 0.6250 0.6220 0.6200 0.6190
1403.410871 0.6170 0.6170 0.6170 0.6160 0.6160
1408.145726 0.6140 0.6110 0.6070 0.6040 0.6020
1412.880581 0.6020 0.6010 0.5980 0.5970 0.5950
1417.615436 0.5920 0.5910 0.5880 0.5860 0.5830
1422.350291 0.5820 0.5800 0.5760 0.5750 0.5730
1427.085147 0.5700 0.5660 0.5640 0.5630 0.5580
1431.820002 0.5550 0.5520 0.5500 0.5470 0.5440
1436.554857 0.5410 0.5390 0.5380 0.5360 0.5360
1441.289712 0.5350 0.5350 0.5350 0.5360 0.5360
1446.024567 0.5380 0.5410 0.5420 0.5440 0.5470
1450.759423 0.5500 0.5520 0.5570 0.5600 0.5610
1455.494278 0.5630 0.5640 0.5700 0.5720 0.5750
1460.229133 0.5760 0.5770 0.5800 0.5820 0.5850
1464.963988 0.5860 0.5880 0.5880 0.5890 0.5890
1469.698843 0.5890 0.5890 0.5890 0.5890 0.5890
1474.433699 0.5890 0.5890 0.5890 0.5880 0.5880
1479.168554 0.5860 0.5860 0.5850 0.5830 0.5820
1483.903409 0.5820 0.5800 0.5790 0.5770 0.5760
1488.638264 0.5750 0.5750 0.5730 0.5720 0.5690
1493.373120 0.5670 0.5660 0.5640 0.5630 0.5610
1498.107975 0.5600 0.5580 0.5550 0.5540 0.5520
1502.842830 0.5510 0.5500 0.5500 0.5480 0.5450
1507.577685 0.5420 0.5390 0.5380 0.5360 0.5330
1512.312540 0.5300 0.5270 0.5260 0.5250 0.5250
1517.047396 0.5220 0.5200 0.5170 0.5160 0.5130
1521.782251 0.5110 0.5080 0.5080 0.5070 0.5050
1526.517106 0.5020 0.5010 0.5000 0.4980 0.4970
1531.251961 0.4950 0.4940 0.4940 0.4920 0.4910
1535.986816 0.4890 0.4850 0.4820 0.4800 0.4800
1540.721672 0.4790 0.4790 0.4770 0.4760 0.4750
1545.456527 0.4750 0.4730 0.4720 0.4700 0.4700
1550.191382 0.4690 0.4670 0.4660 0.4640 0.4630
1554.926237 0.4630 0.4610 0.4600 0.4600 0.4580
1559.661092 0.4570 0.4570 0.4550 0.4540 0.4520
1564.395948 0.4520 0.4510 0.4500 0.4500 0.4500
1569.130803 0.4480 0.4470 0.4470 0.4470 0.4470
1573.865658 0.4470 0.4450 0.4450 0.4450 0.4450
1578.600513 0.4440 0.4420 0.4420 0.4410 0.4390
1583.335369 0.4390 0.4380 0.4360 0.4360 0.4350
1588.070224 0.4330 0.4320 0.4300 0.4270 0.4260
1592.805079 0.4220 0.4170 0.4130 0.4100 0.4050
1597.539934 0.4020 0.4010 0.3980 0.3950 0.3910
1602.274789 0.3890 0.3830 0.3790 0.3730 0.3690
1607.009645 0.3610 0.3570 0.3520 0.3500 0.3470
1611.744500 0.3440 0.3420 0.3410 0.3390 0.3380
1616.479355 0.3360 0.3350 0.3330 0.3320 0.3300
1621.214210 0.3290 0.3270 0.3260 0.3250 0.3230
1625.949065 0.3220 0.3170 0.3110 0.3070 0.3020
1630.683921 0.2940 0.2880 0.2830 0.2790 0.2750
1635.418776 0.2700 0.2640 0.2610 0.2550 0.2510
1640.153631 0.2470 0.2410 0.2350 0.2290 0.2250
1644.888486 0.2190 0.2110 0.2100 0.2050 0.2010
1649.623342 0.1970 0.1910 0.1860 0.1820 0.1770
1654.358197 0.1730 0.1670 0.1570 0.1570 0.1500
1659.093052 0.1470 0.1450 0.1390 0.1320 0.1300
1663.827907 0.1270 0.1250 0.1200 0.1190 0.1140
1668.562762 0.1110 0.1080 0.1070 0.1050 0.1020
1673.297618 0.1010 0.1000 0.1000 0.0980 0.0950
1678.032473 0.0940 0.0920 0.0920 0.0910 0.0890
1682.767328 0.0890 0.0890 0.0890 0.0890 0.0910
1687.502183 0.0910 0.0920 0.0940 0.0950 0.0970
1692.237038 0.1000 0.1020 0.1040 0.1070 0.1100
1696.971894 0.1130 0.1140 0.1170 0.1200 0.1250
1701.706749 0.1300 0.1350 0.1410 0.1450 0.1520
1706.441604 0.1540 0.1600 0.1730 0.1750 0.1820
1711.176459 0.1880 0.1950 0.2010 0.2020 0.2130
1715.911314 0.2220 0.2410 0.2410 0.2480 0.2540
1720.646170 0.2600 0.2700 0.2720 0.2880 0.3190
1725.381025 0.3200 0.3270 0.3300 0.3330 0.3410
1730.115880 0.3500 0.3660 0.3690 0.3730 0.3790
1734.850735 0.3830 0.3920 0.4010 0.4070 0.4140
1739.585591 0.4290 0.4300 0.4350 0.4380 0.4420
1744.320446 0.4450 0.4500 0.4520 0.4550 0.4570
1749.055301 0.4610 0.4660 0.4670 0.4690 0.4700
1753.790156 0.4730 0.4750 0.4770 0.4790 0.4800
1758.525011 0.4820 0.4830 0.4850 0.4850 0.4850
1763.259867 0.4860 0.4860 0.4880 0.4890 0.4890
1767.994722 0.4890 0.4880 0.4880 0.4880 0.4860
1772.729577 0.4860 0.4860 0.4850 0.4830 0.4830
1777.464432 0.4830 0.4820 0.4820 0.4820 0.4800
1782.199287 0.4800 0.4800 0.4790 0.4790 0.4770
1786.934143 0.4760 0.4730 0.4720 0.4700 0.4690
1791.668998 0.4670 0.4660 0.4640 0.4630 0.4630
1796.403853 0.4610 0.4600 0.4580 0.4580 0.4570
1801.138708 0.4550 0.4540 0.4510 0.4500 0.4480
1805.873564 0.4470 0.4450 0.4440 0.4420 0.4410
1810.608419 0.4390 0.4380 0.4360 0.4350 0.4330
1815.343274 0.4300 0.4290 0.4270 0.4260 0.4250
1820.078129 0.4250 0.4230 0.4220 0.4200 0.4190
1824.812984 0.4170 0.4160 0.4140 0.4130 0.4110
1829.547840 0.4100 0.4080 0.4050 0.4040 0.4020
1834.282695 0.4020 0.4010 0.4000 0.4000 0.3980
1839.017550 0.3970 0.3950 0.3940 0.3920 0.3910
1843.752405 0.3890 0.3890 0.3880 0.3880 0.3850
1848.487260 0.3850 0.3830 0.3820 0.3820 0.3800
1853.222116 0.3790 0.3790 0.3770 0.3770 0.3760
1857.956971 0.3750 0.3730 0.3720 0.3700 0.3690
1862.691826 0.3670 0.3670 0.3660 0.3660 0.3660
1867.426681 0.3660 0.3640 0.3640 0.3630 0.3630
1872.161536 0.3610 0.3610 0.3600 0.3600 0.3580
1876.896392 0.3580 0.3570 0.3550 0.3550 0.3550
1881.631247 0.3550 0.3540 0.3540 0.3540 0.3520
1886.366102 0.3520 0.3520 0.3510 0.3510 0.3500
1891.100957 0.3500 0.3500 0.3480 0.3480 0.3480
1895.835813 0.3470 0.3470 0.3450 0.3450 0.3450
1900.570668 0.3440 0.3440 0.3440 0.3440 0.3420
1905.305523 0.3420 0.3420 0.3410 0.3410 0.3410
1910.040378 0.3410 0.3410 0.3410 0.3410 0.3410
1914.775233 0.3410 0.3410 0.3410 0.3410 0.3410
1919.510089 0.3410 0.3420 0.3420 0.3420 0.3420
1924.244944 0.3440 0.3440 0.3440 0.3440 0.3450
1928.979799 0.3450 0.3450 0.3450 0.3450 0.3470
1933.714654 0.3470 0.3470 0.3470 0.3470 0.3470
1938.449509 0.3470 0.3470 0.3480 0.3480 0.3480
1943.184365 0.3500 0.3500 0.3510 0.3510 0.3520
1947.919220 0.3520 0.3520 0.3520 0.3520 0.3540
1952.654075 0.3540 0.3540 0.3550 0.3550 0.3570
1957.388930 0.3570 0.3570 0.3570 0.3570 0.3570
1962.123785 0.3580 0.3580 0.3580 0.3580 0.3580
1966.858641 0.3600 0.3610 0.3610 0.3630 0.3630
1971.593496 0.3640 0.3640 0.3640 0.3640 0.3640
1976.328351 0.3640 0.3640 0.3640 0.3660 0.3660
1981.063206 0.3670 0.3670 0.3690 0.3690 0.3700
1985.798062 0.3700 0.3700 0.3700 0.3700 0.3700
1990.532917 0.3700 0.3700 0.3700 0.3700 0.3720
1995.267772 0.3720 0.3730 0.3730 0.3730 0.3750
2000.002627 0.3760 0.3765 0.3770 0.3770 0.3770
2004.737482 0.3785 0.3800 0.3800 0.3800 0.3810
2009.472338 0.3820 0.3825 0.3830 0.3845 0.3860
2014.207193 0.3870 0.3880 0.3885 0.3890 0.3900
2018.942048 0.3910 0.3915 0.3921 0.3931 0.3940
2023.676903 0.3945 0.3952 0.3977 0.4001 0.4011
2028.411758 0.4021 0.4031 0.4040 0.4045 0.4051
2033.146614 0.4061 0.4070 0.4075 0.4081 0.4091
2037.881469 0.4101 0.4106 0.4113 0.4138 0.4162
2042.616324 0.4182 0.4201 0.4211 0.4222 0.4237
2047.351179 0.4251 0.4256 0.4262 0.4277 0.4292
2052.086035 0.4312 0.4332 0.4347 0.4361 0.4371
2056.820890 0.4381 0.4386 0.4394 0.4419 0.4445
2061.555745 0.4475 0.4502 0.4512 0.4522 0.4537
2066.290600 0.4552 0.4562 0.4571 0.4576 0.4583
2071.025455 0.4598 0.4613 0.4628 0.4642 0.4652
2075.760311 0.4661 0.4666 0.4673 0.4688 0.4703
2080.495166 0.4718 0.4733 0.4748 0.4761 0.4766
2085.230021 0.4773 0.4788 0.4803 0.4818 0.4832
2089.964876 0.4842 0.4853 0.4868 0.4881 0.4886
2094.699731 0.4892 0.4902 0.4911 0.4916 0.4923
2099.434587 0.4933 0.4941 0.4946 0.4954 0.4969
2104.169442 0.4984 0.4999 0.5011 0.5016 0.5024
2108.904297 0.5039 0.5054 0.5069 0.5084 0.5099
2113.639152 0.5113 0.5123 0.5134 0.5149 0.5165
2118.374007 0.5180 0.5192 0.5197 0.5205 0.5220
2123.108863 0.5235 0.5250 0.5266 0.5286 0.5303
2127.843718 0.5313 0.5325 0.5340 0.5356 0.5377
2132.578573 0.5404 0.5444 0.5470 0.5470 0.5475
2137.313428 0.5490 0.5504 0.5514 0.5524 0.5534
2142.048284 0.5545 0.5560 0.5575 0.5590 0.5602
2146.783139 0.5607 0.5615 0.5630 0.5649 0.5675
2151.517994 0.5696 0.5711 0.5722 0.5727 0.5734
2156.252849 0.5744 0.5754 0.5764 0.5774 0.5784
2160.987704 0.5792 0.5797 0.5804 0.5814 0.5826
2165.722560 0.5841 0.5856 0.5871 0.5882 0.5887
2170.457415 0.5890 0.5890 0.5897 0.5912 0.5924
2175.192270 0.5934 0.5947 0.5962 0.5972 0.5977
2179.927125 0.5987 0.6002 0.6010 0.6010 0.6017
2184.661980 0.6032 0.6042 0.6047 0.6057 0.6072
2189.396836 0.6087 0.6102 0.6110 0.6110 0.6115
2194.131691 0.6125 0.6132 0.6138 0.6145 0.6155
2198.866546 0.6163 0.6168 0.6175 0.6185 0.6193
2203.601401 0.6198 0.6205 0.6215 0.6223 0.6228
2208.336256 0.6235 0.6245 0.6253 0.6258 0.6263
2213.071112 0.6268 0.6270 0.6270 0.6275 0.6286
2217.805967 0.6290 0.6290 0.6290 0.6290 0.6290
2222.540822 0.6290 0.6293 0.6298 0.6300 0.6300
2227.275677 0.6300 0.6300 0.6300 0.6300 0.6306
2232.010533 0.6316 0.6320 0.6320 0.6320 0.6320
2236.745388 0.6323 0.6328 0.6330 0.6330 0.6330
2241.480243 0.6330 0.6330 0.6330 0.6330 0.6330
2246.215098 0.6336 0.6346 0.6350 0.6350 0.6350
2250.949953 0.6350 0.6350 0.6350 0.6350 0.6350
2255.684809 0.6353 0.6358 0.6360 0.6360 0.6367
2260.419664 0.6377 0.6383 0.6388 0.6390 0.6390
2265.154519 0.6390 0.6390 0.6397 0.6407 0.6410
2269.889374 0.6410 0.6413 0.6418 0.6420 0.6420
2274.624229 0.6420 0.6420 0.6420 0.6420 0.6427
2279.359085 0.6437 0.6440 0.6440 0.6444 0.6449
2284.093940 0.6450 0.6450 0.6450 0.6450 0.6450
2288.828795 0.6450 0.6457 0.6467 0.6470 0.6470
2293.563650 0.6463 0.6453 0.6446 0.6441 0.6440
2298.298506 0.6440 0.6444 0.6449 0.6458 0.6468
2303.033361 0.6486 0.6506 0.6545 0.6590 0.6612
2307.768216 0.6627 0.6634 0.6639 0.6640 0.6640
2312.503071 0.6648 0.6658 0.6664 0.6669 0.6678
2317.237926 0.6688 0.6690 0.6690 0.6694 0.6699
2321.972782 0.6700 0.6700 0.6700 0.6700 0.6700
2326.707637 0.6700 0.6700 0.6700 0.6696 0.6691
2331.442492 0.6690 0.6690 0.6682 0.6672 0.6666
2336.177347 0.6661 0.6660 0.6660 0.6660 0.6660
2340.912202 0.6660 0.6660 0.6651 0.6641 0.6640
2345.647058 0.6640 0.6636 0.6631 0.6621 0.6611
2350.381913 0.6606 0.6601 0.6591 0.6581 0.6580
2355.116768 0.6580 0.6575 0.6570 0.6561 0.6551
2359.851623 0.6545 0.6540 0.6540 0.6540 0.6531
2364.586478 0.6521 0.6515 0.6510 0.6505 0.6500
2369.321334 0.6500 0.6500 0.6491 0.6481 0.6475
2374.056189 0.6470 0.6461 0.6450 0.6450 0.6450
2378.791044 0.6450 0.6450 0.6445 0.6440 0.6440
2383.525899 0.6440 0.6440 0.6440 0.6430 0.6420
2388.260755 0.6420 0.6420 0.6415 0.6410 0.6410
2392.995610 0.6410 0.6400 0.6390 0.6390 0.6390
2397.730465 0.6390 0.6390 0.6390 0.6390 0.6385
2402.465320 0.6380 0.6380 0.6380 0.6370 0.6360
2407.200175 0.6360 0.6360 0.6360 0.6360 0.6360
2411.935031 0.6360 0.6355 0.6350 0.6350 0.6350
2416.669886 0.6350 0.6350 0.6350 0.6350 0.6350
2421.404741 0.6349 0.6339 0.6330 0.6330 0.6330
2426.139596 0.6330 0.6330 0.6330 0.6330 0.6330
2430.874451 0.6330 0.6325 0.6320 0.6320 0.6320
2435.609307 0.6320 0.6319 0.6309 0.6300 0.6300
2440.344162 0.6300 0.6300 0.6300 0.6300 0.6299
2445.079017 0.6294 0.6290 0.6290 0.6290 0.6290
2449.813872 0.6290 0.6290 0.6290 0.6290 0.6290
2454.548728 0.6290 0.6290 0.6290 0.6290 0.6290
2459.283583 0.6290 0.6290 0.6290 0.6290 0.6290
2464.018438 0.6290 0.6290 0.6290 0.6290 0.6290
2468.753293 0.6290 0.6290 0.6290 0.6290 0.6290
2473.488148 0.6290 0.6290 0.6290 0.6290 0.6290
2478.223004 0.6290 0.6290 0.6291 0.6296 0.6300
2482.957859 0.6300 0.6300 0.6300 0.6300 0.6300
2487.692714 0.6302 0.6312 0.6320 0.6320 0.6320
2492.427569 0.6320 0.6320 0.6320 0.6321 0.6326
2497.162424 0.6330 0.6330 0.6330 0.6330 0.6333
2501.897280 0.6343 0.6350 0.6350 0.6350 0.6350
2506.632135 0.6351 0.6356 0.6363 0.6373 0.6382
2511.366990 0.6387 0.6390 0.6390 0.6393 0.6403
2516.101845 0.6412 0.6417 0.6423 0.6433 0.6442
2520.836700 0.6447 0.6453 0.6463 0.6472 0.6477
2525.571556 0.6480 0.6480 0.6483 0.6494 0.6500
2530.306411 0.6500 0.6502 0.6507 0.6512 0.6517
2535.041266 0.6524 0.6534 0.6542 0.6547 0.6559
2539.776121 0.6584 0.6602 0.6607 0.6614 0.6624
2544.510977 0.6632 0.6637 0.6644 0.6654 0.6660
2549.245832 0.6660 0.6666 0.6681 0.6696 0.6711
2553.980687 0.6722 0.6727 0.6734 0.6744 0.6752
2558.715542 0.6757 0.6762 0.6767 0.6774 0.6784
2563.450397 0.6797 0.6812 0.6820 0.6820 0.6822
2568.185253 0.6827 0.6835 0.6845 0.6852 0.6857
2572.920108 0.6865 0.6875 0.6880 0.6880 0.6882
2577.654963 0.6887 0.6890 0.6890 0.6890 0.6890
2582.389818 0.6890 0.6890 0.6890 0.6890 0.6890
2587.124673 0.6890 0.6887 0.6882 0.6880 0.6880
2591.859529 0.6875 0.6865 0.6857 0.6852 0.6845
2596.594384 0.6835 0.6827 0.6822 0.6815 0.6805
2601.329239 0.6797 0.6792 0.6785 0.6774 0.6767
2606.064094 0.6762 0.6757 0.6752 0.6750 0.6750
2610.798949 0.6744 0.6734 0.6727 0.6722 0.6720
2615.533805 0.6720 0.6714 0.6704 0.6700 0.6700
2620.268660 0.6697 0.6692 0.6690 0.6690 0.6690
2625.003515 0.6690 0.6690 0.6690 0.6690 0.6690
2629.738370 0.6693 0.6698 0.6700 0.6700 0.6700
2634.473226 0.6700 0.6706 0.6716 0.6720 0.6720
2639.208081 0.6723 0.6728 0.6736 0.6747 0.6753
2643.942936 0.6758 0.6763 0.6768 0.6770 0.6770
2648.677791 0.6777 0.6787 0.6793 0.6798 0.6810
2653.412646 0.6825 0.6837 0.6847 0.6850 0.6850
2658.147502 0.6864 0.6884 0.6900 0.6916 0.6920
2662.882357 0.6920 0.6931 0.6946 0.6957 0.6967
2667.617212 0.6981 0.6996 0.7004 0.7009 0.7014
2672.352067 0.7019 0.7027 0.7037 0.7044 0.7049
2677.086922 0.7061 0.7076 0.7087 0.7097 0.7111
2681.821778 0.7126 0.7141 0.7156 0.7164 0.7169
2686.556633 0.7181 0.7196 0.7211 0.7226 0.7238
2691.291488 0.7248 0.7254 0.7259 0.7260 0.7260
2696.026343 0.7272 0.7287 0.7302 0.7317 0.7336
2700.761199 0.7356 0.7372 0.7387 0.7398 0.7408
2705.496054 0.7414 0.7419 0.7432 0.7447 0.7450
2710.230909 0.7450 0.7462 0.7477 0.7488 0.7498
2714.965764 0.7504 0.7509 0.7514 0.7519 0.7529
2719.700619 0.7539 0.7544 0.7549 0.7559 0.7569
2724.435475 0.7570 0.7570 0.7583 0.7598 0.7600
2729.170330 0.7600 0.7604 0.7609 0.7610 0.7610
2733.905185 0.7619 0.7629 0.7630 0.7630 0.7635
2738.640040 0.7640 0.7640 0.7640 0.7640 0.7640
2743.374895 0.7649 0.7659 0.7660 0.7660 0.7660
2748.109751 0.7660 0.7665 0.7670 0.7670 0.7670
2752.844606 0.7670 0.7670 0.7670 0.7670 0.7670
2757.579461 0.7670 0.7670 0.7670 0.7665 0.7660
2762.314316 0.7660 0.7660 0.7650 0.7640 0.7640
2767.049171 0.7640 0.7640 0.7640 0.7635 0.7630
2771.784027 0.7630 0.7630 0.7620 0.7610 0.7610
2776.518882 0.7610 0.7595 0.7580 0.7580 0.7580
2781.253737 0.7575 0.7570 0.7570 0.7570 0.7560
2785.988592 0.7550 0.7550 0.7550 0.7545 0.7540
2790.723448 0.7540 0.7540 0.7530 0.7520 0.7520
2795.458303 0.7520 0.7520 0.7520 0.7515 0.7510
2800.193158 0.7510 0.7510 0.7505 0.7500 0.7500
2804.928013 0.7500 0.7500 0.7500 0.7500 0.7500
2809.662868 0.7500 0.7500 0.7500 0.7500 0.7505
2814.397724 0.7510 0.7510 0.7510 0.7515 0.7520
2819.132579 0.7520 0.7521 0.7531 0.7540 0.7540
2823.867434 0.7541 0.7546 0.7550 0.7550 0.7551
2828.602289 0.7561 0.7570 0.7570 0.7571 0.7576
2833.337144 0.7580 0.7580 0.7581 0.7591 0.7600
2838.072000 0.7600 0.7601 0.7606 0.7612 0.7622
2842.806855 0.7631 0.7636 0.7642 0.7652 0.7661
2847.541710 0.7666 0.7674 0.7700 0.7721 0.7726
2852.276565 0.7733 0.7748 0.7761 0.7766 0.7772
2857.011420 0.7782 0.7791 0.7796 0.7802 0.7812
2861.746276 0.7821 0.7826 0.7832 0.7842 0.7851
2866.481131 0.7856 0.7862 0.7872 0.7881 0.7886
2871.215986 0.7890 0.7890 0.7892 0.7902 0.7911
2875.950841 0.7916 0.7923 0.7933 0.7941 0.7946
2880.685697 0.7953 0.7963 0.7971 0.7976 0.7980
2885.420552 0.7980 0.7983 0.7993 0.8000 0.8000
2890.155407 0.8001 0.8006 0.8010 0.8010 0.8010
2894.890262 0.8010 0.8012 0.8016 0.8023 0.8033
2899.625117 0.8040 0.8040 0.8042 0.8047 0.8050
2904.359973 0.8050 0.8053 0.8063 0.8070 0.8070
2909.094828 0.8072 0.8077 0.8083 0.8093 0.8100
2913.829683 0.8100 0.8100 0.8100 0.8102 0.8107
2918.564538 0.8110 0.8110 0.8114 0.8124 0.8130
2923.299393 0.8130 0.8132 0.8137 0.8140 0.8140
2928.034249 0.8144 0.8154 0.8160 0.8160 0.8162
2932.769104 0.8167 0.8170 0.8170 0.8174 0.8184
2937.503959 0.8190 0.8190 0.8190 0.8190 0.8192
2942.238814 0.8197 0.8200 0.8200 0.8200 0.8200
2946.973670 0.8200 0.8200 0.8200 0.8200 0.8200
2951.708525 0.8200 0.8200 0.8200 0.8200 0.8200
2956.443380 0.8205 0.8215 0.8220 0.8220 0.8222
2961.178235 0.8227 0.8235 0.8245 0.8250 0.8250
2965.913090 0.8250 0.8250 0.8252 0.8257 0.8260
2970.647946 0.8260 0.8262 0.8267 0.8270 0.8270
2975.382801 0.8270 0.8270 0.8270 0.8270 0.8270
2980.117656 0.8270 0.8270 0.8270 0.8270 0.8270
2984.852511 0.8275 0.8285 0.8290 0.8290 0.8290
2989.587366 0.8290 0.8293 0.8298 0.8300 0.8300
2994.322222 0.8300 0.8300 0.8306 0.8316 0.8320
2999.057077 0.8320 0.8323 0.8328 0.8330 0.8330
3003.791932 0.8330 0.8330 0.8330 0.8330 0.8336
3008.526787 0.8346 0.8350 0.8350 0.8350 0.8350
3013.261642 0.8350 0.8350 0.8353 0.8358 0.8360
3017.996498 0.8360 0.8360 0.8360 0.8360 0.8360
3022.731353 0.8366 0.8376 0.8380 0.8380 0.8380
3027.466208 0.8380 0.8380 0.8380 0.8380 0.8380
3032.201063 0.8380 0.8380 0.8380 0.8380 0.8380
3036.935919 0.8380 0.8380 0.8380 0.8380 0.8380
3041.670774 0.8380 0.8380 0.8380 0.8380 0.8383
3046.405629 0.8388 0.8390 0.8390 0.8390 0.8390
3051.140484 0.8390 0.8390 0.8397 0.8407 0.8410
3055.875339 0.8410 0.8410 0.8410 0.8410 0.8410
3060.610195 0.8410 0.8410 0.8410 0.8410 0.8414
3065.345050 0.8419 0.8420 0.8420 0.8420 0.8420
3070.079905 0.8420 0.8420 0.8420 0.8420 0.8420
3074.814760 0.8420 0.8420 0.8420 0.8420 0.8420
3079.549615 0.8428 0.8438 0.8440 0.8440 0.8440
3084.284471 0.8440 0.8440 0.8440 0.8440 0.8440
3089.019326 0.8440 0.8440 0.8440 0.8440 0.8444
3093.754181 0.8449 0.8458 0.8468 0.8470 0.8470
3098.489036 0.8470 0.8470 0.8470 0.8470 0.8470
3103.223892 0.8470 0.8474 0.8479 0.8480 0.8480
3107.958747 0.8480 0.8480 0.8480 0.8480 0.8480
3112.693602 0.8480 0.8480 0.8480 0.8480 0.8480
3117.428457 0.8480 0.8480 0.8480 0.8480 0.8476
3122.163312 0.8471 0.8470 0.8470 0.8470 0.8470
3126.898168 0.8461 0.8451 0.8450 0.8450 0.8450
3131.633023 0.8450 0.8445 0.8440 0.8440 0.8440
3136.367878 0.8440 0.8440 0.8431 0.8421 0.8420
3141.102733 0.8420 0.8420 0.8420 0.8415 0.8410
3145.837588 0.8410 0.8410 0.8401 0.8391 0.8390
3150.572444 0.8390 0.8390 0.8390 0.8385 0.8380
3155.307299 0.8380 0.8380 0.8380 0.8380 0.8365
3160.042154 0.8350 0.8350 0.8350 0.8350 0.8350
3164.777009 0.8340 0.8330 0.8330 0.8330 0.8325
3169.511864 0.8320 0.8320 0.8320 0.8310 0.8300
3174.246720 0.8300 0.8300 0.8295 0.8290 0.8290
3178.981575 0.8290 0.8280 0.8270 0.8270 0.8270
3183.716430 0.8260 0.8250 0.8250 0.8250 0.8240
3188.451285 0.8230 0.8225 0.8219 0.8209 0.8199
3193.186141 0.8184 0.8170 0.8165 0.8159 0.8149
3197.920996 0.8140 0.8135 0.8129 0.8119 0.8110
3202.655851 0.8105 0.8100 0.8100 0.8099 0.8089
3207.390706 0.8078 0.8058 0.8039 0.8029 0.8019
3212.125561 0.8014 0.8009 0.8004 0.7999 0.7989
3216.860417 0.7979 0.7974 0.7969 0.7959 0.7949
3221.595272 0.7944 0.7939 0.7929 0.7918 0.7903
3226.330127 0.7889 0.7884 0.7878 0.7868 0.7858
3231.064982 0.7842 0.7827 0.7812 0.7800 0.7800
3235.799837 0.7799 0.7794 0.7790 0.7790 0.7788
3240.534693 0.7778 0.7769 0.7764 0.7756 0.7736
3245.269548 0.7718 0.7708 0.7699 0.7694 0.7687
3250.004403 0.7672 0.7658 0.7648 0.7640 0.7640
3254.739258 0.7637 0.7622 0.7609 0.7604 0.7598
3259.474113 0.7588 0.7577 0.7562 0.7549 0.7544
3264.208969 0.7540 0.7540 0.7536 0.7521 0.7509
3268.943824 0.7504 0.7496 0.7481 0.7466 0.7451
3273.678679 0.7437 0.7427 0.7419 0.7414 0.7407
3278.413534 0.7397 0.7384 0.7364 0.7346 0.7331
3283.148390 0.7316 0.7300 0.7287 0.7277 0.7267
3287.883245 0.7257 0.7245 0.7230 0.7215 0.7200
3292.618100 0.7182 0.7157 0.7135 0.7120 0.7105
3297.352955 0.7090 0.7073 0.7053 0.7033 0.7013
3302.087810 0.6997 0.6987 0.6978 0.6973 0.6961
3306.822666 0.6936 0.6918 0.6913 0.6901 0.6876
3311.557521 0.6849 0.6819 0.6794 0.6779 0.6766
3316.292376 0.6756 0.6739 0.6709 0.6686 0.6676
3321.027231 0.6656 0.6621 0.6584 0.6544 0.6510
3325.762086 0.6485 0.6466 0.6456 0.6448 0.6443
3330.496942 0.6421 0.6376 0.6329 0.6279 0.6244
3335.231797 0.6229 0.6209 0.6184 0.6164 0.6149
3339.966652 0.6114 0.6053 0.6015 0.6005 0.5986
3344.701507 0.5956 0.5926 0.5896 0.5866 0.5836
3349.436363 0.5808 0.5783 0.5707 0.5571 0.5493
3354.171218 0.5478 0.5463 0.5448 0.5426 0.5396
3358.906073 0.5365 0.5335 0.5307 0.5282 0.5257
3363.640928 0.5232 0.5207 0.5182 0.5144 0.5094
3368.375783 0.5047 0.5002 0.4964 0.4934 0.4902
3373.110639 0.4867 0.4834 0.4804 0.4758 0.4698
3377.845494 0.4646 0.4600 0.4561 0.4526 0.4491
3382.580349 0.4456 0.4418 0.4378 0.4332 0.4282
3387.315204 0.4240 0.4205 0.4159 0.4104 0.4052
3392.050059 0.4001 0.3929 0.3838 0.3791 0.3776
3396.784915 0.3767 0.3762 0.3748 0.3728 0.3669
3401.519770 0.3584 0.3471 0.3341 0.3250 0.3185
3406.254625 0.3114 0.3039 0.2982 0.2937 0.2911
3410.989480 0.2896 0.2809 0.2679 0.2593 0.2533
3415.724335 0.2497 0.2477 0.2434 0.2379 0.2347
3420.459191 0.2327 0.2297 0.2262 0.2230 0.2200
3425.194046 0.2183 0.2173 0.2177 0.2187 0.2193
3429.928901 0.2198 0.2210 0.2225 0.2237 0.2247
3434.663756 0.2257 0.2267 0.2280 0.2296 0.2311
3439.398612 0.2326 0.2341 0.2356 0.2378 0.2403
3444.133467 0.2414 0.2419 0.2438 0.2463 0.2474
3448.868322 0.2479 0.2502 0.2532 0.2544 0.2549
3453.603177 0.2557 0.2567 0.2574 0.2579 0.2580
3458.338032 0.2580 0.2580 0.2580 0.2580 0.2580
3463.072888 0.2569 0.2554 0.2550 0.2550 0.2546
3467.807743 0.2541 0.2532 0.2522 0.2512 0.2502
3472.542598 0.2492 0.2482 0.2468 0.2453 0.2446
3477.277453 0.2441 0.2428 0.2413 0.2398 0.2383
3482.012308 0.2372 0.2362 0.2348 0.2333 0.2326
3486.747164 0.2321 0.2312 0.2302 0.2288 0.2273
3491.482019 0.2266 0.2261 0.2256 0.2251 0.2242
3496.216874 0.2232 0.2226 0.2221 0.2211 0.2201
3500.951729 0.2200 0.2200 0.2200 0.2200 0.2209
3505.686584 0.2219 0.2224 0.2229 0.2239 0.2249
3510.421440 0.2254 0.2259 0.2273 0.2288 0.2303
3515.156295 0.2318 0.2324 0.2329 0.2339 0.2349
3519.891150 0.2368 0.2388 0.2417 0.2447 0.2459
3524.626005 0.2469 0.2484 0.2499 0.2505 0.2510
3529.360861 0.2538 0.2568 0.2589 0.2609 0.2634
3534.095716 0.2659 0.2688 0.2718 0.2734 0.2749
3538.830571 0.2769 0.2789 0.2838 0.2888 0.2981
3543.565426 0.3076 0.3123 0.3168 0.3180 0.3190
3548.300281 0.3229 0.3270 0.3324 0.3380 0.3430
3553.035137 0.3480 0.3530 0.3580 0.3670 0.3760
3557.769992 0.3780 0.3800 0.3840 0.3881 0.4026
3562.504847 0.4171 0.4321 0.4470 0.4475 0.4481
3567.239702 0.4526 0.4571 0.4586 0.4603 0.4668
3571.974557 0.4730 0.4740 0.4754 0.4839 0.4928
3576.709413 0.5099 0.5260 0.5265 0.5274 0.5344
3581.444268 0.5413 0.5468 0.5527 0.5647 0.5760
3586.179123 0.5765 0.5775 0.5830 0.5884 0.5935
3590.913978 0.5985 0.6035 0.6089 0.6184 0.6271
3595.648834 0.6281 0.6306 0.6461 0.6601 0.6606
3600.383689 0.6618 0.6693 0.6783 0.6999 0.7191
3605.118544 0.7196 0.7202 0.7217 0.7232 0.7247
3609.853399 0.7268 0.7329 0.7392 0.7477 0.7568
3614.588254 0.7693 0.7804 0.7829 0.7857 0.7902
3619.323110 0.7946 0.7986 0.8029 0.8084 0.8144
3624.057965 0.8230 0.8303 0.8318 0.8338 0.8383
3628.792820 0.8428 0.8468 0.8504 0.8524 0.8544
3633.527675 0.8564 0.8595 0.8670 0.8732 0.8742
3638.262530 0.8754 0.8774 0.8793 0.8808 0.8829
3642.997386 0.8875 0.8922 0.8972 0.9015 0.9035
3647.732241 0.9052 0.9062 0.9075 0.9095 0.9112
3652.467096 0.9122 0.9135 0.9155 0.9180 0.9220
3657.201951 0.9255 0.9275 0.9291 0.9296 0.9300
3661.936806 0.9300 0.9304 0.9319 0.9334 0.9349
3666.671662 0.9364 0.9379 0.9393 0.9403 0.9411
3671.406517 0.9416 0.9424 0.9439 0.9453 0.9463
3676.141372 0.9475 0.9490 0.9500 0.9500 0.9502
3680.876227 0.9507 0.9512 0.9517 0.9523 0.9533
3685.611083 0.9542 0.9547 0.9550 0.9550 0.9553
3690.345938 0.9563 0.9572 0.9577 0.9583 0.9593
3695.080793 0.9600 0.9600 0.9602 0.9607 0.9614
3699.815648 0.9624 0.9632 0.9637 0.9640 0.9640
3704.550503 0.9644 0.9654 0.9662 0.9667 0.9670
3709.285359 0.9670 0.9674 0.9684 0.9692 0.9697
3714.020214 0.9700 0.9700 0.9704 0.9714 0.9722
3718.755069 0.9727 0.9730 0.9730 0.9736 0.9751
3723.489924 0.9760 0.9760 0.9762 0.9767 0.9774
3728.224779 0.9784 0.9790 0.9790 0.9792 0.9797
3732.959635 0.9800 0.9800 0.9800 0.9800 0.9805
3737.694490 0.9815 0.9820 0.9820 0.9820 0.9820
3742.429345 0.9820 0.9820 0.9822 0.9827 0.9830
3747.164200 0.9830 0.9830 0.9830 0.9835 0.9845
3751.899056 0.9850 0.9850 0.9850 0.9850 0.9850
3756.633911 0.9850 0.9853 0.9858 0.9860 0.9860
3761.368766 0.9860 0.9860 0.9860 0.9860 0.9865
3766.103621 0.9875 0.9880 0.9880 0.9880 0.9880
3770.838476 0.9880 0.9880 0.9880 0.9880 0.9880
3775.573332 0.9880 0.9880 0.9880 0.9883 0.9888
3780.308187 0.9890 0.9890 0.9890 0.9890 0.9890
3785.043042 0.9890 0.9890 0.9890 0.9890 0.9890
3789.777897 0.9890 0.9890 0.9890 0.9890 0.9890
3794.512752 0.9890 0.9890 0.9890 0.9890 0.9890
3799.247608 0.9890 0.9890
##END=
