##TITLE=CYCLOPENTANECARBOXYLIC ACID, 3-CARBAMOYL-, CIS , BENZYL ESTER
##JCAMP-DX=4.24
##DATA TYPE=INFRARED SPECTRUM
##CLASS=COBLENTZ III
##ORIGIN=SOUTHERN RESEARCH INSTITUTE
##OWNER=COBLENTZ SOCIETY
Collection (C) 2018 copyright by the U.S. Secretary of Commerce
on behalf of the United States of America. All rights reserved.
##DATE=1960/12/29
##NAMES=benzyl 3-(aminocarbonyl)cyclopentanecarboxylate
##MOLFORM=C14 H17 N O3
##SOURCE REFERENCE=COBLENTZ NO. 10451
##$NIST ID=B6010451
##$NIST SOURCE=COBLENTZ
##$NIST IMAGE=cob10451
##SPECTROMETER/DATA SYSTEM=PERKIN-ELMER 221 (GRATING)
##INSTRUMENT PARAMETERS=GRATING FOR 4000-1428, FILTERS AT 2490, 980, NaCl PRISM FOR 1428-650 CM^-^1
##STATE=SOLID (0.8 mg / 400 mg KBr DISC)
##PATH LENGTH=
$$ PURITY - ANALYTICAL
##SAMPLING PROCEDURE=TRANSMISSION
##RESOLUTION=4
##DATA PROCESSING=DIGITIZED BY NIST FROM HARD COPY (FROM TWO SEGMENTS)
##XUNITS=1/CM
##YUNITS=TRANSMITTANCE
##XFACTOR=1.000000
##YFACTOR=1
##DELTAX=1.301115
##FIRSTX=613.183
##LASTX=3812.62
##FIRSTY=0.619
##MAXX=3812.62
##MINX=613.183
##MAXY=0.904
##MINY=0.0641279
##NPOINTS=2460
##XYDATA=(X++(Y..Y))
613.183000 0.6190 0.6180 0.6180 0.6170 0.6170
619.688575 0.6151 0.6150 0.6141 0.6131 0.6130
626.194150 0.6113 0.6110 0.6102 0.6067 0.6027
632.699725 0.5980 0.5939 0.5922 0.5920 0.5913
639.205300 0.5895 0.5890 0.5890 0.5890 0.5904
645.710875 0.5910 0.5917 0.5920 0.5926 0.5948
652.216450 0.5966 0.5976 0.5992 0.6000 0.6000
658.722025 0.6000 0.6000 0.6000 0.6000 0.6000
665.227600 0.6000 0.6000 0.6005 0.6010 0.6014
671.733175 0.6028 0.6044 0.6054 0.6067 0.6084
678.238750 0.6090 0.6090 0.6087 0.6061 0.5999
684.744325 0.5914 0.5777 0.5572 0.5133 0.4163
691.249900 0.2700 0.2480 0.2551 0.3051 0.4110
697.755475 0.4844 0.5302 0.5591 0.5753 0.5873
704.261050 0.6016 0.6206 0.6281 0.6300 0.6299
710.766625 0.6280 0.6280 0.6270 0.6231 0.6220
717.272200 0.6153 0.6093 0.6006 0.5936 0.5876
723.777775 0.5727 0.5552 0.5366 0.5128 0.4840
730.283350 0.4494 0.4088 0.3577 0.2965 0.2652
736.788925 0.2600 0.2704 0.3121 0.3555 0.3945
743.294500 0.4309 0.4605 0.4838 0.5015 0.5154
749.800075 0.5263 0.5485 0.5721 0.5888 0.6013
756.305650 0.6111 0.6216 0.6346 0.6505 0.6662
762.811225 0.6790 0.6908 0.7013 0.7101 0.7190
769.316800 0.7279 0.7368 0.7457 0.7538 0.7592
775.822375 0.7625 0.7664 0.7704 0.7740 0.7766
782.327950 0.7786 0.7806 0.7823 0.7835 0.7855
788.833525 0.7875 0.7890 0.7890 0.7890 0.7890
795.339100 0.7892 0.7900 0.7905 0.7934 0.7965
801.844675 0.8004 0.8041 0.8052 0.8071 0.8080
808.350250 0.8080 0.8080 0.8080 0.8070 0.8070
814.855825 0.8050 0.8050 0.8040 0.8040 0.8031
821.361400 0.8003 0.7982 0.7935 0.7877 0.7827
827.866975 0.7786 0.7772 0.7770 0.7762 0.7760
834.372550 0.7768 0.7770 0.7770 0.7777 0.7780
840.878125 0.7780 0.7780 0.7773 0.7770 0.7777
847.383700 0.7813 0.7868 0.7959 0.8074 0.8193
853.889275 0.8270 0.8302 0.8321 0.8330 0.8330
860.394850 0.8330 0.8320 0.8310 0.8305 0.8295
866.900425 0.8281 0.8266 0.8256 0.8237 0.8200
873.406000 0.8150 0.8090 0.8018 0.7948 0.7869
879.911575 0.7820 0.7800 0.7809 0.7888 0.8052
886.417150 0.8134 0.8212 0.8262 0.8307 0.8332
892.922725 0.8334 0.8310 0.8307 0.8285 0.8241
899.428300 0.8108 0.7947 0.7848 0.7802 0.7547
905.933875 0.7511 0.7542 0.7919 0.8139 0.8440
912.439450 0.8460 0.8460 0.8460 0.8441 0.8430
918.945025 0.8421 0.8401 0.8354 0.8296 0.8228
925.450600 0.8176 0.8136 0.8096 0.8040 0.7972
931.956175 0.7887 0.7782 0.7658 0.7538 0.7450
938.461750 0.7393 0.7373 0.7370 0.7377 0.7387
944.967325 0.7390 0.7403 0.7410 0.7416 0.7420
951.472900 0.7420 0.7420 0.7420 0.7426 0.7430
957.978475 0.7441 0.7461 0.7491 0.7551 0.7610
964.484050 0.7635 0.7640 0.7640 0.7640 0.7640
970.989625 0.7636 0.7622 0.7606 0.7600 0.7596
977.495200 0.7586 0.7573 0.7560 0.7557 0.7547
984.000775 0.7534 0.7501 0.7432 0.7370 0.7338
990.506350 0.7301 0.7169 0.7017 0.6849 0.6679
997.011925 0.6503 0.6336 0.6184 0.6067 0.5969
1003.517500 0.5964 0.6008 0.6110 0.6267 0.6417
1010.023075 0.6575 0.6722 0.6830 0.6978 0.7311
1016.528650 0.7483 0.7499 0.7500 0.7491 0.7472
1023.034225 0.7425 0.7367 0.7264 0.7130 0.7026
1029.539800 0.6919 0.6892 0.6994 0.7170 0.7476
1036.045375 0.7781 0.7858 0.7882 0.7897 0.7900
1042.550950 0.7900 0.7900 0.7893 0.7877 0.7857
1049.056525 0.7831 0.7789 0.7764 0.7718 0.7655
1055.562100 0.7601 0.7541 0.7483 0.7418 0.7375
1062.067675 0.7355 0.7315 0.7261 0.7197 0.7119
1068.573250 0.7030 0.6929 0.6815 0.6698 0.6566
1075.078825 0.6419 0.6269 0.6145 0.6073 0.6067
1081.584400 0.6096 0.6148 0.6201 0.6243 0.6308
1088.089975 0.6415 0.6504 0.6586 0.6735 0.6848
1094.595550 0.6933 0.7002 0.7069 0.7130 0.7198
1101.101125 0.7255 0.7291 0.7302 0.7320 0.7319
1107.606700 0.7300 0.7300 0.7290 0.7290 0.7280
1114.112275 0.7250 0.7211 0.7162 0.7065 0.6976
1120.617850 0.6933 0.6921 0.6866 0.6781 0.6683
1127.123425 0.6584 0.6468 0.6350 0.6240 0.6107
1133.629000 0.5961 0.5821 0.5660 0.5493 0.5310
1140.134575 0.5165 0.5030 0.4892 0.4747 0.4606
1146.640150 0.4461 0.4313 0.4165 0.4005 0.3734
1153.145725 0.3534 0.3472 0.3426 0.3361 0.3303
1159.651300 0.3232 0.3128 0.3020 0.2906 0.2792
1166.156875 0.2684 0.2551 0.2430 0.2316 0.2205
1172.662450 0.2154 0.2126 0.2124 0.2134 0.2150
1179.168025 0.2177 0.2210 0.2253 0.2263 0.2290
1185.673600 0.2356 0.2418 0.2487 0.2561 0.2649
1192.179175 0.2736 0.2818 0.2903 0.2970 0.3026
1198.684750 0.3071 0.3146 0.3196 0.3243 0.3273
1205.190325 0.3310 0.3311 0.3320 0.3320 0.3320
1211.695900 0.3330 0.3360 0.3439 0.3508 0.3577
1218.201475 0.3599 0.3628 0.3778 0.4035 0.4275
1224.707050 0.4511 0.4713 0.4911 0.5091 0.5269
1231.212625 0.5438 0.5591 0.5747 0.5850 0.5908
1237.718200 0.5958 0.5977 0.5994 0.6000 0.5986
1244.223775 0.5980 0.5967 0.5940 0.5891 0.5781
1250.729350 0.5624 0.5511 0.5462 0.5473 0.5530
1257.234925 0.5615 0.5725 0.5833 0.5885 0.5890
1263.740500 0.5875 0.5827 0.5734 0.5589 0.5390
1270.246075 0.5193 0.5096 0.5094 0.5151 0.5290
1276.751650 0.5441 0.5572 0.5670 0.5716 0.5730
1283.257225 0.5730 0.5730 0.5730 0.5730 0.5730
1289.762800 0.5730 0.5730 0.5726 0.5708 0.5695
1296.268375 0.5665 0.5630 0.5563 0.5514 0.5465
1302.773950 0.5429 0.5418 0.5399 0.5390 0.5389
1309.279525 0.5360 0.5360 0.5339 0.5270 0.5033
1315.785100 0.4739 0.4481 0.4291 0.4131 0.4065
1322.290675 0.4060 0.4096 0.4276 0.4404 0.4634
1328.796250 0.4855 0.5089 0.5333 0.5604 0.5911
1335.301825 0.6134 0.6188 0.6190 0.6190 0.6175
1341.807400 0.6056 0.5787 0.5478 0.5173 0.4873
1348.312975 0.4565 0.4425 0.4398 0.4402 0.4607
1354.818550 0.4787 0.4894 0.5033 0.5203 0.5395
1361.324125 0.5592 0.5775 0.5914 0.6008 0.6055
1367.829700 0.6055 0.6050 0.6037 0.6012 0.5972
1374.335275 0.5861 0.5669 0.5466 0.5322 0.5183
1380.840850 0.5004 0.4990 0.5016 0.5116 0.5266
1387.346425 0.5445 0.5551 0.5670 0.5766 0.5874
1393.852000 0.5938 0.5977 0.6012 0.6023 0.6040
1400.357575 0.6038 0.6014 0.5956 0.5917 0.5889
1406.863150 0.5880 0.5880 0.5869 0.5839 0.5779
1413.368725 0.5661 0.5474 0.5345 0.5206 0.5134
1419.874300 0.4879 0.4539 0.4320 0.4211 0.4130
1426.379875 0.4042 0.3869 0.3665 0.3498 0.3389
1432.885450 0.3322 0.3286 0.3272 0.3270 0.3277
1439.391025 0.3302 0.3346 0.3367 0.3405 0.3447
1445.896600 0.3480 0.3497 0.3545 0.3614 0.3671
1452.402175 0.3792 0.3989 0.4223 0.4336 0.4346
1458.907750 0.4361 0.4375 0.4539 0.4805 0.5090
1465.413325 0.5426 0.5687 0.5848 0.5972 0.6108
1471.918900 0.6303 0.6518 0.6670 0.6787 0.6882
1478.424475 0.6957 0.7003 0.7043 0.7073 0.7080
1484.930050 0.7077 0.7070 0.7060 0.7028 0.7013
1491.435625 0.6982 0.6946 0.6893 0.6704 0.6469
1497.941200 0.5851 0.5520 0.5574 0.6028 0.6605
1504.446775 0.6851 0.6995 0.7210 0.7393 0.7460
1510.952350 0.7470 0.7470 0.7460 0.7460 0.7450
1517.457925 0.7450 0.7450 0.7432 0.7430 0.7430
1523.963500 0.7430 0.7430 0.7430 0.7421 0.7420
1530.469075 0.7420 0.7420 0.7412 0.7394 0.7390
1536.974650 0.7375 0.7348 0.7333 0.7308 0.7293
1543.480225 0.7283 0.7280 0.7273 0.7257 0.7244
1549.985800 0.7234 0.7218 0.7198 0.7166 0.7104
1556.491375 0.7014 0.6954 0.6897 0.6829 0.6774
1562.996950 0.6735 0.6715 0.6705 0.6691 0.6676
1569.502525 0.6653 0.6609 0.6556 0.6497 0.6441
1576.008100 0.6391 0.6342 0.6293 0.6247 0.6207
1582.513675 0.6168 0.6103 0.5977 0.5864 0.5760
1589.019250 0.5663 0.5633 0.5591 0.5500 0.5388
1595.524825 0.5229 0.5108 0.4966 0.4797 0.4615
1602.030400 0.4408 0.4208 0.3992 0.3775 0.3568
1608.535975 0.3362 0.3185 0.3008 0.2850 0.2584
1615.041550 0.2354 0.2186 0.2056 0.1975 0.1914
1621.547125 0.1874 0.1825 0.1740 0.1652 0.1563
1628.052700 0.1491 0.1438 0.1323 0.1195 0.1162
1634.558275 0.1160 0.1160 0.1168 0.1170 0.1192
1641.063850 0.1207 0.1231 0.1275 0.1324 0.1433
1647.569425 0.1526 0.1614 0.1725 0.1849 0.1966
1654.075000 0.2081 0.2176 0.2233 0.2332 0.2470
1660.580575 0.2593 0.2701 0.2794 0.2883 0.2972
1667.086150 0.3061 0.3159 0.3263 0.3354 0.3461
1673.591725 0.3597 0.3738 0.3915 0.4089 0.4250
1680.097300 0.4402 0.4561 0.4706 0.4825 0.4938
1686.602875 0.5034 0.5117 0.5182 0.5222 0.5257
1693.108450 0.5389 0.5538 0.5684 0.5821 0.5940
1699.614025 0.6001 0.6010 0.6010 0.6010 0.6009
1706.119600 0.5999 0.5974 0.5879 0.5853 0.5608
1712.625175 0.5450 0.5183 0.4800 0.4272 0.3569
1719.130750 0.2645 0.2339 0.1580 0.1114 0.0698
1725.636325 0.0641 0.0649 0.0709 0.0728 0.0746
1732.141900 0.0766 0.0802 0.0881 0.0969 0.1096
1738.647475 0.1404 0.1806 0.2327 0.2854 0.3319
1745.153050 0.3742 0.4126 0.4459 0.4762 0.5033
1751.658625 0.5271 0.5486 0.5669 0.5825 0.5973
1758.164200 0.6110 0.6223 0.6322 0.6426 0.6525
1764.669775 0.6662 0.6807 0.6896 0.6958 0.7010
1771.175350 0.7079 0.7148 0.7206 0.7234 0.7244
1777.680925 0.7264 0.7293 0.7323 0.7382 0.7416
1784.186500 0.7441 0.7478 0.7513 0.7565 0.7619
1790.692075 0.7657 0.7682 0.7694 0.7712 0.7723
1797.197650 0.7745 0.7774 0.7803 0.7821 0.7832
1803.703225 0.7852 0.7872 0.7902 0.7930 0.7940
1810.208800 0.7951 0.7980 0.7980 0.7990 0.8000
1816.714375 0.8048 0.8069 0.8089 0.8154 0.8242
1823.219950 0.8268 0.8270 0.8287 0.8299 0.8308
1829.725525 0.8335 0.8356 0.8384 0.8398 0.8416
1836.231100 0.8450 0.8475 0.8487 0.8490 0.8504
1842.736675 0.8517 0.8527 0.8530 0.8543 0.8550
1849.242250 0.8550 0.8550 0.8556 0.8560 0.8560
1855.747825 0.8566 0.8570 0.8570 0.8570 0.8570
1862.253400 0.8565 0.8560 0.8560 0.8546 0.8525
1868.758975 0.8516 0.8510 0.8514 0.8524 0.8538
1875.264550 0.8557 0.8574 0.8587 0.8607 0.8627
1881.770125 0.8640 0.8643 0.8650 0.8650 0.8650
1888.275700 0.8652 0.8665 0.8682 0.8692 0.8702
1894.781275 0.8714 0.8732 0.8740 0.8741 0.8750
1901.286850 0.8750 0.8750 0.8750 0.8750 0.8750
1907.792425 0.8750 0.8750 0.8750 0.8750 0.8750
1914.298000 0.8750 0.8750 0.8769 0.8770 0.8770
1920.803575 0.8770 0.8770 0.8770 0.8752 0.8750
1927.309150 0.8733 0.8730 0.8714 0.8710 0.8710
1933.814725 0.8710 0.8702 0.8700 0.8692 0.8690
1940.320300 0.8690 0.8683 0.8666 0.8660 0.8660
1946.825875 0.8660 0.8654 0.8650 0.8650 0.8650
1953.331450 0.8650 0.8650 0.8650 0.8656 0.8660
1959.837025 0.8660 0.8660 0.8660 0.8670 0.8680
1966.342600 0.8685 0.8694 0.8713 0.8734 0.8744
1972.848175 0.8758 0.8778 0.8794 0.8807 0.8823
1979.353750 0.8830 0.8830 0.8833 0.8840 0.8840
1985.859325 0.8840 0.8840 0.8845 0.8860 0.8860
1992.364900 0.8860 0.8860 0.8860 0.8860 0.8860
1998.870475 0.8860 0.8860 0.8860 0.8860 0.8860
2005.376050 0.8860 0.8860 0.8861 0.8871 0.8880
2011.881625 0.8880 0.8880 0.8880 0.8880 0.8880
2018.387200 0.8883 0.8900 0.8900 0.8897 0.8880
2024.892775 0.8880 0.8880 0.8880 0.8880 0.8880
2031.398350 0.8880 0.8880 0.8880 0.8880 0.8880
2037.903925 0.8880 0.8880 0.8880 0.8880 0.8880
2044.409500 0.8880 0.8880 0.8880 0.8880 0.8880
2050.915075 0.8880 0.8880 0.8880 0.8880 0.8880
2057.420650 0.8880 0.8880 0.8880 0.8880 0.8879
2063.926225 0.8870 0.8870 0.8870 0.8870 0.8870
2070.431800 0.8870 0.8870 0.8870 0.8870 0.8870
2076.937375 0.8870 0.8870 0.8870 0.8870 0.8870
2083.442950 0.8869 0.8860 0.8860 0.8860 0.8860
2089.948525 0.8860 0.8860 0.8860 0.8860 0.8857
2096.454100 0.8840 0.8840 0.8840 0.8840 0.8840
2102.959675 0.8840 0.8840 0.8840 0.8840 0.8840
2109.465250 0.8840 0.8840 0.8840 0.8840 0.8840
2115.970825 0.8840 0.8840 0.8840 0.8840 0.8840
2122.476400 0.8840 0.8840 0.8840 0.8840 0.8843
2128.981975 0.8860 0.8860 0.8860 0.8860 0.8860
2135.487550 0.8860 0.8861 0.8870 0.8870 0.8870
2141.993125 0.8870 0.8870 0.8870 0.8871 0.8880
2148.498700 0.8880 0.8880 0.8880 0.8883 0.8900
2155.004275 0.8900 0.8900 0.8900 0.8901 0.8910
2161.509850 0.8910 0.8910 0.8909 0.8900 0.8900
2168.015425 0.8900 0.8900 0.8900 0.8900 0.8900
2174.521000 0.8900 0.8900 0.8900 0.8900 0.8900
2181.026575 0.8900 0.8900 0.8900 0.8900 0.8900
2187.532150 0.8900 0.8900 0.8900 0.8900 0.8900
2194.037725 0.8900 0.8900 0.8900 0.8900 0.8900
2200.543300 0.8900 0.8900 0.8900 0.8900 0.8900
2207.048875 0.8900 0.8897 0.8880 0.8880 0.8880
2213.554450 0.8880 0.8880 0.8880 0.8880 0.8880
2220.060025 0.8880 0.8880 0.8880 0.8880 0.8880
2226.565600 0.8880 0.8880 0.8880 0.8880 0.8880
2233.071175 0.8880 0.8880 0.8879 0.8870 0.8870
2239.576750 0.8870 0.8869 0.8860 0.8860 0.8860
2246.082325 0.8857 0.8840 0.8840 0.8840 0.8839
2252.587900 0.8830 0.8830 0.8830 0.8830 0.8829
2259.093475 0.8820 0.8820 0.8817 0.8800 0.8800
2265.599050 0.8799 0.8790 0.8790 0.8789 0.8780
2272.104625 0.8780 0.8780 0.8780 0.8780 0.8780
2278.610200 0.8780 0.8780 0.8779 0.8770 0.8770
2285.115775 0.8770 0.8770 0.8770 0.8770 0.8770
2291.621350 0.8770 0.8767 0.8750 0.8750 0.8750
2298.126925 0.8750 0.8750 0.8750 0.8750 0.8750
2304.632500 0.8750 0.8750 0.8750 0.8750 0.8750
2311.138075 0.8750 0.8750 0.8750 0.8750 0.8750
2317.643650 0.8750 0.8750 0.8750 0.8750 0.8750
2324.149225 0.8750 0.8750 0.8750 0.8750 0.8750
2330.654800 0.8750 0.8750 0.8750 0.8750 0.8750
2337.160375 0.8750 0.8750 0.8750 0.8750 0.8750
2343.665950 0.8750 0.8750 0.8750 0.8750 0.8749
2350.171525 0.8740 0.8740 0.8740 0.8740 0.8740
2356.677100 0.8740 0.8740 0.8740 0.8740 0.8741
2363.182675 0.8750 0.8750 0.8750 0.8750 0.8753
2369.688250 0.8770 0.8770 0.8770 0.8770 0.8771
2376.193825 0.8780 0.8780 0.8780 0.8780 0.8780
2382.699400 0.8780 0.8780 0.8780 0.8780 0.8780
2389.204975 0.8780 0.8780 0.8780 0.8780 0.8779
2395.710550 0.8770 0.8770 0.8770 0.8770 0.8770
2402.216125 0.8767 0.8750 0.8750 0.8750 0.8750
2408.721700 0.8750 0.8749 0.8740 0.8740 0.8740
2415.227275 0.8740 0.8740 0.8740 0.8740 0.8740
2421.732850 0.8740 0.8740 0.8740 0.8740 0.8740
2428.238425 0.8740 0.8740 0.8740 0.8740 0.8741
2434.744000 0.8750 0.8750 0.8750 0.8750 0.8750
2441.249575 0.8750 0.8750 0.8750 0.8750 0.8750
2447.755150 0.8750 0.8750 0.8750 0.8753 0.8770
2454.260725 0.8770 0.8771 0.8780 0.8780 0.8780
2460.766300 0.8781 0.8790 0.8790 0.8790 0.8791
2467.271875 0.8800 0.8800 0.8803 0.8820 0.8820
2473.777450 0.8820 0.8821 0.8830 0.8830 0.8830
2480.283025 0.8831 0.8840 0.8843 0.8861 0.8870
2486.788600 0.8870 0.8869 0.8857 0.8835 0.8797
2493.294175 0.8780 0.8779 0.8770 0.8770 0.8770
2499.799750 0.8770 0.8770 0.8770 0.8770 0.8770
2506.305325 0.8770 0.8770 0.8770 0.8770 0.8770
2512.810900 0.8770 0.8770 0.8770 0.8770 0.8770
2519.316475 0.8770 0.8770 0.8770 0.8770 0.8770
2525.822050 0.8767 0.8750 0.8750 0.8750 0.8750
2532.327625 0.8750 0.8750 0.8749 0.8740 0.8740
2538.833200 0.8740 0.8740 0.8739 0.8730 0.8730
2545.338775 0.8730 0.8730 0.8727 0.8710 0.8710
2551.844350 0.8710 0.8710 0.8709 0.8700 0.8700
2558.349925 0.8700 0.8700 0.8700 0.8700 0.8700
2564.855500 0.8700 0.8700 0.8699 0.8690 0.8690
2571.361075 0.8690 0.8690 0.8690 0.8690 0.8689
2577.866650 0.8680 0.8680 0.8680 0.8680 0.8680
2584.372225 0.8677 0.8660 0.8660 0.8660 0.8660
2590.877800 0.8660 0.8660 0.8660 0.8660 0.8660
2597.383375 0.8660 0.8660 0.8660 0.8660 0.8660
2603.888950 0.8660 0.8660 0.8660 0.8660 0.8660
2610.394525 0.8660 0.8660 0.8660 0.8660 0.8660
2616.900100 0.8660 0.8660 0.8660 0.8660 0.8660
2623.405675 0.8660 0.8660 0.8660 0.8660 0.8660
2629.911250 0.8659 0.8650 0.8650 0.8650 0.8650
2636.416825 0.8649 0.8640 0.8640 0.8637 0.8620
2642.922400 0.8620 0.8619 0.8610 0.8610 0.8610
2649.427975 0.8610 0.8610 0.8610 0.8610 0.8610
2655.933550 0.8610 0.8610 0.8609 0.8600 0.8597
2662.439125 0.8579 0.8570 0.8569 0.8560 0.8560
2668.944700 0.8559 0.8547 0.8530 0.8530 0.8530
2675.450275 0.8530 0.8530 0.8530 0.8530 0.8529
2681.955850 0.8520 0.8520 0.8519 0.8507 0.8489
2688.461425 0.8479 0.8470 0.8470 0.8469 0.8460
2694.967000 0.8457 0.8440 0.8439 0.8430 0.8429
2701.472575 0.8420 0.8417 0.8400 0.8399 0.8389
2707.978150 0.8380 0.8377 0.8360 0.8360 0.8360
2714.483725 0.8359 0.8350 0.8350 0.8349 0.8340
2720.989300 0.8339 0.8327 0.8309 0.8299 0.8290
2727.494875 0.8287 0.8270 0.8269 0.8260 0.8259
2734.000450 0.8250 0.8249 0.8240 0.8237 0.8220
2740.506025 0.8219 0.8210 0.8209 0.8200 0.8197
2747.011600 0.8180 0.8180 0.8179 0.8170 0.8170
2753.517175 0.8169 0.8160 0.8160 0.8160 0.8160
2760.022750 0.8160 0.8160 0.8160 0.8159 0.8150
2766.528325 0.8150 0.8150 0.8147 0.8130 0.8130
2773.033900 0.8130 0.8129 0.8116 0.8087 0.8067
2779.539475 0.8049 0.8037 0.8016 0.7980 0.7907
2786.045050 0.7887 0.7869 0.7859 0.7847 0.7829
2792.550625 0.7820 0.7819 0.7810 0.7809 0.7800
2799.056200 0.7800 0.7800 0.7800 0.7800 0.7801
2805.561775 0.7810 0.7810 0.7811 0.7821 0.7833
2812.067350 0.7851 0.7861 0.7873 0.7890 0.7891
2818.572925 0.7900 0.7901 0.7910 0.7910 0.7910
2825.078500 0.7910 0.7910 0.7910 0.7910 0.7910
2831.584075 0.7910 0.7909 0.7900 0.7899 0.7887
2838.089650 0.7870 0.7869 0.7856 0.7827 0.7806
2844.595225 0.7779 0.7765 0.7725 0.7685 0.7645
2851.100800 0.7606 0.7572 0.7517 0.7495 0.7459
2857.606375 0.7441 0.7368 0.7274 0.7154 0.7033
2864.111950 0.6906 0.6798 0.6712 0.6656 0.6629
2870.617525 0.6621 0.6631 0.6649 0.6722 0.6808
2877.123100 0.6869 0.6933 0.6954 0.6981 0.6993
2883.628675 0.7010 0.7010 0.7011 0.7020 0.7021
2890.134250 0.7030 0.7029 0.7020 0.7020 0.7019
2896.639825 0.7007 0.6985 0.6946 0.6916 0.6890
2903.145400 0.6885 0.6847 0.6827 0.6809 0.6800
2909.650975 0.6799 0.6787 0.6765 0.6721 0.6651
2916.156550 0.6582 0.6521 0.6454 0.6404 0.6354
2922.662125 0.6305 0.6265 0.6222 0.6160 0.6081
2929.167700 0.6008 0.5921 0.5845 0.5727 0.5630
2935.673275 0.5557 0.5537 0.5519 0.5507 0.5490
2942.178850 0.5490 0.5489 0.5480 0.5479 0.5470
2948.684425 0.5470 0.5470 0.5470 0.5470 0.5470
2955.190000 0.5470 0.5467 0.5450 0.5450 0.5449
2961.695575 0.5440 0.5439 0.5430 0.5429 0.5420
2968.201150 0.5420 0.5421 0.5431 0.5441 0.5454
2974.706725 0.5486 0.5537 0.5596 0.5710 0.5794
2981.212300 0.5905 0.6033 0.6218 0.6435 0.6629
2987.717875 0.6778 0.6914 0.7022 0.7109 0.7178
2994.223450 0.7235 0.7274 0.7303 0.7323 0.7340
3000.729025 0.7340 0.7340 0.7339 0.7329 0.7320
3007.234600 0.7317 0.7297 0.7279 0.7267 0.7249
3013.740175 0.7235 0.7192 0.7128 0.7037 0.6936
3020.245750 0.6825 0.6706 0.6591 0.6435 0.6257
3026.751325 0.6254 0.6375 0.6547 0.6599 0.6665
3033.256900 0.6701 0.6710 0.6711 0.6720 0.6721
3039.762475 0.6733 0.6750 0.6750 0.6747 0.6727
3046.268050 0.6709 0.6695 0.6655 0.6616 0.6579
3052.773625 0.6487 0.6383 0.6258 0.6171 0.6101
3059.279200 0.6028 0.5946 0.5921 0.5944 0.6060
3065.784775 0.6216 0.6333 0.6350 0.6350 0.6347
3072.290350 0.6329 0.6317 0.6292 0.6235 0.6194
3078.795925 0.6147 0.6126 0.6093 0.6041 0.5968
3085.301500 0.5882 0.5825 0.5785 0.5749 0.5739
3091.807075 0.5726 0.5696 0.5667 0.5644 0.5591
3098.312650 0.5520 0.5441 0.5370 0.5291 0.5224
3104.818225 0.5175 0.5127 0.5028 0.4938 0.4850
3111.323800 0.4772 0.4714 0.4665 0.4619 0.4529
3117.829375 0.4441 0.4373 0.4323 0.4276 0.4245
3124.334950 0.4205 0.4162 0.4087 0.3912 0.3777
3130.840525 0.3682 0.3625 0.3589 0.3579 0.3562
3137.346100 0.3504 0.3455 0.3412 0.3354 0.3304
3143.851675 0.3252 0.3195 0.3157 0.3136 0.3109
3150.357250 0.3099 0.3090 0.3090 0.3091 0.3100
3156.862825 0.3100 0.3100 0.3101 0.3110 0.3110
3163.368400 0.3110 0.3113 0.3131 0.3140 0.3140
3169.873975 0.3141 0.3154 0.3181 0.3191 0.3203
3176.379550 0.3225 0.3261 0.3270 0.3270 0.3271
3182.885125 0.3280 0.3281 0.3295 0.3333 0.3358
3189.390700 0.3415 0.3455 0.3493 0.3515 0.3554
3195.896275 0.3583 0.3605 0.3644 0.3671 0.3681
3202.401850 0.3693 0.3715 0.3755 0.3791 0.3801
3208.907425 0.3811 0.3823 0.3843 0.3867 0.3915
3215.413000 0.3953 0.3973 0.4000 0.4076 0.4124
3221.918575 0.4158 0.4213 0.4231 0.4240 0.4240
3228.424150 0.4240 0.4240 0.4240 0.4240 0.4240
3234.929725 0.4240 0.4239 0.4230 0.4227 0.4210
3241.435300 0.4210 0.4210 0.4209 0.4200 0.4195
3247.940875 0.4156 0.4123 0.4079 0.4070 0.4069
3254.446450 0.4060 0.4057 0.4040 0.4039 0.4029
3260.952025 0.4020 0.4019 0.4006 0.3975 0.3927
3267.457600 0.3835 0.3788 0.3706 0.3677 0.3660
3273.963175 0.3657 0.3640 0.3639 0.3629 0.3604
3280.468750 0.3494 0.3446 0.3420 0.3419 0.3410
3286.974325 0.3409 0.3397 0.3377 0.3355 0.3319
3293.479900 0.3305 0.3261 0.3195 0.3154 0.3104
3299.985475 0.3054 0.3006 0.2971 0.2906 0.2879
3306.491050 0.2861 0.2790 0.2712 0.2652 0.2595
3312.996625 0.2555 0.2516 0.2490 0.2489 0.2479
3319.502200 0.2467 0.2444 0.2397 0.2375 0.2332
3326.007775 0.2276 0.2247 0.2230 0.2230 0.2229
3332.513350 0.2220 0.2220 0.2220 0.2221 0.2230
3339.018925 0.2233 0.2251 0.2263 0.2283 0.2301
3345.524500 0.2311 0.2320 0.2323 0.2343 0.2371
3352.030075 0.2453 0.2474 0.2504 0.2539 0.2604
3358.535650 0.2638 0.2694 0.2729 0.2798 0.2858
3365.041225 0.2914 0.2949 0.3014 0.3044 0.3078
3371.546800 0.3142 0.3229 0.3307 0.3434 0.3541
3378.052375 0.3631 0.3718 0.3779 0.3848 0.3909
3384.557950 0.3978 0.4048 0.4187 0.4314 0.4421
3391.063525 0.4511 0.4601 0.4682 0.4768 0.4832
3397.569100 0.4920 0.5002 0.5095 0.5213 0.5306
3404.074675 0.5351 0.5363 0.5385 0.5426 0.5479
3410.580250 0.5549 0.5623 0.5720 0.5799 0.5871
3417.085825 0.5958 0.6019 0.6084 0.6114 0.6145
3423.591400 0.6186 0.6236 0.6283 0.6300 0.6301
3430.096975 0.6311 0.6324 0.6355 0.6391 0.6401
3436.602550 0.6410 0.6411 0.6420 0.6423 0.6448
3443.108125 0.6511 0.6602 0.6689 0.6763 0.6860
3449.613700 0.6936 0.6985 0.7024 0.7053 0.7071
3456.119275 0.7083 0.7103 0.7124 0.7157 0.7204
3462.624850 0.7235 0.7271 0.7283 0.7300 0.7304
3469.130425 0.7334 0.7363 0.7384 0.7411 0.7421
3475.636000 0.7438 0.7493 0.7511 0.7524 0.7554
3482.141575 0.7583 0.7601 0.7614 0.7641 0.7654
3488.647150 0.7680 0.7681 0.7694 0.7723 0.7743
3495.152725 0.7763 0.7783 0.7801 0.7810 0.7811
3501.658300 0.7821 0.7830 0.7833 0.7851 0.7860
3508.163875 0.7861 0.7870 0.7873 0.7890 0.7891
3514.669450 0.7901 0.7913 0.7930 0.7934 0.7963
3521.175025 0.7981 0.7991 0.8004 0.8030 0.8031
3527.680600 0.8041 0.8053 0.8073 0.8094 0.8121
3534.186175 0.8130 0.8133 0.8151 0.8161 0.8171
3540.691750 0.8180 0.8183 0.8201 0.8211 0.8220
3547.197325 0.8223 0.8240 0.8241 0.8250 0.8251
3553.702900 0.8260 0.8261 0.8273 0.8291 0.8301
3560.208475 0.8313 0.8331 0.8340 0.8341 0.8351
3566.714050 0.8364 0.8391 0.8403 0.8420 0.8421
3573.219625 0.8430 0.8431 0.8440 0.8444 0.8471
3579.725200 0.8480 0.8481 0.8490 0.8490 0.8493
3586.230775 0.8510 0.8511 0.8521 0.8534 0.8561
3592.736350 0.8571 0.8583 0.8601 0.8610 0.8611
3599.241925 0.8620 0.8623 0.8641 0.8651 0.8663
3605.747500 0.8680 0.8681 0.8691 0.8700 0.8700
3612.253075 0.8701 0.8710 0.8713 0.8731 0.8741
3618.758650 0.8753 0.8771 0.8780 0.8780 0.8781
3625.264225 0.8790 0.8791 0.8800 0.8800 0.8800
3631.769800 0.8803 0.8820 0.8820 0.8821 0.8830
3638.275375 0.8830 0.8830 0.8831 0.8843 0.8860
3644.780950 0.8860 0.8860 0.8860 0.8861 0.8870
3651.286525 0.8870 0.8870 0.8870 0.8870 0.8870
3657.792100 0.8870 0.8871 0.8883 0.8901 0.8911
3664.297675 0.8920 0.8920 0.8921 0.8930 0.8930
3670.803250 0.8933 0.8950 0.8950 0.8947 0.8930
3677.308825 0.8930 0.8930 0.8930 0.8930 0.8930
3683.814400 0.8933 0.8950 0.8951 0.8960 0.8960
3690.319975 0.8960 0.8961 0.8970 0.8970 0.8970
3696.825550 0.8970 0.8973 0.8990 0.8990 0.8990
3703.331125 0.8990 0.8990 0.8990 0.8990 0.8990
3709.836700 0.8990 0.8990 0.8990 0.8990 0.8990
3716.342275 0.8990 0.8990 0.8990 0.8990 0.8990
3722.847850 0.8990 0.8990 0.8990 0.8991 0.9000
3729.353425 0.9000 0.9000 0.9000 0.9000 0.9000
3735.859000 0.9000 0.9000 0.9000 0.9001 0.9010
3742.364575 0.9010 0.9010 0.9011 0.9020 0.9020
3748.870150 0.9020 0.9020 0.9020 0.9020 0.9020
3755.375725 0.9020 0.9020 0.9020 0.9020 0.9020
3761.881300 0.9023 0.9040 0.9040 0.9040 0.9040
3768.386875 0.9040 0.9040 0.9040 0.9040 0.9040
3774.892450 0.9040 0.9040 0.9040 0.9040 0.9040
3781.398025 0.9040 0.9040 0.9040 0.9037 0.9020
3787.903600 0.9019 0.9009 0.9000 0.9000 0.9000
3794.409175 0.9000 0.9000 0.9000 0.9000 0.9000
3800.914750 0.9000 0.9000 0.8999 0.8987 0.8969
3807.420325 0.8960 0.8960 0.8959 0.8951 0.8956
##END=
