##TITLE=1,3-PROPANEDIAMINE, N-(3-BROMO-2-HYDROXYPROPYL)-, DIHYDROBROMIDE
##JCAMP-DX=4.24
##DATA TYPE=INFRARED SPECTRUM
##CLASS=COBLENTZ III
##ORIGIN=SOUTHERN RESEARCH INSTITUTE
##OWNER=COBLENTZ SOCIETY
Collection (C) 2018 copyright by the U.S. Secretary of Commerce
on behalf of the United States of America. All rights reserved.
##DATE=1968/11/25
##MOLFORM=C6 H17 Br3 N2 O
##SOURCE REFERENCE=COBLENTZ NO. 10433
##$NIST ID=B6010433
##$NIST SOURCE=COBLENTZ
##$NIST IMAGE=cob10433
##SPECTROMETER/DATA SYSTEM=PERKIN-ELMER 621
##STATE=SOLID (1 mg / 500 mg KBr DISC)
##PATH LENGTH=
$$SPECTRAL CONTAMINATION DUE TO H2O AROUND 3375 CM^-^1
$$ PURITY - ANALYTICAL
##SAMPLING PROCEDURE=TRANSMISSION
##RESOLUTION=4
##DATA PROCESSING=DIGITIZED BY NIST FROM HARD COPY (FROM TWO SEGMENTS)
##XUNITS=1/CM
##YUNITS=TRANSMITTANCE
##XFACTOR=1.000000
##YFACTOR=1
##DELTAX=1.318102
##FIRSTX=275.726
##LASTX=3998.05
##FIRSTY=0.083
##MAXX=3998.05
##MINX=275.726
##MAXY=0.972667
##MINY=0.083
##NPOINTS=2825
##XYDATA=(X++(Y..Y))
275.726000 0.0830 0.0830 0.0860 0.0900 0.0930
282.316510 0.0950 0.1059 0.1139 0.1249 0.1388
288.907020 0.1499 0.1530 0.1856 0.2156 0.2456
295.497530 0.2549 0.2579 0.2649 0.2689 0.2719
302.088040 0.2740 0.2750 0.2779 0.2790 0.2819
308.678550 0.2859 0.2879 0.2919 0.2949 0.2998
315.269060 0.3117 0.3217 0.3327 0.3446 0.3547
321.859570 0.3666 0.3786 0.3877 0.3976 0.4057
328.450080 0.4118 0.4226 0.4336 0.4455 0.4575
335.040590 0.4676 0.4795 0.4895 0.5014 0.5125
341.631100 0.5226 0.5335 0.5521 0.5635 0.5725
348.221610 0.5796 0.5847 0.5897 0.5947 0.6025
354.812120 0.6115 0.6234 0.6278 0.6308 0.6357
361.402630 0.6398 0.6447 0.6497 0.6575 0.6617
367.993140 0.6658 0.6688 0.6727 0.6749 0.6787
374.583650 0.6864 0.6907 0.6947 0.6978 0.7035
381.174160 0.7077 0.7089 0.7146 0.7187 0.7208
387.764670 0.7238 0.7249 0.7268 0.7270 0.7270
394.355180 0.7270 0.7270 0.7252 0.7250 0.7250
400.945690 0.7250 0.7241 0.7240 0.7213 0.7174
407.536200 0.7134 0.7084 0.7071 0.7079 0.7180
414.126710 0.7280 0.7407 0.7519 0.7602 0.7664
420.717220 0.7697 0.7709 0.7710 0.7701 0.7700
427.307730 0.7700 0.7691 0.7690 0.7690 0.7672
433.898240 0.7661 0.7651 0.7632 0.7621 0.7611
440.488750 0.7592 0.7581 0.7554 0.7532 0.7512
447.079260 0.7492 0.7463 0.7425 0.7402 0.7365
453.669770 0.7246 0.7142 0.7051 0.6970 0.6882
460.260280 0.6765 0.6619 0.6478 0.6303 0.6088
466.850790 0.5860 0.5630 0.5496 0.5368 0.5160
473.441300 0.4957 0.4774 0.4663 0.4641 0.4649
480.031810 0.4848 0.5421 0.5836 0.6147 0.6412
486.622320 0.6725 0.7002 0.7280 0.7534 0.7800
493.212830 0.8010 0.8185 0.8303 0.8371 0.8422
499.803340 0.8515 0.8547 0.8550 0.8542 0.8532
506.393850 0.8530 0.8505 0.8475 0.8453 0.8425
512.984360 0.8386 0.8355 0.8333 0.8297 0.8265
519.574870 0.8243 0.8223 0.8178 0.8137 0.8097
526.165380 0.8057 0.8042 0.8032 0.8005 0.7992
532.755890 0.7973 0.7962 0.7952 0.7950 0.7934
539.346400 0.7922 0.7879 0.7837 0.7805 0.7792
545.936910 0.7766 0.7744 0.7716 0.7702 0.7676
552.527420 0.7629 0.7596 0.7557 0.7509 0.7451
559.117930 0.7392 0.7307 0.7185 0.7056 0.6902
565.708440 0.6757 0.6601 0.6393 0.6230 0.6192
572.298950 0.6198 0.6487 0.6775 0.7084 0.7301
578.889460 0.7396 0.7418 0.7420 0.7420 0.7412
585.479970 0.7402 0.7400 0.7400 0.7408 0.7434
592.070480 0.7472 0.7519 0.7577 0.7637 0.7705
598.660990 0.7798 0.7898 0.8021 0.8120 0.8202
605.251500 0.8267 0.8319 0.8369 0.8434 0.8496
611.842010 0.8564 0.8619 0.8653 0.8691 0.8715
618.432520 0.8743 0.8750 0.8758 0.8760 0.8760
625.023030 0.8768 0.8785 0.8805 0.8833 0.8848
631.613540 0.8865 0.8870 0.8870 0.8878 0.8880
638.204050 0.8880 0.8872 0.8855 0.8835 0.8815
644.794560 0.8795 0.8767 0.8745 0.8710 0.8655
651.385070 0.8603 0.8545 0.8471 0.8376 0.8254
657.975580 0.8049 0.7789 0.7519 0.7294 0.7129
664.566090 0.7016 0.6983 0.6987 0.7195 0.7548
671.156600 0.8062 0.8519 0.8821 0.9110 0.9329
677.747110 0.9467 0.9544 0.9596 0.9653 0.9677
684.337620 0.9680 0.9680 0.9687 0.9690 0.9690
690.928130 0.9690 0.9690 0.9690 0.9683 0.9680
697.518640 0.9680 0.9673 0.9670 0.9670 0.9670
704.109150 0.9670 0.9670 0.9656 0.9650 0.9636
710.699660 0.9630 0.9616 0.9603 0.9600 0.9593
717.290170 0.9569 0.9546 0.9519 0.9503 0.9486
723.880680 0.9473 0.9463 0.9439 0.9402 0.9376
730.471190 0.9342 0.9261 0.9182 0.9112 0.9014
737.061700 0.8876 0.8671 0.8393 0.8004 0.7472
743.652210 0.7078 0.6966 0.6974 0.7354 0.7740
750.242720 0.8140 0.8471 0.8696 0.8835 0.8924
756.833230 0.8984 0.9061 0.9177 0.9361 0.9484
763.423740 0.9530 0.9553 0.9587 0.9634 0.9697
770.014250 0.9727 0.9723 0.9720 0.9713 0.9697
776.604760 0.9677 0.9650 0.9613 0.9587 0.9567
783.195270 0.9553 0.9550 0.9543 0.9527 0.9507
789.785780 0.9474 0.9434 0.9400 0.9364 0.9337
796.376290 0.9310 0.9274 0.9241 0.9198 0.9154
802.966800 0.9101 0.9035 0.8952 0.8836 0.8694
809.557310 0.8582 0.8544 0.8540 0.8553 0.8579
816.147820 0.8596 0.8626 0.8723 0.8795 0.8804
822.738330 0.8781 0.8764 0.8754 0.8731 0.8707
829.328840 0.8612 0.8478 0.8348 0.8200 0.8027
835.919350 0.7804 0.7306 0.6855 0.6730 0.6792
842.509860 0.6923 0.7011 0.7055 0.7076 0.7086
849.100370 0.7256 0.7544 0.7819 0.8091 0.8328
855.690880 0.8575 0.9017 0.9267 0.9290 0.9266
862.281390 0.9226 0.9144 0.9016 0.8912 0.8814
868.871900 0.8692 0.8507 0.8414 0.8416 0.8462
875.462410 0.8580 0.8682 0.8710 0.8692 0.8668
882.052920 0.8613 0.8550 0.8483 0.8426 0.8339
888.643430 0.8167 0.8010 0.7884 0.7684 0.7388
895.233940 0.7057 0.6773 0.6629 0.6600 0.6728
901.824450 0.6959 0.7060 0.7314 0.7500 0.7374
908.414960 0.6808 0.6258 0.5851 0.5534 0.5303
915.005470 0.4949 0.4743 0.4747 0.5246 0.5942
921.595980 0.6485 0.6943 0.7403 0.7637 0.7639
928.186490 0.7287 0.6762 0.6549 0.6551 0.6593
934.777000 0.6905 0.7360 0.7869 0.8308 0.8616
941.367510 0.8800 0.8917 0.9057 0.9175 0.9236
947.958020 0.9250 0.9233 0.9220 0.9215 0.9194
954.548530 0.9169 0.9149 0.9135 0.9125 0.9104
961.139040 0.9074 0.9038 0.8993 0.8965 0.8955
967.729550 0.8934 0.8872 0.8793 0.8733 0.8684
974.320060 0.8623 0.8542 0.8436 0.8269 0.8096
980.910570 0.8019 0.8020 0.8035 0.8040 0.8040
987.501080 0.8035 0.8009 0.7953 0.7878 0.7798
994.091590 0.7713 0.7629 0.7559 0.7489 0.7409
1000.682100 0.7334 0.7274 0.7224 0.7174 0.7140
1007.272610 0.7110 0.6978 0.6804 0.6609 0.6314
1013.863120 0.6110 0.6070 0.6090 0.6271 0.6545
1020.453630 0.6805 0.6975 0.7000 0.6990 0.6857
1027.044140 0.6532 0.6170 0.5935 0.5687 0.5446
1033.634650 0.5311 0.5382 0.5623 0.6046 0.6477
1040.225160 0.6799 0.7055 0.7197 0.7486 0.7655
1046.815670 0.7646 0.7543 0.7388 0.7229 0.7039
1053.406180 0.6840 0.6639 0.6454 0.6265 0.6155
1059.996690 0.6155 0.6212 0.6355 0.6502 0.6597
1066.587200 0.6631 0.6559 0.6462 0.6421 0.6419
1073.177710 0.6481 0.6577 0.6689 0.6770 0.6742
1079.768220 0.6604 0.6341 0.5968 0.5591 0.5316
1086.358730 0.4951 0.4526 0.4316 0.4305 0.4458
1092.949240 0.4776 0.5363 0.6069 0.6482 0.6856
1099.539750 0.7217 0.7575 0.7833 0.7962 0.8097
1106.130260 0.8228 0.8309 0.8320 0.8311 0.8296
1112.720770 0.8272 0.8237 0.8216 0.8188 0.8130
1119.311280 0.8055 0.7984 0.7911 0.7817 0.7700
1125.901790 0.7525 0.7336 0.7212 0.7139 0.7097
1132.492300 0.7059 0.6996 0.6890 0.6721 0.6469
1139.082810 0.6109 0.5738 0.5444 0.5107 0.4714
1145.673320 0.4476 0.4474 0.4710 0.5450 0.6222
1152.263830 0.6604 0.6866 0.7080 0.7324 0.7575
1158.854340 0.7781 0.7937 0.8015 0.8074 0.8130
1165.444850 0.8168 0.8204 0.8280 0.8388 0.8492
1172.035360 0.8560 0.8618 0.8676 0.8704 0.8710
1178.625870 0.8706 0.8692 0.8680 0.8672 0.8652
1185.216380 0.8636 0.8618 0.8584 0.8541 0.8502
1191.806890 0.8475 0.8438 0.8405 0.8361 0.8311
1198.397400 0.8234 0.8110 0.7969 0.7820 0.7694
1204.987910 0.7605 0.7527 0.7376 0.7195 0.7011
1211.578420 0.6865 0.6734 0.6629 0.6610 0.6621
1218.168930 0.6751 0.6984 0.7140 0.7386 0.7574
1224.759440 0.7580 0.7554 0.7401 0.7206 0.7204
1231.349950 0.7271 0.7441 0.7621 0.7825 0.8048
1237.940460 0.8260 0.8357 0.8363 0.8350 0.8329
1244.530970 0.8276 0.8236 0.8200 0.8145 0.8049
1251.121480 0.7969 0.7906 0.7832 0.7739 0.7619
1257.711990 0.7454 0.7218 0.7049 0.6933 0.6817
1264.302500 0.6810 0.6813 0.6820 0.6810 0.6746
1270.893010 0.6660 0.6677 0.6786 0.6983 0.7116
1277.483520 0.7285 0.7483 0.7610 0.7693 0.7697
1284.074030 0.7677 0.7631 0.7561 0.7436 0.7259
1290.664540 0.7097 0.6866 0.6620 0.6312 0.5939
1297.255050 0.5601 0.5348 0.5107 0.4970 0.5261
1303.845560 0.6022 0.6283 0.6316 0.6339 0.6369
1310.436070 0.6396 0.6425 0.6490 0.6584 0.6679
1317.026580 0.6782 0.6816 0.6836 0.6856 0.6873
1323.617090 0.6886 0.6900 0.6891 0.6808 0.6602
1330.207600 0.6399 0.6197 0.6032 0.5937 0.5933
1336.798110 0.6021 0.6263 0.6430 0.6606 0.6693
1343.388620 0.6759 0.6789 0.6824 0.6883 0.6968
1349.979130 0.7054 0.7090 0.7082 0.7027 0.6893
1356.569640 0.6707 0.6476 0.6232 0.5958 0.5702
1363.160150 0.5487 0.5365 0.5222 0.4983 0.4594
1369.750660 0.4325 0.4315 0.4376 0.4540 0.4727
1376.341170 0.5130 0.5754 0.6077 0.6281 0.6426
1382.931680 0.6508 0.6530 0.6512 0.6447 0.6356
1389.522190 0.6195 0.6175 0.6155 0.6130 0.6068
1396.112700 0.5920 0.5732 0.5585 0.5395 0.5034
1402.703210 0.4661 0.4466 0.4325 0.4315 0.4655
1409.293720 0.5769 0.6115 0.6490 0.6798 0.6982
1415.884230 0.6957 0.6805 0.6606 0.6425 0.6415
1422.474740 0.6437 0.6469 0.6514 0.6560 0.6551
1429.065250 0.6504 0.6439 0.6373 0.6258 0.6100
1435.655760 0.5769 0.5536 0.5240 0.4782 0.4483
1442.246270 0.4388 0.4356 0.4268 0.4262 0.4323
1448.836780 0.4582 0.4830 0.4900 0.4859 0.4606
1455.427290 0.4129 0.3780 0.3740 0.3752 0.3835
1462.017800 0.4099 0.4679 0.5135 0.5810 0.6256
1468.608310 0.6802 0.6846 0.6822 0.6739 0.6483
1475.198820 0.6255 0.6034 0.5682 0.5445 0.5229
1481.789330 0.5069 0.4898 0.4650 0.4335 0.4270
1488.379840 0.4281 0.4563 0.5664 0.6231 0.6649
1494.970350 0.7009 0.7334 0.7698 0.8109 0.8407
1501.560860 0.8532 0.8558 0.8658 0.8752 0.8821
1508.151370 0.8888 0.8977 0.9025 0.9103 0.9120
1514.741880 0.9120 0.9120 0.9120 0.9117 0.9100
1521.332390 0.9098 0.9090 0.9088 0.9077 0.9054
1527.922900 0.9012 0.8967 0.8943 0.8905 0.8872
1534.513410 0.8819 0.8754 0.8711 0.8648 0.8568
1541.103920 0.8488 0.8408 0.8326 0.8238 0.8156
1547.694430 0.8058 0.7914 0.7808 0.7733 0.7684
1554.284940 0.7647 0.7629 0.7620 0.7620 0.7620
1560.875450 0.7619 0.7610 0.7606 0.7576 0.7547
1567.465960 0.7521 0.7442 0.7301 0.7108 0.7002
1574.056470 0.6792 0.6563 0.6205 0.5880 0.5714
1580.646980 0.5518 0.5416 0.5293 0.5110 0.5125
1587.237490 0.5269 0.5561 0.5671 0.5901 0.5908
1593.828000 0.5887 0.5860 0.5866 0.5933 0.6135
1600.418510 0.6361 0.6625 0.6833 0.6954 0.7087
1607.009020 0.7240 0.7354 0.7638 0.7787 0.7844
1613.599530 0.7880 0.7882 0.7900 0.7900 0.7901
1620.190040 0.7911 0.7920 0.7921 0.7932 0.7952
1626.780550 0.7973 0.8001 0.8014 0.8054 0.8092
1633.371060 0.8113 0.8144 0.8183 0.8214 0.8254
1639.961570 0.8294 0.8343 0.8381 0.8392 0.8423
1646.552080 0.8462 0.8491 0.8503 0.8535 0.8596
1653.142590 0.8663 0.8701 0.8712 0.8742 0.8772
1659.733100 0.8805 0.8874 0.8922 0.8951 0.8964
1666.323610 0.9012 0.9041 0.9050 0.9051 0.9060
1672.914120 0.9060 0.9060 0.9060 0.9059 0.9050
1679.504630 0.9049 0.9040 0.9040 0.9040 0.9040
1686.095140 0.9040 0.9040 0.9040 0.9040 0.9040
1692.685650 0.9041 0.9052 0.9080 0.9080 0.9090
1699.276160 0.9090 0.9101 0.9120 0.9120 0.9130
1705.866670 0.9140 0.9141 0.9160 0.9160 0.9170
1712.457180 0.9180 0.9190 0.9190 0.9191 0.9210
1719.047690 0.9220 0.9220 0.9220 0.9210 0.9210
1725.638200 0.9209 0.9190 0.9190 0.9190 0.9190
1732.228710 0.9180 0.9180 0.9180 0.9170 0.9170
1738.819220 0.9170 0.9160 0.9160 0.9140 0.9130
1745.409730 0.9130 0.9120 0.9120 0.9120 0.9100
1752.000240 0.9100 0.9100 0.9100 0.9100 0.9100
1758.590750 0.9100 0.9100 0.9100 0.9100 0.9100
1765.181260 0.9100 0.9100 0.9100 0.9100 0.9100
1771.771770 0.9100 0.9100 0.9100 0.9100 0.9100
1778.362280 0.9090 0.9090 0.9060 0.9060 0.9050
1784.952790 0.9040 0.9040 0.9040 0.9040 0.9040
1791.543300 0.9020 0.9020 0.9010 0.9000 0.9000
1798.133810 0.8980 0.8980 0.8970 0.8970 0.8970
1804.724320 0.8970 0.8960 0.8960 0.8970 0.8970
1811.314830 0.8970 0.8980 0.8980 0.8980 0.8999
1817.905340 0.9000 0.9000 0.9000 0.8981 0.8970
1824.495850 0.8970 0.8960 0.8960 0.8960 0.8960
1831.086360 0.8950 0.8950 0.8931 0.8930 0.8920
1837.676870 0.8910 0.8910 0.8891 0.8890 0.8881
1844.267380 0.8852 0.8850 0.8840 0.8830 0.8830
1850.857890 0.8830 0.8811 0.8801 0.8791 0.8771
1857.448400 0.8770 0.8761 0.8760 0.8751 0.8750
1864.038910 0.8741 0.8721 0.8711 0.8701 0.8700
1870.629420 0.8681 0.8671 0.8670 0.8670 0.8661
1877.219930 0.8660 0.8632 0.8621 0.8583 0.8552
1883.810440 0.8532 0.8511 0.8491 0.8462 0.8460
1890.400950 0.8451 0.8432 0.8430 0.8430 0.8430
1896.991460 0.8430 0.8430 0.8448 0.8450 0.8459
1903.581970 0.8469 0.8470 0.8470 0.8470 0.8470
1910.172480 0.8488 0.8499 0.8500 0.8500 0.8500
1916.762990 0.8500 0.8500 0.8500 0.8509 0.8510
1923.353500 0.8510 0.8510 0.8528 0.8530 0.8530
1929.944010 0.8530 0.8530 0.8530 0.8530 0.8530
1936.534520 0.8530 0.8530 0.8530 0.8530 0.8530
1943.125030 0.8530 0.8530 0.8530 0.8539 0.8540
1949.715540 0.8540 0.8549 0.8559 0.8560 0.8578
1956.306050 0.8589 0.8590 0.8590 0.8590 0.8599
1962.896560 0.8600 0.8600 0.8600 0.8600 0.8600
1969.487070 0.8617 0.8620 0.8620 0.8620 0.8620
1976.077580 0.8620 0.8629 0.8630 0.8630 0.8630
1982.668090 0.8639 0.8657 0.8660 0.8669 0.8670
1989.258600 0.8670 0.8679 0.8680 0.8697 0.8700
1995.849110 0.8700 0.8700 0.8717 0.8746 0.8767
2002.439620 0.8829 0.8908 0.8962 0.8995 0.9008
2009.030130 0.9018 0.9020 0.9020 0.9020 0.9020
2015.620640 0.9020 0.9020 0.9020 0.9037 0.9040
2022.211150 0.9040 0.9048 0.9050 0.9050 0.9050
2028.801660 0.9050 0.9050 0.9050 0.9050 0.9050
2035.392170 0.9050 0.9050 0.9042 0.9040 0.9040
2041.982680 0.9023 0.9020 0.9012 0.9002 0.8983
2048.573190 0.8980 0.8972 0.8962 0.8952 0.8950
2055.163700 0.8950 0.8950 0.8933 0.8930 0.8930
2061.754210 0.8930 0.8930 0.8922 0.8920 0.8912
2068.344720 0.8893 0.8890 0.8890 0.8890 0.8890
2074.935230 0.8890 0.8882 0.8880 0.8871 0.8870
2081.525740 0.8870 0.8870 0.8870 0.8870 0.8870
2088.116250 0.8870 0.8870 0.8870 0.8870 0.8870
2094.706760 0.8870 0.8870 0.8870 0.8870 0.8870
2101.297270 0.8870 0.8870 0.8853 0.8850 0.8850
2107.887780 0.8841 0.8840 0.8832 0.8830 0.8813
2114.478290 0.8793 0.8790 0.8773 0.8770 0.8770
2121.068800 0.8761 0.8760 0.8752 0.8750 0.8742
2127.659310 0.8740 0.8723 0.8720 0.8720 0.8711
2134.249820 0.8710 0.8685 0.8680 0.8680 0.8672
2140.840330 0.8670 0.8670 0.8662 0.8660 0.8643
2147.430840 0.8640 0.8632 0.8622 0.8603 0.8600
2154.021350 0.8592 0.8590 0.8582 0.8563 0.8560
2160.611860 0.8560 0.8560 0.8552 0.8550 0.8550
2167.202370 0.8550 0.8550 0.8550 0.8550 0.8550
2173.792880 0.8550 0.8550 0.8550 0.8542 0.8532
2180.383390 0.8530 0.8530 0.8530 0.8530 0.8513
2186.973900 0.8510 0.8502 0.8500 0.8492 0.8490
2193.564410 0.8473 0.8470 0.8470 0.8470 0.8470
2200.154920 0.8461 0.8460 0.8460 0.8452 0.8450
2206.745430 0.8450 0.8433 0.8422 0.8411 0.8410
2213.335940 0.8393 0.8382 0.8380 0.8380 0.8372
2219.926450 0.8370 0.8370 0.8353 0.8341 0.8331
2226.516960 0.8321 0.8303 0.8300 0.8292 0.8290
2233.107470 0.8282 0.8263 0.8252 0.8224 0.8220
2239.697980 0.8212 0.8210 0.8210 0.8210 0.8202
2246.288490 0.8200 0.8200 0.8183 0.8163 0.8160
2252.879000 0.8143 0.8140 0.8123 0.8112 0.8093
2259.469510 0.8082 0.8072 0.8053 0.8042 0.8031
2266.060020 0.8013 0.8002 0.8000 0.8000 0.7992
2272.650530 0.7990 0.7990 0.7990 0.7990 0.7990
2279.241040 0.7973 0.7970 0.7970 0.7970 0.7970
2285.831550 0.7970 0.7970 0.7962 0.7960 0.7951
2292.422060 0.7950 0.7908 0.7866 0.7843 0.7823
2299.012570 0.7820 0.7803 0.7766 0.7743 0.7714
2305.603080 0.7702 0.7692 0.7673 0.7670 0.7670
2312.193590 0.7662 0.7652 0.7650 0.7633 0.7630
2318.784100 0.7621 0.7620 0.7612 0.7593 0.7556
2325.374610 0.7533 0.7513 0.7485 0.7480 0.7454
2331.965120 0.7441 0.7415 0.7385 0.7372 0.7362
2338.555630 0.7335 0.7322 0.7303 0.7291 0.7281
2345.146140 0.7272 0.7270 0.7253 0.7250 0.7242
2351.736650 0.7215 0.7193 0.7131 0.7086 0.7071
2358.327160 0.7045 0.7032 0.7022 0.7003 0.6992
2364.917670 0.6982 0.6963 0.6960 0.6960 0.6952
2371.508180 0.6950 0.6950 0.6942 0.6940 0.6923
2378.098690 0.6886 0.6863 0.6835 0.6813 0.6750
2384.689200 0.6698 0.6665 0.6643 0.6606 0.6532
2391.279710 0.6452 0.6372 0.6292 0.6212 0.6149
2397.870220 0.6089 0.6063 0.6043 0.6040 0.6057
2404.460730 0.6111 0.6145 0.6158 0.6211 0.6245
2411.051240 0.6284 0.6341 0.6384 0.6398 0.6400
2417.641750 0.6400 0.6392 0.6390 0.6364 0.6334
2424.232260 0.6313 0.6285 0.6272 0.6253 0.6242
2430.822770 0.6240 0.6240 0.6248 0.6275 0.6305
2437.413280 0.6327 0.6355 0.6368 0.6429 0.6474
2444.003790 0.6497 0.6517 0.6537 0.6540 0.6557
2450.594300 0.6568 0.6570 0.6562 0.6543 0.6532
2457.184810 0.6530 0.6505 0.6500 0.6483 0.6463
2463.775320 0.6435 0.6405 0.6366 0.6335 0.6313
2470.365830 0.6285 0.6238 0.6196 0.6156 0.6125
2476.956340 0.6103 0.6075 0.6062 0.6026 0.5986
2483.546850 0.5912 0.5875 0.5836 0.5805 0.5749
2490.137360 0.5698 0.5665 0.5626 0.5603 0.5600
2496.727870 0.5592 0.5590 0.5573 0.5562 0.5560
2503.318380 0.5560 0.5568 0.5587 0.5598 0.5608
2509.908890 0.5635 0.5657 0.5728 0.5791 0.5826
2516.499400 0.5847 0.5858 0.5860 0.5868 0.5870
2523.089910 0.5870 0.5870 0.5870 0.5870 0.5870
2529.680420 0.5870 0.5870 0.5862 0.5860 0.5860
2536.270930 0.5860 0.5852 0.5833 0.5821 0.5803
2542.861440 0.5783 0.5772 0.5745 0.5732 0.5722
2549.451950 0.5695 0.5682 0.5663 0.5643 0.5623
2556.042460 0.5603 0.5575 0.5562 0.5535 0.5513
2562.632970 0.5493 0.5482 0.5455 0.5433 0.5396
2569.223480 0.5348 0.5281 0.5228 0.5161 0.5116
2575.813990 0.5093 0.5073 0.5053 0.5050 0.5050
2582.404500 0.5033 0.5030 0.5030 0.5030 0.5022
2588.995010 0.5020 0.5020 0.5020 0.5020 0.5011
2595.585520 0.5010 0.5002 0.4983 0.4946 0.4923
2602.176030 0.4903 0.4866 0.4843 0.4823 0.4811
2608.766540 0.4776 0.4728 0.4712 0.4676 0.4611
2615.357050 0.4549 0.4506 0.4466 0.4435 0.4396
2621.947560 0.4373 0.4353 0.4342 0.4332 0.4313
2628.538070 0.4310 0.4302 0.4300 0.4275 0.4227
2635.128580 0.4186 0.4163 0.4109 0.4066 0.4026
2641.719090 0.4003 0.3975 0.3962 0.3935 0.3913
2648.309600 0.3885 0.3872 0.3845 0.3815 0.3793
2654.900110 0.3773 0.3762 0.3743 0.3723 0.3711
2661.490620 0.3676 0.3645 0.3606 0.3583 0.3555
2668.081130 0.3550 0.3542 0.3540 0.3514 0.3476
2674.671640 0.3461 0.3435 0.3422 0.3412 0.3393
2681.262150 0.3390 0.3382 0.3372 0.3370 0.3344
2687.852660 0.3340 0.3340 0.3332 0.3288 0.3229
2694.443170 0.3169 0.3126 0.3112 0.3059 0.3007
2701.033680 0.2958 0.2908 0.2866 0.2835 0.2822
2707.624190 0.2820 0.2820 0.2820 0.2829 0.2864
2714.214700 0.2879 0.2914 0.2979 0.3075 0.3158
2720.805210 0.3229 0.3291 0.3317 0.3320 0.3303
2727.395720 0.3283 0.3263 0.3209 0.3183 0.3138
2733.986230 0.3088 0.3038 0.3005 0.2966 0.2934
2740.576740 0.2913 0.2885 0.2838 0.2796 0.2782
2747.167250 0.2763 0.2760 0.2752 0.2750 0.2742
2753.757760 0.2740 0.2740 0.2740 0.2740 0.2740
2760.348270 0.2740 0.2748 0.2750 0.2750 0.2750
2766.938780 0.2759 0.2777 0.2780 0.2780 0.2788
2773.529290 0.2790 0.2790 0.2798 0.2800 0.2800
2780.119800 0.2800 0.2800 0.2800 0.2800 0.2792
2786.710310 0.2790 0.2782 0.2780 0.2763 0.2752
2793.300820 0.2750 0.2742 0.2740 0.2740 0.2748
2799.891330 0.2775 0.2788 0.2815 0.2854 0.2869
2806.481840 0.2895 0.2908 0.2918 0.2954 0.2994
2813.072350 0.3008 0.3035 0.3065 0.3079 0.3080
2819.662860 0.3105 0.3110 0.3118 0.3120 0.3112
2826.253370 0.3093 0.3073 0.3045 0.2963 0.2890
2832.843880 0.2846 0.2823 0.2803 0.2792 0.2790
2839.434390 0.2765 0.2726 0.2703 0.2674 0.2661
2846.024900 0.2652 0.2625 0.2612 0.2610 0.2593
2852.615410 0.2590 0.2607 0.2610 0.2619 0.2629
2859.205920 0.2647 0.2658 0.2660 0.2660 0.2652
2865.796430 0.2633 0.2622 0.2612 0.2593 0.2573
2872.386940 0.2545 0.2515 0.2502 0.2492 0.2482
2878.977450 0.2463 0.2452 0.2425 0.2412 0.2376
2885.567960 0.2344 0.2323 0.2303 0.2292 0.2256
2892.158470 0.2233 0.2205 0.2192 0.2173 0.2161
2898.748980 0.2152 0.2125 0.2078 0.2045 0.2023
2905.339490 0.2003 0.2000 0.1992 0.1990 0.1964
2911.930000 0.1926 0.1886 0.1863 0.1835 0.1813
2918.520510 0.1793 0.1782 0.1780 0.1780 0.1780
2925.111020 0.1789 0.1790 0.1815 0.1828 0.1847
2931.701530 0.1867 0.1878 0.1897 0.1908 0.1936
2938.292040 0.1949 0.1950 0.1958 0.1977 0.1988
2944.882550 0.1990 0.1990 0.1990 0.1999 0.2026
2951.473060 0.2056 0.2068 0.2070 0.2070 0.2078
2958.063570 0.2088 0.2115 0.2128 0.2147 0.2159
2964.654080 0.2160 0.2160 0.2160 0.2152 0.2125
2971.244590 0.2112 0.2093 0.2090 0.2082 0.2072
2977.835100 0.2070 0.2036 0.2022 0.2020 0.2003
2984.425610 0.2000 0.2000 0.2000 0.2000 0.2017
2991.016120 0.2020 0.2020 0.2020 0.2020 0.2020
2997.606630 0.2028 0.2030 0.2030 0.2039 0.2057
3004.197140 0.2069 0.2087 0.2115 0.2145 0.2184
3010.787650 0.2224 0.2238 0.2248 0.2250 0.2267
3017.378160 0.2270 0.2278 0.2280 0.2288 0.2290
3023.968670 0.2290 0.2290 0.2290 0.2290 0.2290
3030.559180 0.2290 0.2298 0.2300 0.2300 0.2300
3037.149690 0.2300 0.2300 0.2300 0.2300 0.2300
3043.740200 0.2317 0.2320 0.2328 0.2330 0.2355
3050.330710 0.2368 0.2370 0.2395 0.2400 0.2409
3056.921220 0.2419 0.2420 0.2454 0.2485 0.2507
3063.511730 0.2527 0.2564 0.2587 0.2607 0.2619
3070.102240 0.2645 0.2667 0.2687 0.2715 0.2737
3076.692750 0.2757 0.2785 0.2798 0.2800 0.2817
3083.283260 0.2820 0.2820 0.2820 0.2803 0.2800
3089.873770 0.2800 0.2800 0.2817 0.2820 0.2820
3096.464280 0.2828 0.2830 0.2838 0.2857 0.2860
3103.054790 0.2860 0.2868 0.2878 0.2880 0.2897
3109.645300 0.2908 0.2910 0.2918 0.2920 0.2920
3116.235810 0.2928 0.2930 0.2947 0.2959 0.2960
3122.826320 0.2960 0.2952 0.2950 0.2950 0.2950
3129.416830 0.2950 0.2933 0.2930 0.2921 0.2920
3136.007340 0.2920 0.2920 0.2920 0.2920 0.2912
3142.597850 0.2910 0.2902 0.2883 0.2871 0.2870
3149.188360 0.2870 0.2862 0.2860 0.2835 0.2805
3155.778870 0.2800 0.2792 0.2782 0.2755 0.2742
3162.369380 0.2723 0.2712 0.2702 0.2675 0.2653
3168.959890 0.2625 0.2586 0.2572 0.2545 0.2531
3175.550400 0.2513 0.2502 0.2483 0.2455 0.2416
3182.140910 0.2385 0.2372 0.2370 0.2336 0.2322
3188.731420 0.2303 0.2292 0.2290 0.2282 0.2272
3195.321930 0.2270 0.2270 0.2253 0.2250 0.2242
3201.912440 0.2240 0.2240 0.2232 0.2230 0.2230
3208.502950 0.2230 0.2230 0.2238 0.2240 0.2240
3215.093460 0.2248 0.2267 0.2270 0.2278 0.2297
3221.683970 0.2317 0.2328 0.2338 0.2374 0.2406
3228.274480 0.2444 0.2484 0.2507 0.2527 0.2547
3234.864990 0.2584 0.2624 0.2655 0.2694 0.2743
3241.455500 0.2809 0.2854 0.2868 0.2895 0.2942
3248.046010 0.2984 0.3024 0.3098 0.3186 0.3234
3254.636520 0.3257 0.3285 0.3315 0.3345 0.3409
3261.227030 0.3454 0.3494 0.3534 0.3549 0.3576
3267.817540 0.3614 0.3628 0.3672 0.3739 0.3767
3274.408050 0.3795 0.3834 0.3874 0.3922 0.3947
3280.998560 0.3975 0.4039 0.4058 0.4085 0.4132
3287.589070 0.4174 0.4205 0.4252 0.4286 0.4333
3294.179580 0.4365 0.4421 0.4455 0.4494 0.4542
3300.770090 0.4584 0.4607 0.4644 0.4676 0.4714
3307.360600 0.4729 0.4755 0.4768 0.4795 0.4817
3313.951110 0.4837 0.4857 0.4877 0.4889 0.4899
3320.541620 0.4925 0.4938 0.4957 0.4968 0.4978
3327.132130 0.4997 0.5000 0.5008 0.5010 0.5010
3333.722640 0.5001 0.5000 0.5000 0.4983 0.4980
3340.313150 0.4972 0.4962 0.4960 0.4943 0.4931
3346.903660 0.4921 0.4920 0.4903 0.4892 0.4882
3353.494170 0.4880 0.4880 0.4863 0.4860 0.4843
3360.084680 0.4815 0.4802 0.4792 0.4773 0.4762
3366.675190 0.4760 0.4760 0.4752 0.4750 0.4750
3373.265700 0.4750 0.4750 0.4750 0.4758 0.4760
3379.856210 0.4760 0.4760 0.4768 0.4770 0.4770
3386.446720 0.4787 0.4790 0.4790 0.4798 0.4800
3393.037230 0.4808 0.4818 0.4820 0.4837 0.4849
3399.627740 0.4850 0.4858 0.4877 0.4888 0.4898
3406.218250 0.4917 0.4928 0.4938 0.4974 0.4997
3412.808760 0.5009 0.5018 0.5045 0.5058 0.5085
3419.399270 0.5098 0.5100 0.5108 0.5110 0.5127
3425.989780 0.5147 0.5175 0.5197 0.5225 0.5255
3432.580290 0.5277 0.5280 0.5297 0.5334 0.5357
3439.170800 0.5377 0.5388 0.5407 0.5427 0.5438
3445.761310 0.5482 0.5507 0.5527 0.5555 0.5594
3452.351820 0.5609 0.5618 0.5645 0.5650 0.5684
3458.942330 0.5698 0.5725 0.5730 0.5739 0.5757
3465.532840 0.5794 0.5817 0.5845 0.5867 0.5887
3472.123350 0.5898 0.5908 0.5927 0.5938 0.5948
3478.713860 0.5975 0.6005 0.6018 0.6028 0.6055
3485.304370 0.6094 0.6117 0.6145 0.6175 0.6214
3491.894880 0.6229 0.6238 0.6265 0.6270 0.6278
3498.485390 0.6288 0.6324 0.6355 0.6394 0.6426
3505.075900 0.6447 0.6458 0.6477 0.6488 0.6515
3511.666410 0.6554 0.6577 0.6605 0.6636 0.6683
3518.256920 0.6707 0.6744 0.6767 0.6778 0.6805
3524.847430 0.6844 0.6892 0.6917 0.6971 0.7031
3531.437940 0.7066 0.7078 0.7088 0.7107 0.7144
3538.028450 0.7167 0.7221 0.7264 0.7287 0.7316
3544.618960 0.7362 0.7404 0.7418 0.7471 0.7497
3551.209470 0.7542 0.7584 0.7607 0.7627 0.7647
3557.799980 0.7684 0.7707 0.7735 0.7748 0.7758
3564.390490 0.7777 0.7814 0.7837 0.7900 0.7944
3570.981000 0.7967 0.7995 0.8008 0.8035 0.8065
3577.571510 0.8104 0.8127 0.8155 0.8169 0.8179
3584.162020 0.8214 0.8254 0.8294 0.8325 0.8338
3590.752530 0.8348 0.8375 0.8414 0.8446 0.8467
3597.343040 0.8496 0.8500 0.8525 0.8572 0.8588
3603.933550 0.8615 0.8654 0.8694 0.8717 0.8746
3610.524060 0.8759 0.8768 0.8804 0.8835 0.8882
3617.114570 0.8907 0.8927 0.8972 0.8997 0.9000
3623.705080 0.9009 0.9018 0.9037 0.9074 0.9131
3630.295590 0.9182 0.9207 0.9210 0.9210 0.9210
3636.886100 0.9210 0.9210 0.9210 0.9210 0.9210
3643.476610 0.9210 0.9210 0.9210 0.9227 0.9281
3650.067120 0.9299 0.9308 0.9310 0.9310 0.9310
3656.657630 0.9310 0.9310 0.9293 0.9256 0.9233
3663.248140 0.9196 0.9165 0.9126 0.9103 0.9092
3669.838650 0.9090 0.9090 0.9098 0.9117 0.9129
3676.429160 0.9138 0.9165 0.9187 0.9207 0.9218
3683.019670 0.9228 0.9247 0.9258 0.9269 0.9304
3689.610180 0.9344 0.9375 0.9380 0.9388 0.9390
3696.200690 0.9390 0.9390 0.9390 0.9382 0.9380
3702.791200 0.9380 0.9372 0.9370 0.9353 0.9350
3709.381710 0.9367 0.9370 0.9378 0.9372 0.9370
3715.972220 0.9353 0.9342 0.9340 0.9332 0.9330
3722.562730 0.9330 0.9330 0.9313 0.9302 0.9274
3729.153240 0.9253 0.9233 0.9230 0.9230 0.9222
3735.743750 0.9220 0.9212 0.9193 0.9190 0.9190
3742.334260 0.9207 0.9210 0.9218 0.9220 0.9245
3748.924770 0.9318 0.9338 0.9340 0.9332 0.9313
3755.515280 0.9310 0.9310 0.9302 0.9300 0.9300
3762.105790 0.9300 0.9300 0.9300 0.9300 0.9300
3768.696300 0.9300 0.9292 0.9290 0.9290 0.9273
3775.286810 0.9270 0.9270 0.9262 0.9260 0.9252
3781.877320 0.9250 0.9233 0.9222 0.9212 0.9193
3788.467830 0.9182 0.9172 0.9170 0.9170 0.9170
3795.058340 0.9170 0.9162 0.9143 0.9140 0.9157
3801.648850 0.9160 0.9160 0.9143 0.9132 0.9130
3808.239360 0.9122 0.9120 0.9103 0.9092 0.9090
3814.829870 0.9090 0.9090 0.9090 0.9099 0.9117
3821.420380 0.9120 0.9120 0.9103 0.9092 0.9065
3828.010890 0.9052 0.9042 0.9040 0.9040 0.9049
3834.601400 0.9050 0.9058 0.9077 0.9080 0.9063
3841.191910 0.9060 0.9043 0.9023 0.8969 0.8892
3847.782420 0.8872 0.8878 0.8888 0.8958 0.8995
3854.372930 0.9000 0.8983 0.8963 0.8935 0.8930
3860.963440 0.8930 0.8930 0.8930 0.8930 0.8930
3867.553950 0.8947 0.8950 0.8950 0.8950 0.8950
3874.144460 0.8925 0.8912 0.8910 0.8918 0.8920
3880.734970 0.8920 0.8920 0.8920 0.8920 0.8929
3887.325480 0.8930 0.8922 0.8912 0.8910 0.8893
3893.915990 0.8890 0.8890 0.8907 0.8910 0.8919
3900.506500 0.8920 0.8920 0.8920 0.8920 0.8920
3907.097010 0.8912 0.8910 0.8893 0.8890 0.8890
3913.687520 0.8890 0.8890 0.8890 0.8890 0.8890
3920.278030 0.8890 0.8890 0.8890 0.8890 0.8890
3926.868540 0.8890 0.8890 0.8890 0.8890 0.8890
3933.459050 0.8890 0.8890 0.8890 0.8882 0.8880
3940.049560 0.8880 0.8872 0.8870 0.8853 0.8850
3946.640070 0.8850 0.8842 0.8840 0.8840 0.8840
3953.230580 0.8840 0.8832 0.8830 0.8813 0.8810
3959.821090 0.8810 0.8810 0.8810 0.8810 0.8801
3966.411600 0.8800 0.8800 0.8808 0.8810 0.8810
3973.002110 0.8810 0.8802 0.8800 0.8800 0.8809
3979.592620 0.8810 0.8810 0.8802 0.8800 0.8800
3986.183130 0.8800 0.8800 0.8808 0.8801 0.8800
3992.773640 0.8800 0.8800 0.8800 0.8800 0.8800
##END=
