##TITLE=4-THIAZOLECARBOXAMIDE, 5-AMINO-2-(CYANOMETHYLTHIO)-
##JCAMP-DX=4.24
##DATA TYPE=INFRARED SPECTRUM
##CLASS=COBLENTZ III
##ORIGIN=SOUTHERN RESEARCH INSTITUTE
##OWNER=COBLENTZ SOCIETY
Collection (C) 2018 copyright by the U.S. Secretary of Commerce
on behalf of the United States of America. All rights reserved.
##DATE=1970/04/30
##NAMES=5-amino-2-[(cyanomethyl)sulfanyl]-1,3-thiazole-4-carboxamide
##MOLFORM=C6 H6 N4 O S2
##SOURCE REFERENCE=COBLENTZ NO. 10389
##$NIST ID=B6010389
##$NIST SOURCE=COBLENTZ
##$NIST IMAGE=cob10389
##SPECTROMETER/DATA SYSTEM=PERKIN-ELMER 621
##STATE=SOLID (1 mg / 500 mg KBr DISC)
##PATH LENGTH=
$$ PURITY - ANALYTICAL
##SAMPLING PROCEDURE=TRANSMISSION
##RESOLUTION=4
##DATA PROCESSING=DIGITIZED BY NIST FROM HARD COPY (FROM TWO SEGMENTS)
##XUNITS=1/CM
##YUNITS=TRANSMITTANCE
##XFACTOR=1.000000
##YFACTOR=1
##DELTAX=1.311191
##FIRSTX=305.944
##LASTX=4000.88
##FIRSTY=0.43
##MAXX=4000.88
##MINX=305.944
##MAXY=0.937
##MINY=0.106
##NPOINTS=2819
##XYDATA=(X++(Y..Y))
305.944000 0.4300 0.4350 0.4410 0.4460 0.4500
312.499954 0.4550 0.4590 0.4620 0.4640 0.4670
319.055907 0.4670 0.4690 0.4710 0.4710 0.4720
325.611861 0.4720 0.4720 0.4720 0.4720 0.4730
332.167814 0.4750 0.4760 0.4770 0.4770 0.4770
338.723768 0.4770 0.4760 0.4750 0.4730 0.4720
345.279722 0.4710 0.4710 0.4720 0.4730 0.4750
351.835675 0.4760 0.4790 0.4820 0.4860 0.4890
358.391629 0.4920 0.4930 0.4930 0.4920 0.4890
364.947582 0.4840 0.4770 0.4710 0.4670 0.4551
371.503536 0.4510 0.4550 0.4620 0.4640 0.4750
378.059490 0.4810 0.4959 0.4970 0.5069 0.5169
384.615443 0.5180 0.5200 0.5340 0.5480 0.5540
391.171397 0.5650 0.5660 0.5650 0.5620 0.5541
397.727350 0.5490 0.5440 0.5400 0.5340 0.5240
404.283304 0.5130 0.4941 0.4681 0.4511 0.4381
410.839258 0.4350 0.4380 0.4510 0.4789 0.4999
417.395211 0.5020 0.5030 0.5030 0.5070 0.5090
423.951165 0.5090 0.5110 0.5110 0.5140 0.5140
430.507118 0.5150 0.5170 0.5190 0.5220 0.5260
437.063072 0.5300 0.5340 0.5360 0.5400 0.5440
443.619025 0.5470 0.5510 0.5530 0.5570 0.5610
450.174979 0.5640 0.5680 0.5710 0.5750 0.5790
456.730933 0.5830 0.5870 0.5920 0.5960 0.6000
463.286886 0.6040 0.6080 0.6090 0.6120 0.6130
469.842840 0.6130 0.6160 0.6170 0.6190 0.6190
476.398793 0.6200 0.6200 0.6190 0.6190 0.6170
482.954747 0.6170 0.6150 0.6120 0.6080 0.6030
489.510701 0.5990 0.5920 0.5870 0.5810 0.5780
496.066654 0.5750 0.5750 0.5770 0.5780 0.5780
502.622608 0.5730 0.5660 0.5580 0.5530 0.5450
509.178561 0.5400 0.5281 0.5031 0.4861 0.4721
515.734515 0.4560 0.4540 0.4370 0.4370 0.4639
522.290469 0.4849 0.5059 0.5179 0.5279 0.5399
528.846422 0.5410 0.5400 0.5390 0.5360 0.5340
535.402376 0.5280 0.5220 0.5170 0.5140 0.5031
541.958329 0.4980 0.4940 0.4920 0.4900 0.4860
548.514283 0.4800 0.4790 0.4770 0.4720 0.4641
555.070237 0.4620 0.4620 0.4630 0.4670 0.4690
561.626190 0.4770 0.4889 0.4999 0.5129 0.5239
568.182144 0.5390 0.5540 0.5700 0.5830 0.5940
574.738097 0.6040 0.6120 0.6170 0.6240 0.6280
581.294051 0.6320 0.6330 0.6360 0.6380 0.6380
587.850005 0.6400 0.6420 0.6420 0.6430 0.6430
594.405958 0.6430 0.6430 0.6430 0.6430 0.6430
600.961912 0.6430 0.6450 0.6500 0.6599 0.6660
607.517865 0.6740 0.6870 0.7080 0.7170 0.7230
614.073819 0.7300 0.7350 0.7390 0.7420 0.7430
620.629773 0.7220 0.7220 0.7470 0.7590 0.7101
627.185726 0.7080 0.7090 0.7190 0.7309 0.7399
633.741680 0.7400 0.7420 0.7420 0.7400 0.7380
640.297633 0.7171 0.7170 0.7528 0.7639 0.7729
646.853587 0.7800 0.7890 0.7950 0.8020 0.8040
653.409541 0.8070 0.8080 0.8100 0.8100 0.8100
659.965494 0.8080 0.8080 0.8060 0.8030 0.7950
666.521448 0.7900 0.7840 0.7681 0.7571 0.7351
673.077401 0.7090 0.6930 0.6780 0.6261 0.5751
679.633355 0.5202 0.4901 0.4900 0.5487 0.5510
686.189308 0.6250 0.7349 0.7630 0.7780 0.8009
692.745262 0.8020 0.8010 0.7990 0.7861 0.7701
699.301216 0.7520 0.7340 0.7340 0.7629 0.7889
705.857169 0.7950 0.8010 0.8020 0.8010 0.7980
712.413123 0.7940 0.7900 0.7870 0.7850 0.7850
718.969076 0.7820 0.7820 0.7810 0.7800 0.7760
725.525030 0.7730 0.7690 0.7630 0.7550 0.7510
732.080984 0.7420 0.7340 0.7260 0.7260 0.7349
738.636937 0.7600 0.7640 0.7680 0.7730 0.7800
745.192891 0.7820 0.7900 0.7990 0.8070 0.8140
751.748844 0.8200 0.8270 0.8320 0.8370 0.8410
758.304798 0.8460 0.8490 0.8530 0.8560 0.8580
764.860752 0.8580 0.8570 0.8540 0.8500 0.8420
771.416705 0.8251 0.8021 0.7741 0.7422 0.7082
777.972659 0.6890 0.6710 0.6360 0.5811 0.5571
784.528612 0.5570 0.5869 0.6029 0.6060 0.6159
791.084566 0.7060 0.7250 0.7390 0.7530 0.7650
797.640520 0.7760 0.7850 0.7940 0.8010 0.8060
804.196473 0.8100 0.8120 0.8120 0.8160 0.8190
810.752427 0.8200 0.8200 0.8210 0.8230 0.8250
817.308380 0.8250 0.8280 0.8290 0.8290 0.8290
823.864334 0.8310 0.8310 0.8310 0.8310 0.8310
830.420288 0.8320 0.8320 0.8310 0.8270 0.8270
836.976241 0.8230 0.8200 0.8190 0.8160 0.8140
843.532195 0.8100 0.8010 0.7950 0.7940 0.7840
850.088148 0.7680 0.7501 0.7291 0.7101 0.7040
856.644102 0.6970 0.6880 0.6550 0.6540 0.6550
863.200056 0.7208 0.7549 0.7819 0.8029 0.8209
869.756009 0.8400 0.8580 0.8620 0.8630 0.8650
876.311963 0.8660 0.8660 0.8670 0.8670 0.8670
882.867916 0.8670 0.8670 0.8670 0.8670 0.8670
889.423870 0.8670 0.8670 0.8670 0.8670 0.8670
895.979824 0.8660 0.8660 0.8650 0.8650 0.8630
902.535777 0.8610 0.8610 0.8590 0.8590 0.8590
909.091731 0.8580 0.8570 0.8540 0.8540 0.8530
915.647684 0.8520 0.8520 0.8500 0.8460 0.8390
922.203638 0.8320 0.8270 0.8200 0.8120 0.7990
928.759592 0.7821 0.7591 0.7262 0.7081 0.7080
935.315545 0.7680 0.7770 0.8070 0.8459 0.8490
941.871499 0.8500 0.8520 0.8520 0.8520 0.8520
948.427452 0.8520 0.8520 0.8500 0.8490 0.8490
954.983406 0.8480 0.8460 0.8450 0.8440 0.8440
961.539359 0.8410 0.8410 0.8400 0.8370 0.8360
968.095313 0.8350 0.8330 0.8320 0.8290 0.8270
974.651267 0.8240 0.8200 0.8160 0.8120 0.8070
981.207220 0.8030 0.7990 0.7940 0.7890 0.7840
987.763174 0.7770 0.7700 0.7630 0.7530 0.7191
994.319127 0.7120 0.6961 0.6801 0.5736 0.5571
1000.875081 0.5520 0.5280 0.4900 0.4511 0.4011
1007.431035 0.3841 0.3661 0.3660 0.4078 0.4478
1013.986988 0.5300 0.5480 0.5690 0.6189 0.6599
1020.542942 0.7208 0.7399 0.7559 0.7669 0.7759
1027.098895 0.7840 0.7870 0.7930 0.7970 0.7990
1033.654849 0.8030 0.8060 0.8060 0.8070 0.8070
1040.210803 0.8070 0.8070 0.8070 0.8070 0.8060
1046.766756 0.8040 0.8040 0.8030 0.8020 0.7990
1053.322710 0.7990 0.7980 0.7970 0.7970 0.7940
1059.878663 0.7910 0.7860 0.7820 0.7780 0.7740
1066.434617 0.7700 0.7680 0.7600 0.7510 0.7440
1072.990571 0.7380 0.7310 0.7260 0.7220 0.7180
1079.546524 0.7170 0.7170 0.7180 0.7210 0.7220
1086.102478 0.7230 0.7260 0.7290 0.7300 0.7340
1092.658431 0.7380 0.7400 0.7420 0.7430 0.7440
1099.214385 0.7460 0.7470 0.7480 0.7500 0.7500
1105.770339 0.7480 0.7470 0.7470 0.7470 0.7470
1112.326292 0.7480 0.7480 0.7480 0.7480 0.7480
1118.882246 0.7480 0.7480 0.7470 0.7440 0.7430
1125.438199 0.7420 0.7400 0.7390 0.7360 0.7350
1131.994153 0.7340 0.7320 0.7310 0.7310 0.7300
1138.550107 0.7270 0.7230 0.7190 0.7150 0.7140
1145.106060 0.7130 0.7130 0.7120 0.7100 0.7090
1151.662014 0.7090 0.7080 0.7080 0.7080 0.7090
1158.217967 0.7100 0.7130 0.7180 0.7210 0.7220
1164.773921 0.7220 0.7190 0.7170 0.7041 0.6891
1171.329875 0.6600 0.6490 0.6320 0.6320 0.7288
1177.885828 0.7300 0.7380 0.7430 0.7470 0.7470
1184.441782 0.7510 0.7560 0.7670 0.7730 0.7840
1190.997735 0.7860 0.7860 0.7860 0.7860 0.7850
1197.553689 0.7850 0.7840 0.7810 0.7780 0.7760
1204.109642 0.7740 0.7720 0.7700 0.7680 0.7640
1210.665596 0.7590 0.7530 0.7440 0.7390 0.7290
1217.221550 0.7081 0.7060 0.7080 0.7100 0.7120
1223.777503 0.7120 0.7090 0.7050 0.7010 0.7010
1230.333457 0.7040 0.7180 0.7270 0.7340 0.7380
1236.889410 0.7390 0.7390 0.7380 0.7360 0.7350
1243.445364 0.7360 0.7350 0.7340 0.7320 0.7300
1250.001318 0.7250 0.7190 0.7140 0.7050 0.7010
1256.557271 0.6960 0.6910 0.6880 0.7049 0.7219
1263.113225 0.7430 0.7590 0.7690 0.7700 0.7700
1269.669178 0.7700 0.7690 0.7670 0.7650 0.7640
1276.225132 0.7640 0.7630 0.7610 0.7570 0.7560
1282.781086 0.7550 0.7520 0.7480 0.7440 0.7420
1289.337039 0.7380 0.7340 0.7260 0.7230 0.7180
1295.892993 0.7120 0.7010 0.6960 0.6890 0.6781
1302.448946 0.6630 0.6470 0.6330 0.6160 0.6000
1309.004900 0.5850 0.5701 0.5541 0.5301 0.5280
1315.560854 0.5310 0.5410 0.5580 0.5810 0.6020
1322.116807 0.6239 0.6429 0.6639 0.7008 0.7169
1328.672761 0.7320 0.7460 0.7570 0.7650 0.7680
1335.228714 0.7680 0.7670 0.7650 0.7650 0.7640
1341.784668 0.7630 0.7610 0.7560 0.7520 0.7480
1348.340622 0.7440 0.7400 0.7360 0.7320 0.7300
1354.896575 0.7260 0.7230 0.7210 0.7140 0.7080
1361.452529 0.7010 0.6970 0.6930 0.6880 0.6810
1368.008482 0.6740 0.6670 0.6590 0.6340 0.6210
1374.564436 0.6120 0.5990 0.5751 0.5352 0.4684
1381.120390 0.4290 0.3880 0.5219 0.5220 0.5150
1387.676343 0.5070 0.5010 0.5010 0.5866 0.6198
1394.232297 0.6380 0.6410 0.6380 0.6360 0.6280
1400.788250 0.6190 0.6090 0.6000 0.5910 0.5811
1407.344204 0.5690 0.5580 0.5450 0.5320 0.5180
1413.900158 0.5030 0.4881 0.4711 0.4511 0.4311
1420.456111 0.4100 0.4000 0.3880 0.3630 0.3391
1427.012065 0.3101 0.2612 0.2560 0.2560 0.2779
1433.568018 0.3080 0.3180 0.3190 0.3180 0.3080
1440.123972 0.2900 0.2721 0.2571 0.2500 0.2401
1446.679925 0.2390 0.2400 0.3020 0.3410 0.4119
1453.235879 0.4419 0.4709 0.4959 0.5199 0.5409
1459.791833 0.5600 0.5910 0.5920 0.5920 0.5900
1466.347786 0.5700 0.5580 0.5401 0.5201 0.4981
1472.903740 0.4760 0.4540 0.4220 0.4070 0.3910
1479.459693 0.3591 0.3291 0.2991 0.2701 0.2432
1486.015647 0.2170 0.1920 0.1700 0.1630 0.1630
1492.571601 0.1640 0.1660 0.1670 0.1670 0.1680
1499.127554 0.1760 0.2080 0.2420 0.2740 0.3029
1505.683508 0.3309 0.3569 0.4038 0.4249 0.4449
1512.239461 0.4640 0.4810 0.5020 0.5190 0.5340
1518.795415 0.5480 0.5600 0.5710 0.5819 0.5919
1525.351369 0.6030 0.6090 0.6120 0.6170 0.6200
1531.907322 0.6200 0.6190 0.6170 0.6150 0.6130
1538.463276 0.6120 0.6070 0.6020 0.5950 0.5900
1545.019229 0.5830 0.5691 0.5521 0.5341 0.5141
1551.575183 0.4940 0.4730 0.4510 0.4300 0.4090
1558.131137 0.4000 0.3900 0.3701 0.3501 0.3331
1564.687090 0.3190 0.3040 0.2810 0.2550 0.2260
1571.243044 0.1981 0.1751 0.1571 0.1451 0.1251
1577.798997 0.1240 0.1250 0.1340 0.1470 0.1590
1584.354951 0.1680 0.1800 0.1959 0.2129 0.2309
1590.910905 0.2500 0.2590 0.2700 0.2780 0.2900
1597.466858 0.3060 0.3080 0.3100 0.3140 0.3180
1604.022812 0.3200 0.3230 0.3290 0.3400 0.3570
1610.578765 0.4208 0.4629 0.4929 0.5189 0.5369
1617.134719 0.5600 0.5620 0.5620 0.5610 0.5430
1623.690673 0.5310 0.5151 0.4981 0.4771 0.4551
1630.246626 0.4300 0.4050 0.3920 0.3790 0.3521
1636.802580 0.3241 0.2821 0.2382 0.1932 0.1552
1643.358533 0.1250 0.1070 0.1060 0.1070 0.1190
1649.914487 0.1290 0.1400 0.1450 0.1450 0.1430
1656.470441 0.1410 0.1300 0.1250 0.1250 0.1320
1663.026394 0.1679 0.1959 0.2308 0.2847 0.3407
1669.582348 0.4291 0.4720 0.5130 0.5510 0.5850
1676.138301 0.6169 0.6449 0.6709 0.7148 0.7339
1682.694255 0.7510 0.7640 0.7760 0.7860 0.7950
1689.250208 0.8020 0.8060 0.8100 0.8120 0.8160
1695.806162 0.8200 0.8330 0.8400 0.8450 0.8500
1702.362116 0.8670 0.8690 0.8700 0.8730 0.8740
1708.918069 0.8750 0.8760 0.8760 0.8780 0.8790
1715.474023 0.8820 0.8830 0.8860 0.8880 0.8920
1722.029976 0.8950 0.8970 0.9000 0.9050 0.9100
1728.585930 0.9120 0.9160 0.9200 0.9220 0.9240
1735.141884 0.9250 0.9260 0.9290 0.9300 0.9300
1741.697837 0.9310 0.9310 0.9310 0.9310 0.9310
1748.253791 0.9310 0.9310 0.9330 0.9330 0.9330
1754.809744 0.9310 0.9310 0.9310 0.9310 0.9310
1761.365698 0.9310 0.9330 0.9330 0.9340 0.9340
1767.921652 0.9350 0.9350 0.9350 0.9350 0.9350
1774.477605 0.9350 0.9350 0.9370 0.9370 0.9370
1781.033559 0.9350 0.9350 0.9350 0.9350 0.9370
1787.589512 0.9370 0.9370 0.9370 0.9370 0.9370
1794.145466 0.9370 0.9350 0.9350 0.9350 0.9350
1800.701420 0.9340 0.9340 0.9340 0.9340 0.9330
1807.257373 0.9330 0.9330 0.9330 0.9330 0.9330
1813.813327 0.9330 0.9310 0.9310 0.9300 0.9300
1820.369280 0.9300 0.9300 0.9290 0.9290 0.9280
1826.925234 0.9280 0.9250 0.9250 0.9250 0.9240
1833.481188 0.9240 0.9240 0.9220 0.9220 0.9210
1840.037141 0.9210 0.9210 0.9200 0.9200 0.9200
1846.593095 0.9200 0.9200 0.9200 0.9200 0.9180
1853.149048 0.9180 0.9180 0.9180 0.9180 0.9180
1859.705002 0.9180 0.9180 0.9180 0.9180 0.9180
1866.260956 0.9180 0.9170 0.9170 0.9170 0.9160
1872.816909 0.9160 0.9160 0.9160 0.9160 0.9160
1879.372863 0.9160 0.9160 0.9160 0.9160 0.9160
1885.928816 0.9140 0.9140 0.9140 0.9130 0.9130
1892.484770 0.9130 0.9130 0.9130 0.9130 0.9130
1899.040724 0.9130 0.9120 0.9100 0.9100 0.9090
1905.596677 0.9080 0.9080 0.9080 0.9080 0.9070
1912.152631 0.9070 0.9070 0.9070 0.9050 0.9050
1918.708584 0.9050 0.9040 0.9040 0.9030 0.9030
1925.264538 0.9030 0.9010 0.9000 0.9000 0.9000
1931.820492 0.9000 0.9000 0.9000 0.8990 0.8990
1938.376445 0.8990 0.8990 0.8970 0.8970 0.8960
1944.932399 0.8960 0.8960 0.8950 0.8950 0.8950
1951.488352 0.8930 0.8930 0.8930 0.8920 0.8920
1958.044306 0.8920 0.8920 0.8910 0.8900 0.8900
1964.600259 0.8900 0.8900 0.8900 0.8900 0.8900
1971.156213 0.8900 0.8880 0.8870 0.8860 0.8860
1977.712167 0.8860 0.8860 0.8840 0.8840 0.8840
1984.268120 0.8840 0.8830 0.8830 0.8830 0.8830
1990.824074 0.8830 0.8820 0.8820 0.8820 0.8800
1997.380027 0.8800 0.8800 0.8790 0.8780 0.8780
2003.935981 0.8780 0.8780 0.8780 0.8780 0.8780
2010.491935 0.8780 0.8780 0.8750 0.8750 0.8750
2017.047888 0.8750 0.8740 0.8740 0.8740 0.8740
2023.603842 0.8730 0.8730 0.8730 0.8730 0.8730
2030.159795 0.8711 0.8710 0.8710 0.8710 0.8700
2036.715749 0.8700 0.8700 0.8700 0.8700 0.8700
2043.271703 0.8700 0.8709 0.8710 0.8701 0.8700
2049.827656 0.8691 0.8690 0.8690 0.8690 0.8690
2056.383610 0.8690 0.8690 0.8690 0.8690 0.8690
2062.939563 0.8672 0.8661 0.8651 0.8650 0.8650
2069.495517 0.8659 0.8660 0.8669 0.8670 0.8661
2076.051471 0.8651 0.8632 0.8612 0.8583 0.8580
2082.607424 0.8580 0.8571 0.8570 0.8570 0.8570
2089.163378 0.8561 0.8560 0.8560 0.8560 0.8560
2095.719331 0.8560 0.8560 0.8543 0.8540 0.8540
2102.275285 0.8540 0.8540 0.8540 0.8540 0.8540
2108.831239 0.8557 0.8543 0.8531 0.8530 0.8522
2115.387192 0.8520 0.8520 0.8503 0.8500 0.8500
2121.943146 0.8500 0.8500 0.8492 0.8490 0.8490
2128.499099 0.8490 0.8490 0.8490 0.8482 0.8480
2135.055053 0.8480 0.8464 0.8460 0.8460 0.8460
2141.611007 0.8452 0.8442 0.8440 0.8440 0.8424
2148.166960 0.8420 0.8420 0.8412 0.8402 0.8392
2154.722914 0.8374 0.8370 0.8362 0.8360 0.8352
2161.278867 0.8350 0.8350 0.8334 0.8330 0.8330
2167.834821 0.8330 0.8330 0.8345 0.8350 0.8335
2174.390775 0.8330 0.8345 0.8350 0.8350 0.8335
2180.946728 0.8330 0.8330 0.8322 0.8320 0.8320
2187.502682 0.8320 0.8320 0.8320 0.8313 0.8295
2194.058635 0.8290 0.8283 0.8280 0.8280 0.8287
2200.614589 0.8290 0.8283 0.8280 0.8280 0.8273
2207.170542 0.8270 0.8270 0.8256 0.8250 0.8250
2213.726496 0.8250 0.8250 0.8243 0.8219 0.8189
2220.282450 0.8166 0.8153 0.8150 0.8143 0.8126
2226.838403 0.8113 0.8089 0.8066 0.8012 0.7976
2233.394357 0.7956 0.7936 0.7903 0.7815 0.7650
2239.950310 0.7549 0.7496 0.7298 0.6988 0.6659
2246.506264 0.5721 0.5004 0.4850 0.5097 0.6691
2253.062218 0.7649 0.7932 0.8158 0.8243 0.8250
2259.618171 0.8243 0.8234 0.8230 0.8230 0.8217
2266.174125 0.8210 0.8210 0.8204 0.8200 0.8200
2272.730078 0.8194 0.8190 0.8190 0.8190 0.8184
2279.286032 0.8180 0.8180 0.8180 0.8168 0.8160
2285.841986 0.8160 0.8160 0.8160 0.8160 0.8160
2292.397939 0.8160 0.8160 0.8160 0.8160 0.8160
2298.953893 0.8154 0.8150 0.8150 0.8144 0.8128
2305.509846 0.8108 0.8088 0.8074 0.8070 0.8064
2312.065800 0.8060 0.8060 0.8060 0.8060 0.8048
2318.621754 0.8040 0.8034 0.8030 0.8024 0.8014
2325.177707 0.8010 0.7999 0.7990 0.7984 0.7974
2331.733661 0.7970 0.7970 0.7976 0.7980 0.7985
2338.289614 0.7990 0.7990 0.8001 0.8010 0.8010
2344.845568 0.8010 0.8010 0.8010 0.8010 0.8010
2351.401522 0.8010 0.7999 0.7990 0.7990 0.7990
2357.957475 0.7985 0.7980 0.7980 0.7980 0.7975
2364.513429 0.7970 0.7970 0.7970 0.7975 0.7980
2371.069382 0.7980 0.7980 0.7980 0.7980 0.7980
2377.625336 0.7980 0.7980 0.7975 0.7970 0.7970
2384.181290 0.7970 0.7970 0.7960 0.7950 0.7950
2390.737243 0.7945 0.7940 0.7940 0.7935 0.7921
2397.293197 0.7905 0.7895 0.7890 0.7881 0.7870
2403.849150 0.7870 0.7865 0.7855 0.7850 0.7850
2410.405104 0.7845 0.7840 0.7840 0.7831 0.7820
2416.961058 0.7820 0.7816 0.7806 0.7800 0.7791
2423.517011 0.7780 0.7776 0.7770 0.7766 0.7751
2430.072965 0.7740 0.7736 0.7730 0.7726 0.7720
2436.628918 0.7720 0.7724 0.7734 0.7740 0.7740
2443.184872 0.7740 0.7748 0.7760 0.7760 0.7760
2449.740825 0.7764 0.7774 0.7780 0.7788 0.7800
2456.296779 0.7800 0.7800 0.7792 0.7780 0.7780
2462.852733 0.7780 0.7780 0.7780 0.7780 0.7780
2469.408686 0.7776 0.7770 0.7770 0.7766 0.7760
2475.964640 0.7760 0.7764 0.7770 0.7770 0.7774
2482.520593 0.7780 0.7780 0.7780 0.7776 0.7770
2489.076547 0.7760 0.7740 0.7737 0.7730 0.7730
2495.632501 0.7727 0.7710 0.7687 0.7677 0.7670
2502.188454 0.7670 0.7670 0.7670 0.7670 0.7670
2508.744408 0.7664 0.7647 0.7640 0.7640 0.7643
2515.300361 0.7659 0.7683 0.7690 0.7690 0.7690
2521.856315 0.7690 0.7690 0.7690 0.7690 0.7690
2528.412269 0.7690 0.7687 0.7680 0.7680 0.7677
2534.968222 0.7670 0.7670 0.7664 0.7656 0.7670
2541.524176 0.7670 0.7673 0.7680 0.7680 0.7677
2548.080129 0.7662 0.7640 0.7637 0.7630 0.7630
2554.636083 0.7625 0.7610 0.7607 0.7600 0.7592
2561.192037 0.7568 0.7558 0.7550 0.7552 0.7560
2567.747990 0.7560 0.7562 0.7570 0.7570 0.7570
2574.303944 0.7568 0.7558 0.7545 0.7528 0.7520
2580.859897 0.7518 0.7510 0.7510 0.7510 0.7508
2587.415851 0.7500 0.7500 0.7500 0.7500 0.7502
2593.971805 0.7510 0.7510 0.7512 0.7520 0.7520
2600.527758 0.7518 0.7510 0.7508 0.7494 0.7470
2607.083712 0.7468 0.7460 0.7460 0.7460 0.7456
2613.639665 0.7440 0.7440 0.7440 0.7438 0.7428
2620.195619 0.7417 0.7400 0.7400 0.7398 0.7390
2626.751573 0.7388 0.7380 0.7380 0.7380 0.7377
2633.307526 0.7358 0.7350 0.7350 0.7350 0.7350
2639.863480 0.7349 0.7340 0.7340 0.7340 0.7340
2646.419433 0.7336 0.7309 0.7299 0.7290 0.7287
2652.975387 0.7270 0.7269 0.7260 0.7260 0.7260
2659.531341 0.7260 0.7260 0.7259 0.7250 0.7250
2666.087294 0.7248 0.7230 0.7230 0.7229 0.7220
2672.643248 0.7220 0.7219 0.7210 0.7210 0.7207
2679.199201 0.7180 0.7179 0.7170 0.7170 0.7168
2685.755155 0.7150 0.7148 0.7130 0.7129 0.7120
2692.311108 0.7118 0.7099 0.7090 0.7089 0.7078
2698.867062 0.7049 0.7039 0.7019 0.7000 0.6999
2705.423016 0.6979 0.6969 0.6959 0.6949 0.6930
2711.978969 0.6929 0.6920 0.6920 0.6909 0.6890
2718.534923 0.6890 0.6880 0.6880 0.6880 0.6880
2725.090876 0.6880 0.6880 0.6870 0.6870 0.6870
2731.646830 0.6870 0.6870 0.6870 0.6870 0.6870
2738.202784 0.6870 0.6870 0.6850 0.6850 0.6840
2744.758737 0.6840 0.6840 0.6840 0.6840 0.6850
2751.314691 0.6850 0.6870 0.6880 0.6880 0.6890
2757.870644 0.6910 0.6920 0.6920 0.6930 0.6930
2764.426598 0.6930 0.6930 0.6950 0.6950 0.6950
2770.982552 0.6950 0.6950 0.6950 0.6950 0.6950
2777.538505 0.6931 0.6930 0.6930 0.6930 0.6930
2784.094459 0.6930 0.6920 0.6920 0.6920 0.6910
2790.650412 0.6910 0.6910 0.6891 0.6871 0.6851
2797.206366 0.6841 0.6840 0.6831 0.6830 0.6811
2803.762320 0.6810 0.6810 0.6810 0.6810 0.6810
2810.318273 0.6810 0.6810 0.6810 0.6810 0.6810
2816.874227 0.6810 0.6810 0.6810 0.6810 0.6801
2823.430180 0.6800 0.6791 0.6790 0.6781 0.6780
2829.986134 0.6762 0.6751 0.6741 0.6722 0.6720
2836.542088 0.6711 0.6710 0.6710 0.6710 0.6710
2843.098041 0.6719 0.6720 0.6720 0.6711 0.6710
2849.653995 0.6710 0.6710 0.6710 0.6701 0.6700
2856.209948 0.6683 0.6663 0.6643 0.6631 0.6630
2862.765902 0.6605 0.6600 0.6592 0.6573 0.6570
2869.321856 0.6570 0.6553 0.6542 0.6532 0.6513
2875.877809 0.6502 0.6500 0.6475 0.6462 0.6460
2882.433763 0.6452 0.6450 0.6425 0.6404 0.6384
2888.989716 0.6372 0.6346 0.6332 0.6322 0.6304
2895.545670 0.6284 0.6256 0.6242 0.6216 0.6178
2902.101624 0.6162 0.6160 0.6152 0.6118 0.6094
2908.657577 0.6074 0.6046 0.6032 0.6030 0.6022
2915.213531 0.6020 0.6004 0.5969 0.5929 0.5905
2921.769484 0.5877 0.5862 0.5852 0.5827 0.5797
2928.325438 0.5760 0.5682 0.5584 0.5469 0.5364
2934.881392 0.5257 0.5132 0.5002 0.4873 0.4840
2941.437345 0.5167 0.5495 0.5777 0.6020 0.6117
2947.993299 0.6145 0.6150 0.6135 0.6130 0.6130
2954.549252 0.6123 0.6113 0.6096 0.6076 0.6048
2961.105206 0.6011 0.6000 0.5971 0.5917 0.5943
2967.661159 0.5981 0.5990 0.5927 0.5851 0.5759
2974.217113 0.5667 0.5549 0.5461 0.5329 0.5190
2980.773067 0.5150 0.5288 0.5357 0.5367 0.5384
2987.329020 0.5417 0.5532 0.5648 0.5802 0.5928
2993.884974 0.6007 0.6050 0.6067 0.6070 0.6050
3000.440927 0.6040 0.6033 0.6023 0.6007 0.5993
3006.996881 0.5983 0.5967 0.5953 0.5943 0.5920
3013.552835 0.5904 0.5881 0.5857 0.5837 0.5817
3020.108788 0.5797 0.5777 0.5751 0.5734 0.5717
3026.664742 0.5697 0.5684 0.5667 0.5654 0.5644
3033.220695 0.5640 0.5628 0.5608 0.5575 0.5535
3039.776649 0.5502 0.5484 0.5480 0.5474 0.5458
3046.332603 0.5438 0.5418 0.5398 0.5378 0.5358
3052.888556 0.5344 0.5328 0.5314 0.5292 0.5268
3059.444510 0.5248 0.5228 0.5203 0.5178 0.5153
3066.000463 0.5134 0.5113 0.5083 0.5059 0.5033
3072.556417 0.5020 0.5009 0.4989 0.4969 0.4949
3079.112371 0.4934 0.4924 0.4920 0.4909 0.4894
3085.668324 0.4890 0.4874 0.4855 0.4834 0.4815
3092.224278 0.4805 0.4800 0.4784 0.4765 0.4755
3098.780231 0.4734 0.4704 0.4679 0.4649 0.4614
3105.336185 0.4589 0.4559 0.4524 0.4494 0.4470
3111.892139 0.4455 0.4435 0.4384 0.4324 0.4274
3118.448092 0.4224 0.4185 0.4150 0.4115 0.4085
3125.004046 0.4050 0.4020 0.4000 0.3970 0.3925
3131.559999 0.3880 0.3840 0.3791 0.3750 0.3721
3138.115953 0.3681 0.3646 0.3620 0.3600 0.3580
3144.671907 0.3551 0.3525 0.3501 0.3466 0.3436
3151.227860 0.3411 0.3395 0.3381 0.3365 0.3346
3157.783814 0.3321 0.3292 0.3261 0.3241 0.3230
3164.339767 0.3221 0.3201 0.3186 0.3167 0.3146
3170.895721 0.3127 0.3097 0.3076 0.3066 0.3051
3177.451675 0.3036 0.3026 0.3016 0.3002 0.2986
3184.007628 0.2980 0.2984 0.2998 0.3022 0.3052
3190.563582 0.3086 0.3122 0.3144 0.3166 0.3206
3197.119535 0.3246 0.3302 0.3374 0.3430 0.3476
3203.675489 0.3512 0.3542 0.3564 0.3574 0.3580
3210.231442 0.3580 0.3576 0.3570 0.3566 0.3560
3216.787396 0.3560 0.3553 0.3536 0.3526 0.3513
3223.343350 0.3485 0.3445 0.3413 0.3389 0.3363
3229.899303 0.3339 0.3316 0.3303 0.3286 0.3276
3236.455257 0.3263 0.3236 0.3189 0.3136 0.3107
3243.011210 0.3093 0.3077 0.3067 0.3053 0.3033
3249.567164 0.3017 0.3000 0.2980 0.2977 0.2970
3256.123118 0.2970 0.2970 0.2973 0.2980 0.2983
3262.679071 0.2996 0.3013 0.3023 0.3033 0.3046
3269.235025 0.3066 0.3086 0.3103 0.3110 0.3107
3275.790978 0.3094 0.3068 0.3031 0.2989 0.2920
3282.346932 0.2856 0.2803 0.2740 0.2673 0.2607
3288.902886 0.2527 0.2439 0.2340 0.2268 0.2185
3295.458839 0.2101 0.2028 0.1954 0.1894 0.1837
3302.014793 0.1789 0.1749 0.1717 0.1707 0.1700
3308.570746 0.1703 0.1713 0.1725 0.1752 0.1795
3315.126700 0.1825 0.1872 0.1897 0.1974 0.2072
3321.682654 0.2161 0.2249 0.2331 0.2425 0.2543
3328.238607 0.2687 0.2856 0.3042 0.3179 0.3309
3334.794561 0.3439 0.3566 0.3681 0.3784 0.3898
3341.350514 0.4030 0.4153 0.4208 0.4261 0.4356
3347.906468 0.4430 0.4480 0.4528 0.4566 0.4596
3354.462422 0.4622 0.4630 0.4628 0.4614 0.4584
3361.018375 0.4558 0.4548 0.4540 0.4536 0.4518
3367.574329 0.4503 0.4468 0.4458 0.4447 0.4427
3374.130282 0.4405 0.4378 0.4360 0.4302 0.4253
3380.686236 0.4214 0.4172 0.4122 0.4072 0.4025
3387.242190 0.3994 0.3951 0.3891 0.3831 0.3773
3393.798143 0.3720 0.3650 0.3580 0.3506 0.3411
3400.354097 0.3339 0.3258 0.3170 0.3089 0.2997
3406.910050 0.2899 0.2809 0.2719 0.2629 0.2539
3413.466004 0.2449 0.2350 0.2260 0.2170 0.2080
3420.021958 0.1990 0.1899 0.1801 0.1719 0.1710
3426.577911 0.1711 0.1722 0.1742 0.1762 0.1782
3433.133865 0.1803 0.1831 0.1840 0.1837 0.1808
3439.689818 0.1777 0.1735 0.1666 0.1614 0.1534
3446.245772 0.1454 0.1373 0.1272 0.1170 0.1174
3452.801725 0.1238 0.1367 0.1489 0.1829 0.2157
3459.357679 0.2302 0.2858 0.3196 0.3506 0.4021
3465.913633 0.4250 0.4468 0.4647 0.4816 0.4976
3472.469586 0.5115 0.5234 0.5353 0.5443 0.5522
3479.025540 0.5601 0.5651 0.5701 0.5742 0.5823
3485.581493 0.5941 0.6001 0.6041 0.6081 0.6121
3492.137447 0.6171 0.6230 0.6280 0.6330 0.6400
3498.693401 0.6450 0.6500 0.6540 0.6570 0.6570
3505.249354 0.6600 0.6630 0.6640 0.6670 0.6700
3511.805308 0.6700 0.6710 0.6720 0.6749 0.6760
3518.361261 0.6780 0.6799 0.6849 0.6879 0.6909
3524.917215 0.6910 0.6920 0.6920 0.6930 0.6930
3531.473169 0.6949 0.6960 0.6960 0.7008 0.7039
3538.029122 0.7050 0.7059 0.7060 0.7079 0.7080
3544.585076 0.7089 0.7099 0.7100 0.7119 0.7120
3551.141029 0.7129 0.7130 0.7139 0.7149 0.7150
3557.696983 0.7150 0.7150 0.7150 0.7168 0.7170
3564.252937 0.7170 0.7170 0.7170 0.7179 0.7189
3570.808890 0.7208 0.7219 0.7229 0.7230 0.7230
3577.364844 0.7230 0.7230 0.7230 0.7230 0.7230
3583.920797 0.7230 0.7248 0.7259 0.7260 0.7269
3590.476751 0.7288 0.7299 0.7309 0.7310 0.7319
3597.032705 0.7320 0.7337 0.7357 0.7377 0.7380
3603.588658 0.7380 0.7380 0.7363 0.7360 0.7377
3610.144612 0.7380 0.7389 0.7398 0.7417 0.7420
3616.700565 0.7428 0.7430 0.7430 0.7430 0.7430
3623.256519 0.7430 0.7430 0.7438 0.7440 0.7440
3629.812473 0.7457 0.7460 0.7468 0.7470 0.7470
3636.368426 0.7470 0.7470 0.7470 0.7470 0.7470
3642.924380 0.7470 0.7470 0.7470 0.7478 0.7480
3649.480333 0.7480 0.7480 0.7480 0.7480 0.7480
3656.036287 0.7480 0.7480 0.7472 0.7446 0.7440
3662.592241 0.7432 0.7430 0.7430 0.7430 0.7422
3669.148194 0.7420 0.7397 0.7359 0.7327 0.7305
3675.704148 0.7292 0.7298 0.7300 0.7315 0.7320
3682.260101 0.7335 0.7348 0.7350 0.7350 0.7358
3688.816055 0.7360 0.7360 0.7360 0.7375 0.7380
3695.372009 0.7380 0.7380 0.7380 0.7387 0.7397
3701.927962 0.7400 0.7400 0.7400 0.7393 0.7390
3708.483916 0.7368 0.7360 0.7360 0.7360 0.7353
3715.039869 0.7350 0.7350 0.7350 0.7350 0.7350
3721.595823 0.7357 0.7360 0.7360 0.7360 0.7360
3728.151776 0.7360 0.7353 0.7343 0.7340 0.7340
3734.707730 0.7326 0.7320 0.7320 0.7320 0.7320
3741.263684 0.7306 0.7293 0.7277 0.7270 0.7263
3747.819637 0.7260 0.7260 0.7287 0.7307 0.7310
3754.375591 0.7303 0.7300 0.7293 0.7277 0.7270
3760.931544 0.7263 0.7260 0.7260 0.7260 0.7254
3767.487498 0.7250 0.7250 0.7250 0.7250 0.7237
3774.043452 0.7230 0.7230 0.7224 0.7214 0.7197
3780.599405 0.7184 0.7180 0.7174 0.7170 0.7158
3787.155359 0.7150 0.7150 0.7150 0.7162 0.7170
3793.711312 0.7170 0.7170 0.7170 0.7158 0.7150
3800.267266 0.7150 0.7150 0.7150 0.7150 0.7150
3806.823220 0.7150 0.7150 0.7144 0.7140 0.7140
3813.379173 0.7140 0.7140 0.7140 0.7134 0.7124
3819.935127 0.7120 0.7109 0.7094 0.7090 0.7084
3826.491080 0.7069 0.7060 0.7060 0.7054 0.7050
3833.047034 0.7044 0.7040 0.7040 0.7029 0.7020
3839.602988 0.7020 0.7031 0.7040 0.7040 0.7040
3846.158941 0.7040 0.7040 0.7040 0.7045 0.7055
3852.714895 0.7060 0.7071 0.7080 0.7080 0.7080
3859.270848 0.7080 0.7080 0.7070 0.7060 0.7055
3865.826802 0.7050 0.7045 0.7040 0.7040 0.7040
3872.382756 0.7040 0.7040 0.7040 0.7040 0.7040
3878.938709 0.7040 0.7030 0.7020 0.7020 0.7020
3885.494663 0.7015 0.7010 0.7010 0.7010 0.7010
3892.050616 0.7005 0.7000 0.7000 0.7000 0.7000
3898.606570 0.6991 0.6980 0.6975 0.6965 0.6960
3905.162524 0.6955 0.6950 0.6950 0.6950 0.6950
3911.718477 0.6950 0.6941 0.6930 0.6926 0.6920
3918.274431 0.6920 0.6920 0.6920 0.6916 0.6910
3924.830384 0.6910 0.6910 0.6910 0.6910 0.6910
3931.386338 0.6910 0.6910 0.6902 0.6890 0.6890
3937.942292 0.6890 0.6886 0.6880 0.6876 0.6862
3944.498245 0.6846 0.6840 0.6844 0.6866 0.6890
3951.054199 0.6898 0.6910 0.6902 0.6890 0.6886
3957.610152 0.6880 0.6876 0.6870 0.6870 0.6862
3964.166106 0.6850 0.6850 0.6850 0.6846 0.6836
3970.722059 0.6822 0.6806 0.6800 0.6800 0.6800
3977.278013 0.6800 0.6800 0.6800 0.6800 0.6804
3983.833967 0.6810 0.6810 0.6810 0.6810 0.6810
3990.389920 0.6810 0.6807 0.6800 0.6800 0.6800
3996.945874 0.6800 0.6797 0.6790 0.6790
##END=
