##TITLE=[6H]THIAZOLO[5,4-d]PYRIMIDINE-7-THIONE, 5-AMINO-
##JCAMP-DX=4.24
##DATA TYPE=INFRARED SPECTRUM
##CLASS=COBLENTZ III
##ORIGIN=SOUTHERN RESEARCH INSTITUTE
##OWNER=COBLENTZ SOCIETY
Collection (C) 2018 copyright by the U.S. Secretary of Commerce
on behalf of the United States of America. All rights reserved.
##DATE=1968/04/15
##MOLFORM=C5 H4 N4 S
##SOURCE REFERENCE=COBLENTZ NO. 10413
##$NIST ID=B6010413
##$NIST SOURCE=COBLENTZ
##$NIST IMAGE=cob10413
##SPECTROMETER/DATA SYSTEM=PERKIN-ELMER 521 (GRATING)
##STATE=SOLID (1 mg / 500 mg KBr DISC)
##PATH LENGTH=
$$SPECTRAL CONTAMINATION DUE TO H2O AROUND 3420 CM^-^1
$$ PURITY - ANALYTICAL
##SAMPLING PROCEDURE=TRANSMISSION
##RESOLUTION=4
##DATA PROCESSING=DIGITIZED BY NIST FROM HARD COPY (FROM TWO SEGMENTS)
##XUNITS=1/CM
##YUNITS=TRANSMITTANCE
##XFACTOR=1.000000
##YFACTOR=1
##DELTAX=1.320902
##FIRSTX=255.089
##LASTX=3999.85
##FIRSTY=0.335
##MAXX=3999.85
##MINX=255.089
##MAXY=0.956
##MINY=0.0760065
##NPOINTS=2836
##XYDATA=(X++(Y..Y))
255.089000 0.3350 0.3520 0.3650 0.3680 0.3770
261.693511 0.3850 0.4029 0.4110 0.4199 0.4279
268.298023 0.4370 0.4470 0.4550 0.4640 0.4720
274.902534 0.4810 0.4860 0.5049 0.5189 0.5289
281.507045 0.5380 0.5480 0.5560 0.5640 0.5690
288.111557 0.5770 0.5850 0.5890 0.6039 0.6139
294.716068 0.6250 0.6310 0.6380 0.6430 0.6460
301.320580 0.6490 0.6510 0.6540 0.6550 0.6560
307.925091 0.6560 0.6560 0.6550 0.6510 0.6410
314.529602 0.6380 0.6290 0.6171 0.6090 0.5981
321.134114 0.5880 0.5870 0.5880 0.5940 0.6000
327.738625 0.6179 0.6469 0.7077 0.7319 0.7479
334.343136 0.7550 0.7650 0.7700 0.7740 0.7780
340.947648 0.7810 0.7820 0.7840 0.7880 0.7920
347.552159 0.7950 0.7960 0.8000 0.8030 0.8060
354.156670 0.8080 0.8110 0.8130 0.8160 0.8170
360.761182 0.8200 0.8210 0.8230 0.8240 0.8270
367.365693 0.8280 0.8290 0.8310 0.8320 0.8320
373.970205 0.8330 0.8330 0.8350 0.8350 0.8360
380.574716 0.8360 0.8360 0.8350 0.8350 0.8350
387.179227 0.8330 0.8330 0.8330 0.8330 0.8320
393.783739 0.8320 0.8320 0.8320 0.8320 0.8330
400.388250 0.8330 0.8330 0.8330 0.8330 0.8330
406.992761 0.8330 0.8320 0.8320 0.8320 0.8280
413.597273 0.8240 0.8200 0.8170 0.8160 0.8160
420.201784 0.8160 0.8170 0.8170 0.8200 0.8210
426.806295 0.8210 0.8210 0.8210 0.8210 0.8200
433.410807 0.8190 0.8160 0.8150 0.8110 0.8080
440.015318 0.8040 0.8000 0.7980 0.7960 0.7960
446.619830 0.7910 0.7860 0.7820 0.7780 0.7750
453.224341 0.7710 0.7670 0.7620 0.7570 0.7490
459.828852 0.7380 0.7251 0.7121 0.7041 0.6951
466.433364 0.6760 0.6460 0.5961 0.5930 0.5940
473.037875 0.6378 0.6589 0.7027 0.7010 0.6990
479.642386 0.6960 0.6820 0.6750 0.6670 0.6590
486.246898 0.6500 0.6430 0.6380 0.6330 0.6310
492.851409 0.6310 0.6330 0.6370 0.6430 0.6500
499.455920 0.6560 0.6719 0.6998 0.7129 0.7259
506.060432 0.7380 0.7500 0.7610 0.7710 0.7810
512.664943 0.7900 0.7980 0.8040 0.8070 0.8070
519.269455 0.7860 0.7460 0.7440 0.7440 0.7659
525.873966 0.7879 0.8079 0.8199 0.8369 0.8390
532.478477 0.8390 0.8370 0.8350 0.8250 0.7961
539.082989 0.7532 0.7042 0.6354 0.5655 0.5630
545.687500 0.5640 0.6099 0.7028 0.7788 0.7959
552.292011 0.7990 0.8040 0.8120 0.8209 0.8280
558.896523 0.8350 0.8430 0.8450 0.8460 0.8460
565.501034 0.8450 0.8450 0.8440 0.8390 0.8281
572.105545 0.8120 0.8020 0.7960 0.7950 0.7960
578.710057 0.8149 0.8240 0.8349 0.8439 0.8480
585.314568 0.8490 0.8500 0.8540 0.8560 0.8570
591.919079 0.8570 0.8560 0.8411 0.8370 0.8251
598.523591 0.8130 0.7870 0.7541 0.7440 0.7420
605.128102 0.7440 0.7987 0.8437 0.8450 0.8450
611.732614 0.8460 0.8460 0.8450 0.8450 0.8440
618.337125 0.8440 0.8430 0.8430 0.8430 0.8410
624.941636 0.8410 0.8410 0.8410 0.8400 0.8400
631.546148 0.8390 0.8390 0.8370 0.8350 0.8320
638.150659 0.8290 0.8270 0.8250 0.8240 0.8210
644.755170 0.8200 0.8150 0.8041 0.7901 0.7691
651.359682 0.7510 0.7200 0.7050 0.6890 0.6880
657.964193 0.7547 0.7789 0.7860 0.7880 0.7860
664.568704 0.7810 0.7750 0.7630 0.7530 0.7361
671.173216 0.7091 0.7010 0.6920 0.6701 0.6263
677.777727 0.6250 0.6260 0.6559 0.7159 0.7589
684.382239 0.7829 0.7910 0.7990 0.8099 0.8189
690.986750 0.8290 0.8360 0.8490 0.8520 0.8520
697.591261 0.8331 0.8310 0.8320 0.8439 0.8519
704.195773 0.8600 0.8680 0.8720 0.8750 0.8780
710.800284 0.8820 0.8830 0.8860 0.8870 0.8870
717.404795 0.8890 0.8890 0.8890 0.8890 0.8890
724.009307 0.8890 0.8870 0.8870 0.8850 0.8850
730.613818 0.8830 0.8640 0.8610 0.8600 0.8580
737.218329 0.8241 0.8071 0.6717 0.5348 0.5340
743.822841 0.7500 0.7990 0.8359 0.8619 0.8660
750.427352 0.8660 0.8660 0.8650 0.8650 0.8620
757.031864 0.8610 0.8600 0.8500 0.8440 0.8410
763.636375 0.8360 0.8290 0.8191 0.8110 0.7951
770.240886 0.7750 0.7510 0.7290 0.7090 0.7010
776.845398 0.6930 0.6920 0.7039 0.7318 0.7380
783.449909 0.7450 0.7580 0.7580 0.7570 0.7211
790.054420 0.6841 0.6452 0.6012 0.5583 0.4726
796.658932 0.4690 0.7658 0.7870 0.8080 0.8150
803.263443 0.8210 0.8230 0.8230 0.8230 0.8210
809.867954 0.8170 0.8110 0.8060 0.7990 0.7940
816.472466 0.7870 0.7780 0.7671 0.7541 0.7371
823.076977 0.7280 0.7200 0.7180 0.7200 0.7220
829.681489 0.7290 0.7409 0.7539 0.7669 0.7819
836.286000 0.7960 0.8110 0.8250 0.8390 0.8500
842.890511 0.8530 0.8560 0.8560 0.8540 0.8451
849.495023 0.8410 0.8390 0.8360 0.8330 0.8280
856.099534 0.8210 0.8081 0.7911 0.7652 0.7451
862.704045 0.7180 0.7160 0.7180 0.7380 0.7549
869.308557 0.7809 0.7939 0.8030 0.8080 0.8169
875.913068 0.8310 0.8320 0.8320 0.8290 0.8160
882.517579 0.8060 0.7960 0.7910 0.7821 0.7770
889.122091 0.7660 0.7550 0.7500 0.7380 0.7181
895.726602 0.7031 0.6871 0.5726 0.5312 0.4863
902.331114 0.4410 0.4100 0.3770 0.3101 0.3070
908.935625 0.4046 0.5026 0.5995 0.6557 0.6580
915.540136 0.6590 0.6600 0.7609 0.8478 0.8640
922.144648 0.8770 0.8850 0.8969 0.9010 0.9020
928.749159 0.9020 0.9020 0.9020 0.9010 0.9010
935.353670 0.8990 0.8990 0.8980 0.8970 0.8950
941.958182 0.8940 0.8930 0.8900 0.8900 0.8890
948.562693 0.8870 0.8860 0.8860 0.8850 0.8830
955.167204 0.8790 0.8780 0.8750 0.8720 0.8690
961.771716 0.8650 0.8610 0.8580 0.8560 0.8520
968.376227 0.8430 0.8360 0.8320 0.8240 0.8130
974.980739 0.7961 0.7860 0.7512 0.7301 0.7111
981.585250 0.7000 0.6880 0.6860 0.7080 0.7279
988.189761 0.7449 0.7669 0.8068 0.8319 0.8459
994.794273 0.8530 0.8530 0.8540 0.8540 0.8540
1001.398784 0.8540 0.8540 0.8530 0.8530 0.8530
1008.003295 0.8530 0.8520 0.8520 0.8520 0.8520
1014.607807 0.8520 0.8500 0.8500 0.8500 0.8500
1021.212318 0.8500 0.8500 0.8500 0.8500 0.8500
1027.816829 0.8490 0.8490 0.8480 0.8480 0.8480
1034.421341 0.8480 0.8480 0.8480 0.8480 0.8460
1041.025852 0.8450 0.8450 0.8450 0.8450 0.8450
1047.630364 0.8450 0.8440 0.8440 0.8440 0.8440
1054.234875 0.8440 0.8430 0.8430 0.8410 0.8390
1060.839386 0.8370 0.8360 0.8360 0.8350 0.8350
1067.443898 0.8320 0.8290 0.8270 0.8250 0.8230
1074.048409 0.8200 0.8190 0.8160 0.8130 0.8110
1080.652920 0.8080 0.8040 0.7990 0.7940 0.7870
1087.257432 0.7790 0.7690 0.7570 0.7480 0.7380
1093.861943 0.7300 0.7220 0.7160 0.7150 0.7160
1100.466454 0.7200 0.7250 0.7290 0.7320 0.7370
1107.070966 0.7420 0.7460 0.7510 0.7550 0.7580
1113.675477 0.7580 0.7610 0.7660 0.7670 0.7700
1120.279989 0.7700 0.7690 0.7630 0.7610 0.7580
1126.884500 0.7550 0.7500 0.7460 0.7410 0.7370
1133.489011 0.7300 0.7250 0.7170 0.7051 0.6961
1140.093523 0.6860 0.6630 0.6550 0.6390 0.6171
1146.698034 0.5831 0.5382 0.4773 0.4313 0.4280
1153.302545 0.4270 0.4760 0.5599 0.7077 0.7589
1159.907057 0.7979 0.8159 0.8518 0.8540 0.8540
1166.511568 0.8530 0.8520 0.8480 0.8440 0.8410
1173.116079 0.8390 0.8350 0.8290 0.8250 0.8230
1179.720591 0.8190 0.8150 0.8120 0.8070 0.8020
1186.325102 0.7940 0.7860 0.7770 0.7661 0.7541
1192.929613 0.7420 0.7300 0.7160 0.7080 0.6990
1199.534125 0.6761 0.6501 0.6172 0.5941 0.5801
1206.138636 0.5720 0.5650 0.5600 0.5510 0.5360
1212.743148 0.5111 0.4732 0.4441 0.4082 0.3911
1219.347659 0.3740 0.3720 0.3990 0.4719 0.5498
1225.952170 0.6267 0.7535 0.7868 0.8059 0.8169
1232.556682 0.8200 0.8210 0.8210 0.8200 0.8160
1239.161193 0.8110 0.8030 0.7950 0.7860 0.7840
1245.765704 0.7830 0.7740 0.7570 0.7320 0.7130
1252.370216 0.7070 0.6990 0.6801 0.6541 0.6133
1258.974727 0.5630 0.5270 0.4860 0.4471 0.4061
1265.579238 0.3651 0.3620 0.4725 0.5754 0.7638
1272.183750 0.8080 0.8280 0.8350 0.8360 0.8370
1278.788261 0.8390 0.8390 0.8370 0.8370 0.8360
1285.392773 0.8330 0.8290 0.8270 0.8210 0.8170
1291.997284 0.8120 0.8080 0.8040 0.8000 0.7960
1298.601795 0.7820 0.7690 0.7570 0.7440 0.7320
1305.206307 0.7180 0.7041 0.6960 0.6870 0.6681
1311.810818 0.6460 0.6200 0.5880 0.5421 0.5071
1318.415329 0.5050 0.5070 0.5617 0.6326 0.6578
1325.019841 0.7090 0.7300 0.7330 0.7330 0.7320
1331.624352 0.7300 0.7240 0.7091 0.7010 0.6921
1338.228863 0.6710 0.6430 0.6160 0.5691 0.5391
1344.833375 0.4842 0.4810 0.4820 0.5357 0.5917
1351.437886 0.6470 0.7120 0.7420 0.7670 0.7840
1358.042398 0.7960 0.8030 0.8070 0.8100 0.8110
1364.646909 0.8120 0.8130 0.8150 0.8150 0.8150
1371.251420 0.8130 0.8130 0.8120 0.8120 0.8110
1377.855932 0.8080 0.8070 0.8070 0.8060 0.8060
1384.460443 0.8040 0.8030 0.8020 0.7990 0.7950
1391.064954 0.7910 0.7870 0.7830 0.7780 0.7740
1397.669466 0.7710 0.7670 0.7630 0.7610 0.7580
1404.273977 0.7550 0.7530 0.7510 0.7500 0.7480
1410.878488 0.7440 0.7420 0.7380 0.7360 0.7300
1417.483000 0.7290 0.7250 0.7200 0.7160 0.7110
1424.087511 0.7080 0.7050 0.7040 0.7000 0.6960
1430.692023 0.6870 0.6780 0.6670 0.6580 0.6470
1437.296534 0.6370 0.6261 0.6170 0.6081 0.5981
1443.901045 0.5910 0.5760 0.5560 0.5460 0.5261
1450.505557 0.5061 0.4861 0.4671 0.4471 0.4261
1457.110068 0.4230 0.4240 0.4370 0.5149 0.5729
1463.714579 0.6219 0.6579 0.6590 0.6550 0.6083
1470.319091 0.5619 0.4890 0.4390 0.3991 0.3780
1476.923602 0.3571 0.3152 0.2334 0.2300 0.2320
1483.528113 0.2620 0.2910 0.3210 0.4058 0.4399
1490.132625 0.4639 0.5287 0.5837 0.6287 0.6528
1496.737136 0.6700 0.7110 0.7120 0.7120 0.7110
1503.341648 0.7090 0.7030 0.7000 0.6970 0.6910
1509.946159 0.6840 0.6790 0.6710 0.6630 0.6540
1516.550670 0.6450 0.6331 0.6181 0.6021 0.5712
1523.155182 0.5560 0.5440 0.5140 0.4731 0.4271
1529.759693 0.4031 0.3791 0.3352 0.3002 0.2811
1536.364204 0.2790 0.2670 0.2580 0.2480 0.2360
1542.968716 0.2250 0.2150 0.2051 0.2040 0.2050
1549.573227 0.2370 0.2700 0.2990 0.4227 0.4898
1556.177738 0.5249 0.5539 0.5829 0.5929 0.5930
1562.782250 0.5920 0.5890 0.5810 0.5710 0.5600
1569.386761 0.5500 0.5420 0.5360 0.5350 0.5340
1575.991273 0.5340 0.5340 0.5340 0.5340 0.5320
1582.595784 0.5300 0.5250 0.5180 0.5091 0.5001
1589.200295 0.4900 0.4630 0.4510 0.4320 0.4280
1595.804807 0.4240 0.3931 0.3602 0.3232 0.2862
1602.409318 0.2490 0.1381 0.1350 0.1380 0.1599
1609.013829 0.1819 0.2039 0.2299 0.2807 0.3158
1615.618341 0.3490 0.4360 0.4779 0.5209 0.5549
1622.222852 0.5640 0.5670 0.5670 0.5670 0.5690
1628.827363 0.5690 0.5690 0.5690 0.5680 0.5650
1635.431875 0.5620 0.5600 0.5590 0.5540 0.5500
1642.036386 0.5420 0.5350 0.5220 0.5050 0.4821
1648.640898 0.4571 0.4271 0.4111 0.3941 0.3582
1655.245409 0.3200 0.2810 0.2400 0.1971 0.1551
1661.849920 0.1121 0.1020 0.0930 0.0771 0.0760
1668.454432 0.1040 0.1090 0.1330 0.1719 0.2159
1675.058943 0.2489 0.2948 0.4104 0.4726 0.5306
1681.663454 0.5830 0.6240 0.6470 0.7119 0.7379
1688.267966 0.7619 0.7819 0.7979 0.8099 0.8189
1694.872477 0.8240 0.8250 0.8370 0.8460 0.8570
1701.476988 0.8660 0.8730 0.8770 0.8820 0.8860
1708.081500 0.8890 0.8940 0.8990 0.9060 0.9070
1714.686011 0.9120 0.9140 0.9150 0.9160 0.9160
1721.290523 0.9190 0.9200 0.9260 0.9270 0.9300
1727.895034 0.9300 0.9320 0.9340 0.9350 0.9360
1734.499545 0.9390 0.9430 0.9440 0.9450 0.9480
1741.104057 0.9510 0.9510 0.9490 0.9490 0.9470
1747.708568 0.9470 0.9450 0.9450 0.9450 0.9450
1754.313079 0.9470 0.9470 0.9480 0.9480 0.9490
1760.917591 0.9510 0.9510 0.9510 0.9520 0.9520
1767.522102 0.9530 0.9530 0.9550 0.9550 0.9550
1774.126613 0.9550 0.9560 0.9560 0.9560 0.9560
1780.731125 0.9560 0.9560 0.9560 0.9550 0.9550
1787.335636 0.9530 0.9530 0.9520 0.9510 0.9510
1793.940147 0.9490 0.9490 0.9480 0.9480 0.9470
1800.544659 0.9450 0.9450 0.9450 0.9450 0.9440
1807.149170 0.9440 0.9440 0.9440 0.9430 0.9430
1813.753682 0.9430 0.9430 0.9430 0.9430 0.9430
1820.358193 0.9430 0.9430 0.9430 0.9410 0.9410
1826.962704 0.9410 0.9410 0.9410 0.9410 0.9410
1833.567216 0.9410 0.9410 0.9400 0.9400 0.9400
1840.171727 0.9400 0.9400 0.9400 0.9390 0.9390
1846.776238 0.9390 0.9390 0.9390 0.9390 0.9370
1853.380750 0.9370 0.9370 0.9370 0.9370 0.9370
1859.985261 0.9360 0.9360 0.9360 0.9360 0.9360
1866.589772 0.9360 0.9350 0.9350 0.9350 0.9350
1873.194284 0.9350 0.9350 0.9350 0.9340 0.9340
1879.798795 0.9340 0.9320 0.9320 0.9320 0.9310
1886.403307 0.9300 0.9300 0.9300 0.9300 0.9300
1893.007818 0.9280 0.9280 0.9280 0.9280 0.9280
1899.612329 0.9270 0.9270 0.9270 0.9260 0.9260
1906.216841 0.9260 0.9260 0.9240 0.9240 0.9240
1912.821352 0.9240 0.9240 0.9240 0.9230 0.9230
1919.425863 0.9230 0.9230 0.9220 0.9220 0.9220
1926.030375 0.9220 0.9220 0.9200 0.9200 0.9200
1932.634886 0.9200 0.9200 0.9190 0.9190 0.9190
1939.239397 0.9180 0.9160 0.9140 0.9120 0.9120
1945.843909 0.9120 0.9110 0.9110 0.9100 0.9100
1952.448420 0.9080 0.9080 0.9080 0.9080 0.9080
1959.052932 0.9080 0.9100 0.9100 0.9100 0.9100
1965.657443 0.9100 0.9100 0.9100 0.9100 0.9100
1972.261954 0.9080 0.9080 0.9080 0.9080 0.9080
1978.866466 0.9080 0.9080 0.9080 0.9080 0.9080
1985.470977 0.9080 0.9080 0.9080 0.9100 0.9100
1992.075488 0.9100 0.9100 0.9110 0.9110 0.9110
1998.680000 0.9120 0.9120 0.9140 0.9140 0.9120
2005.284511 0.9120 0.9110 0.9110 0.9110 0.9110
2011.889022 0.9110 0.9100 0.9100 0.9100 0.9100
2018.493534 0.9081 0.9080 0.9080 0.9080 0.9071
2025.098045 0.9070 0.9061 0.9060 0.9060 0.9051
2031.702557 0.9050 0.9050 0.9032 0.9030 0.9030
2038.307068 0.9030 0.9030 0.9030 0.9021 0.9020
2044.911579 0.9020 0.9020 0.9020 0.9020 0.9020
2051.516091 0.9012 0.9010 0.9010 0.9010 0.9010
2058.120602 0.9010 0.9010 0.9010 0.9010 0.9010
2064.725113 0.9010 0.9010 0.8994 0.8990 0.8990
2071.329625 0.8990 0.8990 0.8990 0.8990 0.8990
2077.934136 0.8990 0.8982 0.8980 0.8980 0.8980
2084.538647 0.8980 0.8973 0.8970 0.8970 0.8970
2091.143159 0.8956 0.8950 0.8950 0.8950 0.8943
2097.747670 0.8940 0.8940 0.8933 0.8930 0.8916
2104.352182 0.8910 0.8903 0.8900 0.8900 0.8900
2110.956693 0.8900 0.8893 0.8890 0.8890 0.8890
2117.561204 0.8890 0.8890 0.8890 0.8890 0.8890
2124.165716 0.8890 0.8890 0.8890 0.8890 0.8890
2130.770227 0.8890 0.8890 0.8890 0.8890 0.8890
2137.374738 0.8890 0.8890 0.8879 0.8870 0.8870
2143.979250 0.8870 0.8870 0.8864 0.8860 0.8860
2150.583761 0.8860 0.8860 0.8855 0.8850 0.8850
2157.188272 0.8850 0.8850 0.8850 0.8850 0.8850
2163.792784 0.8850 0.8850 0.8850 0.8850 0.8850
2170.397295 0.8841 0.8830 0.8830 0.8830 0.8830
2177.001807 0.8830 0.8825 0.8820 0.8820 0.8816
2183.606318 0.8810 0.8810 0.8810 0.8810 0.8810
2190.210829 0.8810 0.8810 0.8810 0.8810 0.8810
2196.815341 0.8810 0.8802 0.8790 0.8790 0.8790
2203.419852 0.8790 0.8790 0.8790 0.8790 0.8790
2210.024363 0.8790 0.8790 0.8787 0.8780 0.8780
2216.628875 0.8780 0.8780 0.8780 0.8780 0.8780
2223.233386 0.8780 0.8780 0.8780 0.8780 0.8780
2229.837897 0.8780 0.8777 0.8770 0.8770 0.8770
2236.442409 0.8765 0.8750 0.8750 0.8750 0.8750
2243.046920 0.8750 0.8750 0.8748 0.8740 0.8740
2249.651432 0.8740 0.8738 0.8730 0.8730 0.8730
2256.255943 0.8730 0.8730 0.8730 0.8732 0.8740
2262.860454 0.8740 0.8740 0.8740 0.8740 0.8740
2269.464966 0.8742 0.8750 0.8750 0.8750 0.8750
2276.069477 0.8750 0.8750 0.8750 0.8750 0.8750
2282.673988 0.8750 0.8750 0.8750 0.8749 0.8740
2289.278500 0.8740 0.8739 0.8730 0.8730 0.8729
2295.883011 0.8718 0.8699 0.8690 0.8689 0.8680
2302.487522 0.8680 0.8680 0.8679 0.8660 0.8660
2309.092034 0.8659 0.8650 0.8650 0.8640 0.8639
2315.696545 0.8620 0.8620 0.8620 0.8610 0.8610
2322.301056 0.8600 0.8600 0.8600 0.8580 0.8580
2328.905568 0.8580 0.8580 0.8580 0.8580 0.8600
2335.510079 0.8600 0.8600 0.8581 0.8580 0.8580
2342.114591 0.8580 0.8580 0.8580 0.8580 0.8580
2348.719102 0.8580 0.8580 0.8580 0.8571 0.8570
2355.323613 0.8570 0.8570 0.8570 0.8570 0.8570
2361.928125 0.8570 0.8570 0.8570 0.8570 0.8570
2368.532636 0.8579 0.8571 0.8570 0.8570 0.8570
2375.137147 0.8570 0.8570 0.8578 0.8580 0.8580
2381.741659 0.8580 0.8580 0.8580 0.8580 0.8580
2388.346170 0.8572 0.8570 0.8562 0.8560 0.8560
2394.950681 0.8560 0.8560 0.8544 0.8540 0.8540
2401.555193 0.8532 0.8530 0.8530 0.8507 0.8500
2408.159704 0.8500 0.8493 0.8490 0.8490 0.8490
2414.764216 0.8490 0.8490 0.8490 0.8490 0.8490
2421.368727 0.8490 0.8490 0.8490 0.8490 0.8490
2427.973238 0.8483 0.8466 0.8460 0.8460 0.8460
2434.577750 0.8460 0.8460 0.8460 0.8453 0.8450
2441.182261 0.8450 0.8450 0.8450 0.8450 0.8450
2447.786772 0.8450 0.8450 0.8444 0.8440 0.8440
2454.391284 0.8434 0.8430 0.8430 0.8418 0.8410
2460.995795 0.8404 0.8394 0.8390 0.8390 0.8379
2467.600306 0.8370 0.8370 0.8364 0.8360 0.8355
2474.204818 0.8350 0.8339 0.8330 0.8330 0.8325
2480.809329 0.8320 0.8315 0.8310 0.8310 0.8310
2487.413841 0.8310 0.8310 0.8310 0.8310 0.8300
2494.018352 0.8290 0.8290 0.8290 0.8290 0.8290
2500.622863 0.8290 0.8285 0.8280 0.8280 0.8280
2507.227375 0.8280 0.8280 0.8280 0.8280 0.8276
2513.831886 0.8270 0.8270 0.8270 0.8270 0.8270
2520.436397 0.8270 0.8270 0.8270 0.8262 0.8250
2527.040909 0.8250 0.8250 0.8250 0.8250 0.8250
2533.645420 0.8250 0.8246 0.8240 0.8236 0.8230
2540.249931 0.8230 0.8223 0.8210 0.8207 0.8200
2546.854443 0.8200 0.8197 0.8190 0.8184 0.8170
2553.458954 0.8170 0.8170 0.8167 0.8160 0.8160
2560.063466 0.8160 0.8157 0.8150 0.8150 0.8150
2566.667977 0.8145 0.8130 0.8127 0.8120 0.8117
2573.272488 0.8110 0.8108 0.8100 0.8100 0.8095
2579.877000 0.8078 0.8068 0.8060 0.8056 0.8040
2586.481511 0.8038 0.8030 0.8028 0.8020 0.8016
2593.086022 0.7998 0.7990 0.7988 0.7980 0.7980
2599.690534 0.7977 0.7960 0.7960 0.7960 0.7960
2606.295045 0.7960 0.7960 0.7960 0.7959 0.7950
2612.899556 0.7950 0.7950 0.7950 0.7950 0.7950
2619.504068 0.7950 0.7950 0.7949 0.7940 0.7940
2626.108579 0.7938 0.7919 0.7909 0.7899 0.7879
2632.713091 0.7858 0.7830 0.7829 0.7819 0.7809
2639.317602 0.7790 0.7790 0.7780 0.7780 0.7770
2645.922113 0.7770 0.7750 0.7740 0.7740 0.7730
2652.526625 0.7730 0.7710 0.7710 0.7700 0.7700
2659.131136 0.7690 0.7690 0.7671 0.7670 0.7670
2665.735647 0.7670 0.7670 0.7660 0.7660 0.7651
2672.340159 0.7650 0.7622 0.7611 0.7573 0.7551
2678.944670 0.7550 0.7541 0.7531 0.7530 0.7530
2685.549181 0.7530 0.7512 0.7510 0.7510 0.7501
2692.153693 0.7500 0.7500 0.7491 0.7490 0.7490
2698.758204 0.7481 0.7480 0.7480 0.7463 0.7452
2705.362716 0.7442 0.7440 0.7423 0.7412 0.7402
2711.967227 0.7400 0.7384 0.7372 0.7362 0.7336
2718.571738 0.7306 0.7292 0.7282 0.7248 0.7193
2725.176250 0.7172 0.7162 0.7129 0.7097 0.7075
2731.780761 0.7040 0.7015 0.6995 0.6968 0.6953
2738.385272 0.6935 0.6923 0.6920 0.6920 0.6920
2744.989784 0.6927 0.6944 0.6950 0.6964 0.6998
2751.594295 0.7024 0.7044 0.7064 0.7070 0.7077
2758.198806 0.7080 0.7087 0.7090 0.7090 0.7090
2764.803318 0.7103 0.7110 0.7110 0.7110 0.7110
2771.407829 0.7110 0.7110 0.7110 0.7110 0.7098
2778.012341 0.7090 0.7084 0.7080 0.7074 0.7070
2784.616852 0.7058 0.7044 0.7034 0.7018 0.7004
2791.221363 0.7000 0.6994 0.6990 0.6979 0.6959
2797.825875 0.6950 0.6939 0.6925 0.6915 0.6894
2804.430386 0.6875 0.6865 0.6860 0.6849 0.6840
2811.034897 0.6835 0.6830 0.6825 0.6820 0.6810
2817.639409 0.6800 0.6795 0.6790 0.6785 0.6770
2824.243920 0.6755 0.6745 0.6726 0.6705 0.6691
2830.848431 0.6680 0.6671 0.6651 0.6636 0.6630
2837.452943 0.6626 0.6611 0.6583 0.6539 0.6506
2844.057454 0.6488 0.6466 0.6460 0.6456 0.6438
2850.661966 0.6400 0.6354 0.6330 0.6322 0.6306
2857.266477 0.6296 0.6290 0.6283 0.6270 0.6270
2863.870988 0.6270 0.6266 0.6260 0.6260 0.6260
2870.475500 0.6257 0.6247 0.6234 0.6220 0.6220
2877.080011 0.6217 0.6207 0.6191 0.6167 0.6154
2883.684522 0.6140 0.6134 0.6114 0.6097 0.6087
2890.289034 0.6072 0.6042 0.6017 0.6002 0.5975
2896.893545 0.5952 0.5915 0.5855 0.5805 0.5783
2903.498056 0.5758 0.5745 0.5725 0.5706 0.5679
2910.102568 0.5636 0.5616 0.5598 0.5590 0.5592
2916.707079 0.5600 0.5604 0.5622 0.5632 0.5642
2923.311590 0.5653 0.5672 0.5682 0.5693 0.5712
2929.916102 0.5722 0.5735 0.5761 0.5773 0.5790
2936.520613 0.5790 0.5791 0.5800 0.5799 0.5788
2943.125125 0.5768 0.5747 0.5720 0.5717 0.5688
2949.729636 0.5667 0.5637 0.5598 0.5578 0.5548
2956.334147 0.5519 0.5508 0.5479 0.5459 0.5439
2962.938659 0.5419 0.5399 0.5379 0.5349 0.5320
2969.543170 0.5309 0.5289 0.5249 0.5219 0.5190
2976.147681 0.5180 0.5170 0.5110 0.5090 0.5070
2982.752193 0.5050 0.5030 0.5020 0.5010 0.5010
2989.356704 0.5010 0.5020 0.5030 0.5030 0.5030
2995.961215 0.5049 0.5050 0.5050 0.5050 0.5050
3002.565727 0.5050 0.5050 0.5050 0.5050 0.5050
3009.170238 0.5032 0.5030 0.5021 0.5020 0.5011
3015.774750 0.5010 0.4983 0.4962 0.4934 0.4904
3022.379261 0.4883 0.4863 0.4843 0.4814 0.4801
3028.983772 0.4783 0.4780 0.4772 0.4770 0.4762
3035.588284 0.4685 0.4612 0.4567 0.4527 0.4455
3042.192795 0.4367 0.4286 0.4206 0.4079 0.3907
3048.797306 0.3727 0.3485 0.3414 0.3433 0.3510
3055.401818 0.3615 0.3755 0.4010 0.4163 0.4213
3062.006329 0.4228 0.4223 0.4205 0.4193 0.4183
3068.610840 0.4158 0.4128 0.4113 0.4110 0.4103
3075.215352 0.4086 0.4073 0.4063 0.4032 0.4013
3081.819863 0.3996 0.3990 0.3983 0.3973 0.3970
3088.424375 0.3957 0.3937 0.3904 0.3877 0.3857
3095.028886 0.3837 0.3817 0.3797 0.3758 0.3702
3101.633397 0.3636 0.3579 0.3516 0.3459 0.3391
3108.237909 0.3317 0.3242 0.3120 0.2977 0.2867
3114.842420 0.2783 0.2715 0.2649 0.2580 0.2464
3121.446931 0.2321 0.2209 0.2137 0.2088 0.2053
3128.051443 0.2034 0.2019 0.2010 0.2021 0.2030
3134.655954 0.2035 0.2040 0.2056 0.2075 0.2085
3141.260465 0.2105 0.2135 0.2160 0.2185 0.2225
3147.864977 0.2304 0.2399 0.2473 0.2543 0.2613
3154.469488 0.2673 0.2742 0.2827 0.2911 0.2996
3161.074000 0.3080 0.3174 0.3269 0.3359 0.3449
3167.678511 0.3543 0.3638 0.3724 0.3803 0.3907
3174.283022 0.4014 0.4070 0.4120 0.4166 0.4202
3180.887534 0.4224 0.4242 0.4275 0.4315 0.4344
3187.492045 0.4357 0.4377 0.4397 0.4417 0.4437
3194.096556 0.4457 0.4477 0.4497 0.4517 0.4540
3200.701068 0.4570 0.4593 0.4603 0.4616 0.4630
3207.305579 0.4633 0.4643 0.4650 0.4650 0.4650
3213.910090 0.4650 0.4650 0.4650 0.4647 0.4640
3220.514602 0.4637 0.4625 0.4607 0.4600 0.4598
3227.119113 0.4590 0.4590 0.4590 0.4585 0.4570
3233.723625 0.4570 0.4570 0.4568 0.4560 0.4554
3240.328136 0.4526 0.4504 0.4474 0.4446 0.4424
3246.932647 0.4394 0.4366 0.4345 0.4317 0.4295
3253.537159 0.4263 0.4225 0.4192 0.4144 0.4103
3260.141670 0.4053 0.4006 0.3976 0.3939 0.3869
3266.746181 0.3855 0.3812 0.3742 0.3672 0.3603
3273.350693 0.3536 0.3498 0.3476 0.3432 0.3340
3279.955204 0.3230 0.3112 0.3013 0.2912 0.2804
3286.559715 0.2706 0.2648 0.2608 0.2579 0.2570
3293.164227 0.2570 0.2580 0.2591 0.2611 0.2632
3299.768738 0.2711 0.2741 0.2811 0.2860 0.2881
3306.373250 0.3000 0.3130 0.3249 0.3369 0.3478
3312.977761 0.3579 0.3678 0.3778 0.3867 0.4063
3319.582272 0.4157 0.4256 0.4355 0.4445 0.4544
3326.186784 0.4644 0.4735 0.4843 0.4952 0.5053
3332.791295 0.5134 0.5222 0.5339 0.5450 0.5568
3339.395806 0.5670 0.5779 0.5844 0.5877 0.5907
3346.000318 0.5963 0.6049 0.6130 0.6166 0.6205
3352.604829 0.6219 0.6246 0.6259 0.6285 0.6298
3359.209340 0.6300 0.6308 0.6327 0.6330 0.6330
3365.813852 0.6330 0.6330 0.6330 0.6330 0.6330
3372.418363 0.6330 0.6314 0.6310 0.6310 0.6310
3379.022875 0.6310 0.6310 0.6302 0.6300 0.6292
3385.627386 0.6290 0.6290 0.6275 0.6270 0.6263
3392.231897 0.6260 0.6260 0.6260 0.6253 0.6250
3398.836409 0.6250 0.6250 0.6243 0.6240 0.6240
3405.440920 0.6240 0.6240 0.6240 0.6240 0.6240
3412.045431 0.6240 0.6240 0.6240 0.6247 0.6250
3418.649943 0.6250 0.6250 0.6250 0.6250 0.6250
3425.254454 0.6256 0.6260 0.6260 0.6260 0.6260
3431.858965 0.6260 0.6260 0.6266 0.6270 0.6282
3438.463477 0.6290 0.6290 0.6302 0.6310 0.6322
3445.067988 0.6336 0.6340 0.6346 0.6350 0.6361
3451.672500 0.6370 0.6376 0.6385 0.6401 0.6410
3458.277011 0.6415 0.6425 0.6441 0.6450 0.6455
3464.881522 0.6465 0.6480 0.6495 0.6505 0.6520
3471.486034 0.6530 0.6535 0.6540 0.6540 0.6545
3478.090545 0.6550 0.6550 0.6550 0.6550 0.6555
3484.695056 0.6560 0.6569 0.6585 0.6594 0.6613
3491.299568 0.6634 0.6640 0.6649 0.6660 0.6668
3497.904079 0.6688 0.6700 0.6704 0.6714 0.6720
3504.508590 0.6728 0.6744 0.6750 0.6754 0.6768
3511.113102 0.6788 0.6800 0.6807 0.6824 0.6841
3517.717613 0.6871 0.6897 0.6913 0.6920 0.6923
3524.322124 0.6937 0.6953 0.6960 0.6963 0.6970
3530.926636 0.6979 0.7012 0.7043 0.7059 0.7080
3537.531147 0.7089 0.7116 0.7136 0.7153 0.7166
3544.135659 0.7186 0.7203 0.7218 0.7243 0.7250
3550.740170 0.7253 0.7265 0.7280 0.7285 0.7305
3557.344681 0.7322 0.7332 0.7345 0.7364 0.7386
3563.949193 0.7412 0.7424 0.7442 0.7450 0.7452
3570.553704 0.7460 0.7464 0.7482 0.7494 0.7514
3577.158215 0.7532 0.7545 0.7570 0.7570 0.7570
3583.762727 0.7572 0.7580 0.7581 0.7593 0.7613
3590.367238 0.7634 0.7661 0.7673 0.7691 0.7701
3596.971749 0.7712 0.7732 0.7753 0.7781 0.7792
3603.576261 0.7810 0.7811 0.7821 0.7831 0.7842
3610.180772 0.7861 0.7881 0.7901 0.7911 0.7921
3616.785284 0.7940 0.7941 0.7950 0.7950 0.7960
3623.389795 0.7961 0.7980 0.7990 0.8000 0.8000
3629.994306 0.8030 0.8030 0.8030 0.8030 0.8030
3636.598818 0.8040 0.8040 0.8040 0.8040 0.8040
3643.203329 0.8040 0.8040 0.8040 0.8040 0.8040
3649.807840 0.8040 0.8040 0.8031 0.8030 0.8030
3656.412352 0.8030 0.8030 0.8021 0.8020 0.8002
3663.016863 0.8000 0.8000 0.7991 0.7990 0.7990
3669.621374 0.7990 0.7999 0.8000 0.8000 0.8000
3676.225886 0.8017 0.8020 0.8029 0.8030 0.8030
3682.830397 0.8030 0.8038 0.8040 0.8057 0.8060
3689.434909 0.8068 0.8070 0.8070 0.8078 0.8080
3696.039420 0.8080 0.8080 0.8080 0.8080 0.8080
3702.643931 0.8080 0.8080 0.8080 0.8080 0.8072
3709.248443 0.8070 0.8070 0.8070 0.8070 0.8062
3715.852954 0.8060 0.8060 0.8060 0.8060 0.8060
3722.457465 0.8060 0.8060 0.8060 0.8060 0.8060
3729.061977 0.8060 0.8060 0.8060 0.8046 0.8040
3735.666488 0.8040 0.8040 0.8040 0.8040 0.8040
3742.270999 0.8040 0.8040 0.8040 0.8040 0.8040
3748.875511 0.8034 0.8030 0.8030 0.8030 0.8024
3755.480022 0.8020 0.8020 0.8020 0.8020 0.8008
3762.084534 0.8000 0.8000 0.8000 0.8000 0.8000
3768.689045 0.8000 0.8000 0.8000 0.8000 0.8000
3775.293556 0.7994 0.7990 0.7990 0.7990 0.7990
3781.898068 0.7990 0.7990 0.7990 0.7990 0.7985
3788.502579 0.7980 0.7980 0.7980 0.7970 0.7960
3795.107090 0.7960 0.7955 0.7950 0.7950 0.7945
3801.711602 0.7940 0.7940 0.7930 0.7920 0.7920
3808.316113 0.7915 0.7910 0.7905 0.7900 0.7891
3814.920624 0.7876 0.7870 0.7866 0.7860 0.7851
3821.525136 0.7840 0.7840 0.7840 0.7840 0.7840
3828.129647 0.7840 0.7848 0.7860 0.7864 0.7870
3834.734159 0.7870 0.7874 0.7880 0.7880 0.7887
3841.338670 0.7900 0.7900 0.7900 0.7900 0.7900
3847.943181 0.7900 0.7900 0.7900 0.7900 0.7900
3854.547693 0.7894 0.7880 0.7880 0.7880 0.7880
3861.152204 0.7877 0.7870 0.7867 0.7860 0.7854
3867.756715 0.7840 0.7837 0.7830 0.7830 0.7830
3874.361227 0.7830 0.7830 0.7830 0.7830 0.7830
3880.965738 0.7830 0.7828 0.7820 0.7820 0.7820
3887.570249 0.7820 0.7820 0.7820 0.7820 0.7820
3894.174761 0.7820 0.7820 0.7820 0.7820 0.7818
3900.779272 0.7810 0.7810 0.7810 0.7810 0.7810
3907.383784 0.7807 0.7790 0.7790 0.7790 0.7790
3913.988295 0.7790 0.7790 0.7790 0.7790 0.7790
3920.592806 0.7789 0.7780 0.7780 0.7780 0.7780
3927.197318 0.7780 0.7780 0.7780 0.7780 0.7780
3933.801829 0.7780 0.7779 0.7770 0.7770 0.7770
3940.406340 0.7770 0.7770 0.7770 0.7770 0.7770
3947.010852 0.7770 0.7770 0.7769 0.7750 0.7750
3953.615363 0.7750 0.7750 0.7750 0.7750 0.7750
3960.219874 0.7740 0.7740 0.7740 0.7740 0.7740
3966.824386 0.7740 0.7730 0.7730 0.7730 0.7730
3973.428897 0.7730 0.7730 0.7730 0.7730 0.7730
3980.033409 0.7730 0.7730 0.7730 0.7730 0.7730
3986.637920 0.7730 0.7730 0.7730 0.7730 0.7730
3993.242431 0.7730 0.7730 0.7730 0.7730 0.7730
3999.846943 0.7730
##END=
