##TITLE=ETHYLTHIOSULFURIC ACID, 2-[(1,7,7-TRIMETHYLBICYCLO[2.2.1.]HEPT-2-YL)-AMINO]-
##JCAMP-DX=4.24
##DATA TYPE=INFRARED SPECTRUM
##CLASS=COBLENTZ III
##ORIGIN=SOUTHERN RESEARCH INSTITUTE
##OWNER=COBLENTZ SOCIETY
Collection (C) 2018 copyright by the U.S. Secretary of Commerce
on behalf of the United States of America. All rights reserved.
##DATE=1966/09/18
##NAMES=S-(2-[(1,7,7-trimethylbicyclo[2.2.1]hept-2-yl)amino]ethyl) hydrogen thiosulfate
##MOLFORM=C12 H23 N O3 S2
##SOURCE REFERENCE=COBLENTZ NO. 10459
##$NIST ID=B6010459
##$NIST SOURCE=COBLENTZ
##$NIST IMAGE=cob10459
##SPECTROMETER/DATA SYSTEM=PERKIN-ELMER 521 (GRATING)
##INSTRUMENT PARAMETERS=GRATING FOR 2000, 620, FILTERS AT 3130, 2475, 2000, 1150, 700, 410 CM^-^1
##STATE=SOLID (1 mg / 650 mg KBr DISC)
##PATH LENGTH=
$$ PURITY - ANALYTICAL
$$SPECTRAL CONTAMINATION DUE TO H2O AROUND 3430 CM^-^1
##SAMPLING PROCEDURE=TRANSMISSION
##RESOLUTION=4
##DATA PROCESSING=DIGITIZED BY NIST FROM HARD COPY (FROM TWO SEGMENTS)
##XUNITS=1/CM
##YUNITS=TRANSMITTANCE
##XFACTOR=1.000000
##YFACTOR=1
##DELTAX=1.320755
##FIRSTX=250
##LASTX=3808.11
##FIRSTY=0.19
##MAXX=3808.11
##MINX=250
##MAXY=0.912
##MINY=0.0721009
##NPOINTS=2695
##XYDATA=(X++(Y..Y))
250.000000 0.1900 0.2079 0.2110 0.2169 0.2199
256.603775 0.2229 0.2269 0.2309 0.2358 0.2437
263.207550 0.2517 0.2597 0.2657 0.2764 0.2855
269.811325 0.2982 0.3102 0.3166 0.3235 0.3332
276.415100 0.3469 0.3581 0.3700 0.3792 0.3873
283.018875 0.3934 0.4012 0.4083 0.4161 0.4214
289.622650 0.4247 0.4259 0.4304 0.4397 0.4462
296.226425 0.4539 0.4584 0.4624 0.4639 0.4665
302.830200 0.4695 0.4776 0.4849 0.4902 0.4952
309.433975 0.5001 0.5043 0.5083 0.5114 0.5144
316.037750 0.5166 0.5218 0.5270 0.5320 0.5386
322.641525 0.5503 0.5554 0.5576 0.5603 0.5641
329.245300 0.5689 0.5708 0.5725 0.5730 0.5715
335.849075 0.5695 0.5660 0.5643 0.5640 0.5647
342.452850 0.5687 0.5788 0.5900 0.5959 0.6027
349.056625 0.6086 0.6143 0.6237 0.6347 0.6456
355.660400 0.6567 0.6635 0.6671 0.6701 0.6724
362.264175 0.6757 0.6797 0.6843 0.6880 0.6897
368.867950 0.6900 0.6913 0.6927 0.6930 0.6930
375.471725 0.6930 0.6930 0.6924 0.6895 0.6861
382.075500 0.6831 0.6814 0.6804 0.6806 0.6828
388.679275 0.6864 0.6904 0.6926 0.6936 0.6940
395.283050 0.6940 0.6963 0.7003 0.7031 0.7046
401.886825 0.7056 0.7077 0.7112 0.7152 0.7197
408.490600 0.7236 0.7277 0.7316 0.7351 0.7381
415.094375 0.7406 0.7425 0.7445 0.7460 0.7465
421.698150 0.7480 0.7490 0.7490 0.7480 0.7431
428.301925 0.7370 0.7331 0.7305 0.7295 0.7295
434.905700 0.7319 0.7359 0.7403 0.7462 0.7518
441.509475 0.7545 0.7554 0.7560 0.7556 0.7546
448.113250 0.7531 0.7511 0.7496 0.7482 0.7478
454.717025 0.7494 0.7508 0.7528 0.7544 0.7550
461.320800 0.7550 0.7538 0.7520 0.7535 0.7590
467.924575 0.7662 0.7704 0.7714 0.7720 0.7720
474.528350 0.7720 0.7720 0.7720 0.7720 0.7720
481.132125 0.7720 0.7717 0.7707 0.7694 0.7680
487.735900 0.7677 0.7667 0.7654 0.7637 0.7618
494.339675 0.7581 0.7554 0.7531 0.7507 0.7500
500.943450 0.7497 0.7490 0.7479 0.7439 0.7402
507.547225 0.7370 0.7327 0.7272 0.7198 0.7101
514.151000 0.6969 0.6801 0.6644 0.6509 0.6431
520.754775 0.6373 0.6225 0.5974 0.5743 0.5609
527.358550 0.5379 0.4903 0.4760 0.4772 0.4830
533.962325 0.4903 0.5075 0.5204 0.5322 0.5607
540.566100 0.5833 0.6081 0.6266 0.6408 0.6453
547.169875 0.6471 0.6481 0.6500 0.6572 0.6666
553.773650 0.6799 0.7018 0.7151 0.7238 0.7305
560.377425 0.7346 0.7394 0.7436 0.7491 0.7501
566.981200 0.7510 0.7511 0.7520 0.7519 0.7509
573.584975 0.7498 0.7469 0.7448 0.7419 0.7408
580.188750 0.7378 0.7338 0.7308 0.7259 0.7228
586.792525 0.7189 0.7169 0.7129 0.7099 0.7060
593.396300 0.7040 0.7000 0.6970 0.6940 0.6920
600.000075 0.6900 0.6850 0.6801 0.6692 0.6435
606.603850 0.6284 0.6153 0.6033 0.5914 0.5794
613.207625 0.5617 0.5505 0.5386 0.5106 0.4798
619.811400 0.4452 0.4101 0.3734 0.3347 0.2811
626.415175 0.2355 0.1871 0.1365 0.1057 0.0759
633.018950 0.0721 0.0729 0.0802 0.1006 0.1190
639.622725 0.1351 0.1581 0.1872 0.2162 0.2442
646.226500 0.2704 0.2990 0.3279 0.3585 0.3911
652.830275 0.4273 0.4675 0.5544 0.5967 0.6161
659.434050 0.6256 0.6402 0.6603 0.6787 0.6950
666.037825 0.7012 0.7036 0.7176 0.7433 0.7577
672.641600 0.7616 0.7636 0.7703 0.7837 0.7917
679.245375 0.7961 0.7993 0.8038 0.8095 0.8148
685.849150 0.8197 0.8240 0.8272 0.8295 0.8322
692.452925 0.8337 0.8369 0.8402 0.8417 0.8420
699.056700 0.8434 0.8447 0.8457 0.8474 0.8487
705.660475 0.8497 0.8500 0.8514 0.8527 0.8537
712.264250 0.8553 0.8567 0.8570 0.8577 0.8580
718.868025 0.8587 0.8590 0.8603 0.8616 0.8626
725.471800 0.8630 0.8630 0.8643 0.8656 0.8660
732.075575 0.8666 0.8682 0.8690 0.8690 0.8690
738.679350 0.8690 0.8690 0.8678 0.8670 0.8664
745.283125 0.8660 0.8666 0.8670 0.8670 0.8670
751.886900 0.8670 0.8681 0.8690 0.8690 0.8690
758.490675 0.8690 0.8679 0.8665 0.8644 0.8625
765.094450 0.8615 0.8600 0.8585 0.8575 0.8555
771.698225 0.8530 0.8505 0.8485 0.8465 0.8435
778.302000 0.8401 0.8361 0.8311 0.8251 0.8196
784.905775 0.8165 0.8160 0.8178 0.8205 0.8215
791.509550 0.8220 0.8220 0.8216 0.8184 0.8124
798.113325 0.8073 0.8033 0.7972 0.7916 0.7914
804.717100 0.8018 0.8184 0.8244 0.8300 0.8342
811.320875 0.8368 0.8380 0.8376 0.8340 0.8260
817.924650 0.8177 0.8094 0.8020 0.7952 0.7906
824.528425 0.7876 0.7870 0.7873 0.7883 0.7897
831.132200 0.7913 0.7930 0.7977 0.8069 0.8179
837.735975 0.8256 0.8303 0.8333 0.8340 0.8337
844.339750 0.8327 0.8320 0.8314 0.8297 0.8279
850.943525 0.8239 0.8188 0.8125 0.8102 0.8072
857.547300 0.8040 0.8000 0.7965 0.7940 0.7895
864.151075 0.7838 0.7788 0.7738 0.7684 0.7612
870.754850 0.7521 0.7413 0.7397 0.7459 0.7638
877.358625 0.7811 0.7968 0.8140 0.8232 0.8284
883.962400 0.8304 0.8320 0.8309 0.8258 0.8250
890.566175 0.8258 0.8305 0.8330 0.8332 0.8340
897.169950 0.8340 0.8340 0.8339 0.8329 0.8317
903.773725 0.8295 0.8259 0.8245 0.8203 0.8148
910.377500 0.8129 0.8120 0.8121 0.8130 0.8130
916.981275 0.8129 0.8117 0.8088 0.8068 0.8049
923.585050 0.8025 0.7955 0.7882 0.7774 0.7672
930.188825 0.7536 0.7292 0.7140 0.7144 0.7231
936.792600 0.7250 0.7250 0.7260 0.7271 0.7290
943.396375 0.7311 0.7371 0.7450 0.7510 0.7590
950.000150 0.7630 0.7660 0.7670 0.7670 0.7660
956.603925 0.7660 0.7660 0.7641 0.7592 0.7542
963.207700 0.7473 0.7460 0.7450 0.7450 0.7431
969.811475 0.7421 0.7411 0.7373 0.7314 0.7264
976.415250 0.7141 0.6993 0.6824 0.6655 0.6458
983.019025 0.6241 0.6004 0.5730 0.5558 0.5398
989.622800 0.5072 0.4715 0.4661 0.4730 0.5001
996.226575 0.5205 0.5661 0.5850 0.6032 0.6068
1002.830350 0.6070 0.6028 0.5961 0.5841 0.5762
1009.434125 0.5692 0.5565 0.5434 0.5304 0.4972
1016.037900 0.4546 0.3675 0.2340 0.1580 0.0975
1022.641675 0.0842 0.0958 0.1006 0.1197 0.1389
1029.245450 0.1637 0.1983 0.2391 0.2840 0.3313
1035.849225 0.3731 0.4144 0.4562 0.4980 0.5634
1042.453000 0.6042 0.6287 0.6423 0.6530 0.6582
1049.056775 0.6576 0.6534 0.6492 0.6473 0.6470
1055.660550 0.6470 0.6470 0.6470 0.6470 0.6470
1062.264325 0.6477 0.6567 0.6690 0.6816 0.6926
1068.868100 0.7019 0.7096 0.7179 0.7262 0.7342
1075.471875 0.7376 0.7374 0.7351 0.7315 0.7194
1082.075650 0.6982 0.6737 0.6585 0.6550 0.6732
1088.679425 0.7031 0.7258 0.7407 0.7478 0.7490
1095.283200 0.7490 0.7479 0.7464 0.7454 0.7439
1101.886975 0.7402 0.7341 0.7288 0.7270 0.7226
1108.490750 0.7136 0.7047 0.6951 0.6879 0.6855
1115.094525 0.6766 0.6685 0.6680 0.6701 0.6720
1121.698300 0.6735 0.6750 0.6735 0.6675 0.6610
1128.302075 0.6536 0.6422 0.6322 0.6251 0.6192
1134.905850 0.6132 0.6082 0.6028 0.5967 0.5904
1141.509625 0.5806 0.5682 0.5579 0.5505 0.5395
1148.113400 0.5242 0.5082 0.4910 0.4724 0.4541
1154.717175 0.4351 0.4150 0.3931 0.3700 0.3467
1161.320950 0.3246 0.2984 0.2692 0.2416 0.2163
1167.924725 0.1934 0.1716 0.1513 0.1315 0.1129
1174.528500 0.0975 0.0902 0.0847 0.0843 0.0864
1181.132275 0.0944 0.1090 0.1206 0.1322 0.1436
1187.736050 0.1496 0.1516 0.1542 0.1589 0.1667
1194.339825 0.1783 0.1890 0.2012 0.2189 0.2361
1200.943600 0.2537 0.2715 0.2928 0.3132 0.3209
1207.547375 0.3270 0.3323 0.3420 0.3542 0.3686
1214.151150 0.3856 0.3975 0.4111 0.4187 0.4210
1220.754925 0.4208 0.4196 0.4176 0.4145 0.4071
1227.358700 0.3970 0.3806 0.3612 0.3534 0.3508
1233.962475 0.3494 0.3455 0.3376 0.3298 0.3232
1240.566250 0.3177 0.3083 0.2893 0.2562 0.2101
1247.170025 0.1805 0.1647 0.1562 0.1505 0.1456
1253.773800 0.1352 0.1284 0.1169 0.1161 0.1194
1260.377575 0.1411 0.1684 0.1910 0.2205 0.2567
1266.981350 0.2965 0.3351 0.3717 0.4042 0.4291
1273.585125 0.4423 0.4465 0.4544 0.4753 0.4957
1280.188900 0.5085 0.5171 0.5189 0.5166 0.5072
1286.792675 0.4863 0.4417 0.4330 0.4350 0.4795
1293.396450 0.5078 0.5642 0.5911 0.6152 0.6381
1300.000225 0.6560 0.6729 0.6839 0.6889 0.7008
1306.604000 0.7117 0.7130 0.7120 0.6984 0.6922
1313.207775 0.6882 0.6861 0.6860 0.6851 0.6812
1319.811550 0.6838 0.7027 0.7207 0.7416 0.7551
1326.415325 0.7671 0.7781 0.7872 0.7953 0.8005
1333.019100 0.8046 0.8068 0.8088 0.8081 0.8044
1339.622875 0.7996 0.7937 0.7877 0.7809 0.7748
1346.226650 0.7680 0.7610 0.7557 0.7379 0.7180
1352.830425 0.7142 0.7148 0.7242 0.7360 0.7521
1359.434200 0.7674 0.7807 0.7903 0.7953 0.7960
1366.037975 0.7919 0.7821 0.7656 0.7397 0.7110
1372.641750 0.6869 0.6781 0.6770 0.6871 0.6923
1379.245525 0.6938 0.6940 0.6940 0.6940 0.6940
1385.849300 0.6933 0.6811 0.6452 0.5806 0.5095
1392.453075 0.4756 0.4707 0.5356 0.5752 0.5939
1399.056850 0.6296 0.6427 0.6409 0.6400 0.6344
1405.660625 0.6278 0.6177 0.5975 0.5729 0.5589
1412.264400 0.5540 0.5523 0.5507 0.5487 0.5394
1418.868175 0.5251 0.5063 0.4834 0.4640 0.4574
1425.471950 0.4570 0.4570 0.4576 0.4586 0.4621
1432.075725 0.4677 0.4756 0.4864 0.4971 0.5022
1438.679500 0.4988 0.4841 0.4671 0.4539 0.4419
1445.283275 0.4300 0.4134 0.4050 0.4198 0.4389
1451.887050 0.4517 0.4576 0.4586 0.4590 0.4607
1458.490825 0.4647 0.4708 0.4794 0.4915 0.5038
1465.094600 0.5184 0.5410 0.5540 0.5530 0.5448
1471.698375 0.5314 0.5129 0.5000 0.4995 0.5074
1478.302150 0.5218 0.5478 0.5742 0.5872 0.6002
1484.905925 0.6141 0.6281 0.6415 0.6572 0.6738
1491.509700 0.6874 0.7011 0.7109 0.7032 0.6867
1498.113475 0.6778 0.6750 0.6792 0.6934 0.7224
1504.717250 0.7540 0.7713 0.7872 0.7982 0.8054
1511.321025 0.8122 0.8190 0.8243 0.8288 0.8311
1517.924800 0.8334 0.8351 0.8381 0.8407 0.8431
1524.528575 0.8461 0.8484 0.8490 0.8493 0.8500
1531.132350 0.8500 0.8507 0.8520 0.8520 0.8514
1537.736125 0.8497 0.8487 0.8480 0.8474 0.8448
1544.339900 0.8414 0.8394 0.8377 0.8370 0.8361
1550.943675 0.8312 0.8218 0.8146 0.8102 0.8072
1557.547450 0.8047 0.8037 0.8033 0.8042 0.8055
1564.151225 0.8075 0.8097 0.8120 0.8122 0.8130
1570.755000 0.8130 0.8130 0.8128 0.8120 0.8118
1577.358775 0.8106 0.8088 0.8074 0.8042 0.8006
1583.962550 0.7983 0.7939 0.7881 0.7830 0.7768
1590.566325 0.7696 0.7615 0.7529 0.7467 0.7445
1597.170100 0.7420 0.7419 0.7410 0.7406 0.7376
1603.773875 0.7342 0.7276 0.7159 0.6990 0.6814
1610.377650 0.6609 0.6601 0.6622 0.6744 0.6900
1616.981425 0.7098 0.7287 0.7480 0.7711 0.7847
1623.585200 0.7934 0.7994 0.8054 0.8122 0.8162
1630.188975 0.8193 0.8242 0.8281 0.8302 0.8342
1636.792750 0.8401 0.8440 0.8451 0.8480 0.8500
1643.396525 0.8520 0.8530 0.8530 0.8540 0.8540
1650.000300 0.8560 0.8560 0.8560 0.8560 0.8560
1656.604075 0.8570 0.8590 0.8619 0.8659 0.8689
1663.207850 0.8709 0.8748 0.8750 0.8769 0.8779
1669.811625 0.8789 0.8790 0.8809 0.8819 0.8820
1676.415400 0.8829 0.8848 0.8850 0.8850 0.8859
1683.019175 0.8869 0.8888 0.8890 0.8899 0.8900
1689.622950 0.8909 0.8910 0.8910 0.8910 0.8910
1696.226725 0.8919 0.8920 0.8920 0.8920 0.8937
1702.830500 0.8940 0.8940 0.8940 0.8940 0.8940
1709.434275 0.8940 0.8940 0.8940 0.8948 0.8950
1716.038050 0.8950 0.8950 0.8950 0.8950 0.8958
1722.641825 0.8976 0.8988 0.8990 0.8998 0.9000
1729.245600 0.9000 0.9015 0.9028 0.9030 0.9030
1735.849375 0.9038 0.9040 0.9040 0.9055 0.9060
1742.453150 0.9060 0.9060 0.9060 0.9060 0.9060
1749.056925 0.9060 0.9067 0.9070 0.9070 0.9070
1755.660700 0.9077 0.9080 0.9080 0.9094 0.9100
1762.264475 0.9100 0.9107 0.9110 0.9110 0.9110
1768.868250 0.9110 0.9110 0.9110 0.9110 0.9110
1775.472025 0.9110 0.9110 0.9110 0.9110 0.9110
1782.075800 0.9110 0.9110 0.9110 0.9110 0.9110
1788.679575 0.9110 0.9110 0.9110 0.9110 0.9116
1795.283350 0.9120 0.9114 0.9110 0.9110 0.9110
1801.887125 0.9110 0.9110 0.9104 0.9100 0.9100
1808.490900 0.9100 0.9100 0.9100 0.9089 0.9080
1815.094675 0.9080 0.9080 0.9075 0.9070 0.9070
1821.698450 0.9070 0.9070 0.9070 0.9070 0.9070
1828.302225 0.9070 0.9070 0.9070 0.9070 0.9070
1834.906000 0.9070 0.9070 0.9070 0.9070 0.9065
1841.509775 0.9060 0.9060 0.9060 0.9060 0.9060
1848.113550 0.9051 0.9040 0.9040 0.9040 0.9040
1854.717325 0.9040 0.9040 0.9040 0.9040 0.9036
1861.321100 0.9030 0.9030 0.9030 0.9030 0.9041
1867.924875 0.9060 0.9060 0.9060 0.9060 0.9060
1874.528650 0.9060 0.9060 0.9060 0.9060 0.9060
1881.132425 0.9060 0.9053 0.9037 0.9030 0.9030
1887.736200 0.9030 0.9030 0.9030 0.9030 0.9030
1894.339975 0.9030 0.9030 0.9030 0.9030 0.9027
1900.943750 0.9020 0.9020 0.9020 0.9025 0.9040
1907.547525 0.9040 0.9040 0.9040 0.9040 0.9040
1914.151300 0.9040 0.9040 0.9040 0.9045 0.9060
1920.755075 0.9060 0.9060 0.9060 0.9060 0.9060
1927.358850 0.9060 0.9060 0.9060 0.9060 0.9056
1933.962625 0.9040 0.9040 0.9040 0.9040 0.9040
1940.566400 0.9038 0.9030 0.9030 0.9030 0.9029
1947.170175 0.9020 0.9020 0.9020 0.9020 0.9020
1953.773950 0.9021 0.9029 0.9020 0.9020 0.9020
1960.377725 0.9020 0.9021 0.9030 0.9030 0.9030
1966.981500 0.9030 0.9030 0.9030 0.9030 0.9030
1973.585275 0.9030 0.9030 0.9030 0.9030 0.9030
1980.189050 0.9030 0.9030 0.9030 0.9030 0.9030
1986.792825 0.9030 0.9030 0.9030 0.9030 0.9030
1993.396600 0.9030 0.9030 0.9020 0.9020 0.9000
2000.000375 0.9000 0.8980 0.8990 0.8980 0.8960
2006.604150 0.8960 0.8950 0.8950 0.8950 0.8950
2013.207925 0.8950 0.8950 0.8950 0.8950 0.8950
2019.811700 0.8950 0.8950 0.8950 0.8950 0.8950
2026.415475 0.8950 0.8940 0.8940 0.8920 0.8920
2033.019250 0.8920 0.8920 0.8920 0.8910 0.8910
2039.623025 0.8910 0.8910 0.8900 0.8900 0.8900
2046.226800 0.8890 0.8890 0.8890 0.8900 0.8910
2052.830575 0.8910 0.8920 0.8920 0.8940 0.8940
2059.434350 0.8940 0.8940 0.8940 0.8940 0.8940
2066.038125 0.8940 0.8940 0.8940 0.8940 0.8940
2072.641900 0.8940 0.8940 0.8940 0.8940 0.8940
2079.245675 0.8940 0.8940 0.8940 0.8940 0.8940
2085.849450 0.8940 0.8940 0.8940 0.8940 0.8940
2092.453225 0.8940 0.8940 0.8940 0.8940 0.8940
2099.057000 0.8940 0.8940 0.8940 0.8940 0.8940
2105.660775 0.8940 0.8940 0.8940 0.8940 0.8940
2112.264550 0.8940 0.8940 0.8940 0.8940 0.8940
2118.868325 0.8940 0.8940 0.8920 0.8920 0.8920
2125.472100 0.8920 0.8920 0.8920 0.8920 0.8920
2132.075875 0.8920 0.8920 0.8920 0.8910 0.8910
2138.679650 0.8910 0.8910 0.8910 0.8910 0.8910
2145.283425 0.8910 0.8910 0.8900 0.8900 0.8900
2151.887200 0.8900 0.8890 0.8890 0.8890 0.8890
2158.490975 0.8870 0.8870 0.8870 0.8870 0.8860
2165.094750 0.8860 0.8860 0.8850 0.8850 0.8830
2171.698525 0.8830 0.8820 0.8810 0.8790 0.8780
2178.302300 0.8780 0.8770 0.8770 0.8750 0.8750
2184.906075 0.8750 0.8740 0.8740 0.8740 0.8740
2191.509850 0.8740 0.8740 0.8740 0.8740 0.8740
2198.113625 0.8740 0.8740 0.8750 0.8750 0.8750
2204.717400 0.8770 0.8770 0.8770 0.8780 0.8780
2211.321175 0.8780 0.8780 0.8780 0.8780 0.8780
2217.924950 0.8780 0.8780 0.8780 0.8780 0.8780
2224.528725 0.8780 0.8780 0.8780 0.8780 0.8770
2231.132500 0.8770 0.8770 0.8770 0.8770 0.8770
2237.736275 0.8770 0.8770 0.8770 0.8770 0.8770
2244.340050 0.8770 0.8770 0.8770 0.8770 0.8770
2250.943825 0.8750 0.8750 0.8750 0.8750 0.8740
2257.547600 0.8740 0.8740 0.8740 0.8730 0.8710
2264.151375 0.8700 0.8690 0.8690 0.8690 0.8690
2270.755150 0.8670 0.8670 0.8670 0.8690 0.8690
2277.358925 0.8700 0.8700 0.8710 0.8710 0.8710
2283.962700 0.8730 0.8740 0.8740 0.8740 0.8740
2290.566475 0.8740 0.8740 0.8740 0.8740 0.8740
2297.170250 0.8740 0.8740 0.8740 0.8740 0.8740
2303.774025 0.8740 0.8730 0.8730 0.8710 0.8710
2310.377800 0.8700 0.8690 0.8670 0.8670 0.8660
2316.981575 0.8660 0.8660 0.8650 0.8650 0.8650
2323.585350 0.8650 0.8650 0.8650 0.8650 0.8630
2330.189125 0.8630 0.8630 0.8630 0.8630 0.8630
2336.792900 0.8620 0.8620 0.8610 0.8610 0.8610
2343.396675 0.8590 0.8590 0.8590 0.8590 0.8590
2350.000450 0.8590 0.8580 0.8580 0.8570 0.8540
2356.604225 0.8540 0.8530 0.8530 0.8530 0.8530
2363.208000 0.8520 0.8520 0.8520 0.8520 0.8500
2369.811775 0.8490 0.8490 0.8480 0.8480 0.8480
2376.415550 0.8480 0.8480 0.8480 0.8480 0.8480
2383.019325 0.8490 0.8490 0.8480 0.8480 0.8480
2389.623100 0.8460 0.8460 0.8460 0.8460 0.8450
2396.226875 0.8450 0.8450 0.8440 0.8440 0.8440
2402.830650 0.8410 0.8380 0.8380 0.8370 0.8370
2409.434425 0.8360 0.8360 0.8340 0.8330 0.8330
2416.038200 0.8320 0.8320 0.8300 0.8300 0.8300
2422.641975 0.8280 0.8250 0.8240 0.8220 0.8200
2429.245750 0.8160 0.8130 0.8120 0.8090 0.8070
2435.849525 0.8050 0.8050 0.8050 0.8070 0.8090
2442.453300 0.8110 0.8130 0.8160 0.8190 0.8210
2449.057075 0.8210 0.8220 0.8240 0.8240 0.8220
2455.660850 0.8220 0.8210 0.8200 0.8170 0.8160
2462.264625 0.8150 0.8150 0.8130 0.8120 0.8090
2468.868400 0.8110 0.8170 0.8210 0.8250 0.8320
2475.472175 0.8320 0.8330 0.8330 0.8320 0.8320
2482.075950 0.8320 0.8320 0.8320 0.8330 0.8330
2488.679725 0.8330 0.8330 0.8330 0.8330 0.8320
2495.283500 0.8320 0.8320 0.8320 0.8300 0.8300
2501.887275 0.8320 0.8320 0.8320 0.8320 0.8320
2508.491050 0.8320 0.8320 0.8330 0.8330 0.8340
2515.094825 0.8340 0.8330 0.8330 0.8330 0.8330
2521.698600 0.8320 0.8320 0.8300 0.8300 0.8300
2528.302375 0.8300 0.8320 0.8320 0.8300 0.8300
2534.906150 0.8280 0.8250 0.8250 0.8220 0.8200
2541.509925 0.8190 0.8170 0.8160 0.8160 0.8150
2548.113700 0.8150 0.8130 0.8130 0.8130 0.8120
2554.717475 0.8120 0.8120 0.8120 0.8110 0.8110
2561.321250 0.8090 0.8080 0.8080 0.8070 0.8050
2567.925025 0.8030 0.8000 0.7970 0.7960 0.7950
2574.528800 0.7930 0.7920 0.7920 0.7910 0.7890
2581.132575 0.7890 0.7880 0.7870 0.7870 0.7850
2587.736350 0.7840 0.7830 0.7800 0.7790 0.7760
2594.340125 0.7750 0.7750 0.7740 0.7740 0.7720
2600.943900 0.7720 0.7720 0.7720 0.7720 0.7720
2607.547675 0.7720 0.7720 0.7740 0.7740 0.7740
2614.151450 0.7740 0.7740 0.7740 0.7740 0.7740
2620.755225 0.7740 0.7720 0.7720 0.7710 0.7710
2627.359000 0.7700 0.7680 0.7670 0.7640 0.7630
2633.962775 0.7600 0.7590 0.7580 0.7560 0.7560
2640.566550 0.7550 0.7540 0.7540 0.7520 0.7520
2647.170325 0.7520 0.7520 0.7520 0.7540 0.7540
2653.774100 0.7520 0.7520 0.7520 0.7520 0.7510
2660.377875 0.7500 0.7490 0.7460 0.7420 0.7410
2666.981650 0.7390 0.7380 0.7370 0.7350 0.7350
2673.585425 0.7340 0.7340 0.7340 0.7350 0.7350
2680.189200 0.7370 0.7370 0.7380 0.7380 0.7390
2686.792975 0.7410 0.7410 0.7390 0.7390 0.7380
2693.396750 0.7370 0.7330 0.7300 0.7290 0.7270
2700.000525 0.7270 0.7270 0.7250 0.7220 0.7220
2706.604300 0.7190 0.7180 0.7170 0.7150 0.7140
2713.208075 0.7130 0.7120 0.7100 0.7100 0.7080
2719.811850 0.7060 0.7010 0.6960 0.6900 0.6880
2726.415625 0.6840 0.6800 0.6770 0.6760 0.6750
2733.019400 0.6730 0.6720 0.6720 0.6710 0.6690
2739.623175 0.6680 0.6650 0.6610 0.6590 0.6570
2746.226950 0.6550 0.6530 0.6520 0.6470 0.6420
2752.830725 0.6400 0.6380 0.6340 0.6320 0.6300
2759.434500 0.6240 0.6190 0.6150 0.6110 0.6070
2766.038275 0.6060 0.6050 0.6020 0.5980 0.5970
2772.642050 0.5930 0.5890 0.5870 0.5860 0.5850
2779.245825 0.5810 0.5770 0.5750 0.5750 0.5750
2785.849600 0.5750 0.5740 0.5740 0.5710 0.5690
2792.453375 0.5690 0.5680 0.5660 0.5650 0.5650
2799.057150 0.5640 0.5620 0.5610 0.5610 0.5600
2805.660925 0.5600 0.5580 0.5560 0.5540 0.5530
2812.264700 0.5520 0.5500 0.5500 0.5500 0.5490
2818.868475 0.5480 0.5420 0.5380 0.5370 0.5370
2825.472250 0.5360 0.5330 0.5320 0.5310 0.5310
2832.076025 0.5310 0.5310 0.5310 0.5310 0.5320
2838.679800 0.5320 0.5320 0.5320 0.5320 0.5320
2845.283575 0.5310 0.5290 0.5280 0.5280 0.5270
2851.887350 0.5250 0.5240 0.5170 0.5130 0.5110
2858.491125 0.5080 0.5050 0.5030 0.4990 0.4880
2865.094900 0.4790 0.4680 0.4580 0.4500 0.4450
2871.698675 0.4350 0.4290 0.4250 0.4220 0.4200
2878.302450 0.4180 0.4170 0.4140 0.4090 0.4010
2884.906225 0.4000 0.3980 0.3980 0.3980 0.4000
2891.510000 0.4020 0.4060 0.4090 0.4130 0.4200
2898.113775 0.4240 0.4280 0.4290 0.4300 0.4300
2904.717550 0.4290 0.4280 0.4280 0.4260 0.4250
2911.321325 0.4240 0.4210 0.4140 0.4100 0.4050
2917.925100 0.4000 0.3980 0.3970 0.3890 0.3830
2924.528875 0.3750 0.3680 0.3650 0.3630 0.3560
2931.132650 0.3520 0.3430 0.3400 0.3390 0.3350
2937.736425 0.3220 0.3190 0.3180 0.3110 0.3030
2944.340200 0.2930 0.2860 0.2760 0.2641 0.2580
2950.943975 0.2500 0.2470 0.2440 0.2430 0.2410
2957.547750 0.2410 0.2410 0.2410 0.2430 0.2440
2964.151525 0.2470 0.2530 0.2540 0.2620 0.2730
2970.755300 0.2820 0.2930 0.3020 0.3100 0.3180
2977.359075 0.3230 0.3230 0.3230 0.3230 0.3230
2983.962850 0.3230 0.3230 0.3230 0.3240 0.3270
2990.566625 0.3310 0.3360 0.3380 0.3390 0.3430
2997.170400 0.3460 0.3460 0.3480 0.3540 0.3590
3003.774175 0.3650 0.3670 0.3670 0.3680 0.3680
3010.377950 0.3680 0.3680 0.3680 0.3680 0.3670
3016.981725 0.3670 0.3670 0.3670 0.3670 0.3670
3023.585500 0.3670 0.3670 0.3650 0.3640 0.3640
3030.189275 0.3630 0.3630 0.3640 0.3640 0.3640
3036.793050 0.3640 0.3630 0.3630 0.3630 0.3630
3043.396825 0.3630 0.3630 0.3630 0.3630 0.3630
3050.000600 0.3610 0.3600 0.3600 0.3600 0.3600
3056.604375 0.3600 0.3600 0.3600 0.3600 0.3600
3063.208150 0.3600 0.3600 0.3600 0.3600 0.3600
3069.811925 0.3600 0.3600 0.3610 0.3630 0.3650
3076.415700 0.3720 0.3750 0.3770 0.3800 0.3840
3083.019475 0.3880 0.3920 0.3970 0.3970 0.4000
3089.623250 0.4100 0.4160 0.4180 0.4250 0.4300
3096.227025 0.4340 0.4370 0.4380 0.4420 0.4500
3102.830800 0.4570 0.4590 0.4630 0.4670 0.4710
3109.434575 0.4750 0.4820 0.4880 0.4900 0.4940
3116.038350 0.5000 0.5080 0.5150 0.5200 0.5250
3122.642125 0.5290 0.5350 0.5380 0.5410 0.5520
3129.245900 0.5560 0.5610 0.5650 0.5710 0.5750
3135.849675 0.5860 0.5910 0.5990 0.6050 0.6120
3142.453450 0.6140 0.6150 0.6160 0.6180 0.6180
3149.057225 0.6220 0.6280 0.6310 0.6320 0.6390
3155.661000 0.6430 0.6450 0.6490 0.6510 0.6550
3162.264775 0.6600 0.6610 0.6630 0.6670 0.6690
3168.868550 0.6710 0.6730 0.6770 0.6810 0.6850
3175.472325 0.6880 0.6900 0.6920 0.6930 0.6970
3182.076100 0.7000 0.7040 0.7050 0.7060 0.7080
3188.679875 0.7080 0.7090 0.7120 0.7140 0.7170
3195.283650 0.7180 0.7180 0.7190 0.7210 0.7210
3201.887425 0.7220 0.7220 0.7230 0.7230 0.7230
3208.491200 0.7230 0.7250 0.7260 0.7260 0.7270
3215.094975 0.7290 0.7300 0.7340 0.7370 0.7380
3221.698750 0.7390 0.7430 0.7450 0.7460 0.7510
3228.302525 0.7560 0.7590 0.7620 0.7660 0.7680
3234.906300 0.7720 0.7750 0.7760 0.7790 0.7820
3241.510075 0.7830 0.7840 0.7870 0.7880 0.7890
3248.113850 0.7910 0.7920 0.7950 0.7960 0.7970
3254.717625 0.7990 0.7990 0.8000 0.8000 0.8010
3261.321400 0.8010 0.8010 0.8010 0.8010 0.8030
3267.925175 0.8030 0.8030 0.8030 0.8030 0.8030
3274.528950 0.8030 0.8040 0.8040 0.8040 0.8040
3281.132725 0.8040 0.8040 0.8050 0.8050 0.8050
3287.736500 0.8050 0.8050 0.8050 0.8050 0.8050
3294.340275 0.8050 0.8050 0.8040 0.8050 0.8050
3300.944050 0.8050 0.8050 0.8050 0.8050 0.8050
3307.547825 0.8040 0.8040 0.8040 0.8040 0.8030
3314.151600 0.8030 0.8010 0.8000 0.7990 0.7990
3320.755375 0.7990 0.7970 0.7970 0.7960 0.7960
3327.359150 0.7930 0.7930 0.7920 0.7920 0.7910
3333.962925 0.7910 0.7890 0.7890 0.7880 0.7880
3340.566700 0.7870 0.7870 0.7850 0.7840 0.7830
3347.170475 0.7820 0.7800 0.7790 0.7790 0.7790
3353.774250 0.7780 0.7760 0.7750 0.7740 0.7720
3360.378025 0.7710 0.7710 0.7700 0.7700 0.7700
3366.981800 0.7700 0.7680 0.7680 0.7670 0.7630
3373.585575 0.7600 0.7600 0.7590 0.7590 0.7580
3380.189350 0.7580 0.7560 0.7540 0.7540 0.7520
3386.793125 0.7520 0.7510 0.7510 0.7510 0.7510
3393.396900 0.7490 0.7470 0.7470 0.7460 0.7460
3400.000675 0.7460 0.7450 0.7430 0.7420 0.7420
3406.604450 0.7420 0.7410 0.7410 0.7390 0.7390
3413.208225 0.7390 0.7390 0.7380 0.7380 0.7380
3419.812000 0.7370 0.7370 0.7370 0.7370 0.7370
3426.415775 0.7370 0.7370 0.7380 0.7380 0.7380
3433.019550 0.7380 0.7380 0.7380 0.7380 0.7380
3439.623325 0.7390 0.7390 0.7390 0.7390 0.7390
3446.227100 0.7390 0.7390 0.7390 0.7390 0.7390
3452.830875 0.7410 0.7410 0.7410 0.7420 0.7420
3459.434650 0.7430 0.7430 0.7430 0.7430 0.7430
3466.038425 0.7430 0.7430 0.7450 0.7460 0.7460
3472.642200 0.7470 0.7470 0.7470 0.7470 0.7490
3479.245975 0.7500 0.7500 0.7510 0.7510 0.7510
3485.849750 0.7510 0.7510 0.7510 0.7510 0.7520
3492.453525 0.7520 0.7540 0.7540 0.7550 0.7550
3499.057300 0.7560 0.7580 0.7580 0.7580 0.7590
3505.661075 0.7590 0.7590 0.7600 0.7600 0.7600
3512.264850 0.7620 0.7640 0.7640 0.7640 0.7660
3518.868625 0.7660 0.7670 0.7670 0.7670 0.7670
3525.472400 0.7680 0.7700 0.7710 0.7720 0.7740
3532.076175 0.7750 0.7750 0.7760 0.7780 0.7780
3538.679950 0.7790 0.7800 0.7820 0.7830 0.7840
3545.283725 0.7840 0.7850 0.7850 0.7870 0.7880
3551.887500 0.7890 0.7910 0.7920 0.7930 0.7930
3558.491275 0.7930 0.7950 0.7960 0.7970 0.7990
3565.095050 0.7990 0.8000 0.8000 0.8010 0.8030
3571.698825 0.8030 0.8040 0.8050 0.8050 0.8070
3578.302600 0.8070 0.8070 0.8080 0.8080 0.8090
3584.906375 0.8110 0.8130 0.8150 0.8150 0.8150
3591.510150 0.8150 0.8160 0.8160 0.8170 0.8190
3598.113925 0.8210 0.8220 0.8220 0.8240 0.8240
3604.717700 0.8250 0.8250 0.8260 0.8280 0.8290
3611.321475 0.8290 0.8290 0.8300 0.8320 0.8330
3617.925250 0.8330 0.8340 0.8340 0.8340 0.8360
3624.529025 0.8380 0.8410 0.8410 0.8420 0.8420
3631.132800 0.8440 0.8450 0.8460 0.8460 0.8480
3637.736575 0.8480 0.8480 0.8480 0.8490 0.8490
3644.340350 0.8490 0.8490 0.8500 0.8500 0.8520
3650.944125 0.8500 0.8500 0.8500 0.8520 0.8520
3657.547900 0.8520 0.8500 0.8500 0.8500 0.8500
3664.151675 0.8500 0.8500 0.8500 0.8500 0.8500
3670.755450 0.8500 0.8500 0.8500 0.8500 0.8500
3677.359225 0.8500 0.8500 0.8500 0.8500 0.8500
3683.963000 0.8500 0.8500 0.8500 0.8500 0.8500
3690.566775 0.8500 0.8520 0.8530 0.8530 0.8540
3697.170550 0.8560 0.8560 0.8570 0.8570 0.8580
3703.774325 0.8580 0.8580 0.8580 0.8580 0.8580
3710.378100 0.8590 0.8580 0.8580 0.8580 0.8580
3716.981875 0.8580 0.8580 0.8590 0.8590 0.8590
3723.585650 0.8590 0.8590 0.8590 0.8590 0.8590
3730.189425 0.8590 0.8590 0.8590 0.8590 0.8590
3736.793200 0.8590 0.8590 0.8590 0.8590 0.8590
3743.396975 0.8590 0.8590 0.8590 0.8590 0.8590
3750.000750 0.8590 0.8590 0.8590 0.8590 0.8590
3756.604525 0.8590 0.8590 0.8590 0.8590 0.8590
3763.208300 0.8590 0.8590 0.8590 0.8590 0.8590
3769.812075 0.8590 0.8580 0.8580 0.8580 0.8580
3776.415850 0.8580 0.8580 0.8580 0.8580 0.8580
3783.019625 0.8580 0.8570 0.8570 0.8580 0.8580
3789.623400 0.8580 0.8580 0.8580 0.8570 0.8540
3796.227175 0.8540 0.8540 0.8540 0.8560 0.8540
3802.830950 0.8540 0.8540 0.8540 0.8540 0.8540
##END=
