##TITLE=PROPANOIC ACID, 2-[(4-AMINOCARBONYLIMIDAZOL-5-YL)-1-TRIAZEN-1,3-DIYL-], ETHYL ESTER
##JCAMP-DX=4.24
##DATA TYPE=INFRARED SPECTRUM
##CLASS=COBLENTZ III
##ORIGIN=SOUTHERN RESEARCH INSTITUTE
##OWNER=COBLENTZ SOCIETY
Collection (C) 2018 copyright by the U.S. Secretary of Commerce
on behalf of the United States of America. All rights reserved.
##DATE=1965/01/06
##NAMES=ethyl 2-((2E)-3-[4-(aminocarbonyl)-1H-imidazol-5-yl]-2-triazenyl)propanoate
##MOLFORM=C9 H14 N6 O3
##SOURCE REFERENCE=COBLENTZ NO. 10468
##$NIST ID=B6010468
##$NIST SOURCE=COBLENTZ
##$NIST IMAGE=cob10468
##SPECTROMETER/DATA SYSTEM=PERKIN-ELMER 521 (GRATING)
##INSTRUMENT PARAMETERS=GRATING FOR 2000, 620, FILTERS AT 3130, 2475, 2000, 1150, 700, 410 CM^-^1
##STATE=SOLID (1 mg / 650 mg KBr DISC)
##PATH LENGTH=
$$ PURITY - ANALYTICAL
##SAMPLING PROCEDURE=TRANSMISSION
##RESOLUTION=4
##DATA PROCESSING=DIGITIZED BY NIST FROM HARD COPY (FROM TWO SEGMENTS)
##XUNITS=1/CM
##YUNITS=TRANSMITTANCE
##XFACTOR=1.000000
##YFACTOR=1
##DELTAX=1.303912
##FIRSTX=248.364
##LASTX=3805.44
##FIRSTY=0.208
##MAXX=3805.44
##MINX=248.364
##MAXY=0.861
##MINY=0.054
##NPOINTS=2729
##XYDATA=(X++(Y..Y))
248.364000 0.2080 0.2080 0.2177 0.2190 0.2218
254.883560 0.2266 0.2333 0.2384 0.2434 0.2457
261.403120 0.2477 0.2547 0.2633 0.2722 0.2803
267.922680 0.2951 0.2990 0.3078 0.3197 0.3301
274.442240 0.3413 0.3593 0.3667 0.3728 0.3823
280.961800 0.3965 0.4030 0.4065 0.4118 0.4173
287.481360 0.4227 0.4276 0.4336 0.4395 0.4459
294.000920 0.4500 0.4522 0.4567 0.4611 0.4656
300.520480 0.4766 0.4994 0.5208 0.5341 0.5413
307.040040 0.5443 0.5462 0.5496 0.5513 0.5520
313.559600 0.5522 0.5530 0.5532 0.5540 0.5544
320.079160 0.5560 0.5561 0.5570 0.5571 0.5582
326.598720 0.5601 0.5613 0.5652 0.5681 0.5711
333.118280 0.5750 0.5790 0.5868 0.5937 0.5978
339.637840 0.6017 0.6038 0.6085 0.6108 0.6154
346.157400 0.6263 0.6331 0.6373 0.6412 0.6460
352.676960 0.6501 0.6525 0.6538 0.6547 0.6550
359.196520 0.6564 0.6570 0.6577 0.6580 0.6586
365.716080 0.6590 0.6590 0.6590 0.6590 0.6590
372.235640 0.6590 0.6590 0.6590 0.6590 0.6585
378.755200 0.6580 0.6575 0.6570 0.6574 0.6580
385.274760 0.6584 0.6594 0.6611 0.6641 0.6680
391.794320 0.6730 0.6759 0.6783 0.6793 0.6800
398.313880 0.6808 0.6832 0.6842 0.6848 0.6834
404.833440 0.6805 0.6770 0.6708 0.6633 0.6585
411.353000 0.6548 0.6530 0.6531 0.6541 0.6551
417.872560 0.6570 0.6570 0.6550 0.6530 0.6501
424.392120 0.6462 0.6404 0.6363 0.6342 0.6358
430.911680 0.6421 0.6481 0.6583 0.6683 0.6822
437.431240 0.6938 0.6999 0.7041 0.7058 0.7075
443.950800 0.7087 0.7111 0.7127 0.7130 0.7130
450.470360 0.7136 0.7140 0.7140 0.7140 0.7140
456.989920 0.7140 0.7140 0.7140 0.7140 0.7140
463.509480 0.7140 0.7140 0.7140 0.7136 0.7130
470.029040 0.7130 0.7126 0.7120 0.7112 0.7093
476.548600 0.7070 0.7040 0.7007 0.6974 0.6952
483.068160 0.6925 0.6903 0.6871 0.6831 0.6796
489.587720 0.6774 0.6745 0.6717 0.6696 0.6669
496.107280 0.6657 0.6629 0.6618 0.6589 0.6568
502.626840 0.6538 0.6499 0.6460 0.6410 0.6361
509.146400 0.6293 0.6214 0.6173 0.6124 0.6084
515.665960 0.6036 0.5986 0.5946 0.5906 0.5859
522.185520 0.5818 0.5778 0.5747 0.5717 0.5695
528.705080 0.5668 0.5646 0.5626 0.5613 0.5610
535.224640 0.5617 0.5633 0.5665 0.5692 0.5754
541.744200 0.5837 0.5887 0.5922 0.5967 0.6027
548.263760 0.6090 0.6154 0.6214 0.6249 0.6310
554.783320 0.6405 0.6475 0.6534 0.6578 0.6601
561.302880 0.6627 0.6647 0.6666 0.6686 0.6703
567.822440 0.6710 0.6713 0.6717 0.6710 0.6708
574.342000 0.6700 0.6696 0.6678 0.6668 0.6657
580.861560 0.6639 0.6626 0.6599 0.6588 0.6568
587.381120 0.6538 0.6509 0.6469 0.6430 0.6380
593.900680 0.6321 0.6252 0.6203 0.6172 0.6152
600.420240 0.6042 0.5924 0.5806 0.5679 0.5559
606.939800 0.5457 0.5359 0.5252 0.5160 0.5079
613.459360 0.5015 0.4956 0.4904 0.4869 0.4860
619.978920 0.4874 0.4933 0.4992 0.5086 0.5241
626.498480 0.5388 0.5591 0.5751 0.5790 0.5553
633.018040 0.5345 0.5345 0.5360 0.5389 0.5429
639.537600 0.5477 0.5549 0.5617 0.5656 0.5707
646.057160 0.5791 0.5874 0.5914 0.5956 0.6015
652.576720 0.6088 0.6150 0.6221 0.6295 0.6354
659.096280 0.6411 0.6460 0.6513 0.6573 0.6598
665.615840 0.6643 0.6661 0.6670 0.6671 0.6682
672.135400 0.6703 0.6741 0.6751 0.6781 0.6810
678.654960 0.6810 0.6800 0.6752 0.6703 0.6663
685.174520 0.6605 0.6591 0.6590 0.6599 0.6694
691.694080 0.6777 0.6856 0.6910 0.6960 0.6993
698.213640 0.7038 0.7103 0.7142 0.7179 0.7239
704.733200 0.7281 0.7303 0.7317 0.7320 0.7320
711.252760 0.7320 0.7320 0.7320 0.7331 0.7340
717.772320 0.7340 0.7345 0.7355 0.7375 0.7404
724.291880 0.7438 0.7469 0.7502 0.7543 0.7564
730.811440 0.7578 0.7590 0.7594 0.7600 0.7600
737.331000 0.7600 0.7597 0.7590 0.7582 0.7547
743.850560 0.7501 0.7461 0.7428 0.7416 0.7403
750.370120 0.7423 0.7449 0.7504 0.7535 0.7577
756.889680 0.7643 0.7681 0.7691 0.7701 0.7720
763.409240 0.7720 0.7720 0.7720 0.7720 0.7701
769.928800 0.7700 0.7691 0.7690 0.7681 0.7533
776.448360 0.6428 0.6181 0.6195 0.6541 0.7122
782.967920 0.7359 0.7428 0.7500 0.7542 0.7550
789.487480 0.7557 0.7560 0.7567 0.7570 0.7589
796.007040 0.7606 0.7610 0.7622 0.7642 0.7667
802.526600 0.7702 0.7725 0.7735 0.7740 0.7750
809.046160 0.7760 0.7765 0.7770 0.7766 0.7760
815.565720 0.7760 0.7752 0.7740 0.7736 0.7727
822.085280 0.7720 0.7714 0.7697 0.7690 0.7685
828.604840 0.7670 0.7665 0.7650 0.7648 0.7638
835.124400 0.7627 0.7607 0.7586 0.7555 0.7518
841.643960 0.7496 0.7457 0.7416 0.7359 0.7338
848.163520 0.7289 0.7230 0.7171 0.7121 0.7043
854.683080 0.6974 0.6896 0.6817 0.6729 0.6587
861.202640 0.6448 0.6353 0.6290 0.6247 0.6232
867.722200 0.6230 0.6238 0.6255 0.6305 0.6394
874.241760 0.6513 0.6691 0.6887 0.7017 0.7194
880.761320 0.7353 0.7462 0.7543 0.7594 0.7628
887.280880 0.7640 0.7646 0.7645 0.7635 0.7620
893.800440 0.7590 0.7551 0.7502 0.7466 0.7443
900.320000 0.7262 0.6956 0.6753 0.6630 0.6708
906.839560 0.6877 0.6985 0.7112 0.7173 0.7292
913.359120 0.7405 0.7422 0.7432 0.7444 0.7460
919.878680 0.7460 0.7460 0.7460 0.7457 0.7440
926.398240 0.7438 0.7414 0.7358 0.7340 0.7338
932.917800 0.7289 0.7249 0.7220 0.7210 0.7190
939.437360 0.7180 0.7171 0.7133 0.7066 0.7024
945.956920 0.7002 0.6965 0.6926 0.6878 0.6779
952.476480 0.6647 0.6445 0.6314 0.6221 0.6193
958.996040 0.6197 0.6243 0.6337 0.6425 0.6504
965.515600 0.6602 0.6691 0.6764 0.6851 0.6914
972.035160 0.6959 0.7003 0.7064 0.7127 0.7171
978.554720 0.7205 0.7235 0.7255 0.7265 0.7270
985.074280 0.7270 0.7270 0.7270 0.7270 0.7266
991.593840 0.7260 0.7257 0.7250 0.7244 0.7227
998.113400 0.7212 0.7187 0.7173 0.7145 0.7115
1004.632960 0.7056 0.7027 0.6967 0.6944 0.6899
1011.152520 0.6819 0.6729 0.6630 0.6521 0.6402
1017.672080 0.6285 0.6186 0.6078 0.5980 0.5901
1024.191640 0.5832 0.5792 0.5781 0.5743 0.5694
1030.711200 0.5663 0.5616 0.5549 0.5489 0.5446
1037.230760 0.5432 0.5438 0.5511 0.5646 0.5856
1043.750320 0.6000 0.6103 0.6202 0.6265 0.6321
1050.269880 0.6414 0.6457 0.6460 0.6460 0.6460
1056.789440 0.6454 0.6450 0.6427 0.6388 0.6343
1063.309000 0.6289 0.6235 0.6200 0.6129 0.6005
1069.828560 0.5900 0.5816 0.5741 0.5680 0.5623
1076.348120 0.5558 0.5506 0.5457 0.5394 0.5354
1082.867680 0.5328 0.5280 0.5209 0.5125 0.5011
1089.387240 0.4828 0.4590 0.4364 0.4248 0.4242
1095.906800 0.4280 0.4492 0.4736 0.4960 0.5165
1102.426360 0.5352 0.5528 0.5684 0.5812 0.5920
1108.945920 0.6029 0.6108 0.6158 0.6188 0.6209
1115.465480 0.6247 0.6277 0.6298 0.6352 0.6377
1121.985040 0.6405 0.6418 0.6444 0.6458 0.6437
1128.504600 0.6453 0.6467 0.6470 0.6470 0.6470
1135.024160 0.6463 0.6460 0.6453 0.6437 0.6424
1141.543720 0.6414 0.6386 0.6347 0.6285 0.6206
1148.063280 0.6117 0.6023 0.5904 0.5757 0.5604
1154.582840 0.5442 0.5275 0.5116 0.4985 0.4881
1161.102400 0.4793 0.4724 0.4659 0.4596 0.4537
1167.621960 0.4495 0.4451 0.4419 0.4387 0.4373
1174.141520 0.4348 0.4338 0.4332 0.4353 0.4422
1180.661080 0.4492 0.4575 0.4672 0.4690 0.4688
1187.180640 0.4659 0.4513 0.4396 0.4130 0.3852
1193.700200 0.3448 0.2917 0.2706 0.2327 0.2301
1200.219760 0.2318 0.2384 0.2453 0.2513 0.2581
1206.739320 0.2829 0.2987 0.3100 0.3281 0.3486
1213.258880 0.3685 0.3829 0.3935 0.4011 0.4066
1219.778440 0.4094 0.4114 0.4127 0.4130 0.4130
1226.298000 0.4130 0.4130 0.4124 0.4108 0.4072
1232.817560 0.4028 0.3999 0.3974 0.3955 0.3950
1239.337120 0.3955 0.3978 0.4018 0.4096 0.4215
1245.856680 0.4332 0.4467 0.4637 0.4857 0.5100
1252.376240 0.5317 0.5489 0.5629 0.5725 0.5811
1258.895800 0.5882 0.5929 0.5966 0.5992 0.6004
1265.415360 0.6020 0.6020 0.6020 0.6020 0.6018
1271.934920 0.6000 0.5999 0.5988 0.5958 0.5909
1278.454480 0.5890 0.5860 0.5771 0.5692 0.5642
1284.974040 0.5612 0.5601 0.5582 0.5580 0.5580
1291.493600 0.5563 0.5543 0.5490 0.5414 0.5352
1298.013160 0.5253 0.5222 0.5228 0.5490 0.5609
1304.532720 0.5755 0.5935 0.6045 0.6130 0.6193
1311.052280 0.6229 0.6246 0.6250 0.6256 0.6260
1317.571840 0.6254 0.6239 0.6219 0.6179 0.6120
1324.091400 0.6066 0.5983 0.5911 0.5887 0.5866
1330.610960 0.5856 0.5850 0.5842 0.5823 0.5782
1337.130520 0.5686 0.5520 0.5243 0.4855 0.4443
1343.650080 0.4280 0.4260 0.4370 0.4720 0.5068
1350.169640 0.5365 0.5713 0.6023 0.6040 0.6039
1356.689200 0.6029 0.6013 0.5935 0.5863 0.5764
1363.208760 0.5634 0.5466 0.5260 0.5023 0.4739
1369.728320 0.4406 0.4033 0.3383 0.3065 0.3040
1376.247880 0.3525 0.4032 0.4228 0.4317 0.4395
1382.767440 0.4418 0.4420 0.4412 0.4265 0.4108
1389.287000 0.3953 0.3610 0.3280 0.3026 0.2883
1395.806560 0.2733 0.2562 0.2389 0.2211 0.2140
1402.326120 0.2181 0.2244 0.2297 0.2416 0.2598
1408.845680 0.2780 0.2880 0.2881 0.2856 0.2751
1415.365240 0.2602 0.2517 0.2434 0.2350 0.2260
1421.884800 0.2159 0.2083 0.2050 0.2059 0.2136
1428.404360 0.2342 0.2629 0.3001 0.3360 0.3700
1434.923920 0.4019 0.4307 0.4558 0.4776 0.4934
1441.443480 0.5026 0.5081 0.5171 0.5180 0.5180
1447.963040 0.5180 0.5180 0.5169 0.5060 0.4961
1454.482600 0.4882 0.4689 0.4482 0.4433 0.4430
1461.002160 0.4475 0.4568 0.4623 0.4664 0.4678
1467.521720 0.4688 0.4754 0.4841 0.4968 0.5099
1474.041280 0.5197 0.5264 0.5323 0.5375 0.5452
1480.560840 0.5560 0.5698 0.5903 0.5996 0.6000
1487.080400 0.5988 0.5980 0.5986 0.6006 0.6057
1493.599960 0.6126 0.6205 0.6313 0.6413 0.6473
1500.119520 0.6531 0.6617 0.6761 0.6892 0.6910
1506.639080 0.6910 0.6910 0.6903 0.6890 0.6890
1513.158640 0.6887 0.6880 0.6880 0.6878 0.6870
1519.678200 0.6870 0.6870 0.6870 0.6870 0.6867
1526.197760 0.6847 0.6825 0.6785 0.6733 0.6653
1532.717320 0.6561 0.6423 0.6284 0.6107 0.5900
1539.236880 0.5654 0.5185 0.4903 0.4890 0.4991
1545.756440 0.5082 0.5162 0.5232 0.5378 0.5375
1552.276000 0.5328 0.5181 0.5046 0.5020 0.5112
1558.795560 0.5269 0.5399 0.5503 0.5594 0.5676
1565.315120 0.5755 0.5800 0.5810 0.5797 0.5778
1571.834680 0.5752 0.5716 0.5671 0.5605 0.5537
1578.354240 0.5452 0.5318 0.5170 0.5023 0.4861
1584.873800 0.4688 0.4497 0.4286 0.4062 0.3821
1591.393360 0.3568 0.3291 0.2996 0.2621 0.2065
1597.912920 0.1634 0.1626 0.1667 0.1776 0.1924
1604.432480 0.2126 0.2420 0.2740 0.3047 0.3359
1610.952040 0.3655 0.3935 0.4108 0.4250 0.4335
1617.471600 0.4392 0.4420 0.4420 0.4408 0.4329
1623.991160 0.4250 0.4102 0.3935 0.3643 0.3301
1630.510720 0.2781 0.2195 0.1605 0.1181 0.0640
1637.030280 0.0543 0.0540 0.0565 0.0602 0.0634
1643.549840 0.0694 0.0771 0.0849 0.0935 0.1031
1650.069400 0.1122 0.1218 0.1310 0.1399 0.1532
1656.588960 0.1696 0.1887 0.2070 0.2278 0.2508
1663.108520 0.2735 0.2941 0.3139 0.3340 0.3527
1669.628080 0.3714 0.3906 0.4098 0.4299 0.4477
1676.147640 0.4654 0.4864 0.5029 0.5182 0.5333
1682.667200 0.5481 0.5606 0.5719 0.5809 0.5868
1689.186760 0.5897 0.5920 0.5924 0.5940 0.5936
1695.706320 0.5918 0.5907 0.5886 0.5865 0.5908
1702.225880 0.5988 0.6076 0.6162 0.6190 0.6200
1708.745440 0.6200 0.6200 0.6200 0.6190 0.6133
1715.265000 0.6065 0.5986 0.5880 0.5798 0.5632
1721.784560 0.5455 0.5269 0.5016 0.4758 0.4478
1728.304120 0.4161 0.3699 0.3004 0.2321 0.2143
1734.823680 0.2147 0.2206 0.2339 0.2463 0.2571
1741.343240 0.2730 0.2917 0.3111 0.3374 0.3633
1747.862800 0.3887 0.4190 0.4520 0.4860 0.5189
1754.382360 0.5490 0.5742 0.5914 0.6090 0.6315
1760.901920 0.6508 0.6687 0.6839 0.6963 0.7075
1767.421480 0.7166 0.7242 0.7308 0.7362 0.7398
1773.941040 0.7430 0.7462 0.7477 0.7502 0.7512
1780.460600 0.7522 0.7535 0.7564 0.7593 0.7610
1786.980160 0.7612 0.7630 0.7630 0.7630 0.7630
1793.499720 0.7630 0.7640 0.7650 0.7650 0.7669
1800.019280 0.7670 0.7679 0.7680 0.7680 0.7671
1806.538840 0.7670 0.7670 0.7670 0.7670 0.7670
1813.058400 0.7670 0.7670 0.7670 0.7670 0.7670
1819.577960 0.7677 0.7680 0.7680 0.7680 0.7680
1826.097520 0.7687 0.7690 0.7690 0.7690 0.7690
1832.617080 0.7690 0.7690 0.7690 0.7690 0.7690
1839.136640 0.7690 0.7685 0.7680 0.7675 0.7661
1845.656200 0.7646 0.7640 0.7636 0.7622 0.7606
1852.175760 0.7597 0.7583 0.7570 0.7567 0.7560
1858.695320 0.7557 0.7545 0.7528 0.7520 0.7518
1865.214880 0.7510 0.7510 0.7510 0.7510 0.7511
1871.734440 0.7521 0.7530 0.7532 0.7550 0.7550
1878.254000 0.7550 0.7550 0.7550 0.7560 0.7560
1884.773560 0.7560 0.7570 0.7570 0.7588 0.7608
1891.293120 0.7610 0.7628 0.7630 0.7630 0.7638
1897.812680 0.7640 0.7640 0.7640 0.7648 0.7650
1904.332240 0.7672 0.7687 0.7697 0.7700 0.7714
1910.851800 0.7720 0.7720 0.7726 0.7736 0.7758
1917.371360 0.7788 0.7800 0.7806 0.7810 0.7815
1923.890920 0.7830 0.7840 0.7845 0.7850 0.7855
1930.410480 0.7860 0.7864 0.7870 0.7878 0.7890
1936.930040 0.7890 0.7890 0.7893 0.7900 0.7900
1943.449600 0.7903 0.7915 0.7930 0.7932 0.7940
1949.969160 0.7938 0.7930 0.7930 0.7932 0.7941
1956.488720 0.7953 0.7970 0.7971 0.7980 0.7981
1963.008280 0.7990 0.7991 0.8010 0.8010 0.8020
1969.527840 0.8020 0.8020 0.8030 0.8030 0.8030
1976.047400 0.8039 0.8040 0.8040 0.8057 0.8060
1982.566960 0.8060 0.8068 0.8070 0.8070 0.8078
1989.086520 0.8080 0.8080 0.8094 0.8100 0.8100
1995.606080 0.8107 0.8117 0.8133 0.8146 0.8156
2002.125640 0.8160 0.8147 0.8140 0.8127 0.8120
2008.645200 0.8120 0.8120 0.8120 0.8120 0.8133
2015.164760 0.8140 0.8140 0.8140 0.8140 0.8140
2021.684320 0.8140 0.8140 0.8140 0.8140 0.8140
2028.203880 0.8146 0.8150 0.8156 0.8173 0.8180
2034.723440 0.8180 0.8186 0.8190 0.8184 0.8180
2041.243000 0.8180 0.8180 0.8180 0.8180 0.8180
2047.762560 0.8180 0.8180 0.8186 0.8190 0.8190
2054.282120 0.8190 0.8190 0.8190 0.8184 0.8180
2060.801680 0.8180 0.8180 0.8180 0.8180 0.8180
2067.321240 0.8193 0.8200 0.8200 0.8194 0.8190
2073.840800 0.8184 0.8180 0.8180 0.8180 0.8180
2080.360360 0.8180 0.8180 0.8180 0.8180 0.8180
2086.879920 0.8180 0.8180 0.8180 0.8180 0.8167
2093.399480 0.8154 0.8150 0.8144 0.8140 0.8146
2099.919040 0.8150 0.8156 0.8172 0.8180 0.8186
2106.438600 0.8190 0.8196 0.8200 0.8200 0.8200
2112.958160 0.8200 0.8200 0.8200 0.8200 0.8200
2119.477720 0.8200 0.8200 0.8200 0.8200 0.8200
2125.997280 0.8200 0.8200 0.8200 0.8200 0.8200
2132.516840 0.8200 0.8200 0.8200 0.8194 0.8190
2139.036400 0.8190 0.8190 0.8171 0.8154 0.8125
2145.555960 0.8104 0.8087 0.8080 0.8080 0.8074
2152.075520 0.8064 0.8047 0.8040 0.8040 0.8034
2158.595080 0.8030 0.8024 0.8020 0.8020 0.8020
2165.114640 0.8020 0.8020 0.8020 0.8026 0.8030
2171.634200 0.8030 0.8030 0.8036 0.8040 0.8040
2178.153760 0.8040 0.8052 0.8060 0.8060 0.8047
2184.673320 0.8040 0.8040 0.8040 0.8040 0.8040
2191.192880 0.8040 0.8040 0.8040 0.8040 0.8040
2197.712440 0.8040 0.8040 0.8034 0.8030 0.8030
2204.232000 0.8030 0.8030 0.8030 0.8030 0.8030
2210.751560 0.8024 0.8020 0.8020 0.8020 0.8014
2217.271120 0.8010 0.7998 0.7990 0.7990 0.7984
2223.790680 0.7980 0.7974 0.7957 0.7950 0.7944
2230.310240 0.7934 0.7918 0.7904 0.7894 0.7890
2236.829800 0.7877 0.7870 0.7864 0.7860 0.7854
2243.349360 0.7850 0.7850 0.7844 0.7840 0.7840
2249.868920 0.7827 0.7820 0.7814 0.7810 0.7810
2256.388480 0.7804 0.7800 0.7800 0.7787 0.7780
2262.908040 0.7780 0.7780 0.7774 0.7751 0.7734
2269.427600 0.7724 0.7708 0.7694 0.7690 0.7690
2275.947160 0.7684 0.7680 0.7674 0.7657 0.7650
2282.466720 0.7650 0.7650 0.7650 0.7650 0.7644
2288.986280 0.7634 0.7630 0.7617 0.7604 0.7594
2295.505840 0.7578 0.7564 0.7560 0.7554 0.7550
2302.025400 0.7537 0.7530 0.7524 0.7514 0.7504
2308.544960 0.7500 0.7488 0.7468 0.7441 0.7405
2315.064520 0.7365 0.7344 0.7321 0.7304 0.7281
2321.584080 0.7264 0.7254 0.7231 0.7214 0.7210
2328.103640 0.7197 0.7190 0.7190 0.7190 0.7184
2334.623200 0.7174 0.7170 0.7151 0.7134 0.7124
2341.142760 0.7107 0.7100 0.7094 0.7090 0.7084
2347.662320 0.7067 0.7054 0.7050 0.7044 0.7015
2354.181880 0.6975 0.6941 0.6930 0.6924 0.6920
2360.701440 0.6920 0.6914 0.6910 0.6910 0.6910
2367.221000 0.6910 0.6910 0.6910 0.6910 0.6910
2373.740560 0.6910 0.6910 0.6910 0.6910 0.6910
2380.260120 0.6910 0.6897 0.6884 0.6880 0.6880
2386.779680 0.6880 0.6880 0.6874 0.6870 0.6857
2393.299240 0.6850 0.6844 0.6840 0.6834 0.6830
2399.818800 0.6817 0.6810 0.6810 0.6804 0.6800
2406.338360 0.6800 0.6800 0.6800 0.6800 0.6794
2412.857920 0.6790 0.6784 0.6780 0.6767 0.6760
2419.377480 0.6754 0.6731 0.6714 0.6710 0.6704
2425.897040 0.6687 0.6674 0.6670 0.6664 0.6660
2432.416600 0.6660 0.6660 0.6647 0.6640 0.6640
2438.936160 0.6640 0.6634 0.6630 0.6624 0.6620
2445.455720 0.6607 0.6594 0.6590 0.6584 0.6580
2451.975280 0.6561 0.6550 0.6544 0.6540 0.6540
2458.494840 0.6540 0.6540 0.6540 0.6534 0.6530
2465.014400 0.6530 0.6530 0.6530 0.6530 0.6530
2471.533960 0.6517 0.6510 0.6510 0.6510 0.6510
2478.053520 0.6510 0.6510 0.6504 0.6500 0.6500
2484.573080 0.6500 0.6494 0.6471 0.6454 0.6437
2491.092640 0.6424 0.6420 0.6414 0.6404 0.6400
2497.612200 0.6387 0.6380 0.6380 0.6380 0.6380
2504.131760 0.6380 0.6374 0.6364 0.6366 0.6364
2510.651320 0.6360 0.6347 0.6334 0.6324 0.6320
2517.170880 0.6308 0.6294 0.6290 0.6271 0.6254
2523.690440 0.6237 0.6230 0.6230 0.6217 0.6210
2530.210000 0.6210 0.6204 0.6200 0.6194 0.6190
2536.729560 0.6177 0.6170 0.6164 0.6154 0.6150
2543.249120 0.6137 0.6130 0.6130 0.6130 0.6130
2549.768680 0.6124 0.6120 0.6114 0.6110 0.6097
2556.288240 0.6090 0.6071 0.6060 0.6047 0.6034
2562.807800 0.6024 0.6020 0.6007 0.5994 0.5984
2569.327360 0.5980 0.5968 0.5960 0.5947 0.5927
2575.846920 0.5907 0.5900 0.5894 0.5871 0.5854
2582.366480 0.5831 0.5820 0.5814 0.5797 0.5784
2588.886040 0.5761 0.5737 0.5711 0.5694 0.5684
2595.405600 0.5667 0.5654 0.5650 0.5644 0.5640
2601.925160 0.5627 0.5620 0.5614 0.5604 0.5600
2608.444720 0.5600 0.5600 0.5600 0.5600 0.5600
2614.964280 0.5606 0.5610 0.5616 0.5620 0.5620
2621.483840 0.5633 0.5646 0.5656 0.5679 0.5696
2628.003400 0.5706 0.5710 0.5723 0.5730 0.5736
2634.522960 0.5740 0.5740 0.5746 0.5750 0.5750
2641.042520 0.5750 0.5763 0.5757 0.5750 0.5750
2647.562080 0.5750 0.5750 0.5750 0.5750 0.5763
2654.081640 0.5770 0.5770 0.5770 0.5770 0.5770
2660.601200 0.5770 0.5776 0.5780 0.5780 0.5786
2667.120760 0.5790 0.5803 0.5816 0.5839 0.5856
2673.640320 0.5866 0.5883 0.5921 0.5946 0.5969
2680.159880 0.5993 0.6013 0.6026 0.6036 0.6040
2686.679440 0.6053 0.6060 0.6072 0.6086 0.6103
2693.199000 0.6110 0.6116 0.6126 0.6130 0.6130
2699.718560 0.6130 0.6130 0.6130 0.6124 0.6114
2706.238120 0.6110 0.6110 0.6110 0.6097 0.6084
2712.757680 0.6067 0.6048 0.6040 0.6034 0.6024
2719.277240 0.6020 0.6020 0.6007 0.6000 0.5994
2725.796800 0.5990 0.5984 0.5980 0.5967 0.5954
2732.316360 0.5944 0.5927 0.5920 0.5920 0.5920
2738.835920 0.5914 0.5910 0.5904 0.5894 0.5877
2745.355480 0.5870 0.5864 0.5860 0.5860 0.5860
2751.875040 0.5854 0.5850 0.5838 0.5824 0.5814
2758.394600 0.5810 0.5810 0.5797 0.5790 0.5784
2764.914160 0.5780 0.5774 0.5770 0.5757 0.5750
2771.433720 0.5744 0.5721 0.5710 0.5704 0.5700
2777.953280 0.5700 0.5694 0.5690 0.5684 0.5667
2784.472840 0.5654 0.5644 0.5640 0.5640 0.5640
2790.992400 0.5627 0.5620 0.5620 0.5620 0.5614
2797.511960 0.5616 0.5620 0.5614 0.5610 0.5610
2804.031520 0.5604 0.5600 0.5588 0.5580 0.5580
2810.551080 0.5580 0.5580 0.5580 0.5580 0.5593
2817.070640 0.5600 0.5606 0.5610 0.5610 0.5610
2823.590200 0.5616 0.5620 0.5633 0.5646 0.5650
2830.109760 0.5650 0.5650 0.5650 0.5650 0.5650
2836.629320 0.5650 0.5650 0.5650 0.5650 0.5644
2843.148880 0.5640 0.5640 0.5640 0.5627 0.5620
2849.668440 0.5633 0.5653 0.5660 0.5660 0.5673
2856.188000 0.5680 0.5680 0.5680 0.5680 0.5680
2862.707560 0.5680 0.5680 0.5680 0.5667 0.5660
2869.227120 0.5654 0.5644 0.5640 0.5646 0.5650
2875.746680 0.5650 0.5656 0.5660 0.5673 0.5693
2882.266240 0.5706 0.5710 0.5722 0.5730 0.5717
2888.785800 0.5710 0.5710 0.5710 0.5704 0.5700
2895.305360 0.5700 0.5700 0.5694 0.5690 0.5671
2901.824920 0.5660 0.5660 0.5660 0.5660 0.5660
2908.344480 0.5654 0.5644 0.5628 0.5595 0.5542
2914.864040 0.5470 0.5415 0.5394 0.5371 0.5335
2921.383600 0.5307 0.5281 0.5270 0.5251 0.5234
2927.903160 0.5211 0.5169 0.5100 0.5045 0.5011
2934.422720 0.4950 0.4908 0.4912 0.4926 0.4974
2940.942280 0.5019 0.5074 0.5125 0.5146 0.5163
2947.461840 0.5176 0.5186 0.5190 0.5184 0.5174
2953.981400 0.5151 0.5090 0.5054 0.5037 0.5024
2960.500960 0.5014 0.5004 0.4981 0.4951 0.4927
2967.020520 0.4895 0.4861 0.4844 0.4827 0.4764
2973.540080 0.4692 0.4639 0.4583 0.4529 0.4504
2980.059640 0.4506 0.4529 0.4571 0.4640 0.4708
2986.579200 0.4774 0.4856 0.4959 0.5019 0.5068
2993.098760 0.5121 0.5171 0.5240 0.5314 0.5371
2999.618320 0.5428 0.5475 0.5502 0.5523 0.5555
3006.137880 0.5601 0.5633 0.5646 0.5650 0.5650
3012.657440 0.5650 0.5650 0.5644 0.5627 0.5614
3019.177000 0.5610 0.5604 0.5587 0.5555 0.5527
3025.696560 0.5501 0.5477 0.5451 0.5421 0.5397
3032.216120 0.5371 0.5335 0.5295 0.5274 0.5264
3038.735680 0.5241 0.5192 0.5133 0.5072 0.5031
3045.255240 0.5014 0.4985 0.4926 0.4818 0.4707
3051.774800 0.4645 0.4580 0.4500 0.4382 0.4273
3058.294360 0.4177 0.4058 0.3941 0.3831 0.3709
3064.813920 0.3585 0.3534 0.3530 0.3536 0.3559
3071.333480 0.3583 0.3615 0.3724 0.3843 0.3949
3077.853040 0.4046 0.4161 0.4297 0.4444 0.4582
3084.372600 0.4718 0.4845 0.4965 0.5085 0.5193
3090.892160 0.5286 0.5370 0.5431 0.5475 0.5490
3097.411720 0.5521 0.5565 0.5593 0.5600 0.5613
3103.931280 0.5633 0.5646 0.5656 0.5660 0.5660
3110.450840 0.5673 0.5680 0.5680 0.5680 0.5686
3116.970400 0.5690 0.5690 0.5696 0.5700 0.5706
3123.489960 0.5723 0.5743 0.5769 0.5786 0.5790
3130.009520 0.5790 0.5784 0.5774 0.5726 0.5662
3136.529080 0.5621 0.5610 0.5610 0.5604 0.5600
3143.048640 0.5600 0.5587 0.5568 0.5529 0.5466
3149.568200 0.5409 0.5371 0.5335 0.5295 0.5255
3156.087760 0.5234 0.5224 0.5201 0.5177 0.5157
3162.607320 0.5137 0.5117 0.5104 0.5100 0.5081
3169.126880 0.5064 0.5060 0.5054 0.5050 0.5037
3175.646440 0.5024 0.5020 0.5014 0.5004 0.4975
3182.166000 0.4960 0.4948 0.4934 0.4930 0.4911
3188.685560 0.4887 0.4867 0.4854 0.4844 0.4827
3195.205120 0.4814 0.4810 0.4804 0.4781 0.4732
3201.724680 0.4691 0.4674 0.4657 0.4637 0.4611
3208.244240 0.4562 0.4521 0.4504 0.4500 0.4481
3214.763800 0.4439 0.4363 0.4299 0.4242 0.4195
3221.283360 0.4155 0.4115 0.4069 0.4025 0.3960
3227.802920 0.3899 0.3842 0.3795 0.3749 0.3705
3234.322480 0.3640 0.3541 0.3444 0.3379 0.3335
3240.842040 0.3263 0.3186 0.3110 0.3049 0.3017
3247.361600 0.2991 0.2930 0.2844 0.2741 0.2681
3253.881160 0.2651 0.2609 0.2546 0.2495 0.2449
3260.400720 0.2411 0.2394 0.2384 0.2380 0.2380
3266.920280 0.2386 0.2390 0.2396 0.2413 0.2426
3273.439840 0.2436 0.2465 0.2499 0.2516 0.2570
3279.959400 0.2663 0.2763 0.2825 0.2871 0.2903
3286.478960 0.2960 0.3034 0.3116 0.3169 0.3218
3292.998520 0.3284 0.3348 0.3420 0.3494 0.3558
3299.518080 0.3611 0.3692 0.3761 0.3793 0.3825
3306.037640 0.3878 0.3938 0.3991 0.4035 0.4100
3312.557200 0.4136 0.4165 0.4192 0.4200 0.4200
3319.076760 0.4187 0.4180 0.4180 0.4180 0.4174
3325.596320 0.4151 0.4078 0.3984 0.3937 0.3943
3332.115880 0.3956 0.3966 0.3989 0.4006 0.4029
3338.635440 0.4090 0.4170 0.4250 0.4299 0.4360
3345.155000 0.4447 0.4530 0.4629 0.4720 0.4838
3351.674560 0.4959 0.5019 0.5055 0.5120 0.5182
3358.194120 0.5225 0.5284 0.5348 0.5408 0.5443
3364.713680 0.5463 0.5476 0.5486 0.5503 0.5510
3371.233240 0.5516 0.5520 0.5526 0.5530 0.5530
3377.752800 0.5530 0.5536 0.5540 0.5534 0.5524
3384.272360 0.5514 0.5497 0.5490 0.5484 0.5474
3390.791920 0.5470 0.5451 0.5434 0.5417 0.5410
3397.311480 0.5404 0.5400 0.5400 0.5400 0.5400
3403.831040 0.5394 0.5390 0.5390 0.5390 0.5390
3410.350600 0.5390 0.5377 0.5370 0.5370 0.5370
3416.870160 0.5364 0.5360 0.5360 0.5354 0.5350
3423.389720 0.5344 0.5327 0.5314 0.5304 0.5287
3429.909280 0.5280 0.5274 0.5264 0.5247 0.5234
3436.428840 0.5224 0.5207 0.5169 0.5087 0.5019
3442.948400 0.4987 0.4930 0.4838 0.4693 0.4517
3449.467960 0.4318 0.4095 0.3878 0.3681 0.3485
3455.987520 0.3254 0.3148 0.3140 0.3153 0.3210
3462.507080 0.3316 0.3473 0.3703 0.3957 0.4238
3469.026640 0.4506 0.4750 0.4971 0.5169 0.5341
3475.546200 0.5501 0.5635 0.5749 0.5853 0.5946
3482.065760 0.6018 0.6084 0.6141 0.6191 0.6235
3488.585320 0.6281 0.6319 0.6361 0.6405 0.6464
3495.104880 0.6503 0.6529 0.6546 0.6575 0.6615
3501.624440 0.6649 0.6685 0.6731 0.6769 0.6799
3508.144000 0.6835 0.6869 0.6905 0.6951 0.6976
3514.663560 0.6993 0.7000 0.7006 0.7016 0.7039
3521.183120 0.7056 0.7085 0.7119 0.7143 0.7169
3527.702680 0.7186 0.7203 0.7216 0.7239 0.7256
3534.222240 0.7266 0.7270 0.7282 0.7290 0.7296
3540.741800 0.7313 0.7333 0.7346 0.7356 0.7373
3547.261360 0.7393 0.7412 0.7426 0.7436 0.7440
3553.780920 0.7453 0.7473 0.7493 0.7506 0.7523
3560.300480 0.7543 0.7562 0.7570 0.7583 0.7590
3566.820040 0.7596 0.7600 0.7600 0.7606 0.7629
3573.339600 0.7659 0.7682 0.7709 0.7726 0.7736
3579.859160 0.7740 0.7759 0.7789 0.7806 0.7816
3586.378720 0.7833 0.7840 0.7852 0.7860 0.7866
3592.898280 0.7889 0.7919 0.7936 0.7971 0.8003
3599.417840 0.8010 0.8016 0.8020 0.8026 0.8030
3605.937400 0.8030 0.8036 0.8040 0.8053 0.8066
3612.456960 0.8076 0.8099 0.8135 0.8169 0.8180
3618.976520 0.8186 0.8196 0.8206 0.8229 0.8246
3625.496080 0.8250 0.8262 0.8270 0.8276 0.8286
3632.015640 0.8303 0.8323 0.8343 0.8350 0.8356
3638.535200 0.8366 0.8370 0.8389 0.8406 0.8410
3645.054760 0.8410 0.8416 0.8420 0.8420 0.8420
3651.574320 0.8433 0.8446 0.8456 0.8460 0.8454
3658.093880 0.8450 0.8444 0.8440 0.8446 0.8450
3664.613440 0.8469 0.8480 0.8480 0.8480 0.8467
3671.133000 0.8460 0.8454 0.8450 0.8450 0.8456
3677.652560 0.8473 0.8480 0.8480 0.8486 0.8490
3684.172120 0.8490 0.8484 0.8467 0.8454 0.8444
3690.691680 0.8440 0.8446 0.8469 0.8493 0.8519
3697.211240 0.8536 0.8553 0.8566 0.8570 0.8570
3703.730800 0.8570 0.8576 0.8586 0.8590 0.8590
3710.250360 0.8590 0.8584 0.8580 0.8574 0.8570
3716.769920 0.8570 0.8570 0.8570 0.8570 0.8570
3723.289480 0.8570 0.8570 0.8570 0.8570 0.8570
3729.809040 0.8570 0.8570 0.8570 0.8570 0.8570
3736.328600 0.8570 0.8570 0.8564 0.8560 0.8560
3742.848160 0.8560 0.8560 0.8560 0.8560 0.8560
3749.367720 0.8560 0.8560 0.8560 0.8560 0.8566
3755.887280 0.8583 0.8603 0.8610 0.8610 0.8610
3762.406840 0.8610 0.8610 0.8610 0.8610 0.8610
3768.926400 0.8610 0.8610 0.8598 0.8590 0.8590
3775.445960 0.8590 0.8590 0.8590 0.8590 0.8590
3781.965520 0.8590 0.8590 0.8590 0.8603 0.8610
3788.485080 0.8597 0.8590 0.8590 0.8590 0.8590
3795.004640 0.8590 0.8590 0.8602 0.8597 0.8590
3801.524200 0.8590 0.8584 0.8580 0.8580
##END=
