##TITLE=ACETIC ACID, POTASSIUM SALT
##JCAMP-DX=4.24
##DATA TYPE=INFRARED SPECTRUM
##CLASS=COBLENTZ III
##ORIGIN=DOW CHEMICAL COMPANY
##OWNER=COBLENTZ SOCIETY
Collection (C) 2018 copyright by the U.S. Secretary of Commerce
on behalf of the United States of America. All rights reserved.
##DATE=1976/08/22
##NAMES=POTASSIUM ACETATE
##MOLFORM=C2 H3 O2 K
##SOURCE REFERENCE=COBLENTZ NO. 10647
##$NIST ID=B6010647
##$NIST SOURCE=COBLENTZ
##$NIST IMAGE=cob10647
##SPECTROMETER/DATA SYSTEM=PERKIN-ELMER 283
##STATE=SOLID (KBr DISC)
##PATH LENGTH=
$$ SEE ALSO SPECTRUM NO. 2038
##SAMPLING PROCEDURE=TRANSMISSION
##RESOLUTION=4
##DATA PROCESSING=DIGITIZED BY NIST FROM HARD COPY (FROM TWO SEGMENTS)
##XUNITS=1/CM
##YUNITS=TRANSMITTANCE
##XFACTOR=1.000000
##YFACTOR=1
##DELTAX=1.146136
##FIRSTX=201.719
##LASTX=4005.75
##FIRSTY=0.049
##MAXX=4005.75
##MINX=201.719
##MAXY=0.971
##MINY=0.004
##NPOINTS=3320
##XYDATA=(X++(Y..Y))
201.719000 0.0490 0.0490 0.0490 0.0500 0.0500
207.449681 0.0500 0.0500 0.0520 0.0530 0.0530
213.180362 0.0530 0.0540 0.0540 0.0550 0.0560
218.911044 0.0570 0.0570 0.0580 0.0580 0.0580
224.641725 0.0580 0.0580 0.0580 0.0600 0.0600
230.372406 0.0610 0.0610 0.0610 0.0620 0.0630
236.103087 0.0700 0.0750 0.0880 0.1000 0.1030
241.833768 0.1130 0.1150 0.1200 0.1240 0.1329
247.564450 0.1410 0.1570 0.1710 0.1850 0.2099
253.295131 0.2200 0.2320 0.2420 0.2539 0.2659
259.025812 0.2810 0.2910 0.3020 0.3050 0.3100
264.756493 0.3120 0.3210 0.3319 0.3489 0.4295
270.487175 0.4660 0.4820 0.4900 0.4910 0.4960
276.217856 0.5000 0.5010 0.5020 0.5100 0.5150
281.948537 0.5330 0.5410 0.5510 0.5600 0.5630
287.679218 0.5700 0.5740 0.5800 0.6049 0.6110
293.409899 0.6200 0.6260 0.6400 0.6440 0.6550
299.140581 0.6630 0.6670 0.6700 0.6780 0.6800
304.871262 0.6810 0.6890 0.6940 0.7020 0.7070
310.601943 0.7140 0.7230 0.7270 0.7330 0.7400
316.332624 0.7410 0.7500 0.7530 0.7550 0.7610
322.063305 0.7660 0.7700 0.7720 0.7800 0.7830
327.793987 0.7850 0.7880 0.8010 0.8100 0.8120
333.524668 0.8140 0.8170 0.8220 0.8270 0.8320
339.255349 0.8400 0.8410 0.8510 0.8520 0.8550
344.986030 0.8600 0.8610 0.8670 0.8720 0.8760
350.716712 0.8810 0.8820 0.8830 0.8850 0.8900
356.447393 0.8920 0.8930 0.8940 0.8980 0.9020
362.178074 0.9030 0.9060 0.9100 0.9120 0.9160
367.908755 0.9170 0.9200 0.9210 0.9220 0.9240
373.639436 0.9260 0.9280 0.9300 0.9320 0.9330
379.370118 0.9330 0.9360 0.9370 0.9370 0.9380
385.100799 0.9380 0.9380 0.9380 0.9380 0.9380
390.831480 0.9380 0.9380 0.9380 0.9390 0.9390
396.562161 0.9380 0.9370 0.9350 0.9300 0.9290
402.292842 0.9290 0.9290 0.9300 0.9300 0.9300
408.023524 0.9300 0.9300 0.9320 0.9320 0.9330
413.754205 0.9340 0.9350 0.9350 0.9360 0.9360
419.484886 0.9360 0.9360 0.9360 0.9360 0.9360
425.215567 0.9360 0.9360 0.9350 0.9340 0.9320
430.946249 0.9320 0.9300 0.9280 0.9260 0.9260
436.676930 0.9250 0.9250 0.9220 0.9210 0.9200
442.407611 0.9170 0.9120 0.9080 0.9010 0.8950
448.138292 0.8820 0.8740 0.8650 0.8620 0.8530
453.868973 0.8300 0.7970 0.7640 0.6971 0.6800
459.599655 0.6790 0.6800 0.6820 0.6949 0.7239
465.330336 0.7511 0.8410 0.8640 0.8750 0.8860
471.061017 0.9000 0.9030 0.9110 0.9150 0.9180
476.791698 0.9200 0.9240 0.9320 0.9390 0.9410
482.522379 0.9420 0.9430 0.9440 0.9450 0.9460
488.253061 0.9470 0.9490 0.9490 0.9500 0.9500
493.983742 0.9510 0.9510 0.9510 0.9500 0.9500
499.714423 0.9500 0.9500 0.9500 0.9500 0.9500
505.445104 0.9500 0.9500 0.9510 0.9510 0.9510
511.175786 0.9520 0.9520 0.9520 0.9510 0.9510
516.906467 0.9510 0.9510 0.9510 0.9510 0.9510
522.637148 0.9510 0.9510 0.9500 0.9500 0.9500
528.367829 0.9500 0.9500 0.9500 0.9500 0.9500
534.098510 0.9500 0.9500 0.9500 0.9500 0.9500
539.829192 0.9500 0.9500 0.9500 0.9500 0.9500
545.559873 0.9510 0.9510 0.9510 0.9520 0.9520
551.290554 0.9510 0.9510 0.9510 0.9510 0.9510
557.021235 0.9510 0.9500 0.9500 0.9500 0.9500
562.751916 0.9500 0.9510 0.9510 0.9510 0.9500
568.482598 0.9490 0.9460 0.9440 0.9440 0.9440
574.213279 0.9430 0.9420 0.9410 0.9410 0.9390
579.943960 0.9370 0.9360 0.9360 0.9340 0.9320
585.674641 0.9300 0.9290 0.9290 0.9280 0.9260
591.405323 0.9240 0.9220 0.9210 0.9200 0.9180
597.136004 0.9160 0.8452 0.8061 0.8010 0.7960
602.866685 0.7900 0.7870 0.7820 0.7800 0.7680
608.597366 0.7420 0.7191 0.6682 0.6252 0.5991
614.328047 0.5729 0.4940 0.4190 0.3980 0.3770
620.058729 0.4109 0.4509 0.4819 0.5198 0.6245
625.789410 0.6800 0.7020 0.7100 0.7200 0.7210
631.520091 0.7190 0.7140 0.7110 0.7070 0.7020
637.250772 0.6890 0.6690 0.6310 0.5760 0.5191
642.981453 0.3832 0.2463 0.2081 0.1681 0.1142
648.712135 0.1141 0.2141 0.4119 0.4400 0.4819
654.442816 0.6017 0.6419 0.6928 0.7388 0.7609
660.173497 0.7720 0.7900 0.8020 0.8140 0.8230
665.904178 0.8250 0.8300 0.8310 0.8360 0.8420
671.634859 0.8430 0.8500 0.8500 0.8510 0.8530
677.365541 0.8560 0.8590 0.8600 0.8620 0.8640
683.096222 0.8660 0.8690 0.8720 0.8740 0.8790
688.826903 0.8790 0.8810 0.8810 0.8820 0.8820
694.557584 0.8830 0.8840 0.8850 0.8850 0.8900
700.288266 0.9010 0.9070 0.9120 0.9130 0.9160
706.018947 0.9170 0.9170 0.9170 0.9180 0.9180
711.749628 0.9180 0.9180 0.9190 0.9200 0.9210
717.480309 0.9220 0.9220 0.9240 0.9240 0.9240
723.210990 0.9250 0.9250 0.9270 0.9270 0.9290
728.941672 0.9290 0.9290 0.9290 0.9290 0.9300
734.672353 0.9320 0.9330 0.9340 0.9340 0.9350
740.403034 0.9370 0.9380 0.9380 0.9380 0.9390
746.133715 0.9390 0.9390 0.9380 0.9380 0.9380
751.864396 0.9380 0.9380 0.9380 0.9380 0.9380
757.595078 0.9380 0.9380 0.9380 0.9380 0.9380
763.325759 0.9380 0.9380 0.9390 0.9390 0.9420
769.056440 0.9420 0.9420 0.9420 0.9430 0.9430
774.787121 0.9440 0.9450 0.9450 0.9460 0.9470
780.517803 0.9470 0.9470 0.9490 0.9490 0.9500
786.248484 0.9500 0.9500 0.9500 0.9510 0.9510
791.979165 0.9510 0.9510 0.9520 0.9520 0.9520
797.709846 0.9520 0.9530 0.9530 0.9540 0.9550
803.440527 0.9560 0.9580 0.9590 0.9600 0.9600
809.171209 0.9600 0.9610 0.9610 0.9610 0.9610
814.901890 0.9610 0.9620 0.9620 0.9620 0.9630
820.632571 0.9640 0.9640 0.9640 0.9660 0.9660
826.363252 0.9660 0.9660 0.9670 0.9680 0.9680
832.093933 0.9680 0.9690 0.9700 0.9700 0.9700
837.824615 0.9700 0.9700 0.9700 0.9700 0.9700
843.555296 0.9700 0.9700 0.9700 0.9700 0.9710
849.285977 0.9710 0.9710 0.9700 0.9700 0.9700
855.016658 0.9700 0.9700 0.9710 0.9710 0.9710
860.747340 0.9700 0.9700 0.9700 0.9700 0.9700
866.478021 0.9700 0.9700 0.9700 0.9700 0.9700
872.208702 0.9700 0.9690 0.9670 0.9660 0.9640
877.939383 0.9640 0.9640 0.9630 0.9640 0.9660
883.670064 0.9660 0.9640 0.9630 0.9620 0.9620
889.400746 0.9620 0.9620 0.9610 0.9610 0.9610
895.131427 0.9610 0.9600 0.9600 0.9600 0.9600
900.862108 0.9580 0.9550 0.9520 0.9510 0.9500
906.592789 0.9430 0.9410 0.9390 0.9320 0.9250
912.323470 0.9110 0.9070 0.9010 0.8930 0.8810
918.054152 0.8670 0.8331 0.8120 0.7901 0.6216
923.784833 0.4509 0.4069 0.3621 0.4770 0.5110
929.515514 0.6539 0.7039 0.8647 0.8909 0.9020
935.246195 0.9120 0.9210 0.9300 0.9330 0.9340
940.976877 0.9370 0.9390 0.9410 0.9390 0.9390
946.707558 0.9380 0.9380 0.9380 0.9370 0.9350
952.438239 0.9350 0.9340 0.9330 0.9330 0.9330
958.168920 0.9320 0.9320 0.9300 0.9300 0.9290
963.899601 0.9290 0.9290 0.9280 0.9280 0.9280
969.630283 0.9280 0.9270 0.9260 0.9240 0.9200
975.360964 0.9190 0.9180 0.9170 0.9160 0.9120
981.091645 0.9080 0.9060 0.9020 0.9000 0.8940
986.822326 0.8920 0.8900 0.8860 0.8790 0.8720
992.553007 0.8660 0.8610 0.8510 0.8410 0.8260
998.283689 0.8160 0.8100 0.8010 0.7960 0.7890
1004.014370 0.7659 0.7449 0.7069 0.6720 0.6330
1009.745051 0.5960 0.5600 0.4931 0.4471 0.3991
1015.475732 0.3570 0.3570 0.3750 0.4190 0.4540
1021.206414 0.5100 0.5410 0.6119 0.6449 0.6948
1026.937095 0.7230 0.7400 0.7470 0.7490 0.7490
1032.667776 0.7440 0.7400 0.7360 0.7300 0.7220
1038.398457 0.7019 0.6779 0.6329 0.5880 0.5430
1044.129138 0.4990 0.4141 0.4140 0.4469 0.4630
1049.859820 0.4881 0.5202 0.6400 0.6560 0.6720
1055.590501 0.6940 0.7240 0.7719 0.8009 0.8150
1061.321182 0.8310 0.8420 0.8500 0.8530 0.8610
1067.051863 0.8670 0.8700 0.8750 0.8760 0.8810
1072.782544 0.8830 0.8860 0.8910 0.8920 0.8940
1078.513226 0.8960 0.8960 0.8980 0.8980 0.8980
1084.243907 0.8990 0.8990 0.9000 0.9000 0.9000
1089.974588 0.9000 0.9000 0.9000 0.9000 0.9000
1095.705269 0.9000 0.8990 0.8990 0.8990 0.8990
1101.435950 0.8980 0.8960 0.8960 0.8950 0.8940
1107.166632 0.8940 0.8940 0.8930 0.8930 0.8930
1112.897313 0.8930 0.8930 0.8930 0.8930 0.8930
1118.627994 0.8930 0.8930 0.8930 0.8930 0.8930
1124.358675 0.8940 0.8940 0.8950 0.8950 0.8960
1130.089357 0.9000 0.9020 0.9070 0.9100 0.9120
1135.820038 0.9170 0.9190 0.9200 0.9200 0.9200
1141.550719 0.9200 0.9210 0.9210 0.9220 0.9220
1147.281400 0.9220 0.9240 0.9240 0.9220 0.9220
1153.012081 0.9200 0.9200 0.9180 0.9170 0.9170
1158.742763 0.9180 0.9180 0.9190 0.9200 0.9200
1164.473444 0.9200 0.9200 0.9200 0.9200 0.9200
1170.204125 0.9200 0.9200 0.9200 0.9200 0.9200
1175.934806 0.9200 0.9200 0.9200 0.9200 0.9200
1181.665487 0.9210 0.9210 0.9220 0.9210 0.9200
1187.396169 0.9200 0.9190 0.9200 0.9200 0.9200
1193.126850 0.9210 0.9210 0.9210 0.9220 0.9220
1198.857531 0.9220 0.9220 0.9220 0.9220 0.9220
1204.588212 0.9220 0.9220 0.9240 0.9250 0.9250
1210.318894 0.9250 0.9250 0.9250 0.9260 0.9260
1216.049575 0.9260 0.9260 0.9250 0.9250 0.9250
1221.780256 0.9250 0.9240 0.9240 0.9210 0.9200
1227.510937 0.9190 0.9180 0.9180 0.9160 0.9150
1233.241618 0.9110 0.9100 0.9080 0.9040 0.9020
1238.972300 0.9010 0.8940 0.8930 0.8920 0.8910
1244.702981 0.8890 0.8850 0.8850 0.8830 0.8830
1250.433662 0.8820 0.8810 0.8810 0.8810 0.8810
1256.164343 0.8810 0.8810 0.8810 0.8820 0.8820
1261.895024 0.8830 0.8830 0.8830 0.8830 0.8850
1267.625706 0.8850 0.8860 0.8860 0.8860 0.8860
1273.356387 0.8870 0.8870 0.8900 0.8900 0.8900
1279.087068 0.8910 0.8910 0.8920 0.8930 0.8930
1284.817749 0.8920 0.8920 0.8910 0.8900 0.8820
1290.548431 0.8720 0.8670 0.8650 0.8650 0.8640
1296.279112 0.8640 0.8640 0.8640 0.8650 0.8650
1302.009793 0.8650 0.8650 0.8650 0.8640 0.8620
1307.740474 0.8610 0.8610 0.8600 0.8600 0.8590
1313.471155 0.8580 0.8560 0.8530 0.8510 0.8430
1319.201837 0.8350 0.8320 0.8300 0.8240 0.8210
1324.932518 0.8150 0.8100 0.8020 0.8000 0.7960
1330.663199 0.7910 0.7900 0.7480 0.7160 0.7050
1336.393880 0.7051 0.7230 0.7270 0.7400 0.7410
1342.124561 0.7400 0.7370 0.7320 0.7300 0.7220
1347.855243 0.7200 0.7200 0.7230 0.7280 0.7270
1353.585924 0.7240 0.7210 0.7130 0.7110 0.7030
1359.316605 0.6950 0.6899 0.6730 0.6700 0.6610
1365.047286 0.6430 0.6400 0.6300 0.6140 0.6030
1370.777968 0.5970 0.5910 0.5800 0.5710 0.5610
1376.508649 0.5520 0.5410 0.5250 0.4741 0.4620
1382.239330 0.4550 0.4419 0.4030 0.3950 0.3860
1387.970011 0.3740 0.3460 0.3120 0.3010 0.2880
1393.700692 0.2830 0.2759 0.2439 0.2200 0.1970
1399.431374 0.1860 0.1340 0.0930 0.0610 0.0530
1405.162055 0.0409 0.0230 0.0180 0.0140 0.0140
1410.892736 0.0130 0.0130 0.0130 0.0120 0.0120
1416.623417 0.0120 0.0120 0.0120 0.0110 0.0110
1422.354098 0.0110 0.0120 0.0140 0.0160 0.0180
1428.084780 0.0190 0.0200 0.0210 0.0220 0.0230
1433.815461 0.0260 0.0270 0.0280 0.0280 0.0290
1439.546142 0.0300 0.0310 0.0360 0.0370 0.0380
1445.276823 0.0400 0.0410 0.0440 0.0530 0.0600
1451.007505 0.0691 0.0820 0.0871 0.1070 0.1080
1456.738186 0.1350 0.1630 0.2610 0.2700 0.2810
1462.468867 0.2910 0.2920 0.3031 0.3351 0.3630
1468.199548 0.3810 0.4050 0.4140 0.4320 0.4410
1473.930229 0.4540 0.4620 0.4650 0.4710 0.4720
1479.660911 0.4770 0.4800 0.4800 0.4820 0.4830
1485.391592 0.4840 0.4910 0.4930 0.4990 0.5030
1491.122273 0.5060 0.5070 0.5070 0.5070 0.5070
1496.852954 0.5070 0.5070 0.5060 0.5030 0.5020
1502.583635 0.5010 0.4990 0.4980 0.4920 0.4830
1508.314317 0.4820 0.4760 0.4730 0.4680 0.4630
1514.044998 0.4550 0.4510 0.4420 0.4320 0.4220
1519.775679 0.4130 0.4060 0.3990 0.3910 0.3810
1525.506360 0.3710 0.3620 0.3530 0.3430 0.3400
1531.237041 0.3169 0.2939 0.2750 0.2620 0.2550
1536.967723 0.2520 0.2430 0.1930 0.1420 0.1260
1542.698404 0.1210 0.1180 0.1090 0.1010 0.0990
1548.429085 0.0870 0.0740 0.0650 0.0520 0.0470
1554.159766 0.0349 0.0220 0.0190 0.0140 0.0130
1559.890448 0.0110 0.0100 0.0090 0.0090 0.0070
1565.621129 0.0070 0.0070 0.0070 0.0070 0.0090
1571.351810 0.0090 0.0090 0.0090 0.0090 0.0070
1577.082491 0.0070 0.0050 0.0050 0.0040 0.0040
1582.813172 0.0050 0.0050 0.0060 0.0060 0.0060
1588.543854 0.0070 0.0070 0.0070 0.0070 0.0070
1594.274535 0.0070 0.0070 0.0070 0.0070 0.0070
1600.005216 0.0070 0.0070 0.0070 0.0090 0.0090
1605.735897 0.0100 0.0120 0.0190 0.0210 0.0240
1611.466578 0.0320 0.0360 0.0380 0.0400 0.0410
1617.197260 0.0430 0.0480 0.0550 0.0610 0.0750
1622.927941 0.0830 0.0900 0.1000 0.1040 0.1140
1628.658622 0.1220 0.1400 0.1430 0.1600 0.1740
1634.389303 0.1821 0.2101 0.2240 0.2330 0.2420
1640.119985 0.2510 0.2610 0.2780 0.2830 0.2920
1645.850666 0.3010 0.3110 0.3220 0.3270 0.3430
1651.581347 0.3510 0.3650 0.3700 0.3730 0.3800
1657.312028 0.3830 0.3900 0.4000 0.4040 0.4120
1663.042709 0.4150 0.4220 0.4300 0.4330 0.4410
1668.773391 0.4480 0.4540 0.4600 0.4680 0.4710
1674.504072 0.4730 0.4800 0.4820 0.4900 0.4930
1680.234753 0.5000 0.5021 0.5150 0.5200 0.5230
1685.965434 0.5300 0.5320 0.5340 0.5360 0.5400
1691.696115 0.5420 0.5500 0.5510 0.5520 0.5560
1697.426797 0.5600 0.5630 0.5680 0.5700 0.5770
1703.157478 0.5790 0.5800 0.5820 0.5840 0.5900
1708.888159 0.5920 0.6000 0.6010 0.6050 0.6100
1714.618840 0.6110 0.6160 0.6190 0.6210 0.6210
1720.349522 0.6240 0.6330 0.6340 0.6390 0.6390
1726.080203 0.6420 0.6450 0.6480 0.6500 0.6520
1731.810884 0.6590 0.6600 0.6600 0.6610 0.6610
1737.541565 0.6630 0.6650 0.6700 0.6730 0.6760
1743.272246 0.6780 0.6800 0.6800 0.6810 0.6820
1749.002928 0.6840 0.6860 0.6900 0.6910 0.6910
1754.733609 0.6940 0.7010 0.7020 0.7080 0.7100
1760.464290 0.7110 0.7120 0.7160 0.7190 0.7190
1766.194971 0.7200 0.7200 0.7210 0.7220 0.7240
1771.925652 0.7270 0.7280 0.7290 0.7310 0.7320
1777.656334 0.7330 0.7340 0.7340 0.7360 0.7380
1783.387015 0.7400 0.7420 0.7420 0.7460 0.7480
1789.117696 0.7490 0.7500 0.7500 0.7510 0.7510
1794.848377 0.7530 0.7530 0.7530 0.7530 0.7540
1800.579059 0.7540 0.7550 0.7560 0.7590 0.7590
1806.309740 0.7590 0.7610 0.7610 0.7620 0.7630
1812.040421 0.7630 0.7640 0.7640 0.7640 0.7650
1817.771102 0.7660 0.7670 0.7670 0.7680 0.7700
1823.501783 0.7700 0.7700 0.7700 0.7700 0.7700
1829.232465 0.7700 0.7700 0.7680 0.7670 0.7670
1834.963146 0.7670 0.7670 0.7670 0.7680 0.7680
1840.693827 0.7700 0.7710 0.7720 0.7720 0.7730
1846.424508 0.7750 0.7780 0.7790 0.7800 0.7810
1852.155189 0.7810 0.7820 0.7830 0.7840 0.7840
1857.885871 0.7850 0.7870 0.7880 0.7890 0.7890
1863.616552 0.7890 0.7890 0.7890 0.7880 0.7880
1869.347233 0.7880 0.7880 0.7890 0.7900 0.7900
1875.077914 0.7900 0.7910 0.7910 0.7910 0.7910
1880.808596 0.7910 0.7920 0.7920 0.7920 0.7920
1886.539277 0.7920 0.7920 0.7920 0.7920 0.7930
1892.269958 0.7930 0.7930 0.7930 0.7930 0.7950
1898.000639 0.7950 0.7950 0.7960 0.7960 0.7960
1903.731320 0.7960 0.7960 0.7960 0.7960 0.7960
1909.462002 0.7960 0.7960 0.7960 0.7960 0.7960
1915.192683 0.7960 0.7960 0.7960 0.7960 0.7960
1920.923364 0.7960 0.7960 0.7960 0.7960 0.7960
1926.654045 0.7960 0.7960 0.7960 0.7950 0.7930
1932.384726 0.7920 0.7920 0.7910 0.7910 0.7910
1938.115408 0.7910 0.7910 0.7920 0.7920 0.7960
1943.846089 0.7970 0.7980 0.7990 0.7990 0.7990
1949.576770 0.7990 0.7990 0.8000 0.8010 0.8010
1955.307451 0.8010 0.8010 0.8020 0.8020 0.8020
1961.038132 0.8020 0.8020 0.8020 0.8020 0.8020
1966.768814 0.8020 0.8020 0.8020 0.8020 0.8020
1972.499495 0.8020 0.8020 0.8020 0.8020 0.8020
1978.230176 0.8020 0.8020 0.8010 0.8010 0.8010
1983.960857 0.8000 0.7990 0.7990 0.7990 0.7990
1989.691539 0.7980 0.7980 0.7980 0.7970 0.7970
1995.422220 0.7970 0.7970 0.7970 0.7970 0.7960
2001.152901 0.7960 0.7960 0.7960 0.7960 0.7960
2006.883582 0.7960 0.7960 0.7960 0.7960 0.7960
2012.614263 0.7960 0.7960 0.7960 0.7960 0.7960
2018.344945 0.7960 0.7960 0.7960 0.7960 0.7960
2024.075626 0.7960 0.7959 0.7954 0.7950 0.7950
2029.806307 0.7950 0.7950 0.7950 0.7950 0.7948
2035.536988 0.7938 0.7930 0.7930 0.7930 0.7930
2041.267669 0.7930 0.7930 0.7930 0.7930 0.7932
2046.998351 0.7942 0.7950 0.7950 0.7950 0.7950
2052.729032 0.7950 0.7950 0.7951 0.7956 0.7960
2058.459713 0.7960 0.7960 0.7960 0.7960 0.7960
2064.190394 0.7960 0.7960 0.7962 0.7967 0.7970
2069.921076 0.7970 0.7970 0.7970 0.7970 0.7970
2075.651757 0.7970 0.7970 0.7970 0.7970 0.7968
2081.382438 0.7963 0.7960 0.7960 0.7958 0.7953
2087.113119 0.7950 0.7950 0.7952 0.7957 0.7960
2092.843800 0.7960 0.7960 0.7960 0.7960 0.7960
2098.574482 0.7960 0.7960 0.7962 0.7967 0.7970
2104.305163 0.7970 0.7970 0.7970 0.7970 0.7970
2110.035844 0.7967 0.7962 0.7960 0.7960 0.7960
2115.766525 0.7960 0.7960 0.7960 0.7960 0.7960
2121.497206 0.7960 0.7960 0.7960 0.7960 0.7960
2127.227888 0.7960 0.7963 0.7968 0.7970 0.7970
2132.958569 0.7970 0.7970 0.7970 0.7970 0.7973
2138.689250 0.7978 0.7980 0.7980 0.7980 0.7980
2144.419931 0.7980 0.7980 0.7980 0.7980 0.7980
2150.150613 0.7980 0.7980 0.7980 0.7980 0.7980
2155.881294 0.7980 0.7980 0.7980 0.7980 0.7980
2161.611975 0.7980 0.7976 0.7971 0.7970 0.7970
2167.342656 0.7970 0.7970 0.7970 0.7970 0.7970
2173.073337 0.7970 0.7970 0.7970 0.7970 0.7970
2178.804019 0.7974 0.7979 0.7980 0.7980 0.7984
2184.534700 0.7989 0.7995 0.8000 0.8000 0.8000
2190.265381 0.8000 0.8000 0.8000 0.8000 0.8000
2195.996062 0.8000 0.7995 0.7990 0.7990 0.7990
2201.726743 0.7990 0.7990 0.7990 0.7990 0.7985
2207.457425 0.7980 0.7975 0.7970 0.7965 0.7960
2213.188106 0.7960 0.7960 0.7960 0.7960 0.7960
2218.918787 0.7960 0.7955 0.7950 0.7950 0.7950
2224.649468 0.7950 0.7950 0.7950 0.7950 0.7950
2230.380150 0.7950 0.7950 0.7950 0.7950 0.7950
2236.110831 0.7950 0.7950 0.7950 0.7950 0.7950
2241.841512 0.7951 0.7956 0.7960 0.7960 0.7960
2247.572193 0.7960 0.7959 0.7954 0.7950 0.7950
2253.302874 0.7948 0.7938 0.7930 0.7930 0.7930
2259.033556 0.7930 0.7930 0.7930 0.7929 0.7924
2264.764237 0.7920 0.7920 0.7920 0.7920 0.7920
2270.494918 0.7920 0.7920 0.7920 0.7920 0.7920
2276.225599 0.7920 0.7920 0.7920 0.7920 0.7920
2281.956280 0.7920 0.7920 0.7920 0.7920 0.7920
2287.686962 0.7920 0.7920 0.7918 0.7913 0.7910
2293.417643 0.7910 0.7910 0.7910 0.7908 0.7903
2299.148324 0.7900 0.7900 0.7900 0.7900 0.7895
2304.879005 0.7885 0.7878 0.7873 0.7863 0.7848
2310.609687 0.7838 0.7833 0.7827 0.7822 0.7820
2316.340368 0.7820 0.7817 0.7812 0.7807 0.7802
2322.071049 0.7797 0.7792 0.7787 0.7782 0.7780
2327.801730 0.7780 0.7780 0.7780 0.7783 0.7788
2333.532411 0.7793 0.7798 0.7803 0.7808 0.7810
2339.263093 0.7810 0.7813 0.7818 0.7820 0.7820
2344.993774 0.7820 0.7820 0.7820 0.7820 0.7820
2350.724455 0.7820 0.7820 0.7820 0.7820 0.7820
2356.455136 0.7820 0.7820 0.7820 0.7820 0.7820
2362.185817 0.7820 0.7820 0.7820 0.7820 0.7820
2367.916499 0.7820 0.7820 0.7820 0.7820 0.7820
2373.647180 0.7820 0.7816 0.7811 0.7810 0.7810
2379.377861 0.7810 0.7810 0.7814 0.7819 0.7820
2385.108542 0.7820 0.7820 0.7820 0.7820 0.7820
2390.839224 0.7820 0.7820 0.7815 0.7810 0.7805
2396.569905 0.7800 0.7800 0.7800 0.7795 0.7790
2402.300586 0.7785 0.7780 0.7780 0.7780 0.7770
2408.031267 0.7760 0.7755 0.7750 0.7730 0.7710
2413.761948 0.7705 0.7700 0.7685 0.7670 0.7665
2419.492630 0.7660 0.7660 0.7660 0.7665 0.7670
2425.223311 0.7675 0.7681 0.7691 0.7700 0.7700
2430.953992 0.7700 0.7700 0.7700 0.7700 0.7701
2436.684673 0.7706 0.7710 0.7710 0.7710 0.7710
2442.415354 0.7710 0.7710 0.7710 0.7710 0.7710
2448.146036 0.7710 0.7710 0.7710 0.7710 0.7710
2453.876717 0.7710 0.7710 0.7710 0.7710 0.7710
2459.607398 0.7710 0.7709 0.7704 0.7700 0.7700
2465.338079 0.7700 0.7700 0.7697 0.7687 0.7679
2471.068760 0.7674 0.7667 0.7657 0.7650 0.7650
2476.799442 0.7649 0.7643 0.7640 0.7640 0.7640
2482.530123 0.7640 0.7642 0.7647 0.7650 0.7650
2488.260804 0.7650 0.7650 0.7650 0.7650 0.7650
2493.991485 0.7650 0.7650 0.7650 0.7652 0.7657
2499.722167 0.7668 0.7688 0.7702 0.7707 0.7712
2505.452848 0.7717 0.7720 0.7720 0.7720 0.7720
2511.183529 0.7720 0.7720 0.7720 0.7720 0.7720
2516.914210 0.7720 0.7718 0.7712 0.7710 0.7710
2522.644891 0.7710 0.7710 0.7710 0.7710 0.7710
2528.375573 0.7710 0.7710 0.7710 0.7710 0.7710
2534.106254 0.7710 0.7710 0.7713 0.7718 0.7723
2539.836935 0.7728 0.7730 0.7730 0.7727 0.7722
2545.567616 0.7720 0.7720 0.7720 0.7720 0.7720
2551.298297 0.7720 0.7720 0.7720 0.7720 0.7720
2557.028979 0.7720 0.7720 0.7720 0.7720 0.7720
2562.759660 0.7720 0.7720 0.7720 0.7724 0.7729
2568.490341 0.7730 0.7730 0.7730 0.7730 0.7730
2574.221022 0.7730 0.7730 0.7730 0.7730 0.7730
2579.951704 0.7734 0.7739 0.7744 0.7749 0.7750
2585.682385 0.7750 0.7750 0.7750 0.7750 0.7750
2591.413066 0.7750 0.7750 0.7750 0.7750 0.7750
2597.143747 0.7750 0.7750 0.7750 0.7750 0.7750
2602.874428 0.7755 0.7760 0.7760 0.7760 0.7760
2608.605110 0.7760 0.7755 0.7750 0.7750 0.7750
2614.335791 0.7745 0.7740 0.7740 0.7740 0.7735
2620.066472 0.7730 0.7730 0.7730 0.7725 0.7720
2625.797153 0.7720 0.7720 0.7720 0.7720 0.7720
2631.527834 0.7720 0.7720 0.7720 0.7715 0.7710
2637.258516 0.7710 0.7710 0.7710 0.7711 0.7716
2642.989197 0.7720 0.7720 0.7720 0.7720 0.7719
2648.719878 0.7714 0.7710 0.7710 0.7710 0.7710
2654.450559 0.7710 0.7710 0.7710 0.7710 0.7710
2660.181241 0.7710 0.7710 0.7710 0.7710 0.7710
2665.911922 0.7710 0.7710 0.7710 0.7710 0.7710
2671.642603 0.7710 0.7710 0.7710 0.7710 0.7710
2677.373284 0.7709 0.7704 0.7697 0.7687 0.7677
2683.103965 0.7667 0.7658 0.7653 0.7648 0.7643
2688.834647 0.7640 0.7640 0.7640 0.7640 0.7640
2694.565328 0.7640 0.7640 0.7640 0.7638 0.7633
2700.296009 0.7630 0.7630 0.7630 0.7630 0.7628
2706.026690 0.7623 0.7620 0.7620 0.7620 0.7620
2711.757371 0.7618 0.7613 0.7605 0.7595 0.7590
2717.488053 0.7590 0.7583 0.7568 0.7560 0.7560
2723.218734 0.7558 0.7553 0.7545 0.7535 0.7525
2728.949415 0.7515 0.7507 0.7502 0.7489 0.7469
2734.680096 0.7449 0.7429 0.7414 0.7404 0.7400
2740.410778 0.7400 0.7406 0.7416 0.7426 0.7436
2746.141459 0.7443 0.7448 0.7453 0.7458 0.7463
2751.872140 0.7468 0.7470 0.7470 0.7473 0.7478
2757.602821 0.7480 0.7480 0.7480 0.7480 0.7477
2763.333502 0.7472 0.7470 0.7470 0.7470 0.7470
2769.064184 0.7466 0.7461 0.7456 0.7451 0.7450
2774.794865 0.7450 0.7450 0.7450 0.7450 0.7450
2780.525546 0.7454 0.7459 0.7460 0.7460 0.7460
2786.256227 0.7460 0.7460 0.7460 0.7456 0.7451
2791.986908 0.7446 0.7441 0.7440 0.7440 0.7440
2797.717590 0.7440 0.7431 0.7421 0.7416 0.7411
2803.448271 0.7410 0.7410 0.7401 0.7391 0.7390
2809.178952 0.7390 0.7385 0.7380 0.7380 0.7380
2814.909633 0.7375 0.7370 0.7356 0.7341 0.7330
2820.640315 0.7320 0.7310 0.7300 0.7295 0.7290
2826.370996 0.7280 0.7270 0.7250 0.7230 0.7225
2832.101677 0.7220 0.7210 0.7200 0.7200 0.7198
2837.832358 0.7153 0.7109 0.7084 0.7059 0.7044
2843.563039 0.7030 0.7025 0.7019 0.7004 0.6989
2849.293721 0.6984 0.6979 0.6974 0.6971 0.6976
2855.024402 0.6981 0.6986 0.6991 0.7001 0.7010
2860.755083 0.7010 0.7010 0.7010 0.7011 0.7016
2866.485764 0.7020 0.7020 0.7020 0.7020 0.7019
2872.216445 0.7014 0.7008 0.6998 0.6990 0.6990
2877.947127 0.6989 0.6984 0.6980 0.6980 0.6979
2883.677808 0.6974 0.6967 0.6957 0.6949 0.6944
2889.408489 0.6935 0.6920 0.6908 0.6903 0.6898
2895.139170 0.6893 0.6882 0.6857 0.6835 0.6820
2900.869851 0.6806 0.6796 0.6777 0.6742 0.6718
2906.600533 0.6713 0.6708 0.6703 0.6686 0.6651
2912.331214 0.6626 0.6616 0.6591 0.6546 0.6494
2918.061895 0.6434 0.6378 0.6328 0.6280 0.6234
2923.792576 0.6189 0.6144 0.6096 0.6046 0.6006
2929.523258 0.5975 0.5948 0.5923 0.5882 0.5826
2935.253939 0.5739 0.5624 0.5419 0.5138 0.5010
2940.984620 0.5010 0.5168 0.5455 0.5648 0.5768
2946.715301 0.5895 0.6025 0.6089 0.6104 0.6107
2952.445982 0.6102 0.6097 0.6092 0.6068 0.6033
2958.176664 0.6017 0.6012 0.5991 0.5960 0.5934
2963.907345 0.5908 0.5867 0.5816 0.5780 0.5750
2969.638026 0.5726 0.5706 0.5683 0.5658 0.5510
2975.368707 0.5309 0.5140 0.4984 0.4867 0.4766
2981.099388 0.4736 0.4731 0.4730 0.4730 0.4730
2986.830070 0.4730 0.4726 0.4721 0.4704 0.4684
2992.560751 0.4632 0.4572 0.4500 0.4424 0.4361
2998.291432 0.4301 0.4286 0.4281 0.4280 0.4280
3004.022113 0.4284 0.4289 0.4299 0.4309 0.4354
3009.752795 0.4404 0.4437 0.4467 0.4721 0.5002
3015.483476 0.5093 0.5164 0.5239 0.5314 0.5408
3021.214157 0.5503 0.5561 0.5616 0.5634 0.5650
3026.944838 0.5679 0.5709 0.5730 0.5750 0.5785
3032.675519 0.5820 0.5865 0.5910 0.5955 0.6000
3038.406201 0.6005 0.6011 0.6041 0.6070 0.6080
3044.136882 0.6090 0.6095 0.6100 0.6111 0.6120
3049.867563 0.6125 0.6131 0.6146 0.6161 0.6171
3055.598244 0.6181 0.6186 0.6191 0.6196 0.6200
3061.328925 0.6200 0.6201 0.6206 0.6211 0.6216
3067.059607 0.6221 0.6232 0.6241 0.6246 0.6251
3072.790288 0.6256 0.6261 0.6266 0.6271 0.6276
3078.520969 0.6281 0.6286 0.6290 0.6290 0.6290
3084.251650 0.6290 0.6290 0.6290 0.6290 0.6290
3089.982332 0.6290 0.6290 0.6290 0.6290 0.6290
3095.713013 0.6290 0.6288 0.6283 0.6278 0.6273
3101.443694 0.6270 0.6270 0.6270 0.6270 0.6270
3107.174375 0.6270 0.6270 0.6270 0.6270 0.6270
3112.905056 0.6270 0.6270 0.6268 0.6263 0.6260
3118.635738 0.6260 0.6262 0.6267 0.6270 0.6270
3124.366419 0.6268 0.6263 0.6256 0.6245 0.6233
3130.097100 0.6218 0.6208 0.6203 0.6198 0.6193
3135.827781 0.6190 0.6190 0.6188 0.6182 0.6177
3141.558462 0.6172 0.6162 0.6147 0.6135 0.6125
3147.289144 0.6120 0.6120 0.6117 0.6112 0.6107
3153.019825 0.6102 0.6097 0.6092 0.6084 0.6074
3158.750506 0.6064 0.6054 0.6047 0.6042 0.6040
3164.481187 0.6040 0.6040 0.6040 0.6037 0.6032
3170.211869 0.6030 0.6030 0.6030 0.6030 0.6027
3175.942550 0.6022 0.6017 0.6012 0.6007 0.6002
3181.673231 0.5986 0.5966 0.5949 0.5934 0.5926
3187.403912 0.5921 0.5920 0.5920 0.5920 0.5920
3193.134593 0.5920 0.5920 0.5916 0.5911 0.5910
3198.865275 0.5910 0.5906 0.5901 0.5900 0.5900
3204.595956 0.5888 0.5873 0.5866 0.5861 0.5851
3210.326637 0.5841 0.5831 0.5821 0.5811 0.5801
3216.057318 0.5800 0.5800 0.5800 0.5800 0.5796
3221.787999 0.5790 0.5790 0.5790 0.5781 0.5771
3227.518681 0.5761 0.5751 0.5745 0.5740 0.5740
3233.249362 0.5740 0.5740 0.5740 0.5740 0.5740
3238.980043 0.5735 0.5730 0.5715 0.5700 0.5700
3244.710724 0.5700 0.5695 0.5690 0.5685 0.5680
3250.441406 0.5675 0.5670 0.5670 0.5670 0.5670
3256.172087 0.5670 0.5670 0.5670 0.5665 0.5659
3261.902768 0.5643 0.5629 0.5619 0.5609 0.5604
3267.633449 0.5600 0.5600 0.5600 0.5600 0.5600
3273.364130 0.5600 0.5600 0.5600 0.5599 0.5594
3279.094812 0.5589 0.5584 0.5579 0.5574 0.5569
3284.825493 0.5564 0.5558 0.5548 0.5539 0.5534
3290.556174 0.5529 0.5524 0.5520 0.5520 0.5520
3296.286855 0.5520 0.5520 0.5520 0.5519 0.5514
3302.017536 0.5509 0.5503 0.5492 0.5467 0.5447
3307.748218 0.5437 0.5427 0.5417 0.5402 0.5376
3313.478899 0.5357 0.5347 0.5338 0.5333 0.5328
3319.209580 0.5323 0.5318 0.5313 0.5308 0.5303
3324.940261 0.5296 0.5286 0.5276 0.5266 0.5256
3330.670942 0.5246 0.5238 0.5233 0.5223 0.5208
3336.401624 0.5193 0.5178 0.5168 0.5163 0.5155
3342.132305 0.5145 0.5138 0.5132 0.5122 0.5107
3347.862986 0.5100 0.5100 0.5089 0.5069 0.5049
3353.593667 0.5029 0.5015 0.5004 0.4980 0.4945
3359.324349 0.4922 0.4906 0.4889 0.4868 0.4857
3365.055030 0.4852 0.4847 0.4842 0.4834 0.4824
3370.785711 0.4814 0.4804 0.4787 0.4767 0.4760
3376.516392 0.4760 0.4757 0.4752 0.4747 0.4742
3382.247073 0.4723 0.4698 0.4680 0.4665 0.4646
3387.977755 0.4626 0.4613 0.4603 0.4593 0.4583
3393.708436 0.4573 0.4563 0.4556 0.4551 0.4546
3399.439117 0.4541 0.4536 0.4531 0.4522 0.4512
3405.169798 0.4506 0.4501 0.4500 0.4500 0.4496
3410.900479 0.4491 0.4486 0.4481 0.4476 0.4471
3416.631161 0.4466 0.4461 0.4460 0.4460 0.4456
3422.361842 0.4451 0.4450 0.4450 0.4450 0.4450
3428.092523 0.4450 0.4450 0.4450 0.4450 0.4450
3433.823204 0.4450 0.4450 0.4450 0.4450 0.4450
3439.553886 0.4450 0.4450 0.4450 0.4450 0.4450
3445.284567 0.4450 0.4450 0.4450 0.4450 0.4450
3451.015248 0.4450 0.4450 0.4450 0.4450 0.4455
3456.745929 0.4460 0.4460 0.4460 0.4465 0.4470
3462.476610 0.4470 0.4470 0.4475 0.4480 0.4485
3468.207292 0.4492 0.4512 0.4531 0.4536 0.4541
3473.937973 0.4546 0.4551 0.4556 0.4561 0.4571
3479.668654 0.4581 0.4586 0.4591 0.4596 0.4602
3485.399335 0.4612 0.4621 0.4626 0.4631 0.4636
3491.130016 0.4641 0.4646 0.4650 0.4650 0.4651
3496.860698 0.4656 0.4662 0.4672 0.4681 0.4686
3502.591379 0.4695 0.4715 0.4733 0.4743 0.4751
3508.322060 0.4756 0.4765 0.4780 0.4792 0.4797
3514.052741 0.4802 0.4807 0.4812 0.4817 0.4822
3519.783423 0.4827 0.4832 0.4837 0.4842 0.4847
3525.514104 0.4857 0.4878 0.4892 0.4897 0.4908
3531.244785 0.4928 0.4948 0.4968 0.4982 0.4987
3536.975466 0.4994 0.5004 0.5010 0.5010 0.5019
3542.706147 0.5039 0.5057 0.5072 0.5082 0.5087
3548.436829 0.5092 0.5097 0.5103 0.5108 0.5123
3554.167510 0.5148 0.5163 0.5168 0.5173 0.5178
3559.898191 0.5183 0.5188 0.5198 0.5213 0.5237
3565.628872 0.5267 0.5286 0.5296 0.5303 0.5308
3571.359553 0.5322 0.5342 0.5362 0.5382 0.5393
3577.090235 0.5398 0.5403 0.5408 0.5410 0.5410
3582.820916 0.5420 0.5435 0.5457 0.5482 0.5493
3588.551597 0.5498 0.5507 0.5517 0.5544 0.5579
3594.282278 0.5597 0.5607 0.5628 0.5653 0.5667
3600.012960 0.5677 0.5684 0.5689 0.5694 0.5699
3605.743641 0.5700 0.5700 0.5712 0.5727 0.5738
3611.474322 0.5748 0.5758 0.5768 0.5794 0.5824
3617.205003 0.5850 0.5876 0.5893 0.5908 0.5923
3622.935684 0.5938 0.5953 0.5968 0.5987 0.6007
3628.666366 0.6014 0.6019 0.6033 0.6048 0.6063
3634.397047 0.6078 0.6093 0.6109 0.6119 0.6129
3640.127728 0.6135 0.6140 0.6168 0.6199 0.6205
3645.858409 0.6210 0.6215 0.6220 0.6220 0.6220
3651.589090 0.6230 0.6240 0.6245 0.6250 0.6250
3657.319772 0.6250 0.6250 0.6250 0.6255 0.6260
3663.050453 0.6265 0.6270 0.6275 0.6280 0.6280
3668.781134 0.6280 0.6285 0.6290 0.6290 0.6291
3674.511815 0.6301 0.6311 0.6327 0.6341 0.6346
3680.242497 0.6351 0.6356 0.6361 0.6366 0.6371
3685.973178 0.6376 0.6381 0.6386 0.6390 0.6390
3691.703859 0.6390 0.6390 0.6390 0.6390 0.6390
3697.434540 0.6390 0.6391 0.6396 0.6400 0.6400
3703.165221 0.6399 0.6394 0.6390 0.6390 0.6390
3708.895903 0.6390 0.6390 0.6390 0.6390 0.6390
3714.626584 0.6390 0.6390 0.6388 0.6383 0.6380
3720.357265 0.6380 0.6380 0.6380 0.6380 0.6380
3726.087946 0.6380 0.6380 0.6380 0.6380 0.6380
3731.818627 0.6380 0.6380 0.6380 0.6380 0.6380
3737.549309 0.6380 0.6380 0.6380 0.6380 0.6380
3743.279990 0.6380 0.6380 0.6380 0.6380 0.6380
3749.010671 0.6380 0.6380 0.6382 0.6387 0.6392
3754.741352 0.6397 0.6400 0.6400 0.6405 0.6415
3760.472033 0.6420 0.6420 0.6415 0.6405 0.6400
3766.202715 0.6400 0.6400 0.6400 0.6397 0.6392
3771.933396 0.6387 0.6382 0.6377 0.6372 0.6370
3777.664077 0.6370 0.6370 0.6370 0.6370 0.6370
3783.394758 0.6373 0.6378 0.6380 0.6380 0.6380
3789.125440 0.6380 0.6373 0.6363 0.6353 0.6343
3794.856121 0.6340 0.6340 0.6337 0.6332 0.6330
3800.586802 0.6330 0.6330 0.6330 0.6330 0.6330
3806.317483 0.6330 0.6330 0.6323 0.6312 0.6310
3812.048164 0.6310 0.6310 0.6310 0.6310 0.6310
3817.778846 0.6310 0.6310 0.6310 0.6310 0.6310
3823.509527 0.6310 0.6310 0.6310 0.6310 0.6310
3829.240208 0.6310 0.6310 0.6310 0.6310 0.6306
3834.970889 0.6301 0.6300 0.6300 0.6296 0.6291
3840.701570 0.6290 0.6290 0.6290 0.6290 0.6290
3846.432252 0.6290 0.6290 0.6290 0.6290 0.6290
3852.162933 0.6290 0.6290 0.6290 0.6290 0.6290
3857.893614 0.6290 0.6290 0.6290 0.6285 0.6280
3863.624295 0.6280 0.6280 0.6275 0.6270 0.6265
3869.354977 0.6260 0.6255 0.6250 0.6245 0.6240
3875.085658 0.6240 0.6240 0.6240 0.6240 0.6240
3880.816339 0.6239 0.6229 0.6220 0.6220 0.6220
3886.547020 0.6220 0.6220 0.6220 0.6220 0.6220
3892.277701 0.6220 0.6220 0.6220 0.6220 0.6220
3898.008383 0.6220 0.6220 0.6220 0.6219 0.6214
3903.739064 0.6210 0.6210 0.6210 0.6210 0.6210
3909.469745 0.6210 0.6209 0.6204 0.6200 0.6200
3915.200426 0.6200 0.6200 0.6200 0.6200 0.6200
3920.931107 0.6200 0.6200 0.6200 0.6200 0.6200
3926.661789 0.6198 0.6193 0.6190 0.6190 0.6190
3932.392470 0.6190 0.6190 0.6190 0.6190 0.6190
3938.123151 0.6190 0.6190 0.6190 0.6190 0.6190
3943.853832 0.6190 0.6190 0.6190 0.6190 0.6190
3949.584514 0.6190 0.6190 0.6192 0.6197 0.6200
3955.315195 0.6200 0.6202 0.6207 0.6210 0.6210
3961.045876 0.6210 0.6210 0.6210 0.6210 0.6210
3966.776557 0.6210 0.6210 0.6210 0.6213 0.6218
3972.507238 0.6220 0.6220 0.6220 0.6220 0.6220
3978.237920 0.6220 0.6226 0.6236 0.6243 0.6248
3983.968601 0.6256 0.6266 0.6273 0.6278 0.6280
3989.699282 0.6280 0.6283 0.6288 0.6290 0.6290
3995.429963 0.6293 0.6298 0.6300 0.6300 0.6297
4001.160644 0.6292 0.6293 0.6298 0.6300 0.6300
##END=
