##TITLE=FORMAMIDE, N-BENZYL-N-[3-BENZYL-6-BENZYLAMINO-4-THIOXO-5-PYRIMIDINYL]-
##JCAMP-DX=4.24
##DATA TYPE=INFRARED SPECTRUM
##CLASS=COBLENTZ
##ORIGIN=SOUTHERN RESEARCH INSTITUTE
##OWNER=COBLENTZ SOCIETY
Collection (C) 2018 copyright by the U.S. Secretary of Commerce
on behalf of the United States of America. All rights reserved.
##DATE=1966/02/25
##NAMES=benzyl[1-benzyl-4-(benzylamino)-6-thioxo-1,6-dihydro-5-pyrimidinyl]formamide
##MOLFORM=C26 H24 N4 O S
##SOURCE REFERENCE=COBLENTZ NO. 10445
##$NIST ID=B6010445
##$NIST SOURCE=COBLENTZ
##$NIST IMAGE=cob10445
##SPECTROMETER/DATA SYSTEM=PERKIN-ELMER 521 (GRATING)
##INSTRUMENT PARAMETERS=GRATING CHANGES AT 2000, 620, FILTERS AT 3130, 2475, 2000, 1150, 700, 410 CM^-^1
##STATE=SOLID (1 mg / 650 mg KBr DISC)
##PATH LENGTH=
$$SPECTRAL CONTAMINATION DUE TO H2O AROUND 3500 CM^-^1
##SAMPLING PROCEDURE=TRANSMISSION
##RESOLUTION=4
##DATA PROCESSING=DIGITIZED BY NIST FROM HARD COPY
##XUNITS=1/CM
##YUNITS=TRANSMITTANCE
##XFACTOR=1.000000
##YFACTOR=1
##DELTAX=001.592664
##FIRSTX=242.664
##LASTX=3802.27
##FIRSTY=0.253
##MAXX=3802.27
##MINX=242.664
##MAXY=0.981
##MINY=0.253
##NPOINTS=2236
##XYDATA=(X++(Y..Y))
242.664000 0.2530 0.2600 0.2670 0.2680 0.2740
250.630885 0.2800 0.2810 0.2980 0.3150 0.3320
258.591000 0.3730 0.3740 0.3840 0.3940 0.4040
266.557885 0.4140 0.4240 0.4340 0.4440 0.4550
274.517000 0.4620 0.4700 0.4880 0.5100 0.5210
282.483885 0.5270 0.5280 0.5390 0.5500 0.5610
290.444000 0.5720 0.5830 0.5940 0.6040 0.6130
298.410885 0.6230 0.6340 0.6450 0.6550 0.6630
306.371000 0.6690 0.6750 0.6790 0.6820 0.6850
314.337885 0.6870 0.6880 0.6920 0.6940 0.6980
322.297000 0.7030 0.7080 0.7130 0.7190 0.7240
330.263885 0.7300 0.7350 0.7410 0.7460 0.7510
338.224000 0.7570 0.7610 0.7660 0.7700 0.7740
346.190885 0.7770 0.7800 0.7830 0.7870 0.7900
354.151000 0.7940 0.7970 0.8010 0.8040 0.8080
362.117885 0.8120 0.8160 0.8200 0.8230 0.8270
370.077000 0.8300 0.8330 0.8370 0.8390 0.8430
378.043885 0.8450 0.8470 0.8500 0.8510 0.8520
386.004000 0.8600 0.8670 0.8700 0.8710 0.8700
393.970885 0.8660 0.8600 0.8560 0.8500 0.8480
401.931000 0.8500 0.8540 0.8600 0.8620 0.8640
409.897885 0.8660 0.8690 0.8720 0.8720 0.8700
417.857000 0.8700 0.8690 0.8660 0.8650 0.8670
425.823885 0.8690 0.8730 0.8770 0.8800 0.8820
433.784000 0.8840 0.8880 0.8880 0.8880 0.8880
441.750885 0.8840 0.8840 0.8810 0.8800 0.8810
449.710000 0.8830 0.8840 0.8850 0.8870 0.8880
457.676885 0.8890 0.8890 0.8900 0.8900 0.8890
465.637000 0.8880 0.8840 0.8800 0.8770 0.8750
473.603885 0.8730 0.8710 0.8680 0.8630 0.8580
481.564000 0.8500 0.8390 0.8270 0.8110 0.7980
489.530885 0.7980 0.8030 0.8150 0.8380 0.8460
497.490000 0.8480 0.8500 0.8510 0.8560 0.8610
505.456885 0.8690 0.8780 0.8870 0.8920 0.9010
513.417000 0.9020 0.9030 0.9030 0.9020 0.9020
521.383885 0.9020 0.9020 0.9000 0.8990 0.8980
529.344000 0.8980 0.8970 0.8980 0.8990 0.9000
537.310885 0.9010 0.9020 0.9030 0.9040 0.9050
545.270000 0.9050 0.9060 0.9060 0.9060 0.9070
553.236885 0.9070 0.9070 0.9060 0.9060 0.9060
561.197000 0.9050 0.9030 0.9020 0.9020 0.9010
569.163885 0.9010 0.9000 0.9000 0.8990 0.8990
577.124000 0.8990 0.8990 0.8970 0.8940 0.8800
585.090885 0.8730 0.8630 0.8540 0.8440 0.8430
593.050000 0.8470 0.8540 0.8670 0.8800 0.8850
601.016885 0.8880 0.8890 0.8900 0.8940 0.8950
608.977000 0.8950 0.8960 0.8960 0.8960 0.8950
616.943885 0.8950 0.8950 0.8940 0.8940 0.8940
624.904000 0.8930 0.8930 0.8920 0.8920 0.8910
632.870885 0.8920 0.8940 0.9000 0.9010 0.9020
640.830000 0.9020 0.9010 0.8950 0.8940 0.8920
648.796885 0.8880 0.8820 0.8750 0.8710 0.8700
656.757000 0.8710 0.8750 0.8800 0.8840 0.8880
664.723885 0.8960 0.8960 0.8880 0.8760 0.8730
672.683000 0.8720 0.8710 0.8680 0.8640 0.8590
680.649885 0.8550 0.8520 0.8470 0.8410 0.8310
688.610000 0.8150 0.7930 0.7630 0.7240 0.6750
696.576885 0.6320 0.6300 0.6800 0.7300 0.7790
704.537000 0.7850 0.7910 0.7950 0.7960 0.8200
712.503885 0.8460 0.8560 0.8830 0.9090 0.9090
720.463000 0.9080 0.8800 0.8580 0.8470 0.8320
728.429885 0.8160 0.8000 0.7840 0.7680 0.7680
736.390000 0.7790 0.7900 0.8090 0.8090 0.7870
744.356885 0.7760 0.7650 0.7650 0.7970 0.8570
752.317000 0.8560 0.8450 0.8370 0.8230 0.8070
760.283885 0.7910 0.7760 0.7760 0.8030 0.8540
768.243000 0.8540 0.9220 0.9220 0.8760 0.8520
776.209885 0.8520 0.8760 0.9140 0.9230 0.9470
784.170000 0.9470 0.9390 0.9340 0.9290 0.9320
792.136885 0.9470 0.9470 0.9480 0.9490 0.9490
800.097000 0.9490 0.9480 0.9480 0.9470 0.9450
808.063885 0.9440 0.9440 0.9430 0.9420 0.9410
816.023000 0.9410 0.9400 0.9400 0.9400 0.9400
823.989885 0.9420 0.9470 0.9500 0.9510 0.9510
831.950000 0.9510 0.9490 0.9470 0.9440 0.9400
839.916885 0.9360 0.9320 0.9290 0.9290 0.9280
847.876000 0.9290 0.9290 0.9300 0.9320 0.9340
855.842885 0.9340 0.9360 0.9360 0.9340 0.9280
863.803000 0.9060 0.9040 0.9050 0.9120 0.9180
871.769885 0.9250 0.9290 0.9320 0.9360 0.9390
879.730000 0.9400 0.9400 0.9400 0.9400 0.9400
887.696885 0.9400 0.9400 0.9400 0.9400 0.9390
895.656000 0.9390 0.9380 0.9360 0.9350 0.9330
903.622885 0.9300 0.9270 0.9230 0.9200 0.9170
911.583000 0.9160 0.9150 0.9160 0.9170 0.9160
919.549885 0.9160 0.9140 0.9120 0.9110 0.9120
927.510000 0.9150 0.9160 0.9170 0.9180 0.9190
935.476885 0.9190 0.9190 0.9180 0.9140 0.9120
943.436000 0.9090 0.9010 0.8890 0.8840 0.8790
951.402885 0.8780 0.8770 0.8760 0.8760 0.8750
959.363000 0.8740 0.8730 0.8710 0.8700 0.8690
967.329885 0.8660 0.8610 0.8460 0.8380 0.8380
975.290000 0.8570 0.8840 0.8880 0.8920 0.8960
983.256885 0.8960 0.8950 0.8950 0.8950 0.8940
991.216000 0.8930 0.8920 0.8930 0.8930 0.8950
999.182885 0.8950 0.8980 0.8990 0.8990 0.8990
1007.143000 0.9000 0.9000 0.9000 0.8990 0.8990
1015.109885 0.8980 0.8960 0.8930 0.8880 0.8800
1023.070000 0.8790 0.8760 0.8490 0.8250 0.8250
1031.036885 0.8580 0.8760 0.8760 0.8880 0.8880
1038.996000 0.8880 0.8870 0.8840 0.8760 0.8690
1046.962885 0.8570 0.8530 0.8410 0.8090 0.8090
1054.923000 0.8400 0.8470 0.8520 0.8590 0.8610
1062.889885 0.8620 0.8610 0.8590 0.8540 0.8520
1070.849000 0.8240 0.8130 0.7990 0.7860 0.7780
1078.815885 0.7670 0.7670 0.7870 0.8060 0.8170
1086.776000 0.8160 0.7980 0.7780 0.7500 0.6680
1094.742885 0.6360 0.6360 0.6420 0.6810 0.7110
1102.703000 0.7350 0.7530 0.7680 0.7790 0.7870
1110.669885 0.7960 0.8050 0.8170 0.8270 0.8360
1118.629000 0.8460 0.8580 0.8750 0.8820 0.8850
1126.595885 0.8840 0.8820 0.8780 0.8730 0.8650
1134.556000 0.8540 0.8400 0.8230 0.8090 0.8090
1142.522885 0.8090 0.8320 0.8410 0.8540 0.8560
1150.483000 0.8570 0.8580 0.8580 0.8580 0.8600
1158.449885 0.8600 0.8600 0.8610 0.8610 0.8600
1166.409000 0.8600 0.8580 0.8500 0.8380 0.8240
1174.375885 0.8110 0.8010 0.7940 0.7830 0.7800
1182.336000 0.7790 0.7610 0.7450 0.7270 0.7090
1190.302885 0.7080 0.6910 0.6910 0.7080 0.7480
1198.263000 0.7590 0.7640 0.7800 0.7980 0.8060
1206.229885 0.8130 0.8170 0.8170 0.8170 0.8180
1214.189000 0.8190 0.8210 0.8250 0.8330 0.8400
1222.155885 0.8410 0.8580 0.8590 0.8670 0.8680
1230.116000 0.8690 0.8710 0.8710 0.8720 0.8710
1238.082885 0.8710 0.8700 0.8690 0.8690 0.8650
1246.042000 0.8610 0.8510 0.8430 0.8400 0.8400
1254.008885 0.8500 0.8500 0.8570 0.8620 0.8650
1261.969000 0.8650 0.8650 0.8650 0.8640 0.8630
1269.935885 0.8620 0.8610 0.8580 0.8560 0.8540
1277.896000 0.8540 0.8530 0.8520 0.8510 0.8490
1285.862885 0.8450 0.8390 0.8330 0.8270 0.8210
1293.822000 0.8150 0.8110 0.8080 0.8060 0.8050
1301.788885 0.8020 0.7960 0.7910 0.7860 0.7770
1309.749000 0.7670 0.7550 0.7250 0.7200 0.7110
1317.715885 0.7050 0.7010 0.7010 0.7160 0.7160
1325.676000 0.7020 0.7010 0.6990 0.6970 0.6940
1333.642885 0.6930 0.6790 0.6600 0.6540 0.6540
1341.602000 0.6880 0.6930 0.6940 0.7020 0.7200
1349.568885 0.7380 0.7540 0.7690 0.7820 0.7940
1357.529000 0.8030 0.8120 0.8190 0.8240 0.8240
1365.495885 0.8240 0.8240 0.8240 0.8170 0.8060
1373.456000 0.7850 0.7480 0.7310 0.7180 0.7030
1381.422885 0.7010 0.7020 0.7230 0.7430 0.7580
1389.382000 0.7750 0.7910 0.8050 0.8060 0.8060
1397.348885 0.7980 0.7910 0.7360 0.7150 0.6940
1405.309000 0.6740 0.6610 0.6460 0.6300 0.6150
1413.275885 0.6010 0.5870 0.5740 0.5700 0.5720
1421.236000 0.5780 0.5920 0.6020 0.6120 0.6330
1429.202885 0.6630 0.6780 0.6780 0.6690 0.6580
1437.162000 0.6480 0.6360 0.6360 0.6600 0.6670
1445.128885 0.7140 0.7140 0.6920 0.6900 0.6790
1453.089000 0.6790 0.7010 0.7260 0.7640 0.8070
1461.055885 0.8210 0.8740 0.8830 0.8900 0.8930
1469.016000 0.8950 0.8940 0.8910 0.8870 0.8830
1476.982885 0.8770 0.8710 0.8630 0.8540 0.8320
1484.942000 0.8150 0.8030 0.7940 0.7880 0.7840
1492.908885 0.7790 0.7410 0.7400 0.7640 0.8040
1500.869000 0.8320 0.8650 0.8860 0.8920 0.9050
1508.835885 0.9050 0.9040 0.9040 0.9030 0.9020
1516.795000 0.9010 0.9000 0.8950 0.8900 0.8860
1524.761885 0.8830 0.8800 0.8760 0.8740 0.8710
1532.722000 0.8670 0.8620 0.8580 0.8510 0.8430
1540.688885 0.8310 0.8180 0.8070 0.7950 0.7850
1548.649000 0.7740 0.7640 0.7530 0.7420 0.7310
1556.615885 0.7200 0.7080 0.6950 0.6820 0.6670
1564.575000 0.6620 0.6620 0.6750 0.6890 0.6900
1572.541885 0.7140 0.7410 0.7380 0.7160 0.7040
1580.502000 0.6320 0.6000 0.5990 0.6210 0.6180
1588.468885 0.6000 0.5800 0.5330 0.4700 0.4400
1596.429000 0.4220 0.3970 0.3720 0.3470 0.3210
1604.395885 0.2960 0.2720 0.2700 0.2710 0.2900
1612.355000 0.3090 0.3280 0.3430 0.3800 0.4570
1620.321885 0.5210 0.5730 0.6150 0.6490 0.6750
1628.282000 0.6970 0.7150 0.7310 0.7460 0.7630
1636.248885 0.7820 0.7950 0.8020 0.8020 0.8020
1644.208000 0.8020 0.7980 0.7870 0.7760 0.7640
1652.174885 0.7510 0.7360 0.7190 0.6960 0.6690
1660.135000 0.6370 0.5970 0.5000 0.4360 0.3990
1668.101885 0.3770 0.3680 0.3610 0.3450 0.3440
1676.062000 0.3450 0.4160 0.4770 0.5290 0.5730
1684.028885 0.6110 0.6430 0.6700 0.6940 0.7150
1691.988000 0.7340 0.7520 0.7710 0.7910 0.8130
1699.954885 0.8370 0.8660 0.8860 0.8910 0.8920
1707.915000 0.9170 0.9280 0.9380 0.9440 0.9470
1715.881885 0.9490 0.9510 0.9540 0.9560 0.9580
1723.842000 0.9600 0.9620 0.9630 0.9660 0.9700
1731.808885 0.9710 0.9730 0.9730 0.9740 0.9750
1739.768000 0.9750 0.9760 0.9770 0.9770 0.9770
1747.734885 0.9780 0.9790 0.9790 0.9790 0.9800
1755.695000 0.9800 0.9800 0.9810 0.9810 0.9810
1763.661885 0.9810 0.9810 0.9810 0.9810 0.9810
1771.622000 0.9810 0.9810 0.9810 0.9810 0.9810
1779.588885 0.9810 0.9810 0.9810 0.9810 0.9810
1787.548000 0.9810 0.9800 0.9800 0.9800 0.9800
1795.514885 0.9800 0.9790 0.9790 0.9770 0.9770
1803.475000 0.9770 0.9770 0.9760 0.9760 0.9750
1811.441885 0.9740 0.9740 0.9730 0.9730 0.9730
1819.402000 0.9730 0.9730 0.9730 0.9730 0.9730
1827.368885 0.9730 0.9730 0.9730 0.9730 0.9740
1835.328000 0.9750 0.9750 0.9750 0.9750 0.9750
1843.294885 0.9750 0.9750 0.9750 0.9740 0.9740
1851.255000 0.9740 0.9740 0.9740 0.9740 0.9730
1859.221885 0.9730 0.9730 0.9730 0.9730 0.9730
1867.182000 0.9720 0.9720 0.9710 0.9710 0.9710
1875.148885 0.9700 0.9700 0.9700 0.9700 0.9700
1883.108000 0.9680 0.9680 0.9670 0.9670 0.9660
1891.074885 0.9660 0.9660 0.9650 0.9650 0.9650
1899.035000 0.9650 0.9650 0.9650 0.9640 0.9640
1907.001885 0.9640 0.9640 0.9640 0.9640 0.9640
1914.961000 0.9630 0.9630 0.9630 0.9630 0.9630
1922.927885 0.9630 0.9620 0.9620 0.9620 0.9610
1930.888000 0.9610 0.9600 0.9600 0.9590 0.9580
1938.854885 0.9580 0.9580 0.9580 0.9570 0.9570
1946.815000 0.9560 0.9560 0.9570 0.9560 0.9560
1954.781885 0.9550 0.9550 0.9560 0.9560 0.9570
1962.741000 0.9580 0.9580 0.9580 0.9580 0.9580
1970.707885 0.9580 0.9590 0.9590 0.9590 0.9600
1978.668000 0.9600 0.9600 0.9610 0.9610 0.9610
1986.634885 0.9610 0.9610 0.9610 0.9600 0.9600
1994.595000 0.9590 0.9590 0.9580 0.9580 0.9580
2002.561885 0.9580 0.9580 0.9580 0.9580 0.9580
2010.521000 0.9580 0.9580 0.9580 0.9580 0.9580
2018.487885 0.9580 0.9580 0.9580 0.9590 0.9590
2026.448000 0.9590 0.9600 0.9600 0.9600 0.9600
2034.414885 0.9600 0.9600 0.9590 0.9580 0.9580
2042.375000 0.9580 0.9570 0.9570 0.9560 0.9560
2050.341885 0.9550 0.9550 0.9550 0.9550 0.9550
2058.301000 0.9550 0.9550 0.9550 0.9550 0.9550
2066.267885 0.9550 0.9550 0.9550 0.9550 0.9540
2074.228000 0.9540 0.9540 0.9530 0.9530 0.9530
2082.194885 0.9520 0.9520 0.9520 0.9520 0.9520
2090.155000 0.9520 0.9520 0.9520 0.9530 0.9530
2098.121885 0.9530 0.9530 0.9530 0.9540 0.9540
2106.081000 0.9540 0.9540 0.9540 0.9540 0.9540
2114.047885 0.9530 0.9520 0.9520 0.9510 0.9510
2122.008000 0.9510 0.9510 0.9510 0.9510 0.9500
2129.974885 0.9500 0.9490 0.9490 0.9480 0.9480
2137.934000 0.9480 0.9480 0.9480 0.9480 0.9480
2145.900885 0.9480 0.9480 0.9480 0.9480 0.9480
2153.861000 0.9480 0.9480 0.9480 0.9480 0.9480
2161.827885 0.9480 0.9480 0.9470 0.9470 0.9470
2169.788000 0.9470 0.9470 0.9470 0.9470 0.9470
2177.754885 0.9470 0.9460 0.9460 0.9460 0.9460
2185.714000 0.9460 0.9460 0.9460 0.9460 0.9460
2193.680885 0.9460 0.9460 0.9460 0.9460 0.9460
2201.641000 0.9450 0.9450 0.9450 0.9440 0.9440
2209.607885 0.9440 0.9440 0.9440 0.9440 0.9440
2217.568000 0.9440 0.9440 0.9440 0.9440 0.9440
2225.534885 0.9440 0.9440 0.9440 0.9430 0.9430
2233.494000 0.9430 0.9420 0.9420 0.9420 0.9410
2241.460885 0.9410 0.9400 0.9400 0.9400 0.9400
2249.421000 0.9400 0.9400 0.9400 0.9400 0.9400
2257.387885 0.9400 0.9400 0.9400 0.9400 0.9390
2265.347000 0.9390 0.9390 0.9390 0.9390 0.9390
2273.313885 0.9400 0.9400 0.9400 0.9400 0.9400
2281.274000 0.9400 0.9400 0.9400 0.9400 0.9400
2289.240885 0.9400 0.9400 0.9390 0.9390 0.9390
2297.201000 0.9390 0.9390 0.9370 0.9370 0.9370
2305.167885 0.9370 0.9370 0.9360 0.9360 0.9360
2313.127000 0.9360 0.9360 0.9360 0.9360 0.9350
2321.093885 0.9350 0.9350 0.9350 0.9350 0.9350
2329.054000 0.9360 0.9360 0.9360 0.9360 0.9360
2337.020885 0.9360 0.9360 0.9360 0.9350 0.9330
2344.981000 0.9320 0.9320 0.9320 0.9320 0.9320
2352.947885 0.9320 0.9320 0.9330 0.9330 0.9330
2360.907000 0.9330 0.9340 0.9340 0.9340 0.9340
2368.873885 0.9350 0.9350 0.9350 0.9350 0.9350
2376.834000 0.9340 0.9340 0.9340 0.9330 0.9330
2384.800885 0.9330 0.9320 0.9320 0.9320 0.9320
2392.761000 0.9320 0.9320 0.9320 0.9320 0.9320
2400.727885 0.9320 0.9320 0.9320 0.9320 0.9320
2408.687000 0.9320 0.9320 0.9320 0.9320 0.9320
2416.653885 0.9320 0.9320 0.9320 0.9320 0.9320
2424.614000 0.9320 0.9320 0.9320 0.9320 0.9310
2432.580885 0.9310 0.9310 0.9300 0.9300 0.9300
2440.541000 0.9300 0.9300 0.9300 0.9290 0.9290
2448.507885 0.9290 0.9290 0.9290 0.9290 0.9290
2456.467000 0.9290 0.9290 0.9280 0.9280 0.9270
2464.433885 0.9270 0.9260 0.9260 0.9260 0.9260
2472.394000 0.9260 0.9250 0.9250 0.9250 0.9250
2480.360885 0.9250 0.9250 0.9240 0.9240 0.9240
2488.321000 0.9230 0.9230 0.9230 0.9220 0.9220
2496.287885 0.9220 0.9220 0.9210 0.9210 0.9210
2504.247000 0.9210 0.9210 0.9210 0.9210 0.9210
2512.213885 0.9200 0.9200 0.9200 0.9190 0.9190
2520.174000 0.9190 0.9190 0.9190 0.9190 0.9190
2528.140885 0.9190 0.9180 0.9180 0.9180 0.9180
2536.100000 0.9180 0.9180 0.9180 0.9180 0.9170
2544.066885 0.9170 0.9170 0.9170 0.9170 0.9170
2552.027000 0.9170 0.9170 0.9170 0.9160 0.9160
2559.993885 0.9160 0.9160 0.9160 0.9150 0.9150
2567.954000 0.9150 0.9150 0.9150 0.9150 0.9140
2575.920885 0.9140 0.9140 0.9140 0.9140 0.9140
2583.880000 0.9140 0.9140 0.9140 0.9140 0.9130
2591.846885 0.9130 0.9130 0.9130 0.9130 0.9120
2599.807000 0.9120 0.9120 0.9120 0.9120 0.9120
2607.773885 0.9120 0.9120 0.9110 0.9110 0.9110
2615.734000 0.9110 0.9110 0.9110 0.9110 0.9110
2623.700885 0.9100 0.9100 0.9100 0.9100 0.9100
2631.660000 0.9100 0.9100 0.9100 0.9100 0.9100
2639.626885 0.9100 0.9100 0.9100 0.9100 0.9100
2647.587000 0.9100 0.9100 0.9100 0.9100 0.9100
2655.553885 0.9100 0.9100 0.9100 0.9100 0.9100
2663.514000 0.9100 0.9100 0.9100 0.9090 0.9090
2671.480885 0.9090 0.9090 0.9090 0.9080 0.9080
2679.440000 0.9080 0.9080 0.9070 0.9070 0.9070
2687.406885 0.9060 0.9060 0.9060 0.9060 0.9060
2695.367000 0.9060 0.9050 0.9050 0.9040 0.9040
2703.333885 0.9040 0.9030 0.9030 0.9030 0.9020
2711.293000 0.9020 0.9020 0.9020 0.9020 0.9020
2719.259885 0.9010 0.9010 0.9010 0.9010 0.9010
2727.220000 0.9000 0.9000 0.9000 0.8990 0.8990
2735.186885 0.8990 0.8990 0.8990 0.8990 0.8980
2743.147000 0.8980 0.8980 0.8970 0.8970 0.8960
2751.113885 0.8960 0.8960 0.8960 0.8950 0.8950
2759.073000 0.8950 0.8950 0.8950 0.8950 0.8950
2767.039885 0.8950 0.8950 0.8950 0.8940 0.8940
2775.000000 0.8950 0.8950 0.8950 0.8950 0.8940
2782.966885 0.8940 0.8940 0.8930 0.8930 0.8930
2790.927000 0.8920 0.8920 0.8920 0.8910 0.8910
2798.893885 0.8910 0.8910 0.8910 0.8900 0.8900
2806.853000 0.8900 0.8890 0.8880 0.8880 0.8880
2814.819885 0.8880 0.8880 0.8870 0.8870 0.8860
2822.780000 0.8850 0.8830 0.8800 0.8790 0.8770
2830.746885 0.8760 0.8760 0.8750 0.8730 0.8730
2838.707000 0.8700 0.8680 0.8640 0.8630 0.8610
2846.673885 0.8610 0.8580 0.8570 0.8540 0.8510
2854.633000 0.8480 0.8460 0.8430 0.8410 0.8400
2862.599885 0.8400 0.8410 0.8420 0.8430 0.8450
2870.560000 0.8470 0.8490 0.8510 0.8530 0.8550
2878.526885 0.8580 0.8590 0.8610 0.8610 0.8620
2886.487000 0.8620 0.8630 0.8630 0.8620 0.8620
2894.453885 0.8610 0.8600 0.8580 0.8570 0.8550
2902.413000 0.8540 0.8520 0.8500 0.8480 0.8470
2910.379885 0.8450 0.8430 0.8410 0.8390 0.8370
2918.340000 0.8350 0.8330 0.8320 0.8290 0.8280
2926.306885 0.8280 0.8280 0.8280 0.8290 0.8300
2934.266000 0.8310 0.8320 0.8330 0.8350 0.8360
2942.232885 0.8390 0.8440 0.8480 0.8500 0.8530
2950.193000 0.8540 0.8550 0.8570 0.8570 0.8580
2958.159885 0.8580 0.8580 0.8590 0.8590 0.8590
2966.120000 0.8590 0.8590 0.8590 0.8600 0.8600
2974.086885 0.8610 0.8610 0.8630 0.8630 0.8650
2982.046000 0.8660 0.8670 0.8670 0.8670 0.8670
2990.012885 0.8670 0.8660 0.8660 0.8650 0.8650
2997.973000 0.8650 0.8640 0.8640 0.8630 0.8620
3005.939885 0.8620 0.8610 0.8610 0.8590 0.8590
3013.900000 0.8580 0.8560 0.8540 0.8460 0.8360
3021.866885 0.8320 0.8210 0.8200 0.8200 0.8240
3029.826000 0.8290 0.8350 0.8420 0.8440 0.8470
3037.792885 0.8480 0.8490 0.8490 0.8480 0.8480
3045.753000 0.8470 0.8470 0.8440 0.8430 0.8420
3053.719885 0.8410 0.8410 0.8420 0.8420 0.8430
3061.680000 0.8450 0.8470 0.8530 0.8580 0.8580
3069.646885 0.8590 0.8590 0.8590 0.8590 0.8590
3077.606000 0.8590 0.8590 0.8590 0.8590 0.8600
3085.572885 0.8600 0.8610 0.8630 0.8630 0.8640
3093.533000 0.8640 0.8650 0.8650 0.8650 0.8650
3101.499885 0.8650 0.8640 0.8640 0.8640 0.8640
3109.459000 0.8640 0.8640 0.8640 0.8640 0.8630
3117.425885 0.8630 0.8630 0.8630 0.8620 0.8620
3125.386000 0.8610 0.8610 0.8610 0.8600 0.8600
3133.352885 0.8590 0.8590 0.8580 0.8580 0.8570
3141.313000 0.8550 0.8540 0.8540 0.8530 0.8530
3149.279885 0.8520 0.8520 0.8510 0.8510 0.8500
3157.240000 0.8500 0.8500 0.8500 0.8500 0.8490
3165.206885 0.8490 0.8490 0.8480 0.8480 0.8470
3173.166000 0.8470 0.8470 0.8470 0.8460 0.8460
3181.132885 0.8450 0.8440 0.8430 0.8430 0.8420
3189.093000 0.8410 0.8390 0.8390 0.8380 0.8370
3197.059885 0.8360 0.8350 0.8340 0.8330 0.8310
3205.019000 0.8310 0.8300 0.8290 0.8280 0.8280
3212.985885 0.8280 0.8270 0.8240 0.8240 0.8230
3220.946000 0.8210 0.8180 0.8150 0.8140 0.8130
3228.912885 0.8120 0.8100 0.8100 0.8100 0.8090
3236.873000 0.8090 0.8080 0.8060 0.8050 0.8020
3244.839885 0.8000 0.7980 0.7960 0.7940 0.7930
3252.799000 0.7910 0.7890 0.7870 0.7850 0.7830
3260.765885 0.7800 0.7790 0.7760 0.7740 0.7720
3268.726000 0.7680 0.7660 0.7630 0.7600 0.7570
3276.692885 0.7550 0.7540 0.7520 0.7500 0.7470
3284.653000 0.7450 0.7420 0.7410 0.7400 0.7370
3292.619885 0.7330 0.7270 0.7210 0.7130 0.7040
3300.579000 0.6940 0.6820 0.6710 0.6570 0.6420
3308.545885 0.6270 0.6110 0.5930 0.5740 0.5570
3316.506000 0.5560 0.5570 0.5750 0.6040 0.6300
3324.472885 0.6560 0.6790 0.6990 0.7170 0.7340
3332.432000 0.7470 0.7590 0.7680 0.7760 0.7790
3340.398885 0.7810 0.7820 0.7830 0.7830 0.7840
3348.359000 0.7850 0.7860 0.7870 0.7880 0.7890
3356.325885 0.7890 0.7900 0.7910 0.7910 0.7920
3364.286000 0.7920 0.7920 0.7920 0.7920 0.7920
3372.252885 0.7910 0.7910 0.7910 0.7900 0.7900
3380.212000 0.7880 0.7870 0.7860 0.7850 0.7830
3388.178885 0.7830 0.7820 0.7810 0.7810 0.7800
3396.139000 0.7800 0.7790 0.7790 0.7790 0.7780
3404.105885 0.7770 0.7760 0.7760 0.7760 0.7760
3412.066000 0.7760 0.7760 0.7770 0.7780 0.7780
3420.032885 0.7790 0.7800 0.7810 0.7810 0.7820
3427.992000 0.7820 0.7820 0.7830 0.7830 0.7830
3435.958885 0.7830 0.7840 0.7840 0.7870 0.7870
3443.919000 0.7880 0.7880 0.7890 0.7890 0.7900
3451.885885 0.7910 0.7910 0.7910 0.7910 0.7910
3459.846000 0.7910 0.7920 0.7920 0.7920 0.7930
3467.812885 0.7930 0.7930 0.7930 0.7930 0.7930
3475.772000 0.7930 0.7940 0.7940 0.7940 0.7940
3483.738885 0.7940 0.7940 0.7940 0.7950 0.7950
3491.699000 0.7960 0.7960 0.7970 0.7970 0.7970
3499.665885 0.7980 0.7980 0.7980 0.7980 0.7990
3507.625000 0.8000 0.8010 0.8020 0.8020 0.8020
3515.591885 0.8040 0.8050 0.8060 0.8080 0.8090
3523.552000 0.8090 0.8100 0.8110 0.8120 0.8130
3531.518885 0.8130 0.8140 0.8150 0.8160 0.8170
3539.479000 0.8170 0.8170 0.8180 0.8190 0.8190
3547.445885 0.8200 0.8200 0.8200 0.8210 0.8240
3555.406000 0.8250 0.8260 0.8270 0.8280 0.8280
3563.372885 0.8280 0.8280 0.8290 0.8300 0.8310
3571.332000 0.8320 0.8320 0.8320 0.8330 0.8330
3579.298885 0.8340 0.8350 0.8390 0.8400 0.8410
3587.259000 0.8420 0.8430 0.8430 0.8430 0.8430
3595.225885 0.8450 0.8470 0.8470 0.8470 0.8480
3603.185000 0.8490 0.8490 0.8500 0.8500 0.8500
3611.151885 0.8510 0.8520 0.8530 0.8540 0.8540
3619.112000 0.8550 0.8550 0.8560 0.8560 0.8570
3627.078885 0.8570 0.8580 0.8580 0.8580 0.8580
3635.039000 0.8590 0.8590 0.8590 0.8600 0.8600
3643.005885 0.8600 0.8600 0.8610 0.8610 0.8610
3650.965000 0.8610 0.8610 0.8620 0.8620 0.8640
3658.931885 0.8650 0.8650 0.8650 0.8650 0.8650
3666.892000 0.8640 0.8620 0.8620 0.8610 0.8610
3674.858885 0.8600 0.8600 0.8600 0.8600 0.8600
3682.819000 0.8610 0.8610 0.8610 0.8620 0.8620
3690.785885 0.8630 0.8640 0.8650 0.8670 0.8670
3698.745000 0.8680 0.8680 0.8680 0.8680 0.8680
3706.711885 0.8670 0.8670 0.8660 0.8660 0.8650
3714.672000 0.8650 0.8650 0.8650 0.8650 0.8640
3722.638885 0.8640 0.8640 0.8630 0.8630 0.8620
3730.599000 0.8620 0.8610 0.8610 0.8610 0.8610
3738.565885 0.8600 0.8600 0.8600 0.8590 0.8590
3746.525000 0.8580 0.8580 0.8580 0.8580 0.8590
3754.491885 0.8600 0.8600 0.8610 0.8630 0.8640
3762.452000 0.8650 0.8650 0.8650 0.8660 0.8660
3770.418885 0.8670 0.8670 0.8670 0.8670 0.8670
3778.378000 0.8670 0.8670 0.8670 0.8670 0.8660
3786.344885 0.8660 0.8650 0.8650 0.8650 0.8650
3794.305000 0.8640 0.8630 0.8620 0.8610 0.8610
3802.271885 0.8590
##END=
