##TITLE=1,2-BENZENEDICARBOXYLIC ACID, BIS(HEPTYL, NONYL, UNDECYL) ESTER
##JCAMP-DX=4.24
##DATA TYPE=INFRARED SPECTRUM
##CLASS=COBLENTZ III
##ORIGIN=DOW CHEMICAL COMPANY
##OWNER=COBLENTZ SOCIETY
Collection (C) 2018 copyright by the U.S. Secretary of Commerce
on behalf of the United States of America. All rights reserved.
##DATE=1976/01/22
##NAMES=SANTICIZER 711 - MONSANTO
##MOLFORM=C22-30 H34-50 O4
$$ ABOUT 70% LINEAR AND ABOUT 30% BRANCHING (2-METHYL)
##SOURCE REFERENCE=COBLENTZ NO. 10091
##$NIST ID=B6010091
##$NIST SOURCE=COBLENTZ
##$NIST IMAGE=cob10091
##SPECTROMETER/DATA SYSTEM=PERKIN-ELMER 180
##STATE=SOLUTION (10% IN CCl4 FOR 4000-1330, 10% IN CS2 FOR 1330-420 CM^-^1) VS. SOLVENT
##PATH LENGTH=0.011, 0.011 CM
##SAMPLING PROCEDURE=TRANSMISSION
##RESOLUTION=4
##DATA PROCESSING=DIGITIZED BY NIST FROM HARD COPY (FROM TWO SEGMENTS)
##XUNITS=1/CM
##YUNITS=TRANSMITTANCE
##XFACTOR=1.000000
##YFACTOR=1
##DELTAX=1.015231
##FIRSTX=409.137
##LASTX=3991.89
##FIRSTY=0.955
##MAXX=3991.89
##MINX=409.137
##MAXY=1.00179
##MINY=0.002
##NPOINTS=3530
##XYDATA=(X++(Y..Y))
409.137000 0.9550 0.9560 0.9580 0.9590 0.9610
414.213156 0.9610 0.9640 0.9660 0.9680 0.9690
419.289311 0.9700 0.9700 0.9720 0.9740 0.9740
424.365467 0.9740 0.9740 0.9750 0.9750 0.9770
429.441622 0.9780 0.9780 0.9790 0.9800 0.9800
434.517778 0.9790 0.9790 0.9790 0.9790 0.9790
439.593933 0.9790 0.9790 0.9800 0.9800 0.9800
444.670089 0.9800 0.9800 0.9800 0.9800 0.9810
449.746244 0.9810 0.9820 0.9810 0.9810 0.9800
454.822400 0.9790 0.9790 0.9780 0.9780 0.9780
459.898555 0.9780 0.9780 0.9780 0.9770 0.9770
464.974711 0.9770 0.9760 0.9750 0.9750 0.9750
470.050866 0.9750 0.9740 0.9740 0.9740 0.9740
475.127022 0.9730 0.9720 0.9710 0.9700 0.9700
480.203177 0.9690 0.9690 0.9680 0.9680 0.9680
485.279333 0.9680 0.9680 0.9680 0.9680 0.9680
490.355488 0.9680 0.9680 0.9680 0.9680 0.9680
495.431644 0.9690 0.9700 0.9710 0.9720 0.9720
500.507799 0.9730 0.9730 0.9710 0.9700 0.9690
505.583955 0.9680 0.9680 0.9670 0.9660 0.9650
510.660110 0.9650 0.9650 0.9650 0.9650 0.9670
515.736266 0.9670 0.9680 0.9680 0.9680 0.9690
520.812421 0.9710 0.9720 0.9720 0.9720 0.9720
525.888577 0.9710 0.9700 0.9700 0.9700 0.9700
530.964732 0.9700 0.9700 0.9700 0.9690 0.9690
536.040888 0.9690 0.9690 0.9700 0.9700 0.9700
541.117043 0.9700 0.9700 0.9690 0.9690 0.9690
546.193199 0.9690 0.9700 0.9700 0.9700 0.9700
551.269354 0.9690 0.9680 0.9660 0.9640 0.9610
556.345510 0.9590 0.9580 0.9550 0.9520 0.9500
561.421665 0.9480 0.9460 0.9440 0.9430 0.9410
566.497821 0.9400 0.9390 0.9370 0.9360 0.9360
571.573976 0.9370 0.9390 0.9420 0.9450 0.9480
576.650132 0.9530 0.9580 0.9630 0.9690 0.9750
581.726287 0.9790 0.9820 0.9850 0.9880 0.9890
586.802443 0.9900 0.9900 0.9900 0.9910 0.9920
591.878598 0.9920 0.9930 0.9930 0.9930 0.9940
596.954754 0.9940 0.9940 0.9940 0.9950 0.9950
602.030909 0.9950 0.9960 0.9960 0.9960 0.9960
607.107065 0.9970 0.9970 0.9970 0.9970 0.9980
612.183220 0.9980 0.9980 0.9980 1.0000 1.0000
617.259376 1.0000 1.0000 1.0000 1.0000 1.0000
622.335531 1.0000 1.0000 1.0000 1.0000 1.0000
627.411687 1.0000 1.0000 0.9980 0.9980 0.9970
632.487842 0.9970 0.9950 0.9940 0.9910 0.9900
637.563998 0.9880 0.9840 0.9800 0.9730 0.9640
642.640153 0.9540 0.9430 0.9300 0.9150 0.8960
647.716309 0.8820 0.8710 0.8700 0.8710 0.8929
652.792465 0.9080 0.9300 0.9480 0.9610 0.9720
657.868620 0.9770 0.9800 0.9820 0.9850 0.9880
662.944776 0.9880 0.9870 0.9850 0.9840 0.9830
668.020931 0.9820 0.9820 0.9810 0.9810 0.9800
673.097087 0.9780 0.9760 0.9730 0.9700 0.9680
678.173242 0.9650 0.9630 0.9540 0.9440 0.9350
683.249398 0.9260 0.9160 0.9050 0.8920 0.8770
688.325553 0.8600 0.8431 0.8241 0.8061 0.7951
693.401709 0.7820 0.7700 0.7560 0.7400 0.7220
698.477864 0.7040 0.6831 0.6601 0.6441 0.6440
703.554020 0.6480 0.6700 0.6970 0.7210 0.7480
708.630175 0.7610 0.7849 0.7920 0.7920 0.7890
713.706331 0.7880 0.7770 0.7650 0.7510 0.7380
718.782486 0.7171 0.7011 0.6890 0.6830 0.6820
723.858642 0.6780 0.6720 0.6650 0.6550 0.6420
728.934797 0.6250 0.6001 0.5711 0.5352 0.4982
734.010953 0.4600 0.4220 0.3860 0.3530 0.3360
739.087108 0.3091 0.3060 0.3080 0.3170 0.3538
744.163264 0.3800 0.4090 0.4450 0.4870 0.5369
749.239419 0.5580 0.6109 0.6469 0.6779 0.7039
754.315575 0.7250 0.7430 0.7560 0.7670 0.7740
759.391730 0.7800 0.7840 0.7870 0.7890 0.7900
764.467886 0.7910 0.7920 0.7920 0.7920 0.7930
769.544041 0.7940 0.7950 0.7960 0.7970 0.7980
774.620197 0.7990 0.7990 0.8000 0.8000 0.8010
779.696352 0.8020 0.8040 0.8050 0.8050 0.8060
784.772508 0.8060 0.8080 0.8090 0.8100 0.8120
789.848663 0.8160 0.8210 0.8270 0.8330 0.8400
794.924819 0.8470 0.8550 0.8640 0.8740 0.8820
800.000974 0.8900 0.8980 0.9050 0.9120 0.9180
805.077130 0.9200 0.9210 0.9220 0.9240 0.9250
810.153285 0.9270 0.9290 0.9300 0.9300 0.9310
815.229441 0.9320 0.9330 0.9340 0.9340 0.9340
820.305596 0.9350 0.9350 0.9350 0.9350 0.9350
825.381752 0.9350 0.9350 0.9350 0.9350 0.9340
830.457907 0.9330 0.9320 0.9310 0.9310 0.9320
835.534063 0.9330 0.9330 0.9330 0.9340 0.9350
840.610218 0.9370 0.9380 0.9390 0.9390 0.9370
845.686374 0.9360 0.9350 0.9350 0.9350 0.9350
850.762529 0.9330 0.9310 0.9300 0.9290 0.9270
855.838685 0.9250 0.9250 0.9240 0.9220 0.9210
860.914840 0.9190 0.9160 0.9150 0.9150 0.9150
865.990996 0.9150 0.9150 0.9150 0.9150 0.9150
871.067151 0.9140 0.9130 0.9120 0.9110 0.9110
876.143307 0.9100 0.9100 0.9100 0.9080 0.9080
881.219462 0.9080 0.9070 0.9070 0.9070 0.9070
886.295618 0.9070 0.9080 0.9080 0.9080 0.9070
891.371774 0.9060 0.9050 0.9050 0.9040 0.9040
896.447929 0.9020 0.9010 0.9010 0.9000 0.8970
901.524085 0.8940 0.8930 0.8920 0.8920 0.8920
906.600240 0.8930 0.8930 0.8940 0.8950 0.8970
911.676396 0.8980 0.8980 0.8970 0.8950 0.8940
916.752551 0.8920 0.8910 0.8890 0.8860 0.8820
921.828707 0.8790 0.8770 0.8730 0.8710 0.8680
926.904862 0.8640 0.8620 0.8600 0.8560 0.8540
931.981018 0.8530 0.8520 0.8510 0.8490 0.8450
937.057173 0.8410 0.8380 0.8350 0.8280 0.8220
942.133329 0.8140 0.8090 0.8030 0.7970 0.7910
947.209484 0.7850 0.7790 0.7710 0.7600 0.7500
952.285640 0.7430 0.7350 0.7280 0.7170 0.7100
957.361795 0.7060 0.7040 0.7010 0.6980 0.6940
962.437951 0.6910 0.6860 0.6810 0.6800 0.6800
967.514106 0.6810 0.6830 0.6880 0.6960 0.7050
972.590262 0.7150 0.7250 0.7360 0.7460 0.7560
977.666417 0.7630 0.7680 0.7790 0.7860 0.7950
982.742573 0.7980 0.8020 0.8070 0.8120 0.8170
987.818728 0.8190 0.8270 0.8310 0.8350 0.8390
992.894884 0.8410 0.8440 0.8460 0.8470 0.8480
997.971039 0.8480 0.8490 0.8500 0.8500 0.8510
1003.047195 0.8510 0.8520 0.8530 0.8530 0.8520
1008.123350 0.8520 0.8520 0.8510 0.8510 0.8500
1013.199506 0.8490 0.8480 0.8470 0.8450 0.8440
1018.275661 0.8430 0.8420 0.8400 0.8370 0.8330
1023.351817 0.8310 0.8270 0.8210 0.8110 0.8000
1028.427972 0.7870 0.7710 0.7520 0.7300 0.7040
1033.504128 0.6750 0.6421 0.6051 0.5661 0.5202
1038.580283 0.5100 0.5100 0.5390 0.5980 0.6459
1043.656439 0.6749 0.6949 0.7050 0.7130 0.7140
1048.732594 0.7140 0.7090 0.7010 0.6920 0.6790
1053.808750 0.6670 0.6500 0.6261 0.5991 0.5741
1058.884905 0.5529 0.5039 0.4250 0.4040 0.3560
1063.961061 0.3031 0.2611 0.2301 0.2051 0.1831
1069.037216 0.1590 0.1540 0.1540 0.1570 0.1720
1074.113372 0.1900 0.2070 0.2329 0.2579 0.2819
1079.189527 0.3391 0.3750 0.4110 0.4720 0.5219
1084.265683 0.5649 0.6009 0.6299 0.6549 0.6749
1089.341838 0.6910 0.7040 0.7140 0.7220 0.7290
1094.417994 0.7300 0.7300 0.7290 0.7230 0.7190
1099.494149 0.7100 0.7010 0.6830 0.6650 0.6550
1104.570305 0.6350 0.6070 0.5771 0.5421 0.5051
1109.646460 0.4619 0.4110 0.3510 0.2820 0.2001
1114.722616 0.1491 0.1191 0.0991 0.0860 0.0780
1119.798771 0.0700 0.0680 0.0700 0.0730 0.0770
1124.874927 0.0810 0.0870 0.0910 0.0930 0.0990
1129.951083 0.1020 0.1090 0.1110 0.1140 0.1190
1135.027238 0.1250 0.1320 0.1450 0.1550 0.1779
1140.103394 0.2081 0.2441 0.2870 0.3310 0.3790
1145.179549 0.4250 0.4709 0.5129 0.5499 0.5829
1150.255705 0.6111 0.6440 0.6550 0.6730 0.6820
1155.331860 0.6990 0.7040 0.7050 0.7050 0.7060
1160.408016 0.7060 0.7140 0.7260 0.7440 0.7660
1165.484171 0.7830 0.7960 0.8050 0.8110 0.8160
1170.560327 0.8220 0.8260 0.8300 0.8320 0.8340
1175.636482 0.8360 0.8390 0.8390 0.8400 0.8400
1180.712638 0.8400 0.8400 0.8400 0.8400 0.8390
1185.788793 0.8390 0.8380 0.8380 0.8380 0.8370
1190.864949 0.8360 0.8350 0.8340 0.8330 0.8310
1195.941104 0.8290 0.8290 0.8290 0.8280 0.8270
1201.017260 0.8250 0.8240 0.8220 0.8210 0.8200
1206.093415 0.8190 0.8190 0.8150 0.8130 0.8090
1211.169571 0.8050 0.8000 0.7960 0.7910 0.7850
1216.245726 0.7800 0.7740 0.7670 0.7590 0.7510
1221.321882 0.7420 0.7340 0.7260 0.7160 0.7030
1226.398037 0.6920 0.6820 0.6700 0.6560 0.6391
1231.474193 0.6180 0.5960 0.5720 0.5460 0.5150
1236.550348 0.4770 0.4391 0.4031 0.3711 0.3421
1241.626504 0.3190 0.3020 0.2830 0.2620 0.2440
1246.702659 0.2230 0.2080 0.1801 0.1531 0.1321
1251.778815 0.1140 0.0990 0.0840 0.0730 0.0630
1256.854970 0.0560 0.0490 0.0430 0.0360 0.0300
1261.931126 0.0260 0.0210 0.0180 0.0150 0.0110
1267.007281 0.0090 0.0080 0.0070 0.0070 0.0080
1272.083437 0.0080 0.0080 0.0090 0.0090 0.0090
1277.159592 0.0090 0.0090 0.0090 0.0080 0.0070
1282.235748 0.0080 0.0080 0.0090 0.0090 0.0110
1287.311903 0.0140 0.0190 0.0270 0.0360 0.0460
1292.388059 0.0590 0.0730 0.0880 0.1060 0.1250
1297.464214 0.1450 0.1650 0.1879 0.2099 0.2329
1302.540370 0.2551 0.2790 0.3010 0.3230 0.3440
1307.616525 0.3650 0.3900 0.4179 0.4469 0.4699
1312.692681 0.4901 0.5090 0.5260 0.5420 0.5570
1317.768836 0.5700 0.5810 0.5900 0.6000 0.6090
1322.844992 0.6170 0.6240 0.6330 0.6440 0.6540
1327.921147 0.6660 0.6770 0.6890 0.7000 0.7100
1332.997303 0.7190 0.7250 0.7290 0.7300 0.7300
1338.073458 0.7310 0.7320 0.7330 0.7350 0.7370
1343.149614 0.7400 0.7410 0.7420 0.7420 0.7420
1348.225769 0.7420 0.7420 0.7420 0.7430 0.7430
1353.301925 0.7430 0.7440 0.7450 0.7470 0.7470
1358.378080 0.7460 0.7450 0.7420 0.7400 0.7340
1363.454236 0.7280 0.7180 0.7040 0.6960 0.6830
1368.530392 0.6740 0.6580 0.6410 0.6181 0.5961
1373.606547 0.5689 0.5440 0.5180 0.5040 0.5040
1378.682703 0.5060 0.5190 0.5290 0.5360 0.5400
1383.758858 0.5420 0.5440 0.5510 0.5610 0.5770
1388.835014 0.5950 0.6330 0.6659 0.7199 0.7419
1393.911169 0.7670 0.7890 0.8030 0.8170 0.8250
1398.987325 0.8310 0.8370 0.8420 0.8510 0.8540
1404.063480 0.8580 0.8590 0.8610 0.8630 0.8650
1409.139636 0.8660 0.8680 0.8680 0.8670 0.8670
1414.215791 0.8660 0.8660 0.8650 0.8640 0.8620
1419.291947 0.8610 0.8590 0.8560 0.8500 0.8480
1424.368102 0.8390 0.8290 0.8190 0.8040 0.7920
1429.444258 0.7820 0.7600 0.7410 0.7350 0.7210
1434.520413 0.7100 0.7020 0.6920 0.6820 0.6670
1439.596569 0.6460 0.6250 0.5951 0.5551 0.5201
1444.672724 0.4869 0.4650 0.4480 0.4410 0.4380
1449.748880 0.4340 0.4230 0.4090 0.3900 0.3731
1454.825035 0.3540 0.3420 0.3320 0.3280 0.3240
1459.901191 0.3130 0.2970 0.2900 0.2790 0.2640
1464.977346 0.2480 0.2460 0.2490 0.2750 0.3010
1470.053502 0.3949 0.4829 0.5399 0.5759 0.6199
1475.129657 0.6691 0.7101 0.7400 0.7460 0.7560
1480.205813 0.7590 0.7590 0.7540 0.7460 0.7310
1485.281968 0.7200 0.7200 0.7230 0.7370 0.7600
1490.358124 0.7960 0.8250 0.8460 0.8610 0.8710
1495.434279 0.8790 0.8840 0.8880 0.8920 0.8970
1500.510435 0.9000 0.9030 0.9070 0.9100 0.9100
1505.586590 0.9120 0.9150 0.9180 0.9200 0.9210
1510.662746 0.9240 0.9280 0.9290 0.9290 0.9300
1515.738901 0.9310 0.9320 0.9330 0.9340 0.9360
1520.815057 0.9380 0.9410 0.9420 0.9430 0.9440
1525.891212 0.9440 0.9450 0.9470 0.9480 0.9500
1530.967368 0.9510 0.9520 0.9550 0.9580 0.9600
1536.043523 0.9620 0.9650 0.9680 0.9690 0.9700
1541.119679 0.9720 0.9730 0.9730 0.9730 0.9730
1546.195834 0.9730 0.9730 0.9720 0.9720 0.9700
1551.271990 0.9690 0.9660 0.9650 0.9640 0.9610
1556.348145 0.9590 0.9550 0.9510 0.9470 0.9440
1561.424301 0.9420 0.9380 0.9360 0.9310 0.9270
1566.500456 0.9210 0.9150 0.9070 0.8990 0.8870
1571.576612 0.8730 0.8530 0.8340 0.8050 0.7751
1576.652767 0.7499 0.7229 0.6960 0.6910 0.6950
1581.728923 0.7550 0.7750 0.8059 0.8359 0.8539
1586.805078 0.8640 0.8740 0.8760 0.8790 0.8740
1591.881234 0.8590 0.8470 0.8340 0.8100 0.7911
1596.957390 0.7679 0.7359 0.7070 0.7131 0.7490
1602.033545 0.7610 0.7860 0.8190 0.8489 0.8759
1607.109701 0.8910 0.9000 0.9040 0.9080 0.9150
1612.185856 0.9170 0.9190 0.9190 0.9200 0.9200
1617.262012 0.9200 0.9200 0.9200 0.9200 0.9190
1622.338167 0.9190 0.9190 0.9200 0.9200 0.9200
1627.414323 0.9200 0.9200 0.9200 0.9190 0.9190
1632.490478 0.9190 0.9180 0.9190 0.9170 0.9170
1637.566634 0.9170 0.9170 0.9170 0.9170 0.9160
1642.642789 0.9160 0.9150 0.9140 0.9130 0.9120
1647.718945 0.9120 0.9100 0.9070 0.9060 0.9040
1652.795100 0.9030 0.9020 0.9010 0.9000 0.8990
1657.871256 0.8980 0.8960 0.8940 0.8910 0.8880
1662.947411 0.8830 0.8810 0.8780 0.8750 0.8710
1668.023567 0.8680 0.8640 0.8580 0.8500 0.8430
1673.099722 0.8370 0.8320 0.8250 0.8170 0.8100
1678.175878 0.8020 0.7930 0.7820 0.7730 0.7650
1683.252033 0.7570 0.7500 0.7440 0.7380 0.7320
1688.328189 0.7250 0.7190 0.7130 0.7060 0.7000
1693.404344 0.6920 0.6840 0.6750 0.6650 0.6540
1698.480500 0.6409 0.6229 0.6040 0.5820 0.5630
1703.556655 0.5420 0.5180 0.4910 0.4610 0.4261
1708.632811 0.3898 0.3489 0.3059 0.2599 0.2109
1713.708966 0.1570 0.1130 0.0790 0.0570 0.0400
1718.785122 0.0280 0.0170 0.0120 0.0080 0.0060
1723.861277 0.0040 0.0040 0.0030 0.0030 0.0020
1728.937433 0.0020 0.0020 0.0030 0.0030 0.0050
1734.013588 0.0060 0.0090 0.0110 0.0160 0.0200
1739.089744 0.0300 0.0431 0.0640 0.0750 0.1000
1744.165899 0.1290 0.1630 0.2040 0.2459 0.2919
1749.242055 0.3352 0.4021 0.4491 0.4870 0.5180
1754.318210 0.5510 0.5880 0.6190 0.6439 0.6669
1759.394366 0.6871 0.7040 0.7210 0.7350 0.7470
1764.470521 0.7540 0.7640 0.7740 0.7850 0.7940
1769.546677 0.8020 0.8070 0.8160 0.8220 0.8280
1774.622832 0.8320 0.8390 0.8460 0.8510 0.8570
1779.698988 0.8610 0.8660 0.8700 0.8740 0.8780
1784.775143 0.8810 0.8850 0.8880 0.8910 0.8940
1789.851299 0.8970 0.9010 0.9050 0.9070 0.9080
1794.927454 0.9110 0.9120 0.9140 0.9160 0.9180
1800.003610 0.9180 0.9200 0.9210 0.9230 0.9240
1805.079765 0.9240 0.9250 0.9250 0.9260 0.9280
1810.155921 0.9280 0.9300 0.9310 0.9330 0.9340
1815.232076 0.9350 0.9350 0.9360 0.9380 0.9380
1820.308232 0.9380 0.9380 0.9380 0.9380 0.9380
1825.384387 0.9360 0.9360 0.9350 0.9340 0.9340
1830.460543 0.9320 0.9310 0.9300 0.9300 0.9290
1835.536699 0.9290 0.9290 0.9300 0.9310 0.9330
1840.612854 0.9350 0.9380 0.9410 0.9420 0.9450
1845.689010 0.9480 0.9490 0.9500 0.9510 0.9530
1850.765165 0.9540 0.9560 0.9570 0.9570 0.9570
1855.841321 0.9580 0.9580 0.9580 0.9580 0.9580
1860.917476 0.9570 0.9560 0.9560 0.9560 0.9560
1865.993632 0.9560 0.9560 0.9570 0.9570 0.9570
1871.069787 0.9580 0.9580 0.9600 0.9610 0.9620
1876.145943 0.9630 0.9640 0.9640 0.9640 0.9650
1881.222098 0.9650 0.9650 0.9650 0.9650 0.9670
1886.298254 0.9680 0.9680 0.9680 0.9690 0.9690
1891.374409 0.9690 0.9680 0.9680 0.9680 0.9680
1896.450565 0.9680 0.9680 0.9680 0.9670 0.9670
1901.526720 0.9660 0.9650 0.9640 0.9630 0.9620
1906.602876 0.9620 0.9620 0.9620 0.9600 0.9600
1911.679031 0.9600 0.9600 0.9620 0.9620 0.9630
1916.755187 0.9630 0.9630 0.9640 0.9650 0.9650
1921.831342 0.9640 0.9630 0.9620 0.9610 0.9600
1926.907498 0.9600 0.9590 0.9580 0.9570 0.9550
1931.983653 0.9540 0.9520 0.9500 0.9470 0.9450
1937.059809 0.9410 0.9400 0.9390 0.9400 0.9410
1942.135964 0.9430 0.9470 0.9480 0.9490 0.9510
1947.212120 0.9550 0.9570 0.9590 0.9620 0.9640
1952.288275 0.9650 0.9660 0.9660 0.9670 0.9670
1957.364431 0.9670 0.9670 0.9660 0.9650 0.9630
1962.440586 0.9610 0.9590 0.9550 0.9520 0.9510
1967.516742 0.9500 0.9490 0.9490 0.9500 0.9520
1972.592897 0.9540 0.9560 0.9610 0.9630 0.9650
1977.669053 0.9680 0.9690 0.9700 0.9710 0.9720
1982.745208 0.9730 0.9730 0.9730 0.9730 0.9740
1987.821364 0.9740 0.9740 0.9750 0.9750 0.9740
1992.897519 0.9740 0.9740 0.9740 0.9740 0.9740
1997.973675 0.9740 0.9730 0.9710 0.9710 0.9710
2003.049830 0.9705 0.9700 0.9695 0.9690 0.9690
2008.125986 0.9690 0.9695 0.9700 0.9700 0.9700
2013.202141 0.9705 0.9710 0.9710 0.9710 0.9710
2018.278297 0.9710 0.9710 0.9710 0.9705 0.9700
2023.354452 0.9700 0.9700 0.9695 0.9690 0.9690
2028.430608 0.9690 0.9685 0.9680 0.9680 0.9680
2033.506763 0.9680 0.9680 0.9680 0.9680 0.9675
2038.582919 0.9670 0.9670 0.9670 0.9675 0.9680
2043.659074 0.9685 0.9690 0.9690 0.9690 0.9690
2048.735230 0.9690 0.9695 0.9700 0.9700 0.9700
2053.811385 0.9695 0.9690 0.9690 0.9690 0.9690
2058.887541 0.9690 0.9690 0.9690 0.9690 0.9690
2063.963696 0.9685 0.9680 0.9685 0.9690 0.9685
2069.039852 0.9680 0.9675 0.9670 0.9665 0.9660
2074.116008 0.9665 0.9670 0.9675 0.9680 0.9680
2079.192163 0.9680 0.9685 0.9690 0.9695 0.9700
2084.268319 0.9700 0.9700 0.9700 0.9700 0.9700
2089.344474 0.9700 0.9700 0.9700 0.9695 0.9690
2094.420630 0.9690 0.9690 0.9690 0.9690 0.9690
2099.496785 0.9690 0.9690 0.9689 0.9684 0.9680
2104.572941 0.9680 0.9679 0.9674 0.9671 0.9676
2109.649096 0.9680 0.9680 0.9680 0.9680 0.9680
2114.725252 0.9680 0.9681 0.9686 0.9691 0.9696
2119.801407 0.9700 0.9700 0.9700 0.9700 0.9700
2124.877563 0.9700 0.9701 0.9706 0.9711 0.9716
2129.953718 0.9720 0.9720 0.9720 0.9720 0.9719
2135.029874 0.9714 0.9709 0.9699 0.9689 0.9684
2140.106029 0.9680 0.9680 0.9680 0.9680 0.9680
2145.182185 0.9680 0.9680 0.9680 0.9681 0.9686
2150.258340 0.9690 0.9690 0.9691 0.9696 0.9701
2155.334496 0.9706 0.9711 0.9716 0.9721 0.9726
2160.410651 0.9730 0.9730 0.9730 0.9730 0.9730
2165.486807 0.9730 0.9729 0.9724 0.9719 0.9714
2170.562962 0.9709 0.9704 0.9700 0.9700 0.9700
2175.639118 0.9700 0.9700 0.9700 0.9700 0.9700
2180.715273 0.9700 0.9700 0.9700 0.9700 0.9700
2185.791429 0.9700 0.9700 0.9700 0.9701 0.9706
2190.867584 0.9710 0.9710 0.9710 0.9710 0.9709
2195.943740 0.9704 0.9700 0.9700 0.9700 0.9700
2201.019895 0.9700 0.9700 0.9700 0.9700 0.9700
2206.096051 0.9700 0.9700 0.9700 0.9700 0.9700
2211.172206 0.9701 0.9706 0.9711 0.9716 0.9720
2216.248362 0.9720 0.9721 0.9726 0.9730 0.9730
2221.324517 0.9730 0.9730 0.9728 0.9718 0.9709
2226.400673 0.9704 0.9700 0.9700 0.9700 0.9700
2231.476828 0.9700 0.9700 0.9700 0.9700 0.9700
2236.552984 0.9700 0.9700 0.9700 0.9700 0.9700
2241.629139 0.9700 0.9700 0.9700 0.9700 0.9700
2246.705295 0.9700 0.9700 0.9700 0.9701 0.9706
2251.781450 0.9710 0.9710 0.9711 0.9716 0.9721
2256.857606 0.9726 0.9731 0.9736 0.9740 0.9740
2261.933761 0.9739 0.9734 0.9730 0.9730 0.9730
2267.009917 0.9730 0.9730 0.9730 0.9730 0.9730
2272.086072 0.9730 0.9730 0.9731 0.9736 0.9740
2277.162228 0.9740 0.9741 0.9746 0.9750 0.9750
2282.238383 0.9751 0.9756 0.9760 0.9760 0.9760
2287.314539 0.9760 0.9760 0.9760 0.9759 0.9754
2292.390694 0.9749 0.9744 0.9740 0.9740 0.9739
2297.466850 0.9734 0.9729 0.9724 0.9719 0.9714
2302.543005 0.9709 0.9703 0.9700 0.9700 0.9700
2307.619161 0.9700 0.9698 0.9693 0.9688 0.9683
2312.695317 0.9680 0.9680 0.9678 0.9673 0.9672
2317.771472 0.9677 0.9678 0.9673 0.9667 0.9657
2322.847628 0.9648 0.9643 0.9643 0.9653 0.9660
2327.923783 0.9660 0.9663 0.9673 0.9680 0.9680
2332.999939 0.9680 0.9680 0.9680 0.9680 0.9680
2338.076094 0.9680 0.9680 0.9680 0.9680 0.9680
2343.152250 0.9678 0.9673 0.9670 0.9670 0.9670
2348.228405 0.9670 0.9672 0.9677 0.9680 0.9680
2353.304561 0.9682 0.9687 0.9690 0.9690 0.9690
2358.380716 0.9690 0.9688 0.9683 0.9677 0.9667
2363.456872 0.9660 0.9660 0.9658 0.9653 0.9648
2368.533027 0.9643 0.9638 0.9633 0.9630 0.9630
2373.609183 0.9630 0.9630 0.9630 0.9630 0.9628
2378.685338 0.9623 0.9620 0.9620 0.9622 0.9627
2383.761494 0.9632 0.9637 0.9644 0.9654 0.9660
2388.837649 0.9660 0.9656 0.9646 0.9638 0.9633
2393.913805 0.9628 0.9623 0.9618 0.9613 0.9608
2398.989960 0.9603 0.9600 0.9600 0.9602 0.9607
2404.066116 0.9610 0.9610 0.9612 0.9617 0.9622
2409.142271 0.9627 0.9630 0.9630 0.9632 0.9637
2414.218427 0.9644 0.9654 0.9662 0.9667 0.9672
2419.294582 0.9677 0.9682 0.9687 0.9692 0.9697
2424.370738 0.9702 0.9707 0.9712 0.9717 0.9722
2429.446893 0.9727 0.9732 0.9737 0.9740 0.9740
2434.523049 0.9740 0.9740 0.9740 0.9740 0.9742
2439.599204 0.9747 0.9754 0.9764 0.9770 0.9770
2444.675360 0.9768 0.9763 0.9760 0.9760 0.9760
2449.751515 0.9760 0.9765 0.9775 0.9780 0.9780
2454.827671 0.9780 0.9780 0.9780 0.9780 0.9780
2459.903826 0.9780 0.9780 0.9780 0.9780 0.9780
2464.979982 0.9780 0.9780 0.9780 0.9780 0.9780
2470.056137 0.9780 0.9780 0.9780 0.9775 0.9765
2475.132293 0.9760 0.9760 0.9758 0.9753 0.9750
2480.208448 0.9750 0.9752 0.9757 0.9760 0.9760
2485.284604 0.9760 0.9760 0.9758 0.9753 0.9750
2490.360759 0.9750 0.9750 0.9750 0.9748 0.9743
2495.436915 0.9740 0.9740 0.9738 0.9733 0.9730
2500.513070 0.9730 0.9728 0.9723 0.9720 0.9720
2505.589226 0.9720 0.9720 0.9717 0.9712 0.9710
2510.665381 0.9710 0.9707 0.9702 0.9700 0.9700
2515.741537 0.9700 0.9700 0.9697 0.9692 0.9685
2520.817692 0.9675 0.9665 0.9655 0.9647 0.9642
2525.893848 0.9640 0.9640 0.9640 0.9640 0.9640
2530.970003 0.9640 0.9640 0.9640 0.9637 0.9632
2536.046159 0.9630 0.9630 0.9627 0.9622 0.9620
2541.122314 0.9620 0.9620 0.9620 0.9620 0.9620
2546.198470 0.9620 0.9620 0.9620 0.9620 0.9620
2551.274626 0.9620 0.9620 0.9620 0.9620 0.9620
2556.350781 0.9617 0.9612 0.9610 0.9610 0.9607
2561.426937 0.9602 0.9594 0.9584 0.9580 0.9580
2566.503092 0.9577 0.9572 0.9570 0.9570 0.9570
2571.579248 0.9570 0.9570 0.9570 0.9564 0.9554
2576.655403 0.9550 0.9550 0.9544 0.9534 0.9527
2581.731559 0.9522 0.9520 0.9520 0.9520 0.9520
2586.807714 0.9520 0.9520 0.9520 0.9520 0.9520
2591.883870 0.9520 0.9520 0.9520 0.9520 0.9520
2596.960025 0.9520 0.9520 0.9520 0.9520 0.9520
2602.036181 0.9520 0.9520 0.9520 0.9517 0.9512
2607.112336 0.9510 0.9510 0.9510 0.9510 0.9510
2612.188492 0.9510 0.9510 0.9510 0.9510 0.9510
2617.264647 0.9513 0.9518 0.9520 0.9520 0.9520
2622.340803 0.9520 0.9517 0.9512 0.9507 0.9502
2627.416958 0.9500 0.9500 0.9500 0.9500 0.9497
2632.493114 0.9492 0.9490 0.9490 0.9490 0.9490
2637.569269 0.9487 0.9482 0.9477 0.9472 0.9470
2642.645425 0.9470 0.9467 0.9462 0.9457 0.9452
2647.721580 0.9447 0.9442 0.9437 0.9432 0.9427
2652.797736 0.9422 0.9417 0.9412 0.9407 0.9402
2657.873891 0.9397 0.9392 0.9387 0.9382 0.9377
2662.950047 0.9372 0.9367 0.9362 0.9357 0.9352
2668.026202 0.9343 0.9333 0.9323 0.9313 0.9310
2673.102358 0.9310 0.9307 0.9302 0.9300 0.9300
2678.178513 0.9300 0.9300 0.9303 0.9308 0.9317
2683.254669 0.9327 0.9337 0.9347 0.9353 0.9358
2688.330824 0.9367 0.9377 0.9383 0.9388 0.9393
2693.406980 0.9398 0.9403 0.9408 0.9410 0.9410
2698.483135 0.9413 0.9418 0.9417 0.9412 0.9403
2703.559291 0.9393 0.9390 0.9390 0.9387 0.9382
2708.635446 0.9373 0.9363 0.9353 0.9343 0.9336
2713.711602 0.9331 0.9323 0.9313 0.9306 0.9301
2718.787757 0.9293 0.9283 0.9276 0.9271 0.9252
2723.863913 0.9227 0.9216 0.9211 0.9199 0.9184
2728.940068 0.9176 0.9171 0.9170 0.9170 0.9174
2734.016224 0.9179 0.9187 0.9197 0.9207 0.9217
2739.092379 0.9224 0.9229 0.9230 0.9230 0.9226
2744.168535 0.9221 0.9220 0.9220 0.9220 0.9220
2749.244690 0.9220 0.9220 0.9216 0.9211 0.9210
2754.320846 0.9210 0.9214 0.9219 0.9220 0.9220
2759.397001 0.9224 0.9229 0.9230 0.9230 0.9230
2764.473157 0.9230 0.9226 0.9221 0.9216 0.9211
2769.549312 0.9206 0.9201 0.9196 0.9191 0.9182
2774.625468 0.9172 0.9166 0.9161 0.9148 0.9133
2779.701623 0.9118 0.9103 0.9084 0.9064 0.9048
2784.777779 0.9033 0.9018 0.9003 0.8988 0.8973
2789.853935 0.8958 0.8943 0.8924 0.8904 0.8888
2794.930090 0.8873 0.8854 0.8834 0.8810 0.8785
2800.006246 0.8760 0.8735 0.8706 0.8676 0.8646
2805.082401 0.8616 0.8578 0.8538 0.8502 0.8467
2810.158557 0.8424 0.8378 0.8329 0.8279 0.8221
2815.234712 0.8161 0.8101 0.8041 0.7977 0.7912
2820.310868 0.7839 0.7764 0.7681 0.7596 0.7506
2825.387023 0.7416 0.7318 0.7218 0.7118 0.7018
2830.463179 0.6909 0.6798 0.6667 0.6532 0.6380
2835.539334 0.6225 0.6049 0.5869 0.5660 0.5445
2840.615490 0.5142 0.4822 0.4494 0.4164 0.3766
2845.691645 0.3356 0.2984 0.2619 0.2175 0.1715
2850.767801 0.1348 0.0999 0.0796 0.0616 0.0590
2855.843956 0.0590 0.0663 0.0748 0.0773 0.0788
2860.920112 0.0872 0.0967 0.1104 0.1249 0.1390
2865.996267 0.1530 0.1610 0.1680 0.1750 0.1820
2871.072423 0.1834 0.1839 0.1849 0.1859 0.1952
2876.148578 0.2057 0.2241 0.2436 0.2706 0.2986
2881.224734 0.3064 0.3114 0.3120 0.3120 0.3107
2886.300889 0.3092 0.2958 0.2808 0.2671 0.2536
2891.377045 0.2422 0.2311 0.2183 0.2053 0.1977
2896.453200 0.1907 0.1806 0.1701 0.1555 0.1405
2901.529356 0.1300 0.1200 0.1132 0.1067 0.1020
2906.605511 0.0975 0.0921 0.0866 0.0797 0.0727
2911.681667 0.0625 0.0519 0.0418 0.0318 0.0282
2916.757822 0.0252 0.0222 0.0192 0.0162 0.0132
2921.833978 0.0102 0.0072 0.0065 0.0060 0.0055
2926.910133 0.0050 0.0050 0.0050 0.0055 0.0060
2931.986289 0.0074 0.0089 0.0090 0.0090 0.0113
2937.062444 0.0138 0.0182 0.0227 0.0305 0.0385
2942.138600 0.0423 0.0458 0.0498 0.0538 0.0545
2947.214755 0.0550 0.0550 0.0550 0.0517 0.0482
2952.290911 0.0428 0.0372 0.0336 0.0301 0.0295
2957.367066 0.0290 0.0295 0.0300 0.0324 0.0349
2962.443222 0.0388 0.0428 0.0468 0.0508 0.0601
2967.519377 0.0696 0.0820 0.0945 0.1171 0.1401
2972.595533 0.1696 0.1994 0.2196 0.2396 0.2787
2977.671688 0.3182 0.3469 0.3754 0.4025 0.4295
2982.747844 0.4687 0.5082 0.5242 0.5397 0.5586
2987.823999 0.5776 0.5961 0.6146 0.6326 0.6506
2992.900155 0.6659 0.6810 0.6945 0.7080 0.7205
2997.976310 0.7330 0.7430 0.7530 0.7620 0.7710
3003.052466 0.7790 0.7870 0.7935 0.8000 0.8060
3008.128621 0.8120 0.8175 0.8230 0.8270 0.8310
3013.204777 0.8350 0.8391 0.8426 0.8461 0.8496
3018.280932 0.8531 0.8566 0.8600 0.8605 0.8610
3023.357088 0.8620 0.8630 0.8635 0.8640 0.8645
3028.433244 0.8650 0.8670 0.8690 0.8710 0.8731
3033.509399 0.8756 0.8781 0.8801 0.8821 0.8846
3038.585555 0.8871 0.8891 0.8910 0.8915 0.8920
3043.661710 0.8920 0.8920 0.8915 0.8909 0.8889
3048.737866 0.8869 0.8854 0.8839 0.8814 0.8789
3053.814021 0.8764 0.8739 0.8719 0.8698 0.8673
3058.890177 0.8649 0.8629 0.8609 0.8594 0.8578
3063.966332 0.8553 0.8530 0.8525 0.8520 0.8515
3069.042488 0.8510 0.8515 0.8520 0.8525 0.8531
3074.118643 0.8541 0.8554 0.8604 0.8657 0.8747
3079.194799 0.8837 0.8917 0.8996 0.9071 0.9144
3084.270954 0.9199 0.9252 0.9282 0.9312 0.9337
3089.347110 0.9361 0.9376 0.9390 0.9395 0.9400
3094.423265 0.9400 0.9400 0.9400 0.9399 0.9394
3099.499421 0.9390 0.9390 0.9393 0.9418 0.9443
3104.575576 0.9468 0.9491 0.9501 0.9511 0.9516
3109.651732 0.9521 0.9526 0.9531 0.9536 0.9541
3114.727887 0.9551 0.9560 0.9560 0.9561 0.9571
3119.804043 0.9580 0.9580 0.9581 0.9586 0.9590
3124.880198 0.9590 0.9590 0.9590 0.9591 0.9596
3129.956354 0.9601 0.9606 0.9610 0.9610 0.9610
3135.032509 0.9610 0.9610 0.9610 0.9611 0.9616
3140.108665 0.9620 0.9620 0.9619 0.9614 0.9609
3145.184820 0.9604 0.9600 0.9600 0.9599 0.9589
3150.260976 0.9579 0.9574 0.9570 0.9570 0.9571
3155.337131 0.9576 0.9582 0.9592 0.9600 0.9600
3160.413287 0.9602 0.9612 0.9621 0.9626 0.9630
3165.489442 0.9630 0.9629 0.9624 0.9619 0.9614
3170.565598 0.9610 0.9610 0.9609 0.9604 0.9601
3175.641753 0.9606 0.9610 0.9610 0.9611 0.9616
3180.717909 0.9621 0.9626 0.9631 0.9636 0.9640
3185.794064 0.9640 0.9641 0.9646 0.9652 0.9662
3190.870220 0.9671 0.9676 0.9680 0.9680 0.9681
3195.946375 0.9686 0.9690 0.9690 0.9691 0.9696
3201.022531 0.9700 0.9700 0.9701 0.9706 0.9710
3206.098686 0.9710 0.9711 0.9716 0.9720 0.9720
3211.174842 0.9721 0.9726 0.9730 0.9730 0.9731
3216.250997 0.9736 0.9740 0.9740 0.9741 0.9746
3221.327153 0.9751 0.9756 0.9760 0.9760 0.9761
3226.403308 0.9766 0.9770 0.9770 0.9771 0.9776
3231.479464 0.9781 0.9786 0.9791 0.9796 0.9800
3236.555619 0.9800 0.9801 0.9806 0.9810 0.9810
3241.631775 0.9810 0.9810 0.9810 0.9810 0.9809
3246.707930 0.9804 0.9800 0.9800 0.9799 0.9794
3251.784086 0.9790 0.9790 0.9791 0.9796 0.9800
3256.860241 0.9800 0.9801 0.9806 0.9810 0.9810
3261.936397 0.9810 0.9810 0.9810 0.9810 0.9810
3267.012553 0.9810 0.9810 0.9810 0.9810 0.9810
3272.088708 0.9810 0.9810 0.9810 0.9810 0.9810
3277.164864 0.9810 0.9810 0.9810 0.9810 0.9810
3282.241019 0.9810 0.9810 0.9809 0.9804 0.9800
3287.317175 0.9800 0.9800 0.9800 0.9800 0.9800
3292.393330 0.9800 0.9800 0.9800 0.9800 0.9800
3297.469486 0.9800 0.9800 0.9800 0.9800 0.9800
3302.545641 0.9800 0.9800 0.9802 0.9807 0.9810
3307.621797 0.9810 0.9810 0.9810 0.9810 0.9810
3312.697952 0.9810 0.9810 0.9812 0.9817 0.9820
3317.774108 0.9820 0.9820 0.9820 0.9820 0.9820
3322.850263 0.9820 0.9820 0.9820 0.9820 0.9820
3327.926419 0.9820 0.9820 0.9820 0.9820 0.9820
3333.002574 0.9818 0.9813 0.9810 0.9810 0.9810
3338.078730 0.9810 0.9810 0.9810 0.9810 0.9810
3343.154885 0.9810 0.9810 0.9810 0.9810 0.9810
3348.231041 0.9810 0.9810 0.9810 0.9810 0.9810
3353.307196 0.9810 0.9810 0.9810 0.9810 0.9810
3358.383352 0.9810 0.9810 0.9810 0.9810 0.9810
3363.459507 0.9810 0.9810 0.9810 0.9810 0.9810
3368.535663 0.9810 0.9810 0.9810 0.9810 0.9810
3373.611818 0.9810 0.9810 0.9810 0.9810 0.9808
3378.687974 0.9803 0.9800 0.9800 0.9800 0.9800
3383.764129 0.9800 0.9800 0.9800 0.9800 0.9800
3388.840285 0.9800 0.9800 0.9800 0.9800 0.9800
3393.916440 0.9800 0.9800 0.9800 0.9800 0.9800
3398.992596 0.9800 0.9798 0.9793 0.9788 0.9783
3404.068751 0.9776 0.9766 0.9760 0.9760 0.9758
3409.144907 0.9753 0.9748 0.9743 0.9736 0.9726
3414.221062 0.9718 0.9713 0.9708 0.9703 0.9692
3419.297218 0.9672 0.9651 0.9631 0.9616 0.9606
3424.373373 0.9594 0.9579 0.9566 0.9556 0.9544
3429.449529 0.9529 0.9518 0.9513 0.9508 0.9503
3434.525684 0.9500 0.9500 0.9500 0.9500 0.9500
3439.601840 0.9500 0.9502 0.9507 0.9514 0.9524
3444.677995 0.9530 0.9530 0.9537 0.9552 0.9564
3449.754151 0.9574 0.9582 0.9587 0.9594 0.9604
3454.830306 0.9617 0.9632 0.9647 0.9662 0.9677
3459.906462 0.9692 0.9705 0.9715 0.9729 0.9749
3464.982617 0.9762 0.9767 0.9775 0.9785 0.9795
3470.058773 0.9805 0.9810 0.9810 0.9815 0.9825
3475.134928 0.9835 0.9845 0.9852 0.9857 0.9862
3480.211084 0.9867 0.9872 0.9877 0.9880 0.9880
3485.287239 0.9880 0.9880 0.9880 0.9880 0.9880
3490.363395 0.9880 0.9880 0.9880 0.9880 0.9880
3495.439551 0.9878 0.9873 0.9870 0.9870 0.9870
3500.515706 0.9870 0.9867 0.9862 0.9857 0.9852
3505.591862 0.9850 0.9850 0.9850 0.9850 0.9850
3510.668017 0.9850 0.9850 0.9850 0.9850 0.9850
3515.744173 0.9850 0.9850 0.9850 0.9850 0.9850
3520.820328 0.9850 0.9850 0.9850 0.9850 0.9850
3525.896484 0.9853 0.9858 0.9860 0.9860 0.9860
3530.972639 0.9860 0.9860 0.9860 0.9860 0.9860
3536.048795 0.9860 0.9860 0.9860 0.9860 0.9860
3541.124950 0.9860 0.9860 0.9860 0.9860 0.9860
3546.201106 0.9860 0.9860 0.9860 0.9860 0.9860
3551.277261 0.9860 0.9860 0.9860 0.9860 0.9860
3556.353417 0.9860 0.9860 0.9860 0.9860 0.9860
3561.429572 0.9860 0.9860 0.9860 0.9860 0.9860
3566.505728 0.9863 0.9868 0.9870 0.9870 0.9873
3571.581883 0.9878 0.9886 0.9896 0.9929 0.9979
3576.658039 1.0003 1.0008 1.0013 1.0018 1.0017
3581.734194 1.0012 0.9998 0.9978 0.9961 0.9946
3586.810350 0.9925 0.9900 0.9884 0.9874 0.9864
3591.886505 0.9854 0.9847 0.9842 0.9837 0.9832
3596.962661 0.9830 0.9830 0.9830 0.9830 0.9827
3602.038816 0.9822 0.9820 0.9820 0.9817 0.9812
3607.114972 0.9807 0.9802 0.9800 0.9800 0.9797
3612.191127 0.9792 0.9790 0.9790 0.9787 0.9782
3617.267283 0.9780 0.9780 0.9780 0.9780 0.9780
3622.343438 0.9780 0.9780 0.9780 0.9780 0.9780
3627.419594 0.9780 0.9780 0.9780 0.9780 0.9780
3632.495749 0.9780 0.9780 0.9780 0.9780 0.9780
3637.571905 0.9777 0.9772 0.9770 0.9770 0.9770
3642.648060 0.9770 0.9770 0.9770 0.9770 0.9770
3647.724216 0.9767 0.9762 0.9760 0.9760 0.9757
3652.800371 0.9752 0.9750 0.9750 0.9750 0.9750
3657.876527 0.9753 0.9758 0.9763 0.9768 0.9773
3662.952682 0.9778 0.9780 0.9780 0.9780 0.9780
3668.028838 0.9780 0.9780 0.9777 0.9772 0.9767
3673.104993 0.9762 0.9760 0.9760 0.9757 0.9752
3678.181149 0.9747 0.9742 0.9740 0.9740 0.9740
3683.257304 0.9740 0.9740 0.9740 0.9740 0.9740
3688.333460 0.9740 0.9740 0.9743 0.9748 0.9750
3693.409615 0.9750 0.9753 0.9758 0.9763 0.9768
3698.485771 0.9773 0.9778 0.9780 0.9780 0.9780
3703.561926 0.9780 0.9780 0.9780 0.9776 0.9771
3708.638082 0.9766 0.9761 0.9756 0.9751 0.9750
3713.714237 0.9750 0.9750 0.9750 0.9754 0.9759
3718.790393 0.9764 0.9769 0.9774 0.9779 0.9780
3723.866548 0.9780 0.9780 0.9780 0.9776 0.9771
3728.942704 0.9766 0.9761 0.9760 0.9760 0.9760
3734.018860 0.9760 0.9756 0.9751 0.9754 0.9759
3739.095015 0.9756 0.9751 0.9750 0.9750 0.9750
3744.171171 0.9750 0.9750 0.9750 0.9746 0.9741
3749.247326 0.9740 0.9740 0.9744 0.9749 0.9750
3754.323482 0.9750 0.9754 0.9759 0.9764 0.9769
3759.399637 0.9770 0.9770 0.9762 0.9752 0.9750
3764.475793 0.9750 0.9750 0.9750 0.9750 0.9750
3769.551948 0.9750 0.9750 0.9754 0.9759 0.9760
3774.628104 0.9760 0.9764 0.9769 0.9770 0.9770
3779.704259 0.9770 0.9770 0.9770 0.9770 0.9766
3784.780415 0.9761 0.9760 0.9760 0.9760 0.9760
3789.856570 0.9760 0.9760 0.9760 0.9760 0.9760
3794.932726 0.9760 0.9760 0.9760 0.9764 0.9769
3800.008881 0.9770 0.9770 0.9770 0.9770 0.9774
3805.085037 0.9779 0.9780 0.9780 0.9780 0.9780
3810.161192 0.9780 0.9780 0.9780 0.9780 0.9780
3815.237348 0.9780 0.9776 0.9771 0.9770 0.9770
3820.313503 0.9770 0.9770 0.9770 0.9770 0.9770
3825.389659 0.9770 0.9770 0.9770 0.9770 0.9770
3830.465814 0.9770 0.9770 0.9770 0.9770 0.9770
3835.541970 0.9770 0.9770 0.9770 0.9770 0.9770
3840.618125 0.9770 0.9770 0.9770 0.9770 0.9770
3845.694281 0.9770 0.9770 0.9770 0.9770 0.9770
3850.770436 0.9770 0.9770 0.9770 0.9770 0.9766
3855.846592 0.9761 0.9760 0.9760 0.9760 0.9760
3860.922747 0.9756 0.9751 0.9750 0.9750 0.9754
3865.998903 0.9759 0.9760 0.9760 0.9760 0.9760
3871.075058 0.9764 0.9769 0.9770 0.9770 0.9770
3876.151214 0.9770 0.9770 0.9770 0.9770 0.9770
3881.227369 0.9770 0.9770 0.9766 0.9761 0.9760
3886.303525 0.9760 0.9764 0.9769 0.9770 0.9770
3891.379680 0.9770 0.9770 0.9770 0.9770 0.9766
3896.455836 0.9761 0.9760 0.9760 0.9760 0.9760
3901.531991 0.9756 0.9751 0.9746 0.9741 0.9740
3906.608147 0.9740 0.9740 0.9740 0.9740 0.9740
3911.684302 0.9740 0.9740 0.9740 0.9740 0.9740
3916.760458 0.9740 0.9735 0.9730 0.9730 0.9730
3921.836613 0.9730 0.9730 0.9730 0.9730 0.9730
3926.912769 0.9730 0.9730 0.9730 0.9730 0.9730
3931.988924 0.9730 0.9730 0.9730 0.9730 0.9735
3937.065080 0.9740 0.9740 0.9740 0.9740 0.9740
3942.141235 0.9735 0.9730 0.9735 0.9740 0.9740
3947.217391 0.9740 0.9740 0.9740 0.9740 0.9740
3952.293546 0.9740 0.9740 0.9740 0.9740 0.9745
3957.369702 0.9750 0.9750 0.9750 0.9750 0.9750
3962.445857 0.9745 0.9740 0.9735 0.9730 0.9725
3967.522013 0.9720 0.9720 0.9720 0.9715 0.9710
3972.598169 0.9715 0.9720 0.9720 0.9720 0.9725
3977.674324 0.9730 0.9730 0.9730 0.9730 0.9730
3982.750480 0.9730 0.9730 0.9725 0.9720 0.9720
3987.826635 0.9720 0.9715 0.9710 0.9705 0.9700
##END=
