##TITLE=PYRIDINE, 4,5-DI(HYDROXYMETHYL)-3-MERCAPTO-2-METHYL- , HYDROCHLORIDE
##JCAMP-DX=4.24
##DATA TYPE=INFRARED SPECTRUM
##CLASS=COBLENTZ III
##ORIGIN=SOUTHERN RESEARCH INSTITUTE
##OWNER=COBLENTZ SOCIETY
Collection (C) 2018 copyright by the U.S. Secretary of Commerce
on behalf of the United States of America. All rights reserved.
##DATE=1962/02/01
##MOLFORM=C8 H12 Cl N O2 S
##SOURCE REFERENCE=COBLENTZ NO. 10465
##$NIST ID=B6010465
##$NIST SOURCE=COBLENTZ
##$NIST IMAGE=cob10465
##SPECTROMETER/DATA SYSTEM=PERKIN-ELMER 221 (GRATING)
##INSTRUMENT PARAMETERS=GRATING FOR 4000-1428, FILTERS AT 2490, 980, NaCl PRISM FOR 1428-650 CM^-^1
##STATE=SOLID (2 mg / 650 mg KBr DISC)
##PATH LENGTH=
$$ PURITY - ANALYTICAL
##SAMPLING PROCEDURE=TRANSMISSION
##RESOLUTION=4
##DATA PROCESSING=DIGITIZED BY NIST FROM HARD COPY (FROM TWO SEGMENTS)
##XUNITS=1/CM
##YUNITS=TRANSMITTANCE
##XFACTOR=1.000000
##YFACTOR=1
##DELTAX=1.234568
##FIRSTX=651.989
##LASTX=4002.61
##FIRSTY=0.759
##MAXX=4002.61
##MINX=651.989
##MAXY=0.852517
##MINY=0.1322
##NPOINTS=2715
##XYDATA=(X++(Y..Y))
651.989000 0.7590 0.7590 0.7610 0.7640 0.7640
658.161840 0.7650 0.7650 0.7660 0.7660 0.7660
664.334680 0.7650 0.7611 0.7591 0.7542 0.7502
670.507520 0.7452 0.7393 0.7381 0.7389 0.7409
676.680360 0.7457 0.7535 0.7709 0.7823 0.7961
682.853200 0.8026 0.8067 0.8079 0.8089 0.8090
689.026040 0.8090 0.8081 0.8062 0.8042 0.8031
695.198880 0.8021 0.8011 0.7983 0.7935 0.7832
701.371720 0.7722 0.7630 0.7602 0.7379 0.7218
707.544560 0.7191 0.7199 0.7356 0.7475 0.7671
713.717400 0.7856 0.7940 0.7950 0.7959 0.7960
719.890240 0.7952 0.7933 0.7922 0.7878 0.7820
726.063080 0.7768 0.7685 0.7562 0.7415 0.7208
732.235920 0.7047 0.6905 0.6766 0.6382 0.6001
738.408760 0.5694 0.5129 0.4735 0.4405 0.4332
744.581600 0.5135 0.5499 0.5793 0.6450 0.7589
750.754440 0.8324 0.8481 0.8490 0.8467 0.8445
756.927280 0.8355 0.8200 0.8160 0.8190 0.8351
763.100120 0.8484 0.8525 0.8515 0.8510 0.8503
769.272960 0.8493 0.8468 0.8453 0.8450 0.8443
775.445800 0.8447 0.8450 0.8450 0.8443 0.8440
781.618640 0.8433 0.8416 0.8403 0.8386 0.8359
787.791480 0.8315 0.8265 0.8236 0.8209 0.8193
793.964320 0.8176 0.8142 0.8123 0.8086 0.8036
800.137160 0.7986 0.7963 0.7953 0.7957 0.7967
806.310000 0.7977 0.7980 0.7973 0.7963 0.7954
812.482840 0.7937 0.7917 0.7904 0.7881 0.7857
818.655680 0.7824 0.7778 0.7747 0.7721 0.7673
824.828520 0.7612 0.7559 0.7521 0.7498 0.7459
831.001360 0.7409 0.7360 0.7316 0.7270 0.7220
837.174200 0.7176 0.7118 0.7048 0.6949 0.6818
843.347040 0.6690 0.6564 0.6429 0.6267 0.6082
849.519880 0.5857 0.5578 0.5245 0.4971 0.4762
855.692720 0.4418 0.4059 0.3770 0.3624 0.3615
861.865560 0.3778 0.4030 0.4309 0.4875 0.5450
868.038400 0.5874 0.6344 0.6801 0.7089 0.7227
874.211240 0.7368 0.7502 0.7597 0.7645 0.7650
880.384080 0.7650 0.7650 0.7645 0.7630 0.7615
886.556920 0.7605 0.7595 0.7575 0.7550 0.7525
892.729760 0.7500 0.7476 0.7451 0.7426 0.7396
898.902600 0.7375 0.7370 0.7370 0.7375 0.7385
905.075440 0.7408 0.7435 0.7440 0.7444 0.7446
911.248280 0.7440 0.7436 0.7417 0.7396 0.7381
917.421120 0.7370 0.7370 0.7357 0.7336 0.7330
923.593960 0.7326 0.7312 0.7292 0.7256 0.7188
929.766800 0.7136 0.7126 0.7116 0.7102 0.7071
935.939640 0.7040 0.7036 0.7011 0.6950 0.6892
942.112480 0.6869 0.6820 0.6752 0.6709 0.6658
948.285320 0.6557 0.6444 0.6348 0.6276 0.6229
954.458160 0.6131 0.5951 0.5776 0.5640 0.5530
960.631000 0.5507 0.5503 0.5517 0.5520 0.5477
966.803840 0.5398 0.5301 0.5218 0.5142 0.5062
972.976680 0.5017 0.5013 0.5081 0.5268 0.5467
979.149520 0.5705 0.5790 0.5784 0.5770 0.5767
985.322360 0.5754 0.5732 0.5704 0.5671 0.5598
991.495200 0.5519 0.5431 0.5324 0.5217 0.5100
997.668040 0.5022 0.4929 0.4759 0.4550 0.4286
1003.840880 0.4003 0.3915 0.3900 0.3900 0.3900
1010.013720 0.3900 0.3895 0.3869 0.3790 0.3598
1016.186560 0.3341 0.3033 0.2745 0.2374 0.1974
1022.359400 0.1644 0.1368 0.1322 0.1338 0.1443
1028.532240 0.1824 0.2229 0.2689 0.3052 0.3351
1034.705080 0.3707 0.4095 0.4535 0.5239 0.5585
1040.877920 0.5910 0.6211 0.6467 0.6700 0.6894
1047.050760 0.7052 0.7197 0.7291 0.7303 0.7317
1053.223600 0.7300 0.7299 0.7290 0.7285 0.7237
1059.396440 0.7136 0.7100 0.7024 0.6971 0.6891
1065.569280 0.6801 0.6632 0.6460 0.6241 0.5774
1071.742120 0.5531 0.5545 0.5601 0.5743 0.6092
1077.914960 0.6337 0.6544 0.6705 0.6761 0.6770
1084.087800 0.6770 0.6770 0.6770 0.6769 0.6757
1090.260640 0.6707 0.6647 0.6589 0.6559 0.6529
1096.433480 0.6510 0.6499 0.6478 0.6438 0.6390
1102.606320 0.6389 0.6349 0.6299 0.6249 0.6199
1108.779160 0.6160 0.6130 0.6120 0.6109 0.6039
1114.952000 0.5970 0.5880 0.5820 0.5800 0.5760
1121.124840 0.5721 0.5690 0.5660 0.5660 0.5650
1127.297680 0.5582 0.5531 0.5491 0.5480 0.5461
1133.470520 0.5450 0.5392 0.5303 0.5233 0.5201
1139.643360 0.5171 0.5066 0.5003 0.4953 0.4884
1145.816200 0.4815 0.4772 0.4742 0.4675 0.4559
1151.989040 0.4495 0.4481 0.4443 0.4413 0.4328
1158.161880 0.4202 0.4126 0.4011 0.3837 0.3676
1164.334720 0.3552 0.3468 0.3407 0.3382 0.3371
1170.507560 0.3370 0.3352 0.3341 0.3305 0.3256
1176.680400 0.3189 0.3119 0.3032 0.2891 0.2776
1182.853240 0.2675 0.2523 0.2440 0.2353 0.2281
1189.026080 0.2185 0.2052 0.1862 0.1738 0.1695
1195.198920 0.1657 0.1642 0.1648 0.1667 0.1884
1201.371760 0.2077 0.2224 0.2347 0.2483 0.2655
1207.544600 0.2874 0.3049 0.3233 0.3278 0.3280
1213.717440 0.3256 0.3116 0.2994 0.2853 0.2727
1219.890280 0.2623 0.2592 0.2598 0.2615 0.2697
1226.063120 0.2797 0.2904 0.3006 0.3075 0.3263
1232.235960 0.3462 0.3668 0.3900 0.4124 0.4351
1238.408800 0.4580 0.4957 0.5239 0.5468 0.5690
1244.581640 0.5894 0.5986 0.6058 0.6138 0.6311
1250.754480 0.6413 0.6444 0.6471 0.6487 0.6497
1256.927320 0.6500 0.6493 0.6483 0.6466 0.6460
1263.100160 0.6453 0.6450 0.6457 0.6548 0.6671
1269.273000 0.6784 0.6927 0.7054 0.7143 0.7210
1275.445840 0.7237 0.7240 0.7233 0.7224 0.7201
1281.618680 0.7184 0.7174 0.7144 0.7117 0.7091
1287.791520 0.7074 0.7070 0.7076 0.7099 0.7153
1293.964360 0.7192 0.7262 0.7343 0.7376 0.7374
1300.137200 0.7352 0.7328 0.7296 0.7262 0.7238
1306.310040 0.7206 0.7160 0.7122 0.7069 0.7005
1312.482880 0.6939 0.6864 0.6807 0.6773 0.6754
1318.655720 0.6750 0.6733 0.6658 0.6554 0.6449
1324.828560 0.6328 0.6160 0.5993 0.5854 0.5779
1331.001400 0.5781 0.5838 0.5928 0.6050 0.6232
1337.174240 0.6399 0.6554 0.6734 0.6851 0.6926
1343.347080 0.6975 0.6990 0.7000 0.6985 0.6965
1349.519920 0.6955 0.6930 0.6865 0.6736 0.6630
1355.692760 0.6610 0.6581 0.6521 0.6437 0.6308
1361.865600 0.6187 0.6116 0.6062 0.5984 0.5847
1368.038440 0.5677 0.5508 0.5258 0.5021 0.4882
1374.211280 0.4647 0.4366 0.4157 0.3948 0.3830
1380.384120 0.3955 0.4228 0.4444 0.4926 0.5559
1386.556960 0.5826 0.6012 0.6132 0.6224 0.6230
1392.729800 0.6226 0.6220 0.6187 0.6112 0.5986
1398.902640 0.5765 0.5538 0.5328 0.5138 0.5017
1405.075480 0.4954 0.4853 0.4756 0.4750 0.4757
1411.248320 0.4789 0.4853 0.4932 0.4981 0.5007
1417.421160 0.5027 0.5058 0.5115 0.5181 0.5227
1423.594000 0.5261 0.5348 0.5487 0.5637 0.5789
1429.766840 0.5906 0.6009 0.6099 0.6163 0.6170
1435.939680 0.6167 0.6097 0.5907 0.5716 0.5474
1442.112520 0.5249 0.5079 0.4870 0.4592 0.4360
1448.285360 0.4123 0.3874 0.3564 0.3247 0.3052
1454.458200 0.3038 0.3093 0.3205 0.3387 0.3847
1460.631040 0.4522 0.5353 0.5622 0.5803 0.5807
1466.803880 0.5726 0.5431 0.5188 0.5058 0.4863
1472.976720 0.4474 0.4158 0.4006 0.3958 0.3954
1479.149560 0.4012 0.4350 0.5154 0.5697 0.6187
1485.322400 0.6654 0.6982 0.7211 0.7344 0.7402
1491.495240 0.7414 0.7432 0.7440 0.7434 0.7408
1497.668080 0.7398 0.7370 0.7253 0.7113 0.7011
1503.840920 0.6910 0.6850 0.6792 0.6740 0.6679
1510.013760 0.6599 0.6458 0.6251 0.6080 0.5990
1516.186600 0.5753 0.5370 0.5160 0.5032 0.4971
1522.359440 0.4869 0.4559 0.4241 0.3928 0.3576
1528.532280 0.3200 0.2770 0.2407 0.2078 0.2063
1534.705120 0.2112 0.2320 0.2526 0.2798 0.3097
1540.877960 0.3422 0.4065 0.5123 0.5496 0.5905
1547.050800 0.6200 0.6448 0.6692 0.7009 0.7403
1553.223640 0.7444 0.7502 0.7532 0.7564 0.7624
1559.396480 0.7693 0.7750 0.7762 0.7801 0.7832
1565.569320 0.7870 0.7881 0.7900 0.7911 0.7931
1571.742160 0.7950 0.7950 0.7950 0.7950 0.7950
1577.915000 0.7950 0.7950 0.7950 0.7930 0.7930
1584.087840 0.7920 0.7900 0.7880 0.7860 0.7850
1590.260680 0.7821 0.7810 0.7800 0.7790 0.7770
1596.433520 0.7741 0.7701 0.7652 0.7602 0.7542
1602.606360 0.7492 0.7414 0.7353 0.7274 0.7194
1608.779200 0.7095 0.7005 0.6878 0.6758 0.6545
1614.952040 0.6307 0.6197 0.6023 0.5676 0.5234
1621.124880 0.4952 0.4683 0.4642 0.4995 0.5202
1627.297720 0.5229 0.5230 0.5085 0.5070 0.5178
1633.470560 0.6111 0.6656 0.7065 0.7295 0.7619
1639.643400 0.7730 0.7749 0.7759 0.7751 0.7724
1645.816240 0.7711 0.7693 0.7690 0.7673 0.7670
1651.989080 0.7687 0.7690 0.7707 0.7710 0.7702
1658.161920 0.7700 0.7692 0.7673 0.7662 0.7660
1664.334760 0.7652 0.7642 0.7624 0.7620 0.7612
1670.507600 0.7610 0.7610 0.7610 0.7602 0.7600
1676.680440 0.7600 0.7592 0.7590 0.7590 0.7582
1682.853280 0.7580 0.7580 0.7557 0.7550 0.7550
1689.026120 0.7542 0.7540 0.7532 0.7515 0.7464
1695.198960 0.7420 0.7395 0.7382 0.7372 0.7370
1701.371800 0.7355 0.7350 0.7343 0.7333 0.7308
1707.544640 0.7293 0.7275 0.7248 0.7233 0.7201
1713.717480 0.7147 0.7080 0.7024 0.6974 0.6932
1719.890320 0.6906 0.6879 0.6863 0.6860 0.6860
1726.063160 0.6860 0.6860 0.6867 0.6891 0.6914
1732.236000 0.6975 0.7088 0.7177 0.7234 0.7263
1738.408840 0.7277 0.7287 0.7297 0.7300 0.7300
1744.581680 0.7300 0.7300 0.7294 0.7296 0.7300
1750.754520 0.7300 0.7300 0.7300 0.7300 0.7294
1756.927360 0.7290 0.7290 0.7284 0.7280 0.7274
1763.100200 0.7270 0.7252 0.7234 0.7212 0.7194
1769.273040 0.7178 0.7170 0.7164 0.7160 0.7148
1775.445880 0.7140 0.7140 0.7128 0.7114 0.7098
1781.618720 0.7078 0.7053 0.7034 0.7024 0.7020
1787.791560 0.7020 0.7014 0.7010 0.7004 0.6989
1793.964400 0.6975 0.6965 0.6955 0.6934 0.6920
1800.137240 0.6915 0.6905 0.6884 0.6865 0.6844
1806.310080 0.6820 0.6805 0.6785 0.6765 0.6740
1812.482920 0.6705 0.6670 0.6645 0.6640 0.6630
1818.655760 0.6615 0.6595 0.6555 0.6491 0.6416
1824.828600 0.6375 0.6356 0.6340 0.6335 0.6330
1831.001440 0.6330 0.6330 0.6330 0.6335 0.6354
1837.174280 0.6379 0.6399 0.6433 0.6478 0.6518
1843.347120 0.6571 0.6650 0.6718 0.6744 0.6754
1849.519960 0.6764 0.6778 0.6790 0.6790 0.6782
1855.692800 0.6770 0.6770 0.6766 0.6760 0.6756
1861.865640 0.6750 0.6738 0.6712 0.6688 0.6666
1868.038480 0.6660 0.6656 0.6650 0.6650 0.6646
1874.211320 0.6633 0.6620 0.6616 0.6606 0.6600
1880.384160 0.6596 0.6586 0.6569 0.6546 0.6536
1886.557000 0.6523 0.6503 0.6480 0.6450 0.6416
1892.729840 0.6387 0.6370 0.6343 0.6317 0.6284
1898.902680 0.6257 0.6217 0.6187 0.6174 0.6154
1905.075520 0.6140 0.6140 0.6140 0.6140 0.6140
1911.248360 0.6137 0.6127 0.6120 0.6111 0.6084
1917.421200 0.6056 0.6017 0.5996 0.5935 0.5854
1923.594040 0.5807 0.5789 0.5749 0.5691 0.5581
1929.766880 0.5474 0.5385 0.5330 0.5293 0.5258
1935.939720 0.5215 0.5200 0.5205 0.5220 0.5222
1942.112560 0.5232 0.5242 0.5255 0.5274 0.5297
1948.285400 0.5333 0.5395 0.5471 0.5571 0.5671
1954.458240 0.5767 0.5848 0.5938 0.6024 0.6092
1960.631080 0.6151 0.6207 0.6247 0.6287 0.6322
1966.803920 0.6332 0.6342 0.6353 0.6372 0.6380
1972.976760 0.6382 0.6390 0.6388 0.6380 0.6378
1979.149600 0.6370 0.6367 0.6349 0.6339 0.6329
1985.322440 0.6316 0.6290 0.6289 0.6280 0.6280
1991.495280 0.6280 0.6279 0.6268 0.6249 0.6235
1997.668120 0.6198 0.6176 0.6134 0.6088 0.6066
2003.840960 0.6028 0.6007 0.5977 0.5948 0.5928
2010.013800 0.5909 0.5900 0.5901 0.5910 0.5912
2016.186640 0.5932 0.5953 0.5983 0.6016 0.6074
2022.359480 0.6115 0.6162 0.6184 0.6221 0.6231
2028.532320 0.6241 0.6250 0.6252 0.6270 0.6270
2034.705160 0.6268 0.6250 0.6252 0.6270 0.6271
2040.878000 0.6280 0.6281 0.6290 0.6289 0.6280
2047.050840 0.6279 0.6270 0.6267 0.6238 0.6217
2053.223680 0.6190 0.6189 0.6180 0.6182 0.6200
2059.396520 0.6200 0.6199 0.6189 0.6179 0.6169
2065.569360 0.6157 0.6129 0.6119 0.6110 0.6108
2071.742200 0.6089 0.6079 0.6069 0.6060 0.6058
2077.915040 0.6040 0.6040 0.6040 0.6039 0.6030
2084.087880 0.6030 0.6030 0.6029 0.6020 0.6020
2090.260720 0.6020 0.6020 0.6020 0.6020 0.6020
2096.433560 0.6020 0.6020 0.6019 0.6010 0.6010
2102.606400 0.6010 0.6009 0.6000 0.6000 0.6000
2108.779240 0.5998 0.5980 0.5980 0.5980 0.5980
2114.952080 0.5980 0.5980 0.5980 0.5980 0.5979
2121.124920 0.5969 0.5960 0.5959 0.5948 0.5930
2127.297760 0.5930 0.5930 0.5930 0.5930 0.5930
2133.470600 0.5930 0.5930 0.5930 0.5930 0.5930
2139.643440 0.5930 0.5929 0.5919 0.5907 0.5879
2145.816280 0.5869 0.5857 0.5830 0.5830 0.5829
2151.989120 0.5819 0.5810 0.5810 0.5809 0.5800
2158.161960 0.5800 0.5800 0.5800 0.5800 0.5800
2164.334800 0.5799 0.5790 0.5790 0.5790 0.5790
2170.507640 0.5790 0.5788 0.5769 0.5759 0.5750
2176.680480 0.5749 0.5738 0.5720 0.5720 0.5720
2182.853320 0.5720 0.5719 0.5710 0.5709 0.5700
2189.026160 0.5699 0.5690 0.5688 0.5669 0.5660
2195.199000 0.5659 0.5650 0.5649 0.5638 0.5620
2201.371840 0.5620 0.5619 0.5610 0.5610 0.5610
2207.544680 0.5611 0.5619 0.5610 0.5609 0.5599
2213.717520 0.5590 0.5589 0.5578 0.5560 0.5559
2219.890360 0.5550 0.5550 0.5549 0.5540 0.5540
2226.063200 0.5539 0.5530 0.5530 0.5528 0.5509
2232.236040 0.5499 0.5489 0.5478 0.5459 0.5450
2238.408880 0.5449 0.5440 0.5440 0.5439 0.5430
2244.581720 0.5430 0.5428 0.5410 0.5409 0.5399
2250.754560 0.5390 0.5389 0.5380 0.5380 0.5379
2256.927400 0.5368 0.5349 0.5340 0.5340 0.5339
2263.100240 0.5330 0.5330 0.5329 0.5320 0.5320
2269.273080 0.5320 0.5318 0.5299 0.5291 0.5299
2275.445920 0.5290 0.5289 0.5279 0.5268 0.5249
2281.618760 0.5240 0.5239 0.5230 0.5229 0.5220
2287.791600 0.5218 0.5200 0.5199 0.5189 0.5178
2293.964440 0.5158 0.5139 0.5130 0.5129 0.5120
2300.137280 0.5119 0.5110 0.5108 0.5090 0.5089
2306.310120 0.5079 0.5069 0.5060 0.5060 0.5058
2312.482960 0.5040 0.5039 0.5029 0.5018 0.4997
2318.655800 0.4968 0.4947 0.4919 0.4909 0.4897
2324.828640 0.4866 0.4828 0.4809 0.4799 0.4790
2331.001480 0.4788 0.4769 0.4758 0.4738 0.4719
2337.174320 0.4709 0.4699 0.4688 0.4669 0.4659
2343.347160 0.4649 0.4638 0.4620 0.4619 0.4610
2349.520000 0.4610 0.4609 0.4599 0.4589 0.4578
2355.692840 0.4559 0.4549 0.4540 0.4539 0.4528
2361.865680 0.4509 0.4499 0.4489 0.4478 0.4460
2368.038520 0.4459 0.4450 0.4450 0.4449 0.4440
2374.211360 0.4440 0.4441 0.4450 0.4449 0.4440
2380.384200 0.4440 0.4440 0.4440 0.4439 0.4430
2386.557040 0.4427 0.4399 0.4389 0.4379 0.4368
2392.729880 0.4350 0.4349 0.4340 0.4339 0.4330
2398.902720 0.4329 0.4320 0.4318 0.4299 0.4289
2405.075560 0.4277 0.4250 0.4249 0.4240 0.4240
2411.248400 0.4239 0.4229 0.4218 0.4200 0.4199
2417.421240 0.4187 0.4156 0.4119 0.4108 0.4089
2423.594080 0.4080 0.4079 0.4070 0.4069 0.4058
2429.766920 0.4039 0.4030 0.4029 0.4018 0.3998
2435.939760 0.3977 0.3948 0.3927 0.3896 0.3857
2442.112600 0.3829 0.3819 0.3809 0.3799 0.3788
2448.285440 0.3770 0.3769 0.3760 0.3759 0.3749
2454.458280 0.3740 0.3738 0.3719 0.3709 0.3699
2460.631120 0.3688 0.3668 0.3647 0.3619 0.3609
2466.803960 0.3599 0.3587 0.3557 0.3527 0.3498
2472.976800 0.3477 0.3449 0.3437 0.3409 0.3399
2479.149640 0.3388 0.3367 0.3338 0.3314 0.3264
2485.322480 0.3211 0.3138 0.3115 0.3064 0.3006
2491.495320 0.2970 0.2963 0.2892 0.2828 0.2806
2497.668160 0.2768 0.2743 0.2688 0.2665 0.2614
2503.841000 0.2558 0.2537 0.2509 0.2499 0.2490
2510.013840 0.2490 0.2490 0.2492 0.2514 0.2555
2516.186680 0.2607 0.2677 0.2747 0.2813 0.2931
2522.359520 0.3035 0.3174 0.3301 0.3402 0.3512
2528.532360 0.3615 0.3661 0.3672 0.3691 0.3700
2534.705200 0.3700 0.3700 0.3699 0.3690 0.3690
2540.878040 0.3688 0.3669 0.3659 0.3649 0.3640
2547.050880 0.3638 0.3620 0.3619 0.3609 0.3595
2553.223720 0.3549 0.3537 0.3504 0.3457 0.3428
2559.396560 0.3410 0.3409 0.3400 0.3399 0.3390
2565.569400 0.3389 0.3379 0.3368 0.3348 0.3326
2571.742240 0.3285 0.3238 0.3217 0.3188 0.3166
2577.915080 0.3128 0.3107 0.3079 0.3069 0.3057
2584.087920 0.3029 0.3019 0.3007 0.2979 0.2968
2590.260760 0.2946 0.2905 0.2857 0.2829 0.2818
2596.433600 0.2799 0.2790 0.2788 0.2769 0.2759
2602.606440 0.2749 0.2738 0.2719 0.2710 0.2710
2608.779280 0.2709 0.2700 0.2700 0.2701 0.2709
2614.952120 0.2700 0.2699 0.2690 0.2688 0.2669
2621.124960 0.2659 0.2649 0.2640 0.2638 0.2620
2627.297800 0.2619 0.2610 0.2610 0.2610 0.2609
2633.470640 0.2598 0.2572 0.2509 0.2499 0.2490
2639.643480 0.2489 0.2478 0.2459 0.2449 0.2439
2645.816320 0.2430 0.2428 0.2410 0.2409 0.2400
2651.989160 0.2399 0.2389 0.2377 0.2349 0.2339
2658.162000 0.2329 0.2320 0.2320 0.2320 0.2318
2664.334840 0.2300 0.2299 0.2289 0.2279 0.2268
2670.507680 0.2249 0.2239 0.2229 0.2220 0.2218
2676.680520 0.2198 0.2179 0.2167 0.2137 0.2107
2682.853360 0.2078 0.2058 0.2040 0.2039 0.2029
2689.026200 0.2019 0.2009 0.2000 0.1998 0.1980
2695.199040 0.1980 0.1979 0.1969 0.1960 0.1959
2701.371880 0.1947 0.1916 0.1878 0.1860 0.1859
2707.544720 0.1850 0.1850 0.1850 0.1848 0.1830
2713.717560 0.1830 0.1830 0.1830 0.1829 0.1821
2719.890400 0.1827 0.1797 0.1768 0.1747 0.1718
2726.063240 0.1700 0.1700 0.1699 0.1690 0.1690
2732.236080 0.1690 0.1688 0.1670 0.1670 0.1670
2738.408920 0.1672 0.1690 0.1691 0.1701 0.1711
2744.581760 0.1722 0.1740 0.1742 0.1760 0.1761
2750.754600 0.1772 0.1791 0.1800 0.1800 0.1799
2756.927440 0.1790 0.1790 0.1788 0.1770 0.1770
2763.100280 0.1770 0.1769 0.1760 0.1760 0.1760
2769.273120 0.1760 0.1760 0.1761 0.1770 0.1769
2775.445960 0.1760 0.1759 0.1749 0.1738 0.1719
2781.618800 0.1709 0.1700 0.1699 0.1690 0.1690
2787.791640 0.1691 0.1700 0.1700 0.1701 0.1711
2793.964480 0.1722 0.1741 0.1754 0.1791 0.1802
2800.137320 0.1823 0.1853 0.1884 0.1923 0.1952
2806.310160 0.1970 0.1971 0.1980 0.1980 0.1980
2812.483000 0.1982 0.2000 0.2001 0.2011 0.2024
2818.655840 0.2067 0.2121 0.2131 0.2144 0.2185
2824.828680 0.2240 0.2326 0.2386 0.2438 0.2510
2831.001520 0.2595 0.2645 0.2692 0.2711 0.2724
2837.174360 0.2764 0.2801 0.2811 0.2820 0.2820
2843.347200 0.2821 0.2832 0.2851 0.2861 0.2871
2849.520040 0.2882 0.2900 0.2900 0.2898 0.2880
2855.692880 0.2880 0.2880 0.2879 0.2870 0.2870
2861.865720 0.2870 0.2871 0.2880 0.2882 0.2900
2868.038560 0.2900 0.2901 0.2910 0.2912 0.2932
2874.211400 0.2951 0.2961 0.2973 0.3000 0.3001
2880.384240 0.3011 0.3021 0.3030 0.3031 0.3042
2886.557080 0.3061 0.3070 0.3071 0.3080 0.3080
2892.729920 0.3081 0.3090 0.3090 0.3090 0.3090
2898.902760 0.3090 0.3090 0.3089 0.3080 0.3079
2905.075600 0.3069 0.3060 0.3060 0.3058 0.3040
2911.248440 0.3039 0.3030 0.3029 0.3019 0.3010
2917.421280 0.3010 0.3010 0.3010 0.3010 0.3009
2923.594120 0.3000 0.3000 0.3000 0.3000 0.2998
2929.766960 0.2980 0.2980 0.2980 0.2982 0.3001
2935.939800 0.3011 0.3021 0.3031 0.3040 0.3042
2942.112640 0.3061 0.3071 0.3080 0.3081 0.3090
2948.285480 0.3090 0.3092 0.3111 0.3120 0.3121
2954.458320 0.3130 0.3130 0.3131 0.3140 0.3142
2960.631160 0.3160 0.3161 0.3170 0.3170 0.3171
2966.804000 0.3180 0.3180 0.3180 0.3181 0.3190
2972.976840 0.3191 0.3200 0.3200 0.3200 0.3200
2979.149680 0.3199 0.3189 0.3179 0.3170 0.3169
2985.322520 0.3157 0.3129 0.3119 0.3107 0.3073
2991.495360 0.3018 0.2996 0.2949 0.2855 0.2806
2997.668200 0.2770 0.2768 0.2747 0.2717 0.2687
3003.841040 0.2659 0.2650 0.2649 0.2638 0.2620
3010.013880 0.2619 0.2609 0.2600 0.2600 0.2599
3016.186720 0.2590 0.2589 0.2580 0.2580 0.2580
3022.359560 0.2578 0.2560 0.2560 0.2560 0.2562
3028.532400 0.2580 0.2580 0.2580 0.2580 0.2580
3034.705240 0.2580 0.2578 0.2560 0.2560 0.2559
3040.878080 0.2550 0.2549 0.2540 0.2539 0.2530
3047.050920 0.2528 0.2510 0.2509 0.2500 0.2499
3053.223760 0.2490 0.2489 0.2480 0.2480 0.2478
3059.396600 0.2458 0.2439 0.2430 0.2428 0.2408
3065.569440 0.2390 0.2389 0.2371 0.2297 0.2268
3071.742280 0.2248 0.2229 0.2218 0.2199 0.2189
3077.915120 0.2180 0.2179 0.2169 0.2158 0.2139
3084.087960 0.2128 0.2110 0.2108 0.2090 0.2090
3090.260800 0.2090 0.2090 0.2090 0.2089 0.2080
3096.433640 0.2080 0.2079 0.2070 0.2067 0.2040
3102.606480 0.2039 0.2029 0.2019 0.2010 0.2009
3108.779320 0.2000 0.2001 0.2013 0.2046 0.2094
3114.952160 0.2134 0.2173 0.2205 0.2255 0.2303
3121.125000 0.2335 0.2382 0.2403 0.2432 0.2451
3127.297840 0.2462 0.2480 0.2481 0.2490 0.2491
3133.470680 0.2500 0.2501 0.2512 0.2536 0.2584
3139.643520 0.2624 0.2664 0.2701 0.2711 0.2720
3145.816360 0.2723 0.2751 0.2761 0.2774 0.2811
3151.989200 0.2821 0.2830 0.2832 0.2851 0.2861
3158.162040 0.2871 0.2883 0.2911 0.2921 0.2933
3164.334880 0.2962 0.2980 0.2982 0.3000 0.3001
3170.507720 0.3011 0.3025 0.3077 0.3136 0.3181
3176.680560 0.3190 0.3190 0.3191 0.3202 0.3220
3182.853400 0.3220 0.3221 0.3231 0.3243 0.3272
3189.026240 0.3291 0.3302 0.3320 0.3320 0.3321
3195.199080 0.3330 0.3331 0.3340 0.3341 0.3350
3201.371920 0.3352 0.3370 0.3371 0.3379 0.3370
3207.544760 0.3370 0.3371 0.3380 0.3379 0.3370
3213.717600 0.3368 0.3350 0.3350 0.3350 0.3349
3219.890440 0.3339 0.3327 0.3299 0.3290 0.3289
3226.063280 0.3280 0.3279 0.3270 0.3270 0.3270
3232.236120 0.3268 0.3249 0.3238 0.3216 0.3179
3238.408960 0.3169 0.3158 0.3137 0.3102 0.3037
3244.581800 0.3009 0.3000 0.2994 0.2946 0.2899
3250.754640 0.2809 0.2799 0.2790 0.2788 0.2770
3256.927480 0.2769 0.2760 0.2760 0.2760 0.2760
3263.100320 0.2760 0.2760 0.2759 0.2750 0.2750
3269.273160 0.2749 0.2740 0.2740 0.2738 0.2719
3275.446000 0.2710 0.2710 0.2709 0.2700 0.2699
3281.618840 0.2690 0.2688 0.2669 0.2659 0.2650
3287.791680 0.2649 0.2640 0.2640 0.2640 0.2640
3293.964520 0.2640 0.2638 0.2619 0.2609 0.2598
3300.137360 0.2577 0.2548 0.2527 0.2499 0.2489
3306.310200 0.2478 0.2458 0.2440 0.2439 0.2430
3312.483040 0.2430 0.2430 0.2430 0.2430 0.2430
3318.655880 0.2430 0.2430 0.2430 0.2431 0.2440
3324.828720 0.2442 0.2462 0.2482 0.2505 0.2554
3331.001560 0.2591 0.2601 0.2611 0.2626 0.2673
3337.174400 0.2707 0.2768 0.2845 0.2973 0.3001
3343.347240 0.3017 0.3092 0.3200 0.3281 0.3294
3349.520080 0.3342 0.3451 0.3548 0.3613 0.3646
3355.692920 0.3713 0.3824 0.3861 0.3873 0.3907
3361.865760 0.3962 0.3982 0.4009 0.4086 0.4150
3368.038600 0.4236 0.4298 0.4377 0.4433 0.4463
3374.211440 0.4498 0.4570 0.4660 0.4746 0.4803
3380.384280 0.4837 0.4902 0.4930 0.5018 0.5090
3386.557120 0.5178 0.5247 0.5309 0.5383 0.5415
3392.729960 0.5463 0.5491 0.5503 0.5533 0.5564
3398.902800 0.5604 0.5643 0.5674 0.5714 0.5757
3405.075640 0.5825 0.5871 0.5880 0.5880 0.5882
3411.248480 0.5901 0.5911 0.5924 0.5961 0.5973
3417.421320 0.6001 0.6013 0.6043 0.6071 0.6081
3423.594160 0.6093 0.6122 0.6142 0.6160 0.6161
3429.767000 0.6170 0.6171 0.6181 0.6193 0.6221
3435.939840 0.6230 0.6231 0.6244 0.6280 0.6281
3442.112680 0.6290 0.6291 0.6303 0.6332 0.6353
3448.285520 0.6381 0.6392 0.6413 0.6442 0.6460
3454.458360 0.6463 0.6492 0.6514 0.6556 0.6601
3460.631200 0.6610 0.6611 0.6620 0.6620 0.6622
3466.804040 0.6641 0.6650 0.6652 0.6673 0.6702
3472.976880 0.6722 0.6740 0.6741 0.6750 0.6751
3479.149720 0.6760 0.6761 0.6770 0.6770 0.6772
3485.322560 0.6792 0.6811 0.6820 0.6820 0.6820
3491.495400 0.6820 0.6820 0.6820 0.6820 0.6820
3497.668240 0.6820 0.6819 0.6810 0.6811 0.6820
3503.841080 0.6819 0.6810 0.6810 0.6810 0.6810
3510.013920 0.6810 0.6810 0.6810 0.6810 0.6810
3516.186760 0.6810 0.6810 0.6810 0.6810 0.6810
3522.359600 0.6810 0.6810 0.6810 0.6810 0.6810
3528.532440 0.6810 0.6810 0.6811 0.6820 0.6820
3534.705280 0.6820 0.6820 0.6820 0.6820 0.6820
3540.878120 0.6820 0.6820 0.6819 0.6810 0.6810
3547.050960 0.6809 0.6800 0.6800 0.6800 0.6799
3553.223800 0.6790 0.6790 0.6790 0.6788 0.6770
3559.396640 0.6770 0.6770 0.6770 0.6769 0.6760
3565.569480 0.6760 0.6760 0.6760 0.6761 0.6769
3571.742320 0.6760 0.6760 0.6760 0.6760 0.6760
3577.915160 0.6760 0.6760 0.6760 0.6759 0.6749
3584.088000 0.6737 0.6709 0.6699 0.6690 0.6690
3590.260840 0.6690 0.6688 0.6672 0.6688 0.6670
3596.433680 0.6670 0.6670 0.6670 0.6669 0.6661
3602.606520 0.6669 0.6660 0.6660 0.6659 0.6650
3608.779360 0.6650 0.6650 0.6649 0.6640 0.6641
3614.952200 0.6650 0.6650 0.6650 0.6650 0.6650
3621.125040 0.6651 0.6659 0.6650 0.6650 0.6650
3627.297880 0.6649 0.6637 0.6610 0.6609 0.6600
3633.470720 0.6601 0.6610 0.6610 0.6611 0.6620
3639.643560 0.6620 0.6620 0.6620 0.6619 0.6610
3645.816400 0.6609 0.6600 0.6600 0.6600 0.6599
3651.989240 0.6589 0.6578 0.6560 0.6560 0.6560
3658.162080 0.6560 0.6560 0.6559 0.6549 0.6540
3664.334920 0.6539 0.6530 0.6528 0.6509 0.6498
3670.507760 0.6476 0.6439 0.6428 0.6409 0.6398
3676.680600 0.6380 0.6379 0.6370 0.6370 0.6370
3682.853440 0.6370 0.6370 0.6370 0.6370 0.6370
3689.026280 0.6370 0.6370 0.6370 0.6370 0.6370
3695.199120 0.6370 0.6370 0.6370 0.6370 0.6371
3701.371960 0.6380 0.6379 0.6370 0.6368 0.6350
3707.544800 0.6350 0.6350 0.6350 0.6350 0.6350
3713.717640 0.6350 0.6350 0.6350 0.6350 0.6350
3719.890480 0.6349 0.6340 0.6338 0.6317 0.6289
3726.063320 0.6279 0.6270 0.6268 0.6250 0.6250
3732.236160 0.6250 0.6249 0.6240 0.6240 0.6239
3738.409000 0.6230 0.6230 0.6230 0.6230 0.6230
3744.581840 0.6230 0.6230 0.6229 0.6218 0.6200
3750.754680 0.6199 0.6190 0.6191 0.6200 0.6200
3756.927520 0.6202 0.6220 0.6220 0.6220 0.6220
3763.100360 0.6220 0.6220 0.6218 0.6200 0.6200
3769.273200 0.6199 0.6190 0.6189 0.6180 0.6180
3775.446040 0.6179 0.6170 0.6170 0.6170 0.6170
3781.618880 0.6170 0.6169 0.6158 0.6137 0.6108
3787.791720 0.6090 0.6090 0.6090 0.6089 0.6080
3793.964560 0.6079 0.6070 0.6070 0.6067 0.6040
3800.137400 0.6040 0.6039 0.6030 0.6030 0.6029
3806.310240 0.6020 0.6020 0.6020 0.6020 0.6020
3812.483080 0.6020 0.6020 0.6020 0.6019 0.6009
3818.655920 0.6000 0.6000 0.5998 0.5980 0.5980
3824.828760 0.5980 0.5980 0.5980 0.5979 0.5970
3831.001600 0.5970 0.5970 0.5970 0.5969 0.5959
3837.174440 0.5950 0.5950 0.5950 0.5950 0.5948
3843.347280 0.5930 0.5929 0.5919 0.5907 0.5878
3849.520120 0.5860 0.5859 0.5850 0.5850 0.5847
3855.692960 0.5820 0.5820 0.5819 0.5809 0.5800
3861.865800 0.5800 0.5800 0.5800 0.5799 0.5790
3868.038640 0.5790 0.5788 0.5770 0.5770 0.5770
3874.211480 0.5770 0.5770 0.5770 0.5770 0.5770
3880.384320 0.5769 0.5760 0.5760 0.5760 0.5759
3886.557160 0.5750 0.5750 0.5750 0.5750 0.5750
3892.730000 0.5749 0.5740 0.5740 0.5740 0.5740
3898.902840 0.5738 0.5720 0.5720 0.5720 0.5720
3905.075680 0.5720 0.5719 0.5710 0.5710 0.5710
3911.248520 0.5710 0.5710 0.5710 0.5710 0.5710
3917.421360 0.5710 0.5710 0.5710 0.5710 0.5710
3923.594200 0.5710 0.5710 0.5710 0.5710 0.5710
3929.767040 0.5710 0.5709 0.5700 0.5699 0.5690
3935.939880 0.5688 0.5670 0.5670 0.5670 0.5670
3942.112720 0.5672 0.5690 0.5690 0.5690 0.5690
3948.285560 0.5688 0.5670 0.5670 0.5670 0.5670
3954.458400 0.5672 0.5688 0.5670 0.5670 0.5670
3960.631240 0.5669 0.5660 0.5659 0.5650 0.5649
3966.804080 0.5640 0.5638 0.5620 0.5620 0.5620
3972.976920 0.5620 0.5619 0.5610 0.5610 0.5610
3979.149760 0.5610 0.5610 0.5610 0.5610 0.5610
3985.322600 0.5610 0.5610 0.5610 0.5610 0.5610
3991.495440 0.5610 0.5610 0.5611 0.5619 0.5610
3997.668280 0.5610 0.5610 0.5609 0.5600 0.5600
##END=
