##TITLE=1,2-CYCLOHEXANEDIAMINE DIHYDROCHLORIDE, TRANS
##JCAMP-DX=4.24
##DATA TYPE=INFRARED SPECTRUM
##CLASS=COBLENTZ III
##ORIGIN=DOW CHEMICAL COMPANY
##OWNER=COBLENTZ SOCIETY
Collection (C) 2018 copyright by the U.S. Secretary of Commerce
on behalf of the United States of America. All rights reserved.
##DATE=1967/08/08
##MOLFORM=C6 H16 Cl2 N2
##SOURCE REFERENCE=COBLENTZ NO. 10316
##$NIST ID=B6010316
##$NIST SOURCE=COBLENTZ
##$NIST IMAGE=cob10316
##SPECTROMETER/DATA SYSTEM=DOW KBr FOREPRISM-GRATING
##INSTRUMENT PARAMETERS=BLAZED AT 3.5, 12.0, 20.0 MICRON, CHANGED AT 5.0, 7.5, 14.9 MICRON
##STATE=SOLID (SPLIT MULL, FLUOROLUBE FOR 3800-1330 AND NUJOL FOR 1330-400 CM ^-^1)
##SAMPLING PROCEDURE=TRANSMISSION
##RESOLUTION=4
##DATA PROCESSING=DIGITIZED BY NIST FROM HARD COPY (FROM TWO SEGMENTS)
##XUNITS=1/CM
##YUNITS=TRANSMITTANCE
##XFACTOR=1.000000
##YFACTOR=1
##DELTAX=0.876681
##FIRSTX=383.402
##LASTX=3798.07
##FIRSTY=0.817
##MAXX=3798.07
##MINX=383.402
##MAXY=1.004
##MINY=0.122
##NPOINTS=3896
##XYDATA=(X++(Y..Y))
383.402000 0.8170 0.8170 0.8180 0.8180 0.8180
387.785405 0.8180 0.8180 0.8180 0.8180 0.8180
392.168809 0.8180 0.8180 0.8180 0.8180 0.8180
396.552214 0.8180 0.8180 0.8180 0.8180 0.8180
400.935618 0.8180 0.8180 0.8180 0.8180 0.8180
405.319023 0.8180 0.8180 0.8170 0.8170 0.8170
409.702428 0.8170 0.8170 0.8170 0.8170 0.8170
414.085832 0.8170 0.8170 0.8170 0.8170 0.8170
418.469237 0.8170 0.8150 0.8150 0.8140 0.8140
422.852642 0.8130 0.8130 0.8110 0.8110 0.8110
427.236046 0.8090 0.8070 0.8060 0.8020 0.8000
431.619451 0.7980 0.7960 0.7930 0.7850 0.7810
436.002855 0.7780 0.7770 0.7740 0.7730 0.7720
440.386260 0.7720 0.7740 0.7919 0.8139 0.8509
444.769665 0.8840 0.9110 0.9240 0.9330 0.9370
449.153069 0.9440 0.9540 0.9570 0.9590 0.9610
453.536474 0.9640 0.9670 0.9680 0.9690 0.9740
457.919879 0.9750 0.9760 0.9790 0.9800 0.9830
462.303283 0.9830 0.9840 0.9860 0.9860 0.9860
466.686688 0.9870 0.9870 0.9870 0.9890 0.9910
471.070092 0.9930 0.9940 0.9950 0.9950 0.9950
475.453497 0.9950 0.9970 0.9970 0.9970 0.9970
479.836902 0.9980 0.9980 0.9980 0.9980 0.9980
484.220306 0.9980 0.9980 0.9980 0.9980 0.9980
488.603711 0.9980 0.9980 0.9980 0.9980 0.9980
492.987116 0.9980 0.9980 0.9980 0.9980 0.9970
497.370520 0.9970 0.9950 0.9950 0.9940 0.9930
501.753925 0.9930 0.9910 0.9900 0.9890 0.9840
506.137329 0.9800 0.9790 0.9760 0.9740 0.9560
510.520734 0.9350 0.9220 0.9031 0.8701 0.8401
514.904139 0.8170 0.8170 0.9519 0.9780 0.9800
519.287543 0.9890 0.9930 0.9950 0.9970 0.9970
523.670948 0.9970 0.9980 0.9980 0.9980 0.9980
528.054352 1.0000 1.0000 1.0000 1.0000 1.0000
532.437757 1.0000 1.0000 1.0000 1.0000 1.0000
536.821162 1.0000 1.0000 1.0010 1.0010 1.0010
541.204566 1.0000 1.0000 1.0000 1.0000 1.0000
545.587971 1.0000 1.0000 1.0000 0.9980 0.9980
549.971376 0.9980 0.9970 0.9940 0.9890 0.9790
554.354780 0.9740 0.9720 0.9740 0.9790 0.9870
558.738185 0.9900 0.9930 0.9970 0.9980 0.9980
563.121589 1.0010 1.0010 1.0020 1.0020 1.0020
567.504994 1.0020 1.0020 1.0020 1.0020 1.0020
571.888399 1.0020 1.0020 1.0020 1.0020 1.0020
576.271803 1.0020 1.0020 1.0020 1.0020 1.0020
580.655208 1.0020 1.0020 1.0010 1.0010 1.0010
585.038613 1.0020 1.0020 1.0040 1.0040 1.0040
589.422017 1.0040 1.0020 1.0020 1.0010 1.0000
593.805422 0.9900 0.9900 0.9980 1.0000 1.0000
598.188826 1.0000 1.0000 1.0000 1.0000 1.0000
602.572231 1.0000 1.0000 1.0000 1.0000 1.0000
606.955636 1.0000 0.9980 0.9980 0.9970 0.9970
611.339040 0.9970 0.9970 0.9970 0.9970 0.9970
615.722445 0.9970 0.9950 0.9950 0.9950 0.9950
620.105849 0.9940 0.9930 0.9930 0.9930 0.9930
624.489254 0.9940 0.9940 0.9940 0.9940 0.9940
628.872659 0.9940 0.9940 0.9940 0.9930 0.9930
633.256063 0.9930 0.9910 0.9910 0.9910 0.9900
637.639468 0.9900 0.9900 0.9890 0.9890 0.9890
642.022873 0.9870 0.9870 0.9870 0.9870 0.9860
646.406277 0.9860 0.9860 0.9860 0.9860 0.9860
650.789682 0.9840 0.9840 0.9830 0.9800 0.9790
655.173086 0.9780 0.9780 0.9760 0.9750 0.9740
659.556491 0.9740 0.9720 0.9710 0.9710 0.9690
663.939896 0.9680 0.9680 0.9670 0.9650 0.9640
668.323300 0.9640 0.9630 0.9610 0.9610 0.9600
672.706705 0.9590 0.9590 0.9570 0.9560 0.9560
677.090110 0.9560 0.9560 0.9540 0.9540 0.9540
681.473514 0.9530 0.9530 0.9530 0.9520 0.9520
685.856919 0.9520 0.9500 0.9500 0.9490 0.9490
690.240323 0.9490 0.9480 0.9480 0.9480 0.9460
694.623728 0.9460 0.9460 0.9450 0.9450 0.9440
699.007133 0.9440 0.9420 0.9420 0.9410 0.9390
703.390537 0.9380 0.9370 0.9370 0.9350 0.9340
707.773942 0.9330 0.9330 0.9310 0.9300 0.9240
712.157347 0.9220 0.9180 0.9160 0.9150 0.9140
716.540751 0.9120 0.9090 0.9000 0.8890 0.8790
720.924156 0.8730 0.8730 0.8770 0.8810 0.8850
725.307560 0.8880 0.8890 0.8920 0.8960 0.8990
729.690965 0.9010 0.9040 0.9050 0.9070 0.9080
734.074370 0.9090 0.9110 0.9110 0.9110 0.9120
738.457774 0.9140 0.9160 0.9190 0.9220 0.9240
742.841179 0.9240 0.9240 0.9240 0.9260 0.9270
747.224583 0.9310 0.9310 0.9310 0.9330 0.9340
751.607988 0.9340 0.9340 0.9340 0.9350 0.9350
755.991393 0.9350 0.9350 0.9350 0.9370 0.9370
760.374797 0.9370 0.9370 0.9370 0.9370 0.9370
764.758202 0.9350 0.9350 0.9350 0.9350 0.9350
769.141607 0.9370 0.9370 0.9350 0.9350 0.9350
773.525011 0.9340 0.9340 0.9340 0.9340 0.9330
777.908416 0.9330 0.9330 0.9330 0.9310 0.9310
782.291820 0.9260 0.9220 0.9180 0.9150 0.9140
786.675225 0.9150 0.9240 0.9310 0.9420 0.9420
791.058630 0.9440 0.9440 0.9440 0.9440 0.9440
795.442034 0.9450 0.9450 0.9450 0.9450 0.9460
799.825439 0.9480 0.9480 0.9480 0.9480 0.9480
804.208844 0.9480 0.9480 0.9480 0.9480 0.9460
808.592248 0.9460 0.9460 0.9450 0.9450 0.9450
812.975653 0.9450 0.9450 0.9450 0.9450 0.9450
817.359057 0.9440 0.9440 0.9440 0.9450 0.9450
821.742462 0.9450 0.9450 0.9450 0.9440 0.9440
826.125867 0.9440 0.9440 0.9440 0.9440 0.9440
830.509271 0.9420 0.9420 0.9420 0.9420 0.9420
834.892676 0.9420 0.9420 0.9420 0.9410 0.9410
839.276081 0.9370 0.9330 0.9300 0.9200 0.9180
843.659485 0.9190 0.9240 0.9300 0.9330 0.9340
848.042890 0.9350 0.9380 0.9390 0.9390 0.9390
852.426294 0.9390 0.9390 0.9390 0.9390 0.9390
856.809699 0.9410 0.9410 0.9410 0.9420 0.9420
861.193104 0.9410 0.9410 0.9410 0.9410 0.9410
865.576508 0.9410 0.9390 0.9390 0.9390 0.9390
869.959913 0.9390 0.9380 0.9350 0.9350 0.9340
874.343317 0.9340 0.9330 0.9310 0.9300 0.9230
878.726722 0.9180 0.9140 0.9080 0.8930 0.8860
883.110127 0.8780 0.8780 0.9000 0.9120 0.9160
887.493531 0.9220 0.9240 0.9290 0.9310 0.9330
891.876936 0.9330 0.9330 0.9330 0.9330 0.9340
896.260341 0.9340 0.9340 0.9340 0.9330 0.9330
900.643745 0.9330 0.9330 0.9330 0.9310 0.9310
905.027150 0.9310 0.9310 0.9310 0.9300 0.9290
909.410554 0.9290 0.9260 0.9240 0.9230 0.9220
913.793959 0.9200 0.9190 0.9180 0.9180 0.9150
918.177364 0.9140 0.9110 0.9070 0.8970 0.8820
922.560768 0.8690 0.8690 0.8919 0.9119 0.9160
926.944173 0.9180 0.9180 0.9180 0.9180 0.9160
931.327578 0.9140 0.9120 0.9110 0.9110 0.9110
935.710982 0.9030 0.8940 0.8860 0.8620 0.8620
940.094387 0.8989 0.9080 0.9150 0.9160 0.9180
944.477791 0.9180 0.9180 0.9180 0.9180 0.9180
948.861196 0.9180 0.9180 0.9180 0.9180 0.9160
953.244601 0.9160 0.9150 0.9150 0.9140 0.9140
957.628005 0.9140 0.9140 0.9140 0.9120 0.9120
962.011410 0.9140 0.9140 0.9120 0.9120 0.9120
966.394814 0.9120 0.9110 0.9110 0.9090 0.9090
970.778219 0.9120 0.9120 0.9120 0.9120 0.9120
975.161624 0.9120 0.9120 0.9120 0.9120 0.9120
979.545028 0.9120 0.9120 0.9110 0.9110 0.9110
983.928433 0.9090 0.9090 0.9090 0.9050 0.9000
988.311838 0.8920 0.8860 0.8850 0.8880 0.8930
992.695242 0.9010 0.9070 0.9080 0.9110 0.9110
997.078647 0.9110 0.9110 0.9090 0.9080 0.9050
1001.462051 0.9040 0.9010 0.9000 0.9000 0.8990
1005.845456 0.8970 0.8940 0.8920 0.8900 0.8860
1010.228861 0.8790 0.8750 0.8710 0.8690 0.8561
1014.612265 0.8510 0.8370 0.8220 0.8130 0.7920
1018.995670 0.7590 0.6752 0.6501 0.5782 0.5660
1023.379075 0.5660 0.5670 0.5680 0.5680 0.5550
1027.762479 0.5420 0.5420 0.5999 0.6050 0.6010
1032.145884 0.5870 0.5720 0.5400 0.5170 0.4950
1036.529288 0.4740 0.4740 0.5019 0.5598 0.6297
1040.912693 0.7421 0.8660 0.8880 0.8920 0.8940
1045.296098 0.8990 0.9010 0.9030 0.9040 0.9050
1049.679502 0.9070 0.9070 0.9070 0.9070 0.9070
1054.062907 0.9070 0.9070 0.9070 0.9050 0.9050
1058.446312 0.9040 0.9040 0.9030 0.9010 0.8990
1062.829716 0.8940 0.8930 0.8900 0.8900 0.8840
1067.213121 0.8770 0.8710 0.8690 0.8490 0.8170
1071.596525 0.7531 0.7241 0.6831 0.6242 0.6240
1075.979930 0.6931 0.7960 0.7980 0.7920 0.7890
1080.363335 0.7890 0.8299 0.8689 0.8730 0.8780
1084.746739 0.8810 0.8820 0.8820 0.8810 0.8810
1089.130144 0.8780 0.8710 0.8690 0.8600 0.8550
1093.513548 0.8510 0.8390 0.8250 0.8060 0.7830
1097.896953 0.7610 0.7381 0.7161 0.6941 0.6940
1102.280358 0.7421 0.7871 0.8630 0.8730 0.8810
1106.663762 0.8930 0.8970 0.9000 0.9030 0.9050
1111.047167 0.9090 0.9110 0.9110 0.9110 0.9110
1115.430572 0.9110 0.9110 0.9110 0.9110 0.9110
1119.813976 0.9110 0.9090 0.9090 0.9080 0.9070
1124.197381 0.9050 0.9050 0.9040 0.9010 0.9000
1128.580785 0.8990 0.8990 0.8930 0.8880 0.8840
1132.964190 0.8790 0.8730 0.8640 0.8520 0.8430
1137.347595 0.8250 0.8040 0.7650 0.7400 0.7400
1141.730999 0.7679 0.8468 0.8809 0.8900 0.8930
1146.114404 0.8960 0.8990 0.9010 0.9030 0.9030
1150.497809 0.9040 0.9050 0.9070 0.9070 0.9080
1154.881213 0.9090 0.9090 0.9110 0.9110 0.9110
1159.264618 0.9110 0.9110 0.9110 0.9110 0.9110
1163.648022 0.9110 0.9110 0.9110 0.9110 0.9110
1168.031427 0.9110 0.9110 0.9110 0.9110 0.9110
1172.414832 0.9110 0.9110 0.9110 0.9110 0.9090
1176.798236 0.9070 0.9050 0.9050 0.9050 0.9050
1181.181641 0.9050 0.9040 0.9010 0.8940 0.8890
1185.565046 0.8860 0.8840 0.8850 0.8920 0.8970
1189.948450 0.9030 0.9050 0.9050 0.9050 0.9040
1194.331855 0.9030 0.9000 0.8990 0.8970 0.8940
1198.715259 0.8930 0.8920 0.8850 0.8770 0.8700
1203.098664 0.8640 0.8540 0.8410 0.8300 0.8170
1207.482069 0.8070 0.8040 0.8040 0.8060 0.8320
1211.865473 0.8779 0.8820 0.8850 0.8880 0.8940
1216.248878 0.8970 0.9000 0.9010 0.9030 0.9030
1220.632282 0.9040 0.9040 0.9040 0.9040 0.9040
1225.015687 0.9040 0.9030 0.9010 0.9010 0.9000
1229.399092 0.9000 0.9000 0.8990 0.8970 0.8970
1233.782496 0.8960 0.8940 0.8930 0.8920 0.8900
1238.165901 0.8890 0.8880 0.8880 0.8890 0.8900
1242.549306 0.8920 0.8920 0.8920 0.8920 0.8900
1246.932710 0.8880 0.8850 0.8820 0.8780 0.8750
1251.316115 0.8750 0.8730 0.8730 0.8710 0.8700
1255.699519 0.8690 0.8690 0.8690 0.8700 0.8710
1260.082924 0.8740 0.8780 0.8810 0.8810 0.8820
1264.466329 0.8820 0.8810 0.8810 0.8790 0.8790
1268.849733 0.8790 0.8780 0.8770 0.8750 0.8750
1273.233138 0.8740 0.8740 0.8730 0.8730 0.8710
1277.616543 0.8700 0.8700 0.8690 0.8670 0.8640
1281.999947 0.8630 0.8620 0.8620 0.8620 0.8630
1286.383352 0.8640 0.8670 0.8700 0.8700 0.8700
1290.766756 0.8700 0.8670 0.8670 0.8670 0.8670
1295.150161 0.8670 0.8660 0.8660 0.8640 0.8640
1299.533566 0.8640 0.8630 0.8630 0.8620 0.8620
1303.916970 0.8600 0.8590 0.8560 0.8540 0.8510
1308.300375 0.8510 0.8480 0.8291 0.8091 0.8090
1312.683779 0.8190 0.8410 0.8490 0.8510 0.8550
1317.067184 0.8580 0.8600 0.8600 0.8620 0.8620
1321.450589 0.8600 0.8600 0.8600 0.8590 0.8580
1325.833993 0.8580 0.8540 0.8490 0.8470 0.8370
1330.217398 0.8340 0.8340 0.8330 0.8330 0.8330
1334.600803 0.8320 0.8290 0.8280 0.8260 0.8260
1338.984207 0.8260 0.8250 0.8220 0.8210 0.8170
1343.367612 0.8150 0.8170 0.8180 0.8190 0.8220
1347.751016 0.8250 0.8240 0.8220 0.8140 0.8060
1352.134421 0.7930 0.7920 0.7960 0.8000 0.8189
1356.517826 0.8220 0.8240 0.8280 0.8280 0.8300
1360.901230 0.8300 0.8320 0.8330 0.8330 0.8330
1365.284635 0.8320 0.8300 0.8250 0.8170 0.8110
1369.668040 0.8100 0.8110 0.8130 0.8140 0.8180
1374.051444 0.8410 0.8590 0.8710 0.8750 0.8820
1378.434849 0.8860 0.8900 0.8890 0.8880 0.8860
1382.818253 0.8840 0.8780 0.8730 0.8670 0.8630
1387.201658 0.8620 0.8600 0.8550 0.8371 0.8211
1391.585063 0.8140 0.8030 0.7460 0.7250 0.7010
1395.968467 0.6780 0.6531 0.6530 0.7248 0.7977
1400.351872 0.8780 0.8820 0.8860 0.8960 0.9000
1404.735277 0.9030 0.9050 0.9070 0.9080 0.9080
1409.118681 0.9080 0.9080 0.9070 0.9050 0.9040
1413.502086 0.9030 0.9030 0.9010 0.9010 0.9010
1417.885490 0.9000 0.9000 0.9000 0.9000 0.9010
1422.268895 0.9010 0.9010 0.9010 0.9000 0.9000
1426.652300 0.9000 0.8990 0.8990 0.8970 0.8940
1431.035704 0.8930 0.8930 0.8920 0.8920 0.8860
1435.419109 0.8840 0.8740 0.8710 0.8630 0.8560
1439.802513 0.8400 0.7921 0.7780 0.7780 0.8487
1444.185918 0.8690 0.8730 0.8750 0.8750 0.8710
1448.569323 0.8630 0.8600 0.8620 0.8670 0.8750
1452.952727 0.8810 0.8820 0.8820 0.8810 0.8780
1457.336132 0.8750 0.8740 0.8730 0.8730 0.8710
1461.719537 0.8660 0.8640 0.8620 0.8520 0.8400
1466.102941 0.7920 0.7760 0.7760 0.7780 0.7770
1470.486346 0.7660 0.7459 0.6910 0.6760 0.6760
1474.869750 0.8688 0.8770 0.8850 0.8900 0.8920
1479.253155 0.8920 0.8930 0.8930 0.8920 0.8920
1483.636560 0.8900 0.8890 0.8880 0.8860 0.8790
1488.019964 0.8770 0.8750 0.8740 0.8710 0.8630
1492.403369 0.8550 0.8520 0.8430 0.8330 0.8240
1496.786774 0.8099 0.7480 0.7160 0.6800 0.6450
1501.170178 0.6091 0.5741 0.5381 0.5141 0.5030
1505.553583 0.4570 0.4571 0.5481 0.6330 0.7230
1509.936987 0.7809 0.8359 0.8470 0.8540 0.8550
1514.320392 0.8580 0.8590 0.8580 0.8550 0.8540
1518.703797 0.8520 0.8520 0.8490 0.8340 0.8240
1523.087201 0.8170 0.8070 0.7960 0.7780 0.7570
1527.470606 0.7250 0.7010 0.6840 0.6262 0.5622
1531.854010 0.4780 0.4650 0.4650 0.5140 0.5330
1536.237415 0.6009 0.6030 0.6030 0.6010 0.6000
1540.620820 0.6000 0.6010 0.6070 0.6160 0.6280
1545.004224 0.6340 0.6460 0.6580 0.6650 0.6750
1549.387629 0.6800 0.6830 0.6820 0.6790 0.6790
1553.771034 0.6780 0.6780 0.6790 0.6910 0.7060
1558.154438 0.7241 0.7650 0.7990 0.8240 0.8300
1562.537843 0.8340 0.8390 0.8450 0.8490 0.8520
1566.921247 0.8520 0.8540 0.8550 0.8560 0.8560
1571.304652 0.8560 0.8550 0.8540 0.8510 0.8490
1575.688057 0.8430 0.8410 0.8390 0.8370 0.8340
1580.071461 0.8280 0.8180 0.8130 0.8090 0.7960
1584.454866 0.7890 0.7740 0.7590 0.7480 0.7390
1588.838271 0.7280 0.7120 0.6940 0.6730 0.6531
1593.221675 0.6430 0.6240 0.6090 0.5870 0.5560
1597.605080 0.5300 0.5120 0.4880 0.4581 0.4211
1601.988484 0.3800 0.3790 0.3800 0.3950 0.4020
1606.371889 0.4220 0.4510 0.4819 0.5119 0.5698
1610.755294 0.6230 0.6350 0.6390 0.6390 0.6370
1615.138698 0.6330 0.6110 0.5871 0.5780 0.5670
1619.522103 0.5660 0.5670 0.5810 0.6030 0.6040
1623.905508 0.6280 0.6530 0.7009 0.7678 0.8108
1628.288912 0.8360 0.8580 0.8850 0.9140 0.9270
1632.672317 0.9350 0.9380 0.9440 0.9490 0.9540
1637.055721 0.9560 0.9570 0.9640 0.9650 0.9680
1641.439126 0.9690 0.9690 0.9690 0.9690 0.9690
1645.822531 0.9690 0.9690 0.9680 0.9670 0.9670
1650.205935 0.9710 0.9750 0.9760 0.9760 0.9760
1654.589340 0.9760 0.9740 0.9740 0.9740 0.9740
1658.972744 0.9740 0.9740 0.9740 0.9750 0.9760
1663.356149 0.9760 0.9760 0.9760 0.9760 0.9780
1667.739554 0.9780 0.9790 0.9790 0.9780 0.9760
1672.122958 0.9760 0.9760 0.9760 0.9760 0.9760
1676.506363 0.9760 0.9760 0.9760 0.9760 0.9760
1680.889768 0.9750 0.9760 0.9760 0.9780 0.9790
1685.273172 0.9790 0.9790 0.9800 0.9800 0.9800
1689.656577 0.9800 0.9820 0.9820 0.9800 0.9800
1694.039981 0.9800 0.9800 0.9790 0.9790 0.9780
1698.423386 0.9780 0.9790 0.9790 0.9800 0.9800
1702.806791 0.9800 0.9800 0.9800 0.9790 0.9790
1707.190195 0.9790 0.9790 0.9790 0.9790 0.9790
1711.573600 0.9780 0.9760 0.9760 0.9760 0.9760
1715.957005 0.9750 0.9750 0.9750 0.9740 0.9740
1720.340409 0.9720 0.9720 0.9720 0.9720 0.9720
1724.723814 0.9720 0.9710 0.9710 0.9710 0.9710
1729.107218 0.9710 0.9710 0.9710 0.9710 0.9710
1733.490623 0.9710 0.9690 0.9690 0.9690 0.9690
1737.874028 0.9690 0.9690 0.9690 0.9680 0.9670
1742.257432 0.9670 0.9670 0.9670 0.9670 0.9670
1746.640837 0.9670 0.9670 0.9670 0.9670 0.9680
1751.024242 0.9690 0.9690 0.9690 0.9690 0.9690
1755.407646 0.9690 0.9690 0.9690 0.9680 0.9680
1759.791051 0.9680 0.9680 0.9680 0.9680 0.9680
1764.174455 0.9680 0.9680 0.9680 0.9680 0.9680
1768.557860 0.9680 0.9680 0.9680 0.9690 0.9690
1772.941265 0.9690 0.9680 0.9650 0.9640 0.9640
1777.324669 0.9640 0.9630 0.9630 0.9630 0.9630
1781.708074 0.9610 0.9610 0.9610 0.9610 0.9600
1786.091478 0.9600 0.9600 0.9590 0.9590 0.9590
1790.474883 0.9590 0.9590 0.9590 0.9590 0.9570
1794.858288 0.9570 0.9560 0.9560 0.9560 0.9560
1799.241692 0.9560 0.9560 0.9560 0.9540 0.9540
1803.625097 0.9540 0.9540 0.9540 0.9530 0.9530
1808.008502 0.9530 0.9520 0.9520 0.9520 0.9500
1812.391906 0.9480 0.9480 0.9460 0.9460 0.9460
1816.775311 0.9460 0.9450 0.9450 0.9440 0.9440
1821.158715 0.9420 0.9410 0.9390 0.9390 0.9390
1825.542120 0.9390 0.9390 0.9390 0.9390 0.9380
1829.925525 0.9380 0.9370 0.9350 0.9340 0.9340
1834.308929 0.9330 0.9330 0.9330 0.9310 0.9310
1838.692334 0.9310 0.9310 0.9310 0.9300 0.9300
1843.075739 0.9300 0.9300 0.9300 0.9290 0.9270
1847.459143 0.9270 0.9270 0.9270 0.9260 0.9230
1851.842548 0.9220 0.9190 0.9190 0.9180 0.9180
1856.225952 0.9180 0.9150 0.9150 0.9140 0.9120
1860.609357 0.9120 0.9090 0.9090 0.9080 0.9070
1864.992762 0.9050 0.9040 0.9030 0.9030 0.9010
1869.376166 0.9010 0.9010 0.9010 0.9010 0.9010
1873.759571 0.9010 0.9010 0.9030 0.9030 0.9030
1878.142975 0.9030 0.9030 0.9030 0.9030 0.9030
1882.526380 0.9010 0.9010 0.9010 0.9010 0.9000
1886.909785 0.9000 0.8990 0.8990 0.8990 0.8990
1891.293189 0.8990 0.8990 0.8990 0.8990 0.8990
1895.676594 0.8970 0.8970 0.8970 0.8970 0.8970
1900.059999 0.8970 0.8960 0.8960 0.8960 0.8960
1904.443403 0.8960 0.8960 0.8960 0.8960 0.8960
1908.826808 0.8940 0.8940 0.8940 0.8940 0.8940
1913.210212 0.8940 0.8940 0.8940 0.8930 0.8930
1917.593617 0.8930 0.8930 0.8930 0.8930 0.8930
1921.977022 0.8920 0.8920 0.8920 0.8900 0.8900
1926.360426 0.8900 0.8890 0.8890 0.8890 0.8880
1930.743831 0.8880 0.8860 0.8840 0.8820 0.8820
1935.127236 0.8810 0.8810 0.8790 0.8790 0.8780
1939.510640 0.8780 0.8780 0.8750 0.8750 0.8740
1943.894045 0.8740 0.8740 0.8750 0.8750 0.8750
1948.277449 0.8750 0.8750 0.8750 0.8750 0.8740
1952.660854 0.8740 0.8740 0.8740 0.8740 0.8740
1957.044259 0.8740 0.8740 0.8740 0.8750 0.8750
1961.427663 0.8770 0.8780 0.8790 0.8810 0.8810
1965.811068 0.8810 0.8810 0.8810 0.8820 0.8820
1970.194473 0.8820 0.8840 0.8840 0.8820 0.8820
1974.577877 0.8820 0.8820 0.8820 0.8820 0.8820
1978.961282 0.8820 0.8820 0.8820 0.8810 0.8810
1983.344686 0.8810 0.8810 0.8810 0.8810 0.8810
1987.728091 0.8810 0.8810 0.8810 0.8810 0.8820
1992.111496 0.8820 0.8790 0.8780 0.8780 0.8770
1996.494900 0.8770 0.8750 0.8740 0.8740 0.8740
2000.878305 0.8735 0.8730 0.8730 0.8730 0.8720
2005.261709 0.8710 0.8710 0.8710 0.8710 0.8710
2009.645114 0.8710 0.8710 0.8705 0.8700 0.8700
2014.028519 0.8700 0.8700 0.8700 0.8700 0.8700
2018.411923 0.8700 0.8700 0.8705 0.8710 0.8710
2022.795328 0.8710 0.8710 0.8711 0.8721 0.8730
2027.178733 0.8730 0.8731 0.8741 0.8751 0.8761
2031.562137 0.8770 0.8775 0.8780 0.8775 0.8770
2035.945542 0.8775 0.8780 0.8785 0.8793 0.8818
2040.328946 0.8841 0.8851 0.8859 0.8854 0.8844
2044.712351 0.8789 0.8738 0.8723 0.8711 0.8721
2049.095756 0.8732 0.8752 0.8773 0.8798 0.8820
2053.479160 0.8820 0.8818 0.8803 0.8789 0.8779
2057.862565 0.8769 0.8758 0.8748 0.8738 0.8728
2062.245970 0.8718 0.8709 0.8704 0.8701 0.8706
2066.629374 0.8712 0.8727 0.8743 0.8758 0.8771
2071.012779 0.8776 0.8783 0.8798 0.8813 0.8828
2075.396183 0.8840 0.8840 0.8842 0.8852 0.8863
2079.779588 0.8878 0.8891 0.8896 0.8900 0.8900
2084.162993 0.8900 0.8900 0.8899 0.8894 0.8890
2088.546397 0.8890 0.8890 0.8890 0.8886 0.8871
2092.929802 0.8859 0.8854 0.8850 0.8850 0.8850
2097.313207 0.8850 0.8846 0.8831 0.8816 0.8801
2101.696611 0.8787 0.8777 0.8770 0.8770 0.8767
2106.080016 0.8757 0.8750 0.8750 0.8750 0.8750
2110.463420 0.8753 0.8763 0.8770 0.8770 0.8767
2114.846825 0.8757 0.8750 0.8750 0.8750 0.8750
2119.230230 0.8748 0.8743 0.8738 0.8733 0.8730
2123.613634 0.8730 0.8727 0.8717 0.8710 0.8710
2127.997039 0.8710 0.8710 0.8708 0.8703 0.8698
2132.380443 0.8693 0.8687 0.8677 0.8668 0.8663
2136.763848 0.8662 0.8667 0.8675 0.8691 0.8706
2141.147253 0.8721 0.8734 0.8744 0.8748 0.8743
2145.530657 0.8740 0.8740 0.8740 0.8740 0.8740
2149.914062 0.8740 0.8738 0.8733 0.8726 0.8716
2154.297467 0.8708 0.8703 0.8700 0.8700 0.8700
2158.680871 0.8700 0.8700 0.8700 0.8698 0.8693
2163.064276 0.8686 0.8676 0.8663 0.8648 0.8638
2167.447680 0.8633 0.8630 0.8630 0.8630 0.8630
2171.831085 0.8628 0.8623 0.8620 0.8620 0.8620
2176.214490 0.8620 0.8620 0.8620 0.8615 0.8605
2180.597894 0.8600 0.8600 0.8600 0.8600 0.8605
2184.981299 0.8615 0.8622 0.8627 0.8632 0.8637
2189.364704 0.8640 0.8640 0.8638 0.8632 0.8627
2193.748108 0.8622 0.8620 0.8620 0.8610 0.8590
2198.131513 0.8575 0.8565 0.8555 0.8545 0.8540
2202.514917 0.8540 0.8540 0.8540 0.8540 0.8540
2206.898322 0.8540 0.8540 0.8540 0.8540 0.8540
2211.281727 0.8540 0.8534 0.8524 0.8517 0.8512
2215.665131 0.8510 0.8510 0.8504 0.8494 0.8490
2220.048536 0.8490 0.8490 0.8490 0.8487 0.8482
2224.431940 0.8480 0.8480 0.8480 0.8480 0.8471
2228.815345 0.8456 0.8450 0.8450 0.8444 0.8434
2233.198750 0.8421 0.8406 0.8397 0.8392 0.8384
2237.582154 0.8374 0.8370 0.8370 0.8370 0.8370
2241.965559 0.8370 0.8370 0.8367 0.8362 0.8360
2246.348964 0.8360 0.8360 0.8360 0.8353 0.8343
2250.732368 0.8340 0.8340 0.8337 0.8332 0.8330
2255.115773 0.8330 0.8327 0.8322 0.8320 0.8320
2259.499177 0.8320 0.8320 0.8313 0.8303 0.8300
2263.882582 0.8300 0.8296 0.8291 0.8290 0.8290
2268.265987 0.8286 0.8281 0.8280 0.8280 0.8266
2272.649391 0.8246 0.8229 0.8214 0.8196 0.8176
2277.032796 0.8163 0.8153 0.8146 0.8141 0.8136
2281.416201 0.8131 0.8115 0.8095 0.8064 0.8029
2285.799605 0.8012 0.8002 0.8000 0.8000 0.8000
2290.183010 0.8000 0.8000 0.8000 0.8008 0.8018
2294.566414 0.8020 0.8020 0.8028 0.8038 0.8048
2298.949819 0.8058 0.8072 0.8087 0.8094 0.8099
2303.333224 0.8100 0.8100 0.8100 0.8100 0.8100
2307.716628 0.8100 0.8088 0.8073 0.8041 0.8006
2312.100033 0.7984 0.7964 0.7948 0.7932 0.7930
2316.483438 0.7930 0.7930 0.7930 0.7926 0.7921
2320.866842 0.7920 0.7920 0.7916 0.7911 0.7910
2325.250247 0.7910 0.7897 0.7882 0.7867 0.7852
2329.633651 0.7850 0.7850 0.7846 0.7841 0.7809
2334.017056 0.7774 0.7752 0.7732 0.7712 0.7692
2338.400461 0.7686 0.7681 0.7680 0.7680 0.7671
2342.783865 0.7661 0.7660 0.7660 0.7655 0.7650
2347.167270 0.7650 0.7650 0.7632 0.7611 0.7596
2351.550674 0.7581 0.7575 0.7570 0.7561 0.7551
2355.934079 0.7541 0.7531 0.7521 0.7511 0.7505
2360.317484 0.7500 0.7500 0.7500 0.7490 0.7480
2364.700888 0.7475 0.7470 0.7470 0.7470 0.7465
2369.084293 0.7460 0.7460 0.7460 0.7450 0.7440
2373.467698 0.7435 0.7430 0.7425 0.7420 0.7420
2377.851102 0.7420 0.7410 0.7400 0.7395 0.7390
2382.234507 0.7370 0.7350 0.7340 0.7330 0.7325
2386.617911 0.7320 0.7315 0.7310 0.7315 0.7321
2391.001316 0.7336 0.7352 0.7397 0.7441 0.7456
2395.384721 0.7470 0.7470 0.7470 0.7470 0.7470
2399.768125 0.7470 0.7470 0.7465 0.7460 0.7460
2404.151530 0.7459 0.7449 0.7440 0.7435 0.7430
2408.534935 0.7425 0.7416 0.7371 0.7327 0.7297
2412.918339 0.7268 0.7248 0.7229 0.7214 0.7200
2417.301744 0.7200 0.7200 0.7200 0.7200 0.7200
2421.685148 0.7199 0.7189 0.7180 0.7180 0.7180
2426.068553 0.7180 0.7179 0.7169 0.7159 0.7149
2430.451958 0.7137 0.7117 0.7099 0.7089 0.7079
2434.835362 0.7069 0.7057 0.7037 0.7017 0.6997
2439.218767 0.6977 0.6962 0.6947 0.6926 0.6909
2443.602172 0.6904 0.6897 0.6882 0.6870 0.6870
2447.985576 0.6869 0.6864 0.6858 0.6848 0.6839
2452.368981 0.6834 0.6829 0.6824 0.6820 0.6820
2456.752385 0.6818 0.6808 0.6799 0.6794 0.6787
2461.135790 0.6772 0.6754 0.6729 0.6701 0.6661
2465.519195 0.6624 0.6599 0.6578 0.6568 0.6558
2469.902599 0.6548 0.6542 0.6553 0.6561 0.6566
2474.286004 0.6571 0.6576 0.6580 0.6580 0.6579
2478.669408 0.6574 0.6563 0.6538 0.6517 0.6507
2483.052813 0.6493 0.6468 0.6440 0.6405 0.6376
2487.436218 0.6361 0.6338 0.6298 0.6258 0.6218
2491.819622 0.6174 0.6124 0.6077 0.6037 0.6010
2496.203027 0.6010 0.6020 0.6050 0.6076 0.6096
2500.586432 0.6112 0.6117 0.6120 0.6120 0.6118
2504.969836 0.6113 0.6107 0.6097 0.6083 0.6063
2509.353241 0.6036 0.5996 0.5936 0.5841 0.5742
2513.736645 0.5637 0.5555 0.5515 0.5448 0.5332
2518.120050 0.5189 0.4999 0.4841 0.4736 0.4668
2522.503455 0.4663 0.4662 0.4667 0.4682 0.4712
2526.886859 0.4740 0.4765 0.4780 0.4780 0.4757
2531.270264 0.4702 0.4662 0.4642 0.4620 0.4595
2535.653669 0.4580 0.4580 0.4603 0.4658 0.4737
2540.037073 0.4847 0.4942 0.5018 0.5071 0.5096
2544.420478 0.5110 0.5110 0.5092 0.5052 0.4980
2548.803882 0.4870 0.4755 0.4635 0.4524 0.4424
2553.187287 0.4370 0.4370 0.4384 0.4414 0.4451
2557.570692 0.4496 0.4568 0.4669 0.4846 0.5102
2561.954096 0.5247 0.5282 0.5325 0.5375 0.5400
2566.337501 0.5400 0.5395 0.5385 0.5365 0.5335
2570.720905 0.5284 0.5214 0.5159 0.5119 0.5074
2575.104310 0.5024 0.4997 0.4992 0.4990 0.4990
2579.487715 0.4985 0.4975 0.4967 0.4962 0.4957
2583.871119 0.4952 0.4950 0.4950 0.4950 0.4950
2588.254524 0.4944 0.4934 0.4924 0.4914 0.4873
2592.637929 0.4808 0.4737 0.4661 0.4606 0.4566
2597.021333 0.4517 0.4462 0.4434 0.4424 0.4423
2601.404738 0.4428 0.4598 0.4878 0.4990 0.4990
2605.788142 0.4984 0.4974 0.4967 0.4962 0.4957
2610.171547 0.4952 0.4938 0.4917 0.4900 0.4885
2614.554952 0.4877 0.4872 0.4851 0.4821 0.4775
2618.938356 0.4720 0.4626 0.4510 0.4457 0.4437
2623.321761 0.4430 0.4430 0.4443 0.4463 0.4473
2627.705166 0.4478 0.4480 0.4480 0.4480 0.4480
2632.088570 0.4487 0.4497 0.4503 0.4508 0.4524
2636.471975 0.4544 0.4564 0.4584 0.4614 0.4649
2640.855379 0.4681 0.4711 0.4752 0.4797 0.4835
2645.238784 0.4870 0.4891 0.4906 0.4914 0.4919
2649.622189 0.4916 0.4911 0.4899 0.4884 0.4869
2654.005593 0.4854 0.4846 0.4841 0.4825 0.4805
2658.388998 0.4763 0.4713 0.4644 0.4569 0.4539
2662.772403 0.4524 0.4516 0.4511 0.4510 0.4510
2667.155807 0.4510 0.4510 0.4510 0.4510 0.4510
2671.539212 0.4510 0.4506 0.4501 0.4492 0.4482
2675.922616 0.4448 0.4408 0.4388 0.4373 0.4322
2680.306021 0.4262 0.4201 0.4141 0.4089 0.4039
2684.689426 0.3980 0.3920 0.3910 0.3910 0.3952
2689.072830 0.4002 0.4064 0.4129 0.4173 0.4214
2693.456235 0.4233 0.4248 0.4250 0.4250 0.4246
2697.839639 0.4241 0.4223 0.4203 0.4165 0.4125
2702.223044 0.4072 0.4017 0.3962 0.3907 0.3882
2706.606449 0.3862 0.3838 0.3813 0.3726 0.3631
2710.989853 0.3616 0.3611 0.3614 0.3619 0.3629
2715.373258 0.3639 0.3645 0.3650 0.3655 0.3660
2719.756663 0.3660 0.3660 0.3632 0.3602 0.3554
2724.140067 0.3504 0.3449 0.3394 0.3330 0.3264
2728.523472 0.3251 0.3241 0.3240 0.3240 0.3249
2732.906876 0.3259 0.3265 0.3270 0.3275 0.3280
2737.290281 0.3294 0.3310 0.3310 0.3310 0.3310
2741.673686 0.3310 0.3310 0.3310 0.3310 0.3310
2746.057090 0.3305 0.3300 0.3300 0.3300 0.3290
2750.440495 0.3280 0.3270 0.3260 0.3250 0.3240
2754.823900 0.3235 0.3230 0.3230 0.3230 0.3210
2759.207304 0.3190 0.3175 0.3159 0.3119 0.3079
2763.590709 0.3039 0.3000 0.2990 0.2979 0.2959
2767.974113 0.2938 0.2883 0.2828 0.2788 0.2748
2772.357518 0.2713 0.2679 0.2659 0.2639 0.2624
2776.740923 0.2608 0.2583 0.2558 0.2533 0.2508
2781.124327 0.2478 0.2449 0.2428 0.2410 0.2405
2785.507732 0.2399 0.2389 0.2379 0.2374 0.2366
2789.891137 0.2326 0.2286 0.2246 0.2207 0.2182
2794.274541 0.2157 0.2127 0.2096 0.2061 0.2026
2798.657946 0.1991 0.1956 0.1921 0.1888 0.1873
2803.041350 0.1859 0.1849 0.1839 0.1828 0.1819
2807.424755 0.1814 0.1809 0.1804 0.1798 0.1788
2811.808160 0.1779 0.1774 0.1768 0.1758 0.1750
2816.191564 0.1750 0.1749 0.1744 0.1739 0.1734
2820.574969 0.1725 0.1694 0.1666 0.1646 0.1627
2824.958373 0.1612 0.1596 0.1576 0.1556 0.1536
2829.341778 0.1512 0.1472 0.1439 0.1434 0.1427
2833.725183 0.1412 0.1399 0.1394 0.1387 0.1372
2838.108587 0.1357 0.1342 0.1325 0.1305 0.1286
2842.491992 0.1271 0.1259 0.1254 0.1249 0.1244
2846.875397 0.1240 0.1240 0.1237 0.1227 0.1220
2851.258801 0.1220 0.1220 0.1220 0.1223 0.1233
2855.642206 0.1240 0.1240 0.1241 0.1246 0.1251
2860.025610 0.1256 0.1263 0.1273 0.1286 0.1306
2864.409015 0.1322 0.1327 0.1330 0.1330 0.1333
2868.792420 0.1343 0.1352 0.1357 0.1360 0.1360
2873.175824 0.1362 0.1367 0.1370 0.1370 0.1375
2877.559229 0.1390 0.1400 0.1400 0.1409 0.1434
2881.942634 0.1453 0.1463 0.1472 0.1477 0.1480
2886.326038 0.1480 0.1485 0.1500 0.1523 0.1558
2890.709443 0.1587 0.1608 0.1622 0.1627 0.1630
2895.092847 0.1630 0.1634 0.1644 0.1650 0.1650
2899.476252 0.1650 0.1650 0.1650 0.1650 0.1650
2903.859657 0.1650 0.1650 0.1650 0.1650 0.1650
2908.243061 0.1650 0.1650 0.1646 0.1636 0.1628
2912.626466 0.1623 0.1616 0.1606 0.1600 0.1600
2917.009870 0.1600 0.1600 0.1600 0.1600 0.1604
2921.393275 0.1614 0.1622 0.1627 0.1630 0.1630
2925.776680 0.1635 0.1645 0.1652 0.1657 0.1670
2930.160084 0.1690 0.1700 0.1700 0.1698 0.1693
2934.543489 0.1683 0.1668 0.1658 0.1653 0.1655
2938.926894 0.1665 0.1677 0.1692 0.1720 0.1760
2943.310298 0.1788 0.1803 0.1810 0.1810 0.1802
2947.693703 0.1787 0.1769 0.1749 0.1727 0.1702
2952.077107 0.1661 0.1606 0.1580 0.1580 0.1599
2956.460512 0.1634 0.1674 0.1719 0.1797 0.1902
2960.843917 0.1980 0.2036 0.2074 0.2099 0.2121
2965.227321 0.2141 0.2153 0.2158 0.2169 0.2184
2969.610726 0.2199 0.2214 0.2229 0.2244 0.2250
2973.994131 0.2250 0.2250 0.2250 0.2244 0.2234
2978.377535 0.2209 0.2174 0.2135 0.2095 0.2074
2982.760940 0.2064 0.2072 0.2092 0.2137 0.2198
2987.144344 0.2276 0.2367 0.2476 0.2596 0.2678
2991.527749 0.2738 0.2789 0.2834 0.2863 0.2883
2995.911154 0.2913 0.2948 0.2990 0.3035 0.3073
3000.294558 0.3108 0.3137 0.3162 0.3180 0.3195
3004.677963 0.3213 0.3234 0.3240 0.3240 0.3264
3009.061368 0.3299 0.3320 0.3335 0.3347 0.3357
3013.444772 0.3367 0.3377 0.3380 0.3380 0.3380
3017.828177 0.3380 0.3384 0.3389 0.3404 0.3424
3022.211581 0.3459 0.3499 0.3521 0.3536 0.3562
3026.594986 0.3592 0.3622 0.3652 0.3678 0.3703
3030.978391 0.3729 0.3754 0.3790 0.3830 0.3855
3035.361795 0.3875 0.3895 0.3915 0.3943 0.3973
3039.745200 0.4014 0.4060 0.4097 0.4132 0.4171
3044.128604 0.4211 0.4228 0.4238 0.4275 0.4320
3048.512009 0.4358 0.4393 0.4444 0.4499 0.4554
3052.895414 0.4609 0.4668 0.4729 0.4764 0.4794
3057.278818 0.4828 0.4864 0.4886 0.4906 0.4930
3061.662223 0.4956 0.4964 0.4969 0.4982 0.4997
3066.045628 0.5000 0.5000 0.5009 0.5019 0.5024
3070.429032 0.5029 0.5043 0.5058 0.5081 0.5106
3074.812437 0.5114 0.5119 0.5129 0.5139 0.5162
3079.195841 0.5187 0.5216 0.5246 0.5267 0.5287
3083.579246 0.5312 0.5337 0.5353 0.5368 0.5374
3087.962651 0.5380 0.5407 0.5437 0.5472 0.5507
3092.346055 0.5510 0.5510 0.5519 0.5529 0.5539
3096.729460 0.5549 0.5550 0.5550 0.5573 0.5598
3101.112865 0.5633 0.5668 0.5689 0.5709 0.5724
3105.496269 0.5739 0.5740 0.5740 0.5778 0.5818
3109.879674 0.5858 0.5898 0.5938 0.5978 0.6009
3114.263078 0.6039 0.6059 0.6079 0.6104 0.6129
3118.646483 0.6140 0.6150 0.6155 0.6160 0.6200
3123.029888 0.6240 0.6260 0.6280 0.6295 0.6310
3127.413292 0.6325 0.6340 0.6375 0.6410 0.6435
3131.796697 0.6460 0.6500 0.6540 0.6560 0.6580
3136.180102 0.6590 0.6601 0.6626 0.6651 0.6671
3140.563506 0.6691 0.6721 0.6751 0.6771 0.6791
3144.946911 0.6811 0.6831 0.6846 0.6861 0.6881
3149.330315 0.6901 0.6916 0.6932 0.6962 0.6993
3153.713720 0.7044 0.7091 0.7106 0.7120 0.7125
3158.097125 0.7132 0.7157 0.7184 0.7235 0.7286
3162.480529 0.7346 0.7405 0.7460 0.7514 0.7554
3166.863934 0.7590 0.7590 0.7594 0.7629 0.7665
3171.247338 0.7716 0.7764 0.7800 0.7836 0.7881
3175.630743 0.7921 0.7926 0.7932 0.7947 0.7961
3180.014148 0.7971 0.7984 0.8009 0.8034 0.8064
3184.397552 0.8093 0.8113 0.8131 0.8136 0.8141
3188.780957 0.8146 0.8152 0.8162 0.8172 0.8182
3193.164362 0.8190 0.8190 0.8192 0.8202 0.8211
3197.547766 0.8216 0.8223 0.8238 0.8254 0.8274
3201.931171 0.8291 0.8296 0.8302 0.8312 0.8320
3206.314575 0.8320 0.8321 0.8326 0.8331 0.8336
3210.697980 0.8342 0.8352 0.8361 0.8366 0.8370
3215.081385 0.8370 0.8375 0.8395 0.8412 0.8422
3219.464789 0.8431 0.8436 0.8445 0.8465 0.8484
3223.848194 0.8499 0.8511 0.8516 0.8523 0.8533
3228.231599 0.8545 0.8565 0.8583 0.8593 0.8603
3232.615003 0.8613 0.8620 0.8620 0.8620 0.8620
3236.998408 0.8621 0.8626 0.8631 0.8636 0.8647
3241.381812 0.8673 0.8693 0.8703 0.8710 0.8710
3245.765217 0.8713 0.8723 0.8730 0.8730 0.8730
3250.148622 0.8730 0.8730 0.8730 0.8732 0.8737
3254.532026 0.8742 0.8747 0.8750 0.8750 0.8753
3258.915431 0.8764 0.8770 0.8770 0.8772 0.8777
3263.298835 0.8780 0.8780 0.8780 0.8780 0.8780
3267.682240 0.8780 0.8780 0.8780 0.8782 0.8787
3272.065645 0.8790 0.8790 0.8790 0.8790 0.8790
3276.449049 0.8790 0.8790 0.8790 0.8788 0.8783
3280.832454 0.8780 0.8780 0.8778 0.8773 0.8770
3285.215859 0.8770 0.8766 0.8756 0.8754 0.8764
3289.599263 0.8770 0.8770 0.8772 0.8777 0.8782
3293.982668 0.8787 0.8790 0.8790 0.8790 0.8790
3298.366072 0.8790 0.8790 0.8788 0.8783 0.8780
3302.749477 0.8780 0.8780 0.8780 0.8780 0.8780
3307.132882 0.8780 0.8780 0.8780 0.8780 0.8778
3311.516286 0.8773 0.8770 0.8770 0.8770 0.8770
3315.899691 0.8770 0.8770 0.8770 0.8770 0.8765
3320.283096 0.8755 0.8750 0.8750 0.8750 0.8750
3324.666500 0.8747 0.8742 0.8737 0.8732 0.8730
3329.049905 0.8730 0.8730 0.8730 0.8730 0.8730
3333.433309 0.8724 0.8714 0.8710 0.8710 0.8710
3337.816714 0.8710 0.8710 0.8710 0.8707 0.8702
3342.200119 0.8700 0.8700 0.8700 0.8700 0.8700
3346.583523 0.8700 0.8700 0.8700 0.8697 0.8692
3350.966928 0.8690 0.8690 0.8690 0.8690 0.8690
3355.350333 0.8690 0.8684 0.8674 0.8670 0.8670
3359.733737 0.8667 0.8662 0.8660 0.8660 0.8654
3364.117142 0.8644 0.8637 0.8632 0.8630 0.8630
3368.500546 0.8630 0.8630 0.8627 0.8622 0.8613
3372.883951 0.8603 0.8600 0.8600 0.8600 0.8600
3377.267356 0.8600 0.8600 0.8597 0.8592 0.8587
3381.650760 0.8582 0.8573 0.8563 0.8560 0.8560
3386.034165 0.8560 0.8560 0.8560 0.8560 0.8567
3390.417569 0.8577 0.8580 0.8580 0.8580 0.8580
3394.800974 0.8580 0.8580 0.8580 0.8580 0.8573
3399.184379 0.8563 0.8556 0.8551 0.8550 0.8550
3403.567783 0.8546 0.8541 0.8540 0.8540 0.8540
3407.951188 0.8540 0.8540 0.8540 0.8532 0.8522
3412.334593 0.8520 0.8520 0.8520 0.8520 0.8516
3416.717997 0.8511 0.8510 0.8510 0.8510 0.8510
3421.101402 0.8510 0.8510 0.8510 0.8510 0.8510
3425.484806 0.8510 0.8502 0.8492 0.8490 0.8490
3429.868211 0.8490 0.8490 0.8490 0.8490 0.8490
3434.251616 0.8490 0.8486 0.8481 0.8480 0.8480
3438.635020 0.8480 0.8480 0.8480 0.8480 0.8480
3443.018425 0.8480 0.8476 0.8471 0.8470 0.8470
3447.401830 0.8462 0.8451 0.8450 0.8450 0.8450
3451.785234 0.8450 0.8446 0.8441 0.8440 0.8440
3456.168639 0.8440 0.8440 0.8440 0.8440 0.8440
3460.552043 0.8440 0.8436 0.8431 0.8430 0.8430
3464.935448 0.8430 0.8430 0.8430 0.8430 0.8430
3469.318853 0.8430 0.8430 0.8430 0.8421 0.8411
3473.702257 0.8410 0.8410 0.8405 0.8400 0.8400
3478.085662 0.8400 0.8400 0.8400 0.8400 0.8400
3482.469066 0.8395 0.8390 0.8390 0.8390 0.8390
3486.852471 0.8390 0.8390 0.8390 0.8380 0.8370
3491.235876 0.8365 0.8360 0.8360 0.8360 0.8350
3495.619280 0.8340 0.8340 0.8340 0.8340 0.8340
3500.002685 0.8340 0.8340 0.8340 0.8340 0.8340
3504.386090 0.8340 0.8340 0.8340 0.8340 0.8340
3508.769494 0.8340 0.8340 0.8340 0.8340 0.8340
3513.152899 0.8340 0.8335 0.8330 0.8330 0.8330
3517.536303 0.8330 0.8330 0.8330 0.8330 0.8330
3521.919708 0.8330 0.8325 0.8320 0.8320 0.8320
3526.303113 0.8320 0.8320 0.8320 0.8320 0.8320
3530.686517 0.8320 0.8320 0.8320 0.8320 0.8320
3535.069922 0.8320 0.8320 0.8320 0.8320 0.8320
3539.453327 0.8320 0.8320 0.8320 0.8320 0.8320
3543.836731 0.8320 0.8321 0.8326 0.8330 0.8330
3548.220136 0.8329 0.8324 0.8320 0.8320 0.8320
3552.603540 0.8320 0.8320 0.8320 0.8319 0.8309
3556.986945 0.8300 0.8300 0.8300 0.8300 0.8300
3561.370350 0.8300 0.8299 0.8294 0.8290 0.8290
3565.753754 0.8290 0.8290 0.8290 0.8290 0.8289
3570.137159 0.8284 0.8278 0.8268 0.8258 0.8248
3574.520564 0.8235 0.8210 0.8185 0.8160 0.8139
3578.903968 0.8134 0.8131 0.8136 0.8147 0.8182
3583.287373 0.8213 0.8228 0.8241 0.8246 0.8250
3587.670777 0.8250 0.8250 0.8250 0.8250 0.8250
3592.054182 0.8250 0.8250 0.8250 0.8250 0.8250
3596.437587 0.8250 0.8249 0.8244 0.8236 0.8221
3600.820991 0.8206 0.8191 0.8179 0.8174 0.8170
3605.204396 0.8170 0.8173 0.8183 0.8194 0.8209
3609.587800 0.8220 0.8220 0.8220 0.8220 0.8220
3613.971205 0.8220 0.8220 0.8220 0.8220 0.8220
3618.354610 0.8223 0.8233 0.8240 0.8240 0.8237
3622.738014 0.8227 0.8220 0.8220 0.8220 0.8220
3627.121419 0.8220 0.8220 0.8220 0.8220 0.8218
3631.504824 0.8213 0.8210 0.8210 0.8210 0.8210
3635.888228 0.8210 0.8210 0.8210 0.8210 0.8210
3640.271633 0.8210 0.8206 0.8196 0.8190 0.8190
3644.655037 0.8190 0.8190 0.8188 0.8183 0.8180
3649.038442 0.8180 0.8180 0.8180 0.8180 0.8180
3653.421847 0.8180 0.8180 0.8180 0.8180 0.8180
3657.805251 0.8180 0.8180 0.8180 0.8180 0.8180
3662.188656 0.8178 0.8173 0.8170 0.8170 0.8170
3666.572061 0.8170 0.8170 0.8170 0.8166 0.8156
3670.955465 0.8150 0.8150 0.8150 0.8150 0.8150
3675.338870 0.8150 0.8148 0.8143 0.8140 0.8140
3679.722274 0.8140 0.8140 0.8138 0.8133 0.8130
3684.105679 0.8130 0.8130 0.8130 0.8125 0.8115
3688.489084 0.8110 0.8110 0.8110 0.8110 0.8110
3692.872488 0.8110 0.8110 0.8110 0.8110 0.8110
3697.255893 0.8110 0.8110 0.8107 0.8102 0.8100
3701.639298 0.8100 0.8100 0.8100 0.8100 0.8100
3706.022702 0.8097 0.8092 0.8085 0.8075 0.8070
3710.406107 0.8070 0.8070 0.8070 0.8070 0.8070
3714.789511 0.8067 0.8062 0.8060 0.8060 0.8060
3719.172916 0.8060 0.8054 0.8044 0.8040 0.8040
3723.556321 0.8040 0.8040 0.8037 0.8032 0.8030
3727.939725 0.8030 0.8030 0.8030 0.8027 0.8022
3732.323130 0.8020 0.8020 0.8020 0.8020 0.8020
3736.706534 0.8020 0.8014 0.8004 0.8000 0.8000
3741.089939 0.8000 0.8000 0.7997 0.7992 0.7990
3745.473344 0.7990 0.7990 0.7990 0.7990 0.7990
3749.856748 0.7987 0.7982 0.7980 0.7980 0.7980
3754.240153 0.7980 0.7980 0.7980 0.7980 0.7980
3758.623558 0.7980 0.7980 0.7973 0.7963 0.7960
3763.006962 0.7960 0.7960 0.7960 0.7960 0.7960
3767.390367 0.7960 0.7960 0.7956 0.7951 0.7950
3771.773771 0.7950 0.7950 0.7950 0.7950 0.7950
3776.157176 0.7950 0.7950 0.7950 0.7950 0.7943
3780.540581 0.7933 0.7930 0.7930 0.7930 0.7930
3784.923985 0.7930 0.7930 0.7930 0.7930 0.7926
3789.307390 0.7921 0.7920 0.7920 0.7920 0.7920
3793.690795 0.7920 0.7920 0.7916 0.7911 0.7910
3798.074199 0.7910
##END=
