##TITLE=POLYGLYCOL P 15/200
##JCAMP-DX=4.24
##DATA TYPE=INFRARED SPECTRUM
##CLASS=COBLENTZ
##ORIGIN=DOW CORNING CORP.
##OWNER=COBLENTZ SOCIETY
Collection (C) 2018 copyright by the U.S. Secretary of Commerce
on behalf of the United States of America. All rights reserved.
##DATE=1975/11/25
##MOLFORM=C21 H50 O9
##SOURCE REFERENCE=COBLENTZ NO. 10086
##$NIST ID=B6010086
##$NIST SOURCE=COBLENTZ
##$NIST IMAGE=cob10086
##SPECTROMETER/DATA SYSTEM=PERKIN-ELMER 521 (GRATING)
##INSTRUMENT PARAMETERS=FILTERS AT 3150, 2500, 2000, 1150, 700, 410 AND GRATING CHANGES AT 2000, 630 CM^-^1
##STATE=SOLUTION (10% IN CCl4 FOR 3800-1300, 5% IN CS2 FOR 1300-650, AND 10% IN CCl4 FOR 650-250 CM^-^1) VS. SOLVENT
##PATH LENGTH=0.011, 0.011, AND 0.010CM (CsBr CELL)
$$ SPECTRAL FEATURE AT 1313 CM^-^1 IS AN ARTIFACT CAUSED BY A CHANGE IN SOLVENT
##SAMPLING PROCEDURE=TRANSMISSION
##RESOLUTION=4
##DATA PROCESSING=DIGITIZED BY NIST FROM HARD COPY (FROM TWO SEGMENTS)
##XUNITS=1/CM
##YUNITS=TRANSMITTANCE
##XFACTOR=1.000000
##YFACTOR=1
##DELTAX=0.919013
##FIRSTX=252.039
##LASTX=3797.59
##FIRSTY=0.906
##MAXX=3797.59
##MINX=252.039
##MAXY=0.975
##MINY=0.0931696
##NPOINTS=3859
##XYDATA=(X++(Y..Y))
252.039000 0.9060 0.9080 0.9080 0.9080 0.9080
256.634063 0.9080 0.9100 0.9110 0.9110 0.9100
261.229126 0.9100 0.9100 0.9100 0.9100 0.9110
265.824189 0.9110 0.9110 0.9130 0.9110 0.9110
270.419252 0.9110 0.9130 0.9130 0.9130 0.9130
275.014315 0.9130 0.9110 0.9110 0.9110 0.9110
279.609378 0.9110 0.9110 0.9110 0.9100 0.9100
284.204441 0.9100 0.9100 0.9100 0.9090 0.9090
288.799505 0.9090 0.9080 0.9080 0.9060 0.9060
293.394568 0.9060 0.9060 0.9060 0.9060 0.9080
297.989631 0.9080 0.9080 0.9080 0.9090 0.9090
302.584694 0.9090 0.9090 0.9090 0.9090 0.9100
307.179757 0.9100 0.9100 0.9100 0.9100 0.9090
311.774820 0.9090 0.9090 0.9090 0.9100 0.9100
316.369883 0.9100 0.9100 0.9100 0.9100 0.9100
320.964946 0.9100 0.9100 0.9100 0.9110 0.9110
325.560009 0.9110 0.9110 0.9110 0.9110 0.9110
330.155072 0.9100 0.9100 0.9100 0.9100 0.9100
334.750135 0.9100 0.9100 0.9100 0.9100 0.9100
339.345198 0.9110 0.9100 0.9100 0.9100 0.9100
343.940261 0.9100 0.9100 0.9100 0.9090 0.9090
348.535324 0.9100 0.9090 0.9090 0.9080 0.9080
353.130387 0.9080 0.9080 0.9080 0.9060 0.9060
357.725451 0.9060 0.9060 0.9050 0.9050 0.9050
362.320514 0.9050 0.9050 0.9050 0.9050 0.9050
366.915577 0.9050 0.9060 0.9050 0.9050 0.9050
371.510640 0.9060 0.9060 0.9060 0.9060 0.9060
376.105703 0.9060 0.9060 0.9060 0.9060 0.9060
380.700766 0.9060 0.9060 0.9080 0.9080 0.9090
385.295829 0.9090 0.9100 0.9100 0.9100 0.9100
389.890892 0.9100 0.9110 0.9110 0.9110 0.9110
394.485955 0.9110 0.9110 0.9110 0.9110 0.9130
399.081018 0.9130 0.9130 0.9130 0.9130 0.9130
403.676081 0.9130 0.9130 0.9130 0.9130 0.9110
408.271144 0.9110 0.9110 0.9110 0.9110 0.9110
412.866207 0.9110 0.9100 0.9100 0.9080 0.9080
417.461270 0.9060 0.9050 0.9040 0.9030 0.9030
422.056334 0.9010 0.9000 0.9000 0.9000 0.8990
426.651397 0.8990 0.9000 0.9000 0.9000 0.9010
431.246460 0.9010 0.9010 0.9010 0.9010 0.9030
435.841523 0.9030 0.9030 0.9040 0.9040 0.9040
440.436586 0.9030 0.9030 0.9030 0.9030 0.9010
445.031649 0.9010 0.9010 0.9010 0.9010 0.9010
449.626712 0.9030 0.9030 0.9030 0.9030 0.9040
454.221775 0.9040 0.9040 0.9050 0.9060 0.9060
458.816838 0.9080 0.9090 0.9100 0.9110 0.9130
463.411901 0.9130 0.9140 0.9140 0.9150 0.9150
468.006964 0.9150 0.9150 0.9150 0.9150 0.9150
472.602027 0.9150 0.9150 0.9150 0.9150 0.9150
477.197090 0.9150 0.9150 0.9150 0.9150 0.9150
481.792153 0.9150 0.9150 0.9150 0.9150 0.9150
486.387216 0.9150 0.9150 0.9150 0.9150 0.9150
490.982280 0.9150 0.9160 0.9160 0.9160 0.9160
495.577343 0.9160 0.9160 0.9160 0.9160 0.9160
500.172406 0.9160 0.9160 0.9180 0.9180 0.9180
504.767469 0.9180 0.9180 0.9180 0.9180 0.9180
509.362532 0.9180 0.9180 0.9180 0.9190 0.9180
513.957595 0.9180 0.9160 0.9150 0.9150 0.9150
518.552658 0.9150 0.9140 0.9140 0.9140 0.9140
523.147721 0.9140 0.9140 0.9150 0.9150 0.9150
527.742784 0.9150 0.9160 0.9180 0.9180 0.9190
532.337847 0.9200 0.9200 0.9200 0.9200 0.9210
536.932910 0.9210 0.9210 0.9220 0.9220 0.9240
541.527973 0.9250 0.9250 0.9250 0.9260 0.9260
546.123036 0.9270 0.9270 0.9260 0.9260 0.9260
550.718099 0.9260 0.9250 0.9250 0.9250 0.9250
555.313162 0.9250 0.9250 0.9250 0.9250 0.9250
559.908226 0.9260 0.9270 0.9270 0.9270 0.9290
564.503289 0.9290 0.9290 0.9290 0.9290 0.9290
569.098352 0.9300 0.9310 0.9310 0.9320 0.9340
573.693415 0.9350 0.9350 0.9360 0.9360 0.9390
578.288478 0.9400 0.9400 0.9410 0.9410 0.9420
582.883541 0.9440 0.9460 0.9470 0.9500 0.9510
587.478604 0.9510 0.9520 0.9540 0.9540 0.9550
592.073667 0.9560 0.9560 0.9570 0.9570 0.9590
596.668730 0.9600 0.9610 0.9620 0.9620 0.9630
601.263793 0.9650 0.9650 0.9660 0.9670 0.9670
605.858856 0.9680 0.9700 0.9700 0.9710 0.9720
610.453919 0.9720 0.9730 0.9730 0.9750 0.9750
615.048982 0.9750 0.9750 0.9750 0.9730 0.9730
619.644045 0.9720 0.9720 0.9710 0.9710 0.9710
624.239108 0.9710 0.9710 0.9700 0.9680 0.9680
628.834172 0.9670 0.9670 0.9670 0.9670 0.9660
633.429235 0.9660 0.9660 0.9650 0.9650 0.9650
638.024298 0.9650 0.9650 0.9630 0.9630 0.9630
642.619361 0.9630 0.9630 0.9630 0.9630 0.9630
647.214424 0.9630 0.9630 0.9620 0.9620 0.9620
651.809487 0.9620 0.9620 0.9620 0.9620 0.9620
656.404550 0.9620 0.9620 0.9620 0.9620 0.9620
660.999613 0.9620 0.9620 0.9610 0.9610 0.9610
665.594676 0.9610 0.9610 0.9610 0.9610 0.9600
670.189739 0.9600 0.9600 0.9600 0.9590 0.9590
674.784802 0.9590 0.9590 0.9570 0.9570 0.9570
679.379865 0.9560 0.9560 0.9550 0.9540 0.9540
683.974928 0.9520 0.9500 0.9500 0.9500 0.9490
688.569991 0.9490 0.9470 0.9470 0.9460 0.9460
693.165055 0.9460 0.9450 0.9450 0.9450 0.9450
697.760118 0.9450 0.9450 0.9450 0.9450 0.9450
702.355181 0.9450 0.9440 0.9440 0.9440 0.9440
706.950244 0.9440 0.9420 0.9420 0.9410 0.9410
711.545307 0.9410 0.9410 0.9410 0.9400 0.9400
716.140370 0.9390 0.9390 0.9390 0.9390 0.9390
720.735433 0.9370 0.9370 0.9360 0.9360 0.9360
725.330496 0.9360 0.9360 0.9360 0.9360 0.9360
729.925559 0.9360 0.9360 0.9360 0.9360 0.9360
734.520622 0.9360 0.9360 0.9360 0.9360 0.9360
739.115685 0.9350 0.9350 0.9350 0.9350 0.9350
743.710748 0.9350 0.9350 0.9340 0.9340 0.9340
748.305811 0.9340 0.9340 0.9320 0.9320 0.9310
752.900874 0.9310 0.9310 0.9310 0.9310 0.9320
757.495937 0.9320 0.9340 0.9340 0.9340 0.9340
762.091001 0.9340 0.9340 0.9340 0.9340 0.9340
766.686064 0.9340 0.9340 0.9340 0.9320 0.9320
771.281127 0.9300 0.9290 0.9270 0.9260 0.9260
775.876190 0.9250 0.9250 0.9240 0.9210 0.9200
780.471253 0.9190 0.9180 0.9180 0.9180 0.9160
785.066316 0.9160 0.9150 0.9150 0.9150 0.9140
789.661379 0.9140 0.9130 0.9130 0.9110 0.9110
794.256442 0.9110 0.9110 0.9110 0.9100 0.9090
798.851505 0.9060 0.9030 0.8990 0.8960 0.8940
803.446568 0.8890 0.8830 0.8780 0.8730 0.8700
808.041631 0.8680 0.8630 0.8580 0.8530 0.8490
812.636694 0.8450 0.8420 0.8390 0.8360 0.8310
817.231757 0.8290 0.8260 0.8220 0.8190 0.8160
821.826820 0.8140 0.8130 0.8120 0.8110 0.8070
826.421883 0.8030 0.7980 0.7970 0.7930 0.7920
831.016947 0.7920 0.7920 0.7910 0.7910 0.7900
835.612010 0.7900 0.7900 0.7900 0.7900 0.7900
840.207073 0.7900 0.7910 0.7910 0.7910 0.7910
844.802136 0.7910 0.7910 0.7910 0.7910 0.7900
849.397199 0.7900 0.7900 0.7880 0.7880 0.7880
853.992262 0.7870 0.7870 0.7860 0.7850 0.7850
858.587325 0.7830 0.7810 0.7800 0.7800 0.7780
863.182388 0.7770 0.7770 0.7760 0.7750 0.7750
867.777451 0.7730 0.7720 0.7710 0.7700 0.7700
872.372514 0.7680 0.7680 0.7680 0.7680 0.7700
876.967577 0.7700 0.7700 0.7710 0.7730 0.7760
881.562640 0.7780 0.7800 0.7820 0.7830 0.7870
886.157703 0.7880 0.7900 0.7920 0.7930 0.7930
890.752766 0.7930 0.7930 0.7930 0.7930 0.7920
895.347829 0.7920 0.7910 0.7900 0.7860 0.7850
899.942893 0.7820 0.7800 0.7780 0.7760 0.7760
904.537956 0.7750 0.7710 0.7700 0.7680 0.7650
909.133019 0.7610 0.7570 0.7560 0.7540 0.7520
913.728082 0.7500 0.7490 0.7470 0.7460 0.7440
918.323145 0.7440 0.7440 0.7440 0.7440 0.7450
922.918208 0.7460 0.7460 0.7460 0.7470 0.7470
927.513271 0.7490 0.7490 0.7500 0.7510 0.7510
932.108334 0.7510 0.7510 0.7520 0.7540 0.7550
936.703397 0.7560 0.7570 0.7570 0.7570 0.7570
941.298460 0.7570 0.7560 0.7560 0.7550 0.7550
945.893523 0.7540 0.7540 0.7540 0.7540 0.7520
950.488586 0.7510 0.7510 0.7510 0.7510 0.7500
955.083649 0.7490 0.7490 0.7490 0.7490 0.7490
959.678712 0.7490 0.7490 0.7490 0.7490 0.7490
964.273776 0.7490 0.7500 0.7510 0.7520 0.7560
968.868839 0.7590 0.7610 0.7650 0.7670 0.7680
973.463902 0.7680 0.7700 0.7700 0.7700 0.7700
978.058965 0.7680 0.7670 0.7650 0.7630 0.7610
982.654028 0.7590 0.7570 0.7550 0.7520 0.7490
987.249091 0.7470 0.7450 0.7450 0.7440 0.7440
991.844154 0.7440 0.7440 0.7450 0.7450 0.7460
996.439217 0.7460 0.7490 0.7500 0.7520 0.7550
1001.034280 0.7590 0.7610 0.7630 0.7660 0.7680
1005.629343 0.7700 0.7710 0.7720 0.7720 0.7730
1010.224406 0.7730 0.7730 0.7720 0.7720 0.7710
1014.819469 0.7710 0.7700 0.7680 0.7660 0.7620
1019.414532 0.7590 0.7550 0.7510 0.7450 0.7390
1024.009595 0.7290 0.7260 0.7200 0.7110 0.7050
1028.604658 0.6990 0.6880 0.6750 0.6650 0.6580
1033.199722 0.6530 0.6470 0.6390 0.6340 0.6310
1037.794785 0.6280 0.6260 0.6240 0.6220 0.6210
1042.389848 0.6190 0.6180 0.6160 0.6120 0.6090
1046.984911 0.6080 0.6060 0.6030 0.6000 0.5930
1051.579974 0.5870 0.5850 0.5770 0.5660 0.5590
1056.175037 0.5520 0.5490 0.5420 0.5350 0.5241
1060.770100 0.5140 0.5040 0.4960 0.4850 0.4780
1065.365163 0.4700 0.4620 0.4520 0.4430 0.4330
1069.960226 0.4220 0.4060 0.4010 0.3960 0.3850
1074.555289 0.3730 0.3600 0.3470 0.3350 0.3211
1079.150352 0.3080 0.2940 0.2720 0.2530 0.2380
1083.745415 0.2260 0.2160 0.2060 0.1960 0.1821
1088.340478 0.1670 0.1460 0.1440 0.1410 0.1390
1092.935541 0.1340 0.1270 0.1180 0.1110 0.1090
1097.530604 0.1060 0.1050 0.1040 0.1030 0.1010
1102.125668 0.1000 0.1000 0.0990 0.0990 0.0990
1106.720731 0.0990 0.1000 0.1010 0.1010 0.1030
1111.315794 0.1050 0.1060 0.1100 0.1130 0.1140
1115.910857 0.1150 0.1160 0.1190 0.1210 0.1260
1120.505920 0.1300 0.1350 0.1360 0.1390 0.1410
1125.100983 0.1420 0.1460 0.1510 0.1540 0.1550
1129.696046 0.1570 0.1610 0.1620 0.1650 0.1670
1134.291109 0.1680 0.1720 0.1730 0.1760 0.1810
1138.886172 0.1830 0.1950 0.1980 0.2030 0.2070
1143.481235 0.2120 0.2190 0.2270 0.2380 0.2500
1148.076298 0.2630 0.2770 0.2890 0.3039 0.3179
1152.671361 0.3310 0.3460 0.3600 0.3720 0.3850
1157.266424 0.4020 0.4080 0.4269 0.4469 0.4719
1161.861487 0.4840 0.4990 0.5140 0.5260 0.5410
1166.456550 0.5570 0.5909 0.6169 0.6379 0.6569
1171.051614 0.6720 0.7040 0.7220 0.7460 0.7630
1175.646677 0.7780 0.7870 0.7920 0.8119 0.8210
1180.241740 0.8340 0.8390 0.8490 0.8570 0.8640
1184.836803 0.8690 0.8740 0.8780 0.8810 0.8830
1189.431866 0.8850 0.8860 0.8860 0.8860 0.8860
1194.026929 0.8860 0.8860 0.8860 0.8860 0.8860
1198.621992 0.8860 0.8830 0.8800 0.8790 0.8780
1203.217055 0.8750 0.8730 0.8720 0.8720 0.8700
1207.812118 0.8690 0.8680 0.8670 0.8650 0.8650
1212.407181 0.8640 0.8630 0.8620 0.8620 0.8590
1217.002244 0.8580 0.8550 0.8500 0.8450 0.8400
1221.597307 0.8360 0.8310 0.8270 0.8220 0.8170
1226.192370 0.8090 0.7980 0.7880 0.7770 0.7670
1230.787433 0.7570 0.7510 0.7410 0.7340 0.7270
1235.382497 0.7240 0.7210 0.7200 0.7190 0.7180
1239.977560 0.7180 0.7160 0.7160 0.7160 0.7160
1244.572623 0.7160 0.7180 0.7180 0.7200 0.7240
1249.167686 0.7270 0.7320 0.7400 0.7460 0.7510
1253.762749 0.7520 0.7550 0.7590 0.7610 0.7620
1258.357812 0.7620 0.7650 0.7650 0.7650 0.7630
1262.952875 0.7620 0.7610 0.7590 0.7590 0.7590
1267.547938 0.7550 0.7510 0.7470 0.7460 0.7420
1272.143001 0.7370 0.7320 0.7270 0.7260 0.7250
1276.738064 0.7210 0.7180 0.7110 0.7090 0.7060
1281.333127 0.7030 0.7010 0.7000 0.7000 0.6990
1285.928190 0.6980 0.6980 0.6980 0.6960 0.6960
1290.523253 0.6960 0.6980 0.6980 0.6980 0.7030
1295.118316 0.7080 0.7090 0.7110 0.7140 0.7150
1299.713379 0.7160 0.7180 0.7190 0.7190 0.7190
1304.308443 0.7190 0.7190 0.7190 0.7190 0.7190
1308.903506 0.7190 0.6630 0.6070 0.6040 0.6040
1313.498569 0.6040 0.6040 0.6040 0.6040 0.6040
1318.093632 0.6060 0.6060 0.6070 0.6070 0.6070
1322.688695 0.6080 0.6070 0.6070 0.6060 0.6040
1327.283758 0.6030 0.6020 0.5960 0.5910 0.5870
1331.878821 0.5830 0.5760 0.5630 0.5510 0.5390
1336.473884 0.5290 0.5200 0.5190 0.5190 0.5190
1341.068947 0.5200 0.5210 0.5250 0.5260 0.5270
1345.664010 0.5290 0.5310 0.5350 0.5400 0.5450
1350.259073 0.5510 0.5560 0.5630 0.5700 0.5770
1354.854136 0.5810 0.5820 0.5820 0.5810 0.5810
1359.449199 0.5770 0.5720 0.5630 0.5600 0.5510
1364.044262 0.5340 0.5110 0.4900 0.4501 0.4171
1368.639325 0.4000 0.3821 0.3561 0.3421 0.3360
1373.234389 0.3370 0.3520 0.4080 0.4370 0.4640
1377.829452 0.4860 0.5199 0.5459 0.5679 0.5829
1382.424515 0.5970 0.6110 0.6230 0.6360 0.6470
1387.019578 0.6580 0.6670 0.6740 0.6810 0.7029
1391.614641 0.7060 0.7100 0.7130 0.7180 0.7220
1396.209704 0.7250 0.7270 0.7320 0.7360 0.7400
1400.804767 0.7440 0.7450 0.7490 0.7510 0.7550
1405.399830 0.7590 0.7620 0.7630 0.7680 0.7720
1409.994893 0.7770 0.7820 0.7870 0.7900 0.7920
1414.589956 0.7930 0.7930 0.7950 0.7950 0.7950
1419.185019 0.7950 0.7930 0.7920 0.7910 0.7900
1423.780082 0.7880 0.7860 0.7820 0.7800 0.7780
1428.375145 0.7760 0.7680 0.7600 0.7490 0.7360
1432.970208 0.7220 0.7100 0.6960 0.6771 0.6631
1437.565271 0.6500 0.6400 0.6310 0.6160 0.5970
1442.160335 0.5711 0.5491 0.5311 0.5151 0.5050
1446.755398 0.4990 0.4900 0.4800 0.4790 0.4790
1451.350461 0.4790 0.4790 0.4790 0.4800 0.4810
1455.945524 0.4860 0.4900 0.4940 0.4960 0.5040
1460.540587 0.5180 0.5240 0.5320 0.5469 0.5649
1465.135650 0.5800 0.5910 0.6010 0.6040 0.6130
1469.730713 0.6190 0.6310 0.6499 0.6600 0.6690
1474.325776 0.6730 0.6770 0.6800 0.6890 0.7010
1478.920839 0.7200 0.7300 0.7420 0.7450 0.7500
1483.515902 0.7520 0.7590 0.7630 0.7780 0.7960
1488.110965 0.8110 0.8379 0.8500 0.8650 0.8690
1492.706028 0.8720 0.8750 0.8800 0.8860 0.8890
1497.301091 0.8910 0.8930 0.8950 0.8980 0.9000
1501.896154 0.9010 0.9010 0.9030 0.9040 0.9050
1506.491218 0.9050 0.9060 0.9090 0.9090 0.9090
1511.086281 0.9100 0.9100 0.9100 0.9100 0.9130
1515.681344 0.9130 0.9140 0.9140 0.9150 0.9150
1520.276407 0.9160 0.9190 0.9190 0.9190 0.9200
1524.871470 0.9200 0.9200 0.9210 0.9210 0.9210
1529.466533 0.9220 0.9220 0.9220 0.9220 0.9220
1534.061596 0.9220 0.9220 0.9220 0.9220 0.9220
1538.656659 0.9220 0.9220 0.9220 0.9220 0.9220
1543.251722 0.9220 0.9220 0.9220 0.9220 0.9220
1547.846785 0.9220 0.9220 0.9210 0.9200 0.9200
1552.441848 0.9200 0.9200 0.9200 0.9190 0.9190
1557.036911 0.9190 0.9190 0.9190 0.9190 0.9190
1561.631974 0.9190 0.9190 0.9180 0.9180 0.9180
1566.227037 0.9180 0.9160 0.9160 0.9160 0.9160
1570.822100 0.9160 0.9160 0.9160 0.9160 0.9160
1575.417164 0.9150 0.9150 0.9150 0.9150 0.9150
1580.012227 0.9140 0.9140 0.9130 0.9130 0.9130
1584.607290 0.9130 0.9130 0.9130 0.9110 0.9110
1589.202353 0.9110 0.9110 0.9110 0.9110 0.9110
1593.797416 0.9100 0.9100 0.9100 0.9100 0.9110
1598.392479 0.9100 0.9100 0.9100 0.9110 0.9100
1602.987542 0.9100 0.9100 0.9100 0.9100 0.9100
1607.582605 0.9090 0.9090 0.9090 0.9090 0.9090
1612.177668 0.9090 0.9090 0.9090 0.9090 0.9090
1616.772731 0.9090 0.9090 0.9090 0.9090 0.9090
1621.367794 0.9090 0.9090 0.9090 0.9090 0.9090
1625.962857 0.9090 0.9090 0.9090 0.9090 0.9090
1630.557920 0.9090 0.9090 0.9090 0.9090 0.9090
1635.152983 0.9090 0.9090 0.9090 0.9090 0.9090
1639.748046 0.9090 0.9090 0.9090 0.9100 0.9110
1644.343110 0.9100 0.9100 0.9110 0.9110 0.9110
1648.938173 0.9110 0.9110 0.9110 0.9130 0.9130
1653.533236 0.9130 0.9130 0.9130 0.9130 0.9130
1658.128299 0.9130 0.9130 0.9130 0.9130 0.9130
1662.723362 0.9130 0.9130 0.9130 0.9130 0.9130
1667.318425 0.9130 0.9130 0.9130 0.9130 0.9130
1671.913488 0.9130 0.9130 0.9130 0.9130 0.9130
1676.508551 0.9130 0.9130 0.9130 0.9130 0.9130
1681.103614 0.9130 0.9130 0.9130 0.9130 0.9130
1685.698677 0.9130 0.9130 0.9130 0.9130 0.9130
1690.293740 0.9130 0.9130 0.9130 0.9130 0.9130
1694.888803 0.9130 0.9130 0.9130 0.9130 0.9130
1699.483866 0.9130 0.9130 0.9130 0.9130 0.9130
1704.078929 0.9130 0.9130 0.9130 0.9110 0.9110
1708.673992 0.9100 0.9100 0.9100 0.9100 0.9110
1713.269056 0.9100 0.9100 0.9100 0.9100 0.9100
1717.864119 0.9090 0.9090 0.9090 0.9090 0.9090
1722.459182 0.9090 0.9090 0.9090 0.9090 0.9090
1727.054245 0.9090 0.9090 0.9090 0.9090 0.9090
1731.649308 0.9090 0.9090 0.9090 0.9090 0.9090
1736.244371 0.9090 0.9090 0.9090 0.9090 0.9090
1740.839434 0.9090 0.9090 0.9090 0.9090 0.9090
1745.434497 0.9090 0.9090 0.9090 0.9090 0.9090
1750.029560 0.9090 0.9090 0.9090 0.9090 0.9090
1754.624623 0.9090 0.9090 0.9090 0.9090 0.9090
1759.219686 0.9090 0.9090 0.9090 0.9090 0.9090
1763.814749 0.9090 0.9090 0.9090 0.9090 0.9090
1768.409812 0.9090 0.9090 0.9090 0.9090 0.9090
1773.004875 0.9090 0.9090 0.9090 0.9090 0.9090
1777.599939 0.9090 0.9090 0.9090 0.9090 0.9090
1782.195002 0.9090 0.9090 0.9090 0.9090 0.9090
1786.790065 0.9090 0.9090 0.9090 0.9100 0.9100
1791.385128 0.9090 0.9090 0.9090 0.9090 0.9090
1795.980191 0.9090 0.9080 0.9080 0.9080 0.9080
1800.575254 0.9080 0.9080 0.9080 0.9080 0.9080
1805.170317 0.9080 0.9080 0.9080 0.9080 0.9080
1809.765380 0.9080 0.9080 0.9080 0.9080 0.9080
1814.360443 0.9080 0.9080 0.9080 0.9080 0.9080
1818.955506 0.9080 0.9080 0.9080 0.9080 0.9080
1823.550569 0.9080 0.9080 0.9080 0.9080 0.9080
1828.145632 0.9080 0.9080 0.9080 0.9080 0.9080
1832.740695 0.9080 0.9080 0.9080 0.9080 0.9080
1837.335758 0.9080 0.9080 0.9080 0.9080 0.9080
1841.930821 0.9080 0.9080 0.9080 0.9080 0.9080
1846.525885 0.9080 0.9080 0.9080 0.9080 0.9090
1851.120948 0.9080 0.9080 0.9080 0.9080 0.9080
1855.716011 0.9080 0.9060 0.9060 0.9060 0.9060
1860.311074 0.9050 0.9060 0.9060 0.9060 0.9060
1864.906137 0.9060 0.9060 0.9060 0.9060 0.9060
1869.501200 0.9060 0.9050 0.9050 0.9050 0.9040
1874.096263 0.9040 0.9040 0.9040 0.9040 0.9040
1878.691326 0.9040 0.9050 0.9050 0.9040 0.9040
1883.286389 0.9040 0.9040 0.9040 0.9030 0.9030
1887.881452 0.9030 0.9030 0.9030 0.9010 0.9010
1892.476515 0.9010 0.9000 0.9000 0.8990 0.8990
1897.071578 0.8990 0.8980 0.8980 0.8980 0.8980
1901.666641 0.8980 0.8980 0.8960 0.8950 0.8940
1906.261704 0.8940 0.8940 0.8940 0.8940 0.8940
1910.856767 0.8930 0.8930 0.8910 0.8910 0.8900
1915.451831 0.8900 0.8900 0.8890 0.8880 0.8880
1920.046894 0.8860 0.8860 0.8850 0.8850 0.8840
1924.641957 0.8840 0.8840 0.8830 0.8830 0.8830
1929.237020 0.8830 0.8810 0.8810 0.8810 0.8800
1933.832083 0.8800 0.8800 0.8800 0.8790 0.8790
1938.427146 0.8790 0.8780 0.8790 0.8780 0.8780
1943.022209 0.8780 0.8780 0.8780 0.8770 0.8770
1947.617272 0.8770 0.8770 0.8770 0.8770 0.8770
1952.212335 0.8770 0.8770 0.8770 0.8770 0.8770
1956.807398 0.8770 0.8770 0.8770 0.8770 0.8770
1961.402461 0.8770 0.8770 0.8770 0.8770 0.8770
1965.997524 0.8770 0.8770 0.8770 0.8770 0.8770
1970.592587 0.8770 0.8770 0.8770 0.8770 0.8770
1975.187650 0.8770 0.8780 0.8770 0.8770 0.8770
1979.782713 0.8770 0.8770 0.8770 0.8770 0.8780
1984.377777 0.8780 0.8780 0.8780 0.8780 0.8780
1988.972840 0.8790 0.8800 0.8800 0.8800 0.8800
1993.567903 0.8800 0.8810 0.8830 0.8840 0.8890
1998.162966 0.8910 0.8930 0.8940 0.8940 0.8940
2002.758029 0.8945 0.8950 0.8950 0.8950 0.8950
2007.353092 0.8950 0.8950 0.8950 0.8950 0.8950
2011.948155 0.8950 0.8950 0.8950 0.8950 0.8950
2016.543218 0.8950 0.8950 0.8950 0.8950 0.8950
2021.138281 0.8950 0.8950 0.8950 0.8950 0.8950
2025.733344 0.8950 0.8950 0.8950 0.8950 0.8950
2030.328407 0.8950 0.8950 0.8950 0.8950 0.8950
2034.923470 0.8950 0.8950 0.8950 0.8950 0.8950
2039.518533 0.8950 0.8950 0.8950 0.8950 0.8950
2044.113596 0.8950 0.8950 0.8950 0.8950 0.8950
2048.708660 0.8950 0.8950 0.8950 0.8950 0.8950
2053.303723 0.8950 0.8950 0.8950 0.8950 0.8950
2057.898786 0.8950 0.8950 0.8950 0.8950 0.8950
2062.493849 0.8950 0.8950 0.8950 0.8950 0.8950
2067.088912 0.8950 0.8950 0.8950 0.8950 0.8950
2071.683975 0.8950 0.8950 0.8950 0.8950 0.8950
2076.279038 0.8950 0.8950 0.8950 0.8950 0.8950
2080.874101 0.8950 0.8950 0.8950 0.8950 0.8950
2085.469164 0.8950 0.8950 0.8950 0.8950 0.8950
2090.064227 0.8950 0.8950 0.8950 0.8950 0.8950
2094.659290 0.8950 0.8950 0.8950 0.8950 0.8950
2099.254353 0.8950 0.8950 0.8950 0.8950 0.8950
2103.849416 0.8950 0.8950 0.8950 0.8950 0.8950
2108.444479 0.8950 0.8950 0.8950 0.8950 0.8950
2113.039542 0.8950 0.8950 0.8950 0.8950 0.8950
2117.634606 0.8950 0.8950 0.8950 0.8950 0.8950
2122.229669 0.8950 0.8950 0.8950 0.8950 0.8950
2126.824732 0.8950 0.8950 0.8950 0.8950 0.8950
2131.419795 0.8950 0.8950 0.8950 0.8950 0.8950
2136.014858 0.8950 0.8950 0.8950 0.8955 0.8960
2140.609921 0.8960 0.8960 0.8960 0.8960 0.8960
2145.204984 0.8960 0.8960 0.8960 0.8960 0.8960
2149.800047 0.8960 0.8960 0.8960 0.8960 0.8960
2154.395110 0.8960 0.8960 0.8960 0.8960 0.8960
2158.990173 0.8960 0.8960 0.8960 0.8960 0.8960
2163.585236 0.8960 0.8960 0.8960 0.8960 0.8960
2168.180299 0.8960 0.8960 0.8960 0.8960 0.8960
2172.775362 0.8960 0.8960 0.8961 0.8971 0.8980
2177.370425 0.8980 0.8980 0.8980 0.8980 0.8980
2181.965488 0.8980 0.8980 0.8980 0.8980 0.8980
2186.560552 0.8980 0.8981 0.8986 0.8991 0.8996
2191.155615 0.9000 0.9000 0.9000 0.9000 0.9000
2195.750678 0.9000 0.9000 0.9000 0.9000 0.9000
2200.345741 0.9001 0.9006 0.9009 0.9004 0.9000
2204.940804 0.9000 0.9000 0.9000 0.9000 0.9000
2209.535867 0.9000 0.9000 0.9000 0.9000 0.9000
2214.130930 0.9000 0.9000 0.9000 0.9000 0.9000
2218.725993 0.9000 0.9000 0.9001 0.9006 0.9010
2223.321056 0.9010 0.9010 0.9010 0.9010 0.9010
2227.916119 0.9010 0.9010 0.9012 0.9022 0.9030
2232.511182 0.9030 0.9030 0.9030 0.9030 0.9030
2237.106245 0.9030 0.9030 0.9030 0.9030 0.9030
2241.701308 0.9030 0.9030 0.9030 0.9030 0.9030
2246.296371 0.9030 0.9030 0.9030 0.9030 0.9030
2250.891434 0.9030 0.9030 0.9030 0.9030 0.9030
2255.486498 0.9031 0.9036 0.9040 0.9040 0.9040
2260.081561 0.9040 0.9040 0.9040 0.9040 0.9040
2264.676624 0.9040 0.9040 0.9040 0.9040 0.9040
2269.271687 0.9040 0.9040 0.9040 0.9040 0.9040
2273.866750 0.9040 0.9040 0.9040 0.9040 0.9041
2278.461813 0.9046 0.9050 0.9050 0.9049 0.9044
2283.056876 0.9040 0.9040 0.9040 0.9040 0.9040
2287.651939 0.9040 0.9041 0.9046 0.9050 0.9050
2292.247002 0.9050 0.9050 0.9050 0.9050 0.9051
2296.842065 0.9056 0.9060 0.9060 0.9060 0.9060
2301.437128 0.9060 0.9060 0.9060 0.9060 0.9060
2306.032191 0.9060 0.9060 0.9060 0.9060 0.9060
2310.627254 0.9060 0.9060 0.9060 0.9060 0.9060
2315.222317 0.9060 0.9060 0.9060 0.9060 0.9060
2319.817381 0.9060 0.9060 0.9059 0.9054 0.9050
2324.412444 0.9050 0.9050 0.9050 0.9049 0.9044
2329.007507 0.9040 0.9040 0.9040 0.9040 0.9040
2333.602570 0.9040 0.9040 0.9040 0.9040 0.9040
2338.197633 0.9040 0.9040 0.9040 0.9040 0.9040
2342.792696 0.9040 0.9040 0.9040 0.9040 0.9040
2347.387759 0.9040 0.9040 0.9040 0.9040 0.9040
2351.982822 0.9040 0.9040 0.9040 0.9040 0.9040
2356.577885 0.9040 0.9040 0.9040 0.9040 0.9040
2361.172948 0.9040 0.9040 0.9040 0.9040 0.9040
2365.768011 0.9040 0.9040 0.9040 0.9040 0.9040
2370.363074 0.9040 0.9040 0.9040 0.9040 0.9040
2374.958137 0.9040 0.9040 0.9040 0.9040 0.9040
2379.553200 0.9040 0.9040 0.9040 0.9040 0.9040
2384.148263 0.9040 0.9040 0.9040 0.9040 0.9040
2388.743327 0.9040 0.9040 0.9040 0.9040 0.9040
2393.338390 0.9040 0.9040 0.9040 0.9040 0.9041
2397.933453 0.9046 0.9050 0.9050 0.9049 0.9044
2402.528516 0.9040 0.9040 0.9040 0.9040 0.9040
2407.123579 0.9040 0.9040 0.9040 0.9040 0.9040
2411.718642 0.9040 0.9040 0.9040 0.9040 0.9040
2416.313705 0.9040 0.9040 0.9040 0.9040 0.9040
2420.908768 0.9040 0.9040 0.9040 0.9040 0.9040
2425.503831 0.9040 0.9040 0.9040 0.9040 0.9040
2430.098894 0.9040 0.9040 0.9040 0.9040 0.9040
2434.693957 0.9040 0.9040 0.9040 0.9040 0.9040
2439.289020 0.9038 0.9033 0.9030 0.9030 0.9030
2443.884083 0.9030 0.9030 0.9030 0.9027 0.9017
2448.479146 0.9010 0.9010 0.9010 0.9010 0.9010
2453.074209 0.9010 0.9010 0.9010 0.9010 0.9010
2457.669273 0.9010 0.9010 0.9010 0.9010 0.9010
2462.264336 0.9010 0.9008 0.9003 0.9000 0.9000
2466.859399 0.9000 0.9000 0.9000 0.9000 0.9000
2471.454462 0.9000 0.9000 0.9000 0.9000 0.9000
2476.049525 0.9000 0.9000 0.8998 0.8993 0.8990
2480.644588 0.8990 0.8992 0.8997 0.9000 0.9000
2485.239651 0.9000 0.9000 0.9000 0.9000 0.9000
2489.834714 0.9000 0.9000 0.9000 0.9000 0.9000
2494.429777 0.9000 0.9000 0.9000 0.9000 0.8998
2499.024840 0.8993 0.8990 0.8990 0.8992 0.8997
2503.619903 0.9000 0.9000 0.9000 0.9000 0.8998
2508.214966 0.8993 0.8990 0.8990 0.8990 0.8990
2512.810029 0.8990 0.8990 0.8990 0.8990 0.8988
2517.405092 0.8983 0.8980 0.8980 0.8980 0.8980
2522.000155 0.8976 0.8966 0.8960 0.8960 0.8958
2526.595219 0.8953 0.8950 0.8950 0.8950 0.8950
2531.190282 0.8950 0.8950 0.8948 0.8943 0.8940
2535.785345 0.8940 0.8940 0.8940 0.8940 0.8940
2540.380408 0.8938 0.8933 0.8926 0.8916 0.8910
2544.975471 0.8910 0.8910 0.8910 0.8908 0.8903
2549.570534 0.8900 0.8900 0.8896 0.8886 0.8880
2554.165597 0.8880 0.8876 0.8866 0.8860 0.8860
2558.760660 0.8858 0.8853 0.8848 0.8843 0.8838
2563.355723 0.8833 0.8826 0.8816 0.8810 0.8810
2567.950786 0.8810 0.8810 0.8808 0.8803 0.8798
2572.545849 0.8793 0.8790 0.8790 0.8788 0.8783
2577.140912 0.8780 0.8780 0.8780 0.8780 0.8778
2581.735975 0.8773 0.8770 0.8770 0.8770 0.8770
2586.331038 0.8766 0.8756 0.8750 0.8750 0.8750
2590.926102 0.8750 0.8750 0.8750 0.8748 0.8743
2595.521165 0.8740 0.8740 0.8740 0.8740 0.8740
2600.116228 0.8740 0.8738 0.8733 0.8730 0.8730
2604.711291 0.8730 0.8730 0.8730 0.8730 0.8730
2609.306354 0.8730 0.8728 0.8723 0.8720 0.8720
2613.901417 0.8715 0.8705 0.8700 0.8700 0.8698
2618.496480 0.8693 0.8688 0.8683 0.8678 0.8673
2623.091543 0.8670 0.8670 0.8665 0.8655 0.8650
2627.686606 0.8650 0.8648 0.8643 0.8638 0.8633
2632.281669 0.8630 0.8630 0.8628 0.8623 0.8620
2636.876732 0.8620 0.8620 0.8620 0.8613 0.8598
2641.471795 0.8590 0.8590 0.8588 0.8583 0.8578
2646.066858 0.8573 0.8565 0.8555 0.8550 0.8550
2650.661921 0.8545 0.8535 0.8528 0.8523 0.8520
2655.256984 0.8520 0.8515 0.8505 0.8495 0.8485
2659.852048 0.8473 0.8457 0.8445 0.8435 0.8427
2664.447111 0.8422 0.8412 0.8397 0.8387 0.8382
2669.042174 0.8375 0.8365 0.8355 0.8345 0.8337
2673.637237 0.8332 0.8327 0.8322 0.8317 0.8312
2678.232300 0.8300 0.8280 0.8262 0.8247 0.8232
2682.827363 0.8217 0.8200 0.8180 0.8162 0.8147
2687.422426 0.8137 0.8132 0.8107 0.8062 0.8030
2692.017489 0.8010 0.7992 0.7977 0.7970 0.7970
2696.612552 0.7967 0.7962 0.7949 0.7929 0.7917
2701.207615 0.7912 0.7907 0.7902 0.7895 0.7885
2705.802678 0.7875 0.7865 0.7849 0.7829 0.7815
2710.397741 0.7805 0.7795 0.7785 0.7775 0.7765
2714.992804 0.7760 0.7760 0.7752 0.7737 0.7725
2719.587867 0.7715 0.7702 0.7687 0.7677 0.7672
2724.182930 0.7667 0.7662 0.7657 0.7652 0.7645
2728.777994 0.7635 0.7627 0.7622 0.7617 0.7612
2733.373057 0.7607 0.7602 0.7597 0.7592 0.7584
2737.968120 0.7574 0.7564 0.7554 0.7542 0.7527
2742.563183 0.7517 0.7512 0.7507 0.7502 0.7497
2747.158246 0.7492 0.7482 0.7467 0.7454 0.7444
2751.753309 0.7432 0.7416 0.7404 0.7394 0.7381
2756.348372 0.7366 0.7354 0.7344 0.7317 0.7277
2760.943435 0.7257 0.7252 0.7250 0.7250 0.7236
2765.538498 0.7211 0.7171 0.7121 0.7083 0.7053
2770.133561 0.7028 0.7008 0.6997 0.6992 0.6981
2774.728624 0.6966 0.6951 0.6936 0.6909 0.6874
2779.323687 0.6842 0.6812 0.6794 0.6784 0.6765
2783.918750 0.6740 0.6712 0.6682 0.6649 0.6614
2788.513813 0.6582 0.6552 0.6522 0.6492 0.6462
2793.108876 0.6432 0.6396 0.6356 0.6322 0.6292
2797.703940 0.6262 0.6232 0.6202 0.6172 0.6139
2802.299003 0.6104 0.6069 0.6034 0.6002 0.5972
2806.894066 0.5936 0.5895 0.5861 0.5831 0.5801
2811.489129 0.5771 0.5735 0.5695 0.5661 0.5632
2816.084192 0.5598 0.5563 0.5532 0.5502 0.5465
2820.679255 0.5425 0.5376 0.5321 0.5272 0.5227
2825.274318 0.5170 0.5104 0.5042 0.4982 0.4903
2829.869381 0.4813 0.4733 0.4658 0.4554 0.4434
2834.464444 0.4321 0.4211 0.4117 0.4032 0.3943
2839.059507 0.3853 0.3735 0.3600 0.3443 0.3273
2843.654570 0.3109 0.2947 0.2787 0.2627 0.2431
2848.249633 0.2216 0.2040 0.1885 0.1730 0.1575
2852.844696 0.1449 0.1339 0.1245 0.1160 0.1098
2857.439759 0.1048 0.1020 0.1005 0.0987 0.0967
2862.034823 0.0954 0.0943 0.0937 0.0932 0.0933
2866.629886 0.0938 0.0940 0.0940 0.0956 0.0981
2871.224949 0.1003 0.1023 0.1037 0.1047 0.1053
2875.820012 0.1058 0.1067 0.1077 0.1090 0.1105
2880.415075 0.1120 0.1135 0.1157 0.1182 0.1190
2885.010138 0.1190 0.1200 0.1215 0.1227 0.1237
2889.605201 0.1243 0.1248 0.1253 0.1258 0.1263
2894.200264 0.1268 0.1283 0.1303 0.1323 0.1343
2898.795327 0.1367 0.1392 0.1417 0.1442 0.1474
2903.390390 0.1509 0.1544 0.1579 0.1611 0.1641
2907.985453 0.1660 0.1675 0.1697 0.1722 0.1747
2912.580516 0.1772 0.1797 0.1822 0.1840 0.1855
2917.175579 0.1863 0.1868 0.1881 0.1896 0.1900
2921.770642 0.1900 0.1900 0.1900 0.1900 0.1900
2926.365705 0.1900 0.1900 0.1903 0.1908 0.1924
2930.960769 0.1944 0.1967 0.1992 0.2031 0.2076
2935.555832 0.2139 0.2210 0.2302 0.2402 0.2509
2940.150895 0.2619 0.2739 0.2864 0.2957 0.3037
2944.745958 0.3110 0.3180 0.3250 0.3320 0.3379
2949.341021 0.3434 0.3482 0.3527 0.3544 0.3549
2953.936084 0.3546 0.3541 0.3522 0.3497 0.3453
2958.531147 0.3403 0.3324 0.3234 0.3130 0.3020
2963.126210 0.2903 0.2783 0.2695 0.2620 0.2535
2967.721273 0.2445 0.2413 0.2403 0.2411 0.2426
2972.316336 0.2500 0.2596 0.2706 0.2821 0.2973
2976.911399 0.3138 0.3240 0.3320 0.3366 0.3401
2981.506462 0.3440 0.3480 0.3783 0.4178 0.4425
2986.101525 0.4620 0.4811 0.5001 0.5194 0.5389
2990.696588 0.5586 0.5783 0.5978 0.6173 0.6356
2995.291651 0.6536 0.6838 0.7177 0.7374 0.7523
2999.886715 0.7658 0.7788 0.7903 0.8013 0.8074
3004.481778 0.8119 0.8145 0.8165 0.8230 0.8310
3009.076841 0.8395 0.8481 0.8531 0.8571 0.8599
3013.671904 0.8624 0.8653 0.8683 0.8702 0.8717
3018.266967 0.8743 0.8773 0.8792 0.8807 0.8829
3022.862030 0.8854 0.8872 0.8887 0.8894 0.8899
3027.457093 0.8904 0.8909 0.8918 0.8928 0.8938
3032.052156 0.8948 0.8966 0.8986 0.8998 0.9008
3036.647219 0.9018 0.9028 0.9030 0.9030 0.9034
3041.242282 0.9039 0.9044 0.9049 0.9054 0.9059
3045.837345 0.9068 0.9078 0.9080 0.9080 0.9080
3050.432408 0.9080 0.9080 0.9080 0.9084 0.9089
3055.027471 0.9090 0.9090 0.9094 0.9099 0.9104
3059.622534 0.9109 0.9110 0.9110 0.9118 0.9128
3064.217597 0.9130 0.9130 0.9134 0.9139 0.9144
3068.812661 0.9149 0.9150 0.9150 0.9150 0.9150
3073.407724 0.9146 0.9141 0.9144 0.9149 0.9154
3078.002787 0.9159 0.9160 0.9160 0.9160 0.9160
3082.597850 0.9160 0.9160 0.9160 0.9160 0.9160
3087.192913 0.9160 0.9168 0.9178 0.9180 0.9180
3091.787976 0.9180 0.9180 0.9180 0.9180 0.9180
3096.383039 0.9180 0.9180 0.9180 0.9180 0.9180
3100.978102 0.9180 0.9180 0.9180 0.9180 0.9180
3105.573165 0.9180 0.9180 0.9180 0.9180 0.9180
3110.168228 0.9180 0.9180 0.9180 0.9180 0.9180
3114.763291 0.9180 0.9180 0.9180 0.9180 0.9180
3119.358354 0.9180 0.9180 0.9180 0.9180 0.9180
3123.953417 0.9180 0.9180 0.9180 0.9180 0.9180
3128.548480 0.9180 0.9180 0.9180 0.9180 0.9180
3133.143544 0.9180 0.9180 0.9180 0.9180 0.9180
3137.738607 0.9180 0.9180 0.9180 0.9180 0.9180
3142.333670 0.9180 0.9180 0.9180 0.9171 0.9161
3146.928733 0.9160 0.9160 0.9160 0.9160 0.9160
3151.523796 0.9160 0.9169 0.9179 0.9180 0.9180
3156.118859 0.9180 0.9180 0.9180 0.9180 0.9180
3160.713922 0.9180 0.9180 0.9180 0.9180 0.9180
3165.308985 0.9180 0.9180 0.9180 0.9180 0.9180
3169.904048 0.9180 0.9180 0.9180 0.9180 0.9180
3174.499111 0.9180 0.9180 0.9180 0.9180 0.9180
3179.094174 0.9180 0.9184 0.9189 0.9190 0.9190
3183.689237 0.9190 0.9190 0.9190 0.9190 0.9190
3188.284300 0.9190 0.9190 0.9190 0.9190 0.9190
3192.879363 0.9190 0.9190 0.9190 0.9190 0.9190
3197.474426 0.9190 0.9195 0.9200 0.9200 0.9200
3202.069490 0.9195 0.9190 0.9190 0.9190 0.9190
3206.664553 0.9190 0.9190 0.9190 0.9190 0.9190
3211.259616 0.9190 0.9190 0.9190 0.9190 0.9190
3215.854679 0.9190 0.9190 0.9190 0.9190 0.9190
3220.449742 0.9190 0.9190 0.9190 0.9190 0.9190
3225.044805 0.9190 0.9190 0.9190 0.9190 0.9190
3229.639868 0.9190 0.9190 0.9190 0.9190 0.9190
3234.234931 0.9190 0.9185 0.9180 0.9180 0.9180
3238.829994 0.9180 0.9180 0.9180 0.9180 0.9171
3243.425057 0.9161 0.9160 0.9160 0.9160 0.9160
3248.020120 0.9160 0.9160 0.9160 0.9160 0.9160
3252.615183 0.9160 0.9170 0.9180 0.9170 0.9160
3257.210246 0.9160 0.9160 0.9155 0.9150 0.9150
3261.805309 0.9150 0.9150 0.9150 0.9145 0.9140
3266.400372 0.9140 0.9140 0.9135 0.9130 0.9130
3270.995436 0.9130 0.9120 0.9110 0.9110 0.9110
3275.590499 0.9110 0.9110 0.9105 0.9100 0.9100
3280.185562 0.9100 0.9100 0.9100 0.9100 0.9100
3284.780625 0.9100 0.9100 0.9095 0.9090 0.9090
3289.375688 0.9090 0.9090 0.9090 0.9090 0.9090
3293.970751 0.9090 0.9090 0.9090 0.9090 0.9090
3298.565814 0.9090 0.9090 0.9090 0.9090 0.9090
3303.160877 0.9085 0.9080 0.9080 0.9080 0.9080
3307.755940 0.9080 0.9070 0.9060 0.9060 0.9060
3312.351003 0.9060 0.9060 0.9060 0.9060 0.9055
3316.946066 0.9050 0.9050 0.9050 0.9050 0.9050
3321.541129 0.9045 0.9040 0.9035 0.9030 0.9030
3326.136192 0.9030 0.9030 0.9030 0.9020 0.9010
3330.731255 0.9005 0.9000 0.9000 0.9000 0.8995
3335.326318 0.8990 0.8975 0.8960 0.8960 0.8960
3339.921382 0.8950 0.8940 0.8940 0.8940 0.8940
3344.516445 0.8940 0.8935 0.8930 0.8920 0.8910
3349.111508 0.8905 0.8900 0.8895 0.8890 0.8890
3353.706571 0.8890 0.8885 0.8880 0.8880 0.8880
3358.301634 0.8865 0.8850 0.8845 0.8840 0.8835
3362.896697 0.8830 0.8830 0.8830 0.8820 0.8810
3367.491760 0.8805 0.8800 0.8795 0.8790 0.8785
3372.086823 0.8780 0.8775 0.8770 0.8760 0.8750
3376.681886 0.8750 0.8750 0.8745 0.8740 0.8735
3381.276949 0.8730 0.8725 0.8719 0.8709 0.8700
3385.872012 0.8700 0.8700 0.8695 0.8690 0.8680
3390.467075 0.8670 0.8670 0.8670 0.8660 0.8650
3395.062138 0.8650 0.8649 0.8639 0.8629 0.8614
3399.657201 0.8599 0.8589 0.8579 0.8564 0.8549
3404.252265 0.8539 0.8530 0.8525 0.8519 0.8509
3408.847328 0.8500 0.8495 0.8489 0.8479 0.8469
3413.442391 0.8459 0.8449 0.8434 0.8419 0.8404
3418.037454 0.8389 0.8374 0.8358 0.8338 0.8319
3422.632517 0.8304 0.8290 0.8285 0.8280 0.8275
3427.227580 0.8269 0.8254 0.8239 0.8229 0.8220
3431.822643 0.8215 0.8209 0.8194 0.8179 0.8169
3436.417706 0.8159 0.8144 0.8130 0.8125 0.8119
3441.012769 0.8104 0.8090 0.8085 0.8079 0.8069
3445.607832 0.8059 0.8049 0.8039 0.8029 0.8020
3450.202895 0.8014 0.8009 0.8004 0.7998 0.7983
3454.797958 0.7969 0.7959 0.7950 0.7950 0.7949
3459.393021 0.7939 0.7930 0.7930 0.7929 0.7924
3463.988084 0.7919 0.7914 0.7910 0.7910 0.7909
3468.583147 0.7904 0.7900 0.7900 0.7900 0.7900
3473.178211 0.7900 0.7900 0.7900 0.7900 0.7900
3477.773274 0.7900 0.7900 0.7900 0.7900 0.7900
3482.368337 0.7900 0.7900 0.7901 0.7906 0.7910
3486.963400 0.7910 0.7910 0.7910 0.7911 0.7916
3491.558463 0.7920 0.7920 0.7920 0.7920 0.7921
3496.153526 0.7926 0.7931 0.7941 0.7951 0.7956
3500.748589 0.7960 0.7960 0.7963 0.7983 0.8001
3505.343652 0.8006 0.8010 0.8010 0.8011 0.8016
3509.938715 0.8022 0.8032 0.8042 0.8052 0.8061
3514.533778 0.8066 0.8072 0.8081 0.8091 0.8101
3519.128841 0.8111 0.8121 0.8131 0.8136 0.8141
3523.723904 0.8152 0.8162 0.8172 0.8182 0.8197
3528.318967 0.8212 0.8227 0.8244 0.8269 0.8292
3532.914030 0.8302 0.8312 0.8322 0.8331 0.8336
3537.509093 0.8343 0.8363 0.8383 0.8403 0.8422
3542.104157 0.8432 0.8441 0.8446 0.8450 0.8450
3546.699220 0.8452 0.8462 0.8471 0.8476 0.8481
3551.294283 0.8486 0.8490 0.8490 0.8490 0.8490
3555.889346 0.8490 0.8490 0.8490 0.8490 0.8489
3560.484409 0.8484 0.8480 0.8480 0.8479 0.8474
3565.079472 0.8468 0.8458 0.8449 0.8444 0.8439
3569.674535 0.8434 0.8429 0.8424 0.8418 0.8408
3574.269598 0.8399 0.8394 0.8389 0.8384 0.8379
3578.864661 0.8374 0.8367 0.8352 0.8339 0.8334
3583.459724 0.8329 0.8324 0.8319 0.8314 0.8310
3588.054787 0.8310 0.8311 0.8316 0.8321 0.8326
3592.649850 0.8334 0.8354 0.8372 0.8382 0.8395
3597.244913 0.8420 0.8446 0.8471 0.8494 0.8514
3601.839976 0.8536 0.8561 0.8586 0.8611 0.8636
3606.435039 0.8660 0.8685 0.8710 0.8732 0.8742
3611.030103 0.8755 0.8780 0.8804 0.8824 0.8845
3615.625166 0.8871 0.8891 0.8896 0.8901 0.8906
3620.220229 0.8912 0.8922 0.8931 0.8936 0.8941
3624.815292 0.8946 0.8951 0.8956 0.8960 0.8960
3629.410355 0.8962 0.8972 0.8981 0.8986 0.8990
3634.005418 0.8990 0.8991 0.8996 0.9000 0.9000
3638.600481 0.9001 0.9006 0.9012 0.9022 0.9031
3643.195544 0.9036 0.9040 0.9040 0.9040 0.9040
3647.790607 0.9040 0.9040 0.9040 0.9040 0.9040
3652.385670 0.9040 0.9040 0.9040 0.9040 0.9040
3656.980733 0.9040 0.9040 0.9040 0.9040 0.9041
3661.575796 0.9046 0.9049 0.9044 0.9040 0.9040
3666.170859 0.9040 0.9040 0.9040 0.9040 0.9040
3670.765922 0.9040 0.9040 0.9040 0.9040 0.9040
3675.360986 0.9041 0.9046 0.9050 0.9050 0.9050
3679.956049 0.9050 0.9051 0.9056 0.9060 0.9060
3684.551112 0.9060 0.9060 0.9060 0.9060 0.9059
3689.146175 0.9054 0.9051 0.9056 0.9060 0.9060
3693.741238 0.9060 0.9060 0.9060 0.9060 0.9060
3698.336301 0.9060 0.9064 0.9079 0.9086 0.9071
3702.931364 0.9060 0.9060 0.9060 0.9060 0.9060
3707.526427 0.9060 0.9060 0.9060 0.9060 0.9060
3712.121490 0.9060 0.9060 0.9060 0.9060 0.9060
3716.716553 0.9060 0.9060 0.9060 0.9063 0.9073
3721.311616 0.9080 0.9080 0.9080 0.9080 0.9080
3725.906679 0.9080 0.9080 0.9080 0.9080 0.9080
3730.501742 0.9080 0.9080 0.9080 0.9080 0.9080
3735.096805 0.9080 0.9080 0.9080 0.9080 0.9080
3739.691868 0.9080 0.9080 0.9080 0.9080 0.9077
3744.286932 0.9067 0.9060 0.9060 0.9060 0.9060
3748.881995 0.9060 0.9060 0.9058 0.9053 0.9050
3753.477058 0.9050 0.9050 0.9050 0.9050 0.9050
3758.072121 0.9052 0.9057 0.9060 0.9060 0.9058
3762.667184 0.9053 0.9050 0.9050 0.9050 0.9050
3767.262247 0.9050 0.9050 0.9050 0.9050 0.9050
3771.857310 0.9050 0.9050 0.9050 0.9050 0.9050
3776.452373 0.9050 0.9050 0.9052 0.9057 0.9060
3781.047436 0.9060 0.9060 0.9060 0.9060 0.9060
3785.642499 0.9060 0.9060 0.9060 0.9060 0.9060
3790.237562 0.9060 0.9060 0.9060 0.9060 0.9060
3794.832625 0.9060 0.9060 0.9060 0.9060
##END=
