##TITLE=(1H)-1,2,4-TRIAZOLE-3-AMINO, 5-IMINO-1-(PYRIDIN-2-YL)-
##JCAMP-DX=4.24
##DATA TYPE=INFRARED SPECTRUM
##CLASS=COBLENTZ III
##ORIGIN=SOUTHERN RESEARCH INSTITUTE
##OWNER=COBLENTZ SOCIETY
Collection (C) 2018 copyright by the U.S. Secretary of Commerce
on behalf of the United States of America. All rights reserved.
##DATE=1968/08/26
##NAMES=5-imino-1-(2-pyridinyl)-4,5-dihydro-1H-1,2,4-triazol-3-ylamine
5-imino-1-(2-pyridinyl)-4,5-dihydro-1H-1,2,4-triazol-3-amine
##MOLFORM=C7 H8 N6
##SOURCE REFERENCE=COBLENTZ NO. 10401
##$NIST ID=B6010401
##$NIST SOURCE=COBLENTZ
##$NIST IMAGE=cob10401
##SPECTROMETER/DATA SYSTEM=PERKIN-ELMER 521 (GRATING)
##STATE=SOLID (1 mg / 650 mg KBr DISC)
##PATH LENGTH=
$$ PURITY - ANALYTICAL
##SAMPLING PROCEDURE=TRANSMISSION
##RESOLUTION=4
##DATA PROCESSING=DIGITIZED BY NIST FROM HARD COPY (FROM TWO SEGMENTS)
##XUNITS=1/CM
##YUNITS=TRANSMITTANCE
##XFACTOR=1.000000
##YFACTOR=1
##DELTAX=1.325088
##FIRSTX=246.684
##LASTX=3999.33
##FIRSTY=0.121
##MAXX=3999.33
##MINX=246.684
##MAXY=0.857
##MINY=0.077
##NPOINTS=2833
##XYDATA=(X++(Y..Y))
246.684000 0.1210 0.1220 0.1280 0.1300 0.1340
253.309440 0.1380 0.1420 0.1469 0.1539 0.1609
259.934880 0.1630 0.1670 0.1769 0.1869 0.1998
266.560320 0.2029 0.2108 0.2188 0.2268 0.2358
273.185760 0.2409 0.2518 0.2618 0.2659 0.2767
279.811200 0.2838 0.2889 0.2909 0.2987 0.3029
286.436640 0.3127 0.3149 0.3189 0.3335 0.3388
293.062080 0.3438 0.3507 0.3548 0.3646 0.3727
299.687520 0.3788 0.3954 0.3998 0.4000 0.4000
306.312960 0.4010 0.4010 0.4010 0.4010 0.4010
312.938400 0.4010 0.4010 0.4010 0.4010 0.4019
319.563840 0.4020 0.4020 0.4048 0.4078 0.4174
326.189280 0.4341 0.4520 0.4605 0.4667 0.4698
332.814720 0.4719 0.4720 0.4711 0.4710 0.4701
339.440160 0.4700 0.4681 0.4661 0.4641 0.4631
346.065600 0.4630 0.4621 0.4592 0.4572 0.4441
352.691040 0.4411 0.4382 0.4352 0.4332 0.4293
359.316480 0.4244 0.4222 0.4220 0.4238 0.4249
365.941920 0.4278 0.4298 0.4337 0.4422 0.4494
372.567360 0.4564 0.4570 0.4543 0.4513 0.4429
379.192800 0.4292 0.4143 0.3985 0.3961 0.4069
385.818240 0.4152 0.4331 0.4440 0.4459 0.4469
392.443680 0.4488 0.4562 0.4723 0.4857 0.5058
399.069120 0.5259 0.5387 0.5596 0.5647 0.5659
405.694560 0.5642 0.5613 0.5379 0.5217 0.5200
412.320000 0.5227 0.5318 0.5471 0.5569 0.5615
418.945440 0.5655 0.5686 0.5708 0.5763 0.5805
425.570880 0.5819 0.5829 0.5847 0.5867 0.5922
432.196320 0.6000 0.6071 0.6115 0.6172 0.6258
438.821760 0.6279 0.6280 0.6271 0.6261 0.6243
445.447200 0.6231 0.6204 0.6191 0.6164 0.6126
452.072640 0.6086 0.6063 0.6034 0.6021 0.5986
458.698080 0.5937 0.5904 0.5866 0.5834 0.5779
465.323520 0.5744 0.5715 0.5702 0.5658 0.5608
471.948960 0.5583 0.5529 0.5486 0.5412 0.5366
478.574400 0.5335 0.5313 0.5285 0.5238 0.5197
485.199840 0.5131 0.5086 0.5038 0.4997 0.4915
491.825280 0.4842 0.4772 0.4727 0.4679 0.4604
498.450720 0.4524 0.4468 0.4427 0.4395 0.4382
505.076160 0.4372 0.4378 0.4388 0.4472 0.4596
511.701600 0.4784 0.5034 0.5277 0.5525 0.5733
518.327040 0.5868 0.5923 0.5906 0.5876 0.5789
524.952480 0.5648 0.5571 0.5463 0.5375 0.5303
531.577920 0.5250 0.5184 0.5162 0.5160 0.5152
538.203360 0.5150 0.5158 0.5160 0.5184 0.5238
544.828800 0.5274 0.5304 0.5342 0.5398 0.5465
551.454240 0.5520 0.5625 0.5682 0.5730 0.5772
558.079680 0.5804 0.5849 0.5884 0.5921 0.5961
564.705120 0.5986 0.6006 0.6010 0.6018 0.6020
571.330560 0.6020 0.6020 0.6020 0.6020 0.6020
577.956000 0.6020 0.6020 0.6020 0.6020 0.6020
584.581440 0.6020 0.6012 0.6010 0.5995 0.5982
591.206880 0.5972 0.5955 0.5942 0.5940 0.5932
597.832320 0.5915 0.5910 0.5902 0.5900 0.5877
604.457760 0.5862 0.5852 0.5835 0.5815 0.5787
611.083200 0.5772 0.5770 0.5755 0.5743 0.5733
617.708640 0.5647 0.5605 0.5578 0.5540 0.5500
624.334080 0.5438 0.5413 0.5403 0.5385 0.5328
630.959520 0.5221 0.5168 0.5182 0.5264 0.5305
637.584960 0.5295 0.5275 0.5255 0.5235 0.5201
644.210400 0.5161 0.5121 0.5081 0.5041 0.5015
650.835840 0.5025 0.5059 0.5084 0.5141 0.5225
657.461280 0.5322 0.5386 0.5443 0.5510 0.5580
664.086720 0.5607 0.5610 0.5610 0.5610 0.5603
670.712160 0.5600 0.5586 0.5551 0.5526 0.5506
677.337600 0.5493 0.5469 0.5418 0.5386 0.5373
683.963040 0.5370 0.5370 0.5363 0.5325 0.5261
690.588480 0.5233 0.5202 0.5176 0.5163 0.5014
697.213920 0.4929 0.4753 0.4506 0.4256 0.4097
703.839360 0.3970 0.3730 0.3619 0.4090 0.4892
710.464800 0.5924 0.6277 0.6301 0.6310 0.6276
717.090240 0.6240 0.6182 0.6106 0.6019 0.5983
723.715680 0.5960 0.5916 0.5880 0.5863 0.5860
730.341120 0.5860 0.5860 0.5853 0.5850 0.5850
736.966560 0.5837 0.5803 0.5777 0.5603 0.5407
743.592000 0.5284 0.5164 0.5001 0.4815 0.4632
750.217440 0.4464 0.4397 0.4403 0.4542 0.4676
756.842880 0.4762 0.4862 0.4959 0.5049 0.5184
763.468320 0.5233 0.5217 0.5184 0.5092 0.5018
770.093760 0.4935 0.4829 0.4739 0.4633 0.4552
776.719200 0.4491 0.4347 0.4183 0.4027 0.3573
783.344640 0.2794 0.2276 0.2160 0.2280 0.2521
789.970080 0.2969 0.3800 0.4420 0.4766 0.5031
796.595520 0.5309 0.5564 0.5994 0.6325 0.6518
803.220960 0.6696 0.6823 0.6898 0.6932 0.6984
809.846400 0.7060 0.7109 0.7139 0.7168 0.7186
816.471840 0.7190 0.7190 0.7190 0.7184 0.7174
823.097280 0.7127 0.7069 0.7032 0.6996 0.6950
829.722720 0.6827 0.6614 0.6368 0.6155 0.6044
836.348160 0.6020 0.6116 0.6330 0.6538 0.6735
842.973600 0.6982 0.7108 0.7186 0.7290 0.7354
849.599040 0.7400 0.7467 0.7506 0.7534 0.7550
856.224480 0.7556 0.7560 0.7572 0.7580 0.7586
862.849920 0.7584 0.7580 0.7580 0.7580 0.7580
869.475360 0.7568 0.7560 0.7554 0.7550 0.7544
876.100800 0.7540 0.7529 0.7468 0.7356 0.7300
882.726240 0.7329 0.7396 0.7470 0.7546 0.7603
889.351680 0.7626 0.7636 0.7640 0.7640 0.7651
895.977120 0.7660 0.7660 0.7660 0.7660 0.7649
902.602560 0.7634 0.7613 0.7594 0.7590 0.7584
909.228000 0.7563 0.7544 0.7540 0.7529 0.7520
915.853440 0.7520 0.7515 0.7510 0.7505 0.7500
922.478880 0.7495 0.7490 0.7479 0.7470 0.7465
929.104320 0.7455 0.7439 0.7430 0.7425 0.7415
935.729760 0.7394 0.7375 0.7359 0.7345 0.7335
942.355200 0.7330 0.7330 0.7319 0.7305 0.7279
948.980640 0.7239 0.7215 0.7199 0.7179 0.7154
955.606080 0.7135 0.7114 0.7100 0.7095 0.7090
962.231520 0.7085 0.7070 0.7055 0.7024 0.6979
968.856960 0.6929 0.6849 0.6790 0.6780 0.6775
975.482400 0.6760 0.6709 0.6650 0.6615 0.6585
982.107840 0.6509 0.6440 0.6425 0.6280 0.6035
988.733280 0.5413 0.4678 0.4460 0.4645 0.5199
995.358720 0.6137 0.6715 0.6725 0.6710 0.6680
1001.984160 0.6660 0.6640 0.6630 0.6620 0.6610
1008.609600 0.6605 0.6595 0.6575 0.6546 0.6520
1015.235040 0.6491 0.6455 0.6430 0.6352 0.6232
1021.860480 0.6170 0.6170 0.6223 0.6275 0.6280
1028.485920 0.6275 0.6251 0.6206 0.6171 0.6151
1035.111360 0.6126 0.6105 0.6091 0.6080 0.6075
1041.736800 0.6070 0.6065 0.6055 0.6041 0.6025
1048.362240 0.6006 0.5967 0.5903 0.5805 0.5699
1054.987680 0.5645 0.5631 0.5615 0.5569 0.5470
1061.613120 0.5374 0.5321 0.5279 0.5204 0.5156
1068.238560 0.5119 0.5062 0.5036 0.5030 0.5034
1074.864000 0.5071 0.5114 0.5124 0.5130 0.5121
1081.489440 0.5075 0.4977 0.4844 0.4694 0.4531
1088.114880 0.4347 0.4158 0.4011 0.3921 0.3861
1094.740320 0.3988 0.4317 0.4601 0.4840 0.5064
1101.365760 0.5205 0.5293 0.5314 0.5324 0.5330
1107.991200 0.5330 0.5330 0.5330 0.5330 0.5330
1114.616640 0.5330 0.5330 0.5330 0.5330 0.5330
1121.242080 0.5330 0.5330 0.5330 0.5330 0.5338
1127.867520 0.5350 0.5354 0.5360 0.5360 0.5364
1134.492960 0.5374 0.5392 0.5422 0.5444 0.5462
1141.118400 0.5496 0.5552 0.5616 0.5648 0.5668
1147.743840 0.5684 0.5690 0.5690 0.5686 0.5680
1154.369280 0.5684 0.5694 0.5700 0.5700 0.5700
1160.994720 0.5700 0.5696 0.5686 0.5668 0.5638
1167.620160 0.5601 0.5585 0.5640 0.5705 0.5779
1174.245600 0.5909 0.6005 0.6041 0.6090 0.6155
1180.871040 0.6187 0.6200 0.6200 0.6200 0.6200
1187.496480 0.6200 0.6207 0.6220 0.6220 0.6213
1194.121920 0.6200 0.6200 0.6200 0.6200 0.6200
1200.747360 0.6196 0.6190 0.6190 0.6190 0.6194
1207.372800 0.6200 0.6200 0.6196 0.6190 0.6190
1213.998240 0.6190 0.6190 0.6186 0.6180 0.6173
1220.623680 0.6153 0.6140 0.6133 0.6120 0.6117
1227.249120 0.6107 0.6093 0.6077 0.6067 0.6057
1233.874560 0.6043 0.6027 0.6020 0.6020 0.6017
1240.500000 0.6010 0.6003 0.5987 0.5970 0.5947
1247.125440 0.5937 0.5920 0.5897 0.5880 0.5860
1253.750880 0.5857 0.5843 0.5830 0.5830 0.5830
1260.376320 0.5836 0.5850 0.5850 0.5850 0.5850
1267.001760 0.5850 0.5850 0.5844 0.5824 0.5804
1273.627200 0.5787 0.5777 0.5764 0.5747 0.5731
1280.252640 0.5701 0.5668 0.5631 0.5607 0.5600
1286.878080 0.5576 0.5487 0.5398 0.5358 0.5327
1293.503520 0.5299 0.5244 0.5218 0.5172 0.5062
1300.128960 0.4868 0.4732 0.4584 0.4573 0.4632
1306.754400 0.4803 0.4974 0.5176 0.5284 0.5264
1313.379840 0.5247 0.5237 0.5224 0.5193 0.5144
1320.005280 0.5124 0.5102 0.5066 0.5024 0.5007
1326.630720 0.4994 0.4950 0.4856 0.4798 0.4724
1333.256160 0.4677 0.4667 0.4663 0.4678 0.4743
1339.881600 0.4897 0.5024 0.5095 0.5113 0.5120
1346.507040 0.5117 0.5099 0.5054 0.5005 0.4982
1353.132480 0.4950 0.4915 0.4892 0.4840 0.4730
1359.757920 0.4667 0.4655 0.4640 0.4640 0.4640
1366.383360 0.4638 0.4628 0.4613 0.4580 0.4535
1373.008800 0.4480 0.4445 0.4405 0.4310 0.4223
1379.634240 0.4121 0.4041 0.3975 0.3951 0.3861
1386.259680 0.3639 0.3504 0.3352 0.3197 0.3053
1392.885120 0.2909 0.2762 0.2495 0.2482 0.2499
1399.510560 0.2568 0.2755 0.3002 0.3267 0.3518
1406.136000 0.3740 0.3817 0.3840 0.3831 0.3791
1412.761440 0.3754 0.3730 0.3728 0.3713 0.3686
1419.386880 0.3644 0.3539 0.3487 0.3419 0.3305
1426.012320 0.3164 0.3091 0.2847 0.2564 0.2344
1432.637760 0.2115 0.1825 0.1451 0.1112 0.0970
1439.263200 0.0840 0.0794 0.0770 0.0774 0.0792
1445.888640 0.0808 0.0871 0.1014 0.1087 0.1168
1452.514080 0.1204 0.1224 0.1248 0.1290 0.1376
1459.139520 0.1628 0.1908 0.2024 0.1996 0.1960
1465.764960 0.1845 0.1632 0.1171 0.1009 0.0870
1472.390400 0.0879 0.0957 0.1144 0.1273 0.1641
1479.015840 0.2033 0.2366 0.2816 0.3339 0.3768
1485.641280 0.4291 0.4596 0.4917 0.5165 0.5268
1492.266720 0.5454 0.5710 0.5872 0.5950 0.6052
1498.892160 0.6066 0.6102 0.6112 0.6114 0.6077
1505.517600 0.6054 0.6018 0.5994 0.5894 0.5798
1512.143040 0.5722 0.5669 0.5592 0.5478 0.5398
1518.768480 0.5317 0.5223 0.5117 0.5034 0.4983
1525.393920 0.4867 0.4786 0.4735 0.4574 0.4528
1532.019360 0.4427 0.4276 0.4244 0.4198 0.4105
1538.644800 0.3994 0.3883 0.3833 0.3777 0.3685
1545.270240 0.3649 0.3635 0.3582 0.3444 0.3311
1551.895680 0.3100 0.3019 0.2913 0.2693 0.2474
1558.521120 0.2212 0.1688 0.1526 0.1494 0.1445
1565.146560 0.1390 0.1224 0.1084 0.0959 0.0948
1571.772000 0.0930 0.0930 0.0932 0.0951 0.0964
1578.397440 0.1009 0.1101 0.1308 0.1569 0.1756
1585.022880 0.1992 0.2102 0.2123 0.2147 0.2116
1591.648320 0.2022 0.1475 0.1213 0.0957 0.0964
1598.273760 0.1367 0.2188 0.2866 0.3302 0.3318
1604.899200 0.3300 0.3292 0.3191 0.2974 0.2793
1611.524640 0.2601 0.2473 0.2173 0.1975 0.1800
1618.150080 0.1571 0.1462 0.1361 0.1247 0.1209
1624.775520 0.1195 0.1129 0.1120 0.1118 0.1100
1631.400960 0.1101 0.1120 0.1121 0.1141 0.1164
1638.026400 0.1221 0.1244 0.1300 0.1437 0.1541
1644.651840 0.1551 0.1571 0.1592 0.1627 0.1734
1651.277280 0.1813 0.2043 0.2252 0.2444 0.2513
1657.902720 0.2740 0.2924 0.3181 0.3405 0.3708
1664.528160 0.4069 0.4261 0.4466 0.4575 0.4675
1671.153600 0.4790 0.5001 0.5034 0.5114 0.5212
1677.779040 0.5273 0.5355 0.5463 0.5523 0.5602
1684.404480 0.5653 0.5743 0.5823 0.5914 0.6024
1691.029920 0.6142 0.6223 0.6301 0.6321 0.6353
1697.655360 0.6442 0.6522 0.6592 0.6675 0.6862
1704.280800 0.6933 0.7081 0.7103 0.7211 0.7262
1710.906240 0.7330 0.7341 0.7392 0.7491 0.7541
1717.531680 0.7590 0.7631 0.7711 0.7751 0.7841
1724.157120 0.7930 0.7950 0.7961 0.8030 0.8090
1730.782560 0.8150 0.8160 0.8210 0.8260 0.8300
1737.408000 0.8320 0.8340 0.8360 0.8370 0.8370
1744.033440 0.8380 0.8380 0.8380 0.8380 0.8380
1750.658880 0.8380 0.8380 0.8380 0.8380 0.8380
1757.284320 0.8380 0.8400 0.8410 0.8420 0.8440
1763.909760 0.8460 0.8480 0.8490 0.8500 0.8520
1770.535200 0.8530 0.8540 0.8540 0.8540 0.8540
1777.160640 0.8540 0.8540 0.8540 0.8540 0.8540
1783.786080 0.8540 0.8540 0.8540 0.8540 0.8530
1790.411520 0.8530 0.8530 0.8530 0.8530 0.8540
1797.036960 0.8540 0.8559 0.8560 0.8570 0.8570
1803.662400 0.8570 0.8560 0.8560 0.8560 0.8560
1810.287840 0.8560 0.8560 0.8560 0.8560 0.8541
1816.913280 0.8540 0.8540 0.8531 0.8521 0.8520
1823.538720 0.8520 0.8501 0.8500 0.8491 0.8490
1830.164160 0.8490 0.8481 0.8480 0.8480 0.8461
1836.789600 0.8451 0.8412 0.8363 0.8360 0.8341
1843.415040 0.8340 0.8331 0.8321 0.8320 0.8301
1850.040480 0.8318 0.8320 0.8320 0.8329 0.8330
1856.665920 0.8330 0.8339 0.8340 0.8340 0.8340
1863.291360 0.8340 0.8340 0.8331 0.8330 0.8330
1869.916800 0.8321 0.8302 0.8300 0.8291 0.8290
1876.542240 0.8290 0.8290 0.8299 0.8300 0.8300
1883.167680 0.8300 0.8300 0.8318 0.8320 0.8320
1889.793120 0.8302 0.8300 0.8300 0.8300 0.8300
1896.418560 0.8300 0.8300 0.8291 0.8281 0.8262
1903.044000 0.8242 0.8240 0.8240 0.8222 0.8202
1909.669440 0.8191 0.8163 0.8151 0.8150 0.8132
1916.294880 0.8130 0.8121 0.8120 0.8111 0.8084
1922.920320 0.8080 0.8071 0.8052 0.8041 0.8031
1929.545760 0.8030 0.8004 0.7974 0.7970 0.7961
1936.171200 0.7951 0.7959 0.7969 0.7996 0.8026
1942.796640 0.8030 0.8039 0.8040 0.8040 0.8031
1949.422080 0.8004 0.8000 0.7974 0.7970 0.7970
1956.047520 0.7961 0.7960 0.7960 0.7951 0.7933
1962.672960 0.7930 0.7921 0.7895 0.7856 0.7842
1969.298400 0.7840 0.7848 0.7850 0.7867 0.7878
1975.923840 0.7880 0.7880 0.7872 0.7870 0.7870
1982.549280 0.7853 0.7842 0.7832 0.7822 0.7820
1989.174720 0.7803 0.7792 0.7782 0.7780 0.7780
1995.800160 0.7763 0.7760 0.7760 0.7760 0.7777
2002.425600 0.7813 0.7837 0.7873 0.7905 0.7918
2009.051040 0.7920 0.7920 0.7928 0.7930 0.7930
2015.676480 0.7930 0.7930 0.7930 0.7930 0.7930
2022.301920 0.7930 0.7930 0.7922 0.7920 0.7912
2028.927360 0.7910 0.7910 0.7910 0.7893 0.7890
2035.552800 0.7882 0.7872 0.7854 0.7833 0.7830
2042.178240 0.7822 0.7820 0.7820 0.7820 0.7820
2048.803680 0.7820 0.7803 0.7800 0.7817 0.7820
2055.429120 0.7828 0.7830 0.7830 0.7830 0.7822
2062.054560 0.7803 0.7800 0.7800 0.7792 0.7782
2068.680000 0.7763 0.7752 0.7742 0.7740 0.7740
2075.305440 0.7723 0.7720 0.7712 0.7702 0.7683
2081.930880 0.7680 0.7680 0.7680 0.7672 0.7670
2088.556320 0.7662 0.7660 0.7660 0.7660 0.7660
2095.181760 0.7660 0.7660 0.7660 0.7660 0.7643
2101.807200 0.7640 0.7640 0.7640 0.7640 0.7640
2108.432640 0.7640 0.7640 0.7640 0.7640 0.7640
2115.058080 0.7640 0.7632 0.7630 0.7622 0.7603
2121.683520 0.7600 0.7600 0.7600 0.7600 0.7600
2128.308960 0.7600 0.7592 0.7565 0.7560 0.7552
2134.934400 0.7542 0.7540 0.7540 0.7523 0.7520
2141.559840 0.7512 0.7510 0.7510 0.7502 0.7500
2148.185280 0.7492 0.7490 0.7490 0.7490 0.7490
2154.810720 0.7490 0.7490 0.7490 0.7490 0.7490
2161.436160 0.7490 0.7490 0.7490 0.7490 0.7440
2168.061600 0.7422 0.7420 0.7412 0.7410 0.7410
2174.687040 0.7410 0.7410 0.7410 0.7393 0.7390
2181.312480 0.7407 0.7410 0.7410 0.7410 0.7410
2187.937920 0.7410 0.7410 0.7410 0.7410 0.7410
2194.563360 0.7410 0.7393 0.7390 0.7390 0.7382
2201.188800 0.7372 0.7353 0.7350 0.7350 0.7350
2207.814240 0.7350 0.7342 0.7332 0.7330 0.7330
2214.439680 0.7330 0.7330 0.7330 0.7330 0.7330
2221.065120 0.7330 0.7330 0.7330 0.7313 0.7310
2227.690560 0.7310 0.7302 0.7292 0.7290 0.7290
2234.316000 0.7273 0.7270 0.7270 0.7262 0.7260
2240.941440 0.7260 0.7260 0.7260 0.7260 0.7260
2247.566880 0.7260 0.7260 0.7252 0.7233 0.7230
2254.192320 0.7230 0.7230 0.7230 0.7230 0.7230
2260.817760 0.7230 0.7222 0.7220 0.7220 0.7220
2267.443200 0.7220 0.7220 0.7220 0.7220 0.7220
2274.068640 0.7220 0.7220 0.7220 0.7220 0.7220
2280.694080 0.7220 0.7220 0.7220 0.7220 0.7220
2287.319520 0.7212 0.7210 0.7194 0.7207 0.7193
2293.944960 0.7190 0.7190 0.7182 0.7180 0.7180
2300.570400 0.7172 0.7170 0.7170 0.7170 0.7170
2307.195840 0.7170 0.7170 0.7170 0.7170 0.7170
2313.821280 0.7170 0.7170 0.7170 0.7153 0.7150
2320.446720 0.7150 0.7150 0.7150 0.7150 0.7150
2327.072160 0.7150 0.7150 0.7142 0.7132 0.7130
2333.697600 0.7130 0.7122 0.7120 0.7120 0.7120
2340.323040 0.7120 0.7120 0.7120 0.7120 0.7120
2346.948480 0.7120 0.7120 0.7120 0.7103 0.7100
2353.573920 0.7100 0.7092 0.7090 0.7090 0.7090
2360.199360 0.7090 0.7090 0.7090 0.7090 0.7090
2366.824800 0.7090 0.7090 0.7090 0.7090 0.7090
2373.450240 0.7090 0.7082 0.7080 0.7080 0.7080
2380.075680 0.7063 0.7060 0.7060 0.7060 0.7060
2386.701120 0.7060 0.7052 0.7050 0.7058 0.7060
2393.326560 0.7060 0.7052 0.7050 0.7050 0.7050
2399.952000 0.7042 0.7040 0.7040 0.7040 0.7023
2406.577440 0.7020 0.7020 0.7020 0.7012 0.7010
2413.202880 0.7010 0.7002 0.7000 0.7000 0.7000
2419.828320 0.6983 0.6980 0.6980 0.6980 0.6980
2426.453760 0.6980 0.6980 0.6980 0.6972 0.6970
2433.079200 0.6962 0.6960 0.6944 0.6932 0.6905
2439.704640 0.6900 0.6883 0.6880 0.6880 0.6863
2446.330080 0.6860 0.6860 0.6860 0.6852 0.6850
2452.955520 0.6842 0.6840 0.6823 0.6820 0.6820
2459.580960 0.6820 0.6820 0.6812 0.6810 0.6810
2466.206400 0.6802 0.6800 0.6800 0.6800 0.6800
2472.831840 0.6800 0.6800 0.6784 0.6780 0.6780
2479.457280 0.6772 0.6770 0.6770 0.6778 0.6780
2486.082720 0.6780 0.6780 0.6772 0.6770 0.6770
2492.708160 0.6770 0.6770 0.6770 0.6762 0.6760
2499.333600 0.6768 0.6778 0.6772 0.6770 0.6770
2505.959040 0.6770 0.6770 0.6770 0.6770 0.6762
2512.584480 0.6760 0.6760 0.6760 0.6760 0.6760
2519.209920 0.6760 0.6760 0.6760 0.6760 0.6760
2525.835360 0.6760 0.6760 0.6752 0.6733 0.6713
2532.460800 0.6693 0.6690 0.6682 0.6680 0.6672
2539.086240 0.6653 0.6642 0.6632 0.6630 0.6630
2545.711680 0.6630 0.6630 0.6630 0.6613 0.6610
2552.337120 0.6610 0.6602 0.6600 0.6600 0.6592
2558.962560 0.6590 0.6598 0.6600 0.6600 0.6600
2565.588000 0.6600 0.6600 0.6600 0.6600 0.6600
2572.213440 0.6600 0.6600 0.6600 0.6592 0.6590
2578.838880 0.6573 0.6562 0.6552 0.6533 0.6530
2585.464320 0.6522 0.6520 0.6512 0.6510 0.6510
2592.089760 0.6510 0.6510 0.6510 0.6518 0.6512
2598.715200 0.6493 0.6490 0.6490 0.6490 0.6490
2605.340640 0.6482 0.6472 0.6470 0.6470 0.6470
2611.966080 0.6470 0.6470 0.6470 0.6453 0.6450
2618.591520 0.6450 0.6442 0.6432 0.6430 0.6430
2625.216960 0.6430 0.6430 0.6422 0.6420 0.6420
2631.842400 0.6420 0.6420 0.6420 0.6420 0.6420
2638.467840 0.6420 0.6403 0.6383 0.6363 0.6352
2645.093280 0.6350 0.6350 0.6350 0.6350 0.6342
2651.718720 0.6340 0.6340 0.6340 0.6340 0.6340
2658.344160 0.6323 0.6312 0.6310 0.6310 0.6310
2664.969600 0.6310 0.6302 0.6283 0.6280 0.6272
2671.595040 0.6270 0.6270 0.6270 0.6270 0.6262
2678.220480 0.6260 0.6260 0.6260 0.6243 0.6240
2684.845920 0.6240 0.6240 0.6232 0.6230 0.6230
2691.471360 0.6222 0.6195 0.6190 0.6182 0.6163
2698.096800 0.6152 0.6150 0.6150 0.6150 0.6150
2704.722240 0.6142 0.6140 0.6140 0.6140 0.6123
2711.347680 0.6120 0.6120 0.6120 0.6120 0.6120
2717.973120 0.6120 0.6112 0.6110 0.6102 0.6100
2724.598560 0.6075 0.6070 0.6062 0.6060 0.6052
2731.224000 0.6050 0.6050 0.6050 0.6050 0.6050
2737.849440 0.6050 0.6050 0.6034 0.6030 0.6030
2744.474880 0.6030 0.6030 0.6030 0.6030 0.6030
2751.100320 0.6030 0.6030 0.6030 0.6030 0.6030
2757.725760 0.6030 0.6030 0.6022 0.6020 0.6020
2764.351200 0.6020 0.6020 0.6020 0.6020 0.6020
2770.976640 0.5995 0.5990 0.5982 0.5980 0.5972
2777.602080 0.5970 0.5953 0.5942 0.5940 0.5940
2784.227520 0.5940 0.5940 0.5932 0.5930 0.5930
2790.852960 0.5913 0.5910 0.5910 0.5910 0.5910
2797.478400 0.5910 0.5910 0.5910 0.5910 0.5910
2804.103840 0.5910 0.5910 0.5910 0.5910 0.5910
2810.729280 0.5910 0.5910 0.5910 0.5902 0.5900
2817.354720 0.5900 0.5892 0.5874 0.5862 0.5860
2823.980160 0.5852 0.5850 0.5833 0.5830 0.5822
2830.605600 0.5812 0.5794 0.5790 0.5782 0.5780
2837.231040 0.5780 0.5780 0.5772 0.5770 0.5770
2843.856480 0.5770 0.5770 0.5770 0.5770 0.5778
2850.481920 0.5780 0.5780 0.5780 0.5780 0.5780
2857.107360 0.5780 0.5772 0.5770 0.5753 0.5750
2863.732800 0.5742 0.5732 0.5730 0.5730 0.5713
2870.358240 0.5702 0.5700 0.5692 0.5682 0.5655
2876.983680 0.5650 0.5642 0.5640 0.5640 0.5640
2883.609120 0.5640 0.5640 0.5624 0.5620 0.5620
2890.234560 0.5612 0.5602 0.5583 0.5580 0.5580
2896.860000 0.5572 0.5562 0.5560 0.5543 0.5532
2903.485440 0.5530 0.5530 0.5530 0.5530 0.5505
2910.110880 0.5483 0.5464 0.5452 0.5450 0.5442
2916.736320 0.5440 0.5423 0.5420 0.5420 0.5420
2923.361760 0.5420 0.5420 0.5420 0.5412 0.5402
2929.987200 0.5383 0.5372 0.5362 0.5360 0.5352
2936.612640 0.5350 0.5333 0.5330 0.5322 0.5320
2943.238080 0.5312 0.5293 0.5290 0.5290 0.5290
2949.863520 0.5273 0.5253 0.5242 0.5240 0.5232
2956.488960 0.5213 0.5210 0.5202 0.5200 0.5192
2963.114400 0.5190 0.5190 0.5174 0.5170 0.5162
2969.739840 0.5152 0.5150 0.5150 0.5150 0.5133
2976.365280 0.5130 0.5130 0.5122 0.5112 0.5110
2982.990720 0.5093 0.5073 0.5045 0.5032 0.5013
2989.616160 0.5010 0.5002 0.5000 0.4992 0.4990
2996.241600 0.4965 0.4927 0.4903 0.4875 0.4862
3002.867040 0.4827 0.4795 0.4790 0.4765 0.4760
3009.492480 0.4752 0.4750 0.4750 0.4742 0.4740
3016.117920 0.4740 0.4740 0.4740 0.4740 0.4740
3022.743360 0.4723 0.4720 0.4720 0.4703 0.4700
3029.368800 0.4683 0.4680 0.4672 0.4645 0.4615
3035.994240 0.4593 0.4582 0.4580 0.4572 0.4570
3042.619680 0.4553 0.4550 0.4542 0.4532 0.4513
3049.245120 0.4460 0.4417 0.4360 0.4333 0.4330
3055.870560 0.4297 0.4257 0.4225 0.4179 0.4170
3062.496000 0.4145 0.4132 0.4105 0.4092 0.4082
3069.121440 0.4080 0.4064 0.4060 0.4060 0.4060
3075.746880 0.4060 0.4060 0.4043 0.4015 0.4002
3082.372320 0.4000 0.4000 0.3984 0.3980 0.3972
3088.997760 0.3970 0.3962 0.3935 0.3889 0.3872
3095.623200 0.3870 0.3870 0.3854 0.3833 0.3805
3102.248640 0.3792 0.3773 0.3770 0.3762 0.3752
3108.874080 0.3700 0.3682 0.3680 0.3672 0.3670
3115.499520 0.3670 0.3670 0.3670 0.3670 0.3653
3122.124960 0.3642 0.3640 0.3632 0.3597 0.3557
3128.750400 0.3542 0.3515 0.3452 0.3407 0.3392
3135.375840 0.3365 0.3352 0.3317 0.3269 0.3243
3142.001280 0.3232 0.3222 0.3220 0.3220 0.3220
3148.626720 0.3220 0.3212 0.3210 0.3210 0.3193
3155.252160 0.3182 0.3155 0.3150 0.3150 0.3150
3161.877600 0.3142 0.3140 0.3132 0.3130 0.3080
3168.503040 0.3053 0.3025 0.3012 0.3010 0.3010
3175.128480 0.2993 0.2990 0.2990 0.2990 0.2982
3181.753920 0.2980 0.2980 0.2980 0.2980 0.2972
3188.379360 0.2953 0.2950 0.2942 0.2899 0.2865
3195.004800 0.2852 0.2850 0.2842 0.2823 0.2812
3201.630240 0.2810 0.2802 0.2800 0.2808 0.2810
3208.255680 0.2810 0.2818 0.2820 0.2837 0.2848
3214.881120 0.2850 0.2858 0.2885 0.2923 0.2947
3221.506560 0.2983 0.3007 0.3018 0.3028 0.3113
3228.132000 0.3196 0.3268 0.3280 0.3297 0.3308
3234.757440 0.3310 0.3310 0.3310 0.3302 0.3267
3241.382880 0.3243 0.3232 0.3222 0.3212 0.3210
3248.008320 0.3185 0.3155 0.3133 0.3097 0.3073
3254.633760 0.3062 0.3052 0.3034 0.3022 0.3012
3261.259200 0.3010 0.3010 0.3010 0.2993 0.2990
3267.884640 0.2990 0.2990 0.2990 0.2990 0.2990
3274.510080 0.2990 0.2990 0.2990 0.2990 0.2990
3281.135520 0.3007 0.3010 0.3010 0.3018 0.3028
3287.760960 0.3047 0.3058 0.3060 0.3060 0.3068
3294.386400 0.3070 0.3086 0.3098 0.3125 0.3147
3301.011840 0.3183 0.3231 0.3290 0.3300 0.3333
3307.637280 0.3373 0.3421 0.3463 0.3503 0.3576
3314.262720 0.3631 0.3698 0.3751 0.3801 0.3843
3320.888160 0.3867 0.3870 0.3870 0.3870 0.3870
3327.513600 0.3870 0.3870 0.3853 0.3842 0.3832
3334.139040 0.3805 0.3800 0.3792 0.3765 0.3685
3340.764480 0.3620 0.3569 0.3543 0.3523 0.3487
3347.389920 0.3340 0.3227 0.3144 0.3030 0.2944
3354.015360 0.2864 0.2759 0.2624 0.2509 0.2391
3360.640800 0.2271 0.2167 0.2117 0.2044 0.2022
3367.266240 0.2020 0.2028 0.2063 0.2095 0.2150
3373.891680 0.2185 0.2223 0.2296 0.2459 0.2581
3380.517120 0.2716 0.2839 0.2992 0.3144 0.3310
3387.142560 0.3381 0.3555 0.3755 0.3914 0.4040
3393.768000 0.4110 0.4161 0.4178 0.4197 0.4200
3400.393440 0.4175 0.4170 0.4162 0.4135 0.4089
3407.018880 0.4030 0.3970 0.3894 0.3806 0.3641
3413.644320 0.3519 0.3376 0.3235 0.2837 0.2569
3420.269760 0.2505 0.2533 0.2689 0.2894 0.3079
3426.895200 0.3374 0.3950 0.4283 0.4546 0.4714
3433.520640 0.4848 0.4978 0.5108 0.5221 0.5265
3440.146080 0.5344 0.5393 0.5408 0.5435 0.5457
3446.771520 0.5477 0.5497 0.5525 0.5555 0.5568
3453.396960 0.5578 0.5605 0.5610 0.5618 0.5620
3460.022400 0.5620 0.5653 0.5677 0.5697 0.5708
3466.647840 0.5735 0.5748 0.5766 0.5787 0.5807
3473.273280 0.5810 0.5827 0.5847 0.5867 0.5895
3479.898720 0.5925 0.5930 0.5946 0.5967 0.5970
3486.524160 0.5978 0.5980 0.5980 0.5988 0.5990
3493.149600 0.6007 0.6010 0.6010 0.6018 0.6020
3499.775040 0.6028 0.6047 0.6050 0.6058 0.6060
3506.400480 0.6068 0.6070 0.6070 0.6070 0.6070
3513.025920 0.6078 0.6080 0.6097 0.6100 0.6108
3519.651360 0.6110 0.6118 0.6120 0.6120 0.6120
3526.276800 0.6120 0.6120 0.6137 0.6140 0.6148
3532.902240 0.6150 0.6150 0.6150 0.6150 0.6158
3539.527680 0.6177 0.6180 0.6180 0.6180 0.6188
3546.153120 0.6190 0.6190 0.6190 0.6190 0.6198
3552.778560 0.6200 0.6200 0.6200 0.6217 0.6228
3559.404000 0.6230 0.6230 0.6230 0.6255 0.6277
3566.029440 0.6280 0.6280 0.6297 0.6300 0.6300
3572.654880 0.6300 0.6308 0.6310 0.6310 0.6310
3579.280320 0.6310 0.6310 0.6310 0.6318 0.6320
3585.905760 0.6320 0.6320 0.6320 0.6320 0.6337
3592.531200 0.6340 0.6373 0.6380 0.6388 0.6390
3599.156640 0.6390 0.6390 0.6390 0.6390 0.6390
3605.782080 0.6390 0.6398 0.6400 0.6400 0.6417
3612.407520 0.6420 0.6420 0.6420 0.6420 0.6420
3619.032960 0.6420 0.6428 0.6430 0.6430 0.6430
3625.658400 0.6430 0.6430 0.6430 0.6430 0.6430
3632.283840 0.6430 0.6422 0.6403 0.6400 0.6392
3638.909280 0.6390 0.6390 0.6390 0.6398 0.6400
3645.534720 0.6417 0.6420 0.6420 0.6403 0.6400
3652.160160 0.6400 0.6400 0.6392 0.6382 0.6363
3658.785600 0.6360 0.6352 0.6350 0.6350 0.6350
3665.411040 0.6350 0.6350 0.6350 0.6350 0.6350
3672.036480 0.6350 0.6350 0.6350 0.6350 0.6350
3678.661920 0.6350 0.6350 0.6350 0.6350 0.6350
3685.287360 0.6350 0.6350 0.6350 0.6350 0.6350
3691.912800 0.6350 0.6350 0.6342 0.6340 0.6340
3698.538240 0.6340 0.6340 0.6340 0.6340 0.6340
3705.163680 0.6323 0.6320 0.6320 0.6320 0.6320
3711.789120 0.6320 0.6320 0.6320 0.6320 0.6312
3718.414560 0.6310 0.6310 0.6302 0.6283 0.6280
3725.040000 0.6272 0.6270 0.6262 0.6260 0.6260
3731.665440 0.6260 0.6260 0.6260 0.6260 0.6260
3738.290880 0.6260 0.6268 0.6270 0.6270 0.6270
3744.916320 0.6270 0.6270 0.6270 0.6270 0.6270
3751.541760 0.6270 0.6270 0.6270 0.6270 0.6270
3758.167200 0.6262 0.6260 0.6260 0.6260 0.6260
3764.792640 0.6260 0.6243 0.6240 0.6240 0.6240
3771.418080 0.6232 0.6230 0.6230 0.6230 0.6230
3778.043520 0.6230 0.6230 0.6230 0.6230 0.6230
3784.668960 0.6230 0.6230 0.6222 0.6220 0.6220
3791.294400 0.6220 0.6220 0.6220 0.6203 0.6200
3797.919840 0.6200 0.6200 0.6192 0.6190 0.6190
3804.545280 0.6190 0.6190 0.6182 0.6180 0.6163
3811.170720 0.6160 0.6160 0.6160 0.6160 0.6160
3817.796160 0.6160 0.6152 0.6150 0.6150 0.6142
3824.421600 0.6140 0.6124 0.6112 0.6110 0.6110
3831.047040 0.6118 0.6120 0.6120 0.6120 0.6120
3837.672480 0.6120 0.6120 0.6112 0.6085 0.6072
3844.297920 0.6062 0.6052 0.6058 0.6060 0.6077
3850.923360 0.6097 0.6100 0.6100 0.6083 0.6072
3857.548800 0.6062 0.6060 0.6068 0.6070 0.6070
3864.174240 0.6070 0.6070 0.6062 0.6052 0.6050
3870.799680 0.6050 0.6050 0.6050 0.6050 0.6050
3877.425120 0.6050 0.6050 0.6050 0.6050 0.6050
3884.050560 0.6050 0.6050 0.6050 0.6050 0.6050
3890.676000 0.6050 0.6050 0.6050 0.6050 0.6050
3897.301440 0.6058 0.6035 0.6030 0.6047 0.6050
3903.926880 0.6050 0.6050 0.6050 0.6033 0.6030
3910.552320 0.6030 0.6030 0.6022 0.6020 0.6020
3917.177760 0.6020 0.6020 0.6020 0.6020 0.6020
3923.803200 0.6020 0.6020 0.6028 0.6030 0.6030
3930.428640 0.6030 0.6030 0.6030 0.6030 0.6030
3937.054080 0.6030 0.6030 0.6030 0.6030 0.6030
3943.679520 0.6030 0.6030 0.6030 0.6022 0.6020
3950.304960 0.6020 0.6020 0.6028 0.6030 0.6030
3956.930400 0.6030 0.6022 0.6020 0.6020 0.6020
3963.555840 0.6028 0.6030 0.6030 0.6030 0.6030
3970.181280 0.6030 0.6030 0.6030 0.6030 0.6022
3976.806720 0.6028 0.6030 0.6030 0.6030 0.6030
3983.432160 0.6030 0.6030 0.6030 0.6030 0.6030
3990.057600 0.6030 0.6030 0.6022 0.6020 0.6020
3996.683040 0.6020 0.6012 0.6010
##END=
