##TITLE=ACETIC ACID, HYDROXY-, POTASSIUM SALT
##JCAMP-DX=4.24
##DATA TYPE=INFRARED SPECTRUM
##CLASS=COBLENTZ III
##ORIGIN=DOW CHEMICAL COMPANY
##OWNER=COBLENTZ SOCIETY
Collection (C) 2018 copyright by the U.S. Secretary of Commerce
on behalf of the United States of America. All rights reserved.
##DATE=1964/04/21
##NAMES=POTASSIUM GLYCOLLATE
##MOLFORM=C2 H3 O3 K
##SOURCE REFERENCE=COBLENTZ NO. 10364
##$NIST ID=B6010364
##$NIST SOURCE=COBLENTZ
##$NIST IMAGE=cob10364
##SPECTROMETER/DATA SYSTEM=DOW KBr FOREPRISM-GRATING
##INSTRUMENT PARAMETERS=BLAZED AT 3.5, 12.0, 20.0 MICRON, CHANGED AT 5.0, 7.5, 14.9 MICRON
##STATE=SOLID (SPLIT MULL, FLUOROLUBE FOR 3800-1330 AND NUJOL FOR 1330-400 CM ^-^1)
##SAMPLING PROCEDURE=TRANSMISSION
##RESOLUTION=4
##DATA PROCESSING=DIGITIZED BY NIST FROM HARD COPY (FROM TWO SEGMENTS)
##XUNITS=1/CM
##YUNITS=TRANSMITTANCE
##XFACTOR=1.000000
##YFACTOR=1
##DELTAX=0.874126
##FIRSTX=382.867
##LASTX=3772.73
##FIRSTY=0.664
##MAXX=3772.73
##MINX=382.867
##MAXY=1.009
##MINY=0.07
##NPOINTS=3879
##XYDATA=(X++(Y..Y))
382.867000 0.6640 0.6640 0.6640 0.6640 0.6650
387.237630 0.6680 0.6690 0.6710 0.6720 0.6720
391.608259 0.6780 0.6780 0.6790 0.6800 0.6830
395.978889 0.6840 0.6840 0.6860 0.6860 0.6870
400.349519 0.6900 0.6910 0.6930 0.6930 0.6930
404.720149 0.6940 0.6940 0.6940 0.6940 0.6950
409.090778 0.6970 0.6970 0.6990 0.7010 0.7010
413.461408 0.7020 0.7050 0.7060 0.7060 0.7080
417.832038 0.7080 0.7080 0.7090 0.7100 0.7100
422.202668 0.7100 0.7100 0.7120 0.7130 0.7140
426.573297 0.7140 0.7140 0.7160 0.7160 0.7170
430.943927 0.7170 0.7160 0.7160 0.7170 0.7170
435.314557 0.7170 0.7170 0.7170 0.7180 0.7180
439.685186 0.7180 0.7200 0.7200 0.7200 0.7200
444.055816 0.7210 0.7210 0.7210 0.7210 0.7210
448.426446 0.7230 0.7240 0.7240 0.7240 0.7240
452.797076 0.7240 0.7240 0.7240 0.7250 0.7250
457.167705 0.7250 0.7250 0.7250 0.7250 0.7250
461.538335 0.7250 0.7250 0.7240 0.7240 0.7240
465.908965 0.7240 0.7240 0.7240 0.7230 0.7230
470.279595 0.7230 0.7230 0.7230 0.7230 0.7210
474.650224 0.7200 0.7200 0.7200 0.7200 0.7180
479.020854 0.7180 0.7170 0.7160 0.7160 0.7160
483.391484 0.7160 0.7140 0.7120 0.7100 0.7100
487.762114 0.7090 0.7090 0.7090 0.7080 0.7060
492.132743 0.7030 0.6990 0.6980 0.6970 0.6950
496.503373 0.6940 0.6930 0.6930 0.6900 0.6820
500.874003 0.6790 0.6780 0.6760 0.6690 0.6670
505.244632 0.6610 0.6600 0.6530 0.6480 0.6420
509.615262 0.6350 0.6300 0.6190 0.6160 0.6031
513.985892 0.5900 0.5750 0.5620 0.5470 0.5300
518.356522 0.5150 0.5030 0.3964 0.3900 0.3731
522.727151 0.3720 0.3730 0.3760 0.3760 0.3710
527.097781 0.3620 0.3570 0.3500 0.3390 0.3390
531.468411 0.3430 0.3580 0.3720 0.3940 0.4309
535.839041 0.4549 0.4779 0.4999 0.5229 0.5409
540.209670 0.5780 0.5850 0.5980 0.6070 0.6160
544.580300 0.6180 0.6240 0.6300 0.6310 0.6340
548.950930 0.6350 0.6390 0.6420 0.6430 0.6430
553.321559 0.6430 0.6430 0.6450 0.6450 0.6450
557.692189 0.6450 0.6450 0.6450 0.6450 0.6450
562.062819 0.6450 0.6430 0.6430 0.6410 0.6390
566.433449 0.6380 0.6370 0.6340 0.6340 0.6330
570.804078 0.6310 0.6300 0.6280 0.6240 0.6220
575.174708 0.6200 0.6190 0.6160 0.6130 0.6090
579.545338 0.6040 0.6000 0.5930 0.5890 0.5810
583.915968 0.5750 0.5640 0.5560 0.5510 0.5490
588.286597 0.5470 0.5440 0.5420 0.5420 0.5480
592.657227 0.5490 0.5490 0.5470 0.5450 0.5420
597.027857 0.5420 0.5410 0.5400 0.5380 0.5370
601.398486 0.5320 0.5290 0.5250 0.5210 0.5180
605.769116 0.5170 0.5140 0.5120 0.5070 0.5040
610.139746 0.5020 0.4990 0.4910 0.4890 0.4820
614.510376 0.4780 0.4770 0.4720 0.4690 0.4660
618.881005 0.4650 0.4610 0.4570 0.4540 0.4480
623.251635 0.4470 0.4460 0.4440 0.4370 0.4320
627.622265 0.4270 0.4200 0.4200 0.4090 0.4060
631.992895 0.4020 0.3990 0.3880 0.3880 0.3810
636.363524 0.3730 0.3710 0.3690 0.3680 0.3570
640.734154 0.3470 0.3350 0.3201 0.3150 0.3021
645.104784 0.2960 0.2850 0.2750 0.2670 0.2570
649.475414 0.2510 0.2420 0.2261 0.2111 0.2040
653.846043 0.2010 0.1900 0.1840 0.1730 0.1650
658.216673 0.1550 0.1470 0.1370 0.1290 0.1200
662.587303 0.1110 0.1100 0.1050 0.1020 0.0980
666.957932 0.0900 0.0850 0.0830 0.0810 0.0800
671.328562 0.0790 0.0790 0.0790 0.0790 0.0800
675.699192 0.0800 0.0810 0.0840 0.0850 0.0850
680.069822 0.0880 0.0910 0.0920 0.0950 0.0990
684.440451 0.1000 0.1020 0.1060 0.1090 0.1110
688.811081 0.1130 0.1140 0.1150 0.1170 0.1170
693.181711 0.1200 0.1220 0.1240 0.1240 0.1240
697.552341 0.1220 0.1220 0.1210 0.1210 0.1220
701.922970 0.1250 0.1260 0.1290 0.1360 0.1370
706.293600 0.1430 0.1500 0.1580 0.1620 0.1710
710.664230 0.1840 0.1960 0.2079 0.2140 0.2259
715.034859 0.2340 0.2450 0.2560 0.2630 0.2700
719.405489 0.2760 0.2870 0.2999 0.3110 0.3160
723.776119 0.3230 0.3300 0.3320 0.3390 0.3460
728.146749 0.3470 0.3510 0.3530 0.3560 0.3570
732.517378 0.3570 0.3570 0.3560 0.3540 0.3540
736.888008 0.3500 0.3490 0.3460 0.3410 0.3380
741.258638 0.3350 0.3340 0.3320 0.3280 0.3270
745.629268 0.3260 0.3240 0.3260 0.3260 0.3280
749.999897 0.3310 0.3360 0.3410 0.3460 0.3490
754.370527 0.3540 0.3610 0.3620 0.3720 0.3810
758.741157 0.3880 0.3910 0.3980 0.4020 0.4070
763.111786 0.4100 0.4130 0.4160 0.4170 0.4170
767.482416 0.4170 0.4160 0.4120 0.4090 0.4070
771.853046 0.4060 0.4010 0.3980 0.3900 0.3811
776.223676 0.3730 0.3650 0.3620 0.3580 0.3430
780.594305 0.3241 0.3130 0.2961 0.2910 0.2820
784.964935 0.2720 0.2630 0.2560 0.2490 0.2450
789.335565 0.2420 0.2410 0.2400 0.2400 0.2410
793.706195 0.2410 0.2440 0.2490 0.2530 0.2610
798.076824 0.2670 0.2740 0.2820 0.2940 0.3119
802.447454 0.3230 0.3300 0.3380 0.3460 0.3540
806.818084 0.3570 0.3640 0.3720 0.3800 0.3830
811.188714 0.3920 0.4030 0.4090 0.4170 0.4200
815.559343 0.4270 0.4310 0.4390 0.4460 0.4470
819.929973 0.4480 0.4570 0.4590 0.4610 0.4620
824.300603 0.4630 0.4660 0.4660 0.4670 0.4670
828.671232 0.4670 0.4690 0.4690 0.4700 0.4720
833.041862 0.4730 0.4740 0.4780 0.4850 0.4910
837.412492 0.5020 0.5120 0.5140 0.5170 0.5250
841.783122 0.5320 0.5370 0.5380 0.5480 0.5530
846.153751 0.5630 0.5660 0.5700 0.5780 0.5860
850.524381 0.5870 0.5890 0.5920 0.5940 0.5960
854.895011 0.6010 0.6040 0.6050 0.6090 0.6150
859.265641 0.6160 0.6190 0.6240 0.6260 0.6270
863.636270 0.6300 0.6310 0.6340 0.6350 0.6390
868.006900 0.6450 0.6460 0.6480 0.6480 0.6490
872.377530 0.6520 0.6530 0.6560 0.6600 0.6600
876.748159 0.6610 0.6630 0.6630 0.6650 0.6670
881.118789 0.6680 0.6690 0.6710 0.6720 0.6720
885.489419 0.6720 0.6720 0.6720 0.6720 0.6720
889.860049 0.6720 0.6720 0.6720 0.6710 0.6710
894.230678 0.6690 0.6690 0.6680 0.6680 0.6670
898.601308 0.6670 0.6610 0.6540 0.6460 0.6350
902.971938 0.6330 0.6200 0.6031 0.5811 0.5631
907.342568 0.5600 0.5630 0.5870 0.6040 0.6110
911.713197 0.6160 0.6150 0.6090 0.6040 0.5771
916.083827 0.5620 0.5470 0.5340 0.5260 0.6268
920.454457 0.6479 0.6709 0.6790 0.6830 0.6870
924.825086 0.6910 0.6930 0.6930 0.6940 0.6940
929.195716 0.6950 0.6950 0.6950 0.6970 0.6970
933.566346 0.6980 0.6980 0.6980 0.6990 0.7010
937.936976 0.7020 0.7030 0.7050 0.7060 0.7060
942.307605 0.7060 0.7080 0.7080 0.7080 0.7060
946.678235 0.7060 0.7060 0.7060 0.7050 0.7050
951.048865 0.7030 0.7020 0.7010 0.6990 0.6990
955.419495 0.6980 0.6950 0.6950 0.6940 0.6930
959.790124 0.6900 0.6870 0.6830 0.6820 0.6790
964.160754 0.6780 0.6760 0.6720 0.6720 0.6690
968.531384 0.6690 0.6680 0.6630 0.6580 0.6570
972.902014 0.6560 0.6540 0.6520 0.6490 0.6480
977.272643 0.6480 0.6460 0.6460 0.6450 0.6410
981.643273 0.6410 0.6410 0.6390 0.6390 0.6380
986.013903 0.6380 0.6380 0.6380 0.6370 0.6370
990.384532 0.6340 0.6330 0.6330 0.6310 0.6300
994.755162 0.6280 0.6260 0.6220 0.6190 0.6190
999.125792 0.6130 0.6070 0.6040 0.5980 0.5960
1003.496422 0.5940 0.5940 0.5940 0.5960 0.5970
1007.867051 0.6010 0.6030 0.6090 0.6120 0.6110
1012.237681 0.6090 0.5890 0.5590 0.5590 0.5700
1016.608311 0.5889 0.5930 0.6030 0.6070 0.6080
1020.978941 0.6080 0.6080 0.6080 0.6050 0.6040
1025.349570 0.6030 0.6010 0.5970 0.5960 0.5960
1029.720200 0.5920 0.5890 0.5820 0.5790 0.5750
1034.090830 0.5740 0.5630 0.5570 0.5530 0.5490
1038.461459 0.5480 0.5410 0.5330 0.5230 0.5210
1042.832089 0.5120 0.5030 0.5020 0.4841 0.4800
1047.202719 0.4720 0.4670 0.4590 0.4470 0.4360
1051.573349 0.4171 0.4021 0.3960 0.3811 0.3720
1055.943978 0.3620 0.3390 0.3240 0.3090 0.3020
1060.314608 0.2870 0.2750 0.2611 0.2461 0.2341
1064.685238 0.2140 0.2010 0.1820 0.1660 0.1480
1069.055868 0.1410 0.1280 0.1071 0.1020 0.0960
1073.426497 0.0840 0.0800 0.0790 0.0790 0.0790
1077.797127 0.0790 0.0790 0.0800 0.0999 0.1109
1082.167757 0.1260 0.1330 0.1510 0.1660 0.1959
1086.538386 0.2080 0.2120 0.2120 0.2100 0.1782
1090.909016 0.1690 0.1560 0.1430 0.1410 0.1430
1095.279646 0.1450 0.1510 0.1590 0.1630 0.1929
1099.650276 0.2080 0.2520 0.3259 0.3769 0.4269
1104.020905 0.4480 0.4699 0.5039 0.5628 0.5769
1108.391535 0.5900 0.6010 0.6070 0.6120 0.6160
1112.762165 0.6180 0.6190 0.6230 0.6260 0.6280
1117.132795 0.6300 0.6330 0.6350 0.6370 0.6370
1121.503424 0.6380 0.6380 0.6380 0.6380 0.6390
1125.874054 0.6410 0.6420 0.6420 0.6450 0.6460
1130.244684 0.6500 0.6570 0.6630 0.6640 0.6670
1134.615314 0.6710 0.6730 0.6750 0.6760 0.6790
1138.985943 0.6820 0.6830 0.6860 0.6870 0.6870
1143.356573 0.6870 0.6870 0.6860 0.6860 0.6840
1147.727203 0.6830 0.6830 0.6820 0.6800 0.6790
1152.097832 0.6790 0.6780 0.6780 0.6780 0.6760
1156.468462 0.6760 0.6730 0.6730 0.6720 0.6710
1160.839092 0.6670 0.6670 0.6650 0.6630 0.6630
1165.209722 0.6600 0.6580 0.6570 0.6540 0.6530
1169.580351 0.6520 0.6500 0.6460 0.6450 0.6450
1173.950981 0.6420 0.6390 0.6380 0.6350 0.6330
1178.321611 0.6310 0.6270 0.6230 0.6200 0.6190
1182.692241 0.6180 0.6160 0.6130 0.6090 0.6050
1187.062870 0.6040 0.6030 0.6010 0.5940 0.5890
1191.433500 0.5820 0.5790 0.5750 0.5710 0.5700
1195.804130 0.5640 0.5630 0.5600 0.5560 0.5530
1200.174759 0.5520 0.5490 0.5450 0.5400 0.5370
1204.545389 0.5360 0.5330 0.5320 0.5290 0.5270
1208.916019 0.5260 0.5260 0.5250 0.5210 0.5150
1213.286649 0.5140 0.5120 0.5070 0.5030 0.5020
1217.657278 0.4920 0.4890 0.4890 0.4880 0.4781
1222.027908 0.4700 0.4690 0.4620 0.4570 0.4520
1226.398538 0.4480 0.4460 0.4420 0.4360 0.4270
1230.769168 0.4170 0.4100 0.4030 0.3990 0.3980
1235.139797 0.3900 0.3830 0.3800 0.3720 0.3710
1239.510427 0.3680 0.3640 0.3390 0.3160 0.3090
1243.881057 0.2960 0.2890 0.2760 0.2680 0.2640
1248.251686 0.2630 0.2600 0.2550 0.2490 0.2380
1252.622316 0.2300 0.2270 0.2160 0.2080 0.2010
1256.992946 0.1920 0.1820 0.1780 0.1630 0.1510
1261.363576 0.1370 0.1290 0.1260 0.1150 0.1050
1265.734205 0.1000 0.0960 0.0910 0.0840 0.0800
1270.104835 0.0760 0.0750 0.0720 0.0700 0.0700
1274.475465 0.0700 0.0700 0.0700 0.0720 0.0720
1278.846095 0.0720 0.0730 0.0730 0.0750 0.0790
1283.216724 0.0810 0.0830 0.0990 0.1000 0.1050
1287.587354 0.1130 0.1240 0.1369 0.1450 0.1540
1291.957984 0.1620 0.1730 0.1810 0.1820 0.1800
1296.328614 0.1780 0.1750 0.1740 0.1700 0.1690
1300.699243 0.1670 0.1660 0.1670 0.1700 0.1750
1305.069873 0.2009 0.2189 0.2369 0.2490 0.2639
1309.440503 0.2760 0.2890 0.3150 0.3240 0.3280
1313.811132 0.3320 0.3380 0.3390 0.3430 0.3460
1318.181762 0.3470 0.3490 0.3490 0.3490 0.3490
1322.552392 0.3460 0.3430 0.3430 0.3410 0.3380
1326.923022 0.3380 0.3360 0.3360 0.3350 0.3350
1331.293651 0.3320 0.3280 0.3240 0.3240 0.3230
1335.664281 0.3200 0.3170 0.3160 0.3130 0.3130
1340.034911 0.3060 0.3010 0.3000 0.2930 0.2890
1344.405541 0.2850 0.2820 0.2790 0.2700 0.2660
1348.776170 0.2640 0.2590 0.2520 0.2480 0.2371
1353.146800 0.2340 0.2310 0.2270 0.2220 0.2140
1357.517430 0.2080 0.2030 0.2010 0.1930 0.1900
1361.888059 0.1820 0.1750 0.1670 0.1590 0.1540
1366.258689 0.1500 0.1450 0.1400 0.1360 0.1320
1370.629319 0.1280 0.1220 0.1180 0.1140 0.1090
1374.999949 0.1070 0.1060 0.1060 0.1050 0.1050
1379.370578 0.1030 0.1020 0.1000 0.0990 0.0990
1383.741208 0.0990 0.0980 0.0980 0.0980 0.0980
1388.111838 0.0980 0.0980 0.0990 0.1000 0.1020
1392.482468 0.1020 0.1030 0.1050 0.1090 0.1100
1396.853097 0.1150 0.1180 0.1240 0.1250 0.1290
1401.223727 0.1350 0.1410 0.1440 0.1470 0.1510
1405.594357 0.1580 0.1590 0.1620 0.1740 0.1780
1409.964986 0.1820 0.1850 0.1920 0.1930 0.1990
1414.335616 0.2000 0.2000 0.2000 0.2000 0.1990
1418.706246 0.1970 0.1960 0.1950 0.1930 0.1900
1423.076876 0.1880 0.1880 0.1860 0.1850 0.1840
1427.447505 0.1840 0.1840 0.1850 0.1860 0.1890
1431.818135 0.1890 0.1860 0.1850 0.1820 0.1810
1436.188765 0.1810 0.1800 0.1800 0.1800 0.1810
1440.559395 0.1820 0.1920 0.1990 0.2000 0.2080
1444.930024 0.2190 0.2330 0.2450 0.2560 0.2590
1449.300654 0.2590 0.2570 0.2520 0.2490 0.2490
1453.671284 0.2450 0.2400 0.2330 0.2290 0.2220
1458.041914 0.2120 0.2040 0.2000 0.1900 0.1820
1462.412543 0.1800 0.1780 0.1780 0.1800 0.1810
1466.783173 0.1820 0.1850 0.1920 0.2000 0.2040
1471.153803 0.2080 0.2140 0.2150 0.2160 0.2180
1475.524432 0.2190 0.2210 0.2220 0.2230 0.2230
1479.895062 0.2250 0.2250 0.2260 0.2270 0.2270
1484.265692 0.2290 0.2290 0.2290 0.2270 0.2270
1488.636322 0.2270 0.2260 0.2250 0.2230 0.2220
1493.006951 0.2220 0.2210 0.2190 0.2180 0.2160
1497.377581 0.2150 0.2120 0.2120 0.2100 0.2080
1501.748211 0.2070 0.2040 0.2010 0.2000 0.1970
1506.118841 0.1960 0.1930 0.1900 0.1900 0.1890
1510.489470 0.1860 0.1840 0.1820 0.1810 0.1810
1514.860100 0.1770 0.1740 0.1730 0.1710 0.1700
1519.230730 0.1690 0.1660 0.1620 0.1590 0.1580
1523.601359 0.1580 0.1550 0.1510 0.1500 0.1470
1527.971989 0.1450 0.1450 0.1410 0.1370 0.1360
1532.342619 0.1350 0.1330 0.1320 0.1320 0.1300
1536.713249 0.1290 0.1280 0.1280 0.1260 0.1260
1541.083878 0.1250 0.1220 0.1210 0.1200 0.1180
1545.454508 0.1140 0.1130 0.1100 0.1100 0.1090
1549.825138 0.1050 0.1020 0.0990 0.0990 0.0980
1554.195768 0.0980 0.0940 0.0910 0.0910 0.0900
1558.566397 0.0880 0.0840 0.0830 0.0800 0.0790
1562.937027 0.0770 0.0770 0.0770 0.0770 0.0760
1567.307657 0.0760 0.0750 0.0750 0.0750 0.0730
1571.678286 0.0730 0.0730 0.0730 0.0730 0.0730
1576.048916 0.0730 0.0730 0.0730 0.0750 0.0760
1580.419546 0.0770 0.0790 0.0800 0.0800 0.0800
1584.790176 0.0830 0.0830 0.0840 0.0840 0.0850
1589.160805 0.0850 0.0850 0.0870 0.0900 0.0900
1593.531435 0.0910 0.0920 0.0940 0.0940 0.0940
1597.902065 0.0950 0.0960 0.0990 0.1000 0.1050
1602.272695 0.1060 0.1070 0.1070 0.1090 0.1110
1606.643324 0.1130 0.1140 0.1170 0.1180 0.1180
1611.013954 0.1200 0.1210 0.1240 0.1240 0.1250
1615.384584 0.1250 0.1250 0.1250 0.1250 0.1250
1619.755214 0.1250 0.1260 0.1280 0.1280 0.1290
1624.125843 0.1300 0.1320 0.1360 0.1360 0.1390
1628.496473 0.1410 0.1430 0.1470 0.1520 0.1580
1632.867103 0.1580 0.1580 0.1630 0.1650 0.1710
1637.237732 0.1730 0.1750 0.1780 0.1880 0.1890
1641.608362 0.2000 0.2010 0.2070 0.2120 0.2180
1645.978992 0.2220 0.2260 0.2290 0.2310 0.2380
1650.349622 0.2480 0.2530 0.2560 0.2600 0.2630
1654.720251 0.2670 0.2740 0.2810 0.2860 0.2890
1659.090881 0.2940 0.3060 0.3160 0.3230 0.3300
1663.461511 0.3360 0.3380 0.3450 0.3460 0.3540
1667.832141 0.3610 0.3640 0.3690 0.3730 0.3800
1672.202770 0.3830 0.3860 0.3880 0.3920 0.3960
1676.573400 0.3980 0.3980 0.3960 0.3910 0.3860
1680.944030 0.3790 0.3730 0.3710 0.3620 0.3540
1685.314659 0.3460 0.3380 0.3320 0.3310 0.3310
1689.685289 0.3320 0.3340 0.3390 0.3450 0.3490
1694.055919 0.3540 0.3620 0.3720 0.3880 0.3980
1698.426549 0.4070 0.4180 0.4349 0.4479 0.4649
1702.797178 0.4770 0.4800 0.4910 0.5000 0.5110
1707.167808 0.5230 0.5509 0.5620 0.5740 0.5849
1711.538438 0.6010 0.6050 0.6160 0.6240 0.6300
1715.909068 0.6390 0.6530 0.6600 0.6680 0.6760
1720.279697 0.6860 0.6970 0.7080 0.7100 0.7170
1724.650327 0.7250 0.7350 0.7400 0.7460 0.7589
1729.020957 0.7690 0.7770 0.7830 0.7930 0.7960
1733.391586 0.8000 0.8040 0.8130 0.8150 0.8210
1737.762216 0.8320 0.8340 0.8390 0.8430 0.8490
1742.132846 0.8560 0.8590 0.8620 0.8660 0.8710
1746.503476 0.8730 0.8790 0.8850 0.8860 0.8900
1750.874105 0.8940 0.9000 0.9010 0.9040 0.9080
1755.244735 0.9110 0.9120 0.9140 0.9190 0.9240
1759.615365 0.9270 0.9310 0.9340 0.9350 0.9350
1763.985995 0.9390 0.9420 0.9450 0.9480 0.9500
1768.356624 0.9530 0.9540 0.9560 0.9570 0.9590
1772.727254 0.9600 0.9610 0.9640 0.9670 0.9690
1777.097884 0.9710 0.9720 0.9740 0.9760 0.9760
1781.468514 0.9790 0.9790 0.9800 0.9830 0.9840
1785.839143 0.9860 0.9860 0.9860 0.9870 0.9870
1790.209773 0.9890 0.9900 0.9910 0.9910 0.9910
1794.580403 0.9910 0.9930 0.9940 0.9940 0.9950
1798.951032 0.9950 0.9950 0.9970 0.9980 0.9980
1803.321662 0.9980 0.9980 0.9980 0.9980 0.9980
1807.692292 1.0000 1.0000 1.0000 0.9980 1.0000
1812.062922 1.0000 1.0000 1.0010 1.0010 1.0010
1816.433551 1.0010 1.0010 1.0010 1.0010 1.0020
1820.804181 1.0040 1.0050 1.0060 1.0060 1.0080
1825.174811 1.0080 1.0080 1.0090 1.0090 1.0080
1829.545441 1.0080 1.0080 1.0090 1.0090 1.0090
1833.916070 1.0090 1.0090 1.0090 1.0080 1.0090
1838.286700 1.0080 1.0080 1.0080 1.0080 1.0080
1842.657330 1.0080 1.0080 1.0080 1.0080 1.0080
1847.027959 1.0080 1.0080 1.0080 1.0080 1.0080
1851.398589 1.0080 1.0080 1.0080 1.0080 1.0080
1855.769219 1.0080 1.0080 1.0080 1.0060 1.0060
1860.139849 1.0060 1.0060 1.0060 1.0060 1.0060
1864.510478 1.0060 1.0060 1.0050 1.0050 1.0060
1868.881108 1.0050 1.0050 1.0050 1.0050 1.0050
1873.251738 1.0050 1.0050 1.0050 1.0050 1.0040
1877.622368 1.0040 1.0040 1.0020 1.0020 1.0020
1881.992997 1.0010 1.0010 1.0010 1.0010 1.0010
1886.363627 1.0010 1.0010 1.0000 1.0000 1.0000
1890.734257 1.0000 1.0000 1.0000 1.0000 1.0000
1895.104886 0.9980 0.9980 0.9980 0.9980 0.9970
1899.475516 0.9970 0.9970 0.9970 0.9950 0.9950
1903.846146 0.9940 0.9940 0.9930 0.9930 0.9930
1908.216776 0.9930 0.9900 0.9890 0.9890 0.9870
1912.587405 0.9860 0.9860 0.9860 0.9860 0.9840
1916.958035 0.9840 0.9840 0.9830 0.9830 0.9820
1921.328665 0.9800 0.9790 0.9790 0.9790 0.9790
1925.699295 0.9790 0.9790 0.9780 0.9760 0.9760
1930.069924 0.9760 0.9740 0.9740 0.9740 0.9740
1934.440554 0.9720 0.9720 0.9710 0.9690 0.9690
1938.811184 0.9680 0.9680 0.9680 0.9670 0.9650
1943.181814 0.9640 0.9640 0.9640 0.9630 0.9610
1947.552443 0.9610 0.9600 0.9600 0.9590 0.9570
1951.923073 0.9570 0.9570 0.9570 0.9570 0.9570
1956.293703 0.9560 0.9560 0.9540 0.9540 0.9530
1960.664332 0.9530 0.9520 0.9530 0.9520 0.9500
1965.034962 0.9490 0.9490 0.9490 0.9490 0.9480
1969.405592 0.9460 0.9460 0.9450 0.9450 0.9450
1973.776222 0.9440 0.9420 0.9410 0.9380 0.9370
1978.146851 0.9370 0.9350 0.9350 0.9340 0.9340
1982.517481 0.9340 0.9330 0.9310 0.9310 0.9310
1986.888111 0.9300 0.9300 0.9290 0.9290 0.9290
1991.258741 0.9290 0.9270 0.9270 0.9270 0.9270
1995.629370 0.9270 0.9270 0.9270 0.9270 0.9270
2000.000000 0.9270 0.9270 0.9270 0.9265 0.9260
2004.370630 0.9260 0.9260 0.9260 0.9260 0.9250
2008.741259 0.9240 0.9235 0.9230 0.9225 0.9220
2013.111889 0.9210 0.9200 0.9195 0.9190 0.9185
2017.482519 0.9180 0.9166 0.9151 0.9145 0.9140
2021.853149 0.9126 0.9111 0.9096 0.9081 0.9066
2026.223778 0.9051 0.9050 0.9050 0.9032 0.9012
2030.594408 0.9005 0.9000 0.9000 0.9000 0.8995
2034.965038 0.8990 0.8976 0.8961 0.8960 0.8960
2039.335668 0.8951 0.8941 0.8931 0.8921 0.8911
2043.706297 0.8901 0.8900 0.8900 0.8896 0.8891
2048.076927 0.8886 0.8881 0.8863 0.8843 0.8831
2052.447557 0.8821 0.8816 0.8811 0.8801 0.8791
2056.818186 0.8786 0.8781 0.8776 0.8771 0.8761
2061.188816 0.8752 0.8746 0.8741 0.8740 0.8740
2065.559446 0.8736 0.8731 0.8722 0.8712 0.8706
2069.930076 0.8701 0.8700 0.8700 0.8688 0.8673
2074.300705 0.8666 0.8661 0.8652 0.8642 0.8636
2078.671335 0.8631 0.8630 0.8630 0.8626 0.8621
2083.041965 0.8620 0.8620 0.8608 0.8593 0.8586
2087.412595 0.8581 0.8572 0.8562 0.8556 0.8551
2091.783224 0.8546 0.8541 0.8528 0.8513 0.8510
2096.153854 0.8510 0.8499 0.8484 0.8469 0.8454
2100.524484 0.8446 0.8441 0.8429 0.8414 0.8406
2104.895114 0.8401 0.8396 0.8391 0.8383 0.8373
2109.265743 0.8366 0.8361 0.8353 0.8343 0.8336
2113.636373 0.8331 0.8326 0.8321 0.8320 0.8320
2118.007003 0.8313 0.8303 0.8293 0.8283 0.8273
2122.377632 0.8263 0.8256 0.8251 0.8246 0.8241
2126.748262 0.8230 0.8215 0.8200 0.8185 0.8170
2131.118892 0.8155 0.8147 0.8142 0.8137 0.8132
2135.489522 0.8130 0.8130 0.8110 0.8080 0.8067
2139.860151 0.8062 0.8050 0.8035 0.8030 0.8030
2144.230781 0.8027 0.8022 0.8013 0.8004 0.7997
2148.601411 0.7992 0.7990 0.7990 0.7987 0.7982
2152.972041 0.7980 0.7980 0.7974 0.7964 0.7960
2157.342670 0.7960 0.7951 0.7936 0.7918 0.7898
2161.713300 0.7884 0.7874 0.7861 0.7846 0.7831
2166.083930 0.7816 0.7798 0.7778 0.7767 0.7762
2170.454559 0.7760 0.7760 0.7760 0.7760 0.7754
2174.825189 0.7744 0.7740 0.7740 0.7740 0.7740
2179.195819 0.7737 0.7732 0.7727 0.7722 0.7720
2183.566449 0.7720 0.7720 0.7720 0.7720 0.7720
2187.937078 0.7715 0.7705 0.7697 0.7692 0.7690
2192.307708 0.7690 0.7690 0.7690 0.7690 0.7690
2196.678338 0.7687 0.7682 0.7675 0.7665 0.7657
2201.048968 0.7652 0.7645 0.7635 0.7627 0.7622
2205.419597 0.7617 0.7612 0.7605 0.7595 0.7588
2209.790227 0.7582 0.7577 0.7572 0.7562 0.7548
2214.160857 0.7540 0.7540 0.7538 0.7533 0.7525
2218.531486 0.7515 0.7503 0.7488 0.7478 0.7473
2222.902116 0.7468 0.7463 0.7455 0.7445 0.7438
2227.272746 0.7433 0.7428 0.7423 0.7415 0.7405
2231.643376 0.7398 0.7393 0.7383 0.7368 0.7358
2236.014005 0.7353 0.7343 0.7328 0.7311 0.7291
2240.384635 0.7271 0.7252 0.7238 0.7233 0.7226
2244.755265 0.7216 0.7208 0.7203 0.7194 0.7179
2249.125895 0.7164 0.7149 0.7136 0.7126 0.7114
2253.496524 0.7099 0.7088 0.7083 0.7080 0.7080
2257.867154 0.7070 0.7045 0.7021 0.6996 0.6974
2262.237784 0.6959 0.6946 0.6936 0.6930 0.6930
2266.608414 0.6926 0.6916 0.6908 0.6903 0.6893
2270.979043 0.6873 0.6853 0.6833 0.6815 0.6800
2275.349673 0.6788 0.6783 0.6777 0.6767 0.6758
2279.720303 0.6753 0.6743 0.6723 0.6705 0.6690
2284.090932 0.6678 0.6673 0.6667 0.6657 0.6648
2288.461562 0.6643 0.6635 0.6620 0.6608 0.6603
2292.832192 0.6594 0.6574 0.6557 0.6547 0.6539
2297.202822 0.6533 0.6525 0.6510 0.6497 0.6487
2301.573451 0.6476 0.6461 0.6447 0.6437 0.6429
2305.944081 0.6424 0.6416 0.6401 0.6389 0.6384
2310.314711 0.6379 0.6374 0.6366 0.6351 0.6335
2314.685341 0.6315 0.6297 0.6287 0.6277 0.6267
2319.055970 0.6247 0.6198 0.6149 0.6104 0.6068
2323.426600 0.6058 0.6049 0.6044 0.6033 0.6003
2327.797230 0.5976 0.5956 0.5936 0.5916 0.5897
2332.167859 0.5882 0.5870 0.5870 0.5869 0.5864
2336.538489 0.5860 0.5860 0.5861 0.5866 0.5870
2340.909119 0.5870 0.5872 0.5882 0.5890 0.5890
2345.279749 0.5891 0.5896 0.5900 0.5900 0.5902
2349.650378 0.5912 0.5930 0.5985 0.6039 0.6089
2354.021008 0.6134 0.6159 0.6183 0.6203 0.6222
2358.391638 0.6232 0.6242 0.6251 0.6260 0.6260
2362.762268 0.6259 0.6249 0.6239 0.6234 0.6229
2367.132897 0.6224 0.6219 0.6209 0.6199 0.6189
2371.503527 0.6179 0.6169 0.6158 0.6143 0.6128
2375.874157 0.6108 0.6089 0.6084 0.6079 0.6074
2380.244786 0.6070 0.6075 0.6080 0.6080 0.6080
2384.615416 0.6085 0.6091 0.6101 0.6111 0.6121
2388.986046 0.6131 0.6141 0.6150 0.6155 0.6160
2393.356676 0.6160 0.6160 0.6160 0.6161 0.6171
2397.727305 0.6180 0.6185 0.6190 0.6195 0.6200
2402.097935 0.6200 0.6200 0.6200 0.6200 0.6200
2406.468565 0.6200 0.6200 0.6200 0.6195 0.6190
2410.839195 0.6190 0.6190 0.6185 0.6180 0.6180
2415.209824 0.6180 0.6180 0.6180 0.6170 0.6160
2419.580454 0.6160 0.6160 0.6155 0.6150 0.6140
2423.951084 0.6130 0.6125 0.6120 0.6120 0.6120
2428.321714 0.6105 0.6090 0.6080 0.6070 0.6060
2432.692343 0.6050 0.6050 0.6050 0.6045 0.6040
2437.062973 0.6035 0.6030 0.6020 0.6010 0.6010
2441.433603 0.6010 0.5986 0.5961 0.5950 0.5940
2445.804232 0.5940 0.5940 0.5931 0.5921 0.5906
2450.174862 0.5891 0.5881 0.5871 0.5861 0.5851
2454.545492 0.5841 0.5831 0.5821 0.5811 0.5796
2458.916122 0.5781 0.5766 0.5751 0.5745 0.5740
2463.286751 0.5726 0.5711 0.5696 0.5681 0.5671
2467.657381 0.5661 0.5642 0.5622 0.5593 0.5563
2472.028011 0.5542 0.5522 0.5516 0.5511 0.5510
2476.398641 0.5510 0.5501 0.5491 0.5481 0.5471
2480.769270 0.5457 0.5442 0.5427 0.5412 0.5397
2485.139900 0.5382 0.5380 0.5380 0.5380 0.5380
2489.510530 0.5376 0.5371 0.5366 0.5361 0.5360
2493.881159 0.5360 0.5360 0.5360 0.5360 0.5360
2498.251789 0.5352 0.5342 0.5336 0.5331 0.5330
2502.622419 0.5330 0.5326 0.5321 0.5312 0.5302
2506.993049 0.5296 0.5291 0.5278 0.5263 0.5248
2511.363678 0.5233 0.5214 0.5194 0.5186 0.5181
2515.734308 0.5176 0.5171 0.5162 0.5152 0.5146
2520.104938 0.5141 0.5128 0.5113 0.5091 0.5066
2524.475568 0.5049 0.5033 0.5026 0.5021 0.5020
2528.846197 0.5020 0.4993 0.4959 0.4935 0.4915
2533.216827 0.4899 0.4884 0.4869 0.4854 0.4846
2537.587457 0.4841 0.4814 0.4780 0.4745 0.4710
2541.958086 0.4686 0.4665 0.4645 0.4625 0.4616
2546.328716 0.4611 0.4603 0.4593 0.4597 0.4607
2550.699346 0.4624 0.4644 0.4664 0.4684 0.4690
2555.069976 0.4690 0.4693 0.4698 0.4707 0.4717
2559.440605 0.4720 0.4720 0.4713 0.4703 0.4697
2563.811235 0.4692 0.4690 0.4690 0.4683 0.4673
2568.181865 0.4670 0.4670 0.4667 0.4662 0.4660
2572.552495 0.4660 0.4660 0.4660 0.4660 0.4660
2576.923124 0.4660 0.4660 0.4660 0.4660 0.4660
2581.293754 0.4660 0.4657 0.4652 0.4631 0.4601
2585.664384 0.4587 0.4582 0.4580 0.4580 0.4568
2590.035014 0.4548 0.4540 0.4540 0.4531 0.4516
2594.405643 0.4510 0.4510 0.4507 0.4502 0.4494
2598.776273 0.4484 0.4480 0.4480 0.4477 0.4472
2603.146903 0.4470 0.4470 0.4470 0.4470 0.4470
2607.517532 0.4470 0.4467 0.4462 0.4460 0.4460
2611.888162 0.4449 0.4429 0.4411 0.4397 0.4382
2616.258792 0.4367 0.4360 0.4360 0.4346 0.4321
2620.629422 0.4294 0.4264 0.4231 0.4196 0.4177
2625.000051 0.4172 0.4167 0.4162 0.4152 0.4137
2629.370681 0.4102 0.4046 0.4009 0.3990 0.3962
2633.741311 0.3927 0.3902 0.3887 0.3880 0.3880
2638.111941 0.3867 0.3843 0.3820 0.3800 0.3780
2642.482570 0.3760 0.3750 0.3750 0.3745 0.3735
2646.853200 0.3728 0.3723 0.3720 0.3720 0.3720
2651.223830 0.3720 0.3722 0.3727 0.3730 0.3730
2655.594459 0.3730 0.3730 0.3730 0.3730 0.3730
2659.965089 0.3730 0.3728 0.3723 0.3720 0.3720
2664.335719 0.3718 0.3713 0.3710 0.3710 0.3706
2668.706349 0.3696 0.3683 0.3669 0.3660 0.3660
2673.076978 0.3658 0.3653 0.3648 0.3643 0.3640
2677.447608 0.3640 0.3636 0.3626 0.3616 0.3606
2681.818238 0.3594 0.3579 0.3570 0.3570 0.3568
2686.188868 0.3563 0.3560 0.3560 0.3560 0.3560
2690.559497 0.3556 0.3546 0.3540 0.3540 0.3540
2694.930127 0.3540 0.3538 0.3533 0.3525 0.3510
2699.300757 0.3495 0.3480 0.3468 0.3463 0.3460
2703.671386 0.3460 0.3458 0.3453 0.3445 0.3430
2708.042016 0.3415 0.3400 0.3378 0.3343 0.3307
2712.412646 0.3267 0.3238 0.3233 0.3227 0.3217
2716.783276 0.3202 0.3177 0.3155 0.3140 0.3127
2721.153905 0.3117 0.3105 0.3090 0.3075 0.3060
2725.524535 0.3050 0.3050 0.3050 0.3050 0.3050
2729.895165 0.3050 0.3051 0.3056 0.3063 0.3073
2734.265795 0.3080 0.3080 0.3080 0.3080 0.3080
2738.636424 0.3080 0.3077 0.3067 0.3059 0.3054
2743.007054 0.3049 0.3044 0.3037 0.3028 0.3020
2747.377684 0.3020 0.3020 0.3020 0.3020 0.3020
2751.748314 0.3019 0.3014 0.3010 0.3010 0.3010
2756.118943 0.3010 0.3009 0.3004 0.2996 0.2976
2760.489573 0.2958 0.2948 0.2940 0.2940 0.2940
2764.860203 0.2940 0.2939 0.2934 0.2928 0.2918
2769.230832 0.2905 0.2880 0.2857 0.2842 0.2829
2773.601462 0.2824 0.2819 0.2814 0.2808 0.2798
2777.972092 0.2786 0.2767 0.2747 0.2732 0.2717
2782.342722 0.2697 0.2679 0.2674 0.2669 0.2664
2786.713351 0.2660 0.2660 0.2655 0.2625 0.2597
2791.083981 0.2577 0.2560 0.2560 0.2559 0.2554
2795.454611 0.2548 0.2533 0.2516 0.2486 0.2458
2799.825241 0.2438 0.2418 0.2398 0.2379 0.2374
2804.195870 0.2368 0.2353 0.2336 0.2301 0.2269
2808.566500 0.2259 0.2248 0.2233 0.2218 0.2198
2812.937130 0.2177 0.2142 0.2110 0.2105 0.2100
2817.307759 0.2100 0.2100 0.2105 0.2112 0.2137
2821.678389 0.2161 0.2176 0.2191 0.2201 0.2211
2826.049019 0.2221 0.2231 0.2246 0.2262 0.2297
2830.419649 0.2333 0.2388 0.2441 0.2461 0.2480
2834.790278 0.2485 0.2491 0.2511 0.2530 0.2545
2839.160908 0.2560 0.2560 0.2560 0.2565 0.2570
2843.531538 0.2580 0.2590 0.2590 0.2590 0.2590
2847.902168 0.2590 0.2590 0.2590 0.2575 0.2560
2852.272797 0.2560 0.2560 0.2545 0.2530 0.2520
2856.643427 0.2510 0.2495 0.2480 0.2465 0.2450
2861.014057 0.2435 0.2420 0.2395 0.2371 0.2350
2865.384686 0.2331 0.2315 0.2300 0.2295 0.2290
2869.755316 0.2280 0.2270 0.2241 0.2212 0.2182
2874.125946 0.2152 0.2131 0.2111 0.2096 0.2081
2878.496576 0.2061 0.2041 0.2026 0.2011 0.1968
2882.867205 0.1923 0.1906 0.1891 0.1885 0.1880
2887.237835 0.1866 0.1851 0.1845 0.1840 0.1831
2891.608465 0.1821 0.1829 0.1839 0.1845 0.1850
2895.979095 0.1868 0.1888 0.1903 0.1918 0.1942
2900.349724 0.1967 0.2001 0.2036 0.2066 0.2096
2904.720354 0.2126 0.2156 0.2208 0.2263 0.2300
2909.090984 0.2335 0.2357 0.2377 0.2411 0.2445
2913.461614 0.2454 0.2459 0.2456 0.2451 0.2446
2917.832243 0.2441 0.2432 0.2422 0.2412 0.2402
2922.202873 0.2392 0.2382 0.2363 0.2343 0.2340
2926.573503 0.2340 0.2328 0.2313 0.2306 0.2301
2930.944132 0.2296 0.2291 0.2282 0.2272 0.2266
2935.314762 0.2261 0.2260 0.2260 0.2256 0.2251
2939.685392 0.2242 0.2232 0.2226 0.2221 0.2216
2944.056022 0.2211 0.2202 0.2192 0.2190 0.2190
2948.426651 0.2190 0.2190 0.2190 0.2190 0.2190
2952.797281 0.2190 0.2186 0.2181 0.2180 0.2180
2957.167911 0.2180 0.2180 0.2180 0.2180 0.2180
2961.538541 0.2180 0.2180 0.2180 0.2180 0.2180
2965.909170 0.2180 0.2180 0.2180 0.2180 0.2180
2970.279800 0.2180 0.2180 0.2180 0.2180 0.2180
2974.650430 0.2173 0.2163 0.2156 0.2151 0.2150
2979.021059 0.2150 0.2146 0.2141 0.2140 0.2140
2983.391689 0.2133 0.2123 0.2117 0.2112 0.2107
2987.762319 0.2102 0.2093 0.2083 0.2077 0.2072
2992.132949 0.2067 0.2062 0.2053 0.2043 0.2040
2996.503578 0.2040 0.2037 0.2032 0.2023 0.2013
3000.874208 0.2007 0.2002 0.1997 0.1992 0.1984
3005.244838 0.1974 0.1970 0.1970 0.1967 0.1962
3009.615468 0.1957 0.1952 0.1944 0.1934 0.1927
3013.986097 0.1922 0.1920 0.1920 0.1911 0.1896
3018.356727 0.1890 0.1890 0.1887 0.1882 0.1880
3022.727357 0.1880 0.1874 0.1864 0.1857 0.1852
3027.097986 0.1850 0.1850 0.1847 0.1842 0.1840
3031.468616 0.1840 0.1834 0.1824 0.1817 0.1812
3035.839246 0.1807 0.1802 0.1800 0.1800 0.1794
3040.209876 0.1784 0.1780 0.1780 0.1777 0.1772
3044.580505 0.1765 0.1755 0.1750 0.1750 0.1747
3048.951135 0.1742 0.1740 0.1740 0.1732 0.1717
3053.321765 0.1710 0.1710 0.1707 0.1702 0.1700
3057.692395 0.1700 0.1700 0.1700 0.1692 0.1677
3062.063024 0.1670 0.1670 0.1667 0.1663 0.1660
3066.433654 0.1660 0.1658 0.1652 0.1645 0.1635
3070.804284 0.1630 0.1630 0.1623 0.1608 0.1600
3075.174914 0.1600 0.1600 0.1600 0.1598 0.1593
3079.545543 0.1590 0.1590 0.1590 0.1590 0.1588
3083.916173 0.1583 0.1580 0.1580 0.1580 0.1580
3088.286803 0.1580 0.1580 0.1575 0.1566 0.1558
3092.657432 0.1553 0.1548 0.1543 0.1540 0.1540
3097.028062 0.1536 0.1526 0.1516 0.1506 0.1500
3101.398692 0.1500 0.1496 0.1486 0.1480 0.1480
3105.769322 0.1478 0.1473 0.1470 0.1470 0.1466
3110.139951 0.1456 0.1450 0.1450 0.1448 0.1443
3114.510581 0.1438 0.1433 0.1424 0.1409 0.1398
3118.881211 0.1393 0.1386 0.1376 0.1370 0.1370
3123.251841 0.1368 0.1363 0.1360 0.1360 0.1358
3127.622470 0.1353 0.1346 0.1336 0.1328 0.1323
3131.993100 0.1317 0.1307 0.1300 0.1300 0.1300
3136.363730 0.1300 0.1300 0.1300 0.1298 0.1293
3140.734359 0.1290 0.1290 0.1290 0.1290 0.1290
3145.104989 0.1290 0.1290 0.1290 0.1290 0.1290
3149.475619 0.1292 0.1297 0.1300 0.1300 0.1300
3153.846249 0.1300 0.1303 0.1313 0.1320 0.1320
3158.216878 0.1320 0.1320 0.1320 0.1320 0.1320
3162.587508 0.1320 0.1321 0.1326 0.1330 0.1330
3166.958138 0.1330 0.1330 0.1333 0.1343 0.1351
3171.328768 0.1356 0.1361 0.1366 0.1370 0.1370
3175.699397 0.1370 0.1370 0.1372 0.1382 0.1391
3180.070027 0.1396 0.1400 0.1400 0.1400 0.1400
3184.440657 0.1401 0.1406 0.1410 0.1410 0.1412
3188.811286 0.1422 0.1431 0.1436 0.1440 0.1440
3193.181916 0.1441 0.1446 0.1450 0.1450 0.1450
3197.552546 0.1450 0.1452 0.1462 0.1470 0.1470
3201.923176 0.1471 0.1476 0.1480 0.1480 0.1480
3206.293805 0.1480 0.1482 0.1492 0.1500 0.1500
3210.664435 0.1500 0.1500 0.1500 0.1500 0.1501
3215.035065 0.1506 0.1511 0.1516 0.1520 0.1520
3219.405695 0.1520 0.1520 0.1522 0.1537 0.1550
3223.776324 0.1550 0.1551 0.1556 0.1560 0.1560
3228.146954 0.1560 0.1560 0.1561 0.1571 0.1580
3232.517584 0.1580 0.1580 0.1580 0.1581 0.1586
3236.888214 0.1591 0.1596 0.1601 0.1616 0.1630
3241.258843 0.1630 0.1630 0.1630 0.1631 0.1641
3245.629473 0.1650 0.1650 0.1650 0.1655 0.1660
3250.000103 0.1660 0.1660 0.1660 0.1660 0.1660
3254.370732 0.1660 0.1665 0.1671 0.1686 0.1700
3258.741362 0.1705 0.1710 0.1710 0.1710 0.1710
3263.111992 0.1710 0.1710 0.1710 0.1720 0.1730
3267.482622 0.1730 0.1730 0.1730 0.1730 0.1730
3271.853251 0.1730 0.1730 0.1730 0.1730 0.1730
3276.223881 0.1730 0.1730 0.1735 0.1740 0.1745
3280.594511 0.1750 0.1750 0.1750 0.1750 0.1750
3284.965141 0.1765 0.1780 0.1780 0.1780 0.1790
3289.335770 0.1800 0.1800 0.1800 0.1805 0.1810
3293.706400 0.1810 0.1810 0.1810 0.1810 0.1815
3298.077030 0.1820 0.1839 0.1859 0.1870 0.1880
3302.447659 0.1880 0.1880 0.1885 0.1890 0.1890
3306.818289 0.1890 0.1904 0.1919 0.1925 0.1930
3311.188919 0.1939 0.1949 0.1955 0.1960 0.1965
3315.559549 0.1970 0.1984 0.1999 0.2005 0.2010
3319.930178 0.2010 0.2010 0.2024 0.2039 0.2040
3324.300808 0.2040 0.2049 0.2059 0.2064 0.2069
3328.671438 0.2070 0.2070 0.2083 0.2098 0.2104
3333.042068 0.2109 0.2110 0.2110 0.2114 0.2119
3337.412697 0.2129 0.2139 0.2140 0.2140 0.2149
3341.783327 0.2159 0.2181 0.2206 0.2210 0.2210
3346.153957 0.2214 0.2219 0.2220 0.2220 0.2224
3350.524586 0.2229 0.2230 0.2230 0.2238 0.2248
3354.895216 0.2250 0.2250 0.2254 0.2259 0.2264
3359.265846 0.2269 0.2282 0.2297 0.2312 0.2327
3363.636476 0.2334 0.2339 0.2340 0.2340 0.2348
3368.007105 0.2358 0.2364 0.2369 0.2382 0.2397
3372.377735 0.2404 0.2409 0.2414 0.2419 0.2420
3376.748365 0.2420 0.2428 0.2438 0.2444 0.2449
3381.118995 0.2454 0.2459 0.2471 0.2487 0.2490
3385.489624 0.2490 0.2501 0.2516 0.2524 0.2529
3389.860254 0.2538 0.2547 0.2565 0.2585 0.2590
3394.230884 0.2590 0.2594 0.2599 0.2604 0.2609
3398.601514 0.2628 0.2653 0.2678 0.2703 0.2725
3402.972143 0.2744 0.2754 0.2759 0.2767 0.2777
3407.342773 0.2784 0.2789 0.2797 0.2807 0.2824
3411.713403 0.2844 0.2857 0.2867 0.2877 0.2887
3416.084032 0.2904 0.2924 0.2933 0.2938 0.2961
3420.454662 0.2991 0.3007 0.3017 0.3030 0.3045
3424.825292 0.3063 0.3083 0.3097 0.3107 0.3113
3429.195922 0.3118 0.3156 0.3211 0.3240 0.3255
3433.566551 0.3273 0.3293 0.3303 0.3308 0.3326
3437.937181 0.3351 0.3366 0.3376 0.3396 0.3421
3442.307811 0.3436 0.3446 0.3450 0.3450 0.3453
3446.678441 0.3458 0.3469 0.3484 0.3502 0.3522
3451.049070 0.3539 0.3554 0.3575 0.3600 0.3610
3455.419700 0.3610 0.3613 0.3618 0.3629 0.3644
3459.790330 0.3662 0.3682 0.3699 0.3714 0.3734
3464.160959 0.3759 0.3776 0.3786 0.3796 0.3806
3468.531589 0.3827 0.3857 0.3873 0.3878 0.3903
3472.902219 0.3942 0.3966 0.3976 0.3988 0.4003
3477.272849 0.4024 0.4049 0.4068 0.4083 0.4111
3481.643478 0.4151 0.4191 0.4231 0.4250 0.4250
3486.014108 0.4258 0.4273 0.4298 0.4333 0.4355
3490.384738 0.4365 0.4396 0.4446 0.4488 0.4523
3494.755368 0.4543 0.4548 0.4555 0.4565 0.4585
3499.125997 0.4615 0.4645 0.4675 0.4707 0.4742
3503.496627 0.4770 0.4789 0.4805 0.4815 0.4832
3507.867257 0.4857 0.4880 0.4899 0.4931 0.4976
3512.237886 0.5007 0.5022 0.5048 0.5088 0.5110
3516.608516 0.5110 0.5117 0.5132 0.5158 0.5198
3520.979146 0.5237 0.5277 0.5315 0.5350 0.5372
3525.349776 0.5377 0.5413 0.5487 0.5545 0.5580
3529.720405 0.5608 0.5628 0.5661 0.5711 0.5742
3534.091035 0.5747 0.5762 0.5792 0.5822 0.5852
3538.461665 0.5880 0.5905 0.5930 0.5955 0.5982
3542.832295 0.6012 0.6040 0.6065 0.6094 0.6129
3547.202924 0.6156 0.6171 0.6189 0.6214 0.6243
3551.573554 0.6278 0.6309 0.6334 0.6363 0.6397
3555.944184 0.6427 0.6447 0.6467 0.6487 0.6513
3560.314814 0.6548 0.6581 0.6611 0.6639 0.6664
3564.685443 0.6692 0.6727 0.6757 0.6777 0.6808
3569.056073 0.6863 0.6902 0.6907 0.6910 0.6910
3573.426703 0.6910 0.6910 0.6913 0.6923 0.6951
3577.797332 0.7016 0.7087 0.7171 0.7242 0.7282
3582.167962 0.7322 0.7362 0.7394 0.7409 0.7426
3586.538592 0.7446 0.7476 0.7530 0.7577 0.7602
3590.909222 0.7630 0.7664 0.7699 0.7735 0.7763
3595.279851 0.7773 0.7787 0.7812 0.7835 0.7855
3599.650481 0.7886 0.7945 0.7999 0.8034 0.8065
3604.021111 0.8085 0.8100 0.8100 0.8104 0.8119
3608.391741 0.8135 0.8155 0.8179 0.8219 0.8258
3612.762370 0.8293 0.8321 0.8326 0.8330 0.8330
3617.133000 0.8334 0.8354 0.8374 0.8394 0.8416
3621.503630 0.8446 0.8475 0.8500 0.8522 0.8532
3625.874259 0.8545 0.8570 0.8599 0.8650 0.8691
3630.244889 0.8696 0.8703 0.8718 0.8730 0.8730
3634.615519 0.8734 0.8754 0.8772 0.8782 0.8795
3638.986149 0.8825 0.8853 0.8873 0.8892 0.8907
3643.356778 0.8920 0.8920 0.8921 0.8932 0.8945
3647.727408 0.8975 0.9002 0.9017 0.9034 0.9059
3652.098038 0.9083 0.9103 0.9120 0.9120 0.9121
3656.468668 0.9131 0.9142 0.9162 0.9181 0.9191
3660.839297 0.9202 0.9222 0.9241 0.9251 0.9262
3665.209927 0.9277 0.9291 0.9296 0.9301 0.9305
3669.580557 0.9311 0.9326 0.9341 0.9356 0.9370
3673.951186 0.9370 0.9370 0.9375 0.9380 0.9380
3678.321816 0.9380 0.9380 0.9380 0.9375 0.9370
3682.692446 0.9370 0.9370 0.9375 0.9380 0.9380
3687.063076 0.9380 0.9380 0.9380 0.9380 0.9380
3691.433705 0.9380 0.9380 0.9385 0.9390 0.9390
3695.804335 0.9390 0.9390 0.9390 0.9390 0.9390
3700.174965 0.9390 0.9390 0.9385 0.9380 0.9380
3704.545595 0.9380 0.9380 0.9380 0.9380 0.9380
3708.916224 0.9380 0.9380 0.9380 0.9380 0.9375
3713.286854 0.9370 0.9360 0.9350 0.9350 0.9350
3717.657484 0.9345 0.9340 0.9340 0.9340 0.9335
3722.028114 0.9330 0.9330 0.9330 0.9330 0.9330
3726.398743 0.9330 0.9330 0.9330 0.9330 0.9321
3730.769373 0.9311 0.9310 0.9310 0.9305 0.9300
3735.140003 0.9300 0.9300 0.9295 0.9290 0.9290
3739.510632 0.9290 0.9276 0.9261 0.9260 0.9260
3743.881262 0.9246 0.9231 0.9230 0.9230 0.9225
3748.251892 0.9220 0.9220 0.9220 0.9211 0.9201
3752.622522 0.9200 0.9200 0.9191 0.9181 0.9180
3756.993151 0.9180 0.9171 0.9161 0.9160 0.9160
3761.363781 0.9156 0.9151 0.9146 0.9141 0.9140
3765.734411 0.9140 0.9144 0.9149 0.9154 0.9159
3770.105041 0.9160 0.9160 0.9160 0.9160
##END=
