##TITLE=HYPOXANTHINE, 7-BUTYL-
##JCAMP-DX=4.24
##DATA TYPE=INFRARED SPECTRUM
##CLASS=COBLENTZ III
##ORIGIN=SOUTHERN RESEARCH INSTITUTE
##OWNER=COBLENTZ SOCIETY
Collection (C) 2018 copyright by the U.S. Secretary of Commerce
on behalf of the United States of America. All rights reserved.
##DATE=1961/05/05
##NAMES=8-butyl-1,7-dihydro-6H-purin-6-one
##MOLFORM=C9 H12 N4 O
##SOURCE REFERENCE=COBLENTZ NO. 10452
##$NIST ID=B6010452
##$NIST SOURCE=COBLENTZ
##$NIST IMAGE=cob10452
##SPECTROMETER/DATA SYSTEM=PERKIN-ELMER 221 (GRATING)
##INSTRUMENT PARAMETERS=GRATING FOR 4000-1428, FILTERS AT 2490, 980, NaCl PRISM FOR 1428-650 CM^-^1
##STATE=SOLID (1 mg / 650 mg KBr DISC)
##PATH LENGTH=
$$ PURITY - ANALYTICAL
$$SPECTRAL CONTAMINATION DUE TO H2O AROUND 3450 CM^-^1
##SAMPLING PROCEDURE=TRANSMISSION
##RESOLUTION=4
##DATA PROCESSING=DIGITIZED BY NIST FROM HARD COPY (FROM TWO SEGMENTS)
##XUNITS=1/CM
##YUNITS=TRANSMITTANCE
##XFACTOR=1.000000
##YFACTOR=1
##DELTAX=1.299907
##FIRSTX=643.308
##LASTX=3813.78
##FIRSTY=0.837
##MAXX=3813.78
##MINX=643.308
##MAXY=0.906
##MINY=0.0293857
##NPOINTS=2440
##XYDATA=(X++(Y..Y))
643.308000 0.8370 0.8370 0.8370 0.8360 0.8360
649.807535 0.8360 0.8350 0.8331 0.8263 0.8136
656.307070 0.8101 0.8053 0.7993 0.7868 0.7785
662.806605 0.7576 0.7329 0.7044 0.6820 0.6700
669.306140 0.6544 0.6521 0.6709 0.6757 0.6867
675.805675 0.7074 0.7214 0.7404 0.7655 0.7836
682.305210 0.8007 0.8116 0.8395 0.8448 0.8442
688.804745 0.8423 0.8403 0.8342 0.8322 0.8344
695.304280 0.8383 0.8398 0.8400 0.8400 0.8392
701.803815 0.8287 0.8150 0.8057 0.7947 0.7835
708.303350 0.7686 0.7642 0.7663 0.7761 0.7948
714.802885 0.8180 0.8433 0.8522 0.8530 0.8508
721.302420 0.8398 0.8324 0.8245 0.8163 0.8083
727.801955 0.8025 0.7996 0.7976 0.7963 0.7960
734.301490 0.7953 0.7943 0.7940 0.7927 0.7913
740.801025 0.7890 0.7847 0.7791 0.7725 0.7662
747.300560 0.7608 0.7539 0.7460 0.7367 0.7169
753.800095 0.6904 0.6709 0.6511 0.6342 0.6284
760.299630 0.6286 0.6379 0.6557 0.6744 0.6889
766.799165 0.7042 0.7227 0.7377 0.7441 0.7439
773.298700 0.7425 0.7393 0.7321 0.7253 0.7182
779.798235 0.7077 0.6963 0.6823 0.6628 0.6435
786.297770 0.5848 0.4838 0.4057 0.3780 0.4668
792.797305 0.5975 0.6678 0.7025 0.7025 0.7011
799.296840 0.7000 0.6963 0.6879 0.6808 0.6771
805.796375 0.6756 0.6750 0.6746 0.6736 0.6718
812.295910 0.6684 0.6644 0.6612 0.6580 0.6526
818.795445 0.6478 0.6429 0.6353 0.6284 0.6214
825.294980 0.6155 0.6123 0.6110 0.6106 0.6093
831.794515 0.6077 0.6070 0.6067 0.6060 0.6054
838.294050 0.6040 0.6034 0.6007 0.5977 0.5964
844.793585 0.5950 0.5950 0.5956 0.5973 0.5988
851.293120 0.6016 0.6038 0.6065 0.6093 0.6140
857.792655 0.6180 0.6222 0.6270 0.6307 0.6351
864.292190 0.6425 0.6440 0.6445 0.6460 0.6462
870.791725 0.6468 0.6454 0.6420 0.6374 0.6350
877.291260 0.6331 0.6235 0.6152 0.6065 0.6040
883.790795 0.6038 0.6030 0.6030 0.6029 0.6010
890.290330 0.5935 0.5810 0.5604 0.5439 0.5431
896.789865 0.5441 0.5456 0.5505 0.5556 0.5632
903.289400 0.5852 0.6090 0.6402 0.6740 0.7073
909.788935 0.7342 0.7500 0.7633 0.7671 0.7691
916.288470 0.7700 0.7700 0.7701 0.7720 0.7730
922.788005 0.7730 0.7741 0.7760 0.7770 0.7770
929.287540 0.7770 0.7770 0.7770 0.7760 0.7760
935.787075 0.7740 0.7740 0.7720 0.7691 0.7671
942.286610 0.7651 0.7544 0.7511 0.7424 0.7335
948.786145 0.7311 0.7310 0.7357 0.7508 0.7575
955.285680 0.7662 0.7734 0.7822 0.7848 0.7859
961.785215 0.7860 0.7860 0.7860 0.7860 0.7851
968.284750 0.7850 0.7833 0.7830 0.7821 0.7811
974.784285 0.7784 0.7772 0.7762 0.7735 0.7722
981.283820 0.7720 0.7695 0.7682 0.7655 0.7617
987.783355 0.7562 0.7542 0.7540 0.7548 0.7558
994.282890 0.7560 0.7576 0.7588 0.7598 0.7600
1000.782425 0.7600 0.7600 0.7592 0.7590 0.7583
1007.281960 0.7565 0.7553 0.7543 0.7525 0.7506
1013.781495 0.7493 0.7476 0.7456 0.7436 0.7423
1020.281030 0.7406 0.7386 0.7366 0.7346 0.7326
1026.780565 0.7300 0.7283 0.7273 0.7257 0.7243
1033.280100 0.7234 0.7204 0.7164 0.7124 0.7078
1039.779635 0.7029 0.6979 0.6880 0.6775 0.6661
1046.279170 0.6604 0.6606 0.6634 0.6674 0.6743
1052.778705 0.6809 0.6842 0.6861 0.6870 0.6853
1059.278240 0.6818 0.6772 0.6728 0.6683 0.6589
1065.777775 0.6492 0.6439 0.6404 0.6364 0.6294
1072.277310 0.6163 0.5968 0.5733 0.5550 0.5420
1078.776845 0.5192 0.4932 0.4734 0.4630 0.4762
1085.276380 0.4989 0.5252 0.5464 0.5462 0.5363
1091.775915 0.5194 0.5100 0.5314 0.5603 0.5722
1098.275450 0.5982 0.6150 0.6100 0.5843 0.5490
1104.774985 0.5279 0.5148 0.5134 0.5183 0.5269
1111.274520 0.5334 0.5439 0.5573 0.5715 0.5861
1117.774055 0.5993 0.6098 0.6220 0.6360 0.6380
1124.273590 0.6370 0.6327 0.6244 0.6099 0.5873
1130.773125 0.5654 0.5478 0.5302 0.5143 0.5051
1137.272660 0.4917 0.4751 0.4727 0.4720 0.4717
1143.772195 0.4710 0.4705 0.4687 0.4680 0.4682
1150.271730 0.4828 0.5322 0.5554 0.5705 0.5894
1156.771265 0.6076 0.6242 0.6484 0.6842 0.6894
1163.270800 0.6910 0.6912 0.6920 0.6918 0.6910
1169.770335 0.6906 0.6887 0.6865 0.6837 0.6814
1176.269870 0.6775 0.6744 0.6702 0.6648 0.6572
1182.769405 0.6515 0.6479 0.6461 0.6387 0.6271
1189.268940 0.6101 0.5916 0.5686 0.5453 0.5198
1195.768475 0.5068 0.4927 0.4659 0.4391 0.4128
1202.268010 0.3801 0.3500 0.3152 0.2871 0.2717
1208.767545 0.2670 0.2660 0.2676 0.2851 0.2902
1215.267080 0.2992 0.3122 0.3304 0.3523 0.3752
1221.766615 0.4020 0.4309 0.4597 0.5220 0.5533
1228.266150 0.5842 0.6150 0.6422 0.6643 0.6660
1234.765685 0.6650 0.6640 0.6564 0.6551 0.6531
1241.265220 0.6530 0.6521 0.6520 0.6520 0.6529
1247.764755 0.6548 0.6722 0.6938 0.7139 0.7258
1254.264290 0.7305 0.7328 0.7321 0.7259 0.7198
1260.763825 0.7086 0.6975 0.6883 0.6768 0.6657
1267.263360 0.6498 0.6370 0.6258 0.6215 0.6202
1273.762895 0.6192 0.6157 0.6004 0.5801 0.5760
1280.262430 0.6046 0.6152 0.6239 0.6433 0.6644
1286.761965 0.6690 0.6659 0.6589 0.6471 0.6402
1293.261500 0.6375 0.6370 0.6355 0.6350 0.6343
1299.761035 0.6311 0.6242 0.6170 0.6007 0.5943
1306.260570 0.5947 0.6034 0.6154 0.6232 0.6340
1312.760105 0.6414 0.6430 0.6369 0.6240 0.6050
1319.259640 0.5828 0.5580 0.5307 0.5119 0.4973
1325.759175 0.4740 0.4468 0.4206 0.3960 0.3740
1332.258710 0.3562 0.3427 0.3331 0.3245 0.3198
1338.758245 0.3196 0.3300 0.3487 0.3669 0.3820
1345.257780 0.3954 0.4089 0.4246 0.4421 0.4606
1351.757315 0.4762 0.4836 0.4834 0.4793 0.4696
1358.256850 0.4567 0.4479 0.4398 0.4314 0.4254
1364.756385 0.4184 0.4125 0.4125 0.4194 0.4313
1371.255920 0.4418 0.4484 0.4524 0.4549 0.4569
1377.755455 0.4589 0.4600 0.4609 0.4611 0.4596
1384.254990 0.4512 0.4316 0.4010 0.3564 0.3125
1390.754525 0.2842 0.2661 0.2508 0.2502 0.2575
1397.254060 0.2726 0.2915 0.3176 0.3637 0.4163
1403.753595 0.4354 0.4397 0.4471 0.4494 0.4500
1410.253130 0.4486 0.4426 0.4323 0.4213 0.4137
1416.752665 0.4130 0.4133 0.4159 0.4212 0.4255
1423.252200 0.4308 0.4376 0.4460 0.4522 0.4553
1429.751735 0.4554 0.4532 0.4496 0.4447 0.4407
1436.251270 0.4392 0.4368 0.4343 0.4273 0.4203
1442.750805 0.4150 0.4199 0.4399 0.4552 0.4652
1449.250340 0.4793 0.5077 0.5322 0.5578 0.5612
1455.749875 0.5622 0.5632 0.5645 0.5675 0.5707
1462.249410 0.5742 0.5752 0.5766 0.5806 0.5854
1468.748945 0.5960 0.6171 0.6464 0.6776 0.7011
1475.248480 0.7020 0.7019 0.7002 0.6934 0.6880
1481.748015 0.6794 0.6736 0.6693 0.6612 0.6515
1488.247550 0.6333 0.6102 0.5842 0.5574 0.5349
1494.747085 0.5174 0.5075 0.4975 0.4865 0.4759
1501.246620 0.4719 0.4690 0.4679 0.4649 0.4596
1507.746155 0.4406 0.4137 0.3788 0.3142 0.3110
1514.245690 0.3120 0.3434 0.3674 0.3954 0.4233
1520.745225 0.5189 0.5451 0.5479 0.5432 0.5354
1527.244760 0.5284 0.5214 0.5136 0.5130 0.5409
1533.744295 0.5605 0.5794 0.5993 0.6182 0.6371
1540.243830 0.6560 0.6901 0.6958 0.6969 0.6961
1546.743365 0.6916 0.6875 0.6801 0.6686 0.6584
1553.242900 0.6536 0.6454 0.6347 0.6195 0.6052
1559.742435 0.5913 0.5782 0.5678 0.5603 0.5533
1566.241970 0.5431 0.5298 0.5111 0.4966 0.4829
1572.741505 0.4500 0.4107 0.3794 0.3568 0.3374
1579.241040 0.3170 0.2908 0.2652 0.2545 0.2492
1585.740575 0.2458 0.2443 0.2447 0.2472 0.2748
1592.240110 0.3015 0.3251 0.3398 0.3678 0.4097
1598.739645 0.4510 0.5095 0.5493 0.5737 0.5952
1605.239180 0.6134 0.6270 0.6330 0.6340 0.6333
1611.738715 0.6330 0.6330 0.6317 0.6265 0.6196
1618.238250 0.6114 0.6018 0.5906 0.5798 0.5705
1624.737785 0.5633 0.5586 0.5492 0.5381 0.5287
1631.237320 0.5203 0.5141 0.5080 0.5021 0.4977
1637.736855 0.4937 0.4881 0.4800 0.4689 0.4543
1644.236390 0.4432 0.4389 0.4322 0.4196 0.4062
1650.735925 0.3927 0.3783 0.3705 0.3695 0.3690
1657.235460 0.3690 0.3685 0.3535 0.3264 0.3058
1663.734995 0.2903 0.2769 0.2644 0.2511 0.2330
1670.234530 0.2116 0.1916 0.1736 0.1570 0.1406
1676.734065 0.1237 0.1068 0.0890 0.0689 0.0499
1683.233600 0.0402 0.0386 0.0372 0.0337 0.0296
1689.733135 0.0294 0.0346 0.0472 0.0597 0.0689
1696.232670 0.0754 0.0798 0.0858 0.1007 0.1252
1702.732205 0.1394 0.1474 0.1590 0.1775 0.2024
1709.231740 0.2246 0.2446 0.2622 0.2785 0.2932
1715.731275 0.3069 0.3198 0.3327 0.3451 0.3571
1722.230810 0.3712 0.3832 0.3964 0.4126 0.4274
1728.730345 0.4438 0.4584 0.4719 0.4862 0.5053
1735.229880 0.5148 0.5225 0.5297 0.5377 0.5453
1741.729415 0.5514 0.5584 0.5654 0.5721 0.5785
1748.228950 0.5864 0.5944 0.6025 0.6115 0.6208
1754.728485 0.6306 0.6345 0.6372 0.6383 0.6406
1761.228020 0.6444 0.6475 0.6511 0.6527 0.6587
1767.727555 0.6641 0.6656 0.6703 0.6736 0.6795
1774.227090 0.6844 0.6896 0.6963 0.7002 0.7033
1780.726625 0.7072 0.7101 0.7111 0.7120 0.7119
1787.226160 0.7110 0.7110 0.7100 0.7100 0.7110
1793.725695 0.7110 0.7120 0.7141 0.7231 0.7320
1800.225230 0.7400 0.7470 0.7549 0.7609 0.7679
1806.724765 0.7729 0.7779 0.7809 0.7829 0.7868
1813.224300 0.7899 0.7919 0.7948 0.7959 0.7998
1819.723835 0.8047 0.8097 0.8137 0.8149 0.8177
1826.223370 0.8171 0.8152 0.8168 0.8206 0.8237
1832.722905 0.8320 0.8383 0.8478 0.8543 0.8585
1839.222440 0.8616 0.8629 0.8639 0.8665 0.8670
1845.721975 0.8695 0.8717 0.8753 0.8802 0.8835
1852.221510 0.8856 0.8876 0.8888 0.8890 0.8890
1858.721045 0.8898 0.8900 0.8900 0.8900 0.8900
1865.220580 0.8900 0.8900 0.8900 0.8908 0.8910
1871.720115 0.8910 0.8925 0.8930 0.8930 0.8930
1878.219650 0.8930 0.8915 0.8910 0.8910 0.8910
1884.719185 0.8924 0.8930 0.8937 0.8947 0.8971
1891.218720 0.8987 0.8990 0.8997 0.9013 0.9020
1897.718255 0.9027 0.9037 0.9040 0.9053 0.9060
1904.217790 0.9060 0.9060 0.9060 0.9060 0.9060
1910.717325 0.9048 0.9028 0.9002 0.8984 0.8974
1917.216860 0.8970 0.8958 0.8950 0.8950 0.8950
1923.716395 0.8950 0.8950 0.8944 0.8934 0.8913
1930.215930 0.8900 0.8895 0.8885 0.8864 0.8829
1936.715465 0.8799 0.8758 0.8725 0.8699 0.8654
1943.215000 0.8600 0.8555 0.8525 0.8500 0.8456
1949.714535 0.8376 0.8315 0.8267 0.8221 0.8191
1956.214070 0.8156 0.8135 0.8130 0.8134 0.8153
1962.713605 0.8214 0.8292 0.8324 0.8356 0.8428
1969.213140 0.8501 0.8546 0.8586 0.8614 0.8636
1975.712675 0.8664 0.8686 0.8718 0.8742 0.8775
1982.212210 0.8807 0.8831 0.8854 0.8867 0.8884
1988.711745 0.8894 0.8900 0.8903 0.8910 0.8910
1995.211280 0.8917 0.8933 0.8943 0.8950 0.8950
2001.710815 0.8950 0.8956 0.8970 0.8973 0.8980
2008.210350 0.8980 0.8980 0.8983 0.8990 0.8993
2014.709885 0.9006 0.9020 0.9023 0.9030 0.9030
2021.209420 0.9030 0.9027 0.9020 0.9020 0.9014
2027.708955 0.9000 0.8997 0.8984 0.8970 0.8964
2034.208490 0.8947 0.8940 0.8940 0.8940 0.8937
2040.708025 0.8930 0.8930 0.8924 0.8910 0.8910
2047.207560 0.8916 0.8930 0.8930 0.8933 0.8940
2053.707095 0.8940 0.8940 0.8940 0.8940 0.8940
2060.206630 0.8940 0.8940 0.8940 0.8937 0.8930
2066.706165 0.8930 0.8930 0.8930 0.8930 0.8930
2073.205700 0.8930 0.8930 0.8924 0.8910 0.8910
2079.705235 0.8910 0.8910 0.8910 0.8907 0.8900
2086.204770 0.8900 0.8900 0.8900 0.8900 0.8897
2092.704305 0.8890 0.8890 0.8890 0.8890 0.8890
2099.203840 0.8887 0.8880 0.8880 0.8874 0.8860
2105.703375 0.8857 0.8850 0.8850 0.8847 0.8834
2112.202910 0.8817 0.8810 0.8810 0.8807 0.8797
2118.702445 0.8790 0.8784 0.8770 0.8767 0.8760
2125.201980 0.8757 0.8744 0.8730 0.8730 0.8727
2131.701515 0.8720 0.8717 0.8710 0.8710 0.8710
2138.201050 0.8713 0.8723 0.8730 0.8730 0.8736
2144.700585 0.8753 0.8760 0.8769 0.8790 0.8790
2151.200120 0.8790 0.8784 0.8770 0.8767 0.8757
2157.699655 0.8744 0.8727 0.8717 0.8707 0.8694
2164.199190 0.8680 0.8677 0.8670 0.8667 0.8660
2170.698725 0.8660 0.8660 0.8663 0.8670 0.8670
2177.198260 0.8673 0.8680 0.8686 0.8700 0.8700
2183.697795 0.8700 0.8700 0.8700 0.8703 0.8710
2190.197330 0.8710 0.8710 0.8713 0.8720 0.8720
2196.696865 0.8717 0.8707 0.8694 0.8680 0.8677
2203.196400 0.8670 0.8670 0.8670 0.8670 0.8673
2209.695935 0.8680 0.8689 0.8713 0.8720 0.8720
2216.195470 0.8720 0.8714 0.8688 0.8654 0.8637
2222.695005 0.8630 0.8624 0.8610 0.8604 0.8590
2229.194540 0.8590 0.8590 0.8590 0.8587 0.8580
2235.694075 0.8580 0.8580 0.8580 0.8580 0.8580
2242.193610 0.8580 0.8580 0.8580 0.8580 0.8580
2248.693145 0.8580 0.8580 0.8577 0.8570 0.8570
2255.192680 0.8561 0.8543 0.8547 0.8537 0.8524
2261.692215 0.8510 0.8507 0.8500 0.8500 0.8500
2268.191750 0.8500 0.8500 0.8500 0.8500 0.8500
2274.691285 0.8500 0.8500 0.8500 0.8500 0.8500
2281.190820 0.8500 0.8500 0.8500 0.8497 0.8490
2287.690355 0.8487 0.8471 0.8441 0.8417 0.8407
2294.189890 0.8400 0.8400 0.8400 0.8406 0.8426
2300.689425 0.8443 0.8450 0.8450 0.8450 0.8447
2307.188960 0.8440 0.8440 0.8434 0.8417 0.8407
2313.688495 0.8397 0.8384 0.8367 0.8351 0.8321
2320.188030 0.8288 0.8251 0.8224 0.8201 0.8171
2326.687565 0.8147 0.8137 0.8127 0.8120 0.8120
2333.187100 0.8120 0.8120 0.8120 0.8120 0.8114
2339.686635 0.8100 0.8097 0.8087 0.8071 0.8047
2346.186170 0.8037 0.8030 0.8030 0.8024 0.8007
2352.685705 0.8000 0.7987 0.7954 0.7934 0.7917
2359.185240 0.7901 0.7877 0.7867 0.7857 0.7844
2365.684775 0.7830 0.7836 0.7869 0.7923 0.7953
2372.184310 0.7982 0.8036 0.8059 0.8083 0.8090
2378.683845 0.8093 0.8106 0.8126 0.8143 0.8159
2385.183380 0.8189 0.8210 0.8213 0.8220 0.8217
2391.682915 0.8210 0.8204 0.8190 0.8184 0.8170
2398.182450 0.8164 0.8150 0.8150 0.8150 0.8147
2404.681985 0.8140 0.8137 0.8130 0.8127 0.8107
2411.181520 0.8071 0.8044 0.8030 0.8024 0.8010
2417.681055 0.8010 0.8010 0.8010 0.8007 0.8000
2424.180590 0.8000 0.7997 0.7990 0.7990 0.7990
2430.680125 0.7990 0.7990 0.7993 0.8000 0.8000
2437.179660 0.8000 0.8000 0.8000 0.7997 0.7984
2443.679195 0.7970 0.7967 0.7960 0.7960 0.7960
2450.178730 0.7960 0.7960 0.7957 0.7950 0.7947
2456.678265 0.7940 0.7940 0.7940 0.7940 0.7934
2463.177800 0.7920 0.7917 0.7910 0.7907 0.7894
2469.677335 0.7880 0.7877 0.7870 0.7867 0.7860
2476.176870 0.7860 0.7851 0.7827 0.7820 0.7817
2482.676405 0.7810 0.7804 0.7790 0.7787 0.7780
2489.175940 0.7777 0.7767 0.7760 0.7760 0.7760
2495.675475 0.7760 0.7754 0.7740 0.7740 0.7740
2502.175010 0.7740 0.7740 0.7740 0.7740 0.7737
2508.674545 0.7730 0.7730 0.7727 0.7720 0.7720
2515.174080 0.7714 0.7697 0.7684 0.7664 0.7650
2521.673615 0.7647 0.7640 0.7640 0.7637 0.7630
2528.173150 0.7630 0.7624 0.7610 0.7610 0.7607
2534.672685 0.7594 0.7571 0.7547 0.7534 0.7520
2541.172220 0.7517 0.7510 0.7507 0.7500 0.7491
2547.671755 0.7470 0.7467 0.7460 0.7457 0.7444
2554.171290 0.7427 0.7417 0.7401 0.7377 0.7367
2560.670825 0.7360 0.7354 0.7337 0.7327 0.7317
2567.170360 0.7304 0.7287 0.7277 0.7270 0.7264
2573.669895 0.7250 0.7250 0.7250 0.7247 0.7240
2580.169430 0.7240 0.7240 0.7240 0.7240 0.7237
2586.668965 0.7230 0.7230 0.7230 0.7230 0.7230
2593.168500 0.7227 0.7220 0.7214 0.7197 0.7187
2599.668035 0.7174 0.7154 0.7140 0.7131 0.7107
2606.167570 0.7091 0.7070 0.7067 0.7060 0.7057
2612.667105 0.7050 0.7044 0.7030 0.7027 0.7017
2619.166640 0.7010 0.7007 0.7000 0.7000 0.6994
2625.666175 0.6980 0.6980 0.6977 0.6970 0.6967
2632.165710 0.6954 0.6937 0.6930 0.6927 0.6920
2638.665245 0.6920 0.6917 0.6910 0.6910 0.6910
2645.164780 0.6910 0.6910 0.6910 0.6910 0.6910
2651.664315 0.6904 0.6887 0.6877 0.6870 0.6864
2658.163850 0.6847 0.6834 0.6820 0.6814 0.6800
2664.663385 0.6800 0.6800 0.6800 0.6800 0.6797
2671.162920 0.6790 0.6787 0.6771 0.6750 0.6747
2677.662455 0.6740 0.6737 0.6730 0.6730 0.6724
2684.161990 0.6710 0.6710 0.6710 0.6710 0.6710
2690.661525 0.6710 0.6710 0.6710 0.6707 0.6697
2697.161060 0.6690 0.6684 0.6664 0.6638 0.6601
2703.660595 0.6574 0.6557 0.6550 0.6544 0.6530
2710.160130 0.6527 0.6517 0.6510 0.6504 0.6490
2716.659665 0.6487 0.6480 0.6474 0.6454 0.6434
2723.159200 0.6414 0.6400 0.6397 0.6387 0.6380
2729.658735 0.6377 0.6364 0.6350 0.6347 0.6337
2736.158270 0.6330 0.6324 0.6310 0.6307 0.6297
2742.657805 0.6290 0.6287 0.6274 0.6257 0.6250
2749.157340 0.6247 0.6240 0.6231 0.6204 0.6177
2755.656875 0.6144 0.6127 0.6120 0.6117 0.6110
2762.156410 0.6107 0.6094 0.6080 0.6080 0.6077
2768.655945 0.6070 0.6054 0.6011 0.5984 0.5958
2775.155480 0.5905 0.5834 0.5791 0.5754 0.5714
2781.655015 0.5691 0.5667 0.5660 0.5660 0.5660
2788.154550 0.5651 0.5630 0.5627 0.5611 0.5587
2794.654085 0.5580 0.5577 0.5564 0.5547 0.5534
2801.153620 0.5511 0.5487 0.5468 0.5428 0.5391
2807.653155 0.5367 0.5360 0.5360 0.5360 0.5360
2814.152690 0.5360 0.5360 0.5357 0.5347 0.5327
2820.652225 0.5284 0.5237 0.5197 0.5167 0.5151
2827.151760 0.5121 0.5094 0.5068 0.5031 0.5001
2833.651295 0.4958 0.4894 0.4847 0.4814 0.4794
2840.150830 0.4777 0.4761 0.4740 0.4734 0.4707
2846.650365 0.4655 0.4578 0.4502 0.4418 0.4354
2853.149900 0.4311 0.4278 0.4241 0.4208 0.4174
2859.649435 0.4160 0.4160 0.4166 0.4180 0.4180
2866.148970 0.4180 0.4171 0.4147 0.4137 0.4130
2872.648505 0.4136 0.4219 0.4379 0.4416 0.4453
2879.148040 0.4482 0.4558 0.4620 0.4623 0.4630
2885.647575 0.4630 0.4627 0.4607 0.4574 0.4560
2892.147110 0.4551 0.4521 0.4497 0.4478 0.4425
2898.646645 0.4357 0.4324 0.4304 0.4290 0.4287
2905.146180 0.4271 0.4234 0.4181 0.4118 0.4051
2911.645715 0.3994 0.3938 0.3874 0.3824 0.3771
2918.145250 0.3705 0.3634 0.3578 0.3511 0.3454
2924.644785 0.3407 0.3371 0.3347 0.3337 0.3333
2931.144320 0.3343 0.3362 0.3402 0.3446 0.3493
2937.643855 0.3536 0.3583 0.3623 0.3666 0.3700
2944.143390 0.3703 0.3710 0.3707 0.3694 0.3658
2950.642925 0.3578 0.3482 0.3404 0.3364 0.3356
2957.142460 0.3386 0.3436 0.3473 0.3486 0.3506
2963.641995 0.3564 0.3701 0.3831 0.3958 0.4077
2970.141530 0.4194 0.4304 0.4427 0.4561 0.4662
2976.641065 0.4739 0.4760 0.4763 0.4770 0.4770
2983.140600 0.4773 0.4780 0.4780 0.4777 0.4767
2989.640135 0.4751 0.4727 0.4711 0.4690 0.4687
2996.139670 0.4680 0.4680 0.4680 0.4680 0.4680
3002.639205 0.4680 0.4680 0.4677 0.4670 0.4664
3009.138740 0.4647 0.4628 0.4584 0.4538 0.4497
3015.638275 0.4467 0.4457 0.4441 0.4414 0.4394
3022.137810 0.4377 0.4367 0.4357 0.4328 0.4264
3028.637345 0.4221 0.4197 0.4187 0.4167 0.4115
3035.136880 0.4004 0.3849 0.3758 0.3701 0.3674
3041.636415 0.3657 0.3641 0.3620 0.3617 0.3613
3048.135950 0.3629 0.3659 0.3695 0.3736 0.3756
3054.635485 0.3786 0.3836 0.3889 0.3939 0.3963
3061.135020 0.3970 0.3970 0.3970 0.3970 0.3970
3067.634555 0.3970 0.3970 0.3967 0.3944 0.3888
3074.134090 0.3828 0.3784 0.3738 0.3704 0.3687
3080.633625 0.3671 0.3634 0.3578 0.3511 0.3451
3087.133160 0.3388 0.3324 0.3278 0.3238 0.3204
3093.632695 0.3181 0.3157 0.3150 0.3156 0.3189
3100.132230 0.3236 0.3259 0.3302 0.3372 0.3433
3106.631765 0.3476 0.3541 0.3648 0.3746 0.3796
3113.131300 0.3833 0.3849 0.3882 0.3922 0.3966
3119.630835 0.4019 0.4076 0.4126 0.4182 0.4246
3126.130370 0.4292 0.4332 0.4366 0.4380 0.4380
3132.629905 0.4380 0.4386 0.4400 0.4400 0.4403
3139.129440 0.4413 0.4420 0.4420 0.4417 0.4410
3145.628975 0.4407 0.4400 0.4400 0.4400 0.4403
3152.128510 0.4410 0.4410 0.4410 0.4413 0.4426
3158.628045 0.4440 0.4443 0.4450 0.4453 0.4460
3165.127580 0.4463 0.4476 0.4496 0.4516 0.4533
3171.627115 0.4546 0.4569 0.4593 0.4606 0.4623
3178.126650 0.4630 0.4633 0.4643 0.4656 0.4676
3184.626185 0.4696 0.4719 0.4749 0.4779 0.4800
3191.125720 0.4800 0.4800 0.4800 0.4800 0.4800
3197.625255 0.4800 0.4800 0.4803 0.4816 0.4836
3204.124790 0.4850 0.4856 0.4879 0.4903 0.4913
3210.624325 0.4929 0.4950 0.4950 0.4953 0.4966
3217.123860 0.4986 0.5003 0.5010 0.5016 0.5030
3223.623395 0.5030 0.5033 0.5040 0.5043 0.5056
3230.122930 0.5073 0.5083 0.5090 0.5093 0.5113
3236.622465 0.5153 0.5202 0.5266 0.5313 0.5346
3243.122000 0.5363 0.5370 0.5376 0.5393 0.5403
3249.621535 0.5416 0.5433 0.5443 0.5459 0.5483
3256.121070 0.5493 0.5509 0.5536 0.5556 0.5576
3262.620605 0.5599 0.5626 0.5646 0.5660 0.5663
3269.120140 0.5673 0.5686 0.5703 0.5713 0.5720
3275.619675 0.5726 0.5743 0.5756 0.5779 0.5825
3282.119210 0.5892 0.5929 0.5956 0.5973 0.5989
3288.618745 0.6016 0.6043 0.6086 0.6133 0.6169
3295.118280 0.6199 0.6229 0.6262 0.6306 0.6349
3301.617815 0.6373 0.6383 0.6403 0.6433 0.6440
3308.117350 0.6446 0.6463 0.6482 0.6516 0.6552
3314.616885 0.6613 0.6640 0.6643 0.6663 0.6718
3321.116420 0.6799 0.6862 0.6916 0.6939 0.6963
3327.615955 0.6973 0.6980 0.6986 0.7003 0.7016
3334.115490 0.7042 0.7082 0.7119 0.7146 0.7160
3340.615025 0.7160 0.7160 0.7166 0.7180 0.7183
3347.114560 0.7190 0.7190 0.7193 0.7200 0.7200
3353.614095 0.7197 0.7190 0.7187 0.7180 0.7180
3360.113630 0.7180 0.7183 0.7193 0.7200 0.7206
3366.613165 0.7220 0.7226 0.7253 0.7293 0.7326
3373.112700 0.7359 0.7406 0.7423 0.7439 0.7460
3379.612235 0.7463 0.7470 0.7470 0.7476 0.7490
3386.111770 0.7484 0.7470 0.7467 0.7460 0.7460
3392.611305 0.7463 0.7476 0.7490 0.7490 0.7490
3399.110840 0.7493 0.7500 0.7500 0.7500 0.7500
3405.610375 0.7500 0.7500 0.7500 0.7500 0.7500
3412.109910 0.7500 0.7503 0.7510 0.7510 0.7510
3418.609445 0.7507 0.7500 0.7497 0.7490 0.7490
3425.108980 0.7490 0.7490 0.7490 0.7490 0.7490
3431.608515 0.7490 0.7493 0.7500 0.7503 0.7510
3438.108050 0.7510 0.7513 0.7520 0.7520 0.7520
3444.607585 0.7520 0.7520 0.7520 0.7520 0.7520
3451.107120 0.7520 0.7520 0.7520 0.7520 0.7520
3457.606655 0.7520 0.7526 0.7540 0.7543 0.7550
3464.106190 0.7553 0.7566 0.7580 0.7583 0.7593
3470.605725 0.7603 0.7610 0.7616 0.7630 0.7630
3477.105260 0.7630 0.7624 0.7610 0.7610 0.7610
3483.604795 0.7610 0.7610 0.7610 0.7610 0.7610
3490.104330 0.7610 0.7610 0.7616 0.7630 0.7633
3496.603865 0.7640 0.7640 0.7643 0.7650 0.7650
3503.103400 0.7656 0.7670 0.7673 0.7686 0.7706
3509.602935 0.7720 0.7723 0.7733 0.7746 0.7760
3516.102470 0.7763 0.7770 0.7770 0.7770 0.7770
3522.602005 0.7770 0.7770 0.7770 0.7770 0.7773
3529.101540 0.7780 0.7780 0.7783 0.7790 0.7796
3535.601075 0.7816 0.7839 0.7860 0.7863 0.7873
3542.100610 0.7880 0.7880 0.7886 0.7903 0.7910
3548.600145 0.7913 0.7920 0.7920 0.7926 0.7943
3555.099680 0.7953 0.7960 0.7963 0.7970 0.7976
3561.599215 0.7990 0.7993 0.8000 0.8000 0.8000
3568.098750 0.8000 0.8000 0.8003 0.8010 0.8016
3574.598285 0.8033 0.8053 0.8083 0.8090 0.8093
3581.097820 0.8106 0.8120 0.8126 0.8140 0.8137
3587.597355 0.8130 0.8127 0.8114 0.8097 0.8087
3594.096890 0.8080 0.8083 0.8102 0.8136 0.8156
3600.596425 0.8173 0.8183 0.8196 0.8216 0.8233
3607.095960 0.8246 0.8263 0.8270 0.8267 0.8260
3613.595495 0.8254 0.8237 0.8227 0.8217 0.8210
3620.095030 0.8213 0.8220 0.8223 0.8233 0.8246
3626.594565 0.8266 0.8293 0.8320 0.8323 0.8330
3633.094100 0.8324 0.8294 0.8245 0.8210 0.8248
3639.593635 0.8339 0.8385 0.8443 0.8450 0.8450
3646.093170 0.8450 0.8447 0.8440 0.8431 0.8404
3652.592705 0.8381 0.8351 0.8327 0.8323 0.8339
3659.092240 0.8376 0.8419 0.8443 0.8450 0.8453
3665.591775 0.8466 0.8480 0.8480 0.8480 0.8480
3672.091310 0.8480 0.8474 0.8444 0.8398 0.8357
3678.590845 0.8330 0.8330 0.8327 0.8317 0.8310
3685.090380 0.8326 0.8379 0.8432 0.8466 0.8480
3691.589915 0.8474 0.8457 0.8447 0.8440 0.8443
3698.089450 0.8453 0.8460 0.8466 0.8483 0.8493
3704.588985 0.8503 0.8510 0.8516 0.8530 0.8530
3711.088520 0.8533 0.8540 0.8540 0.8537 0.8530
3717.588055 0.8530 0.8521 0.8497 0.8493 0.8509
3724.087590 0.8542 0.8573 0.8580 0.8571 0.8544
3730.587125 0.8524 0.8510 0.8507 0.8500 0.8497
3737.086660 0.8487 0.8471 0.8434 0.8388 0.8360
3743.586195 0.8369 0.8396 0.8423 0.8453 0.8460
3750.085730 0.8457 0.8450 0.8450 0.8441 0.8417
3756.585265 0.8410 0.8410 0.8410 0.8413 0.8420
3763.084800 0.8426 0.8440 0.8434 0.8414 0.8397
3769.584335 0.8390 0.8390 0.8393 0.8400 0.8400
3776.083870 0.8403 0.8410 0.8410 0.8410 0.8410
3782.583405 0.8413 0.8420 0.8420 0.8420 0.8420
3789.082940 0.8420 0.8420 0.8417 0.8407 0.8400
3795.582475 0.8397 0.8381 0.8357 0.8350 0.8350
3802.082010 0.8344 0.8330 0.8330 0.8330 0.8330
3808.581545 0.8336 0.8350 0.8353 0.8360 0.8360
##END=
