##TITLE=1,3-PROPANEDIAMINE-, 2-BROMO-, DIHYDROBROMIDE
##JCAMP-DX=4.24
##DATA TYPE=INFRARED SPECTRUM
##CLASS=COBLENTZ III
##ORIGIN=SOUTHERN RESEARCH INSTITUTE
##OWNER=COBLENTZ SOCIETY
Collection (C) 2018 copyright by the U.S. Secretary of Commerce
on behalf of the United States of America. All rights reserved.
##DATE=1968/05/09
##MOLFORM=C3 H11 Br3 N2
##SOURCE REFERENCE=COBLENTZ NO. 10386
##$NIST ID=B6010386
##$NIST SOURCE=COBLENTZ
##$NIST IMAGE=cob10386
##SPECTROMETER/DATA SYSTEM=PERKIN-ELMER 621
##STATE=SOLID (1 mg / 500 mg KBr DISC)
##PATH LENGTH=
$$SPECTRAL CONTAMINATION DUE TO H2O AROUND 3450 CM^-^1
$$ PURITY - ANALYTICAL
##SAMPLING PROCEDURE=TRANSMISSION
##RESOLUTION=4
##DATA PROCESSING=DIGITIZED BY NIST FROM HARD COPY (FROM TWO SEGMENTS)
##XUNITS=1/CM
##YUNITS=TRANSMITTANCE
##XFACTOR=1.000000
##YFACTOR=1
##DELTAX=1.325093
##FIRSTX=256.184
##LASTX=3998.25
##FIRSTY=0.202
##MAXX=3998.25
##MINX=256.184
##MAXY=0.915
##MINY=0.181
##NPOINTS=2825
##XYDATA=(X++(Y..Y))
256.184000 0.2020 0.2050 0.2070 0.2100 0.2150
262.809466 0.2180 0.2250 0.2320 0.2380 0.2469
269.434931 0.2510 0.2550 0.2610 0.2640 0.2710
276.060397 0.2820 0.2939 0.3069 0.3209 0.3319
282.685863 0.3440 0.3550 0.3650 0.3720 0.3760
289.311329 0.3999 0.4129 0.4269 0.4379 0.4559
295.936794 0.4650 0.4670 0.4730 0.4810 0.4890
302.562260 0.4970 0.5020 0.5249 0.5399 0.5470
309.187726 0.5590 0.5650 0.5690 0.5760 0.5850
315.813191 0.5930 0.6020 0.6090 0.6209 0.6270
322.438657 0.6320 0.6350 0.6420 0.6510 0.6600
329.064123 0.6710 0.6770 0.6820 0.6890 0.6940
335.689589 0.7050 0.7090 0.7100 0.7140 0.7230
342.315054 0.7350 0.7420 0.7470 0.7520 0.7570
348.940520 0.7610 0.7650 0.7710 0.7750 0.7770
355.565986 0.7810 0.7900 0.7960 0.7980 0.8010
362.191451 0.8020 0.8070 0.8130 0.8150 0.8180
368.816917 0.8220 0.8270 0.8280 0.8300 0.8340
375.442383 0.8350 0.8380 0.8380 0.8400 0.8430
382.067849 0.8430 0.8440 0.8440 0.8440 0.8430
388.693314 0.8400 0.8400 0.8380 0.8350 0.8340
395.318780 0.8320 0.8300 0.8250 0.8141 0.7971
401.944246 0.7920 0.7850 0.7750 0.7530 0.7460
408.569711 0.7221 0.7220 0.7479 0.7749 0.7919
415.195177 0.8020 0.8250 0.8520 0.8630 0.8690
421.820643 0.8730 0.8760 0.8800 0.8820 0.8840
428.446109 0.8860 0.8880 0.8880 0.8890 0.8890
435.071574 0.8890 0.8890 0.8890 0.8890 0.8890
441.697040 0.8890 0.8880 0.8880 0.8880 0.8860
448.322506 0.8840 0.8810 0.8780 0.8770 0.8750
454.947971 0.8710 0.8640 0.8530 0.8480 0.8480
461.573437 0.8510 0.8530 0.8669 0.8769 0.8879
468.198903 0.8920 0.8930 0.8940 0.8960 0.8960
474.824369 0.8960 0.8960 0.8960 0.8940 0.8930
481.449834 0.8920 0.8890 0.8840 0.8810 0.8750
488.075300 0.8640 0.8421 0.8032 0.7960 0.7960
494.700766 0.8060 0.8150 0.8470 0.8799 0.8960
501.326231 0.9050 0.9100 0.9110 0.9130 0.9130
507.951697 0.9140 0.9140 0.9140 0.9140 0.9140
514.577163 0.9150 0.9150 0.9130 0.9130 0.9110
521.202629 0.9100 0.9110 0.9130 0.9140 0.9140
527.828094 0.9140 0.9110 0.9110 0.9100 0.9100
534.453560 0.9090 0.9090 0.9060 0.9060 0.9050
541.079026 0.9060 0.9070 0.9070 0.9070 0.9090
547.704491 0.9090 0.9090 0.9090 0.9090 0.9090
554.329957 0.9090 0.9090 0.9090 0.9090 0.9070
560.955423 0.9070 0.9060 0.9030 0.9020 0.9020
567.580889 0.9000 0.9000 0.8980 0.8960 0.8960
574.206354 0.8940 0.8940 0.8940 0.8940 0.8940
580.831820 0.8930 0.8930 0.8930 0.8920 0.8920
587.457286 0.8900 0.8900 0.8880 0.8810 0.8650
594.082751 0.8610 0.8600 0.8590 0.8590 0.8570
600.708217 0.8570 0.8560 0.8550 0.8530 0.8530
607.333683 0.8520 0.8510 0.8510 0.8500 0.8480
613.959149 0.8470 0.8440 0.8430 0.8380 0.8310
620.584614 0.8260 0.8190 0.8170 0.8140 0.8090
627.210080 0.8000 0.7900 0.7710 0.7150 0.6860
633.835546 0.6571 0.6002 0.5422 0.4843 0.4263
640.461011 0.4261 0.4982 0.7280 0.7940 0.8279
647.086477 0.8559 0.8839 0.8999 0.9010 0.9020
653.711943 0.9020 0.9020 0.9020 0.9010 0.9010
660.337409 0.9010 0.8980 0.8960 0.8940 0.8960
666.962874 0.8980 0.9010 0.9030 0.9050 0.9060
673.588340 0.9070 0.9090 0.9100 0.9110 0.9110
680.213806 0.9110 0.9110 0.9110 0.9110 0.9110
686.839271 0.9110 0.9110 0.9110 0.9100 0.9100
693.464737 0.9100 0.9110 0.9110 0.9110 0.9110
700.090203 0.9110 0.9110 0.9110 0.9130 0.9130
706.715669 0.9130 0.9130 0.9130 0.9130 0.9130
713.341134 0.9130 0.9130 0.9130 0.9130 0.9130
719.966600 0.9130 0.9130 0.9130 0.9130 0.9130
726.592066 0.9130 0.9130 0.9130 0.9130 0.9130
733.217531 0.9110 0.9110 0.9110 0.9110 0.9110
739.842997 0.9110 0.9100 0.9100 0.9100 0.9100
746.468463 0.9100 0.9090 0.9070 0.9070 0.9060
753.093929 0.9050 0.9030 0.9020 0.9010 0.8980
759.719394 0.8970 0.8970 0.8960 0.8960 0.8940
766.344860 0.8930 0.8900 0.8880 0.8850 0.8840
772.970326 0.8840 0.8820 0.8810 0.8810 0.8800
779.595791 0.8770 0.8730 0.8720 0.8680 0.8640
786.221257 0.8600 0.8550 0.8500 0.8400 0.8350
792.846723 0.8270 0.8230 0.8021 0.7731 0.7322
799.472189 0.6859 0.6389 0.5800 0.5800 0.7498
806.097654 0.7710 0.8009 0.8399 0.8898 0.8900
812.723120 0.8890 0.8880 0.8860 0.8850 0.8840
819.348586 0.8820 0.8800 0.8780 0.8770 0.8760
825.974051 0.8760 0.8730 0.8710 0.8670 0.8640
832.599517 0.8610 0.8550 0.8470 0.8351 0.8231
839.224983 0.8050 0.7850 0.7260 0.7000 0.6720
845.850449 0.7319 0.8337 0.8838 0.8860 0.8860
852.475914 0.8840 0.8840 0.8840 0.8840 0.8820
859.101380 0.8820 0.8810 0.8810 0.8810 0.8810
865.726846 0.8800 0.8780 0.8750 0.8730 0.8720
872.352311 0.8720 0.8710 0.8710 0.8690 0.8690
878.977777 0.8680 0.8670 0.8640 0.8610 0.8600
885.603243 0.8590 0.8530 0.8480 0.8420 0.8350
892.228709 0.8230 0.8070 0.8020 0.7670 0.7670
898.854174 0.8389 0.8400 0.8440 0.8510 0.8570
905.479640 0.8590 0.8590 0.8590 0.8570 0.8570
912.105106 0.8570 0.8560 0.8560 0.8550 0.8550
918.730571 0.8530 0.8530 0.8520 0.8510 0.8500
925.356037 0.8480 0.8470 0.8440 0.8420 0.8420
931.981503 0.8400 0.8400 0.8390 0.8390 0.8340
938.606969 0.8340 0.8310 0.8270 0.8260 0.8230
945.232434 0.8190 0.8170 0.8110 0.8060 0.7980
951.857900 0.7890 0.7760 0.7571 0.7480 0.7480
958.483366 0.7880 0.8100 0.8140 0.8150 0.8170
965.108831 0.8140 0.8130 0.8100 0.8070 0.8050
971.734297 0.8020 0.8000 0.7970 0.7940 0.7920
978.359763 0.7890 0.7860 0.7840 0.7800 0.7770
984.985229 0.7730 0.7710 0.7690 0.7680 0.7670
991.610694 0.7610 0.7550 0.7480 0.7390 0.7280
998.236160 0.7150 0.7050 0.7000 0.6930 0.6850
1004.861626 0.6590 0.6500 0.6281 0.5712 0.5192
1011.487091 0.5089 0.4530 0.4531 0.5770 0.6000
1018.112557 0.6359 0.7388 0.7390 0.7340 0.7250
1024.738023 0.7130 0.7000 0.6670 0.6320 0.6100
1031.363489 0.5850 0.5601 0.5351 0.5101 0.5100
1037.988954 0.5631 0.6130 0.6130 0.6050 0.5780
1044.614420 0.5530 0.5281 0.5031 0.5030 0.5548
1051.239886 0.7071 0.7570 0.7820 0.7850 0.7840
1057.865351 0.7800 0.7760 0.7630 0.7560 0.7500
1064.490817 0.7380 0.7280 0.7070 0.6960 0.6820
1071.116283 0.6521 0.6350 0.6101 0.5592 0.5212
1077.741749 0.4759 0.4320 0.4110 0.3890 0.3470
1084.367214 0.3470 0.4607 0.5358 0.7003 0.7428
1090.992680 0.7681 0.7860 0.8060 0.8110 0.8110
1097.618146 0.8110 0.8060 0.8030 0.8000 0.7920
1104.243611 0.7890 0.7890 0.7920 0.8100 0.8210
1110.869077 0.8300 0.8310 0.8320 0.8340 0.8340
1117.494543 0.8280 0.8260 0.8230 0.8220 0.8190
1124.120009 0.8180 0.8180 0.8170 0.8170 0.8150
1130.745474 0.8150 0.8140 0.8130 0.8130 0.8110
1137.370940 0.8090 0.8050 0.8020 0.8000 0.7980
1143.996406 0.7960 0.7940 0.7930 0.7880 0.7840
1150.621871 0.7810 0.7780 0.7750 0.7720 0.7670
1157.247337 0.7600 0.7530 0.7390 0.7220 0.7020
1163.872803 0.6940 0.6850 0.6690 0.6172 0.6140
1170.498269 0.6150 0.6262 0.7220 0.7600 0.7770
1177.123734 0.8000 0.8020 0.8020 0.8010 0.7980
1183.749200 0.7970 0.7960 0.7920 0.7850 0.7820
1190.374666 0.7800 0.7770 0.7760 0.7730 0.7720
1197.000131 0.7690 0.7670 0.7630 0.7600 0.7570
1203.625597 0.7550 0.7520 0.7510 0.7470 0.7400
1210.251063 0.7380 0.7350 0.7270 0.7230 0.7220
1216.876529 0.7130 0.7030 0.7000 0.6960 0.6880
1223.501994 0.6720 0.6610 0.6550 0.6400 0.6260
1230.127460 0.6260 0.6400 0.6440 0.6629 0.6650
1236.752926 0.6429 0.6099 0.5799 0.5360 0.4860
1243.378391 0.4840 0.4361 0.4360 0.7211 0.7808
1250.003857 0.7960 0.7960 0.7940 0.7920 0.7890
1256.629323 0.7850 0.7810 0.7810 0.7800 0.7780
1263.254789 0.7770 0.7760 0.7720 0.7690 0.7680
1269.880254 0.7640 0.7610 0.7600 0.7600 0.7590
1276.505720 0.7590 0.7570 0.7560 0.7550 0.7520
1283.131186 0.7500 0.7480 0.7460 0.7440 0.7420
1289.756651 0.7400 0.7390 0.7380 0.7380 0.7360
1296.382117 0.7310 0.7270 0.7250 0.7230 0.7220
1303.007583 0.7210 0.7190 0.7190 0.7190 0.7180
1309.633049 0.7170 0.7150 0.7140 0.7140 0.7130
1316.258514 0.7110 0.7090 0.7020 0.7000 0.6960
1322.883980 0.6890 0.6840 0.6780 0.6730 0.6680
1329.509446 0.6570 0.6430 0.6320 0.6110 0.6030
1336.134911 0.5890 0.5750 0.5351 0.4921 0.4920
1342.760377 0.5320 0.5343 0.6460 0.6640 0.6930
1349.385843 0.6940 0.6930 0.6900 0.6770 0.6650
1356.011309 0.6559 0.6400 0.6230 0.6070 0.5920
1362.636774 0.5920 0.6150 0.6340 0.6510 0.6769
1369.262240 0.6880 0.6930 0.6980 0.7000 0.7000
1375.887706 0.7000 0.6980 0.6920 0.6860 0.6840
1382.513171 0.6820 0.6810 0.6800 0.6770 0.6750
1389.138637 0.6690 0.6610 0.6610 0.6600 0.6590
1395.764103 0.6570 0.6530 0.6500 0.6470 0.6440
1402.389569 0.6420 0.6380 0.6350 0.6340 0.6310
1409.015034 0.6280 0.6260 0.6230 0.6190 0.6150
1415.640500 0.6100 0.6050 0.5940 0.5820 0.5671
1422.265966 0.5519 0.5379 0.5130 0.4959 0.4340
1428.891431 0.4340 0.4979 0.5479 0.5570 0.5769
1435.516897 0.5769 0.5629 0.5380 0.5210 0.5070
1442.142363 0.5020 0.5000 0.4800 0.4321 0.4320
1448.767829 0.4612 0.5221 0.5500 0.5690 0.6010
1455.393294 0.6100 0.6100 0.6070 0.5930 0.5850
1462.018760 0.5770 0.5680 0.5600 0.5550 0.5400
1468.644226 0.5260 0.5140 0.5020 0.4900 0.4780
1475.269691 0.4669 0.4530 0.4390 0.4220 0.4020
1481.895157 0.3960 0.3890 0.3710 0.3550 0.3400
1488.520623 0.3179 0.2960 0.2961 0.3230 0.3250
1495.146089 0.3530 0.4269 0.4360 0.4390 0.4360
1501.771554 0.4259 0.4100 0.3940 0.3760 0.3550
1508.397020 0.3180 0.2810 0.2441 0.2440 0.2928
1515.022486 0.2965 0.4402 0.5170 0.5300 0.5300
1521.647951 0.5260 0.5070 0.4890 0.4631 0.4431
1528.273417 0.4069 0.3879 0.3669 0.3260 0.2930
1534.898883 0.2730 0.2460 0.2141 0.2130 0.2150
1541.524349 0.2190 0.2230 0.2260 0.2270 0.2270
1548.149814 0.2280 0.2510 0.2999 0.3379 0.4297
1554.775280 0.4782 0.5231 0.5611 0.5890 0.6020
1561.400746 0.6030 0.6030 0.6010 0.5860 0.5750
1568.026211 0.5479 0.5219 0.4959 0.4680 0.4400
1574.651677 0.4110 0.3980 0.3840 0.3531 0.3221
1581.277143 0.3189 0.2840 0.2841 0.3101 0.4011
1587.902609 0.4890 0.5500 0.6149 0.6429 0.6769
1594.528074 0.7130 0.7250 0.7390 0.7600 0.7720
1601.153540 0.7820 0.7940 0.8030 0.8110 0.8150
1607.779006 0.8270 0.8320 0.8340 0.8340 0.8320
1614.404471 0.8320 0.8310 0.8270 0.8230 0.8190
1621.029937 0.8180 0.8190 0.8190 0.8210 0.8210
1627.655403 0.8210 0.8220 0.8220 0.8210 0.8210
1634.280869 0.8190 0.8190 0.8190 0.8190 0.8190
1640.906334 0.8190 0.8190 0.8210 0.8210 0.8220
1647.531800 0.8230 0.8280 0.8300 0.8310 0.8320
1654.157266 0.8340 0.8340 0.8350 0.8350 0.8350
1660.782731 0.8350 0.8360 0.8360 0.8360 0.8360
1667.408197 0.8360 0.8360 0.8360 0.8350 0.8350
1674.033663 0.8340 0.8340 0.8320 0.8310 0.8300
1680.659129 0.8280 0.8270 0.8260 0.8260 0.8250
1687.284594 0.8230 0.8230 0.8230 0.8230 0.8220
1693.910060 0.8220 0.8190 0.8180 0.8170 0.8150
1700.535526 0.8130 0.8130 0.8110 0.8100 0.8100
1707.160991 0.8090 0.8070 0.8050 0.8050 0.8030
1713.786457 0.8020 0.8020 0.8020 0.8010 0.8010
1720.411923 0.8000 0.7980 0.7970 0.7970 0.7960
1727.037389 0.7960 0.7930 0.7920 0.7880 0.7880
1733.662854 0.7860 0.7850 0.7810 0.7800 0.7800
1740.288320 0.7780 0.7770 0.7760 0.7760 0.7750
1746.913786 0.7730 0.7730 0.7720 0.7710 0.7710
1753.539251 0.7710 0.7690 0.7690 0.7680 0.7650
1760.164717 0.7650 0.7640 0.7640 0.7640 0.7630
1766.790183 0.7630 0.7630 0.7610 0.7600 0.7590
1773.415649 0.7590 0.7590 0.7570 0.7570 0.7560
1780.041114 0.7550 0.7530 0.7520 0.7510 0.7500
1786.666580 0.7480 0.7460 0.7440 0.7440 0.7420
1793.292046 0.7400 0.7380 0.7360 0.7350 0.7350
1799.917511 0.7340 0.7320 0.7320 0.7310 0.7310
1806.542977 0.7300 0.7300 0.7260 0.7260 0.7250
1813.168443 0.7250 0.7230 0.7230 0.7230 0.7220
1819.793909 0.7190 0.7180 0.7170 0.7150 0.7150
1826.419374 0.7130 0.7110 0.7100 0.7090 0.7070
1833.044840 0.7060 0.7050 0.7030 0.7010 0.7000
1839.670306 0.6980 0.6930 0.6920 0.6900 0.6900
1846.295771 0.6890 0.6860 0.6850 0.6820 0.6810
1852.921237 0.6800 0.6780 0.6780 0.6780 0.6780
1859.546703 0.6770 0.6770 0.6770 0.6780 0.6780
1866.172169 0.6800 0.6800 0.6800 0.6800 0.6800
1872.797634 0.6780 0.6770 0.6760 0.6750 0.6730
1879.423100 0.6730 0.6720 0.6720 0.6720 0.6720
1886.048566 0.6730 0.6750 0.6750 0.6750 0.6760
1892.674031 0.6760 0.6760 0.6760 0.6770 0.6770
1899.299497 0.6770 0.6780 0.6780 0.6780 0.6780
1905.924963 0.6780 0.6800 0.6800 0.6810 0.6820
1912.550429 0.6850 0.6890 0.6900 0.6920 0.6930
1919.175894 0.7020 0.7050 0.7060 0.7070 0.7090
1925.801360 0.7100 0.7100 0.7100 0.7110 0.7110
1932.426826 0.7130 0.7140 0.7140 0.7140 0.7130
1939.052291 0.7130 0.7130 0.7110 0.7110 0.7110
1945.677757 0.7110 0.7110 0.7130 0.7130 0.7130
1952.303223 0.7130 0.7130 0.7130 0.7130 0.7130
1958.928689 0.7130 0.7130 0.7110 0.7110 0.7110
1965.554154 0.7100 0.7100 0.7090 0.7090 0.7070
1972.179620 0.7070 0.7060 0.7050 0.7030 0.7010
1978.805086 0.7000 0.6980 0.6970 0.6930 0.6900
1985.430551 0.6890 0.6880 0.6880 0.6860 0.6860
1992.056017 0.6860 0.6880 0.6880 0.6880 0.6880
1998.681483 0.6890 0.6890 0.6890 0.6880 0.6880
2005.306949 0.6890 0.6890 0.6900 0.6920 0.6920
2011.932414 0.6930 0.6940 0.6960 0.6960 0.6970
2018.557880 0.6970 0.7000 0.7000 0.7000 0.7000
2025.183346 0.7000 0.6980 0.6980 0.6970 0.6960
2031.808811 0.6920 0.6890 0.6850 0.6840 0.6820
2038.434277 0.6800 0.6770 0.6760 0.6770 0.6800
2045.059743 0.6810 0.6820 0.6840 0.6850 0.6860
2051.685209 0.6860 0.6860 0.6880 0.6880 0.6880
2058.310674 0.6860 0.6850 0.6840 0.6820 0.6820
2064.936140 0.6820 0.6820 0.6810 0.6800 0.6800
2071.561606 0.6780 0.6780 0.6780 0.6780 0.6780
2078.187071 0.6770 0.6770 0.6760 0.6760 0.6760
2084.812537 0.6730 0.6730 0.6730 0.6720 0.6720
2091.438003 0.6720 0.6710 0.6710 0.6710 0.6710
2098.063469 0.6690 0.6690 0.6690 0.6690 0.6690
2104.688934 0.6690 0.6690 0.6690 0.6690 0.6690
2111.314400 0.6680 0.6680 0.6650 0.6650 0.6640
2117.939866 0.6630 0.6630 0.6630 0.6610 0.6610
2124.565331 0.6600 0.6600 0.6600 0.6600 0.6600
2131.190797 0.6590 0.6590 0.6570 0.6570 0.6570
2137.816263 0.6560 0.6560 0.6560 0.6550 0.6550
2144.441729 0.6530 0.6530 0.6530 0.6530 0.6530
2151.067194 0.6530 0.6530 0.6530 0.6520 0.6520
2157.692660 0.6520 0.6520 0.6510 0.6500 0.6500
2164.318126 0.6480 0.6480 0.6480 0.6470 0.6470
2170.943591 0.6460 0.6440 0.6430 0.6400 0.6380
2177.569057 0.6380 0.6360 0.6350 0.6350 0.6320
2184.194523 0.6320 0.6320 0.6310 0.6310 0.6320
2190.819989 0.6320 0.6350 0.6360 0.6380 0.6390
2197.445454 0.6380 0.6360 0.6360 0.6350 0.6350
2204.070920 0.6340 0.6320 0.6320 0.6320 0.6310
2210.696386 0.6310 0.6300 0.6280 0.6280 0.6270
2217.321852 0.6270 0.6270 0.6270 0.6270 0.6270
2223.947317 0.6260 0.6260 0.6250 0.6250 0.6250
2230.572783 0.6220 0.6220 0.6210 0.6210 0.6190
2237.198249 0.6190 0.6170 0.6110 0.6090 0.6070
2243.823714 0.6070 0.6060 0.6060 0.6050 0.6050
2250.449180 0.6050 0.6050 0.6030 0.6030 0.6020
2257.074646 0.6020 0.6010 0.6000 0.5980 0.5980
2263.700112 0.5980 0.5980 0.5970 0.5960 0.5940
2270.325577 0.5940 0.5940 0.5930 0.5930 0.5930
2276.951043 0.5930 0.5930 0.5930 0.5930 0.5930
2283.576509 0.5930 0.5920 0.5920 0.5900 0.5890
2290.201974 0.5880 0.5860 0.5850 0.5840 0.5820
2296.827440 0.5820 0.5810 0.5800 0.5770 0.5750
2303.452906 0.5730 0.5720 0.5710 0.5680 0.5670
2310.078372 0.5640 0.5640 0.5630 0.5630 0.5630
2316.703837 0.5630 0.5630 0.5630 0.5630 0.5630
2323.329303 0.5630 0.5630 0.5630 0.5610 0.5610
2329.954769 0.5600 0.5600 0.5600 0.5590 0.5590
2336.580234 0.5560 0.5530 0.5500 0.5480 0.5480
2343.205700 0.5470 0.5470 0.5480 0.5480 0.5470
2349.831166 0.5470 0.5470 0.5460 0.5460 0.5440
2356.456632 0.5430 0.5430 0.5420 0.5420 0.5420
2363.082097 0.5420 0.5420 0.5420 0.5400 0.5400
2369.707563 0.5390 0.5380 0.5360 0.5360 0.5350
2376.333029 0.5350 0.5350 0.5350 0.5350 0.5350
2382.958494 0.5320 0.5310 0.5280 0.5250 0.5210
2389.583960 0.5180 0.5170 0.5170 0.5170 0.5170
2396.209426 0.5170 0.5150 0.5150 0.5140 0.5140
2402.834892 0.5130 0.5110 0.5100 0.5090 0.5060
2409.460357 0.5050 0.5030 0.5020 0.5020 0.5020
2416.085823 0.5030 0.5050 0.5050 0.5060 0.5110
2422.711289 0.5110 0.5100 0.5050 0.5020 0.5020
2429.336754 0.5000 0.4970 0.4930 0.4900 0.4890
2435.962220 0.4850 0.4820 0.4780 0.4760 0.4710
2442.587686 0.4690 0.4670 0.4650 0.4640 0.4630
2449.213152 0.4610 0.4610 0.4630 0.4630 0.4650
2455.838617 0.4680 0.4680 0.4720 0.4750 0.4730
2462.464083 0.4720 0.4720 0.4710 0.4690 0.4680
2469.089549 0.4670 0.4650 0.4640 0.4640 0.4630
2475.715014 0.4630 0.4610 0.4610 0.4600 0.4590
2482.340480 0.4560 0.4550 0.4520 0.4520 0.4500
2488.965946 0.4460 0.4430 0.4390 0.4380 0.4350
2495.591412 0.4340 0.4300 0.4270 0.4230 0.4210
2502.216877 0.4180 0.4190 0.4230 0.4230 0.4260
2508.842343 0.4270 0.4300 0.4300 0.4280 0.4280
2515.467809 0.4300 0.4310 0.4300 0.4260 0.4210
2522.093274 0.4180 0.4140 0.4100 0.4090 0.4020
2528.718740 0.4010 0.3980 0.3960 0.3940 0.3940
2535.344206 0.3930 0.3930 0.3920 0.3900 0.3890
2541.969672 0.3880 0.3880 0.3880 0.3860 0.3860
2548.595137 0.3850 0.3850 0.3840 0.3810 0.3800
2555.220603 0.3780 0.3770 0.3780 0.3810 0.3820
2561.846069 0.3860 0.3890 0.3880 0.3880 0.3860
2568.471534 0.3840 0.3810 0.3780 0.3750 0.3730
2575.097000 0.3690 0.3670 0.3630 0.3600 0.3560
2581.722466 0.3550 0.3530 0.3550 0.3590 0.3630
2588.347932 0.3650 0.3690 0.3720 0.3810 0.3890
2594.973397 0.3960 0.4000 0.4010 0.4010 0.4000
2601.598863 0.4000 0.3980 0.3980 0.3980 0.3970
2608.224329 0.3960 0.3930 0.3900 0.3850 0.3840
2614.849794 0.3800 0.3770 0.3760 0.3730 0.3690
2621.475260 0.3680 0.3680 0.3680 0.3690 0.3690
2628.100726 0.3710 0.3720 0.3720 0.3730 0.3730
2634.726192 0.3720 0.3720 0.3710 0.3690 0.3690
2641.351657 0.3670 0.3630 0.3600 0.3560 0.3530
2647.977123 0.3510 0.3500 0.3460 0.3420 0.3380
2654.602589 0.3360 0.3310 0.3300 0.3300 0.3280
2661.228054 0.3270 0.3260 0.3260 0.3250 0.3260
2667.853520 0.3270 0.3300 0.3320 0.3320 0.3300
2674.478986 0.3300 0.3300 0.3300 0.3300 0.3280
2681.104452 0.3270 0.3280 0.3340 0.3360 0.3380
2687.729917 0.3390 0.3420 0.3420 0.3390 0.3360
2694.355383 0.3350 0.3320 0.3310 0.3280 0.3260
2700.980849 0.3230 0.3190 0.3150 0.3130 0.3100
2707.606314 0.3070 0.3050 0.3020 0.2970 0.2920
2714.231780 0.2890 0.2880 0.2880 0.2880 0.2890
2720.857246 0.2900 0.2920 0.2920 0.2920 0.2900
2727.482712 0.2890 0.2880 0.2860 0.2840 0.2810
2734.108177 0.2780 0.2760 0.2750 0.2720 0.2720
2740.733643 0.2710 0.2710 0.2710 0.2690 0.2690
2747.359109 0.2680 0.2680 0.2630 0.2610 0.2600
2753.984574 0.2600 0.2600 0.2600 0.2570 0.2550
2760.610040 0.2530 0.2480 0.2480 0.2470 0.2460
2767.235506 0.2440 0.2430 0.2420 0.2420 0.2400
2773.860972 0.2390 0.2360 0.2320 0.2300 0.2280
2780.486437 0.2270 0.2260 0.2230 0.2220 0.2210
2787.111903 0.2210 0.2180 0.2180 0.2170 0.2150
2793.737369 0.2150 0.2140 0.2130 0.2130 0.2110
2800.362834 0.2100 0.2090 0.2070 0.2060 0.2060
2806.988300 0.2050 0.2030 0.2010 0.2010 0.2000
2813.613766 0.2000 0.1980 0.1980 0.1970 0.1970
2820.239232 0.1960 0.1960 0.1960 0.1940 0.1940
2826.864697 0.1940 0.1930 0.1930 0.1920 0.1920
2833.490163 0.1920 0.1920 0.1890 0.1890 0.1860
2840.115629 0.1860 0.1850 0.1850 0.1840 0.1840
2846.741094 0.1840 0.1840 0.1840 0.1840 0.1840
2853.366560 0.1840 0.1820 0.1820 0.1820 0.1810
2859.992026 0.1810 0.1810 0.1810 0.1810 0.1810
2866.617492 0.1810 0.1820 0.1840 0.1840 0.1840
2873.242957 0.1840 0.1840 0.1840 0.1840 0.1840
2879.868423 0.1840 0.1840 0.1840 0.1840 0.1840
2886.493889 0.1840 0.1840 0.1840 0.1840 0.1840
2893.119354 0.1840 0.1840 0.1840 0.1840 0.1840
2899.744820 0.1840 0.1840 0.1840 0.1840 0.1840
2906.370286 0.1840 0.1840 0.1840 0.1840 0.1840
2912.995752 0.1820 0.1820 0.1810 0.1810 0.1810
2919.621217 0.1810 0.1820 0.1820 0.1820 0.1840
2926.246683 0.1840 0.1820 0.1840 0.1840 0.1840
2932.872149 0.1840 0.1850 0.1850 0.1850 0.1850
2939.497614 0.1860 0.1860 0.1860 0.1860 0.1860
2946.123080 0.1860 0.1860 0.1880 0.1880 0.1880
2952.748546 0.1880 0.1880 0.1890 0.1890 0.1900
2959.374012 0.1900 0.1900 0.1900 0.1900 0.1900
2965.999477 0.1900 0.1900 0.1900 0.1890 0.1890
2972.624943 0.1890 0.1880 0.1880 0.1880 0.1880
2979.250409 0.1880 0.1880 0.1880 0.1890 0.1890
2985.875874 0.1890 0.1890 0.1890 0.1900 0.1900
2992.501340 0.1900 0.1900 0.1900 0.1920 0.1920
2999.126806 0.1930 0.1930 0.1930 0.1940 0.1940
3005.752272 0.1930 0.1920 0.1920 0.1890 0.1890
3012.377737 0.1880 0.1880 0.1880 0.1890 0.1930
3019.003203 0.1970 0.1970 0.2000 0.2060 0.2070
3025.628669 0.2090 0.2090 0.2100 0.2100 0.2110
3032.254134 0.2210 0.2270 0.2320 0.2390 0.2420
3038.879600 0.2430 0.2460 0.2460 0.2470 0.2480
3045.505066 0.2500 0.2500 0.2510 0.2510 0.2520
3052.130532 0.2520 0.2530 0.2530 0.2560 0.2570
3058.755997 0.2600 0.2610 0.2630 0.2640 0.2650
3065.381463 0.2650 0.2650 0.2670 0.2670 0.2690
3072.006929 0.2690 0.2710 0.2710 0.2720 0.2730
3078.632394 0.2730 0.2750 0.2760 0.2760 0.2770
3085.257860 0.2780 0.2780 0.2840 0.2890 0.2960
3091.883326 0.3000 0.3010 0.3010 0.3030 0.3030
3098.508792 0.3050 0.3060 0.3090 0.3100 0.3130
3105.134257 0.3140 0.3150 0.3180 0.3190 0.3210
3111.759723 0.3220 0.3230 0.3230 0.3260 0.3300
3118.385189 0.3310 0.3340 0.3430 0.3510 0.3550
3125.010654 0.3610 0.3680 0.3731 0.3810 0.3860
3131.636120 0.3900 0.3940 0.3970 0.4050 0.4110
3138.261586 0.4180 0.4250 0.4270 0.4300 0.4350
3144.887052 0.4420 0.4430 0.4480 0.4570 0.4650
3151.512517 0.4710 0.4760 0.4811 0.4881 0.4960
3158.137983 0.5011 0.5131 0.5250 0.5270 0.5300
3164.763449 0.5320 0.5360 0.5421 0.5500 0.5520
3171.388914 0.5570 0.5600 0.5610 0.5610 0.5630
3178.014380 0.5650 0.5761 0.5861 0.5930 0.5970
3184.639846 0.6031 0.6140 0.6230 0.6320 0.6430
3191.265312 0.6500 0.6560 0.6591 0.6680 0.6750
3197.890777 0.6760 0.6821 0.7050 0.7140 0.7180
3204.516243 0.7190 0.7220 0.7250 0.7271 0.7400
3211.141709 0.7430 0.7460 0.7480 0.7520 0.7560
3217.767174 0.7610 0.7671 0.7730 0.7760 0.7800
3224.392640 0.7840 0.7890 0.7930 0.7940 0.7960
3231.018106 0.7980 0.8000 0.8010 0.8020 0.8070
3237.643572 0.8130 0.8140 0.8150 0.8170 0.8180
3244.269037 0.8180 0.8190 0.8210 0.8220 0.8250
3250.894503 0.8270 0.8280 0.8300 0.8300 0.8310
3257.519969 0.8310 0.8310 0.8320 0.8340 0.8340
3264.145434 0.8350 0.8360 0.8360 0.8360 0.8360
3270.770900 0.8360 0.8360 0.8350 0.8350 0.8360
3277.396366 0.8360 0.8380 0.8380 0.8390 0.8390
3284.021832 0.8400 0.8400 0.8400 0.8390 0.8360
3290.647297 0.8360 0.8360 0.8360 0.8380 0.8380
3297.272763 0.8360 0.8360 0.8350 0.8350 0.8350
3303.898229 0.8350 0.8340 0.8340 0.8320 0.8320
3310.523694 0.8300 0.8270 0.8260 0.8230 0.8220
3317.149160 0.8220 0.8210 0.8190 0.8180 0.8170
3323.774626 0.8150 0.8150 0.8140 0.8140 0.8130
3330.400092 0.8100 0.8090 0.8050 0.8030 0.8010
3337.025557 0.8000 0.7960 0.7940 0.7920 0.7920
3343.651023 0.7890 0.7880 0.7850 0.7840 0.7810
3350.276489 0.7780 0.7760 0.7750 0.7730 0.7710
3356.901954 0.7690 0.7680 0.7670 0.7640 0.7610
3363.527420 0.7590 0.7570 0.7550 0.7530 0.7510
3370.152886 0.7500 0.7470 0.7460 0.7430 0.7400
3376.778352 0.7380 0.7360 0.7340 0.7320 0.7310
3383.403817 0.7280 0.7270 0.7250 0.7230 0.7220
3390.029283 0.7190 0.7170 0.7150 0.7140 0.7130
3396.654749 0.7110 0.7100 0.7090 0.7070 0.7070
3403.280214 0.7070 0.7060 0.7050 0.7050 0.7030
3409.905680 0.7030 0.7020 0.7010 0.7010 0.7000
3416.531146 0.7000 0.7000 0.6980 0.6980 0.6980
3423.156612 0.6970 0.6970 0.6960 0.6960 0.6940
3429.782077 0.6930 0.6930 0.6930 0.6930 0.6920
3436.407543 0.6920 0.6900 0.6880 0.6880 0.6860
3443.033009 0.6860 0.6860 0.6880 0.6890 0.6890
3449.658474 0.6890 0.6900 0.6900 0.6920 0.6920
3456.283940 0.6930 0.6930 0.6940 0.6940 0.6940
3462.909406 0.6930 0.6930 0.6940 0.6940 0.6940
3469.534872 0.6960 0.6960 0.6960 0.6960 0.6960
3476.160337 0.6960 0.6940 0.6940 0.6940 0.6940
3482.785803 0.6960 0.6960 0.6960 0.6970 0.6970
3489.411269 0.6970 0.6980 0.6980 0.7000 0.7000
3496.036734 0.7000 0.7000 0.7000 0.7000 0.7000
3502.662200 0.7000 0.7000 0.7010 0.7020 0.7020
3509.287666 0.7020 0.7030 0.7030 0.7050 0.7050
3515.913132 0.7060 0.7070 0.7090 0.7090 0.7100
3522.538597 0.7110 0.7110 0.7130 0.7130 0.7130
3529.164063 0.7140 0.7140 0.7150 0.7150 0.7170
3535.789529 0.7170 0.7180 0.7190 0.7210 0.7220
3542.414994 0.7230 0.7250 0.7260 0.7260 0.7260
3549.040460 0.7260 0.7260 0.7270 0.7270 0.7270
3555.665926 0.7270 0.7260 0.7260 0.7270 0.7270
3562.291392 0.7280 0.7300 0.7320 0.7340 0.7340
3568.916857 0.7350 0.7350 0.7350 0.7360 0.7350
3575.542323 0.7360 0.7360 0.7360 0.7380 0.7380
3582.167789 0.7380 0.7390 0.7390 0.7400 0.7400
3588.793254 0.7420 0.7430 0.7440 0.7440 0.7460
3595.418720 0.7460 0.7460 0.7460 0.7460 0.7440
3602.044186 0.7440 0.7440 0.7460 0.7470 0.7480
3608.669652 0.7480 0.7500 0.7510 0.7520 0.7530
3615.295117 0.7530 0.7530 0.7530 0.7530 0.7530
3621.920583 0.7530 0.7530 0.7530 0.7530 0.7530
3628.546049 0.7530 0.7550 0.7550 0.7550 0.7560
3635.171514 0.7570 0.7570 0.7570 0.7590 0.7590
3641.796980 0.7570 0.7560 0.7550 0.7530 0.7520
3648.422446 0.7520 0.7520 0.7520 0.7520 0.7520
3655.047912 0.7520 0.7520 0.7520 0.7510 0.7510
3661.673377 0.7500 0.7480 0.7470 0.7460 0.7440
3668.298843 0.7430 0.7430 0.7420 0.7420 0.7390
3674.924309 0.7390 0.7380 0.7380 0.7380 0.7390
3681.549774 0.7420 0.7430 0.7440 0.7460 0.7460
3688.175240 0.7470 0.7480 0.7480 0.7480 0.7480
3694.800706 0.7470 0.7470 0.7470 0.7470 0.7460
3701.426172 0.7440 0.7440 0.7430 0.7430 0.7420
3708.051637 0.7420 0.7400 0.7400 0.7400 0.7400
3714.677103 0.7390 0.7390 0.7390 0.7390 0.7390
3721.302569 0.7380 0.7380 0.7380 0.7380 0.7360
3727.928034 0.7360 0.7360 0.7350 0.7350 0.7350
3734.553500 0.7340 0.7340 0.7340 0.7340 0.7320
3741.178966 0.7320 0.7320 0.7310 0.7310 0.7310
3747.804432 0.7310 0.7300 0.7300 0.7300 0.7300
3754.429897 0.7280 0.7280 0.7280 0.7280 0.7270
3761.055363 0.7270 0.7270 0.7260 0.7260 0.7260
3767.680829 0.7250 0.7250 0.7250 0.7230 0.7230
3774.306294 0.7230 0.7220 0.7220 0.7220 0.7220
3780.931760 0.7220 0.7210 0.7210 0.7210 0.7210
3787.557226 0.7190 0.7190 0.7180 0.7180 0.7170
3794.182692 0.7170 0.7170 0.7170 0.7170 0.7150
3800.808157 0.7150 0.7150 0.7150 0.7140 0.7140
3807.433623 0.7140 0.7140 0.7130 0.7130 0.7130
3814.059089 0.7130 0.7130 0.7110 0.7110 0.7110
3820.684554 0.7110 0.7100 0.7100 0.7100 0.7100
3827.310020 0.7090 0.7090 0.7090 0.7090 0.7070
3833.935486 0.7070 0.7070 0.7070 0.7070 0.7070
3840.560952 0.7050 0.7050 0.7050 0.7050 0.7030
3847.186417 0.7030 0.7030 0.7020 0.7020 0.7020
3853.811883 0.7020 0.7020 0.7020 0.7020 0.7010
3860.437349 0.7010 0.7010 0.7010 0.7010 0.7000
3867.062814 0.7000 0.7000 0.7000 0.7000 0.6980
3873.688280 0.6970 0.6970 0.6960 0.6960 0.6940
3880.313746 0.6940 0.6930 0.6930 0.6930 0.6930
3886.939212 0.6930 0.6930 0.6930 0.6930 0.6920
3893.564677 0.6920 0.6900 0.6900 0.6890 0.6890
3900.190143 0.6890 0.6880 0.6880 0.6880 0.6860
3906.815609 0.6860 0.6860 0.6860 0.6860 0.6860
3913.441074 0.6860 0.6850 0.6840 0.6840 0.6840
3920.066540 0.6840 0.6820 0.6820 0.6820 0.6820
3926.692006 0.6810 0.6810 0.6810 0.6810 0.6810
3933.317472 0.6810 0.6810 0.6810 0.6800 0.6800
3939.942937 0.6800 0.6800 0.6780 0.6780 0.6780
3946.568403 0.6780 0.6780 0.6760 0.6760 0.6730
3953.193869 0.6710 0.6690 0.6690 0.6690 0.6690
3959.819334 0.6680 0.6680 0.6680 0.6680 0.6680
3966.444800 0.6680 0.6680 0.6680 0.6690 0.6690
3973.070266 0.6690 0.6690 0.6680 0.6680 0.6680
3979.695732 0.6680 0.6680 0.6680 0.6680 0.6680
3986.321197 0.6680 0.6680 0.6680 0.6680 0.6680
3992.946663 0.6680 0.6680 0.6680 0.6680 0.6680
##END=
