##TITLE=DEUTERIUM OXIDE
##JCAMP-DX=4.24
##DATA TYPE=INFRARED SPECTRUM
##CLASS=COBLENTZ III
##ORIGIN=DOW CHEMICAL COMPANY
##OWNER=COBLENTZ SOCIETY
Collection (C) 2018 copyright by the U.S. Secretary of Commerce
on behalf of the United States of America. All rights reserved.
##DATE=1964/06/10
##MOLFORM=D2 O
##SOURCE REFERENCE=COBLENTZ NO. 10117
##$NIST ID=B6010117
##$NIST SOURCE=COBLENTZ
##$NIST IMAGE=cob10117
##SPECTROMETER/DATA SYSTEM=BECKMAN IR-9 (GRATING)
##INSTRUMENT PARAMETERS=ORDER CHANGES AT 670, 1200, 2000 CM^-^1
##STATE=LIQUID (NEAT)
##PATH LENGTH=0.005 CM, BaF2 CELL
$$ SPECTRAL FEATURE CENTERED AROUND 3430 CM^-^1 BELONGS TO H2O
##SAMPLING PROCEDURE=TRANSMISSION
##RESOLUTION=4
##DATA PROCESSING=DIGITIZED BY NIST FROM HARD COPY (FROM TWO SEGMENTS)
##XUNITS=1/CM
##YUNITS=TRANSMITTANCE
##XFACTOR=1.000000
##YFACTOR=1
##DELTAX=0.871461
##FIRSTX=699.782
##LASTX=3799.57
##FIRSTY=0.001
##MAXX=3799.57
##MINX=699.782
##MAXY=0.997
##MINY=0
##NPOINTS=3558
##XYDATA=(X++(Y..Y))
699.782000 0.0010 0.0010 0.0010 0.0010 0.0000
704.139303 0.0000 0.0000 0.0000 0.0000 0.0000
708.496605 0.0000 0.0000 0.0000 0.0000 0.0000
712.853908 0.0000 0.0000 0.0000 0.0000 0.0000
717.211210 0.0000 0.0000 0.0000 0.0000 0.0000
721.568513 0.0000 0.0000 0.0000 0.0000 0.0000
725.925815 0.0000 0.0000 0.0000 0.0000 0.0000
730.283118 0.0000 0.0000 0.0000 0.0000 0.0000
734.640421 0.0000 0.0000 0.0000 0.0000 0.0000
738.997723 0.0000 0.0000 0.0000 0.0000 0.0000
743.355026 0.0000 0.0000 0.0000 0.0000 0.0000
747.712328 0.0000 0.0000 0.0000 0.0010 0.0010
752.069631 0.0000 0.0000 0.0000 0.0010 0.0010
756.426933 0.0010 0.0010 0.0020 0.0040 0.0060
760.784236 0.0080 0.0080 0.0080 0.0080 0.0090
765.141539 0.0090 0.0090 0.0090 0.0100 0.0100
769.498841 0.0100 0.0100 0.0120 0.0120 0.0120
773.856144 0.0130 0.0150 0.0150 0.0160 0.0160
778.213446 0.0150 0.0150 0.0150 0.0160 0.0160
782.570749 0.0160 0.0160 0.0170 0.0170 0.0190
786.928051 0.0200 0.0210 0.0210 0.0230 0.0240
791.285354 0.0250 0.0250 0.0270 0.0270 0.0270
795.642657 0.0270 0.0280 0.0280 0.0310 0.0310
799.999959 0.0310 0.0320 0.0350 0.0350 0.0350
804.357262 0.0360 0.0360 0.0380 0.0380 0.0390
808.714564 0.0410 0.0420 0.0430 0.0460 0.0460
813.071867 0.0460 0.0470 0.0470 0.0490 0.0490
817.429170 0.0490 0.0500 0.0510 0.0530 0.0540
821.786472 0.0560 0.0570 0.0580 0.0600 0.0600
826.143775 0.0610 0.0610 0.0610 0.0620 0.0640
830.501077 0.0640 0.0650 0.0650 0.0650 0.0670
834.858380 0.0680 0.0680 0.0690 0.0690 0.0710
839.215682 0.0720 0.0750 0.0770 0.0770 0.0770
843.572985 0.0790 0.0790 0.0800 0.0800 0.0820
847.930288 0.0830 0.0860 0.0870 0.0880 0.0900
852.287590 0.0910 0.0910 0.0910 0.0930 0.0930
856.644893 0.0930 0.0930 0.0940 0.0950 0.0980
861.002195 0.0990 0.1010 0.1010 0.1010 0.1010
865.359498 0.1010 0.1020 0.1020 0.1030 0.1030
869.716800 0.1050 0.1060 0.1060 0.1080 0.1090
874.074103 0.1100 0.1120 0.1120 0.1120 0.1120
878.431406 0.1130 0.1140 0.1170 0.1170 0.1170
882.788708 0.1170 0.1190 0.1200 0.1210 0.1230
887.146011 0.1230 0.1230 0.1250 0.1250 0.1270
891.503313 0.1270 0.1280 0.1320 0.1360 0.1360
895.860616 0.1390 0.1390 0.1390 0.1390 0.1390
900.217918 0.1400 0.1430 0.1430 0.1430 0.1430
904.575221 0.1430 0.1450 0.1450 0.1460 0.1460
908.932524 0.1490 0.1500 0.1530 0.1530 0.1540
913.289826 0.1550 0.1550 0.1570 0.1570 0.1570
917.647129 0.1570 0.1570 0.1570 0.1580 0.1580
922.004431 0.1580 0.1580 0.1580 0.1580 0.1580
926.361734 0.1580 0.1580 0.1580 0.1600 0.1600
930.719036 0.1610 0.1610 0.1610 0.1610 0.1620
935.076339 0.1620 0.1640 0.1640 0.1640 0.1640
939.433642 0.1640 0.1650 0.1650 0.1650 0.1650
943.790944 0.1660 0.1660 0.1680 0.1680 0.1680
948.148247 0.1700 0.1700 0.1700 0.1720 0.1720
952.505549 0.1720 0.1720 0.1720 0.1720 0.1720
956.862852 0.1720 0.1720 0.1720 0.1720 0.1720
961.220154 0.1720 0.1730 0.1730 0.1730 0.1750
965.577457 0.1760 0.1760 0.1760 0.1760 0.1790
969.934760 0.1790 0.1800 0.1800 0.1800 0.1800
974.292062 0.1800 0.1800 0.1800 0.1800 0.1800
978.649365 0.1810 0.1810 0.1810 0.1830 0.1830
983.006667 0.1830 0.1830 0.1830 0.1830 0.1830
987.363970 0.1830 0.1830 0.1830 0.1830 0.1830
991.721273 0.1830 0.1840 0.1840 0.1840 0.1840
996.078575 0.1840 0.1840 0.1840 0.1840 0.1840
1000.435878 0.1840 0.1840 0.1840 0.1860 0.1860
1004.793180 0.1860 0.1860 0.1870 0.1880 0.1880
1009.150483 0.1880 0.1880 0.1880 0.1880 0.1880
1013.507785 0.1880 0.1880 0.1880 0.1880 0.1880
1017.865088 0.1880 0.1880 0.1880 0.1880 0.1880
1022.222391 0.1880 0.1880 0.1880 0.1880 0.1880
1026.579693 0.1880 0.1880 0.1880 0.1880 0.1880
1030.936996 0.1880 0.1880 0.1880 0.1880 0.1880
1035.294298 0.1880 0.1880 0.1880 0.1880 0.1880
1039.651601 0.1880 0.1880 0.1880 0.1880 0.1880
1044.008903 0.1880 0.1880 0.1880 0.1880 0.1880
1048.366206 0.1880 0.1880 0.1870 0.1860 0.1860
1052.723509 0.1840 0.1840 0.1840 0.1840 0.1840
1057.080811 0.1840 0.1840 0.1840 0.1840 0.1840
1061.438114 0.1840 0.1840 0.1810 0.1810 0.1810
1065.795416 0.1810 0.1810 0.1810 0.1810 0.1810
1070.152719 0.1800 0.1800 0.1800 0.1800 0.1800
1074.510021 0.1800 0.1800 0.1790 0.1790 0.1760
1078.867324 0.1750 0.1750 0.1730 0.1730 0.1720
1083.224627 0.1720 0.1720 0.1720 0.1720 0.1720
1087.581929 0.1720 0.1720 0.1720 0.1720 0.1720
1091.939232 0.1720 0.1690 0.1680 0.1660 0.1660
1096.296534 0.1660 0.1660 0.1660 0.1650 0.1650
1100.653837 0.1640 0.1620 0.1610 0.1600 0.1600
1105.011139 0.1600 0.1600 0.1580 0.1580 0.1580
1109.368442 0.1580 0.1550 0.1540 0.1530 0.1510
1113.725745 0.1500 0.1500 0.1470 0.1450 0.1430
1118.083047 0.1430 0.1430 0.1420 0.1420 0.1420
1122.440350 0.1390 0.1390 0.1380 0.1380 0.1360
1126.797652 0.1350 0.1320 0.1290 0.1270 0.1250
1131.154955 0.1240 0.1170 0.1170 0.1140 0.1130
1135.512257 0.1090 0.1060 0.1020 0.1020 0.1010
1139.869560 0.1010 0.0990 0.0980 0.0940 0.0930
1144.226863 0.0880 0.0870 0.0860 0.0840 0.0830
1148.584165 0.0820 0.0800 0.0800 0.0750 0.0710
1152.941468 0.0690 0.0670 0.0670 0.0650 0.0640
1157.298770 0.0610 0.0580 0.0560 0.0540 0.0510
1161.656073 0.0490 0.0450 0.0430 0.0420 0.0410
1166.013375 0.0390 0.0380 0.0360 0.0350 0.0340
1170.370678 0.0320 0.0300 0.0280 0.0270 0.0250
1174.727981 0.0240 0.0230 0.0200 0.0190 0.0170
1179.085283 0.0170 0.0160 0.0150 0.0150 0.0130
1183.442586 0.0130 0.0120 0.0120 0.0120 0.0120
1187.799888 0.0100 0.0100 0.0100 0.0100 0.0090
1192.157191 0.0090 0.0090 0.0090 0.0090 0.0090
1196.514494 0.0090 0.0080 0.0080 0.0090 0.0090
1200.871796 0.0080 0.0080 0.0080 0.0080 0.0060
1205.229099 0.0060 0.0060 0.0060 0.0050 0.0050
1209.586401 0.0040 0.0040 0.0040 0.0040 0.0020
1213.943704 0.0020 0.0020 0.0020 0.0020 0.0020
1218.301006 0.0010 0.0010 0.0010 0.0010 0.0010
1222.658309 0.0010 0.0010 0.0010 0.0010 0.0010
1227.015612 0.0010 0.0010 0.0010 0.0010 0.0010
1231.372914 0.0010 0.0010 0.0010 0.0010 0.0010
1235.730217 0.0010 0.0010 0.0010 0.0010 0.0010
1240.087519 0.0010 0.0010 0.0010 0.0010 0.0010
1244.444822 0.0010 0.0020 0.0040 0.0040 0.0060
1248.802124 0.0090 0.0100 0.0120 0.0120 0.0160
1253.159427 0.0170 0.0210 0.0250 0.0300 0.0320
1257.516730 0.0390 0.0420 0.0510 0.0540 0.0570
1261.874032 0.0620 0.0710 0.0720 0.0790 0.0830
1266.231335 0.0910 0.1010 0.1140 0.1160 0.1250
1270.588637 0.1390 0.1510 0.1570 0.1640 0.1650
1274.945940 0.1730 0.1830 0.1910 0.2010 0.2010
1279.303242 0.2070 0.2160 0.2240 0.2349 0.2420
1283.660545 0.2440 0.2510 0.2570 0.2620 0.2680
1288.017848 0.2740 0.2770 0.2870 0.2960 0.3030
1292.375150 0.3170 0.3170 0.3250 0.3310 0.3370
1296.732453 0.3400 0.3460 0.3480 0.3540 0.3590
1301.089755 0.3650 0.3730 0.3800 0.3830 0.3890
1305.447058 0.3920 0.3990 0.4020 0.4060 0.4070
1309.804360 0.4090 0.4170 0.4240 0.4280 0.4280
1314.161663 0.4350 0.4390 0.4450 0.4450 0.4450
1318.518966 0.4480 0.4560 0.4580 0.4660 0.4690
1322.876268 0.4700 0.4730 0.4770 0.4770 0.4780
1327.233571 0.4820 0.4880 0.4890 0.4920 0.4920
1331.590873 0.4960 0.5000 0.5020 0.5020 0.5030
1335.948176 0.5060 0.5080 0.5110 0.5140 0.5180
1340.305478 0.5190 0.5230 0.5260 0.5280 0.5280
1344.662781 0.5280 0.5280 0.5290 0.5300 0.5360
1349.020084 0.5360 0.5360 0.5370 0.5400 0.5430
1353.377386 0.5440 0.5440 0.5450 0.5490 0.5510
1357.734689 0.5510 0.5520 0.5520 0.5520 0.5560
1362.091991 0.5580 0.5600 0.5600 0.5620 0.5620
1366.449294 0.5620 0.5620 0.5620 0.5620 0.5630
1370.806597 0.5630 0.5640 0.5640 0.5640 0.5640
1375.163899 0.5660 0.5670 0.5670 0.5660 0.5660
1379.521202 0.5640 0.5640 0.5640 0.5640 0.5640
1383.878504 0.5660 0.5660 0.5660 0.5660 0.5660
1388.235807 0.5690 0.5730 0.5700 0.5690 0.5670
1392.593109 0.5670 0.5670 0.5670 0.5690 0.5730
1396.950412 0.5730 0.5640 0.5640 0.5640 0.5630
1401.307715 0.5580 0.5560 0.5550 0.5550 0.5550
1405.665017 0.5600 0.5600 0.5560 0.5540 0.5540
1410.022320 0.5520 0.5510 0.5510 0.5490 0.5490
1414.379622 0.5480 0.5480 0.5450 0.5450 0.5440
1418.736925 0.5440 0.5440 0.5440 0.5470 0.5281
1423.094227 0.5280 0.5250 0.5250 0.5250 0.5230
1427.451530 0.5230 0.5180 0.5180 0.5170 0.5170
1431.808833 0.5150 0.5120 0.5120 0.5080 0.5070
1436.166135 0.5040 0.5030 0.5030 0.5030 0.5000
1440.523438 0.4920 0.4880 0.4880 0.4880 0.4870
1444.880740 0.4840 0.4810 0.4800 0.4780 0.4770
1449.238043 0.4770 0.4760 0.4740 0.4700 0.4670
1453.595345 0.4670 0.4660 0.4650 0.4620 0.4620
1457.952648 0.4650 0.4650 0.4630 0.4620 0.4560
1462.309951 0.4450 0.4410 0.4400 0.4400 0.4400
1466.667253 0.4390 0.4370 0.4350 0.4300 0.4300
1471.024556 0.4280 0.4280 0.4290 0.4290 0.4290
1475.381858 0.4290 0.4260 0.4260 0.4250 0.4180
1479.739161 0.4110 0.4110 0.4100 0.4100 0.4100
1484.096463 0.4070 0.4070 0.4060 0.4060 0.4060
1488.453766 0.4060 0.4060 0.4060 0.4060 0.4060
1492.811069 0.4040 0.4000 0.4000 0.3990 0.3990
1497.168371 0.4000 0.4000 0.4000 0.4000 0.3990
1501.525674 0.3960 0.3890 0.3880 0.3880 0.3880
1505.882976 0.3890 0.3950 0.3960 0.3980 0.3980
1510.240279 0.3980 0.3950 0.3880 0.3870 0.3840
1514.597581 0.3800 0.3780 0.3780 0.3780 0.3780
1518.954884 0.3780 0.3770 0.3770 0.3780 0.3800
1523.312187 0.3780 0.3780 0.3740 0.3730 0.3730
1527.669489 0.3720 0.3720 0.3720 0.3670 0.3630
1532.026792 0.3630 0.3620 0.3620 0.3620 0.3620
1536.384094 0.3610 0.3610 0.3610 0.3610 0.3620
1540.741397 0.3630 0.3650 0.3650 0.3650 0.3650
1545.098700 0.3650 0.3630 0.3620 0.3540 0.3510
1549.456002 0.3500 0.3480 0.3480 0.3470 0.3460
1553.813305 0.3460 0.3470 0.3480 0.3480 0.3480
1558.170607 0.3510 0.3540 0.3550 0.3610 0.3610
1562.527910 0.3480 0.3470 0.3460 0.3460 0.3460
1566.885212 0.3470 0.3470 0.3470 0.3470 0.3480
1571.242515 0.3520 0.3520 0.3480 0.3480 0.3510
1575.599818 0.3520 0.3520 0.3540 0.3550 0.3540
1579.957120 0.3540 0.3540 0.3520 0.3520 0.3520
1584.314423 0.3520 0.3540 0.3540 0.3540 0.3540
1588.671725 0.3550 0.3550 0.3580 0.3620 0.3630
1593.029028 0.3650 0.3660 0.3690 0.3690 0.3700
1597.386330 0.3700 0.3720 0.3730 0.3760 0.3780
1601.743633 0.3800 0.3810 0.3810 0.3840 0.3870
1606.100936 0.3870 0.3870 0.3870 0.3880 0.3890
1610.458238 0.3910 0.3910 0.3930 0.3950 0.3950
1614.815541 0.3960 0.3960 0.3990 0.4060 0.4100
1619.172843 0.4100 0.4090 0.4090 0.4090 0.4100
1623.530146 0.4100 0.4140 0.4150 0.4150 0.4170
1627.887448 0.4170 0.4180 0.4180 0.4180 0.4210
1632.244751 0.4210 0.4210 0.4210 0.4250 0.4280
1636.602054 0.4400 0.4440 0.4440 0.4440 0.4440
1640.959356 0.4410 0.4410 0.4440 0.4440 0.4450
1645.316659 0.4450 0.4470 0.4480 0.4560 0.4580
1649.673961 0.4590 0.4590 0.4590 0.4620 0.4650
1654.031264 0.4770 0.4800 0.4820 0.4810 0.4810
1658.388566 0.4780 0.4780 0.4780 0.4780 0.4800
1662.745869 0.4810 0.4840 0.4880 0.4890 0.4910
1667.103172 0.4910 0.4910 0.4920 0.4950 0.4990
1671.460474 0.5030 0.5060 0.5070 0.5070 0.5070
1675.817777 0.5070 0.5140 0.5150 0.5150 0.5170
1680.175079 0.5150 0.5170 0.5190 0.5250 0.5250
1684.532382 0.5260 0.5340 0.5380 0.5480 0.5480
1688.889684 0.5480 0.5480 0.5480 0.5490 0.5490
1693.246987 0.5490 0.5510 0.5510 0.5580 0.5630
1697.604290 0.5740 0.5740 0.5730 0.5710 0.5740
1701.961592 0.5890 0.5890 0.5840 0.5810 0.5810
1706.318895 0.5820 0.5840 0.5860 0.5900 0.5900
1710.676197 0.5920 0.5920 0.5950 0.5960 0.5960
1715.033500 0.5970 0.6010 0.6060 0.6080 0.6110
1719.390802 0.6150 0.6220 0.6220 0.6180 0.6180
1723.748105 0.6190 0.6190 0.6230 0.6250 0.6250
1728.105408 0.6260 0.6290 0.6290 0.6300 0.6330
1732.462710 0.6370 0.6370 0.6380 0.6450 0.6480
1736.820013 0.6480 0.6520 0.6480 0.6490 0.6510
1741.177315 0.6510 0.6550 0.6580 0.6580 0.6580
1745.534618 0.6590 0.6590 0.6590 0.6600 0.6600
1749.891921 0.6620 0.6620 0.6740 0.6740 0.6710
1754.249223 0.6710 0.6710 0.6710 0.6730 0.6730
1758.606526 0.6750 0.6780 0.6780 0.6780 0.6820
1762.963828 0.6890 0.6890 0.6900 0.6900 0.6900
1767.321131 0.6900 0.6900 0.6900 0.6940 0.6970
1771.678433 0.7000 0.7010 0.7050 0.7090 0.7110
1776.035736 0.7110 0.7090 0.7090 0.7080 0.7080
1780.393039 0.7080 0.7090 0.7140 0.7160 0.7160
1784.750341 0.7160 0.7160 0.7180 0.7230 0.7230
1789.107644 0.7230 0.7230 0.7230 0.7270 0.7310
1793.464946 0.7330 0.7340 0.7350 0.7370 0.7370
1797.822249 0.7370 0.7400 0.7400 0.7400 0.7420
1802.179551 0.7460 0.7480 0.7480 0.7480 0.7490
1806.536854 0.7490 0.7490 0.7490 0.7510 0.7520
1810.894157 0.7530 0.7570 0.7600 0.7630 0.7640
1815.251459 0.7640 0.7640 0.7640 0.7640 0.7640
1819.608762 0.7660 0.7670 0.7680 0.7700 0.7710
1823.966064 0.7740 0.7750 0.7770 0.7790 0.7850
1828.323367 0.7860 0.7860 0.7860 0.7870 0.7930
1832.680669 0.7930 0.7920 0.7920 0.7920 0.7930
1837.037972 0.7930 0.7940 0.7940 0.7960 0.7960
1841.395275 0.7970 0.7970 0.7970 0.7980 0.8070
1845.752577 0.8090 0.8110 0.8110 0.8110 0.8110
1850.109880 0.8110 0.8110 0.8110 0.8120 0.8120
1854.467182 0.8120 0.8130 0.8150 0.8160 0.8180
1858.824485 0.8190 0.8200 0.8220 0.8220 0.8230
1863.181787 0.8230 0.8230 0.8240 0.8240 0.8240
1867.539090 0.8260 0.8300 0.8310 0.8310 0.8330
1871.896393 0.8330 0.8310 0.8310 0.8310 0.8310
1876.253695 0.8310 0.8330 0.8330 0.8330 0.8340
1880.610998 0.8340 0.8340 0.8340 0.8370 0.8380
1884.968300 0.8390 0.8410 0.8420 0.8420 0.8440
1889.325603 0.8440 0.8450 0.8460 0.8480 0.8480
1893.682905 0.8460 0.8460 0.8460 0.8460 0.8490
1898.040208 0.8490 0.8490 0.8500 0.8500 0.8500
1902.397511 0.8520 0.8520 0.8520 0.8520 0.8520
1906.754813 0.8520 0.8520 0.8520 0.8530 0.8530
1911.112116 0.8530 0.8530 0.8520 0.8520 0.8520
1915.469418 0.8520 0.8520 0.8520 0.8520 0.8520
1919.826721 0.8520 0.8530 0.8530 0.8520 0.8520
1924.184024 0.8520 0.8520 0.8520 0.8520 0.8520
1928.541326 0.8520 0.8520 0.8520 0.8520 0.8520
1932.898629 0.8520 0.8520 0.8520 0.8520 0.8520
1937.255931 0.8500 0.8500 0.8500 0.8500 0.8500
1941.613234 0.8500 0.8490 0.8490 0.8490 0.8500
1945.970536 0.8500 0.8500 0.8490 0.8490 0.8490
1950.327839 0.8480 0.8460 0.8450 0.8440 0.8440
1954.685142 0.8440 0.8420 0.8420 0.8420 0.8410
1959.042444 0.8410 0.8390 0.8380 0.8370 0.8350
1963.399747 0.8340 0.8340 0.8330 0.8330 0.8330
1967.757049 0.8330 0.8330 0.8310 0.8300 0.8270
1972.114352 0.8240 0.8230 0.8220 0.8220 0.8200
1976.471654 0.8200 0.8200 0.8200 0.8200 0.8200
1980.828957 0.8200 0.8190 0.8180 0.8150 0.8130
1985.186260 0.8130 0.8120 0.8110 0.8110 0.8080
1989.543562 0.8070 0.8050 0.8040 0.8010 0.8000
1993.900865 0.7980 0.7960 0.7960 0.7940 0.7930
1998.258167 0.7930 0.7930 0.7920 0.7910 0.7900
2002.615470 0.7875 0.7850 0.7765 0.7680 0.7675
2006.972772 0.7670 0.7650 0.7630 0.7620 0.7610
2011.330075 0.7570 0.7530 0.7510 0.7490 0.7475
2015.687378 0.7460 0.7450 0.7440 0.7425 0.7410
2020.044680 0.7380 0.7350 0.7320 0.7290 0.7270
2024.401983 0.7250 0.7225 0.7200 0.7175 0.7150
2028.759285 0.7135 0.7120 0.7095 0.7070 0.7040
2033.116588 0.7010 0.6970 0.6930 0.6925 0.6920
2037.473890 0.6910 0.6900 0.6880 0.6860 0.6840
2041.831193 0.6820 0.6800 0.6780 0.6760 0.6740
2046.188496 0.6710 0.6680 0.6650 0.6620 0.6620
2050.545798 0.6620 0.6605 0.6589 0.6554 0.6520
2054.903101 0.6485 0.6450 0.6435 0.6420 0.6390
2059.260403 0.6360 0.6340 0.6320 0.6305 0.6290
2063.617706 0.6225 0.6160 0.6160 0.6160 0.6130
2067.975008 0.6100 0.6090 0.6079 0.6014 0.5950
2072.332311 0.5925 0.5900 0.5880 0.5860 0.5840
2076.689614 0.5819 0.5779 0.5740 0.5715 0.5690
2081.046916 0.5660 0.5630 0.5605 0.5580 0.5545
2085.404219 0.5510 0.5490 0.5469 0.5439 0.5409
2089.761521 0.5384 0.5359 0.5329 0.5299 0.5264
2094.118824 0.5229 0.5189 0.5150 0.5130 0.5109
2098.476126 0.5064 0.5020 0.4995 0.4969 0.4929
2102.833429 0.4889 0.4834 0.4780 0.4775 0.4769
2107.190732 0.4729 0.4690 0.4675 0.4660 0.4655
2111.548034 0.4648 0.4578 0.4508 0.4433 0.4360
2115.905337 0.4360 0.4359 0.4309 0.4260 0.4255
2120.262639 0.4249 0.4199 0.4147 0.4067 0.3989
2124.619942 0.3949 0.3909 0.3889 0.3870 0.3870
2128.977245 0.3869 0.3824 0.3779 0.3739 0.3698
2133.334547 0.3618 0.3539 0.3504 0.3470 0.3455
2137.691850 0.3440 0.3435 0.3428 0.3368 0.3308
2142.049152 0.3258 0.3206 0.3112 0.3020 0.3020
2146.406455 0.3019 0.2984 0.2949 0.2924 0.2899
2150.763757 0.2864 0.2829 0.2779 0.2729 0.2689
2155.121060 0.2650 0.2634 0.2619 0.2594 0.2569
2159.478363 0.2539 0.2508 0.2453 0.2398 0.2353
2163.835665 0.2309 0.2279 0.2249 0.2234 0.2219
2168.192968 0.2189 0.2159 0.2129 0.2098 0.2043
2172.550270 0.1989 0.1969 0.1949 0.1924 0.1898
2176.907573 0.1863 0.1827 0.1772 0.1719 0.1689
2181.264875 0.1659 0.1639 0.1619 0.1599 0.1580
2185.622178 0.1575 0.1569 0.1539 0.1509 0.1479
2189.979481 0.1449 0.1419 0.1388 0.1348 0.1309
2194.336783 0.1294 0.1278 0.1238 0.1197 0.1137
2198.694086 0.1078 0.1033 0.0990 0.0985 0.0980
2203.051388 0.0975 0.0969 0.0939 0.0909 0.0884
2207.408691 0.0859 0.0844 0.0828 0.0798 0.0769
2211.765993 0.0759 0.0748 0.0718 0.0690 0.0685
2216.123296 0.0680 0.0680 0.0679 0.0659 0.0639
2220.480599 0.0624 0.0608 0.0573 0.0539 0.0524
2224.837901 0.0509 0.0489 0.0470 0.0470 0.0470
2229.195204 0.0465 0.0459 0.0439 0.0419 0.0399
2233.552506 0.0379 0.0369 0.0359 0.0339 0.0320
2237.909809 0.0320 0.0320 0.0320 0.0320 0.0320
2242.267111 0.0319 0.0309 0.0298 0.0273 0.0250
2246.624414 0.0245 0.0240 0.0240 0.0240 0.0235
2250.981717 0.0229 0.0219 0.0209 0.0199 0.0189
2255.339019 0.0179 0.0170 0.0165 0.0160 0.0160
2259.696322 0.0160 0.0155 0.0150 0.0150 0.0149
2264.053624 0.0139 0.0130 0.0125 0.0120 0.0120
2268.410927 0.0120 0.0120 0.0120 0.0120 0.0120
2272.768229 0.0120 0.0120 0.0120 0.0120 0.0120
2277.125532 0.0119 0.0109 0.0100 0.0100 0.0100
2281.482835 0.0100 0.0100 0.0095 0.0090 0.0090
2285.840137 0.0090 0.0090 0.0090 0.0090 0.0090
2290.197440 0.0090 0.0090 0.0090 0.0090 0.0090
2294.554742 0.0090 0.0085 0.0080 0.0080 0.0080
2298.912045 0.0080 0.0080 0.0080 0.0079 0.0069
2303.269348 0.0061 0.0071 0.0080 0.0080 0.0080
2307.626650 0.0085 0.0090 0.0085 0.0080 0.0080
2311.983953 0.0080 0.0080 0.0080 0.0080 0.0080
2316.341255 0.0080 0.0080 0.0080 0.0080 0.0080
2320.698558 0.0080 0.0080 0.0080 0.0085 0.0090
2325.055860 0.0095 0.0100 0.0100 0.0101 0.0111
2329.413163 0.0120 0.0120 0.0120 0.0125 0.0131
2333.770466 0.0141 0.0150 0.0155 0.0160 0.0165
2338.127768 0.0170 0.0170 0.0170 0.0170 0.0171
2342.485071 0.0181 0.0190 0.0190 0.0190 0.0190
2346.842373 0.0190 0.0190 0.0190 0.0190 0.0190
2351.199676 0.0190 0.0190 0.0190 0.0190 0.0190
2355.556978 0.0190 0.0190 0.0190 0.0195 0.0200
2359.914281 0.0205 0.0211 0.0221 0.0231 0.0241
2364.271584 0.0251 0.0261 0.0271 0.0276 0.0281
2368.628886 0.0291 0.0300 0.0300 0.0300 0.0300
2372.986189 0.0300 0.0300 0.0300 0.0300 0.0300
2377.343491 0.0300 0.0299 0.0289 0.0280 0.0275
2381.700794 0.0267 0.0237 0.0207 0.0182 0.0159
2386.058096 0.0154 0.0149 0.0139 0.0130 0.0130
2390.415399 0.0129 0.0124 0.0120 0.0120 0.0120
2394.772702 0.0120 0.0119 0.0109 0.0100 0.0100
2399.130004 0.0100 0.0100 0.0099 0.0094 0.0090
2403.487307 0.0090 0.0089 0.0084 0.0080 0.0080
2407.844609 0.0080 0.0080 0.0080 0.0080 0.0080
2412.201912 0.0080 0.0080 0.0080 0.0080 0.0080
2416.559214 0.0080 0.0080 0.0080 0.0080 0.0080
2420.916517 0.0080 0.0079 0.0069 0.0061 0.0071
2425.273820 0.0080 0.0080 0.0079 0.0069 0.0060
2429.631122 0.0060 0.0059 0.0054 0.0050 0.0050
2433.988425 0.0051 0.0056 0.0060 0.0060 0.0061
2438.345727 0.0071 0.0080 0.0080 0.0080 0.0080
2442.703030 0.0080 0.0080 0.0080 0.0080 0.0080
2447.060332 0.0080 0.0080 0.0080 0.0080 0.0080
2451.417635 0.0080 0.0080 0.0080 0.0080 0.0080
2455.774938 0.0080 0.0080 0.0080 0.0080 0.0080
2460.132240 0.0080 0.0080 0.0079 0.0069 0.0060
2464.489543 0.0060 0.0060 0.0060 0.0061 0.0071
2468.846845 0.0079 0.0069 0.0060 0.0060 0.0059
2473.204148 0.0054 0.0051 0.0056 0.0059 0.0054
2477.561451 0.0050 0.0050 0.0050 0.0050 0.0050
2481.918753 0.0050 0.0050 0.0050 0.0050 0.0050
2486.276056 0.0050 0.0050 0.0050 0.0050 0.0051
2490.633358 0.0056 0.0061 0.0071 0.0080 0.0080
2494.990661 0.0080 0.0080 0.0079 0.0069 0.0060
2499.347963 0.0060 0.0059 0.0054 0.0050 0.0050
2503.705266 0.0050 0.0050 0.0050 0.0050 0.0050
2508.062569 0.0050 0.0050 0.0050 0.0050 0.0050
2512.419871 0.0049 0.0044 0.0040 0.0040 0.0040
2516.777174 0.0040 0.0040 0.0040 0.0040 0.0040
2521.134476 0.0040 0.0040 0.0040 0.0040 0.0040
2525.491779 0.0040 0.0040 0.0040 0.0040 0.0040
2529.849081 0.0040 0.0040 0.0040 0.0040 0.0040
2534.206384 0.0040 0.0040 0.0040 0.0040 0.0040
2538.563687 0.0041 0.0046 0.0050 0.0050 0.0050
2542.920989 0.0050 0.0051 0.0056 0.0060 0.0060
2547.278292 0.0060 0.0060 0.0060 0.0060 0.0061
2551.635594 0.0071 0.0080 0.0080 0.0079 0.0069
2555.992897 0.0060 0.0060 0.0060 0.0060 0.0060
2560.350199 0.0060 0.0060 0.0060 0.0059 0.0054
2564.707502 0.0050 0.0050 0.0049 0.0044 0.0040
2569.064805 0.0040 0.0040 0.0040 0.0040 0.0040
2573.422107 0.0040 0.0040 0.0040 0.0040 0.0040
2577.779410 0.0040 0.0040 0.0040 0.0040 0.0040
2582.136712 0.0040 0.0040 0.0040 0.0040 0.0040
2586.494015 0.0040 0.0040 0.0040 0.0040 0.0040
2590.851317 0.0040 0.0040 0.0040 0.0040 0.0040
2595.208620 0.0040 0.0040 0.0040 0.0040 0.0040
2599.565923 0.0040 0.0040 0.0040 0.0040 0.0040
2603.923225 0.0040 0.0040 0.0040 0.0040 0.0040
2608.280528 0.0040 0.0040 0.0040 0.0040 0.0040
2612.637830 0.0040 0.0040 0.0040 0.0040 0.0040
2616.995133 0.0040 0.0040 0.0040 0.0040 0.0040
2621.352435 0.0040 0.0040 0.0040 0.0040 0.0040
2625.709738 0.0040 0.0040 0.0040 0.0040 0.0040
2630.067041 0.0040 0.0040 0.0040 0.0038 0.0028
2634.424343 0.0020 0.0020 0.0020 0.0020 0.0020
2638.781646 0.0020 0.0020 0.0020 0.0019 0.0014
2643.138948 0.0010 0.0010 0.0010 0.0010 0.0010
2647.496251 0.0010 0.0010 0.0010 0.0010 0.0010
2651.853553 0.0011 0.0016 0.0020 0.0020 0.0022
2656.210856 0.0032 0.0040 0.0040 0.0040 0.0040
2660.568159 0.0041 0.0046 0.0050 0.0050 0.0050
2664.925461 0.0050 0.0051 0.0056 0.0060 0.0060
2669.282764 0.0060 0.0060 0.0062 0.0072 0.0080
2673.640066 0.0080 0.0080 0.0080 0.0080 0.0080
2677.997369 0.0080 0.0080 0.0080 0.0080 0.0080
2682.354672 0.0080 0.0080 0.0080 0.0080 0.0080
2686.711974 0.0080 0.0080 0.0080 0.0080 0.0080
2691.069277 0.0080 0.0080 0.0080 0.0078 0.0068
2695.426579 0.0060 0.0060 0.0060 0.0060 0.0060
2699.783882 0.0060 0.0060 0.0060 0.0060 0.0060
2704.141184 0.0060 0.0060 0.0060 0.0060 0.0060
2708.498487 0.0060 0.0060 0.0060 0.0060 0.0060
2712.855790 0.0060 0.0060 0.0060 0.0060 0.0060
2717.213092 0.0060 0.0060 0.0060 0.0060 0.0060
2721.570395 0.0060 0.0060 0.0060 0.0060 0.0060
2725.927697 0.0060 0.0060 0.0060 0.0060 0.0060
2730.285000 0.0060 0.0060 0.0060 0.0060 0.0062
2734.642302 0.0072 0.0080 0.0080 0.0080 0.0080
2738.999605 0.0081 0.0086 0.0091 0.0096 0.0111
2743.356908 0.0166 0.0214 0.0234 0.0259 0.0304
2747.714210 0.0342 0.0352 0.0372 0.0427 0.0488
2752.071513 0.0573 0.0657 0.0737 0.0827 0.0957
2756.428815 0.1097 0.1277 0.1443 0.1558 0.1660
2760.786118 0.1710 0.1758 0.1798 0.1848 0.1938
2765.143420 0.2023 0.2089 0.2158 0.2243 0.2336
2769.500723 0.2456 0.2560 0.2605 0.2660 0.2755
2773.858026 0.2844 0.2909 0.2986 0.3111 0.3221
2778.215328 0.3276 0.3328 0.3368 0.3422 0.3532
2782.572631 0.3631 0.3687 0.3745 0.3815 0.3882
2786.929933 0.3937 0.3992 0.4047 0.4094 0.4114
2791.287236 0.4147 0.4227 0.4302 0.4357 0.4407
2795.644538 0.4442 0.4478 0.4518 0.4553 0.4568
2800.001841 0.4591 0.4647 0.4702 0.4757 0.4812
2804.359144 0.4867 0.4920 0.4965 0.5012 0.5067
2808.716446 0.5111 0.5116 0.5122 0.5132 0.5145
2813.073749 0.5170 0.5198 0.5232 0.5273 0.5333
2817.431051 0.5383 0.5398 0.5426 0.5496 0.5558
2821.788354 0.5593 0.5622 0.5632 0.5650 0.5695
2826.145656 0.5732 0.5742 0.5752 0.5762 0.5780
2830.502959 0.5825 0.5862 0.5872 0.5882 0.5892
2834.860262 0.5905 0.5931 0.5952 0.5962 0.5973
2839.217564 0.5988 0.6005 0.6025 0.6051 0.6101
2843.574867 0.6145 0.6165 0.6186 0.6211 0.6235
2847.932169 0.6254 0.6273 0.6288 0.6302 0.6312
2852.289472 0.6320 0.6320 0.6327 0.6357 0.6382
2856.646775 0.6392 0.6400 0.6400 0.6405 0.6425
2861.004077 0.6444 0.6458 0.6477 0.6507 0.6533
2865.361380 0.6548 0.6563 0.6578 0.6591 0.6596
2869.718682 0.6603 0.6619 0.6635 0.6655 0.6675
2874.075985 0.6695 0.6714 0.6729 0.6741 0.6746
2878.433287 0.6752 0.6762 0.6771 0.6776 0.6785
2882.790590 0.6805 0.6824 0.6838 0.6850 0.6850
2887.147893 0.6855 0.6875 0.6890 0.6890 0.6891
2891.505195 0.6896 0.6904 0.6919 0.6937 0.6967
2895.862498 0.6992 0.7002 0.7015 0.7035 0.7052
2900.219800 0.7062 0.7071 0.7076 0.7081 0.7086
2904.577103 0.7090 0.7090 0.7093 0.7103 0.7114
2908.934405 0.7129 0.7140 0.7140 0.7141 0.7146
2913.291708 0.7151 0.7156 0.7160 0.7160 0.7162
2917.649011 0.7172 0.7180 0.7180 0.7181 0.7186
2922.006313 0.7190 0.7190 0.7189 0.7184 0.7180
2926.363616 0.7180 0.7180 0.7180 0.7181 0.7186
2930.720918 0.7194 0.7209 0.7221 0.7226 0.7230
2935.078221 0.7230 0.7230 0.7230 0.7232 0.7242
2939.435523 0.7252 0.7263 0.7274 0.7289 0.7304
2943.792826 0.7319 0.7331 0.7336 0.7340 0.7340
2948.150129 0.7344 0.7359 0.7374 0.7389 0.7401
2952.507431 0.7406 0.7414 0.7429 0.7443 0.7453
2956.864734 0.7460 0.7460 0.7464 0.7479 0.7494
2961.222036 0.7509 0.7527 0.7552 0.7573 0.7583
2965.579339 0.7590 0.7590 0.7590 0.7590 0.7591
2969.936641 0.7596 0.7601 0.7606 0.7613 0.7623
2974.293944 0.7631 0.7636 0.7643 0.7653 0.7661
2978.651247 0.7666 0.7679 0.7714 0.7744 0.7759
2983.008549 0.7771 0.7776 0.7785 0.7805 0.7821
2987.365852 0.7826 0.7833 0.7843 0.7853 0.7863
2991.723154 0.7877 0.7902 0.7923 0.7933 0.7943
2996.080457 0.7953 0.7960 0.7960 0.7965 0.7985
3000.437759 0.8004 0.8019 0.8037 0.8062 0.8085
3004.795062 0.8105 0.8124 0.8139 0.8157 0.8182
3009.152365 0.8204 0.8219 0.8240 0.8275 0.8301
3013.509667 0.8306 0.8310 0.8310 0.8313 0.8323
3017.866970 0.8331 0.8336 0.8344 0.8359 0.8375
3022.224272 0.8395 0.8415 0.8435 0.8451 0.8456
3026.581575 0.8463 0.8473 0.8481 0.8486 0.8491
3030.938877 0.8496 0.8503 0.8513 0.8523 0.8533
3035.296180 0.8544 0.8559 0.8573 0.8583 0.8591
3039.653483 0.8596 0.8601 0.8606 0.8618 0.8648
3044.010785 0.8676 0.8696 0.8711 0.8716 0.8720
3048.368088 0.8720 0.8729 0.8759 0.8786 0.8806
3052.725390 0.8824 0.8839 0.8853 0.8863 0.8874
3057.082693 0.8889 0.8901 0.8906 0.8910 0.8910
3061.439996 0.8914 0.8929 0.8946 0.8966 0.8983
3065.797298 0.8993 0.9001 0.9006 0.9011 0.9016
3070.154601 0.9023 0.9033 0.9041 0.9046 0.9054
3074.511903 0.9069 0.9081 0.9086 0.9093 0.9103
3078.869206 0.9111 0.9116 0.9122 0.9127 0.9133
3083.226508 0.9143 0.9153 0.9163 0.9173 0.9183
3087.583811 0.9191 0.9196 0.9200 0.9200 0.9203
3091.941114 0.9213 0.9221 0.9226 0.9231 0.9236
3096.298416 0.9240 0.9240 0.9243 0.9253 0.9260
3100.655719 0.9260 0.9263 0.9273 0.9283 0.9293
3105.013021 0.9302 0.9307 0.9310 0.9310 0.9311
3109.370324 0.9316 0.9320 0.9320 0.9324 0.9339
3113.727626 0.9354 0.9370 0.9382 0.9387 0.9390
3118.084929 0.9390 0.9393 0.9403 0.9412 0.9417
3122.442232 0.9425 0.9440 0.9452 0.9457 0.9463
3126.799534 0.9473 0.9482 0.9487 0.9492 0.9496
3131.156837 0.9503 0.9513 0.9520 0.9520 0.9522
3135.514139 0.9527 0.9532 0.9537 0.9540 0.9540
3139.871442 0.9540 0.9540 0.9543 0.9553 0.9562
3144.228744 0.9567 0.9570 0.9570 0.9570 0.9570
3148.586047 0.9570 0.9570 0.9575 0.9590 0.9602
3152.943350 0.9607 0.9613 0.9623 0.9630 0.9630
3157.300652 0.9630 0.9630 0.9630 0.9630 0.9632
3161.657955 0.9637 0.9642 0.9647 0.9650 0.9650
3166.015257 0.9650 0.9650 0.9653 0.9663 0.9670
3170.372560 0.9670 0.9670 0.9670 0.9672 0.9677
3174.729862 0.9680 0.9680 0.9680 0.9680 0.9682
3179.087165 0.9687 0.9690 0.9690 0.9693 0.9703
3183.444468 0.9712 0.9717 0.9720 0.9720 0.9720
3187.801770 0.9720 0.9720 0.9720 0.9720 0.9720
3192.159073 0.9723 0.9733 0.9740 0.9740 0.9742
3196.516375 0.9747 0.9750 0.9750 0.9750 0.9750
3200.873678 0.9750 0.9750 0.9750 0.9750 0.9750
3205.230980 0.9750 0.9750 0.9750 0.9750 0.9750
3209.588283 0.9750 0.9750 0.9750 0.9750 0.9750
3213.945586 0.9750 0.9750 0.9750 0.9750 0.9750
3218.302888 0.9748 0.9743 0.9740 0.9740 0.9735
3222.660191 0.9720 0.9707 0.9697 0.9690 0.9690
3227.017493 0.9690 0.9690 0.9690 0.9690 0.9690
3231.374796 0.9690 0.9690 0.9690 0.9688 0.9683
3235.732099 0.9680 0.9680 0.9678 0.9673 0.9670
3240.089401 0.9670 0.9667 0.9657 0.9648 0.9643
3244.446704 0.9638 0.9633 0.9627 0.9617 0.9608
3248.804006 0.9603 0.9597 0.9587 0.9578 0.9573
3253.161309 0.9565 0.9550 0.9538 0.9533 0.9530
3257.518611 0.9530 0.9528 0.9523 0.9515 0.9500
3261.875914 0.9485 0.9470 0.9458 0.9453 0.9447
3266.233217 0.9437 0.9430 0.9430 0.9428 0.9423
3270.590519 0.9415 0.9400 0.9386 0.9376 0.9366
3274.947822 0.9356 0.9348 0.9343 0.9336 0.9326
3279.305124 0.9318 0.9313 0.9305 0.9290 0.9273
3283.662427 0.9253 0.9238 0.9233 0.9225 0.9210
3288.019729 0.9198 0.9193 0.9186 0.9176 0.9166
3292.377032 0.9156 0.9145 0.9130 0.9118 0.9113
3296.734335 0.9106 0.9096 0.9085 0.9070 0.9058
3301.091637 0.9053 0.9043 0.9023 0.9008 0.9003
3305.448940 0.8996 0.8986 0.8976 0.8966 0.8960
3309.806242 0.8960 0.8955 0.8940 0.8926 0.8916
3314.163545 0.8908 0.8903 0.8900 0.8900 0.8895
3318.520847 0.8880 0.8863 0.8843 0.8818 0.8783
3322.878150 0.8756 0.8746 0.8734 0.8719 0.8708
3327.235453 0.8703 0.8696 0.8686 0.8675 0.8660
3331.592755 0.8643 0.8623 0.8606 0.8596 0.8579
3335.950058 0.8549 0.8530 0.8530 0.8528 0.8523
3340.307360 0.8515 0.8499 0.8481 0.8456 0.8434
3344.664663 0.8419 0.8406 0.8396 0.8390 0.8390
3349.021965 0.8386 0.8376 0.8364 0.8349 0.8335
3353.379268 0.8320 0.8308 0.8303 0.8293 0.8273
3357.736571 0.8256 0.8246 0.8238 0.8233 0.8224
3362.093873 0.8209 0.8196 0.8186 0.8174 0.8159
3366.451176 0.8146 0.8136 0.8130 0.8130 0.8128
3370.808478 0.8123 0.8114 0.8099 0.8086 0.8076
3375.165781 0.8066 0.8056 0.8048 0.8043 0.8038
3379.523083 0.8033 0.8024 0.8009 0.7992 0.7972
3383.880386 0.7954 0.7939 0.7930 0.7930 0.7930
3388.237689 0.7930 0.7928 0.7923 0.7920 0.7920
3392.594991 0.7914 0.7899 0.7886 0.7876 0.7868
3396.952294 0.7863 0.7860 0.7860 0.7860 0.7860
3401.309596 0.7858 0.7853 0.7846 0.7836 0.7828
3405.666899 0.7823 0.7818 0.7813 0.7810 0.7810
3410.024202 0.7810 0.7810 0.7804 0.7789 0.7780
3414.381504 0.7780 0.7780 0.7780 0.7780 0.7780
3418.738807 0.7780 0.7780 0.7778 0.7773 0.7766
3423.096109 0.7756 0.7750 0.7750 0.7750 0.7750
3427.453412 0.7750 0.7750 0.7754 0.7764 0.7770
3431.810714 0.7770 0.7772 0.7777 0.7780 0.7780
3436.168017 0.7780 0.7780 0.7780 0.7780 0.7780
3440.525320 0.7780 0.7780 0.7780 0.7780 0.7780
3444.882622 0.7782 0.7787 0.7790 0.7790 0.7794
3449.239925 0.7804 0.7812 0.7817 0.7826 0.7841
3453.597227 0.7852 0.7857 0.7862 0.7867 0.7874
3457.954530 0.7884 0.7892 0.7897 0.7904 0.7914
3462.311832 0.7920 0.7920 0.7922 0.7927 0.7930
3466.669135 0.7930 0.7932 0.7937 0.7940 0.7940
3471.026438 0.7944 0.7954 0.7968 0.7988 0.8002
3475.383740 0.8007 0.8010 0.8010 0.8014 0.8024
3479.741043 0.8034 0.8044 0.8054 0.8064 0.8078
3484.098345 0.8098 0.8114 0.8124 0.8134 0.8144
3488.455648 0.8150 0.8150 0.8158 0.8178 0.8196
3492.812950 0.8211 0.8222 0.8227 0.8232 0.8237
3497.170253 0.8244 0.8254 0.8268 0.8288 0.8302
3501.527556 0.8307 0.8316 0.8331 0.8340 0.8340
3505.884858 0.8350 0.8375 0.8400 0.8425 0.8442
3510.242161 0.8447 0.8456 0.8471 0.8482 0.8487
3514.599463 0.8496 0.8511 0.8520 0.8520 0.8520
3518.956766 0.8520 0.8528 0.8548 0.8568 0.8588
3523.314068 0.8608 0.8628 0.8652 0.8682 0.8704
3527.671371 0.8714 0.8720 0.8720 0.8728 0.8748
3532.028674 0.8766 0.8781 0.8790 0.8790 0.8792
3536.385976 0.8797 0.8804 0.8814 0.8831 0.8856
3540.743279 0.8878 0.8898 0.8914 0.8924 0.8938
3545.100581 0.8958 0.8972 0.8977 0.8980 0.8980
3549.457884 0.8986 0.9001 0.9016 0.9031 0.9044
3553.815186 0.9054 0.9064 0.9074 0.9080 0.9080
3558.172489 0.9082 0.9087 0.9094 0.9104 0.9112
3562.529792 0.9117 0.9122 0.9127 0.9134 0.9144
3566.887094 0.9154 0.9164 0.9174 0.9184 0.9199
3571.244397 0.9219 0.9237 0.9252 0.9260 0.9260
3575.601699 0.9260 0.9260 0.9260 0.9260 0.9260
3579.959002 0.9260 0.9264 0.9274 0.9286 0.9301
3584.316304 0.9316 0.9332 0.9342 0.9347 0.9357
3588.673607 0.9372 0.9387 0.9402 0.9421 0.9446
3593.030910 0.9469 0.9489 0.9504 0.9514 0.9520
3597.388212 0.9520 0.9522 0.9527 0.9530 0.9530
3601.745515 0.9532 0.9537 0.9540 0.9540 0.9540
3606.102817 0.9540 0.9540 0.9540 0.9540 0.9540
3610.460120 0.9544 0.9554 0.9575 0.9610 0.9639
3614.817423 0.9659 0.9670 0.9670 0.9672 0.9677
3619.174725 0.9682 0.9687 0.9690 0.9690 0.9690
3623.532028 0.9690 0.9690 0.9690 0.9690 0.9690
3627.889330 0.9690 0.9690 0.9694 0.9704 0.9719
3632.246633 0.9739 0.9752 0.9757 0.9764 0.9774
3636.603935 0.9784 0.9795 0.9800 0.9800 0.9800
3640.961238 0.9800 0.9798 0.9793 0.9790 0.9790
3645.318541 0.9790 0.9790 0.9790 0.9790 0.9790
3649.675843 0.9790 0.9799 0.9819 0.9846 0.9881
3654.033146 0.9902 0.9907 0.9915 0.9925 0.9925
3658.390448 0.9915 0.9910 0.9910 0.9908 0.9903
3662.747751 0.9900 0.9900 0.9898 0.9893 0.9890
3667.105053 0.9890 0.9890 0.9890 0.9890 0.9890
3671.462356 0.9892 0.9897 0.9907 0.9922 0.9935
3675.819659 0.9945 0.9955 0.9965 0.9970 0.9970
3680.176961 0.9965 0.9955 0.9948 0.9943 0.9931
3684.534264 0.9911 0.9886 0.9856 0.9838 0.9833
3688.891566 0.9823 0.9808 0.9798 0.9793 0.9790
3693.248869 0.9790 0.9790 0.9790 0.9790 0.9790
3697.606171 0.9790 0.9790 0.9774 0.9739 0.9713
3701.963474 0.9698 0.9688 0.9683 0.9680 0.9680
3706.320777 0.9680 0.9680 0.9680 0.9680 0.9680
3710.678079 0.9680 0.9680 0.9680 0.9678 0.9673
3715.035382 0.9670 0.9670 0.9665 0.9655 0.9624
3719.392684 0.9569 0.9531 0.9511 0.9498 0.9493
3723.749987 0.9488 0.9483 0.9480 0.9480 0.9482
3728.107289 0.9487 0.9490 0.9490 0.9488 0.9483
3732.464592 0.9473 0.9458 0.9445 0.9435 0.9428
3736.821895 0.9423 0.9420 0.9420 0.9420 0.9420
3741.179197 0.9411 0.9390 0.9365 0.9335 0.9318
3745.536500 0.9313 0.9308 0.9303 0.9295 0.9285
3749.893802 0.9280 0.9280 0.9275 0.9265 0.9260
3754.251105 0.9260 0.9255 0.9245 0.9235 0.9225
3758.608407 0.9194 0.9138 0.9095 0.9065 0.9048
3762.965710 0.9043 0.9035 0.9025 0.9008 0.8983
3767.323013 0.8960 0.8940 0.8930 0.8930 0.8923
3771.680315 0.8908 0.8898 0.8893 0.8890 0.8890
3776.037618 0.8873 0.8838 0.8805 0.8775 0.8750
3780.394920 0.8730 0.8715 0.8705 0.8688 0.8663
3784.752223 0.8645 0.8635 0.8623 0.8608 0.8590
3789.109526 0.8570 0.8543 0.8508 0.8478 0.8453
3793.466828 0.8435 0.8425 0.8417 0.8412 0.8400
3797.824131 0.8380 0.8370 0.8370
##END=
