##TITLE=1,4-CYCLOHEXANEDIAMINE DIHYDROCHLORIDE
##JCAMP-DX=4.24
##DATA TYPE=INFRARED SPECTRUM
##CLASS=COBLENTZ III
##ORIGIN=SOUTHERN RESEARCH INSTITUTE
##OWNER=COBLENTZ SOCIETY
Collection (C) 2018 copyright by the U.S. Secretary of Commerce
on behalf of the United States of America. All rights reserved.
##DATE=1970/08/13
##MOLFORM=C6 H16 Cl2 N2
##SOURCE REFERENCE=COBLENTZ NO. 10405
##$NIST ID=B6010405
##$NIST SOURCE=COBLENTZ
##$NIST IMAGE=cob10405
##SPECTROMETER/DATA SYSTEM=PERKIN-ELMER 521 (GRATING)
##STATE=SOLID (1 mg / 500 mg KBr DISC)
##PATH LENGTH=
$$SPECTRAL CONTAMINATION DUE TO H2O AROUND 3430 CM^-^1
$$ PURITY - ANALYTICAL, POSSIBLE EXCHANGE WITH KBr
##SAMPLING PROCEDURE=TRANSMISSION
##RESOLUTION=4
##DATA PROCESSING=DIGITIZED BY NIST FROM HARD COPY (FROM TWO SEGMENTS)
##XUNITS=1/CM
##YUNITS=TRANSMITTANCE
##XFACTOR=1.000000
##YFACTOR=1
##DELTAX=1.312342
##FIRSTX=255.906
##LASTX=4003.96
##FIRSTY=0.239
##MAXX=4003.96
##MINX=255.906
##MAXY=0.865043
##MINY=0.129
##NPOINTS=2857
##XYDATA=(X++(Y..Y))
255.906000 0.2390 0.2480 0.2600 0.2630 0.2640
262.467712 0.2819 0.2930 0.2990 0.3060 0.3120
269.029423 0.3200 0.3270 0.3350 0.3410 0.3490
275.591135 0.3580 0.3660 0.3750 0.3839 0.3929
282.152846 0.4030 0.4120 0.4220 0.4330 0.4430
288.714558 0.4649 0.4770 0.4889 0.5009 0.5129
295.276269 0.5230 0.5350 0.5450 0.5540 0.5650
301.837981 0.5740 0.5820 0.5910 0.5990 0.6060
308.399692 0.6130 0.6200 0.6250 0.6300 0.6400
314.961404 0.6430 0.6460 0.6470 0.6490 0.6500
321.523115 0.6530 0.6540 0.6550 0.6550 0.6570
328.084827 0.6570 0.6570 0.6570 0.6570 0.6550
334.646538 0.6530 0.6510 0.6500 0.6460 0.6410
341.208250 0.6380 0.6360 0.6290 0.6230 0.6131
347.769961 0.6040 0.5940 0.5830 0.5700 0.5570
354.331673 0.5440 0.5281 0.5131 0.4961 0.4861
360.893384 0.4850 0.4860 0.5010 0.5320 0.5599
367.455096 0.5849 0.6059 0.6239 0.6489 0.6699
374.016807 0.6850 0.6960 0.7040 0.7100 0.7140
380.578519 0.7190 0.7230 0.7300 0.7380 0.7460
387.140230 0.7530 0.7560 0.7570 0.7600 0.7600
393.701942 0.7610 0.7610 0.7640 0.7670 0.7680
400.263653 0.7680 0.7680 0.7680 0.7670 0.7670
406.825365 0.7670 0.7650 0.7650 0.7650 0.7640
413.387076 0.7640 0.7640 0.7630 0.7630 0.7630
419.948788 0.7630 0.7630 0.7640 0.7670 0.7690
426.510499 0.7720 0.7730 0.7760 0.7800 0.7810
433.072211 0.7810 0.7810 0.7800 0.7800 0.7780
439.633922 0.7770 0.7760 0.7740 0.7730 0.7720
446.195634 0.7700 0.7690 0.7680 0.7650 0.7630
452.757345 0.7550 0.7470 0.7420 0.7380 0.7420
459.319057 0.7480 0.7550 0.7570 0.7679 0.7740
465.880768 0.7780 0.7840 0.7850 0.7850 0.7850
472.442480 0.7850 0.7850 0.7840 0.7671 0.7501
479.004191 0.7140 0.6660 0.6020 0.5371 0.5350
485.565903 0.5370 0.6586 0.6919 0.7139 0.7428
492.127614 0.7600 0.7630 0.7600 0.7360 0.7220
498.689326 0.7090 0.6970 0.6831 0.6810 0.6830
505.251037 0.7430 0.7590 0.7730 0.7780 0.7810
511.812749 0.7850 0.7870 0.7890 0.7890 0.7900
518.374460 0.7900 0.7910 0.7910 0.7930 0.7930
524.936172 0.7930 0.7930 0.7930 0.7930 0.7930
531.497883 0.7940 0.7940 0.7950 0.7950 0.7950
538.059595 0.7970 0.7970 0.7970 0.7970 0.7970
544.621306 0.7990 0.7990 0.7990 0.7990 0.7990
551.183018 0.7990 0.7990 0.7990 0.7990 0.7990
557.744729 0.7990 0.7990 0.7990 0.8010 0.8010
564.306441 0.8010 0.8010 0.8010 0.8010 0.8010
570.868152 0.7990 0.7990 0.7990 0.7990 0.8010
577.429864 0.8010 0.8010 0.8020 0.8020 0.8010
583.991575 0.7990 0.7990 0.7980 0.7980 0.7980
590.553287 0.7990 0.8010 0.8020 0.8040 0.8040
597.114998 0.8040 0.8040 0.8030 0.8030 0.8030
603.676710 0.8030 0.8030 0.8030 0.8030 0.8040
610.238421 0.8040 0.8070 0.8070 0.8080 0.8100
616.800133 0.8100 0.8110 0.8120 0.8120 0.8120
623.361844 0.8140 0.8140 0.8120 0.8120 0.8120
629.923556 0.8120 0.8140 0.8160 0.8180 0.8180
636.485267 0.8180 0.8180 0.8180 0.8160 0.8120
643.046979 0.8100 0.8010 0.7980 0.8229 0.8240
649.608690 0.8240 0.8230 0.8230 0.8200 0.8190
656.170402 0.8160 0.8110 0.8070 0.7941 0.7850
662.732113 0.7700 0.7560 0.7420 0.7400 0.7420
669.293825 0.8059 0.8200 0.8230 0.8250 0.8270
675.855536 0.8280 0.8290 0.8310 0.8320 0.8330
682.417248 0.8360 0.8360 0.8360 0.8360 0.8370
688.978959 0.8390 0.8390 0.8400 0.8400 0.8400
695.540671 0.8400 0.8400 0.8410 0.8410 0.8420
702.102382 0.8440 0.8450 0.8460 0.8460 0.8460
708.664094 0.8460 0.8460 0.8460 0.8480 0.8480
715.225805 0.8480 0.8490 0.8490 0.8490 0.8490
721.787517 0.8490 0.8500 0.8500 0.8500 0.8500
728.349228 0.8500 0.8500 0.8500 0.8500 0.8500
734.910940 0.8500 0.8500 0.8500 0.8500 0.8500
741.472651 0.8500 0.8500 0.8500 0.8500 0.8500
748.034363 0.8490 0.8480 0.8480 0.8460 0.8460
754.596074 0.8460 0.8480 0.8480 0.8480 0.8480
761.157786 0.8460 0.8460 0.8450 0.8420 0.8390
767.719497 0.8370 0.8360 0.8250 0.8200 0.8160
774.281209 0.8110 0.8020 0.7930 0.7930 0.8199
780.842920 0.8330 0.8370 0.8410 0.8420 0.8450
787.404632 0.8450 0.8460 0.8460 0.8460 0.8460
793.966343 0.8450 0.8450 0.8440 0.8440 0.8420
800.528055 0.8410 0.8400 0.8390 0.8360 0.8350
807.089766 0.8330 0.8320 0.8320 0.8330 0.8360
813.651478 0.8400 0.8440 0.8440 0.8460 0.8480
820.213189 0.8480 0.8480 0.8490 0.8490 0.8490
826.774901 0.8490 0.8490 0.8490 0.8490 0.8490
833.336612 0.8490 0.8480 0.8480 0.8460 0.8460
839.898324 0.8460 0.8460 0.8460 0.8450 0.8450
846.460035 0.8450 0.8450 0.8450 0.8450 0.8450
853.021747 0.8440 0.8440 0.8420 0.8420 0.8420
859.583458 0.8410 0.8400 0.8390 0.8390 0.8370
866.145170 0.8370 0.8370 0.8360 0.8360 0.8350
872.706881 0.8350 0.8330 0.8330 0.8350 0.8350
879.268593 0.8360 0.8370 0.8390 0.8390 0.8370
885.830304 0.8320 0.8310 0.8290 0.8290 0.8310
892.392016 0.8360 0.8400 0.8410 0.8410 0.8420
898.953727 0.8440 0.8450 0.8450 0.8450 0.8450
905.515439 0.8450 0.8450 0.8450 0.8450 0.8450
912.077150 0.8450 0.8440 0.8440 0.8440 0.8440
918.638862 0.8390 0.8350 0.8310 0.8280 0.8250
925.200573 0.8240 0.8230 0.8240 0.8240 0.8270
931.762285 0.8270 0.8280 0.8280 0.8250 0.8240
938.323996 0.8250 0.8280 0.8310 0.8320 0.8330
944.885708 0.8350 0.8350 0.8350 0.8330 0.8280
951.447419 0.8240 0.8180 0.8110 0.8060 0.8210
958.009131 0.8250 0.8290 0.8320 0.8370 0.8390
964.570842 0.8390 0.8390 0.8390 0.8390 0.8370
971.132554 0.8370 0.8370 0.8370 0.8370 0.8360
977.694265 0.8350 0.8330 0.8330 0.8330 0.8320
984.255977 0.8320 0.8320 0.8310 0.8310 0.8310
990.817688 0.8290 0.8270 0.8250 0.8250 0.8230
997.379400 0.8200 0.8180 0.8140 0.8070 0.8020
1003.941111 0.7849 0.7680 0.7480 0.7290 0.7080
1010.502823 0.7060 0.7120 0.7300 0.7739 0.7760
1017.064534 0.7740 0.7700 0.7640 0.7530 0.7390
1023.626246 0.7310 0.7080 0.6910 0.6780 0.6760
1030.187957 0.6781 0.7060 0.7210 0.7460 0.7720
1036.749669 0.7840 0.7970 0.7990 0.7980 0.7850
1043.311380 0.7819 0.7599 0.7310 0.7130 0.6740
1049.873092 0.6340 0.6320 0.6580 0.6889 0.6910
1056.434803 0.6920 0.6930 0.6961 0.7461 0.7940
1062.996515 0.8100 0.8240 0.8250 0.8250 0.8250
1069.558226 0.8250 0.8240 0.8240 0.8240 0.8230
1076.119938 0.8230 0.8230 0.8200 0.8200 0.8190
1082.681649 0.8180 0.8140 0.8070 0.7980 0.7840
1089.243361 0.7650 0.7470 0.7290 0.7150 0.7080
1095.805072 0.6930 0.6920 0.6930 0.7140 0.7350
1102.366784 0.7550 0.7650 0.7680 0.7810 0.7940
1108.928495 0.8060 0.8200 0.8210 0.8200 0.8190
1115.490207 0.8160 0.8160 0.8110 0.8040 0.7980
1122.051918 0.7870 0.7770 0.7629 0.7220 0.7080
1128.613630 0.7080 0.7270 0.7629 0.7840 0.8009
1135.175341 0.8020 0.8020 0.8030 0.8030 0.8040
1141.737053 0.8080 0.8100 0.8110 0.8110 0.8120
1148.298764 0.8120 0.8110 0.8100 0.8100 0.8080
1154.860476 0.8070 0.8060 0.8030 0.7980 0.7940
1161.422187 0.7900 0.7870 0.7810 0.7700 0.7630
1167.983899 0.7610 0.7610 0.7670 0.7890 0.7970
1174.545610 0.8030 0.8060 0.8070 0.8070 0.8060
1181.107322 0.8060 0.8040 0.8030 0.7980 0.7970
1187.669033 0.7910 0.7820 0.7770 0.7600 0.7430
1194.230745 0.7300 0.7080 0.6870 0.6640 0.6630
1200.792456 0.6641 0.6962 0.7401 0.7600 0.7730
1207.354168 0.7850 0.7930 0.8010 0.8070 0.8120
1213.915879 0.8160 0.8180 0.8180 0.8180 0.8180
1220.477591 0.8160 0.8160 0.8140 0.8120 0.8080
1227.039302 0.8040 0.7940 0.7850 0.7700 0.7570
1233.601014 0.7570 0.7670 0.7820 0.7930 0.7940
1240.162725 0.8100 0.8120 0.8150 0.8160 0.8160
1246.724437 0.8180 0.8180 0.8180 0.8180 0.8180
1253.286148 0.8180 0.8160 0.8150 0.8110 0.8080
1259.847860 0.8060 0.8020 0.7980 0.7910 0.7840
1266.409571 0.7729 0.7600 0.7500 0.7480 0.7500
1272.971283 0.7690 0.7900 0.8040 0.8070 0.8150
1279.532994 0.8180 0.8200 0.8210 0.8230 0.8240
1286.094706 0.8250 0.8250 0.8270 0.8270 0.8270
1292.656417 0.8270 0.8270 0.8250 0.8240 0.8240
1299.218129 0.8230 0.8230 0.8200 0.8200 0.8190
1305.779840 0.8190 0.8180 0.8150 0.8100 0.8080
1312.341552 0.8110 0.8140 0.8150 0.8160 0.8160
1318.903263 0.8160 0.8150 0.8150 0.8140 0.8120
1325.464975 0.8110 0.8080 0.8060 0.8020 0.7910
1332.026686 0.7860 0.7770 0.7670 0.7670 0.7700
1338.588398 0.7810 0.7910 0.7990 0.8060 0.8070
1345.150109 0.8060 0.8030 0.7990 0.7950 0.7870
1351.711821 0.7860 0.7860 0.7980 0.7990 0.7990
1358.273532 0.7950 0.7890 0.7850 0.7810 0.7770
1364.835244 0.7740 0.7730 0.7720 0.7690 0.7690
1371.396955 0.7680 0.7590 0.7480 0.7400 0.7180
1377.958667 0.7170 0.7180 0.7190 0.7190 0.7180
1384.520378 0.7130 0.7039 0.6709 0.6549 0.6330
1391.082090 0.6090 0.5650 0.5230 0.4790 0.4770
1397.643801 0.4798 0.6552 0.7061 0.7400 0.7510
1404.205513 0.7640 0.7720 0.7780 0.7820 0.7850
1410.767224 0.7850 0.7840 0.7820 0.7820 0.7800
1417.328936 0.7800 0.7780 0.7780 0.7780 0.7780
1423.890647 0.7760 0.7700 0.7670 0.7610 0.7570
1430.452359 0.7530 0.7510 0.7470 0.7420 0.7290
1437.014070 0.6909 0.6710 0.6710 0.6760 0.6930
1443.575782 0.7050 0.7040 0.6960 0.6890 0.6780
1450.137493 0.6629 0.6489 0.6340 0.6320 0.6460
1456.699205 0.6590 0.6720 0.6810 0.7080 0.7399
1463.260917 0.7420 0.7420 0.7400 0.7380 0.7350
1469.822628 0.7350 0.7340 0.7350 0.7380 0.7430
1476.384340 0.7430 0.7400 0.7290 0.7230 0.7190
1482.946051 0.7090 0.6960 0.6750 0.6590 0.6460
1489.507763 0.6318 0.5868 0.5529 0.5319 0.5009
1496.069474 0.4710 0.4450 0.4180 0.4070 0.3970
1502.631186 0.3860 0.3799 0.3449 0.3110 0.3080
1509.192897 0.3112 0.4720 0.5190 0.5599 0.5999
1515.754609 0.6641 0.6911 0.7131 0.7300 0.7420
1522.316320 0.7520 0.7590 0.7630 0.7670 0.7690
1528.878032 0.7700 0.7720 0.7730 0.7740 0.7740
1535.439743 0.7740 0.7740 0.7760 0.7760 0.7770
1542.001455 0.7770 0.7760 0.7740 0.7740 0.7740
1548.563166 0.7740 0.7740 0.7760 0.7760 0.7770
1555.124878 0.7800 0.7800 0.7810 0.7820 0.7820
1561.686589 0.7810 0.7800 0.7780 0.7770 0.7770
1568.248301 0.7720 0.7670 0.7640 0.7600 0.7560
1574.810012 0.7520 0.7470 0.7420 0.7360 0.7300
1581.371724 0.7210 0.7119 0.7000 0.6870 0.6719
1587.933435 0.6460 0.6340 0.6230 0.6020 0.5830
1594.495147 0.5689 0.5580 0.5510 0.5430 0.5320
1601.056858 0.5190 0.5060 0.4930 0.4800 0.4670
1607.618570 0.4600 0.4540 0.4512 0.5061 0.5270
1614.180281 0.5481 0.5950 0.6580 0.6780 0.6920
1620.741993 0.7010 0.7090 0.7170 0.7220 0.7260
1627.303704 0.7300 0.7320 0.7340 0.7360 0.7380
1633.865416 0.7380 0.7400 0.7420 0.7440 0.7480
1640.427127 0.7500 0.7520 0.7550 0.7590 0.7610
1646.988839 0.7650 0.7680 0.7720 0.7730 0.7740
1653.550550 0.7780 0.7810 0.7820 0.7850 0.7870
1660.112262 0.7870 0.7890 0.7900 0.7900 0.7910
1666.673973 0.7910 0.7910 0.7930 0.7940 0.7930
1673.235685 0.7940 0.7950 0.7950 0.7970 0.7970
1679.797396 0.7980 0.7990 0.8010 0.8020 0.8030
1686.359108 0.8040 0.8040 0.8060 0.8080 0.8100
1692.920819 0.8110 0.8120 0.8140 0.8160 0.8230
1699.482531 0.8240 0.8250 0.8270 0.8280 0.8290
1706.044242 0.8290 0.8310 0.8320 0.8320 0.8320
1712.605954 0.8350 0.8360 0.8360 0.8360 0.8370
1719.167665 0.8390 0.8390 0.8390 0.8390 0.8390
1725.729377 0.8390 0.8370 0.8360 0.8360 0.8370
1732.291088 0.8370 0.8390 0.8390 0.8390 0.8390
1738.852800 0.8370 0.8350 0.8350 0.8350 0.8350
1745.414511 0.8330 0.8330 0.8330 0.8330 0.8330
1751.976223 0.8330 0.8320 0.8320 0.8320 0.8320
1758.537934 0.8320 0.8310 0.8310 0.8310 0.8310
1765.099646 0.8290 0.8290 0.8290 0.8290 0.8290
1771.661357 0.8290 0.8290 0.8290 0.8280 0.8270
1778.223069 0.8270 0.8270 0.8270 0.8250 0.8250
1784.784780 0.8250 0.8250 0.8270 0.8270 0.8270
1791.346492 0.8280 0.8270 0.8270 0.8250 0.8250
1797.908203 0.8250 0.8250 0.8270 0.8270 0.8270
1804.469915 0.8270 0.8250 0.8240 0.8240 0.8240
1811.031626 0.8240 0.8240 0.8230 0.8210 0.8200
1817.593338 0.8190 0.8180 0.8160 0.8160 0.8160
1824.155049 0.8160 0.8160 0.8180 0.8180 0.8190
1830.716761 0.8200 0.8200 0.8200 0.8200 0.8190
1837.278472 0.8190 0.8180 0.8180 0.8180 0.8200
1843.840184 0.8200 0.8200 0.8190 0.8180 0.8160
1850.401895 0.8160 0.8150 0.8150 0.8150 0.8150
1856.963607 0.8150 0.8160 0.8160 0.8160 0.8160
1863.525318 0.8160 0.8180 0.8180 0.8180 0.8180
1870.087030 0.8200 0.8200 0.8200 0.8200 0.8200
1876.648741 0.8200 0.8200 0.8200 0.8200 0.8210
1883.210453 0.8210 0.8210 0.8210 0.8210 0.8210
1889.772164 0.8210 0.8200 0.8190 0.8180 0.8160
1896.333876 0.8160 0.8150 0.8120 0.8110 0.8110
1902.895587 0.8080 0.8060 0.8040 0.8040 0.8040
1909.457299 0.8060 0.8100 0.8100 0.8100 0.8100
1916.019010 0.8100 0.8100 0.8110 0.8110 0.8110
1922.580722 0.8100 0.8100 0.8080 0.8070 0.8060
1929.142433 0.8040 0.8040 0.8020 0.8020 0.8010
1935.704145 0.8010 0.7990 0.7940 0.7910 0.7870
1942.265856 0.7860 0.7850 0.7820 0.7820 0.7810
1948.827568 0.7810 0.7800 0.7800 0.7800 0.7800
1955.389279 0.7780 0.7780 0.7780 0.7770 0.7770
1961.950991 0.7770 0.7760 0.7760 0.7740 0.7730
1968.512702 0.7720 0.7700 0.7690 0.7640 0.7600
1975.074414 0.7590 0.7570 0.7530 0.7480 0.7460
1981.636125 0.7440 0.7420 0.7400 0.7360 0.7340
1988.197837 0.7310 0.7300 0.7289 0.7150 0.7080
1994.759548 0.7040 0.7020 0.7010 0.7000 0.6950
2001.321260 0.6930 0.6920 0.6910 0.6890 0.6890
2007.882971 0.6880 0.6870 0.6870 0.6850 0.6850
2014.444683 0.6840 0.6840 0.6800 0.6780 0.6740
2021.006394 0.6710 0.6671 0.6660 0.6640 0.6600
2027.568106 0.6570 0.6540 0.6530 0.6461 0.6421
2034.129817 0.6371 0.6302 0.6261 0.6172 0.6092
2040.691529 0.6041 0.6001 0.5980 0.5961 0.5950
2047.253240 0.5960 0.6018 0.6088 0.6158 0.6228
2053.814952 0.6249 0.6454 0.6595 0.6716 0.6836
2060.376663 0.6946 0.7046 0.7136 0.7217 0.7297
2066.938375 0.7358 0.7427 0.7468 0.7508 0.7558
2073.500086 0.7627 0.7678 0.7728 0.7740 0.7797
2080.061798 0.7838 0.7850 0.7850 0.7859 0.7860
2086.623509 0.7860 0.7869 0.7870 0.7889 0.7890
2093.185221 0.7890 0.7899 0.7900 0.7900 0.7909
2099.746932 0.7929 0.7930 0.7939 0.7949 0.7950
2106.308644 0.7969 0.7970 0.7970 0.7970 0.7979
2112.870355 0.7980 0.7989 0.8009 0.8019 0.8029
2119.432067 0.8039 0.8059 0.8060 0.8069 0.8070
2125.993778 0.8070 0.8079 0.8080 0.8098 0.8100
2132.555490 0.8100 0.8109 0.8110 0.8101 0.8100
2139.117201 0.8082 0.8071 0.8070 0.8070 0.8070
2145.678913 0.8079 0.8080 0.8080 0.8098 0.8100
2152.240624 0.8100 0.8100 0.8100 0.8100 0.8100
2158.802336 0.8100 0.8100 0.8100 0.8100 0.8100
2165.364047 0.8100 0.8100 0.8100 0.8100 0.8100
2171.925759 0.8082 0.8080 0.8080 0.8071 0.8070
2178.487470 0.8070 0.8070 0.8070 0.8070 0.8070
2185.049182 0.8070 0.8070 0.8070 0.8070 0.8070
2191.610893 0.8070 0.8079 0.8080 0.8080 0.8071
2198.172605 0.8070 0.8070 0.8070 0.8070 0.8070
2204.734316 0.8070 0.8070 0.8070 0.8070 0.8061
2211.296028 0.8060 0.8060 0.8060 0.8060 0.8060
2217.857739 0.8060 0.8060 0.8060 0.8060 0.8060
2224.419451 0.8060 0.8060 0.8060 0.8060 0.8043
2230.981162 0.8040 0.8032 0.8030 0.8030 0.8030
2237.542874 0.8030 0.8030 0.8030 0.8022 0.8012
2244.104585 0.7985 0.7938 0.7896 0.7873 0.7870
2250.666297 0.7887 0.7890 0.7890 0.7890 0.7890
2257.228008 0.7890 0.7898 0.7900 0.7900 0.7925
2263.789720 0.7938 0.7940 0.7940 0.7948 0.7950
2270.351431 0.7950 0.7942 0.7940 0.7940 0.7940
2276.913143 0.7940 0.7940 0.7940 0.7940 0.7948
2283.474854 0.7950 0.7966 0.7970 0.7970 0.7970
2290.036566 0.7978 0.7980 0.7980 0.7988 0.7990
2296.598277 0.7990 0.7982 0.7980 0.7972 0.7946
2303.159989 0.7940 0.7932 0.7930 0.7914 0.7910
2309.721700 0.7902 0.7900 0.7900 0.7900 0.7900
2316.283412 0.7900 0.7892 0.7890 0.7890 0.7890
2322.845123 0.7874 0.7870 0.7870 0.7870 0.7870
2329.406835 0.7870 0.7870 0.7862 0.7860 0.7860
2335.968546 0.7844 0.7817 0.7802 0.7784 0.7772
2342.530258 0.7762 0.7744 0.7732 0.7722 0.7705
2349.091969 0.7692 0.7690 0.7682 0.7680 0.7672
2355.653681 0.7670 0.7655 0.7642 0.7632 0.7615
2362.215392 0.7595 0.7590 0.7575 0.7570 0.7585
2368.777104 0.7590 0.7598 0.7600 0.7600 0.7600
2375.338815 0.7600 0.7600 0.7600 0.7600 0.7600
2381.900527 0.7592 0.7575 0.7562 0.7538 0.7523
2388.462238 0.7505 0.7485 0.7465 0.7438 0.7408
2395.023950 0.7370 0.7345 0.7318 0.7303 0.7300
2401.585661 0.7307 0.7310 0.7317 0.7320 0.7335
2408.147373 0.7369 0.7409 0.7457 0.7499 0.7510
2414.709084 0.7517 0.7520 0.7520 0.7513 0.7510
2421.270796 0.7503 0.7485 0.7480 0.7480 0.7473
2427.832507 0.7441 0.7430 0.7409 0.7393 0.7383
2434.394219 0.7358 0.7343 0.7319 0.7303 0.7300
2440.955930 0.7300 0.7300 0.7300 0.7300 0.7300
2447.517642 0.7300 0.7300 0.7300 0.7293 0.7290
2454.079353 0.7290 0.7276 0.7263 0.7253 0.7229
2460.641065 0.7213 0.7196 0.7183 0.7173 0.7149
2467.202776 0.7105 0.7062 0.7015 0.6972 0.6953
2473.764488 0.6936 0.6923 0.6892 0.6859 0.6823
2480.326199 0.6796 0.6783 0.6766 0.6753 0.6716
2486.887911 0.6659 0.6606 0.6583 0.6560 0.6536
2493.449622 0.6503 0.6450 0.6417 0.6383 0.6316
2500.011334 0.6249 0.6176 0.6103 0.6040 0.5980
2506.573045 0.5927 0.5870 0.5777 0.5654 0.5503
2513.134757 0.5350 0.5194 0.5047 0.4921 0.4860
2519.696468 0.4850 0.4870 0.4998 0.5217 0.5438
2526.258180 0.5622 0.5778 0.5909 0.6009 0.6066
2532.819891 0.6125 0.6176 0.6196 0.6206 0.6223
2539.381603 0.6236 0.6240 0.6246 0.6250 0.6244
2545.943314 0.6214 0.6181 0.6132 0.6027 0.5922
2552.505026 0.5839 0.5772 0.5737 0.5717 0.5710
2559.066737 0.5723 0.5743 0.5769 0.5811 0.5849
2565.628449 0.5885 0.5913 0.5995 0.6084 0.6172
2572.190160 0.6254 0.6386 0.6462 0.6470 0.6458
2578.751872 0.6438 0.6418 0.6404 0.6388 0.6355
2585.313583 0.6309 0.6253 0.6187 0.6117 0.6047
2591.875295 0.5959 0.5853 0.5737 0.5599 0.5449
2598.437006 0.5269 0.5081 0.4919 0.4806 0.4734
2604.998718 0.4692 0.4674 0.4670 0.4700 0.4792
2611.560429 0.4900 0.5006 0.5086 0.5152 0.5251
2618.122141 0.5300 0.5258 0.5200 0.5162 0.5144
2624.683852 0.5217 0.5311 0.5346 0.5426 0.5550
2631.245564 0.5606 0.5616 0.5620 0.5608 0.5600
2637.807275 0.5588 0.5574 0.5570 0.5570 0.5576
2644.368987 0.5580 0.5574 0.5564 0.5560 0.5549
2650.930698 0.5540 0.5540 0.5551 0.5566 0.5570
2657.492410 0.5587 0.5606 0.5610 0.5604 0.5600
2664.054121 0.5589 0.5569 0.5538 0.5503 0.5484
2670.615833 0.5474 0.5459 0.5444 0.5440 0.5434
2677.177545 0.5413 0.5378 0.5349 0.5318 0.5283
2683.739256 0.5253 0.5212 0.5140 0.5045 0.4956
2690.300968 0.4920 0.4866 0.4766 0.4715 0.4715
2696.862679 0.4758 0.4828 0.4892 0.4947 0.4986
2703.424391 0.5011 0.5036 0.5061 0.5086 0.5105
2709.986102 0.5110 0.5121 0.5130 0.5130 0.5130
2716.547814 0.5130 0.5130 0.5120 0.5084 0.5034
2723.109525 0.4947 0.4843 0.4763 0.4699 0.4644
2729.671237 0.4589 0.4529 0.4485 0.4449 0.4420
2736.232948 0.4389 0.4360 0.4360 0.4411 0.4547
2742.794660 0.4681 0.4745 0.4795 0.4830 0.4845
2749.356371 0.4850 0.4845 0.4840 0.4825 0.4790
2755.918083 0.4740 0.4665 0.4605 0.4570 0.4530
2762.479794 0.4480 0.4415 0.4345 0.4280 0.4225
2769.041506 0.4170 0.4115 0.4080 0.4060 0.4045
2775.603217 0.4040 0.4020 0.3985 0.3960 0.3940
2782.164929 0.3925 0.3910 0.3900 0.3890 0.3875
2788.726640 0.3870 0.3870 0.3865 0.3850 0.3802
2795.288352 0.3736 0.3701 0.3676 0.3646 0.3621
2801.850063 0.3596 0.3571 0.3551 0.3531 0.3501
2808.411775 0.3471 0.3427 0.3371 0.3318 0.3257
2814.973486 0.3197 0.3132 0.3072 0.3012 0.2962
2821.535198 0.2917 0.2872 0.2832 0.2805 0.2786
2828.096909 0.2756 0.2735 0.2725 0.2711 0.2700
2834.658621 0.2696 0.2681 0.2643 0.2588 0.2542
2841.220332 0.2498 0.2457 0.2436 0.2426 0.2411
2847.782044 0.2396 0.2390 0.2386 0.2380 0.2380
2854.343755 0.2371 0.2334 0.2261 0.2171 0.2090
2860.905467 0.2046 0.2014 0.1959 0.1904 0.1844
2867.467178 0.1788 0.1739 0.1697 0.1671 0.1651
2874.028890 0.1640 0.1640 0.1636 0.1630 0.1626
2880.590601 0.1620 0.1612 0.1600 0.1596 0.1590
2887.152313 0.1586 0.1580 0.1576 0.1570 0.1562
2893.714024 0.1546 0.1540 0.1536 0.1522 0.1510
2900.275736 0.1506 0.1496 0.1478 0.1456 0.1438
2906.837447 0.1416 0.1398 0.1376 0.1366 0.1352
2913.399159 0.1332 0.1312 0.1300 0.1296 0.1290
2919.960870 0.1290 0.1294 0.1300 0.1300 0.1308
2926.522582 0.1320 0.1324 0.1330 0.1334 0.1348
2933.084293 0.1360 0.1364 0.1374 0.1392 0.1418
2939.646005 0.1445 0.1478 0.1490 0.1490 0.1490
2946.207716 0.1482 0.1470 0.1466 0.1460 0.1460
2952.769428 0.1464 0.1481 0.1511 0.1537 0.1568
2959.331139 0.1637 0.1715 0.1755 0.1784 0.1797
2965.892851 0.1821 0.1865 0.1924 0.1961 0.1987
2972.454562 0.2014 0.2047 0.2067 0.2080 0.2073
2979.016274 0.2056 0.2050 0.2046 0.2033 0.2020
2985.577985 0.2027 0.2040 0.2044 0.2050 0.2050
2992.139697 0.2053 0.2067 0.2080 0.2083 0.2090
2998.701408 0.2090 0.2090 0.2090 0.2090 0.2090
3005.263120 0.2087 0.2080 0.2073 0.2060 0.2060
3011.824831 0.2060 0.2060 0.2067 0.2087 0.2110
3018.386543 0.2143 0.2177 0.2196 0.2213 0.2230
3024.948254 0.2253 0.2273 0.2313 0.2353 0.2386
3031.509966 0.2406 0.2433 0.2463 0.2473 0.2486
3038.071677 0.2506 0.2523 0.2539 0.2573 0.2603
3044.633389 0.2619 0.2643 0.2659 0.2723 0.2841
3051.195100 0.2902 0.2936 0.2962 0.2996 0.3019
3057.756812 0.3061 0.3122 0.3165 0.3212 0.3261
3064.318523 0.3325 0.3375 0.3422 0.3462 0.3499
3070.880235 0.3523 0.3553 0.3625 0.3680 0.3744
3077.441946 0.3792 0.3835 0.3884 0.3932 0.3971
3084.003658 0.4014 0.4061 0.4101 0.4144 0.4197
3090.565369 0.4251 0.4280 0.4286 0.4308 0.4336
3097.127081 0.4358 0.4388 0.4413 0.4423 0.4435
3103.688792 0.4453 0.4465 0.4488 0.4518 0.4543
3110.250504 0.4558 0.4591 0.4623 0.4633 0.4658
3116.812215 0.4723 0.4771 0.4811 0.4845 0.4870
3123.373927 0.4910 0.4955 0.5013 0.5063 0.5110
3129.935638 0.5153 0.5203 0.5250 0.5290 0.5343
3136.497350 0.5430 0.5507 0.5572 0.5622 0.5670
3143.059061 0.5712 0.5757 0.5792 0.5840 0.5880
3149.620773 0.5922 0.5974 0.6025 0.6049 0.6087
3156.182484 0.6112 0.6122 0.6139 0.6184 0.6237
3162.744196 0.6269 0.6305 0.6329 0.6369 0.6405
3169.305907 0.6422 0.6435 0.6452 0.6469 0.6502
3175.867619 0.6510 0.6514 0.6530 0.6530 0.6530
3182.429330 0.6530 0.6526 0.6510 0.6506 0.6486
3188.991042 0.6468 0.6458 0.6446 0.6430 0.6430
3195.552753 0.6434 0.6450 0.6452 0.6460 0.6462
3202.114465 0.6470 0.6470 0.6470 0.6470 0.6470
3208.676176 0.6474 0.6490 0.6492 0.6502 0.6514
3215.237888 0.6534 0.6556 0.6582 0.6592 0.6606
3221.799599 0.6640 0.6692 0.6750 0.6798 0.6840
3228.361311 0.6886 0.6912 0.6922 0.6936 0.6964
3234.923022 0.6986 0.7016 0.7044 0.7060 0.7060
3241.484734 0.7064 0.7080 0.7082 0.7092 0.7105
3248.046445 0.7130 0.7132 0.7142 0.7153 0.7170
3254.608157 0.7170 0.7172 0.7182 0.7190 0.7190
3261.169868 0.7190 0.7190 0.7190 0.7193 0.7210
3267.731580 0.7210 0.7210 0.7212 0.7220 0.7220
3274.293291 0.7222 0.7230 0.7230 0.7230 0.7230
3280.855003 0.7230 0.7230 0.7230 0.7230 0.7230
3287.416714 0.7230 0.7230 0.7230 0.7230 0.7230
3293.978426 0.7230 0.7229 0.7220 0.7220 0.7219
3300.540137 0.7210 0.7210 0.7207 0.7190 0.7190
3307.101849 0.7189 0.7179 0.7167 0.7149 0.7139
3313.663560 0.7130 0.7129 0.7120 0.7117 0.7099
3320.225272 0.7089 0.7077 0.7059 0.7049 0.7040
3326.786983 0.7037 0.7019 0.7006 0.6979 0.6970
3333.348695 0.6968 0.6948 0.6929 0.6919 0.6908
3339.910406 0.6888 0.6868 0.6849 0.6839 0.6824
3346.472118 0.6777 0.6749 0.6740 0.6738 0.6719
3353.033829 0.6709 0.6697 0.6666 0.6627 0.6597
3359.595541 0.6567 0.6539 0.6528 0.6510 0.6505
3366.157252 0.6456 0.6418 0.6398 0.6379 0.6369
3372.718964 0.6358 0.6339 0.6329 0.6317 0.6287
3379.280675 0.6258 0.6237 0.6209 0.6199 0.6188
3385.842387 0.6170 0.6168 0.6150 0.6148 0.6129
3392.404098 0.6117 0.6079 0.6069 0.6058 0.6039
3398.965810 0.6029 0.6019 0.5999 0.5989 0.5979
3405.527521 0.5959 0.5949 0.5940 0.5939 0.5920
3412.089233 0.5920 0.5920 0.5920 0.5920 0.5920
3418.650944 0.5920 0.5920 0.5920 0.5920 0.5919
3425.212656 0.5910 0.5909 0.5900 0.5899 0.5890
3431.774367 0.5890 0.5891 0.5900 0.5900 0.5901
3438.336079 0.5910 0.5910 0.5920 0.5921 0.5940
3444.897790 0.5940 0.5950 0.5950 0.5960 0.5961
3451.459502 0.5980 0.5990 0.6000 0.6001 0.6020
3458.021213 0.6030 0.6040 0.6041 0.6060 0.6070
3464.582925 0.6080 0.6091 0.6110 0.6110 0.6120
3471.144636 0.6130 0.6131 0.6150 0.6150 0.6160
3477.706348 0.6170 0.6190 0.6210 0.6230 0.6230
3484.268059 0.6240 0.6260 0.6280 0.6290 0.6290
3490.829771 0.6300 0.6300 0.6320 0.6330 0.6340
3497.391482 0.6361 0.6400 0.6420 0.6430 0.6450
3503.953194 0.6460 0.6470 0.6470 0.6490 0.6500
3510.514905 0.6510 0.6530 0.6530 0.6540 0.6570
3517.076617 0.6590 0.6620 0.6640 0.6660 0.6670
3523.638328 0.6680 0.6700 0.6710 0.6740 0.6750
3530.200040 0.6760 0.6760 0.6790 0.6810 0.6839
3536.761751 0.6850 0.6870 0.6880 0.6890 0.6910
3543.323463 0.6920 0.6949 0.6970 0.6999 0.7019
3549.885174 0.7040 0.7050 0.7060 0.7080 0.7090
3556.446886 0.7119 0.7130 0.7140 0.7169 0.7180
3563.008597 0.7190 0.7209 0.7220 0.7230 0.7259
3569.570309 0.7289 0.7300 0.7310 0.7339 0.7359
3576.132020 0.7379 0.7390 0.7419 0.7439 0.7469
3582.693732 0.7499 0.7510 0.7520 0.7530 0.7549
3589.255443 0.7560 0.7589 0.7600 0.7609 0.7638
3595.817155 0.7668 0.7679 0.7689 0.7699 0.7738
3602.378866 0.7778 0.7818 0.7839 0.7849 0.7859
3608.940578 0.7869 0.7898 0.7909 0.7929 0.7939
3615.502289 0.7949 0.7978 0.7980 0.8017 0.8039
3622.064001 0.8059 0.8069 0.8098 0.8118 0.8157
3628.625712 0.8197 0.8209 0.8210 0.8228 0.8239
3635.187424 0.8249 0.8250 0.8268 0.8279 0.8289
3641.749135 0.8290 0.8290 0.8290 0.8290 0.8290
3648.310847 0.8308 0.8319 0.8320 0.8329 0.8348
3654.872558 0.8359 0.8360 0.8360 0.8360 0.8360
3661.434270 0.8360 0.8351 0.8332 0.8330 0.8330
3667.995981 0.8330 0.8330 0.8330 0.8330 0.8330
3674.557693 0.8330 0.8330 0.8348 0.8350 0.8359
3681.119404 0.8369 0.8370 0.8388 0.8390 0.8399
3687.681116 0.8409 0.8445 0.8476 0.8489 0.8499
3694.242827 0.8518 0.8520 0.8529 0.8530 0.8530
3700.804539 0.8530 0.8530 0.8539 0.8540 0.8540
3707.366250 0.8540 0.8540 0.8540 0.8540 0.8540
3713.927962 0.8540 0.8540 0.8540 0.8540 0.8540
3720.489673 0.8540 0.8540 0.8540 0.8540 0.8540
3727.051385 0.8540 0.8557 0.8560 0.8560 0.8560
3733.613096 0.8560 0.8560 0.8560 0.8560 0.8560
3740.174808 0.8560 0.8560 0.8560 0.8560 0.8560
3746.736519 0.8560 0.8560 0.8560 0.8560 0.8560
3753.298231 0.8560 0.8560 0.8560 0.8560 0.8560
3759.859942 0.8543 0.8540 0.8540 0.8540 0.8540
3766.421654 0.8540 0.8540 0.8540 0.8540 0.8540
3772.983365 0.8540 0.8540 0.8540 0.8540 0.8540
3779.545077 0.8540 0.8540 0.8540 0.8540 0.8556
3786.106788 0.8560 0.8560 0.8560 0.8560 0.8560
3792.668500 0.8560 0.8560 0.8560 0.8560 0.8560
3799.230211 0.8560 0.8560 0.8560 0.8560 0.8560
3805.791923 0.8560 0.8568 0.8570 0.8570 0.8562
3812.353634 0.8560 0.8560 0.8560 0.8560 0.8560
3818.915346 0.8560 0.8560 0.8568 0.8562 0.8560
3825.477057 0.8560 0.8560 0.8560 0.8560 0.8544
3832.038769 0.8540 0.8556 0.8560 0.8560 0.8560
3838.600480 0.8560 0.8560 0.8560 0.8560 0.8560
3845.162192 0.8544 0.8532 0.8530 0.8530 0.8530
3851.723903 0.8538 0.8540 0.8540 0.8555 0.8560
3858.285615 0.8560 0.8560 0.8560 0.8560 0.8560
3864.847326 0.8545 0.8540 0.8540 0.8540 0.8540
3871.409038 0.8555 0.8560 0.8560 0.8560 0.8545
3877.970750 0.8540 0.8532 0.8530 0.8530 0.8530
3884.532461 0.8530 0.8530 0.8538 0.8540 0.8540
3891.094173 0.8555 0.8560 0.8560 0.8560 0.8545
3897.655884 0.8540 0.8540 0.8555 0.8560 0.8560
3904.217596 0.8560 0.8560 0.8560 0.8560 0.8560
3910.779307 0.8560 0.8560 0.8560 0.8560 0.8560
3917.341019 0.8545 0.8540 0.8540 0.8540 0.8540
3923.902730 0.8540 0.8540 0.8540 0.8554 0.8560
3930.464442 0.8560 0.8560 0.8560 0.8560 0.8560
3937.026153 0.8560 0.8560 0.8560 0.8560 0.8560
3943.587865 0.8560 0.8560 0.8560 0.8560 0.8560
3950.149576 0.8560 0.8560 0.8560 0.8560 0.8560
3956.711288 0.8560 0.8560 0.8560 0.8560 0.8560
3963.272999 0.8560 0.8546 0.8540 0.8540 0.8533
3969.834711 0.8530 0.8530 0.8530 0.8530 0.8530
3976.396422 0.8530 0.8551 0.8567 0.8570 0.8570
3982.958134 0.8563 0.8560 0.8560 0.8546 0.8554
3989.519845 0.8560 0.8567 0.8570 0.8584 0.8604
3996.081557 0.8617 0.8627 0.8650 0.8626 0.8617
4002.643268 0.8627 0.8650
##END=
