##TITLE=BENZENE, Beta-DEUTEROETHYNYL-
##JCAMP-DX=4.24
##DATA TYPE=INFRARED SPECTRUM
##CLASS=COBLENTZ
##ORIGIN=DOW CHEMICAL COMPANY
##OWNER=COBLENTZ SOCIETY
Collection (C) 2018 copyright by the U.S. Secretary of Commerce
on behalf of the United States of America. All rights reserved.
##DATE=1960
##NAMES=ethynylbenzene
##MOLFORM=C8 H5 D
##SOURCE REFERENCE=COBLENTZ NO. 10491
##$NIST ID=B6010491
##$NIST SOURCE=COBLENTZ
##$NIST IMAGE=cob-r10491
##SPECTROMETER/DATA SYSTEM=Not specified, most likely a prism, grating, or hybrid spectrometer.
##STATE=GAS (VAPOR PRESSURE OF LIQUID AT ROOM TEMPERATURE)
##PATH LENGTH=400 CM CELL
$$ SEE GA 10137 FOR SOLUTION RUN
$$ SPECTRAL CONTAMINATION DUE TO C6H5CH AT 3335, 1225, 1215, 640, AND 610 CM^-^1
$$ SEE SPECTRUM NO. 10137 FOR "SOLUTION" STATE
##SAMPLING PROCEDURE=TRANSMISSION
##RESOLUTION=2
##DATA PROCESSING=DIGITIZED BY NIST FROM HARD COPY (FROM TWO SEGMENTS)
##XUNITS=1/CM
##YUNITS=TRANSMITTANCE
##XFACTOR=1.000000
##YFACTOR=1
##DELTAX=1.276604
##FIRSTX=456.596
##LASTX=3798.74
##FIRSTY=0.91
##MAXX=3798.74
##MINX=456.596
##MAXY=1.054
##MINY=2.0281e-006
##NPOINTS=2619
##XYDATA=(X++(Y..Y))
456.596000 0.9100 0.9080 0.9040 0.8900 0.8621
462.979018 0.8361 0.7703 0.7044 0.7020 0.6980
469.362037 0.5180 0.4041 0.2882 0.1783 0.0684
475.745055 0.0640 0.0580 0.0481 0.0341 0.0122
482.128074 0.0040 0.0180 0.0320 0.0619 0.0620
488.511092 0.0640 0.1317 0.2752 0.4648 0.7162
494.894111 0.7760 0.8120 0.9098 0.9399 0.9520
501.277129 0.9879 0.9880 0.9880 0.9860 0.9800
507.660148 0.9780 0.9760 0.9640 0.9580 0.9361
514.043166 0.9081 0.8742 0.8720 0.8541 0.7408
520.426185 0.6260 0.4761 0.4421 0.4041 0.4020
526.809203 0.3980 0.3940 0.2985 0.1808 0.0629
533.192222 0.4060 0.4560 0.4800 0.5139 0.5579
539.575240 0.6278 0.6718 0.7795 0.8357 0.8996
545.958259 0.9200 0.9320 0.9660 0.9800 1.0000
552.341277 1.0040 1.0160 1.0220 1.0220 1.0260
558.724296 1.0300 1.0320 1.0340 1.0380 1.0440
565.107314 1.0440 1.0460 1.0480 1.0520 1.0520
571.490333 1.0500 1.0480 1.0500 1.0500 1.0500
577.873351 1.0500 1.0520 1.0540 1.0540 1.0520
584.256370 1.0500 1.0500 1.0480 1.0460 1.0460
590.639388 1.0440 1.0320 1.0280 1.0260 1.0121
597.022407 1.0080 1.0020 0.9940 0.9860 0.9800
603.405425 0.9760 0.9760 0.9581 0.9341 0.8128
609.788444 0.6900 0.6861 0.9119 0.8681 0.8540
616.171462 0.8361 0.8599 0.8799 0.8820 0.8919
622.554481 0.9040 0.9320 0.9540 0.9760 1.0099
628.937499 1.0100 0.9961 0.9801 0.9641 0.9560
635.320518 0.9340 0.9120 0.8920 0.8321 0.7781
641.703536 0.7780 0.8457 0.8579 0.9475 0.9222
648.086555 0.8900 0.8860 0.8840 0.8820 0.8820
654.469573 0.8800 0.8780 0.8661 0.8481 0.8381
660.852592 0.8259 0.7840 0.7260 0.6661 0.6620
667.235610 0.6082 0.5024 0.4622 0.4202 0.3783
673.618629 0.3720 0.3700 0.2880 0.2800 0.2501
680.001647 0.2241 0.2061 0.1941 0.1920 0.1363
686.384666 0.0799 0.0061 0.1659 0.1800 0.1820
692.767684 0.1880 0.2019 0.2219 0.2558 0.3037
699.150703 0.3440 0.3540 0.4260 0.4879 0.5259
705.533721 0.5619 0.7234 0.7439 0.7679 0.8316
711.916740 0.8640 0.8880 0.8900 0.9399 0.9640
718.299758 0.9780 0.9680 0.9620 0.9560 0.9461
724.682777 0.9040 0.8760 0.8180 0.7461 0.7061
731.065795 0.6661 0.5823 0.4964 0.4104 0.3643
737.448814 0.3159 0.2300 0.1660 0.1380 0.1200
743.831832 0.1020 0.0880 0.0721 0.0640 0.0620
750.214851 0.0400 0.0220 0.0020 0.0000 0.0519
756.597869 0.0640 0.0660 0.0660 0.0660 0.0779
762.980888 0.1161 0.1560 0.2040 0.2679 0.3479
769.363906 0.4278 0.4818 0.5617 0.5978 0.7411
775.746925 0.7981 0.8760 0.8820 0.9220 0.9340
782.129943 0.9599 0.9620 0.9720 0.9879 0.9880
788.512962 0.9860 0.9900 0.9900 0.9860 0.9860
794.895980 0.9940 0.9940 0.9821 0.9800 0.9800
801.278999 0.9880 0.9920 0.9920 0.9840 0.9780
807.662017 0.9760 0.9720 0.9640 0.9640 0.9720
814.045036 0.9700 0.9680 0.9660 0.9600 0.9540
820.428054 0.9580 0.9640 0.9779 0.9820 0.9840
826.811073 0.9880 1.0000 1.0000 1.0020 1.0060
833.194091 1.0060 1.0100 1.0120 1.0120 1.0120
839.577110 1.0120 1.0120 1.0120 1.0120 1.0040
845.960128 1.0020 1.0000 1.0000 1.0000 0.9980
852.343147 0.9880 0.9840 0.9620 0.9500 0.9440
858.726165 0.9340 0.9340 0.9340 0.9340 0.9260
865.109184 0.9180 0.9120 0.9060 0.9020 0.8960
871.492202 0.8940 0.8900 0.8860 0.8721 0.8859
877.875221 0.8940 0.9120 0.9140 0.9220 0.9220
884.258239 0.9200 0.9080 0.9060 0.9060 0.9140
890.641258 0.9200 0.9220 0.9220 0.9100 0.8980
897.024276 0.8820 0.8720 0.8620 0.8540 0.8460
903.407295 0.8420 0.8420 0.8320 0.8300 0.8140
909.790313 0.7960 0.6663 0.5364 0.8109 0.8478
916.173332 0.8480 0.8500 0.8500 0.8500 0.8500
922.556350 0.8520 0.8720 0.8740 0.8800 0.8919
928.939369 0.9040 0.9160 0.9260 0.9320 0.9340
935.322387 0.9340 0.9160 0.8941 0.8641 0.8142
941.705406 0.7279 0.6859 0.6419 0.5620 0.4761
948.088424 0.4401 0.4540 0.4680 0.5278 0.5280
954.471443 0.4720 0.4820 0.4920 0.4940 0.5020
960.854461 0.5260 0.5639 0.6358 0.7516 0.8177
967.237480 0.8760 0.8880 0.9140 0.9160 0.9300
973.620498 0.9320 0.9360 0.9360 0.9340 0.9280
980.003517 0.9280 0.9260 0.9320 0.9440 0.9440
986.386535 0.9380 0.9320 0.9300 0.9240 0.9280
992.769554 0.9200 0.9160 0.9020 0.8860 0.8700
999.152572 0.8480 0.8241 0.8001 0.7940 0.7821
1005.535591 0.7599 0.7400 0.7360 0.7480 0.7280
1011.918609 0.7140 0.6980 0.6761 0.6700 0.6600
1018.301628 0.6701 0.7060 0.7060 0.7120 0.7120
1024.684646 0.7040 0.6940 0.6860 0.7239 0.7419
1031.067665 0.7460 0.7580 0.7780 0.8060 0.8180
1037.450683 0.8240 0.8320 0.8559 0.8620 0.8720
1043.833702 0.8900 0.8900 0.8860 0.8780 0.8720
1050.216720 0.8600 0.8540 0.8400 0.8121 0.7981
1056.599739 0.7959 0.7640 0.7440 0.7300 0.7220
1062.982757 0.7220 0.7300 0.7400 0.7818 0.7561
1069.365776 0.7360 0.7220 0.7220 0.7260 0.7320
1075.748794 0.7460 0.7680 0.7860 0.8179 0.8299
1082.131813 0.8320 0.8400 0.8440 0.8480 0.8500
1088.514831 0.8540 0.8580 0.8620 0.8640 0.8680
1094.897850 0.8760 0.8760 0.8780 0.8780 0.8720
1101.280868 0.8740 0.8800 0.8900 0.8980 0.9000
1107.663887 0.9040 0.9160 0.9200 0.9220 0.9260
1114.046905 0.9320 0.9340 0.9340 0.9440 0.9440
1120.429924 0.9360 0.9360 0.9400 0.9400 0.9420
1126.812942 0.9420 0.9340 0.9520 0.9380 0.9360
1133.195961 0.9340 0.9320 0.9320 0.9180 0.9140
1139.578979 0.9120 0.9120 0.9180 0.9260 0.9260
1145.961998 0.9200 0.9120 0.9040 0.9040 0.9080
1152.345016 0.9080 0.9080 0.9060 0.9040 0.8980
1158.728035 0.8940 0.8940 0.8920 0.8900 0.8880
1165.111053 0.8860 0.8840 0.8840 0.8840 0.8820
1171.494072 0.8760 0.8720 0.8620 0.8600 0.8340
1177.877090 0.8180 0.8140 0.8120 0.8080 0.7940
1184.260109 0.7941 0.8141 0.8299 0.7921 0.8340
1190.643127 0.8340 0.8060 0.8060 0.8180 0.8240
1197.026146 0.8462 0.8881 0.9200 0.9300 0.9300
1203.409164 0.9260 0.9240 0.9140 0.8941 0.8860
1209.792183 0.8739 0.8540 0.8480 0.8400 0.8400
1216.175201 0.8460 0.8700 0.8640 0.8560 0.8540
1222.558220 0.8519 0.8360 0.8361 0.8600 0.8740
1228.941238 0.8900 0.8920 0.8960 0.9000 0.9040
1235.324257 0.9040 0.9060 0.9060 0.9080 0.9100
1241.707275 0.9100 0.9100 0.9120 0.9240 0.9260
1248.090294 0.9260 0.9260 0.9260 0.9200 0.9180
1254.473312 0.9140 0.9120 0.9040 0.9020 0.9000
1260.856331 0.9000 0.9000 0.8960 0.8900 0.8840
1267.239349 0.8780 0.8820 0.8840 0.9020 0.9020
1273.622368 0.8940 0.8880 0.8780 0.8780 0.8780
1280.005386 0.8800 0.8900 0.8920 0.8940 0.8960
1286.388405 0.8960 0.8900 0.8900 0.8900 0.8920
1292.771423 0.8920 0.8940 0.8940 0.8960 0.8960
1299.154442 0.8980 0.8980 0.8980 0.8980 0.9000
1305.537460 0.9020 0.9020 0.9020 0.8960 0.8940
1311.920479 0.8920 0.8920 0.8800 0.8900 0.8900
1318.303497 0.8880 0.8880 0.8880 0.8840 0.8840
1324.686516 0.8880 0.8900 0.8920 0.8920 0.8900
1331.069534 0.8900 0.8520 0.8420 0.8340 0.8480
1337.452553 0.8560 0.8580 0.8620 0.8620 0.8580
1343.835571 0.8580 0.8500 0.8480 0.8440 0.8480
1350.218590 0.8360 0.8360 0.8340 0.8320 0.8280
1356.601608 0.8180 0.7940 0.7940 0.8140 0.8100
1362.984627 0.8100 0.8040 0.7960 0.7960 0.7960
1369.367645 0.7960 0.8020 0.8140 0.8160 0.8220
1375.750664 0.8360 0.8420 0.8420 0.8340 0.8340
1382.133682 0.8320 0.8260 0.8400 0.8520 0.8520
1388.516701 0.8419 0.8280 0.8280 0.8260 0.8260
1394.899719 0.8460 0.8540 0.8540 0.8400 0.8400
1401.282738 0.8480 0.8520 0.8540 0.8580 0.8560
1407.665756 0.8560 0.8580 0.8580 0.8340 0.8320
1414.048775 0.8121 0.8360 0.8360 0.8240 0.8180
1420.431793 0.8160 0.8140 0.8120 0.7800 0.7640
1426.814812 0.7459 0.7299 0.7119 0.6939 0.6480
1433.197830 0.6440 0.6440 0.6040 0.5920 0.6080
1439.580849 0.6224 0.7040 0.7039 0.6759 0.6459
1445.963867 0.5900 0.5900 0.6160 0.6440 0.6520
1452.346886 0.6801 0.7061 0.7241 0.7421 0.7600
1458.729904 0.7700 0.7700 0.7800 0.7840 0.7980
1465.112923 0.8099 0.7979 0.7820 0.7780 0.7660
1471.495941 0.7779 0.7220 0.7160 0.6541 0.5921
1477.878960 0.4554 0.3495 0.2420 0.2320 0.2240
1484.261978 0.2200 0.2100 0.2100 0.2120 0.2340
1490.644997 0.3080 0.3075 0.2000 0.2002 0.2620
1497.028015 0.2664 0.5240 0.6040 0.7059 0.7080
1503.411034 0.7101 0.7220 0.7301 0.7580 0.7620
1509.794052 0.7660 0.7720 0.7520 0.7360 0.7360
1516.177071 0.7481 0.7660 0.7740 0.7780 0.7840
1522.560089 0.7940 0.7980 0.8040 0.8320 0.8320
1528.943108 0.7760 0.7761 0.7881 0.8101 0.8300
1535.326126 0.8299 0.7740 0.7740 0.8100 0.8140
1541.709145 0.8120 0.8161 0.8380 0.8500 0.8500
1548.092163 0.8500 0.8480 0.8300 0.8260 0.8220
1554.475182 0.8078 0.7781 0.7941 0.8121 0.8360
1560.858200 0.8360 0.8280 0.8120 0.8080 0.8020
1567.241219 0.7980 0.7920 0.7900 0.7858 0.7260
1573.624237 0.7261 0.7820 0.7900 0.7900 0.7740
1580.007256 0.7419 0.7260 0.7220 0.7180 0.7140
1586.390274 0.7140 0.7220 0.7240 0.7040 0.6840
1592.773293 0.6479 0.6299 0.6160 0.6120 0.6120
1599.156311 0.6240 0.6440 0.6460 0.6440 0.6420
1605.539330 0.6441 0.6621 0.6762 0.7241 0.7620
1611.922348 0.7800 0.7800 0.7840 0.8160 0.8320
1618.305367 0.8340 0.8380 0.8400 0.8340 0.8420
1624.688385 0.8440 0.8440 0.8440 0.8440 0.8440
1631.071404 0.8377 0.7902 0.8280 0.8340 0.8360
1637.454422 0.8400 0.8480 0.8500 0.8400 0.8120
1643.837441 0.8140 0.8201 0.8340 0.8420 0.8399
1650.220459 0.8040 0.7780 0.8300 0.8300 0.8300
1656.603478 0.8300 0.8239 0.8118 0.7660 0.7660
1662.986496 0.7740 0.7740 0.7620 0.7540 0.7440
1669.369515 0.7400 0.7400 0.7441 0.7581 0.7780
1675.752533 0.7820 0.7860 0.7900 0.7980 0.8120
1682.135552 0.8160 0.8220 0.8300 0.8340 0.8400
1688.518570 0.8400 0.8480 0.8400 0.8300 0.8040
1694.901589 0.8040 0.8039 0.7900 0.7901 0.8300
1701.284607 0.8340 0.8340 0.8120 0.8320 0.8320
1707.667626 0.8340 0.8339 0.8239 0.8119 0.7960
1714.050644 0.7940 0.7720 0.7720 0.7760 0.7920
1720.433663 0.7960 0.7959 0.7840 0.7780 0.7760
1726.816681 0.7680 0.7560 0.7420 0.7340 0.7200
1733.199700 0.7202 0.7560 0.7559 0.7420 0.7340
1739.582718 0.7280 0.7160 0.7100 0.7060 0.7060
1745.965737 0.7080 0.7101 0.7200 0.7280 0.7321
1752.348755 0.7580 0.7400 0.7400 0.7420 0.7420
1758.731774 0.7501 0.7600 0.7681 0.7920 0.8000
1765.114792 0.8020 0.7860 0.7860 0.7920 0.8060
1771.497811 0.8180 0.8220 0.8260 0.8320 0.8340
1777.880829 0.8340 0.8340 0.8380 0.8380 0.8320
1784.263848 0.8300 0.8299 0.8200 0.8140 0.8059
1790.646866 0.7780 0.7720 0.7600 0.7580 0.7560
1797.029885 0.7480 0.7480 0.7400 0.7401 0.7580
1803.412903 0.7640 0.7480 0.7480 0.7440 0.7440
1809.795922 0.7761 0.7941 0.8100 0.8120 0.8140
1816.178940 0.8140 0.8220 0.8260 0.8320 0.8140
1822.561959 0.7920 0.7960 0.7961 0.8179 0.7961
1828.944977 0.8180 0.8340 0.8340 0.8300 0.8300
1835.327996 0.8340 0.8361 0.8480 0.8500 0.8499
1841.711014 0.8141 0.8480 0.8480 0.8480 0.8480
1848.094033 0.8480 0.8460 0.8440 0.8440 0.8420
1854.477051 0.8400 0.8360 0.8320 0.8320 0.8300
1860.860070 0.8260 0.8220 0.8159 0.8020 0.7940
1867.243088 0.7940 0.7800 0.7800 0.7740 0.7740
1873.626107 0.7740 0.7760 0.7801 0.7920 0.7919
1880.009125 0.7740 0.7660 0.7520 0.7480 0.7420
1886.392144 0.7379 0.7220 0.7221 0.7380 0.7440
1892.775162 0.7560 0.7580 0.7500 0.7500 0.7540
1899.158181 0.7800 0.7861 0.7940 0.7981 0.8100
1905.541199 0.8140 0.8200 0.8320 0.8380 0.8400
1911.924218 0.8440 0.8480 0.8440 0.8400 0.8320
1918.307236 0.8400 0.8360 0.8320 0.8180 0.8320
1924.690255 0.8300 0.8300 0.8300 0.8260 0.8160
1931.073273 0.8100 0.7980 0.7960 0.7820 0.7760
1937.456292 0.7739 0.7599 0.7380 0.7381 0.7520
1943.839310 0.7580 0.7620 0.7740 0.7740 0.7600
1950.222329 0.7440 0.7399 0.7320 0.7320 0.7400
1956.605347 0.7440 0.7540 0.7560 0.7640 0.7580
1962.988366 0.7521 0.7600 0.7641 0.7740 0.7800
1969.371384 0.7919 0.7760 0.7900 0.7940 0.8120
1975.754403 0.8260 0.8301 0.8400 0.8420 0.8460
1982.137421 0.8480 0.8500 0.8540 0.8540 0.8480
1988.520440 0.8459 0.8320 0.8321 0.8500 0.8520
1994.903458 0.8520 0.8440 0.8500 0.8520 0.8681
2001.286477 0.8761 0.8840 0.8840 0.8840 0.8870
2007.669495 0.8900 0.8900 0.8900 0.8890 0.8880
2014.052514 0.8880 0.8880 0.8890 0.8900 0.8900
2020.435532 0.8900 0.8870 0.8841 0.8860 0.8880
2026.818551 0.8880 0.8880 0.8890 0.8900 0.8880
2033.201569 0.8860 0.8830 0.8800 0.8850 0.8900
2039.584588 0.8900 0.8900 0.8880 0.8860 0.8860
2045.967606 0.8860 0.8860 0.8860 0.8860 0.8860
2052.350625 0.8860 0.8860 0.8880 0.8900 0.8900
2058.733643 0.8900 0.8890 0.8880 0.8880 0.8880
2065.116662 0.8890 0.8900 0.8900 0.8900 0.8900
2071.499680 0.8900 0.8900 0.8900 0.8890 0.8880
2077.882699 0.8880 0.8880 0.8870 0.8860 0.8860
2084.265717 0.8860 0.8860 0.8860 0.8860 0.8860
2090.648736 0.8850 0.8840 0.8840 0.8840 0.8830
2097.031754 0.8820 0.8800 0.8780 0.8770 0.8760
2103.414773 0.8760 0.8760 0.8750 0.8740 0.8720
2109.797791 0.8700 0.8700 0.8700 0.8690 0.8680
2116.180810 0.8650 0.8620 0.8590 0.8560 0.8550
2122.563828 0.8540 0.8540 0.8540 0.8550 0.8560
2128.946847 0.8570 0.8580 0.8590 0.8600 0.8610
2135.329865 0.8620 0.8640 0.8660 0.8670 0.8680
2141.712884 0.8690 0.8700 0.8690 0.8680 0.8690
2148.095902 0.8700 0.8710 0.8720 0.8730 0.8740
2154.478920 0.8740 0.8740 0.8720 0.8700 0.8700
2160.861939 0.8700 0.8690 0.8680 0.8670 0.8660
2167.244957 0.8660 0.8660 0.8680 0.8700 0.8710
2173.627976 0.8720 0.8720 0.8720 0.8730 0.8740
2180.010994 0.8740 0.8740 0.8720 0.8700 0.8690
2186.394013 0.8680 0.8680 0.8680 0.8690 0.8700
2192.777031 0.8700 0.8700 0.8700 0.8700 0.8700
2199.160050 0.8700 0.8690 0.8680 0.8670 0.8660
2205.543068 0.8680 0.8700 0.8710 0.8720 0.8720
2211.926087 0.8720 0.8700 0.8680 0.8680 0.8680
2218.309105 0.8670 0.8660 0.8660 0.8660 0.8660
2224.692124 0.8660 0.8660 0.8660 0.8680 0.8700
2231.075142 0.8690 0.8680 0.8670 0.8660 0.8640
2237.458161 0.8620 0.8600 0.8580 0.8550 0.8520
2243.841179 0.8510 0.8500 0.8510 0.8520 0.8550
2250.224198 0.8580 0.8580 0.8580 0.8580 0.8580
2256.607216 0.8580 0.8580 0.8570 0.8560 0.8550
2262.990235 0.8540 0.8530 0.8520 0.8500 0.8480
2269.373253 0.8480 0.8480 0.8490 0.8500 0.8520
2275.756272 0.8540 0.8560 0.8580 0.8580 0.8580
2282.139290 0.8550 0.8520 0.8540 0.8560 0.8570
2288.522309 0.8580 0.8580 0.8580 0.8590 0.8600
2294.905327 0.8600 0.8600 0.8610 0.8620 0.8630
2301.288346 0.8640 0.8640 0.8640 0.8630 0.8620
2307.671364 0.8600 0.8580 0.8560 0.8540 0.8510
2314.054383 0.8480 0.8440 0.8400 0.8390 0.8380
2320.437401 0.8350 0.8320 0.8290 0.8260 0.8260
2326.820420 0.8260 0.8299 0.8339 0.8350 0.8360
2333.203438 0.8360 0.8360 0.8360 0.8360 0.8350
2339.586457 0.8340 0.8330 0.8320 0.8290 0.8260
2345.969475 0.8250 0.8240 0.8260 0.8280 0.8300
2352.352494 0.8320 0.8330 0.8340 0.8360 0.8380
2358.735512 0.8420 0.8460 0.8460 0.8460 0.8450
2365.118531 0.8440 0.8440 0.8440 0.8450 0.8460
2371.501549 0.8470 0.8480 0.8500 0.8520 0.8520
2377.884568 0.8520 0.8530 0.8540 0.8540 0.8540
2384.267586 0.8530 0.8520 0.8520 0.8520 0.8520
2390.650605 0.8520 0.8530 0.8540 0.8550 0.8560
2397.033623 0.8570 0.8580 0.8580 0.8580 0.8560
2403.416642 0.8540 0.8540 0.8540 0.8550 0.8560
2409.799660 0.8560 0.8560 0.8550 0.8540 0.8540
2416.182679 0.8540 0.8530 0.8520 0.8520 0.8520
2422.565697 0.8520 0.8520 0.8510 0.8500 0.8490
2428.948716 0.8480 0.8460 0.8440 0.8420 0.8400
2435.331734 0.8390 0.8380 0.8400 0.8420 0.8430
2441.714753 0.8440 0.8460 0.8480 0.8480 0.8480
2448.097771 0.8500 0.8520 0.8520 0.8520 0.8500
2454.480790 0.8480 0.8480 0.8480 0.8470 0.8460
2460.863808 0.8420 0.8380 0.8350 0.8320 0.8320
2467.246827 0.8320 0.8320 0.8320 0.8320 0.8320
2473.629845 0.8320 0.8320 0.8330 0.8340 0.8340
2480.012864 0.8340 0.8350 0.8360 0.8370 0.8380
2486.395882 0.8390 0.8400 0.8400 0.8400 0.8410
2492.778901 0.8420 0.8460 0.8500 0.8500 0.8500
2499.161919 0.8460 0.8420 0.8410 0.8400 0.8390
2505.544938 0.8380 0.8370 0.8360 0.8360 0.8360
2511.927956 0.8350 0.8340 0.8340 0.8340 0.8350
2518.310975 0.8360 0.8360 0.8360 0.8370 0.8380
2524.693993 0.8390 0.8400 0.8400 0.8400 0.8400
2531.077012 0.8400 0.8390 0.8380 0.8380 0.8380
2537.460030 0.8380 0.8380 0.8350 0.8320 0.8310
2543.843049 0.8300 0.8300 0.8300 0.8290 0.8280
2550.226067 0.8260 0.8240 0.8220 0.8200 0.8190
2556.609086 0.8180 0.8170 0.8160 0.8140 0.8119
2562.992104 0.8059 0.7999 0.7930 0.7860 0.7860
2569.375123 0.7860 0.7660 0.7460 0.7350 0.7240
2575.758141 0.6951 0.6662 0.6372 0.6083 0.5763
2582.141160 0.5444 0.5105 0.4765 0.4441 0.4114
2588.524178 0.3595 0.3076 0.2547 0.2019 0.1749
2594.907197 0.1479 0.1210 0.0940 0.0890 0.0840
2601.290215 0.0721 0.0601 0.0491 0.0381 0.0271
2607.673234 0.0161 0.0140 0.0120 0.0130 0.0141
2614.056252 0.0211 0.0286 0.1005 0.1728 0.3266
2620.439271 0.4803 0.6101 0.7399 0.7739 0.8079
2626.822289 0.8080 0.8080 0.8120 0.8160 0.8170
2633.205308 0.8180 0.8200 0.8220 0.8220 0.8220
2639.588326 0.8230 0.8240 0.8240 0.8240 0.8200
2645.971345 0.8160 0.8150 0.8140 0.8140 0.8140
2652.354363 0.8150 0.8160 0.8190 0.8220 0.8230
2658.737382 0.8240 0.8250 0.8260 0.8260 0.8260
2665.120400 0.8270 0.8280 0.8280 0.8280 0.8290
2671.503419 0.8300 0.8300 0.8300 0.8290 0.8280
2677.886437 0.8280 0.8280 0.8270 0.8260 0.8250
2684.269456 0.8240 0.8230 0.8220 0.8220 0.8220
2690.652474 0.8220 0.8220 0.8210 0.8200 0.8200
2697.035493 0.8200 0.8200 0.8200 0.8210 0.8220
2703.418511 0.8250 0.8280 0.8280 0.8280 0.8290
2709.801530 0.8300 0.8300 0.8300 0.8300 0.8300
2716.184548 0.8300 0.8300 0.8260 0.8220 0.8220
2722.567567 0.8220 0.8210 0.8200 0.8190 0.8180
2728.950585 0.8170 0.8160 0.8160 0.8160 0.8150
2735.333604 0.8140 0.8130 0.8120 0.8120 0.8120
2741.716622 0.8120 0.8120 0.8120 0.8120 0.8110
2748.099641 0.8100 0.8100 0.8100 0.8100 0.8100
2754.482659 0.8090 0.8080 0.8060 0.8040 0.8030
2760.865678 0.8020 0.8020 0.8020 0.8020 0.8020
2767.248696 0.8030 0.8040 0.8050 0.8060 0.8070
2773.631715 0.8080 0.8090 0.8100 0.8100 0.8100
2780.014733 0.8100 0.8100 0.8110 0.8120 0.8120
2786.397752 0.8120 0.8110 0.8100 0.8100 0.8100
2792.780770 0.8090 0.8080 0.8070 0.8060 0.8060
2799.163789 0.8060 0.8080 0.8100 0.8110 0.8120
2805.546807 0.8120 0.8120 0.8130 0.8140 0.8140
2811.929826 0.8140 0.8150 0.8160 0.8160 0.8160
2818.312844 0.8160 0.8160 0.8160 0.8160 0.8160
2824.695863 0.8160 0.8150 0.8140 0.8140 0.8140
2831.078881 0.8140 0.8140 0.8140 0.8140 0.8130
2837.461900 0.8120 0.8110 0.8100 0.8100 0.8100
2843.844918 0.8100 0.8100 0.8100 0.8100 0.8090
2850.227937 0.8080 0.8070 0.8060 0.8040 0.8020
2856.610955 0.8010 0.8000 0.7980 0.7960 0.7960
2862.993974 0.7960 0.7960 0.7960 0.7960 0.7960
2869.376992 0.7960 0.7960 0.7950 0.7940 0.7940
2875.760011 0.7940 0.7930 0.7920 0.7920 0.7920
2882.143029 0.7920 0.7920 0.7900 0.7880 0.7860
2888.526048 0.7840 0.7840 0.7840 0.7810 0.7780
2894.909066 0.7780 0.7780 0.7790 0.7800 0.7800
2901.292085 0.7800 0.7810 0.7820 0.7820 0.7820
2907.675103 0.7820 0.7820 0.7820 0.7820 0.7810
2914.058122 0.7800 0.7800 0.7800 0.7800 0.7800
2920.441140 0.7790 0.7780 0.7770 0.7760 0.7750
2926.824159 0.7740 0.7740 0.7740 0.7720 0.7700
2933.207177 0.7690 0.7680 0.7670 0.7660 0.7640
2939.590196 0.7620 0.7620 0.7620 0.7640 0.7660
2945.973214 0.7680 0.7700 0.7710 0.7720 0.7740
2952.356233 0.7760 0.7770 0.7780 0.7780 0.7780
2958.739251 0.7780 0.7780 0.7800 0.7820 0.7820
2965.122270 0.7820 0.7820 0.7820 0.7800 0.7780
2971.505288 0.7750 0.7720 0.7710 0.7700 0.7680
2977.888307 0.7660 0.7660 0.7660 0.7650 0.7640
2984.271325 0.7640 0.7640 0.7630 0.7620 0.7620
2990.654344 0.7620 0.7640 0.7660 0.7680 0.7700
2997.037362 0.7720 0.7740 0.7750 0.7760 0.7760
3003.420381 0.7760 0.7700 0.7640 0.7630 0.7620
3009.803399 0.7600 0.7580 0.7520 0.7460 0.7381
3016.186418 0.7301 0.7241 0.7181 0.7070 0.6959
3022.569436 0.6849 0.6737 0.6427 0.6119 0.5929
3028.952455 0.5740 0.5710 0.5680 0.5520 0.5360
3035.335473 0.4862 0.4362 0.4221 0.4081 0.3941
3041.718492 0.3801 0.3721 0.3641 0.3640 0.3640
3048.101510 0.3670 0.3700 0.3720 0.3742 0.3991
3054.484529 0.4241 0.4501 0.4760 0.4760 0.4760
3060.867547 0.4511 0.4261 0.4031 0.3802 0.3572
3067.250566 0.3342 0.3053 0.2764 0.2620 0.2475
3073.633584 0.2095 0.1720 0.1710 0.1700 0.1710
3080.016603 0.1720 0.1790 0.1860 0.1820 0.1780
3086.399621 0.1760 0.1740 0.1760 0.1780 0.1959
3092.782640 0.2138 0.2516 0.2895 0.2900 0.2899
3099.165658 0.2799 0.2699 0.2650 0.2600 0.2600
3105.548677 0.2601 0.2751 0.2900 0.3050 0.3200
3111.931695 0.3779 0.4358 0.4768 0.5177 0.5210
3118.314714 0.5240 0.5557 0.5876 0.6460 0.7041
3124.697732 0.7111 0.7181 0.7261 0.7341 0.7461
3131.080751 0.7581 0.7700 0.7820 0.7820 0.7820
3137.463769 0.7810 0.7800 0.7800 0.7800 0.7790
3143.846788 0.7780 0.7770 0.7760 0.7750 0.7740
3150.229806 0.7720 0.7700 0.7670 0.7640 0.7610
3156.612825 0.7580 0.7580 0.7580 0.7580 0.7580
3162.995843 0.7590 0.7600 0.7620 0.7640 0.7700
3169.378862 0.7759 0.7790 0.7820 0.7850 0.7880
3175.761880 0.7900 0.7920 0.7910 0.7900 0.7870
3182.144899 0.7840 0.7830 0.7820 0.7800 0.7780
3188.527917 0.7780 0.7780 0.7780 0.7780 0.7790
3194.910936 0.7800 0.7810 0.7820 0.7830 0.7840
3201.293954 0.7850 0.7860 0.7860 0.7860 0.7860
3207.676973 0.7860 0.7870 0.7880 0.7880 0.7880
3214.059991 0.7890 0.7900 0.7910 0.7920 0.7920
3220.443010 0.7920 0.7920 0.7920 0.7920 0.7920
3226.826028 0.7920 0.7920 0.7890 0.7860 0.7840
3233.209047 0.7820 0.7810 0.7800 0.7810 0.7820
3239.592065 0.7840 0.7860 0.7890 0.7920 0.7920
3245.975084 0.7920 0.7920 0.7920 0.7920 0.7920
3252.358102 0.7920 0.7920 0.7900 0.7880 0.7870
3258.741121 0.7860 0.7850 0.7840 0.7850 0.7860
3265.124139 0.7870 0.7880 0.7890 0.7900 0.7910
3271.507158 0.7920 0.7920 0.7920 0.7890 0.7860
3277.890176 0.7850 0.7840 0.7820 0.7800 0.7780
3284.273195 0.7760 0.7800 0.7840 0.7840 0.7840
3290.656213 0.7820 0.7800 0.7780 0.7760 0.7750
3297.039232 0.7740 0.7720 0.7700 0.7670 0.7639
3303.422250 0.7559 0.7480 0.7440 0.7399 0.7330
3309.805269 0.7260 0.7250 0.7240 0.7150 0.7060
3316.188287 0.7030 0.7000 0.6960 0.6920 0.6900
3322.571306 0.6880 0.6850 0.6820 0.6580 0.6339
3328.954324 0.6239 0.6141 0.6191 0.6240 0.6290
3335.337343 0.6340 0.6360 0.6380 0.6420 0.6460
3341.720361 0.6440 0.6420 0.6400 0.6380 0.6867
3348.103380 0.7356 0.7449 0.7539 0.7610 0.7680
3354.486398 0.7710 0.7740 0.7750 0.7760 0.7770
3360.869417 0.7780 0.7780 0.7780 0.7770 0.7760
3367.252435 0.7760 0.7760 0.7760 0.7760 0.7760
3373.635454 0.7760 0.7770 0.7780 0.7790 0.7800
3380.018472 0.7800 0.7800 0.7800 0.7800 0.7750
3386.401491 0.7700 0.7700 0.7700 0.7740 0.7780
3392.784509 0.7780 0.7780 0.7770 0.7760 0.7740
3399.167528 0.7720 0.7720 0.7720 0.7710 0.7700
3405.550546 0.7730 0.7760 0.7760 0.7760 0.7760
3411.933565 0.7760 0.7760 0.7760 0.7720 0.7680
3418.316583 0.7680 0.7680 0.7710 0.7740 0.7760
3424.699602 0.7780 0.7780 0.7780 0.7760 0.7740
3431.082620 0.7740 0.7740 0.7750 0.7760 0.7760
3437.465639 0.7760 0.7750 0.7740 0.7740 0.7740
3443.848657 0.7740 0.7740 0.7740 0.7740 0.7730
3450.231676 0.7720 0.7710 0.7700 0.7710 0.7720
3456.614694 0.7720 0.7720 0.7720 0.7720 0.7720
3462.997713 0.7720 0.7720 0.7720 0.7720 0.7720
3469.380731 0.7720 0.7720 0.7730 0.7740 0.7740
3475.763750 0.7740 0.7750 0.7760 0.7760 0.7760
3482.146768 0.7760 0.7760 0.7760 0.7760 0.7720
3488.529787 0.7680 0.7720 0.7760 0.7770 0.7780
3494.912805 0.7790 0.7800 0.7800 0.7800 0.7750
3501.295824 0.7700 0.7720 0.7740 0.7760 0.7780
3507.678842 0.7790 0.7800 0.7810 0.7820 0.7820
3514.061861 0.7820 0.7790 0.7760 0.7740 0.7720
3520.444879 0.7720 0.7720 0.7710 0.7700 0.7700
3526.827898 0.7700 0.7720 0.7740 0.7750 0.7760
3533.210916 0.7770 0.7780 0.7800 0.7820 0.7820
3539.593935 0.7820 0.7790 0.7760 0.7750 0.7740
3545.976953 0.7740 0.7740 0.7760 0.7780 0.7780
3552.359972 0.7780 0.7780 0.7780 0.7800 0.7820
3558.742990 0.7820 0.7818 0.7678 0.7540 0.7540
3565.126009 0.7541 0.7651 0.7760 0.7780 0.7800
3571.509027 0.7810 0.7820 0.7820 0.7820 0.7800
3577.892046 0.7780 0.7740 0.7700 0.7700 0.7700
3584.275064 0.7700 0.7700 0.7730 0.7759 0.7689
3590.658083 0.7620 0.7630 0.7640 0.7670 0.7700
3597.041101 0.7720 0.7740 0.7750 0.7760 0.7760
3603.424120 0.7760 0.7740 0.7720 0.7690 0.7660
3609.807138 0.7640 0.7620 0.7600 0.7580 0.7610
3616.190157 0.7640 0.7650 0.7660 0.7700 0.7740
3622.573175 0.7740 0.7740 0.7640 0.7540 0.7560
3628.956194 0.7580 0.7610 0.7640 0.7690 0.7740
3635.339212 0.7740 0.7740 0.7740 0.7740 0.7730
3641.722231 0.7720 0.7660 0.7600 0.7560 0.7520
3648.105249 0.7510 0.7500 0.7510 0.7520 0.7540
3654.488268 0.7560 0.7610 0.7660 0.7700 0.7740
3660.871286 0.7730 0.7720 0.7700 0.7679 0.7630
3667.254305 0.7580 0.7530 0.7480 0.7450 0.7420
3673.637323 0.7460 0.7500 0.7570 0.7640 0.7690
3680.020342 0.7740 0.7651 0.7561 0.7540 0.7520
3686.403360 0.7520 0.7521 0.7591 0.7661 0.7710
3692.786379 0.7760 0.7760 0.7760 0.7760 0.7760
3699.169397 0.7750 0.7740 0.7710 0.7680 0.7630
3705.552416 0.7580 0.7501 0.7421 0.7520 0.7620
3711.935434 0.7620 0.7620 0.7620 0.7620 0.7620
3718.318453 0.7620 0.7610 0.7600 0.7600 0.7600
3724.701471 0.7590 0.7580 0.7530 0.7480 0.7470
3731.084490 0.7460 0.7440 0.7420 0.7490 0.7560
3737.467508 0.7570 0.7579 0.7529 0.7480 0.7480
3743.850527 0.7480 0.7500 0.7520 0.7550 0.7580
3750.233545 0.7610 0.7640 0.7660 0.7680 0.7680
3756.616564 0.7680 0.7680 0.7680 0.7670 0.7660
3762.999582 0.7670 0.7680 0.7680 0.7680 0.7680
3769.382601 0.7680 0.7670 0.7660 0.7660 0.7660
3775.765619 0.7660 0.7660 0.7660 0.7660 0.7650
3782.148638 0.7640 0.7640 0.7640 0.7640 0.7640
3788.531656 0.7620 0.7600 0.7590 0.7580 0.7560
3794.914675 0.7540 0.7560 0.7580 0.7560
##END=
