##TITLE=BENZAMIDE, 2-AMINO-3,5-DIIODO-
##JCAMP-DX=4.24
##DATA TYPE=INFRARED SPECTRUM
##CLASS=COBLENTZ III
##ORIGIN=SOUTHERN RESEARCH INSTITUTE
##OWNER=COBLENTZ SOCIETY
Collection (C) 2018 copyright by the U.S. Secretary of Commerce
on behalf of the United States of America. All rights reserved.
##DATE=1971/09/21
##NAMES=2-amino-3,5-diiodobenzamide
##MOLFORM=C7 H6 I2 N2 O
##SOURCE REFERENCE=COBLENTZ NO. 10383
##$NIST ID=B6010383
##$NIST SOURCE=COBLENTZ
##$NIST IMAGE=cob10383
##SPECTROMETER/DATA SYSTEM=PERKIN-ELMER 521 (GRATING)
##STATE=SOLID (1 mg / 500 mg KBr DISC)
##PATH LENGTH=
$$ PURITY - ANALYTICAL
##SAMPLING PROCEDURE=TRANSMISSION
##RESOLUTION=4
##DATA PROCESSING=DIGITIZED BY NIST FROM HARD COPY (FROM TWO SEGMENTS)
##XUNITS=1/CM
##YUNITS=TRANSMITTANCE
##XFACTOR=1.000000
##YFACTOR=1
##DELTAX=1.305489
##FIRSTX=254.569
##LASTX=3998.71
##FIRSTY=0.406
##MAXX=3998.71
##MINX=254.569
##MAXY=0.808
##MINY=0.211017
##NPOINTS=2869
##XYDATA=(X++(Y..Y))
254.569000 0.4060 0.4080 0.4110 0.4130 0.4190
261.096443 0.4210 0.4280 0.4340 0.4380 0.4459
267.623886 0.4540 0.4590 0.4640 0.4670 0.4690
274.151329 0.4800 0.4900 0.4940 0.4980 0.5010
280.678771 0.5030 0.5500 0.5660 0.5750 0.5929
287.206214 0.6010 0.6050 0.6130 0.6239 0.6290
293.733657 0.6300 0.6310 0.6340 0.6380 0.6400
300.261100 0.6420 0.6430 0.6440 0.6460 0.6460
306.788543 0.6440 0.6440 0.6440 0.6430 0.6420
313.315986 0.6390 0.6310 0.6171 0.6100 0.6080
319.843429 0.6040 0.6010 0.6000 0.5990 0.6000
326.370871 0.6100 0.6170 0.6270 0.6469 0.6569
332.898314 0.6760 0.6850 0.6930 0.6990 0.7060
339.425757 0.7080 0.7120 0.7140 0.7140 0.7150
345.953200 0.7160 0.7160 0.7160 0.7180 0.7180
352.480643 0.7180 0.7180 0.7180 0.7180 0.7180
359.008086 0.7180 0.7180 0.7190 0.7190 0.7190
365.535529 0.7180 0.7180 0.7160 0.7150 0.7150
372.062972 0.7150 0.7120 0.7100 0.7080 0.7080
378.590414 0.7040 0.7020 0.7010 0.6990 0.6980
385.117857 0.6980 0.6980 0.6970 0.6940 0.6930
391.645300 0.6910 0.6900 0.6781 0.6760 0.6730
398.172743 0.6680 0.6670 0.6630 0.6600 0.6480
404.700186 0.6430 0.6380 0.6380 0.6300 0.6240
411.227629 0.6160 0.6030 0.5990 0.5840 0.5780
417.755072 0.5840 0.5969 0.6000 0.6139 0.6289
424.282514 0.6330 0.6420 0.6470 0.6500 0.6500
430.809957 0.6510 0.6510 0.6520 0.6520 0.6520
437.337400 0.6520 0.6520 0.6520 0.6510 0.6510
443.864843 0.6520 0.6520 0.6550 0.6550 0.6560
450.392286 0.6590 0.6610 0.6630 0.6730 0.6770
456.919729 0.6810 0.6840 0.6840 0.6850 0.6850
463.447172 0.6840 0.6840 0.6820 0.6800 0.6780
469.974614 0.6770 0.6760 0.6760 0.6770 0.6840
476.502057 0.6890 0.6930 0.6950 0.6980 0.7060
483.029500 0.7080 0.7120 0.7140 0.7140 0.7140
489.556943 0.7150 0.7150 0.7150 0.7150 0.7140
496.084386 0.7140 0.7120 0.7100 0.7100 0.7080
502.611829 0.7060 0.7040 0.6990 0.6950 0.6940
509.139272 0.6930 0.6910 0.6890 0.6820 0.6780
515.666714 0.6770 0.6730 0.6670 0.6610 0.6590
522.194157 0.6560 0.6550 0.6520 0.6510 0.6460
528.721600 0.6430 0.6350 0.6300 0.6260 0.6180
535.249043 0.6050 0.5950 0.5870 0.5631 0.5401
541.776486 0.5161 0.5650 0.5800 0.5960 0.6180
548.303929 0.6200 0.6200 0.6180 0.6170 0.6140
554.831372 0.6120 0.6090 0.6050 0.6030 0.5990
561.358815 0.5910 0.5820 0.5770 0.5690 0.5670
567.886257 0.5690 0.5740 0.5780 0.5880 0.5990
574.413700 0.6100 0.6170 0.6180 0.6180 0.6200
580.941143 0.6200 0.6210 0.6210 0.6210 0.6210
587.468586 0.6220 0.6220 0.6220 0.6220 0.6220
593.996029 0.6220 0.6220 0.6220 0.6220 0.6220
600.523472 0.6210 0.6200 0.6180 0.6160 0.6140
607.050915 0.6130 0.6120 0.6070 0.6050 0.6040
613.578357 0.6010 0.5960 0.5920 0.5910 0.5870
620.105800 0.5820 0.5730 0.5630 0.5600 0.5520
626.633243 0.5500 0.5490 0.5480 0.5410 0.5311
633.160686 0.5260 0.5200 0.5180 0.5150 0.5140
639.688129 0.5130 0.5110 0.5110 0.5130 0.5160
646.215572 0.5230 0.5310 0.5600 0.5660 0.5660
652.743015 0.5530 0.5400 0.5181 0.5110 0.4891
659.270457 0.4670 0.4550 0.4280 0.3890 0.3231
665.797900 0.3230 0.3748 0.4487 0.4500 0.4639
672.325343 0.4901 0.5520 0.5780 0.6050 0.6200
678.852786 0.6300 0.6459 0.6629 0.6739 0.6899
685.380229 0.6940 0.6990 0.7010 0.7180 0.7250
691.907672 0.7270 0.7320 0.7400 0.7420 0.7420
698.435115 0.7450 0.7500 0.7540 0.7610 0.7670
704.962557 0.7700 0.7720 0.7750 0.7750 0.7780
711.490000 0.7800 0.7800 0.7810 0.7830 0.7830
718.017443 0.7840 0.7840 0.7850 0.7850 0.7850
724.544886 0.7850 0.7840 0.7830 0.7830 0.7810
731.072329 0.7790 0.7780 0.7750 0.7740 0.7720
737.599772 0.7700 0.7680 0.7670 0.7660 0.7590
744.127215 0.7580 0.7570 0.7540 0.7530 0.7510
750.654658 0.7500 0.7510 0.7540 0.7550 0.7580
757.182100 0.7680 0.7710 0.7750 0.7780 0.7830
763.709543 0.7850 0.7870 0.7840 0.7800 0.7800
770.236986 0.7790 0.7780 0.7710 0.7591 0.7550
776.764429 0.7530 0.7440 0.7380 0.7280 0.7160
783.291872 0.7080 0.7060 0.6940 0.6890 0.6890
789.819315 0.7060 0.7060 0.7020 0.6990 0.6930
796.346758 0.6890 0.6780 0.6720 0.6720 0.6760
802.874200 0.6940 0.6990 0.7060 0.7070 0.7150
809.401643 0.7270 0.7320 0.7410 0.7549 0.7580
815.929086 0.7610 0.7720 0.7760 0.7780 0.7780
822.456529 0.7790 0.7850 0.7870 0.7880 0.7920
828.983972 0.7930 0.7930 0.7930 0.7930 0.7930
835.511415 0.7930 0.7920 0.7910 0.7890 0.7840
842.038858 0.7790 0.7740 0.7630 0.7580 0.7440
848.566300 0.7310 0.7310 0.7370 0.7450 0.7579
855.093743 0.7580 0.7620 0.7620 0.7630 0.7620
861.621186 0.7610 0.7530 0.7440 0.7281 0.7161
868.148629 0.7100 0.6989 0.6470 0.5650 0.5650
874.676072 0.7117 0.7499 0.7839 0.8019 0.8060
881.203515 0.8080 0.8080 0.8080 0.8080 0.8060
887.730958 0.8060 0.8040 0.8020 0.8010 0.8000
894.258400 0.8000 0.7980 0.8000 0.8000 0.8000
900.785843 0.8010 0.8010 0.8020 0.8020 0.8020
907.313286 0.8010 0.7980 0.7970 0.7960 0.7950
913.840729 0.7950 0.7930 0.7930 0.7920 0.7910
920.368172 0.7910 0.7910 0.7890 0.7890 0.7890
926.895615 0.7880 0.7880 0.7880 0.7880 0.7870
933.423058 0.7870 0.7870 0.7870 0.7880 0.7880
939.950500 0.7870 0.7850 0.7850 0.7850 0.7830
946.477943 0.7800 0.7800 0.7790 0.7790 0.7790
953.005386 0.7790 0.7780 0.7760 0.7750 0.7750
959.532829 0.7750 0.7740 0.7720 0.7720 0.7710
966.060272 0.7710 0.7710 0.7710 0.7710 0.7700
972.587715 0.7680 0.7650 0.7650 0.7630 0.7630
979.115158 0.7620 0.7620 0.7610 0.7590 0.7580
985.642601 0.7570 0.7550 0.7540 0.7530 0.7510
992.170043 0.7500 0.7500 0.7500 0.7490 0.7490
998.697486 0.7480 0.7450 0.7440 0.7440 0.7420
1005.224929 0.7420 0.7410 0.7410 0.7410 0.7380
1011.752372 0.7360 0.7360 0.7340 0.7340 0.7330
1018.279815 0.7280 0.7250 0.7240 0.7230 0.7230
1024.807258 0.7190 0.7110 0.7110 0.7100 0.7080
1031.334701 0.7010 0.6950 0.6940 0.6940 0.6910
1037.862143 0.6890 0.6860 0.6840 0.6800 0.6780
1044.389586 0.6770 0.6770 0.6760 0.6760 0.6760
1050.917029 0.6760 0.6770 0.6770 0.6770 0.6780
1057.444472 0.6800 0.6820 0.6870 0.6900 0.6930
1063.971915 0.6940 0.6950 0.6980 0.7060 0.7070
1070.499358 0.7110 0.7200 0.7210 0.7230 0.7270
1077.026801 0.7310 0.7340 0.7340 0.7340 0.7340
1083.554243 0.7330 0.7330 0.7320 0.7290 0.7280
1090.081686 0.7270 0.7270 0.7250 0.7250 0.7250
1096.609129 0.7240 0.7240 0.7230 0.7140 0.7030
1103.136572 0.7020 0.7010 0.7010 0.6990 0.6980
1109.664015 0.6980 0.6980 0.6980 0.6980 0.6970
1116.191458 0.6970 0.6940 0.6930 0.6860 0.6780
1122.718901 0.6740 0.6670 0.6600 0.6570 0.6520
1129.246343 0.6470 0.6330 0.6290 0.6160 0.6120
1135.773786 0.6080 0.6080 0.6120 0.6160 0.6299
1142.301229 0.6501 0.6740 0.6800 0.6910 0.6970
1148.828672 0.6990 0.7030 0.7060 0.7060 0.7060
1155.356115 0.7040 0.7040 0.7030 0.7020 0.7010
1161.883558 0.6990 0.6980 0.6970 0.6970 0.6970
1168.411001 0.6970 0.6970 0.6950 0.6950 0.6950
1174.938444 0.6940 0.6930 0.6910 0.6910 0.6900
1181.465886 0.6870 0.6860 0.6840 0.6820 0.6820
1187.993329 0.6810 0.6800 0.6780 0.6740 0.6710
1194.520772 0.6680 0.6670 0.6650 0.6640 0.6630
1201.048215 0.6610 0.6570 0.6500 0.6470 0.6460
1207.575658 0.6440 0.6440 0.6440 0.6430 0.6420
1214.103101 0.6400 0.6400 0.6390 0.6380 0.6310
1220.630544 0.6300 0.6290 0.6270 0.6220 0.6180
1227.157986 0.6090 0.6090 0.6040 0.6000 0.5900
1233.685429 0.5840 0.5770 0.5630 0.5610 0.5520
1240.212872 0.5430 0.5220 0.5030 0.4831 0.4601
1246.740315 0.4579 0.4170 0.4171 0.4801 0.6050
1253.267758 0.6690 0.6710 0.6690 0.6680 0.6640
1259.795201 0.6600 0.6560 0.6520 0.6480 0.6470
1266.322644 0.6370 0.6290 0.6250 0.6180 0.6080
1272.850086 0.6050 0.6080 0.6130 0.6140 0.6170
1279.377529 0.6240 0.6260 0.6350 0.6350 0.6340
1285.904972 0.6300 0.6200 0.6140 0.6070 0.5700
1292.432415 0.5700 0.5750 0.5870 0.6079 0.6259
1298.959858 0.6590 0.6640 0.6640 0.6630 0.6630
1305.487301 0.6630 0.6610 0.6610 0.6600 0.6570
1312.014744 0.6550 0.6540 0.6520 0.6500 0.6480
1318.542186 0.6470 0.6460 0.6420 0.6390 0.6380
1325.069629 0.6370 0.6350 0.6340 0.6310 0.6290
1331.597072 0.6270 0.6260 0.6250 0.6220 0.6180
1338.124515 0.6140 0.6130 0.6120 0.6050 0.6040
1344.651958 0.6030 0.6000 0.5930 0.5880 0.5840
1351.179401 0.5800 0.5770 0.5750 0.5650 0.5600
1357.706844 0.5520 0.5490 0.5450 0.5400 0.5280
1364.234287 0.5240 0.5140 0.5030 0.4900 0.4770
1370.761729 0.4450 0.4250 0.4080 0.3492 0.3490
1377.289172 0.3861 0.4040 0.4241 0.4620 0.5000
1383.816615 0.5740 0.5740 0.5500 0.5440 0.5360
1390.344058 0.5009 0.4759 0.4579 0.4280 0.4070
1396.871501 0.4040 0.4040 0.4320 0.4340 0.4579
1403.398944 0.4931 0.5070 0.5230 0.5260 0.5320
1409.926387 0.5330 0.5610 0.5880 0.6139 0.6180
1416.453829 0.6220 0.6220 0.6180 0.6120 0.6040
1422.981272 0.6000 0.5920 0.5770 0.5630 0.5560
1429.508715 0.5479 0.5140 0.4999 0.4760 0.4550
1436.036158 0.4380 0.4380 0.4460 0.4759 0.5019
1442.563601 0.5902 0.6341 0.6520 0.6650 0.6740
1449.091044 0.6800 0.6800 0.6800 0.6800 0.6800
1455.618487 0.6780 0.6780 0.6770 0.6760 0.6730
1462.145929 0.6680 0.6630 0.6600 0.6590 0.6570
1468.673372 0.6570 0.6560 0.6500 0.6470 0.6460
1475.200815 0.6440 0.6440 0.6430 0.6390 0.6380
1481.728258 0.6380 0.6350 0.6340 0.6290 0.6180
1488.255701 0.6170 0.6140 0.6120 0.6070 0.6000
1494.783144 0.5930 0.5910 0.5880 0.5790 0.5730
1501.310587 0.5630 0.5600 0.5500 0.5480 0.5450
1507.838029 0.5350 0.5269 0.5100 0.4920 0.4860
1514.365472 0.4670 0.4490 0.4430 0.4340 0.4190
1520.892915 0.3960 0.3890 0.3780 0.3780 0.3960
1527.420358 0.4160 0.4460 0.4829 0.5658 0.5859
1533.947801 0.5870 0.5860 0.5800 0.5690 0.5530
1540.475244 0.5440 0.5350 0.5140 0.5010 0.4791
1547.002687 0.4639 0.4359 0.4059 0.3779 0.3530
1553.530130 0.3440 0.3550 0.3890 0.4160 0.4549
1560.057572 0.5003 0.5651 0.5840 0.5820 0.5800
1566.585015 0.5780 0.5750 0.5650 0.5580 0.5530
1573.112458 0.5459 0.5279 0.5099 0.4880 0.4660
1579.639901 0.4540 0.4130 0.3870 0.3600 0.3281
1586.167344 0.2889 0.2719 0.2490 0.2490 0.2620
1592.694787 0.2810 0.2880 0.2980 0.3080 0.3270
1599.222230 0.3350 0.3381 0.3741 0.3950 0.4170
1605.749672 0.4430 0.4490 0.4690 0.4999 0.5070
1612.277115 0.5140 0.5240 0.5240 0.5220 0.5190
1618.804558 0.5150 0.5110 0.4980 0.4760 0.4660
1625.332001 0.4449 0.4239 0.4060 0.3949 0.3519
1631.859444 0.3150 0.2750 0.2490 0.2190 0.2110
1638.386887 0.2191 0.2410 0.2510 0.2671 0.3041
1644.914330 0.3380 0.3690 0.3940 0.4190 0.4449
1651.441772 0.4691 0.5001 0.5371 0.5600 0.5790
1657.969215 0.6040 0.6140 0.6300 0.6470 0.6630
1664.496658 0.6740 0.6850 0.6910 0.7040 0.7080
1671.024101 0.7190 0.7250 0.7330 0.7370 0.7450
1677.551544 0.7590 0.7610 0.7660 0.7720 0.7750
1684.078987 0.7760 0.7780 0.7780 0.7780 0.7790
1690.606430 0.7800 0.7840 0.7850 0.7850 0.7850
1697.133872 0.7850 0.7870 0.7880 0.7880 0.7880
1703.661315 0.7880 0.7880 0.7890 0.7890 0.7890
1710.188758 0.7890 0.7880 0.7870 0.7870 0.7870
1716.716201 0.7870 0.7870 0.7870 0.7870 0.7870
1723.243644 0.7870 0.7870 0.7870 0.7850 0.7850
1729.771087 0.7840 0.7840 0.7830 0.7830 0.7810
1736.298530 0.7790 0.7780 0.7760 0.7750 0.7740
1742.825973 0.7720 0.7720 0.7720 0.7710 0.7700
1749.353415 0.7680 0.7650 0.7610 0.7590 0.7580
1755.880858 0.7570 0.7550 0.7500 0.7490 0.7480
1762.408301 0.7410 0.7490 0.7500 0.7580 0.7590
1768.935744 0.7590 0.7610 0.7610 0.7610 0.7610
1775.463187 0.7590 0.7570 0.7530 0.7530 0.7510
1781.990630 0.7500 0.7500 0.7490 0.7480 0.7480
1788.518073 0.7480 0.7460 0.7480 0.7480 0.7480
1795.045515 0.7490 0.7490 0.7490 0.7480 0.7480
1801.572958 0.7490 0.7490 0.7490 0.7490 0.7490
1808.100401 0.7490 0.7480 0.7480 0.7460 0.7450
1814.627844 0.7450 0.7450 0.7440 0.7420 0.7410
1821.155287 0.7410 0.7400 0.7380 0.7380 0.7380
1827.682730 0.7380 0.7380 0.7380 0.7380 0.7380
1834.210173 0.7370 0.7370 0.7370 0.7370 0.7360
1840.737615 0.7330 0.7320 0.7320 0.7290 0.7280
1847.265058 0.7270 0.7270 0.7270 0.7270 0.7270
1853.792501 0.7270 0.7270 0.7250 0.7250 0.7250
1860.319944 0.7250 0.7240 0.7240 0.7240 0.7240
1866.847387 0.7240 0.7240 0.7240 0.7230 0.7230
1873.374830 0.7230 0.7230 0.7230 0.7210 0.7210
1879.902273 0.7210 0.7200 0.7190 0.7190 0.7190
1886.429715 0.7190 0.7190 0.7180 0.7180 0.7160
1892.957158 0.7160 0.7160 0.7160 0.7160 0.7150
1899.484601 0.7140 0.7140 0.7140 0.7140 0.7140
1906.012044 0.7120 0.7120 0.7120 0.7120 0.7100
1912.539487 0.7100 0.7100 0.7100 0.7100 0.7080
1919.066930 0.7080 0.7070 0.7070 0.7070 0.7070
1925.594373 0.7070 0.7070 0.7060 0.7060 0.7060
1932.121815 0.7060 0.7060 0.7060 0.7060 0.7060
1938.649258 0.7060 0.7040 0.7040 0.7040 0.7040
1945.176701 0.7040 0.7040 0.7040 0.7020 0.7020
1951.704144 0.7010 0.7010 0.7010 0.7010 0.7010
1958.231587 0.7020 0.7020 0.7020 0.7010 0.7010
1964.759030 0.7010 0.7010 0.7010 0.6990 0.6980
1971.286473 0.6970 0.6970 0.6950 0.6950 0.6950
1977.813916 0.6950 0.6940 0.6940 0.6950 0.6950
1984.341358 0.6950 0.6950 0.6950 0.6950 0.6950
1990.868801 0.6970 0.6980 0.6990 0.6990 0.6990
1997.396244 0.7040 0.7040 0.7010 0.6970 0.6950
2003.923687 0.6950 0.6940 0.6940 0.6940 0.6940
2010.451130 0.6940 0.6940 0.6940 0.6940 0.6940
2016.978573 0.6940 0.6940 0.6940 0.6940 0.6940
2023.506016 0.6940 0.6940 0.6940 0.6940 0.6940
2030.033458 0.6940 0.6940 0.6940 0.6940 0.6940
2036.560901 0.6931 0.6930 0.6939 0.6940 0.6931
2043.088344 0.6930 0.6930 0.6930 0.6930 0.6930
2049.615787 0.6912 0.6910 0.6910 0.6910 0.6910
2056.143230 0.6910 0.6901 0.6900 0.6900 0.6900
2062.670673 0.6900 0.6891 0.6890 0.6890 0.6890
2069.198116 0.6890 0.6890 0.6890 0.6890 0.6873
2075.725558 0.6870 0.6870 0.6870 0.6870 0.6870
2082.253001 0.6870 0.6862 0.6860 0.6860 0.6860
2088.780444 0.6860 0.6860 0.6852 0.6850 0.6850
2095.307887 0.6842 0.6840 0.6840 0.6840 0.6840
2101.835330 0.6848 0.6850 0.6850 0.6842 0.6840
2108.362773 0.6840 0.6840 0.6824 0.6820 0.6820
2114.890216 0.6820 0.6820 0.6812 0.6810 0.6810
2121.417658 0.6802 0.6800 0.6800 0.6800 0.6800
2127.945101 0.6785 0.6780 0.6780 0.6773 0.6770
2134.472544 0.6770 0.6770 0.6770 0.6770 0.6770
2140.999987 0.6770 0.6770 0.6763 0.6760 0.6746
2147.527430 0.6740 0.6733 0.6723 0.6720 0.6720
2154.054873 0.6720 0.6720 0.6720 0.6720 0.6720
2160.582316 0.6720 0.6720 0.6720 0.6720 0.6720
2167.109759 0.6720 0.6720 0.6713 0.6710 0.6710
2173.637201 0.6710 0.6710 0.6710 0.6710 0.6710
2180.164644 0.6697 0.6690 0.6690 0.6690 0.6684
2186.692087 0.6680 0.6680 0.6680 0.6680 0.6680
2193.219530 0.6674 0.6670 0.6670 0.6658 0.6644
2199.746973 0.6640 0.6634 0.6618 0.6610 0.6604
2206.274416 0.6600 0.6594 0.6590 0.6590 0.6590
2212.801859 0.6590 0.6590 0.6590 0.6590 0.6590
2219.329301 0.6590 0.6590 0.6590 0.6579 0.6570
2225.856744 0.6570 0.6570 0.6570 0.6570 0.6570
2232.384187 0.6570 0.6570 0.6570 0.6570 0.6570
2238.911630 0.6570 0.6570 0.6570 0.6570 0.6570
2245.439073 0.6570 0.6565 0.6560 0.6560 0.6560
2251.966516 0.6560 0.6555 0.6550 0.6550 0.6550
2258.493959 0.6550 0.6545 0.6540 0.6540 0.6540
2265.021401 0.6531 0.6520 0.6520 0.6529 0.6531
2271.548844 0.6520 0.6520 0.6520 0.6520 0.6520
2278.076287 0.6520 0.6520 0.6516 0.6510 0.6510
2284.603730 0.6510 0.6510 0.6510 0.6510 0.6510
2291.131173 0.6510 0.6510 0.6510 0.6510 0.6510
2297.658616 0.6510 0.6510 0.6506 0.6500 0.6500
2304.186059 0.6500 0.6492 0.6480 0.6480 0.6476
2310.713501 0.6470 0.6470 0.6466 0.6460 0.6460
2317.240944 0.6460 0.6460 0.6460 0.6460 0.6460
2323.768387 0.6453 0.6440 0.6440 0.6440 0.6440
2330.295830 0.6440 0.6440 0.6440 0.6440 0.6440
2336.823273 0.6440 0.6440 0.6440 0.6440 0.6440
2343.350716 0.6440 0.6440 0.6440 0.6440 0.6437
2349.878159 0.6430 0.6430 0.6430 0.6430 0.6430
2356.405602 0.6430 0.6430 0.6430 0.6430 0.6430
2362.933044 0.6430 0.6430 0.6430 0.6430 0.6427
2369.460487 0.6420 0.6420 0.6420 0.6420 0.6420
2375.987930 0.6420 0.6420 0.6420 0.6420 0.6415
2382.515373 0.6400 0.6400 0.6400 0.6400 0.6400
2389.042816 0.6400 0.6400 0.6400 0.6400 0.6398
2395.570259 0.6390 0.6390 0.6390 0.6390 0.6388
2402.097702 0.6380 0.6380 0.6380 0.6380 0.6380
2408.625144 0.6380 0.6382 0.6388 0.6380 0.6380
2415.152587 0.6380 0.6380 0.6380 0.6380 0.6378
2421.680030 0.6370 0.6370 0.6370 0.6370 0.6370
2428.207473 0.6367 0.6350 0.6350 0.6350 0.6350
2434.734916 0.6350 0.6350 0.6350 0.6350 0.6350
2441.262359 0.6350 0.6350 0.6350 0.6350 0.6350
2447.789802 0.6350 0.6350 0.6350 0.6350 0.6350
2454.317244 0.6350 0.6350 0.6350 0.6350 0.6350
2460.844687 0.6350 0.6350 0.6350 0.6350 0.6349
2467.372130 0.6340 0.6340 0.6339 0.6330 0.6330
2473.899573 0.6329 0.6309 0.6299 0.6289 0.6269
2480.427016 0.6250 0.6240 0.6240 0.6240 0.6240
2486.954459 0.6240 0.6240 0.6240 0.6240 0.6220
2493.481902 0.6220 0.6220 0.6210 0.6200 0.6200
2500.009344 0.6180 0.6180 0.6200 0.6200 0.6200
2506.536787 0.6200 0.6200 0.6200 0.6180 0.6180
2513.064230 0.6200 0.6200 0.6210 0.6200 0.6200
2519.591673 0.6181 0.6170 0.6160 0.6160 0.6160
2526.119116 0.6160 0.6160 0.6160 0.6160 0.6160
2532.646559 0.6160 0.6160 0.6160 0.6160 0.6160
2539.174002 0.6160 0.6142 0.6140 0.6140 0.6140
2545.701445 0.6140 0.6140 0.6140 0.6140 0.6131
2552.228887 0.6130 0.6121 0.6120 0.6120 0.6120
2558.756330 0.6120 0.6120 0.6120 0.6120 0.6120
2565.283773 0.6120 0.6120 0.6120 0.6120 0.6120
2571.811216 0.6120 0.6120 0.6120 0.6120 0.6120
2578.338659 0.6103 0.6100 0.6100 0.6100 0.6100
2584.866102 0.6100 0.6100 0.6100 0.6100 0.6100
2591.393545 0.6092 0.6090 0.6090 0.6090 0.6090
2597.920987 0.6090 0.6082 0.6080 0.6080 0.6080
2604.448430 0.6080 0.6072 0.6070 0.6070 0.6054
2610.975873 0.6050 0.6050 0.6050 0.6042 0.6040
2617.503316 0.6040 0.6040 0.6032 0.6030 0.6030
2624.030759 0.6030 0.6030 0.6030 0.6030 0.6030
2630.558202 0.6015 0.6010 0.6010 0.6010 0.6010
2637.085645 0.6010 0.6010 0.6010 0.6010 0.6010
2643.613087 0.6010 0.6010 0.6003 0.6000 0.6000
2650.140530 0.6000 0.6000 0.6000 0.5993 0.5990
2656.667973 0.5997 0.6000 0.6000 0.5993 0.5990
2663.195416 0.5990 0.5977 0.5970 0.5970 0.5970
2669.722859 0.5983 0.5977 0.5970 0.5970 0.5970
2676.250302 0.5970 0.5970 0.5970 0.5964 0.5954
2682.777745 0.5937 0.5930 0.5930 0.5930 0.5930
2689.305187 0.5918 0.5910 0.5904 0.5900 0.5900
2695.832630 0.5888 0.5880 0.5880 0.5880 0.5892
2702.360073 0.5888 0.5880 0.5880 0.5880 0.5874
2708.887516 0.5864 0.5860 0.5866 0.5870 0.5870
2715.414959 0.5870 0.5870 0.5864 0.5860 0.5860
2721.942402 0.5849 0.5840 0.5840 0.5840 0.5840
2728.469845 0.5840 0.5840 0.5840 0.5840 0.5840
2734.997288 0.5840 0.5835 0.5830 0.5825 0.5820
2741.524730 0.5810 0.5795 0.5785 0.5780 0.5780
2748.052173 0.5780 0.5775 0.5770 0.5770 0.5770
2754.579616 0.5770 0.5770 0.5770 0.5770 0.5770
2761.107059 0.5760 0.5750 0.5745 0.5740 0.5740
2767.634502 0.5745 0.5750 0.5745 0.5740 0.5740
2774.161945 0.5740 0.5735 0.5730 0.5730 0.5734
2780.689388 0.5744 0.5750 0.5750 0.5759 0.5770
2787.216830 0.5774 0.5780 0.5780 0.5780 0.5780
2793.744273 0.5780 0.5780 0.5780 0.5780 0.5776
2800.271716 0.5770 0.5770 0.5762 0.5758 0.5770
2806.799159 0.5770 0.5770 0.5762 0.5750 0.5750
2813.326602 0.5750 0.5750 0.5750 0.5750 0.5750
2819.854045 0.5750 0.5750 0.5750 0.5750 0.5750
2826.381488 0.5750 0.5750 0.5750 0.5750 0.5750
2832.908930 0.5750 0.5747 0.5740 0.5740 0.5740
2839.436373 0.5740 0.5740 0.5743 0.5750 0.5750
2845.963816 0.5750 0.5747 0.5740 0.5740 0.5740
2852.491259 0.5740 0.5740 0.5740 0.5740 0.5740
2859.018702 0.5740 0.5740 0.5740 0.5737 0.5730
2865.546145 0.5730 0.5730 0.5730 0.5722 0.5700
2872.073588 0.5703 0.5710 0.5710 0.5707 0.5700
2878.601030 0.5697 0.5685 0.5670 0.5670 0.5670
2885.128473 0.5670 0.5670 0.5670 0.5670 0.5675
2891.655916 0.5686 0.5670 0.5668 0.5660 0.5660
2898.183359 0.5658 0.5646 0.5630 0.5628 0.5622
2904.710802 0.5630 0.5630 0.5628 0.5620 0.5620
2911.238245 0.5618 0.5610 0.5608 0.5600 0.5600
2917.765688 0.5597 0.5580 0.5580 0.5583 0.5600
2924.293131 0.5600 0.5600 0.5600 0.5600 0.5602
2930.820573 0.5610 0.5610 0.5610 0.5610 0.5610
2937.348016 0.5610 0.5611 0.5620 0.5620 0.5620
2943.875459 0.5620 0.5619 0.5609 0.5598 0.5580
2950.402902 0.5580 0.5579 0.5570 0.5570 0.5570
2956.930345 0.5570 0.5569 0.5558 0.5540 0.5540
2963.457788 0.5540 0.5540 0.5541 0.5559 0.5540
2969.985231 0.5539 0.5529 0.5520 0.5520 0.5520
2976.512673 0.5519 0.5500 0.5501 0.5520 0.5520
2983.040116 0.5520 0.5520 0.5530 0.5530 0.5519
2989.567559 0.5500 0.5490 0.5490 0.5480 0.5480
2996.095002 0.5480 0.5480 0.5480 0.5460 0.5460
3002.622445 0.5460 0.5460 0.5460 0.5460 0.5460
3009.149888 0.5460 0.5450 0.5440 0.5430 0.5410
3015.677331 0.5410 0.5410 0.5410 0.5410 0.5400
3022.204773 0.5390 0.5390 0.5371 0.5360 0.5360
3028.732216 0.5351 0.5350 0.5331 0.5330 0.5330
3035.259659 0.5330 0.5321 0.5311 0.5310 0.5310
3041.787102 0.5310 0.5301 0.5282 0.5280 0.5280
3048.314545 0.5271 0.5261 0.5260 0.5260 0.5260
3054.841988 0.5260 0.5260 0.5260 0.5260 0.5242
3061.369431 0.5231 0.5230 0.5221 0.5202 0.5183
3067.896873 0.5180 0.5163 0.5160 0.5160 0.5151
3074.424316 0.5150 0.5150 0.5150 0.5150 0.5175
3080.951759 0.5180 0.5180 0.5180 0.5180 0.5180
3087.479202 0.5180 0.5180 0.5180 0.5180 0.5155
3094.006645 0.5142 0.5132 0.5114 0.5110 0.5102
3100.534088 0.5092 0.5058 0.5050 0.5034 0.5030
3107.061531 0.5022 0.5012 0.5002 0.4977 0.4970
3113.588973 0.4947 0.4932 0.4922 0.4920 0.4920
3120.116416 0.4905 0.4900 0.4900 0.4900 0.4900
3126.643859 0.4900 0.4900 0.4922 0.4930 0.4833
3133.171302 0.4733 0.4688 0.4673 0.4663 0.4645
3139.698745 0.4633 0.4623 0.4606 0.4593 0.4590
3146.226188 0.4583 0.4559 0.4522 0.4482 0.4456
3152.753631 0.4436 0.4423 0.4399 0.4376 0.4336
3159.281074 0.4306 0.4293 0.4283 0.4266 0.4253
3165.808516 0.4230 0.4173 0.4123 0.4090 0.4067
3172.335959 0.4047 0.4027 0.4007 0.3987 0.3967
3178.863402 0.3953 0.3950 0.3950 0.3950 0.3956
3185.390845 0.3985 0.4025 0.4059 0.4076 0.4086
3191.918288 0.4090 0.4102 0.4116 0.4145 0.4178
3198.445731 0.4202 0.4228 0.4246 0.4250 0.4256
3204.973174 0.4272 0.4292 0.4336 0.4366 0.4376
3211.500616 0.4403 0.4426 0.4447 0.4477 0.4496
3218.028059 0.4506 0.4533 0.4590 0.4631 0.4651
3224.555502 0.4666 0.4676 0.4686 0.4701 0.4715
3231.082945 0.4720 0.4720 0.4720 0.4720 0.4720
3237.610388 0.4720 0.4720 0.4720 0.4715 0.4700
3244.137831 0.4685 0.4680 0.4675 0.4665 0.4650
3250.665274 0.4635 0.4625 0.4610 0.4600 0.4595
3257.192716 0.4570 0.4525 0.4456 0.4400 0.4380
3263.720159 0.4370 0.4365 0.4351 0.4340 0.4340
3270.247602 0.4335 0.4330 0.4325 0.4320 0.4311
3276.775045 0.4300 0.4300 0.4300 0.4300 0.4300
3283.302488 0.4296 0.4290 0.4290 0.4286 0.4280
3289.829931 0.4271 0.4256 0.4250 0.4250 0.4246
3296.357374 0.4232 0.4208 0.4174 0.4134 0.4102
3302.884816 0.4086 0.4076 0.4066 0.4052 0.4017
3309.412259 0.3937 0.3866 0.3841 0.3783 0.3732
3315.939702 0.3713 0.3696 0.3672 0.3622 0.3575
3322.467145 0.3539 0.3491 0.3411 0.3342 0.3282
3328.994588 0.3199 0.3092 0.2949 0.2813 0.2710
3335.522031 0.2592 0.2453 0.2400 0.2502 0.2769
3342.049474 0.2967 0.3197 0.3397 0.3529 0.3544
3348.576917 0.3527 0.3517 0.3473 0.3387 0.3371
3355.104359 0.3329 0.3259 0.3190 0.3137 0.3099
3361.631802 0.3000 0.2922 0.2833 0.2782 0.2760
3368.159245 0.2744 0.2687 0.2642 0.2617 0.2613
3374.686688 0.2623 0.2643 0.2690 0.2728 0.2752
3381.214131 0.2765 0.2797 0.2857 0.2901 0.2996
3387.741574 0.3101 0.3195 0.3298 0.3373 0.3433
3394.269017 0.3495 0.3559 0.3611 0.3723 0.3877
3400.796459 0.3997 0.4072 0.4134 0.4192 0.4204
3407.323902 0.4226 0.4259 0.4306 0.4337 0.4372
3413.851345 0.4380 0.4382 0.4394 0.4412 0.4420
3420.378788 0.4420 0.4420 0.4418 0.4405 0.4378
3426.906231 0.4365 0.4338 0.4324 0.4283 0.4227
3433.433674 0.4147 0.4120 0.4047 0.3936 0.3751
3439.961117 0.3518 0.3300 0.3311 0.3396 0.3501
3446.488559 0.3993 0.4270 0.4452 0.4674 0.4971
3453.016002 0.4982 0.5001 0.5011 0.5023 0.5051
3459.543445 0.5060 0.5060 0.5060 0.5060 0.5061
3466.070888 0.5070 0.5071 0.5090 0.5089 0.5070
3472.598331 0.5070 0.5071 0.5090 0.5090 0.5090
3479.125774 0.5100 0.5100 0.5110 0.5111 0.5130
3485.653217 0.5130 0.5140 0.5140 0.5140 0.5140
3492.180659 0.5140 0.5140 0.5140 0.5140 0.5150
3498.708102 0.5160 0.5160 0.5180 0.5180 0.5180
3505.235545 0.5180 0.5180 0.5180 0.5160 0.5160
3511.762988 0.5150 0.5150 0.5150 0.5160 0.5160
3518.290431 0.5179 0.5190 0.5200 0.5200 0.5219
3524.817874 0.5230 0.5230 0.5230 0.5230 0.5230
3531.345317 0.5230 0.5230 0.5239 0.5240 0.5259
3537.872760 0.5269 0.5270 0.5270 0.5279 0.5280
3544.400202 0.5280 0.5280 0.5280 0.5298 0.5309
3550.927645 0.5319 0.5320 0.5320 0.5320 0.5320
3557.455088 0.5320 0.5320 0.5320 0.5329 0.5330
3563.982531 0.5330 0.5348 0.5359 0.5360 0.5360
3570.509974 0.5369 0.5370 0.5370 0.5370 0.5370
3577.037417 0.5370 0.5387 0.5398 0.5400 0.5400
3583.564860 0.5400 0.5400 0.5400 0.5400 0.5425
3590.092302 0.5438 0.5448 0.5450 0.5450 0.5450
3596.619745 0.5458 0.5484 0.5490 0.5490 0.5490
3603.147188 0.5498 0.5500 0.5516 0.5528 0.5530
3609.674631 0.5538 0.5556 0.5560 0.5568 0.5570
3616.202074 0.5578 0.5595 0.5600 0.5600 0.5600
3622.729517 0.5600 0.5608 0.5610 0.5610 0.5610
3629.256960 0.5617 0.5620 0.5613 0.5610 0.5610
3635.784402 0.5610 0.5617 0.5620 0.5620 0.5613
3642.311845 0.5610 0.5610 0.5610 0.5603 0.5600
3648.839288 0.5607 0.5610 0.5610 0.5610 0.5610
3655.366731 0.5610 0.5603 0.5600 0.5607 0.5610
3661.894174 0.5610 0.5610 0.5610 0.5610 0.5603
3668.421617 0.5600 0.5587 0.5580 0.5593 0.5600
3674.949060 0.5600 0.5600 0.5600 0.5587 0.5580
3681.476502 0.5580 0.5593 0.5600 0.5600 0.5600
3688.003945 0.5600 0.5606 0.5610 0.5610 0.5610
3694.531388 0.5610 0.5604 0.5588 0.5580 0.5574
3701.058831 0.5570 0.5570 0.5570 0.5570 0.5588
3707.586274 0.5600 0.5582 0.5570 0.5564 0.5560
3714.113717 0.5560 0.5560 0.5560 0.5560 0.5560
3720.641160 0.5560 0.5560 0.5560 0.5560 0.5560
3727.168603 0.5560 0.5549 0.5540 0.5540 0.5540
3733.696045 0.5540 0.5540 0.5540 0.5540 0.5535
3740.223488 0.5525 0.5520 0.5520 0.5520 0.5520
3746.750931 0.5520 0.5520 0.5525 0.5530 0.5530
3753.278374 0.5530 0.5530 0.5525 0.5520 0.5520
3759.805817 0.5520 0.5520 0.5520 0.5520 0.5520
3766.333260 0.5520 0.5520 0.5525 0.5530 0.5530
3772.860703 0.5525 0.5520 0.5520 0.5511 0.5500
3779.388145 0.5500 0.5500 0.5500 0.5500 0.5500
3785.915588 0.5509 0.5537 0.5560 0.5534 0.5496
3792.443031 0.5490 0.5490 0.5490 0.5486 0.5484
3798.970474 0.5490 0.5490 0.5490 0.5490 0.5490
3805.497917 0.5490 0.5490 0.5486 0.5484 0.5490
3812.025360 0.5490 0.5490 0.5490 0.5490 0.5494
3818.552803 0.5496 0.5490 0.5486 0.5480 0.5480
3825.080245 0.5473 0.5456 0.5450 0.5450 0.5447
3831.607688 0.5437 0.5430 0.5423 0.5410 0.5410
3838.135131 0.5410 0.5410 0.5410 0.5410 0.5410
3844.662574 0.5410 0.5410 0.5410 0.5410 0.5410
3851.190017 0.5407 0.5400 0.5403 0.5410 0.5407
3857.717460 0.5400 0.5400 0.5400 0.5400 0.5400
3864.244903 0.5400 0.5400 0.5400 0.5400 0.5400
3870.772345 0.5400 0.5400 0.5400 0.5400 0.5400
3877.299788 0.5400 0.5400 0.5398 0.5390 0.5390
3883.827231 0.5392 0.5400 0.5400 0.5400 0.5398
3890.354674 0.5385 0.5370 0.5370 0.5368 0.5360
3896.882117 0.5360 0.5360 0.5362 0.5368 0.5360
3903.409560 0.5360 0.5360 0.5360 0.5360 0.5360
3909.937003 0.5360 0.5360 0.5360 0.5360 0.5360
3916.464446 0.5360 0.5360 0.5360 0.5360 0.5360
3922.991888 0.5360 0.5360 0.5360 0.5362 0.5373
3929.519331 0.5392 0.5399 0.5390 0.5390 0.5390
3936.046774 0.5390 0.5390 0.5391 0.5400 0.5400
3942.574217 0.5400 0.5399 0.5388 0.5369 0.5360
3949.101660 0.5360 0.5359 0.5350 0.5350 0.5350
3955.629103 0.5348 0.5330 0.5330 0.5330 0.5332
3962.156546 0.5350 0.5350 0.5350 0.5350 0.5350
3968.683988 0.5350 0.5351 0.5359 0.5350 0.5350
3975.211431 0.5350 0.5350 0.5350 0.5350 0.5350
3981.738874 0.5349 0.5330 0.5330 0.5330 0.5330
3988.266317 0.5330 0.5330 0.5330 0.5330 0.5330
3994.793760 0.5330 0.5330 0.5320 0.5320
##END=
