##TITLE=SULFANILIC ACID, N-METHYL-, SODIUM SALT
##JCAMP-DX=4.24
##DATA TYPE=INFRARED SPECTRUM
##CLASS=COBLENTZ III
##ORIGIN=DOW CHEMICAL COMPANY
##OWNER=COBLENTZ SOCIETY
Collection (C) 2018 copyright by the U.S. Secretary of Commerce
on behalf of the United States of America. All rights reserved.
##DATE=1965/12/16
##MOLFORM=C7 H8 N O3 S Na
##SOURCE REFERENCE=COBLENTZ NO. 10279
##$NIST ID=B6010279
##$NIST SOURCE=COBLENTZ
##$NIST IMAGE=cob10279
##SPECTROMETER/DATA SYSTEM=BECKMAN IR-9 (GRATING)
##INSTRUMENT PARAMETERS=ORDER CHANGES AT 670, 1200, 2000 CM^-^1
##STATE=SOLID (SPLIT MULL, FLUOROLUBE FOR 3800-1330 AND NUJOL FOR 1330-400 CM ^-^1)
##PATH LENGTH=
$$ PURITY - CLASS II TECHNICAL QUALITY
##SAMPLING PROCEDURE=TRANSMISSION
##RESOLUTION=4
##DATA PROCESSING=DIGITIZED BY NIST FROM HARD COPY (FROM TWO SEGMENTS)
##XUNITS=1/CM
##YUNITS=TRANSMITTANCE
##XFACTOR=1.000000
##YFACTOR=1
##DELTAX=0.892859
##FIRSTX=398.214
##LASTX=3793.76
##FIRSTY=0.598
##MAXX=3793.76
##MINX=398.214
##MAXY=1.005
##MINY=0.0580039
##NPOINTS=3804
##XYDATA=(X++(Y..Y))
398.214000 0.5980 0.5980 0.5980 0.5980 0.5980
402.678293 0.5980 0.5980 0.5990 0.5990 0.6010
407.142587 0.6020 0.6030 0.6050 0.6060 0.6080
411.606880 0.6080 0.6090 0.6100 0.6120 0.6130
416.071173 0.6150 0.6160 0.6190 0.6220 0.6290
420.535466 0.6410 0.6470 0.6510 0.6540 0.6560
424.999760 0.6610 0.6630 0.6680 0.6720 0.6760
429.464053 0.6820 0.6860 0.6880 0.6880 0.6900
433.928346 0.6910 0.6930 0.6940 0.6980 0.7000
438.392639 0.7040 0.7070 0.7070 0.7080 0.7080
442.856933 0.7110 0.7150 0.7180 0.7210 0.7220
447.321226 0.7220 0.7230 0.7230 0.7260 0.7290
451.785519 0.7300 0.7300 0.7320 0.7330 0.7330
456.249812 0.7330 0.7350 0.7350 0.7360 0.7360
460.714106 0.7370 0.7370 0.7390 0.7390 0.7410
465.178399 0.7430 0.7430 0.7440 0.7440 0.7460
469.642692 0.7460 0.7460 0.7470 0.7500 0.7510
474.106985 0.7530 0.7540 0.7540 0.7540 0.7510
478.571279 0.7480 0.7360 0.7260 0.7210 0.7150
483.035572 0.6980 0.6970 0.6980 0.7070 0.7160
487.499865 0.7190 0.7360 0.7540 0.7650 0.7710
491.964158 0.7740 0.7760 0.7790 0.7850 0.7900
496.428452 0.7930 0.7960 0.7970 0.8060 0.8110
500.892745 0.8130 0.8150 0.8200 0.8240 0.8270
505.357038 0.8270 0.8250 0.8240 0.8140 0.8110
509.821331 0.8070 0.7891 0.7860 0.7880 0.7940
514.285625 0.7960 0.8040 0.8100 0.8130 0.8180
518.749918 0.8280 0.8320 0.8340 0.8350 0.8350
523.214211 0.8380 0.8390 0.8410 0.8420 0.8460
527.678504 0.8470 0.8490 0.8500 0.8500 0.8520
532.142798 0.8520 0.8520 0.8520 0.8520 0.8520
536.607091 0.8500 0.8500 0.8490 0.8470 0.8470
541.071384 0.8460 0.8450 0.8410 0.8380 0.8340
545.535677 0.8290 0.8240 0.8200 0.8150 0.7971
549.999971 0.7750 0.7510 0.7230 0.6911 0.6561
554.464264 0.6151 0.5702 0.5182 0.4603 0.3913
558.928557 0.3440 0.3430 0.3749 0.4039 0.4080
563.392850 0.4678 0.5228 0.5549 0.5729 0.5849
567.857144 0.5870 0.5850 0.5810 0.5451 0.4991
572.321437 0.4372 0.3612 0.3520 0.3261 0.2872
576.785730 0.2870 0.3430 0.3520 0.3520 0.3430
581.250024 0.3330 0.3310 0.3300 0.3191 0.3160
585.714317 0.3160 0.3310 0.3370 0.3769 0.4539
590.178610 0.5159 0.5639 0.6029 0.6349 0.6659
594.642903 0.6950 0.7260 0.7640 0.7880 0.8080
599.107197 0.8279 0.8429 0.8589 0.8709 0.8809
603.571490 0.8890 0.8980 0.9030 0.9090 0.9130
608.035783 0.9200 0.9300 0.9330 0.9380 0.9400
612.500076 0.9440 0.9480 0.9520 0.9520 0.9530
616.964370 0.9530 0.9550 0.9550 0.9550 0.9560
621.428663 0.9560 0.9580 0.9580 0.9590 0.9600
625.892956 0.9620 0.9620 0.9600 0.9580 0.9471
630.357249 0.9070 0.8100 0.7860 0.7860 0.8389
634.821543 0.8799 0.8999 0.9259 0.9330 0.9420
639.285836 0.9510 0.9550 0.9560 0.9600 0.9650
643.750129 0.9650 0.9630 0.9620 0.9600 0.9560
648.214422 0.9490 0.9440 0.9420 0.9420 0.9440
652.678716 0.9450 0.9490 0.9520 0.9550 0.9580
657.143009 0.9630 0.9630 0.9670 0.9730 0.9790
661.607302 0.9800 0.9800 0.9790 0.9790 0.9790
666.071595 0.9790 0.9770 0.9770 0.9790 0.9790
670.535889 0.9770 0.9760 0.9760 0.9730 0.9690
675.000182 0.9650 0.9620 0.9580 0.9560 0.9550
679.464475 0.9490 0.9420 0.9370 0.9280 0.9200
683.928768 0.9100 0.8990 0.8850 0.8670 0.8421
688.393062 0.8201 0.7921 0.7512 0.7002 0.6413
692.857355 0.5780 0.5130 0.4470 0.3831 0.3261
697.321648 0.2741 0.2321 0.2031 0.1980 0.1980
701.785941 0.2170 0.2210 0.2440 0.2560 0.3428
706.250235 0.4317 0.4579 0.4998 0.5916 0.6169
710.714528 0.6630 0.7020 0.7330 0.7600 0.7790
715.178821 0.7940 0.8070 0.8170 0.8240 0.8359
719.643114 0.8450 0.8490 0.8500 0.8520 0.8540
724.107408 0.8610 0.8680 0.8740 0.8840 0.8949
728.571701 0.9030 0.9100 0.9170 0.9240 0.9280
733.035994 0.9340 0.9380 0.9410 0.9420 0.9470
737.500287 0.9490 0.9520 0.9550 0.9560 0.9590
741.964581 0.9600 0.9630 0.9660 0.9700 0.9740
746.428874 0.9760 0.9770 0.9810 0.9860 0.9870
750.893167 0.9880 0.9900 0.9930 0.9930 0.9940
755.357461 0.9940 0.9940 0.9950 0.9950 0.9970
759.821754 0.9970 0.9970 0.9970 0.9980 0.9980
764.286047 0.9980 0.9970 0.9970 0.9970 0.9970
768.750340 0.9950 0.9950 0.9950 0.9950 0.9950
773.214634 0.9950 0.9950 0.9950 0.9950 0.9950
777.678927 0.9970 0.9970 0.9980 1.0000 1.0000
782.143220 1.0000 1.0000 0.9980 0.9980 1.0000
786.607513 1.0000 1.0010 1.0010 1.0000 1.0000
791.071807 1.0000 1.0000 1.0000 1.0000 0.9980
795.536100 0.9980 0.9970 0.9950 0.9910 0.9880
800.000393 0.9870 0.9840 0.9800 0.9760 0.9740
804.464686 0.9700 0.9590 0.9550 0.9450 0.9370
808.928980 0.9260 0.9140 0.9060 0.9000 0.8940
813.393273 0.8890 0.8840 0.8780 0.8730 0.8461
817.857566 0.8209 0.6760 0.5701 0.4831 0.3872
822.321859 0.2952 0.2032 0.1452 0.1450 0.2665
826.786153 0.3370 0.5019 0.6099 0.7458 0.8109
831.250446 0.8210 0.8559 0.8799 0.8989 0.9119
835.714739 0.9240 0.9350 0.9410 0.9470 0.9520
840.179032 0.9580 0.9650 0.9700 0.9760 0.9800
844.643326 0.9860 0.9900 0.9930 0.9950 0.9970
849.107619 0.9980 1.0000 1.0010 1.0010 1.0020
853.571912 1.0020 1.0020 1.0020 1.0020 1.0020
858.036205 1.0040 1.0040 1.0040 1.0040 1.0050
862.500499 1.0050 1.0050 1.0050 1.0050 1.0050
866.964792 1.0040 1.0040 1.0040 1.0040 1.0040
871.429085 1.0020 1.0020 1.0020 1.0020 1.0010
875.893378 1.0010 1.0010 1.0010 1.0010 1.0010
880.357672 1.0010 1.0010 1.0010 1.0010 1.0010
884.821965 1.0010 1.0000 0.9980 0.9980 0.9980
889.286258 0.9970 0.9970 0.9950 0.9950 0.9950
893.750551 0.9950 0.9940 0.9940 0.9940 0.9940
898.214845 0.9940 0.9940 0.9940 0.9940 0.9940
902.679138 0.9940 0.9940 0.9940 0.9940 0.9930
907.143431 0.9930 0.9930 0.9930 0.9930 0.9930
911.607724 0.9930 0.9930 0.9910 0.9910 0.9910
916.072018 0.9900 0.9900 0.9880 0.9870 0.9860
920.536311 0.9860 0.9840 0.9830 0.9830 0.9800
925.000604 0.9800 0.9790 0.9790 0.9770 0.9770
929.464898 0.9770 0.9790 0.9790 0.9790 0.9790
933.929191 0.9790 0.9800 0.9800 0.9800 0.9800
938.393484 0.9790 0.9790 0.9790 0.9740 0.9740
942.857777 0.9720 0.9720 0.9730 0.9730 0.9740
947.322071 0.9760 0.9760 0.9770 0.9770 0.9790
951.786364 0.9790 0.9790 0.9790 0.9790 0.9790
956.250657 0.9790 0.9770 0.9770 0.9760 0.9740
960.714950 0.9720 0.9720 0.9700 0.9700 0.9690
965.179244 0.9670 0.9660 0.9650 0.9620 0.9560
969.643537 0.9490 0.9340 0.9200 0.9030 0.9020
974.107830 0.9230 0.9340 0.9370 0.9450 0.9550
978.572123 0.9560 0.9590 0.9620 0.9630 0.9630
983.036417 0.9630 0.9630 0.9630 0.9630 0.9630
987.500710 0.9630 0.9630 0.9620 0.9600 0.9600
991.965003 0.9590 0.9580 0.9560 0.9520 0.9480
996.429296 0.9400 0.9350 0.9240 0.8960 0.8750
1000.893590 0.8590 0.8391 0.8141 0.7762 0.6705
1005.357883 0.5359 0.4260 0.4220 0.3381 0.3370
1009.822176 0.4468 0.6934 0.7748 0.8059 0.8289
1014.286469 0.8450 0.8500 0.8570 0.8590 0.8590
1018.750763 0.8590 0.8570 0.8500 0.8420 0.8320
1023.215056 0.8200 0.8040 0.7830 0.7650 0.7400
1027.679349 0.7180 0.6761 0.6192 0.5522 0.4763
1032.143642 0.3969 0.3150 0.2370 0.1631 0.1181
1036.607936 0.0891 0.0681 0.0660 0.0680 0.1277
1041.072229 0.1880 0.2170 0.2670 0.3340 0.4079
1045.536522 0.4779 0.5239 0.5599 0.5730 0.6019
1050.000815 0.6340 0.6750 0.7110 0.7390 0.7600
1054.465109 0.7989 0.8209 0.8290 0.8380 0.8390
1058.929402 0.8380 0.8380 0.8320 0.8250 0.8140
1063.393695 0.8010 0.7850 0.7651 0.7401 0.7141
1067.857988 0.7070 0.7120 0.7390 0.7830 0.8250
1072.322282 0.8569 0.8809 0.8960 0.9060 0.9120
1076.786575 0.9160 0.9190 0.9200 0.9230 0.9240
1081.250868 0.9240 0.9240 0.9240 0.9240 0.9240
1085.715161 0.9240 0.9230 0.9210 0.9160 0.9120
1090.179455 0.9100 0.9070 0.9060 0.9020 0.8950
1094.643748 0.8910 0.8850 0.8780 0.8630 0.8490
1099.108041 0.8460 0.8380 0.8111 0.7751 0.7601
1103.572335 0.7440 0.7260 0.7000 0.6630 0.6090
1108.036628 0.5631 0.5251 0.4971 0.4900 0.4900
1112.500921 0.5060 0.5210 0.5320 0.5320 0.4901
1116.965214 0.4531 0.4151 0.3731 0.3501 0.2992
1121.429508 0.2460 0.1930 0.1470 0.1080 0.0830
1125.893801 0.0710 0.0650 0.0590 0.0580 0.0590
1130.358094 0.1081 0.1680 0.2000 0.2250 0.2660
1134.822387 0.3079 0.3359 0.3520 0.3640 0.3760
1139.286681 0.3790 0.3790 0.3770 0.3760 0.3450
1143.750974 0.3111 0.2591 0.2201 0.1881 0.1631
1148.215267 0.1400 0.1210 0.0970 0.0890 0.0790
1152.679560 0.0780 0.0790 0.0820 0.0890 0.0970
1157.143854 0.1070 0.1150 0.1210 0.1220 0.1190
1161.608147 0.1170 0.1120 0.1080 0.0990 0.0970
1166.072440 0.0990 0.1080 0.1180 0.1430 0.1680
1170.536733 0.1930 0.2180 0.2479 0.2779 0.3149
1175.001027 0.3540 0.3970 0.4230 0.4470 0.4680
1179.465320 0.4880 0.5070 0.5230 0.5380 0.5490
1183.929613 0.5600 0.5690 0.5760 0.5800 0.5880
1188.393906 0.5920 0.5920 0.5820 0.5710 0.5620
1192.858200 0.5520 0.5520 0.5630 0.6030 0.6160
1197.322493 0.6230 0.6240 0.6310 0.6330 0.6330
1201.786786 0.6330 0.6310 0.6270 0.6230 0.6160
1206.251079 0.6130 0.6060 0.5990 0.5910 0.5781
1210.715373 0.5620 0.5360 0.5270 0.5060 0.4830
1215.179666 0.4610 0.4301 0.4071 0.3910 0.3761
1219.643959 0.3499 0.2990 0.2590 0.2270 0.1990
1224.108252 0.1750 0.1501 0.1211 0.1100 0.1040
1228.572546 0.1030 0.0870 0.0860 0.0890 0.1030
1233.036839 0.1250 0.1460 0.1709 0.1959 0.2249
1237.501132 0.2580 0.2920 0.3330 0.3760 0.4280
1241.965425 0.4759 0.5229 0.5599 0.5909 0.6299
1246.429719 0.6540 0.6830 0.7110 0.7370 0.7610
1250.894012 0.7830 0.8029 0.8170 0.8280 0.8340
1255.358305 0.8410 0.8490 0.8590 0.8670 0.8740
1259.822599 0.8800 0.8870 0.8920 0.8980 0.9050
1264.286892 0.9100 0.9140 0.9200 0.9230 0.9260
1268.751185 0.9280 0.9280 0.9300 0.9330 0.9330
1273.215478 0.9330 0.9310 0.9280 0.9280 0.9260
1277.679772 0.9160 0.9130 0.8960 0.8850 0.8740
1282.144065 0.8640 0.8530 0.8410 0.8250 0.8060
1286.608358 0.7820 0.7820 0.7890 0.8249 0.8270
1291.072651 0.8681 0.8980 0.9100 0.9200 0.9270
1295.536945 0.9310 0.9340 0.9350 0.9380 0.9400
1300.001238 0.9400 0.9400 0.9380 0.9310 0.9260
1304.465531 0.9130 0.8940 0.8541 0.7573 0.7460
1308.929824 0.7460 0.8000 0.8950 0.9070 0.9130
1313.394118 0.9270 0.9330 0.9340 0.9340 0.9350
1317.858411 0.9350 0.9350 0.9350 0.9350 0.9340
1322.322704 0.9310 0.9270 0.9230 0.9200 0.9190
1326.786997 0.9120 0.9050 0.8980 0.8910 0.8840
1331.251291 0.8770 0.8680 0.8590 0.8470 0.8350
1335.715584 0.8200 0.8070 0.7830 0.7550 0.7220
1340.179877 0.6900 0.6590 0.6560 0.6470 0.5992
1344.644170 0.5710 0.5600 0.5560 0.5200 0.5200
1349.108464 0.5769 0.6269 0.6749 0.7139 0.7260
1353.572757 0.7410 0.7650 0.7790 0.7960 0.8110
1358.037050 0.8180 0.8320 0.8430 0.8520 0.8610
1362.501343 0.8640 0.8670 0.8680 0.8700 0.8710
1366.965637 0.8710 0.8730 0.8730 0.8750 0.8750
1371.429930 0.8780 0.8800 0.8810 0.8840 0.8870
1375.894223 0.8880 0.8880 0.8890 0.8890 0.8890
1380.358516 0.8890 0.8880 0.8880 0.8880 0.8840
1384.822810 0.8820 0.8820 0.8810 0.8810 0.8800
1389.287103 0.8800 0.8780 0.8750 0.8750 0.8730
1393.751396 0.8700 0.8680 0.8590 0.8570 0.8540
1398.215689 0.8520 0.8470 0.8420 0.8350 0.8290
1402.679983 0.8240 0.8200 0.8140 0.8100 0.7960
1407.144276 0.7920 0.7920 0.7890 0.7850 0.7820
1411.608569 0.7810 0.7790 0.7760 0.7750 0.7750
1416.072862 0.7750 0.7750 0.7740 0.7740 0.7690
1420.537156 0.7650 0.7640 0.7640 0.7620 0.7620
1425.001449 0.7610 0.7610 0.7610 0.7610 0.7610
1429.465742 0.7600 0.7600 0.7610 0.7610 0.7610
1433.930036 0.7620 0.7650 0.7670 0.7690 0.7690
1438.394329 0.7690 0.7690 0.7670 0.7610 0.7530
1442.858622 0.7530 0.7550 0.7740 0.7790 0.7790
1447.322915 0.7810 0.7820 0.7850 0.7930 0.8149
1451.787209 0.8310 0.8410 0.8470 0.8530 0.8600
1456.251502 0.8680 0.8730 0.8810 0.8810 0.8840
1460.715795 0.8840 0.8850 0.8880 0.8880 0.8880
1465.180088 0.8870 0.8870 0.8840 0.8810 0.8780
1469.644382 0.8770 0.8710 0.8710 0.8740 0.8740
1474.108675 0.8770 0.8770 0.8780 0.8800 0.8800
1478.572968 0.8780 0.8780 0.8700 0.8640 0.8590
1483.037261 0.8520 0.8420 0.8310 0.8240 0.8240
1487.501555 0.8290 0.8350 0.8430 0.8530 0.8560
1491.965848 0.8560 0.8540 0.8540 0.8560 0.8560
1496.430141 0.8570 0.8590 0.8570 0.8540 0.8470
1500.894434 0.8420 0.8340 0.8280 0.8220 0.8200
1505.358728 0.8140 0.8100 0.8010 0.7930 0.7830
1509.823021 0.7580 0.7300 0.7180 0.7080 0.6761
1514.287314 0.6490 0.6350 0.6080 0.5870 0.5490
1518.751607 0.5450 0.5320 0.5140 0.5130 0.5170
1523.215901 0.5280 0.5380 0.5550 0.5740 0.6060
1527.680194 0.6340 0.6660 0.6930 0.7249 0.7459
1532.144487 0.7750 0.7790 0.7940 0.8130 0.8180
1536.608780 0.8290 0.8340 0.8420 0.8460 0.8490
1541.073074 0.8500 0.8530 0.8530 0.8540 0.8560
1545.537367 0.8540 0.8520 0.8490 0.8490 0.8450
1550.001660 0.8420 0.8410 0.8350 0.8240 0.8210
1554.465953 0.8180 0.8100 0.8000 0.7940 0.7930
1558.930247 0.7900 0.7810 0.7570 0.7400 0.7320
1563.394540 0.7260 0.7220 0.7110 0.6950 0.6830
1567.858833 0.6750 0.6680 0.6590 0.6380 0.6150
1572.323126 0.6080 0.5910 0.5800 0.5730 0.5670
1576.787420 0.5490 0.5410 0.5360 0.5350 0.5360
1581.251713 0.5420 0.5460 0.5500 0.5600 0.5640
1585.716006 0.5740 0.5870 0.5910 0.6020 0.6060
1590.180299 0.6080 0.6270 0.6300 0.6300 0.6310
1594.644593 0.6330 0.6330 0.6330 0.6290 0.6150
1599.108886 0.6020 0.5710 0.5351 0.5170 0.4831
1603.573179 0.4439 0.4049 0.3610 0.3260 0.2990
1608.037473 0.2880 0.2880 0.3239 0.3789 0.4349
1612.501766 0.4901 0.5461 0.5910 0.6300 0.6750
1616.966059 0.7300 0.7580 0.7810 0.8109 0.8319
1621.430352 0.8530 0.8710 0.8850 0.8950 0.9020
1625.894646 0.9090 0.9130 0.9200 0.9300 0.9340
1630.358939 0.9370 0.9410 0.9440 0.9450 0.9480
1634.823232 0.9530 0.9550 0.9560 0.9590 0.9600
1639.287525 0.9600 0.9600 0.9620 0.9620 0.9620
1643.751819 0.9630 0.9630 0.9630 0.9620 0.9620
1648.216112 0.9620 0.9630 0.9660 0.9690 0.9700
1652.680405 0.9730 0.9740 0.9760 0.9770 0.9770
1657.144698 0.9800 0.9830 0.9840 0.9840 0.9860
1661.608992 0.9870 0.9870 0.9870 0.9870 0.9880
1666.073285 0.9910 0.9940 0.9950 0.9950 0.9950
1670.537578 0.9950 0.9940 0.9930 0.9910 0.9910
1675.001871 0.9930 0.9940 0.9950 0.9950 0.9950
1679.466165 0.9950 0.9940 0.9940 0.9940 0.9940
1683.930458 0.9950 0.9970 0.9970 0.9940 0.9930
1688.394751 0.9930 0.9930 0.9910 0.9910 0.9910
1692.859044 0.9910 0.9930 0.9930 0.9930 0.9930
1697.323338 0.9930 0.9910 0.9910 0.9910 0.9910
1701.787631 0.9930 0.9940 0.9940 0.9940 0.9950
1706.251924 0.9970 0.9970 0.9970 0.9970 0.9970
1710.716217 0.9970 0.9970 0.9970 0.9970 0.9980
1715.180511 0.9980 0.9980 0.9970 0.9970 0.9980
1719.644804 1.0000 1.0000 0.9980 0.9980 0.9970
1724.109097 0.9970 0.9970 0.9970 0.9970 0.9970
1728.573390 0.9970 0.9970 0.9970 0.9980 0.9980
1733.037684 0.9980 0.9980 0.9980 0.9980 0.9980
1737.501977 0.9980 1.0000 1.0000 1.0000 1.0000
1741.966270 1.0000 1.0000 1.0000 1.0000 0.9980
1746.430563 0.9980 0.9980 0.9980 0.9980 0.9980
1750.894857 1.0000 1.0000 1.0000 0.9980 0.9980
1755.359150 0.9980 0.9980 0.9980 0.9980 0.9980
1759.823443 0.9980 0.9980 0.9980 0.9980 0.9980
1764.287736 0.9980 1.0000 1.0000 1.0000 1.0000
1768.752030 1.0000 0.9980 0.9980 1.0000 1.0000
1773.216323 1.0000 1.0000 1.0000 1.0000 1.0000
1777.680616 0.9980 0.9980 0.9980 0.9980 0.9980
1782.144910 0.9980 0.9980 0.9980 0.9980 0.9980
1786.609203 0.9980 0.9980 0.9980 0.9980 0.9980
1791.073496 0.9980 0.9980 0.9980 1.0000 1.0000
1795.537789 1.0000 0.9980 0.9980 0.9970 0.9980
1800.002083 1.0000 0.9980 0.9980 1.0000 1.0000
1804.466376 1.0000 1.0000 0.9980 0.9980 0.9980
1808.930669 0.9980 0.9980 0.9980 0.9980 0.9980
1813.394962 0.9980 0.9980 0.9970 0.9980 0.9980
1817.859256 0.9980 0.9980 0.9980 1.0000 1.0000
1822.323549 1.0000 1.0000 1.0000 0.9980 0.9980
1826.787842 0.9980 0.9980 1.0000 1.0000 1.0000
1831.252135 1.0000 1.0000 1.0000 1.0000 1.0000
1835.716429 1.0000 1.0000 1.0000 1.0000 1.0000
1840.180722 1.0000 1.0000 1.0000 1.0000 1.0000
1844.645015 1.0000 1.0000 1.0000 1.0000 1.0000
1849.109308 0.9980 0.9980 0.9980 1.0000 0.9980
1853.573602 0.9980 0.9980 0.9980 0.9980 0.9970
1858.037895 0.9970 0.9970 0.9970 0.9950 0.9950
1862.502188 0.9940 0.9940 0.9940 0.9940 0.9940
1866.966481 0.9940 0.9930 0.9930 0.9940 0.9950
1871.430775 0.9950 0.9940 0.9940 0.9940 0.9930
1875.895068 0.9930 0.9910 0.9900 0.9900 0.9900
1880.359361 0.9900 0.9880 0.9870 0.9870 0.9870
1884.823654 0.9870 0.9880 0.9870 0.9870 0.9870
1889.287948 0.9870 0.9870 0.9860 0.9860 0.9860
1893.752241 0.9840 0.9830 0.9810 0.9800 0.9770
1898.216534 0.9770 0.9770 0.9770 0.9760 0.9740
1902.680827 0.9700 0.9700 0.9690 0.9670 0.9650
1907.145121 0.9650 0.9660 0.9690 0.9730 0.9760
1911.609414 0.9790 0.9800 0.9810 0.9810 0.9840
1916.073707 0.9860 0.9840 0.9830 0.9810 0.9790
1920.538000 0.9770 0.9770 0.9810 0.9830 0.9840
1925.002294 0.9840 0.9840 0.9840 0.9840 0.9840
1929.466587 0.9830 0.9830 0.9810 0.9810 0.9830
1933.930880 0.9830 0.9830 0.9830 0.9840 0.9830
1938.395173 0.9830 0.9830 0.9830 0.9810 0.9800
1942.859467 0.9790 0.9810 0.9810 0.9830 0.9830
1947.323760 0.9810 0.9810 0.9800 0.9800 0.9800
1951.788053 0.9810 0.9810 0.9830 0.9830 0.9830
1956.252347 0.9830 0.9810 0.9810 0.9800 0.9800
1960.716640 0.9800 0.9800 0.9790 0.9800 0.9800
1965.180933 0.9800 0.9800 0.9800 0.9790 0.9770
1969.645226 0.9770 0.9760 0.9730 0.9740 0.9760
1974.109520 0.9760 0.9770 0.9770 0.9770 0.9770
1978.573813 0.9770 0.9770 0.9770 0.9760 0.9740
1983.038106 0.9740 0.9730 0.9730 0.9730 0.9730
1987.502399 0.9730 0.9740 0.9740 0.9740 0.9760
1991.966693 0.9760 0.9740 0.9730 0.9670 0.9600
1996.430986 0.9580 0.9580 0.9580 0.9590 0.9630
2000.895279 0.9650 0.9670 0.9680 0.9690 0.9695
2005.359572 0.9700 0.9710 0.9720 0.9720 0.9720
2009.823866 0.9720 0.9720 0.9710 0.9700 0.9700
2014.288159 0.9700 0.9695 0.9690 0.9690 0.9690
2018.752452 0.9690 0.9690 0.9695 0.9700 0.9700
2023.216745 0.9700 0.9710 0.9720 0.9720 0.9720
2027.681039 0.9710 0.9700 0.9700 0.9699 0.9679
2032.145332 0.9659 0.9639 0.9620 0.9620 0.9620
2036.609625 0.9625 0.9630 0.9630 0.9631 0.9646
2041.073918 0.9660 0.9660 0.9660 0.9655 0.9650
2045.538212 0.9650 0.9650 0.9650 0.9650 0.9650
2050.002505 0.9650 0.9650 0.9649 0.9639 0.9630
2054.466798 0.9630 0.9630 0.9625 0.9619 0.9609
2058.931091 0.9599 0.9589 0.9579 0.9569 0.9560
2063.395385 0.9555 0.9549 0.9539 0.9530 0.9525
2067.859678 0.9520 0.9520 0.9522 0.9537 0.9550
2072.323971 0.9550 0.9550 0.9550 0.9549 0.9539
2076.788264 0.9530 0.9530 0.9530 0.9530 0.9530
2081.252558 0.9530 0.9529 0.9524 0.9520 0.9520
2085.716851 0.9520 0.9520 0.9520 0.9520 0.9520
2090.181144 0.9520 0.9519 0.9514 0.9510 0.9510
2094.645437 0.9508 0.9498 0.9489 0.9484 0.9480
2099.109731 0.9480 0.9480 0.9480 0.9479 0.9474
2103.574024 0.9468 0.9458 0.9449 0.9444 0.9438
2108.038317 0.9428 0.9419 0.9414 0.9409 0.9404
2112.502610 0.9400 0.9400 0.9398 0.9388 0.9380
2116.966904 0.9380 0.9380 0.9380 0.9379 0.9374
2121.431197 0.9368 0.9358 0.9349 0.9344 0.9341
2125.895490 0.9346 0.9349 0.9344 0.9340 0.9340
2130.359784 0.9339 0.9334 0.9330 0.9330 0.9330
2134.824077 0.9330 0.9330 0.9330 0.9330 0.9330
2139.288370 0.9330 0.9330 0.9330 0.9330 0.9328
2143.752663 0.9318 0.9310 0.9310 0.9309 0.9304
2148.216957 0.9298 0.9288 0.9280 0.9280 0.9282
2152.681250 0.9292 0.9300 0.9300 0.9298 0.9288
2157.145543 0.9280 0.9280 0.9279 0.9274 0.9269
2161.609836 0.9264 0.9257 0.9247 0.9240 0.9240
2166.074130 0.9239 0.9234 0.9227 0.9217 0.9207
2170.538423 0.9197 0.9187 0.9177 0.9169 0.9164
2175.002716 0.9157 0.9147 0.9140 0.9140 0.9139
2179.467009 0.9134 0.9130 0.9130 0.9130 0.9130
2183.931303 0.9128 0.9123 0.9117 0.9107 0.9100
2188.395596 0.9100 0.9100 0.9100 0.9100 0.9100
2192.859889 0.9098 0.9093 0.9090 0.9090 0.9090
2197.324182 0.9090 0.9090 0.9090 0.9090 0.9090
2201.788476 0.9090 0.9090 0.9090 0.9090 0.9087
2206.252769 0.9077 0.9070 0.9070 0.9070 0.9070
2210.717062 0.9070 0.9070 0.9070 0.9070 0.9068
2215.181355 0.9063 0.9058 0.9053 0.9045 0.9030
2219.645649 0.9015 0.9000 0.8990 0.8990 0.8988
2224.109942 0.8983 0.8980 0.8980 0.8980 0.8980
2228.574235 0.8976 0.8966 0.8958 0.8953 0.8944
2233.038528 0.8929 0.8920 0.8920 0.8918 0.8913
2237.502822 0.8910 0.8910 0.8906 0.8896 0.8890
2241.967115 0.8890 0.8886 0.8876 0.8870 0.8870
2246.431408 0.8866 0.8856 0.8850 0.8850 0.8850
2250.895701 0.8850 0.8850 0.8850 0.8848 0.8843
2255.359995 0.8840 0.8840 0.8840 0.8840 0.8836
2259.824288 0.8826 0.8818 0.8813 0.8810 0.8810
2264.288581 0.8808 0.8803 0.8800 0.8800 0.8800
2268.752874 0.8800 0.8800 0.8800 0.8800 0.8800
2273.217168 0.8800 0.8800 0.8800 0.8800 0.8800
2277.681461 0.8800 0.8800 0.8800 0.8795 0.8785
2282.145754 0.8778 0.8773 0.8770 0.8770 0.8770
2286.610047 0.8770 0.8770 0.8770 0.8770 0.8770
2291.074341 0.8765 0.8755 0.8750 0.8750 0.8750
2295.538634 0.8750 0.8750 0.8750 0.8748 0.8743
2300.002927 0.8740 0.8740 0.8738 0.8732 0.8722
2304.467221 0.8707 0.8700 0.8700 0.8695 0.8685
2308.931514 0.8680 0.8680 0.8685 0.8695 0.8703
2313.395807 0.8708 0.8710 0.8710 0.8710 0.8710
2317.860100 0.8715 0.8725 0.8730 0.8730 0.8730
2322.324394 0.8730 0.8730 0.8730 0.8730 0.8730
2326.788687 0.8733 0.8738 0.8740 0.8740 0.8740
2331.252980 0.8740 0.8740 0.8740 0.8740 0.8740
2335.717273 0.8740 0.8740 0.8740 0.8740 0.8740
2340.181567 0.8740 0.8743 0.8748 0.8759 0.8774
2344.645860 0.8780 0.8780 0.8786 0.8796 0.8800
2349.110153 0.8800 0.8800 0.8800 0.8800 0.8800
2353.574446 0.8800 0.8800 0.8800 0.8800 0.8794
2358.038740 0.8784 0.8780 0.8780 0.8780 0.8780
2362.503033 0.8780 0.8780 0.8780 0.8780 0.8780
2366.967326 0.8780 0.8780 0.8780 0.8780 0.8780
2371.431619 0.8780 0.8780 0.8780 0.8780 0.8780
2375.895913 0.8780 0.8780 0.8780 0.8780 0.8780
2380.360206 0.8771 0.8756 0.8747 0.8742 0.8737
2384.824499 0.8732 0.8724 0.8714 0.8700 0.8685
2389.288792 0.8677 0.8672 0.8673 0.8678 0.8687
2393.753086 0.8697 0.8700 0.8700 0.8700 0.8700
2398.217379 0.8693 0.8683 0.8677 0.8672 0.8667
2402.681672 0.8662 0.8653 0.8643 0.8640 0.8640
2407.145965 0.8640 0.8640 0.8637 0.8632 0.8630
2411.610259 0.8630 0.8630 0.8630 0.8630 0.8630
2416.074552 0.8630 0.8630 0.8633 0.8638 0.8640
2420.538845 0.8640 0.8640 0.8640 0.8637 0.8632
2425.003138 0.8630 0.8630 0.8623 0.8613 0.8617
2429.467432 0.8627 0.8630 0.8630 0.8630 0.8630
2433.931725 0.8630 0.8630 0.8630 0.8630 0.8634
2438.396018 0.8639 0.8640 0.8640 0.8647 0.8657
2442.860311 0.8653 0.8643 0.8640 0.8640 0.8640
2447.324605 0.8640 0.8640 0.8640 0.8640 0.8640
2451.788898 0.8636 0.8631 0.8630 0.8630 0.8622
2456.253191 0.8612 0.8610 0.8610 0.8610 0.8610
2460.717484 0.8610 0.8610 0.8606 0.8601 0.8600
2465.181778 0.8600 0.8600 0.8600 0.8604 0.8609
2469.646071 0.8606 0.8601 0.8600 0.8600 0.8600
2474.110364 0.8600 0.8600 0.8600 0.8600 0.8600
2478.574658 0.8600 0.8600 0.8600 0.8600 0.8600
2483.038951 0.8600 0.8600 0.8600 0.8600 0.8600
2487.503244 0.8600 0.8600 0.8604 0.8609 0.8610
2491.967537 0.8610 0.8606 0.8601 0.8596 0.8591
2496.431831 0.8590 0.8590 0.8590 0.8590 0.8594
2500.896124 0.8599 0.8600 0.8600 0.8596 0.8591
2505.360417 0.8590 0.8590 0.8594 0.8599 0.8600
2509.824710 0.8600 0.8604 0.8609 0.8610 0.8610
2514.289004 0.8610 0.8610 0.8619 0.8629 0.8630
2518.753297 0.8630 0.8630 0.8630 0.8630 0.8630
2523.217590 0.8621 0.8611 0.8610 0.8610 0.8606
2527.681883 0.8601 0.8600 0.8600 0.8600 0.8600
2532.146177 0.8600 0.8600 0.8600 0.8600 0.8600
2536.610470 0.8600 0.8600 0.8600 0.8600 0.8600
2541.074763 0.8600 0.8600 0.8595 0.8590 0.8590
2545.539056 0.8590 0.8581 0.8571 0.8570 0.8570
2550.003350 0.8570 0.8570 0.8570 0.8570 0.8570
2554.467643 0.8570 0.8570 0.8570 0.8570 0.8570
2558.931936 0.8565 0.8560 0.8560 0.8560 0.8560
2563.396229 0.8560 0.8560 0.8560 0.8560 0.8560
2567.860523 0.8560 0.8560 0.8560 0.8560 0.8560
2572.324816 0.8560 0.8550 0.8540 0.8540 0.8540
2576.789109 0.8540 0.8540 0.8540 0.8540 0.8535
2581.253402 0.8530 0.8530 0.8530 0.8530 0.8530
2585.717696 0.8525 0.8520 0.8520 0.8520 0.8510
2590.181989 0.8500 0.8500 0.8500 0.8500 0.8500
2594.646282 0.8500 0.8500 0.8500 0.8500 0.8500
2599.110575 0.8500 0.8500 0.8500 0.8495 0.8490
2603.574869 0.8490 0.8490 0.8475 0.8460 0.8460
2608.039162 0.8460 0.8460 0.8460 0.8455 0.8450
2612.503455 0.8440 0.8430 0.8430 0.8430 0.8425
2616.967748 0.8420 0.8415 0.8410 0.8410 0.8410
2621.432042 0.8410 0.8410 0.8415 0.8420 0.8420
2625.896335 0.8420 0.8425 0.8430 0.8430 0.8430
2630.360628 0.8430 0.8430 0.8430 0.8430 0.8430
2634.824921 0.8430 0.8430 0.8430 0.8430 0.8430
2639.289215 0.8430 0.8430 0.8430 0.8430 0.8430
2643.753508 0.8430 0.8430 0.8430 0.8430 0.8430
2648.217801 0.8430 0.8430 0.8430 0.8430 0.8430
2652.682095 0.8430 0.8430 0.8430 0.8430 0.8430
2657.146388 0.8430 0.8430 0.8430 0.8429 0.8424
2661.610681 0.8420 0.8420 0.8419 0.8414 0.8410
2666.074974 0.8410 0.8409 0.8399 0.8388 0.8373
2670.539268 0.8360 0.8360 0.8359 0.8354 0.8350
2675.003561 0.8350 0.8350 0.8350 0.8350 0.8350
2679.467854 0.8350 0.8350 0.8349 0.8344 0.8340
2683.932147 0.8340 0.8339 0.8329 0.8320 0.8320
2688.396441 0.8320 0.8320 0.8319 0.8314 0.8310
2692.860734 0.8310 0.8310 0.8310 0.8308 0.8298
2697.325027 0.8290 0.8290 0.8290 0.8290 0.8290
2701.789320 0.8290 0.8290 0.8290 0.8290 0.8290
2706.253614 0.8289 0.8284 0.8280 0.8280 0.8279
2710.717907 0.8274 0.8268 0.8258 0.8249 0.8244
2715.182200 0.8238 0.8228 0.8220 0.8220 0.8222
2719.646493 0.8232 0.8241 0.8246 0.8254 0.8274
2724.110787 0.8290 0.8290 0.8286 0.8266 0.8249
2728.575080 0.8244 0.8240 0.8240 0.8238 0.8228
2733.039373 0.8220 0.8220 0.8220 0.8220 0.8220
2737.503666 0.8220 0.8220 0.8220 0.8219 0.8214
2741.967960 0.8210 0.8210 0.8209 0.8204 0.8200
2746.432253 0.8200 0.8198 0.8188 0.8180 0.8180
2750.896546 0.8180 0.8180 0.8179 0.8174 0.8167
2755.360839 0.8157 0.8150 0.8150 0.8150 0.8150
2759.825133 0.8150 0.8150 0.8149 0.8144 0.8140
2764.289426 0.8140 0.8140 0.8140 0.8139 0.8134
2768.753719 0.8130 0.8130 0.8127 0.8117 0.8110
2773.218012 0.8110 0.8109 0.8104 0.8094 0.8074
2777.682306 0.8060 0.8060 0.8057 0.8047 0.8039
2782.146599 0.8034 0.8030 0.8030 0.8030 0.8030
2786.610892 0.8027 0.8017 0.8008 0.8003 0.7995
2791.075185 0.7980 0.7968 0.7963 0.7957 0.7947
2795.539479 0.7940 0.7940 0.7938 0.7933 0.7928
2800.003772 0.7923 0.7920 0.7920 0.7917 0.7907
2804.468065 0.7898 0.7893 0.7888 0.7883 0.7875
2808.932359 0.7860 0.7847 0.7837 0.7828 0.7823
2813.396652 0.7818 0.7813 0.7807 0.7796 0.7790
2817.860945 0.7790 0.7788 0.7783 0.7774 0.7759
2822.325238 0.7739 0.7709 0.7688 0.7683 0.7674
2826.789532 0.7659 0.7648 0.7643 0.7636 0.7626
2831.253825 0.7624 0.7634 0.7646 0.7661 0.7678
2835.718118 0.7698 0.7716 0.7731 0.7750 0.7775
2840.182411 0.7796 0.7811 0.7820 0.7820 0.7818
2844.646705 0.7813 0.7810 0.7810 0.7800 0.7775
2849.110998 0.7750 0.7725 0.7704 0.7689 0.7678
2853.575291 0.7673 0.7670 0.7670 0.7670 0.7670
2858.039584 0.7670 0.7670 0.7672 0.7677 0.7682
2862.503878 0.7687 0.7688 0.7683 0.7678 0.7673
2866.968171 0.7670 0.7670 0.7663 0.7648 0.7633
2871.432464 0.7618 0.7608 0.7603 0.7595 0.7585
2875.896757 0.7578 0.7573 0.7563 0.7548 0.7526
2880.361051 0.7496 0.7478 0.7473 0.7472 0.7477
2884.825344 0.7485 0.7495 0.7495 0.7485 0.7475
2889.289637 0.7465 0.7448 0.7423 0.7408 0.7403
2893.753930 0.7388 0.7363 0.7343 0.7328 0.7305
2898.218224 0.7275 0.7253 0.7238 0.7218 0.7193
2902.682517 0.7170 0.7150 0.7140 0.7140 0.7145
2907.146810 0.7155 0.7183 0.7228 0.7260 0.7280
2911.611103 0.7306 0.7336 0.7353 0.7358 0.7363
2916.075397 0.7368 0.7375 0.7385 0.7390 0.7390
2920.539690 0.7382 0.7367 0.7357 0.7352 0.7334
2925.003983 0.7304 0.7279 0.7259 0.7239 0.7219
2929.468276 0.7193 0.7163 0.7142 0.7127 0.7109
2933.932570 0.7089 0.7077 0.7072 0.7073 0.7078
2938.396863 0.7102 0.7142 0.7185 0.7230 0.7272
2942.861156 0.7312 0.7347 0.7377 0.7396 0.7406
2947.325449 0.7425 0.7450 0.7466 0.7476 0.7489
2951.789743 0.7504 0.7516 0.7526 0.7533 0.7538
2956.254036 0.7540 0.7540 0.7540 0.7540 0.7549
2960.718329 0.7564 0.7573 0.7578 0.7580 0.7580
2965.182622 0.7580 0.7580 0.7586 0.7596 0.7606
2969.646916 0.7616 0.7620 0.7620 0.7617 0.7612
2974.111209 0.7607 0.7602 0.7600 0.7600 0.7591
2978.575502 0.7576 0.7570 0.7570 0.7570 0.7570
2983.039796 0.7570 0.7570 0.7573 0.7578 0.7580
2987.504089 0.7580 0.7586 0.7596 0.7600 0.7600
2991.968382 0.7594 0.7584 0.7577 0.7572 0.7570
2996.432675 0.7570 0.7563 0.7553 0.7550 0.7550
3000.896969 0.7550 0.7550 0.7550 0.7550 0.7557
3005.361262 0.7567 0.7573 0.7578 0.7590 0.7605
3009.825555 0.7610 0.7610 0.7624 0.7644 0.7660
3014.289848 0.7675 0.7680 0.7680 0.7690 0.7705
3018.754142 0.7710 0.7710 0.7714 0.7719 0.7716
3023.218435 0.7711 0.7710 0.7710 0.7710 0.7710
3027.682728 0.7710 0.7710 0.7703 0.7693 0.7686
3032.147021 0.7681 0.7680 0.7680 0.7680 0.7680
3036.611315 0.7680 0.7680 0.7680 0.7680 0.7676
3041.075608 0.7671 0.7663 0.7653 0.7650 0.7650
3045.539901 0.7650 0.7650 0.7650 0.7650 0.7650
3050.004194 0.7650 0.7650 0.7650 0.7650 0.7650
3054.468488 0.7646 0.7641 0.7632 0.7622 0.7620
3058.932781 0.7620 0.7616 0.7611 0.7606 0.7601
3063.397074 0.7589 0.7574 0.7555 0.7535 0.7519
3067.861367 0.7504 0.7492 0.7482 0.7488 0.7498
3072.325661 0.7500 0.7500 0.7492 0.7482 0.7476
3076.789954 0.7471 0.7466 0.7461 0.7464 0.7469
3081.254247 0.7474 0.7479 0.7504 0.7534 0.7544
3085.718540 0.7549 0.7558 0.7568 0.7574 0.7579
3090.182834 0.7580 0.7580 0.7588 0.7598 0.7600
3094.647127 0.7600 0.7600 0.7600 0.7600 0.7600
3099.111420 0.7600 0.7600 0.7588 0.7573 0.7562
3103.575713 0.7552 0.7550 0.7550 0.7563 0.7578
3108.040007 0.7580 0.7580 0.7588 0.7599 0.7600
3112.504300 0.7600 0.7600 0.7600 0.7591 0.7581
3116.968593 0.7576 0.7571 0.7574 0.7579 0.7576
3121.432886 0.7571 0.7570 0.7570 0.7561 0.7551
3125.897180 0.7559 0.7569 0.7570 0.7570 0.7574
3130.361473 0.7579 0.7580 0.7580 0.7576 0.7571
3134.825766 0.7570 0.7570 0.7561 0.7551 0.7541
3139.290059 0.7531 0.7517 0.7501 0.7491 0.7481
3143.754353 0.7480 0.7480 0.7475 0.7470 0.7465
3148.218646 0.7460 0.7451 0.7441 0.7435 0.7430
3152.682939 0.7421 0.7411 0.7410 0.7410 0.7419
3157.147233 0.7429 0.7430 0.7430 0.7435 0.7440
3161.611526 0.7440 0.7440 0.7440 0.7440 0.7435
3166.075819 0.7430 0.7430 0.7430 0.7430 0.7430
3170.540112 0.7416 0.7401 0.7400 0.7400 0.7400
3175.004406 0.7400 0.7400 0.7400 0.7400 0.7400
3179.468699 0.7395 0.7390 0.7375 0.7360 0.7355
3183.932992 0.7350 0.7350 0.7350 0.7350 0.7350
3188.397285 0.7350 0.7350 0.7355 0.7360 0.7360
3192.861579 0.7360 0.7355 0.7350 0.7350 0.7350
3197.325872 0.7350 0.7350 0.7335 0.7320 0.7310
3201.790165 0.7300 0.7300 0.7300 0.7300 0.7300
3206.254458 0.7295 0.7290 0.7290 0.7290 0.7290
3210.718752 0.7290 0.7285 0.7280 0.7280 0.7280
3215.183045 0.7280 0.7280 0.7270 0.7260 0.7260
3219.647338 0.7260 0.7260 0.7260 0.7255 0.7250
3224.111631 0.7250 0.7250 0.7240 0.7230 0.7230
3228.575925 0.7230 0.7230 0.7230 0.7225 0.7220
3233.040218 0.7220 0.7220 0.7220 0.7219 0.7204
3237.504511 0.7190 0.7185 0.7180 0.7180 0.7180
3241.968804 0.7180 0.7179 0.7169 0.7160 0.7155
3246.433098 0.7150 0.7145 0.7139 0.7129 0.7120
3250.897391 0.7115 0.7109 0.7099 0.7090 0.7085
3255.361684 0.7080 0.7080 0.7080 0.7075 0.7070
3259.825977 0.7070 0.7069 0.7059 0.7050 0.7050
3264.290271 0.7050 0.7044 0.7038 0.7018 0.6998
3268.754564 0.6983 0.6969 0.6959 0.6950 0.6950
3273.218857 0.6949 0.6944 0.6939 0.6934 0.6930
3277.683150 0.6930 0.6929 0.6919 0.6909 0.6904
3282.147444 0.6899 0.6889 0.6879 0.6874 0.6870
3286.611737 0.6870 0.6868 0.6853 0.6839 0.6829
3291.076030 0.6819 0.6809 0.6799 0.6794 0.6788
3295.540323 0.6778 0.6769 0.6764 0.6760 0.6760
3300.004617 0.6759 0.6754 0.6748 0.6738 0.6727
3304.468910 0.6712 0.6698 0.6688 0.6680 0.6680
3308.933203 0.6677 0.6662 0.6650 0.6650 0.6648
3313.397496 0.6638 0.6630 0.6630 0.6629 0.6624
3317.861790 0.6619 0.6614 0.6608 0.6598 0.6590
3322.326083 0.6590 0.6589 0.6584 0.6578 0.6568
3326.790376 0.6560 0.6560 0.6558 0.6548 0.6538
3331.254670 0.6528 0.6520 0.6520 0.6519 0.6514
3335.718963 0.6510 0.6510 0.6510 0.6510 0.6508
3340.183256 0.6498 0.6488 0.6478 0.6468 0.6458
3344.647549 0.6449 0.6444 0.6440 0.6440 0.6440
3349.111843 0.6440 0.6440 0.6440 0.6438 0.6428
3353.576136 0.6420 0.6420 0.6419 0.6414 0.6410
3358.040429 0.6410 0.6409 0.6404 0.6400 0.6400
3362.504722 0.6397 0.6387 0.6380 0.6380 0.6379
3366.969016 0.6374 0.6365 0.6345 0.6326 0.6311
3371.433309 0.6299 0.6294 0.6287 0.6277 0.6264
3375.897602 0.6244 0.6230 0.6230 0.6220 0.6185
3380.361895 0.6145 0.6095 0.6042 0.5982 0.5927
3384.826189 0.5881 0.5842 0.5817 0.5768 0.5663
3389.290482 0.5537 0.5360 0.5153 0.4883 0.4666
3393.754775 0.4561 0.4419 0.4198 0.4001 0.3851
3398.219068 0.3678 0.3458 0.3238 0.3018 0.2870
3402.683362 0.2870 0.3056 0.3622 0.4137 0.4553
3407.147655 0.5031 0.5638 0.6171 0.6572 0.6874
3411.611948 0.6999 0.7123 0.7243 0.7329 0.7354
3416.076241 0.7375 0.7390 0.7407 0.7427 0.7445
3420.540535 0.7460 0.7472 0.7477 0.7480 0.7480
3425.004828 0.7484 0.7494 0.7500 0.7500 0.7500
3429.469121 0.7500 0.7496 0.7486 0.7480 0.7480
3433.933414 0.7476 0.7466 0.7456 0.7446 0.7438
3438.397708 0.7433 0.7426 0.7416 0.7410 0.7410
3442.862001 0.7410 0.7410 0.7408 0.7403 0.7400
3447.326294 0.7400 0.7400 0.7400 0.7398 0.7393
3451.790587 0.7390 0.7390 0.7384 0.7369 0.7360
3456.254881 0.7360 0.7360 0.7360 0.7360 0.7360
3460.719174 0.7358 0.7353 0.7350 0.7350 0.7346
3465.183467 0.7336 0.7330 0.7330 0.7330 0.7330
3469.647760 0.7330 0.7330 0.7330 0.7330 0.7328
3474.112054 0.7323 0.7316 0.7305 0.7298 0.7293
3478.576347 0.7290 0.7290 0.7290 0.7290 0.7288
3483.040640 0.7283 0.7280 0.7280 0.7280 0.7280
3487.504933 0.7280 0.7280 0.7275 0.7265 0.7260
3491.969227 0.7260 0.7260 0.7260 0.7260 0.7260
3496.433520 0.7260 0.7260 0.7260 0.7260 0.7260
3500.897813 0.7260 0.7260 0.7260 0.7260 0.7260
3505.362107 0.7260 0.7260 0.7260 0.7260 0.7260
3509.826400 0.7260 0.7260 0.7260 0.7260 0.7260
3514.290693 0.7260 0.7260 0.7260 0.7260 0.7260
3518.754986 0.7260 0.7260 0.7260 0.7260 0.7260
3523.219280 0.7260 0.7260 0.7260 0.7260 0.7260
3527.683573 0.7260 0.7260 0.7260 0.7260 0.7260
3532.147866 0.7260 0.7260 0.7260 0.7260 0.7260
3536.612159 0.7260 0.7260 0.7260 0.7260 0.7260
3541.076453 0.7266 0.7276 0.7274 0.7264 0.7260
3545.540746 0.7260 0.7260 0.7260 0.7257 0.7252
3550.005039 0.7250 0.7250 0.7250 0.7250 0.7250
3554.469332 0.7250 0.7250 0.7250 0.7250 0.7250
3558.933626 0.7250 0.7250 0.7250 0.7250 0.7250
3563.397919 0.7250 0.7250 0.7250 0.7250 0.7250
3567.862212 0.7250 0.7250 0.7259 0.7274 0.7280
3572.326505 0.7280 0.7280 0.7280 0.7280 0.7280
3576.790799 0.7280 0.7280 0.7274 0.7264 0.7257
3581.255092 0.7252 0.7250 0.7250 0.7250 0.7250
3585.719385 0.7244 0.7234 0.7230 0.7230 0.7240
3590.183678 0.7255 0.7260 0.7260 0.7260 0.7260
3594.647972 0.7260 0.7260 0.7260 0.7260 0.7260
3599.112265 0.7260 0.7260 0.7260 0.7260 0.7260
3603.576558 0.7260 0.7260 0.7260 0.7260 0.7260
3608.040851 0.7260 0.7260 0.7260 0.7260 0.7260
3612.505145 0.7260 0.7260 0.7260 0.7260 0.7260
3616.969438 0.7260 0.7260 0.7260 0.7257 0.7252
3621.433731 0.7243 0.7233 0.7230 0.7230 0.7230
3625.898024 0.7230 0.7230 0.7230 0.7230 0.7230
3630.362318 0.7230 0.7230 0.7230 0.7230 0.7230
3634.826611 0.7230 0.7237 0.7247 0.7250 0.7250
3639.290904 0.7239 0.7224 0.7220 0.7220 0.7216
3643.755197 0.7211 0.7210 0.7210 0.7210 0.7210
3648.219491 0.7214 0.7219 0.7224 0.7229 0.7230
3652.683784 0.7230 0.7230 0.7230 0.7230 0.7230
3657.148077 0.7230 0.7230 0.7230 0.7230 0.7230
3661.612370 0.7230 0.7226 0.7221 0.7220 0.7220
3666.076664 0.7220 0.7220 0.7220 0.7220 0.7224
3670.540957 0.7229 0.7230 0.7230 0.7230 0.7230
3675.005250 0.7230 0.7230 0.7238 0.7248 0.7250
3679.469544 0.7250 0.7242 0.7232 0.7230 0.7230
3683.933837 0.7226 0.7221 0.7216 0.7211 0.7210
3688.398130 0.7210 0.7190 0.7165 0.7156 0.7151
3692.862423 0.7125 0.7095 0.7082 0.7072 0.7062
3697.326717 0.7052 0.7058 0.7068 0.7074 0.7079
3701.791010 0.7084 0.7089 0.7098 0.7108 0.7114
3706.255303 0.7119 0.7128 0.7138 0.7148 0.7158
3710.719596 0.7160 0.7160 0.7169 0.7179 0.7180
3715.183890 0.7180 0.7184 0.7189 0.7199 0.7209
3719.648183 0.7210 0.7210 0.7214 0.7219 0.7220
3724.112476 0.7220 0.7220 0.7220 0.7216 0.7211
3728.576769 0.7201 0.7191 0.7190 0.7190 0.7186
3733.041063 0.7181 0.7180 0.7180 0.7180 0.7180
3737.505356 0.7180 0.7180 0.7180 0.7180 0.7184
3741.969649 0.7189 0.7190 0.7190 0.7190 0.7190
3746.433942 0.7185 0.7180 0.7180 0.7180 0.7171
3750.898236 0.7161 0.7160 0.7160 0.7160 0.7160
3755.362529 0.7160 0.7160 0.7160 0.7160 0.7155
3759.826822 0.7150 0.7150 0.7150 0.7150 0.7150
3764.291115 0.7150 0.7150 0.7150 0.7150 0.7150
3768.755409 0.7150 0.7150 0.7150 0.7145 0.7140
3773.219702 0.7140 0.7140 0.7140 0.7140 0.7140
3777.683995 0.7140 0.7140 0.7140 0.7140 0.7140
3782.148288 0.7130 0.7120 0.7120 0.7120 0.7115
3786.612582 0.7110 0.7110 0.7110 0.7100 0.7090
3791.076875 0.7090 0.7090 0.7085 0.7080
##END=
