##TITLE=TOXAPHENE
##JCAMP-DX=4.24
##DATA TYPE=INFRARED SPECTRUM
##CLASS=COBLENTZ
##ORIGIN=DOW CHEMICAL COMPANY
##OWNER=COBLENTZ SOCIETY
Collection (C) 2018 copyright by the U.S. Secretary of Commerce
on behalf of the United States of America. All rights reserved.
##DATE=1959/10/21
##NAMES=CAMPHENE, CHLORINATED, ISOMERS (CONTAINS 67-69% CHLORINE)
##MOLFORM=C10 H10 Cl8
$$MIXED ISOMERS WITH 6 ADDITIONAL Cl ATOMS SUBSTITUTED FOR 6 H ATOMS
##SOURCE REFERENCE=COBLENTZ NO. 10611
##$NIST ID=B6010611
##$NIST SOURCE=COBLENTZ
##$NIST IMAGE=cob10611
##SPECTROMETER/DATA SYSTEM=DOW KBr FOREPRISM-GRATING
##INSTRUMENT PARAMETERS=BLAZED AT 3.5, 12.0, 20.0 MICRON, CHANGED AT 5.0, 7.5, 14.9 MICRON
##STATE=SOLUTION (10% IN CCl4 FOR 3800-1330, 10% IN CS2 FOR 1330-450 CM^-^1)
##PATH LENGTH=0.011, 0.011 CM
$$SPECTRAL CONTAMINATION DUE TO CCl4 AROUND 1550 CM^-^1
##SAMPLING PROCEDURE=TRANSMISSION
##RESOLUTION=4
##DATA PROCESSING=DIGITIZED BY NIST FROM HARD COPY (FROM TWO SEGMENTS)
##XUNITS=1/CM
##YUNITS=TRANSMITTANCE
##XFACTOR=1.000000
##YFACTOR=1
##DELTAX=0.929000
##FIRSTX=453.218
##LASTX=3797.62
##FIRSTY=0.869
##MAXX=3797.62
##MINX=453.218
##MAXY=1.021
##MINY=0.479
##NPOINTS=3601
##XYDATA=(X++(Y..Y))
453.218000 0.8690 0.8720 0.8720 0.8770 0.8800
457.862999 0.8830 0.8860 0.8900 0.8920 0.8930
462.507999 0.8960 0.8970 0.8970 0.9000 0.9020
467.152998 0.9030 0.9030 0.9050 0.9060 0.9060
471.797997 0.9080 0.9090 0.9090 0.9120 0.9130
476.442997 0.9150 0.9160 0.9220 0.9250 0.9280
481.087996 0.9310 0.9350 0.9380 0.9410 0.9420
485.732995 0.9420 0.9420 0.9420 0.9430 0.9450
490.377995 0.9450 0.9450 0.9460 0.9480 0.9480
495.022994 0.9510 0.9540 0.9540 0.9540 0.9540
499.667993 0.9540 0.9550 0.9550 0.9550 0.9550
504.312993 0.9540 0.9540 0.9540 0.9540 0.9540
508.957992 0.9540 0.9540 0.9550 0.9560 0.9580
513.602991 0.9620 0.9640 0.9650 0.9650 0.9660
518.247991 0.9660 0.9660 0.9660 0.9650 0.9650
522.892990 0.9590 0.9560 0.9550 0.9550 0.9550
527.537990 0.9550 0.9550 0.9550 0.9540 0.9520
532.182989 0.9490 0.9460 0.9450 0.9410 0.9330
536.827988 0.9320 0.9280 0.9260 0.9260 0.9280
541.472988 0.9320 0.9330 0.9350 0.9390 0.9410
546.117987 0.9430 0.9430 0.9430 0.9420 0.9410
550.762986 0.9380 0.9350 0.9330 0.9350 0.9380
555.407986 0.9410 0.9430 0.9460 0.9510 0.9520
560.052985 0.9550 0.9550 0.9580 0.9610 0.9640
564.697984 0.9690 0.9770 0.9780 0.9790 0.9810
569.342984 0.9820 0.9840 0.9870 0.9890 0.9890
573.987983 0.9880 0.9880 0.9880 0.9890 0.9920
578.632982 0.9940 0.9940 0.9940 0.9920 0.9890
583.277982 0.9880 0.9880 0.9880 0.9880 0.9880
587.922981 0.9890 0.9910 0.9910 0.9880 0.9870
592.567980 0.9870 0.9880 0.9890 0.9940 0.9970
597.212980 1.0010 1.0010 1.0010 1.0020 1.0020
601.857979 1.0020 1.0010 1.0010 1.0010 1.0010
606.502978 1.0010 1.0010 1.0010 1.0010 1.0000
611.147978 0.9980 0.9950 0.9940 0.9940 0.9910
615.792977 0.9890 0.9890 0.9880 0.9880 0.9880
620.437976 0.9880 0.9890 0.9890 0.9890 0.9890
625.082976 0.9870 0.9810 0.9770 0.9750 0.9750
629.727975 0.9710 0.9690 0.9620 0.9560 0.9550
634.372974 0.9550 0.9550 0.9540 0.9540 0.9490
639.017974 0.9480 0.9430 0.9380 0.9330 0.9310
643.662973 0.9290 0.9230 0.9180 0.9100 0.9030
648.307972 0.9020 0.9020 0.9000 0.8970 0.8930
652.952972 0.8900 0.8890 0.8890 0.8900 0.8920
657.597971 0.8970 0.9100 0.9180 0.9220 0.9250
662.242970 0.9280 0.9310 0.9310 0.9290 0.9280
666.887970 0.9290 0.9290 0.9320 0.9320 0.9330
671.532969 0.9330 0.9330 0.9330 0.9320 0.9320
676.177969 0.9310 0.9260 0.9230 0.9220 0.9190
680.822968 0.9160 0.9150 0.9130 0.9120 0.9100
685.467967 0.9050 0.9000 0.8970 0.8920 0.8900
690.112967 0.8850 0.8701 0.8660 0.8590 0.8520
694.757966 0.8440 0.8430 0.8410 0.8410 0.8430
699.402965 0.8440 0.8440 0.8430 0.8400 0.8340
704.047965 0.8330 0.8300 0.8160 0.8110 0.8040
708.692964 0.8030 0.7980 0.7970 0.7970 0.7980
713.337963 0.8000 0.8010 0.8010 0.8030 0.8030
717.982963 0.8030 0.8030 0.8010 0.8010 0.7980
722.627962 0.7950 0.7940 0.7840 0.7770 0.7740
727.272961 0.7610 0.7580 0.7540 0.7391 0.7281
731.917961 0.7220 0.7090 0.6950 0.6890 0.6790
736.562960 0.6650 0.6590 0.6580 0.6451 0.6331
741.207959 0.6290 0.6160 0.6030 0.5930 0.5870
745.852959 0.5770 0.5730 0.5710 0.5581 0.5530
750.497958 0.5470 0.5350 0.5340 0.5300 0.5250
755.142957 0.5220 0.5220 0.5180 0.5150 0.5110
759.787957 0.5020 0.5000 0.4980 0.4940 0.4940
764.432956 0.4910 0.4890 0.4850 0.4840 0.4810
769.077955 0.4790 0.4790 0.4810 0.4840 0.4850
773.722955 0.4890 0.4940 0.5010 0.5050 0.5149
778.367954 0.5250 0.5280 0.5310 0.5330 0.5330
783.012953 0.5310 0.5280 0.5250 0.5250 0.5250
787.657953 0.5250 0.5250 0.5250 0.5220 0.5100
792.302952 0.5040 0.5010 0.5000 0.5010 0.5020
796.947951 0.5050 0.5080 0.5110 0.5210 0.5300
801.592951 0.5370 0.5450 0.5530 0.5610 0.5670
806.237950 0.5860 0.5930 0.6040 0.6130 0.6220
810.882949 0.6419 0.6470 0.6589 0.6680 0.6750
815.527949 0.6760 0.6820 0.6890 0.6950 0.7050
820.172948 0.7160 0.7290 0.7409 0.7440 0.7510
824.817948 0.7550 0.7570 0.7600 0.7640 0.7640
829.462947 0.7640 0.7620 0.7600 0.7570 0.7471
834.107946 0.7410 0.7310 0.7250 0.7240 0.7180
838.752946 0.7140 0.7060 0.6891 0.6780 0.6730
843.397945 0.6630 0.6530 0.6450 0.6330 0.6290
848.042944 0.6270 0.6130 0.6000 0.5910 0.5870
852.687944 0.5840 0.5830 0.5790 0.5740 0.5660
857.332943 0.5610 0.5600 0.5600 0.5600 0.5600
861.977942 0.5600 0.5610 0.5640 0.5660 0.5730
866.622942 0.5740 0.5790 0.5830 0.5870 0.5910
871.267941 0.6000 0.6040 0.6070 0.6140 0.6160
875.912940 0.6300 0.6350 0.6430 0.6450 0.6500
880.557940 0.6580 0.6620 0.6660 0.6690 0.6700
885.202939 0.6700 0.6720 0.6750 0.6750 0.6760
889.847938 0.6820 0.6980 0.7290 0.7390 0.7410
894.492938 0.7420 0.7420 0.7450 0.7470 0.7470
899.137937 0.7480 0.7510 0.7580 0.7680 0.7750
903.782936 0.7810 0.7940 0.7980 0.8000 0.7980
908.427936 0.7970 0.7950 0.7910 0.7740 0.7600
913.072935 0.7570 0.7550 0.7570 0.7600 0.7670
917.717934 0.7710 0.7770 0.7770 0.7750 0.7740
922.362934 0.7720 0.7720 0.7740 0.7780 0.7800
927.007933 0.7940 0.7980 0.8060 0.8070 0.8060
931.652932 0.8030 0.8010 0.8030 0.8030 0.8040
936.297932 0.8040 0.8030 0.8010 0.8010 0.7970
940.942931 0.7940 0.7850 0.7810 0.7710 0.7650
945.587930 0.7620 0.7610 0.7610 0.7610 0.7610
950.232930 0.7620 0.7680 0.7710 0.7720 0.7740
954.877929 0.7770 0.7830 0.7940 0.8000 0.8100
959.522928 0.8130 0.8180 0.8160 0.8160 0.8140
964.167928 0.8130 0.8130 0.8130 0.8140 0.8200
968.812927 0.8300 0.8400 0.8460 0.8570 0.8689
973.457927 0.8720 0.8770 0.8850 0.8900 0.8920
978.102926 0.8920 0.8930 0.8930 0.8930 0.8930
982.747925 0.8950 0.8950 0.8960 0.8970 0.8990
987.392925 0.8990 0.9000 0.9000 0.9000 0.9020
992.037924 0.9020 0.8990 0.8970 0.8970 0.8970
996.682923 0.8970 0.8970 0.8970 0.8970 0.8970
1001.327923 0.8970 0.8970 0.8970 0.8970 0.8990
1005.972922 0.9020 0.9050 0.9100 0.9130 0.9180
1010.617921 0.9230 0.9320 0.9330 0.9350 0.9350
1015.262921 0.9350 0.9360 0.9390 0.9390 0.9390
1019.907920 0.9380 0.9380 0.9360 0.9350 0.9330
1024.552919 0.9330 0.9350 0.9350 0.9360 0.9360
1029.197919 0.9360 0.9360 0.9380 0.9380 0.9410
1033.842918 0.9430 0.9430 0.9450 0.9450 0.9450
1038.487917 0.9450 0.9430 0.9430 0.9430 0.9420
1043.132917 0.9410 0.9410 0.9410 0.9390 0.9390
1047.777916 0.9390 0.9380 0.9360 0.9360 0.9350
1052.422915 0.9350 0.9350 0.9350 0.9330 0.9330
1057.067915 0.9320 0.9320 0.9320 0.9320 0.9320
1061.712914 0.9320 0.9320 0.9330 0.9330 0.9330
1066.357913 0.9350 0.9350 0.9350 0.9330 0.9330
1071.002913 0.9330 0.9330 0.9350 0.9350 0.9360
1075.647912 0.9390 0.9410 0.9430 0.9460 0.9490
1080.292911 0.9520 0.9540 0.9550 0.9560 0.9560
1084.937911 0.9560 0.9560 0.9550 0.9540 0.9540
1089.582910 0.9520 0.9510 0.9490 0.9510 0.9520
1094.227909 0.9540 0.9550 0.9580 0.9590 0.9620
1098.872909 0.9650 0.9660 0.9680 0.9710 0.9750
1103.517908 0.9770 0.9780 0.9790 0.9790 0.9810
1108.162907 0.9810 0.9820 0.9820 0.9820 0.9840
1112.807907 0.9840 0.9850 0.9870 0.9870 0.9880
1117.452906 0.9880 0.9880 0.9890 0.9910 0.9920
1122.097906 0.9940 0.9940 0.9940 0.9940 0.9910
1126.742905 0.9910 0.9880 0.9880 0.9870 0.9840
1131.387904 0.9810 0.9790 0.9780 0.9770 0.9750
1136.032904 0.9750 0.9740 0.9720 0.9720 0.9720
1140.677903 0.9720 0.9710 0.9710 0.9720 0.9720
1145.322902 0.9740 0.9750 0.9750 0.9750 0.9770
1149.967902 0.9770 0.9770 0.9750 0.9740 0.9740
1154.612901 0.9710 0.9710 0.9690 0.9680 0.9640
1159.257900 0.9560 0.9560 0.9550 0.9550 0.9550
1163.902900 0.9550 0.9560 0.9580 0.9580 0.9590
1168.547899 0.9590 0.9590 0.9590 0.9610 0.9610
1173.192898 0.9610 0.9610 0.9610 0.9610 0.9610
1177.837898 0.9610 0.9590 0.9590 0.9580 0.9580
1182.482897 0.9580 0.9590 0.9610 0.9610 0.9610
1187.127896 0.9590 0.9580 0.9580 0.9560 0.9550
1191.772896 0.9550 0.9540 0.9490 0.9490 0.9490
1196.417895 0.9480 0.9460 0.9460 0.9450 0.9420
1201.062894 0.9360 0.9350 0.9320 0.9310 0.9220
1205.707894 0.9160 0.9120 0.9100 0.9060 0.9030
1210.352893 0.8970 0.8920 0.8890 0.8830 0.8760
1214.997892 0.8700 0.8660 0.8630 0.8630 0.8630
1219.642892 0.8630 0.8600 0.8590 0.8590 0.8590
1224.287891 0.8590 0.8600 0.8630 0.8660 0.8690
1228.932890 0.8700 0.8720 0.8790 0.8860 0.8870
1233.577890 0.8890 0.8920 0.8960 0.8990 0.8990
1238.222889 0.8990 0.8990 0.8990 0.8950 0.8920
1242.867888 0.8900 0.8890 0.8890 0.8890 0.8870
1247.512888 0.8860 0.8860 0.8860 0.8860 0.8860
1252.157887 0.8850 0.8850 0.8850 0.8850 0.8830
1256.802886 0.8830 0.8830 0.8830 0.8820 0.8800
1261.447886 0.8770 0.8760 0.8730 0.8720 0.8720
1266.092885 0.8690 0.8690 0.8640 0.8600 0.8540
1270.737885 0.8440 0.8390 0.8340 0.8310 0.8300
1275.382884 0.8240 0.8200 0.8160 0.8140 0.8130
1280.027883 0.8100 0.8010 0.7970 0.7930 0.7800
1284.672883 0.7750 0.7600 0.7500 0.7440 0.7410
1289.317882 0.7290 0.7250 0.7190 0.7120 0.7080
1293.962881 0.7010 0.6950 0.6930 0.6930 0.6920
1298.607881 0.6890 0.6850 0.6820 0.6820 0.6830
1303.252880 0.6850 0.6890 0.6960 0.7080 0.7180
1307.897879 0.7280 0.7370 0.7470 0.7600 0.7680
1312.542879 0.7800 0.7940 0.7980 0.8010 0.8040
1317.187878 0.8070 0.8160 0.8260 0.8390 0.8520
1321.832877 0.8720 0.8770 0.8900 0.8960 0.9050
1326.477877 0.9160 0.9200 0.9260 0.9310 0.9320
1331.122876 0.9350 0.9420 0.9450 0.9480 0.9490
1335.767875 0.9510 0.9520 0.9540 0.9550 0.9560
1340.412875 0.9580 0.9620 0.9640 0.9650 0.9650
1345.057874 0.9680 0.9690 0.9710 0.9720 0.9740
1349.702873 0.9750 0.9750 0.9770 0.9770 0.9780
1354.347873 0.9780 0.9780 0.9780 0.9780 0.9780
1358.992872 0.9780 0.9780 0.9780 0.9780 0.9780
1363.637871 0.9780 0.9780 0.9780 0.9780 0.9780
1368.282871 0.9780 0.9780 0.9780 0.9770 0.9770
1372.927870 0.9770 0.9770 0.9770 0.9770 0.9770
1377.572869 0.9770 0.9770 0.9750 0.9750 0.9720
1382.217869 0.9660 0.9610 0.9580 0.9560 0.9550
1386.862868 0.9420 0.9330 0.9280 0.9260 0.9260
1391.507867 0.9310 0.9410 0.9430 0.9450 0.9450
1396.152867 0.9430 0.9410 0.9350 0.9280 0.9280
1400.797866 0.9490 0.9560 0.9590 0.9610 0.9660
1405.442865 0.9680 0.9690 0.9690 0.9690 0.9690
1410.087865 0.9690 0.9680 0.9680 0.9680 0.9680
1414.732864 0.9680 0.9680 0.9680 0.9660 0.9640
1419.377864 0.9610 0.9580 0.9560 0.9550 0.9540
1424.022863 0.9490 0.9450 0.9330 0.9320 0.9310
1428.667862 0.9150 0.9099 0.8720 0.8160 0.8100
1433.312862 0.7700 0.7700 0.7750 0.7910 0.7970
1437.957861 0.7980 0.7980 0.7970 0.7850 0.7740
1442.602860 0.7640 0.7580 0.7550 0.7540 0.7570
1447.247860 0.7600 0.7610 0.7620 0.7610 0.7580
1451.892859 0.7540 0.7420 0.7310 0.7250 0.7220
1456.537858 0.7210 0.7210 0.7220 0.7280 0.7340
1461.182858 0.7390 0.7450 0.7510 0.7550 0.7620
1465.827857 0.7670 0.7680 0.7740 0.7770 0.7830
1470.472856 0.7910 0.7930 0.7980 0.8060 0.8130
1475.117856 0.8160 0.8180 0.8310 0.8340 0.8390
1479.762855 0.8460 0.8590 0.8690 0.8730 0.8750
1484.407854 0.8760 0.8800 0.8830 0.8850 0.8850
1489.052854 0.8850 0.8830 0.8820 0.8800 0.8790
1493.697853 0.8790 0.8760 0.8730 0.8700 0.8640
1498.342852 0.8600 0.8570 0.8540 0.8500 0.8440
1502.987852 0.8390 0.8360 0.8330 0.8160 0.8070
1507.632851 0.7950 0.7940 0.7930 0.7900 0.7840
1512.277850 0.7830 0.7780 0.7750 0.7650 0.7570
1516.922850 0.7540 0.7470 0.7440 0.7440 0.7390
1521.567849 0.7280 0.7190 0.7160 0.7150 0.7120
1526.212848 0.7080 0.7060 0.6980 0.6930 0.6790
1530.857848 0.6750 0.6650 0.6460 0.6300 0.6160
1535.502847 0.6140 0.6040 0.6000 0.5910 0.5701
1540.147846 0.5480 0.5350 0.5270 0.5240 0.5170
1544.792846 0.5140 0.5110 0.5070 0.5040 0.5020
1549.437845 0.5010 0.5010 0.5020 0.5050 0.5080
1554.082844 0.5100 0.5140 0.5150 0.5659 0.5829
1558.727844 0.5860 0.5870 0.5890 0.5900 0.6020
1563.372843 0.6060 0.6190 0.6300 0.6330 0.6390
1568.017843 0.6580 0.6750 0.6830 0.6860 0.6890
1572.662842 0.6890 0.6920 0.6950 0.6980 0.6990
1577.307841 0.7010 0.7020 0.7040 0.7050 0.7060
1581.952841 0.7080 0.7090 0.7160 0.7240 0.7250
1586.597840 0.7270 0.7310 0.7420 0.7550 0.7600
1591.242839 0.7620 0.7740 0.7780 0.7850 0.7970
1595.887839 0.8130 0.8170 0.8210 0.8310 0.8360
1600.532838 0.8540 0.8560 0.8640 0.8889 0.8900
1605.177837 0.8920 0.8960 0.9030 0.9100 0.9130
1609.822837 0.9160 0.9250 0.9320 0.9330 0.9330
1614.467836 0.9380 0.9410 0.9480 0.9480 0.9510
1619.112835 0.9520 0.9540 0.9550 0.9560 0.9560
1623.757835 0.9560 0.9560 0.9550 0.9540 0.9540
1628.402834 0.9540 0.9540 0.9550 0.9550 0.9580
1633.047833 0.9650 0.9680 0.9690 0.9750 0.9770
1637.692833 0.9780 0.9790 0.9790 0.9790 0.9810
1642.337832 0.9820 0.9850 0.9850 0.9880 0.9910
1646.982831 0.9920 0.9920 0.9920 0.9920 0.9920
1651.627831 0.9920 0.9910 0.9910 0.9890 0.9890
1656.272830 0.9890 0.9890 0.9910 0.9920 0.9940
1660.917829 0.9940 0.9940 0.9940 0.9950 0.9970
1665.562829 0.9970 0.9970 0.9970 0.9970 0.9970
1670.207828 0.9970 0.9970 0.9980 0.9980 1.0000
1674.852827 1.0000 1.0000 1.0000 1.0000 1.0010
1679.497827 1.0010 1.0010 1.0010 1.0000 1.0000
1684.142826 1.0000 1.0000 0.9980 0.9980 0.9980
1688.787825 0.9980 0.9980 0.9980 0.9980 1.0000
1693.432825 1.0010 1.0010 1.0010 1.0000 1.0000
1698.077824 0.9980 0.9970 0.9970 0.9980 1.0010
1702.722823 1.0020 1.0010 1.0000 0.9980 0.9970
1707.367823 0.9970 0.9970 0.9980 1.0010 1.0020
1712.012822 1.0020 1.0010 1.0010 1.0000 1.0000
1716.657822 0.9980 0.9980 0.9980 0.9970 0.9970
1721.302821 0.9970 0.9970 0.9950 0.9950 0.9950
1725.947820 0.9950 0.9950 0.9950 0.9950 0.9950
1730.592820 0.9950 0.9970 0.9970 0.9970 0.9970
1735.237819 0.9970 0.9970 0.9970 0.9970 0.9950
1739.882818 0.9970 0.9970 0.9970 0.9970 0.9970
1744.527818 0.9980 0.9980 0.9980 0.9980 0.9980
1749.172817 0.9980 0.9980 0.9970 0.9970 0.9980
1753.817816 0.9980 0.9980 0.9970 0.9970 0.9970
1758.462816 0.9980 0.9980 1.0010 1.0010 1.0000
1763.107815 0.9980 0.9980 0.9980 0.9980 1.0010
1767.752814 1.0020 1.0020 1.0020 1.0010 1.0010
1772.397814 1.0010 1.0010 1.0010 1.0010 1.0010
1777.042813 1.0010 1.0010 1.0010 1.0010 1.0010
1781.687812 1.0010 1.0010 1.0010 1.0010 1.0010
1786.332812 1.0010 1.0010 1.0010 1.0010 1.0010
1790.977811 1.0010 1.0010 1.0010 1.0010 1.0010
1795.622810 1.0010 1.0010 1.0010 1.0010 1.0010
1800.267810 1.0010 1.0010 1.0010 1.0010 1.0010
1804.912809 1.0000 0.9980 0.9980 0.9980 0.9980
1809.557808 0.9980 0.9980 0.9980 0.9980 0.9970
1814.202808 0.9970 0.9970 0.9970 0.9970 0.9970
1818.847807 0.9970 0.9970 0.9970 0.9970 0.9980
1823.492806 0.9980 1.0000 1.0000 1.0000 1.0000
1828.137806 1.0010 1.0010 1.0010 1.0010 1.0010
1832.782805 1.0010 1.0000 1.0000 1.0000 1.0000
1837.427804 0.9980 0.9980 0.9980 0.9970 0.9970
1842.072804 0.9970 0.9970 0.9970 0.9980 0.9980
1846.717803 0.9980 0.9980 0.9980 1.0000 1.0000
1851.362802 1.0000 1.0000 1.0000 1.0000 0.9980
1856.007802 0.9980 0.9980 0.9980 0.9980 0.9980
1860.652801 0.9980 0.9980 1.0000 1.0000 1.0000
1865.297801 1.0000 1.0000 1.0000 1.0000 1.0000
1869.942800 1.0000 1.0000 1.0000 1.0000 1.0010
1874.587799 1.0010 1.0010 1.0010 1.0010 1.0010
1879.232799 1.0010 1.0010 1.0010 1.0010 1.0010
1883.877798 1.0010 1.0010 1.0010 1.0010 1.0000
1888.522797 1.0000 1.0000 1.0000 1.0000 1.0000
1893.167797 1.0000 1.0000 1.0000 1.0000 1.0000
1897.812796 1.0000 1.0000 1.0000 1.0000 1.0000
1902.457795 1.0000 1.0010 1.0010 1.0010 1.0010
1907.102795 1.0010 1.0010 1.0010 1.0010 1.0010
1911.747794 1.0010 1.0020 1.0020 1.0020 1.0020
1916.392793 1.0020 1.0020 1.0020 1.0020 1.0020
1921.037793 1.0020 1.0040 1.0040 1.0040 1.0040
1925.682792 1.0040 1.0040 1.0040 1.0040 1.0040
1930.327791 1.0040 1.0040 1.0040 1.0040 1.0040
1934.972791 1.0040 1.0040 1.0040 1.0040 1.0040
1939.617790 1.0040 1.0040 1.0040 1.0050 1.0050
1944.262789 1.0050 1.0050 1.0050 1.0040 1.0040
1948.907789 1.0020 1.0020 1.0020 1.0020 1.0010
1953.552788 1.0010 1.0010 1.0010 1.0010 1.0000
1958.197787 1.0000 1.0000 1.0000 1.0010 1.0010
1962.842787 1.0010 1.0010 1.0010 1.0010 1.0010
1967.487786 1.0010 1.0010 1.0010 1.0010 1.0010
1972.132785 1.0010 1.0000 1.0000 1.0000 1.0000
1976.777785 1.0000 1.0000 1.0000 1.0000 1.0000
1981.422784 1.0000 1.0000 1.0000 1.0000 1.0000
1986.067783 0.9980 0.9980 0.9980 0.9980 0.9980
1990.712783 0.9980 0.9980 0.9980 0.9980 0.9980
1995.357782 0.9980 0.9980 0.9980 0.9980 0.9980
2000.002781 0.9980 0.9980 0.9980 0.9980 0.9980
2004.647781 0.9990 1.0000 1.0000 1.0000 1.0000
2009.292780 1.0000 1.0000 1.0000 1.0000 1.0000
2013.937780 1.0000 1.0000 1.0005 1.0010 1.0010
2018.582779 1.0010 1.0010 1.0010 1.0010 1.0010
2023.227778 1.0015 1.0020 1.0020 1.0020 1.0020
2027.872778 1.0020 1.0020 1.0020 1.0020 1.0020
2032.517777 1.0030 1.0040 1.0040 1.0040 1.0040
2037.162776 1.0040 1.0040 1.0040 1.0040 1.0040
2041.807776 1.0045 1.0050 1.0050 1.0050 1.0050
2046.452775 1.0050 1.0050 1.0050 1.0050 1.0050
2051.097774 1.0050 1.0050 1.0050 1.0050 1.0050
2055.742774 1.0050 1.0050 1.0050 1.0045 1.0040
2060.387773 1.0040 1.0040 1.0040 1.0040 1.0040
2065.032772 1.0040 1.0040 1.0040 1.0040 1.0040
2069.677772 1.0040 1.0040 1.0040 1.0040 1.0040
2074.322771 1.0040 1.0040 1.0040 1.0045 1.0050
2078.967770 1.0050 1.0050 1.0050 1.0050 1.0050
2083.612770 1.0050 1.0050 1.0050 1.0050 1.0050
2088.257769 1.0050 1.0050 1.0050 1.0050 1.0050
2092.902768 1.0050 1.0050 1.0050 1.0050 1.0050
2097.547768 1.0050 1.0050 1.0050 1.0050 1.0050
2102.192767 1.0050 1.0050 1.0050 1.0050 1.0050
2106.837766 1.0050 1.0050 1.0045 1.0040 1.0040
2111.482766 1.0040 1.0040 1.0040 1.0040 1.0040
2116.127765 1.0040 1.0040 1.0040 1.0040 1.0040
2120.772764 1.0040 1.0040 1.0040 1.0040 1.0040
2125.417764 1.0040 1.0040 1.0030 1.0020 1.0020
2130.062763 1.0020 1.0020 1.0020 1.0020 1.0020
2134.707762 1.0020 1.0020 1.0020 1.0020 1.0020
2139.352762 1.0020 1.0020 1.0020 1.0020 1.0020
2143.997761 1.0020 1.0020 1.0020 1.0020 1.0020
2148.642760 1.0020 1.0020 1.0020 1.0015 1.0010
2153.287760 1.0010 1.0010 1.0010 1.0010 1.0010
2157.932759 1.0010 1.0010 1.0010 1.0010 1.0010
2162.577759 1.0010 1.0010 1.0010 1.0010 1.0010
2167.222758 1.0010 1.0010 1.0010 1.0010 1.0010
2171.867757 1.0010 1.0010 1.0010 1.0010 1.0010
2176.512757 1.0010 1.0010 1.0010 1.0010 1.0010
2181.157756 1.0010 1.0010 1.0010 1.0010 1.0010
2185.802755 1.0010 1.0010 1.0010 1.0010 1.0010
2190.447755 1.0010 1.0010 1.0010 1.0010 1.0010
2195.092754 1.0010 1.0010 1.0010 1.0010 1.0010
2199.737753 1.0010 1.0010 1.0010 1.0010 1.0010
2204.382753 1.0010 1.0015 1.0020 1.0020 1.0020
2209.027752 1.0020 1.0020 1.0020 1.0020 1.0020
2213.672751 1.0020 1.0020 1.0020 1.0015 1.0010
2218.317751 1.0010 1.0010 1.0010 1.0010 1.0010
2222.962750 1.0010 1.0010 1.0010 1.0010 1.0010
2227.607749 1.0005 1.0000 1.0000 1.0000 1.0000
2232.252749 1.0000 1.0000 1.0000 1.0000 1.0000
2236.897748 0.9990 0.9980 0.9980 0.9980 0.9975
2241.542747 0.9970 0.9970 0.9970 0.9970 0.9969
2246.187747 0.9959 0.9950 0.9950 0.9950 0.9950
2250.832746 0.9950 0.9945 0.9940 0.9940 0.9940
2255.477745 0.9930 0.9920 0.9915 0.9910 0.9910
2260.122745 0.9909 0.9899 0.9890 0.9885 0.9880
2264.767744 0.9880 0.9880 0.9875 0.9870 0.9870
2269.412743 0.9869 0.9859 0.9850 0.9845 0.9839
2274.057743 0.9829 0.9820 0.9820 0.9820 0.9815
2278.702742 0.9810 0.9810 0.9809 0.9799 0.9790
2283.347741 0.9790 0.9790 0.9785 0.9780 0.9780
2287.992741 0.9780 0.9775 0.9770 0.9770 0.9770
2292.637740 0.9770 0.9769 0.9759 0.9750 0.9750
2297.282739 0.9750 0.9750 0.9750 0.9750 0.9750
2301.927739 0.9745 0.9740 0.9740 0.9740 0.9740
2306.572738 0.9740 0.9740 0.9740 0.9745 0.9750
2311.217738 0.9750 0.9750 0.9750 0.9751 0.9761
2315.862737 0.9770 0.9770 0.9770 0.9770 0.9770
2320.507736 0.9775 0.9780 0.9780 0.9780 0.9780
2325.152736 0.9780 0.9780 0.9780 0.9785 0.9790
2329.797735 0.9790 0.9791 0.9801 0.9810 0.9810
2334.442734 0.9810 0.9810 0.9810 0.9815 0.9820
2339.087734 0.9820 0.9821 0.9831 0.9840 0.9840
2343.732733 0.9840 0.9840 0.9840 0.9845 0.9850
2348.377732 0.9850 0.9851 0.9861 0.9870 0.9870
2353.022732 0.9870 0.9870 0.9870 0.9875 0.9880
2357.667731 0.9880 0.9880 0.9885 0.9890 0.9890
2362.312730 0.9890 0.9890 0.9890 0.9890 0.9890
2366.957730 0.9890 0.9891 0.9901 0.9910 0.9910
2371.602729 0.9910 0.9910 0.9910 0.9915 0.9920
2376.247728 0.9920 0.9921 0.9931 0.9940 0.9940
2380.892728 0.9940 0.9940 0.9940 0.9945 0.9950
2385.537727 0.9950 0.9950 0.9950 0.9951 0.9961
2390.182726 0.9970 0.9970 0.9970 0.9970 0.9970
2394.827726 0.9970 0.9970 0.9970 0.9970 0.9970
2399.472725 0.9970 0.9970 0.9970 0.9970 0.9970
2404.117724 0.9970 0.9970 0.9970 0.9970 0.9970
2408.762724 0.9970 0.9970 0.9970 0.9970 0.9970
2413.407723 0.9970 0.9970 0.9970 0.9970 0.9970
2418.052722 0.9970 0.9970 0.9970 0.9970 0.9970
2422.697722 0.9970 0.9970 0.9975 0.9980 0.9980
2427.342721 0.9980 0.9980 0.9980 0.9980 0.9981
2431.987720 0.9991 1.0000 1.0000 1.0000 1.0000
2436.632720 1.0000 1.0000 1.0000 1.0000 1.0000
2441.277719 1.0000 1.0000 1.0000 1.0000 1.0000
2445.922718 1.0000 1.0000 1.0000 1.0000 1.0000
2450.567718 1.0000 1.0000 1.0000 0.9999 0.9989
2455.212717 0.9980 0.9980 0.9980 0.9980 0.9980
2459.857717 0.9980 0.9980 0.9980 0.9980 0.9980
2464.502716 0.9979 0.9974 0.9970 0.9970 0.9970
2469.147715 0.9970 0.9970 0.9970 0.9970 0.9970
2473.792715 0.9970 0.9970 0.9970 0.9970 0.9970
2478.437714 0.9970 0.9970 0.9970 0.9970 0.9970
2483.082713 0.9970 0.9970 0.9970 0.9970 0.9970
2487.727713 0.9970 0.9970 0.9970 0.9970 0.9970
2492.372712 0.9970 0.9970 0.9969 0.9959 0.9950
2497.017711 0.9950 0.9950 0.9950 0.9950 0.9950
2501.662711 0.9950 0.9950 0.9950 0.9950 0.9950
2506.307710 0.9950 0.9950 0.9950 0.9950 0.9950
2510.952709 0.9950 0.9950 0.9949 0.9944 0.9940
2515.597709 0.9940 0.9940 0.9940 0.9940 0.9940
2520.242708 0.9940 0.9940 0.9940 0.9940 0.9940
2524.887707 0.9940 0.9940 0.9940 0.9940 0.9940
2529.532707 0.9940 0.9940 0.9940 0.9940 0.9940
2534.177706 0.9940 0.9940 0.9940 0.9940 0.9940
2538.822705 0.9940 0.9940 0.9940 0.9940 0.9940
2543.467705 0.9940 0.9940 0.9940 0.9940 0.9940
2548.112704 0.9940 0.9940 0.9940 0.9940 0.9940
2552.757703 0.9940 0.9940 0.9940 0.9940 0.9940
2557.402703 0.9939 0.9929 0.9920 0.9920 0.9920
2562.047702 0.9920 0.9920 0.9920 0.9920 0.9920
2566.692701 0.9920 0.9920 0.9920 0.9920 0.9921
2571.337701 0.9931 0.9940 0.9940 0.9940 0.9940
2575.982700 0.9940 0.9940 0.9940 0.9940 0.9940
2580.627699 0.9940 0.9940 0.9940 0.9940 0.9940
2585.272699 0.9940 0.9940 0.9940 0.9940 0.9940
2589.917698 0.9940 0.9940 0.9940 0.9940 0.9940
2594.562697 0.9940 0.9940 0.9940 0.9940 0.9940
2599.207697 0.9940 0.9941 0.9946 0.9950 0.9950
2603.852696 0.9950 0.9950 0.9950 0.9950 0.9950
2608.497696 0.9950 0.9950 0.9950 0.9950 0.9950
2613.142695 0.9950 0.9950 0.9950 0.9950 0.9950
2617.787694 0.9950 0.9951 0.9961 0.9970 0.9970
2622.432694 0.9970 0.9970 0.9970 0.9970 0.9970
2627.077693 0.9970 0.9970 0.9970 0.9970 0.9970
2631.722692 0.9970 0.9970 0.9970 0.9970 0.9970
2636.367692 0.9970 0.9971 0.9976 0.9980 0.9980
2641.012691 0.9980 0.9980 0.9980 0.9980 0.9980
2645.657690 0.9980 0.9980 0.9980 0.9980 0.9980
2650.302690 0.9980 0.9980 0.9980 0.9980 0.9980
2654.947689 0.9980 0.9980 0.9980 0.9980 0.9980
2659.592688 0.9980 0.9980 0.9980 0.9980 0.9980
2664.237688 0.9980 0.9980 0.9980 0.9980 0.9980
2668.882687 0.9980 0.9980 0.9980 0.9980 0.9980
2673.527686 0.9980 0.9980 0.9980 0.9980 0.9980
2678.172686 0.9980 0.9980 0.9980 0.9980 0.9980
2682.817685 0.9980 0.9980 0.9980 0.9980 0.9980
2687.462684 0.9980 0.9980 0.9980 0.9980 0.9980
2692.107684 0.9980 0.9980 0.9980 0.9980 0.9980
2696.752683 0.9980 0.9980 0.9980 0.9980 0.9980
2701.397682 0.9980 0.9980 0.9980 0.9980 0.9980
2706.042682 0.9980 0.9980 0.9980 0.9980 0.9980
2710.687681 0.9980 0.9980 0.9980 0.9980 0.9980
2715.332680 0.9980 0.9980 0.9980 0.9980 0.9980
2719.977680 0.9980 0.9979 0.9974 0.9970 0.9970
2724.622679 0.9970 0.9970 0.9970 0.9970 0.9970
2729.267678 0.9970 0.9970 0.9970 0.9968 0.9958
2733.912678 0.9950 0.9950 0.9950 0.9950 0.9950
2738.557677 0.9950 0.9952 0.9962 0.9970 0.9970
2743.202676 0.9970 0.9970 0.9970 0.9970 0.9970
2747.847676 0.9970 0.9970 0.9970 0.9970 0.9970
2752.492675 0.9971 0.9976 0.9980 0.9980 0.9980
2757.137675 0.9980 0.9980 0.9980 0.9980 0.9980
2761.782674 0.9980 0.9980 0.9980 0.9980 0.9980
2766.427673 0.9980 0.9980 0.9980 0.9980 0.9980
2771.072673 0.9980 0.9980 0.9980 0.9980 0.9980
2775.717672 0.9980 0.9980 0.9980 0.9980 0.9980
2780.362671 0.9980 0.9980 0.9982 0.9992 1.0000
2785.007671 1.0000 1.0000 1.0000 1.0000 1.0000
2789.652670 1.0000 1.0000 1.0000 1.0000 1.0000
2794.297669 1.0000 1.0000 1.0000 1.0000 1.0000
2798.942669 1.0000 1.0000 1.0000 1.0000 1.0000
2803.587668 1.0000 1.0000 1.0000 1.0000 1.0000
2808.232667 1.0000 1.0000 1.0000 1.0000 1.0000
2812.877667 1.0000 1.0000 1.0000 1.0000 1.0000
2817.522666 1.0000 1.0000 1.0000 1.0000 0.9998
2822.167665 0.9988 0.9980 0.9980 0.9980 0.9980
2826.812665 0.9980 0.9980 0.9980 0.9980 0.9979
2831.457664 0.9974 0.9970 0.9970 0.9970 0.9970
2836.102663 0.9968 0.9958 0.9950 0.9950 0.9950
2840.747663 0.9950 0.9949 0.9944 0.9940 0.9940
2845.392662 0.9940 0.9940 0.9938 0.9928 0.9920
2850.037661 0.9920 0.9919 0.9914 0.9908 0.9898
2854.682661 0.9890 0.9890 0.9890 0.9890 0.9890
2859.327660 0.9890 0.9890 0.9890 0.9890 0.9890
2863.972659 0.9890 0.9890 0.9890 0.9890 0.9890
2868.617659 0.9890 0.9890 0.9890 0.9890 0.9890
2873.262658 0.9889 0.9884 0.9880 0.9880 0.9880
2877.907657 0.9880 0.9880 0.9880 0.9880 0.9880
2882.552657 0.9879 0.9874 0.9868 0.9858 0.9850
2887.197656 0.9850 0.9850 0.9850 0.9850 0.9850
2891.842655 0.9850 0.9850 0.9849 0.9844 0.9840
2896.487655 0.9840 0.9840 0.9840 0.9838 0.9828
2901.132654 0.9820 0.9820 0.9819 0.9814 0.9810
2905.777654 0.9810 0.9808 0.9798 0.9790 0.9790
2910.422653 0.9790 0.9790 0.9789 0.9784 0.9779
2915.067652 0.9774 0.9770 0.9770 0.9770 0.9770
2919.712652 0.9770 0.9770 0.9768 0.9758 0.9750
2924.357651 0.9750 0.9750 0.9750 0.9750 0.9750
2929.002650 0.9750 0.9750 0.9750 0.9750 0.9750
2933.647650 0.9750 0.9752 0.9762 0.9770 0.9770
2938.292649 0.9770 0.9770 0.9770 0.9770 0.9770
2942.937648 0.9770 0.9768 0.9758 0.9749 0.9744
2947.582648 0.9740 0.9740 0.9740 0.9740 0.9737
2952.227647 0.9722 0.9707 0.9692 0.9676 0.9656
2956.872646 0.9638 0.9628 0.9617 0.9602 0.9587
2961.517646 0.9572 0.9559 0.9554 0.9542 0.9507
2966.162645 0.9474 0.9449 0.9429 0.9424 0.9407
2970.807644 0.9352 0.9308 0.9298 0.9283 0.9253
2975.452644 0.9224 0.9199 0.9177 0.9162 0.9148
2980.097643 0.9138 0.9129 0.9124 0.9116 0.9095
2984.742642 0.9073 0.9043 0.9018 0.9008 0.8996
2989.387642 0.8981 0.8969 0.8964 0.8957 0.8942
2994.032641 0.8929 0.8924 0.8917 0.8902 0.8888
2998.677640 0.8878 0.8872 0.8882 0.8893 0.8909
3003.322640 0.8924 0.8939 0.8956 0.8981 0.9004
3007.967639 0.9019 0.9032 0.9042 0.9051 0.9056
3012.612638 0.9065 0.9085 0.9102 0.9112 0.9121
3017.257638 0.9126 0.9132 0.9142 0.9151 0.9156
3021.902637 0.9162 0.9172 0.9182 0.9192 0.9202
3026.547636 0.9212 0.9221 0.9226 0.9232 0.9242
3031.192636 0.9251 0.9256 0.9266 0.9291 0.9311
3035.837635 0.9316 0.9321 0.9326 0.9332 0.9342
3040.482634 0.9358 0.9388 0.9413 0.9423 0.9436
3045.127634 0.9461 0.9481 0.9486 0.9492 0.9502
3049.772633 0.9510 0.9510 0.9511 0.9516 0.9520
3054.417633 0.9520 0.9520 0.9520 0.9522 0.9533
3059.062632 0.9540 0.9540 0.9540 0.9540 0.9541
3063.707631 0.9546 0.9550 0.9550 0.9550 0.9550
3068.352631 0.9550 0.9550 0.9551 0.9556 0.9560
3072.997630 0.9560 0.9560 0.9560 0.9560 0.9560
3077.642629 0.9563 0.9573 0.9581 0.9586 0.9590
3082.287629 0.9590 0.9593 0.9603 0.9611 0.9616
3086.932628 0.9623 0.9633 0.9641 0.9646 0.9654
3091.577627 0.9669 0.9684 0.9699 0.9711 0.9716
3096.222627 0.9727 0.9752 0.9771 0.9776 0.9781
3100.867626 0.9786 0.9793 0.9803 0.9810 0.9810
3105.512625 0.9814 0.9829 0.9844 0.9859 0.9873
3110.157625 0.9883 0.9893 0.9903 0.9911 0.9916
3114.802624 0.9923 0.9933 0.9940 0.9940 0.9941
3119.447623 0.9946 0.9953 0.9963 0.9970 0.9970
3124.092623 0.9970 0.9970 0.9971 0.9976 0.9980
3128.737622 0.9980 0.9980 0.9980 0.9980 0.9980
3133.382621 0.9983 0.9993 1.0000 1.0000 1.0000
3138.027621 1.0000 1.0000 1.0000 1.0000 1.0000
3142.672620 1.0001 1.0006 1.0010 1.0010 1.0010
3147.317619 1.0010 1.0010 1.0010 1.0010 1.0010
3151.962619 1.0010 1.0010 1.0011 1.0016 1.0023
3156.607618 1.0033 1.0040 1.0040 1.0040 1.0040
3161.252617 1.0040 1.0040 1.0040 1.0040 1.0040
3165.897617 1.0040 1.0040 1.0040 1.0040 1.0040
3170.542616 1.0040 1.0040 1.0040 1.0040 1.0040
3175.187615 1.0040 1.0041 1.0046 1.0050 1.0050
3179.832615 1.0050 1.0050 1.0050 1.0050 1.0053
3184.477614 1.0063 1.0070 1.0070 1.0070 1.0070
3189.122613 1.0070 1.0070 1.0071 1.0076 1.0080
3193.767613 1.0080 1.0079 1.0074 1.0070 1.0070
3198.412612 1.0070 1.0070 1.0070 1.0070 1.0070
3203.057612 1.0070 1.0070 1.0070 1.0070 1.0070
3207.702611 1.0070 1.0070 1.0072 1.0076 1.0080
3212.347610 1.0080 1.0083 1.0093 1.0100 1.0100
3216.992610 1.0100 1.0100 1.0101 1.0106 1.0110
3221.637609 1.0110 1.0111 1.0116 1.0120 1.0120
3226.282608 1.0120 1.0120 1.0123 1.0133 1.0140
3230.927608 1.0140 1.0140 1.0140 1.0140 1.0140
3235.572607 1.0140 1.0140 1.0140 1.0140 1.0137
3240.217606 1.0127 1.0120 1.0120 1.0120 1.0120
3244.862606 1.0120 1.0120 1.0120 1.0120 1.0123
3249.507605 1.0133 1.0140 1.0140 1.0142 1.0147
3254.152604 1.0150 1.0150 1.0150 1.0150 1.0150
3258.797604 1.0150 1.0150 1.0150 1.0153 1.0163
3263.442603 1.0170 1.0170 1.0170 1.0170 1.0172
3268.087602 1.0176 1.0180 1.0180 1.0180 1.0180
3272.732602 1.0180 1.0180 1.0183 1.0193 1.0200
3277.377601 1.0200 1.0200 1.0200 1.0200 1.0200
3282.022600 1.0200 1.0200 1.0200 1.0200 1.0200
3286.667600 1.0200 1.0200 1.0200 1.0200 1.0200
3291.312599 1.0200 1.0200 1.0200 1.0200 1.0200
3295.957598 1.0200 1.0200 1.0200 1.0200 1.0200
3300.602598 1.0200 1.0200 1.0200 1.0200 1.0200
3305.247597 1.0200 1.0200 1.0200 1.0200 1.0200
3309.892596 1.0200 1.0200 1.0200 1.0200 1.0200
3314.537596 1.0200 1.0200 1.0200 1.0200 1.0200
3319.182595 1.0200 1.0200 1.0200 1.0200 1.0200
3323.827594 1.0200 1.0200 1.0200 1.0200 1.0200
3328.472594 1.0200 1.0200 1.0200 1.0200 1.0200
3333.117593 1.0200 1.0201 1.0207 1.0210 1.0210
3337.762592 1.0210 1.0210 1.0210 1.0210 1.0210
3342.407592 1.0210 1.0210 1.0210 1.0210 1.0210
3347.052591 1.0210 1.0210 1.0210 1.0210 1.0210
3351.697591 1.0210 1.0210 1.0210 1.0210 1.0210
3356.342590 1.0210 1.0210 1.0210 1.0210 1.0210
3360.987589 1.0210 1.0210 1.0210 1.0210 1.0210
3365.632589 1.0210 1.0210 1.0210 1.0210 1.0210
3370.277588 1.0210 1.0210 1.0210 1.0210 1.0210
3374.922587 1.0210 1.0210 1.0210 1.0210 1.0210
3379.567587 1.0210 1.0210 1.0210 1.0210 1.0210
3384.212586 1.0210 1.0210 1.0210 1.0210 1.0210
3388.857585 1.0210 1.0208 1.0203 1.0200 1.0200
3393.502585 1.0200 1.0200 1.0200 1.0200 1.0200
3398.147584 1.0200 1.0200 1.0200 1.0200 1.0200
3402.792583 1.0200 1.0200 1.0200 1.0200 1.0200
3407.437583 1.0200 1.0200 1.0200 1.0200 1.0200
3412.082582 1.0200 1.0200 1.0200 1.0200 1.0200
3416.727581 1.0200 1.0200 1.0200 1.0200 1.0200
3421.372581 1.0200 1.0200 1.0200 1.0200 1.0200
3426.017580 1.0200 1.0200 1.0200 1.0200 1.0200
3430.662579 1.0200 1.0200 1.0200 1.0200 1.0197
3435.307579 1.0187 1.0180 1.0180 1.0180 1.0180
3439.952578 1.0180 1.0180 1.0180 1.0180 1.0180
3444.597577 1.0180 1.0180 1.0180 1.0180 1.0180
3449.242577 1.0180 1.0180 1.0180 1.0180 1.0180
3453.887576 1.0180 1.0180 1.0180 1.0180 1.0180
3458.532575 1.0180 1.0180 1.0178 1.0173 1.0170
3463.177575 1.0170 1.0170 1.0170 1.0170 1.0170
3467.822574 1.0170 1.0170 1.0170 1.0170 1.0170
3472.467573 1.0170 1.0170 1.0170 1.0170 1.0170
3477.112573 1.0170 1.0170 1.0167 1.0156 1.0150
3481.757572 1.0150 1.0150 1.0150 1.0150 1.0150
3486.402571 1.0148 1.0143 1.0140 1.0140 1.0136
3491.047571 1.0126 1.0120 1.0120 1.0120 1.0120
3495.692570 1.0120 1.0120 1.0120 1.0120 1.0120
3500.337570 1.0120 1.0124 1.0134 1.0140 1.0140
3504.982569 1.0140 1.0140 1.0140 1.0140 1.0140
3509.627568 1.0140 1.0140 1.0140 1.0140 1.0140
3514.272568 1.0140 1.0140 1.0140 1.0140 1.0140
3518.917567 1.0140 1.0140 1.0140 1.0140 1.0140
3523.562566 1.0140 1.0140 1.0142 1.0147 1.0150
3528.207566 1.0150 1.0150 1.0150 1.0150 1.0150
3532.852565 1.0150 1.0150 1.0148 1.0143 1.0140
3537.497564 1.0140 1.0136 1.0127 1.0120 1.0120
3542.142564 1.0120 1.0120 1.0120 1.0120 1.0120
3546.787563 1.0120 1.0120 1.0120 1.0120 1.0120
3551.432562 1.0120 1.0120 1.0120 1.0120 1.0120
3556.077562 1.0120 1.0120 1.0120 1.0120 1.0120
3560.722561 1.0120 1.0120 1.0118 1.0113 1.0110
3565.367560 1.0110 1.0110 1.0110 1.0110 1.0110
3570.012560 1.0110 1.0110 1.0110 1.0110 1.0108
3574.657559 1.0103 1.0100 1.0100 1.0100 1.0100
3579.302558 1.0096 1.0086 1.0080 1.0080 1.0080
3583.947558 1.0080 1.0078 1.0073 1.0070 1.0070
3588.592557 1.0070 1.0070 1.0070 1.0070 1.0070
3593.237556 1.0070 1.0066 1.0056 1.0050 1.0050
3597.882556 1.0050 1.0050 1.0050 1.0050 1.0050
3602.527555 1.0050 1.0050 1.0050 1.0050 1.0050
3607.172554 1.0050 1.0050 1.0048 1.0043 1.0040
3611.817554 1.0040 1.0040 1.0040 1.0040 1.0040
3616.462553 1.0040 1.0040 1.0040 1.0040 1.0040
3621.107552 1.0040 1.0040 1.0040 1.0040 1.0040
3625.752552 1.0040 1.0040 1.0040 1.0040 1.0036
3630.397551 1.0026 1.0020 1.0020 1.0020 1.0020
3635.042550 1.0020 1.0020 1.0020 1.0020 1.0020
3639.687550 1.0020 1.0020 1.0020 1.0020 1.0020
3644.332549 1.0020 1.0020 1.0020 1.0020 1.0020
3648.977549 1.0020 1.0020 1.0020 1.0020 1.0020
3653.622548 1.0020 1.0020 1.0020 1.0020 1.0020
3658.267547 1.0020 1.0020 1.0020 1.0020 1.0020
3662.912547 1.0020 1.0020 1.0020 1.0020 1.0020
3667.557546 1.0020 1.0020 1.0020 1.0020 1.0020
3672.202545 1.0020 1.0020 1.0020 1.0020 1.0020
3676.847545 1.0020 1.0020 1.0020 1.0020 1.0020
3681.492544 1.0020 1.0020 1.0020 1.0020 1.0020
3686.137543 1.0020 1.0020 1.0020 1.0020 1.0020
3690.782543 1.0020 1.0020 1.0020 1.0020 1.0020
3695.427542 1.0020 1.0020 1.0020 1.0020 1.0020
3700.072541 1.0020 1.0020 1.0020 1.0020 1.0020
3704.717541 1.0020 1.0020 1.0020 1.0020 1.0020
3709.362540 1.0020 1.0020 1.0020 1.0020 1.0020
3714.007539 1.0020 1.0020 1.0020 1.0020 1.0020
3718.652539 1.0020 1.0020 1.0020 1.0020 1.0020
3723.297538 1.0020 1.0020 1.0020 1.0020 1.0020
3727.942537 1.0020 1.0020 1.0020 1.0020 1.0020
3732.587537 1.0020 1.0020 1.0020 1.0020 1.0020
3737.232536 1.0020 1.0020 1.0020 1.0020 1.0020
3741.877535 1.0020 1.0020 1.0020 1.0020 1.0020
3746.522535 1.0020 1.0020 1.0020 1.0020 1.0020
3751.167534 1.0020 1.0020 1.0020 1.0020 1.0020
3755.812533 1.0020 1.0020 1.0020 1.0020 1.0020
3760.457533 1.0020 1.0020 1.0020 1.0020 1.0020
3765.102532 1.0020 1.0020 1.0020 1.0020 1.0020
3769.747531 1.0020 1.0020 1.0020 1.0020 1.0020
3774.392531 1.0020 1.0020 1.0020 1.0020 1.0020
3779.037530 1.0020 1.0020 1.0020 1.0020 1.0020
3783.682529 1.0020 1.0020 1.0020 1.0020 1.0020
3788.327529 1.0020 1.0020 1.0020 1.0024 1.0034
3792.972528 1.0040 1.0040 1.0040 1.0040 1.0040
3797.617528 1.0040
##END=
