##TITLE=1,7-OCTADIENE, 2,4-DIMETHYL-3-CHLORO-
##JCAMP-DX=4.24
##DATA TYPE=INFRARED SPECTRUM
##CLASS=COBLENTZ III
##ORIGIN=BUSH BOAKE ALLEN LTD. VIA SCIENTIFIC DOC. CENTRE LTD.
##OWNER=COBLENTZ SOCIETY
Collection (C) 2018 copyright by the U.S. Secretary of Commerce
on behalf of the United States of America. All rights reserved.
##DATE=Not specified, most likely prior to 1982
##NAMES=3-chloro-2,4-dimethyl-1,7-octadiene
##MOLFORM=C10 H17 Cl
##SOURCE REFERENCE=COBLENTZ NO. 10335
##$NIST ID=B6010335
##$NIST SOURCE=COBLENTZ
##$NIST IMAGE=cob10335
##SPECTROMETER/DATA SYSTEM=UNICAM SP-200
##STATE=(NEAT)
##SAMPLING PROCEDURE=TRANSMISSION
##RESOLUTION=4
##DATA PROCESSING=DIGITIZED BY NIST FROM HARD COPY (FROM TWO SEGMENTS)
##XUNITS=1/CM
##YUNITS=TRANSMITTANCE
##XFACTOR=1.000000
##YFACTOR=1
##DELTAX=0.794283
##FIRSTX=653.852
##LASTX=5054.18
##FIRSTY=0.539
##MAXX=5054.18
##MINX=653.852
##MAXY=0.847
##MINY=0.054
##NPOINTS=5541
##XYDATA=(X++(Y..Y))
653.852000 0.5390 0.5430 0.5460 0.5490 0.5510
657.823417 0.5530 0.5530 0.5530 0.5530 0.5540
661.794834 0.5540 0.5530 0.5520 0.5500 0.5500
665.766250 0.5530 0.5530 0.5540 0.5540 0.5530
669.737667 0.5430 0.5400 0.5360 0.5300 0.5140
673.709084 0.5020 0.4910 0.4840 0.4721 0.4670
677.680501 0.4600 0.4530 0.4490 0.4440 0.4360
681.651917 0.4280 0.4270 0.4260 0.4270 0.4280
685.623334 0.4300 0.4360 0.4699 0.4860 0.5000
689.594751 0.5050 0.5219 0.5389 0.5440 0.5589
693.566168 0.5620 0.5680 0.5720 0.5860 0.5900
697.537585 0.5980 0.6070 0.6080 0.6100 0.6110
701.509001 0.6120 0.6120 0.6130 0.6140 0.6150
705.480418 0.6170 0.6180 0.6220 0.6270 0.6369
709.451835 0.6420 0.6460 0.6480 0.6500 0.6510
713.423252 0.6530 0.6550 0.6550 0.6550 0.6550
717.394668 0.6550 0.6550 0.6550 0.6530 0.6500
721.366085 0.6470 0.6390 0.6330 0.6270 0.6220
725.337502 0.6170 0.6150 0.6110 0.6030 0.5990
729.308919 0.5950 0.5930 0.5930 0.5910 0.5890
733.280336 0.5870 0.5850 0.5820 0.5810 0.5790
737.251752 0.5760 0.5740 0.5720 0.5700 0.5680
741.223169 0.5660 0.5620 0.5550 0.5440 0.5340
745.194586 0.5260 0.5110 0.4791 0.4631 0.4570
749.166003 0.4510 0.3890 0.3780 0.3680 0.3441
753.137419 0.3270 0.3101 0.3080 0.3070 0.3060
757.108836 0.3030 0.3030 0.3050 0.3100 0.3200
761.080253 0.3330 0.3489 0.3639 0.3690 0.3720
765.051670 0.3800 0.3920 0.4000 0.4010 0.4020
769.023087 0.4050 0.4070 0.4100 0.4150 0.4200
772.994503 0.4250 0.4270 0.4290 0.4320 0.4390
776.965920 0.4410 0.4530 0.4650 0.4750 0.4919
780.937337 0.4950 0.4990 0.5100 0.5240 0.5300
784.908754 0.5390 0.5460 0.5550 0.5660 0.5730
788.880171 0.5770 0.5790 0.5800 0.5810 0.5840
792.851587 0.5860 0.5880 0.5890 0.5900 0.5910
796.823004 0.5910 0.5910 0.5910 0.5910 0.5900
800.794421 0.5900 0.5890 0.5890 0.5880 0.5880
804.765838 0.5880 0.5890 0.5890 0.5910 0.5910
808.737254 0.5920 0.5950 0.5970 0.6000 0.6020
812.708671 0.6070 0.6100 0.6120 0.6150 0.6150
816.680088 0.6140 0.6120 0.6070 0.6050 0.5911
820.651505 0.5550 0.5360 0.5170 0.4860 0.4670
824.622922 0.4580 0.4480 0.4261 0.4220 0.4210
828.594338 0.4210 0.4220 0.4220 0.4230 0.4250
832.565755 0.4290 0.4619 0.4959 0.5070 0.5428
836.537172 0.5530 0.5690 0.5790 0.5820 0.5840
840.508589 0.5860 0.5880 0.5890 0.5880 0.5870
844.480005 0.5790 0.5740 0.5710 0.5690 0.5660
848.451422 0.5620 0.5600 0.5590 0.5590 0.5600
852.422839 0.5610 0.5630 0.5720 0.5800 0.5920
856.394256 0.5980 0.6090 0.6170 0.6210 0.6230
860.365673 0.6240 0.6250 0.6270 0.6280 0.6290
864.337089 0.6310 0.6340 0.6360 0.6380 0.6400
868.308506 0.6420 0.6430 0.6480 0.6490 0.6500
872.279923 0.6520 0.6540 0.6550 0.6550 0.6560
876.251340 0.6560 0.6550 0.6550 0.6550 0.6540
880.222756 0.6520 0.6500 0.6460 0.6321 0.6240
884.194173 0.6190 0.6140 0.5890 0.5730 0.5550
888.165590 0.5390 0.5221 0.5011 0.4811 0.4651
892.137007 0.4490 0.4330 0.4120 0.3890 0.3661
896.108424 0.3151 0.2851 0.2541 0.2251 0.1962
900.079840 0.1950 0.1630 0.1470 0.1310 0.1180
904.051257 0.0990 0.0800 0.0760 0.0730 0.0690
908.022674 0.0680 0.0670 0.0660 0.0650 0.0640
911.994091 0.0640 0.0620 0.0620 0.0610 0.0610
915.965507 0.0610 0.0620 0.0640 0.0680 0.0800
919.936924 0.0850 0.1089 0.1239 0.1708 0.1869
923.908341 0.1940 0.2320 0.2500 0.2630 0.2840
927.879758 0.2880 0.2950 0.3149 0.3180 0.3200
931.851175 0.3250 0.3310 0.3420 0.3520 0.3630
935.822591 0.3849 0.4049 0.4140 0.4200 0.4389
939.794008 0.4500 0.4700 0.4820 0.4920 0.5000
943.765425 0.5050 0.5120 0.5220 0.5270 0.5439
947.736842 0.5520 0.5610 0.5670 0.5730 0.5760
951.708258 0.5810 0.5890 0.5910 0.6010 0.6020
955.679675 0.6080 0.6190 0.6200 0.6220 0.6230
959.651092 0.6240 0.6260 0.6280 0.6290 0.6300
963.622509 0.6310 0.6310 0.6320 0.6320 0.6320
967.593926 0.6310 0.6310 0.6300 0.6290 0.6280
971.565342 0.6270 0.6250 0.6210 0.6150 0.6140
975.536759 0.6120 0.6090 0.6000 0.5910 0.5840
979.508176 0.5710 0.5600 0.5490 0.5400 0.5300
983.479593 0.5220 0.5170 0.5090 0.4971 0.4652
987.451009 0.4600 0.4540 0.4330 0.3960 0.3600
991.422426 0.3211 0.3090 0.2960 0.2731 0.2670
995.393843 0.2630 0.2630 0.2660 0.2730 0.2830
999.365260 0.3179 0.3350 0.3529 0.3899 0.4109
1003.336677 0.4320 0.4480 0.4680 0.4720 0.4770
1007.308093 0.4790 0.4810 0.4830 0.4850 0.4860
1011.279510 0.4880 0.4890 0.4890 0.4900 0.4910
1015.250927 0.4910 0.4950 0.5000 0.5100 0.5389
1019.222344 0.5480 0.5510 0.5540 0.5700 0.5930
1023.193761 0.6010 0.6030 0.6030 0.6070 0.6080
1027.165177 0.6150 0.6200 0.6220 0.6230 0.6240
1031.136594 0.6240 0.6260 0.6270 0.6280 0.6290
1035.108011 0.6290 0.6290 0.6290 0.6290 0.6280
1039.079428 0.6270 0.6270 0.6250 0.6230 0.6220
1043.050844 0.6220 0.6230 0.6230 0.6240 0.6240
1047.022261 0.6260 0.6280 0.6300 0.6310 0.6340
1050.993678 0.6380 0.6410 0.6420 0.6430 0.6440
1054.965095 0.6460 0.6470 0.6480 0.6550 0.6600
1058.936512 0.6640 0.6660 0.6670 0.6690 0.6700
1062.907928 0.6720 0.6730 0.6740 0.6760 0.6780
1066.879345 0.6790 0.6810 0.6820 0.6830 0.6850
1070.850762 0.6860 0.6870 0.6880 0.6890 0.6900
1074.822179 0.6900 0.6910 0.6910 0.6910 0.6910
1078.793595 0.6900 0.6900 0.6890 0.6880 0.6880
1082.765012 0.6880 0.6880 0.6890 0.6890 0.6880
1086.736429 0.6880 0.6880 0.6880 0.6870 0.6860
1090.707846 0.6860 0.6860 0.6860 0.6850 0.6840
1094.679263 0.6830 0.6820 0.6810 0.6810 0.6800
1098.650679 0.6790 0.6790 0.6780 0.6750 0.6720
1102.622096 0.6690 0.6650 0.6600 0.6550 0.6470
1106.593513 0.6280 0.6230 0.6210 0.6190 0.6190
1110.564930 0.6190 0.6190 0.6220 0.6220 0.6240
1114.536346 0.6260 0.6300 0.6340 0.6360 0.6390
1118.507763 0.6410 0.6430 0.6440 0.6450 0.6460
1122.479180 0.6470 0.6490 0.6500 0.6530 0.6560
1126.450597 0.6600 0.6620 0.6650 0.6670 0.6690
1130.422014 0.6710 0.6730 0.6750 0.6780 0.6800
1134.393430 0.6820 0.6840 0.6900 0.6910 0.6910
1138.364847 0.6910 0.6910 0.6910 0.6910 0.6900
1142.336264 0.6900 0.6890 0.6880 0.6880 0.6870
1146.307681 0.6860 0.6850 0.6840 0.6840 0.6830
1150.279097 0.6830 0.6830 0.6840 0.6840 0.6840
1154.250514 0.6860 0.6860 0.6880 0.6900 0.6920
1158.221931 0.6930 0.6930 0.6940 0.6950 0.6950
1162.193348 0.6960 0.6960 0.6970 0.6980 0.6990
1166.164765 0.6990 0.6990 0.7000 0.7000 0.7000
1170.136181 0.7000 0.7000 0.7010 0.7010 0.7000
1174.107598 0.7000 0.7000 0.7000 0.7000 0.6990
1178.079015 0.6960 0.6950 0.6930 0.6920 0.6910
1182.050432 0.6900 0.6880 0.6840 0.6780 0.6720
1186.021848 0.6690 0.6650 0.6620 0.6600 0.6570
1189.993265 0.6550 0.6550 0.6530 0.6520 0.6510
1193.964682 0.6500 0.6480 0.6460 0.6440 0.6420
1197.936099 0.6390 0.6320 0.6280 0.6210 0.6150
1201.907516 0.6080 0.5990 0.5940 0.5920 0.5890
1205.878932 0.5790 0.5710 0.5640 0.5451 0.5350
1209.850349 0.5240 0.5170 0.5100 0.5000 0.4850
1213.821766 0.4820 0.4790 0.4770 0.4750 0.4770
1217.793183 0.4790 0.4810 0.4820 0.4840 0.4900
1221.764599 0.4950 0.4990 0.5000 0.5080 0.5100
1225.736016 0.5130 0.5150 0.5160 0.5190 0.5220
1229.707433 0.5270 0.5290 0.5390 0.5480 0.5510
1233.678850 0.5530 0.5560 0.5580 0.5600 0.5620
1237.650267 0.5650 0.5660 0.5670 0.5690 0.5700
1241.621683 0.5710 0.5720 0.5730 0.5740 0.5760
1245.593100 0.5770 0.5790 0.5810 0.5810 0.5840
1249.564517 0.5850 0.5850 0.5860 0.5860 0.5860
1253.535934 0.5850 0.5840 0.5840 0.5840 0.5850
1257.507351 0.5860 0.5870 0.5890 0.5910 0.5950
1261.478767 0.6000 0.6170 0.6190 0.6220 0.6240
1265.450184 0.6250 0.6280 0.6310 0.6330 0.6360
1269.421601 0.6380 0.6380 0.6390 0.6410 0.6420
1273.393018 0.6430 0.6440 0.6450 0.6450 0.6460
1277.364434 0.6460 0.6460 0.6460 0.6450 0.6450
1281.335851 0.6440 0.6440 0.6430 0.6420 0.6410
1285.307268 0.6390 0.6380 0.6360 0.6340 0.6340
1289.278685 0.6310 0.6300 0.6290 0.6290 0.6280
1293.250102 0.6280 0.6270 0.6270 0.6270 0.6260
1297.221518 0.6250 0.6250 0.6240 0.6240 0.6240
1301.192935 0.6240 0.6240 0.6240 0.6250 0.6250
1305.164352 0.6270 0.6270 0.6280 0.6290 0.6290
1309.135769 0.6290 0.6290 0.6300 0.6300 0.6300
1313.107185 0.6300 0.6310 0.6310 0.6310 0.6310
1317.078602 0.6320 0.6330 0.6330 0.6340 0.6340
1321.050019 0.6350 0.6360 0.6380 0.6400 0.6410
1325.021436 0.6420 0.6450 0.6460 0.6460 0.6470
1328.992853 0.6490 0.6500 0.6520 0.6530 0.6530
1332.964269 0.6550 0.6560 0.6570 0.6570 0.6580
1336.935686 0.6580 0.6600 0.6600 0.6600 0.6610
1340.907103 0.6610 0.6610 0.6600 0.6600 0.6600
1344.878520 0.6600 0.6600 0.6600 0.6600 0.6600
1348.849936 0.6600 0.6600 0.6600 0.6590 0.6570
1352.821353 0.6560 0.6540 0.6530 0.6500 0.6480
1356.792770 0.6420 0.6350 0.6310 0.6270 0.6220
1360.764187 0.6160 0.6110 0.6060 0.5850 0.5410
1364.735604 0.5290 0.5150 0.4911 0.4671 0.4580
1368.707020 0.4499 0.4170 0.3930 0.3820 0.3700
1372.678437 0.3460 0.3300 0.3140 0.2980 0.2382
1376.649854 0.2190 0.2000 0.1800 0.1710 0.1650
1380.621271 0.1620 0.1620 0.1670 0.1730 0.1840
1384.592687 0.2321 0.2570 0.2750 0.3240 0.3510
1388.564104 0.4130 0.4320 0.4649 0.4820 0.4910
1392.535521 0.4950 0.5160 0.5240 0.5290 0.5490
1396.506938 0.5510 0.5640 0.5670 0.5750 0.5820
1400.478355 0.5860 0.5880 0.5930 0.5930 0.5930
1404.449771 0.5930 0.5930 0.5930 0.5930 0.5920
1408.421188 0.5910 0.5880 0.5780 0.5670 0.5570
1412.392605 0.5460 0.5410 0.5360 0.5270 0.5200
1416.364022 0.5140 0.5060 0.5010 0.5010 0.5010
1420.335438 0.5010 0.5010 0.5000 0.5000 0.4990
1424.306855 0.4980 0.4900 0.4780 0.4680 0.4580
1428.278272 0.4460 0.4220 0.3871 0.3770 0.3660
1432.249689 0.3459 0.3190 0.3060 0.2920 0.2750
1436.221106 0.2720 0.2680 0.2610 0.2490 0.2350
1440.192522 0.2270 0.2180 0.2130 0.2090 0.2060
1444.163939 0.2020 0.1990 0.1940 0.1870 0.1810
1448.135356 0.1750 0.1660 0.1560 0.1480 0.1400
1452.106773 0.1340 0.1320 0.1300 0.1300 0.1290
1456.078189 0.1290 0.1290 0.1300 0.1300 0.1320
1460.049606 0.1330 0.1340 0.1350 0.1360 0.1390
1464.021023 0.1440 0.1590 0.1730 0.1900 0.2110
1467.992440 0.2400 0.2420 0.2510 0.2710 0.2820
1471.963857 0.2891 0.3230 0.3441 0.4010 0.4260
1475.935273 0.4800 0.5000 0.5220 0.5250 0.5499
1479.906690 0.5530 0.5690 0.5790 0.5830 0.6070
1483.878107 0.6090 0.6150 0.6270 0.6310 0.6350
1487.849524 0.6380 0.6400 0.6480 0.6500 0.6550
1491.820941 0.6740 0.6940 0.7000 0.7000 0.7010
1495.792357 0.7040 0.7050 0.7060 0.7070 0.7110
1499.763774 0.7140 0.7190 0.7220 0.7240 0.7270
1503.735191 0.7290 0.7300 0.7310 0.7320 0.7320
1507.706608 0.7330 0.7330 0.7340 0.7350 0.7360
1511.678024 0.7390 0.7430 0.7460 0.7480 0.7500
1515.649441 0.7500 0.7500 0.7510 0.7520 0.7520
1519.620858 0.7520 0.7530 0.7540 0.7550 0.7560
1523.592275 0.7570 0.7580 0.7600 0.7620 0.7630
1527.563692 0.7640 0.7700 0.7720 0.7740 0.7750
1531.535108 0.7760 0.7760 0.7770 0.7770 0.7780
1535.506525 0.7780 0.7790 0.7790 0.7790 0.7800
1539.477942 0.7810 0.7810 0.7810 0.7820 0.7820
1543.449359 0.7830 0.7850 0.7860 0.7870 0.7880
1547.420775 0.7880 0.7880 0.7890 0.7890 0.7900
1551.392192 0.7900 0.7900 0.7900 0.7900 0.7900
1555.363609 0.7910 0.7910 0.7920 0.7920 0.7930
1559.335026 0.7940 0.7950 0.7950 0.7950 0.7950
1563.306443 0.7960 0.7970 0.7970 0.7970 0.7970
1567.277859 0.7970 0.7970 0.7970 0.7980 0.7980
1571.249276 0.7980 0.7980 0.7990 0.7990 0.7990
1575.220693 0.7990 0.7990 0.7980 0.7970 0.7950
1579.192110 0.7930 0.7920 0.7900 0.7890 0.7890
1583.163526 0.7880 0.7880 0.7880 0.7870 0.7860
1587.134943 0.7860 0.7860 0.7850 0.7850 0.7850
1591.106360 0.7850 0.7840 0.7830 0.7830 0.7830
1595.077777 0.7820 0.7820 0.7810 0.7810 0.7800
1599.049194 0.7790 0.7790 0.7770 0.7770 0.7760
1603.020610 0.7750 0.7740 0.7730 0.7710 0.7690
1606.992027 0.7640 0.7620 0.7600 0.7570 0.7550
1610.963444 0.7530 0.7510 0.7500 0.7480 0.7480
1614.934861 0.7460 0.7450 0.7430 0.7410 0.7390
1618.906277 0.7380 0.7350 0.7250 0.7140 0.7010
1622.877694 0.6930 0.6860 0.6720 0.6590 0.6500
1626.849111 0.6150 0.5790 0.5340 0.4891 0.4381
1630.820528 0.3868 0.3369 0.2860 0.2660 0.2590
1634.791945 0.2520 0.2450 0.2380 0.2370 0.2380
1638.763361 0.2460 0.2560 0.2751 0.3291 0.3890
1642.734778 0.3990 0.4050 0.4220 0.4629 0.5029
1646.706195 0.5601 0.5851 0.6360 0.6500 0.6600
1650.677612 0.6610 0.6650 0.6720 0.6930 0.6950
1654.649028 0.7000 0.7100 0.7120 0.7140 0.7170
1658.620445 0.7200 0.7220 0.7240 0.7250 0.7260
1662.591862 0.7280 0.7290 0.7310 0.7320 0.7340
1666.563279 0.7360 0.7370 0.7380 0.7400 0.7410
1670.534696 0.7420 0.7430 0.7430 0.7430 0.7440
1674.506112 0.7450 0.7450 0.7460 0.7470 0.7480
1678.477529 0.7490 0.7500 0.7500 0.7520 0.7520
1682.448946 0.7540 0.7550 0.7550 0.7560 0.7570
1686.420363 0.7570 0.7590 0.7610 0.7620 0.7630
1690.391779 0.7640 0.7660 0.7710 0.7760 0.7790
1694.363196 0.7800 0.7800 0.7810 0.7810 0.7810
1698.334613 0.7800 0.7800 0.7800 0.7810 0.7810
1702.306030 0.7810 0.7810 0.7810 0.7820 0.7820
1706.277447 0.7820 0.7820 0.7820 0.7820 0.7820
1710.248863 0.7810 0.7810 0.7810 0.7800 0.7790
1714.220280 0.7790 0.7790 0.7790 0.7790 0.7800
1718.191697 0.7810 0.7810 0.7810 0.7810 0.7820
1722.163114 0.7830 0.7840 0.7850 0.7860 0.7860
1726.134531 0.7860 0.7880 0.7880 0.7890 0.7900
1730.105947 0.7900 0.7910 0.7920 0.7930 0.7940
1734.077364 0.7950 0.7950 0.8000 0.8010 0.8020
1738.048781 0.8040 0.8050 0.8060 0.8070 0.8070
1742.020198 0.8070 0.8080 0.8090 0.8090 0.8090
1745.991614 0.8100 0.8110 0.8120 0.8120 0.8120
1749.963031 0.8130 0.8130 0.8140 0.8140 0.8150
1753.934448 0.8150 0.8160 0.8160 0.8170 0.8170
1757.905865 0.8170 0.8180 0.8180 0.8180 0.8190
1761.877282 0.8190 0.8190 0.8190 0.8190 0.8190
1765.848698 0.8190 0.8190 0.8190 0.8190 0.8190
1769.820115 0.8180 0.8180 0.8170 0.8170 0.8170
1773.791532 0.8160 0.8140 0.8130 0.8120 0.8120
1777.762949 0.8110 0.8100 0.8090 0.8090 0.8070
1781.734365 0.8050 0.8030 0.8020 0.8020 0.8000
1785.705782 0.8000 0.7980 0.7900 0.7890 0.7870
1789.677199 0.7810 0.7770 0.7720 0.7700 0.7680
1793.648616 0.7620 0.7600 0.7570 0.7550 0.7520
1797.620033 0.7500 0.7490 0.7460 0.7420 0.7390
1801.591449 0.7360 0.7320 0.7280 0.7260 0.7240
1805.562866 0.7240 0.7220 0.7200 0.7190 0.7180
1809.534283 0.7170 0.7170 0.7180 0.7190 0.7190
1813.505700 0.7200 0.7210 0.7220 0.7220 0.7240
1817.477116 0.7250 0.7290 0.7330 0.7360 0.7390
1821.448533 0.7420 0.7440 0.7460 0.7480 0.7500
1825.419950 0.7500 0.7520 0.7550 0.7600 0.7630
1829.391367 0.7640 0.7670 0.7710 0.7790 0.7800
1833.362784 0.7830 0.7840 0.7920 0.7990 0.8000
1837.334200 0.8020 0.8030 0.8050 0.8060 0.8070
1841.305617 0.8080 0.8090 0.8100 0.8120 0.8120
1845.277034 0.8130 0.8140 0.8160 0.8170 0.8180
1849.248451 0.8190 0.8190 0.8190 0.8200 0.8200
1853.219867 0.8210 0.8210 0.8210 0.8210 0.8210
1857.191284 0.8210 0.8210 0.8220 0.8230 0.8240
1861.162701 0.8270 0.8280 0.8290 0.8290 0.8300
1865.134118 0.8310 0.8310 0.8310 0.8310 0.8310
1869.105535 0.8310 0.8310 0.8310 0.8310 0.8320
1873.076951 0.8320 0.8320 0.8320 0.8320 0.8330
1877.048368 0.8330 0.8330 0.8330 0.8330 0.8340
1881.019785 0.8350 0.8350 0.8350 0.8360 0.8360
1884.991202 0.8360 0.8360 0.8360 0.8370 0.8370
1888.962618 0.8370 0.8380 0.8380 0.8380 0.8380
1892.934035 0.8380 0.8380 0.8380 0.8380 0.8380
1896.905452 0.8380 0.8380 0.8380 0.8390 0.8390
1900.876869 0.8390 0.8400 0.8400 0.8400 0.8400
1904.848286 0.8400 0.8400 0.8400 0.8400 0.8400
1908.819702 0.8410 0.8410 0.8410 0.8410 0.8410
1912.791119 0.8420 0.8420 0.8430 0.8430 0.8430
1916.762536 0.8430 0.8430 0.8430 0.8440 0.8440
1920.733953 0.8440 0.8440 0.8440 0.8440 0.8440
1924.705370 0.8450 0.8450 0.8450 0.8450 0.8450
1928.676786 0.8450 0.8450 0.8450 0.8450 0.8450
1932.648203 0.8450 0.8450 0.8450 0.8450 0.8450
1936.619620 0.8450 0.8450 0.8450 0.8450 0.8450
1940.591037 0.8450 0.8450 0.8450 0.8460 0.8460
1944.562453 0.8460 0.8460 0.8460 0.8460 0.8450
1948.533870 0.8460 0.8460 0.8460 0.8450 0.8450
1952.505287 0.8450 0.8450 0.8450 0.8450 0.8450
1956.476704 0.8450 0.8450 0.8450 0.8450 0.8450
1960.448121 0.8450 0.8450 0.8450 0.8450 0.8450
1964.419537 0.8450 0.8440 0.8440 0.8440 0.8440
1968.390954 0.8450 0.8450 0.8450 0.8450 0.8450
1972.362371 0.8450 0.8440 0.8440 0.8440 0.8440
1976.333788 0.8440 0.8430 0.8420 0.8400 0.8390
1980.305204 0.8380 0.8380 0.8380 0.8380 0.8380
1984.276621 0.8370 0.8370 0.8360 0.8360 0.8360
1988.248038 0.8360 0.8360 0.8360 0.8360 0.8360
1992.219455 0.8360 0.8360 0.8360 0.8360 0.8360
1996.190872 0.8360 0.8370 0.8370 0.8370 0.8370
2000.162288 0.8370 0.8370 0.8370 0.8370 0.8360
2004.133705 0.8360 0.8370 0.8370 0.8370 0.8370
2008.105122 0.8370 0.8370 0.8370 0.8370 0.8371
2012.076539 0.8373 0.8374 0.8375 0.8377 0.8378
2016.047955 0.8379 0.8380 0.8382 0.8383 0.8384
2020.019372 0.8386 0.8387 0.8388 0.8390 0.8391
2023.990789 0.8392 0.8393 0.8395 0.8396 0.8397
2027.962206 0.8399 0.8400 0.8402 0.8405 0.8407
2031.933623 0.8410 0.8410 0.8410 0.8410 0.8410
2035.905039 0.8410 0.8410 0.8410 0.8410 0.8412
2039.876456 0.8415 0.8417 0.8420 0.8420 0.8420
2043.847873 0.8420 0.8420 0.8420 0.8420 0.8420
2047.819290 0.8420 0.8420 0.8420 0.8420 0.8420
2051.790706 0.8418 0.8416 0.8413 0.8411 0.8410
2055.762123 0.8410 0.8410 0.8410 0.8410 0.8410
2059.733540 0.8410 0.8410 0.8410 0.8410 0.8410
2063.704957 0.8410 0.8410 0.8410 0.8410 0.8410
2067.676374 0.8410 0.8410 0.8410 0.8410 0.8410
2071.647790 0.8410 0.8410 0.8410 0.8410 0.8410
2075.619207 0.8410 0.8410 0.8409 0.8406 0.8404
2079.590624 0.8401 0.8400 0.8400 0.8400 0.8400
2083.562041 0.8401 0.8404 0.8406 0.8409 0.8410
2087.533457 0.8410 0.8410 0.8410 0.8410 0.8410
2091.504874 0.8410 0.8410 0.8411 0.8414 0.8416
2095.476291 0.8419 0.8420 0.8420 0.8420 0.8420
2099.447708 0.8420 0.8420 0.8420 0.8420 0.8420
2103.419125 0.8420 0.8420 0.8420 0.8420 0.8420
2107.390541 0.8420 0.8420 0.8420 0.8420 0.8420
2111.361958 0.8420 0.8420 0.8420 0.8420 0.8420
2115.333375 0.8420 0.8420 0.8420 0.8420 0.8420
2119.304792 0.8420 0.8420 0.8420 0.8420 0.8420
2123.276208 0.8420 0.8420 0.8420 0.8420 0.8420
2127.247625 0.8420 0.8420 0.8417 0.8415 0.8412
2131.219042 0.8410 0.8410 0.8410 0.8410 0.8410
2135.190459 0.8410 0.8410 0.8410 0.8410 0.8410
2139.161876 0.8410 0.8410 0.8410 0.8410 0.8410
2143.133292 0.8410 0.8410 0.8410 0.8410 0.8410
2147.104709 0.8410 0.8410 0.8410 0.8410 0.8410
2151.076126 0.8410 0.8410 0.8410 0.8410 0.8412
2155.047543 0.8415 0.8417 0.8420 0.8420 0.8420
2159.018960 0.8420 0.8420 0.8420 0.8420 0.8420
2162.990376 0.8420 0.8420 0.8420 0.8420 0.8420
2166.961793 0.8420 0.8420 0.8420 0.8420 0.8418
2170.933210 0.8416 0.8413 0.8411 0.8410 0.8410
2174.904627 0.8410 0.8410 0.8410 0.8410 0.8410
2178.876043 0.8410 0.8408 0.8406 0.8403 0.8401
2182.847460 0.8400 0.8400 0.8400 0.8400 0.8400
2186.818877 0.8400 0.8400 0.8400 0.8400 0.8400
2190.790294 0.8400 0.8400 0.8400 0.8400 0.8400
2194.761711 0.8400 0.8400 0.8400 0.8400 0.8400
2198.733127 0.8400 0.8400 0.8400 0.8400 0.8400
2202.704544 0.8400 0.8400 0.8400 0.8399 0.8396
2206.675961 0.8394 0.8391 0.8390 0.8390 0.8390
2210.647378 0.8390 0.8389 0.8386 0.8384 0.8382
2214.618794 0.8380 0.8380 0.8380 0.8380 0.8380
2218.590211 0.8380 0.8380 0.8380 0.8380 0.8380
2222.561628 0.8380 0.8380 0.8380 0.8380 0.8380
2226.533045 0.8380 0.8379 0.8377 0.8374 0.8372
2230.504462 0.8369 0.8367 0.8364 0.8362 0.8360
2234.475878 0.8360 0.8360 0.8360 0.8360 0.8360
2238.447295 0.8360 0.8360 0.8360 0.8360 0.8360
2242.418712 0.8360 0.8360 0.8360 0.8360 0.8360
2246.390129 0.8360 0.8360 0.8360 0.8360 0.8360
2250.361545 0.8360 0.8360 0.8360 0.8360 0.8360
2254.332962 0.8360 0.8360 0.8360 0.8360 0.8360
2258.304379 0.8360 0.8360 0.8360 0.8360 0.8360
2262.275796 0.8360 0.8360 0.8360 0.8360 0.8360
2266.247213 0.8360 0.8360 0.8360 0.8360 0.8360
2270.218629 0.8360 0.8360 0.8360 0.8360 0.8360
2274.190046 0.8360 0.8360 0.8360 0.8360 0.8360
2278.161463 0.8360 0.8358 0.8355 0.8353 0.8350
2282.132880 0.8350 0.8350 0.8350 0.8350 0.8350
2286.104296 0.8350 0.8350 0.8350 0.8352 0.8354
2290.075713 0.8357 0.8359 0.8360 0.8360 0.8360
2294.047130 0.8360 0.8360 0.8360 0.8360 0.8360
2298.018547 0.8360 0.8360 0.8360 0.8360 0.8362
2301.989964 0.8364 0.8367 0.8369 0.8370 0.8370
2305.961380 0.8370 0.8370 0.8372 0.8374 0.8376
2309.932797 0.8379 0.8380 0.8380 0.8380 0.8380
2313.904214 0.8381 0.8384 0.8386 0.8389 0.8391
2317.875631 0.8394 0.8396 0.8399 0.8400 0.8400
2321.847047 0.8400 0.8400 0.8403 0.8407 0.8412
2325.818464 0.8417 0.8421 0.8424 0.8426 0.8429
2329.789881 0.8430 0.8430 0.8430 0.8430 0.8430
2333.761298 0.8430 0.8430 0.8430 0.8430 0.8430
2337.732715 0.8430 0.8430 0.8430 0.8430 0.8430
2341.704131 0.8430 0.8432 0.8437 0.8442 0.8446
2345.675548 0.8450 0.8450 0.8450 0.8450 0.8450
2349.646965 0.8450 0.8450 0.8450 0.8451 0.8453
2353.618382 0.8456 0.8458 0.8461 0.8463 0.8466
2357.589798 0.8468 0.8470 0.8470 0.8470 0.8470
2361.561215 0.8470 0.8467 0.8465 0.8462 0.8460
2365.532632 0.8457 0.8455 0.8452 0.8450 0.8447
2369.504049 0.8445 0.8442 0.8440 0.8437 0.8435
2373.475466 0.8432 0.8430 0.8422 0.8415 0.8407
2377.446882 0.8400 0.8392 0.8385 0.8377 0.8370
2381.418299 0.8362 0.8355 0.8347 0.8340 0.8338
2385.389716 0.8335 0.8333 0.8330 0.8328 0.8325
2389.361133 0.8323 0.8320 0.8318 0.8315 0.8313
2393.332550 0.8310 0.8310 0.8310 0.8310 0.8310
2397.303966 0.8310 0.8310 0.8310 0.8310 0.8308
2401.275383 0.8305 0.8303 0.8300 0.8300 0.8300
2405.246800 0.8300 0.8300 0.8300 0.8300 0.8300
2409.218217 0.8300 0.8298 0.8296 0.8293 0.8291
2413.189633 0.8288 0.8286 0.8283 0.8281 0.8280
2417.161050 0.8280 0.8280 0.8280 0.8280 0.8280
2421.132467 0.8280 0.8280 0.8280 0.8280 0.8280
2425.103884 0.8280 0.8280 0.8280 0.8280 0.8280
2429.075301 0.8280 0.8280 0.8280 0.8280 0.8280
2433.046717 0.8280 0.8280 0.8280 0.8279 0.8276
2437.018134 0.8274 0.8271 0.8269 0.8266 0.8264
2440.989551 0.8261 0.8260 0.8260 0.8260 0.8260
2444.960968 0.8260 0.8260 0.8260 0.8260 0.8260
2448.932384 0.8260 0.8260 0.8260 0.8259 0.8256
2452.903801 0.8254 0.8251 0.8250 0.8250 0.8250
2456.875218 0.8250 0.8250 0.8250 0.8250 0.8250
2460.846635 0.8250 0.8250 0.8250 0.8250 0.8250
2464.818052 0.8250 0.8250 0.8250 0.8250 0.8250
2468.789468 0.8250 0.8250 0.8250 0.8250 0.8250
2472.760885 0.8250 0.8251 0.8253 0.8256 0.8258
2476.732302 0.8260 0.8260 0.8260 0.8260 0.8260
2480.703719 0.8260 0.8260 0.8260 0.8260 0.8260
2484.675135 0.8260 0.8260 0.8260 0.8260 0.8260
2488.646552 0.8260 0.8260 0.8260 0.8260 0.8260
2492.617969 0.8260 0.8260 0.8260 0.8260 0.8260
2496.589386 0.8260 0.8260 0.8260 0.8260 0.8260
2500.560803 0.8260 0.8260 0.8260 0.8260 0.8260
2504.532219 0.8260 0.8260 0.8255 0.8250 0.8245
2508.503636 0.8240 0.8240 0.8240 0.8240 0.8240
2512.475053 0.8240 0.8240 0.8240 0.8240 0.8240
2516.446470 0.8240 0.8240 0.8240 0.8240 0.8240
2520.417886 0.8240 0.8240 0.8240 0.8240 0.8240
2524.389303 0.8240 0.8238 0.8236 0.8233 0.8231
2528.360720 0.8228 0.8226 0.8223 0.8221 0.8218
2532.332137 0.8216 0.8213 0.8211 0.8210 0.8210
2536.303554 0.8210 0.8210 0.8210 0.8210 0.8210
2540.274970 0.8210 0.8208 0.8206 0.8203 0.8201
2544.246387 0.8198 0.8196 0.8193 0.8191 0.8188
2548.217804 0.8186 0.8183 0.8181 0.8178 0.8176
2552.189221 0.8174 0.8171 0.8169 0.8166 0.8164
2556.160637 0.8161 0.8157 0.8152 0.8147 0.8142
2560.132054 0.8139 0.8136 0.8134 0.8131 0.8130
2564.103471 0.8130 0.8130 0.8130 0.8129 0.8126
2568.074888 0.8124 0.8121 0.8120 0.8120 0.8120
2572.046305 0.8120 0.8120 0.8120 0.8120 0.8120
2576.017721 0.8119 0.8117 0.8114 0.8112 0.8109
2579.989138 0.8107 0.8104 0.8102 0.8099 0.8097
2583.960555 0.8094 0.8092 0.8090 0.8090 0.8090
2587.931972 0.8090 0.8090 0.8090 0.8090 0.8090
2591.903388 0.8089 0.8087 0.8084 0.8082 0.8080
2595.874805 0.8080 0.8080 0.8080 0.8080 0.8080
2599.846222 0.8080 0.8080 0.8080 0.8080 0.8080
2603.817639 0.8080 0.8080 0.8080 0.8080 0.8080
2607.789056 0.8080 0.8080 0.8080 0.8080 0.8080
2611.760472 0.8080 0.8080 0.8080 0.8080 0.8077
2615.731889 0.8075 0.8072 0.8070 0.8070 0.8070
2619.703306 0.8070 0.8070 0.8070 0.8070 0.8070
2623.674723 0.8070 0.8070 0.8070 0.8070 0.8070
2627.646140 0.8065 0.8060 0.8055 0.8050 0.8050
2631.617556 0.8050 0.8050 0.8050 0.8048 0.8045
2635.588973 0.8043 0.8040 0.8038 0.8035 0.8033
2639.560390 0.8030 0.8028 0.8025 0.8023 0.8020
2643.531807 0.8020 0.8020 0.8020 0.8020 0.8018
2647.503223 0.8016 0.8013 0.8011 0.8008 0.8006
2651.474640 0.8003 0.8001 0.8000 0.8000 0.8000
2655.446057 0.8000 0.8000 0.8000 0.8000 0.8000
2659.417474 0.8000 0.8000 0.8000 0.8000 0.7998
2663.388891 0.7996 0.7993 0.7991 0.7990 0.7990
2667.360307 0.7990 0.7990 0.7988 0.7986 0.7983
2671.331724 0.7981 0.7979 0.7976 0.7974 0.7971
2675.303141 0.7967 0.7962 0.7957 0.7952 0.7947
2679.274558 0.7942 0.7937 0.7932 0.7930 0.7930
2683.245974 0.7930 0.7930 0.7926 0.7919 0.7912
2687.217391 0.7904 0.7898 0.7893 0.7888 0.7883
2691.188808 0.7878 0.7873 0.7868 0.7863 0.7855
2695.160225 0.7843 0.7830 0.7818 0.7808 0.7803
2699.131642 0.7798 0.7793 0.7788 0.7783 0.7778
2703.103058 0.7773 0.7767 0.7760 0.7753 0.7745
2707.074475 0.7739 0.7737 0.7734 0.7732 0.7729
2711.045892 0.7724 0.7719 0.7714 0.7710 0.7710
2715.017309 0.7710 0.7710 0.7710 0.7710 0.7710
2718.988725 0.7710 0.7710 0.7713 0.7715 0.7718
2722.960142 0.7720 0.7720 0.7720 0.7720 0.7720
2726.931559 0.7723 0.7725 0.7728 0.7730 0.7733
2730.902976 0.7735 0.7738 0.7740 0.7740 0.7740
2734.874393 0.7740 0.7740 0.7740 0.7740 0.7740
2738.845809 0.7740 0.7740 0.7740 0.7740 0.7740
2742.817226 0.7737 0.7735 0.7733 0.7730 0.7730
2746.788643 0.7730 0.7730 0.7730 0.7728 0.7725
2750.760060 0.7723 0.7720 0.7718 0.7715 0.7713
2754.731476 0.7710 0.7708 0.7705 0.7703 0.7700
2758.702893 0.7698 0.7695 0.7693 0.7690 0.7686
2762.674310 0.7681 0.7676 0.7671 0.7666 0.7661
2766.645727 0.7656 0.7651 0.7646 0.7641 0.7636
2770.617144 0.7631 0.7626 0.7621 0.7616 0.7611
2774.588560 0.7603 0.7593 0.7583 0.7573 0.7524
2778.559977 0.7459 0.7395 0.7330 0.7295 0.7272
2782.531394 0.7250 0.7228 0.7199 0.7167 0.7134
2786.502811 0.7102 0.7078 0.7058 0.7038 0.7018
2790.474227 0.6998 0.6978 0.6959 0.6939 0.6888
2794.445644 0.6813 0.6737 0.6662 0.6595 0.6533
2798.417061 0.6471 0.6409 0.6345 0.6281 0.6216
2802.388478 0.6152 0.6101 0.6064 0.6027 0.5989
2806.359895 0.5952 0.5915 0.5878 0.5841 0.5775
2810.331311 0.5673 0.5571 0.5469 0.5369 0.5269
2814.302728 0.5170 0.5071 0.4972 0.4873 0.4773
2818.274145 0.4674 0.4576 0.4479 0.4382 0.4285
2822.245562 0.4188 0.4089 0.3989 0.3890 0.3797
2826.216978 0.3720 0.3642 0.3564 0.3485 0.3403
2830.188395 0.3321 0.3239 0.3152 0.3050 0.2949
2834.159812 0.2847 0.2745 0.2644 0.2542 0.2440
2838.131229 0.2352 0.2312 0.2272 0.2233 0.2192
2842.102646 0.2150 0.2108 0.2066 0.2024 0.1984
2846.074062 0.1945 0.1905 0.1865 0.1823 0.1781
2850.045479 0.1738 0.1699 0.1692 0.1684 0.1677
2854.016896 0.1670 0.1662 0.1655 0.1647 0.1640
2857.988313 0.1627 0.1615 0.1602 0.1590 0.1582
2861.959730 0.1575 0.1567 0.1560 0.1558 0.1555
2865.931146 0.1553 0.1550 0.1548 0.1545 0.1543
2869.902563 0.1540 0.1535 0.1530 0.1525 0.1520
2873.873980 0.1518 0.1515 0.1513 0.1510 0.1506
2877.845397 0.1501 0.1496 0.1491 0.1488 0.1485
2881.816813 0.1483 0.1480 0.1474 0.1466 0.1459
2885.788230 0.1452 0.1426 0.1397 0.1367 0.1337
2889.759647 0.1313 0.1290 0.1268 0.1245 0.1221
2893.731064 0.1196 0.1171 0.1146 0.1116 0.1084
2897.702481 0.1052 0.1019 0.1001 0.0989 0.0976
2901.673897 0.0964 0.0941 0.0914 0.0887 0.0860
2905.645314 0.0839 0.0821 0.0804 0.0787 0.0775
2909.616731 0.0768 0.0761 0.0753 0.0747 0.0742
2913.588148 0.0737 0.0732 0.0726 0.0718 0.0711
2917.559564 0.0704 0.0697 0.0692 0.0687 0.0683
2921.530981 0.0675 0.0665 0.0655 0.0645 0.0636
2925.502398 0.0629 0.0621 0.0614 0.0608 0.0603
2929.473815 0.0598 0.0593 0.0590 0.0590 0.0590
2933.445232 0.0590 0.0590 0.0590 0.0590 0.0590
2937.416648 0.0589 0.0587 0.0584 0.0582 0.0579
2941.388065 0.0577 0.0574 0.0572 0.0570 0.0570
2945.359482 0.0570 0.0570 0.0569 0.0567 0.0564
2949.330899 0.0562 0.0560 0.0560 0.0560 0.0560
2953.302315 0.0559 0.0557 0.0554 0.0552 0.0550
2957.273732 0.0550 0.0550 0.0550 0.0549 0.0547
2961.245149 0.0545 0.0542 0.0540 0.0540 0.0540
2965.216566 0.0540 0.0540 0.0543 0.0545 0.0548
2969.187983 0.0552 0.0567 0.0581 0.0596 0.0612
2973.159399 0.0637 0.0662 0.0687 0.0717 0.0843
2977.130816 0.0970 0.1096 0.1222 0.1291 0.1360
2981.102233 0.1430 0.1499 0.1584 0.1668 0.1752
2985.073650 0.1837 0.1874 0.1909 0.1944 0.1979
2989.045066 0.2086 0.2195 0.2304 0.2414 0.2691
2993.016483 0.2979 0.3266 0.3554 0.3756 0.3950
2996.987900 0.4143 0.4337 0.4395 0.4435 0.4474
3000.959317 0.4514 0.4562 0.4612 0.4661 0.4711
3004.930734 0.4748 0.4783 0.4818 0.4853 0.4960
3008.902150 0.5086 0.5213 0.5339 0.5400 0.5440
3012.873567 0.5479 0.5519 0.5555 0.5590 0.5625
3016.844984 0.5659 0.5691 0.5721 0.5751 0.5781
3020.816401 0.5809 0.5837 0.5864 0.5891 0.5917
3024.787817 0.5942 0.5966 0.5991 0.6011 0.6029
3028.759234 0.6046 0.6063 0.6073 0.6078 0.6083
3032.730651 0.6088 0.6091 0.6094 0.6096 0.6099
3036.702068 0.6099 0.6096 0.6094 0.6091 0.6089
3040.673485 0.6086 0.6084 0.6081 0.6074 0.6062
3044.644901 0.6049 0.6037 0.6003 0.5943 0.5884
3048.616318 0.5824 0.5764 0.5704 0.5644 0.5584
3052.587735 0.5517 0.5443 0.5368 0.5294 0.5219
3056.559152 0.5142 0.5065 0.4988 0.4911 0.4834
3060.530568 0.4757 0.4680 0.4623 0.4603 0.4583
3064.501985 0.4564 0.4537 0.4498 0.4458 0.4418
3068.473402 0.4388 0.4380 0.4373 0.4366 0.4360
3072.444819 0.4360 0.4360 0.4360 0.4362 0.4369
3076.416236 0.4377 0.4384 0.4392 0.4405 0.4417
3080.387652 0.4430 0.4459 0.4580 0.4700 0.4820
3084.359069 0.4947 0.5103 0.5260 0.5416 0.5571
3088.330486 0.5717 0.5863 0.6010 0.6150 0.6239
3092.301903 0.6329 0.6418 0.6503 0.6538 0.6572
3096.273320 0.6607 0.6641 0.6656 0.6670 0.6685
3100.244736 0.6702 0.6793 0.6885 0.6977 0.7069
3104.216153 0.7077 0.7085 0.7092 0.7100 0.7102
3108.187570 0.7105 0.7107 0.7110 0.7117 0.7124
3112.158987 0.7132 0.7139 0.7153 0.7168 0.7184
3116.130403 0.7199 0.7220 0.7243 0.7265 0.7287
3120.101820 0.7312 0.7337 0.7361 0.7386 0.7400
3124.073237 0.7413 0.7425 0.7438 0.7444 0.7449
3128.044654 0.7454 0.7459 0.7464 0.7469 0.7474
3132.016071 0.7479 0.7484 0.7489 0.7494 0.7499
3135.987487 0.7500 0.7500 0.7500 0.7500 0.7502
3139.958904 0.7504 0.7507 0.7509 0.7512 0.7514
3143.930321 0.7517 0.7519 0.7526 0.7536 0.7546
3147.901738 0.7556 0.7563 0.7568 0.7573 0.7578
3151.873154 0.7582 0.7584 0.7586 0.7589 0.7591
3155.844571 0.7594 0.7596 0.7599 0.7600 0.7600
3159.815988 0.7600 0.7600 0.7603 0.7608 0.7612
3163.787405 0.7617 0.7622 0.7627 0.7632 0.7637
3167.758822 0.7640 0.7640 0.7640 0.7640 0.7641
3171.730238 0.7644 0.7646 0.7648 0.7651 0.7653
3175.701655 0.7656 0.7658 0.7661 0.7663 0.7666
3179.673072 0.7668 0.7671 0.7673 0.7676 0.7678
3183.644489 0.7681 0.7683 0.7686 0.7688 0.7691
3187.615905 0.7693 0.7696 0.7698 0.7701 0.7703
3191.587322 0.7706 0.7708 0.7711 0.7716 0.7721
3195.558739 0.7726 0.7731 0.7733 0.7735 0.7738
3199.530156 0.7741 0.7746 0.7751 0.7756 0.7760
3203.501573 0.7763 0.7765 0.7768 0.7770 0.7773
3207.472989 0.7775 0.7778 0.7780 0.7783 0.7785
3211.444406 0.7788 0.7790 0.7793 0.7795 0.7798
3215.415823 0.7800 0.7803 0.7805 0.7808 0.7810
3219.387240 0.7813 0.7815 0.7818 0.7820 0.7823
3223.358656 0.7825 0.7827 0.7830 0.7837 0.7845
3227.330073 0.7852 0.7860 0.7860 0.7860 0.7860
3231.301490 0.7860 0.7862 0.7865 0.7867 0.7870
3235.272907 0.7872 0.7875 0.7877 0.7880 0.7880
3239.244324 0.7880 0.7880 0.7880 0.7882 0.7885
3243.215740 0.7887 0.7890 0.7890 0.7890 0.7890
3247.187157 0.7890 0.7892 0.7894 0.7897 0.7899
3251.158574 0.7900 0.7900 0.7900 0.7900 0.7900
3255.129991 0.7900 0.7900 0.7900 0.7900 0.7900
3259.101407 0.7900 0.7900 0.7902 0.7904 0.7907
3263.072824 0.7909 0.7910 0.7910 0.7910 0.7910
3267.044241 0.7912 0.7914 0.7917 0.7919 0.7920
3271.015658 0.7920 0.7920 0.7920 0.7921 0.7924
3274.987075 0.7926 0.7929 0.7930 0.7930 0.7930
3278.958491 0.7930 0.7930 0.7930 0.7930 0.7930
3282.929908 0.7930 0.7930 0.7930 0.7930 0.7931
3286.901325 0.7934 0.7936 0.7939 0.7941 0.7944
3290.872742 0.7946 0.7949 0.7950 0.7950 0.7950
3294.844158 0.7950 0.7952 0.7957 0.7962 0.7967
3298.815575 0.7971 0.7973 0.7976 0.7978 0.7981
3302.786992 0.7983 0.7986 0.7988 0.7991 0.7993
3306.758409 0.7996 0.7998 0.8000 0.8000 0.8000
3310.729826 0.8000 0.8000 0.8000 0.8000 0.8000
3314.701242 0.8000 0.8000 0.8000 0.8000 0.8001
3318.672659 0.8003 0.8005 0.8008 0.8010 0.8010
3322.644076 0.8010 0.8010 0.8010 0.8010 0.8010
3326.615493 0.8010 0.8010 0.8013 0.8015 0.8018
3330.586910 0.8020 0.8020 0.8020 0.8020 0.8020
3334.558326 0.8020 0.8020 0.8020 0.8020 0.8020
3338.529743 0.8020 0.8020 0.8020 0.8020 0.8020
3342.501160 0.8020 0.8020 0.8020 0.8020 0.8020
3346.472577 0.8020 0.8020 0.8020 0.8020 0.8020
3350.443993 0.8020 0.8020 0.8020 0.8020 0.8020
3354.415410 0.8020 0.8020 0.8020 0.8020 0.8020
3358.386827 0.8020 0.8020 0.8020 0.8020 0.8020
3362.358244 0.8020 0.8020 0.8020 0.8020 0.8020
3366.329661 0.8022 0.8024 0.8027 0.8029 0.8030
3370.301077 0.8030 0.8030 0.8030 0.8028 0.8026
3374.272494 0.8023 0.8021 0.8020 0.8020 0.8020
3378.243911 0.8020 0.8020 0.8020 0.8020 0.8020
3382.215328 0.8022 0.8024 0.8027 0.8029 0.8030
3386.186744 0.8030 0.8030 0.8030 0.8030 0.8030
3390.158161 0.8030 0.8030 0.8030 0.8030 0.8030
3394.129578 0.8030 0.8030 0.8030 0.8030 0.8030
3398.100995 0.8030 0.8030 0.8030 0.8030 0.8029
3402.072412 0.8026 0.8024 0.8021 0.8020 0.8020
3406.043828 0.8020 0.8020 0.8020 0.8020 0.8020
3410.015245 0.8020 0.8020 0.8020 0.8020 0.8020
3413.986662 0.8020 0.8020 0.8020 0.8020 0.8020
3417.958079 0.8020 0.8020 0.8020 0.8020 0.8020
3421.929495 0.8020 0.8020 0.8021 0.8023 0.8026
3425.900912 0.8028 0.8030 0.8030 0.8030 0.8030
3429.872329 0.8030 0.8030 0.8030 0.8030 0.8030
3433.843746 0.8030 0.8030 0.8030 0.8030 0.8030
3437.815163 0.8030 0.8030 0.8030 0.8030 0.8030
3441.786579 0.8030 0.8030 0.8030 0.8030 0.8030
3445.757996 0.8030 0.8030 0.8030 0.8030 0.8030
3449.729413 0.8030 0.8030 0.8030 0.8030 0.8030
3453.700830 0.8030 0.8030 0.8030 0.8030 0.8030
3457.672246 0.8030 0.8030 0.8030 0.8030 0.8030
3461.643663 0.8030 0.8030 0.8030 0.8030 0.8030
3465.615080 0.8030 0.8030 0.8030 0.8030 0.8030
3469.586497 0.8030 0.8030 0.8030 0.8030 0.8030
3473.557914 0.8030 0.8030 0.8030 0.8030 0.8030
3477.529330 0.8030 0.8030 0.8030 0.8030 0.8030
3481.500747 0.8030 0.8030 0.8030 0.8030 0.8030
3485.472164 0.8030 0.8030 0.8030 0.8030 0.8030
3489.443581 0.8030 0.8030 0.8030 0.8030 0.8030
3493.414997 0.8030 0.8032 0.8034 0.8037 0.8039
3497.386414 0.8040 0.8040 0.8040 0.8040 0.8040
3501.357831 0.8040 0.8040 0.8040 0.8040 0.8040
3505.329248 0.8040 0.8040 0.8040 0.8040 0.8040
3509.300665 0.8040 0.8040 0.8040 0.8040 0.8040
3513.272081 0.8040 0.8040 0.8040 0.8040 0.8040
3517.243498 0.8040 0.8040 0.8040 0.8040 0.8040
3521.214915 0.8040 0.8040 0.8040 0.8040 0.8040
3525.186332 0.8040 0.8040 0.8040 0.8040 0.8040
3529.157748 0.8040 0.8040 0.8040 0.8040 0.8040
3533.129165 0.8040 0.8040 0.8040 0.8040 0.8040
3537.100582 0.8040 0.8040 0.8040 0.8040 0.8040
3541.071999 0.8040 0.8040 0.8040 0.8040 0.8040
3545.043416 0.8040 0.8040 0.8040 0.8040 0.8040
3549.014832 0.8040 0.8040 0.8040 0.8039 0.8037
3552.986249 0.8034 0.8032 0.8030 0.8030 0.8030
3556.957666 0.8030 0.8030 0.8030 0.8030 0.8030
3560.929083 0.8030 0.8030 0.8030 0.8030 0.8030
3564.900500 0.8027 0.8025 0.8022 0.8020 0.8020
3568.871916 0.8020 0.8020 0.8020 0.8020 0.8020
3572.843333 0.8020 0.8020 0.8020 0.8020 0.8020
3576.814750 0.8020 0.8017 0.8015 0.8012 0.8010
3580.786167 0.8010 0.8010 0.8010 0.8010 0.8008
3584.757583 0.8005 0.8003 0.8000 0.8000 0.8000
3588.729000 0.8000 0.8000 0.8000 0.8000 0.8000
3592.700417 0.8000 0.8000 0.8000 0.8000 0.8000
3596.671834 0.7998 0.7995 0.7993 0.7990 0.7990
3600.643251 0.7990 0.7990 0.7990 0.7988 0.7985
3604.614667 0.7983 0.7980 0.7980 0.7980 0.7980
3608.586084 0.7980 0.7980 0.7980 0.7980 0.7980
3612.557501 0.7980 0.7980 0.7980 0.7980 0.7980
3616.528918 0.7980 0.7980 0.7980 0.7980 0.7980
3620.500334 0.7980 0.7980 0.7980 0.7980 0.7980
3624.471751 0.7980 0.7982 0.7984 0.7987 0.7989
3628.443168 0.7992 0.7994 0.7997 0.7999 0.8000
3632.414585 0.8000 0.8000 0.8000 0.8001 0.8004
3636.386002 0.8006 0.8009 0.8011 0.8014 0.8016
3640.357418 0.8019 0.8020 0.8020 0.8020 0.8020
3644.328835 0.8021 0.8024 0.8026 0.8029 0.8030
3648.300252 0.8030 0.8030 0.8030 0.8031 0.8034
3652.271669 0.8036 0.8039 0.8040 0.8040 0.8040
3656.243085 0.8040 0.8040 0.8040 0.8040 0.8040
3660.214502 0.8040 0.8040 0.8040 0.8040 0.8040
3664.185919 0.8040 0.8040 0.8040 0.8041 0.8043
3668.157336 0.8046 0.8048 0.8050 0.8050 0.8050
3672.128753 0.8050 0.8050 0.8050 0.8050 0.8050
3676.100169 0.8050 0.8050 0.8050 0.8050 0.8050
3680.071586 0.8050 0.8050 0.8050 0.8050 0.8050
3684.043003 0.8050 0.8050 0.8050 0.8050 0.8050
3688.014420 0.8050 0.8050 0.8050 0.8050 0.8050
3691.985836 0.8050 0.8050 0.8050 0.8050 0.8050
3695.957253 0.8050 0.8050 0.8050 0.8050 0.8050
3699.928670 0.8050 0.8050 0.8050 0.8050 0.8050
3703.900087 0.8050 0.8050 0.8050 0.8050 0.8050
3707.871504 0.8050 0.8050 0.8050 0.8050 0.8050
3711.842920 0.8050 0.8050 0.8050 0.8050 0.8050
3715.814337 0.8050 0.8050 0.8050 0.8050 0.8050
3719.785754 0.8050 0.8050 0.8050 0.8050 0.8050
3723.757171 0.8050 0.8050 0.8050 0.8050 0.8050
3727.728587 0.8050 0.8050 0.8050 0.8050 0.8050
3731.700004 0.8050 0.8050 0.8050 0.8050 0.8050
3735.671421 0.8050 0.8050 0.8050 0.8050 0.8050
3739.642838 0.8050 0.8052 0.8054 0.8057 0.8059
3743.614255 0.8060 0.8060 0.8060 0.8060 0.8060
3747.585671 0.8060 0.8060 0.8060 0.8060 0.8060
3751.557088 0.8060 0.8060 0.8061 0.8064 0.8066
3755.528505 0.8069 0.8070 0.8070 0.8070 0.8070
3759.499922 0.8070 0.8070 0.8070 0.8070 0.8070
3763.471338 0.8070 0.8070 0.8070 0.8070 0.8070
3767.442755 0.8070 0.8070 0.8070 0.8070 0.8070
3771.414172 0.8070 0.8070 0.8070 0.8070 0.8070
3775.385589 0.8070 0.8070 0.8070 0.8070 0.8070
3779.357006 0.8070 0.8070 0.8070 0.8070 0.8070
3783.328422 0.8070 0.8070 0.8070 0.8070 0.8070
3787.299839 0.8070 0.8069 0.8067 0.8064 0.8062
3791.271256 0.8060 0.8060 0.8060 0.8060 0.8059
3795.242673 0.8057 0.8054 0.8052 0.8050 0.8050
3799.214090 0.8050 0.8050 0.8050 0.8050 0.8050
3803.185506 0.8050 0.8050 0.8050 0.8050 0.8050
3807.156923 0.8050 0.8053 0.8055 0.8058 0.8060
3811.128340 0.8060 0.8060 0.8060 0.8060 0.8060
3815.099757 0.8060 0.8060 0.8060 0.8063 0.8065
3819.071173 0.8068 0.8070 0.8070 0.8070 0.8070
3823.042590 0.8070 0.8070 0.8070 0.8070 0.8070
3827.014007 0.8070 0.8070 0.8070 0.8070 0.8070
3830.985424 0.8070 0.8070 0.8070 0.8070 0.8070
3834.956841 0.8070 0.8070 0.8070 0.8070 0.8070
3838.928257 0.8070 0.8070 0.8070 0.8070 0.8070
3842.899674 0.8070 0.8070 0.8070 0.8070 0.8070
3846.871091 0.8070 0.8070 0.8070 0.8070 0.8070
3850.842508 0.8070 0.8070 0.8070 0.8070 0.8070
3854.813924 0.8070 0.8070 0.8070 0.8070 0.8070
3858.785341 0.8070 0.8070 0.8070 0.8070 0.8070
3862.756758 0.8070 0.8070 0.8070 0.8070 0.8070
3866.728175 0.8070 0.8070 0.8070 0.8070 0.8070
3870.699592 0.8070 0.8070 0.8070 0.8070 0.8070
3874.671008 0.8070 0.8070 0.8070 0.8070 0.8070
3878.642425 0.8070 0.8070 0.8070 0.8070 0.8070
3882.613842 0.8070 0.8070 0.8070 0.8070 0.8070
3886.585259 0.8070 0.8070 0.8070 0.8070 0.8070
3890.556675 0.8070 0.8070 0.8070 0.8070 0.8070
3894.528092 0.8070 0.8070 0.8070 0.8070 0.8070
3898.499509 0.8070 0.8070 0.8070 0.8070 0.8070
3902.470926 0.8070 0.8070 0.8070 0.8070 0.8070
3906.442343 0.8070 0.8070 0.8070 0.8070 0.8070
3910.413759 0.8070 0.8070 0.8070 0.8070 0.8070
3914.385176 0.8070 0.8070 0.8070 0.8070 0.8070
3918.356593 0.8070 0.8070 0.8070 0.8070 0.8070
3922.328010 0.8070 0.8070 0.8070 0.8070 0.8070
3926.299426 0.8070 0.8070 0.8070 0.8070 0.8070
3930.270843 0.8070 0.8070 0.8070 0.8070 0.8070
3934.242260 0.8070 0.8070 0.8070 0.8070 0.8070
3938.213677 0.8070 0.8070 0.8070 0.8070 0.8070
3942.185094 0.8070 0.8070 0.8070 0.8070 0.8070
3946.156510 0.8070 0.8070 0.8070 0.8070 0.8070
3950.127927 0.8070 0.8070 0.8068 0.8065 0.8063
3954.099344 0.8060 0.8058 0.8055 0.8053 0.8050
3958.070761 0.8050 0.8050 0.8050 0.8050 0.8050
3962.042177 0.8050 0.8050 0.8050 0.8048 0.8045
3966.013594 0.8043 0.8041 0.8040 0.8040 0.8040
3969.985011 0.8040 0.8038 0.8036 0.8033 0.8031
3973.956428 0.8030 0.8030 0.8030 0.8030 0.8030
3977.927845 0.8030 0.8030 0.8030 0.8028 0.8026
3981.899261 0.8023 0.8021 0.8020 0.8020 0.8020
3985.870678 0.8020 0.8020 0.8020 0.8020 0.8020
3989.842095 0.8020 0.8020 0.8020 0.8020 0.8020
3993.813512 0.8020 0.8020 0.8020 0.8019 0.8016
3997.784928 0.8014 0.8011 0.8010 0.8010 0.8010
4001.756345 0.8010 0.8009 0.8006 0.8004 0.8001
4005.727762 0.8000 0.8000 0.8000 0.8000 0.8000
4009.699179 0.8000 0.8000 0.8000 0.8000 0.8000
4013.670596 0.8000 0.8000 0.7999 0.7996 0.7994
4017.642012 0.7992 0.7989 0.7987 0.7984 0.7982
4021.613429 0.7979 0.7977 0.7974 0.7972 0.7970
4025.584846 0.7970 0.7970 0.7970 0.7969 0.7967
4029.556263 0.7964 0.7962 0.7960 0.7960 0.7960
4033.527680 0.7960 0.7960 0.7960 0.7960 0.7960
4037.499096 0.7960 0.7957 0.7955 0.7952 0.7950
4041.470513 0.7950 0.7950 0.7950 0.7950 0.7953
4045.441930 0.7955 0.7958 0.7960 0.7960 0.7960
4049.413347 0.7960 0.7960 0.7957 0.7955 0.7952
4053.384763 0.7950 0.7950 0.7950 0.7950 0.7950
4057.356180 0.7950 0.7950 0.7950 0.7950 0.7950
4061.327597 0.7950 0.7950 0.7950 0.7950 0.7950
4065.299014 0.7950 0.7950 0.7950 0.7950 0.7950
4069.270431 0.7950 0.7948 0.7945 0.7943 0.7940
4073.241847 0.7940 0.7940 0.7940 0.7940 0.7938
4077.213264 0.7935 0.7933 0.7930 0.7928 0.7925
4081.184681 0.7923 0.7920 0.7918 0.7915 0.7913
4085.156098 0.7910 0.7910 0.7910 0.7910 0.7910
4089.127514 0.7910 0.7910 0.7910 0.7910 0.7908
4093.098931 0.7906 0.7903 0.7901 0.7900 0.7900
4097.070348 0.7900 0.7900 0.7900 0.7900 0.7900
4101.041765 0.7900 0.7900 0.7900 0.7900 0.7900
4105.013182 0.7900 0.7900 0.7900 0.7900 0.7900
4108.984598 0.7900 0.7900 0.7900 0.7900 0.7900
4112.956015 0.7900 0.7900 0.7900 0.7900 0.7900
4116.927432 0.7900 0.7899 0.7896 0.7894 0.7891
4120.898849 0.7890 0.7890 0.7890 0.7890 0.7889
4124.870265 0.7886 0.7884 0.7881 0.7880 0.7880
4128.841682 0.7880 0.7880 0.7880 0.7880 0.7880
4132.813099 0.7880 0.7880 0.7880 0.7880 0.7880
4136.784516 0.7880 0.7880 0.7880 0.7880 0.7879
4140.755933 0.7877 0.7874 0.7872 0.7871 0.7873
4144.727349 0.7876 0.7878 0.7880 0.7880 0.7880
4148.698766 0.7880 0.7880 0.7880 0.7880 0.7880
4152.670183 0.7880 0.7880 0.7880 0.7880 0.7880
4156.641600 0.7880 0.7880 0.7880 0.7880 0.7880
4160.613016 0.7880 0.7880 0.7880 0.7880 0.7880
4164.584433 0.7880 0.7880 0.7880 0.7880 0.7880
4168.555850 0.7880 0.7880 0.7880 0.7880 0.7880
4172.527267 0.7880 0.7880 0.7880 0.7880 0.7877
4176.498684 0.7875 0.7872 0.7870 0.7870 0.7870
4180.470100 0.7870 0.7870 0.7867 0.7865 0.7863
4184.441517 0.7860 0.7860 0.7860 0.7860 0.7860
4188.412934 0.7860 0.7860 0.7860 0.7860 0.7860
4192.384351 0.7860 0.7860 0.7860 0.7860 0.7860
4196.355767 0.7860 0.7860 0.7860 0.7860 0.7860
4200.327184 0.7860 0.7860 0.7860 0.7860 0.7860
4204.298601 0.7860 0.7860 0.7860 0.7860 0.7860
4208.270018 0.7860 0.7860 0.7860 0.7860 0.7860
4212.241435 0.7860 0.7860 0.7860 0.7860 0.7860
4216.212851 0.7860 0.7860 0.7860 0.7860 0.7860
4220.184268 0.7860 0.7860 0.7860 0.7860 0.7858
4224.155685 0.7856 0.7853 0.7851 0.7850 0.7850
4228.127102 0.7850 0.7850 0.7850 0.7850 0.7850
4232.098518 0.7850 0.7850 0.7850 0.7850 0.7850
4236.069935 0.7850 0.7850 0.7850 0.7850 0.7850
4240.041352 0.7850 0.7850 0.7850 0.7850 0.7850
4244.012769 0.7850 0.7850 0.7849 0.7846 0.7844
4247.984186 0.7841 0.7840 0.7840 0.7840 0.7840
4251.955602 0.7840 0.7840 0.7840 0.7840 0.7839
4255.927019 0.7837 0.7834 0.7832 0.7830 0.7830
4259.898436 0.7830 0.7830 0.7830 0.7830 0.7830
4263.869853 0.7830 0.7830 0.7830 0.7830 0.7830
4267.841270 0.7830 0.7830 0.7830 0.7830 0.7829
4271.812686 0.7827 0.7824 0.7822 0.7820 0.7820
4275.784103 0.7820 0.7820 0.7819 0.7817 0.7814
4279.755520 0.7812 0.7810 0.7810 0.7810 0.7810
4283.726937 0.7810 0.7810 0.7810 0.7810 0.7810
4287.698353 0.7810 0.7810 0.7810 0.7810 0.7810
4291.669770 0.7810 0.7810 0.7810 0.7810 0.7810
4295.641187 0.7810 0.7810 0.7810 0.7810 0.7810
4299.612604 0.7810 0.7810 0.7810 0.7810 0.7810
4303.584021 0.7810 0.7810 0.7810 0.7810 0.7810
4307.555437 0.7810 0.7810 0.7810 0.7810 0.7810
4311.526854 0.7810 0.7810 0.7808 0.7805 0.7803
4315.498271 0.7800 0.7798 0.7795 0.7793 0.7790
4319.469688 0.7788 0.7785 0.7783 0.7780 0.7778
4323.441104 0.7775 0.7773 0.7770 0.7768 0.7766
4327.412521 0.7763 0.7761 0.7760 0.7760 0.7760
4331.383938 0.7760 0.7758 0.7756 0.7753 0.7751
4335.355355 0.7748 0.7746 0.7743 0.7741 0.7740
4339.326772 0.7740 0.7740 0.7740 0.7738 0.7736
4343.298188 0.7733 0.7731 0.7728 0.7726 0.7723
4347.269605 0.7721 0.7718 0.7716 0.7713 0.7711
4351.241022 0.7710 0.7710 0.7710 0.7710 0.7710
4355.212439 0.7710 0.7710 0.7710 0.7710 0.7710
4359.183855 0.7710 0.7710 0.7709 0.7706 0.7704
4363.155272 0.7701 0.7700 0.7700 0.7700 0.7700
4367.126689 0.7700 0.7700 0.7700 0.7700 0.7699
4371.098106 0.7696 0.7694 0.7691 0.7690 0.7690
4375.069523 0.7690 0.7690 0.7690 0.7690 0.7690
4379.040939 0.7690 0.7689 0.7687 0.7684 0.7682
4383.012356 0.7680 0.7680 0.7680 0.7680 0.7679
4386.983773 0.7677 0.7674 0.7672 0.7670 0.7670
4390.955190 0.7670 0.7670 0.7669 0.7664 0.7659
4394.926606 0.7654 0.7649 0.7647 0.7644 0.7642
4398.898023 0.7640 0.7640 0.7640 0.7640 0.7640
4402.869440 0.7640 0.7640 0.7640 0.7640 0.7637
4406.840857 0.7635 0.7632 0.7630 0.7627 0.7625
4410.812274 0.7622 0.7620 0.7617 0.7615 0.7612
4414.783690 0.7610 0.7607 0.7605 0.7602 0.7600
4418.755107 0.7597 0.7595 0.7592 0.7590 0.7588
4422.726524 0.7585 0.7583 0.7580 0.7578 0.7575
4426.697941 0.7573 0.7570 0.7570 0.7570 0.7570
4430.669357 0.7570 0.7570 0.7570 0.7570 0.7570
4434.640774 0.7568 0.7565 0.7563 0.7560 0.7558
4438.612191 0.7555 0.7553 0.7550 0.7550 0.7550
4442.583608 0.7550 0.7550 0.7548 0.7545 0.7543
4446.555025 0.7541 0.7540 0.7540 0.7540 0.7540
4450.526441 0.7540 0.7540 0.7540 0.7540 0.7542
4454.497858 0.7544 0.7547 0.7549 0.7550 0.7550
4458.469275 0.7550 0.7550 0.7550 0.7550 0.7550
4462.440692 0.7550 0.7552 0.7554 0.7557 0.7559
4466.412109 0.7562 0.7564 0.7567 0.7569 0.7570
4470.383525 0.7570 0.7570 0.7570 0.7570 0.7570
4474.354942 0.7570 0.7570 0.7570 0.7570 0.7570
4478.326359 0.7570 0.7570 0.7570 0.7570 0.7570
4482.297776 0.7570 0.7570 0.7570 0.7570 0.7571
4486.269192 0.7574 0.7576 0.7579 0.7580 0.7580
4490.240609 0.7580 0.7580 0.7581 0.7584 0.7586
4494.212026 0.7589 0.7591 0.7594 0.7596 0.7598
4498.183443 0.7600 0.7600 0.7600 0.7600 0.7601
4502.154860 0.7603 0.7606 0.7608 0.7615 0.7630
4506.126276 0.7645 0.7660 0.7671 0.7676 0.7681
4510.097693 0.7686 0.7690 0.7690 0.7690 0.7690
4514.069110 0.7690 0.7690 0.7690 0.7690 0.7691
4518.040527 0.7693 0.7695 0.7698 0.7700 0.7703
4522.011943 0.7705 0.7708 0.7710 0.7713 0.7715
4525.983360 0.7718 0.7721 0.7726 0.7731 0.7736
4529.954777 0.7740 0.7743 0.7745 0.7748 0.7750
4533.926194 0.7753 0.7755 0.7758 0.7760 0.7760
4537.897611 0.7760 0.7760 0.7760 0.7763 0.7765
4541.869027 0.7768 0.7770 0.7772 0.7775 0.7777
4545.840444 0.7780 0.7782 0.7785 0.7787 0.7790
4549.811861 0.7790 0.7790 0.7790 0.7790 0.7790
4553.783278 0.7790 0.7790 0.7790 0.7790 0.7790
4557.754694 0.7790 0.7790 0.7792 0.7795 0.7797
4561.726111 0.7800 0.7800 0.7800 0.7800 0.7800
4565.697528 0.7802 0.7805 0.7807 0.7809 0.7810
4569.668945 0.7810 0.7810 0.7810 0.7814 0.7819
4573.640362 0.7824 0.7829 0.7832 0.7834 0.7837
4577.611778 0.7839 0.7842 0.7844 0.7847 0.7849
4581.583195 0.7852 0.7854 0.7857 0.7859 0.7863
4585.554612 0.7868 0.7873 0.7878 0.7880 0.7880
4589.526029 0.7880 0.7880 0.7882 0.7884 0.7886
4593.497445 0.7889 0.7891 0.7894 0.7896 0.7899
4597.468862 0.7900 0.7900 0.7900 0.7900 0.7900
4601.440279 0.7900 0.7900 0.7900 0.7901 0.7904
4605.411696 0.7906 0.7909 0.7911 0.7914 0.7916
4609.383113 0.7919 0.7921 0.7924 0.7926 0.7929
4613.354529 0.7930 0.7930 0.7930 0.7930 0.7931
4617.325946 0.7933 0.7936 0.7938 0.7941 0.7943
4621.297363 0.7946 0.7948 0.7951 0.7953 0.7956
4625.268780 0.7958 0.7961 0.7963 0.7966 0.7968
4629.240196 0.7971 0.7973 0.7976 0.7978 0.7981
4633.211613 0.7986 0.7991 0.7996 0.8000 0.8000
4637.183030 0.8000 0.8000 0.8000 0.8003 0.8005
4641.154447 0.8008 0.8010 0.8013 0.8015 0.8018
4645.125864 0.8020 0.8020 0.8020 0.8020 0.8020
4649.097280 0.8020 0.8020 0.8020 0.8020 0.8023
4653.068697 0.8025 0.8028 0.8030 0.8030 0.8030
4657.040114 0.8030 0.8030 0.8030 0.8030 0.8030
4661.011531 0.8030 0.8033 0.8035 0.8038 0.8040
4664.982947 0.8042 0.8045 0.8047 0.8050 0.8050
4668.954364 0.8050 0.8050 0.8050 0.8050 0.8050
4672.925781 0.8050 0.8050 0.8050 0.8050 0.8050
4676.897198 0.8050 0.8050 0.8050 0.8050 0.8050
4680.868615 0.8052 0.8055 0.8057 0.8060 0.8062
4684.840031 0.8065 0.8067 0.8070 0.8070 0.8070
4688.811448 0.8070 0.8070 0.8070 0.8070 0.8070
4692.782865 0.8070 0.8070 0.8070 0.8070 0.8070
4696.754282 0.8072 0.8074 0.8077 0.8079 0.8080
4700.725699 0.8080 0.8080 0.8080 0.8080 0.8080
4704.697115 0.8080 0.8080 0.8078 0.8076 0.8073
4708.668532 0.8071 0.8070 0.8070 0.8070 0.8070
4712.639949 0.8070 0.8070 0.8070 0.8070 0.8070
4716.611366 0.8070 0.8070 0.8070 0.8070 0.8070
4720.582782 0.8070 0.8070 0.8070 0.8070 0.8070
4724.554199 0.8070 0.8070 0.8070 0.8070 0.8070
4728.525616 0.8071 0.8074 0.8076 0.8079 0.8080
4732.497033 0.8080 0.8080 0.8080 0.8080 0.8080
4736.468450 0.8080 0.8080 0.8080 0.8080 0.8080
4740.439866 0.8080 0.8079 0.8077 0.8074 0.8072
4744.411283 0.8070 0.8070 0.8070 0.8070 0.8070
4748.382700 0.8070 0.8070 0.8070 0.8070 0.8070
4752.354117 0.8070 0.8070 0.8070 0.8070 0.8070
4756.325533 0.8070 0.8070 0.8070 0.8070 0.8070
4760.296950 0.8070 0.8070 0.8070 0.8070 0.8070
4764.268367 0.8073 0.8075 0.8078 0.8080 0.8080
4768.239784 0.8080 0.8080 0.8080 0.8080 0.8080
4772.211201 0.8080 0.8080 0.8080 0.8080 0.8080
4776.182617 0.8080 0.8077 0.8075 0.8072 0.8070
4780.154034 0.8070 0.8070 0.8070 0.8070 0.8070
4784.125451 0.8070 0.8070 0.8070 0.8070 0.8070
4788.096868 0.8070 0.8070 0.8070 0.8070 0.8070
4792.068284 0.8070 0.8070 0.8070 0.8070 0.8070
4796.039701 0.8070 0.8070 0.8070 0.8070 0.8070
4800.011118 0.8070 0.8070 0.8070 0.8068 0.8065
4803.982535 0.8063 0.8060 0.8060 0.8060 0.8060
4807.953952 0.8060 0.8058 0.8056 0.8053 0.8051
4811.925368 0.8050 0.8050 0.8050 0.8050 0.8050
4815.896785 0.8050 0.8050 0.8050 0.8050 0.8050
4819.868202 0.8050 0.8050 0.8050 0.8050 0.8050
4823.839619 0.8050 0.8050 0.8050 0.8050 0.8050
4827.811035 0.8050 0.8050 0.8050 0.8050 0.8050
4831.782452 0.8050 0.8050 0.8050 0.8050 0.8050
4835.753869 0.8050 0.8050 0.8050 0.8050 0.8050
4839.725286 0.8050 0.8051 0.8054 0.8056 0.8059
4843.696703 0.8061 0.8064 0.8066 0.8069 0.8070
4847.668119 0.8070 0.8070 0.8070 0.8070 0.8070
4851.639536 0.8070 0.8070 0.8070 0.8070 0.8070
4855.610953 0.8070 0.8070 0.8070 0.8070 0.8070
4859.582370 0.8070 0.8070 0.8070 0.8070 0.8070
4863.553786 0.8070 0.8070 0.8070 0.8070 0.8070
4867.525203 0.8070 0.8070 0.8070 0.8070 0.8070
4871.496620 0.8070 0.8070 0.8070 0.8070 0.8070
4875.468037 0.8070 0.8070 0.8070 0.8070 0.8070
4879.439454 0.8070 0.8070 0.8070 0.8070 0.8070
4883.410870 0.8070 0.8070 0.8070 0.8070 0.8070
4887.382287 0.8070 0.8070 0.8070 0.8070 0.8070
4891.353704 0.8070 0.8070 0.8070 0.8070 0.8070
4895.325121 0.8070 0.8070 0.8070 0.8070 0.8070
4899.296537 0.8070 0.8070 0.8070 0.8070 0.8070
4903.267954 0.8070 0.8070 0.8070 0.8070 0.8070
4907.239371 0.8070 0.8070 0.8070 0.8070 0.8070
4911.210788 0.8070 0.8070 0.8070 0.8070 0.8070
4915.182205 0.8070 0.8070 0.8070 0.8070 0.8070
4919.153621 0.8070 0.8070 0.8070 0.8070 0.8070
4923.125038 0.8070 0.8070 0.8070 0.8070 0.8070
4927.096455 0.8070 0.8070 0.8070 0.8070 0.8070
4931.067872 0.8070 0.8070 0.8070 0.8070 0.8070
4935.039289 0.8070 0.8070 0.8070 0.8070 0.8070
4939.010705 0.8070 0.8070 0.8070 0.8070 0.8070
4942.982122 0.8070 0.8070 0.8070 0.8070 0.8070
4946.953539 0.8070 0.8070 0.8070 0.8070 0.8070
4950.924956 0.8070 0.8070 0.8070 0.8070 0.8070
4954.896372 0.8070 0.8071 0.8074 0.8076 0.8079
4958.867789 0.8080 0.8080 0.8080 0.8080 0.8080
4962.839206 0.8080 0.8080 0.8080 0.8080 0.8080
4966.810623 0.8080 0.8080 0.8080 0.8080 0.8080
4970.782040 0.8080 0.8080 0.8080 0.8080 0.8080
4974.753456 0.8080 0.8080 0.8080 0.8080 0.8080
4978.724873 0.8080 0.8080 0.8080 0.8080 0.8080
4982.696290 0.8080 0.8080 0.8080 0.8080 0.8080
4986.667707 0.8080 0.8080 0.8080 0.8080 0.8080
4990.639123 0.8080 0.8080 0.8080 0.8080 0.8080
4994.610540 0.8080 0.8080 0.8080 0.8080 0.8080
4998.581957 0.8080 0.8080 0.8080 0.8080 0.8080
5002.553374 0.8080 0.8080 0.8077 0.8075 0.8072
5006.524791 0.8070 0.8070 0.8070 0.8070 0.8070
5010.496207 0.8070 0.8070 0.8070 0.8070 0.8073
5014.467624 0.8075 0.8078 0.8080 0.8080 0.8080
5018.439041 0.8080 0.8080 0.8080 0.8080 0.8080
5022.410458 0.8080 0.8080 0.8080 0.8080 0.8080
5026.381874 0.8080 0.8080 0.8080 0.8080 0.8080
5030.353291 0.8080 0.8080 0.8080 0.8080 0.8080
5034.324708 0.8080 0.8080 0.8080 0.8080 0.8080
5038.296125 0.8080 0.8080 0.8080 0.8080 0.8080
5042.267542 0.8080 0.8080 0.8080 0.8080 0.8078
5046.238958 0.8075 0.8073 0.8070 0.8070 0.8070
5050.210375 0.8070 0.8070 0.8070 0.8070 0.8070
5054.181792 0.8070
##END=
