##TITLE=1,3-PROPANEDIAMINE, N-2-BROMOPROPYL-, DIHYDROBROMIDE
##JCAMP-DX=4.24
##DATA TYPE=INFRARED SPECTRUM
##CLASS=COBLENTZ III
##ORIGIN=SOUTHERN RESEARCH INSTITUTE
##OWNER=COBLENTZ SOCIETY
Collection (C) 2018 copyright by the U.S. Secretary of Commerce
on behalf of the United States of America. All rights reserved.
##DATE=1968/03/12
##MOLFORM=C6 H17 Br3 N2
##SOURCE REFERENCE=COBLENTZ NO. 10384
##$NIST ID=B6010384
##$NIST SOURCE=COBLENTZ
##$NIST IMAGE=cob10384
##SPECTROMETER/DATA SYSTEM=PERKIN-ELMER 521 (GRATING)
##STATE=SOLID (1 mg / 650 mg KBr DISC)
##PATH LENGTH=
$$SPECTRAL CONTAMINATION DUE TO H2O AROUND 3430 CM^-^1
$$ PURITY - ANALYTICAL
##SAMPLING PROCEDURE=TRANSMISSION
##RESOLUTION=4
##DATA PROCESSING=DIGITIZED BY NIST FROM HARD COPY (FROM TWO SEGMENTS)
##XUNITS=1/CM
##YUNITS=TRANSMITTANCE
##XFACTOR=1.000000
##YFACTOR=1
##DELTAX=1.316952
##FIRSTX=262.95
##LASTX=4000.46
##FIRSTY=0.452
##MAXX=4000.46
##MINX=262.95
##MAXY=0.932
##MINY=0.197
##NPOINTS=2839
##XYDATA=(X++(Y..Y))
262.950000 0.4520 0.4650 0.4710 0.4730 0.4750
269.534759 0.4780 0.4820 0.4900 0.5019 0.5060
276.119519 0.5110 0.5140 0.5170 0.5180 0.5220
282.704278 0.5250 0.5270 0.5280 0.5300 0.5310
289.289037 0.5320 0.5340 0.5350 0.5380 0.5599
295.873796 0.5600 0.5759 0.5969 0.6050 0.6427
302.458556 0.6520 0.6610 0.6690 0.6710 0.6760
309.043315 0.6800 0.6860 0.6890 0.6900 0.6940
315.628074 0.6980 0.7000 0.7010 0.7020 0.7030
322.212833 0.7030 0.7060 0.7070 0.7070 0.7100
328.797593 0.7110 0.7170 0.7190 0.7250 0.7310
335.382352 0.7360 0.7430 0.7500 0.7550 0.7600
341.967111 0.7640 0.7670 0.7680 0.7690 0.7710
348.551870 0.7750 0.7780 0.7860 0.7900 0.7930
355.136630 0.7940 0.7940 0.7960 0.7960 0.7980
361.721389 0.8000 0.8020 0.8050 0.8060 0.8100
368.306148 0.8100 0.8110 0.8130 0.8130 0.8140
374.890908 0.8140 0.8150 0.8170 0.8170 0.8170
381.475667 0.8170 0.8170 0.8170 0.8150 0.8150
388.060426 0.8140 0.8140 0.8140 0.8150 0.8170
394.645185 0.8170 0.8190 0.8220 0.8250 0.8300
401.229945 0.8310 0.8320 0.8320 0.8340 0.8340
407.814704 0.8360 0.8400 0.8420 0.8420 0.8400
414.399463 0.8400 0.8400 0.8390 0.8380 0.8360
420.984222 0.8350 0.8340 0.8340 0.8350 0.8380
427.568982 0.8420 0.8460 0.8500 0.8520 0.8530
434.153741 0.8550 0.8560 0.8560 0.8560 0.8560
440.738500 0.8570 0.8590 0.8600 0.8600 0.8610
447.323260 0.8610 0.8630 0.8640 0.8670 0.8670
453.908019 0.8680 0.8680 0.8690 0.8690 0.8690
460.492778 0.8690 0.8690 0.8710 0.8720 0.8730
467.077537 0.8730 0.8730 0.8750 0.8750 0.8750
473.662297 0.8750 0.8730 0.8730 0.8720 0.8690
480.247056 0.8670 0.8650 0.8640 0.8640 0.8640
486.831815 0.8650 0.8650 0.8670 0.8680 0.8690
493.416574 0.8710 0.8710 0.8720 0.8750 0.8770
500.001334 0.8800 0.8810 0.8810 0.8810 0.8820
506.586093 0.8820 0.8820 0.8820 0.8820 0.8820
513.170852 0.8820 0.8820 0.8820 0.8820 0.8820
519.755611 0.8820 0.8810 0.8810 0.8810 0.8800
526.340371 0.8770 0.8760 0.8760 0.8750 0.8750
532.925130 0.8730 0.8720 0.8710 0.8690 0.8670
539.509889 0.8650 0.8610 0.8590 0.8530 0.8530
546.094649 0.8430 0.8310 0.8210 0.8150 0.8140
552.679408 0.8140 0.8180 0.8270 0.8310 0.8390
559.264167 0.8500 0.8630 0.8750 0.8800 0.8820
565.848926 0.8840 0.8840 0.8850 0.8860 0.8860
572.433686 0.8860 0.8860 0.8860 0.8860 0.8860
579.018445 0.8860 0.8860 0.8860 0.8860 0.8860
585.603204 0.8860 0.8850 0.8850 0.8840 0.8820
592.187963 0.8820 0.8820 0.8820 0.8810 0.8810
598.772723 0.8820 0.8820 0.8820 0.8820 0.8820
605.357482 0.8820 0.8820 0.8820 0.8820 0.8820
611.942241 0.8820 0.8820 0.8820 0.8820 0.8820
618.527000 0.8840 0.8840 0.8840 0.8840 0.8840
625.111760 0.8820 0.8810 0.8800 0.8800 0.8770
631.696519 0.8770 0.8750 0.8720 0.8710 0.8690
638.281278 0.8670 0.8650 0.8640 0.8650 0.8680
644.866038 0.8710 0.8760 0.8840 0.8890 0.8930
651.450797 0.9010 0.9030 0.9050 0.9060 0.9090
658.035556 0.9100 0.9110 0.9140 0.9150 0.9170
664.620315 0.9170 0.9180 0.9180 0.9180 0.9190
671.205075 0.9190 0.9190 0.9190 0.9190 0.9210
677.789834 0.9220 0.9230 0.9260 0.9260 0.9260
684.374593 0.9260 0.9270 0.9270 0.9270 0.9270
690.959352 0.9270 0.9270 0.9280 0.9300 0.9300
697.544112 0.9310 0.9320 0.9320 0.9320 0.9320
704.128871 0.9320 0.9320 0.9320 0.9320 0.9320
710.713630 0.9310 0.9310 0.9310 0.9310 0.9280
717.298390 0.9270 0.9250 0.9250 0.9230 0.9220
723.883149 0.9210 0.9210 0.9170 0.9150 0.9140
730.467908 0.9100 0.9050 0.9030 0.9020 0.8980
737.052667 0.8920 0.8900 0.8880 0.8860 0.8850
743.637427 0.8820 0.8760 0.8710 0.8670 0.8600
750.222186 0.8530 0.8470 0.8420 0.8300 0.8230
756.806945 0.8130 0.7980 0.7970 0.7970 0.8109
763.391704 0.8150 0.8260 0.8510 0.8760 0.8940
769.976464 0.9130 0.9150 0.9180 0.9180 0.9180
776.561223 0.9180 0.9180 0.9170 0.9150 0.9130
783.145982 0.9070 0.9070 0.9030 0.9020 0.9000
789.730741 0.8970 0.8960 0.8930 0.8930 0.8920
796.315501 0.8900 0.8890 0.8880 0.8860 0.8860
802.900260 0.8850 0.8850 0.8850 0.8850 0.8850
809.485019 0.8850 0.8850 0.8850 0.8850 0.8860
816.069779 0.8860 0.8920 0.8940 0.8970 0.8980
822.654538 0.9000 0.9000 0.9010 0.9010 0.9010
829.239297 0.9010 0.9010 0.9000 0.9000 0.8980
835.824056 0.8970 0.8960 0.8940 0.8920 0.8900
842.408816 0.8900 0.8850 0.8810 0.8690 0.8650
848.993575 0.8610 0.8590 0.8560 0.8530 0.8520
855.578334 0.8480 0.8460 0.8430 0.8430 0.8470
862.163093 0.8550 0.8570 0.8720 0.8780 0.8810
868.747853 0.8820 0.8840 0.8820 0.8820 0.8810
875.332612 0.8750 0.8690 0.8640 0.8610 0.8590
881.917371 0.8560 0.8530 0.8530 0.8550 0.8590
888.502131 0.8610 0.8640 0.8650 0.8690 0.8690
895.086890 0.8600 0.8510 0.8400 0.8380 0.8360
901.671649 0.8390 0.8480 0.8640 0.8730 0.8770
908.256408 0.8770 0.8760 0.8720 0.8710 0.8680
914.841168 0.8630 0.8590 0.8560 0.8560 0.8550
921.425927 0.8550 0.8530 0.8520 0.8510 0.8460
928.010686 0.8400 0.8380 0.8340 0.8320 0.8270
934.595445 0.8230 0.8190 0.8130 0.8060 0.7980
941.180205 0.7980 0.8060 0.8060 0.8309 0.8509
947.764964 0.8720 0.8820 0.8890 0.8940 0.8940
954.349723 0.8940 0.8940 0.8940 0.8930 0.8930
960.934482 0.8920 0.8900 0.8900 0.8890 0.8880
967.519242 0.8860 0.8840 0.8800 0.8680 0.8610
974.104001 0.8550 0.8510 0.8420 0.8250 0.8100
980.688760 0.8050 0.8020 0.8020 0.8010 0.8010
987.273520 0.8010 0.8010 0.8000 0.8000 0.8000
993.858279 0.7980 0.7980 0.7980 0.7980 0.7980
1000.443038 0.7980 0.7980 0.8000 0.8010 0.8010
1007.027797 0.8050 0.8090 0.8150 0.8210 0.8349
1013.612557 0.8349 0.8150 0.8050 0.8030 0.8020
1020.197316 0.8020 0.8030 0.8050 0.8070 0.8060
1026.782075 0.8030 0.8020 0.8000 0.7960 0.7860
1033.366834 0.7860 0.7920 0.8169 0.8260 0.8529
1039.951594 0.8810 0.8820 0.8840 0.8840 0.8820
1046.536353 0.8810 0.8750 0.8650 0.8640 0.8610
1053.121112 0.8640 0.8670 0.8690 0.8800 0.8820
1059.705871 0.8850 0.8880 0.8900 0.8900 0.8900
1066.290631 0.8920 0.8920 0.8920 0.8920 0.8920
1072.875390 0.8920 0.8900 0.8900 0.8860 0.8850
1079.460149 0.8800 0.8750 0.8690 0.8680 0.8670
1086.044909 0.8650 0.8630 0.8610 0.8600 0.8590
1092.629668 0.8600 0.8610 0.8680 0.8770 0.8800
1099.214427 0.8810 0.8800 0.8780 0.8730 0.8680
1105.799186 0.8670 0.8650 0.8650 0.8630 0.8600
1112.383946 0.8440 0.8440 0.8510 0.8530 0.8640
1118.968705 0.8690 0.8710 0.8730 0.8730 0.8720
1125.553464 0.8690 0.8650 0.8630 0.8590 0.8550
1132.138223 0.8520 0.8460 0.8400 0.8280 0.8100
1138.722983 0.7900 0.7770 0.7750 0.7780 0.7940
1145.307742 0.8110 0.8150 0.8300 0.8320 0.8320
1151.892501 0.8310 0.8300 0.8280 0.8280 0.8280
1158.477261 0.8300 0.8310 0.8350 0.8390 0.8420
1165.062020 0.8500 0.8520 0.8570 0.8690 0.8710
1171.646779 0.8770 0.8780 0.8800 0.8800 0.8800
1178.231538 0.8800 0.8800 0.8800 0.8800 0.8800
1184.816298 0.8770 0.8750 0.8720 0.8690 0.8670
1191.401057 0.8610 0.8610 0.8600 0.8550 0.8500
1197.985816 0.8440 0.8400 0.8350 0.8280 0.8210
1204.570575 0.8090 0.7960 0.7940 0.7920 0.7960
1211.155335 0.8061 0.8250 0.8340 0.8380 0.8420
1217.740094 0.8510 0.8550 0.8560 0.8560 0.8560
1224.324853 0.8560 0.8550 0.8510 0.8430 0.8360
1230.909612 0.8300 0.8130 0.8030 0.7970 0.7860
1237.494372 0.7679 0.7549 0.7179 0.6980 0.6980
1244.079131 0.7090 0.7130 0.7270 0.7669 0.7999
1250.663890 0.8311 0.8470 0.8530 0.8550 0.8560
1257.248650 0.8570 0.8570 0.8560 0.8560 0.8560
1263.833409 0.8550 0.8530 0.8500 0.8420 0.8380
1270.418168 0.8350 0.8300 0.8190 0.8140 0.7970
1277.002927 0.7669 0.7349 0.7110 0.7100 0.7210
1283.587687 0.7350 0.7420 0.7520 0.7760 0.7999
1290.172446 0.8230 0.8340 0.8360 0.8360 0.8400
1296.757205 0.8440 0.8480 0.8520 0.8530 0.8550
1303.341964 0.8530 0.8520 0.8480 0.8430 0.8420
1309.926724 0.8400 0.8390 0.8430 0.8430 0.8440
1316.511483 0.8440 0.8440 0.8440 0.8430 0.8430
1323.096242 0.8420 0.8390 0.8360 0.8350 0.8310
1329.681001 0.8260 0.8230 0.8220 0.8210 0.8190
1336.265761 0.8170 0.8150 0.8110 0.7980 0.7840
1342.850520 0.7810 0.7800 0.7810 0.7930 0.8020
1349.435279 0.8130 0.8140 0.8130 0.8130 0.8070
1356.020039 0.8020 0.8000 0.7980 0.7980 0.8000
1362.604798 0.8060 0.8090 0.8110 0.8170 0.8180
1369.189557 0.8180 0.8139 0.8000 0.7960 0.7860
1375.774316 0.7780 0.7730 0.7680 0.7600 0.7590
1382.359076 0.7570 0.7550 0.7520 0.7500 0.7470
1388.943835 0.7420 0.7140 0.7050 0.6840 0.6630
1395.528594 0.6600 0.6630 0.6690 0.6820 0.7000
1402.113353 0.7090 0.7100 0.7130 0.7130 0.7100
1408.698113 0.7070 0.7050 0.7050 0.7060 0.7090
1415.282872 0.7220 0.7340 0.7500 0.7530 0.7530
1421.867631 0.7510 0.7470 0.7420 0.7320 0.7230
1428.452391 0.7100 0.6940 0.6750 0.6510 0.6270
1435.037150 0.6139 0.6010 0.5929 0.5770 0.5650
1441.621909 0.5510 0.5500 0.5480 0.5470 0.5680
1448.206668 0.5691 0.5800 0.5820 0.5890 0.5970
1454.791428 0.6130 0.6260 0.6430 0.6590 0.6770
1461.376187 0.6930 0.7020 0.7060 0.7060 0.7050
1467.960946 0.7030 0.6970 0.6850 0.6850 0.6940
1474.545705 0.7091 0.7220 0.7321 0.7500 0.7650
1481.130465 0.7680 0.7680 0.7670 0.7650 0.7640
1487.715224 0.7610 0.7570 0.7480 0.7419 0.7260
1494.299983 0.7210 0.7020 0.6760 0.6400 0.6050
1500.884742 0.5709 0.5549 0.5379 0.5130 0.4970
1507.469502 0.4920 0.4900 0.4920 0.5799 0.6020
1514.054261 0.6532 0.6943 0.7470 0.7591 0.7840
1520.639020 0.7860 0.7880 0.7890 0.7890 0.7880
1527.223780 0.7880 0.7860 0.7850 0.7820 0.7800
1533.808539 0.7770 0.7730 0.7710 0.7690 0.7670
1540.393298 0.7640 0.7570 0.7530 0.7510 0.7470
1546.978057 0.7400 0.7280 0.7230 0.7150 0.7070
1553.562817 0.7010 0.6970 0.6930 0.6890 0.6800
1560.147576 0.6720 0.6630 0.6530 0.6470 0.6420
1566.732335 0.6350 0.6300 0.6230 0.6150 0.6060
1573.317094 0.5980 0.5890 0.5840 0.5640 0.5550
1579.901854 0.5520 0.5510 0.5520 0.5530 0.5630
1586.486613 0.5670 0.5780 0.5920 0.6210 0.6380
1593.071372 0.6511 0.6601 0.6721 0.6881 0.7051
1599.656132 0.7380 0.7560 0.7780 0.7900 0.7930
1606.240891 0.7930 0.7930 0.7940 0.7940 0.7940
1612.825650 0.7940 0.7960 0.7960 0.7960 0.7960
1619.410409 0.7960 0.7960 0.7960 0.7960 0.7960
1625.995169 0.7960 0.7960 0.7970 0.7970 0.7980
1632.579928 0.8020 0.8060 0.8100 0.8130 0.8170
1639.164687 0.8190 0.8220 0.8300 0.8350 0.8360
1645.749446 0.8380 0.8400 0.8430 0.8550 0.8590
1652.334206 0.8640 0.8690 0.8710 0.8730 0.8760
1658.918965 0.8780 0.8840 0.8850 0.8860 0.8880
1665.503724 0.8900 0.8920 0.8930 0.8940 0.8940
1672.088483 0.8960 0.8960 0.8960 0.8960 0.8960
1678.673243 0.8960 0.8960 0.8960 0.8960 0.8960
1685.258002 0.8960 0.8960 0.8960 0.8960 0.8960
1691.842761 0.8970 0.8970 0.8980 0.8980 0.9000
1698.427521 0.9010 0.9020 0.9050 0.9060 0.9060
1705.012280 0.9070 0.9090 0.9090 0.9100 0.9110
1711.597039 0.9110 0.9130 0.9140 0.9140 0.9150
1718.181798 0.9150 0.9150 0.9150 0.9150 0.9150
1724.766558 0.9150 0.9150 0.9150 0.9150 0.9150
1731.351317 0.9150 0.9150 0.9150 0.9150 0.9150
1737.936076 0.9150 0.9150 0.9150 0.9150 0.9150
1744.520835 0.9150 0.9150 0.9150 0.9150 0.9150
1751.105595 0.9150 0.9150 0.9150 0.9150 0.9150
1757.690354 0.9140 0.9140 0.9130 0.9110 0.9110
1764.275113 0.9100 0.9100 0.9100 0.9100 0.9090
1770.859872 0.9090 0.9090 0.9070 0.9060 0.9060
1777.444632 0.9050 0.9050 0.9030 0.9030 0.9030
1784.029391 0.9030 0.9030 0.9020 0.9020 0.9010
1790.614150 0.9000 0.9000 0.8980 0.8980 0.8970
1797.198910 0.8960 0.8940 0.8930 0.8930 0.8920
1803.783669 0.8920 0.8920 0.8900 0.8900 0.8900
1810.368428 0.8890 0.8890 0.8890 0.8890 0.8880
1816.953187 0.8880 0.8880 0.8880 0.8880 0.8880
1823.537947 0.8880 0.8880 0.8880 0.8880 0.8890
1830.122706 0.8890 0.8900 0.8900 0.8920 0.8930
1836.707465 0.8940 0.8960 0.8970 0.9000 0.9000
1843.292224 0.9010 0.9010 0.9010 0.9010 0.9020
1849.876984 0.9020 0.9020 0.9020 0.9020 0.9020
1856.461743 0.9010 0.9010 0.9010 0.8980 0.8980
1863.046502 0.8970 0.8970 0.8970 0.8970 0.8960
1869.631262 0.8960 0.8940 0.8940 0.8940 0.8930
1876.216021 0.8930 0.8930 0.8930 0.8920 0.8920
1882.800780 0.8920 0.8900 0.8900 0.8900 0.8900
1889.385539 0.8890 0.8890 0.8880 0.8880 0.8880
1895.970299 0.8880 0.8880 0.8860 0.8850 0.8850
1902.555058 0.8840 0.8840 0.8820 0.8820 0.8820
1909.139817 0.8810 0.8800 0.8800 0.8800 0.8780
1915.724576 0.8780 0.8770 0.8770 0.8750 0.8750
1922.309336 0.8750 0.8730 0.8730 0.8730 0.8730
1928.894095 0.8720 0.8710 0.8710 0.8690 0.8690
1935.478854 0.8690 0.8690 0.8680 0.8670 0.8670
1942.063613 0.8650 0.8650 0.8650 0.8650 0.8640
1948.648373 0.8640 0.8640 0.8640 0.8640 0.8640
1955.233132 0.8640 0.8640 0.8640 0.8640 0.8640
1961.817891 0.8640 0.8640 0.8640 0.8640 0.8640
1968.402651 0.8640 0.8640 0.8640 0.8640 0.8640
1974.987410 0.8640 0.8640 0.8640 0.8640 0.8650
1981.572169 0.8650 0.8650 0.8670 0.8670 0.8680
1988.156928 0.8680 0.8690 0.8710 0.8720 0.8720
1994.741688 0.8720 0.8730 0.8730 0.8760 0.8760
2001.326447 0.8770 0.8770 0.8780 0.8800 0.8800
2007.911206 0.8800 0.8800 0.8800 0.8810 0.8810
2014.495965 0.8810 0.8820 0.8820 0.8839 0.8840
2021.080725 0.8840 0.8859 0.8860 0.8879 0.8880
2027.665484 0.8880 0.8889 0.8899 0.8900 0.8918
2034.250243 0.8920 0.8920 0.8920 0.8920 0.8929
2040.835002 0.8930 0.8930 0.8939 0.8940 0.8940
2047.419762 0.8940 0.8957 0.8960 0.8943 0.8940
2054.004521 0.8940 0.8940 0.8940 0.8940 0.8940
2060.589280 0.8940 0.8940 0.8940 0.8940 0.8940
2067.174040 0.8940 0.8940 0.8932 0.8930 0.8930
2073.758799 0.8930 0.8930 0.8930 0.8930 0.8930
2080.343558 0.8930 0.8930 0.8930 0.8930 0.8930
2086.928317 0.8930 0.8930 0.8930 0.8930 0.8930
2093.513077 0.8930 0.8930 0.8930 0.8930 0.8930
2100.097836 0.8930 0.8937 0.8940 0.8940 0.8940
2106.682595 0.8940 0.8940 0.8940 0.8940 0.8940
2113.267354 0.8940 0.8940 0.8940 0.8940 0.8933
2119.852114 0.8930 0.8937 0.8940 0.8940 0.8940
2126.436873 0.8940 0.8933 0.8930 0.8930 0.8930
2133.021632 0.8930 0.8930 0.8930 0.8930 0.8930
2139.606392 0.8930 0.8930 0.8930 0.8930 0.8930
2146.191151 0.8930 0.8924 0.8920 0.8920 0.8926
2152.775910 0.8930 0.8930 0.8924 0.8920 0.8920
2159.360669 0.8920 0.8920 0.8920 0.8920 0.8920
2165.945429 0.8920 0.8920 0.8920 0.8920 0.8920
2172.530188 0.8920 0.8920 0.8920 0.8920 0.8920
2179.114947 0.8925 0.8930 0.8930 0.8930 0.8930
2185.699706 0.8930 0.8930 0.8930 0.8925 0.8920
2192.284466 0.8920 0.8910 0.8900 0.8895 0.8890
2198.869225 0.8890 0.8890 0.8890 0.8890 0.8890
2205.453984 0.8890 0.8885 0.8880 0.8871 0.8860
2212.038743 0.8856 0.8850 0.8846 0.8840 0.8840
2218.623503 0.8832 0.8820 0.8828 0.8840 0.8840
2225.208262 0.8832 0.8820 0.8820 0.8816 0.8810
2231.793021 0.8810 0.8810 0.8810 0.8810 0.8810
2238.377781 0.8814 0.8816 0.8810 0.8810 0.8810
2244.962540 0.8810 0.8810 0.8807 0.8800 0.8793
2251.547299 0.8780 0.8777 0.8767 0.8760 0.8760
2258.132058 0.8757 0.8750 0.8750 0.8744 0.8730
2264.716818 0.8730 0.8727 0.8717 0.8704 0.8687
2271.301577 0.8677 0.8670 0.8665 0.8650 0.8650
2277.886336 0.8650 0.8647 0.8640 0.8637 0.8630
2284.471095 0.8625 0.8610 0.8608 0.8600 0.8593
2291.055855 0.8570 0.8568 0.8560 0.8558 0.8550
2297.640614 0.8546 0.8528 0.8520 0.8516 0.8500
2304.225373 0.8488 0.8436 0.8420 0.8416 0.8398
2310.810132 0.8388 0.8380 0.8377 0.8358 0.8350
2317.394892 0.8348 0.8337 0.8317 0.8294 0.8260
2323.979651 0.8259 0.8250 0.8247 0.8227 0.8206
2330.564410 0.8179 0.8166 0.8139 0.8128 0.8110
2337.149170 0.8109 0.8099 0.8088 0.8070 0.8068
2343.733929 0.8048 0.8027 0.7997 0.7968 0.7934
2350.318688 0.7859 0.7838 0.7808 0.7779 0.7769
2356.903447 0.7749 0.7729 0.7720 0.7709 0.7689
2363.488207 0.7669 0.7650 0.7640 0.7630 0.7610
2370.072966 0.7589 0.7559 0.7530 0.7510 0.7460
2376.657725 0.7430 0.7390 0.7380 0.7301 0.7261
2383.242484 0.7221 0.7191 0.7141 0.7091 0.7061
2389.827244 0.7012 0.7000 0.6971 0.6960 0.6969
2396.412003 0.6999 0.7047 0.7069 0.7108 0.7185
2402.996762 0.7246 0.7296 0.7309 0.7383 0.7454
2409.581522 0.7542 0.7586 0.7626 0.7639 0.7667
2416.166281 0.7670 0.7679 0.7680 0.7671 0.7670
2422.751040 0.7670 0.7652 0.7641 0.7631 0.7604
2429.335799 0.7591 0.7564 0.7517 0.7502 0.7483
2435.920559 0.7472 0.7436 0.7422 0.7420 0.7403
2442.505318 0.7400 0.7416 0.7420 0.7428 0.7438
2449.090077 0.7464 0.7502 0.7542 0.7558 0.7560
2455.674836 0.7560 0.7568 0.7586 0.7590 0.7598
2462.259596 0.7600 0.7592 0.7590 0.7590 0.7590
2468.844355 0.7575 0.7562 0.7538 0.7485 0.7448
2475.429114 0.7410 0.7400 0.7371 0.7345 0.7297
2482.013873 0.7244 0.7223 0.7192 0.7173 0.7128
2488.598633 0.7096 0.7069 0.7025 0.6975 0.6946
2495.183392 0.6926 0.6879 0.6792 0.6713 0.6657
2501.768151 0.6593 0.6557 0.6530 0.6494 0.6473
2508.352911 0.6464 0.6460 0.6460 0.6460 0.6460
2514.937670 0.6466 0.6470 0.6476 0.6492 0.6512
2521.522429 0.6545 0.6566 0.6582 0.6596 0.6624
2528.107188 0.6688 0.6738 0.6762 0.6794 0.6816
2534.691948 0.6832 0.6846 0.6856 0.6860 0.6871
2541.276707 0.6880 0.6880 0.6880 0.6880 0.6869
2547.861466 0.6855 0.6845 0.6829 0.6820 0.6815
2554.446225 0.6810 0.6805 0.6790 0.6780 0.6780
2561.030985 0.6780 0.6780 0.6780 0.6780 0.6780
2567.615744 0.6775 0.6765 0.6755 0.6750 0.6740
2574.200503 0.6725 0.6715 0.6696 0.6657 0.6621
2580.785263 0.6601 0.6581 0.6565 0.6542 0.6516
2587.370022 0.6497 0.6471 0.6460 0.6451 0.6436
2593.954781 0.6430 0.6430 0.6426 0.6412 0.6396
2600.539540 0.6386 0.6380 0.6372 0.6360 0.6352
2607.124300 0.6340 0.6340 0.6332 0.6316 0.6310
2613.709059 0.6306 0.6300 0.6293 0.6276 0.6270
2620.293818 0.6263 0.6243 0.6230 0.6223 0.6210
2626.878577 0.6203 0.6190 0.6187 0.6170 0.6144
2633.463337 0.6124 0.6107 0.6091 0.6058 0.6027
2640.048096 0.6008 0.5953 0.5875 0.5840 0.5823
2646.632855 0.5772 0.5722 0.5636 0.5592 0.5557
2653.217614 0.5515 0.5500 0.5495 0.5477 0.5463
2659.802374 0.5440 0.5435 0.5415 0.5398 0.5388
2666.387133 0.5375 0.5355 0.5336 0.5307 0.5241
2672.971892 0.5149 0.5068 0.5054 0.5026 0.5000
2679.556652 0.4941 0.4845 0.4771 0.4721 0.4675
2686.141411 0.4641 0.4598 0.4590 0.4587 0.4568
2692.726170 0.4560 0.4558 0.4547 0.4527 0.4506
2699.310929 0.4474 0.4439 0.4423 0.4375 0.4335
2705.895689 0.4297 0.4273 0.4212 0.4145 0.4108
2712.480448 0.4084 0.4029 0.4014 0.3953 0.3885
2719.065207 0.3836 0.3798 0.3780 0.3779 0.3770
2725.649966 0.3770 0.3770 0.3769 0.3760 0.3759
2732.234726 0.3750 0.3749 0.3730 0.3729 0.3709
2738.819485 0.3679 0.3649 0.3609 0.3588 0.3530
2745.404244 0.3520 0.3510 0.3500 0.3460 0.3400
2751.989003 0.3360 0.3340 0.3300 0.3280 0.3260
2758.573763 0.3250 0.3250 0.3230 0.3230 0.3220
2765.158522 0.3210 0.3191 0.3190 0.3180 0.3180
2771.743281 0.3180 0.3180 0.3180 0.3189 0.3190
2778.328041 0.3209 0.3219 0.3229 0.3230 0.3248
2784.912800 0.3259 0.3278 0.3307 0.3319 0.3338
2791.497559 0.3349 0.3350 0.3359 0.3378 0.3389
2798.082318 0.3390 0.3399 0.3417 0.3420 0.3429
2804.667078 0.3439 0.3457 0.3469 0.3479 0.3497
2811.251837 0.3508 0.3518 0.3528 0.3530 0.3547
2817.836596 0.3558 0.3560 0.3568 0.3570 0.3586
2824.421355 0.3590 0.3606 0.3626 0.3638 0.3640
2831.006115 0.3648 0.3666 0.3686 0.3706 0.3718
2837.590874 0.3720 0.3720 0.3728 0.3730 0.3730
2844.175633 0.3730 0.3722 0.3720 0.3720 0.3713
2850.760393 0.3710 0.3710 0.3695 0.3683 0.3673
2857.345152 0.3656 0.3607 0.3547 0.3523 0.3485
2863.929911 0.3463 0.3439 0.3402 0.3383 0.3339
2870.514670 0.3293 0.3259 0.3223 0.3196 0.3177
2877.099430 0.3150 0.3087 0.3027 0.2977 0.2934
2883.684189 0.2901 0.2871 0.2834 0.2788 0.2744
2890.268948 0.2673 0.2615 0.2594 0.2578 0.2545
2896.853707 0.2524 0.2489 0.2427 0.2351 0.2308
2903.438467 0.2282 0.2258 0.2232 0.2214 0.2193
2910.023226 0.2163 0.2127 0.2087 0.2059 0.2033
2916.607985 0.2020 0.2014 0.2010 0.2004 0.2000
2923.192744 0.2000 0.2000 0.2000 0.2000 0.1989
2929.777504 0.1980 0.1980 0.1975 0.1970 0.1970
2936.362263 0.1970 0.1970 0.1975 0.1980 0.1990
2942.947022 0.2000 0.2005 0.2010 0.2010 0.2015
2949.531782 0.2034 0.2055 0.2074 0.2095 0.2100
2956.116541 0.2105 0.2110 0.2110 0.2123 0.2140
2962.701300 0.2144 0.2150 0.2159 0.2170 0.2170
2969.286059 0.2174 0.2184 0.2198 0.2231 0.2260
2975.870819 0.2264 0.2274 0.2280 0.2280 0.2280
2982.455578 0.2288 0.2300 0.2300 0.2300 0.2304
2989.040337 0.2310 0.2314 0.2331 0.2365 0.2404
2995.625096 0.2444 0.2481 0.2503 0.2517 0.2540
3002.209856 0.2573 0.2610 0.2637 0.2657 0.2670
3008.794615 0.2670 0.2673 0.2692 0.2723 0.2736
3015.379374 0.2750 0.2753 0.2760 0.2760 0.2763
3021.964133 0.2770 0.2773 0.2780 0.2788 0.2810
3028.548893 0.2821 0.2853 0.2868 0.2898 0.2930
3035.133652 0.2970 0.3005 0.3027 0.3074 0.3155
3041.718411 0.3179 0.3224 0.3272 0.3289 0.3329
3048.303171 0.3375 0.3438 0.3486 0.3560 0.3608
3054.887930 0.3648 0.3682 0.3698 0.3739 0.3785
3061.472689 0.3823 0.3890 0.3945 0.3970 0.3975
3068.057448 0.4005 0.4047 0.4145 0.4173 0.4199
3074.642208 0.4250 0.4251 0.4263 0.4280 0.4284
3081.226967 0.4315 0.4351 0.4364 0.4394 0.4421
3087.811726 0.4433 0.4461 0.4471 0.4482 0.4501
3094.396485 0.4510 0.4512 0.4532 0.4551 0.4561
3100.981245 0.4572 0.4602 0.4631 0.4651 0.4671
3107.566004 0.4681 0.4691 0.4711 0.4720 0.4732
3114.150763 0.4770 0.4781 0.4811 0.4841 0.4891
3120.735523 0.4920 0.4930 0.4961 0.5000 0.5010
3127.320282 0.5020 0.5090 0.5140 0.5150 0.5229
3133.905041 0.5269 0.5358 0.5389 0.5419 0.5430
3140.489800 0.5440 0.5459 0.5556 0.5608 0.5610
3147.074560 0.5638 0.5668 0.5689 0.5746 0.5797
3153.659319 0.5847 0.5878 0.5889 0.5927 0.5958
3160.244078 0.5978 0.6007 0.6028 0.6048 0.6068
3166.828837 0.6133 0.6176 0.6225 0.6230 0.6256
3173.413597 0.6278 0.6297 0.6318 0.6346 0.6359
3179.998356 0.6360 0.6386 0.6390 0.6399 0.6400
3186.583115 0.6425 0.6430 0.6438 0.6440 0.6457
3193.167874 0.6468 0.6478 0.6505 0.6518 0.6528
3199.752634 0.6546 0.6590 0.6624 0.6646 0.6666
3206.337393 0.6678 0.6735 0.6774 0.6835 0.6904
3212.922152 0.6966 0.7011 0.7074 0.7121 0.7168
3219.506912 0.7210 0.7258 0.7308 0.7342 0.7357
3226.091671 0.7412 0.7437 0.7484 0.7515 0.7556
3232.676430 0.7592 0.7607 0.7631 0.7676 0.7718
3239.261189 0.7751 0.7774 0.7808 0.7834 0.7847
3245.845949 0.7857 0.7874 0.7914 0.7930 0.7950
3252.430708 0.7967 0.7970 0.7977 0.7993 0.8000
3259.015467 0.8007 0.8016 0.8026 0.8043 0.8050
3265.600226 0.8056 0.8066 0.8070 0.8083 0.8096
3272.184986 0.8119 0.8136 0.8140 0.8146 0.8150
3278.769745 0.8150 0.8150 0.8150 0.8150 0.8150
3285.354504 0.8150 0.8150 0.8150 0.8150 0.8150
3291.939263 0.8150 0.8150 0.8150 0.8150 0.8150
3298.524023 0.8145 0.8135 0.8130 0.8119 0.8089
3305.108782 0.8070 0.8065 0.8055 0.8040 0.8030
3311.693541 0.8030 0.8025 0.8015 0.8005 0.7990
3318.278301 0.7975 0.7965 0.7950 0.7935 0.7930
3324.863060 0.7906 0.7871 0.7851 0.7826 0.7796
3331.447819 0.7766 0.7741 0.7725 0.7715 0.7710
3338.032578 0.7701 0.7681 0.7657 0.7636 0.7617
3344.617338 0.7600 0.7579 0.7533 0.7493 0.7466
3351.202097 0.7452 0.7420 0.7374 0.7338 0.7300
3357.786856 0.7266 0.7249 0.7222 0.7199 0.7176
3364.371615 0.7163 0.7135 0.7106 0.7096 0.7079
3370.956375 0.7042 0.7000 0.6966 0.6937 0.6916
3377.541134 0.6880 0.6853 0.6827 0.6790 0.6757
3384.125893 0.6717 0.6684 0.6664 0.6647 0.6637
3390.710653 0.6618 0.6581 0.6557 0.6544 0.6527
3397.295412 0.6517 0.6507 0.6494 0.6477 0.6470
3403.880171 0.6467 0.6455 0.6437 0.6427 0.6420
3410.464930 0.6415 0.6400 0.6398 0.6390 0.6388
3417.049690 0.6380 0.6380 0.6376 0.6360 0.6360
3423.634449 0.6358 0.6350 0.6350 0.6350 0.6350
3430.219208 0.6352 0.6360 0.6360 0.6364 0.6380
3436.803967 0.6382 0.6390 0.6392 0.6400 0.6403
3443.388727 0.6420 0.6422 0.6430 0.6432 0.6443
3449.973486 0.6460 0.6461 0.6470 0.6471 0.6483
3456.558245 0.6500 0.6501 0.6510 0.6511 0.6521
3463.143004 0.6532 0.6550 0.6551 0.6560 0.6561
3469.727764 0.6570 0.6572 0.6591 0.6601 0.6612
3476.312523 0.6631 0.6641 0.6651 0.6670 0.6671
3482.897282 0.6681 0.6691 0.6710 0.6710 0.6720
3489.482042 0.6731 0.6750 0.6760 0.6771 0.6800
3496.066801 0.6810 0.6810 0.6810 0.6810 0.6820
3502.651560 0.6820 0.6850 0.6860 0.6880 0.6920
3509.236319 0.6940 0.6979 0.7000 0.7010 0.7020
3515.821079 0.7049 0.7050 0.7060 0.7070 0.7089
3522.405838 0.7090 0.7099 0.7100 0.7138 0.7168
3528.990597 0.7179 0.7189 0.7227 0.7304 0.7338
3535.575356 0.7349 0.7359 0.7378 0.7389 0.7399
3542.160116 0.7418 0.7429 0.7430 0.7457 0.7495
3548.744875 0.7518 0.7529 0.7556 0.7595 0.7635
3555.329634 0.7666 0.7679 0.7689 0.7707 0.7727
3561.914394 0.7747 0.7758 0.7802 0.7835 0.7848
3568.499153 0.7883 0.7898 0.7916 0.7936 0.7956
3575.083912 0.7960 0.7976 0.8012 0.8044 0.8066
3581.668671 0.8094 0.8124 0.8161 0.8186 0.8206
3588.253431 0.8218 0.8251 0.8291 0.8315 0.8335
3594.838190 0.8348 0.8350 0.8357 0.8375 0.8410
3601.422949 0.8450 0.8467 0.8477 0.8495 0.8507
3608.007708 0.8524 0.8559 0.8591 0.8621 0.8644
3614.592468 0.8678 0.8704 0.8724 0.8758 0.8791
3621.177227 0.8807 0.8810 0.8817 0.8834 0.8840
3627.761986 0.8847 0.8870 0.8887 0.8897 0.8920
3634.346745 0.8930 0.8936 0.8959 0.8970 0.8976
3640.931505 0.8980 0.8980 0.8980 0.8980 0.8992
3647.516264 0.9000 0.9000 0.9006 0.9010 0.9010
3654.101023 0.9010 0.9010 0.9010 0.9010 0.9004
3660.685783 0.9000 0.9000 0.9000 0.9000 0.8989
3667.270542 0.8980 0.8980 0.8980 0.8980 0.8991
3673.855301 0.9000 0.9005 0.9010 0.9015 0.9025
3680.440060 0.9051 0.9081 0.9095 0.9105 0.9110
3687.024820 0.9120 0.9135 0.9140 0.9140 0.9145
3693.609579 0.9150 0.9160 0.9170 0.9170 0.9160
3700.194338 0.9160 0.9170 0.9170 0.9170 0.9175
3706.779097 0.9180 0.9180 0.9180 0.9180 0.9180
3713.363857 0.9180 0.9180 0.9180 0.9180 0.9180
3719.948616 0.9180 0.9180 0.9180 0.9180 0.9180
3726.533375 0.9180 0.9176 0.9170 0.9170 0.9170
3733.118134 0.9170 0.9170 0.9162 0.9150 0.9150
3739.702894 0.9146 0.9140 0.9140 0.9144 0.9150
3746.287653 0.9150 0.9157 0.9173 0.9180 0.9180
3752.872412 0.9180 0.9180 0.9180 0.9180 0.9180
3759.457172 0.9180 0.9177 0.9170 0.9170 0.9173
3766.041931 0.9180 0.9180 0.9180 0.9180 0.9180
3772.626690 0.9180 0.9180 0.9180 0.9180 0.9177
3779.211449 0.9170 0.9170 0.9170 0.9170 0.9170
3785.796209 0.9170 0.9170 0.9165 0.9150 0.9150
3792.380968 0.9150 0.9150 0.9150 0.9150 0.9150
3798.965727 0.9148 0.9140 0.9142 0.9150 0.9150
3805.550486 0.9150 0.9150 0.9150 0.9148 0.9140
3812.135246 0.9140 0.9140 0.9140 0.9140 0.9142
3818.720005 0.9150 0.9150 0.9150 0.9149 0.9139
3825.304764 0.9130 0.9130 0.9127 0.9109 0.9100
3831.889524 0.9100 0.9100 0.9100 0.9100 0.9100
3838.474283 0.9100 0.9100 0.9100 0.9099 0.9088
3845.059042 0.9069 0.9060 0.9060 0.9061 0.9069
3851.643801 0.9060 0.9060 0.9060 0.9061 0.9070
3858.228561 0.9069 0.9061 0.9070 0.9070 0.9070
3864.813320 0.9070 0.9070 0.9070 0.9070 0.9070
3871.398079 0.9070 0.9060 0.9060 0.9060 0.9060
3877.982838 0.9060 0.9060 0.9060 0.9060 0.9060
3884.567598 0.9060 0.9060 0.9060 0.9060 0.9060
3891.152357 0.9060 0.9060 0.9060 0.9050 0.9050
3897.737116 0.9050 0.9050 0.9050 0.9050 0.9050
3904.321875 0.9050 0.9050 0.9050 0.9050 0.9050
3910.906635 0.9050 0.9059 0.9060 0.9060 0.9051
3917.491394 0.9050 0.9050 0.9059 0.9060 0.9060
3924.076153 0.9060 0.9069 0.9061 0.9060 0.9060
3930.660913 0.9051 0.9050 0.9050 0.9033 0.9030
3937.245672 0.9030 0.9030 0.9030 0.9030 0.9030
3943.830431 0.9030 0.9030 0.9030 0.9030 0.9030
3950.415190 0.9030 0.9022 0.9020 0.9020 0.9028
3956.999950 0.9030 0.9030 0.9022 0.9020 0.9020
3963.584709 0.9020 0.9020 0.9020 0.9028 0.9030
3970.169468 0.9045 0.9035 0.9030 0.9030 0.9030
3976.754227 0.9030 0.9045 0.9050 0.9035 0.9030
3983.338987 0.9045 0.9050 0.9050 0.9050 0.9050
3989.923746 0.9057 0.9060 0.9060 0.9067 0.9070
3996.508505 0.9084 0.9097 0.9100 0.9100
##END=
