##TITLE=4-PYRIMIDINEACETIC ACID, 6-AMINO-2-CHLORO-5-NITRO-, ETHYL ESTER
##JCAMP-DX=4.24
##DATA TYPE=INFRARED SPECTRUM
##CLASS=COBLENTZ III
##ORIGIN=SOUTHERN RESEARCH INSTITUTE
##OWNER=COBLENTZ SOCIETY
Collection (C) 2018 copyright by the U.S. Secretary of Commerce
on behalf of the United States of America. All rights reserved.
##DATE=1965/02/23
##NAMES=ethyl (6-amino-2-chloro-5-nitro-4-pyrimidinyl)acetate
##MOLFORM=C8 H9 Cl N4 O4
##SOURCE REFERENCE=COBLENTZ NO. 10444
##$NIST ID=B6010444
##$NIST SOURCE=COBLENTZ
##$NIST IMAGE=cob10444
##SPECTROMETER/DATA SYSTEM=PERKIN-ELMER 521 (GRATING)
##INSTRUMENT PARAMETERS=GRATING CHANGES AT 2000, 620, FILTERS AT 3130, 2475, 2000, 1150, 700, 410 CM^-^1
##STATE=SOLID (1 mg / 650 mg KBr DISC)
##SAMPLING PROCEDURE=TRANSMISSION
##RESOLUTION=4
##DATA PROCESSING=DIGITIZED BY NIST FROM HARD COPY
##XUNITS=1/CM
##YUNITS=TRANSMITTANCE
##XFACTOR=1.000000
##YFACTOR=1
##DELTAX=001.598837
##FIRSTX=436.773
##LASTX=4013.38
##FIRSTY=0.309
##MAXX=4013.38
##MINX=436.773
##MAXY=0.853
##MINY=0.172
##NPOINTS=2238
##XYDATA=(X++(Y..Y))
436.773000 0.3090 0.3100 0.3100 0.3110 0.3130
444.770762 0.3150 0.3180 0.3200 0.3210 0.3300
452.762000 0.3350 0.3400 0.3480 0.3550 0.3650
460.759762 0.3740 0.3840 0.4040 0.4140 0.4240
468.750000 0.4330 0.4410 0.4480 0.4550 0.4590
476.747762 0.4750 0.4880 0.5010 0.5130 0.5240
484.738000 0.5330 0.5510 0.5590 0.5650 0.5710
492.735762 0.5760 0.5810 0.5850 0.5890 0.5920
500.727000 0.5960 0.5990 0.6010 0.6030 0.6060
508.724762 0.6080 0.6100 0.6120 0.6140 0.6160
516.715000 0.6190 0.6210 0.6220 0.6210 0.6160
524.712762 0.6110 0.6090 0.6010 0.6000 0.6010
532.703000 0.6100 0.6160 0.6230 0.6460 0.6600
540.700762 0.6700 0.6780 0.7030 0.7120 0.7200
548.692000 0.7260 0.7320 0.7370 0.7400 0.7440
556.689762 0.7480 0.7510 0.7550 0.7590 0.7640
564.680000 0.7700 0.7760 0.7830 0.7870 0.7880
572.677762 0.7960 0.7990 0.7990 0.8020 0.8040
580.669000 0.8070 0.8100 0.8110 0.8110 0.8110
588.666762 0.8110 0.8110 0.8100 0.8070 0.8030
596.657000 0.8020 0.8000 0.7980 0.7960 0.7950
604.654762 0.7920 0.7900 0.7880 0.7870 0.7810
612.645000 0.7770 0.7660 0.7650 0.7660 0.7700
620.642762 0.7750 0.7810 0.7850 0.7880 0.7920
628.634000 0.7960 0.8000 0.8020 0.8050 0.8080
636.631762 0.8110 0.8140 0.8150 0.8160 0.8170
644.622000 0.8180 0.8180 0.8180 0.8180 0.8180
652.619762 0.8180 0.8180 0.8180 0.8180 0.8180
660.610000 0.8170 0.8170 0.8170 0.8170 0.8160
668.607762 0.8150 0.8140 0.8140 0.8140 0.8130
676.599000 0.8120 0.8110 0.8100 0.8070 0.8060
684.596762 0.8040 0.8020 0.8000 0.7960 0.7940
692.587000 0.7910 0.7880 0.7850 0.7810 0.7770
700.584762 0.7730 0.7690 0.7620 0.7530 0.7370
708.576000 0.7130 0.7030 0.6930 0.7000 0.7660
716.573762 0.7800 0.7810 0.7810 0.7780 0.7770
724.564000 0.7750 0.7740 0.7740 0.7730 0.7700
732.561762 0.7660 0.7610 0.7540 0.7450 0.7360
740.552000 0.7250 0.7110 0.7050 0.6980 0.6970
748.549762 0.7060 0.7160 0.7230 0.7270 0.7280
756.541000 0.7260 0.7250 0.7240 0.7220 0.7210
764.538762 0.7180 0.7170 0.7150 0.7150 0.7140
772.529000 0.7100 0.7020 0.6970 0.6920 0.6820
780.526762 0.6700 0.6590 0.6480 0.6390 0.6310
788.517000 0.6250 0.6250 0.6340 0.6340 0.6330
796.514762 0.6300 0.6250 0.6210 0.6150 0.6100
804.506000 0.6060 0.6020 0.5990 0.5980 0.5960
812.503762 0.5940 0.5870 0.5770 0.5700 0.5640
820.494000 0.5590 0.5580 0.5570 0.5580 0.5590
828.491762 0.5610 0.5650 0.5700 0.5780 0.5880
836.483000 0.5970 0.6080 0.6190 0.6310 0.6420
844.480762 0.6520 0.6620 0.6700 0.6750 0.7250
852.471000 0.7290 0.7290 0.7150 0.7070 0.7000
860.468762 0.6920 0.6840 0.6760 0.6680 0.6680
868.459000 0.6810 0.7040 0.7190 0.7310 0.7510
876.456762 0.7630 0.7700 0.7770 0.7810 0.7850
884.448000 0.7890 0.7920 0.7950 0.7960 0.7990
892.445762 0.8000 0.8020 0.8030 0.8030 0.8040
900.436000 0.8040 0.8040 0.8040 0.8030 0.7990
908.433762 0.7940 0.7900 0.7850 0.7780 0.7710
916.424000 0.7610 0.7480 0.7410 0.7330 0.7330
924.421762 0.7330 0.7360 0.7390 0.7400 0.7420
932.413000 0.7430 0.7450 0.7510 0.7570 0.7640
940.410762 0.7700 0.7730 0.7770 0.7820 0.7880
948.401000 0.7940 0.8010 0.8070 0.8130 0.8180
956.398762 0.8220 0.8240 0.8250 0.8250 0.8250
964.390000 0.8250 0.8240 0.8220 0.8200 0.8180
972.387762 0.8160 0.8130 0.8090 0.8030 0.8020
980.378000 0.8030 0.8180 0.8180 0.8180 0.8200
988.375762 0.8200 0.8200 0.8200 0.8190 0.8190
996.366000 0.8180 0.8180 0.8170 0.8170 0.8170
1004.363762 0.8170 0.8170 0.8170 0.8170 0.8160
1012.355000 0.8150 0.8150 0.8130 0.7920 0.7700
1020.352762 0.7620 0.7310 0.7000 0.6700 0.7110
1028.343000 0.7590 0.7690 0.7870 0.7930 0.7930
1036.340762 0.7900 0.7840 0.7740 0.7670 0.7510
1044.331000 0.7340 0.7160 0.7070 0.6970 0.6960
1052.328762 0.6610 0.7610 0.7620 0.8050 0.8060
1060.320000 0.8180 0.8180 0.8190 0.8190 0.8180
1068.317762 0.8180 0.8180 0.8180 0.8170 0.8150
1076.308000 0.8140 0.8140 0.8130 0.8130 0.8120
1084.305762 0.8110 0.8100 0.8080 0.8070 0.8050
1092.297000 0.8030 0.8020 0.8000 0.7990 0.7960
1100.294762 0.7930 0.7850 0.7780 0.7710 0.7590
1108.285000 0.7480 0.7300 0.7220 0.7030 0.6830
1116.282762 0.6760 0.6760 0.7380 0.7390 0.7390
1124.273000 0.7380 0.7370 0.7370 0.7290 0.7030
1132.270762 0.6940 0.6850 0.6850 0.6860 0.6880
1140.262000 0.6860 0.6780 0.6430 0.6410 0.6430
1148.259762 0.6690 0.7220 0.7490 0.7740 0.7810
1156.250000 0.7820 0.7820 0.7810 0.7810 0.7800
1164.247762 0.7790 0.7780 0.7760 0.7740 0.7740
1172.238000 0.7710 0.7660 0.7610 0.7590 0.7550
1180.235762 0.7500 0.7440 0.7380 0.7310 0.7230
1188.227000 0.7140 0.7050 0.7000 0.6950 0.6870
1196.224762 0.6810 0.6660 0.6400 0.6160 0.5860
1204.215000 0.5640 0.5510 0.5380 0.5300 0.5150
1212.212762 0.5000 0.4850 0.4850 0.5590 0.6020
1220.203000 0.6250 0.6260 0.6260 0.6270 0.6270
1228.200762 0.6510 0.6860 0.7220 0.7230 0.7220
1236.192000 0.7210 0.7200 0.7080 0.7030 0.7000
1244.189762 0.6960 0.6880 0.6810 0.6660 0.6540
1252.180000 0.5870 0.5550 0.5280 0.5000 0.4720
1260.177762 0.7360 0.7500 0.7510 0.7500 0.7480
1268.169000 0.7460 0.7430 0.7360 0.7250 0.7140
1276.166762 0.7020 0.6960 0.6890 0.6770 0.6650
1284.157000 0.6650 0.6740 0.6810 0.7010 0.7030
1292.154762 0.7010 0.7000 0.6960 0.6890 0.6830
1300.145000 0.6760 0.6760 0.6810 0.6880 0.6950
1308.142762 0.7230 0.7250 0.7260 0.7270 0.7270
1316.134000 0.7270 0.7270 0.7260 0.7200 0.7150
1324.131762 0.7120 0.7090 0.7060 0.7000 0.6960
1332.122000 0.6920 0.6790 0.6780 0.6760 0.6700
1340.119762 0.6600 0.6440 0.6390 0.6230 0.6100
1348.110000 0.5990 0.5880 0.5770 0.5640 0.5550
1356.107762 0.5450 0.5430 0.5370 0.5340 0.5330
1364.099000 0.5300 0.5250 0.5220 0.5180 0.5180
1372.096762 0.5300 0.5390 0.5390 0.5270 0.5190
1380.087000 0.5130 0.4970 0.4700 0.4510 0.4310
1388.084762 0.4110 0.4020 0.3920 0.3720 0.3580
1396.076000 0.3450 0.3160 0.2770 0.2750 0.2770
1404.073762 0.2850 0.2930 0.2970 0.3000 0.3170
1412.064000 0.3190 0.3440 0.4220 0.4600 0.4810
1420.061762 0.5110 0.5110 0.5110 0.5110 0.4920
1428.052000 0.4730 0.4500 0.4250 0.4120 0.3990
1436.049762 0.3740 0.3720 0.3730 0.4220 0.4460
1444.041000 0.4590 0.4800 0.4880 0.5070 0.5300
1452.038762 0.5530 0.5540 0.5540 0.5520 0.5510
1460.029000 0.5500 0.5480 0.5430 0.5380 0.5320
1468.026762 0.5250 0.5160 0.5070 0.4960 0.4850
1476.017000 0.4740 0.4630 0.4510 0.4400 0.4290
1484.014762 0.4180 0.4080 0.4030 0.3990 0.3890
1492.006000 0.3570 0.3550 0.3570 0.4140 0.4500
1500.003762 0.4920 0.5180 0.5550 0.5540 0.5510
1507.994000 0.5490 0.5440 0.5330 0.5170 0.4980
1515.991762 0.4760 0.4540 0.4320 0.3930 0.3550
1523.983000 0.3390 0.3220 0.3000 0.3000 0.3000
1531.980762 0.3210 0.3410 0.4120 0.4690 0.5800
1539.971000 0.6160 0.6260 0.6300 0.6310 0.6310
1547.968762 0.6310 0.6300 0.6290 0.6180 0.6040
1555.959000 0.5970 0.5770 0.5470 0.5170 0.4100
1563.956762 0.4100 0.4280 0.5000 0.5150 0.5660
1571.948000 0.6050 0.6060 0.6030 0.6000 0.5850
1579.945762 0.5700 0.5580 0.5520 0.5470 0.5370
1587.936000 0.5290 0.5220 0.5170 0.5110 0.4880
1595.933762 0.4830 0.4830 0.4920 0.5590 0.5780
1603.924000 0.5960 0.6130 0.6290 0.6400 0.6490
1611.921762 0.6500 0.6510 0.6520 0.6540 0.6600
1619.913000 0.6690 0.6750 0.6810 0.6880 0.7010
1627.910762 0.7010 0.7000 0.6990 0.6930 0.6860
1635.901000 0.6740 0.6630 0.6550 0.6480 0.6430
1643.898762 0.6380 0.6330 0.6280 0.6220 0.6150
1651.890000 0.6070 0.5960 0.5770 0.5760 0.5770
1659.887762 0.5870 0.6020 0.6080 0.6110 0.6170
1667.878000 0.6190 0.6240 0.6320 0.6340 0.6410
1675.875762 0.6420 0.6420 0.6410 0.6410 0.6400
1683.866000 0.6400 0.6380 0.6320 0.6250 0.6140
1691.863762 0.6000 0.5830 0.5650 0.5560 0.5470
1699.855000 0.5280 0.5090 0.4740 0.4730 0.4720
1707.852762 0.4710 0.4700 0.4650 0.4550 0.4470
1715.843000 0.4370 0.4270 0.4110 0.4040 0.3960
1723.840762 0.3800 0.3630 0.3470 0.3300 0.3290
1731.831000 0.3320 0.3530 0.4040 0.4410 0.5110
1739.828762 0.5550 0.5560 0.5670 0.5760 0.5810
1747.820000 0.5850 0.5870 0.5860 0.5820 0.5770
1755.817762 0.5700 0.5590 0.5520 0.5440 0.5250
1763.808000 0.5000 0.4790 0.4530 0.4230 0.4080
1771.805762 0.3920 0.3640 0.3390 0.3190 0.2970
1779.797000 0.2750 0.2530 0.2420 0.2310 0.2080
1787.794762 0.2080 0.2240 0.2500 0.2900 0.3490
1795.785000 0.3600 0.3610 0.4620 0.4630 0.4290
1803.782762 0.4090 0.4000 0.3890 0.3700 0.3590
1811.773000 0.3510 0.3180 0.2880 0.2610 0.2480
1819.770762 0.2340 0.2110 0.1740 0.1720 0.1740
1827.762000 0.1820 0.1930 0.2000 0.2100 0.2240
1835.759762 0.2560 0.2740 0.2920 0.3110 0.3300
1843.750000 0.3510 0.3710 0.4130 0.4340 0.4550
1851.747762 0.4770 0.4970 0.5180 0.5580 0.5770
1859.738000 0.5960 0.6130 0.6290 0.6420 0.6530
1867.735762 0.6620 0.6700 0.6770 0.6850 0.6900
1875.727000 0.6950 0.6970 0.6990 0.7000 0.7100
1883.724762 0.7140 0.7250 0.7290 0.7320 0.7330
1891.715000 0.7330 0.7310 0.7290 0.7280 0.7220
1899.712762 0.7150 0.7080 0.6910 0.6740 0.6590
1907.703000 0.6480 0.5930 0.5560 0.5290 0.5010
1915.700762 0.4770 0.4090 0.3630 0.3170 0.2970
1923.692000 0.2570 0.2440 0.2310 0.2160 0.2500
1931.689762 0.2740 0.4020 0.4420 0.4780 0.5100
1939.680000 0.5630 0.5860 0.6070 0.6250 0.6450
1947.677762 0.6620 0.6780 0.7030 0.7120 0.7210
1955.669000 0.7280 0.7340 0.7400 0.7440 0.7500
1963.666762 0.7540 0.7590 0.7620 0.7660 0.7700
1971.657000 0.7740 0.7780 0.7810 0.7850 0.7880
1979.654762 0.7910 0.7920 0.7950 0.7960 0.7980
1987.645000 0.8000 0.8000 0.8000 0.8020 0.8030
1995.642762 0.8070 0.8090 0.8110 0.8120 0.8130
2003.634000 0.8140 0.8150 0.8160 0.8180 0.8180
2011.631762 0.8180 0.8190 0.8210 0.8220 0.8220
2019.622000 0.8240 0.8250 0.8250 0.8250 0.8260
2027.619762 0.8260 0.8260 0.8270 0.8270 0.8270
2035.610000 0.8280 0.8280 0.8280 0.8290 0.8290
2043.607762 0.8300 0.8310 0.8310 0.8320 0.8320
2051.599000 0.8330 0.8330 0.8340 0.8350 0.8350
2059.596762 0.8360 0.8370 0.8370 0.8380 0.8380
2067.587000 0.8390 0.8390 0.8400 0.8400 0.8410
2075.584762 0.8410 0.8420 0.8430 0.8440 0.8440
2083.576000 0.8440 0.8440 0.8440 0.8440 0.8450
2091.573762 0.8450 0.8450 0.8450 0.8450 0.8450
2099.564000 0.8450 0.8460 0.8460 0.8470 0.8470
2107.561762 0.8470 0.8470 0.8470 0.8470 0.8470
2115.552000 0.8480 0.8480 0.8480 0.8480 0.8480
2123.549762 0.8480 0.8480 0.8480 0.8480 0.8480
2131.541000 0.8470 0.8470 0.8470 0.8460 0.8460
2139.538762 0.8460 0.8460 0.8460 0.8460 0.8460
2147.529000 0.8470 0.8470 0.8470 0.8480 0.8480
2155.526762 0.8480 0.8490 0.8500 0.8510 0.8510
2163.518000 0.8510 0.8510 0.8510 0.8510 0.8510
2171.515762 0.8510 0.8500 0.8500 0.8500 0.8490
2179.506000 0.8490 0.8480 0.8480 0.8480 0.8480
2187.503762 0.8480 0.8470 0.8470 0.8470 0.8470
2195.494000 0.8470 0.8460 0.8460 0.8460 0.8460
2203.491762 0.8450 0.8450 0.8450 0.8450 0.8440
2211.483000 0.8440 0.8440 0.8440 0.8440 0.8440
2219.480762 0.8440 0.8440 0.8440 0.8440 0.8440
2227.471000 0.8440 0.8440 0.8440 0.8450 0.8460
2235.468762 0.8460 0.8460 0.8460 0.8460 0.8450
2243.459000 0.8450 0.8450 0.8450 0.8440 0.8440
2251.456762 0.8440 0.8440 0.8440 0.8440 0.8440
2259.448000 0.8440 0.8440 0.8440 0.8440 0.8440
2267.445762 0.8440 0.8440 0.8440 0.8440 0.8440
2275.436000 0.8440 0.8440 0.8440 0.8440 0.8440
2283.433762 0.8440 0.8440 0.8440 0.8440 0.8440
2291.425000 0.8440 0.8440 0.8440 0.8440 0.8440
2299.422762 0.8450 0.8450 0.8450 0.8450 0.8450
2307.413000 0.8450 0.8450 0.8450 0.8450 0.8450
2315.410762 0.8450 0.8450 0.8450 0.8450 0.8450
2323.401000 0.8450 0.8450 0.8440 0.8440 0.8440
2331.398762 0.8440 0.8440 0.8440 0.8440 0.8440
2339.390000 0.8440 0.8440 0.8450 0.8450 0.8450
2347.387762 0.8450 0.8450 0.8450 0.8450 0.8450
2355.378000 0.8450 0.8450 0.8450 0.8450 0.8450
2363.375762 0.8450 0.8450 0.8450 0.8450 0.8450
2371.366000 0.8450 0.8450 0.8450 0.8450 0.8450
2379.363762 0.8440 0.8440 0.8440 0.8440 0.8440
2387.355000 0.8440 0.8440 0.8440 0.8440 0.8440
2395.352762 0.8430 0.8430 0.8430 0.8430 0.8430
2403.343000 0.8430 0.8430 0.8420 0.8420 0.8420
2411.340762 0.8420 0.8420 0.8420 0.8420 0.8430
2419.332000 0.8430 0.8430 0.8440 0.8440 0.8440
2427.329762 0.8440 0.8440 0.8440 0.8440 0.8440
2435.320000 0.8450 0.8450 0.8450 0.8450 0.8460
2443.317762 0.8460 0.8460 0.8460 0.8460 0.8460
2451.308000 0.8470 0.8470 0.8470 0.8480 0.8480
2459.305762 0.8480 0.8490 0.8500 0.8500 0.8500
2467.297000 0.8500 0.8490 0.8480 0.8480 0.8480
2475.294762 0.8480 0.8480 0.8480 0.8480 0.8480
2483.285000 0.8480 0.8480 0.8480 0.8470 0.8470
2491.282762 0.8470 0.8470 0.8470 0.8470 0.8470
2499.273000 0.8470 0.8470 0.8470 0.8470 0.8470
2507.270762 0.8470 0.8460 0.8460 0.8450 0.8440
2515.262000 0.8440 0.8430 0.8430 0.8430 0.8420
2523.259762 0.8420 0.8410 0.8410 0.8410 0.8410
2531.250000 0.8410 0.8410 0.8410 0.8410 0.8410
2539.247762 0.8410 0.8410 0.8410 0.8400 0.8400
2547.239000 0.8400 0.8400 0.8400 0.8400 0.8390
2555.236762 0.8390 0.8390 0.8390 0.8390 0.8390
2563.227000 0.8390 0.8390 0.8390 0.8390 0.8390
2571.224762 0.8390 0.8390 0.8390 0.8390 0.8390
2579.215000 0.8390 0.8390 0.8390 0.8390 0.8390
2587.212762 0.8390 0.8380 0.8380 0.8380 0.8380
2595.204000 0.8380 0.8380 0.8380 0.8380 0.8380
2603.201762 0.8370 0.8370 0.8370 0.8370 0.8370
2611.192000 0.8370 0.8370 0.8370 0.8370 0.8360
2619.189762 0.8360 0.8350 0.8340 0.8340 0.8340
2627.180000 0.8340 0.8340 0.8340 0.8340 0.8340
2635.177762 0.8340 0.8340 0.8330 0.8330 0.8330
2643.169000 0.8330 0.8330 0.8330 0.8330 0.8330
2651.166762 0.8340 0.8340 0.8340 0.8340 0.8340
2659.157000 0.8340 0.8340 0.8340 0.8340 0.8340
2667.154762 0.8340 0.8340 0.8340 0.8340 0.8340
2675.146000 0.8340 0.8340 0.8340 0.8340 0.8340
2683.143762 0.8340 0.8340 0.8340 0.8340 0.8340
2691.134000 0.8330 0.8330 0.8330 0.8330 0.8330
2699.131762 0.8330 0.8340 0.8340 0.8340 0.8340
2707.122000 0.8340 0.8340 0.8340 0.8340 0.8340
2715.119762 0.8340 0.8340 0.8340 0.8330 0.8330
2723.111000 0.8330 0.8330 0.8330 0.8330 0.8330
2731.108762 0.8330 0.8330 0.8330 0.8330 0.8330
2739.099000 0.8330 0.8330 0.8330 0.8330 0.8340
2747.096762 0.8340 0.8340 0.8340 0.8350 0.8350
2755.087000 0.8350 0.8350 0.8350 0.8350 0.8350
2763.084762 0.8360 0.8360 0.8370 0.8370 0.8370
2771.076000 0.8370 0.8380 0.8380 0.8380 0.8380
2779.073762 0.8380 0.8380 0.8380 0.8380 0.8380
2787.064000 0.8380 0.8380 0.8380 0.8370 0.8370
2795.061762 0.8370 0.8370 0.8370 0.8370 0.8370
2803.052000 0.8370 0.8360 0.8360 0.8360 0.8350
2811.049762 0.8350 0.8340 0.8340 0.8330 0.8330
2819.041000 0.8330 0.8330 0.8330 0.8330 0.8320
2827.038762 0.8320 0.8320 0.8310 0.8310 0.8300
2835.029000 0.8300 0.8300 0.8300 0.8300 0.8290
2843.026762 0.8290 0.8290 0.8290 0.8290 0.8290
2851.018000 0.8290 0.8290 0.8290 0.8300 0.8300
2859.015762 0.8300 0.8300 0.8300 0.8300 0.8300
2867.006000 0.8300 0.8300 0.8300 0.8300 0.8300
2875.003762 0.8290 0.8290 0.8290 0.8290 0.8290
2882.994000 0.8290 0.8290 0.8290 0.8290 0.8290
2890.991762 0.8290 0.8290 0.8290 0.8290 0.8290
2898.983000 0.8290 0.8290 0.8280 0.8280 0.8270
2906.980762 0.8270 0.8260 0.8260 0.8250 0.8250
2914.971000 0.8220 0.8210 0.8200 0.8180 0.8180
2922.968762 0.8180 0.8180 0.8180 0.8180 0.8190
2930.959000 0.8200 0.8210 0.8220 0.8220 0.8220
2938.956762 0.8220 0.8230 0.8230 0.8240 0.8250
2946.948000 0.8250 0.8250 0.8260 0.8260 0.8270
2954.945762 0.8270 0.8270 0.8280 0.8280 0.8290
2962.936000 0.8290 0.8290 0.8290 0.8290 0.8290
2970.933762 0.8280 0.8280 0.8270 0.8270 0.8260
2978.925000 0.8250 0.8250 0.8250 0.8240 0.8240
2986.922762 0.8230 0.8230 0.8220 0.8220 0.8220
2994.913000 0.8220 0.8210 0.8200 0.8200 0.8190
3002.910762 0.8190 0.8180 0.8180 0.8180 0.8170
3010.901000 0.8170 0.8170 0.8170 0.8160 0.8150
3018.898762 0.8140 0.8120 0.8110 0.8080 0.8060
3026.890000 0.8050 0.8040 0.8030 0.8020 0.8000
3034.887762 0.8000 0.7990 0.7980 0.7980 0.7980
3042.878000 0.7970 0.7970 0.7970 0.7970 0.7970
3050.875762 0.7970 0.7960 0.7960 0.7960 0.7960
3058.866000 0.7960 0.7960 0.7950 0.7950 0.7940
3066.863762 0.7930 0.7920 0.7920 0.7910 0.7900
3074.855000 0.7890 0.7880 0.7870 0.7850 0.7840
3082.852762 0.7820 0.7800 0.7770 0.7740 0.7700
3090.843000 0.7670 0.7640 0.7620 0.7600 0.7590
3098.840762 0.7560 0.7550 0.7540 0.7520 0.7510
3106.832000 0.7490 0.7480 0.7460 0.7440 0.7420
3114.829762 0.7390 0.7360 0.7330 0.7290 0.7240
3122.820000 0.7180 0.7120 0.7060 0.7010 0.7000
3130.817762 0.7010 0.7030 0.7040 0.7070 0.7090
3138.808000 0.7160 0.7250 0.7310 0.7360 0.7390
3146.805762 0.7400 0.7420 0.7430 0.7420 0.7390
3154.797000 0.7360 0.7310 0.7260 0.7200 0.7170
3162.794762 0.7170 0.7190 0.7210 0.7250 0.7250
3170.785000 0.7260 0.7250 0.7240 0.7220 0.7180
3178.782762 0.7140 0.7100 0.7040 0.7000 0.6980
3186.773000 0.6960 0.6890 0.6880 0.6890 0.6920
3194.770762 0.6950 0.7060 0.7120 0.7180 0.7250
3202.762000 0.7320 0.7390 0.7440 0.7490 0.7530
3210.759762 0.7550 0.7560 0.7590 0.7600 0.7600
3218.750000 0.7600 0.7600 0.7590 0.7590 0.7590
3226.747762 0.7590 0.7590 0.7580 0.7560 0.7550
3234.739000 0.7550 0.7540 0.7530 0.7520 0.7510
3242.736762 0.7510 0.7490 0.7480 0.7460 0.7440
3250.727000 0.7430 0.7420 0.7400 0.7390 0.7380
3258.724762 0.7370 0.7360 0.7340 0.7330 0.7320
3266.715000 0.7310 0.7300 0.7290 0.7290 0.7280
3274.712762 0.7250 0.7230 0.7200 0.7170 0.7140
3282.704000 0.7110 0.7070 0.7060 0.7040 0.7030
3290.701762 0.7030 0.7030 0.7010 0.7000 0.7000
3298.692000 0.6940 0.6890 0.6850 0.6830 0.6810
3306.689762 0.6780 0.6760 0.6730 0.6670 0.6650
3314.680000 0.6630 0.6610 0.6590 0.6580 0.6560
3322.677762 0.6550 0.6530 0.6520 0.6510 0.6490
3330.669000 0.6440 0.6390 0.6330 0.6270 0.6220
3338.666762 0.6160 0.6100 0.6030 0.5970 0.5920
3346.657000 0.5850 0.5780 0.5720 0.5660 0.5590
3354.654762 0.5520 0.5490 0.5450 0.5380 0.5320
3362.646000 0.5250 0.5180 0.5110 0.5030 0.4960
3370.643762 0.4890 0.4820 0.4740 0.4700 0.4660
3378.634000 0.4660 0.4660 0.4700 0.4720 0.4740
3386.631762 0.4780 0.4810 0.4870 0.5030 0.5140
3394.622000 0.5220 0.5280 0.5340 0.5400 0.5560
3402.619762 0.5620 0.5660 0.5660 0.5670 0.5670
3410.611000 0.5660 0.5660 0.5660 0.5670 0.5700
3418.608762 0.5710 0.5740 0.5770 0.5800 0.5820
3426.599000 0.5860 0.5890 0.5930 0.5950 0.5980
3434.596762 0.5990 0.5990 0.5980 0.5920 0.5910
3442.587000 0.5880 0.5880 0.5850 0.5830 0.5800
3450.584762 0.5760 0.5710 0.5660 0.5610 0.5550
3458.576000 0.5510 0.5480 0.5420 0.5350 0.5290
3466.573762 0.5220 0.5140 0.5070 0.5000 0.4920
3474.564000 0.4850 0.4770 0.4700 0.4620 0.4560
3482.561762 0.4550 0.4560 0.4590 0.4610 0.4660
3490.552000 0.4700 0.4750 0.4840 0.4970 0.5090
3498.549762 0.5210 0.5330 0.5540 0.5640 0.5740
3506.541000 0.5820 0.5920 0.6000 0.6070 0.6140
3514.538762 0.6220 0.6280 0.6340 0.6400 0.6440
3522.529000 0.6490 0.6540 0.6570 0.6610 0.6630
3530.526762 0.6660 0.6680 0.6690 0.6700 0.6700
3538.518000 0.6700 0.6700 0.6700 0.6700 0.6690
3546.515762 0.6680 0.6680 0.6670 0.6660 0.6640
3554.506000 0.6620 0.6600 0.6590 0.6560 0.6550
3562.503762 0.6520 0.6500 0.6470 0.6440 0.6400
3570.494000 0.6360 0.6310 0.6250 0.6180 0.6110
3578.491762 0.6030 0.5950 0.5850 0.5740 0.5610
3586.483000 0.5540 0.5470 0.5420 0.5350 0.5280
3594.480762 0.5200 0.5130 0.5060 0.4940 0.4920
3602.471000 0.4930 0.4990 0.5040 0.5080 0.5140
3610.468762 0.5220 0.5250 0.5350 0.5600 0.5730
3618.459000 0.5840 0.5950 0.6050 0.6140 0.6240
3626.456762 0.6320 0.6400 0.6480 0.6550 0.6620
3634.448000 0.6680 0.6740 0.6800 0.6850 0.6900
3642.445762 0.6950 0.7030 0.7070 0.7110 0.7140
3650.436000 0.7170 0.7200 0.7230 0.7250 0.7280
3658.433762 0.7300 0.7330 0.7350 0.7370 0.7390
3666.425000 0.7410 0.7440 0.7460 0.7480 0.7500
3674.422762 0.7520 0.7550 0.7570 0.7590 0.7620
3682.413000 0.7630 0.7660 0.7670 0.7690 0.7700
3690.410762 0.7710 0.7730 0.7740 0.7740 0.7760
3698.401000 0.7770 0.7780 0.7790 0.7810 0.7810
3706.398762 0.7820 0.7840 0.7850 0.7860 0.7870
3714.390000 0.7880 0.7890 0.7910 0.7920 0.7940
3722.387762 0.7950 0.7950 0.7960 0.7960 0.7960
3730.378000 0.7980 0.8000 0.8010 0.8020 0.8030
3738.375762 0.8030 0.8040 0.8050 0.8060 0.8060
3746.366000 0.8060 0.8060 0.8070 0.8070 0.8070
3754.363762 0.8070 0.8080 0.8100 0.8110 0.8110
3762.355000 0.8110 0.8120 0.8130 0.8140 0.8140
3770.352762 0.8140 0.8150 0.8160 0.8160 0.8170
3778.343000 0.8180 0.8180 0.8180 0.8190 0.8190
3786.340762 0.8200 0.8200 0.8210 0.8220 0.8220
3794.332000 0.8230 0.8240 0.8240 0.8250 0.8250
3802.329762 0.8260 0.8270 0.8290 0.8290 0.8300
3810.320000 0.8310 0.8330 0.8330 0.8350 0.8360
3818.317762 0.8370 0.8370 0.8370 0.8370 0.8380
3826.308000 0.8390 0.8400 0.8400 0.8410 0.8420
3834.305762 0.8430 0.8440 0.8440 0.8440 0.8440
3842.297000 0.8440 0.8450 0.8450 0.8460 0.8460
3850.294762 0.8460 0.8460 0.8460 0.8460 0.8460
3858.285000 0.8460 0.8470 0.8470 0.8470 0.8470
3866.282762 0.8460 0.8460 0.8460 0.8460 0.8450
3874.273000 0.8450 0.8440 0.8440 0.8440 0.8450
3882.270762 0.8450 0.8460 0.8460 0.8480 0.8480
3890.262000 0.8480 0.8490 0.8490 0.8490 0.8490
3898.259762 0.8490 0.8500 0.8500 0.8500 0.8500
3906.250000 0.8500 0.8510 0.8510 0.8510 0.8510
3914.247762 0.8510 0.8510 0.8510 0.8510 0.8510
3922.239000 0.8510 0.8510 0.8510 0.8510 0.8510
3930.236762 0.8510 0.8510 0.8500 0.8500 0.8490
3938.227000 0.8490 0.8480 0.8480 0.8480 0.8480
3946.224762 0.8480 0.8480 0.8480 0.8480 0.8490
3954.215000 0.8490 0.8500 0.8510 0.8510 0.8510
3962.212762 0.8510 0.8520 0.8520 0.8520 0.8520
3970.204000 0.8520 0.8520 0.8520 0.8520 0.8520
3978.201762 0.8520 0.8520 0.8520 0.8530 0.8530
3986.192000 0.8530 0.8530 0.8530 0.8530 0.8530
3994.189762 0.8520 0.8520 0.8510 0.8510 0.8510
4002.180000 0.8510 0.8500 0.8490 0.8480 0.8510
4010.177762 0.8510 0.8500 0.8480
##END=
