##TITLE=1,2-CYCLOHEXANEDIAMINE DIHYDROCHLORIDE, CIS
##JCAMP-DX=4.24
##DATA TYPE=INFRARED SPECTRUM
##CLASS=COBLENTZ III
##ORIGIN=DOW CHEMICAL COMPANY
##OWNER=COBLENTZ SOCIETY
Collection (C) 2018 copyright by the U.S. Secretary of Commerce
on behalf of the United States of America. All rights reserved.
##DATE=1968/07/02
##MOLFORM=C6 H16 Cl2 N2
##SOURCE REFERENCE=COBLENTZ NO. 10315
##$NIST ID=B6010315
##$NIST SOURCE=COBLENTZ
##$NIST IMAGE=cob10315
##SPECTROMETER/DATA SYSTEM=BECKMAN IR-9 (GRATING)
##INSTRUMENT PARAMETERS=ORDER CHANGES AT 670, 1200, 2000 CM^-^1
##STATE=SOLID (SPLIT MULL, FLUOROLUBE FOR 3800-1330 AND NUJOL FOR 1330-400 CM ^-^1)
##SAMPLING PROCEDURE=TRANSMISSION
##RESOLUTION=4
##DATA PROCESSING=DIGITIZED BY NIST FROM HARD COPY (FROM TWO SEGMENTS)
##XUNITS=1/CM
##YUNITS=TRANSMITTANCE
##XFACTOR=1.000000
##YFACTOR=1
##DELTAX=0.876681
##FIRSTX=402.688
##LASTX=3795.44
##FIRSTY=0.659
##MAXX=3795.44
##MINX=402.688
##MAXY=1.043
##MINY=0.017
##NPOINTS=3871
##XYDATA=(X++(Y..Y))
402.688000 0.6590 0.6580 0.6560 0.6560 0.6560
407.071406 0.6550 0.6550 0.6550 0.6550 0.6560
411.454813 0.6580 0.6620 0.6630 0.6660 0.6730
415.838219 0.6790 0.6850 0.6930 0.6960 0.7010
420.221626 0.7080 0.7110 0.7110 0.7180 0.7270
424.605032 0.7330 0.7420 0.7480 0.7530 0.7600
428.988439 0.7670 0.7750 0.7810 0.7860 0.7870
433.371845 0.7930 0.7940 0.7970 0.8000 0.8030
437.755252 0.8050 0.8070 0.8050 0.7980 0.7870
442.138658 0.7681 0.6933 0.6641 0.6441 0.6321
446.522065 0.6290 0.6290 0.6560 0.6780 0.7049
450.905471 0.7369 0.7440 0.7609 0.7958 0.8069
455.288878 0.8260 0.8370 0.8480 0.8540 0.8560
459.672284 0.8600 0.8650 0.8740 0.8760 0.8820
464.055691 0.8910 0.8960 0.9000 0.9020 0.9080
468.439097 0.9110 0.9130 0.9130 0.8961 0.8751
472.822504 0.8450 0.7701 0.6552 0.5772 0.4992
477.205910 0.4173 0.5545 0.5769 0.6009 0.7999
481.589317 0.8460 0.8760 0.9020 0.9259 0.9350
485.972723 0.9480 0.9560 0.9580 0.9610 0.9650
490.356130 0.9690 0.9720 0.9740 0.9760 0.9780
494.739536 0.9790 0.9790 0.9740 0.9670 0.9610
499.122943 0.9600 0.9710 0.9750 0.9790 0.9900
503.506349 1.0000 1.0020 1.0040 1.0040 1.0050
507.889756 1.0050 1.0050 1.0050 1.0040 1.0020
512.273162 1.0000 0.9751 0.9501 0.9311 0.9131
516.656569 0.8960 0.8780 0.8590 0.8590 0.9677
521.039975 0.9690 0.9750 0.9999 1.0020 1.0080
525.423382 1.0120 1.0150 1.0170 1.0210 1.0240
529.806788 1.0250 1.0250 1.0250 1.0250 1.0250
534.190195 1.0250 1.0250 1.0250 1.0250 1.0250
538.573601 1.0270 1.0310 1.0320 1.0340 1.0340
542.957008 1.0350 1.0350 1.0350 1.0350 1.0350
547.340414 1.0350 1.0350 1.0360 1.0360 1.0360
551.723821 1.0360 1.0350 1.0340 1.0310 1.0280
556.107227 1.0240 1.0230 1.0190 1.0091 1.0040
560.490633 1.0020 1.0040 1.0080 1.0120 1.0170
564.874040 1.0230 1.0240 1.0250 1.0270 1.0300
569.257446 1.0310 1.0320 1.0340 1.0350 1.0360
573.640853 1.0360 1.0380 1.0380 1.0390 1.0390
578.024259 1.0390 1.0410 1.0420 1.0420 1.0430
582.407666 1.0430 1.0430 1.0430 1.0430 1.0430
586.791072 1.0430 1.0420 1.0420 1.0410 1.0410
591.174479 1.0410 1.0410 1.0410 1.0410 1.0410
595.557885 1.0410 1.0410 1.0410 1.0410 1.0410
599.941292 1.0410 1.0410 1.0390 1.0390 1.0390
604.324698 1.0390 1.0390 1.0380 1.0360 1.0360
608.708105 1.0340 1.0340 1.0320 1.0310 1.0280
613.091511 1.0270 1.0250 1.0250 1.0240 1.0240
617.474918 1.0240 1.0240 1.0230 1.0230 1.0240
621.858324 1.0240 1.0230 1.0230 1.0200 1.0190
626.241731 1.0190 1.0170 1.0170 1.0150 1.0130
630.625137 1.0130 1.0120 1.0120 1.0100 1.0100
635.008544 1.0100 1.0090 1.0090 1.0090 1.0080
639.391950 1.0080 1.0080 1.0060 1.0060 1.0060
643.775357 1.0060 1.0050 1.0050 1.0040 1.0040
648.158763 1.0040 1.0020 1.0010 1.0000 1.0000
652.542170 1.0000 0.9980 0.9980 0.9970 0.9950
656.925576 0.9950 0.9930 0.9930 0.9930 0.9910
661.308983 0.9910 0.9910 0.9900 0.9890 0.9890
665.692389 0.9870 0.9870 0.9860 0.9840 0.9840
670.075796 0.9830 0.9820 0.9820 0.9800 0.9790
674.459202 0.9780 0.9760 0.9750 0.9740 0.9750
678.842609 0.9760 0.9790 0.9820 0.9820 0.9820
683.226015 0.9800 0.9800 0.9800 0.9800 0.9790
687.609422 0.9790 0.9790 0.9780 0.9780 0.9760
691.992828 0.9760 0.9760 0.9750 0.9750 0.9750
696.376235 0.9710 0.9710 0.9690 0.9670 0.9640
700.759641 0.9630 0.9610 0.9600 0.9580 0.9540
705.143048 0.9500 0.9490 0.9460 0.9460 0.9430
709.526454 0.9370 0.9320 0.9310 0.9260 0.9150
713.909861 0.9110 0.9010 0.8940 0.8860 0.8741
718.293267 0.8680 0.8490 0.8130 0.8040 0.7960
722.676673 0.7860 0.7810 0.7780 0.7780 0.7790
727.060080 0.7810 0.7830 0.7850 0.7860 0.7870
731.443486 0.7860 0.7810 0.7740 0.6973 0.6751
735.826893 0.6510 0.5850 0.5640 0.5430 0.5021
740.210299 0.4591 0.4590 0.6911 0.7119 0.7259
744.593706 0.7670 0.8080 0.8270 0.8420 0.8570
748.977112 0.8700 0.8800 0.8870 0.8900 0.8910
753.360519 0.8930 0.8960 0.8970 0.8980 0.9000
757.743925 0.9010 0.9040 0.9050 0.9050 0.9050
762.127332 0.9040 0.9010 0.8940 0.8910 0.8900
766.510738 0.8890 0.8900 0.8930 0.8970 0.9000
770.894145 0.9020 0.9020 0.9020 0.9010 0.9010
775.277551 0.9010 0.9010 0.9000 0.9000 0.9000
779.660958 0.8980 0.8980 0.8970 0.8960 0.8930
784.044364 0.8850 0.8740 0.8640 0.8600 0.8570
788.427771 0.8530 0.8290 0.7461 0.7091 0.6412
792.811177 0.5931 0.5452 0.5211 0.6225 0.7215
797.194584 0.7520 0.8229 0.8609 0.8670 0.9039
801.577990 0.9060 0.9120 0.9220 0.9260 0.9280
805.961397 0.9310 0.9310 0.9320 0.9350 0.9350
810.344803 0.9370 0.9370 0.9370 0.9380 0.9390
814.728210 0.9390 0.9390 0.9390 0.9390 0.9390
819.111616 0.9390 0.9380 0.9380 0.9380 0.9380
823.495023 0.9380 0.9380 0.9370 0.9350 0.9350
827.878429 0.9350 0.9340 0.9340 0.9320 0.9310
832.261836 0.9280 0.9280 0.9270 0.9260 0.9240
836.645242 0.9230 0.9230 0.9230 0.9220 0.9160
841.028649 0.9150 0.9120 0.9110 0.9060 0.9010
845.412055 0.8970 0.8930 0.8910 0.8900 0.8900
849.795462 0.8870 0.8850 0.8760 0.8560 0.8231
854.178868 0.7781 0.6992 0.6581 0.6580 0.7257
858.562275 0.7440 0.7490 0.8369 0.8700 0.8790
862.945681 0.8930 0.8960 0.8980 0.9020 0.9050
867.329088 0.9060 0.9080 0.9080 0.9110 0.9110
871.712494 0.9110 0.9110 0.9110 0.9110 0.9110
876.095900 0.9110 0.9080 0.9080 0.9040 0.9010
880.479307 0.8930 0.8900 0.8780 0.8720 0.8710
884.862713 0.8700 0.8680 0.8640 0.8610 0.8610
889.246120 0.8670 0.8740 0.8750 0.8760 0.8780
893.629526 0.8780 0.8790 0.8820 0.8830 0.8860
898.012933 0.8870 0.8890 0.8890 0.8890 0.8900
902.396339 0.8900 0.8900 0.8900 0.8890 0.8870
906.779746 0.8860 0.8860 0.8850 0.8820 0.8780
911.163152 0.8740 0.8710 0.8670 0.8610 0.8560
915.546559 0.8490 0.8390 0.8350 0.8350 0.8330
919.929965 0.8300 0.8180 0.8120 0.7980 0.7770
924.313372 0.7441 0.7271 0.7230 0.7111 0.6931
928.696778 0.6380 0.5820 0.5281 0.4731 0.4361
933.080185 0.3951 0.3541 0.3132 0.3130 0.3289
937.463591 0.3470 0.3650 0.3830 0.4469 0.4729
941.846998 0.5029 0.5060 0.5020 0.4333 0.3514
946.230404 0.2500 0.2200 0.2200 0.2839 0.3579
950.613811 0.6254 0.6669 0.7079 0.7419 0.7749
954.997217 0.7960 0.8120 0.8220 0.8310 0.8350
959.380624 0.8420 0.8460 0.8500 0.8500 0.8500
963.764030 0.8520 0.8520 0.8520 0.8520 0.8520
968.147437 0.8500 0.8500 0.8500 0.8490 0.8480
972.530843 0.8460 0.8450 0.8440 0.8410 0.8390
976.914250 0.8390 0.8380 0.8380 0.8370 0.8340
981.297656 0.8330 0.8310 0.8230 0.8190 0.8120
985.681063 0.7980 0.7671 0.7291 0.6862 0.6661
990.064469 0.6410 0.6410 0.6440 0.6560 0.6670
994.447876 0.6860 0.7079 0.7150 0.7150 0.7040
998.831282 0.6830 0.6490 0.6320 0.6320 0.6849
1003.214689 0.7259 0.7549 0.7739 0.7860 0.7940
1007.598095 0.7980 0.8040 0.8080 0.8110 0.8120
1011.981502 0.8120 0.8070 0.8030 0.7960 0.7821
1016.364908 0.7670 0.7570 0.7350 0.7011 0.6661
1020.748315 0.6261 0.6120 0.5901 0.5771 0.5670
1025.131721 0.5660 0.5670 0.5690 0.5670 0.5630
1029.515127 0.5490 0.5360 0.5260 0.5250 0.5170
1033.898534 0.4810 0.4300 0.3620 0.2941 0.2461
1038.281940 0.2460 0.3158 0.3280 0.3728 0.5691
1042.665347 0.6030 0.6340 0.6440 0.6440 0.6011
1047.048753 0.5880 0.5880 0.6159 0.6399 0.6549
1051.432160 0.6770 0.7070 0.7440 0.7710 0.7920
1055.815566 0.8030 0.8120 0.8160 0.8200 0.8230
1060.198973 0.8270 0.8290 0.8290 0.8260 0.8240
1064.582379 0.8220 0.8220 0.8200 0.8200 0.8200
1068.965786 0.8190 0.8190 0.8160 0.8110 0.7960
1073.349192 0.7511 0.7271 0.6882 0.6372 0.6231
1077.732599 0.6230 0.6490 0.6860 0.7290 0.7300
1082.116005 0.7300 0.7310 0.7350 0.7509 0.7610
1086.499412 0.7630 0.7630 0.7600 0.7590 0.7600
1090.882818 0.7670 0.7770 0.7810 0.7820 0.7830
1095.266225 0.7820 0.7750 0.7570 0.7380 0.7081
1099.649631 0.6821 0.6700 0.6511 0.6450 0.6440
1104.033038 0.6470 0.6620 0.6790 0.7050 0.7190
1108.416444 0.7220 0.7340 0.7420 0.7440 0.7450
1112.799851 0.7460 0.7480 0.7480 0.7460 0.7440
1117.183257 0.7410 0.7370 0.7250 0.7150 0.7041
1121.566664 0.6930 0.6810 0.6680 0.6440 0.6330
1125.950070 0.6190 0.6010 0.5811 0.5591 0.5371
1130.333477 0.4990 0.4590 0.4030 0.3620 0.3091
1134.716883 0.2621 0.2431 0.2141 0.1861 0.1571
1139.100290 0.1280 0.1010 0.1010 0.1360 0.1809
1143.483696 0.2199 0.3237 0.3957 0.4617 0.5516
1147.867103 0.5970 0.6340 0.6590 0.6810 0.7050
1152.250509 0.7090 0.7230 0.7300 0.7380 0.7410
1156.633916 0.7440 0.7510 0.7530 0.7570 0.7600
1161.017322 0.7610 0.7610 0.7630 0.7630 0.7630
1165.400729 0.7610 0.7600 0.7590 0.7570 0.7520
1169.784135 0.7490 0.7440 0.7410 0.7400 0.7340
1174.167542 0.7300 0.7260 0.7180 0.7030 0.6900
1178.550948 0.6900 0.6960 0.7070 0.7080 0.7120
1182.934354 0.7160 0.7200 0.7230 0.7200 0.7150
1187.317761 0.6921 0.6671 0.6620 0.6620 0.6700
1191.701167 0.6850 0.7000 0.7080 0.7120 0.7180
1196.084574 0.7200 0.7230 0.7230 0.7220 0.7220
1200.467980 0.7200 0.7190 0.7180 0.7180 0.7160
1204.851387 0.7120 0.7080 0.6931 0.6900 0.6900
1209.234793 0.6830 0.6590 0.6580 0.6580 0.6580
1213.618200 0.6590 0.6640 0.6780 0.6929 0.7000
1218.001606 0.7050 0.7110 0.7160 0.7260 0.7290
1222.385013 0.7330 0.7350 0.7400 0.7410 0.7420
1226.768419 0.7420 0.7420 0.7400 0.7370 0.7340
1231.151826 0.7290 0.7260 0.7180 0.7110 0.7070
1235.535232 0.6960 0.6830 0.6680 0.6580 0.6111
1239.918639 0.5731 0.5521 0.5301 0.5031 0.4821
1244.302045 0.4410 0.3830 0.3021 0.2830 0.2810
1248.685452 0.3438 0.4477 0.5616 0.6148 0.6449
1253.068858 0.6620 0.6790 0.6920 0.6960 0.7050
1257.452265 0.7070 0.7080 0.7080 0.7110 0.7110
1261.835671 0.7140 0.7190 0.7250 0.7270 0.7310
1266.219078 0.7340 0.7350 0.7350 0.7350 0.7340
1270.602484 0.7330 0.7300 0.7270 0.7260 0.7260
1274.985891 0.7250 0.7230 0.7150 0.7120 0.7040
1279.369297 0.6940 0.6890 0.6820 0.6770 0.6750
1283.752704 0.6770 0.6810 0.6920 0.6960 0.7000
1288.136110 0.7040 0.7070 0.7080 0.7090 0.7090
1292.519517 0.7090 0.7080 0.7070 0.6990 0.6930
1296.902923 0.6900 0.6890 0.6880 0.6850 0.6850
1301.286330 0.6830 0.6820 0.6780 0.6670 0.6600
1305.669736 0.6470 0.6380 0.6320 0.6300 0.6180
1310.053143 0.6110 0.6010 0.5990 0.5771 0.5660
1314.436549 0.5620 0.5600 0.5540 0.5510 0.5480
1318.819956 0.5470 0.5879 0.6189 0.6329 0.6440
1323.203362 0.6480 0.6520 0.6550 0.6550 0.6520
1327.586769 0.6510 0.6470 0.5643 0.4823 0.4711
1331.970175 0.4690 0.4690 0.4730 0.4810 0.4970
1336.353582 0.5140 0.5150 0.5170 0.5180 0.5190
1340.736988 0.5190 0.5210 0.5230 0.5260 0.5300
1345.120394 0.5330 0.5360 0.5360 0.5360 0.5360
1349.503801 0.5330 0.5300 0.5290 0.5250 0.5230
1353.887207 0.5180 0.5170 0.5180 0.5190 0.5220
1358.270614 0.5260 0.5290 0.5320 0.5320 0.5300
1362.654020 0.5290 0.5290 0.5290 0.5280 0.5260
1367.037427 0.5220 0.5180 0.5170 0.5140 0.5070
1371.420833 0.5060 0.5070 0.5080 0.5100 0.5110
1375.804240 0.5120 0.5150 0.5170 0.5180 0.5190
1380.187646 0.5180 0.5150 0.5110 0.5040 0.5020
1384.571053 0.4970 0.4890 0.4810 0.4730 0.4620
1388.954459 0.4450 0.3891 0.3591 0.3361 0.3240
1393.337866 0.3220 0.3240 0.3540 0.4030 0.4390
1397.721272 0.4580 0.4580 0.4410 0.4091 0.3731
1402.104679 0.3730 0.4100 0.4480 0.4840 0.5699
1406.488085 0.5770 0.5860 0.5880 0.5890 0.5900
1410.871492 0.5900 0.5900 0.5900 0.5900 0.5890
1415.254898 0.5880 0.5860 0.5860 0.5840 0.5820
1419.638305 0.5800 0.5770 0.5750 0.5740 0.5740
1424.021711 0.5690 0.5630 0.5620 0.5600 0.5520
1428.405118 0.5510 0.5470 0.5430 0.5370 0.5340
1432.788524 0.5300 0.5250 0.5150 0.5070 0.5020
1437.171931 0.5000 0.4990 0.4930 0.4880 0.4850
1441.555337 0.4800 0.4780 0.4780 0.4780 0.4780
1445.938744 0.4780 0.4780 0.4760 0.4700 0.4540
1450.322150 0.4390 0.4151 0.3951 0.3930 0.3950
1454.705557 0.3980 0.4100 0.4130 0.4130 0.4090
1459.088963 0.4030 0.3930 0.3621 0.3351 0.3310
1463.472370 0.3180 0.3050 0.2950 0.2830 0.2700
1467.855776 0.2570 0.2540 0.2510 0.2460 0.2221
1472.239183 0.2120 0.2070 0.2010 0.1810 0.1660
1476.622589 0.1550 0.1341 0.1191 0.1051 0.1050
1481.005996 0.1390 0.1460 0.1470 0.1470 0.1450
1485.389402 0.1430 0.1450 0.1839 0.2697 0.3069
1489.772809 0.3840 0.4040 0.4250 0.4260 0.4260
1494.156215 0.4250 0.4021 0.3541 0.3241 0.3111
1498.539621 0.2840 0.2440 0.2140 0.1920 0.1750
1502.923028 0.1610 0.1490 0.1231 0.1061 0.0980
1507.306434 0.0880 0.0840 0.0830 0.0820 0.0820
1511.689841 0.1089 0.1688 0.2178 0.2638 0.3058
1516.073247 0.3620 0.4020 0.4330 0.4590 0.4889
1520.456654 0.5279 0.5519 0.5600 0.5700 0.5770
1524.840060 0.5780 0.5800 0.5770 0.5690 0.5560
1529.223467 0.5440 0.4971 0.4741 0.4620 0.4580
1533.606873 0.4590 0.4740 0.4960 0.5510 0.5600
1537.990280 0.5620 0.5620 0.5600 0.5580 0.5560
1542.373686 0.5540 0.5490 0.5490 0.5480 0.5430
1546.757093 0.5380 0.5360 0.5340 0.5250 0.5121
1551.140499 0.4930 0.4810 0.4690 0.4430 0.4220
1555.523906 0.4090 0.4000 0.3721 0.3521 0.3391
1559.907312 0.3280 0.3130 0.2900 0.2510 0.2120
1564.290719 0.1910 0.1900 0.1910 0.2139 0.2469
1568.674125 0.2851 0.3621 0.4360 0.5889 0.6230
1573.057532 0.6530 0.6740 0.6930 0.7030 0.7090
1577.440938 0.7150 0.7190 0.7220 0.7220 0.7180
1581.824345 0.7090 0.6940 0.6790 0.6700 0.6600
1586.207751 0.6400 0.6210 0.6040 0.5850 0.5640
1590.591158 0.5510 0.5360 0.5230 0.5001 0.4781
1594.974564 0.4450 0.4180 0.3960 0.3770 0.3620
1599.357971 0.3480 0.3350 0.3290 0.3280 0.3290
1603.741377 0.3400 0.3500 0.3570 0.3610 0.3630
1608.124784 0.3610 0.3500 0.3310 0.3131 0.3100
1612.508190 0.3160 0.3350 0.3460 0.3520 0.3550
1616.891597 0.3570 0.3670 0.3850 0.4279 0.4888
1621.275003 0.5320 0.5540 0.5770 0.6100 0.6530
1625.658410 0.6959 0.7349 0.7739 0.8049 0.8538
1630.041816 0.8830 0.9110 0.9150 0.9230 0.9280
1634.425223 0.9340 0.9350 0.9380 0.9410 0.9420
1638.808629 0.9430 0.9460 0.9490 0.9500 0.9500
1643.192036 0.9500 0.9500 0.9490 0.9460 0.9450
1647.575442 0.9430 0.9420 0.9390 0.9370 0.9340
1651.958848 0.9320 0.9270 0.9240 0.9230 0.9230
1656.342255 0.9230 0.9230 0.9230 0.9230 0.9200
1660.725661 0.9200 0.9200 0.9190 0.9170 0.9150
1665.109068 0.9130 0.9130 0.9120 0.9120 0.9090
1669.492474 0.9060 0.9050 0.9040 0.9010 0.9000
1673.875881 0.8980 0.8970 0.8940 0.8940 0.8930
1678.259287 0.8900 0.8850 0.8790 0.8740 0.8720
1682.642694 0.8710 0.8700 0.8670 0.8670 0.8650
1687.026100 0.8640 0.8630 0.8610 0.8590 0.8560
1691.409507 0.8540 0.8520 0.8500 0.8500 0.8460
1695.792913 0.8450 0.8440 0.8420 0.8410 0.8370
1700.176320 0.8350 0.8330 0.8330 0.8310 0.8290
1704.559726 0.8240 0.8200 0.8190 0.8160 0.8150
1708.943133 0.8150 0.8120 0.8090 0.8090 0.8080
1713.326539 0.8080 0.8070 0.8070 0.8070 0.8070
1717.709946 0.8070 0.8050 0.8050 0.8050 0.8070
1722.093352 0.8070 0.8070 0.8050 0.8050 0.8040
1726.476759 0.8030 0.8010 0.8000 0.8000 0.7970
1730.860165 0.7960 0.7940 0.7940 0.7940 0.7940
1735.243572 0.7940 0.7940 0.7930 0.7930 0.7900
1739.626978 0.7890 0.7870 0.7870 0.7860 0.7850
1744.010385 0.7850 0.7830 0.7830 0.7830 0.7820
1748.393791 0.7820 0.7820 0.7820 0.7810 0.7810
1752.777198 0.7810 0.7790 0.7780 0.7770 0.7750
1757.160604 0.7720 0.7710 0.7710 0.7700 0.7700
1761.544011 0.7700 0.7700 0.7700 0.7680 0.7680
1765.927417 0.7670 0.7660 0.7640 0.7640 0.7610
1770.310824 0.7600 0.7590 0.7590 0.7570 0.7530
1774.694230 0.7520 0.7510 0.7510 0.7490 0.7490
1779.077637 0.7450 0.7420 0.7410 0.7370 0.7350
1783.461043 0.7350 0.7340 0.7330 0.7310 0.7300
1787.844450 0.7300 0.7270 0.7270 0.7260 0.7250
1792.227856 0.7230 0.7230 0.7230 0.7230 0.7230
1796.611263 0.7220 0.7220 0.7200 0.7180 0.7160
1800.994669 0.7150 0.7140 0.7140 0.7120 0.7110
1805.378075 0.7110 0.7090 0.7090 0.7090 0.7090
1809.761482 0.7090 0.7070 0.7050 0.7040 0.7030
1814.144888 0.7010 0.7000 0.7000 0.7000 0.7000
1818.528295 0.7000 0.7000 0.6970 0.6960 0.6940
1822.911701 0.6930 0.6920 0.6900 0.6900 0.6900
1827.295108 0.6880 0.6860 0.6830 0.6810 0.6780
1831.678514 0.6780 0.6770 0.6750 0.6750 0.6700
1836.061921 0.6680 0.6670 0.6660 0.6640 0.6630
1840.445327 0.6620 0.6590 0.6580 0.6560 0.6530
1844.828734 0.6520 0.6510 0.6510 0.6490 0.6480
1849.212140 0.6470 0.6450 0.6440 0.6410 0.6400
1853.595547 0.6400 0.6380 0.6370 0.6340 0.6330
1857.978953 0.6320 0.6320 0.6290 0.6250 0.6230
1862.362360 0.6220 0.6190 0.6180 0.6160 0.6150
1866.745766 0.6110 0.6100 0.6080 0.6070 0.6060
1871.129173 0.6040 0.6030 0.6030 0.6010 0.5970
1875.512579 0.5960 0.5950 0.5950 0.5930 0.5930
1879.895986 0.5920 0.5900 0.5890 0.5890 0.5880
1884.279392 0.5880 0.5880 0.5880 0.5860 0.5860
1888.662799 0.5860 0.5850 0.5850 0.5840 0.5820
1893.046205 0.5820 0.5810 0.5780 0.5770 0.5770
1897.429612 0.5750 0.5750 0.5750 0.5750 0.5750
1901.813018 0.5750 0.5750 0.5750 0.5740 0.5740
1906.196425 0.5740 0.5740 0.5750 0.5740 0.5740
1910.579831 0.5740 0.5730 0.5730 0.5710 0.5700
1914.963238 0.5690 0.5660 0.5640 0.5630 0.5630
1919.346644 0.5630 0.5620 0.5590 0.5540 0.5520
1923.730051 0.5510 0.5490 0.5490 0.5480 0.5480
1928.113457 0.5480 0.5480 0.5480 0.5470 0.5450
1932.496864 0.5430 0.5430 0.5430 0.5410 0.5410
1936.880270 0.5410 0.5410 0.5410 0.5410 0.5410
1941.263677 0.5400 0.5400 0.5400 0.5400 0.5400
1945.647083 0.5400 0.5380 0.5380 0.5380 0.5380
1950.030490 0.5400 0.5400 0.5380 0.5380 0.5380
1954.413896 0.5370 0.5370 0.5360 0.5360 0.5340
1958.797303 0.5340 0.5330 0.5330 0.5320 0.5300
1963.180709 0.5300 0.5290 0.5280 0.5260 0.5250
1967.564115 0.5230 0.5230 0.5230 0.5230 0.5230
1971.947522 0.5250 0.5250 0.5250 0.5250 0.5250
1976.330928 0.5250 0.5260 0.5260 0.5260 0.5250
1980.714335 0.5250 0.5250 0.5230 0.5230 0.5230
1985.097741 0.5220 0.5220 0.5210 0.5190 0.5170
1989.481148 0.5150 0.5140 0.5140 0.5120 0.5120
1993.864554 0.5110 0.5110 0.5110 0.5080 0.5030
1998.247961 0.5000 0.4970 0.4960 0.4960 0.4960
2002.631367 0.4955 0.4950 0.4940 0.4930 0.4925
2007.014774 0.4920 0.4920 0.4920 0.4915 0.4910
2011.398180 0.4910 0.4910 0.4900 0.4890 0.4890
2015.781587 0.4890 0.4870 0.4850 0.4825 0.4800
2020.164993 0.4780 0.4759 0.4729 0.4700 0.4680
2024.548400 0.4660 0.4655 0.4649 0.4619 0.4589
2028.931806 0.4549 0.4509 0.4454 0.4399 0.4329
2033.315213 0.4259 0.4203 0.4149 0.4109 0.4069
2037.698619 0.4049 0.4027 0.3952 0.3880 0.3875
2042.082026 0.3870 0.3870 0.3870 0.3880 0.3891
2046.465432 0.3921 0.3951 0.3991 0.4031 0.4061
2050.848839 0.4093 0.4189 0.4285 0.4385 0.4484
2055.232245 0.4559 0.4635 0.4730 0.4825 0.4910
2059.615652 0.4993 0.5058 0.5121 0.5131 0.5140
2063.999058 0.5140 0.5140 0.5145 0.5151 0.5161
2068.382465 0.5170 0.5175 0.5180 0.5180 0.5180
2072.765871 0.5175 0.5169 0.5159 0.5150 0.5150
2077.149278 0.5150 0.5145 0.5139 0.5129 0.5119
2081.532684 0.5109 0.5099 0.5089 0.5080 0.5080
2085.916091 0.5080 0.5075 0.5070 0.5070 0.5070
2090.299497 0.5075 0.5082 0.5102 0.5121 0.5131
2094.682904 0.5140 0.5140 0.5140 0.5145 0.5151
2099.066310 0.5161 0.5170 0.5170 0.5170 0.5175
2103.449717 0.5180 0.5180 0.5180 0.5180 0.5180
2107.833123 0.5180 0.5179 0.5174 0.5170 0.5170
2112.216530 0.5169 0.5159 0.5149 0.5144 0.5140
2116.599936 0.5140 0.5139 0.5129 0.5119 0.5114
2120.983342 0.5108 0.5088 0.5068 0.5053 0.5039
2125.366749 0.5034 0.5030 0.5030 0.5030 0.5030
2129.750155 0.5029 0.5024 0.5020 0.5020 0.5020
2134.133562 0.5020 0.5020 0.5020 0.5019 0.5009
2138.516968 0.5000 0.5000 0.5000 0.5000 0.4999
2142.900375 0.4994 0.4990 0.4990 0.4989 0.4979
2147.283781 0.4969 0.4959 0.4949 0.4939 0.4929
2151.667188 0.4924 0.4918 0.4903 0.4890 0.4890
2156.050594 0.4889 0.4884 0.4875 0.4845 0.4819
2160.434001 0.4814 0.4809 0.4804 0.4798 0.4788
2164.817407 0.4779 0.4774 0.4769 0.4764 0.4758
2169.200814 0.4748 0.4738 0.4723 0.4709 0.4704
2173.584220 0.4699 0.4694 0.4688 0.4678 0.4670
2177.967627 0.4670 0.4669 0.4664 0.4654 0.4619
2182.351033 0.4590 0.4590 0.4589 0.4584 0.4578
2186.734440 0.4568 0.4556 0.4531 0.4507 0.4492
2191.117846 0.4479 0.4474 0.4470 0.4470 0.4468
2195.501253 0.4458 0.4448 0.4438 0.4427 0.4412
2199.884659 0.4397 0.4382 0.4368 0.4358 0.4348
2204.268066 0.4338 0.4330 0.4330 0.4329 0.4324
2208.651472 0.4318 0.4308 0.4298 0.4288 0.4278
2213.034879 0.4268 0.4259 0.4254 0.4249 0.4244
2217.418285 0.4238 0.4228 0.4216 0.4196 0.4177
2221.801692 0.4162 0.4148 0.4138 0.4127 0.4112
2226.185098 0.4099 0.4094 0.4087 0.4072 0.4052
2230.568505 0.4017 0.3983 0.3953 0.3928 0.3918
2234.951911 0.3908 0.3898 0.3890 0.3890 0.3889
2239.335318 0.3884 0.3874 0.3849 0.3827 0.3812
2243.718724 0.3800 0.3800 0.3796 0.3781 0.3766
2248.102131 0.3751 0.3739 0.3734 0.3726 0.3711
2252.485537 0.3699 0.3694 0.3688 0.3678 0.3669
2256.868944 0.3664 0.3659 0.3654 0.3648 0.3638
2261.252350 0.3629 0.3624 0.3616 0.3601 0.3587
2265.635757 0.3577 0.3563 0.3538 0.3515 0.3495
2270.019163 0.3477 0.3467 0.3456 0.3441 0.3426
2274.402569 0.3411 0.3396 0.3381 0.3369 0.3364
2278.785976 0.3359 0.3354 0.3347 0.3337 0.3329
2283.169382 0.3324 0.3319 0.3314 0.3307 0.3297
2287.552789 0.3289 0.3284 0.3276 0.3261 0.3246
2291.936195 0.3231 0.3220 0.3220 0.3217 0.3207
2296.319602 0.3200 0.3200 0.3197 0.3187 0.3179
2300.703008 0.3174 0.3166 0.3151 0.3139 0.3134
2305.086415 0.3127 0.3117 0.3110 0.3110 0.3107
2309.469821 0.3097 0.3087 0.3077 0.3069 0.3064
2313.853228 0.3058 0.3053 0.3047 0.3037 0.3030
2318.236634 0.3030 0.3028 0.3023 0.3020 0.3020
2322.620041 0.3017 0.3007 0.3000 0.3000 0.2998
2327.003447 0.2993 0.2988 0.2983 0.2980 0.2980
2331.386854 0.2977 0.2967 0.2960 0.2960 0.2958
2335.770260 0.2953 0.2950 0.2950 0.2948 0.2943
2340.153667 0.2940 0.2940 0.2937 0.2927 0.2920
2344.537073 0.2920 0.2920 0.2920 0.2918 0.2913
2348.920480 0.2910 0.2910 0.2910 0.2910 0.2908
2353.303886 0.2903 0.2900 0.2900 0.2900 0.2900
2357.687293 0.2896 0.2886 0.2875 0.2860 0.2850
2362.070699 0.2850 0.2850 0.2850 0.2848 0.2843
2366.454106 0.2840 0.2840 0.2840 0.2840 0.2840
2370.837512 0.2840 0.2840 0.2840 0.2838 0.2833
2375.220919 0.2830 0.2830 0.2830 0.2830 0.2824
2379.604325 0.2809 0.2793 0.2773 0.2747 0.2712
2383.987732 0.2684 0.2669 0.2656 0.2646 0.2636
2388.371138 0.2626 0.2606 0.2571 0.2536 0.2501
2392.754545 0.2472 0.2452 0.2432 0.2412 0.2396
2397.137951 0.2386 0.2374 0.2359 0.2344 0.2329
2401.521358 0.2312 0.2292 0.2272 0.2252 0.2240
2405.904764 0.2240 0.2232 0.2212 0.2188 0.2158
2410.288171 0.2130 0.2105 0.2082 0.2062 0.2046
2414.671577 0.2036 0.2028 0.2023 0.2014 0.1999
2419.054984 0.1984 0.1969 0.1956 0.1946 0.1936
2423.438390 0.1926 0.1918 0.1913 0.1910 0.1910
2427.821797 0.1910 0.1910 0.1912 0.1917 0.1920
2432.205203 0.1920 0.1920 0.1920 0.1920 0.1920
2436.588609 0.1920 0.1920 0.1920 0.1920 0.1918
2440.972016 0.1913 0.1908 0.1903 0.1893 0.1878
2445.355422 0.1863 0.1848 0.1833 0.1818 0.1806
2449.738829 0.1796 0.1783 0.1768 0.1758 0.1753
2454.122235 0.1746 0.1735 0.1723 0.1708 0.1700
2458.505642 0.1700 0.1698 0.1693 0.1690 0.1690
2462.889048 0.1688 0.1683 0.1680 0.1680 0.1675
2467.272455 0.1665 0.1660 0.1660 0.1658 0.1653
2471.655861 0.1650 0.1650 0.1648 0.1643 0.1635
2476.039268 0.1625 0.1618 0.1613 0.1608 0.1603
2480.422674 0.1595 0.1585 0.1578 0.1573 0.1565
2484.806081 0.1555 0.1545 0.1535 0.1525 0.1515
2489.189487 0.1508 0.1503 0.1498 0.1493 0.1475
2493.572894 0.1445 0.1413 0.1378 0.1350 0.1330
2497.956300 0.1308 0.1283 0.1263 0.1248 0.1230
2502.339707 0.1210 0.1193 0.1178 0.1163 0.1148
2506.723113 0.1140 0.1140 0.1137 0.1132 0.1130
2511.106520 0.1130 0.1127 0.1122 0.1120 0.1120
2515.489926 0.1120 0.1120 0.1115 0.1105 0.1097
2519.873333 0.1092 0.1075 0.1045 0.1025 0.1015
2524.256739 0.1002 0.0987 0.0980 0.0980 0.0977
2528.640146 0.0972 0.0959 0.0939 0.0914 0.0884
2533.023552 0.0867 0.0862 0.0860 0.0860 0.0855
2537.406959 0.0845 0.0840 0.0840 0.0840 0.0840
2541.790365 0.0845 0.0855 0.0863 0.0868 0.0870
2546.173772 0.0870 0.0873 0.0878 0.0880 0.0880
2550.557178 0.0880 0.0880 0.0880 0.0880 0.0877
2554.940585 0.0872 0.0870 0.0870 0.0870 0.0870
2559.323991 0.0870 0.0870 0.0870 0.0870 0.0870
2563.707398 0.0870 0.0873 0.0878 0.0880 0.0880
2568.090804 0.0888 0.0903 0.0916 0.0926 0.0933
2572.474211 0.0938 0.0948 0.0963 0.0970 0.0970
2576.857617 0.0970 0.0970 0.0964 0.0954 0.0944
2581.241024 0.0934 0.0921 0.0906 0.0888 0.0868
2585.624430 0.0860 0.0860 0.0854 0.0844 0.0837
2590.007836 0.0832 0.0827 0.0822 0.0820 0.0820
2594.391243 0.0814 0.0804 0.0797 0.0792 0.0784
2598.774649 0.0774 0.0755 0.0730 0.0711 0.0696
2603.158056 0.0690 0.0690 0.0690 0.0690 0.0690
2607.541462 0.0690 0.0690 0.0690 0.0696 0.0706
2611.924869 0.0710 0.0710 0.0704 0.0694 0.0690
2616.308275 0.0690 0.0690 0.0690 0.0690 0.0690
2620.691682 0.0690 0.0690 0.0690 0.0690 0.0690
2625.075088 0.0690 0.0690 0.0690 0.0690 0.0690
2629.458495 0.0690 0.0690 0.0690 0.0690 0.0690
2633.841901 0.0690 0.0690 0.0690 0.0690 0.0690
2638.225308 0.0690 0.0690 0.0690 0.0690 0.0687
2642.608714 0.0682 0.0677 0.0672 0.0664 0.0654
2646.992121 0.0647 0.0642 0.0640 0.0640 0.0640
2651.375527 0.0640 0.0640 0.0640 0.0633 0.0624
2655.758934 0.0620 0.0620 0.0620 0.0620 0.0620
2660.142340 0.0620 0.0626 0.0636 0.0640 0.0640
2664.525747 0.0633 0.0623 0.0620 0.0620 0.0620
2668.909153 0.0620 0.0620 0.0620 0.0620 0.0620
2673.292560 0.0617 0.0612 0.0610 0.0610 0.0610
2677.675966 0.0610 0.0610 0.0610 0.0607 0.0602
2682.059373 0.0587 0.0566 0.0553 0.0543 0.0537
2686.442779 0.0532 0.0530 0.0530 0.0523 0.0513
2690.826186 0.0507 0.0502 0.0500 0.0500 0.0497
2695.209592 0.0492 0.0483 0.0473 0.0470 0.0470
2699.592999 0.0470 0.0470 0.0470 0.0470 0.0470
2703.976405 0.0470 0.0470 0.0470 0.0470 0.0470
2708.359812 0.0466 0.0461 0.0460 0.0460 0.0449
2712.743218 0.0434 0.0426 0.0421 0.0416 0.0411
2717.126625 0.0403 0.0393 0.0390 0.0390 0.0390
2721.510031 0.0390 0.0386 0.0381 0.0373 0.0363
2725.893438 0.0360 0.0360 0.0356 0.0351 0.0350
2730.276844 0.0350 0.0346 0.0341 0.0340 0.0340
2734.660251 0.0340 0.0340 0.0340 0.0340 0.0340
2739.043657 0.0340 0.0340 0.0340 0.0340 0.0340
2743.427063 0.0340 0.0340 0.0340 0.0340 0.0340
2747.810470 0.0340 0.0340 0.0340 0.0340 0.0340
2752.193876 0.0333 0.0322 0.0320 0.0320 0.0320
2756.577283 0.0320 0.0320 0.0320 0.0320 0.0320
2760.960689 0.0320 0.0320 0.0320 0.0320 0.0320
2765.344096 0.0320 0.0320 0.0320 0.0316 0.0311
2769.727502 0.0310 0.0310 0.0310 0.0310 0.0310
2774.110909 0.0310 0.0306 0.0301 0.0300 0.0300
2778.494315 0.0300 0.0300 0.0300 0.0300 0.0292
2782.877722 0.0282 0.0280 0.0280 0.0280 0.0280
2787.261128 0.0288 0.0298 0.0292 0.0282 0.0276
2791.644535 0.0271 0.0270 0.0270 0.0270 0.0270
2796.027941 0.0270 0.0270 0.0262 0.0252 0.0250
2800.411348 0.0250 0.0250 0.0250 0.0250 0.0250
2804.794754 0.0250 0.0250 0.0246 0.0241 0.0240
2809.178161 0.0240 0.0240 0.0240 0.0240 0.0240
2813.561567 0.0240 0.0240 0.0240 0.0240 0.0240
2817.944974 0.0240 0.0240 0.0240 0.0240 0.0240
2822.328380 0.0236 0.0231 0.0230 0.0230 0.0230
2826.711787 0.0230 0.0230 0.0230 0.0222 0.0212
2831.095193 0.0210 0.0210 0.0210 0.0210 0.0206
2835.478600 0.0201 0.0200 0.0200 0.0200 0.0200
2839.862006 0.0196 0.0191 0.0190 0.0190 0.0190
2844.245413 0.0190 0.0190 0.0190 0.0182 0.0172
2848.628819 0.0170 0.0170 0.0170 0.0170 0.0170
2853.012226 0.0170 0.0170 0.0170 0.0170 0.0170
2857.395632 0.0170 0.0170 0.0170 0.0170 0.0170
2861.779039 0.0170 0.0179 0.0189 0.0190 0.0190
2866.162445 0.0181 0.0171 0.0170 0.0170 0.0170
2870.545852 0.0170 0.0170 0.0170 0.0170 0.0170
2874.929258 0.0170 0.0170 0.0170 0.0170 0.0170
2879.312665 0.0170 0.0170 0.0170 0.0179 0.0189
2883.696071 0.0190 0.0190 0.0190 0.0190 0.0190
2888.079478 0.0190 0.0190 0.0190 0.0190 0.0190
2892.462884 0.0190 0.0190 0.0190 0.0190 0.0190
2896.846290 0.0190 0.0190 0.0190 0.0190 0.0190
2901.229697 0.0190 0.0190 0.0194 0.0199 0.0200
2905.613103 0.0200 0.0200 0.0200 0.0200 0.0200
2909.996510 0.0200 0.0200 0.0200 0.0200 0.0200
2914.379916 0.0200 0.0205 0.0210 0.0210 0.0210
2918.763323 0.0210 0.0210 0.0210 0.0210 0.0210
2923.146729 0.0210 0.0210 0.0210 0.0210 0.0210
2927.530136 0.0210 0.0210 0.0210 0.0210 0.0210
2931.913542 0.0210 0.0210 0.0210 0.0210 0.0210
2936.296949 0.0210 0.0210 0.0219 0.0229 0.0230
2940.680355 0.0230 0.0235 0.0240 0.0240 0.0240
2945.063762 0.0240 0.0240 0.0245 0.0250 0.0259
2949.447168 0.0269 0.0270 0.0270 0.0275 0.0280
2953.830575 0.0294 0.0309 0.0310 0.0310 0.0310
2958.213981 0.0310 0.0310 0.0310 0.0310 0.0310
2962.597388 0.0310 0.0310 0.0305 0.0300 0.0300
2966.980794 0.0300 0.0300 0.0300 0.0305 0.0310
2971.364201 0.0310 0.0310 0.0315 0.0320 0.0320
2975.747607 0.0320 0.0320 0.0320 0.0320 0.0320
2980.131014 0.0320 0.0320 0.0315 0.0310 0.0310
2984.514420 0.0310 0.0315 0.0320 0.0320 0.0320
2988.897827 0.0320 0.0320 0.0330 0.0340 0.0340
2993.281233 0.0340 0.0345 0.0350 0.0355 0.0360
2997.664640 0.0370 0.0380 0.0385 0.0390 0.0390
3002.048046 0.0390 0.0400 0.0410 0.0410 0.0410
3006.431453 0.0410 0.0410 0.0410 0.0410 0.0415
3010.814859 0.0420 0.0420 0.0420 0.0420 0.0420
3015.198266 0.0420 0.0420 0.0425 0.0430 0.0445
3019.581672 0.0460 0.0475 0.0490 0.0495 0.0500
3023.965079 0.0505 0.0510 0.0510 0.0510 0.0510
3028.348485 0.0510 0.0520 0.0530 0.0545 0.0560
3032.731892 0.0581 0.0600 0.0605 0.0610 0.0610
3037.115298 0.0610 0.0615 0.0621 0.0636 0.0651
3041.498705 0.0666 0.0681 0.0696 0.0710 0.0720
3045.882111 0.0730 0.0730 0.0731 0.0746 0.0760
3050.265518 0.0765 0.0770 0.0770 0.0770 0.0770
3054.648924 0.0770 0.0770 0.0771 0.0781 0.0790
3059.032330 0.0790 0.0790 0.0790 0.0790 0.0795
3063.415737 0.0800 0.0800 0.0800 0.0800 0.0801
3067.799143 0.0811 0.0820 0.0825 0.0830 0.0830
3072.182550 0.0831 0.0846 0.0860 0.0860 0.0860
3076.565956 0.0865 0.0870 0.0875 0.0881 0.0891
3080.949363 0.0900 0.0905 0.0911 0.0921 0.0931
3085.332769 0.0941 0.0951 0.0961 0.0971 0.0981
3089.716176 0.0991 0.1006 0.1024 0.1064 0.1101
3094.099582 0.1116 0.1133 0.1163 0.1194 0.1239
3098.482989 0.1287 0.1372 0.1457 0.1532 0.1604
3102.866395 0.1644 0.1684 0.1719 0.1752 0.1772
3107.249802 0.1794 0.1829 0.1865 0.1910 0.1957
3111.633208 0.2027 0.2094 0.2134 0.2172 0.2192
3116.016615 0.2213 0.2243 0.2273 0.2303 0.2335
3120.400021 0.2386 0.2434 0.2469 0.2502 0.2522
3124.783428 0.2541 0.2546 0.2552 0.2572 0.2594
3129.166834 0.2629 0.2664 0.2694 0.2723 0.2748
3133.550241 0.2776 0.2826 0.2876 0.2921 0.2968
3137.933647 0.3034 0.3099 0.3164 0.3229 0.3294
3142.317054 0.3359 0.3424 0.3491 0.3566 0.3639
3146.700460 0.3704 0.3768 0.3828 0.3888 0.3943
3151.083867 0.4008 0.4133 0.4248 0.4308 0.4365
3155.467273 0.4400 0.4434 0.4459 0.4488 0.4538
3159.850680 0.4593 0.4673 0.4757 0.4867 0.4963
3164.234086 0.4983 0.5003 0.5023 0.5046 0.5086
3168.617493 0.5124 0.5149 0.5176 0.5216 0.5259
3173.000899 0.5314 0.5362 0.5372 0.5384 0.5409
3177.384306 0.5440 0.5495 0.5545 0.5575 0.5602
3181.767712 0.5612 0.5621 0.5626 0.5631 0.5636
3186.151119 0.5642 0.5652 0.5667 0.5707 0.5745
3190.534525 0.5776 0.5809 0.5854 0.5893 0.5908
3194.917932 0.5924 0.5944 0.5965 0.5990 0.6016
3199.301338 0.6046 0.6074 0.6094 0.6113 0.6128
3203.684745 0.6140 0.6140 0.6141 0.6146 0.6153
3208.068151 0.6168 0.6195 0.6265 0.6337 0.6417
3212.451557 0.6484 0.6504 0.6523 0.6538 0.6554
3216.834964 0.6574 0.6591 0.6596 0.6604 0.6624
3221.218370 0.6643 0.6658 0.6671 0.6676 0.6680
3225.601777 0.6680 0.6678 0.6668 0.6658 0.6648
3229.985183 0.6634 0.6609 0.6582 0.6547 0.6519
3234.368590 0.6514 0.6511 0.6516 0.6523 0.6538
3238.751996 0.6580 0.6710 0.6837 0.6957 0.7085
3243.135403 0.7236 0.7357 0.7387 0.7416 0.7441
3247.518809 0.7472 0.7522 0.7570 0.7610 0.7647
3251.902216 0.7677 0.7706 0.7731 0.7752 0.7762
3256.285622 0.7772 0.7782 0.7795 0.7815 0.7832
3260.669029 0.7843 0.7853 0.7863 0.7870 0.7870
3265.052435 0.7874 0.7889 0.7904 0.7919 0.7930
3269.435842 0.7930 0.7930 0.7930 0.7929 0.7924
3273.819248 0.7917 0.7907 0.7899 0.7894 0.7886
3278.202655 0.7871 0.7856 0.7841 0.7829 0.7824
3282.586061 0.7819 0.7814 0.7806 0.7791 0.7780
3286.969468 0.7780 0.7776 0.7761 0.7749 0.7744
3291.352874 0.7730 0.7695 0.7669 0.7664 0.7657
3295.736281 0.7647 0.7634 0.7614 0.7595 0.7581
3300.119687 0.7569 0.7564 0.7553 0.7528 0.7501
3304.503094 0.7471 0.7449 0.7444 0.7436 0.7421
3308.886500 0.7398 0.7358 0.7321 0.7291 0.7269
3313.269907 0.7263 0.7255 0.7240 0.7228 0.7223
3317.653313 0.7211 0.7181 0.7147 0.7107 0.7075
3322.036720 0.7060 0.7042 0.7017 0.6998 0.6993
3326.420126 0.6987 0.6977 0.6959 0.6924 0.6894
3330.803533 0.6873 0.6853 0.6833 0.6812 0.6787
3335.186939 0.6770 0.6770 0.6767 0.6757 0.6737
3339.570346 0.6697 0.6662 0.6637 0.6613 0.6593
3343.953752 0.6572 0.6547 0.6528 0.6523 0.6512
3348.337159 0.6486 0.6461 0.6436 0.6413 0.6393
3352.720565 0.6378 0.6373 0.6365 0.6350 0.6338
3357.103972 0.6333 0.6323 0.6303 0.6278 0.6243
3361.487378 0.6208 0.6173 0.6143 0.6123 0.6103
3365.870784 0.6083 0.6068 0.6063 0.6051 0.6026
3370.254191 0.5995 0.5955 0.5924 0.5909 0.5898
3374.637597 0.5893 0.5888 0.5883 0.5874 0.5859
3379.021004 0.5835 0.5795 0.5764 0.5749 0.5738
3383.404410 0.5733 0.5718 0.5688 0.5662 0.5642
3387.787817 0.5628 0.5623 0.5616 0.5606 0.5585
3392.171223 0.5545 0.5514 0.5499 0.5490 0.5490
3396.554630 0.5488 0.5483 0.5474 0.5459 0.5446
3400.938036 0.5436 0.5424 0.5409 0.5394 0.5379
3405.321443 0.5368 0.5363 0.5356 0.5346 0.5336
3409.704849 0.5326 0.5312 0.5292 0.5270 0.5245
3414.088256 0.5228 0.5223 0.5212 0.5192 0.5178
3418.471662 0.5173 0.5164 0.5149 0.5134 0.5119
3422.855069 0.5104 0.5089 0.5078 0.5073 0.5068
3427.238475 0.5063 0.5060 0.5060 0.5052 0.5032
3431.621882 0.5016 0.5006 0.4998 0.4993 0.4986
3436.005288 0.4976 0.4968 0.4963 0.4953 0.4938
3440.388695 0.4928 0.4923 0.4911 0.4891 0.4878
3444.772101 0.4873 0.4870 0.4870 0.4866 0.4856
3449.155508 0.4848 0.4843 0.4833 0.4818 0.4810
3453.538914 0.4810 0.4808 0.4803 0.4793 0.4778
3457.922321 0.4770 0.4770 0.4768 0.4763 0.4753
3462.305727 0.4738 0.4730 0.4730 0.4725 0.4715
3466.689134 0.4710 0.4710 0.4705 0.4695 0.4685
3471.072540 0.4675 0.4668 0.4663 0.4658 0.4653
3475.455947 0.4641 0.4621 0.4603 0.4588 0.4575
3479.839353 0.4565 0.4555 0.4545 0.4531 0.4511
3484.222760 0.4495 0.4485 0.4478 0.4473 0.4470
3488.606166 0.4470 0.4465 0.4455 0.4448 0.4443
3492.989573 0.4438 0.4433 0.4423 0.4408 0.4400
3497.372979 0.4400 0.4398 0.4393 0.4385 0.4375
3501.756386 0.4365 0.4355 0.4345 0.4335 0.4328
3506.139792 0.4322 0.4320 0.4320 0.4315 0.4305
3510.523199 0.4297 0.4292 0.4287 0.4282 0.4280
3514.906605 0.4280 0.4275 0.4265 0.4260 0.4260
3519.290011 0.4257 0.4252 0.4247 0.4242 0.4240
3523.673418 0.4240 0.4232 0.4217 0.4205 0.4195
3528.056824 0.4187 0.4182 0.4177 0.4172 0.4165
3532.440231 0.4155 0.4147 0.4142 0.4132 0.4117
3536.823637 0.4110 0.4110 0.4107 0.4102 0.4097
3541.207044 0.4092 0.4090 0.4090 0.4085 0.4075
3545.590450 0.4067 0.4062 0.4055 0.4045 0.4040
3549.973857 0.4040 0.4037 0.4032 0.4027 0.4022
3554.357263 0.4012 0.3997 0.3987 0.3982 0.3980
3558.740670 0.3980 0.3974 0.3964 0.3957 0.3952
3563.124076 0.3950 0.3950 0.3944 0.3934 0.3930
3567.507483 0.3930 0.3927 0.3922 0.3912 0.3897
3571.890889 0.3887 0.3882 0.3880 0.3880 0.3877
3576.274296 0.3872 0.3870 0.3870 0.3864 0.3854
3580.657702 0.3844 0.3834 0.3821 0.3806 0.3794
3585.041109 0.3784 0.3777 0.3772 0.3767 0.3762
3589.424515 0.3751 0.3736 0.3727 0.3722 0.3720
3593.807922 0.3720 0.3714 0.3704 0.3700 0.3700
3598.191328 0.3700 0.3700 0.3697 0.3692 0.3690
3602.574735 0.3690 0.3684 0.3674 0.3667 0.3662
3606.958141 0.3657 0.3652 0.3644 0.3634 0.3630
3611.341548 0.3630 0.3630 0.3630 0.3630 0.3630
3615.724954 0.3627 0.3622 0.3617 0.3612 0.3604
3620.108361 0.3594 0.3590 0.3590 0.3587 0.3582
3624.491767 0.3577 0.3572 0.3564 0.3554 0.3547
3628.875174 0.3542 0.3540 0.3540 0.3534 0.3524
3633.258580 0.3520 0.3520 0.3517 0.3512 0.3510
3637.641987 0.3510 0.3507 0.3502 0.3500 0.3500
3642.025393 0.3487 0.3467 0.3460 0.3460 0.3450
3646.408800 0.3435 0.3430 0.3430 0.3424 0.3414
3650.792206 0.3410 0.3410 0.3404 0.3394 0.3390
3655.175613 0.3390 0.3384 0.3374 0.3370 0.3370
3659.559019 0.3367 0.3362 0.3350 0.3335 0.3327
3663.942426 0.3322 0.3317 0.3312 0.3310 0.3310
3668.325832 0.3303 0.3293 0.3290 0.3290 0.3287
3672.709239 0.3282 0.3273 0.3263 0.3260 0.3260
3677.092645 0.3257 0.3252 0.3247 0.3242 0.3233
3681.476051 0.3223 0.3220 0.3220 0.3217 0.3212
3685.859458 0.3210 0.3210 0.3207 0.3202 0.3200
3690.242864 0.3200 0.3190 0.3175 0.3167 0.3162
3694.626271 0.3160 0.3160 0.3153 0.3143 0.3140
3699.009677 0.3140 0.3136 0.3131 0.3123 0.3113
3703.393084 0.3110 0.3110 0.3106 0.3101 0.3096
3707.776490 0.3091 0.3090 0.3090 0.3079 0.3064
3712.159897 0.3060 0.3060 0.3056 0.3051 0.3050
3716.543303 0.3050 0.3039 0.3024 0.3009 0.2994
3720.926710 0.2990 0.2990 0.2986 0.2981 0.2980
3725.310116 0.2980 0.2973 0.2963 0.2956 0.2951
3729.693523 0.2946 0.2941 0.2940 0.2940 0.2940
3734.076929 0.2940 0.2933 0.2923 0.2920 0.2920
3738.460336 0.2920 0.2920 0.2916 0.2911 0.2910
3742.843742 0.2910 0.2906 0.2901 0.2900 0.2900
3747.227149 0.2893 0.2883 0.2880 0.2880 0.2880
3751.610555 0.2880 0.2876 0.2871 0.2870 0.2870
3755.993962 0.2862 0.2852 0.2850 0.2850 0.2842
3760.377368 0.2832 0.2822 0.2812 0.2806 0.2801
3764.760775 0.2800 0.2800 0.2800 0.2800 0.2796
3769.144181 0.2791 0.2790 0.2790 0.2782 0.2772
3773.527588 0.2758 0.2743 0.2736 0.2731 0.2730
3777.910994 0.2730 0.2726 0.2721 0.2720 0.2720
3782.294401 0.2712 0.2702 0.2700 0.2700 0.2696
3786.677807 0.2691 0.2690 0.2690 0.2690 0.2690
3791.061214 0.2678 0.2663 0.2660 0.2660 0.2656
3795.444620 0.2651
##END=
