##TITLE=BENZOIC ACID, SODIUM SALT
##JCAMP-DX=4.24
##DATA TYPE=INFRARED SPECTRUM
##CLASS=COBLENTZ III
##ORIGIN=DOW CHEMICAL COMPANY
##OWNER=COBLENTZ SOCIETY
Collection (C) 2018 copyright by the U.S. Secretary of Commerce
on behalf of the United States of America. All rights reserved.
##DATE=1965/03/08
##NAMES=SODIUM BENZOATE
##MOLFORM=C7 H5 Na O2
##SOURCE REFERENCE=COBLENTZ NO. 10187
##$NIST ID=B6010187
##$NIST SOURCE=COBLENTZ
##$NIST IMAGE=cob10187
##SPECTROMETER/DATA SYSTEM=DOW KBr FOREPRISM-GRATING
##INSTRUMENT PARAMETERS=BLAZED AT 3.5, 12.0, 20.0 MICRON, CHANGED AT 5.0, 7.5, 14.9 MICRON
##STATE=SOLID (SPLIT MULL, FLUOROLUBE FOR 3800-1330 AND NUJOL FOR 1330-460 CM ^-^1)
##SAMPLING PROCEDURE=TRANSMISSION
##RESOLUTION=4
##DATA PROCESSING=DIGITIZED BY NIST FROM HARD COPY (FROM TWO SEGMENTS)
##XUNITS=1/CM
##YUNITS=TRANSMITTANCE
##XFACTOR=1.000000
##YFACTOR=1
##DELTAX=0.854216
##FIRSTX=455.581
##LASTX=3793.86
##FIRSTY=0.931
##MAXX=3793.86
##MINX=455.581
##MAXY=1.004
##MINY=0.07
##NPOINTS=3909
##XYDATA=(X++(Y..Y))
455.581000 0.9310 0.9330 0.9340 0.9340 0.9340
459.852080 0.9370 0.9380 0.9380 0.9380 0.9380
464.123160 0.9390 0.9390 0.9390 0.9390 0.9390
468.394240 0.9410 0.9410 0.9420 0.9420 0.9420
472.665320 0.9430 0.9430 0.9430 0.9430 0.9430
476.936400 0.9430 0.9430 0.9430 0.9430 0.9450
481.207479 0.9450 0.9450 0.9450 0.9450 0.9450
485.478559 0.9450 0.9450 0.9450 0.9450 0.9450
489.749639 0.9450 0.9450 0.9450 0.9450 0.9450
494.020719 0.9450 0.9450 0.9450 0.9430 0.9430
498.291799 0.9430 0.9410 0.9390 0.9380 0.9350
502.562879 0.9350 0.9340 0.9330 0.9330 0.9310
506.833959 0.9300 0.9300 0.9300 0.9290 0.9270
511.105039 0.9250 0.9230 0.9220 0.9210 0.9190
515.376119 0.9180 0.9180 0.9170 0.9140 0.9110
519.647199 0.9090 0.9070 0.9060 0.9060 0.9050
523.918279 0.9030 0.9020 0.9010 0.9010 0.9010
528.189358 0.9010 0.9020 0.9030 0.9070 0.9100
532.460438 0.9140 0.9190 0.9260 0.9310 0.9380
536.731518 0.9410 0.9430 0.9460 0.9490 0.9490
541.002598 0.9500 0.9500 0.9510 0.9510 0.9510
545.273678 0.9510 0.9510 0.9530 0.9530 0.9540
549.544758 0.9540 0.9540 0.9540 0.9540 0.9550
553.815838 0.9550 0.9580 0.9590 0.9620 0.9630
558.086918 0.9650 0.9650 0.9660 0.9650 0.9650
562.357998 0.9660 0.9660 0.9670 0.9670 0.9690
566.629078 0.9690 0.9690 0.9690 0.9700 0.9700
570.900158 0.9700 0.9710 0.9710 0.9730 0.9740
575.171237 0.9740 0.9740 0.9750 0.9750 0.9750
579.442317 0.9750 0.9750 0.9750 0.9750 0.9750
583.713397 0.9750 0.9740 0.9740 0.9730 0.9730
587.984477 0.9710 0.9710 0.9740 0.9770 0.9780
592.255557 0.9790 0.9810 0.9810 0.9810 0.9810
596.526637 0.9810 0.9810 0.9810 0.9820 0.9830
600.797717 0.9830 0.9830 0.9830 0.9830 0.9830
605.068797 0.9830 0.9830 0.9830 0.9830 0.9830
609.339877 0.9850 0.9850 0.9830 0.9830 0.9850
613.610957 0.9830 0.9830 0.9830 0.9830 0.9830
617.882037 0.9850 0.9850 0.9860 0.9870 0.9870
622.153116 0.9860 0.9860 0.9870 0.9870 0.9870
626.424196 0.9870 0.9870 0.9870 0.9870 0.9890
630.695276 0.9890 0.9890 0.9900 0.9900 0.9910
634.966356 0.9910 0.9910 0.9910 0.9910 0.9900
639.237436 0.9900 0.9900 0.9900 0.9900 0.9900
643.508516 0.9910 0.9900 0.9890 0.9890 0.9890
647.779596 0.9890 0.9890 0.9890 0.9870 0.9860
652.050676 0.9860 0.9860 0.9850 0.9850 0.9830
656.321756 0.9830 0.9830 0.9830 0.9830 0.9820
660.592836 0.9810 0.9790 0.9790 0.9780 0.9780
664.863915 0.9780 0.9780 0.9780 0.9780 0.9770
669.134995 0.9770 0.9740 0.9700 0.9580 0.9550
673.406075 0.9550 0.9510 0.9410 0.9340 0.9141
677.677155 0.8990 0.8500 0.7601 0.6881 0.6221
681.948235 0.6220 0.6728 0.6730 0.5933 0.5930
686.219315 0.6281 0.8020 0.8180 0.8699 0.9149
690.490395 0.9330 0.9460 0.9470 0.9490 0.9490
694.761475 0.9470 0.9460 0.9450 0.9430 0.9370
699.032555 0.9330 0.9101 0.8980 0.8910 0.8771
703.303635 0.8470 0.7900 0.7150 0.6161 0.5461
707.574715 0.4332 0.3602 0.3520 0.3520 0.3669
711.845794 0.3860 0.4230 0.4540 0.5160 0.5679
716.116874 0.6508 0.6969 0.7209 0.7519 0.7908
720.387954 0.8160 0.8340 0.8440 0.8560 0.8710
724.659034 0.8950 0.9140 0.9310 0.9380 0.9420
728.930114 0.9500 0.9530 0.9550 0.9550 0.9580
733.201194 0.9590 0.9630 0.9650 0.9660 0.9660
737.472274 0.9660 0.9670 0.9690 0.9730 0.9750
741.743354 0.9750 0.9770 0.9770 0.9780 0.9790
746.014434 0.9810 0.9820 0.9820 0.9830 0.9830
750.285514 0.9850 0.9850 0.9850 0.9850 0.9850
754.556594 0.9850 0.9850 0.9850 0.9850 0.9850
758.827673 0.9850 0.9870 0.9870 0.9860 0.9860
763.098753 0.9860 0.9860 0.9860 0.9870 0.9870
767.369833 0.9870 0.9870 0.9870 0.9890 0.9900
771.640913 0.9900 0.9900 0.9900 0.9900 0.9900
775.911993 0.9900 0.9910 0.9930 0.9910 0.9910
780.183073 0.9910 0.9910 0.9930 0.9930 0.9930
784.454153 0.9930 0.9930 0.9930 0.9930 0.9930
788.725233 0.9940 0.9950 0.9950 0.9970 0.9970
792.996313 0.9970 0.9970 0.9970 0.9970 0.9950
797.267393 0.9950 0.9950 0.9970 0.9970 0.9980
801.538473 0.9980 0.9980 0.9980 0.9980 1.0000
805.809552 1.0010 1.0020 1.0020 1.0010 1.0000
810.080632 0.9980 0.9970 0.9950 0.9950 0.9940
814.351712 0.9940 0.9930 0.9900 0.9860 0.9780
818.622792 0.9580 0.9071 0.8462 0.8460 0.9456
822.893872 0.9710 0.9750 0.9780 0.9790 0.9820
827.164952 0.9830 0.9830 0.9830 0.9850 0.9850
831.436032 0.9830 0.9820 0.9820 0.9790 0.9780
835.707112 0.9770 0.9740 0.9710 0.9690 0.9570
839.978192 0.9460 0.9270 0.9070 0.8930 0.8700
844.249272 0.8480 0.8360 0.8200 0.7911 0.7910
848.520352 0.8200 0.8500 0.8820 0.9260 0.9420
852.791431 0.9550 0.9620 0.9670 0.9700 0.9740
857.062511 0.9750 0.9780 0.9810 0.9820 0.9830
861.333591 0.9850 0.9850 0.9850 0.9850 0.9860
865.604671 0.9860 0.9860 0.9860 0.9870 0.9890
869.875751 0.9890 0.9870 0.9870 0.9870 0.9870
874.146831 0.9870 0.9860 0.9860 0.9860 0.9860
878.417911 0.9860 0.9870 0.9870 0.9860 0.9860
882.688991 0.9860 0.9850 0.9830 0.9830 0.9850
886.960071 0.9850 0.9820 0.9820 0.9820 0.9820
891.231151 0.9820 0.9830 0.9830 0.9830 0.9830
895.502231 0.9830 0.9820 0.9820 0.9820 0.9810
899.773310 0.9830 0.9820 0.9820 0.9820 0.9820
904.044390 0.9820 0.9820 0.9820 0.9820 0.9820
908.315470 0.9810 0.9810 0.9810 0.9790 0.9790
912.586550 0.9780 0.9770 0.9770 0.9710 0.9670
916.857630 0.9630 0.9460 0.9350 0.9350 0.9510
921.128710 0.9530 0.9580 0.9650 0.9660 0.9690
925.399790 0.9700 0.9740 0.9740 0.9750 0.9750
929.670870 0.9750 0.9770 0.9770 0.9780 0.9780
933.941950 0.9780 0.9790 0.9790 0.9790 0.9790
938.213030 0.9790 0.9810 0.9810 0.9820 0.9820
942.484110 0.9820 0.9820 0.9810 0.9810 0.9810
946.755189 0.9810 0.9790 0.9790 0.9790 0.9790
951.026269 0.9790 0.9790 0.9810 0.9790 0.9790
955.297349 0.9790 0.9790 0.9790 0.9790 0.9790
959.568429 0.9790 0.9790 0.9790 0.9790 0.9780
963.839509 0.9780 0.9780 0.9780 0.9770 0.9750
968.110589 0.9740 0.9740 0.9740 0.9740 0.9740
972.381669 0.9750 0.9750 0.9750 0.9770 0.9770
976.652749 0.9780 0.9780 0.9790 0.9790 0.9810
980.923829 0.9810 0.9820 0.9820 0.9830 0.9830
985.194909 0.9830 0.9850 0.9850 0.9850 0.9850
989.465989 0.9850 0.9860 0.9860 0.9860 0.9860
993.737068 0.9860 0.9860 0.9850 0.9850 0.9850
998.008148 0.9850 0.9850 0.9870 0.9870 0.9860
1002.279228 0.9850 0.9820 0.9780 0.9710 0.9660
1006.550308 0.9650 0.9670 0.9740 0.9790 0.9820
1010.821388 0.9830 0.9850 0.9850 0.9850 0.9850
1015.092468 0.9850 0.9850 0.9830 0.9830 0.9830
1019.363548 0.9810 0.9770 0.9730 0.9630 0.9580
1023.634628 0.9550 0.9530 0.9530 0.9470 0.9350
1027.905708 0.9210 0.9110 0.9090 0.9110 0.9460
1032.176788 0.9580 0.9690 0.9750 0.9780 0.9790
1036.447867 0.9810 0.9820 0.9820 0.9820 0.9820
1040.718947 0.9830 0.9830 0.9850 0.9850 0.9850
1044.990027 0.9850 0.9850 0.9830 0.9830 0.9830
1049.261107 0.9830 0.9820 0.9810 0.9790 0.9780
1053.532187 0.9770 0.9750 0.9750 0.9740 0.9710
1057.803267 0.9690 0.9660 0.9610 0.9540 0.9470
1062.074347 0.9350 0.9250 0.9060 0.8900 0.8790
1066.345427 0.8680 0.8470 0.8181 0.8120 0.8120
1070.616507 0.8231 0.8750 0.8950 0.9410 0.9530
1074.887587 0.9550 0.9610 0.9650 0.9670 0.9700
1079.158667 0.9710 0.9750 0.9770 0.9770 0.9780
1083.429746 0.9780 0.9790 0.9790 0.9810 0.9810
1087.700826 0.9810 0.9820 0.9820 0.9810 0.9810
1091.971906 0.9810 0.9790 0.9790 0.9780 0.9780
1096.242986 0.9780 0.9780 0.9780 0.9770 0.9770
1100.514066 0.9770 0.9770 0.9770 0.9770 0.9770
1104.785146 0.9770 0.9780 0.9780 0.9790 0.9810
1109.056226 0.9820 0.9820 0.9820 0.9820 0.9830
1113.327306 0.9830 0.9850 0.9850 0.9850 0.9860
1117.598386 0.9860 0.9860 0.9860 0.9860 0.9860
1121.869466 0.9890 0.9890 0.9890 0.9870 0.9860
1126.140546 0.9850 0.9830 0.9830 0.9830 0.9830
1130.411625 0.9830 0.9820 0.9820 0.9810 0.9810
1134.682705 0.9810 0.9810 0.9810 0.9790 0.9790
1138.953785 0.9780 0.9770 0.9770 0.9770 0.9770
1143.224865 0.9770 0.9770 0.9780 0.9780 0.9770
1147.495945 0.9770 0.9770 0.9750 0.9740 0.9740
1151.767025 0.9750 0.9750 0.9750 0.9770 0.9770
1156.038105 0.9780 0.9780 0.9790 0.9790 0.9810
1160.309185 0.9810 0.9820 0.9820 0.9820 0.9820
1164.580265 0.9820 0.9820 0.9820 0.9820 0.9820
1168.851345 0.9820 0.9810 0.9810 0.9810 0.9810
1173.122425 0.9790 0.9790 0.9790 0.9780 0.9770
1177.393504 0.9740 0.9710 0.9700 0.9700 0.9710
1181.664584 0.9740 0.9770 0.9790 0.9820 0.9850
1185.935664 0.9860 0.9860 0.9860 0.9860 0.9860
1190.206744 0.9860 0.9860 0.9860 0.9870 0.9870
1194.477824 0.9870 0.9870 0.9870 0.9860 0.9860
1198.748904 0.9860 0.9860 0.9860 0.9860 0.9860
1203.019984 0.9860 0.9860 0.9860 0.9860 0.9860
1207.291064 0.9860 0.9860 0.9860 0.9860 0.9850
1211.562144 0.9850 0.9850 0.9850 0.9850 0.9850
1215.833224 0.9850 0.9850 0.9850 0.9850 0.9850
1220.104304 0.9830 0.9830 0.9830 0.9830 0.9830
1224.375383 0.9830 0.9820 0.9820 0.9810 0.9810
1228.646463 0.9790 0.9780 0.9780 0.9780 0.9770
1232.917543 0.9770 0.9770 0.9750 0.9750 0.9710
1237.188623 0.9700 0.9690 0.9690 0.9670 0.9670
1241.459703 0.9650 0.9630 0.9630 0.9620 0.9590
1245.730783 0.9590 0.9570 0.9570 0.9550 0.9550
1250.001863 0.9550 0.9540 0.9540 0.9530 0.9510
1254.272943 0.9510 0.9500 0.9500 0.9500 0.9490
1258.544023 0.9490 0.9470 0.9460 0.9450 0.9430
1262.815103 0.9430 0.9430 0.9430 0.9420 0.9420
1267.086183 0.9410 0.9410 0.9410 0.9410 0.9410
1271.357262 0.9410 0.9410 0.9410 0.9410 0.9410
1275.628342 0.9410 0.9410 0.9420 0.9420 0.9420
1279.899422 0.9420 0.9420 0.9420 0.9420 0.9420
1284.170502 0.9420 0.9430 0.9430 0.9450 0.9450
1288.441582 0.9420 0.9390 0.9370 0.9370 0.9340
1292.712662 0.9330 0.9310 0.9310 0.9300 0.9260
1296.983742 0.9230 0.9220 0.9190 0.9170 0.9130
1301.254822 0.9100 0.9060 0.9050 0.9020 0.9010
1305.525902 0.8940 0.8910 0.8790 0.8680 0.8660
1309.796982 0.8660 0.8710 0.8970 0.9060 0.9110
1314.068062 0.9150 0.9190 0.9220 0.9250 0.9260
1318.339141 0.9270 0.9300 0.9310 0.9310 0.9310
1322.610221 0.9310 0.9330 0.9330 0.9310 0.9310
1326.881301 0.9300 0.9300 0.9300 0.9310 0.9330
1331.152381 0.9330 0.9310 0.9310 0.9300 0.9290
1335.423461 0.9290 0.9260 0.9250 0.9230 0.9230
1339.694541 0.9220 0.9210 0.9210 0.9170 0.9150
1343.965621 0.9150 0.9140 0.9140 0.9140 0.9140
1348.236701 0.9140 0.9140 0.9140 0.9140 0.9140
1352.507781 0.9140 0.9140 0.9140 0.9140 0.9140
1356.778861 0.9140 0.9140 0.9140 0.9130 0.9130
1361.049941 0.9130 0.9130 0.9130 0.9130 0.9110
1365.321020 0.9110 0.9100 0.9100 0.9090 0.9090
1369.592100 0.9070 0.9050 0.9030 0.9030 0.9030
1373.863180 0.9030 0.9030 0.9030 0.9020 0.9020
1378.134260 0.9010 0.8990 0.8970 0.8940 0.8910
1382.405340 0.8870 0.8810 0.8740 0.8700 0.8620
1386.676420 0.8520 0.8400 0.8300 0.8120 0.7920
1390.947500 0.7640 0.7410 0.7320 0.7240 0.7130
1395.218580 0.7050 0.6910 0.6750 0.6570 0.6410
1399.489660 0.6250 0.6090 0.5970 0.5880 0.5810
1403.760740 0.5679 0.5260 0.5120 0.4850 0.4700
1408.031819 0.4550 0.4270 0.3971 0.3631 0.3311
1412.302899 0.3280 0.3180 0.2950 0.2920 0.2720
1416.573979 0.2710 0.2700 0.2680 0.2680 0.2680
1420.845059 0.2700 0.2710 0.2740 0.2830 0.2940
1425.116139 0.3110 0.3340 0.3630 0.3860 0.4089
1429.387219 0.4331 0.4631 0.5041 0.5570 0.5800
1433.658299 0.6090 0.6450 0.6750 0.6950 0.7189
1437.929379 0.7401 0.7590 0.7790 0.7960 0.8140
1442.200459 0.8270 0.8300 0.8320 0.8360 0.8510
1446.471539 0.8591 0.8770 0.8940 0.9050 0.9150
1450.742619 0.9230 0.9290 0.9330 0.9330 0.9380
1455.013698 0.9450 0.9500 0.9540 0.9540 0.9550
1459.284778 0.9550 0.9570 0.9590 0.9590 0.9610
1463.555858 0.9610 0.9610 0.9620 0.9620 0.9620
1467.826938 0.9650 0.9650 0.9660 0.9660 0.9670
1472.098018 0.9670 0.9670 0.9670 0.9670 0.9670
1476.369098 0.9670 0.9670 0.9660 0.9660 0.9660
1480.640178 0.9660 0.9660 0.9650 0.9650 0.9650
1484.911258 0.9630 0.9630 0.9620 0.9590 0.9580
1489.182338 0.9570 0.9540 0.9460 0.9380 0.9390
1493.453418 0.9450 0.9490 0.9530 0.9540 0.9540
1497.724498 0.9540 0.9530 0.9530 0.9500 0.9470
1501.995577 0.9450 0.9430 0.9410 0.9410 0.9390
1506.266657 0.9380 0.9350 0.9330 0.9310 0.9290
1510.537737 0.9260 0.9210 0.9150 0.9140 0.9110
1514.808817 0.9020 0.8970 0.8900 0.8830 0.8740
1519.079897 0.8720 0.8600 0.8500 0.8400 0.8340
1523.350977 0.8310 0.8260 0.8240 0.8220 0.8190
1527.622057 0.8150 0.8120 0.8040 0.7950 0.7820
1531.893137 0.7680 0.7510 0.7450 0.7320 0.7150
1536.164217 0.6930 0.6720 0.6470 0.6220 0.5961
1540.435297 0.5599 0.5199 0.4780 0.4569 0.4060
1544.706377 0.3710 0.3230 0.2761 0.2321 0.2110
1548.977456 0.1669 0.1310 0.1130 0.0940 0.0880
1553.248536 0.0780 0.0760 0.0700 0.0700 0.0740
1557.519616 0.0780 0.0810 0.0980 0.1121 0.1490
1561.790696 0.2010 0.2110 0.2330 0.2590 0.2949
1566.061776 0.3581 0.3981 0.4220 0.4391 0.5161
1570.332856 0.5640 0.6180 0.6640 0.6800 0.7109
1574.603936 0.7391 0.7601 0.7821 0.8111 0.8440
1578.875016 0.8560 0.8720 0.8900 0.9020 0.9030
1583.146096 0.9110 0.9110 0.9130 0.9110 0.8950
1587.417176 0.8830 0.8680 0.8480 0.7791 0.7152
1591.688256 0.6507 0.5397 0.3849 0.3320 0.2820
1595.959335 0.2310 0.1800 0.1291 0.1290 0.2308
1600.230415 0.3342 0.4021 0.4301 0.4621 0.5220
1604.501495 0.5560 0.5900 0.6399 0.6829 0.7239
1608.772575 0.7561 0.7881 0.8100 0.8360 0.8600
1613.043655 0.8700 0.8750 0.8820 0.8890 0.8930
1617.314735 0.8980 0.8990 0.8990 0.8970 0.8910
1621.585815 0.8820 0.8560 0.8540 0.8560 0.8620
1625.856895 0.8711 0.8941 0.9140 0.9250 0.9310
1630.127975 0.9350 0.9390 0.9460 0.9510 0.9540
1634.399055 0.9550 0.9570 0.9580 0.9580 0.9590
1638.670135 0.9620 0.9620 0.9630 0.9660 0.9670
1642.941214 0.9670 0.9690 0.9700 0.9730 0.9750
1647.212294 0.9770 0.9770 0.9750 0.9750 0.9780
1651.483374 0.9790 0.9810 0.9850 0.9850 0.9810
1655.754454 0.9780 0.9780 0.9780 0.9770 0.9770
1660.025534 0.9770 0.9780 0.9780 0.9780 0.9780
1664.296614 0.9780 0.9780 0.9780 0.9770 0.9770
1668.567694 0.9780 0.9780 0.9790 0.9790 0.9780
1672.838774 0.9780 0.9780 0.9780 0.9790 0.9790
1677.109854 0.9790 0.9790 0.9790 0.9810 0.9820
1681.380934 0.9830 0.9850 0.9860 0.9900 0.9930
1685.652014 0.9910 0.9900 0.9900 0.9900 0.9900
1689.923093 0.9900 0.9900 0.9900 0.9900 0.9900
1694.194173 0.9900 0.9910 0.9940 0.9940 0.9930
1698.465253 0.9930 0.9940 0.9950 0.9950 0.9950
1702.736333 0.9930 0.9930 0.9930 0.9930 0.9940
1707.007413 0.9940 0.9940 0.9940 0.9940 0.9940
1711.278493 0.9940 0.9940 0.9940 0.9950 0.9950
1715.549573 0.9970 0.9980 0.9980 1.0000 1.0000
1719.820653 0.9980 0.9970 0.9980 1.0000 1.0000
1724.091733 1.0000 0.9980 0.9980 0.9980 0.9980
1728.362813 0.9980 0.9980 0.9980 0.9980 1.0010
1732.633893 1.0010 1.0040 1.0040 1.0010 1.0010
1736.904972 1.0010 1.0000 1.0010 1.0020 1.0020
1741.176052 1.0020 1.0010 1.0010 1.0000 0.9980
1745.447132 0.9980 0.9980 0.9980 1.0000 1.0010
1749.718212 1.0020 1.0020 1.0000 0.9970 0.9950
1753.989292 0.9940 0.9940 0.9940 0.9940 0.9940
1758.260372 0.9940 0.9940 0.9940 0.9940 0.9930
1762.531452 0.9910 0.9910 0.9910 0.9900 0.9900
1766.802532 0.9900 0.9900 0.9900 0.9900 0.9910
1771.073612 0.9940 0.9930 0.9910 0.9900 0.9890
1775.344692 0.9890 0.9890 0.9890 0.9900 0.9900
1779.615771 0.9900 0.9900 0.9910 0.9910 0.9910
1783.886851 0.9910 0.9900 0.9900 0.9900 0.9900
1788.157931 0.9900 0.9900 0.9900 0.9900 0.9930
1792.429011 0.9900 0.9890 0.9890 0.9890 0.9890
1796.700091 0.9890 0.9890 0.9900 0.9900 0.9910
1800.971171 0.9910 0.9900 0.9900 0.9900 0.9900
1805.242251 0.9890 0.9890 0.9900 0.9890 0.9890
1809.513331 0.9890 0.9890 0.9890 0.9890 0.9890
1813.784411 0.9890 0.9890 0.9890 0.9900 0.9900
1818.055491 0.9900 0.9900 0.9900 0.9900 0.9910
1822.326571 0.9910 0.9910 0.9930 0.9930 0.9930
1826.597650 0.9910 0.9910 0.9930 0.9940 0.9940
1830.868730 0.9940 0.9940 0.9940 0.9940 0.9940
1835.139810 0.9940 0.9940 0.9950 0.9940 0.9940
1839.410890 0.9940 0.9950 0.9970 0.9980 1.0000
1843.681970 1.0000 0.9980 0.9980 0.9980 0.9970
1847.953050 0.9950 0.9950 0.9970 0.9970 0.9970
1852.224130 0.9950 0.9950 0.9950 0.9950 0.9950
1856.495210 0.9950 0.9950 0.9950 0.9950 0.9950
1860.766290 0.9970 0.9970 0.9970 0.9970 0.9970
1865.037370 0.9970 0.9970 0.9980 0.9980 1.0000
1869.308450 1.0000 1.0000 1.0000 0.9980 0.9970
1873.579529 0.9970 0.9950 0.9950 0.9940 0.9940
1877.850609 0.9940 0.9940 0.9940 0.9940 0.9940
1882.121689 0.9940 0.9940 0.9930 0.9930 0.9930
1886.392769 0.9930 0.9930 0.9930 0.9910 0.9910
1890.663849 0.9900 0.9890 0.9870 0.9870 0.9870
1894.934929 0.9860 0.9860 0.9860 0.9860 0.9860
1899.206009 0.9860 0.9860 0.9870 0.9870 0.9870
1903.477089 0.9870 0.9870 0.9890 0.9890 0.9890
1907.748169 0.9900 0.9900 0.9900 0.9900 0.9910
1912.019249 0.9910 0.9910 0.9910 0.9910 0.9930
1916.290329 0.9930 0.9930 0.9930 0.9940 0.9940
1920.561408 0.9930 0.9930 0.9930 0.9930 0.9930
1924.832488 0.9930 0.9930 0.9930 0.9930 0.9930
1929.103568 0.9930 0.9930 0.9930 0.9930 0.9930
1933.374648 0.9930 0.9930 0.9910 0.9910 0.9900
1937.645728 0.9900 0.9900 0.9900 0.9890 0.9890
1941.916808 0.9870 0.9850 0.9850 0.9850 0.9830
1946.187888 0.9830 0.9830 0.9830 0.9830 0.9830
1950.458968 0.9830 0.9850 0.9850 0.9850 0.9860
1954.730048 0.9870 0.9870 0.9870 0.9890 0.9890
1959.001128 0.9900 0.9930 0.9930 0.9910 0.9910
1963.272208 0.9900 0.9900 0.9900 0.9900 0.9910
1967.543287 0.9930 0.9930 0.9930 0.9930 0.9930
1971.814367 0.9940 0.9940 0.9940 0.9930 0.9930
1976.085447 0.9930 0.9930 0.9940 0.9940 0.9940
1980.356527 0.9930 0.9930 0.9930 0.9930 0.9940
1984.627607 0.9940 0.9930 0.9930 0.9940 0.9940
1988.898687 0.9940 0.9940 0.9940 0.9950 0.9950
1993.169767 0.9980 0.9950 0.9890 0.9860 0.9870
1997.440847 0.9890 0.9900 0.9910 0.9910 0.9920
2001.711927 0.9930 0.9930 0.9930 0.9930 0.9930
2005.983007 0.9930 0.9930 0.9935 0.9940 0.9940
2010.254087 0.9940 0.9940 0.9940 0.9940 0.9940
2014.525166 0.9940 0.9940 0.9940 0.9940 0.9940
2018.796246 0.9940 0.9940 0.9940 0.9940 0.9940
2023.067326 0.9940 0.9940 0.9940 0.9940 0.9940
2027.338406 0.9940 0.9940 0.9940 0.9940 0.9940
2031.609486 0.9940 0.9940 0.9940 0.9940 0.9940
2035.880566 0.9940 0.9940 0.9940 0.9940 0.9940
2040.151646 0.9940 0.9940 0.9940 0.9940 0.9940
2044.422726 0.9940 0.9940 0.9940 0.9940 0.9940
2048.693806 0.9940 0.9940 0.9946 0.9950 0.9950
2052.964886 0.9949 0.9944 0.9940 0.9940 0.9940
2057.235966 0.9940 0.9939 0.9934 0.9930 0.9930
2061.507045 0.9929 0.9919 0.9910 0.9910 0.9910
2065.778125 0.9910 0.9911 0.9921 0.9930 0.9930
2070.049205 0.9930 0.9930 0.9928 0.9918 0.9910
2074.320285 0.9910 0.9910 0.9910 0.9910 0.9910
2078.591365 0.9912 0.9922 0.9930 0.9930 0.9931
2082.862445 0.9936 0.9940 0.9940 0.9940 0.9940
2087.133525 0.9939 0.9934 0.9930 0.9930 0.9930
2091.404605 0.9930 0.9930 0.9930 0.9930 0.9930
2095.675685 0.9930 0.9930 0.9928 0.9918 0.9910
2099.946765 0.9910 0.9910 0.9910 0.9910 0.9910
2104.217845 0.9910 0.9910 0.9910 0.9910 0.9910
2108.488924 0.9910 0.9910 0.9910 0.9910 0.9910
2112.760004 0.9910 0.9910 0.9910 0.9910 0.9910
2117.031084 0.9910 0.9910 0.9910 0.9910 0.9910
2121.302164 0.9910 0.9910 0.9910 0.9910 0.9910
2125.573244 0.9910 0.9910 0.9910 0.9910 0.9910
2129.844324 0.9910 0.9910 0.9910 0.9910 0.9910
2134.115404 0.9910 0.9910 0.9910 0.9910 0.9910
2138.386484 0.9910 0.9910 0.9910 0.9910 0.9910
2142.657564 0.9910 0.9910 0.9910 0.9910 0.9910
2146.928644 0.9910 0.9910 0.9910 0.9910 0.9910
2151.199724 0.9910 0.9910 0.9910 0.9910 0.9910
2155.470803 0.9910 0.9910 0.9910 0.9910 0.9910
2159.741883 0.9910 0.9910 0.9910 0.9908 0.9903
2164.012963 0.9900 0.9900 0.9900 0.9900 0.9900
2168.284043 0.9900 0.9900 0.9900 0.9900 0.9900
2172.555123 0.9900 0.9900 0.9900 0.9900 0.9902
2176.826203 0.9907 0.9908 0.9903 0.9900 0.9900
2181.097283 0.9900 0.9900 0.9900 0.9900 0.9900
2185.368363 0.9900 0.9900 0.9900 0.9900 0.9900
2189.639443 0.9898 0.9893 0.9890 0.9890 0.9890
2193.910523 0.9890 0.9890 0.9890 0.9886 0.9876
2198.181602 0.9870 0.9870 0.9870 0.9870 0.9870
2202.452682 0.9870 0.9870 0.9870 0.9870 0.9870
2206.723762 0.9870 0.9870 0.9870 0.9870 0.9870
2210.994842 0.9870 0.9875 0.9885 0.9890 0.9890
2215.265922 0.9890 0.9890 0.9885 0.9875 0.9870
2219.537002 0.9870 0.9870 0.9870 0.9870 0.9870
2223.808082 0.9870 0.9870 0.9870 0.9870 0.9868
2228.079162 0.9863 0.9860 0.9860 0.9860 0.9860
2232.350242 0.9857 0.9852 0.9845 0.9835 0.9830
2236.621322 0.9830 0.9830 0.9830 0.9830 0.9830
2240.892402 0.9827 0.9822 0.9820 0.9820 0.9817
2245.163481 0.9812 0.9810 0.9810 0.9810 0.9810
2249.434561 0.9810 0.9810 0.9810 0.9810 0.9810
2253.705641 0.9810 0.9810 0.9810 0.9810 0.9810
2257.976721 0.9810 0.9810 0.9810 0.9810 0.9810
2262.247801 0.9810 0.9810 0.9810 0.9810 0.9810
2266.518881 0.9810 0.9810 0.9810 0.9810 0.9810
2270.789961 0.9810 0.9810 0.9810 0.9810 0.9810
2275.061041 0.9810 0.9810 0.9810 0.9810 0.9804
2279.332121 0.9794 0.9790 0.9790 0.9790 0.9790
2283.603201 0.9790 0.9790 0.9790 0.9790 0.9790
2287.874281 0.9790 0.9790 0.9790 0.9790 0.9790
2292.145360 0.9790 0.9790 0.9787 0.9782 0.9780
2296.416440 0.9780 0.9780 0.9780 0.9780 0.9780
2300.687520 0.9783 0.9788 0.9790 0.9790 0.9797
2304.958600 0.9807 0.9810 0.9810 0.9810 0.9810
2309.229680 0.9810 0.9810 0.9810 0.9810 0.9813
2313.500760 0.9818 0.9823 0.9828 0.9830 0.9830
2317.771840 0.9830 0.9830 0.9830 0.9830 0.9837
2322.042920 0.9847 0.9850 0.9850 0.9854 0.9859
2326.314000 0.9864 0.9869 0.9870 0.9870 0.9870
2330.585080 0.9870 0.9870 0.9870 0.9870 0.9870
2334.856160 0.9870 0.9870 0.9870 0.9870 0.9870
2339.127239 0.9870 0.9870 0.9870 0.9866 0.9861
2343.398319 0.9856 0.9851 0.9850 0.9850 0.9850
2347.669399 0.9850 0.9842 0.9832 0.9830 0.9830
2351.940479 0.9841 0.9856 0.9864 0.9869 0.9870
2356.211559 0.9870 0.9878 0.9888 0.9894 0.9899
2360.482639 0.9900 0.9900 0.9900 0.9900 0.9904
2364.753719 0.9909 0.9910 0.9910 0.9910 0.9910
2369.024799 0.9910 0.9910 0.9906 0.9901 0.9888
2373.295879 0.9873 0.9866 0.9861 0.9860 0.9860
2377.566959 0.9860 0.9860 0.9856 0.9851 0.9842
2381.838039 0.9832 0.9830 0.9830 0.9830 0.9830
2386.109118 0.9826 0.9821 0.9820 0.9820 0.9820
2390.380198 0.9820 0.9816 0.9811 0.9801 0.9791
2394.651278 0.9790 0.9790 0.9790 0.9790 0.9790
2398.922358 0.9790 0.9790 0.9790 0.9790 0.9790
2403.193438 0.9790 0.9790 0.9790 0.9790 0.9790
2407.464518 0.9790 0.9799 0.9809 0.9810 0.9810
2411.735598 0.9815 0.9820 0.9820 0.9820 0.9820
2416.006678 0.9820 0.9820 0.9820 0.9820 0.9820
2420.277758 0.9820 0.9820 0.9825 0.9830 0.9830
2424.548838 0.9830 0.9830 0.9830 0.9830 0.9830
2428.819918 0.9830 0.9830 0.9830 0.9830 0.9825
2433.090997 0.9820 0.9815 0.9810 0.9810 0.9810
2437.362077 0.9800 0.9790 0.9790 0.9790 0.9790
2441.633157 0.9790 0.9790 0.9790 0.9800 0.9810
2445.904237 0.9810 0.9810 0.9815 0.9820 0.9820
2450.175317 0.9820 0.9820 0.9820 0.9825 0.9830
2454.446397 0.9840 0.9850 0.9850 0.9850 0.9850
2458.717477 0.9850 0.9850 0.9850 0.9850 0.9850
2462.988557 0.9850 0.9850 0.9850 0.9850 0.9850
2467.259637 0.9850 0.9850 0.9850 0.9840 0.9830
2471.530717 0.9830 0.9830 0.9830 0.9830 0.9830
2475.801797 0.9830 0.9840 0.9850 0.9850 0.9850
2480.072876 0.9850 0.9850 0.9850 0.9850 0.9850
2484.343956 0.9850 0.9850 0.9850 0.9850 0.9850
2488.615036 0.9850 0.9850 0.9850 0.9850 0.9855
2492.886116 0.9860 0.9860 0.9860 0.9860 0.9860
2497.157196 0.9860 0.9860 0.9865 0.9870 0.9870
2501.428276 0.9870 0.9870 0.9870 0.9870 0.9870
2505.699356 0.9870 0.9870 0.9870 0.9870 0.9870
2509.970436 0.9869 0.9864 0.9860 0.9860 0.9859
2514.241516 0.9854 0.9850 0.9850 0.9850 0.9850
2518.512596 0.9850 0.9850 0.9850 0.9850 0.9849
2522.783676 0.9839 0.9830 0.9830 0.9829 0.9824
2527.054755 0.9820 0.9820 0.9820 0.9820 0.9820
2531.325835 0.9820 0.9821 0.9826 0.9830 0.9830
2535.596915 0.9830 0.9830 0.9830 0.9830 0.9830
2539.867995 0.9830 0.9830 0.9830 0.9830 0.9830
2544.139075 0.9830 0.9830 0.9830 0.9830 0.9830
2548.410155 0.9830 0.9832 0.9842 0.9850 0.9850
2552.681235 0.9851 0.9856 0.9860 0.9860 0.9860
2556.952315 0.9860 0.9860 0.9860 0.9860 0.9860
2561.223395 0.9861 0.9866 0.9870 0.9870 0.9870
2565.494475 0.9870 0.9872 0.9882 0.9890 0.9890
2569.765554 0.9890 0.9890 0.9890 0.9890 0.9888
2574.036634 0.9877 0.9870 0.9870 0.9870 0.9870
2578.307714 0.9870 0.9870 0.9870 0.9870 0.9870
2582.578794 0.9870 0.9870 0.9870 0.9870 0.9870
2586.849874 0.9870 0.9870 0.9870 0.9870 0.9870
2591.120954 0.9870 0.9869 0.9864 0.9860 0.9860
2595.392034 0.9860 0.9860 0.9860 0.9860 0.9860
2599.663114 0.9860 0.9860 0.9860 0.9860 0.9860
2603.934194 0.9860 0.9860 0.9860 0.9860 0.9860
2608.205274 0.9860 0.9860 0.9860 0.9860 0.9860
2612.476354 0.9862 0.9867 0.9870 0.9870 0.9870
2616.747433 0.9870 0.9870 0.9870 0.9870 0.9870
2621.018513 0.9870 0.9870 0.9870 0.9870 0.9870
2625.289593 0.9870 0.9870 0.9870 0.9870 0.9870
2629.560673 0.9874 0.9884 0.9890 0.9890 0.9890
2633.831753 0.9890 0.9890 0.9890 0.9890 0.9890
2638.102833 0.9890 0.9890 0.9890 0.9890 0.9890
2642.373913 0.9890 0.9890 0.9890 0.9890 0.9890
2646.644993 0.9890 0.9890 0.9890 0.9890 0.9890
2650.916073 0.9890 0.9890 0.9890 0.9886 0.9876
2655.187153 0.9870 0.9870 0.9870 0.9870 0.9870
2659.458233 0.9870 0.9870 0.9870 0.9868 0.9863
2663.729312 0.9860 0.9860 0.9860 0.9860 0.9860
2668.000392 0.9860 0.9858 0.9853 0.9850 0.9850
2672.271472 0.9850 0.9850 0.9850 0.9850 0.9850
2676.542552 0.9850 0.9850 0.9850 0.9845 0.9835
2680.813632 0.9830 0.9830 0.9830 0.9830 0.9830
2685.084712 0.9830 0.9830 0.9830 0.9830 0.9830
2689.355792 0.9835 0.9845 0.9850 0.9850 0.9850
2693.626872 0.9850 0.9850 0.9850 0.9850 0.9850
2697.897952 0.9850 0.9850 0.9850 0.9850 0.9850
2702.169032 0.9850 0.9845 0.9835 0.9830 0.9830
2706.440112 0.9835 0.9845 0.9850 0.9850 0.9850
2710.711191 0.9850 0.9853 0.9858 0.9860 0.9860
2714.982271 0.9860 0.9860 0.9860 0.9860 0.9860
2719.253351 0.9860 0.9860 0.9860 0.9857 0.9852
2723.524431 0.9850 0.9850 0.9850 0.9850 0.9850
2727.795511 0.9850 0.9844 0.9834 0.9830 0.9830
2732.066591 0.9830 0.9830 0.9830 0.9830 0.9827
2736.337671 0.9822 0.9820 0.9820 0.9817 0.9812
2740.608751 0.9810 0.9810 0.9810 0.9810 0.9813
2744.879831 0.9818 0.9820 0.9820 0.9820 0.9820
2749.150911 0.9820 0.9820 0.9820 0.9820 0.9823
2753.421991 0.9828 0.9830 0.9830 0.9837 0.9847
2757.693070 0.9850 0.9850 0.9850 0.9850 0.9850
2761.964150 0.9850 0.9843 0.9833 0.9830 0.9830
2766.235230 0.9830 0.9830 0.9830 0.9830 0.9830
2770.506310 0.9830 0.9837 0.9847 0.9850 0.9850
2774.777390 0.9850 0.9850 0.9850 0.9850 0.9850
2779.048470 0.9850 0.9850 0.9850 0.9850 0.9850
2783.319550 0.9850 0.9850 0.9850 0.9850 0.9843
2787.590630 0.9833 0.9830 0.9830 0.9830 0.9830
2791.861710 0.9826 0.9821 0.9820 0.9820 0.9820
2796.132790 0.9820 0.9824 0.9829 0.9830 0.9830
2800.403870 0.9830 0.9830 0.9830 0.9830 0.9830
2804.674949 0.9830 0.9830 0.9830 0.9830 0.9830
2808.946029 0.9830 0.9830 0.9830 0.9830 0.9830
2813.217109 0.9830 0.9838 0.9848 0.9850 0.9850
2817.488189 0.9850 0.9850 0.9850 0.9850 0.9850
2821.759269 0.9850 0.9850 0.9850 0.9842 0.9832
2826.030349 0.9830 0.9830 0.9830 0.9830 0.9830
2830.301429 0.9830 0.9830 0.9830 0.9830 0.9830
2834.572509 0.9830 0.9830 0.9830 0.9830 0.9830
2838.843589 0.9830 0.9830 0.9830 0.9830 0.9830
2843.114669 0.9830 0.9830 0.9838 0.9848 0.9850
2847.385749 0.9850 0.9850 0.9850 0.9850 0.9850
2851.656828 0.9850 0.9850 0.9850 0.9850 0.9850
2855.927908 0.9850 0.9850 0.9850 0.9850 0.9850
2860.198988 0.9850 0.9850 0.9850 0.9850 0.9841
2864.470068 0.9831 0.9830 0.9830 0.9830 0.9830
2868.741148 0.9830 0.9830 0.9830 0.9830 0.9830
2873.012228 0.9830 0.9830 0.9830 0.9830 0.9830
2877.283308 0.9825 0.9820 0.9820 0.9820 0.9820
2881.554388 0.9820 0.9820 0.9820 0.9815 0.9810
2885.825468 0.9810 0.9810 0.9810 0.9810 0.9810
2890.096548 0.9810 0.9800 0.9790 0.9790 0.9790
2894.367628 0.9790 0.9790 0.9790 0.9790 0.9790
2898.638707 0.9790 0.9790 0.9790 0.9800 0.9810
2902.909787 0.9810 0.9810 0.9810 0.9810 0.9810
2907.180867 0.9810 0.9810 0.9810 0.9810 0.9810
2911.451947 0.9815 0.9820 0.9820 0.9820 0.9820
2915.723027 0.9820 0.9820 0.9820 0.9820 0.9820
2919.994107 0.9820 0.9820 0.9815 0.9810 0.9810
2924.265187 0.9810 0.9795 0.9780 0.9775 0.9770
2928.536267 0.9770 0.9770 0.9760 0.9750 0.9740
2932.807347 0.9730 0.9730 0.9730 0.9730 0.9730
2937.078427 0.9719 0.9710 0.9710 0.9710 0.9710
2941.349506 0.9710 0.9710 0.9710 0.9710 0.9710
2945.620586 0.9710 0.9710 0.9710 0.9710 0.9710
2949.891666 0.9710 0.9710 0.9710 0.9710 0.9710
2954.162746 0.9710 0.9710 0.9710 0.9710 0.9710
2958.433826 0.9711 0.9721 0.9730 0.9730 0.9729
2962.704906 0.9719 0.9710 0.9710 0.9709 0.9704
2966.975986 0.9700 0.9700 0.9699 0.9694 0.9690
2971.247066 0.9690 0.9690 0.9690 0.9690 0.9690
2975.518146 0.9690 0.9690 0.9690 0.9690 0.9690
2979.789226 0.9690 0.9690 0.9690 0.9689 0.9679
2984.060306 0.9670 0.9670 0.9670 0.9670 0.9669
2988.331385 0.9664 0.9659 0.9654 0.9648 0.9638
2992.602465 0.9630 0.9630 0.9630 0.9630 0.9630
2996.873545 0.9630 0.9629 0.9624 0.9620 0.9620
3001.144625 0.9620 0.9620 0.9620 0.9620 0.9620
3005.415705 0.9620 0.9620 0.9620 0.9620 0.9620
3009.686785 0.9619 0.9614 0.9608 0.9598 0.9590
3013.957865 0.9590 0.9588 0.9578 0.9570 0.9570
3018.228945 0.9568 0.9558 0.9543 0.9513 0.9476
3022.500025 0.9416 0.9355 0.9295 0.9243 0.9212
3026.771105 0.9185 0.9165 0.9140 0.9100 0.9069
3031.042185 0.9064 0.9061 0.9066 0.9096 0.9196
3035.313264 0.9275 0.9295 0.9328 0.9398 0.9453
3039.584344 0.9463 0.9470 0.9470 0.9467 0.9457
3043.855424 0.9446 0.9431 0.9419 0.9414 0.9404
3048.126504 0.9384 0.9367 0.9357 0.9338 0.9298
3052.397584 0.9264 0.9244 0.9227 0.9217 0.9201
3056.668664 0.9171 0.9147 0.9137 0.9130 0.9130
3060.939744 0.9132 0.9137 0.9142 0.9147 0.9150
3065.210824 0.9150 0.9150 0.9150 0.9147 0.9137
3069.481904 0.9120 0.9090 0.9060 0.9030 0.8998
3073.752984 0.8963 0.8938 0.8933 0.8932 0.8937
3078.024064 0.8967 0.9042 0.9106 0.9151 0.9195
3082.295143 0.9235 0.9275 0.9315 0.9342 0.9347
3086.566223 0.9348 0.9343 0.9327 0.9292 0.9260
3090.837303 0.9235 0.9218 0.9213 0.9212 0.9217
3095.108383 0.9228 0.9248 0.9270 0.9295 0.9330
3099.379463 0.9380 0.9430 0.9480 0.9518 0.9538
3103.650543 0.9558 0.9578 0.9594 0.9604 0.9612
3107.921623 0.9617 0.9622 0.9627 0.9634 0.9644
3112.192703 0.9650 0.9650 0.9652 0.9657 0.9662
3116.463783 0.9667 0.9674 0.9684 0.9690 0.9690
3120.734863 0.9690 0.9690 0.9690 0.9690 0.9690
3125.005943 0.9690 0.9690 0.9690 0.9692 0.9697
3129.277022 0.9700 0.9700 0.9702 0.9707 0.9710
3133.548102 0.9710 0.9710 0.9710 0.9710 0.9710
3137.819182 0.9710 0.9710 0.9710 0.9710 0.9710
3142.090262 0.9710 0.9710 0.9710 0.9710 0.9710
3146.361342 0.9710 0.9710 0.9710 0.9710 0.9710
3150.632422 0.9710 0.9710 0.9710 0.9710 0.9710
3154.903502 0.9710 0.9710 0.9710 0.9710 0.9710
3159.174582 0.9710 0.9715 0.9725 0.9730 0.9730
3163.445662 0.9724 0.9714 0.9710 0.9710 0.9710
3167.716742 0.9710 0.9710 0.9710 0.9710 0.9710
3171.987822 0.9710 0.9710 0.9710 0.9710 0.9710
3176.258901 0.9710 0.9707 0.9702 0.9700 0.9700
3180.529981 0.9700 0.9700 0.9700 0.9700 0.9700
3184.801061 0.9700 0.9700 0.9700 0.9697 0.9692
3189.072141 0.9690 0.9690 0.9690 0.9690 0.9693
3193.343221 0.9698 0.9700 0.9700 0.9700 0.9700
3197.614301 0.9700 0.9700 0.9700 0.9700 0.9700
3201.885381 0.9700 0.9697 0.9692 0.9690 0.9690
3206.156461 0.9690 0.9690 0.9690 0.9690 0.9690
3210.427541 0.9690 0.9690 0.9690 0.9690 0.9690
3214.698621 0.9690 0.9690 0.9690 0.9690 0.9690
3218.969701 0.9690 0.9690 0.9690 0.9690 0.9690
3223.240780 0.9690 0.9690 0.9690 0.9690 0.9690
3227.511860 0.9690 0.9690 0.9690 0.9690 0.9690
3231.782940 0.9690 0.9690 0.9690 0.9690 0.9690
3236.054020 0.9690 0.9690 0.9690 0.9683 0.9673
3240.325100 0.9670 0.9670 0.9670 0.9670 0.9670
3244.596180 0.9670 0.9670 0.9670 0.9677 0.9687
3248.867260 0.9690 0.9690 0.9690 0.9690 0.9690
3253.138340 0.9690 0.9690 0.9690 0.9683 0.9673
3257.409420 0.9670 0.9670 0.9670 0.9670 0.9670
3261.680500 0.9670 0.9670 0.9670 0.9670 0.9670
3265.951580 0.9670 0.9670 0.9670 0.9670 0.9670
3270.222659 0.9670 0.9670 0.9670 0.9670 0.9670
3274.493739 0.9670 0.9670 0.9670 0.9670 0.9670
3278.764819 0.9670 0.9670 0.9670 0.9670 0.9670
3283.035899 0.9670 0.9670 0.9670 0.9670 0.9670
3287.306979 0.9670 0.9670 0.9670 0.9670 0.9670
3291.578059 0.9666 0.9661 0.9660 0.9660 0.9664
3295.849139 0.9669 0.9670 0.9670 0.9670 0.9670
3300.120219 0.9670 0.9670 0.9670 0.9670 0.9670
3304.391299 0.9670 0.9670 0.9670 0.9670 0.9670
3308.662379 0.9670 0.9670 0.9666 0.9661 0.9660
3312.933458 0.9660 0.9660 0.9660 0.9660 0.9660
3317.204538 0.9664 0.9669 0.9670 0.9670 0.9670
3321.475618 0.9670 0.9666 0.9661 0.9660 0.9660
3325.746698 0.9660 0.9660 0.9660 0.9660 0.9655
3330.017778 0.9650 0.9650 0.9650 0.9650 0.9650
3334.288858 0.9641 0.9631 0.9630 0.9630 0.9630
3338.559938 0.9630 0.9630 0.9630 0.9630 0.9630
3342.831018 0.9630 0.9630 0.9630 0.9630 0.9630
3347.102098 0.9630 0.9630 0.9630 0.9630 0.9630
3351.373178 0.9625 0.9620 0.9620 0.9620 0.9625
3355.644258 0.9630 0.9630 0.9630 0.9630 0.9630
3359.915337 0.9630 0.9630 0.9630 0.9630 0.9630
3364.186417 0.9630 0.9630 0.9630 0.9630 0.9630
3368.457497 0.9625 0.9620 0.9620 0.9620 0.9620
3372.728577 0.9620 0.9625 0.9630 0.9630 0.9630
3376.999657 0.9630 0.9630 0.9630 0.9630 0.9630
3381.270737 0.9630 0.9630 0.9630 0.9630 0.9630
3385.541817 0.9630 0.9630 0.9630 0.9630 0.9630
3389.812897 0.9630 0.9630 0.9630 0.9630 0.9630
3394.083977 0.9625 0.9620 0.9620 0.9620 0.9620
3398.355057 0.9620 0.9615 0.9610 0.9610 0.9609
3402.626137 0.9599 0.9590 0.9590 0.9590 0.9590
3406.897216 0.9590 0.9590 0.9590 0.9590 0.9590
3411.168296 0.9590 0.9590 0.9590 0.9590 0.9590
3415.439376 0.9590 0.9590 0.9590 0.9590 0.9590
3419.710456 0.9590 0.9590 0.9590 0.9590 0.9590
3423.981536 0.9590 0.9590 0.9589 0.9584 0.9580
3428.252616 0.9580 0.9580 0.9580 0.9580 0.9580
3432.523696 0.9580 0.9580 0.9580 0.9580 0.9580
3436.794776 0.9580 0.9580 0.9580 0.9580 0.9580
3441.065856 0.9580 0.9580 0.9580 0.9580 0.9580
3445.336936 0.9580 0.9579 0.9574 0.9570 0.9570
3449.608016 0.9570 0.9570 0.9570 0.9570 0.9570
3453.879095 0.9570 0.9570 0.9570 0.9570 0.9570
3458.150175 0.9570 0.9570 0.9570 0.9570 0.9570
3462.421255 0.9570 0.9570 0.9570 0.9570 0.9570
3466.692335 0.9570 0.9570 0.9571 0.9576 0.9580
3470.963415 0.9580 0.9580 0.9580 0.9580 0.9580
3475.234495 0.9580 0.9580 0.9580 0.9580 0.9580
3479.505575 0.9580 0.9580 0.9580 0.9581 0.9586
3483.776655 0.9590 0.9590 0.9590 0.9590 0.9590
3488.047735 0.9590 0.9590 0.9590 0.9590 0.9590
3492.318815 0.9590 0.9590 0.9590 0.9590 0.9590
3496.589895 0.9590 0.9590 0.9590 0.9590 0.9590
3500.860974 0.9590 0.9590 0.9590 0.9590 0.9590
3505.132054 0.9590 0.9590 0.9590 0.9590 0.9590
3509.403134 0.9590 0.9590 0.9590 0.9590 0.9590
3513.674214 0.9590 0.9590 0.9590 0.9593 0.9603
3517.945294 0.9610 0.9610 0.9610 0.9610 0.9610
3522.216374 0.9610 0.9610 0.9610 0.9610 0.9610
3526.487454 0.9610 0.9610 0.9610 0.9610 0.9610
3530.758534 0.9610 0.9610 0.9610 0.9610 0.9610
3535.029614 0.9610 0.9610 0.9612 0.9617 0.9620
3539.300694 0.9620 0.9620 0.9620 0.9620 0.9620
3543.571774 0.9620 0.9620 0.9620 0.9620 0.9620
3547.842853 0.9620 0.9622 0.9627 0.9630 0.9630
3552.113933 0.9628 0.9623 0.9620 0.9620 0.9622
3556.385013 0.9627 0.9630 0.9630 0.9630 0.9630
3560.656093 0.9634 0.9644 0.9650 0.9650 0.9650
3564.927173 0.9650 0.9646 0.9636 0.9630 0.9630
3569.198253 0.9630 0.9630 0.9630 0.9630 0.9630
3573.469333 0.9630 0.9628 0.9623 0.9620 0.9620
3577.740413 0.9620 0.9620 0.9622 0.9627 0.9635
3582.011493 0.9645 0.9650 0.9650 0.9650 0.9650
3586.282573 0.9650 0.9650 0.9650 0.9650 0.9645
3590.553653 0.9635 0.9630 0.9630 0.9630 0.9630
3594.824732 0.9628 0.9623 0.9620 0.9620 0.9620
3599.095812 0.9620 0.9622 0.9627 0.9630 0.9630
3603.366892 0.9630 0.9630 0.9630 0.9630 0.9630
3607.637972 0.9630 0.9630 0.9630 0.9627 0.9622
3611.909052 0.9620 0.9620 0.9620 0.9620 0.9620
3616.180132 0.9620 0.9620 0.9620 0.9623 0.9628
3620.451212 0.9630 0.9630 0.9630 0.9630 0.9627
3624.722292 0.9622 0.9620 0.9620 0.9617 0.9612
3628.993372 0.9610 0.9610 0.9610 0.9610 0.9613
3633.264452 0.9618 0.9620 0.9620 0.9620 0.9620
3637.535532 0.9623 0.9628 0.9636 0.9646 0.9653
3641.806611 0.9658 0.9660 0.9660 0.9657 0.9652
3646.077691 0.9650 0.9650 0.9650 0.9650 0.9644
3650.348771 0.9634 0.9630 0.9630 0.9630 0.9630
3654.619851 0.9630 0.9630 0.9636 0.9646 0.9653
3658.890931 0.9658 0.9670 0.9685 0.9703 0.9723
3663.162011 0.9730 0.9730 0.9733 0.9738 0.9740
3667.433091 0.9740 0.9737 0.9732 0.9723 0.9713
3671.704171 0.9703 0.9693 0.9690 0.9690 0.9693
3675.975251 0.9698 0.9703 0.9708 0.9710 0.9710
3680.246331 0.9707 0.9702 0.9700 0.9700 0.9690
3684.517410 0.9675 0.9663 0.9653 0.9650 0.9650
3688.788490 0.9643 0.9633 0.9630 0.9630 0.9637
3693.059570 0.9647 0.9657 0.9667 0.9677 0.9687
3697.330650 0.9694 0.9699 0.9700 0.9700 0.9704
3701.601730 0.9709 0.9710 0.9710 0.9717 0.9727
3705.872810 0.9730 0.9730 0.9723 0.9713 0.9717
3710.143890 0.9727 0.9730 0.9730 0.9722 0.9712
3714.414970 0.9710 0.9710 0.9710 0.9710 0.9718
3718.686050 0.9728 0.9734 0.9739 0.9752 0.9767
3722.957130 0.9774 0.9779 0.9780 0.9780 0.9780
3727.228210 0.9780 0.9776 0.9771 0.9770 0.9770
3731.499289 0.9774 0.9779 0.9784 0.9789 0.9798
3735.770369 0.9808 0.9810 0.9810 0.9810 0.9810
3740.041449 0.9798 0.9783 0.9776 0.9771 0.9758
3744.312529 0.9743 0.9740 0.9740 0.9736 0.9731
3748.583609 0.9730 0.9730 0.9730 0.9730 0.9730
3752.854689 0.9730 0.9730 0.9730 0.9722 0.9711
3757.125769 0.9710 0.9710 0.9710 0.9710 0.9710
3761.396849 0.9710 0.9710 0.9710 0.9710 0.9710
3765.667929 0.9706 0.9701 0.9700 0.9700 0.9700
3769.939009 0.9700 0.9696 0.9691 0.9690 0.9690
3774.210089 0.9690 0.9690 0.9690 0.9690 0.9694
3778.481168 0.9699 0.9700 0.9700 0.9705 0.9710
3782.752248 0.9710 0.9710 0.9710 0.9710 0.9710
3787.023328 0.9710 0.9710 0.9710 0.9710 0.9710
3791.294408 0.9710 0.9710 0.9710 0.9710
##END=
