##TITLE=FORMIC ACID, SODIUM SALT
##JCAMP-DX=4.24
##DATA TYPE=INFRARED SPECTRUM
##CLASS=COBLENTZ III
##ORIGIN=DOW CHEMICAL COMPANY
##OWNER=COBLENTZ SOCIETY
Collection (C) 2018 copyright by the U.S. Secretary of Commerce
on behalf of the United States of America. All rights reserved.
##DATE=1967/09/27
##MOLFORM=C H O2 Na
##SOURCE REFERENCE=COBLENTZ NO. 10183
##$NIST ID=B6010183
##$NIST SOURCE=COBLENTZ
##$NIST IMAGE=cob10183
##SPECTROMETER/DATA SYSTEM=BECKMAN IR-9 (GRATING)
##INSTRUMENT PARAMETERS=ORDER CHANGES AT 670, 1200, 2000 CM^-^1
##STATE=SOLID (SPLIT MULL, FLUOROLUBE FOR 3800-1330 AND NUJOL FOR 1330-400 CM ^-^1)
##PATH LENGTH=
$$SPECTRAL CONTAMINATION DUE TO OIL AROUND 725 CM^-^1
##SAMPLING PROCEDURE=TRANSMISSION
##RESOLUTION=4
##DATA PROCESSING=DIGITIZED BY NIST FROM HARD COPY (FROM TWO SEGMENTS)
##XUNITS=1/CM
##YUNITS=TRANSMITTANCE
##XFACTOR=1.000000
##YFACTOR=1
##DELTAX=0.853728
##FIRSTX=401.821
##LASTX=3797.1
##FIRSTY=0.659
##MAXX=3797.1
##MINX=401.821
##MAXY=1.003
##MINY=0.037
##NPOINTS=3978
##XYDATA=(X++(Y..Y))
401.821000 0.6590 0.6570 0.6570 0.6560 0.6550
406.089641 0.6520 0.6490 0.6480 0.6470 0.6450
410.358283 0.6450 0.6450 0.6470 0.6480 0.6480
414.626924 0.6490 0.6510 0.6550 0.6560 0.6590
418.895566 0.6690 0.6840 0.6880 0.6920 0.6920
423.164207 0.6950 0.6970 0.7030 0.7030 0.7080
427.432849 0.7120 0.7160 0.7200 0.7240 0.7280
431.701490 0.7320 0.7370 0.7410 0.7450 0.7490
435.970132 0.7530 0.7570 0.7610 0.7640 0.7720
440.238773 0.7760 0.7810 0.7860 0.7930 0.7940
444.507415 0.7960 0.8010 0.8060 0.8100 0.8140
448.776056 0.8160 0.8180 0.8210 0.8240 0.8280
453.044698 0.8330 0.8330 0.8380 0.8400 0.8420
457.313339 0.8450 0.8480 0.8500 0.8520 0.8540
461.581981 0.8580 0.8620 0.8650 0.8660 0.8690
465.850622 0.8700 0.8730 0.8770 0.8780 0.8800
470.119264 0.8810 0.8850 0.8880 0.8920 0.8920
474.387905 0.8940 0.8960 0.8970 0.8980 0.9000
478.656547 0.9010 0.9020 0.9040 0.9080 0.9090
482.925188 0.9100 0.9120 0.9120 0.9160 0.9170
487.193830 0.9170 0.9200 0.9210 0.9220 0.9240
491.462471 0.9250 0.9280 0.9280 0.9290 0.9290
495.731112 0.9290 0.9300 0.9320 0.9320 0.9340
499.999754 0.9340 0.9380 0.9400 0.9400 0.9410
504.268395 0.9410 0.9420 0.9440 0.9450 0.9460
508.537037 0.9480 0.9480 0.9490 0.9500 0.9520
512.805678 0.9530 0.9530 0.9540 0.9540 0.9560
517.074320 0.9560 0.9570 0.9570 0.9570 0.9570
521.342961 0.9580 0.9580 0.9600 0.9610 0.9610
525.611603 0.9620 0.9640 0.9640 0.9640 0.9650
529.880244 0.9650 0.9660 0.9660 0.9660 0.9660
534.148886 0.9660 0.9660 0.9660 0.9680 0.9690
538.417527 0.9690 0.9690 0.9700 0.9720 0.9720
542.686169 0.9720 0.9730 0.9730 0.9730 0.9740
546.954810 0.9740 0.9740 0.9740 0.9740 0.9760
551.223452 0.9760 0.9760 0.9760 0.9760 0.9760
555.492093 0.9770 0.9780 0.9780 0.9780 0.9780
559.760735 0.9780 0.9780 0.9780 0.9780 0.9800
564.029376 0.9800 0.9810 0.9820 0.9840 0.9850
568.298018 0.9850 0.9850 0.9860 0.9860 0.9860
572.566659 0.9860 0.9860 0.9860 0.9880 0.9890
576.835301 0.9890 0.9890 0.9890 0.9890 0.9890
581.103942 0.9890 0.9900 0.9900 0.9900 0.9900
585.372583 0.9900 0.9900 0.9900 0.9900 0.9920
589.641225 0.9920 0.9920 0.9920 0.9930 0.9930
593.909866 0.9930 0.9930 0.9940 0.9960 0.9960
598.178508 0.9960 0.9970 0.9970 0.9970 0.9980
602.447149 0.9980 0.9980 0.9980 0.9980 0.9980
606.715791 0.9980 0.9980 0.9980 0.9980 0.9980
610.984432 0.9970 0.9970 0.9970 0.9970 0.9970
615.253074 0.9970 0.9970 0.9970 0.9970 0.9970
619.521715 0.9970 0.9970 0.9970 0.9970 0.9970
623.790357 0.9970 0.9970 0.9970 0.9970 0.9970
628.058998 0.9970 0.9970 0.9960 0.9960 0.9960
632.327640 0.9960 0.9960 0.9960 0.9960 0.9960
636.596281 0.9960 0.9960 0.9960 0.9960 0.9960
640.864923 0.9940 0.9940 0.9940 0.9940 0.9940
645.133564 0.9940 0.9940 0.9940 0.9940 0.9940
649.402206 0.9940 0.9940 0.9940 0.9940 0.9960
653.670847 0.9960 0.9960 0.9960 0.9960 0.9960
657.939489 0.9960 0.9970 0.9970 0.9970 0.9970
662.208130 0.9970 0.9970 0.9970 0.9970 0.9960
666.476771 0.9940 0.9940 0.9930 0.9930 0.9930
670.745413 0.9930 0.9920 0.9920 0.9920 0.9920
675.014054 0.9900 0.9890 0.9880 0.9860 0.9850
679.282696 0.9840 0.9820 0.9810 0.9800 0.9780
683.551337 0.9770 0.9760 0.9740 0.9730 0.9720
687.819979 0.9700 0.9690 0.9660 0.9650 0.9640
692.088620 0.9620 0.9610 0.9600 0.9580 0.9570
696.357262 0.9560 0.9540 0.9530 0.9520 0.9500
700.625903 0.9490 0.9480 0.9460 0.9450 0.9440
704.894545 0.9410 0.9410 0.9400 0.9380 0.9370
709.163186 0.9370 0.9360 0.9340 0.9320 0.9290
713.431828 0.9280 0.9260 0.9210 0.9160 0.9100
717.700469 0.9090 0.8970 0.8920 0.8860 0.8780
721.969111 0.8730 0.8650 0.8640 0.8640 0.8650
726.237752 0.8660 0.8660 0.8680 0.8700 0.8720
730.506394 0.8760 0.8840 0.8860 0.8890 0.8900
734.775035 0.8920 0.8920 0.8940 0.8940 0.8960
739.043677 0.8970 0.9000 0.9020 0.9080 0.9100
743.312318 0.9130 0.9160 0.9170 0.9200 0.9210
747.580960 0.9220 0.9240 0.9260 0.9260 0.9280
751.849601 0.9290 0.9300 0.9300 0.9290 0.9260
756.118242 0.9260 0.9220 0.9160 0.9090 0.9080
760.386884 0.9060 0.9020 0.8920 0.8820 0.8700
764.655525 0.8132 0.7402 0.7191 0.7001 0.5696
768.924167 0.4980 0.4260 0.2861 0.2830 0.1433
773.192808 0.0951 0.0471 0.0390 0.0390 0.2142
777.461450 0.2840 0.3599 0.4439 0.6196 0.7068
781.730091 0.7528 0.7919 0.8119 0.8279 0.8419
785.998733 0.8560 0.8680 0.8770 0.8860 0.8940
790.267374 0.9010 0.9090 0.9130 0.9170 0.9200
794.536016 0.9250 0.9300 0.9320 0.9360 0.9400
798.804657 0.9420 0.9440 0.9480 0.9520 0.9540
803.073299 0.9540 0.9560 0.9580 0.9580 0.9600
807.341940 0.9610 0.9620 0.9620 0.9640 0.9640
811.610582 0.9650 0.9660 0.9660 0.9680 0.9680
815.879223 0.9690 0.9690 0.9700 0.9700 0.9700
820.147865 0.9720 0.9720 0.9720 0.9720 0.9720
824.416506 0.9720 0.9720 0.9720 0.9720 0.9720
828.685148 0.9720 0.9730 0.9730 0.9730 0.9730
832.953789 0.9730 0.9730 0.9730 0.9730 0.9730
837.222431 0.9730 0.9730 0.9730 0.9730 0.9730
841.491072 0.9720 0.9720 0.9720 0.9700 0.9700
845.759713 0.9690 0.9680 0.9680 0.9660 0.9650
850.028355 0.9650 0.9650 0.9660 0.9660 0.9660
854.296996 0.9650 0.9650 0.9650 0.9650 0.9650
858.565638 0.9650 0.9650 0.9650 0.9650 0.9650
862.834279 0.9650 0.9650 0.9650 0.9650 0.9650
867.102921 0.9650 0.9650 0.9650 0.9650 0.9650
871.371562 0.9650 0.9650 0.9650 0.9650 0.9650
875.640204 0.9650 0.9650 0.9640 0.9640 0.9640
879.908845 0.9620 0.9620 0.9620 0.9620 0.9620
884.177487 0.9610 0.9600 0.9580 0.9560 0.9530
888.446128 0.9520 0.9500 0.9500 0.9490 0.9480
892.714770 0.9460 0.9460 0.9460 0.9460 0.9450
896.983411 0.9450 0.9450 0.9450 0.9440 0.9440
901.252053 0.9440 0.9440 0.9440 0.9420 0.9420
905.520694 0.9420 0.9420 0.9410 0.9400 0.9400
909.789336 0.9400 0.9410 0.9410 0.9400 0.9400
914.057977 0.9400 0.9380 0.9380 0.9360 0.9340
918.326619 0.9330 0.9340 0.9340 0.9330 0.9330
922.595260 0.9330 0.9330 0.9330 0.9330 0.9330
926.863902 0.9330 0.9330 0.9330 0.9330 0.9330
931.132543 0.9330 0.9300 0.9300 0.9300 0.9290
935.401184 0.9290 0.9290 0.9290 0.9290 0.9290
939.669826 0.9290 0.9280 0.9280 0.9280 0.9280
943.938467 0.9280 0.9280 0.9280 0.9280 0.9280
948.207109 0.9280 0.9280 0.9260 0.9260 0.9260
952.475750 0.9250 0.9250 0.9240 0.9240 0.9220
956.744392 0.9220 0.9220 0.9220 0.9210 0.9210
961.013033 0.9210 0.9200 0.9200 0.9180 0.9180
965.281675 0.9180 0.9170 0.9170 0.9170 0.9160
969.550316 0.9160 0.9160 0.9130 0.9130 0.9120
973.818958 0.9120 0.9120 0.9120 0.9120 0.9120
978.087599 0.9120 0.9130 0.9130 0.9140 0.9160
982.356241 0.9170 0.9170 0.9180 0.9180 0.9180
986.624882 0.9200 0.9210 0.9210 0.9210 0.9210
990.893524 0.9220 0.9220 0.9220 0.9220 0.9240
995.162165 0.9240 0.9240 0.9240 0.9250 0.9240
999.430807 0.9240 0.9240 0.9240 0.9240 0.9240
1003.699448 0.9240 0.9240 0.9240 0.9240 0.9240
1007.968090 0.9250 0.9240 0.9240 0.9240 0.9240
1012.236731 0.9240 0.9240 0.9220 0.9210 0.9210
1016.505372 0.9210 0.9210 0.9210 0.9220 0.9220
1020.774014 0.9220 0.9210 0.9210 0.9200 0.9180
1025.042655 0.9180 0.9180 0.9180 0.9180 0.9180
1029.311297 0.9180 0.9180 0.9210 0.9210 0.9200
1033.579938 0.9200 0.9200 0.9200 0.9180 0.9180
1037.848580 0.9170 0.9170 0.9170 0.9170 0.9170
1042.117221 0.9170 0.9170 0.9170 0.9170 0.9170
1046.385863 0.9170 0.9180 0.9180 0.9180 0.9170
1050.654504 0.9170 0.9170 0.9170 0.9170 0.9170
1054.923146 0.9160 0.9160 0.9160 0.9160 0.9160
1059.191787 0.9160 0.9160 0.9140 0.9140 0.9130
1063.460429 0.9130 0.9120 0.9120 0.9050 0.8980
1067.729070 0.8780 0.8520 0.8290 0.8290 0.8699
1071.997712 0.8760 0.8810 0.8880 0.8970 0.8980
1076.266353 0.9000 0.9010 0.9010 0.9020 0.9020
1080.534995 0.9040 0.9040 0.9040 0.9040 0.9040
1084.803636 0.9040 0.9040 0.9040 0.9050 0.9050
1089.072278 0.9060 0.9060 0.9060 0.9050 0.9050
1093.340919 0.9050 0.9040 0.9040 0.9020 0.9020
1097.609561 0.9020 0.9020 0.9010 0.9010 0.9010
1101.878202 0.9000 0.9000 0.9000 0.9000 0.9000
1106.146843 0.9000 0.9000 0.8980 0.8980 0.8980
1110.415485 0.8970 0.8960 0.8940 0.8940 0.8930
1114.684126 0.8930 0.8920 0.8920 0.8920 0.8900
1118.952768 0.8900 0.8900 0.8900 0.8890 0.8880
1123.221409 0.8880 0.8860 0.8850 0.8840 0.8820
1127.490051 0.8820 0.8820 0.8810 0.8810 0.8810
1131.758692 0.8810 0.8800 0.8780 0.8780 0.8770
1136.027334 0.8770 0.8760 0.8760 0.8740 0.8720
1140.295975 0.8720 0.8700 0.8690 0.8660 0.8650
1144.564617 0.8640 0.8620 0.8610 0.8580 0.8570
1148.833258 0.8560 0.8540 0.8520 0.8500 0.8500
1153.101900 0.8490 0.8490 0.8480 0.8480 0.8460
1157.370541 0.8450 0.8450 0.8440 0.8440 0.8440
1161.639183 0.8440 0.8450 0.8450 0.8440 0.8440
1165.907824 0.8420 0.8410 0.8400 0.8400 0.8380
1170.176466 0.8380 0.8380 0.8370 0.8370 0.8370
1174.445107 0.8370 0.8370 0.8380 0.8380 0.8400
1178.713749 0.8400 0.8400 0.8400 0.8400 0.8410
1182.982390 0.8410 0.8410 0.8410 0.8410 0.8410
1187.251032 0.8410 0.8400 0.8380 0.8370 0.8360
1191.519673 0.8340 0.8330 0.8320 0.8320 0.8300
1195.788314 0.8300 0.8290 0.8280 0.8280 0.8250
1200.056956 0.8220 0.8210 0.8200 0.8180 0.8160
1204.325597 0.8160 0.8160 0.8140 0.8140 0.8140
1208.594239 0.8140 0.8140 0.8140 0.8140 0.8140
1212.862880 0.8140 0.8140 0.8140 0.8130 0.8130
1217.131522 0.8120 0.8120 0.8100 0.8100 0.8090
1221.400163 0.8060 0.8050 0.8040 0.8040 0.8040
1225.668805 0.8020 0.8010 0.8000 0.7960 0.7960
1229.937446 0.7930 0.7930 0.7920 0.7920 0.7920
1234.206088 0.7900 0.7890 0.7890 0.7880 0.7880
1238.474729 0.7860 0.7850 0.7820 0.7800 0.7780
1242.743371 0.7780 0.7770 0.7770 0.7760 0.7740
1247.012012 0.7740 0.7730 0.7720 0.7700 0.7690
1251.280654 0.7680 0.7660 0.7650 0.7640 0.7610
1255.549295 0.7610 0.7580 0.7580 0.7560 0.7540
1259.817937 0.7530 0.7520 0.7480 0.7470 0.7450
1264.086578 0.7440 0.7410 0.7410 0.7400 0.7390
1268.355220 0.7360 0.7360 0.7320 0.7290 0.7270
1272.623861 0.7210 0.7210 0.7200 0.7160 0.7120
1276.892503 0.7090 0.7070 0.7050 0.7030 0.7000
1281.161144 0.6990 0.6970 0.6930 0.6910 0.6890
1285.429785 0.6880 0.6850 0.6830 0.6790 0.6760
1289.698427 0.6730 0.6680 0.6610 0.6530 0.6480
1293.967068 0.6470 0.6440 0.6430 0.6400 0.6360
1298.235710 0.6310 0.6270 0.6210 0.6160 0.6090
1302.504351 0.6040 0.5990 0.5960 0.5920 0.5890
1306.772993 0.5840 0.5800 0.5760 0.5710 0.5670
1311.041634 0.5610 0.5570 0.5520 0.5510 0.5480
1315.310276 0.5430 0.5370 0.5320 0.5270 0.5210
1319.578917 0.5160 0.5090 0.5040 0.4980 0.4910
1323.847559 0.4840 0.4760 0.4480 0.4240 0.4060
1328.116200 0.3910 0.3800 0.3720 0.3660 0.3600
1332.384842 0.3550 0.3500 0.3420 0.3310 0.3180
1336.653483 0.3070 0.2960 0.2880 0.2800 0.2750
1340.922125 0.2680 0.2620 0.2550 0.2460 0.2370
1345.190766 0.2250 0.2100 0.1931 0.1850 0.1691
1349.459408 0.1490 0.1260 0.1050 0.0950 0.0860
1353.728049 0.0730 0.0670 0.0610 0.0540 0.0470
1357.996691 0.0430 0.0410 0.0390 0.0390 0.0390
1362.265332 0.0380 0.0380 0.0370 0.0370 0.0370
1366.533973 0.0370 0.0370 0.0370 0.0380 0.0380
1370.802615 0.0390 0.0410 0.0490 0.0609 0.1366
1375.071256 0.1950 0.2520 0.3110 0.3659 0.4179
1379.339898 0.4669 0.5109 0.5887 0.6229 0.6489
1383.608539 0.6720 0.6910 0.7050 0.7200 0.7330
1387.877181 0.7480 0.7600 0.7720 0.7770 0.7899
1392.145822 0.8000 0.8050 0.8090 0.8120 0.8130
1396.414464 0.8160 0.8200 0.8240 0.8260 0.8280
1400.683105 0.8290 0.8300 0.8320 0.8330 0.8330
1404.951747 0.8330 0.8330 0.8330 0.8330 0.8330
1409.220388 0.8330 0.8330 0.8330 0.8330 0.8320
1413.489030 0.8320 0.8300 0.8290 0.8290 0.8290
1417.757671 0.8280 0.8250 0.8240 0.8240 0.8210
1422.026313 0.8180 0.8130 0.8100 0.8100 0.8090
1426.294954 0.8060 0.8050 0.8020 0.8010 0.7980
1430.563596 0.7960 0.7940 0.7930 0.7920 0.7890
1434.832237 0.7890 0.7880 0.7840 0.7840 0.7820
1439.100879 0.7810 0.7780 0.7760 0.7730 0.7700
1443.369520 0.7680 0.7650 0.7610 0.7610 0.7580
1447.638162 0.7570 0.7570 0.7560 0.7530 0.7490
1451.906803 0.7470 0.7440 0.7410 0.7390 0.7370
1456.175444 0.7350 0.7290 0.7270 0.7250 0.7230
1460.444086 0.7190 0.7160 0.7130 0.7110 0.7090
1464.712727 0.7080 0.7070 0.7050 0.7030 0.7000
1468.981369 0.6970 0.6950 0.6920 0.6890 0.6870
1473.250010 0.6850 0.6840 0.6810 0.6790 0.6770
1477.518652 0.6750 0.6730 0.6710 0.6650 0.6610
1481.787293 0.6570 0.6520 0.6490 0.6470 0.6440
1486.055935 0.6430 0.6430 0.6410 0.6390 0.6350
1490.324576 0.6320 0.6280 0.6230 0.6190 0.6150
1494.593218 0.6120 0.6080 0.6070 0.6030 0.6010
1498.861859 0.5990 0.5960 0.5890 0.5870 0.5840
1503.130501 0.5800 0.5790 0.5760 0.5720 0.5720
1507.399142 0.5710 0.5650 0.5630 0.5560 0.5520
1511.667784 0.5490 0.5470 0.5440 0.5410 0.5390
1515.936425 0.5360 0.5330 0.5290 0.5240 0.5170
1520.205067 0.5170 0.5110 0.5050 0.5040 0.5010
1524.473708 0.4990 0.4910 0.4830 0.4790 0.4720
1528.742350 0.4680 0.4660 0.4640 0.4620 0.4550
1533.010991 0.4440 0.4380 0.4310 0.4260 0.4200
1537.279633 0.4070 0.4000 0.3980 0.3940 0.3860
1541.548274 0.3760 0.3700 0.3620 0.3550 0.3460
1545.816915 0.3400 0.3340 0.3260 0.3190 0.3160
1550.085557 0.3140 0.3110 0.3060 0.3060 0.3020
1554.354198 0.2950 0.2870 0.2780 0.2710 0.2670
1558.622840 0.2660 0.2630 0.2590 0.2540 0.2470
1562.891481 0.2390 0.2310 0.2230 0.2140 0.2050
1567.160123 0.1990 0.1930 0.1860 0.1790 0.1730
1571.428764 0.1650 0.1580 0.1500 0.1410 0.1370
1575.697406 0.1300 0.1230 0.1140 0.1060 0.0990
1579.966047 0.0970 0.0930 0.0890 0.0850 0.0780
1584.234689 0.0770 0.0740 0.0710 0.0700 0.0690
1588.503330 0.0660 0.0650 0.0630 0.0630 0.0620
1592.771972 0.0620 0.0620 0.0610 0.0610 0.0610
1597.040613 0.0590 0.0590 0.0590 0.0590 0.0590
1601.309255 0.0580 0.0570 0.0570 0.0550 0.0550
1605.577896 0.0540 0.0540 0.0540 0.0540 0.0540
1609.846538 0.0540 0.0540 0.0530 0.0510 0.0510
1614.115179 0.0510 0.0510 0.0510 0.0510 0.0510
1618.383821 0.0510 0.0510 0.0510 0.0510 0.0510
1622.652462 0.0510 0.0530 0.0530 0.0530 0.0530
1626.921104 0.0550 0.0550 0.0570 0.0590 0.0610
1631.189745 0.0620 0.0660 0.0670 0.0690 0.0710
1635.458386 0.0730 0.0770 0.0780 0.0820 0.0870
1639.727028 0.1030 0.1130 0.1230 0.1330 0.1420
1643.995669 0.1500 0.1570 0.1630 0.1700 0.1780
1648.264311 0.1850 0.1930 0.2010 0.2090 0.2170
1652.532952 0.2250 0.2340 0.2420 0.2510 0.2600
1656.801594 0.2700 0.2790 0.2900 0.2990 0.3080
1661.070235 0.3190 0.3280 0.3390 0.3500 0.3590
1665.338877 0.3700 0.3800 0.3900 0.4000 0.4110
1669.607518 0.4200 0.4310 0.4400 0.4510 0.4600
1673.876160 0.4670 0.4720 0.4790 0.4830 0.4920
1678.144801 0.4980 0.5030 0.5080 0.5160 0.5240
1682.413443 0.5270 0.5310 0.5310 0.5330 0.5360
1686.682084 0.5370 0.5390 0.5390 0.5390 0.5360
1690.950726 0.5170 0.5170 0.5510 0.5630 0.5920
1695.219367 0.6170 0.6250 0.6290 0.6360 0.6410
1699.488009 0.6450 0.6490 0.6550 0.6600 0.6650
1703.756650 0.6670 0.6710 0.6750 0.6760 0.6810
1708.025292 0.6840 0.6870 0.6880 0.6890 0.6920
1712.293933 0.6960 0.6990 0.7000 0.7030 0.7040
1716.562574 0.7050 0.7070 0.7080 0.7090 0.7130
1720.831216 0.7160 0.7190 0.7200 0.7210 0.7230
1725.099857 0.7240 0.7280 0.7290 0.7330 0.7360
1729.368499 0.7370 0.7370 0.7400 0.7440 0.7440
1733.637140 0.7450 0.7480 0.7490 0.7500 0.7530
1737.905782 0.7570 0.7610 0.7640 0.7650 0.7680
1742.174423 0.7690 0.7700 0.7730 0.7740 0.7760
1746.443065 0.7770 0.7810 0.7820 0.7840 0.7880
1750.711706 0.7890 0.7930 0.7940 0.7960 0.8010
1754.980348 0.8020 0.8040 0.8080 0.8090 0.8100
1759.248989 0.8130 0.8160 0.8210 0.8220 0.8250
1763.517631 0.8260 0.8290 0.8290 0.8320 0.8330
1767.786272 0.8340 0.8360 0.8380 0.8400 0.8420
1772.054914 0.8420 0.8440 0.8450 0.8480 0.8480
1776.323555 0.8490 0.8490 0.8500 0.8520 0.8520
1780.592197 0.8540 0.8560 0.8570 0.8580 0.8610
1784.860838 0.8620 0.8620 0.8640 0.8660 0.8680
1789.129480 0.8690 0.8690 0.8700 0.8720 0.8740
1793.398121 0.8740 0.8760 0.8770 0.8780 0.8820
1797.666763 0.8880 0.8880 0.8890 0.8890 0.8900
1801.935404 0.8920 0.8920 0.8930 0.8960 0.8960
1806.204045 0.8970 0.8980 0.9000 0.9000 0.9010
1810.472687 0.9020 0.9040 0.9050 0.9060 0.9060
1814.741328 0.9060 0.9080 0.9090 0.9090 0.9100
1819.009970 0.9100 0.9120 0.9120 0.9130 0.9140
1823.278611 0.9140 0.9160 0.9170 0.9170 0.9180
1827.547253 0.9200 0.9210 0.9210 0.9220 0.9220
1831.815894 0.9240 0.9240 0.9240 0.9250 0.9260
1836.084536 0.9280 0.9280 0.9290 0.9290 0.9300
1840.353177 0.9320 0.9320 0.9320 0.9320 0.9320
1844.621819 0.9320 0.9320 0.9320 0.9330 0.9330
1848.890460 0.9360 0.9360 0.9370 0.9380 0.9400
1853.159102 0.9400 0.9400 0.9400 0.9410 0.9420
1857.427743 0.9420 0.9440 0.9450 0.9450 0.9460
1861.696385 0.9460 0.9480 0.9460 0.9480 0.9480
1865.965026 0.9490 0.9490 0.9490 0.9490 0.9490
1870.233668 0.9500 0.9520 0.9520 0.9530 0.9530
1874.502309 0.9530 0.9540 0.9540 0.9540 0.9560
1878.770951 0.9560 0.9560 0.9570 0.9570 0.9570
1883.039592 0.9580 0.9580 0.9600 0.9600 0.9610
1887.308234 0.9620 0.9620 0.9620 0.9640 0.9640
1891.576875 0.9640 0.9650 0.9650 0.9650 0.9650
1895.845516 0.9650 0.9650 0.9650 0.9650 0.9650
1900.114158 0.9660 0.9660 0.9680 0.9680 0.9690
1904.382799 0.9690 0.9700 0.9700 0.9720 0.9720
1908.651441 0.9720 0.9720 0.9730 0.9730 0.9730
1912.920082 0.9740 0.9740 0.9740 0.9740 0.9740
1917.188724 0.9740 0.9740 0.9740 0.9740 0.9760
1921.457365 0.9760 0.9760 0.9760 0.9770 0.9770
1925.726007 0.9770 0.9770 0.9780 0.9780 0.9780
1929.994648 0.9780 0.9780 0.9780 0.9780 0.9780
1934.263290 0.9800 0.9800 0.9800 0.9810 0.9810
1938.531931 0.9810 0.9810 0.9810 0.9810 0.9810
1942.800573 0.9820 0.9820 0.9820 0.9820 0.9820
1947.069214 0.9840 0.9840 0.9840 0.9840 0.9840
1951.337856 0.9850 0.9850 0.9850 0.9850 0.9840
1955.606497 0.9840 0.9840 0.9850 0.9850 0.9850
1959.875139 0.9850 0.9850 0.9860 0.9860 0.9860
1964.143780 0.9850 0.9850 0.9850 0.9860 0.9860
1968.412422 0.9880 0.9880 0.9880 0.9880 0.9890
1972.681063 0.9880 0.9890 0.9890 0.9900 0.9900
1976.949705 0.9900 0.9900 0.9900 0.9900 0.9900
1981.218346 0.9920 0.9920 0.9900 0.9900 0.9900
1985.486987 0.9900 0.9900 0.9900 0.9900 0.9900
1989.755629 0.9900 0.9900 0.9920 0.9920 0.9900
1994.024270 0.9900 0.9890 0.9890 0.9880 0.9880
1998.292912 0.9880 0.9890 0.9890 0.9895 0.9900
2002.561553 0.9915 0.9930 0.9935 0.9940 0.9940
2006.830195 0.9940 0.9950 0.9960 0.9960 0.9960
2011.098836 0.9965 0.9970 0.9985 1.0000 1.0005
2015.367478 1.0010 1.0015 1.0020 1.0020 1.0020
2019.636119 1.0025 1.0030 1.0030 1.0030 1.0030
2023.904761 1.0030 1.0030 1.0030 1.0030 1.0030
2028.173402 1.0030 1.0030 1.0030 1.0030 1.0030
2032.442044 1.0030 1.0030 1.0030 1.0030 1.0030
2036.710685 1.0030 1.0030 1.0025 1.0020 1.0020
2040.979327 1.0020 1.0020 1.0020 1.0020 1.0020
2045.247968 1.0020 1.0020 1.0025 1.0030 1.0030
2049.516610 1.0030 1.0030 1.0030 1.0030 1.0030
2053.785251 1.0030 1.0030 1.0030 1.0030 1.0030
2058.053893 1.0030 1.0025 1.0020 1.0020 1.0020
2062.322534 1.0020 1.0020 1.0020 1.0020 1.0020
2066.591175 1.0020 1.0020 1.0020 1.0020 1.0020
2070.859817 1.0020 1.0020 1.0020 1.0020 1.0015
2075.128458 1.0010 1.0010 1.0010 1.0010 1.0010
2079.397100 1.0005 1.0000 1.0000 1.0000 1.0000
2083.665741 1.0000 1.0000 1.0000 0.9990 0.9980
2087.934383 0.9980 0.9980 0.9980 0.9980 0.9980
2092.203024 0.9980 0.9980 0.9980 0.9980 0.9980
2096.471666 0.9980 0.9980 0.9980 0.9980 0.9980
2100.740307 0.9980 0.9980 0.9980 0.9980 0.9980
2105.008949 0.9980 0.9980 0.9980 0.9980 0.9980
2109.277590 0.9980 0.9980 0.9980 0.9980 0.9980
2113.546232 0.9975 0.9970 0.9970 0.9970 0.9970
2117.814873 0.9970 0.9970 0.9970 0.9970 0.9970
2122.083515 0.9965 0.9960 0.9960 0.9960 0.9960
2126.352156 0.9960 0.9950 0.9940 0.9935 0.9930
2130.620798 0.9925 0.9920 0.9910 0.9900 0.9900
2134.889439 0.9900 0.9900 0.9900 0.9900 0.9900
2139.158081 0.9895 0.9890 0.9890 0.9890 0.9890
2143.426722 0.9890 0.9890 0.9890 0.9890 0.9890
2147.695364 0.9890 0.9890 0.9885 0.9880 0.9880
2151.964005 0.9880 0.9880 0.9880 0.9880 0.9880
2156.232646 0.9880 0.9880 0.9880 0.9880 0.9880
2160.501288 0.9880 0.9880 0.9880 0.9870 0.9860
2164.769929 0.9860 0.9860 0.9860 0.9860 0.9860
2169.038571 0.9860 0.9860 0.9860 0.9860 0.9860
2173.307212 0.9855 0.9850 0.9850 0.9850 0.9845
2177.575854 0.9840 0.9840 0.9840 0.9840 0.9840
2181.844495 0.9840 0.9840 0.9830 0.9820 0.9820
2186.113137 0.9820 0.9815 0.9810 0.9810 0.9810
2190.381778 0.9805 0.9800 0.9800 0.9799 0.9789
2194.650420 0.9780 0.9780 0.9780 0.9780 0.9780
2198.919061 0.9780 0.9780 0.9780 0.9780 0.9780
2203.187703 0.9780 0.9780 0.9780 0.9780 0.9780
2207.456344 0.9780 0.9780 0.9780 0.9780 0.9780
2211.724986 0.9780 0.9780 0.9780 0.9780 0.9780
2215.993627 0.9780 0.9780 0.9780 0.9780 0.9775
2220.262269 0.9770 0.9770 0.9770 0.9770 0.9770
2224.530910 0.9765 0.9760 0.9760 0.9759 0.9749
2228.799552 0.9740 0.9740 0.9740 0.9735 0.9730
2233.068193 0.9725 0.9720 0.9720 0.9719 0.9709
2237.336835 0.9700 0.9695 0.9690 0.9685 0.9680
2241.605476 0.9680 0.9679 0.9669 0.9660 0.9655
2245.874117 0.9650 0.9650 0.9650 0.9650 0.9650
2250.142759 0.9645 0.9640 0.9640 0.9639 0.9629
2254.411400 0.9620 0.9620 0.9620 0.9615 0.9610
2258.680042 0.9610 0.9610 0.9605 0.9599 0.9589
2262.948683 0.9580 0.9580 0.9580 0.9575 0.9570
2267.217325 0.9570 0.9570 0.9565 0.9560 0.9560
2271.485966 0.9560 0.9560 0.9560 0.9560 0.9560
2275.754608 0.9560 0.9559 0.9549 0.9540 0.9540
2280.023249 0.9540 0.9540 0.9540 0.9540 0.9540
2284.291891 0.9540 0.9540 0.9540 0.9540 0.9540
2288.560532 0.9540 0.9535 0.9530 0.9530 0.9530
2292.829174 0.9530 0.9530 0.9530 0.9530 0.9530
2297.097815 0.9530 0.9530 0.9530 0.9525 0.9520
2301.366457 0.9520 0.9520 0.9520 0.9520 0.9520
2305.635098 0.9519 0.9509 0.9500 0.9500 0.9500
2309.903740 0.9500 0.9500 0.9500 0.9501 0.9511
2314.172381 0.9520 0.9520 0.9520 0.9520 0.9519
2318.441023 0.9509 0.9500 0.9500 0.9500 0.9500
2322.709664 0.9500 0.9500 0.9500 0.9500 0.9500
2326.978306 0.9500 0.9500 0.9500 0.9500 0.9500
2331.246947 0.9500 0.9500 0.9500 0.9500 0.9500
2335.515588 0.9500 0.9500 0.9500 0.9500 0.9500
2339.784230 0.9500 0.9500 0.9502 0.9517 0.9530
2344.052871 0.9530 0.9530 0.9530 0.9529 0.9524
2348.321513 0.9520 0.9520 0.9521 0.9526 0.9530
2352.590154 0.9530 0.9530 0.9530 0.9530 0.9530
2356.858796 0.9531 0.9536 0.9540 0.9540 0.9540
2361.127437 0.9540 0.9540 0.9540 0.9540 0.9540
2365.396079 0.9540 0.9540 0.9540 0.9540 0.9541
2369.664720 0.9551 0.9560 0.9560 0.9560 0.9560
2373.933362 0.9561 0.9566 0.9571 0.9576 0.9580
2378.202003 0.9580 0.9580 0.9580 0.9581 0.9591
2382.470645 0.9600 0.9600 0.9600 0.9600 0.9600
2386.739286 0.9600 0.9600 0.9600 0.9600 0.9600
2391.007928 0.9599 0.9589 0.9580 0.9580 0.9580
2395.276569 0.9580 0.9579 0.9574 0.9570 0.9570
2399.545211 0.9569 0.9564 0.9560 0.9560 0.9560
2403.813852 0.9560 0.9560 0.9560 0.9560 0.9560
2408.082494 0.9560 0.9560 0.9560 0.9560 0.9560
2412.351135 0.9560 0.9560 0.9560 0.9560 0.9560
2416.619776 0.9560 0.9560 0.9560 0.9560 0.9560
2420.888418 0.9560 0.9561 0.9566 0.9570 0.9570
2425.157059 0.9570 0.9570 0.9570 0.9570 0.9570
2429.425701 0.9570 0.9570 0.9570 0.9570 0.9570
2433.694342 0.9570 0.9570 0.9570 0.9570 0.9570
2437.962984 0.9570 0.9570 0.9570 0.9571 0.9576
2442.231625 0.9580 0.9580 0.9580 0.9580 0.9580
2446.500267 0.9580 0.9580 0.9580 0.9581 0.9591
2450.768908 0.9600 0.9600 0.9600 0.9600 0.9600
2455.037550 0.9600 0.9600 0.9600 0.9600 0.9600
2459.306191 0.9600 0.9600 0.9600 0.9600 0.9600
2463.574833 0.9600 0.9598 0.9588 0.9580 0.9580
2467.843474 0.9580 0.9580 0.9580 0.9580 0.9580
2472.112116 0.9580 0.9581 0.9591 0.9600 0.9600
2476.380757 0.9600 0.9600 0.9600 0.9600 0.9600
2480.649399 0.9600 0.9600 0.9600 0.9601 0.9606
2484.918040 0.9609 0.9604 0.9600 0.9600 0.9600
2489.186682 0.9600 0.9601 0.9606 0.9610 0.9610
2493.455323 0.9610 0.9610 0.9610 0.9610 0.9611
2497.723965 0.9616 0.9620 0.9620 0.9620 0.9620
2501.992606 0.9620 0.9620 0.9620 0.9620 0.9620
2506.261247 0.9620 0.9620 0.9620 0.9620 0.9620
2510.529889 0.9620 0.9620 0.9620 0.9620 0.9622
2514.798530 0.9632 0.9640 0.9640 0.9640 0.9640
2519.067172 0.9640 0.9640 0.9640 0.9640 0.9640
2523.335813 0.9640 0.9640 0.9640 0.9640 0.9640
2527.604455 0.9640 0.9640 0.9640 0.9640 0.9641
2531.873096 0.9646 0.9650 0.9650 0.9650 0.9650
2536.141738 0.9649 0.9644 0.9640 0.9640 0.9640
2540.410379 0.9640 0.9640 0.9640 0.9640 0.9640
2544.679021 0.9641 0.9646 0.9650 0.9650 0.9650
2548.947662 0.9650 0.9650 0.9650 0.9650 0.9650
2553.216304 0.9650 0.9650 0.9650 0.9650 0.9649
2557.484945 0.9644 0.9640 0.9640 0.9640 0.9640
2561.753587 0.9640 0.9640 0.9640 0.9640 0.9640
2566.022228 0.9640 0.9640 0.9640 0.9640 0.9640
2570.290870 0.9638 0.9628 0.9620 0.9620 0.9620
2574.559511 0.9620 0.9620 0.9620 0.9620 0.9620
2578.828153 0.9620 0.9620 0.9620 0.9620 0.9619
2583.096794 0.9614 0.9610 0.9610 0.9610 0.9610
2587.365436 0.9609 0.9604 0.9600 0.9600 0.9600
2591.634077 0.9600 0.9600 0.9600 0.9598 0.9588
2595.902718 0.9580 0.9580 0.9580 0.9580 0.9579
2600.171360 0.9574 0.9570 0.9570 0.9570 0.9570
2604.440001 0.9570 0.9570 0.9570 0.9570 0.9570
2608.708643 0.9570 0.9570 0.9570 0.9570 0.9570
2612.977284 0.9570 0.9570 0.9570 0.9570 0.9570
2617.245926 0.9570 0.9569 0.9564 0.9560 0.9560
2621.514567 0.9560 0.9560 0.9558 0.9548 0.9540
2625.783209 0.9540 0.9540 0.9540 0.9539 0.9534
2630.051850 0.9530 0.9530 0.9530 0.9530 0.9530
2634.320492 0.9530 0.9530 0.9530 0.9529 0.9524
2638.589133 0.9520 0.9520 0.9520 0.9520 0.9518
2642.857775 0.9508 0.9499 0.9494 0.9490 0.9490
2647.126416 0.9490 0.9490 0.9490 0.9490 0.9490
2651.395058 0.9490 0.9489 0.9484 0.9478 0.9468
2655.663699 0.9460 0.9460 0.9460 0.9460 0.9460
2659.932341 0.9460 0.9459 0.9454 0.9449 0.9444
2664.200982 0.9438 0.9428 0.9419 0.9414 0.9410
2668.469624 0.9410 0.9409 0.9404 0.9398 0.9388
2672.738265 0.9379 0.9374 0.9367 0.9352 0.9340
2677.006907 0.9340 0.9339 0.9334 0.9329 0.9324
2681.275548 0.9318 0.9308 0.9299 0.9294 0.9287
2685.544189 0.9272 0.9259 0.9254 0.9249 0.9244
2689.812831 0.9238 0.9228 0.9218 0.9208 0.9193
2694.081472 0.9163 0.9139 0.9134 0.9130 0.9130
2698.350114 0.9125 0.9099 0.9076 0.9062 0.9041
2702.618755 0.9001 0.8960 0.8915 0.8867 0.8812
2706.887397 0.8756 0.8696 0.8635 0.8570 0.8484
2711.156038 0.8324 0.8137 0.7857 0.7604 0.7444
2715.424680 0.7288 0.7141 0.7028 0.7018 0.7057
2719.693321 0.7251 0.7444 0.7629 0.7778 0.7813
2723.961963 0.7921 0.8266 0.8538 0.8573 0.8607
2728.230604 0.8637 0.8667 0.8697 0.8726 0.8751
2732.499246 0.8779 0.8820 0.8859 0.8894 0.8927
2736.767887 0.8957 0.8984 0.8999 0.9011 0.9016
2741.036529 0.9024 0.9039 0.9058 0.9093 0.9122
2745.305170 0.9132 0.9142 0.9152 0.9161 0.9166
2749.573812 0.9174 0.9189 0.9201 0.9206 0.9210
2753.842453 0.9210 0.9210 0.9210 0.9210 0.9210
2758.111095 0.9210 0.9210 0.9210 0.9210 0.9209
2762.379736 0.9204 0.9198 0.9188 0.9179 0.9174
2766.648378 0.9169 0.9164 0.9160 0.9160 0.9157
2770.917019 0.9147 0.9140 0.9140 0.9139 0.9134
2775.185660 0.9129 0.9124 0.9115 0.9095 0.9078
2779.454302 0.9068 0.9054 0.9029 0.9006 0.8991
2783.722943 0.8979 0.8974 0.8963 0.8938 0.8912
2787.991585 0.8882 0.8854 0.8829 0.8805 0.8785
2792.260226 0.8764 0.8739 0.8712 0.8682 0.8652
2796.528868 0.8622 0.8591 0.8556 0.8520 0.8480
2800.797509 0.8435 0.8374 0.8305 0.8210 0.8123
2805.066151 0.8058 0.7998 0.7953 0.7899 0.7819
2809.334792 0.7728 0.7609 0.7464 0.7249 0.7037
2813.603434 0.6832 0.6642 0.6498 0.6351 0.6201
2817.872075 0.6064 0.5963 0.5830 0.5610 0.5389
2822.140717 0.5164 0.4912 0.4587 0.4287 0.4052
2826.409358 0.3826 0.3627 0.3429 0.3239 0.3038
2830.678000 0.2803 0.2623 0.2598 0.2580 0.2580
2834.946641 0.2593 0.2644 0.2817 0.3307 0.3702
2839.215283 0.3852 0.4178 0.4962 0.5593 0.5823
2843.483924 0.6050 0.6270 0.6475 0.6640 0.6787
2847.752566 0.6887 0.6994 0.7119 0.7254 0.7419
2852.021207 0.7564 0.7655 0.7744 0.7829 0.7903
2856.289848 0.7948 0.7994 0.8044 0.8097 0.8157
2860.558490 0.8220 0.8290 0.8354 0.8404 0.8451
2864.827131 0.8491 0.8527 0.8552 0.8582 0.8627
2869.095773 0.8664 0.8679 0.8696 0.8716 0.8736
2873.364414 0.8756 0.8776 0.8796 0.8817 0.8842
2877.633056 0.8864 0.8879 0.8896 0.8916 0.8934
2881.901697 0.8949 0.8961 0.8966 0.8970 0.8970
2886.170339 0.8971 0.8976 0.8980 0.8980 0.8983
2890.438980 0.8993 0.9001 0.9006 0.9010 0.9010
2894.707622 0.9010 0.9010 0.9010 0.9010 0.9010
2898.976263 0.9010 0.9009 0.9004 0.8996 0.8981
2903.244905 0.8966 0.8951 0.8937 0.8927 0.8915
2907.513546 0.8900 0.8884 0.8864 0.8844 0.8824
2911.782188 0.8800 0.8765 0.8737 0.8727 0.8714
2916.050829 0.8694 0.8664 0.8609 0.8564 0.8544
2920.319471 0.8502 0.8406 0.8318 0.8249 0.8185
2924.588112 0.8135 0.8088 0.8048 0.8012 0.7987
2928.856754 0.7964 0.7944 0.7922 0.7897 0.7870
2933.125395 0.7835 0.7809 0.7804 0.7797 0.7787
2937.394037 0.7780 0.7780 0.7780 0.7780 0.7780
2941.662678 0.7780 0.7780 0.7780 0.7778 0.7773
2945.931319 0.7770 0.7770 0.7770 0.7770 0.7768
2950.199961 0.7763 0.7755 0.7740 0.7725 0.7710
2954.468602 0.7697 0.7687 0.7677 0.7667 0.7658
2958.737244 0.7653 0.7650 0.7650 0.7652 0.7657
2963.005885 0.7671 0.7706 0.7736 0.7756 0.7778
2967.274527 0.7803 0.7829 0.7859 0.7894 0.7939
2971.543168 0.7981 0.8016 0.8050 0.8080 0.8106
2975.811810 0.8126 0.8153 0.8193 0.8225 0.8240
2980.080451 0.8264 0.8309 0.8353 0.8393 0.8433
2984.349093 0.8473 0.8505 0.8520 0.8536 0.8556
2988.617734 0.8581 0.8616 0.8648 0.8673 0.8695
2992.886376 0.8710 0.8723 0.8733 0.8747 0.8767
2997.155017 0.8780 0.8780 0.8790 0.8820 0.8848
3001.423659 0.8873 0.8896 0.8916 0.8935 0.8950
3005.692300 0.8962 0.8967 0.8975 0.8990 0.9002
3009.960942 0.9007 0.9015 0.9030 0.9043 0.9053
3014.229583 0.9065 0.9080 0.9092 0.9097 0.9103
3018.498225 0.9113 0.9122 0.9127 0.9137 0.9157
3022.766866 0.9172 0.9177 0.9183 0.9193 0.9200
3027.035508 0.9200 0.9202 0.9207 0.9212 0.9217
3031.304149 0.9223 0.9233 0.9242 0.9247 0.9250
3035.572790 0.9250 0.9252 0.9257 0.9263 0.9273
3039.841432 0.9282 0.9287 0.9290 0.9290 0.9290
3044.110073 0.9290 0.9290 0.9290 0.9292 0.9297
3048.378715 0.9300 0.9300 0.9303 0.9313 0.9320
3052.647356 0.9320 0.9320 0.9320 0.9320 0.9320
3056.915998 0.9320 0.9320 0.9320 0.9320 0.9320
3061.184639 0.9320 0.9320 0.9320 0.9320 0.9320
3065.453281 0.9320 0.9320 0.9320 0.9320 0.9320
3069.721922 0.9320 0.9320 0.9320 0.9320 0.9320
3073.990564 0.9320 0.9320 0.9320 0.9320 0.9320
3078.259205 0.9320 0.9320 0.9320 0.9320 0.9320
3082.527847 0.9320 0.9320 0.9320 0.9320 0.9320
3086.796488 0.9320 0.9320 0.9320 0.9320 0.9320
3091.065130 0.9320 0.9320 0.9320 0.9320 0.9320
3095.333771 0.9320 0.9320 0.9320 0.9320 0.9320
3099.602413 0.9320 0.9320 0.9320 0.9320 0.9320
3103.871054 0.9320 0.9320 0.9320 0.9320 0.9320
3108.139696 0.9320 0.9320 0.9320 0.9320 0.9320
3112.408337 0.9320 0.9320 0.9320 0.9320 0.9320
3116.676979 0.9320 0.9320 0.9320 0.9320 0.9320
3120.945620 0.9320 0.9320 0.9320 0.9320 0.9320
3125.214261 0.9316 0.9306 0.9300 0.9300 0.9300
3129.482903 0.9300 0.9300 0.9300 0.9300 0.9300
3133.751544 0.9300 0.9300 0.9300 0.9300 0.9298
3138.020186 0.9293 0.9290 0.9290 0.9290 0.9290
3142.288827 0.9290 0.9290 0.9290 0.9290 0.9290
3146.557469 0.9290 0.9288 0.9283 0.9280 0.9280
3150.826110 0.9280 0.9280 0.9280 0.9280 0.9276
3155.094752 0.9266 0.9258 0.9253 0.9250 0.9250
3159.363393 0.9250 0.9250 0.9248 0.9243 0.9240
3163.632035 0.9240 0.9236 0.9226 0.9220 0.9220
3167.900676 0.9220 0.9220 0.9218 0.9213 0.9208
3172.169318 0.9203 0.9196 0.9186 0.9180 0.9180
3176.437959 0.9178 0.9173 0.9168 0.9163 0.9154
3180.706601 0.9139 0.9128 0.9123 0.9116 0.9106
3184.975242 0.9100 0.9100 0.9098 0.9093 0.9090
3189.243884 0.9090 0.9090 0.9090 0.9090 0.9090
3193.512525 0.9090 0.9090 0.9090 0.9090 0.9090
3197.781167 0.9090 0.9092 0.9097 0.9100 0.9100
3202.049808 0.9104 0.9114 0.9122 0.9127 0.9130
3206.318449 0.9130 0.9130 0.9130 0.9130 0.9130
3210.587091 0.9132 0.9137 0.9140 0.9140 0.9140
3214.855732 0.9140 0.9140 0.9140 0.9140 0.9140
3219.124374 0.9144 0.9154 0.9160 0.9160 0.9160
3223.393015 0.9160 0.9160 0.9160 0.9162 0.9167
3227.661657 0.9170 0.9170 0.9170 0.9170 0.9170
3231.930298 0.9170 0.9170 0.9170 0.9170 0.9170
3236.198940 0.9170 0.9170 0.9170 0.9170 0.9170
3240.467581 0.9170 0.9170 0.9170 0.9170 0.9170
3244.736223 0.9170 0.9170 0.9170 0.9170 0.9170
3249.004864 0.9170 0.9168 0.9163 0.9160 0.9160
3253.273506 0.9160 0.9160 0.9160 0.9160 0.9160
3257.542147 0.9160 0.9160 0.9160 0.9160 0.9160
3261.810789 0.9160 0.9160 0.9160 0.9160 0.9160
3266.079430 0.9160 0.9156 0.9146 0.9138 0.9133
3270.348072 0.9130 0.9130 0.9130 0.9130 0.9130
3274.616713 0.9130 0.9130 0.9130 0.9130 0.9130
3278.885355 0.9130 0.9130 0.9130 0.9130 0.9132
3283.153996 0.9137 0.9140 0.9140 0.9140 0.9140
3287.422638 0.9138 0.9133 0.9130 0.9130 0.9130
3291.691279 0.9130 0.9130 0.9130 0.9128 0.9123
3295.959920 0.9120 0.9120 0.9116 0.9106 0.9100
3300.228562 0.9100 0.9100 0.9100 0.9098 0.9093
3304.497203 0.9090 0.9090 0.9090 0.9090 0.9090
3308.765845 0.9090 0.9090 0.9090 0.9090 0.9090
3313.034486 0.9090 0.9090 0.9090 0.9090 0.9090
3317.303128 0.9090 0.9090 0.9090 0.9090 0.9090
3321.571769 0.9090 0.9090 0.9090 0.9090 0.9090
3325.840411 0.9090 0.9090 0.9090 0.9090 0.9090
3330.109052 0.9090 0.9090 0.9090 0.9090 0.9090
3334.377694 0.9090 0.9090 0.9090 0.9090 0.9090
3338.646335 0.9090 0.9090 0.9088 0.9083 0.9080
3342.914977 0.9080 0.9080 0.9080 0.9080 0.9080
3347.183618 0.9080 0.9080 0.9075 0.9065 0.9060
3351.452260 0.9060 0.9060 0.9060 0.9060 0.9060
3355.720901 0.9058 0.9053 0.9050 0.9050 0.9050
3359.989543 0.9050 0.9050 0.9050 0.9050 0.9050
3364.258184 0.9050 0.9050 0.9050 0.9050 0.9050
3368.526826 0.9050 0.9050 0.9050 0.9050 0.9050
3372.795467 0.9050 0.9050 0.9048 0.9043 0.9040
3377.064109 0.9040 0.9040 0.9040 0.9040 0.9040
3381.332750 0.9040 0.9040 0.9040 0.9040 0.9040
3385.601391 0.9040 0.9040 0.9040 0.9040 0.9040
3389.870033 0.9040 0.9040 0.9035 0.9025 0.9020
3394.138674 0.9020 0.9020 0.9020 0.9020 0.9020
3398.407316 0.9020 0.9020 0.9020 0.9020 0.9020
3402.675957 0.9020 0.9020 0.9020 0.9020 0.9020
3406.944599 0.9018 0.9013 0.9010 0.9010 0.9010
3411.213240 0.9010 0.9010 0.9010 0.9010 0.9010
3415.481882 0.9010 0.9010 0.9010 0.9010 0.9010
3419.750523 0.9010 0.9010 0.9010 0.9010 0.9010
3424.019165 0.9010 0.9010 0.9010 0.9010 0.9010
3428.287806 0.9010 0.9010 0.9010 0.9010 0.9010
3432.556448 0.9008 0.9003 0.9000 0.9000 0.8995
3436.825089 0.8985 0.8980 0.8980 0.8980 0.8980
3441.093731 0.8978 0.8973 0.8970 0.8970 0.8970
3445.362372 0.8970 0.8970 0.8970 0.8970 0.8970
3449.631014 0.8970 0.8970 0.8970 0.8970 0.8972
3453.899655 0.8977 0.8980 0.8980 0.8985 0.8995
3458.168297 0.9000 0.9000 0.9000 0.9000 0.8995
3462.436938 0.8985 0.8980 0.8980 0.8980 0.8980
3466.705580 0.8978 0.8973 0.8970 0.8970 0.8970
3470.974221 0.8970 0.8970 0.8970 0.8970 0.8970
3475.242862 0.8970 0.8970 0.8970 0.8970 0.8970
3479.511504 0.8970 0.8970 0.8970 0.8970 0.8970
3483.780145 0.8970 0.8970 0.8970 0.8970 0.8970
3488.048787 0.8970 0.8970 0.8970 0.8970 0.8970
3492.317428 0.8970 0.8970 0.8970 0.8970 0.8970
3496.586070 0.8970 0.8972 0.8977 0.8980 0.8980
3500.854711 0.8980 0.8980 0.8980 0.8980 0.8980
3505.123353 0.8980 0.8980 0.8980 0.8980 0.8980
3509.391994 0.8980 0.8980 0.8980 0.8980 0.8980
3513.660636 0.8980 0.8980 0.8980 0.8980 0.8980
3517.929277 0.8980 0.8980 0.8985 0.8995 0.9003
3522.197919 0.9008 0.9007 0.9002 0.9000 0.9000
3526.466560 0.9000 0.9000 0.9000 0.9000 0.9000
3530.735202 0.9000 0.9000 0.9000 0.9000 0.9000
3535.003843 0.9000 0.9000 0.9000 0.9000 0.9000
3539.272485 0.9000 0.9000 0.9000 0.9000 0.9000
3543.541126 0.9000 0.9000 0.9000 0.9000 0.9000
3547.809768 0.9000 0.9000 0.9000 0.8995 0.8985
3552.078409 0.8985 0.8995 0.9000 0.9000 0.9000
3556.347050 0.9000 0.9000 0.9000 0.9000 0.9000
3560.615692 0.9000 0.9000 0.9000 0.9000 0.9000
3564.884333 0.9000 0.9000 0.9000 0.9000 0.9000
3569.152975 0.9000 0.9000 0.9000 0.9000 0.9000
3573.421616 0.9000 0.9000 0.9000 0.9000 0.9000
3577.690258 0.8995 0.8985 0.8977 0.8972 0.8970
3581.958899 0.8970 0.8962 0.8947 0.8940 0.8940
3586.227541 0.8937 0.8932 0.8927 0.8922 0.8920
3590.496182 0.8920 0.8915 0.8905 0.8900 0.8900
3594.764824 0.8905 0.8915 0.8923 0.8928 0.8930
3599.033465 0.8930 0.8933 0.8938 0.8945 0.8955
3603.302107 0.8963 0.8968 0.8970 0.8970 0.8970
3607.570748 0.8970 0.8970 0.8970 0.8970 0.8970
3611.839390 0.8970 0.8970 0.8970 0.8970 0.8970
3616.108031 0.8970 0.8970 0.8970 0.8970 0.8970
3620.376673 0.8970 0.8970 0.8970 0.8970 0.8970
3624.645314 0.8970 0.8970 0.8970 0.8970 0.8970
3628.913956 0.8970 0.8970 0.8967 0.8962 0.8960
3633.182597 0.8960 0.8960 0.8960 0.8963 0.8968
3637.451239 0.8973 0.8978 0.8980 0.8980 0.8980
3641.719880 0.8980 0.8985 0.8995 0.9000 0.9000
3645.988521 0.8995 0.8985 0.8980 0.8980 0.8985
3650.257163 0.8995 0.8995 0.8985 0.8980 0.8980
3654.525804 0.8977 0.8972 0.8970 0.8970 0.8970
3658.794446 0.8970 0.8970 0.8970 0.8970 0.8970
3663.063087 0.8970 0.8970 0.8970 0.8970 0.8970
3667.331729 0.8970 0.8970 0.8970 0.8970 0.8970
3671.600370 0.8970 0.8970 0.8970 0.8970 0.8970
3675.869012 0.8970 0.8970 0.8970 0.8970 0.8970
3680.137653 0.8970 0.8970 0.8970 0.8970 0.8973
3684.406295 0.8978 0.8980 0.8980 0.8980 0.8980
3688.674936 0.8980 0.8980 0.8980 0.8980 0.8980
3692.943578 0.8980 0.8980 0.8980 0.8977 0.8972
3697.212219 0.8970 0.8970 0.8970 0.8970 0.8970
3701.480861 0.8970 0.8970 0.8970 0.8970 0.8970
3705.749502 0.8970 0.8970 0.8970 0.8970 0.8970
3710.018144 0.8970 0.8970 0.8970 0.8970 0.8970
3714.286785 0.8970 0.8970 0.8973 0.8978 0.8980
3718.555427 0.8980 0.8980 0.8980 0.8977 0.8972
3722.824068 0.8970 0.8970 0.8967 0.8962 0.8960
3727.092710 0.8960 0.8960 0.8960 0.8954 0.8944
3731.361351 0.8940 0.8940 0.8940 0.8940 0.8940
3735.629992 0.8940 0.8940 0.8940 0.8940 0.8940
3739.898634 0.8937 0.8932 0.8930 0.8930 0.8930
3744.167275 0.8930 0.8930 0.8930 0.8930 0.8930
3748.435917 0.8930 0.8930 0.8930 0.8930 0.8930
3752.704558 0.8930 0.8930 0.8930 0.8930 0.8930
3756.973200 0.8930 0.8930 0.8930 0.8930 0.8927
3761.241841 0.8922 0.8920 0.8920 0.8920 0.8920
3765.510483 0.8920 0.8920 0.8920 0.8920 0.8923
3769.779124 0.8928 0.8930 0.8930 0.8930 0.8930
3774.047766 0.8930 0.8930 0.8930 0.8930 0.8930
3778.316407 0.8930 0.8921 0.8906 0.8900 0.8900
3782.585049 0.8900 0.8900 0.8900 0.8900 0.8900
3786.853690 0.8900 0.8900 0.8900 0.8900 0.8900
3791.122332 0.8900 0.8900 0.8906 0.8916 0.8914
3795.390973 0.8904 0.8900 0.8900
##END=
