##TITLE=[1,2,5] THIADIAZOLO[3,4-d]PYRIMIDINE-5,7-BIS (2-HYDROXYETHYLAMINO)-
##JCAMP-DX=4.24
##DATA TYPE=INFRARED SPECTRUM
##CLASS=COBLENTZ III
##ORIGIN=SOUTHERN RESEARCH INSTITUTE
##OWNER=COBLENTZ SOCIETY
Collection (C) 2018 copyright by the U.S. Secretary of Commerce
on behalf of the United States of America. All rights reserved.
##DATE=1961/05/08
##NAMES=2-((5-[(2-hydroxyethyl)amino][1,2,5]thiadiazolo[3,4-d]pyrimidin-7-yl)amino)ethanol
##MOLFORM=C8 H12 N6 O2 S
##SOURCE REFERENCE=COBLENTZ NO. 10469
##$NIST ID=B6010469
##$NIST SOURCE=COBLENTZ
##$NIST IMAGE=cob10469
##SPECTROMETER/DATA SYSTEM=PERKIN-ELMER 221 (GRATING)
##INSTRUMENT PARAMETERS=GRATING FOR 4000-1428, FILTERS AT 2490, 980, NaCl PRISM FOR 1428-650 CM^-^1
##STATE=SOLID (1 mg / 650 mg KBr DISC)
##PATH LENGTH=
$$ PURITY - ANALYTICAL
##SAMPLING PROCEDURE=TRANSMISSION
##RESOLUTION=4
##DATA PROCESSING=DIGITIZED BY NIST FROM HARD COPY (FROM TWO SEGMENTS)
##XUNITS=1/CM
##YUNITS=TRANSMITTANCE
##XFACTOR=1.000000
##YFACTOR=1
##DELTAX=1.302326
##FIRSTX=624.646
##LASTX=4006.79
##FIRSTY=0.844
##MAXX=4006.79
##MINX=624.646
##MAXY=0.949
##MINY=0.146
##NPOINTS=2598
##XYDATA=(X++(Y..Y))
624.646000 0.8440 0.8440 0.8440 0.8440 0.8450
631.157630 0.8440 0.8430 0.8430 0.8430 0.8439
637.669260 0.8450 0.8469 0.8479 0.8480 0.8471
644.180890 0.8442 0.8431 0.8421 0.8402 0.8292
650.692520 0.8253 0.8223 0.8184 0.8171 0.8152
657.204150 0.8150 0.8150 0.8167 0.8221 0.8307
663.715780 0.8431 0.8586 0.8686 0.8717 0.8720
670.227410 0.8720 0.8720 0.8720 0.8720 0.8720
676.739040 0.8720 0.8728 0.8802 0.8891 0.8965
683.250670 0.9019 0.9053 0.9068 0.9078 0.9088
689.762300 0.9105 0.9110 0.9110 0.9110 0.9110
696.273930 0.9095 0.9090 0.9083 0.9066 0.9010
702.785560 0.8969 0.8932 0.8878 0.8797 0.8708
709.297190 0.8591 0.8441 0.8256 0.8177 0.8170
715.808820 0.8236 0.8382 0.8557 0.8756 0.8926
722.320450 0.9031 0.9091 0.9116 0.9120 0.9120
728.832080 0.9114 0.9110 0.9092 0.9074 0.9052
735.343710 0.9034 0.9007 0.8921 0.8790 0.8657
741.855340 0.8510 0.8350 0.8274 0.8298 0.8424
748.366970 0.8521 0.8551 0.8586 0.8605 0.8615
754.878600 0.8620 0.8620 0.8615 0.8610 0.8605
761.390230 0.8595 0.8580 0.8565 0.8546 0.8530
767.901860 0.8525 0.8520 0.8520 0.8515 0.8510
774.413490 0.8510 0.8510 0.8510 0.8501 0.8490
780.925120 0.8490 0.8490 0.8490 0.8490 0.8486
787.436750 0.8480 0.8476 0.8470 0.8459 0.8410
793.948380 0.8260 0.7694 0.6925 0.6760 0.6965
800.460010 0.7600 0.8175 0.8360 0.8407 0.8414
806.971640 0.8342 0.8207 0.8063 0.7633 0.7097
813.483270 0.6638 0.6330 0.6494 0.7052 0.7758
819.994900 0.8620 0.8771 0.9022 0.9198 0.9228
826.506530 0.9253 0.9265 0.9282 0.9290 0.9288
833.018160 0.9276 0.9260 0.9258 0.9244 0.9220
839.529790 0.9216 0.9186 0.9118 0.9061 0.9009
846.041420 0.8960 0.8967 0.9005 0.9032 0.9040
852.553050 0.9038 0.9026 0.8994 0.8950 0.8875
859.064680 0.8757 0.8557 0.8269 0.8261 0.8293
865.576310 0.8486 0.8633 0.8761 0.8865 0.8923
872.087940 0.8951 0.8960 0.8960 0.8959 0.8950
878.599570 0.8949 0.8939 0.8919 0.8900 0.8890
885.111200 0.8886 0.8767 0.8678 0.8609 0.8570
891.622830 0.8550 0.8530 0.8530 0.8550 0.8570
898.134460 0.8619 0.8659 0.8689 0.8748 0.8808
904.646090 0.8829 0.8849 0.8869 0.8870 0.8870
911.157720 0.8889 0.8890 0.8890 0.8890 0.8890
917.669350 0.8872 0.8870 0.8861 0.8851 0.8814
924.180980 0.8810 0.8819 0.8944 0.8978 0.9050
930.692610 0.9155 0.9213 0.9237 0.9249 0.9250
937.204240 0.9258 0.9260 0.9260 0.9277 0.9280
943.715870 0.9280 0.9280 0.9280 0.9280 0.9280
950.227500 0.9264 0.9260 0.9244 0.9224 0.9220
956.739130 0.9220 0.9212 0.9210 0.9202 0.9200
963.250760 0.9193 0.9190 0.9190 0.9190 0.9190
969.762390 0.9190 0.9176 0.9170 0.9170 0.9170
976.274020 0.9163 0.9160 0.9153 0.9136 0.9123
982.785650 0.9100 0.9077 0.9050 0.9027 0.9000
989.297280 0.8971 0.8954 0.8944 0.8927 0.8907
995.808910 0.8894 0.8871 0.8835 0.8802 0.8748
1002.320540 0.8678 0.8614 0.8566 0.8532 0.8497
1008.832170 0.8399 0.8243 0.8102 0.7977 0.7914
1015.343800 0.7915 0.7920 0.7915 0.7894 0.7859
1021.855430 0.7792 0.7703 0.7582 0.7366 0.7062
1028.367060 0.6744 0.6470 0.6240 0.6026 0.5920
1034.878690 0.6060 0.6277 0.6359 0.6463 0.6607
1041.390320 0.6645 0.6626 0.6565 0.6479 0.6400
1047.901950 0.6289 0.6158 0.5946 0.5750 0.5923
1054.413580 0.6174 0.6172 0.6152 0.5977 0.5553
1060.925210 0.5245 0.5030 0.4732 0.4356 0.3820
1067.436840 0.4124 0.4805 0.5086 0.5294 0.5781
1073.948470 0.6441 0.7053 0.7464 0.7810 0.8060
1080.460100 0.8227 0.8335 0.8402 0.8430 0.8436
1086.971730 0.8459 0.8489 0.8513 0.8531 0.8571
1093.483360 0.8621 0.8698 0.8755 0.8770 0.8770
1099.994990 0.8770 0.8765 0.8738 0.8698 0.8683
1106.506620 0.8658 0.8648 0.8642 0.8656 0.8688
1113.018250 0.8730 0.8789 0.8877 0.8912 0.8923
1119.529880 0.8942 0.8950 0.8948 0.8940 0.8935
1126.041510 0.8910 0.8909 0.8900 0.8899 0.8890
1132.553140 0.8890 0.8890 0.8890 0.8890 0.8888
1139.064770 0.8870 0.8865 0.8817 0.8790 0.8787
1145.576400 0.8746 0.8699 0.8690 0.8690 0.8691
1152.088030 0.8700 0.8700 0.8701 0.8720 0.8720
1158.599660 0.8720 0.8720 0.8700 0.8680 0.8650
1165.111290 0.8610 0.8590 0.8531 0.8520 0.8422
1171.622920 0.8274 0.8009 0.7883 0.7706 0.7623
1178.134550 0.7515 0.7491 0.7490 0.7509 0.7762
1184.646180 0.7882 0.8111 0.8287 0.8475 0.8581
1191.157810 0.8599 0.8609 0.8610 0.8619 0.8620
1197.669440 0.8620 0.8611 0.8601 0.8591 0.8564
1204.181070 0.8534 0.8521 0.8512 0.8443 0.8397
1210.692700 0.8299 0.8198 0.8006 0.7871 0.7842
1217.204330 0.7848 0.7955 0.8060 0.8151 0.8280
1223.715960 0.8412 0.8479 0.8506 0.8510 0.8495
1230.227590 0.8475 0.8432 0.8390 0.8380 0.8387
1236.739220 0.8434 0.8479 0.8505 0.8517 0.8520
1243.250850 0.8513 0.8496 0.8490 0.8476 0.8435
1249.762480 0.8324 0.8192 0.8136 0.8123 0.8120
1256.274110 0.8120 0.8127 0.8137 0.8159 0.8183
1262.785740 0.8228 0.8250 0.8231 0.8195 0.8149
1269.297370 0.8099 0.8043 0.7990 0.7940 0.7890
1275.809000 0.7835 0.7781 0.7737 0.7697 0.7663
1282.320630 0.7633 0.7558 0.7454 0.7366 0.7281
1288.832260 0.7207 0.7142 0.7072 0.7013 0.6964
1295.343890 0.6919 0.6874 0.6830 0.6785 0.6720
1301.855520 0.6621 0.6511 0.6382 0.6285 0.6289
1308.367150 0.6372 0.6501 0.6589 0.6665 0.6735
1314.878780 0.6740 0.6736 0.6708 0.6623 0.6477
1321.390410 0.6320 0.6215 0.6134 0.6058 0.6036
1327.902040 0.6034 0.6044 0.6050 0.5874 0.5539
1334.413670 0.5391 0.5232 0.5019 0.4775 0.4586
1340.925300 0.4584 0.4659 0.4879 0.5122 0.5327
1347.436930 0.5523 0.5712 0.5907 0.6063 0.6090
1353.948560 0.6084 0.6037 0.5934 0.5805 0.5601
1360.460190 0.5455 0.5354 0.5219 0.5070 0.4921
1366.971820 0.4807 0.4807 0.4928 0.5375 0.5938
1373.483450 0.6409 0.6808 0.7130 0.7386 0.7584
1379.995080 0.7745 0.7888 0.7920 0.7918 0.7906
1386.506710 0.7886 0.7866 0.7846 0.7825 0.7800
1393.018340 0.7798 0.7785 0.7757 0.7735 0.7706
1399.529970 0.7679 0.7669 0.7661 0.7671 0.7683
1406.041600 0.7713 0.7740 0.7741 0.7754 0.7796
1412.553230 0.7850 0.7864 0.8010 0.8006 0.7895
1419.064860 0.6989 0.6969 0.6950 0.6949 0.6929
1425.576490 0.6897 0.6839 0.6798 0.6728 0.6668
1432.088120 0.6589 0.6499 0.6420 0.6330 0.6310
1438.599750 0.6290 0.6241 0.6161 0.6072 0.5963
1445.111380 0.5834 0.5580 0.5236 0.5076 0.4908
1451.623010 0.4739 0.4344 0.4058 0.3798 0.3586
1458.134640 0.3497 0.3481 0.3489 0.3717 0.4274
1464.646270 0.4447 0.4469 0.4461 0.4160 0.3980
1471.157900 0.3682 0.3467 0.3423 0.3420 0.3429
1477.669530 0.3498 0.3654 0.3856 0.3998 0.4111
1484.181160 0.4146 0.4085 0.3859 0.3615 0.3392
1490.692790 0.3206 0.3170 0.3478 0.3631 0.4024
1497.204420 0.4548 0.5000 0.5580 0.6242 0.6704
1503.716050 0.6800 0.6778 0.6763 0.6745 0.6740
1510.227680 0.6704 0.6647 0.6580 0.6474 0.6340
1516.739310 0.6159 0.5904 0.5611 0.5320 0.5025
1523.250940 0.4754 0.4502 0.4134 0.3710 0.3318
1529.762570 0.2966 0.2654 0.2382 0.2155 0.1908
1536.274200 0.1684 0.1604 0.1606 0.1678 0.1775
1542.785830 0.1816 0.1844 0.1938 0.2109 0.2402
1549.297460 0.2800 0.3136 0.3518 0.3800 0.3957
1555.809090 0.4137 0.4242 0.4321 0.4375 0.4375
1562.320720 0.4370 0.4344 0.4257 0.4111 0.3915
1568.832350 0.3681 0.3428 0.3154 0.2876 0.2597
1575.343980 0.2324 0.2084 0.1847 0.1596 0.1465
1581.855610 0.1460 0.1465 0.1470 0.1474 0.1493
1588.367240 0.1545 0.1646 0.1784 0.1942 0.2108
1594.878870 0.2288 0.2476 0.2603 0.2654 0.2660
1601.390500 0.2656 0.2650 0.2627 0.2582 0.2562
1607.902130 0.2557 0.2588 0.2649 0.2746 0.2858
1614.413760 0.2924 0.2967 0.3013 0.3060 0.3139
1620.925390 0.3272 0.3450 0.3665 0.3889 0.4136
1627.437020 0.4378 0.4674 0.4959 0.5238 0.5510
1633.948650 0.5761 0.6012 0.6238 0.6454 0.6658
1640.460280 0.6844 0.7021 0.7183 0.7318 0.7433
1646.971910 0.7535 0.7642 0.7735 0.7798 0.7838
1653.483540 0.7892 0.7999 0.8097 0.8185 0.8263
1659.995170 0.8334 0.8414 0.8492 0.8558 0.8608
1666.506800 0.8657 0.8703 0.8721 0.8733 0.8758
1673.018430 0.8813 0.8834 0.8870 0.8941 0.8951
1679.530060 0.8962 0.8981 0.8991 0.9000 0.9002
1686.041690 0.9022 0.9042 0.9061 0.9071 0.9080
1692.553320 0.9081 0.9090 0.9091 0.9110 0.9110
1699.064950 0.9120 0.9131 0.9150 0.9160 0.9171
1705.576580 0.9220 0.9280 0.9300 0.9300 0.9320
1712.088210 0.9320 0.9320 0.9320 0.9320 0.9330
1718.599840 0.9330 0.9340 0.9340 0.9340 0.9359
1725.111470 0.9360 0.9369 0.9370 0.9370 0.9370
1731.623100 0.9370 0.9370 0.9370 0.9370 0.9370
1738.134730 0.9379 0.9380 0.9389 0.9390 0.9390
1744.646360 0.9407 0.9410 0.9410 0.9410 0.9418
1751.157990 0.9420 0.9428 0.9430 0.9430 0.9430
1757.669620 0.9430 0.9430 0.9430 0.9430 0.9430
1764.181250 0.9430 0.9430 0.9430 0.9430 0.9430
1770.692880 0.9430 0.9430 0.9445 0.9450 0.9450
1777.204510 0.9450 0.9450 0.9457 0.9460 0.9460
1783.716140 0.9460 0.9460 0.9460 0.9460 0.9460
1790.227770 0.9460 0.9460 0.9460 0.9460 0.9460
1796.739400 0.9467 0.9470 0.9470 0.9470 0.9470
1803.251030 0.9470 0.9470 0.9470 0.9470 0.9470
1809.762660 0.9470 0.9470 0.9470 0.9470 0.9482
1816.274290 0.9490 0.9490 0.9490 0.9490 0.9490
1822.785920 0.9490 0.9490 0.9490 0.9490 0.9490
1829.297550 0.9490 0.9490 0.9490 0.9490 0.9490
1835.809180 0.9490 0.9490 0.9490 0.9490 0.9490
1842.320810 0.9490 0.9490 0.9490 0.9490 0.9490
1848.832440 0.9490 0.9490 0.9490 0.9490 0.9490
1855.344070 0.9490 0.9490 0.9490 0.9490 0.9490
1861.855700 0.9490 0.9490 0.9490 0.9490 0.9490
1868.367330 0.9490 0.9490 0.9490 0.9490 0.9490
1874.878960 0.9490 0.9490 0.9490 0.9490 0.9490
1881.390590 0.9490 0.9490 0.9490 0.9490 0.9490
1887.902220 0.9490 0.9490 0.9490 0.9484 0.9470
1894.413850 0.9470 0.9470 0.9470 0.9470 0.9470
1900.925480 0.9470 0.9470 0.9470 0.9470 0.9470
1907.437110 0.9470 0.9470 0.9467 0.9460 0.9460
1913.948740 0.9460 0.9460 0.9460 0.9460 0.9460
1920.460370 0.9460 0.9460 0.9460 0.9460 0.9458
1926.972000 0.9446 0.9430 0.9430 0.9430 0.9428
1933.483630 0.9420 0.9420 0.9420 0.9420 0.9420
1939.995260 0.9420 0.9419 0.9410 0.9408 0.9390
1946.506890 0.9390 0.9390 0.9390 0.9390 0.9389
1953.018520 0.9380 0.9380 0.9380 0.9380 0.9380
1959.530150 0.9380 0.9380 0.9380 0.9380 0.9380
1966.041780 0.9380 0.9380 0.9380 0.9380 0.9380
1972.553410 0.9380 0.9380 0.9380 0.9370 0.9370
1979.065040 0.9370 0.9370 0.9370 0.9370 0.9370
1985.576670 0.9370 0.9370 0.9370 0.9370 0.9360
1992.088300 0.9360 0.9360 0.9360 0.9360 0.9360
1998.599930 0.9360 0.9360 0.9360 0.9360 0.9360
2005.111560 0.9360 0.9360 0.9360 0.9360 0.9342
2011.623190 0.9340 0.9340 0.9340 0.9340 0.9340
2018.134820 0.9340 0.9340 0.9340 0.9340 0.9358
2024.646450 0.9360 0.9360 0.9360 0.9360 0.9360
2031.158080 0.9342 0.9340 0.9340 0.9340 0.9331
2037.669710 0.9330 0.9330 0.9330 0.9321 0.9320
2044.181340 0.9292 0.9281 0.9280 0.9262 0.9260
2050.692970 0.9260 0.9251 0.9250 0.9241 0.9240
2057.204600 0.9240 0.9240 0.9240 0.9240 0.9240
2063.716230 0.9240 0.9222 0.9220 0.9220 0.9220
2070.227860 0.9220 0.9220 0.9220 0.9220 0.9211
2076.739490 0.9210 0.9201 0.9200 0.9200 0.9200
2083.251120 0.9200 0.9200 0.9200 0.9200 0.9200
2089.762750 0.9200 0.9200 0.9200 0.9200 0.9200
2096.274380 0.9200 0.9200 0.9200 0.9200 0.9200
2102.786010 0.9200 0.9200 0.9200 0.9200 0.9200
2109.297640 0.9200 0.9200 0.9200 0.9200 0.9200
2115.809270 0.9200 0.9200 0.9200 0.9191 0.9190
2122.320900 0.9172 0.9170 0.9170 0.9170 0.9161
2128.832530 0.9160 0.9160 0.9151 0.9150 0.9150
2135.344160 0.9150 0.9159 0.9160 0.9160 0.9160
2141.855790 0.9169 0.9170 0.9170 0.9170 0.9170
2148.367420 0.9170 0.9170 0.9188 0.9190 0.9190
2154.879050 0.9190 0.9190 0.9190 0.9190 0.9172
2161.390680 0.9170 0.9161 0.9160 0.9160 0.9151
2167.902310 0.9132 0.9130 0.9130 0.9130 0.9121
2174.413940 0.9120 0.9120 0.9120 0.9120 0.9111
2180.925570 0.9110 0.9110 0.9092 0.9090 0.9090
2187.437200 0.9090 0.9081 0.9080 0.9080 0.9080
2193.948830 0.9080 0.9080 0.9071 0.9070 0.9070
2200.460460 0.9070 0.9061 0.9042 0.9040 0.9040
2206.972090 0.9040 0.9040 0.9031 0.9030 0.9030
2213.483720 0.9030 0.9030 0.9030 0.9030 0.9030
2219.995350 0.9030 0.9030 0.9021 0.9020 0.9020
2226.506980 0.9020 0.9020 0.9020 0.9020 0.9020
2233.018610 0.9020 0.9020 0.9020 0.9020 0.9002
2239.530240 0.9000 0.9000 0.8991 0.8990 0.8990
2246.041870 0.8990 0.8990 0.8990 0.8981 0.8980
2252.553500 0.8980 0.8980 0.8980 0.8962 0.8960
2259.065130 0.8951 0.8950 0.8950 0.8941 0.8922
2265.576760 0.8920 0.8911 0.8910 0.8910 0.8901
2272.088390 0.8900 0.8900 0.8891 0.8890 0.8872
2278.600020 0.8870 0.8870 0.8870 0.8861 0.8860
2285.111650 0.8860 0.8860 0.8851 0.8850 0.8850
2291.623280 0.8850 0.8850 0.8832 0.8821 0.8820
2298.134910 0.8820 0.8820 0.8811 0.8810 0.8810
2304.646540 0.8792 0.8790 0.8781 0.8780 0.8771
2311.158170 0.8770 0.8770 0.8752 0.8750 0.8732
2317.669800 0.8730 0.8730 0.8730 0.8721 0.8720
2324.181430 0.8720 0.8701 0.8691 0.8662 0.8651
2330.693060 0.8641 0.8622 0.8611 0.8601 0.8591
2337.204690 0.8590 0.8590 0.8572 0.8570 0.8561
2343.716320 0.8560 0.8551 0.8550 0.8550 0.8550
2350.227950 0.8532 0.8530 0.8521 0.8520 0.8520
2356.739580 0.8511 0.8510 0.8492 0.8490 0.8481
2363.251210 0.8480 0.8471 0.8470 0.8470 0.8470
2369.762840 0.8452 0.8450 0.8441 0.8422 0.8402
2376.274470 0.8400 0.8391 0.8390 0.8381 0.8362
2382.786100 0.8360 0.8351 0.8341 0.8322 0.8320
2389.297730 0.8320 0.8311 0.8310 0.8282 0.8262
2395.809360 0.8251 0.8250 0.8232 0.8212 0.8182
2402.320990 0.8171 0.8170 0.8152 0.8150 0.8141
2408.832620 0.8140 0.8131 0.8130 0.8102 0.8091
2415.344250 0.8090 0.8081 0.8080 0.8062 0.8060
2421.855880 0.8060 0.8051 0.8050 0.8050 0.8041
2428.367510 0.8040 0.8022 0.8020 0.8020 0.8020
2434.879140 0.8011 0.8010 0.8010 0.8001 0.8000
2441.390770 0.8000 0.8000 0.7982 0.7980 0.7980
2447.902400 0.7980 0.7962 0.7960 0.7960 0.7951
2454.414030 0.7932 0.7921 0.7911 0.7892 0.7881
2460.925660 0.7871 0.7852 0.7841 0.7831 0.7802
2467.437290 0.7791 0.7762 0.7751 0.7741 0.7722
2473.948920 0.7720 0.7711 0.7701 0.7682 0.7671
2480.460550 0.7670 0.7661 0.7660 0.7660 0.7651
2486.972180 0.7632 0.7612 0.7592 0.7581 0.7552
2493.483810 0.7550 0.7550 0.7541 0.7512 0.7510
2499.995440 0.7501 0.7500 0.7500 0.7491 0.7490
2506.507070 0.7481 0.7480 0.7462 0.7442 0.7412
2513.018700 0.7382 0.7371 0.7361 0.7342 0.7340
2519.530330 0.7331 0.7321 0.7320 0.7292 0.7308
2526.041960 0.7282 0.7280 0.7280 0.7271 0.7270
2532.553590 0.7270 0.7270 0.7252 0.7250 0.7268
2539.065220 0.7270 0.7270 0.7270 0.7270 0.7270
2545.576850 0.7270 0.7270 0.7270 0.7270 0.7270
2552.088480 0.7270 0.7270 0.7270 0.7270 0.7270
2558.600110 0.7270 0.7270 0.7252 0.7250 0.7250
2565.111740 0.7250 0.7250 0.7241 0.7240 0.7231
2571.623370 0.7230 0.7211 0.7201 0.7191 0.7181
2578.135000 0.7162 0.7151 0.7122 0.7102 0.7082
2584.646630 0.7071 0.7061 0.7060 0.7042 0.7031
2591.158260 0.7012 0.6982 0.6934 0.6930 0.6912
2597.669890 0.6892 0.6872 0.6861 0.6842 0.6822
2604.181520 0.6811 0.6801 0.6782 0.6771 0.6770
2610.693150 0.6742 0.6731 0.6721 0.6720 0.6711
2617.204780 0.6710 0.6692 0.6644 0.6640 0.6612
2623.716410 0.6601 0.6572 0.6552 0.6550 0.6513
2630.228040 0.6501 0.6500 0.6482 0.6480 0.6471
2636.739670 0.6470 0.6461 0.6442 0.6440 0.6440
2643.251300 0.6440 0.6440 0.6440 0.6440 0.6440
2649.762930 0.6458 0.6460 0.6469 0.6470 0.6479
2656.274560 0.6508 0.6538 0.6540 0.6549 0.6568
2662.786190 0.6588 0.6599 0.6609 0.6628 0.6639
2669.297820 0.6649 0.6668 0.6670 0.6670 0.6679
2675.809450 0.6680 0.6680 0.6680 0.6671 0.6670
2682.321080 0.6652 0.6650 0.6650 0.6641 0.6640
2688.832710 0.6631 0.6630 0.6630 0.6630 0.6630
2695.344340 0.6612 0.6592 0.6572 0.6570 0.6552
2701.855970 0.6522 0.6511 0.6501 0.6472 0.6470
2708.367600 0.6442 0.6422 0.6402 0.6382 0.6352
2714.879230 0.6350 0.6332 0.6330 0.6293 0.6290
2721.390860 0.6272 0.6270 0.6261 0.6260 0.6251
2727.902490 0.6250 0.6241 0.6240 0.6249 0.6250
2734.414120 0.6259 0.6260 0.6288 0.6299 0.6328
2740.925750 0.6330 0.6395 0.6418 0.6438 0.6468
2747.437380 0.6535 0.6558 0.6569 0.6588 0.6590
2753.949010 0.6599 0.6628 0.6732 0.6832 0.6849
2760.460640 0.6859 0.6869 0.6888 0.6899 0.6928
2766.972270 0.6930 0.6939 0.6940 0.6940 0.6940
2773.483900 0.6940 0.6940 0.6940 0.6940 0.6940
2779.995530 0.6940 0.6931 0.6902 0.6900 0.6891
2786.507160 0.6890 0.6872 0.6870 0.6861 0.6851
2793.018790 0.6841 0.6822 0.6820 0.6811 0.6773
2799.530420 0.6770 0.6742 0.6722 0.6692 0.6653
2806.042050 0.6613 0.6573 0.6552 0.6522 0.6502
2812.553680 0.6472 0.6461 0.6460 0.6442 0.6440
2819.065310 0.6431 0.6430 0.6421 0.6392 0.6372
2825.576940 0.6352 0.6341 0.6312 0.6310 0.6310
2832.088570 0.6310 0.6301 0.6300 0.6300 0.6300
2838.600200 0.6300 0.6300 0.6300 0.6300 0.6300
2845.111830 0.6300 0.6300 0.6300 0.6300 0.6300
2851.623460 0.6300 0.6300 0.6291 0.6290 0.6290
2858.135090 0.6272 0.6261 0.6251 0.6250 0.6241
2864.646720 0.6222 0.6211 0.6182 0.6162 0.6077
2871.158350 0.5996 0.5953 0.5932 0.5921 0.5920
2877.669980 0.5920 0.5920 0.5911 0.5910 0.5901
2884.181610 0.5900 0.5881 0.5871 0.5861 0.5842
2890.693240 0.5831 0.5821 0.5820 0.5820 0.5829
2897.204870 0.5839 0.5877 0.5945 0.5968 0.5988
2903.716500 0.5999 0.6000 0.6000 0.6000 0.6000
2910.228130 0.5991 0.5990 0.5972 0.5933 0.5884
2916.739760 0.5843 0.5803 0.5782 0.5780 0.5716
2923.251390 0.5655 0.5613 0.5573 0.5533 0.5502
2929.763020 0.5491 0.5481 0.5480 0.5480 0.5480
2936.274650 0.5489 0.5499 0.5528 0.5539 0.5558
2942.786280 0.5560 0.5569 0.5579 0.5580 0.5580
2949.297910 0.5598 0.5582 0.5580 0.5571 0.5570
2955.809540 0.5561 0.5560 0.5542 0.5531 0.5530
2962.321170 0.5530 0.5539 0.5577 0.5608 0.5693
2968.832800 0.5765 0.5788 0.5818 0.5820 0.5838
2975.344430 0.5840 0.5858 0.5878 0.5898 0.5946
2981.856060 0.6005 0.6038 0.6086 0.6127 0.6139
2988.367690 0.6168 0.6170 0.6179 0.6180 0.6198
2994.879320 0.6209 0.6210 0.6210 0.6210 0.6210
3001.390950 0.6210 0.6210 0.6210 0.6210 0.6210
3007.902580 0.6210 0.6210 0.6210 0.6210 0.6210
3014.414210 0.6210 0.6210 0.6210 0.6210 0.6201
3020.925840 0.6200 0.6200 0.6200 0.6200 0.6200
3027.437470 0.6200 0.6200 0.6200 0.6200 0.6200
3033.949100 0.6200 0.6200 0.6200 0.6200 0.6200
3040.460730 0.6200 0.6200 0.6200 0.6200 0.6200
3046.972360 0.6209 0.6219 0.6220 0.6220 0.6220
3053.483990 0.6220 0.6220 0.6220 0.6220 0.6220
3059.995620 0.6238 0.6240 0.6240 0.6249 0.6250
3066.507250 0.6259 0.6260 0.6269 0.6298 0.6309
3073.018880 0.6310 0.6347 0.6368 0.6388 0.6418
3079.530510 0.6429 0.6439 0.6459 0.6469 0.6498
3086.042140 0.6509 0.6519 0.6538 0.6540 0.6540
3092.553770 0.6540 0.6540 0.6549 0.6550 0.6541
3099.065400 0.6540 0.6540 0.6540 0.6522 0.6520
3105.577030 0.6520 0.6520 0.6520 0.6520 0.6511
3112.088660 0.6501 0.6482 0.6471 0.6461 0.6442
3118.600290 0.6431 0.6430 0.6421 0.6402 0.6382
3125.111920 0.6334 0.6293 0.6253 0.6213 0.6182
3131.623550 0.6162 0.6160 0.6141 0.6140 0.6131
3138.135180 0.6130 0.6121 0.6120 0.6102 0.6091
3144.646810 0.6081 0.6080 0.6071 0.6070 0.6052
3151.158440 0.6050 0.6041 0.6040 0.6031 0.6030
3157.670070 0.6002 0.5963 0.5932 0.5921 0.5902
3164.181700 0.5900 0.5900 0.5882 0.5880 0.5871
3170.693330 0.5870 0.5861 0.5860 0.5860 0.5860
3177.204960 0.5842 0.5831 0.5830 0.5821 0.5820
3183.716590 0.5802 0.5800 0.5800 0.5782 0.5752
3190.228220 0.5713 0.5673 0.5670 0.5652 0.5632
3196.739850 0.5612 0.5601 0.5572 0.5542 0.5540
3203.251480 0.5503 0.5454 0.5413 0.5373 0.5361
3209.763110 0.5323 0.5283 0.5262 0.5232 0.5221
3216.274740 0.5202 0.5191 0.5181 0.5162 0.5142
3222.786370 0.5131 0.5093 0.5035 0.4984 0.4925
3229.298000 0.4846 0.4775 0.4696 0.4607 0.4563
3235.809630 0.4514 0.4491 0.4462 0.4451 0.4432
3242.321260 0.4448 0.4432 0.4421 0.4392 0.4335
3248.832890 0.4321 0.4320 0.4320 0.4320 0.4320
3255.344520 0.4320 0.4320 0.4320 0.4320 0.4320
3261.856150 0.4329 0.4330 0.4339 0.4340 0.4340
3268.367780 0.4340 0.4340 0.4358 0.4360 0.4369
3274.879410 0.4444 0.4487 0.4536 0.4549 0.4559
3281.391040 0.4588 0.4599 0.4618 0.4638 0.4658
3287.902670 0.4669 0.4679 0.4689 0.4718 0.4757
3294.414300 0.4797 0.4837 0.4895 0.4955 0.5006
3300.925930 0.5056 0.5097 0.5128 0.5232 0.5323
3307.437560 0.5422 0.5458 0.5478 0.5489 0.5518
3313.949190 0.5612 0.5685 0.5745 0.5787 0.5818
3320.460820 0.5857 0.5906 0.5965 0.6062 0.6125
3326.972450 0.6139 0.6159 0.6178 0.6198 0.6209
3333.484080 0.6219 0.6238 0.6249 0.6268 0.6270
3339.995710 0.6334 0.6386 0.6399 0.6437 0.6458
3346.507340 0.6460 0.6478 0.6480 0.6508 0.6510
3353.018970 0.6519 0.6538 0.6540 0.6549 0.6550
3359.530600 0.6559 0.6560 0.6560 0.6560 0.6560
3366.042230 0.6560 0.6560 0.6569 0.6570 0.6570
3372.553860 0.6570 0.6570 0.6570 0.6570 0.6570
3379.065490 0.6570 0.6570 0.6570 0.6570 0.6570
3385.577120 0.6561 0.6560 0.6560 0.6560 0.6551
3392.088750 0.6541 0.6540 0.6522 0.6520 0.6511
3398.600380 0.6501 0.6482 0.6471 0.6461 0.6460
3405.112010 0.6442 0.6431 0.6402 0.6345 0.6294
3411.623640 0.6253 0.6213 0.6182 0.6143 0.6085
3418.135270 0.5997 0.5657 0.5408 0.5196 0.4958
3424.646900 0.4709 0.4128 0.4080 0.4181 0.4273
3431.158530 0.4317 0.4329 0.4330 0.4302 0.4263
3437.670160 0.4251 0.4241 0.4249 0.4554 0.4856
3444.181790 0.5248 0.5548 0.5801 0.6023 0.6308
3450.693420 0.6690 0.6858 0.6981 0.7091 0.7183
3457.205050 0.7245 0.7305 0.7338 0.7368 0.7379
3463.716680 0.7398 0.7409 0.7419 0.7420 0.7438
3470.228310 0.7440 0.7449 0.7459 0.7460 0.7478
3476.739940 0.7480 0.7489 0.7508 0.7528 0.7548
3483.251570 0.7568 0.7579 0.7589 0.7608 0.7619
3489.763200 0.7629 0.7648 0.7668 0.7698 0.7709
3496.274830 0.7710 0.7719 0.7720 0.7748 0.7750
3502.786460 0.7778 0.7798 0.7809 0.7828 0.7839
3509.298090 0.7840 0.7849 0.7850 0.7850 0.7868
3515.809720 0.7879 0.7880 0.7889 0.7890 0.7908
3522.321350 0.7919 0.7929 0.7948 0.7959 0.7969
3528.832980 0.7979 0.7998 0.8009 0.8019 0.8020
3535.344610 0.8038 0.8049 0.8059 0.8060 0.8078
3541.856240 0.8089 0.8099 0.8100 0.8118 0.8120
3548.367870 0.8129 0.8139 0.8140 0.8149 0.8168
3554.879500 0.8170 0.8179 0.8180 0.8189 0.8190
3561.391130 0.8208 0.8228 0.8258 0.8278 0.8280
3567.902760 0.8298 0.8309 0.8310 0.8319 0.8338
3574.414390 0.8349 0.8350 0.8359 0.8360 0.8360
3580.926020 0.8360 0.8378 0.8389 0.8436 0.8477
3587.437650 0.8508 0.8529 0.8530 0.8548 0.8559
3593.949280 0.8560 0.8569 0.8570 0.8570 0.8588
3600.460910 0.8599 0.8600 0.8609 0.8619 0.8620
3606.972540 0.8638 0.8640 0.8649 0.8659 0.8678
3613.484170 0.8689 0.8690 0.8699 0.8700 0.8718
3619.995800 0.8720 0.8720 0.8729 0.8730 0.8739
3626.507430 0.8740 0.8740 0.8749 0.8750 0.8768
3633.019060 0.8770 0.8770 0.8770 0.8770 0.8770
3639.530690 0.8770 0.8770 0.8779 0.8780 0.8780
3646.042320 0.8780 0.8780 0.8780 0.8780 0.8780
3652.553950 0.8780 0.8780 0.8780 0.8789 0.8790
3659.065580 0.8790 0.8790 0.8790 0.8790 0.8790
3665.577210 0.8790 0.8790 0.8790 0.8790 0.8781
3672.088840 0.8771 0.8770 0.8770 0.8770 0.8770
3678.600470 0.8770 0.8770 0.8770 0.8770 0.8770
3685.112100 0.8770 0.8770 0.8770 0.8770 0.8770
3691.623730 0.8779 0.8780 0.8780 0.8780 0.8789
3698.135360 0.8790 0.8790 0.8790 0.8790 0.8781
3704.646990 0.8780 0.8780 0.8789 0.8781 0.8771
3711.158620 0.8779 0.8780 0.8780 0.8780 0.8771
3717.670250 0.8770 0.8770 0.8770 0.8770 0.8770
3724.181880 0.8770 0.8779 0.8771 0.8770 0.8770
3730.693510 0.8770 0.8770 0.8770 0.8770 0.8770
3737.205140 0.8770 0.8752 0.8750 0.8741 0.8740
3743.716770 0.8740 0.8740 0.8740 0.8740 0.8740
3750.228400 0.8740 0.8740 0.8749 0.8750 0.8750
3756.740030 0.8741 0.8740 0.8749 0.8750 0.8750
3763.251660 0.8768 0.8770 0.8752 0.8768 0.8770
3769.763290 0.8752 0.8750 0.8750 0.8750 0.8750
3776.274920 0.8750 0.8741 0.8749 0.8741 0.8740
3782.786550 0.8740 0.8731 0.8721 0.8720 0.8720
3789.298180 0.8702 0.8718 0.8720 0.8720 0.8702
3795.809810 0.8700 0.8700 0.8700 0.8700 0.8691
3802.321440 0.8690 0.8690 0.8681 0.8680 0.8680
3808.833070 0.8680 0.8680 0.8680 0.8680 0.8680
3815.344700 0.8680 0.8680 0.8680 0.8689 0.8699
3821.856330 0.8700 0.8700 0.8700 0.8700 0.8700
3828.367960 0.8700 0.8700 0.8700 0.8700 0.8700
3834.879590 0.8691 0.8681 0.8680 0.8662 0.8651
3841.391220 0.8650 0.8650 0.8650 0.8641 0.8640
3847.902850 0.8640 0.8621 0.8620 0.8620 0.8620
3854.414480 0.8620 0.8620 0.8620 0.8611 0.8610
3860.926110 0.8619 0.8620 0.8620 0.8620 0.8620
3867.437740 0.8620 0.8620 0.8620 0.8620 0.8620
3873.949370 0.8620 0.8620 0.8620 0.8620 0.8620
3880.461000 0.8620 0.8620 0.8620 0.8620 0.8620
3886.972630 0.8620 0.8611 0.8610 0.8610 0.8610
3893.484260 0.8610 0.8610 0.8610 0.8610 0.8610
3899.995890 0.8610 0.8610 0.8610 0.8610 0.8610
3906.507520 0.8610 0.8619 0.8620 0.8611 0.8610
3913.019150 0.8610 0.8610 0.8610 0.8610 0.8601
3919.530780 0.8591 0.8590 0.8572 0.8570 0.8570
3926.042410 0.8570 0.8570 0.8570 0.8570 0.8570
3932.554040 0.8570 0.8570 0.8570 0.8570 0.8570
3939.065670 0.8570 0.8570 0.8570 0.8570 0.8561
3945.577300 0.8560 0.8560 0.8560 0.8560 0.8560
3952.088930 0.8560 0.8560 0.8560 0.8560 0.8569
3958.600560 0.8570 0.8570 0.8570 0.8570 0.8561
3965.112190 0.8560 0.8560 0.8560 0.8560 0.8560
3971.623820 0.8560 0.8560 0.8560 0.8560 0.8560
3978.135450 0.8560 0.8560 0.8560 0.8560 0.8560
3984.647080 0.8560 0.8560 0.8560 0.8560 0.8560
3991.158710 0.8560 0.8560 0.8560 0.8560 0.8560
3997.670340 0.8560 0.8560 0.8560 0.8560 0.8569
4004.181970 0.8561 0.8560 0.8560
##END=
