##TITLE=PINENE (Alpha AND Beta)
##JCAMP-DX=4.24
##DATA TYPE=INFRARED SPECTRUM
##CLASS=COBLENTZ
##ORIGIN=PERKIN-ELMER CORP. (M. ZELLER)
##OWNER=COBLENTZ SOCIETY
Collection (C) 2018 copyright by the U.S. Secretary of Commerce
on behalf of the United States of America. All rights reserved.
##DATE=1977/07/28
##MOLFORM=C10 H16
##BP=155 C
##SOURCE REFERENCE=COBLENTZ NO. 10558
##$NIST ID=B6010558
##$NIST SOURCE=COBLENTZ
##$NIST IMAGE=cob-r10558
##SPECTROMETER/DATA SYSTEM=PERKIN-ELMER 180
##STATE=VAPOR (15 MICROLITER AT 150 C)
##PATH LENGTH=5 CM KBr CELL, CELL VOLUME: 80 CM^3
##SAMPLING PROCEDURE=TRANSMISSION
##RESOLUTION=2-3 CM^-^1
##DATA PROCESSING=DIGITIZED BY NIST FROM HARD COPY (FROM TWO SEGMENTS)
##XUNITS=1/CM
##YUNITS=TRANSMITTANCE
##XFACTOR=1.000000
##YFACTOR=1
##DELTAX=1.354788
##FIRSTX=410.838
##LASTX=4005.09
##FIRSTY=0.498
##MAXX=4005.09
##MINX=410.838
##MAXY=0.914992
##MINY=0.0473654
##NPOINTS=2654
##XYDATA=(X++(Y..Y))
410.838000 0.4980 0.5000 0.5170 0.5320 0.5430
417.611938 0.5500 0.5560 0.5749 0.5839 0.5929
424.385876 0.6010 0.6090 0.6170 0.6240 0.6300
431.159814 0.6380 0.6489 0.6550 0.6719 0.6780
437.933751 0.6850 0.6910 0.6970 0.7030 0.7160
444.707689 0.7220 0.7270 0.7340 0.7390 0.7450
451.481627 0.7500 0.7570 0.7620 0.7660 0.7720
458.255565 0.7770 0.7830 0.7870 0.7910 0.7950
465.029503 0.8030 0.8060 0.8080 0.8130 0.8140
471.803441 0.8170 0.8230 0.8260 0.8310 0.8379
478.577379 0.8410 0.8420 0.8450 0.8480 0.8520
485.351316 0.8600 0.8610 0.8630 0.8650 0.8690
492.125254 0.8720 0.8750 0.8760 0.8780 0.8790
498.899192 0.8800 0.8800 0.8800 0.8790 0.8760
505.673130 0.8750 0.8750 0.8760 0.8760 0.8780
512.447068 0.8790 0.8790 0.8800 0.8800 0.8800
519.221006 0.8820 0.8820 0.8830 0.8840 0.8860
525.994943 0.8870 0.8880 0.8880 0.8900 0.8920
532.768881 0.8940 0.8950 0.8970 0.8970 0.8970
539.542819 0.8980 0.8990 0.9010 0.9010 0.9010
546.316757 0.9020 0.9020 0.9020 0.9020 0.9020
553.090695 0.9020 0.9010 0.9010 0.8990 0.8990
559.864633 0.8980 0.8980 0.8980 0.8980 0.8980
566.638571 0.8990 0.9010 0.9010 0.9020 0.9020
573.412508 0.9030 0.9050 0.9060 0.9090 0.9100
580.186446 0.9100 0.9100 0.9100 0.9110 0.9110
586.960384 0.9110 0.9110 0.9130 0.9130 0.9130
593.734322 0.9110 0.9110 0.9110 0.9110 0.9110
600.508260 0.9110 0.9110 0.9110 0.9100 0.9090
607.282198 0.9090 0.9090 0.9090 0.9070 0.9070
614.056136 0.9060 0.9060 0.9060 0.9060 0.9060
620.830073 0.9060 0.9070 0.9090 0.9090 0.9100
627.604011 0.9100 0.9110 0.9110 0.9110 0.9110
634.377949 0.9130 0.9130 0.9130 0.9130 0.9130
641.151887 0.9140 0.9140 0.9140 0.9140 0.9140
647.925825 0.9140 0.9140 0.9140 0.9140 0.9150
654.699763 0.9140 0.9140 0.9140 0.9140 0.9140
661.473701 0.9140 0.9130 0.9110 0.9110 0.9130
668.247638 0.9130 0.9130 0.9110 0.9110 0.9110
675.021576 0.9110 0.9110 0.9130 0.9130 0.9130
681.795514 0.9130 0.9130 0.9130 0.9130 0.9130
688.569452 0.9110 0.9110 0.9110 0.9110 0.9100
695.343390 0.9070 0.9050 0.9050 0.9050 0.9060
702.117328 0.9070 0.9070 0.9070 0.9070 0.9070
708.891265 0.9070 0.9070 0.9070 0.9070 0.9070
715.665203 0.9060 0.9060 0.9060 0.9060 0.9060
722.439141 0.9050 0.9030 0.9020 0.9020 0.9020
729.213079 0.9010 0.8990 0.8980 0.8970 0.8970
735.987017 0.8970 0.8970 0.8970 0.8950 0.8950
742.760955 0.8950 0.8940 0.8940 0.8940 0.8940
749.534893 0.8940 0.8920 0.8870 0.8830 0.8800
756.308830 0.8780 0.8750 0.8720 0.8690 0.8650
763.082768 0.8610 0.8590 0.8550 0.8530 0.8490
769.856706 0.8450 0.8410 0.8380 0.8271 0.8181
776.630644 0.8130 0.8070 0.8000 0.7950 0.7880
783.404582 0.7830 0.7770 0.7710 0.7621 0.7570
790.178520 0.7540 0.7560 0.7580 0.7750 0.7870
796.952458 0.7950 0.8000 0.8070 0.8130 0.8180
803.726395 0.8260 0.8380 0.8590 0.8680 0.8730
810.500333 0.8780 0.8820 0.8830 0.8840 0.8860
817.274271 0.8860 0.8870 0.8870 0.8870 0.8870
824.048209 0.8870 0.8860 0.8860 0.8860 0.8860
830.822147 0.8840 0.8840 0.8840 0.8830 0.8830
837.596085 0.8830 0.8820 0.8820 0.8820 0.8800
844.370023 0.8790 0.8780 0.8760 0.8760 0.8760
851.143960 0.8760 0.8750 0.8730 0.8710 0.8710
857.917898 0.8690 0.8670 0.8650 0.8630 0.8590
864.691836 0.8560 0.8530 0.8480 0.8410 0.8340
871.465774 0.8270 0.8210 0.8150 0.8080 0.8020
878.239712 0.7940 0.7850 0.7760 0.7681 0.7660
885.013650 0.7680 0.7730 0.7810 0.7870 0.7920
891.787587 0.7980 0.7990 0.8099 0.8170 0.8259
898.561525 0.8330 0.8400 0.8460 0.8520 0.8610
905.335463 0.8650 0.8680 0.8690 0.8710 0.8710
912.109401 0.8720 0.8730 0.8730 0.8730 0.8730
918.883339 0.8730 0.8730 0.8730 0.8750 0.8750
925.657277 0.8750 0.8730 0.8730 0.8730 0.8730
932.431215 0.8720 0.8720 0.8720 0.8720 0.8710
939.205152 0.8680 0.8680 0.8670 0.8670 0.8650
945.979090 0.8610 0.8600 0.8600 0.8590 0.8570
952.753028 0.8570 0.8560 0.8550 0.8550 0.8530
959.526966 0.8530 0.8530 0.8550 0.8590 0.8610
966.300904 0.8640 0.8670 0.8690 0.8720 0.8750
973.074842 0.8760 0.8780 0.8790 0.8790 0.8790
979.848780 0.8790 0.8790 0.8790 0.8790 0.8780
986.622717 0.8760 0.8760 0.8760 0.8750 0.8750
993.396655 0.8730 0.8720 0.8710 0.8690 0.8680
1000.170593 0.8670 0.8640 0.8640 0.8590 0.8550
1006.944531 0.8500 0.8450 0.8420 0.8380 0.8360
1013.718469 0.8330 0.8290 0.8270 0.8260 0.8260
1020.492407 0.8260 0.8260 0.8270 0.8270 0.8290
1027.266345 0.8300 0.8310 0.8330 0.8340 0.8360
1034.040282 0.8370 0.8370 0.8400 0.8410 0.8420
1040.814220 0.8440 0.8440 0.8440 0.8440 0.8420
1047.588158 0.8420 0.8420 0.8420 0.8410 0.8410
1054.362096 0.8410 0.8410 0.8400 0.8400 0.8400
1061.136034 0.8400 0.8400 0.8400 0.8400 0.8400
1067.909972 0.8400 0.8400 0.8400 0.8400 0.8400
1074.683909 0.8380 0.8370 0.8360 0.8360 0.8330
1081.457847 0.8310 0.8290 0.8260 0.8260 0.8230
1088.231785 0.8220 0.8210 0.8180 0.8180 0.8170
1095.005723 0.8170 0.8170 0.8170 0.8170 0.8180
1101.779661 0.8180 0.8190 0.8190 0.8210 0.8210
1108.553599 0.8220 0.8220 0.8220 0.8210 0.8190
1115.327537 0.8190 0.8180 0.8150 0.8140 0.8140
1122.101474 0.8130 0.8110 0.8110 0.8110 0.8100
1128.875412 0.8080 0.8080 0.8080 0.8100 0.8130
1135.649350 0.8150 0.8170 0.8190 0.8220 0.8230
1142.423288 0.8260 0.8300 0.8310 0.8340 0.8360
1149.197226 0.8370 0.8370 0.8370 0.8370 0.8360
1155.971164 0.8330 0.8330 0.8330 0.8310 0.8300
1162.745102 0.8300 0.8290 0.8270 0.8260 0.8250
1169.519039 0.8250 0.8250 0.8230 0.8230 0.8230
1176.292977 0.8230 0.8230 0.8230 0.8230 0.8230
1183.066915 0.8230 0.8230 0.8230 0.8230 0.8230
1189.840853 0.8230 0.8220 0.8210 0.8190 0.8180
1196.614791 0.8170 0.8150 0.8130 0.8100 0.8080
1203.388729 0.8060 0.8030 0.8000 0.7950 0.7910
1210.162667 0.7880 0.7850 0.7850 0.7840 0.7850
1216.936604 0.7850 0.7850 0.7870 0.7880 0.7890
1223.710542 0.7910 0.7940 0.7980 0.8000 0.8040
1230.484480 0.8070 0.8110 0.8140 0.8180 0.8210
1237.258418 0.8220 0.8230 0.8270 0.8310 0.8310
1244.032356 0.8330 0.8330 0.8330 0.8310 0.8300
1250.806294 0.8290 0.8270 0.8260 0.8250 0.8230
1257.580232 0.8210 0.8180 0.8170 0.8150 0.8150
1264.354169 0.8150 0.8140 0.8140 0.8140 0.8150
1271.128107 0.8170 0.8170 0.8190 0.8210 0.8230
1277.902045 0.8260 0.8290 0.8300 0.8300 0.8310
1284.675983 0.8330 0.8340 0.8360 0.8360 0.8360
1291.449921 0.8360 0.8360 0.8340 0.8340 0.8340
1298.223859 0.8340 0.8340 0.8330 0.8330 0.8310
1304.997796 0.8310 0.8300 0.8300 0.8290 0.8290
1311.771734 0.8270 0.8270 0.8260 0.8230 0.8220
1318.545672 0.8210 0.8190 0.8170 0.8140 0.8130
1325.319610 0.8100 0.8070 0.8070 0.8040 0.8040
1332.093548 0.8020 0.8020 0.8000 0.8000 0.8020
1338.867486 0.8030 0.8030 0.8040 0.8040 0.8070
1345.641424 0.8080 0.8080 0.8100 0.8100 0.8100
1352.415361 0.8110 0.8080 0.7990 0.7910 0.7811
1359.189299 0.7750 0.7660 0.7570 0.7470 0.7370
1365.963237 0.7240 0.7160 0.7080 0.6990 0.6861
1372.737175 0.6690 0.6570 0.6550 0.6540 0.6500
1379.511113 0.6460 0.6440 0.6460 0.6490 0.6510
1386.285051 0.6530 0.6540 0.6650 0.6690 0.6880
1393.058989 0.7199 0.7270 0.7419 0.7519 0.7580
1399.832926 0.7660 0.7730 0.7830 0.7940 0.8020
1406.606864 0.8040 0.8060 0.8100 0.8100 0.8110
1413.380802 0.8110 0.8080 0.8040 0.8030 0.8020
1420.154740 0.8000 0.7980 0.7910 0.7840 0.7751
1426.928678 0.7680 0.7610 0.7520 0.7460 0.7330
1433.702616 0.7240 0.7180 0.7110 0.6991 0.6891
1440.476554 0.6810 0.6740 0.6660 0.6630 0.6610
1447.250491 0.6610 0.6590 0.6580 0.6580 0.6570
1454.024429 0.6570 0.6570 0.6580 0.6610 0.6620
1460.798367 0.6630 0.6660 0.6700 0.6760 0.6810
1467.572305 0.6820 0.6880 0.6910 0.6960 0.7000
1474.346243 0.7030 0.7199 0.7280 0.7379 0.7460
1481.120181 0.7530 0.7610 0.7690 0.7760 0.7830
1487.894118 0.7910 0.7990 0.8060 0.8130 0.8180
1494.668056 0.8250 0.8300 0.8340 0.8370 0.8400
1501.441994 0.8420 0.8420 0.8440 0.8440 0.8450
1508.215932 0.8450 0.8460 0.8460 0.8480 0.8490
1514.989870 0.8490 0.8480 0.8480 0.8480 0.8480
1521.763808 0.8460 0.8460 0.8460 0.8450 0.8450
1528.537746 0.8450 0.8450 0.8450 0.8440 0.8420
1535.311683 0.8420 0.8410 0.8410 0.8410 0.8410
1542.085621 0.8410 0.8400 0.8370 0.8370 0.8360
1548.859559 0.8360 0.8340 0.8330 0.8310 0.8290
1555.633497 0.8250 0.8230 0.8230 0.8220 0.8220
1562.407435 0.8210 0.8190 0.8190 0.8190 0.8190
1569.181373 0.8190 0.8180 0.8170 0.8130 0.8130
1575.955311 0.8130 0.8140 0.8140 0.8140 0.8130
1582.729248 0.8130 0.8130 0.8130 0.8130 0.8110
1589.503186 0.8110 0.8110 0.8110 0.8110 0.8110
1596.277124 0.8110 0.8110 0.8100 0.8100 0.8080
1603.051062 0.8080 0.8100 0.8100 0.8100 0.8100
1609.825000 0.8100 0.8100 0.8100 0.8100 0.8100
1616.598938 0.8080 0.8080 0.8070 0.8040 0.8030
1623.372876 0.8000 0.7990 0.7990 0.7960 0.7940
1630.146813 0.7910 0.7870 0.7830 0.7790 0.7770
1636.920751 0.7760 0.7730 0.7710 0.7690 0.7690
1643.694689 0.7710 0.7720 0.7730 0.7750 0.7760
1650.468627 0.7770 0.7830 0.7890 0.7950 0.7960
1657.242565 0.7980 0.7990 0.8020 0.8070 0.8100
1664.016503 0.8130 0.8140 0.8190 0.8210 0.8210
1670.790440 0.8220 0.8220 0.8230 0.8230 0.8220
1677.564378 0.8220 0.8220 0.8220 0.8220 0.8210
1684.338316 0.8190 0.8180 0.8180 0.8170 0.8150
1691.112254 0.8140 0.8100 0.8080 0.8060 0.8040
1697.886192 0.8040 0.8040 0.8030 0.8020 0.8020
1704.660130 0.8020 0.8030 0.8030 0.8030 0.8040
1711.434068 0.8040 0.8060 0.8070 0.8080 0.8100
1718.208005 0.8100 0.8110 0.8110 0.8130 0.8140
1724.981943 0.8140 0.8140 0.8140 0.8140 0.8140
1731.755881 0.8150 0.8170 0.8170 0.8210 0.8220
1738.529819 0.8230 0.8230 0.8250 0.8260 0.8290
1745.303757 0.8310 0.8330 0.8340 0.8370 0.8380
1752.077695 0.8380 0.8400 0.8410 0.8420 0.8440
1758.851633 0.8440 0.8450 0.8450 0.8450 0.8480
1765.625570 0.8480 0.8480 0.8490 0.8490 0.8500
1772.399508 0.8520 0.8570 0.8600 0.8600 0.8610
1779.173446 0.8610 0.8630 0.8630 0.8640 0.8680
1785.947384 0.8690 0.8710 0.8720 0.8710 0.8730
1792.721322 0.8750 0.8780 0.8780 0.8780 0.8790
1799.495260 0.8790 0.8790 0.8790 0.8800 0.8820
1806.269198 0.8820 0.8820 0.8820 0.8820 0.8820
1813.043135 0.8830 0.8830 0.8840 0.8840 0.8830
1819.817073 0.8830 0.8830 0.8840 0.8840 0.8840
1826.591011 0.8830 0.8830 0.8830 0.8830 0.8830
1833.364949 0.8830 0.8830 0.8840 0.8840 0.8840
1840.138887 0.8830 0.8830 0.8830 0.8860 0.8860
1846.912825 0.8860 0.8860 0.8870 0.8870 0.8860
1853.686762 0.8860 0.8860 0.8840 0.8840 0.8840
1860.460700 0.8840 0.8840 0.8840 0.8840 0.8840
1867.234638 0.8840 0.8840 0.8840 0.8840 0.8840
1874.008576 0.8840 0.8840 0.8840 0.8830 0.8830
1880.782514 0.8830 0.8830 0.8830 0.8830 0.8830
1887.556452 0.8830 0.8830 0.8830 0.8840 0.8840
1894.330390 0.8840 0.8840 0.8840 0.8840 0.8860
1901.104327 0.8860 0.8860 0.8860 0.8860 0.8860
1907.878265 0.8860 0.8860 0.8860 0.8860 0.8860
1914.652203 0.8860 0.8860 0.8860 0.8860 0.8860
1921.426141 0.8860 0.8860 0.8860 0.8860 0.8860
1928.200079 0.8840 0.8840 0.8830 0.8820 0.8820
1934.974017 0.8820 0.8820 0.8820 0.8800 0.8800
1941.747955 0.8800 0.8800 0.8800 0.8800 0.8800
1948.521892 0.8800 0.8800 0.8800 0.8800 0.8800
1955.295830 0.8800 0.8800 0.8800 0.8800 0.8800
1962.069768 0.8800 0.8800 0.8800 0.8800 0.8800
1968.843706 0.8800 0.8800 0.8800 0.8800 0.8800
1975.617644 0.8800 0.8790 0.8790 0.8790 0.8790
1982.391582 0.8790 0.8790 0.8790 0.8780 0.8760
1989.165520 0.8760 0.8760 0.8760 0.8760 0.8750
1995.939457 0.8750 0.8730 0.8730 0.8710 0.8690
2002.713395 0.8670 0.8660 0.8650 0.8645 0.8640
2009.487333 0.8640 0.8640 0.8640 0.8640 0.8640
2016.261271 0.8640 0.8640 0.8640 0.8640 0.8640
2023.035209 0.8640 0.8640 0.8640 0.8640 0.8635
2029.809147 0.8629 0.8619 0.8610 0.8610 0.8610
2036.583084 0.8610 0.8610 0.8610 0.8610 0.8605
2043.357022 0.8600 0.8600 0.8600 0.8600 0.8600
2050.130960 0.8600 0.8600 0.8600 0.8599 0.8594
2056.904898 0.8590 0.8590 0.8590 0.8590 0.8590
2063.678836 0.8590 0.8590 0.8590 0.8590 0.8590
2070.452774 0.8590 0.8590 0.8590 0.8590 0.8590
2077.226712 0.8590 0.8590 0.8590 0.8590 0.8590
2084.000649 0.8590 0.8590 0.8590 0.8590 0.8588
2090.774587 0.8578 0.8570 0.8570 0.8570 0.8570
2097.548525 0.8570 0.8570 0.8570 0.8570 0.8570
2104.322463 0.8570 0.8569 0.8564 0.8560 0.8560
2111.096401 0.8560 0.8560 0.8560 0.8560 0.8560
2117.870339 0.8560 0.8559 0.8554 0.8550 0.8550
2124.644277 0.8550 0.8550 0.8550 0.8550 0.8550
2131.418214 0.8550 0.8550 0.8550 0.8550 0.8550
2138.192152 0.8551 0.8556 0.8559 0.8554 0.8550
2144.966090 0.8550 0.8547 0.8537 0.8530 0.8530
2151.740028 0.8530 0.8530 0.8529 0.8524 0.8520
2158.513966 0.8520 0.8520 0.8520 0.8520 0.8520
2165.287904 0.8520 0.8520 0.8522 0.8527 0.8530
2172.061842 0.8530 0.8528 0.8523 0.8520 0.8520
2178.835779 0.8520 0.8520 0.8520 0.8520 0.8517
2185.609717 0.8507 0.8500 0.8500 0.8500 0.8500
2192.383655 0.8498 0.8493 0.8488 0.8483 0.8480
2199.157593 0.8480 0.8480 0.8480 0.8480 0.8480
2205.931531 0.8480 0.8480 0.8480 0.8480 0.8482
2212.705469 0.8487 0.8492 0.8497 0.8500 0.8500
2219.479406 0.8500 0.8500 0.8500 0.8500 0.8500
2226.253344 0.8500 0.8500 0.8500 0.8500 0.8500
2233.027282 0.8500 0.8500 0.8500 0.8500 0.8500
2239.801220 0.8500 0.8500 0.8500 0.8500 0.8500
2246.575158 0.8500 0.8500 0.8500 0.8500 0.8500
2253.349096 0.8500 0.8498 0.8493 0.8490 0.8490
2260.123034 0.8490 0.8490 0.8488 0.8483 0.8480
2266.896971 0.8480 0.8480 0.8480 0.8480 0.8480
2273.670909 0.8480 0.8480 0.8480 0.8480 0.8480
2280.444847 0.8480 0.8480 0.8480 0.8480 0.8480
2287.218785 0.8480 0.8480 0.8480 0.8480 0.8480
2293.992723 0.8480 0.8475 0.8464 0.8460 0.8460
2300.766661 0.8460 0.8460 0.8457 0.8452 0.8450
2307.540599 0.8450 0.8450 0.8450 0.8447 0.8442
2314.314536 0.8440 0.8440 0.8440 0.8440 0.8440
2321.088474 0.8440 0.8440 0.8440 0.8440 0.8440
2327.862412 0.8440 0.8440 0.8440 0.8440 0.8440
2334.636350 0.8440 0.8440 0.8440 0.8440 0.8440
2341.410288 0.8440 0.8440 0.8440 0.8440 0.8440
2348.184226 0.8440 0.8440 0.8440 0.8433 0.8423
2354.958164 0.8420 0.8420 0.8417 0.8412 0.8410
2361.732101 0.8410 0.8410 0.8410 0.8410 0.8410
2368.506039 0.8410 0.8410 0.8413 0.8418 0.8420
2375.279977 0.8420 0.8420 0.8420 0.8420 0.8420
2382.053915 0.8420 0.8420 0.8420 0.8420 0.8420
2388.827853 0.8420 0.8420 0.8420 0.8420 0.8420
2395.601791 0.8420 0.8420 0.8420 0.8420 0.8420
2402.375728 0.8420 0.8420 0.8420 0.8420 0.8420
2409.149666 0.8420 0.8420 0.8416 0.8411 0.8410
2415.923604 0.8410 0.8410 0.8410 0.8410 0.8410
2422.697542 0.8410 0.8410 0.8410 0.8410 0.8410
2429.471480 0.8410 0.8406 0.8401 0.8400 0.8400
2436.245418 0.8400 0.8400 0.8400 0.8400 0.8392
2443.019356 0.8382 0.8380 0.8380 0.8380 0.8380
2449.793293 0.8376 0.8371 0.8370 0.8370 0.8370
2456.567231 0.8370 0.8370 0.8370 0.8370 0.8370
2463.341169 0.8370 0.8370 0.8366 0.8361 0.8360
2470.115107 0.8360 0.8360 0.8360 0.8360 0.8360
2476.889045 0.8351 0.8341 0.8340 0.8340 0.8340
2483.662983 0.8340 0.8340 0.8340 0.8340 0.8340
2490.436921 0.8340 0.8340 0.8340 0.8340 0.8335
2497.210858 0.8330 0.8330 0.8330 0.8330 0.8330
2503.984796 0.8330 0.8330 0.8330 0.8330 0.8330
2510.758734 0.8330 0.8330 0.8330 0.8330 0.8330
2517.532672 0.8330 0.8330 0.8330 0.8330 0.8330
2524.306610 0.8330 0.8330 0.8330 0.8330 0.8330
2531.080548 0.8330 0.8330 0.8320 0.8310 0.8310
2537.854486 0.8310 0.8310 0.8310 0.8310 0.8310
2544.628423 0.8310 0.8310 0.8310 0.8310 0.8310
2551.402361 0.8310 0.8310 0.8310 0.8310 0.8310
2558.176299 0.8305 0.8300 0.8300 0.8300 0.8300
2564.950237 0.8300 0.8300 0.8300 0.8300 0.8300
2571.724175 0.8300 0.8300 0.8300 0.8300 0.8300
2578.498113 0.8300 0.8300 0.8300 0.8295 0.8290
2585.272050 0.8290 0.8290 0.8290 0.8290 0.8290
2592.045988 0.8290 0.8290 0.8290 0.8290 0.8290
2598.819926 0.8290 0.8289 0.8279 0.8270 0.8270
2605.593864 0.8269 0.8264 0.8260 0.8260 0.8260
2612.367802 0.8260 0.8260 0.8260 0.8260 0.8260
2619.141740 0.8261 0.8266 0.8270 0.8270 0.8270
2625.915678 0.8270 0.8269 0.8264 0.8260 0.8260
2632.689615 0.8259 0.8254 0.8250 0.8250 0.8248
2639.463553 0.8238 0.8229 0.8224 0.8219 0.8214
2646.237491 0.8210 0.8210 0.8210 0.8210 0.8208
2653.011429 0.8198 0.8190 0.8190 0.8190 0.8190
2659.785367 0.8190 0.8190 0.8192 0.8202 0.8211
2666.559305 0.8216 0.8221 0.8226 0.8230 0.8230
2673.333243 0.8230 0.8230 0.8230 0.8230 0.8230
2680.107180 0.8230 0.8230 0.8230 0.8230 0.8230
2686.881118 0.8229 0.8224 0.8220 0.8220 0.8219
2693.655056 0.8214 0.8207 0.8197 0.8189 0.8184
2700.428994 0.8176 0.8160 0.8148 0.8143 0.8135
2707.202932 0.8120 0.8108 0.8103 0.8093 0.8073
2713.976870 0.8055 0.8040 0.8028 0.8023 0.8015
2720.750808 0.8000 0.7985 0.7970 0.7958 0.7953
2727.524745 0.7950 0.7950 0.7950 0.7950 0.7952
2734.298683 0.7957 0.7966 0.7981 0.7990 0.7990
2741.072621 0.7992 0.7997 0.8000 0.8000 0.8004
2747.846559 0.8014 0.8020 0.8020 0.8020 0.8020
2754.620497 0.8020 0.8020 0.8016 0.8006 0.8000
2761.394435 0.8000 0.7998 0.7993 0.7988 0.7983
2768.168373 0.7980 0.7980 0.7980 0.7980 0.7976
2774.942310 0.7966 0.7960 0.7960 0.7958 0.7953
2781.716248 0.7948 0.7943 0.7935 0.7925 0.7913
2788.490186 0.7898 0.7885 0.7875 0.7856 0.7826
2795.264124 0.7800 0.7780 0.7758 0.7733 0.7705
2802.038062 0.7675 0.7650 0.7630 0.7610 0.7590
2808.812000 0.7575 0.7565 0.7550 0.7529 0.7483
2815.585937 0.7413 0.7327 0.7227 0.7143 0.7073
2822.359875 0.7000 0.6925 0.6807 0.6652 0.6488
2829.133813 0.6318 0.6148 0.5978 0.5856 0.5776
2835.907751 0.5696 0.5614 0.5494 0.5343 0.5271
2842.681689 0.5256 0.5244 0.5234 0.5215 0.5190
2849.455627 0.5157 0.5117 0.5085 0.5060 0.5035
2856.229565 0.5010 0.4970 0.4920 0.4775 0.4565
2863.003502 0.4389 0.4237 0.4083 0.3928 0.3735
2869.777440 0.3519 0.3348 0.3203 0.3087 0.2986
2876.551378 0.2925 0.2884 0.2838 0.2788 0.2693
2883.325316 0.2573 0.2511 0.2481 0.2489 0.2519
2890.099254 0.2609 0.2731 0.2770 0.2770 0.2733
2896.873192 0.2678 0.2404 0.2029 0.1787 0.1607
2903.647130 0.1426 0.1246 0.1076 0.0911 0.0853
2910.421067 0.0843 0.0840 0.0840 0.0756 0.0636
2917.195005 0.0565 0.0514 0.0489 0.0474 0.0474
2923.968943 0.0479 0.0535 0.0610 0.0707 0.0812
2930.742881 0.0906 0.0997 0.1090 0.1185 0.1347
2937.516819 0.1533 0.1651 0.1746 0.1841 0.1936
2944.290757 0.1987 0.2022 0.2034 0.2039 0.2056
2951.064695 0.2076 0.2107 0.2142 0.2201 0.2266
2957.838632 0.2347 0.2432 0.2517 0.2602 0.2672
2964.612570 0.2737 0.2806 0.2876 0.2930 0.2980
2971.386508 0.2990 0.2990 0.2986 0.2981 0.2926
2978.160446 0.2861 0.2812 0.2767 0.2718 0.2668
2984.934384 0.2660 0.2660 0.2803 0.2973 0.3152
2991.708322 0.3332 0.3474 0.3609 0.3940 0.4305
2998.482259 0.4640 0.4970 0.5085 0.5170 0.5679
3005.256197 0.6245 0.6310 0.6310 0.6297 0.6282
3012.030135 0.6271 0.6261 0.6202 0.6137 0.6090
3018.804073 0.6045 0.6027 0.6012 0.6015 0.6020
3025.578011 0.6084 0.6155 0.6230 0.6305 0.6403
3032.351949 0.6504 0.6618 0.6733 0.6810 0.6885
3039.125887 0.7031 0.7181 0.7261 0.7336 0.7373
3045.899824 0.7408 0.7415 0.7420 0.7420 0.7420
3052.673762 0.7415 0.7410 0.7390 0.7370 0.7340
3059.447700 0.7310 0.7290 0.7270 0.7250 0.7230
3066.221638 0.7225 0.7220 0.7225 0.7230 0.7265
3072.995576 0.7300 0.7335 0.7370 0.7390 0.7410
3079.769514 0.7430 0.7452 0.7507 0.7561 0.7586
3086.543452 0.7611 0.7631 0.7650 0.7655 0.7660
3093.317389 0.7670 0.7680 0.7685 0.7690 0.7690
3100.091327 0.7690 0.7690 0.7691 0.7701 0.7710
3106.865265 0.7710 0.7710 0.7715 0.7720 0.7725
3113.639203 0.7731 0.7741 0.7750 0.7750 0.7750
3120.413141 0.7750 0.7750 0.7750 0.7750 0.7750
3127.187079 0.7751 0.7755 0.7761 0.7766 0.7771
3133.961017 0.7781 0.7790 0.7790 0.7791 0.7796
3140.734954 0.7800 0.7800 0.7800 0.7800 0.7802
3147.508892 0.7817 0.7830 0.7830 0.7831 0.7836
3154.282830 0.7840 0.7840 0.7841 0.7846 0.7852
3161.056768 0.7862 0.7870 0.7870 0.7872 0.7882
3167.830706 0.7892 0.7902 0.7911 0.7916 0.7920
3174.604644 0.7920 0.7922 0.7932 0.7940 0.7940
3181.378581 0.7940 0.7940 0.7940 0.7940 0.7941
3188.152519 0.7946 0.7950 0.7950 0.7950 0.7950
3194.926457 0.7950 0.7950 0.7950 0.7950 0.7950
3201.700395 0.7950 0.7950 0.7950 0.7950 0.7950
3208.474333 0.7951 0.7956 0.7960 0.7960 0.7960
3215.248271 0.7960 0.7960 0.7960 0.7960 0.7960
3222.022209 0.7960 0.7960 0.7960 0.7960 0.7960
3228.796146 0.7960 0.7960 0.7960 0.7960 0.7960
3235.570084 0.7960 0.7960 0.7960 0.7960 0.7960
3242.344022 0.7960 0.7960 0.7960 0.7960 0.7960
3249.117960 0.7960 0.7960 0.7960 0.7960 0.7960
3255.891898 0.7960 0.7960 0.7960 0.7960 0.7960
3262.665836 0.7960 0.7960 0.7960 0.7960 0.7960
3269.439774 0.7960 0.7960 0.7960 0.7960 0.7960
3276.213711 0.7960 0.7960 0.7960 0.7960 0.7960
3282.987649 0.7960 0.7960 0.7960 0.7960 0.7960
3289.761587 0.7960 0.7960 0.7960 0.7960 0.7960
3296.535525 0.7960 0.7960 0.7960 0.7960 0.7960
3303.309463 0.7960 0.7960 0.7960 0.7960 0.7960
3310.083401 0.7960 0.7960 0.7960 0.7960 0.7960
3316.857339 0.7960 0.7960 0.7958 0.7953 0.7950
3323.631276 0.7950 0.7950 0.7950 0.7950 0.7950
3330.405214 0.7950 0.7950 0.7950 0.7950 0.7950
3337.179152 0.7950 0.7950 0.7950 0.7950 0.7950
3343.953090 0.7950 0.7950 0.7950 0.7950 0.7950
3350.727028 0.7950 0.7950 0.7950 0.7950 0.7950
3357.500966 0.7950 0.7950 0.7950 0.7950 0.7950
3364.274903 0.7950 0.7950 0.7950 0.7950 0.7950
3371.048841 0.7950 0.7950 0.7950 0.7950 0.7950
3377.822779 0.7950 0.7950 0.7950 0.7950 0.7950
3384.596717 0.7950 0.7950 0.7950 0.7950 0.7950
3391.370655 0.7950 0.7950 0.7950 0.7950 0.7950
3398.144593 0.7950 0.7950 0.7947 0.7942 0.7940
3404.918531 0.7940 0.7940 0.7940 0.7940 0.7940
3411.692468 0.7940 0.7940 0.7934 0.7924 0.7920
3418.466406 0.7920 0.7920 0.7920 0.7920 0.7920
3425.240344 0.7920 0.7920 0.7920 0.7920 0.7920
3432.014282 0.7920 0.7920 0.7920 0.7920 0.7920
3438.788220 0.7930 0.7945 0.7950 0.7950 0.7950
3445.562158 0.7950 0.7950 0.7950 0.7954 0.7959
3452.336096 0.7960 0.7960 0.7960 0.7960 0.7960
3459.110033 0.7960 0.7960 0.7960 0.7960 0.7960
3465.883971 0.7960 0.7960 0.7960 0.7960 0.7960
3472.657909 0.7960 0.7956 0.7951 0.7950 0.7950
3479.431847 0.7950 0.7950 0.7950 0.7950 0.7950
3486.205785 0.7950 0.7946 0.7941 0.7940 0.7940
3492.979723 0.7940 0.7940 0.7940 0.7940 0.7932
3499.753661 0.7922 0.7920 0.7920 0.7920 0.7920
3506.527598 0.7920 0.7920 0.7920 0.7920 0.7920
3513.301536 0.7920 0.7920 0.7920 0.7920 0.7920
3520.075474 0.7920 0.7920 0.7920 0.7920 0.7920
3526.849412 0.7920 0.7920 0.7920 0.7920 0.7920
3533.623350 0.7920 0.7920 0.7920 0.7920 0.7920
3540.397288 0.7920 0.7916 0.7911 0.7910 0.7910
3547.171225 0.7910 0.7910 0.7910 0.7910 0.7901
3553.945163 0.7891 0.7890 0.7890 0.7890 0.7890
3560.719101 0.7890 0.7890 0.7890 0.7890 0.7885
3567.493039 0.7880 0.7880 0.7880 0.7885 0.7890
3574.266977 0.7890 0.7890 0.7890 0.7890 0.7890
3581.040915 0.7890 0.7890 0.7890 0.7890 0.7890
3587.814853 0.7890 0.7890 0.7890 0.7890 0.7890
3594.588790 0.7890 0.7890 0.7890 0.7890 0.7890
3601.362728 0.7890 0.7890 0.7885 0.7880 0.7880
3608.136666 0.7880 0.7875 0.7870 0.7860 0.7850
3614.910604 0.7850 0.7850 0.7845 0.7840 0.7840
3621.684542 0.7840 0.7840 0.7840 0.7840 0.7840
3628.458480 0.7840 0.7840 0.7840 0.7840 0.7840
3635.232418 0.7840 0.7840 0.7840 0.7845 0.7850
3642.006355 0.7850 0.7851 0.7861 0.7870 0.7870
3648.780293 0.7870 0.7870 0.7870 0.7870 0.7870
3655.554231 0.7870 0.7870 0.7870 0.7870 0.7870
3662.328169 0.7870 0.7870 0.7870 0.7870 0.7870
3669.102107 0.7870 0.7870 0.7870 0.7870 0.7870
3675.876045 0.7870 0.7870 0.7869 0.7858 0.7850
3682.649983 0.7850 0.7850 0.7850 0.7850 0.7850
3689.423920 0.7849 0.7844 0.7840 0.7840 0.7840
3696.197858 0.7840 0.7840 0.7840 0.7839 0.7834
3702.971796 0.7830 0.7830 0.7830 0.7830 0.7828
3709.745734 0.7818 0.7812 0.7822 0.7830 0.7830
3716.519672 0.7830 0.7830 0.7830 0.7830 0.7830
3723.293610 0.7830 0.7830 0.7830 0.7830 0.7830
3730.067547 0.7830 0.7830 0.7830 0.7830 0.7827
3736.841485 0.7817 0.7810 0.7810 0.7810 0.7810
3743.615423 0.7810 0.7810 0.7813 0.7823 0.7830
3750.389361 0.7830 0.7830 0.7830 0.7830 0.7830
3757.163299 0.7827 0.7817 0.7810 0.7810 0.7810
3763.937237 0.7810 0.7810 0.7810 0.7810 0.7810
3770.711175 0.7810 0.7810 0.7810 0.7810 0.7808
3777.485112 0.7803 0.7800 0.7800 0.7798 0.7793
3784.259050 0.7790 0.7790 0.7790 0.7790 0.7786
3791.032988 0.7776 0.7770 0.7770 0.7770 0.7770
3797.806926 0.7770 0.7770 0.7770 0.7770 0.7770
3804.580864 0.7770 0.7770 0.7770 0.7770 0.7770
3811.354802 0.7770 0.7770 0.7768 0.7763 0.7760
3818.128740 0.7760 0.7758 0.7753 0.7750 0.7750
3824.902677 0.7750 0.7750 0.7750 0.7750 0.7750
3831.676615 0.7750 0.7750 0.7750 0.7746 0.7736
3838.450553 0.7730 0.7730 0.7730 0.7730 0.7730
3845.224491 0.7730 0.7728 0.7723 0.7720 0.7720
3851.998429 0.7720 0.7720 0.7718 0.7713 0.7710
3858.772367 0.7710 0.7710 0.7710 0.7710 0.7710
3865.546305 0.7710 0.7710 0.7710 0.7710 0.7710
3872.320242 0.7710 0.7710 0.7710 0.7710 0.7710
3879.094180 0.7713 0.7718 0.7720 0.7720 0.7720
3885.868118 0.7720 0.7720 0.7720 0.7720 0.7720
3892.642056 0.7717 0.7712 0.7710 0.7710 0.7710
3899.415994 0.7710 0.7710 0.7710 0.7710 0.7710
3906.189932 0.7710 0.7710 0.7710 0.7710 0.7710
3912.963869 0.7710 0.7710 0.7710 0.7710 0.7710
3919.737807 0.7710 0.7710 0.7710 0.7710 0.7710
3926.511745 0.7710 0.7710 0.7710 0.7704 0.7694
3933.285683 0.7690 0.7690 0.7690 0.7690 0.7690
3940.059621 0.7690 0.7690 0.7690 0.7687 0.7682
3946.833559 0.7680 0.7680 0.7680 0.7680 0.7673
3953.607497 0.7663 0.7660 0.7660 0.7660 0.7660
3960.381434 0.7660 0.7660 0.7660 0.7660 0.7660
3967.155372 0.7660 0.7660 0.7660 0.7660 0.7660
3973.929310 0.7660 0.7660 0.7667 0.7677 0.7680
3980.703248 0.7680 0.7680 0.7680 0.7680 0.7680
3987.477186 0.7684 0.7689 0.7690 0.7690 0.7686
3994.251124 0.7681 0.7680 0.7680 0.7680 0.7680
4001.025062 0.7684 0.7689 0.7690 0.7690
##END=
