##TITLE=ADENINE, 3,7-DIBENZYL-2-METHYL-, HYDROBROMIDE
##JCAMP-DX=4.24
##DATA TYPE=INFRARED SPECTRUM
##CLASS=COBLENTZ III
##ORIGIN=SOUTHERN RESEARCH INSTITUTE
##OWNER=COBLENTZ SOCIETY
Collection (C) 2018 copyright by the U.S. Secretary of Commerce
on behalf of the United States of America. All rights reserved.
##DATE=1966/02/21
##NAMES=3,7-dibenzyl-2-methyl-3,7-dihydro-6H-purin-6-imine hydrobromide
##MOLFORM=C20 H20 Br N5
##SOURCE REFERENCE=COBLENTZ NO. 10440
##$NIST ID=B6010440
##$NIST SOURCE=COBLENTZ
##$NIST IMAGE=cob10440
##SPECTROMETER/DATA SYSTEM=PERKIN-ELMER 521 (GRATING)
##INSTRUMENT PARAMETERS=GRATING CHANGES AT 2000, 620, FILTERS AT 3130, 2475, 2000, 1150, 700, 410 CM^-^1
##STATE=SOLID (1 mg / 650 mg KBr DISC)
##PATH LENGTH=
$$SPECTRAL CONTAMINATION DUE TO H2O AROUND 3430 CM^-^1
$$ PURITY - ANALYTICAL
##SAMPLING PROCEDURE=TRANSMISSION
##RESOLUTION=4
##DATA PROCESSING=DIGITIZED BY NIST FROM HARD COPY
##XUNITS=1/CM
##YUNITS=TRANSMITTANCE
##XFACTOR=1.000000
##YFACTOR=1
##DELTAX=001.593252
##FIRSTX=236.645
##LASTX=3794.38
##FIRSTY=0.272
##MAXX=3794.38
##MINX=236.645
##MAXY=0.964
##MINY=0.21
##NPOINTS=2234
##XYDATA=(X++(Y..Y))
236.645000 0.2720 0.2720 0.2810 0.2900 0.2920
244.614830 0.2980 0.3030 0.3180 0.3340 0.3490
252.577000 0.3710 0.3890 0.3890 0.4020 0.4140
260.546830 0.4270 0.4390 0.4520 0.4650 0.4770
268.510000 0.4900 0.5030 0.5150 0.5280 0.5410
276.479830 0.5470 0.5620 0.5740 0.5840 0.5920
284.442000 0.6000 0.6090 0.6170 0.6280 0.6420
292.411830 0.6490 0.6500 0.6550 0.6610 0.6640
300.375000 0.6660 0.6720 0.6770 0.6830 0.6880
308.344830 0.6910 0.6950 0.6970 0.6990 0.7000
316.307000 0.7030 0.7040 0.7060 0.7100 0.7150
324.276830 0.7160 0.7250 0.7270 0.7290 0.7310
332.240000 0.7390 0.7450 0.7520 0.7590 0.7650
340.209830 0.7710 0.7780 0.7830 0.7880 0.7930
348.172000 0.7970 0.8010 0.8050 0.8080 0.8110
356.141830 0.8190 0.8250 0.8290 0.8300 0.8310
364.105000 0.8310 0.8320 0.8330 0.8340 0.8380
372.074830 0.8430 0.8440 0.8460 0.8470 0.8490
380.037000 0.8530 0.8590 0.8610 0.8620 0.8600
388.006830 0.8570 0.8530 0.8510 0.8490 0.8490
395.970000 0.8510 0.8530 0.8560 0.8570 0.8600
403.939830 0.8640 0.8650 0.8660 0.8660 0.8670
411.903000 0.8680 0.8680 0.8670 0.8670 0.8670
419.872830 0.8660 0.8660 0.8640 0.8630 0.8620
427.835000 0.8610 0.8600 0.8600 0.8580 0.8570
435.804830 0.8560 0.8520 0.8470 0.8450 0.8310
443.768000 0.8300 0.8300 0.8370 0.8400 0.8420
451.737830 0.8450 0.8450 0.8470 0.8490 0.8530
459.700000 0.8540 0.8560 0.8570 0.8570 0.8570
467.669830 0.8570 0.8560 0.8550 0.8540 0.8510
475.633000 0.8490 0.8470 0.8450 0.8430 0.8380
483.602830 0.8340 0.8240 0.8160 0.8080 0.8080
491.565000 0.8130 0.8230 0.8300 0.8370 0.8420
499.534830 0.8450 0.8460 0.8460 0.8450 0.8450
507.498000 0.8450 0.8450 0.8450 0.8450 0.8440
515.467830 0.8440 0.8430 0.8430 0.8430 0.8440
523.430000 0.8440 0.8450 0.8450 0.8450 0.8420
531.399830 0.8410 0.8390 0.8380 0.8360 0.8350
539.363000 0.8340 0.8340 0.8370 0.8390 0.8410
547.332830 0.8420 0.8440 0.8440 0.8480 0.8490
555.295000 0.8500 0.8510 0.8510 0.8510 0.8510
563.264830 0.8500 0.8470 0.8440 0.8430 0.8390
571.228000 0.8310 0.8230 0.8210 0.8000 0.8000
579.197830 0.8410 0.8420 0.8470 0.8530 0.8630
587.160000 0.8640 0.8640 0.8640 0.8640 0.8640
595.129830 0.8630 0.8610 0.8590 0.8540 0.8500
603.093000 0.8490 0.8490 0.8490 0.8470 0.8450
611.062830 0.8440 0.8430 0.8420 0.8420 0.8430
619.025000 0.8460 0.8480 0.8490 0.8550 0.8570
626.994830 0.8560 0.8540 0.8500 0.8460 0.8380
634.958000 0.8250 0.8120 0.8120 0.8340 0.8400
642.927830 0.8490 0.8530 0.8570 0.8570 0.8580
650.890000 0.8590 0.8590 0.8600 0.8600 0.8600
658.859830 0.8610 0.8630 0.8670 0.8660 0.8650
666.823000 0.8530 0.8490 0.8420 0.8330 0.8310
674.792830 0.8270 0.8240 0.8200 0.8170 0.8130
682.755000 0.8040 0.7960 0.7880 0.7800 0.7530
690.724830 0.7320 0.7110 0.6910 0.6910 0.7080
698.688000 0.7250 0.7260 0.7260 0.7260 0.7270
706.657830 0.7280 0.7290 0.7400 0.7490 0.7550
714.620000 0.7800 0.7850 0.7830 0.7720 0.7590
722.589830 0.7150 0.6350 0.5930 0.5520 0.5340
730.553000 0.5090 0.5090 0.5280 0.5930 0.6580
738.522830 0.7060 0.7540 0.8020 0.8330 0.8530
746.485000 0.8530 0.8410 0.8380 0.8320 0.8300
754.454830 0.8300 0.8300 0.8340 0.8340 0.8330
762.418000 0.8300 0.8300 0.8420 0.8530 0.8640
770.387830 0.9000 0.9070 0.9140 0.9260 0.9260
778.351000 0.9140 0.9080 0.8990 0.8890 0.8840
786.320830 0.8790 0.8790 0.8790 0.8940 0.9000
794.283000 0.9060 0.9130 0.9200 0.9290 0.9360
802.252830 0.9380 0.9360 0.9350 0.9280 0.9220
810.216000 0.9210 0.9220 0.9330 0.9340 0.9350
818.185830 0.9360 0.9360 0.9390 0.9390 0.9460
826.148000 0.9470 0.9470 0.9450 0.9430 0.9420
834.117830 0.9410 0.9390 0.9390 0.9390 0.9370
842.081000 0.9340 0.9330 0.9340 0.9370 0.9370
850.050830 0.9360 0.9350 0.9320 0.9310 0.9260
858.013000 0.9240 0.9210 0.9200 0.9160 0.9090
865.982830 0.9050 0.9020 0.8980 0.8900 0.8890
873.946000 0.8900 0.8940 0.8980 0.8980 0.8980
881.915830 0.8990 0.9060 0.9210 0.9320 0.9320
889.878000 0.9320 0.9320 0.9320 0.9310 0.9300
897.847830 0.9290 0.9290 0.9280 0.9280 0.9270
905.811000 0.9270 0.9270 0.9260 0.9260 0.9250
913.780830 0.9250 0.9240 0.9240 0.9240 0.9240
921.743000 0.9240 0.9230 0.9230 0.9230 0.9220
929.712830 0.9210 0.9210 0.9210 0.9190 0.9180
937.676000 0.9170 0.9170 0.9160 0.9150 0.9130
945.645830 0.9130 0.9110 0.9030 0.9000 0.8980
953.608000 0.8940 0.8870 0.8810 0.8750 0.8700
961.577830 0.8640 0.8560 0.8440 0.8340 0.8260
969.541000 0.8190 0.8190 0.8370 0.8450 0.8520
977.510830 0.8580 0.8720 0.8800 0.8830 0.8900
985.473000 0.8900 0.8920 0.8920 0.8900 0.8850
993.442830 0.8800 0.8750 0.8730 0.8740 0.8900
1001.406000 0.8920 0.8930 0.8940 0.8920 0.8920
1009.375830 0.8900 0.8870 0.8860 0.8840 0.8830
1017.338000 0.8720 0.8670 0.8600 0.8530 0.8470
1025.307830 0.8400 0.8380 0.8400 0.8470 0.8490
1033.271000 0.8590 0.8600 0.8700 0.8710 0.8710
1041.240830 0.8680 0.8660 0.8650 0.8670 0.8730
1049.203000 0.8730 0.8750 0.8750 0.8750 0.8770
1057.172830 0.8780 0.8780 0.8780 0.8770 0.8750
1065.136000 0.8700 0.8660 0.8610 0.8550 0.8530
1073.105830 0.8450 0.8360 0.8340 0.8350 0.8420
1081.068000 0.8450 0.8500 0.8510 0.8540 0.8570
1089.037830 0.8600 0.8620 0.8640 0.8660 0.8680
1097.001000 0.8710 0.8730 0.8740 0.8740 0.8720
1104.970830 0.8720 0.8710 0.8700 0.8700 0.8680
1112.933000 0.8680 0.8660 0.8650 0.8640 0.8640
1120.902830 0.8630 0.8620 0.8600 0.8600 0.8590
1128.866000 0.8580 0.8590 0.8620 0.8640 0.8670
1136.835830 0.8680 0.8700 0.8730 0.8750 0.8750
1144.798000 0.8750 0.8680 0.8640 0.8630 0.8630
1152.767830 0.8620 0.8620 0.8610 0.8600 0.8600
1160.731000 0.8600 0.8600 0.8590 0.8580 0.8550
1168.700830 0.8490 0.8430 0.8380 0.8330 0.8290
1176.664000 0.8000 0.7940 0.7930 0.7920 0.7890
1184.633830 0.7870 0.7750 0.7630 0.7550 0.7430
1192.596000 0.7410 0.7430 0.7480 0.7530 0.7580
1200.565830 0.7630 0.7650 0.7660 0.7660 0.7660
1208.529000 0.7670 0.7780 0.7870 0.8070 0.8130
1216.498830 0.8140 0.8120 0.8030 0.7930 0.7820
1224.461000 0.7820 0.7890 0.7970 0.8040 0.8190
1232.430830 0.8210 0.8200 0.8040 0.7860 0.7690
1240.394000 0.7520 0.7360 0.7180 0.7180 0.7700
1248.363830 0.7960 0.7960 0.8060 0.8150 0.8250
1256.326000 0.8450 0.8490 0.8510 0.8640 0.8670
1264.295830 0.8680 0.8690 0.8690 0.8680 0.8670
1272.259000 0.8650 0.8640 0.8630 0.8620 0.8590
1280.228830 0.8560 0.8530 0.8510 0.8490 0.8470
1288.191000 0.8440 0.8430 0.8420 0.8390 0.8380
1296.160830 0.8340 0.8290 0.8250 0.8210 0.8170
1304.124000 0.8040 0.7930 0.7910 0.7820 0.7820
1312.093830 0.7920 0.7960 0.7990 0.8000 0.8000
1320.056000 0.8000 0.8000 0.7990 0.7970 0.7960
1328.025830 0.7930 0.7900 0.7860 0.7810 0.7660
1335.989000 0.7580 0.7480 0.7330 0.7300 0.7240
1343.958830 0.7110 0.7090 0.6990 0.6990 0.7390
1351.921000 0.7710 0.7740 0.7740 0.7730 0.7700
1359.890830 0.7680 0.7650 0.7640 0.7590 0.7450
1367.854000 0.7320 0.7170 0.6990 0.6840 0.6760
1375.823830 0.6600 0.6250 0.5960 0.5960 0.6460
1383.786000 0.6470 0.6580 0.6690 0.6910 0.7140
1391.755830 0.7510 0.7860 0.7870 0.8010 0.8020
1399.719000 0.8000 0.7940 0.7890 0.7850 0.7810
1407.688830 0.7770 0.7700 0.7660 0.7640 0.7610
1415.651000 0.7590 0.7550 0.7470 0.7430 0.7390
1423.620830 0.7350 0.7140 0.6960 0.6390 0.6140
1431.584000 0.5900 0.5710 0.5410 0.5410 0.5810
1439.553830 0.6200 0.6620 0.6800 0.6960 0.7100
1447.516000 0.7110 0.6360 0.6120 0.6120 0.6230
1455.485830 0.6330 0.6420 0.6530 0.6620 0.6720
1463.449000 0.6400 0.6150 0.5900 0.5900 0.6050
1471.418830 0.6220 0.6390 0.6550 0.6640 0.6720
1479.381000 0.6870 0.7270 0.7690 0.7700 0.8030
1487.350830 0.8350 0.8470 0.8490 0.8340 0.8140
1495.314000 0.8010 0.7900 0.7780 0.7780 0.7990
1503.283830 0.8190 0.8410 0.8640 0.8820 0.8860
1511.246000 0.8890 0.8900 0.8900 0.8900 0.8900
1519.215830 0.8900 0.8900 0.8900 0.8900 0.8900
1527.179000 0.8880 0.8840 0.8830 0.8810 0.8800
1535.148830 0.8790 0.8770 0.8750 0.8680 0.8660
1543.111000 0.8640 0.8620 0.8600 0.8560 0.8500
1551.080830 0.8450 0.8400 0.8350 0.8300 0.8250
1559.044000 0.8200 0.8150 0.7940 0.7760 0.7590
1567.013830 0.7420 0.7250 0.6940 0.6620 0.6470
1574.977000 0.6320 0.6320 0.6370 0.6480 0.6550
1582.946830 0.6630 0.6680 0.6720 0.6790 0.6870
1590.909000 0.6950 0.7080 0.7080 0.6920 0.6580
1598.878830 0.6410 0.6230 0.6080 0.5920 0.5850
1606.842000 0.4870 0.4580 0.4580 0.5000 0.5140
1614.811830 0.5240 0.5450 0.5470 0.5740 0.6040
1622.774000 0.6040 0.5740 0.5330 0.4630 0.4470
1630.743830 0.4300 0.3320 0.3000 0.2530 0.2200
1638.707000 0.2100 0.2100 0.2400 0.2640 0.2890
1646.676830 0.3150 0.3340 0.3530 0.3870 0.4130
1654.639000 0.4250 0.4940 0.5220 0.5560 0.6090
1662.608830 0.6270 0.6420 0.6420 0.6600 0.6780
1670.572000 0.7450 0.7940 0.8080 0.8080 0.8220
1678.541830 0.8360 0.8490 0.8650 0.8750 0.8940
1686.504000 0.8950 0.9130 0.9130 0.9190 0.9250
1694.473830 0.9330 0.9360 0.9370 0.9420 0.9440
1702.437000 0.9470 0.9470 0.9480 0.9500 0.9510
1710.406830 0.9530 0.9530 0.9540 0.9540 0.9550
1718.369000 0.9560 0.9560 0.9570 0.9570 0.9580
1726.338830 0.9580 0.9580 0.9580 0.9590 0.9590
1734.302000 0.9610 0.9620 0.9620 0.9630 0.9640
1742.271830 0.9640 0.9640 0.9630 0.9630 0.9620
1750.234000 0.9620 0.9610 0.9600 0.9600 0.9590
1758.203830 0.9580 0.9570 0.9560 0.9560 0.9560
1766.167000 0.9570 0.9580 0.9580 0.9580 0.9580
1774.136830 0.9590 0.9590 0.9600 0.9600 0.9610
1782.099000 0.9610 0.9610 0.9610 0.9610 0.9610
1790.068830 0.9610 0.9610 0.9610 0.9600 0.9600
1798.032000 0.9600 0.9590 0.9590 0.9590 0.9580
1806.001830 0.9580 0.9580 0.9570 0.9560 0.9560
1813.964000 0.9560 0.9550 0.9550 0.9550 0.9550
1821.933830 0.9550 0.9550 0.9550 0.9550 0.9540
1829.897000 0.9540 0.9540 0.9540 0.9540 0.9540
1837.866830 0.9540 0.9540 0.9540 0.9540 0.9540
1845.829000 0.9540 0.9550 0.9550 0.9550 0.9560
1853.798830 0.9560 0.9560 0.9560 0.9560 0.9560
1861.762000 0.9560 0.9560 0.9550 0.9550 0.9550
1869.731830 0.9550 0.9550 0.9550 0.9550 0.9550
1877.694000 0.9550 0.9540 0.9540 0.9540 0.9540
1885.663830 0.9530 0.9530 0.9520 0.9520 0.9520
1893.627000 0.9520 0.9510 0.9510 0.9510 0.9510
1901.596830 0.9510 0.9510 0.9510 0.9510 0.9520
1909.559000 0.9520 0.9520 0.9520 0.9520 0.9520
1917.528830 0.9520 0.9520 0.9520 0.9520 0.9520
1925.492000 0.9520 0.9520 0.9510 0.9510 0.9510
1933.461830 0.9510 0.9510 0.9500 0.9500 0.9490
1941.425000 0.9490 0.9480 0.9480 0.9470 0.9470
1949.394830 0.9470 0.9460 0.9460 0.9450 0.9450
1957.357000 0.9440 0.9440 0.9430 0.9430 0.9430
1965.326830 0.9420 0.9420 0.9420 0.9420 0.9420
1973.290000 0.9420 0.9430 0.9430 0.9430 0.9430
1981.259830 0.9430 0.9430 0.9430 0.9420 0.9420
1989.222000 0.9400 0.9400 0.9390 0.9390 0.9380
1997.191830 0.9370 0.9370 0.9370 0.9380 0.9380
2005.155000 0.9390 0.9400 0.9400 0.9410 0.9410
2013.124830 0.9410 0.9410 0.9410 0.9410 0.9410
2021.087000 0.9410 0.9410 0.9410 0.9410 0.9410
2029.056830 0.9400 0.9400 0.9400 0.9400 0.9400
2037.020000 0.9400 0.9400 0.9390 0.9390 0.9390
2044.989830 0.9390 0.9390 0.9390 0.9390 0.9390
2052.952000 0.9390 0.9390 0.9400 0.9400 0.9400
2060.921830 0.9400 0.9400 0.9390 0.9390 0.9390
2068.885000 0.9390 0.9390 0.9390 0.9390 0.9390
2076.854830 0.9390 0.9390 0.9390 0.9390 0.9390
2084.817000 0.9390 0.9390 0.9390 0.9390 0.9390
2092.786830 0.9390 0.9390 0.9390 0.9390 0.9390
2100.750000 0.9380 0.9380 0.9370 0.9370 0.9370
2108.719830 0.9370 0.9370 0.9370 0.9380 0.9380
2116.682000 0.9380 0.9380 0.9380 0.9380 0.9380
2124.651830 0.9380 0.9380 0.9380 0.9380 0.9380
2132.615000 0.9380 0.9380 0.9380 0.9380 0.9380
2140.584830 0.9360 0.9360 0.9360 0.9360 0.9360
2148.547000 0.9360 0.9360 0.9360 0.9360 0.9360
2156.516830 0.9350 0.9350 0.9350 0.9350 0.9350
2164.480000 0.9340 0.9340 0.9340 0.9340 0.9340
2172.449830 0.9340 0.9340 0.9340 0.9340 0.9330
2180.412000 0.9330 0.9330 0.9330 0.9330 0.9330
2188.381830 0.9330 0.9320 0.9320 0.9320 0.9320
2196.345000 0.9320 0.9320 0.9320 0.9320 0.9320
2204.314830 0.9320 0.9320 0.9310 0.9310 0.9310
2212.277000 0.9310 0.9300 0.9300 0.9290 0.9290
2220.246830 0.9290 0.9280 0.9280 0.9280 0.9270
2228.210000 0.9260 0.9260 0.9250 0.9240 0.9240
2236.179830 0.9240 0.9240 0.9240 0.9230 0.9230
2244.142000 0.9230 0.9230 0.9230 0.9220 0.9220
2252.111830 0.9210 0.9210 0.9210 0.9210 0.9210
2260.075000 0.9210 0.9200 0.9200 0.9200 0.9200
2268.044830 0.9200 0.9200 0.9200 0.9210 0.9210
2276.007000 0.9210 0.9210 0.9210 0.9210 0.9210
2283.976830 0.9210 0.9200 0.9200 0.9200 0.9200
2291.940000 0.9200 0.9200 0.9200 0.9200 0.9200
2299.909830 0.9200 0.9200 0.9200 0.9190 0.9190
2307.873000 0.9190 0.9180 0.9180 0.9180 0.9170
2315.842830 0.9170 0.9170 0.9170 0.9170 0.9160
2323.805000 0.9160 0.9150 0.9150 0.9150 0.9140
2331.774830 0.9140 0.9130 0.9130 0.9130 0.9130
2339.738000 0.9130 0.9130 0.9130 0.9120 0.9120
2347.707830 0.9120 0.9120 0.9120 0.9120 0.9120
2355.670000 0.9120 0.9110 0.9110 0.9110 0.9110
2363.639830 0.9110 0.9110 0.9110 0.9110 0.9110
2371.603000 0.9110 0.9110 0.9100 0.9100 0.9100
2379.572830 0.9100 0.9090 0.9090 0.9090 0.9090
2387.535000 0.9090 0.9080 0.9080 0.9070 0.9070
2395.504830 0.9060 0.9060 0.9060 0.9060 0.9060
2403.468000 0.9060 0.9060 0.9060 0.9060 0.9050
2411.437830 0.9050 0.9050 0.9050 0.9050 0.9050
2419.400000 0.9050 0.9040 0.9040 0.9040 0.9040
2427.369830 0.9040 0.9040 0.9040 0.9040 0.9040
2435.333000 0.9040 0.9040 0.9040 0.9040 0.9040
2443.302830 0.9040 0.9030 0.9020 0.9020 0.9020
2451.265000 0.9020 0.9020 0.9020 0.9020 0.9020
2459.234830 0.9020 0.9020 0.9010 0.9010 0.9000
2467.198000 0.9000 0.9000 0.9000 0.9000 0.9000
2475.167830 0.9000 0.8990 0.8990 0.8990 0.8990
2483.130000 0.8990 0.8990 0.8990 0.8990 0.8980
2491.099830 0.8980 0.8980 0.8980 0.8980 0.8980
2499.063000 0.8980 0.8970 0.8970 0.8970 0.8970
2507.032830 0.8960 0.8960 0.8960 0.8960 0.8960
2514.995000 0.8960 0.8960 0.8950 0.8950 0.8950
2522.964830 0.8950 0.8950 0.8950 0.8950 0.8950
2530.928000 0.8950 0.8950 0.8940 0.8940 0.8940
2538.897830 0.8940 0.8940 0.8940 0.8930 0.8930
2546.860000 0.8930 0.8920 0.8920 0.8910 0.8910
2554.829830 0.8900 0.8900 0.8900 0.8890 0.8890
2562.793000 0.8880 0.8870 0.8870 0.8870 0.8860
2570.762830 0.8860 0.8860 0.8850 0.8850 0.8850
2578.725000 0.8850 0.8850 0.8850 0.8840 0.8840
2586.694830 0.8840 0.8830 0.8830 0.8820 0.8820
2594.658000 0.8810 0.8800 0.8800 0.8800 0.8800
2602.627830 0.8790 0.8790 0.8790 0.8790 0.8790
2610.590000 0.8790 0.8790 0.8790 0.8790 0.8790
2618.559830 0.8790 0.8780 0.8780 0.8780 0.8780
2626.523000 0.8770 0.8770 0.8760 0.8760 0.8760
2634.492830 0.8750 0.8750 0.8750 0.8750 0.8750
2642.455000 0.8750 0.8740 0.8740 0.8730 0.8730
2650.424830 0.8730 0.8730 0.8730 0.8730 0.8730
2658.388000 0.8720 0.8720 0.8710 0.8710 0.8700
2666.357830 0.8700 0.8700 0.8690 0.8690 0.8680
2674.321000 0.8680 0.8670 0.8670 0.8660 0.8660
2682.290830 0.8650 0.8650 0.8640 0.8640 0.8640
2690.253000 0.8640 0.8640 0.8630 0.8630 0.8630
2698.222830 0.8630 0.8630 0.8630 0.8630 0.8630
2706.186000 0.8620 0.8620 0.8620 0.8610 0.8610
2714.155830 0.8610 0.8610 0.8600 0.8600 0.8600
2722.118000 0.8600 0.8600 0.8600 0.8590 0.8590
2730.087830 0.8580 0.8580 0.8570 0.8570 0.8570
2738.051000 0.8570 0.8560 0.8560 0.8550 0.8550
2746.020830 0.8540 0.8540 0.8540 0.8530 0.8530
2753.983000 0.8530 0.8530 0.8530 0.8520 0.8520
2761.952830 0.8510 0.8510 0.8500 0.8500 0.8500
2769.916000 0.8490 0.8490 0.8490 0.8490 0.8480
2777.885830 0.8480 0.8480 0.8470 0.8470 0.8470
2785.848000 0.8470 0.8460 0.8460 0.8450 0.8450
2793.817830 0.8450 0.8450 0.8450 0.8440 0.8440
2801.781000 0.8440 0.8430 0.8430 0.8390 0.8370
2809.750830 0.8360 0.8350 0.8340 0.8340 0.8340
2817.713000 0.8330 0.8330 0.8320 0.8320 0.8310
2825.682830 0.8310 0.8300 0.8300 0.8300 0.8300
2833.646000 0.8290 0.8290 0.8270 0.8260 0.8210
2841.615830 0.8190 0.8180 0.8170 0.8160 0.8150
2849.578000 0.8140 0.8130 0.8120 0.8110 0.8100
2857.547830 0.8090 0.8080 0.8070 0.8050 0.8040
2865.511000 0.8040 0.8030 0.8020 0.8010 0.8000
2873.480830 0.8000 0.7990 0.7970 0.7950 0.7940
2881.443000 0.7930 0.7910 0.7890 0.7880 0.7860
2889.412830 0.7850 0.7840 0.7820 0.7810 0.7800
2897.376000 0.7780 0.7780 0.7760 0.7740 0.7700
2905.345830 0.7630 0.7590 0.7580 0.7580 0.7560
2913.308000 0.7530 0.7500 0.7470 0.7440 0.7420
2921.277830 0.7410 0.7410 0.7400 0.7400 0.7400
2929.241000 0.7390 0.7380 0.7370 0.7370 0.7360
2937.210830 0.7330 0.7320 0.7300 0.7290 0.7290
2945.173000 0.7250 0.7240 0.7220 0.7210 0.7190
2953.142830 0.7180 0.7180 0.7180 0.7180 0.7170
2961.106000 0.7170 0.7160 0.7150 0.7150 0.7140
2969.075830 0.7130 0.7110 0.7100 0.7080 0.7060
2977.038000 0.7040 0.7030 0.7000 0.6990 0.6970
2985.007830 0.6950 0.6940 0.6920 0.6910 0.6870
2992.971000 0.6840 0.6810 0.6790 0.6760 0.6750
3000.940830 0.6730 0.6720 0.6700 0.6690 0.6660
3008.903000 0.6650 0.6620 0.6620 0.6590 0.6540
3016.872830 0.6500 0.6470 0.6440 0.6410 0.6370
3024.836000 0.6310 0.6300 0.6280 0.6270 0.6260
3032.805830 0.6240 0.6230 0.6200 0.6200 0.6150
3040.768000 0.6130 0.6080 0.6010 0.6000 0.5980
3048.737830 0.5970 0.5970 0.5960 0.5950 0.5940
3056.701000 0.5930 0.5930 0.5930 0.5920 0.5900
3064.670830 0.5900 0.5890 0.5880 0.5860 0.5850
3072.634000 0.5830 0.5820 0.5800 0.5750 0.5720
3080.603830 0.5700 0.5680 0.5660 0.5650 0.5630
3088.566000 0.5610 0.5580 0.5560 0.5520 0.5510
3096.535830 0.5490 0.5460 0.5450 0.5450 0.5450
3104.499000 0.5450 0.5470 0.5480 0.5480 0.5490
3112.468830 0.5510 0.5520 0.5520 0.5570 0.5580
3120.431000 0.5660 0.5670 0.5680 0.5700 0.5710
3128.400830 0.5750 0.5770 0.5780 0.5790 0.5810
3136.364000 0.5840 0.5900 0.5950 0.6000 0.6050
3144.333830 0.6130 0.6230 0.6270 0.6310 0.6350
3152.296000 0.6390 0.6420 0.6460 0.6500 0.6540
3160.265830 0.6580 0.6610 0.6630 0.6650 0.6670
3168.229000 0.6760 0.6800 0.6810 0.6840 0.6850
3176.198830 0.6890 0.6910 0.6950 0.6980 0.7000
3184.161000 0.7030 0.7050 0.7070 0.7090 0.7100
3192.130830 0.7130 0.7140 0.7150 0.7180 0.7180
3200.094000 0.7200 0.7210 0.7220 0.7220 0.7210
3208.063830 0.7210 0.7190 0.7160 0.7130 0.7110
3216.026000 0.7100 0.7080 0.7070 0.7060 0.7060
3223.995830 0.7060 0.7060 0.7060 0.7060 0.7060
3231.959000 0.7060 0.7060 0.7060 0.7050 0.7040
3239.928830 0.7030 0.7000 0.6960 0.6910 0.6870
3247.891000 0.6840 0.6820 0.6810 0.6780 0.6760
3255.860830 0.6760 0.6750 0.6750 0.6750 0.6760
3263.824000 0.6760 0.6770 0.6780 0.6780 0.6790
3271.793830 0.6800 0.6800 0.6800 0.6790 0.6790
3279.756000 0.6780 0.6770 0.6760 0.6760 0.6760
3287.725830 0.6770 0.6780 0.6800 0.6820 0.6830
3295.689000 0.6860 0.6890 0.6920 0.6950 0.6950
3303.658830 0.6990 0.7030 0.7070 0.7110 0.7140
3311.621000 0.7160 0.7200 0.7240 0.7270 0.7300
3319.590830 0.7330 0.7360 0.7370 0.7390 0.7420
3327.554000 0.7430 0.7460 0.7480 0.7510 0.7520
3335.523830 0.7540 0.7550 0.7560 0.7570 0.7580
3343.486000 0.7580 0.7580 0.7590 0.7590 0.7590
3351.455830 0.7590 0.7590 0.7590 0.7600 0.7600
3359.419000 0.7610 0.7610 0.7620 0.7630 0.7640
3367.388830 0.7650 0.7660 0.7660 0.7650 0.7630
3375.351000 0.7610 0.7600 0.7590 0.7590 0.7590
3383.320830 0.7590 0.7590 0.7590 0.7590 0.7580
3391.284000 0.7580 0.7580 0.7560 0.7560 0.7550
3399.253830 0.7550 0.7540 0.7530 0.7530 0.7520
3407.216000 0.7520 0.7520 0.7530 0.7530 0.7530
3415.185830 0.7530 0.7530 0.7540 0.7540 0.7540
3423.149000 0.7540 0.7540 0.7550 0.7550 0.7550
3431.118830 0.7550 0.7550 0.7560 0.7560 0.7570
3439.082000 0.7570 0.7580 0.7580 0.7590 0.7590
3447.051830 0.7590 0.7600 0.7610 0.7620 0.7630
3455.014000 0.7640 0.7660 0.7670 0.7690 0.7700
3462.983830 0.7700 0.7710 0.7720 0.7720 0.7730
3470.947000 0.7740 0.7740 0.7740 0.7750 0.7760
3478.916830 0.7780 0.7780 0.7790 0.7790 0.7800
3486.879000 0.7810 0.7810 0.7810 0.7820 0.7840
3494.848830 0.7850 0.7850 0.7860 0.7870 0.7880
3502.812000 0.7890 0.7890 0.7900 0.7920 0.7920
3510.781830 0.7930 0.7930 0.7940 0.7940 0.7950
3518.744000 0.7960 0.7960 0.7970 0.7990 0.8000
3526.713830 0.8000 0.8010 0.8020 0.8030 0.8040
3534.677000 0.8050 0.8070 0.8070 0.8080 0.8080
3542.646830 0.8080 0.8110 0.8120 0.8130 0.8150
3550.609000 0.8150 0.8150 0.8160 0.8170 0.8170
3558.578830 0.8190 0.8190 0.8200 0.8210 0.8220
3566.542000 0.8230 0.8240 0.8250 0.8260 0.8270
3574.511830 0.8270 0.8270 0.8280 0.8300 0.8300
3582.474000 0.8310 0.8320 0.8330 0.8330 0.8340
3590.443830 0.8360 0.8380 0.8380 0.8380 0.8390
3598.407000 0.8400 0.8410 0.8420 0.8420 0.8430
3606.376830 0.8440 0.8440 0.8450 0.8460 0.8470
3614.339000 0.8480 0.8490 0.8490 0.8490 0.8500
3622.308830 0.8510 0.8510 0.8520 0.8530 0.8530
3630.272000 0.8530 0.8530 0.8540 0.8550 0.8560
3638.241830 0.8560 0.8570 0.8570 0.8570 0.8570
3646.204000 0.8570 0.8570 0.8570 0.8570 0.8570
3654.173830 0.8570 0.8570 0.8570 0.8570 0.8570
3662.137000 0.8570 0.8570 0.8570 0.8570 0.8570
3670.106830 0.8570 0.8570 0.8570 0.8560 0.8560
3678.069000 0.8560 0.8560 0.8560 0.8570 0.8570
3686.038830 0.8570 0.8570 0.8570 0.8570 0.8570
3694.002000 0.8580 0.8580 0.8580 0.8590 0.8590
3701.971830 0.8590 0.8590 0.8590 0.8590 0.8590
3709.934000 0.8590 0.8590 0.8590 0.8590 0.8590
3717.903830 0.8590 0.8590 0.8580 0.8580 0.8570
3725.867000 0.8570 0.8570 0.8570 0.8570 0.8560
3733.836830 0.8560 0.8560 0.8560 0.8560 0.8550
3741.799000 0.8550 0.8550 0.8560 0.8560 0.8570
3749.768830 0.8570 0.8570 0.8570 0.8570 0.8580
3757.732000 0.8580 0.8590 0.8590 0.8600 0.8600
3765.701830 0.8600 0.8600 0.8600 0.8600 0.8600
3773.664000 0.8600 0.8590 0.8590 0.8590 0.8590
3781.633830 0.8580 0.8580 0.8580 0.8570 0.8570
3789.597000 0.8560 0.8550 0.8540 0.8530
##END=
