##TITLE=4-PYRAZOLECARBOXYLIC ACID, 5-AMINO-, METHYL ESTER
##JCAMP-DX=4.24
##DATA TYPE=INFRARED SPECTRUM
##CLASS=COBLENTZ III
##ORIGIN=SOUTHERN RESEARCH INSTITUTE
##OWNER=COBLENTZ SOCIETY
Collection (C) 2018 copyright by the U.S. Secretary of Commerce
on behalf of the United States of America. All rights reserved.
##DATE=1968/02/09
##NAMES=methyl 5-amino-1H-pyrazole-4-carboxylate
##MOLFORM=C5 H7 N3 O2
##SOURCE REFERENCE=COBLENTZ NO. 10403
##$NIST ID=B6010403
##$NIST SOURCE=COBLENTZ
##$NIST IMAGE=cob10403
##SPECTROMETER/DATA SYSTEM=PERKIN-ELMER 521 (GRATING)
##STATE=SOLID (1 mg / 650 mg KBr DISC)
##PATH LENGTH=
$$ PURITY - ANALYTICAL
##SAMPLING PROCEDURE=TRANSMISSION
##RESOLUTION=4
##DATA PROCESSING=DIGITIZED BY NIST FROM HARD COPY (FROM TWO SEGMENTS)
##XUNITS=1/CM
##YUNITS=TRANSMITTANCE
##XFACTOR=1.000000
##YFACTOR=1
##DELTAX=1.320427
##FIRSTX=262.324
##LASTX=3997.81
##FIRSTY=0.4
##MAXX=3997.81
##MINX=262.324
##MAXY=0.925
##MINY=0.232003
##NPOINTS=2830
##XYDATA=(X++(Y..Y))
262.324000 0.4000 0.4080 0.4130 0.4160 0.4200
268.926137 0.4250 0.4320 0.4340 0.4370 0.4370
275.528275 0.4380 0.4400 0.4410 0.4420 0.4460
282.130412 0.4490 0.4520 0.4540 0.4570 0.4590
288.732550 0.4650 0.4690 0.4740 0.4800 0.4860
295.334687 0.4910 0.4990 0.5090 0.5189 0.5289
301.936824 0.5400 0.5500 0.5590 0.5680 0.5780
308.538962 0.5860 0.5920 0.5990 0.6010 0.6030
315.141099 0.6040 0.6040 0.6040 0.6040 0.6040
321.743236 0.6040 0.6040 0.6030 0.6010 0.5990
328.345374 0.5970 0.5960 0.5960 0.5970 0.6040
334.947511 0.6070 0.6140 0.6220 0.6300 0.6340
341.549649 0.6360 0.6360 0.6340 0.6300 0.6240
348.151786 0.6210 0.6170 0.6160 0.6170 0.6210
354.753923 0.6220 0.6280 0.6340 0.6410 0.6470
361.356061 0.6540 0.6570 0.6590 0.6660 0.6720
367.958198 0.6760 0.6790 0.6810 0.6840 0.6850
374.560336 0.6870 0.6870 0.6870 0.6870 0.6850
381.162473 0.6810 0.6780 0.6750 0.6740 0.6740
387.764610 0.6740 0.6720 0.6720 0.6720 0.6720
394.366748 0.6720 0.6720 0.6720 0.6720 0.6740
400.968885 0.6740 0.6750 0.6750 0.6750 0.6740
407.571022 0.6740 0.6740 0.6720 0.6720 0.6710
414.173160 0.6710 0.6700 0.6680 0.6670 0.6660
420.775297 0.6640 0.6630 0.6620 0.6620 0.6600
427.377435 0.6590 0.6580 0.6580 0.6580 0.6590
433.979572 0.6600 0.6620 0.6640 0.6660 0.6660
440.581709 0.6670 0.6670 0.6670 0.6660 0.6660
447.183847 0.6640 0.6640 0.6630 0.6630 0.6620
453.785984 0.6620 0.6620 0.6620 0.6620 0.6620
460.388122 0.6620 0.6620 0.6630 0.6630 0.6640
466.990259 0.6660 0.6670 0.6670 0.6670 0.6680
473.592396 0.6700 0.6700 0.6710 0.6720 0.6740
480.194534 0.6740 0.6740 0.6740 0.6740 0.6740
486.796671 0.6740 0.6740 0.6740 0.6740 0.6720
493.398809 0.6720 0.6720 0.6720 0.6710 0.6710
500.000946 0.6680 0.6670 0.6640 0.6620 0.6600
506.603083 0.6580 0.6550 0.6530 0.6500 0.6460
513.205221 0.6410 0.6390 0.6410 0.6420 0.6500
519.807358 0.6620 0.6680 0.6700 0.6680 0.6640
526.409495 0.6630 0.6590 0.6540 0.6530 0.6470
533.011633 0.6460 0.6460 0.6470 0.6579 0.6669
539.613770 0.6740 0.6870 0.7010 0.7030 0.7030
546.215908 0.7030 0.7030 0.7010 0.7000 0.6990
552.818045 0.6970 0.6960 0.6950 0.6930 0.6920
559.420182 0.6910 0.6910 0.6910 0.6890 0.6890
566.022320 0.6880 0.6870 0.6840 0.6840 0.6830
572.624457 0.6810 0.6810 0.6800 0.6780 0.6750
579.226595 0.6740 0.6720 0.6720 0.6710 0.6700
585.828732 0.6670 0.6620 0.6600 0.6600 0.6620
592.430869 0.6640 0.6740 0.6790 0.6830 0.6830
599.033007 0.6840 0.6870 0.6910 0.6920 0.6920
605.635144 0.6920 0.6920 0.6920 0.6910 0.6910
612.237281 0.6890 0.6880 0.6880 0.6880 0.6870
618.839419 0.6870 0.6870 0.6870 0.6850 0.6810
625.441556 0.6790 0.6760 0.6720 0.6700 0.6670
632.043694 0.6630 0.6600 0.6570 0.6540 0.6530
638.645831 0.6460 0.6430 0.6410 0.6370 0.6330
645.247968 0.6260 0.6250 0.6250 0.6260 0.6260
651.850106 0.6280 0.6280 0.6290 0.6300 0.6320
658.452243 0.6330 0.6330 0.6340 0.6360 0.6360
665.054381 0.6380 0.6390 0.6410 0.6430 0.6450
671.656518 0.6460 0.6460 0.6470 0.6470 0.6490
678.258655 0.6500 0.6510 0.6530 0.6550 0.6590
684.860793 0.6630 0.6680 0.6710 0.6740 0.6740
691.462930 0.6760 0.6760 0.6720 0.6680 0.6600
698.065067 0.6510 0.6390 0.6340 0.6320 0.6320
704.667205 0.6300 0.6300 0.6320 0.6330 0.6370
711.269342 0.6530 0.6660 0.7090 0.7100 0.7090
717.871480 0.7040 0.6930 0.6830 0.6671 0.6670
724.473617 0.6700 0.6740 0.6800 0.6830 0.6850
731.075754 0.6850 0.6840 0.6840 0.6830 0.6810
737.677892 0.6790 0.6760 0.6700 0.6640 0.6600
744.280029 0.6580 0.6570 0.6550 0.6540 0.6530
750.882167 0.6500 0.6460 0.6450 0.6420 0.6340
757.484304 0.6280 0.6170 0.6040 0.5911 0.5721
764.086441 0.5510 0.5220 0.4860 0.4171 0.3481
770.688579 0.3450 0.3460 0.3998 0.4607 0.4918
777.290716 0.5210 0.5580 0.5930 0.6250 0.6430
783.892853 0.6580 0.6700 0.6790 0.6870 0.6910
790.494991 0.6950 0.6960 0.6970 0.6970 0.6990
797.097128 0.6960 0.6930 0.6870 0.6701 0.6501
803.699266 0.6470 0.6470 0.6490 0.6590 0.6720
810.301403 0.6740 0.6780 0.6790 0.6800 0.6810
816.903540 0.6810 0.6830 0.6840 0.6870 0.6880
823.505678 0.6930 0.7040 0.7090 0.7170 0.7240
830.107815 0.7310 0.7380 0.7460 0.7540 0.7600
836.709953 0.7660 0.7730 0.7830 0.7910 0.7950
843.312090 0.7970 0.7980 0.8000 0.8000 0.7980
849.914227 0.7970 0.7960 0.7890 0.7850 0.7810
856.516365 0.7750 0.7660 0.7580 0.7510 0.7470
863.118502 0.7460 0.7460 0.7430 0.7410 0.7390
869.720639 0.7370 0.7350 0.7340 0.7330 0.7330
876.322777 0.7330 0.7340 0.7390 0.7500 0.7590
882.924914 0.7710 0.7790 0.7870 0.7910 0.7950
889.527052 0.7950 0.7930 0.7930 0.7920 0.7890
896.129189 0.7880 0.7870 0.7840 0.7800 0.7770
902.731326 0.7750 0.7700 0.7620 0.7501 0.7381
909.333464 0.7260 0.7130 0.7030 0.6970 0.6920
915.935601 0.6830 0.6700 0.6570 0.6540 0.6540
922.537739 0.6570 0.6580 0.6630 0.6640 0.6620
929.139876 0.6590 0.6540 0.6420 0.6300 0.6290
935.742013 0.6290 0.6320 0.6420 0.6540 0.7030
942.344151 0.7120 0.7130 0.7130 0.7050 0.6960
948.946288 0.6850 0.6790 0.6740 0.6720 0.6740
955.548426 0.7049 0.7379 0.7460 0.7589 0.7799
962.150563 0.8000 0.8050 0.8140 0.8180 0.8210
968.752700 0.8230 0.8250 0.8250 0.8250 0.8250
975.354838 0.8250 0.8250 0.8250 0.8230 0.8220
981.956975 0.8220 0.8210 0.8210 0.8210 0.8190
988.559112 0.8190 0.8170 0.8160 0.8130 0.8100
995.161250 0.8060 0.8020 0.8000 0.7960 0.7920
1001.763387 0.7880 0.7870 0.7870 0.7850 0.7850
1008.365525 0.7840 0.7800 0.7730 0.7710 0.7710
1014.967662 0.7700 0.7660 0.7600 0.7580 0.7510
1021.569799 0.7460 0.7420 0.7370 0.7310 0.7210
1028.171937 0.7130 0.7030 0.6960 0.6890 0.6720
1034.774074 0.6710 0.6710 0.6720 0.6850 0.7079
1041.376212 0.7160 0.7220 0.7240 0.7250 0.7250
1047.978349 0.7270 0.7330 0.7340 0.7370 0.7380
1054.580486 0.7380 0.7350 0.7310 0.7290 0.7250
1061.182624 0.7170 0.7140 0.7050 0.7000 0.6950
1067.784761 0.6870 0.6840 0.6780 0.6700 0.6600
1074.386898 0.6500 0.6380 0.6280 0.6160 0.6041
1080.989036 0.5910 0.5790 0.5680 0.5580 0.5470
1087.591173 0.5380 0.5290 0.5190 0.5011 0.4960
1094.193311 0.4920 0.4840 0.4830 0.4840 0.4870
1100.795448 0.5050 0.5170 0.5210 0.5330 0.5340
1107.397585 0.5340 0.5340 0.5330 0.5030 0.4820
1113.999723 0.4620 0.4460 0.4360 0.4320 0.4171
1120.601860 0.4160 0.4170 0.4190 0.4240 0.4310
1127.203998 0.4410 0.4530 0.4620 0.4829 0.4989
1133.806135 0.5070 0.5210 0.5330 0.5440 0.5550
1140.408272 0.5660 0.5760 0.5900 0.6030 0.6179
1147.010410 0.6410 0.6581 0.7130 0.7330 0.7470
1153.612547 0.7600 0.7700 0.7750 0.7760 0.7760
1160.214684 0.7730 0.7680 0.7670 0.7600 0.7520
1166.816822 0.7450 0.7380 0.7260 0.7081 0.7010
1173.418959 0.6930 0.6760 0.6570 0.6320 0.6030
1180.021097 0.5710 0.5331 0.4901 0.4412 0.4380
1186.623234 0.4380 0.4451 0.4880 0.5160 0.5420
1193.225371 0.5760 0.5780 0.5780 0.5631 0.5540
1199.827509 0.5450 0.5340 0.5330 0.5340 0.5610
1206.429646 0.5790 0.6379 0.7258 0.7559 0.7809
1213.031784 0.8000 0.8130 0.8220 0.8290 0.8330
1219.633921 0.8340 0.8340 0.8310 0.8290 0.8250
1226.236058 0.8210 0.8160 0.8100 0.8040 0.7980
1232.838196 0.7920 0.7840 0.7770 0.7680 0.7640
1239.440333 0.7620 0.7600 0.7620 0.7630 0.7640
1246.042470 0.7630 0.7620 0.7580 0.7540 0.7490
1252.644608 0.7430 0.7370 0.7290 0.7220 0.7170
1259.246745 0.7120 0.7060 0.7000 0.6970 0.6930
1265.848883 0.6850 0.6780 0.6700 0.6600 0.6510
1272.451020 0.6380 0.6250 0.6090 0.5911 0.5681
1279.053157 0.5379 0.5190 0.5170 0.5190 0.5420
1285.655295 0.5880 0.5910 0.5910 0.5880 0.5621
1292.257432 0.5439 0.5210 0.4999 0.4370 0.4250
1298.859570 0.4240 0.4250 0.4699 0.4780 0.4909
1305.461707 0.5321 0.5711 0.6080 0.6390 0.6670
1312.063844 0.6850 0.7159 0.7180 0.7180 0.7180
1318.665982 0.7170 0.7160 0.7140 0.7140 0.7120
1325.268119 0.7090 0.7040 0.7000 0.6960 0.6850
1331.870257 0.6750 0.6620 0.6470 0.6330 0.6160
1338.472394 0.5990 0.5820 0.5650 0.5461 0.5281
1345.074531 0.5109 0.4940 0.4780 0.4620 0.4480
1351.676669 0.4270 0.4160 0.4160 0.4170 0.4459
1358.278806 0.4741 0.5151 0.5820 0.5830 0.5820
1364.880943 0.5790 0.5331 0.5081 0.4871 0.4860
1371.483081 0.4881 0.5161 0.5511 0.5840 0.6210
1378.085218 0.6540 0.7049 0.7240 0.7350 0.7420
1384.687356 0.7500 0.7540 0.7560 0.7670 0.7730
1391.289493 0.7750 0.7760 0.7760 0.7770 0.7790
1397.891630 0.7790 0.7800 0.7800 0.7790 0.7790
1404.493768 0.7760 0.7730 0.7700 0.7600 0.7490
1411.095905 0.7450 0.7390 0.7350 0.7290 0.7220
1417.698043 0.7130 0.7000 0.6870 0.6701 0.6590
1424.300180 0.6459 0.6249 0.5879 0.5530 0.5240
1430.902317 0.5210 0.5120 0.5090 0.5080 0.5080
1437.504455 0.5050 0.4990 0.4990 0.5150 0.5580
1444.106592 0.5820 0.5860 0.5870 0.5870 0.5820
1450.708729 0.5630 0.5500 0.5420 0.5400 0.5420
1457.310867 0.5510 0.5670 0.5860 0.6069 0.6259
1463.913004 0.6461 0.6621 0.6790 0.7010 0.7120
1470.515142 0.7130 0.7120 0.7120 0.7090 0.7060
1477.117279 0.7040 0.7000 0.6950 0.6870 0.6790
1483.719416 0.6700 0.6590 0.6460 0.6330 0.6181
1490.321554 0.6009 0.5819 0.5620 0.5380 0.5130
1496.923691 0.4860 0.4580 0.4570 0.4580 0.4710
1503.525829 0.4881 0.5081 0.5370 0.5581 0.5950
1510.127966 0.6000 0.6000 0.5970 0.5950 0.5870
1516.730103 0.5860 0.5860 0.5880 0.6000 0.6080
1523.332241 0.6160 0.6170 0.6140 0.6110 0.6050
1529.934378 0.5999 0.5740 0.5700 0.5450 0.5380
1536.536515 0.5340 0.5380 0.5450 0.5540 0.5590
1543.138653 0.5590 0.5580 0.5550 0.5470 0.5360
1549.740790 0.5280 0.5210 0.5190 0.5170 0.5150
1556.342928 0.5130 0.5090 0.5030 0.4900 0.4730
1562.945065 0.4590 0.4330 0.4320 0.4330 0.4649
1569.547202 0.4901 0.5121 0.5300 0.5500 0.5680
1576.149340 0.5930 0.6420 0.6430 0.6420 0.6380
1582.751477 0.6290 0.6180 0.6090 0.5960 0.5820
1589.353615 0.5630 0.5410 0.5190 0.5030 0.4841
1595.955752 0.4649 0.4439 0.4230 0.4020 0.3920
1602.557889 0.3830 0.3670 0.3540 0.3450 0.3390
1609.160027 0.3349 0.3200 0.3190 0.3190 0.3210
1615.762164 0.3290 0.3390 0.3530 0.3670 0.4278
1622.364301 0.4691 0.4961 0.5160 0.5300 0.5440
1628.966439 0.5570 0.5750 0.5930 0.6090 0.6220
1635.568576 0.6340 0.6430 0.6510 0.6570 0.6620
1642.170714 0.6640 0.6670 0.6680 0.6680 0.6680
1648.772851 0.6680 0.6670 0.6620 0.6590 0.6570
1655.374988 0.6510 0.6470 0.6420 0.6340 0.6280
1661.977126 0.6200 0.6120 0.6030 0.5920 0.5820
1668.579263 0.5710 0.5580 0.5440 0.5290 0.5121
1675.181401 0.4939 0.4749 0.4529 0.4310 0.4060
1681.783538 0.3920 0.3780 0.3490 0.3181 0.2661
1688.385675 0.2410 0.2330 0.2320 0.2330 0.2440
1694.987813 0.2470 0.2530 0.2640 0.2790 0.2940
1701.589950 0.3071 0.3190 0.3250 0.3270 0.3280
1708.192087 0.3310 0.3330 0.3410 0.3480 0.3580
1714.794225 0.3782 0.4211 0.4461 0.4700 0.4940
1721.396362 0.5160 0.5340 0.5500 0.5610 0.5780
1727.998500 0.5931 0.6090 0.6220 0.6360 0.6490
1734.600637 0.6590 0.6700 0.6800 0.6890 0.7060
1741.202774 0.7130 0.7200 0.7260 0.7330 0.7380
1747.804912 0.7420 0.7470 0.7510 0.7560 0.7590
1754.407049 0.7630 0.7670 0.7710 0.7730 0.7770
1761.009187 0.7800 0.7840 0.7880 0.7920 0.7950
1767.611324 0.7980 0.8050 0.8130 0.8160 0.8170
1774.213461 0.8210 0.8260 0.8310 0.8310 0.8330
1780.815599 0.8340 0.8350 0.8380 0.8400 0.8420
1787.417736 0.8460 0.8480 0.8510 0.8520 0.8550
1794.019874 0.8560 0.8580 0.8590 0.8590 0.8620
1800.622011 0.8630 0.8640 0.8650 0.8670 0.8690
1807.224148 0.8720 0.8750 0.8760 0.8760 0.8770
1813.826286 0.8790 0.8800 0.8810 0.8810 0.8830
1820.428423 0.8840 0.8840 0.8850 0.8880 0.8900
1827.030560 0.8930 0.8940 0.8960 0.8970 0.8970
1833.632698 0.8970 0.8980 0.8980 0.9000 0.9000
1840.234835 0.9010 0.9010 0.9020 0.9020 0.9040
1846.836973 0.9040 0.9050 0.9080 0.9090 0.9110
1853.439110 0.9110 0.9130 0.9130 0.9140 0.9130
1860.041247 0.9150 0.9150 0.9150 0.9150 0.9170
1866.643385 0.9170 0.9170 0.9170 0.9170 0.9170
1873.245522 0.9170 0.9170 0.9170 0.9150 0.9150
1879.847660 0.9140 0.9140 0.9130 0.9130 0.9110
1886.449797 0.9110 0.9110 0.9110 0.9110 0.9110
1893.051934 0.9110 0.9110 0.9110 0.9110 0.9100
1899.654072 0.9100 0.9110 0.9110 0.9110 0.9130
1906.256209 0.9130 0.9140 0.9140 0.9140 0.9150
1912.858346 0.9150 0.9150 0.9150 0.9150 0.9150
1919.460484 0.9170 0.9150 0.9150 0.9150 0.9140
1926.062621 0.9140 0.9170 0.9170 0.9170 0.9150
1932.664759 0.9170 0.9180 0.9180 0.9190 0.9210
1939.266896 0.9210 0.9220 0.9220 0.9230 0.9230
1945.869033 0.9230 0.9230 0.9250 0.9250 0.9250
1952.471171 0.9230 0.9230 0.9230 0.9230 0.9230
1959.073308 0.9230 0.9220 0.9220 0.9220 0.9220
1965.675446 0.9220 0.9220 0.9220 0.9220 0.9220
1972.277583 0.9220 0.9210 0.9220 0.9220 0.9220
1978.879720 0.9210 0.9190 0.9170 0.9150 0.9140
1985.481858 0.9140 0.9130 0.9110 0.9110 0.9100
1992.083995 0.9100 0.9080 0.9080 0.9060 0.9060
1998.686132 0.9080 0.9100 0.9130 0.9130 0.9130
2005.288270 0.9130 0.9130 0.9130 0.9130 0.9130
2011.890407 0.9130 0.9130 0.9110 0.9110 0.9110
2018.492545 0.9110 0.9110 0.9100 0.9100 0.9090
2025.094682 0.9090 0.9080 0.9080 0.9061 0.9060
2031.696819 0.9050 0.9040 0.9021 0.9010 0.9010
2038.298957 0.9010 0.9000 0.9000 0.8981 0.8980
2044.901094 0.8980 0.8980 0.8971 0.8970 0.8970
2051.503232 0.8970 0.8961 0.8960 0.8960 0.8960
2058.105369 0.8942 0.8940 0.8940 0.8940 0.8931
2064.707506 0.8930 0.8930 0.8930 0.8930 0.8930
2071.309644 0.8930 0.8930 0.8930 0.8930 0.8930
2077.911781 0.8930 0.8930 0.8930 0.8939 0.8940
2084.513918 0.8940 0.8940 0.8940 0.8940 0.8940
2091.116056 0.8958 0.8969 0.8970 0.8970 0.8970
2097.718193 0.8970 0.8961 0.8960 0.8960 0.8960
2104.320331 0.8960 0.8960 0.8960 0.8960 0.8943
2110.922468 0.8940 0.8940 0.8940 0.8940 0.8940
2117.524605 0.8940 0.8940 0.8940 0.8940 0.8940
2124.126743 0.8940 0.8940 0.8940 0.8940 0.8940
2130.728880 0.8940 0.8932 0.8930 0.8930 0.8930
2137.331018 0.8930 0.8930 0.8930 0.8930 0.8930
2143.933155 0.8930 0.8930 0.8930 0.8930 0.8930
2150.535292 0.8930 0.8930 0.8930 0.8930 0.8930
2157.137430 0.8930 0.8930 0.8922 0.8920 0.8920
2163.739567 0.8920 0.8920 0.8920 0.8920 0.8920
2170.341705 0.8920 0.8920 0.8920 0.8920 0.8920
2176.943842 0.8905 0.8900 0.8900 0.8900 0.8900
2183.545979 0.8900 0.8900 0.8900 0.8900 0.8900
2190.148117 0.8900 0.8900 0.8900 0.8900 0.8900
2196.750254 0.8893 0.8890 0.8890 0.8890 0.8890
2203.352391 0.8890 0.8890 0.8883 0.8880 0.8880
2209.954529 0.8880 0.8880 0.8880 0.8880 0.8880
2216.556666 0.8880 0.8880 0.8880 0.8866 0.8860
2223.158804 0.8860 0.8860 0.8860 0.8860 0.8860
2229.760941 0.8860 0.8853 0.8850 0.8850 0.8850
2236.363078 0.8850 0.8850 0.8850 0.8850 0.8843
2242.965216 0.8840 0.8840 0.8840 0.8840 0.8840
2249.567353 0.8840 0.8840 0.8840 0.8840 0.8840
2256.169491 0.8840 0.8840 0.8840 0.8840 0.8840
2262.771628 0.8840 0.8840 0.8840 0.8840 0.8840
2269.373765 0.8840 0.8840 0.8840 0.8840 0.8840
2275.975903 0.8840 0.8840 0.8840 0.8840 0.8840
2282.578040 0.8840 0.8840 0.8834 0.8830 0.8830
2289.180177 0.8830 0.8830 0.8818 0.8810 0.8810
2295.782315 0.8810 0.8804 0.8800 0.8800 0.8800
2302.384452 0.8794 0.8790 0.8790 0.8790 0.8790
2308.986590 0.8790 0.8790 0.8790 0.8790 0.8790
2315.588727 0.8790 0.8790 0.8790 0.8790 0.8790
2322.190864 0.8790 0.8790 0.8779 0.8770 0.8770
2328.793002 0.8770 0.8764 0.8760 0.8760 0.8760
2335.395139 0.8760 0.8760 0.8760 0.8760 0.8760
2341.997277 0.8760 0.8760 0.8760 0.8760 0.8755
2348.599414 0.8750 0.8739 0.8725 0.8715 0.8710
2355.201551 0.8710 0.8715 0.8720 0.8720 0.8720
2361.803689 0.8720 0.8720 0.8715 0.8710 0.8710
2368.405826 0.8710 0.8710 0.8700 0.8690 0.8690
2375.007963 0.8690 0.8690 0.8690 0.8690 0.8690
2381.610101 0.8690 0.8690 0.8690 0.8690 0.8690
2388.212238 0.8690 0.8690 0.8690 0.8690 0.8690
2394.814376 0.8690 0.8690 0.8690 0.8690 0.8690
2401.416513 0.8690 0.8685 0.8680 0.8680 0.8680
2408.018650 0.8680 0.8680 0.8680 0.8680 0.8680
2414.620788 0.8680 0.8667 0.8650 0.8659 0.8670
2421.222925 0.8661 0.8650 0.8650 0.8650 0.8646
2427.825063 0.8640 0.8640 0.8640 0.8640 0.8636
2434.427200 0.8630 0.8630 0.8626 0.8620 0.8620
2441.029337 0.8620 0.8620 0.8620 0.8612 0.8600
2447.631475 0.8600 0.8596 0.8590 0.8590 0.8590
2454.233612 0.8586 0.8580 0.8580 0.8572 0.8560
2460.835749 0.8556 0.8546 0.8540 0.8532 0.8528
2467.437887 0.8540 0.8517 0.8472 0.8449 0.8426
2474.040024 0.8420 0.8420 0.8420 0.8413 0.8400
2480.642162 0.8400 0.8396 0.8383 0.8370 0.8363
2487.244299 0.8350 0.8350 0.8350 0.8350 0.8350
2493.846436 0.8350 0.8350 0.8350 0.8350 0.8350
2500.448574 0.8350 0.8350 0.8350 0.8350 0.8350
2507.050711 0.8350 0.8350 0.8350 0.8350 0.8350
2513.652849 0.8350 0.8347 0.8340 0.8340 0.8340
2520.254986 0.8340 0.8337 0.8330 0.8324 0.8310
2526.857123 0.8310 0.8304 0.8284 0.8267 0.8257
2533.459261 0.8244 0.8230 0.8227 0.8220 0.8220
2540.061398 0.8220 0.8220 0.8217 0.8210 0.8210
2546.663535 0.8210 0.8205 0.8187 0.8180 0.8177
2553.265673 0.8167 0.8160 0.8155 0.8140 0.8137
2559.867810 0.8130 0.8130 0.8127 0.8120 0.8120
2566.469948 0.8120 0.8120 0.8120 0.8115 0.8100
2573.072085 0.8098 0.8088 0.8075 0.8060 0.8058
2579.674222 0.8048 0.8035 0.8018 0.8010 0.8008
2586.276360 0.8000 0.7996 0.7980 0.7978 0.7968
2592.878497 0.7960 0.7954 0.7928 0.7918 0.7904
2599.480635 0.7878 0.7864 0.7838 0.7826 0.7808
2606.082772 0.7798 0.7786 0.7770 0.7770 0.7770
2612.684909 0.7770 0.7774 0.7792 0.7800 0.7802
2619.287047 0.7810 0.7815 0.7840 0.7840 0.7840
2625.889184 0.7842 0.7850 0.7850 0.7853 0.7870
2632.491322 0.7870 0.7867 0.7850 0.7850 0.7850
2639.093459 0.7848 0.7835 0.7809 0.7799 0.7787
2645.695596 0.7770 0.7769 0.7760 0.7760 0.7759
2652.297734 0.7750 0.7750 0.7747 0.7729 0.7720
2658.899871 0.7719 0.7709 0.7700 0.7700 0.7701
2665.502008 0.7710 0.7710 0.7709 0.7700 0.7700
2672.104146 0.7698 0.7680 0.7680 0.7679 0.7670
2678.706283 0.7669 0.7656 0.7616 0.7580 0.7578
2685.308421 0.7559 0.7549 0.7538 0.7520 0.7519
2691.910558 0.7509 0.7499 0.7488 0.7469 0.7459
2698.512695 0.7449 0.7429 0.7408 0.7379 0.7369
2705.114833 0.7349 0.7339 0.7328 0.7300 0.7298
2711.716970 0.7269 0.7260 0.7260 0.7259 0.7250
2718.319108 0.7250 0.7250 0.7250 0.7250 0.7250
2724.921245 0.7250 0.7250 0.7250 0.7250 0.7240
2731.523382 0.7239 0.7220 0.7220 0.7210 0.7200
2738.125520 0.7180 0.7180 0.7170 0.7160 0.7140
2744.727657 0.7120 0.7100 0.7100 0.7090 0.7060
2751.329794 0.7030 0.7000 0.6990 0.6970 0.6950
2757.931932 0.6930 0.6910 0.6890 0.6870 0.6850
2764.534069 0.6840 0.6830 0.6791 0.6761 0.6740
2771.136207 0.6701 0.6661 0.6631 0.6630 0.6620
2777.738344 0.6601 0.6600 0.6590 0.6551 0.6540
2784.340481 0.6540 0.6550 0.6569 0.6580 0.6590
2790.942619 0.6590 0.6599 0.6638 0.6659 0.6669
2797.544756 0.6698 0.6738 0.6749 0.6778 0.6789
2804.146894 0.6827 0.6830 0.6839 0.6849 0.6869
2810.749031 0.6870 0.6870 0.6852 0.6832 0.6803
2817.351168 0.6800 0.6791 0.6790 0.6781 0.6780
2823.953306 0.6762 0.6751 0.6723 0.6702 0.6673
2830.555443 0.6643 0.6631 0.6621 0.6602 0.6618
2837.157580 0.6602 0.6600 0.6591 0.6572 0.6535
2843.759718 0.6512 0.6492 0.6472 0.6461 0.6434
2850.361855 0.6413 0.6393 0.6364 0.6334 0.6304
2856.963993 0.6291 0.6281 0.6280 0.6263 0.6243
2863.566130 0.6240 0.6223 0.6220 0.6212 0.6210
2870.168267 0.6202 0.6200 0.6183 0.6180 0.6172
2876.770405 0.6170 0.6162 0.6118 0.6077 0.6037
2883.372542 0.6014 0.6002 0.5975 0.5954 0.5917
2889.974680 0.5877 0.5845 0.5807 0.5759 0.5742
2896.576817 0.5716 0.5710 0.5702 0.5700 0.5684
2903.178954 0.5680 0.5680 0.5680 0.5680 0.5680
2909.781092 0.5696 0.5700 0.5708 0.5710 0.5710
2916.383229 0.5718 0.5736 0.5748 0.5758 0.5775
2922.985366 0.5780 0.5780 0.5765 0.5760 0.5760
2929.587504 0.5752 0.5750 0.5742 0.5725 0.5712
2936.189641 0.5710 0.5702 0.5700 0.5685 0.5672
2942.791779 0.5670 0.5663 0.5660 0.5660 0.5660
2949.393916 0.5660 0.5667 0.5677 0.5695 0.5700
2955.996053 0.5707 0.5732 0.5747 0.5757 0.5774
2962.598191 0.5794 0.5829 0.5862 0.5877 0.5901
2969.200328 0.5917 0.5948 0.5995 0.6052 0.6098
2975.802466 0.6145 0.6188 0.6242 0.6302 0.6362
2982.404603 0.6408 0.6441 0.6457 0.6481 0.6517
2989.006740 0.6557 0.6584 0.6617 0.6651 0.6667
2995.608878 0.6677 0.6680 0.6680 0.6680 0.6680
3002.211015 0.6680 0.6680 0.6673 0.6663 0.6660
3008.813153 0.6647 0.6640 0.6633 0.6630 0.6630
3015.415290 0.6630 0.6630 0.6630 0.6630 0.6636
3022.017427 0.6640 0.6640 0.6653 0.6660 0.6660
3028.619565 0.6660 0.6660 0.6660 0.6647 0.6640
3035.221702 0.6640 0.6634 0.6630 0.6624 0.6620
3041.823839 0.6602 0.6578 0.6545 0.6512 0.6476
3048.425977 0.6436 0.6402 0.6378 0.6364 0.6348
3055.028114 0.6340 0.6340 0.6352 0.6366 0.6370
3061.630252 0.6370 0.6376 0.6380 0.6386 0.6390
3068.232389 0.6402 0.6410 0.6410 0.6398 0.6384
3074.834526 0.6380 0.6374 0.6364 0.6349 0.6329
3081.436664 0.6309 0.6289 0.6235 0.6200 0.6189
3088.038801 0.6169 0.6149 0.6123 0.6088 0.6048
3094.640939 0.5997 0.5948 0.5914 0.5867 0.5808
3101.243076 0.5742 0.5689 0.5649 0.5609 0.5579
3107.845213 0.5554 0.5524 0.5505 0.5495 0.5490
3114.447351 0.5490 0.5490 0.5480 0.5470 0.5460
3121.049488 0.5430 0.5395 0.5375 0.5365 0.5350
3127.651625 0.5335 0.5330 0.5330 0.5345 0.5365
3134.253763 0.5370 0.5365 0.5350 0.5330 0.5310
3140.855900 0.5295 0.5285 0.5285 0.5290 0.5304
3147.458038 0.5325 0.5330 0.5349 0.5384 0.5409
3154.060175 0.5429 0.5445 0.5450 0.5450 0.5445
3160.662312 0.5445 0.5455 0.5460 0.5465 0.5470
3167.264450 0.5470 0.5470 0.5470 0.5470 0.5470
3173.866587 0.5470 0.5470 0.5470 0.5470 0.5470
3180.468725 0.5470 0.5470 0.5470 0.5470 0.5470
3187.070862 0.5470 0.5470 0.5470 0.5470 0.5470
3193.672999 0.5470 0.5470 0.5470 0.5470 0.5470
3200.275137 0.5478 0.5490 0.5482 0.5470 0.5470
3206.877274 0.5466 0.5460 0.5460 0.5460 0.5464
3213.479411 0.5470 0.5478 0.5494 0.5500 0.5500
3220.081549 0.5504 0.5510 0.5510 0.5517 0.5530
3226.683686 0.5530 0.5530 0.5530 0.5530 0.5530
3233.285824 0.5530 0.5523 0.5510 0.5503 0.5483
3239.887961 0.5466 0.5457 0.5447 0.5433 0.5420
3246.490098 0.5417 0.5407 0.5400 0.5400 0.5400
3253.092236 0.5393 0.5380 0.5377 0.5367 0.5363
3259.694373 0.5367 0.5360 0.5354 0.5334 0.5314
3266.296511 0.5297 0.5281 0.5257 0.5241 0.5217
3272.898648 0.5207 0.5197 0.5181 0.5151 0.5115
3279.500785 0.5080 0.5071 0.5047 0.5037 0.5021
3286.102923 0.5000 0.4997 0.4990 0.4990 0.4990
3292.705060 0.4990 0.4990 0.4987 0.4980 0.4980
3299.307197 0.4980 0.4980 0.4975 0.4960 0.4957
3305.909335 0.4950 0.4947 0.4935 0.4920 0.4917
3312.511472 0.4907 0.4895 0.4875 0.4855 0.4838
3319.113610 0.4830 0.4830 0.4832 0.4840 0.4845
3325.715747 0.4860 0.4862 0.4872 0.4885 0.4905
3332.317884 0.4929 0.4971 0.5014 0.5035 0.5054
3338.920022 0.5079 0.5121 0.5171 0.5225 0.5284
3345.522159 0.5306 0.5332 0.5348 0.5386 0.5412
3352.124297 0.5424 0.5442 0.5452 0.5462 0.5474
3358.726434 0.5492 0.5500 0.5498 0.5477 0.5418
3365.328571 0.5408 0.5400 0.5400 0.5400 0.5402
3371.930709 0.5410 0.5412 0.5427 0.5465 0.5499
3378.532846 0.5548 0.5597 0.5642 0.5710 0.5771
3385.134983 0.5843 0.5919 0.5975 0.6002 0.6010
3391.737121 0.6010 0.6010 0.6009 0.5999 0.5986
3398.339258 0.5956 0.5926 0.5892 0.5834 0.5799
3404.941396 0.5789 0.5780 0.5780 0.5781 0.5795
3411.543533 0.5834 0.5862 0.5884 0.5912 0.5935
3418.145670 0.5975 0.6015 0.6053 0.6085 0.6131
3424.747808 0.6140 0.6140 0.6139 0.6126 0.6084
3431.349945 0.6018 0.5901 0.5810 0.5702 0.5612
3437.952083 0.5522 0.5431 0.5323 0.5243 0.5169
3444.554220 0.5161 0.5172 0.5192 0.5214 0.5265
3451.156357 0.5336 0.5428 0.5548 0.5663 0.5721
3457.758495 0.5878 0.6008 0.6137 0.6256 0.6366
3464.360632 0.6475 0.6575 0.6674 0.6762 0.6804
3470.962770 0.6881 0.6914 0.7014 0.7101 0.7131
3477.564907 0.7171 0.7211 0.7251 0.7291 0.7311
3484.167044 0.7341 0.7371 0.7391 0.7421 0.7461
3490.769182 0.7491 0.7521 0.7560 0.7580 0.7590
3497.371319 0.7600 0.7630 0.7640 0.7670 0.7700
3503.973456 0.7720 0.7750 0.7770 0.7800 0.7840
3510.575594 0.7850 0.7870 0.7910 0.7920 0.7920
3517.177731 0.7949 0.7960 0.7960 0.7980 0.8009
3523.779869 0.8020 0.8039 0.8040 0.8050 0.8060
3530.382006 0.8089 0.8100 0.8119 0.8120 0.8120
3536.984143 0.8130 0.8159 0.8170 0.8170 0.8179
3543.586281 0.8189 0.8218 0.8229 0.8249 0.8250
3550.188418 0.8259 0.8298 0.8309 0.8310 0.8310
3556.790556 0.8329 0.8330 0.8330 0.8330 0.8330
3563.392693 0.8330 0.8330 0.8339 0.8340 0.8367
3569.994830 0.8379 0.8389 0.8417 0.8420 0.8420
3576.596968 0.8429 0.8430 0.8439 0.8458 0.8469
3583.199105 0.8479 0.8498 0.8509 0.8510 0.8519
3589.801242 0.8538 0.8540 0.8549 0.8550 0.8550
3596.403380 0.8550 0.8550 0.8559 0.8560 0.8560
3603.005517 0.8577 0.8580 0.8589 0.8581 0.8589
3609.607655 0.8590 0.8599 0.8617 0.8629 0.8639
3616.209792 0.8649 0.8667 0.8670 0.8670 0.8670
3622.811929 0.8678 0.8672 0.8678 0.8680 0.8688
3629.414067 0.8707 0.8710 0.8718 0.8720 0.8720
3636.016204 0.8720 0.8720 0.8720 0.8720 0.8720
3642.618342 0.8720 0.8720 0.8720 0.8720 0.8720
3649.220479 0.8728 0.8730 0.8746 0.8750 0.8750
3655.822616 0.8750 0.8750 0.8750 0.8750 0.8734
3662.424754 0.8730 0.8722 0.8720 0.8696 0.8682
3669.026891 0.8680 0.8680 0.8680 0.8680 0.8688
3675.629028 0.8690 0.8690 0.8690 0.8705 0.8710
3682.231166 0.8718 0.8720 0.8720 0.8728 0.8730
3688.833303 0.8745 0.8750 0.8757 0.8768 0.8770
3695.435441 0.8770 0.8770 0.8770 0.8770 0.8770
3702.037578 0.8770 0.8755 0.8750 0.8757 0.8760
3708.639715 0.8760 0.8760 0.8767 0.8763 0.8760
3715.241853 0.8760 0.8753 0.8736 0.8730 0.8730
3721.843990 0.8744 0.8750 0.8750 0.8750 0.8750
3728.446128 0.8736 0.8723 0.8720 0.8720 0.8720
3735.048265 0.8720 0.8720 0.8720 0.8713 0.8710
3741.650402 0.8710 0.8710 0.8710 0.8710 0.8710
3748.252540 0.8717 0.8727 0.8730 0.8730 0.8730
3754.854677 0.8730 0.8730 0.8730 0.8730 0.8730
3761.456814 0.8723 0.8720 0.8720 0.8720 0.8720
3768.058952 0.8720 0.8720 0.8720 0.8720 0.8714
3774.661089 0.8710 0.8710 0.8710 0.8710 0.8710
3781.263227 0.8710 0.8710 0.8710 0.8710 0.8710
3787.865364 0.8710 0.8710 0.8710 0.8698 0.8684
3794.467501 0.8674 0.8670 0.8670 0.8670 0.8682
3801.069639 0.8690 0.8690 0.8690 0.8690 0.8690
3807.671776 0.8684 0.8680 0.8674 0.8658 0.8650
3814.273914 0.8650 0.8650 0.8650 0.8650 0.8650
3820.876051 0.8650 0.8650 0.8650 0.8644 0.8640
3827.478188 0.8640 0.8640 0.8629 0.8609 0.8600
3834.080326 0.8611 0.8620 0.8620 0.8620 0.8620
3840.682463 0.8620 0.8609 0.8600 0.8595 0.8590
3847.284601 0.8590 0.8590 0.8595 0.8600 0.8600
3853.886738 0.8600 0.8600 0.8600 0.8600 0.8600
3860.488875 0.8600 0.8595 0.8590 0.8590 0.8590
3867.091013 0.8590 0.8590 0.8590 0.8595 0.8600
3873.693150 0.8600 0.8600 0.8600 0.8595 0.8590
3880.295287 0.8595 0.8600 0.8600 0.8600 0.8600
3886.897425 0.8600 0.8600 0.8610 0.8610 0.8595
3893.499562 0.8590 0.8585 0.8580 0.8580 0.8580
3900.101700 0.8580 0.8580 0.8580 0.8580 0.8580
3906.703837 0.8585 0.8590 0.8590 0.8595 0.8591
3913.305974 0.8580 0.8580 0.8580 0.8580 0.8580
3919.908112 0.8580 0.8580 0.8580 0.8584 0.8590
3926.510249 0.8590 0.8586 0.8580 0.8571 0.8560
3933.112387 0.8569 0.8580 0.8580 0.8580 0.8580
3939.714524 0.8580 0.8580 0.8580 0.8584 0.8590
3946.316661 0.8594 0.8600 0.8584 0.8560 0.8560
3952.918799 0.8560 0.8560 0.8560 0.8560 0.8560
3959.520936 0.8560 0.8560 0.8560 0.8560 0.8560
3966.123073 0.8560 0.8560 0.8560 0.8560 0.8568
3972.725211 0.8580 0.8580 0.8580 0.8580 0.8580
3979.327348 0.8573 0.8560 0.8560 0.8560 0.8560
3985.929486 0.8560 0.8571 0.8590 0.8590 0.8586
3992.531623 0.8580 0.8580 0.8580 0.8580 0.8580
##END=
