##TITLE=MALEIC ACID, MONODIBROMOPHENYL ESTER
##JCAMP-DX=4.24
##DATA TYPE=INFRARED SPECTRUM
##CLASS=COBLENTZ
##ORIGIN=PERKIN-ELMER
##OWNER=COBLENTZ SOCIETY
Collection (C) 2018 copyright by the U.S. Secretary of Commerce
on behalf of the United States of America. All rights reserved.
##DATE=1978/05/26
##NAMES=(COMMERCIAL FLAME RETARDANT)
##MOLFORM=C10 H6 Br2 O4
##SOURCE REFERENCE=COBLENTZ NO. 10301
##$NIST ID=B6010301
##$NIST SOURCE=COBLENTZ
##$NIST IMAGE=cob10301
##SPECTROMETER/DATA SYSTEM=PERKIN-ELMER 283
##STATE=(NEAT)
##PATH LENGTH=MELT, CsI WINDOW
##SAMPLING PROCEDURE=TRANSMISSION
##RESOLUTION=4
##DATA PROCESSING=DIGITIZED BY NIST FROM HARD COPY (FROM TWO SEGMENTS)
##XUNITS=1/CM
##YUNITS=TRANSMITTANCE
##XFACTOR=1.000000
##YFACTOR=1
##DELTAX=0.974028
##FIRSTX=201.948
##LASTX=4002.6
##FIRSTY=0.845
##MAXX=4002.6
##MINX=201.948
##MAXY=0.943
##MINY=0.15
##NPOINTS=3903
##XYDATA=(X++(Y..Y))
201.948000 0.8450 0.8560 0.8640 0.8690 0.8730
206.818139 0.8740 0.8760 0.8760 0.8770 0.8780
211.688278 0.8810 0.8850 0.8860 0.8920 0.8980
216.558417 0.9000 0.9010 0.9030 0.9040 0.9050
221.428556 0.9050 0.9050 0.9070 0.9070 0.9070
226.298695 0.9090 0.9090 0.9080 0.9070 0.9070
231.168834 0.9080 0.9100 0.9100 0.9080 0.9080
236.038973 0.9080 0.9090 0.9120 0.9140 0.9140
240.909112 0.9140 0.9130 0.9100 0.9100 0.9090
245.779251 0.9100 0.9120 0.9170 0.9180 0.9180
250.649390 0.9200 0.9200 0.9200 0.9200 0.9200
255.519529 0.9200 0.9180 0.9180 0.9180 0.9200
260.389668 0.9200 0.9210 0.9220 0.9230 0.9250
265.259807 0.9250 0.9260 0.9260 0.9260 0.9260
270.129946 0.9260 0.9250 0.9250 0.9230 0.9230
275.000085 0.9230 0.9250 0.9250 0.9260 0.9260
279.870224 0.9290 0.9290 0.9300 0.9300 0.9300
284.740363 0.9300 0.9300 0.9300 0.9300 0.9300
289.610502 0.9300 0.9300 0.9300 0.9310 0.9310
294.480641 0.9310 0.9310 0.9310 0.9320 0.9320
299.350780 0.9320 0.9340 0.9350 0.9360 0.9380
304.220919 0.9390 0.9400 0.9410 0.9410 0.9430
309.091058 0.9430 0.9430 0.9430 0.9430 0.9410
313.961197 0.9390 0.9390 0.9360 0.9350 0.9350
318.831336 0.9350 0.9340 0.9340 0.9320 0.9320
323.701475 0.9300 0.9270 0.9250 0.9220 0.9220
328.571614 0.9210 0.9200 0.9180 0.9160 0.9160
333.441753 0.9140 0.9160 0.9170 0.9200 0.9210
338.311892 0.9230 0.9260 0.9300 0.9310 0.9320
343.182031 0.9320 0.9340 0.9340 0.9350 0.9360
348.052170 0.9380 0.9390 0.9390 0.9380 0.9350
352.922309 0.9320 0.9310 0.9300 0.9300 0.9300
357.792448 0.9290 0.9290 0.9270 0.9260 0.9230
362.662587 0.9210 0.9200 0.9200 0.9180 0.9180
367.532726 0.9170 0.9160 0.9140 0.9130 0.9100
372.402865 0.9100 0.9090 0.9090 0.9080 0.9080
377.273004 0.9050 0.9010 0.8990 0.8950 0.8920
382.143143 0.8910 0.8900 0.8900 0.8890 0.8890
387.013282 0.8900 0.8910 0.8920 0.8940 0.8950
391.883421 0.8960 0.8980 0.8990 0.9000 0.9000
396.753560 0.9010 0.9040 0.9040 0.9050 0.9050
401.623700 0.9070 0.9080 0.9090 0.9100 0.9100
406.493839 0.9120 0.9120 0.9130 0.9130 0.9130
411.363978 0.9120 0.9120 0.9120 0.9120 0.9120
416.234117 0.9120 0.9120 0.9120 0.9120 0.9130
421.104256 0.9130 0.9140 0.9140 0.9120 0.9120
425.974395 0.9120 0.9120 0.9120 0.9120 0.9120
430.844534 0.9120 0.9120 0.9120 0.9120 0.9120
435.714673 0.9120 0.9120 0.9120 0.9120 0.9120
440.584812 0.9130 0.9130 0.9120 0.9120 0.9120
445.454951 0.9130 0.9130 0.9130 0.9130 0.9130
450.325090 0.9140 0.9140 0.9140 0.9160 0.9160
455.195229 0.9140 0.9140 0.9130 0.9120 0.9120
460.065368 0.9120 0.9120 0.9120 0.9120 0.9120
464.935507 0.9120 0.9100 0.9100 0.9100 0.9100
469.805646 0.9100 0.9100 0.9100 0.9100 0.9100
474.675785 0.9090 0.9080 0.9070 0.9000 0.8960
479.545924 0.8900 0.8890 0.8870 0.8860 0.8850
484.416063 0.8850 0.8830 0.8820 0.8820 0.8810
489.286202 0.8800 0.8770 0.8740 0.8700 0.8680
494.156341 0.8610 0.8600 0.8580 0.8550 0.8540
499.026480 0.8520 0.8520 0.8510 0.8510 0.8510
503.896619 0.8510 0.8510 0.8510 0.8510 0.8510
508.766758 0.8510 0.8510 0.8510 0.8510 0.8500
513.636897 0.8490 0.8490 0.8450 0.8410 0.8400
518.507036 0.8400 0.8400 0.8380 0.8370 0.8340
523.377175 0.8340 0.8320 0.8320 0.8300 0.8290
528.247314 0.8250 0.8200 0.8190 0.8180 0.8180
533.117453 0.8150 0.8110 0.8070 0.8030 0.8010
537.987592 0.7960 0.7900 0.7870 0.7810 0.7790
542.857731 0.7750 0.7710 0.7700 0.7630 0.7600
547.727870 0.7580 0.7560 0.7530 0.7520 0.7520
552.598009 0.7500 0.7500 0.7520 0.7520 0.7540
557.468148 0.7570 0.7650 0.7700 0.7710 0.7840
562.338287 0.7850 0.7870 0.7870 0.7850 0.7830
567.208426 0.7800 0.7760 0.7690 0.7650 0.7610
572.078565 0.7600 0.7580 0.7580 0.7580 0.7600
576.948704 0.7620 0.7650 0.7670 0.7690 0.7700
581.818843 0.7710 0.7720 0.7760 0.7780 0.7790
586.688982 0.7800 0.7810 0.7850 0.7900 0.7970
591.559121 0.8010 0.8090 0.8150 0.8190 0.8230
596.429260 0.8240 0.8240 0.8240 0.8240 0.8230
601.299399 0.8230 0.8230 0.8210 0.8200 0.8200
606.169538 0.8210 0.8210 0.8200 0.8190 0.8190
611.039677 0.8160 0.8110 0.8050 0.8000 0.7970
615.909816 0.7890 0.7840 0.7800 0.7700 0.7660
620.779955 0.7650 0.7610 0.7580 0.7580 0.7570
625.650094 0.7560 0.7540 0.7540 0.7520 0.7490
630.520233 0.7480 0.7480 0.7450 0.7400 0.7380
635.390372 0.7320 0.7300 0.7290 0.7250 0.7230
640.260511 0.7220 0.7220 0.7250 0.7270 0.7310
645.130650 0.7360 0.7380 0.7440 0.7530 0.7649
650.000789 0.7740 0.7810 0.7840 0.7890 0.7960
654.870928 0.8050 0.8110 0.8150 0.8180 0.8190
659.741067 0.8190 0.8210 0.8210 0.8210 0.8210
664.611206 0.8210 0.8200 0.8190 0.8190 0.8180
669.481345 0.8190 0.8200 0.8200 0.8210 0.8230
674.351484 0.8230 0.8240 0.8240 0.8250 0.8270
679.221623 0.8270 0.8270 0.8270 0.8280 0.8290
684.091762 0.8290 0.8320 0.8330 0.8380 0.8420
688.961901 0.8430 0.8450 0.8470 0.8490 0.8500
693.832040 0.8520 0.8550 0.8560 0.8580 0.8580
698.702179 0.8590 0.8590 0.8590 0.8600 0.8600
703.572318 0.8590 0.8560 0.8560 0.8560 0.8550
708.442457 0.8540 0.8520 0.8520 0.8520 0.8540
713.312596 0.8560 0.8560 0.8590 0.8600 0.8600
718.182735 0.8610 0.8630 0.8630 0.8650 0.8670
723.052874 0.8680 0.8680 0.8680 0.8680 0.8680
727.923013 0.8680 0.8670 0.8640 0.8610 0.8580
732.793152 0.8560 0.8550 0.8550 0.8540 0.8540
737.663291 0.8520 0.8500 0.8490 0.8470 0.8470
742.533430 0.8470 0.8470 0.8450 0.8430 0.8420
747.403569 0.8410 0.8370 0.8320 0.8320 0.8300
752.273708 0.8290 0.8280 0.8250 0.8230 0.8190
757.143847 0.8140 0.8110 0.8070 0.7940 0.7870
762.013986 0.7800 0.7740 0.7630 0.7500 0.7410
766.884125 0.7340 0.7250 0.7050 0.7030 0.7040
771.754264 0.7100 0.7180 0.7250 0.7300 0.7380
776.624403 0.7390 0.7430 0.7500 0.7580 0.7630
781.494542 0.7700 0.7740 0.7780 0.7790 0.7790
786.364681 0.7800 0.7810 0.7850 0.7880 0.7900
791.234821 0.7920 0.7920 0.7920 0.7920 0.7930
796.104960 0.7940 0.7940 0.7940 0.7940 0.7930
800.975099 0.7920 0.7920 0.7930 0.7930 0.7920
805.845238 0.7900 0.7890 0.7870 0.7840 0.7830
810.715377 0.7830 0.7810 0.7810 0.7800 0.7800
815.585516 0.7790 0.7790 0.7790 0.7790 0.7790
820.455655 0.7780 0.7780 0.7780 0.7780 0.7750
825.325794 0.7740 0.7740 0.7720 0.7710 0.7690
830.195933 0.7690 0.7690 0.7660 0.7630 0.7620
835.066072 0.7610 0.7600 0.7600 0.7580 0.7530
839.936211 0.7490 0.7470 0.7450 0.7440 0.7440
844.806350 0.7430 0.7400 0.7380 0.7360 0.7350
849.676489 0.7340 0.7340 0.7340 0.7340 0.7320
854.546628 0.7310 0.7300 0.7290 0.7290 0.7260
859.416767 0.7230 0.7230 0.7220 0.7220 0.7220
864.286906 0.7230 0.7230 0.7250 0.7250 0.7220
869.157045 0.7210 0.7140 0.7100 0.7090 0.7080
874.027184 0.7050 0.7040 0.7040 0.7030 0.7010
878.897323 0.7000 0.6990 0.6990 0.6980 0.6980
883.767462 0.6960 0.6910 0.6900 0.6890 0.6890
888.637601 0.6890 0.6890 0.6870 0.6870 0.6870
893.507740 0.6870 0.6870 0.6890 0.6890 0.6910
898.377879 0.6920 0.6940 0.6950 0.6950 0.6950
903.248018 0.6960 0.6960 0.6980 0.6980 0.6980
908.118157 0.6980 0.6980 0.6980 0.6980 0.6980
912.988296 0.6990 0.6990 0.6990 0.6990 0.6990
917.858435 0.6990 0.6990 0.6980 0.6980 0.6980
922.728574 0.6950 0.6940 0.6920 0.6920 0.6910
927.598713 0.6910 0.6900 0.6910 0.6910 0.6900
932.468852 0.6900 0.6870 0.6870 0.6890 0.6900
937.338991 0.6900 0.6910 0.6910 0.6920 0.6940
942.209130 0.6940 0.6940 0.6940 0.6950 0.6950
947.079269 0.6950 0.6950 0.6940 0.6940 0.6920
951.949408 0.6920 0.6910 0.6900 0.6890 0.6890
956.819547 0.6870 0.6830 0.6810 0.6730 0.6650
961.689686 0.6590 0.6520 0.6450 0.6270 0.6120
966.559825 0.5960 0.5850 0.5630 0.5401 0.5201
971.429964 0.5090 0.4990 0.4820 0.4690 0.4560
976.300103 0.4510 0.4510 0.4520 0.4550 0.4610
981.170242 0.4690 0.5000 0.5090 0.5140 0.5200
986.040381 0.5430 0.5600 0.5710 0.5790 0.5840
990.910520 0.5880 0.5890 0.5900 0.5920 0.5930
995.780659 0.5940 0.5940 0.5930 0.5920 0.5900
1000.650798 0.5880 0.5870 0.5850 0.5840 0.5810
1005.520937 0.5800 0.5780 0.5760 0.5760 0.5780
1010.391076 0.5810 0.5840 0.5850 0.5890 0.5940
1015.261215 0.5970 0.6000 0.6000 0.6010 0.6020
1020.131354 0.6020 0.6020 0.6010 0.6000 0.6000
1025.001493 0.6000 0.6010 0.6010 0.6030 0.6050
1029.871632 0.6090 0.6120 0.6180 0.6200 0.6210
1034.741771 0.6290 0.6340 0.6410 0.6450 0.6490
1039.611910 0.6500 0.6550 0.6600 0.6680 0.6730
1044.482049 0.6800 0.6830 0.6870 0.6900 0.6920
1049.352188 0.6960 0.7040 0.7070 0.7080 0.7120
1054.222327 0.7170 0.7220 0.7260 0.7310 0.7340
1059.092466 0.7360 0.7390 0.7400 0.7400 0.7410
1063.962605 0.7410 0.7400 0.7400 0.7400 0.7410
1068.832744 0.7410 0.7400 0.7380 0.7350 0.7320
1073.702883 0.7320 0.7310 0.7300 0.7290 0.7290
1078.573022 0.7270 0.7250 0.7220 0.7200 0.7180
1083.443161 0.7130 0.7120 0.7100 0.7090 0.7090
1088.313300 0.7070 0.7030 0.6980 0.6920 0.6900
1093.183439 0.6890 0.6830 0.6820 0.6810 0.6800
1098.053578 0.6730 0.6690 0.6670 0.6640 0.6640
1102.923717 0.6590 0.6590 0.6510 0.6470 0.6450
1107.793856 0.6430 0.6430 0.6450 0.6460 0.6470
1112.663995 0.6470 0.6500 0.6500 0.6490 0.6490
1117.534134 0.6470 0.6460 0.6430 0.6400 0.6330
1122.404273 0.6280 0.6230 0.6200 0.6190 0.6150
1127.274412 0.6050 0.6010 0.5920 0.5800 0.5620
1132.144551 0.5540 0.5410 0.5300 0.5180 0.5050
1137.014690 0.4990 0.4910 0.4740 0.4560 0.4330
1141.884829 0.4050 0.3870 0.3670 0.3500 0.3360
1146.754968 0.3220 0.3120 0.3010 0.2950 0.2900
1151.625107 0.2830 0.2810 0.2800 0.2770 0.2720
1156.495246 0.2700 0.2680 0.2670 0.2670 0.2670
1161.365385 0.2680 0.2680 0.2700 0.2720 0.2760
1166.235524 0.2810 0.2820 0.2850 0.2870 0.2940
1171.105663 0.3030 0.3170 0.3210 0.3220 0.3230
1175.975802 0.3320 0.3450 0.3600 0.3710 0.3780
1180.845941 0.3880 0.3970 0.4060 0.4150 0.4240
1185.716081 0.4320 0.4400 0.4460 0.4520 0.4580
1190.586220 0.4610 0.4630 0.4640 0.4640 0.4630
1195.456359 0.4630 0.4610 0.4630 0.4650 0.4680
1200.326498 0.4700 0.4730 0.4730 0.4760 0.4780
1205.196637 0.4810 0.4810 0.4800 0.4800 0.4770
1210.066776 0.4740 0.4730 0.4680 0.4640 0.4610
1214.936915 0.4580 0.4500 0.4420 0.4380 0.4280
1219.807054 0.4190 0.4120 0.4050 0.4020 0.4000
1224.677193 0.4000 0.3980 0.3970 0.3940 0.3940
1229.547332 0.3930 0.3940 0.3980 0.4000 0.4020
1234.417471 0.4030 0.4070 0.4070 0.4090 0.4090
1239.287610 0.4100 0.4100 0.4100 0.4090 0.4070
1244.157749 0.4020 0.3930 0.3840 0.3720 0.3610
1249.027888 0.3480 0.3380 0.3250 0.3120 0.3050
1253.898027 0.3000 0.2980 0.2910 0.2890 0.2850
1258.768166 0.2810 0.2780 0.2760 0.2740 0.2740
1263.638305 0.2760 0.2770 0.2830 0.2850 0.2860
1268.508444 0.2890 0.2910 0.2920 0.2960 0.3000
1273.378583 0.3070 0.3120 0.3160 0.3180 0.3200
1278.248722 0.3210 0.3230 0.3250 0.3260 0.3270
1283.118861 0.3270 0.3260 0.3250 0.3220 0.3200
1287.989000 0.3140 0.3080 0.3000 0.2950 0.2860
1292.859139 0.2820 0.2800 0.2780 0.2740 0.2730
1297.729278 0.2720 0.2700 0.2720 0.2760 0.2780
1302.599417 0.2810 0.2850 0.2870 0.2910 0.2980
1307.469556 0.3050 0.3100 0.3250 0.3400 0.3570
1312.339695 0.3720 0.3870 0.3940 0.4030 0.4140
1317.209834 0.4230 0.4330 0.4450 0.4550 0.4650
1322.079973 0.4770 0.4870 0.5090 0.5200 0.5300
1326.950112 0.5390 0.5480 0.5630 0.5740 0.5810
1331.820251 0.5850 0.5890 0.5900 0.5970 0.6000
1336.690390 0.6030 0.6060 0.6110 0.6180 0.6250
1341.560529 0.6270 0.6340 0.6460 0.6510 0.6540
1346.430668 0.6580 0.6590 0.6590 0.6600 0.6610
1351.300807 0.6630 0.6630 0.6640 0.6680 0.6720
1356.170946 0.6780 0.6810 0.6850 0.6890 0.6910
1361.041085 0.6920 0.6940 0.6950 0.6950 0.6950
1365.911224 0.6920 0.6900 0.6890 0.6830 0.6740
1370.781363 0.6680 0.6600 0.6550 0.6430 0.6290
1375.651502 0.6200 0.6100 0.6030 0.5980 0.5970
1380.521641 0.5960 0.5970 0.5980 0.6020 0.6050
1385.391780 0.6140 0.6180 0.6190 0.6200 0.6230
1390.261919 0.6230 0.6240 0.6250 0.6250 0.6270
1395.132058 0.6270 0.6280 0.6280 0.6280 0.6280
1400.002197 0.6270 0.6270 0.6270 0.6240 0.6210
1404.872336 0.6200 0.6190 0.6180 0.6160 0.6150
1409.742475 0.6110 0.6090 0.6090 0.6050 0.6000
1414.612614 0.5900 0.5840 0.5790 0.5740 0.5670
1419.482753 0.5539 0.5350 0.5320 0.5340 0.5380
1424.352892 0.5410 0.5440 0.5490 0.5540 0.5570
1429.223031 0.5660 0.5750 0.5800 0.5830 0.5880
1434.093170 0.5890 0.5930 0.5960 0.6020 0.6120
1438.963309 0.6230 0.6330 0.6450 0.6550 0.6640
1443.833448 0.6740 0.6830 0.6910 0.6990 0.7010
1448.703587 0.7030 0.7040 0.7040 0.7040 0.7040
1453.573726 0.7050 0.7080 0.7120 0.7220 0.7300
1458.443865 0.7490 0.7650 0.7800 0.7920 0.8030
1463.314004 0.8140 0.8230 0.8290 0.8370 0.8420
1468.184143 0.8470 0.8510 0.8650 0.8690 0.8700
1473.054282 0.8720 0.8720 0.8730 0.8730 0.8730
1477.924421 0.8740 0.8740 0.8740 0.8740 0.8740
1482.794560 0.8740 0.8740 0.8740 0.8740 0.8740
1487.664699 0.8740 0.8740 0.8740 0.8730 0.8730
1492.534838 0.8720 0.8720 0.8720 0.8720 0.8720
1497.404977 0.8720 0.8720 0.8720 0.8700 0.8700
1502.275116 0.8690 0.8690 0.8690 0.8690 0.8690
1507.145255 0.8690 0.8690 0.8690 0.8690 0.8670
1512.015394 0.8670 0.8670 0.8670 0.8650 0.8640
1516.885533 0.8630 0.8610 0.8610 0.8600 0.8600
1521.755672 0.8600 0.8600 0.8590 0.8590 0.8590
1526.625811 0.8580 0.8560 0.8560 0.8540 0.8540
1531.495950 0.8520 0.8510 0.8510 0.8500 0.8500
1536.366089 0.8490 0.8490 0.8490 0.8490 0.8470
1541.236228 0.8470 0.8460 0.8460 0.8450 0.8430
1546.106367 0.8420 0.8420 0.8410 0.8410 0.8410
1550.976506 0.8410 0.8400 0.8400 0.8380 0.8380
1555.846645 0.8380 0.8360 0.8360 0.8340 0.8330
1560.716784 0.8330 0.8330 0.8330 0.8320 0.8320
1565.586923 0.8320 0.8300 0.8300 0.8300 0.8300
1570.457062 0.8290 0.8290 0.8270 0.8270 0.8250
1575.327202 0.8250 0.8240 0.8240 0.8240 0.8230
1580.197341 0.8230 0.8210 0.8210 0.8200 0.8190
1585.067480 0.8190 0.8150 0.8110 0.8100 0.8090
1589.937619 0.8070 0.8070 0.8060 0.8060 0.8050
1594.807758 0.8030 0.8030 0.8030 0.8020 0.8020
1599.677897 0.8020 0.8010 0.8010 0.8000 0.7980
1604.548036 0.7920 0.7890 0.7840 0.7800 0.7780
1609.418175 0.7750 0.7740 0.7720 0.7710 0.7690
1614.288314 0.7650 0.7600 0.7580 0.7580 0.7540
1619.158453 0.7490 0.7480 0.7390 0.7380 0.7320
1624.028592 0.7300 0.7220 0.7120 0.7090 0.7040
1628.898731 0.6990 0.6910 0.6850 0.6780 0.6690
1633.768870 0.6610 0.6540 0.6460 0.6380 0.6300
1638.639009 0.6240 0.6120 0.6020 0.5900 0.5830
1643.509148 0.5700 0.5600 0.5540 0.5530 0.5530
1648.379287 0.5560 0.5690 0.5760 0.5840 0.5900
1653.249426 0.6030 0.6090 0.6110 0.6120 0.6150
1658.119565 0.6150 0.6100 0.6090 0.6030 0.6010
1662.989704 0.5980 0.5940 0.5920 0.5900 0.5900
1667.859843 0.5900 0.5920 0.5930 0.5930 0.5930
1672.729982 0.5930 0.5920 0.5890 0.5880 0.5840
1677.600121 0.5840 0.5750 0.5710 0.5700 0.5690
1682.470260 0.5650 0.5560 0.5470 0.5400 0.5350
1687.340399 0.5270 0.5200 0.5090 0.5000 0.4950
1692.210538 0.4900 0.4810 0.4720 0.4630 0.4520
1697.080677 0.4370 0.4290 0.4150 0.3920 0.3740
1701.950816 0.3570 0.3440 0.3320 0.3220 0.3090
1706.820955 0.2960 0.2800 0.2770 0.2610 0.2590
1711.691094 0.2540 0.2500 0.2450 0.2400 0.2360
1716.561233 0.2320 0.2280 0.2240 0.2200 0.2160
1721.431372 0.2090 0.2000 0.1900 0.1800 0.1710
1726.301511 0.1620 0.1580 0.1560 0.1530 0.1520
1731.171650 0.1500 0.1500 0.1500 0.1520 0.1530
1736.041789 0.1540 0.1580 0.1610 0.1670 0.1740
1740.911928 0.1810 0.1880 0.1970 0.2050 0.2150
1745.782067 0.2250 0.2370 0.2500 0.2650 0.2810
1750.652206 0.2991 0.3201 0.3400 0.3560 0.3720
1755.522345 0.3890 0.4090 0.4270 0.4470 0.4680
1760.392484 0.5091 0.5300 0.5500 0.5710 0.5900
1765.262623 0.6100 0.6290 0.6470 0.6640 0.6810
1770.132762 0.6950 0.7080 0.7200 0.7320 0.7440
1775.002901 0.7500 0.7580 0.7660 0.7740 0.7810
1779.873040 0.7890 0.7980 0.8060 0.8140 0.8190
1784.743179 0.8210 0.8230 0.8270 0.8290 0.8330
1789.613318 0.8400 0.8430 0.8430 0.8460 0.8470
1794.483457 0.8490 0.8510 0.8540 0.8550 0.8560
1799.353596 0.8560 0.8580 0.8590 0.8600 0.8610
1804.223735 0.8630 0.8640 0.8650 0.8650 0.8610
1809.093874 0.8600 0.8600 0.8610 0.8640 0.8640
1813.964013 0.8670 0.8680 0.8680 0.8690 0.8690
1818.834152 0.8690 0.8690 0.8690 0.8690 0.8690
1823.704291 0.8700 0.8700 0.8680 0.8680 0.8680
1828.574430 0.8670 0.8680 0.8700 0.8730 0.8730
1833.444569 0.8730 0.8720 0.8720 0.8700 0.8700
1838.314708 0.8700 0.8690 0.8690 0.8690 0.8720
1843.184847 0.8720 0.8730 0.8730 0.8730 0.8730
1848.054986 0.8730 0.8730 0.8730 0.8700 0.8690
1852.925125 0.8690 0.8700 0.8720 0.8720 0.8720
1857.795264 0.8720 0.8720 0.8720 0.8700 0.8690
1862.665403 0.8680 0.8680 0.8680 0.8670 0.8670
1867.535542 0.8690 0.8690 0.8700 0.8690 0.8690
1872.405681 0.8680 0.8680 0.8670 0.8670 0.8670
1877.275820 0.8670 0.8670 0.8670 0.8670 0.8670
1882.145959 0.8650 0.8650 0.8670 0.8690 0.8700
1887.016098 0.8680 0.8680 0.8680 0.8680 0.8700
1891.886237 0.8720 0.8700 0.8700 0.8700 0.8690
1896.756376 0.8690 0.8690 0.8700 0.8720 0.8740
1901.626515 0.8740 0.8730 0.8730 0.8730 0.8720
1906.496654 0.8720 0.8720 0.8720 0.8720 0.8720
1911.366793 0.8720 0.8720 0.8720 0.8720 0.8720
1916.236932 0.8730 0.8730 0.8740 0.8740 0.8740
1921.107071 0.8730 0.8730 0.8730 0.8730 0.8730
1925.977210 0.8730 0.8720 0.8720 0.8720 0.8720
1930.847349 0.8730 0.8730 0.8730 0.8730 0.8730
1935.717488 0.8730 0.8730 0.8730 0.8730 0.8720
1940.587627 0.8720 0.8720 0.8720 0.8720 0.8720
1945.457766 0.8720 0.8720 0.8730 0.8730 0.8730
1950.327905 0.8740 0.8740 0.8760 0.8760 0.8760
1955.198044 0.8760 0.8760 0.8760 0.8740 0.8730
1960.068183 0.8740 0.8730 0.8730 0.8720 0.8700
1964.938322 0.8730 0.8730 0.8730 0.8730 0.8730
1969.808462 0.8720 0.8700 0.8700 0.8690 0.8690
1974.678601 0.8700 0.8700 0.8700 0.8700 0.8700
1979.548740 0.8720 0.8730 0.8720 0.8700 0.8690
1984.418879 0.8690 0.8680 0.8670 0.8650 0.8650
1989.289018 0.8650 0.8650 0.8690 0.8690 0.8690
1994.159157 0.8680 0.8680 0.8680 0.8670 0.8680
1999.029296 0.8670 0.8650 0.8640 0.8630 0.8615
2003.899435 0.8600 0.8600 0.8600 0.8600 0.8600
2008.769574 0.8600 0.8600 0.8595 0.8590 0.8595
2013.639713 0.8600 0.8580 0.8560 0.8560 0.8560
2018.509852 0.8580 0.8600 0.8615 0.8630 0.8630
2023.379991 0.8630 0.8610 0.8590 0.8585 0.8580
2028.250130 0.8570 0.8560 0.8560 0.8560 0.8560
2033.120269 0.8560 0.8560 0.8560 0.8560 0.8560
2037.990408 0.8575 0.8590 0.8595 0.8600 0.8600
2042.860547 0.8600 0.8595 0.8590 0.8585 0.8580
2047.730686 0.8570 0.8560 0.8550 0.8540 0.8540
2052.600825 0.8540 0.8530 0.8520 0.8520 0.8520
2057.470964 0.8520 0.8520 0.8520 0.8520 0.8520
2062.341103 0.8520 0.8520 0.8520 0.8520 0.8520
2067.211242 0.8520 0.8520 0.8520 0.8520 0.8520
2072.081381 0.8520 0.8515 0.8510 0.8515 0.8520
2076.951520 0.8520 0.8520 0.8530 0.8540 0.8530
2081.821659 0.8520 0.8520 0.8520 0.8520 0.8520
2086.691798 0.8520 0.8520 0.8520 0.8520 0.8520
2091.561937 0.8520 0.8520 0.8520 0.8515 0.8510
2096.432076 0.8505 0.8500 0.8485 0.8470 0.8465
2101.302215 0.8460 0.8460 0.8460 0.8475 0.8490
2106.172354 0.8490 0.8490 0.8490 0.8490 0.8480
2111.042493 0.8470 0.8465 0.8460 0.8460 0.8460
2115.912632 0.8475 0.8490 0.8490 0.8490 0.8480
2120.782771 0.8470 0.8470 0.8470 0.8470 0.8470
2125.652910 0.8470 0.8470 0.8470 0.8470 0.8470
2130.523049 0.8470 0.8470 0.8470 0.8465 0.8460
2135.393188 0.8445 0.8430 0.8430 0.8430 0.8420
2140.263327 0.8410 0.8415 0.8420 0.8415 0.8410
2145.133466 0.8410 0.8410 0.8405 0.8400 0.8400
2150.003605 0.8400 0.8400 0.8400 0.8405 0.8410
2154.873744 0.8415 0.8420 0.8435 0.8450 0.8450
2159.743883 0.8450 0.8430 0.8410 0.8405 0.8400
2164.614022 0.8390 0.8380 0.8380 0.8380 0.8380
2169.484161 0.8380 0.8375 0.8370 0.8370 0.8370
2174.354300 0.8375 0.8380 0.8390 0.8400 0.8400
2179.224439 0.8400 0.8400 0.8400 0.8385 0.8370
2184.094578 0.8365 0.8360 0.8350 0.8340 0.8340
2188.964717 0.8340 0.8340 0.8340 0.8335 0.8330
2193.834856 0.8330 0.8330 0.8330 0.8330 0.8335
2198.704995 0.8340 0.8350 0.8360 0.8370 0.8380
2203.575134 0.8380 0.8380 0.8370 0.8360 0.8350
2208.445273 0.8340 0.8340 0.8340 0.8330 0.8320
2213.315412 0.8310 0.8300 0.8295 0.8290 0.8295
2218.185551 0.8300 0.8295 0.8290 0.8285 0.8280
2223.055690 0.8280 0.8280 0.8280 0.8280 0.8280
2227.925829 0.8280 0.8275 0.8270 0.8275 0.8280
2232.795968 0.8280 0.8280 0.8280 0.8280 0.8285
2237.666107 0.8290 0.8290 0.8290 0.8285 0.8280
2242.536246 0.8280 0.8280 0.8280 0.8280 0.8275
2247.406385 0.8270 0.8270 0.8270 0.8260 0.8250
2252.276524 0.8245 0.8240 0.8240 0.8240 0.8235
2257.146663 0.8230 0.8220 0.8210 0.8205 0.8200
2262.016802 0.8200 0.8200 0.8200 0.8200 0.8200
2266.886941 0.8200 0.8200 0.8200 0.8200 0.8200
2271.757080 0.8205 0.8210 0.8225 0.8240 0.8245
2276.627219 0.8250 0.8245 0.8240 0.8240 0.8240
2281.497358 0.8240 0.8240 0.8240 0.8240 0.8240
2286.367497 0.8240 0.8240 0.8240 0.8240 0.8240
2291.237636 0.8240 0.8240 0.8245 0.8250 0.8260
2296.107775 0.8270 0.8275 0.8280 0.8280 0.8280
2300.977914 0.8275 0.8270 0.8260 0.8250 0.8240
2305.848053 0.8230 0.8230 0.8230 0.8215 0.8200
2310.718192 0.8200 0.8200 0.8200 0.8200 0.8195
2315.588331 0.8190 0.8190 0.8190 0.8185 0.8180
2320.458470 0.8170 0.8160 0.8150 0.8140 0.8140
2325.328609 0.8140 0.8130 0.8120 0.8120 0.8120
2330.198748 0.8120 0.8120 0.8115 0.8110 0.8105
2335.068887 0.8100 0.8095 0.8090 0.8090 0.8090
2339.939026 0.8090 0.8090 0.8090 0.8090 0.8090
2344.809165 0.8090 0.8090 0.8090 0.8090 0.8090
2349.679304 0.8090 0.8090 0.8090 0.8090 0.8090
2354.549443 0.8090 0.8090 0.8090 0.8080 0.8070
2359.419583 0.8065 0.8060 0.8055 0.8050 0.8040
2364.289722 0.8030 0.8030 0.8030 0.8030 0.8030
2369.159861 0.8030 0.8030 0.8030 0.8030 0.8030
2374.030000 0.8030 0.8025 0.8020 0.8020 0.8020
2378.900139 0.8020 0.8020 0.8020 0.8020 0.8020
2383.770278 0.8020 0.8020 0.8020 0.8020 0.8020
2388.640417 0.8020 0.8020 0.8020 0.8020 0.8015
2393.510556 0.8010 0.8010 0.8010 0.8010 0.8010
2398.380695 0.8010 0.8010 0.8010 0.8010 0.7995
2403.250834 0.7980 0.7975 0.7970 0.7970 0.7970
2408.120973 0.7970 0.7970 0.7965 0.7960 0.7960
2412.991112 0.7960 0.7950 0.7940 0.7935 0.7930
2417.861251 0.7915 0.7900 0.7890 0.7880 0.7845
2422.731390 0.7810 0.7805 0.7800 0.7800 0.7800
2427.601529 0.7800 0.7800 0.7800 0.7800 0.7800
2432.471668 0.7800 0.7800 0.7800 0.7800 0.7800
2437.341807 0.7790 0.7780 0.7780 0.7780 0.7770
2442.211946 0.7760 0.7755 0.7750 0.7745 0.7740
2447.082085 0.7730 0.7720 0.7720 0.7720 0.7720
2451.952224 0.7720 0.7715 0.7710 0.7710 0.7710
2456.822363 0.7700 0.7690 0.7675 0.7660 0.7655
2461.692502 0.7650 0.7635 0.7620 0.7615 0.7610
2466.562641 0.7610 0.7610 0.7610 0.7610 0.7605
2471.432780 0.7600 0.7600 0.7600 0.7600 0.7600
2476.302919 0.7600 0.7600 0.7590 0.7580 0.7575
2481.173058 0.7570 0.7570 0.7570 0.7575 0.7580
2486.043197 0.7580 0.7580 0.7575 0.7570 0.7555
2490.913336 0.7540 0.7520 0.7500 0.7495 0.7490
2495.783475 0.7480 0.7470 0.7450 0.7430 0.7415
2500.653614 0.7400 0.7395 0.7390 0.7390 0.7390
2505.523753 0.7390 0.7390 0.7385 0.7380 0.7380
2510.393892 0.7380 0.7380 0.7380 0.7380 0.7380
2515.264031 0.7380 0.7380 0.7370 0.7360 0.7360
2520.134170 0.7360 0.7355 0.7350 0.7350 0.7350
2525.004309 0.7345 0.7340 0.7340 0.7340 0.7325
2529.874448 0.7310 0.7310 0.7310 0.7310 0.7310
2534.744587 0.7310 0.7310 0.7305 0.7300 0.7300
2539.614726 0.7300 0.7300 0.7300 0.7300 0.7300
2544.484865 0.7300 0.7300 0.7300 0.7300 0.7300
2549.355004 0.7300 0.7295 0.7290 0.7290 0.7290
2554.225143 0.7290 0.7290 0.7290 0.7290 0.7290
2559.095282 0.7290 0.7290 0.7290 0.7290 0.7290
2563.965421 0.7290 0.7290 0.7290 0.7290 0.7290
2568.835560 0.7290 0.7290 0.7290 0.7290 0.7290
2573.705699 0.7290 0.7290 0.7290 0.7290 0.7290
2578.575838 0.7290 0.7290 0.7290 0.7290 0.7290
2583.445977 0.7295 0.7300 0.7300 0.7300 0.7305
2588.316116 0.7310 0.7310 0.7310 0.7310 0.7310
2593.186255 0.7305 0.7300 0.7300 0.7300 0.7300
2598.056394 0.7300 0.7300 0.7300 0.7300 0.7300
2602.926533 0.7300 0.7300 0.7300 0.7300 0.7300
2607.796672 0.7300 0.7305 0.7310 0.7315 0.7320
2612.666811 0.7320 0.7320 0.7315 0.7310 0.7310
2617.536950 0.7310 0.7310 0.7310 0.7305 0.7300
2622.407089 0.7295 0.7290 0.7290 0.7290 0.7290
2627.277228 0.7290 0.7290 0.7290 0.7290 0.7290
2632.147367 0.7290 0.7290 0.7280 0.7270 0.7270
2637.017506 0.7270 0.7265 0.7260 0.7255 0.7250
2641.887645 0.7235 0.7220 0.7200 0.7180 0.7170
2646.757784 0.7160 0.7150 0.7140 0.7140 0.7140
2651.627923 0.7130 0.7120 0.7120 0.7120 0.7120
2656.498062 0.7120 0.7120 0.7120 0.7110 0.7100
2661.368201 0.7100 0.7100 0.7100 0.7100 0.7100
2666.238340 0.7100 0.7100 0.7100 0.7100 0.7100
2671.108479 0.7100 0.7100 0.7110 0.7120 0.7120
2675.978618 0.7120 0.7120 0.7120 0.7120 0.7120
2680.848757 0.7125 0.7130 0.7130 0.7130 0.7130
2685.718896 0.7130 0.7130 0.7130 0.7135 0.7140
2690.589035 0.7150 0.7160 0.7165 0.7170 0.7170
2695.459174 0.7170 0.7170 0.7170 0.7175 0.7180
2700.329313 0.7180 0.7180 0.7180 0.7180 0.7190
2705.199452 0.7200 0.7205 0.7210 0.7210 0.7210
2710.069591 0.7215 0.7220 0.7220 0.7220 0.7225
2714.939730 0.7230 0.7230 0.7230 0.7230 0.7230
2719.809869 0.7230 0.7230 0.7230 0.7230 0.7225
2724.680008 0.7220 0.7215 0.7210 0.7205 0.7200
2729.550147 0.7200 0.7200 0.7200 0.7200 0.7200
2734.420286 0.7200 0.7200 0.7200 0.7200 0.7200
2739.290425 0.7200 0.7200 0.7190 0.7180 0.7180
2744.160564 0.7180 0.7180 0.7180 0.7180 0.7180
2749.030703 0.7180 0.7180 0.7175 0.7170 0.7170
2753.900843 0.7170 0.7165 0.7160 0.7150 0.7140
2758.770982 0.7130 0.7120 0.7125 0.7130 0.7130
2763.641121 0.7130 0.7130 0.7130 0.7125 0.7120
2768.511260 0.7110 0.7100 0.7110 0.7120 0.7110
2773.381399 0.7100 0.7100 0.7100 0.7095 0.7090
2778.251538 0.7090 0.7090 0.7080 0.7070 0.7035
2783.121677 0.7000 0.6995 0.6990 0.6985 0.6980
2787.991816 0.6970 0.6960 0.6960 0.6960 0.6955
2792.861955 0.6950 0.6945 0.6940 0.6940 0.6940
2797.732094 0.6925 0.6910 0.6905 0.6900 0.6895
2802.602233 0.6890 0.6890 0.6890 0.6880 0.6870
2807.472372 0.6860 0.6850 0.6840 0.6830 0.6820
2812.342511 0.6810 0.6810 0.6810 0.6805 0.6800
2817.212650 0.6800 0.6800 0.6790 0.6780 0.6750
2822.082789 0.6720 0.6705 0.6690 0.6685 0.6680
2826.952928 0.6680 0.6680 0.6680 0.6680 0.6675
2831.823067 0.6670 0.6655 0.6640 0.6625 0.6610
2836.693206 0.6610 0.6610 0.6605 0.6600 0.6595
2841.563345 0.6590 0.6590 0.6590 0.6585 0.6580
2846.433484 0.6580 0.6580 0.6570 0.6560 0.6555
2851.303623 0.6550 0.6545 0.6540 0.6540 0.6540
2856.173762 0.6530 0.6520 0.6515 0.6510 0.6505
2861.043901 0.6500 0.6495 0.6490 0.6480 0.6470
2865.914040 0.6470 0.6470 0.6460 0.6450 0.6440
2870.784179 0.6430 0.6430 0.6430 0.6425 0.6420
2875.654318 0.6415 0.6410 0.6410 0.6410 0.6405
2880.524457 0.6400 0.6400 0.6400 0.6390 0.6380
2885.394596 0.6380 0.6380 0.6370 0.6360 0.6350
2890.264735 0.6340 0.6335 0.6330 0.6330 0.6330
2895.134874 0.6330 0.6330 0.6335 0.6340 0.6340
2900.005013 0.6340 0.6355 0.6370 0.6375 0.6380
2904.875152 0.6380 0.6380 0.6390 0.6400 0.6400
2909.745291 0.6400 0.6390 0.6380 0.6375 0.6370
2914.615430 0.6350 0.6330 0.6315 0.6300 0.6290
2919.485569 0.6280 0.6265 0.6250 0.6245 0.6240
2924.355708 0.6240 0.6240 0.6240 0.6240 0.6235
2929.225847 0.6230 0.6230 0.6230 0.6220 0.6210
2934.095986 0.6205 0.6200 0.6195 0.6190 0.6155
2938.966125 0.6120 0.6095 0.6070 0.6040 0.6010
2943.836264 0.6005 0.6000 0.6000 0.6000 0.5990
2948.706403 0.5980 0.5980 0.5980 0.5980 0.5980
2953.576542 0.5975 0.5970 0.5970 0.5970 0.5970
2958.446681 0.5970 0.5970 0.5970 0.5965 0.5960
2963.316820 0.5950 0.5940 0.5940 0.5940 0.5940
2968.186959 0.5940 0.5935 0.5930 0.5930 0.5930
2973.057098 0.5930 0.5930 0.5935 0.5940 0.5950
2977.927237 0.5960 0.5965 0.5970 0.5985 0.6000
2982.797376 0.6010 0.6020 0.6025 0.6030 0.6030
2987.667515 0.6030 0.6030 0.6030 0.6040 0.6050
2992.537654 0.6050 0.6050 0.6050 0.6050 0.6050
2997.407793 0.6050 0.6050 0.6050 0.6055 0.6060
3002.277932 0.6060 0.6060 0.6060 0.6060 0.6060
3007.148071 0.6060 0.6055 0.6050 0.6050 0.6050
3012.018210 0.6040 0.6030 0.6030 0.6030 0.6030
3016.888349 0.6030 0.6030 0.6030 0.6025 0.6020
3021.758488 0.6015 0.6010 0.6010 0.6010 0.6010
3026.628627 0.6010 0.6005 0.6000 0.6000 0.6000
3031.498766 0.6000 0.6000 0.6000 0.6000 0.6000
3036.368905 0.6000 0.6000 0.6000 0.5990 0.5980
3041.239044 0.5980 0.5980 0.5980 0.5980 0.5980
3046.109183 0.5980 0.5980 0.5980 0.5975 0.5970
3050.979322 0.5970 0.5970 0.5970 0.5970 0.5970
3055.849461 0.5970 0.5965 0.5960 0.5960 0.5960
3060.719600 0.5960 0.5960 0.5960 0.5960 0.5950
3065.589739 0.5940 0.5940 0.5940 0.5935 0.5930
3070.459878 0.5925 0.5920 0.5910 0.5900 0.5895
3075.330017 0.5890 0.5890 0.5890 0.5880 0.5870
3080.200156 0.5860 0.5850 0.5845 0.5840 0.5845
3085.070295 0.5850 0.5870 0.5890 0.5905 0.5920
3089.940434 0.5950 0.5980 0.5995 0.6010 0.6020
3094.810573 0.6030 0.6040 0.6050 0.6060 0.6070
3099.680712 0.6090 0.6110 0.6125 0.6140 0.6150
3104.550851 0.6160 0.6170 0.6180 0.6185 0.6190
3109.420990 0.6190 0.6190 0.6195 0.6200 0.6205
3114.291129 0.6210 0.6220 0.6230 0.6235 0.6240
3119.161268 0.6255 0.6270 0.6270 0.6270 0.6275
3124.031407 0.6280 0.6280 0.6280 0.6285 0.6290
3128.901546 0.6290 0.6290 0.6295 0.6300 0.6300
3133.771685 0.6300 0.6315 0.6330 0.6345 0.6360
3138.641824 0.6365 0.6370 0.6375 0.6380 0.6390
3143.511964 0.6400 0.6405 0.6410 0.6415 0.6420
3148.382103 0.6425 0.6430 0.6430 0.6430 0.6430
3153.252242 0.6430 0.6430 0.6430 0.6430 0.6430
3158.122381 0.6440 0.6450 0.6450 0.6450 0.6460
3162.992520 0.6470 0.6470 0.6470 0.6470 0.6470
3167.862659 0.6470 0.6470 0.6465 0.6460 0.6460
3172.732798 0.6460 0.6465 0.6470 0.6470 0.6470
3177.602937 0.6470 0.6470 0.6480 0.6490 0.6490
3182.473076 0.6490 0.6480 0.6470 0.6470 0.6470
3187.343215 0.6470 0.6470 0.6470 0.6470 0.6470
3192.213354 0.6470 0.6480 0.6490 0.6495 0.6500
3197.083493 0.6500 0.6500 0.6505 0.6510 0.6505
3201.953632 0.6500 0.6505 0.6510 0.6510 0.6510
3206.823771 0.6510 0.6510 0.6510 0.6510 0.6515
3211.693910 0.6520 0.6520 0.6520 0.6530 0.6540
3216.564049 0.6545 0.6550 0.6550 0.6550 0.6550
3221.434188 0.6550 0.6555 0.6560 0.6560 0.6560
3226.304327 0.6570 0.6580 0.6580 0.6580 0.6580
3231.174466 0.6580 0.6570 0.6560 0.6560 0.6560
3236.044605 0.6570 0.6580 0.6590 0.6600 0.6605
3240.914744 0.6610 0.6610 0.6610 0.6610 0.6610
3245.784883 0.6620 0.6630 0.6630 0.6630 0.6635
3250.655022 0.6640 0.6640 0.6640 0.6640 0.6640
3255.525161 0.6640 0.6640 0.6645 0.6650 0.6650
3260.395300 0.6650 0.6665 0.6680 0.6685 0.6690
3265.265439 0.6690 0.6690 0.6695 0.6700 0.6700
3270.135578 0.6700 0.6710 0.6720 0.6720 0.6720
3275.005717 0.6725 0.6730 0.6730 0.6730 0.6735
3279.875856 0.6740 0.6750 0.6760 0.6765 0.6770
3284.745995 0.6775 0.6780 0.6800 0.6820 0.6835
3289.616134 0.6850 0.6855 0.6860 0.6860 0.6860
3294.486273 0.6860 0.6860 0.6860 0.6860 0.6865
3299.356412 0.6870 0.6870 0.6870 0.6880 0.6890
3304.226551 0.6895 0.6900 0.6905 0.6910 0.6910
3309.096690 0.6910 0.6915 0.6920 0.6920 0.6920
3313.966829 0.6930 0.6940 0.6945 0.6950 0.6955
3318.836968 0.6960 0.6970 0.6980 0.6985 0.6990
3323.707107 0.6995 0.7000 0.7005 0.7010 0.7010
3328.577246 0.7010 0.7020 0.7030 0.7035 0.7040
3333.447385 0.7055 0.7070 0.7075 0.7080 0.7090
3338.317524 0.7100 0.7110 0.7120 0.7125 0.7130
3343.187663 0.7145 0.7160 0.7170 0.7180 0.7180
3348.057802 0.7180 0.7190 0.7200 0.7230 0.7260
3352.927941 0.7265 0.7270 0.7270 0.7270 0.7280
3357.798080 0.7290 0.7290 0.7290 0.7295 0.7300
3362.668219 0.7305 0.7310 0.7310 0.7310 0.7325
3367.538358 0.7340 0.7345 0.7350 0.7355 0.7360
3372.408497 0.7360 0.7360 0.7370 0.7380 0.7380
3377.278636 0.7380 0.7385 0.7390 0.7395 0.7400
3382.148775 0.7405 0.7410 0.7420 0.7430 0.7435
3387.018914 0.7440 0.7445 0.7450 0.7450 0.7450
3391.889053 0.7460 0.7470 0.7470 0.7470 0.7475
3396.759192 0.7480 0.7485 0.7490 0.7495 0.7500
3401.629331 0.7500 0.7500 0.7515 0.7530 0.7535
3406.499470 0.7540 0.7550 0.7560 0.7565 0.7570
3411.369609 0.7575 0.7580 0.7580 0.7580 0.7580
3416.239748 0.7580 0.7590 0.7600 0.7605 0.7610
3421.109887 0.7610 0.7610 0.7590 0.7570 0.7555
3425.980026 0.7540 0.7540 0.7540 0.7560 0.7580
3430.850165 0.7590 0.7600 0.7605 0.7610 0.7610
3435.720304 0.7610 0.7605 0.7600 0.7600 0.7600
3440.590443 0.7590 0.7580 0.7575 0.7570 0.7565
3445.460582 0.7560 0.7560 0.7560 0.7550 0.7540
3450.330721 0.7540 0.7540 0.7555 0.7570 0.7575
3455.200860 0.7580 0.7595 0.7610 0.7620 0.7630
3460.070999 0.7645 0.7660 0.7665 0.7670 0.7680
3464.941138 0.7690 0.7690 0.7690 0.7695 0.7700
3469.811277 0.7705 0.7710 0.7725 0.7740 0.7750
3474.681416 0.7760 0.7770 0.7780 0.7785 0.7790
3479.551555 0.7795 0.7800 0.7805 0.7810 0.7825
3484.421694 0.7840 0.7845 0.7850 0.7860 0.7870
3489.291833 0.7870 0.7870 0.7875 0.7880 0.7880
3494.161972 0.7880 0.7885 0.7890 0.7890 0.7890
3499.032111 0.7895 0.7900 0.7900 0.7900 0.7900
3503.902250 0.7900 0.7900 0.7900 0.7900 0.7900
3508.772389 0.7900 0.7900 0.7900 0.7900 0.7910
3513.642528 0.7920 0.7925 0.7930 0.7930 0.7930
3518.512667 0.7945 0.7960 0.7970 0.7980 0.7980
3523.382806 0.7980 0.7990 0.8000 0.8000 0.8000
3528.252945 0.8005 0.8010 0.8015 0.8020 0.8025
3533.123084 0.8030 0.8030 0.8030 0.8015 0.8000
3537.993224 0.8000 0.8000 0.7990 0.7980 0.7995
3542.863363 0.8010 0.8030 0.8050 0.8055 0.8060
3547.733502 0.8065 0.8070 0.8070 0.8070 0.8070
3552.603641 0.8070 0.8070 0.8070 0.8060 0.8050
3557.473780 0.8050 0.8050 0.8060 0.8070 0.8085
3562.343919 0.8100 0.8105 0.8110 0.8125 0.8140
3567.214058 0.8140 0.8140 0.8145 0.8150 0.8150
3572.084197 0.8150 0.8155 0.8160 0.8160 0.8160
3576.954336 0.8170 0.8180 0.8180 0.8180 0.8180
3581.824475 0.8180 0.8190 0.8200 0.8205 0.8210
3586.694614 0.8210 0.8210 0.8220 0.8230 0.8235
3591.564753 0.8240 0.8255 0.8270 0.8270 0.8270
3596.434892 0.8275 0.8280 0.8280 0.8280 0.8280
3601.305031 0.8280 0.8285 0.8290 0.8285 0.8280
3606.175170 0.8285 0.8290 0.8295 0.8300 0.8310
3611.045309 0.8320 0.8320 0.8320 0.8330 0.8340
3615.915448 0.8340 0.8340 0.8335 0.8330 0.8310
3620.785587 0.8290 0.8310 0.8330 0.8335 0.8340
3625.655726 0.8350 0.8360 0.8360 0.8360 0.8360
3630.525865 0.8360 0.8350 0.8340 0.8335 0.8330
3635.396004 0.8325 0.8320 0.8310 0.8300 0.8295
3640.266143 0.8290 0.8290 0.8290 0.8310 0.8330
3645.136282 0.8335 0.8340 0.8350 0.8360 0.8365
3650.006421 0.8370 0.8365 0.8360 0.8350 0.8340
3654.876560 0.8355 0.8370 0.8370 0.8370 0.8365
3659.746699 0.8360 0.8360 0.8360 0.8360 0.8360
3664.616838 0.8350 0.8340 0.8335 0.8330 0.8315
3669.486977 0.8300 0.8295 0.8290 0.8290 0.8290
3674.357116 0.8290 0.8290 0.8290 0.8290 0.8295
3679.227255 0.8300 0.8310 0.8320 0.8320 0.8320
3684.097394 0.8325 0.8330 0.8330 0.8330 0.8335
3688.967533 0.8340 0.8335 0.8330 0.8330 0.8330
3693.837672 0.8330 0.8330 0.8335 0.8340 0.8340
3698.707811 0.8340 0.8340 0.8340 0.8340 0.8340
3703.577950 0.8335 0.8330 0.8330 0.8330 0.8325
3708.448089 0.8320 0.8320 0.8320 0.8320 0.8320
3713.318228 0.8320 0.8320 0.8320 0.8320 0.8320
3718.188367 0.8320 0.8325 0.8330 0.8335 0.8340
3723.058506 0.8335 0.8330 0.8330 0.8330 0.8330
3727.928645 0.8330 0.8330 0.8330 0.8330 0.8330
3732.798784 0.8335 0.8340 0.8340 0.8340 0.8340
3737.668923 0.8340 0.8340 0.8340 0.8340 0.8340
3742.539062 0.8340 0.8340 0.8340 0.8340 0.8350
3747.409201 0.8360 0.8360 0.8360 0.8360 0.8360
3752.279340 0.8350 0.8340 0.8340 0.8340 0.8340
3757.149479 0.8340 0.8335 0.8330 0.8325 0.8320
3762.019618 0.8305 0.8290 0.8285 0.8280 0.8280
3766.889757 0.8280 0.8285 0.8290 0.8295 0.8300
3771.759896 0.8310 0.8320 0.8320 0.8320 0.8320
3776.630035 0.8320 0.8325 0.8330 0.8330 0.8330
3781.500174 0.8310 0.8290 0.8285 0.8280 0.8300
3786.370313 0.8320 0.8320 0.8320 0.8320 0.8320
3791.240452 0.8305 0.8290 0.8290 0.8290 0.8290
3796.110591 0.8290 0.8285 0.8280 0.8280 0.8280
3800.980730 0.8280 0.8280 0.8280 0.8280 0.8280
3805.850869 0.8280 0.8280 0.8280 0.8285 0.8290
3810.721008 0.8290 0.8290 0.8290 0.8290 0.8285
3815.591147 0.8280 0.8280 0.8280 0.8280 0.8280
3820.461286 0.8280 0.8280 0.8280 0.8280 0.8280
3825.331425 0.8280 0.8280 0.8280 0.8285 0.8290
3830.201564 0.8295 0.8300 0.8300 0.8300 0.8300
3835.071703 0.8300 0.8300 0.8300 0.8310 0.8320
3839.941842 0.8310 0.8300 0.8290 0.8280 0.8280
3844.811981 0.8280 0.8275 0.8270 0.8270 0.8270
3849.682120 0.8270 0.8270 0.8270 0.8270 0.8270
3854.552259 0.8270 0.8270 0.8270 0.8270 0.8270
3859.422398 0.8260 0.8250 0.8250 0.8250 0.8265
3864.292537 0.8280 0.8280 0.8280 0.8280 0.8280
3869.162676 0.8275 0.8270 0.8270 0.8270 0.8270
3874.032815 0.8270 0.8275 0.8280 0.8280 0.8280
3878.902954 0.8275 0.8270 0.8270 0.8270 0.8275
3883.773093 0.8280 0.8280 0.8280 0.8280 0.8280
3888.643232 0.8275 0.8270 0.8255 0.8240 0.8240
3893.513371 0.8240 0.8255 0.8270 0.8270 0.8270
3898.383510 0.8275 0.8280 0.8280 0.8280 0.8280
3903.253649 0.8280 0.8255 0.8230 0.8230 0.8230
3908.123788 0.8250 0.8270 0.8275 0.8280 0.8280
3912.993927 0.8280 0.8275 0.8270 0.8270 0.8270
3917.864066 0.8255 0.8240 0.8240 0.8240 0.8265
3922.734205 0.8290 0.8285 0.8280 0.8265 0.8250
3927.604345 0.8250 0.8250 0.8245 0.8240 0.8240
3932.474484 0.8240 0.8235 0.8230 0.8215 0.8200
3937.344623 0.8195 0.8190 0.8190 0.8190 0.8210
3942.214762 0.8230 0.8230 0.8230 0.8240 0.8250
3947.084901 0.8260 0.8270 0.8275 0.8280 0.8280
3951.955040 0.8280 0.8275 0.8270 0.8270 0.8270
3956.825179 0.8260 0.8250 0.8245 0.8240 0.8240
3961.695318 0.8240 0.8245 0.8250 0.8260 0.8270
3966.565457 0.8270 0.8270 0.8260 0.8250 0.8250
3971.435596 0.8250 0.8240 0.8230 0.8230 0.8230
3976.305735 0.8235 0.8240 0.8245 0.8250 0.8260
3981.175874 0.8270 0.8275 0.8280 0.8285 0.8290
3986.046013 0.8285 0.8280 0.8275 0.8270 0.8260
3990.916152 0.8250 0.8245 0.8240 0.8240 0.8240
3995.786291 0.8225 0.8210 0.8210 0.8210 0.8205
4000.656430 0.8200 0.8200 0.8200
##END=
