##TITLE=DIISOBUTYLENE
##JCAMP-DX=4.24
##DATA TYPE=INFRARED SPECTRUM
##CLASS=COBLENTZ
##ORIGIN=PERKIN-ELMER CORP. (M. ZELLER)
##OWNER=COBLENTZ SOCIETY
Collection (C) 2018 copyright by the U.S. Secretary of Commerce
on behalf of the United States of America. All rights reserved.
##DATE=1977/07/27
##NAMES=ISOMERS - PRINCIPALLY 2,4,4-TRIMETHYLPENTENE-1, PLUS 2,4,4-TRIMETHYLPENTENE-2
##MOLFORM=C8 H16
##BP=101 C
##SOURCE REFERENCE=COBLENTZ NO. 10545
##$NIST ID=B6010545
##$NIST SOURCE=COBLENTZ
##$NIST IMAGE=cob-r10545
##SPECTROMETER/DATA SYSTEM=PERKIN-ELMER 180
##INSTRUMENT PARAMETERS=
$$ ABSORPTION DUE TO AN UNKNOWN AT 1710 CM^-^1.
##STATE=VAPOR (13 MICROLITER AT 150 C)
##PATH LENGTH=5 CM KBr CELL, CELL VOLUME: 80 CM^3
##SAMPLING PROCEDURE=TRANSMISSION
##RESOLUTION=2-3 CM^-^1
##DATA PROCESSING=DIGITIZED BY NIST FROM HARD COPY (FROM TWO SEGMENTS)
##XUNITS=1/CM
##YUNITS=TRANSMITTANCE
##XFACTOR=1.000000
##YFACTOR=1
##DELTAX=1.347936
##FIRSTX=409.436
##LASTX=4009.77
##FIRSTY=0.502
##MAXX=4009.77
##MINX=409.436
##MAXY=0.93
##MINY=0.071243
##NPOINTS=2672
##XYDATA=(X++(Y..Y))
409.436000 0.5020 0.5130 0.5210 0.5320 0.5420
416.175678 0.5520 0.5600 0.5689 0.5740 0.5839
422.915356 0.5980 0.6020 0.6120 0.6260 0.6360
429.655034 0.6440 0.6540 0.6649 0.6729 0.6799
436.394712 0.6880 0.6950 0.7030 0.7080 0.7140
443.134390 0.7220 0.7260 0.7340 0.7370 0.7390
449.874068 0.7520 0.7580 0.7660 0.7710 0.7730
456.613746 0.7770 0.7810 0.7880 0.7940 0.8000
463.353424 0.8040 0.8100 0.8140 0.8190 0.8250
470.093102 0.8310 0.8340 0.8410 0.8440 0.8519
476.832780 0.8520 0.8550 0.8600 0.8640 0.8680
483.572458 0.8720 0.8750 0.8780 0.8800 0.8830
490.312136 0.8840 0.8870 0.8880 0.8910 0.8920
497.051814 0.8920 0.8910 0.8880 0.8870 0.8860
503.791492 0.8860 0.8870 0.8880 0.8900 0.8920
510.531169 0.8940 0.8950 0.8970 0.8980 0.9010
517.270847 0.9020 0.9030 0.9030 0.9050 0.9050
524.010525 0.9050 0.9050 0.9050 0.9050 0.9050
530.750203 0.9050 0.9030 0.9030 0.9030 0.9030
537.489881 0.9020 0.9010 0.8980 0.8980 0.8970
544.229559 0.8970 0.8950 0.8950 0.8940 0.8940
550.969237 0.8940 0.8940 0.8940 0.8940 0.8950
557.708915 0.8950 0.8970 0.8970 0.8980 0.9020
564.448593 0.9030 0.9050 0.9060 0.9100 0.9110
571.188271 0.9130 0.9140 0.9170 0.9180 0.9200
577.927949 0.9210 0.9220 0.9220 0.9240 0.9240
584.667627 0.9250 0.9250 0.9250 0.9250 0.9250
591.407305 0.9250 0.9250 0.9250 0.9250 0.9250
598.146983 0.9250 0.9250 0.9260 0.9260 0.9280
604.886661 0.9280 0.9280 0.9280 0.9280 0.9280
611.626339 0.9280 0.9280 0.9280 0.9280 0.9290
618.366017 0.9290 0.9290 0.9290 0.9290 0.9290
625.105695 0.9300 0.9300 0.9300 0.9300 0.9300
631.845373 0.9300 0.9300 0.9300 0.9300 0.9300
638.585051 0.9300 0.9300 0.9300 0.9300 0.9300
645.324729 0.9290 0.9290 0.9290 0.9290 0.9290
652.064407 0.9290 0.9280 0.9280 0.9280 0.9280
658.804085 0.9290 0.9290 0.9280 0.9280 0.9280
665.543763 0.9280 0.9280 0.9260 0.9260 0.9260
672.283441 0.9260 0.9260 0.9260 0.9260 0.9260
679.023119 0.9250 0.9250 0.9250 0.9250 0.9250
685.762797 0.9240 0.9240 0.9240 0.9220 0.9220
692.502475 0.9220 0.9220 0.9210 0.9210 0.9210
699.242153 0.9210 0.9210 0.9210 0.9210 0.9220
705.981831 0.9220 0.9210 0.9210 0.9210 0.9200
712.721508 0.9200 0.9200 0.9200 0.9200 0.9200
719.461186 0.9180 0.9170 0.9150 0.9150 0.9150
726.200864 0.9140 0.9140 0.9130 0.9130 0.9130
732.940542 0.9110 0.9110 0.9100 0.9090 0.9090
739.680220 0.9090 0.9090 0.9070 0.9070 0.9070
746.419898 0.9070 0.9030 0.9030 0.9010 0.8990
753.159576 0.8990 0.8990 0.8980 0.8980 0.8980
759.899254 0.8980 0.8980 0.8980 0.8980 0.8990
766.638932 0.8990 0.8990 0.9010 0.9010 0.9010
773.378610 0.9010 0.9020 0.9020 0.9020 0.9020
780.118288 0.9020 0.9020 0.9020 0.9020 0.9020
786.857966 0.9020 0.9020 0.9010 0.9010 0.8990
793.597644 0.8990 0.8980 0.8980 0.8970 0.8950
800.337322 0.8950 0.8920 0.8910 0.8900 0.8880
807.077000 0.8860 0.8840 0.8830 0.8820 0.8790
813.816678 0.8780 0.8780 0.8760 0.8750 0.8750
820.556356 0.8760 0.8760 0.8780 0.8790 0.8800
827.296034 0.8800 0.8840 0.8860 0.8870 0.8880
834.035712 0.8880 0.8910 0.8910 0.8920 0.8940
840.775390 0.8940 0.8950 0.8950 0.8950 0.8950
847.515068 0.8970 0.8970 0.8950 0.8950 0.8940
854.254746 0.8940 0.8940 0.8940 0.8910 0.8900
860.994424 0.8860 0.8840 0.8820 0.8760 0.8750
867.734102 0.8720 0.8630 0.8530 0.8420 0.8300
874.473780 0.8141 0.7981 0.7801 0.7522 0.7421
881.213458 0.7330 0.7120 0.6950 0.6760 0.6591
887.953136 0.6431 0.6340 0.6231 0.6091 0.6050
894.692814 0.6090 0.6310 0.6540 0.6720 0.6810
901.432492 0.6999 0.7070 0.7269 0.7677 0.7829
908.172169 0.8020 0.8180 0.8310 0.8440 0.8530
914.911847 0.8630 0.8759 0.8800 0.8860 0.8880
921.651525 0.8910 0.8920 0.8950 0.8970 0.9010
928.391203 0.9010 0.9020 0.9020 0.9030 0.9030
935.130881 0.9050 0.9060 0.9060 0.9090 0.9100
941.870559 0.9100 0.9100 0.9110 0.9110 0.9110
948.610237 0.9110 0.9130 0.9130 0.9130 0.9130
955.349915 0.9110 0.9110 0.9110 0.9110 0.9100
962.089593 0.9090 0.9070 0.9070 0.9070 0.9060
968.829271 0.9050 0.9050 0.9050 0.9030 0.9020
975.568949 0.9020 0.9020 0.9020 0.9020 0.9020
982.308627 0.9020 0.9020 0.9010 0.9010 0.8990
989.048305 0.8980 0.8980 0.8950 0.8950 0.8950
995.787983 0.8940 0.8920 0.8910 0.8900 0.8880
1002.527661 0.8860 0.8860 0.8860 0.8840 0.8840
1009.267339 0.8840 0.8830 0.8830 0.8820 0.8800
1016.007017 0.8790 0.8780 0.8780 0.8780 0.8780
1022.746695 0.8780 0.8760 0.8760 0.8750 0.8750
1029.486373 0.8750 0.8750 0.8750 0.8750 0.8750
1036.226051 0.8760 0.8780 0.8790 0.8790 0.8790
1042.965729 0.8790 0.8790 0.8780 0.8780 0.8780
1049.705407 0.8780 0.8760 0.8750 0.8750 0.8730
1056.445085 0.8730 0.8730 0.8720 0.8710 0.8680
1063.184763 0.8650 0.8640 0.8630 0.8630 0.8610
1069.924441 0.8610 0.8610 0.8610 0.8630 0.8630
1076.664119 0.8630 0.8640 0.8650 0.8670 0.8680
1083.403797 0.8680 0.8690 0.8710 0.8750 0.8760
1090.143475 0.8780 0.8790 0.8790 0.8790 0.8790
1096.883153 0.8790 0.8800 0.8790 0.8790 0.8790
1103.622831 0.8790 0.8800 0.8800 0.8800 0.8800
1110.362508 0.8800 0.8790 0.8780 0.8780 0.8760
1117.102186 0.8760 0.8760 0.8760 0.8750 0.8750
1123.841864 0.8750 0.8730 0.8730 0.8730 0.8720
1130.581542 0.8720 0.8710 0.8690 0.8690 0.8690
1137.321220 0.8680 0.8670 0.8650 0.8640 0.8610
1144.060898 0.8610 0.8600 0.8600 0.8600 0.8590
1150.800576 0.8570 0.8560 0.8550 0.8550 0.8550
1157.540254 0.8550 0.8550 0.8550 0.8550 0.8550
1164.279932 0.8550 0.8550 0.8550 0.8550 0.8550
1171.019610 0.8550 0.8530 0.8520 0.8500 0.8500
1177.759288 0.8490 0.8440 0.8410 0.8360 0.8330
1184.498966 0.8300 0.8290 0.8250 0.8230 0.8180
1191.238644 0.8170 0.8140 0.8130 0.8110 0.8100
1197.978322 0.8100 0.8100 0.8100 0.8110 0.8110
1204.718000 0.8130 0.8140 0.8140 0.8150 0.8150
1211.457678 0.8140 0.8130 0.8100 0.8040 0.8020
1218.197356 0.8000 0.7940 0.7910 0.7850 0.7810
1224.937034 0.7770 0.7730 0.7720 0.7710 0.7690
1231.676712 0.7710 0.7720 0.7750 0.7760 0.7790
1238.416390 0.7830 0.7870 0.7890 0.7920 0.7980
1245.156068 0.7990 0.8030 0.8070 0.8110 0.8140
1251.895746 0.8150 0.8170 0.8180 0.8190 0.8210
1258.635424 0.8230 0.8250 0.8270 0.8300 0.8310
1265.375102 0.8330 0.8360 0.8380 0.8420 0.8450
1272.114780 0.8490 0.8500 0.8520 0.8530 0.8550
1278.854458 0.8560 0.8570 0.8570 0.8570 0.8590
1285.594136 0.8590 0.8590 0.8590 0.8590 0.8570
1292.333814 0.8560 0.8560 0.8550 0.8550 0.8530
1299.073492 0.8530 0.8520 0.8500 0.8500 0.8460
1305.813169 0.8450 0.8440 0.8410 0.8410 0.8400
1312.552847 0.8380 0.8370 0.8370 0.8360 0.8340
1319.292525 0.8340 0.8340 0.8340 0.8340 0.8340
1326.032203 0.8340 0.8340 0.8340 0.8340 0.8340
1332.771881 0.8330 0.8330 0.8330 0.8270 0.8210
1339.511559 0.8150 0.8070 0.7990 0.7850 0.7730
1346.251237 0.7561 0.7470 0.7380 0.7142 0.7031
1352.990915 0.6890 0.6740 0.6550 0.6351 0.6230
1359.730593 0.6091 0.5961 0.5841 0.5820 0.5840
1366.470271 0.5860 0.5880 0.5920 0.5940 0.6000
1373.209949 0.6020 0.6080 0.6309 0.6459 0.6510
1379.949627 0.6620 0.6720 0.6820 0.6930 0.7050
1386.689305 0.7150 0.7230 0.7300 0.7370 0.7410
1393.428983 0.7500 0.7540 0.7570 0.7610 0.7650
1400.168661 0.7690 0.7730 0.7770 0.7810 0.7850
1406.908339 0.7880 0.7890 0.7890 0.7890 0.7910
1413.648017 0.7910 0.7890 0.7880 0.7880 0.7850
1420.387695 0.7810 0.7800 0.7760 0.7720 0.7660
1427.127373 0.7610 0.7560 0.7520 0.7490 0.7450
1433.867051 0.7390 0.7340 0.7280 0.7220 0.7150
1440.606729 0.7080 0.7030 0.6950 0.6861 0.6800
1447.346407 0.6730 0.6660 0.6590 0.6550 0.6500
1454.086085 0.6470 0.6440 0.6400 0.6380 0.6350
1460.825763 0.6320 0.6300 0.6300 0.6300 0.6310
1467.565441 0.6340 0.6350 0.6390 0.6430 0.6470
1474.305119 0.6510 0.6590 0.6700 0.6770 0.6860
1481.044797 0.6970 0.7030 0.7159 0.7259 0.7528
1487.784475 0.7650 0.7760 0.7870 0.7960 0.8040
1494.524153 0.8130 0.8190 0.8260 0.8300 0.8360
1501.263831 0.8380 0.8410 0.8420 0.8440 0.8450
1508.003508 0.8480 0.8490 0.8490 0.8490 0.8490
1514.743186 0.8490 0.8490 0.8490 0.8490 0.8490
1521.482864 0.8490 0.8480 0.8480 0.8480 0.8460
1528.222542 0.8460 0.8450 0.8440 0.8440 0.8420
1534.962220 0.8420 0.8420 0.8420 0.8410 0.8410
1541.701898 0.8410 0.8410 0.8410 0.8380 0.8380
1548.441576 0.8370 0.8370 0.8360 0.8340 0.8340
1555.181254 0.8340 0.8330 0.8330 0.8330 0.8310
1561.920932 0.8310 0.8310 0.8300 0.8290 0.8290
1568.660610 0.8270 0.8260 0.8270 0.8260 0.8260
1575.400288 0.8260 0.8250 0.8250 0.8250 0.8230
1582.139966 0.8230 0.8220 0.8220 0.8220 0.8210
1588.879644 0.8210 0.8210 0.8210 0.8210 0.8210
1595.619322 0.8210 0.8190 0.8190 0.8190 0.8180
1602.359000 0.8170 0.8170 0.8170 0.8170 0.8150
1609.098678 0.8130 0.8100 0.8070 0.8040 0.8030
1615.838356 0.8000 0.7980 0.7940 0.7910 0.7870
1622.578034 0.7810 0.7760 0.7710 0.7640 0.7580
1629.317712 0.7520 0.7500 0.7490 0.7490 0.7430
1636.057390 0.7420 0.7420 0.7410 0.7410 0.7410
1642.797068 0.7410 0.7420 0.7460 0.7470 0.7599
1649.536746 0.7720 0.7750 0.7800 0.7840 0.7910
1656.276424 0.7960 0.8020 0.8060 0.8169 0.8210
1663.016102 0.8230 0.8250 0.8290 0.8300 0.8340
1669.755780 0.8360 0.8370 0.8380 0.8400 0.8400
1676.495458 0.8400 0.8400 0.8400 0.8400 0.8400
1683.235136 0.8400 0.8400 0.8410 0.8410 0.8410
1689.974814 0.8420 0.8410 0.8410 0.8400 0.8400
1696.714492 0.8380 0.8380 0.8380 0.8380 0.8370
1703.454169 0.8370 0.8370 0.8370 0.8360 0.8360
1710.193847 0.8370 0.8370 0.8370 0.8370 0.8380
1716.933525 0.8400 0.8400 0.8410 0.8410 0.8420
1723.673203 0.8440 0.8450 0.8460 0.8460 0.8480
1730.412881 0.8480 0.8490 0.8500 0.8500 0.8520
1737.152559 0.8530 0.8530 0.8550 0.8590 0.8600
1743.892237 0.8610 0.8630 0.8640 0.8650 0.8670
1750.631915 0.8680 0.8680 0.8690 0.8690 0.8710
1757.371593 0.8710 0.8710 0.8710 0.8710 0.8710
1764.111271 0.8710 0.8710 0.8710 0.8710 0.8710
1770.850949 0.8710 0.8710 0.8710 0.8690 0.8690
1777.590627 0.8680 0.8680 0.8670 0.8670 0.8650
1784.330305 0.8650 0.8650 0.8650 0.8650 0.8650
1791.069983 0.8650 0.8670 0.8670 0.8690 0.8710
1797.809661 0.8720 0.8760 0.8790 0.8800 0.8820
1804.549339 0.8840 0.8880 0.8910 0.8910 0.8920
1811.289017 0.8920 0.8940 0.8950 0.8950 0.8950
1818.028695 0.8970 0.8970 0.8980 0.8980 0.8980
1824.768373 0.8990 0.8990 0.8990 0.8990 0.8990
1831.508051 0.9010 0.9010 0.9010 0.9010 0.9010
1838.247729 0.9010 0.9010 0.9010 0.9010 0.9010
1844.987407 0.8990 0.8990 0.8990 0.8990 0.8990
1851.727085 0.8990 0.8990 0.8990 0.8990 0.8990
1858.466763 0.8990 0.8990 0.8980 0.8980 0.8980
1865.206441 0.8980 0.8980 0.8980 0.8980 0.8980
1871.946119 0.8980 0.8980 0.8980 0.8980 0.8980
1878.685797 0.8980 0.8980 0.8980 0.8980 0.8980
1885.425475 0.8980 0.8980 0.8980 0.8980 0.8980
1892.165153 0.8980 0.8980 0.8980 0.8980 0.8980
1898.904831 0.8980 0.8980 0.8980 0.8980 0.8980
1905.644508 0.8980 0.8980 0.8980 0.8980 0.8980
1912.384186 0.8980 0.8980 0.8970 0.8970 0.8970
1919.123864 0.8970 0.8970 0.8970 0.8970 0.8980
1925.863542 0.8980 0.8980 0.8980 0.8980 0.8980
1932.603220 0.8980 0.8970 0.8970 0.8970 0.8970
1939.342898 0.8970 0.8950 0.8940 0.8920 0.8920
1946.082576 0.8920 0.8920 0.8940 0.8940 0.8950
1952.822254 0.8950 0.8940 0.8940 0.8940 0.8950
1959.561932 0.8950 0.8940 0.8940 0.8920 0.8920
1966.301610 0.8910 0.8910 0.8910 0.8910 0.8920
1973.041288 0.8920 0.8920 0.8920 0.8910 0.8910
1979.780966 0.8910 0.8910 0.8910 0.8910 0.8910
1986.520644 0.8920 0.8920 0.8920 0.8920 0.8920
1993.260322 0.8910 0.8920 0.8920 0.8920 0.8920
2000.000000 0.8920 0.8920 0.8920 0.8920 0.8920
2006.739678 0.8920 0.8920 0.8920 0.8920 0.8920
2013.479356 0.8920 0.8915 0.8910 0.8910 0.8910
2020.219034 0.8910 0.8910 0.8910 0.8910 0.8910
2026.958712 0.8910 0.8906 0.8901 0.8900 0.8900
2033.698390 0.8900 0.8900 0.8900 0.8900 0.8900
2040.438068 0.8900 0.8900 0.8900 0.8900 0.8900
2047.177746 0.8900 0.8900 0.8900 0.8900 0.8900
2053.917424 0.8900 0.8900 0.8900 0.8900 0.8900
2060.657102 0.8900 0.8900 0.8900 0.8900 0.8893
2067.396780 0.8883 0.8880 0.8880 0.8887 0.8897
2074.136458 0.8900 0.8900 0.8893 0.8883 0.8880
2080.876136 0.8880 0.8887 0.8897 0.8900 0.8900
2087.615814 0.8900 0.8900 0.8903 0.8908 0.8910
2094.355492 0.8910 0.8910 0.8910 0.8910 0.8910
2101.095169 0.8910 0.8910 0.8910 0.8910 0.8907
2107.834847 0.8902 0.8900 0.8900 0.8900 0.8900
2114.574525 0.8900 0.8900 0.8900 0.8900 0.8900
2121.314203 0.8900 0.8900 0.8900 0.8895 0.8885
2128.053881 0.8880 0.8880 0.8880 0.8880 0.8880
2134.793559 0.8880 0.8880 0.8880 0.8880 0.8880
2141.533237 0.8878 0.8873 0.8870 0.8870 0.8870
2148.272915 0.8870 0.8870 0.8870 0.8870 0.8870
2155.012593 0.8868 0.8863 0.8860 0.8860 0.8860
2161.752271 0.8860 0.8860 0.8860 0.8860 0.8860
2168.491949 0.8860 0.8860 0.8857 0.8847 0.8840
2175.231627 0.8840 0.8838 0.8834 0.8830 0.8830
2181.971305 0.8830 0.8830 0.8830 0.8830 0.8830
2188.710983 0.8830 0.8830 0.8830 0.8830 0.8830
2195.450661 0.8830 0.8830 0.8830 0.8830 0.8830
2202.190339 0.8830 0.8830 0.8830 0.8830 0.8830
2208.930017 0.8830 0.8830 0.8830 0.8830 0.8830
2215.669695 0.8830 0.8829 0.8824 0.8820 0.8820
2222.409373 0.8820 0.8820 0.8820 0.8820 0.8819
2229.149051 0.8809 0.8800 0.8800 0.8800 0.8795
2235.888729 0.8790 0.8790 0.8790 0.8790 0.8790
2242.628407 0.8790 0.8790 0.8790 0.8790 0.8790
2249.368085 0.8790 0.8790 0.8790 0.8785 0.8780
2256.107763 0.8780 0.8780 0.8770 0.8760 0.8760
2262.847441 0.8760 0.8760 0.8760 0.8755 0.8750
2269.587119 0.8750 0.8750 0.8750 0.8750 0.8741
2276.326797 0.8731 0.8730 0.8730 0.8725 0.8721
2283.066475 0.8720 0.8720 0.8720 0.8720 0.8720
2289.806153 0.8720 0.8724 0.8729 0.8730 0.8730
2296.545831 0.8726 0.8721 0.8716 0.8711 0.8710
2303.285508 0.8710 0.8710 0.8710 0.8710 0.8710
2310.025186 0.8710 0.8710 0.8714 0.8719 0.8720
2316.764864 0.8720 0.8724 0.8729 0.8737 0.8747
2323.504542 0.8750 0.8750 0.8743 0.8733 0.8726
2330.244220 0.8721 0.8720 0.8720 0.8720 0.8720
2336.983898 0.8720 0.8720 0.8720 0.8720 0.8717
2343.723576 0.8712 0.8710 0.8710 0.8710 0.8710
2350.463254 0.8710 0.8710 0.8710 0.8710 0.8710
2357.202932 0.8710 0.8710 0.8710 0.8710 0.8710
2363.942610 0.8710 0.8710 0.8710 0.8710 0.8710
2370.682288 0.8710 0.8713 0.8718 0.8720 0.8720
2377.421966 0.8720 0.8720 0.8717 0.8712 0.8710
2384.161644 0.8710 0.8710 0.8710 0.8710 0.8710
2390.901322 0.8710 0.8710 0.8712 0.8717 0.8720
2397.641000 0.8720 0.8720 0.8720 0.8720 0.8720
2404.380678 0.8720 0.8720 0.8720 0.8720 0.8720
2411.120356 0.8720 0.8718 0.8713 0.8710 0.8710
2417.860034 0.8710 0.8710 0.8710 0.8710 0.8707
2424.599712 0.8697 0.8690 0.8690 0.8690 0.8690
2431.339390 0.8690 0.8690 0.8690 0.8690 0.8690
2438.079068 0.8690 0.8690 0.8690 0.8690 0.8690
2444.818746 0.8689 0.8684 0.8680 0.8680 0.8680
2451.558424 0.8680 0.8679 0.8674 0.8670 0.8670
2458.298102 0.8670 0.8670 0.8668 0.8658 0.8650
2465.037780 0.8650 0.8650 0.8650 0.8649 0.8644
2471.777458 0.8640 0.8640 0.8640 0.8640 0.8640
2478.517136 0.8640 0.8640 0.8640 0.8639 0.8634
2485.256814 0.8630 0.8630 0.8630 0.8630 0.8630
2491.996492 0.8630 0.8630 0.8630 0.8630 0.8630
2498.736169 0.8630 0.8630 0.8630 0.8630 0.8630
2505.475847 0.8630 0.8630 0.8620 0.8610 0.8610
2512.215525 0.8610 0.8610 0.8610 0.8610 0.8610
2518.955203 0.8610 0.8610 0.8620 0.8630 0.8630
2525.694881 0.8630 0.8630 0.8630 0.8635 0.8640
2532.434559 0.8640 0.8640 0.8640 0.8640 0.8640
2539.174237 0.8640 0.8640 0.8640 0.8636 0.8631
2545.913915 0.8630 0.8630 0.8630 0.8630 0.8621
2552.653593 0.8612 0.8610 0.8610 0.8610 0.8610
2559.393271 0.8618 0.8628 0.8622 0.8612 0.8610
2566.132949 0.8610 0.8610 0.8610 0.8610 0.8610
2572.872627 0.8606 0.8601 0.8600 0.8600 0.8600
2579.612305 0.8600 0.8596 0.8591 0.8590 0.8590
2586.351983 0.8590 0.8590 0.8583 0.8573 0.8570
2593.091661 0.8570 0.8570 0.8570 0.8570 0.8570
2599.831339 0.8570 0.8570 0.8570 0.8570 0.8570
2606.571017 0.8570 0.8567 0.8562 0.8560 0.8560
2613.310695 0.8557 0.8552 0.8550 0.8550 0.8544
2620.050373 0.8534 0.8530 0.8530 0.8527 0.8522
2626.790051 0.8520 0.8520 0.8520 0.8520 0.8520
2633.529729 0.8520 0.8515 0.8505 0.8500 0.8500
2640.269407 0.8500 0.8500 0.8500 0.8500 0.8498
2647.009085 0.8493 0.8490 0.8490 0.8490 0.8490
2653.748763 0.8488 0.8483 0.8480 0.8480 0.8480
2660.488441 0.8480 0.8480 0.8480 0.8480 0.8480
2667.228119 0.8480 0.8480 0.8480 0.8480 0.8480
2673.967797 0.8480 0.8476 0.8466 0.8460 0.8460
2680.707475 0.8460 0.8460 0.8458 0.8453 0.8448
2687.447153 0.8443 0.8437 0.8427 0.8420 0.8420
2694.186831 0.8420 0.8420 0.8419 0.8414 0.8410
2700.926508 0.8410 0.8410 0.8410 0.8406 0.8391
2707.666186 0.8379 0.8374 0.8366 0.8351 0.8337
2714.405864 0.8322 0.8309 0.8304 0.8299 0.8294
2721.145542 0.8287 0.8272 0.8257 0.8242 0.8229
2727.885220 0.8224 0.8219 0.8214 0.8210 0.8210
2734.624898 0.8210 0.8210 0.8210 0.8210 0.8211
2741.364576 0.8216 0.8220 0.8220 0.8220 0.8225
2748.104254 0.8230 0.8230 0.8231 0.8241 0.8250
2754.843932 0.8255 0.8260 0.8265 0.8270 0.8270
2761.583610 0.8270 0.8270 0.8270 0.8270 0.8270
2768.323288 0.8270 0.8270 0.8265 0.8260 0.8260
2775.062966 0.8260 0.8260 0.8260 0.8255 0.8250
2781.802644 0.8250 0.8250 0.8241 0.8230 0.8221
2788.542322 0.8211 0.8196 0.8181 0.8166 0.8151
2795.282000 0.8141 0.8131 0.8117 0.8102 0.8087
2802.021678 0.8072 0.8053 0.8033 0.8013 0.7993
2808.761356 0.7977 0.7962 0.7952 0.7942 0.7927
2815.501034 0.7912 0.7885 0.7855 0.7825 0.7796
2822.240712 0.7758 0.7718 0.7674 0.7630 0.7585
2828.980390 0.7540 0.7515 0.7495 0.7467 0.7438
2835.720068 0.7382 0.7317 0.7248 0.7178 0.7101
2842.459746 0.7021 0.6931 0.6837 0.6732 0.6622
2849.199424 0.6506 0.6387 0.6302 0.6232 0.6166
2855.939102 0.6102 0.5981 0.5832 0.5667 0.5493
2862.678780 0.5309 0.5121 0.4981 0.4870 0.4763
2869.418458 0.4659 0.4471 0.4232 0.4119 0.4084
2876.158136 0.4046 0.4006 0.3984 0.3974 0.3964
2882.897814 0.3954 0.3956 0.3966 0.3973 0.3978
2889.637492 0.3980 0.3980 0.3972 0.3957 0.3931
2896.377169 0.3897 0.3857 0.3812 0.3765 0.3715
2903.116847 0.3668 0.3623 0.3547 0.3438 0.3331
2909.856525 0.3227 0.3132 0.3047 0.2976 0.2921
2916.596203 0.2877 0.2847 0.2824 0.2809 0.2798
2923.335881 0.2793 0.2792 0.2797 0.2806 0.2821
2930.075559 0.2830 0.2830 0.2824 0.2809 0.2775
2936.815237 0.2705 0.2639 0.2580 0.2520 0.2460
2943.554915 0.2397 0.2328 0.2202 0.1950 0.1737
2950.294593 0.1602 0.1490 0.1425 0.1358 0.1283
2957.034271 0.1193 0.1064 0.0939 0.0825 0.0736
2963.773949 0.0721 0.0712 0.0722 0.0743 0.0797
2970.513627 0.0855 0.0925 0.1015 0.1186 0.1348
2977.253305 0.1477 0.1603 0.1712 0.1899 0.2410
2983.992983 0.2925 0.3457 0.3944 0.4207 0.4489
2990.732661 0.4871 0.5219 0.5359 0.5496 0.5620
2997.472339 0.5743 0.5857 0.5982 0.6204 0.6415
3004.212017 0.6544 0.6670 0.6769 0.6867 0.6952
3010.951695 0.7034 0.7089 0.7142 0.7182 0.7221
3017.691373 0.7251 0.7281 0.7311 0.7341 0.7365
3024.431051 0.7390 0.7425 0.7460 0.7490 0.7520
3031.170729 0.7530 0.7540 0.7550 0.7560 0.7560
3037.910407 0.7560 0.7560 0.7560 0.7551 0.7541
3044.650085 0.7521 0.7501 0.7500 0.7500 0.7495
3051.389763 0.7490 0.7477 0.7462 0.7424 0.7384
3058.129441 0.7331 0.7276 0.7204 0.7129 0.6981
3064.869119 0.6822 0.6718 0.6624 0.6559 0.6500
3071.608797 0.6453 0.6408 0.6392 0.6382 0.6384
3078.348475 0.6389 0.6449 0.6524 0.6647 0.6783
3085.088153 0.6885 0.6980 0.7062 0.7142 0.7317
3091.827831 0.7521 0.7627 0.7701 0.7724 0.7729
3098.567508 0.7741 0.7756 0.7774 0.7794 0.7804
3105.307186 0.7808 0.7817 0.7827 0.7837 0.7847
3112.046864 0.7860 0.7875 0.7883 0.7888 0.7897
3118.786542 0.7907 0.7913 0.7918 0.7930 0.7944
3125.526220 0.7953 0.7958 0.7960 0.7960 0.7966
3132.265898 0.7976 0.7980 0.7980 0.7983 0.7988
3139.005576 0.7990 0.7990 0.7990 0.7990 0.7990
3145.745254 0.7990 0.7990 0.7990 0.7990 0.7990
3152.484932 0.7987 0.7982 0.7980 0.7980 0.7980
3159.224610 0.7980 0.7980 0.7980 0.7975 0.7965
3165.964288 0.7960 0.7960 0.7960 0.7960 0.7960
3172.703966 0.7960 0.7960 0.7960 0.7958 0.7953
3179.443644 0.7950 0.7950 0.7950 0.7950 0.7948
3186.183322 0.7943 0.7940 0.7940 0.7940 0.7940
3192.923000 0.7940 0.7940 0.7940 0.7940 0.7942
3199.662678 0.7947 0.7952 0.7957 0.7960 0.7960
3206.402356 0.7960 0.7960 0.7960 0.7960 0.7963
3213.142034 0.7973 0.7980 0.7980 0.7980 0.7980
3219.881712 0.7980 0.7980 0.7981 0.7986 0.7990
3226.621390 0.7990 0.7990 0.7990 0.7990 0.7990
3233.361068 0.7990 0.7990 0.7991 0.7996 0.8000
3240.100746 0.8000 0.8000 0.8000 0.8002 0.8012
3246.840424 0.8021 0.8026 0.8030 0.8030 0.8030
3253.580102 0.8030 0.8031 0.8036 0.8040 0.8040
3260.319780 0.8040 0.8040 0.8041 0.8051 0.8060
3267.059458 0.8060 0.8060 0.8060 0.8060 0.8065
3273.799136 0.8070 0.8075 0.8080 0.8080 0.8080
3280.538814 0.8080 0.8080 0.8080 0.8080 0.8080
3287.278492 0.8080 0.8080 0.8080 0.8080 0.8080
3294.018169 0.8080 0.8080 0.8080 0.8080 0.8075
3300.757847 0.8070 0.8070 0.8070 0.8065 0.8060
3307.497525 0.8051 0.8041 0.8040 0.8040 0.8035
3314.237203 0.8031 0.8030 0.8030 0.8030 0.8030
3320.976881 0.8026 0.8021 0.8020 0.8020 0.8020
3327.716559 0.8020 0.8020 0.8020 0.8020 0.8020
3334.456237 0.8020 0.8020 0.8020 0.8020 0.8020
3341.195915 0.8020 0.8024 0.8029 0.8030 0.8030
3347.935593 0.8030 0.8030 0.8030 0.8030 0.8030
3354.675271 0.8030 0.8034 0.8039 0.8040 0.8040
3361.414949 0.8040 0.8040 0.8040 0.8040 0.8040
3368.154627 0.8040 0.8040 0.8040 0.8040 0.8040
3374.894305 0.8040 0.8040 0.8040 0.8040 0.8040
3381.633983 0.8040 0.8040 0.8040 0.8040 0.8040
3388.373661 0.8040 0.8040 0.8040 0.8040 0.8040
3395.113339 0.8040 0.8040 0.8040 0.8040 0.8040
3401.853017 0.8040 0.8040 0.8040 0.8040 0.8040
3408.592695 0.8040 0.8040 0.8040 0.8040 0.8040
3415.332373 0.8040 0.8040 0.8040 0.8040 0.8040
3422.072051 0.8040 0.8040 0.8040 0.8040 0.8040
3428.811729 0.8040 0.8040 0.8040 0.8040 0.8040
3435.551407 0.8040 0.8040 0.8040 0.8040 0.8040
3442.291085 0.8040 0.8040 0.8040 0.8040 0.8040
3449.030763 0.8040 0.8040 0.8040 0.8040 0.8040
3455.770441 0.8038 0.8033 0.8030 0.8030 0.8030
3462.510119 0.8030 0.8030 0.8030 0.8030 0.8030
3469.249797 0.8030 0.8030 0.8030 0.8030 0.8030
3475.989475 0.8030 0.8030 0.8030 0.8030 0.8030
3482.729153 0.8030 0.8030 0.8030 0.8030 0.8030
3489.468831 0.8030 0.8030 0.8030 0.8030 0.8030
3496.208508 0.8029 0.8024 0.8020 0.8020 0.8020
3502.948186 0.8020 0.8020 0.8020 0.8021 0.8026
3509.687864 0.8030 0.8030 0.8030 0.8030 0.8030
3516.427542 0.8030 0.8030 0.8030 0.8030 0.8030
3523.167220 0.8030 0.8030 0.8030 0.8025 0.8020
3529.906898 0.8020 0.8020 0.8020 0.8020 0.8020
3536.646576 0.8020 0.8020 0.8020 0.8020 0.8020
3543.386254 0.8020 0.8020 0.8020 0.8020 0.8020
3550.125932 0.8020 0.8020 0.8020 0.8020 0.8020
3556.865610 0.8020 0.8020 0.8020 0.8020 0.8020
3563.605288 0.8020 0.8020 0.8020 0.8020 0.8020
3570.344966 0.8020 0.8020 0.8020 0.8020 0.8020
3577.084644 0.8020 0.8020 0.8020 0.8020 0.8020
3583.824322 0.8020 0.8020 0.8020 0.8020 0.8012
3590.564000 0.8002 0.8000 0.8000 0.8000 0.8000
3597.303678 0.8000 0.8000 0.8000 0.8000 0.8000
3604.043356 0.8000 0.8000 0.8000 0.8000 0.8000
3610.783034 0.8000 0.8000 0.8007 0.8017 0.8013
3617.522712 0.8003 0.8000 0.8000 0.7997 0.7992
3624.262390 0.7990 0.7990 0.7990 0.7990 0.7990
3631.002068 0.7990 0.7990 0.7990 0.7990 0.7990
3637.741746 0.7990 0.7990 0.7990 0.7990 0.7990
3644.481424 0.7990 0.7990 0.7990 0.7990 0.7990
3651.221102 0.7990 0.7990 0.7990 0.7990 0.7990
3657.960780 0.7990 0.7987 0.7982 0.7980 0.7980
3664.700458 0.7980 0.7980 0.7980 0.7980 0.7980
3671.440136 0.7980 0.7980 0.7980 0.7980 0.7980
3678.179814 0.7980 0.7980 0.7975 0.7965 0.7960
3684.919492 0.7960 0.7960 0.7960 0.7960 0.7960
3691.659169 0.7958 0.7953 0.7950 0.7950 0.7950
3698.398847 0.7950 0.7950 0.7950 0.7950 0.7950
3705.138525 0.7950 0.7950 0.7950 0.7950 0.7950
3711.878203 0.7950 0.7950 0.7950 0.7950 0.7950
3718.617881 0.7948 0.7943 0.7940 0.7940 0.7940
3725.357559 0.7940 0.7940 0.7940 0.7940 0.7940
3732.097237 0.7940 0.7940 0.7937 0.7927 0.7920
3738.836915 0.7920 0.7920 0.7920 0.7920 0.7920
3745.576593 0.7922 0.7932 0.7940 0.7940 0.7940
3752.316271 0.7940 0.7940 0.7940 0.7938 0.7928
3759.055949 0.7920 0.7920 0.7920 0.7920 0.7920
3765.795627 0.7920 0.7920 0.7920 0.7920 0.7920
3772.535305 0.7920 0.7920 0.7919 0.7915 0.7910
3779.274983 0.7910 0.7910 0.7910 0.7910 0.7910
3786.014661 0.7910 0.7910 0.7910 0.7910 0.7909
3792.754339 0.7900 0.7890 0.7890 0.7890 0.7890
3799.494017 0.7890 0.7890 0.7890 0.7885 0.7880
3806.233695 0.7880 0.7880 0.7880 0.7880 0.7880
3812.973373 0.7880 0.7875 0.7870 0.7870 0.7870
3819.713051 0.7870 0.7870 0.7870 0.7870 0.7861
3826.452729 0.7851 0.7850 0.7850 0.7846 0.7841
3833.192407 0.7840 0.7840 0.7840 0.7840 0.7840
3839.932085 0.7840 0.7840 0.7840 0.7840 0.7840
3846.671763 0.7836 0.7831 0.7830 0.7830 0.7830
3853.411441 0.7830 0.7830 0.7830 0.7822 0.7812
3860.151119 0.7810 0.7810 0.7810 0.7810 0.7810
3866.890797 0.7810 0.7810 0.7810 0.7810 0.7810
3873.630475 0.7810 0.7810 0.7806 0.7801 0.7800
3880.370153 0.7800 0.7800 0.7800 0.7800 0.7800
3887.109831 0.7800 0.7800 0.7800 0.7800 0.7800
3893.849508 0.7800 0.7800 0.7800 0.7800 0.7800
3900.589186 0.7800 0.7800 0.7797 0.7792 0.7790
3907.328864 0.7790 0.7790 0.7790 0.7790 0.7790
3914.068542 0.7790 0.7790 0.7790 0.7790 0.7790
3920.808220 0.7790 0.7790 0.7790 0.7785 0.7775
3927.547898 0.7770 0.7770 0.7770 0.7770 0.7770
3934.287576 0.7770 0.7770 0.7770 0.7770 0.7770
3941.027254 0.7770 0.7770 0.7770 0.7770 0.7770
3947.766932 0.7770 0.7770 0.7770 0.7770 0.7770
3954.506610 0.7770 0.7770 0.7768 0.7763 0.7760
3961.246288 0.7760 0.7760 0.7760 0.7758 0.7753
3967.985966 0.7750 0.7750 0.7750 0.7750 0.7750
3974.725644 0.7750 0.7750 0.7750 0.7750 0.7750
3981.465322 0.7750 0.7750 0.7750 0.7750 0.7750
3988.205000 0.7750 0.7750 0.7750 0.7750 0.7750
3994.944678 0.7750 0.7750 0.7750 0.7750 0.7750
4001.684356 0.7750 0.7750 0.7750 0.7750 0.7750
4008.424034 0.7750 0.7750
##END=
