##TITLE=PHOSPHORIC ACID, TRIS(BROMOCRESYL) ESTER
##JCAMP-DX=4.24
##DATA TYPE=INFRARED SPECTRUM
##CLASS=COBLENTZ III
##ORIGIN=PERKIN-ELMER
##OWNER=COBLENTZ SOCIETY
Collection (C) 2018 copyright by the U.S. Secretary of Commerce
on behalf of the United States of America. All rights reserved.
##DATE=1978/05/26
##NAMES=BROMKAL-P40-3 (COMMERCIAL FLAME RETARDANT)
##MOLFORM=C18 H18 Br3 O4 P
##SOURCE REFERENCE=COBLENTZ NO. 10305
##$NIST ID=B6010305
##$NIST SOURCE=COBLENTZ
##$NIST IMAGE=cob10305
##SPECTROMETER/DATA SYSTEM=PERKIN-ELMER 283
##STATE=(NEAT)
##PATH LENGTH=SMEAR, CsI WINDOW
##SAMPLING PROCEDURE=TRANSMISSION
##RESOLUTION=4
##DATA PROCESSING=DIGITIZED BY NIST FROM HARD COPY (FROM TWO SEGMENTS)
##XUNITS=1/CM
##YUNITS=TRANSMITTANCE
##XFACTOR=1.000000
##YFACTOR=1
##DELTAX=0.974028
##FIRSTX=200
##LASTX=3998.71
##FIRSTY=0.847
##MAXX=3998.71
##MINX=200
##MAXY=0.985
##MINY=0.04
##NPOINTS=3901
##XYDATA=(X++(Y..Y))
200.000000 0.8470 0.8500 0.8520 0.8580 0.8670
204.870142 0.8730 0.8760 0.8800 0.8830 0.8920
209.740284 0.9040 0.9120 0.9170 0.9210 0.9250
214.610426 0.9290 0.9310 0.9340 0.9360 0.9380
219.480567 0.9400 0.9410 0.9410 0.9490 0.9520
224.350709 0.9530 0.9530 0.9540 0.9560 0.9560
229.220851 0.9560 0.9560 0.9560 0.9560 0.9570
234.090993 0.9580 0.9610 0.9630 0.9660 0.9660
238.961135 0.9670 0.9690 0.9700 0.9700 0.9710
243.831277 0.9740 0.9750 0.9750 0.9760 0.9760
248.701418 0.9790 0.9800 0.9800 0.9810 0.9810
253.571560 0.9800 0.9800 0.9790 0.9790 0.9790
258.441702 0.9800 0.9810 0.9810 0.9810 0.9800
263.311844 0.9800 0.9780 0.9780 0.9780 0.9790
268.181986 0.9810 0.9810 0.9810 0.9810 0.9810
273.052128 0.9830 0.9840 0.9850 0.9850 0.9850
277.922270 0.9850 0.9840 0.9830 0.9830 0.9830
282.792411 0.9830 0.9810 0.9800 0.9800 0.9790
287.662553 0.9780 0.9760 0.9750 0.9750 0.9740
292.532695 0.9720 0.9710 0.9700 0.9670 0.9660
297.402837 0.9650 0.9630 0.9620 0.9600 0.9570
302.272979 0.9530 0.9500 0.9500 0.9490 0.9490
307.143121 0.9490 0.9490 0.9500 0.9500 0.9520
312.013262 0.9520 0.9520 0.9520 0.9520 0.9520
316.883404 0.9520 0.9520 0.9520 0.9520 0.9520
321.753546 0.9500 0.9500 0.9500 0.9490 0.9490
326.623688 0.9500 0.9530 0.9540 0.9540 0.9540
331.493830 0.9540 0.9540 0.9540 0.9540 0.9540
336.363972 0.9540 0.9530 0.9530 0.9530 0.9530
341.234114 0.9530 0.9530 0.9530 0.9530 0.9530
346.104255 0.9530 0.9530 0.9540 0.9540 0.9570
350.974397 0.9580 0.9600 0.9600 0.9600 0.9600
355.844539 0.9600 0.9610 0.9610 0.9610 0.9610
360.714681 0.9610 0.9610 0.9610 0.9610 0.9600
365.584823 0.9600 0.9600 0.9600 0.9580 0.9580
370.454965 0.9580 0.9540 0.9540 0.9530 0.9530
375.325106 0.9520 0.9520 0.9520 0.9520 0.9500
380.195248 0.9490 0.9490 0.9480 0.9450 0.9430
385.065390 0.9430 0.9410 0.9410 0.9410 0.9410
389.935532 0.9410 0.9410 0.9410 0.9430 0.9440
394.805674 0.9450 0.9450 0.9470 0.9470 0.9470
399.675816 0.9470 0.9470 0.9450 0.9450 0.9440
404.545958 0.9440 0.9440 0.9430 0.9430 0.9410
409.416099 0.9410 0.9410 0.9400 0.9390 0.9350
414.286241 0.9320 0.9270 0.9230 0.9220 0.9170
419.156383 0.9120 0.9090 0.9050 0.9040 0.9000
424.026525 0.8920 0.8830 0.8760 0.8680 0.8500
428.896667 0.8300 0.8091 0.7871 0.7760 0.7581
433.766809 0.7490 0.7480 0.7490 0.7530 0.7560
438.636951 0.7760 0.7930 0.8090 0.8200 0.8300
443.507092 0.8370 0.8430 0.8470 0.8490 0.8500
448.377234 0.8500 0.8500 0.8500 0.8500 0.8490
453.247376 0.8490 0.8470 0.8460 0.8460 0.8450
458.117518 0.8430 0.8400 0.8400 0.8340 0.8340
462.987660 0.8330 0.8300 0.8280 0.8250 0.8230
467.857802 0.8230 0.8150 0.8110 0.8100 0.8090
472.727943 0.8030 0.8010 0.7980 0.7930 0.7900
477.598085 0.7850 0.7720 0.7690 0.7610 0.7540
482.468227 0.7500 0.7480 0.7450 0.7430 0.7400
487.338369 0.7390 0.7380 0.7310 0.7210 0.7140
492.208511 0.7100 0.7090 0.7080 0.7080 0.7080
497.078653 0.7080 0.7080 0.7070 0.7070 0.7050
501.948795 0.7040 0.7030 0.7010 0.7000 0.6990
506.818936 0.6950 0.6940 0.6900 0.6870 0.6860
511.689078 0.6860 0.6870 0.6890 0.6910 0.6920
516.559220 0.6960 0.6990 0.7030 0.7070 0.7120
521.429362 0.7170 0.7210 0.7260 0.7300 0.7310
526.299504 0.7340 0.7340 0.7360 0.7360 0.7390
531.169646 0.7390 0.7390 0.7380 0.7360 0.7340
536.039787 0.7310 0.7270 0.7160 0.7090 0.7070
540.909929 0.7040 0.7030 0.7010 0.7010 0.7030
545.780071 0.7050 0.7080 0.7080 0.7050 0.6990
550.650213 0.6950 0.6950 0.6900 0.6820 0.6720
555.520355 0.6670 0.6600 0.6520 0.6490 0.6420
560.390497 0.6400 0.6380 0.6400 0.6410 0.6420
565.260639 0.6430 0.6430 0.6450 0.6460 0.6500
570.130780 0.6540 0.6560 0.6670 0.6730 0.6820
575.000922 0.6920 0.7010 0.7120 0.7230 0.7320
579.871064 0.7430 0.7500 0.7560 0.7580 0.7610
584.741206 0.7620 0.7630 0.7630 0.7620 0.7580
589.611348 0.7520 0.7440 0.7350 0.7260 0.7170
594.481490 0.7050 0.6950 0.6830 0.6700 0.6680
599.351631 0.6640 0.6550 0.6540 0.6520 0.6520
604.221773 0.6550 0.6580 0.6680 0.6690 0.6700
609.091915 0.6730 0.6770 0.6810 0.6830 0.6830
613.962057 0.6850 0.6860 0.6870 0.6900 0.6960
618.832199 0.7000 0.7090 0.7180 0.7250 0.7310
623.702341 0.7350 0.7380 0.7400 0.7440 0.7470
628.572483 0.7500 0.7540 0.7560 0.7570 0.7600
633.442624 0.7620 0.7670 0.7760 0.7880 0.8049
638.312766 0.8270 0.8400 0.8470 0.8500 0.8500
643.182908 0.8510 0.8510 0.8510 0.8510 0.8510
648.053050 0.8520 0.8540 0.8610 0.8670 0.8730
652.923192 0.8780 0.8850 0.8900 0.9040 0.9050
657.793334 0.9070 0.9050 0.9040 0.9030 0.9030
662.663475 0.9010 0.9010 0.9010 0.9030 0.9040
667.533617 0.9040 0.9030 0.9000 0.9000 0.9000
672.403759 0.8990 0.8940 0.8910 0.8860 0.8720
677.273901 0.8500 0.8230 0.7930 0.7620 0.7310
682.144043 0.7070 0.6960 0.6940 0.6920 0.6940
687.014185 0.6950 0.6980 0.7030 0.7070 0.7160
691.884327 0.7180 0.7310 0.7450 0.7570 0.7700
696.754468 0.7710 0.7720 0.7710 0.7650 0.7600
701.624610 0.7560 0.7560 0.7500 0.7450 0.7410
706.494752 0.7340 0.7290 0.7230 0.7210 0.7200
711.364894 0.7180 0.7180 0.7180 0.7180 0.7200
716.235036 0.7210 0.7230 0.7270 0.7340 0.7400
721.105178 0.7480 0.7570 0.7660 0.7760 0.7850
725.975319 0.7930 0.8010 0.8060 0.8230 0.8340
730.845461 0.8420 0.8470 0.8500 0.8510 0.8520
735.715603 0.8540 0.8540 0.8540 0.8540 0.8520
740.585745 0.8510 0.8500 0.8460 0.8360 0.8280
745.455887 0.8200 0.8120 0.8020 0.7940 0.7880
750.326029 0.7830 0.7790 0.7760 0.7740 0.7700
755.196171 0.7650 0.7600 0.7500 0.7480 0.7310
760.066312 0.7160 0.7050 0.7000 0.6990 0.6980
764.936454 0.6990 0.7000 0.7050 0.7100 0.7290
769.806596 0.7400 0.7520 0.7540 0.7650 0.7829
774.676738 0.8060 0.8200 0.8300 0.8400 0.8510
779.546880 0.8670 0.8780 0.8820 0.8830 0.8850
784.417022 0.8850 0.8850 0.8850 0.8850 0.8830
789.287163 0.8820 0.8730 0.8600 0.8510 0.8430
794.157305 0.8360 0.8200 0.8000 0.7800 0.7620
799.027447 0.7211 0.6681 0.6580 0.6470 0.6032
803.897589 0.5759 0.5410 0.5160 0.4950 0.4810
808.767731 0.4680 0.4490 0.4470 0.4490 0.4550
813.637873 0.4590 0.4650 0.4760 0.4850 0.4900
818.508015 0.5000 0.5090 0.5170 0.5230 0.5300
823.378156 0.5360 0.5430 0.5490 0.5560 0.5620
828.248298 0.5700 0.5780 0.5850 0.5940 0.6050
833.118440 0.6150 0.6280 0.6410 0.6460 0.6520
837.988582 0.6540 0.6590 0.6600 0.6600 0.6600
842.858724 0.6590 0.6590 0.6560 0.6550 0.6510
847.728866 0.6500 0.6490 0.6410 0.6340 0.6340
852.599007 0.6290 0.6270 0.6230 0.6150 0.6060
857.469149 0.5940 0.5830 0.5700 0.5500 0.5340
862.339291 0.5250 0.5120 0.4990 0.4860 0.4770
867.209433 0.4700 0.4630 0.4560 0.4490 0.4430
872.079575 0.4380 0.4330 0.4280 0.4230 0.4180
876.949717 0.4120 0.4100 0.4050 0.3960 0.3850
881.819859 0.3740 0.3650 0.3600 0.3520 0.3400
886.690000 0.3350 0.3300 0.3210 0.3100 0.3000
891.560142 0.2900 0.2800 0.2720 0.2700 0.2700
896.430284 0.2720 0.2740 0.2770 0.2830 0.3029
901.300426 0.3580 0.3850 0.4110 0.4370 0.4630
906.170568 0.4910 0.5209 0.5519 0.6148 0.6828
911.040710 0.6990 0.7090 0.7180 0.7300 0.7310
915.910852 0.7320 0.7310 0.7250 0.7140 0.7000
920.780993 0.6860 0.6700 0.6640 0.6560 0.6410
925.651135 0.6190 0.5920 0.5650 0.5381 0.5131
930.521277 0.4889 0.4650 0.4430 0.4240 0.4050
935.391419 0.3850 0.3620 0.3470 0.3380 0.3310
940.261561 0.3250 0.3070 0.2760 0.2670 0.2550
945.131703 0.2450 0.2330 0.2150 0.2050 0.1940
950.001844 0.1790 0.1650 0.1560 0.1480 0.1390
954.871986 0.1300 0.1220 0.1180 0.1120 0.1040
959.742128 0.0950 0.0740 0.0690 0.0650 0.0590
964.612270 0.0580 0.0520 0.0500 0.0470 0.0470
969.482412 0.0460 0.0430 0.0430 0.0420 0.0420
974.352554 0.0410 0.0410 0.0410 0.0400 0.0400
979.222696 0.0400 0.0400 0.0410 0.0450 0.0470
984.092837 0.0520 0.0560 0.0610 0.0670 0.0740
988.962979 0.0860 0.0990 0.1180 0.1400 0.1530
993.833121 0.1660 0.1790 0.1900 0.2010 0.2070
998.703263 0.2090 0.2200 0.2230 0.2210 0.2190
1003.573405 0.2140 0.2030 0.1890 0.1611 0.1440
1008.443547 0.1210 0.1050 0.0910 0.0900 0.0910
1013.313688 0.0940 0.0990 0.1040 0.1140 0.1290
1018.183830 0.1450 0.1630 0.1830 0.2030 0.2250
1023.053972 0.2490 0.2720 0.2950 0.3429 0.3669
1027.924114 0.3890 0.4030 0.4060 0.4050 0.4020
1032.794256 0.4020 0.4000 0.3980 0.3970 0.3980
1037.664398 0.4070 0.4210 0.4420 0.4650 0.4890
1042.534540 0.5130 0.5340 0.5500 0.5610 0.5630
1047.404681 0.5670 0.5740 0.5920 0.6120 0.6330
1052.274823 0.6770 0.6860 0.6890 0.6900 0.6900
1057.144965 0.6910 0.6960 0.7070 0.7220 0.7320
1062.015107 0.7520 0.7530 0.7520 0.7480 0.7440
1066.885249 0.7360 0.7340 0.7350 0.7560 0.7660
1071.755391 0.7810 0.7960 0.8090 0.8270 0.8420
1076.625532 0.8460 0.8470 0.8490 0.8500 0.8500
1081.495674 0.8500 0.8500 0.8500 0.8490 0.8460
1086.365816 0.8420 0.8370 0.8290 0.8210 0.8160
1091.235958 0.8100 0.7980 0.7970 0.7960 0.7960
1096.106100 0.7960 0.7940 0.7930 0.7920 0.7890
1100.976242 0.7870 0.7800 0.7720 0.7700 0.7650
1105.846384 0.7620 0.7600 0.7580 0.7500 0.7390
1110.716525 0.7220 0.7030 0.6810 0.6680 0.6550
1115.586667 0.6289 0.5999 0.5700 0.5670 0.5670
1120.456809 0.5750 0.5960 0.6100 0.6200 0.6360
1125.326951 0.6500 0.6640 0.6650 0.6650 0.6650
1130.197093 0.6610 0.6420 0.6300 0.6160 0.6010
1135.067235 0.5830 0.5630 0.5410 0.5180 0.4940
1139.937376 0.4650 0.4340 0.4001 0.3750 0.3431
1144.807518 0.3249 0.3049 0.2689 0.2340 0.2050
1149.677660 0.1800 0.1450 0.1120 0.0890 0.0780
1154.547802 0.0730 0.0690 0.0680 0.0670 0.0680
1159.417944 0.0700 0.0760 0.0800 0.0850 0.0920
1164.288086 0.1040 0.1170 0.1310 0.1490 0.1690
1169.158228 0.1890 0.2290 0.2669 0.3339 0.3629
1174.028369 0.3891 0.4140 0.4360 0.4520 0.4700
1178.898511 0.4720 0.4700 0.4470 0.4300 0.4190
1183.768653 0.3889 0.3540 0.3400 0.3260 0.3030
1188.638795 0.2780 0.2520 0.2200 0.1980 0.1920
1193.508937 0.1840 0.1810 0.1800 0.1810 0.1840
1198.379079 0.1880 0.1940 0.1970 0.2000 0.2020
1203.249220 0.2050 0.2060 0.2120 0.2120 0.2150
1208.119362 0.2150 0.2120 0.2090 0.2030 0.2000
1212.989504 0.1940 0.1920 0.1830 0.1810 0.1800
1217.859646 0.1790 0.1780 0.1720 0.1650 0.1431
1222.729788 0.1179 0.1000 0.0960 0.0800 0.0760
1227.599930 0.0700 0.0700 0.0810 0.1050 0.1349
1232.470072 0.1660 0.1850 0.2030 0.2230 0.2420
1237.340213 0.2610 0.2810 0.3010 0.3389 0.3579
1242.210355 0.3760 0.3930 0.4100 0.4270 0.4410
1247.080497 0.4540 0.4670 0.4770 0.4870 0.4950
1251.950639 0.5000 0.5040 0.5080 0.5080 0.5030
1256.820781 0.5000 0.4950 0.4910 0.4810 0.4640
1261.690923 0.4250 0.4110 0.3920 0.3740 0.3580
1266.561064 0.3500 0.3500 0.3570 0.3610 0.3700
1271.431206 0.3780 0.3850 0.3960 0.4050 0.4160
1276.301348 0.4250 0.4280 0.4280 0.4160 0.4090
1281.171490 0.4060 0.4060 0.4050 0.4020 0.4020
1286.041632 0.4010 0.4000 0.3960 0.3870 0.3750
1290.911774 0.3630 0.3520 0.3430 0.3340 0.3290
1295.781916 0.3230 0.3100 0.2950 0.2780 0.2610
1300.652057 0.2419 0.2240 0.2070 0.1900 0.1830
1305.522199 0.1790 0.1720 0.1710 0.1700 0.1700
1310.392341 0.1700 0.1710 0.1720 0.1720 0.1780
1315.262483 0.1840 0.1970 0.2090 0.2210 0.2360
1320.132625 0.2652 0.3541 0.4031 0.4500 0.4890
1325.002767 0.5140 0.5700 0.6160 0.6889 0.7159
1329.872908 0.7381 0.7560 0.7710 0.7840 0.7940
1334.743050 0.8050 0.8140 0.8240 0.8320 0.8380
1339.613192 0.8430 0.8490 0.8520 0.8550 0.8590
1344.483334 0.8610 0.8630 0.8630 0.8640 0.8640
1349.353476 0.8640 0.8640 0.8630 0.8560 0.8540
1354.223618 0.8460 0.8400 0.8280 0.8160 0.8070
1359.093760 0.8000 0.7970 0.7970 0.7980 0.8070
1363.963901 0.8150 0.8240 0.8290 0.8320 0.8340
1368.834043 0.8360 0.8360 0.8330 0.8270 0.8210
1373.704185 0.8150 0.8070 0.7900 0.7700 0.7450
1378.574327 0.7199 0.6919 0.6690 0.6670 0.6670
1383.444469 0.6700 0.6960 0.7100 0.7270 0.7340
1388.314611 0.7410 0.7440 0.7440 0.7410 0.7360
1393.184753 0.7300 0.7200 0.7010 0.6900 0.6780
1398.054894 0.6650 0.6549 0.6180 0.5940 0.5800
1402.925036 0.5790 0.5800 0.5890 0.5980 0.6070
1407.795178 0.6160 0.6250 0.6340 0.6411 0.6820
1412.665320 0.6980 0.7080 0.7160 0.7200 0.7210
1417.535462 0.7220 0.7220 0.7220 0.7230 0.7230
1422.405604 0.7220 0.7210 0.7170 0.7100 0.7050
1427.275745 0.6990 0.6890 0.6780 0.6690 0.6630
1432.145887 0.6550 0.6360 0.6280 0.6100 0.5960
1437.016029 0.5850 0.5750 0.5650 0.5500 0.5390
1441.886171 0.5300 0.5220 0.5180 0.5160 0.5130
1446.756313 0.5120 0.5130 0.5220 0.5300 0.5380
1451.626455 0.5430 0.5520 0.5560 0.5570 0.5570
1456.496597 0.5540 0.5480 0.5390 0.5320 0.5170
1461.366738 0.4900 0.4800 0.4720 0.4490 0.4211
1466.236880 0.3829 0.3359 0.3100 0.2849 0.2320
1471.107022 0.1800 0.1340 0.0950 0.0650 0.0610
1475.977164 0.0610 0.0640 0.0810 0.1000 0.1270
1480.847306 0.1570 0.1710 0.1880 0.1880 0.1850
1485.717448 0.1790 0.1740 0.1740 0.1870 0.1980
1490.587589 0.2090 0.2340 0.2550 0.2800 0.3429
1495.457731 0.3791 0.4161 0.4561 0.4890 0.4920
1500.327873 0.4900 0.4770 0.4580 0.4370 0.4101
1505.198015 0.3539 0.3309 0.3080 0.2950 0.2850
1510.068157 0.2850 0.3870 0.4540 0.5129 0.5659
1514.938299 0.6112 0.6771 0.6951 0.7260 0.7500
1519.808441 0.7700 0.7850 0.7960 0.8030 0.8100
1524.678582 0.8140 0.8180 0.8200 0.8210 0.8250
1529.548724 0.8370 0.8420 0.8430 0.8450 0.8460
1534.418866 0.8460 0.8470 0.8490 0.8490 0.8490
1539.289008 0.8490 0.8500 0.8500 0.8500 0.8500
1544.159150 0.8500 0.8500 0.8500 0.8490 0.8460
1549.029292 0.8430 0.8420 0.8400 0.8370 0.8340
1553.899433 0.8300 0.8250 0.8200 0.8140 0.8110
1558.769575 0.8060 0.8000 0.7920 0.7800 0.7700
1563.639717 0.7630 0.7540 0.7410 0.7270 0.7080
1568.509859 0.6890 0.6770 0.6650 0.6280 0.6000
1573.380001 0.5800 0.5660 0.5580 0.5540 0.5500
1578.250143 0.5500 0.5610 0.5800 0.5940 0.6070
1583.120285 0.6201 0.6400 0.6410 0.6420 0.6430
1587.990426 0.6430 0.6420 0.6330 0.6180 0.6050
1592.860568 0.5960 0.5890 0.5810 0.5740 0.5650
1597.730710 0.5560 0.5480 0.5440 0.5410 0.5400
1602.600852 0.5400 0.5430 0.5470 0.5560 0.5650
1607.470994 0.5760 0.5900 0.6110 0.6700 0.6990
1612.341136 0.7261 0.7481 0.7690 0.7870 0.8020
1617.211277 0.8150 0.8270 0.8370 0.8460 0.8520
1622.081419 0.8540 0.8560 0.8560 0.8600 0.8630
1626.951561 0.8650 0.8670 0.8680 0.8690 0.8690
1631.821703 0.8700 0.8720 0.8720 0.8740 0.8760
1636.691845 0.8770 0.8780 0.8780 0.8800 0.8780
1641.561987 0.8780 0.8770 0.8770 0.8760 0.8770
1646.432129 0.8800 0.8800 0.8830 0.8870 0.8890
1651.302270 0.8890 0.8900 0.8900 0.8900 0.8900
1656.172412 0.8900 0.8890 0.8890 0.8890 0.8890
1661.042554 0.8890 0.8890 0.8890 0.8890 0.8890
1665.912696 0.8890 0.8890 0.8900 0.8900 0.8910
1670.782838 0.8920 0.8920 0.8910 0.8910 0.8910
1675.652980 0.8910 0.8900 0.8900 0.8900 0.8890
1680.523121 0.8890 0.8890 0.8900 0.8920 0.8950
1685.393263 0.8950 0.8920 0.8900 0.8900 0.8890
1690.263405 0.8890 0.8890 0.8910 0.8910 0.8910
1695.133547 0.8920 0.8920 0.8910 0.8910 0.8910
1700.003689 0.8900 0.8900 0.8900 0.8890 0.8890
1704.873831 0.8890 0.8890 0.8900 0.8900 0.8910
1709.743973 0.8910 0.8910 0.8920 0.8920 0.8910
1714.614114 0.8910 0.8910 0.8910 0.8910 0.8900
1719.484256 0.8900 0.8890 0.8890 0.8890 0.8870
1724.354398 0.8860 0.8860 0.8860 0.8850 0.8850
1729.224540 0.8850 0.8850 0.8850 0.8830 0.8830
1734.094682 0.8830 0.8830 0.8830 0.8830 0.8830
1738.964824 0.8850 0.8850 0.8850 0.8860 0.8860
1743.834965 0.8860 0.8860 0.8870 0.8870 0.8870
1748.705107 0.8870 0.8870 0.8870 0.8870 0.8870
1753.575249 0.8890 0.8890 0.8900 0.8890 0.8890
1758.445391 0.8900 0.8900 0.8900 0.8910 0.8910
1763.315533 0.8920 0.8920 0.8940 0.8950 0.8960
1768.185675 0.8960 0.8960 0.8980 0.8980 0.8980
1773.055817 0.8990 0.8990 0.9000 0.9000 0.9010
1777.925958 0.9010 0.9030 0.9040 0.9040 0.9040
1782.796100 0.9040 0.9040 0.9050 0.9050 0.9050
1787.666242 0.9050 0.9050 0.9050 0.9070 0.9050
1792.536384 0.9050 0.9040 0.9040 0.9040 0.9040
1797.406526 0.9050 0.9070 0.9070 0.9070 0.9080
1802.276668 0.9080 0.9080 0.9090 0.9090 0.9090
1807.146809 0.9090 0.9090 0.9090 0.9090 0.9090
1812.016951 0.9090 0.9090 0.9090 0.9090 0.9090
1816.887093 0.9090 0.9080 0.9080 0.9080 0.9080
1821.757235 0.9080 0.9080 0.9080 0.9080 0.9080
1826.627377 0.9080 0.9080 0.9070 0.9050 0.9050
1831.497519 0.9050 0.9040 0.9040 0.9030 0.9030
1836.367661 0.9030 0.9030 0.9010 0.9010 0.9000
1841.237802 0.8990 0.8960 0.8950 0.8950 0.8950
1846.107944 0.8920 0.8940 0.8920 0.8920 0.8910
1850.978086 0.8900 0.8890 0.8870 0.8850 0.8830
1855.848228 0.8820 0.8810 0.8780 0.8780 0.8770
1860.718370 0.8770 0.8760 0.8730 0.8700 0.8690
1865.588512 0.8690 0.8630 0.8600 0.8590 0.8560
1870.458654 0.8520 0.8510 0.8500 0.8500 0.8500
1875.328795 0.8500 0.8500 0.8500 0.8500 0.8500
1880.198937 0.8500 0.8500 0.8510 0.8510 0.8510
1885.069079 0.8510 0.8520 0.8520 0.8550 0.8560
1889.939221 0.8560 0.8580 0.8580 0.8580 0.8590
1894.809363 0.8590 0.8590 0.8590 0.8610 0.8630
1899.679505 0.8630 0.8640 0.8650 0.8650 0.8670
1904.549646 0.8680 0.8690 0.8700 0.8720 0.8720
1909.419788 0.8730 0.8730 0.8740 0.8740 0.8740
1914.289930 0.8760 0.8770 0.8780 0.8780 0.8780
1919.160072 0.8780 0.8800 0.8800 0.8800 0.8810
1924.030214 0.8810 0.8810 0.8820 0.8820 0.8820
1928.900356 0.8820 0.8820 0.8820 0.8820 0.8820
1933.770498 0.8820 0.8820 0.8820 0.8820 0.8820
1938.640639 0.8820 0.8820 0.8820 0.8820 0.8820
1943.510781 0.8820 0.8820 0.8820 0.8820 0.8820
1948.380923 0.8830 0.8830 0.8830 0.8850 0.8850
1953.251065 0.8850 0.8860 0.8860 0.8860 0.8870
1958.121207 0.8870 0.8870 0.8870 0.8890 0.8890
1962.991349 0.8900 0.8900 0.8900 0.8910 0.8920
1967.861490 0.8920 0.8920 0.8950 0.8950 0.8950
1972.731632 0.8940 0.8940 0.8920 0.8920 0.8920
1977.601774 0.8920 0.8940 0.8950 0.8950 0.8960
1982.471916 0.8960 0.8990 0.8990 0.9000 0.9000
1987.342058 0.9000 0.9000 0.8990 0.8980 0.8960
1992.212200 0.8950 0.8950 0.8950 0.8980 0.8990
1997.082342 0.9000 0.9030 0.9030 0.9030 0.9035
2001.952483 0.9040 0.9040 0.9040 0.9040 0.9040
2006.822625 0.9040 0.9040 0.9035 0.9030 0.9030
2011.692767 0.9030 0.9020 0.9010 0.9010 0.9010
2016.562909 0.9010 0.9010 0.9010 0.9010 0.9010
2021.433051 0.9010 0.9010 0.9010 0.9010 0.9010
2026.303193 0.9010 0.9010 0.9020 0.9030 0.9030
2031.173334 0.9030 0.9030 0.9030 0.9030 0.9030
2036.043476 0.9030 0.9030 0.9030 0.9030 0.9030
2040.913618 0.9030 0.9030 0.9030 0.9030 0.9030
2045.783760 0.9030 0.9030 0.9030 0.9030 0.9030
2050.653902 0.9030 0.9020 0.9010 0.9010 0.9010
2055.524044 0.9010 0.9010 0.9010 0.9010 0.9010
2060.394186 0.9010 0.9005 0.9000 0.9000 0.9000
2065.264327 0.9000 0.9000 0.9000 0.9000 0.9000
2070.134469 0.9000 0.9005 0.9010 0.9010 0.9010
2075.004611 0.9010 0.9010 0.9010 0.9010 0.9010
2079.874753 0.9010 0.9005 0.9000 0.8995 0.8990
2084.744895 0.8990 0.8990 0.8985 0.8980 0.8980
2089.615037 0.8980 0.8970 0.8960 0.8960 0.8960
2094.485178 0.8955 0.8950 0.8945 0.8940 0.8940
2099.355320 0.8940 0.8940 0.8940 0.8940 0.8940
2104.225462 0.8940 0.8940 0.8940 0.8940 0.8930
2109.095604 0.8920 0.8920 0.8920 0.8920 0.8920
2113.965746 0.8920 0.8920 0.8920 0.8920 0.8920
2118.835888 0.8920 0.8920 0.8920 0.8920 0.8920
2123.706030 0.8920 0.8920 0.8920 0.8920 0.8930
2128.576171 0.8940 0.8925 0.8910 0.8910 0.8910
2133.446313 0.8910 0.8910 0.8910 0.8910 0.8910
2138.316455 0.8910 0.8910 0.8910 0.8915 0.8920
2143.186597 0.8915 0.8910 0.8905 0.8900 0.8900
2148.056739 0.8900 0.8900 0.8900 0.8900 0.8900
2152.926881 0.8905 0.8910 0.8910 0.8910 0.8910
2157.797022 0.8910 0.8910 0.8910 0.8910 0.8910
2162.667164 0.8905 0.8900 0.8900 0.8900 0.8895
2167.537306 0.8890 0.8890 0.8890 0.8890 0.8890
2172.407448 0.8890 0.8890 0.8880 0.8870 0.8870
2177.277590 0.8870 0.8870 0.8870 0.8870 0.8870
2182.147732 0.8870 0.8870 0.8870 0.8870 0.8870
2187.017874 0.8870 0.8870 0.8870 0.8870 0.8870
2191.888015 0.8870 0.8870 0.8870 0.8870 0.8870
2196.758157 0.8870 0.8870 0.8870 0.8870 0.8870
2201.628299 0.8870 0.8870 0.8870 0.8870 0.8870
2206.498441 0.8870 0.8870 0.8870 0.8870 0.8870
2211.368583 0.8880 0.8890 0.8890 0.8890 0.8890
2216.238725 0.8890 0.8895 0.8900 0.8900 0.8900
2221.108866 0.8895 0.8890 0.8855 0.8820 0.8815
2225.979008 0.8810 0.8810 0.8810 0.8810 0.8810
2230.849150 0.8805 0.8800 0.8800 0.8800 0.8800
2235.719292 0.8800 0.8790 0.8780 0.8780 0.8780
2240.589434 0.8790 0.8800 0.8800 0.8800 0.8790
2245.459576 0.8780 0.8780 0.8780 0.8775 0.8770
2250.329718 0.8770 0.8770 0.8765 0.8760 0.8750
2255.199859 0.8740 0.8740 0.8740 0.8735 0.8730
2260.070001 0.8735 0.8740 0.8740 0.8740 0.8750
2264.940143 0.8760 0.8765 0.8770 0.8770 0.8770
2269.810285 0.8770 0.8770 0.8765 0.8760 0.8760
2274.680427 0.8760 0.8760 0.8760 0.8740 0.8720
2279.550569 0.8710 0.8700 0.8700 0.8700 0.8700
2284.420711 0.8700 0.8695 0.8690 0.8690 0.8690
2289.290852 0.8690 0.8690 0.8695 0.8700 0.8700
2294.160994 0.8700 0.8695 0.8690 0.8690 0.8690
2299.031136 0.8685 0.8680 0.8685 0.8690 0.8685
2303.901278 0.8680 0.8680 0.8680 0.8680 0.8680
2308.771420 0.8675 0.8670 0.8670 0.8670 0.8660
2313.641562 0.8650 0.8650 0.8650 0.8650 0.8650
2318.511703 0.8650 0.8650 0.8665 0.8680 0.8685
2323.381845 0.8690 0.8690 0.8690 0.8685 0.8680
2328.251987 0.8680 0.8680 0.8675 0.8670 0.8670
2333.122129 0.8670 0.8670 0.8670 0.8670 0.8670
2337.992271 0.8670 0.8670 0.8680 0.8690 0.8685
2342.862413 0.8680 0.8680 0.8680 0.8680 0.8680
2347.732555 0.8665 0.8650 0.8645 0.8640 0.8635
2352.602696 0.8630 0.8630 0.8630 0.8620 0.8610
2357.472838 0.8610 0.8610 0.8610 0.8610 0.8610
2362.342980 0.8610 0.8610 0.8610 0.8620 0.8630
2367.213122 0.8630 0.8630 0.8630 0.8630 0.8630
2372.083264 0.8630 0.8635 0.8640 0.8640 0.8640
2376.953406 0.8640 0.8640 0.8635 0.8630 0.8630
2381.823547 0.8630 0.8620 0.8610 0.8610 0.8610
2386.693689 0.8605 0.8600 0.8595 0.8590 0.8590
2391.563831 0.8590 0.8585 0.8580 0.8580 0.8580
2396.433973 0.8580 0.8580 0.8580 0.8580 0.8580
2401.304115 0.8580 0.8580 0.8580 0.8585 0.8590
2406.174257 0.8590 0.8590 0.8590 0.8590 0.8590
2411.044399 0.8590 0.8590 0.8590 0.8590 0.8590
2415.914540 0.8590 0.8590 0.8585 0.8580 0.8580
2420.784682 0.8580 0.8580 0.8580 0.8580 0.8580
2425.654824 0.8580 0.8580 0.8585 0.8590 0.8590
2430.524966 0.8590 0.8600 0.8610 0.8610 0.8610
2435.395108 0.8620 0.8630 0.8630 0.8630 0.8635
2440.265250 0.8640 0.8640 0.8640 0.8645 0.8650
2445.135391 0.8650 0.8650 0.8650 0.8650 0.8660
2450.005533 0.8670 0.8670 0.8670 0.8670 0.8670
2454.875675 0.8670 0.8670 0.8670 0.8670 0.8670
2459.745817 0.8670 0.8670 0.8670 0.8670 0.8670
2464.615959 0.8670 0.8670 0.8670 0.8670 0.8670
2469.486101 0.8670 0.8670 0.8670 0.8670 0.8670
2474.356243 0.8660 0.8650 0.8650 0.8650 0.8645
2479.226384 0.8640 0.8640 0.8640 0.8635 0.8630
2484.096526 0.8620 0.8610 0.8610 0.8610 0.8610
2488.966668 0.8610 0.8610 0.8610 0.8605 0.8600
2493.836810 0.8605 0.8610 0.8610 0.8610 0.8605
2498.706952 0.8600 0.8595 0.8590 0.8590 0.8590
2503.577094 0.8585 0.8580 0.8580 0.8580 0.8580
2508.447235 0.8580 0.8580 0.8580 0.8580 0.8580
2513.317377 0.8580 0.8580 0.8580 0.8580 0.8580
2518.187519 0.8580 0.8570 0.8560 0.8560 0.8560
2523.057661 0.8560 0.8560 0.8560 0.8560 0.8560
2527.927803 0.8560 0.8560 0.8560 0.8560 0.8560
2532.797945 0.8555 0.8550 0.8545 0.8540 0.8540
2537.668087 0.8540 0.8530 0.8520 0.8520 0.8520
2542.538228 0.8515 0.8510 0.8510 0.8510 0.8510
2547.408370 0.8510 0.8510 0.8510 0.8510 0.8510
2552.278512 0.8515 0.8520 0.8520 0.8520 0.8530
2557.148654 0.8540 0.8530 0.8520 0.8520 0.8520
2562.018796 0.8515 0.8510 0.8510 0.8510 0.8510
2566.888938 0.8510 0.8510 0.8510 0.8515 0.8520
2571.759079 0.8515 0.8510 0.8505 0.8500 0.8500
2576.629221 0.8500 0.8495 0.8490 0.8490 0.8490
2581.499363 0.8490 0.8490 0.8490 0.8490 0.8490
2586.369505 0.8490 0.8490 0.8490 0.8490 0.8490
2591.239647 0.8490 0.8490 0.8490 0.8490 0.8495
2596.109789 0.8500 0.8505 0.8510 0.8505 0.8500
2600.979931 0.8500 0.8500 0.8500 0.8500 0.8500
2605.850072 0.8500 0.8500 0.8500 0.8500 0.8500
2610.720214 0.8500 0.8500 0.8505 0.8510 0.8510
2615.590356 0.8510 0.8510 0.8510 0.8500 0.8490
2620.460498 0.8490 0.8490 0.8495 0.8500 0.8500
2625.330640 0.8500 0.8500 0.8500 0.8495 0.8490
2630.200782 0.8490 0.8490 0.8480 0.8470 0.8470
2635.070923 0.8470 0.8470 0.8470 0.8480 0.8490
2639.941065 0.8495 0.8500 0.8505 0.8510 0.8515
2644.811207 0.8520 0.8515 0.8510 0.8505 0.8500
2649.681349 0.8500 0.8500 0.8495 0.8490 0.8490
2654.551491 0.8490 0.8490 0.8490 0.8480 0.8470
2659.421633 0.8470 0.8470 0.8465 0.8460 0.8460
2664.291775 0.8460 0.8460 0.8460 0.8460 0.8460
2669.161916 0.8460 0.8460 0.8460 0.8460 0.8460
2674.032058 0.8460 0.8460 0.8460 0.8465 0.8470
2678.902200 0.8470 0.8470 0.8470 0.8470 0.8465
2683.772342 0.8460 0.8455 0.8450 0.8440 0.8430
2688.642484 0.8425 0.8420 0.8415 0.8410 0.8405
2693.512626 0.8400 0.8400 0.8400 0.8400 0.8400
2698.382767 0.8400 0.8400 0.8400 0.8400 0.8405
2703.252909 0.8410 0.8405 0.8400 0.8400 0.8400
2708.123051 0.8390 0.8380 0.8380 0.8380 0.8380
2712.993193 0.8380 0.8380 0.8380 0.8380 0.8380
2717.863335 0.8375 0.8370 0.8370 0.8370 0.8365
2722.733477 0.8360 0.8350 0.8340 0.8335 0.8330
2727.603619 0.8330 0.8330 0.8325 0.8320 0.8320
2732.473760 0.8320 0.8320 0.8320 0.8320 0.8320
2737.343902 0.8320 0.8320 0.8325 0.8330 0.8335
2742.214044 0.8340 0.8350 0.8360 0.8365 0.8370
2747.084186 0.8370 0.8370 0.8370 0.8370 0.8370
2751.954328 0.8370 0.8370 0.8370 0.8370 0.8370
2756.824470 0.8365 0.8360 0.8360 0.8360 0.8360
2761.694612 0.8360 0.8360 0.8360 0.8360 0.8360
2766.564753 0.8360 0.8360 0.8360 0.8360 0.8360
2771.434895 0.8360 0.8350 0.8340 0.8340 0.8340
2776.305037 0.8340 0.8340 0.8335 0.8330 0.8330
2781.175179 0.8330 0.8330 0.8330 0.8325 0.8320
2786.045321 0.8320 0.8320 0.8310 0.8300 0.8295
2790.915463 0.8290 0.8290 0.8290 0.8290 0.8290
2795.785604 0.8285 0.8280 0.8275 0.8270 0.8260
2800.655746 0.8250 0.8245 0.8240 0.8240 0.8240
2805.525888 0.8235 0.8230 0.8230 0.8230 0.8230
2810.396030 0.8230 0.8230 0.8230 0.8230 0.8230
2815.266172 0.8220 0.8210 0.8205 0.8200 0.8200
2820.136314 0.8200 0.8195 0.8190 0.8190 0.8190
2825.006456 0.8190 0.8190 0.8185 0.8180 0.8165
2829.876597 0.8150 0.8150 0.8150 0.8145 0.8140
2834.746739 0.8130 0.8120 0.8110 0.8100 0.8075
2839.616881 0.8050 0.8015 0.7980 0.7950 0.7920
2844.487023 0.7905 0.7890 0.7880 0.7870 0.7855
2849.357165 0.7840 0.7835 0.7830 0.7820 0.7810
2854.227307 0.7810 0.7810 0.7810 0.7810 0.7810
2859.097448 0.7810 0.7820 0.7830 0.7835 0.7840
2863.967590 0.7845 0.7850 0.7860 0.7870 0.7875
2868.837732 0.7880 0.7885 0.7890 0.7895 0.7900
2873.707874 0.7910 0.7920 0.7920 0.7920 0.7920
2878.578016 0.7920 0.7920 0.7920 0.7910 0.7900
2883.448158 0.7900 0.7900 0.7900 0.7900 0.7900
2888.318300 0.7900 0.7900 0.7900 0.7900 0.7900
2893.188441 0.7895 0.7890 0.7885 0.7880 0.7865
2898.058583 0.7850 0.7830 0.7810 0.7780 0.7750
2902.928725 0.7725 0.7700 0.7680 0.7660 0.7645
2907.798867 0.7630 0.7620 0.7610 0.7575 0.7540
2912.669009 0.7495 0.7450 0.7420 0.7390 0.7355
2917.539151 0.7320 0.7305 0.7290 0.7280 0.7270
2922.409292 0.7265 0.7260 0.7265 0.7270 0.7305
2927.279434 0.7340 0.7390 0.7440 0.7485 0.7530
2932.149576 0.7550 0.7570 0.7575 0.7580 0.7580
2937.019718 0.7580 0.7560 0.7540 0.7520 0.7500
2941.889860 0.7490 0.7480 0.7475 0.7470 0.7440
2946.760002 0.7410 0.7395 0.7380 0.7360 0.7340
2951.630144 0.7325 0.7310 0.7305 0.7300 0.7305
2956.500285 0.7310 0.7325 0.7340 0.7360 0.7380
2961.370427 0.7385 0.7390 0.7390 0.7390 0.7390
2966.240569 0.7390 0.7385 0.7380 0.7380 0.7380
2971.110711 0.7370 0.7360 0.7350 0.7340 0.7325
2975.980853 0.7310 0.7305 0.7300 0.7305 0.7310
2980.850995 0.7345 0.7380 0.7405 0.7430 0.7450
2985.721136 0.7470 0.7495 0.7520 0.7540 0.7560
2990.591278 0.7580 0.7600 0.7615 0.7630 0.7645
2995.461420 0.7660 0.7665 0.7670 0.7680 0.7690
3000.331562 0.7700 0.7710 0.7715 0.7720 0.7720
3005.201704 0.7720 0.7715 0.7710 0.7710 0.7710
3010.071846 0.7705 0.7700 0.7700 0.7700 0.7700
3014.941988 0.7700 0.7700 0.7700 0.7685 0.7670
3019.812129 0.7645 0.7620 0.7610 0.7600 0.7600
3024.682271 0.7600 0.7585 0.7570 0.7530 0.7490
3029.552413 0.7490 0.7490 0.7495 0.7500 0.7500
3034.422555 0.7500 0.7495 0.7490 0.7490 0.7490
3039.292697 0.7490 0.7490 0.7495 0.7500 0.7500
3044.162839 0.7500 0.7500 0.7500 0.7500 0.7500
3049.032980 0.7500 0.7500 0.7495 0.7490 0.7485
3053.903122 0.7480 0.7430 0.7380 0.7350 0.7320
3058.773264 0.7305 0.7290 0.7275 0.7260 0.7255
3063.643406 0.7250 0.7250 0.7250 0.7250 0.7250
3068.513548 0.7255 0.7260 0.7275 0.7290 0.7295
3073.383690 0.7300 0.7310 0.7320 0.7340 0.7360
3078.253832 0.7380 0.7400 0.7425 0.7450 0.7465
3083.123973 0.7480 0.7480 0.7480 0.7475 0.7470
3087.994115 0.7470 0.7470 0.7460 0.7450 0.7460
3092.864257 0.7470 0.7475 0.7480 0.7500 0.7520
3097.734399 0.7540 0.7560 0.7590 0.7620 0.7665
3102.604541 0.7710 0.7750 0.7790 0.7820 0.7850
3107.474683 0.7860 0.7870 0.7880 0.7890 0.7895
3112.344824 0.7900 0.7920 0.7940 0.7955 0.7970
3117.214966 0.7990 0.8010 0.8015 0.8020 0.8035
3122.085108 0.8050 0.8055 0.8060 0.8075 0.8090
3126.955250 0.8100 0.8110 0.8110 0.8110 0.8130
3131.825392 0.8150 0.8150 0.8150 0.8150 0.8150
3136.695534 0.8155 0.8160 0.8160 0.8160 0.8170
3141.565676 0.8180 0.8180 0.8180 0.8180 0.8180
3146.435817 0.8180 0.8180 0.8180 0.8180 0.8180
3151.305959 0.8180 0.8180 0.8180 0.8180 0.8180
3156.176101 0.8180 0.8180 0.8170 0.8160 0.8160
3161.046243 0.8160 0.8180 0.8200 0.8200 0.8200
3165.916385 0.8195 0.8190 0.8190 0.8190 0.8185
3170.786527 0.8180 0.8165 0.8150 0.8150 0.8150
3175.656668 0.8155 0.8160 0.8185 0.8210 0.8225
3180.526810 0.8240 0.8255 0.8270 0.8255 0.8240
3185.396952 0.8235 0.8230 0.8230 0.8230 0.8235
3190.267094 0.8240 0.8240 0.8240 0.8225 0.8210
3195.137236 0.8205 0.8200 0.8195 0.8190 0.8185
3200.007378 0.8180 0.8170 0.8160 0.8170 0.8180
3204.877520 0.8185 0.8190 0.8190 0.8190 0.8190
3209.747661 0.8190 0.8190 0.8190 0.8190 0.8190
3214.617803 0.8190 0.8190 0.8190 0.8190 0.8190
3219.487945 0.8190 0.8190 0.8190 0.8190 0.8190
3224.358087 0.8190 0.8190 0.8190 0.8190 0.8190
3229.228229 0.8190 0.8190 0.8190 0.8185 0.8180
3234.098371 0.8180 0.8180 0.8170 0.8160 0.8160
3238.968513 0.8160 0.8160 0.8160 0.8160 0.8160
3243.838654 0.8160 0.8160 0.8170 0.8180 0.8180
3248.708796 0.8180 0.8170 0.8160 0.8155 0.8150
3253.578938 0.8145 0.8140 0.8130 0.8120 0.8105
3258.449080 0.8090 0.8080 0.8070 0.8060 0.8050
3263.319222 0.8055 0.8060 0.8060 0.8060 0.8060
3268.189364 0.8060 0.8060 0.8060 0.8060 0.8060
3273.059505 0.8060 0.8060 0.8055 0.8050 0.8040
3277.929647 0.8030 0.8020 0.8010 0.8005 0.8000
3282.799789 0.7990 0.7980 0.7980 0.7980 0.7980
3287.669931 0.7980 0.7980 0.7980 0.7980 0.7980
3292.540073 0.7980 0.7980 0.7980 0.7980 0.7975
3297.410215 0.7970 0.7970 0.7970 0.7970 0.7970
3302.280357 0.7970 0.7970 0.7970 0.7970 0.7970
3307.150498 0.7970 0.7965 0.7960 0.7950 0.7940
3312.020640 0.7940 0.7940 0.7935 0.7930 0.7925
3316.890782 0.7920 0.7920 0.7920 0.7920 0.7920
3321.760924 0.7920 0.7920 0.7925 0.7930 0.7930
3326.631066 0.7930 0.7930 0.7930 0.7930 0.7930
3331.501208 0.7930 0.7930 0.7925 0.7920 0.7910
3336.371349 0.7900 0.7895 0.7890 0.7880 0.7870
3341.241491 0.7855 0.7840 0.7840 0.7840 0.7835
3346.111633 0.7830 0.7835 0.7840 0.7855 0.7870
3350.981775 0.7875 0.7880 0.7890 0.7900 0.7915
3355.851917 0.7930 0.7935 0.7940 0.7940 0.7940
3360.722059 0.7950 0.7960 0.7960 0.7960 0.7960
3365.592201 0.7960 0.7965 0.7970 0.7970 0.7970
3370.462342 0.7970 0.7970 0.7970 0.7970 0.7975
3375.332484 0.7980 0.7980 0.7980 0.7990 0.8000
3380.202626 0.8005 0.8010 0.8015 0.8020 0.8020
3385.072768 0.8020 0.8020 0.8020 0.8020 0.8020
3389.942910 0.8020 0.8020 0.8025 0.8030 0.8030
3394.813052 0.8030 0.8040 0.8050 0.8055 0.8060
3399.683193 0.8075 0.8090 0.8100 0.8110 0.8110
3404.553335 0.8110 0.8115 0.8120 0.8120 0.8120
3409.423477 0.8130 0.8140 0.8140 0.8140 0.8145
3414.293619 0.8150 0.8150 0.8150 0.8155 0.8160
3419.163761 0.8160 0.8160 0.8175 0.8190 0.8190
3424.033903 0.8190 0.8195 0.8200 0.8200 0.8200
3428.904045 0.8205 0.8210 0.8210 0.8210 0.8220
3433.774186 0.8230 0.8230 0.8230 0.8235 0.8240
3438.644328 0.8240 0.8240 0.8255 0.8270 0.8270
3443.514470 0.8270 0.8270 0.8270 0.8270 0.8270
3448.384612 0.8260 0.8250 0.8250 0.8250 0.8250
3453.254754 0.8250 0.8260 0.8270 0.8270 0.8270
3458.124896 0.8280 0.8290 0.8290 0.8290 0.8295
3462.995037 0.8300 0.8300 0.8300 0.8310 0.8320
3467.865179 0.8320 0.8320 0.8320 0.8320 0.8320
3472.735321 0.8320 0.8320 0.8320 0.8320 0.8320
3477.605463 0.8325 0.8330 0.8330 0.8330 0.8330
3482.475605 0.8330 0.8330 0.8330 0.8330 0.8330
3487.345747 0.8330 0.8330 0.8330 0.8330 0.8325
3492.215889 0.8320 0.8320 0.8320 0.8320 0.8320
3497.086030 0.8320 0.8320 0.8320 0.8320 0.8320
3501.956172 0.8320 0.8320 0.8320 0.8325 0.8330
3506.826314 0.8330 0.8330 0.8330 0.8330 0.8330
3511.696456 0.8330 0.8330 0.8330 0.8330 0.8330
3516.566598 0.8335 0.8340 0.8340 0.8340 0.8350
3521.436740 0.8360 0.8360 0.8360 0.8365 0.8370
3526.306881 0.8370 0.8370 0.8370 0.8370 0.8370
3531.177023 0.8370 0.8370 0.8370 0.8375 0.8380
3536.047165 0.8380 0.8380 0.8380 0.8380 0.8375
3540.917307 0.8370 0.8370 0.8370 0.8365 0.8360
3545.787449 0.8365 0.8370 0.8370 0.8370 0.8370
3550.657591 0.8370 0.8370 0.8370 0.8370 0.8370
3555.527733 0.8370 0.8370 0.8370 0.8370 0.8370
3560.397874 0.8370 0.8375 0.8380 0.8380 0.8380
3565.268016 0.8390 0.8400 0.8400 0.8400 0.8405
3570.138158 0.8410 0.8410 0.8410 0.8405 0.8400
3575.008300 0.8390 0.8380 0.8380 0.8380 0.8380
3579.878442 0.8380 0.8380 0.8380 0.8380 0.8380
3584.748584 0.8380 0.8380 0.8375 0.8370 0.8370
3589.618725 0.8370 0.8370 0.8370 0.8370 0.8370
3594.488867 0.8370 0.8370 0.8370 0.8370 0.8375
3599.359009 0.8380 0.8380 0.8380 0.8375 0.8370
3604.229151 0.8370 0.8370 0.8370 0.8370 0.8370
3609.099293 0.8370 0.8370 0.8370 0.8370 0.8370
3613.969435 0.8370 0.8370 0.8370 0.8370 0.8365
3618.839577 0.8360 0.8360 0.8360 0.8360 0.8360
3623.709718 0.8360 0.8360 0.8360 0.8360 0.8360
3628.579860 0.8360 0.8360 0.8360 0.8360 0.8360
3633.450002 0.8360 0.8360 0.8360 0.8360 0.8360
3638.320144 0.8360 0.8360 0.8360 0.8360 0.8360
3643.190286 0.8360 0.8360 0.8360 0.8360 0.8360
3648.060428 0.8360 0.8360 0.8360 0.8350 0.8340
3652.930569 0.8340 0.8340 0.8340 0.8340 0.8340
3657.800711 0.8340 0.8340 0.8340 0.8340 0.8340
3662.670853 0.8340 0.8340 0.8340 0.8340 0.8335
3667.540995 0.8330 0.8330 0.8330 0.8330 0.8330
3672.411137 0.8330 0.8330 0.8330 0.8330 0.8330
3677.281279 0.8330 0.8330 0.8330 0.8335 0.8340
3682.151421 0.8340 0.8340 0.8340 0.8340 0.8340
3687.021562 0.8340 0.8340 0.8340 0.8335 0.8330
3691.891704 0.8330 0.8330 0.8330 0.8330 0.8330
3696.761846 0.8330 0.8325 0.8320 0.8320 0.8320
3701.631988 0.8320 0.8320 0.8310 0.8300 0.8300
3706.502130 0.8300 0.8300 0.8300 0.8300 0.8300
3711.372272 0.8300 0.8300 0.8300 0.8300 0.8300
3716.242414 0.8300 0.8300 0.8300 0.8300 0.8300
3721.112555 0.8310 0.8320 0.8310 0.8300 0.8310
3725.982697 0.8320 0.8320 0.8320 0.8320 0.8320
3730.852839 0.8320 0.8320 0.8325 0.8330 0.8330
3735.722981 0.8330 0.8330 0.8330 0.8330 0.8330
3740.593123 0.8330 0.8330 0.8330 0.8330 0.8330
3745.463265 0.8330 0.8330 0.8330 0.8330 0.8330
3750.333406 0.8330 0.8330 0.8330 0.8330 0.8330
3755.203548 0.8330 0.8315 0.8300 0.8310 0.8320
3760.073690 0.8310 0.8300 0.8295 0.8290 0.8290
3764.943832 0.8290 0.8290 0.8290 0.8285 0.8280
3769.813974 0.8280 0.8280 0.8290 0.8300 0.8300
3774.684116 0.8300 0.8300 0.8300 0.8310 0.8320
3779.554258 0.8320 0.8320 0.8300 0.8280 0.8280
3784.424399 0.8280 0.8280 0.8280 0.8285 0.8290
3789.294541 0.8290 0.8290 0.8295 0.8300 0.8300
3794.164683 0.8300 0.8310 0.8320 0.8310 0.8300
3799.034825 0.8295 0.8290 0.8285 0.8280 0.8280
3803.904967 0.8280 0.8275 0.8270 0.8270 0.8270
3808.775109 0.8275 0.8280 0.8285 0.8290 0.8305
3813.645250 0.8320 0.8320 0.8320 0.8310 0.8300
3818.515392 0.8295 0.8290 0.8285 0.8280 0.8275
3823.385534 0.8270 0.8270 0.8270 0.8280 0.8290
3828.255676 0.8295 0.8300 0.8300 0.8300 0.8300
3833.125818 0.8300 0.8295 0.8290 0.8290 0.8290
3837.995960 0.8285 0.8280 0.8285 0.8290 0.8290
3842.866102 0.8290 0.8290 0.8290 0.8290 0.8290
3847.736243 0.8290 0.8290 0.8290 0.8290 0.8290
3852.606385 0.8290 0.8290 0.8290 0.8285 0.8280
3857.476527 0.8280 0.8280 0.8285 0.8290 0.8290
3862.346669 0.8290 0.8285 0.8280 0.8280 0.8280
3867.216811 0.8280 0.8280 0.8275 0.8270 0.8270
3872.086953 0.8270 0.8270 0.8270 0.8270 0.8270
3876.957094 0.8270 0.8270 0.8270 0.8270 0.8270
3881.827236 0.8270 0.8270 0.8270 0.8270 0.8270
3886.697378 0.8270 0.8270 0.8270 0.8270 0.8270
3891.567520 0.8270 0.8270 0.8270 0.8270 0.8270
3896.437662 0.8260 0.8250 0.8245 0.8240 0.8240
3901.307804 0.8240 0.8240 0.8240 0.8240 0.8240
3906.177946 0.8240 0.8240 0.8240 0.8240 0.8245
3911.048087 0.8250 0.8260 0.8270 0.8270 0.8270
3915.918229 0.8275 0.8280 0.8280 0.8280 0.8275
3920.788371 0.8270 0.8270 0.8270 0.8270 0.8270
3925.658513 0.8270 0.8270 0.8270 0.8270 0.8270
3930.528655 0.8270 0.8270 0.8270 0.8270 0.8270
3935.398797 0.8270 0.8270 0.8270 0.8270 0.8270
3940.268938 0.8270 0.8270 0.8270 0.8270 0.8270
3945.139080 0.8270 0.8270 0.8270 0.8270 0.8270
3950.009222 0.8270 0.8260 0.8250 0.8250 0.8250
3954.879364 0.8250 0.8250 0.8260 0.8270 0.8270
3959.749506 0.8270 0.8270 0.8270 0.8260 0.8250
3964.619648 0.8250 0.8250 0.8250 0.8250 0.8250
3969.489790 0.8250 0.8250 0.8250 0.8250 0.8250
3974.359931 0.8250 0.8250 0.8250 0.8250 0.8250
3979.230073 0.8250 0.8250 0.8250 0.8245 0.8240
3984.100215 0.8240 0.8240 0.8240 0.8240 0.8240
3988.970357 0.8240 0.8240 0.8240 0.8235 0.8230
3993.840499 0.8230 0.8230 0.8230 0.8230 0.8230
3998.710641 0.8230
##END=
