##TITLE=BENZENEMETHANAMINE, N-PHENYLMETHYL-, HYDROCHLORIDE
##JCAMP-DX=4.24
##DATA TYPE=INFRARED SPECTRUM
##CLASS=COBLENTZ III
##ORIGIN=DOW CHEMICAL COMPANY
##OWNER=COBLENTZ SOCIETY
Collection (C) 2018 copyright by the U.S. Secretary of Commerce
on behalf of the United States of America. All rights reserved.
##DATE=1959/07/10
##NAMES=N-benzyl(phenyl)methanamine hydrochloride
DIBENZYLAMINE HYDROCHLORIDE
##MOLFORM=C14 H16 Cl N
##SOURCE REFERENCE=COBLENTZ NO. 10317
##$NIST ID=B6010317
##$NIST SOURCE=COBLENTZ
##$NIST IMAGE=cob10317
##SPECTROMETER/DATA SYSTEM=DOW KBr FOREPRISM-GRATING
##INSTRUMENT PARAMETERS=BLAZED AT 3.5, 12.0, 20.0 MICRON, CHANGED AT 5.0, 7.5, 14.9 MICRON
##STATE=SOLID (NUJOL MULL)
##PATH LENGTH=
$$SPECTRAL CONTAMINATION DUE TO OIL AROUND 2900, 1460, 1380, 720 CM^-^1
##SAMPLING PROCEDURE=TRANSMISSION
##RESOLUTION=4
##DATA PROCESSING=DIGITIZED BY NIST FROM HARD COPY (FROM TWO SEGMENTS)
##XUNITS=1/CM
##YUNITS=TRANSMITTANCE
##XFACTOR=1.000000
##YFACTOR=1
##DELTAX=0.874636
##FIRSTX=451.02
##LASTX=3771.14
##FIRSTY=1.008
##MAXX=3771.14
##MINX=451.02
##MAXY=1.084
##MINY=0.008
##NPOINTS=3797
##XYDATA=(X++(Y..Y))
451.020000 1.0080 1.0080 1.0090 1.0080 1.0060
455.393179 1.0060 1.0060 1.0060 1.0060 1.0060
459.766359 1.0060 1.0080 1.0080 1.0080 1.0080
464.139538 1.0080 1.0060 1.0060 1.0050 1.0040
468.512717 1.0040 1.0040 1.0010 1.0010 1.0000
472.885897 1.0000 0.9980 0.9980 0.9970 0.9950
477.259076 0.9930 0.9900 0.9870 0.9850 0.9780
481.632256 0.9710 0.9590 0.9510 0.9361 0.9191
486.005435 0.8940 0.8720 0.7752 0.7022 0.6771
490.378614 0.6770 0.7059 0.7538 0.8346 0.9126
494.751794 0.9170 0.9170 0.9140 0.9030 0.8920
499.124973 0.8890 0.8920 0.9517 1.0117 1.0210
503.498152 1.0230 1.0320 1.0380 1.0460 1.0470
507.871332 1.0480 1.0500 1.0510 1.0520 1.0540
512.244511 1.0540 1.0550 1.0550 1.0570 1.0570
516.617690 1.0580 1.0610 1.0620 1.0620 1.0630
520.990870 1.0650 1.0650 1.0650 1.0650 1.0650
525.364049 1.0630 1.0630 1.0620 1.0620 1.0620
529.737229 1.0660 1.0670 1.0670 1.0690 1.0690
534.110408 1.0690 1.0700 1.0720 1.0720 1.0720
538.483587 1.0720 1.0730 1.0730 1.0760 1.0770
542.856767 1.0800 1.0810 1.0820 1.0840 1.0840
547.229946 1.0840 1.0840 1.0820 1.0820 1.0820
551.603125 1.0810 1.0810 1.0810 1.0810 1.0810
555.976305 1.0810 1.0810 1.0810 1.0810 1.0810
560.349484 1.0810 1.0810 1.0800 1.0780 1.0780
564.722663 1.0780 1.0780 1.0780 1.0770 1.0770
569.095843 1.0770 1.0760 1.0760 1.0740 1.0740
573.469022 1.0730 1.0720 1.0720 1.0700 1.0690
577.842201 1.0670 1.0660 1.0650 1.0620 1.0580
582.215381 1.0550 1.0520 1.0500 1.0460 1.0430
586.588560 1.0330 1.0290 1.0240 1.0011 0.9781
590.961740 0.9630 0.9610 0.9630 0.9740 1.0079
595.334919 1.0289 1.0390 1.0400 1.0390 1.0330
599.708098 1.0190 1.0020 0.9750 0.9490 0.9231
604.081278 0.9230 0.9599 0.9949 1.0288 1.0628
608.454457 1.0690 1.0720 1.0740 1.0740 1.0730
612.827636 1.0730 1.0730 1.0720 1.0690 1.0690
617.200816 1.0670 1.0670 1.0660 1.0430 1.0320
621.573995 1.0320 1.0569 1.0650 1.0660 1.0670
625.947174 1.0690 1.0700 1.0720 1.0730 1.0730
630.320354 1.0730 1.0740 1.0740 1.0740 1.0740
634.693533 1.0740 1.0740 1.0740 1.0730 1.0730
639.066713 1.0730 1.0730 1.0730 1.0730 1.0730
643.439892 1.0730 1.0720 1.0720 1.0720 1.0720
647.813071 1.0700 1.0700 1.0700 1.0690 1.0690
652.186251 1.0690 1.0690 1.0690 1.0690 1.0670
656.559430 1.0650 1.0630 1.0610 1.0610 1.0590
660.932609 1.0580 1.0580 1.0580 1.0570 1.0550
665.305789 1.0540 1.0500 1.0480 1.0480 1.0480
669.678968 1.0480 1.0500 1.0500 1.0510 1.0520
674.052147 1.0520 1.0510 1.0500 1.0460 1.0440
678.425327 1.0430 1.0390 1.0330 1.0290 1.0240
682.798506 1.0230 1.0200 1.0200 1.0170 1.0160
687.171686 1.0130 1.0100 1.0050 0.9980 0.9940
691.544865 0.9910 0.9751 0.9571 0.9361 0.9111
695.918044 0.8890 0.8510 0.8090 0.7900 0.6343
700.291224 0.4186 0.3383 0.2304 0.1235 0.1230
704.664403 0.1600 0.1980 0.3647 0.3889 0.5266
709.037582 0.6864 0.8115 0.8747 0.9377 0.9509
713.410762 0.9590 0.9600 0.9590 0.9560 0.9550
717.783941 0.9530 0.9480 0.9440 0.9400 0.9380
722.157120 0.9400 0.9420 0.9440 0.9440 0.9450
726.530300 0.9470 0.9470 0.9470 0.9440 0.9400
730.903479 0.9370 0.9300 0.9300 0.9250 0.9190
735.276658 0.9130 0.8961 0.8890 0.8731 0.8611
739.649838 0.8010 0.7710 0.6841 0.6521 0.5592
744.023017 0.3177 0.2562 0.1972 0.1373 0.0763
748.396197 0.0760 0.1990 0.5327 0.6458 0.6939
752.769376 0.6940 0.6790 0.6571 0.6560 0.6251
757.142555 0.6250 0.6690 0.7259 0.8457 0.8879
761.515735 0.9608 0.9749 0.9889 0.9930 0.9980
765.888914 1.0000 1.0080 1.0090 1.0100 1.0100
770.262093 1.0120 1.0130 1.0140 1.0140 1.0160
774.635273 1.0170 1.0170 1.0170 1.0200 1.0200
779.008452 1.0200 1.0210 1.0210 1.0210 1.0230
783.381631 1.0230 1.0240 1.0250 1.0250 1.0250
787.754811 1.0250 1.0230 1.0230 1.0200 1.0190
792.127990 1.0170 1.0160 1.0140 1.0130 1.0120
796.501170 1.0100 1.0090 1.0090 1.0080 1.0050
800.874349 1.0020 0.9970 0.9900 0.9830 0.9800
805.247528 0.9800 0.9790 0.9790 0.9780 0.9760
809.620708 0.9740 0.9700 0.9670 0.9600 0.9560
813.993887 0.9530 0.9520 0.9490 0.9480 0.9470
818.367066 0.9450 0.9380 0.9300 0.9150 0.9070
822.740246 0.9030 0.9000 0.8990 0.8990 0.8990
827.113425 0.9000 0.9030 0.9080 0.9230 0.9370
831.486604 0.9490 0.9570 0.9719 0.9849 0.9930
835.859784 0.9980 1.0010 1.0090 1.0130 1.0130
840.232963 1.0140 1.0140 1.0140 1.0140 1.0130
844.606143 1.0120 1.0100 1.0080 1.0050 1.0010
848.979322 0.9950 0.9830 0.9661 0.9451 0.9420
853.352501 0.9410 0.9410 0.9380 0.9360 0.9330
857.725681 0.9270 0.9270 0.9330 0.9380 0.9469
862.098860 0.9560 0.9660 0.9760 0.9970 1.0010
866.472039 1.0040 1.0060 1.0100 1.0140 1.0160
870.845219 1.0190 1.0200 1.0200 1.0210 1.0210
875.218398 1.0210 1.0230 1.0240 1.0240 1.0240
879.591577 1.0240 1.0230 1.0210 1.0210 1.0210
883.964757 1.0210 1.0210 1.0210 1.0200 1.0200
888.337936 1.0200 1.0210 1.0210 1.0210 1.0170
892.711115 1.0170 1.0160 1.0160 1.0170 1.0200
897.084295 1.0200 1.0200 1.0210 1.0210 1.0230
901.457474 1.0230 1.0230 1.0210 1.0200 1.0170
905.830654 1.0140 1.0140 1.0130 1.0120 1.0120
910.203833 1.0120 1.0100 1.0100 1.0080 1.0050
914.577012 1.0020 1.0000 0.9900 0.9850 0.9800
918.950192 0.9760 0.9451 0.9360 0.9081 0.9070
923.323371 0.9080 0.9190 0.9380 0.9470 0.9610
927.696550 0.9869 0.9900 0.9910 0.9900 0.9870
932.069730 0.9830 0.9820 0.9820 0.9820 0.9830
936.442909 0.9860 0.9910 0.9940 0.9980 1.0010
940.816088 1.0020 1.0050 1.0050 1.0050 1.0050
945.189268 1.0040 1.0040 1.0040 1.0020 1.0020
949.562447 1.0010 1.0010 1.0000 1.0000 1.0000
953.935627 1.0000 1.0000 0.9980 0.9970 0.9970
958.308806 0.9950 0.9940 0.9930 0.9910 0.9890
962.681985 0.9870 0.9860 0.9790 0.9750 0.9700
967.055165 0.9680 0.9640 0.9610 0.9570 0.9520
971.428344 0.9410 0.9330 0.9250 0.9101 0.8921
975.801523 0.8690 0.8570 0.8470 0.8350 0.8200
980.174703 0.8011 0.7900 0.7711 0.7700 0.7710
984.547882 0.7740 0.7770 0.7920 0.7970 0.8160
988.921061 0.8280 0.8539 0.8769 0.8939 0.9139
993.294241 0.9330 0.9440 0.9530 0.9640 0.9700
997.667420 0.9700 0.9670 0.9610 0.9600 0.9600
1002.040600 0.9590 0.9570 0.9550 0.9470 0.9360
1006.413779 0.9320 0.9260 0.9150 0.8981 0.8881
1010.786958 0.8810 0.8770 0.8790 0.8950 0.9289
1015.160138 0.9469 0.9629 0.9750 0.9760 0.9760
1019.533317 0.9760 0.9750 0.9750 0.9740 0.9680
1023.906496 0.9660 0.9640 0.9600 0.9550 0.9530
1028.279676 0.9480 0.9360 0.9130 0.8721 0.8321
1032.652855 0.8320 0.8659 0.9078 0.9229 0.9300
1037.026034 0.9320 0.9320 0.9320 0.9290 0.9270
1041.399214 0.9290 0.9300 0.9330 0.9360 0.9380
1045.772393 0.9450 0.9570 0.9670 0.9750 0.9800
1050.145572 0.9860 0.9870 0.9890 0.9890 0.9890
1054.518752 0.9900 0.9900 0.9910 0.9910 0.9930
1058.891931 0.9930 0.9930 0.9870 0.9830 0.9830
1063.265111 0.9820 0.9820 0.9820 0.9820 0.9820
1067.638290 0.9820 0.9820 0.9790 0.9760 0.9750
1072.011469 0.9710 0.9700 0.9680 0.9670 0.9670
1076.384649 0.9660 0.9660 0.9670 0.9670 0.9670
1080.757828 0.9670 0.9660 0.9660 0.9640 0.9630
1085.131007 0.9590 0.9530 0.9510 0.9480 0.9440
1089.504187 0.9300 0.9170 0.9020 0.8990 0.9020
1093.877366 0.9110 0.9299 0.9439 0.9599 0.9709
1098.250545 0.9750 0.9800 0.9860 0.9860 0.9870
1102.623725 0.9890 0.9890 0.9900 0.9900 0.9900
1106.996904 0.9910 0.9930 0.9950 0.9950 0.9950
1111.370084 0.9940 0.9930 0.9930 0.9930 0.9930
1115.743263 0.9930 0.9930 0.9930 0.9940 0.9940
1120.116442 0.9940 0.9970 0.9980 0.9980 1.0010
1124.489622 1.0040 1.0050 1.0060 1.0060 1.0060
1128.862801 1.0060 1.0050 1.0050 1.0040 1.0020
1133.235980 1.0020 1.0010 1.0000 0.9980 0.9980
1137.609160 0.9970 0.9950 0.9940 0.9900 0.9890
1141.982339 0.9890 0.9890 0.9900 0.9900 0.9900
1146.355518 0.9900 0.9890 0.9870 0.9870 0.9870
1150.728698 0.9870 0.9890 0.9890 0.9890 0.9890
1155.101877 0.9900 0.9900 0.9910 0.9910 0.9910
1159.475057 0.9910 0.9910 0.9900 0.9900 0.9910
1163.848236 0.9930 0.9930 0.9940 0.9950 0.9970
1168.221415 0.9970 0.9950 0.9930 0.9910 0.9890
1172.594595 0.9910 0.9930 0.9930 0.9930 0.9910
1176.967774 0.9900 0.9890 0.9850 0.9820 0.9820
1181.340953 0.9830 0.9860 0.9890 0.9910 0.9940
1185.714133 0.9940 0.9940 0.9950 0.9950 0.9950
1190.087312 0.9970 0.9970 0.9970 0.9970 0.9980
1194.460491 0.9980 0.9980 0.9980 1.0000 1.0010
1198.833671 1.0020 1.0040 1.0020 1.0020 1.0010
1203.206850 1.0010 1.0000 0.9970 0.9970 0.9930
1207.580029 0.9910 0.9900 0.9860 0.9820 0.9671
1211.953209 0.9410 0.9320 0.8990 0.8700 0.8690
1216.326388 0.8880 0.9040 0.9030 0.8960 0.8940
1220.699568 0.8770 0.8770 0.9169 0.9360 0.9589
1225.072747 0.9969 1.0080 1.0100 1.0120 1.0130
1229.445926 1.0130 1.0130 1.0170 1.0200 1.0200
1233.819106 1.0200 1.0200 1.0200 1.0200 1.0200
1238.192285 1.0170 1.0160 1.0160 1.0140 1.0130
1242.565464 1.0130 1.0130 1.0130 1.0130 1.0120
1246.938644 1.0100 1.0050 1.0040 1.0040 1.0020
1251.311823 1.0020 1.0020 1.0020 1.0010 1.0000
1255.685002 0.9980 0.9970 0.9970 0.9950 0.9900
1260.058182 0.9890 0.9870 0.9860 0.9850 0.9850
1264.431361 0.9830 0.9830 0.9830 0.9830 0.9820
1268.804541 0.9820 0.9800 0.9800 0.9780 0.9780
1273.177720 0.9780 0.9760 0.9760 0.9750 0.9740
1277.550899 0.9700 0.9680 0.9660 0.9630 0.9600
1281.924079 0.9590 0.9560 0.9530 0.9520 0.9490
1286.297258 0.9380 0.9320 0.9290 0.9290 0.9300
1290.670437 0.9330 0.9420 0.9530 0.9560 0.9600
1295.043617 0.9610 0.9610 0.9610 0.9610 0.9600
1299.416796 0.9600 0.9590 0.9570 0.9550 0.9530
1303.789975 0.9530 0.9530 0.9530 0.9530 0.9530
1308.163155 0.9520 0.9520 0.9520 0.9520 0.9490
1312.536334 0.9490 0.9490 0.9480 0.9480 0.9480
1316.909514 0.9490 0.9510 0.9510 0.9530 0.9530
1321.282693 0.9550 0.9550 0.9550 0.9530 0.9530
1325.655872 0.9530 0.9530 0.9520 0.9520 0.9510
1330.029052 0.9470 0.9450 0.9450 0.9420 0.9410
1334.402231 0.9380 0.9370 0.9300 0.9180 0.9100
1338.775410 0.9040 0.9030 0.9020 0.9020 0.9000
1343.148590 0.9000 0.9000 0.9000 0.9000 0.8990
1347.521769 0.8980 0.8980 0.8980 0.8990 0.8990
1351.894948 0.9000 0.9000 0.9020 0.9030 0.9030
1356.268128 0.9030 0.9030 0.9030 0.9030 0.9020
1360.641307 0.9000 0.8980 0.8920 0.8890 0.8601
1365.014486 0.8450 0.8310 0.8280 0.8190 0.8190
1369.387666 0.8160 0.8130 0.8110 0.8020 0.7940
1373.760845 0.7880 0.7641 0.7401 0.6843 0.6442
1378.134025 0.6420 0.6440 0.6560 0.6610 0.6790
1382.507204 0.7019 0.7349 0.7579 0.7779 0.7999
1386.880383 0.8200 0.8490 0.8660 0.8810 0.8920
1391.253563 0.9040 0.9130 0.9190 0.9210 0.9220
1395.626742 0.9220 0.9220 0.9210 0.9180 0.9140
1399.999921 0.9100 0.9040 0.9000 0.8940 0.8890
1404.373101 0.8880 0.8880 0.8870 0.8870 0.8880
1408.746280 0.8890 0.8890 0.8880 0.8810 0.8770
1413.119459 0.8750 0.8690 0.8640 0.8610 0.8600
1417.492639 0.8500 0.8450 0.8380 0.8281 0.8111
1421.865818 0.7970 0.7930 0.7890 0.7770 0.7630
1426.238998 0.7301 0.6951 0.6761 0.6382 0.5544
1430.612177 0.5280 0.4030 0.4020 0.4030 0.4180
1434.985356 0.4320 0.4818 0.5268 0.5997 0.6338
1439.358536 0.6390 0.6390 0.6380 0.6340 0.6290
1443.731715 0.6190 0.6080 0.5931 0.5850 0.5701
1448.104894 0.5550 0.5390 0.5050 0.4721 0.4560
1452.478074 0.4341 0.4220 0.3921 0.3721 0.3193
1456.851253 0.2660 0.2580 0.2540 0.2480 0.2400
1461.224432 0.2320 0.2131 0.2100 0.2130 0.2518
1465.597612 0.2860 0.3110 0.3919 0.4100 0.4220
1469.970791 0.4360 0.4679 0.5088 0.5269 0.5837
1474.343971 0.6610 0.7210 0.7410 0.7560 0.7740
1478.717150 0.8009 0.8150 0.8299 0.8419 0.8529
1483.090329 0.8580 0.8680 0.8700 0.8730 0.8770
1487.463509 0.8770 0.8750 0.8700 0.8680 0.8620
1491.836688 0.8570 0.8550 0.8530 0.8500 0.8350
1496.209867 0.8260 0.7563 0.7182 0.7180 0.7210
1500.583047 0.7370 0.7470 0.7560 0.7750 0.8409
1504.956226 0.8889 0.9040 0.9070 0.9080 0.9100
1509.329405 0.9100 0.9110 0.9140 0.9140 0.9140
1513.702585 0.9130 0.9130 0.9130 0.9130 0.9130
1518.075764 0.9130 0.9130 0.9130 0.9110 0.9110
1522.448943 0.9100 0.9110 0.9110 0.9130 0.9140
1526.822123 0.9150 0.9150 0.9150 0.9140 0.9140
1531.195302 0.9150 0.9170 0.9170 0.9150 0.9150
1535.568482 0.9130 0.9130 0.9130 0.9140 0.9140
1539.941661 0.9030 0.8990 0.8950 0.8920 0.8910
1544.314840 0.8890 0.8880 0.8830 0.8800 0.8770
1548.688020 0.8700 0.8610 0.8600 0.8491 0.8341
1553.061199 0.8320 0.8270 0.8120 0.7960 0.7920
1557.434378 0.7860 0.7750 0.7112 0.6791 0.6720
1561.807558 0.6610 0.6560 0.6370 0.6111 0.5801
1566.180737 0.5431 0.5171 0.4981 0.4890 0.4562
1570.553916 0.4420 0.4410 0.4420 0.4470 0.4570
1574.927096 0.4759 0.4890 0.5089 0.6344 0.6519
1579.300275 0.6750 0.7130 0.7740 0.8199 0.8489
1583.673455 0.8789 0.8890 0.8890 0.8850 0.8810
1588.046634 0.8770 0.8760 0.8770 0.8990 0.9379
1592.419813 0.9520 0.9530 0.9570 0.9610 0.9660
1596.792993 0.9670 0.9700 0.9710 0.9710 0.9720
1601.166172 0.9720 0.9740 0.9740 0.9760 0.9760
1605.539351 0.9790 0.9800 0.9820 0.9850 0.9860
1609.912531 0.9890 0.9970 0.9970 1.0010 1.0010
1614.285710 1.0020 1.0020 1.0020 1.0020 1.0020
1618.658889 1.0010 1.0010 1.0020 1.0020 1.0050
1623.032069 1.0050 1.0060 1.0080 1.0090 1.0120
1627.405248 1.0130 1.0140 1.0140 1.0170 1.0190
1631.778428 1.0190 1.0170 1.0140 1.0140 1.0170
1636.151607 1.0210 1.0230 1.0250 1.0270 1.0280
1640.524786 1.0310 1.0310 1.0290 1.0270 1.0250
1644.897966 1.0240 1.0230 1.0230 1.0230 1.0210
1649.271145 1.0160 1.0100 1.0040 1.0020 1.0020
1653.644324 1.0020 1.0010 1.0000 1.0000 0.9970
1658.017504 0.9950 0.9940 0.9950 0.9970 0.9980
1662.390683 0.9980 1.0000 1.0000 1.0000 1.0010
1666.763862 1.0010 1.0000 1.0000 0.9980 0.9980
1671.137042 0.9950 0.9910 0.9890 0.9890 0.9900
1675.510221 0.9900 0.9910 0.9910 0.9930 0.9930
1679.883400 0.9970 0.9980 1.0000 1.0000 1.0010
1684.256580 1.0010 1.0010 1.0000 1.0000 0.9980
1688.629759 1.0000 1.0040 1.0050 1.0050 1.0050
1693.002939 1.0050 1.0050 1.0040 1.0040 1.0040
1697.376118 1.0040 1.0020 1.0000 1.0000 1.0000
1701.749297 0.9980 0.9980 1.0000 1.0010 1.0020
1706.122477 1.0020 1.0020 1.0020 1.0020 1.0020
1710.495656 1.0020 1.0040 1.0050 1.0050 1.0050
1714.868835 1.0050 1.0050 1.0040 1.0040 1.0040
1719.242015 1.0040 1.0020 1.0020 1.0020 1.0020
1723.615194 1.0010 1.0010 1.0010 1.0010 1.0010
1727.988373 1.0010 1.0010 1.0020 1.0020 1.0020
1732.361553 1.0020 1.0020 1.0020 1.0010 1.0000
1736.734732 0.9970 0.9950 0.9940 0.9940 0.9970
1741.107912 1.0010 1.0040 1.0040 1.0010 1.0010
1745.481091 1.0010 1.0010 1.0000 1.0000 0.9980
1749.854270 0.9980 1.0000 1.0000 1.0010 1.0010
1754.227450 1.0000 1.0000 1.0000 1.0000 0.9980
1758.600629 0.9980 0.9970 0.9970 0.9970 0.9970
1762.973808 0.9950 0.9940 0.9930 0.9930 0.9930
1767.346988 0.9910 0.9900 0.9900 0.9870 0.9870
1771.720167 0.9860 0.9850 0.9850 0.9830 0.9830
1776.093346 0.9820 0.9820 0.9830 0.9870 0.9900
1780.466526 0.9910 0.9910 0.9910 0.9910 0.9910
1784.839705 0.9900 0.9900 0.9900 0.9900 0.9900
1789.212885 0.9900 0.9910 0.9940 0.9970 0.9970
1793.586064 0.9950 0.9940 0.9900 0.9890 0.9890
1797.959243 0.9900 0.9900 0.9900 0.9900 0.9910
1802.332423 0.9910 0.9900 0.9900 0.9890 0.9860
1806.705602 0.9850 0.9850 0.9850 0.9850 0.9850
1811.078781 0.9830 0.9820 0.9800 0.9790 0.9790
1815.451961 0.9760 0.9710 0.9680 0.9670 0.9670
1819.825140 0.9670 0.9670 0.9680 0.9720 0.9740
1824.198319 0.9750 0.9750 0.9750 0.9760 0.9760
1828.571499 0.9780 0.9800 0.9830 0.9860 0.9870
1832.944678 0.9870 0.9870 0.9890 0.9910 0.9930
1837.317857 0.9930 0.9940 0.9940 0.9940 0.9950
1841.691037 0.9950 0.9970 0.9970 0.9970 0.9970
1846.064216 0.9980 0.9980 0.9980 0.9980 1.0000
1850.437396 1.0000 1.0000 1.0000 1.0000 1.0000
1854.810575 1.0000 1.0000 1.0000 1.0000 1.0000
1859.183754 1.0000 1.0000 0.9980 0.9980 0.9980
1863.556934 0.9980 0.9980 0.9970 0.9970 0.9970
1867.930113 0.9970 0.9980 0.9980 0.9980 1.0000
1872.303292 1.0000 1.0000 1.0000 0.9980 0.9980
1876.676472 0.9980 0.9970 0.9940 0.9900 0.9900
1881.049651 0.9890 0.9870 0.9870 0.9870 0.9870
1885.422830 0.9870 0.9860 0.9860 0.9820 0.9780
1889.796010 0.9790 0.9740 0.9710 0.9710 0.9740
1894.169189 0.9750 0.9750 0.9750 0.9750 0.9750
1898.542369 0.9750 0.9740 0.9740 0.9720 0.9720
1902.915548 0.9720 0.9720 0.9720 0.9720 0.9720
1907.288727 0.9740 0.9760 0.9790 0.9820 0.9830
1911.661907 0.9850 0.9850 0.9850 0.9850 0.9850
1916.035086 0.9850 0.9870 0.9900 0.9940 0.9940
1920.408265 0.9950 0.9950 0.9970 0.9970 0.9980
1924.781445 0.9980 0.9980 0.9980 1.0000 0.9980
1929.154624 0.9980 0.9980 1.0000 1.0000 1.0000
1933.527803 0.9980 0.9980 0.9980 0.9980 0.9980
1937.900983 0.9970 0.9980 0.9980 1.0000 1.0000
1942.274162 0.9980 0.9970 0.9970 0.9950 0.9900
1946.647342 0.9890 0.9870 0.9830 0.9790 0.9780
1951.020521 0.9750 0.9720 0.9680 0.9660 0.9610
1955.393700 0.9560 0.9520 0.9490 0.9450 0.9470
1959.766880 0.9590 0.9660 0.9720 0.9760 0.9780
1964.140059 0.9780 0.9780 0.9800 0.9800 0.9830
1968.513238 0.9870 0.9890 0.9890 0.9900 0.9940
1972.886418 0.9940 0.9950 0.9950 0.9950 0.9950
1977.259597 0.9940 0.9930 0.9930 0.9930 0.9930
1981.632776 0.9930 0.9930 0.9930 0.9930 0.9930
1986.005956 0.9950 0.9950 0.9950 0.9950 0.9950
1990.379135 0.9950 0.9950 0.9950 0.9950 0.9950
1994.752314 0.9950 0.9950 0.9940 0.9940 0.9940
1999.125494 0.9940 0.9910 0.9905 0.9900 0.9880
2003.498673 0.9860 0.9845 0.9830 0.9830 0.9830
2007.871853 0.9830 0.9830 0.9830 0.9830 0.9840
2012.245032 0.9850 0.9850 0.9850 0.9850 0.9850
2016.618211 0.9850 0.9850 0.9835 0.9820 0.9820
2020.991391 0.9820 0.9805 0.9790 0.9790 0.9790
2025.364570 0.9790 0.9790 0.9795 0.9800 0.9810
2029.737749 0.9821 0.9836 0.9850 0.9860 0.9870
2034.110929 0.9880 0.9890 0.9895 0.9900 0.9900
2038.484108 0.9900 0.9900 0.9900 0.9900 0.9900
2042.857287 0.9900 0.9900 0.9900 0.9899 0.9884
2047.230467 0.9870 0.9870 0.9870 0.9870 0.9870
2051.603646 0.9865 0.9860 0.9855 0.9850 0.9850
2055.976826 0.9850 0.9850 0.9850 0.9850 0.9850
2060.350005 0.9850 0.9849 0.9839 0.9830 0.9825
2064.723184 0.9819 0.9809 0.9800 0.9800 0.9800
2069.096364 0.9800 0.9800 0.9800 0.9800 0.9800
2073.469543 0.9800 0.9800 0.9800 0.9800 0.9800
2077.842722 0.9800 0.9800 0.9800 0.9800 0.9800
2082.215902 0.9799 0.9794 0.9790 0.9790 0.9790
2086.589081 0.9790 0.9789 0.9784 0.9780 0.9780
2090.962260 0.9780 0.9780 0.9779 0.9769 0.9760
2095.335440 0.9760 0.9760 0.9760 0.9760 0.9760
2099.708619 0.9760 0.9760 0.9760 0.9760 0.9762
2104.081799 0.9772 0.9780 0.9780 0.9780 0.9780
2108.454978 0.9780 0.9780 0.9781 0.9786 0.9790
2112.828157 0.9790 0.9790 0.9790 0.9790 0.9790
2117.201337 0.9790 0.9790 0.9791 0.9796 0.9800
2121.574516 0.9800 0.9800 0.9800 0.9800 0.9800
2125.947695 0.9800 0.9800 0.9800 0.9800 0.9800
2130.320875 0.9800 0.9800 0.9800 0.9799 0.9794
2134.694054 0.9790 0.9790 0.9789 0.9784 0.9780
2139.067233 0.9780 0.9780 0.9780 0.9780 0.9780
2143.440413 0.9780 0.9780 0.9780 0.9780 0.9780
2147.813592 0.9780 0.9780 0.9780 0.9780 0.9780
2152.186771 0.9780 0.9780 0.9780 0.9780 0.9778
2156.559951 0.9767 0.9760 0.9760 0.9760 0.9760
2160.933130 0.9759 0.9754 0.9750 0.9750 0.9750
2165.306310 0.9750 0.9750 0.9750 0.9750 0.9750
2169.679489 0.9750 0.9750 0.9750 0.9750 0.9750
2174.052668 0.9750 0.9750 0.9750 0.9750 0.9750
2178.425848 0.9750 0.9750 0.9750 0.9750 0.9750
2182.799027 0.9750 0.9749 0.9744 0.9740 0.9740
2187.172206 0.9740 0.9740 0.9740 0.9740 0.9740
2191.545386 0.9740 0.9740 0.9740 0.9740 0.9740
2195.918565 0.9737 0.9727 0.9720 0.9720 0.9718
2200.291744 0.9713 0.9710 0.9710 0.9710 0.9710
2204.664924 0.9708 0.9703 0.9700 0.9700 0.9700
2209.038103 0.9700 0.9700 0.9700 0.9696 0.9686
2213.411283 0.9678 0.9673 0.9668 0.9663 0.9660
2217.784462 0.9660 0.9655 0.9640 0.9626 0.9616
2222.157641 0.9610 0.9610 0.9610 0.9610 0.9610
2226.530821 0.9610 0.9610 0.9610 0.9616 0.9631
2230.904000 0.9640 0.9640 0.9638 0.9633 0.9630
2235.277179 0.9630 0.9626 0.9616 0.9610 0.9610
2239.650359 0.9608 0.9603 0.9600 0.9600 0.9598
2244.023538 0.9593 0.9590 0.9590 0.9590 0.9590
2248.396717 0.9590 0.9590 0.9590 0.9590 0.9590
2252.769897 0.9590 0.9586 0.9576 0.9570 0.9570
2257.143076 0.9570 0.9570 0.9574 0.9584 0.9590
2261.516256 0.9590 0.9590 0.9590 0.9590 0.9590
2265.889435 0.9590 0.9590 0.9590 0.9590 0.9590
2270.262614 0.9590 0.9586 0.9576 0.9570 0.9570
2274.635794 0.9568 0.9563 0.9560 0.9560 0.9560
2279.008973 0.9560 0.9560 0.9560 0.9558 0.9553
2283.382152 0.9545 0.9535 0.9530 0.9530 0.9528
2287.755332 0.9523 0.9520 0.9520 0.9520 0.9520
2292.128511 0.9520 0.9520 0.9520 0.9520 0.9520
2296.501690 0.9520 0.9520 0.9520 0.9518 0.9513
2300.874870 0.9505 0.9495 0.9485 0.9475 0.9465
2305.248049 0.9455 0.9450 0.9450 0.9440 0.9420
2309.621228 0.9392 0.9357 0.9330 0.9310 0.9297
2313.994408 0.9292 0.9290 0.9290 0.9290 0.9290
2318.367587 0.9285 0.9275 0.9265 0.9255 0.9239
2322.740767 0.9219 0.9202 0.9187 0.9172 0.9157
2327.113946 0.9147 0.9142 0.9137 0.9132 0.9125
2331.487125 0.9115 0.9055 0.8955 0.8871 0.8801
2335.860305 0.8751 0.8716 0.8697 0.8692 0.8690
2340.233484 0.8690 0.8693 0.8698 0.8706 0.8716
2344.606663 0.8728 0.8743 0.8753 0.8758 0.8769
2348.979843 0.8784 0.8793 0.8798 0.8803 0.8808
2353.353022 0.8819 0.8834 0.8840 0.8840 0.8828
2357.726201 0.8808 0.8779 0.8744 0.8706 0.8666
2362.099381 0.8638 0.8618 0.8607 0.8602 0.8594
2366.472560 0.8584 0.8568 0.8548 0.8537 0.8532
2370.845740 0.8521 0.8506 0.8442 0.8347 0.8248
2375.218919 0.8148 0.8098 0.8078 0.8051 0.8021
2379.592098 0.7998 0.7978 0.7958 0.7938 0.7905
2383.965278 0.7865 0.7844 0.7834 0.7830 0.7830
2388.338457 0.7836 0.7846 0.7853 0.7858 0.7892
2392.711636 0.7942 0.7995 0.8051 0.8083 0.8103
2397.084816 0.8146 0.8201 0.8246 0.8286 0.8326
2401.457995 0.8367 0.8403 0.8438 0.8470 0.8500
2405.831174 0.8534 0.8569 0.8580 0.8580 0.8587
2410.204354 0.8597 0.8607 0.8617 0.8620 0.8620
2414.577533 0.8620 0.8620 0.8620 0.8620 0.8613
2418.950713 0.8603 0.8590 0.8575 0.8549 0.8519
2423.323892 0.8503 0.8493 0.8483 0.8473 0.8470
2427.697071 0.8470 0.8477 0.8487 0.8494 0.8499
2432.070251 0.8518 0.8543 0.8582 0.8627 0.8654
2436.443430 0.8675 0.8687 0.8697 0.8722 0.8752
2440.816609 0.8775 0.8795 0.8818 0.8843 0.8857
2445.189789 0.8867 0.8874 0.8879 0.8884 0.8889
2449.562968 0.8890 0.8890 0.8897 0.8907 0.8910
2453.936147 0.8910 0.8902 0.8892 0.8890 0.8890
2458.309327 0.8890 0.8890 0.8890 0.8890 0.8890
2462.682506 0.8890 0.8890 0.8890 0.8890 0.8890
2467.055685 0.8886 0.8881 0.8880 0.8880 0.8868
2471.428865 0.8853 0.8846 0.8841 0.8836 0.8831
2475.802044 0.8822 0.8812 0.8806 0.8801 0.8788
2480.175224 0.8773 0.8750 0.8725 0.8712 0.8702
2484.548403 0.8696 0.8691 0.8690 0.8690 0.8674
2488.921582 0.8654 0.8634 0.8614 0.8594 0.8574
2493.294762 0.8558 0.8543 0.8528 0.8513 0.8506
2497.667941 0.8501 0.8500 0.8500 0.8496 0.8491
2502.041120 0.8478 0.8463 0.8456 0.8451 0.8450
2506.414300 0.8450 0.8450 0.8450 0.8450 0.8450
2510.787479 0.8442 0.8432 0.8430 0.8430 0.8430
2515.160658 0.8430 0.8426 0.8421 0.8416 0.8411
2519.533838 0.8401 0.8391 0.8386 0.8381 0.8371
2523.907017 0.8361 0.8356 0.8351 0.8350 0.8350
2528.280197 0.8346 0.8341 0.8331 0.8321 0.8316
2532.653376 0.8311 0.8310 0.8310 0.8306 0.8301
2537.026555 0.8300 0.8300 0.8287 0.8272 0.8257
2541.399735 0.8241 0.8240 0.8240 0.8235 0.8230
2545.772914 0.8216 0.8201 0.8186 0.8171 0.8161
2550.146093 0.8151 0.8118 0.8083 0.8044 0.8004
2554.519273 0.7968 0.7933 0.7925 0.7920 0.7902
2558.892452 0.7881 0.7857 0.7832 0.7811 0.7791
2563.265631 0.7753 0.7713 0.7677 0.7642 0.7621
2567.638811 0.7601 0.7553 0.7503 0.7448 0.7393
2572.011990 0.7357 0.7322 0.7287 0.7252 0.7198
2576.385170 0.7142 0.7087 0.7032 0.6972 0.6912
2580.758349 0.6804 0.6694 0.6613 0.6533 0.6462
2585.131528 0.6392 0.6313 0.6233 0.6119 0.6004
2589.504708 0.5831 0.5655 0.5568 0.5483 0.5397
2593.877887 0.5311 0.5275 0.5240 0.5235 0.5230
2598.251066 0.5235 0.5240 0.5260 0.5280 0.5320
2602.624246 0.5360 0.5415 0.5470 0.5505 0.5540
2606.997425 0.5545 0.5550 0.5655 0.5760 0.5932
2611.370604 0.6102 0.6222 0.6342 0.6452 0.6561
2615.743784 0.6606 0.6651 0.6686 0.6723 0.6868
2620.116963 0.7011 0.7056 0.7101 0.7162 0.7220
2624.490142 0.7230 0.7240 0.7245 0.7250 0.7250
2628.863322 0.7250 0.7255 0.7260 0.7260 0.7260
2633.236501 0.7260 0.7260 0.7260 0.7260 0.7260
2637.609681 0.7260 0.7255 0.7249 0.7234 0.7218
2641.982860 0.7188 0.7157 0.7107 0.7060 0.7055
2646.356039 0.7049 0.7034 0.7016 0.6961 0.6905
2650.729219 0.6845 0.6785 0.6725 0.6666 0.6621
2655.102398 0.6575 0.6515 0.6460 0.6455 0.6450
2659.475577 0.6450 0.6450 0.6445 0.6440 0.6440
2663.848757 0.6440 0.6440 0.6440 0.6440 0.6440
2668.221936 0.6440 0.6439 0.6429 0.6419 0.6414
2672.595115 0.6408 0.6388 0.6368 0.6353 0.6338
2676.968295 0.6323 0.6307 0.6277 0.6246 0.6211
2681.341474 0.6175 0.6140 0.6105 0.6065 0.6027
2685.714654 0.6007 0.5984 0.5944 0.5902 0.5847
2690.087833 0.5794 0.5754 0.5711 0.5646 0.5581
2694.461012 0.5521 0.5464 0.5419 0.5375 0.5340
2698.834192 0.5304 0.5269 0.5231 0.5176 0.5123
2703.207371 0.5083 0.5046 0.5021 0.4995 0.4965
2707.580550 0.4933 0.4893 0.4848 0.4778 0.4706
2711.953730 0.4626 0.4543 0.4443 0.4342 0.4236
2716.326909 0.4128 0.4013 0.3899 0.3788 0.3699
2720.700088 0.3694 0.3690 0.3690 0.3691 0.3696
2725.073268 0.3700 0.3700 0.3698 0.3688 0.3670
2729.446447 0.3620 0.3571 0.3526 0.3480 0.3429
2733.819627 0.3384 0.3359 0.3329 0.3279 0.3239
2738.192806 0.3234 0.3231 0.3236 0.3252 0.3307
2742.565985 0.3368 0.3448 0.3525 0.3590 0.3658
2746.939165 0.3738 0.3843 0.4028 0.4172 0.4182
2751.312344 0.4190 0.4190 0.4187 0.4177 0.4157
2755.685523 0.4107 0.4064 0.4039 0.4017 0.4007
2760.058703 0.4000 0.4000 0.3999 0.3994 0.3990
2764.431882 0.3990 0.3991 0.3996 0.4003 0.4013
2768.805061 0.4020 0.4020 0.4014 0.3994 0.3949
2773.178241 0.3839 0.3746 0.3696 0.3649 0.3609
2777.551420 0.3547 0.3432 0.3284 0.3054 0.2853
2781.924599 0.2722 0.2608 0.2533 0.2479 0.2473
2786.297779 0.2470 0.2470 0.2472 0.2477 0.2480
2790.670958 0.2480 0.2485 0.2500 0.2518 0.2543
2795.044138 0.2573 0.2613 0.2662 0.2732 0.2805
2799.417317 0.2885 0.2975 0.3085 0.3207 0.3353
2803.790496 0.3493 0.3618 0.3710 0.3740 0.3811
2808.163676 0.3961 0.4115 0.4275 0.4438 0.4609
2812.536855 0.4770 0.4915 0.5029 0.5084 0.5141
2816.910034 0.5201 0.5242 0.5247 0.5254 0.5264
2821.283214 0.5266 0.5256 0.5233 0.5188 0.5141
2825.656393 0.5091 0.5053 0.5033 0.4977 0.4862
2830.029572 0.4740 0.4605 0.4456 0.4286 0.4109
2834.402752 0.3919 0.3738 0.3573 0.3325 0.2941
2838.775931 0.2672 0.2577 0.2352 0.1932 0.1566
2843.149111 0.1281 0.1056 0.0921 0.0806 0.0721
2847.522290 0.0630 0.0530 0.0438 0.0358 0.0306
2851.895469 0.0296 0.0294 0.0304 0.0320 0.0346
2856.268649 0.0390 0.0460 0.0509 0.0529 0.0555
2860.641828 0.0590 0.0612 0.0617 0.0620 0.0620
2865.015007 0.0622 0.0627 0.0630 0.0630 0.0634
2869.388187 0.0644 0.0670 0.0715 0.0758 0.0798
2873.761366 0.0834 0.0864 0.0882 0.0887 0.0890
2878.134545 0.0890 0.0883 0.0868 0.0851 0.0831
2882.507725 0.0808 0.0783 0.0761 0.0741 0.0716
2886.880904 0.0686 0.0649 0.0604 0.0557 0.0506
2891.254084 0.0461 0.0421 0.0388 0.0363 0.0345
2895.627263 0.0335 0.0315 0.0285 0.0260 0.0240
2900.000442 0.0215 0.0185 0.0170 0.0170 0.0160
2904.373622 0.0140 0.0123 0.0108 0.0100 0.0100
2908.746801 0.0097 0.0092 0.0090 0.0090 0.0087
2913.119980 0.0082 0.0080 0.0080 0.0080 0.0080
2917.493160 0.0083 0.0088 0.0090 0.0090 0.0090
2921.866339 0.0090 0.0093 0.0098 0.0100 0.0100
2926.239518 0.0100 0.0100 0.0105 0.0115 0.0123
2930.612698 0.0128 0.0133 0.0138 0.0140 0.0140
2934.985877 0.0145 0.0155 0.0168 0.0183 0.0193
2939.359056 0.0198 0.0200 0.0200 0.0200 0.0200
2943.732236 0.0197 0.0192 0.0190 0.0190 0.0190
2948.105415 0.0190 0.0193 0.0198 0.0203 0.0208
2952.478595 0.0216 0.0226 0.0233 0.0238 0.0252
2956.851774 0.0272 0.0289 0.0304 0.0316 0.0326
2961.224953 0.0339 0.0354 0.0372 0.0392 0.0406
2965.598133 0.0416 0.0450 0.0500 0.0596 0.0721
2969.971312 0.0882 0.1067 0.1255 0.1445 0.1626
2974.344491 0.1802 0.1916 0.1991 0.2153 0.2370
2978.717671 0.2570 0.2760 0.2909 0.3034 0.3137
2983.090850 0.3227 0.3289 0.3334 0.3375 0.3415
2987.464029 0.3449 0.3479 0.3554 0.3654 0.3728
2991.837209 0.3788 0.3852 0.3917 0.3940 0.3940
2996.210388 0.3980 0.4040 0.4086 0.4126 0.4213
3000.583568 0.4323 0.4453 0.4593 0.4700 0.4790
3004.956747 0.4870 0.4945 0.4983 0.5003 0.5070
3009.329926 0.5160 0.5247 0.5332 0.5421 0.5512
3013.703106 0.5592 0.5667 0.5731 0.5791 0.5848
3018.076285 0.5903 0.5951 0.5996 0.6020 0.6035
3022.449464 0.6043 0.6048 0.6050 0.6050 0.6050
3026.822644 0.6050 0.6050 0.6050 0.6057 0.6067
3031.195823 0.6070 0.6070 0.6063 0.6053 0.6036
3035.569002 0.6016 0.5988 0.5958 0.5831 0.5666
3039.942182 0.5595 0.5560 0.5550 0.5550 0.5572
3044.315361 0.5602 0.5657 0.5722 0.5971 0.6290
3048.688541 0.6486 0.6641 0.6766 0.6881 0.6947
3053.061720 0.6997 0.7010 0.7010 0.6969 0.6914
3057.434899 0.6859 0.6804 0.6718 0.6623 0.6513
3061.808079 0.6398 0.6359 0.6344 0.6351 0.6367
3066.181258 0.6444 0.6539 0.6622 0.6702 0.6841
3070.554437 0.6996 0.7131 0.7261 0.7372 0.7477
3074.927617 0.7566 0.7651 0.7713 0.7768 0.7800
3079.300796 0.7825 0.7854 0.7884 0.7894 0.7899
3083.673975 0.7896 0.7891 0.7866 0.7836 0.7814
3088.047155 0.7794 0.7782 0.7772 0.7746 0.7716
3092.420334 0.7710 0.7710 0.7856 0.8036 0.8107
3096.793513 0.8152 0.8201 0.8251 0.8281 0.8306
3101.166693 0.8339 0.8374 0.8397 0.8417 0.8424
3105.539872 0.8429 0.8438 0.8448 0.8450 0.8450
3109.913052 0.8454 0.8459 0.8464 0.8469 0.8495
3114.286231 0.8525 0.8547 0.8567 0.8574 0.8579
3118.659410 0.8610 0.8645 0.8663 0.8678 0.8680
3123.032590 0.8680 0.8684 0.8689 0.8690 0.8690
3127.405769 0.8690 0.8690 0.8690 0.8690 0.8694
3131.778948 0.8699 0.8709 0.8719 0.8720 0.8720
3136.152128 0.8724 0.8729 0.8748 0.8768 0.8783
3140.525307 0.8798 0.8813 0.8828 0.8839 0.8849
3144.898486 0.8850 0.8850 0.8868 0.8888 0.8899
3149.271666 0.8909 0.8915 0.8920 0.8929 0.8939
3153.644845 0.8945 0.8950 0.8964 0.8979 0.8985
3158.018025 0.8990 0.8995 0.9000 0.9000 0.9000
3162.391204 0.9009 0.9019 0.9020 0.9020 0.9020
3166.764383 0.9020 0.9020 0.9020 0.9025 0.9030
3171.137563 0.9035 0.9040 0.9059 0.9079 0.9094
3175.510742 0.9109 0.9110 0.9110 0.9110 0.9110
3179.883921 0.9120 0.9130 0.9140 0.9150 0.9150
3184.257101 0.9150 0.9160 0.9170 0.9175 0.9180
3188.630280 0.9180 0.9180 0.9185 0.9190 0.9200
3193.003459 0.9210 0.9210 0.9210 0.9215 0.9220
3197.376639 0.9220 0.9220 0.9220 0.9220 0.9225
3201.749818 0.9230 0.9240 0.9250 0.9250 0.9250
3206.122998 0.9255 0.9260 0.9265 0.9270 0.9280
3210.496177 0.9290 0.9295 0.9300 0.9310 0.9320
3214.869356 0.9320 0.9320 0.9325 0.9330 0.9335
3219.242536 0.9340 0.9340 0.9340 0.9350 0.9360
3223.615715 0.9365 0.9370 0.9370 0.9370 0.9375
3227.988894 0.9380 0.9390 0.9400 0.9400 0.9400
3232.362074 0.9400 0.9400 0.9400 0.9400 0.9400
3236.735253 0.9400 0.9400 0.9400 0.9400 0.9400
3241.108432 0.9405 0.9410 0.9410 0.9410 0.9410
3245.481612 0.9410 0.9410 0.9410 0.9415 0.9421
3249.854791 0.9431 0.9440 0.9445 0.9450 0.9450
3254.227970 0.9450 0.9450 0.9450 0.9450 0.9451
3258.601150 0.9461 0.9470 0.9475 0.9480 0.9480
3262.974329 0.9480 0.9480 0.9480 0.9480 0.9480
3267.347509 0.9480 0.9480 0.9480 0.9480 0.9480
3271.720688 0.9480 0.9480 0.9480 0.9480 0.9479
3276.093867 0.9474 0.9470 0.9470 0.9470 0.9470
3280.467047 0.9470 0.9470 0.9470 0.9470 0.9470
3284.840226 0.9470 0.9470 0.9470 0.9470 0.9470
3289.213405 0.9470 0.9470 0.9470 0.9470 0.9470
3293.586585 0.9470 0.9470 0.9470 0.9470 0.9470
3297.959764 0.9471 0.9476 0.9480 0.9480 0.9480
3302.332943 0.9480 0.9480 0.9480 0.9480 0.9480
3306.706123 0.9480 0.9480 0.9480 0.9480 0.9479
3311.079302 0.9474 0.9470 0.9470 0.9470 0.9470
3315.452482 0.9470 0.9470 0.9470 0.9470 0.9468
3319.825661 0.9458 0.9449 0.9444 0.9440 0.9440
3324.198840 0.9440 0.9440 0.9440 0.9440 0.9440
3328.572020 0.9440 0.9438 0.9428 0.9420 0.9420
3332.945199 0.9420 0.9420 0.9420 0.9420 0.9420
3337.318378 0.9420 0.9422 0.9432 0.9440 0.9440
3341.691558 0.9440 0.9440 0.9440 0.9440 0.9440
3346.064737 0.9440 0.9440 0.9440 0.9438 0.9428
3350.437916 0.9419 0.9414 0.9410 0.9410 0.9409
3354.811096 0.9404 0.9400 0.9400 0.9400 0.9400
3359.184275 0.9401 0.9406 0.9414 0.9429 0.9441
3363.557455 0.9446 0.9450 0.9450 0.9453 0.9463
3367.930634 0.9471 0.9476 0.9480 0.9480 0.9480
3372.303813 0.9480 0.9480 0.9480 0.9480 0.9480
3376.676993 0.9480 0.9480 0.9480 0.9480 0.9479
3381.050172 0.9474 0.9470 0.9470 0.9470 0.9470
3385.423351 0.9470 0.9470 0.9470 0.9470 0.9470
3389.796531 0.9470 0.9470 0.9470 0.9470 0.9470
3394.169710 0.9470 0.9470 0.9470 0.9470 0.9472
3398.542889 0.9477 0.9482 0.9487 0.9490 0.9490
3402.916069 0.9490 0.9490 0.9490 0.9490 0.9490
3407.289248 0.9490 0.9488 0.9483 0.9478 0.9473
3411.662427 0.9470 0.9470 0.9467 0.9456 0.9450
3416.035607 0.9450 0.9450 0.9450 0.9448 0.9443
3420.408786 0.9436 0.9426 0.9420 0.9420 0.9418
3424.781966 0.9413 0.9410 0.9410 0.9405 0.9390
3429.155145 0.9380 0.9380 0.9378 0.9373 0.9370
3433.528324 0.9370 0.9368 0.9363 0.9356 0.9346
3437.901504 0.9340 0.9340 0.9338 0.9333 0.9330
3442.274683 0.9330 0.9330 0.9330 0.9330 0.9330
3446.647862 0.9330 0.9330 0.9330 0.9330 0.9330
3451.021042 0.9330 0.9330 0.9330 0.9332 0.9337
3455.394221 0.9340 0.9340 0.9344 0.9354 0.9360
3459.767400 0.9360 0.9360 0.9360 0.9360 0.9360
3464.140580 0.9356 0.9346 0.9340 0.9340 0.9340
3468.513759 0.9340 0.9338 0.9333 0.9330 0.9330
3472.886939 0.9328 0.9323 0.9315 0.9305 0.9300
3477.260118 0.9300 0.9300 0.9300 0.9300 0.9300
3481.633297 0.9300 0.9300 0.9305 0.9315 0.9320
3486.006477 0.9320 0.9320 0.9320 0.9320 0.9320
3490.379656 0.9322 0.9327 0.9330 0.9330 0.9330
3494.752835 0.9330 0.9332 0.9337 0.9340 0.9340
3499.126015 0.9340 0.9340 0.9340 0.9340 0.9337
3503.499194 0.9332 0.9330 0.9330 0.9327 0.9322
3507.872373 0.9320 0.9320 0.9320 0.9320 0.9320
3512.245553 0.9320 0.9315 0.9305 0.9300 0.9300
3516.618732 0.9300 0.9300 0.9297 0.9292 0.9290
3520.991912 0.9290 0.9290 0.9290 0.9290 0.9290
3525.365091 0.9293 0.9298 0.9300 0.9300 0.9305
3529.738270 0.9315 0.9320 0.9320 0.9320 0.9320
3534.111450 0.9320 0.9320 0.9320 0.9320 0.9320
3538.484629 0.9320 0.9320 0.9320 0.9314 0.9304
3542.857808 0.9300 0.9300 0.9297 0.9292 0.9290
3547.230988 0.9290 0.9290 0.9290 0.9290 0.9290
3551.604167 0.9284 0.9274 0.9270 0.9270 0.9270
3555.977346 0.9270 0.9270 0.9270 0.9270 0.9270
3560.350526 0.9270 0.9270 0.9267 0.9262 0.9260
3564.723705 0.9260 0.9257 0.9252 0.9250 0.9250
3569.096884 0.9250 0.9250 0.9250 0.9250 0.9250
3573.470064 0.9250 0.9250 0.9250 0.9250 0.9250
3577.843243 0.9250 0.9250 0.9250 0.9250 0.9244
3582.216423 0.9234 0.9230 0.9230 0.9230 0.9230
3586.589602 0.9227 0.9222 0.9220 0.9220 0.9220
3590.962781 0.9220 0.9220 0.9220 0.9217 0.9212
3595.335961 0.9210 0.9210 0.9210 0.9210 0.9203
3599.709140 0.9193 0.9187 0.9182 0.9180 0.9180
3604.082319 0.9177 0.9172 0.9170 0.9170 0.9170
3608.455499 0.9170 0.9170 0.9170 0.9170 0.9170
3612.828678 0.9163 0.9153 0.9150 0.9150 0.9147
3617.201857 0.9142 0.9137 0.9132 0.9130 0.9130
3621.575037 0.9130 0.9130 0.9133 0.9139 0.9140
3625.948216 0.9140 0.9140 0.9140 0.9136 0.9131
3630.321396 0.9130 0.9130 0.9130 0.9130 0.9130
3634.694575 0.9130 0.9130 0.9130 0.9130 0.9130
3639.067754 0.9130 0.9130 0.9123 0.9113 0.9110
3643.440934 0.9110 0.9110 0.9110 0.9110 0.9110
3647.814113 0.9117 0.9127 0.9130 0.9130 0.9130
3652.187292 0.9130 0.9130 0.9130 0.9134 0.9139
3656.560472 0.9144 0.9149 0.9158 0.9168 0.9170
3660.933651 0.9170 0.9174 0.9179 0.9180 0.9180
3665.306830 0.9180 0.9180 0.9180 0.9180 0.9176
3669.680010 0.9171 0.9170 0.9170 0.9162 0.9152
3674.053189 0.9150 0.9150 0.9146 0.9141 0.9140
3678.426369 0.9140 0.9140 0.9140 0.9140 0.9140
3682.799548 0.9144 0.9149 0.9150 0.9150 0.9158
3687.172727 0.9168 0.9174 0.9179 0.9180 0.9180
3691.545907 0.9180 0.9180 0.9168 0.9153 0.9150
3695.919086 0.9150 0.9146 0.9141 0.9140 0.9140
3700.292265 0.9136 0.9131 0.9130 0.9130 0.9130
3704.665445 0.9130 0.9130 0.9130 0.9122 0.9112
3709.038624 0.9110 0.9110 0.9110 0.9110 0.9110
3713.411803 0.9110 0.9110 0.9110 0.9110 0.9110
3717.784983 0.9110 0.9110 0.9110 0.9110 0.9106
3722.158162 0.9101 0.9100 0.9100 0.9100 0.9100
3726.531341 0.9100 0.9100 0.9100 0.9100 0.9100
3730.904521 0.9100 0.9100 0.9100 0.9100 0.9100
3735.277700 0.9100 0.9100 0.9100 0.9100 0.9091
3739.650880 0.9081 0.9080 0.9080 0.9080 0.9080
3744.024059 0.9080 0.9080 0.9080 0.9080 0.9080
3748.397238 0.9080 0.9080 0.9080 0.9080 0.9080
3752.770418 0.9080 0.9080 0.9080 0.9080 0.9080
3757.143597 0.9080 0.9075 0.9070 0.9070 0.9070
3761.516776 0.9070 0.9070 0.9070 0.9070 0.9065
3765.889956 0.9060 0.9060 0.9060 0.9060 0.9060
3770.263135 0.9060 0.9060
##END=
