##TITLE=METHANESULFONIC ACID, SODIUM SALT
##JCAMP-DX=4.24
##DATA TYPE=INFRARED SPECTRUM
##CLASS=COBLENTZ II
##ORIGIN=DOW CHEMICAL COMPANY
##OWNER=COBLENTZ SOCIETY
Collection (C) 2018 copyright by the U.S. Secretary of Commerce
on behalf of the United States of America. All rights reserved.
##DATE=1968/07/31
##MOLFORM=C H3 O3 S Na
##SOURCE REFERENCE=COBLENTZ NO. 10366
##$NIST ID=B6010366
##$NIST SOURCE=COBLENTZ
##$NIST IMAGE=cob10366
##SPECTROMETER/DATA SYSTEM=BECKMAN IR-9 (GRATING)
##INSTRUMENT PARAMETERS=ORDER CHANGES AT 670, 1200, 2000 CM^-^1
##STATE=SOLID (SPLIT MULL, FLUOROLUBE FOR 3800-1333 AND NUJOL FOR 1333-400 CM ^-^1)
##SAMPLING PROCEDURE=TRANSMISSION
##RESOLUTION=4
##DATA PROCESSING=DIGITIZED BY NIST FROM HARD COPY (FROM TWO SEGMENTS)
##XUNITS=1/CM
##YUNITS=TRANSMITTANCE
##XFACTOR=1.000000
##YFACTOR=1
##DELTAX=0.877193
##FIRSTX=402.632
##LASTX=3801.76
##FIRSTY=0.685
##MAXX=3801.76
##MINX=402.632
##MAXY=0.99
##MINY=0.083
##NPOINTS=3876
##XYDATA=(X++(Y..Y))
402.632000 0.6850 0.6850 0.6840 0.6840 0.6840
407.017966 0.6840 0.6840 0.6850 0.6850 0.6870
411.403931 0.6880 0.6890 0.6910 0.6950 0.7000
415.789897 0.7030 0.7040 0.7070 0.7090 0.7150
420.175862 0.7250 0.7330 0.7370 0.7410 0.7450
424.561828 0.7500 0.7560 0.7600 0.7660 0.7690
428.947794 0.7730 0.7750 0.7800 0.7840 0.7850
433.333759 0.7900 0.7930 0.7950 0.8000 0.8060
437.719725 0.8080 0.8100 0.8120 0.8140 0.8150
442.105690 0.8180 0.8230 0.8270 0.8290 0.8300
446.491656 0.8310 0.8340 0.8380 0.8410 0.8440
450.877622 0.8460 0.8490 0.8490 0.8520 0.8530
455.263587 0.8530 0.8550 0.8550 0.8570 0.8600
459.649553 0.8620 0.8630 0.8670 0.8680 0.8680
464.035519 0.8700 0.8710 0.8710 0.8720 0.8740
468.421484 0.8770 0.8770 0.8780 0.8790 0.8790
472.807450 0.8790 0.8810 0.8830 0.8850 0.8860
477.193415 0.8860 0.8870 0.8870 0.8890 0.8900
481.579381 0.8900 0.8900 0.8920 0.8930 0.8930
485.965347 0.8930 0.8940 0.8960 0.8970 0.8970
490.351312 0.8970 0.8980 0.8980 0.9000 0.9010
494.737278 0.9030 0.9030 0.9030 0.9040 0.9050
499.123243 0.9070 0.9080 0.9080 0.9090 0.9090
503.509209 0.9090 0.9090 0.9090 0.9090 0.9090
507.895175 0.9110 0.9110 0.9110 0.9120 0.9120
512.281140 0.9120 0.9120 0.9120 0.9120 0.9110
516.667106 0.9090 0.9090 0.9070 0.9050 0.9000
521.053071 0.8930 0.8810 0.8591 0.8341 0.7026
525.439037 0.6850 0.6770 0.6890 0.7000 0.7000
529.825003 0.6053 0.5681 0.4873 0.4123 0.4120
534.210968 0.4460 0.5499 0.6279 0.7059 0.7070
538.596934 0.7090 0.6014 0.5422 0.5420 0.5719
542.982900 0.6551 0.7060 0.7240 0.7340 0.7440
547.368865 0.7670 0.7740 0.7750 0.7740 0.7262
551.754831 0.6910 0.6660 0.6430 0.6100 0.5691
556.140796 0.5121 0.4681 0.3972 0.3631 0.3560
560.526762 0.3620 0.3860 0.4420 0.4890 0.5359
564.912728 0.5799 0.6329 0.6928 0.7259 0.7539
569.298693 0.7750 0.8030 0.8040 0.8040 0.7730
573.684659 0.7730 0.8189 0.8679 0.8889 0.9049
578.070624 0.9130 0.9160 0.9240 0.9300 0.9340
582.456590 0.9340 0.9370 0.9380 0.9410 0.9420
586.842556 0.9450 0.9450 0.9460 0.9460 0.9480
591.228521 0.9480 0.9480 0.9480 0.9490 0.9490
595.614487 0.9490 0.9490 0.9490 0.9490 0.9490
600.000452 0.9490 0.9490 0.9490 0.9500 0.9500
604.386418 0.9500 0.9500 0.9500 0.9500 0.9500
608.772384 0.9500 0.9500 0.9500 0.9500 0.9500
613.158349 0.9500 0.9500 0.9500 0.9500 0.9500
617.544315 0.9500 0.9520 0.9520 0.9520 0.9520
621.930280 0.9520 0.9520 0.9520 0.9520 0.9530
626.316246 0.9530 0.9530 0.9530 0.9530 0.9530
630.702212 0.9530 0.9530 0.9530 0.9530 0.9530
635.088177 0.9530 0.9530 0.9530 0.9530 0.9530
639.474143 0.9530 0.9530 0.9530 0.9530 0.9530
643.860109 0.9530 0.9530 0.9530 0.9530 0.9530
648.246074 0.9530 0.9530 0.9530 0.9530 0.9530
652.632040 0.9530 0.9530 0.9530 0.9530 0.9530
657.018005 0.9530 0.9530 0.9530 0.9530 0.9530
661.403971 0.9530 0.9530 0.9530 0.9530 0.9530
665.789937 0.9530 0.9530 0.9530 0.9530 0.9530
670.175902 0.9530 0.9530 0.9530 0.9530 0.9530
674.561868 0.9530 0.9530 0.9530 0.9530 0.9530
678.947833 0.9530 0.9530 0.9520 0.9520 0.9520
683.333799 0.9520 0.9520 0.9520 0.9520 0.9500
687.719765 0.9500 0.9500 0.9500 0.9500 0.9500
692.105730 0.9500 0.9500 0.9490 0.9490 0.9490
696.491696 0.9490 0.9480 0.9480 0.9480 0.9480
700.877661 0.9480 0.9460 0.9460 0.9460 0.9460
705.263627 0.9450 0.9430 0.9430 0.9420 0.9410
709.649593 0.9410 0.9390 0.9380 0.9370 0.9340
714.035558 0.9300 0.9300 0.9260 0.9220 0.9180
718.421524 0.9120 0.9090 0.9090 0.9110 0.9120
722.807489 0.9130 0.9160 0.9190 0.9230 0.9240
727.193455 0.9270 0.9300 0.9310 0.9330 0.9370
731.579421 0.9380 0.9380 0.9380 0.9390 0.9410
735.965386 0.9410 0.9420 0.9420 0.9420 0.9430
740.351352 0.9480 0.9500 0.9520 0.9530 0.9530
744.737318 0.9540 0.9540 0.9560 0.9570 0.9590
749.123283 0.9600 0.9610 0.9610 0.9630 0.9630
753.509249 0.9640 0.9640 0.9640 0.9640 0.9640
757.895214 0.9650 0.9650 0.9650 0.9640 0.9610
762.281180 0.9600 0.9570 0.9540 0.9530 0.9500
766.667146 0.9460 0.9420 0.9370 0.9330 0.9161
771.053111 0.9080 0.8970 0.8930 0.8231 0.7821
775.439077 0.7411 0.6732 0.6481 0.6480 0.6828
779.825042 0.7220 0.7220 0.6920 0.6551 0.5842
784.211008 0.5252 0.4891 0.4432 0.3962 0.3960
788.596974 0.4830 0.5170 0.5730 0.6650 0.6960
792.982939 0.6990 0.7030 0.7339 0.8117 0.8698
797.368905 0.9010 0.9220 0.9340 0.9490 0.9570
801.754870 0.9630 0.9640 0.9680 0.9710 0.9750
806.140836 0.9760 0.9790 0.9800 0.9820 0.9820
810.526802 0.9830 0.9840 0.9840 0.9840 0.9860
814.912767 0.9860 0.9860 0.9870 0.9870 0.9890
819.298733 0.9890 0.9900 0.9900 0.9890 0.9890
823.684699 0.9890 0.9890 0.9890 0.9890 0.9890
828.070664 0.9890 0.9890 0.9890 0.9890 0.9890
832.456630 0.9870 0.9870 0.9870 0.9870 0.9870
836.842595 0.9860 0.9860 0.9870 0.9860 0.9860
841.228561 0.9860 0.9870 0.9860 0.9860 0.9860
845.614527 0.9840 0.9840 0.9840 0.9840 0.9840
850.000492 0.9840 0.9860 0.9860 0.9860 0.9860
854.386458 0.9840 0.9840 0.9840 0.9840 0.9840
858.772423 0.9840 0.9860 0.9860 0.9870 0.9870
863.158389 0.9870 0.9870 0.9870 0.9870 0.9870
867.544355 0.9860 0.9860 0.9860 0.9860 0.9860
871.930320 0.9860 0.9860 0.9860 0.9860 0.9860
876.316286 0.9860 0.9860 0.9860 0.9860 0.9870
880.702251 0.9870 0.9860 0.9860 0.9840 0.9840
885.088217 0.9840 0.9840 0.9830 0.9820 0.9800
889.474183 0.9800 0.9780 0.9780 0.9780 0.9780
893.860148 0.9780 0.9780 0.9780 0.9780 0.9780
898.246114 0.9780 0.9780 0.9780 0.9800 0.9800
902.632079 0.9800 0.9800 0.9800 0.9800 0.9800
907.018045 0.9800 0.9800 0.9800 0.9800 0.9800
911.404011 0.9800 0.9790 0.9790 0.9790 0.9780
915.789976 0.9750 0.9750 0.9740 0.9740 0.9740
920.175942 0.9740 0.9740 0.9740 0.9740 0.9740
924.561908 0.9740 0.9740 0.9740 0.9740 0.9740
928.947873 0.9740 0.9720 0.9720 0.9720 0.9710
933.333839 0.9690 0.9690 0.9690 0.9680 0.9680
937.719804 0.9670 0.9670 0.9670 0.9670 0.9650
942.105770 0.9650 0.9650 0.9650 0.9650 0.9650
946.491736 0.9640 0.9640 0.9640 0.9640 0.9650
950.877701 0.9650 0.9630 0.9630 0.9630 0.9610
955.263667 0.9610 0.9600 0.9560 0.9540 0.9530
959.649632 0.9520 0.9490 0.9450 0.9380 0.9300
964.035598 0.9260 0.9260 0.9310 0.9380 0.9420
968.421564 0.9450 0.9460 0.9480 0.9480 0.9460
972.807529 0.9460 0.9460 0.9450 0.9450 0.9460
977.193495 0.9460 0.9480 0.9480 0.9480 0.9480
981.579460 0.9480 0.9460 0.9450 0.9450 0.9450
985.965426 0.9450 0.9480 0.9480 0.9450 0.9430
990.351392 0.9420 0.9420 0.9460 0.9480 0.9480
994.737357 0.9480 0.9490 0.9490 0.9490 0.9490
999.123323 0.9480 0.9460 0.9450 0.9450 0.9450
1003.509288 0.9450 0.9450 0.9430 0.9430 0.9430
1007.895254 0.9420 0.9410 0.9390 0.9380 0.9370
1012.281220 0.9370 0.9340 0.9340 0.9330 0.9310
1016.667185 0.9300 0.9300 0.9280 0.9280 0.9260
1021.053151 0.9240 0.9200 0.9190 0.9160 0.9130
1025.439117 0.9120 0.9110 0.9090 0.9080 0.9070
1029.825082 0.9030 0.8970 0.8920 0.8870 0.8830
1034.211048 0.8770 0.8670 0.8530 0.8510 0.8460
1038.597013 0.8400 0.8300 0.8071 0.7851 0.7661
1042.982979 0.7480 0.7220 0.6880 0.6370 0.5901
1047.368945 0.5571 0.5201 0.4522 0.4052 0.4050
1051.754910 0.4980 0.4950 0.4820 0.4300 0.3711
1056.140876 0.3401 0.3220 0.2861 0.2342 0.2330
1060.526841 0.2360 0.2660 0.2810 0.2950 0.3150
1064.912807 0.3310 0.3510 0.3719 0.4029 0.4259
1069.298773 0.4420 0.4590 0.4910 0.4930 0.5120
1073.684738 0.5120 0.5090 0.5060 0.5020 0.5020
1078.070704 0.5561 0.6780 0.7330 0.7730 0.7960
1082.456669 0.8110 0.8210 0.8310 0.8450 0.8520
1086.842635 0.8590 0.8640 0.8680 0.8680 0.8720
1091.228601 0.8750 0.8780 0.8780 0.8790 0.8810
1095.614566 0.8820 0.8830 0.8850 0.8860 0.8870
1100.000532 0.8890 0.8890 0.8890 0.8870 0.8850
1104.386498 0.8830 0.8810 0.8790 0.8780 0.8770
1108.772463 0.8750 0.8720 0.8680 0.8670 0.8640
1113.158429 0.8630 0.8570 0.8520 0.8510 0.8480
1117.544394 0.8410 0.8400 0.8360 0.8300 0.8250
1121.930360 0.8210 0.8180 0.8140 0.8100 0.8000
1126.316326 0.7950 0.7880 0.7810 0.7750 0.7690
1130.702291 0.7620 0.7550 0.7470 0.7400 0.7320
1135.088257 0.7240 0.7210 0.7140 0.7090 0.7060
1139.474222 0.7000 0.6950 0.6880 0.6840 0.6770
1143.860188 0.6700 0.6610 0.6550 0.6470 0.6430
1148.246154 0.6370 0.6280 0.6130 0.5960 0.5900
1152.632119 0.5750 0.5680 0.5600 0.5490 0.5381
1157.018085 0.5230 0.5060 0.5010 0.4840 0.4720
1161.404050 0.4381 0.4270 0.4230 0.4071 0.3831
1165.790016 0.3670 0.3460 0.3330 0.3160 0.2960
1170.175982 0.2780 0.2700 0.2600 0.2510 0.2430
1174.561947 0.2360 0.2290 0.2240 0.2170 0.2100
1178.947913 0.2020 0.1920 0.1780 0.1680 0.1590
1183.333878 0.1540 0.1500 0.1460 0.1440 0.1420
1187.719844 0.1400 0.1370 0.1330 0.1280 0.1200
1192.105810 0.1090 0.1020 0.0960 0.0950 0.0910
1196.491775 0.0870 0.0840 0.0830 0.0830 0.0840
1200.877741 0.0860 0.0870 0.0880 0.0910 0.0950
1205.263707 0.0980 0.1010 0.1020 0.1030 0.1060
1209.649672 0.1090 0.1200 0.1310 0.1350 0.1460
1214.035638 0.1480 0.1480 0.1470 0.1460 0.1440
1218.421603 0.1440 0.1460 0.1550 0.1700 0.1780
1222.807569 0.1870 0.1980 0.2090 0.2210 0.2339
1227.193535 0.2500 0.2650 0.2800 0.2970 0.3160
1231.579500 0.3449 0.3630 0.3789 0.3969 0.4119
1235.965466 0.4280 0.4410 0.4540 0.4590 0.4680
1240.351431 0.4820 0.4830 0.4800 0.4651 0.4431
1244.737397 0.4120 0.3890 0.3630 0.3560 0.3560
1249.123363 0.3630 0.3750 0.3899 0.4089 0.4309
1253.509328 0.4520 0.4780 0.4940 0.5080 0.5280
1257.895294 0.5420 0.5500 0.5689 0.5869 0.5989
1262.281259 0.6140 0.6180 0.6280 0.6350 0.6440
1266.667225 0.6470 0.6550 0.6580 0.6590 0.6719
1271.053191 0.6760 0.6810 0.6870 0.6910 0.6950
1275.439156 0.7000 0.7060 0.7070 0.7100 0.7150
1279.825122 0.7190 0.7240 0.7260 0.7280 0.7320
1284.211087 0.7330 0.7390 0.7400 0.7430 0.7470
1288.597053 0.7500 0.7540 0.7560 0.7580 0.7600
1292.983019 0.7630 0.7660 0.7670 0.7700 0.7730
1297.368984 0.7730 0.7740 0.7750 0.7810 0.7850
1301.754950 0.7860 0.7860 0.7890 0.7890 0.7900
1306.140916 0.7900 0.7930 0.7950 0.7960 0.7970
1310.526881 0.7990 0.8010 0.8040 0.8040 0.8060
1314.912847 0.8060 0.8030 0.7990 0.7960 0.7920
1319.298812 0.7880 0.7840 0.7840 0.7850 0.7860
1323.684778 0.7840 0.7780 0.7660 0.7400 0.7390
1328.070744 0.7320 0.7250 0.7210 0.7140 0.7070
1332.456709 0.6980 0.6760 0.6660 0.6630 0.6660
1336.842675 0.6890 0.7189 0.7330 0.7430 0.7729
1341.228640 0.7860 0.8010 0.8100 0.8140 0.8230
1345.614606 0.8270 0.8290 0.8300 0.8290 0.8260
1350.000572 0.8220 0.8190 0.8160 0.8150 0.8160
1354.386537 0.8180 0.8210 0.8270 0.8330 0.8400
1358.772503 0.8420 0.8450 0.8490 0.8520 0.8570
1363.158468 0.8620 0.8680 0.8710 0.8740 0.8790
1367.544434 0.8890 0.8920 0.8930 0.8980 0.9030
1371.930400 0.9050 0.9070 0.9080 0.9090 0.9090
1376.316365 0.9110 0.9120 0.9120 0.9120 0.9130
1380.702331 0.9150 0.9150 0.9180 0.9180 0.9180
1385.088297 0.9190 0.9200 0.9220 0.9220 0.9220
1389.474262 0.9220 0.9230 0.9230 0.9220 0.9220
1393.860228 0.9220 0.9230 0.9230 0.9230 0.9230
1398.246193 0.9230 0.9230 0.9240 0.9230 0.9230
1402.632159 0.9220 0.9200 0.9190 0.9180 0.9130
1407.018125 0.9120 0.9090 0.9040 0.8970 0.8681
1411.404090 0.8150 0.7780 0.7750 0.7750 0.7970
1415.790056 0.8160 0.8360 0.8520 0.8590 0.8620
1420.176021 0.8640 0.8670 0.8740 0.8850 0.8960
1424.561987 0.9040 0.9080 0.9120 0.9130 0.9130
1428.947953 0.9130 0.9120 0.8980 0.8640 0.8420
1433.333918 0.8440 0.8590 0.8849 0.9039 0.9120
1437.719884 0.9130 0.9150 0.9150 0.9130 0.9150
1442.105849 0.9220 0.9300 0.9310 0.9330 0.9340
1446.491815 0.9350 0.9370 0.9370 0.9370 0.9350
1450.877781 0.9350 0.9340 0.9340 0.9370 0.9370
1455.263746 0.9390 0.9410 0.9410 0.9420 0.9430
1459.649712 0.9450 0.9450 0.9460 0.9460 0.9460
1464.035677 0.9460 0.9460 0.9460 0.9460 0.9460
1468.421643 0.9460 0.9460 0.9480 0.9490 0.9490
1472.807609 0.9480 0.9480 0.9480 0.9480 0.9480
1477.193574 0.9480 0.9490 0.9490 0.9500 0.9500
1481.579540 0.9500 0.9490 0.9490 0.9490 0.9490
1485.965506 0.9490 0.9490 0.9490 0.9490 0.9490
1490.351471 0.9490 0.9490 0.9490 0.9490 0.9490
1494.737437 0.9490 0.9500 0.9520 0.9520 0.9500
1499.123402 0.9500 0.9500 0.9500 0.9500 0.9520
1503.509368 0.9520 0.9520 0.9500 0.9500 0.9500
1507.895334 0.9500 0.9500 0.9500 0.9530 0.9530
1512.281299 0.9520 0.9520 0.9520 0.9500 0.9500
1516.667265 0.9500 0.9520 0.9520 0.9530 0.9530
1521.053230 0.9530 0.9520 0.9520 0.9520 0.9520
1525.439196 0.9520 0.9520 0.9520 0.9520 0.9520
1529.825162 0.9520 0.9530 0.9530 0.9530 0.9530
1534.211127 0.9530 0.9530 0.9530 0.9530 0.9530
1538.597093 0.9530 0.9530 0.9530 0.9530 0.9530
1542.983058 0.9530 0.9530 0.9530 0.9530 0.9530
1547.369024 0.9530 0.9530 0.9530 0.9520 0.9520
1551.754990 0.9520 0.9520 0.9530 0.9530 0.9530
1556.140955 0.9530 0.9530 0.9530 0.9530 0.9530
1560.526921 0.9540 0.9570 0.9570 0.9540 0.9540
1564.912886 0.9540 0.9530 0.9530 0.9530 0.9530
1569.298852 0.9530 0.9530 0.9540 0.9540 0.9530
1573.684818 0.9530 0.9530 0.9530 0.9530 0.9530
1578.070783 0.9530 0.9540 0.9540 0.9540 0.9530
1582.456749 0.9530 0.9530 0.9530 0.9540 0.9540
1586.842715 0.9540 0.9540 0.9540 0.9540 0.9540
1591.228680 0.9560 0.9560 0.9560 0.9560 0.9540
1595.614646 0.9560 0.9560 0.9560 0.9560 0.9560
1600.000611 0.9560 0.9560 0.9560 0.9560 0.9560
1604.386577 0.9560 0.9560 0.9560 0.9560 0.9560
1608.772543 0.9560 0.9560 0.9560 0.9560 0.9560
1613.158508 0.9560 0.9560 0.9560 0.9560 0.9560
1617.544474 0.9590 0.9590 0.9610 0.9630 0.9630
1621.930439 0.9650 0.9650 0.9670 0.9670 0.9680
1626.316405 0.9680 0.9690 0.9690 0.9690 0.9670
1630.702371 0.9630 0.9590 0.9540 0.9530 0.9530
1635.088336 0.9530 0.9530 0.9530 0.9530 0.9530
1639.474302 0.9530 0.9530 0.9530 0.9530 0.9530
1643.860267 0.9530 0.9530 0.9530 0.9530 0.9530
1648.246233 0.9530 0.9530 0.9530 0.9530 0.9530
1652.632199 0.9530 0.9540 0.9540 0.9540 0.9540
1657.018164 0.9560 0.9560 0.9560 0.9560 0.9560
1661.404130 0.9560 0.9560 0.9560 0.9560 0.9560
1665.790096 0.9560 0.9570 0.9590 0.9590 0.9590
1670.176061 0.9600 0.9610 0.9610 0.9610 0.9610
1674.562027 0.9610 0.9610 0.9610 0.9600 0.9590
1678.947992 0.9590 0.9570 0.9570 0.9570 0.9570
1683.333958 0.9570 0.9570 0.9570 0.9560 0.9560
1687.719924 0.9570 0.9590 0.9590 0.9590 0.9590
1692.105889 0.9590 0.9590 0.9590 0.9590 0.9590
1696.491855 0.9590 0.9590 0.9600 0.9600 0.9610
1700.877820 0.9610 0.9610 0.9600 0.9600 0.9600
1705.263786 0.9600 0.9600 0.9600 0.9600 0.9600
1709.649752 0.9600 0.9610 0.9610 0.9600 0.9600
1714.035717 0.9600 0.9600 0.9590 0.9590 0.9570
1718.421683 0.9570 0.9570 0.9560 0.9560 0.9560
1722.807648 0.9570 0.9570 0.9570 0.9590 0.9600
1727.193614 0.9600 0.9600 0.9600 0.9600 0.9590
1731.579580 0.9590 0.9600 0.9600 0.9610 0.9610
1735.965545 0.9610 0.9610 0.9630 0.9630 0.9630
1740.351511 0.9630 0.9640 0.9640 0.9630 0.9630
1744.737476 0.9630 0.9630 0.9610 0.9610 0.9610
1749.123442 0.9610 0.9610 0.9610 0.9630 0.9630
1753.509408 0.9630 0.9630 0.9630 0.9630 0.9630
1757.895373 0.9630 0.9640 0.9630 0.9630 0.9630
1762.281339 0.9630 0.9630 0.9630 0.9630 0.9640
1766.667305 0.9630 0.9630 0.9630 0.9630 0.9630
1771.053270 0.9610 0.9610 0.9610 0.9610 0.9600
1775.439236 0.9600 0.9600 0.9600 0.9600 0.9600
1779.825201 0.9600 0.9600 0.9590 0.9590 0.9590
1784.211167 0.9590 0.9590 0.9590 0.9590 0.9590
1788.597133 0.9590 0.9590 0.9590 0.9590 0.9570
1792.983098 0.9590 0.9590 0.9590 0.9590 0.9590
1797.369064 0.9590 0.9590 0.9570 0.9590 0.9590
1801.755029 0.9590 0.9600 0.9600 0.9600 0.9600
1806.140995 0.9600 0.9600 0.9600 0.9600 0.9600
1810.526961 0.9600 0.9600 0.9600 0.9600 0.9600
1814.912926 0.9600 0.9600 0.9600 0.9600 0.9600
1819.298892 0.9600 0.9590 0.9600 0.9600 0.9590
1823.684857 0.9590 0.9590 0.9590 0.9590 0.9600
1828.070823 0.9600 0.9600 0.9600 0.9610 0.9610
1832.456789 0.9600 0.9600 0.9610 0.9610 0.9610
1836.842754 0.9610 0.9610 0.9610 0.9610 0.9600
1841.228720 0.9600 0.9600 0.9600 0.9600 0.9600
1845.614685 0.9600 0.9600 0.9600 0.9600 0.9600
1850.000651 0.9600 0.9600 0.9600 0.9600 0.9600
1854.386617 0.9600 0.9600 0.9600 0.9600 0.9600
1858.772582 0.9600 0.9600 0.9600 0.9600 0.9600
1863.158548 0.9600 0.9600 0.9600 0.9600 0.9600
1867.544514 0.9600 0.9590 0.9600 0.9600 0.9600
1871.930479 0.9600 0.9600 0.9600 0.9600 0.9600
1876.316445 0.9600 0.9600 0.9600 0.9600 0.9600
1880.702410 0.9600 0.9600 0.9610 0.9610 0.9610
1885.088376 0.9610 0.9600 0.9600 0.9600 0.9600
1889.474342 0.9600 0.9600 0.9600 0.9600 0.9600
1893.860307 0.9600 0.9610 0.9610 0.9610 0.9630
1898.246273 0.9630 0.9610 0.9610 0.9610 0.9610
1902.632238 0.9610 0.9610 0.9610 0.9610 0.9610
1907.018204 0.9630 0.9610 0.9610 0.9610 0.9610
1911.404170 0.9610 0.9630 0.9630 0.9630 0.9640
1915.790135 0.9640 0.9640 0.9640 0.9640 0.9640
1920.176101 0.9640 0.9640 0.9640 0.9640 0.9640
1924.562066 0.9640 0.9640 0.9630 0.9630 0.9630
1928.948032 0.9630 0.9630 0.9630 0.9640 0.9640
1933.333998 0.9640 0.9640 0.9640 0.9640 0.9640
1937.719963 0.9640 0.9640 0.9640 0.9630 0.9630
1942.105929 0.9640 0.9640 0.9640 0.9640 0.9640
1946.491895 0.9650 0.9640 0.9640 0.9640 0.9630
1950.877860 0.9610 0.9640 0.9640 0.9640 0.9640
1955.263826 0.9640 0.9640 0.9640 0.9640 0.9640
1959.649791 0.9630 0.9610 0.9610 0.9610 0.9610
1964.035757 0.9630 0.9630 0.9630 0.9630 0.9630
1968.421723 0.9630 0.9630 0.9630 0.9630 0.9630
1972.807688 0.9630 0.9630 0.9630 0.9630 0.9640
1977.193654 0.9640 0.9640 0.9630 0.9630 0.9610
1981.579619 0.9610 0.9610 0.9600 0.9600 0.9600
1985.965585 0.9590 0.9590 0.9590 0.9590 0.9590
1990.351551 0.9590 0.9590 0.9590 0.9590 0.9570
1994.737516 0.9570 0.9570 0.9570 0.9570 0.9570
1999.123482 0.9570 0.9570 0.9565 0.9560 0.9560
2003.509447 0.9560 0.9560 0.9560 0.9560 0.9560
2007.895413 0.9560 0.9560 0.9560 0.9560 0.9560
2012.281379 0.9560 0.9560 0.9560 0.9560 0.9560
2016.667344 0.9560 0.9560 0.9560 0.9560 0.9560
2021.053310 0.9560 0.9560 0.9560 0.9560 0.9560
2025.439275 0.9560 0.9560 0.9560 0.9560 0.9560
2029.825241 0.9560 0.9560 0.9560 0.9560 0.9560
2034.211207 0.9560 0.9560 0.9550 0.9540 0.9540
2038.597172 0.9540 0.9540 0.9540 0.9540 0.9540
2042.983138 0.9540 0.9540 0.9540 0.9540 0.9540
2047.369104 0.9540 0.9540 0.9540 0.9540 0.9540
2051.755069 0.9540 0.9540 0.9540 0.9540 0.9540
2056.141035 0.9540 0.9540 0.9540 0.9540 0.9540
2060.527000 0.9540 0.9540 0.9540 0.9540 0.9540
2064.912966 0.9540 0.9540 0.9540 0.9540 0.9540
2069.298932 0.9540 0.9540 0.9540 0.9540 0.9540
2073.684897 0.9540 0.9540 0.9540 0.9540 0.9540
2078.070863 0.9540 0.9540 0.9540 0.9540 0.9540
2082.456828 0.9540 0.9540 0.9540 0.9540 0.9540
2086.842794 0.9540 0.9540 0.9540 0.9540 0.9540
2091.228760 0.9540 0.9540 0.9540 0.9535 0.9530
2095.614725 0.9530 0.9530 0.9530 0.9530 0.9525
2100.000691 0.9520 0.9520 0.9520 0.9520 0.9520
2104.386656 0.9520 0.9520 0.9520 0.9520 0.9510
2108.772622 0.9500 0.9500 0.9500 0.9495 0.9490
2113.158588 0.9490 0.9490 0.9485 0.9480 0.9480
2117.544553 0.9480 0.9480 0.9480 0.9480 0.9480
2121.930519 0.9480 0.9480 0.9480 0.9480 0.9480
2126.316485 0.9480 0.9480 0.9480 0.9480 0.9480
2130.702450 0.9480 0.9480 0.9480 0.9480 0.9480
2135.088416 0.9480 0.9480 0.9480 0.9480 0.9480
2139.474381 0.9480 0.9480 0.9480 0.9480 0.9480
2143.860347 0.9480 0.9485 0.9490 0.9490 0.9490
2148.246313 0.9490 0.9490 0.9490 0.9490 0.9490
2152.632278 0.9490 0.9490 0.9490 0.9490 0.9490
2157.018244 0.9490 0.9490 0.9490 0.9490 0.9490
2161.404209 0.9490 0.9490 0.9490 0.9490 0.9490
2165.790175 0.9490 0.9490 0.9490 0.9490 0.9490
2170.176141 0.9490 0.9490 0.9490 0.9490 0.9490
2174.562106 0.9490 0.9490 0.9490 0.9490 0.9490
2178.948072 0.9490 0.9490 0.9490 0.9485 0.9480
2183.334037 0.9480 0.9480 0.9480 0.9480 0.9470
2187.720003 0.9460 0.9460 0.9460 0.9460 0.9460
2192.105969 0.9460 0.9460 0.9460 0.9460 0.9460
2196.491934 0.9460 0.9460 0.9460 0.9460 0.9460
2200.877900 0.9460 0.9460 0.9460 0.9460 0.9460
2205.263865 0.9460 0.9460 0.9460 0.9460 0.9460
2209.649831 0.9460 0.9460 0.9455 0.9450 0.9450
2214.035797 0.9450 0.9440 0.9430 0.9430 0.9430
2218.421762 0.9425 0.9420 0.9405 0.9390 0.9380
2222.807728 0.9370 0.9360 0.9350 0.9350 0.9350
2227.193694 0.9350 0.9350 0.9345 0.9340 0.9340
2231.579659 0.9340 0.9335 0.9330 0.9320 0.9310
2235.965625 0.9310 0.9310 0.9305 0.9300 0.9300
2240.351590 0.9300 0.9300 0.9300 0.9300 0.9300
2244.737556 0.9290 0.9280 0.9280 0.9280 0.9275
2249.123522 0.9270 0.9265 0.9260 0.9250 0.9240
2253.509487 0.9235 0.9230 0.9225 0.9220 0.9220
2257.895453 0.9220 0.9220 0.9220 0.9210 0.9200
2262.281418 0.9200 0.9200 0.9200 0.9200 0.9210
2266.667384 0.9220 0.9220 0.9220 0.9220 0.9220
2271.053350 0.9220 0.9220 0.9225 0.9230 0.9230
2275.439315 0.9230 0.9235 0.9240 0.9250 0.9260
2279.825281 0.9265 0.9270 0.9270 0.9270 0.9270
2284.211246 0.9270 0.9270 0.9270 0.9275 0.9280
2288.597212 0.9280 0.9280 0.9290 0.9300 0.9300
2292.983178 0.9300 0.9300 0.9300 0.9300 0.9300
2297.369143 0.9300 0.9300 0.9290 0.9280 0.9275
2301.755109 0.9270 0.9270 0.9270 0.9265 0.9260
2306.141074 0.9260 0.9260 0.9260 0.9260 0.9250
2310.527040 0.9240 0.9240 0.9240 0.9235 0.9230
2314.913006 0.9230 0.9230 0.9230 0.9230 0.9235
2319.298971 0.9240 0.9240 0.9240 0.9240 0.9240
2323.684937 0.9250 0.9260 0.9260 0.9260 0.9260
2328.070903 0.9260 0.9260 0.9260 0.9265 0.9270
2332.456868 0.9270 0.9270 0.9275 0.9280 0.9280
2336.842834 0.9280 0.9280 0.9280 0.9290 0.9300
2341.228799 0.9300 0.9300 0.9300 0.9300 0.9305
2345.614765 0.9310 0.9310 0.9310 0.9320 0.9330
2350.000731 0.9330 0.9330 0.9335 0.9340 0.9340
2354.386696 0.9340 0.9340 0.9340 0.9340 0.9340
2358.772662 0.9340 0.9340 0.9340 0.9340 0.9345
2363.158627 0.9350 0.9350 0.9350 0.9350 0.9350
2367.544593 0.9360 0.9370 0.9370 0.9370 0.9375
2371.930559 0.9380 0.9385 0.9390 0.9400 0.9410
2376.316524 0.9415 0.9420 0.9420 0.9420 0.9420
2380.702490 0.9420 0.9420 0.9420 0.9420 0.9420
2385.088455 0.9415 0.9410 0.9410 0.9410 0.9400
2389.474421 0.9390 0.9390 0.9390 0.9385 0.9380
2393.860387 0.9380 0.9380 0.9375 0.9370 0.9370
2398.246352 0.9370 0.9370 0.9370 0.9370 0.9370
2402.632318 0.9370 0.9370 0.9370 0.9370 0.9370
2407.018284 0.9370 0.9370 0.9370 0.9370 0.9370
2411.404249 0.9375 0.9380 0.9380 0.9380 0.9380
2415.790215 0.9380 0.9380 0.9380 0.9385 0.9390
2420.176180 0.9390 0.9390 0.9390 0.9390 0.9390
2424.562146 0.9390 0.9400 0.9410 0.9400 0.9390
2428.948112 0.9390 0.9390 0.9400 0.9410 0.9410
2433.334077 0.9410 0.9410 0.9410 0.9410 0.9410
2437.720043 0.9415 0.9420 0.9420 0.9420 0.9420
2442.106008 0.9420 0.9420 0.9420 0.9420 0.9420
2446.491974 0.9420 0.9420 0.9420 0.9420 0.9425
2450.877940 0.9430 0.9440 0.9450 0.9450 0.9450
2455.263905 0.9450 0.9450 0.9450 0.9450 0.9455
2459.649871 0.9460 0.9460 0.9460 0.9455 0.9450
2464.035836 0.9450 0.9450 0.9450 0.9450 0.9450
2468.421802 0.9450 0.9450 0.9450 0.9455 0.9460
2472.807768 0.9460 0.9460 0.9470 0.9480 0.9480
2477.193733 0.9480 0.9480 0.9480 0.9480 0.9480
2481.579699 0.9480 0.9480 0.9470 0.9460 0.9470
2485.965664 0.9480 0.9480 0.9480 0.9485 0.9490
2490.351630 0.9495 0.9500 0.9500 0.9500 0.9500
2494.737596 0.9500 0.9500 0.9500 0.9500 0.9500
2499.123561 0.9500 0.9500 0.9500 0.9500 0.9500
2503.509527 0.9500 0.9500 0.9500 0.9500 0.9500
2507.895493 0.9500 0.9500 0.9500 0.9500 0.9510
2512.281458 0.9520 0.9520 0.9520 0.9520 0.9520
2516.667424 0.9510 0.9500 0.9500 0.9500 0.9500
2521.053389 0.9500 0.9500 0.9500 0.9500 0.9500
2525.439355 0.9500 0.9500 0.9500 0.9500 0.9500
2529.825321 0.9500 0.9500 0.9500 0.9500 0.9500
2534.211286 0.9500 0.9500 0.9500 0.9500 0.9500
2538.597252 0.9500 0.9500 0.9500 0.9500 0.9500
2542.983217 0.9510 0.9520 0.9525 0.9530 0.9525
2547.369183 0.9520 0.9520 0.9520 0.9520 0.9520
2551.755149 0.9520 0.9520 0.9520 0.9520 0.9520
2556.141114 0.9520 0.9520 0.9520 0.9520 0.9520
2560.527080 0.9520 0.9520 0.9520 0.9520 0.9520
2564.913045 0.9520 0.9520 0.9520 0.9520 0.9520
2569.299011 0.9520 0.9520 0.9520 0.9520 0.9520
2573.684977 0.9520 0.9520 0.9520 0.9520 0.9520
2578.070942 0.9520 0.9520 0.9520 0.9520 0.9520
2582.456908 0.9520 0.9520 0.9520 0.9520 0.9520
2586.842873 0.9520 0.9520 0.9520 0.9520 0.9520
2591.228839 0.9520 0.9520 0.9520 0.9520 0.9520
2595.614805 0.9520 0.9520 0.9520 0.9520 0.9520
2600.000770 0.9520 0.9520 0.9520 0.9520 0.9520
2604.386736 0.9520 0.9520 0.9520 0.9520 0.9520
2608.772702 0.9520 0.9520 0.9520 0.9520 0.9520
2613.158667 0.9520 0.9520 0.9520 0.9520 0.9520
2617.544633 0.9520 0.9520 0.9520 0.9520 0.9520
2621.930598 0.9520 0.9520 0.9520 0.9520 0.9510
2626.316564 0.9500 0.9500 0.9500 0.9500 0.9500
2630.702530 0.9500 0.9500 0.9495 0.9490 0.9490
2635.088495 0.9490 0.9490 0.9490 0.9485 0.9480
2639.474461 0.9480 0.9480 0.9480 0.9480 0.9480
2643.860426 0.9480 0.9480 0.9480 0.9480 0.9480
2648.246392 0.9480 0.9480 0.9480 0.9480 0.9480
2652.632358 0.9480 0.9480 0.9480 0.9480 0.9480
2657.018323 0.9480 0.9480 0.9480 0.9480 0.9480
2661.404289 0.9480 0.9480 0.9480 0.9480 0.9480
2665.790254 0.9480 0.9480 0.9480 0.9480 0.9480
2670.176220 0.9480 0.9480 0.9480 0.9480 0.9480
2674.562186 0.9480 0.9480 0.9480 0.9480 0.9480
2678.948151 0.9480 0.9480 0.9480 0.9480 0.9480
2683.334117 0.9480 0.9480 0.9480 0.9480 0.9480
2687.720083 0.9480 0.9480 0.9480 0.9480 0.9480
2692.106048 0.9480 0.9480 0.9480 0.9480 0.9480
2696.492014 0.9480 0.9480 0.9480 0.9480 0.9480
2700.877979 0.9480 0.9480 0.9480 0.9480 0.9480
2705.263945 0.9480 0.9480 0.9480 0.9480 0.9480
2709.649911 0.9480 0.9480 0.9480 0.9480 0.9480
2714.035876 0.9480 0.9480 0.9480 0.9480 0.9480
2718.421842 0.9480 0.9480 0.9480 0.9480 0.9480
2722.807807 0.9480 0.9480 0.9480 0.9480 0.9480
2727.193773 0.9485 0.9490 0.9485 0.9480 0.9480
2731.579739 0.9480 0.9470 0.9460 0.9460 0.9460
2735.965704 0.9460 0.9460 0.9460 0.9460 0.9460
2740.351670 0.9460 0.9460 0.9460 0.9455 0.9450
2744.737635 0.9450 0.9450 0.9455 0.9460 0.9460
2749.123601 0.9460 0.9460 0.9460 0.9455 0.9450
2753.509567 0.9450 0.9450 0.9450 0.9450 0.9450
2757.895532 0.9450 0.9450 0.9450 0.9450 0.9450
2762.281498 0.9450 0.9450 0.9450 0.9450 0.9455
2766.667463 0.9460 0.9455 0.9450 0.9450 0.9450
2771.053429 0.9450 0.9450 0.9450 0.9450 0.9450
2775.439395 0.9450 0.9450 0.9450 0.9450 0.9450
2779.825360 0.9450 0.9450 0.9450 0.9450 0.9450
2784.211326 0.9450 0.9450 0.9450 0.9450 0.9450
2788.597292 0.9440 0.9430 0.9430 0.9430 0.9430
2792.983257 0.9430 0.9430 0.9430 0.9430 0.9430
2797.369223 0.9430 0.9430 0.9430 0.9430 0.9425
2801.755188 0.9420 0.9420 0.9420 0.9420 0.9420
2806.141154 0.9420 0.9420 0.9415 0.9410 0.9410
2810.527120 0.9410 0.9410 0.9410 0.9410 0.9410
2814.913085 0.9410 0.9410 0.9400 0.9390 0.9390
2819.299051 0.9390 0.9390 0.9390 0.9390 0.9390
2823.685016 0.9390 0.9390 0.9390 0.9390 0.9390
2828.070982 0.9390 0.9390 0.9390 0.9390 0.9390
2832.456948 0.9390 0.9390 0.9390 0.9390 0.9390
2836.842913 0.9390 0.9390 0.9390 0.9390 0.9390
2841.228879 0.9390 0.9390 0.9390 0.9390 0.9390
2845.614844 0.9390 0.9390 0.9390 0.9390 0.9390
2850.000810 0.9390 0.9390 0.9390 0.9390 0.9390
2854.386776 0.9390 0.9385 0.9380 0.9380 0.9380
2858.772741 0.9380 0.9380 0.9380 0.9380 0.9380
2863.158707 0.9380 0.9380 0.9380 0.9375 0.9370
2867.544672 0.9370 0.9370 0.9370 0.9370 0.9360
2871.930638 0.9350 0.9350 0.9350 0.9350 0.9350
2876.316604 0.9345 0.9340 0.9340 0.9340 0.9340
2880.702569 0.9340 0.9340 0.9340 0.9340 0.9340
2885.088535 0.9340 0.9340 0.9340 0.9340 0.9345
2889.474501 0.9350 0.9350 0.9350 0.9350 0.9350
2893.860466 0.9350 0.9350 0.9350 0.9350 0.9350
2898.246432 0.9350 0.9350 0.9350 0.9350 0.9350
2902.632397 0.9350 0.9350 0.9345 0.9340 0.9340
2907.018363 0.9340 0.9340 0.9340 0.9340 0.9340
2911.404329 0.9340 0.9340 0.9340 0.9340 0.9340
2915.790294 0.9340 0.9340 0.9340 0.9340 0.9340
2920.176260 0.9335 0.9330 0.9320 0.9310 0.9290
2924.562225 0.9270 0.9255 0.9240 0.9235 0.9230
2928.948191 0.9215 0.9200 0.9135 0.9070 0.8920
2933.334157 0.8770 0.8361 0.7952 0.7880 0.7810
2937.720122 0.7810 0.7810 0.8008 0.8208 0.8289
2942.106088 0.8369 0.8617 0.8867 0.9013 0.9158
2946.492053 0.9180 0.9200 0.9215 0.9230 0.9245
2950.878019 0.9260 0.9295 0.9330 0.9335 0.9340
2955.263985 0.9340 0.9340 0.9345 0.9350 0.9350
2959.649950 0.9350 0.9350 0.9350 0.9350 0.9350
2964.035916 0.9350 0.9350 0.9350 0.9350 0.9350
2968.421882 0.9350 0.9360 0.9370 0.9360 0.9350
2972.807847 0.9350 0.9350 0.9350 0.9350 0.9350
2977.193813 0.9350 0.9350 0.9350 0.9350 0.9350
2981.579778 0.9350 0.9350 0.9350 0.9350 0.9350
2985.965744 0.9350 0.9345 0.9340 0.9340 0.9340
2990.351710 0.9340 0.9340 0.9335 0.9330 0.9320
2994.737675 0.9310 0.9305 0.9300 0.9266 0.9231
2999.123641 0.9175 0.9120 0.9075 0.9030 0.8985
3003.509606 0.8940 0.8940 0.8940 0.9025 0.9109
3007.895572 0.9115 0.9120 0.8788 0.8454 0.7862
3012.281538 0.7268 0.7166 0.7071 0.7070 0.7070
3016.667503 0.7199 0.7330 0.7565 0.7800 0.7810
3021.053469 0.7820 0.7830 0.7840 0.7880 0.7920
3025.439434 0.8123 0.8328 0.8493 0.8658 0.8724
3029.825400 0.8789 0.8968 0.9147 0.9189 0.9229
3034.211366 0.9255 0.9280 0.9290 0.9300 0.9305
3038.597331 0.9310 0.9320 0.9330 0.9335 0.9340
3042.983297 0.9340 0.9340 0.9340 0.9340 0.9340
3047.369262 0.9340 0.9340 0.9340 0.9340 0.9340
3051.755228 0.9340 0.9340 0.9340 0.9340 0.9340
3056.141194 0.9340 0.9340 0.9340 0.9340 0.9340
3060.527159 0.9340 0.9340 0.9340 0.9340 0.9335
3064.913125 0.9330 0.9330 0.9330 0.9330 0.9330
3069.299091 0.9330 0.9330 0.9330 0.9330 0.9330
3073.685056 0.9330 0.9330 0.9330 0.9330 0.9330
3078.071022 0.9320 0.9310 0.9310 0.9310 0.9310
3082.456987 0.9310 0.9310 0.9310 0.9310 0.9310
3086.842953 0.9310 0.9310 0.9310 0.9310 0.9310
3091.228919 0.9310 0.9310 0.9310 0.9310 0.9310
3095.614884 0.9310 0.9310 0.9310 0.9310 0.9305
3100.000850 0.9300 0.9300 0.9300 0.9300 0.9300
3104.386815 0.9300 0.9300 0.9300 0.9300 0.9300
3108.772781 0.9300 0.9300 0.9300 0.9300 0.9300
3113.158747 0.9300 0.9300 0.9300 0.9300 0.9300
3117.544712 0.9300 0.9300 0.9300 0.9300 0.9300
3121.930678 0.9300 0.9300 0.9300 0.9300 0.9300
3126.316643 0.9300 0.9300 0.9300 0.9300 0.9300
3130.702609 0.9300 0.9300 0.9300 0.9300 0.9300
3135.088575 0.9300 0.9300 0.9300 0.9300 0.9300
3139.474540 0.9300 0.9300 0.9300 0.9300 0.9300
3143.860506 0.9300 0.9300 0.9300 0.9300 0.9300
3148.246471 0.9300 0.9300 0.9300 0.9300 0.9300
3152.632437 0.9300 0.9300 0.9300 0.9300 0.9300
3157.018403 0.9300 0.9300 0.9300 0.9300 0.9300
3161.404368 0.9300 0.9300 0.9300 0.9300 0.9300
3165.790334 0.9300 0.9300 0.9300 0.9300 0.9300
3170.176300 0.9300 0.9300 0.9300 0.9300 0.9300
3174.562265 0.9300 0.9300 0.9300 0.9300 0.9300
3178.948231 0.9300 0.9300 0.9300 0.9300 0.9300
3183.334196 0.9290 0.9280 0.9280 0.9280 0.9280
3187.720162 0.9280 0.9280 0.9280 0.9280 0.9280
3192.106128 0.9280 0.9280 0.9275 0.9270 0.9270
3196.492093 0.9270 0.9270 0.9270 0.9270 0.9270
3200.878059 0.9270 0.9270 0.9270 0.9270 0.9270
3205.264024 0.9270 0.9270 0.9270 0.9265 0.9260
3209.649990 0.9260 0.9260 0.9260 0.9260 0.9260
3214.035956 0.9260 0.9260 0.9260 0.9260 0.9260
3218.421921 0.9260 0.9260 0.9260 0.9260 0.9260
3222.807887 0.9260 0.9260 0.9260 0.9260 0.9260
3227.193852 0.9250 0.9240 0.9240 0.9240 0.9240
3231.579818 0.9240 0.9240 0.9240 0.9235 0.9230
3235.965784 0.9230 0.9230 0.9230 0.9230 0.9230
3240.351749 0.9230 0.9230 0.9230 0.9230 0.9230
3244.737715 0.9230 0.9230 0.9225 0.9220 0.9210
3249.123681 0.9200 0.9200 0.9200 0.9200 0.9200
3253.509646 0.9200 0.9200 0.9200 0.9200 0.9200
3257.895612 0.9200 0.9200 0.9200 0.9200 0.9200
3262.281577 0.9200 0.9200 0.9200 0.9200 0.9195
3266.667543 0.9190 0.9190 0.9190 0.9190 0.9190
3271.053509 0.9190 0.9190 0.9190 0.9190 0.9190
3275.439474 0.9190 0.9190 0.9190 0.9185 0.9180
3279.825440 0.9180 0.9180 0.9180 0.9180 0.9170
3284.211405 0.9160 0.9160 0.9160 0.9155 0.9150
3288.597371 0.9150 0.9150 0.9140 0.9130 0.9130
3292.983337 0.9130 0.9130 0.9130 0.9130 0.9130
3297.369302 0.9130 0.9130 0.9130 0.9130 0.9130
3301.755268 0.9130 0.9130 0.9130 0.9130 0.9130
3306.141233 0.9130 0.9130 0.9130 0.9130 0.9130
3310.527199 0.9130 0.9130 0.9130 0.9130 0.9130
3314.913165 0.9130 0.9130 0.9130 0.9130 0.9130
3319.299130 0.9130 0.9130 0.9130 0.9125 0.9120
3323.685096 0.9120 0.9120 0.9120 0.9120 0.9120
3328.071061 0.9120 0.9115 0.9110 0.9110 0.9110
3332.457027 0.9110 0.9110 0.9110 0.9110 0.9110
3336.842993 0.9110 0.9110 0.9110 0.9110 0.9110
3341.228958 0.9100 0.9090 0.9090 0.9090 0.9085
3345.614924 0.9080 0.9080 0.9080 0.9080 0.9080
3350.000890 0.9075 0.9070 0.9060 0.9050 0.9045
3354.386855 0.9040 0.9040 0.9040 0.9040 0.9040
3358.772821 0.9035 0.9030 0.9030 0.9030 0.9020
3363.158786 0.9010 0.9005 0.9000 0.9000 0.9000
3367.544752 0.9000 0.9000 0.8990 0.8980 0.8980
3371.930718 0.8980 0.8980 0.8980 0.8980 0.8980
3376.316683 0.8980 0.8980 0.8980 0.8980 0.8980
3380.702649 0.8980 0.8980 0.8980 0.8980 0.8980
3385.088614 0.8980 0.8980 0.8975 0.8970 0.8970
3389.474580 0.8970 0.8970 0.8970 0.8970 0.8970
3393.860546 0.8970 0.8970 0.8970 0.8970 0.8970
3398.246511 0.8970 0.8970 0.8970 0.8970 0.8970
3402.632477 0.8970 0.8970 0.8965 0.8960 0.8960
3407.018442 0.8960 0.8960 0.8960 0.8960 0.8960
3411.404408 0.8950 0.8940 0.8940 0.8940 0.8940
3415.790374 0.8940 0.8940 0.8940 0.8935 0.8930
3420.176339 0.8930 0.8930 0.8930 0.8930 0.8925
3424.562305 0.8920 0.8920 0.8920 0.8920 0.8920
3428.948270 0.8910 0.8900 0.8900 0.8900 0.8900
3433.334236 0.8900 0.8895 0.8890 0.8890 0.8890
3437.720202 0.8890 0.8890 0.8890 0.8890 0.8890
3442.106167 0.8890 0.8895 0.8900 0.8900 0.8900
3446.492133 0.8900 0.8900 0.8900 0.8900 0.8910
3450.878099 0.8920 0.8925 0.8930 0.8930 0.8930
3455.264064 0.8935 0.8940 0.8940 0.8940 0.8940
3459.650030 0.8940 0.8950 0.8960 0.8960 0.8960
3464.035995 0.8960 0.8960 0.8965 0.8970 0.8970
3468.421961 0.8970 0.8970 0.8970 0.8975 0.8980
3472.807927 0.8980 0.8980 0.8990 0.9000 0.9000
3477.193892 0.9000 0.9000 0.9000 0.9005 0.9010
3481.579858 0.9010 0.9010 0.9010 0.9010 0.9010
3485.965823 0.9010 0.9010 0.9010 0.9020 0.9030
3490.351789 0.9030 0.9030 0.9030 0.9030 0.9035
3494.737755 0.9040 0.9040 0.9040 0.9040 0.9040
3499.123720 0.9040 0.9040 0.9045 0.9050 0.9050
3503.509686 0.9050 0.9050 0.9050 0.9060 0.9070
3507.895651 0.9070 0.9070 0.9060 0.9050 0.9060
3512.281617 0.9070 0.9070 0.9070 0.9070 0.9070
3516.667583 0.9070 0.9070 0.9070 0.9070 0.9075
3521.053548 0.9080 0.9080 0.9080 0.9080 0.9080
3525.439514 0.9080 0.9080 0.9080 0.9080 0.9085
3529.825480 0.9090 0.9090 0.9090 0.9090 0.9090
3534.211445 0.9090 0.9090 0.9100 0.9110 0.9110
3538.597411 0.9110 0.9110 0.9110 0.9110 0.9110
3542.983376 0.9115 0.9120 0.9105 0.9090 0.9100
3547.369342 0.9110 0.9110 0.9110 0.9110 0.9110
3551.755308 0.9110 0.9110 0.9115 0.9120 0.9120
3556.141273 0.9120 0.9120 0.9120 0.9120 0.9120
3560.527239 0.9125 0.9130 0.9130 0.9130 0.9130
3564.913204 0.9130 0.9130 0.9130 0.9130 0.9130
3569.299170 0.9130 0.9130 0.9130 0.9130 0.9130
3573.685136 0.9130 0.9130 0.9130 0.9130 0.9130
3578.071101 0.9130 0.9130 0.9130 0.9130 0.9140
3582.457067 0.9150 0.9150 0.9150 0.9150 0.9150
3586.843032 0.9150 0.9150 0.9150 0.9150 0.9155
3591.228998 0.9160 0.9160 0.9160 0.9160 0.9160
3595.614964 0.9160 0.9160 0.9160 0.9160 0.9170
3600.000929 0.9180 0.9180 0.9180 0.9180 0.9180
3604.386895 0.9180 0.9180 0.9180 0.9180 0.9180
3608.772860 0.9180 0.9180 0.9180 0.9180 0.9180
3613.158826 0.9180 0.9180 0.9180 0.9180 0.9180
3617.544792 0.9180 0.9180 0.9180 0.9180 0.9180
3621.930757 0.9180 0.9180 0.9180 0.9180 0.9180
3626.316723 0.9180 0.9180 0.9180 0.9180 0.9180
3630.702689 0.9180 0.9180 0.9180 0.9180 0.9180
3635.088654 0.9180 0.9185 0.9190 0.9190 0.9190
3639.474620 0.9190 0.9190 0.9190 0.9190 0.9190
3643.860585 0.9190 0.9190 0.9190 0.9195 0.9200
3648.246551 0.9200 0.9200 0.9200 0.9200 0.9200
3652.632517 0.9200 0.9200 0.9200 0.9200 0.9200
3657.018482 0.9200 0.9200 0.9200 0.9200 0.9200
3661.404448 0.9200 0.9200 0.9200 0.9200 0.9200
3665.790413 0.9200 0.9200 0.9200 0.9200 0.9200
3670.176379 0.9200 0.9200 0.9200 0.9200 0.9200
3674.562345 0.9200 0.9200 0.9200 0.9200 0.9200
3678.948310 0.9200 0.9200 0.9200 0.9200 0.9200
3683.334276 0.9200 0.9200 0.9195 0.9190 0.9190
3687.720241 0.9190 0.9190 0.9190 0.9190 0.9190
3692.106207 0.9190 0.9190 0.9190 0.9190 0.9190
3696.492173 0.9190 0.9190 0.9190 0.9190 0.9190
3700.878138 0.9190 0.9190 0.9190 0.9190 0.9190
3705.264104 0.9190 0.9195 0.9200 0.9200 0.9200
3709.650070 0.9200 0.9200 0.9200 0.9200 0.9200
3714.036035 0.9200 0.9200 0.9200 0.9200 0.9200
3718.422001 0.9200 0.9200 0.9200 0.9200 0.9200
3722.807966 0.9200 0.9195 0.9190 0.9190 0.9190
3727.193932 0.9190 0.9190 0.9190 0.9190 0.9190
3731.579898 0.9190 0.9190 0.9190 0.9185 0.9180
3735.965863 0.9180 0.9180 0.9180 0.9180 0.9180
3740.351829 0.9180 0.9180 0.9180 0.9180 0.9180
3744.737794 0.9180 0.9180 0.9180 0.9180 0.9180
3749.123760 0.9180 0.9180 0.9180 0.9180 0.9180
3753.509726 0.9180 0.9180 0.9180 0.9180 0.9180
3757.895691 0.9180 0.9180 0.9180 0.9180 0.9180
3762.281657 0.9180 0.9180 0.9180 0.9180 0.9180
3766.667622 0.9180 0.9180 0.9180 0.9180 0.9180
3771.053588 0.9180 0.9180 0.9180 0.9180 0.9180
3775.439554 0.9180 0.9180 0.9180 0.9180 0.9180
3779.825519 0.9180 0.9180 0.9180 0.9180 0.9170
3784.211485 0.9160 0.9160 0.9160 0.9160 0.9160
3788.597450 0.9160 0.9160 0.9160 0.9160 0.9160
3792.983416 0.9160 0.9160 0.9160 0.9160 0.9160
3797.369382 0.9160 0.9160 0.9160 0.9160 0.9160
3801.755347 0.9160
##END=
