##TITLE=CYCLOPENTANECARBOXAMIDE, CIS-3-ACETOXYMETHYL-
##JCAMP-DX=4.24
##DATA TYPE=INFRARED SPECTRUM
##CLASS=COBLENTZ III
##ORIGIN=SOUTHERN RESEARCH INSTITUTE
##OWNER=COBLENTZ SOCIETY
Collection (C) 2018 copyright by the U.S. Secretary of Commerce
on behalf of the United States of America. All rights reserved.
##DATE=1961/06/01
##NAMES=[3-(aminocarbonyl)cyclopentyl]methyl acetate
##MOLFORM=C9 H15 N O3
##SOURCE REFERENCE=COBLENTZ NO. 10450
##$NIST ID=B6010450
##$NIST SOURCE=COBLENTZ
##$NIST IMAGE=cob10450
##SPECTROMETER/DATA SYSTEM=PERKIN-ELMER 221 (GRATING)
##INSTRUMENT PARAMETERS=GRATING FOR 4000-1428, FILTERS AT 2490, 980, NaCl PRISM FOR 1428-650 CM^-^1
##STATE=SOLID (1 mg / 650 mg KBr DISC)
##PATH LENGTH=
$$ PURITY - ANALYTICAL
##SAMPLING PROCEDURE=TRANSMISSION
##RESOLUTION=4
##DATA PROCESSING=DIGITIZED BY NIST FROM HARD COPY (FROM TWO SEGMENTS)
##XUNITS=1/CM
##YUNITS=TRANSMITTANCE
##XFACTOR=1.000000
##YFACTOR=1
##DELTAX=1.302326
##FIRSTX=657.624
##LASTX=4011.11
##FIRSTY=0.698
##MAXX=4011.11
##MINX=657.624
##MAXY=0.953
##MINY=0.198477
##NPOINTS=2576
##XYDATA=(X++(Y..Y))
657.624000 0.6980 0.6980 0.6980 0.6980 0.6980
664.135630 0.7009 0.7029 0.7068 0.7184 0.7359
670.647260 0.7493 0.7584 0.7665 0.7744 0.7787
677.158890 0.7799 0.7809 0.7828 0.7839 0.7840
683.670520 0.7840 0.7840 0.7840 0.7831 0.7813
690.182150 0.7801 0.7792 0.7790 0.7773 0.7770
696.693780 0.7762 0.7760 0.7768 0.7786 0.7798
703.205410 0.7808 0.7826 0.7869 0.7927 0.8033
709.717040 0.8161 0.8267 0.8336 0.8395 0.8440
716.228670 0.8457 0.8475 0.8480 0.8429 0.8317
722.740300 0.8251 0.8211 0.8186 0.8152 0.8126
729.251930 0.8113 0.8103 0.8107 0.8117 0.8146
735.763560 0.8186 0.8233 0.8276 0.8329 0.8363
742.275190 0.8414 0.8478 0.8550 0.8605 0.8620
748.786820 0.8650 0.8700 0.8738 0.8785 0.8828
755.298450 0.8886 0.8943 0.8983 0.9006 0.9021
761.810080 0.9052 0.9081 0.9101 0.9131 0.9155
768.321710 0.9170 0.9185 0.9210 0.9235 0.9255
774.833340 0.9275 0.9280 0.9280 0.9280 0.9285
781.344970 0.9290 0.9290 0.9290 0.9290 0.9286
787.856600 0.9280 0.9280 0.9280 0.9276 0.9274
794.368230 0.9280 0.9280 0.9276 0.9258 0.9236
800.879860 0.9226 0.9220 0.9213 0.9193 0.9173
807.391490 0.9160 0.9157 0.9140 0.9113 0.9097
813.903120 0.9084 0.9067 0.9050 0.9027 0.9014
820.414750 0.8994 0.8957 0.8891 0.8842 0.8765
826.926380 0.8747 0.8735 0.8717 0.8710 0.8710
833.438010 0.8708 0.8700 0.8700 0.8700 0.8702
839.949640 0.8712 0.8737 0.8814 0.8874 0.8892
846.461270 0.8904 0.8934 0.9003 0.9028 0.9078
852.972900 0.9129 0.9182 0.9196 0.9239 0.9293
859.484530 0.9311 0.9324 0.9350 0.9351 0.9360
865.996160 0.9360 0.9360 0.9360 0.9360 0.9360
872.507790 0.9360 0.9360 0.9360 0.9360 0.9360
879.019420 0.9360 0.9359 0.9329 0.9309 0.9288
885.531050 0.9230 0.9219 0.9179 0.9090 0.9030
892.042680 0.9010 0.8980 0.8941 0.8872 0.8792
898.554310 0.8713 0.8643 0.8592 0.8514 0.8491
905.065940 0.8481 0.8489 0.8573 0.8746 0.8888
911.577570 0.9018 0.9138 0.9239 0.9321 0.9392
918.089200 0.9444 0.9485 0.9499 0.9509 0.9510
924.600830 0.9527 0.9530 0.9530 0.9530 0.9513
931.112460 0.9494 0.9482 0.9464 0.9428 0.9420
937.624090 0.9412 0.9410 0.9386 0.9364 0.9329
944.135720 0.9289 0.9249 0.9210 0.9162 0.9105
950.647350 0.9046 0.8979 0.8902 0.8815 0.8776
957.158980 0.8749 0.8719 0.8689 0.8673 0.8663
963.670610 0.8660 0.8646 0.8640 0.8640 0.8653
970.182240 0.8660 0.8673 0.8693 0.8706 0.8735
976.693870 0.8788 0.8822 0.8836 0.8858 0.8882
983.205500 0.8908 0.8920 0.8926 0.8930 0.8930
989.717130 0.8924 0.8920 0.8920 0.8909 0.8895
996.228760 0.8890 0.8868 0.8845 0.8824 0.8800
1002.740390 0.8769 0.8724 0.8680 0.8640 0.8605
1009.252020 0.8537 0.8451 0.8367 0.8272 0.8188
1015.763650 0.8085 0.7956 0.7804 0.7639 0.7485
1022.275280 0.7336 0.7195 0.7090 0.7016 0.6900
1028.786910 0.6711 0.6476 0.6163 0.5758 0.5356
1035.298540 0.5038 0.4896 0.4894 0.4944 0.5099
1041.810170 0.5335 0.5634 0.5924 0.6113 0.6361
1048.321800 0.6597 0.6850 0.7162 0.7378 0.7558
1054.833430 0.7711 0.7847 0.7971 0.8077 0.8177
1061.345060 0.8281 0.8383 0.8430 0.8465 0.8487
1067.856690 0.8524 0.8586 0.8654 0.8704 0.8720
1074.368320 0.8724 0.8740 0.8740 0.8740 0.8740
1080.879950 0.8742 0.8750 0.8750 0.8750 0.8750
1087.391580 0.8750 0.8751 0.8760 0.8760 0.8759
1093.903210 0.8750 0.8750 0.8750 0.8750 0.8750
1100.414840 0.8749 0.8738 0.8719 0.8709 0.8698
1106.926470 0.8670 0.8669 0.8660 0.8659 0.8638
1113.438100 0.8589 0.8569 0.8539 0.8510 0.8500
1119.949730 0.8500 0.8500 0.8490 0.8490 0.8490
1126.461360 0.8490 0.8480 0.8451 0.8382 0.8283
1132.972990 0.8184 0.8066 0.7965 0.7847 0.7793
1139.484620 0.7771 0.7788 0.7919 0.8086 0.8237
1145.996250 0.8386 0.8526 0.8549 0.8550 0.8541
1152.507880 0.8540 0.8497 0.8481 0.8454 0.8416
1159.019510 0.8376 0.8328 0.8287 0.8272 0.8270
1165.531140 0.8254 0.8242 0.8199 0.8085 0.8028
1172.042770 0.8004 0.7945 0.7891 0.7826 0.7764
1178.554400 0.7682 0.7570 0.7419 0.7282 0.7235
1185.066030 0.7230 0.7245 0.7293 0.7353 0.7377
1191.577660 0.7486 0.7544 0.7550 0.7543 0.7540
1198.089290 0.7540 0.7520 0.7463 0.7354 0.7212
1204.600920 0.7128 0.7059 0.6998 0.6948 0.6848
1211.112550 0.6700 0.6541 0.6364 0.6169 0.5958
1217.624180 0.5722 0.5468 0.5202 0.4921 0.4627
1224.135810 0.4323 0.4100 0.3941 0.3683 0.3340
1230.647440 0.2928 0.2599 0.2410 0.2235 0.2098
1237.159070 0.2024 0.1985 0.1985 0.2089 0.2234
1243.670700 0.2362 0.2526 0.2719 0.2943 0.3186
1250.182330 0.3641 0.4115 0.4306 0.4466 0.4619
1256.693960 0.4770 0.4904 0.5047 0.5202 0.5368
1263.205590 0.5520 0.5612 0.5691 0.5763 0.5826
1269.717220 0.5892 0.5977 0.6125 0.6287 0.6412
1276.228850 0.6542 0.6694 0.6847 0.6963 0.7013
1282.740480 0.7020 0.7020 0.7023 0.7030 0.7030
1289.252110 0.7036 0.7050 0.7050 0.7053 0.7060
1295.763740 0.7068 0.7095 0.7122 0.7170 0.7205
1302.275370 0.7225 0.7242 0.7254 0.7270 0.7270
1308.787000 0.7266 0.7246 0.7220 0.7163 0.7079
1315.298630 0.7019 0.6939 0.6742 0.6420 0.5969
1321.810260 0.5800 0.5807 0.5859 0.6021 0.6678
1328.321890 0.6836 0.7132 0.7470 0.7642 0.7751
1334.833520 0.7760 0.7760 0.7760 0.7760 0.7759
1341.345150 0.7750 0.7749 0.7740 0.7739 0.7720
1347.856780 0.7719 0.7678 0.7616 0.7437 0.7315
1354.368410 0.7069 0.6959 0.6830 0.6582 0.6274
1360.880040 0.6015 0.5767 0.5499 0.5490 0.5529
1367.391670 0.5626 0.5763 0.5959 0.6082 0.6183
1373.903300 0.6365 0.6371 0.6352 0.6313 0.6256
1380.414930 0.6223 0.6184 0.6180 0.6242 0.6337
1386.926560 0.6437 0.6528 0.6574 0.6760 0.7071
1393.438190 0.7204 0.7228 0.7230 0.7230 0.7230
1399.949820 0.7230 0.7222 0.7220 0.7220 0.7204
1406.461450 0.7184 0.7110 0.7028 0.6972 0.6914
1412.973080 0.6756 0.6680 0.6700 0.6732 0.6244
1419.484710 0.5733 0.5465 0.5280 0.5194 0.5123
1425.996340 0.5044 0.4958 0.4909 0.4893 0.4897
1432.507970 0.4941 0.4987 0.5060 0.5149 0.5239
1439.019600 0.5328 0.5411 0.5484 0.5674 0.5770
1445.531230 0.5764 0.5735 0.5610 0.5540 0.5594
1452.042860 0.5771 0.5928 0.6045 0.6204 0.6349
1458.554490 0.6451 0.6501 0.6510 0.6499 0.6490
1465.066120 0.6474 0.6460 0.6455 0.6445 0.6440
1471.577750 0.6445 0.6541 0.6928 0.7299 0.7423
1478.089380 0.7509 0.7587 0.7700 0.7821 0.7908
1484.601010 0.7967 0.8009 0.8038 0.8082 0.8127
1491.112640 0.8150 0.8154 0.8168 0.8184 0.8202
1497.624270 0.8224 0.8234 0.8240 0.8240 0.8244
1504.135900 0.8250 0.8257 0.8270 0.8274 0.8284
1510.647530 0.8297 0.8313 0.8320 0.8320 0.8320
1517.159160 0.8320 0.8323 0.8330 0.8330 0.8330
1523.670790 0.8330 0.8330 0.8327 0.8320 0.8317
1530.182420 0.8310 0.8310 0.8312 0.8322 0.8330
1536.694050 0.8330 0.8328 0.8318 0.8306 0.8294
1543.205680 0.8312 0.8328 0.8362 0.8372 0.8384
1549.717310 0.8400 0.8395 0.8363 0.8322 0.8276
1556.228940 0.8247 0.8225 0.8189 0.8194 0.8294
1562.740570 0.8320 0.8319 0.8308 0.8288 0.8268
1569.252200 0.8248 0.8227 0.8187 0.8147 0.8097
1575.763830 0.8057 0.8019 0.7998 0.7959 0.7928
1582.275460 0.7890 0.7879 0.7839 0.7799 0.7750
1588.787090 0.7720 0.7710 0.7551 0.7412 0.7282
1595.298720 0.7182 0.7064 0.7002 0.6933 0.6805
1601.810350 0.6648 0.6460 0.6262 0.6035 0.5788
1608.321980 0.5531 0.5291 0.5043 0.4813 0.4591
1614.833610 0.4391 0.4236 0.4087 0.3982 0.3883
1621.345240 0.3689 0.3480 0.3305 0.3170 0.2930
1627.856870 0.2764 0.2640 0.2504 0.2455 0.2458
1634.368500 0.2476 0.2488 0.2506 0.2542 0.2613
1640.880130 0.2693 0.2749 0.2799 0.2841 0.2903
1647.391760 0.2980 0.3105 0.3214 0.3343 0.3439
1653.903390 0.3518 0.3547 0.3571 0.3637 0.3674
1660.415020 0.3764 0.3862 0.3897 0.3914 0.3934
1666.926650 0.3994 0.4087 0.4219 0.4355 0.4471
1673.438280 0.4593 0.4716 0.4842 0.4965 0.5078
1679.949910 0.5194 0.5424 0.5643 0.5782 0.5883
1686.461540 0.5979 0.6113 0.6237 0.6331 0.6410
1692.973170 0.6496 0.6629 0.6738 0.6803 0.6835
1699.484800 0.6845 0.6860 0.6870 0.6860 0.6825
1705.996430 0.6785 0.6740 0.6631 0.6516 0.6302
1712.508060 0.5963 0.5674 0.5415 0.5180 0.4965
1719.019690 0.4764 0.4571 0.4377 0.4179 0.4017
1725.531320 0.3910 0.3737 0.3476 0.3178 0.2833
1732.042950 0.2491 0.2302 0.2298 0.2318 0.2341
1738.554580 0.2393 0.2496 0.2671 0.2946 0.3235
1745.066210 0.3651 0.4257 0.4536 0.4668 0.4838
1751.577840 0.5122 0.5378 0.5534 0.5689 0.5855
1758.089470 0.6018 0.6182 0.6331 0.6477 0.6613
1764.601100 0.6740 0.6874 0.7024 0.7077 0.7129
1771.112730 0.7251 0.7338 0.7409 0.7448 0.7484
1777.624360 0.7510 0.7558 0.7597 0.7639 0.7692
1784.135990 0.7753 0.7775 0.7805 0.7836 0.7873
1790.647620 0.7896 0.7931 0.7945 0.7982 0.8002
1797.159250 0.8023 0.8054 0.8092 0.8114 0.8153
1803.670880 0.8188 0.8281 0.8291 0.8310 0.8311
1810.182510 0.8332 0.8361 0.8381 0.8410 0.8410
1816.694140 0.8421 0.8450 0.8460 0.8480 0.8490
1823.205770 0.8510 0.8530 0.8550 0.8580 0.8609
1829.717400 0.8629 0.8659 0.8660 0.8670 0.8670
1836.229030 0.8670 0.8670 0.8670 0.8670 0.8670
1842.740660 0.8670 0.8679 0.8698 0.8709 0.8737
1849.252290 0.8758 0.8787 0.8808 0.8827 0.8839
1855.763920 0.8849 0.8850 0.8867 0.8870 0.8870
1862.275550 0.8870 0.8878 0.8880 0.8880 0.8880
1868.787180 0.8888 0.8890 0.8890 0.8890 0.8898
1875.298810 0.8900 0.8900 0.8900 0.8900 0.8915
1881.810440 0.8920 0.8920 0.8920 0.8927 0.8930
1888.322070 0.8930 0.8930 0.8937 0.8940 0.8940
1894.833700 0.8940 0.8940 0.8940 0.8940 0.8940
1901.345330 0.8940 0.8940 0.8940 0.8940 0.8940
1907.856960 0.8940 0.8940 0.8940 0.8940 0.8940
1914.368590 0.8940 0.8940 0.8940 0.8940 0.8940
1920.880220 0.8940 0.8952 0.8960 0.8960 0.8960
1927.391850 0.8960 0.8960 0.8960 0.8965 0.8970
1933.903480 0.8970 0.8970 0.8975 0.8980 0.8980
1940.415110 0.8980 0.8980 0.8990 0.9000 0.9000
1946.926740 0.9000 0.9005 0.9010 0.9015 0.9020
1953.438370 0.9020 0.9020 0.9020 0.9020 0.9020
1959.950000 0.9024 0.9030 0.9030 0.9030 0.9038
1966.461630 0.9050 0.9054 0.9060 0.9060 0.9056
1972.973260 0.9050 0.9050 0.9050 0.9050 0.9050
1979.484890 0.9050 0.9050 0.9050 0.9050 0.9050
1985.996520 0.9050 0.9050 0.9050 0.9050 0.9050
1992.508150 0.9050 0.9050 0.9050 0.9053 0.9060
1999.019780 0.9062 0.9070 0.9070 0.9070 0.9070
2005.531410 0.9070 0.9070 0.9068 0.9060 0.9060
2012.043040 0.9060 0.9060 0.9060 0.9060 0.9060
2018.554670 0.9060 0.9058 0.9050 0.9050 0.9050
2025.066300 0.9050 0.9050 0.9050 0.9052 0.9060
2031.577930 0.9060 0.9062 0.9070 0.9070 0.9070
2038.089560 0.9070 0.9075 0.9090 0.9090 0.9090
2044.601190 0.9090 0.9090 0.9090 0.9085 0.9070
2051.112820 0.9070 0.9070 0.9070 0.9070 0.9070
2057.624450 0.9070 0.9070 0.9070 0.9070 0.9070
2064.136080 0.9070 0.9068 0.9060 0.9060 0.9060
2070.647710 0.9060 0.9060 0.9060 0.9060 0.9060
2077.159340 0.9060 0.9060 0.9060 0.9060 0.9060
2083.670970 0.9060 0.9060 0.9060 0.9060 0.9060
2090.182600 0.9060 0.9060 0.9060 0.9060 0.9060
2096.694230 0.9060 0.9060 0.9060 0.9060 0.9060
2103.205860 0.9060 0.9060 0.9060 0.9060 0.9060
2109.717490 0.9060 0.9060 0.9060 0.9060 0.9060
2116.229120 0.9060 0.9058 0.9050 0.9050 0.9050
2122.740750 0.9045 0.9030 0.9030 0.9030 0.9030
2129.252380 0.9028 0.9020 0.9020 0.9020 0.9020
2135.764010 0.9018 0.9010 0.9010 0.9008 0.9000
2142.275640 0.9000 0.9000 0.9000 0.9002 0.9012
2148.787270 0.9022 0.9037 0.9062 0.9070 0.9075
2155.298900 0.9090 0.9092 0.9100 0.9100 0.9100
2161.810530 0.9100 0.9102 0.9110 0.9110 0.9110
2168.322160 0.9110 0.9110 0.9110 0.9110 0.9110
2174.833790 0.9112 0.9120 0.9120 0.9125 0.9140
2181.345420 0.9140 0.9140 0.9140 0.9140 0.9140
2187.857050 0.9140 0.9140 0.9140 0.9140 0.9140
2194.368680 0.9140 0.9140 0.9140 0.9140 0.9140
2200.880310 0.9140 0.9140 0.9140 0.9140 0.9140
2207.391940 0.9140 0.9140 0.9135 0.9120 0.9120
2213.903570 0.9120 0.9120 0.9120 0.9120 0.9120
2220.415200 0.9120 0.9120 0.9120 0.9120 0.9120
2226.926830 0.9120 0.9120 0.9118 0.9110 0.9110
2233.438460 0.9110 0.9110 0.9108 0.9100 0.9100
2239.950090 0.9100 0.9098 0.9090 0.9090 0.9090
2246.461720 0.9085 0.9070 0.9070 0.9070 0.9068
2252.973350 0.9060 0.9060 0.9060 0.9060 0.9060
2259.484980 0.9060 0.9060 0.9060 0.9060 0.9060
2265.996610 0.9060 0.9058 0.9050 0.9050 0.9050
2272.508240 0.9050 0.9050 0.9045 0.9030 0.9028
2279.019870 0.9020 0.9020 0.9020 0.9022 0.9030
2285.531500 0.9030 0.9035 0.9050 0.9050 0.9050
2292.043130 0.9050 0.9050 0.9050 0.9050 0.9050
2298.554760 0.9045 0.9030 0.9030 0.9030 0.9030
2305.066390 0.9030 0.9030 0.9035 0.9050 0.9050
2311.578020 0.9050 0.9050 0.9045 0.9030 0.9028
2318.089650 0.9020 0.9018 0.9003 0.8978 0.8968
2324.601280 0.8960 0.8960 0.8955 0.8940 0.8938
2331.112910 0.8928 0.8920 0.8920 0.8920 0.8920
2337.624540 0.8922 0.8932 0.8945 0.8960 0.8962
2344.136170 0.8970 0.8972 0.8980 0.8980 0.8980
2350.647800 0.8980 0.8978 0.8970 0.8970 0.8968
2357.159430 0.8960 0.8955 0.8940 0.8940 0.8940
2363.671060 0.8940 0.8945 0.8962 0.8970 0.8972
2370.182690 0.8985 0.9002 0.9012 0.9022 0.9035
2376.694320 0.9050 0.9052 0.9060 0.9060 0.9060
2383.205950 0.9060 0.9060 0.9060 0.9060 0.9060
2389.717580 0.9060 0.9060 0.9060 0.9060 0.9060
2396.229210 0.9060 0.9060 0.9060 0.9060 0.9060
2402.740840 0.9060 0.9060 0.9060 0.9060 0.9060
2409.252470 0.9060 0.9060 0.9060 0.9060 0.9060
2415.764100 0.9060 0.9060 0.9060 0.9060 0.9060
2422.275730 0.9060 0.9060 0.9060 0.9060 0.9060
2428.787360 0.9060 0.9060 0.9060 0.9060 0.9060
2435.298990 0.9060 0.9060 0.9060 0.9060 0.9060
2441.810620 0.9060 0.9060 0.9060 0.9060 0.9060
2448.322250 0.9060 0.9060 0.9060 0.9060 0.9060
2454.833880 0.9060 0.9060 0.9060 0.9060 0.9060
2461.345510 0.9060 0.9060 0.9060 0.9060 0.9062
2467.857140 0.9070 0.9070 0.9070 0.9070 0.9070
2474.368770 0.9070 0.9070 0.9070 0.9070 0.9070
2480.880400 0.9070 0.9070 0.9070 0.9068 0.9060
2487.392030 0.9060 0.9060 0.9060 0.9060 0.9060
2493.903660 0.9060 0.9060 0.9060 0.9060 0.9060
2500.415290 0.9060 0.9060 0.9060 0.9060 0.9060
2506.926920 0.9060 0.9060 0.9060 0.9060 0.9060
2513.438550 0.9060 0.9060 0.9060 0.9060 0.9060
2519.950180 0.9060 0.9060 0.9060 0.9060 0.9060
2526.461810 0.9060 0.9060 0.9060 0.9060 0.9060
2532.973440 0.9058 0.9050 0.9050 0.9050 0.9050
2539.485070 0.9050 0.9045 0.9030 0.9030 0.9030
2545.996700 0.9030 0.9030 0.9030 0.9030 0.9030
2552.508330 0.9030 0.9030 0.9030 0.9030 0.9030
2559.019960 0.9030 0.9030 0.9030 0.9030 0.9030
2565.531590 0.9030 0.9030 0.9030 0.9030 0.9030
2572.043220 0.9030 0.9030 0.9030 0.9030 0.9030
2578.554850 0.9030 0.9030 0.9030 0.9030 0.9030
2585.066480 0.9030 0.9030 0.9030 0.9030 0.9030
2591.578110 0.9030 0.9030 0.9030 0.9030 0.9030
2598.089740 0.9030 0.9030 0.9030 0.9030 0.9030
2604.601370 0.9030 0.9030 0.9028 0.9020 0.9020
2611.113000 0.9020 0.9020 0.9020 0.9020 0.9020
2617.624630 0.9020 0.9020 0.9020 0.9018 0.9010
2624.136260 0.9010 0.9010 0.9010 0.9010 0.9010
2630.647890 0.9010 0.9010 0.9010 0.9010 0.9010
2637.159520 0.9010 0.9010 0.9010 0.9010 0.9010
2643.671150 0.9010 0.9010 0.9012 0.9020 0.9020
2650.182780 0.9020 0.9020 0.9020 0.9022 0.9030
2656.694410 0.9030 0.9030 0.9028 0.9020 0.9020
2663.206040 0.9020 0.9018 0.9010 0.9008 0.9000
2669.717670 0.9000 0.8995 0.8980 0.8980 0.8980
2676.229300 0.8980 0.8980 0.8980 0.8980 0.8978
2682.740930 0.8970 0.8970 0.8970 0.8970 0.8970
2689.252560 0.8970 0.8968 0.8960 0.8960 0.8960
2695.764190 0.8955 0.8940 0.8938 0.8930 0.8930
2702.275820 0.8930 0.8930 0.8930 0.8928 0.8920
2708.787450 0.8920 0.8920 0.8920 0.8920 0.8915
2715.299080 0.8900 0.8898 0.8890 0.8890 0.8890
2721.810710 0.8888 0.8880 0.8880 0.8878 0.8870
2728.322340 0.8870 0.8865 0.8850 0.8850 0.8848
2734.833970 0.8840 0.8840 0.8838 0.8830 0.8825
2741.345600 0.8810 0.8808 0.8798 0.8785 0.8768
2747.857230 0.8760 0.8758 0.8748 0.8740 0.8735
2754.368860 0.8718 0.8710 0.8710 0.8708 0.8700
2760.880490 0.8700 0.8700 0.8700 0.8695 0.8680
2767.392120 0.8680 0.8680 0.8680 0.8680 0.8678
2773.903750 0.8670 0.8668 0.8660 0.8653 0.8628
2780.415380 0.8613 0.8585 0.8560 0.8523 0.8498
2786.927010 0.8480 0.8448 0.8433 0.8410 0.8408
2793.438640 0.8395 0.8378 0.8368 0.8360 0.8360
2799.950270 0.8360 0.8362 0.8370 0.8377 0.8402
2806.461900 0.8427 0.8480 0.8482 0.8490 0.8490
2812.973530 0.8492 0.8500 0.8500 0.8500 0.8500
2819.485160 0.8502 0.8510 0.8515 0.8530 0.8530
2825.996790 0.8530 0.8530 0.8530 0.8530 0.8530
2832.508420 0.8532 0.8540 0.8540 0.8540 0.8540
2839.020050 0.8538 0.8525 0.8505 0.8478 0.8433
2845.531680 0.8403 0.8378 0.8358 0.8303 0.8228
2852.043310 0.8138 0.8048 0.7968 0.7923 0.7900
2858.554940 0.7868 0.7733 0.7585 0.7443 0.7298
2865.066570 0.7168 0.7058 0.7005 0.6955 0.6940
2871.578200 0.6959 0.7032 0.7087 0.7150 0.7192
2878.089830 0.7242 0.7292 0.7330 0.7330 0.7328
2884.601460 0.7318 0.7310 0.7305 0.7290 0.7295
2891.113090 0.7310 0.7310 0.7305 0.7288 0.7273
2897.624720 0.7250 0.7245 0.7223 0.7190 0.7158
2904.136350 0.7143 0.7115 0.7093 0.7060 0.7028
2910.647980 0.7018 0.7010 0.7008 0.6993 0.6960
2917.159610 0.6923 0.6883 0.6811 0.6748 0.6740
2923.671240 0.6735 0.6718 0.6693 0.6628 0.6565
2930.182870 0.6470 0.6400 0.6368 0.6360 0.6358
2936.694500 0.6350 0.6345 0.6328 0.6303 0.6233
2943.206130 0.6163 0.6088 0.6000 0.5923 0.5821
2949.717760 0.5631 0.5485 0.5388 0.5308 0.5258
2956.229390 0.5215 0.5198 0.5190 0.5190 0.5192
2962.741020 0.5200 0.5200 0.5205 0.5222 0.5240
2969.252650 0.5292 0.5392 0.5531 0.5701 0.5874
2975.764280 0.6046 0.6232 0.6507 0.6766 0.7067
2982.275910 0.7207 0.7317 0.7422 0.7512 0.7602
2988.787540 0.7692 0.7787 0.7882 0.7922 0.7932
2995.299170 0.7947 0.7972 0.7987 0.8015 0.8045
3001.810800 0.8092 0.8100 0.8100 0.8102 0.8110
3008.322430 0.8110 0.8110 0.8112 0.8120 0.8120
3014.834060 0.8120 0.8125 0.8140 0.8142 0.8152
3021.345690 0.8165 0.8180 0.8180 0.8175 0.8160
3027.857320 0.8158 0.8148 0.8140 0.8135 0.8120
3034.368950 0.8120 0.8120 0.8120 0.8118 0.8110
3040.880580 0.8108 0.8100 0.8098 0.8090 0.8085
3047.392210 0.8065 0.8043 0.8015 0.7993 0.7968
3053.903840 0.7955 0.7940 0.7938 0.7930 0.7928
3060.415470 0.7920 0.7915 0.7900 0.7898 0.7888
3066.927100 0.7863 0.7805 0.7783 0.7760 0.7758
3073.438730 0.7743 0.7720 0.7720 0.7710 0.7668
3079.950360 0.7620 0.7588 0.7578 0.7563 0.7538
3086.461990 0.7513 0.7450 0.7415 0.7393 0.7368
3092.973620 0.7353 0.7325 0.7295 0.7243 0.7205
3099.485250 0.7150 0.7108 0.7060 0.7028 0.7015
3105.996880 0.6990 0.6945 0.6895 0.6870 0.6830
3112.508510 0.6790 0.6740 0.6670 0.6635 0.6610
3119.020140 0.6558 0.6478 0.6433 0.6403 0.6373
3125.531770 0.6330 0.6241 0.6128 0.6048 0.6000
3132.043400 0.5963 0.5928 0.5875 0.5815 0.5738
3138.555030 0.5618 0.5526 0.5430 0.5358 0.5310
3145.066660 0.5270 0.5225 0.5158 0.5058 0.4940
3151.578290 0.4853 0.4748 0.4663 0.4595 0.4545
3158.089920 0.4525 0.4510 0.4510 0.4510 0.4510
3164.601550 0.4515 0.4530 0.4532 0.4547 0.4570
3171.113180 0.4572 0.4580 0.4582 0.4590 0.4597
3177.624810 0.4622 0.4637 0.4662 0.4670 0.4680
3184.136440 0.4712 0.4720 0.4725 0.4740 0.4740
3190.648070 0.4742 0.4750 0.4755 0.4777 0.4807
3197.159700 0.4847 0.4910 0.4947 0.4980 0.5012
3203.671330 0.5022 0.5047 0.5110 0.5150 0.5185
3210.182960 0.5200 0.5207 0.5232 0.5250 0.5290
3216.694590 0.5330 0.5365 0.5397 0.5460 0.5492
3223.206220 0.5502 0.5515 0.5540 0.5580 0.5615
3229.717850 0.5640 0.5672 0.5680 0.5680 0.5685
3236.229480 0.5700 0.5702 0.5710 0.5710 0.5710
3242.741110 0.5710 0.5710 0.5710 0.5710 0.5710
3249.252740 0.5708 0.5693 0.5660 0.5618 0.5570
3255.764370 0.5533 0.5508 0.5498 0.5488 0.5475
3262.276000 0.5458 0.5443 0.5418 0.5408 0.5393
3268.787630 0.5365 0.5343 0.5318 0.5305 0.5290
3275.299260 0.5285 0.5263 0.5225 0.5180 0.5173
3281.810890 0.5143 0.5115 0.5093 0.5070 0.5068
3288.322520 0.5053 0.5023 0.4990 0.4955 0.4935
3294.834150 0.4913 0.4878 0.4828 0.4778 0.4730
3301.345780 0.4693 0.4663 0.4628 0.4578 0.4520
3307.857410 0.4448 0.4398 0.4353 0.4328 0.4310
3314.369040 0.4270 0.4228 0.4170 0.4090 0.4018
3320.880670 0.3968 0.3923 0.3868 0.3758 0.3701
3327.392300 0.3635 0.3600 0.3515 0.3420 0.3350
3333.903930 0.3313 0.3288 0.3270 0.3238 0.3228
3340.415560 0.3215 0.3198 0.3190 0.3190 0.3190
3346.927190 0.3192 0.3205 0.3225 0.3252 0.3309
3353.438820 0.3370 0.3377 0.3405 0.3425 0.3445
3359.950450 0.3470 0.3510 0.3550 0.3595 0.3655
3366.462080 0.3705 0.3730 0.3780 0.3897 0.4097
3372.973710 0.4197 0.4274 0.4365 0.4429 0.4505
3379.485340 0.4567 0.4635 0.4697 0.4765 0.4827
3385.996970 0.4895 0.4960 0.5040 0.5122 0.5212
3392.508600 0.5287 0.5327 0.5397 0.5452 0.5480
3399.020230 0.5560 0.5640 0.5715 0.5777 0.5835
3405.531860 0.5862 0.5907 0.5932 0.5955 0.6015
3412.043490 0.6072 0.6117 0.6150 0.6190 0.6237
3418.555120 0.6295 0.6320 0.6365 0.6420 0.6457
3425.066750 0.6482 0.6502 0.6542 0.6550 0.6557
3431.578380 0.6590 0.6625 0.6655 0.6712 0.6752
3438.090010 0.6767 0.6792 0.6802 0.6815 0.6830
3444.601640 0.6832 0.6842 0.6857 0.6885 0.6905
3451.113270 0.6930 0.6962 0.6982 0.7027 0.7062
3457.624900 0.7105 0.7120 0.7125 0.7145 0.7165
3464.136530 0.7182 0.7192 0.7207 0.7232 0.7242
3470.648160 0.7255 0.7275 0.7295 0.7315 0.7342
3477.159790 0.7395 0.7452 0.7490 0.7495 0.7510
3483.671420 0.7510 0.7517 0.7540 0.7542 0.7550
3490.183050 0.7555 0.7570 0.7572 0.7580 0.7582
3496.694680 0.7595 0.7615 0.7637 0.7665 0.7680
3503.206310 0.7685 0.7702 0.7710 0.7712 0.7720
3509.717940 0.7725 0.7742 0.7750 0.7752 0.7760
3516.229570 0.7760 0.7760 0.7760 0.7762 0.7770
3522.741200 0.7770 0.7775 0.7790 0.7790 0.7790
3529.252830 0.7792 0.7800 0.7800 0.7800 0.7802
3535.764460 0.7810 0.7810 0.7810 0.7815 0.7830
3542.276090 0.7832 0.7840 0.7840 0.7840 0.7842
3548.787720 0.7850 0.7850 0.7855 0.7872 0.7880
3555.299350 0.7880 0.7880 0.7882 0.7890 0.7897
3561.810980 0.7920 0.7922 0.7930 0.7930 0.7930
3568.322610 0.7932 0.7940 0.7945 0.7965 0.7987
3574.834240 0.8020 0.8052 0.8060 0.8067 0.8090
3581.345870 0.8092 0.8100 0.8102 0.8110 0.8110
3587.857500 0.8110 0.8110 0.8110 0.8112 0.8120
3594.369130 0.8125 0.8142 0.8150 0.8157 0.8180
3600.880760 0.8182 0.8190 0.8192 0.8200 0.8200
3607.392390 0.8205 0.8220 0.8220 0.8222 0.8230
3613.904020 0.8232 0.8240 0.8242 0.8255 0.8270
3620.415650 0.8272 0.8280 0.8280 0.8282 0.8295
3626.927280 0.8310 0.8310 0.8305 0.8290 0.8297
3633.438910 0.8322 0.8340 0.8380 0.8412 0.8420
3639.950540 0.8420 0.8420 0.8425 0.8440 0.8442
3646.462170 0.8450 0.8450 0.8450 0.8450 0.8450
3652.973800 0.8452 0.8465 0.8482 0.8490 0.8490
3659.485430 0.8490 0.8492 0.8500 0.8502 0.8510
3665.997060 0.8505 0.8490 0.8490 0.8490 0.8490
3672.508690 0.8492 0.8500 0.8502 0.8510 0.8510
3679.020320 0.8510 0.8515 0.8530 0.8530 0.8530
3685.531950 0.8530 0.8530 0.8530 0.8530 0.8530
3692.043580 0.8530 0.8530 0.8525 0.8517 0.8540
3698.555210 0.8540 0.8540 0.8540 0.8540 0.8542
3705.066840 0.8550 0.8548 0.8540 0.8540 0.8540
3711.578470 0.8540 0.8540 0.8540 0.8538 0.8532
3718.090100 0.8540 0.8540 0.8540 0.8540 0.8540
3724.601730 0.8538 0.8530 0.8530 0.8530 0.8530
3731.113360 0.8532 0.8538 0.8530 0.8530 0.8530
3737.624990 0.8530 0.8530 0.8530 0.8530 0.8530
3744.136620 0.8530 0.8530 0.8530 0.8530 0.8530
3750.648250 0.8530 0.8532 0.8540 0.8540 0.8540
3757.159880 0.8540 0.8542 0.8550 0.8550 0.8550
3763.671510 0.8555 0.8570 0.8570 0.8570 0.8570
3770.183140 0.8570 0.8570 0.8570 0.8570 0.8565
3776.694770 0.8550 0.8550 0.8550 0.8550 0.8550
3783.206400 0.8550 0.8550 0.8550 0.8550 0.8550
3789.718030 0.8550 0.8550 0.8550 0.8550 0.8550
3796.229660 0.8550 0.8550 0.8550 0.8550 0.8550
3802.741290 0.8550 0.8550 0.8550 0.8550 0.8550
3809.252920 0.8550 0.8550 0.8550 0.8550 0.8550
3815.764550 0.8555 0.8570 0.8563 0.8538 0.8530
3822.276180 0.8530 0.8532 0.8540 0.8540 0.8542
3828.787810 0.8550 0.8550 0.8550 0.8550 0.8550
3835.299440 0.8555 0.8570 0.8570 0.8570 0.8565
3841.811070 0.8550 0.8548 0.8540 0.8540 0.8540
3848.322700 0.8540 0.8540 0.8540 0.8540 0.8540
3854.834330 0.8540 0.8540 0.8540 0.8540 0.8540
3861.345960 0.8540 0.8540 0.8540 0.8540 0.8540
3867.857590 0.8540 0.8540 0.8540 0.8540 0.8540
3874.369220 0.8540 0.8540 0.8540 0.8542 0.8550
3880.880850 0.8550 0.8550 0.8550 0.8550 0.8550
3887.392480 0.8550 0.8550 0.8550 0.8550 0.8550
3893.904110 0.8550 0.8550 0.8550 0.8550 0.8550
3900.415740 0.8550 0.8550 0.8550 0.8550 0.8550
3906.927370 0.8550 0.8550 0.8550 0.8550 0.8550
3913.439000 0.8550 0.8550 0.8550 0.8550 0.8550
3919.950630 0.8550 0.8550 0.8550 0.8550 0.8550
3926.462260 0.8550 0.8550 0.8550 0.8550 0.8550
3932.973890 0.8550 0.8550 0.8550 0.8550 0.8550
3939.485520 0.8550 0.8550 0.8550 0.8550 0.8550
3945.997150 0.8550 0.8550 0.8550 0.8550 0.8550
3952.508780 0.8550 0.8550 0.8550 0.8550 0.8550
3959.020410 0.8548 0.8540 0.8540 0.8542 0.8550
3965.532040 0.8550 0.8550 0.8550 0.8550 0.8550
3972.043670 0.8550 0.8550 0.8550 0.8550 0.8550
3978.555300 0.8550 0.8550 0.8550 0.8550 0.8550
3985.066930 0.8550 0.8550 0.8550 0.8550 0.8555
3991.578560 0.8565 0.8550 0.8550 0.8550 0.8550
3998.090190 0.8550 0.8550 0.8548 0.8540 0.8540
4004.601820 0.8540 0.8540 0.8540 0.8540 0.8540
4011.113450 0.8540
##END=
