##TITLE=s-TRIAZOLO[1,5-a]PYRIMIDIN-7-OL-, 5-PHENYL- (KETO FORM)
##JCAMP-DX=4.24
##DATA TYPE=INFRARED SPECTRUM
##CLASS=COBLENTZ III
##ORIGIN=DOW CHEMICAL COMPANY
##OWNER=COBLENTZ SOCIETY
Collection (C) 2018 copyright by the U.S. Secretary of Commerce
on behalf of the United States of America. All rights reserved.
##DATE=1967/06/30
##NAMES=5-phenyl[1,2,4]triazolo[1,5-a]pyrimidin-7(6H)-one
##MOLFORM=C11 H8 N4 O
##SOURCE REFERENCE=COBLENTZ NO. 10343
##$NIST ID=B6010343
##$NIST SOURCE=COBLENTZ
##$NIST IMAGE=cob10343
##SPECTROMETER/DATA SYSTEM=BECKMAN IR-9 (GRATING)
##INSTRUMENT PARAMETERS=ORDER CHANGES AT 670, 1200, 2000 CM^-^1
##STATE=SOLID (SPLIT MULL, FLUOROLUBE FOR 3800-1330 AND NUJOL FOR 1330-400 CM ^-^1)
##SAMPLING PROCEDURE=TRANSMISSION
##RESOLUTION=4
##DATA PROCESSING=DIGITIZED BY NIST FROM HARD COPY (FROM TWO SEGMENTS)
##XUNITS=1/CM
##YUNITS=TRANSMITTANCE
##XFACTOR=1.000000
##YFACTOR=1
##DELTAX=0.878221
##FIRSTX=400.761
##LASTX=3798.6
##FIRSTY=0.701
##MAXX=3798.6
##MINX=400.761
##MAXY=1.049
##MINY=0.169
##NPOINTS=3870
##XYDATA=(X++(Y..Y))
400.761000 0.7010 0.7000 0.6910 0.6870 0.6840
405.152103 0.6830 0.6820 0.6820 0.6820 0.6800
409.543206 0.6800 0.6800 0.6800 0.6820 0.6830
413.934309 0.6860 0.6900 0.6910 0.6940 0.6980
418.325412 0.7040 0.7060 0.7080 0.7150 0.7300
422.716515 0.7380 0.7430 0.7490 0.7580 0.7679
427.107618 0.7760 0.7830 0.7900 0.7950 0.7980
431.498721 0.8120 0.8130 0.8259 0.8300 0.8320
435.889824 0.8360 0.8390 0.8420 0.8490 0.8520
440.280927 0.8580 0.8630 0.8640 0.8650 0.8730
444.672030 0.8790 0.8800 0.8830 0.8890 0.8900
449.063133 0.8910 0.8940 0.8980 0.8980 0.9000
453.454236 0.9020 0.9050 0.9080 0.9120 0.9130
457.845339 0.9150 0.9170 0.9240 0.9300 0.9310
462.236442 0.9320 0.9340 0.9350 0.9350 0.9360
466.627545 0.9360 0.9380 0.9380 0.9380 0.9360
471.018648 0.9360 0.9350 0.9350 0.9340 0.9320
475.409751 0.9310 0.9280 0.9230 0.9200 0.9170
479.800854 0.9120 0.9020 0.9010 0.9020 0.9090
484.191956 0.9100 0.9120 0.9160 0.9270 0.9360
488.583059 0.9420 0.9580 0.9670 0.9710 0.9760
492.974162 0.9780 0.9820 0.9830 0.9840 0.9860
497.365265 0.9910 0.9940 0.9950 0.9980 0.9970
501.756368 0.9980 1.0000 1.0010 1.0010 1.0020
506.147471 1.0020 1.0040 1.0040 1.0050 1.0050
510.538574 1.0060 1.0080 1.0090 1.0090 1.0090
514.929677 1.0090 1.0090 1.0080 1.0080 1.0060
519.320780 1.0050 1.0040 1.0010 1.0000 1.0000
523.711883 0.9980 0.9980 0.9970 0.9940 0.9930
528.102986 0.9930 0.9910 0.9890 0.9751 0.9501
532.494089 0.9260 0.8670 0.7901 0.7411 0.7410
536.885192 0.7749 0.8827 0.9129 1.0036 1.0169
541.276295 1.0200 1.0240 1.0280 1.0310 1.0320
545.667398 1.0350 1.0350 1.0360 1.0380 1.0390
550.058501 1.0390 1.0410 1.0420 1.0430 1.0430
554.449604 1.0450 1.0450 1.0450 1.0450 1.0430
558.840707 1.0430 1.0420 1.0420 1.0420 1.0420
563.231810 1.0420 1.0420 1.0420 1.0430 1.0430
567.622913 1.0430 1.0430 1.0430 1.0420 1.0410
572.014016 1.0410 1.0410 1.0410 1.0420 1.0420
576.405119 1.0430 1.0430 1.0430 1.0420 1.0420
580.796222 1.0410 1.0380 1.0360 1.0350 1.0320
585.187325 1.0270 1.0230 1.0210 1.0170 1.0080
589.578428 1.0010 0.9930 0.9870 0.9750 0.9521
593.969531 0.9120 0.8690 0.7063 0.6571 0.6021
598.360634 0.5492 0.4972 0.4970 0.6333 0.8220
602.751737 0.8950 0.9520 1.0019 1.0190 1.0260
607.142840 1.0310 1.0340 1.0360 1.0390 1.0390
611.533943 1.0420 1.0430 1.0430 1.0420 1.0410
615.925046 1.0380 1.0320 1.0300 1.0240 1.0151
620.316149 1.0100 1.0040 0.9950 0.9690 0.9281
624.707252 0.7933 0.6574 0.5723 0.4754 0.3954
629.098355 0.3951 0.6200 0.7349 1.0037 1.0200
633.489458 1.0310 1.0360 1.0470 1.0490 1.0490
637.880561 1.0470 1.0460 1.0450 1.0430 1.0430
642.271664 1.0420 1.0420 1.0420 1.0420 1.0420
646.662766 1.0430 1.0430 1.0450 1.0450 1.0430
651.053869 1.0420 1.0410 1.0350 1.0310 1.0270
655.444972 1.0260 1.0210 1.0190 1.0060 1.0020
659.836075 0.9980 0.9791 0.9382 0.9051 0.8692
664.227178 0.8340 0.7980 0.7760 0.7061 0.7060
668.618281 0.7898 0.9116 0.9130 0.9100 0.8861
673.009384 0.8380 0.7490 0.6830 0.6560 0.6310
677.400487 0.6300 0.6679 0.7089 0.7528 0.8386
681.791590 0.8390 0.8380 0.8270 0.8090 0.7891
686.182693 0.7561 0.7321 0.7121 0.6941 0.6532
690.573796 0.6350 0.6280 0.6080 0.5521 0.4872
694.964899 0.4062 0.3562 0.3560 0.3859 0.3830
699.356002 0.3750 0.3390 0.3390 0.5087 0.5339
703.747105 0.6457 0.7756 0.8318 0.8609 0.8779
708.138208 0.8900 0.9050 0.9090 0.9100 0.9100
712.529311 0.9060 0.9020 0.8940 0.8890 0.8761
716.920414 0.8650 0.8570 0.8450 0.8210 0.8090
721.311517 0.8040 0.8020 0.8040 0.8090 0.8150
725.702620 0.8210 0.8380 0.8490 0.8540 0.8600
730.093723 0.8670 0.8720 0.8780 0.8790 0.8830
734.484826 0.8900 0.8910 0.8930 0.8970 0.8980
738.875929 0.9050 0.9090 0.9120 0.9120 0.9130
743.267032 0.9130 0.9130 0.9120 0.9080 0.9020
747.658135 0.8970 0.8761 0.8581 0.8052 0.7562
752.049238 0.7230 0.6450 0.3752 0.3351 0.2821
756.440341 0.1783 0.1780 0.2607 0.3865 0.5423
760.831444 0.7580 0.7790 0.7840 0.8120 0.8819
765.222547 0.9149 0.9200 0.9200 0.9120 0.8732
769.613650 0.8130 0.6631 0.4873 0.4102 0.3382
774.004753 0.3081 0.3080 0.3897 0.5234 0.6125
778.395856 0.6690 0.7609 0.8409 0.8610 0.8780
782.786959 0.8979 0.9040 0.9050 0.9000 0.8821
787.178062 0.8530 0.8240 0.7461 0.6601 0.6311
791.569165 0.6310 0.6430 0.7406 0.8167 0.8827
795.960268 0.9150 0.9360 0.9490 0.9530 0.9530
800.351371 0.9520 0.9470 0.9450 0.9430 0.9390
804.742473 0.9380 0.9360 0.9360 0.9360 0.9380
809.133576 0.9390 0.9390 0.9420 0.9420 0.9390
813.524679 0.9340 0.9300 0.9240 0.9130 0.9040
817.915782 0.8930 0.8751 0.8421 0.8012 0.7841
822.306885 0.7570 0.7340 0.7060 0.6541 0.6061
826.697988 0.5093 0.3974 0.3233 0.2832 0.2830
831.089091 0.3450 0.4969 0.5779 0.6679 0.7408
835.480194 0.8008 0.8349 0.8499 0.8600 0.8610
839.871297 0.8600 0.8580 0.8570 0.8520 0.8420
844.262400 0.8350 0.8240 0.8200 0.8190 0.8170
848.653503 0.8150 0.8100 0.8050 0.8020 0.7970
853.044606 0.7930 0.7860 0.7780 0.7710 0.7610
857.435709 0.7570 0.7470 0.7410 0.7270 0.7160
861.826812 0.7090 0.7000 0.6930 0.6791 0.6641
866.217915 0.6540 0.6460 0.6380 0.6280 0.6150
870.609018 0.5951 0.5900 0.5820 0.5760 0.5720
875.000121 0.5650 0.5630 0.5610 0.5610 0.5630
879.391224 0.5650 0.5720 0.5780 0.5890 0.5999
883.782327 0.6050 0.6150 0.6230 0.6320 0.6460
888.173430 0.6530 0.6630 0.6750 0.6870 0.6910
892.564533 0.6980 0.7060 0.7100 0.7150 0.7200
896.955636 0.7230 0.7230 0.7240 0.7270 0.7270
901.346739 0.7260 0.7210 0.7080 0.6930 0.6531
905.737842 0.6161 0.5712 0.5172 0.4543 0.3824
910.128945 0.3170 0.2520 0.2500 0.2839 0.3409
914.520048 0.3530 0.6181 0.6818 0.7158 0.7339
918.911151 0.7350 0.7410 0.7410 0.7340 0.7240
923.302254 0.7090 0.6841 0.6501 0.6161 0.5842
927.693357 0.5390 0.5060 0.4720 0.3871 0.3600
932.084460 0.3201 0.3021 0.2950 0.2970 0.3089
936.475563 0.3340 0.3460 0.3470 0.3470 0.3420
940.866666 0.3390 0.3410 0.3579 0.3939 0.4079
945.257769 0.4260 0.4380 0.4580 0.4889 0.5608
949.648872 0.6019 0.6389 0.6798 0.7079 0.7269
954.039975 0.7630 0.7930 0.8120 0.8320 0.8540
958.431078 0.8630 0.8799 0.9009 0.9090 0.9120
962.822181 0.9160 0.9230 0.9240 0.9280 0.9310
967.213283 0.9320 0.9320 0.9340 0.9340 0.9300
971.604386 0.9300 0.9240 0.9240 0.9300 0.9320
975.995489 0.9320 0.9340 0.9350 0.9360 0.9380
980.386592 0.9420 0.9450 0.9460 0.9470 0.9490
984.777695 0.9520 0.9540 0.9560 0.9580 0.9600
989.168798 0.9600 0.9600 0.9600 0.9600 0.9600
993.559901 0.9600 0.9580 0.9570 0.9540 0.9530
997.951004 0.9520 0.9460 0.9350 0.9130 0.9010
1002.342107 0.9010 0.9090 0.9309 0.9390 0.9410
1006.733210 0.9410 0.9410 0.9390 0.9360 0.9350
1011.124313 0.9340 0.9340 0.9340 0.9340 0.9320
1015.515416 0.9320 0.9310 0.9300 0.9270 0.9210
1019.906519 0.9170 0.9000 0.8930 0.8870 0.8721
1024.297622 0.8570 0.8350 0.8130 0.7980 0.7970
1028.688725 0.7980 0.8100 0.8628 0.8899 0.9099
1033.079828 0.9190 0.9310 0.9350 0.9410 0.9420
1037.470931 0.9430 0.9430 0.9450 0.9450 0.9430
1041.862034 0.9430 0.9420 0.9420 0.9420 0.9410
1046.253137 0.9390 0.9390 0.9380 0.9360 0.9340
1050.644240 0.9320 0.9300 0.9260 0.9210 0.9170
1055.035343 0.9130 0.9080 0.9020 0.8950 0.8890
1059.426446 0.8800 0.8720 0.8640 0.8530 0.8430
1063.817549 0.8320 0.8131 0.7941 0.7681 0.7431
1068.208652 0.7320 0.7080 0.7000 0.6840 0.6780
1072.599755 0.6560 0.6420 0.6420 0.6460 0.6709
1076.990858 0.7000 0.7150 0.7230 0.7340 0.7380
1081.381961 0.7470 0.7580 0.7779 0.7979 0.8189
1085.773064 0.8390 0.8600 0.8800 0.8870 0.8900
1090.164167 0.8940 0.8950 0.8970 0.8970 0.8980
1094.555270 0.9000 0.9000 0.9000 0.9000 0.9000
1098.946373 0.9010 0.9010 0.9010 0.9010 0.9010
1103.337476 0.9000 0.8980 0.8950 0.8940 0.8900
1107.728579 0.8870 0.8840 0.8820 0.8800 0.8790
1112.119682 0.8780 0.8750 0.8720 0.8690 0.8640
1116.510785 0.8580 0.8530 0.8420 0.8161 0.7841
1120.901888 0.7490 0.7170 0.6900 0.6531 0.6271
1125.292991 0.6120 0.6000 0.5940 0.5930 0.5940
1129.684093 0.6100 0.6380 0.6650 0.6900 0.7090
1134.075196 0.7230 0.7350 0.7489 0.7600 0.7749
1138.466299 0.7800 0.7860 0.7860 0.7840 0.7800
1142.857402 0.7760 0.7690 0.7570 0.7421 0.7231
1147.248505 0.6980 0.6600 0.6080 0.4941 0.4690
1151.639608 0.4381 0.4091 0.3781 0.3760 0.4198
1156.030711 0.4199 0.3530 0.3160 0.3150 0.3460
1160.421814 0.5257 0.5719 0.6278 0.6748 0.7049
1164.812917 0.7230 0.7320 0.7340 0.7280 0.7230
1169.204020 0.7021 0.6930 0.6930 0.7059 0.7448
1173.595123 0.7760 0.7930 0.8040 0.8130 0.8190
1177.986226 0.8240 0.8270 0.8320 0.8430 0.8490
1182.377329 0.8530 0.8600 0.8610 0.8630 0.8640
1186.768432 0.8650 0.8650 0.8630 0.8600 0.8570
1191.159535 0.8540 0.8530 0.8520 0.8470 0.8410
1195.550638 0.8350 0.8300 0.8260 0.8170 0.8120
1199.941741 0.8060 0.8050 0.8060 0.8060 0.8090
1204.332844 0.8130 0.8190 0.8190 0.8130 0.8090
1208.723947 0.8060 0.8010 0.7930 0.7860 0.7760
1213.115050 0.7710 0.7650 0.7530 0.7381 0.7231
1217.506153 0.7090 0.7000 0.6630 0.6340 0.5951
1221.897256 0.5691 0.5172 0.4722 0.4272 0.3683
1226.288359 0.3320 0.2910 0.2730 0.2131 0.1950
1230.679462 0.1910 0.1950 0.2608 0.3018 0.3836
1235.070565 0.4780 0.5380 0.5720 0.6040 0.6210
1239.461668 0.6210 0.6160 0.5672 0.5381 0.4952
1243.852771 0.4630 0.4240 0.4190 0.4190 0.4460
1248.243874 0.5119 0.5429 0.5709 0.5929 0.6159
1252.634977 0.6340 0.6530 0.6670 0.6780 0.6930
1257.026080 0.7090 0.7210 0.7320 0.7430 0.7460
1261.417183 0.7560 0.7580 0.7610 0.7630 0.7640
1265.808286 0.7650 0.7680 0.7690 0.7710 0.7720
1270.199389 0.7720 0.7730 0.7730 0.7750 0.7750
1274.590492 0.7760 0.7760 0.7780 0.7780 0.7760
1278.981595 0.7760 0.7820 0.7900 0.7950 0.8020
1283.372698 0.8040 0.8060 0.8080 0.8090 0.8120
1287.763800 0.8100 0.8010 0.7950 0.7860 0.7680
1292.154903 0.7610 0.7580 0.7570 0.7580 0.7630
1296.546006 0.7680 0.7730 0.7790 0.7870 0.7910
1300.937109 0.7940 0.7970 0.7970 0.7970 0.7970
1305.328212 0.7950 0.7930 0.7930 0.7910 0.7860
1309.719315 0.7710 0.7531 0.7450 0.7340 0.7240
1314.110418 0.7240 0.7320 0.7610 0.7820 0.7930
1318.501521 0.7980 0.8040 0.8050 0.8060 0.8060
1322.892624 0.8050 0.8050 0.8040 0.7860 0.7690
1327.283727 0.7530 0.7350 0.7091 0.7040 0.6980
1331.674830 0.6930 0.6900 0.6870 0.6860 0.6830
1336.065933 0.6800 0.6780 0.6730 0.6690 0.6640
1340.457036 0.6610 0.6570 0.6540 0.6470 0.6460
1344.848139 0.6460 0.6490 0.6540 0.6630 0.6690
1349.239242 0.6760 0.6830 0.6910 0.7050 0.7060
1353.630345 0.7080 0.7090 0.7080 0.7050 0.7010
1358.021448 0.6950 0.6890 0.6760 0.6630 0.6580
1362.412551 0.6540 0.6380 0.5832 0.5651 0.5461
1366.803654 0.5270 0.5270 0.5980 0.6430 0.6829
1371.194757 0.7269 0.7380 0.7450 0.7530 0.7570
1375.585860 0.7580 0.7580 0.7580 0.7580 0.7560
1379.976963 0.7520 0.7470 0.7390 0.7390 0.7310
1384.368066 0.7240 0.7200 0.7150 0.7120 0.7090
1388.759169 0.7080 0.7060 0.7000 0.6950 0.6900
1393.150272 0.6800 0.6750 0.6610 0.6500 0.6410
1397.541375 0.6270 0.6081 0.5791 0.5412 0.5261
1401.932478 0.5010 0.4790 0.4490 0.4210 0.3970
1406.323581 0.3780 0.3720 0.3720 0.3800 0.4407
1410.714684 0.5040 0.5380 0.5760 0.6320 0.6709
1415.105787 0.7009 0.7259 0.7420 0.7559 0.7640
1419.496890 0.7800 0.7930 0.7970 0.7970 0.8000
1423.887993 0.8000 0.8000 0.8000 0.8000 0.7980
1428.279096 0.7940 0.7910 0.7830 0.7760 0.7710
1432.670199 0.7670 0.7610 0.7570 0.7530 0.7470
1437.061302 0.7390 0.7310 0.7200 0.7080 0.6910
1441.452405 0.6710 0.6600 0.6431 0.6151 0.5901
1445.843508 0.5570 0.5360 0.5240 0.5130 0.5010
1450.234610 0.4820 0.4521 0.4430 0.4211 0.3981
1454.625713 0.3780 0.3710 0.3710 0.3800 0.4189
1459.016816 0.4789 0.5209 0.5639 0.5819 0.5999
1463.407919 0.6150 0.6320 0.6500 0.6610 0.6720
1467.799022 0.6790 0.6820 0.6910 0.6970 0.6980
1472.190125 0.6980 0.6970 0.6930 0.6840 0.6650
1476.581228 0.6570 0.6301 0.6170 0.6051 0.5821
1480.972331 0.5260 0.5090 0.4830 0.4361 0.3941
1485.363434 0.3601 0.3091 0.3010 0.3010 0.3896
1489.754537 0.4971 0.5970 0.6750 0.7160 0.7390
1494.145640 0.7570 0.7580 0.7570 0.7500 0.7420
1498.536743 0.7300 0.7170 0.7040 0.6890 0.6750
1502.927846 0.6630 0.6600 0.6490 0.6390 0.6340
1507.318949 0.6300 0.6190 0.6040 0.5800 0.5680
1511.710052 0.5680 0.5710 0.5870 0.6059 0.6209
1516.101155 0.6340 0.6410 0.6450 0.6460 0.6450
1520.492258 0.6380 0.6310 0.6200 0.6041 0.5831
1524.883361 0.5690 0.5490 0.5270 0.5120 0.5010
1529.274464 0.4721 0.4531 0.4271 0.4121 0.4011
1533.665567 0.3820 0.3680 0.3610 0.3570 0.3560
1538.056670 0.3540 0.3560 0.3640 0.3730 0.3800
1542.447773 0.3890 0.3890 0.3800 0.3540 0.3170
1546.838876 0.2970 0.2860 0.2720 0.2561 0.2391
1551.229979 0.2240 0.2130 0.2040 0.1980 0.1890
1555.621082 0.1820 0.1730 0.1710 0.1690 0.1690
1560.012185 0.1710 0.1800 0.1970 0.2050 0.2230
1564.403288 0.2519 0.2779 0.2969 0.3119 0.3190
1568.794391 0.3450 0.3820 0.4150 0.4360 0.4610
1573.185494 0.4750 0.4900 0.5059 0.5409 0.5629
1577.576597 0.5860 0.6010 0.6300 0.6390 0.6390
1581.967700 0.6310 0.6280 0.6210 0.6210 0.6578
1586.358803 0.6930 0.7200 0.7380 0.7470 0.7730
1590.749906 0.7900 0.8000 0.8080 0.8130 0.8190
1595.141009 0.8240 0.8300 0.8310 0.8310 0.8300
1599.532112 0.8280 0.8270 0.8260 0.8270 0.8300
1603.923215 0.8350 0.8490 0.8690 0.8730 0.8790
1608.314318 0.8820 0.8830 0.8900 0.8910 0.8930
1612.705420 0.8930 0.8940 0.8940 0.8940 0.8940
1617.096523 0.8940 0.8940 0.8940 0.8940 0.8940
1621.487626 0.8940 0.8940 0.8940 0.8940 0.8950
1625.878729 0.8950 0.8970 0.8970 0.8970 0.8970
1630.269832 0.8980 0.8980 0.8980 0.9000 0.9000
1634.660935 0.9020 0.9020 0.9040 0.9040 0.9060
1639.052038 0.9060 0.9040 0.9010 0.9000 0.8970
1643.443141 0.8930 0.8910 0.8900 0.8890 0.8860
1647.834244 0.8840 0.8790 0.8720 0.8680 0.8600
1652.225347 0.8580 0.8570 0.8540 0.8470 0.8231
1656.616450 0.8120 0.7970 0.7930 0.7760 0.7600
1661.007553 0.7470 0.7380 0.7310 0.7240 0.7130
1665.398656 0.7000 0.6870 0.6720 0.6600 0.6450
1669.789759 0.6051 0.5541 0.5341 0.5051 0.4831
1674.180862 0.4499 0.3800 0.3460 0.3130 0.3020
1678.571965 0.2790 0.2650 0.2600 0.2530 0.2520
1682.963068 0.2530 0.2730 0.2870 0.3090 0.3270
1687.354171 0.3350 0.3380 0.3460 0.3520 0.3858
1691.745274 0.3940 0.4580 0.4950 0.5130 0.5579
1696.136377 0.6198 0.6539 0.6680 0.6859 0.7119
1700.527480 0.7600 0.7690 0.7910 0.8040 0.8160
1704.918583 0.8300 0.8360 0.8539 0.8670 0.8720
1709.309686 0.8790 0.8890 0.8910 0.8940 0.8980
1713.700789 0.9040 0.9090 0.9120 0.9150 0.9160
1718.091892 0.9210 0.9300 0.9360 0.9470 0.9540
1722.482995 0.9560 0.9580 0.9640 0.9710 0.9730
1726.874098 0.9750 0.9760 0.9780 0.9790 0.9820
1731.265201 0.9830 0.9840 0.9860 0.9860 0.9860
1735.656304 0.9860 0.9870 0.9890 0.9890 0.9890
1740.047407 0.9870 0.9870 0.9860 0.9830 0.9820
1744.438510 0.9820 0.9820 0.9830 0.9830 0.9830
1748.829613 0.9840 0.9860 0.9860 0.9840 0.9840
1753.220716 0.9840 0.9840 0.9840 0.9840 0.9830
1757.611819 0.9840 0.9860 0.9860 0.9870 0.9870
1762.002922 0.9890 0.9870 0.9870 0.9870 0.9870
1766.394025 0.9870 0.9870 0.9870 0.9870 0.9890
1770.785127 0.9890 0.9870 0.9870 0.9860 0.9860
1775.176230 0.9840 0.9830 0.9830 0.9820 0.9820
1779.567333 0.9820 0.9800 0.9800 0.9800 0.9800
1783.958436 0.9800 0.9800 0.9800 0.9800 0.9800
1788.349539 0.9800 0.9820 0.9820 0.9830 0.9840
1792.740642 0.9840 0.9840 0.9840 0.9830 0.9830
1797.131745 0.9830 0.9830 0.9830 0.9830 0.9820
1801.522848 0.9820 0.9820 0.9820 0.9790 0.9790
1805.913951 0.9780 0.9760 0.9760 0.9750 0.9750
1810.305054 0.9730 0.9720 0.9710 0.9690 0.9690
1814.696157 0.9710 0.9710 0.9720 0.9720 0.9730
1819.087260 0.9730 0.9720 0.9720 0.9710 0.9710
1823.478363 0.9710 0.9690 0.9710 0.9710 0.9720
1827.869466 0.9720 0.9730 0.9750 0.9750 0.9750
1832.260569 0.9750 0.9750 0.9750 0.9750 0.9750
1836.651672 0.9750 0.9730 0.9730 0.9730 0.9730
1841.042775 0.9730 0.9750 0.9750 0.9760 0.9760
1845.433878 0.9760 0.9750 0.9750 0.9720 0.9720
1849.824981 0.9720 0.9720 0.9710 0.9710 0.9710
1854.216084 0.9710 0.9710 0.9710 0.9690 0.9690
1858.607187 0.9690 0.9680 0.9680 0.9680 0.9670
1862.998290 0.9670 0.9650 0.9650 0.9650 0.9650
1867.389393 0.9650 0.9640 0.9640 0.9630 0.9630
1871.780496 0.9610 0.9610 0.9580 0.9570 0.9560
1876.171599 0.9560 0.9560 0.9560 0.9540 0.9540
1880.562702 0.9540 0.9540 0.9540 0.9540 0.9540
1884.953805 0.9540 0.9540 0.9530 0.9530 0.9540
1889.344908 0.9540 0.9560 0.9560 0.9560 0.9560
1893.736011 0.9560 0.9540 0.9540 0.9540 0.9540
1898.127114 0.9540 0.9530 0.9530 0.9540 0.9560
1902.518217 0.9560 0.9560 0.9570 0.9570 0.9580
1906.909320 0.9610 0.9610 0.9630 0.9630 0.9640
1911.300423 0.9650 0.9650 0.9670 0.9670 0.9670
1915.691526 0.9680 0.9690 0.9690 0.9690 0.9690
1920.082629 0.9690 0.9690 0.9690 0.9710 0.9710
1924.473732 0.9710 0.9710 0.9710 0.9710 0.9710
1928.864835 0.9710 0.9710 0.9690 0.9690 0.9690
1933.255937 0.9690 0.9680 0.9680 0.9680 0.9680
1937.647040 0.9680 0.9680 0.9680 0.9680 0.9680
1942.038143 0.9680 0.9670 0.9670 0.9670 0.9650
1946.429246 0.9650 0.9640 0.9640 0.9640 0.9640
1950.820349 0.9640 0.9640 0.9630 0.9610 0.9610
1955.211452 0.9610 0.9610 0.9610 0.9610 0.9610
1959.602555 0.9610 0.9610 0.9630 0.9630 0.9630
1963.993658 0.9630 0.9630 0.9630 0.9630 0.9630
1968.384761 0.9630 0.9630 0.9630 0.9630 0.9630
1972.775864 0.9630 0.9630 0.9630 0.9630 0.9630
1977.166967 0.9630 0.9630 0.9630 0.9630 0.9630
1981.558070 0.9630 0.9630 0.9630 0.9630 0.9610
1985.949173 0.9610 0.9610 0.9610 0.9600 0.9600
1990.340276 0.9580 0.9580 0.9570 0.9570 0.9560
1994.731379 0.9500 0.9490 0.9500 0.9540 0.9560
1999.122482 0.9570 0.9570 0.9575 0.9580 0.9590
2003.513585 0.9600 0.9600 0.9600 0.9600 0.9600
2007.904688 0.9605 0.9610 0.9620 0.9630 0.9635
2012.295791 0.9640 0.9645 0.9650 0.9650 0.9650
2016.686894 0.9650 0.9650 0.9650 0.9650 0.9645
2021.077997 0.9640 0.9635 0.9630 0.9630 0.9630
2025.469100 0.9620 0.9610 0.9620 0.9630 0.9620
2029.860203 0.9610 0.9610 0.9610 0.9605 0.9600
2034.251306 0.9600 0.9600 0.9600 0.9600 0.9600
2038.642409 0.9600 0.9600 0.9600 0.9590 0.9580
2043.033512 0.9580 0.9580 0.9580 0.9580 0.9580
2047.424615 0.9580 0.9580 0.9580 0.9575 0.9570
2051.815718 0.9570 0.9570 0.9570 0.9570 0.9570
2056.206821 0.9570 0.9570 0.9570 0.9565 0.9560
2060.597924 0.9560 0.9560 0.9550 0.9540 0.9535
2064.989027 0.9530 0.9525 0.9520 0.9510 0.9500
2069.380130 0.9500 0.9500 0.9495 0.9490 0.9490
2073.771233 0.9490 0.9490 0.9490 0.9490 0.9490
2078.162336 0.9480 0.9470 0.9470 0.9470 0.9470
2082.553439 0.9470 0.9470 0.9470 0.9470 0.9470
2086.944542 0.9470 0.9470 0.9465 0.9460 0.9460
2091.335645 0.9460 0.9460 0.9460 0.9460 0.9460
2095.726747 0.9460 0.9460 0.9455 0.9450 0.9450
2100.117850 0.9450 0.9440 0.9430 0.9425 0.9420
2104.508953 0.9420 0.9420 0.9415 0.9410 0.9410
2108.900056 0.9410 0.9400 0.9390 0.9390 0.9390
2113.291159 0.9390 0.9390 0.9390 0.9390 0.9390
2117.682262 0.9390 0.9385 0.9380 0.9380 0.9380
2122.073365 0.9380 0.9380 0.9370 0.9360 0.9360
2126.464468 0.9360 0.9355 0.9350 0.9345 0.9340
2130.855571 0.9340 0.9340 0.9331 0.9321 0.9320
2135.246674 0.9320 0.9320 0.9320 0.9315 0.9310
2139.637777 0.9310 0.9310 0.9305 0.9300 0.9300
2144.028880 0.9300 0.9300 0.9300 0.9300 0.9300
2148.419983 0.9300 0.9300 0.9286 0.9271 0.9265
2152.811086 0.9260 0.9260 0.9260 0.9251 0.9241
2157.202189 0.9240 0.9240 0.9226 0.9211 0.9201
2161.593292 0.9191 0.9181 0.9171 0.9165 0.9160
2165.984395 0.9160 0.9160 0.9141 0.9121 0.9111
2170.375498 0.9101 0.9095 0.9090 0.9090 0.9090
2174.766601 0.9090 0.9090 0.9085 0.9080 0.9080
2179.157704 0.9080 0.9080 0.9080 0.9071 0.9061
2183.548807 0.9060 0.9060 0.9060 0.9060 0.9055
2187.939910 0.9050 0.9050 0.9050 0.9045 0.9040
2192.331013 0.9040 0.9040 0.9040 0.9040 0.9040
2196.722116 0.9040 0.9031 0.9021 0.9020 0.9020
2201.113219 0.9020 0.9020 0.9029 0.9039 0.9040
2205.504322 0.9040 0.9040 0.9040 0.9045 0.9050
2209.895425 0.9050 0.9050 0.9045 0.9040 0.9031
2214.286528 0.9021 0.9020 0.9020 0.9015 0.9010
2218.677631 0.8996 0.8981 0.8962 0.8942 0.8926
2223.068734 0.8911 0.8905 0.8900 0.8895 0.8890
2227.459837 0.8881 0.8871 0.8870 0.8870 0.8865
2231.850940 0.8860 0.8860 0.8860 0.8851 0.8841
2236.242043 0.8835 0.8830 0.8812 0.8792 0.8785
2240.633146 0.8780 0.8771 0.8761 0.8760 0.8760
2245.024249 0.8755 0.8750 0.8741 0.8731 0.8725
2249.415352 0.8720 0.8715 0.8710 0.8701 0.8691
2253.806454 0.8690 0.8690 0.8690 0.8690 0.8685
2258.197557 0.8680 0.8680 0.8680 0.8676 0.8671
2262.588660 0.8661 0.8651 0.8645 0.8640 0.8640
2266.979763 0.8640 0.8640 0.8640 0.8635 0.8630
2271.370866 0.8621 0.8611 0.8610 0.8610 0.8606
2275.761969 0.8601 0.8600 0.8600 0.8591 0.8581
2280.153072 0.8580 0.8580 0.8575 0.8570 0.8570
2284.544175 0.8570 0.8565 0.8560 0.8551 0.8541
2288.935278 0.8536 0.8531 0.8530 0.8530 0.8526
2293.326381 0.8521 0.8511 0.8501 0.8500 0.8500
2297.717484 0.8487 0.8471 0.8461 0.8451 0.8432
2302.108587 0.8412 0.8401 0.8391 0.8386 0.8381
2306.499690 0.8380 0.8380 0.8384 0.8389 0.8390
2310.890793 0.8390 0.8390 0.8390 0.8399 0.8409
2315.281896 0.8410 0.8410 0.8401 0.8391 0.8390
2319.672999 0.8390 0.8386 0.8381 0.8371 0.8361
2324.064102 0.8360 0.8360 0.8360 0.8360 0.8356
2328.455205 0.8351 0.8350 0.8350 0.8350 0.8350
2332.846308 0.8346 0.8341 0.8340 0.8340 0.8340
2337.237411 0.8340 0.8331 0.8321 0.8316 0.8311
2341.628514 0.8306 0.8301 0.8300 0.8300 0.8300
2346.019617 0.8300 0.8291 0.8281 0.8280 0.8280
2350.410720 0.8280 0.8280 0.8289 0.8299 0.8304
2354.801823 0.8309 0.8310 0.8310 0.8314 0.8319
2359.192926 0.8329 0.8339 0.8331 0.8321 0.8320
2363.584029 0.8320 0.8320 0.8320 0.8316 0.8311
2367.975132 0.8310 0.8310 0.8310 0.8310 0.8310
2372.366235 0.8310 0.8310 0.8310 0.8314 0.8319
2376.757338 0.8320 0.8320 0.8329 0.8339 0.8340
2381.148441 0.8340 0.8331 0.8321 0.8316 0.8311
2385.539544 0.8310 0.8310 0.8306 0.8301 0.8300
2389.930647 0.8300 0.8291 0.8281 0.8280 0.8280
2394.321750 0.8276 0.8271 0.8270 0.8270 0.8266
2398.712853 0.8261 0.8251 0.8241 0.8236 0.8231
2403.103956 0.8230 0.8230 0.8230 0.8230 0.8221
2407.495059 0.8211 0.8210 0.8210 0.8210 0.8210
2411.886162 0.8210 0.8210 0.8210 0.8210 0.8210
2416.277264 0.8210 0.8206 0.8201 0.8200 0.8200
2420.668367 0.8196 0.8191 0.8190 0.8190 0.8190
2425.059470 0.8190 0.8190 0.8190 0.8190 0.8190
2429.450573 0.8190 0.8190 0.8177 0.8162 0.8160
2433.841676 0.8160 0.8156 0.8151 0.8150 0.8150
2438.232779 0.8142 0.8131 0.8126 0.8121 0.8111
2442.623882 0.8102 0.8096 0.8091 0.8086 0.8081
2447.014985 0.8072 0.8062 0.8060 0.8060 0.8056
2451.406088 0.8051 0.8046 0.8041 0.8040 0.8040
2455.797191 0.8032 0.8022 0.8020 0.8020 0.8020
2460.188294 0.8020 0.8020 0.8020 0.8020 0.8020
2464.579397 0.8020 0.8020 0.8016 0.8011 0.8010
2468.970500 0.8010 0.8006 0.8001 0.8000 0.8000
2473.361603 0.7992 0.7982 0.7980 0.7980 0.7980
2477.752706 0.7980 0.7976 0.7971 0.7970 0.7970
2482.143809 0.7962 0.7952 0.7946 0.7941 0.7936
2486.534912 0.7931 0.7930 0.7930 0.7918 0.7903
2490.926015 0.7896 0.7891 0.7890 0.7890 0.7869
2495.317118 0.7844 0.7836 0.7831 0.7818 0.7803
2499.708221 0.7792 0.7782 0.7772 0.7762 0.7760
2504.099324 0.7760 0.7756 0.7751 0.7750 0.7750
2508.490427 0.7738 0.7723 0.7691 0.7656 0.7633
2512.881530 0.7613 0.7606 0.7601 0.7592 0.7582
2517.272633 0.7576 0.7571 0.7566 0.7561 0.7548
2521.663736 0.7533 0.7502 0.7467 0.7444 0.7424
2526.054839 0.7416 0.7411 0.7402 0.7392 0.7378
2530.445942 0.7363 0.7356 0.7351 0.7346 0.7341
2534.837045 0.7344 0.7349 0.7354 0.7359 0.7372
2539.228148 0.7387 0.7398 0.7408 0.7418 0.7428
2543.619251 0.7446 0.7466 0.7470 0.7470 0.7478
2548.010354 0.7488 0.7490 0.7490 0.7478 0.7463
2552.401457 0.7444 0.7424 0.7408 0.7393 0.7386
2556.792560 0.7381 0.7364 0.7344 0.7324 0.7304
2561.183663 0.7276 0.7246 0.7220 0.7195 0.7166
2565.574766 0.7136 0.7114 0.7094 0.7086 0.7081
2569.965869 0.7084 0.7089 0.7094 0.7099 0.7112
2574.356972 0.7127 0.7142 0.7157 0.7160 0.7160
2578.748074 0.7180 0.7205 0.7222 0.7237 0.7256
2583.139177 0.7276 0.7292 0.7307 0.7322 0.7337
2587.530280 0.7344 0.7349 0.7366 0.7386 0.7402
2591.921383 0.7417 0.7420 0.7420 0.7424 0.7429
2596.312486 0.7430 0.7430 0.7426 0.7421 0.7420
2600.703589 0.7420 0.7416 0.7411 0.7390 0.7365
2605.094692 0.7352 0.7342 0.7332 0.7322 0.7316
2609.485795 0.7311 0.7294 0.7274 0.7258 0.7243
2613.876898 0.7236 0.7231 0.7222 0.7212 0.7206
2618.268001 0.7201 0.7196 0.7191 0.7182 0.7172
2622.659104 0.7166 0.7161 0.7160 0.7160 0.7160
2627.050207 0.7160 0.7160 0.7160 0.7160 0.7160
2631.441310 0.7164 0.7169 0.7170 0.7170 0.7170
2635.832413 0.7170 0.7170 0.7170 0.7170 0.7170
2640.223516 0.7166 0.7161 0.7144 0.7125 0.7120
2644.614619 0.7120 0.7112 0.7102 0.7100 0.7100
2649.005722 0.7096 0.7091 0.7090 0.7090 0.7090
2653.396825 0.7090 0.7086 0.7081 0.7072 0.7062
2657.787928 0.7056 0.7051 0.7035 0.7015 0.6998
2662.179031 0.6983 0.6965 0.6945 0.6940 0.6940
2666.570134 0.6928 0.6913 0.6894 0.6874 0.6851
2670.961237 0.6826 0.6808 0.6793 0.6775 0.6755
2675.352340 0.6742 0.6732 0.6722 0.6712 0.6695
2679.743443 0.6675 0.6655 0.6635 0.6630 0.6630
2684.134546 0.6622 0.6612 0.6610 0.6610 0.6606
2688.525649 0.6601 0.6600 0.6600 0.6592 0.6582
2692.916752 0.6580 0.6580 0.6580 0.6580 0.6580
2697.307855 0.6580 0.6576 0.6571 0.6566 0.6561
2701.698958 0.6552 0.6542 0.6532 0.6522 0.6509
2706.090061 0.6494 0.6482 0.6472 0.6462 0.6452
2710.481164 0.6435 0.6415 0.6399 0.6384 0.6365
2714.872267 0.6345 0.6333 0.6323 0.6316 0.6311
2719.263370 0.6306 0.6301 0.6292 0.6282 0.6280
2723.654473 0.6280 0.6288 0.6298 0.6308 0.6318
2728.045576 0.6343 0.6372 0.6406 0.6441 0.6454
2732.436679 0.6459 0.6464 0.6469 0.6477 0.6487
2736.827781 0.6494 0.6499 0.6508 0.6518 0.6520
2741.218884 0.6520 0.6513 0.6503 0.6500 0.6500
2745.609987 0.6496 0.6491 0.6479 0.6464 0.6449
2750.001090 0.6434 0.6412 0.6387 0.6373 0.6363
2754.392193 0.6345 0.6325 0.6313 0.6303 0.6293
2758.783296 0.6283 0.6254 0.6219 0.6195 0.6175
2763.174399 0.6170 0.6170 0.6170 0.6170 0.6177
2767.565502 0.6187 0.6205 0.6225 0.6245 0.6265
2771.956605 0.6281 0.6296 0.6315 0.6335 0.6355
2776.347708 0.6375 0.6384 0.6389 0.6386 0.6381
2780.738811 0.6365 0.6345 0.6325 0.6305 0.6289
2785.129914 0.6274 0.6259 0.6244 0.6222 0.6197
2789.521017 0.6183 0.6173 0.6177 0.6187 0.6194
2793.912120 0.6199 0.6215 0.6235 0.6251 0.6266
2798.303223 0.6299 0.6339 0.6386 0.6436 0.6490
2802.694326 0.6545 0.6600 0.6654 0.6688 0.6713
2807.085429 0.6745 0.6781 0.6830 0.6885 0.6929
2811.476532 0.6969 0.6987 0.6997 0.7004 0.7009
2815.867635 0.7010 0.7010 0.7021 0.7036 0.7040
2820.258738 0.7040 0.7040 0.7040 0.7040 0.7040
2824.649841 0.7033 0.7023 0.7002 0.6977 0.6930
2829.040944 0.6875 0.6824 0.6774 0.6735 0.6700
2833.432047 0.6683 0.6673 0.6663 0.6653 0.6657
2837.823150 0.6667 0.6674 0.6679 0.6691 0.6706
2842.214253 0.6724 0.6744 0.6764 0.6784 0.6808
2846.605356 0.6833 0.6876 0.6926 0.6961 0.6991
2850.996459 0.7014 0.7034 0.7044 0.7049 0.7054
2855.387562 0.7059 0.7067 0.7077 0.7080 0.7080
2859.778665 0.7084 0.7089 0.7094 0.7099 0.7107
2864.169768 0.7117 0.7120 0.7120 0.7120 0.7120
2868.560871 0.7109 0.7094 0.7072 0.7048 0.7019
2872.951974 0.6989 0.6966 0.6946 0.6940 0.6940
2877.343077 0.6943 0.6949 0.6957 0.6967 0.6970
2881.734180 0.6970 0.6981 0.6996 0.7004 0.7009
2886.125283 0.7027 0.7052 0.7060 0.7060 0.7070
2890.516386 0.7085 0.7128 0.7183 0.7203 0.7208
2894.907489 0.7220 0.7235 0.7247 0.7257 0.7260
2899.298591 0.7260 0.7253 0.7243 0.7240 0.7240
2903.689694 0.7237 0.7232 0.7223 0.7213 0.7210
2908.080797 0.7210 0.7193 0.7168 0.7150 0.7135
2912.471900 0.7113 0.7088 0.7073 0.7063 0.7053
2916.863003 0.7043 0.7016 0.6981 0.6942 0.6903
2921.254106 0.6859 0.6814 0.6769 0.6724 0.6700
2925.645209 0.6685 0.6666 0.6646 0.6630 0.6615
2930.036312 0.6607 0.6602 0.6600 0.6600 0.6590
2934.427415 0.6575 0.6570 0.6570 0.6567 0.6562
2938.818518 0.6560 0.6560 0.6553 0.6543 0.6537
2943.209621 0.6532 0.6530 0.6530 0.6527 0.6522
2947.600724 0.6520 0.6520 0.6513 0.6503 0.6500
2951.991827 0.6500 0.6500 0.6500 0.6507 0.6517
2956.382930 0.6520 0.6520 0.6523 0.6528 0.6533
2960.774033 0.6538 0.6553 0.6573 0.6587 0.6597
2965.165136 0.6603 0.6608 0.6634 0.6669 0.6690
2969.556239 0.6705 0.6713 0.6718 0.6723 0.6728
2973.947342 0.6737 0.6747 0.6750 0.6750 0.6753
2978.338445 0.6758 0.6767 0.6777 0.6793 0.6813
2982.729548 0.6843 0.6878 0.6897 0.6907 0.6910
2987.120651 0.6910 0.6917 0.6927 0.6933 0.6938
2991.511754 0.6960 0.6990 0.7003 0.7008 0.7013
2995.902857 0.7018 0.7030 0.7045 0.7060 0.7075
3000.293960 0.7087 0.7097 0.7117 0.7142 0.7153
3004.685063 0.7158 0.7163 0.7168 0.7177 0.7187
3009.076166 0.7197 0.7207 0.7210 0.7210 0.7203
3013.467269 0.7194 0.7184 0.7174 0.7164 0.7154
3017.858372 0.7134 0.7109 0.7087 0.7067 0.7044
3022.249475 0.7019 0.6997 0.6977 0.6957 0.6937
3026.640578 0.6920 0.6905 0.6887 0.6867 0.6834
3031.031681 0.6794 0.6774 0.6764 0.6760 0.6760
3035.422784 0.6766 0.6777 0.6793 0.6813 0.6843
3039.813887 0.6878 0.6896 0.6906 0.6916 0.6926
3044.204990 0.6936 0.6946 0.6960 0.6975 0.6986
3048.596093 0.6996 0.7000 0.7000 0.7000 0.7000
3052.987196 0.7000 0.7000 0.7000 0.7000 0.7000
3057.378299 0.7000 0.7003 0.7008 0.7020 0.7035
3061.769401 0.7046 0.7056 0.7070 0.7085 0.7093
3066.160504 0.7098 0.7106 0.7116 0.7145 0.7185
3070.551607 0.7213 0.7233 0.7250 0.7265 0.7283
3074.942710 0.7303 0.7320 0.7335 0.7343 0.7348
3079.333813 0.7350 0.7350 0.7350 0.7350 0.7350
3083.724916 0.7350 0.7350 0.7350 0.7347 0.7342
3088.116019 0.7331 0.7315 0.7297 0.7277 0.7251
3092.507122 0.7221 0.7175 0.7120 0.7072 0.7027
3096.898225 0.6985 0.6945 0.6877 0.6792 0.6698
3101.289328 0.6598 0.6541 0.6511 0.6491 0.6476
3105.680431 0.6467 0.6462 0.6457 0.6452 0.6453
3110.071534 0.6458 0.6473 0.6493 0.6553 0.6638
3114.462637 0.6689 0.6719 0.6795 0.6900 0.6962
3118.853740 0.6997 0.7093 0.7228 0.7344 0.7449
3123.244843 0.7539 0.7620 0.7681 0.7731 0.7766
3127.635946 0.7791 0.7847 0.7921 0.7978 0.8023
3132.027049 0.8065 0.8105 0.8135 0.8160 0.8182
3136.418152 0.8202 0.8219 0.8234 0.8258 0.8288
3140.809255 0.8312 0.8332 0.8340 0.8340 0.8343
3145.200358 0.8348 0.8353 0.8358 0.8366 0.8376
3149.591461 0.8383 0.8388 0.8390 0.8390 0.8396
3153.982564 0.8406 0.8410 0.8410 0.8410 0.8410
3158.373667 0.8413 0.8418 0.8420 0.8420 0.8420
3162.764770 0.8420 0.8429 0.8444 0.8450 0.8450
3167.155873 0.8453 0.8458 0.8460 0.8460 0.8460
3171.546976 0.8460 0.8463 0.8468 0.8470 0.8470
3175.938079 0.8470 0.8470 0.8476 0.8486 0.8490
3180.329182 0.8490 0.8493 0.8498 0.8500 0.8500
3184.720285 0.8506 0.8516 0.8520 0.8520 0.8520
3189.111388 0.8520 0.8520 0.8520 0.8520 0.8520
3193.502491 0.8523 0.8528 0.8530 0.8530 0.8530
3197.893594 0.8530 0.8527 0.8522 0.8520 0.8520
3202.284697 0.8514 0.8504 0.8500 0.8500 0.8497
3206.675800 0.8492 0.8490 0.8490 0.8484 0.8474
3211.066903 0.8464 0.8454 0.8441 0.8426 0.8417
3215.458006 0.8412 0.8404 0.8394 0.8390 0.8390
3219.849108 0.8387 0.8382 0.8380 0.8380 0.8374
3224.240211 0.8364 0.8360 0.8360 0.8357 0.8352
3228.631314 0.8350 0.8350 0.8350 0.8350 0.8347
3233.022417 0.8342 0.8340 0.8340 0.8340 0.8340
3237.413520 0.8340 0.8340 0.8340 0.8340 0.8340
3241.804623 0.8340 0.8340 0.8340 0.8343 0.8348
3246.195726 0.8350 0.8350 0.8350 0.8350 0.8350
3250.586829 0.8350 0.8350 0.8350 0.8350 0.8350
3254.977932 0.8350 0.8350 0.8350 0.8350 0.8350
3259.369035 0.8350 0.8353 0.8358 0.8360 0.8360
3263.760138 0.8360 0.8360 0.8360 0.8360 0.8366
3268.151241 0.8376 0.8380 0.8380 0.8380 0.8380
3272.542344 0.8380 0.8380 0.8380 0.8380 0.8380
3276.933447 0.8380 0.8374 0.8364 0.8360 0.8360
3281.324550 0.8357 0.8352 0.8350 0.8350 0.8350
3285.715653 0.8350 0.8350 0.8350 0.8350 0.8350
3290.106756 0.8350 0.8350 0.8353 0.8358 0.8360
3294.497859 0.8360 0.8360 0.8360 0.8360 0.8360
3298.888962 0.8366 0.8376 0.8380 0.8380 0.8380
3303.280065 0.8380 0.8380 0.8380 0.8380 0.8380
3307.671168 0.8380 0.8380 0.8380 0.8380 0.8380
3312.062271 0.8380 0.8380 0.8380 0.8380 0.8380
3316.453374 0.8380 0.8380 0.8380 0.8380 0.8380
3320.844477 0.8380 0.8374 0.8364 0.8360 0.8360
3325.235580 0.8360 0.8360 0.8360 0.8360 0.8357
3329.626683 0.8352 0.8350 0.8350 0.8350 0.8350
3334.017786 0.8350 0.8350 0.8347 0.8342 0.8340
3338.408889 0.8340 0.8340 0.8340 0.8335 0.8325
3342.799992 0.8320 0.8320 0.8320 0.8320 0.8320
3347.191095 0.8320 0.8320 0.8320 0.8320 0.8320
3351.582198 0.8317 0.8312 0.8310 0.8310 0.8310
3355.973301 0.8310 0.8307 0.8302 0.8295 0.8285
3360.364404 0.8280 0.8280 0.8280 0.8280 0.8280
3364.755507 0.8280 0.8277 0.8272 0.8270 0.8270
3369.146610 0.8270 0.8270 0.8270 0.8270 0.8267
3373.537713 0.8262 0.8260 0.8260 0.8255 0.8245
3377.928816 0.8240 0.8240 0.8237 0.8232 0.8230
3382.319918 0.8230 0.8230 0.8230 0.8230 0.8230
3386.711021 0.8225 0.8215 0.8210 0.8210 0.8210
3391.102124 0.8210 0.8210 0.8210 0.8210 0.8210
3395.493227 0.8207 0.8202 0.8200 0.8200 0.8200
3399.884330 0.8200 0.8200 0.8200 0.8200 0.8200
3404.275433 0.8200 0.8200 0.8200 0.8200 0.8200
3408.666536 0.8200 0.8200 0.8200 0.8200 0.8200
3413.057639 0.8200 0.8200 0.8200 0.8200 0.8200
3417.448742 0.8200 0.8200 0.8200 0.8200 0.8200
3421.839845 0.8200 0.8200 0.8200 0.8200 0.8200
3426.230948 0.8200 0.8200 0.8200 0.8200 0.8200
3430.622051 0.8200 0.8200 0.8200 0.8200 0.8200
3435.013154 0.8200 0.8197 0.8192 0.8190 0.8190
3439.404257 0.8185 0.8175 0.8170 0.8170 0.8167
3443.795360 0.8162 0.8160 0.8160 0.8160 0.8160
3448.186463 0.8160 0.8160 0.8160 0.8160 0.8160
3452.577566 0.8160 0.8160 0.8160 0.8160 0.8160
3456.968669 0.8160 0.8160 0.8160 0.8160 0.8160
3461.359772 0.8160 0.8160 0.8160 0.8160 0.8160
3465.750875 0.8157 0.8152 0.8150 0.8150 0.8150
3470.141978 0.8150 0.8150 0.8150 0.8145 0.8135
3474.533081 0.8130 0.8130 0.8130 0.8130 0.8130
3478.924184 0.8130 0.8130 0.8130 0.8130 0.8130
3483.315287 0.8130 0.8130 0.8130 0.8130 0.8130
3487.706390 0.8130 0.8130 0.8130 0.8130 0.8130
3492.097493 0.8130 0.8130 0.8130 0.8130 0.8130
3496.488596 0.8130 0.8130 0.8130 0.8130 0.8130
3500.879699 0.8130 0.8130 0.8130 0.8130 0.8130
3505.270802 0.8130 0.8128 0.8123 0.8120 0.8120
3509.661905 0.8120 0.8120 0.8120 0.8120 0.8120
3514.053008 0.8120 0.8120 0.8120 0.8120 0.8120
3518.444111 0.8115 0.8105 0.8100 0.8100 0.8100
3522.835214 0.8100 0.8100 0.8100 0.8100 0.8100
3527.226317 0.8100 0.8100 0.8100 0.8100 0.8100
3531.617420 0.8100 0.8100 0.8100 0.8100 0.8100
3536.008523 0.8100 0.8100 0.8098 0.8093 0.8090
3540.399626 0.8090 0.8090 0.8090 0.8090 0.8090
3544.790728 0.8090 0.8090 0.8090 0.8090 0.8090
3549.181831 0.8090 0.8092 0.8097 0.8100 0.8100
3553.572934 0.8100 0.8100 0.8100 0.8100 0.8100
3557.964037 0.8100 0.8100 0.8100 0.8100 0.8100
3562.355140 0.8100 0.8100 0.8100 0.8100 0.8100
3566.746243 0.8100 0.8100 0.8100 0.8100 0.8100
3571.137346 0.8100 0.8100 0.8100 0.8100 0.8100
3575.528449 0.8100 0.8100 0.8100 0.8100 0.8100
3579.919552 0.8100 0.8100 0.8100 0.8100 0.8100
3584.310655 0.8100 0.8098 0.8093 0.8090 0.8090
3588.701758 0.8090 0.8090 0.8090 0.8090 0.8090
3593.092861 0.8090 0.8090 0.8090 0.8090 0.8090
3597.483964 0.8090 0.8090 0.8090 0.8090 0.8090
3601.875067 0.8090 0.8090 0.8090 0.8090 0.8090
3606.266170 0.8090 0.8090 0.8088 0.8083 0.8080
3610.657273 0.8080 0.8082 0.8087 0.8090 0.8090
3615.048376 0.8090 0.8090 0.8090 0.8090 0.8090
3619.439479 0.8090 0.8088 0.8083 0.8080 0.8080
3623.830582 0.8080 0.8080 0.8080 0.8080 0.8076
3628.221685 0.8066 0.8060 0.8060 0.8060 0.8060
3632.612788 0.8060 0.8060 0.8058 0.8053 0.8048
3637.003891 0.8043 0.8040 0.8040 0.8040 0.8040
3641.394994 0.8040 0.8040 0.8040 0.8040 0.8040
3645.786097 0.8040 0.8040 0.8040 0.8040 0.8040
3650.177200 0.8040 0.8040 0.8040 0.8040 0.8040
3654.568303 0.8040 0.8042 0.8047 0.8050 0.8050
3658.959406 0.8050 0.8050 0.8050 0.8050 0.8050
3663.350509 0.8050 0.8050 0.8050 0.8048 0.8043
3667.741612 0.8040 0.8040 0.8040 0.8040 0.8040
3672.132715 0.8040 0.8036 0.8026 0.8020 0.8020
3676.523818 0.8020 0.8020 0.8020 0.8020 0.8020
3680.914921 0.8020 0.8020 0.8020 0.8018 0.8013
3685.306024 0.8010 0.8010 0.8010 0.8010 0.8010
3689.697127 0.8010 0.8010 0.8010 0.8012 0.8017
3694.088230 0.8018 0.8013 0.8012 0.8017 0.8020
3698.479333 0.8020 0.8020 0.8020 0.8024 0.8034
3702.870435 0.8040 0.8040 0.8040 0.8040 0.8040
3707.261538 0.8040 0.8040 0.8040 0.8040 0.8040
3711.652641 0.8040 0.8040 0.8040 0.8040 0.8036
3716.043744 0.8026 0.8020 0.8020 0.8020 0.8020
3720.434847 0.8020 0.8020 0.8020 0.8020 0.8020
3724.825950 0.8020 0.8018 0.8013 0.8010 0.8010
3729.217053 0.8010 0.8010 0.8010 0.8010 0.8008
3733.608156 0.8003 0.8000 0.8000 0.8000 0.8000
3737.999259 0.8000 0.8000 0.7996 0.7986 0.7980
3742.390362 0.7980 0.7980 0.7980 0.7980 0.7980
3746.781465 0.7980 0.7980 0.7980 0.7980 0.7980
3751.172568 0.7980 0.7978 0.7973 0.7970 0.7970
3755.563671 0.7970 0.7970 0.7970 0.7970 0.7970
3759.954774 0.7970 0.7970 0.7970 0.7970 0.7970
3764.345877 0.7970 0.7970 0.7970 0.7970 0.7970
3768.736980 0.7970 0.7970 0.7970 0.7970 0.7970
3773.128083 0.7970 0.7970 0.7970 0.7970 0.7970
3777.519186 0.7970 0.7966 0.7956 0.7950 0.7950
3781.910289 0.7950 0.7950 0.7950 0.7950 0.7948
3786.301392 0.7943 0.7940 0.7940 0.7940 0.7940
3790.692495 0.7940 0.7940 0.7938 0.7933 0.7930
3795.083598 0.7930 0.7930 0.7930 0.7930 0.7930
##END=
