##TITLE=NITROGEN DIOXIDE - DINITROGEN TETROXIDE (MIXTURE)
##JCAMP-DX=4.24
##DATA TYPE=INFRARED SPECTRUM
##CLASS=COBLENTZ
##ORIGIN=DOW CHEMICAL COMPANY
##OWNER=COBLENTZ SOCIETY
Collection (C) 2018 copyright by the U.S. Secretary of Commerce
on behalf of the United States of America. All rights reserved.
##DATE=1977/04/12
##MOLFORM=N O2 - N2 O4
##SOURCE REFERENCE=COBLENTZ NO. 10497
##$NIST ID=B6010497
##$NIST SOURCE=COBLENTZ
##$NIST IMAGE=cob-r10497
##SPECTROMETER/DATA SYSTEM=BECKMAN IR-9 (GRATING)
##INSTRUMENT PARAMETERS=ORDER CHANGES: 670, 1200, 2000 CM^-^1
$$ SPECTRAL CONTAMINATION DUE TO NO IN THE 1875 CM^-^1; ROTATIONAL FEATURES ARE NOT DIGITIZED.
$$ ABSORPTIONS CENTERED AT 1756 AND 1669 CM^-^1 ARE DUE TO N2O4, AND ABSORPTION CENTERED AT 1617 CM^-^1 IS DUE TO NO2.
##STATE=GAS (515 mmHg)
##PATH LENGTH=10 CM
##SAMPLING PROCEDURE=TRANSMISSION
##RESOLUTION=2
##DATA PROCESSING=DIGITIZED BY NIST FROM HARD COPY (FROM TWO SEGMENTS)
##XUNITS=1/CM
##YUNITS=TRANSMITTANCE
##XFACTOR=1.000000
##YFACTOR=1
##DELTAX=1.256283
##FIRSTX=403.266
##LASTX=3793.97
##FIRSTY=0
##MAXX=3793.97
##MINX=403.266
##MAXY=0.98
##MINY=0
##NPOINTS=2700
##XYDATA=(X++(Y..Y))
403.266000 0.0000 0.0000 0.0000 0.0000 0.0000
409.547413 0.0000 0.0000 0.0000 0.0000 0.0000
415.828827 0.0000 0.0000 0.0000 0.0000 0.0000
422.110240 0.0000 0.0000 0.0000 0.0000 0.0000
428.391653 0.0000 0.0000 0.0000 0.0000 0.0000
434.673067 0.0000 0.0000 0.0000 0.0000 0.0000
440.954480 0.0000 0.0000 0.0000 0.0000 0.0000
447.235893 0.0000 0.0000 0.0000 0.0000 0.0000
453.517307 0.0000 0.0000 0.0000 0.0000 0.0000
459.798720 0.0000 0.0000 0.0000 0.0000 0.0000
466.080133 0.0000 0.0000 0.0000 0.0000 0.0000
472.361547 0.0000 0.0000 0.0000 0.0000 0.0000
478.642960 0.0000 0.0000 0.0000 0.0000 0.0000
484.924373 0.0000 0.0000 0.0000 0.0000 0.0000
491.205787 0.0000 0.0000 0.0000 0.0000 0.0050
497.487200 0.0050 0.0050 0.0050 0.0070 0.0110
503.768613 0.0110 0.0110 0.0110 0.0110 0.0110
510.050027 0.0110 0.0110 0.0110 0.0110 0.0110
516.331440 0.0110 0.0110 0.0110 0.0090 0.0090
522.612853 0.0090 0.0090 0.0090 0.0090 0.0090
528.894267 0.0090 0.0070 0.0070 0.0090 0.0090
535.175680 0.0110 0.0110 0.0130 0.0170 0.0190
541.457093 0.0230 0.0250 0.0270 0.0290 0.0310
547.738507 0.0330 0.0370 0.0370 0.0390 0.0410
554.019920 0.0490 0.0490 0.0510 0.0570 0.0610
560.301333 0.0630 0.0670 0.0730 0.0770 0.0790
566.582747 0.0810 0.0850 0.1000 0.1040 0.1259
572.864160 0.1280 0.1360 0.1380 0.1420 0.1480
579.145573 0.1500 0.1560 0.1620 0.1640 0.1720
585.426987 0.1780 0.1820 0.1900 0.1979 0.2089
591.708400 0.2270 0.2270 0.2270 0.2270 0.2310
597.989813 0.2350 0.2410 0.2490 0.2530 0.2590
604.271227 0.2650 0.2670 0.2730 0.2750 0.2810
610.552640 0.2870 0.2999 0.3060 0.3080 0.3140
616.834054 0.3160 0.3240 0.3300 0.3380 0.3440
623.115467 0.3460 0.3480 0.3540 0.3619 0.3680
629.396880 0.3720 0.3780 0.3820 0.3880 0.3960
635.678294 0.3980 0.4000 0.4010 0.4050 0.4129
641.959707 0.4270 0.4350 0.4370 0.4370 0.4350
648.241120 0.4330 0.4310 0.4350 0.4330 0.4290
654.522534 0.4210 0.3960 0.3780 0.3780 0.3720
660.803947 0.3601 0.3501 0.3222 0.2773 0.2591
667.085360 0.2530 0.2470 0.2550 0.2450 0.2290
673.366774 0.2230 0.2210 0.2111 0.2070 0.1782
679.648187 0.1680 0.1660 0.1580 0.1720 0.1560
685.929600 0.1480 0.1440 0.1380 0.1002 0.1000
692.211014 0.1440 0.1580 0.1700 0.1580 0.1460
698.492427 0.1560 0.1719 0.1879 0.2069 0.2229
704.773840 0.2390 0.2490 0.2510 0.2510 0.2390
711.055254 0.2231 0.1842 0.1601 0.1600 0.1779
717.336667 0.1780 0.1420 0.1101 0.0831 0.0531
723.618080 0.0351 0.0270 0.0111 0.0070 0.0050
729.899494 0.0000 0.0000 0.0000 0.0000 0.0000
736.180907 0.0000 0.0000 0.0000 0.0000 0.0000
742.462320 0.0000 0.0000 0.0000 0.0000 0.0000
748.743734 0.0000 0.0000 0.0000 0.0000 0.0000
755.025147 0.0000 0.0000 0.0000 0.0000 0.0000
761.306560 0.0000 0.0000 0.0000 0.0000 0.0000
767.587974 0.0000 0.0000 0.0000 0.0000 0.0000
773.869387 0.0000 0.0000 0.0000 0.0000 0.0000
780.150800 0.0000 0.1199 0.2388 0.3936 0.4468
786.432214 0.5097 0.5478 0.5619 0.5739 0.3735
792.713627 0.4650 0.6168 0.6469 0.6729 0.6790
798.995040 0.6929 0.7059 0.7120 0.7239 0.7379
805.276454 0.7500 0.7520 0.7580 0.4995 0.4990
811.557867 0.6604 0.7616 0.7680 0.7720 0.7740
817.839280 0.7760 0.7820 0.7920 0.7940 0.8010
824.120694 0.8090 0.8090 0.6021 0.7372 0.8085
830.402107 0.8090 0.8190 0.8090 0.8090 0.8090
836.683520 0.8030 0.7881 0.7880 0.8109 0.8189
842.964934 0.8310 0.8330 0.6533 0.6530 0.8524
849.246347 0.8570 0.8570 0.8530 0.8431 0.8351
855.527760 0.8270 0.8210 0.8230 0.8210 0.8190
861.809174 0.8130 0.7961 0.7761 0.6558 0.7751
868.090587 0.7740 0.7660 0.7600 0.7480 0.7480
874.372000 0.7560 0.7580 0.7600 0.7620 0.7680
880.653414 0.7680 0.6411 0.6410 0.7478 0.7600
886.934827 0.7421 0.7301 0.7300 0.7578 0.7560
893.216240 0.7500 0.7480 0.7480 0.7460 0.6932
899.497654 0.7458 0.7460 0.7420 0.7380 0.7718
905.779067 0.8130 0.8270 0.8290 0.8310 0.8330
912.060480 0.8330 0.8350 0.8390 0.8489 0.8510
918.341894 0.8610 0.8710 0.8750 0.8770 0.9019
924.623307 0.9219 0.9339 0.9380 0.9440 0.9480
930.904720 0.9500 0.9540 0.9560 0.9580 0.9640
937.186134 0.9660 0.9660 0.9660 0.9660 0.9700
943.467547 0.9740 0.9760 0.9780 0.9780 0.9780
949.748960 0.9780 0.9780 0.9760 0.9760 0.9760
956.030374 0.9760 0.9760 0.9740 0.9740 0.9740
962.311787 0.9740 0.9740 0.9720 0.9700 0.9700
968.593200 0.9660 0.9640 0.9600 0.9560 0.9540
974.874614 0.9460 0.9420 0.9360 0.9280 0.9220
981.156027 0.9120 0.9000 0.8970 0.8731 0.8650
987.437440 0.8550 0.8490 0.8351 0.8211 0.8150
993.718854 0.7980 0.7940 0.7740 0.7580 0.7500
1000.000267 0.7400 0.7380 0.7300 0.7221 0.7021
1006.281680 0.6870 0.6730 0.6730 0.7219 0.7220
1012.563094 0.7220 0.6732 0.6730 0.7754 0.7780
1018.844507 0.7580 0.7500 0.7320 0.7320 0.7958
1025.125920 0.8249 0.8409 0.8450 0.8470 0.8490
1031.407334 0.8510 0.8510 0.8550 0.8590 0.8630
1037.688747 0.8670 0.8690 0.8690 0.8710 0.8730
1043.970161 0.8770 0.8830 0.8910 0.8930 0.8990
1050.251574 0.9060 0.9120 0.9160 0.9299 0.9399
1056.532987 0.9440 0.9480 0.9520 0.9540 0.9580
1062.814401 0.9600 0.9640 0.9660 0.9680 0.9700
1069.095814 0.9720 0.9740 0.9760 0.9760 0.9760
1075.377227 0.9760 0.9760 0.9760 0.9760 0.9760
1081.658641 0.9760 0.9760 0.9760 0.9740 0.9740
1087.940054 0.9720 0.9720 0.9700 0.9700 0.9680
1094.221467 0.9640 0.9620 0.9620 0.9620 0.9620
1100.502881 0.9600 0.9600 0.9580 0.9560 0.9540
1106.784294 0.9600 0.9620 0.9620 0.9580 0.9540
1113.065707 0.9520 0.9520 0.9580 0.9580 0.9580
1119.347121 0.9580 0.9580 0.9580 0.9560 0.9560
1125.628534 0.9600 0.9620 0.9640 0.9660 0.9660
1131.909947 0.9660 0.9660 0.9660 0.9660 0.9660
1138.191361 0.9660 0.9640 0.9620 0.9600 0.9580
1144.472774 0.9540 0.9500 0.9460 0.9420 0.9360
1150.754187 0.9300 0.9260 0.9240 0.9121 0.9060
1157.035601 0.9000 0.8910 0.8830 0.8750 0.8690
1163.317014 0.8670 0.8491 0.8390 0.8310 0.8231
1169.598427 0.8150 0.8110 0.7980 0.7800 0.7760
1175.879841 0.7601 0.7540 0.7242 0.7061 0.6990
1182.161254 0.6930 0.6770 0.6450 0.6310 0.6131
1188.442667 0.6050 0.6010 0.5801 0.5701 0.5263
1194.724081 0.5080 0.4950 0.4890 0.4830 0.4730
1201.005494 0.4591 0.4351 0.4072 0.3941 0.3821
1207.286907 0.3720 0.3460 0.3420 0.3260 0.3041
1213.568321 0.2811 0.2591 0.2471 0.2192 0.2071
1219.849734 0.2030 0.1980 0.1720 0.1301 0.1140
1226.131147 0.1040 0.0950 0.0850 0.0711 0.0531
1232.412561 0.0430 0.0370 0.0290 0.0190 0.0130
1238.693974 0.0110 0.0090 0.0090 0.0070 0.0050
1244.975387 0.0030 0.0030 0.0010 0.0010 0.0010
1251.256801 0.0010 0.0010 0.0010 0.0010 0.0010
1257.538214 0.0010 0.0000 0.0000 0.0000 0.0000
1263.819627 0.0000 0.0000 0.0000 0.0000 0.0000
1270.101041 0.0000 0.0000 0.0000 0.0000 0.0000
1276.382454 0.0000 0.0000 0.0000 0.0000 0.0000
1282.663867 0.0000 0.0000 0.0000 0.0000 0.0000
1288.945281 0.0000 0.0000 0.0000 0.0000 0.0000
1295.226694 0.0000 0.0010 0.0010 0.0030 0.0110
1301.508107 0.0170 0.0290 0.0310 0.1473 0.1798
1307.789521 0.2150 0.2490 0.2550 0.2630 0.2670
1314.070934 0.2810 0.3158 0.3319 0.3559 0.3798
1320.352347 0.3980 0.4270 0.4570 0.4790 0.4999
1326.633761 0.3765 0.4995 0.5796 0.5800 0.5582
1332.915174 0.5480 0.5440 0.5480 0.5600 0.5600
1339.196587 0.5241 0.5160 0.5140 0.5140 0.5120
1345.478001 0.5120 0.5240 0.5480 0.5620 0.5700
1351.759414 0.5740 0.5740 0.5740 0.5243 0.5121
1358.040827 0.5120 0.5120 0.5140 0.5400 0.5619
1364.322241 0.5879 0.6069 0.6289 0.6330 0.6449
1370.603654 0.6530 0.6610 0.6670 0.6770 0.6830
1376.885067 0.6830 0.6850 0.7059 0.7140 0.7219
1383.166481 0.7240 0.7340 0.7400 0.7500 0.7560
1389.447894 0.7600 0.7600 0.7600 0.7600 0.7640
1395.729307 0.7800 0.7860 0.7920 0.7940 0.7960
1402.010721 0.7980 0.8010 0.8010 0.8030 0.8070
1408.292134 0.7960 0.7960 0.8170 0.8230 0.8290
1414.573547 0.8290 0.8310 0.8370 0.8410 0.8450
1420.854961 0.8470 0.8490 0.8430 0.8430 0.8530
1427.136374 0.8689 0.8690 0.8730 0.8750 0.8810
1433.417787 0.8830 0.8870 0.8890 0.8890 0.8890
1439.699201 0.8910 0.8930 0.9020 0.9060 0.9080
1445.980614 0.9100 0.9120 0.9140 0.9180 0.9200
1452.262028 0.9160 0.9120 0.9100 0.9140 0.9219
1458.543441 0.9240 0.9260 0.9280 0.9280 0.9280
1464.824854 0.9280 0.9240 0.9220 0.9200 0.9180
1471.106268 0.9180 0.9140 0.9100 0.9100 0.8970
1477.387681 0.8611 0.8172 0.8051 0.7622 0.7401
1483.669094 0.7080 0.6910 0.6470 0.6310 0.6190
1489.950508 0.6130 0.6010 0.5881 0.5303 0.5300
1496.231921 0.5860 0.5860 0.5840 0.5800 0.5720
1502.513334 0.5620 0.5600 0.5620 0.5680 0.5779
1508.794748 0.5880 0.6070 0.6290 0.6490 0.6729
1515.076161 0.6830 0.7079 0.7259 0.7399 0.7460
1521.357574 0.7580 0.7620 0.7740 0.7840 0.7940
1527.638988 0.7960 0.7980 0.8000 0.8010 0.8010
1533.920401 0.8010 0.8000 0.7980 0.7820 0.7720
1540.201814 0.7600 0.7321 0.7121 0.6931 0.6493
1546.483228 0.6170 0.5780 0.5400 0.5041 0.4791
1552.764641 0.4531 0.4231 0.3264 0.2494 0.2291
1559.046054 0.2210 0.1680 0.1540 0.1220 0.1020
1565.327468 0.0831 0.0631 0.0491 0.0351 0.0270
1571.608881 0.0210 0.0150 0.0130 0.0090 0.0050
1577.890294 0.0030 0.0010 0.0030 0.0050 0.0090
1584.171708 0.0070 0.0030 0.0030 0.0010 0.0010
1590.453121 0.0010 0.0010 0.0010 0.0010 0.0010
1596.734534 0.0010 0.0010 0.0010 0.0010 0.0010
1603.015948 0.0010 0.0010 0.0010 0.0010 0.0010
1609.297361 0.0010 0.0010 0.0010 0.0010 0.0010
1615.578774 0.0010 0.0010 0.0010 0.0010 0.0010
1621.860188 0.0010 0.0010 0.0010 0.0010 0.0010
1628.141601 0.0010 0.0010 0.0010 0.0010 0.0010
1634.423014 0.0010 0.0010 0.0010 0.0010 0.0010
1640.704428 0.0010 0.0000 0.0000 0.0000 0.0000
1646.985841 0.0000 0.0000 0.0000 0.0000 0.0010
1653.267254 0.0269 0.0509 0.1714 0.2744 0.3595
1659.548668 0.4210 0.4590 0.5060 0.5639 0.5740
1665.830081 0.5720 0.5401 0.5062 0.4792 0.4512
1672.111494 0.4269 0.3820 0.3360 0.2970 0.2611
1678.392908 0.2351 0.2171 0.1901 0.1403 0.1142
1684.674321 0.0990 0.0830 0.0650 0.0570 0.0450
1690.955734 0.0370 0.0350 0.0211 0.0150 0.0130
1697.237148 0.0090 0.0090 0.0090 0.0050 0.0050
1703.518561 0.0050 0.0030 0.0010 0.0010 0.0010
1709.799974 0.0010 0.0010 0.0010 0.0010 0.0010
1716.081388 0.0010 0.0000 0.0000 0.0000 0.0000
1722.362801 0.0000 0.0000 0.0000 0.0000 0.0000
1728.644214 0.0000 0.0000 0.0000 0.0000 0.0000
1734.925628 0.0000 0.0000 0.0000 0.0000 0.0000
1741.207041 0.0000 0.0000 0.0000 0.0000 0.0000
1747.488454 0.0000 0.0000 0.0000 0.0000 0.0000
1753.769868 0.0000 0.0000 0.0000 0.0000 0.0000
1760.051281 0.0000 0.0000 0.0000 0.0000 0.0000
1766.332694 0.0000 0.0000 0.0000 0.0000 0.0000
1772.614108 0.0000 0.0000 0.0000 0.0000 0.0000
1778.895521 0.0000 0.0000 0.0000 0.0000 0.0000
1785.176934 0.0000 0.0000 0.0000 0.0000 0.0000
1791.458348 0.0000 0.0000 0.0000 0.0000 0.0000
1797.739761 0.0000 0.0000 0.0000 0.0000 0.0000
1804.021174 0.0000 0.0000 0.0000 0.0000 0.0000
1810.302588 0.0000 0.0000 0.0050 0.0110 0.0210
1816.584001 0.0389 0.0549 0.1336 0.2245 0.2707
1822.865414 0.3161 0.4010 0.4070 0.4549 0.4909
1829.146828 0.5199 0.5718 0.6009 0.6289 0.6330
1835.428241 0.6350 0.6510 0.6590 0.6610 0.6790
1841.709654 0.6950 0.7060 0.7219 0.7379 0.7579
1847.991068 0.7800 0.7820 0.7940 0.8130 0.8210
1854.272481 0.8330 0.8410 0.8450 0.8490 0.8510
1860.553894 0.8550 0.8610 0.8690 0.8710 0.8750
1866.835308 0.8770 0.8830 0.8930 0.8950 0.8950
1873.116721 0.9000 0.8730 0.8730 0.9099 0.9140
1879.398135 0.9140 0.9120 0.9100 0.9040 0.9020
1885.679548 0.8990 0.8970 0.8910 0.8870 0.8810
1891.960961 0.8770 0.8770 0.8730 0.8710 0.8710
1898.242375 0.8670 0.8630 0.8570 0.8530 0.8510
1904.523788 0.8470 0.8450 0.8450 0.8430 0.8410
1910.805201 0.8390 0.8350 0.8310 0.8270 0.8230
1917.086615 0.8150 0.8110 0.8070 0.8030 0.8000
1923.368028 0.7940 0.7860 0.7780 0.7700 0.7620
1929.649441 0.7600 0.7600 0.7580 0.7580 0.7580
1935.930855 0.7580 0.7600 0.7600 0.7620 0.7620
1942.212268 0.7760 0.7800 0.7840 0.7880 0.7940
1948.493681 0.7960 0.8070 0.8170 0.8310 0.8450
1954.775095 0.8490 0.8510 0.8550 0.8689 0.8730
1961.056508 0.8910 0.8930 0.8950 0.8990 0.8990
1967.337921 0.9000 0.9000 0.8990 0.8970 0.8950
1973.619335 0.8930 0.8930 0.8910 0.8890 0.8850
1979.900748 0.8830 0.8790 0.8770 0.8750 0.8730
1986.182161 0.8710 0.8710 0.8690 0.8690 0.8630
1992.463575 0.8590 0.8311 0.8310 0.8529 0.8590
1998.744988 0.8630 0.8670 0.8690 0.8709 0.8729
2005.026401 0.8749 0.8797 0.8846 0.8877 0.8907
2011.307815 0.8936 0.8966 0.9034 0.9108 0.9145
2017.589228 0.9175 0.9196 0.9216 0.9267 0.9326
2023.870641 0.9348 0.9358 0.9368 0.9377 0.9402
2030.152055 0.9431 0.9454 0.9474 0.9494 0.9513
2036.433468 0.9526 0.9536 0.9540 0.9540 0.9534
2042.714881 0.9524 0.9514 0.9504 0.9495 0.9485
2048.996295 0.9475 0.9465 0.9455 0.9445 0.9435
2055.277708 0.9425 0.9420 0.9420 0.9420 0.9420
2061.559121 0.9416 0.9406 0.9400 0.9400 0.9400
2067.840535 0.9400 0.9397 0.9387 0.9380 0.9380
2074.121948 0.9389 0.9419 0.9446 0.9465 0.9488
2080.403361 0.9517 0.9545 0.9564 0.9584 0.9604
2086.684775 0.9622 0.9632 0.9640 0.9640 0.9641
2092.966188 0.9651 0.9660 0.9660 0.9658 0.9639
2099.247601 0.9619 0.9599 0.9576 0.9507 0.9439
2105.529015 0.9379 0.9320 0.9300 0.9281 0.9203
2111.810428 0.9124 0.9059 0.8995 0.8963 0.8933
2118.091841 0.8912 0.8893 0.8864 0.8835 0.8822
2124.373255 0.8812 0.8777 0.8737 0.8730 0.8730
2130.654668 0.8753 0.8783 0.8869 0.8972 0.9043
2136.936081 0.9103 0.9148 0.9187 0.9247 0.9316
2143.217495 0.9385 0.9454 0.9505 0.9544 0.9572
2149.498908 0.9592 0.9612 0.9632 0.9646 0.9656
2155.780321 0.9665 0.9675 0.9680 0.9680 0.9685
2162.061735 0.9695 0.9700 0.9700 0.9700 0.9700
2168.343148 0.9700 0.9700 0.9700 0.9700 0.9700
2174.624561 0.9700 0.9700 0.9700 0.9697 0.9687
2180.905975 0.9680 0.9680 0.9680 0.9680 0.9680
2187.187388 0.9680 0.9680 0.9680 0.9678 0.9668
2193.468801 0.9660 0.9660 0.9658 0.9649 0.9640
2199.750215 0.9640 0.9639 0.9629 0.9619 0.9609
2206.031628 0.9599 0.9589 0.9580 0.9580 0.9580
2212.313041 0.9570 0.9560 0.9560 0.9560 0.9550
2218.594455 0.9541 0.9540 0.9540 0.9549 0.9559
2224.875868 0.9560 0.9560 0.9560 0.9560 0.9560
2231.157281 0.9560 0.9568 0.9578 0.9580 0.9580
2237.438695 0.9580 0.9580 0.9580 0.9580 0.9580
2243.720108 0.9580 0.9580 0.9580 0.9580 0.9580
2250.001521 0.9574 0.9564 0.9560 0.9560 0.9554
2256.282935 0.9544 0.9534 0.9524 0.9520 0.9520
2262.564348 0.9493 0.9444 0.9415 0.9405 0.9395
2268.845761 0.9385 0.9371 0.9351 0.9336 0.9326
2275.127175 0.9316 0.9306 0.9300 0.9300 0.9300
2281.408588 0.9300 0.9304 0.9313 0.9320 0.9320
2287.690002 0.9323 0.9333 0.9343 0.9353 0.9368
2293.971415 0.9397 0.9431 0.9481 0.9522 0.9532
2300.252828 0.9544 0.9563 0.9583 0.9603 0.9622
2306.534242 0.9631 0.9641 0.9651 0.9660 0.9660
2312.815655 0.9660 0.9660 0.9660 0.9660 0.9660
2319.097068 0.9660 0.9660 0.9660 0.9660 0.9660
2325.378482 0.9660 0.9669 0.9679 0.9680 0.9680
2331.659895 0.9689 0.9699 0.9700 0.9700 0.9709
2337.941308 0.9718 0.9720 0.9720 0.9720 0.9720
2344.222722 0.9728 0.9738 0.9740 0.9740 0.9747
2350.504135 0.9757 0.9767 0.9777 0.9780 0.9780
2356.785548 0.9780 0.9780 0.9780 0.9780 0.9780
2363.066962 0.9780 0.9780 0.9780 0.9786 0.9796
2369.348375 0.9800 0.9800 0.9800 0.9800 0.9800
2375.629788 0.9800 0.9800 0.9800 0.9796 0.9786
2381.911202 0.9780 0.9780 0.9780 0.9780 0.9776
2388.192615 0.9766 0.9760 0.9760 0.9760 0.9760
2394.474028 0.9760 0.9760 0.9760 0.9760 0.9760
2400.755442 0.9760 0.9760 0.9760 0.9760 0.9760
2407.036855 0.9760 0.9760 0.9760 0.9760 0.9760
2413.318268 0.9760 0.9761 0.9771 0.9781 0.9791
2419.599682 0.9799 0.9789 0.9780 0.9780 0.9780
2425.881095 0.9780 0.9780 0.9780 0.9780 0.9780
2432.162508 0.9780 0.9780 0.9780 0.9771 0.9761
2438.443922 0.9760 0.9760 0.9760 0.9760 0.9760
2444.725335 0.9760 0.9760 0.9760 0.9760 0.9760
2451.006748 0.9760 0.9760 0.9760 0.9760 0.9760
2457.288162 0.9760 0.9760 0.9760 0.9760 0.9760
2463.569575 0.9760 0.9760 0.9754 0.9744 0.9734
2469.850988 0.9724 0.9720 0.9720 0.9714 0.9705
2476.132402 0.9700 0.9700 0.9700 0.9700 0.9705
2482.413815 0.9715 0.9720 0.9720 0.9720 0.9720
2488.695228 0.9720 0.9720 0.9716 0.9706 0.9700
2494.976642 0.9700 0.9700 0.9700 0.9693 0.9674
2501.258055 0.9657 0.9647 0.9634 0.9615 0.9597
2507.539468 0.9587 0.9575 0.9555 0.9531 0.9492
2513.820882 0.9456 0.9436 0.9417 0.9397 0.9376
2520.102295 0.9346 0.9316 0.9287 0.9254 0.9195
2526.383708 0.9135 0.9066 0.8999 0.8964 0.8927
2532.665122 0.8757 0.8589 0.8540 0.8490 0.8441
2538.946535 0.8392 0.8352 0.8312 0.8254 0.8195
2545.227948 0.8172 0.8152 0.7997 0.7824 0.7749
2551.509362 0.7690 0.7639 0.7590 0.7540 0.7491
2557.790775 0.7332 0.7142 0.7027 0.6933 0.6761
2564.072188 0.6564 0.6453 0.6374 0.6253 0.6115
2570.353602 0.6063 0.6053 0.6044 0.6034 0.6024
2576.635015 0.6014 0.5937 0.5813 0.5743 0.5714
2582.916428 0.5990 0.6526 0.6370 0.5635 0.5280
2589.197842 0.5280 0.5955 0.7332 0.8070 0.8070
2595.479255 0.7869 0.7410 0.6739 0.5762 0.5029
2601.760668 0.4689 0.4345 0.3994 0.3642 0.3287
2608.042082 0.2869 0.2309 0.1811 0.1456 0.1189
2614.323495 0.1149 0.1099 0.1015 0.0930 0.0841
2620.604908 0.0762 0.0723 0.0687 0.0667 0.0649
2626.886322 0.0639 0.0631 0.0641 0.0654 0.0693
2633.167735 0.0727 0.0687 0.0742 0.2059 0.3361
2639.449148 0.4308 0.5258 0.6333 0.7409 0.7576
2645.730562 0.7734 0.7954 0.8176 0.8375 0.8572
2652.011975 0.8725 0.8873 0.8916 0.8946 0.8980
2658.293388 0.9014 0.9078 0.9148 0.9201 0.9250
2664.574802 0.9284 0.9313 0.9335 0.9355 0.9375
2670.856215 0.9395 0.9407 0.9417 0.9434 0.9454
2677.137628 0.9473 0.9493 0.9513 0.9532 0.9552
2683.419042 0.9572 0.9586 0.9596 0.9606 0.9616
2689.700455 0.9626 0.9635 0.9645 0.9655 0.9665
2695.981868 0.9675 0.9680 0.9680 0.9680 0.9680
2702.263282 0.9680 0.9680 0.9676 0.9666 0.9660
2708.544695 0.9660 0.9660 0.9660 0.9660 0.9660
2714.826109 0.9657 0.9647 0.9640 0.9640 0.9637
2721.107522 0.9627 0.9620 0.9620 0.9620 0.9620
2727.388935 0.9618 0.9608 0.9598 0.9588 0.9580
2733.670349 0.9580 0.9579 0.9569 0.9559 0.9549
2739.951762 0.9540 0.9540 0.9539 0.9529 0.9519
2746.233175 0.9499 0.9480 0.9460 0.9440 0.9430
2752.514589 0.9420 0.9411 0.9401 0.9400 0.9400
2758.796002 0.9400 0.9400 0.9409 0.9419 0.9429
2765.077415 0.9439 0.9440 0.9440 0.9448 0.9458
2771.358829 0.9492 0.9531 0.9548 0.9558 0.9567
2777.640242 0.9577 0.9587 0.9597 0.9600 0.9600
2783.921655 0.9607 0.9616 0.9620 0.9620 0.9614
2790.203069 0.9604 0.9600 0.9600 0.9606 0.9616
2796.484482 0.9620 0.9620 0.9625 0.9635 0.9640
2802.765895 0.9640 0.9640 0.9640 0.9640 0.9640
2809.047309 0.9636 0.9626 0.9616 0.9606 0.9596
2815.328722 0.9586 0.9576 0.9566 0.9556 0.9547
2821.610135 0.9527 0.9488 0.9454 0.9434 0.9417
2827.891549 0.9407 0.9390 0.9351 0.9302 0.9223
2834.172962 0.9146 0.9077 0.9011 0.8956 0.8875
2840.454375 0.8667 0.8456 0.8219 0.7994 0.7861
2846.735789 0.7709 0.7374 0.7037 0.6676 0.6311
2853.017202 0.5813 0.5318 0.5135 0.4953 0.4590
2859.298615 0.4225 0.3836 0.3447 0.3005 0.2560
2865.580029 0.2493 0.2454 0.1953 0.1405 0.1253
2871.861442 0.1154 0.1043 0.0930 0.0812 0.0694
2878.142855 0.0615 0.0546 0.0515 0.0495 0.0490
2884.424269 0.0490 0.0483 0.0473 0.0456 0.0436
2890.705682 0.0396 0.0346 0.0330 0.0330 0.0343
2896.987095 0.0362 0.0942 0.1870 0.2468 0.2838
2903.268509 0.2717 0.2213 0.1707 0.1199 0.0764
2909.549922 0.0399 0.0200 0.0181 0.0170 0.0170
2915.831335 0.0179 0.0199 0.0210 0.0210 0.0226
2922.112749 0.0266 0.0305 0.0344 0.0726 0.1732
2928.394162 0.2745 0.3772 0.4619 0.5048 0.5328
2934.675575 0.5209 0.4992 0.4474 0.3957 0.3441
2940.956989 0.2995 0.2793 0.2582 0.2335 0.2076
2947.238402 0.1755 0.1433 0.1102 0.0787 0.0590
2953.519815 0.0407 0.0378 0.0348 0.0319 0.0289
2959.801229 0.0259 0.0230 0.0220 0.0210 0.0200
2966.082642 0.0190 0.0190 0.0190 0.0190 0.0190
2972.364055 0.0190 0.0190 0.0190 0.0190 0.0181
2978.645469 0.0171 0.0170 0.0170 0.0178 0.0188
2984.926882 0.1143 0.2338 0.3151 0.3851 0.4481
2991.208295 0.5087 0.5738 0.6404 0.6711 0.6879
2997.489709 0.7146 0.7457 0.7807 0.8177 0.8354
3003.771122 0.8423 0.8480 0.8530 0.8556 0.8566
3010.052535 0.8598 0.8647 0.8681 0.8700 0.8710
3016.333949 0.8710 0.8715 0.8725 0.8730 0.8730
3022.615362 0.8721 0.8701 0.8669 0.8619 0.8578
3028.896775 0.8548 0.8489 0.8380 0.8253 0.8090
3035.178189 0.7967 0.7928 0.7879 0.7810 0.7717
3041.459602 0.7556 0.7413 0.7314 0.7230 0.7191
3047.741015 0.7103 0.6841 0.6611 0.6512 0.6418
3054.022429 0.6349 0.6289 0.6279 0.6278 0.6347
3060.303842 0.6410 0.6410 0.6409 0.6400 0.6384
3066.585255 0.6204 0.6024 0.5861 0.5700 0.5660
3072.866669 0.5621 0.5688 0.5757 0.5571 0.5374
3079.148082 0.4998 0.4608 0.4365 0.4138 0.3916
3085.429495 0.3693 0.3459 0.3222 0.2851 0.2452
3091.710909 0.2079 0.1714 0.1585 0.1516 0.1332
3097.992322 0.1115 0.0961 0.0827 0.0691 0.0553
3104.273735 0.0483 0.0443 0.0417 0.0397 0.0384
3110.555149 0.0374 0.0370 0.0370 0.0370 0.0370
3116.836562 0.0370 0.0370 0.0370 0.0370 0.0375
3123.117976 0.0385 0.0405 0.0435 0.0469 0.0508
3129.399389 0.0898 0.1707 0.2502 0.3277 0.3893
3135.680802 0.4273 0.4708 0.5236 0.5712 0.6092
3141.962216 0.6424 0.6654 0.6860 0.7013 0.7164
3148.243629 0.7312 0.7455 0.7583 0.7697 0.7766
3154.525042 0.7826 0.7856 0.7884 0.7904 0.7922
3160.806456 0.7931 0.7945 0.7979 0.8022 0.8131
3167.087869 0.8234 0.8284 0.8337 0.8416 0.8500
3173.369282 0.8657 0.8814 0.8938 0.9060 0.9090
3179.650696 0.9119 0.9178 0.9237 0.9287 0.9336
3185.932109 0.9377 0.9416 0.9429 0.9439 0.9449
3192.213522 0.9459 0.9477 0.9497 0.9508 0.9518
3198.494936 0.9528 0.9538 0.9556 0.9575 0.9580
3204.776349 0.9580 0.9580 0.9580 0.9573 0.9563
3211.057762 0.9560 0.9560 0.9553 0.9544 0.9534
3217.339176 0.9524 0.9514 0.9504 0.9488 0.9468
3223.620589 0.9448 0.9429 0.9414 0.9405 0.9400
3229.902002 0.9400 0.9395 0.9385 0.9380 0.9380
3236.183416 0.9380 0.9380 0.9376 0.9366 0.9360
3242.464829 0.9360 0.9360 0.9360 0.9364 0.9374
3248.746242 0.9383 0.9393 0.9403 0.9413 0.9426
3255.027656 0.9446 0.9468 0.9498 0.9522 0.9532
3261.309069 0.9542 0.9552 0.9564 0.9583 0.9603
3267.590482 0.9623 0.9641 0.9651 0.9661 0.9671
3273.871896 0.9681 0.9691 0.9701 0.9711 0.9720
3280.153309 0.9720 0.9721 0.9740 0.9760 0.9760
3286.434722 0.9760 0.9760 0.9760 0.9760 0.9760
3292.716136 0.9760 0.9760 0.9760 0.9760 0.9760
3298.997549 0.9760 0.9760 0.9760 0.9760 0.9760
3305.278962 0.9760 0.9760 0.9760 0.9760 0.9760
3311.560376 0.9760 0.9760 0.9760 0.9760 0.9760
3317.841789 0.9760 0.9760 0.9760 0.9760 0.9760
3324.123202 0.9760 0.9760 0.9760 0.9760 0.9760
3330.404616 0.9760 0.9760 0.9749 0.9729 0.9720
3336.686029 0.9720 0.9720 0.9720 0.9715 0.9705
3342.967442 0.9700 0.9700 0.9700 0.9700 0.9700
3349.248856 0.9700 0.9696 0.9686 0.9673 0.9653
3355.530269 0.9640 0.9640 0.9640 0.9640 0.9640
3361.811682 0.9640 0.9640 0.9640 0.9640 0.9640
3368.093096 0.9638 0.9628 0.9618 0.9608 0.9598
3374.374509 0.9588 0.9578 0.9569 0.9559 0.9549
3380.655922 0.9539 0.9529 0.9518 0.9499 0.9477
3386.937336 0.9417 0.9360 0.9350 0.9340 0.9241
3393.218749 0.9142 0.9068 0.8994 0.8971 0.8951
3399.500162 0.8762 0.8565 0.8358 0.8151 0.7984
3405.781576 0.7821 0.7637 0.7449 0.7362 0.7293
3412.062989 0.6888 0.6410 0.6189 0.6036 0.5857
3418.344402 0.5669 0.5318 0.4908 0.4576 0.4276
3424.625816 0.4123 0.4029 0.3959 0.3900 0.3756
3430.907229 0.3569 0.3431 0.3323 0.3250 0.3201
3437.188642 0.3163 0.3133 0.3115 0.3105 0.3100
3443.470056 0.3100 0.3100 0.3100 0.3100 0.3100
3449.751469 0.3328 0.3807 0.4230 0.4585 0.4871
3456.032882 0.5064 0.5270 0.5497 0.5766 0.6106
3462.314296 0.6457 0.6827 0.7143 0.7340 0.7552
3468.595709 0.7798 0.8075 0.8435 0.8766 0.9001
3474.877122 0.9187 0.9217 0.9240 0.9240 0.9240
3481.158536 0.9240 0.9240 0.9240 0.9240 0.9240
3487.439949 0.9239 0.9229 0.9220 0.9220 0.9219
3493.721362 0.9210 0.9200 0.9190 0.9180 0.9180
3500.002776 0.9180 0.9190 0.9200 0.9219 0.9239
3506.284189 0.9259 0.9278 0.9289 0.9299 0.9300
3512.565602 0.9300 0.9317 0.9337 0.9348 0.9358
3518.847016 0.9360 0.9360 0.9352 0.9342 0.9317
3525.128429 0.9287 0.9227 0.9158 0.9089 0.9020
3531.409842 0.8891 0.8738 0.8629 0.8540 0.8497
3537.691256 0.8477 0.8464 0.8454 0.8444 0.8434
3543.972669 0.8430 0.8430 0.8430 0.8430 0.8419
3550.254083 0.8399 0.8380 0.8360 0.8340 0.8320
3556.535496 0.8296 0.8266 0.8250 0.8250 0.8246
3562.816909 0.8236 0.8230 0.8230 0.8230 0.8230
3569.098323 0.8230 0.8230 0.8242 0.8282 0.8348
3575.379736 0.8478 0.8593 0.8672 0.8740 0.8780
3581.661149 0.8844 0.8987 0.9123 0.9231 0.9320
3587.942563 0.9320 0.9322 0.9331 0.9345 0.9385
3594.223976 0.9426 0.9485 0.9541 0.9551 0.9561
3600.505389 0.9571 0.9580 0.9580 0.9580 0.9580
3606.786803 0.9580 0.9580 0.9580 0.9580 0.9580
3613.068216 0.9571 0.9561 0.9560 0.9560 0.9560
3619.349629 0.9560 0.9560 0.9560 0.9560 0.9560
3625.631043 0.9560 0.9560 0.9560 0.9560 0.9560
3631.912456 0.9560 0.9560 0.9560 0.9560 0.9560
3638.193869 0.9560 0.9560 0.9567 0.9577 0.9580
3644.475283 0.9580 0.9580 0.9580 0.9580 0.9580
3650.756696 0.9568 0.9548 0.9540 0.9540 0.9540
3657.038109 0.9540 0.9540 0.9540 0.9545 0.9555
3663.319523 0.9569 0.9589 0.9604 0.9614 0.9624
3669.600936 0.9634 0.9652 0.9681 0.9707 0.9727
3675.882349 0.9740 0.9740 0.9740 0.9740 0.9740
3682.163763 0.9740 0.9740 0.9740 0.9740 0.9740
3688.445176 0.9740 0.9740 0.9740 0.9740 0.9740
3694.726589 0.9740 0.9742 0.9751 0.9760 0.9760
3701.008003 0.9760 0.9760 0.9760 0.9760 0.9760
3707.289416 0.9760 0.9760 0.9750 0.9740 0.9740
3713.570829 0.9740 0.9740 0.9740 0.9740 0.9740
3719.852243 0.9740 0.9740 0.9731 0.9721 0.9720
3726.133656 0.9720 0.9720 0.9720 0.9720 0.9720
3732.415069 0.9712 0.9702 0.9692 0.9682 0.9680
3738.696483 0.9680 0.9665 0.9645 0.9633 0.9623
3744.977896 0.9620 0.9620 0.9607 0.9587 0.9574
3751.259309 0.9564 0.9541 0.9511 0.9488 0.9468
3757.540723 0.9448 0.9428 0.9403 0.9373 0.9355
3763.822136 0.9345 0.9335 0.9325 0.9315 0.9305
3770.103549 0.9300 0.9300 0.9300 0.9300 0.9300
3776.384963 0.9300 0.9304 0.9314 0.9320 0.9320
3782.666376 0.9331 0.9360 0.9387 0.9406 0.9432
3788.947789 0.9472 0.9506 0.9525 0.9543 0.9552
##END=
