##TITLE=Benzenamine, N-methyl-
##JCAMP-DX=4.24
##DATA TYPE=INFRARED SPECTRUM
##ORIGIN=COBLENTZ
##OWNER=COBLENTZ
Collection (C) 2018 copyright by the U.S. Secretary of Commerce
on behalf of the United States of America. All rights reserved.
##DATE=Not specified, most likely prior to 1970
##NAMES=N-methyl-N-phenylamine
##CAS REGISTRY NO=100-61-8
##MOLFORM=C7 H9 N
##SOURCE REFERENCE=COBLENTZ NO. 7498
##$NIST SOURCE=COBLENTZ
##$NIST IMAGE=cob7498
##SPECTROMETER/DATA SYSTEM=Not specified, most likely a prism, grating, or hybrid spectrometer.
##DATA PROCESSING=DIGITIZED BY NIST FROM HARD COPY (FROM TWO SEGMENTS)
##XUNITS=1/CM
##YUNITS=TRANSMITTANCE
##XFACTOR=1.000000
##YFACTOR=1
##DELTAX=0.689995
##FIRSTX=605.52
##LASTX=3969.94
##FIRSTY=0.74
##MAXX=3969.94
##MINX=605.52
##MAXY=0.895
##MINY=0.013
##NPOINTS=4877
##XYDATA=(X++(Y..Y))
605.520000 0.7400 0.7380 0.7370 0.7360 0.7340
608.969976 0.7330 0.7400 0.7380 0.7370 0.7360
612.419952 0.7340 0.7330 0.7310 0.7300 0.7290
615.869928 0.7280 0.7270 0.7260 0.7250 0.7240
619.319904 0.7230 0.7220 0.7210 0.7210 0.7190
622.769880 0.7170 0.7160 0.7140 0.7110 0.7060
626.219857 0.7010 0.7000 0.6990 0.6990 0.7000
629.669833 0.7010 0.7030 0.7050 0.7060 0.7070
633.119809 0.7080 0.7100 0.7110 0.7110 0.7120
636.569785 0.7130 0.7140 0.7140 0.7150 0.7160
640.019761 0.7170 0.7170 0.7170 0.7170 0.7180
643.469737 0.7180 0.7190 0.7190 0.7200 0.7200
646.919713 0.7210 0.7210 0.7210 0.7210 0.7210
650.369689 0.7210 0.7210 0.7210 0.7210 0.7210
653.819665 0.7210 0.7210 0.7210 0.7210 0.7210
657.269641 0.7210 0.7210 0.7210 0.7210 0.7210
660.719617 0.7210 0.7210 0.7210 0.7210 0.7210
664.169594 0.7200 0.7200 0.7200 0.7190 0.7180
667.619570 0.7170 0.7170 0.7140 0.7130 0.7130
671.069546 0.7140 0.7140 0.7140 0.7160 0.7170
674.519522 0.7170 0.7180 0.7180 0.7180 0.7190
677.969498 0.7190 0.7190 0.7190 0.7190 0.7190
681.419474 0.7180 0.7180 0.7170 0.7170 0.7160
684.869450 0.7150 0.7120 0.7050 0.6960 0.6910
688.319426 0.6900 0.6850 0.6790 0.6720 0.2176
691.769402 0.1491 0.0822 0.0820 0.0989 0.1179
695.219378 0.1280 0.1370 0.1570 0.1730 0.1740
698.669355 0.2049 0.2399 0.2570 0.2739 0.3238
702.119331 0.3560 0.3710 0.3740 0.3760 0.3940
705.569307 0.4748 0.5249 0.5749 0.5860 0.5870
709.019283 0.6050 0.6140 0.6210 0.6240 0.6270
712.469259 0.6370 0.6460 0.6500 0.6640 0.6680
715.919235 0.6900 0.6950 0.6970 0.7040 0.7090
719.369211 0.7130 0.7170 0.7190 0.7210 0.7220
722.819187 0.7240 0.7240 0.7270 0.7280 0.7280
726.269163 0.7280 0.7280 0.7290 0.7290 0.7290
729.719139 0.7280 0.7280 0.7270 0.7270 0.7260
733.169115 0.7240 0.7230 0.7210 0.7190 0.7160
736.619092 0.7120 0.7070 0.7000 0.6910 0.6790
740.069068 0.6770 0.6670 0.6511 0.6092 0.5861
743.519044 0.5640 0.5440 0.4901 0.3162 0.1643
746.969020 0.1241 0.0981 0.0711 0.0441 0.0440
750.418996 0.0440 0.0440 0.0520 0.0590 0.0680
753.868972 0.0800 0.0920 0.1050 0.1170 0.1220
757.318948 0.1270 0.1360 0.1570 0.1870 0.2119
760.768924 0.2349 0.2500 0.2640 0.3048 0.3408
764.218900 0.3710 0.3910 0.4100 0.4609 0.4929
767.668876 0.5050 0.5160 0.5409 0.5669 0.5889
771.118852 0.6080 0.6180 0.6250 0.6320 0.6470
774.568829 0.6630 0.6720 0.6820 0.6920 0.7020
778.018805 0.7110 0.7190 0.7260 0.7300 0.7330
781.468781 0.7360 0.7400 0.7450 0.7480 0.7500
784.918757 0.7500 0.7530 0.7560 0.7590 0.7620
788.368733 0.7650 0.7670 0.7690 0.7690 0.7710
791.818709 0.7710 0.7720 0.7720 0.7720 0.7720
795.268685 0.7720 0.7720 0.7710 0.7700 0.7690
798.718661 0.7680 0.7660 0.7650 0.7640 0.7630
802.168637 0.7640 0.7650 0.7680 0.7690 0.7730
805.618613 0.7780 0.7840 0.7880 0.7910 0.7960
809.068589 0.8020 0.8070 0.8140 0.8180 0.8220
812.518566 0.8240 0.8250 0.8260 0.8260 0.8260
815.968542 0.8260 0.8250 0.8240 0.8240 0.8230
819.418518 0.8230 0.8200 0.8180 0.8170 0.8140
822.868494 0.8130 0.8110 0.8100 0.8090 0.8080
826.318470 0.8070 0.8070 0.8070 0.8080 0.8080
829.768446 0.8100 0.8100 0.8100 0.8120 0.8140
833.218422 0.8170 0.8200 0.8210 0.8230 0.8250
836.668398 0.8280 0.8320 0.8350 0.8380 0.8410
840.118374 0.8420 0.8440 0.8450 0.8460 0.8460
843.568350 0.8470 0.8480 0.8490 0.8490 0.8500
847.018326 0.8510 0.8520 0.8530 0.8530 0.8540
850.468303 0.8540 0.8540 0.8530 0.8530 0.8530
853.918279 0.8520 0.8520 0.8520 0.8510 0.8510
857.368255 0.8500 0.8480 0.8460 0.8430 0.8420
860.818231 0.8410 0.8400 0.8390 0.8370 0.8350
864.268207 0.8320 0.8290 0.8240 0.8180 0.8110
867.718183 0.8030 0.7920 0.7780 0.7430 0.7230
871.168159 0.7030 0.6831 0.6651 0.6481 0.6351
874.618135 0.6240 0.6220 0.6250 0.6250 0.6260
878.068111 0.6320 0.6519 0.6610 0.6769 0.6889
881.518087 0.7000 0.7070 0.7200 0.7290 0.7420
884.968064 0.7490 0.7560 0.7620 0.7799 0.7929
888.418040 0.8040 0.8120 0.8190 0.8230 0.8270
891.868016 0.8300 0.8330 0.8350 0.8380 0.8420
895.317992 0.8470 0.8510 0.8550 0.8570 0.8590
898.767968 0.8600 0.8620 0.8620 0.8620 0.8650
902.217944 0.8650 0.8660 0.8670 0.8680 0.8680
905.667920 0.8690 0.8700 0.8710 0.8710 0.8720
909.117896 0.8720 0.8730 0.8740 0.8740 0.8750
912.567872 0.8750 0.8750 0.8750 0.8750 0.8760
916.017848 0.8760 0.8770 0.8780 0.8780 0.8780
919.467824 0.8780 0.8780 0.8780 0.8780 0.8780
922.917801 0.8780 0.8780 0.8780 0.8780 0.8780
926.367777 0.8780 0.8780 0.8780 0.8780 0.8780
929.817753 0.8780 0.8780 0.8780 0.8780 0.8780
933.267729 0.8780 0.8780 0.8780 0.8780 0.8780
936.717705 0.8780 0.8780 0.8770 0.8770 0.8760
940.167681 0.8760 0.8750 0.8750 0.8750 0.8750
943.617657 0.8740 0.8740 0.8730 0.8720 0.8710
947.067633 0.8710 0.8680 0.8660 0.8630 0.8620
950.517609 0.8600 0.8580 0.8580 0.8570 0.8560
953.967585 0.8560 0.8570 0.8570 0.8570 0.8570
957.417561 0.8570 0.8580 0.8580 0.8580 0.8580
960.867538 0.8580 0.8580 0.8580 0.8580 0.8580
964.317514 0.8580 0.8580 0.8580 0.8580 0.8580
967.767490 0.8580 0.8580 0.8580 0.8570 0.8570
971.217466 0.8560 0.8560 0.8550 0.8550 0.8550
974.667442 0.8550 0.8550 0.8540 0.8530 0.8520
978.117418 0.8500 0.8500 0.8490 0.8490 0.8490
981.567394 0.8490 0.8480 0.8480 0.8470 0.8470
985.017370 0.8460 0.8460 0.8420 0.8410 0.8390
988.467346 0.8380 0.8360 0.8330 0.8300 0.8240
991.917322 0.8170 0.8070 0.7940 0.7770 0.5923
995.367298 0.5800 0.5800 0.5820 0.5989 0.6209
998.817275 0.6490 0.6760 0.7050 0.7300 0.7420
1002.267251 0.7530 0.7720 0.7889 0.8039 0.8160
1005.717227 0.8270 0.8370 0.8460 0.8530 0.8550
1009.167203 0.8570 0.8580 0.8590 0.8600 0.8620
1012.617179 0.8630 0.8630 0.8650 0.8650 0.8650
1016.067155 0.8650 0.8650 0.8650 0.8650 0.8640
1019.517131 0.8620 0.8620 0.8610 0.8590 0.8560
1022.967107 0.8530 0.8490 0.8450 0.8390 0.8330
1026.417083 0.8260 0.8190 0.8100 0.8010 0.7910
1029.867059 0.7800 0.7680 0.7670 0.7660 0.7670
1033.317035 0.7710 0.7750 0.7850 0.7940 0.8020
1036.767012 0.8100 0.8170 0.8230 0.8300 0.8340
1040.216988 0.8390 0.8420 0.8460 0.8470 0.8490
1043.666964 0.8510 0.8520 0.8530 0.8530 0.8530
1047.116940 0.8530 0.8520 0.8520 0.8520 0.8510
1050.566916 0.8500 0.8490 0.8460 0.8440 0.8420
1054.016892 0.8410 0.8400 0.8370 0.8330 0.8290
1057.466868 0.8230 0.8170 0.8100 0.8030 0.7950
1060.916844 0.7860 0.7770 0.7670 0.7460 0.7350
1064.366820 0.7230 0.7110 0.6980 0.6851 0.6721
1067.816796 0.6570 0.6430 0.6100 0.5960 0.5860
1071.266773 0.5800 0.5760 0.5740 0.5720 0.5680
1074.716749 0.5570 0.5370 0.5250 0.5210 0.5100
1078.166725 0.5100 0.5140 0.5419 0.5689 0.5929
1081.616701 0.6150 0.6240 0.6330 0.6629 0.6909
1085.066677 0.7089 0.7269 0.7419 0.7480 0.7530
1088.516653 0.7620 0.7710 0.7770 0.7830 0.7880
1091.966629 0.7930 0.7980 0.8020 0.8050 0.8080
1095.416605 0.8100 0.8140 0.8170 0.8200 0.8230
1098.866581 0.8250 0.8270 0.8300 0.8300 0.8300
1102.316557 0.8320 0.8330 0.8330 0.8340 0.8340
1105.766533 0.8350 0.8350 0.8350 0.8350 0.8350
1109.216510 0.8330 0.8330 0.8320 0.8310 0.8300
1112.666486 0.8290 0.8260 0.8250 0.8230 0.8230
1116.116462 0.8190 0.8170 0.8140 0.8110 0.8090
1119.566438 0.8070 0.8060 0.8050 0.8030 0.8020
1123.016414 0.7990 0.7950 0.7900 0.7840 0.7770
1126.466390 0.7700 0.7630 0.7560 0.7460 0.7420
1129.916366 0.7390 0.7380 0.7370 0.7370 0.7370
1133.366342 0.7390 0.7400 0.7430 0.7470 0.7490
1136.816318 0.7500 0.7530 0.7560 0.7570 0.7590
1140.266294 0.7590 0.7630 0.7660 0.7690 0.7690
1143.716270 0.7690 0.7700 0.7700 0.7690 0.7570
1147.166247 0.7470 0.7400 0.7270 0.7091 0.6891
1150.616223 0.6690 0.6660 0.6160 0.5910 0.5660
1154.066199 0.4732 0.4371 0.4350 0.4360 0.4430
1157.516175 0.4490 0.4670 0.4730 0.5000 0.5100
1160.966151 0.5200 0.5469 0.5759 0.6029 0.6229
1164.416127 0.6270 0.6310 0.6500 0.6650 0.6780
1167.866103 0.6870 0.6950 0.7010 0.7050 0.7090
1171.316079 0.7130 0.7170 0.7210 0.7250 0.7260
1174.766055 0.7270 0.7270 0.7270 0.7220 0.7130
1178.216031 0.7000 0.6820 0.6580 0.5911 0.4942
1181.666007 0.3214 0.3070 0.3070 0.3359 0.3529
1185.115984 0.3900 0.4260 0.4630 0.4860 0.5090
1188.565960 0.5479 0.5829 0.6149 0.6279 0.6419
1192.015936 0.6660 0.6880 0.7050 0.7200 0.7320
1195.465912 0.7420 0.7490 0.7510 0.7530 0.7600
1198.915888 0.7660 0.7720 0.7760 0.7800 0.7830
1202.365864 0.7860 0.7890 0.7910 0.7930 0.7940
1205.815840 0.7960 0.7980 0.7990 0.8010 0.8020
1209.265816 0.8030 0.8030 0.8040 0.8040 0.8040
1212.715792 0.8040 0.8040 0.8040 0.8050 0.8050
1216.165768 0.8070 0.8090 0.8110 0.8130 0.8140
1219.615744 0.8150 0.8150 0.8160 0.8160 0.8170
1223.065721 0.8170 0.8170 0.8170 0.8170 0.8170
1226.515697 0.8170 0.8170 0.8170 0.8160 0.8160
1229.965673 0.8150 0.8150 0.8140 0.8130 0.8110
1233.415649 0.8100 0.8080 0.8070 0.8060 0.8040
1236.865625 0.8030 0.8010 0.8000 0.8000 0.7990
1240.315601 0.7980 0.7970 0.7950 0.7930 0.7910
1243.765577 0.7900 0.7890 0.7880 0.7860 0.7850
1247.215553 0.7820 0.7780 0.7730 0.7680 0.7620
1250.665529 0.7560 0.7440 0.7370 0.7300 0.7220
1254.115505 0.7130 0.7010 0.6870 0.6710 0.6530
1257.565482 0.6131 0.5910 0.5691 0.5451 0.4982
1261.015458 0.4740 0.4480 0.3480 0.3240 0.3170
1264.465434 0.3040 0.2801 0.2780 0.2780 0.2800
1267.915410 0.2920 0.3050 0.3180 0.3220 0.3290
1271.365386 0.3520 0.3749 0.3880 0.4010 0.4319
1274.815362 0.4630 0.4930 0.5070 0.5200 0.5430
1278.265338 0.5580 0.5640 0.5760 0.5880 0.5990
1281.715314 0.6090 0.6190 0.6250 0.6290 0.6380
1285.165290 0.6470 0.6570 0.6640 0.6730 0.6800
1288.615266 0.6880 0.6950 0.7020 0.7100 0.7160
1292.065242 0.7200 0.7240 0.7260 0.7290 0.7300
1295.515219 0.7330 0.7360 0.7410 0.7430 0.7430
1298.965195 0.7420 0.7400 0.7370 0.7370 0.7330
1302.415171 0.7290 0.7240 0.7190 0.7140 0.7110
1305.865147 0.7090 0.6930 0.6780 0.6631 0.6491
1309.315123 0.6210 0.6050 0.5890 0.5730 0.5540
1312.765099 0.5340 0.4871 0.4591 0.4281 0.3483
1316.215075 0.3140 0.2830 0.2320 0.2110 0.1920
1319.665051 0.1760 0.1620 0.1580 0.1530 0.1530
1323.115027 0.1550 0.1760 0.1820 0.1920 0.2090
1326.565003 0.2329 0.2460 0.2590 0.2889 0.3189
1330.014979 0.3490 0.3620 0.3760 0.3980 0.4170
1333.464956 0.4449 0.4909 0.5059 0.5189 0.5538
1336.914932 0.5730 0.5760 0.5770 0.5780 0.5790
1340.364908 0.5800 0.5800 0.5810 0.5830 0.5840
1343.814884 0.5890 0.5970 0.6090 0.6230 0.6310
1347.264860 0.6390 0.6540 0.6689 0.6790 0.6929
1350.714836 0.7050 0.7160 0.7270 0.7370 0.7450
1354.164812 0.7490 0.7530 0.7600 0.7660 0.7720
1357.614788 0.7770 0.7820 0.7850 0.7880 0.7940
1361.064764 0.7990 0.8030 0.8060 0.8090 0.8100
1364.514740 0.8130 0.8140 0.8150 0.8170 0.8190
1367.964716 0.8210 0.8230 0.8260 0.8300 0.8320
1371.414693 0.8330 0.8330 0.8350 0.8360 0.8360
1374.864669 0.8360 0.8360 0.8360 0.8370 0.8370
1378.314645 0.8370 0.8370 0.8370 0.8370 0.8360
1381.764621 0.8360 0.8360 0.8360 0.8360 0.8360
1385.214597 0.8360 0.8370 0.8380 0.8380 0.8400
1388.664573 0.8420 0.8440 0.8460 0.8470 0.8480
1392.114549 0.8490 0.8490 0.8500 0.8500 0.8500
1395.564525 0.8510 0.8520 0.8520 0.8520 0.8520
1399.014501 0.8520 0.8510 0.8510 0.8510 0.8510
1402.464477 0.8510 0.8500 0.8490 0.8490 0.8480
1405.914453 0.8480 0.8470 0.8460 0.8460 0.8450
1409.364430 0.8430 0.8420 0.8410 0.8390 0.8380
1412.814406 0.8360 0.8330 0.8300 0.8260 0.8230
1416.264382 0.8180 0.8100 0.8030 0.7950 0.7880
1419.714358 0.7800 0.7720 0.7620 0.7370 0.7210
1423.164334 0.7030 0.6811 0.6561 0.5922 0.5810
1426.614310 0.5800 0.5810 0.5820 0.6040 0.6160
1430.064286 0.6280 0.6370 0.6470 0.6610 0.6730
1433.514262 0.6890 0.7020 0.7090 0.7110 0.7110
1436.964238 0.7110 0.7080 0.7070 0.7070 0.7080
1440.414214 0.7120 0.7130 0.7210 0.7310 0.7370
1443.864191 0.7380 0.7370 0.7340 0.7300 0.7230
1447.314167 0.7140 0.7040 0.6920 0.6820 0.6700
1450.764143 0.6441 0.5991 0.5781 0.5740 0.5730
1454.214119 0.5730 0.5730 0.5860 0.6000 0.6150
1457.664095 0.6210 0.6280 0.6350 0.6420 0.6689
1461.114071 0.6790 0.6890 0.6980 0.7050 0.7080
1464.564047 0.7100 0.7110 0.7110 0.7110 0.7110
1468.014023 0.7090 0.7070 0.7010 0.6890 0.6760
1471.463999 0.6620 0.6490 0.6061 0.5632 0.4963
1474.913975 0.4910 0.4650 0.4390 0.4120 0.4100
1478.363951 0.4110 0.4230 0.4330 0.4440 0.4669
1481.813928 0.4840 0.5020 0.5030 0.5240 0.5250
1485.263904 0.5270 0.5270 0.5270 0.5260 0.5250
1488.713880 0.5250 0.5170 0.4940 0.4810 0.4730
1492.163856 0.4720 0.4481 0.4251 0.4031 0.3642
1495.613832 0.3460 0.3280 0.3100 0.2920 0.2740
1499.063808 0.2331 0.2111 0.1871 0.1601 0.1192
1502.513784 0.0990 0.0860 0.0710 0.0570 0.0510
1505.963760 0.0450 0.0390 0.0350 0.0320 0.0280
1509.413736 0.0270 0.0260 0.0270 0.0280 0.0340
1512.863712 0.0380 0.0430 0.0510 0.0580 0.0690
1516.313688 0.0800 0.0920 0.1080 0.1200 0.1250
1519.763665 0.1300 0.1500 0.1749 0.2079 0.2319
1523.213641 0.2470 0.2620 0.2900 0.3040 0.3270
1526.663617 0.3510 0.3740 0.3850 0.3970 0.4189
1530.113593 0.4420 0.4640 0.4850 0.4960 0.5060
1533.563569 0.5270 0.5460 0.5650 0.5829 0.5999
1537.013545 0.6160 0.6240 0.6310 0.6440 0.6570
1540.463521 0.6680 0.6780 0.6860 0.6930 0.6980
1543.913497 0.7010 0.7100 0.7170 0.7240 0.7300
1547.363473 0.7350 0.7390 0.7420 0.7450 0.7460
1550.813449 0.7490 0.7500 0.7500 0.7520 0.7530
1554.263425 0.7580 0.7590 0.7590 0.7580 0.7570
1557.713402 0.7550 0.7530 0.7500 0.7490 0.7470
1561.163378 0.7450 0.7430 0.7400 0.7380 0.7370
1564.613354 0.7350 0.7330 0.7320 0.7310 0.7300
1568.063330 0.7290 0.7270 0.7270 0.7260 0.7240
1571.513306 0.7230 0.7210 0.7200 0.7180 0.7160
1574.963282 0.7120 0.7080 0.7050 0.7000 0.6950
1578.413258 0.6900 0.6840 0.6770 0.6690 0.6610
1581.863234 0.6510 0.6410 0.6141 0.5981 0.5801
1585.313210 0.5520 0.5410 0.5180 0.4900 0.4820
1588.763186 0.4770 0.4730 0.4670 0.4640 0.4560
1592.213163 0.4420 0.4230 0.4030 0.3541 0.3270
1595.663139 0.3001 0.2422 0.2131 0.1841 0.1561
1599.113115 0.1020 0.0780 0.0560 0.0360 0.0190
1602.563091 0.0170 0.0160 0.0150 0.0140 0.0140
1606.013067 0.0130 0.0130 0.0140 0.0160 0.0220
1609.463043 0.0410 0.0729 0.1049 0.1199 0.1339
1612.913019 0.1620 0.1860 0.2080 0.2270 0.2420
1616.362995 0.2530 0.2650 0.2879 0.3189 0.3389
1619.812971 0.3650 0.3730 0.3810 0.4030 0.4279
1623.262947 0.4559 0.4839 0.4970 0.5099 0.5319
1626.712923 0.5480 0.5540 0.5760 0.5970 0.6150
1630.162900 0.6250 0.6330 0.6499 0.6639 0.6789
1633.612876 0.6910 0.7030 0.7140 0.7230 0.7320
1637.062852 0.7400 0.7480 0.7510 0.7540 0.7610
1640.512828 0.7660 0.7720 0.7760 0.7810 0.7850
1643.962804 0.7880 0.7920 0.7960 0.7990 0.8030
1647.412780 0.8050 0.8080 0.8100 0.8130 0.8150
1650.862756 0.8170 0.8200 0.8210 0.8230 0.8250
1654.312732 0.8270 0.8290 0.8300 0.8320 0.8330
1657.762708 0.8340 0.8350 0.8360 0.8360 0.8360
1661.212684 0.8370 0.8380 0.8390 0.8390 0.8400
1664.662660 0.8400 0.8410 0.8410 0.8410 0.8410
1668.112637 0.8410 0.8400 0.8400 0.8390 0.8390
1671.562613 0.8390 0.8380 0.8370 0.8370 0.8360
1675.012589 0.8360 0.8360 0.8350 0.8350 0.8350
1678.462565 0.8340 0.8340 0.8330 0.8330 0.8330
1681.912541 0.8330 0.8320 0.8310 0.8310 0.8300
1685.362517 0.8300 0.8280 0.8260 0.8250 0.8240
1688.812493 0.8250 0.8260 0.8260 0.8270 0.8290
1692.262469 0.8300 0.8300 0.8310 0.8330 0.8330
1695.712445 0.8340 0.8360 0.8360 0.8380 0.8390
1699.162421 0.8400 0.8410 0.8420 0.8430 0.8440
1702.612397 0.8450 0.8460 0.8460 0.8470 0.8470
1706.062374 0.8480 0.8480 0.8490 0.8490 0.8490
1709.512350 0.8500 0.8500 0.8520 0.8520 0.8520
1712.962326 0.8530 0.8540 0.8540 0.8550 0.8550
1716.412302 0.8560 0.8560 0.8570 0.8580 0.8580
1719.862278 0.8590 0.8600 0.8600 0.8600 0.8610
1723.312254 0.8610 0.8620 0.8620 0.8620 0.8620
1726.762230 0.8630 0.8630 0.8640 0.8640 0.8650
1730.212206 0.8650 0.8650 0.8660 0.8660 0.8660
1733.662182 0.8670 0.8670 0.8670 0.8680 0.8680
1737.112158 0.8680 0.8680 0.8690 0.8690 0.8700
1740.562134 0.8710 0.8710 0.8710 0.8710 0.8720
1744.012111 0.8730 0.8730 0.8740 0.8750 0.8750
1747.462087 0.8750 0.8750 0.8750 0.8760 0.8770
1750.912063 0.8760 0.8760 0.8770 0.8770 0.8770
1754.362039 0.8760 0.8760 0.8750 0.8750 0.8750
1757.812015 0.8740 0.8740 0.8730 0.8730 0.8720
1761.261991 0.8710 0.8700 0.8680 0.8650 0.8620
1764.711967 0.8580 0.8560 0.8550 0.8550 0.8540
1768.161943 0.8540 0.8540 0.8530 0.8530 0.8520
1771.611919 0.8520 0.8520 0.8520 0.8510 0.8500
1775.061895 0.8490 0.8490 0.8490 0.8490 0.8500
1778.511872 0.8510 0.8520 0.8530 0.8540 0.8550
1781.961848 0.8550 0.8570 0.8580 0.8580 0.8580
1785.411824 0.8610 0.8620 0.8620 0.8630 0.8630
1788.861800 0.8640 0.8650 0.8660 0.8660 0.8670
1792.311776 0.8670 0.8680 0.8680 0.8690 0.8710
1795.761752 0.8720 0.8740 0.8750 0.8750 0.8770
1799.211728 0.8770 0.8780 0.8780 0.8790 0.8790
1802.661704 0.8800 0.8800 0.8790 0.8790 0.8790
1806.111680 0.8790 0.8790 0.8790 0.8780 0.8780
1809.561656 0.8770 0.8770 0.8770 0.8760 0.8760
1813.011632 0.8750 0.8750 0.8730 0.8710 0.8690
1816.461609 0.8680 0.8660 0.8650 0.8650 0.8650
1819.911585 0.8640 0.8630 0.8630 0.8620 0.8600
1823.361561 0.8580 0.8570 0.8560 0.8550 0.8550
1826.811537 0.8550 0.8540 0.8540 0.8540 0.8540
1830.261513 0.8540 0.8550 0.8550 0.8550 0.8550
1833.711489 0.8570 0.8570 0.8580 0.8580 0.8590
1837.161465 0.8600 0.8610 0.8620 0.8620 0.8630
1840.611441 0.8640 0.8650 0.8650 0.8650 0.8660
1844.061417 0.8660 0.8660 0.8670 0.8680 0.8680
1847.511393 0.8680 0.8700 0.8710 0.8720 0.8730
1850.961369 0.8730 0.8740 0.8740 0.8750 0.8750
1854.411346 0.8750 0.8750 0.8750 0.8760 0.8760
1857.861322 0.8770 0.8780 0.8780 0.8790 0.8790
1861.311298 0.8800 0.8800 0.8800 0.8810 0.8810
1864.761274 0.8810 0.8810 0.8820 0.8820 0.8830
1868.211250 0.8840 0.8850 0.8860 0.8870 0.8870
1871.661226 0.8870 0.8870 0.8870 0.8880 0.8880
1875.111202 0.8880 0.8880 0.8880 0.8880 0.8880
1878.561178 0.8880 0.8880 0.8880 0.8870 0.8870
1882.011154 0.8870 0.8870 0.8860 0.8860 0.8850
1885.461130 0.8850 0.8840 0.8840 0.8840 0.8840
1888.911106 0.8840 0.8830 0.8820 0.8810 0.8800
1892.361083 0.8790 0.8790 0.8780 0.8780 0.8780
1895.811059 0.8780 0.8780 0.8780 0.8770 0.8770
1899.261035 0.8770 0.8760 0.8760 0.8750 0.8750
1902.711011 0.8750 0.8740 0.8720 0.8710 0.8700
1906.160987 0.8680 0.8670 0.8660 0.8650 0.8630
1909.610963 0.8620 0.8600 0.8580 0.8560 0.8540
1913.060939 0.8520 0.8490 0.8460 0.8430 0.8430
1916.510915 0.8420 0.8410 0.8390 0.8370 0.8350
1919.960891 0.8330 0.8300 0.8290 0.8270 0.8260
1923.410867 0.8260 0.8260 0.8260 0.8270 0.8280
1926.860843 0.8300 0.8300 0.8310 0.8330 0.8340
1930.310820 0.8360 0.8360 0.8380 0.8390 0.8390
1933.760796 0.8410 0.8410 0.8420 0.8420 0.8430
1937.210772 0.8430 0.8450 0.8460 0.8460 0.8460
1940.660748 0.8460 0.8470 0.8480 0.8480 0.8500
1944.110724 0.8520 0.8530 0.8550 0.8560 0.8570
1947.560700 0.8580 0.8600 0.8620 0.8620 0.8640
1951.010676 0.8650 0.8660 0.8680 0.8680 0.8700
1954.460652 0.8710 0.8710 0.8730 0.8730 0.8740
1957.910628 0.8740 0.8750 0.8750 0.8750 0.8750
1961.360604 0.8750 0.8750 0.8760 0.8760 0.8760
1964.810581 0.8760 0.8760 0.8760 0.8760 0.8760
1968.260557 0.8770 0.8770 0.8770 0.8770 0.8770
1971.710533 0.8770 0.8770 0.8770 0.8770 0.8770
1975.160509 0.8770 0.8770 0.8770 0.8770 0.8770
1978.610485 0.8770 0.8770 0.8780 0.8780 0.8780
1982.060461 0.8780 0.8780 0.8780 0.8780 0.8790
1985.510437 0.8790 0.8790 0.8790 0.8800 0.8800
1988.960413 0.8810 0.8810 0.8810 0.8810 0.8820
1992.410389 0.8820 0.8830 0.8830 0.8840 0.8840
1995.860365 0.8840 0.8840 0.8840 0.8840 0.8840
1999.310341 0.8840 0.8840 0.8840 0.8840 0.8840
2002.760318 0.8840 0.8840 0.8840 0.8840 0.8840
2006.210294 0.8840 0.8840 0.8840 0.8840 0.8840
2009.660270 0.8840 0.8840 0.8840 0.8840 0.8840
2013.110246 0.8840 0.8840 0.8840 0.8840 0.8840
2016.560222 0.8841 0.8843 0.8846 0.8848 0.8850
2020.010198 0.8850 0.8850 0.8850 0.8850 0.8850
2023.460174 0.8850 0.8850 0.8850 0.8850 0.8850
2026.910150 0.8850 0.8850 0.8850 0.8850 0.8850
2030.360126 0.8850 0.8850 0.8850 0.8850 0.8850
2033.810102 0.8850 0.8850 0.8850 0.8850 0.8850
2037.260078 0.8850 0.8850 0.8852 0.8854 0.8857
2040.710055 0.8860 0.8860 0.8860 0.8860 0.8860
2044.160031 0.8860 0.8860 0.8860 0.8860 0.8860
2047.610007 0.8860 0.8860 0.8860 0.8860 0.8860
2051.059983 0.8860 0.8860 0.8863 0.8865 0.8868
2054.509959 0.8870 0.8870 0.8870 0.8870 0.8870
2057.959935 0.8870 0.8870 0.8870 0.8870 0.8870
2061.409911 0.8870 0.8870 0.8870 0.8870 0.8870
2064.859887 0.8870 0.8870 0.8870 0.8870 0.8870
2068.309863 0.8870 0.8870 0.8870 0.8870 0.8870
2071.759839 0.8870 0.8870 0.8870 0.8870 0.8870
2075.209815 0.8870 0.8870 0.8870 0.8870 0.8870
2078.659792 0.8870 0.8870 0.8870 0.8870 0.8870
2082.109768 0.8870 0.8870 0.8870 0.8870 0.8872
2085.559744 0.8874 0.8877 0.8879 0.8880 0.8880
2089.009720 0.8880 0.8880 0.8880 0.8880 0.8880
2092.459696 0.8880 0.8880 0.8880 0.8880 0.8880
2095.909672 0.8880 0.8880 0.8880 0.8880 0.8880
2099.359648 0.8880 0.8880 0.8880 0.8883 0.8885
2102.809624 0.8888 0.8890 0.8890 0.8890 0.8890
2106.259600 0.8890 0.8890 0.8890 0.8890 0.8890
2109.709576 0.8890 0.8890 0.8890 0.8890 0.8890
2113.159552 0.8890 0.8890 0.8890 0.8890 0.8890
2116.609529 0.8890 0.8891 0.8894 0.8896 0.8899
2120.059505 0.8900 0.8900 0.8900 0.8900 0.8900
2123.509481 0.8900 0.8900 0.8900 0.8900 0.8900
2126.959457 0.8900 0.8900 0.8900 0.8900 0.8900
2130.409433 0.8900 0.8902 0.8904 0.8907 0.8909
2133.859409 0.8910 0.8910 0.8910 0.8910 0.8910
2137.309385 0.8910 0.8910 0.8910 0.8910 0.8910
2140.759361 0.8910 0.8910 0.8910 0.8910 0.8910
2144.209337 0.8910 0.8910 0.8910 0.8910 0.8910
2147.659313 0.8910 0.8910 0.8910 0.8910 0.8910
2151.109290 0.8910 0.8910 0.8910 0.8910 0.8910
2154.559266 0.8910 0.8910 0.8910 0.8910 0.8910
2158.009242 0.8910 0.8910 0.8910 0.8910 0.8910
2161.459218 0.8910 0.8910 0.8910 0.8910 0.8910
2164.909194 0.8910 0.8910 0.8911 0.8914 0.8916
2168.359170 0.8919 0.8920 0.8920 0.8920 0.8920
2171.809146 0.8920 0.8920 0.8920 0.8920 0.8920
2175.259122 0.8920 0.8920 0.8920 0.8920 0.8920
2178.709098 0.8920 0.8920 0.8920 0.8920 0.8920
2182.159074 0.8920 0.8920 0.8920 0.8920 0.8920
2185.609050 0.8922 0.8925 0.8927 0.8930 0.8930
2189.059027 0.8930 0.8930 0.8930 0.8930 0.8930
2192.509003 0.8930 0.8930 0.8930 0.8930 0.8930
2195.958979 0.8930 0.8930 0.8930 0.8930 0.8930
2199.408955 0.8930 0.8930 0.8930 0.8930 0.8933
2202.858931 0.8935 0.8938 0.8940 0.8940 0.8940
2206.308907 0.8940 0.8940 0.8940 0.8940 0.8940
2209.758883 0.8940 0.8940 0.8940 0.8940 0.8940
2213.208859 0.8940 0.8940 0.8940 0.8940 0.8940
2216.658835 0.8940 0.8940 0.8940 0.8940 0.8940
2220.108811 0.8940 0.8940 0.8940 0.8940 0.8940
2223.558787 0.8940 0.8940 0.8940 0.8940 0.8940
2227.008764 0.8940 0.8940 0.8940 0.8940 0.8940
2230.458740 0.8940 0.8940 0.8940 0.8940 0.8940
2233.908716 0.8940 0.8940 0.8940 0.8940 0.8940
2237.358692 0.8942 0.8945 0.8947 0.8950 0.8950
2240.808668 0.8950 0.8950 0.8950 0.8950 0.8950
2244.258644 0.8950 0.8950 0.8950 0.8950 0.8950
2247.708620 0.8950 0.8950 0.8950 0.8950 0.8950
2251.158596 0.8950 0.8950 0.8950 0.8950 0.8950
2254.608572 0.8950 0.8950 0.8950 0.8950 0.8950
2258.058548 0.8950 0.8950 0.8950 0.8950 0.8950
2261.508524 0.8950 0.8950 0.8950 0.8950 0.8950
2264.958501 0.8950 0.8950 0.8950 0.8950 0.8950
2268.408477 0.8950 0.8950 0.8950 0.8950 0.8950
2271.858453 0.8950 0.8950 0.8950 0.8950 0.8950
2275.308429 0.8950 0.8950 0.8950 0.8950 0.8950
2278.758405 0.8950 0.8950 0.8950 0.8950 0.8950
2282.208381 0.8950 0.8950 0.8950 0.8950 0.8950
2285.658357 0.8950 0.8950 0.8950 0.8950 0.8950
2289.108333 0.8948 0.8945 0.8943 0.8940 0.8940
2292.558309 0.8940 0.8940 0.8940 0.8940 0.8940
2296.008285 0.8940 0.8940 0.8940 0.8940 0.8940
2299.458261 0.8940 0.8940 0.8940 0.8940 0.8940
2302.908238 0.8940 0.8940 0.8940 0.8940 0.8940
2306.358214 0.8940 0.8940 0.8939 0.8937 0.8934
2309.808190 0.8932 0.8929 0.8926 0.8924 0.8921
2313.258166 0.8920 0.8920 0.8920 0.8920 0.8919
2316.708142 0.8916 0.8914 0.8911 0.8910 0.8910
2320.158118 0.8910 0.8910 0.8908 0.8906 0.8903
2323.608094 0.8901 0.8898 0.8896 0.8893 0.8891
2327.058070 0.8888 0.8886 0.8883 0.8880 0.8878
2330.508046 0.8875 0.8873 0.8870 0.8870 0.8870
2333.958022 0.8870 0.8870 0.8868 0.8865 0.8863
2337.407999 0.8860 0.8860 0.8860 0.8860 0.8860
2340.857975 0.8860 0.8860 0.8860 0.8860 0.8857
2344.307951 0.8855 0.8852 0.8850 0.8850 0.8850
2347.757927 0.8850 0.8850 0.8847 0.8845 0.8842
2351.207903 0.8840 0.8840 0.8840 0.8840 0.8840
2354.657879 0.8840 0.8840 0.8840 0.8840 0.8840
2358.107855 0.8840 0.8840 0.8839 0.8836 0.8834
2361.557831 0.8831 0.8830 0.8830 0.8830 0.8830
2365.007807 0.8830 0.8830 0.8830 0.8830 0.8830
2368.457783 0.8830 0.8830 0.8830 0.8830 0.8830
2371.907759 0.8830 0.8830 0.8830 0.8830 0.8830
2375.357736 0.8830 0.8828 0.8826 0.8823 0.8821
2378.807712 0.8820 0.8820 0.8820 0.8820 0.8820
2382.257688 0.8820 0.8820 0.8820 0.8820 0.8820
2385.707664 0.8820 0.8820 0.8820 0.8820 0.8820
2389.157640 0.8820 0.8820 0.8820 0.8820 0.8820
2392.607616 0.8820 0.8820 0.8820 0.8820 0.8820
2396.057592 0.8820 0.8820 0.8820 0.8820 0.8820
2399.507568 0.8820 0.8821 0.8823 0.8826 0.8828
2402.957544 0.8831 0.8833 0.8836 0.8838 0.8840
2406.407520 0.8840 0.8840 0.8840 0.8840 0.8840
2409.857496 0.8840 0.8840 0.8840 0.8840 0.8840
2413.307473 0.8840 0.8841 0.8844 0.8846 0.8849
2416.757449 0.8852 0.8854 0.8857 0.8859 0.8860
2420.207425 0.8860 0.8860 0.8860 0.8862 0.8864
2423.657401 0.8867 0.8869 0.8870 0.8870 0.8870
2427.107377 0.8870 0.8870 0.8870 0.8870 0.8870
2430.557353 0.8872 0.8875 0.8877 0.8880 0.8880
2434.007329 0.8880 0.8880 0.8880 0.8883 0.8885
2437.457305 0.8888 0.8890 0.8893 0.8895 0.8898
2440.907281 0.8900 0.8903 0.8905 0.8908 0.8910
2444.357257 0.8910 0.8910 0.8910 0.8911 0.8913
2447.807233 0.8916 0.8918 0.8920 0.8920 0.8920
2451.257210 0.8920 0.8921 0.8923 0.8926 0.8928
2454.707186 0.8930 0.8930 0.8930 0.8930 0.8930
2458.157162 0.8930 0.8930 0.8930 0.8929 0.8926
2461.607138 0.8924 0.8921 0.8920 0.8920 0.8920
2465.057114 0.8920 0.8918 0.8916 0.8913 0.8911
2468.507090 0.8910 0.8910 0.8910 0.8910 0.8908
2471.957066 0.8906 0.8903 0.8901 0.8900 0.8900
2475.407042 0.8900 0.8900 0.8898 0.8895 0.8893
2478.857018 0.8890 0.8890 0.8890 0.8890 0.8890
2482.306994 0.8888 0.8885 0.8883 0.8880 0.8877
2485.756971 0.8875 0.8872 0.8870 0.8870 0.8870
2489.206947 0.8870 0.8870 0.8870 0.8870 0.8870
2492.656923 0.8870 0.8870 0.8870 0.8870 0.8870
2496.106899 0.8870 0.8870 0.8870 0.8870 0.8870
2499.556875 0.8870 0.8870 0.8870 0.8870 0.8870
2503.006851 0.8870 0.8870 0.8870 0.8870 0.8870
2506.456827 0.8870 0.8870 0.8870 0.8870 0.8870
2509.906803 0.8870 0.8870 0.8870 0.8870 0.8870
2513.356779 0.8870 0.8870 0.8870 0.8870 0.8870
2516.806755 0.8870 0.8870 0.8870 0.8870 0.8870
2520.256731 0.8870 0.8870 0.8870 0.8870 0.8868
2523.706708 0.8865 0.8863 0.8860 0.8860 0.8860
2527.156684 0.8860 0.8860 0.8858 0.8855 0.8853
2530.606660 0.8850 0.8850 0.8850 0.8850 0.8850
2534.056636 0.8850 0.8850 0.8850 0.8850 0.8847
2537.506612 0.8845 0.8842 0.8840 0.8837 0.8835
2540.956588 0.8832 0.8830 0.8827 0.8824 0.8822
2544.406564 0.8819 0.8817 0.8814 0.8812 0.8809
2547.856540 0.8807 0.8804 0.8802 0.8799 0.8797
2551.306516 0.8794 0.8791 0.8789 0.8786 0.8784
2554.756492 0.8781 0.8780 0.8780 0.8780 0.8780
2558.206468 0.8780 0.8780 0.8780 0.8780 0.8770
2561.656445 0.8752 0.8734 0.8717 0.8702 0.8689
2565.106421 0.8677 0.8664 0.8653 0.8643 0.8633
2568.556397 0.8623 0.8609 0.8593 0.8578 0.8562
2572.006373 0.8552 0.8541 0.8531 0.8521 0.8513
2575.456349 0.8506 0.8498 0.8490 0.8480 0.8470
2578.906325 0.8460 0.8450 0.8447 0.8445 0.8442
2582.356301 0.8440 0.8437 0.8435 0.8432 0.8430
2585.806277 0.8433 0.8435 0.8438 0.8440 0.8443
2589.256253 0.8445 0.8448 0.8451 0.8459 0.8467
2592.706229 0.8474 0.8482 0.8489 0.8497 0.8505
2596.156205 0.8512 0.8520 0.8528 0.8535 0.8543
2599.606182 0.8551 0.8558 0.8566 0.8576 0.8588
2603.056158 0.8601 0.8614 0.8624 0.8631 0.8639
2606.506134 0.8647 0.8657 0.8670 0.8682 0.8695
2609.956110 0.8702 0.8704 0.8707 0.8709 0.8717
2613.406086 0.8727 0.8737 0.8747 0.8750 0.8750
2616.856062 0.8750 0.8750 0.8750 0.8750 0.8750
2620.306038 0.8750 0.8752 0.8755 0.8757 0.8760
2623.756014 0.8762 0.8765 0.8767 0.8770 0.8770
2627.205990 0.8770 0.8770 0.8770 0.8770 0.8770
2630.655966 0.8770 0.8770 0.8770 0.8770 0.8770
2634.105942 0.8770 0.8770 0.8770 0.8770 0.8770
2637.555919 0.8767 0.8765 0.8762 0.8759 0.8757
2641.005895 0.8754 0.8752 0.8749 0.8744 0.8739
2644.455871 0.8733 0.8729 0.8727 0.8724 0.8722
2647.905847 0.8719 0.8717 0.8714 0.8711 0.8710
2651.355823 0.8710 0.8710 0.8710 0.8709 0.8706
2654.805799 0.8704 0.8701 0.8700 0.8700 0.8700
2658.255775 0.8700 0.8702 0.8704 0.8707 0.8709
2661.705751 0.8710 0.8710 0.8710 0.8710 0.8710
2665.155727 0.8710 0.8710 0.8710 0.8712 0.8715
2668.605703 0.8717 0.8720 0.8720 0.8720 0.8720
2672.055680 0.8720 0.8720 0.8720 0.8720 0.8720
2675.505656 0.8722 0.8725 0.8727 0.8730 0.8730
2678.955632 0.8730 0.8730 0.8730 0.8733 0.8735
2682.405608 0.8738 0.8740 0.8740 0.8740 0.8740
2685.855584 0.8740 0.8743 0.8746 0.8748 0.8750
2689.305560 0.8750 0.8750 0.8750 0.8750 0.8750
2692.755536 0.8750 0.8750 0.8750 0.8750 0.8750
2696.205512 0.8750 0.8751 0.8754 0.8756 0.8759
2699.655488 0.8760 0.8760 0.8760 0.8760 0.8760
2703.105464 0.8760 0.8760 0.8760 0.8760 0.8760
2706.555440 0.8760 0.8760 0.8760 0.8760 0.8760
2710.005417 0.8760 0.8758 0.8756 0.8753 0.8751
2713.455393 0.8750 0.8750 0.8750 0.8750 0.8750
2716.905369 0.8750 0.8750 0.8750 0.8748 0.8745
2720.355345 0.8743 0.8740 0.8738 0.8735 0.8733
2723.805321 0.8730 0.8728 0.8725 0.8722 0.8720
2727.255297 0.8712 0.8705 0.8697 0.8690 0.8685
2730.705273 0.8680 0.8674 0.8669 0.8659 0.8648
2734.155249 0.8638 0.8628 0.8618 0.8608 0.8597
2737.605225 0.8588 0.8580 0.8573 0.8565 0.8557
2741.055201 0.8547 0.8536 0.8526 0.8517 0.8510
2744.505177 0.8502 0.8494 0.8488 0.8483 0.8478
2747.955154 0.8473 0.8469 0.8466 0.8464 0.8461
2751.405130 0.8459 0.8456 0.8454 0.8451 0.8450
2754.855106 0.8450 0.8450 0.8450 0.8448 0.8446
2758.305082 0.8443 0.8441 0.8438 0.8436 0.8433
2761.755058 0.8431 0.8428 0.8425 0.8423 0.8420
2765.205034 0.8420 0.8420 0.8420 0.8420 0.8418
2768.655010 0.8415 0.8413 0.8410 0.8408 0.8405
2772.104986 0.8403 0.8400 0.8398 0.8395 0.8392
2775.554962 0.8390 0.8382 0.8375 0.8367 0.8359
2779.004938 0.8346 0.8334 0.8321 0.8306 0.8278
2782.454914 0.8250 0.8223 0.8194 0.8164 0.8133
2785.904891 0.8103 0.8072 0.8039 0.8005 0.7972
2789.354867 0.7944 0.7926 0.7908 0.7891 0.7877
2792.804843 0.7869 0.7862 0.7854 0.7843 0.7828
2796.254819 0.7813 0.7798 0.7781 0.7763 0.7746
2799.704795 0.7728 0.7689 0.7634 0.7578 0.7522
2803.154771 0.7453 0.7374 0.7296 0.7217 0.7139
2806.604747 0.7060 0.6982 0.6903 0.6686 0.6410
2810.054723 0.6134 0.5858 0.5731 0.5652 0.5574
2813.504699 0.5495 0.5358 0.5207 0.5055 0.4903
2816.954675 0.4892 0.4895 0.4897 0.4900 0.5024
2820.404651 0.5153 0.5283 0.5412 0.5541 0.5670
2823.854628 0.5799 0.5924 0.5982 0.6040 0.6098
2827.304604 0.6157 0.6215 0.6273 0.6331 0.6409
2830.754580 0.6584 0.6758 0.6933 0.7075 0.7101
2834.204556 0.7126 0.7151 0.7184 0.7237 0.7291
2837.654532 0.7344 0.7396 0.7447 0.7497 0.7548
2841.104508 0.7581 0.7584 0.7586 0.7589 0.7588
2844.554484 0.7583 0.7577 0.7572 0.7557 0.7531
2848.004460 0.7506 0.7481 0.7454 0.7426 0.7398
2851.454436 0.7370 0.7331 0.7286 0.7240 0.7195
2854.904412 0.7135 0.7070 0.7004 0.6938 0.6896
2858.354389 0.6863 0.6830 0.6797 0.6764 0.6731
2861.804365 0.6698 0.6666 0.6639 0.6614 0.6588
2865.254341 0.6563 0.6540 0.6517 0.6494 0.6472
2868.704317 0.6463 0.6455 0.6447 0.6436 0.6343
2872.154293 0.6249 0.6155 0.6065 0.6015 0.5964
2875.604269 0.5914 0.5857 0.5763 0.5670 0.5576
2879.054245 0.5486 0.5413 0.5339 0.5266 0.5206
2882.504221 0.5188 0.5170 0.5153 0.5139 0.5133
2885.954197 0.5128 0.5123 0.5121 0.5123 0.5126
2889.404173 0.5128 0.5143 0.5176 0.5209 0.5242
2892.854149 0.5280 0.5326 0.5371 0.5417 0.5440
2896.304126 0.5440 0.5440 0.5440 0.5440 0.5440
2899.754102 0.5440 0.5440 0.5430 0.5415 0.5400
2903.204078 0.5385 0.5366 0.5345 0.5325 0.5305
2906.654054 0.5266 0.5220 0.5174 0.5129 0.5118
2910.104030 0.5115 0.5113 0.5110 0.5112 0.5115
2913.554006 0.5117 0.5120 0.5125 0.5130 0.5135
2917.003982 0.5140 0.5273 0.5413 0.5552 0.5691
2920.453958 0.5759 0.5827 0.5896 0.5960 0.5968
2923.903934 0.5976 0.5984 0.5990 0.5990 0.5990
2927.353910 0.5990 0.5989 0.5987 0.5984 0.5982
2930.803886 0.5963 0.5900 0.5836 0.5773 0.5732
2934.253863 0.5740 0.5748 0.5755 0.5774 0.5812
2937.703839 0.5850 0.5888 0.5918 0.5939 0.5959
2941.153815 0.5979 0.6005 0.6038 0.6071 0.6104
2944.603791 0.6125 0.6135 0.6146 0.6156 0.6167
2948.053767 0.6180 0.6193 0.6205 0.6221 0.6239
2951.503743 0.6257 0.6275 0.6295 0.6315 0.6335
2954.953719 0.6356 0.6415 0.6486 0.6557 0.6628
2958.403695 0.6684 0.6737 0.6791 0.6844 0.6875
2961.853671 0.6902 0.6930 0.6958 0.6962 0.6965
2965.303647 0.6967 0.6970 0.6972 0.6975 0.6978
2968.753623 0.6980 0.6977 0.6975 0.6972 0.6966
2972.203600 0.6923 0.6880 0.6837 0.6796 0.6765
2975.653576 0.6735 0.6705 0.6675 0.6646 0.6618
2979.103552 0.6590 0.6561 0.6531 0.6500 0.6470
2982.553528 0.6432 0.6379 0.6325 0.6272 0.6240
2986.003504 0.6240 0.6240 0.6240 0.6245 0.6255
2989.453480 0.6265 0.6275 0.6286 0.6299 0.6312
2992.903456 0.6324 0.6337 0.6350 0.6362 0.6375
2996.353432 0.6413 0.6469 0.6525 0.6580 0.6636
2999.803408 0.6692 0.6748 0.6803 0.6852 0.6897
3003.253384 0.6943 0.6989 0.7000 0.7000 0.7000
3006.703360 0.7000 0.6998 0.6995 0.6993 0.6990
3010.153337 0.6951 0.6908 0.6865 0.6822 0.6781
3013.603313 0.6741 0.6700 0.6660 0.6619 0.6579
3017.053289 0.6538 0.6495 0.6409 0.6323 0.6237
3020.503265 0.6156 0.6115 0.6075 0.6034 0.6000
3023.953241 0.6000 0.6000 0.6000 0.6011 0.6064
3027.403217 0.6118 0.6171 0.6219 0.6255 0.6290
3030.853193 0.6326 0.6360 0.6394 0.6427 0.6461
3034.303169 0.6497 0.6538 0.6578 0.6619 0.6639
3037.753145 0.6636 0.6634 0.6631 0.6629 0.6626
3041.203121 0.6624 0.6621 0.6611 0.6596 0.6581
3044.653098 0.6566 0.6489 0.6375 0.6261 0.6147
3048.103074 0.6066 0.6000 0.5934 0.5868 0.5804
3051.553050 0.5741 0.5678 0.5614 0.5551 0.5488
3055.003026 0.5424 0.5361 0.5350 0.5350 0.5350
3058.453002 0.5350 0.5454 0.5572 0.5690 0.5808
3061.902978 0.5870 0.5931 0.5991 0.6052 0.6110
3065.352954 0.6169 0.6227 0.6282 0.6308 0.6333
3068.802930 0.6358 0.6391 0.6472 0.6553 0.6634
3072.252906 0.6710 0.6766 0.6822 0.6878 0.6928
3075.702882 0.6964 0.6999 0.7035 0.7069 0.7099
3079.152858 0.7130 0.7160 0.7187 0.7207 0.7227
3082.602835 0.7248 0.7264 0.7274 0.7284 0.7294
3086.052811 0.7303 0.7311 0.7319 0.7327 0.7331
3089.502787 0.7334 0.7336 0.7339 0.7345 0.7352
3092.952763 0.7360 0.7367 0.7375 0.7383 0.7390
3096.402739 0.7398 0.7409 0.7422 0.7434 0.7447
3099.852715 0.7460 0.7472 0.7485 0.7497 0.7506
3103.302691 0.7514 0.7521 0.7529 0.7558 0.7591
3106.752667 0.7624 0.7657 0.7681 0.7703 0.7726
3110.202643 0.7749 0.7772 0.7795 0.7817 0.7840
3113.652619 0.7863 0.7886 0.7909 0.7933 0.7961
3117.102595 0.7989 0.8017 0.8045 0.8075 0.8106
3120.552572 0.8136 0.8164 0.8182 0.8199 0.8217
3124.002548 0.8235 0.8256 0.8276 0.8296 0.8311
3127.452524 0.8313 0.8316 0.8318 0.8321 0.8323
3130.902500 0.8326 0.8329 0.8332 0.8337 0.8342
3134.352476 0.8347 0.8355 0.8365 0.8375 0.8385
3137.802452 0.8394 0.8402 0.8409 0.8417 0.8423
3141.252428 0.8428 0.8433 0.8438 0.8442 0.8444
3144.702404 0.8447 0.8449 0.8452 0.8454 0.8457
3148.152380 0.8459 0.8464 0.8469 0.8474 0.8479
3151.602356 0.8482 0.8485 0.8487 0.8490 0.8494
3155.052332 0.8500 0.8505 0.8510 0.8512 0.8515
3158.502309 0.8517 0.8520 0.8520 0.8520 0.8520
3161.952285 0.8520 0.8520 0.8520 0.8520 0.8520
3165.402261 0.8520 0.8520 0.8520 0.8520 0.8520
3168.852237 0.8520 0.8520 0.8520 0.8520 0.8520
3172.302213 0.8520 0.8520 0.8520 0.8520 0.8520
3175.752189 0.8520 0.8520 0.8520 0.8520 0.8520
3179.202165 0.8520 0.8520 0.8520 0.8520 0.8520
3182.652141 0.8520 0.8520 0.8520 0.8520 0.8520
3186.102117 0.8520 0.8520 0.8520 0.8520 0.8520
3189.552093 0.8520 0.8520 0.8520 0.8520 0.8520
3193.002069 0.8520 0.8520 0.8520 0.8518 0.8516
3196.452046 0.8513 0.8511 0.8510 0.8510 0.8510
3199.902022 0.8510 0.8510 0.8510 0.8510 0.8510
3203.351998 0.8508 0.8505 0.8503 0.8500 0.8500
3206.801974 0.8500 0.8500 0.8500 0.8500 0.8500
3210.251950 0.8500 0.8500 0.8497 0.8495 0.8492
3213.701926 0.8490 0.8490 0.8490 0.8490 0.8490
3217.151902 0.8490 0.8490 0.8490 0.8490 0.8490
3220.601878 0.8490 0.8490 0.8490 0.8490 0.8490
3224.051854 0.8490 0.8488 0.8483 0.8478 0.8473
3227.501830 0.8470 0.8470 0.8470 0.8470 0.8469
3230.951807 0.8466 0.8464 0.8461 0.8460 0.8460
3234.401783 0.8460 0.8460 0.8459 0.8456 0.8454
3237.851759 0.8451 0.8450 0.8450 0.8450 0.8450
3241.301735 0.8448 0.8446 0.8443 0.8441 0.8438
3244.751711 0.8436 0.8433 0.8431 0.8430 0.8430
3248.201687 0.8430 0.8430 0.8428 0.8425 0.8423
3251.651663 0.8420 0.8420 0.8420 0.8420 0.8420
3255.101639 0.8418 0.8415 0.8412 0.8410 0.8405
3258.551615 0.8400 0.8395 0.8390 0.8387 0.8385
3262.001591 0.8382 0.8379 0.8374 0.8369 0.8364
3265.451567 0.8359 0.8354 0.8349 0.8344 0.8339
3268.901544 0.8334 0.8329 0.8324 0.8319 0.8313
3272.351520 0.8308 0.8303 0.8297 0.8290 0.8282
3275.801496 0.8275 0.8267 0.8259 0.8252 0.8244
3279.251472 0.8238 0.8232 0.8227 0.8222 0.8216
3282.701448 0.8208 0.8201 0.8193 0.8185 0.8178
3286.151424 0.8170 0.8163 0.8157 0.8152 0.8147
3289.601400 0.8142 0.8135 0.8127 0.8120 0.8112
3293.051376 0.8104 0.8097 0.8089 0.8082 0.8072
3296.501352 0.8062 0.8052 0.8042 0.8031 0.8021
3299.951328 0.8011 0.8001 0.7989 0.7976 0.7963
3303.401304 0.7951 0.7940 0.7930 0.7920 0.7909
3306.851281 0.7897 0.7884 0.7871 0.7859 0.7849
3310.301257 0.7839 0.7829 0.7818 0.7808 0.7798
3313.751233 0.7788 0.7778 0.7771 0.7763 0.7756
3317.201209 0.7748 0.7740 0.7733 0.7725 0.7711
3320.651185 0.7684 0.7656 0.7628 0.7594 0.7551
3324.101161 0.7508 0.7465 0.7435 0.7422 0.7409
3327.551137 0.7397 0.7383 0.7368 0.7353 0.7337
3331.001113 0.7326 0.7318 0.7311 0.7303 0.7294
3334.451089 0.7284 0.7273 0.7263 0.7253 0.7243
3337.901065 0.7233 0.7223 0.7211 0.7198 0.7186
3341.351041 0.7173 0.7158 0.7143 0.7128 0.7113
3344.801018 0.7095 0.7078 0.7060 0.7042 0.7027
3348.250994 0.7012 0.6996 0.6981 0.6968 0.6956
3351.700970 0.6943 0.6930 0.6915 0.6900 0.6885
3355.150946 0.6870 0.6857 0.6844 0.6832 0.6818
3358.600922 0.6798 0.6777 0.6757 0.6735 0.6710
3362.050898 0.6685 0.6659 0.6633 0.6606 0.6578
3365.500874 0.6550 0.6521 0.6491 0.6461 0.6430
3368.950850 0.6388 0.6322 0.6256 0.6190 0.6138
3372.400826 0.6108 0.6077 0.6047 0.6018 0.5990
3375.850802 0.5962 0.5934 0.5908 0.5882 0.5857
3379.300779 0.5832 0.5813 0.5800 0.5788 0.5775
3382.750755 0.5757 0.5734 0.5711 0.5688 0.5657
3386.200731 0.5621 0.5585 0.5549 0.5523 0.5500
3389.650707 0.5477 0.5455 0.5434 0.5414 0.5393
3393.100683 0.5373 0.5254 0.5117 0.4980 0.4844
3396.550659 0.4791 0.4748 0.4705 0.4662 0.4602
3400.000635 0.4541 0.4481 0.4420 0.4362 0.4303
3403.450611 0.4245 0.4183 0.4054 0.3925 0.3796
3406.900587 0.3673 0.3607 0.3541 0.3476 0.3411
3410.350563 0.3350 0.3289 0.3228 0.3179 0.3177
3413.800539 0.3174 0.3172 0.3171 0.3173 0.3176
3417.250516 0.3178 0.3196 0.3242 0.3288 0.3333
3420.700492 0.3377 0.3417 0.3458 0.3498 0.3541
3424.150468 0.3587 0.3632 0.3678 0.3731 0.3792
3427.600444 0.3853 0.3914 0.3972 0.4027 0.4083
3431.050420 0.4139 0.4219 0.4316 0.4412 0.4508
3434.500396 0.4596 0.4679 0.4763 0.4846 0.4928
3437.950372 0.5009 0.5090 0.5171 0.5316 0.5481
3441.400348 0.5645 0.5809 0.5894 0.5968 0.6041
3444.850324 0.6115 0.6188 0.6261 0.6335 0.6408
3448.300300 0.6489 0.6570 0.6651 0.6732 0.6813
3451.750276 0.6894 0.6975 0.7055 0.7124 0.7192
3455.200253 0.7260 0.7324 0.7354 0.7385 0.7415
3458.650229 0.7445 0.7476 0.7506 0.7537 0.7569
3462.100205 0.7610 0.7650 0.7691 0.7729 0.7759
3465.550181 0.7789 0.7820 0.7843 0.7850 0.7858
3469.000157 0.7866 0.7878 0.7895 0.7913 0.7931
3472.450133 0.7949 0.7966 0.7984 0.8002 0.8017
3475.900109 0.8029 0.8042 0.8055 0.8066 0.8076
3479.350085 0.8086 0.8096 0.8106 0.8117 0.8127
3482.800061 0.8137 0.8145 0.8153 0.8160 0.8168
3486.250037 0.8174 0.8179 0.8184 0.8189 0.8194
3489.700013 0.8199 0.8204 0.8209 0.8214 0.8219
3493.149990 0.8224 0.8229 0.8235 0.8240 0.8245
3496.599966 0.8250 0.8253 0.8255 0.8258 0.8260
3500.049942 0.8265 0.8270 0.8275 0.8281 0.8286
3503.499918 0.8291 0.8296 0.8301 0.8309 0.8316
3506.949894 0.8324 0.8331 0.8336 0.8341 0.8346
3510.399870 0.8350 0.8350 0.8350 0.8350 0.8351
3513.849846 0.8353 0.8356 0.8358 0.8360 0.8360
3517.299822 0.8360 0.8360 0.8360 0.8360 0.8360
3520.749798 0.8360 0.8362 0.8367 0.8373 0.8378
3524.199774 0.8381 0.8384 0.8386 0.8389 0.8390
3527.649750 0.8390 0.8390 0.8390 0.8393 0.8398
3531.099727 0.8404 0.8409 0.8414 0.8419 0.8424
3534.549703 0.8429 0.8434 0.8439 0.8444 0.8449
3537.999679 0.8452 0.8455 0.8457 0.8460 0.8462
3541.449655 0.8465 0.8467 0.8470 0.8475 0.8480
3544.899631 0.8485 0.8490 0.8490 0.8490 0.8490
3548.349607 0.8490 0.8495 0.8500 0.8506 0.8510
3551.799583 0.8513 0.8515 0.8518 0.8521 0.8526
3555.249559 0.8531 0.8536 0.8541 0.8543 0.8546
3558.699535 0.8548 0.8550 0.8550 0.8550 0.8550
3562.149511 0.8551 0.8553 0.8556 0.8558 0.8561
3565.599488 0.8564 0.8566 0.8569 0.8570 0.8570
3569.049464 0.8570 0.8570 0.8571 0.8574 0.8576
3572.499440 0.8579 0.8580 0.8580 0.8580 0.8580
3575.949416 0.8580 0.8580 0.8580 0.8580 0.8580
3579.399392 0.8580 0.8580 0.8580 0.8580 0.8580
3582.849368 0.8580 0.8580 0.8580 0.8580 0.8580
3586.299344 0.8580 0.8580 0.8580 0.8580 0.8580
3589.749320 0.8580 0.8580 0.8580 0.8580 0.8580
3593.199296 0.8580 0.8580 0.8580 0.8580 0.8580
3596.649272 0.8580 0.8580 0.8580 0.8580 0.8580
3600.099248 0.8580 0.8580 0.8580 0.8580 0.8580
3603.549225 0.8580 0.8580 0.8580 0.8580 0.8580
3606.999201 0.8580 0.8580 0.8580 0.8580 0.8580
3610.449177 0.8580 0.8579 0.8577 0.8574 0.8571
3613.899153 0.8569 0.8566 0.8564 0.8561 0.8560
3617.349129 0.8560 0.8560 0.8560 0.8561 0.8564
3620.799105 0.8566 0.8569 0.8569 0.8566 0.8564
3624.249081 0.8561 0.8558 0.8556 0.8553 0.8551
3627.699057 0.8550 0.8550 0.8550 0.8550 0.8550
3631.149033 0.8550 0.8550 0.8550 0.8550 0.8550
3634.599009 0.8550 0.8550 0.8548 0.8545 0.8543
3638.048985 0.8540 0.8540 0.8540 0.8540 0.8540
3641.498962 0.8540 0.8540 0.8540 0.8540 0.8540
3644.948938 0.8540 0.8540 0.8540 0.8540 0.8540
3648.398914 0.8540 0.8540 0.8543 0.8545 0.8548
3651.848890 0.8550 0.8550 0.8550 0.8550 0.8550
3655.298866 0.8550 0.8550 0.8550 0.8550 0.8550
3658.748842 0.8550 0.8550 0.8551 0.8554 0.8556
3662.198818 0.8559 0.8560 0.8560 0.8560 0.8560
3665.648794 0.8561 0.8564 0.8566 0.8569 0.8570
3669.098770 0.8570 0.8570 0.8570 0.8571 0.8574
3672.548746 0.8577 0.8579 0.8582 0.8584 0.8587
3675.998722 0.8589 0.8592 0.8594 0.8597 0.8599
3679.448699 0.8602 0.8604 0.8607 0.8609 0.8612
3682.898675 0.8615 0.8617 0.8620 0.8622 0.8625
3686.348651 0.8627 0.8630 0.8632 0.8635 0.8637
3689.798627 0.8640 0.8640 0.8640 0.8640 0.8640
3693.248603 0.8643 0.8645 0.8648 0.8650 0.8650
3696.698579 0.8650 0.8650 0.8650 0.8653 0.8655
3700.148555 0.8658 0.8660 0.8660 0.8660 0.8660
3703.598531 0.8661 0.8663 0.8666 0.8668 0.8671
3707.048507 0.8673 0.8676 0.8678 0.8680 0.8680
3710.498483 0.8680 0.8680 0.8680 0.8680 0.8680
3713.948459 0.8680 0.8680 0.8680 0.8680 0.8680
3717.398436 0.8681 0.8684 0.8686 0.8689 0.8690
3720.848412 0.8690 0.8690 0.8690 0.8690 0.8690
3724.298388 0.8690 0.8690 0.8690 0.8690 0.8690
3727.748364 0.8690 0.8690 0.8690 0.8690 0.8690
3731.198340 0.8688 0.8685 0.8683 0.8680 0.8680
3734.648316 0.8680 0.8680 0.8680 0.8680 0.8680
3738.098292 0.8680 0.8680 0.8680 0.8680 0.8680
3741.548268 0.8680 0.8680 0.8680 0.8680 0.8680
3744.998244 0.8680 0.8680 0.8680 0.8680 0.8680
3748.448220 0.8680 0.8680 0.8680 0.8680 0.8680
3751.898197 0.8680 0.8680 0.8680 0.8680 0.8680
3755.348173 0.8680 0.8680 0.8680 0.8680 0.8679
3758.798149 0.8677 0.8674 0.8671 0.8670 0.8670
3762.248125 0.8670 0.8670 0.8669 0.8666 0.8664
3765.698101 0.8661 0.8659 0.8656 0.8654 0.8651
3769.148077 0.8650 0.8650 0.8650 0.8650 0.8650
3772.598053 0.8650 0.8650 0.8650 0.8650 0.8650
3776.048029 0.8650 0.8650 0.8648 0.8645 0.8643
3779.498005 0.8640 0.8640 0.8640 0.8640 0.8640
3782.947981 0.8638 0.8635 0.8633 0.8630 0.8630
3786.397957 0.8630 0.8630 0.8630 0.8630 0.8630
3789.847934 0.8630 0.8630 0.8627 0.8625 0.8622
3793.297910 0.8620 0.8620 0.8620 0.8620 0.8620
3796.747886 0.8620 0.8620 0.8620 0.8620 0.8620
3800.197862 0.8620 0.8620 0.8620 0.8620 0.8620
3803.647838 0.8620 0.8619 0.8617 0.8614 0.8611
3807.097814 0.8610 0.8610 0.8610 0.8610 0.8609
3810.547790 0.8606 0.8604 0.8601 0.8600 0.8600
3813.997766 0.8600 0.8600 0.8599 0.8596 0.8594
3817.447742 0.8591 0.8588 0.8586 0.8583 0.8581
3820.897718 0.8580 0.8580 0.8580 0.8580 0.8580
3824.347694 0.8580 0.8580 0.8580 0.8578 0.8575
3827.797671 0.8573 0.8570 0.8570 0.8570 0.8570
3831.247647 0.8570 0.8570 0.8570 0.8570 0.8570
3834.697623 0.8568 0.8565 0.8562 0.8560 0.8560
3838.147599 0.8560 0.8560 0.8560 0.8557 0.8555
3841.597575 0.8552 0.8550 0.8550 0.8550 0.8550
3845.047551 0.8550 0.8550 0.8550 0.8550 0.8550
3848.497527 0.8550 0.8550 0.8550 0.8549 0.8547
3851.947503 0.8544 0.8542 0.8540 0.8540 0.8540
3855.397479 0.8540 0.8540 0.8540 0.8540 0.8540
3858.847455 0.8540 0.8540 0.8540 0.8540 0.8541
3862.297431 0.8544 0.8546 0.8549 0.8550 0.8550
3865.747408 0.8550 0.8550 0.8550 0.8550 0.8550
3869.197384 0.8550 0.8550 0.8550 0.8550 0.8550
3872.647360 0.8550 0.8550 0.8550 0.8550 0.8550
3876.097336 0.8550 0.8550 0.8550 0.8550 0.8550
3879.547312 0.8550 0.8550 0.8550 0.8550 0.8550
3882.997288 0.8550 0.8550 0.8550 0.8550 0.8550
3886.447264 0.8550 0.8550 0.8550 0.8550 0.8553
3889.897240 0.8555 0.8558 0.8560 0.8560 0.8560
3893.347216 0.8560 0.8560 0.8560 0.8560 0.8560
3896.797192 0.8560 0.8560 0.8560 0.8560 0.8560
3900.247168 0.8560 0.8560 0.8560 0.8560 0.8560
3903.697145 0.8560 0.8560 0.8560 0.8560 0.8560
3907.147121 0.8560 0.8560 0.8560 0.8560 0.8560
3910.597097 0.8560 0.8560 0.8560 0.8560 0.8560
3914.047073 0.8560 0.8560 0.8560 0.8560 0.8560
3917.497049 0.8560 0.8560 0.8560 0.8560 0.8560
3920.947025 0.8560 0.8558 0.8556 0.8553 0.8550
3924.397001 0.8550 0.8550 0.8550 0.8550 0.8550
3927.846977 0.8550 0.8550 0.8550 0.8550 0.8550
3931.296953 0.8550 0.8550 0.8550 0.8550 0.8550
3934.746929 0.8550 0.8550 0.8550 0.8550 0.8550
3938.196906 0.8550 0.8550 0.8550 0.8550 0.8547
3941.646882 0.8545 0.8542 0.8540 0.8540 0.8540
3945.096858 0.8540 0.8539 0.8537 0.8534 0.8532
3948.546834 0.8530 0.8530 0.8530 0.8530 0.8530
3951.996810 0.8530 0.8530 0.8530 0.8529 0.8526
3955.446786 0.8524 0.8521 0.8520 0.8520 0.8520
3958.896762 0.8520 0.8520 0.8520 0.8520 0.8520
3962.346738 0.8520 0.8520 0.8520 0.8520 0.8518
3965.796714 0.8516 0.8513 0.8511 0.8508 0.8506
3969.246690 0.8503 0.8501
##END=
