##TITLE=1-CYCLOHEXENE, 4-VINYL-
##JCAMP-DX=4.24
$$ By DXEDIT 1.05 (RS McDonald)
##DATA TYPE=INFRARED SPECTRUM
##CLASS=COBLENTZ II
##ORIGIN=PERKIN-ELMER CORP. (R. HANNAH)
##OWNER=COBLENTZ SOC.
Collection (C) 2018 copyright by the U.S. Secretary of Commerce
on behalf of the United States of America. All rights reserved.
##DATE=1969/01/26
##NAMES=4-vinyl-1-cyclohexene
##CAS REGISTRY NO=100-40-3
##MOLFORM=C8 H12
##SOURCE REFERENCE=COBLENTZ NO. 06012
##$NIST SOURCE=COBLENTZ
##$NIST IMAGE=cob6012
##SPECTROMETER/DATA SYSTEM=PERKIN-ELMER 621 (GRATING)
##INSTRUMENT PARAMETERS=GRATING CHANGE AT 623; ORDER CHANGE AT 2000. FILTERS AT 3146, 2494, 2000, 1146, 698, 497 CM^-^1
##STATE=LIQUID (NEAT)
$$ 99.7% PURE
##PATH LENGTH=0.0015 CM (CsBr WINDOWS VS CsBr WINDOW; DEMOUNTABLE WINDOWS)
##SAMPLING PROCEDURE=TRANSMISSION
##RESOLUTION=2
##DATA PROCESSING=DIGITIZED BY COBLENTZ SOCIETY (BATCH I) FROM HARD COPY
##XUNITS=1/CM
##YUNITS=TRANSMITTANCE
##XLABEL=Wavenumbers (cm-1)
##YLABEL=Transmittance
##XFACTOR=1
##YFACTOR=1
##DELTAX=1
##FIRSTX=4000
##LASTX=244
##FIRSTY=0.8758
##MAXX=4000
##MINX=244
##MAXY=0.8831
##MINY=0.0209
##NPOINTS=3757
##XYDATA=(X++(Y..Y))
4000.000000 0.8758 0.8757 0.8757 0.8757 0.8757
3995.000000 0.8757 0.8757 0.8757 0.8757 0.8756
3990.000000 0.8756 0.8756 0.8756 0.8756 0.8756
3985.000000 0.8756 0.8756 0.8756 0.8756 0.8755
3980.000000 0.8755 0.8755 0.8755 0.8755 0.8755
3975.000000 0.8755 0.8755 0.8754 0.8754 0.8754
3970.000000 0.8754 0.8754 0.8754 0.8754 0.8754
3965.000000 0.8754 0.8754 0.8754 0.8755 0.8756
3960.000000 0.8757 0.8758 0.8759 0.8760 0.8761
3955.000000 0.8762 0.8763 0.8764 0.8765 0.8765
3950.000000 0.8766 0.8767 0.8768 0.8768 0.8770
3945.000000 0.8771 0.8771 0.8773 0.8774 0.8774
3940.000000 0.8775 0.8775 0.8777 0.8777 0.8777
3935.000000 0.8777 0.8775 0.8775 0.8775 0.8774
3930.000000 0.8774 0.8773 0.8773 0.8771 0.8771
3925.000000 0.8770 0.8770 0.8768 0.8768 0.8768
3920.000000 0.8767 0.8766 0.8766 0.8765 0.8765
3915.000000 0.8764 0.8763 0.8762 0.8762 0.8761
3910.000000 0.8761 0.8760 0.8760 0.8760 0.8760
3905.000000 0.8760 0.8760 0.8760 0.8761 0.8761
3900.000000 0.8761 0.8761 0.8761 0.8761 0.8761
3895.000000 0.8761 0.8761 0.8761 0.8762 0.8762
3890.000000 0.8762 0.8762 0.8762 0.8762 0.8762
3885.000000 0.8762 0.8762 0.8762 0.8763 0.8763
3880.000000 0.8763 0.8764 0.8766 0.8767 0.8768
3875.000000 0.8768 0.8771 0.8771 0.8774 0.8775
3870.000000 0.8775 0.8777 0.8778 0.8780 0.8782
3865.000000 0.8783 0.8784 0.8785 0.8787 0.8788
3860.000000 0.8790 0.8791 0.8793 0.8794 0.8795
3855.000000 0.8795 0.8796 0.8797 0.8798 0.8798
3850.000000 0.8799 0.8799 0.8800 0.8800 0.8801
3845.000000 0.8801 0.8802 0.8802 0.8803 0.8803
3840.000000 0.8804 0.8804 0.8805 0.8806 0.8807
3835.000000 0.8807 0.8808 0.8808 0.8809 0.8809
3830.000000 0.8810 0.8810 0.8811 0.8811 0.8812
3825.000000 0.8812 0.8813 0.8814 0.8815 0.8815
3820.000000 0.8816 0.8816 0.8816 0.8816 0.8816
3815.000000 0.8816 0.8816 0.8816 0.8816 0.8816
3810.000000 0.8816 0.8816 0.8816 0.8816 0.8816
3805.000000 0.8816 0.8816 0.8816 0.8816 0.8816
3800.000000 0.8816 0.8816 0.8816 0.8816 0.8816
3795.000000 0.8816 0.8816 0.8816 0.8816 0.8816
3790.000000 0.8816 0.8816 0.8816 0.8816 0.8816
3785.000000 0.8816 0.8816 0.8816 0.8816 0.8816
3780.000000 0.8816 0.8816 0.8816 0.8816 0.8816
3775.000000 0.8816 0.8816 0.8816 0.8816 0.8816
3770.000000 0.8817 0.8817 0.8817 0.8817 0.8817
3765.000000 0.8817 0.8817 0.8817 0.8818 0.8818
3760.000000 0.8818 0.8818 0.8818 0.8818 0.8818
3755.000000 0.8818 0.8818 0.8818 0.8818 0.8818
3750.000000 0.8818 0.8818 0.8820 0.8820 0.8820
3745.000000 0.8820 0.8820 0.8820 0.8821 0.8821
3740.000000 0.8821 0.8821 0.8821 0.8821 0.8821
3735.000000 0.8821 0.8821 0.8821 0.8821 0.8821
3730.000000 0.8821 0.8821 0.8823 0.8823 0.8823
3725.000000 0.8823 0.8823 0.8823 0.8823 0.8823
3720.000000 0.8823 0.8823 0.8824 0.8824 0.8824
3715.000000 0.8824 0.8824 0.8824 0.8824 0.8824
3710.000000 0.8824 0.8824 0.8825 0.8825 0.8825
3705.000000 0.8825 0.8825 0.8825 0.8825 0.8825
3700.000000 0.8825 0.8825 0.8825 0.8825 0.8825
3695.000000 0.8825 0.8825 0.8825 0.8825 0.8825
3690.000000 0.8827 0.8827 0.8827 0.8827 0.8827
3685.000000 0.8827 0.8827 0.8827 0.8827 0.8827
3680.000000 0.8828 0.8828 0.8828 0.8828 0.8828
3675.000000 0.8828 0.8828 0.8828 0.8828 0.8828
3670.000000 0.8828 0.8828 0.8828 0.8828 0.8828
3665.000000 0.8828 0.8828 0.8828 0.8828 0.8828
3660.000000 0.8828 0.8828 0.8828 0.8828 0.8828
3655.000000 0.8827 0.8827 0.8827 0.8827 0.8827
3650.000000 0.8827 0.8827 0.8827 0.8827 0.8827
3645.000000 0.8825 0.8825 0.8825 0.8825 0.8825
3640.000000 0.8825 0.8825 0.8825 0.8825 0.8825
3635.000000 0.8825 0.8825 0.8825 0.8825 0.8825
3630.000000 0.8825 0.8825 0.8825 0.8825 0.8825
3625.000000 0.8825 0.8825 0.8824 0.8824 0.8824
3620.000000 0.8824 0.8824 0.8825 0.8825 0.8825
3615.000000 0.8825 0.8825 0.8825 0.8825 0.8825
3610.000000 0.8825 0.8825 0.8825 0.8825 0.8825
3605.000000 0.8825 0.8825 0.8825 0.8825 0.8825
3600.000000 0.8827 0.8827 0.8827 0.8827 0.8827
3595.000000 0.8827 0.8827 0.8827 0.8827 0.8827
3590.000000 0.8828 0.8828 0.8828 0.8828 0.8828
3585.000000 0.8828 0.8828 0.8828 0.8828 0.8828
3580.000000 0.8828 0.8828 0.8828 0.8828 0.8828
3575.000000 0.8828 0.8828 0.8828 0.8830 0.8830
3570.000000 0.8830 0.8830 0.8830 0.8830 0.8830
3565.000000 0.8830 0.8830 0.8830 0.8831 0.8831
3560.000000 0.8831 0.8830 0.8830 0.8830 0.8830
3555.000000 0.8830 0.8830 0.8830 0.8830 0.8828
3550.000000 0.8828 0.8828 0.8828 0.8828 0.8828
3545.000000 0.8828 0.8828 0.8828 0.8828 0.8828
3540.000000 0.8828 0.8828 0.8828 0.8828 0.8828
3535.000000 0.8827 0.8827 0.8827 0.8827 0.8827
3530.000000 0.8827 0.8827 0.8827 0.8825 0.8825
3525.000000 0.8825 0.8825 0.8825 0.8825 0.8825
3520.000000 0.8825 0.8825 0.8825 0.8825 0.8825
3515.000000 0.8825 0.8825 0.8825 0.8825 0.8824
3510.000000 0.8824 0.8824 0.8824 0.8824 0.8824
3505.000000 0.8824 0.8824 0.8823 0.8823 0.8823
3500.000000 0.8823 0.8823 0.8823 0.8823 0.8823
3495.000000 0.8821 0.8821 0.8821 0.8821 0.8821
3490.000000 0.8821 0.8821 0.8821 0.8821 0.8821
3485.000000 0.8820 0.8820 0.8820 0.8820 0.8818
3480.000000 0.8818 0.8818 0.8818 0.8818 0.8818
3475.000000 0.8818 0.8818 0.8818 0.8818 0.8817
3470.000000 0.8817 0.8817 0.8817 0.8816 0.8816
3465.000000 0.8816 0.8816 0.8815 0.8815 0.8815
3460.000000 0.8815 0.8814 0.8814 0.8814 0.8814
3455.000000 0.8814 0.8814 0.8813 0.8813 0.8813
3450.000000 0.8813 0.8812 0.8812 0.8812 0.8812
3445.000000 0.8811 0.8811 0.8811 0.8811 0.8811
3440.000000 0.8811 0.8811 0.8812 0.8812 0.8813
3435.000000 0.8813 0.8814 0.8814 0.8815 0.8815
3430.000000 0.8816 0.8816 0.8816 0.8816 0.8817
3425.000000 0.8817 0.8818 0.8818 0.8818 0.8818
3420.000000 0.8820 0.8820 0.8821 0.8821 0.8821
3415.000000 0.8821 0.8821 0.8821 0.8823 0.8823
3410.000000 0.8824 0.8824 0.8825 0.8825 0.8825
3405.000000 0.8825 0.8827 0.8827 0.8828 0.8828
3400.000000 0.8828 0.8828 0.8828 0.8828 0.8828
3395.000000 0.8828 0.8828 0.8828 0.8828 0.8828
3390.000000 0.8828 0.8828 0.8828 0.8828 0.8830
3385.000000 0.8830 0.8830 0.8830 0.8830 0.8830
3380.000000 0.8830 0.8830 0.8830 0.8830 0.8831
3375.000000 0.8831 0.8831 0.8831 0.8831 0.8831
3370.000000 0.8831 0.8831 0.8831 0.8831 0.8831
3365.000000 0.8830 0.8828 0.8828 0.8828 0.8827
3360.000000 0.8827 0.8825 0.8825 0.8825 0.8824
3355.000000 0.8823 0.8823 0.8821 0.8821 0.8821
3350.000000 0.8821 0.8820 0.8818 0.8818 0.8818
3345.000000 0.8817 0.8817 0.8816 0.8816 0.8816
3340.000000 0.8816 0.8815 0.8815 0.8815 0.8815
3335.000000 0.8814 0.8814 0.8813 0.8813 0.8813
3330.000000 0.8813 0.8812 0.8812 0.8811 0.8811
3325.000000 0.8811 0.8811 0.8810 0.8810 0.8809
3320.000000 0.8809 0.8807 0.8806 0.8803 0.8801
3315.000000 0.8798 0.8795 0.8791 0.8787 0.8782
3310.000000 0.8777 0.8771 0.8768 0.8763 0.8758
3305.000000 0.8750 0.8742 0.8731 0.8721 0.8710
3300.000000 0.8699 0.8688 0.8677 0.8667 0.8657
3295.000000 0.8649 0.8642 0.8643 0.8645 0.8647
3290.000000 0.8649 0.8651 0.8653 0.8655 0.8657
3285.000000 0.8660 0.8664 0.8667 0.8671 0.8674
3280.000000 0.8677 0.8678 0.8682 0.8685 0.8688
3275.000000 0.8690 0.8693 0.8696 0.8699 0.8702
3270.000000 0.8705 0.8707 0.8710 0.8713 0.8716
3265.000000 0.8717 0.8718 0.8720 0.8721 0.8723
3260.000000 0.8725 0.8725 0.8727 0.8728 0.8730
3255.000000 0.8731 0.8733 0.8734 0.8736 0.8737
3250.000000 0.8738 0.8739 0.8741 0.8742 0.8744
3245.000000 0.8745 0.8746 0.8747 0.8749 0.8750
3240.000000 0.8752 0.8753 0.8754 0.8755 0.8756
3235.000000 0.8757 0.8759 0.8760 0.8761 0.8762
3230.000000 0.8763 0.8764 0.8766 0.8767 0.8768
3225.000000 0.8768 0.8770 0.8771 0.8773 0.8774
3220.000000 0.8775 0.8775 0.8777 0.8778 0.8780
3215.000000 0.8781 0.8781 0.8781 0.8781 0.8780
3210.000000 0.8780 0.8778 0.8778 0.8778 0.8778
3205.000000 0.8777 0.8777 0.8775 0.8775 0.8775
3200.000000 0.8775 0.8774 0.8774 0.8773 0.8773
3195.000000 0.8771 0.8771 0.8771 0.8771 0.8771
3190.000000 0.8771 0.8771 0.8771 0.8771 0.8771
3185.000000 0.8771 0.8773 0.8773 0.8774 0.8774
3180.000000 0.8774 0.8773 0.8771 0.8771 0.8770
3175.000000 0.8768 0.8768 0.8766 0.8764 0.8762
3170.000000 0.8760 0.8758 0.8756 0.8754 0.8752
3165.000000 0.8750 0.8748 0.8746 0.8744 0.8742
3160.000000 0.8740 0.8738 0.8736 0.8733 0.8730
3155.000000 0.8725 0.8723 0.8718 0.8715 0.8710
3150.000000 0.8706 0.8701 0.8696 0.8690 0.8685
3145.000000 0.8678 0.8674 0.8668 0.8664 0.8658
3140.000000 0.8653 0.8647 0.8642 0.8636 0.8631
3135.000000 0.8625 0.8620 0.8614 0.8609 0.8603
3130.000000 0.8598 0.8590 0.8582 0.8573 0.8565
3125.000000 0.8556 0.8548 0.8539 0.8531 0.8518
3120.000000 0.8507 0.8494 0.8482 0.8468 0.8457
3115.000000 0.8444 0.8432 0.8415 0.8399 0.8378
3110.000000 0.8357 0.8336 0.8315 0.8290 0.8265
3105.000000 0.8228 0.8194 0.8135 0.8076 0.7996
3100.000000 0.7915 0.7658 0.7401 0.7195 0.6990
3095.000000 0.6951 0.6911 0.6868 0.6826 0.6783
3090.000000 0.6740 0.6151 0.5562 0.5285 0.5008
3085.000000 0.4730 0.4452 0.4181 0.3907 0.3912
3080.000000 0.3914 0.3943 0.3971 0.4064 0.4157
3075.000000 0.4250 0.4344 0.4437 0.4531 0.4560
3070.000000 0.4589 0.4614 0.4640 0.4672 0.4704
3065.000000 0.4736 0.4769 0.4962 0.5156 0.5382
3060.000000 0.5608 0.5834 0.6060 0.6286 0.6511
3055.000000 0.6534 0.6557 0.6568 0.6582 0.6587
3050.000000 0.6598 0.6592 0.6593 0.6588 0.6583
3045.000000 0.6524 0.6465 0.6404 0.6344 0.6171
3040.000000 0.5999 0.5628 0.5257 0.4886 0.4515
3035.000000 0.4144 0.3773 0.3402 0.3031 0.2660
3030.000000 0.2289 0.1918 0.1546 0.1176 0.0805
3025.000000 0.0736 0.0660 0.0855 0.1042 0.1325
3020.000000 0.1607 0.1889 0.2172 0.2454 0.2737
3015.000000 0.3019 0.3302 0.3584 0.3866 0.4149
3010.000000 0.4432 0.4484 0.4558 0.4527 0.4518
3005.000000 0.4417 0.4316 0.4215 0.4114 0.4112
3000.000000 0.4068 0.4137 0.4162 0.4175 0.4188
2995.000000 0.4201 0.4214 0.4220 0.4226 0.4232
2990.000000 0.4238 0.4243 0.4249 0.4252 0.4264
2985.000000 0.4220 0.4186 0.4080 0.3977 0.3873
2980.000000 0.3768 0.3664 0.3559 0.3455 0.3350
2975.000000 0.3278 0.3188 0.3204 0.3203 0.3289
2970.000000 0.3376 0.3476 0.3576 0.3676 0.3776
2965.000000 0.3876 0.3976 0.4076 0.4177 0.4277
2960.000000 0.4377 0.4477 0.4604 0.4585 0.4594
2955.000000 0.4592 0.4590 0.4412 0.4235 0.4029
2950.000000 0.3823 0.3616 0.3409 0.3204 0.2998
2945.000000 0.2791 0.2584 0.2378 0.2172 0.1966
2940.000000 0.1760 0.1553 0.1346 0.1178 0.1009
2935.000000 0.0963 0.0917 0.0884 0.0851 0.0817
2930.000000 0.0784 0.0750 0.0717 0.0682 0.0647
2925.000000 0.0606 0.0566 0.0521 0.0477 0.0443
2920.000000 0.0410 0.0354 0.0299 0.0280 0.0262
2915.000000 0.0251 0.0241 0.0236 0.0233 0.0232
2910.000000 0.0237 0.0229 0.0228 0.0233 0.0240
2905.000000 0.0267 0.0296 0.0345 0.0394 0.0490
2900.000000 0.0586 0.0712 0.0838 0.0880 0.0922
2895.000000 0.0925 0.0928 0.0931 0.0935 0.0938
2890.000000 0.0941 0.0943 0.0947 0.0954 0.0960
2885.000000 0.0969 0.0978 0.0986 0.0995 0.1004
2880.000000 0.1013 0.1040 0.1067 0.1103 0.1140
2875.000000 0.1186 0.1232 0.1282 0.1332 0.1579
2870.000000 0.1827 0.2103 0.2380 0.2656 0.2933
2865.000000 0.2949 0.2976 0.2965 0.2965 0.2870
2860.000000 0.2775 0.2620 0.2465 0.2329 0.2194
2855.000000 0.2184 0.2168 0.2197 0.2217 0.2273
2850.000000 0.2330 0.2385 0.2494 0.2455 0.2467
2845.000000 0.2353 0.2239 0.2040 0.1842 0.1643
2840.000000 0.1445 0.1246 0.1048 0.0936 0.0825
2835.000000 0.0822 0.0842 0.0818 0.0817 0.1039
2830.000000 0.1261 0.1961 0.2661 0.3360 0.4060
2825.000000 0.4451 0.4841 0.4918 0.4996 0.5501
2820.000000 0.6007 0.6246 0.6486 0.6526 0.6568
2815.000000 0.6633 0.6699 0.6783 0.6867 0.6939
2810.000000 0.7011 0.7071 0.7133 0.7211 0.7291
2805.000000 0.7408 0.7528 0.7585 0.7642 0.7684
2800.000000 0.7726 0.7761 0.7798 0.7828 0.7858
2795.000000 0.7878 0.7899 0.7917 0.7936 0.7950
2790.000000 0.7965 0.7978 0.7992 0.8004 0.8015
2785.000000 0.8026 0.8039 0.8048 0.8057 0.8061
2780.000000 0.8067 0.8069 0.8068 0.8068 0.8064
2775.000000 0.8050 0.8036 0.8018 0.8000 0.7989
2770.000000 0.7978 0.7975 0.7972 0.7972 0.7974
2765.000000 0.7981 0.7988 0.8010 0.8033 0.8061
2760.000000 0.8089 0.8125 0.8164 0.8208 0.8252
2755.000000 0.8278 0.8306 0.8328 0.8351 0.8373
2750.000000 0.8395 0.8408 0.8421 0.8434 0.8446
2745.000000 0.8458 0.8470 0.8477 0.8485 0.8485
2740.000000 0.8485 0.8485 0.8485 0.8485 0.8485
2735.000000 0.8485 0.8485 0.8485 0.8485 0.8484
2730.000000 0.8484 0.8483 0.8483 0.8482 0.8482
2725.000000 0.8481 0.8481 0.8481 0.8481 0.8481
2720.000000 0.8481 0.8480 0.8480 0.8480 0.8480
2715.000000 0.8480 0.8480 0.8478 0.8478 0.8478
2710.000000 0.8478 0.8478 0.8478 0.8478 0.8478
2705.000000 0.8478 0.8478 0.8478 0.8478 0.8477
2700.000000 0.8477 0.8477 0.8477 0.8475 0.8475
2695.000000 0.8475 0.8475 0.8475 0.8475 0.8475
2690.000000 0.8475 0.8474 0.8474 0.8474 0.8474
2685.000000 0.8473 0.8473 0.8473 0.8473 0.8473
2680.000000 0.8473 0.8473 0.8473 0.8471 0.8471
2675.000000 0.8466 0.8461 0.8455 0.8450 0.8438
2670.000000 0.8427 0.8353 0.8280 0.8208 0.8137
2665.000000 0.8124 0.8111 0.8101 0.8093 0.8091
2660.000000 0.8091 0.8091 0.8093 0.8095 0.8098
2655.000000 0.8115 0.8132 0.8158 0.8187 0.8216
2650.000000 0.8246 0.8264 0.8283 0.8292 0.8302
2645.000000 0.8311 0.8321 0.8334 0.8347 0.8362
2640.000000 0.8378 0.8392 0.8406 0.8420 0.8434
2635.000000 0.8444 0.8455 0.8464 0.8473 0.8478
2630.000000 0.8486 0.8492 0.8498 0.8504 0.8510
2625.000000 0.8511 0.8511 0.8511 0.8511 0.8510
2620.000000 0.8510 0.8509 0.8509 0.8509 0.8509
2615.000000 0.8508 0.8507 0.8506 0.8505 0.8504
2610.000000 0.8503 0.8502 0.8501 0.8500 0.8499
2605.000000 0.8499 0.8499 0.8501 0.8503 0.8504
2600.000000 0.8506 0.8508 0.8510 0.8511 0.8513
2595.000000 0.8515 0.8517 0.8518 0.8520 0.8521
2590.000000 0.8524 0.8525 0.8525 0.8527 0.8528
2585.000000 0.8528 0.8531 0.8532 0.8533 0.8534
2580.000000 0.8536 0.8537 0.8538 0.8539 0.8540
2575.000000 0.8541 0.8543 0.8544 0.8545 0.8546
2570.000000 0.8548 0.8549 0.8550 0.8551 0.8553
2565.000000 0.8555 0.8558 0.8560 0.8562 0.8564
2560.000000 0.8567 0.8568 0.8571 0.8573 0.8575
2555.000000 0.8578 0.8580 0.8582 0.8584 0.8586
2550.000000 0.8588 0.8590 0.8592 0.8594 0.8584
2545.000000 0.8598 0.8600 0.8602 0.8604 0.8604
2540.000000 0.8605 0.8605 0.8605 0.8605 0.8605
2535.000000 0.8605 0.8605 0.8605 0.8605 0.8605
2530.000000 0.8606 0.8607 0.8608 0.8608 0.8609
2525.000000 0.8609 0.8610 0.8611 0.8612 0.8612
2520.000000 0.8613 0.8613 0.8614 0.8615 0.8616
2515.000000 0.8617 0.8618 0.8620 0.8621 0.8624
2510.000000 0.8625 0.8628 0.8630 0.8631 0.8633
2505.000000 0.8634 0.8635 0.8636 0.8637 0.8638
2500.000000 0.8639 0.8640 0.8641 0.8642 0.8643
2495.000000 0.8643 0.8643 0.8643 0.8642 0.8640
2490.000000 0.8639 0.8637 0.8635 0.8633 0.8631
2485.000000 0.8628 0.8625 0.8624 0.8621 0.8621
2480.000000 0.8621 0.8621 0.8621 0.8623 0.8624
2475.000000 0.8625 0.8625 0.8627 0.8628 0.8628
2470.000000 0.8630 0.8631 0.8632 0.8633 0.8634
2465.000000 0.8635 0.8636 0.8637 0.8638 0.8639
2460.000000 0.8640 0.8641 0.8642 0.8643 0.8644
2455.000000 0.8645 0.8646 0.8647 0.8648 0.8649
2450.000000 0.8650 0.8651 0.8652 0.8653 0.8654
2445.000000 0.8654 0.8654 0.8653 0.8652 0.8651
2440.000000 0.8651 0.8650 0.8649 0.8648 0.8648
2435.000000 0.8647 0.8646 0.8645 0.8645 0.8644
2430.000000 0.8643 0.8643 0.8643 0.8642 0.8642
2425.000000 0.8642 0.8642 0.8641 0.8641 0.8641
2420.000000 0.8641 0.8640 0.8640 0.8640 0.8640
2415.000000 0.8639 0.8639 0.8639 0.8639 0.8638
2410.000000 0.8638 0.8638 0.8638 0.8637 0.8637
2405.000000 0.8637 0.8637 0.8636 0.8636 0.8635
2400.000000 0.8634 0.8633 0.8632 0.8630 0.8628
2395.000000 0.8628 0.8628 0.8628 0.8628 0.8628
2390.000000 0.8630 0.8630 0.8630 0.8630 0.8631
2385.000000 0.8631 0.8631 0.8631 0.8632 0.8632
2380.000000 0.8632 0.8632 0.8633 0.8633 0.8633
2375.000000 0.8633 0.8634 0.8634 0.8634 0.8634
2370.000000 0.8635 0.8635 0.8635 0.8635 0.8636
2365.000000 0.8636 0.8636 0.8636 0.8637 0.8637
2360.000000 0.8637 0.8637 0.8638 0.8638 0.8638
2355.000000 0.8638 0.8638 0.8638 0.8638 0.8638
2350.000000 0.8638 0.8637 0.8637 0.8637 0.8637
2345.000000 0.8637 0.8637 0.8636 0.8636 0.8636
2340.000000 0.8636 0.8635 0.8635 0.8635 0.8635
2335.000000 0.8635 0.8635 0.8635 0.8635 0.8635
2330.000000 0.8636 0.8636 0.8636 0.8636 0.8636
2325.000000 0.8636 0.8636 0.8636 0.8637 0.8637
2320.000000 0.8637 0.8637 0.8637 0.8637 0.8637
2315.000000 0.8637 0.8638 0.8638 0.8638 0.8638
2310.000000 0.8638 0.8638 0.8639 0.8639 0.8640
2305.000000 0.8640 0.8641 0.8641 0.8641 0.8641
2300.000000 0.8642 0.8642 0.8643 0.8643 0.8644
2295.000000 0.8644 0.8645 0.8645 0.8646 0.8646
2290.000000 0.8647 0.8647 0.8648 0.8648 0.8649
2285.000000 0.8649 0.8649 0.8649 0.8650 0.8650
2280.000000 0.8651 0.8651 0.8651 0.8651 0.8651
2275.000000 0.8650 0.8650 0.8649 0.8649 0.8648
2270.000000 0.8648 0.8647 0.8647 0.8646 0.8646
2265.000000 0.8645 0.8645 0.8643 0.8641 0.8638
2260.000000 0.8635 0.8631 0.8628 0.8625 0.8621
2255.000000 0.8618 0.8615 0.8612 0.8609 0.8605
2250.000000 0.8602 0.8600 0.8599 0.8598 0.8597
2245.000000 0.8595 0.8594 0.8593 0.8592 0.8591
2240.000000 0.8590 0.8589 0.8588 0.8587 0.8587
2235.000000 0.8588 0.8589 0.8590 0.8591 0.8592
2230.000000 0.8593 0.8594 0.8595 0.8596 0.8597
2225.000000 0.8598 0.8599 0.8600 0.8601 0.8602
2220.000000 0.8604 0.8605 0.8606 0.8607 0.8608
2215.000000 0.8609 0.8610 0.8611 0.8612 0.8613
2210.000000 0.8614 0.8615 0.8616 0.8617 0.8618
2205.000000 0.8618 0.8620 0.8621 0.8621 0.8623
2200.000000 0.8624 0.8625 0.8625 0.8627 0.8628
2195.000000 0.8628 0.8630 0.8631 0.8632 0.8633
2190.000000 0.8634 0.8635 0.8636 0.8637 0.8638
2185.000000 0.8639 0.8640 0.8641 0.8642 0.8643
2180.000000 0.8644 0.8645 0.8646 0.8647 0.8648
2175.000000 0.8649 0.8650 0.8651 0.8652 0.8652
2170.000000 0.8653 0.8653 0.8654 0.8654 0.8654
2165.000000 0.8654 0.8654 0.8653 0.8653 0.8653
2160.000000 0.8653 0.8653 0.8653 0.8653 0.8653
2155.000000 0.8652 0.8652 0.8652 0.8652 0.8652
2150.000000 0.8652 0.8652 0.8652 0.8651 0.8651
2145.000000 0.8651 0.8651 0.8651 0.8651 0.8651
2140.000000 0.8651 0.8650 0.8650 0.8650 0.8650
2135.000000 0.8650 0.8650 0.8650 0.8650 0.8650
2130.000000 0.8650 0.8650 0.8650 0.8650 0.8650
2125.000000 0.8650 0.8650 0.8649 0.8649 0.8646
2120.000000 0.8643 0.8640 0.8637 0.8633 0.8628
2115.000000 0.8623 0.8618 0.8612 0.8606 0.8600
2110.000000 0.8595 0.8590 0.8585 0.8586 0.8587
2105.000000 0.8588 0.8590 0.8591 0.8593 0.8594
2100.000000 0.8595 0.8596 0.8598 0.8599 0.8601
2095.000000 0.8602 0.8604 0.8605 0.8607 0.8608
2090.000000 0.8610 0.8611 0.8613 0.8614 0.8616
2085.000000 0.8617 0.8618 0.8620 0.8621 0.8623
2080.000000 0.8625 0.8625 0.8628 0.8628 0.8631
2075.000000 0.8632 0.8634 0.8635 0.8637 0.8639
2070.000000 0.8641 0.8642 0.8643 0.8643 0.8644
2065.000000 0.8644 0.8645 0.8646 0.8647 0.8647
2060.000000 0.8648 0.8649 0.8650 0.8650 0.8651
2055.000000 0.8652 0.8653 0.8653 0.8654 0.8654
2050.000000 0.8655 0.8656 0.8657 0.8657 0.8658
2045.000000 0.8659 0.8660 0.8660 0.8660 0.8660
2040.000000 0.8661 0.8661 0.8662 0.8662 0.8663
2035.000000 0.8663 0.8664 0.8664 0.8665 0.8665
2030.000000 0.8665 0.8665 0.8666 0.8666 0.8666
2025.000000 0.8666 0.8666 0.8665 0.8665 0.8665
2020.000000 0.8665 0.8664 0.8664 0.8664 0.8664
2015.000000 0.8663 0.8663 0.8663 0.8663 0.8662
2010.000000 0.8661 0.8658 0.8655 0.8652 0.8649
2005.000000 0.8646 0.8643 0.8640 0.8638 0.8632
2000.000000 0.8625 0.8620 0.8614 0.8608 0.8602
1995.000000 0.8596 0.8590 0.8585 0.8578 0.8574
1990.000000 0.8568 0.8563 0.8557 0.8552 0.8546
1985.000000 0.8541 0.8535 0.8530 0.8521 0.8514
1980.000000 0.8506 0.8497 0.8489 0.8482 0.8478
1975.000000 0.8473 0.8473 0.8473 0.8475 0.8478
1970.000000 0.8481 0.8483 0.8486 0.8489 0.8492
1965.000000 0.8495 0.8498 0.8500 0.8503 0.8506
1960.000000 0.8509 0.8512 0.8515 0.8517 0.8520
1955.000000 0.8523 0.8525 0.8528 0.8531 0.8531
1950.000000 0.8531 0.8531 0.8531 0.8531 0.8532
1945.000000 0.8532 0.8532 0.8532 0.8532 0.8532
1940.000000 0.8533 0.8533 0.8533 0.8533 0.8533
1935.000000 0.8533 0.8534 0.8534 0.8534 0.8534
1930.000000 0.8535 0.8535 0.8535 0.8535 0.8536
1925.000000 0.8536 0.8536 0.8536 0.8537 0.8537
1920.000000 0.8535 0.8534 0.8532 0.8531 0.8528
1915.000000 0.8527 0.8525 0.8524 0.8523 0.8521
1910.000000 0.8520 0.8518 0.8517 0.8515 0.8513
1905.000000 0.8511 0.8509 0.8507 0.8505 0.8505
1900.000000 0.8505 0.8506 0.8507 0.8508 0.8509
1895.000000 0.8510 0.8511 0.8511 0.8511 0.8511
1890.000000 0.8511 0.8511 0.8511 0.8509 0.8506
1885.000000 0.8503 0.8500 0.8497 0.8494 0.8488
1880.000000 0.8475 0.8463 0.8444 0.8424 0.8403
1875.000000 0.8384 0.8367 0.8349 0.8317 0.8318
1870.000000 0.8325 0.8331 0.8336 0.8342 0.8347
1865.000000 0.8349 0.8350 0.8352 0.8353 0.8355
1860.000000 0.8356 0.8357 0.8359 0.8360 0.8361
1855.000000 0.8362 0.8364 0.8365 0.8366 0.8368
1850.000000 0.8362 0.8355 0.8349 0.8342 0.8335
1845.000000 0.8328 0.8317 0.8306 0.8285 0.8240
1840.000000 0.8188 0.8126 0.8064 0.7945 0.7890
1835.000000 0.7839 0.7787 0.7735 0.7684 0.7641
1830.000000 0.7601 0.7568 0.7537 0.7511 0.7491
1825.000000 0.7486 0.7481 0.7465 0.7475 0.7478
1820.000000 0.7548 0.7641 0.7753 0.7865 0.7925
1815.000000 0.7980 0.8036 0.8076 0.8118 0.8158
1810.000000 0.8190 0.8209 0.8227 0.8246 0.8264
1805.000000 0.8282 0.8300 0.8311 0.8320 0.8328
1800.000000 0.8337 0.8345 0.8352 0.8359 0.8366
1795.000000 0.8371 0.8378 0.8386 0.8391 0.8394
1790.000000 0.8398 0.8402 0.8405 0.8409 0.8413
1785.000000 0.8416 0.8420 0.8423 0.8427 0.8430
1780.000000 0.8433 0.8436 0.8439 0.8442 0.8445
1775.000000 0.8449 0.8452 0.8455 0.8458 0.8460
1770.000000 0.8462 0.8464 0.8467 0.8468 0.8471
1765.000000 0.8473 0.8475 0.8478 0.8480 0.8482
1760.000000 0.8485 0.8487 0.8489 0.8490 0.8491
1755.000000 0.8492 0.8493 0.8494 0.8496 0.8497
1750.000000 0.8498 0.8499 0.8499 0.8498 0.8497
1745.000000 0.8496 0.8499 0.8494 0.8493 0.8493
1740.000000 0.8492 0.8489 0.8486 0.8483 0.8481
1735.000000 0.8478 0.8475 0.8471 0.8468 0.8463
1730.000000 0.8457 0.8450 0.8444 0.8438 0.8425
1725.000000 0.8411 0.8397 0.8383 0.8368 0.8359
1720.000000 0.8350 0.8341 0.8338 0.8338 0.8338
1715.000000 0.8337 0.8337 0.8336 0.8336 0.8335
1710.000000 0.8334 0.8332 0.8330 0.8328 0.8327
1705.000000 0.8325 0.8321 0.8318 0.8315 0.8312
1700.000000 0.8308 0.8302 0.8288 0.8274 0.8249
1695.000000 0.8221 0.8188 0.8153 0.8118 0.8083
1690.000000 0.8072 0.8068 0.8062 0.8061 0.8058
1685.000000 0.8057 0.8056 0.8061 0.8067 0.8071
1680.000000 0.8075 0.8080 0.8080 0.8078 0.8078
1675.000000 0.8076 0.8075 0.8068 0.8061 0.8054
1670.000000 0.8039 0.8025 0.8010 0.7964 0.7911
1665.000000 0.7857 0.7801 0.7681 0.7542 0.7394
1660.000000 0.7294 0.7175 0.7039 0.6937 0.6490
1655.000000 0.6001 0.5512 0.4504 0.4536 0.4582
1650.000000 0.4772 0.4962 0.5153 0.5203 0.4797
1645.000000 0.4446 0.4094 0.3743 0.3392 0.3040
1640.000000 0.2689 0.2525 0.2532 0.2527 0.2562
1635.000000 0.3212 0.3862 0.4512 0.5146 0.6017
1630.000000 0.6567 0.6957 0.7058 0.7122 0.7188
1625.000000 0.7250 0.7299 0.7348 0.7380 0.7401
1620.000000 0.7421 0.7440 0.7456 0.7471 0.7496
1615.000000 0.7528 0.7561 0.7611 0.7674 0.7714
1610.000000 0.7754 0.7794 0.7834 0.7872 0.7895
1605.000000 0.7917 0.7939 0.7961 0.7984 0.8005
1600.000000 0.8026 0.8049 0.8069 0.8092 0.8112
1595.000000 0.8135 0.8153 0.8168 0.8186 0.8205
1590.000000 0.8223 0.8235 0.8240 0.8239 0.8238
1585.000000 0.8236 0.8231 0.8227 0.8221 0.8218
1580.000000 0.8217 0.8216 0.8215 0.8214 0.8213
1575.000000 0.8212 0.8212 0.8217 0.8221 0.8225
1570.000000 0.8231 0.8236 0.8241 0.8246 0.8250
1565.000000 0.8255 0.8260 0.8264 0.8267 0.8268
1560.000000 0.8271 0.8275 0.8277 0.8278 0.8278
1555.000000 0.8278 0.8280 0.8281 0.8282 0.8283
1550.000000 0.8284 0.8284 0.8285 0.8286 0.8288
1545.000000 0.8290 0.8292 0.8294 0.8296 0.8298
1540.000000 0.8300 0.8302 0.8304 0.8306 0.8308
1535.000000 0.8310 0.8312 0.8314 0.8316 0.8318
1530.000000 0.8321 0.8323 0.8325 0.8325 0.8327
1525.000000 0.8328 0.8328 0.8332 0.8336 0.8343
1520.000000 0.8351 0.8387 0.8424 0.8461 0.8497
1515.000000 0.8534 0.8507 0.8486 0.8473 0.8461
1510.000000 0.8454 0.8446 0.8449 0.8474 0.8457
1505.000000 0.8462 0.8467 0.8467 0.8458 0.8450
1500.000000 0.8441 0.8431 0.8420 0.8409 0.8398
1495.000000 0.8387 0.8377 0.8366 0.8356 0.8345
1490.000000 0.8335 0.8324 0.8313 0.8302 0.8289
1485.000000 0.8275 0.8261 0.8246 0.8231 0.8216
1480.000000 0.8201 0.8186 0.8171 0.8156 0.8140
1475.000000 0.8121 0.8105 0.8088 0.8071 0.8040
1470.000000 0.8010 0.7980 0.7949 0.7896 0.7841
1465.000000 0.7784 0.7724 0.7664 0.7569 0.7465
1460.000000 0.7349 0.7219 0.6925 0.6678 0.6408
1455.000000 0.6116 0.5682 0.5249 0.4900 0.4921
1450.000000 0.5031 0.5170 0.5308 0.5447 0.5586
1445.000000 0.5679 0.5671 0.5524 0.5117 0.4710
1440.000000 0.4302 0.3895 0.3488 0.3081 0.2673
1435.000000 0.2366 0.2354 0.2352 0.3075 0.3550
1430.000000 0.4027 0.4503 0.4979 0.5455 0.5851
1425.000000 0.5881 0.5689 0.5471 0.5253 0.5034
1420.000000 0.4816 0.4732 0.4731 0.4956 0.5308
1415.000000 0.5660 0.6012 0.6366 0.6575 0.6751
1410.000000 0.6968 0.7087 0.7178 0.7258 0.7337
1405.000000 0.7408 0.7482 0.7545 0.7592 0.7639
1400.000000 0.7680 0.7692 0.7700 0.7706 0.7710
1395.000000 0.7711 0.7712 0.7706 0.7700 0.7678
1390.000000 0.7578 0.7568 0.7565 0.7571 0.7632
1385.000000 0.7694 0.7753 0.7810 0.7848 0.7905
1380.000000 0.7918 0.7924 0.7930 0.7935 0.7938
1375.000000 0.7940 0.7942 0.7944 0.7944 0.7943
1370.000000 0.7942 0.7941 0.7940 0.7939 0.7938
1365.000000 0.7937 0.7936 0.7934 0.7932 0.7930
1360.000000 0.7928 0.7925 0.7915 0.7900 0.7851
1355.000000 0.7818 0.7810 0.7800 0.7791 0.7782
1350.000000 0.7772 0.7762 0.7751 0.7738 0.7725
1345.000000 0.7712 0.7698 0.7682 0.7665 0.7606
1340.000000 0.7457 0.7319 0.7265 0.7236 0.7222
1335.000000 0.7221 0.7221 0.7221 0.7232 0.7244
1330.000000 0.7256 0.7287 0.7332 0.7351 0.7361
1325.000000 0.7365 0.7368 0.7431 0.7495 0.7561
1320.000000 0.7605 0.7638 0.7661 0.7685 0.7700
1315.000000 0.7712 0.7736 0.7728 0.7724 0.7695
1310.000000 0.7657 0.7624 0.7596 0.7585 0.7574
1305.000000 0.7565 0.7561 0.7557 0.7551 0.7547
1300.000000 0.7542 0.7536 0.7526 0.7518 0.7510
1295.000000 0.7494 0.7478 0.7460 0.7436 0.7421
1290.000000 0.7411 0.7404 0.7406 0.7401 0.7478
1285.000000 0.7535 0.7592 0.7660 0.7684 0.7704
1280.000000 0.7724 0.7718 0.7735 0.7705 0.7691
1275.000000 0.7668 0.7631 0.7598 0.7578 0.7565
1270.000000 0.7565 0.7567 0.7569 0.7595 0.7717
1265.000000 0.7754 0.7793 0.7821 0.7831 0.7841
1260.000000 0.7850 0.7850 0.7840 0.7821 0.7797
1255.000000 0.7707 0.7564 0.7391 0.7217 0.7046
1250.000000 0.7041 0.7040 0.7057 0.7121 0.7218
1245.000000 0.7317 0.7415 0.7511 0.7610 0.7737
1240.000000 0.7774 0.7811 0.7855 0.7875 0.7895
1235.000000 0.7914 0.7935 0.7955 0.7972 0.7986
1230.000000 0.8000 0.8012 0.8025 0.8031 0.8042
1225.000000 0.8036 0.8028 0.8017 0.8003 0.7985
1220.000000 0.7947 0.7911 0.7886 0.7868 0.7864
1215.000000 0.7861 0.7871 0.7867 0.7880 0.7892
1210.000000 0.7904 0.7915 0.7925 0.7936 0.7947
1205.000000 0.7951 0.7955 0.7994 0.7962 0.7955
1200.000000 0.7941 0.7921 0.7900 0.7878 0.7858
1195.000000 0.7811 0.7755 0.7703 0.7653 0.7617
1190.000000 0.7590 0.7575 0.7558 0.7543 0.7537
1185.000000 0.7537 0.7539 0.7540 0.7541 0.7540
1180.000000 0.7485 0.7428 0.7369 0.7381 0.7451
1175.000000 0.7549 0.7646 0.7743 0.7840 0.7875
1170.000000 0.7908 0.7935 0.7961 0.7976 0.7988
1165.000000 0.7995 0.8001 0.8008 0.8028 0.8018
1160.000000 0.8021 0.8024 0.8024 0.8021 0.8019
1155.000000 0.8018 0.8011 0.8005 0.7993 0.7955
1150.000000 0.7908 0.7822 0.7708 0.7565 0.7441
1145.000000 0.7311 0.7188 0.6832 0.6284 0.5736
1140.000000 0.5187 0.4639 0.4570 0.4568 0.4906
1135.000000 0.5319 0.5732 0.6146 0.6525 0.6615
1130.000000 0.6771 0.7078 0.7138 0.7194 0.7244
1125.000000 0.7287 0.7297 0.7307 0.7315 0.7326
1120.000000 0.7339 0.7365 0.7401 0.7437 0.7471
1115.000000 0.7505 0.7538 0.7571 0.7605 0.7640
1110.000000 0.7676 0.7714 0.7751 0.7788 0.7825
1105.000000 0.7858 0.7889 0.7918 0.7939 0.7961
1100.000000 0.7982 0.7999 0.8015 0.8028 0.8041
1095.000000 0.8054 0.8062 0.8069 0.8078 0.8085
1090.000000 0.8092 0.8087 0.8088 0.8084 0.8076
1085.000000 0.8067 0.8038 0.8001 0.7958 0.7907
1080.000000 0.7825 0.7769 0.7714 0.7675 0.7640
1075.000000 0.7608 0.7601 0.7617 0.7605 0.7608
1070.000000 0.7619 0.7660 0.7697 0.7735 0.7767
1065.000000 0.7786 0.7793 0.7800 0.7806 0.7808
1060.000000 0.7810 0.7810 0.7811 0.7811 0.7811
1055.000000 0.7810 0.7808 0.7778 0.7724 0.7655
1050.000000 0.7586 0.7415 0.7161 0.6907 0.6653
1045.000000 0.6399 0.6145 0.5891 0.5637 0.5383
1040.000000 0.5214 0.5412 0.5801 0.6189 0.6578
1035.000000 0.6926 0.6958 0.6996 0.6978 0.6980
1030.000000 0.6890 0.6799 0.6708 0.6618 0.6528
1025.000000 0.6438 0.6449 0.6471 0.6540 0.6608
1020.000000 0.6675 0.6744 0.6981 0.6880 0.6948
1015.000000 0.6933 0.6875 0.6638 0.6400 0.6162
1010.000000 0.5923 0.5685 0.5447 0.5209 0.4971
1005.000000 0.4732 0.4494 0.4256 0.4018 0.3780
1000.000000 0.3542 0.3303 0.3065 0.2827 0.2589
995.000000 0.2351 0.2113 0.1874 0.1875 0.2009
990.000000 0.2537 0.3064 0.3592 0.4120 0.4648
985.000000 0.5176 0.5704 0.5890 0.6091 0.6378
980.000000 0.6606 0.6686 0.6732 0.6756 0.6774
975.000000 0.6792 0.6808 0.6833 0.6867 0.6908
970.000000 0.6967 0.7048 0.7067 0.7067 0.7067
965.000000 0.7064 0.7062 0.7061 0.7065 0.7068
960.000000 0.7058 0.7058 0.7058 0.7033 0.7003
955.000000 0.6961 0.6915 0.6814 0.6682 0.6550
950.000000 0.6418 0.6285 0.6139 0.6106 0.6112
945.000000 0.6127 0.6208 0.6288 0.6368 0.6448
940.000000 0.6510 0.6537 0.6514 0.6505 0.6458
935.000000 0.6259 0.6002 0.5745 0.5488 0.5231
930.000000 0.4974 0.4717 0.4460 0.4204 0.3947
925.000000 0.3690 0.3432 0.3176 0.2919 0.2662
920.000000 0.2406 0.2149 0.1892 0.1634 0.1378
915.000000 0.1121 0.0864 0.0608 0.0315 0.0233
910.000000 0.0216 0.0212 0.0209 0.0225 0.0276
905.000000 0.0342 0.0528 0.0789 0.1976 0.2821
900.000000 0.3666 0.4455 0.4704 0.4918 0.5134
895.000000 0.5600 0.5704 0.5810 0.5956 0.6045
890.000000 0.6122 0.6226 0.6431 0.6640 0.6850
885.000000 0.7058 0.7218 0.7250 0.7281 0.7301
880.000000 0.7315 0.7322 0.7326 0.7325 0.7325
875.000000 0.7301 0.7084 0.6731 0.6377 0.6024
870.000000 0.5955 0.5999 0.6344 0.6689 0.7034
865.000000 0.7378 0.7532 0.7600 0.7651 0.7678
860.000000 0.7693 0.7706 0.7718 0.7728 0.7740
855.000000 0.7768 0.7812 0.7889 0.7938 0.7976
850.000000 0.8015 0.8048 0.8078 0.8110 0.8139
845.000000 0.8168 0.8192 0.8205 0.8217 0.8230
840.000000 0.8242 0.8254 0.8264 0.8271 0.8278
835.000000 0.8287 0.8294 0.8302 0.8309 0.8316
830.000000 0.8323 0.8330 0.8337 0.8341 0.8344
825.000000 0.8347 0.8350 0.8353 0.8366 0.8357
820.000000 0.8358 0.8359 0.8359 0.8356 0.8350
815.000000 0.8344 0.8335 0.8325 0.8296 0.8221
810.000000 0.8124 0.8026 0.7928 0.7832 0.7797
805.000000 0.7783 0.7783 0.7781 0.7856 0.7969
800.000000 0.8085 0.8165 0.8198 0.8231 0.8261
795.000000 0.8281 0.8302 0.8325 0.8350 0.8373
790.000000 0.8388 0.8403 0.8411 0.8414 0.8417
785.000000 0.8421 0.8424 0.8427 0.8430 0.8433
780.000000 0.8436 0.8438 0.8441 0.8441 0.8441
775.000000 0.8448 0.8448 0.8448 0.8448 0.8448
770.000000 0.8445 0.8440 0.8434 0.8421 0.8409
765.000000 0.8391 0.8370 0.8335 0.8293 0.8231
760.000000 0.8083 0.7934 0.7786 0.7640 0.7637
755.000000 0.7651 0.7657 0.7747 0.7838 0.7928
750.000000 0.8018 0.8046 0.8065 0.8084 0.8092
745.000000 0.8103 0.8078 0.8058 0.8034 0.7988
740.000000 0.7895 0.7836 0.7776 0.7556 0.7042
735.000000 0.6526 0.6012 0.5499 0.4985 0.4470
730.000000 0.3968 0.3950 0.3958 0.3953 0.4180
725.000000 0.4546 0.4910 0.5277 0.5642 0.6008
720.000000 0.6374 0.6739 0.7105 0.7228 0.7289
715.000000 0.7345 0.7399 0.7448 0.7488 0.7508
710.000000 0.7512 0.7515 0.7541 0.7518 0.7518
705.000000 0.7518 0.7518 0.7515 0.7510 0.7505
700.000000 0.7483 0.7460 0.7414 0.7376 0.7365
695.000000 0.7358 0.7344 0.7312 0.7267 0.7160
690.000000 0.7092 0.7035 0.6967 0.6848 0.6757
685.000000 0.6697 0.6638 0.6578 0.6498 0.6411
680.000000 0.6252 0.5749 0.5520 0.5304 0.5083
675.000000 0.4847 0.4608 0.4424 0.4136 0.3734
670.000000 0.3332 0.2930 0.2529 0.2127 0.1725
665.000000 0.1384 0.1357 0.1363 0.1510 0.1657
660.000000 0.1804 0.2028 0.2015 0.2021 0.1984
655.000000 0.1834 0.1684 0.1536 0.1387 0.1237
650.000000 0.1202 0.1188 0.1436 0.1876 0.2316
645.000000 0.2756 0.3196 0.3636 0.4018 0.4123
640.000000 0.4201 0.5143 0.5374 0.5535 0.5795
635.000000 0.6040 0.6192 0.6403 0.6678 0.6828
630.000000 0.6953 0.7061 0.7149 0.7233 0.7317
625.000000 0.7400 0.7447 0.7480 0.7503 0.7522
620.000000 0.7543 0.7562 0.7582 0.7601 0.7618
615.000000 0.7638 0.7656 0.7671 0.7683 0.7695
610.000000 0.7707 0.7718 0.7730 0.7742 0.7754
605.000000 0.7767 0.7778 0.7792 0.7804 0.7815
600.000000 0.7828 0.7838 0.7848 0.7858 0.7868
595.000000 0.7876 0.7883 0.7889 0.7895 0.7900
590.000000 0.7906 0.7910 0.7914 0.7918 0.7921
585.000000 0.7921 0.7922 0.7924 0.7925 0.7925
580.000000 0.7926 0.7928 0.7928 0.7930 0.7931
575.000000 0.7932 0.7933 0.7935 0.7937 0.7939
570.000000 0.7940 0.7942 0.7944 0.7946 0.7947
565.000000 0.7948 0.7948 0.7947 0.7945 0.7944
560.000000 0.7942 0.7941 0.7939 0.7938 0.7937
555.000000 0.7937 0.7936 0.7935 0.7934 0.7931
550.000000 0.7928 0.7925 0.7921 0.7918 0.7915
545.000000 0.7911 0.7908 0.7905 0.7901 0.7899
540.000000 0.7896 0.7893 0.7890 0.7891 0.7886
535.000000 0.7884 0.7883 0.7881 0.7880 0.7885
530.000000 0.7890 0.7895 0.7899 0.7901 0.7903
525.000000 0.7905 0.7908 0.7911 0.7915 0.7918
520.000000 0.7918 0.7918 0.7915 0.7901 0.7881
515.000000 0.7871 0.7878 0.7884 0.7891 0.7897
510.000000 0.7905 0.7911 0.7918 0.7926 0.7933
505.000000 0.7935 0.7937 0.7938 0.7940 0.7942
500.000000 0.7943 0.7946 0.7949 0.7951 0.7951
495.000000 0.7953 0.7954 0.7954 0.7953 0.7951
490.000000 0.7951 0.7948 0.7935 0.7922 0.7908
485.000000 0.7807 0.7704 0.7617 0.7617 0.7615
480.000000 0.7615 0.7630 0.7644 0.7671 0.7705
475.000000 0.7758 0.7875 0.7949 0.7969 0.7988
470.000000 0.8005 0.8018 0.8028 0.8037 0.8047
465.000000 0.8055 0.8061 0.8065 0.8071 0.8076
460.000000 0.8083 0.8088 0.8093 0.8097 0.8099
455.000000 0.8101 0.8104 0.8105 0.8105 0.8111
450.000000 0.8114 0.8115 0.8117 0.8118 0.8118
445.000000 0.8119 0.8119 0.8121 0.8121 0.8122
440.000000 0.8122 0.8124 0.8124 0.8125 0.8125
435.000000 0.8125 0.8125 0.8125 0.8125 0.8125
430.000000 0.8124 0.8124 0.8122 0.8121 0.8121
425.000000 0.8121 0.8119 0.8118 0.8108 0.8089
420.000000 0.8069 0.8051 0.8024 0.7995 0.7967
415.000000 0.7945 0.7924 0.7908 0.7892 0.7875
410.000000 0.7861 0.7849 0.7850 0.7850 0.7858
405.000000 0.7883 0.7908 0.7932 0.7950 0.7967
400.000000 0.7982 0.7994 0.8005 0.8017 0.8028
395.000000 0.8037 0.8045 0.8053 0.8061 0.8067
390.000000 0.8071 0.8075 0.8078 0.8083 0.8087
385.000000 0.8090 0.8091 0.8091 0.8092 0.8093
380.000000 0.8094 0.8095 0.8096 0.8097 0.8097
375.000000 0.8097 0.8098 0.8098 0.8099 0.8099
370.000000 0.8099 0.8099 0.8098 0.8098 0.8097
365.000000 0.8097 0.8096 0.8096 0.8095 0.8095
360.000000 0.8090 0.8085 0.8080 0.8075 0.8071
355.000000 0.8065 0.8061 0.8057 0.8051 0.8047
350.000000 0.8042 0.8037 0.8039 0.8041 0.8042
345.000000 0.8044 0.8046 0.8048 0.8050 0.8053
340.000000 0.8055 0.8058 0.8060 0.8062 0.8065
335.000000 0.8068 0.8071 0.8074 0.8076 0.8081
330.000000 0.8085 0.8088 0.8092 0.8095 0.8099
325.000000 0.8103 0.8106 0.8108 0.8111 0.8112
320.000000 0.8115 0.8117 0.8118 0.8121 0.8122
315.000000 0.8125 0.8126 0.8128 0.8131 0.8133
310.000000 0.8134 0.8134 0.8134 0.8134 0.8135
305.000000 0.8135 0.8135 0.8135 0.8135 0.8135
300.000000 0.8136 0.8136 0.8136 0.8136 0.8136
295.000000 0.8136 0.8137 0.8137 0.8137 0.8137
290.000000 0.8137 0.8138 0.8138 0.8138 0.8138
285.000000 0.8138 0.8139 0.8139 0.8139 0.8139
280.000000 0.8140 0.8140 0.8140 0.8140 0.8139
275.000000 0.8138 0.8138 0.8137 0.8137 0.8136
270.000000 0.8136 0.8135 0.8134 0.8134 0.8133
265.000000 0.8133 0.8132 0.8132 0.8132 0.8132
260.000000 0.8132 0.8132 0.8132 0.8132 0.8132
255.000000 0.8132 0.8133 0.8134 0.8136 0.8137
250.000000 0.8137 0.8137 0.8137 0.8135 0.8133
245.000000 0.8133 0.8135
##END=
