##TITLE=Ethylbenzene
##JCAMP-DX=4.24
##DATA TYPE=INFRARED SPECTRUM
##CLASS=IUPAC A
##ORIGIN=NIST, Analytical Chemistry Division, 301-975-3108
##OWNER=COPYRIGHT (C) 2001 by the U.S. Secretary of Commerce
##DATE=01/06/01
##$SPECTRA VERSION=1.10
##$UNCERTAINTY IN Y=2.1 % relative (B=1.13E-04,C=1.09E-9,D=2.34E-14)
##CAS NAME=Ethylbenzene
##CAS REGISTRY NO=100-41-4
##MOLFORM=C6 H5 C2 H5
##MP=-94.97 C
##BP=136.2 C
##$NIST SOURCE=QUANT-IR
##SPECTROMETER/DATA SYSTEM=IFS66V (Bruker)
##INSTRUMENT PARAMETERS=KBr Beam Splitter; MCT Detector; Multipass cell
##STATE=gas
##SAMPLE DESCRIPTION=Ethylbenzene Primary Gas Standard
##PRESSURE=101.3 Pa
##TEMPERATURE=23 C
##SAMPLING PROCEDURE=1 L/min Flow
##RESOLUTION=0.9640
##DATA PROCESSING=3-Term B-H Apodization
##XUNITS=cm-1
##YUNITS=(micromol/mol)-1m-1 (base 10)
##XFACTOR=1.0
##YFACTOR=4.5474E-13
##DELTAX=0.4820
##FIRSTX=575.17
##LASTX=3974.606
##FIRSTY=4.50E-06
##MAXX=3974.12
##MINX=575.17
##MAXY=.0004642
##MINY=-6.85E-07
##NPOINTS=7052
##XYDATA=(X++(Y..Y))
575.17 9906900 8520863 8332546 8704733 9045840 8677598
577.58 8194691 8502885 8137756 6165236 4663788 4111373
580.47 3532528 3230011 2864992 2597491 3126728 3092352
583.37 2847853 3198852 2884468 2133973 1789257 2177507
586.26 2606065 2113801 1346813 1290346 1680393 1834635
589.15 1539316 1037123 894526 1422032 1069635-80714
592.04-25255 429007 69899-403382-473854-528560
594.94-889916-597346-120349-484669-1055445-859578
597.83-3863 606019 585235 492131 842726 1078184
600.72 373373-784195-1506367-1305248-569567-341432
603.62-813623-1153717-1026441-745655-355868-77921
606.51-29130-165733-276764-169502-1940 284698
609.40 298561-310122-547410 85799 553838 477140
612.29-50478-455129-258115-411104-1077991-1124779
615.19-377413-23148-645650-889986-223796-26333
618.08-88808 483702 645014 32224-426646-620593
620.97-721611-325668 165749 23912-6596 208664
623.86 237969 612606 1326338 1410884 1034314 1153220
626.76 1808031 2532087 2800548 2287603 1097758 464458
629.65 634844 643034 808931 1026780 891511 898079
632.54 1197197 1298943 1400994 1466844 1321577 1256122
635.44 1016539 986639 1594910 2165123 1867215 915212
638.33 401717 490215 453603 311092 379617 401719
641.22 149060-58891-16625 155773 390719 470089
644.11 214232 81250 6294-259761-408754-285311
647.01-74588-110443-294852-463877-528660-232812
649.90 97892 77094 50099 1287-420751-480583
652.79-121110 13484 279986 726279 1052220 930825
655.68 762711 807196 752334 588947 628129 814728
658.58 823190 839509 1007329 1399831 1871381 2018881
661.47 1959920 2168999 2832965 3448971 3730593 3831681
664.36 4014644 4577407 5470373 6576234 7463880 7664322
667.26 8002736 9333480 11116281 12505613 13650452 15469545
670.15 17985455 20512647 22864200 25224531 28183401 31626351
673.04 35272372 39137102 43043790 47303875 52503664 58577695
675.93 64612211 70606897 77462611 85242043 93334156 101410426
678.83 109706216 118608742 128189648 138441691 149114220 159688021
681.72 170688919 182322551 194012076 205645267 217459020 229530273
684.61 241252914 252543790 264108608 276705255 290978773 306362249
687.50 321923372 334584001 340406447 342498247 346771142 354311483
690.40 363858267 374357519 385705774 398269065 412309395 428545430
693.29 446455089 464180217 483309953 509630527 550284410 613345278
696.18 704473154 810020584 850909609 744049300 571658682 469221349
699.08 438576439 430386872 423790937 417236927 412209252 407786564
701.97 403272627 398580255 393471117 388399662 383846919 379544613
704.86 375602355 372760393 370033531 364241981 353704784 340952146
707.75 328934105 318429773 308925814 299864087 290511231 280478721
710.65 270667008 261427681 252245634 243265509 234398581 225644271
713.54 217194903 209130658 201873460 195525152 189716148 184519631
716.43 179845473 175802071 172612308 170251210 168568996 167274641
719.32 166172247 165711287 165973491 166717139 167837966 169210548
722.22 170815670 172723966 174891116 177122982 179219556 181527243
725.11 183923018 186132181 187845788 189418181 191425530 193744752
728.00 195901776 197731694 199545109 201883959 204562738 206905839
730.90 208950305 211187205 213481032 215861372 218673075 221944475
733.79 225471472 228950656 232124650 235529544 239469526 243713269
736.68 247795207 250759627 253158245 256666784 259511895 259939004
739.57 261560164 264721377 264145537 260804605 260757179 264129480
742.47 265268951 263291733 261307944 261173269 264021781 266665241
745.36 262334888 255303842 253021859 253377666 253154296 253159730
748.25 253333486 253639933 255005905 265109505 295225694 327667378
751.14 318467931 277030027 251732784 246740763 237857998 224591060
754.04 218783312 218335390 215838290 209498877 202786623 197785079
756.93 194052824 190388609 186680078 183101650 179684352 176335971
759.82 172848188 169162733 165516668 162080291 158870631 155631432
762.72 152464095 149362073 146111630 142824750 139750843 136903025
765.61 134071926 131456713 129190654 126889751 124908098 123841286
768.50 123183212 122149811 121424798 122235744 125323994 132486499
771.39 143734605 148542444 136117808 115132986 100386650 93440512
774.29 90161053 88270239 86877630 85475629 83790059 82102929
777.18 80520740 78832286 77564024 76490131 74964962 73499479
780.07 72298751 70731852 69043381 67615666 66228891 64808541
782.96 63293592 61689030 59987981 58187285 56604831 54999953
785.86 53156031 51316406 49623401 47983125 46280296 44636049
788.75 43149366 41594831 40094122 38674917 37131458 35599260
791.64 34262029 32966399 31810388 31092637 30280052 29186846
794.54 28256753 27775627 27471162 26883253 26114167 25242771
797.43 24330165 23567419 22820810 21971750 21275498 20814974
800.32 20357945 19704989 19121220 18722796 18285504 17691296
803.21 16976626 16087167 15264574 14708458 14295855 14038708
806.11 13898487 13697990 13281331 12551973 11906156 11582941
809.00 11293625 10952867 10617106 10209594 9954924 9793470
811.89 9342843 8736670 8325850 8125416 7905835 7647692
814.78 7486509 7274887 7047524 6795122 6277904 5850301
817.68 5652126 5377013 5287465 5382702 5065808 4566460
820.57 4522670 4775508 4637365 4299943 4184633 4114896
823.46 4193870 4204474 3992262 3704692 3316750 2902949
826.36 2623370 2531548 2446950 2383677 2707061 3101614
829.25 2924297 2399811 2087259 1987702 1862381 1693151
832.14 1568544 1548080 1555169 1432623 1195253 1084184
835.03 1172016 1027962 769979 990158 1421617 1433493
837.93 1047363 787618 794425 864082 811717 557964
840.82 279131 172326 125132 116363 395454 689581
843.71 578081 337309 232625 177363 42615-69828
846.60-83480-224265-358577-282038-145267-65826
849.50 73813-21144-475983-573090-363714-279329
852.39-284169-304101-249472-286712-618300-814932
855.28-727982-732957-820267-807329-638806-521819
858.18-575895-541496-263373-22471-32111-208160
861.07-446540-696007-810014-658500-395650-183289
863.96-60415 16110 13142-152718-131996 67406
866.85 239839 354257 402402 572707 817635 1066276
869.75 1224159 1291996 1503417 1641192 1537523 1526170
872.64 1751199 1993675 2310267 2872146 3377761 3482640
875.53 3378558 3431084 3689451 4003491 4221680 4418698
878.42 4660186 4956392 5424225 5835416 6002474 6246907
881.32 6494927 6690268 6995051 7342411 7655740 8078528
884.21 8674622 9290265 9637798 9711020 9949412 10578502
887.10 11219130 11592796 11966739 12417223 12854961 13358864
890.00 13719072 13777973 13872782 14162555 14497540 14781451
892.89 14883460 14999934 15377200 15758855 15943195 16037172
895.78 16164490 16351090 16525913 16739608 17131750 17663496
898.67 18230495 18888473 19750061 20953790 22363779 24158407
901.57 27213609 32737483 41569721 48072885 42409961 29417812
904.46 21468470 19067946 18390060 18320292 18276779 17864680
907.35 17455522 17171280 16877329 16747428 16689447 16521409
910.24 16240578 15837498 15256156 14509638 13951668 13713225
913.14 13471740 13044487 12564516 12003008 11453516 10937645
916.03 10373413 9632213 8660037 7894418 7475442 6967142
918.92 6327849 5801509 5267320 4643610 4045176 3515313
921.82 3108462 2757622 2403855 2126806 1853008 1571586
924.71 1423790 1169129 714567 406339 348228 226028
927.60 27508-2137 31743-17434-21648 98529
930.49 166190 51822-103759-232551-287326-205589
933.39-120888-214094-289389-292492-307025-190671
936.28-38086-27393-150585-257710-213639-100292
939.17 24664 21846-87799-101654 15696 43262
942.06 31653 108558 174019 354722 609290 790998
944.96 997889 1188753 1357569 1462402 1514689 1772989
947.85 2206094 2518933 2842696 3452424 4151878 4679361
950.74 5245951 6065270 7080526 8205595 9376710 10503571
953.64 11636077 12813515 14150423 15660089 17184672 18731321
956.53 20119668 21132332 21924081 22513191 22895351 23139292
959.42 23242327 23406662 23913561 24718414 25720803 27033697
962.31 28659121 30037164 30106494 28485918 26264984 24923394
965.21 24923710 25638408 26531585 27405859 28211025 28787494
968.10 28999959 28972074 28580689 27885158 26986561 25736040
970.99 24221149 22657024 21140202 19684677 18306268 17082722
973.88 15943588 14764984 13722324 12879085 11952618 10978716
976.78 10302201 9849866 9319982 8692090 8070818 7658606
979.67 7555699 7163455 6329115 5602199 5067141 4699702
982.56 4491810 4372488 4353155 4274616 4103256 3943293
985.46 3844552 3814560 3746436 3812879 4004393 4066255
988.35 3996940 3885109 3833765 3980401 4223439 4316326
991.24 4380367 4508382 4643149 4783948 4804301 4782076
994.13 4888763 5065272 5253335 5398364 5535989 5764554
997.03 5996607 6300298 6757020 7138095 7408971 7709780
999.92 7998789 8150729 8122139 8008102 7944508 7902820
1002.81 7912121 7948642 8088598 8622315 9294597 9626090
1005.70 9648328 9574987 9474858 9432427 9533979 9682490
1008.60 9863609 10108720 10433691 10817682 11255047 11812392
1011.49 12293680 12685117 13266832 13946574 14576348 15286421
1014.38 16127622 17038767 18068811 19311083 20730501 22282468
1017.28 23884819 25581113 27672113 30108049 32706799 35694841
1020.17 38978294 42183924 45464971 48994480 52641587 56329222
1023.06 59895426 62949959 65152979 66659448 67608403 67896693
1025.95 67628225 66897337 65663346 64128377 62779265 62251054
1028.85 63338623 66973747 73755919 80864147 81884490 77488061
1031.74 74525894 74002186 73251612 72046547 71534462 71792465
1034.63 72179755 72290094 72005024 71191085 69950472 68484891
1037.52 66798816 65011224 63188201 61348684 59478897 57574517
1040.42 55832165 54167178 52465725 50622446 48713713 47054184
1043.31 45614949 44252809 43007760 41805487 40780712 40036401
1046.20 39403136 38785254 38023453 37169808 36556002 36165610
1049.10 35849552 35680788 35631240 35728192 35966320 36250777
1051.99 36759509 37548967 38629464 40138733 42153195 44549272
1054.88 47077746 49722495 52401426 54904857 57343834 59598354
1057.77 61489955 63114485 64382350 65032078 64848817 63827776
1060.67 62206902 60163843 57899130 56163785 55887667 57966704
1063.56 63104000 70379559 76224331 75504660 65487381 53004585
1066.45 47822551 49279380 52592457 56126947 59303231 61558165
1069.34 62682777 62609192 61390379 59256360 56352348 52882418
1072.24 49153302 45370448 41622055 38093324 34958304 32152741
1075.13 29665367 27539105 25912589 24790965 23894572 23140156
1078.02 22645136 22524163 22695766 22920506 23102648 23277303
1080.92 23513413 23902937 24272225 24523932 24855663 25099840
1083.81 25083486 25082581 25085153 24845527 24523437 24057104
1086.70 23349821 22669691 22184606 21788643 21462676 21435866
1089.59 21934326 22887707 23977333 25039011 26022762 26671166
1092.49 26885006 26828078 26582827 26306456 26129249 25961842
1095.38 25784272 25524972 24975153 24328423 23945546 23657987
1098.27 23354317 23088127 22746247 22510814 22500032 22456065
1101.16 22299011 22211436 22170077 21975764 21574270 21141532
1104.06 20670647 20004945 19251498 18385794 17355674 16444002
1106.95 15742883 15225794 15121966 15187133 15091958 15073596
1109.84 15385374 15747005 15910265 15943444 15904490 15748762
1112.74 15552213 15516292 15525132 15272495 14682741 14021594
1115.63 13532679 13109370 12684276 12252432 11710809 11038942
1118.52 10512483 10271476 10025326 9504791 8990457 8677455
1121.41 8242964 7688490 7323991 7141515 6937628 6534735
1124.31 6081148 5801416 5591370 5373342 5187829 4943382
1127.20 4675175 4481785 4294181 4122173 3984149 3756285
1130.09 3449678 3251784 3295138 3515964 3644696 3459505
1132.98 3155304 2974320 2875035 2768856 2709467 2727972
1135.88 2700535 2561643 2431637 2305892 2119417 2027033
1138.77 2041222 2011529 1888730 1786010 1797516 1752352
1141.66 1639818 1599107 1584450 1619837 1660411 1562701
1144.56 1358774 1169700 1062955 1079869 1208362 1331808
1147.45 1372930 1316957 1296114 1408885 1504491 1354549
1150.34 1156041 1097003 1060784 1010588 981986 937379
1153.23 743311 560538 492013 346624 245373 227116
1156.13 192376 250626 364323 410637 393635 392746
1159.02 437625 487126 482467 473341 504743 455613
1161.91 347048 286712 226582 118245 22503-19552
1164.80 41665 64478-30125-100386-97709-74593
1167.70-3190-4381-69448-46441 5523-38356
1170.59-81968-30910 13031 26419 51799-31547
1173.48-194245-137028 89106 159054 105233 149814
1176.38 196703 276697 580803 843832 720208 498249
1179.27 493352 499824 470029 607628 738808 702165
1182.16 746611 922507 1060636 1088259 1046126 1069162
1185.05 1234305 1439966 1572161 1492654 1325871 1327486
1187.95 1350134 1377754 1495172 1671428 1826907 1857170
1190.84 1864831 1913172 2039204 2157208 2245170 2367297
1193.73 2426289 2482241 2550778 2586833 2622824 2589746
1196.62 2535574 2520095 2526064 2533652 2638118 2811436
1199.52 2834914 2748729 2736005 2805484 2809464 2754945
1202.41 2742086 2667572 2570414 2631385 2707361 2647577
1205.30 2696891 2838016 2781949 2729457 2729464 2493186
1208.20 2158776 1925375 1743948 1643537 1642582 1636029
1211.09 1606055 1514717 1356481 1187107 963202 771117
1213.98 720572 721000 605779 401981 330164 344883
1216.87 296965 279044 340563 337520 332802 382350
1219.77 358174 258617 205602 213577 170362 60053
1222.66 24315 99515 110345 65999 85212 151448
1225.55 238136 361719 529921 701567 901239 1161743
1228.44 1446056 1675862 1866528 2084612 2310050 2501400
1231.34 2772944 3164205 3503215 3709478 3892942 4060678
1234.23 4122692 4092956 4063949 4028084 3941292 3922599
1237.12 4006347 4155683 4363275 4605962 4941754 5240350
1240.02 5391803 5447711 5239355 4871222 4708020 4790321
1242.91 5109844 5445088 5549226 5614204 5732616 5741966
1245.80 5630197 5532641 5496202 5444722 5236648 4932996
1248.69 4677963 4510271 4486365 4435473 4303667 4168658
1251.59 4066404 4037930 3931539 3722600 3638020 3706622
1254.48 3751459 3724653 3813203 3976050 3965735 3898143
1257.37 3883283 3804788 3682820 3589828 3541400 3545526
1260.26 3603630 3657399 3683961 3700988 3675379 3707451
1263.16 3767461 3677133 3505768 3408849 3428121 3518860
1266.05 3531382 3466068 3545707 3656485 3671969 3676573
1268.94 3655574 3592025 3539112 3432241 3232959 3139338
1271.84 3153791 3180482 3307037 3475859 3571366 3634238
1274.73 3638382 3634838 3706708 3834999 4022915 4264243
1277.62 4494580 4686663 4827519 4910860 5051047 5213314
1280.51 5368903 5482670 5526003 5602596 5740563 5891599
1283.41 6061051 6237349 6368380 6425004 6516400 6741024
1286.30 6997545 7245768 7486651 7703898 7911953 8081309
1289.19 8170354 8286563 8605351 8945248 9173956 9398754
1292.08 9614662 9834744 10099352 10335033 10480186 10506832
1294.98 10482456 10586133 10778613 11037666 11326508 11422930
1297.87 11372938 11409083 11620062 11888954 12014371 11974701
1300.76 11984867 12131998 12339639 12512541 12543296 12534512
1303.66 12644502 12874021 13120092 13264233 13355672 13463798
1306.55 13572247 13667999 13721703 13687467 13664372 13775683
1309.44 13966867 14214447 14509128 14869294 15361817 15881607
1312.33 16294786 16705107 17193543 17891438 18820819 19726978
1315.23 20497836 21335590 22342582 23343485 24497822 25795861
1318.12 26961498 28124203 29418735 30790737 32204398 33581231
1321.01 35079940 36848328 38498635 39869765 41329096 43163359
1323.90 44892264 45634251 45419059 45031755 45019132 45230901
1326.80 45366359 45534144 45950866 46564488 47062605 47328868
1329.69 47541777 47419442 46739121 46145479 45960771 45399881
1332.58 44254830 43222009 42468583 41905270 41512006 41116324
1335.48 40476475 39489194 38407238 37306470 35954822 34350920
1338.37 32779318 31275817 29688679 28098944 26527982 24984831
1341.26 23506452 22064559 20768572 19609156 18584944 17851268
1344.15 17091278 16080145 15176092 14502596 13912028 13364642
1347.05 12859775 12327162 11838701 11384822 10985864 10725427
1349.94 10374293 9726244 8986367 8586007 8598458 8623820
1352.83 8406730 7972247 7949957 8112377 7620086 7374910
1355.72 7749433 8000090 7961189 7814217 7676393 7660977
1358.62 7831953 7983318 8046961 8181006 8586475 9005589
1361.51 9154021 9381448 9843682 10544711 11346766 11827902
1364.40 12108785 12636942 13392154 14181210 14985722 15699751
1367.29 16363119 17060256 17722793 18467654 19298401 20083535
1370.19 20871557 21754773 22691566 23560252 24377850 25139096
1373.08 25715348 26333171 27289494 28235278 28915801 29351674
1375.97 29679333 30252743 31470636 34237839 38983256 42921490
1378.87 43954363 44302214 45483768 45635674 43839532 41562659
1381.76 39610618 38069732 37182337 36706653 36386390 36243321
1384.65 36245426 36245585 35968469 35579725 35305784 35061803
1387.54 34743243 34334780 33874019 33249780 32554247 31869832
1390.44 31100428 30188590 29218047 28258076 27207322 26137359
1393.33 25094687 23951065 23041121 22442151 21754196 21026156
1396.22 20435406 19803057 19091175 18437988 17758373 17113429
1399.11 16615873 16066477 15485636 15099392 14798319 14362455
1402.01 13902672 13542598 13224518 12892404 12603334 12521085
1404.90 12516263 12388893 12205432 12103650 12106088 12087558
1407.79 11962272 11810033 11825349 11922990 11997359 12136466
1410.69 12246199 12278679 12327118 12420919 12587565 12810584
1413.58 12985094 12990630 13028504 13229387 13316019 13312066
1416.47 13426053 13638643 13783387 13676296 13483213 13545228
1419.36 14056960 14770735 15318442 15608162 15826927 16180518
1422.26 16561574 16825022 16940294 17101735 17406843 17665694
1425.15 17911098 18241939 18647367 19019806 19350500 19769918
1428.04 20237962 20646451 21048359 21563079 22168537 22783587
1430.93 23495374 24387193 25305036 26192176 27198114 28332211
1433.83 29526557 30804952 32238217 33669863 34877062 36345536
1436.72 38575760 41086056 43482947 45862629 48322870 50969731
1439.61 53823656 56818286 59946557 63266676 66853805 70661206
1442.51 74666591 78963567 83420516 87971064 92680085 97520147
1445.40 102486074 107670824 113062043 118461761 123897561 129688774
1448.29 135777085 141662077 146956676 151511138 155410954 159011627
1451.18 162483330 165449935 167681211 169373304 170508501 170898554
1454.08 170639084 170070828 169731935 170149099 172066166 176646089
1456.97 183493159 190220492 195038656 196889077 195249151 191060608
1459.86 186082633 181965341 179860567 179916294 181630056 184260743
1462.75 186732913 188057338 187917453 186341116 183706136 180289880
1465.65 176099225 171683089 167576869 163645726 159645252 155733456
1468.54 151890586 148256860 145528656 143493270 141410021 139300668
1471.43 135400131 126427350 114379355 105629553 101610195 99350974
1474.33 97153649 94846850 92415497 89783699 86996856 84014162
1477.22 80834050 77667654 74628120 71749879 69080867 66615440
1480.11 64468561 62669151 61222641 60143345 59437005 59196557
1483.00 59382892 59981685 61213200 63074441 65423766 68402780
1485.90 72100596 76436638 81515652 87514283 94461732 102214495
1488.79 110570239 119491544 128971502 138833232 149191790 159914813
1491.68 170593872 181031189 190915030 199884448 207343587 211893464
1494.57 212224159 207830212 200471676 193461161 188655934 186832312
1497.47 189266934 197730678 213191409 232064535 241702859 230878920
1500.36 207684394 187527732 176521474 174693659 178670644 183594667
1503.25 188089642 192540489 195506151 195417123 192436008 187028360
1506.15 178603356 167832431 155904449 142790798 128888473 115005728
1509.04 101519889 88909351 77479301 67118937 57868023 49851404
1511.93 43194818 37793197 33246560 29460336 26323119 23607933
1514.82 21448997 19730141 18177644 16978265 16188420 15735401
1517.72 15555281 15384286 14917052 14146449 13406691 12744263
1520.61 12240041 12372414 12742676 12876077 13023239 13234589
1523.50 13492801 13551021 13249876 12997925 13073638 13273792
1526.39 13415386 13441155 13448463 13523335 13607310 13684738
1529.29 13727127 13669923 13559091 13374581 13051406 12692661
1532.18 12339664 11870342 11358843 11014917 10792311 10552032
1535.07 10370601 10185348 10044702 10198452 10548336 10784580
1537.97 10634733 10400243 10766067 11095259 11124528 11332315
1540.86 11135772 10393207 10034151 10187468 10169545 9919599
1543.75 9515242 8910626 8466995 8474927 8572445 8479457
1546.64 8300987 8187441 8122691 8046000 7949876 7833498
1549.54 7790979 7769804 7703532 7658370 7672668 7664976
1552.43 7601929 7507617 7204622 6972160 7204998 7433015
1555.32 7442832 7462368 7302284 6808519 6282588 5832530
1558.21 5906450 6427643 6366095 6094087 6422861 6877816
1561.11 6987219 6980089 6993303 7061776 7140086 7138248
1564.00 7053615 7054481 7228299 7373532 7357681 7237736
1566.89 7103307 7068989 7118506 7048463 6781603 6653264
1569.79 6903818 7192201 7353433 7489542 7646771 7791266
1572.68 7905907 8064431 8320018 8573476 8602501 8156644
1575.57 7714987 8307955 9309938 9885852 10395948 10872733
1578.46 11205004 11510331 11841935 12149503 12434123 12788695
1581.36 13165343 13550715 13992149 14438724 14904090 15478673
1584.25 16204152 16962351 17751129 18642392 19675563 20859521
1587.14 22042886 23338579 24775918 26163214 27549604 28933711
1590.03 30180383 31287180 32337200 33335460 34290799 35327947
1592.93 36559971 37914687 39204848 40586819 42292908 44186493
1595.82 46323949 48877973 51716621 54931873 58769212 63457463
1598.71 68730691 72835829 75496391 78999068 84199695 90145874
1601.61 95956666 101406514 106500522 110970331 114552478 117261629
1604.50 119082840 119894081 119751328 118780317 117152486 115209391
1607.39 113286820 111537046 110160251 109656398 110520735 112575618
1610.28 114633053 115335891 113538949 107744750 100088192 95351802
1613.18 94105870 94541698 95558231 96301593 96114249 94622355
1616.07 91863716 88657407 84964287 80160648 74480141 68389655
1618.96 62253240 56321943 50533322 45005955 39950751 35363853
1621.85 31178072 27347140 23873690 21028363 18884138 17016279
1624.75 15263007 13786133 12524759 11372107 10376227 9536509
1627.64 8891519 8455752 8090883 7691636 7355785 7081106
1630.53 6731140 6481109 6403349 6283205 6125536 6077014
1633.43 6044017 5813781 5261307 4564263 4519742 5159551
1636.32 5492990 5384008 5340727 5465515 5588908 5625068
1639.21 5612080 5624167 5653141 5648365 5656479 5782513
1642.10 5942317 6040547 6157879 6375141 6535588 6439065
1645.00 6067454 5938346 6415826 6900863 7163553 7397112
1647.89 7609751 7838412 7995115 8120130 8224877 8304844
1650.78 8282333 7842762 7063932 6564421 6576600 7211561
1653.67 7974259 8532900 8975145 8916546 8567781 8373796
1656.57 8271373 8064591 7861859 7863539 7924514 7885147
1659.46 7848585 7926016 8091351 8187465 8069900 7734893
1662.35 7475638 7438558 7432439 7415222 7333318 7222276
1665.25 7148473 7068622 6989786 6923983 6805729 6621400
1668.14 6357896 5979512 5902992 6183936 6330334 6161627
1671.03 5929112 5828889 5714108 5600044 5515120 5430765
1673.92 5350162 5216502 5247475 5598846 5762081 5552048
1676.82 5225764 4905044 4702837 4666285 4685922 4662102
1679.71 4631626 4633477 4645722 4589649 4423517 4118733
1682.60 3710332 3421722 2948180 2070435 1872611 2565510
1685.49 2910748 2809582 2726276 2693897 2546904 2353535
1688.39 2227736 2159479 2134711 2126045 2082252 1983634
1691.28 1933618 1996199 2001713 1938410 1920394 1912289
1694.17 1785283 1254328 395658 353625 1222885 1756514
1697.07 1806306 1739104 1707518 1629981 1170621 630385
1699.96 594217 1063392 1701137 1983511 1854877 1671171
1702.85 1610979 1540173 1452274 1512963 1573277 1469834
1705.74 1398944 1554396 1739222 1811446 1874233 1911414
1708.64 1883364 1802097 1735902 1812297 1907748 1935363
1711.53 1984009 1999216 1961394 1947238 2004594 1985223
1714.42 1779047 1778248 2103124 2314098 2025456 1622665
1717.31 1926316 2361026 2498936 2771750 3109912 3379020
1720.21 3571671 3718296 3927097 4192588 4450484 4698193
1723.10 4895676 5082121 5389955 5699154 5964988 6330914
1725.99 6707882 6999868 7281165 7590395 7982994 8462385
1728.89 8931324 9414685 10006212 10537722 10942541 11403295
1731.78 11899400 12140908 12117072 12377110 12706874 12997369
1734.67 13674431 14264481 14459472 14398334 14229604 14090400
1737.56 13926224 13604638 13012467 12147429 11480136 11276420
1740.46 11193709 11219649 11489494 11961845 12609661 13373696
1743.35 14104171 14589439 14775985 14750353 14556016 14185155
1746.24 13654092 13067372 12502333 11877444 11207106 10646986
1749.13 10148005 9593684 8874495 8024463 7563593 7423284
1752.03 7097066 6681195 6250590 5715699 5287429 5095064
1754.92 4880228 4505625 4041953 3662767 3458254 3242569
1757.81 2974042 2765895 2623612 2494410 2341846 2153942
1760.71 1844173 1452063 1333986 1367915 1300215 1237678
1763.60 1220497 1208373 1154740 1100213 1100433 1140253
1766.49 1210951 1174456 1020874 1131150 1471964 1721013
1769.38 1888316 2001970 2040395 2120583 2257055 2125938
1772.28 2000053 2348033 2673791 2709011 2677871 2604204
1775.17 2465770 2325236 2261253 2370053 2712325 3225340
1778.06 3795510 4134843 3839545 3174001 2840604 2976882
1780.95 3324425 3708977 4141524 4621724 5081555 5503519
1783.85 5845867 6205063 6797803 7592793 8439210 9294631
1786.74 10200140 11216966 12377812 13622035 14928343 16360361
1789.63 17796278 19123161 20494760 21858788 22862257 23639573
1792.53 24615502 25541482 26126836 26491089 26571550 26291228
1795.42 25870639 25731448 26180537 27264974 28870026 30748682
1798.31 32538015 33745989 33263695 30075378 26322247 25016901
1801.20 25791304 27104039 28411577 29606500 30574071 31278356
1804.10 31511751 30997775 29795202 27930464 25515973 23227601
1806.99 21491762 20145020 19003871 17979382 17040693 16107969
1809.88 15164720 14332352 13550021 12730372 11916973 11133467
1812.77 10407414 9707640 9053891 8463593 7822042 7147872
1815.67 6608276 6197013 5831903 5631268 5650858 5784389
1818.56 5989524 6212815 6351432 6425009 6415351 6327924
1821.45 6224094 6081847 5884926 5642848 5342209 4964214
1824.35 4590728 4306026 4101327 3923934 3737047 3509574
1827.24 3256233 3031450 2827329 2643247 2413817 2222316
1830.13 2228556 2254688 2152334 1999813 1911855 1855787
1833.02 1730772 1626860 1621514 1660238 1687031 1675571
1835.92 1637995 1614670 1672226 1718996 1708951 1748044
1838.81 1810057 1837844 1897047 1977428 2053869 2226075
1841.70 2438258 2557334 2612776 2591473 2559069 2862074
1844.59 3359591 3739393 4052988 4332686 4610653 4914925
1847.49 5306847 5760094 6156296 6515599 6954710 7409719
1850.38 7838196 8297361 8806623 9416435 10119417 10854000
1853.27 11633268 12485577 13317729 14097655 14891127 15687584
1856.17 16407737 17069637 17721542 18369042 18963152 19424732
1859.06 19772230 19979558 20031659 19992647 19800795 19433529
1861.95 18922551 18239029 17455253 16714847 16087306 15735950
1864.84 15862466 16542867 17815038 19544843 21267484 22657803
1867.74 23750681 24462711 24825411 25127463 25406382 25560695
1870.63 25692478 25891630 26082478 26247397 26407542 26562362
1873.52 26665867 26636034 26450481 26112643 25574050 24845621
1876.41 24099012 23349812 22411340 21298453 20283375 19682729
1879.31 19852502 21014023 22716655 23674349 22568642 19236713
1882.20 15468853 13572524 13684449 14652913 15736380 16642342
1885.09 17319234 17625961 17467566 16976002 16236153 15234045
1887.99 14023472 12660448 11193116 9804979 8559309 7376436
1890.88 6292839 5324203 4492496 3823963 3314992 2884948
1893.77 2491297 2140922 1806210 1565802 1451262 1398382
1896.66 1315611 1156421 989218 908926 884028 907908
1899.56 995021 1011670 909636 788267 744816 784697
1902.45 847094 896116 898829 920155 963079 964210
1905.34 909127 863748 910606 1006537 1089258 1151630
1908.23 1165588 1180616 1209298 1225188 1258996 1320913
1911.13 1401798 1490266 1602477 1715528 1835752 2016648
1914.02 2183878 2321505 2530037 2742125 2889353 3080669
1916.91 3252287 3328934 3515392 3864505 4227830 4527707
1919.81 4799368 5105813 5438899 5819267 6241543 6598591
1922.70 6948077 7423713 7978457 8549193 9078041 9546963
1925.59 10038599 10579971 11198150 11889529 12611196 13397559
1928.48 14358513 15364392 16240976 17193414 18305225 19372718
1931.38 20359744 21332685 22257220 23161425 24031550 24695891
1934.27 25144936 25580005 25929478 26010611 25928493 25701246
1937.16 25240779 24602976 23894259 23019155 21982347 21041014
1940.05 20351458 20046871 20228718 20987476 22436608 24408740
1942.95 26448763 28202869 29467897 30201631 30555548 30700773
1945.84 30752622 30710470 30593154 30492916 30351051 30063398
1948.73 29718271 29419720 29179349 28945474 28599355 28086139
1951.63 27530255 26985578 26324391 25584662 24836169 24028164
1954.52 23130422 22141164 21158362 20358995 20009640 20419195
1957.41 21524933 22593842 22063146 18879914 15004549 13228468
1960.30 13422772 14249509 15165215 16003656 16525028 16648343
1963.20 16394843 15702196 14709094 13589178 12265273 10780584
1966.09 9364928 8041299 6823824 5743070 4728551 3835388
1968.98 3109463 2476953 1957180 1568798 1268562 1037106
1971.87 874213 808174 825490 898708 937778 774437
1974.77 489589 335670 314977 401535 545004 624468
1977.66 666864 719441 731514 686221 723355 843757
1980.55 909758 974706 1121994 1236277 1244409 1247182
1983.45 1301234 1327596 1295459 1282805 1202403 1002928
1986.34 822842 743862 758133 834647 937953 983795
1989.23 924847 823354 739995 667904 585582 560780
1992.12 667778 835671 882319 815318 749747 687570
1995.02 576474 447459 405340 428053 426116 380745
1997.91 308405 258434 272765 304729 228507 114293
2000.80 94939 131115 134872 101241 20355-115792
2003.69-173356-107731-65379-74840-105032-97725
2006.59-28058 15743 16793-60620-78121 46959
2009.48 74901-10965-35002-14938-3260 15451
2012.37 40237 82184 140210 209990 253515 305717
2015.27 330448 304764 342387 412009 454016 526503
2018.16 624778 703679 765307 821117 827355 789268
2021.05 819649 879301 858709 841806 880089 976058
2023.94 1116377 1181625 1120113 1018652 981352 1041097
2026.84 1113610 1106162 1096437 1166219 1262511 1325344
2029.73 1346134 1314784 1281244 1275880 1311293 1350092
2032.62 1249412 1032363 850273 823972 858873 831323
2035.51 865842 922197 888130 871188 850770 761388
2038.41 670022 630696 627990 556287 487153 523386
2041.30 503218 449068 452455 408848 304361 200104
2044.19 138200 154950 184518 112340 36061-16757
2047.09-140315-244948-270635-239488-198797-229001
2049.98-322331-427469-481280-510207-592084-675165
2052.87-688705-655521-645768-652609-589134-466708
2055.76-418247-469789-531110-621858-698925-733858
2058.66-807006-824007-764563-771800-795829-828576
2061.55-891687-884791-853583-848316-870452-892373
2064.44-834571-806681-834851-839836-896276-968070
2067.33-956431-929294-937373-916584-802998-705122
2070.23-700392-728981-813653-968657-992018-908310
2073.12-915697-938469-880671-842604-841476-815710
2076.01-820895-826851-806280-819039-858681-845446
2078.91-799299-800416-865510-908341-837676-745402
2081.80-740947-754343-733130-719710-704535-694992
2084.69-694951-647548-634055-696543-726538-712756
2087.58-694858-613753-489554-427827-426863-478333
2090.48-541157-547291-508537-522647-570085-573644
2093.37-524556-433710-422697-469857-473385-466534
2096.26-470713-411402-308556-288397-295052-278576
2099.15-280983-264426-268866-296379-298584-329834
2102.05-348098-297522-284989-357088-432060-458709
2104.94-458223-449975-462492-447446-363249-333559
2107.83-357219-325915-295234-357807-437371-424504
2110.73-348104-290388-303280-370783-393883-389378
2113.62-383552-381970-371536-276640-243411-292111
2116.51-254420-141398-48056-61943-144358-124194
2119.40-35729-58830-98811-52468 1669 37028
2122.30 84015 99904 126462 174335 175391 174142
2125.19 188582 175862 134958 121038 160350 191354
2128.08 192693 134533 28576-16248 44417 93207
2130.97 96467 98623 106090 168986 280608 296556
2133.87 187790 101810 88827 24728-89498-142363
2136.76-113706-107085-176318-192531-85844 25901
2139.65 23872-55384-109013-114657-132488-165510
2142.55-180169-174617-133428-73379-50102-75794
2145.44-72727-54753-61187-23953 15317 2977
2148.33-64632-126352-76640 25812 45930 35631
2151.22 23477-61809-111651-73766-30616-5627
2154.12-20953-23640-13632 2995 44508 59689
2157.01 8468-64689-47752-629-23022-31901
2159.90 21898 19498-21979-17221 22578 131916
2162.79 220050 216241 170204 156263 152620 139302
2165.69 134231 118703 133994 195469 220676 216715
2168.58 241809 248062 217394 204591 211933 185392
2171.47 138324 107927 80257 125776 234927 272559
2174.37 273509 260827 208584 154337 118537 147567
2177.26 286224 390340 377607 339199 333415 297180
2180.15 190472 204228 287587 254697 153651 114398
2183.04 152589 219191 267012 254064 224332 198929
2185.94 166172 166166 192241 257683 333255 305644
2188.83 271769 277453 223020 127792 56778 41783
2191.72 40207 59309 111914 122368 130757 142499
2194.61 122565 88065 47107-4915-5039 79031
2197.51 119327 84365 34950 20101 100019 159956
2200.40 144737 135351 166243 257308 338826 349885
2203.29 319839 265395 207140 207544 300843 395093
2206.19 435238 495720 633467 744596 709769 590232
2209.08 527624 604578 760330 835715 771977 717092
2211.97 793706 915782 972318 964190 976472 1004492
2214.86 1044798 1060934 1010119 983072 994637 1053637
2217.76 1164535 1227640 1196880 1113015 1139805 1278188
2220.65 1285790 1194832 1205840 1272299 1295415 1303939
2223.54 1289772 1260372 1266962 1273191 1269201 1258850
2226.43 1239042 1244416 1244195 1221235 1203745 1228553
2229.33 1309858 1411510 1428992 1395947 1433126 1459122
2232.22 1425004 1390616 1395052 1462386 1536215 1576703
2235.11 1568380 1515126 1454636 1464660 1525103 1516601
2238.01 1514764 1506502 1439792 1437240 1491864 1478663
2240.90 1442182 1462529 1451730 1353246 1344512 1414312
2243.79 1420389 1408727 1418261 1398114 1362392 1356570
2246.68 1366159 1347011 1338307 1367823 1335848 1227076
2249.58 1163684 1165230 1191660 1184758 1123709 1111705
2252.47 1171697 1186906 1088013 1026142 1064036 1073068
2255.36 1043207 994009 962145 1041198 1217159 1329092
2258.25 1355002 1363018 1292638 1182020 1187453 1256407
2261.15 1274518 1335047 1347362 1324986 1435271 1579770
2264.04 1647419 1606779 1475836 1392561 1449745 1613930
2266.93 1717252 1696531 1675195 1702063 1755582 1779389
2269.83 1804283 1934715 2091805 2169209 2174409 2137713
2272.72 2050795 1979886 2024863 2181223 2336940 2351331
2275.61 2297161 2285181 2268019 2303239 2398201 2402726
2278.50 2343819 2339270 2429236 2513892 2482813 2424312
2281.40 2415482 2451640 2531846 2563271 2490809 2441532
2284.29 2429347 2414322 2400229 2355696 2322691 2287788
2287.18 2236122 2215807 2248399 2276843 2273622 2303389
2290.07 2335212 2299781 2254068 2231969 2167982 2048391
2292.97 1961545 1964290 1956303 1880416 1826486 1799157
2295.86 1773056 1735186 1651308 1558483 1527583 1533619
2298.75 1467680 1399883 1451998 1545635 1587045 1563106
2301.65 1485990 1467157 1578445 1729887 1852328 1944802
2304.54 2086508 2310571 2565004 2814184 3026407 3201421
2307.43 3368269 3482644 3530556 3666565 3860640 3835443
2310.32 3545525 3248454 3128920 2970615 2618914 2478666
2313.22 2796200 3347708 4117452 4796146 4703794 3849833
2316.11 3007065 2678694 2939161 3370828 3420499 3317623
2319.00 3634107 4078751 4104613 3801941 3680048 3808922
2321.89 3682853 3278541 3203501 3360911 3078210 2538530
2324.79 2532802 2844545 2629546 2199530 2413963 2821820
2327.68 2608596 2310739 2719660 3253316 3058662 2807713
2330.57 3273587 3644093 3363757 3346677 3914825 3991029
2333.47 3526216 3681773 4187555 3933999 3517870 3963711
2336.36 4410177 4106515 4083218 4688319 4772312 4411813
2339.25 4741129 5203565 4856890 4571047 4838024 4706218
2342.14 4275915 4446702 4691605 4430091 4389255 4681566
2345.04 4633129 4419146 4512620 4670963 4616077 4559841
2347.93 4578559 4534979 4372978 4136957 3938899 3778090
2350.82 3613461 3520589 3290204 2905263 2921688 2985010
2353.71 2627284 2579022 2618728 2135541 1999481 2136472
2356.61 1811590 1906684 2161352 1727540 1722947 1947578
2359.50 1556232 1558197 1613748 1369703 1632240 1601031
2362.39 1391998 1667834 1510500 1367827 1460852 1199337
2365.29 1256066 1274153 1168414 1407650 1399576 1434733
2368.18 1543013 1571482 1762533 1849209 1963588 1981964
2371.07 1954359 2045178 1938969 1810668 1766200 1816892
2373.96 1911493 1986955 1977317 1906501 1881123 1766737
2376.86 1682904 1713860 1735206 1673129 1585360 1532749
2379.75 1599370 1728883 1755835 1693133 1619166 1607382
2382.64 1605094 1523236 1437741 1397903 1382744 1347999
2385.53 1283469 1215030 1129471 1042697 1009938 1003272
2388.43 991125 975971 862614 704685 649039 670241
2391.32 734964 823056 827981 703014 598465 621496
2394.21 634281 547689 469507 463544 546128 612338
2397.11 571125 582439 614819 605203 634917 647518
2400.00 655862 694026 735246 785661 803672 772643
2402.89 746450 739099 744405 795862 885038 949175
2405.78 1027577 1102191 1169148 1259215 1259282 1181327
2408.68 1154716 1224666 1325583 1384979 1396127 1390968
2411.57 1445151 1506289 1495387 1517484 1575600 1573613
2414.46 1524591 1486546 1502606 1609827 1788746 1926086
2417.35 1820671 1531706 1363308 1388437 1496211 1608157
2420.25 1657881 1644460 1626836 1594819 1534493 1525334
2423.14 1614791 1623417 1504879 1459862 1498346 1546761
2426.03 1606930 1672471 1710187 1725850 1766333 1807533
2428.93 1867518 2032162 2154843 2151408 2193340 2281056
2431.82 2305312 2302176 2380164 2540442 2589187 2545510
2434.71 2569213 2653751 2754198 2796032 2805157 2853297
2437.60 2970753 3157312 3280944 3206003 3030690 2910839
2440.50 2811626 2737145 2740010 2722204 2666724 2620957
2443.39 2552295 2491653 2529522 2600720 2613540 2593657
2446.28 2531465 2360086 2097813 1913792 1811199 1662799
2449.17 1597152 1548474 1373650 1281135 1249618 1211749
2452.07 1171327 1016425 861319 824460 797906 747947
2454.96 710083 661603 582482 492538 441891 402045
2457.85 374608 394433 429945 419705 356080 299926
2460.75 278591 306695 334177 337196 395401 447575
2463.64 392873 372060 425287 370634 325323 362534
2466.53 308176 213999 217493 273256 317177 360490
2469.42 337928 252650 232640 310894 375873 389888
2472.32 460933 523176 460311 353646 319348 322797
2475.21 387578 544516 657534 607327 498847 444023
2478.10 352061 267048 293640 379529 469262 519676
2480.99 495819 435534 449455 543512 565714 508652
2483.89 484035 538139 571665 537379 523689 491065
2486.78 479609 617077 734943 685366 602167 682893
2489.67 804173 744631 726148 803015 750728 708509
2492.57 776743 775912 754277 823976 819039 758744
2495.46 764321 700133 625011 684518 727502 727028
2498.35 780662 852603 894110 907038 870979 817530
2501.24 838953 894630 942892 1003496 1025635 1020885
2504.14 1024614 988682 1005204 1063020 1041450 1033618
2507.03 1132147 1221657 1202452 1101022 1088107 1198137
2509.92 1174072 1061405 1092798 1178301 1217350 1176993
2512.81 1074116 1091050 1172733 1203697 1264006 1329869
2515.71 1344656 1356314 1333541 1269366 1248912 1327986
2518.60 1386094 1361327 1385826 1509841 1609900 1635175
2521.49 1613694 1502504 1356330 1344657 1463308 1547914
2524.39 1553913 1521152 1593602 1778441 1890420 1940959
2527.28 1955141 1929350 1961474 1973439 1896916 1946922
2530.17 2036552 1987876 1967301 1952573 1959545 1994212
2533.06 1966242 1989556 2069671 2091327 2017359 1929671
2535.96 1928196 1958169 1936362 1922032 1932846 1913450
2538.85 1867951 1838879 1828331 1843254 1843750 1780125
2541.74 1662912 1591824 1573398 1582392 1575865 1500962
2544.63 1492661 1599404 1651657 1617164 1530784 1450075
2547.53 1463119 1544529 1602747 1646536 1676783 1673215
2550.42 1592116 1413259 1357427 1410032 1414453 1449233
2553.31 1495715 1474229 1455700 1536613 1635541 1630241
2556.21 1538509 1466727 1465771 1516386 1547069 1488911
2559.10 1487339 1616103 1696929 1657307 1598556 1545635
2561.99 1427442 1366907 1433270 1501568 1501709 1465727
2564.88 1491074 1487028 1436598 1506798 1594767 1661933
2567.78 1745992 1700517 1599855 1572331 1542420 1431340
2570.67 1359860 1447517 1526346 1500405 1509296 1552862
2573.56 1602298 1648659 1580799 1384477 1292137 1437042
2576.45 1579039 1519903 1422659 1471332 1529088 1530907
2579.35 1612282 1757416 1771601 1714796 1736729 1684874
2582.24 1592839 1598742 1626753 1664765 1749052 1784170
2585.13 1734084 1643202 1539208 1546224 1675403 1810547
2588.03 1925359 2025545 2116188 2179407 2177365 2120090
2590.92 2103895 2160618 2211447 2294088 2432699 2460510
2593.81 2406280 2494496 2601396 2524965 2423730 2502637
2596.70 2639451 2657120 2591869 2595268 2691400 2786318
2599.60 2911291 3014087 3043263 3123296 3262552 3387337
2602.49 3371924 3356293 3516098 3668126 3732554 3826166
2605.38 3965139 4010945 3897490 3806876 3891305 4077179
2608.27 4154203 4064736 3966083 3946182 3961027 3945924
2611.17 3928356 4023666 4107536 4035339 3936263 3962489
2614.06 4049426 3970207 3824541 3848819 3973771 3997723
2616.95 3916840 3851406 3878879 3927993 3904844 3795012
2619.85 3715417 3788434 3951677 4007172 3916466 3889559
2622.74 3985568 4089509 4171881 4219576 4268028 4381472
2625.63 4457193 4454933 4483355 4522866 4652363 4880796
2628.52 5118480 5372029 5523740 5551352 5609304 5666165
2631.42 5765718 5942070 6071821 6261218 6524356 6666074
2634.31 6736329 6890441 7031778 7096749 7118962 7085901
2637.20 7131261 7179881 7127589 7172081 7244822 7208563
2640.09 7154292 7128299 7153429 7167913 7060615 6929137
2642.99 6852841 6806258 6751376 6700470 6608262 6484665
2645.88 6431508 6456364 6454234 6278141 6053284 5875653
2648.77 5681392 5512474 5300417 4994889 4747421 4561257
2651.67 4323077 4084801 3953389 3918352 3860357 3753059
2654.56 3680309 3606362 3440883 3221366 3068396 2941156
2657.45 2776770 2669536 2624675 2612575 2610979 2556600
2660.34 2436298 2269771 2190914 2128290 1929555 1759925
2663.24 1814251 1931265 1898264 1806102 1681691 1546959
2666.13 1602960 1793800 1834076 1725206 1658148 1692112
2669.02 1756286 1716430 1586627 1552950 1652978 1726539
2671.91 1711817 1702722 1655103 1579441 1576127 1561698
2674.81 1453395 1422372 1509216 1556152 1556916 1540058
2677.70 1493882 1444605 1439514 1452646 1445273 1363956
2680.59 1327895 1427370 1559155 1607181 1531135 1476239
2683.49 1457004 1365300 1288379 1278967 1311174 1354922
2686.38 1402950 1346629 1178641 1144628 1278095 1467268
2689.27 1666412 1772948 1751258 1670548 1664819 1853721
2692.16 2023044 1990030 1967517 2118061 2301987 2365258
2695.06 2433368 2592603 2601643 2545368 2662434 2798156
2697.95 2886527 2959293 2913291 2849624 2922926 3050835
2700.84 3178134 3327415 3450660 3501177 3515895 3564010
2703.73 3659144 3620808 3414661 3308126 3362013 3463246
2706.63 3557224 3622348 3600839 3405222 3135500 3064661
2709.52 3083382 2936130 2808425 2798370 2715223 2630946
2712.41 2621257 2561318 2404555 2342944 2497579 2601258
2715.31 2492978 2325724 2260245 2260741 2268035 2283078
2718.20 2313055 2305799 2170688 2109426 2240527 2408526
2721.09 2535140 2613431 2620907 2580497 2517612 2493383
2723.98 2620793 2766298 2819531 2949431 3167131 3399061
2726.88 3675767 3902099 4028795 4217870 4409465 4536798
2729.77 4679943 4823522 5001607 5180341 5409012 5605825
2732.66 5616735 5666452 5857034 6188011 6704377 7281078
2735.55 7768881 8078079 8088813 7843608 7487103 7193606
2738.45 7151808 7340533 7507581 7512869 7494827 7604581
2741.34 7766347 7875067 7867683 7721439 7561506 7467569
2744.23 7316950 7176000 7190867 7186829 7042716 6864589
2747.13 6728015 6614077 6421974 6227162 6131822 5972904
2750.02 5817847 5739440 5657530 5654155 5623828 5419076
2752.91 5207514 5174980 5260936 5328688 5309875 5244945
2755.80 5184711 5117623 5116373 5188429 5249564 5348975
2758.70 5459787 5461032 5483513 5628602 5766376 5819493
2761.59 5845267 5896747 6008036 6185664 6340719 6390330
2764.48 6456094 6550797 6630146 6753085 6853712 6872689
2767.37 6863107 6953456 7168385 7403263 7564936 7616283
2770.27 7644120 7800155 8091820 8313201 8452864 8668294
2773.16 8820560 8866107 8986857 9246374 9506646 9712226
2776.05 9983404 10187300 10264145 10380377 10547175 10768369
2778.95 11024209 11233559 11376710 11541351 11747172 11961229
2781.84 12094280 12062327 12177787 12506605 12763970 12934859
2784.73 13034810 13112119 13235621 13294518 13271327 13255504
2787.62 13310680 13486268 13697696 13765718 13681026 13603252
2790.52 13617732 13702725 13807415 13842511 13792334 13652823
2793.41 13477325 13318750 13193117 13098970 12934327 12658342
2796.30 12453789 12478119 12620319 12663959 12541371 12295742
2799.19 11990733 11775737 11696932 11558411 11398849 11295099
2802.09 11155600 11037725 10960761 10785253 10637699 10700136
2804.98 10807093 10784335 10616522 10429814 10432086 10566933
2807.87 10638748 10665217 10720808 10814998 10908872 10994720
2810.77 11073837 11104932 11116677 11214313 11401581 11600509
2813.66 11743066 11877187 12123714 12316113 12378962 12518903
2816.55 12766185 12995861 13202134 13479877 13819039 14096177
2819.44 14329848 14604154 14963950 15304111 15575571 15769704
2822.34 15947806 16285750 16693480 17105565 17500132 17824199
2825.23 18187489 18535637 18912749 19461647 20013968 20489823
2828.12 20913781 21291084 21668732 22041344 22411962 22752907
2831.01 23153316 23526784 23737560 23989002 24291452 24513670
2833.91 24730147 25075554 25585379 26175158 26698742 27197072
2836.80 27788694 28442590 29056913 29596442 30086219 30627621
2839.69 31249239 31838692 32310220 32704177 33090030 33480549
2842.59 33865206 34306000 34763028 35223064 35787595 36328740
2845.48 36904358 37655536 38439024 39163444 39711007 40180321
2848.37 40777593 41495464 42432423 43629210 44924076 46224703
2851.26 47462201 48747934 50156628 51618823 53139884 54746434
2854.16 56563040 58465127 60247720 62024359 63940579 65988926
2857.05 68253782 70684521 73210503 75970056 78860779 81844533
2859.94 85033344 88349409 91855290 95561105 99262585 103107057
2862.83 107336022 111738440 116241191 121086744 126156132 131287558
2865.73 136393197 141353684 146206408 151153654 156275011 161624305
2868.62 167230790 172665871 177748026 182873856 188109681 193254928
2871.51 198192291 202971893 207902615 213154948 218756687 224784629
2874.41 231271375 238554687 246948570 256722923 267792228 277928595
2877.30 283872761 284418656 281964751 280223069 280727087 282880605
2880.19 285702162 288650271 291201557 292881415 293373636 292832375
2883.08 292488440 294807781 303506006 317818550 327787783 327710157
2885.98 322498127 315754668 308298473 301139661 294129948 286651191
2888.87 279418572 273514700 269390069 266523198 263904101 261364437
2891.76 258916684 256119856 252969722 249719861 246356468 242869854
2894.65 239436436 236137327 232674584 228884941 225057708 221479780
2897.55 218242121 215388431 212707833 209995673 207659922 206113482
2900.44 205088875 204099712 203336349 203188762 203526878 204230035
2903.33 205190869 206059614 206610786 206754299 206579227 206037593
2906.23 204784776 202852226 200675015 198438150 196239496 194436097
2909.12 193490449 193627767 194684519 196041458 196986564 197191682
2912.01 196720196 195977284 195051688 193724948 192088782 190195833
2914.90 188148524 186192194 184248037 182325534 180452966 178560125
2917.80 176854494 175490564 174418711 173676102 173307280 173530987
2920.69 174401702 175617323 177106782 178925636 180980208 183262642
2923.58 186033119 189486705 193522771 198017309 202864715 207909558
2926.47 213152288 218634476 224333427 230300070 236730715 243675642
2929.37 250892143 258214426 265674070 273474181 281704963 290305803
2932.26 299350586 308701482 318259713 327910744 337570814 347595522
2935.15 357856723 367816650 377212770 385723642 393211567 399961244
2938.05 406350656 412880892 420634123 431015652 445890718 468131307
2940.94 497006181 520637901 523012001 503863213 479610973 462991671
2943.83 453575566 446870193 441027775 436010456 432556672 431243976
2946.72 431234803 430756778 429226737 427293148 424426537 420499042
2949.62 415816713 407101817 393703283 382016655 375170249 370498940
2952.51 365818104 360483994 354039381 346368696 337951570 329332138
2955.40 320920179 312819570 305041368 298192213 292928330 289393255
2958.29 287685686 287934451 290138308 294520768 301527414 311176999
2961.19 324082674 341310452 362017639 385530779 412985055 444950996
2964.08 481342743 521473365 564267739 609321150 656283644 704287235
2966.97 751585634 795945746 835709306 869509058 895685807 912665938
2969.87 920086792 918304228 908430807 894496787 884921617 890820446
2972.76 920488060 969551931 1012956005 1020950998 990293525 943768593
2975.65 905182700 885818986 885469325 897631571 914656142 930684868
2978.54 941805076 945369623 939789639 924306536 899225230 865808898
2981.44 825432688 779899926 731332940 680991553 630196706 580651596
2984.33 533356390 489028950 448212218 411048926 377354248 346927502
2987.22 319812420 295880964 274570708 255517675 238570447 223356821
2990.11 209703317 197424681 186279292 176299165 167299908 158967931
2993.01 151418876 144686266 138470969 132726164 127541384 122799484
2995.90 118403204 114502466 110938174 107535361 104622303 102266596
2998.79 100266730 98733118 97762759 97158938 96739213 96377841
3001.69 96173886 96266844 96479009 96679238 96983377 97464451
3004.58 97830942 97873861 97706698 97501153 97290372 97132692
3007.47 97010752 96971166 97422705 98596932 100498549 103174005
3010.36 105904780 107621483 107873576 106934781 106023417 106401236
3013.26 108156635 110863563 114248710 118075721 122114374 126135272
3016.15 130013652 133683996 137145120 140520557 143955058 147642346
3019.04 151666516 156110724 161200765 167086222 173901191 181713349
3021.93 190501800 200304025 211222682 223322154 236543791 250799566
3024.83 265903541 281785418 298482869 315829498 333653535 351724938
3027.72 369670559 387279763 404431236 420730141 435561719 448407307
3030.61 458889648 466807680 471838739 473638629 472520853 469119977
3033.51 464631613 461068795 460663821 465479438 476391923 492313524
3036.40 509662806 522634052 527974483 526975936 523291204 520161880
3039.29 518223659 516663020 514759096 512431936 509589450 504996943
3042.18 497155400 486274379 473316886 458541485 442623396 426335774
3045.08 409742219 392908477 376060673 359194854 342145260 325019162
3047.97 307988412 291251235 275064561 259532241 244825639 231179569
3050.86 218685361 207199088 196589794 187015057 178544065 171067679
3053.75 164578800 159094106 154513426 150720841 147804385 145975788
3056.65 145222288 145046812 145349292 146431325 148199482 150452876
3059.54 153272157 156903222 161590552 167514903 174598266 182320273
3062.43 189966014 197186633 204389058 212574752 222281326 233120729
3065.33 244425163 255637783 266278563 276266012 285405186 293112759
3068.22 299068575 303108200 305069721 304945290 303623378 302374451
3071.11 302216376 304343728 309911991 319221709 332240287 349096161
3074.00 367510129 377986238 366762466 336872117 311504794 302941485
3076.90 305813388 313732380 323556922 333132269 340725018 345461832
3079.79 346964686 345247371 340446535 332948992 323769987 313651971
3082.68 302279969 289917263 278006739 267327328 257857826 249645799
3085.57 242638674 236523856 231034400 226222983 222046181 218208169
3088.47 214212585 209882841 205530036 201190096 196720133 192125416
3091.36 187484033 182753289 177758656 172712376 167962331 163516230
3094.25 159661304 156671820 154350751 152943239 152731916 153488275
3097.15 154893168 156352553 157093222 156831636 155679533 153738615
3100.04 151116526 148072690 144771993 141178891 137314436 133384764
3102.93 129570036 125809247 122008655 118247728 114692613 111396087
3105.82 108283009 105412992 102822444 100390615 98050468 95776762
3108.72 93674759 91753707 89802433 87854638 86046481 84193541
3111.61 82142721 79938325 77901248 76233009 74618806 72997825
3114.50 71566271 70280110 68730893 66840022 64977942 63524522
3117.39 62388291 61128732 59760580 58539729 57467220 56381900
3120.29 55251036 54112572 52990895 51776290 50254047 48532837
3123.18 46662086 44461036 42062685 39628843 37032457 34514929
3126.07 32289434 30134193 27997883 25950654 24014391 22204227
3128.97 20562725 19065051 17778215 16620962 15565603 14730304
3131.86 13960092 13251614 12614294 11900241 11297223 10995152
3134.75 10729657 10289456 9762271 9405398 9204336 8916993
3137.64 8526386 8215188 8135572 8119059 8007341 7862592
3140.54 7711971 7515653 7370302 7304406 7204091 7088218
3143.43 7077652 7074585 7063202 7140958 7179498 7077783
3146.32 6912078 6840298 6918380 7065709 7222889 7271252
3149.21 7194269 7111994 7065156 7069392 7122190 7166481
3152.11 7150132 7137424 7183284 7192617 7180516 7155965
3155.00 7149211 7235648 7297110 7329995 7406565 7498740
3157.89 7603323 7707974 7691387 7624513 7697198 7793806
3160.79 7848093 7947191 8068031 8153704 8324499 8530859
3163.68 8607402 8646254 8829549 9091171 9097248 9052950
3166.57 9194382 9288446 9268708 9283114 9416708 9667882
3169.46 10019099 10292284 10473135 10631630 10756548 10864089
3172.36 10985439 11233566 11479238 11688840 12057445 12451966
3175.25 12602675 12652930 12767152 12940529 13019475 13009079
3178.14 13047089 13108056 13071288 13013594 13222963 13518048
3181.03 13682207 13744446 13669469 13574606 13681463 14006879
3183.93 14160524 14013100 13848102 13575913 13285703 13160789
3186.82 13003817 12748313 12432285 11975931 11535734 11297993
3189.71 11227883 11180608 11031521 10840868 10687009 10429790
3192.61 10155992 9995758 9754042 9340850 8956055 8674660
3195.50 8379756 8092309 7763266 7372031 7037337 6719145
3198.39 6323576 5900685 5553177 5216270 4891876 4607483
3201.28 4282324 4061574 4004331 3854362 3668835 3631638
3204.18 3586948 3316129 2913213 2596326 2458480 2388373
3207.07 2340184 2226090 2068581 1984775 1824157 1629624
3209.96 1603048 1674787 1765450 1814909 1711613 1561150
3212.85 1547189 1675940 1738139 1633741 1456561 1307248
3215.75 1208866 1158024 1099569 988967 999612 1182417
3218.64 1261008 1263022 1338596 1245166 1084371 1108790
3221.53 1146542 1027572 892769 861220 884525 901511
3224.43 999163 1139932 1117894 1021028 912472 819349
3227.32 838877 878744 887743 864115 844661 825203
3230.21 811576 825943 769440 652943 620347 720928
3233.10 889287 981322 918745 823633 787214 736199
3236.00 705562 767054 840868 867339 848894 897703
3238.89 966112 939322 1007859 1100807 962433 730887
3241.78 607216 661679 806989 949535 1028846 1022511
3244.67 983688 1019441 1133554 1233034 1296054 1314167
3247.57 1346834 1433230 1422174 1377843 1485397 1682145
3250.46 1743503 1532981 1267629 1185404 1303100 1490750
3253.35 1580553 1429952 1166543 1102352 1176334 1123414
3256.25 1050421 1093717 1241348 1440841 1521305 1476307
3259.14 1403302 1336873 1329246 1405589 1464873 1447071
3262.03 1418851 1427690 1366305 1341633 1390529 1323645
3264.92 1375638 1589245 1614511 1513633 1425670 1335536
3267.82 1443337 1770684 2047246 2003428 1718121 1428454
3270.71 1276186 1407919 1675923 1737081 1561024 1355191
3273.60 1306960 1479549 1717108 1795409 1583412 1364576
3276.49 1348314 1435329 1518713 1500951 1431476 1359670
3279.39 1274665 1246047 1303506 1400125 1371767 1206625
3282.28 1118464 1127105 1149220 1174800 1131704 999924
3285.17 924197 988004 1000906 910614 909666 1005207
3288.07 1002137 842452 755377 856260 1028276 1125634
3290.96 1062570 942114 890510 851905 905170 1049923
3293.85 1091045 1056467 1040963 1037123 1038132 994357
3296.74 959164 1028249 1103750 1128696 1109806 955057
3299.64 787601 836870 954389 972711 992666 983241
3302.53 1027011 1263334 1414844 1306724 1172815 1085993
3305.42 910327 782576 833468 846428 831357 823252
3308.31 759422 727955 611851 460200 396192 426917
3311.21 550924 595586 474904 316706 248116 327422
3314.10 486348 597988 526436 397409 424287 438927
3316.99 317928 201079 130255 25148-94156-199734
3319.89-230300-118718 74268 209792 187554 115551
3322.78 82606 14927-70038-93717-115646-231001
3325.67-203725 19983 8289-11936 134071 150370
3328.56 131804 140618 226402 262660 196838 145389
3331.46 12981-46617 53928 79219-34110-39157
3334.35 131224 176116 161404 200425 50967-207958
3337.24-319045-264552-96774-24168-89618 30962
3340.13 250871 176420-51191-53519 10839 48710
3343.03 175192 167515-18595-42216 111127 126484
3345.92 39573 75050 41857 98807 379272 341979
3348.81 50509-141718-235604-208778-147694-11223
3351.71 201308 147547 15492 80360 201817 240005
3354.60 154389 74362 36644-78804-284301-331810
3357.49-164797-86447-164793-195828-159257-249749
3360.38-342766-236887 63930 336161 460501 464693
3363.28 365681 211364-60625-232123-66896-3968
3366.17-70842-23754-32764-115496-175374-155358
3369.06-151154-225315-223834-47277 61604 52134
3371.95 8051-82011-102482-19108 48191-32201
3374.85-169143-270298-380040-224519 181168 406845
3377.74 369294 329245 249795 143614 218433 281452
3380.63 171294 10008-53836 91172 193991-30786
3383.53-207903-42161 172473 268078 228432 168468
3386.42 244077 222887 40452-61166 4138 80185
3389.31 78305 95305 152784 114178-10139-73795
3392.20-41840-61695-113698 35593 343761 532694
3395.10 473296 265641 149107 219713 298028 178794
3397.99 68409 83115-16729-90734 20577 176910
3400.88 137312-116782-233686-126064 53459 142334
3403.77 146961 149625 173096 128156-23183-93611
3406.67-41587-44453-187123-209245-82534-118536
3409.56-193894-23081 151845 110129 18569-174645
3412.45-411400-445346-371577-260356-120165-146845
3415.35-290912-468723-462373-303234-294422-250105
3418.24-70894 15202-48682-166948-208449-189896
3421.13-208075-257027-311465-269032-161525-239565
3424.02-299604-149022-63507-65388 19205 71601
3426.92-134748-430160-471109-304706-144693 44270
3429.81 120774 67975 66002 79936 120613 138964
3432.70 41253 64224 93984-14828 44891 233545
3435.59 286481 219158 203322 213480 221141 250792
3438.49 273753 175903 7276-56597-16419 4793
3441.38 39514 97917 144669 274554 273585 197460
3444.27 317669 470963 528444 420817 239607 98573
3447.17 18219-28069-72675-754 105366 130661
3450.06 40139-17659 3207-152756-283837-127130
3452.95 863-63763-149323-193414-123296-36496
3455.84-164736-318350-297263-151945-4722-51988
3458.74-237469-274798-253396-413790-496947-368374
3461.63-306461-431649-521138-410795-267206-313585
3464.52-525464-659934-544241-330331-194705-164404
3467.41-270610-422426-601867-864253-922089-717968
3470.31-569516-460778-228444-139504-326282-440750
3473.20-332890-293337-363061-372882-292867-277511
3476.09-371733-309065-282700-498497-698315-701998
3478.99-523286-375231-293886-325544-570709-764868
3481.88-725252-689456-721509-647237-511429-255454
3484.77-3913-34655-363843-649078-642708-569499
3487.66-593991-627358-658481-538392-436461-660586
3490.56-902997-957477-957921-850151-723496-806986
3493.45-815876-672915-660904-695230-581383-494260
3496.34-584226-682218-672335-595024-497210-441807
3499.23-393814-322573-352123-482378-417275-210244
3502.13-240000-480791-601096-462018-160967-1239
3505.02-79830-177788-269197-449965-536208-455793
3507.91-417505-306876-192407-234615-314631-415812
3510.81-515670-425128-239762-237918-341164-342377
3513.70-254801-111513 107159 303231 384535 414115
3516.59 459992 439598 360093 281413 237759 240023
3519.48 254197 357877 518508 642724 720884 744263
3522.38 908805 1124956 934045 727537 900437 939268
3525.27 793475 781977 830358 829781 884496 1109880
3528.16 1256657 1147664 1040446 1024016 923918 813339
3531.05 744970 659933 731985 814047 735102 823511
3533.95 1028976 1049592 903842 698124 577681 599832
3536.84 657953 575752 298819 82475 185685 410991
3539.73 407377 238446 183633 153964-2069-186998
3542.63-300871-288497-232514-182527-120473-122577
3545.52-103998-106397-151674-151021-133615-103398
3548.41-59215-51909-198526-366710-355321-221420
3551.30-122924-162423-264802-337388-445145-520256
3554.20-520937-543120-568385-496288-314630-103263
3557.09 63082 37566-230778-368539-224388-145500
3559.98-174674-302739-436156-508932-536088-397202
3562.87-234918-188118-195177-204069-151176-971
3565.77 35868-147948-323022-394839-420060-394304
3568.66-307012-277945-364330-345101-256532-275551
3571.55-332133-423135-414295-430955-575317-528485
3574.45-381446-398906-414742-319922-309075-251650
3577.34-90003-60124-236757-398497-420698-474225
3580.23-546941-531054-518578-493510-429123-402034
3583.12-358697-259052-230199-170363-28414 51168
3586.02-49499-194640-133794-143422-541915-880385
3588.91-738796-343841-69116-24804-41421-61463
3591.80-117315-149239-150838-130727 9641 79658
3594.69 21512 20068-77705-152969-64512-8175
3597.59 14704 54090 47010 13593 46957 128452
3600.48 143883 104042 158243 117251-141119-316751
3603.37-239824-66527 2492-32947-123381-270231
3606.27-323585-130514 41893-40518-313770-556644
3609.16-368507-4427 120973 125464 73164 7395
3612.05 52271 312417 441387 241743 34992 21437
3614.94 24926-105 117555 238950 273361 302405
3617.84 403746 448210 253591 159351 430631 761695
3620.73 932335 998828 1054224 1035047 975575 1036204
3623.62 1173307 1166250 1068969 1108871 1216199 1306954
3626.51 1360115 1167764 720097 473561 609424 550393
3629.41 427590 652265 965250 1124648 1148925 1154319
3632.30 1247156 1260750 1115183 1121545 1315881 1419536
3635.19 1361520 1336385 1379789 1373648 1312958 1275014
3638.09 1293145 1297685 1209260 1169499 1255810 1266372
3640.98 1154002 1069498 1132035 1273218 1359640 1352569
3643.87 1394507 1427097 1366303 1478516 1599351 1499101
3646.76 1379591 1513125 1757896 1623206 1366118 1599640
3649.66 1948669 2024632 2038344 2164820 2384693 2623063
3652.55 2834193 2981888 3048954 3063189 2976809 2662158
3655.44 2226597 2015870 2163638 2383535 2568920 2733497
3658.33 2808632 2803967 2767891 2807195 2892153 2888561
3661.23 2899991 2991967 2934730 2745358 2600513 2512177
3664.12 2505777 2473350 2259736 1978453 1862885 1847003
3667.01 1800949 1626418 1270810 1114780 1201057 997706
3669.91 472039 317046 795882 1124131 1108455 1051763
3672.80 961240 831524 597278 284343 167039 120550
3675.69 200930 489899 638325 752841 922837 893153
3678.58 658886 522173 678801 940105 1096122 1158047
3681.48 1100206 964348 813181 682414 739674 904569
3684.37 977399 1006688 1046835 1107645 1111247 1008198
3687.26 619926 46381 124789 748598 1104823 1141649
3690.15 1037079 962813 1074090 1252347 1343267 1246002
3693.05 1057893 1053609 1195214 1344895 1426878 1384707
3695.94 1278902 1153608 1005461 1026082 1267555 1466184
3698.83 1455771 1386023 1375413 1270987 1044803 975396
3701.73 1112485 1200578 1259745 1307037 1368298 1488428
3704.62 1511902 1520878 1506365 1355427 1205946 1193323
3707.51 1266470 1238800 1064665 1077565 1397293 1579440
3710.40 1524963 1262088 794323 712969 1173151 1503572
3713.30 1526022 1411360 1312647 1323957 1336962 1367807
3716.19 1417579 1548993 1687087 1625808 1507119 1549694
3719.08 1656747 1603473 1543788 1565730 1421652 1256350
3721.97 1260649 1296018 1334532 1459838 1561456 1514701
3724.87 1446097 1329773 1174294 1175566 1176876 1131505
3727.76 1142810 1067346 973308 978512 1106625 1233820
3730.65 1098273 608466 276503 549087 825645 765757
3733.55 634043 425120 314340 438743 530028 353550
3736.44 224542 372346 593652 680856 745360 916149
3739.33 981133 922845 713981 453732 433363 570458
3742.22 727657 756000 296078-680465-1104531-400586
3745.12 353564 718141 873337 785542 560118 461778
3748.01 435710 69669-223535 75728 395316 374812
3750.90 8227-614849-594711 204165 733458 782452
3753.79 630833 512189 541471 548067 423772 410379
3756.69 609058 732407 688173 570412 488360 490190
3759.58 556093 631034 707331 912481 1052570 979282
3762.47 872283 882447 915456 876230 728021 515972
3765.37 386060 458871 692208 878524 847885 772832
3768.26 799802 751898 563304 557215 761931 881181
3771.15 909279 955063 971657 980259 995624 896171
3774.04 837109 878468 830708 781916 819454 889211
3776.94 941240 961187 943482 867747 695938 685297
3779.83 907692 1005764 917351 818945 922132 1078837
3782.72 983372 823220 854397 869336 710494 652903
3785.61 725699 750549 812354 996070 1188129 1233700
3788.51 1086750 875185 762218 709880 651809 635754
3791.40 592071 599706 742229 833830 847979 945703
3794.29 961150 773699 509592 306641 296172 387742
3797.19 526125 744981 895817 892520 868060 840755
3800.08 633825 125409-117399 336472 753864 771944
3802.97 676147 630856 692457 822012 962132 950558
3805.86 550487 156128 401619 895310 1082367 1092758
3808.76 1059624 1065468 1096036 1049609 983504 885404
3811.65 874855 955299 952648 928182 979923 1019179
3814.54 851545 370657-144151 109416 863502 1214803
3817.43 1186395 1066015 924506 833516 781412 698429
3820.33 669371 750462 837026 1021732 1165953 1083677
3823.22 938279 856784 841790 879353 931273 1014657
3826.11 1027178 972077 1047666 1178393 1248091 1334142
3829.01 1313464 1187436 1134052 1025907 881484 992820
3831.90 1244520 1401999 1456003 1466035 1411164 1195843
3834.79 1141931 1308822 1426525 1527140 1214685 503220
3837.68 582163 1263422 1610381 1716496 1819535 1788168
3840.58 1579261 1595755 1742571 1771919 1707034 1549033
3843.47 1500840 1605527 1710254 1791061 1786767 1766495
3846.36 1731538 1687373 1735889 1696692 1504639 1395652
3849.25 1342238 1293433 1288946 1086321 520456 276423
3852.15 615258 605713-140063-790171-398712 453674
3855.04 853262 935024 927278 832672 755398 709988
3857.93 602503 554417 694171 855418 817124 703994
3860.83 587503 391579 253906 337623 561709 576553
3863.72 319026 109772 208164 496999 613550 471074
3866.61 292878 295860 430985 450512 257714 16126
3869.50-184538-36953 357052 475433 364490 368626
3872.40 464853 308196-109539-299928 11336 294197
3875.29 218907 145897 85233-761 7668 6746
3878.18-92748-187388-288201-479435-486757-249636
3881.07-52667-14589-92648-144380-198913-350426
3883.97-425223-584881-969321-1002796-615260-327186
3886.86-265771-238413-127370-116497-184181-152414
3889.75-215584-474409-575991-274333-24805-84817
3892.65-145842-130477-159700-148060-131500-174677
3895.54-192198-142084-53451 23516 78902 39468
3898.43-175891-433621-413428-128200 82996-7119
3901.32-166151 33796 367218 395481 95140-121781
3904.22 76142 289622 216023 201537 392268 562043
3907.11 679129 782058 699607 560714 626997 748180
3910.00 750757 792088 922470 916737 848819 853882
3912.89 886134 844442 724034 733692 1000092 1224219
3915.79 1166129 930652 811168 1017721 1271790 1309632
3918.68 1311798 1302811 1216003 1257513 1369260 1399567
3921.57 1463866 1574764 1709088 1824953 1838779 1789711
3924.47 1785594 1938127 2049557 2001613 2084862 2288705
3927.36 2417350 2483225 2554557 2632782 2742153 2872013
3930.25 2919287 2908268 2783913 2650810 2835346 3091475
3933.14 3133058 3224962 3423404 3492453 3493472 3593171
3936.04 3661290 3625430 3557854 3533715 3669775 3873297
3938.93 4002375 3942248 3769609 3773092 3861119 3691989
3941.82 3394640 3322620 3465532 3533149 3457981 3427914
3944.71 3450123 3384175 3300066 3325802 3301902 3227418
3947.61 3140719 2944680 2655312 2511475 2532553 2564890
3950.50 2639091 2698410 2694342 2581015 2380503 2345043
3953.39 2425349 2416953 2317070 2217144 2179416 2121849
3956.29 2062843 2015589 1900627 1781217 1714594 1709737
3959.18 1796878 1926723 1925790 1900327 1908702 1840902
3962.07 1756464 1784846 1910680 1984803 1955143 1920160
3964.96 1959548 1984015 2022478 2102436 2074286 2044281
3967.86 2199036 2289122 2242972 2366651 2519086 2438105
3970.75 2346660 2384058 2321763 2189658 2165707 2159291
3973.64 2154534 2309241
##END=
