##TITLE=4-CYCLOHEXENECARBONITRILE
##JCAMP-DX=4.24
##DATA TYPE=INFRARED SPECTRUM
##CLASS=COBLENTZ III
##ORIGIN=STANDARD OIL OF OHIO
##OWNER=COBLENTZ SOCIETY
Collection (C) 2018 copyright by the U.S. Secretary of Commerce
on behalf of the United States of America. All rights reserved.
##DATE=1965/04/01
##NAMES=3-cyclohexene-1-carbonitrile
4-CYANOCYCLO-1-HEXENE
##CAS REGISTRY NO=100-45-8
##MOLFORM=C7 H9 N
##SOURCE REFERENCE=COBLENTZ NO. 10260
##$NIST SOURCE=COBLENTZ
##$NIST IMAGE=cob10260
##SPECTROMETER/DATA SYSTEM=PERKIN-ELMER 521 (GRATING)
##INSTRUMENT PARAMETERS=FILTERS AT 3150, 2500, 2000, 1150, 700, 410 AND GRATING CHANGES AT 2000, 630 CM^-^1
##STATE=LIQUID (NEAT)
##PATH LENGTH=SMEAR
##SAMPLING PROCEDURE=TRANSMISSION
##RESOLUTION=4
##DATA PROCESSING=DIGITIZED BY NIST FROM HARD COPY (FROM TWO SEGMENTS)
##XUNITS=1/CM
##YUNITS=TRANSMITTANCE
##XFACTOR=1.000000
##YFACTOR=1
##DELTAX=1.273345
##FIRSTX=482.158
##LASTX=3901.09
##FIRSTY=0.282
##MAXX=3901.09
##MINX=482.158
##MAXY=0.899
##MINY=0.071
##NPOINTS=2686
##XYDATA=(X++(Y..Y))
482.158000 0.2820 0.2850 0.2980 0.3020 0.3030
488.524725 0.3030 0.3050 0.3090 0.3100 0.3169
494.891450 0.3230 0.3270 0.3359 0.3409 0.3430
501.258175 0.3469 0.3509 0.3549 0.3589 0.3610
507.624900 0.3639 0.3689 0.3700 0.3710 0.3730
513.991625 0.3730 0.3730 0.3730 0.3730 0.3730
520.358350 0.3730 0.3730 0.3730 0.3740 0.3740
526.725075 0.3788 0.4002 0.4154 0.4352 0.4466
533.091800 0.4586 0.4696 0.4729 0.4740 0.4769
539.458525 0.4770 0.4799 0.4924 0.5006 0.5067
545.825250 0.5147 0.5217 0.5287 0.5376 0.5437
552.191975 0.5516 0.5586 0.5666 0.5727 0.5777
558.558700 0.5846 0.5878 0.5918 0.5948 0.5997
564.925425 0.6009 0.6066 0.6117 0.6148 0.6150
571.292150 0.6178 0.6199 0.6200 0.6191 0.6181
577.658875 0.6152 0.6122 0.6101 0.6072 0.6014
584.025600 0.5963 0.5913 0.5910 0.6012 0.6187
590.392325 0.6339 0.6498 0.6841 0.6916 0.6957
596.759050 0.6969 0.7007 0.7047 0.7087 0.7136
603.125775 0.7186 0.7199 0.7200 0.7200 0.7218
609.492500 0.7220 0.7220 0.7220 0.7220 0.7202
615.859225 0.7200 0.7191 0.7190 0.7181 0.7171
622.225950 0.7143 0.7113 0.7110 0.7092 0.7018
628.592675 0.6947 0.6859 0.6725 0.6683 0.6644
634.959400 0.6532 0.6385 0.6146 0.6031 0.4451
641.326125 0.3495 0.2618 0.2059 0.1319 0.0824
647.692850 0.0717 0.0710 0.0754 0.0955 0.1060
654.059575 0.1149 0.1354 0.1564 0.1914 0.2065
660.426300 0.3207 0.3861 0.4053 0.4201 0.4456
666.793025 0.4708 0.4949 0.5206 0.5431 0.5642
673.159750 0.5836 0.5991 0.6140 0.6281 0.6404
679.526475 0.6515 0.6703 0.6825 0.6926 0.7026
685.893200 0.7126 0.7149 0.7184 0.7199 0.7234
692.259925 0.7308 0.7329 0.7330 0.7330 0.7330
698.626650 0.7321 0.7277 0.7168 0.7090 0.7046
704.993375 0.6981 0.6877 0.6776 0.6676 0.6400
711.360100 0.5969 0.5350 0.4803 0.4029 0.3572
717.726825 0.3418 0.3400 0.4127 0.6304 0.7043
724.093550 0.7403 0.7586 0.7777 0.7818 0.7820
730.460275 0.7820 0.7812 0.7760 0.7676 0.7536
736.827000 0.7352 0.7121 0.6832 0.6532 0.5936
743.193725 0.5244 0.4488 0.3801 0.3664 0.4157
749.560450 0.4844 0.5659 0.6784 0.7498 0.7838
755.927175 0.8036 0.8167 0.8255 0.8343 0.8433
762.293900 0.8474 0.8496 0.8508 0.8534 0.8548
768.660625 0.8558 0.8560 0.8552 0.8550 0.8542
775.027350 0.8540 0.8524 0.8520 0.8512 0.8502
781.394075 0.8460 0.8418 0.8370 0.8352 0.8350
787.760800 0.8366 0.8394 0.8400 0.8368 0.8352
794.127525 0.8350 0.8350 0.8358 0.8391 0.8447
800.494250 0.8507 0.8559 0.8594 0.8608 0.8610
806.860975 0.8610 0.8602 0.8600 0.8615 0.8620
813.227700 0.8620 0.8620 0.8620 0.8635 0.8648
819.594425 0.8658 0.8675 0.8688 0.8690 0.8690
825.961150 0.8690 0.8682 0.8665 0.8652 0.8650
832.327875 0.8619 0.8572 0.8492 0.8425 0.8266
838.694600 0.7977 0.7755 0.7277 0.7148 0.7536
845.061325 0.7728 0.7803 0.7910 0.8090 0.8147
851.428050 0.8142 0.8132 0.8047 0.7930 0.7885
857.794775 0.7634 0.7520 0.6924 0.6720 0.7148
864.161500 0.7627 0.7896 0.8084 0.8137 0.8140
870.528225 0.8133 0.8071 0.7947 0.7771 0.7530
876.894950 0.7225 0.6868 0.6491 0.6002 0.5860
883.261675 0.6385 0.6704 0.7069 0.7646 0.7871
889.628400 0.7890 0.7861 0.7777 0.7641 0.7463
895.995125 0.7309 0.7177 0.7068 0.6968 0.6847
902.361850 0.6745 0.6655 0.6458 0.6154 0.5782
908.728575 0.5193 0.4986 0.4994 0.5078 0.5145
915.095300 0.5330 0.5578 0.5976 0.6605 0.7000
921.462025 0.7221 0.7406 0.7558 0.7670 0.7742
927.828750 0.7802 0.7897 0.7937 0.7933 0.7930
934.195475 0.7916 0.7868 0.7781 0.7302 0.6873
940.562200 0.6659 0.6492 0.6212 0.5883 0.5780
946.928925 0.6013 0.6373 0.6490 0.5898 0.5219
953.295650 0.5030 0.5098 0.5157 0.5293 0.5350
959.662375 0.5120 0.4942 0.4822 0.4598 0.4503
966.029100 0.4507 0.4564 0.4630 0.4791 0.5028
972.395825 0.5271 0.5464 0.5687 0.5963 0.6484
978.762550 0.6893 0.7124 0.7290 0.7406 0.7486
985.129275 0.7543 0.7573 0.7600 0.7617 0.7627
991.496000 0.7643 0.7657 0.7653 0.7650 0.7624
997.862725 0.7603 0.7541 0.7419 0.7254 0.7009
1004.229450 0.6904 0.6907 0.6988 0.7172 0.7398
1010.596175 0.7589 0.7721 0.7824 0.7924 0.8011
1016.962900 0.8046 0.8063 0.8051 0.7989 0.7941
1023.329625 0.7873 0.7669 0.7159 0.6756 0.6484
1029.696350 0.6019 0.5449 0.5240 0.5581 0.5824
1036.063075 0.6308 0.6580 0.6555 0.6061 0.5602
1042.429800 0.5500 0.6469 0.7175 0.7294 0.7382
1048.796525 0.7457 0.7505 0.7557 0.7592 0.7618
1055.163250 0.7667 0.7702 0.7716 0.7720 0.7714
1061.529975 0.7686 0.7646 0.7581 0.7471 0.7305
1067.896700 0.7151 0.6930 0.6747 0.6615 0.6886
1074.263425 0.7401 0.7696 0.7844 0.7972 0.8062
1080.630150 0.8138 0.8176 0.8186 0.8208 0.8232
1086.996875 0.8264 0.8304 0.8355 0.8398 0.8410
1093.363600 0.8410 0.8416 0.8420 0.8420 0.8420
1099.730325 0.8420 0.8420 0.8414 0.8410 0.8410
1106.097050 0.8410 0.8410 0.8410 0.8404 0.8400
1112.463775 0.8400 0.8400 0.8389 0.8380 0.8374
1118.830500 0.8359 0.8327 0.8270 0.8189 0.8087
1125.197225 0.7983 0.7781 0.7372 0.6931 0.6530
1131.563950 0.5447 0.4750 0.4998 0.5432 0.5676
1137.930675 0.6772 0.7767 0.8006 0.8157 0.8254
1144.297400 0.8334 0.8387 0.8406 0.8410 0.8416
1150.664125 0.8420 0.8420 0.8420 0.8420 0.8420
1157.030850 0.8420 0.8415 0.8394 0.8380 0.8369
1163.397575 0.8322 0.8263 0.8192 0.8123 0.7993
1169.764300 0.7572 0.7074 0.6777 0.6567 0.6759
1176.131025 0.7160 0.7370 0.7514 0.7580 0.7448
1182.497750 0.7314 0.7220 0.7139 0.7141 0.7303
1188.864475 0.7482 0.7525 0.7493 0.7439 0.7202
1195.231200 0.7000 0.7105 0.7289 0.7464 0.7638
1201.597925 0.7803 0.7952 0.8035 0.8050 0.8050
1207.964650 0.8070 0.8105 0.8135 0.8181 0.8236
1214.331375 0.8265 0.8270 0.8270 0.8265 0.8235
1220.698100 0.8175 0.8089 0.7989 0.7804 0.7595
1227.064825 0.7520 0.7565 0.7729 0.7919 0.8054
1233.431550 0.8155 0.8205 0.8225 0.8235 0.8235
1239.798275 0.8220 0.8200 0.8170 0.8072 0.7946
1246.165000 0.7846 0.7677 0.7316 0.7050 0.7050
1252.531725 0.7152 0.7317 0.7471 0.7660 0.7780
1258.898450 0.7776 0.7741 0.7672 0.7544 0.7312
1265.265175 0.6965 0.6736 0.6752 0.7002 0.7389
1271.631900 0.7636 0.7715 0.7715 0.7701 0.7657
1277.998625 0.7569 0.7464 0.7401 0.7399 0.7433
1284.365350 0.7506 0.7630 0.7738 0.7853 0.7982
1290.732075 0.8029 0.8040 0.8040 0.8035 0.8016
1297.098800 0.7982 0.7951 0.7917 0.7854 0.7792
1303.465525 0.7761 0.7705 0.7605 0.7430 0.7245
1309.832250 0.7200 0.7294 0.7419 0.7430 0.7346
1316.198975 0.7200 0.6988 0.6688 0.6470 0.6700
1322.565700 0.7235 0.7408 0.7682 0.7907 0.7934
1328.932425 0.7927 0.7897 0.7833 0.7706 0.7569
1335.299150 0.7462 0.7376 0.7283 0.7147 0.6944
1341.665875 0.6749 0.6672 0.6647 0.6647 0.6695
1348.032600 0.6780 0.6896 0.6994 0.7078 0.7159
1354.399325 0.7275 0.7430 0.7512 0.7559 0.7612
1360.766050 0.7679 0.7779 0.7869 0.7961 0.8010
1367.132775 0.8073 0.8148 0.8198 0.8210 0.8210
1373.499500 0.8210 0.8202 0.8170 0.8132 0.8104
1379.866225 0.7985 0.7785 0.7605 0.7393 0.7173
1386.232950 0.6974 0.7120 0.7490 0.7691 0.7803
1392.599675 0.7958 0.8058 0.8070 0.8070 0.8059
1398.966400 0.8009 0.7933 0.7875 0.7812 0.7700
1405.333125 0.7612 0.7600 0.7592 0.7576 0.7533
1411.699850 0.7429 0.7318 0.7227 0.7134 0.6954
1418.066575 0.6762 0.6628 0.6363 0.5920 0.5453
1424.433300 0.4755 0.4052 0.3569 0.2959 0.2118
1430.800025 0.1469 0.1310 0.1339 0.1505 0.1828
1437.166750 0.2205 0.2591 0.3028 0.3520 0.3513
1443.533475 0.3457 0.3376 0.3374 0.3398 0.3524
1449.900200 0.3861 0.4280 0.4599 0.4847 0.5089
1456.266925 0.5456 0.6082 0.6898 0.7269 0.7488
1462.633650 0.7652 0.7821 0.7935 0.8067 0.8130
1469.000375 0.8174 0.8244 0.8290 0.8303 0.8353
1475.367100 0.8420 0.8467 0.8487 0.8513 0.8557
1481.733825 0.8597 0.8613 0.8627 0.8643 0.8650
1488.100550 0.8653 0.8670 0.8690 0.8693 0.8710
1494.467275 0.8730 0.8733 0.8753 0.8786 0.8803
1500.834000 0.8816 0.8830 0.8830 0.8830 0.8830
1507.200725 0.8830 0.8833 0.8843 0.8850 0.8850
1513.567450 0.8850 0.8850 0.8850 0.8850 0.8847
1519.934175 0.8840 0.8840 0.8840 0.8840 0.8840
1526.300900 0.8840 0.8840 0.8840 0.8840 0.8843
1532.667625 0.8859 0.8880 0.8880 0.8877 0.8873
1539.034350 0.8880 0.8880 0.8883 0.8890 0.8887
1545.401075 0.8880 0.8880 0.8883 0.8890 0.8887
1551.767800 0.8877 0.8864 0.8850 0.8847 0.8837
1558.134525 0.8824 0.8807 0.8797 0.8787 0.8772
1564.501250 0.8747 0.8740 0.8740 0.8737 0.8730
1570.867975 0.8725 0.8707 0.8697 0.8690 0.8687
1577.234700 0.8680 0.8669 0.8635 0.8617 0.8607
1583.601425 0.8597 0.8585 0.8567 0.8557 0.8537
1589.968150 0.8495 0.8477 0.8454 0.8402 0.8377
1596.334875 0.8347 0.8267 0.8202 0.8088 0.7968
1602.701600 0.7878 0.7797 0.7742 0.7670 0.7588
1609.068325 0.7495 0.7388 0.7285 0.7251 0.7168
1615.435050 0.7086 0.7033 0.6998 0.6977 0.7049
1621.801775 0.7124 0.7177 0.7207 0.7242 0.7289
1628.168500 0.7334 0.7382 0.7395 0.7410 0.7412
1634.535225 0.7422 0.7432 0.7449 0.7480 0.7402
1640.901950 0.7046 0.6691 0.6431 0.6107 0.5669
1647.268675 0.5540 0.5220 0.5300 0.5966 0.7385
1653.635400 0.7612 0.7864 0.7967 0.8045 0.8119
1660.002125 0.8194 0.8210 0.8214 0.8236 0.8264
1666.368850 0.8280 0.8286 0.8314 0.8338 0.8372
1672.735575 0.8384 0.8402 0.8412 0.8420 0.8420
1679.102300 0.8420 0.8420 0.8420 0.8420 0.8420
1685.469025 0.8422 0.8434 0.8454 0.8479 0.8529
1691.835750 0.8574 0.8592 0.8602 0.8610 0.8610
1698.202475 0.8608 0.8598 0.8586 0.8570 0.8568
1704.569200 0.8553 0.8518 0.8505 0.8478 0.8466
1710.935925 0.8446 0.8430 0.8428 0.8418 0.8410
1717.302650 0.8412 0.8422 0.8435 0.8462 0.8472
1723.669375 0.8485 0.8510 0.8517 0.8552 0.8562
1730.036100 0.8570 0.8573 0.8593 0.8612 0.8620
1736.402825 0.8626 0.8665 0.8693 0.8716 0.8750
1742.769550 0.8752 0.8760 0.8763 0.8780 0.8780
1749.136275 0.8780 0.8780 0.8780 0.8780 0.8780
1755.503000 0.8780 0.8780 0.8776 0.8750 0.8750
1761.869725 0.8750 0.8751 0.8760 0.8759 0.8750
1768.236450 0.8750 0.8750 0.8750 0.8751 0.8763
1774.603175 0.8780 0.8780 0.8783 0.8801 0.8814
1780.969900 0.8840 0.8841 0.8854 0.8881 0.8891
1787.336625 0.8900 0.8902 0.8920 0.8920 0.8920
1793.703350 0.8920 0.8921 0.8930 0.8930 0.8930
1800.070075 0.8930 0.8929 0.8920 0.8920 0.8920
1806.436800 0.8920 0.8918 0.8900 0.8900 0.8900
1812.803525 0.8899 0.8890 0.8889 0.8880 0.8880
1819.170250 0.8879 0.8870 0.8870 0.8870 0.8870
1825.536975 0.8870 0.8870 0.8870 0.8871 0.8880
1831.903700 0.8880 0.8880 0.8880 0.8880 0.8880
1838.270425 0.8880 0.8881 0.8890 0.8890 0.8889
1844.637150 0.8880 0.8880 0.8879 0.8868 0.8850
1851.003875 0.8850 0.8849 0.8839 0.8830 0.8830
1857.370600 0.8830 0.8828 0.8809 0.8801 0.8809
1863.737325 0.8800 0.8799 0.8790 0.8789 0.8779
1870.104050 0.8759 0.8750 0.8750 0.8750 0.8750
1876.470775 0.8750 0.8750 0.8751 0.8762 0.8791
1882.837500 0.8801 0.8811 0.8831 0.8852 0.8880
1889.204225 0.8881 0.8890 0.8890 0.8890 0.8890
1895.570950 0.8890 0.8890 0.8890 0.8889 0.8880
1901.937675 0.8878 0.8840 0.8829 0.8809 0.8779
1908.304400 0.8760 0.8750 0.8739 0.8710 0.8710
1914.671125 0.8710 0.8700 0.8690 0.8690 0.8680
1921.037850 0.8680 0.8690 0.8700 0.8700 0.8700
1927.404575 0.8700 0.8700 0.8710 0.8710 0.8710
1933.771300 0.8710 0.8710 0.8711 0.8730 0.8740
1940.138025 0.8751 0.8780 0.8780 0.8790 0.8800
1946.504750 0.8810 0.8810 0.8810 0.8830 0.8830
1952.871475 0.8830 0.8840 0.8840 0.8850 0.8850
1959.238200 0.8850 0.8870 0.8870 0.8870 0.8880
1965.604925 0.8880 0.8880 0.8870 0.8880 0.8880
1971.971650 0.8880 0.8880 0.8880 0.8880 0.8880
1978.338375 0.8880 0.8890 0.8890 0.8890 0.8890
1984.705100 0.8890 0.8890 0.8880 0.8890 0.8890
1991.071825 0.8900 0.8900 0.8920 0.8920 0.8920
1997.438550 0.8920 0.8920 0.8900 0.8920 0.8920
2003.805275 0.8900 0.8900 0.8920 0.8920 0.8920
2010.172000 0.8930 0.8930 0.8930 0.8930 0.8930
2016.538725 0.8930 0.8930 0.8930 0.8930 0.8930
2022.905450 0.8930 0.8940 0.8950 0.8950 0.8950
2029.272175 0.8950 0.8950 0.8950 0.8950 0.8970
2035.638900 0.8970 0.8970 0.8970 0.8970 0.8970
2042.005625 0.8970 0.8970 0.8970 0.8970 0.8970
2048.372350 0.8970 0.8970 0.8970 0.8970 0.8970
2054.739075 0.8970 0.8980 0.8980 0.8980 0.8990
2061.105800 0.8990 0.8990 0.8990 0.8990 0.8990
2067.472525 0.8980 0.8980 0.8980 0.8970 0.8950
2073.839250 0.8950 0.8940 0.8930 0.8930 0.8920
2080.205975 0.8900 0.8890 0.8890 0.8890 0.8890
2086.572700 0.8890 0.8890 0.8890 0.8890 0.8890
2092.939425 0.8890 0.8890 0.8880 0.8880 0.8870
2099.306150 0.8850 0.8850 0.8850 0.8850 0.8870
2105.672875 0.8870 0.8870 0.8870 0.8880 0.8880
2112.039600 0.8900 0.8900 0.8920 0.8920 0.8930
2118.406325 0.8930 0.8930 0.8930 0.8920 0.8920
2124.773050 0.8900 0.8900 0.8900 0.8900 0.8900
2131.139775 0.8900 0.8900 0.8900 0.8900 0.8900
2137.506500 0.8900 0.8900 0.8900 0.8900 0.8900
2143.873225 0.8900 0.8900 0.8900 0.8900 0.8900
2150.239950 0.8900 0.8900 0.8900 0.8900 0.8900
2156.606675 0.8920 0.8920 0.8920 0.8920 0.8920
2162.973400 0.8920 0.8920 0.8900 0.8900 0.8900
2169.340125 0.8890 0.8890 0.8880 0.8870 0.8831
2175.706850 0.8801 0.8790 0.8750 0.8730 0.8700
2182.073575 0.8700 0.8710 0.8740 0.8750 0.8760
2188.440300 0.8760 0.8780 0.8760 0.8750 0.8740
2194.807025 0.8710 0.8690 0.8680 0.8660 0.8640
2201.173750 0.8611 0.8590 0.8550 0.8540 0.8510
2207.540475 0.8510 0.8500 0.8500 0.8480 0.8470
2213.907200 0.8460 0.8401 0.8380 0.8291 0.8103
2220.273925 0.7893 0.7585 0.7245 0.6817 0.6584
2226.640650 0.6344 0.5957 0.4744 0.3663 0.3176
2233.007375 0.2696 0.2108 0.2041 0.2040 0.2079
2239.374100 0.2237 0.2456 0.3468 0.4003 0.4760
2245.740825 0.5421 0.6051 0.7094 0.7454 0.7716
2252.107550 0.7897 0.8028 0.8129 0.8189 0.8259
2258.474275 0.8359 0.8409 0.8449 0.8460 0.8470
2264.841000 0.8470 0.8470 0.8470 0.8460 0.8460
2271.207725 0.8470 0.8470 0.8480 0.8510 0.8520
2277.574450 0.8540 0.8550 0.8550 0.8570 0.8590
2283.941175 0.8610 0.8620 0.8650 0.8680 0.8690
2290.307900 0.8700 0.8710 0.8730 0.8730 0.8730
2296.674625 0.8730 0.8730 0.8710 0.8730 0.8730
2303.041350 0.8730 0.8740 0.8740 0.8750 0.8780
2309.408075 0.8780 0.8790 0.8790 0.8800 0.8810
2315.774800 0.8830 0.8830 0.8830 0.8830 0.8810
2322.141525 0.8810 0.8810 0.8810 0.8800 0.8790
2328.508250 0.8780 0.8760 0.8760 0.8760 0.8760
2334.874975 0.8780 0.8780 0.8780 0.8780 0.8780
2341.241700 0.8780 0.8760 0.8760 0.8750 0.8730
2347.608425 0.8710 0.8710 0.8690 0.8680 0.8680
2353.975150 0.8680 0.8680 0.8680 0.8680 0.8680
2360.341875 0.8660 0.8680 0.8660 0.8660 0.8660
2366.708600 0.8650 0.8650 0.8650 0.8640 0.8640
2373.075325 0.8640 0.8640 0.8640 0.8640 0.8620
2379.442050 0.8620 0.8640 0.8640 0.8650 0.8680
2385.808775 0.8680 0.8690 0.8700 0.8710 0.8730
2392.175500 0.8730 0.8730 0.8740 0.8740 0.8740
2398.542225 0.8740 0.8740 0.8740 0.8740 0.8740
2404.908950 0.8740 0.8740 0.8740 0.8750 0.8750
2411.275675 0.8740 0.8740 0.8740 0.8740 0.8740
2417.642400 0.8740 0.8740 0.8740 0.8740 0.8740
2424.009125 0.8750 0.8750 0.8750 0.8750 0.8760
2430.375850 0.8780 0.8780 0.8790 0.8790 0.8800
2436.742575 0.8800 0.8800 0.8810 0.8810 0.8810
2443.109300 0.8810 0.8810 0.8810 0.8810 0.8810
2449.476025 0.8810 0.8810 0.8800 0.8800 0.8800
2455.842750 0.8800 0.8800 0.8790 0.8790 0.8790
2462.209475 0.8790 0.8790 0.8790 0.8790 0.8790
2468.576200 0.8780 0.8780 0.8780 0.8780 0.8760
2474.942925 0.8760 0.8760 0.8760 0.8750 0.8750
2481.309650 0.8740 0.8740 0.8740 0.8740 0.8740
2487.676375 0.8740 0.8710 0.8700 0.8700 0.8710
2494.043100 0.8730 0.8730 0.8730 0.8740 0.8740
2500.409825 0.8730 0.8710 0.8730 0.8730 0.8730
2506.776550 0.8730 0.8730 0.8710 0.8730 0.8730
2513.143275 0.8730 0.8710 0.8710 0.8710 0.8710
2519.510000 0.8700 0.8700 0.8700 0.8700 0.8700
2525.876725 0.8700 0.8700 0.8700 0.8700 0.8700
2532.243450 0.8700 0.8700 0.8700 0.8700 0.8700
2538.610175 0.8700 0.8710 0.8710 0.8710 0.8710
2544.976900 0.8730 0.8730 0.8730 0.8730 0.8730
2551.343625 0.8730 0.8730 0.8730 0.8730 0.8730
2557.710350 0.8730 0.8730 0.8710 0.8710 0.8700
2564.077075 0.8700 0.8700 0.8700 0.8700 0.8700
2570.443800 0.8700 0.8710 0.8710 0.8730 0.8730
2576.810525 0.8730 0.8730 0.8730 0.8730 0.8730
2583.177250 0.8730 0.8730 0.8730 0.8730 0.8730
2589.543975 0.8730 0.8730 0.8730 0.8740 0.8740
2595.910700 0.8730 0.8730 0.8730 0.8730 0.8710
2602.277425 0.8710 0.8700 0.8710 0.8700 0.8690
2608.644150 0.8690 0.8690 0.8680 0.8680 0.8680
2615.010875 0.8650 0.8650 0.8650 0.8650 0.8640
2621.377600 0.8640 0.8640 0.8650 0.8650 0.8640
2627.744325 0.8640 0.8620 0.8590 0.8570 0.8570
2634.111050 0.8560 0.8560 0.8550 0.8550 0.8550
2640.477775 0.8550 0.8550 0.8540 0.8540 0.8540
2646.844500 0.8540 0.8540 0.8520 0.8520 0.8481
2653.211225 0.8450 0.8401 0.8370 0.8370 0.8370
2659.577950 0.8360 0.8360 0.8360 0.8370 0.8370
2665.944675 0.8370 0.8380 0.8410 0.8469 0.8480
2672.311400 0.8500 0.8510 0.8559 0.8570 0.8570
2678.678125 0.8570 0.8570 0.8570 0.8570 0.8570
2685.044850 0.8570 0.8570 0.8570 0.8570 0.8570
2691.411575 0.8560 0.8560 0.8550 0.8550 0.8550
2697.778300 0.8550 0.8570 0.8590 0.8590 0.8590
2704.145025 0.8590 0.8590 0.8590 0.8590 0.8570
2710.511750 0.8560 0.8550 0.8550 0.8550 0.8550
2716.878475 0.8550 0.8560 0.8570 0.8570 0.8570
2723.245200 0.8570 0.8590 0.8590 0.8600 0.8600
2729.611925 0.8590 0.8590 0.8590 0.8590 0.8590
2735.978650 0.8590 0.8570 0.8570 0.8570 0.8560
2742.345375 0.8550 0.8550 0.8550 0.8540 0.8540
2748.712100 0.8520 0.8500 0.8480 0.8480 0.8470
2755.078825 0.8470 0.8421 0.8410 0.8371 0.8350
2761.445550 0.8320 0.8291 0.8260 0.8220 0.8210
2767.812275 0.8210 0.8190 0.8190 0.8190 0.8190
2774.179000 0.8190 0.8210 0.8220 0.8230 0.8230
2780.545725 0.8230 0.8230 0.8230 0.8230 0.8210
2786.912450 0.8190 0.8190 0.8170 0.8140 0.8120
2793.279175 0.8090 0.8080 0.8070 0.8050 0.8030
2799.645900 0.8001 0.7961 0.7930 0.7900 0.7890
2806.012625 0.7880 0.7850 0.7801 0.7692 0.7651
2812.379350 0.7601 0.7571 0.7442 0.7331 0.7231
2818.746075 0.7092 0.6873 0.6703 0.6631 0.6571
2825.112800 0.6432 0.6184 0.6012 0.5674 0.5344
2831.479525 0.4965 0.4506 0.4066 0.3390 0.2986
2837.846250 0.2577 0.2364 0.2113 0.1675 0.1640
2844.212975 0.1660 0.1749 0.1839 0.1998 0.2236
2850.579700 0.2565 0.2875 0.3473 0.3687 0.3710
2856.946425 0.3710 0.3621 0.3521 0.3451 0.3430
2863.313150 0.3420 0.3420 0.3420 0.3430 0.3450
2869.679875 0.3470 0.3470 0.3450 0.3411 0.3371
2876.046600 0.3321 0.3261 0.3181 0.3081 0.2942
2882.413325 0.2762 0.2671 0.2552 0.2501 0.2470
2888.780050 0.2441 0.2322 0.2221 0.2180 0.2111
2895.146775 0.2031 0.2000 0.1990 0.1951 0.1911
2901.513500 0.1890 0.1841 0.1810 0.1800 0.1751
2907.880225 0.1711 0.1611 0.1521 0.1441 0.1391
2914.246950 0.1282 0.1201 0.1121 0.1071 0.1011
2920.613675 0.0961 0.0921 0.0910 0.0900 0.0900
2926.980400 0.0900 0.0900 0.0900 0.0910 0.0949
2933.347125 0.0980 0.1000 0.1020 0.1138 0.1199
2939.713850 0.1298 0.1418 0.1519 0.1609 0.1679
2946.080575 0.1759 0.1819 0.1889 0.1949 0.2009
2952.447300 0.2079 0.2149 0.2229 0.2319 0.2409
2958.814025 0.2509 0.2697 0.2848 0.2998 0.3344
2965.180750 0.3507 0.3648 0.3779 0.4037 0.4247
2971.547475 0.4437 0.4548 0.4747 0.4868 0.4998
2977.914200 0.5030 0.5128 0.5219 0.5269 0.5290
2984.280925 0.5310 0.5320 0.5350 0.5380 0.5478
2990.647650 0.5519 0.5579 0.5629 0.5739 0.5809
2997.014375 0.5869 0.5900 0.5910 0.5920 0.5920
3003.381100 0.5920 0.5910 0.5870 0.5811 0.5780
3009.747825 0.5671 0.5532 0.5461 0.5302 0.5113
3016.114550 0.4913 0.4635 0.4284 0.3895 0.3505
3022.481275 0.3313 0.3103 0.2745 0.2425 0.2174
3028.848000 0.2003 0.1990 0.2010 0.2109 0.2288
3035.214725 0.2468 0.2707 0.3370 0.3754 0.4163
3041.581450 0.4544 0.4923 0.5246 0.5615 0.5788
3047.948175 0.6007 0.6276 0.6743 0.6917 0.6959
3054.314900 0.7078 0.7090 0.7100 0.7090 0.7080
3060.681625 0.7050 0.7011 0.7000 0.6990 0.7000
3067.048350 0.7079 0.7168 0.7249 0.7359 0.7390
3073.415075 0.7479 0.7549 0.7570 0.7580 0.7619
3079.781800 0.7689 0.7690 0.7700 0.7740 0.7770
3086.148525 0.7770 0.7809 0.7899 0.7959 0.7990
3092.515250 0.8000 0.8029 0.8030 0.8040 0.8050
3098.881975 0.8050 0.8070 0.8080 0.8080 0.8080
3105.248700 0.8080 0.8080 0.8080 0.8090 0.8100
3111.615425 0.8100 0.8100 0.8100 0.8120 0.8120
3117.982150 0.8130 0.8130 0.8170 0.8170 0.8170
3124.348875 0.8180 0.8180 0.8190 0.8190 0.8210
3130.715600 0.8230 0.8220 0.8210 0.8190 0.8180
3137.082325 0.8150 0.8140 0.8130 0.8130 0.8130
3143.449050 0.8130 0.8120 0.8120 0.8120 0.8120
3149.815775 0.8120 0.8100 0.8100 0.8100 0.8100
3156.182500 0.8090 0.8090 0.8090 0.8080 0.8090
3162.549225 0.8100 0.8100 0.8130 0.8140 0.8140
3168.915950 0.8150 0.8170 0.8170 0.8180 0.8180
3175.282675 0.8180 0.8170 0.8170 0.8150 0.8140
3181.649400 0.8130 0.8120 0.8090 0.8080 0.8070
3188.016125 0.8070 0.8070 0.8050 0.8050 0.8050
3194.382850 0.8070 0.8080 0.8100 0.8120 0.8120
3200.749575 0.8130 0.8130 0.8140 0.8140 0.8140
3207.116300 0.8140 0.8140 0.8140 0.8130 0.8130
3213.483025 0.8120 0.8120 0.8120 0.8100 0.8120
3219.849750 0.8120 0.8100 0.8100 0.8100 0.8100
3226.216475 0.8100 0.8100 0.8100 0.8100 0.8090
3232.583200 0.8080 0.8070 0.8040 0.8030 0.8020
3238.949925 0.8020 0.8020 0.8000 0.8000 0.8000
3245.316650 0.7990 0.7990 0.8000 0.8000 0.7990
3251.683375 0.8000 0.8000 0.8000 0.8000 0.8000
3258.050100 0.8020 0.8020 0.8020 0.8020 0.8020
3264.416825 0.8020 0.8030 0.8030 0.8030 0.8030
3270.783550 0.8020 0.8020 0.8000 0.8000 0.7990
3277.150275 0.7990 0.7980 0.7980 0.7931 0.7910
3283.517000 0.7910 0.7900 0.7860 0.7820 0.7790
3289.883725 0.7770 0.7760 0.7760 0.7760 0.7760
3296.250450 0.7760 0.7760 0.7760 0.7760 0.7770
3302.617175 0.7770 0.7770 0.7770 0.7770 0.7770
3308.983900 0.7760 0.7750 0.7750 0.7720 0.7710
3315.350625 0.7700 0.7700 0.7700 0.7700 0.7700
3321.717350 0.7700 0.7700 0.7700 0.7690 0.7690
3328.084075 0.7670 0.7670 0.7670 0.7670 0.7670
3334.450800 0.7670 0.7670 0.7670 0.7670 0.7670
3340.817525 0.7670 0.7670 0.7670 0.7670 0.7670
3347.184250 0.7670 0.7670 0.7670 0.7670 0.7670
3353.550975 0.7670 0.7670 0.7670 0.7670 0.7670
3359.917700 0.7690 0.7690 0.7700 0.7700 0.7720
3366.284425 0.7740 0.7750 0.7770 0.7790 0.7790
3372.651150 0.7790 0.7810 0.7840 0.7850 0.7850
3379.017875 0.7860 0.7880 0.7880 0.7880 0.7860
3385.384600 0.7850 0.7850 0.7850 0.7840 0.7840
3391.751325 0.7820 0.7820 0.7820 0.7820 0.7810
3398.118050 0.7800 0.7800 0.7800 0.7800 0.7800
3404.484775 0.7800 0.7800 0.7790 0.7790 0.7770
3410.851500 0.7760 0.7740 0.7720 0.7700 0.7690
3417.218225 0.7670 0.7650 0.7630 0.7610 0.7600
3423.584950 0.7580 0.7580 0.7570 0.7560 0.7530
3429.951675 0.7510 0.7500 0.7480 0.7470 0.7440
3436.318400 0.7410 0.7410 0.7390 0.7390 0.7390
3442.685125 0.7410 0.7410 0.7420 0.7430 0.7430
3449.051850 0.7440 0.7460 0.7470 0.7470 0.7470
3455.418575 0.7470 0.7480 0.7470 0.7470 0.7480
3461.785300 0.7480 0.7480 0.7480 0.7480 0.7480
3468.152025 0.7480 0.7500 0.7480 0.7480 0.7470
3474.518750 0.7470 0.7470 0.7470 0.7460 0.7440
3480.885475 0.7430 0.7440 0.7440 0.7430 0.7420
3487.252200 0.7410 0.7390 0.7370 0.7340 0.7340
3493.618925 0.7330 0.7330 0.7300 0.7300 0.7290
3499.985650 0.7280 0.7251 0.7240 0.7230 0.7220
3506.352375 0.7200 0.7190 0.7151 0.7150 0.7140
3512.719100 0.7101 0.7080 0.7050 0.7030 0.7010
3519.085825 0.7000 0.6990 0.6970 0.6950 0.6920
3525.452550 0.6920 0.6900 0.6890 0.6890 0.6870
3531.819275 0.6860 0.6850 0.6840 0.6840 0.6840
3538.186000 0.6850 0.6850 0.6870 0.6890 0.6890
3544.552725 0.6910 0.6920 0.6969 0.6990 0.7000
3550.919450 0.7010 0.7030 0.7050 0.7090 0.7090
3557.286175 0.7110 0.7189 0.7200 0.7220 0.7240
3563.652900 0.7279 0.7290 0.7320 0.7330 0.7360
3570.019625 0.7380 0.7390 0.7390 0.7410 0.7420
3576.386350 0.7420 0.7420 0.7420 0.7420 0.7420
3582.753075 0.7420 0.7420 0.7420 0.7420 0.7420
3589.119800 0.7410 0.7410 0.7410 0.7390 0.7390
3595.486525 0.7380 0.7380 0.7370 0.7360 0.7340
3601.853250 0.7320 0.7300 0.7290 0.7280 0.7280
3608.219975 0.7270 0.7250 0.7250 0.7240 0.7240
3614.586700 0.7230 0.7220 0.7220 0.7220 0.7220
3620.953425 0.7220 0.7220 0.7220 0.7200 0.7200
3627.320150 0.7200 0.7200 0.7200 0.7200 0.7200
3633.686875 0.7200 0.7200 0.7200 0.7200 0.7200
3640.053600 0.7200 0.7200 0.7200 0.7220 0.7240
3646.420325 0.7250 0.7280 0.7290 0.7329 0.7360
3652.787050 0.7380 0.7380 0.7390 0.7410 0.7420
3659.153775 0.7440 0.7479 0.7510 0.7520 0.7550
3665.520500 0.7560 0.7580 0.7669 0.7749 0.7789
3671.887225 0.7800 0.7859 0.7929 0.7979 0.8000
3678.253950 0.8020 0.8030 0.8089 0.8100 0.8130
3684.620675 0.8150 0.8180 0.8219 0.8269 0.8290
3690.987400 0.8320 0.8330 0.8350 0.8360 0.8380
3697.354125 0.8400 0.8410 0.8449 0.8460 0.8470
3703.720850 0.8500 0.8510 0.8520 0.8520 0.8540
3710.087575 0.8540 0.8540 0.8540 0.8540 0.8550
3716.454300 0.8550 0.8550 0.8550 0.8560 0.8560
3722.821025 0.8560 0.8560 0.8560 0.8560 0.8560
3729.187750 0.8560 0.8589 0.8590 0.8590 0.8590
3735.554475 0.8590 0.8590 0.8570 0.8570 0.8570
3741.921200 0.8570 0.8570 0.8570 0.8590 0.8590
3748.287925 0.8590 0.8590 0.8590 0.8590 0.8590
3754.654650 0.8590 0.8590 0.8590 0.8590 0.8590
3761.021375 0.8590 0.8590 0.8590 0.8590 0.8590
3767.388100 0.8590 0.8590 0.8590 0.8590 0.8590
3773.754825 0.8590 0.8590 0.8590 0.8590 0.8590
3780.121550 0.8590 0.8590 0.8590 0.8590 0.8590
3786.488275 0.8590 0.8590 0.8590 0.8570 0.8570
3792.855000 0.8570 0.8570 0.8570 0.8570 0.8590
3799.221725 0.8590 0.8590 0.8590 0.8590 0.8570
3805.588450 0.8570 0.8560 0.8560 0.8560 0.8560
3811.955175 0.8550 0.8540 0.8540 0.8540 0.8540
3818.321900 0.8540 0.8520 0.8520 0.8520 0.8520
3824.688625 0.8520 0.8520 0.8520 0.8540 0.8540
3831.055350 0.8550 0.8550 0.8550 0.8550 0.8550
3837.422075 0.8550 0.8560 0.8550 0.8550 0.8550
3843.788800 0.8550 0.8550 0.8540 0.8540 0.8540
3850.155525 0.8540 0.8540 0.8540 0.8540 0.8540
3856.522250 0.8540 0.8550 0.8550 0.8550 0.8550
3862.888975 0.8550 0.8550 0.8550 0.8550 0.8540
3869.255700 0.8540 0.8520 0.8520 0.8520 0.8520
3875.622425 0.8510 0.8500 0.8500 0.8480 0.8480
3881.989150 0.8480 0.8480 0.8480 0.8480 0.8480
3888.355875 0.8480 0.8470 0.8470 0.8460 0.8460
3894.722600 0.8450 0.8450 0.8430 0.8430 0.8430
3901.089325 0.8430
##END=
