##TITLE=TRANS-1,3-DICHLOROPROPENE
##JCAMP-DX=4.24
##DATA TYPE=INFRARED SPECTRUM
##CLASS=COBLENTZ
##ORIGIN=W.T. BOLLETER
##OWNER=COBLENTZ SOCIETY
Collection (C) 2018 copyright by the U.S. Secretary of Commerce
on behalf of the United States of America. All rights reserved.
##DATE=Not specified, most likely prior to 1970
##NAMES=(1E)-1,3-dichloro-1-propene
##CAS REGISTRY NO=10061-02-6
##MOLFORM=C3 H4 Cl2
##SOURCE REFERENCE=COBLENTZ NO. 4492
##$NIST SOURCE=COBLENTZ
##$NIST IMAGE=cob4492
##SPECTROMETER/DATA SYSTEM=Not specified, most likely a prism, grating, or hybrid spectrometer.
##PATH LENGTH=0.0025 CM
##SAMPLING PROCEDURE=TRANSMISSION
##RESOLUTION=4
##DATA PROCESSING=DIGITIZED BY NIST FROM HARD COPY
##XUNITS=MICROMETERS
##YUNITS=TRANSMITTANCE
##XFACTOR=1.000000
##YFACTOR=1
##DELTAX=000.017531
##FIRSTX=14.526
##LASTX=38.018
##FIRSTY=0.016
##MAXX=38.018
##MINX=14.526
##MAXY=1.003
##MINY=0.016
##NPOINTS=1341
##XYDATA=(X++(Y..Y))
14.526000 0.0160 0.0160 0.0160 0.0170 0.0170
14.613721 0.0170 0.0170 0.0170 0.0170 0.0170
14.701000 0.0170 0.0170 0.0170 0.0160 0.0160
14.788721 0.0160 0.0160 0.0160 0.0160 0.0160
14.877000 0.0160 0.0160 0.0160 0.0160 0.0160
14.964721 0.0160 0.0160 0.0160 0.0160 0.0160
15.052000 0.0160 0.0170 0.0170 0.0190 0.0210
15.139721 0.0230 0.0250 0.0260 0.0280 0.0330
15.227000 0.0370 0.0460 0.0500 0.0500 0.0530
15.314721 0.0640 0.0730 0.0960 0.1030 0.1120
15.402000 0.1230 0.1330 0.1460 0.1550 0.1660
15.489721 0.1730 0.1780 0.1910 0.2010 0.2030
15.578000 0.2160 0.2250 0.2370 0.2480 0.2530
15.665721 0.2690 0.2820 0.2980 0.3120 0.3300
15.753000 0.3480 0.3600 0.3800 0.3980 0.4140
15.840721 0.4350 0.4500 0.4620 0.4760 0.4890
15.928000 0.5000 0.5030 0.5160 0.5280 0.5370
16.015721 0.5460 0.5550 0.5620 0.5690 0.5760
16.104000 0.5800 0.5830 0.5890 0.5910 0.5940
16.191721 0.6000 0.6010 0.6030 0.6030 0.6050
16.279000 0.6070 0.6080 0.6100 0.6120 0.6140
16.366721 0.6160 0.6230 0.6250 0.6260 0.6280
16.454000 0.6280 0.6300 0.6300 0.6320 0.6330
16.541721 0.6330 0.6350 0.6350 0.6350 0.6370
16.630000 0.6390 0.6460 0.6480 0.6510 0.6550
16.717721 0.6550 0.6580 0.6640 0.6690 0.6820
16.805000 0.6960 0.6980 0.7010 0.7080 0.7170
16.892721 0.7260 0.7320 0.7420 0.7510 0.7620
16.980000 0.7690 0.7760 0.7820 0.7890 0.7940
17.067721 0.8000 0.8080 0.8140 0.8160 0.8170
17.156000 0.8210 0.8230 0.8260 0.8300 0.8330
17.243721 0.8350 0.8370 0.8410 0.8420 0.8440
17.331000 0.8440 0.8440 0.8440 0.8420 0.8410
17.418721 0.8390 0.8330 0.8320 0.8260 0.8210
17.506000 0.8140 0.8030 0.7920 0.7820 0.7730
17.593721 0.7550 0.7420 0.7210 0.7010 0.6760
17.682000 0.6550 0.6350 0.6190 0.6000 0.5820
17.769721 0.5670 0.5660 0.5660 0.5670 0.5710
17.857000 0.5760 0.5940 0.6030 0.6250 0.6420
17.944721 0.6530 0.6620 0.6690 0.6780 0.6890
18.032000 0.6980 0.7010 0.7080 0.7100 0.7120
18.119721 0.7120 0.7100 0.7080 0.7010 0.6980
18.207000 0.6960 0.6940 0.6920 0.6910 0.6910
18.294721 0.6890 0.6890 0.6890 0.6910 0.6920
18.383000 0.6980 0.7000 0.7030 0.7070 0.7120
18.470721 0.7210 0.7230 0.7250 0.7260 0.7280
18.558000 0.7280 0.7300 0.7320 0.7320 0.7320
18.645721 0.7320 0.7320 0.7300 0.7280 0.7250
18.733000 0.7230 0.7210 0.7170 0.7140 0.7030
18.820721 0.6980 0.6910 0.6800 0.6690 0.6530
18.909000 0.6500 0.6370 0.6230 0.6030 0.5850
18.996721 0.5670 0.5350 0.4920 0.4830 0.4750
19.084000 0.4500 0.4190 0.3920 0.3530 0.3280
19.171721 0.3010 0.2750 0.2510 0.2330 0.2070
19.259000 0.1960 0.1760 0.1620 0.1510 0.1440
19.346721 0.1410 0.1390 0.1410 0.1440 0.1530
19.435000 0.1660 0.1750 0.1960 0.2140 0.2410
19.522721 0.2640 0.2940 0.3120 0.3440 0.3660
19.610000 0.3940 0.4170 0.4440 0.4710 0.4920
19.697721 0.5050 0.5260 0.5440 0.5550 0.5780
19.785000 0.5960 0.6080 0.6300 0.6480 0.6580
19.872721 0.6670 0.6760 0.6850 0.6940 0.7000
19.961000 0.7050 0.7100 0.7170 0.7250 0.7320
20.048721 0.7330 0.7370 0.7410 0.7420 0.7440
20.136000 0.7460 0.7460 0.7480 0.7480 0.7480
20.223721 0.7500 0.7500 0.7500 0.7500 0.7500
20.311000 0.7480 0.7480 0.7480 0.7480 0.7500
20.398721 0.7500 0.7510 0.7510 0.7510 0.7530
20.486000 0.7530 0.7530 0.7550 0.7550 0.7550
20.573721 0.7550 0.7530 0.7530 0.7530 0.7510
20.662000 0.7500 0.7500 0.7480 0.7460 0.7420
20.749721 0.7420 0.7390 0.7350 0.7300 0.7280
20.837000 0.7260 0.7250 0.7230 0.7210 0.7190
20.924721 0.7170 0.7120 0.7080 0.7070 0.7030
21.012000 0.6980 0.6890 0.6850 0.6830 0.6800
21.099721 0.6760 0.6710 0.6670 0.6660 0.6600
21.188000 0.6530 0.6500 0.6420 0.6390 0.6320
21.275721 0.6250 0.6210 0.6120 0.6030 0.6000
21.363000 0.5910 0.5820 0.5710 0.5660 0.5570
21.450721 0.5510 0.5420 0.5320 0.5210 0.5080
21.538000 0.4980 0.4920 0.4830 0.4730 0.4550
21.625721 0.4510 0.4390 0.4250 0.4070 0.3910
21.714000 0.3750 0.3570 0.3460 0.3300 0.3140
21.801721 0.3000 0.2830 0.2660 0.2500 0.2330
21.889000 0.2160 0.2000 0.1830 0.1670 0.1580
21.976721 0.1440 0.1300 0.1140 0.1050 0.0960
22.064000 0.0850 0.0830 0.0760 0.0640 0.0530
22.151721 0.0500 0.0480 0.0420 0.0410 0.0390
22.240000 0.0370 0.0350 0.0330 0.0320 0.0300
22.327721 0.0300 0.0280 0.0280 0.0280 0.0260
22.415000 0.0260 0.0260 0.0260 0.0260 0.0260
22.502721 0.0260 0.0260 0.0280 0.0280 0.0300
22.590000 0.0320 0.0320 0.0350 0.0370 0.0410
22.677721 0.0460 0.0500 0.0510 0.0550 0.0620
22.766000 0.0710 0.0820 0.0980 0.1120 0.1230
22.853721 0.1330 0.1500 0.1710 0.1960 0.2140
22.941000 0.2280 0.2480 0.2660 0.2850 0.2980
23.028721 0.3230 0.3440 0.3570 0.3760 0.3940
23.116000 0.4050 0.4210 0.4440 0.4530 0.4670
23.203721 0.4830 0.4980 0.5050 0.5170 0.5260
23.291000 0.5330 0.5480 0.5530 0.5670 0.5750
23.378721 0.5830 0.5940 0.6050 0.6160 0.6250
23.467000 0.6320 0.6330 0.6500 0.6600 0.6690
23.554721 0.6760 0.6850 0.6910 0.7000 0.7030
23.642000 0.7160 0.7230 0.7350 0.7410 0.7500
23.729721 0.7550 0.7640 0.7730 0.7800 0.7850
23.817000 0.7910 0.7940 0.8010 0.8100 0.8160
23.904721 0.8190 0.8250 0.8280 0.8320 0.8350
23.993000 0.8440 0.8500 0.8510 0.8550 0.8600
24.080721 0.8620 0.8660 0.8670 0.8690 0.8760
24.168000 0.8800 0.8820 0.8830 0.8870 0.8920
24.255721 0.8940 0.8960 0.9000 0.9000 0.9010
24.343000 0.9030 0.9070 0.9100 0.9120 0.9140
24.430721 0.9160 0.9170 0.9190 0.9230 0.9250
24.519000 0.9260 0.9260 0.9280 0.9280 0.9300
24.606721 0.9300 0.9320 0.9330 0.9330 0.9330
24.694000 0.9350 0.9370 0.9370 0.9370 0.9390
24.781721 0.9410 0.9420 0.9460 0.9500 0.9580
24.869000 0.9730 0.9800 0.9820 0.9820 0.9830
24.956721 0.9850 0.9890 0.9920 0.9940 0.9960
25.045000 0.9980 0.9980 0.9980 0.9980 0.9960
25.132721 0.9960 0.9940 0.9940 0.9940 0.9940
25.220000 0.9940 0.9940 0.9940 0.9940 0.9940
25.307721 0.9940 0.9940 0.9940 0.9940 0.9940
25.395000 0.9940 0.9960 0.9960 0.9960 0.9960
25.482721 0.9960 0.9960 0.9960 0.9960 0.9960
25.570000 0.9940 0.9940 0.9940 0.9940 0.9940
25.657721 0.9940 0.9940 0.9940 0.9940 0.9940
25.746000 0.9960 0.9960 0.9960 0.9960 0.9960
25.833721 0.9960 0.9960 0.9960 0.9960 0.9960
25.921000 0.9980 0.9980 0.9980 0.9980 0.9960
26.008721 0.9960 0.9960 0.9960 0.9960 0.9980
26.096000 0.9980 0.9980 0.9980 1.0000 1.0000
26.183721 1.0000 1.0000 1.0000 1.0010 1.0010
26.272000 1.0010 1.0010 1.0030 1.0030 1.0030
26.359721 1.0030 1.0030 1.0030 1.0030 1.0030
26.447000 1.0030 1.0030 1.0030 1.0030 1.0030
26.534721 1.0010 1.0010 1.0010 1.0010 1.0010
26.622000 1.0010 1.0010 1.0010 1.0010 1.0010
26.709721 1.0010 1.0010 1.0010 1.0010 1.0010
26.798000 1.0010 1.0000 1.0000 1.0000 1.0000
26.885721 0.9980 0.9980 0.9980 0.9980 0.9980
26.973000 0.9980 0.9980 0.9980 0.9980 0.9980
27.060721 0.9980 0.9980 0.9960 0.9960 0.9940
27.148000 0.9940 0.9940 0.9920 0.9910 0.9890
27.235721 0.9870 0.9850 0.9850 0.9820 0.9800
27.324000 0.9800 0.9780 0.9780 0.9780 0.9780
27.411721 0.9780 0.9760 0.9760 0.9750 0.9750
27.499000 0.9730 0.9730 0.9710 0.9690 0.9670
27.586721 0.9670 0.9670 0.9670 0.9660 0.9660
27.674000 0.9660 0.9660 0.9660 0.9660 0.9660
27.761721 0.9660 0.9660 0.9660 0.9660 0.9660
27.850000 0.9660 0.9660 0.9660 0.9660 0.9660
27.937721 0.9660 0.9660 0.9670 0.9670 0.9670
28.025000 0.9670 0.9670 0.9670 0.9660 0.9660
28.112721 0.9660 0.9640 0.9640 0.9620 0.9620
28.200000 0.9600 0.9600 0.9580 0.9580 0.9580
28.287721 0.9580 0.9580 0.9580 0.9580 0.9580
28.375000 0.9570 0.9550 0.9550 0.9550 0.9550
28.462721 0.9550 0.9530 0.9530 0.9530 0.9510
28.551000 0.9510 0.9500 0.9500 0.9500 0.9480
28.638721 0.9460 0.9420 0.9410 0.9390 0.9390
28.726000 0.9390 0.9390 0.9390 0.9390 0.9370
28.813721 0.9370 0.9370 0.9350 0.9350 0.9350
28.901000 0.9350 0.9350 0.9350 0.9350 0.9330
28.988721 0.9320 0.9300 0.9280 0.9260 0.9250
29.077000 0.9210 0.9190 0.9160 0.9100 0.9080
29.164721 0.9070 0.9030 0.9010 0.9010 0.8980
29.252000 0.8960 0.8920 0.8890 0.8850 0.8800
29.339721 0.8760 0.8730 0.8710 0.8690 0.8670
29.427000 0.8600 0.8530 0.8510 0.8480 0.8420
29.514721 0.8370 0.8320 0.8280 0.8230 0.8160
29.603000 0.8030 0.8000 0.7910 0.7850 0.7800
29.690721 0.7710 0.7620 0.7510 0.7480 0.7390
29.778000 0.7320 0.7300 0.7250 0.7170 0.7100
29.865721 0.7000 0.6870 0.6760 0.6660 0.6580
29.953000 0.6530 0.6460 0.6390 0.6300 0.6210
30.040721 0.6170 0.6120 0.6100 0.6010 0.6000
30.129000 0.5940 0.5890 0.5870 0.5830 0.5820
30.216721 0.5780 0.5760 0.5760 0.5750 0.5750
30.304000 0.5750 0.5750 0.5760 0.5760 0.5780
30.391721 0.5800 0.5830 0.5850 0.5890 0.5940
30.479000 0.5980 0.6050 0.6100 0.6170 0.6280
30.566721 0.6370 0.6480 0.6510 0.6550 0.6640
30.654000 0.6690 0.6750 0.6830 0.6980 0.7030
30.741721 0.7100 0.7160 0.7230 0.7260 0.7330
30.830000 0.7460 0.7500 0.7530 0.7600 0.7690
30.917721 0.7730 0.7800 0.7830 0.7890 0.7940
31.005000 0.7960 0.8000 0.8000 0.8030 0.8050
31.092721 0.8070 0.8100 0.8120 0.8140 0.8160
31.180000 0.8170 0.8170 0.8190 0.8190 0.8210
31.267721 0.8210 0.8250 0.8260 0.8280 0.8280
31.356000 0.8300 0.8300 0.8300 0.8300 0.8300
31.443721 0.8300 0.8320 0.8320 0.8320 0.8320
31.531000 0.8320 0.8320 0.8320 0.8320 0.8320
31.618721 0.8320 0.8320 0.8320 0.8320 0.8320
31.706000 0.8320 0.8320 0.8300 0.8300 0.8300
31.793721 0.8300 0.8300 0.8300 0.8280 0.8300
31.882000 0.8280 0.8280 0.8280 0.8260 0.8260
31.969721 0.8260 0.8250 0.8230 0.8230 0.8210
32.057000 0.8190 0.8190 0.8170 0.8160 0.8140
32.144721 0.8120 0.8100 0.8100 0.8080 0.8070
32.232000 0.8070 0.8030 0.8030 0.8010 0.8010
32.319721 0.8000 0.7980 0.7960 0.7940 0.7920
32.408000 0.7910 0.7890 0.7870 0.7850 0.7830
32.495721 0.7820 0.7800 0.7780 0.7760 0.7760
32.583000 0.7750 0.7750 0.7750 0.7730 0.7730
32.670721 0.7730 0.7710 0.7690 0.7690 0.7690
32.758000 0.7690 0.7710 0.7710 0.7710 0.7730
32.845721 0.7730 0.7730 0.7730 0.7730 0.7730
32.934000 0.7750 0.7750 0.7750 0.7760 0.7780
33.021721 0.7780 0.7800 0.7800 0.7800 0.7800
33.109000 0.7800 0.7800 0.7800 0.7800 0.7820
33.196721 0.7820 0.7830 0.7850 0.7850 0.7870
33.284000 0.7890 0.7890 0.7910 0.7920 0.7940
33.371721 0.7960 0.7980 0.8000 0.8010 0.8030
33.459000 0.8050 0.8070 0.8070 0.8100 0.8140
33.546721 0.8160 0.8160 0.8170 0.8190 0.8190
33.635000 0.8210 0.8230 0.8250 0.8260 0.8280
33.722721 0.8300 0.8300 0.8300 0.8320 0.8320
33.810000 0.8320 0.8330 0.8330 0.8330 0.8330
33.897721 0.8350 0.8370 0.8370 0.8390 0.8410
33.985000 0.8410 0.8420 0.8420 0.8440 0.8440
34.072721 0.8440 0.8440 0.8460 0.8460 0.8460
34.161000 0.8440 0.8440 0.8440 0.8440 0.8420
34.248721 0.8420 0.8420 0.8410 0.8410 0.8410
34.336000 0.8390 0.8390 0.8390 0.8390 0.8390
34.423721 0.8390 0.8390 0.8390 0.8390 0.8390
34.511000 0.8370 0.8370 0.8370 0.8350 0.8330
34.598721 0.8320 0.8320 0.8320 0.8320 0.8300
34.687000 0.8300 0.8300 0.8280 0.8280 0.8260
34.774721 0.8250 0.8230 0.8210 0.8190 0.8170
34.862000 0.8160 0.8160 0.8160 0.8160 0.8140
34.949721 0.8120 0.8100 0.8080 0.8050 0.8030
35.037000 0.8010 0.8000 0.8000 0.8000 0.7980
35.124721 0.7910 0.7850 0.7820 0.7780 0.7760
35.213000 0.7750 0.7730 0.7710 0.7690 0.7670
35.300721 0.7670 0.7660 0.7660 0.7660 0.7640
35.388000 0.7620 0.7620 0.7600 0.7600 0.7580
35.475721 0.7550 0.7550 0.7510 0.7510 0.7500
35.563000 0.7480 0.7480 0.7460 0.7460 0.7440
35.650721 0.7420 0.7410 0.7410 0.7390 0.7350
35.738000 0.7350 0.7350 0.7330 0.7330 0.7330
35.825721 0.7320 0.7320 0.7320 0.7300 0.7300
35.914000 0.7300 0.7280 0.7260 0.7250 0.7250
36.001721 0.7190 0.7140 0.7080 0.7000 0.6910
36.089000 0.6890 0.6850 0.6830 0.6820 0.6820
36.176721 0.6780 0.6780 0.6760 0.6760 0.6760
36.264000 0.6750 0.6750 0.6730 0.6710 0.6690
36.351721 0.6660 0.6620 0.6600 0.6600 0.6580
36.440000 0.6580 0.6570 0.6550 0.6530 0.6510
36.527721 0.6510 0.6500 0.6480 0.6460 0.6440
36.615000 0.6420 0.6410 0.6390 0.6370 0.6370
36.702721 0.6350 0.6330 0.6330 0.6330 0.6320
36.790000 0.6300 0.6300 0.6280 0.6230 0.6230
36.877721 0.6210 0.6210 0.6190 0.6170 0.6160
36.966000 0.6140 0.6120 0.6100 0.6080 0.6070
37.053721 0.6050 0.6030 0.6010 0.6010 0.6000
37.141000 0.6000 0.5980 0.5960 0.5940 0.5920
37.228721 0.5910 0.5890 0.5890 0.5850 0.5800
37.316000 0.5710 0.5690 0.5690 0.5690 0.5670
37.403721 0.5670 0.5670 0.5660 0.5660 0.5660
37.492000 0.5660 0.5640 0.5620 0.5620 0.5620
37.579721 0.5620 0.5600 0.5580 0.5580 0.5580
37.667000 0.5580 0.5580 0.5580 0.5570 0.5550
37.754721 0.5530 0.5500 0.5480 0.5420 0.5370
37.842000 0.5370 0.5350 0.5320 0.5300 0.5280
37.929721 0.5260 0.5230 0.5230 0.5190 0.5170
38.018000 0.5120
##END=
