##TITLE=Ethylbenzene
##JCAMP-DX=4.24
##DATA TYPE=INFRARED SPECTRUM
##CLASS=IUPAC A
##ORIGIN=NIST, Analytical Chemistry Division, 301-975-3108
##OWNER=COPYRIGHT (C) 2001 by the U.S. Secretary of Commerce
##DATE=01/06/01
##$SPECTRA VERSION=1.10
##$UNCERTAINTY IN Y=2.1 % relative (B=1.13E-04,C=1.09E-9,D=2.34E-14)
##CAS NAME=Ethylbenzene
##CAS REGISTRY NO=100-41-4
##MOLFORM=C6 H5 C2 H5
##MP=-94.97 C
##BP=136.2 C
##$NIST SOURCE=QUANT-IR
##SPECTROMETER/DATA SYSTEM=IFS66V (Bruker)
##INSTRUMENT PARAMETERS=KBr Beam Splitter; MCT Detector; Multipass cell
##STATE=gas
##SAMPLE DESCRIPTION=Ethylbenzene Primary Gas Standard
##PRESSURE=101.3 Pa
##TEMPERATURE=23 C
##SAMPLING PROCEDURE=1 L/min Flow
##RESOLUTION=0.9640
##DATA PROCESSING=Happ Genzel Apodization
##XUNITS=cm-1
##YUNITS=(micromol/mol)-1m-1 (base 10)
##XFACTOR=1.0
##YFACTOR=4.5474E-13
##DELTAX=0.4820
##FIRSTX=575.17
##LASTX=3974.606
##FIRSTY=4.44E-06
##MAXX=3974.12
##MINX=575.17
##MAXY=.0004678
##MINY=-7.77E-07
##NPOINTS=7052
##XYDATA=(X++(Y..Y))
575.17 9784391 8235429 8284417 8653215 9255943 8721359
577.58 7934177 8603257 8651335 5929227 4437909 4227402
580.47 3410988 3247880 2958948 2243440 3382137 3172916
583.37 2539939 3505930 2897646 2097928 1584600 2164928
586.26 2839140 2194643 1127865 1235291 1708300 1970774
589.15 1532892 1049181 602435 1685699 1340109-485772
592.04-101606 712350 7979-444723-564910-300117
594.94-1165053-613649 94627-426560-1251974-998406
597.83 52126 772890 581868 384223 816935 1345357
600.72 431307-856140-1709125-1433750-439212-170088
603.62-860722-1283805-1004093-804804-312320-39023
606.51 5173-151235-363379-130446-69013 332721
609.40 474996-375908-823885 209088 626605 584856
612.29-48677-668679-138100-252523-1245216-1317316
615.19-300290 264342-750968-1178747-29997 70552
618.08-348707 624421 847771-60508-476452-599903
620.97-837098-405905 414808-76517-69386 306201
623.86 149109 488877 1501985 1541483 870267 1074650
626.76 1766990 2648442 2915456 2489837 961283 209717
629.65 814545 523399 813573 1125011 864468 782139
632.54 1304999 1269463 1381318 1577095 1216418 1366413
635.44 963923 826947 1593625 2360984 2029793 792958
638.33 239321 574801 471176 250265 379136 493813
641.22 117960-107334-43237 154508 386069 600242
644.11 135727 69975 78594-304745-455255-324193
647.01 3403-87956-311966-451660-635215-241072
649.90 204063 60836 10696 152435-520118-631661
652.79 44090-103835 300907 683134 1218252 898028
655.68 710223 837089 789381 539209 572690 895488
658.58 797258 819555 965292 1354620 1973503 2049795
661.47 1923701 2032961 2871483 3520111 3760121 3829797
664.36 3921451 4525945 5426982 6582333 7670861 7633295
667.26 7758816 9246995 11226908 12589021 13490300 15295476
670.15 18047498 20508790 22930080 25047628 28108301 31615766
673.04 35196273 39175395 42975984 47134075 52280900 58643706
675.93 64665356 70399519 77281907 85195062 93367714 101368606
678.83 109593099 118472650 128094757 138300863 149234110 159567456
681.72 170539929 182352182 194019171 205627426 217360677 229620473
684.61 241378551 252457382 263976222 276308621 290817760 306270937
687.50 322261838 336197104 341176602 341813605 346190065 353933670
690.40 363759279 374204050 385487655 398026716 411916130 428091594
693.29 446706623 464042549 482107138 507076574 546398034 607948628
696.18 699731058 818715353 885976863 758219437 551148638 456506426
699.08 435581635 431042943 423520259 417041925 411977827 407972878
701.97 403150163 398804786 393376939 388339156 383751132 379597959
704.86 375271384 372696504 370555031 365356345 354021841 340775857
707.75 328584778 318300294 308810448 299930586 290694057 280426669
710.65 270477844 261522697 252130998 243295844 234359416 225598976
713.54 217127675 209006337 201638939 195518574 189533469 184489114
716.43 179699428 175673567 172429526 170164586 168451960 167328295
719.32 165989433 165607272 165870034 166674263 167766287 169213314
722.22 170709046 172731247 174803159 177261029 179070802 181588058
725.11 183880252 186306419 187840917 189339521 191327423 193819073
728.00 195943623 197783131 199388182 201825045 204630993 207016389
730.90 208836643 211226663 213454282 215792393 218557294 221931861
733.79 225432107 229089395 232035945 235430476 239410706 243711116
736.68 248029049 250993562 252734478 256759200 260260011 259617637
739.57 260835279 265862712 264754077 260063150 259701752 264975347
742.47 265823939 263318092 260847719 260734238 263459091 268785136
745.36 262744535 254083407 252414844 253939107 252722617 253460612
748.25 252986010 253982358 253556339 260964815 292416285 338158055
751.14 326001441 271580614 247053434 248855348 239160517 222289222
754.04 217919329 218770032 216923652 209280695 202551068 197391616
756.93 194228896 190289160 186738182 182997698 179728713 176307998
759.82 172953768 169094964 165530968 161970771 158944811 155576904
762.72 152461526 149392269 146133937 142768296 139704954 136911576
765.61 134055987 131327149 129270953 126822990 124716301 123720594
768.50 123355194 122087455 121133196 121856171 124686171 131240037
771.39 144686935 152598996 137891995 113226841 98986279 92845794
774.29 89999058 88151687 86914172 85522447 83820579 82007311
777.18 80647038 78672371 77524781 76627785 74951592 73373113
780.07 72449919 70735312 68969450 67623918 66234459 64818590
782.96 63329205 61670244 60067900 58078545 56639186 55049078
785.86 53159322 51268930 49625405 47990977 46290922 44562609
788.75 43206915 41565882 40066917 38721298 37125413 35553832
791.64 34249499 32990478 31647684 31158682 30344080 29152064
794.54 28159773 27719317 27573257 26888254 26143036 25253726
797.43 24292992 23551160 22879520 21912222 21243993 20787933
800.32 20444446 19659666 19091389 18718877 18341571 17680727
803.21 17043014 16062411 15203821 14692279 14270993 13999737
806.11 13929109 13712099 13382386 12516932 11827697 11586276
809.00 11320429 10922318 10667514 10158649 9919708 9876179
811.89 9376646 8685152 8279746 8135886 7929640 7602592
814.78 7512635 7283604 7015702 6896978 6239357 5780924
817.68 5707175 5336763 5200307 5520305 5103396 4457432
820.57 4433334 4895060 4695282 4191635 4242711 4032376
823.46 4231202 4252902 3991399 3731571 3323885 2875611
826.36 2580529 2529544 2479363 2271113 2676906 3250224
829.25 2998134 2330381 2043587 2005249 1871855 1684064
832.14 1546809 1534824 1590356 1456694 1178692 1008559
835.03 1243363 1085017 625275 950382 1516411 1537531
837.93 992622 734700 784574 887391 858828 565981
840.82 230473 164016 142813 34867 377419 810587
843.71 585807 300890 223817 197968 50372-123503
846.60-23927-231876-410825-292529-117318-94923
849.50 96412 126863-616492-624319-317851-270834
852.39-275626-326170-249639-188137-660193-902262
855.28-671439-729806-829349-857896-619925-476975
858.18-590588-613273-246018 33177-3338-201870
861.07-438874-717180-873120-677398-376129-174855
863.96-38037-1687 96103-228140-162412 87126
866.85 233354 396294 349932 572699 812479 1077142
869.75 1270536 1226193 1526362 1709150 1511152 1461583
872.64 1767231 1990559 2237230 2883331 3471275 3531234
875.53 3326187 3399496 3667262 4042964 4214919 4411212
878.42 4657086 4916092 5413781 5939044 5931007 6273147
881.32 6503876 6665410 6978546 7370592 7622315 8047405
884.21 8658704 9349970 9708585 9672693 9851228 10578434
887.10 11302512 11572765 11943954 12440457 12819429 13385512
890.00 13802187 13759141 13818809 14172265 14488565 14836986
892.89 14885641 14922780 15384253 15810476 15951773 16035079
895.78 16140564 16367427 16516386 16708019 17091149 17682870
898.67 18194075 18879667 19651187 20945162 22316162 23946245
901.57 26796722 31981886 41519369 51029916 44115209 27716513
904.46 20532349 18856608 18309513 18278461 18421516 17815825
907.35 17435014 17191322 16832714 16726048 16730042 16524473
910.24 16277595 15847951 15326377 14446508 13890499 13703121
913.14 13544943 13013711 12612185 11979534 11452604 10943971
916.03 10396964 9707997 8607489 7798062 7519710 7004496
918.92 6281662 5808820 5297511 4624451 4045590 3479382
921.82 3103192 2764560 2384225 2119461 1881871 1508062
924.71 1461973 1220489 682795 332212 382964 251667
927.60-23757-15513 65881-34381-49228 100045
930.49 225754 38288-96422-253203-309154-225412
933.39-52974-236970-309057-269522-349120-200316
936.28 1477-9373-137761-315064-199956-128584
939.17 70634 36827-100097-150613 54932 54031
942.06-6973 136095 140195 329129 651729 759059
944.96 1019460 1180634 1372459 1486242 1466984 1719482
947.85 2259118 2518404 2772814 3424943 4218603 4659022
950.74 5196661 6023773 7073206 8181214 9406347 10486795
953.64 11642201 12778009 14108286 15673176 17171005 18746042
956.53 20222386 21144982 21970014 22550437 22913895 23172737
959.42 23241515 23323605 23863115 24693940 25664280 26956609
962.31 28678889 30285618 30479112 28594665 26079000 24625551
965.21 24825192 25610195 26543563 27414976 28238548 28887496
968.10 29003235 29063854 28631305 27903069 27066906 25785047
970.99 24223361 22647293 21127502 19677305 18272252 17059130
973.88 15972439 14734216 13666071 12909778 11982891 10897092
976.78 10257202 9876834 9343498 8684765 8052771 7548250
979.67 7634848 7286919 6262401 5582747 5034007 4665045
982.56 4489412 4337451 4372610 4301609 4086507 3948642
985.46 3804537 3856448 3702163 3779672 4045572 4086576
988.35 4006615 3876054 3793529 3944787 4281204 4311283
991.24 4359900 4520636 4623787 4821632 4816885 4742041
994.13 4884522 5059177 5263890 5408711 5502263 5775895
997.03 5990806 6245897 6790757 7160811 7396229 7705914
999.92 8031298 8181274 8148864 7979383 7954877 7885830
1002.81 7906459 7954995 7984269 8587276 9386281 9680323
1005.70 9659983 9577253 9474506 9386649 9540506 9672381
1008.60 9853346 10094965 10417106 10824278 11209334 11836891
1011.49 12331477 12623105 13250711 13973119 14552555 15259880
1014.38 16119608 17023340 18020048 19284935 20703500 22273396
1017.28 23890308 25489118 27599493 30113647 32615410 35623148
1020.17 39028426 42166683 45399610 48990274 52621470 56350573
1023.06 59972431 63138099 65263944 66746381 67737494 67998127
1025.95 67691376 67009356 65714165 64112977 62622593 61992140
1028.85 62867399 66363299 73389557 82305179 83193943 76817699
1031.74 74015188 74163640 73400230 71839156 71395633 71768253
1034.63 72255905 72339262 72119625 71268626 69974716 68536692
1037.52 66812387 65010607 63202692 61332246 59523820 57503054
1040.42 55842964 54156607 52505123 50645596 48653119 47003877
1043.31 45626792 44206145 43024172 41769562 40712623 40032409
1046.20 39387727 38819736 38059782 37103824 36510703 36172002
1049.10 35808754 35665992 35610013 35682925 35991036 36187851
1051.99 36716979 37500730 38552735 40041979 42077159 44539928
1054.88 47058672 49693497 52470012 54888387 57376885 59683223
1057.77 61518946 63177154 64488260 65191304 65002008 63937761
1060.67 62263301 60245903 57795318 55911908 55469675 57385626
1063.56 62605087 70596151 77384575 77557406 66183584 51055443
1066.45 46624304 49106227 52570369 56172733 59495828 61750738
1069.34 62900851 62821521 61542308 59396682 56458531 52921488
1072.24 49158939 45366498 41591804 38000580 34915714 32089322
1075.13 29610663 27448708 25801146 24770678 23870482 23098653
1078.02 22568833 22465491 22693885 22934365 23100056 23274935
1080.92 23470343 23904341 24323138 24475894 24876559 25169330
1083.81 25070058 25053076 25175716 24825038 24556898 24115491
1086.70 23341305 22618409 22176750 21785819 21411078 21330588
1089.59 21842625 22871560 23992808 25034052 26091978 26763014
1092.49 26920170 26869252 26590159 26272073 26138669 25960658
1095.38 25786612 25595023 25009552 24242382 23940721 23675235
1098.27 23321757 23131448 22718327 22452486 22514844 22493414
1101.16 22270367 22198966 22201320 22025306 21572786 21130674
1104.06 20734331 20000477 19273042 18431622 17329820 16383410
1106.95 15753332 15104660 15101858 15234918 15089157 14975965
1109.84 15390066 15793187 15931885 15949709 15929312 15767926
1112.74 15505349 15500075 15584160 15341132 14704067 13960407
1115.63 13539172 13102650 12688532 12263449 11759991 10998870
1118.52 10449391 10263737 10109361 9497574 8922283 8720515
1121.41 8283143 7628413 7295874 7136086 6993776 6546327
1124.31 6031393 5792469 5604340 5351399 5210414 4950545
1127.20 4649669 4487994 4294397 4102890 4011399 3774400
1130.09 3430995 3198192 3260892 3524340 3728341 3475932
1132.98 3121983 2957295 2885925 2758293 2688154 2737437
1135.88 2732145 2552769 2422230 2337173 2088976 2002727
1138.77 2055196 2031474 1891534 1744255 1820139 1774957
1141.66 1607865 1608211 1569043 1611572 1697594 1580633
1144.56 1356750 1149779 1047294 1045193 1223076 1335594
1147.45 1408522 1299513 1272494 1393522 1581269 1356357
1150.34 1113113 1105776 1059498 1011206 969583 984937
1153.23 741716 511407 538816 325116 220905 251269
1156.13 158950 242175 380031 426306 387215 382179
1159.02 436447 498953 490592 446742 536481 463099
1161.91 336500 278487 252995 98479 32202-63345
1164.80 63121 87629-30989-130905-78952-107908
1167.70 26769 9708-93752-57846 37023-39116
1170.59-111706-21938 22081 14604 72849 6507
1173.48-258676-175703 130816 198432 57962 164369
1176.38 201172 213456 578402 949657 737327 427167
1179.27 505685 522496 416486 605594 800608 665565
1182.16 719902 932462 1085457 1102134 1036811 1030179
1185.05 1234329 1446340 1617892 1527730 1257455 1346416
1187.95 1348967 1352422 1493227 1658409 1876235 1841418
1190.84 1871266 1884303 2046382 2172494 2219409 2397178
1193.73 2419959 2473128 2571750 2566981 2654225 2583738
1196.62 2532254 2509946 2536243 2512034 2609890 2857582
1199.52 2856190 2729680 2712360 2824817 2829235 2728886
1202.41 2764204 2681432 2523308 2625431 2758268 2614261
1205.30 2655978 2913230 2767684 2694495 2805887 2504921
1208.20 2128185 1923337 1731609 1613565 1655698 1633798
1211.09 1618215 1534247 1345786 1208239 958715 734358
1213.98 712201 743035 641131 355429 315962 365368
1216.87 295234 244065 373837 332170 313063 403885
1219.77 376288 246207 186763 229310 187567 46432
1222.66-12560 125922 124252 44031 81906 145262
1225.55 236902 344164 539856 690782 893217 1149435
1228.44 1465667 1680572 1861891 2075737 2330593 2480226
1231.34 2742969 3176022 3539812 3704129 3892260 4084889
1234.23 4142050 4089393 4058399 4052038 3920208 3901318
1237.12 4001664 4135720 4371692 4573373 4949038 5283390
1240.02 5385294 5509611 5288538 4802986 4680472 4732690
1242.91 5100554 5516758 5543149 5593494 5760606 5770957
1245.80 5620681 5519812 5493479 5480425 5263996 4904812
1248.69 4683913 4455433 4510008 4450314 4299700 4170225
1251.59 4038128 4057857 3966634 3685380 3605287 3713553
1254.48 3779611 3693403 3782203 4034990 3970267 3874046
1257.37 3908099 3810421 3676092 3581536 3532926 3533017
1260.26 3603962 3669727 3673909 3723509 3656840 3690616
1263.16 3812957 3689235 3490172 3383477 3414672 3529070
1266.05 3572437 3407390 3549292 3683634 3664507 3683257
1268.94 3666831 3585913 3542147 3471483 3195457 3117838
1271.84 3164910 3153388 3292951 3505765 3562755 3654737
1274.73 3640084 3613832 3702510 3820704 4014197 4262862
1277.62 4510588 4681758 4860827 4876475 5061521 5206488
1280.51 5378130 5502390 5515750 5586670 5744449 5885000
1283.41 6059375 6244769 6387281 6422840 6476311 6745603
1286.30 6998017 7244582 7496208 7698957 7922416 8094454
1289.19 8182000 8220937 8611104 8978331 9162016 9405584
1292.08 9615486 9820068 10105887 10354215 10498268 10531665
1294.98 10438823 10577830 10770708 11012570 11382314 11451214
1297.87 11353641 11368470 11607946 11918552 12058736 11955999
1300.76 11953534 12126129 12337726 12551953 12551328 12504149
1303.66 12624215 12864362 13151364 13270577 13349092 13465247
1306.55 13573742 13673331 13742623 13692151 13623290 13773110
1309.44 13950585 14210599 14499059 14840959 15347575 15923146
1312.33 16281402 16700490 17154410 17830668 18839091 19757290
1315.23 20493875 21271169 22382663 23298282 24454332 25850320
1318.12 26954083 28091600 29411971 30775469 32221058 33571895
1321.01 34990143 36890601 38568599 39851442 41236331 43147747
1323.90 45123122 45822749 45445203 44928519 44978529 45263967
1326.80 45365413 45475710 45908904 46584779 47134556 47300731
1329.69 47602408 47565181 46715232 46004347 46062649 45557637
1332.58 44184708 43176466 42440361 41863411 41516376 41153691
1335.48 40566269 39489779 38397024 37361739 36015094 34332504
1338.37 32752070 31314746 29674827 28099418 26527011 24962641
1341.26 23515255 22028670 20740013 19607578 18500169 17856758
1344.15 17178783 16031144 15135092 14486252 13916887 13337921
1347.05 12887859 12302271 11839379 11381598 10943127 10740968
1349.94 10448526 9746691 8921504 8476038 8624880 8653741
1352.83 8489980 7873535 7830154 8387275 7499306 7223247
1355.72 7813987 8053890 7980890 7804804 7668319 7597928
1358.62 7857526 7996022 8047477 8109077 8570793 9106153
1361.51 9106965 9344923 9801848 10498344 11439241 11875852
1364.40 12039859 12588451 13405557 14161454 15014466 15713314
1367.29 16338882 17087898 17696561 18444588 19320750 20079140
1370.19 20854712 21733572 22719753 23561297 24384872 25177907
1373.08 25736259 26211045 27326735 28273920 28973961 29368280
1375.97 29647870 30133614 31252868 33681931 39154280 43674427
1378.87 44016556 43974726 45729788 46113531 43846867 41486880
1381.76 39564524 37916957 37115122 36698982 36338526 36230315
1384.65 36218251 36331798 35983784 35540465 35310994 35065924
1387.54 34779159 34314783 33932393 33248919 32550630 31882549
1390.44 31135218 30197785 29205753 28281835 27220448 26100642
1393.33 25158776 23887810 22958036 22490242 21764809 20978358
1396.22 20453376 19830721 19059403 18455089 17760559 17060394
1399.11 16643892 16081602 15433530 15076573 14843815 14363723
1402.01 13873752 13541581 13223547 12900955 12544741 12506360
1404.90 12553753 12395824 12191988 12071903 12119417 12103942
1407.79 11983818 11757752 11812647 11942875 11968579 12146894
1410.69 12269692 12265215 12327062 12399864 12581285 12808204
1413.58 13036671 12984334 12969276 13273656 13340438 13272111
1416.47 13416026 13633274 13858548 13684357 13445464 13437389
1419.36 14021706 14812017 15371127 15629143 15778703 16184435
1422.26 16580211 16863355 16933524 17048990 17442198 17658714
1425.15 17898588 18219628 18658709 19036906 19322705 19759616
1428.04 20256152 20651173 21021039 21543173 22176457 22768195
1430.93 23448745 24387520 25325135 26157486 27176399 28323539
1433.83 29517097 30767974 32226239 33745577 34844781 36143000
1436.72 38550341 41125006 43478240 45853849 48284225 50929681
1439.61 53802132 56797170 59913197 63216411 66808429 70646215
1442.51 74588850 78949343 83406171 87938497 92656810 97504960
1445.40 102443038 107623333 113069290 118474990 123815075 129615110
1448.29 135825024 141771462 147095295 151637622 155463008 159000053
1451.18 162585016 165602482 167761847 169459731 170660490 171013264
1454.08 170707278 170024652 169599249 169922376 171543984 176125964
1456.97 183590440 190563451 195570383 197569668 195728597 191181590
1459.86 185931532 181556278 179468583 179614243 181460168 184277467
1462.75 186981198 188308391 188193727 186527102 183811110 180474296
1465.65 176126412 171604921 167532327 163695003 159605044 155723966
1468.54 151897581 148050592 145361322 143588323 141330642 139491694
1471.43 136521937 127240563 113486590 104636704 101402261 99385721
1474.33 97171540 94859468 92466266 89798680 87034989 84060148
1477.22 80826320 77637299 74611329 71695771 69066389 66541728
1480.11 64415207 62603687 61156702 60084579 59347628 59116537
1483.00 59331764 59851628 61096030 63005322 65310740 68259298
1485.90 72007679 76299455 81355432 87331353 94327376 102101879
1488.79 110493306 119353653 128951240 138710966 149126723 159929318
1491.68 170638895 181110137 191103624 200074796 207901571 212624047
1494.57 213162696 208428523 200324258 193025217 188177712 186076979
1497.47 188221503 196340274 212257377 233486870 246387574 233241856
1500.36 206640034 185795739 174795539 173552584 178709092 183738633
1503.25 187966364 192826867 196104671 195974082 192745478 187670783
1506.15 179032994 167950875 156160769 142947778 128848064 114957410
1509.04 101357440 88674146 77310317 66919068 57652676 49608326
1511.93 42946883 37671536 33105511 29331814 26278402 23493583
1514.82 21351771 19744044 18088893 16910467 16129488 15677923
1517.72 15551046 15446919 14989801 14126056 13378644 12769068
1520.61 12060341 12330184 12840990 12829791 13038380 13197694
1523.50 13536912 13640125 13239093 12906670 13069164 13277353
1526.39 13450087 13439699 13430371 13524609 13610509 13682740
1529.29 13757587 13670767 13570889 13407099 13058556 12675094
1532.18 12377815 11878782 11323444 10977340 10824774 10515745
1535.07 10386293 10185198 9979350 10148137 10584245 10844911
1537.97 10722494 10175540 10818426 11202987 11001560 11444016
1540.86 11285020 10287247 9887966 10280618 10192307 9945584
1543.75 9565357 8893541 8338037 8480087 8615751 8498333
1546.64 8279949 8176209 8133422 8039061 7970334 7802906
1549.54 7792695 7781904 7699712 7641176 7677570 7684677
1552.43 7587527 7563158 7221834 6814522 7246922 7482137
1555.32 7423963 7481251 7408796 6772196 6304059 5734717
1558.21 5734878 6642034 6406123 5921471 6403125 6989394
1561.11 6976362 6991510 6967874 7067383 7149844 7166079
1564.00 7034533 7008022 7239335 7411047 7373339 7243918
1566.89 7081697 7042362 7146993 7097189 6766593 6538943
1569.79 6925470 7216533 7357655 7480888 7649250 7803307
1572.68 7893928 8046255 8309098 8619365 8689694 8233545
1575.57 7409382 8242124 9464824 9846083 10412892 10905263
1578.46 11206649 11500881 11846854 12163177 12409085 12788838
1581.36 13170283 13528867 14001169 14432815 14889623 15437372
1584.25 16208351 16961582 17723143 18631019 19622523 20888994
1587.14 22012358 23298253 24806441 26154558 27543800 28965844
1590.03 30208383 31292735 32344800 33351433 34273183 35289983
1592.93 36525883 37946068 39196447 40500370 42277637 44152318
1595.82 46224768 48845562 51658491 54808370 58637351 63247794
1598.71 68993901 73255512 75224814 78650254 84072000 90204028
1601.61 96025108 101454126 106610309 111143053 114703415 117407863
1604.50 119276284 120059193 119899883 118902615 117211187 115192161
1607.39 113261580 111480774 110015093 109383549 110279440 112551401
1610.28 114928083 115687803 114393124 108281002 99265605 94722053
1613.18 93829776 94462084 95585542 96510058 96310027 94936427
1616.07 91863400 88728182 85207582 80317837 74539733 68410745
1618.96 62183138 56323228 50481992 44917268 39862063 35300765
1621.85 31107194 27304114 23756336 20872714 18855858 17011070
1624.75 15198562 13745718 12519407 11333250 10356508 9499736
1627.64 8847628 8443511 8108048 7678130 7328100 7121255
1630.53 6704126 6432939 6427675 6294059 6096333 6065219
1633.43 6091608 5863429 5335287 4415093 4331473 5279553
1636.32 5587310 5351440 5299102 5475558 5603825 5640665
1639.21 5598027 5624884 5656603 5658830 5616407 5784095
1642.10 5955138 6045061 6121000 6391157 6580194 6511430
1645.00 6035519 5759494 6454283 6959005 7139935 7429076
1647.89 7572512 7885434 7974080 8144103 8211024 8327038
1650.78 8345033 7968327 6945660 6520409 6407135 7204908
1653.67 8052808 8486651 9127308 8959032 8523403 8347694
1656.57 8309011 8068087 7806711 7852269 7959670 7877972
1659.46 7828243 7900368 8109064 8224562 8124807 7719406
1662.35 7407381 7460035 7416962 7440042 7337155 7207791
1665.25 7157051 7064352 6988689 6927628 6832233 6609001
1668.14 6424657 5897954 5812673 6231919 6394415 6183313
1671.03 5869273 5862035 5698527 5600619 5513306 5427882
1673.92 5365330 5206126 5132398 5668494 5840986 5560274
1676.82 5229613 4880917 4666766 4656015 4702060 4660990
1679.71 4623923 4630125 4656815 4615754 4437203 4164740
1682.60 3654229 3443741 3101083 1919690 1601006 2743641
1685.49 2968477 2809699 2687507 2747044 2540598 2345548
1688.39 2211176 2158194 2123836 2139642 2089787 1985597
1691.28 1887404 2027439 2011413 1928328 1910833 1935592
1694.17 1843972 1392837 200355 100439 1382399 1829361
1697.07 1826587 1725387 1695401 1727900 1209991 491077
1699.96 521971 998253 1804282 2060872 1863317 1628567
1702.85 1622076 1557718 1402290 1516328 1617518 1468487
1705.74 1333484 1556179 1773957 1800848 1880477 1926865
1708.64 1888980 1812124 1690477 1813361 1933576 1915503
1711.53 1998001 2009885 1957895 1927188 2010311 2052298
1714.42 1729790 1685117 2144186 2402421 2119797 1376535
1717.31 1941841 2460956 2425508 2776667 3120627 3394106
1720.21 3585649 3699913 3915036 4198549 4449615 4706236
1723.10 4911888 5038397 5397630 5719861 5929951 6330262
1725.99 6735158 6992653 7282497 7571755 7962605 8469017
1728.89 8937224 9377920 10019685 10582221 10910000 11399525
1731.78 11931809 12249366 12000977 12369901 12777571 12835266
1734.67 13738677 14333264 14510575 14414251 14218915 14088501
1737.56 13961341 13644785 13089785 12108886 11351683 11292991
1740.46 11169827 11168552 11458276 11927238 12588765 13372303
1743.35 14157491 14646682 14810772 14777630 14588581 14216399
1746.24 13666161 13051481 12519567 11894218 11176089 10631453
1749.13 10168050 9606789 8946200 7914740 7481223 7504234
1752.03 7095791 6676921 6285786 5697473 5218144 5114757
1754.92 4912704 4523657 4031150 3608278 3477125 3253856
1757.81 2960165 2748975 2627111 2493907 2353138 2162957
1760.71 1898553 1360704 1308857 1408795 1285728 1233441
1763.60 1213863 1223823 1153425 1087065 1095630 1130579
1766.49 1224056 1230587 943289 1076901 1514671 1725403
1769.38 1899277 2018380 2038634 2079688 2335078 2155116
1772.28 1837301 2390200 2740059 2706510 2685439 2621025
1775.17 2464248 2313687 2230199 2322577 2682082 3212336
1778.06 3819683 4279134 3931213 3077126 2750785 2941058
1780.95 3329207 3697286 4128549 4631415 5083343 5522162
1783.85 5854745 6145702 6761597 7587487 8441741 9284657
1786.74 10181654 11185748 12364078 13619606 14894070 16357519
1789.63 17834667 19103867 20477010 21944967 22927873 23556513
1792.53 24629840 25629030 26144505 26545156 26646307 26324206
1795.42 25817462 25613298 26069931 27161828 28825939 30753224
1798.31 32635880 33989943 33908456 30237800 25682618 24650453
1801.20 25736875 27123332 28416791 29662979 30605974 31356635
1804.10 31664013 31115120 29902388 28069217 25474249 23102527
1806.99 21432034 20107906 18988896 17959634 17039727 16122916
1809.88 15130261 14323895 13566639 12721410 11918623 11115030
1812.77 10408154 9701350 9031639 8481604 7834862 7115971
1815.67 6577561 6206089 5794782 5586122 5634512 5774329
1818.56 5976432 6242419 6353396 6443440 6433373 6323044
1821.45 6235052 6090008 5894627 5648605 5364294 4961205
1824.35 4571789 4290164 4097602 3926230 3743426 3520824
1827.24 3241746 3035425 2815196 2657374 2419725 2159877
1830.13 2235470 2283805 2163730 1981911 1899842 1881567
1833.02 1724339 1601482 1618313 1658936 1700397 1674499
1835.92 1645270 1585923 1678652 1739104 1689695 1743680
1838.81 1823734 1828222 1887724 1993158 2021968 2219276
1841.70 2461153 2569983 2615592 2627744 2462028 2822276
1844.59 3408790 3733520 4071937 4321401 4617920 4888571
1847.49 5296143 5771706 6174802 6484532 6957713 7419994
1850.38 7825883 8295686 8782257 9400180 10114518 10852221
1853.27 11607793 12497254 13328791 14093875 14883662 15709677
1856.17 16416845 17069670 17722062 18373325 18995574 19440065
1859.06 19794982 20017743 20033504 20027266 19832852 19454329
1861.95 18957383 18262890 17438165 16702999 16040502 15643280
1864.84 15767195 16433736 17717560 19549569 21351722 22691900
1867.74 23824886 24542058 24817725 25127036 25440000 25565088
1870.63 25667685 25902246 26084914 26248948 26406637 26568531
1873.52 26693774 26663637 26475529 26146934 25620179 24839657
1876.41 24088251 23394180 22452800 21279302 20212500 19547555
1879.31 19651757 20885539 22841672 24082472 23028734 19367376
1882.20 15009706 13187527 13559864 14642846 15781550 16672292
1885.09 17386242 17721612 17520685 17014982 16287493 15270914
1887.99 14046143 12689289 11173951 9767313 8564219 7347773
1890.88 6280207 5295110 4466820 3789724 3302576 2885227
1893.77 2473179 2152392 1780112 1544646 1435981 1407816
1896.66 1331223 1162849 963607 902787 879458 884922
1899.56 1013974 1039478 909879 774792 721490 790519
1902.45 839098 918867 884782 918169 969756 979110
1905.34 907960 842042 899293 1016681 1084397 1170240
1908.23 1159823 1176517 1216748 1217981 1256003 1314701
1911.13 1404689 1482215 1602824 1720696 1814280 2023036
1914.02 2197886 2297445 2528284 2767785 2869248 3079459
1916.91 3291594 3294858 3480229 3866466 4242520 4535316
1919.81 4787264 5104255 5431700 5802070 6263728 6604829
1922.70 6912896 7413541 7975592 8554218 9099674 9532359
1925.59 10036802 10560815 11186097 11884258 12608354 13354319
1928.48 14341871 15415712 16215277 17150949 18324516 19392511
1931.38 20351644 21349372 22258820 23157441 24075172 24747526
1934.27 25132627 25584020 26003045 26023816 25954342 25746055
1937.16 25279474 24600747 23927100 23066707 21949271 21004615
1940.05 20277473 19961975 20130641 20855353 22328181 24407238
1942.95 26502153 28292938 29572860 30264338 30594591 30708847
1945.84 30771560 30729307 30582101 30495534 30390313 30070346
1948.73 29706820 29408533 29173997 28967666 28636980 28093715
1951.63 27511835 27022463 26335992 25579239 24851176 24041687
1954.52 23152239 22142200 21126811 20287777 19858862 20276945
1957.41 21498577 22865963 22673681 19062693 14455406 12870645
1960.30 13346151 14250298 15163236 16073095 16599529 16703986
1963.20 16486475 15757240 14715912 13630784 12309586 10748346
1966.09 9355566 8023886 6790233 5741747 4706415 3796235
1968.98 3102327 2455041 1929737 1557627 1253196 1030636
1971.87 851043 796523 812494 899384 982267 811422
1974.77 443363 320562 293790 384068 568710 627386
1977.66 663454 723105 755481 661691 700672 865820
1980.55 911158 948544 1130113 1265835 1239787 1234580
1983.45 1304039 1351239 1275990 1299301 1233923 993280
1986.34 803256 725853 748686 826747 948336 1009779
1989.23 928882 820387 733066 678547 571798 536454
1992.12 645120 871779 904116 809710 746824 699578
1995.02 584865 425063 389865 439544 430121 391528
1997.91 299461 250036 257086 340426 234113 90551
2000.80 82248 143132 139718 107321 39083-132150
2003.69-209381-91281-57573-71247-107068-123589
2006.59-7937 10166 45217-70751-127778 82905
2009.48 102026-33634-43781-6014-11989 22194
2012.37 28936 87916 127060 227181 242671 311036
2015.27 350507 282065 336029 426137 441463 522366
2018.16 629503 708488 762209 831260 842954 769436
2021.05 806871 910264 849624 832196 871831 959815
2023.94 1134880 1208918 1128010 1003746 961377 1034297
2026.84 1140246 1103453 1077394 1160331 1273881 1328018
2029.73 1361576 1312543 1274419 1272373 1297110 1390057
2032.62 1269182 1029232 812136 807551 890691 805991
2035.51 856338 957346 870939 871697 871851 756750
2038.41 662707 615079 649860 563414 444353 551624
2041.30 511640 423252 472362 418205 305335 191049
2044.19 123954 142827 220473 106199 21967 12043
2047.09-150759-261114-278990-247106-177748-220539
2049.98-316513-441295-490005-491784-593031-691108
2052.87-699074-648798-636960-671293-603897-451423
2055.76-389080-482215-516651-624936-716850-713069
2058.66-820099-852679-733328-777358-797413-810118
2061.55-918451-885136-845644-848615-857669-925951
2064.44-819161-790736-851751-822882-887162-997759
2067.33-951213-924060-934924-948865-792972-684801
2070.23-695919-727143-779616-1009133-1020368-873379
2073.12-915452-962711-873775-826085-862067-796155
2076.01-826957-832783-800162-806603-876641-851555
2078.91-789126-785097-866964-938572-842834-718733
2081.80-740736-766105-726803-721099-706981-683654
2084.69-716047-637832-611321-710098-736242-707052
2087.58-708695-630379-465821-424579-411504-477819
2090.48-551758-562286-492406-511717-588055-573052
2093.37-548097-405156-411601-484936-473991-459198
2096.26-484779-429336-279504-285938-307897-263322
2099.15-295153-255941-260412-310727-285573-329859
2102.05-372276-284453-265570-357604-445478-460597
2104.94-462101-443373-462668-474962-342199-320118
2107.83-375518-328752-268360-354968-459623-438488
2110.73-340734-280094-283651-389696-396560-386094
2113.62-389927-367897-409503-253743-218137-322217
2116.51-264764-141930-22075-44143-168565-152074
2119.40 8586-63761-119507-53565 13455 22967
2122.30 100682 93864 116899 191899 172337 167703
2125.19 197682 180055 134067 100496 172141 188802
2128.08 209480 143504 20661-49535 57121 101538
2130.97 94586 99703 97306 148737 306598 324368
2133.87 182294 75302 109130 36238-104087-161871
2136.76-109954-81586-190993-221593-87656 54618
2139.65 38537-62335-122821-108176-127927-172597
2142.55-180167-184146-137276-66894-35046-85543
2145.44-80985-36318-83512-17739 22446 16529
2148.33-62659-153095-92614 53698 48853 26235
2151.22 50973-72244-137814-62865-37610 14085
2154.12-32690-23008-12416-7814 53351 69992
2157.01 22121-93929-53357 21463-26608-53999
2159.90 39495 34287-46111-6180-8899 146612
2162.79 234298 230866 154485 158066 156265 133545
2165.69 141055 112541 118908 207556 229876 202746
2168.58 249253 257354 212157 197049 222353 190684
2171.47 129944 113721 66599 100428 265970 270487
2174.37 276353 270700 207869 150328 112537 114580
2177.26 296144 422713 373515 336829 326047 338115
2180.15 143700 192289 317670 271024 135449 99083
2183.04 149611 219155 285014 253869 221184 205396
2185.94 155915 162438 188642 241915 371524 299027
2188.83 256560 298097 228399 124433 42039 41134
2191.72 42290 39441 135564 112898 132305 149155
2194.61 125550 86947 52790-12575-31874 94282
2197.51 137827 79973 38938-13277 110950 180020
2200.40 137041 132735 148524 259923 357377 353070
2203.29 326587 265650 199708 181032 305295 409109
2206.19 432458 473546 636862 780199 725977 578589
2209.08 497587 585584 779061 868635 772084 679172
2211.97 791130 926324 994095 949015 979368 999935
2214.86 1044668 1085690 995755 978938 988691 1034587
2217.76 1181048 1241870 1215979 1087740 1102206 1320010
2220.65 1310620 1161556 1195300 1289005 1292491 1308852
2223.54 1297633 1245700 1271291 1275707 1266546 1267939
2226.43 1225491 1250974 1246593 1223430 1192669 1220055
2229.33 1299565 1432953 1446460 1367137 1441065 1475215
2232.22 1419935 1388505 1375397 1466164 1541062 1585940
2235.11 1578678 1515653 1444808 1439031 1561138 1499941
2238.01 1517373 1526426 1422928 1416332 1519349 1478694
2240.90 1429145 1460529 1490790 1318480 1327824 1436037
2243.79 1422674 1397507 1430637 1399568 1356476 1349709
2246.68 1377699 1344537 1324253 1381779 1359565 1209328
2249.58 1152843 1160474 1195401 1205211 1107104 1095961
2252.47 1177516 1221353 1077033 994170 1083407 1074390
2255.36 1049708 993064 939987 1014178 1236460 1351837
2258.25 1344116 1387309 1302591 1156225 1162602 1293063
2261.15 1240706 1356533 1363224 1282166 1434337 1596775
2264.04 1663843 1633395 1460372 1367500 1421582 1629526
2266.93 1750737 1688011 1667197 1694770 1762462 1788920
2269.83 1769939 1934177 2108517 2184853 2176519 2151754
2272.72 2050396 1952671 2004779 2174668 2375297 2365352
2275.61 2276748 2296709 2257453 2278776 2429576 2413251
2278.50 2332450 2317459 2425657 2549168 2482114 2412985
2281.40 2409505 2439791 2537791 2597032 2475259 2433669
2284.29 2436758 2404269 2418066 2343384 2327438 2291576
2287.18 2230993 2201760 2249773 2289614 2261017 2300419
2290.07 2355565 2299299 2244260 2242747 2181941 2042489
2292.97 1937270 1966989 1979845 1866754 1823582 1800203
2295.86 1771284 1749197 1652260 1546576 1512023 1558531
2298.75 1470659 1366284 1446918 1558819 1596934 1577716
2301.65 1476719 1431636 1578901 1732237 1865352 1931586
2304.54 2068497 2307476 2565039 2821698 3035781 3198342
2307.43 3376707 3505891 3507832 3638557 3916980 3888912
2310.32 3551423 3190700 3141220 3029924 2582892 2353925
2313.22 2796147 3278312 4122823 4950178 4891261 3808233
2316.11 2922463 2542814 2907228 3464734 3482705 3179350
2319.00 3617252 4172074 4189532 3744282 3610279 3870384
2321.89 3777914 3174132 3136203 3477936 3163035 2387704
2324.79 2443235 2997225 2703306 2009253 2361832 3005505
2327.68 2634928 2116705 2677563 3466253 3078645 2585387
2330.57 3310863 3838529 3288844 3158142 4060093 4160818
2333.47 3330474 3573210 4416677 3993530 3250374 3973781
2336.36 4647421 4016025 3881878 4852906 4918659 4184796
2339.25 4693627 5461308 4817532 4382507 4978326 4809480
2342.14 4076690 4432653 4868050 4343348 4284972 4800607
2345.04 4670088 4325917 4499689 4742859 4597754 4541229
2347.93 4594190 4558450 4390207 4125503 3925922 3793851
2350.82 3582232 3541657 3370673 2775605 2890804 3159975
2353.71 2496774 2530408 2823689 2009815 1883880 2364665
2356.61 1642516 1823300 2445027 1547187 1619256 2232879
2359.50 1345230 1556664 1786304 1116951 1772097 1690418
2362.39 1143675 1892274 1473276 1237898 1674781 1014449
2365.29 1301393 1363004 973822 1578407 1326979 1418563
2368.18 1610415 1463147 1857199 1789993 2003026 2013095
2371.07 1868698 2152556 1897086 1820746 1729129 1818799
2373.96 1912803 1997263 2011859 1858564 1936951 1739647
2376.86 1665620 1708359 1765935 1666790 1588819 1502609
2379.75 1580928 1760551 1768737 1698306 1602335 1600251
2382.64 1633407 1516209 1430497 1390638 1388445 1355670
2385.53 1280445 1220149 1132255 1029001 1003166 1012020
2388.43 979172 1004170 876107 673669 639872 662837
2391.32 726221 838588 861775 697858 562649 625925
2394.21 664294 538924 457729 444747 540780 656238
2397.11 541468 579649 636218 580712 649994 645421
2400.00 647298 697765 729349 792128 817925 766750
2402.89 744452 736959 738189 780137 901958 938379
2405.78 1029083 1111348 1149132 1287909 1274823 1169587
2408.68 1132431 1219155 1337093 1392202 1403908 1374441
2411.57 1437890 1536033 1477806 1509177 1591068 1584553
2414.46 1518957 1480812 1480618 1598652 1785880 1981690
2417.35 1867387 1494560 1323984 1377275 1494659 1620670
2420.25 1674635 1638199 1631581 1602030 1528926 1492452
2423.14 1634810 1664284 1473427 1447465 1498711 1545101
2426.03 1603119 1680078 1716070 1718224 1764561 1815972
2428.93 1830091 2044308 2193414 2130500 2179944 2303116
2431.82 2308300 2290176 2348046 2575453 2613191 2518384
2434.71 2566431 2641433 2774994 2800353 2796682 2841977
2437.60 2952066 3166217 3328176 3226869 3008618 2910531
2440.50 2814653 2708313 2754042 2729449 2660436 2627210
2443.39 2557391 2463570 2523165 2619210 2614644 2599889
2446.28 2551747 2386467 2076471 1886460 1842239 1635160
2449.17 1580403 1607012 1329243 1277892 1256603 1197166
2452.07 1210221 1014435 826720 830075 805468 739602
2454.96 716100 664192 591393 476135 445338 400630
2457.85 362544 391545 438286 435340 349011 297136
2460.75 265332 306142 348323 316878 394101 479523
2463.64 386072 336477 471701 362273 293711 396899
2466.53 315800 187986 206870 283394 308594 376226
2469.42 356962 233819 211896 311287 400999 362289
2472.32 465466 551121 474261 326386 321761 311712
2475.21 362293 553356 695671 622150 471018 464713
2478.10 351882 237660 286490 378585 475290 536774
2480.99 504066 422250 420872 570144 579904 503341
2483.89 461129 543868 594429 521985 530561 499856
2486.78 429618 627387 774998 695472 560341 661811
2489.67 870514 723138 688938 855434 741687 672126
2492.57 803821 786730 714503 853321 835849 725899
2495.46 791155 710987 575981 702783 738526 709116
2498.35 778810 860400 897775 915265 882634 791872
2501.24 837057 898557 936417 1011377 1038116 1004019
2504.14 1050165 967870 992802 1089228 1040052 1000986
2507.03 1139131 1243147 1223706 1084866 1042620 1243401
2509.92 1199711 1013519 1088417 1191937 1223161 1209554
2512.81 1030203 1081919 1192552 1191948 1257745 1352484
2515.71 1331572 1370912 1339077 1267264 1216743 1337642
2518.60 1409697 1348891 1358457 1519097 1629038 1634509
2521.49 1636969 1513278 1327033 1309137 1482872 1557325
2524.39 1570029 1497842 1557705 1810355 1895492 1944835
2527.28 1972149 1908033 1960812 2012582 1855096 1927739
2530.17 2096867 1952033 1982162 1946030 1942488 2026930
2533.06 1942169 1979674 2080438 2115464 2019223 1909303
2535.96 1916937 1981236 1926189 1918761 1936751 1925694
2538.85 1855173 1844915 1813386 1853254 1848855 1803109
2541.74 1641609 1587565 1565986 1582417 1598497 1488441
2544.63 1453572 1626329 1661621 1630427 1530385 1429839
2547.53 1445419 1556908 1603186 1645933 1687997 1675586
2550.42 1634855 1371621 1330738 1438985 1395438 1448088
2553.31 1512852 1478163 1426319 1533885 1659614 1649347
2556.21 1532159 1450503 1458053 1513546 1578084 1475366
2559.10 1448067 1635081 1722718 1660585 1585325 1574346
2561.99 1412190 1332532 1441833 1510963 1518861 1439761
2564.88 1498841 1513475 1390664 1512563 1607890 1636503
2567.78 1791642 1706190 1579423 1570672 1567860 1425839
2570.67 1315537 1451341 1563490 1477454 1508135 1552835
2573.56 1596034 1672515 1615118 1365402 1227349 1444242
2576.45 1627917 1532999 1372623 1480262 1547217 1510505
2579.35 1589381 1793272 1795928 1671899 1770442 1694271
2582.24 1561329 1601914 1628368 1647021 1761897 1805313
2585.13 1733538 1656970 1511422 1517907 1682591 1811779
2588.03 1929989 2025063 2120602 2192000 2191648 2111493
2590.92 2081577 2171790 2205211 2272392 2459558 2493180
2593.81 2354744 2491902 2649856 2534325 2371273 2494412
2596.70 2668910 2676900 2574565 2569914 2703456 2775259
2599.60 2908676 3047900 3014256 3123766 3249299 3432112
2602.49 3374877 3301048 3528859 3692150 3720605 3813325
2605.38 3980392 4055966 3887019 3770027 3864740 4104389
2608.27 4193761 4061567 3945833 3941857 3965968 3957337
2611.17 3892560 4022958 4154565 4032223 3915124 3930647
2614.06 4106296 3980900 3784591 3819520 4009091 4013013
2616.95 3919556 3821424 3880817 3938609 3929266 3788486
2619.85 3681721 3765627 3976332 4047761 3895590 3857885
2622.74 3994592 4088225 4182507 4221261 4248909 4385913
2625.63 4489742 4427067 4500345 4496584 4630472 4889282
2628.52 5104989 5392349 5562493 5525393 5620368 5661019
2631.42 5733764 5973683 6051273 6236312 6560136 6685612
2634.31 6704162 6896931 7054549 7090769 7147674 7056586
2637.20 7123451 7227267 7083322 7169911 7276636 7205428
2640.09 7149367 7120032 7143308 7210720 7053548 6921830
2642.99 6841482 6816222 6743291 6710123 6622631 6460918
2645.88 6422516 6447088 6508335 6279905 6034314 5891907
2648.77 5666247 5519572 5332070 4973154 4730886 4581051
2651.67 4323715 4061404 3931128 3925673 3877987 3736624
2654.56 3680919 3625753 3458090 3198706 3062141 2960003
2657.45 2757764 2657799 2623783 2601044 2632341 2557216
2660.34 2462517 2236758 2184645 2169841 1925285 1704055
2663.24 1796760 1981624 1896168 1811757 1697304 1499945
2666.13 1564862 1838847 1866625 1709772 1637456 1682956
2669.02 1779193 1744612 1558245 1524145 1657444 1758359
2671.91 1693103 1718630 1663810 1557499 1574741 1595769
2674.81 1432146 1386785 1533416 1556998 1564097 1540429
2677.70 1504079 1423378 1447128 1443607 1475389 1350873
2680.59 1294257 1425598 1571379 1642577 1520414 1457643
2683.49 1490300 1350578 1280110 1266345 1315801 1346145
2686.38 1421949 1386939 1136577 1112144 1274611 1459201
2689.27 1686168 1801849 1758460 1666990 1607111 1860323
2692.16 2080002 1983540 1921859 2113325 2334548 2370233
2695.06 2387665 2644361 2622680 2485281 2672910 2811514
2697.95 2875245 2994930 2920070 2808676 2920312 3053296
2700.84 3170573 3330895 3469420 3505870 3512087 3543707
2703.73 3685881 3673643 3376987 3278515 3354757 3468122
2706.63 3558364 3637595 3634259 3436053 3076126 3040179
2709.52 3140668 2927176 2764156 2837090 2708639 2608533
2712.41 2634743 2586965 2392365 2276038 2520403 2648510
2715.31 2505576 2295684 2249710 2264595 2261889 2286286
2718.20 2304139 2355069 2146845 2062854 2241409 2417983
2721.09 2541089 2629104 2629487 2582414 2520367 2450441
2723.98 2616353 2804691 2788993 2933655 3172030 3383760
2726.88 3681616 3940042 3997734 4218741 4435651 4515861
2729.77 4696702 4801637 5013918 5166723 5397656 5675796
2732.66 5586008 5646289 5833633 6148357 6689858 7307152
2735.55 7788065 8146389 8131473 7866645 7476603 7143383
2738.45 7096963 7352949 7545471 7521380 7455595 7600904
2741.34 7774804 7896673 7898290 7725893 7533098 7491034
2744.23 7322838 7125786 7201489 7222818 7043351 6856442
2747.13 6717785 6634741 6433061 6181155 6168108 5968321
2750.02 5789580 5761502 5624922 5658767 5670594 5420886
2752.91 5162165 5154244 5266301 5347800 5320884 5235509
2755.80 5196040 5100469 5097618 5199680 5240783 5334097
2758.70 5500679 5450366 5452213 5632013 5790496 5818822
2761.59 5844173 5881980 5996985 6181500 6378655 6375264
2764.48 6447925 6565824 6607878 6763932 6867941 6885098
2767.37 6838629 6926227 7167379 7416065 7590416 7623149
2770.27 7616973 7764318 8111451 8345502 8411144 8692916
2773.16 8848023 8846323 8954773 9245460 9535291 9677445
2776.05 10001542 10226892 10238131 10381455 10531321 10762258
2778.95 11032443 11252654 11368749 11529270 11752198 11958822
2781.84 12159149 12016832 12119270 12544888 12769774 12950960
2784.73 13044482 13087900 13257803 13310951 13268072 13244066
2787.62 13284906 13472253 13733686 13797718 13678293 13577957
2790.52 13612306 13688278 13832637 13848562 13817469 13654663
2793.41 13474597 13313086 13182645 13111260 12967571 12642628
2796.30 12403036 12450771 12648502 12693880 12565200 12306484
2799.19 11980272 11725911 11732505 11557614 11378649 11312458
2802.09 11151574 11015540 10996015 10785252 10577497 10698936
2804.98 10834520 10813413 10627636 10383049 10399457 10594930
2807.87 10642660 10660747 10709126 10818799 10910402 10992548
2810.77 11085701 11112798 11096626 11193498 11404091 11607571
2813.66 11760781 11830716 12144113 12352750 12355100 12490810
2816.55 12779986 12999516 13191321 13453765 13848313 14095322
2819.44 14331596 14572687 14977187 15316137 15585907 15790274
2822.34 15894018 16283699 16695311 17097688 17533756 17796892
2825.23 18198773 18542557 18855597 19475345 20029651 20493273
2828.12 20931896 21278799 21681090 22028612 22432945 22731434
2831.01 23146976 23587579 23706732 23980094 24313118 24519899
2833.91 24698039 25048882 25559913 26202906 26701643 27176825
2836.80 27770966 28458199 29065932 29614306 30070337 30609582
2839.69 31253786 31868324 32321394 32706165 33084002 33490162
2842.59 33848092 34300241 34779495 35180043 35807017 36332557
2845.48 36845061 37671399 38431715 39212644 39729356 40141009
2848.37 40767774 41456176 42369478 43626927 44912384 46250747
2851.26 47451765 48711954 50163965 51593023 53146762 54685289
2854.16 56549452 58499639 60252853 61983771 63932032 65940632
2857.05 68217706 70691761 73143311 75956298 78855826 81788768
2859.94 85025482 88315728 91798734 95588114 99240302 103015125
2862.83 107307242 111753936 116140421 121064250 126139762 131293773
2865.73 136420870 141385340 146179336 151120775 156245935 161546745
2868.62 167271307 172767680 177708647 182850929 188130295 193292884
2871.51 198237463 202935009 207836870 213105491 218666163 224725813
2874.41 231129821 238341045 246737712 256374161 267924210 278737300
2877.30 284973153 285011735 281718516 279764696 280416851 282804194
2880.19 285658045 288734326 291353252 293103330 293599452 292827285
2883.08 292090139 293609302 301979563 318777368 330180245 328322882
2885.98 322739119 315894755 308210382 301054194 294320772 286584856
2888.87 279177929 273158038 269139320 266531443 263896931 261307388
2891.76 259015865 256187242 252970808 249743533 246385524 242861993
2894.65 239388544 236174282 232755201 228886859 225004072 221422842
2897.55 218165382 215345003 212755650 209920901 207496167 206002033
2900.44 205123986 204067184 203194586 203111967 203469582 204159896
2903.33 205227964 206107052 206700335 206801709 206626758 206179115
2906.23 204930575 202871018 200687681 198440724 196177121 194272623
2909.12 193288356 193448552 194622179 196139839 197117749 197338370
2912.01 196747109 195991400 195148737 193770002 192130400 190247112
2914.90 188096071 186212128 184238417 182308626 180473943 178525538
2917.80 176776061 175456791 174346813 173627604 173196349 173391669
2920.69 174362771 175569504 177041297 178885012 180955947 183172152
2923.58 185898079 189385414 193446607 197944817 202844009 207871562
2926.47 213108198 218597244 224295211 230213570 236622362 243636546
2929.37 250878764 258196561 265614710 273377742 281666737 290199300
2932.26 299310060 308664610 318228904 327951641 337471437 347533878
2935.15 357939215 367896869 377381637 385920808 393343400 400021346
2938.05 406353538 412677681 420162013 430302023 444520880 466501621
2940.94 497620573 525099348 527532579 504537485 477650655 461668968
2943.83 453232787 446763867 440904161 435743993 432109307 430978273
2946.72 431356410 431035222 429194509 427477961 424715600 420388265
2949.62 416588206 408386485 393138700 380923372 374869764 370557346
2952.51 365921717 360691445 354287249 346492479 337986911 329284868
2955.40 320850194 312800294 304877691 297881258 292632594 289070216
2958.29 287333501 287593983 289778099 294020428 301080553 310667524
2961.19 323190345 340705911 361648518 384752599 412197774 444141473
2964.08 480654754 521054483 563857970 608970464 656072599 704374342
2966.97 752156053 796747897 836766732 870824107 897389229 914355332
2969.87 921725141 919822982 909321467 893826974 882138239 886230609
2972.76 916248975 970138550 1020448027 1028762483 993000424 941852430
2975.65 901424179 882245716 883251280 896843615 914907474 931575500
2978.54 943185572 946997401 941576604 926042495 900684886 867049911
2981.44 826380584 780370535 731659414 681109870 629917653 580268976
2984.33 532818146 488400944 447551742 410437378 376791792 346338174
2987.22 319225295 295430253 274191621 255116600 238290273 223073557
2990.11 209452652 197248124 186057272 176115598 167209815 158825566
2993.01 151248706 144619753 138386462 132621795 127455321 122764102
2995.90 118292019 114436772 110948290 107424385 104512389 102223500
2998.79 100184584 98613512 97708319 97122018 96738766 96359738
3001.69 96093898 96260576 96481482 96673467 96918765 97502519
3004.58 97892209 97921888 97695139 97515511 97270347 97127758
3007.47 97016191 96877927 97272140 98498620 100311905 103153001
3010.36 106116154 107893312 108125709 106941467 105730156 106150635
3013.26 107999330 110741069 114173847 118034653 122124087 126162050
3016.15 130049042 133731479 137153482 140519150 143901551 147581369
3019.04 151605084 155985600 161065496 166918390 173719609 181546988
3021.93 190322105 200110590 211002459 223131672 236350393 250656473
3024.83 265776515 281623572 298375999 315742468 333599899 351757412
3027.72 369735644 387347327 404572194 420995991 435916255 448829786
3030.61 459345332 467292753 472462394 474138749 472952537 469341437
3033.51 464474708 460504533 459718766 464308075 475473955 491894756
3036.40 510579938 524149678 529158401 527459243 523051678 519930137
3039.29 518150307 516763227 514833595 512474394 509868623 505660372
3042.18 497726042 486573470 473684454 458746431 442643511 426406313
3045.08 409786666 392906525 376045962 359252465 342151823 325003840
3047.97 307945035 291138728 274958960 259386966 244634606 230966055
3050.86 218504840 207063332 196400225 186808235 178381174 170888007
3053.75 164403122 158923807 154394384 150559254 147621292 145743048
3056.65 145151897 144981514 145184045 146310579 148125757 150359710
3059.54 153125202 156718955 161361540 167295937 174472170 182353103
3062.43 190060750 197225812 204189263 212269932 222072984 233051680
3065.33 244432174 255762562 266394804 276377538 285696825 293402823
3068.22 299429546 303447920 305500777 305155793 303598451 302188120
3071.11 301827263 303687671 309241812 318595192 331509169 348562526
3074.00 368590503 382396882 371233527 335301180 307831795 301063560
3076.90 305030630 313424601 323588016 333543248 341216763 346068249
3079.79 347518810 345805152 340946581 333250252 323864408 313906380
3082.68 302522602 289790127 277755581 267134829 257621847 249430340
3085.57 242471383 236443214 230896505 226111142 221971044 218246792
3088.47 214304306 209860206 205525979 201220731 196743078 192133329
3091.36 187483928 182823456 177776521 172632296 167928402 163423007
3094.25 159460800 156599455 154182439 152705881 152568317 153362975
3097.15 154866426 156509568 157279746 156988273 155813588 153872194
3100.04 151183488 148109432 144826371 141235533 137326197 133351400
3102.93 129560405 125824822 122004017 118208499 114637021 111374388
3105.82 108240144 105350402 102805732 100367283 98050692 95741952
3108.72 93627751 91773837 89810896 87806264 86062531 84234766
3111.61 82175882 79921401 77785941 76262449 74612054 72972069
3114.50 71503791 70356951 68801012 66838967 64888440 63443011
3117.39 62443631 61151103 59724473 58504106 57479465 56391284
3120.29 55249772 54111205 52989214 51859306 50279496 48545216
3123.18 46738445 44502794 42039250 39688172 37018619 34429146
3126.07 32303791 30122022 27990105 25919384 24007370 22155834
3128.97 20556621 19011783 17756310 16623326 15494566 14742215
3131.86 13944025 13227446 12646156 11887621 11210133 11004173
3134.75 10764362 10318653 9717915 9363013 9239368 8932605
3137.64 8523897 8146806 8135249 8140590 8016201 7851000
3140.54 7737374 7495925 7353840 7311731 7220835 7048540
3143.43 7085733 7084778 7029891 7153966 7210269 7091965
3146.32 6893446 6802980 6915497 7054249 7248950 7300831
3149.21 7187587 7107587 7055300 7057980 7124132 7180718
3152.11 7154453 7111142 7203946 7191353 7180984 7164644
3155.00 7111183 7255643 7301230 7317360 7405816 7498277
3157.89 7595062 7736008 7715895 7571311 7706824 7803522
3160.79 7837879 7935471 8090676 8128113 8306587 8576872
3163.68 8605239 8627172 8779359 9182542 9100432 8990523
3166.57 9222279 9310564 9265006 9249924 9408675 9629711
3169.46 10048876 10311559 10465591 10651327 10743412 10886414
3172.36 10931843 11251135 11491820 11651708 12031499 12534787
3175.25 12601528 12648508 12739458 12970310 13042465 12986909
3178.14 13046743 13120465 13106264 12923648 13218639 13553621
3181.03 13688323 13780746 13675437 13534017 13622848 14040932
3183.93 14255279 13967151 13897603 13578196 13235085 13175512
3186.82 13032547 12738145 12481836 11965655 11494889 11261472
3189.71 11227749 11201572 11049618 10809316 10727366 10433400
3192.61 10115771 10018393 9797807 9331122 8921737 8694975
3195.50 8367394 8100472 7787603 7346168 7038610 6733329
3198.39 6339306 5869036 5562609 5213842 4875475 4627517
3201.28 4267585 4001216 4052355 3857017 3632605 3621269
3204.18 3653303 3331259 2905399 2541826 2464693 2372221
3207.07 2358069 2246173 2029910 2015695 1838372 1581589
3209.96 1589471 1676294 1760244 1861229 1715427 1536918
3212.85 1504983 1698927 1772732 1647486 1446864 1298481
3215.75 1200043 1153800 1125068 961425 949907 1215212
3218.64 1293829 1206522 1405188 1256633 1031651 1104846
3221.53 1195234 1022310 870370 848585 894995 885063
3224.43 972343 1196115 1120689 1019552 924077 776600
3227.32 850992 875614 903111 855787 847115 827770
3230.21 796182 845811 786858 631396 594469 705226
3233.10 903631 1019811 922496 802944 796796 738034
3236.00 674622 774718 843298 887636 827102 885149
3238.89 1008058 906396 985948 1176042 964919 718707
3241.78 558764 655432 801819 966807 1042479 1034742
3244.67 963921 1000856 1142040 1237873 1305511 1317412
3247.57 1318696 1466479 1435120 1333597 1471557 1698399
3250.46 1818727 1533149 1232379 1139674 1295916 1501738
3253.35 1636921 1460071 1114222 1062323 1226708 1121632
3256.25 1020627 1083438 1215255 1479109 1541448 1480933
3259.14 1399869 1331880 1301152 1417385 1477822 1456145
3262.03 1394272 1457584 1360872 1300308 1451453 1285188
3264.92 1323036 1651459 1639027 1490744 1454499 1279439
3267.82 1401361 1772134 2123888 2051837 1707006 1415928
3270.71 1207744 1376010 1726383 1791714 1556436 1334338
3273.60 1246083 1480856 1730128 1881770 1570949 1315948
3276.49 1335997 1430332 1547045 1509173 1424527 1372972
3279.39 1256033 1234726 1285770 1429303 1410505 1178794
3282.28 1097707 1133319 1139886 1191874 1152620 992383
3285.17 880558 1005726 1034549 880250 888202 1022750
3288.07 1050695 817476 715271 842874 1043919 1159321
3290.96 1080642 909769 905828 829432 875082 1085080
3293.85 1104662 1045430 1044507 1029304 1052499 997651
3296.74 927073 1031629 1119297 1123714 1147393 965239
3299.64 727927 822119 995385 952334 1008634 982512
3302.53 965275 1285162 1484798 1297941 1153294 1117113
3305.42 907661 721356 863077 851581 812333 862730
3308.31 719426 769179 612256 439910 384654 398009
3311.21 569251 637665 474790 304481 211369 317077
3314.10 488478 642047 548348 340573 436686 473533
3316.99 312937 182777 148197 21870-92987-211029
3319.89-263730-132198 80434 251767 193579 98575
3322.78 95950 21266-88324-97539-84366-250265
3325.67-289618 119416 1684-84007 208804 123164
3328.56 150556 104179 241698 298514 165051 188120
3331.46-8496-92894 79500 114436-53137-102918
3334.35 185513 187135 123937 258908 76617-251090
3337.24-342616-294364-80136 32470-153839 2586
3340.13 324832 226213-135109-49473 28673 8207
3343.03 207293 225670-71038-85505 148474 166633
3345.92-23163 115542 38777-4512 493342 387126
3348.81 11051-146756-267849-211182-145967-69040
3351.71 297891 154391-41952 80859 211056 277976
3354.60 143171 62246 52643-49104-315859-398445
3357.49-124037-58044-168741-237757-99974-263937
3360.38-372861-292302 82555 365520 478406 488871
3363.28 365615 240494-55956-352682-8283 32573
3366.17-129834 15796-32922-105639-210748-139369
3369.06-138585-225488-289488-10449 82467 49584
3371.95 28400-101119-126825-16056 80276-11013
3374.85-204585-227902-455523-281980 224819 478785
3377.74 342512 340950 275706 78052 230656 324831
3380.63 175251-1376-108002 87789 293439-45326
3383.53-304806-31692 195543 290593 250297 106651
3386.42 283790 258345 23172-107183 11249 98831
3389.31 76135 72792 184229 130019-20873-104721
3392.20-22700-43522-163618-4870 377008 579409
3395.10 510953 238908 109256 209790 358052 176346
3397.99 13147 140007-29704-137247 15078 207124
3400.88 211469-173737-267149-150193 85707 154319
3403.77 147072 141938 180913 167772-53788-117320
3406.67-37017 6072-221640-259677-23930-104795
3409.56-265036-27536 225813 86602 52814-157773
3412.45-466476-465498-358917-300250-51880-150549
3415.35-261208-515830-512825-237136-313340-292717
3418.24-37565 40273-31971-190719-221753-176556
3421.13-204622-253005-326327-306326-94674-242746
3424.02-372280-110438-46308-89486 10330 145469
3426.92-118377-485802-528647-268613-180710 81249
3429.81 151963 43577 68886 78230 105939 196392
3432.70-10678 57280 159397-81514 25299 261043
3435.59 327109 184495 213330 206154 224467 238128
3438.49 308939 191903-18841-81991-4032 5083
3441.38 19971 127280 94860 317899 307042 121003
3444.27 337034 472764 575200 430047 226202 94297
3447.17-2181-2540-120779 6291 113152 163384
3450.06 35355-60710 68200-152699-372788-106265
3452.95 52054-74254-149856-217795-144871 34763
3455.84-168241-361127-314486-163789 44218-16290
3458.74-279120-304443-179630-445007-550775-349989
3461.63-254978-443094-570605-419947-220414-279051
3464.52-536656-724412-558108-308427-180990-133675
3467.41-260446-436514-552578-921474-984283-692719
3470.31-545595-518505-188270-70904-343529-511878
3473.20-297068-268536-382918-390282-290653-221425
3476.09-439994-299283-208630-521191-725435-757380
3478.99-497193-367681-285554-259582-589839-823121
3481.88-723101-647567-779111-624181-560766-249634
3484.77 47319 41191-378815-721886-654137-528419
3487.66-615646-603753-704694-553280-331167-676759
3490.56-949678-954897-976290-881810-636557-846405
3493.45-857492-629621-644049-746839-571083-447464
3496.34-586369-712254-676081-608183-477685-445627
3499.23-400999-308741-306652-541865-456480-148745
3502.13-186279-519027-647498-505149-127230 61598
3505.02-94321-181075-242806-459788-603006-403165
3507.91-460628-304549-149351-236786-313843-399640
3510.81-566624-453152-185350-216093-371745-357687
3513.70-257630-135680 114946 327404 398997 396397
3516.59 482619 449777 356756 279807 219000 253030
3519.48 226681 346479 532528 643340 744849 714800
3522.38 859312 1256013 939987 593732 969632 983989
3525.27 742126 778982 842722 829538 829129 1128085
3528.16 1327305 1135533 1007679 1058130 924279 789648
3531.05 775606 607779 722283 884441 672915 793038
3533.95 1085429 1070877 923761 674839 549304 588447
3536.84 687599 622108 294103-124 160477 467811
3539.73 452922 191544 180647 190939-2852-197452
3542.63-329834-298788-216644-207209-82373-147008
3545.52-93712-90220-174136-142635-144835-97524
3548.41-68616-3779-195528-410223-379643-212587
3551.30-93231-144604-288011-314745-456092-541570
3554.20-508537-541067-587508-522980-313514-103114
3557.09 99508 99580-252565-465687-167088-150099
3559.98-139680-306615-457897-494761-592604-391929
3562.87-208166-179708-196414-209902-184329 21743
3565.77 97928-164677-344123-400126-427271-411907
3568.66-298397-237245-397345-373019-205891-296937
3571.55-298135-464051-414664-368848-647999-544490
3574.45-336026-391539-471010-264652-336050-277785
3577.34-63118-6317-245000-440404-403855-460493
3580.23-585137-511924-528663-501223-421712-393814
3583.12-394963-216853-250501-187642-19124 92517
3586.02-28358-260857-129320-28995-557730-1000259
3588.91-778655-319934-6647-30107-38945-53166
3591.80-119907-164430-135593-176282 26976 130315
3594.69-30340 69511-84442-206611-36970-7546
3597.59 8722 63367 60553-9727 40788 136266
3600.48 174735 58204 181321 180036-167908-372218
3603.37-260979-34812 19576-26648-107760-278756
3606.27-393567-123888 108006-19368-287447-676771
3609.16-408998 82278 112838 155600 59091 11991
3612.05-28130 353060 522350 234803-16151 20540
3614.94 55322-59784 134679 253452 278855 280299
3617.84 403544 521384 235948 55245 440704 790724
3620.73 961983 981573 1080664 1044074 949593 1007539
3623.62 1216718 1190307 1027790 1095000 1234749 1287059
3626.51 1426024 1218137 701648 328470 714571 560554
3629.41 329958 645618 1003447 1148072 1157009 1124266
3632.30 1258256 1321353 1062925 1080701 1337167 1467036
3635.19 1340898 1320309 1393874 1387342 1305720 1262521
3638.09 1291481 1326545 1201749 1124462 1286730 1289219
3640.98 1153373 1029926 1120355 1282938 1387165 1338079
3643.87 1377364 1489483 1288470 1488593 1652956 1508108
3646.76 1318309 1470347 1857842 1681701 1203719 1599064
3649.66 2022359 2028283 2011340 2146329 2384716 2625867
3652.55 2847913 2995936 3060130 3068175 3035096 2686724
3655.44 2189076 1918316 2175004 2388342 2566418 2757441
3658.33 2818462 2817528 2746614 2791806 2921809 2887864
3661.23 2862192 3037059 2966515 2720002 2603880 2483520
3664.12 2512039 2512758 2285101 1926010 1849103 1856267
3667.01 1813729 1689050 1223205 1028575 1293697 1068368
3669.91 418603 112418 893877 1183572 1106566 1053774
3672.80 975922 833529 651662 201680 179970 106507
3675.69 119389 562602 629703 726780 971893 942296
3678.58 637792 452010 658856 975872 1101278 1186883
3681.48 1115405 958829 825830 632854 712447 941453
3684.37 975024 1010052 1034790 1121608 1129111 1045549
3687.26 723100-134580-5270 852672 1150639 1170785
3690.15 1034229 913863 1064621 1270731 1376598 1284308
3693.05 995441 1036255 1191149 1359656 1451039 1400435
3695.94 1269514 1177910 964538 973518 1279296 1518565
3698.83 1465778 1357792 1400668 1306714 1010857 912499
3701.73 1150877 1194140 1261691 1317271 1329389 1536372
3704.62 1498424 1520361 1547156 1350053 1177595 1169119
3707.51 1291098 1279529 1034339 975818 1460306 1617698
3710.40 1548384 1339186 709765 560023 1244130 1559579
3713.30 1546101 1417080 1268142 1348172 1316599 1378746
3716.19 1394446 1535124 1746945 1633724 1468357 1525562
3719.08 1709838 1604141 1498275 1629569 1421701 1206376
3721.97 1267095 1299053 1311397 1456631 1610703 1501676
3724.87 1454850 1357605 1116704 1185054 1203275 1088036
3727.76 1189667 1056495 962365 945486 1104239 1281143
3730.65 1186996 593926 99782 571936 926687 733629
3733.55 683427 390798 266261 430447 619510 330384
3736.44 157267 363080 625993 699242 688295 967802
3739.33 986147 956255 742292 380190 414784 566611
3742.22 737287 848884 437096-770840-1432300-322893
3745.12 421855 746375 921916 818821 530093 415291
3748.01 544192 75762-409200 110538 465762 418155
3750.90 111191-755518-821330 338835 803742 829618
3753.79 613994 477792 542626 593412 398189 346897
3756.69 641664 764927 700314 565747 463500 489360
3759.58 538337 661972 645206 943241 1093931 994372
3762.47 827229 892634 919909 906275 736324 508322
3765.37 335846 433228 689098 945209 845447 744969
3768.26 809126 808441 508513 504320 796859 899885
3771.15 895823 964857 978430 960873 1039018 884647
3774.04 795602 924341 817207 768226 808419 900545
3776.94 939733 975939 940940 906785 662990 609113
3779.83 962877 1032021 932959 762190 901168 1154113
3782.72 994609 767142 854397 933770 669104 622180
3785.61 750980 742088 780126 996132 1215300 1277349
3788.51 1098006 851225 743697 729745 622431 659736
3791.40 579300 562828 755789 867309 804825 968271
3794.29 1011181 777250 511279 251270 287580 383365
3797.19 501663 757273 939672 884436 865165 866528
3800.08 717568 95729-330406 392309 841956 781781
3802.97 666307 606860 681406 818859 976258 1046731
3805.86 576782-22243 357427 992352 1096401 1105078
3808.76 1050944 1047718 1131945 1033234 1006836 863354
3811.65 841681 995120 944280 920531 960918 1080194
3814.54 889155 443262-356218-3483 991533 1281710
3817.43 1187587 1079542 905213 829096 787366 700792
3820.33 620992 784406 790097 1033554 1222341 1091762
3823.22 917449 852830 821725 890614 910698 1034264
3826.11 1052461 931918 1033404 1210232 1222400 1363400
3829.01 1346092 1150477 1152255 1054025 807993 964684
3831.90 1279572 1409732 1477578 1448153 1485659 1139578
3834.79 1087569 1344751 1406196 1585690 1397060 254326
3837.68 451784 1393554 1631904 1718060 1821567 1876165
3840.58 1484182 1583303 1775707 1778075 1739965 1522737
3843.47 1455417 1629410 1692578 1829424 1773914 1773316
3846.36 1741778 1653783 1752082 1752106 1459876 1396584
3849.25 1343750 1275573 1312678 1202371 454113 90185
3852.15 731336 762527-120385-1071558-482891 594377
3855.04 896042 941794 950845 827389 736931 740061
3857.93 587047 512602 679922 916564 822336 692539
3860.83 620621 374607 213531 291013 617087 640491
3863.72 304656 45433 155045 550257 662096 486714
3866.61 238609 276982 441323 522442 232363 46475
3869.50-275185-104557 442461 522597 330635 332148
3872.40 528706 374049-152498-431685 21589 410809
3875.29 173693 156826 97246-32887 13090 32395
3878.18-94897-203321-238861-530514-546628-227399
3881.07-25125 14997-106093-153549-156751-384873
3883.97-424105-486023-1071534-1103830-568604-282875
3886.86-255923-275628-97215-85674-235237-119651
3889.75-170293-489775-699989-242278 54704-98241
3892.65-175192-98515-184023-146812-111518-185914
3895.54-202525-154801-42898 18662 98539 73920
3898.43-151818-502222-473750-107095 147072 30460
3901.32-276217 11570 436711 468628 87307-239761
3904.22 80844 379102 186651 148640 408335 579243
3907.11 659963 835129 719805 495782 623648 780806
3910.00 747868 745178 980783 915933 835689 841432
3912.89 907129 863066 707157 658460 1017564 1287480
3915.79 1200781 915219 724846 1010409 1338237 1301541
3918.68 1303998 1343213 1170850 1240428 1405570 1377920
3921.57 1460075 1570282 1705557 1854819 1844814 1791269
3924.47 1738811 1943406 2111946 1949291 2061749 2312437
3927.36 2429370 2478471 2553913 2630870 2725348 2902918
3930.25 2918521 2930914 2811623 2554059 2822654 3165456
3933.14 3105074 3191623 3464277 3511196 3455623 3605002
3936.04 3690088 3619959 3566669 3482526 3667515 3880286
3938.93 4043902 3976671 3719606 3740889 3935413 3722511
3941.82 3336505 3273878 3486819 3577067 3431728 3419407
3944.71 3466711 3406552 3244328 3363999 3298488 3231047
3947.61 3156298 2981201 2614119 2471481 2549993 2543154
3950.50 2647230 2710815 2706595 2621914 2325523 2322292
3953.39 2452702 2432043 2321427 2192889 2192470 2123738
3956.29 2047455 2045951 1889725 1778983 1695640 1703816
3959.18 1765080 1980610 1917162 1887321 1933097 1844564
3962.07 1732970 1757280 1929610 2003953 1962549 1889584
3964.96 1975726 1981058 2001094 2136366 2084281 1982058
3967.86 2219233 2343249 2178290 2359296 2586701 2437114
3970.75 2296175 2424680 2338442 2154700 2165364 2176291
3973.64 2101446 2317067
##END=
