##TITLE=Ethylbenzene
##JCAMP-DX=4.24
##DATA TYPE=INFRARED SPECTRUM
##CLASS=IUPAC A
##ORIGIN=NIST, Analytical Chemistry Division, 301-975-3108
##OWNER=COPYRIGHT (C) 2001 by the U.S. Secretary of Commerce
##DATE=01/06/01
##$SPECTRA VERSION=1.10
##$UNCERTAINTY IN Y=2.1 % relative (B=1.13E-04,C=1.09E-9,D=2.34E-14)
##CAS NAME=Ethylbenzene
##CAS REGISTRY NO=100-41-4
##MOLFORM=C6 H5 C2 H5
##MP=-94.97 C
##BP=136.2 C
##$NIST SOURCE=QUANT-IR
##SPECTROMETER/DATA SYSTEM=IFS66V (Bruker)
##INSTRUMENT PARAMETERS=KBr Beam Splitter; MCT Detector; Multipass cell
##STATE=gas
##SAMPLE DESCRIPTION=Ethylbenzene Primary Gas Standard
##PRESSURE=101.3 Pa
##TEMPERATURE=23 C
##SAMPLING PROCEDURE=1 L/min Flow
##RESOLUTION=1.9290
##DATA PROCESSING=Happ Genzel Apodization
##XUNITS=cm-1
##YUNITS=(micromol/mol)-1m-1 (base 10)
##XFACTOR=1.0
##YFACTOR=4.5474E-13
##DELTAX=0.9645
##FIRSTX=575.652
##LASTX=3974.606
##FIRSTY=4.15E-06
##MAXX=3973.64
##MINX=575.65
##MAXY=.0004552
##MINY=-4.54E-07
##NPOINTS=3526
##XYDATA=(X++(Y..Y))
575.65 9130022 8616138 8697449 8119146 6354614 4151035
580.47 3264707 2837253 3061151 2881694 2388185 2118597
586.26 2033617 1469336 1651310 1192630 1078872 355719
592.04 145574-282589-560219-581289-540851-583299
597.83 354992 636439 685162-613295-999457-726810
603.62-881077-745714-155469-192794-66875 76659
609.40-84889 112 300127-262041-568598-815289
615.19-392480-569469-59871 240907 123859-590966
620.97-231951-35424 250643 663536 1266637 1366342
626.76 2359967 1917568 907685 614366 965521 947050
632.54 1351033 1313688 1272969 1206556 1810605 1033570
638.33 544306 312917 357713-15246 256267 251551
644.11 181401-287476-164478-278524-302587-306516
649.90 135933-218525-204659-33374 750790 802941
655.68 869323 580447 845232 821345 1526628 1815271
661.47 2492329 3171122 3992549 4649134 6553003 7622083
667.26 9686789 12277293 15943022 20284571 25638937 31612487
673.04 39312547 47632291 58739589 70858342 85582120 101347572
678.83 119153512 138440599 160094118 182161775 205969695 229115762
684.61 252935663 277266481 306722626 330884288 343830371 354988158
690.40 375239385 398577699 429865102 464343953 517424973 628995060
696.18 773876027 711150826 507238128 431234764 417386323 408301335
701.97 397892428 389072467 379396693 373105002 361555218 341570177
707.75 318724859 299936682 280337881 261715595 243131640 225963217
713.54 209373968 195987673 184647962 176372623 170466638 167522568
719.32 165963025 167014578 169230864 172950487 176989448 181663245
725.11 185810338 189701738 193592055 197810261 201971845 206832740
730.90 211160744 216138755 222011087 228883304 235747515 243623483
736.68 250521690 256301182 260444709 263000505 262346537 263132833
742.47 263229674 262580530 263545916 257246419 253420331 253074717
748.25 254426361 274949270 307648792 283546626 246018920 227821671
754.04 217359267 209358032 198277917 190533575 183012621 176428276
759.82 169027085 162324761 155533128 149416652 142816216 137038595
765.61 131502266 127169132 123947496 122367797 123458156 134360582
771.39 140057011 117971854 95464598 88562076 85255627 82230972
777.18 78922217 76406931 73504870 70752258 67574788 64839658
782.96 61556334 58349347 54821552 51456916 47892025 44766253
788.75 41551924 38691726 35615822 33122147 30995054 29326209
794.53 27800747 26836756 25173655 23635030 21985322 20872366
800.32 19677238 18766530 17561630 16172626 14745464 14146541
806.11 13524295 12642334 11566788 10990558 10229515 9714141
811.89 8775915 8175559 7632020 7312523 6643255 5989868
817.68 5420641 5245336 4732550 4653609 4341998 4214937
823.46 4063456 3695184 2933904 2577929 2522541 2872210
829.25 2451015 2021283 1681393 1591118 1351232 1189362
835.03 965733 1117816 1210695 949205 772591 571188
840.82 184012 268576 482266 420412 122726-13061
846.60-241744-220848-85506-140414-444972-311232
852.39-298932-384338-714574-749008-760254-571491
858.17-454330-118914-270452-597391-621655-203829
863.96-58054-48709 39548 353647 592525 1042071
869.75 1320490 1561625 1608967 2065960 2815050 3399004
875.53 3514054 3986200 4413336 5053589 5710552 6275791
881.32 6710910 7356525 8145824 9171301 9776098 10606945
887.10 11560327 12443313 13266821 13798986 14183440 14710208
892.89 15103155 15677612 16042135 16358064 16818587 17690266
898.67 18999306 21053531 24823303 34338964 42180174 31551202
904.46 20162063 18317373 17808295 17232371 16741771 16498797
910.24 15703482 14639152 13686066 13034849 11975190 10942190
916.03 9504612 8080205 6881156 5828806 4624371 3598393
921.81 2741123 2153899 1597602 1106827 496737 219502
927.60 7488 27251 49792 44802-210224-186624
933.39-238934-258622-196576-74717-206282-81230
939.17-45665-25923 5318 137401 370080 810588
944.96 1156607 1467630 1831822 2550188 3477134 4714007
950.74 6152513 8244909 10480719 12914365 15663339 18662055
956.53 20987917 22428497 23056867 23587177 24815988 27211527
962.31 29337446 28197399 25586003 25759089 27336322 28637219
968.10 28771385 27788372 25578713 22703941 19708552 17141795
973.88 14811883 12867906 11096823 9839579 8683046 7802266
979.67 6943518 5722055 4764199 4427409 4216424 3989132
985.45 3798560 3880093 3981528 3937450 4009164 4308503
991.24 4506700 4742585 4825104 5083272 5384510 5789814
997.03 6350060 7100952 7689650 8072655 8014151 7934911
1002.81 8009269 8697634 9452471 9575702 9490222 9708061
1008.60 10139766 10861653 11770186 12772948 13926373 15356593
1014.38 17094130 19413828 22300693 25774799 30213702 35835402
1020.17 42215326 49069238 56258496 62524331 66361912 67603683
1025.95 66648507 64207499 63101230 68582091 77882203 77975085
1031.74 74028156 72364953 71852197 72104486 70938712 68414061
1037.52 64961726 61359573 57618823 54170450 50575677 47191991
1043.31 44277461 41919349 40083698 38731958 37258743 36236361
1049.09 35728608 35810176 36340288 37723115 40380300 44646233
1054.88 49714442 54872970 59411894 62942764 64587376 63523201
1060.67 60048280 56920376 59572935 69586510 70875270 56471595
1066.45 50435254 55897081 60954897 62043339 58839623 52765606
1072.24 45375969 38306868 32296733 27815677 24896567 23291542
1078.02 22653908 22915229 23297954 23912466 24527905 25005359
1083.81 25057985 24802243 23933778 22776078 21815478 21718505
1089.59 22952667 24999063 26438749 26750636 26335410 25970512
1095.38 25374203 24455300 23644221 23078121 22596433 22422258
1101.16 22215564 21892161 21101121 19963289 18303455 16561834
1106.95 15405743 15139360 15211557 15668142 15886238 15749717
1112.73 15522572 15116619 14086788 13125636 12179805 11127342
1118.52 10252856 9518124 8615362 7789998 7111100 6528780
1124.31 5825696 5397918 4915417 4510626 4112197 3737545
1130.09 3359891 3481314 3380017 3034361 2777778 2719917
1135.88 2544338 2300975 2063068 1981659 1818551 1737315
1141.66 1606634 1630792 1492881 1229281 1120296 1300503
1147.45 1324044 1406512 1313347 1129798 1006237 886168
1153.23 592116 374462 221055 287874 366383 427637
1159.02 451986 496786 417130 299169 110870 36599
1164.80 1451-54443-70793-18498-46073-27136
1170.59-39982 32386-69221-48570 89027 170109
1176.37 364417 677419 577072 506478 592718 744268
1182.16 897364 1065878 1126970 1407238 1442171 1361654
1187.95 1407328 1667730 1830196 1958948 2136197 2354248
1193.73 2476131 2588891 2569422 2539750 2572078 2752386
1199.52 2771759 2788154 2754173 2675059 2628096 2700079
1205.30 2754745 2747025 2430803 1971550 1679439 1629522
1211.09 1474650 1173463 830394 673661 450488 333401
1216.87 301161 344369 341635 287541 180520 105489
1222.66 65114 101606 154184 392147 706374 1182235
1228.44 1647522 2095325 2533045 3149514 3683597 4018269
1234.23 4080869 4017239 3967334 4190303 4638228 5181609
1240.01 5311170 4969730 4900152 5351672 5622231 5692084
1245.80 5554935 5378365 4944594 4582792 4388099 4199179
1251.59 3991911 3787700 3690072 3783990 3895057 3923495
1257.37 3772887 3624348 3560985 3653593 3679239 3722356
1263.16 3626437 3479980 3473086 3532414 3609883 3671872
1268.94 3582023 3405235 3183521 3232856 3437306 3615745
1274.73 3659909 3875790 4251889 4666431 4924077 5218309
1280.51 5443507 5640527 5892524 6219954 6436181 6770904
1286.30 7232044 7704218 8037528 8383223 8890837 9403036
1292.08 9846901 10292711 10480043 10645521 11033721 11357173
1297.87 11492607 11822846 11988423 12172946 12438639 12597488
1303.65 12875678 13240708 13461975 13647199 13689777 13826415
1309.44 14233960 14935091 15831294 16753931 17997020 19671133
1315.23 21404902 23419153 25743654 28188824 30800043 33656841
1321.01 36786407 39928147 43083412 45157844 45202119 45217111
1326.80 45646032 46522771 47264953 47179769 46302044 45137087
1332.58 43358053 41999473 40976653 39445315 37173790 34368424
1338.37 31233671 28121770 24999407 22144558 19683826 17848975
1344.15 16108492 14567086 13369922 12351655 11415235 10682591
1349.94 9678003 8797957 8484915 8158745 7855199 7659006
1355.72 7844486 7829682 7739388 7949721 8297211 8898147
1361.51 9499753 10582974 11728430 12761572 14173981 15678334
1367.29 17052116 18507711 20083630 21782079 23530233 25058737
1373.08 26482840 28104008 29292182 30625448 35137984 41577047
1378.87 44599037 44714826 41707254 38399377 36788633 36326253
1384.65 36109067 35635846 35018977 34304483 33205641 31834971
1390.44 30150926 28229131 26128671 24069919 22414780 21082759
1396.22 19763859 18440491 17164844 16068048 15132536 14354280
1402.01 13557566 12931015 12549916 12367971 12145428 12044480
1407.79 11874733 11932653 12113303 12290603 12451706 12787540
1413.58 12998733 13192664 13358619 13603397 13628782 13774703
1419.36 14685715 15576101 16193586 16760464 17158109 17665203
1425.15 18271035 19011129 19785739 20651966 21599828 22842644
1430.93 24396974 26253196 28360411 30883623 33572249 36711326
1436.72 41034999 45912804 51066958 56895550 63391043 70779831
1442.51 79042413 88052638 97584722 107773264 118488449 129840571
1448.29 141349952 151186923 158922906 165092722 169072127 170567449
1454.08 170164524 170984254 177768398 189242308 195083542 190655887
1459.86 182988486 180807130 184154909 187304548 185770692 179935637
1465.65 171801578 163653097 155743059 148707175 143555879 138226588
1471.43 124976370 108018886 99406283 94757497 89713663 83905251
1477.22 77746853 71840055 66787692 62839825 60354076 59402766
1483.00 60310332 63328409 68776626 76808252 88017264 102517564
1488.79 119781857 139065249 159925997 180732705 199115229 209647290
1494.57 206365640 194550599 189065936 201476603 227059692 224475279
1500.36 192377411 177674677 183333103 191820643 193872530 185562154
1506.15 167142146 142424318 115206992 89525230 67671350 50570838
1511.93 38234060 29799972 23864205 19854903 17170734 15887393
1517.72 15219223 14155406 12847177 12508558 12849185 13262699
1523.50 13375193 13163395 13234796 13439766 13524295 13672711
1529.29 13628118 13322379 12675203 11866145 11065326 10580145
1535.07 10210104 10310524 10586514 10656630 10976605 11141643
1540.86 10551124 10144014 9814445 9002273 8526985 8434059
1546.64 8209965 8038619 7858855 7758835 7677896 7646548
1552.43 7413145 7178878 7336640 7374413 6761907 6104548
1558.21 6181854 6352051 6721857 6996123 7057854 7108487
1564.00 7127870 7300326 7227907 7110475 6956357 6831409
1569.79 7130831 7500174 7776765 8118417 8432619 8206054
1575.57 8516802 9822677 10803493 11530954 12130875 12814765
1581.36 13561948 14462126 15539629 16988471 18708223 20883901
1587.14 23390112 26169234 28858525 31262818 33306984 35435680
1592.93 37883485 40745355 44309263 49041553 55261814 63685188
1598.71 72171589 79847946 90093738 101202659 110527732 116791838
1604.50 119403116 118441388 115218545 111729714 110372748 112600699
1610.28 113924421 106888145 97160268 94835317 95796517 94023066
1616.07 88369603 79714387 68355991 56423579 45225220 35585954
1621.85 27531317 21383914 17074285 13907571 11436697 9648991
1627.64 8483574 7726293 7051448 6563726 6262924 6092541
1633.43 5632182 4894230 5030993 5401846 5462528 5611128
1639.21 5618241 5672233 5786169 6065768 6329939 6330116
1645.00 6200295 6811736 7377983 7823090 8098210 8249445
1650.78 7668484 6861877 7275611 8444201 8762806 8433514
1656.57 8058845 7906197 7873540 7981309 8063651 7780280
1662.35 7456995 7394959 7223390 7083160 6888464 6581282
1668.14 6115050 6139511 6111045 5845824 5602294 5431518
1673.92 5300689 5525965 5466785 4978528 4687290 4665891
1679.71 4628794 4538360 4076037 3316588 2390128 2450614
1685.49 2787896 2648861 2383297 2181859 2106892 2009565
1691.28 1973717 1959765 1830187 1146145 770749 1512856
1697.07 1750303 1463177 862942 1152974 1768214 1733640
1702.85 1535285 1516245 1481406 1580850 1792303 1882610
1708.64 1812646 1828915 1932443 1980015 1971526 1915954
1714.42 1927086 2078644 1920688 2253469 2803396 3341753
1720.21 3739898 4200082 4666973 5138808 5680620 6344363
1725.99 6981462 7640985 8455830 9463371 10478713 11413232
1731.78 12027965 12427871 13147361 14075918 14343384 14083018
1737.56 13452405 12249573 11357141 11338912 12049100 13358633
1743.35 14430793 14667783 14100432 13076523 11855920 10687301
1749.13 9495728 8210958 7353429 6665142 5764445 5098188
1754.92 4453409 3748590 3214603 2804785 2479977 2094724
1760.71 1568909 1337437 1254527 1193433 1123163 1149964
1766.49 1132032 1244373 1670125 1976180 2121860 2147988
1772.28 2350893 2661008 2568981 2372867 2481472 3261218
1778.06 3811584 3335151 3086165 3739677 4603893 5476027
1783.85 6305942 7636002 9307802 11299200 13649479 16371714
1789.63 19128433 21701957 23700775 25399330 26325669 26234826
1795.42 26019164 27549312 30713073 32813042 29815100 26116156
1801.20 27087998 29492132 31036896 30622571 27675237 23495750
1806.99 20258210 18014836 16112712 14356139 12731793 11158319
1812.77 9735134 8439438 7210559 6230036 5740567 5819346
1818.56 6176046 6381195 6316049 6054970 5610623 4966380
1824.35 4348265 3917413 3497531 3045081 2624767 2310876
1830.13 2194903 2028401 1828410 1673760 1654005 1662420
1835.92 1648704 1697707 1758467 1848725 1983853 2244758
1841.70 2514637 2606393 2958595 3696985 4330110 4960784
1847.49 5733391 6549805 7397784 8328522 9459885 10880838
1853.27 12475515 14103332 15650032 17066112 18337614 19363785
1859.06 19902616 19919045 19351179 18190745 16775308 15979162
1864.84 16851938 19546105 22486756 24295488 25111951 25547307
1870.63 25892714 26243935 26534730 26556169 26008731 24831794
1876.41 23258890 21338571 20095778 21287901 22589712 19036877
1882.20 14610080 14716167 16504215 17403980 16834634 15133311
1887.99 12606464 9881470 7417262 5402642 3897527 2910550
1893.77 2148527 1635036 1376542 1158399 936341 938105
1899.56 948152 832321 793176 881715 923997 941574
1905.34 902335 1007328 1125466 1190438 1228532 1335324
1911.13 1495038 1727687 2007567 2353369 2715322 3070798
1916.91 3375671 3879832 4509402 5126047 5831411 6599900
1922.70 7466081 8528480 9552064 10622415 11905056 13480031
1928.48 15313174 17265831 19331557 21315289 23133127 24596712
1934.27 25530123 25921050 25586131 24557507 22941657 21174912
1940.05 20295557 21343686 24449001 27947460 30002076 30650895
1945.84 30677490 30468179 30032766 29450664 28888799 28058487
1951.63 26938315 25570569 23985290 22135750 20603002 20792319
1957.41 21721157 18551849 14255405 14297166 15831260 16458203
1963.20 15535573 13503332 10792480 8110983 5773686 3924889
1968.98 2525812 1624451 1065185 862289 865116 724885
1974.77 402761 432944 597583 705781 716577 831756
1980.55 1001995 1193809 1262541 1309987 1241963 1014610
1986.34 788238 851986 926202 836735 659774 632429
1992.12 773314 816758 658815 494457 411948 373503
1997.91 284000 262197 150383 125540 66649-70312
2003.69-119536-78844-76053-6164-34428 13711
2009.48 4026-9548 14091 95891 196526 295197
2015.27 325240 409063 533622 700125 791213 823486
2021.05 841377 875298 988677 1124101 1046682 1051468
2026.84 1098964 1187170 1295935 1316654 1294195 1285946
2032.62 1047890 858027 849979 890998 864172 762045
2038.41 640884 563732 501620 471879 374128 229860
2044.19 152705 110248-48596-200496-242451-256840
2049.98-408564-526964-647324-660614-623571-495921
2055.76-487551-610024-747103-788871-789871-831836
2061.55-874644-859291-864931-825843-865306-928065
2067.33-948018-870657-751609-756418-913654-937532
2073.12-910877-854296-829669-814618-832848-826367
2078.91-834827-852442-786733-737526-724026-691236
2084.69-667590-682473-706992-591460-466199-477761
2090.48-531577-535747-546678-465933-458464-462297
2096.26-398306-301139-285337-269533-294535-316405
2102.05-318785-356947-447255-452491-425624-350404
2107.83-333854-360164-396901-320724-359777-381886
2113.62-377185-297890-261258-147327-95067-91576
2119.40-72969-39823 33938 107163 153703 182189
2125.19 160114 148991 170160 117644 28796 74713
2130.97 101793 191353 234636 136045-718-101116
2136.76-142396-131512-31768-42159-120307-155763
2142.55-159155-89012-68906-57437-25236-22894
2148.33-76495-4512 24008-42841-69291-20032
2154.12-20159 16477 23052-21163-31413-4484
2159.90-3114 11365 117316 198075 159677 143714
2165.69 130788 185110 221783 236530 208644 178628
2171.47 111828 156282 246594 247798 161945 199848
2177.26 332343 353833 271523 237399 217208 157342
2183.04 205994 244645 197028 184626 254101 301647
2188.83 250278 141809 49725 73725 115734 132319
2194.61 79477 26146 57944 77493 58523 128756
2200.40 155238 256169 322134 269436 247589 374629
2206.19 527798 676274 616626 645529 766466 781532
2211.97 882772 971710 1007915 1034304 1002631 1078328
2217.76 1175447 1170160 1219138 1238592 1253763 1295724
2223.54 1271079 1271398 1253565 1245317 1220568 1261151
2229.33 1369608 1425377 1428788 1415267 1464687 1552830
2235.11 1512227 1488184 1510513 1489375 1458572 1471031
2240.90 1443212 1394040 1387967 1418433 1387501 1366732
2246.68 1349532 1341950 1242405 1180619 1159821 1146069
2252.47 1135063 1072103 1049205 1009186 1083841 1289055
2258.25 1324293 1234919 1240900 1315766 1379904 1543748
2264.04 1562024 1466670 1583463 1692379 1712741 1786643
2269.83 1946873 2132861 2111527 2041771 2174273 2318309
2275.61 2288613 2328398 2368158 2388283 2458392 2449919
2281.40 2467810 2519577 2458256 2413368 2356073 2284458
2287.18 2237854 2267524 2299959 2295623 2209203 2068401
2292.97 1957638 1889220 1798458 1716589 1584843 1506436
2298.75 1451475 1523471 1537064 1531617 1713212 1970268
2304.54 2327457 2796888 3190805 3460567 3684379 3708278
2310.32 3323230 2895576 2694444 3461522 4404068 3845007
2316.11 2975054 3202038 3495107 3888144 3877664 3697336
2321.89 3420532 3163283 2780833 2612160 2486605 2544893
2327.68 2634864 2926938 3121036 3362392 3593283 3762172
2333.47 3824938 3873509 3963161 4230217 4461411 4705458
2339.25 4854440 4802316 4576521 4498572 4498843 4556499
2345.04 4539054 4586994 4588635 4476979 4148207 3791783
2350.82 3447526 3070171 2834819 2599672 2257317 2002263
2356.61 1947179 1871227 1739943 1592838 1523370 1547882
2362.39 1527987 1441715 1290990 1252805 1331664 1466260
2368.18 1618353 1848611 1964024 1975151 1847724 1844439
2373.96 1941948 1916932 1779240 1714850 1654015 1593846
2379.75 1680661 1690128 1608319 1520724 1408453 1336443
2385.53 1204467 1069526 1001396 932455 747250 698672
2391.32 776321 715921 616526 550181 502258 572931
2397.11 589329 619963 642305 703207 765151 775985
2402.89 745506 815695 948478 1105904 1213616 1208048
2408.68 1238593 1362317 1412954 1482342 1528508 1551984
2414.46 1512589 1651011 1801195 1588708 1433198 1580253
2420.25 1633689 1590174 1560584 1572652 1497311 1556799
2426.03 1653888 1739110 1819208 2016810 2160945 2258410
2431.82 2339331 2494138 2569817 2662445 2776732 2895109
2437.60 3119391 3157032 2924334 2771566 2702099 2614879
2443.39 2533366 2579531 2564537 2323753 1946912 1697340
2449.17 1498793 1318371 1195202 1021039 832069 754358
2454.96 642297 513328 406234 406169 388956 324409
2460.75 302157 363053 400778 401689 369325 330337
2466.53 252664 275507 323907 287010 303657 414739
2472.32 462135 387354 354266 524431 572634 436402
2478.10 314805 385244 478439 475737 508202 527524
2483.89 526016 542170 506745 610595 668198 701039
2489.67 753333 759093 748746 770105 795188 777559
2495.46 698855 685727 745748 841099 881586 851229
2501.24 893777 987879 1017696 1012698 1031043 1082453
2507.03 1164255 1147266 1139577 1123386 1152342 1158251
2512.81 1119246 1215675 1305548 1342684 1288879 1322479
2518.60 1379674 1506415 1600075 1494032 1405105 1507938
2524.39 1569492 1755269 1914879 1953013 1942095 1965914
2530.17 1985137 1967275 1971610 2016405 2042257 1970704
2535.96 1936619 1933310 1898945 1852760 1832594 1757839
2541.74 1619077 1571586 1531558 1581063 1586661 1496969
2547.53 1536477 1640968 1627740 1468110 1397865 1452117
2553.31 1476269 1546668 1584982 1505310 1500991 1518163
2559.10 1595478 1643575 1520371 1427971 1465637 1489217
2564.88 1471857 1524976 1654786 1676822 1567982 1456949
2570.67 1443264 1512451 1556583 1592387 1434992 1439832
2576.45 1497296 1482758 1565195 1701532 1738475 1668424
2582.24 1616984 1681036 1741528 1642901 1605504 1799138
2588.03 2020638 2145400 2139625 2165186 2311046 2429536
2593.81 2499583 2514399 2531468 2618379 2637172 2798820
2599.60 2981592 3156867 3322098 3433234 3629023 3845617
2605.38 3934631 3894903 4023257 4056586 3962892 3953146
2611.17 4013018 4024967 3981864 3944966 3894060 3949171
2616.95 3891215 3895575 3807793 3834966 3935847 3952310
2622.74 4072565 4226525 4362306 4463203 4564769 4896837
2628.52 5318560 5557414 5687242 5934848 6284534 6636138
2634.31 6885923 7071024 7112574 7149271 7180458 7197137
2640.09 7149714 7117530 6949869 6809892 6675145 6524061
2645.88 6432685 6253923 5872340 5493455 5012540 4546784
2651.67 4132213 3914294 3761250 3567186 3244583 2933661
2657.45 2698637 2619234 2516447 2311323 2066216 1867706
2663.24 1862585 1790166 1634361 1730569 1737232 1708275
2669.02 1673467 1618230 1685191 1687379 1606199 1527066
2674.81 1474194 1532873 1524696 1467890 1434772 1390662
2680.59 1442077 1554746 1484081 1374673 1297261 1355419
2686.38 1294100 1235920 1461794 1711568 1711019 1847012
2692.16 1987910 2138965 2363883 2532942 2613482 2780539
2697.95 2904623 2912216 3052631 3315633 3481377 3581613
2703.73 3543166 3390729 3458796 3573076 3377304 3105168
2709.52 2938806 2776886 2659592 2519839 2441199 2499800
2715.31 2371807 2267614 2287834 2253091 2198862 2389269
2721.09 2577318 2570651 2559876 2732896 2991666 3415232
2726.88 3860539 4221872 4536265 4838282 5199910 5527354
2732.66 5736184 6278956 7237824 7927635 7782724 7324538
2738.45 7329680 7501367 7633416 7813808 7710963 7451287
2744.23 7239294 7124580 6882151 6584483 6260908 5975752
2750.02 5749411 5636552 5412799 5239957 5284275 5243917
2755.80 5148757 5192858 5345557 5472610 5627316 5803850
2761.59 5927867 6174496 6388402 6554130 6738131 6863043
2767.37 7013373 7366403 7604793 7863993 8277110 8641141
2773.16 8899322 9252076 9730968 10131200 10410665 10782358
2778.95 11203000 11564899 11910966 12130244 12485249 12899044
2784.73 13125386 13256407 13293805 13502504 13687937 13651932
2790.52 13709683 13796901 13632403 13340593 13058861 12698024
2796.30 12536646 12579018 12268347 11837667 11544603 11289813
2802.09 11044419 10806803 10724542 10710741 10517166 10546986
2807.87 10673784 10820449 10984517 11101215 11257089 11577137
2813.66 11917914 12265008 12565843 12991473 13502378 14078796
2819.44 14638773 15271212 15764420 16332813 17086279 17836937
2825.23 18555314 19474788 20454334 21293016 22033609 22778951
2831.01 23456760 24012626 24506896 25163939 26143029 27243559
2836.80 28420668 29577700 30660966 31785606 32692139 33488371
2842.59 34310360 35267309 36346734 37686082 39071358 40239231
2848.37 41604928 43690743 46192465 48811068 51641507 54851738
2854.16 58409708 62094415 66087655 70753763 76034292 81944873
2859.94 88439129 95583142 103273705 111816639 121197011 131277601
2865.73 141290004 151261650 161720953 172520731 182910389 193163306
2871.51 203022311 213363255 225006214 239161426 257343381 275781127
2877.30 282852498 281403733 283229013 288460643 292235325 292915372
2883.08 298166649 315674429 324814835 315497438 301220923 286735465
2888.87 274466067 266655018 261406357 255919014 249684930 242879678
2894.65 236072589 228841987 221681775 215453104 210207583 206361215
2900.44 204232467 203437605 204367863 205876325 206605376 205663686
2906.23 202726148 198448718 194896253 194083445 195848784 196834183
2912.01 195891210 193538747 190142938 186193587 182355300 178638443
2917.80 175663158 173863739 173865939 175747401 179060166 183498899
2923.58 189808215 198178621 208025680 218730708 230555579 243801635
2929.37 258307972 273670233 290549021 308778133 327969543 347678417
2935.15 367547199 385164531 399808618 413430643 433510450 471370281
2940.94 509855412 500995411 466880707 447288006 436793971 431934690
2946.72 430205393 426899694 419860673 404973812 384353599 370573010
2952.51 359857902 346014292 329397373 313043234 298955412 290378574
2958.29 288914813 295868226 312875227 343140915 387487370 447271908
2964.08 522844352 610339361 703880803 793618504 865510666 907768547
2969.87 914025707 896795155 903346392 966308858 1001102242 947718109
2975.65 895835619 900106301 928151365 940593896 919386333 862195664
2981.44 778322341 680762000 581844664 490818086 412857467 348616369
2987.22 297261434 256571356 224170371 198013647 176805289 159356773
2993.01 144975997 132993668 123002116 114662381 107781213 102460374
2998.79 99022682 97240445 96472676 96320375 96745311 97397159
3004.58 97773644 97493135 97158721 97200152 99014263 103182748
3010.36 106857846 106945842 107133515 111200146 118190657 126051728
3016.15 133584615 140547445 147822586 156431048 167573988 182211615
3021.93 200886851 223897842 251247931 282189120 316085800 351658157
3027.72 387046462 419968986 447203635 465295805 472123427 468551776
3033.51 462721222 468662394 492986093 518700415 525590096 520790535
3039.29 516514360 512120642 503381061 485132006 457981746 426176813
3045.08 392907065 359095615 325081749 291510242 259980379 231750785
3050.86 207680821 187558629 171598643 159536087 151201089 146486546
3056.65 145331865 146757481 150769661 157423481 168143881 182241337
3062.43 197224483 213311127 233410264 255311311 275859308 292160624
3068.22 302071693 304263835 303016932 306023189 321286391 349793374
3074.00 366942663 338763678 309230454 314637423 332072070 343844597
3079.79 343592015 332134147 312975889 290159386 267941222 250294254
3085.57 236822816 226581870 218100040 209882259 201105346 192122589
3091.36 182606836 172865168 163804802 157060424 153526922 153838835
3097.15 155976309 156374085 153382386 147946931 141032535 133449028
3102.93 125782601 118360281 111490072 105560055 100426740 95871775
3108.72 91742386 87920079 84083305 80033232 76267823 73097324
3114.50 70143140 66865803 63667628 61086709 58603204 56369311
3120.29 54107683 51643874 48430347 44369134 39555755 34656674
3126.07 30136951 26017030 22279089 19172531 16676235 14782063
3131.86 13266580 11968552 11011393 10256725 9471359 8874844
3137.64 8315879 8087524 7845287 7548953 7284297 7138383
3143.43 7070504 7129327 7038176 6922861 7059461 7216201
3149.21 7126106 7098274 7134037 7166014 7172887 7175760
3155.00 7224080 7351174 7502184 7656686 7677387 7784171
3160.79 7951236 8194965 8468649 8719508 8978974 9131862
3166.57 9230734 9349083 9706469 10250144 10611273 10883709
3172.36 11230959 11762321 12337185 12688007 12891620 13033795
3178.14 13056180 13138697 13454969 13682335 13673202 13934282
3183.93 13970414 13581604 13150489 12708500 11981045 11390569
3189.71 11129285 10849944 10422906 9960457 9345771 8680897
3195.50 8068176 7395081 6683964 5932084 5222772 4601118
3201.28 4127007 3844822 3622955 3250868 2681169 2397598
3207.07 2206436 1957411 1700621 1689927 1739184 1631511
3212.85 1643331 1595246 1334341 1152264 1047535 1147282
3218.64 1273334 1221056 1116058 1017396 887350 942173
3224.43 1066276 1015956 865786 866743 860172 834722
3230.21 789057 696050 751436 910632 842853 753084
3236.00 771605 854161 898417 981464 992421 788450
3241.78 706887 919731 1003384 1062887 1206242 1328473
3247.57 1386356 1455022 1604741 1508161 1285452 1440079
3253.35 1375055 1172684 1103553 1157319 1380847 1459544
3259.14 1366450 1401071 1437036 1408721 1359437 1382283
3264.92 1509716 1510750 1431665 1747815 1871581 1514671
3270.71 1467106 1618273 1435205 1516921 1653730 1465344
3276.49 1427238 1475835 1353437 1296501 1332695 1242321
3282.28 1135731 1143295 1023789 972463 944735 961374
3288.07 871101 899727 1044097 970358 896362 1008834
3293.85 1059025 1037701 1000419 1038890 1092264 959461
3299.64 871888 961885 1017962 1226076 1278693 1059086
3305.42 855326 832121 803856 694014 498051 470517
3311.21 512383 366223 366814 513466 458339 383595
3316.99 216652 18630-162026-73537 130698 131926
3322.78 6865-95630-164748-62706 45604 128315
3328.56 169915 221815 114011 26029 15277 39099
3334.35 142519 121556-145153-211539-77839 68306
3340.13 104335-7247 71681 94366 35323 81551
3345.92 61640 179952 212037-76599-184949 6626
3351.71 106552 118627 179622 90363-114065-234379
3357.49-158395-171812-249928-140634 262151 413559
3363.28 164493-91525-60514-42133-103914-165586
3369.06-184079-71983 25085-47543-28344-66015
3374.85-252460-111953 280598 313971 218613 199169
3380.63 69309 58401-8244-4991 201621 215977
3386.42 155832 13162 52347 103006 80487-39000
3392.20-61325 106160 411039 305877 226240 171966
3397.99 49881-7884 80545-60078-83908 96491
3403.77 157837 82226-37282-100688-150505-129281
3409.56-17253 65674-186969-379091-261278-212161
3415.35-381152-353561-196683-59496-132631-203172
3421.13-254507-250380-229786-168202-32195-52235
3426.92-310029-294233-7721 78423 94125 97106
3432.70 65433 54470 176592 234328 216889 240959
3438.49 144678-6736 8442 102824 219209 277796
3444.27 421154 381339 130421-17690 16628 79922
3450.06 1633-131124-134518-82795-141901-125660
3455.84-240151-153398-115942-249654-381394-395057
3461.63-415434-394533-394588-540718-363407-230550
3467.41-444853-765480-728756-419457-263605-341208
3473.20-345120-333214-314794-330491-497100-614062
3478.99-411810-422094-658766-718399-599882-268631
3484.77-178030-515171-610241-612962-559182-680865
3490.56-909610-854209-779789-720010-636404-573514
3496.34-630440-587071-443931-374224-391318-320080
3502.13-424434-386852-110509-184952-401555-459590
3507.91-306776-269704-396513-389552-286559-297596
3513.70-72876 243782 420897 404045 305351 247957
3519.48 391713 606622 815727 948067 885621 851638
3525.27 819600 858261 1073482 1134980 999427 824713
3531.05 725911 756897 877371 956159 745317 614791
3536.84 484245 233884 308352 278168 101131-151395
3542.63-260712-186224-118155-124255-137177-99387
3548.41-121329-283394-237430-197613-344414-491051
3554.20-540471-441644-131227-71525-239061-209157
3559.98-306029-473358-383283-223401-164984-60246
3565.77-150679-366239-367260-326432-310470-307568
3571.55-382303-474317-483038-405157-341643-212126
3577.34-156579-339567-479061-526342-478505-396062
3583.12-280124-137607-32655-111592-313714-652675
3588.91-396748-67842-70766-136000-83040 24415
3594.69-11826-87040-22947 31694 47104 96089
3600.48 138617 17807-189934-116864-65987-217815
3606.27-134015-148247-352187-107205 94324 71200
3612.05 249233 228117 41618 55706 200554 332193
3617.84 346363 327425 688154 981338 1025447 1063524
3623.62 1129977 1145172 1277918 1051673 639095 523786
3629.41 710745 1049714 1189090 1196323 1208983 1343546
3635.19 1367974 1346333 1301851 1258607 1223997 1205301
3640.98 1144174 1243624 1368428 1399613 1480628 1492000
3646.76 1549508 1579488 1665007 1984307 2211654 2613062
3652.55 2938521 3008461 2604034 2191796 2365274 2691563
3658.33 2791566 2824685 2896930 2925060 2760440 2549114
3664.12 2390020 2050280 1834062 1553878 1214872 857348
3669.91 604842 958626 1039356 780140 358770 196103
3675.69 440382 764740 793120 666451 892283 1100129
3681.48 950274 773597 865577 1013654 1083312 856784
3687.26 351613 647649 1061674 1050547 1207382 1204156
3693.05 1134798 1303540 1350828 1151742 1131641 1366406
3698.83 1405224 1220994 1072149 1178052 1319552 1452860
3704.62 1500412 1355839 1232837 1179421 1214339 1452289
3710.40 1188260 963783 1345725 1421388 1334636 1382160
3716.19 1543067 1599099 1577148 1596883 1499188 1329355
3721.97 1303065 1447881 1489076 1324609 1183583 1144080
3727.76 1056703 1046362 1087016 702381 566970 703945
3733.55 477186 425265 366616 418578 664373 879836
3739.33 840885 565193 588646 490174-397372-328854
3745.12 581616 725702 476470 115234 113961 167339
3750.90-296616 108998 666267 578204 499470 500465
3756.69 652552 583499 526127 639091 882133 956239
3762.47 901177 816413 560688 537882 779232 809055
3768.26 700258 652018 837480 944016 975729 910174
3774.04 850523 818306 883629 937672 836124 786204
3779.83 913189 910898 971224 898287 803529 707955
3785.61 772993 996633 1141488 913569 719725 623471
3791.40 661168 799159 911459 723491 403725 414152
3797.19 714648 875344 738673 268689 342267 694787
3802.97 685902 828557 763668 454639 760117 1073598
3808.76 1070038 1035907 922768 928599 959365 907325
3814.54 387055 350471 1010339 1061918 852407 721055
3820.33 773022 992315 1047542 891419 894964 976453
3826.11 1029689 1156121 1287454 1201886 1027844 1060371
3831.90 1353103 1417065 1273395 1307738 1313815 851846
3837.68 1147068 1688246 1723759 1662020 1712149 1599684
3843.47 1616926 1750737 1761175 1718190 1633506 1426492
3849.25 1300926 937489 533615 252746-298014 262679
3855.04 873165 839446 688621 640773 768166 690721
3860.83 426895 398278 444609 262506 416223 450328
3866.61 361085 344976 57261 70975 364790 403055
3872.40 192035-72568 140820 148812 41478-39125
3878.18-194765-394855-257678-73989-147083-332424
3883.97-662889-805096-438097-211437-142950-207158
3889.75-384662-297911-95647-146511-138476-174685
3895.54-111308-329-39706-304622-159929-37838
3901.32 105717 228817 70383 164585 295768 535829
3907.11 700089 647341 705180 820954 888057 863878
3912.89 815347 848745 1087396 991021 1048693 1271990
3918.68 1284863 1286740 1411794 1585303 1778066 1815356
3924.47 1920837 2050884 2263701 2478834 2651247 2835334
3930.25 2854330 2788363 3009654 3262807 3465237 3577870
3936.04 3609468 3606043 3836405 3892094 3809126 3628478
3941.82 3429617 3466059 3448902 3378240 3311361 3211465
3947.61 2906849 2592084 2580319 2661916 2551055 2399329
3953.39 2371684 2240219 2124132 1983955 1809704 1752706
3959.18 1876634 1904078 1839330 1827270 1939715 1945229
3964.96 1997985 2053007 2122447 2234733 2379631 2423014
3970.75 2350747 2226496 2177122 2277146
##END=
