##TITLE=Ethylbenzene
##JCAMP-DX=4.24
##DATA TYPE=INFRARED SPECTRUM
##CLASS=IUPAC A
##ORIGIN=NIST, Analytical Chemistry Division, 301-975-3108
##OWNER=COPYRIGHT (C) 2001 by the U.S. Secretary of Commerce
##DATE=01/06/01
##$SPECTRA VERSION=1.10
##$UNCERTAINTY IN Y=2.1 % relative (B=1.13E-04,C=1.09E-9,D=2.34E-14)
##CAS NAME=Ethylbenzene
##CAS REGISTRY NO=100-41-4
##MOLFORM=C6 H5 C2 H5
##MP=-94.97 C
##BP=136.2 C
##$NIST SOURCE=QUANT-IR
##SPECTROMETER/DATA SYSTEM=IFS66V (Bruker)
##INSTRUMENT PARAMETERS=KBr Beam Splitter; MCT Detector; Multipass cell
##STATE=gas
##SAMPLE DESCRIPTION=Ethylbenzene Primary Gas Standard
##PRESSURE=101.3 Pa
##TEMPERATURE=23 C
##SAMPLING PROCEDURE=1 L/min Flow
##RESOLUTION=1.9290
##DATA PROCESSING=Boxcar Apodization
##XUNITS=cm-1
##YUNITS=(micromol/mol)-1m-1 (base 10)
##XFACTOR=1.0
##YFACTOR=4.5474E-13
##DELTAX=0.9645
##FIRSTX=575.652
##LASTX=3974.606
##FIRSTY=3.86E-06
##MAXX=3973.64
##MINX=575.65
##MAXY=.000473
##MINY=-9.39E-07
##NPOINTS=3526
##XYDATA=(X++(Y..Y))
575.65 8490074 8523708 8957960 8263095 6944352 3069547
580.47 3882167 2018551 3703392 2604600 2706824 1427966
586.26 3142483 50902 3107166-146605 2404211-789318
592.04 980036-867381-180149-1140257 322358-1956402
597.83 1716203-511010 2235126-1736639-839557-635547
603.62-827068-1252696 519062-632763 122351 57296
609.40 76186-603085 1332059-1205436 345984-2066637
615.19 944395-1838920 879881-474448 1271777-1957358
620.97 735782-765483 897525-243230 2546183-210269
626.76 3866701 1413134 1145942-153947 1876234-40842
632.54 2323862 472080 2268056-248933 3542538-172593
638.33 1340102-596400 1408323-1140562 1187957-521704
644.11 1120137-1306742 684136-1003102 450178-1359230
649.90 1394091-1305753 706729-1230993 2022071-234909
655.68 2006435-680751 2098423-554046 2754785 740475
661.47 3384613 2161350 5314712 2737481 8445835 5950199
667.26 10700934 11056092 16704260 19053013 26739686 29655440
673.04 41053583 44905685 60575671 68287737 87141630 99236432
678.83 120481745 135970467 162165823 179382362 208646161 226310062
684.61 256135209 272093265 310474097 332596145 347299241 346967427
690.40 381399816 389131832 437805596 452064363 519547985 577833061
696.18 857902467 773813463 418192872 448562083 403830367 417854498
701.97 390472960 395249644 373252987 377884878 361799691 344655434
707.75 314139497 303498121 277420950 263986944 240708668 227932528
713.54 206621175 197241352 182427868 177236925 168299870 168754135
719.32 163870454 168056483 167726608 173916563 175919302 182560347
725.11 185313146 190220937 192878388 198629079 200830817 207978078
730.90 210161191 216676641 220860763 230030719 234227537 245012367
736.68 249777508 257768186 259400557 265558574 260629388 263142691
742.47 265613321 257752641 270817274 252366307 255067092 250630236
748.25 256788553 252708099 345029408 275338886 241225964 227887034
754.04 214264986 214054305 193489089 193679924 180233776 178831904
759.82 167012175 163925640 153900535 150951548 141349987 138103469
765.61 130241546 127843919 122521590 123379472 119852504 131953153
771.39 154488569 114475269 89618128 90100951 83913910 83542220
777.18 77487270 77651747 72420889 71888294 66431845 65929208
782.96 60704203 59172568 54072897 52218108 47064130 45498470
788.75 40759204 39455799 34840715 33585150 30322804 29974165
794.53 26817115 27923374 24319972 24416658 21125569 21560865
800.32 19012032 19346373 17167526 16696840 13954073 14641387
806.11 13183908 13201767 10794900 11733590 9451794 10540840
811.89 8046772 8712994 7049827 7910034 6180475 6456732
817.68 4709473 6044593 3915535 5327624 3818365 4578668
823.46 3762463 4250850 2330841 3024656 1782231 3748494
829.25 1916735 2400688 1240196 1991964 1006365 1515510
835.03 611045 1243882 1330312 898308 686893 846919
840.82-188137 389791 442338 667956-179341 282598
846.60-536928-77055-240423 267666-992965 121535
852.39-639689 76018-1203577-363712-1193822-144740
858.17-945307 382141-462105-475670-1016817 154763
863.96-227887 125567-276345 690908 196385 1418832
869.75 1008305 1950871 1206347 2206878 2596624 3933092
875.53 2954695 4400697 4050166 5273705 5543203 6538043
881.32 6396218 7618349 7705664 9700740 9401103 10726786
887.10 11533042 12457565 13320316 13951218 13922311 15025199
892.89 14762839 15975487 15897075 16447391 16610543 17675399
898.67 18804695 20777462 23946794 30915024 52723703 28834804
904.46 16719798 19524259 17097802 17750793 16156811 17098191
910.24 15441657 14919948 13181192 13630682 11497691 11434302
916.03 9237982 8197312 6649063 6106766 4359723 3759730
921.81 2460456 2377660 1325023 1453815 78673 515521
927.60-330655 288767-225286 452926-637766 124613
933.39-461991-81806-467990 322204-607957 202840
939.17-217596 107161-144908 254143 147201 1006272
944.96 1017202 1632352 1533550 2727529 3152864 4983669
950.74 5645688 8504410 10238390 13022691 15337478 19064635
956.53 21046929 22773474 23004817 23461762 24462274 26995854
962.31 30464216 29048953 23942884 25958452 27109907 29242717
968.10 28751163 28347279 25520973 22944948 19324346 17368990
973.88 14428915 13148723 10651397 10084653 8455697 7812128
979.67 7125810 5649406 4487877 4523987 4141498 4083761
985.45 3615877 3939786 4004967 3968567 3797293 4544319
991.24 4269260 5023327 4560590 5244323 5230018 5885322
997.03 6126664 7336262 7525972 8425109 7796627 8110950
1002.81 7662274 8717550 9686504 9641116 9312209 9754848
1008.60 9994694 10863313 11724735 12783155 13797331 15370803
1014.38 16882684 19311019 22184952 25560538 29864784 35681333
1020.17 42165686 48865229 56449042 63207047 67006068 68013200
1025.95 67245422 63890493 61909556 65093503 83397919 77796178
1031.74 72969959 72730169 70907441 73179503 70792204 69039935
1037.52 64574993 61786266 57148159 54550036 50306706 47229180
1043.31 43990465 41995666 39670082 39137206 36847887 36339317
1049.09 35384498 35921131 35976845 37607802 39738534 44650827
1054.88 49543218 55177764 59491294 63460719 65185234 64318530
1060.67 60004725 55879714 56265112 70987341 79638334 50308690
1066.45 47690775 56967915 61603899 63427018 59253012 53287346
1072.24 45060401 38201261 31799876 27552000 24446952 23290635
1078.02 22138233 23220882 22978753 24120121 24361457 25324228
1083.81 24904946 25148977 23890186 22820341 21558648 21410112
1089.59 22598203 25322619 26644677 27074218 26101287 26143103
1095.38 25436868 24459038 23465001 23247748 22295287 22648066
1101.16 22022135 22234576 20962910 20290296 18200360 16557274
1106.95 14933943 15355498 14840251 15934332 15874679 15865136
1112.73 15355332 15570394 13818694 13228982 12191341 11103709
1118.52 10118500 9715623 8456739 7885370 6900630 6828122
1124.31 5458191 5681115 4676593 4707197 3885812 4045640
1130.09 2870107 3817410 3307993 3110755 2582402 2900856
1135.88 2435078 2442864 1835662 2214094 1585096 1967950
1141.66 1351172 1841629 1418264 1318313 832466 1594142
1147.45 1083116 1616332 1240139 1181255 899340 1080747
1153.23 418801 508046 18302 407338 278588 530366
1159.02 336891 642267 317091 425511-13664 86923
1164.80-30608-9180-183935 131694-203649 143982
1170.59-250059 266423-231466-26148 81982 220654
1176.37 140246 1031449 388205 563558 491506 858135
1182.16 731232 1324388 797099 1699551 1335050 1434844
1187.95 1217409 1823128 1755313 2012062 2038598 2488151
1193.73 2357335 2741410 2464428 2642519 2375180 2961243
1199.52 2642071 2885000 2708175 2730719 2512015 2796433
1205.30 2663229 2926681 2411462 1980078 1511729 1770276
1211.09 1418760 1309490 610642 864250 291798 407147
1216.87 202860 424635 298515 359290 109086 168494
1222.66-45180 219188-26075 509949 535388 1301921
1228.44 1549703 2221460 2346516 3280030 3647856 4170599
1234.23 4033110 4102625 3802055 4217841 4514268 5347971
1240.01 5460626 4925511 4582044 5617328 5501198 5909661
1245.80 5375094 5620004 4817594 4565635 4388033 4210720
1251.59 3983384 3793008 3579624 3844946 3846069 4059523
1257.37 3683400 3695139 3400052 3802489 3559574 3835316
1263.16 3621464 3429171 3457093 3554333 3556570 3789883
1268.94 3511711 3538293 2988169 3284745 3356419 3778680
1274.73 3494742 3926680 4138044 4842842 4783034 5334544
1280.51 5382263 5695431 5770630 6374148 6309352 6794261
1286.30 7177929 7796146 8015927 8329332 8876310 9486252
1292.08 9735517 10467547 10441796 10581817 10997938 11569155
1297.87 11221593 12048671 11896970 12141652 12521965 12541128
1303.65 12804565 13376223 13360528 13784531 13613304 13773530
1309.44 14162967 14860101 15882255 16683536 17789921 19793920
1315.23 21265731 23340743 25755602 28118681 30785781 33514702
1321.01 36859691 39887064 43092501 46258574 44653853 45425453
1326.80 45294037 46688251 47365230 47607604 45995648 45711695
1332.58 42937264 41986634 41091641 39698277 37208525 34568242
1338.37 31061914 28300034 24765520 22244739 19289748 18042784
1344.15 15955805 14530611 13263502 12457644 11192405 10892964
1349.94 9681719 8454369 8716202 7975584 8028832 7329511
1355.72 8058293 7860387 7529400 8108548 7999298 9181272
1361.51 9136113 10667052 11833573 12544382 14196540 15750925
1367.29 16990687 18496697 20050446 21748028 23593194 25165483
1373.08 26275111 28285086 29510231 29790313 33690014 43865598
1378.87 44122143 46445713 41267251 37995898 36473286 36317457
1384.65 36199745 35689021 34947821 34515032 33169678 31980201
1390.44 30161268 28297520 26137362 23939542 22306803 21142061
1396.22 19720288 18487364 17051281 16107410 14992930 14483537
1402.01 13413913 12966917 12364307 12566172 11908985 12276598
1407.79 11638153 12025104 12011345 12439502 12222293 12999414
1413.58 12858221 13326044 13215762 13724657 13707984 13348032
1419.36 14837363 15669419 16097017 16943170 16997430 17748111
1425.15 18139448 19101117 19672755 20734095 21439467 22839879
1430.93 24252272 26291838 28163918 30887644 33593948 36206205
1436.72 41007773 45927363 50783872 56867364 63073052 70657031
1442.51 78773306 88056028 97324139 107721773 118342688 129595482
1448.29 141910691 151795681 159042276 165771565 169558642 171237093
1454.08 170013176 169445234 175547690 191275287 198191692 191636825
1459.86 180830461 179377458 184120911 189011758 186503226 180819802
1465.65 171304284 163944233 155322387 148523891 142519803 141006317
1471.43 127445040 103184404 99877689 94527742 90173663 83825864
1477.22 77822201 71491991 66670401 62357181 60135852 58860339
1483.00 59935813 62634513 68340714 75936272 87311257 101746371
1488.79 119524258 138418960 160115246 180991750 200745956 213432579
1494.57 209713138 191485114 186543729 192533924 237284455 237719703
1500.36 180752244 174172134 182772577 193802587 196242508 188410563
1506.15 168233291 143327369 114508193 88718545 66425808 49531894
1511.93 37141168 29487359 23188504 19818304 16606722 15839694
1517.72 15279391 14458321 12324348 12456428 12814439 13323050
1523.50 13570088 12972413 13202495 13572576 13367026 13843119
1529.29 13580623 13523989 12593532 12017061 10786480 10764482
1535.07 9943521 10277989 10753469 10505333 10912950 11596469
1540.86 10308678 10071702 10148141 8778273 8379267 8620500
1546.64 8053655 8164294 7730227 7853666 7566083 7763124
1552.43 7454902 6965697 7400461 7558609 6918419 5599867
1558.21 6468713 6094244 6837172 7080296 6958599 7267098
1564.00 6888140 7548225 7133859 7127121 7048235 6571128
1569.79 7222133 7477411 7831351 7948700 8801641 8055166
1575.57 7962667 10271908 10634083 11730527 11961972 12925487
1581.36 13409102 14555192 15297908 17088301 18446002 20940232
1587.14 23190306 26306392 28828007 31481905 33186236 35413921
1592.93 37735913 40697522 43866450 48954639 54419548 63535057
1598.71 73301370 78171017 90308918 101514301 111369102 117577313
1604.50 120381163 118945974 115323832 111245369 109266154 112083122
1610.28 117143408 108252013 93449480 94730349 96466121 95299728
1616.07 88600043 80901676 68057460 56507316 44594360 35415804
1621.85 26974774 20945967 16815326 13807077 11234391 9538544
1627.64 8321390 7807178 6942390 6550285 6216435 6084078
1633.43 5988407 4348778 5073253 5614559 5233923 5844117
1639.21 5444484 5797959 5606502 6193767 6226249 6708156
1645.00 5551543 7206769 7149823 8081785 7892501 8594813
1650.78 7800227 6434646 6920766 8944864 8798986 8496308
1656.57 7921466 7942058 7807218 7959834 8205524 7836309
1662.35 7224247 7620968 7038111 7258299 6719385 6913303
1668.14 5668160 6359939 6096325 5896520 5476983 5600574
1673.92 4991433 5722677 5601327 4896853 4546373 4806658
1679.71 4456820 4852360 3886951 3741095 1755326 2520930
1685.49 2981762 2602342 2424544 2067970 2205017 1916768
1691.28 2030722 1897602 2033910 1287247-70990 2219060
1697.07 1448259 1986602 256298 1155323 2044157 1737007
1702.85 1415262 1613723 1389689 1563180 1813253 1972528
1708.64 1742080 1817483 1942433 2024090 1914711 2051584
1714.42 1600597 2564693 1422138 2440414 2648416 3528141
1720.21 3600014 4278180 4617846 5170446 5585918 6411852
1725.99 6945273 7635549 8349384 9524583 10434474 11536111
1731.78 12105167 12339617 12956573 14400450 14437742 14066075
1737.56 13767847 12102431 11074759 11270984 11761615 13498269
1743.35 14629712 14899007 14166134 13148504 11818896 10649758
1749.13 9643341 7997138 7277677 6886541 5535814 5176025
1754.92 4478869 3671368 3198561 2795285 2433183 2273900
1760.71 1338027 1402852 1184151 1270478 1022873 1209949
1766.49 1137039 1042425 1823094 1940759 2211949 2092675
1772.28 2213134 2930672 2479427 2416335 2164836 3285702
1778.06 4300452 3196353 2693833 3891761 4430518 5720730
1783.85 5950341 7721208 9122764 11326320 13412330 16526208
1789.63 18970474 22099386 23505759 25757392 26457108 26587156
1795.42 25190123 27386335 30288903 35029955 30162474 23789438
1801.20 27500891 29422758 31645332 31230823 28180053 22941323
1806.99 20105616 17931279 16119102 14279230 12772700 11088872
1812.77 9706047 8449290 7149833 6113574 5582085 5737488
1818.56 6247680 6447397 6360184 6081683 5687404 4960342
1824.35 4259451 3943497 3514489 3011982 2652933 2171802
1830.13 2293450 1987972 1857726 1600416 1660995 1691279
1835.92 1596482 1728026 1728162 1859646 1943796 2201562
1841.70 2646548 2519803 2768354 3841450 4288406 4916119
1847.49 5737420 6541259 7382139 8290829 9362886 10855356
1853.27 12458272 14135928 15672308 17112146 18352467 19528416
1859.06 19990823 20070929 19492738 18301005 16631382 15585563
1864.84 16245670 19533466 22876051 24531366 25164344 25570242
1870.63 25876736 26252483 26591184 26685205 26219964 24839198
1876.41 23426346 21287709 19369520 20599064 24814194 19387989
1882.20 12440037 14897513 16568971 17959784 16941627 15459759
1887.99 12563002 9854633 7262584 5340949 3686702 2946218
1893.77 2051138 1578163 1351683 1232949 791098 978764
1899.56 990202 819390 704622 973666 844171 1060661
1905.34 760999 1073920 1098215 1240623 1165515 1363537
1911.13 1439275 1756701 1948369 2396615 2657419 3169189
1916.91 3254510 3864968 4539848 5082769 5813264 6622414
1922.70 7333981 8618100 9513784 10575384 11840824 13384661
1928.48 15341857 17174737 19402442 21322919 23210330 24763134
1934.27 25594636 26146531 25721148 24710581 23036562 20951206
1940.05 19835434 20713918 24321941 28480684 30328342 30761908
1945.84 30714327 30507088 30131213 29328647 29054931 28061162
1951.63 27055807 25541215 24153857 22035896 20350732 19758938
1957.41 23646051 19190298 11967409 14661184 15777197 17127557
1963.20 15576795 13847390 10626767 8124397 5563884 3912706
1968.98 2314325 1632578 915602 846952 844771 930777
1974.77 124400 524505 527760 833649 585325 905878
1980.55 905166 1324135 1178240 1397727 1236926 1097963
1986.34 597726 923212 939985 897024 592756 578962
1992.12 796904 912606 612883 512241 334516 492402
1997.91 134950 423519 12880 198214 68561-69376
2003.69-211376 44678-234647 173409-196849 136862
2009.48-63192 28097-43783 135179 143855 380821
2015.27 246671 453060 468751 765608 778646 846157
2021.05 815408 897218 884017 1324439 896552 1119363
2026.84 1047897 1197768 1301704 1380639 1182244 1469073
2032.62 962189 826754 826859 927173 870697 785942
2038.41 597613 596829 452593 520851 376853 221047
2044.19 103440 199360-90948-197694-316589-114148
2049.98-530167-419128-775477-576381-742375-393443
2055.76-488672-579040-803702-783051-787629-801922
2061.55-945871-781105-955218-738005-901502-908115
2067.33-1001198-863787-756155-628816-1054535-869645
2073.12-978997-793100-872442-766394-869362-814068
2078.91-812080-908684-761523-723627-745972-673197
2084.69-678605-636272-794184-574186-429057-444908
2090.48-603152-451174-665759-364221-503528-447514
2096.26-455578-215409-346814-211759-327109-301276
2102.05-341018-284394-542234-388412-512326-260453
2107.83-398448-256472-563924-147457-481971-286867
2113.62-503603-172411-385074-61087-110884-92123
2119.40-70990-58434 34785 124337 139452 216334
2125.19 145225 138650 176894 185954-101058 174750
2130.97 16974 226822 282940 129701 3960-142060
2136.76-110619-216908 46929-30325-158870-120275
2142.55-235493-19843-103986-36085-60731 68468
2148.33-198319 62906 31922-33361-139737 59213
2154.12-85307 52541 34081-32177-50702 14374
2159.90-2288-22531 104142 287919 82293 212070
2165.69 45576 248412 176883 299963 148111 258625
2171.47 22411 173751 249377 312945 94153 169187
2177.26 377113 390998 243801 216754 279188 72989
2183.04 232394 277374 180500 155261 257293 345488
2188.83 243664 170508-27035 108117 94207 173602
2194.61 74069-2022 43974 150524-59457 241916
2200.40 52826 307616 339423 296299 136743 457621
2206.19 418789 852427 522580 600349 873938 681719
2211.97 922112 991997 973953 1103111 934044 1062246
2217.76 1260154 1090923 1265125 1240010 1208747 1372592
2223.54 1203273 1327843 1207768 1286189 1187460 1232228
2229.33 1402352 1430557 1436310 1409463 1407771 1652766
2235.11 1464614 1482831 1524250 1506131 1415388 1511813
2240.90 1431476 1402004 1338013 1490535 1330549 1417407
2246.68 1284625 1433168 1186352 1182483 1170533 1112155
2252.47 1200768 1004602 1101002 972902 1002065 1385664
2258.25 1350540 1201656 1196937 1382764 1278205 1614435
2264.04 1644294 1317579 1637054 1724253 1673304 1793283
2269.83 1884484 2246096 2116923 1964361 2147308 2447127
2275.61 2188620 2363504 2386229 2330633 2524905 2430898
2281.40 2419331 2617881 2390358 2457120 2334250 2305967
2287.18 2184455 2294385 2287890 2333705 2214461 2072428
2292.97 1912940 1947182 1730200 1809068 1487111 1588752
2298.75 1333614 1589312 1559642 1432114 1735850 1941468
2304.54 2271911 2843102 3213990 3484393 3651526 3961057
2310.32 3174988 3031440 2299021 3280447 5046689 4027691
2316.11 2216902 3692111 3043221 4352918 3648175 3938104
2321.89 3184482 3453962 2463568 2848278 2209591 2771553
2327.68 2351111 3160523 2957522 3463234 3531868 3866693
2333.47 3748497 3961620 3792848 4362255 4359376 4798745
2339.25 4833784 4958355 4406618 4591282 4374113 4697557
2345.04 4409623 4682677 4541016 4605750 4112361 3774340
2350.82 3511919 2970404 2861301 2637418 2249938 1894442
2356.61 2006266 1861992 1757744 1576345 1466432 1603300
2362.39 1499975 1518065 1205237 1264082 1274046 1533741
2368.18 1500956 1976996 1896586 2108470 1742517 1832554
2373.96 1974101 1976292 1721201 1717663 1701931 1478520
2379.75 1754959 1709376 1580368 1572505 1340210 1403698
2385.53 1175686 1072419 956614 1034906 669152 641891
2391.32 860728 713728 576232 613378 376611 684428
2397.11 508990 681761 586686 732678 750934 830812
2402.89 673054 829317 926535 1118858 1255033 1211701
2408.68 1152532 1466370 1329217 1555004 1465855 1648262
2414.46 1413375 1608502 1987869 1558154 1260863 1710507
2420.25 1595601 1645782 1454945 1721976 1341803 1635640
2426.03 1587757 1826503 1686466 2121764 2102165 2337334
2431.82 2230424 2595544 2521146 2657702 2814815 2806868
2437.60 3181377 3287226 2828786 2784474 2684215 2661472
2443.39 2436782 2630708 2602820 2409011 1845674 1721127
2449.17 1493481 1288857 1212153 1061980 734358 830235
2454.96 597244 559524 321577 450552 387158 331558
2460.75 244970 406244 380318 443072 326462 395631
2466.53 181803 275101 370159 264751 255817 454233
2472.32 481475 424896 205598 630660 595304 461695
2478.10 218458 392811 534369 433515 515659 565485
2483.89 450776 662174 353446 709151 637690 698459
2489.67 770408 768354 726161 781857 786618 828527
2495.46 649530 684320 725206 855125 924252 808454
2501.24 878053 1015801 1032528 984972 1057587 1015155
2507.03 1264407 1079580 1188119 1086266 1145298 1234863
2512.81 992376 1299775 1242665 1458106 1173279 1389490
2518.60 1315258 1520223 1665343 1527581 1244409 1657730
2524.39 1421817 1825961 1923710 1983185 1911888 1971515
2530.17 2006866 1948039 1972585 1992906 2115076 1921631
2535.96 1940879 1941663 1906244 1839189 1830955 1829828
2541.74 1516686 1647328 1449683 1606902 1652130 1413603
2547.53 1536404 1659518 1702231 1422081 1341429 1505383
2553.31 1438471 1535383 1681207 1409972 1551953 1473053
2559.10 1589669 1731461 1492337 1374719 1487905 1504577
2564.88 1454676 1479242 1702027 1720062 1550686 1456276
2570.67 1364779 1613454 1424354 1808366 1256275 1478786
2576.45 1532458 1433731 1547494 1737980 1770495 1664228
2582.24 1576144 1665067 1823204 1627342 1498916 1832463
2588.03 2021569 2206639 2126287 2103745 2347498 2433258
2593.81 2502886 2558200 2423668 2756367 2490993 2859192
2599.60 2965722 3141038 3384960 3356424 3660799 3827447
2605.38 4072852 3719177 4127137 4084855 3920052 3940928
2611.17 4014759 4081045 3904274 4063800 3708270 4157996
2616.95 3702624 4064648 3693869 3816866 4018310 3862345
2622.74 4096307 4227366 4354780 4514816 4451149 4879934
2628.52 5381976 5609163 5612056 5940824 6243690 6723585
2634.31 6824463 7191725 7035839 7212541 7115016 7301134
2640.09 7036502 7262561 6860023 6846901 6673372 6507529
2645.88 6413339 6403003 5746522 5635367 4909132 4631095
2651.67 3987632 3970819 3709009 3673626 3176908 2973512
2657.45 2597390 2660095 2545701 2304516 2092836 1765778
2663.24 1880494 1917588 1402406 1892569 1680588 1714115
2669.02 1722329 1518766 1746300 1708973 1578055 1569119
2674.81 1377915 1604004 1521793 1452166 1450689 1380226
2680.59 1354993 1707204 1398629 1460428 1150542 1476569
2686.38 1277505 1150370 1394022 1931416 1515937 1945988
2692.16 1947050 2125210 2362982 2604662 2535491 2804350
2697.95 2970005 2852282 2994322 3389083 3465498 3610737
2703.73 3629747 3273498 3425351 3722164 3372800 3042957
2709.52 2982746 2732087 2675597 2549740 2294283 2675592
2715.31 2294979 2247357 2287528 2329029 2041397 2436250
2721.09 2627475 2601312 2442253 2792999 2883242 3443420
2726.88 3881423 4228913 4545887 4821157 5170648 5646966
2732.66 5604859 6131940 7296216 8207413 7905999 7070285
2738.45 7336556 7573023 7498917 8007763 7675963 7495866
2744.23 7122550 7255231 6821640 6650322 6193642 6028511
2750.02 5634708 5738053 5401471 5113988 5372481 5248670
2755.80 5104262 5152703 5375185 5469255 5577866 5900807
2761.59 5803515 6245193 6380453 6550165 6737058 6928604
2767.37 6835991 7512191 7556513 7810091 8297288 8697030
2773.16 8854537 9206150 9756813 10195459 10355592 10754420
2778.95 11274337 11485060 12041823 12031424 12449330 13022916
2784.73 13059617 13381380 13161484 13515096 13814131 13566217
2790.52 13689810 13899536 13664424 13290529 13133623 12652685
2796.30 12368251 12813677 12242041 11784425 11557566 11274522
2802.09 11057751 10783198 10610953 10931033 10296316 10618816
2807.87 10629987 10830988 10986309 11133864 11139907 11653846
2813.66 11835310 12374801 12438423 13054313 13397834 14194474
2819.44 14489735 15430962 15679796 16295411 17073131 17907842
2825.23 18435233 19483083 20494978 21330716 22003055 22807824
2831.01 23487454 24034054 24487783 25024350 26165924 27208264
2836.80 28403580 29672961 30529457 31955948 32644139 33540377
2842.59 34211208 35311787 36219585 37678478 39170330 40233220
2848.37 41322161 43636677 46185529 48764449 51545430 54742836
2854.16 58412252 62070655 65832050 70701311 75797927 81919031
2859.94 88152167 95629110 102906865 111774653 120824489 131489022
2865.73 141237313 151214090 161397096 172983902 182563331 193647112
2871.51 202634070 213303862 224231171 238517851 255594124 280252549
2877.30 285531229 279199813 282420648 289145111 292902968 293767185
2883.08 290939374 319436391 331628765 314288374 302188634 285894812
2888.87 273244784 265888121 261855379 255876499 250081942 242566691
2894.65 236408051 228795491 221384520 215261953 209967905 205712679
2900.44 204268354 202668470 204402179 205987142 207091818 206088157
2906.23 203244776 198153570 194341622 192933535 196509399 197222018
2912.01 196253705 193714270 190414102 185938663 182568145 178275117
2917.80 175556841 173299357 173488022 175314639 179016944 182906581
2923.58 189363472 197748008 207999002 218365725 230314496 243308313
2929.37 258440500 272998492 290468225 308288442 328231468 347039619
2935.15 368616906 385558234 400793495 411760242 429967104 463532069
2940.94 531072509 506655426 457708378 448517192 433998460 431596179
2946.72 430661018 427751122 421150980 408958578 379495821 371088169
2952.51 360447721 347251090 328694170 313185416 297060629 289148379
2958.29 286568008 294159173 309157779 340269111 383828810 443248193
2964.08 520111997 608825521 704109159 798412508 871945166 917593415
2969.87 920659714 894973306 877183391 972792536 1040307396 937903635
2975.65 878045224 895294963 933398772 948760116 928727793 868209773
2981.44 781631306 680720397 580000472 487283398 409893940 345354217
2987.22 294956757 254550342 222904747 196745462 176083311 158550716
2993.01 144511986 132484533 122663895 114309251 107485201 101944154
2998.79 98640526 96993235 96417401 96081132 96781797 97324314
3004.58 98182568 97268454 97328165 96653458 98348234 102929704
3010.36 108607965 106700861 105855568 110549145 118064319 126127126
3016.15 133863214 140391849 147594922 155784787 166775766 181226553
3021.93 199947074 222741208 250549087 281386775 315703094 351679420
3027.72 387564940 421204547 449490022 467866457 475101421 469429224
3033.51 459954065 462472286 491819984 526222921 528022324 519280061
3039.29 517084556 512417692 506463437 487149751 459091408 426224552
3045.08 393151945 359019154 325218980 290825221 259401621 230487399
3050.86 207049664 186347966 170893867 158494580 150609502 145288495
3056.65 145160098 145776138 150645538 156052900 167400716 181969703
3062.43 197716266 211331529 233527141 255216640 277317004 293099788
3068.22 304812319 304646470 302822275 301841677 318984741 346103945
3074.00 389215516 335793304 295247770 315306533 332465442 347919769
3079.79 345711579 334316921 313461975 290500781 266060470 249772172
3085.57 235746881 226385058 217876316 210337316 200826069 192525363
3091.36 182479028 172986753 162967589 156577153 152281309 153384200
3097.15 156457560 157445100 153790659 148366721 141123375 133486376
3102.93 125687561 118300732 111172049 105421784 100270838 95795626
3108.72 91650474 87903705 84227917 79925365 76090347 73024558
3114.50 70274157 66955915 63247115 61360923 58286225 56585397
3120.29 53948001 52002717 48502139 44690427 39486185 34583506
3126.07 29997968 26014830 22041235 19098562 16476487 14720166
3131.86 13232116 11893443 10880306 10435332 9216229 9102922
3137.64 8001069 8263674 7762799 7619450 7170545 7214668
3143.43 6928149 7258629 7028684 6839884 7010721 7392810
3149.21 7009434 7131743 7108987 7194806 7155832 7190778
3155.00 7160628 7405495 7414918 7802572 7557922 7831064
3160.79 7900960 8188764 8503442 8667322 9057387 9107592
3166.57 9262991 9278579 9599743 10383478 10589313 10890331
3172.36 11162645 11731046 12434999 12715006 12877996 13100038
3178.14 13034971 13061831 13421842 13925438 13375372 14116169
3183.93 14068625 13595421 13062329 12911346 11881184 11283846
3189.71 11149064 10928559 10367320 10047004 9351575 8630990
3195.50 8126713 7368723 6724975 5903475 5205971 4581287
3201.28 4042553 3869858 3588650 3456134 2433947 2483275
3207.07 2161255 2035064 1572304 1665698 1864104 1521079
3212.85 1656690 1734403 1208980 1226899 921331 1162760
3218.64 1337101 1235063 1072312 1099168 771604 945711
3224.43 1104482 1097662 736710 935203 836975 839289
3230.21 821809 662376 648892 1079856 777364 758715
3236.00 715656 915093 850439 993732 1083849 777697
3241.78 518146 1076638 955060 1042933 1217290 1343763
3247.57 1403969 1387835 1662900 1685896 938546 1694763
3253.35 1347122 1120552 1119931 1048320 1449134 1553981
3259.14 1249517 1451867 1434054 1429166 1335662 1345201
3264.92 1515458 1660831 1155719 1846615 2109292 1341682
3270.71 1323839 1926949 1192191 1510711 1856146 1324271
3276.49 1403835 1584833 1293411 1262158 1379753 1293393
3282.28 985672 1328341 868976 1080610 823505 1091839
3288.07 794707 828684 1170574 964289 784307 1089995
3293.85 1043912 1063335 971654 1004648 1186055 960953
3299.64 729384 1115461 835903 1345431 1337645 1074353
3305.42 744888 894087 774711 781661 408731 422934
3311.21 643372 296079 252803 703675 330140 512254
3316.99 136727 107615-307182-92843 205168 180414
3322.78-54500-23438-305274 21962-17777 217196
3328.56 66938 363008 47117 21160 16306 6993
3334.35 136830 291327-289998-243537-58393 42466
3340.13 255323-186234 147975 151511-92629 217809
3345.92-62321 194826 387509-180341-298552 75614
3351.71 150773 34267 283397 82742-84877-379008
3357.49-46283-199478-232756-340464 417933 501136
3363.28 204766-266157 19809-42364-103536-166346
3369.06-225858-104293 157312-154185-3476 39446
3374.85-374722-258984 494016 322022 115133 356747
3380.63-84615 141167 8224-196101 427887 71189
3386.42 342040-194179 168273 28271 212193-174732
3392.20 26636-153249 791211 87921 329310 123965
3397.99 126675-203459 314075-180561-152995 174005
3403.77 165043 124849-100082-52825-213022-102255
3409.56-108630 281046-262746-478101-264331-37326
3415.35-568093-288615-290632 114550-234628-141727
3421.13-315145-225743-243125-202691-12777 92978
3426.92-430651-431484 162556 18573 133997 76605
3432.70 108070-45265 233674 265209 162899 294595
3438.49 193824-119956 56982 23538 333741 147535
3444.27 525910 450249 75919-62188-7436 151617
3450.06-67-144376-231253 101144-363696 132774
3455.84-490873-27833-109022-220197-459048-361329
3461.63-409794-482708-173451-822651-249889-169141
3467.41-354546-931365-789203-385054-130009-453997
3473.20-289134-366929-298596-300470-432456-844626
3478.99-257481-339233-780122-695028-711230-244829
3484.77 118411-803192-476446-729600-477215-580091
3490.56-1119744-748628-835125-681783-694130-456277
3496.34-726554-580251-463514-261898-547130-157038
3502.13-473604-577056 143879-237759-390517-591122
3507.91-221641-221156-431085-491173-110812-492180
3513.70-30177 246752 510813 385159 341364 141479
3519.48 403093 615382 789705 1076816 805901 880509
3525.27 829984 734451 1175536 1174296 1002653 817026
3531.05 664718 777634 800668 1156151 644826 569051
3536.84 691526-84401 519192 208958 198701-234445
3542.63-307632-177458-85275-135599-136754-139743
3548.41 32182-461245-183826-138740-348817-539811
3554.20-519468-590161-17148 61422-436230-79308
3559.98-285180-581412-409319-124383-268616 36314
3565.77-77269-509028-321911-331350-319472-268575
3571.55-386682-485811-535125-358684-383665-226513
3577.34-7003-435789-447525-595948-442683-444682
3583.12-235949-218684 149992-272970 3522-1094963
3588.91-276476 20716-65917-173569-118389 89997
3594.69 14138-174258 15366 38930 31129 92563
3600.48 169279 113102-356106-105089 94892-402412
3606.27-99634 54127-669247-18417 247584-150674
3612.05 412722 267520-48458 25973 229273 308098
3617.84 491360 46170 820002 1022375 1046891 978460
3623.62 1278720 934295 1503862 1094142 500353 507899
3629.41 584298 1208746 1143913 1274890 1065335 1478383
3635.19 1307019 1399853 1260717 1299868 1160184 1297084
3640.98 1036178 1243351 1451709 1299109 1582115 1425253
3646.76 1557686 1654678 1425778 2233753 1960568 2775650
3652.55 2886035 3223913 2627975 1928272 2370735 2789529
3658.33 2783719 2811921 2895445 2985404 2813821 2410869
3664.12 2607105 1862448 1931898 1577308 1121167 1071170
3669.91 94416 1329961 956053 943207 223592 89868
3675.69 416583 846448 922174 438551 942694 1228344
3681.48 958287 653503 869230 1069124 1028598 1225224
3687.26-175053 707357 1330978 787380 1384404 1214177
3693.05 1000517 1368858 1454096 1091752 989417 1503511
3698.83 1423362 1264603 916833 1242237 1289446 1467140
3704.62 1582940 1341047 1163262 1287031 944392 1771763
3710.40 1214466 543586 1693929 1335078 1350319 1297581
3716.19 1611430 1628980 1517020 1665667 1516189 1293025
3721.97 1227323 1489905 1570347 1298544 1139713 1171021
3727.76 1085560 875024 1407104 551857 349011 1090848
3733.55 155763 613798 254684 380712 670854 932905
3739.33 964943 459289 412642 1128843-923082-696469
3745.12 1123460 594924 633215-7859-115421 771216
3750.90-959483 182826 1005147 358695 663647 257013
3756.69 905555 457524 555499 526161 986288 994986
3762.47 835747 960096 461693 392352 953769 758704
3768.26 781877 451291 990701 866015 1079406 843436
3774.04 896727 749756 899897 979527 877750 595551
3779.83 1139685 702132 1169424 777669 908706 583877
3785.61 796833 906456 1406933 756913 785876 528122
3791.40 683634 741770 1048645 760927 310956 263062
3797.19 870025 803547 1048263-48853 230327 994676
3802.97 459242 906201 1016637 30652 882318 1204335
3808.76 959714 1193264 744791 1067711 787683 1251766
3814.54 222967-94642 1516969 932735 908418 641335
3820.33 719775 1028993 1179246 758662 913476 988053
3826.11 1012354 1111784 1403383 1192521 1022252 876214
3831.90 1528352 1420920 1296785 1071263 1870686 256505
3837.68 1222665 1861163 1750210 1524609 1894578 1473859
3843.47 1598496 1803012 1780960 1673153 1760549 1297316
3849.25 1393961 1087375 131146 919317-1181584 547103
3855.04 1043026 802743 721540 497657 894070 744789
3860.83 361171 262412 752530-91951 599870 495725
3866.61 194821 614542-134094-53354 566259 312661
3872.40 450860-532749 478173 26929 103960-89822
3878.18-63868-605253-234728 36323-170740-275270
3883.97-627516-1133081-217085-259005-94748-139412
3889.75-477700-412744 149923-351769 36174-332863
3895.54-16317-111487 275135-702841 45151-95724
3901.32 14291 520571-237675 339275 159076 571330
3907.11 829712 526278 747562 785152 977919 781199
3912.89 942833 551909 1447541 782222 1021889 1377727
3918.68 1275283 1214359 1467150 1480012 1949231 1676580
3924.47 2005417 1967662 2290610 2496924 2624833 2867222
3930.25 2971403 2568159 3119331 3195137 3564245 3504225
3936.04 3763405 3355383 4033781 3856709 3833006 3705800
3941.82 3243464 3587955 3404122 3414377 3268003 3309552
3947.61 2925972 2459510 2567650 2730700 2595631 2267356
3953.39 2511080 2150628 2178484 1970765 1820218 1624098
3959.18 1985393 1875302 1889937 1685225 2096168 1829004
3964.96 2065585 2009167 2142765 2188297 2435092 2441507
3970.75 2367768 2220256 2099787 2314501
##END=
