##TITLE=BENZENE, ETHYL-
##JCAMP-DX=4.24
##DATA TYPE=INFRARED SPECTRUM
##CLASS=COBLENTZ III
##ORIGIN=DOW CORNING CORP.
##OWNER=COBLENTZ SOCIETY
Collection (C) 2018 copyright by the U.S. Secretary of Commerce
on behalf of the United States of America. All rights reserved.
##DATE=1966
##NAMES=ethylbenzene
##CAS REGISTRY NO=100-41-4
##MOLFORM=C8 H10
##SOURCE REFERENCE=COBLENTZ NO. 4779
##$NIST SOURCE=COBLENTZ
##$NIST IMAGE=cob4779
##SPECTROMETER/DATA SYSTEM=PERKIN-ELMER 521 (GRATING)
##INSTRUMENT PARAMETERS=FILTERS AT 3150, 2500, 2000, 1150, 700, 410; GRATING CHANGES AT 2000, 630 CM^-^1
##STATE=SOLUTION (10% IN CCl4 FOR 3800-1300, 10% IN CS2 FOR 1300-650, AND 10% CCl4 FOR 650-240 CM^-^1) VERSUS SOLVENT
##PATH LENGTH=0.012, 0.012, AND 0.010 CM (CsBr CELL)
##SAMPLING PROCEDURE=TRANSMISSION
##RESOLUTION=4
##DATA PROCESSING=DIGITIZED BY NIST FROM HARD COPY (FROM TWO SEGMENTS)
##XUNITS=1/CM
##YUNITS=TRANSMITTANCE
##XFACTOR=1.000000
##YFACTOR=1
##DELTAX=1.283882
##FIRSTX=237.233
##LASTX=3792.3
##FIRSTY=0.772
##MAXX=3792.3
##MINX=237.233
##MAXY=0.902
##MINY=0.026
##NPOINTS=2770
##XYDATA=(X++(Y..Y))
237.233000 0.7720 0.7720 0.7720 0.7730 0.7750
243.652408 0.7750 0.7750 0.7800 0.7820 0.7860
250.071816 0.7870 0.7890 0.7910 0.7930 0.7940
256.491224 0.7960 0.7980 0.8000 0.8010 0.8010
262.910632 0.8050 0.8050 0.8050 0.8050 0.8050
269.330040 0.8060 0.8060 0.8080 0.8080 0.8100
275.749448 0.8100 0.8100 0.8120 0.8120 0.8120
282.168856 0.8130 0.8130 0.8130 0.8130 0.8150
288.588264 0.8220 0.8270 0.8290 0.8290 0.8290
295.007672 0.8330 0.8360 0.8360 0.8380 0.8380
301.427080 0.8400 0.8410 0.8430 0.8450 0.8450
307.846488 0.8460 0.8460 0.8480 0.8480 0.8500
314.265896 0.8520 0.8530 0.8530 0.8570 0.8600
320.685305 0.8620 0.8620 0.8640 0.8640 0.8660
327.104713 0.8660 0.8670 0.8670 0.8690 0.8690
333.524121 0.8690 0.8690 0.8670 0.8670 0.8670
339.943529 0.8670 0.8670 0.8670 0.8660 0.8660
346.362937 0.8660 0.8660 0.8660 0.8660 0.8640
352.782345 0.8640 0.8640 0.8640 0.8640 0.8620
359.201753 0.8620 0.8620 0.8620 0.8640 0.8640
365.621161 0.8640 0.8640 0.8620 0.8620 0.8600
372.040569 0.8590 0.8570 0.8570 0.8570 0.8550
378.459977 0.8530 0.8530 0.8530 0.8530 0.8530
384.879385 0.8530 0.8520 0.8500 0.8480 0.8450
391.298793 0.8450 0.8430 0.8430 0.8430 0.8450
397.718201 0.8450 0.8450 0.8460 0.8460 0.8480
404.137609 0.8480 0.8480 0.8480 0.8480 0.8480
410.557017 0.8480 0.8480 0.8480 0.8480 0.8460
416.976425 0.8460 0.8460 0.8460 0.8450 0.8450
423.395833 0.8430 0.8430 0.8430 0.8430 0.8430
429.815241 0.8410 0.8400 0.8400 0.8380 0.8360
436.234649 0.8340 0.8330 0.8310 0.8290 0.8260
442.654057 0.8240 0.8200 0.8190 0.8170 0.8130
449.073465 0.8120 0.8050 0.8010 0.7960 0.7930
455.492873 0.7930 0.7860 0.7800 0.7750 0.7630
461.912281 0.7580 0.7560 0.7510 0.7420 0.7440
468.331689 0.7260 0.7230 0.7180 0.7060 0.7060
474.751097 0.6851 0.6760 0.6660 0.6481 0.6341
481.170506 0.6240 0.6030 0.5870 0.5840 0.5860
487.589914 0.5940 0.6030 0.6149 0.6737 0.7068
494.009322 0.7390 0.7560 0.7700 0.7790 0.7940
500.428730 0.8030 0.8050 0.8120 0.8150 0.8170
506.848138 0.8190 0.8200 0.8200 0.8200 0.8190
513.267546 0.8190 0.8170 0.8170 0.8150 0.8150
519.686954 0.8130 0.8130 0.8120 0.8120 0.8120
526.106362 0.8120 0.8100 0.8100 0.8080 0.8030
532.525770 0.8030 0.8010 0.7980 0.7960 0.7930
538.945178 0.7860 0.7790 0.7770 0.7661 0.7600
545.364586 0.7420 0.6740 0.6520 0.6310 0.6081
551.783994 0.5871 0.5661 0.5461 0.5460 0.5659
558.203402 0.5870 0.6190 0.6689 0.7229 0.7439
564.622810 0.7609 0.7749 0.7790 0.7860 0.7959
571.042218 0.7980 0.8010 0.8050 0.8060 0.8100
577.461626 0.8120 0.8130 0.8130 0.8150 0.8150
583.881034 0.8150 0.8170 0.8170 0.8170 0.8190
590.300442 0.8190 0.8190 0.8200 0.8200 0.8200
596.719850 0.8200 0.8200 0.8220 0.8220 0.8220
603.139258 0.8220 0.8220 0.8240 0.8240 0.8240
609.558666 0.8240 0.8240 0.8240 0.8220 0.8220
615.978074 0.8220 0.8220 0.8220 0.8220 0.8220
622.397482 0.8240 0.8240 0.8240 0.8240 0.8240
628.816890 0.8240 0.8240 0.8240 0.8240 0.8260
635.236298 0.8260 0.8260 0.8260 0.8260 0.8260
641.655707 0.8260 0.8260 0.8260 0.8260 0.8240
648.075115 0.8240 0.8240 0.8220 0.8220 0.8220
654.494523 0.8200 0.8200 0.8200 0.8190 0.8190
660.913931 0.8170 0.8170 0.8150 0.8150 0.8120
667.333339 0.8080 0.8030 0.8000 0.7930 0.7771
673.752747 0.7610 0.7580 0.7540 0.7260 0.7070
680.172155 0.6601 0.6461 0.6012 0.5612 0.5183
686.591563 0.5020 0.4850 0.4241 0.3701 0.2952
693.010971 0.2382 0.0786 0.0262 0.0260 0.0687
699.430379 0.0880 0.1070 0.1470 0.1800 0.2499
705.849787 0.2879 0.3319 0.3679 0.4168 0.4190
712.269195 0.4200 0.4200 0.4150 0.4050 0.4000
718.688603 0.3980 0.3940 0.3930 0.3890 0.3890
725.108011 0.3860 0.3790 0.3700 0.3650 0.3630
731.527419 0.3600 0.3580 0.3461 0.3351 0.3141
737.946827 0.3020 0.2760 0.2500 0.2340 0.2150
744.366235 0.1961 0.1960 0.2050 0.2219 0.2379
750.785643 0.2460 0.3350 0.3979 0.4459 0.5019
757.205051 0.5469 0.5819 0.6059 0.6329 0.6310
763.624459 0.6240 0.6120 0.5750 0.5320 0.5200
770.043867 0.5020 0.4671 0.4670 0.5128 0.5180
776.463275 0.5400 0.5660 0.5870 0.5980 0.5980
782.882683 0.5820 0.5770 0.5750 0.5730 0.5750
789.302091 0.5890 0.6120 0.6330 0.6620 0.6830
795.721499 0.7000 0.7279 0.7459 0.7629 0.7789
802.140908 0.7930 0.7940 0.8060 0.8120 0.8190
808.560316 0.8240 0.8260 0.8270 0.8330 0.8340
814.979724 0.8380 0.8400 0.8410 0.8410 0.8410
821.399132 0.8400 0.8400 0.8400 0.8380 0.8360
827.818540 0.8330 0.8260 0.8260 0.8220 0.8190
834.237948 0.8120 0.8080 0.8030 0.8010 0.8060
840.657356 0.8220 0.8290 0.8330 0.8340 0.8380
847.076764 0.8400 0.8400 0.8400 0.8410 0.8410
853.496172 0.8400 0.8400 0.8410 0.8430 0.8430
859.915580 0.8450 0.8450 0.8450 0.8460 0.8480
866.334988 0.8480 0.8480 0.8480 0.8480 0.8480
872.754396 0.8460 0.8460 0.8460 0.8450 0.8450
879.173804 0.8430 0.8430 0.8410 0.8330 0.8310
885.593212 0.8310 0.8310 0.8270 0.8260 0.8101
892.012620 0.8050 0.8000 0.7860 0.7580 0.7350
898.432028 0.6452 0.5932 0.5512 0.5510 0.6286
904.851436 0.6761 0.7400 0.7910 0.8220 0.8340
911.270844 0.8400 0.8410 0.8549 0.8570 0.8590
917.690252 0.8590 0.8620 0.8660 0.8670 0.8670
924.109660 0.8670 0.8660 0.8660 0.8660 0.8640
930.529068 0.8640 0.8620 0.8620 0.8620 0.8620
936.948476 0.8620 0.8620 0.8600 0.8590 0.8570
943.367884 0.8550 0.8550 0.8520 0.8480 0.8450
949.787292 0.8330 0.8270 0.8240 0.8131 0.8050
956.206700 0.7890 0.7840 0.7730 0.7630 0.7470
962.626109 0.7320 0.7260 0.7320 0.7459 0.7540
969.045517 0.7630 0.7720 0.7960 0.7980 0.8030
975.464925 0.8050 0.8130 0.8200 0.8260 0.8270
981.884333 0.8310 0.8330 0.8360 0.8380 0.8380
988.303741 0.8380 0.8380 0.8360 0.8360 0.8340
994.723149 0.8330 0.8330 0.8310 0.8290 0.8270
1001.142557 0.8270 0.8270 0.8260 0.8260 0.8260
1007.561965 0.8260 0.8220 0.8200 0.8150 0.8060
1013.981373 0.8050 0.7980 0.7940 0.7930 0.7751
1020.400781 0.7610 0.7370 0.7140 0.6880 0.6620
1026.820189 0.6361 0.5842 0.5461 0.4733 0.4730
1033.239597 0.5600 0.5600 0.5580 0.5540 0.5560
1039.659005 0.5979 0.6399 0.7157 0.7210 0.7260
1046.078413 0.7320 0.7330 0.7350 0.7350 0.7320
1052.497821 0.7300 0.7280 0.7250 0.7160 0.7110
1058.917229 0.6990 0.6880 0.6860 0.6880 0.6920
1065.336637 0.7090 0.7349 0.7440 0.7599 0.7719
1071.756045 0.7750 0.7770 0.7770 0.7750 0.7720
1078.175453 0.7630 0.7580 0.7461 0.7331 0.7141
1084.594861 0.6970 0.6810 0.6670 0.6670 0.7019
1091.014269 0.7200 0.7370 0.7609 0.7720 0.7790
1097.433677 0.7820 0.7820 0.7790 0.7730 0.7680
1103.853085 0.7610 0.7560 0.7540 0.7560 0.7630
1110.272493 0.8030 0.8150 0.8200 0.8240 0.8270
1116.691901 0.8310 0.8310 0.8330 0.8330 0.8330
1123.111310 0.8330 0.8330 0.8330 0.8340 0.8340
1129.530718 0.8340 0.8340 0.8340 0.8340 0.8340
1135.950126 0.8340 0.8340 0.8340 0.8340 0.8340
1142.369534 0.8330 0.8290 0.8290 0.8260 0.8200
1148.788942 0.8150 0.8080 0.8050 0.8050 0.8080
1155.208350 0.8130 0.8150 0.8220 0.8240 0.8260
1161.627758 0.8260 0.8260 0.8240 0.8200 0.8190
1168.047166 0.8190 0.8060 0.7980 0.7940 0.7930
1174.466574 0.7930 0.7940 0.7960 0.8000 0.8050
1180.885982 0.8080 0.8130 0.8150 0.8200 0.8329
1187.305390 0.8360 0.8410 0.8450 0.8460 0.8460
1193.724798 0.8460 0.8460 0.8480 0.8530 0.8570
1200.144206 0.8640 0.8660 0.8690 0.8690 0.8710
1206.563614 0.8730 0.8740 0.8740 0.8740 0.8740
1212.983022 0.8740 0.8740 0.8740 0.8740 0.8740
1219.402430 0.8740 0.8740 0.8740 0.8740 0.8740
1225.821838 0.8740 0.8730 0.8730 0.8710 0.8670
1232.241246 0.8660 0.8660 0.8640 0.8590 0.8570
1238.660654 0.8550 0.8550 0.8530 0.8530 0.8520
1245.080062 0.8520 0.8520 0.8530 0.8550 0.8570
1251.499470 0.8550 0.8520 0.8460 0.8430 0.8410
1257.918878 0.8400 0.8400 0.8410 0.8410 0.8430
1264.338286 0.8450 0.8480 0.8500 0.8520 0.8520
1270.757694 0.8520 0.8520 0.8520 0.8500 0.8500
1277.177103 0.8480 0.8460 0.8450 0.8430 0.8430
1283.596511 0.8410 0.8400 0.8380 0.8380 0.8360
1290.015919 0.8360 0.8340 0.8330 0.8330 0.8310
1296.435327 0.8290 0.8290 0.8270 0.8270 0.8260
1302.854735 0.8240 0.8240 0.8220 0.8220 0.8200
1309.274143 0.8150 0.8120 0.8120 0.8100 0.8060
1315.693551 0.8060 0.8050 0.8010 0.7980 0.7960
1322.112959 0.7960 0.7960 0.7980 0.8010 0.8030
1328.532367 0.8130 0.8200 0.8270 0.8330 0.8340
1334.951775 0.8380 0.8400 0.8410 0.8430 0.8450
1341.371183 0.8480 0.8480 0.8500 0.8500 0.8520
1347.790591 0.8520 0.8500 0.8480 0.8450 0.8450
1354.209999 0.8430 0.8400 0.8360 0.8360 0.8330
1360.629407 0.8240 0.8100 0.8030 0.7940 0.7771
1367.048815 0.7530 0.7260 0.6930 0.6920 0.6930
1373.468223 0.7060 0.7130 0.7250 0.7350 0.7440
1379.887631 0.7510 0.7720 0.7940 0.7960 0.8050
1386.307039 0.8080 0.8120 0.8130 0.8150 0.8150
1392.726447 0.8170 0.8170 0.8190 0.8190 0.8200
1399.145855 0.8200 0.8200 0.8220 0.8220 0.8220
1405.565263 0.8220 0.8220 0.8220 0.8200 0.8200
1411.984671 0.8190 0.8190 0.8170 0.8130 0.8120
1418.404079 0.8010 0.7960 0.7940 0.7820 0.7750
1424.823487 0.7680 0.7610 0.7580 0.7580 0.7421
1431.242895 0.7320 0.7210 0.7090 0.6930 0.6780
1437.662304 0.6600 0.6530 0.6082 0.5821 0.5352
1444.081712 0.5130 0.4780 0.4190 0.3680 0.2881
1450.501120 0.2052 0.1213 0.1210 0.2355 0.2658
1456.920528 0.3071 0.3820 0.3860 0.3870 0.4080
1463.339936 0.4968 0.5369 0.5888 0.6408 0.6639
1469.759344 0.6691 0.6970 0.7320 0.7400 0.7420
1476.178752 0.7400 0.7350 0.7330 0.7250 0.7131
1482.598160 0.6929 0.6620 0.6310 0.5910 0.5401
1489.017568 0.5041 0.4083 0.3372 0.0701 0.0690
1495.436976 0.1441 0.2191 0.3890 0.6189 0.7259
1501.856384 0.7579 0.7859 0.7960 0.8010 0.8050
1508.275792 0.8130 0.8170 0.8220 0.8260 0.8260
1514.695200 0.8310 0.8330 0.8330 0.8340 0.8340
1521.114608 0.8330 0.8310 0.8290 0.8240 0.8190
1527.534016 0.8150 0.8150 0.8120 0.8060 0.7961
1533.953424 0.7910 0.7910 0.7930 0.7980 0.8010
1540.372832 0.8120 0.8220 0.8220 0.8240 0.8240
1546.792240 0.8240 0.8220 0.8220 0.8220 0.8240
1553.211648 0.8240 0.8260 0.8270 0.8330 0.8330
1559.631056 0.8340 0.8340 0.8340 0.8330 0.8330
1566.050464 0.8290 0.8270 0.8270 0.8220 0.8170
1572.469872 0.8130 0.8060 0.7960 0.7840 0.7730
1578.889280 0.7730 0.7750 0.7750 0.7750 0.7730
1585.308688 0.7720 0.7680 0.7630 0.7510 0.7370
1591.728096 0.7230 0.6971 0.6761 0.6461 0.6221
1598.147505 0.5999 0.5719 0.4930 0.4290 0.4290
1604.566913 0.4450 0.5418 0.7174 0.7648 0.8128
1610.986321 0.8270 0.8340 0.8360 0.8430 0.8460
1617.405729 0.8520 0.8520 0.8530 0.8550 0.8550
1623.825137 0.8570 0.8600 0.8600 0.8600 0.8600
1630.244545 0.8600 0.8600 0.8600 0.8620 0.8620
1636.663953 0.8620 0.8620 0.8600 0.8590 0.8590
1643.083361 0.8570 0.8550 0.8550 0.8550 0.8570
1649.502769 0.8570 0.8600 0.8600 0.8590 0.8590
1655.922177 0.8600 0.8600 0.8600 0.8600 0.8640
1662.341585 0.8660 0.8660 0.8670 0.8670 0.8690
1668.760993 0.8690 0.8690 0.8690 0.8690 0.8690
1675.180401 0.8690 0.8690 0.8690 0.8690 0.8690
1681.599809 0.8690 0.8710 0.8710 0.8730 0.8730
1688.019217 0.8730 0.8730 0.8730 0.8730 0.8740
1694.438625 0.8740 0.8760 0.8760 0.8760 0.8760
1700.858033 0.8760 0.8760 0.8760 0.8760 0.8780
1707.277441 0.8780 0.8780 0.8780 0.8780 0.8780
1713.696849 0.8780 0.8780 0.8760 0.8760 0.8740
1720.116257 0.8740 0.8740 0.8730 0.8710 0.8690
1726.535665 0.8660 0.8640 0.8590 0.8500 0.8460
1732.955073 0.8430 0.8330 0.8270 0.8240 0.8240
1739.374481 0.8260 0.8270 0.8330 0.8340 0.8410
1745.793889 0.8530 0.8570 0.8660 0.8730 0.8760
1752.213297 0.8780 0.8800 0.8810 0.8830 0.8830
1758.632706 0.8830 0.8850 0.8850 0.8850 0.8830
1765.052114 0.8830 0.8830 0.8810 0.8800 0.8780
1771.471522 0.8760 0.8760 0.8780 0.8800 0.8800
1777.890930 0.8810 0.8810 0.8810 0.8810 0.8800
1784.310338 0.8760 0.8730 0.8660 0.8640 0.8550
1790.729746 0.8360 0.8220 0.8080 0.7960 0.7860
1797.149154 0.7820 0.7840 0.7930 0.8010 0.8100
1803.568562 0.8130 0.8310 0.8460 0.8520 0.8530
1809.987970 0.8550 0.8570 0.8570 0.8570 0.8590
1816.407378 0.8590 0.8640 0.8660 0.8730 0.8780
1822.826786 0.8800 0.8810 0.8830 0.8830 0.8830
1829.246194 0.8830 0.8830 0.8830 0.8830 0.8830
1835.665602 0.8850 0.8850 0.8850 0.8850 0.8830
1842.085010 0.8810 0.8810 0.8810 0.8800 0.8780
1848.504418 0.8760 0.8730 0.8660 0.8590 0.8550
1854.923826 0.8520 0.8400 0.8240 0.8080 0.7930
1861.343234 0.7681 0.7680 0.7790 0.7890 0.8119
1867.762642 0.8330 0.8480 0.8500 0.8480 0.8450
1874.182050 0.8340 0.8330 0.8260 0.8220 0.8220
1880.601458 0.8270 0.8340 0.8500 0.8730 0.8730
1887.020866 0.8780 0.8810 0.8850 0.8860 0.8860
1893.440274 0.8860 0.8880 0.8880 0.8900 0.8900
1899.859682 0.8900 0.8900 0.8900 0.8900 0.8900
1906.279090 0.8900 0.8880 0.8880 0.8860 0.8860
1912.698498 0.8850 0.8850 0.8850 0.8830 0.8810
1919.117907 0.8800 0.8800 0.8780 0.8760 0.8740
1925.537315 0.8730 0.8710 0.8620 0.8530 0.8450
1931.956723 0.8340 0.8150 0.7980 0.7840 0.7370
1938.376131 0.7370 0.7679 0.7730 0.7820 0.7999
1944.795539 0.8290 0.8410 0.8450 0.8450 0.8410
1951.214947 0.8380 0.8310 0.8290 0.8290 0.8310
1957.634355 0.8330 0.8380 0.8590 0.8660 0.8740
1964.053763 0.8800 0.8860 0.8880 0.8900 0.8930
1970.473171 0.8950 0.8950 0.8970 0.8970 0.8970
1976.892579 0.8990 0.8990 0.8990 0.8990 0.8990
1983.311987 0.8990 0.8990 0.8990 0.9000 0.9000
1989.731395 0.9000 0.9000 0.9020 0.9020 0.9020
1996.150803 0.9020 0.9020 0.9000 0.9000 0.8995
2002.570211 0.8990 0.8980 0.8970 0.8970 0.8970
2008.989619 0.8970 0.8970 0.8970 0.8970 0.8960
2015.409027 0.8950 0.8950 0.8950 0.8950 0.8950
2021.828435 0.8950 0.8950 0.8950 0.8950 0.8950
2028.247843 0.8950 0.8950 0.8950 0.8950 0.8950
2034.667251 0.8950 0.8950 0.8950 0.8950 0.8950
2041.086659 0.8950 0.8950 0.8950 0.8950 0.8950
2047.506067 0.8950 0.8950 0.8950 0.8950 0.8950
2053.925475 0.8950 0.8950 0.8950 0.8950 0.8950
2060.344883 0.8950 0.8950 0.8950 0.8950 0.8950
2066.764291 0.8950 0.8950 0.8950 0.8950 0.8950
2073.183699 0.8950 0.8950 0.8950 0.8950 0.8950
2079.603108 0.8950 0.8950 0.8950 0.8950 0.8950
2086.022516 0.8950 0.8950 0.8950 0.8950 0.8950
2092.441924 0.8950 0.8950 0.8950 0.8950 0.8951
2098.861332 0.8961 0.8969 0.8959 0.8950 0.8950
2105.280740 0.8950 0.8950 0.8950 0.8950 0.8950
2111.700148 0.8950 0.8949 0.8939 0.8930 0.8930
2118.119556 0.8930 0.8930 0.8930 0.8930 0.8931
2124.538964 0.8941 0.8950 0.8950 0.8949 0.8939
2130.958372 0.8930 0.8930 0.8929 0.8924 0.8920
2137.377780 0.8920 0.8921 0.8926 0.8930 0.8930
2143.797188 0.8930 0.8930 0.8929 0.8924 0.8916
2150.216596 0.8886 0.8859 0.8854 0.8850 0.8850
2156.636004 0.8850 0.8850 0.8848 0.8838 0.8828
2163.055412 0.8818 0.8810 0.8810 0.8810 0.8810
2169.474820 0.8812 0.8822 0.8830 0.8830 0.8830
2175.894228 0.8830 0.8830 0.8830 0.8828 0.8818
2182.313636 0.8812 0.8822 0.8830 0.8830 0.8832
2188.733044 0.8842 0.8851 0.8856 0.8860 0.8860
2195.152452 0.8859 0.8854 0.8850 0.8850 0.8850
2201.571860 0.8850 0.8850 0.8850 0.8848 0.8838
2207.991268 0.8830 0.8830 0.8830 0.8830 0.8828
2214.410676 0.8818 0.8810 0.8810 0.8809 0.8804
2220.830084 0.8795 0.8775 0.8762 0.8772 0.8780
2227.249492 0.8780 0.8782 0.8792 0.8800 0.8800
2233.668900 0.8801 0.8806 0.8810 0.8810 0.8813
2240.088309 0.8823 0.8830 0.8830 0.8833 0.8843
2246.507717 0.8850 0.8850 0.8850 0.8850 0.8851
2252.927125 0.8856 0.8859 0.8854 0.8850 0.8850
2259.346533 0.8847 0.8837 0.8830 0.8830 0.8830
2265.765941 0.8830 0.8833 0.8843 0.8851 0.8856
2272.185349 0.8860 0.8860 0.8853 0.8828 0.8809
2278.604757 0.8804 0.8800 0.8800 0.8800 0.8800
2285.024165 0.8800 0.8800 0.8797 0.8787 0.8780
2291.443573 0.8780 0.8780 0.8780 0.8777 0.8767
2297.862981 0.8763 0.8773 0.8780 0.8780 0.8777
2304.282389 0.8767 0.8760 0.8760 0.8760 0.8760
2310.701797 0.8760 0.8760 0.8760 0.8760 0.8760
2317.121205 0.8760 0.8760 0.8760 0.8760 0.8760
2323.540613 0.8757 0.8747 0.8738 0.8733 0.8727
2329.960021 0.8717 0.8707 0.8696 0.8690 0.8690
2336.379429 0.8694 0.8704 0.8710 0.8710 0.8714
2342.798837 0.8724 0.8730 0.8730 0.8732 0.8737
2349.218245 0.8744 0.8754 0.8760 0.8760 0.8760
2355.637653 0.8760 0.8760 0.8760 0.8756 0.8746
2362.057061 0.8740 0.8740 0.8740 0.8740 0.8740
2368.476469 0.8740 0.8744 0.8754 0.8760 0.8760
2374.895877 0.8760 0.8760 0.8764 0.8774 0.8784
2381.315285 0.8794 0.8800 0.8800 0.8800 0.8800
2387.734693 0.8800 0.8800 0.8800 0.8800 0.8800
2394.154101 0.8800 0.8800 0.8800 0.8796 0.8786
2400.573510 0.8776 0.8766 0.8760 0.8760 0.8756
2406.992918 0.8746 0.8744 0.8755 0.8760 0.8760
2413.412326 0.8760 0.8760 0.8760 0.8760 0.8765
2419.831734 0.8775 0.8780 0.8780 0.8775 0.8765
2426.251142 0.8760 0.8760 0.8760 0.8760 0.8760
2432.670550 0.8760 0.8760 0.8760 0.8760 0.8760
2439.089958 0.8760 0.8760 0.8765 0.8775 0.8785
2445.509366 0.8795 0.8795 0.8785 0.8780 0.8780
2451.928774 0.8785 0.8795 0.8795 0.8785 0.8775
2458.348182 0.8765 0.8755 0.8745 0.8740 0.8740
2464.767590 0.8740 0.8740 0.8745 0.8755 0.8760
2471.186998 0.8760 0.8770 0.8790 0.8800 0.8800
2477.606406 0.8790 0.8770 0.8760 0.8760 0.8760
2484.025814 0.8760 0.8755 0.8745 0.8740 0.8740
2490.445222 0.8740 0.8740 0.8740 0.8740 0.8737
2496.864630 0.8732 0.8730 0.8730 0.8730 0.8730
2503.284038 0.8730 0.8730 0.8733 0.8738 0.8740
2509.703446 0.8740 0.8740 0.8740 0.8740 0.8740
2516.122854 0.8740 0.8740 0.8740 0.8740 0.8737
2522.542262 0.8732 0.8719 0.8699 0.8690 0.8690
2528.961670 0.8696 0.8706 0.8710 0.8710 0.8710
2535.381078 0.8710 0.8710 0.8710 0.8710 0.8710
2541.800486 0.8704 0.8694 0.8684 0.8674 0.8676
2548.219894 0.8686 0.8696 0.8706 0.8716 0.8726
2554.639302 0.8733 0.8738 0.8740 0.8740 0.8737
2561.058711 0.8732 0.8724 0.8714 0.8710 0.8710
2567.478119 0.8710 0.8710 0.8710 0.8710 0.8716
2573.897527 0.8726 0.8730 0.8730 0.8711 0.8681
2580.316935 0.8661 0.8646 0.8640 0.8640 0.8646
2586.736343 0.8656 0.8660 0.8660 0.8660 0.8660
2593.155751 0.8660 0.8660 0.8653 0.8643 0.8640
2599.575159 0.8640 0.8633 0.8623 0.8613 0.8603
2605.994567 0.8597 0.8592 0.8590 0.8590 0.8590
2612.413975 0.8590 0.8607 0.8632 0.8626 0.8606
2618.833383 0.8597 0.8592 0.8576 0.8556 0.8550
2625.252791 0.8550 0.8543 0.8533 0.8530 0.8530
2631.672199 0.8537 0.8547 0.8550 0.8550 0.8557
2638.091607 0.8567 0.8570 0.8570 0.8577 0.8587
2644.511015 0.8590 0.8590 0.8594 0.8599 0.8607
2650.930423 0.8617 0.8634 0.8654 0.8660 0.8660
2657.349831 0.8660 0.8660 0.8653 0.8643 0.8640
2663.769239 0.8640 0.8633 0.8623 0.8620 0.8620
2670.188647 0.8627 0.8637 0.8640 0.8640 0.8640
2676.608055 0.8640 0.8640 0.8640 0.8633 0.8623
2683.027463 0.8620 0.8620 0.8620 0.8620 0.8620
2689.446871 0.8620 0.8620 0.8620 0.8612 0.8602
2695.866279 0.8600 0.8600 0.8600 0.8600 0.8600
2702.285687 0.8600 0.8600 0.8600 0.8596 0.8591
2708.705095 0.8590 0.8590 0.8590 0.8590 0.8582
2715.124503 0.8572 0.8554 0.8534 0.8510 0.8485
2721.543912 0.8468 0.8453 0.8442 0.8432 0.8430
2727.963320 0.8430 0.8430 0.8430 0.8430 0.8430
2734.382728 0.8438 0.8448 0.8450 0.8450 0.8454
2740.802136 0.8459 0.8468 0.8478 0.8480 0.8480
2747.221544 0.8480 0.8480 0.8480 0.8480 0.8480
2753.640952 0.8480 0.8472 0.8462 0.8460 0.8460
2760.060360 0.8448 0.8433 0.8422 0.8412 0.8398
2766.479768 0.8383 0.8363 0.8343 0.8340 0.8340
2772.899176 0.8336 0.8331 0.8330 0.8330 0.8300
2779.318584 0.8265 0.8243 0.8223 0.8220 0.8220
2785.737992 0.8229 0.8239 0.8240 0.8240 0.8249
2792.157400 0.8259 0.8251 0.8241 0.8231 0.8221
2798.576808 0.8211 0.8201 0.8196 0.8191 0.8172
2804.996216 0.8152 0.8141 0.8131 0.8126 0.8121
2811.415624 0.8111 0.8101 0.8091 0.8081 0.8049
2817.835032 0.8014 0.7979 0.7943 0.7885 0.7825
2824.254440 0.7806 0.7791 0.7758 0.7723 0.7693
2830.673848 0.7663 0.7601 0.7536 0.7498 0.7463
2837.093256 0.7396 0.7326 0.7279 0.7234 0.7125
2843.512664 0.7010 0.6930 0.6854 0.6742 0.6627
2849.932072 0.6540 0.6455 0.6266 0.6071 0.6013
2856.351480 0.5963 0.5738 0.5503 0.5268 0.5033
2862.770888 0.4850 0.4670 0.4519 0.4369 0.4303
2869.190296 0.4243 0.4097 0.3944 0.3780 0.3615
2875.609704 0.3450 0.3285 0.3120 0.2955 0.2950
2882.029113 0.2950 0.3178 0.3413 0.3658 0.3903
2888.448521 0.4148 0.4393 0.4643 0.4893 0.4900
2894.867929 0.4900 0.4851 0.4800 0.4450 0.4100
2901.287337 0.4100 0.4100 0.4440 0.4780 0.4780
2907.706745 0.4780 0.4720 0.4660 0.4625 0.4590
2914.126153 0.4510 0.4430 0.4385 0.4340 0.4305
2920.545561 0.4270 0.4016 0.3766 0.3616 0.3466
2926.964969 0.3321 0.3176 0.3046 0.2902 0.2282
2933.384377 0.1680 0.1680 0.1686 0.1896 0.2101
2939.803785 0.2126 0.2163 0.2618 0.3069 0.3389
2946.223193 0.3701 0.3752 0.3800 0.3800 0.3798
2952.642601 0.3758 0.3717 0.3662 0.3605 0.3510
2959.062009 0.3399 0.3034 0.2667 0.2267 0.1844
2965.481417 0.1029 0.0260 0.0260 0.0271 0.0471
2971.900825 0.0661 0.0687 0.0725 0.0905 0.1085
2978.320233 0.1260 0.1430 0.1550 0.1689 0.2024
2984.739641 0.2369 0.2829 0.3276 0.3586 0.3915
2991.159049 0.4440 0.4926 0.5001 0.5077 0.5157
2997.578457 0.5237 0.5318 0.5401 0.5496 0.5589
3003.997865 0.5664 0.5733 0.5763 0.5789 0.5779
3010.417273 0.5766 0.5731 0.5698 0.5678 0.5641
3016.836681 0.5471 0.5303 0.5153 0.4989 0.4719
3023.256089 0.4441 0.4096 0.3667 0.2732 0.1902
3029.675497 0.1702 0.1530 0.1530 0.1564 0.1804
3036.094906 0.2028 0.2153 0.2297 0.2557 0.2871
3042.514314 0.3511 0.4180 0.5025 0.5763 0.5853
3048.933722 0.5930 0.5930 0.5927 0.5907 0.5888
3055.353130 0.5878 0.5860 0.5800 0.5725 0.5580
3061.772538 0.5404 0.5074 0.4762 0.4542 0.4298
3068.191946 0.3933 0.3628 0.3618 0.3666 0.3996
3074.611354 0.4337 0.4727 0.5090 0.5340 0.5542
3081.030762 0.5552 0.5529 0.5374 0.5225 0.5100
3087.450170 0.4969 0.4814 0.4690 0.4690 0.4735
3093.869578 0.4960 0.5179 0.5374 0.5615 0.6040
3100.288986 0.6466 0.6897 0.7230 0.7230 0.7224
3106.708394 0.7199 0.7167 0.7112 0.7070 0.7070
3113.127802 0.7114 0.7309 0.7506 0.7706 0.7876
3119.547210 0.7946 0.8023 0.8123 0.8208 0.8243
3125.966618 0.8277 0.8307 0.8331 0.8336 0.8340
3132.386026 0.8340 0.8343 0.8353 0.8363 0.8373
3138.805434 0.8380 0.8380 0.8384 0.8399 0.8410
3145.224842 0.8410 0.8415 0.8435 0.8450 0.8450
3151.644250 0.8450 0.8450 0.8447 0.8437 0.8430
3158.063658 0.8430 0.8427 0.8417 0.8410 0.8410
3164.483066 0.8413 0.8423 0.8433 0.8443 0.8451
3170.902474 0.8456 0.8460 0.8460 0.8466 0.8486
3177.321882 0.8500 0.8500 0.8508 0.8533 0.8553
3183.741290 0.8563 0.8573 0.8583 0.8590 0.8590
3190.160698 0.8590 0.8590 0.8592 0.8597 0.8600
3196.580107 0.8600 0.8606 0.8626 0.8643 0.8653
3202.999515 0.8662 0.8667 0.8673 0.8683 0.8693
3209.418923 0.8703 0.8710 0.8710 0.8710 0.8710
3215.838331 0.8713 0.8723 0.8730 0.8730 0.8732
3222.257739 0.8737 0.8740 0.8740 0.8743 0.8753
3228.677147 0.8760 0.8760 0.8764 0.8774 0.8780
3235.096555 0.8780 0.8780 0.8780 0.8780 0.8780
3241.515963 0.8784 0.8794 0.8800 0.8800 0.8802
3247.935371 0.8807 0.8810 0.8810 0.8810 0.8810
3254.354779 0.8808 0.8803 0.8800 0.8800 0.8802
3260.774187 0.8807 0.8810 0.8810 0.8810 0.8810
3267.193595 0.8810 0.8810 0.8814 0.8824 0.8830
3273.613003 0.8830 0.8826 0.8816 0.8810 0.8810
3280.032411 0.8810 0.8810 0.8810 0.8810 0.8810
3286.451819 0.8810 0.8810 0.8810 0.8814 0.8824
3292.871227 0.8830 0.8830 0.8830 0.8830 0.8830
3299.290635 0.8830 0.8830 0.8830 0.8830 0.8830
3305.710043 0.8830 0.8830 0.8830 0.8830 0.8830
3312.129451 0.8830 0.8830 0.8830 0.8830 0.8830
3318.548859 0.8825 0.8815 0.8810 0.8810 0.8810
3324.968267 0.8810 0.8815 0.8825 0.8830 0.8830
3331.387675 0.8830 0.8830 0.8825 0.8815 0.8810
3337.807083 0.8810 0.8808 0.8803 0.8800 0.8800
3344.226491 0.8800 0.8800 0.8800 0.8800 0.8800
3350.645899 0.8800 0.8802 0.8807 0.8810 0.8810
3357.065308 0.8810 0.8810 0.8810 0.8810 0.8810
3363.484716 0.8810 0.8815 0.8825 0.8830 0.8830
3369.904124 0.8830 0.8830 0.8830 0.8830 0.8830
3376.323532 0.8830 0.8830 0.8830 0.8830 0.8830
3382.742940 0.8830 0.8830 0.8830 0.8830 0.8830
3389.162348 0.8830 0.8830 0.8830 0.8830 0.8830
3395.581756 0.8825 0.8815 0.8810 0.8810 0.8815
3402.001164 0.8825 0.8830 0.8830 0.8830 0.8830
3408.420572 0.8830 0.8830 0.8836 0.8846 0.8844
3414.839980 0.8834 0.8830 0.8830 0.8836 0.8846
3421.259388 0.8853 0.8858 0.8860 0.8860 0.8857
3427.678796 0.8852 0.8844 0.8834 0.8830 0.8830
3434.098204 0.8824 0.8814 0.8810 0.8810 0.8816
3440.517612 0.8826 0.8836 0.8846 0.8850 0.8850
3446.937020 0.8850 0.8850 0.8853 0.8858 0.8866
3453.356428 0.8876 0.8880 0.8880 0.8880 0.8880
3459.775836 0.8886 0.8896 0.8900 0.8900 0.8900
3466.195244 0.8900 0.8900 0.8900 0.8900 0.8900
3472.614652 0.8900 0.8900 0.8900 0.8900 0.8906
3479.034060 0.8916 0.8920 0.8920 0.8914 0.8904
3485.453468 0.8900 0.8900 0.8900 0.8900 0.8900
3491.872876 0.8900 0.8900 0.8900 0.8900 0.8900
3498.292284 0.8900 0.8900 0.8900 0.8900 0.8893
3504.711692 0.8883 0.8880 0.8880 0.8880 0.8880
3511.131100 0.8880 0.8880 0.8880 0.8880 0.8880
3517.550509 0.8880 0.8880 0.8880 0.8887 0.8897
3523.969917 0.8900 0.8900 0.8900 0.8900 0.8907
3530.389325 0.8917 0.8920 0.8920 0.8923 0.8928
3536.808733 0.8930 0.8930 0.8930 0.8930 0.8930
3543.228141 0.8930 0.8930 0.8930 0.8930 0.8930
3549.647549 0.8930 0.8930 0.8930 0.8930 0.8930
3556.066957 0.8930 0.8930 0.8930 0.8930 0.8930
3562.486365 0.8930 0.8930 0.8930 0.8930 0.8937
3568.905773 0.8947 0.8950 0.8950 0.8965 0.8985
3575.325181 0.8994 0.8999 0.9000 0.9000 0.9000
3581.744589 0.9000 0.8996 0.8991 0.8990 0.8990
3588.163997 0.8982 0.8972 0.8962 0.8952 0.8950
3594.583405 0.8950 0.8942 0.8932 0.8930 0.8930
3601.002813 0.8930 0.8930 0.8930 0.8930 0.8930
3607.422221 0.8930 0.8930 0.8930 0.8930 0.8930
3613.841629 0.8926 0.8921 0.8920 0.8920 0.8920
3620.261037 0.8920 0.8920 0.8920 0.8920 0.8920
3626.680445 0.8920 0.8920 0.8920 0.8920 0.8912
3633.099853 0.8902 0.8900 0.8900 0.8900 0.8900
3639.519261 0.8900 0.8900 0.8871 0.8836 0.8822
3645.938669 0.8812 0.8810 0.8810 0.8827 0.8847
3652.358077 0.8871 0.8896 0.8908 0.8918 0.8920
3658.777485 0.8920 0.8912 0.8902 0.8900 0.8900
3665.196893 0.8908 0.8919 0.8920 0.8920 0.8924
3671.616301 0.8929 0.8926 0.8921 0.8911 0.8901
3678.035710 0.8900 0.8900 0.8900 0.8900 0.8900
3684.455118 0.8900 0.8900 0.8900 0.8900 0.8900
3690.874526 0.8909 0.8919 0.8911 0.8901 0.8900
3697.293934 0.8900 0.8900 0.8900 0.8909 0.8919
3703.713342 0.8920 0.8920 0.8920 0.8920 0.8920
3710.132750 0.8920 0.8924 0.8929 0.8930 0.8930
3716.552158 0.8926 0.8920 0.8925 0.8930 0.8939
3722.971566 0.8949 0.8950 0.8950 0.8959 0.8969
3729.390974 0.8979 0.8989 0.8990 0.8990 0.8990
3735.810382 0.8990 0.8981 0.8971 0.8970 0.8970
3742.229790 0.8970 0.8970 0.8970 0.8970 0.8970
3748.649198 0.8970 0.8961 0.8951 0.8941 0.8931
3755.068606 0.8930 0.8930 0.8930 0.8930 0.8930
3761.488014 0.8930 0.8930 0.8930 0.8930 0.8930
3767.907422 0.8930 0.8930 0.8930 0.8930 0.8930
3774.326830 0.8930 0.8930 0.8930 0.8940 0.8950
3780.746238 0.8950 0.8950 0.8950 0.8950 0.8950
3787.165646 0.8950 0.8950 0.8950 0.8950 0.8950
##END=
