##TITLE=Silane, n-butylchlorodimethyl-,
##JCAMP-DX=4.24
##DATA TYPE=INFRARED SPECTRUM
##CLASS=COBLENTZ III
##ORIGIN=DOW CORNING CORP.
##OWNER=Copyright (C) 1987 by the Coblentz Society
Collection (C) 2018 copyright by the U.S. Secretary of Commerce
on behalf of the United States of America. All rights reserved.
##DATE=1966/03/08
##NAMES=butyl(chloro)dimethylsilane
##CAS REGISTRY NO=1000-50-6
##MOLFORM=C6 H15 Cl Si
##SOURCE REFERENCE=COBLENTZ NO. 5600
##$NIST SOURCE=COBLENTZ
##$NIST IMAGE=cob5600
##SPECTROMETER/DATA SYSTEM=PERKIN-ELMER 521 (GRATING)
##INSTRUMENT PARAMETERS=FILTERS AT 3150, 2500, 2000, 1150, 700, 410. GRATING CHANGES: 2000, 630
##STATE=SOLUTION (11% CCl4 FOR 3800-1300, 2% CS2 FOR 1300-600, AND 11% CCl4 FOR 600-250)
##PATH LENGTH=0.012 CM, 0.011 CM, AND 0.010 CM
$$ SPECTRAL FEATURE AT 1274 CM^-^1 IS AN ARTIFACT CAUSED BY A CHANGE IN SOLVENT
##RESOLUTION=2
##XUNITS=1/CM
##YUNITS=TRANSMITTANCE
##XFACTOR=1.0
##YFACTOR=1
##FIRSTX=242
##LASTX=3820
##FIRSTY=0.74
##MAXX=3820
##MINX=242
##MAXY=0.9423
##MINY=0.0104
##NPOINTS=3579
##XYDATA=(X++(Y..Y))
242.000000 0.7400 0.7398 0.7397 0.7396 0.7395
247.000000 0.7394 0.7394 0.7395 0.7396 0.7397
252.000000 0.7398 0.7405 0.7413 0.7421 0.7428
257.000000 0.7436 0.7445 0.7455 0.7465 0.7474
262.000000 0.7484 0.7494 0.7503 0.7511 0.7516
267.000000 0.7521 0.7526 0.7531 0.7536 0.7540
272.000000 0.7542 0.7544 0.7545 0.7546 0.7547
277.000000 0.7549 0.7550 0.7551 0.7553 0.7554
282.000000 0.7555 0.7556 0.7558 0.7557 0.7556
287.000000 0.7555 0.7554 0.7553 0.7552 0.7551
292.000000 0.7551 0.7550 0.7549 0.7548 0.7547
297.000000 0.7548 0.7548 0.7549 0.7549 0.7549
302.000000 0.7550 0.7550 0.7563 0.7551 0.7552
307.000000 0.7553 0.7557 0.7562 0.7566 0.7571
312.000000 0.7575 0.7580 0.7584 0.7593 0.7609
317.000000 0.7626 0.7643 0.7658 0.7672 0.7674
322.000000 0.7654 0.7618 0.7544 0.7441 0.7339
327.000000 0.7237 0.7135 0.7045 0.7029 0.7027
332.000000 0.7196 0.7365 0.7534 0.7702 0.7871
337.000000 0.8040 0.8208 0.8377 0.8427 0.8466
342.000000 0.8491 0.8511 0.8522 0.8520 0.8519
347.000000 0.8518 0.8517 0.8481 0.8513 0.8510
352.000000 0.8507 0.8504 0.8501 0.8498 0.8495
357.000000 0.8492 0.8490 0.8488 0.8486 0.8484
362.000000 0.8482 0.8480 0.8477 0.8472 0.8468
367.000000 0.8463 0.8458 0.8454 0.8449 0.8443
372.000000 0.8437 0.8431 0.8425 0.8419 0.8412
377.000000 0.8406 0.8400 0.8394 0.8387 0.8380
382.000000 0.8374 0.8367 0.8360 0.8354 0.8347
387.000000 0.8335 0.8323 0.8311 0.8298 0.8286
392.000000 0.8274 0.8260 0.8243 0.8227 0.8210
397.000000 0.8193 0.8177 0.8159 0.8141 0.8123
402.000000 0.8105 0.8087 0.8069 0.8039 0.8009
407.000000 0.7979 0.7939 0.7914 0.7918 0.7921
412.000000 0.7922 0.7923 0.7924 0.7925 0.7928
417.000000 0.7932 0.7925 0.7918 0.7910 0.7887
422.000000 0.7848 0.7801 0.7726 0.7646 0.7569
427.000000 0.7543 0.7486 0.7551 0.7613 0.7645
432.000000 0.7676 0.7696 0.7705 0.7703 0.7702
437.000000 0.7686 0.7697 0.7693 0.7688 0.7679
442.000000 0.7671 0.7661 0.7643 0.7623 0.7600
447.000000 0.7576 0.7542 0.7474 0.7378 0.7280
452.000000 0.7182 0.7099 0.7013 0.6919 0.6824
457.000000 0.6532 0.6338 0.6195 0.6052 0.5896
462.000000 0.5714 0.5536 0.5383 0.5210 0.4996
467.000000 0.4808 0.4291 0.3564 0.2836 0.2108
472.000000 0.1633 0.1396 0.1318 0.1241 0.1163
477.000000 0.1054 0.0969 0.0936 0.0915 0.0931
482.000000 0.0942 0.1011 0.1406 0.1802 0.1968
487.000000 0.2067 0.2130 0.2158 0.2177 0.2198
492.000000 0.2222 0.2491 0.2815 0.3139 0.3463
497.000000 0.3787 0.4111 0.4435 0.4759 0.5076
502.000000 0.5778 0.6371 0.6617 0.6762 0.6888
507.000000 0.6990 0.7087 0.7155 0.7222 0.7284
512.000000 0.7346 0.7405 0.7455 0.7506 0.7556
517.000000 0.7612 0.7664 0.7700 0.7736 0.7772
522.000000 0.7797 0.7815 0.7834 0.7852 0.7871
527.000000 0.7889 0.7907 0.7925 0.7944 0.7962
532.000000 0.7980 0.7999 0.8017 0.8036 0.8054
537.000000 0.8073 0.8090 0.8097 0.8104 0.8112
542.000000 0.8119 0.8120 0.8120 0.8120 0.8120
547.000000 0.8119 0.8117 0.8116 0.8114 0.8114
552.000000 0.8119 0.8124 0.8129 0.8146 0.8162
557.000000 0.8172 0.8175 0.8178 0.8182 0.8185
562.000000 0.8187 0.8188 0.8188 0.8189 0.8190
567.000000 0.8191 0.8217 0.8189 0.8188 0.8188
572.000000 0.8187 0.8186 0.8185 0.8184 0.8182
577.000000 0.8178 0.8174 0.8170 0.8166 0.8162
582.000000 0.8158 0.8147 0.8133 0.8120 0.8107
587.000000 0.8093 0.8079 0.8056 0.8034 0.8011
592.000000 0.7989 0.7960 0.7925 0.7890 0.7855
597.000000 0.7821 0.7771 0.7698 0.7625 0.7552
602.000000 0.7470 0.7380 0.7291 0.7191 0.7069
607.000000 0.6947 0.6679 0.6561 0.6457 0.6413
612.000000 0.6413 0.6394 0.6451 0.6493 0.6551
617.000000 0.6694 0.6819 0.6901 0.6991 0.7117
622.000000 0.7188 0.7203 0.7198 0.7214 0.7189
627.000000 0.7155 0.7112 0.7076 0.7032 0.6977
632.000000 0.6929 0.6885 0.6756 0.6445 0.6134
637.000000 0.5823 0.5512 0.5201 0.4890 0.4579
642.000000 0.4268 0.3957 0.3646 0.3417 0.3417
647.000000 0.3422 0.3419 0.5630 0.7090 0.7839
652.000000 0.7866 0.7864 0.7919 0.7839 0.7797
657.000000 0.7760 0.7717 0.7669 0.7621 0.7567
662.000000 0.7514 0.7497 0.7499 0.7454 0.7521
667.000000 0.7541 0.7604 0.7660 0.7722 0.7776
672.000000 0.7826 0.7873 0.7929 0.7997 0.8068
677.000000 0.8142 0.8225 0.8316 0.8406 0.8556
682.000000 0.8518 0.8518 0.8519 0.8519 0.8514
687.000000 0.8507 0.8493 0.8475 0.8441 0.8409
692.000000 0.8377 0.8343 0.8309 0.8275 0.8228
697.000000 0.8179 0.8130 0.8082 0.8036 0.7990
702.000000 0.7963 0.7935 0.7908 0.7881 0.7853
707.000000 0.7829 0.7806 0.7783 0.7760 0.7745
712.000000 0.7734 0.7723 0.7661 0.7717 0.7730
717.000000 0.7752 0.7840 0.7955 0.8107 0.8211
722.000000 0.8254 0.8297 0.8324 0.8327 0.8327
727.000000 0.8327 0.8322 0.8320 0.8312 0.8308
732.000000 0.8304 0.8301 0.8297 0.8294 0.8297
737.000000 0.8300 0.8305 0.8313 0.8321 0.8324
742.000000 0.8327 0.8321 0.8296 0.8265 0.8226
747.000000 0.8181 0.8135 0.8047 0.7958 0.7891
752.000000 0.7771 0.7779 0.7786 0.7860 0.7943
757.000000 0.8026 0.8109 0.8193 0.8258 0.8256
762.000000 0.8255 0.8242 0.8167 0.8093 0.8019
767.000000 0.7944 0.7870 0.7795 0.7721 0.7641
772.000000 0.7556 0.7514 0.7482 0.7462 0.7446
777.000000 0.7384 0.6913 0.6687 0.6550 0.6422
782.000000 0.6336 0.6234 0.6057 0.5936 0.5820
787.000000 0.5531 0.5014 0.3642 0.3980 0.3704
792.000000 0.4044 0.4383 0.4722 0.5062 0.5401
797.000000 0.5740 0.5889 0.5898 0.5891 0.5884
802.000000 0.5759 0.5580 0.5401 0.5222 0.5043
807.000000 0.4864 0.4685 0.4505 0.4326 0.4147
812.000000 0.3968 0.3789 0.3610 0.3543 0.3541
817.000000 0.3530 0.4564 0.5190 0.5816 0.6644
822.000000 0.6705 0.6758 0.6810 0.6851 0.6891
827.000000 0.6918 0.6952 0.6907 0.6891 0.6868
832.000000 0.6829 0.6784 0.6728 0.6585 0.6329
837.000000 0.6074 0.5818 0.5563 0.5307 0.5051
842.000000 0.4796 0.4540 0.4284 0.4029 0.3773
847.000000 0.3518 0.3455 0.3418 0.3671 0.3940
852.000000 0.4209 0.4477 0.4746 0.5015 0.5284
857.000000 0.5552 0.5821 0.6090 0.6358 0.6627
862.000000 0.6896 0.7086 0.7095 0.7103 0.7107
867.000000 0.7097 0.7098 0.7088 0.6979 0.6804
872.000000 0.6628 0.6452 0.6146 0.6158 0.6165
877.000000 0.6174 0.6203 0.6266 0.6334 0.6385
882.000000 0.6443 0.6505 0.6573 0.6673 0.6753
887.000000 0.6835 0.7011 0.7326 0.7642 0.7957
892.000000 0.8170 0.8347 0.8464 0.8525 0.8567
897.000000 0.8604 0.8640 0.8669 0.8693 0.8718
902.000000 0.8742 0.8770 0.8800 0.8828 0.8854
907.000000 0.8880 0.8902 0.8919 0.8936 0.8952
912.000000 0.8961 0.8969 0.8977 0.8985 0.8991
917.000000 0.8993 0.8995 0.8997 0.8999 0.9001
922.000000 0.9003 0.9005 0.9007 0.9068 0.9008
927.000000 0.9008 0.9009 0.9010 0.9010 0.9011
932.000000 0.9012 0.9012 0.9013 0.9014 0.9014
937.000000 0.9015 0.9011 0.9006 0.9002 0.8997
942.000000 0.8992 0.8986 0.8980 0.8974 0.8968
947.000000 0.8963 0.8956 0.8948 0.8941 0.8933
952.000000 0.8925 0.8918 0.8906 0.8890 0.8874
957.000000 0.8858 0.8823 0.8768 0.8686 0.8624
962.000000 0.8563 0.8570 0.8581 0.8766 0.8871
967.000000 0.8933 0.8983 0.9020 0.9046 0.9071
972.000000 0.9089 0.9099 0.9107 0.9116 0.9118
977.000000 0.9118 0.9110 0.9109 0.9102 0.9095
982.000000 0.9088 0.9072 0.9057 0.9041 0.9018
987.000000 0.8993 0.8969 0.8940 0.8903 0.8858
992.000000 0.8813 0.8772 0.8732 0.8696 0.8672
997.000000 0.8670 0.8672 0.8654 0.8738 0.8793
1002.000000 0.8875 0.8931 0.8982 0.9033 0.9034
1007.000000 0.9044 0.9036 0.9032 0.9014 0.8984
1012.000000 0.8949 0.8907 0.8869 0.8834 0.8783
1017.000000 0.8720 0.8692 0.8680 0.8671 0.8672
1022.000000 0.8673 0.8675 0.8679 0.8684 0.8704
1027.000000 0.8751 0.8845 0.8912 0.8961 0.8978
1032.000000 0.8992 0.9003 0.9009 0.9015 0.9021
1037.000000 0.9039 0.9028 0.9028 0.9022 0.9010
1042.000000 0.8996 0.8981 0.8966 0.8952 0.8937
1047.000000 0.8923 0.8914 0.8905 0.8899 0.8892
1052.000000 0.8886 0.8880 0.8874 0.8868 0.8863
1057.000000 0.8858 0.8853 0.8848 0.8843 0.8837
1062.000000 0.8832 0.8826 0.8820 0.8815 0.8809
1067.000000 0.8797 0.8785 0.8772 0.8739 0.8642
1072.000000 0.8544 0.8446 0.8348 0.8250 0.8152
1077.000000 0.8064 0.8049 0.8034 0.8070 0.8209
1082.000000 0.8348 0.8487 0.8627 0.8766 0.8905
1087.000000 0.9002 0.9058 0.9129 0.9198 0.9232
1092.000000 0.9265 0.9288 0.9305 0.9321 0.9331
1097.000000 0.9341 0.9352 0.9355 0.9357 0.9358
1102.000000 0.9359 0.9361 0.9363 0.9365 0.9367
1107.000000 0.9369 0.9371 0.9373 0.9375 0.9377
1112.000000 0.9378 0.9380 0.9382 0.9384 0.9385
1117.000000 0.9387 0.9389 0.9390 0.9391 0.9392
1122.000000 0.9392 0.9392 0.9393 0.9393 0.9394
1127.000000 0.9394 0.9395 0.9395 0.9396 0.9396
1132.000000 0.9397 0.9398 0.9423 0.9400 0.9401
1137.000000 0.9401 0.9402 0.9403 0.9404 0.9405
1142.000000 0.9407 0.9409 0.9410 0.9412 0.9414
1147.000000 0.9416 0.9417 0.9419 0.9418 0.9413
1152.000000 0.9407 0.9402 0.9396 0.9391 0.9386
1157.000000 0.9380 0.9375 0.9369 0.9353 0.9330
1162.000000 0.9305 0.9280 0.9255 0.9230 0.9196
1167.000000 0.9152 0.9107 0.9064 0.9027 0.8990
1172.000000 0.8953 0.8919 0.8885 0.8873 0.8897
1177.000000 0.8917 0.8927 0.8927 0.8905 0.8886
1182.000000 0.8864 0.8826 0.8786 0.8756 0.8726
1187.000000 0.8682 0.8599 0.8498 0.8411 0.8476
1192.000000 0.8503 0.8544 0.8589 0.8655 0.8719
1197.000000 0.8781 0.8851 0.8938 0.8986 0.9016
1202.000000 0.9046 0.9071 0.9087 0.9103 0.9118
1207.000000 0.9125 0.9129 0.9104 0.9128 0.9125
1212.000000 0.9122 0.9118 0.9111 0.9104 0.9097
1217.000000 0.9089 0.9082 0.9071 0.9058 0.9045
1222.000000 0.9032 0.9020 0.9009 0.8997 0.8984
1227.000000 0.8963 0.8942 0.8919 0.8895 0.8870
1232.000000 0.8846 0.8821 0.8795 0.8770 0.8746
1237.000000 0.8722 0.8699 0.8663 0.8601 0.8521
1242.000000 0.8386 0.8165 0.7982 0.7425 0.6653
1247.000000 0.5882 0.5110 0.4338 0.3567 0.3209
1252.000000 0.3205 0.3243 0.4088 0.4932 0.5777
1257.000000 0.6621 0.7704 0.7881 0.8104 0.8268
1262.000000 0.8457 0.8513 0.8542 0.8362 0.8181
1267.000000 0.8000 0.7819 0.7639 0.7458 0.7277
1272.000000 0.7097 0.6916 0.6735 0.6879 0.6988
1277.000000 0.7162 0.7264 0.7313 0.7343 0.7364
1282.000000 0.7379 0.7387 0.7383 0.7384 0.7380
1287.000000 0.7369 0.7354 0.7336 0.7309 0.7275
1292.000000 0.7186 0.7064 0.6942 0.6819 0.6697
1297.000000 0.6575 0.6550 0.6544 0.6555 0.7548
1302.000000 0.7641 0.7685 0.7741 0.7797 0.7855
1307.000000 0.7915 0.7976 0.8040 0.8125 0.8181
1312.000000 0.8203 0.8226 0.8238 0.8248 0.8242
1317.000000 0.8249 0.8246 0.8243 0.8240 0.8228
1322.000000 0.8203 0.8174 0.8138 0.8099 0.8058
1327.000000 0.8018 0.7977 0.7932 0.7887 0.7842
1332.000000 0.7797 0.7746 0.7694 0.7642 0.7586
1337.000000 0.7524 0.7381 0.7124 0.6866 0.6609
1342.000000 0.6572 0.6589 0.6849 0.7310 0.7635
1347.000000 0.7738 0.7791 0.7816 0.7833 0.7843
1352.000000 0.7848 0.7853 0.7858 0.7862 0.7866
1357.000000 0.7870 0.7873 0.7871 0.7872 0.7869
1362.000000 0.7853 0.7826 0.7793 0.7746 0.7700
1367.000000 0.7654 0.7611 0.7568 0.7508 0.7430
1372.000000 0.7338 0.7154 0.6710 0.5829 0.4948
1377.000000 0.4728 0.4727 0.4746 0.5557 0.6105
1382.000000 0.6653 0.6762 0.6813 0.6849 0.6864
1387.000000 0.6865 0.6816 0.6749 0.6675 0.6602
1392.000000 0.6528 0.6454 0.6381 0.6307 0.6233
1397.000000 0.6160 0.5994 0.5792 0.5591 0.5389
1402.000000 0.5188 0.4986 0.4785 0.4583 0.4381
1407.000000 0.4298 0.4303 0.4501 0.4328 0.5099
1412.000000 0.5398 0.5698 0.5997 0.6111 0.6214
1417.000000 0.6297 0.6380 0.6471 0.6576 0.6683
1422.000000 0.6794 0.6977 0.7052 0.7121 0.7166
1427.000000 0.7201 0.7204 0.7203 0.7199 0.7188
1432.000000 0.7173 0.7186 0.7050 0.6995 0.6940
1437.000000 0.6789 0.6684 0.6589 0.6498 0.6408
1442.000000 0.6238 0.6126 0.6028 0.5958 0.5918
1447.000000 0.5886 0.5856 0.5827 0.5717 0.5478
1452.000000 0.5240 0.5002 0.4764 0.4526 0.4304
1457.000000 0.4242 0.4195 0.4154 0.4109 0.4030
1462.000000 0.3855 0.3680 0.3505 0.3330 0.3114
1467.000000 0.3163 0.6015 0.6678 0.7101 0.7240
1472.000000 0.7330 0.7417 0.7497 0.7567 0.7631
1477.000000 0.7682 0.7732 0.7782 0.7839 0.7902
1482.000000 0.7966 0.8010 0.8054 0.8098 0.8127
1487.000000 0.8154 0.8180 0.8197 0.8214 0.8232
1492.000000 0.8243 0.8254 0.8265 0.8275 0.8286
1497.000000 0.8297 0.8308 0.8320 0.8334 0.8360
1502.000000 0.8387 0.8422 0.8451 0.8456 0.8460
1507.000000 0.8465 0.8470 0.8475 0.8479 0.8484
1512.000000 0.8489 0.8494 0.8498 0.8501 0.8502
1517.000000 0.8503 0.8504 0.8505 0.8517 0.8508
1522.000000 0.8510 0.8511 0.8513 0.8515 0.8517
1527.000000 0.8519 0.8521 0.8523 0.8526 0.8530
1532.000000 0.8533 0.8536 0.8539 0.8542 0.8545
1537.000000 0.8548 0.8552 0.8555 0.8557 0.8558
1542.000000 0.8560 0.8561 0.8563 0.8564 0.8566
1547.000000 0.8568 0.8570 0.8572 0.8574 0.8576
1552.000000 0.8578 0.8580 0.8582 0.8584 0.8586
1557.000000 0.8588 0.8595 0.8602 0.8609 0.8615
1562.000000 0.8622 0.8629 0.8636 0.8643 0.8650
1567.000000 0.8656 0.8659 0.8662 0.8665 0.8669
1572.000000 0.8672 0.8675 0.8678 0.8682 0.8684
1577.000000 0.8687 0.8689 0.8692 0.8694 0.8697
1582.000000 0.8699 0.8702 0.8707 0.8712 0.8717
1587.000000 0.8722 0.8727 0.8732 0.8737 0.8742
1592.000000 0.8747 0.8752 0.8757 0.8762 0.8767
1597.000000 0.8772 0.8777 0.8780 0.8783 0.8786
1602.000000 0.8790 0.8793 0.8796 0.8799 0.8802
1607.000000 0.8805 0.8807 0.8807 0.8808 0.8808
1612.000000 0.8808 0.8808 0.8808 0.8808 0.8808
1617.000000 0.8808 0.8808 0.8808 0.8808 0.8807
1622.000000 0.8806 0.8805 0.8804 0.8803 0.8802
1627.000000 0.8801 0.8800 0.8799 0.8798 0.8797
1632.000000 0.8796 0.8795 0.8794 0.8795 0.8795
1637.000000 0.8796 0.8796 0.8797 0.8797 0.8798
1642.000000 0.8798 0.8799 0.8800 0.8802 0.8804
1647.000000 0.8805 0.8807 0.8819 0.8832 0.8844
1652.000000 0.8856 0.8866 0.8870 0.8870 0.8862
1657.000000 0.8853 0.8844 0.8836 0.8827 0.8820
1662.000000 0.8815 0.8810 0.8804 0.8800 0.8797
1667.000000 0.8794 0.8790 0.8787 0.8784 0.8784
1672.000000 0.8787 0.8790 0.8794 0.8797 0.8800
1677.000000 0.8804 0.8807 0.8808 0.8810 0.8811
1682.000000 0.8813 0.8815 0.8816 0.8818 0.8819
1687.000000 0.8821 0.8823 0.8827 0.8831 0.8835
1692.000000 0.8839 0.8843 0.8847 0.8851 0.8855
1697.000000 0.8858 0.8862 0.8864 0.8865 0.8867
1702.000000 0.8869 0.8871 0.8873 0.8874 0.8875
1707.000000 0.8875 0.8876 0.8877 0.8878 0.8879
1712.000000 0.8880 0.8880 0.8881 0.8882 0.8883
1717.000000 0.8884 0.8884 0.8885 0.8886 0.8887
1722.000000 0.8888 0.8888 0.8889 0.8890 0.8891
1727.000000 0.8892 0.8892 0.8893 0.8894 0.8895
1732.000000 0.8896 0.8897 0.8897 0.8898 0.8899
1737.000000 0.8900 0.8901 0.8901 0.8902 0.8903
1742.000000 0.8904 0.8905 0.8905 0.8906 0.8907
1747.000000 0.8909 0.8912 0.8916 0.8920 0.8924
1752.000000 0.8926 0.8929 0.8931 0.8933 0.8936
1757.000000 0.8938 0.8940 0.8943 0.8945 0.8948
1762.000000 0.8951 0.8954 0.8957 0.8961 0.8964
1767.000000 0.8967 0.8971 0.8974 0.8977 0.8981
1772.000000 0.8983 0.8984 0.8984 0.8985 0.8986
1777.000000 0.8987 0.8988 0.8988 0.8989 0.8990
1782.000000 0.8991 0.8991 0.8989 0.8987 0.8986
1787.000000 0.8984 0.8983 0.8981 0.8979 0.8978
1792.000000 0.8976 0.8975 0.8973 0.8972 0.8970
1797.000000 0.8968 0.8967 0.8965 0.8964 0.8962
1802.000000 0.8961 0.8959 0.8959 0.8960 0.8961
1807.000000 0.8963 0.8964 0.8965 0.8966 0.8967
1812.000000 0.8968 0.8969 0.8970 0.8971 0.8972
1817.000000 0.8973 0.8974 0.8975 0.8976 0.8978
1822.000000 0.8979 0.8980 0.8981 0.8983 0.8984
1827.000000 0.8985 0.8986 0.8988 0.8989 0.8990
1832.000000 0.8991 0.8991 0.8989 0.8988 0.8986
1837.000000 0.8985 0.8983 0.8982 0.8980 0.8979
1842.000000 0.8977 0.8976 0.8974 0.8973 0.8971
1847.000000 0.8970 0.8968 0.8966 0.8963 0.8961
1852.000000 0.8959 0.8957 0.8955 0.8953 0.8951
1857.000000 0.8949 0.8947 0.8945 0.8942 0.8939
1862.000000 0.8936 0.8933 0.8930 0.8927 0.8924
1867.000000 0.8922 0.8919 0.8916 0.8913 0.8910
1872.000000 0.8907 0.8904 0.8898 0.8891 0.8885
1877.000000 0.8878 0.8872 0.8865 0.8859 0.8852
1882.000000 0.8846 0.8839 0.8833 0.8820 0.8807
1887.000000 0.8793 0.8780 0.8764 0.8749 0.8734
1892.000000 0.8719 0.8703 0.8689 0.8676 0.8664
1897.000000 0.8619 0.8639 0.8637 0.8640 0.8648
1902.000000 0.8662 0.8678 0.8709 0.8739 0.8762
1907.000000 0.8781 0.8800 0.8814 0.8826 0.8837
1912.000000 0.8849 0.8851 0.8852 0.8854 0.8853
1917.000000 0.8852 0.8851 0.8849 0.8844 0.8839
1922.000000 0.8862 0.8828 0.8822 0.8817 0.8814
1927.000000 0.8811 0.8809 0.8806 0.8803 0.8801
1932.000000 0.8798 0.8795 0.8793 0.8790 0.8787
1937.000000 0.8785 0.8782 0.8779 0.8768 0.8757
1942.000000 0.8747 0.8736 0.8732 0.8730 0.8727
1947.000000 0.8700 0.8723 0.8720 0.8722 0.8727
1952.000000 0.8731 0.8737 0.8743 0.8748 0.8754
1957.000000 0.8760 0.8766 0.8772 0.8779 0.8785
1962.000000 0.8791 0.8798 0.8802 0.8805 0.8807
1967.000000 0.8809 0.8812 0.8814 0.8816 0.8819
1972.000000 0.8821 0.8824 0.8826 0.8828 0.8831
1977.000000 0.8833 0.8835 0.8838 0.8840 0.8842
1982.000000 0.8845 0.8847 0.8849 0.8851 0.8854
1987.000000 0.8856 0.8859 0.8861 0.8864 0.8867
1992.000000 0.8869 0.8872 0.8875 0.8877 0.8880
1997.000000 0.8883 0.8885 0.8888 0.8891 0.8893
2002.000000 0.8895 0.8896 0.8897 0.8897 0.8898
2007.000000 0.8899 0.8900 0.8901 0.8902 0.8903
2012.000000 0.8904 0.8904 0.8905 0.8906 0.8907
2017.000000 0.8905 0.8904 0.8900 0.8897 0.8893
2022.000000 0.8890 0.8884 0.8879 0.8870 0.8862
2027.000000 0.8854 0.8846 0.8837 0.8829 0.8822
2032.000000 0.8816 0.8809 0.8803 0.8797 0.8791
2037.000000 0.8784 0.8778 0.8771 0.8765 0.8760
2042.000000 0.8755 0.8752 0.8750 0.8747 0.8744
2047.000000 0.8744 0.8744 0.8747 0.8750 0.8758
2052.000000 0.8766 0.8774 0.8782 0.8789 0.8797
2057.000000 0.8805 0.8813 0.8820 0.8828 0.8835
2062.000000 0.8842 0.8843 0.8844 0.8845 0.8846
2067.000000 0.8847 0.8848 0.8848 0.8849 0.8849
2072.000000 0.8849 0.8849 0.8850 0.8850 0.8850
2077.000000 0.8850 0.8850 0.8850 0.8850 0.8850
2082.000000 0.8850 0.8850 0.8850 0.8850 0.8850
2087.000000 0.8850 0.8850 0.8852 0.8854 0.8856
2092.000000 0.8858 0.8860 0.8863 0.8865 0.8867
2097.000000 0.8869 0.8871 0.8872 0.8874 0.8875
2102.000000 0.8876 0.8877 0.8879 0.8880 0.8882
2107.000000 0.8883 0.8885 0.8886 0.8888 0.8889
2112.000000 0.8891 0.8892 0.8893 0.8894 0.8896
2117.000000 0.8897 0.8899 0.8900 0.8902 0.8903
2122.000000 0.8905 0.8906 0.8908 0.8909 0.8911
2127.000000 0.8912 0.8913 0.8914 0.8916 0.8917
2132.000000 0.8919 0.8920 0.8921 0.8920 0.8920
2137.000000 0.8919 0.8919 0.8918 0.8918 0.8918
2142.000000 0.8918 0.8917 0.8917 0.8917 0.8917
2147.000000 0.8917 0.8917 0.8916 0.8916 0.8916
2152.000000 0.8916 0.8916 0.8916 0.8915 0.8915
2157.000000 0.8915 0.8915 0.8915 0.8915 0.8914
2162.000000 0.8914 0.8913 0.8913 0.8912 0.8912
2167.000000 0.8911 0.8911 0.8910 0.8909 0.8908
2172.000000 0.8908 0.8907 0.8907 0.8906 0.8906
2177.000000 0.8905 0.8905 0.8904 0.8904 0.8904
2182.000000 0.8905 0.8905 0.8905 0.8905 0.8906
2187.000000 0.8906 0.8906 0.8906 0.8907 0.8907
2192.000000 0.8907 0.8907 0.8908 0.8908 0.8908
2197.000000 0.8908 0.8909 0.8909 0.8909 0.8909
2202.000000 0.8909 0.8909 0.8909 0.8909 0.8909
2207.000000 0.8909 0.8909 0.8909 0.8909 0.8909
2212.000000 0.8909 0.8909 0.8909 0.8909 0.8909
2217.000000 0.8909 0.8910 0.8910 0.8910 0.8910
2222.000000 0.8910 0.8909 0.8909 0.8908 0.8908
2227.000000 0.8908 0.8908 0.8907 0.8907 0.8907
2232.000000 0.8907 0.8906 0.8906 0.8905 0.8905
2237.000000 0.8905 0.8905 0.8904 0.8904 0.8904
2242.000000 0.8904 0.8903 0.8903 0.8903 0.8903
2247.000000 0.8903 0.8903 0.8903 0.8903 0.8903
2252.000000 0.8903 0.8903 0.8903 0.8903 0.8904
2257.000000 0.8904 0.8904 0.8904 0.8905 0.8905
2262.000000 0.8906 0.8906 0.8907 0.8907 0.8908
2267.000000 0.8908 0.8909 0.8909 0.8910 0.8910
2272.000000 0.8911 0.8911 0.8912 0.8912 0.8913
2277.000000 0.8913 0.8914 0.8914 0.8915 0.8915
2282.000000 0.8916 0.8917 0.8918 0.8918 0.8919
2287.000000 0.8919 0.8920 0.8920 0.8920 0.8920
2292.000000 0.8920 0.8919 0.8919 0.8919 0.8919
2297.000000 0.8919 0.8919 0.8918 0.8918 0.8918
2302.000000 0.8918 0.8917 0.8917 0.8915 0.8914
2307.000000 0.8910 0.8907 0.8903 0.8900 0.8896
2312.000000 0.8892 0.8888 0.8885 0.8881 0.8878
2317.000000 0.8874 0.8871 0.8868 0.8865 0.8862
2322.000000 0.8860 0.8857 0.8855 0.8852 0.8850
2327.000000 0.8848 0.8846 0.8847 0.8848 0.8848
2332.000000 0.8849 0.8850 0.8851 0.8852 0.8853
2337.000000 0.8853 0.8854 0.8855 0.8856 0.8856
2342.000000 0.8857 0.8857 0.8858 0.8858 0.8859
2347.000000 0.8859 0.8860 0.8861 0.8862 0.8861
2352.000000 0.8860 0.8859 0.8858 0.8857 0.8856
2357.000000 0.8855 0.8854 0.8853 0.8852 0.8851
2362.000000 0.8850 0.8849 0.8848 0.8847 0.8847
2367.000000 0.8847 0.8847 0.8847 0.8847 0.8847
2372.000000 0.8848 0.8848 0.8848 0.8849 0.8850
2377.000000 0.8851 0.8853 0.8855 0.8857 0.8860
2382.000000 0.8863 0.8868 0.8874 0.8880 0.8886
2387.000000 0.8892 0.8898 0.8903 0.8908 0.8912
2392.000000 0.8917 0.8917 0.8918 0.8918 0.8919
2397.000000 0.8920 0.8921 0.8921 0.8921 0.8919
2402.000000 0.8918 0.8917 0.8916 0.8914 0.8913
2407.000000 0.8912 0.8911 0.8909 0.8908 0.8907
2412.000000 0.8906 0.8904 0.8903 0.8902 0.8901
2417.000000 0.8900 0.8900 0.8899 0.8898 0.8897
2422.000000 0.8896 0.8895 0.8895 0.8894 0.8893
2427.000000 0.8892 0.8891 0.8889 0.8888 0.8886
2432.000000 0.8885 0.8883 0.8882 0.8880 0.8879
2437.000000 0.8877 0.8876 0.8874 0.8873 0.8871
2442.000000 0.8870 0.8869 0.8869 0.8869 0.8869
2447.000000 0.8868 0.8868 0.8867 0.8867 0.8867
2452.000000 0.8867 0.8866 0.8865 0.8863 0.8861
2457.000000 0.8859 0.8857 0.8855 0.8854 0.8852
2462.000000 0.8850 0.8848 0.8846 0.8845 0.8844
2467.000000 0.8843 0.8843 0.8842 0.8842 0.8841
2472.000000 0.8841 0.8841 0.8841 0.8841 0.8841
2477.000000 0.8840 0.8839 0.8836 0.8834 0.8831
2482.000000 0.8828 0.8825 0.8823 0.8816 0.8809
2487.000000 0.8801 0.8794 0.8790 0.8786 0.8783
2492.000000 0.8780 0.8777 0.8774 0.8771 0.8768
2497.000000 0.8765 0.8762 0.8759 0.8756 0.8755
2502.000000 0.8754 0.8754 0.8754 0.8756 0.8758
2507.000000 0.8761 0.8764 0.8767 0.8770 0.8773
2512.000000 0.8777 0.8780 0.8784 0.8786 0.8789
2517.000000 0.8789 0.8790 0.8790 0.8791 0.8791
2522.000000 0.8792 0.8792 0.8793 0.8793 0.8794
2527.000000 0.8794 0.8794 0.8794 0.8795 0.8795
2532.000000 0.8796 0.8796 0.8797 0.8797 0.8797
2537.000000 0.8797 0.8797 0.8796 0.8796 0.8795
2542.000000 0.8795 0.8795 0.8795 0.8794 0.8794
2547.000000 0.8793 0.8793 0.8793 0.8793 0.8792
2552.000000 0.8792 0.8791 0.8791 0.8790 0.8790
2557.000000 0.8789 0.8789 0.8788 0.8787 0.8786
2562.000000 0.8786 0.8785 0.8785 0.8784 0.8783
2567.000000 0.8782 0.8782 0.8781 0.8780 0.8779
2572.000000 0.8779 0.8778 0.8778 0.8777 0.8776
2577.000000 0.8773 0.8771 0.8768 0.8766 0.8763
2582.000000 0.8761 0.8758 0.8755 0.8752 0.8750
2587.000000 0.8746 0.8742 0.8737 0.8733 0.8728
2592.000000 0.8724 0.8720 0.8716 0.8711 0.8707
2597.000000 0.8701 0.8695 0.8689 0.8684 0.8678
2602.000000 0.8673 0.8667 0.8661 0.8655 0.8650
2607.000000 0.8644 0.8639 0.8633 0.8627 0.8622
2612.000000 0.8618 0.8619 0.8620 0.8629 0.8638
2617.000000 0.8648 0.8659 0.8660 0.8661 0.8660
2622.000000 0.8659 0.8657 0.8656 0.8653 0.8651
2627.000000 0.8648 0.8645 0.8642 0.8640 0.8636
2632.000000 0.8633 0.8630 0.8627 0.8623 0.8620
2637.000000 0.8616 0.8613 0.8610 0.8607 0.8603
2642.000000 0.8600 0.8596 0.8593 0.8590 0.8587
2647.000000 0.8583 0.8580 0.8577 0.8574 0.8570
2652.000000 0.8567 0.8564 0.8562 0.8560 0.8559
2657.000000 0.8557 0.8555 0.8553 0.8551 0.8549
2662.000000 0.8547 0.8547 0.8548 0.8548 0.8548
2667.000000 0.8548 0.8549 0.8549 0.8549 0.8549
2672.000000 0.8550 0.8550 0.8550 0.8550 0.8551
2677.000000 0.8551 0.8551 0.8551 0.8552 0.8554
2682.000000 0.8556 0.8559 0.8563 0.8566 0.8570
2687.000000 0.8573 0.8577 0.8580 0.8584 0.8587
2692.000000 0.8591 0.8594 0.8598 0.8601 0.8605
2697.000000 0.8608 0.8611 0.8614 0.8617 0.8619
2702.000000 0.8622 0.8624 0.8627 0.8630 0.8633
2707.000000 0.8634 0.8635 0.8628 0.8621 0.8611
2712.000000 0.8602 0.8593 0.8584 0.8574 0.8565
2717.000000 0.8556 0.8548 0.8539 0.8530 0.8521
2722.000000 0.8513 0.8503 0.8494 0.8484 0.8475
2727.000000 0.8465 0.8455 0.8445 0.8436 0.8426
2732.000000 0.8416 0.8404 0.8393 0.8380 0.8368
2737.000000 0.8355 0.8342 0.8329 0.8316 0.8312
2742.000000 0.8308 0.8312 0.8310 0.8324 0.8333
2747.000000 0.8349 0.8365 0.8372 0.8379 0.8379
2752.000000 0.8379 0.8379 0.8379 0.8379 0.8379
2757.000000 0.8379 0.8379 0.8379 0.8379 0.8379
2762.000000 0.8379 0.8374 0.8370 0.8365 0.8360
2767.000000 0.8350 0.8340 0.8327 0.8315 0.8301
2772.000000 0.8288 0.8265 0.8243 0.8220 0.8198
2777.000000 0.8173 0.8148 0.8110 0.8073 0.8035
2782.000000 0.7998 0.7957 0.7916 0.7874 0.7833
2787.000000 0.7795 0.7758 0.7722 0.7687 0.7655
2792.000000 0.7623 0.7607 0.7592 0.7584 0.7576
2797.000000 0.7575 0.7575 0.7576 0.7577 0.7577
2802.000000 0.7578 0.7579 0.7581 0.7584 0.7587
2807.000000 0.7591 0.7595 0.7600 0.7605 0.7607
2812.000000 0.7609 0.7609 0.7609 0.7608 0.7607
2817.000000 0.7600 0.7594 0.7584 0.7575 0.7564
2822.000000 0.7553 0.7540 0.7527 0.7508 0.7489
2827.000000 0.7469 0.7449 0.7428 0.7407 0.7386
2832.000000 0.7365 0.7342 0.7320 0.7298 0.7276
2837.000000 0.7247 0.7218 0.7188 0.7159 0.7129
2842.000000 0.7100 0.7067 0.7035 0.7003 0.6971
2847.000000 0.6937 0.6903 0.6866 0.6830 0.6792
2852.000000 0.6754 0.6688 0.6623 0.6131 0.5640
2857.000000 0.5434 0.5229 0.4681 0.4133 0.3709
2862.000000 0.3285 0.2860 0.2436 0.2030 0.1624
2867.000000 0.1618 0.1613 0.1621 0.1575 0.1658
2872.000000 0.1687 0.1715 0.1744 0.1763 0.1782
2877.000000 0.1738 0.1694 0.1603 0.1513 0.1448
2882.000000 0.1383 0.1377 0.1327 0.1370 0.1370
2887.000000 0.1518 0.1666 0.1974 0.2283 0.2591
2892.000000 0.2900 0.3142 0.3385 0.3383 0.3396
2897.000000 0.3373 0.3365 0.3325 0.3285 0.3196
2902.000000 0.3108 0.3019 0.2931 0.2842 0.2754
2907.000000 0.2665 0.2577 0.2488 0.2400 0.2366
2912.000000 0.2333 0.2301 0.2269 0.2234 0.2200
2917.000000 0.2160 0.2120 0.2053 0.1986 0.1851
2922.000000 0.1717 0.1567 0.1418 0.1269 0.1120
2927.000000 0.0970 0.0821 0.0671 0.0522 0.0436
2932.000000 0.0350 0.0313 0.0276 0.0264 0.0253
2937.000000 0.0248 0.0221 0.0246 0.0249 0.0255
2942.000000 0.0262 0.0440 0.0618 0.0933 0.1249
2947.000000 0.1565 0.1881 0.1907 0.1934 0.1934
2952.000000 0.1934 0.1931 0.1946 0.1921 0.1914
2957.000000 0.1801 0.1689 0.1542 0.1395 0.1248
2962.000000 0.1101 0.0954 0.0807 0.0660 0.0514
2967.000000 0.0375 0.0236 0.0179 0.0123 0.0113
2972.000000 0.0104 0.0105 0.0104 0.0132 0.0157
2977.000000 0.0272 0.0387 0.0502 0.0617 0.0701
2982.000000 0.0785 0.1089 0.1394 0.1698 0.2003
2987.000000 0.2307 0.2612 0.2916 0.3221 0.3526
2992.000000 0.3831 0.4135 0.4440 0.4732 0.5025
2997.000000 0.5063 0.5102 0.5168 0.5234 0.5330
3002.000000 0.5427 0.5531 0.5635 0.5927 0.6220
3007.000000 0.6502 0.6784 0.6865 0.6946 0.7026
3012.000000 0.7106 0.7189 0.7272 0.7350 0.7428
3017.000000 0.7468 0.7509 0.7550 0.7591 0.7626
3022.000000 0.7662 0.7692 0.7722 0.7751 0.7781
3027.000000 0.7809 0.7837 0.7862 0.7887 0.7912
3032.000000 0.7937 0.7962 0.7988 0.8005 0.8022
3037.000000 0.8038 0.8055 0.8071 0.8087 0.8103
3042.000000 0.8119 0.8135 0.8151 0.8165 0.8179
3047.000000 0.8192 0.8206 0.8220 0.8234 0.8247
3052.000000 0.8261 0.8275 0.8289 0.8302 0.8316
3057.000000 0.8322 0.8329 0.8336 0.8343 0.8349
3062.000000 0.8356 0.8362 0.8369 0.8375 0.8382
3067.000000 0.8389 0.8396 0.8402 0.8409 0.8415
3072.000000 0.8422 0.8428 0.8434 0.8439 0.8444
3077.000000 0.8449 0.8455 0.8460 0.8465 0.8470
3082.000000 0.8476 0.8481 0.8486 0.8491 0.8496
3087.000000 0.8500 0.8505 0.8509 0.8513 0.8517
3092.000000 0.8521 0.8525 0.8529 0.8531 0.8534
3097.000000 0.8535 0.8536 0.8537 0.8539 0.8540
3102.000000 0.8542 0.8543 0.8545 0.8546 0.8548
3107.000000 0.8548 0.8549 0.8549 0.8550 0.8550
3112.000000 0.8551 0.8551 0.8552 0.8556 0.8560
3117.000000 0.8565 0.8570 0.8575 0.8580 0.8585
3122.000000 0.8590 0.8595 0.8601 0.8606 0.8611
3127.000000 0.8615 0.8619 0.8623 0.8627 0.8631
3132.000000 0.8635 0.8639 0.8643 0.8645 0.8648
3137.000000 0.8648 0.8649 0.8649 0.8649 0.8647
3142.000000 0.8645 0.8642 0.8639 0.8636 0.8633
3147.000000 0.8630 0.8627 0.8624 0.8621 0.8619
3152.000000 0.8618 0.8616 0.8614 0.8613 0.8612
3157.000000 0.8614 0.8617 0.8619 0.8622 0.8624
3162.000000 0.8626 0.8628 0.8631 0.8634 0.8637
3167.000000 0.8641 0.8646 0.8650 0.8655 0.8659
3172.000000 0.8663 0.8667 0.8672 0.8675 0.8665
3177.000000 0.8680 0.8683 0.8685 0.8688 0.8690
3182.000000 0.8693 0.8696 0.8699 0.8701 0.8704
3187.000000 0.8706 0.8709 0.8711 0.8714 0.8716
3192.000000 0.8719 0.8721 0.8723 0.8725 0.8727
3197.000000 0.8729 0.8731 0.8733 0.8735 0.8737
3202.000000 0.8740 0.8742 0.8745 0.8747 0.8749
3207.000000 0.8751 0.8754 0.8756 0.8759 0.8762
3212.000000 0.8766 0.8772 0.8778 0.8784 0.8790
3217.000000 0.8795 0.8800 0.8804 0.8809 0.8813
3222.000000 0.8818 0.8822 0.8827 0.8831 0.8836
3227.000000 0.8840 0.8845 0.8850 0.8856 0.8864
3232.000000 0.8873 0.8881 0.8890 0.8896 0.8902
3237.000000 0.8908 0.8914 0.8917 0.8920 0.8922
3242.000000 0.8925 0.8927 0.8930 0.8932 0.8934
3247.000000 0.8936 0.8939 0.8941 0.8943 0.8945
3252.000000 0.8948 0.8950 0.8953 0.8955 0.8957
3257.000000 0.8959 0.8962 0.8963 0.8964 0.8964
3262.000000 0.8964 0.8964 0.8964 0.8963 0.8962
3267.000000 0.8961 0.8960 0.8959 0.8958 0.8957
3272.000000 0.8956 0.8955 0.8954 0.8953 0.8953
3277.000000 0.8952 0.8951 0.8950 0.8949 0.8948
3282.000000 0.8947 0.8946 0.8945 0.8945 0.8945
3287.000000 0.8944 0.8944 0.8943 0.8943 0.8942
3292.000000 0.8942 0.8941 0.8941 0.8941 0.8941
3297.000000 0.8940 0.8940 0.8939 0.8939 0.8938
3302.000000 0.8938 0.8937 0.8937 0.8937 0.8937
3307.000000 0.8936 0.8936 0.8935 0.8935 0.8934
3312.000000 0.8934 0.8933 0.8933 0.8932 0.8932
3317.000000 0.8931 0.8931 0.8930 0.8930 0.8930
3322.000000 0.8930 0.8929 0.8929 0.8928 0.8927
3327.000000 0.8926 0.8925 0.8924 0.8923 0.8922
3332.000000 0.8921 0.8920 0.8919 0.8918 0.8917
3337.000000 0.8916 0.8915 0.8914 0.8913 0.8912
3342.000000 0.8911 0.8910 0.8909 0.8907 0.8906
3347.000000 0.8905 0.8904 0.8903 0.8903 0.8902
3352.000000 0.8902 0.8902 0.8902 0.8902 0.8902
3357.000000 0.8902 0.8902 0.8902 0.8902 0.8902
3362.000000 0.8902 0.8901 0.8901 0.8901 0.8901
3367.000000 0.8901 0.8901 0.8901 0.8901 0.8901
3372.000000 0.8901 0.8900 0.8900 0.8900 0.8900
3377.000000 0.8900 0.8900 0.8900 0.8901 0.8901
3382.000000 0.8902 0.8902 0.8903 0.8903 0.8904
3387.000000 0.8904 0.8905 0.8905 0.8905 0.8905
3392.000000 0.8906 0.8906 0.8907 0.8907 0.8908
3397.000000 0.8908 0.8909 0.8909 0.8910 0.8910
3402.000000 0.8911 0.8911 0.8912 0.8912 0.8912
3407.000000 0.8913 0.8914 0.8914 0.8915 0.8915
3412.000000 0.8916 0.8916 0.8917 0.8917 0.8918
3417.000000 0.8919 0.8920 0.8920 0.8921 0.8921
3422.000000 0.8922 0.8922 0.8923 0.8924 0.8925
3427.000000 0.8925 0.8926 0.8926 0.8927 0.8927
3432.000000 0.8928 0.8928 0.8929 0.8928 0.8928
3437.000000 0.8928 0.8928 0.8927 0.8927 0.8926
3442.000000 0.8926 0.8925 0.8925 0.8924 0.8924
3447.000000 0.8923 0.8923 0.8922 0.8922 0.8921
3452.000000 0.8921 0.8920 0.8920 0.8919 0.8919
3457.000000 0.8919 0.8919 0.8918 0.8918 0.8917
3462.000000 0.8917 0.8916 0.8916 0.8915 0.8915
3467.000000 0.8914 0.8914 0.8913 0.8913 0.8912
3472.000000 0.8912 0.8911 0.8911 0.8911 0.8911
3477.000000 0.8910 0.8910 0.8909 0.8909 0.8908
3482.000000 0.8908 0.8907 0.8907 0.8907 0.8907
3487.000000 0.8906 0.8906 0.8905 0.8905 0.8904
3492.000000 0.8904 0.8903 0.8903 0.8903 0.8903
3497.000000 0.8902 0.8902 0.8901 0.8901 0.8900
3502.000000 0.8900 0.8899 0.8899 0.8899 0.8899
3507.000000 0.8898 0.8897 0.8896 0.8896 0.8895
3512.000000 0.8894 0.8893 0.8892 0.8891 0.8891
3517.000000 0.8890 0.8889 0.8888 0.8887 0.8886
3522.000000 0.8886 0.8885 0.8884 0.8883 0.8882
3527.000000 0.8881 0.8881 0.8880 0.8879 0.8878
3532.000000 0.8877 0.8876 0.8876 0.8875 0.8874
3537.000000 0.8873 0.8872 0.8871 0.8871 0.8870
3542.000000 0.8869 0.8868 0.8867 0.8866 0.8866
3547.000000 0.8865 0.8864 0.8863 0.8862 0.8861
3552.000000 0.8861 0.8860 0.8859 0.8858 0.8858
3557.000000 0.8857 0.8856 0.8855 0.8855 0.8854
3562.000000 0.8854 0.8853 0.8853 0.8852 0.8851
3567.000000 0.8850 0.8850 0.8849 0.8849 0.8848
3572.000000 0.8847 0.8846 0.8846 0.8845 0.8845
3577.000000 0.8844 0.8844 0.8843 0.8842 0.8841
3582.000000 0.8841 0.8840 0.8840 0.8840 0.8840
3587.000000 0.8840 0.8840 0.8839 0.8839 0.8839
3592.000000 0.8839 0.8839 0.8839 0.8839 0.8839
3597.000000 0.8838 0.8838 0.8838 0.8838 0.8838
3602.000000 0.8838 0.8837 0.8837 0.8836 0.8836
3607.000000 0.8835 0.8834 0.8833 0.8832 0.8831
3612.000000 0.8831 0.8830 0.8829 0.8828 0.8828
3617.000000 0.8827 0.8826 0.8825 0.8824 0.8823
3622.000000 0.8823 0.8822 0.8821 0.8820 0.8819
3627.000000 0.8818 0.8817 0.8816 0.8815 0.8814
3632.000000 0.8813 0.8812 0.8811 0.8810 0.8809
3637.000000 0.8806 0.8803 0.8800 0.8797 0.8793
3642.000000 0.8790 0.8787 0.8784 0.8781 0.8778
3647.000000 0.8774 0.8771 0.8767 0.8764 0.8761
3652.000000 0.8758 0.8754 0.8751 0.8747 0.8744
3657.000000 0.8740 0.8737 0.8733 0.8730 0.8726
3662.000000 0.8723 0.8721 0.8720 0.8719 0.8719
3667.000000 0.8718 0.8717 0.8716 0.8716 0.8715
3672.000000 0.8714 0.8714 0.8715 0.8715 0.8715
3677.000000 0.8715 0.8715 0.8715 0.8715 0.8715
3682.000000 0.8715 0.8715 0.8715 0.8715 0.8715
3687.000000 0.8715 0.8715 0.8714 0.8713 0.8711
3692.000000 0.8710 0.8708 0.8707 0.8705 0.8704
3697.000000 0.8703 0.8702 0.8700 0.8699 0.8697
3702.000000 0.8696 0.8694 0.8693 0.8692 0.8692
3707.000000 0.8691 0.8690 0.8689 0.8689 0.8688
3712.000000 0.8687 0.8686 0.8686 0.8685 0.8685
3717.000000 0.8684 0.8683 0.8683 0.8683 0.8684
3722.000000 0.8686 0.8687 0.8689 0.8691 0.8693
3727.000000 0.8694 0.8696 0.8697 0.8699 0.8700
3732.000000 0.8702 0.8704 0.8706 0.8707 0.8709
3737.000000 0.8711 0.8713 0.8715 0.8718 0.8720
3742.000000 0.8722 0.8724 0.8726 0.8728 0.8731
3747.000000 0.8731 0.8731 0.8729 0.8727 0.8724
3752.000000 0.8722 0.8720 0.8718 0.8713 0.8708
3757.000000 0.8703 0.8698 0.8693 0.8688 0.8683
3762.000000 0.8678 0.8676 0.8674 0.8672 0.8670
3767.000000 0.8668 0.8667 0.8665 0.8663 0.8663
3772.000000 0.8663 0.8664 0.8665 0.8666 0.8668
3777.000000 0.8669 0.8670 0.8671 0.8673 0.8674
3782.000000 0.8676 0.8678 0.8680 0.8684 0.8688
3787.000000 0.8692 0.8696 0.8700 0.8704 0.8708
3792.000000 0.8712 0.8716 0.8721 0.8725 0.8729
3797.000000 0.8733 0.8738 0.8743 0.8748 0.8753
3802.000000 0.8758 0.8763 0.8769 0.8774 0.8780
3807.000000 0.8785 0.8790 0.8795 0.8801 0.8806
3812.000000 0.8811 0.8816 0.8822 0.8827 0.8833
3817.000000 0.8838 0.8843 0.8845 0.8847
##END=
