##TITLE=2-METHYL 6-METHYLENE 2-OCTENE
##JCAMP-DX=4.24
##DATA TYPE=INFRARED SPECTRUM
##CLASS=COBLENTZ
##ORIGIN=INTERNATIONAL FLAVORS & FRAGRANCES, INC.
##OWNER=COBLENTZ SOCIETY
Collection (C) 2018 copyright by the U.S. Secretary of Commerce
on behalf of the United States of America. All rights reserved.
##DATE=Not specified, most likely prior to 1970
##NAMES=2-ethyl-6-methyl-1,5-heptadiene
##CAS REGISTRY NO=10054-09-8
##MOLFORM=C10 H18
##SOURCE REFERENCE=COBLENTZ NO. 4953
##$NIST SOURCE=COBLENTZ
##$NIST IMAGE=cob4953
##SPECTROMETER/DATA SYSTEM=Not specified, most likely a prism, grating, or hybrid spectrometer.
##SAMPLING PROCEDURE=TRANSMISSION
##RESOLUTION=4
##DATA PROCESSING=DIGITIZED BY NIST FROM HARD COPY
##XUNITS=MICROMETERS
##YUNITS=TRANSMITTANCE
##XFACTOR=1.000000
##YFACTOR=1
##DELTAX=000.004651
##FIRSTX=2.014
##LASTX=15.0143
##FIRSTY=0.967
##MAXX=15.0143
##MINX=2.014
##MAXY=1.025
##MINY=0.172
##NPOINTS=2796
##XYDATA=(X++(Y..Y))
2.014000 0.9670 0.9670 0.9670 0.9670 0.9670
2.037264 0.9670 0.9670 0.9670 0.9670 0.9660
2.060000 0.9670 0.9660 0.9650 0.9650 0.9650
2.083264 0.9660 0.9660 0.9660 0.9650 0.9650
2.107000 0.9650 0.9640 0.9640 0.9640 0.9640
2.130264 0.9630 0.9630 0.9630 0.9630 0.9610
2.153000 0.9610 0.9610 0.9610 0.9610 0.9610
2.176264 0.9610 0.9610 0.9600 0.9600 0.9600
2.200000 0.9600 0.9590 0.9590 0.9580 0.9580
2.223264 0.9580 0.9570 0.9570 0.9560 0.9540
2.247000 0.9530 0.9520 0.9500 0.9470 0.9440
2.270264 0.9410 0.9350 0.9300 0.9210 0.9070
2.293000 0.8950 0.8900 0.8890 0.8870 0.8870
2.316264 0.8860 0.8860 0.8860 0.8860 0.8850
2.340000 0.8850 0.8850 0.8860 0.8870 0.8890
2.363264 0.8900 0.8920 0.8930 0.8980 0.9000
2.386000 0.9020 0.9040 0.9070 0.9090 0.9120
2.409264 0.9130 0.9140 0.9160 0.9200 0.9210
2.433000 0.9240 0.9260 0.9270 0.9280 0.9290
2.456264 0.9290 0.9290 0.9300 0.9300 0.9300
2.479000 0.9300 0.9300 0.9300 0.9300 0.9310
2.502264 0.9310 0.9310 0.9320 0.9320 0.9320
2.526000 0.9340 0.9340 0.9350 0.9350 0.9360
2.549264 0.9360 0.9360 0.9370 0.9370 0.9380
2.572000 0.9380 0.9380 0.9390 0.9410 0.9410
2.595264 0.9420 0.9430 0.9440 0.9450 0.9450
2.619000 0.9450 0.9460 0.9460 0.9470 0.9470
2.642264 0.9490 0.9490 0.9500 0.9500 0.9510
2.665000 0.9510 0.9510 0.9520 0.9520 0.9520
2.688264 0.9520 0.9520 0.9520 0.9530 0.9530
2.712000 0.9530 0.9530 0.9540 0.9540 0.9560
2.735264 0.9560 0.9570 0.9570 0.9570 0.9580
2.758000 0.9580 0.9580 0.9580 0.9590 0.9590
2.781264 0.9590 0.9590 0.9590 0.9600 0.9600
2.805000 0.9600 0.9600 0.9590 0.9590 0.9590
2.828264 0.9590 0.9590 0.9590 0.9590 0.9600
2.851000 0.9600 0.9590 0.9590 0.9580 0.9580
2.874264 0.9580 0.9580 0.9570 0.9570 0.9570
2.898000 0.9570 0.9570 0.9570 0.9570 0.9580
2.921264 0.9580 0.9590 0.9590 0.9580 0.9580
2.944000 0.9580 0.9580 0.9570 0.9570 0.9570
2.967264 0.9570 0.9570 0.9560 0.9560 0.9560
2.991000 0.9560 0.9560 0.9540 0.9540 0.9530
3.014264 0.9530 0.9520 0.9520 0.9520 0.9510
3.037000 0.9500 0.9500 0.9490 0.9490 0.9490
3.060264 0.9490 0.9490 0.9490 0.9470 0.9470
3.084000 0.9460 0.9450 0.9450 0.9440 0.9430
3.107264 0.9420 0.9410 0.9390 0.9380 0.9360
3.130000 0.9350 0.9320 0.9310 0.9290 0.9270
3.153264 0.9240 0.9220 0.9210 0.9190 0.9160
3.177000 0.9140 0.9120 0.9080 0.9060 0.9010
3.200264 0.8920 0.8820 0.8500 0.8010 0.7370
3.223000 0.6730 0.6500 0.6170 0.6080 0.6060
3.246264 0.6090 0.6230 0.6310 0.6400 0.6480
3.270000 0.6530 0.6550 0.6560 0.6560 0.6530
3.293264 0.6420 0.6300 0.6120 0.5910 0.5660
3.316000 0.5010 0.4610 0.3750 0.2980 0.2550
3.339264 0.2230 0.2090 0.2050 0.2040 0.2020
3.363000 0.2010 0.2000 0.1970 0.1950 0.1930
3.386264 0.1910 0.1890 0.1870 0.1860 0.1840
3.409000 0.1840 0.1840 0.1840 0.1860 0.1870
3.432264 0.1880 0.1910 0.1930 0.1940 0.1950
3.456000 0.1960 0.1970 0.1970 0.1980 0.2000
3.479264 0.2010 0.2020 0.2040 0.2080 0.2160
3.502000 0.2260 0.3520 0.3900 0.4250 0.4600
3.525264 0.4920 0.5240 0.5410 0.5560 0.5880
3.549000 0.6210 0.6550 0.6910 0.7280 0.7450
3.572264 0.7600 0.7740 0.7860 0.7970 0.8090
3.595000 0.8180 0.8260 0.8340 0.8420 0.8490
3.618264 0.8550 0.8600 0.8600 0.8580 0.8560
3.642000 0.8500 0.8420 0.8340 0.8300 0.8250
3.665264 0.8240 0.8230 0.8240 0.8260 0.8340
3.688000 0.8500 0.8610 0.8700 0.8770 0.8850
3.711264 0.8940 0.9010 0.9060 0.9120 0.9150
3.735000 0.9170 0.9190 0.9210 0.9220 0.9240
3.758264 0.9260 0.9280 0.9290 0.9300 0.9310
3.781000 0.9320 0.9320 0.9340 0.9340 0.9350
3.804264 0.9360 0.9360 0.9370 0.9380 0.9390
3.828000 0.9410 0.9420 0.9430 0.9440 0.9440
3.851264 0.9450 0.9450 0.9460 0.9460 0.9470
3.874000 0.9470 0.9490 0.9500 0.9500 0.9510
3.897264 0.9510 0.9510 0.9510 0.9510 0.9510
3.921000 0.9520 0.9520 0.9520 0.9530 0.9530
3.944264 0.9530 0.9540 0.9540 0.9540 0.9560
3.967000 0.9560 0.9560 0.9570 0.9570 0.9570
3.990264 0.9570 0.9570 0.9580 0.9580 0.9580
4.014000 0.9580 0.9580 0.9590 0.9590 0.9590
4.037264 0.9590 0.9590 0.9600 0.9600 0.9600
4.060000 0.9600 0.9600 0.9610 0.9610 0.9610
4.083264 0.9610 0.9610 0.9610 0.9610 0.9610
4.107000 0.9610 0.9630 0.9630 0.9630 0.9630
4.130264 0.9630 0.9630 0.9630 0.9640 0.9640
4.153000 0.9640 0.9640 0.9640 0.9640 0.9650
4.176264 0.9650 0.9650 0.9650 0.9650 0.9650
4.200000 0.9650 0.9650 0.9650 0.9650 0.9650
4.223264 0.9650 0.9640 0.9640 0.9640 0.9640
4.247000 0.9640 0.9640 0.9640 0.9640 0.9640
4.270264 0.9650 0.9650 0.9650 0.9650 0.9650
4.293000 0.9650 0.9660 0.9660 0.9670 0.9670
4.316264 0.9670 0.9680 0.9680 0.9690 0.9690
4.340000 0.9690 0.9710 0.9710 0.9720 0.9720
4.363264 0.9720 0.9720 0.9730 0.9730 0.9730
4.386000 0.9740 0.9740 0.9740 0.9750 0.9750
4.409264 0.9750 0.9750 0.9750 0.9760 0.9760
4.433000 0.9780 0.9780 0.9780 0.9790 0.9790
4.456264 0.9790 0.9790 0.9790 0.9790 0.9800
4.479000 0.9800 0.9800 0.9800 0.9810 0.9810
4.502264 0.9810 0.9810 0.9800 0.9810 0.9810
4.526000 0.9810 0.9810 0.9810 0.9810 0.9810
4.549264 0.9810 0.9810 0.9810 0.9810 0.9820
4.572000 0.9820 0.9820 0.9820 0.9830 0.9830
4.595264 0.9830 0.9840 0.9840 0.9840 0.9840
4.619000 0.9840 0.9840 0.9830 0.9830 0.9830
4.642264 0.9830 0.9830 0.9830 0.9820 0.9820
4.665000 0.9830 0.9830 0.9830 0.9830 0.9840
4.688264 0.9840 0.9840 0.9840 0.9860 0.9860
4.712000 0.9860 0.9860 0.9870 0.9870 0.9870
4.735264 0.9870 0.9870 0.9870 0.9870 0.9880
4.758000 0.9880 0.9880 0.9880 0.9880 0.9880
4.781264 0.9880 0.9880 0.9880 0.9880 0.9880
4.805000 0.9880 0.9880 0.9880 0.9880 0.9880
4.828264 0.9890 0.9890 0.9890 0.9880 0.9890
4.851000 0.9890 0.9890 0.9890 0.9890 0.9890
4.874264 0.9890 0.9890 0.9890 0.9890 0.9900
4.898000 0.9900 0.9900 0.9900 0.9900 0.9900
4.921264 0.9900 0.9900 0.9900 0.9900 0.9910
4.944000 0.9910 0.9910 0.9910 0.9910 0.9910
4.967264 0.9910 0.9910 0.9910 0.9910 0.9910
4.991000 0.9910 0.9910 0.9900 0.9900 0.9900
5.014264 0.9900 0.9900 0.9890 0.9890 0.9880
5.037000 0.9880 0.9870 0.9860 0.9840 0.9840
5.060264 0.9830 0.9830 0.9830 0.9820 0.9820
5.084000 0.9820 0.9820 0.9810 0.9810 0.9820
5.107264 0.9820 0.9820 0.9830 0.9830 0.9830
5.130000 0.9840 0.9860 0.9860 0.9860 0.9870
5.153264 0.9870 0.9880 0.9890 0.9890 0.9890
5.177000 0.9900 0.9900 0.9900 0.9910 0.9910
5.200264 0.9910 0.9910 0.9900 0.9900 0.9900
5.223000 0.9900 0.9900 0.9900 0.9900 0.9900
5.246264 0.9900 0.9890 0.9900 0.9900 0.9900
5.270000 0.9900 0.9900 0.9900 0.9890 0.9890
5.293264 0.9890 0.9890 0.9890 0.9890 0.9880
5.316000 0.9880 0.9880 0.9880 0.9880 0.9880
5.339264 0.9880 0.9870 0.9870 0.9870 0.9870
5.363000 0.9870 0.9870 0.9870 0.9870 0.9860
5.386264 0.9860 0.9860 0.9860 0.9860 0.9860
5.409000 0.9860 0.9860 0.9860 0.9840 0.9840
5.432264 0.9840 0.9840 0.9840 0.9830 0.9830
5.456000 0.9820 0.9810 0.9800 0.9800 0.9800
5.479264 0.9790 0.9790 0.9780 0.9760 0.9750
5.502000 0.9750 0.9740 0.9730 0.9720 0.9690
5.525264 0.9680 0.9660 0.9640 0.9580 0.9510
5.549000 0.9420 0.9340 0.9240 0.9170 0.9130
5.572264 0.9090 0.9050 0.8950 0.8940 0.8940
5.595000 0.8950 0.8970 0.8980 0.9000 0.9040
5.618264 0.9080 0.9120 0.9150 0.9200 0.9220
5.642000 0.9270 0.9340 0.9390 0.9450 0.9490
5.665264 0.9520 0.9560 0.9590 0.9630 0.9650
5.688000 0.9660 0.9670 0.9670 0.9680 0.9680
5.711264 0.9680 0.9670 0.9670 0.9660 0.9660
5.735000 0.9650 0.9640 0.9640 0.9630 0.9630
5.758264 0.9630 0.9630 0.9630 0.9640 0.9640
5.781000 0.9640 0.9650 0.9650 0.9650 0.9650
5.804264 0.9650 0.9650 0.9650 0.9650 0.9640
5.828000 0.9640 0.9640 0.9640 0.9630 0.9630
5.851264 0.9630 0.9610 0.9610 0.9600 0.9600
5.874000 0.9590 0.9580 0.9570 0.9560 0.9520
5.897264 0.9460 0.9430 0.9390 0.9360 0.9290
5.921000 0.9170 0.9060 0.8930 0.8840 0.8730
5.944264 0.8640 0.8540 0.8330 0.8200 0.8170
5.967000 0.8160 0.8170 0.8180 0.8230 0.8240
5.990264 0.8310 0.8330 0.8340 0.8340 0.8340
6.014000 0.8330 0.8260 0.8260 0.5510 0.4860
6.037264 0.4540 0.4210 0.3890 0.3890 0.4250
6.060000 0.4620 0.5000 0.5290 0.5570 0.5970
6.083264 0.6380 0.6490 0.6750 0.7390 0.7970
6.107000 0.8130 0.8250 0.8360 0.8420 0.8480
6.130264 0.8520 0.8560 0.8600 0.8630 0.8670
6.153000 0.8700 0.8730 0.8760 0.8790 0.8820
6.176264 0.8840 0.8860 0.8890 0.8910 0.8930
6.200000 0.8950 0.8970 0.8990 0.9000 0.9010
6.223264 0.9020 0.9040 0.9050 0.9060 0.9070
6.247000 0.9080 0.9080 0.9090 0.9100 0.9120
6.270264 0.9130 0.9130 0.9140 0.9140 0.9150
6.293000 0.9150 0.9150 0.9150 0.9150 0.9150
6.316264 0.9150 0.9150 0.9140 0.9140 0.9140
6.340000 0.9130 0.9130 0.9130 0.9120 0.9100
6.363264 0.9100 0.9090 0.9090 0.9080 0.9080
6.386000 0.9070 0.9070 0.9070 0.9070 0.9070
6.409264 0.9060 0.9060 0.9060 0.9050 0.9040
6.433000 0.9040 0.9020 0.9010 0.8990 0.8980
6.456264 0.8970 0.8950 0.8950 0.8940 0.8940
6.479000 0.8930 0.8920 0.8920 0.8910 0.8900
6.502264 0.8890 0.8870 0.8860 0.8840 0.8830
6.526000 0.8820 0.8820 0.8800 0.8790 0.8780
6.549264 0.8770 0.8760 0.8730 0.8720 0.8700
6.572000 0.8690 0.8670 0.8650 0.8630 0.8610
6.595264 0.8580 0.8570 0.8560 0.8550 0.8530
6.619000 0.8520 0.8500 0.8480 0.8460 0.8430
6.642264 0.8400 0.8360 0.8350 0.8330 0.8310
6.665000 0.8280 0.8250 0.8200 0.8130 0.8100
6.688264 0.8060 0.8030 0.7970 0.7940 0.7830
6.712000 0.7780 0.7720 0.7610 0.7540 0.7500
6.735264 0.7430 0.7300 0.7150 0.6920 0.6750
6.758000 0.6560 0.6410 0.6350 0.6280 0.5910
6.781264 0.5510 0.5200 0.4840 0.4010 0.3750
6.805000 0.3560 0.3470 0.3370 0.3310 0.3210
6.828264 0.3190 0.3080 0.2950 0.2910 0.2840
6.851000 0.2780 0.2650 0.2620 0.2580 0.2570
6.874264 0.2560 0.2560 0.2560 0.2570 0.2580
6.898000 0.2600 0.2610 0.2620 0.2630 0.2630
6.921264 0.2640 0.2650 0.2690 0.2770 0.2890
6.944000 0.3190 0.3490 0.3650 0.3900 0.4090
6.967264 0.4230 0.4350 0.4480 0.4610 0.4780
6.991000 0.5010 0.5300 0.5430 0.5500 0.5560
7.014264 0.5670 0.5790 0.5900 0.6010 0.6100
7.037000 0.6190 0.6260 0.6320 0.6360 0.6450
7.060264 0.6520 0.6560 0.6620 0.6680 0.6720
7.084000 0.6760 0.6820 0.6860 0.6900 0.6940
7.107264 0.6980 0.7010 0.7040 0.7050 0.7070
7.130000 0.7080 0.7080 0.7060 0.7020 0.6980
7.153264 0.6930 0.6890 0.6790 0.6720 0.6640
7.177000 0.6570 0.6470 0.6320 0.6130 0.5880
7.200264 0.5530 0.4770 0.4470 0.4320 0.4180
7.223000 0.4110 0.3710 0.3570 0.3360 0.3160
7.246264 0.3160 0.3280 0.3420 0.3650 0.3880
7.270000 0.4100 0.4330 0.4420 0.4670 0.5170
7.293264 0.5460 0.5740 0.6190 0.6330 0.6420
7.316000 0.6600 0.6680 0.6800 0.6930 0.7070
7.339264 0.7190 0.7260 0.7270 0.7310 0.7360
7.363000 0.7370 0.7370 0.7360 0.7350 0.7320
7.386264 0.7310 0.7290 0.7280 0.7260 0.7230
7.409000 0.7230 0.7240 0.7300 0.7360 0.7380
7.432264 0.7430 0.7530 0.7650 0.7690 0.7780
7.456000 0.7830 0.7940 0.7960 0.7970 0.8000
7.479264 0.8040 0.8050 0.8100 0.8150 0.8210
7.502000 0.8270 0.8300 0.8320 0.8330 0.8330
7.525264 0.8340 0.8340 0.8350 0.8350 0.8350
7.549000 0.8350 0.8350 0.8350 0.8350 0.8340
7.572264 0.8340 0.8340 0.8330 0.8330 0.8320
7.595000 0.8310 0.8310 0.8310 0.8310 0.8310
7.618264 0.8320 0.8330 0.8350 0.8390 0.8430
7.642000 0.8500 0.8550 0.8610 0.8640 0.8690
7.665264 0.8710 0.8750 0.8770 0.8780 0.8800
7.688000 0.8820 0.8830 0.8840 0.8840 0.8840
7.711264 0.8840 0.8840 0.8840 0.8840 0.8830
7.735000 0.8830 0.8830 0.8830 0.8820 0.8820
7.758264 0.8820 0.8800 0.8820 0.8800 0.8800
7.781000 0.8800 0.8790 0.8800 0.8800 0.8790
7.804264 0.8790 0.8780 0.8790 0.8780 0.8770
7.828000 0.8770 0.8770 0.8770 0.8770 0.8770
7.851264 0.8780 0.8780 0.8780 0.8790 0.8790
7.874000 0.8790 0.8790 0.8790 0.8790 0.8790
7.897264 0.8790 0.8790 0.8790 0.8790 0.8790
7.921000 0.8790 0.8790 0.8790 0.8790 0.8790
7.944264 0.8780 0.8780 0.8780 0.8780 0.8780
7.967000 0.8780 0.8770 0.8770 0.8770 0.8760
7.990264 0.8760 0.8760 0.8750 0.8750 0.8730
8.014000 0.8720 0.8710 0.8700 0.8690 0.8690
8.037264 0.8690 0.8690 0.8680 0.8670 0.8640
8.060000 0.8640 0.8630 0.8620 0.8610 0.8580
8.083264 0.8560 0.8540 0.8520 0.8490 0.8470
8.107000 0.8460 0.8450 0.8430 0.8410 0.8410
8.130264 0.8400 0.8400 0.8400 0.8400 0.8400
8.153000 0.8400 0.8400 0.8410 0.8410 0.8410
8.176264 0.8420 0.8420 0.8420 0.8420 0.8430
8.200000 0.8430 0.8430 0.8430 0.8450 0.8450
8.223264 0.8450 0.8450 0.8450 0.8450 0.8450
8.247000 0.8460 0.8460 0.8470 0.8470 0.8470
8.270264 0.8480 0.8480 0.8490 0.8490 0.8490
8.293000 0.8500 0.8520 0.8530 0.8540 0.8550
8.316264 0.8560 0.8570 0.8570 0.8580 0.8580
8.340000 0.8600 0.8600 0.8610 0.8620 0.8630
8.363264 0.8640 0.8650 0.8670 0.8680 0.8690
8.386000 0.8700 0.8720 0.8730 0.8750 0.8760
8.409264 0.8770 0.8780 0.8800 0.8820 0.8820
8.433000 0.8830 0.8840 0.8850 0.8870 0.8900
8.456264 0.8910 0.8920 0.8930 0.8940 0.8950
8.479000 0.8970 0.8990 0.9010 0.9020 0.9040
8.502264 0.9060 0.9080 0.9090 0.9090 0.9120
8.526000 0.9120 0.9120 0.9120 0.9130 0.9130
8.549264 0.9130 0.9130 0.9130 0.9130 0.9130
8.572000 0.9130 0.9120 0.9120 0.9100 0.9090
8.595264 0.9070 0.9050 0.9020 0.9010 0.9000
8.619000 0.8990 0.8980 0.8980 0.8970 0.8970
8.642264 0.8950 0.8950 0.8940 0.8940 0.8940
8.665000 0.8930 0.8910 0.8910 0.8900 0.8900
8.688264 0.8890 0.8890 0.8890 0.8900 0.8900
8.712000 0.8910 0.8910 0.8910 0.8910 0.8910
8.735264 0.8910 0.8910 0.8910 0.8920 0.8920
8.758000 0.8930 0.8930 0.8940 0.8940 0.8970
8.781264 0.8980 0.8990 0.9000 0.9010 0.9020
8.805000 0.9050 0.9060 0.9070 0.9080 0.9090
8.828264 0.9100 0.9100 0.9120 0.9120 0.9130
8.851000 0.9130 0.9130 0.9140 0.9130 0.9100
8.874264 0.9090 0.9070 0.9040 0.9000 0.8980
8.898000 0.8940 0.8920 0.8890 0.8850 0.8800
8.921264 0.8720 0.8670 0.8610 0.8560 0.8520
8.944000 0.8480 0.8420 0.8350 0.8270 0.8170
8.967264 0.8030 0.7860 0.7640 0.7380 0.7070
8.991000 0.6830 0.6560 0.6460 0.6390 0.6150
9.014264 0.5900 0.5660 0.5380 0.5380 0.5410
9.037000 0.5500 0.5590 0.5780 0.5970 0.6160
9.060264 0.6340 0.6410 0.6490 0.6700 0.6890
9.084000 0.7070 0.7220 0.7350 0.7420 0.7460
9.107264 0.7510 0.7570 0.7630 0.7680 0.7750
9.130000 0.7810 0.7880 0.7940 0.8010 0.8050
9.153264 0.8110 0.8160 0.8190 0.8210 0.8250
9.177000 0.8260 0.8270 0.8280 0.8300 0.8310
9.200264 0.8300 0.8280 0.8270 0.8260 0.8240
9.223000 0.8230 0.8190 0.8170 0.8120 0.8090
9.246264 0.8030 0.8010 0.7980 0.7970 0.7970
9.270000 0.7960 0.7960 0.7950 0.7950 0.7940
9.293264 0.7940 0.7940 0.7940 0.7940 0.7930
9.316000 0.7930 0.7930 0.7910 0.7910 0.7910
9.339264 0.7910 0.7930 0.7930 0.7930 0.7930
9.363000 0.7940 0.7950 0.7950 0.7960 0.7960
9.386264 0.7970 0.7970 0.7980 0.8000 0.8010
9.409000 0.8020 0.8030 0.8050 0.8080 0.8090
9.432264 0.8110 0.8120 0.8150 0.8160 0.8170
9.456000 0.8190 0.8210 0.8230 0.8260 0.8270
9.479264 0.8300 0.8310 0.8330 0.8340 0.8360
9.502000 0.8390 0.8400 0.8420 0.8430 0.8450
9.525264 0.8470 0.8480 0.8490 0.8520 0.8530
9.549000 0.8550 0.8560 0.8570 0.8580 0.8600
9.572264 0.8610 0.8610 0.8620 0.8630 0.8630
9.595000 0.8640 0.8640 0.8650 0.8640 0.8640
9.618264 0.8630 0.8630 0.8620 0.8610 0.8600
9.642000 0.8580 0.8570 0.8570 0.8560 0.8560
9.665264 0.8550 0.8550 0.8550 0.8550 0.8550
9.688000 0.8550 0.8550 0.8550 0.8550 0.8560
9.711264 0.8560 0.8560 0.8560 0.8570 0.8570
9.735000 0.8570 0.8570 0.8570 0.8560 0.8560
9.758264 0.8560 0.8560 0.8550 0.8550 0.8540
9.781000 0.8540 0.8540 0.8530 0.8530 0.8530
9.804264 0.8530 0.8530 0.8530 0.8530 0.8520
9.828000 0.8520 0.8520 0.8520 0.8500 0.8500
9.851264 0.8500 0.8500 0.8500 0.8500 0.8500
9.874000 0.8500 0.8500 0.8500 0.8500 0.8500
9.897264 0.8500 0.8500 0.8500 0.8500 0.8520
9.921000 0.8520 0.8520 0.8520 0.8520 0.8520
9.944264 0.8520 0.8520 0.8530 0.8530 0.8540
9.967000 0.8540 0.8540 0.8540 0.8540 0.8540
9.990264 0.8530 0.8530 0.8530 0.8500 0.8490
10.014000 0.8490 0.8480 0.8470 0.8460 0.8460
10.037264 0.8450 0.8450 0.8430 0.8410 0.8390
10.060000 0.8380 0.8360 0.8350 0.8330 0.8320
10.083264 0.8300 0.8280 0.8270 0.8250 0.8210
10.107000 0.8190 0.8160 0.8150 0.8110 0.8060
10.130264 0.8040 0.8030 0.8020 0.7980 0.7970
10.153000 0.7960 0.7950 0.7950 0.7950 0.7960
10.176264 0.7960 0.7970 0.7980 0.8000 0.8010
10.200000 0.8020 0.8040 0.8050 0.8080 0.8090
10.223264 0.8110 0.8120 0.8130 0.8150 0.8160
10.247000 0.8170 0.8190 0.8210 0.8230 0.8250
10.270264 0.8260 0.8270 0.8280 0.8300 0.8310
10.293000 0.8320 0.8340 0.8350 0.8360 0.8380
10.316264 0.8390 0.8410 0.8420 0.8430 0.8430
10.340000 0.8450 0.8460 0.8460 0.8470 0.8480
10.363264 0.8490 0.8500 0.8500 0.8520 0.8530
10.386000 0.8540 0.8550 0.8560 0.8570 0.8580
10.409264 0.8600 0.8610 0.8620 0.8620 0.8630
10.433000 0.8640 0.8670 0.8680 0.8700 0.8720
10.456264 0.8750 0.8760 0.8770 0.8780 0.8790
10.479000 0.8800 0.8820 0.8830 0.8840 0.8850
10.502264 0.8860 0.8870 0.8890 0.8900 0.8910
10.526000 0.8920 0.8920 0.8930 0.8940 0.8950
10.549264 0.8970 0.8980 0.8990 0.9000 0.9000
10.572000 0.9010 0.9010 0.9020 0.9040 0.9040
10.595264 0.9050 0.9050 0.9060 0.9070 0.9080
10.619000 0.9080 0.9090 0.9100 0.9100 0.9120
10.642264 0.9120 0.9120 0.9120 0.9130 0.9130
10.665000 0.9130 0.9130 0.9140 0.9140 0.9140
10.688264 0.9140 0.9150 0.9150 0.9150 0.9150
10.712000 0.9160 0.9160 0.9160 0.9160 0.9160
10.735264 0.9160 0.9160 0.9170 0.9170 0.9170
10.758000 0.9170 0.9170 0.9170 0.9170 0.9190
10.781264 0.9190 0.9190 0.9190 0.9190 0.9190
10.805000 0.9190 0.9170 0.9170 0.9170 0.9170
10.828264 0.9170 0.9170 0.9160 0.9160 0.9160
10.851000 0.9160 0.9150 0.9150 0.9150 0.9140
10.874264 0.9130 0.9120 0.9100 0.9100 0.9090
10.898000 0.9080 0.9070 0.9060 0.9050 0.9040
10.921264 0.9020 0.9000 0.8990 0.8970 0.8950
10.944000 0.8920 0.8900 0.8860 0.8840 0.8800
10.967264 0.8770 0.8760 0.8730 0.8720 0.8700
10.991000 0.8670 0.8640 0.8610 0.8580 0.8550
11.014264 0.8550 0.8460 0.8420 0.8380 0.8350
11.037000 0.8330 0.8330 0.8280 0.8240 0.8200
11.060264 0.8160 0.8110 0.8060 0.8010 0.7940
11.084000 0.7840 0.7750 0.7630 0.7470 0.7430
11.107264 0.7350 0.7240 0.7120 0.6980 0.6830
11.130000 0.6670 0.6490 0.6330 0.6160 0.5980
11.153264 0.5820 0.5670 0.5560 0.5010 0.4650
11.177000 0.4260 0.3870 0.3470 0.3140 0.2850
11.200264 0.2720 0.2600 0.2470 0.2340 0.2240
11.223000 0.2130 0.2040 0.1950 0.1880 0.1820
11.246264 0.1790 0.1750 0.1740 0.1730 0.1730
11.270000 0.1720 0.1720 0.1720 0.1730 0.1740
11.293264 0.1760 0.1800 0.1830 0.1890 0.1960
11.316000 0.2040 0.2120 0.2160 0.2310 0.2570
11.339264 0.2900 0.3270 0.3660 0.4030 0.4350
11.363000 0.4620 0.4770 0.4920 0.5070 0.5210
11.386264 0.5350 0.5490 0.5560 0.5630 0.5760
11.409000 0.5890 0.6020 0.6150 0.6270 0.6390
11.432264 0.6500 0.6620 0.6730 0.6840 0.6940
11.456000 0.7050 0.7140 0.7230 0.7310 0.7410
11.479264 0.7490 0.7560 0.7630 0.7690 0.7750
11.502000 0.7810 0.7860 0.7910 0.7970 0.8020
11.525264 0.8060 0.8110 0.8150 0.8180 0.8210
11.549000 0.8250 0.8270 0.8310 0.8330 0.8340
11.572264 0.8360 0.8390 0.8400 0.8410 0.8430
11.595000 0.8450 0.8460 0.8470 0.8480 0.8480
11.618264 0.8490 0.8500 0.8520 0.8520 0.8530
11.642000 0.8540 0.8550 0.8560 0.8560 0.8570
11.665264 0.8570 0.8570 0.8570 0.8570 0.8570
11.688000 0.8560 0.8560 0.8550 0.8540 0.8540
11.711264 0.8530 0.8520 0.8500 0.8490 0.8460
11.735000 0.8450 0.8420 0.8400 0.8360 0.8340
11.758264 0.8330 0.8310 0.8280 0.8250 0.8230
11.781000 0.8200 0.8170 0.8130 0.8100 0.8050
11.804264 0.8020 0.7960 0.7910 0.7860 0.7800
11.828000 0.7730 0.7660 0.7580 0.7500 0.7390
11.851264 0.7280 0.7160 0.7100 0.7040 0.6950
11.874000 0.6860 0.6760 0.6650 0.6550 0.6460
11.897264 0.6360 0.6280 0.6200 0.6180 0.6150
11.921000 0.6120 0.6050 0.6030 0.6000 0.5960
11.944264 0.5930 0.5900 0.5890 0.5860 0.5830
11.967000 0.5810 0.5800 0.5790 0.5760 0.5750
11.990264 0.5740 0.5730 0.5720 0.5690 0.5690
12.014000 0.5680 0.5680 0.5670 0.5670 0.5670
12.037264 0.5670 0.5670 0.5670 0.5680 0.5680
12.060000 0.5680 0.5680 0.5690 0.5710 0.5720
12.083264 0.5730 0.5740 0.5750 0.5760 0.5780
12.107000 0.5800 0.5810 0.5820 0.5840 0.5870
12.130264 0.5890 0.5900 0.5910 0.5930 0.5950
12.153000 0.5980 0.6000 0.6020 0.6020 0.6050
12.176264 0.6090 0.6110 0.6130 0.6150 0.6170
12.200000 0.6190 0.6210 0.6240 0.6250 0.6270
12.223264 0.6300 0.6310 0.6320 0.6330 0.6350
12.247000 0.6360 0.6360 0.6380 0.6390 0.6390
12.270264 0.6400 0.6400 0.6420 0.6430 0.6430
12.293000 0.6450 0.6450 0.6450 0.6460 0.6470
12.316264 0.6480 0.6480 0.6490 0.6500 0.6500
12.340000 0.6530 0.6550 0.6560 0.6580 0.6600
12.363264 0.6620 0.6630 0.6650 0.6670 0.6690
12.386000 0.6700 0.6720 0.6730 0.6750 0.6770
12.409264 0.6780 0.6800 0.6820 0.6840 0.6860
12.433000 0.6870 0.6900 0.6910 0.6930 0.6950
12.456264 0.6970 0.6990 0.7010 0.7040 0.7060
12.479000 0.7080 0.7100 0.7130 0.7150 0.7170
12.502264 0.7200 0.7220 0.7260 0.7280 0.7300
12.526000 0.7320 0.7350 0.7370 0.7380 0.7410
12.549264 0.7430 0.7440 0.7460 0.7490 0.7500
12.572000 0.7520 0.7540 0.7560 0.7580 0.7590
12.595264 0.7610 0.7640 0.7650 0.7670 0.7680
12.619000 0.7710 0.7720 0.7740 0.7750 0.7780
12.642264 0.7800 0.7810 0.7820 0.7840 0.7860
12.665000 0.7880 0.7890 0.7910 0.7930 0.7950
12.688264 0.7960 0.7980 0.8000 0.8010 0.8030
12.712000 0.8040 0.8060 0.8080 0.8090 0.8110
12.735264 0.8120 0.8130 0.8160 0.8170 0.8180
12.758000 0.8200 0.8210 0.8230 0.8250 0.8260
12.781264 0.8270 0.8300 0.8310 0.8320 0.8330
12.805000 0.8350 0.8360 0.8380 0.8390 0.8410
12.828264 0.8420 0.8430 0.8450 0.8460 0.8480
12.851000 0.8490 0.8500 0.8520 0.8530 0.8550
12.874264 0.8560 0.8570 0.8580 0.8610 0.8620
12.898000 0.8630 0.8650 0.8670 0.8680 0.8700
12.921264 0.8720 0.8730 0.8760 0.8780 0.8800
12.944000 0.8820 0.8840 0.8850 0.8860 0.8890
12.967264 0.8900 0.8910 0.8930 0.8950 0.8980
12.991000 0.9000 0.9020 0.9060 0.9080 0.9120
13.014264 0.9160 0.9200 0.9210 0.9230 0.9230
13.037000 0.9260 0.9270 0.9280 0.9290 0.9300
13.060264 0.9310 0.9320 0.9340 0.9360 0.9370
13.084000 0.9380 0.9390 0.9420 0.9430 0.9450
13.107264 0.9460 0.9490 0.9500 0.9520 0.9540
13.130000 0.9560 0.9570 0.9570 0.9580 0.9590
13.153264 0.9590 0.9600 0.9600 0.9610 0.9610
13.177000 0.9630 0.9630 0.9640 0.9640 0.9640
13.200264 0.9640 0.9650 0.9650 0.9650 0.9650
13.223000 0.9640 0.9640 0.9640 0.9640 0.9640
13.246264 0.9640 0.9630 0.9630 0.9630 0.9610
13.270000 0.9610 0.9600 0.9590 0.9570 0.9560
13.293264 0.9540 0.9530 0.9530 0.9520 0.9520
13.316000 0.9510 0.9510 0.9500 0.9500 0.9490
13.339264 0.9470 0.9450 0.9440 0.9440 0.9430
13.363000 0.9420 0.9420 0.9410 0.9410 0.9380
13.386264 0.9380 0.9370 0.9370 0.9360 0.9360
13.409000 0.9350 0.9350 0.9340 0.9340 0.9340
13.432264 0.9320 0.9320 0.9320 0.9310 0.9310
13.456000 0.9310 0.9310 0.9310 0.9310 0.9310
13.479264 0.9310 0.9320 0.9320 0.9320 0.9340
13.502000 0.9340 0.9350 0.9350 0.9350 0.9360
13.525264 0.9370 0.9370 0.9380 0.9380 0.9390
13.549000 0.9390 0.9410 0.9420 0.9430 0.9430
13.572264 0.9440 0.9440 0.9450 0.9450 0.9460
13.595000 0.9470 0.9490 0.9490 0.9500 0.9510
13.618264 0.9510 0.9520 0.9530 0.9540 0.9560
13.642000 0.9570 0.9570 0.9580 0.9580 0.9590
13.665264 0.9600 0.9600 0.9630 0.9640 0.9650
13.688000 0.9660 0.9670 0.9680 0.9680 0.9690
13.711264 0.9710 0.9720 0.9730 0.9740 0.9750
13.735000 0.9750 0.9760 0.9780 0.9780 0.9790
13.758264 0.9800 0.9810 0.9810 0.9820 0.9830
13.781000 0.9860 0.9870 0.9880 0.9880 0.9890
13.804264 0.9900 0.9910 0.9930 0.9940 0.9940
13.828000 0.9950 0.9960 0.9960 0.9970 0.9970
13.851264 0.9980 1.0000 1.0000 1.0000 1.0010
13.874000 1.0030 1.0030 1.0040 1.0040 1.0050
13.897264 1.0050 1.0050 1.0060 1.0060 1.0080
13.921000 1.0080 1.0090 1.0090 1.0090 1.0100
13.944264 1.0100 1.0110 1.0110 1.0120 1.0120
13.967000 1.0130 1.0130 1.0150 1.0150 1.0160
13.990264 1.0160 1.0170 1.0180 1.0180 1.0180
14.014000 1.0190 1.0190 1.0200 1.0200 1.0200
14.037264 1.0200 1.0210 1.0210 1.0210 1.0210
14.060000 1.0230 1.0230 1.0230 1.0230 1.0240
14.083264 1.0240 1.0240 1.0240 1.0250 1.0250
14.107000 1.0250 1.0250 1.0250 1.0250 1.0250
14.130264 1.0250 1.0240 1.0240 1.0230 1.0230
14.153000 1.0210 1.0210 1.0210 1.0210 1.0210
14.176264 1.0210 1.0210 1.0210 1.0230 1.0230
14.200000 1.0240 1.0240 1.0240 1.0240 1.0240
14.223264 1.0240 1.0240 1.0240 1.0240 1.0240
14.247000 1.0230 1.0230 1.0230 1.0230 1.0210
14.270264 1.0210 1.0210 1.0200 1.0200 1.0190
14.293000 1.0180 1.0180 1.0180 1.0170 1.0160
14.316264 1.0160 1.0150 1.0130 1.0130 1.0120
14.340000 1.0110 1.0110 1.0100 1.0100 1.0100
14.363264 1.0100 1.0100 1.0100 1.0090 1.0090
14.386000 1.0090 1.0080 1.0080 1.0080 1.0060
14.409264 1.0060 1.0060 1.0050 1.0050 1.0050
14.433000 1.0050 1.0050 1.0050 1.0050 1.0050
14.456264 1.0040 1.0040 1.0040 1.0040 1.0030
14.479000 1.0030 1.0030 1.0030 1.0030 1.0030
14.502264 1.0030 1.0030 1.0030 1.0030 1.0030
14.526000 1.0030 1.0020 1.0020 1.0020 1.0010
14.549264 1.0010 1.0010 1.0010 1.0010 1.0010
14.572000 1.0000 1.0000 1.0000 1.0000 1.0000
14.595264 0.9980 0.9970 0.9970 0.9960 0.9960
14.619000 0.9960 0.9960 0.9950 0.9950 0.9950
14.642264 0.9940 0.9930 0.9930 0.9910 0.9900
14.665000 0.9900 0.9890 0.9890 0.9880 0.9880
14.688264 0.9880 0.9870 0.9870 0.9860 0.9860
14.712000 0.9840 0.9840 0.9830 0.9830 0.9820
14.735264 0.9820 0.9810 0.9800 0.9800 0.9790
14.758000 0.9780 0.9780 0.9760 0.9760 0.9750
14.781264 0.9740 0.9730 0.9720 0.9710 0.9710
14.805000 0.9690 0.9680 0.9670 0.9670 0.9660
14.828264 0.9660 0.9650 0.9650 0.9640 0.9640
14.851000 0.9630 0.9630 0.9610 0.9600 0.9600
14.874264 0.9580 0.9580 0.9570 0.9570 0.9560
14.898000 0.9530 0.9520 0.9520 0.9510 0.9500
14.921264 0.9490 0.9490 0.9470 0.9470 0.9460
14.944000 0.9460 0.9460 0.9460 0.9460 0.9450
14.967264 0.9440 0.9440 0.9430 0.9430 0.9420
14.991000 0.9420 0.9420 0.9410 0.9410 0.9410
15.014264 0.9410
##END=
