##TITLE=Cyclotrisilazane, Hexamethyl-
##JCAMP-DX=4.24
##DATA TYPE=INFRARED SPECTRUM
##CLASS=COBLENTZ III
##ORIGIN=DOW CORNING CORP.
##OWNER=Copyright (C) 1987 by the Coblentz Society
Collection (C) 2018 copyright by the U.S. Secretary of Commerce
on behalf of the United States of America. All rights reserved.
##DATE=1965/10/27
##NAMES=2,2,4,4,6,6-hexamethyl-1,3,5,2,4,6-triazatrisilinane
Cyclotrisilazane, 2,2,4,4,6,6-hexamethyl-
##CAS REGISTRY NO=1009-93-4
##MOLFORM=C6 H21 N3 Si3
##BP=188 C
##SOURCE REFERENCE=COBLENTZ NO. 8536
##$NIST SOURCE=COBLENTZ
##$NIST IMAGE=cob8536
##SPECTROMETER/DATA SYSTEM=PERKIN-ELMER 521 (GRATING)
##INSTRUMENT PARAMETERS=FILTERS AT 3150, 2500, 2000, 1150, 700, 410. GRATING CHANGES: 2000, 630 CM^-^1
##STATE=SOLUTION (10% CCl4 FOR 3800-1300, 2% CS2 FOR 1300-650, AND 10% CCl4 FOR 650-250); $$ SEE SPECTRUM NO. 4901 FOR PRISM SPECTRUM
##PATH LENGTH=0.010 CM, 0.011 CM, AND 0.010 CM
$$ SEE SPECTRUM NO. 4901 FOR "PRISM" SPECTRUM
$$ SPECTRAL FEATURE AT 1298 CM^-^1 IS AN ARTIFACT CAUSED BY A CHANGE IN SOLVENT
##SAMPLING PROCEDURE=TRANSMISSION
##RESOLUTION=2
##DATA PROCESSING=DIGITIZED BY COBLENTZ SOCIETY (BATCH II) FROM HARD COPY
##XUNITS=1/CM
##YUNITS=TRANSMITTANCE
##XFACTOR=1.0
##YFACTOR=1
##FIRSTX=225
##LASTX=3806
##FIRSTY=0.7773
##MAXX=3806
##MINX=225
##MAXY=0.9144
##MINY=0.0116
##NPOINTS=3582
##XYDATA=(X++(Y..Y))
225.000000 0.7773 0.7748 0.7718 0.7690 0.7661
230.000000 0.7632 0.7609 0.7607 0.7562 0.7538
235.000000 0.7515 0.7493 0.7471 0.7449 0.7418
240.000000 0.7381 0.7344 0.7305 0.7261 0.7217
245.000000 0.7180 0.7153 0.7125 0.7097 0.7067
250.000000 0.7037 0.7007 0.6977 0.6933 0.6880
255.000000 0.6826 0.6764 0.6702 0.6640 0.6578
260.000000 0.6512 0.6445 0.6379 0.6306 0.6227
265.000000 0.6147 0.6067 0.5993 0.5925 0.5857
270.000000 0.5789 0.5720 0.5651 0.5575 0.5500
275.000000 0.5424 0.5349 0.5277 0.5205 0.5134
280.000000 0.5062 0.4990 0.4924 0.4859 0.4793
285.000000 0.4727 0.4666 0.4610 0.4553 0.4520
290.000000 0.4495 0.4471 0.4454 0.4452 0.4417
295.000000 0.4448 0.4454 0.4462 0.4469 0.4476
300.000000 0.4500 0.4531 0.4565 0.4605 0.4645
305.000000 0.4704 0.4805 0.4905 0.5022 0.5145
310.000000 0.5270 0.5407 0.5543 0.5680 0.5817
315.000000 0.5955 0.6092 0.6232 0.6376 0.6520
320.000000 0.6651 0.6764 0.6847 0.6893 0.6938
325.000000 0.6984 0.7018 0.7018 0.7016 0.7013
330.000000 0.7009 0.7039 0.7001 0.6983 0.6964
335.000000 0.6943 0.6923 0.6902 0.6882 0.6852
340.000000 0.6819 0.6787 0.6757 0.6728 0.6699
345.000000 0.6670 0.6641 0.6612 0.6582 0.6552
350.000000 0.6523 0.6498 0.6480 0.6462 0.6444
355.000000 0.6431 0.6421 0.6410 0.6399 0.6388
360.000000 0.6365 0.6334 0.6303 0.6268 0.6232
365.000000 0.6197 0.6161 0.6126 0.6064 0.5994
370.000000 0.5910 0.5788 0.5667 0.5537 0.5404
375.000000 0.5264 0.5099 0.4935 0.4770 0.4606
380.000000 0.4441 0.4277 0.4112 0.3948 0.3783
385.000000 0.3619 0.3454 0.3289 0.3125 0.2965
390.000000 0.2837 0.2421 0.2313 0.2272 0.2268
395.000000 0.2240 0.2292 0.2316 0.2359 0.2447
400.000000 0.2633 0.2819 0.3005 0.3191 0.3377
405.000000 0.3583 0.3736 0.3840 0.3950 0.4111
410.000000 0.4320 0.4487 0.4612 0.4738 0.4851
415.000000 0.4945 0.5038 0.5132 0.5235 0.5342
420.000000 0.5450 0.5558 0.5656 0.5754 0.5851
425.000000 0.5953 0.6068 0.6183 0.6293 0.6399
430.000000 0.6505 0.6607 0.6705 0.6804 0.6902
435.000000 0.6989 0.7073 0.7157 0.7242 0.7311
440.000000 0.7368 0.7425 0.7483 0.7540 0.7597
445.000000 0.7646 0.7691 0.7735 0.7779 0.7823
450.000000 0.7867 0.7911 0.7949 0.7979 0.8010
455.000000 0.8040 0.8071 0.8101 0.8130 0.8156
460.000000 0.8181 0.8206 0.8232 0.8257 0.8282
465.000000 0.8308 0.8327 0.8342 0.8357 0.8372
470.000000 0.8387 0.8402 0.8417 0.8432 0.8447
475.000000 0.8458 0.8468 0.8478 0.8488 0.8499
480.000000 0.8509 0.8519 0.8529 0.8540 0.8550
485.000000 0.8557 0.8562 0.8567 0.8572 0.8577
490.000000 0.8582 0.8587 0.8592 0.8597 0.8602
495.000000 0.8607 0.8612 0.8617 0.8620 0.8624
500.000000 0.8628 0.8631 0.8635 0.8638 0.8642
505.000000 0.8646 0.8649 0.8653 0.8656 0.8660
510.000000 0.8664 0.8667 0.8669 0.8672 0.8675
515.000000 0.8677 0.8680 0.8688 0.8685 0.8688
520.000000 0.8690 0.8691 0.8690 0.8689 0.8688
525.000000 0.8687 0.8686 0.8685 0.8684 0.8682
530.000000 0.8681 0.8680 0.8677 0.8672 0.8667
535.000000 0.8662 0.8657 0.8652 0.8647 0.8642
540.000000 0.8637 0.8632 0.8627 0.8622 0.8617
545.000000 0.8611 0.8605 0.8598 0.8590 0.8583
550.000000 0.8576 0.8568 0.8561 0.8554 0.8547
555.000000 0.8539 0.8530 0.8519 0.8508 0.8497
560.000000 0.8486 0.8476 0.8465 0.8454 0.8438
565.000000 0.8414 0.8390 0.8365 0.8279 0.8205
570.000000 0.8153 0.8122 0.8090 0.8059 0.8032
575.000000 0.8008 0.7985 0.7961 0.7938 0.7891
580.000000 0.7838 0.7785 0.7732 0.7673 0.7610
585.000000 0.7548 0.7485 0.7422 0.7348 0.7270
590.000000 0.7193 0.7115 0.7036 0.6925 0.6812
595.000000 0.6694 0.6576 0.6447 0.6291 0.6012
600.000000 0.5660 0.5308 0.4956 0.4605 0.4241
605.000000 0.3995 0.3787 0.3541 0.2978 0.2695
610.000000 0.2684 0.2694 0.2684 0.2723 0.2762
615.000000 0.2809 0.2856 0.2918 0.2977 0.3034
620.000000 0.3102 0.3179 0.3255 0.3293 0.3330
625.000000 0.3491 0.3703 0.3915 0.4128 0.4340
630.000000 0.4552 0.4764 0.4977 0.5175 0.5344
635.000000 0.5552 0.5879 0.5999 0.6571 0.6867
640.000000 0.7081 0.7185 0.7258 0.7318 0.7365
645.000000 0.7397 0.7413 0.7429 0.7516 0.7709
650.000000 0.7901 0.8345 0.8287 0.8324 0.8318
655.000000 0.8313 0.8304 0.8287 0.8261 0.8229
660.000000 0.8198 0.8165 0.8132 0.8084 0.8030
665.000000 0.7977 0.7924 0.7869 0.7804 0.7739
670.000000 0.7674 0.7624 0.7578 0.7532 0.7516
675.000000 0.7507 0.7524 0.7529 0.7550 0.7584
680.000000 0.7673 0.7750 0.7820 0.7890 0.7962
685.000000 0.8038 0.8114 0.8190 0.8266 0.8341
690.000000 0.8391 0.8435 0.8480 0.8502 0.8513
695.000000 0.8524 0.8532 0.8540 0.8548 0.8556
700.000000 0.8560 0.8565 0.8569 0.8574 0.8578
705.000000 0.8579 0.8578 0.8578 0.8577 0.8576
710.000000 0.8576 0.8575 0.8573 0.8571 0.8569
715.000000 0.8567 0.8565 0.8563 0.8561 0.8558
720.000000 0.8556 0.8553 0.8598 0.8548 0.8546
725.000000 0.8543 0.8540 0.8538 0.8535 0.8531
730.000000 0.8528 0.8524 0.8520 0.8516 0.8513
735.000000 0.8509 0.8505 0.8499 0.8492 0.8485
740.000000 0.8478 0.8471 0.8464 0.8450 0.8434
745.000000 0.8417 0.8400 0.8366 0.8328 0.8290
750.000000 0.8251 0.8202 0.8153 0.8104 0.8050
755.000000 0.7990 0.7930 0.7870 0.7791 0.7696
760.000000 0.7602 0.7516 0.7432 0.7348 0.7264
765.000000 0.7162 0.7057 0.6951 0.6846 0.6742
770.000000 0.6650 0.6558 0.6466 0.6374 0.6255
775.000000 0.6121 0.5987 0.5820 0.5630 0.4581
780.000000 0.4180 0.3779 0.3377 0.2976 0.2575
785.000000 0.2174 0.1959 0.1965 0.1949 0.2278
790.000000 0.2616 0.2954 0.3291 0.3629 0.3966
795.000000 0.4304 0.4642 0.4979 0.5247 0.5238
800.000000 0.5242 0.5126 0.4891 0.4657 0.4423
805.000000 0.4189 0.3954 0.3720 0.3486 0.3251
810.000000 0.3017 0.2970 0.2993 0.3255 0.3752
815.000000 0.4250 0.4747 0.5245 0.5704 0.5894
820.000000 0.6010 0.6126 0.6309 0.6595 0.6902
825.000000 0.7104 0.7247 0.7329 0.7388 0.7431
830.000000 0.7436 0.7437 0.7438 0.7437 0.7485
835.000000 0.7422 0.7415 0.7401 0.7382 0.7363
840.000000 0.7336 0.7299 0.7179 0.7039 0.6898
845.000000 0.6758 0.6617 0.6477 0.6336 0.6196
850.000000 0.6055 0.5915 0.5774 0.5634 0.5399
855.000000 0.5073 0.4924 0.4846 0.4830 0.4815
860.000000 0.4795 0.4851 0.4896 0.4962 0.5098
865.000000 0.5303 0.5508 0.5713 0.5918 0.6123
870.000000 0.6328 0.6566 0.6706 0.6792 0.6834
875.000000 0.6860 0.6873 0.6885 0.6885 0.6885
880.000000 0.6919 0.6872 0.6858 0.6845 0.6823
885.000000 0.6793 0.6762 0.6731 0.6685 0.6631
890.000000 0.6576 0.6515 0.6449 0.6382 0.6304
895.000000 0.6209 0.6114 0.6015 0.5867 0.5719
900.000000 0.5537 0.5330 0.5155 0.4999 0.4843
905.000000 0.4589 0.4295 0.3922 0.3374 0.2698
910.000000 0.2021 0.1345 0.0738 0.0636 0.0553
915.000000 0.0458 0.0279 0.0213 0.0159 0.0133
920.000000 0.0116 0.0122 0.0119 0.0164 0.0189
925.000000 0.0214 0.0246 0.0307 0.0515 0.0783
930.000000 0.1051 0.1318 0.1586 0.1853 0.2121
935.000000 0.2388 0.2656 0.2923 0.3191 0.3458
940.000000 0.3726 0.3993 0.4261 0.4529 0.4796
945.000000 0.5064 0.5331 0.5599 0.5866 0.6108
950.000000 0.6392 0.6590 0.6805 0.7005 0.7141
955.000000 0.7276 0.7394 0.7512 0.7628 0.7740
960.000000 0.7852 0.7945 0.8004 0.8064 0.8123
965.000000 0.8183 0.8238 0.8290 0.8342 0.8394
970.000000 0.8446 0.8489 0.8519 0.8549 0.8578
975.000000 0.8608 0.8631 0.8649 0.8667 0.8686
980.000000 0.8704 0.8722 0.8740 0.8749 0.8755
985.000000 0.8762 0.8768 0.8774 0.8781 0.8787
990.000000 0.8793 0.8800 0.8805 0.8811 0.8817
995.000000 0.8822 0.8828 0.8834 0.8846 0.8863
1000.000000 0.8881 0.8901 0.8921 0.8941 0.8958
1005.000000 0.8974 0.8989 0.9005 0.9021 0.9036
1010.000000 0.9048 0.9058 0.9069 0.9079 0.9089
1015.000000 0.9099 0.9110 0.9114 0.9118 0.9122
1020.000000 0.9126 0.9130 0.9134 0.9132 0.9130
1025.000000 0.9128 0.9127 0.9126 0.9123 0.9121
1030.000000 0.9120 0.9118 0.9116 0.9114 0.9108
1035.000000 0.9102 0.9096 0.9090 0.9083 0.9076
1040.000000 0.9066 0.9056 0.9047 0.9039 0.9034
1045.000000 0.9030 0.9025 0.9020 0.9016 0.9013
1050.000000 0.9011 0.9009 0.9008 0.9006 0.9005
1055.000000 0.9005 0.9005 0.9005 0.9005 0.9005
1060.000000 0.9005 0.9004 0.9001 0.8999 0.8996
1065.000000 0.8993 0.8991 0.8988 0.8986 0.8979
1070.000000 0.8973 0.8966 0.8960 0.8953 0.8947
1075.000000 0.8941 0.8934 0.8928 0.8922 0.8916
1080.000000 0.8911 0.8905 0.8900 0.8894 0.8888
1085.000000 0.8883 0.8877 0.8864 0.8850 0.8836
1090.000000 0.8823 0.8809 0.8791 0.8762 0.8734
1095.000000 0.8706 0.8678 0.8650 0.8617 0.8576
1100.000000 0.8536 0.8495 0.8452 0.8394 0.8336
1105.000000 0.8279 0.8231 0.8184 0.8138 0.8092
1110.000000 0.8046 0.7996 0.7930 0.7865 0.7799
1115.000000 0.7733 0.7668 0.7589 0.7501 0.7413
1120.000000 0.7325 0.7177 0.7027 0.6876 0.6725
1125.000000 0.6574 0.6445 0.6317 0.6189 0.6055
1130.000000 0.5921 0.5787 0.5650 0.5506 0.5363
1135.000000 0.5207 0.5038 0.4820 0.4567 0.4314
1140.000000 0.4061 0.3807 0.3554 0.3301 0.3048
1145.000000 0.2794 0.2541 0.2222 0.2081 0.1979
1150.000000 0.1893 0.1875 0.1880 0.1871 0.1911
1155.000000 0.1929 0.1952 0.1974 0.2000 0.2027
1160.000000 0.2065 0.2106 0.2173 0.2314 0.2531
1165.000000 0.2748 0.2965 0.3182 0.3399 0.3616
1170.000000 0.3833 0.4050 0.4267 0.4484 0.4701
1175.000000 0.4918 0.5135 0.5352 0.5569 0.5786
1180.000000 0.5941 0.6090 0.6336 0.6584 0.6717
1185.000000 0.6851 0.7031 0.7227 0.7433 0.7548
1190.000000 0.7656 0.7753 0.7832 0.7912 0.7983
1195.000000 0.8029 0.8074 0.8120 0.8160 0.8200
1200.000000 0.8239 0.8278 0.8311 0.8331 0.8350
1205.000000 0.8370 0.8385 0.8390 0.8395 0.8400
1210.000000 0.8399 0.8395 0.8398 0.8377 0.8364
1215.000000 0.8348 0.8323 0.8293 0.8262 0.8230
1220.000000 0.8201 0.8173 0.8144 0.8116 0.8083
1225.000000 0.8041 0.7999 0.7957 0.7887 0.7779
1230.000000 0.7653 0.7539 0.7419 0.7270 0.7094
1235.000000 0.6895 0.6551 0.6019 0.5725 0.4952
1240.000000 0.4264 0.3575 0.2887 0.2199 0.1511
1245.000000 0.0897 0.0894 0.0894 0.0894 0.1684
1250.000000 0.2761 0.3838 0.4915 0.5992 0.7069
1255.000000 0.8078 0.8187 0.8270 0.8333 0.8396
1260.000000 0.8459 0.8509 0.8549 0.8588 0.8621
1265.000000 0.8645 0.8668 0.8692 0.8714 0.8732
1270.000000 0.8749 0.8766 0.8784 0.8800 0.8813
1275.000000 0.8826 0.8839 0.8849 0.8855 0.8862
1280.000000 0.8868 0.8875 0.8881 0.8888 0.8889
1285.000000 0.8890 0.8891 0.8892 0.8893 0.8895
1290.000000 0.8896 0.8898 0.8899 0.8898 0.8895
1295.000000 0.8857 0.8389 0.7922 0.7455 0.7440
1300.000000 0.7495 0.7566 0.7647 0.7725 0.7791
1305.000000 0.7835 0.7865 0.7895 0.7931 0.7966
1310.000000 0.7993 0.8012 0.8032 0.8050 0.8065
1315.000000 0.8081 0.8093 0.8104 0.8115 0.8123
1320.000000 0.8127 0.8132 0.8136 0.8140 0.8140
1325.000000 0.8139 0.8138 0.8137 0.8136 0.8134
1330.000000 0.8132 0.8148 0.8128 0.8126 0.8123
1335.000000 0.8121 0.8119 0.8117 0.8115 0.8112
1340.000000 0.8109 0.8105 0.8101 0.8098 0.8091
1345.000000 0.8084 0.8077 0.8070 0.8064 0.8057
1350.000000 0.8050 0.8043 0.8039 0.8038 0.8037
1355.000000 0.8036 0.8036 0.8038 0.8040 0.8042
1360.000000 0.8043 0.8045 0.8047 0.8049 0.8050
1365.000000 0.8044 0.8034 0.8020 0.8007 0.7991
1370.000000 0.7970 0.7949 0.7927 0.7906 0.7885
1375.000000 0.7841 0.7783 0.7736 0.7657 0.7555
1380.000000 0.7495 0.7435 0.7376 0.7318 0.7259
1385.000000 0.7192 0.7103 0.7015 0.6930 0.6846
1390.000000 0.6745 0.6629 0.6538 0.6453 0.6382
1395.000000 0.6323 0.6264 0.6220 0.6190 0.6175
1400.000000 0.6169 0.6192 0.6208 0.6232 0.6273
1405.000000 0.6314 0.6364 0.6425 0.6486 0.6547
1410.000000 0.6633 0.6730 0.6837 0.6966 0.7059
1415.000000 0.7135 0.7167 0.7188 0.7191 0.7194
1420.000000 0.7260 0.7167 0.7150 0.7127 0.7100
1425.000000 0.7050 0.7006 0.6993 0.6996 0.7004
1430.000000 0.6966 0.7035 0.7064 0.7095 0.7127
1435.000000 0.7159 0.7191 0.7224 0.7274 0.7325
1440.000000 0.7405 0.7493 0.7581 0.7665 0.7749
1445.000000 0.7798 0.7843 0.7889 0.7931 0.7972
1450.000000 0.8013 0.8033 0.8053 0.8073 0.8086
1455.000000 0.8098 0.8110 0.8122 0.8134 0.8146
1460.000000 0.8158 0.8169 0.8182 0.8201 0.8220
1465.000000 0.8239 0.8255 0.8266 0.8278 0.8290
1470.000000 0.8300 0.8302 0.8304 0.8306 0.8308
1475.000000 0.8310 0.8311 0.8309 0.8307 0.8304
1480.000000 0.8302 0.8300 0.8293 0.8285 0.8278
1485.000000 0.8270 0.8262 0.8261 0.8261 0.8261
1490.000000 0.8262 0.8272 0.8282 0.8292 0.8302
1495.000000 0.8312 0.8322 0.8336 0.8349 0.8363
1500.000000 0.8377 0.8390 0.8404 0.8418 0.8433
1505.000000 0.8448 0.8464 0.8480 0.8496 0.8513
1510.000000 0.8532 0.8551 0.8569 0.8588 0.8606
1515.000000 0.8614 0.8623 0.8625 0.8625 0.8626
1520.000000 0.8627 0.8628 0.8627 0.8626 0.8625
1525.000000 0.8624 0.8623 0.8622 0.8621 0.8620
1530.000000 0.8621 0.8622 0.8623 0.8624 0.8626
1535.000000 0.8627 0.8629 0.8634 0.8638 0.8643
1540.000000 0.8647 0.8653 0.8659 0.8666 0.8672
1545.000000 0.8679 0.8685 0.8692 0.8699 0.8704
1550.000000 0.8708 0.8712 0.8716 0.8720 0.8717
1555.000000 0.8715 0.8712 0.8710 0.8708 0.8708
1560.000000 0.8708 0.8708 0.8708 0.8708 0.8708
1565.000000 0.8710 0.8712 0.8714 0.8717 0.8719
1570.000000 0.8721 0.8724 0.8732 0.8739 0.8751
1575.000000 0.8766 0.8781 0.8796 0.8811 0.8826
1580.000000 0.8836 0.8843 0.8851 0.8858 0.8863
1585.000000 0.8864 0.8865 0.8866 0.8866 0.8865
1590.000000 0.8863 0.8862 0.8861 0.8860 0.8858
1595.000000 0.8855 0.8852 0.8849 0.8846 0.8843
1600.000000 0.8840 0.8837 0.8834 0.8831 0.8832
1605.000000 0.8832 0.8833 0.8833 0.8834 0.8834
1610.000000 0.8835 0.8838 0.8841 0.8844 0.8848
1615.000000 0.8851 0.8854 0.8857 0.8860 0.8863
1620.000000 0.8865 0.8867 0.8869 0.8872 0.8874
1625.000000 0.8876 0.8878 0.8881 0.8883 0.8885
1630.000000 0.8886 0.8888 0.8889 0.8891 0.8892
1635.000000 0.8893 0.8895 0.8896 0.8898 0.8899
1640.000000 0.8900 0.8902 0.8903 0.8904 0.8905
1645.000000 0.8907 0.8908 0.8909 0.8911 0.8912
1650.000000 0.8913 0.8915 0.8916 0.8917 0.8919
1655.000000 0.8920 0.8921 0.8923 0.8924 0.8926
1660.000000 0.8927 0.8927 0.8927 0.8927 0.8927
1665.000000 0.8927 0.8926 0.8926 0.8926 0.8926
1670.000000 0.8926 0.8926 0.8926 0.8926 0.8926
1675.000000 0.8926 0.8926 0.8925 0.8924 0.8923
1680.000000 0.8922 0.8921 0.8920 0.8919 0.8918
1685.000000 0.8917 0.8916 0.8915 0.8914 0.8913
1690.000000 0.8912 0.8911 0.8910 0.8909 0.8908
1695.000000 0.8906 0.8905 0.8903 0.8902 0.8901
1700.000000 0.8899 0.8898 0.8896 0.8895 0.8894
1705.000000 0.8892 0.8891 0.8889 0.8888 0.8886
1710.000000 0.8885 0.8884 0.8883 0.8883 0.8883
1715.000000 0.8883 0.8883 0.8883 0.8883 0.8883
1720.000000 0.8883 0.8883 0.8883 0.8883 0.8883
1725.000000 0.8883 0.8883 0.8883 0.8883 0.8882
1730.000000 0.8881 0.8881 0.8880 0.8879 0.8879
1735.000000 0.8878 0.8877 0.8877 0.8876 0.8875
1740.000000 0.8875 0.8875 0.8877 0.8880 0.8885
1745.000000 0.8893 0.8903 0.8912 0.8921 0.8930
1750.000000 0.8937 0.8942 0.8945 0.8946 0.8947
1755.000000 0.8948 0.8947 0.8945 0.8944 0.8942
1760.000000 0.8941 0.8939 0.8938 0.8936 0.8935
1765.000000 0.8933 0.8931 0.8929 0.8926 0.8923
1770.000000 0.8921 0.8916 0.8912 0.8907 0.8902
1775.000000 0.8897 0.8893 0.8888 0.8885 0.8885
1780.000000 0.8885 0.8888 0.8892 0.8895 0.8899
1785.000000 0.8903 0.8907 0.8910 0.8914 0.8918
1790.000000 0.8923 0.8927 0.8931 0.8934 0.8936
1795.000000 0.8939 0.8942 0.8945 0.8949 0.8952
1800.000000 0.8955 0.8959 0.8962 0.8966 0.8968
1805.000000 0.8970 0.8972 0.8974 0.8976 0.8978
1810.000000 0.8980 0.8983 0.8985 0.8988 0.8992
1815.000000 0.8999 0.9005 0.9012 0.9018 0.9021
1820.000000 0.9025 0.9029 0.9033 0.9035 0.9034
1825.000000 0.9032 0.9031 0.9029 0.9027 0.9026
1830.000000 0.9024 0.9022 0.9020 0.9016 0.9012
1835.000000 0.9007 0.9002 0.8997 0.8992 0.8987
1840.000000 0.8982 0.8977 0.8973 0.8970 0.8967
1845.000000 0.8958 0.8962 0.8959 0.8955 0.8951
1850.000000 0.8947 0.8943 0.8939 0.8935 0.8931
1855.000000 0.8927 0.8922 0.8917 0.8912 0.8908
1860.000000 0.8903 0.8898 0.8894 0.8890 0.8886
1865.000000 0.8882 0.8878 0.8876 0.8876 0.8876
1870.000000 0.8876 0.8876 0.8879 0.8883 0.8887
1875.000000 0.8892 0.8897 0.8903 0.8909 0.8914
1880.000000 0.8920 0.8925 0.8938 0.8952 0.8966
1885.000000 0.8976 0.8984 0.8991 0.8995 0.8995
1890.000000 0.8995 0.8995 0.8995 0.8995 0.8995
1895.000000 0.8995 0.8994 0.8992 0.8990 0.8987
1900.000000 0.8985 0.8983 0.8981 0.8978 0.8976
1905.000000 0.8969 0.8961 0.8953 0.8945 0.8937
1910.000000 0.8929 0.8920 0.8910 0.8901 0.8892
1915.000000 0.8882 0.8873 0.8862 0.8848 0.8834
1920.000000 0.8821 0.8807 0.8792 0.8776 0.8772
1925.000000 0.8775 0.8778 0.8782 0.8786 0.8794
1930.000000 0.8802 0.8809 0.8817 0.8832 0.8852
1935.000000 0.8870 0.8880 0.8890 0.8900 0.8910
1940.000000 0.8919 0.8928 0.8937 0.8945 0.8953
1945.000000 0.8961 0.8966 0.8963 0.8959 0.8956
1950.000000 0.8952 0.8949 0.8947 0.8946 0.8944
1955.000000 0.8943 0.8942 0.8941 0.8940 0.8938
1960.000000 0.8935 0.8933 0.8931 0.8928 0.8926
1965.000000 0.8924 0.8921 0.8919 0.8917 0.8913
1970.000000 0.8909 0.8905 0.8902 0.8898 0.8894
1975.000000 0.8890 0.8886 0.8882 0.8878 0.8879
1980.000000 0.8881 0.8883 0.8886 0.8888 0.8893
1985.000000 0.8902 0.8912 0.8921 0.8930 0.8940
1990.000000 0.8949 0.8958 0.8979 0.9009 0.9038
1995.000000 0.9066 0.9083 0.9101 0.9108 0.9090
2000.000000 0.9070 0.9050 0.9031 0.9022 0.9013
2005.000000 0.9004 0.8995 0.8989 0.8983 0.8977
2010.000000 0.8972 0.8967 0.8962 0.8959 0.8957
2015.000000 0.8955 0.8953 0.8952 0.8951 0.8952
2020.000000 0.8954 0.8955 0.8957 0.8958 0.8960
2025.000000 0.8961 0.8963 0.8964 0.8966 0.8968
2030.000000 0.8970 0.8972 0.8974 0.8976 0.8978
2035.000000 0.8980 0.8982 0.8984 0.8987 0.8988
2040.000000 0.8990 0.8991 0.8992 0.8993 0.8994
2045.000000 0.8995 0.8997 0.8998 0.8999 0.8999
2050.000000 0.9000 0.8999 0.8999 0.8998 0.8998
2055.000000 0.8997 0.8997 0.8996 0.8995 0.8994
2060.000000 0.8994 0.8993 0.8993 0.8992 0.8992
2065.000000 0.8991 0.8991 0.8990 0.8990 0.8989
2070.000000 0.8989 0.8988 0.8988 0.8987 0.8987
2075.000000 0.8986 0.8986 0.8985 0.8985 0.8984
2080.000000 0.8984 0.8983 0.8983 0.8983 0.8983
2085.000000 0.8982 0.8982 0.8981 0.8981 0.8980
2090.000000 0.8979 0.8978 0.8978 0.8977 0.8976
2095.000000 0.8975 0.8974 0.8973 0.8973 0.8972
2100.000000 0.8971 0.8970 0.8970 0.8970 0.8970
2105.000000 0.8972 0.8975 0.8977 0.8979 0.8981
2110.000000 0.8984 0.8986 0.8988 0.8990 0.8993
2115.000000 0.8995 0.8997 0.8999 0.9001 0.9003
2120.000000 0.9005 0.9007 0.9010 0.9012 0.9015
2125.000000 0.9018 0.9021 0.9024 0.9027 0.9030
2130.000000 0.9033 0.9036 0.9039 0.9041 0.9044
2135.000000 0.9045 0.9047 0.9047 0.9048 0.9049
2140.000000 0.9050 0.9050 0.9051 0.9051 0.9052
2145.000000 0.9053 0.9054 0.9054 0.9055 0.9056
2150.000000 0.9057 0.9056 0.9056 0.9054 0.9053
2155.000000 0.9051 0.9050 0.9049 0.9048 0.9046
2160.000000 0.9045 0.9044 0.9043 0.9041 0.9040
2165.000000 0.9039 0.9038 0.9035 0.9032 0.9029
2170.000000 0.9027 0.9024 0.9022 0.9019 0.9017
2175.000000 0.9014 0.9011 0.9009 0.9007 0.9007
2180.000000 0.9007 0.9007 0.9008 0.9008 0.9009
2185.000000 0.9009 0.9010 0.9011 0.9012 0.9014
2190.000000 0.9017 0.9019 0.9022 0.9024 0.9027
2195.000000 0.9029 0.9032 0.9034 0.9037 0.9036
2200.000000 0.9035 0.9034 0.9034 0.9033 0.9032
2205.000000 0.9031 0.9030 0.9029 0.9028 0.9027
2210.000000 0.9026 0.9024 0.9023 0.9021 0.9020
2215.000000 0.9018 0.9017 0.9015 0.9013 0.9011
2220.000000 0.9010 0.9008 0.9007 0.9005 0.9004
2225.000000 0.9002 0.9000 0.8998 0.8997 0.8995
2230.000000 0.8994 0.8991 0.8989 0.8986 0.8984
2235.000000 0.8981 0.8979 0.8976 0.8974 0.8971
2240.000000 0.8969 0.8966 0.8964 0.8962 0.8960
2245.000000 0.8957 0.8955 0.8952 0.8950 0.8947
2250.000000 0.8945 0.8942 0.8940 0.8937 0.8935
2255.000000 0.8933 0.8932 0.8931 0.8930 0.8929
2260.000000 0.8929 0.8928 0.8928 0.8927 0.8926
2265.000000 0.8925 0.8925 0.8924 0.8924 0.8923
2270.000000 0.8922 0.8921 0.8921 0.8922 0.8923
2275.000000 0.8925 0.8928 0.8930 0.8932 0.8934
2280.000000 0.8937 0.8939 0.8942 0.8944 0.8946
2285.000000 0.8948 0.8951 0.8953 0.8955 0.8957
2290.000000 0.8960 0.8962 0.8964 0.8966 0.8969
2295.000000 0.8971 0.8973 0.8975 0.8978 0.8981
2300.000000 0.8984 0.8991 0.8999 0.9006 0.9014
2305.000000 0.9021 0.9029 0.9036 0.9044 0.9052
2310.000000 0.9060 0.9065 0.9071 0.9076 0.9082
2315.000000 0.9088 0.9094 0.9098 0.9103 0.9106
2320.000000 0.9110 0.9114 0.9118 0.9122 0.9126
2325.000000 0.9129 0.9133 0.9133 0.9134 0.9134
2330.000000 0.9135 0.9136 0.9137 0.9138 0.9139
2335.000000 0.9140 0.9142 0.9143 0.9144 0.9143
2340.000000 0.9143 0.9142 0.9142 0.9141 0.9141
2345.000000 0.9140 0.9140 0.9139 0.9139 0.9138
2350.000000 0.9138 0.9137 0.9136 0.9135 0.9135
2355.000000 0.9134 0.9133 0.9132 0.9132 0.9131
2360.000000 0.9130 0.9129 0.9129 0.9128 0.9127
2365.000000 0.9126 0.9126 0.9124 0.9123 0.9121
2370.000000 0.9120 0.9118 0.9116 0.9114 0.9112
2375.000000 0.9110 0.9108 0.9106 0.9104 0.9102
2380.000000 0.9100 0.9098 0.9096 0.9093 0.9091
2385.000000 0.9088 0.9086 0.9083 0.9081 0.9078
2390.000000 0.9076 0.9073 0.9070 0.9067 0.9065
2395.000000 0.9062 0.9060 0.9057 0.9054 0.9051
2400.000000 0.9049 0.9048 0.9047 0.9047 0.9047
2405.000000 0.9047 0.9048 0.9048 0.9048 0.9048
2410.000000 0.9049 0.9049 0.9049 0.9049 0.9050
2415.000000 0.9050 0.9050 0.9050 0.9051 0.9051
2420.000000 0.9052 0.9052 0.9053 0.9053 0.9054
2425.000000 0.9055 0.9056 0.9056 0.9057 0.9058
2430.000000 0.9059 0.9062 0.9066 0.9069 0.9072
2435.000000 0.9075 0.9079 0.9082 0.9085 0.9088
2440.000000 0.9092 0.9092 0.9092 0.9091 0.9091
2445.000000 0.9090 0.9090 0.9089 0.9089 0.9085
2450.000000 0.9082 0.9076 0.9070 0.9064 0.9058
2455.000000 0.9052 0.9046 0.9040 0.9034 0.9028
2460.000000 0.9022 0.9016 0.9010 0.9004 0.8998
2465.000000 0.8992 0.8986 0.8979 0.8972 0.8965
2470.000000 0.8959 0.8952 0.8945 0.8938 0.8931
2475.000000 0.8924 0.8918 0.8914 0.8911 0.8907
2480.000000 0.8904 0.8900 0.8897 0.8893 0.8890
2485.000000 0.8886 0.8883 0.8886 0.8890 0.8895
2490.000000 0.8900 0.8905 0.8911 0.8916 0.8922
2495.000000 0.8927 0.8933 0.8941 0.8949 0.8958
2500.000000 0.8967 0.8976 0.8985 0.8991 0.8998
2505.000000 0.9000 0.9002 0.9004 0.9007 0.9009
2510.000000 0.9011 0.9013 0.9016 0.9018 0.9020
2515.000000 0.9022 0.9025 0.9027 0.9029 0.9029
2520.000000 0.9030 0.9030 0.9030 0.9030 0.9030
2525.000000 0.9030 0.9030 0.9030 0.9030 0.9030
2530.000000 0.9030 0.9030 0.9030 0.9029 0.9029
2535.000000 0.9029 0.9029 0.9028 0.9028 0.9028
2540.000000 0.9028 0.9027 0.9027 0.9026 0.9026
2545.000000 0.9026 0.9026 0.9025 0.9025 0.9025
2550.000000 0.9025 0.9024 0.9024 0.9023 0.9023
2555.000000 0.9023 0.9023 0.9022 0.9022 0.9021
2560.000000 0.9021 0.9020 0.9020 0.9019 0.9018
2565.000000 0.9017 0.9017 0.9016 0.9016 0.9015
2570.000000 0.9014 0.9013 0.9013 0.9012 0.9011
2575.000000 0.9010 0.9010 0.9009 0.9008 0.9007
2580.000000 0.9007 0.9006 0.9005 0.9004 0.9004
2585.000000 0.9003 0.9002 0.9001 0.9000 0.8999
2590.000000 0.8998 0.8997 0.8996 0.8994 0.8993
2595.000000 0.8992 0.8991 0.8990 0.8989 0.8987
2600.000000 0.8986 0.8985 0.8984 0.8982 0.8981
2605.000000 0.8980 0.8979 0.8978 0.8977 0.8975
2610.000000 0.8974 0.8973 0.8972 0.8970 0.8968
2615.000000 0.8965 0.8962 0.8959 0.8956 0.8953
2620.000000 0.8950 0.8947 0.8944 0.8941 0.8938
2625.000000 0.8935 0.8932 0.8929 0.8926 0.8922
2630.000000 0.8919 0.8916 0.8913 0.8910 0.8907
2635.000000 0.8904 0.8901 0.8898 0.8895 0.8892
2640.000000 0.8889 0.8886 0.8884 0.8881 0.8878
2645.000000 0.8876 0.8874 0.8876 0.8878 0.8880
2650.000000 0.8882 0.8884 0.8887 0.8890 0.8894
2655.000000 0.8898 0.8902 0.8906 0.8910 0.8914
2660.000000 0.8918 0.8922 0.8926 0.8929 0.8933
2665.000000 0.8934 0.8935 0.8936 0.8937 0.8938
2670.000000 0.8940 0.8941 0.8942 0.8942 0.8943
2675.000000 0.8942 0.8942 0.8942 0.8942 0.8941
2680.000000 0.8941 0.8940 0.8940 0.8940 0.8940
2685.000000 0.8939 0.8939 0.8937 0.8936 0.8934
2690.000000 0.8932 0.8930 0.8928 0.8926 0.8924
2695.000000 0.8922 0.8920 0.8918 0.8916 0.8914
2700.000000 0.8912 0.8910 0.8908 0.8906 0.8904
2705.000000 0.8902 0.8901 0.8899 0.8897 0.8895
2710.000000 0.8893 0.8891 0.8889 0.8887 0.8885
2715.000000 0.8883 0.8881 0.8879 0.8877 0.8875
2720.000000 0.8873 0.8871 0.8870 0.8868 0.8866
2725.000000 0.8864 0.8862 0.8860 0.8858 0.8856
2730.000000 0.8854 0.8851 0.8848 0.8844 0.8841
2735.000000 0.8837 0.8834 0.8830 0.8826 0.8822
2740.000000 0.8819 0.8815 0.8812 0.8808 0.8805
2745.000000 0.8801 0.8797 0.8790 0.8783 0.8776
2750.000000 0.8769 0.8762 0.8755 0.8748 0.8742
2755.000000 0.8735 0.8728 0.8717 0.8706 0.8692
2760.000000 0.8678 0.8664 0.8650 0.8636 0.8622
2765.000000 0.8607 0.8593 0.8577 0.8562 0.8538
2770.000000 0.8515 0.8492 0.8469 0.8446 0.8423
2775.000000 0.8400 0.8378 0.8357 0.8337 0.8317
2780.000000 0.8297 0.8277 0.8257 0.8236 0.8216
2785.000000 0.8195 0.8175 0.8154 0.8133 0.8112
2790.000000 0.8092 0.8077 0.8063 0.8059 0.8056
2795.000000 0.8052 0.8049 0.8045 0.8042 0.8039
2800.000000 0.8036 0.8034 0.8032 0.8030 0.8029
2805.000000 0.8027 0.8026 0.8024 0.8023 0.8021
2810.000000 0.8020 0.8018 0.8017 0.8015 0.8014
2815.000000 0.8013 0.8012 0.8010 0.8009 0.8007
2820.000000 0.8006 0.8004 0.8002 0.8000 0.7998
2825.000000 0.7996 0.7994 0.7989 0.7984 0.7978
2830.000000 0.7973 0.7967 0.7962 0.7956 0.7951
2835.000000 0.7945 0.7940 0.7933 0.7926 0.7918
2840.000000 0.7910 0.7902 0.7894 0.7886 0.7878
2845.000000 0.7869 0.7861 0.7847 0.7834 0.7819
2850.000000 0.7804 0.7789 0.7774 0.7759 0.7744
2855.000000 0.7726 0.7709 0.7684 0.7659 0.7634
2860.000000 0.7609 0.7584 0.7560 0.7526 0.7493
2865.000000 0.7455 0.7417 0.7378 0.7340 0.7282
2870.000000 0.7225 0.7163 0.7101 0.7040 0.6979
2875.000000 0.6933 0.6887 0.6841 0.6795 0.6749
2880.000000 0.6704 0.6658 0.6612 0.6566 0.6520
2885.000000 0.6357 0.6194 0.6073 0.5952 0.5831
2890.000000 0.5711 0.5590 0.5469 0.5348 0.5227
2895.000000 0.5106 0.4985 0.4864 0.4743 0.4692
2900.000000 0.4665 0.4649 0.4657 0.4808 0.4959
2905.000000 0.5124 0.5289 0.5453 0.5618 0.5782
2910.000000 0.5947 0.6111 0.6276 0.6358 0.6440
2915.000000 0.6445 0.6451 0.6451 0.6451 0.6450
2920.000000 0.6464 0.6443 0.6437 0.6422 0.6408
2925.000000 0.6375 0.6343 0.6312 0.6282 0.6221
2930.000000 0.6161 0.6110 0.6059 0.6008 0.5958
2935.000000 0.5885 0.5813 0.5714 0.5616 0.5491
2940.000000 0.5366 0.4893 0.4421 0.4023 0.3625
2945.000000 0.3227 0.2829 0.2431 0.2033 0.1635
2950.000000 0.1237 0.0849 0.0462 0.0411 0.0361
2955.000000 0.0356 0.0352 0.0361 0.0326 0.0382
2960.000000 0.0393 0.0421 0.0449 0.0497 0.0546
2965.000000 0.0657 0.0768 0.1102 0.1437 0.1771
2970.000000 0.2106 0.2440 0.2775 0.3109 0.3444
2975.000000 0.3778 0.4113 0.4448 0.4783 0.5117
2980.000000 0.5452 0.5728 0.6004 0.6055 0.6107
2985.000000 0.6157 0.6208 0.6273 0.6339 0.6530
2990.000000 0.6721 0.6898 0.7075 0.7212 0.7350
2995.000000 0.7412 0.7475 0.7531 0.7588 0.7619
3000.000000 0.7651 0.7682 0.7713 0.7744 0.7775
3005.000000 0.7819 0.7864 0.7911 0.7959 0.7978
3010.000000 0.7997 0.8016 0.8036 0.8055 0.8075
3015.000000 0.8091 0.8108 0.8119 0.8130 0.8141
3020.000000 0.8153 0.8162 0.8172 0.8177 0.8182
3025.000000 0.8186 0.8191 0.8196 0.8201 0.8204
3030.000000 0.8208 0.8207 0.8207 0.8206 0.8206
3035.000000 0.8205 0.8205 0.8204 0.8204 0.8205
3040.000000 0.8206 0.8208 0.8210 0.8212 0.8215
3045.000000 0.8217 0.8219 0.8221 0.8223 0.8231
3050.000000 0.8239 0.8247 0.8256 0.8264 0.8272
3055.000000 0.8280 0.8288 0.8296 0.8304 0.8311
3060.000000 0.8318 0.8325 0.8333 0.8340 0.8347
3065.000000 0.8351 0.8356 0.8360 0.8364 0.8367
3070.000000 0.8371 0.8374 0.8378 0.8380 0.8382
3075.000000 0.8382 0.8383 0.8383 0.8384 0.8384
3080.000000 0.8385 0.8385 0.8386 0.8386 0.8387
3085.000000 0.8387 0.8387 0.8387 0.8388 0.8388
3090.000000 0.8389 0.8389 0.8389 0.8388 0.8388
3095.000000 0.8388 0.8388 0.8387 0.8387 0.8386
3100.000000 0.8386 0.8386 0.8386 0.8385 0.8385
3105.000000 0.8386 0.8387 0.8388 0.8390 0.8392
3110.000000 0.8394 0.8395 0.8397 0.8398 0.8400
3115.000000 0.8402 0.8404 0.8411 0.8418 0.8427
3120.000000 0.8436 0.8444 0.8453 0.8461 0.8470
3125.000000 0.8480 0.8490 0.8500 0.8511 0.8521
3130.000000 0.8532 0.8542 0.8553 0.8561 0.8569
3135.000000 0.8576 0.8584 0.8592 0.8600 0.8607
3140.000000 0.8615 0.8621 0.8628 0.8633 0.8639
3145.000000 0.8644 0.8649 0.8654 0.8660 0.8665
3150.000000 0.8671 0.8676 0.8682 0.8687 0.8693
3155.000000 0.8698 0.8703 0.8708 0.8713 0.8717
3160.000000 0.8722 0.8727 0.8732 0.8737 0.8742
3165.000000 0.8745 0.8748 0.8750 0.8753 0.8755
3170.000000 0.8758 0.8760 0.8763 0.8765 0.8768
3175.000000 0.8770 0.8773 0.8775 0.8778 0.8780
3180.000000 0.8783 0.8785 0.8788 0.8790 0.8793
3185.000000 0.8796 0.8799 0.8801 0.8804 0.8807
3190.000000 0.8810 0.8812 0.8815 0.8817 0.8820
3195.000000 0.8823 0.8826 0.8828 0.8831 0.8834
3200.000000 0.8837 0.8839 0.8842 0.8845 0.8848
3205.000000 0.8850 0.8853 0.8855 0.8857 0.8859
3210.000000 0.8861 0.8863 0.8866 0.8868 0.8870
3215.000000 0.8872 0.8874 0.8876 0.8878 0.8880
3220.000000 0.8883 0.8885 0.8887 0.8888 0.8889
3225.000000 0.8889 0.8890 0.8891 0.8892 0.8892
3230.000000 0.8893 0.8894 0.8895 0.8896 0.8897
3235.000000 0.8897 0.8898 0.8899 0.8900 0.8901
3240.000000 0.8902 0.8903 0.8904 0.8905 0.8906
3245.000000 0.8906 0.8907 0.8908 0.8909 0.8910
3250.000000 0.8911 0.8912 0.8913 0.8913 0.8914
3255.000000 0.8914 0.8915 0.8915 0.8916 0.8916
3260.000000 0.8917 0.8917 0.8918 0.8918 0.8919
3265.000000 0.8919 0.8920 0.8920 0.8921 0.8921
3270.000000 0.8922 0.8922 0.8923 0.8923 0.8924
3275.000000 0.8924 0.8925 0.8925 0.8925 0.8925
3280.000000 0.8925 0.8925 0.8925 0.8925 0.8925
3285.000000 0.8925 0.8925 0.8925 0.8960 0.8925
3290.000000 0.8925 0.8925 0.8925 0.8925 0.8925
3295.000000 0.8925 0.8925 0.8924 0.8924 0.8924
3300.000000 0.8924 0.8923 0.8923 0.8923 0.8923
3305.000000 0.8922 0.8922 0.8922 0.8922 0.8921
3310.000000 0.8921 0.8919 0.8918 0.8915 0.8912
3315.000000 0.8909 0.8906 0.8903 0.8900 0.8897
3320.000000 0.8894 0.8891 0.8888 0.8883 0.8878
3325.000000 0.8873 0.8868 0.8863 0.8858 0.8853
3330.000000 0.8848 0.8842 0.8836 0.8828 0.8821
3335.000000 0.8814 0.8807 0.8799 0.8792 0.8785
3340.000000 0.8778 0.8770 0.8762 0.8751 0.8741
3345.000000 0.8730 0.8719 0.8708 0.8698 0.8687
3350.000000 0.8676 0.8661 0.8646 0.8629 0.8612
3355.000000 0.8595 0.8578 0.8560 0.8543 0.8517
3360.000000 0.8491 0.8461 0.8431 0.8401 0.8372
3365.000000 0.8341 0.8311 0.8272 0.8233 0.8194
3370.000000 0.8155 0.8093 0.8032 0.7968 0.7904
3375.000000 0.7853 0.7802 0.7750 0.7699 0.7647
3380.000000 0.7596 0.7542 0.7488 0.7433 0.7378
3385.000000 0.7322 0.7267 0.7188 0.7109 0.7029
3390.000000 0.6949 0.6862 0.6775 0.6689 0.6604
3395.000000 0.6520 0.6437 0.5958 0.5479 0.5078
3400.000000 0.4677 0.4276 0.3876 0.3475 0.3075
3405.000000 0.2674 0.2274 0.2122 0.1970 0.1970
3410.000000 0.1931 0.1973 0.1976 0.2263 0.2551
3415.000000 0.2904 0.3258 0.3611 0.3965 0.4318
3420.000000 0.4672 0.5025 0.5379 0.5732 0.6086
3425.000000 0.6423 0.6761 0.6842 0.6923 0.7072
3430.000000 0.7221 0.7331 0.7441 0.7556 0.7671
3435.000000 0.7747 0.7824 0.7884 0.7944 0.7998
3440.000000 0.8052 0.8098 0.8145 0.8191 0.8238
3445.000000 0.8271 0.8305 0.8329 0.8354 0.8378
3450.000000 0.8403 0.8427 0.8452 0.8475 0.8498
3455.000000 0.8516 0.8535 0.8553 0.8572 0.8590
3460.000000 0.8609 0.8627 0.8646 0.8657 0.8669
3465.000000 0.8681 0.8693 0.8704 0.8716 0.8728
3470.000000 0.8740 0.8751 0.8763 0.8774 0.8785
3475.000000 0.8793 0.8801 0.8808 0.8816 0.8823
3480.000000 0.8831 0.8838 0.8846 0.8853 0.8861
3485.000000 0.8868 0.8876 0.8883 0.8891 0.8898
3490.000000 0.8906 0.8911 0.8917 0.8922 0.8927
3495.000000 0.8932 0.8937 0.8941 0.8946 0.8951
3500.000000 0.8956 0.8960 0.8965 0.8970 0.8975
3505.000000 0.8980 0.8985 0.8989 0.8994 0.8999
3510.000000 0.9004 0.9006 0.9008 0.9010 0.9012
3515.000000 0.9014 0.9017 0.9019 0.9021 0.9023
3520.000000 0.9025 0.9027 0.9029 0.9031 0.9035
3525.000000 0.9034 0.9035 0.9035 0.9035 0.9035
3530.000000 0.9035 0.9035 0.9035 0.9035 0.9035
3535.000000 0.9034 0.9034 0.9032 0.9030 0.9028
3540.000000 0.9027 0.9025 0.9024 0.9022 0.9021
3545.000000 0.9019 0.9018 0.9016 0.9015 0.9013
3550.000000 0.9011 0.9009 0.9008 0.9006 0.9005
3555.000000 0.9003 0.9002 0.9000 0.8998 0.8996
3560.000000 0.8994 0.8992 0.8991 0.8989 0.8987
3565.000000 0.8985 0.8983 0.8981 0.8980 0.8978
3570.000000 0.8976 0.8974 0.8972 0.8975 0.8978
3575.000000 0.8981 0.8985 0.8988 0.8991 0.8993
3580.000000 0.8996 0.8997 0.8999 0.9000 0.9001
3585.000000 0.9001 0.9001 0.8995 0.8989 0.8983
3590.000000 0.8977 0.8971 0.8965 0.8959 0.8954
3595.000000 0.8950 0.8947 0.8943 0.8939 0.8935
3600.000000 0.8931 0.8927 0.8923 0.8919 0.8915
3605.000000 0.8912 0.8909 0.8907 0.8905 0.8903
3610.000000 0.8902 0.8900 0.8898 0.8896 0.8894
3615.000000 0.8892 0.8891 0.8889 0.8887 0.8885
3620.000000 0.8884 0.8883 0.8883 0.8883 0.8883
3625.000000 0.8883 0.8883 0.8883 0.8883 0.8883
3630.000000 0.8883 0.8883 0.8883 0.8883 0.8883
3635.000000 0.8883 0.8883 0.8883 0.8883 0.8883
3640.000000 0.8883 0.8883 0.8883 0.8882 0.8882
3645.000000 0.8882 0.8882 0.8882 0.8882 0.8880
3650.000000 0.8878 0.8875 0.8872 0.8869 0.8867
3655.000000 0.8864 0.8861 0.8858 0.8856 0.8853
3660.000000 0.8851 0.8847 0.8844 0.8839 0.8835
3665.000000 0.8830 0.8825 0.8820 0.8816 0.8812
3670.000000 0.8808 0.8806 0.8805 0.8803 0.8801
3675.000000 0.8799 0.8798 0.8796 0.8795 0.8793
3680.000000 0.8791 0.8789 0.8788 0.8786 0.8785
3685.000000 0.8782 0.8780 0.8778 0.8776 0.8773
3690.000000 0.8771 0.8768 0.8766 0.8764 0.8762
3695.000000 0.8762 0.8762 0.8762 0.8762 0.8762
3700.000000 0.8762 0.8762 0.8762 0.8764 0.8767
3705.000000 0.8769 0.8772 0.8774 0.8777 0.8780
3710.000000 0.8783 0.8785 0.8788 0.8792 0.8797
3715.000000 0.8802 0.8800 0.8813 0.8818 0.8823
3720.000000 0.8829 0.8834 0.8840 0.8845 0.8851
3725.000000 0.8856 0.8862 0.8869 0.8876 0.8883
3730.000000 0.8890 0.8897 0.8905 0.8912 0.8919
3735.000000 0.8926 0.8934 0.8943 0.8953 0.8962
3740.000000 0.8972 0.8982 0.8992 0.9001 0.9011
3745.000000 0.9010 0.9010 0.9009 0.9008 0.9006
3750.000000 0.9004 0.8998 0.8992 0.8985 0.8979
3755.000000 0.8972 0.8965 0.8956 0.8947 0.8938
3760.000000 0.8929 0.8923 0.8917 0.8920 0.8923
3765.000000 0.8926 0.8929 0.8931 0.8934 0.8936
3770.000000 0.8939 0.8943 0.8948 0.8953 0.8958
3775.000000 0.8962 0.8967 0.8972 0.8977 0.8982
3780.000000 0.8987 0.8992 0.8997 0.9000 0.9004
3785.000000 0.9007 0.9011 0.9014 0.9018 0.9021
3790.000000 0.9024 0.9027 0.9031 0.9034 0.9037
3795.000000 0.9040 0.9043 0.9045 0.9048 0.9051
3800.000000 0.9054 0.9056 0.9059 0.9062 0.9065
3805.000000 0.9065 0.9066
##END=
