##TITLE=BENZONITRILE
##JCAMP-DX=4.24
##DATA TYPE=INFRARED SPECTRUM
##CLASS=COBLENTZ III
##ORIGIN=DOW CORNING CORP.
##OWNER=COBLENTZ SOCIETY
Collection (C) 2018 copyright by the U.S. Secretary of Commerce
on behalf of the United States of America. All rights reserved.
##DATE=1958/10/28
##CAS REGISTRY NO=100-47-0
##MOLFORM=C7 H5 N
##SOURCE REFERENCE=COBLENTZ NO. 4824
##$NIST SOURCE=COBLENTZ
##$NIST IMAGE=cob4824
##SPECTROMETER/DATA SYSTEM=DOW KBr FOREPRISM-GRATING
##INSTRUMENT PARAMETERS=BLAZED AT 3.5, 12.0, 20.0 MICRON; GRATING CHANGES AT 5.0, 7.5, 14.9 MICRON
##STATE=SOLUTION (10% IN CCl4 FOR 3800-1300, 10% IN CS2 FOR 1300-650, 10% IN CCl4 FOR 650-240 CM^-^1) VERSUS SOLVENT
##PATH LENGTH=0.011, 0.011, AND 0.010 CM (CsBr CELL)
$$ 90-% PURE
##SAMPLING PROCEDURE=TRANSMISSION
##RESOLUTION=4
##DATA PROCESSING=DIGITIZED BY NIST FROM HARD COPY (FROM TWO SEGMENTS)
##XUNITS=1/CM
##YUNITS=TRANSMITTANCE
##XFACTOR=1.000000
##YFACTOR=1
##DELTAX=0.984145
##FIRSTX=234.445
##LASTX=3794.1
##FIRSTY=0.878
##MAXX=3794.1
##MINX=234.445
##MAXY=1.021
##MINY=0.012
##NPOINTS=3618
##XYDATA=(X++(Y..Y))
234.445000 0.8780 0.8780 0.8780 0.8780 0.8780
239.365727 0.8780 0.8770 0.8770 0.8760 0.8760
244.286454 0.8760 0.8740 0.8740 0.8740 0.8740
249.207180 0.8740 0.8740 0.8740 0.8740 0.8740
254.127907 0.8730 0.8730 0.8730 0.8730 0.8730
259.048634 0.8730 0.8730 0.8730 0.8730 0.8720
263.969361 0.8720 0.8720 0.8720 0.8700 0.8700
268.890088 0.8700 0.8720 0.8720 0.8720 0.8720
273.810814 0.8720 0.8720 0.8720 0.8720 0.8720
278.731541 0.8720 0.8720 0.8720 0.8720 0.8720
283.652268 0.8720 0.8720 0.8720 0.8720 0.8720
288.572995 0.8720 0.8720 0.8730 0.8730 0.8740
293.493722 0.8740 0.8740 0.8740 0.8760 0.8760
298.414448 0.8770 0.8770 0.8770 0.8780 0.8780
303.335175 0.8780 0.8780 0.8800 0.8800 0.8800
308.255902 0.8810 0.8810 0.8820 0.8840 0.8840
313.176629 0.8850 0.8850 0.8850 0.8850 0.8850
318.097355 0.8850 0.8860 0.8860 0.8860 0.8880
323.018082 0.8890 0.8900 0.8920 0.8920 0.8920
327.938809 0.8930 0.8930 0.8940 0.8940 0.8940
332.859536 0.8940 0.8940 0.8940 0.8940 0.8940
337.780263 0.8940 0.8940 0.8960 0.8960 0.8960
342.700989 0.8960 0.8970 0.8970 0.8970 0.8970
347.621716 0.8970 0.8970 0.8970 0.8970 0.8970
352.542443 0.8980 0.8980 0.8970 0.8970 0.8970
357.463170 0.8960 0.8940 0.8940 0.8940 0.8930
362.383897 0.8930 0.8930 0.8920 0.8920 0.8900
367.304623 0.8900 0.8890 0.8880 0.8840 0.8810
372.225350 0.8770 0.8700 0.8650 0.8610 0.8570
377.146077 0.8530 0.8440 0.8380 0.8370 0.8400
382.066804 0.8530 0.8600 0.8660 0.8740 0.8850
386.987531 0.8880 0.8890 0.8890 0.8920 0.8960
391.908257 0.9000 0.9060 0.9080 0.9090 0.9090
396.828984 0.9090 0.9090 0.9090 0.9100 0.9100
401.749711 0.9120 0.9120 0.9120 0.9120 0.9120
406.670438 0.9130 0.9130 0.9130 0.9130 0.9140
411.591165 0.9140 0.9140 0.9140 0.9160 0.9160
416.511891 0.9160 0.9170 0.9180 0.9200 0.9200
421.432618 0.9200 0.9200 0.9180 0.9180 0.9180
426.353345 0.9180 0.9180 0.9180 0.9180 0.9170
431.274072 0.9170 0.9160 0.9170 0.9170 0.9170
436.194798 0.9160 0.9160 0.9160 0.9140 0.9140
441.115525 0.9170 0.9170 0.9170 0.9170 0.9170
446.036252 0.9170 0.9170 0.9170 0.9170 0.9170
450.956979 0.9160 0.9160 0.9160 0.9160 0.9160
455.877706 0.9160 0.9160 0.9160 0.9160 0.9160
460.798432 0.9140 0.9140 0.9140 0.9140 0.9140
465.719159 0.9160 0.9170 0.9220 0.9290 0.9300
470.639886 0.9380 0.9410 0.9420 0.9420 0.9440
475.560613 0.9440 0.9450 0.9450 0.9450 0.9450
480.481340 0.9450 0.9460 0.9460 0.9460 0.9460
485.402066 0.9460 0.9480 0.9480 0.9480 0.9480
490.322793 0.9480 0.9480 0.9480 0.9490 0.9490
495.243520 0.9490 0.9490 0.9490 0.9480 0.9480
500.164247 0.9480 0.9480 0.9480 0.9480 0.9460
505.084974 0.9460 0.9450 0.9450 0.9440 0.9440
510.005700 0.9440 0.9420 0.9420 0.9410 0.9410
514.926427 0.9410 0.9400 0.9400 0.9400 0.9400
519.847154 0.9380 0.9380 0.9370 0.9370 0.9360
524.767881 0.9330 0.9320 0.9300 0.9290 0.9260
529.688608 0.9220 0.9180 0.9140 0.9130 0.9100
534.609334 0.8960 0.8930 0.8800 0.8740 0.8571
539.530061 0.8370 0.8100 0.7650 0.7181 0.6681
544.450788 0.5294 0.4303 0.2646 0.1226 0.1220
549.371515 0.1601 0.2840 0.4089 0.5359 0.6009
554.292241 0.6659 0.7597 0.8009 0.8408 0.8559
559.212968 0.8640 0.8800 0.8900 0.8960 0.8980
564.133695 0.9010 0.9020 0.9050 0.9090 0.9120
569.054422 0.9130 0.9160 0.9200 0.9240 0.9240
573.975149 0.9290 0.9300 0.9330 0.9340 0.9360
578.895875 0.9370 0.9370 0.9380 0.9380 0.9400
583.816602 0.9400 0.9410 0.9410 0.9420 0.9420
588.737329 0.9440 0.9450 0.9450 0.9460 0.9460
593.658056 0.9480 0.9480 0.9480 0.9490 0.9490
598.578783 0.9490 0.9480 0.9480 0.9480 0.9460
603.499509 0.9460 0.9450 0.9450 0.9450 0.9440
608.420236 0.9440 0.9420 0.9420 0.9420 0.9410
613.340963 0.9410 0.9410 0.9380 0.9370 0.9370
618.261690 0.9360 0.9360 0.9340 0.9340 0.9330
623.182417 0.9330 0.9320 0.9320 0.9300 0.9300
628.103143 0.9290 0.9290 0.9280 0.9260 0.9260
633.023870 0.9250 0.9250 0.9240 0.9220 0.9220
637.944597 0.9210 0.9210 0.9200 0.9200 0.9180
642.865324 0.9170 0.9160 0.9160 0.9140 0.9130
647.786051 0.9130 0.9120 0.9120 0.9100 0.9090
652.706777 0.9090 0.9090 0.9090 0.9080 0.9060
657.627504 0.9060 0.9050 0.9040 0.9040 0.9020
662.548231 0.9010 0.9010 0.9000 0.8960 0.8930
667.468958 0.8900 0.8810 0.8770 0.8640 0.8371
672.389684 0.7822 0.7611 0.7411 0.7320 0.7260
677.310411 0.7140 0.7100 0.7090 0.7050 0.6960
682.231138 0.6760 0.6640 0.6421 0.6042 0.4905
687.151865 0.4179 0.2930 0.1410 0.0701 0.0360
692.072592 0.0360 0.0639 0.0919 0.1139 0.1359
696.993318 0.2700 0.3880 0.4420 0.5289 0.5719
701.914045 0.6139 0.6240 0.6330 0.6539 0.6859
706.834772 0.7370 0.7740 0.8020 0.8210 0.8579
711.755499 0.8740 0.8880 0.8930 0.8940 0.9000
716.676226 0.9060 0.9120 0.9160 0.9200 0.9220
721.596952 0.9240 0.9320 0.9360 0.9380 0.9410
726.517679 0.9440 0.9440 0.9450 0.9450 0.9440
731.438406 0.9420 0.9410 0.9400 0.9380 0.9370
736.359133 0.9340 0.9330 0.9300 0.9280 0.9250
741.279860 0.9170 0.9060 0.8930 0.8801 0.8700
746.200586 0.8500 0.8320 0.8050 0.7920 0.7501
751.121313 0.7061 0.5444 0.4972 0.4293 0.3503
756.042040 0.2610 0.0931 0.0690 0.0400 0.0121
760.962767 0.0120 0.0409 0.0699 0.0879 0.1298
765.883494 0.1731 0.2720 0.2980 0.4199 0.5218
770.804220 0.5719 0.6209 0.7037 0.7458 0.7838
775.724947 0.8180 0.8530 0.8720 0.8840 0.8920
780.645674 0.9160 0.9280 0.9360 0.9370 0.9420
785.566401 0.9540 0.9560 0.9580 0.9610 0.9620
790.487127 0.9650 0.9660 0.9660 0.9660 0.9660
795.407854 0.9660 0.9660 0.9660 0.9680 0.9680
800.328581 0.9680 0.9690 0.9700 0.9720 0.9720
805.249308 0.9730 0.9740 0.9740 0.9740 0.9740
810.170035 0.9740 0.9740 0.9740 0.9730 0.9730
815.090761 0.9730 0.9730 0.9730 0.9730 0.9720
820.011488 0.9700 0.9690 0.9690 0.9690 0.9690
824.932215 0.9680 0.9680 0.9660 0.9650 0.9640
829.852942 0.9620 0.9610 0.9600 0.9570 0.9560
834.773669 0.9520 0.9460 0.9450 0.9420 0.9400
839.694395 0.9360 0.9330 0.9300 0.9290 0.9280
844.615122 0.9280 0.9290 0.9340 0.9400 0.9440
849.535849 0.9480 0.9530 0.9600 0.9650 0.9730
854.456576 0.9760 0.9780 0.9780 0.9800 0.9810
859.377303 0.9820 0.9820 0.9840 0.9840 0.9840
864.298029 0.9850 0.9850 0.9850 0.9850 0.9850
869.218756 0.9840 0.9840 0.9840 0.9840 0.9820
874.139483 0.9820 0.9820 0.9820 0.9810 0.9810
879.060210 0.9810 0.9810 0.9800 0.9780 0.9780
883.980937 0.9770 0.9760 0.9760 0.9740 0.9730
888.901663 0.9730 0.9730 0.9730 0.9720 0.9720
893.822390 0.9720 0.9720 0.9700 0.9700 0.9700
898.743117 0.9700 0.9690 0.9660 0.9640 0.9580
903.663844 0.9560 0.9530 0.9460 0.9420 0.9400
908.584570 0.9370 0.9360 0.9280 0.9170 0.9001
913.505297 0.8920 0.8850 0.8760 0.8650 0.8500
918.426024 0.8330 0.8161 0.7781 0.7222 0.6772
923.346751 0.6559 0.5890 0.5680 0.5680 0.6119
928.267478 0.6489 0.6799 0.7049 0.7718 0.8656
933.188204 0.8850 0.9000 0.9120 0.9130 0.9200
938.108931 0.9280 0.9330 0.9380 0.9539 0.9570
943.029658 0.9610 0.9610 0.9620 0.9620 0.9650
947.950385 0.9680 0.9680 0.9690 0.9690 0.9690
952.871112 0.9690 0.9680 0.9680 0.9680 0.9680
957.791838 0.9680 0.9660 0.9660 0.9650 0.9650
962.712565 0.9640 0.9610 0.9600 0.9580 0.9570
967.633292 0.9560 0.9560 0.9540 0.9540 0.9530
972.554019 0.9530 0.9540 0.9540 0.9560 0.9570
977.474746 0.9570 0.9570 0.9580 0.9580 0.9580
982.395472 0.9580 0.9580 0.9580 0.9570 0.9560
987.316199 0.9490 0.9460 0.9450 0.9440 0.9440
992.236926 0.9420 0.9420 0.9420 0.9420 0.9410
997.157653 0.9410 0.9410 0.9410 0.9380 0.9370
1002.078380 0.9250 0.9020 0.9020 0.9250 0.9370
1006.999106 0.9450 0.9600 0.9620 0.9640 0.9650
1011.919833 0.9650 0.9640 0.9640 0.9620 0.9610
1016.840560 0.9580 0.9520 0.9460 0.9450 0.9360
1021.761287 0.9300 0.9180 0.9000 0.8730 0.8420
1026.682013 0.7971 0.7461 0.6961 0.6452 0.5454
1031.602740 0.5451 0.6420 0.7400 0.9358 0.9540
1036.523467 0.9570 0.9650 0.9690 0.9720 0.9730
1041.444194 0.9740 0.9760 0.9770 0.9770 0.9770
1046.364921 0.9770 0.9770 0.9770 0.9760 0.9760
1051.285647 0.9760 0.9740 0.9730 0.9700 0.9700
1056.206374 0.9690 0.9680 0.9610 0.9580 0.9570
1061.127101 0.9490 0.9360 0.9320 0.9280 0.9200
1066.047828 0.9020 0.8840 0.8571 0.8361 0.8121
1070.968555 0.7880 0.7660 0.7410 0.7410 0.7999
1075.889281 0.8259 0.8739 0.9218 0.9379 0.9400
1080.810008 0.9490 0.9540 0.9570 0.9570 0.9570
1085.730735 0.9560 0.9560 0.9540 0.9540 0.9500
1090.651462 0.9400 0.9360 0.9330 0.9300 0.9260
1095.572189 0.9240 0.9180 0.9130 0.9100 0.9120
1100.492915 0.9240 0.9330 0.9600 0.9880 0.9940
1105.413642 1.0010 1.0170 1.0200 1.0210 1.0210
1110.334369 1.0200 1.0180 1.0180 1.0170 1.0170
1115.255096 1.0160 1.0160 1.0140 1.0130 1.0130
1120.175823 1.0120 1.0100 1.0090 1.0080 1.0060
1125.096549 1.0060 1.0050 1.0040 1.0000 0.9980
1130.017276 0.9960 0.9940 0.9930 0.9900 0.9890
1134.938003 0.9860 0.9840 0.9810 0.9800 0.9780
1139.858730 0.9770 0.9760 0.9740 0.9720 0.9700
1144.779456 0.9700 0.9680 0.9640 0.9610 0.9580
1149.700183 0.9560 0.9520 0.9450 0.9370 0.9340
1154.620910 0.9340 0.9330 0.9320 0.9250 0.9160
1159.541637 0.8980 0.8740 0.8480 0.8480 0.8540
1164.462364 0.8600 0.8650 0.8929 0.8940 0.8960
1169.383090 0.8960 0.8960 0.8940 0.8890 0.8770
1174.303817 0.8640 0.8540 0.8341 0.8171 0.7921
1179.224544 0.7660 0.7660 0.7940 0.8320 0.8739
1184.145271 0.8890 0.8920 0.8940 0.8960 0.8960
1189.065998 0.8930 0.8900 0.8820 0.8700 0.8570
1193.986724 0.8251 0.8250 0.8330 0.8768 0.9139
1198.907451 0.9280 0.9450 0.9520 0.9540 0.9560
1203.828178 0.9560 0.9570 0.9570 0.9570 0.9580
1208.748905 0.9580 0.9580 0.9580 0.9580 0.9600
1213.669632 0.9600 0.9610 0.9610 0.9620 0.9640
1218.590358 0.9640 0.9660 0.9720 0.9740 0.9800
1223.511085 0.9810 0.9820 0.9820 0.9840 0.9850
1228.431812 0.9850 0.9860 0.9860 0.9880 0.9880
1233.352539 0.9880 0.9880 0.9880 0.9880 0.9880
1238.273266 0.9880 0.9860 0.9860 0.9860 0.9860
1243.193992 0.9850 0.9850 0.9850 0.9840 0.9840
1248.114719 0.9820 0.9820 0.9810 0.9810 0.9800
1253.035446 0.9800 0.9800 0.9800 0.9780 0.9770
1257.956173 0.9770 0.9770 0.9770 0.9760 0.9740
1262.876899 0.9730 0.9720 0.9700 0.9680 0.9680
1267.797626 0.9660 0.9650 0.9640 0.9620 0.9560
1272.718353 0.9540 0.9490 0.9460 0.9420 0.9370
1277.639080 0.9340 0.9330 0.9260 0.9140 0.9080
1282.559807 0.8960 0.8770 0.8571 0.8092 0.7931
1287.480533 0.7740 0.7540 0.7360 0.7170 0.7170
1292.401260 0.8598 0.8610 0.8650 0.8660 0.8680
1297.321987 0.8780 0.8800 0.8810 0.8820 0.8820
1302.242714 0.8820 0.8850 0.8850 0.8850 0.8860
1307.163441 0.8860 0.8880 0.8880 0.8880 0.8880
1312.084167 0.8880 0.8880 0.8880 0.8880 0.8880
1317.004894 0.8880 0.8880 0.8860 0.8860 0.8850
1321.925621 0.8850 0.8840 0.8840 0.8820 0.8820
1326.846348 0.8800 0.8780 0.8770 0.8740 0.8680
1331.767075 0.8580 0.8460 0.8280 0.8120 0.8120
1336.687801 0.8240 0.8370 0.8420 0.8540 0.8650
1341.608528 0.8760 0.8800 0.8840 0.8850 0.8860
1346.529255 0.8880 0.8890 0.8900 0.8920 0.8920
1351.449982 0.8920 0.8920 0.8920 0.8920 0.8900
1356.370709 0.8900 0.8900 0.8900 0.8900 0.8890
1361.291435 0.8880 0.8860 0.8850 0.8840 0.8840
1366.212162 0.8820 0.8820 0.8820 0.8820 0.8810
1371.132889 0.8800 0.8800 0.8780 0.8780 0.8780
1376.053616 0.8770 0.8770 0.8760 0.8740 0.8740
1380.974342 0.8720 0.8680 0.8620 0.8580 0.8530
1385.895069 0.8500 0.8460 0.8460 0.8480 0.8490
1390.815796 0.8520 0.8580 0.8620 0.8650 0.8680
1395.736523 0.8700 0.8760 0.8810 0.8820 0.8850
1400.657250 0.8860 0.8900 0.8920 0.8930 0.8930
1405.577976 0.8930 0.8930 0.8940 0.8940 0.8940
1410.498703 0.8940 0.8940 0.8940 0.8930 0.8930
1415.419430 0.8930 0.8930 0.8930 0.8930 0.8930
1420.340157 0.8930 0.8920 0.8920 0.8900 0.8900
1425.260884 0.8890 0.8890 0.8860 0.8840 0.8810
1430.181610 0.8780 0.8760 0.8730 0.8700 0.8690
1435.102337 0.8680 0.8660 0.8650 0.8610 0.8530
1440.023064 0.8450 0.8340 0.8160 0.7801 0.7651
1444.943791 0.7450 0.7400 0.7220 0.6890 0.6531
1449.864518 0.5342 0.4532 0.3104 0.1207 0.1200
1454.785244 0.3733 0.6251 0.7660 0.8090 0.8340
1459.705971 0.8520 0.8600 0.8650 0.8660 0.8660
1464.626698 0.8680 0.8680 0.8660 0.8650 0.8640
1469.547425 0.8640 0.8620 0.8610 0.8610 0.8600
1474.468152 0.8600 0.8580 0.8570 0.8530 0.8520
1479.388878 0.8490 0.8410 0.8330 0.8280 0.8170
1484.309605 0.8060 0.7920 0.7730 0.7460 0.7090
1489.230332 0.6571 0.6251 0.5143 0.4342 0.3533
1494.151059 0.2690 0.2240 0.1740 0.1010 0.1010
1499.071785 0.2557 0.2919 0.5652 0.8401 0.8460
1503.992512 0.8520 0.8650 0.8660 0.8680 0.8680
1508.913239 0.8690 0.8700 0.8720 0.8730 0.8740
1513.833966 0.8760 0.8760 0.8760 0.8760 0.8760
1518.754693 0.8760 0.8770 0.8780 0.8810 0.8810
1523.675419 0.8810 0.8810 0.8800 0.8770 0.8730
1528.596146 0.8720 0.8700 0.8690 0.8690 0.8700
1533.516873 0.8720 0.8730 0.8760 0.8760 0.8800
1538.437600 0.8840 0.8850 0.8920 0.8930 0.8930
1543.358327 0.8930 0.8930 0.8930 0.8930 0.8930
1548.279053 0.8930 0.8920 0.8920 0.8920 0.8900
1553.199780 0.8890 0.8890 0.8880 0.8860 0.8850
1558.120507 0.8840 0.8840 0.8840 0.8840 0.8820
1563.041234 0.8810 0.8810 0.8780 0.8760 0.8730
1567.961961 0.8700 0.8580 0.8540 0.8530 0.8420
1572.882687 0.8380 0.8380 0.8370 0.8370 0.8360
1577.803414 0.8340 0.8280 0.8250 0.8140 0.8060
1582.724141 0.8000 0.7930 0.7680 0.7570 0.7460
1587.644868 0.7460 0.7699 0.7939 0.8139 0.8180
1592.565595 0.8180 0.8160 0.8090 0.8040 0.7940
1597.486321 0.7860 0.7760 0.7640 0.7401 0.7121
1602.407048 0.6840 0.6540 0.6540 0.6930 0.7180
1607.327775 0.7400 0.7919 0.7960 0.8010 0.8120
1612.248502 0.8160 0.8210 0.8260 0.8300 0.8340
1617.169228 0.8400 0.8520 0.8600 0.8620 0.8650
1622.089955 0.8660 0.8680 0.8690 0.8700 0.8720
1627.010682 0.8720 0.8730 0.8730 0.8740 0.8760
1631.931409 0.8760 0.8760 0.8760 0.8760 0.8760
1636.852136 0.8760 0.8770 0.8770 0.8770 0.8770
1641.772862 0.8780 0.8780 0.8780 0.8800 0.8800
1646.693589 0.8800 0.8800 0.8800 0.8800 0.8800
1651.614316 0.8800 0.8800 0.8800 0.8800 0.8800
1656.535043 0.8800 0.8800 0.8800 0.8780 0.8780
1661.455770 0.8780 0.8780 0.8780 0.8780 0.8780
1666.376496 0.8780 0.8780 0.8780 0.8770 0.8770
1671.297223 0.8740 0.8720 0.8620 0.8600 0.8580
1676.217950 0.8530 0.8450 0.8400 0.8340 0.8290
1681.138677 0.8220 0.8160 0.8090 0.8060 0.8090
1686.059404 0.8120 0.8180 0.8250 0.8280 0.8320
1690.980130 0.8380 0.8450 0.8540 0.8620 0.8690
1695.900857 0.8720 0.8730 0.8740 0.8760 0.8770
1700.821584 0.8770 0.8770 0.8780 0.8780 0.8780
1705.742311 0.8780 0.8780 0.8780 0.8780 0.8780
1710.663038 0.8770 0.8770 0.8770 0.8760 0.8760
1715.583764 0.8740 0.8740 0.8730 0.8720 0.8720
1720.504491 0.8700 0.8700 0.8700 0.8720 0.8730
1725.425218 0.8730 0.8730 0.8730 0.8740 0.8740
1730.345945 0.8740 0.8760 0.8760 0.8760 0.8770
1735.266671 0.8770 0.8770 0.8770 0.8760 0.8760
1740.187398 0.8760 0.8740 0.8740 0.8740 0.8730
1745.108125 0.8730 0.8720 0.8720 0.8720 0.8700
1750.028852 0.8700 0.8700 0.8700 0.8700 0.8690
1754.949579 0.8690 0.8680 0.8660 0.8610 0.8540
1759.870305 0.8500 0.8450 0.8420 0.8400 0.8340
1764.791032 0.8320 0.8280 0.8260 0.8260 0.8280
1769.711759 0.8300 0.8340 0.8380 0.8420 0.8500
1774.632486 0.8620 0.8690 0.8720 0.8740 0.8760
1779.553213 0.8770 0.8770 0.8780 0.8800 0.8800
1784.473939 0.8810 0.8810 0.8820 0.8820 0.8820
1789.394666 0.8820 0.8820 0.8820 0.8820 0.8810
1794.315393 0.8810 0.8810 0.8800 0.8800 0.8780
1799.236120 0.8780 0.8780 0.8770 0.8740 0.8720
1804.156847 0.8680 0.8650 0.8610 0.8500 0.8420
1809.077573 0.8400 0.8240 0.8170 0.8090 0.8080
1813.998300 0.8090 0.8100 0.8130 0.8170 0.8200
1818.919027 0.8320 0.8330 0.8450 0.8540 0.8650
1823.839754 0.8690 0.8700 0.8720 0.8720 0.8720
1828.760481 0.8720 0.8720 0.8700 0.8700 0.8690
1833.681207 0.8680 0.8680 0.8680 0.8690 0.8700
1838.601934 0.8720 0.8730 0.8730 0.8760 0.8770
1843.522661 0.8780 0.8810 0.8810 0.8810 0.8820
1848.443388 0.8820 0.8820 0.8840 0.8840 0.8850
1853.364114 0.8850 0.8860 0.8860 0.8860 0.8860
1858.284841 0.8860 0.8860 0.8860 0.8860 0.8850
1863.205568 0.8850 0.8850 0.8850 0.8850 0.8840
1868.126295 0.8840 0.8840 0.8840 0.8840 0.8840
1873.047022 0.8840 0.8820 0.8820 0.8810 0.8810
1877.967748 0.8810 0.8800 0.8800 0.8800 0.8780
1882.888475 0.8760 0.8730 0.8700 0.8640 0.8530
1887.809202 0.8480 0.8410 0.8340 0.8280 0.8210
1892.729929 0.8090 0.7940 0.7840 0.7780 0.7770
1897.650656 0.7780 0.7890 0.8040 0.8100 0.8200
1902.571382 0.8280 0.8340 0.8380 0.8400 0.8400
1907.492109 0.8410 0.8410 0.8410 0.8400 0.8380
1912.412836 0.8360 0.8340 0.8330 0.8320 0.8320
1917.333563 0.8330 0.8340 0.8410 0.8440 0.8520
1922.254290 0.8580 0.8640 0.8690 0.8700 0.8700
1927.175016 0.8720 0.8720 0.8730 0.8740 0.8740
1932.095743 0.8740 0.8740 0.8760 0.8760 0.8760
1937.016470 0.8760 0.8770 0.8770 0.8770 0.8770
1941.937197 0.8770 0.8770 0.8770 0.8770 0.8760
1946.857924 0.8760 0.8740 0.8740 0.8730 0.8720
1951.778650 0.8720 0.8690 0.8640 0.8600 0.8570
1956.699377 0.8530 0.8490 0.8420 0.8300 0.8220
1961.620104 0.8130 0.8060 0.7940 0.7930 0.7930
1966.540831 0.7960 0.8020 0.8080 0.8160 0.8240
1971.461557 0.8330 0.8400 0.8420 0.8440 0.8440
1976.382284 0.8440 0.8420 0.8420 0.8410 0.8410
1981.303011 0.8370 0.8340 0.8330 0.8300 0.8290
1986.223738 0.8300 0.8330 0.8370 0.8450 0.8490
1991.144465 0.8580 0.8620 0.8650 0.8690 0.8700
1996.065191 0.8720 0.8720 0.8720 0.8730 0.8740
2000.985918 0.8775 0.8810 0.8855 0.8900 0.8915
2005.906645 0.8930 0.8935 0.8940 0.8940 0.8940
2010.827372 0.8950 0.8960 0.8960 0.8960 0.8960
2015.748099 0.8960 0.8960 0.8960 0.8960 0.8960
2020.668825 0.8960 0.8960 0.8950 0.8940 0.8940
2025.589552 0.8940 0.8940 0.8940 0.8940 0.8940
2030.510279 0.8940 0.8940 0.8940 0.8940 0.8940
2035.431006 0.8940 0.8940 0.8940 0.8940 0.8940
2040.351733 0.8940 0.8940 0.8940 0.8940 0.8940
2045.272459 0.8940 0.8940 0.8940 0.8940 0.8940
2050.193186 0.8940 0.8940 0.8940 0.8940 0.8940
2055.113913 0.8940 0.8940 0.8940 0.8940 0.8940
2060.034640 0.8940 0.8940 0.8940 0.8940 0.8940
2064.955367 0.8940 0.8940 0.8940 0.8940 0.8940
2069.876093 0.8940 0.8940 0.8940 0.8940 0.8940
2074.796820 0.8940 0.8940 0.8940 0.8940 0.8940
2079.717547 0.8940 0.8940 0.8940 0.8940 0.8940
2084.638274 0.8940 0.8940 0.8940 0.8940 0.8940
2089.559000 0.8940 0.8940 0.8940 0.8940 0.8940
2094.479727 0.8940 0.8940 0.8940 0.8940 0.8940
2099.400454 0.8940 0.8940 0.8940 0.8940 0.8940
2104.321181 0.8940 0.8935 0.8930 0.8930 0.8930
2109.241908 0.8930 0.8930 0.8930 0.8930 0.8930
2114.162634 0.8930 0.8925 0.8920 0.8925 0.8930
2119.083361 0.8930 0.8930 0.8930 0.8930 0.8930
2124.004088 0.8930 0.8925 0.8920 0.8920 0.8920
2128.924815 0.8920 0.8920 0.8920 0.8920 0.8920
2133.845542 0.8920 0.8920 0.8920 0.8920 0.8919
2138.766268 0.8909 0.8900 0.8900 0.8900 0.8900
2143.686995 0.8900 0.8900 0.8900 0.8895 0.8890
2148.607722 0.8890 0.8890 0.8890 0.8890 0.8885
2153.528449 0.8880 0.8880 0.8880 0.8880 0.8880
2158.449176 0.8880 0.8880 0.8880 0.8880 0.8880
2163.369902 0.8879 0.8864 0.8850 0.8845 0.8840
2168.290629 0.8840 0.8839 0.8829 0.8820 0.8815
2173.211356 0.8810 0.8805 0.8799 0.8789 0.8780
2178.132083 0.8775 0.8770 0.8765 0.8759 0.8749
2183.052810 0.8740 0.8740 0.8740 0.8735 0.8730
2187.973536 0.8730 0.8730 0.8735 0.8741 0.8751
2192.894263 0.8760 0.8765 0.8770 0.8776 0.8780
2197.814990 0.8780 0.8780 0.8780 0.8779 0.8774
2202.735717 0.8768 0.8748 0.8727 0.8702 0.8674
2207.656444 0.8614 0.8558 0.8538 0.8518 0.8503
2212.577170 0.8488 0.8473 0.8459 0.8454 0.8448
2217.497897 0.8433 0.8415 0.8375 0.8332 0.8262
2222.418624 0.8187 0.8077 0.7962 0.7813 0.7655
2227.339351 0.7440 0.7217 0.6932 0.6587 0.5773
2232.260077 0.5003 0.4583 0.4111 0.3227 0.2372
2237.180804 0.1713 0.1140 0.1140 0.1186 0.1541
2242.101531 0.1966 0.2866 0.3724 0.4304 0.4814
2247.022258 0.4849 0.4949 0.5493 0.6038 0.6583
2251.942985 0.7112 0.7532 0.7917 0.8053 0.8182
2256.863711 0.8261 0.8331 0.8336 0.8342 0.8357
2261.784438 0.8371 0.8376 0.8387 0.8437 0.8492
2266.705165 0.8582 0.8662 0.8677 0.8691 0.8696
2271.625892 0.8701 0.8711 0.8720 0.8720 0.8720
2276.546619 0.8720 0.8720 0.8720 0.8721 0.8726
2281.467345 0.8732 0.8747 0.8761 0.8766 0.8771
2286.388072 0.8776 0.8782 0.8797 0.8811 0.8816
2291.308799 0.8820 0.8820 0.8820 0.8820 0.8820
2296.229526 0.8820 0.8820 0.8820 0.8820 0.8820
2301.150253 0.8820 0.8820 0.8820 0.8820 0.8819
2306.070979 0.8814 0.8810 0.8810 0.8810 0.8810
2310.991706 0.8809 0.8804 0.8798 0.8788 0.8780
2315.912433 0.8780 0.8780 0.8780 0.8779 0.8774
2320.833160 0.8770 0.8770 0.8769 0.8764 0.8760
2325.753887 0.8760 0.8760 0.8760 0.8758 0.8748
2330.674613 0.8740 0.8740 0.8739 0.8734 0.8730
2335.595340 0.8730 0.8730 0.8730 0.8730 0.8730
2340.516067 0.8731 0.8736 0.8740 0.8740 0.8740
2345.436794 0.8740 0.8739 0.8734 0.8730 0.8730
2350.357520 0.8730 0.8730 0.8733 0.8748 0.8760
2355.278247 0.8760 0.8760 0.8760 0.8760 0.8760
2360.198974 0.8760 0.8760 0.8760 0.8760 0.8760
2365.119701 0.8760 0.8758 0.8748 0.8740 0.8740
2370.040428 0.8740 0.8740 0.8740 0.8740 0.8742
2374.961154 0.8752 0.8762 0.8772 0.8780 0.8780
2379.881881 0.8780 0.8780 0.8780 0.8780 0.8780
2384.802608 0.8780 0.8779 0.8774 0.8770 0.8770
2389.723335 0.8770 0.8770 0.8770 0.8770 0.8770
2394.644062 0.8770 0.8771 0.8776 0.8780 0.8780
2399.564788 0.8782 0.8792 0.8801 0.8806 0.8813
2404.485515 0.8828 0.8841 0.8846 0.8850 0.8850
2409.406242 0.8851 0.8856 0.8863 0.8878 0.8890
2414.326969 0.8890 0.8891 0.8896 0.8900 0.8900
2419.247696 0.8902 0.8912 0.8920 0.8920 0.8920
2424.168422 0.8920 0.8920 0.8920 0.8918 0.8908
2429.089149 0.8900 0.8900 0.8900 0.8900 0.8899
2434.009876 0.8894 0.8890 0.8890 0.8890 0.8890
2438.930603 0.8890 0.8890 0.8890 0.8890 0.8890
2443.851330 0.8890 0.8891 0.8896 0.8900 0.8900
2448.772056 0.8900 0.8900 0.8900 0.8900 0.8899
2453.692783 0.8894 0.8890 0.8890 0.8891 0.8896
2458.613510 0.8900 0.8900 0.8902 0.8912 0.8920
2463.534237 0.8920 0.8918 0.8908 0.8900 0.8900
2468.454963 0.8900 0.8900 0.8900 0.8900 0.8900
2473.375690 0.8900 0.8899 0.8894 0.8889 0.8884
2478.296417 0.8877 0.8867 0.8860 0.8860 0.8859
2483.217144 0.8854 0.8850 0.8850 0.8850 0.8850
2488.137871 0.8850 0.8850 0.8850 0.8850 0.8849
2493.058597 0.8844 0.8840 0.8840 0.8837 0.8827
2497.979324 0.8820 0.8820 0.8820 0.8820 0.8820
2502.900051 0.8820 0.8823 0.8833 0.8840 0.8840
2507.820778 0.8841 0.8846 0.8850 0.8850 0.8851
2512.741505 0.8856 0.8860 0.8860 0.8860 0.8860
2517.662231 0.8860 0.8860 0.8860 0.8860 0.8863
2522.582958 0.8873 0.8880 0.8880 0.8880 0.8880
2527.503685 0.8881 0.8886 0.8890 0.8890 0.8890
2532.424412 0.8890 0.8890 0.8890 0.8889 0.8884
2537.345139 0.8880 0.8880 0.8880 0.8880 0.8877
2542.265865 0.8867 0.8860 0.8860 0.8860 0.8860
2547.186592 0.8859 0.8854 0.8850 0.8850 0.8850
2552.107319 0.8850 0.8850 0.8850 0.8850 0.8850
2557.028046 0.8848 0.8843 0.8837 0.8827 0.8820
2561.948773 0.8820 0.8820 0.8820 0.8819 0.8814
2566.869499 0.8810 0.8810 0.8808 0.8803 0.8800
2571.790226 0.8800 0.8797 0.8787 0.8780 0.8780
2576.710953 0.8778 0.8773 0.8772 0.8777 0.8783
2581.631680 0.8793 0.8802 0.8807 0.8810 0.8810
2586.552406 0.8812 0.8817 0.8820 0.8820 0.8820
2591.473133 0.8820 0.8820 0.8820 0.8820 0.8820
2596.393860 0.8820 0.8820 0.8818 0.8813 0.8810
2601.314587 0.8810 0.8810 0.8810 0.8810 0.8810
2606.235314 0.8810 0.8810 0.8812 0.8817 0.8820
2611.156040 0.8820 0.8820 0.8820 0.8820 0.8820
2616.076767 0.8823 0.8833 0.8840 0.8840 0.8840
2620.997494 0.8840 0.8840 0.8840 0.8840 0.8840
2625.918221 0.8837 0.8827 0.8820 0.8820 0.8824
2630.838948 0.8834 0.8840 0.8840 0.8840 0.8840
2635.759674 0.8840 0.8840 0.8842 0.8847 0.8850
2640.680401 0.8850 0.8850 0.8850 0.8852 0.8857
2645.601128 0.8860 0.8860 0.8860 0.8860 0.8860
2650.521855 0.8860 0.8860 0.8860 0.8860 0.8860
2655.442582 0.8860 0.8860 0.8858 0.8853 0.8850
2660.363308 0.8850 0.8850 0.8850 0.8850 0.8850
2665.284035 0.8850 0.8850 0.8848 0.8843 0.8836
2670.204762 0.8826 0.8818 0.8813 0.8804 0.8789
2675.125489 0.8780 0.8780 0.8778 0.8773 0.8770
2680.046216 0.8770 0.8768 0.8763 0.8760 0.8760
2684.966942 0.8756 0.8746 0.8740 0.8740 0.8740
2689.887669 0.8740 0.8740 0.8740 0.8744 0.8754
2694.808396 0.8760 0.8760 0.8760 0.8760 0.8764
2699.729123 0.8774 0.8791 0.8821 0.8844 0.8854
2704.649849 0.8866 0.8881 0.8892 0.8897 0.8900
2709.570576 0.8900 0.8900 0.8900 0.8900 0.8900
2714.491303 0.8904 0.8914 0.8920 0.8920 0.8920
2719.412030 0.8920 0.8920 0.8920 0.8920 0.8920
2724.332757 0.8920 0.8920 0.8916 0.8906 0.8900
2729.253483 0.8900 0.8900 0.8900 0.8898 0.8893
2734.174210 0.8890 0.8890 0.8890 0.8890 0.8888
2739.094937 0.8883 0.8876 0.8866 0.8858 0.8853
2744.015664 0.8850 0.8850 0.8848 0.8843 0.8840
2748.936391 0.8840 0.8840 0.8840 0.8840 0.8840
2753.857117 0.8840 0.8840 0.8836 0.8826 0.8820
2758.777844 0.8820 0.8818 0.8813 0.8808 0.8803
2763.698571 0.8796 0.8786 0.8778 0.8773 0.8768
2768.619298 0.8763 0.8760 0.8760 0.8756 0.8746
2773.540025 0.8740 0.8740 0.8740 0.8740 0.8744
2778.460751 0.8754 0.8760 0.8760 0.8764 0.8774
2783.381478 0.8784 0.8794 0.8802 0.8807 0.8810
2788.302205 0.8810 0.8810 0.8810 0.8812 0.8817
2793.222932 0.8820 0.8820 0.8827 0.8842 0.8857
2798.143659 0.8872 0.8884 0.8894 0.8900 0.8900
2803.064385 0.8900 0.8900 0.8904 0.8914 0.8920
2807.985112 0.8920 0.8922 0.8927 0.8930 0.8930
2812.905839 0.8930 0.8930 0.8930 0.8930 0.8930
2817.826566 0.8930 0.8930 0.8930 0.8930 0.8930
2822.747292 0.8928 0.8923 0.8920 0.8920 0.8920
2827.668019 0.8920 0.8920 0.8920 0.8920 0.8920
2832.588746 0.8915 0.8905 0.8900 0.8900 0.8900
2837.509473 0.8900 0.8900 0.8900 0.8900 0.8900
2842.430200 0.8898 0.8893 0.8888 0.8883 0.8875
2847.350926 0.8865 0.8860 0.8860 0.8858 0.8853
2852.271653 0.8850 0.8850 0.8848 0.8843 0.8835
2857.192380 0.8825 0.8818 0.8813 0.8810 0.8810
2862.113107 0.8808 0.8803 0.8800 0.8800 0.8795
2867.033834 0.8785 0.8780 0.8780 0.8780 0.8780
2871.954560 0.8780 0.8780 0.8778 0.8773 0.8770
2876.875287 0.8770 0.8770 0.8770 0.8770 0.8770
2881.796014 0.8770 0.8770 0.8770 0.8770 0.8768
2886.716741 0.8763 0.8760 0.8760 0.8760 0.8760
2891.637468 0.8760 0.8760 0.8760 0.8760 0.8760
2896.558194 0.8760 0.8760 0.8760 0.8760 0.8760
2901.478921 0.8760 0.8760 0.8760 0.8760 0.8755
2906.399648 0.8745 0.8740 0.8740 0.8740 0.8740
2911.320375 0.8740 0.8740 0.8740 0.8740 0.8738
2916.241102 0.8732 0.8730 0.8730 0.8728 0.8723
2921.161828 0.8720 0.8720 0.8720 0.8720 0.8715
2926.082555 0.8705 0.8700 0.8700 0.8700 0.8700
2931.003282 0.8700 0.8700 0.8700 0.8700 0.8700
2935.924009 0.8700 0.8705 0.8715 0.8720 0.8720
2940.844735 0.8723 0.8728 0.8730 0.8730 0.8727
2945.765462 0.8722 0.8720 0.8720 0.8715 0.8705
2950.686189 0.8700 0.8700 0.8697 0.8692 0.8690
2955.606916 0.8690 0.8687 0.8682 0.8680 0.8680
2960.527643 0.8680 0.8680 0.8680 0.8680 0.8675
2965.448369 0.8665 0.8660 0.8660 0.8657 0.8652
2970.369096 0.8650 0.8650 0.8650 0.8650 0.8653
2975.289823 0.8658 0.8660 0.8660 0.8665 0.8675
2980.210550 0.8680 0.8680 0.8683 0.8688 0.8690
2985.131277 0.8690 0.8682 0.8667 0.8660 0.8660
2990.052003 0.8655 0.8645 0.8629 0.8609 0.8592
2994.972730 0.8577 0.8567 0.8562 0.8552 0.8537
2999.893457 0.8530 0.8530 0.8530 0.8530 0.8527
3004.814184 0.8522 0.8520 0.8520 0.8520 0.8520
3009.734911 0.8520 0.8520 0.8514 0.8504 0.8500
3014.655637 0.8500 0.8500 0.8500 0.8497 0.8492
3019.576364 0.8476 0.8451 0.8409 0.8354 0.8293
3024.497091 0.8228 0.8189 0.8169 0.8149 0.8129
3029.417818 0.8066 0.7971 0.7905 0.7860 0.7834
3034.338545 0.7824 0.7826 0.7836 0.7874 0.7934
3039.259271 0.7960 0.7960 0.7920 0.7850 0.7814
3044.179998 0.7804 0.7803 0.7808 0.7824 0.7849
3049.100725 0.7872 0.7892 0.7917 0.7947 0.7960
3054.021452 0.7960 0.7902 0.7803 0.7728 0.7673
3058.942178 0.7567 0.7422 0.7262 0.7090 0.6984
3063.862905 0.6924 0.6865 0.6805 0.6750 0.6700
3068.783632 0.6656 0.6616 0.6594 0.6584 0.6586
3073.704359 0.6596 0.6629 0.6679 0.6811 0.7001
3078.625086 0.7144 0.7254 0.7383 0.7524 0.7580
3083.545812 0.7580 0.7577 0.7572 0.7558 0.7538
3088.466539 0.7509 0.7474 0.7436 0.7396 0.7380
3093.387266 0.7380 0.7452 0.7572 0.7692 0.7811
3098.307993 0.7872 0.7892 0.7924 0.7964 0.8029
3103.228720 0.8109 0.8174 0.8229 0.8250 0.8250
3108.149446 0.8262 0.8282 0.8348 0.8443 0.8517
3113.070173 0.8577 0.8627 0.8672 0.8702 0.8722
3117.990900 0.8739 0.8754 0.8763 0.8768 0.8773
3122.911627 0.8778 0.8786 0.8796 0.8803 0.8808
3127.832354 0.8810 0.8810 0.8810 0.8810 0.8813
3132.753080 0.8818 0.8820 0.8820 0.8820 0.8820
3137.673807 0.8820 0.8820 0.8820 0.8820 0.8820
3142.594534 0.8820 0.8820 0.8820 0.8820 0.8820
3147.515261 0.8820 0.8820 0.8820 0.8820 0.8820
3152.435988 0.8820 0.8820 0.8820 0.8820 0.8820
3157.356714 0.8820 0.8820 0.8820 0.8820 0.8826
3162.277441 0.8836 0.8846 0.8856 0.8873 0.8893
3167.198168 0.8900 0.8900 0.8906 0.8916 0.8923
3172.118895 0.8928 0.8930 0.8930 0.8930 0.8930
3177.039621 0.8930 0.8930 0.8930 0.8930 0.8930
3181.960348 0.8930 0.8930 0.8930 0.8930 0.8930
3186.881075 0.8930 0.8930 0.8930 0.8930 0.8930
3191.801802 0.8930 0.8930 0.8930 0.8930 0.8930
3196.722529 0.8933 0.8938 0.8947 0.8957 0.8967
3201.643255 0.8977 0.8987 0.8997 0.9003 0.9008
3206.563982 0.9013 0.9018 0.9020 0.9020 0.9027
3211.484709 0.9037 0.9040 0.9040 0.9040 0.9040
3216.405436 0.9040 0.9040 0.9043 0.9048 0.9050
3221.326163 0.9050 0.9050 0.9050 0.9050 0.9050
3226.246889 0.9050 0.9050 0.9050 0.9050 0.9050
3231.167616 0.9050 0.9053 0.9058 0.9060 0.9060
3236.088343 0.9060 0.9060 0.9060 0.9060 0.9060
3241.009070 0.9060 0.9060 0.9060 0.9060 0.9060
3245.929797 0.9060 0.9060 0.9057 0.9052 0.9050
3250.850523 0.9050 0.9050 0.9050 0.9050 0.9050
3255.771250 0.9050 0.9050 0.9047 0.9042 0.9040
3260.691977 0.9040 0.9040 0.9040 0.9040 0.9040
3265.612704 0.9040 0.9040 0.9040 0.9040 0.9040
3270.533431 0.9040 0.9033 0.9023 0.9020 0.9020
3275.454157 0.9020 0.9020 0.9020 0.9020 0.9020
3280.374884 0.9020 0.9020 0.9020 0.9020 0.9020
3285.295611 0.9020 0.9020 0.9020 0.9020 0.9016
3290.216338 0.9011 0.9010 0.9010 0.9006 0.9001
3295.137064 0.8993 0.8983 0.8980 0.8980 0.8980
3300.057791 0.8980 0.8976 0.8971 0.8970 0.8970
3304.978518 0.8970 0.8970 0.8966 0.8961 0.8960
3309.899245 0.8960 0.8953 0.8943 0.8940 0.8940
3314.819972 0.8940 0.8940 0.8940 0.8940 0.8940
3319.740698 0.8940 0.8940 0.8940 0.8936 0.8931
3324.661425 0.8926 0.8921 0.8920 0.8920 0.8920
3329.582152 0.8920 0.8913 0.8903 0.8900 0.8900
3334.502879 0.8900 0.8900 0.8900 0.8900 0.8900
3339.423606 0.8900 0.8900 0.8900 0.8896 0.8891
3344.344332 0.8890 0.8890 0.8890 0.8890 0.8886
3349.265059 0.8881 0.8880 0.8880 0.8880 0.8880
3354.185786 0.8880 0.8880 0.8873 0.8862 0.8860
3359.106513 0.8860 0.8856 0.8851 0.8850 0.8850
3364.027240 0.8850 0.8850 0.8846 0.8841 0.8840
3368.947966 0.8840 0.8840 0.8840 0.8833 0.8823
3373.868693 0.8820 0.8820 0.8820 0.8820 0.8816
3378.789420 0.8811 0.8810 0.8810 0.8806 0.8801
3383.710147 0.8800 0.8800 0.8792 0.8782 0.8780
3388.630874 0.8780 0.8776 0.8771 0.8770 0.8770
3393.551600 0.8766 0.8761 0.8745 0.8724 0.8708
3398.472327 0.8693 0.8678 0.8663 0.8652 0.8642
3403.393054 0.8632 0.8622 0.8620 0.8620 0.8620
3408.313781 0.8620 0.8628 0.8638 0.8640 0.8640
3413.234507 0.8640 0.8640 0.8644 0.8649 0.8650
3418.155234 0.8650 0.8650 0.8650 0.8654 0.8659
3423.075961 0.8672 0.8687 0.8694 0.8699 0.8712
3427.996688 0.8727 0.8742 0.8757 0.8768 0.8778
3432.917415 0.8788 0.8798 0.8800 0.8800 0.8804
3437.838141 0.8809 0.8810 0.8810 0.8814 0.8819
3442.758868 0.8820 0.8820 0.8828 0.8838 0.8840
3447.679595 0.8840 0.8840 0.8840 0.8840 0.8840
3452.600322 0.8840 0.8840 0.8840 0.8840 0.8844
3457.521049 0.8849 0.8854 0.8859 0.8868 0.8878
3462.441775 0.8880 0.8880 0.8884 0.8889 0.8890
3467.362502 0.8890 0.8890 0.8890 0.8890 0.8890
3472.283229 0.8890 0.8890 0.8890 0.8890 0.8890
3477.203956 0.8890 0.8890 0.8890 0.8890 0.8890
3482.124683 0.8890 0.8890 0.8890 0.8890 0.8890
3487.045409 0.8890 0.8890 0.8890 0.8886 0.8881
3491.966136 0.8880 0.8880 0.8880 0.8880 0.8880
3496.886863 0.8880 0.8880 0.8880 0.8880 0.8880
3501.807590 0.8880 0.8880 0.8872 0.8862 0.8860
3506.728317 0.8860 0.8856 0.8851 0.8850 0.8850
3511.649043 0.8850 0.8850 0.8850 0.8850 0.8850
3516.569770 0.8850 0.8850 0.8850 0.8850 0.8850
3521.490497 0.8850 0.8850 0.8850 0.8850 0.8850
3526.411224 0.8850 0.8846 0.8841 0.8840 0.8840
3531.331950 0.8840 0.8840 0.8840 0.8840 0.8840
3536.252677 0.8840 0.8840 0.8840 0.8840 0.8840
3541.173404 0.8840 0.8840 0.8840 0.8840 0.8844
3546.094131 0.8849 0.8850 0.8850 0.8854 0.8859
3551.014858 0.8860 0.8860 0.8869 0.8879 0.8884
3555.935584 0.8889 0.8894 0.8899 0.8909 0.8919
3560.856311 0.8920 0.8920 0.8929 0.8939 0.8940
3565.777038 0.8940 0.8940 0.8940 0.8940 0.8940
3570.697765 0.8949 0.8959 0.8960 0.8960 0.8964
3575.618492 0.8969 0.8974 0.8979 0.8989 0.8999
3580.539218 0.9000 0.9000 0.9004 0.9009 0.9010
3585.459945 0.9010 0.9014 0.9019 0.9020 0.9020
3590.380672 0.9029 0.9039 0.9044 0.9049 0.9054
3595.301399 0.9059 0.9060 0.9060 0.9069 0.9079
3600.222126 0.9080 0.9080 0.9080 0.9080 0.9080
3605.142852 0.9080 0.9080 0.9080 0.9084 0.9089
3610.063579 0.9090 0.9090 0.9090 0.9090 0.9090
3614.984306 0.9090 0.9090 0.9090 0.9090 0.9090
3619.905033 0.9090 0.9090 0.9090 0.9090 0.9090
3624.825760 0.9090 0.9086 0.9081 0.9080 0.9080
3629.746486 0.9080 0.9080 0.9080 0.9080 0.9085
3634.667213 0.9090 0.9090 0.9090 0.9090 0.9090
3639.587940 0.9085 0.9080 0.9080 0.9080 0.9071
3644.508667 0.9061 0.9060 0.9060 0.9060 0.9060
3649.429393 0.9060 0.9060 0.9060 0.9060 0.9055
3654.350120 0.9050 0.9050 0.9050 0.9045 0.9040
3659.270847 0.9040 0.9040 0.9045 0.9050 0.9068
3664.191574 0.9088 0.9095 0.9100 0.9100 0.9100
3669.112301 0.9095 0.9090 0.9085 0.9080 0.9071
3674.033027 0.9061 0.9055 0.9050 0.9045 0.9040
3678.953754 0.9040 0.9040 0.9045 0.9050 0.9050
3683.874481 0.9050 0.9055 0.9060 0.9069 0.9079
3688.795208 0.9080 0.9080 0.9080 0.9080 0.9085
3693.715935 0.9090 0.9090 0.9090 0.9095 0.9100
3698.636661 0.9109 0.9119 0.9120 0.9120 0.9120
3703.557388 0.9120 0.9120 0.9120 0.9120 0.9120
3708.478115 0.9111 0.9101 0.9100 0.9100 0.9095
3713.398842 0.9090 0.9090 0.9090 0.9090 0.9090
3718.319569 0.9095 0.9100 0.9100 0.9100 0.9114
3723.240295 0.9129 0.9135 0.9140 0.9149 0.9159
3728.161022 0.9169 0.9179 0.9194 0.9209 0.9224
3733.081749 0.9239 0.9259 0.9279 0.9285 0.9290
3738.002476 0.9304 0.9319 0.9320 0.9320 0.9310
3742.923203 0.9300 0.9295 0.9290 0.9276 0.9261
3747.843929 0.9250 0.9240 0.9230 0.9220 0.9215
3752.764656 0.9210 0.9205 0.9200 0.9200 0.9200
3757.685383 0.9200 0.9200 0.9200 0.9200 0.9200
3762.606110 0.9200 0.9200 0.9200 0.9200 0.9200
3767.526836 0.9200 0.9200 0.9200 0.9200 0.9190
3772.447563 0.9180 0.9180 0.9180 0.9180 0.9180
3777.368290 0.9180 0.9180 0.9175 0.9170 0.9170
3782.289017 0.9170 0.9170 0.9170 0.9175 0.9180
3787.209744 0.9190 0.9200 0.9200 0.9200 0.9205
3792.130470 0.9210 0.9215 0.9220
##END=
