##TITLE=CYCLOHEXANAMINE, N-METHYL-
##JCAMP-DX=4.24
##DATA TYPE=INFRARED SPECTRUM
##CLASS=COBLENTZ III
##ORIGIN=DOW CHEMICAL COMPANY
##OWNER=COBLENTZ SOCIETY
Collection (C) 2018 copyright by the U.S. Secretary of Commerce
on behalf of the United States of America. All rights reserved.
##DATE=1963/07/25
##NAMES=N-methylcyclohexanamine
N-cyclohexyl-N-methylamine
##CAS REGISTRY NO=100-60-7
##MOLFORM=C7 H15 N
##SOURCE REFERENCE=COBLENTZ NO. 10241
##$NIST SOURCE=COBLENTZ
##$NIST IMAGE=cob10241
##SPECTROMETER/DATA SYSTEM=DOW KBr FOREPRISM-GRATING
##INSTRUMENT PARAMETERS=BLAZED AT 3.5, 12.0, 20.0 MICRON, CHANGED AT 5.0, 7.5, 14.9 MICRON
##STATE=SOLUTION (10% IN CCl4 FOR 3800-400 CM^-^1)
##PATH LENGTH=0.010 CM
$$SPECTRAL CONTAMINATION DUE TO CCl4 AROUND 1550, 1260, 1220, 1000, AND BROAD 780 CM^-^1
##SAMPLING PROCEDURE=TRANSMISSION
##RESOLUTION=4
##DATA PROCESSING=DIGITIZED BY NIST FROM HARD COPY (FROM TWO SEGMENTS)
##XUNITS=1/CM
##YUNITS=TRANSMITTANCE
##XFACTOR=1.000000
##YFACTOR=1
##DELTAX=0.867054
##FIRSTX=382.081
##LASTX=3799.14
##FIRSTY=0.907
##MAXX=3799.14
##MINX=382.081
##MAXY=1.02099
##MINY=0
##NPOINTS=3942
##XYDATA=(X++(Y..Y))
382.081000 0.9070 0.9050 0.9050 0.9040 0.9030
386.416268 0.9030 0.9010 0.9010 0.9000 0.8970
390.751536 0.8950 0.8920 0.8910 0.8890 0.8890
395.086805 0.8890 0.8880 0.8880 0.8870 0.8850
399.422073 0.8830 0.8810 0.8790 0.8770 0.8760
403.757341 0.8750 0.8730 0.8720 0.8700 0.8690
408.092609 0.8680 0.8650 0.8620 0.8600 0.8570
412.427878 0.8540 0.8520 0.8490 0.8460 0.8420
416.763146 0.8380 0.8330 0.8270 0.8220 0.8130
421.098414 0.8050 0.7980 0.7910 0.7860 0.7780
425.433682 0.7700 0.7590 0.7540 0.7390 0.7360
429.768950 0.7370 0.7390 0.7480 0.7540 0.7600
434.104219 0.7710 0.7780 0.7880 0.7910 0.7950
438.439487 0.7970 0.7980 0.7970 0.7930 0.7910
442.774755 0.7880 0.7830 0.7750 0.7740 0.7720
447.110023 0.7700 0.7640 0.7550 0.7440 0.7291
451.445292 0.7280 0.7240 0.7160 0.7050 0.7000
455.780560 0.6930 0.6760 0.6591 0.6570 0.6590
460.115828 0.6660 0.6760 0.6800 0.6850 0.6890
464.451096 0.7020 0.7050 0.7080 0.7090 0.7120
468.786364 0.7130 0.7160 0.7170 0.7190 0.7190
473.121633 0.7200 0.7210 0.7240 0.7270 0.7280
477.456901 0.7350 0.7360 0.7390 0.7430 0.7500
481.792169 0.7520 0.7550 0.7560 0.7590 0.7699
486.127437 0.7760 0.7880 0.7930 0.8050 0.8130
490.462706 0.8220 0.8290 0.8310 0.8370 0.8410
494.797974 0.8420 0.8480 0.8490 0.8520 0.8530
499.133242 0.8540 0.8560 0.8560 0.8560 0.8570
503.468510 0.8600 0.8620 0.8640 0.8680 0.8680
507.803779 0.8690 0.8690 0.8700 0.8700 0.8720
512.139047 0.8730 0.8730 0.8750 0.8750 0.8760
516.474315 0.8760 0.8760 0.8760 0.8770 0.8770
520.809583 0.8770 0.8770 0.8770 0.8770 0.8750
525.144851 0.8720 0.8690 0.8680 0.8650 0.8620
529.480120 0.8580 0.8540 0.8500 0.8480 0.8480
533.815388 0.8420 0.8400 0.8380 0.8340 0.8330
538.150656 0.8230 0.8130 0.7840 0.7580 0.7370
542.485924 0.7130 0.7010 0.6890 0.6840 0.7238
546.821193 0.7580 0.7930 0.8130 0.8310 0.8490
551.156461 0.8620 0.8660 0.8700 0.8720 0.8750
555.491729 0.8760 0.8770 0.8810 0.8830 0.8850
559.826997 0.8870 0.8880 0.8880 0.8880 0.8880
564.162265 0.8880 0.8850 0.8850 0.8830 0.8810
568.497534 0.8800 0.8770 0.8750 0.8720 0.8690
572.832802 0.8680 0.8620 0.8600 0.8570 0.8560
577.168070 0.8570 0.8600 0.8620 0.8700 0.8790
581.503338 0.8840 0.8890 0.8950 0.8970 0.9000
585.838607 0.9010 0.9080 0.9090 0.9110 0.9120
590.173875 0.9130 0.9130 0.9130 0.9130 0.9130
594.509143 0.9130 0.9130 0.9130 0.9130 0.9130
598.844411 0.9130 0.9130 0.9120 0.9120 0.9120
603.179679 0.9120 0.9110 0.9110 0.9090 0.9080
607.514948 0.9070 0.9050 0.9030 0.8990 0.8960
611.850216 0.8950 0.8910 0.8890 0.8840 0.8800
616.185484 0.8750 0.8720 0.8660 0.8580 0.8500
620.520752 0.8440 0.8360 0.8290 0.8170 0.8100
624.856021 0.8010 0.7970 0.7940 0.7940 0.7990
629.191289 0.8030 0.8130 0.8250 0.8370 0.8519
633.526557 0.8680 0.8720 0.8790 0.8840 0.8880
637.861825 0.8890 0.8910 0.8890 0.8890 0.8880
642.197093 0.8880 0.8810 0.8800 0.8790 0.8760
646.532362 0.8760 0.8730 0.8700 0.8680 0.8680
650.867630 0.8640 0.8620 0.8580 0.8560 0.8540
655.202898 0.8520 0.8490 0.8460 0.8400 0.8300
659.538166 0.8270 0.8220 0.8180 0.8170 0.8150
663.873435 0.8110 0.8110 0.8100 0.8100 0.8070
668.208703 0.8060 0.8050 0.8030 0.8010 0.7990
672.543971 0.7980 0.7950 0.7940 0.7930 0.7910
676.879239 0.7880 0.7830 0.7750 0.7710 0.7620
681.214508 0.7590 0.7550 0.7440 0.7400 0.7330
685.549776 0.7280 0.7240 0.7110 0.7040 0.7010
689.885044 0.6980 0.6930 0.6890 0.6820 0.6760
694.220312 0.6680 0.6590 0.6510 0.6420 0.6330
698.555580 0.6260 0.6150 0.6070 0.5990 0.5940
702.890849 0.5870 0.5760 0.5710 0.5600 0.5510
707.226117 0.5450 0.5340 0.5240 0.5120 0.5010
711.561385 0.4940 0.4820 0.4670 0.4540 0.4350
715.896653 0.4121 0.4010 0.3930 0.3840 0.3651
720.231922 0.3460 0.3260 0.3190 0.3050 0.2790
724.567190 0.2560 0.2390 0.2230 0.2120 0.2020
728.902458 0.1720 0.1470 0.1300 0.1140 0.1000
733.237726 0.0940 0.0860 0.0710 0.0521 0.0410
737.572994 0.0320 0.0250 0.0140 0.0010 0.0000
741.908263 0.0000 0.0000 0.0000 0.0000 0.0000
746.243531 0.0000 0.0000 0.0010 0.0010 0.0010
750.578799 0.0000 0.0000 0.0000 0.0000 0.0000
754.914067 0.0000 0.0000 0.0000 0.0000 0.0000
759.249336 0.0000 0.0000 0.0000 0.0000 0.0000
763.584604 0.0000 0.0000 0.0000 0.0000 0.0000
767.919872 0.0000 0.0000 0.0000 0.0000 0.0000
772.255140 0.0000 0.0000 0.0010 0.0000 0.0000
776.590408 0.0000 0.0000 0.0000 0.0010 0.0010
780.925677 0.0010 0.0010 0.0010 0.0010 0.0010
785.260945 0.0020 0.0020 0.0020 0.0020 0.0020
789.596213 0.0020 0.0020 0.0020 0.0010 0.0010
793.931481 0.0010 0.0010 0.0010 0.0010 0.0010
798.266750 0.0010 0.0000 0.0000 0.0000 0.0000
802.602018 0.0000 0.0000 0.0000 0.0000 0.0000
806.937286 0.0000 0.0000 0.0000 0.0010 0.0010
811.272554 0.0020 0.0050 0.0080 0.0120 0.0200
815.607822 0.0320 0.0410 0.0510 0.0630 0.1069
819.943091 0.1429 0.1839 0.1960 0.2189 0.2439
824.278359 0.2560 0.2780 0.2970 0.3090 0.3360
828.613627 0.3600 0.4229 0.4539 0.4660 0.4770
832.948895 0.4910 0.5090 0.5320 0.5450 0.5610
837.284164 0.5760 0.5910 0.6020 0.6040 0.6080
841.619432 0.6070 0.6040 0.5980 0.5870 0.5840
845.954700 0.5860 0.5940 0.6299 0.6649 0.7049
850.289968 0.7250 0.7330 0.7400 0.7450 0.7510
854.625237 0.7550 0.7560 0.7590 0.7600 0.7620
858.960505 0.7620 0.7620 0.7630 0.7660 0.7720
863.295773 0.7720 0.7740 0.7740 0.7740 0.7740
867.631041 0.7780 0.7830 0.7900 0.7940 0.8010
871.966309 0.8030 0.8100 0.8100 0.8130 0.8140
876.301578 0.8150 0.8140 0.8110 0.8060 0.7980
880.636846 0.7940 0.7830 0.7750 0.7561 0.7271
884.972114 0.7010 0.6760 0.6470 0.6220 0.6200
889.307382 0.6370 0.6370 0.6350 0.6260 0.6150
893.642651 0.6150 0.6270 0.6540 0.6660 0.7159
897.977919 0.7579 0.7969 0.7990 0.8060 0.8170
902.313187 0.8190 0.8220 0.8230 0.8230 0.8220
906.648455 0.8210 0.8130 0.8100 0.7990 0.7950
910.983723 0.7940 0.7910 0.7760 0.7630 0.7550
915.318992 0.7470 0.7440 0.7470 0.7470 0.7540
919.654260 0.7580 0.7620 0.7670 0.7720 0.7720
923.989528 0.7720 0.7670 0.7630 0.7560 0.7540
928.324796 0.7510 0.7510 0.7580 0.7720 0.7750
932.660065 0.7820 0.7840 0.7910 0.7930 0.7930
936.995333 0.7930 0.7900 0.7870 0.7750 0.7670
941.330601 0.7620 0.7560 0.7470 0.7400 0.7360
945.665869 0.7350 0.7410 0.7630 0.7880 0.8130
950.001137 0.8290 0.8340 0.8400 0.8450 0.8450
954.336406 0.8440 0.8420 0.8410 0.8380 0.8360
958.671674 0.8310 0.8260 0.8210 0.8140 0.8100
963.006942 0.8010 0.7930 0.7910 0.7800 0.7780
967.342210 0.7630 0.7560 0.7440 0.7400 0.7370
971.677479 0.7270 0.7210 0.7110 0.7060 0.7040
976.012747 0.7020 0.7000 0.6970 0.6920 0.6880
980.348015 0.6840 0.6810 0.6800 0.6770 0.6760
984.683283 0.6740 0.6730 0.6730 0.6720 0.6680
989.018551 0.6630 0.6620 0.6580 0.6570 0.6510
993.353820 0.6490 0.6450 0.6420 0.6410 0.6390
997.689088 0.6340 0.6330 0.6330 0.6340 0.6350
1002.024356 0.6370 0.6380 0.6390 0.6410 0.6410
1006.359624 0.6420 0.6420 0.6420 0.6430 0.6490
1010.694893 0.6550 0.6570 0.6570 0.6590 0.6630
1015.030161 0.6730 0.6730 0.6760 0.6800 0.6890
1019.365429 0.7020 0.7050 0.7060 0.7080 0.7160
1023.700697 0.7170 0.7210 0.7230 0.7230 0.7210
1028.035966 0.7170 0.7120 0.7090 0.7060 0.7000
1032.371234 0.7000 0.7050 0.7130 0.7280 0.7440
1036.706502 0.7520 0.7560 0.7520 0.7480 0.7400
1041.041770 0.7320 0.7230 0.7080 0.7000 0.6900
1045.377038 0.6610 0.6410 0.6290 0.6250 0.6260
1049.712307 0.6420 0.6500 0.6590 0.6760 0.6900
1054.047575 0.7060 0.7060 0.7110 0.7120 0.7130
1058.382843 0.7160 0.7190 0.7130 0.7120 0.7080
1062.718111 0.7040 0.6980 0.6850 0.6740 0.6590
1067.053380 0.6490 0.6450 0.6450 0.6590 0.6770
1071.388648 0.6840 0.6900 0.7080 0.7190 0.7290
1075.723916 0.7400 0.7470 0.7510 0.7560 0.7550
1080.059184 0.7520 0.7500 0.7470 0.7430 0.7390
1084.394452 0.7310 0.7230 0.7150 0.7000 0.6920
1088.729721 0.6840 0.6680 0.6510 0.6450 0.6300
1093.064989 0.6190 0.6080 0.5940 0.5790 0.5730
1097.400257 0.5830 0.5900 0.6119 0.6329 0.6340
1101.735525 0.6350 0.6350 0.6350 0.6370 0.6410
1106.070794 0.6490 0.6620 0.6720 0.6810 0.6999
1110.406062 0.7050 0.7050 0.7040 0.7020 0.7010
1114.741330 0.7000 0.7000 0.7000 0.7010 0.7040
1119.076598 0.7040 0.7020 0.7000 0.6970 0.6940
1123.411866 0.6850 0.6740 0.6590 0.6430 0.6270
1127.747135 0.6020 0.5730 0.5560 0.5410 0.5440
1132.082403 0.5600 0.5730 0.5880 0.6159 0.6449
1136.417671 0.6680 0.6760 0.6920 0.6970 0.6970
1140.752939 0.6930 0.6850 0.6680 0.6470 0.6300
1145.088208 0.5999 0.5610 0.5290 0.4830 0.4830
1149.423476 0.5050 0.5320 0.5569 0.5680 0.5839
1153.758744 0.6140 0.6100 0.6060 0.5940 0.5840
1158.094012 0.5840 0.5880 0.6110 0.6310 0.6499
1162.429280 0.6741 0.7130 0.7320 0.7510 0.7660
1166.764549 0.7740 0.7830 0.7930 0.7970 0.8010
1171.099817 0.8020 0.8050 0.8050 0.8030 0.8030
1175.435085 0.8030 0.8030 0.8030 0.8050 0.8110
1179.770353 0.8170 0.8190 0.8220 0.8300 0.8310
1184.105622 0.8360 0.8380 0.8400 0.8410 0.8410
1188.440890 0.8370 0.8340 0.8310 0.8290 0.8190
1192.776158 0.8130 0.8090 0.8070 0.8060 0.8060
1197.111426 0.8050 0.8020 0.8010 0.7970 0.7940
1201.446695 0.7930 0.7870 0.7820 0.7780 0.7750
1205.781963 0.7700 0.7670 0.7580 0.7480 0.7410
1210.117231 0.7350 0.7270 0.7170 0.7080 0.7040
1214.452499 0.6980 0.6850 0.6700 0.6610 0.6690
1218.787767 0.6740 0.6810 0.6880 0.7050 0.7080
1223.123036 0.7130 0.7230 0.7240 0.7270 0.7310
1227.458304 0.7370 0.7400 0.7410 0.7430 0.7430
1231.793572 0.7440 0.7440 0.7430 0.7410 0.7400
1236.128840 0.7390 0.7390 0.7320 0.7280 0.7210
1240.464109 0.7200 0.7120 0.7060 0.7020 0.6980
1244.799377 0.6920 0.6800 0.6740 0.6730 0.6720
1249.134645 0.6680 0.6650 0.6620 0.6610 0.6580
1253.469913 0.6530 0.6490 0.6460 0.6430 0.6350
1257.805181 0.6310 0.6190 0.6110 0.6110 0.6150
1262.140450 0.6220 0.6340 0.6510 0.6650 0.6760
1266.475718 0.6890 0.7040 0.7290 0.7410 0.7630
1270.810986 0.7740 0.7760 0.7930 0.7970 0.8030
1275.146254 0.8110 0.8150 0.8220 0.8300 0.8330
1279.481523 0.8410 0.8480 0.8500 0.8530 0.8570
1283.816791 0.8610 0.8680 0.8680 0.8700 0.8700
1288.152059 0.8700 0.8690 0.8680 0.8680 0.8680
1292.487327 0.8650 0.8640 0.8620 0.8610 0.8600
1296.822595 0.8580 0.8580 0.8570 0.8560 0.8540
1301.157864 0.8530 0.8520 0.8500 0.8490 0.8440
1305.493132 0.8400 0.8340 0.8300 0.8150 0.8050
1309.828400 0.8010 0.8010 0.8030 0.8100 0.8110
1314.163668 0.8140 0.8150 0.8180 0.8190 0.8190
1318.498937 0.8210 0.8230 0.8250 0.8260 0.8260
1322.834205 0.8250 0.8230 0.8210 0.8190 0.8150
1327.169473 0.8130 0.8100 0.8030 0.8020 0.8020
1331.504741 0.8050 0.8060 0.8090 0.8090 0.8090
1335.840009 0.8060 0.8050 0.8030 0.7930 0.7930
1340.175278 0.7800 0.7750 0.7670 0.7580 0.7480
1344.510546 0.7400 0.7290 0.7060 0.6940 0.6820
1348.845814 0.6580 0.6340 0.6021 0.6020 0.6379
1353.181082 0.6620 0.6821 0.7110 0.7230 0.7230
1357.516351 0.7240 0.7230 0.7120 0.7050 0.6980
1361.851619 0.6900 0.6660 0.6430 0.6260 0.5900
1366.186887 0.5610 0.5410 0.5141 0.4831 0.4441
1370.522155 0.4440 0.4540 0.4780 0.4890 0.5320
1374.857424 0.5870 0.6190 0.6490 0.6720 0.7119
1379.192692 0.7320 0.7540 0.7580 0.7670 0.7750
1383.527960 0.7820 0.7860 0.7930 0.7940 0.7970
1387.863228 0.7980 0.7990 0.8020 0.8050 0.8100
1392.198496 0.8110 0.8130 0.8140 0.8140 0.8140
1396.533765 0.8140 0.8140 0.8140 0.8150 0.8150
1400.869033 0.8140 0.8140 0.8140 0.8130 0.8110
1405.204301 0.8100 0.8060 0.8050 0.8030 0.8030
1409.539569 0.8020 0.8020 0.8010 0.7980 0.7970
1413.874838 0.7940 0.7930 0.7840 0.7760 0.7720
1418.210106 0.7510 0.7400 0.7280 0.7170 0.7110
1422.545374 0.7090 0.7150 0.7200 0.7250 0.7310
1426.880642 0.7370 0.7440 0.7430 0.7400 0.7370
1431.215910 0.7290 0.7240 0.7150 0.7080 0.7050
1435.551179 0.6980 0.6900 0.6760 0.6680 0.6431
1439.886447 0.5879 0.5690 0.5610 0.5470 0.5240
1444.221715 0.5010 0.4860 0.4460 0.4200 0.3931
1448.556983 0.2989 0.2479 0.1939 0.1430 0.1140
1452.892252 0.1060 0.0980 0.0950 0.1180 0.1968
1457.227520 0.2132 0.2801 0.3221 0.3581 0.4540
1461.562788 0.4650 0.4660 0.4650 0.4580 0.4340
1465.898056 0.4160 0.4201 0.4520 0.4780 0.5060
1470.233324 0.5140 0.5140 0.5120 0.5040 0.4821
1474.568593 0.4389 0.4000 0.3830 0.3650 0.3290
1478.903861 0.3140 0.3140 0.3270 0.4108 0.4708
1483.239129 0.5061 0.5651 0.5990 0.6300 0.6500
1487.574397 0.6660 0.6800 0.7060 0.7170 0.7250
1491.909666 0.7320 0.7410 0.7510 0.7580 0.7600
1496.244934 0.7630 0.7630 0.7630 0.7630 0.7630
1500.580202 0.7620 0.7620 0.7620 0.7600 0.7580
1504.915470 0.7560 0.7550 0.7480 0.7430 0.7400
1509.250738 0.7370 0.7360 0.7350 0.7330 0.7320
1513.586007 0.7280 0.7250 0.7230 0.7210 0.7210
1517.921275 0.7170 0.7120 0.7060 0.7050 0.7040
1522.256543 0.7010 0.6980 0.6940 0.6920 0.6900
1526.591811 0.6900 0.6890 0.6880 0.6840 0.6770
1530.927080 0.6720 0.6660 0.6610 0.6580 0.6460
1535.262348 0.6420 0.6300 0.6270 0.6260 0.6160
1539.597616 0.6030 0.5810 0.5650 0.5560 0.5480
1543.932884 0.5440 0.5410 0.5360 0.5340 0.5320
1548.268153 0.5280 0.5250 0.5220 0.5210 0.5180
1552.603421 0.5170 0.5180 0.5200 0.5220 0.5220
1556.938689 0.5250 0.5260 0.5340 0.5410 0.5510
1561.273957 0.5590 0.5680 0.5750 0.5840 0.5900
1565.609225 0.5950 0.6030 0.6080 0.6120 0.6200
1569.944494 0.6310 0.6330 0.6380 0.6380 0.6430
1574.279762 0.6460 0.6470 0.6490 0.6490 0.6490
1578.615030 0.6500 0.6510 0.6510 0.6540 0.6550
1582.950298 0.6540 0.6510 0.6500 0.6490 0.6490
1587.285567 0.6470 0.6470 0.6470 0.6490 0.6580
1591.620835 0.6630 0.6680 0.6740 0.6770 0.6890
1595.956103 0.7050 0.7110 0.7210 0.7360 0.7510
1600.291371 0.7590 0.7680 0.7760 0.7840 0.7940
1604.626639 0.8010 0.8090 0.8140 0.8210 0.8250
1608.961908 0.8300 0.8340 0.8410 0.8460 0.8480
1613.297176 0.8490 0.8500 0.8530 0.8540 0.8540
1617.632444 0.8540 0.8560 0.8580 0.8600 0.8650
1621.967712 0.8650 0.8620 0.8620 0.8610 0.8610
1626.302981 0.8620 0.8620 0.8610 0.8610 0.8610
1630.638249 0.8610 0.8610 0.8600 0.8580 0.8570
1634.973517 0.8530 0.8500 0.8420 0.8400 0.8380
1639.308785 0.8370 0.8360 0.8340 0.8330 0.8300
1643.644053 0.8260 0.8210 0.8140 0.8100 0.8060
1647.979322 0.8030 0.7990 0.7970 0.7950 0.7940
1652.314590 0.7930 0.7940 0.7970 0.8020 0.8110
1656.649858 0.8150 0.8210 0.8270 0.8300 0.8340
1660.985126 0.8360 0.8360 0.8340 0.8330 0.8310
1665.320395 0.8310 0.8310 0.8310 0.8300 0.8230
1669.655663 0.8190 0.8180 0.8170 0.8170 0.8190
1673.990931 0.8210 0.8230 0.8250 0.8290 0.8290
1678.326199 0.8370 0.8480 0.8520 0.8580 0.8690
1682.661467 0.8720 0.8750 0.8760 0.8790 0.8880
1686.996736 0.8930 0.9010 0.9050 0.9090 0.9120
1691.332004 0.9130 0.9150 0.9160 0.9160 0.9150
1695.667272 0.9150 0.9130 0.9130 0.9130 0.9120
1700.002540 0.9120 0.9110 0.9120 0.9160 0.9160
1704.337809 0.9190 0.9190 0.9180 0.9180 0.9160
1708.673077 0.9160 0.9160 0.9150 0.9120 0.9090
1713.008345 0.9050 0.9010 0.8970 0.8920 0.8890
1717.343613 0.8880 0.8870 0.8880 0.8910 0.8930
1721.678882 0.8970 0.9000 0.9010 0.9030 0.9070
1726.014150 0.9080 0.9080 0.9080 0.9070 0.9070
1730.349418 0.9010 0.8990 0.8970 0.8950 0.8950
1734.684686 0.8930 0.8950 0.8960 0.8990 0.9010
1739.019954 0.9010 0.9030 0.9080 0.9120 0.9130
1743.355223 0.9160 0.9190 0.9240 0.9300 0.9320
1747.690491 0.9340 0.9350 0.9390 0.9430 0.9480
1752.025759 0.9500 0.9540 0.9550 0.9560 0.9560
1756.361027 0.9560 0.9560 0.9560 0.9580 0.9580
1760.696296 0.9610 0.9630 0.9630 0.9630 0.9630
1765.031564 0.9630 0.9620 0.9620 0.9620 0.9620
1769.366832 0.9630 0.9620 0.9620 0.9620 0.9630
1773.702100 0.9630 0.9660 0.9670 0.9670 0.9670
1778.037368 0.9690 0.9690 0.9690 0.9690 0.9690
1782.372637 0.9690 0.9690 0.9690 0.9690 0.9690
1786.707905 0.9690 0.9690 0.9690 0.9690 0.9650
1791.043173 0.9630 0.9630 0.9650 0.9660 0.9690
1795.378441 0.9690 0.9670 0.9660 0.9660 0.9660
1799.713710 0.9660 0.9660 0.9660 0.9670 0.9670
1804.048978 0.9670 0.9690 0.9690 0.9690 0.9690
1808.384246 0.9690 0.9690 0.9690 0.9690 0.9690
1812.719514 0.9690 0.9690 0.9690 0.9690 0.9690
1817.054782 0.9670 0.9670 0.9670 0.9670 0.9670
1821.390051 0.9670 0.9660 0.9660 0.9650 0.9650
1825.725319 0.9650 0.9650 0.9650 0.9650 0.9630
1830.060587 0.9630 0.9630 0.9630 0.9620 0.9630
1834.395855 0.9630 0.9630 0.9620 0.9620 0.9620
1838.731124 0.9620 0.9620 0.9610 0.9590 0.9580
1843.066392 0.9580 0.9560 0.9560 0.9590 0.9590
1847.401660 0.9610 0.9610 0.9610 0.9610 0.9610
1851.736928 0.9620 0.9620 0.9620 0.9620 0.9620
1856.072196 0.9620 0.9620 0.9650 0.9660 0.9670
1860.407465 0.9700 0.9740 0.9780 0.9790 0.9810
1864.742733 0.9820 0.9830 0.9850 0.9860 0.9870
1869.078001 0.9900 0.9910 0.9910 0.9950 0.9980
1873.413269 1.0010 1.0010 1.0050 1.0060 1.0090
1877.748538 1.0100 1.0100 1.0120 1.0130 1.0130
1882.083806 1.0130 1.0130 1.0130 1.0130 1.0130
1886.419074 1.0130 1.0120 1.0120 1.0120 1.0100
1890.754342 1.0100 1.0100 1.0100 1.0100 1.0120
1895.089611 1.0120 1.0120 1.0120 1.0120 1.0130
1899.424879 1.0140 1.0130 1.0120 1.0120 1.0120
1903.760147 1.0120 1.0120 1.0130 1.0120 1.0120
1908.095415 1.0120 1.0120 1.0130 1.0130 1.0130
1912.430683 1.0130 1.0130 1.0120 1.0120 1.0120
1916.765952 1.0120 1.0130 1.0120 1.0120 1.0130
1921.101220 1.0130 1.0130 1.0130 1.0130 1.0130
1925.436488 1.0130 1.0130 1.0140 1.0140 1.0140
1929.771756 1.0140 1.0130 1.0130 1.0130 1.0130
1934.107025 1.0130 1.0140 1.0160 1.0160 1.0140
1938.442293 1.0140 1.0140 1.0140 1.0120 1.0100
1942.777561 1.0100 1.0100 1.0120 1.0120 1.0130
1947.112829 1.0140 1.0140 1.0140 1.0160 1.0170
1951.448097 1.0160 1.0140 1.0140 1.0140 1.0130
1955.783366 1.0130 1.0140 1.0140 1.0140 1.0140
1960.118634 1.0160 1.0180 1.0200 1.0210 1.0170
1964.453902 1.0130 1.0120 1.0100 1.0100 1.0090
1968.789170 1.0090 1.0090 1.0090 1.0090 1.0080
1973.124439 1.0080 1.0060 1.0060 1.0050 1.0050
1977.459707 1.0050 1.0040 1.0040 1.0050 1.0050
1981.794975 1.0060 1.0060 1.0060 1.0060 1.0060
1986.130243 1.0060 1.0060 1.0060 1.0060 1.0050
1990.465511 1.0020 1.0010 1.0000 0.9980 0.9970
1994.800780 0.9950 0.9950 0.9950 0.9970 0.9980
1999.136048 0.9980 1.0000 1.0005 1.0010 1.0010
2003.471316 1.0010 1.0010 1.0010 1.0005 1.0000
2007.806584 1.0005 1.0010 1.0010 1.0010 1.0010
2012.141853 1.0010 1.0010 1.0010 1.0010 1.0010
2016.477121 1.0010 1.0011 1.0015 1.0020 1.0020
2020.812389 1.0022 1.0037 1.0050 1.0050 1.0050
2025.147657 1.0050 1.0050 1.0050 1.0051 1.0056
2029.482925 1.0061 1.0071 1.0080 1.0080 1.0078
2033.818194 1.0063 1.0047 1.0032 1.0020 1.0020
2038.153462 1.0019 1.0014 1.0010 1.0010 1.0009
2042.488730 1.0004 0.9998 0.9988 0.9979 0.9974
2046.823998 0.9968 0.9958 0.9950 0.9950 0.9950
2051.159267 0.9950 0.9950 0.9950 0.9953 0.9963
2055.494535 0.9970 0.9970 0.9971 0.9976 0.9980
2059.829803 0.9980 0.9983 0.9993 1.0000 1.0000
2064.165071 0.9997 0.9987 0.9980 0.9980 0.9983
2068.500340 0.9993 1.0000 1.0000 0.9996 0.9986
2072.835608 0.9978 0.9973 0.9970 0.9970 0.9976
2077.170876 0.9991 1.0000 1.0000 0.9996 0.9986
2081.506144 0.9978 0.9973 0.9966 0.9956 0.9950
2085.841412 0.9950 0.9950 0.9950 0.9948 0.9943
2090.176681 0.9940 0.9940 0.9942 0.9947 0.9950
2094.511949 0.9950 0.9950 0.9950 0.9950 0.9950
2098.847217 0.9950 0.9950 0.9948 0.9943 0.9940
2103.182485 0.9940 0.9932 0.9917 0.9907 0.9902
2107.517754 0.9900 0.9900 0.9897 0.9892 0.9890
2111.853022 0.9890 0.9893 0.9898 0.9920 0.9955
2116.188290 0.9973 0.9978 0.9980 0.9980 0.9977
2120.523558 0.9972 0.9964 0.9954 0.9944 0.9934
2124.858826 0.9924 0.9914 0.9907 0.9902 0.9897
2129.194095 0.9892 0.9880 0.9865 0.9857 0.9852
2133.529363 0.9850 0.9850 0.9843 0.9833 0.9830
2137.864631 0.9830 0.9830 0.9830 0.9830 0.9830
2142.199899 0.9826 0.9821 0.9820 0.9820 0.9820
2146.535168 0.9820 0.9820 0.9820 0.9824 0.9829
2150.870436 0.9830 0.9830 0.9830 0.9830 0.9830
2155.205704 0.9830 0.9838 0.9848 0.9850 0.9850
2159.540972 0.9850 0.9850 0.9850 0.9850 0.9854
2163.876240 0.9859 0.9860 0.9860 0.9860 0.9860
2168.211509 0.9860 0.9860 0.9856 0.9851 0.9850
2172.546777 0.9850 0.9841 0.9831 0.9830 0.9830
2176.882045 0.9826 0.9821 0.9820 0.9820 0.9816
2181.217313 0.9810 0.9810 0.9810 0.9801 0.9791
2185.552582 0.9790 0.9790 0.9790 0.9790 0.9785
2189.887850 0.9780 0.9780 0.9780 0.9780 0.9780
2194.223118 0.9775 0.9770 0.9770 0.9770 0.9770
2198.558386 0.9770 0.9770 0.9770 0.9770 0.9770
2202.893654 0.9770 0.9770 0.9760 0.9750 0.9750
2207.228923 0.9750 0.9750 0.9750 0.9750 0.9750
2211.564191 0.9750 0.9750 0.9750 0.9750 0.9750
2215.899459 0.9750 0.9750 0.9750 0.9745 0.9740
2220.234727 0.9740 0.9740 0.9735 0.9729 0.9719
2224.569996 0.9710 0.9710 0.9709 0.9704 0.9699
2228.905264 0.9694 0.9689 0.9678 0.9668 0.9658
2233.240532 0.9648 0.9638 0.9629 0.9624 0.9620
2237.575800 0.9620 0.9620 0.9620 0.9620 0.9620
2241.911069 0.9620 0.9620 0.9620 0.9620 0.9620
2246.246337 0.9620 0.9620 0.9620 0.9620 0.9620
2250.581605 0.9620 0.9620 0.9619 0.9614 0.9610
2254.916873 0.9610 0.9610 0.9610 0.9610 0.9610
2259.252141 0.9610 0.9610 0.9607 0.9597 0.9588
2263.587410 0.9583 0.9580 0.9580 0.9577 0.9567
2267.922678 0.9560 0.9560 0.9558 0.9553 0.9550
2272.257946 0.9550 0.9550 0.9550 0.9548 0.9543
2276.593214 0.9540 0.9540 0.9540 0.9540 0.9536
2280.928483 0.9526 0.9516 0.9506 0.9496 0.9486
2285.263751 0.9480 0.9480 0.9480 0.9480 0.9480
2289.599019 0.9480 0.9478 0.9473 0.9463 0.9448
2293.934287 0.9440 0.9440 0.9438 0.9433 0.9430
2298.269555 0.9430 0.9432 0.9437 0.9445 0.9455
2302.604824 0.9463 0.9468 0.9473 0.9478 0.9480
2306.940092 0.9480 0.9480 0.9480 0.9480 0.9480
2311.275360 0.9480 0.9480 0.9477 0.9472 0.9470
2315.610628 0.9470 0.9470 0.9470 0.9470 0.9470
2319.945897 0.9467 0.9462 0.9454 0.9444 0.9437
2324.281165 0.9432 0.9427 0.9422 0.9420 0.9420
2328.616433 0.9414 0.9404 0.9400 0.9400 0.9400
2332.951701 0.9400 0.9397 0.9392 0.9387 0.9382
2337.286969 0.9370 0.9355 0.9350 0.9350 0.9347
2341.622238 0.9342 0.9340 0.9340 0.9340 0.9340
2345.957506 0.9333 0.9323 0.9316 0.9311 0.9306
2350.292774 0.9301 0.9292 0.9282 0.9272 0.9262
2354.628042 0.9249 0.9233 0.9215 0.9194 0.9178
2358.963311 0.9163 0.9148 0.9133 0.9126 0.9121
2363.298579 0.9116 0.9111 0.9110 0.9110 0.9102
2367.633847 0.9092 0.9090 0.9090 0.9086 0.9081
2371.969115 0.9080 0.9080 0.9080 0.9080 0.9084
2376.304383 0.9089 0.9090 0.9090 0.9103 0.9119
2380.639652 0.9120 0.9120 0.9120 0.9120 0.9120
2384.974920 0.9120 0.9120 0.9120 0.9115 0.9110
2389.310188 0.9110 0.9110 0.9101 0.9090 0.9080
2393.645456 0.9070 0.9060 0.9050 0.9050 0.9050
2397.980725 0.9040 0.9030 0.9020 0.9010 0.9010
2402.315993 0.9010 0.8985 0.8960 0.8940 0.8920
2406.651261 0.8905 0.8890 0.8885 0.8879 0.8859
2410.986529 0.8839 0.8819 0.8799 0.8779 0.8759
2415.321798 0.8744 0.8730 0.8725 0.8720 0.8720
2419.657066 0.8719 0.8709 0.8700 0.8700 0.8699
2423.992334 0.8694 0.8689 0.8684 0.8679 0.8669
2428.327602 0.8659 0.8649 0.8637 0.8617 0.8595
2432.662870 0.8565 0.8538 0.8528 0.8518 0.8508
2436.998139 0.8500 0.8500 0.8502 0.8512 0.8521
2441.333407 0.8526 0.8531 0.8536 0.8540 0.8540
2445.668675 0.8543 0.8558 0.8571 0.8576 0.8587
2450.003943 0.8618 0.8646 0.8671 0.8695 0.8715
2454.339212 0.8739 0.8775 0.8806 0.8826 0.8841
2458.674480 0.8846 0.8853 0.8863 0.8870 0.8870
2463.009748 0.8867 0.8857 0.8848 0.8843 0.8838
2467.345016 0.8833 0.8827 0.8817 0.8807 0.8796
2471.680284 0.8779 0.8749 0.8723 0.8703 0.8688
2476.015553 0.8683 0.8680 0.8680 0.8672 0.8652
2480.350821 0.8632 0.8612 0.8592 0.8572 0.8556
2484.686089 0.8546 0.8538 0.8533 0.8530 0.8530
2489.021357 0.8528 0.8523 0.8520 0.8520 0.8520
2493.356626 0.8520 0.8520 0.8520 0.8515 0.8505
2497.691894 0.8500 0.8500 0.8505 0.8515 0.8523
2502.027162 0.8528 0.8540 0.8560 0.8573 0.8578
2506.362430 0.8585 0.8595 0.8600 0.8600 0.8603
2510.697698 0.8608 0.8610 0.8610 0.8607 0.8602
2515.032967 0.8600 0.8600 0.8600 0.8600 0.8600
2519.368235 0.8600 0.8603 0.8608 0.8610 0.8610
2523.703503 0.8613 0.8618 0.8620 0.8620 0.8626
2528.038771 0.8636 0.8634 0.8624 0.8620 0.8620
2532.374040 0.8620 0.8620 0.8613 0.8603 0.8600
2536.709308 0.8600 0.8600 0.8600 0.8600 0.8600
2541.044576 0.8593 0.8583 0.8576 0.8571 0.8559
2545.379844 0.8544 0.8536 0.8531 0.8526 0.8521
2549.715112 0.8513 0.8503 0.8492 0.8482 0.8480
2554.050381 0.8480 0.8472 0.8462 0.8460 0.8460
2558.385649 0.8456 0.8451 0.8450 0.8450 0.8438
2562.720917 0.8423 0.8420 0.8420 0.8416 0.8411
2567.056185 0.8406 0.8401 0.8392 0.8381 0.8371
2571.391454 0.8361 0.8338 0.8313 0.8301 0.8291
2575.726722 0.8272 0.8252 0.8232 0.8212 0.8183
2580.061990 0.8153 0.8128 0.8102 0.8064 0.8024
2584.397258 0.7979 0.7934 0.7907 0.7882 0.7838
2588.732527 0.7792 0.7752 0.7712 0.7676 0.7641
2593.067795 0.7611 0.7581 0.7551 0.7521 0.7496
2597.403063 0.7470 0.7450 0.7430 0.7420 0.7410
2601.738331 0.7405 0.7400 0.7405 0.7411 0.7456
2606.073599 0.7501 0.7541 0.7581 0.7601 0.7620
2610.408868 0.7631 0.7641 0.7656 0.7670 0.7675
2614.744136 0.7680 0.7675 0.7670 0.7670 0.7670
2619.079404 0.7665 0.7659 0.7643 0.7629 0.7624
2623.414672 0.7619 0.7609 0.7599 0.7594 0.7588
2627.749941 0.7573 0.7557 0.7537 0.7517 0.7497
2632.085209 0.7475 0.7440 0.7404 0.7363 0.7326
2636.420477 0.7301 0.7270 0.7215 0.7155 0.7080
2640.755745 0.7018 0.7008 0.6997 0.6982 0.6967
2645.091013 0.6952 0.6939 0.6934 0.6931 0.6936
2649.426282 0.6944 0.6959 0.6970 0.6970 0.6964
2653.761550 0.6939 0.6899 0.6818 0.6749 0.6708
2658.096818 0.6665 0.6615 0.6556 0.6476 0.6406
2662.432086 0.6361 0.6325 0.6310 0.6298 0.6293
2666.767355 0.6292 0.6297 0.6320 0.6380 0.6432
2671.102623 0.6467 0.6513 0.6579 0.6639 0.6689
2675.437891 0.6731 0.6762 0.6784 0.6794 0.6816
2679.773159 0.6856 0.6882 0.6887 0.6892 0.6897
2684.108427 0.6900 0.6900 0.6904 0.6914 0.6922
2688.443696 0.6927 0.6930 0.6930 0.6930 0.6930
2692.778964 0.6930 0.6930 0.6928 0.6923 0.6920
2697.114232 0.6920 0.6920 0.6920 0.6920 0.6920
2701.449500 0.6920 0.6920 0.6915 0.6905 0.6900
2705.784769 0.6900 0.6895 0.6885 0.6875 0.6865
2710.120037 0.6860 0.6860 0.6857 0.6852 0.6850
2714.455305 0.6850 0.6847 0.6842 0.6834 0.6824
2718.790573 0.6820 0.6820 0.6814 0.6804 0.6791
2723.125841 0.6776 0.6767 0.6762 0.6754 0.6744
2727.461110 0.6727 0.6707 0.6694 0.6684 0.6673
2731.796378 0.6663 0.6667 0.6677 0.6687 0.6697
2736.131646 0.6707 0.6717 0.6723 0.6728 0.6730
2740.466914 0.6730 0.6716 0.6696 0.6654 0.6604
2744.802183 0.6561 0.6521 0.6506 0.6501 0.6482
2749.137451 0.6456 0.6413 0.6362 0.6301 0.6236
2753.472719 0.6167 0.6097 0.6030 0.5965 0.5904
2757.807987 0.5843 0.5791 0.5740 0.5706 0.5676
2762.143256 0.5560 0.5425 0.5310 0.5199 0.5139
2766.478524 0.5088 0.4926 0.4740 0.4538 0.4332
2770.813792 0.4203 0.4087 0.3972 0.3856 0.3793
2775.149060 0.3737 0.3673 0.3607 0.3546 0.3486
2779.484328 0.3412 0.3337 0.3221 0.3101 0.3021
2783.819597 0.2946 0.2857 0.2767 0.2681 0.2596
2788.154865 0.2483 0.2367 0.2322 0.2282 0.2266
2792.490133 0.2251 0.2245 0.2240 0.2245 0.2250
2796.825401 0.2349 0.2449 0.2574 0.2700 0.2785
2801.160670 0.2870 0.2951 0.3031 0.3131 0.3232
2805.495938 0.3337 0.3443 0.3568 0.3698 0.3969
2809.831206 0.4234 0.4340 0.4445 0.4520 0.4592
2814.166474 0.4628 0.4662 0.4682 0.4700 0.4705
2818.501742 0.4712 0.4732 0.4753 0.4789 0.4822
2822.837011 0.4837 0.4851 0.4856 0.4858 0.4843
2827.172279 0.4826 0.4796 0.4760 0.4689 0.4617
2831.507547 0.4531 0.4447 0.4367 0.4285 0.4194
2835.842815 0.4105 0.4020 0.3933 0.3837 0.3708
2840.178084 0.3432 0.3169 0.2958 0.2747 0.2537
2844.513352 0.2326 0.2119 0.1910 0.1700 0.1497
2848.848620 0.1322 0.1146 0.0971 0.0819 0.0739
2853.183888 0.0644 0.0509 0.0384 0.0289 0.0219
2857.519156 0.0214 0.0211 0.0216 0.0230 0.0265
2861.854425 0.0302 0.0343 0.0376 0.0397 0.0517
2866.189693 0.0843 0.1132 0.1348 0.1543 0.1699
2870.524961 0.1842 0.1962 0.2074 0.2169 0.2252
2874.860229 0.2312 0.2369 0.2419 0.2469 0.2519
2879.195498 0.2567 0.2613 0.2648 0.2668 0.2680
2883.530766 0.2680 0.2676 0.2666 0.2647 0.2617
2887.866034 0.2567 0.2492 0.2401 0.2291 0.2180
2892.201302 0.2070 0.1957 0.1842 0.1757 0.1707
2896.536570 0.1640 0.1554 0.1458 0.1353 0.1250
2900.871839 0.1149 0.1080 0.1039 0.0994 0.0944
2905.207107 0.0891 0.0836 0.0799 0.0779 0.0749
2909.542375 0.0708 0.0674 0.0644 0.0619 0.0599
2913.877643 0.0570 0.0535 0.0500 0.0464 0.0415
2918.212912 0.0354 0.0306 0.0266 0.0214 0.0154
2922.548180 0.0121 0.0106 0.0097 0.0092 0.0090
2926.883448 0.0090 0.0090 0.0090 0.0090 0.0090
2931.218716 0.0090 0.0090 0.0090 0.0090 0.0093
2935.553985 0.0098 0.0100 0.0100 0.0100 0.0100
2939.889253 0.0107 0.0117 0.0120 0.0120 0.0124
2944.224521 0.0129 0.0141 0.0156 0.0167 0.0177
2948.559789 0.0191 0.0206 0.0267 0.0342 0.0433
2952.895057 0.0528 0.0600 0.0665 0.0696 0.0716
2957.230326 0.0916 0.1167 0.1327 0.1462 0.1602
2961.565594 0.1742 0.1883 0.2023 0.2147 0.2268
2965.900862 0.2385 0.2501 0.2587 0.2668 0.2723
2970.236130 0.2773 0.2814 0.2854 0.2916 0.2981
2974.571399 0.3042 0.3102 0.3123 0.3138 0.3180
2978.906667 0.3225 0.3332 0.3448 0.3473 0.3489
2983.241935 0.3905 0.4366 0.4521 0.4651 0.4768
2987.577203 0.4883 0.5041 0.5201 0.5476 0.5757
2991.912471 0.5928 0.6093 0.6196 0.6297 0.6416
2996.247740 0.6537 0.6564 0.6590 0.6723 0.6858
3000.583008 0.7025 0.7190 0.7195 0.7201 0.7261
3004.918276 0.7321 0.7356 0.7391 0.7431 0.7472
3009.253544 0.7527 0.7582 0.7627 0.7673 0.7728
3013.588813 0.7782 0.7812 0.7842 0.7877 0.7911
3017.924081 0.7921 0.7934 0.7974 0.8014 0.8054
3022.259349 0.8091 0.8101 0.8112 0.8132 0.8151
3026.594617 0.8161 0.8173 0.8193 0.8214 0.8244
3030.929885 0.8273 0.8293 0.8314 0.8339 0.8362
3035.265154 0.8372 0.8383 0.8398 0.8415 0.8440
3039.600422 0.8463 0.8478 0.8491 0.8496 0.8502
3043.935690 0.8512 0.8521 0.8526 0.8533 0.8548
3048.270958 0.8561 0.8566 0.8571 0.8576 0.8584
3052.606227 0.8599 0.8611 0.8616 0.8624 0.8639
3056.941495 0.8651 0.8656 0.8663 0.8673 0.8681
3061.276763 0.8687 0.8692 0.8697 0.8703 0.8713
3065.612031 0.8722 0.8727 0.8733 0.8743 0.8750
3069.947299 0.8750 0.8752 0.8757 0.8762 0.8767
3074.282568 0.8774 0.8784 0.8790 0.8790 0.8790
3078.617836 0.8790 0.8790 0.8790 0.8790 0.8790
3082.953104 0.8790 0.8790 0.8792 0.8797 0.8800
3087.288372 0.8800 0.8802 0.8807 0.8808 0.8803
3091.623641 0.8802 0.8807 0.8810 0.8810 0.8815
3095.958909 0.8825 0.8830 0.8830 0.8830 0.8830
3100.294177 0.8832 0.8837 0.8840 0.8840 0.8837
3104.629445 0.8832 0.8830 0.8830 0.8833 0.8838
3108.964714 0.8840 0.8840 0.8843 0.8848 0.8850
3113.299982 0.8850 0.8850 0.8850 0.8850 0.8850
3117.635250 0.8847 0.8842 0.8840 0.8840 0.8843
3121.970518 0.8848 0.8850 0.8850 0.8856 0.8866
3126.305786 0.8870 0.8870 0.8870 0.8870 0.8870
3130.641055 0.8870 0.8863 0.8853 0.8850 0.8850
3134.976323 0.8850 0.8850 0.8850 0.8850 0.8850
3139.311591 0.8850 0.8846 0.8841 0.8840 0.8840
3143.646859 0.8840 0.8840 0.8840 0.8840 0.8840
3147.982128 0.8840 0.8840 0.8840 0.8840 0.8840
3152.317396 0.8840 0.8840 0.8840 0.8840 0.8840
3156.652664 0.8840 0.8840 0.8840 0.8844 0.8849
3160.987932 0.8850 0.8850 0.8850 0.8850 0.8850
3165.323200 0.8850 0.8850 0.8850 0.8850 0.8850
3169.658469 0.8850 0.8850 0.8850 0.8850 0.8850
3173.993737 0.8850 0.8850 0.8850 0.8859 0.8869
3178.329005 0.8870 0.8870 0.8870 0.8870 0.8870
3182.664273 0.8870 0.8875 0.8880 0.8880 0.8880
3186.999542 0.8885 0.8890 0.8890 0.8890 0.8899
3191.334810 0.8910 0.8910 0.8910 0.8915 0.8920
3195.670078 0.8920 0.8920 0.8935 0.8950 0.8950
3200.005346 0.8950 0.8955 0.8960 0.8965 0.8970
3204.340614 0.8970 0.8970 0.8970 0.8970 0.8980
3208.675883 0.8990 0.8990 0.8990 0.8995 0.9000
3213.011151 0.9000 0.9000 0.9000 0.9000 0.9000
3217.346419 0.9000 0.9005 0.9010 0.9010 0.9010
3221.681687 0.9010 0.9011 0.9021 0.9029 0.9019
3226.016956 0.9010 0.9010 0.9010 0.9010 0.9012
3230.352224 0.9022 0.9030 0.9030 0.9030 0.9030
3234.687492 0.9030 0.9030 0.9030 0.9030 0.9030
3239.022760 0.9030 0.9030 0.9030 0.9031 0.9036
3243.358028 0.9040 0.9040 0.9040 0.9040 0.9040
3247.693297 0.9040 0.9039 0.9034 0.9028 0.9017
3252.028565 0.9007 0.8997 0.8987 0.8977 0.8969
3256.363833 0.8964 0.8956 0.8941 0.8927 0.8917
3260.699101 0.8905 0.8890 0.8874 0.8854 0.8834
3265.034370 0.8813 0.8787 0.8747 0.8696 0.8626
3269.369638 0.8578 0.8573 0.8570 0.8570 0.8575
3273.704906 0.8590 0.8618 0.8668 0.8711 0.8742
3278.040174 0.8768 0.8788 0.8808 0.8828 0.8846
3282.375443 0.8861 0.8874 0.8884 0.8890 0.8890
3286.710711 0.8894 0.8904 0.8910 0.8910 0.8910
3291.045979 0.8910 0.8912 0.8917 0.8920 0.8920
3295.381247 0.8922 0.8927 0.8935 0.8945 0.8952
3299.716515 0.8958 0.8960 0.8960 0.8960 0.8960
3304.051784 0.8963 0.8968 0.8975 0.8985 0.8990
3308.387052 0.8990 0.8993 0.8998 0.9003 0.9008
3312.722320 0.9010 0.9010 0.9016 0.9026 0.9030
3317.057588 0.9030 0.9030 0.9030 0.9033 0.9038
3321.392857 0.9043 0.9048 0.9050 0.9050 0.9050
3325.728125 0.9050 0.9050 0.9050 0.9056 0.9066
3330.063393 0.9070 0.9070 0.9060 0.9045 0.9040
3334.398661 0.9040 0.9037 0.9032 0.9030 0.9030
3338.733929 0.9030 0.9030 0.9033 0.9039 0.9040
3343.069198 0.9040 0.9044 0.9049 0.9050 0.9050
3347.404466 0.9050 0.9050 0.9058 0.9068 0.9078
3351.739734 0.9088 0.9101 0.9117 0.9120 0.9120
3356.075002 0.9120 0.9120 0.9124 0.9129 0.9138
3360.410271 0.9148 0.9150 0.9150 0.9154 0.9159
3364.745539 0.9168 0.9178 0.9180 0.9180 0.9180
3369.080807 0.9180 0.9184 0.9189 0.9203 0.9218
3373.416075 0.9224 0.9229 0.9234 0.9239 0.9240
3377.751343 0.9240 0.9249 0.9259 0.9251 0.9241
3382.086612 0.9240 0.9240 0.9240 0.9240 0.9240
3386.421880 0.9240 0.9249 0.9259 0.9265 0.9270
3390.757148 0.9270 0.9270 0.9270 0.9270 0.9275
3395.092416 0.9280 0.9280 0.9280 0.9280 0.9280
3399.427685 0.9290 0.9300 0.9305 0.9310 0.9310
3403.762953 0.9310 0.9315 0.9320 0.9320 0.9320
3408.098221 0.9330 0.9340 0.9345 0.9350 0.9350
3412.433489 0.9350 0.9355 0.9360 0.9360 0.9361
3416.768757 0.9371 0.9380 0.9380 0.9380 0.9380
3421.104026 0.9381 0.9386 0.9391 0.9396 0.9400
3425.439294 0.9400 0.9400 0.9400 0.9400 0.9400
3429.774562 0.9401 0.9411 0.9421 0.9426 0.9430
3434.109830 0.9430 0.9430 0.9430 0.9429 0.9424
3438.445099 0.9420 0.9420 0.9422 0.9432 0.9440
3442.780367 0.9440 0.9440 0.9440 0.9440 0.9440
3447.115635 0.9440 0.9440 0.9442 0.9452 0.9460
3451.450903 0.9460 0.9457 0.9447 0.9440 0.9440
3455.786171 0.9440 0.9440 0.9443 0.9453 0.9460
3460.121440 0.9460 0.9462 0.9467 0.9470 0.9470
3464.456708 0.9470 0.9470 0.9470 0.9470 0.9470
3468.791976 0.9470 0.9472 0.9477 0.9480 0.9480
3473.127244 0.9484 0.9494 0.9500 0.9500 0.9500
3477.462513 0.9500 0.9502 0.9507 0.9512 0.9517
3481.797781 0.9520 0.9520 0.9524 0.9534 0.9540
3486.133049 0.9540 0.9540 0.9540 0.9540 0.9540
3490.468317 0.9542 0.9547 0.9550 0.9550 0.9550
3494.803586 0.9550 0.9550 0.9550 0.9548 0.9543
3499.138854 0.9542 0.9547 0.9552 0.9558 0.9565
3503.474122 0.9575 0.9580 0.9580 0.9575 0.9565
3507.809390 0.9565 0.9575 0.9583 0.9588 0.9596
3512.144658 0.9606 0.9610 0.9610 0.9610 0.9610
3516.479927 0.9610 0.9610 0.9610 0.9610 0.9604
3520.815195 0.9594 0.9596 0.9606 0.9613 0.9618
3525.150463 0.9620 0.9620 0.9620 0.9620 0.9620
3529.485731 0.9620 0.9623 0.9628 0.9637 0.9647
3533.821000 0.9650 0.9650 0.9650 0.9650 0.9650
3538.156268 0.9650 0.9650 0.9650 0.9654 0.9659
3542.491536 0.9660 0.9660 0.9660 0.9660 0.9660
3546.826804 0.9660 0.9660 0.9660 0.9660 0.9660
3551.162072 0.9656 0.9651 0.9654 0.9659 0.9660
3555.497341 0.9660 0.9660 0.9660 0.9664 0.9669
3559.832609 0.9682 0.9697 0.9700 0.9700 0.9684
3564.167877 0.9664 0.9656 0.9651 0.9650 0.9650
3568.503145 0.9658 0.9668 0.9683 0.9698 0.9700
3572.838414 0.9700 0.9713 0.9728 0.9734 0.9739
3577.173682 0.9740 0.9740 0.9736 0.9731 0.9721
3581.508950 0.9711 0.9705 0.9700 0.9700 0.9700
3585.844218 0.9695 0.9690 0.9676 0.9661 0.9660
3590.179486 0.9660 0.9665 0.9670 0.9680 0.9690
3594.514755 0.9695 0.9700 0.9705 0.9710 0.9720
3598.850023 0.9730 0.9730 0.9730 0.9735 0.9740
3603.185291 0.9740 0.9740 0.9740 0.9740 0.9740
3607.520559 0.9740 0.9735 0.9730 0.9719 0.9709
3611.855828 0.9699 0.9690 0.9690 0.9689 0.9679
3616.191096 0.9670 0.9670 0.9671 0.9686 0.9700
3620.526364 0.9700 0.9700 0.9700 0.9699 0.9694
3624.861632 0.9689 0.9679 0.9669 0.9659 0.9649
3629.196900 0.9639 0.9631 0.9642 0.9651 0.9656
3633.532169 0.9662 0.9678 0.9691 0.9696 0.9700
3637.867437 0.9700 0.9701 0.9706 0.9710 0.9710
3642.202705 0.9709 0.9704 0.9699 0.9694 0.9690
3646.537973 0.9690 0.9686 0.9671 0.9659 0.9654
3650.873242 0.9651 0.9656 0.9661 0.9666 0.9674
3655.208510 0.9689 0.9700 0.9700 0.9701 0.9707
3659.543778 0.9713 0.9723 0.9732 0.9737 0.9742
3663.879046 0.9747 0.9750 0.9750 0.9748 0.9743
3668.214315 0.9725 0.9680 0.9638 0.9603 0.9573
3672.549583 0.9553 0.9536 0.9526 0.9518 0.9513
3676.884851 0.9512 0.9517 0.9524 0.9534 0.9548
3681.220119 0.9568 0.9582 0.9587 0.9594 0.9604
3685.555387 0.9614 0.9624 0.9634 0.9644 0.9654
3689.890656 0.9664 0.9679 0.9699 0.9715 0.9725
3694.225924 0.9730 0.9730 0.9735 0.9745 0.9755
3698.561192 0.9765 0.9770 0.9770 0.9773 0.9778
3702.896460 0.9780 0.9780 0.9777 0.9772 0.9770
3707.231729 0.9770 0.9765 0.9755 0.9750 0.9750
3711.566997 0.9739 0.9719 0.9710 0.9710 0.9727
3715.902265 0.9757 0.9773 0.9778 0.9780 0.9780
3720.237533 0.9780 0.9780 0.9777 0.9772 0.9770
3724.572801 0.9770 0.9764 0.9754 0.9750 0.9750
3728.908070 0.9750 0.9750 0.9750 0.9750 0.9757
3733.243338 0.9767 0.9763 0.9753 0.9747 0.9742
3737.578606 0.9740 0.9740 0.9737 0.9732 0.9730
3741.913874 0.9730 0.9723 0.9713 0.9710 0.9710
3746.249143 0.9710 0.9710 0.9710 0.9710 0.9717
3750.584411 0.9728 0.9730 0.9730 0.9730 0.9730
3754.919679 0.9738 0.9748 0.9750 0.9750 0.9758
3759.254947 0.9768 0.9774 0.9779 0.9784 0.9789
3763.590215 0.9790 0.9790 0.9790 0.9790 0.9790
3767.925484 0.9790 0.9786 0.9781 0.9776 0.9771
3772.260752 0.9770 0.9770 0.9779 0.9789 0.9790
3776.596020 0.9790 0.9790 0.9790 0.9785 0.9780
3780.931288 0.9785 0.9790 0.9790 0.9790 0.9790
3785.266557 0.9790 0.9799 0.9809 0.9810 0.9810
3789.601825 0.9810 0.9810 0.9810 0.9810 0.9800
3793.937093 0.9790 0.9785 0.9780 0.9785 0.9790
3798.272361 0.9785 0.9780
##END=
