##TITLE=Acetophenone, p-methoxy-
##JCAMP-DX=4.24
$$ By DXEDIT 1.05 (RS McDonald)
##DATA TYPE=INFRARED SPECTRUM
##CLASS=COBLENTZ III
##ORIGIN=DOW CHEMICAL COMPANY
##OWNER=COPYRIGHT (C) 1988 by COBLENTZ SOCIETY INC.
Collection (C) 2018 copyright by the U.S. Secretary of Commerce
on behalf of the United States of America. All rights reserved.
##DATE=1963/04/25
##NAMES=1-(4-methoxyphenyl)ethanone
##CAS REGISTRY NO=100-06-1
##MOLFORM=C9 H10 O2
##SOURCE REFERENCE=COBLENTZ NO. 8646
##$NIST SOURCE=COBLENTZ
##$NIST IMAGE=cob8646
##SPECTROMETER/DATA SYSTEM=DOW KBr FOREPRISM-GRATING
##INSTRUMENT PARAMETERS=BLAZED AT 3.5, 12.0, 20.0 MICRON AND CHANGED AT 5.0, 7.5, 14.9 MICRON
##STATE=SOLUTION (10% CCl4 FOR 3800-1335, 10% CS2 FOR 1335-400 CM^-^1)
$$ SEE SEPCTRUM NO. 3706 FOR "LIQUID (NEAT)" AND SPECTRUM NO. 8647 FOR "2% SOLUTION" STATES
##PATH LENGTH=0.011 CM, 0.011 CM
$$SPECTRAL CONTAMINATION DUE TO CCl4 AROUND 1550, AND AN UNKNOWN AROUND 400 CM^-^1
##SAMPLING PROCEDURE=TRANSMISSION
##RESOLUTION=2
##DATA PROCESSING=DIGITIZED BY COBLENTZ SOCIETY (BATCH I) FROM HARD COPY
##XUNITS=1/CM
##YUNITS=TRANSMITTANCE
##XFACTOR=1
##YFACTOR=1
##DELTAX=1
##FIRSTX=3800
##LASTX=390
##FIRSTY=0.916
##MAXX=3800
##MINX=390
##MAXY=0.921
##MINY=0.008
##NPOINTS=3411
##XYDATA=(X++(Y..Y))
3800.000000 0.9160 0.9160 0.9160 0.9162 0.9169
3795.000000 0.9161 0.9171 0.9170 0.9170 0.9168
3790.000000 0.9168 0.9167 0.9167 0.9166 0.9165
3785.000000 0.9164 0.9156 0.9151 0.9151 0.9159
3780.000000 0.9162 0.9152 0.9160 0.9162 0.9162
3775.000000 0.9149 0.9161 0.9161 0.9161 0.9161
3770.000000 0.9161 0.9160 0.9160 0.9160 0.9160
3765.000000 0.9159 0.9159 0.9159 0.9159 0.9158
3760.000000 0.9164 0.9163 0.9158 0.9157 0.9157
3755.000000 0.9157 0.9158 0.9158 0.9158 0.9158
3750.000000 0.9158 0.9158 0.9158 0.9158 0.9159
3745.000000 0.9159 0.9159 0.9159 0.9159 0.9159
3740.000000 0.9160 0.9163 0.9172 0.9172 0.9172
3735.000000 0.9172 0.9166 0.9159 0.9166 0.9172
3730.000000 0.9172 0.9172 0.9172 0.9172 0.9172
3725.000000 0.9172 0.9172 0.9172 0.9172 0.9173
3720.000000 0.9174 0.9162 0.9164 0.9177 0.9178
3715.000000 0.9179 0.9180 0.9181 0.9185 0.9190
3710.000000 0.9185 0.9191 0.9190 0.9187 0.9185
3705.000000 0.9180 0.9175 0.9170 0.9164 0.9159
3700.000000 0.9154 0.9148 0.9142 0.9136 0.9119
3695.000000 0.9111 0.9105 0.9099 0.9092 0.9087
3690.000000 0.9082 0.9078 0.9075 0.9072 0.9062
3685.000000 0.9062 0.9062 0.9062 0.9062 0.9062
3680.000000 0.9062 0.9066 0.9070 0.9075 0.9096
3675.000000 0.9084 0.9089 0.9093 0.9097 0.9102
3670.000000 0.9116 0.9109 0.9111 0.9114 0.9117
3665.000000 0.9119 0.9122 0.9126 0.9130 0.9133
3660.000000 0.9136 0.9139 0.9142 0.9145 0.9148
3655.000000 0.9150 0.9153 0.9156 0.9160 0.9160
3650.000000 0.9161 0.9161 0.9162 0.9162 0.9162
3645.000000 0.9162 0.9163 0.9163 0.9164 0.9164
3640.000000 0.9165 0.9165 0.9166 0.9166 0.9166
3635.000000 0.9166 0.9167 0.9169 0.9180 0.9180
3630.000000 0.9177 0.9169 0.9174 0.9182 0.9182
3625.000000 0.9182 0.9183 0.9183 0.9183 0.9183
3620.000000 0.9185 0.9185 0.9185 0.9185 0.9185
3615.000000 0.9185 0.9185 0.9183 0.9183 0.9183
3610.000000 0.9183 0.9182 0.9172 0.9183 0.9183
3605.000000 0.9183 0.9183 0.9178 0.9174 0.9182
3600.000000 0.9177 0.9168 0.9174 0.9180 0.9180
3595.000000 0.9179 0.9178 0.9176 0.9175 0.9173
3590.000000 0.9172 0.9170 0.9169 0.9168 0.9167
3585.000000 0.9166 0.9165 0.9163 0.9162 0.9161
3580.000000 0.9160 0.9159 0.9158 0.9157 0.9153
3575.000000 0.9147 0.9156 0.9155 0.9149 0.9141
3570.000000 0.9141 0.9140 0.9140 0.9139 0.9139
3565.000000 0.9138 0.9138 0.9137 0.9137 0.9136
3560.000000 0.9136 0.9136 0.9136 0.9135 0.9135
3555.000000 0.9145 0.9133 0.9134 0.9145 0.9145
3550.000000 0.9142 0.9136 0.9146 0.9146 0.9147
3545.000000 0.9141 0.9140 0.9147 0.9148 0.9148
3540.000000 0.9141 0.9145 0.9141 0.9147 0.9150
3535.000000 0.9150 0.9151 0.9151 0.9152 0.9152
3530.000000 0.9152 0.9139 0.9140 0.9140 0.9141
3525.000000 0.9141 0.9142 0.9142 0.9143 0.9143
3520.000000 0.9144 0.9144 0.9146 0.9146 0.9147
3515.000000 0.9147 0.9148 0.9148 0.9149 0.9149
3510.000000 0.9150 0.9150 0.9151 0.9151 0.9152
3505.000000 0.9152 0.9153 0.9153 0.9154 0.9154
3500.000000 0.9155 0.9155 0.9156 0.9157 0.9158
3495.000000 0.9158 0.9159 0.9159 0.9160 0.9161
3490.000000 0.9162 0.9162 0.9163 0.9164 0.9165
3485.000000 0.9165 0.9166 0.9166 0.9167 0.9168
3480.000000 0.9169 0.9169 0.9169 0.9169 0.9171
3475.000000 0.9172 0.9172 0.9172 0.9174 0.9174
3470.000000 0.9175 0.9176 0.9176 0.9176 0.9178
3465.000000 0.9179 0.9179 0.9181 0.9182 0.9183
3460.000000 0.9184 0.9185 0.9186 0.9186 0.9187
3455.000000 0.9188 0.9189 0.9190 0.9192 0.9193
3450.000000 0.9194 0.9194 0.9195 0.9196 0.9197
3445.000000 0.9198 0.9199 0.9200 0.9201 0.9202
3440.000000 0.9203 0.9203 0.9204 0.9205 0.9206
3435.000000 0.9206 0.9207 0.9207 0.9207 0.9207
3430.000000 0.9207 0.9207 0.9207 0.9206 0.9206
3425.000000 0.9195 0.9204 0.9206 0.9206 0.9206
3420.000000 0.9206 0.9206 0.9206 0.9206 0.9206
3415.000000 0.9206 0.9206 0.9206 0.9206 0.9206
3410.000000 0.9206 0.9206 0.9206 0.9210 0.9208
3405.000000 0.9200 0.9199 0.9198 0.9197 0.9195
3400.000000 0.9194 0.9192 0.9191 0.9189 0.9188
3395.000000 0.9186 0.9184 0.9178 0.9175 0.9171
3390.000000 0.9168 0.9164 0.9160 0.9155 0.9152
3385.000000 0.9147 0.9143 0.9139 0.9135 0.9129
3380.000000 0.9125 0.9121 0.9116 0.9112 0.9107
3375.000000 0.9099 0.9091 0.9082 0.9074 0.9064
3370.000000 0.9066 0.9039 0.9021 0.9002 0.8985
3365.000000 0.8962 0.8939 0.8915 0.8894 0.8868
3360.000000 0.8843 0.8816 0.8790 0.8754 0.8717
3355.000000 0.8679 0.8640 0.8618 0.8595 0.8575
3350.000000 0.8508 0.8544 0.8534 0.8539 0.8546
3345.000000 0.8560 0.8569 0.8577 0.8606 0.8619
3340.000000 0.8642 0.8666 0.8703 0.8728 0.8751
3335.000000 0.8772 0.8803 0.8830 0.8858 0.8875
3330.000000 0.8892 0.8907 0.8924 0.8938 0.8954
3325.000000 0.8965 0.8978 0.8990 0.9003 0.9013
3320.000000 0.9025 0.9033 0.9042 0.9052 0.9061
3315.000000 0.9069 0.9078 0.9083 0.9100 0.9106
3310.000000 0.9112 0.9117 0.9120 0.9113 0.9125
3305.000000 0.9125 0.9121 0.9112 0.9111 0.9109
3300.000000 0.9107 0.9104 0.9102 0.9100 0.9098
3295.000000 0.9096 0.9094 0.9093 0.9092 0.9091
3290.000000 0.9090 0.9089 0.9089 0.9088 0.9087
3285.000000 0.9086 0.9086 0.9097 0.9094 0.9082
3280.000000 0.9085 0.9094 0.9090 0.9081 0.9086
3275.000000 0.9094 0.9094 0.9094 0.9094 0.9093
3270.000000 0.9093 0.9093 0.9093 0.9093 0.9093
3265.000000 0.9093 0.9093 0.9093 0.9094 0.9094
3260.000000 0.9095 0.9095 0.9096 0.9096 0.9086
3255.000000 0.9098 0.9099 0.9099 0.9100 0.9100
3250.000000 0.9100 0.9099 0.9098 0.9097 0.9097
3245.000000 0.9089 0.9088 0.9093 0.9093 0.9092
3240.000000 0.9092 0.9091 0.9090 0.9089 0.9089
3235.000000 0.9088 0.9088 0.9085 0.9084 0.9082
3230.000000 0.9080 0.9078 0.9074 0.9072 0.9059
3225.000000 0.9059 0.9065 0.9060 0.9056 0.9050
3220.000000 0.9045 0.9040 0.9035 0.9029 0.9022
3215.000000 0.9016 0.9010 0.9002 0.8996 0.8990
3210.000000 0.8984 0.8977 0.8960 0.8956 0.8953
3205.000000 0.8950 0.8946 0.8943 0.8940 0.8937
3200.000000 0.8936 0.8941 0.8930 0.8935 0.8928
3195.000000 0.8936 0.8936 0.8935 0.8935 0.8935
3190.000000 0.8928 0.8928 0.8933 0.8933 0.8925
3185.000000 0.8922 0.8924 0.8925 0.8927 0.8930
3180.000000 0.8932 0.8933 0.8935 0.8936 0.8938
3175.000000 0.8940 0.8942 0.8944 0.8946 0.8947
3170.000000 0.8949 0.8949 0.8950 0.8942 0.8935
3165.000000 0.8924 0.8918 0.8915 0.8898 0.8890
3160.000000 0.8885 0.8878 0.8862 0.8868 0.8864
3155.000000 0.8861 0.8873 0.8876 0.8876 0.8876
3150.000000 0.8878 0.8879 0.8868 0.8868 0.8869
3145.000000 0.8870 0.8871 0.8871 0.8872 0.8876
3140.000000 0.8884 0.8883 0.8881 0.8879 0.8878
3135.000000 0.8870 0.8864 0.8854 0.8844 0.8830
3130.000000 0.8816 0.8803 0.8789 0.8770 0.8752
3125.000000 0.8730 0.8709 0.8698 0.8686 0.8678
3120.000000 0.8669 0.8662 0.8655 0.8647 0.8640
3115.000000 0.8633 0.8627 0.8620 0.8614 0.8589
3110.000000 0.8565 0.8531 0.8496 0.8475 0.8453
3105.000000 0.8441 0.8430 0.8423 0.8415 0.8412
3100.000000 0.8421 0.8420 0.8419 0.8427 0.8438
3095.000000 0.8447 0.8444 0.8440 0.8435 0.8410
3090.000000 0.8391 0.8349 0.8309 0.8266 0.8225
3085.000000 0.8167 0.8113 0.8057 0.7999 0.7953
3080.000000 0.7906 0.7890 0.7880 0.7883 0.7879
3075.000000 0.7876 0.7881 0.7880 0.7868 0.7863
3070.000000 0.7859 0.7845 0.7850 0.7833 0.7826
3065.000000 0.7822 0.7816 0.7806 0.7805 0.7804
3060.000000 0.7807 0.7825 0.7837 0.7847 0.7855
3055.000000 0.7876 0.7892 0.7901 0.7915 0.7934
3050.000000 0.7950 0.7964 0.7976 0.7987 0.8006
3045.000000 0.8012 0.8028 0.8044 0.8062 0.8076
3040.000000 0.8091 0.8092 0.8092 0.8090 0.8077
3035.000000 0.8063 0.8056 0.8032 0.8013 0.7992
3030.000000 0.7965 0.7882 0.7804 0.7622 0.7440
3025.000000 0.7262 0.7085 0.6907 0.6730 0.6553
3020.000000 0.6376 0.6205 0.6029 0.5851 0.5667
3015.000000 0.5489 0.5311 0.5187 0.5068 0.5059
3010.000000 0.5054 0.5135 0.5214 0.5377 0.5550
3005.000000 0.5725 0.5895 0.6061 0.6228 0.6398
3000.000000 0.6572 0.6741 0.6908 0.7078 0.7248
2995.000000 0.7292 0.7336 0.7355 0.7385 0.7376
2990.000000 0.7382 0.7381 0.7379 0.7361 0.7342
2985.000000 0.7310 0.7278 0.7163 0.7047 0.6879
2980.000000 0.6714 0.6553 0.6381 0.6211 0.6050
2975.000000 0.5881 0.5714 0.5546 0.5379 0.5210
2970.000000 0.5042 0.4878 0.4704 0.4707 0.4701
2965.000000 0.4746 0.4792 0.4908 0.5024 0.5139
2960.000000 0.5256 0.5380 0.5497 0.5606 0.5722
2955.000000 0.5838 0.5956 0.6078 0.6282 0.6251
2950.000000 0.6308 0.6207 0.6108 0.5963 0.5817
2945.000000 0.5676 0.5539 0.5395 0.5103 0.5162
2940.000000 0.5075 0.5120 0.5163 0.5303 0.5443
2935.000000 0.5577 0.5716 0.5857 0.5997 0.6137
2930.000000 0.6278 0.6418 0.6559 0.6632 0.6704
2925.000000 0.6704 0.6704 0.6658 0.6619 0.6577
2920.000000 0.6540 0.6506 0.6470 0.6434 0.6404
2915.000000 0.6394 0.6390 0.6408 0.6428 0.6474
2910.000000 0.6520 0.6544 0.6576 0.6592 0.6599
2905.000000 0.6626 0.6653 0.6746 0.6840 0.6933
2900.000000 0.7026 0.7120 0.7214 0.7307 0.7401
2895.000000 0.7493 0.7587 0.7680 0.7775 0.7868
2890.000000 0.7962 0.8055 0.8149 0.8211 0.8273
2885.000000 0.8290 0.8305 0.8321 0.8337 0.8350
2880.000000 0.8365 0.8376 0.8387 0.8388 0.8411
2875.000000 0.8417 0.8422 0.8428 0.8433 0.8436
2870.000000 0.8437 0.8439 0.8439 0.8439 0.8437
2865.000000 0.8436 0.8433 0.8422 0.8413 0.8397
2860.000000 0.8382 0.8358 0.8334 0.8303 0.8272
2855.000000 0.8218 0.8154 0.7986 0.7819 0.7324
2850.000000 0.6830 0.6334 0.5840 0.5345 0.4857
2845.000000 0.4416 0.3975 0.3985 0.3911 0.4321
2840.000000 0.4637 0.4953 0.5275 0.5593 0.5907
2835.000000 0.6220 0.6539 0.6855 0.7173 0.7427
2830.000000 0.7680 0.7796 0.7897 0.8024 0.8145
2825.000000 0.8217 0.8302 0.8375 0.8431 0.8473
2820.000000 0.8504 0.8530 0.8552 0.8576 0.8602
2815.000000 0.8627 0.8653 0.8676 0.8700 0.8719
2810.000000 0.8739 0.8751 0.8772 0.8786 0.8796
2805.000000 0.8806 0.8816 0.8825 0.8833 0.8840
2800.000000 0.8849 0.8855 0.8861 0.8864 0.8868
2795.000000 0.8872 0.8876 0.8877 0.8877 0.8869
2790.000000 0.8877 0.8869 0.8870 0.8861 0.8854
2785.000000 0.8849 0.8845 0.8829 0.8813 0.8812
2780.000000 0.8809 0.8802 0.8796 0.8791 0.8786
2775.000000 0.8783 0.8779 0.8776 0.8777 0.8777
2770.000000 0.8780 0.8785 0.8790 0.8793 0.8798
2765.000000 0.8802 0.8806 0.8812 0.8818 0.8825
2760.000000 0.8834 0.8842 0.8850 0.8859 0.8867
2755.000000 0.8874 0.8883 0.8891 0.8899 0.8908
2750.000000 0.8916 0.8924 0.8933 0.8940 0.8948
2745.000000 0.8957 0.8965 0.8969 0.8973 0.8977
2740.000000 0.8983 0.8987 0.8992 0.8996 0.9000
2735.000000 0.9005 0.9009 0.9009 0.9011 0.9011
2730.000000 0.9011 0.9011 0.9012 0.9012 0.9012
2725.000000 0.9012 0.9014 0.9014 0.9015 0.9015
2720.000000 0.9016 0.9016 0.9016 0.9015 0.9015
2715.000000 0.9014 0.9014 0.9012 0.9012 0.9012
2710.000000 0.9012 0.9012 0.9012 0.9011 0.9011
2705.000000 0.9008 0.9008 0.9008 0.9008 0.9007
2700.000000 0.9006 0.9004 0.9004 0.9001 0.9001
2695.000000 0.9000 0.8999 0.8997 0.8996 0.8995
2690.000000 0.8994 0.8993 0.8991 0.8990 0.8989
2685.000000 0.8988 0.8987 0.8986 0.8985 0.8984
2680.000000 0.8983 0.8982 0.8982 0.8982 0.8982
2675.000000 0.8982 0.8984 0.8988 0.8993 0.8998
2670.000000 0.9003 0.9003 0.9004 0.9004 0.9006
2665.000000 0.9006 0.9006 0.9004 0.9004 0.9003
2660.000000 0.9003 0.9001 0.9000 0.9007 0.9003
2655.000000 0.8999 0.8996 0.8982 0.8968 0.8947
2650.000000 0.8922 0.8899 0.8882 0.8870 0.8854
2645.000000 0.8832 0.8812 0.8798 0.8791 0.8772
2640.000000 0.8754 0.8738 0.8723 0.8705 0.8687
2635.000000 0.8677 0.8677 0.8665 0.8653 0.8634
2630.000000 0.8627 0.8631 0.8626 0.8619 0.8618
2625.000000 0.8618 0.8623 0.8631 0.8639 0.8645
2620.000000 0.8653 0.8660 0.8667 0.8674 0.8681
2615.000000 0.8687 0.8693 0.8699 0.8706 0.8709
2610.000000 0.8713 0.8716 0.8720 0.8724 0.8727
2605.000000 0.8730 0.8733 0.8736 0.8739 0.8741
2600.000000 0.8744 0.8745 0.8748 0.8749 0.8751
2595.000000 0.8751 0.8751 0.8749 0.8748 0.8729
2590.000000 0.8709 0.8685 0.8660 0.8632 0.8606
2585.000000 0.8578 0.8550 0.8523 0.8495 0.8471
2580.000000 0.8447 0.8426 0.8404 0.8384 0.8367
2575.000000 0.8350 0.8333 0.8321 0.8281 0.8303
2570.000000 0.8299 0.8295 0.8292 0.8292 0.8292
2565.000000 0.8300 0.8307 0.8326 0.8347 0.8373
2560.000000 0.8399 0.8429 0.8460 0.8492 0.8525
2555.000000 0.8565 0.8604 0.8629 0.8653 0.8660
2550.000000 0.8668 0.8671 0.8674 0.8676 0.8679
2545.000000 0.8681 0.8684 0.8687 0.8692 0.8697
2540.000000 0.8703 0.8708 0.8714 0.8722 0.8729
2535.000000 0.8735 0.8743 0.8750 0.8760 0.8771
2530.000000 0.8781 0.8791 0.8801 0.8810 0.8820
2525.000000 0.8815 0.8809 0.8799 0.8789 0.8778
2520.000000 0.8769 0.8759 0.8750 0.8745 0.8738
2515.000000 0.8733 0.8734 0.8734 0.8739 0.8746
2510.000000 0.8752 0.8759 0.8766 0.8774 0.8781
2505.000000 0.8788 0.8797 0.8804 0.8811 0.8819
2500.000000 0.8826 0.8833 0.8841 0.8847 0.8853
2495.000000 0.8859 0.8867 0.8873 0.8880 0.8886
2490.000000 0.8893 0.8899 0.8906 0.8912 0.8917
2485.000000 0.8923 0.8929 0.8934 0.8940 0.8953
2480.000000 0.8963 0.8969 0.8974 0.8978 0.8985
2475.000000 0.8990 0.8994 0.8997 0.9001 0.9004
2470.000000 0.9008 0.9011 0.9016 0.9019 0.9023
2465.000000 0.9026 0.9029 0.9030 0.9033 0.9036
2460.000000 0.9040 0.9042 0.9038 0.9038 0.9037
2455.000000 0.9030 0.9030 0.9035 0.9036 0.9033
2450.000000 0.9021 0.9020 0.9016 0.9006 0.8995
2445.000000 0.8985 0.8976 0.8964 0.8954 0.8943
2440.000000 0.8933 0.8921 0.8911 0.8899 0.8889
2435.000000 0.8876 0.8864 0.8853 0.8841 0.8831
2430.000000 0.8820 0.8816 0.8816 0.8816 0.8818
2425.000000 0.8819 0.8820 0.8823 0.8829 0.8834
2420.000000 0.8840 0.8845 0.8852 0.8854 0.8857
2415.000000 0.8859 0.8861 0.8861 0.8861 0.8861
2410.000000 0.8859 0.8859 0.8864 0.8860 0.8871
2405.000000 0.8873 0.8875 0.8879 0.8885 0.8890
2400.000000 0.8896 0.8901 0.8908 0.8912 0.8916
2395.000000 0.8920 0.8925 0.8930 0.8933 0.8936
2390.000000 0.8939 0.8952 0.8952 0.8952 0.8954
2385.000000 0.8957 0.8969 0.8969 0.8973 0.8982
2380.000000 0.8982 0.8987 0.8994 0.9000 0.9006
2375.000000 0.9006 0.9013 0.9019 0.9020 0.9020
2370.000000 0.9021 0.9012 0.9009 0.9009 0.9008
2365.000000 0.9007 0.9007 0.9006 0.9005 0.9004
2360.000000 0.9013 0.9012 0.9023 0.9014 0.9017
2355.000000 0.9013 0.9002 0.8989 0.8976 0.8962
2350.000000 0.8945 0.8936 0.8935 0.8939 0.8937
2345.000000 0.8936 0.8927 0.8924 0.8927 0.8930
2340.000000 0.8934 0.8926 0.8942 0.8949 0.8944
2335.000000 0.8950 0.8969 0.8973 0.8973 0.8975
2330.000000 0.8981 0.8972 0.8964 0.8956 0.8954
2325.000000 0.8940 0.8930 0.8917 0.8905 0.8894
2320.000000 0.8882 0.8873 0.8866 0.8858 0.8852
2315.000000 0.8851 0.8850 0.8850 0.8849 0.8850
2310.000000 0.8852 0.8853 0.8855 0.8858 0.8861
2305.000000 0.8863 0.8869 0.8871 0.8873 0.8874
2300.000000 0.8874 0.8878 0.8886 0.8883 0.8882
2295.000000 0.8882 0.8882 0.8888 0.8895 0.8900
2290.000000 0.8906 0.8913 0.8910 0.8914 0.8922
2285.000000 0.8930 0.8939 0.8936 0.8944 0.8952
2280.000000 0.8961 0.8969 0.8966 0.8975 0.8981
2275.000000 0.8978 0.8986 0.8991 0.8992 0.8991
2270.000000 0.8998 0.8998 0.8997 0.9002 0.9009
2265.000000 0.9007 0.9009 0.9015 0.9022 0.9020
2260.000000 0.9025 0.9033 0.9031 0.9036 0.9043
2255.000000 0.9050 0.9044 0.9049 0.9054 0.9058
2250.000000 0.9052 0.9056 0.9061 0.9065 0.9071
2245.000000 0.9067 0.9059 0.9059 0.9059 0.9059
2240.000000 0.9059 0.9058 0.9055 0.9055 0.9055
2235.000000 0.9046 0.9040 0.9040 0.9040 0.9039
2230.000000 0.9038 0.9038 0.9038 0.9038 0.9039
2225.000000 0.9040 0.9040 0.9042 0.9041 0.9030
2220.000000 0.9034 0.9036 0.9039 0.9041 0.9044
2215.000000 0.9046 0.9048 0.9048 0.9049 0.9049
2210.000000 0.9050 0.9050 0.9051 0.9051 0.9052
2205.000000 0.9053 0.9054 0.9050 0.9047 0.9041
2200.000000 0.9034 0.9022 0.9009 0.8996 0.8981
2195.000000 0.8955 0.8950 0.8931 0.8906 0.8893
2190.000000 0.8880 0.8875 0.8874 0.8874 0.8879
2185.000000 0.8889 0.8908 0.8915 0.8919 0.8929
2180.000000 0.8938 0.8948 0.8967 0.8978 0.8987
2175.000000 0.8995 0.9004 0.9011 0.9019 0.9023
2170.000000 0.9026 0.9027 0.9020 0.9023 0.9026
2165.000000 0.9029 0.9032 0.9035 0.9038 0.9039
2160.000000 0.9040 0.9041 0.9044 0.9045 0.9047
2155.000000 0.9048 0.9049 0.9050 0.9052 0.9053
2150.000000 0.9053 0.9054 0.9054 0.9053 0.9052
2145.000000 0.9051 0.9051 0.9050 0.9049 0.9046
2140.000000 0.9044 0.9041 0.9038 0.9035 0.9032
2135.000000 0.9029 0.9026 0.9022 0.9019 0.9017
2130.000000 0.9014 0.9013 0.9010 0.9009 0.9007
2125.000000 0.9006 0.9003 0.9001 0.8990 0.8997
2120.000000 0.8997 0.8996 0.8996 0.8996 0.8996
2115.000000 0.8996 0.8996 0.8996 0.8996 0.8995
2110.000000 0.8995 0.8994 0.8994 0.8993 0.8993
2105.000000 0.8990 0.8986 0.8983 0.8980 0.8976
2100.000000 0.8973 0.8969 0.8956 0.8947 0.8952
2095.000000 0.8948 0.8932 0.8935 0.8931 0.8923
2090.000000 0.8915 0.8907 0.8900 0.8891 0.8884
2085.000000 0.8874 0.8865 0.8852 0.8843 0.8810
2080.000000 0.8776 0.8737 0.8700 0.8635 0.8571
2075.000000 0.8506 0.8442 0.8376 0.8313 0.8248
2070.000000 0.8185 0.8122 0.8005 0.8047 0.8032
2065.000000 0.8028 0.8027 0.8027 0.8031 0.8042
2060.000000 0.8055 0.8079 0.8104 0.8133 0.8167
2055.000000 0.8203 0.8240 0.8275 0.8309 0.8345
2050.000000 0.8390 0.8419 0.8450 0.8499 0.8548
2045.000000 0.8573 0.8598 0.8612 0.8625 0.8635
2040.000000 0.8643 0.8657 0.8670 0.8703 0.8738
2035.000000 0.8826 0.8914 0.8973 0.9033 0.9024
2030.000000 0.9016 0.8993 0.8975 0.8956 0.8925
2025.000000 0.8909 0.8896 0.8894 0.8893 0.8891
2020.000000 0.8890 0.8889 0.8889 0.8888 0.8888
2015.000000 0.8887 0.8887 0.8886 0.8886 0.8885
2010.000000 0.8885 0.8885 0.8886 0.8886 0.8887
2005.000000 0.8887 0.8888 0.8889 0.8890 0.8894
2000.000000 0.8887 0.8881 0.8874 0.8868 0.8861
1995.000000 0.8855 0.8848 0.8842 0.8835 0.8829
1990.000000 0.8822 0.8816 0.8809 0.8803 0.8796
1985.000000 0.8789 0.8783 0.8776 0.8770 0.8763
1980.000000 0.8757 0.8750 0.8744 0.8737 0.8731
1975.000000 0.8724 0.8718 0.8711 0.8705 0.8698
1970.000000 0.8692 0.8685 0.8678 0.8672 0.8665
1965.000000 0.8659 0.8652 0.8646 0.8639 0.8633
1960.000000 0.8626 0.8620 0.8613 0.8607 0.8600
1955.000000 0.8594 0.8587 0.8581 0.8574 0.8524
1950.000000 0.8497 0.8471 0.8462 0.8455 0.8415
1945.000000 0.8452 0.8458 0.8466 0.8479 0.8517
1940.000000 0.8555 0.8590 0.8620 0.8650 0.8680
1935.000000 0.8711 0.8741 0.8770 0.8794 0.8811
1930.000000 0.8825 0.8831 0.8837 0.8845 0.8851
1925.000000 0.8857 0.8861 0.8863 0.8867 0.8898
1920.000000 0.8874 0.8874 0.8865 0.8844 0.8818
1915.000000 0.8764 0.8699 0.8606 0.8544 0.8488
1910.000000 0.8382 0.8375 0.8376 0.8386 0.8407
1905.000000 0.8480 0.8544 0.8602 0.8660 0.8712
1900.000000 0.8756 0.8800 0.8826 0.8845 0.8851
1895.000000 0.8856 0.8862 0.8864 0.8866 0.8863
1890.000000 0.8857 0.8858 0.8858 0.8859 0.8860
1885.000000 0.8860 0.8868 0.8874 0.8875 0.8875
1880.000000 0.8875 0.8873 0.8870 0.8867 0.8862
1875.000000 0.8864 0.8855 0.8835 0.8816 0.8803
1870.000000 0.8792 0.8781 0.8782 0.8795 0.8810
1865.000000 0.8824 0.8838 0.8852 0.8868 0.8883
1860.000000 0.8897 0.8914 0.8927 0.8945 0.8954
1855.000000 0.8961 0.8972 0.8983 0.8991 0.9002
1850.000000 0.9013 0.9022 0.9032 0.9033 0.9035
1845.000000 0.9036 0.9037 0.9036 0.9033 0.9031
1840.000000 0.9029 0.9026 0.9023 0.9019 0.9009
1835.000000 0.8995 0.8989 0.8985 0.8979 0.8973
1830.000000 0.8967 0.8962 0.8956 0.8950 0.8945
1825.000000 0.8939 0.8934 0.8926 0.8919 0.8912
1820.000000 0.8905 0.8908 0.8900 0.8892 0.8883
1815.000000 0.8875 0.8875 0.8875 0.8861 0.8861
1810.000000 0.8862 0.8860 0.8862 0.8872 0.8881
1805.000000 0.8892 0.8894 0.8900 0.8909 0.8919
1800.000000 0.8930 0.8939 0.8949 0.8959 0.8968
1795.000000 0.8969 0.8971 0.8966 0.8949 0.8929
1790.000000 0.8908 0.8889 0.8869 0.8850 0.8831
1785.000000 0.8807 0.8784 0.8760 0.8736 0.8691
1780.000000 0.8660 0.8628 0.8600 0.8583 0.8567
1775.000000 0.8557 0.8551 0.8545 0.8544 0.8550
1770.000000 0.8561 0.8571 0.8583 0.8596 0.8610
1765.000000 0.8622 0.8631 0.8640 0.8641 0.8642
1760.000000 0.8633 0.8629 0.8631 0.8622 0.8611
1755.000000 0.8599 0.8587 0.8574 0.8563 0.8557
1750.000000 0.8552 0.8547 0.8543 0.8541 0.8538
1745.000000 0.8532 0.8523 0.8513 0.8503 0.8495
1740.000000 0.8484 0.8460 0.8434 0.8396 0.8352
1735.000000 0.8327 0.8307 0.8296 0.8286 0.8278
1730.000000 0.8274 0.8271 0.8267 0.8262 0.8257
1725.000000 0.8250 0.8237 0.8213 0.8186 0.8154
1720.000000 0.8118 0.8082 0.8027 0.7974 0.7921
1715.000000 0.7862 0.7752 0.7642 0.7536 0.7430
1710.000000 0.7311 0.7184 0.7053 0.6922 0.6777
1705.000000 0.6567 0.6451 0.6340 0.6167 0.5975
1700.000000 0.5714 0.5023 0.4839 0.4570 0.3986
1695.000000 0.3504 0.2847 0.2191 0.1534 0.0878
1690.000000 0.0267 0.0159 0.0133 0.0120 0.0107
1685.000000 0.0102 0.0084 0.0096 0.0096 0.0097
1680.000000 0.0101 0.0106 0.0113 0.0155 0.0240
1675.000000 0.0511 0.0812 0.1000 0.1152 0.1525
1670.000000 0.2050 0.2577 0.3104 0.3629 0.4156
1665.000000 0.4682 0.5208 0.5735 0.6261 0.6513
1660.000000 0.6609 0.6659 0.6701 0.6733 0.6755
1655.000000 0.6755 0.6773 0.6765 0.6723 0.6630
1650.000000 0.6524 0.6503 0.6495 0.6487 0.6488
1645.000000 0.6507 0.6540 0.6577 0.6620 0.6658
1640.000000 0.6678 0.6678 0.6697 0.6666 0.6558
1635.000000 0.6498 0.6442 0.6377 0.6297 0.6176
1630.000000 0.6045 0.5936 0.5703 0.5491 0.4918
1625.000000 0.4506 0.4283 0.3926 0.3652 0.3116
1620.000000 0.2577 0.2041 0.1502 0.0961 0.0881
1615.000000 0.0793 0.0620 0.0305 0.0214 0.0140
1610.000000 0.0114 0.0105 0.0100 0.0080 0.0097
1605.000000 0.0100 0.0103 0.0106 0.0119 0.0136
1600.000000 0.0160 0.0202 0.0262 0.0392 0.0513
1595.000000 0.0597 0.0683 0.0819 0.1023 0.1299
1590.000000 0.1577 0.1861 0.2260 0.2260 0.2152
1585.000000 0.1795 0.1436 0.1074 0.0705 0.0503
1580.000000 0.0499 0.0894 0.1323 0.1755 0.2188
1575.000000 0.2624 0.3067 0.3511 0.3954 0.4414
1570.000000 0.4867 0.5332 0.5556 0.5667 0.5751
1565.000000 0.5839 0.5930 0.6009 0.6079 0.6164
1560.000000 0.6266 0.6369 0.6462 0.6541 0.6626
1555.000000 0.6730 0.6814 0.6892 0.6980 0.7059
1550.000000 0.7130 0.7162 0.7175 0.7184 0.7195
1545.000000 0.7190 0.7179 0.7175 0.7164 0.7134
1540.000000 0.7113 0.7082 0.7050 0.7026 0.7037
1535.000000 0.7070 0.7093 0.7116 0.7117 0.7120
1530.000000 0.7109 0.7099 0.7064 0.7035 0.6976
1525.000000 0.6908 0.6734 0.6431 0.5781 0.5447
1520.000000 0.5189 0.4620 0.3572 0.2539 0.1516
1515.000000 0.0501 0.0217 0.0216 0.0888 0.1654
1510.000000 0.2411 0.3162 0.3901 0.4277 0.4637
1505.000000 0.4992 0.5348 0.5698 0.6042 0.6385
1500.000000 0.6732 0.7075 0.7164 0.7208 0.7283
1495.000000 0.7318 0.7321 0.7324 0.7316 0.7305
1490.000000 0.7292 0.7287 0.7289 0.7295 0.7310
1485.000000 0.7317 0.7309 0.7313 0.7355 0.7343
1480.000000 0.7271 0.7120 0.6569 0.6338 0.5903
1475.000000 0.5670 0.5191 0.4604 0.4016 0.3428
1470.000000 0.2802 0.2825 0.2994 0.3182 0.3367
1465.000000 0.3644 0.3603 0.3458 0.3308 0.3224
1460.000000 0.3232 0.3573 0.3911 0.4252 0.4595
1455.000000 0.4934 0.5271 0.5614 0.5764 0.5490
1450.000000 0.4982 0.4475 0.3924 0.3942 0.4102
1445.000000 0.4263 0.4424 0.4587 0.4747 0.4775
1440.000000 0.4735 0.4563 0.4392 0.4221 0.4048
1435.000000 0.3879 0.3708 0.3619 0.3617 0.3659
1430.000000 0.3702 0.3745 0.3781 0.3790 0.3528
1425.000000 0.3200 0.2870 0.2541 0.2214 0.1820
1420.000000 0.1850 0.1978 0.2412 0.2848 0.3279
1415.000000 0.3712 0.4147 0.4581 0.5055 0.5947
1410.000000 0.6288 0.6525 0.6685 0.6818 0.6926
1405.000000 0.7004 0.7084 0.7162 0.7239 0.7312
1400.000000 0.7385 0.7459 0.7519 0.7579 0.7633
1395.000000 0.7681 0.7730 0.7761 0.7786 0.7802
1390.000000 0.7870 0.7840 0.7848 0.7864 0.7875
1385.000000 0.7881 0.7847 0.7772 0.7638 0.7481
1380.000000 0.7269 0.7062 0.6872 0.6711 0.6558
1375.000000 0.6282 0.5966 0.5753 0.5558 0.5368
1370.000000 0.4215 0.3095 0.2979 0.2888 0.1780
1365.000000 0.1465 0.1149 0.0833 0.0517 0.0397
1360.000000 0.0404 0.0404 0.0462 0.0746 0.1140
1355.000000 0.1535 0.1931 0.2326 0.2721 0.3117
1350.000000 0.3511 0.3907 0.4246 0.4605 0.5102
1345.000000 0.5600 0.6102 0.6350 0.6504 0.6662
1340.000000 0.6750 0.6813 0.6904 0.6918 0.6925
1335.000000 0.6926 0.6925 0.6912 0.6884 0.6797
1330.000000 0.6585 0.6387 0.6162 0.4692 0.3497
1325.000000 0.2566 0.2375 0.2232 0.1992 0.1941
1320.000000 0.1956 0.2004 0.2150 0.2298 0.2445
1315.000000 0.2569 0.2592 0.2512 0.2334 0.2156
1310.000000 0.1978 0.1890 0.1889 0.1888 0.2056
1305.000000 0.2309 0.2558 0.2811 0.3064 0.3315
1300.000000 0.3568 0.3821 0.4074 0.4293 0.4306
1295.000000 0.4293 0.4292 0.4292 0.4294 0.4297
1290.000000 0.4300 0.4310 0.4285 0.4138 0.3990
1285.000000 0.3842 0.3696 0.3547 0.3400 0.2491
1280.000000 0.2131 0.1771 0.1411 0.1050 0.0691
1275.000000 0.0329 0.0191 0.0152 0.0153 0.0153
1270.000000 0.0166 0.0183 0.0195 0.0206 0.0180
1265.000000 0.0151 0.0133 0.0122 0.0118 0.0114
1260.000000 0.0123 0.0107 0.0104 0.0102 0.0100
1255.000000 0.0100 0.0100 0.0100 0.0104 0.0108
1250.000000 0.0116 0.0141 0.0197 0.0268 0.0388
1245.000000 0.0511 0.0647 0.0782 0.1027 0.1249
1240.000000 0.1442 0.1642 0.1844 0.2037 0.2233
1235.000000 0.2435 0.2670 0.3630 0.3985 0.4218
1230.000000 0.4449 0.4680 0.4911 0.5141 0.5372
1225.000000 0.5603 0.5834 0.5963 0.6085 0.6211
1220.000000 0.6337 0.6451 0.6560 0.6662 0.6757
1215.000000 0.6832 0.6893 0.6959 0.7010 0.7055
1210.000000 0.7098 0.7138 0.7171 0.7192 0.7201
1205.000000 0.7204 0.7189 0.7150 0.7109 0.7048
1200.000000 0.6971 0.6893 0.6796 0.6709 0.6598
1195.000000 0.6476 0.6359 0.6252 0.6057 0.5714
1190.000000 0.5162 0.3883 0.3491 0.2919 0.2348
1185.000000 0.1777 0.1208 0.1184 0.1210 0.1460
1180.000000 0.1272 0.0527 0.0129 0.0114 0.0107
1175.000000 0.0091 0.0099 0.0100 0.0115 0.0157
1170.000000 0.0336 0.0950 0.1564 0.2181 0.2796
1165.000000 0.3411 0.4025 0.4464 0.4585 0.4740
1160.000000 0.5090 0.5456 0.5820 0.6129 0.6208
1155.000000 0.6245 0.6271 0.6289 0.6308 0.6325
1150.000000 0.6395 0.6469 0.6534 0.6606 0.6681
1145.000000 0.6743 0.6801 0.6849 0.6910 0.6962
1140.000000 0.7015 0.7077 0.7144 0.7209 0.7269
1135.000000 0.7331 0.7381 0.7426 0.7451 0.7468
1130.000000 0.7465 0.7460 0.7448 0.7440 0.7412
1125.000000 0.7348 0.7264 0.7156 0.6720 0.6272
1120.000000 0.5821 0.5370 0.4919 0.4468 0.4022
1115.000000 0.3668 0.3667 0.3924 0.4540 0.5154
1110.000000 0.5768 0.6381 0.6974 0.7256 0.7364
1105.000000 0.7439 0.7515 0.7583 0.7648 0.7709
1100.000000 0.7746 0.7757 0.7766 0.7774 0.7777
1095.000000 0.7783 0.7766 0.7787 0.7785 0.7783
1090.000000 0.7775 0.7766 0.7760 0.7732 0.7707
1085.000000 0.7661 0.7604 0.7517 0.7418 0.7286
1080.000000 0.7067 0.6577 0.6081 0.5727 0.5713
1075.000000 0.5830 0.6117 0.6409 0.6702 0.6990
1070.000000 0.7279 0.7564 0.7690 0.7754 0.7787
1065.000000 0.7812 0.7832 0.7844 0.7865 0.7869
1060.000000 0.7869 0.7858 0.7862 0.7845 0.7809
1055.000000 0.7784 0.7730 0.7673 0.7617 0.7523
1050.000000 0.7425 0.7316 0.7054 0.6824 0.6617
1045.000000 0.6352 0.4886 0.4670 0.4480 0.4008
1040.000000 0.3191 0.2374 0.1557 0.0740 0.0465
1035.000000 0.0391 0.0356 0.0318 0.0331 0.0480
1030.000000 0.1011 0.1544 0.2075 0.2609 0.3886
1025.000000 0.4065 0.4232 0.4390 0.4494 0.4599
1020.000000 0.4701 0.4878 0.5135 0.5393 0.5650
1015.000000 0.5909 0.6167 0.6425 0.6683 0.6941
1010.000000 0.7199 0.7371 0.7374 0.7356 0.7256
1005.000000 0.7179 0.7180 0.7248 0.7406 0.7690
1000.000000 0.7848 0.7967 0.8042 0.8105 0.8154
995.000000 0.8189 0.8227 0.8257 0.8284 0.8311
990.000000 0.8322 0.8330 0.8338 0.8342 0.8348
985.000000 0.8353 0.8353 0.8352 0.8349 0.8342
980.000000 0.8330 0.8307 0.8281 0.8255 0.8200
975.000000 0.8137 0.8077 0.7978 0.7858 0.7754
970.000000 0.7593 0.7424 0.7261 0.7099 0.6932
965.000000 0.6765 0.6586 0.6326 0.5678 0.5114
960.000000 0.4551 0.3988 0.3423 0.2860 0.2296
955.000000 0.1958 0.1965 0.1992 0.2154 0.2770
950.000000 0.3386 0.4002 0.4618 0.5233 0.5850
945.000000 0.6465 0.7361 0.7601 0.7782 0.7892
940.000000 0.7983 0.8057 0.8131 0.8205 0.8286
935.000000 0.8367 0.8443 0.8521 0.8592 0.8649
930.000000 0.8705 0.8748 0.8781 0.8813 0.8834
925.000000 0.8856 0.8877 0.8899 0.8921 0.8941
920.000000 0.8960 0.8982 0.9009 0.9019 0.9045
915.000000 0.9062 0.9076 0.9089 0.9101 0.9113
910.000000 0.9117 0.9120 0.9131 0.9126 0.9134
905.000000 0.9139 0.9137 0.9127 0.9129 0.9122
900.000000 0.9125 0.9108 0.9099 0.9093 0.9086
895.000000 0.9070 0.9053 0.9020 0.8989 0.8957
890.000000 0.8917 0.8871 0.8831 0.8809 0.8805
885.000000 0.8798 0.8799 0.8793 0.8781 0.8776
880.000000 0.8770 0.8756 0.8742 0.8719 0.8695
875.000000 0.8669 0.8647 0.8620 0.8601 0.8582
870.000000 0.8563 0.8543 0.8523 0.8509 0.8471
865.000000 0.8433 0.8405 0.8376 0.8335 0.8285
860.000000 0.8242 0.8186 0.8120 0.8047 0.7965
855.000000 0.7909 0.7839 0.7754 0.7644 0.7527
850.000000 0.7296 0.7046 0.6696 0.6308 0.4874
845.000000 0.4074 0.3285 0.2512 0.1752 0.0232
840.000000 0.0262 0.0239 0.0367 0.0538 0.0519
835.000000 0.0451 0.0336 0.0233 0.0245 0.1129
830.000000 0.1992 0.2858 0.3696 0.4182 0.4668
825.000000 0.5154 0.5642 0.6131 0.6619 0.6747
820.000000 0.6797 0.6807 0.6808 0.6793 0.6751
815.000000 0.6656 0.5929 0.5067 0.4209 0.3349
810.000000 0.2484 0.2042 0.2043 0.2398 0.2966
805.000000 0.3536 0.4104 0.4671 0.5239 0.5806
800.000000 0.6374 0.7012 0.7371 0.7665 0.7982
795.000000 0.8278 0.8353 0.8417 0.8474 0.8540
790.000000 0.8575 0.8617 0.8657 0.8685 0.8715
785.000000 0.8743 0.8763 0.8768 0.8774 0.8791
780.000000 0.8799 0.8814 0.8825 0.8831 0.8845
775.000000 0.8851 0.8849 0.8852 0.8849 0.8853
770.000000 0.8855 0.8848 0.8846 0.8837 0.8817
765.000000 0.8779 0.8734 0.8665 0.8585 0.8506
760.000000 0.8426 0.8345 0.8345 0.8412 0.8514
755.000000 0.8605 0.8658 0.8704 0.8730 0.8756
750.000000 0.8782 0.8799 0.8817 0.8823 0.8827
745.000000 0.8835 0.8841 0.8844 0.8845 0.8846
740.000000 0.8847 0.8835 0.8844 0.8841 0.8839
735.000000 0.8833 0.8816 0.8800 0.8781 0.8760
730.000000 0.8743 0.8704 0.8636 0.8616 0.8617
725.000000 0.8630 0.8635 0.8646 0.8663 0.8676
720.000000 0.8684 0.8685 0.8678 0.8681 0.8676
715.000000 0.8670 0.8676 0.8679 0.8676 0.8674
710.000000 0.8672 0.8670 0.8668 0.8666 0.8664
705.000000 0.8662 0.8661 0.8670 0.8668 0.8669
700.000000 0.8677 0.8673 0.8666 0.8663 0.8659
695.000000 0.8660 0.8661 0.8655 0.8647 0.8639
690.000000 0.8626 0.8610 0.8602 0.8578 0.8548
685.000000 0.8514 0.8483 0.8452 0.8397 0.8326
680.000000 0.8182 0.8028 0.7894 0.7800 0.7808
675.000000 0.7835 0.7934 0.8042 0.8137 0.8219
670.000000 0.8275 0.8385 0.8468 0.8411 0.8365
665.000000 0.8373 0.8399 0.8411 0.8413 0.8404
660.000000 0.8393 0.8338 0.8222 0.8082 0.7934
655.000000 0.7775 0.7786 0.7802 0.7888 0.7984
650.000000 0.8066 0.8087 0.8107 0.8124 0.8117
645.000000 0.8118 0.8116 0.8102 0.8097 0.8081
640.000000 0.8062 0.8050 0.8030 0.8003 0.7880
635.000000 0.7469 0.7048 0.6636 0.6158 0.6146
630.000000 0.6607 0.7209 0.7738 0.7787 0.7827
625.000000 0.7862 0.7882 0.7889 0.7899 0.7927
620.000000 0.7913 0.7912 0.7917 0.7911 0.7891
615.000000 0.7875 0.7853 0.7822 0.7795 0.7767
610.000000 0.7736 0.7704 0.7662 0.7613 0.7565
605.000000 0.7524 0.7478 0.7406 0.7337 0.7266
600.000000 0.7070 0.6331 0.5778 0.5224 0.4670
595.000000 0.4116 0.3563 0.3009 0.2456 0.1902
590.000000 0.1615 0.1893 0.2228 0.2562 0.2896
585.000000 0.3232 0.3564 0.3643 0.3671 0.3330
580.000000 0.2856 0.2115 0.2131 0.2290 0.2675
575.000000 0.3060 0.3449 0.3835 0.4221 0.4599
570.000000 0.4603 0.4007 0.3386 0.2762 0.2142
565.000000 0.1525 0.1382 0.1960 0.2867 0.3770
560.000000 0.4676 0.5580 0.6397 0.6641 0.6797
555.000000 0.6947 0.7103 0.7256 0.7366 0.7486
550.000000 0.7575 0.7656 0.7694 0.7731 0.7769
545.000000 0.7788 0.7801 0.7815 0.7828 0.7838
540.000000 0.7845 0.7855 0.7874 0.7881 0.7891
535.000000 0.7888 0.7883 0.7890 0.7885 0.7881
530.000000 0.7873 0.7861 0.7847 0.7833 0.7819
525.000000 0.7801 0.7778 0.7748 0.7712 0.7677
520.000000 0.7640 0.7596 0.7551 0.7509 0.7474
515.000000 0.7438 0.7406 0.7377 0.7347 0.7308
510.000000 0.7255 0.7197 0.7134 0.7068 0.6982
505.000000 0.6895 0.6705 0.6512 0.6320 0.6217
500.000000 0.6210 0.6230 0.6353 0.6475 0.6598
495.000000 0.6718 0.6841 0.6964 0.7074 0.7172
490.000000 0.7269 0.7329 0.7377 0.7424 0.7454
485.000000 0.7483 0.7512 0.7537 0.7561 0.7585
480.000000 0.7598 0.7606 0.7612 0.7613 0.7613
475.000000 0.7613 0.7613 0.7612 0.7603 0.7590
470.000000 0.7579 0.7539 0.7491 0.7449 0.7405
465.000000 0.7354 0.7252 0.7138 0.7023 0.6908
460.000000 0.6908 0.6908 0.7022 0.7137 0.7250
455.000000 0.7360 0.7433 0.7472 0.7495 0.7501
450.000000 0.7505 0.7506 0.7506 0.7508 0.7506
445.000000 0.7497 0.7486 0.7461 0.7433 0.7401
440.000000 0.7342 0.7287 0.7242 0.7234 0.7233
435.000000 0.7231 0.7231 0.7230 0.7223 0.7216
430.000000 0.7207 0.7201 0.7182 0.7159 0.7137
425.000000 0.7113 0.7070 0.7027 0.6961 0.6869
420.000000 0.6777 0.6698 0.6625 0.6552 0.6462
415.000000 0.6369 0.6256 0.6138 0.6019 0.5877
410.000000 0.5498 0.5402 0.5146 0.4891 0.4636
405.000000 0.4380 0.4124 0.3868 0.3611 0.3337
400.000000 0.3046 0.2770 0.2577 0.2514 0.2462
395.000000 0.2417 0.2369 0.2327 0.2284 0.2242
390.000000 0.2195
##END=
