##TITLE=Ethylbenzene
##JCAMP-DX=4.24
##DATA TYPE=INFRARED SPECTRUM
##CLASS=IUPAC A
##ORIGIN=NIST, Analytical Chemistry Division, 301-975-3108
##OWNER=COPYRIGHT (C) 2001 by the U.S. Secretary of Commerce
##DATE=01/06/01
##$SPECTRA VERSION=1.10
##$UNCERTAINTY IN Y=2.1 % relative (B=1.13E-04,C=1.09E-9,D=2.34E-14)
##CAS NAME=Ethylbenzene
##CAS REGISTRY NO=100-41-4
##MOLFORM=C6 H5 C2 H5
##MP=-94.97 C
##BP=136.2 C
##$NIST SOURCE=QUANT-IR
##SPECTROMETER/DATA SYSTEM=IFS66V (Bruker)
##INSTRUMENT PARAMETERS=KBr Beam Splitter; MCT Detector; Multipass cell
##STATE=gas
##SAMPLE DESCRIPTION=Ethylbenzene Primary Gas Standard
##PRESSURE=101.3 Pa
##TEMPERATURE=23 C
##SAMPLING PROCEDURE=1 L/min Flow
##RESOLUTION=0.9640
##DATA PROCESSING=Boxcar Apodization
##XUNITS=cm-1
##YUNITS=(micromol/mol)-1m-1 (base 10)
##XFACTOR=1.0
##YFACTOR=4.5474E-13
##DELTAX=0.4820
##FIRSTX=575.17
##LASTX=3974.606
##FIRSTY=4.14E-06
##MAXX=3974.12
##MINX=575.17
##MAXY=.0004731
##MINY=-1.22E-06
##NPOINTS=7052
##XYDATA=(X++(Y..Y))
575.17 9105835 7702713 8608744 8109012 9968084 8740401
577.58 7430141 8304711 10473222 4744831 4150139 4802870
580.47 2961224 3069103 3951828 531024 4532610 3547511
583.37 938773 5270176 1954631 2726381 774277 2334423
586.26 3159989 2594722 295398 1604326 1313809 2733077
589.15 848271 1930788-807834 2566244 2123668-1715306
592.04-224791 1799629-888670 309390-1761034 1352919
594.94-2697989-104562 282390-144652-1793550-1095026
597.83 22382 1268649 366085 398766 368501 2281888
600.72 135938-729826-2143023-1675491-160095 145443
603.62-916718-1736145-594922-1227203-28635-59672
606.51-1222 84925-852523 330167-483603 499611
609.40 759483-213828-1889588 1053879 335692 878374
612.29 148816-1436769 306926 121657-1685515-1584206
615.19-326006 1043620-964547-2046938 633865 437151
618.08-1348571 1199599 1254686-454032-457029-544179
620.97-872896-1046373 1556181-788469-47240 598053
623.86-21712 98974 1909699 1953163 212216 1323554
626.76 1356105 3169575 2724243 3107652 813136-839172
629.65 2054868-427144 1210859 1126929 1034600 204904
632.54 1877186 1069364 1128862 2282592 378417 2106468
635.44 626834 608255 1537661 2709621 2370398 554790
638.33-228439 1015830 348496 212872 239372 871640
641.22-133747-48151-219032 372026 20312 1253900
644.11-345735 141483 318782-545019-367369-570627
647.01 294260-101559-438429-227158-988970-217437
649.90 451659 47536-298930 696668-666725-1394593
652.79 1184388-1179110 1118010-126425 2138018 415855
655.68 783574 833426 899113 489182 296103 1301879
658.58 546171 878778 954693 1076575 2403613 1866376
661.47 2124106 1513243 3155065 3567743 3773924 3920278
664.36 3674445 4499273 5439715 6324997 8325660 7488109
667.26 7279842 9147738 11445875 12794898 13251522 14743186
670.15 18628727 19995020 23588153 24328969 28184768 31709187
673.04 34828685 39541489 42667516 47130578 51608898 59000038
675.93 64846724 69907296 77101462 85077883 93562273 101203444
678.83 109560548 118058885 128350738 137533245 150043035 159046745
681.72 170307538 182575826 193874879 205799485 216978469 229814281
684.61 241810171 251935356 264323335 275207003 290865812 306316650
687.50 321569656 339823036 342359808 339767853 346043228 352955344
690.40 364108045 373749262 385361803 397520126 411874374 426410060
693.29 448234561 463436787 481264750 502744951 543001645 597983642
696.18 696165292 809816897 962053489 784547718 492979643 453583352
699.08 426863116 437932247 419141122 419330452 409601076 410173123
701.97 401208788 400658886 392072823 389139131 382738306 380727314
704.86 373821440 373200154 370396063 368280674 353489967 341004561
707.75 327528240 318631504 308299408 300182403 290974059 280552029
710.65 269586863 262483623 251215505 243915525 233929771 225806275
713.54 216784445 209250309 200658906 196315375 188518339 185121264
716.43 178984343 175946848 171725001 170556811 167688697 168128802
719.32 165099278 165928001 165366692 166987004 167251884 169746313
722.22 169930624 173488843 173763478 178544397 177762801 182650510
725.11 182933269 187320514 187312345 189595104 190770197 194360471
728.00 195604183 198319063 198711070 202037923 204442191 207664696
730.90 208077231 211781318 213081389 215997651 218024356 222360991
733.79 224837709 229890724 231470512 235501067 239225778 243751996
736.68 248101136 252137668 251215212 256877921 262026168 259518780
739.57 257440191 270077364 264446490 260148318 255481616 269106746
742.47 264824888 264872742 258182564 263043932 257894839 276863245
745.36 260817882 253122900 249592117 258295864 248116078 257902484
748.25 248436633 258689102 248541283 260130378 275338710 364572014
751.14 339316654 256348425 239408005 255607643 242539364 214825926
754.04 219462295 217411403 221248870 206339153 204179122 194962878
756.93 196273630 188721897 187963140 181895125 180605974 175514579
759.82 173862057 168272762 166247135 161117478 159686276 155041347
762.72 152717686 149283805 146319994 142549792 139726660 136809514
765.61 134334697 130651911 129895865 126431240 124664580 123122236
768.50 124173390 121678160 120956930 120999873 124754393 128213471
771.39 144791445 160916464 140989040 107638052 98512231 91441776
774.29 90456940 87487626 87396554 85214730 84366566 81151969
777.18 81644707 77813198 77705669 76814184 75114660 72708402
780.07 73183258 70479529 68884423 67657925 66283990 64695405
782.96 63640710 61235867 60713739 57392322 57045253 54938171
785.86 53311743 51024705 49796215 47827406 46567543 44108731
788.75 43617199 41347342 40024715 38885030 37035650 35575332
791.64 34021862 33455041 30874646 31644931 30307627 29128287
794.54 28052026 27442826 28032051 26632671 26341060 25191155
797.43 24312424 23349511 23260598 21519960 21479519 20418271
800.32 20959243 19268899 19272262 18491708 18695752 17364658
803.21 17403501 15879861 15147446 14659431 14313772 13782723
806.11 14192285 13461158 13817672 12287481 11751807 11545124
809.00 11516781 10637386 10992986 9937867 9839706 10088331
811.89 9417368 8569892 8222014 8124393 8076576 7391877
814.78 7620514 7381548 6718059 7344670 6030784 5620936
817.68 5904573 5332572 4778763 6052111 5020370 4348468
820.57 4148909 5182191 4970879 3565027 4875150 3444052
823.46 4562975 4243885 3963835 3803276 3331898 2825795
826.36 2535615 2440137 2732173 1928430 2610040 3581497
829.25 3117027 2137208 1994700 2064106 1878393 1664342
832.14 1535773 1455050 1720096 1422792 1272415 715818
835.03 1428100 1339632 147549 1026158 1576354 1866681
837.93 730325 730874 748035 923563 942305 599205
840.82 112100 138086 276467-164468 258629 1196612
843.71 461375 265466 223116 183812 205849-446001
846.60 299984-357998-469327-327059-35121-99476
849.50-144066 853639-1298809-493804-254456-289927
852.39-242633-338358-381242 146287-775746-1196908
855.28-340936-917497-680552-1088527-496854-438611
858.18-546683-845037-138821 102761 42712-216941
861.07-411278-725224-1004304-714754-263292-300904
863.96 207804-349040 599658-634248-107918 182236
866.85 60138 688825 49561 712229 770127 1011595
869.75 1537163 907059 1660222 1833184 1468500 1288703
872.64 1858257 2033259 2023186 2940885 3609129 3679817
875.53 3106485 3485432 3491929 4258375 4091151 4460367
878.42 4616552 4948404 5140248 6517663 5387120 6613987
881.32 6363546 6721313 6836811 7566625 7446765 8087799
884.21 8553777 9474542 9855351 9599987 9659776 10549428
887.10 11564801 11443279 11883009 12586906 12656030 13433399
890.00 14003203 13701688 13649213 14331842 14322807 15032225
892.89 14895389 14716294 15432224 15940222 15885838 16117229
895.78 15992566 16509378 16410931 16769549 16861506 17948815
898.67 17883438 19164461 19211116 21165211 22165568 23818629
901.57 26024951 31576499 38885558 57610791 47811043 21991920
904.46 20986250 18013636 18694705 17706333 19197717 17324764
907.35 17580222 17206349 16767297 16611834 16951394 16331545
910.24 16547887 15592703 15743822 14085588 13991704 13459222
913.14 13983853 12606092 12995087 11724458 11559410 10931448
916.03 10357752 9954020 8483893 7549504 7692493 7086562
918.92 6124907 5842714 5413601 4481309 4169445 3320759
921.82 3159606 2753947 2394268 1991084 2144320 1160009
924.71 1684296 1244958 699520 81621 549894 294629
927.60-146871-54719 207359-143784-20742-21139
930.49 503704-176195 73543-413394-206021-445634
933.39 269267-412556-333330-148873-487376-226599
936.28 148091-112696 74332-657913 95871-432550
939.17 356513-93518 21386-390238 236764 75636
942.06-179149 312363 39842 202310 914460 487834
944.96 1236794 1043756 1443987 1534198 1416526 1517591
947.85 2493737 2452950 2695851 3272385 4510158 4484215
950.74 5215941 5864140 7204242 7976408 9636271 10299566
953.64 11774372 12676310 14019049 15748603 17151212 18639633
956.53 20589254 20948711 22158866 22550467 22941913 23211924
959.42 23312063 23106427 23842144 24668784 25604456 26799458
962.31 28675635 30565928 31241154 28613280 25904674 23951756
965.21 24919413 25478725 26607875 27458272 28121009 29293186
968.10 28706927 29404965 28624479 27873553 27250562 25831505
970.99 24211067 22643921 21091397 19695372 18221042 16968691
973.88 16108345 14658921 13535862 12977208 12126269 10653869
976.78 10235714 9910722 9438822 8553753 8236531 7122841
979.67 7853073 7637409 5902543 5727462 4925144 4594684
982.56 4569212 4197854 4431581 4409695 3919325 4153580
985.46 3499570 4167403 3487438 3738179 4168791 4065308
988.35 4054002 3837304 3788560 3761374 4529179 4222148
991.24 4301462 4634080 4474983 4960865 4843248 4611358
994.13 4945913 5014379 5277015 5482758 5367548 5836257
997.03 6043325 6022764 6969361 7141815 7396586 7649828
999.92 8146163 8144628 8301906 7795840 8085319 7809418
1002.81 7864719 8100942 7704570 8520562 9625732 9692998
1005.70 9705301 9521186 9580076 9181395 9672369 9591802
1008.60 9860490 10098220 10321846 10958365 11013701 11916998
1011.49 12473073 12415401 13258022 14068961 14464472 15241777
1014.38 16097562 17048900 17889461 19296051 20654472 22225410
1017.28 24004344 25289002 27441078 30279813 32398324 35457806
1020.17 39233986 42119174 45210304 49121987 52462803 56491350
1023.06 59909743 63599821 65288580 66870508 67914416 68191417
1025.95 67630607 67333155 65632219 64286424 62188883 61971219
1028.85 61844362 66151844 71376148 85327576 86178337 74093183
1031.74 73817426 74399091 73960085 71094449 71456700 71554353
1034.63 72579104 72202991 72417491 71340907 69950988 68663924
1037.52 66825356 64930588 63382639 61054755 59929601 57045654
1040.42 56144253 53936981 52681632 50661238 48573019 46832031
1043.31 45835893 43933447 43212982 41674148 40548881 40133368
1046.20 39280259 38892969 38188247 36926697 36432905 36276337
1049.10 35667536 35670847 35653109 35448594 36259762 35906175
1051.99 36773486 37395906 38472674 39896494 41950929 44552531
1054.88 47099504 49469521 52810343 54676034 57462151 59878699
1057.77 61447953 63324912 64561421 65480782 65145390 64188463
1060.67 62144880 60614549 57486355 55697349 54838421 56715710
1063.56 61496896 71081636 78562115 80938365 68659497 45649242
1066.45 46072382 48888270 52648814 56069427 59937768 61890544
1069.34 63237266 63125786 61695422 59601367 56620081 52938561
1072.24 49183034 45323092 41651294 37721681 35000957 31910792
1075.13 29594465 27348373 25537205 24870101 23772068 23100600
1078.02 22420708 22382871 22703164 22983239 23051469 23330297
1080.92 23369163 23846603 24574293 24213374 24990323 25274186
1083.81 25103517 24787850 25621765 24522323 24734953 24175832
1086.70 23355129 22474525 22217577 21783681 21359045 21159961
1089.59 21700469 22857172 24076237 24933689 26226155 26937028
1092.49 26893625 26965271 26620718 26143710 26223087 25936563
1095.38 25754473 25711694 25163188 23948758 24007037 23777876
1098.27 23103826 23374380 22591963 22357258 22535335 22624584
1101.16 22145282 22208157 22231202 22124719 21587318 20986942
1104.06 21009549 19839246 19367767 18485725 17369144 16082150
1106.95 16100929 14613109 15255875 15231106 15222812 14635229
1109.84 15524546 15830989 15973553 15935515 15958991 15853823
1112.74 15376332 15458075 15721861 15388788 14849118 13680753
1115.63 13724520 12964935 12802240 12146711 11997148 10819657
1118.52 10418942 10150245 10373457 9451957 8728173 8845774
1121.41 8420429 7400025 7369553 7019752 7174179 6546659
1124.31 5917687 5781586 5692651 5220945 5314680 4956483
1127.20 4572541 4522915 4321918 4001642 4120213 3767139
1130.09 3445522 3060955 3271236 3436707 3982001 3427816
1132.98 3082169 2909111 2944900 2725067 2649248 2742075
1135.88 2814796 2529264 2345615 2494046 1962517 1979119
1138.77 2098058 2031215 1965485 1579225 1908284 1855282
1141.66 1454112 1719377 1502805 1573340 1809592 1560393
1144.56 1398908 1054707 1122579 864157 1390410 1191388
1147.45 1617390 1138084 1358459 1206255 1865728 1292228
1150.34 996679 1205819 981331 1095647 843967 1136757
1153.23 771483 277192 798093 195177 155472 399391
1156.13 1280 286581 379415 474912 359728 363690
1159.02 447792 482729 587974 271137 715437 384075
1161.91 395214 151887 457274-122751 256107-335504
1164.80 252516 19642 81419-344004 154212-358181
1167.70 214198-25802-111903-119311 139687-46306
1170.59-201139 31676 32103-10915 56688 194323
1173.48-482117-190063 164256 373606-176316 289226
1176.38 213595 84107 515300 1220001 752889 218320
1179.27 589002 598552 278432 556717 1046847 469666
1182.16 741592 919522 1153526 1092493 1073237 896105
1185.05 1300113 1418990 1656410 1726857 934205 1542662
1187.95 1300510 1268387 1600506 1467646 2161618 1618627
1190.84 2041287 1727021 2094475 2253479 2061453 2554080
1193.73 2366623 2410352 2726172 2372671 2861380 2452201
1196.62 2613141 2423500 2608546 2480204 2489829 3019856
1199.52 2846511 2715110 2646872 2862494 2914800 2596229
1202.41 2852654 2725699 2406866 2592760 2920263 2545596
1205.30 2468562 3203876 2679389 2537614 3075834 2443974
1208.20 2076272 1933601 1746436 1495013 1757444 1578869
1211.09 1638376 1610494 1252119 1299737 950761 636266
1213.98 746948 707033 823147 150330 366498 363641
1216.87 368249 56394 557979 261419 271515 461711
1219.77 401257 232570 122995 289818 194370 69423
1222.66-155169 238369 144509-37155 133083 81507
1225.55 306263 230390 647652 597693 951209 1053383
1228.44 1571880 1630014 1907275 1987837 2449384 2396043
1231.34 2707582 3172523 3652621 3643753 3896578 4130689
1234.23 4166276 4096852 3995102 4167706 3838953 3862399
1237.12 4054540 4017501 4492872 4443002 4958218 5433643
1240.02 5257795 5634584 5469665 4519662 4797713 4567612
1242.91 5053039 5744421 5448997 5561664 5812308 5838842
1245.80 5571128 5518201 5472259 5518298 5400156 4691847
1248.69 4906603 4156150 4702908 4413569 4283478 4223708
1251.59 3932114 4100039 4085121 3556625 3586214 3698488
1254.48 3876054 3635589 3645722 4247428 3928327 3791008
1257.37 4013617 3778864 3680885 3562137 3527473 3516447
1260.26 3577246 3753837 3565861 3846209 3594722 3612483
1263.16 3968907 3649370 3502612 3301947 3454662 3434064
1266.05 3825242 3120664 3658878 3722113 3618548 3714193
1268.94 3675748 3598647 3466359 3662560 3030553 3113311
1271.84 3215703 3097927 3220555 3656977 3437982 3759799
1274.73 3626233 3552702 3744138 3755149 4050300 4188983
1277.62 4647873 4511728 5112542 4622334 5233665 5098868
1280.51 5430528 5535083 5497919 5538049 5788921 5847035
1283.41 6069701 6247615 6413192 6466451 6330684 6826135
1286.30 6972530 7229393 7552092 7632573 8000786 8029320
1289.19 8340155 7965492 8698041 9053776 9082489 9455909
1292.08 9611197 9785073 10110637 10415608 10454476 10683144
1294.98 10255242 10623064 10794828 10862050 11581691 11437141
1297.87 11353572 11270317 11612504 11934947 12186313 11884697
1300.76 11892136 12165708 12267732 12673135 12553274 12424974
1303.66 12639858 12786947 13269583 13239803 13343406 13471658
1306.55 13572123 13679603 13759899 13765302 13453644 13877305
1309.44 13849355 14260171 14456132 14838149 15232365 16125941
1312.33 16140520 16765737 17108153 17651079 18972432 19715840
1315.23 20638883 20933424 22691891 23110044 24344099 26055974
1318.12 26876442 28033440 29442539 30719145 32239892 33678994
1321.01 34653897 37086250 38670581 39812859 41122376 42925866
1323.90 45691078 45994486 45553436 44643270 44969508 45334870
1326.80 45392888 45331829 45894419 46519820 47426757 47067168
1329.69 47719933 47863289 46714467 45568979 46310598 45977472
1332.58 43824567 43232676 42397170 41748878 41597029 41095604
1335.48 40845928 39384077 38380376 37448847 36139735 34290363
1338.37 32623659 31513547 29541748 28146767 26546562 24861619
1341.26 23614551 21937096 20656573 19737722 18254772 17835503
1344.15 17508353 15752702 15203931 14356820 14070702 13117910
1347.05 13118724 12118890 11913894 11385932 10839175 10743010
1349.94 10637979 9711771 8936900 8095333 8903914 8503054
1352.83 8755318 7857461 7029340 9672271 6745467 7086103
1355.72 8021257 8057982 8076951 7679553 7825035 7291264
1358.62 8086701 7888809 8155604 7953741 8425191 9527736
1361.51 8802948 9395895 9767927 10286999 11722139 11931061
1364.40 11900660 12473637 13544272 14013666 15123632 15760425
1367.29 16193014 17257859 17586019 18393322 19422836 20009869
1370.19 20897141 21600528 22880574 23463566 24470140 25107155
1373.08 26050790 25631152 27725003 28092632 29245983 29220306
1375.97 29835960 29636413 31591916 32077962 39516426 45385220
1378.87 43838492 43063558 46238120 47209286 43430865 41455566
1381.76 39616034 37553244 37066984 36789390 36119936 36397939
1384.65 35949414 36666132 35933696 35418352 35432306 34920454
1387.54 35039109 34031051 34252783 33085822 32625769 31840053
1390.44 31238513 30189252 29176963 28289480 27368840 25805024
1393.33 25522531 23663374 22777020 22675298 21771446 20838827
1396.22 20511008 19933384 18910769 18532404 17818918 16852483
1399.11 16787229 16100692 15331399 15004804 14989287 14343221
1402.01 13786018 13609095 13139542 13034091 12351575 12506332
1404.90 12661217 12350301 12236691 11929335 12239922 12028198
1407.79 12144757 11563749 11823636 12035903 11844938 12189898
1410.69 12348454 12165619 12414467 12284476 12654620 12706916
1413.58 13198225 12989281 12758890 13440418 13399113 13103484
1416.47 13538753 13442094 14174069 13538447 13535234 13142950
1419.36 14026905 14888349 15418923 15742311 15575179 16290211
1422.26 16546772 16948262 16981716 16806298 17682811 17516412
1425.15 17966792 18121565 18701382 19096240 19233914 19756456
1428.04 20292697 20670532 20964456 21503641 22214178 22761215
1430.93 23338512 24393623 25422278 26029874 27190597 28289795
1433.83 29535251 30702027 32154654 33917571 34934961 35561498
1436.72 38708558 41169868 43436712 45883566 48201624 50877728
1439.61 53779038 56780461 59854326 63183376 66655648 70790150
1442.51 74300812 79059976 83339648 87907669 92609353 97516764
1445.40 102373045 107532742 113085146 118568852 123645747 129456634
1448.29 135954482 141891235 147308837 151800850 155585338 158839606
1451.18 162789328 165853469 167829682 169511859 170968060 171091095
1454.08 170876736 169927865 169398511 169739286 170873695 174913605
1456.97 184208558 190824406 196309077 198591831 196443891 191195467
1459.86 185886872 180771946 179056747 179126751 181309814 184144651
1462.75 187555152 188477850 188665957 186807151 183734453 180993985
1465.65 176000950 171551714 167333166 163977872 159396529 155718990
1468.54 152063048 147689905 144880221 144155859 140971556 139343695
1471.43 138357310 129415312 111047058 103253171 101456458 99424867
1474.33 97223592 94796709 92641846 89725947 87125298 84133221
1477.22 80824402 77523923 74714868 71457063 69233922 66284654
1480.11 64449658 62465372 61080608 60025699 59226008 58953503
1483.00 59387668 59579549 60950761 62951678 65185121 67963102
1485.90 72024957 76011985 81245065 86956626 94292475 101779729
1488.79 110663375 118810012 129313098 138247895 149189926 159858198
1491.68 170834807 180962405 191730375 199781850 209103037 213216531
1494.57 214761699 209375904 199883612 192301422 187856583 184803853
1497.47 187269518 193861896 211197039 233129019 256612014 235777093
1500.36 203953310 183776056 172353696 171515876 179506316 184041292
1503.25 187264379 193530213 196747429 197178443 192389162 189144184
1506.15 179512778 167801759 156737190 143174258 128629831 115031531
1509.04 101112175 88256131 77212153 66593833 57385372 49335655
1511.93 42467943 37676252 32864183 29098182 26344892 23303422
1514.82 21086236 20020008 17757650 16931047 16015277 15594549
1517.72 15535223 15544475 15130863 14105800 13168554 13141917
1520.61 11499204 12288735 13257931 12419920 13358446 12909698
1523.50 13709228 13761879 13286747 12605086 13230622 13156355
1526.39 13606519 13378645 13415389 13517090 13651373 13608545
1529.29 13887297 13603835 13610472 13445548 13113948 12542270
1532.18 12546296 11820063 11348320 10768791 11093185 10254192
1535.07 10548859 10138919 9929545 9936096 10861702 10584726
1537.97 11435429 9196005 11202322 11544690 10405934 11848902
1540.86 11536907 10133064 9397573 10787668 9980001 10092520
1543.75 9568178 9031568 7896721 8674737 8609081 8572306
1546.64 8214908 8139429 8223374 7917434 8138665 7630285
1549.54 7870114 7774388 7711228 7598160 7671541 7771058
1552.43 7496152 7617316 7503697 6168389 7633707 7422559
1555.32 7469598 7318872 7871933 6417559 6500323 5732390
1558.21 4974592 7512217 6278078 5598892 6317980 7406103
1561.11 6688029 7219683 6762367 7195783 7072678 7284022
1564.00 6984154 6902649 7277894 7486004 7369209 7270309
1566.89 7057017 6950708 7241669 7122266 6894139 6113196
1569.79 7177633 7149104 7412817 7437446 7650367 7858445
1572.68 7827534 8084394 8175967 8844564 8537077 8891025
1575.57 6395199 8295325 9964899 9466892 10612462 10893024
1578.46 11226614 11473674 11838660 12239160 12310315 12809587
1581.36 13218923 13417435 14098940 14356670 14944436 15294632
1584.25 16263531 16993256 17585698 18773881 19342861 21124012
1587.14 21886504 23194500 24952225 26078054 27535486 29028960
1590.03 30248857 31293314 32335264 33418544 34210937 35273132
1592.93 36408386 38052931 39234280 40251650 42347101 44141477
1595.82 45982853 48872824 51644643 54476516 58746819 62542714
1598.71 69394816 74509127 74189658 78357036 83795514 90432441
1601.61 96079371 101491101 106742592 111420703 114895334 117538075
1604.50 119616387 120220501 120125391 119052801 117329205 115094064
1607.39 113284120 111376496 109920866 108873707 110036479 112252442
1610.28 115764216 115651775 115695408 110094113 96634059 94580452
1613.18 93140898 94687209 95257843 97248776 96037819 96006587
1616.07 91336828 88949405 85603149 80542250 74508668 68609727
1618.96 61848381 56538040 50296676 44858575 39674951 35302379
1621.85 30922866 27342332 23596180 20544255 18916062 17026929
1624.75 15069057 13672537 12593223 11193967 10398430 9421197
1627.64 8784393 8421690 8153571 7688126 7179365 7315285
1630.53 6610195 6312243 6537455 6286828 6067538 5973077
1633.43 6277993 5775039 5655178 4148761 3796789 5762408
1636.32 5635114 5300568 5186548 5560385 5566556 5734248
1639.21 5496322 5699219 5579935 5792944 5424661 5887478
1642.10 5902209 6146334 5951516 6491311 6597005 6629815
1645.00 6149469 5175232 6733480 7081563 6898422 7762084
1647.89 7182377 8293644 7635594 8444639 7951079 8584181
1650.78 8102766 8671357 6192754 6977531 5781018 7298368
1653.67 8410640 7971904 9764288 8795719 8534975 8224111
1656.57 8448898 8067354 7688977 7820930 8088716 7797160
1659.46 7855870 7794848 8191196 8231552 8241597 7745406
1662.35 7136533 7701634 7219553 7593114 7303203 7160446
1665.25 7222909 6999915 7056210 6819855 7050613 6334836
1668.14 6807387 5621026 5635000 6419111 6391850 6375669
1671.03 5525756 6164781 5491600 5715303 5441940 5477885
1673.92 5297122 5411968 4634642 6014807 5893912 5543569
1676.82 5265642 4831540 4611471 4631082 4758772 4640642
1679.71 4610714 4638034 4631082 4735651 4320544 4411064
1682.60 3433920 3411687 3528403 1792863 607135 3729289
1685.49 2579248 3116198 2324719 3105671 2332214 2461942
1688.39 2087206 2249783 2015399 2251004 2003936 2128958
1691.28 1632618 2240614 1924635 1984763 1800302 2094912
1694.17 1698977 1931476-170742-664399 2157132 1620634
1697.07 1988790 1653917 1628808 1892363 1443017-16345
1699.96 723684 589465 2227085 2032104 1961761 1464739
1702.85 1677816 1649295 1223836 1571885 1679131 1519301
1705.74 1139229 1601155 1868138 1726889 1906213 1973985
1708.64 1837517 1924105 1525326 1842389 2033631 1791186
1711.53 2087581 1995702 1965288 1902835 1945942 2268053
1714.42 1654963 1366235 2459676 2185679 2851051 346894
1717.31 2305657 2687522 2087301 2953037 3054318 3443002
1720.21 3619750 3648687 3899660 4217284 4453697 4672423
1723.10 5037701 4857658 5461017 5789635 5815814 6336723
1725.99 6829625 6913066 7341466 7514275 7936229 8472518
1728.89 8993629 9270255 10013563 10783395 10681259 11570570
1731.78 11718526 12790900 11516030 12343149 13286213 12024618
1734.67 14276717 14196751 14708428 14362541 14240763 14024308
1737.56 14086079 13607184 13291250 12102062 10942469 11556608
1740.46 11028127 11113826 11436752 11852979 12591086 13319142
1743.35 14277615 14715410 14855290 14802205 14642590 14248871
1746.24 13714389 12970870 12576751 11934772 11117006 10555351
1749.13 10323547 9417767 9331262 7575734 7289621 7834019
1752.03 6948971 6700292 6350325 5720602 4990644 5246779
1754.92 4930677 4536660 4086275 3396969 3623572 3215419
1757.81 2973853 2672976 2701501 2407605 2487760 1984428
1760.71 2254888 980852 1353259 1533230 1173830 1299448
1763.60 1138969 1303104 1123601 1073361 1082529 1148476
1766.49 1136863 1503166 687989 979402 1693438 1632613
1769.38 1973973 1991575 2125348 1883273 2492557 2419228
1772.28 1201137 2740474 2761592 2689338 2691531 2667309
1775.17 2442474 2312014 2188811 2245007 2637440 3223375
1778.06 3761470 4551880 4160054 2776314 2696443 2852151
1780.95 3393223 3656829 4095791 4676745 5061216 5541598
1783.85 5937726 5974183 6754087 7566561 8469733 9251582
1786.74 10176791 11123087 12340989 13658974 14806325 16334011
1789.63 17963591 19034354 20406419 22084472 23157820 23234470
1792.53 24707006 25845073 26046691 26672268 26746875 26385555
1795.42 25758310 25387474 25995482 26926229 28878174 30603746
1798.31 32977195 33871247 35279690 30744453 24013169 24518156
1801.20 25596719 27282755 28277806 29875254 30552616 31461231
1804.10 31916470 31277404 29934909 28451413 25311298 22877493
1806.99 21419126 20016728 19009542 17912874 17018889 16215224
1809.88 15011456 14322646 13639255 12641114 11991006 11027165
1812.77 10444167 9705074 8949842 8549155 7855674 7071979
1815.67 6478979 6313280 5682975 5537293 5603277 5804643
1818.56 5874629 6385865 6275347 6503121 6472211 6272956
1821.45 6290803 6067001 5942913 5609534 5445501 4929481
1824.35 4550965 4262718 4093439 3942205 3721732 3595285
1827.24 3146094 3111496 2747179 2677676 2520169 1927299
1830.13 2342528 2293728 2201902 1944623 1848972 1973817
1833.02 1698802 1534475 1660586 1603473 1786752 1595736
1835.92 1746101 1459428 1721040 1798927 1617507 1748987
1838.81 1857468 1819722 1818826 2116558 1879427 2260125
1841.70 2463781 2656028 2475331 2902566 2138614 2776491
1844.59 3612833 3564757 4248158 4167755 4753302 4752063
1847.49 5342499 5732027 6293523 6340438 7011917 7448456
1850.38 7761624 8353318 8695217 9414388 10071991 10913918
1853.27 11488434 12580299 13312217 14115962 14823980 15790684
1856.17 16406270 17067685 17737707 18339919 19086927 19437964
1859.06 19798105 20144698 19941013 20138213 19854520 19476893
1861.95 19001462 18334962 17356068 16733018 15979857 15489566
1864.84 15665565 16282097 17555926 19530381 21588002 22621470
1867.74 23960200 24712407 24726228 25136638 25505433 25590599
1870.63 25565193 25984030 26048383 26271072 26397873 26562660
1873.52 26752894 26686871 26520131 26160063 25743075 24793394
1876.41 24044238 23485857 22530096 21239291 20121918 19397181
1879.31 19324272 20670872 22947983 24764253 23625300 19900422
1882.20 13865117 12791061 13435589 14618792 15906264 16653157
1885.09 17482980 17893480 17559005 17058420 16369546 15325002
1887.99 14046008 12767595 11149765 9636781 8689585 7199009
1890.88 6353237 5190938 4480165 3711562 3281753 2942199
1893.77 2355711 2278372 1654991 1573933 1365953 1461502
1896.66 1324361 1216951 875046 917004 897344 800160
1899.56 1070380 1096104 876382 801844 610065 901240
1902.45 712514 1072441 766721 972714 942299 1030880
1905.34 895072 815118 851879 1094150 1000644 1270154
1908.23 1106598 1173737 1252929 1175295 1282682 1274436
1911.13 1440715 1450845 1596948 1768519 1732804 2050246
1914.02 2249749 2224452 2515547 2861851 2800425 3037314
1916.91 3456874 3160034 3447582 3876650 4261573 4563909
1919.81 4742308 5115566 5439797 5728936 6335070 6631974
1922.70 6811218 7431187 7974671 8522150 9208617 9422878
1925.59 10111669 10475964 11208037 11845025 12652065 13269648
1928.48 14254248 15618647 16103434 17072996 18380456 19445439
1931.38 20281006 21422749 22246443 23123784 24147015 24858839
1934.27 25088171 25510205 26252177 25914297 26051104 25768508
1937.16 25388569 24535764 23964623 23230828 21785654 21049665
1940.05 20118431 19876565 20004930 20678200 22119367 24465655
1942.95 26558748 28406523 29761947 30297761 30688683 30671763
1945.84 30815575 30768604 30551294 30467518 30505170 30044976
1948.73 29694742 29396862 29149570 29008157 28691236 28139133
1951.63 27390176 27168540 26313741 25555378 24900445 24031953
1954.52 23205650 22147835 21065601 20248684 19601236 20070488
1957.41 21434654 23075900 23807120 19625348 13004795 12671945
1960.30 13200483 14360394 15043125 16246454 16698365 16721853
1963.20 16667885 15827584 14682370 13682546 12458350 10589342
1966.09 9409531 7995822 6703757 5786525 4675209 3699161
1968.98 3143882 2408491 1874877 1579054 1190364 1074012
1971.87 769660 818056 773128 898828 1026946 961386
1974.77 245820 386490 241410 323370 668428 581262
1977.66 694011 674319 866077 578462 651600 937445
1980.55 912829 880970 1142016 1351463 1189757 1244897
1983.45 1255331 1476875 1153861 1360204 1302567 947385
1986.34 791135 687431 750269 806246 951085 1084002
1989.23 895202 852379 670899 758872 498687 555390
1992.12 530033 1003510 906009 800290 735409 720003
1995.02 616068 376884 346536 503993 382104 468331
1997.91 221669 312182 133345 490845 196366 65488
2000.80 43256 190029 133532 103844 89225-142739
2003.69-328799 2756-73286-81226-45913-275663
2006.59 153739-117627 164910-71355-304999 229518
2009.48 128547-87392-70311 61758-99922 119524
2012.37-82886 199377-1465 354763 158006 328218
2015.27 423958 201321 328671 487914 379385 539926
2018.16 624360 731080 739876 845469 889472 731841
2021.05 737174 1044603 769748 841105 873854 897837
2023.94 1190461 1242169 1149742 963120 952588 980162
2026.84 1242374 1061917 1061489 1130013 1329945 1286871
2029.73 1422139 1294900 1244135 1324631 1178628 1546172
2032.62 1237046 1067198 732795 742299 1034635 703048
2035.51 817665 1099905 764225 891088 933905 707747
2038.41 693991 544644 700597 636628 255322 693363
2041.30 517043 317301 576801 383620 340336 145351
2044.19 148436 45417 364611 59046-42140 134547
2047.09-219752-275005-270044-303855-91695-252528
2049.98-274714-478074-522019-427198-612324-713828
2052.87-716849-642819-594708-729733-611452-460416
2055.76-270415-594757-431300-637786-788577-628466
2058.66-835069-976777-580590-846437-812870-712306
2061.55-1035703-850874-814552-912996-732395-1094779
2064.44-725394-762433-922160-776693-831437-1127712
2067.33-860718-985958-842920-1098652-705148-692303
2070.23-646957-813822-604993-1153051-1077300-754771
2073.12-946347-1004013-882646-722839-1010538-654707
2076.01-911966-800771-828316-733840-954744-837115
2078.91-782069-757617-852276-1010601-856712-642672
2081.80-758319-797756-699999-718426-748436-598766
2084.69-817036-597575-552603-762149-746080-687364
2087.58-713989-717656-343031-500629-328606-515895
2090.48-538151-619378-453139-457105-697783-462859
2093.37-705549-265783-430116-514209-471411-439798
2096.26-492275-512255-172827-295788-376055-160895
2099.15-389695-208711-232441-377415-233331-315692
2102.05-459459-225333-247458-348098-489937-439068
2104.94-481512-439820-413536-600205-244018-313389
2107.83-411936-352621-189851-367375-491127-478316
2110.73-292875-314870-186139-480065-382291-346364
2113.62-482640-217066-605253-144977-156141-436031
2116.51-222597-191921 55429-33156-169379-302056
2119.40 215345-163432-110205-97278 105105-89753
2122.30 203962 50023 86103 255672 148817 143912
2125.19 242127 147701 193502-18303 284811 99578
2128.08 301065 105593 74427-189770 153867 78171
2130.97 103745 89627 119174 53946 399582 342187
2133.87 207541-36525 204117 33046-124196-194271
2136.76-123907 6928-245904-260728-105913 128030
2139.65 43767-63173-166476-80559-114348-206994
2142.55-150549-222480-128256-73125 9011-99822
2145.44-146755 91381-223984 69511-15165 63173
2148.33-60660-193166-151977 146517 42691-34430
2151.22 151401-98074-235586 50687-155216 148625
2154.12-130681 14739-3448-60510 110836 33020
2157.01 115447-206640-40187 69186-28299-118455
2159.90 70777 124410-212580 171965-215635 292833
2162.79 167532 331604 59045 200155 158837 106366
2165.69 171705 104190 72873 241098 263933 139147
2168.58 290028 264171 208761 168077 252972 205147
2171.47 94631 137181 78038-30676 428874 182333
2174.37 317882 273435 217124 120705 152683 10656
2177.26 319086 528069 280393 436335 160992 601051
2180.15-98555 251873 344057 321846 79353 80005
2183.04 163355 187136 349700 231885 209356 238098
2185.94 125091 145694 238869 114348 542753 228980
2188.83 218817 372259 204243 140925 6125 27001
2191.72 109130-98446 291634 5248 185453 135302
2194.61 145186 69964 68349-706-121203 145497
2197.51 190206 7881 138025-161308 180986 219717
2200.40 86377 172636 85946 270500 409208 323257
2203.29 366521 236695 232366 86491 350399 418812
2206.19 445161 416454 635214 861116 736278 566787
2209.08 448454 543093 821909 915002 807105 547417
2211.97 858813 876852 1109307 842391 1037624 980356
2214.86 1007950 1194695 908964 999424 1001093 949010
2217.76 1267853 1210448 1289231 1050504 973181 1455113
2220.65 1351439 1070826 1183486 1347352 1258313 1317415
2223.54 1339399 1180351 1304555 1284578 1226151 1342806
2226.43 1134957 1319515 1206990 1266110 1140240 1241618
2229.33 1249542 1474287 1519866 1247268 1494238 1510734
2232.22 1373270 1438072 1288035 1516664 1526409 1599664
2235.11 1613432 1476566 1509111 1262957 1779974 1348471
2238.01 1573490 1555289 1411965 1316175 1654503 1407021
2240.90 1470185 1355485 1696073 1146884 1341462 1476945
2243.79 1435098 1339407 1495543 1370350 1371791 1306860
2246.68 1427652 1331928 1290855 1394550 1442881 1130082
2249.58 1160769 1157107 1168041 1297558 1026804 1104102
2252.47 1146125 1324207 1056470 877867 1203376 1008890
2255.36 1098301 977095 925100 937642 1281929 1429128
2258.25 1241314 1499082 1272383 1176600 992525 1545624
2261.15 1004025 1488292 1401465 1148874 1474040 1627114
2264.04 1648683 1735950 1378699 1375450 1337754 1663408
2266.93 1842200 1624542 1681988 1675328 1752942 1871813
2269.83 1631393 1991491 2103175 2238003 2142458 2194543
2272.72 2061162 1881119 2011219 2113414 2481107 2390165
2275.61 2191668 2361947 2249454 2171638 2558205 2387233
2278.50 2329027 2285664 2380120 2671950 2431585 2410229
2281.40 2400826 2429040 2503864 2725737 2389741 2424416
2284.29 2499198 2303341 2544942 2236615 2391065 2269737
2287.18 2243061 2164082 2248415 2338636 2216373 2287622
2290.07 2414337 2286302 2214600 2271459 2203863 2041241
2292.97 1884028 1957596 2071872 1787261 1847207 1804755
2295.86 1742574 1804837 1625931 1561143 1433224 1646854
2298.75 1477648 1278147 1460678 1583570 1599174 1605070
2301.65 1492395 1311782 1650669 1678493 1939256 1879692
2304.54 2045056 2312031 2559259 2831542 3061151 3180798
2307.43 3376484 3573138 3478304 3511473 4095474 3905805
2310.32 3642885 2983545 3222099 3110102 2650535 1897815
2313.22 3122068 2933681 4239054 5040672 5449966 3437587
2316.11 3031717 2152357 2965402 3526338 3820193 2651248
2319.00 3771328 4223615 4452442 3541703 3509024 3915267
2321.89 4126929 2825803 3034496 3684067 3440129 1995136
2324.79 2251735 3338416 2946177 1501219 2258346 3464048
2327.68 2682172 1695512 2534541 3993503 3167077 1957350
2330.57 3469863 4293202 3145733 2618601 4430121 4637744
2333.47 2778119 3312691 4976501 4213721 2496531 4046889
2336.36 5280371 3770308 3325317 5292760 5353644 3529081
2339.25 4546730 6201108 4648807 3827843 5411086 5118523
2342.14 3486410 4412879 5425064 4022866 4009797 5189484
2345.04 4683586 4119162 4450938 4994016 4448464 4549991
2347.93 4613555 4593171 4422286 4112349 3859434 3894703
2350.82 3492835 3478460 3737995 2405382 2677516 3874124
2353.71 1975278 2336842 3537424 1644311 1335499 3403611
2356.61 968456 1454992 3537959 883619 1105524 3554169
2359.50 275746 1632950 2659510-98803 2412530 2147930
2362.39-99725 3042079 1200114 542150 2899871-52480
2365.29 1619713 1912170-175688 2718922 670076 1468502
2368.18 2050490 725002 2598943 1257871 2223229 2234135
2371.07 1286968 2861253 1363764 2177877 1444074 1945797
2373.96 1897074 1916526 2285913 1467446 2344233 1455709
2376.86 1797868 1566844 1949181 1537264 1686752 1411767
2379.75 1530528 1867751 1740313 1736073 1568131 1548450
2382.64 1753297 1438491 1460543 1352372 1410062 1374054
2385.53 1258356 1238401 1139334 1009583 964006 1088161
2388.43 882290 1096342 910877 574699 667506 640541
2391.32 710214 849272 942013 686960 479144 633282
2394.21 755529 482319 454460 440774 444320 865959
2397.11 378575 597242 739657 433720 764910 598011
2400.00 636601 721561 703374 797776 867692 721896
2402.89 770511 706181 775251 683687 1010175 867603
2405.78 1031803 1184211 1020801 1413632 1261525 1167046
2408.68 1083590 1211833 1371815 1381291 1438058 1346800
2411.57 1375358 1674953 1372407 1526703 1605044 1622797
2414.46 1474788 1518220 1399517 1632336 1719165 2095163
2417.35 1979309 1378325 1281161 1369622 1491257 1627639
2420.25 1733809 1583493 1670294 1589300 1563477 1387901
2423.14 1665502 1810065 1322743 1488550 1476291 1561206
2426.03 1576321 1707587 1719619 1716264 1721413 1913577
2428.93 1682685 2090719 2297588 2052910 2144549 2389608
2431.82 2259771 2340271 2203653 2692900 2673074 2393682
2434.71 2654803 2532891 2881437 2768617 2793347 2832538
2437.60 2912643 3163631 3425823 3264761 2939451 2913951
2440.50 2873626 2577693 2847925 2711230 2653497 2625846
2443.39 2604103 2379891 2518386 2677600 2583723 2623866
2446.28 2560082 2460163 2040809 1776037 1989889 1563753
2449.17 1447136 1908148 1063907 1369742 1277474 1094736
2452.07 1355977 985443 740569 869120 828431 688210
2454.96 770742 616439 669112 384924 496083 387298
2457.85 336296 399068 429233 498634 293690 328529
2460.75 227301 290919 420516 237199 399247 538996
2463.64 420945 151751 683238 297831 191741 527643
2466.53 296836 148221 171974 346979 246378 415448
2469.42 414510 164132 215809 250540 548564 206982
2472.32 538561 553327 558510 198527 392738 279311
2475.21 306324 575940 747667 694006 328894 579808
2478.10 331850 170714 299762 371285 474450 581252
2480.99 495268 447407 290518 698637 549813 531405
2483.89 391367 553713 673390 450811 536737 595888
2486.78 238801 708805 825915 722312 502369 533715
2489.67 1120284 624233 556882 1061926 671936 584274
2492.57 877415 851557 544714 973814 880645 593305
2495.46 880695 779970 380244 828932 730840 666053
2498.35 787930 870277 909806 897191 962908 680689
2501.24 880383 892291 931353 992372 1135755 855939
2504.14 1217958 852699 986637 1147311 1056214 895067
2507.03 1193024 1257388 1260019 1105248 862143 1401307
2509.92 1256031 866627 1113929 1250648 1132893 1406384
2512.81 826736 1128998 1227214 1175175 1195850 1484796
2515.71 1200251 1484893 1275501 1341660 1085367 1398513
2518.60 1447821 1331872 1289699 1545556 1686725 1577851
2521.49 1714551 1514975 1308037 1183454 1603639 1500371
2524.39 1643958 1467105 1423488 1961631 1844079 1949366
2527.28 2035014 1848172 1920800 2166857 1744210 1802208
2530.17 2404303 1673837 2149183 1900600 1848925 2202794
2533.06 1794394 2026509 2055636 2192252 1996038 1900309
2535.96 1843583 2104798 1830449 1971067 1884981 2023274
2538.85 1738627 1959129 1684595 1968279 1753411 1952217
2541.74 1504735 1650512 1523462 1580720 1645341 1506904
2544.63 1288453 1785695 1592181 1699633 1507124 1415429
2547.53 1386205 1613639 1595175 1611436 1777217 1556288
2550.42 1852435 1205495 1278621 1577655 1275631 1492898
2553.31 1515948 1525566 1329723 1552569 1694437 1685358
2556.21 1520190 1406902 1482604 1451897 1688401 1446740
2559.10 1329164 1726971 1726485 1709653 1480146 1706526
2561.99 1359980 1239737 1521715 1457454 1625111 1332238
2564.88 1505419 1650084 1202621 1570226 1687893 1458796
2567.78 1999954 1638200 1571129 1540020 1641761 1423181
2570.67 1216120 1439989 1713055 1337838 1567773 1539218
2573.56 1569682 1714372 1677630 1369922 1042633 1515995
2576.45 1678356 1622068 1179722 1573496 1563160 1483711
2579.35 1520406 1856075 1919516 1447274 1948657 1677580
2582.24 1478840 1637653 1641554 1588301 1789570 1870886
2585.13 1667977 1749231 1430588 1462316 1735005 1780510
2588.03 1961545 2005806 2133534 2205210 2219623 2112777
2590.92 2000370 2239951 2184095 2219763 2483561 2643305
2593.81 2152344 2538677 2722278 2591948 2211862 2522739
2596.70 2710843 2717178 2548927 2491807 2773246 2752178
2599.60 2831161 3246115 2801930 3278043 3085472 3602985
2602.49 3379862 3135126 3609584 3734141 3676685 3809598
2605.38 3958676 4201869 3812652 3745768 3784052 4172073
2608.27 4266719 4045118 3894818 3965640 3933382 4042360
2611.17 3782811 3998974 4319090 3926079 3993126 3722106
2614.06 4354982 3909954 3772414 3687686 4174375 3944662
2616.95 4011189 3680554 3960500 3895079 4018320 3755563
2619.85 3635503 3715785 4012105 4153366 3836879 3774882
2622.74 4072660 4032063 4234890 4210673 4232340 4325841
2625.63 4679703 4210201 4680679 4369524 4609098 4941332
2628.52 5047950 5401809 5714651 5367974 5703620 5678416
2631.42 5577811 6153174 5950545 6184513 6643011 6742281
2634.31 6595922 6918731 7147045 6974442 7306046 6951195
2637.20 7053161 7459790 6858566 7231532 7337419 7179831
2640.09 7133201 7156634 7021430 7414487 6924337 6994230
2642.99 6750326 6901520 6683002 6725801 6700641 6337356
2645.88 6509637 6304313 6717828 6223306 5974101 5985893
2648.77 5590306 5523886 5438765 4891177 4698915 4645234
2651.67 4313350 4026393 3891194 3929096 3952154 3653738
2654.56 3714584 3629515 3528126 3123173 3045615 3039692
2657.45 2688360 2637862 2673779 2493000 2780519 2425783
2660.34 2640717 2083263 2191118 2270923 1912581 1609305
2663.24 1716734 2171027 1804358 1835627 1763437 1404589
2666.13 1459071 1972103 1907536 1665632 1615058 1661571
2669.02 1800782 1846407 1450806 1520893 1605095 1916188
2671.91 1543187 1819980 1657484 1522397 1539468 1709423
2674.81 1386744 1260864 1680783 1461954 1655072 1453880
2677.70 1627811 1265448 1587605 1300890 1632754 1282535
2680.59 1228516 1459462 1543628 1748076 1495235 1351538
2683.49 1667741 1214840 1350279 1181589 1380261 1299540
2686.38 1420826 1546973 979456 1092973 1289598 1421260
2689.27 1717382 1878199 1708080 1756318 1417381 1900821
2692.16 2208727 1958660 1816439 2131164 2368574 2458481
2695.06 2165895 2834557 2678823 2279732 2771594 2835717
2697.95 2794930 3102266 2944352 2681186 2970622 3041995
2700.84 3162347 3318359 3528705 3482082 3538563 3480287
2703.73 3696909 3865717 3201988 3296778 3312426 3511548
2706.63 3522449 3689015 3632709 3583103 2896122 2989364
2709.52 3302872 2913296 2583890 3035838 2626326 2573589
2712.41 2672324 2608164 2452105 2037121 2657715 2683143
2715.31 2558434 2204616 2245533 2304557 2190370 2386170
2718.20 2149043 2584154 2026312 1990908 2267368 2431308
2721.09 2537490 2659271 2650293 2551134 2587554 2332756
2723.98 2588070 2965972 2644809 2948602 3187622 3359054
2726.88 3637584 4106961 3852837 4226762 4565918 4340439
2729.77 4875309 4636029 5114560 5156866 5241908 6002020
2732.66 5348138 5725271 5760084 6113678 6617608 7434692
2735.55 7698974 8349393 8119904 7940533 7440907 7095999
2738.45 6956499 7425838 7579252 7586227 7312135 7659861
2741.34 7752054 7942846 7933507 7771509 7411799 7577853
2744.23 7367591 6963347 7263195 7295581 7012569 6862977
2747.13 6685062 6648986 6551151 5941471 6370683 5921846
2750.02 5674447 5926090 5464338 5698627 5760151 5433481
2752.91 5052223 5147511 5271990 5371808 5367558 5161005
2755.80 5277383 5041188 5061942 5237343 5249487 5223916
2758.70 5675910 5368377 5416213 5620104 5875604 5762210
2761.59 5894190 5809385 6039231 6085981 6546739 6278949
2764.48 6428628 6661951 6478620 6855549 6835379 6956337
2767.37 6768519 6884588 7181147 7418028 7646398 7632110
2770.27 7578981 7690531 8121919 8507920 8189933 8830768
2773.16 8874099 8804389 8916444 9194643 9693101 9507544
2776.05 10058416 10362770 10078165 10486918 10438560 10792265
2778.95 11015916 11311195 11352729 11463706 11858861 11791704
2781.84 12448892 11850207 11973752 12728054 12688428 13001385
2784.73 13095776 12967836 13360304 13308491 13267327 13229398
2787.62 13255044 13410137 13834466 13821970 13704337 13473829
2790.52 13694654 13558565 13984693 13751753 13938406 13600875
2793.41 13496472 13297261 13166637 13105410 13069528 12591717
2796.30 12334572 12374203 12745714 12695867 12637391 12266014
2799.19 12070034 11485008 11944156 11485926 11338412 11365318
2802.09 11163095 10910943 11112163 10809941 10400705 10757777
2804.98 10859812 10852208 10676441 10289129 10308921 10721140
2807.87 10586308 10695721 10653547 10852273 10905912 10979008
2810.77 11110791 11133818 11065731 11131565 11465844 11532468
2813.66 11924605 11606670 12259846 12411396 12308729 12407072
2816.55 12868370 12946580 13254222 13289243 14037361 13966076
2819.44 14454978 14409109 15072252 15323346 15543186 15948187
2822.34 15668725 16365783 16707058 16997417 17722388 17629749
2825.23 18261577 18621187 18639979 19593363 20035208 20452961
2828.12 21045439 21145778 21822676 21885888 22567719 22665385
2831.01 23049344 23856474 23498097 24044026 24312866 24582779
2833.91 24580154 25088488 25425175 26345868 26646907 27185179
2836.80 27687261 28552149 29009828 29710672 29993829 30608600
2839.69 31227643 31959990 32295015 32744369 33028138 33554040
2842.59 33803068 34247256 34921102 34981165 35903258 36408196
2845.48 36585290 37888344 38251079 39396752 39744420 40026781
2848.37 40804271 41423568 42184218 43747875 44787304 46368877
2851.26 47438420 48565813 50326647 51382364 53351153 54434047
2854.16 56605933 58533032 60315372 61826740 64018754 65834893
2857.05 68109365 70853446 72896730 76008818 78893281 81615406
2859.94 85088982 88287335 91608783 95753580 99181192 102865019
2862.83 107199525 112000933 115731792 121233847 126000858 131369945
2865.73 136408915 141499707 146094809 151056314 156297257 161315787
2868.62 167335442 173077130 177477537 182879701 188157199 193318100
2871.51 198369722 202848091 207703233 213137660 218432699 224739727
2874.41 230986501 237854582 246831297 255402546 268185379 279836347
2877.30 286723432 286023774 280937367 279236857 279824384 282979973
2880.19 285373718 288999850 291475098 293422162 293987224 292871445
2883.08 291564272 292536501 298159094 320341902 335743401 327031347
2885.98 323917082 315697163 308333594 300436160 295217530 286112046
2888.87 279055941 272528747 268729263 266707237 263923229 261025260
2891.76 259350159 256226081 252933635 249802334 246416164 242897193
2894.65 239225667 236260145 232922456 228859806 224914426 221357646
2897.55 218083471 215164375 213028202 209710685 207304345 205729511
2900.44 205335918 204023722 202899910 203053395 203460770 203906367
2903.33 205450868 206029219 206944898 206800528 206661252 206372462
2906.23 205245574 202753322 200771202 198427080 196142091 194008963
2909.12 193018692 193197317 194464957 196414076 197174523 197688835
2912.01 196684055 195952562 195389410 193783051 192120132 190501699
2914.90 187779788 186428781 184138727 182280763 180543587 178504531
2917.80 176556554 175560025 174116063 173672277 173034880 173097387
2920.69 174435474 175458452 176962785 178807451 180988307 183028915
2923.58 185690399 189252108 193391659 197769423 202907455 207770525
2926.47 213071561 218531447 224276563 230102553 236409799 243638459
2929.37 250858893 258165516 265606756 273082559 281837890 289851475
2932.26 299372775 308622356 318055185 328241089 337172496 347399758
2935.15 358208486 367850171 377694334 386183189 393534781 400056864
2938.05 406425027 412483358 419384080 429656881 442726349 463574737
2940.94 497110809 532857473 534976457 504829540 473417603 460354612
2943.83 452989130 446679849 440734822 435523821 431267258 430660599
2946.72 431430980 431878070 428671861 427731024 425693265 419417830
2949.62 417348763 411982860 391028666 379220626 374793461 370697094
2952.51 365995011 360975231 354725383 346576460 338063565 329218489
2955.40 320661223 312923119 304652714 297357564 292332450 288608393
2958.29 286886158 287102999 289448058 293223768 300452710 310403178
2961.19 321499700 339924671 361736444 383167720 411469361 442929438
2964.08 479644405 520740439 563199607 608514528 655808002 704250833
2966.97 753231437 797553035 838386461 872200529 900049197 916368553
2969.87 923961416 921860934 910926702 893034708 878577132 879555791
2972.76 909467521 968776489 1033993001 1040499694 996130768 938195712
2975.65 896113594 877051958 880503347 895866190 915466103 932644990
2978.54 945188220 949050853 944012507 928415581 902532679 868641219
2981.44 827853476 780683386 732159531 681470450 629221212 579993399
2984.33 531962655 487642333 446612245 409656097 376087825 345572064
2987.22 318377980 294857354 273820550 254392665 238103054 222625282
2990.11 209090812 197124953 185693160 175839759 167182104 158644656
2993.01 150891464 144686797 138191604 132541053 127240548 122870992
2995.90 118038169 114305685 111141416 107140072 104371095 102214587
2998.79 100096722 98359718 97722797 97023143 96752067 96423335
3001.69 95818963 96406282 96362075 96835403 96606861 97730238
3004.58 97866603 98113914 97528917 97664379 97154601 97146502
3007.47 97057173 96790193 96903532 98614598 99823019 103150522
3010.36 106488805 108211801 108554261 107039119 105100721 105890637
3013.26 107807576 110555699 114107340 117947286 122165946 126203188
3016.15 130062132 133864340 137090680 140589231 143784038 147488218
3019.04 151596186 155742758 160941964 166676682 173459148 181370667
3021.93 190046558 199916919 210626906 222964887 236026011 250493388
3024.83 265667915 281313446 298303515 315608103 333495432 351835927
3027.72 369836440 387400376 404734674 421364984 436396106 449347469
3030.61 460054993 467686537 473611141 474556470 473691048 469624524
3033.51 464330911 459660672 458648210 462276301 474711304 490452496
3036.40 512445488 526352536 530711112 528339259 522152959 519862153
3039.29 517866126 517101848 514869837 512480706 510064229 506799836
3042.18 498596380 486620469 474440906 458982670 442500679 426638051
3045.08 409771243 392971556 375890313 359484001 342074410 325000661
3047.97 307941003 290899141 274896060 259165913 244394182 230664818
3050.86 218241379 206960091 196126456 186479618 178257278 170572076
3053.75 164256340 158576923 154401099 150196242 147564863 145178154
3056.65 145239976 144920062 144866512 146189334 148037722 150267713
3059.54 152896493 156516639 161013779 167018347 174226220 182500233
3062.43 190136587 197444251 203805158 211831039 221759445 233047032
3065.33 244354921 255997796 266621154 276263512 286400150 293488318
3068.22 300205840 303558557 306431593 305270004 303613280 301892325
3071.11 301453491 302634878 308379687 317861581 330523527 347458131
3074.00 369180170 388346614 381723108 329633432 302112192 299383658
3076.90 303936994 313230858 323364684 334466607 341566310 347150802
3079.79 348042931 346663119 341564400 333787677 323681553 314368062
3082.68 303053497 289437897 277349223 267022075 257183819 249244290
3085.57 242111320 236539080 230551392 226059615 221791244 218302230
3088.47 214572925 209679306 205569807 201270366 196755797 192186111
3091.36 187387671 183006464 177832034 172417006 167935192 163423970
3094.25 158908639 156786655 153853315 152346571 152397308 153189307
3097.15 154734101 156852451 157484571 157228830 155930382 154125655
3100.04 151222297 148150709 144900216 141329641 137351163 133264484
3102.93 129554562 125869980 121989674 118171552 114513603 111390624
3105.82 108197287 105189736 102878602 100251639 98125929 95674120
3108.72 93516335 91841494 89873394 87634403 86140346 84309003
3111.61 82155886 80089416 77294737 76629144 74374171 73150250
3114.50 71154064 70673730 68820349 66883117 64754537 63206377
3117.39 62683911 61119958 59690986 58407178 57543506 56402249
3120.29 55213465 54182047 52843583 52136331 50228328 48542093
3123.18 46869404 44629058 41841434 39911235 37014177 34136390
3126.07 32527550 29948863 28120707 25726496 24168332 21912521
3128.97 20711324 18839596 17714208 16771312 15186995 14935829
3131.86 13845472 13182277 12714882 11949580 10915739 11157937
3134.75 10733667 10442422 9614710 9234348 9411681 8842139
3137.64 8664693 7876999 8258764 8105184 8105043 7719841
3140.54 7903125 7367984 7387384 7261411 7353528 6870505
3143.43 7159160 7129558 6905855 7219786 7248421 7111680
3146.32 6889479 6684485 6993100 6965357 7322906 7359898
3149.21 7140860 7124358 7035166 7033246 7138533 7181405
3152.11 7221290 6971482 7327021 7149103 7154311 7275127
3155.00 6917069 7400384 7256333 7306876 7402871 7511629
3157.89 7562513 7754486 7866352 7326078 7848747 7756270
3160.79 7868588 7847811 8206985 8062022 8203537 8791709
3163.68 8448690 8784198 8439120 9568770 9024338 8809718
3166.57 9378803 9269444 9338299 9089486 9536076 9430471
3169.46 10188457 10341435 10364913 10824761 10532889 11153492
3172.36 10616491 11446345 11430099 11681346 11804169 12912317
3175.25 12384095 12798293 12563288 13091868 13093563 12873771
3178.14 13144366 12991839 13396807 12542454 13340364 13610685
3181.03 13633646 13893602 13664377 13483091 13522546 13996784
3183.93 14662346 13563507 14214214 13492610 13141947 13195017
3186.82 13163523 12564334 12718500 11846872 11490085 11154150
3189.71 11283391 11171470 11189999 10600069 10917100 10411745
3192.61 10000242 10089507 9870525 9336337 8779554 8839056
3195.50 8274049 8113641 7896147 7208176 7118317 6682986
3198.39 6465841 5700252 5666237 5183065 4833282 4666398
3201.28 4330969 3720829 4326001 3745085 3649303 3481181
3204.18 3920239 3202291 3043312 2286589 2636163 2242531
3207.07 2411023 2349989 1838967 2155583 1865862 1456978
3209.96 1588226 1724872 1650970 2050702 1629177 1581484
3212.85 1340646 1812118 1792976 1686070 1411924 1289227
3215.75 1206641 1095465 1237131 893068 845295 1250979
3218.64 1501609 851642 1739870 1177451 958218 1057307
3221.53 1362439 942830 867714 804124 933246 896572
3224.43 810024 1427038 1043124 995406 1052345 553322
3227.32 1022078 749290 1024027 774673 876893 850047
3230.21 726639 904665 827588 573964 569281 673785
3233.10 914572 1107931 919332 744446 823124 787678
3236.00 537062 882686 760342 997552 758345 817162
3238.89 1170669 819337 845372 1480717 795469 844667
3241.78 347928 765034 707099 1059708 1009654 1101863
3244.67 903145 967856 1175611 1237848 1300196 1385572
3247.57 1175519 1586058 1478280 1183428 1539478 1601146
3250.46 2084331 1416274 1254789 996197 1359495 1447227
3253.35 1771219 1513100 1025114 923382 1423882 1069735
3256.25 940528 1158510 1051111 1655176 1496097 1533570
3259.14 1342904 1399136 1163867 1523647 1422854 1560299
3262.03 1246307 1573659 1397883 1061695 1759759 1121493
3264.92 1192752 1828742 1696287 1315646 1693948 1034386
3267.82 1436987 1685201 2310209 2127610 1616563 1497531
3270.71 1024808 1345018 1799581 1936848 1445042 1436048
3273.60 986230 1662717 1550968 2215744 1432934 1248325
3276.49 1356848 1374992 1633007 1518416 1363765 1472479
3279.39 1149892 1287360 1196703 1492097 1515310 1084240
3282.28 1063017 1192160 1066265 1259472 1159682 1029272
3285.17 738978 1062362 1140256 759962 901047 986473
3288.07 1229123 698387 683830 805573 1088988 1177057
3290.96 1188233 733071 1043789 756530 785261 1203328
3293.85 1108845 996225 1096881 970531 1098929 1026077
3296.74 830012 1054661 1179477 1043448 1255322 999382
3299.64 595446 765763 1180348 793219 1095758 1020666
3302.53 780199 1341948 1657555 1224341 1110139 1182997
3305.42 970270 486174 1021467 870223 638183 1160971
3308.31 391069 1044388 504848 430842 396158 311607
3311.21 601572 751432 408171 353655 86009 361728
3314.10 443918 719249 659942 116941 543265 507637
3316.99 324168 92030 253224-40809-63163-214782
3319.89-350130-110979 36208 375084 179442 45071
3322.78 142617 37882-138873-96527-58560-132468
3325.67-716936 550779-51229-423883 676635-250613
3328.56 442223-129124 310756 451315-70438 428523
3331.46-114522-198004 174117 136125 4105-376011
3334.35 427578 181948-41205 451450 109532-375061
3337.24-322298-357595-118809 287583-411792 6912
3340.13 406892 451150-479559 82731 72001-126548
3343.03 259008 420392-262242-116114 162711 379801
3345.92-327065 283316 166479-503859 990189 330683
3348.81-84206-86182-350716-256050 33078-453829
3351.71 727091 47676-169208 165513 133310 438084
3354.60 48877 68380 61302 16690-313118-654786
3357.49 114636-150439-15071-545740 258497-491019
3360.38-256295-526777 219044 373276 493867 547446
3363.28 347121 226967 165419-855646 303362 111561
3366.17-422617 312253-237830 100214-453969 46048
3369.06-257586-45452-613642 223178 47368 23671
3371.95 112304-162747-170668 11444 74366 162876
3374.85-502308 122944-772504-294028 236710 715879
3377.74 167377 377983 428070-182255 335718 398314
3380.63 142385 28909-215834 6831 580402-89868
3383.53-567074 92529 213702 256167 447830-216684
3386.42 520269 232233 57349-265649 98210 85158
3389.31 131350-61768 328348 93795 16234-222155
3392.20 48464 10627-261930-108340 493738 589858
3395.10 640663 129249 93142 126899 519934 211288
3397.99-248803 426520-140029-228386 78304 110960
3400.88 560404-502579-140235-327953 254800 104643
3403.77 169788 136480 126834 351584-220387-70253
3406.67-124106 199512-315326-424080 179770-99314
3409.56-402172-110590 540966-173486 239379-156392
3412.45-558172-562469-146468-651286 365411-426589
3415.35-22147-653879-687248 35423-423313-405376
3418.24 100879 7052 57203-279163-232174-140008
3421.13-206264-265398-270823-516813 149539-242651
3424.02-635249 111985-104855-67953-124357 403017
3426.92-185927-482109-794256 44845-474698 280011
3429.81 173214-25716 75721 147520-81000 500746
3432.70-236707 5555 472014-416544 147056 182944
3435.59 557311-66098 396655 64824 345554 101462
3438.49 449726 187762-56265-138070 23200 66424
3441.38-156221 384819-190413 470852 469144-235183
3444.27 604357 285225 778944 389552 175673 180812
3447.17-189025 250984-407876 177651 20453 265033
3450.06 69019-272904 304918-143310-632238 3424
3452.95 163643-159827-112385-227359-300866 301771
3455.84-252929-440563-283874-259862 180567 29999
3458.74-321227-489917 145308-627893-608397-339113
3461.63-116986-492980-652749-456449-101939-260956
3464.52-498425-901591-536777-264410-182846-93233
3467.41-178930-617939-270592-1145484-1049422-670982
3470.31-386782-790934-14263 8193-312229-768299
3473.20-112922-255714-454093-343965-434580 98628
3476.09-755411-242292 23808-717593-607713-1008065
3478.99-321843-395658-348213-29184-708805-872787
3481.88-821459-343835-1182694-272274-887135-87398
3484.77 9172 271047-463374-831293-724960-311662
3487.66-837874-400866-843249-685067 44334-853864
3490.56-984425-964345-903332-1158522-214341-1100219
3493.45-885969-548254-563248-928461-506440-364602
3496.34-581947-818450-594658-723772-351885-525258
3499.23-353489-387628-79859-755102-506080-42048
3502.13-40516-670789-643258-634085-66041 236772
3505.02-219703-132727-255294-323764-981792 1986
3507.91-770318-200309-82101-255410-347985-292584
3510.81-701206-526482-33907-197767-441068-383882
3513.70-213155-235198 174111 326982 481664 278033
3516.59 587438 442511 329074 335621 100251 379585
3519.48 110382 345270 585405 596342 810992 738939
3522.38 562279 1673088 976086 122617 1311194 1019286
3525.27 574367 856602 802407 922940 638637 1180015
3528.16 1496306 1080053 904279 1176694 935190 646398
3531.05 978512 431143 649402 1183559 421196 749900
3533.95 1265593 1000368 1040743 574073 544161 536560
3536.84 753856 683965 345940-216756 159534 539928
3539.73 607709 4577 211844 283898-46985-186574
3542.63-373313-371579-54348-440566 184669-347561
3545.52-10519-34067-301012-18023-275142 32534
3548.41-223505 191793-240604-477636-422452-181714
3551.30-74789-47815-440360-172563-521039-588008
3554.20-453686-557114-590992-609756-252395-159942
3557.09 178818 173820-153001-911344 261978-424438
3559.98 78215-363572-558492-317387-845090-278405
3562.87-203771-148204-229182-168132-288127 41791
3565.77 284806-282202-339808-416104-423149-448054
3568.66-316279-106996-462280-536092 96913-582560
3571.55-24040-653553-461678-66029-982929-448097
3574.45-331044-235623-815982 98900-561994-243570
3577.34-73419 141357-283954-540428-363333-361893
3580.23-787815-335251-648448-442462-491148-238894
3583.12-658109 63245-429452-146516-41817 161227
3586.02 66447-439267-171657 279453-606418-1281248
3588.91-738125-370654 216637-163885 35428-87611
3591.80-61366-288848 22943-352423 35688 386028
3594.69-371998 350866-145777-376573 129334-85591
3597.59 37752 35284 154528-133544 115051 41780
3600.48 378032-166884 263829 336918-270006-434386
3603.37-329281 71874 10602-11780-98606-225116
3606.27-584116-117175 320665-163256-23529-1027729
3609.16-510699 447150-176514 453973-208787 289518
3612.05-415063 557483 643983 203239-100690-38171
3614.94 278817-372905 332566 180331 345014 222948
3617.84 349462 710398 252039-276044 631834 711294
3620.73 1135005 808780 1231498 1000448 958472 878036
3623.62 1358916 1223452 944304 1027045 1404317 1046630
3626.51 1731042 1093398 996366-378043 1309872 417517
3629.41 145106 673969 1079940 1154353 1201533 1055730
3632.30 1207003 1580417 830934 1087002 1315787 1637222
3635.19 1220998 1324468 1409922 1425808 1274964 1257429
3638.09 1261969 1394429 1232637 936969 1453978 1246064
3640.98 1225183 893056 1154186 1268684 1444964 1370704
3643.87 1155056 1902964 858684 1677269 1678079 1569960
3646.76 1193761 1357415 2010591 2001642 605941 1801287
3649.66 2120136 2015141 1967114 2110784 2408525 2603069
3652.55 2896426 2979509 3133779 2968833 3234462 2635953
3655.44 2257479 1582546 2362990 2328636 2553062 2835388
3658.33 2779849 2891668 2682133 2752088 2994205 2922515
3661.23 2700637 3179018 3042075 2577618 2730309 2335015
3664.12 2583397 2522496 2419361 1734295 1880205 1891319
3667.01 1750495 1883757 1173046 679778 1698342 963016
3669.91 684259-745887 1544226 1015485 1215235 944010
3672.80 1148512 604969 1052063-236325 373782 143840
3675.69-247916 952398 463165 695767 1062810 1035760
3678.58 603586 319677 609377 1113542 1020983 1276449
3681.48 1143692 888324 938553 500192 636857 1101166
3684.37 873204 1086564 968290 1138257 1236050 870338
3687.26 1264032-686909-243789 1233219 1060749 1277876
3690.15 1030826 798518 1066182 1327077 1343752 1502773
3693.05 714880 1143056 1108334 1432552 1440818 1493367
3695.94 1143118 1340713 832655 896235 1294817 1626117
3698.83 1491227 1246028 1485266 1357819 1008841 668622
3701.73 1385475 1085479 1256461 1450111 1067982 1818898
3704.62 1345230 1535560 1660016 1295278 1167954 1082432
3707.51 1372648 1309394 1116663 567135 1789021 1586119
3710.40 1520070 1576749 603697 90424 1612623 1537611
3713.30 1557790 1527298 1019083 1590391 1111832 1520806
3716.19 1314040 1455787 1941417 1584110 1441842 1414523
3719.08 1868497 1634761 1268311 1898629 1362718 1082459
3721.97 1339325 1283115 1295978 1375689 1806230 1389269
3724.87 1459528 1509511 901062 1227315 1370381 789148
3727.76 1503414 857781 1073437 807684 1139216 1319155
3730.65 1334317 710901-419523 700993 1262109 369352
3733.55 1055510 128921 337394 237590 973685 174630
3736.44 50672 388768 615528 887624 343209 1294537
3739.33 829666 1043031 880269 119447 488814 537311
3742.22 712810 994391 645276-606254-2571096 400127
3745.12 237509 873856 957677 886459 522072 192457
3748.01 828719 231676-1041147 425186 527719 361664
3750.90 440464-907991-1595496 1072586 560293 1103143
3753.79 460449 483257 482412 742541 356278 151678
3756.69 793260 777747 706659 608057 326083 639719
3759.58 301664 989418 257913 1205077 1017360 1161487
3762.47 581296 1067065 796804 1060104 656661 598483
3765.37 149535 508126 542108 1213183 722750 764115
3768.26 722524 1056279 315801 410622 911595 915235
3771.15 852338 977924 1046866 819178 1205656 869840
3774.04 598215 1182148 648641 845753 706853 1008168
3776.94 843012 1097070 826106 1052870 646431 311781
3779.83 1265903 906584 1090934 590561 834109 1368329
3782.72 974026 668929 789556 1191220 476980 595489
3785.61 829706 722677 699789 1025119 1224816 1383251
3788.51 1082657 848579 625989 913584 404354 840350
3791.40 493502 518526 735600 1040164 595503 1058135
3794.29 1131255 683911 641131 35527 365049 358797
3797.19 459027 744074 1086321 792920 896185 864998
3800.08 840441 283260-1086723 821524 869392 798289
3802.97 655644 559211 669318 831818 938150 1209656
3805.86 774942-518679 339508 1275382 984458 1178734
3808.76 1053753 916601 1347762 843482 1161664 808753
3811.65 692516 1222819 766186 1081459 699237 1451217
3814.54 595056 1013583-1039872-130059 1328450 1326566
3817.43 1130251 1182443 788630 900125 703773 869720
3820.33 303492 1113424 497275 1150325 1297260 1119431
3823.22 821685 939010 682810 1028714 776046 1107010
3826.11 1122666 834009 969752 1381385 1051172 1463131
3829.01 1442812 1003256 1201831 1185517 599252 917780
3831.90 1439612 1267767 1711234 1141963 1899824 862530
3834.79 1026067 1456219 1403191 1363225 2287459-647684
3837.68 326909 1842817 1411398 1935714 1516663 2419151
3840.58 968128 1753892 1800285 1740118 1844482 1495801
3843.47 1263895 1862120 1451697 2085332 1609770 1845659
3846.36 1767999 1576669 1719606 2003287 1198244 1527221
3849.25 1289979 1285791 1237330 1515449 436517-566108
3852.15 1275949 757431 260912-1888277-497409 956432
3855.04 840926 964304 990117 845695 621936 896610
3857.93 492735 497638 567423 1124822 779535 619761
3860.83 775442 260060 241167 102507 780918 749205
3863.72 246261-3579-40946 771197 625697 637927
3866.61-5240 408529 252156 915672-125217 383768
3869.50-569193-247794 694486 544355 299900 188678
3872.40 699325 470424-176228-720012-14021 846305
3875.29-181006 329095 92524-123594 53462 55528
3878.18-42684-367200 18597-711541-657027-123977
3881.07-39207 106587-144611-228854 13307-481653
3883.97-557110-56082-1418613-1276740-385363-288247
3886.86-167865-429163-24964 66051-500573 82878
3889.75-211507-327294-1147311-28432 163563-116321
3892.65-317819 98879-340008-102796-56362-249008
3895.54-168175-236223 48639-63257 179913 70378
3898.43-23823-672813-582372-21103 167442 267662
3901.32-660246 76406 532053 574421 158217-565334
3904.22 122315 630214 49664 62875 447850 661544
3907.11 518511 988594 793482 279020 704102 780478
3910.00 858248 457609 1303408 750823 913870 738075
3912.89 1010259 835443 780333 408064 1121126 1385311
3915.79 1225431 958697 503519 1007688 1523655 1235921
3918.68 1232615 1538712 997428 1207839 1559510 1243930
3921.57 1509121 1561730 1651410 1975785 1775838 1874852
3924.47 1611586 1899783 2377051 1705235 2091266 2349376
3927.36 2447365 2467356 2535527 2683386 2603626 3051461
3930.25 2855447 2932820 3001921 2246188 2824923 3393832
3933.14 2972842 3125009 3565924 3566247 3327952 3643050
3936.04 3793226 3496361 3735211 3243541 3787729 3810875
3938.93 4134867 4064572 3613262 3622913 4143929 3761130
3941.82 3210931 3205039 3497544 3743544 3267963 3502198
3944.71 3377606 3639201 2892422 3670938 3119073 3344839
3947.61 3077408 3151896 2486522 2374211 2683526 2414048
3950.50 2704177 2747473 2631878 2840123 2102558 2331422
3953.39 2520730 2415165 2382754 2084525 2255996 2152110
3956.29 1925255 2228059 1741536 1897310 1540228 1856748
3959.18 1510425 2267870 1780218 1886124 1997233 1830337
3962.07 1725104 1653977 2030611 1969466 2057785 1733322
3964.96 2086166 1960320 1924357 2221012 2150761 1792359
3967.86 2256211 2559776 1924812 2388539 2725526 2460757
3970.75 2093519 2604685 2335630 2078751 2151082 2285313
3973.64 1946996 2278148
##END=
