##TITLE=Ethylbenzene
##JCAMP-DX=4.24
##DATA TYPE=INFRARED SPECTRUM
##CLASS=IUPAC A
##ORIGIN=NIST, Analytical Chemistry Division, 301-975-3108
##OWNER=COPYRIGHT (C) 2001 by the U.S. Secretary of Commerce
##DATE=01/06/01
##$SPECTRA VERSION=1.10
##$UNCERTAINTY IN Y=2.1 % relative (B=1.13E-04,C=1.09E-9,D=2.34E-14)
##CAS NAME=Ethylbenzene
##CAS REGISTRY NO=100-41-4
##MOLFORM=C6 H5 C2 H5
##MP=-94.97 C
##BP=136.2 C
##$NIST SOURCE=QUANT-IR
##SPECTROMETER/DATA SYSTEM=IFS66V (Bruker)
##INSTRUMENT PARAMETERS=KBr Beam Splitter; MCT Detector; Multipass cell
##STATE=gas
##SAMPLE DESCRIPTION=Ethylbenzene Primary Gas Standard
##PRESSURE=101.3 Pa
##TEMPERATURE=23 C
##SAMPLING PROCEDURE=1 L/min Flow
##RESOLUTION=1.9290
##DATA PROCESSING=Triangular Apodization
##XUNITS=cm-1
##YUNITS=(micromol/mol)-1m-1 (base 10)
##XFACTOR=1.0
##YFACTOR=4.5474E-13
##DELTAX=0.9645
##FIRSTX=575.652
##LASTX=3974.606
##FIRSTY=4.46E-06
##MAXX=3973.64
##MINX=575.65
##MAXY=.000445
##MINY=-4.00E-07
##NPOINTS=3526
##XYDATA=(X++(Y..Y))
575.65 9822587 9317269 9058415 8499242 6739572 4743233
580.47 3845336 3424532 3449568 3353695 2694652 2572368
586.26 2343641 1874075 1934998 1564681 1347994 775161
592.04 447214 203003-247493-87381-209642-166449
597.83 577939 872120 877403-222077-672068-242510
603.62-573079-340485 127601 151758 168890 455429
609.40 151342 356085 536036 129225-239409-342412
615.19-49487-114877 205510 650244 416903-89303
620.97 144892 493022 570183 1139206 1565673 1721368
626.76 2562000 2324710 1242934 1211017 1379822 1485307
632.54 1716368 1861155 1667725 1736629 2202329 1620433
638.33 1042160 1035771 924292 731211 845276 1009621
644.11 814816 559314 555866 649351 479944 665678
649.90 972872 843576 752459 1120706 1720650 1991783
655.68 1959437 1967225 2146510 2383152 2976119 3557129
661.47 4098825 5131733 5870585 6853791 8730545 10158061
667.26 12198670 15206804 18721773 23463279 28652708 35006954
673.04 42555259 51160739 61979024 74227481 88424880 104259554
678.83 121355350 140567703 161295040 183121862 205897745 228914589
684.61 251807742 275586851 303290360 327668929 340446430 353349836
690.40 373378277 397101227 427003810 461975874 509176282 601767253
696.18 737851768 681282538 494433699 434763118 420130269 406483461
701.97 396812025 386026020 376803984 368863214 358163106 338134586
707.75 317064805 298650282 280125935 261691139 244239625 227348906
713.54 211755224 198526038 187842325 179411379 173803176 170494445
719.32 168954930 169504452 171560396 174689520 178518914 182669773
725.11 186741241 190282892 194206775 198150400 202280321 206908408
730.90 211243030 215967247 221730610 228192880 234705679 242072651
736.68 248568571 253986543 257848534 260646043 259791167 261081019
742.47 260859712 260318026 261256840 255882113 251803491 253307246
748.25 252559702 269585913 300242786 276797000 242696072 227833025
754.04 216581832 209080067 197790762 190390294 182864138 176210082
759.82 169020763 162281793 155729793 149597550 143251048 137530950
765.61 132227500 127913850 124711077 123223990 123032164 131966729
771.39 137512901 116558106 96322001 90417681 86490448 83145841
777.18 79749077 77017391 74123407 71201948 68105026 65231915
782.96 62064303 58758518 55406327 51976643 48589259 45397120
788.75 42332487 39413382 36507121 33923584 31921058 30089313
794.53 28602355 27476738 25886323 24263136 22730711 21495249
800.32 20367056 19309104 18215494 16758726 15449285 14715192
806.11 14152195 13150989 12186296 11509366 10808466 10197356
811.89 9357590 8660538 8194653 7745666 7184983 6442734
817.68 5969905 5698196 5238344 5065650 4816973 4558368
823.46 4487020 4035864 3405863 2985129 2952189 3187056
829.25 2821996 2350254 2097028 1928643 1742711 1535195
835.03 1347588 1416580 1543923 1213392 1104638 885771
840.82 540567 568068 791113 667545 429069 274727
846.60 97633 46451 221857 111964-134916-56314
852.39-5883-139039-385259-463312-421504-306174
858.17-170711 95523 22478-323216-280525 59453
863.96 244296 209466 365310 623078 890805 1275184
869.75 1593105 1804590 1926339 2307549 3073430 3587097
875.53 3753988 4207973 4670863 5237257 5931068 6438590
881.32 6933253 7532643 8319336 9292858 9899086 10684402
887.10 11639804 12435879 13277615 13782910 14199254 14737223
892.89 15127921 15719397 16100671 16485445 16957607 17927359
898.67 19124073 21349039 24280688 32535500 40150400 30158894
904.46 20038312 18941075 17984833 17340199 16768785 16448665
910.24 15678448 14600057 13704933 13015792 11983013 10954175
916.03 9620777 8209255 7103527 6037030 4914276 3885278
921.81 3091456 2457569 1942639 1421947 866945 555827
927.60 374854 317266 362322 308089 97027 84697
933.39 79471 3917 108001 191303 97187 197974
939.17 279134 271060 369012 475618 747921 1148683
944.96 1542875 1845993 2282839 2976962 3939608 5129029
950.74 6555032 8538828 10713683 12983831 15602521 18385958
956.53 20612036 22010380 22749979 23323072 24509118 26587047
962.31 28654784 27646168 25331562 25571061 26956345 27964917
968.10 28049466 27059264 25061994 22361779 19624447 17175935
973.88 14992076 13097399 11402988 10149782 9019497 8096734
979.67 7304346 6098010 5209895 4850267 4630308 4374028
985.45 4195585 4234249 4351127 4273768 4370237 4631260
991.24 4832323 5050725 5164723 5404866 5738878 6100097
997.03 6661180 7338473 7915534 8284599 8297154 8274603
1002.81 8390488 9026568 9784088 9915411 9928961 10209475
1008.60 10686317 11418467 12358450 13378007 14577956 16047055
1014.38 17813963 20136608 23008822 26421068 30710999 36093580
1020.17 42123195 48546846 55234169 61129325 64749516 66178013
1025.95 65586981 63882394 62856231 67666562 76316214 76145789
1031.74 72653874 71487256 70825625 70995777 69788179 67373280
1037.52 64181002 60776878 57266864 53972069 50597232 47344398
1043.31 44620752 42308795 40553608 39225976 37842999 36869181
1049.09 36446491 36533335 37121170 38452860 40974604 44915419
1054.88 49585086 54305225 58467197 61709419 63285994 62514298
1060.67 59618164 57005304 58786413 67845097 69325785 55891660
1066.45 50794617 55836879 59656404 60417083 57337309 51782948
1072.24 45009819 38486419 32898703 28623655 25813939 24150714
1078.02 23419243 23516450 23766118 24214925 24735618 25087563
1083.81 25109249 24840053 24074451 23022270 22210664 22082631
1089.59 23177850 24954025 26230907 26478437 26116107 25774170
1095.38 25252558 24356216 23632387 23061615 22590887 22353280
1101.16 22120042 21734058 20978536 19877990 18385766 16740647
1106.95 15690128 15376703 15380621 15704656 15883273 15658402
1112.73 15441309 15020125 14045446 13112250 12249082 11190424
1118.52 10375294 9625950 8774831 7938920 7306458 6701875
1124.31 6033630 5580930 5132337 4684527 4335186 3937818
1130.09 3574834 3639836 3551563 3170152 2960154 2855818
1135.88 2708386 2437275 2237354 2123793 1983830 1873245
1141.66 1760581 1743908 1648298 1363780 1286673 1422853
1147.45 1438528 1483461 1421380 1210563 1124121 984992
1153.23 731493 514690 387346 418972 502885 524664
1159.02 561150 577924 518921 395272 239665 149786
1164.80 140471 58079 63458 89769 80454 80363
1170.59 82198 141558 67473 63961 233519 269375
1176.37 464754 748524 672874 597134 721625 827214
1182.16 1000145 1140819 1208212 1461113 1524250 1433532
1187.95 1512089 1735624 1909525 2006621 2200341 2382301
1193.73 2514224 2605938 2618066 2576859 2625043 2778184
1199.52 2805098 2802524 2798227 2703467 2677742 2717417
1205.30 2765964 2736522 2466331 2024910 1771913 1695677
1211.09 1558382 1255991 951700 796442 597373 467063
1216.87 449879 461483 474112 405674 332767 252187
1222.66 243196 272329 347213 565225 879004 1309021
1228.44 1770411 2180734 2611031 3172440 3687669 3990072
1234.23 4092580 4049244 4044901 4246148 4661770 5139612
1240.01 5303052 4979990 4949518 5355712 5596176 5639192
1245.80 5526773 5364521 4981709 4633403 4475587 4272671
1251.59 4099183 3895095 3813365 3877900 3980719 3990215
1257.37 3868860 3724900 3679026 3752991 3775517 3806793
1263.16 3738703 3589237 3608579 3642415 3723163 3767246
1268.94 3703904 3547041 3367720 3406659 3616611 3774146
1274.73 3843235 4040060 4414168 4791303 5052737 5331008
1280.51 5579861 5763694 6034053 6351431 6583188 6902616
1286.30 7361890 7807545 8155485 8483184 8995746 9472974
1292.08 9906047 10341914 10557100 10713632 11123301 11431759
1297.87 11574997 11915078 12095800 12274480 12577608 12723722
1303.65 13022965 13380477 13615283 13830960 13931270 14108590
1309.44 14555889 15244745 16159915 17069917 18304683 19943393
1315.23 21630530 23578417 25843166 28186122 30718306 33421200
1321.01 36421189 39299546 42276152 44273257 44401049 44529373
1326.80 45009787 45751724 46460038 46306345 45506780 44432047
1332.58 42764236 41413129 40413737 38838806 36680553 33987655
1338.37 31040374 28069078 25125042 22379992 20016820 18208900
1344.15 16514210 14970083 13807149 12770822 11826234 11111120
1349.94 10139515 9276793 8978881 8630602 8341496 8125421
1355.72 8313928 8290024 8225773 8452846 8796333 9396809
1361.51 9975921 11018283 12149402 13119251 14515985 15955824
1367.29 17302151 18718427 20269027 21886351 23612822 25089412
1373.08 26518574 28118037 29487096 30666648 34828387 40669894
1378.87 43287061 43512997 40965247 37997072 36662429 36117310
1384.65 35887794 35337683 34735682 34000803 32937190 31600918
1390.44 30009355 28172032 26211407 24236305 22661609 21342745
1396.22 20063697 18766497 17553437 16474331 15578148 14803809
1402.01 14054122 13424335 13069034 12857003 12647282 12537450
1407.79 12395093 12427212 12626165 12772055 12947649 13264009
1413.58 13489985 13686312 13875697 14148300 14243736 14386570
1419.36 15305276 16137002 16754836 17353593 17800740 18347299
1425.15 19005999 19769864 20603421 21514974 22537848 23823064
1430.93 25430721 27317370 29456848 32021550 34780318 37918185
1436.72 42233111 47031355 52126973 57895740 64297248 71521882
1442.51 79583671 88329865 97573778 107420729 117724309 128512319
1448.29 139499450 148869574 156337424 162385993 166453345 168296492
1454.08 168517470 169519988 175655199 185991587 191341267 187487570
1459.86 180871350 178967121 181803681 184233068 182540994 177048230
1465.65 169507144 161875670 154374105 147458265 141992748 136895555
1471.43 124512698 108601859 100669748 95911827 90648233 85089021
1477.22 79154608 73648719 68886064 65263051 62985542 62249958
1483.00 63245837 66319868 71661348 79479284 90189837 103996316
1488.79 120251932 138342466 157723983 176928273 193735864 203966646
1494.57 201722754 192054702 187558610 197497361 220795306 218566014
1500.36 188951588 176608618 181348286 187401866 188309686 179851166
1506.15 162603536 139614761 114389760 90348806 69778644 53327008
1511.93 41295035 32787121 26697356 22436447 19507338 17882370
1517.72 16981341 15738072 14357198 13887821 14055845 14268005
1523.50 14302666 13995660 14024869 14133649 14142577 14208078
1529.29 14120123 13774396 13166884 12385585 11635953 11167340
1535.07 10786985 10822941 11067745 11039404 11309533 11448786
1540.86 10852681 10464741 10189169 9381590 8948515 8842550
1546.64 8595884 8419087 8238649 8124716 8027564 7990716
1552.43 7770595 7526866 7651279 7695056 7127253 6528804
1558.21 6632785 6749588 7079557 7330484 7380891 7449320
1564.00 7457530 7640322 7571251 7486741 7384614 7272033
1569.79 7578402 7932219 8199084 8527427 8913533 8732620
1575.57 9066227 10329566 11248677 11968128 12624815 13323358
1581.36 14132767 15047755 16172478 17615479 19337860 21453028
1587.14 23900364 26574820 29217875 31609110 33723484 35921788
1592.93 38467333 41390713 44987553 49702134 55622758 63702538
1598.71 71850321 79087602 88775552 99112764 107694675 113609272
1604.50 116200042 115594983 112912567 109909417 108518721 110177342
1610.28 111390173 104853403 95817971 93610558 94019360 91723048
1616.07 86195495 77982088 67358641 56158885 45653734 36467211
1621.85 28758656 22721599 18451817 15196346 12668102 10776295
1627.64 9516476 8645083 7885673 7319928 6937101 6699692
1633.43 6256805 5484141 5607219 5887485 5886507 6006318
1639.21 6007190 6024815 6144761 6346701 6625407 6607476
1645.00 6495081 7048874 7566630 7925275 8184613 8319136
1650.78 7864240 7088086 7487159 8518852 8777795 8465794
1656.57 8165436 8013564 7986155 8037070 8134548 7834692
1662.35 7550452 7475232 7314161 7141686 6980067 6676904
1668.14 6240830 6237601 6220934 5920905 5728354 5544197
1673.92 5404894 5579324 5539816 5041262 4805947 4739857
1679.71 4691738 4561347 4148168 3465767 2599824 2635184
1685.49 2938511 2744667 2523412 2315359 2256551 2133176
1691.28 2105423 2039984 1982867 1329152 978144 1656606
1697.07 1846998 1592165 1061535 1300038 1901763 1804800
1702.85 1663984 1652247 1632951 1704747 1917647 1986677
1708.64 1942522 1947876 2072329 2091121 2126408 2057994
1714.42 2099575 2263014 2133201 2448416 2990618 3471090
1720.21 3883007 4315371 4800917 5247471 5795778 6429484
1725.99 7067878 7699192 8495331 9440010 10398808 11278787
1731.78 11899102 12277411 12949913 13812137 14040904 13803967
1737.56 13301724 12220685 11452889 11448965 12046326 13184341
1743.35 14114093 14286665 13765579 12827480 11698137 10600505
1749.13 9500452 8256396 7441877 6770211 5877653 5235866
1754.92 4618131 3918073 3417524 2990759 2674773 2301316
1760.71 1800929 1576452 1493310 1416562 1347751 1377803
1766.49 1369142 1456919 1865463 2129563 2289920 2315566
1772.28 2514800 2820756 2760468 2618823 2727839 3437229
1778.06 4011914 3583239 3445465 4101918 4942292 5797237
1783.85 6648757 7945389 9594226 11475556 13741704 16282156
1789.63 18898455 21308364 23220731 24826883 25826528 25848017
1795.42 25767719 27127470 29882868 31920876 29241133 25891723
1801.20 26919122 28892962 30077320 29670759 26951708 23146813
1806.99 20167889 18046846 16163060 14454123 12864409 11337699
1812.77 9951611 8708559 7525534 6585917 6080163 6089469
1818.56 6350814 6482636 6380604 6116297 5693965 5087415
1824.35 4497058 4088258 3672171 3240858 2838370 2528652
1830.13 2408451 2239649 2046789 1900078 1877993 1885457
1835.92 1868860 1924285 1987170 2085491 2221041 2473440
1841.70 2764014 2868034 3222117 3945057 4550438 5168332
1847.49 5936800 6733876 7578985 8496944 9600259 10960383
1853.27 12477122 14015612 15487800 16825052 18029441 19000383
1859.06 19523232 19571246 19116404 18139491 16962406 16315178
1864.84 17123419 19556462 22209339 23846632 24643489 25103821
1870.63 25455061 25782558 26028129 26025477 25502069 24410802
1876.41 22998582 21288980 20018553 20909866 22165861 18855330
1882.20 14793288 14966676 16398145 16999274 16405406 14788839
1887.99 12472065 9929164 7652262 5728974 4285119 3300433
1893.77 2539776 1991068 1720073 1470063 1233804 1204620
1899.56 1207368 1068985 1036932 1102105 1140223 1152090
1905.34 1121800 1214842 1337607 1393653 1451970 1557250
1911.13 1728971 1951349 2235889 2566690 2932013 3291845
1916.91 3608753 4107973 4738535 5335165 6047486 6805447
1922.70 7656532 8702598 9713376 10774814 12038099 13557635
1928.48 15315840 17164644 19125637 20990180 22703428 24085429
1934.27 24969424 25369018 25102712 24228683 22855580 21351486
1940.05 20636274 21585590 24364627 27503313 29340766 29967902
1945.84 30044832 29892031 29495267 28941313 28396663 27594533
1951.63 26511413 25225955 23734686 22052594 20539463 20478041
1957.41 21393948 18427957 14425509 14524844 15719613 16062195
1963.20 15154830 13224145 10744117 8226644 6060563 4276649
1968.98 2940199 2025015 1459588 1180190 1154459 975793
1974.77 660724 660793 806107 868277 883711 965671
1980.55 1124974 1276311 1339707 1361644 1316401 1097216
1986.34 893697 938122 1005718 906369 754701 708957
1992.12 842166 859752 721742 558312 494005 441240
1997.91 358579 330424 227246 188591 153205 2002
2003.69-23732-3129 2728 59459 37384 73779
2009.48 80323 54285 95091 155678 260758 344368
2015.27 384657 456804 581171 724831 821545 842565
2021.05 881686 899105 1012415 1136385 1067683 1072739
2026.84 1129647 1189367 1304471 1304482 1285966 1281880
2032.62 1067598 885538 887360 903348 880964 775339
2038.41 669700 589214 529767 490013 404925 255646
2044.19 188530 137783-3911-160932-192855-221338
2049.98-359281-474333-576845-602004-570001-469734
2055.76-455963-579655-692334-742539-734089-787499
2061.55-819733-812593-818018-788271-816397-881494
2067.33-888307-835763-718330-729178-867750-887796
2073.12-858366-817405-789134-780269-791769-788399
2078.91-786521-812341-742007-703340-687218-660008
2084.69-630167-643390-662678-563493-439157-461800
2090.48-497195-500928-508641-436733-420551-435062
2096.26-364318-284291-264790-255768-266914-299790
2102.05-287593-331608-403471-415623-382457-328879
2107.83-298768-334968-358033-293300-318709-348437
2113.62-328913-263699-225578-126776-67825-73122
2119.40-39646-17675 59079 119464 166599 190969
2125.19 177673 158894 190480 138168 58244 105464
2130.97 122801 197142 241215 145018 28358-62304
2136.76-96594-99533-2636-20093-87362-116802
2142.55-120634-58778-37071-36121 3713 3089
2148.33-46229 17546 52788-19147-33259 10207
2154.12 8662 38651 53353 5853 5130 27007
2159.90 36208 38819 144070 212322 181043 168073
2165.69 162192 205243 245185 250282 233254 205997
2171.47 149227 182860 271541 269900 194832 225376
2177.26 350526 365009 289533 262687 251316 186830
2183.04 236128 270972 226096 212689 277682 314612
2188.83 271630 173924 93478 112671 150579 160131
2194.61 121340 63172 106030 117456 103102 171142
2200.40 195920 281507 359627 303466 299446 412896
2206.19 550696 695376 640705 669724 800538 798147
2211.97 905329 985253 1018926 1055670 1023613 1096926
2217.76 1194262 1178578 1237282 1251504 1267168 1309737
2223.54 1286383 1289349 1276802 1271197 1253485 1285178
2229.33 1391118 1434701 1447377 1431683 1478826 1562246
2235.11 1523649 1499009 1529473 1502223 1477497 1486312
2240.90 1466177 1413815 1413449 1436382 1409340 1385272
2246.68 1370538 1363454 1271582 1214533 1198231 1178576
2252.47 1174861 1110577 1102840 1062910 1125482 1316906
2258.25 1350186 1266972 1286431 1358946 1407335 1566009
2264.04 1592664 1495801 1623143 1721095 1743407 1815067
2269.83 1960265 2135749 2126027 2056895 2192608 2325467
2275.61 2292962 2337931 2382196 2389574 2470019 2450881
2281.40 2471513 2520475 2461815 2419850 2375464 2303308
2287.18 2265178 2283052 2312688 2297605 2226773 2088016
2292.97 1995589 1922844 1843303 1762543 1648735 1576651
2298.75 1528593 1595939 1624577 1612248 1807259 2035870
2304.54 2371988 2795815 3170428 3397274 3622264 3646869
2310.32 3325712 2970637 2784914 3416335 4343392 3775420
2316.11 3024245 3265649 3507292 3827129 3845269 3639249
2321.89 3436430 3171825 2856436 2677750 2594199 2619257
2327.68 2722753 2969413 3169761 3365395 3611005 3744849
2333.47 3839181 3875357 3981581 4216111 4439789 4639296
2339.25 4799209 4741100 4556016 4478126 4489057 4523659
2345.04 4508076 4530723 4528991 4411183 4107482 3769514
2350.82 3460913 3089021 2868664 2642520 2317558 2069552
2356.61 2015196 1925139 1802131 1657867 1590876 1601928
2362.39 1581190 1498089 1368651 1327415 1410121 1519576
2368.18 1659232 1860852 1968427 1980554 1871576 1860367
2373.96 1958468 1925295 1799504 1743804 1693344 1619789
2379.75 1706685 1700820 1623940 1542418 1435288 1365209
2385.53 1245465 1109173 1048270 983595 809559 753418
2391.32 834765 758601 678257 615474 571193 634245
2397.11 650246 673094 702556 749136 817642 825295
2402.89 807495 871528 999515 1133515 1248735 1236763
2408.68 1277471 1392287 1442025 1502799 1554490 1580075
2414.46 1544698 1657646 1822075 1610057 1480620 1618722
2420.25 1668643 1615943 1606003 1615854 1555548 1604731
2426.03 1711162 1778827 1865037 2041009 2186900 2271013
2431.82 2357350 2502285 2579222 2661762 2782563 2868057
2437.60 3083925 3114186 2902477 2765886 2710105 2617374
2443.39 2536221 2560305 2543699 2311102 1966073 1733151
2449.17 1549380 1359579 1250067 1073729 895116 815569
2454.96 710078 581537 482791 472438 460201 388995
2460.75 373005 419818 455319 447394 422795 387776
2466.53 317378 333406 387840 343043 363787 458979
2472.32 510730 439135 408231 563499 610540 483925
2478.10 381350 443997 535713 517874 562225 572985
2483.89 577884 597411 562031 661145 716887 737765
2489.67 798578 797735 795377 811572 838812 824420
2495.46 756583 747365 802762 887416 930373 900997
2501.24 943657 1033898 1059035 1060157 1079310 1124917
2507.03 1205587 1185426 1188398 1169953 1204084 1212032
2512.81 1176387 1265151 1351327 1383616 1342348 1375427
2518.60 1433440 1534918 1642178 1536125 1468375 1572832
2524.39 1622839 1789281 1943381 1971783 1972104 1994582
2530.17 2018795 2000917 2006550 2044981 2072841 2002247
2535.96 1974303 1970612 1938094 1888663 1874006 1804336
2541.74 1674752 1638293 1592831 1636225 1646940 1555103
2547.53 1593276 1684831 1675057 1528827 1467669 1525062
2553.31 1533511 1599485 1639015 1560344 1566666 1577029
2559.10 1642001 1693817 1577990 1496634 1537209 1556724
2564.88 1540743 1583151 1705675 1719436 1630128 1526842
2570.67 1524228 1578320 1615957 1657645 1509708 1517796
2576.45 1585158 1556150 1640390 1760420 1798964 1738221
2582.24 1696924 1754644 1823022 1733473 1706247 1888058
2588.03 2087511 2205423 2210798 2236545 2384726 2486891
2593.81 2564805 2581562 2607029 2701982 2719224 2878678
2599.60 3051974 3213737 3380179 3484364 3667763 3874259
2605.38 3965052 3923649 4058323 4092772 4008229 4004153
2611.17 4067430 4069175 4041914 4005531 3964026 4017092
2616.95 3963217 3975803 3902101 3923117 4038825 4039719
2622.74 4170863 4310777 4449730 4557565 4661109 4968630
2628.52 5372559 5592705 5734866 5970063 6306914 6624186
2634.31 6864998 7037427 7091927 7121560 7166243 7169997
2640.09 7130636 7095395 6942901 6799844 6685359 6511562
2645.88 6429301 6239029 5879487 5517877 5075957 4629513
2651.67 4244794 4014019 3862226 3655783 3356973 3056645
2657.45 2832940 2739167 2636799 2430261 2214816 2007362
2663.24 2012305 1934221 1774896 1870165 1864811 1828643
2669.02 1809623 1739159 1811576 1801384 1731003 1659832
2674.81 1608683 1660585 1655069 1592675 1580821 1525663
2680.59 1577638 1675662 1615672 1515670 1452687 1507461
2686.38 1471163 1398377 1626922 1854405 1852362 1990799
2692.16 2137201 2265448 2492382 2648605 2729811 2890629
2697.95 3025059 3029025 3169837 3414591 3559669 3655760
2703.73 3639365 3490015 3555740 3662957 3475628 3228065
2709.52 3090481 2927606 2831111 2694279 2616542 2676804
2715.31 2558056 2455448 2496084 2461989 2416649 2592562
2721.09 2782692 2776843 2793852 2971714 3220674 3616276
2726.88 4044483 4383315 4704058 4993726 5354431 5689191
2732.66 5902055 6398654 7276010 7913352 7808368 7405279
2738.45 7458671 7607528 7713895 7882331 7792666 7549186
2744.23 7365514 7251113 7028463 6744839 6457700 6186991
2750.02 5974492 5871461 5666522 5493788 5550515 5506673
2755.80 5425693 5471029 5624232 5736710 5893701 6068527
2761.59 6190491 6430463 6646696 6800279 7004617 7132741
2767.37 7287489 7639790 7878008 8125935 8539362 8891357
2773.16 9155064 9499491 9967065 10358707 10635647 11007278
2778.95 11418122 11763792 12120318 12331961 12681345 13079779
2784.73 13296516 13447220 13490472 13694902 13886794 13843544
2790.52 13907568 13993893 13842511 13575301 13344250 13001949
2796.30 12844352 12888323 12592091 12193304 11945134 11698116
2802.09 11491375 11260010 11197404 11196014 11021642 11063473
2807.87 11203552 11333708 11524591 11642915 11824529 12138575
2813.66 12490305 12835622 13162339 13584049 14108760 14670446
2819.44 15235998 15869027 16387066 16954337 17724953 18467555
2825.23 19191898 20094671 21065328 21892386 22648456 23405419
2831.01 24110842 24707571 25260020 25945853 26944422 28023372
2836.80 29199046 30349154 31438704 32578540 33529620 34377325
2842.59 35275794 36285786 37416361 38779148 40235452 41484569
2848.37 42941919 45065160 47583416 50209595 53080556 56297072
2854.16 59893536 63602768 67651581 72323470 77604401 83454252
2859.94 89910171 96959048 104572755 112940702 122125841 131933285
2865.73 141772063 151503497 161794849 172328869 182555528 192659748
2871.51 202511876 212711224 224215403 237560952 254362306 271728968
2877.30 278800471 277991229 280590172 285681917 289694275 290681707
2883.08 294930429 310894342 318948775 310002894 297624385 284626036
2888.87 273191649 265803083 260499622 255023952 248912644 242360230
2894.65 235830826 228971775 222135019 216282500 211238508 207546254
2900.44 205410416 204462579 205071460 206250178 206682182 205764514
2906.23 203060544 199260702 195998721 195163119 196609772 197337353
2912.01 196321080 194213309 191094945 187549340 184093782 180812010
2917.80 178208819 176765992 176934706 178943879 182278746 186765605
2923.58 192977365 201207130 210782142 221302573 232838959 245844161
2929.37 259969345 275000849 291346823 309078492 327499992 346528438
2935.15 365564322 382900487 397371033 411458850 429626781 463210803
2940.94 499144239 491027434 460662590 444893064 435016614 429951960
2946.72 427948097 423949809 417332531 403604762 384431934 371683199
2952.51 361652254 348477989 333485546 318838643 306637346 299565794
2958.29 299455178 307240271 324627962 354424640 397338706 454235673
2964.08 525645665 607399055 694455106 777751074 845003360 885946779
2969.87 895712124 883471667 888447087 945958591 978578767 929116849
2975.65 883552261 887714129 909337957 916844537 894424557 840187609
2981.44 761803443 670979324 578327742 492502050 418131186 356146675
2987.22 305873264 265607979 233116018 206724140 185124514 167306984
2993.01 152511371 140191152 129850550 121260930 114122078 108573588
2998.79 104806631 102687799 101528359 101059080 101144253 101561013
3004.58 101766377 101493900 101240385 101395322 103015547 106890076
3010.36 110464587 110845714 111411076 115620909 122317138 129913396
3016.15 137339949 144440482 151963551 160851926 172111243 186684852
3021.93 204964841 227280808 253576874 283157923 315377200 349081571
3027.72 382436064 413479308 439246053 456801130 464385700 462777365
3033.51 458842245 464617999 486574473 509838919 515636786 511346715
3039.29 507490962 502754664 493865392 476290898 450530684 420591558
3045.08 389027734 356906067 324455874 292508301 262380918 235389476
3050.86 212185960 192757904 177174004 165425664 157113480 152392541
3056.65 150997471 152245776 155953645 162297187 172278119 185706981
3062.43 199821292 215096363 233912618 254423599 273380486 288867535
3068.22 298468516 301631535 301269088 305032408 318032918 343077164
3074.00 359805449 334277623 307986989 314056035 328310937 337829791
3079.79 336957355 326133770 308588771 287527909 266873521 250168006
3085.57 237102139 226812496 218257235 209918509 201215493 192375165
3091.36 183191617 173822943 165185459 158626675 154916034 154578202
3097.15 155954401 155739730 152582056 147285267 140679541 133402609
3102.93 126063300 118897084 112230615 106403255 101308956 96732241
3108.72 92569618 88698475 84870154 80838187 77100846 73882365
3114.50 70915616 67617786 64436892 61820049 59271278 56929714
3120.29 54583136 52021550 48826587 44855435 40250442 35532357
3126.07 31201619 27193492 23564185 20503504 18026229 16085326
3131.86 14547387 13174429 12183707 11358321 10541912 9905565
3137.64 9314627 9022624 8752269 8402832 8137005 7946346
3143.43 7849976 7862370 7764813 7609821 7727781 7841546
3149.21 7738661 7696037 7726210 7729089 7737823 7721644
3155.00 7769152 7868236 8003675 8141643 8160277 8260924
3160.79 8419219 8636417 8894003 9115783 9367354 9510771
3166.57 9626465 9741527 10075578 10584242 10919944 11185016
3172.36 11519609 12004053 12543237 12857929 13059394 13202835
3178.14 13242654 13301772 13604973 13803871 13765608 13995251
3183.93 14023843 13626018 13231502 12817378 12131855 11555421
3189.71 11298041 10988571 10554748 10099685 9502316 8850627
3195.50 8260928 7596922 6915886 6187939 5513526 4905653
3201.28 4440361 4130130 3899047 3530076 2981135 2702243
3207.07 2512342 2257340 2005712 1971704 2014760 1872014
3212.85 1884994 1828660 1579426 1416066 1310654 1380624
3218.64 1495489 1422567 1333469 1242088 1118047 1152346
3224.43 1269294 1208208 1069836 1070063 1061938 1024031
3230.21 997986 895297 946320 1089674 1024254 937905
3236.00 964471 1031081 1068512 1131871 1163201 967712
3241.78 897716 1100688 1169933 1215704 1359482 1461599
3247.57 1525350 1565203 1724662 1632447 1413757 1575908
3253.35 1511179 1316650 1278091 1300777 1514674 1577622
3259.14 1488934 1526155 1563153 1530621 1497647 1502791
3264.92 1633348 1636104 1542296 1833478 1967843 1606219
3270.71 1585033 1740570 1539102 1615503 1760494 1553605
3276.49 1534032 1578918 1458344 1395099 1442799 1339806
3282.28 1244998 1251985 1139134 1085780 1062161 1074800
3288.07 992935 1001152 1153671 1067775 1003659 1108821
3293.85 1150729 1126848 1097919 1119144 1185976 1049446
3299.64 978551 1064473 1097718 1277833 1335035 1119476
3305.42 946149 916418 887979 782772 601710 563719
3311.21 620774 457287 463321 591579 527928 455374
3316.99 312483 130330-31058 30748 224949 202020
3322.78 102035 9118-49909 35363 137598 199273
3328.56 239574 287096 192942 108065 111778 111525
3334.35 209658 197000-52054-102928 15007 137045
3340.13 179517 61355 150039 168685 103256 164735
3345.92 125291 232613 276864 5212-92143 94294
3351.71 165639 170860 227156 153891-36925-140168
3357.49-73605-75574-156308-60502 295020 438488
3363.28 203675-16291 15728 31640-36039-77340
3369.06-108459-2104 86244 10126 32015 21644
3374.85-164706-37972 328233 339953 250633 260583
3380.63 118634 135526 61531 62011 249206 259579
3386.42 201871 84115 105267 169275 127479 47991
3392.20 5325 163450 435414 336008 253138 235546
3397.99 99906 54034 140643 7325-25805 149396
3403.77 188991 122797 16981-38494-80620-74386
3409.56 21575 101243-125243-314064-186623-152799
3415.35-307976-284339-139750-23743-87858-150918
3421.13-188083-189091-163814-122745 4742 927
3426.92-240994-221320 47545 110295 125273 140947
3432.70 111841 101144 213919 268206 237893 276393
3438.49 185882 52551 68472 153107 255738 295668
3444.27 427833 396824 165638 36211 65357 113520
3450.06 47698-87373-78230-41003-100866-77848
3455.84-193703-119129-77583-212055-327301-333624
3461.63-365715-346014-335882-488666-328774-199680
3467.41-401472-677527-653467-365776-240349-311169
3473.20-310491-294168-293135-289609-445644-563132
3478.99-370159-378644-606381-632634-556884-251291
3484.77-167233-488609-551922-566371-519302-621317
3490.56-842598-775888-713321-669736-587201-527764
3496.34-575542-540117-399513-339682-363795-272932
3502.13-377464-353018-85010-160318-354243-397047
3507.91-263698-217015-347711-321345-218177-232775
3513.70-28955 266634 417283 419281 340240 298115
3519.48 434554 627920 810403 944345 881034 868992
3525.27 844214 868103 1068660 1117822 995446 845648
3531.05 757155 779701 871318 955430 735383 632631
3536.84 518584 266604 339533 303470 132098-85270
3542.63-199465-124061-81294-81840-108289-67161
3548.41-86005-243829-202459-158644-306061-423245
3554.20-466495-395079-107419-55607-225726-173237
3559.98-258176-422154-328704-187042-154743-47909
3565.77-126479-329802-317627-286890-281668-273737
3571.55-342819-421968-432801-354062-314100-193627
3577.34-141923-306687-429198-459426-428334-340834
3583.12-256794-114288-37320-93614-258495-576275
3588.91-341159-32204-62523-99843-60131 51339
3594.69 12420-53521 10420 60124 68117 110712
3600.48 151302 52380-151278-72851-17933-184580
3606.27-87454-82663-301449-48327 132471 85525
3612.05 271820 260800 82772 121239 240482 374651
3617.84 395038 374172 709243 986476 1007841 1066683
3623.62 1129124 1127227 1264896 1065620 696308 608606
3629.41 769824 1071504 1198434 1203831 1224471 1348709
3635.19 1375104 1350109 1324295 1278685 1256189 1244751
3640.98 1186801 1280080 1402866 1417625 1515356 1514474
3646.76 1592910 1621012 1705667 2011771 2208507 2569265
3652.55 2863581 2936115 2598231 2215965 2396364 2679554
3658.33 2755995 2785278 2845075 2872687 2711191 2509083
3664.12 2376028 2033670 1848033 1568924 1268397 943308
3669.91 680556 1002763 1055834 811793 453615 293576
3675.69 516047 797065 830719 696869 916369 1105976
3681.48 968891 806229 907161 1014261 1084943 912454
3687.26 421872 716957 1101854 1040515 1223952 1219004
3693.05 1144565 1310915 1362634 1172410 1158753 1372935
3698.83 1407648 1240660 1113602 1213270 1335423 1442313
3704.62 1500784 1357587 1263418 1218044 1218933 1472744
3710.40 1220001 997083 1382419 1427994 1345288 1400558
3716.19 1542517 1593892 1562852 1591842 1503700 1349749
3721.97 1320341 1448025 1480235 1325382 1194371 1167567
3727.76 1072795 1041575 1111917 724614 606799 751065
3733.55 509477 479930 431525 456053 685552 856048
3739.33 845088 557209 585705 557584-298147-236677
3745.12 620120 674964 491198 152061 157336 259978
3750.90-231156 170058 681899 566095 523653 524367
3756.69 670074 613746 556028 667379 879793 949174
3762.47 884813 844513 594428 582072 799238 826865
3768.26 723162 689735 853016 952418 969734 927284
3774.04 864837 848873 888226 962481 847391 817169
3779.83 928005 923093 970271 919535 821662 758409
3785.61 788776 1001767 1121122 919763 743754 675376
3791.40 686144 813212 902304 754017 448377 474457
3797.19 726101 864715 762952 325408 396304 745181
3802.97 676579 841016 802789 488898 797346 1071382
3808.76 1049313 1039171 931852 939454 949112 946431
3814.54 453583 407332 1036991 1046143 861392 772701
3820.33 796276 1011892 1052968 915506 922495 1012409
3826.11 1040684 1165509 1277674 1219963 1052788 1093883
3831.90 1346567 1425784 1257549 1319140 1351955 905934
3837.68 1175558 1696302 1676103 1646237 1702500 1598636
3843.47 1604861 1737883 1725291 1682861 1613167 1388920
3849.25 1304822 941431 581291 374881-188735 334864
3855.04 886270 807556 705497 647980 769178 706234
3860.83 443440 434365 483642 285681 441451 468919
3866.61 355633 391315 91263 118428 369380 405605
3872.40 211685-34017 165911 171111 42013 149
3878.18-153311-334200-224791-47852-150109-279462
3883.97-585404-716817-379660-186702-142444-161076
3889.75-350157-246199-71024-117979-111173-124959
3895.54-94006 31414-3809-250984-96403 7461
3901.32 123416 270995 102038 224888 329612 552650
3907.11 712110 663494 722688 843747 891827 896846
3912.89 845669 880644 1116366 1025206 1068874 1311501
3918.68 1298456 1329962 1440352 1610881 1789863 1836142
3924.47 1939898 2076364 2265401 2484010 2624073 2824064
3930.25 2844248 2797560 3006140 3248164 3416939 3543843
3936.04 3572534 3569154 3785687 3830737 3752337 3606579
3941.82 3408336 3454037 3422543 3349475 3278277 3191394
3947.61 2912007 2619730 2600296 2674408 2550746 2410732
3953.39 2384328 2257697 2140578 2027857 1852988 1805835
3959.18 1906875 1938780 1865804 1865572 1966130 1972833
3964.96 2016371 2080469 2132300 2241822 2364609 2411349
3970.75 2342823 2245465 2186215 2293118
##END=
