##TITLE=Acetophenone, p-methoxy-
##JCAMP-DX=4.24
$$ By DXEDIT 1.05 (RS McDonald)
##DATA TYPE=INFRARED SPECTRUM
##CLASS=COBLENTZ III
##ORIGIN=DOW CHEMICAL COMPANY
##OWNER=COPYRIGHT (C) 1988 by COBLENTZ SOCIETY INC.
Collection (C) 2018 copyright by the U.S. Secretary of Commerce
on behalf of the United States of America. All rights reserved.
##DATE=1963/04/25
##NAMES=1-(4-methoxyphenyl)ethanone
##CAS REGISTRY NO=100-06-1
##MOLFORM=C9 H10 O2
##SOURCE REFERENCE=COBLENTZ NO. 8647
##$NIST SOURCE=COBLENTZ
##$NIST IMAGE=cob8647
##SPECTROMETER/DATA SYSTEM=DOW KBr FOREPRISM-GRATING
##INSTRUMENT PARAMETERS=BLAZED AT 3.5, 12.0, 20.0 MICRON AND CHANGED AT 5.0, 7.5, 14.9 MICRON
##STATE=SOLUTION (10% CCl4 FOR 3800-1330, 10% CS2 FOR 1330-400 CM^-^1)
$$ SEE SPECTRUM NO. 3706 FOR "LIQUID (NEAT)" AND SPECTRUM NO. 8646 FOR "10% SOLUTION" STATES
##PATH LENGTH=0.011 CM, 0.011 CM
$$SPECTRAL CONTAMINATION DUE TO CS2 AROUND 650, 850, CCl4 AROUND 1550, AND AN UNKNOWN AROUND 400 CM^-^1
##SAMPLING PROCEDURE=TRANSMISSION
##RESOLUTION=2
##DATA PROCESSING=DIGITIZED BY COBLENTZ SOCIETY (BATCH I) FROM HARD COPY
##XUNITS=1/CM
##YUNITS=TRANSMITTANCE
##XFACTOR=1
##YFACTOR=1
##DELTAX=1
##FIRSTX=3796
##LASTX=387
##FIRSTY=0.9211
##MAXX=3796
##MINX=387
##MAXY=0.9348
##MINY=0.0515
##NPOINTS=3410
##XYDATA=(X++(Y..Y))
3796.000000 0.9211 0.9204 0.9213 0.9212 0.9211
3791.000000 0.9210 0.9209 0.9208 0.9208 0.9207
3786.000000 0.9206 0.9205 0.9196 0.9190 0.9190
3781.000000 0.9198 0.9201 0.9190 0.9197 0.9197
3776.000000 0.9197 0.9186 0.9197 0.9197 0.9198
3771.000000 0.9198 0.9199 0.9199 0.9199 0.9199
3766.000000 0.9200 0.9200 0.9200 0.9200 0.9201
3761.000000 0.9201 0.9208 0.9207 0.9202 0.9202
3756.000000 0.9203 0.9203 0.9203 0.9203 0.9204
3751.000000 0.9204 0.9204 0.9204 0.9205 0.9205
3746.000000 0.9205 0.9205 0.9205 0.9205 0.9206
3741.000000 0.9206 0.9206 0.9210 0.9219 0.9219
3736.000000 0.9219 0.9219 0.9215 0.9208 0.9215
3731.000000 0.9220 0.9221 0.9221 0.9221 0.9221
3726.000000 0.9222 0.9222 0.9222 0.9222 0.9223
3721.000000 0.9223 0.9223 0.9211 0.9213 0.9224
3716.000000 0.9224 0.9224 0.9226 0.9226 0.9231
3711.000000 0.9236 0.9232 0.9242 0.9243 0.9243
3706.000000 0.9244 0.9244 0.9244 0.9244 0.9246
3701.000000 0.9247 0.9247 0.9247 0.9249 0.9249
3696.000000 0.9239 0.9238 0.9239 0.9239 0.9240
3691.000000 0.9241 0.9242 0.9242 0.9243 0.9240
3686.000000 0.9232 0.9232 0.9233 0.9234 0.9235
3681.000000 0.9235 0.9236 0.9236 0.9237 0.9237
3676.000000 0.9238 0.9239 0.9240 0.9240 0.9240
3671.000000 0.9240 0.9250 0.9241 0.9240 0.9240
3666.000000 0.9240 0.9240 0.9240 0.9240 0.9240
3661.000000 0.9240 0.9240 0.9240 0.9240 0.9240
3656.000000 0.9240 0.9240 0.9240 0.9240 0.9240
3651.000000 0.9240 0.9240 0.9240 0.9239 0.9239
3646.000000 0.9239 0.9239 0.9239 0.9239 0.9239
3641.000000 0.9239 0.9239 0.9239 0.9240 0.9240
3636.000000 0.9240 0.9240 0.9240 0.9243 0.9253
3631.000000 0.9252 0.9248 0.9238 0.9243 0.9249
3626.000000 0.9249 0.9248 0.9248 0.9247 0.9247
3621.000000 0.9246 0.9246 0.9245 0.9245 0.9244
3616.000000 0.9244 0.9243 0.9243 0.9242 0.9242
3611.000000 0.9241 0.9240 0.9238 0.9228 0.9238
3606.000000 0.9238 0.9237 0.9237 0.9232 0.9227
3601.000000 0.9234 0.9229 0.9221 0.9227 0.9232
3596.000000 0.9232 0.9230 0.9230 0.9230 0.9230
3591.000000 0.9230 0.9230 0.9229 0.9229 0.9229
3586.000000 0.9229 0.9228 0.9228 0.9228 0.9228
3581.000000 0.9228 0.9228 0.9226 0.9226 0.9226
3576.000000 0.9222 0.9218 0.9226 0.9226 0.9221
3571.000000 0.9214 0.9214 0.9213 0.9213 0.9213
3566.000000 0.9213 0.9210 0.9210 0.9210 0.9210
3561.000000 0.9210 0.9210 0.9210 0.9210 0.9210
3556.000000 0.9211 0.9221 0.9209 0.9211 0.9222
3551.000000 0.9220 0.9217 0.9212 0.9220 0.9220
3546.000000 0.9220 0.9214 0.9213 0.9219 0.9220
3541.000000 0.9220 0.9213 0.9216 0.9213 0.9218
3536.000000 0.9221 0.9221 0.9222 0.9222 0.9222
3531.000000 0.9222 0.9222 0.9210 0.9210 0.9210
3526.000000 0.9212 0.9212 0.9212 0.9212 0.9213
3521.000000 0.9213 0.9213 0.9213 0.9213 0.9213
3516.000000 0.9213 0.9213 0.9215 0.9215 0.9215
3511.000000 0.9215 0.9216 0.9216 0.9216 0.9216
3506.000000 0.9217 0.9217 0.9217 0.9217 0.9217
3501.000000 0.9217 0.9217 0.9217 0.9219 0.9219
3496.000000 0.9219 0.9219 0.9220 0.9220 0.9220
3491.000000 0.9220 0.9222 0.9222 0.9222 0.9222
3486.000000 0.9223 0.9223 0.9224 0.9224 0.9225
3481.000000 0.9225 0.9226 0.9226 0.9227 0.9227
3476.000000 0.9228 0.9228 0.9228 0.9228 0.9229
3471.000000 0.9229 0.9230 0.9230 0.9231 0.9231
3466.000000 0.9232 0.9232 0.9233 0.9233 0.9234
3461.000000 0.9234 0.9234 0.9234 0.9235 0.9235
3456.000000 0.9236 0.9236 0.9237 0.9237 0.9238
3451.000000 0.9238 0.9239 0.9239 0.9239 0.9239
3446.000000 0.9240 0.9240 0.9241 0.9241 0.9241
3441.000000 0.9241 0.9242 0.9242 0.9243 0.9243
3436.000000 0.9243 0.9243 0.9244 0.9244 0.9245
3431.000000 0.9245 0.9245 0.9245 0.9246 0.9246
3426.000000 0.9247 0.9237 0.9246 0.9247 0.9248
3421.000000 0.9248 0.9249 0.9249 0.9249 0.9249
3416.000000 0.9250 0.9250 0.9251 0.9251 0.9251
3411.000000 0.9251 0.9251 0.9251 0.9252 0.9259
3406.000000 0.9258 0.9252 0.9252 0.9252 0.9252
3401.000000 0.9252 0.9252 0.9252 0.9252 0.9252
3396.000000 0.9253 0.9253 0.9253 0.9253 0.9253
3391.000000 0.9253 0.9253 0.9253 0.9253 0.9253
3386.000000 0.9253 0.9252 0.9252 0.9251 0.9251
3381.000000 0.9250 0.9249 0.9248 0.9248 0.9247
3376.000000 0.9247 0.9246 0.9246 0.9243 0.9240
3371.000000 0.9236 0.9243 0.9229 0.9224 0.9219
3366.000000 0.9215 0.9208 0.9203 0.9194 0.9185
3361.000000 0.9176 0.9167 0.9158 0.9150 0.9141
3356.000000 0.9131 0.9122 0.9114 0.9104 0.9098
3351.000000 0.9093 0.9088 0.9082 0.9078 0.9078
3346.000000 0.9078 0.9089 0.9092 0.9083 0.9093
3341.000000 0.9085 0.9086 0.9091 0.9108 0.9112
3336.000000 0.9114 0.9109 0.9114 0.9119 0.9123
3331.000000 0.9127 0.9132 0.9135 0.9139 0.9142
3326.000000 0.9146 0.9150 0.9153 0.9156 0.9159
3321.000000 0.9163 0.9166 0.9169 0.9172 0.9175
3316.000000 0.9180 0.9183 0.9186 0.9189 0.9204
3311.000000 0.9206 0.9208 0.9209 0.9209 0.9204
3306.000000 0.9216 0.9217 0.9215 0.9207 0.9207
3301.000000 0.9207 0.9207 0.9206 0.9205 0.9204
3296.000000 0.9203 0.9202 0.9202 0.9201 0.9200
3291.000000 0.9199 0.9198 0.9197 0.9197 0.9196
3286.000000 0.9195 0.9194 0.9193 0.9204 0.9201
3281.000000 0.9190 0.9192 0.9201 0.9196 0.9186
3276.000000 0.9190 0.9196 0.9196 0.9196 0.9196
3271.000000 0.9196 0.9196 0.9195 0.9195 0.9195
3266.000000 0.9195 0.9194 0.9194 0.9194 0.9194
3261.000000 0.9194 0.9194 0.9193 0.9193 0.9193
3256.000000 0.9182 0.9193 0.9193 0.9192 0.9192
3251.000000 0.9192 0.9192 0.9191 0.9191 0.9191
3246.000000 0.9191 0.9184 0.9184 0.9189 0.9189
3241.000000 0.9189 0.9189 0.9188 0.9188 0.9187
3236.000000 0.9187 0.9186 0.9186 0.9186 0.9186
3231.000000 0.9185 0.9185 0.9183 0.9183 0.9182
3226.000000 0.9171 0.9173 0.9182 0.9181 0.9181
3221.000000 0.9180 0.9180 0.9180 0.9180 0.9179
3216.000000 0.9179 0.9177 0.9177 0.9177 0.9177
3211.000000 0.9177 0.9177 0.9176 0.9166 0.9162
3206.000000 0.9162 0.9162 0.9162 0.9162 0.9162
3201.000000 0.9161 0.9162 0.9170 0.9162 0.9167
3196.000000 0.9161 0.9170 0.9170 0.9170 0.9170
3191.000000 0.9168 0.9162 0.9161 0.9166 0.9166
3186.000000 0.9157 0.9152 0.9152 0.9151 0.9150
3181.000000 0.9149 0.9149 0.9148 0.9147 0.9146
3176.000000 0.9146 0.9145 0.9145 0.9144 0.9143
3171.000000 0.9142 0.9142 0.9141 0.9139 0.9139
3166.000000 0.9141 0.9141 0.9147 0.9154 0.9148
3161.000000 0.9150 0.9156 0.9156 0.9148 0.9153
3156.000000 0.9148 0.9146 0.9156 0.9158 0.9158
3151.000000 0.9157 0.9157 0.9156 0.9144 0.9143
3146.000000 0.9143 0.9142 0.9142 0.9142 0.9142
3141.000000 0.9145 0.9153 0.9152 0.9152 0.9151
3136.000000 0.9150 0.9149 0.9148 0.9147 0.9146
3131.000000 0.9145 0.9145 0.9144 0.9143 0.9142
3126.000000 0.9141 0.9140 0.9139 0.9138 0.9137
3121.000000 0.9135 0.9134 0.9133 0.9133 0.9131
3116.000000 0.9129 0.9127 0.9126 0.9124 0.9123
3111.000000 0.9121 0.9120 0.9117 0.9117 0.9120
3106.000000 0.9126 0.9123 0.9121 0.9119 0.9117
3101.000000 0.9115 0.9123 0.9123 0.9121 0.9130
3096.000000 0.9140 0.9151 0.9149 0.9147 0.9143
3091.000000 0.9128 0.9123 0.9105 0.9092 0.9084
3086.000000 0.9078 0.9055 0.9037 0.9024 0.9015
3081.000000 0.9005 0.8995 0.8990 0.8992 0.8998
3076.000000 0.8996 0.8992 0.8996 0.8994 0.8981
3071.000000 0.8978 0.8977 0.8965 0.8976 0.8963
3066.000000 0.8963 0.8963 0.8961 0.8951 0.8951
3061.000000 0.8950 0.8954 0.8962 0.8962 0.8957
3056.000000 0.8951 0.8958 0.8959 0.8954 0.8955
3051.000000 0.8964 0.8969 0.8970 0.8972 0.8974
3046.000000 0.8986 0.8989 0.9002 0.9015 0.9030
3041.000000 0.9043 0.9059 0.9060 0.9063 0.9063
3036.000000 0.9053 0.9043 0.9040 0.9027 0.9019
3031.000000 0.9018 0.9012 0.9003 0.9000 0.8989
3026.000000 0.8978 0.8970 0.8962 0.8948 0.8936
3021.000000 0.8921 0.8906 0.8885 0.8857 0.8794
3016.000000 0.8723 0.8641 0.8559 0.8478 0.8397
3011.000000 0.8341 0.8285 0.8259 0.8231 0.8211
3006.000000 0.8173 0.8211 0.8213 0.8220 0.8225
3001.000000 0.8256 0.8293 0.8331 0.8365 0.8414
2996.000000 0.8462 0.8512 0.8562 0.8620 0.8674
2991.000000 0.8708 0.8742 0.8764 0.8787 0.8799
2986.000000 0.8810 0.8820 0.8831 0.8834 0.8839
2981.000000 0.8839 0.8849 0.8846 0.8837 0.8823
2976.000000 0.8822 0.8788 0.8755 0.8684 0.8614
2971.000000 0.8443 0.8272 0.8215 0.8155 0.8124
2966.000000 0.8096 0.8078 0.8060 0.8050 0.8039
2961.000000 0.8037 0.8015 0.8053 0.8061 0.8085
2956.000000 0.8119 0.8157 0.8197 0.8239 0.8276
2951.000000 0.8309 0.8343 0.8375 0.8407 0.8422
2946.000000 0.8436 0.8444 0.8473 0.8458 0.8464
2941.000000 0.8446 0.8437 0.8415 0.8391 0.8329
2936.000000 0.8217 0.8244 0.8227 0.8226 0.8224
2931.000000 0.8272 0.8321 0.8380 0.8442 0.8474
2926.000000 0.8509 0.8533 0.8557 0.8579 0.8598
2921.000000 0.8609 0.8628 0.8631 0.8635 0.8636
2916.000000 0.8636 0.8635 0.8632 0.8626 0.8620
2911.000000 0.8617 0.8615 0.8614 0.8625 0.8625
2906.000000 0.8614 0.8613 0.8614 0.8614 0.8615
2901.000000 0.8618 0.8622 0.8643 0.8665 0.8692
2896.000000 0.8721 0.8742 0.8764 0.8785 0.8808
2891.000000 0.8829 0.8850 0.8867 0.8883 0.8900
2886.000000 0.8917 0.8927 0.8937 0.8946 0.8957
2881.000000 0.8966 0.8974 0.8979 0.8984 0.8978
2876.000000 0.8994 0.9000 0.9006 0.9010 0.9016
2871.000000 0.9020 0.9024 0.9027 0.9031 0.9034
2866.000000 0.9038 0.9041 0.9043 0.9043 0.9056
2861.000000 0.9046 0.9046 0.9048 0.9049 0.9049
2856.000000 0.9050 0.9050 0.9039 0.9038 0.9037
2851.000000 0.9034 0.9034 0.9022 0.9011 0.8956
2846.000000 0.8911 0.8777 0.8641 0.8502 0.8377
2841.000000 0.8242 0.8106 0.7971 0.7843 0.7860
2836.000000 0.7797 0.7958 0.8048 0.8139 0.8230
2831.000000 0.8321 0.8412 0.8511 0.8596 0.8694
2826.000000 0.8787 0.8797 0.8819 0.8849 0.8857
2821.000000 0.8886 0.8905 0.8922 0.8931 0.8947
2816.000000 0.8962 0.8974 0.8985 0.8998 0.9009
2811.000000 0.9021 0.9032 0.9036 0.9047 0.9059
2806.000000 0.9064 0.9068 0.9073 0.9077 0.9083
2801.000000 0.9086 0.9089 0.9092 0.9094 0.9097
2796.000000 0.9101 0.9104 0.9108 0.9110 0.9111
2791.000000 0.9106 0.9116 0.9106 0.9106 0.9105
2786.000000 0.9105 0.9109 0.9115 0.9108 0.9102
2781.000000 0.9107 0.9112 0.9110 0.9110 0.9109
2776.000000 0.9108 0.9107 0.9107 0.9106 0.9106
2771.000000 0.9106 0.9106 0.9104 0.9104 0.9104
2766.000000 0.9104 0.9104 0.9104 0.9104 0.9104
2761.000000 0.9104 0.9104 0.9103 0.9103 0.9103
2756.000000 0.9103 0.9101 0.9101 0.9101 0.9101
2751.000000 0.9101 0.9101 0.9101 0.9101 0.9101
2746.000000 0.9101 0.9101 0.9103 0.9103 0.9103
2741.000000 0.9103 0.9103 0.9103 0.9103 0.9103
2736.000000 0.9103 0.9103 0.9104 0.9104 0.9104
2731.000000 0.9104 0.9104 0.9104 0.9104 0.9106
2726.000000 0.9107 0.9107 0.9108 0.9108 0.9109
2721.000000 0.9109 0.9110 0.9111 0.9112 0.9112
2716.000000 0.9113 0.9113 0.9114 0.9114 0.9115
2711.000000 0.9115 0.9115 0.9115 0.9115 0.9115
2706.000000 0.9115 0.9115 0.9116 0.9116 0.9116
2701.000000 0.9116 0.9116 0.9116 0.9116 0.9116
2696.000000 0.9117 0.9117 0.9117 0.9117 0.9117
2691.000000 0.9117 0.9118 0.9118 0.9118 0.9118
2686.000000 0.9119 0.9119 0.9119 0.9119 0.9120
2681.000000 0.9120 0.9121 0.9121 0.9121 0.9121
2676.000000 0.9122 0.9122 0.9122 0.9122 0.9123
2671.000000 0.9123 0.9124 0.9124 0.9125 0.9125
2666.000000 0.9125 0.9125 0.9126 0.9126 0.9127
2661.000000 0.9127 0.9128 0.9128 0.9130 0.9141
2656.000000 0.9141 0.9141 0.9141 0.9141 0.9141
2651.000000 0.9134 0.9126 0.9119 0.9119 0.9117
2646.000000 0.9107 0.9094 0.9082 0.9076 0.9078
2641.000000 0.9066 0.9058 0.9056 0.9055 0.9053
2636.000000 0.9050 0.9047 0.9058 0.9055 0.9054
2631.000000 0.9040 0.9042 0.9051 0.9050 0.9048
2626.000000 0.9047 0.9045 0.9043 0.9042 0.9041
2621.000000 0.9040 0.9040 0.9041 0.9042 0.9043
2616.000000 0.9044 0.9045 0.9046 0.9046 0.9048
2611.000000 0.9049 0.9050 0.9051 0.9052 0.9054
2606.000000 0.9055 0.9055 0.9057 0.9058 0.9059
2601.000000 0.9061 0.9062 0.9065 0.9067 0.9069
2596.000000 0.9071 0.9073 0.9075 0.9078 0.9080
2591.000000 0.9080 0.9080 0.9080 0.9080 0.9075
2586.000000 0.9072 0.9068 0.9064 0.9059 0.9054
2581.000000 0.9051 0.9047 0.9043 0.9039 0.9035
2576.000000 0.9030 0.9026 0.9022 0.9018 0.9014
2571.000000 0.9008 0.9004 0.8999 0.8996 0.8991
2566.000000 0.8986 0.8982 0.8978 0.8977 0.8976
2561.000000 0.8975 0.8975 0.8977 0.8979 0.8981
2556.000000 0.8983 0.8984 0.8986 0.8988 0.8991
2551.000000 0.8995 0.8999 0.9002 0.9006 0.9009
2546.000000 0.9014 0.9019 0.9023 0.9026 0.9030
2541.000000 0.9033 0.9037 0.9040 0.9045 0.9048
2536.000000 0.9051 0.9054 0.9057 0.9058 0.9061
2531.000000 0.9064 0.9066 0.9068 0.9071 0.9073
2526.000000 0.9073 0.9073 0.9072 0.9068 0.9066
2521.000000 0.9064 0.9061 0.9060 0.9058 0.9058
2516.000000 0.9057 0.9056 0.9054 0.9054 0.9056
2511.000000 0.9056 0.9057 0.9057 0.9057 0.9057
2506.000000 0.9058 0.9058 0.9058 0.9058 0.9058
2501.000000 0.9058 0.9060 0.9060 0.9061 0.9061
2496.000000 0.9061 0.9061 0.9061 0.9061 0.9063
2491.000000 0.9063 0.9064 0.9064 0.9064 0.9064
2486.000000 0.9065 0.9066 0.9067 0.9067 0.9068
2481.000000 0.9075 0.9081 0.9082 0.9083 0.9083
2476.000000 0.9084 0.9084 0.9085 0.9086 0.9087
2471.000000 0.9087 0.9088 0.9089 0.9090 0.9090
2466.000000 0.9091 0.9091 0.9092 0.9093 0.9094
2461.000000 0.9094 0.9095 0.9095 0.9091 0.9092
2456.000000 0.9092 0.9086 0.9087 0.9095 0.9101
2451.000000 0.9101 0.9091 0.9097 0.9099 0.9099
2446.000000 0.9099 0.9099 0.9099 0.9098 0.9098
2441.000000 0.9098 0.9098 0.9097 0.9097 0.9097
2436.000000 0.9097 0.9096 0.9096 0.9096 0.9096
2431.000000 0.9096 0.9096 0.9095 0.9095 0.9095
2426.000000 0.9095 0.9095 0.9095 0.9095 0.9095
2421.000000 0.9095 0.9095 0.9095 0.9095 0.9095
2416.000000 0.9095 0.9095 0.9095 0.9095 0.9095
2411.000000 0.9094 0.9094 0.9096 0.9101 0.9096
2406.000000 0.9104 0.9103 0.9102 0.9100 0.9100
2401.000000 0.9099 0.9099 0.9098 0.9098 0.9097
2396.000000 0.9097 0.9096 0.9095 0.9094 0.9094
2391.000000 0.9093 0.9093 0.9104 0.9104 0.9103
2386.000000 0.9102 0.9103 0.9113 0.9112 0.9115
2381.000000 0.9123 0.9123 0.9126 0.9134 0.9137
2376.000000 0.9144 0.9143 0.9147 0.9153 0.9152
2371.000000 0.9151 0.9148 0.9139 0.9135 0.9133
2366.000000 0.9133 0.9132 0.9131 0.9130 0.9129
2361.000000 0.9127 0.9137 0.9134 0.9141 0.9141
2356.000000 0.9150 0.9155 0.9152 0.9149 0.9146
2351.000000 0.9136 0.9126 0.9123 0.9126 0.9135
2346.000000 0.9140 0.9136 0.9125 0.9118 0.9116
2341.000000 0.9113 0.9111 0.9097 0.9104 0.9102
2336.000000 0.9087 0.9084 0.9093 0.9091 0.9089
2331.000000 0.9088 0.9095 0.9094 0.9091 0.9093
2326.000000 0.9100 0.9101 0.9106 0.9104 0.9102
2321.000000 0.9100 0.9099 0.9097 0.9096 0.9093
2316.000000 0.9092 0.9090 0.9088 0.9086 0.9085
2311.000000 0.9083 0.9082 0.9081 0.9080 0.9078
2306.000000 0.9078 0.9077 0.9076 0.9075 0.9074
2301.000000 0.9073 0.9072 0.9075 0.9081 0.9081
2296.000000 0.9080 0.9078 0.9078 0.9075 0.9073
2291.000000 0.9073 0.9072 0.9070 0.9061 0.9058
2286.000000 0.9060 0.9063 0.9065 0.9058 0.9061
2281.000000 0.9065 0.9069 0.9073 0.9066 0.9069
2276.000000 0.9071 0.9065 0.9069 0.9074 0.9074
2271.000000 0.9069 0.9073 0.9072 0.9071 0.9075
2266.000000 0.9080 0.9077 0.9078 0.9082 0.9087
2261.000000 0.9083 0.9084 0.9089 0.9084 0.9086
2256.000000 0.9091 0.9096 0.9088 0.9091 0.9095
2251.000000 0.9097 0.9090 0.9094 0.9099 0.9102
2246.000000 0.9106 0.9105 0.9101 0.9104 0.9109
2241.000000 0.9111 0.9113 0.9115 0.9118 0.9120
2236.000000 0.9122 0.9116 0.9115 0.9117 0.9119
2231.000000 0.9122 0.9124 0.9127 0.9129 0.9130
2226.000000 0.9131 0.9131 0.9133 0.9133 0.9131
2221.000000 0.9121 0.9122 0.9122 0.9122 0.9122
2216.000000 0.9122 0.9122 0.9122 0.9122 0.9122
2211.000000 0.9122 0.9122 0.9122 0.9122 0.9122
2206.000000 0.9122 0.9122 0.9122 0.9122 0.9122
2201.000000 0.9122 0.9122 0.9122 0.9122 0.9122
2196.000000 0.9120 0.9111 0.9122 0.9119 0.9110
2191.000000 0.9110 0.9109 0.9109 0.9112 0.9112
2186.000000 0.9112 0.9112 0.9119 0.9117 0.9113
2181.000000 0.9113 0.9114 0.9114 0.9123 0.9126
2176.000000 0.9126 0.9126 0.9127 0.9127 0.9127
2171.000000 0.9127 0.9128 0.9126 0.9117 0.9117
2166.000000 0.9118 0.9118 0.9119 0.9119 0.9120
2161.000000 0.9120 0.9121 0.9121 0.9121 0.9121
2156.000000 0.9122 0.9122 0.9122 0.9122 0.9123
2151.000000 0.9123 0.9123 0.9123 0.9123 0.9123
2146.000000 0.9124 0.9124 0.9124 0.9124 0.9124
2141.000000 0.9124 0.9124 0.9124 0.9124 0.9123
2136.000000 0.9122 0.9121 0.9121 0.9120 0.9119
2131.000000 0.9118 0.9117 0.9116 0.9116 0.9115
2126.000000 0.9114 0.9113 0.9113 0.9112 0.9102
2121.000000 0.9110 0.9112 0.9112 0.9112 0.9111
2116.000000 0.9111 0.9111 0.9111 0.9111 0.9111
2111.000000 0.9111 0.9111 0.9111 0.9111 0.9111
2106.000000 0.9111 0.9111 0.9112 0.9112 0.9113
2101.000000 0.9113 0.9113 0.9113 0.9105 0.9102
2096.000000 0.9111 0.9114 0.9103 0.9113 0.9114
2091.000000 0.9114 0.9114 0.9113 0.9111 0.9108
2086.000000 0.9108 0.9105 0.9105 0.9103 0.9101
2081.000000 0.9100 0.9098 0.9095 0.9092 0.9088
2076.000000 0.9085 0.9074 0.9063 0.9049 0.9037
2071.000000 0.9013 0.8990 0.8963 0.8936 0.8927
2066.000000 0.8917 0.8914 0.8912 0.8910 0.8909
2061.000000 0.8909 0.8909 0.8912 0.8916 0.8933
2056.000000 0.8958 0.8971 0.8984 0.8992 0.8996
2051.000000 0.8999 0.9010 0.9006 0.9004 0.9006
2046.000000 0.9008 0.9010 0.9012 0.9013 0.9014
2041.000000 0.9015 0.9016 0.9017 0.9018 0.9035
2036.000000 0.9051 0.9093 0.9135 0.9176 0.9217
2031.000000 0.9257 0.9300 0.9318 0.9341 0.9314
2026.000000 0.9275 0.9232 0.9191 0.9142 0.9093
2021.000000 0.9085 0.9077 0.9078 0.9080 0.9081
2016.000000 0.9082 0.9083 0.9085 0.9086 0.9087
2011.000000 0.9087 0.9088 0.9088 0.9089 0.9089
2006.000000 0.9090 0.9091 0.9092 0.9093 0.9094
2001.000000 0.9097 0.9101 0.9105 0.9107 0.9107
1996.000000 0.9124 0.9159 0.9226 0.9266 0.9290
1991.000000 0.9294 0.9298 0.9298 0.9298 0.9297
1986.000000 0.9287 0.9286 0.9288 0.9290 0.9292
1981.000000 0.9293 0.9296 0.9295 0.9293 0.9292
1976.000000 0.9291 0.9289 0.9288 0.9287 0.9285
1971.000000 0.9284 0.9283 0.9282 0.9280 0.9279
1966.000000 0.9278 0.9276 0.9275 0.9274 0.9272
1961.000000 0.9271 0.9270 0.9268 0.9267 0.9266
1956.000000 0.9265 0.9263 0.9262 0.9261 0.9259
1951.000000 0.9258 0.9257 0.9255 0.9254 0.9253
1946.000000 0.9251 0.9250 0.9249 0.9248 0.9246
1941.000000 0.9245 0.9244 0.9242 0.9241 0.9248
1936.000000 0.9256 0.9263 0.9271 0.9278 0.9286
1931.000000 0.9291 0.9296 0.9301 0.9305 0.9304
1926.000000 0.9304 0.9304 0.9304 0.9304 0.9304
1921.000000 0.9303 0.9301 0.9300 0.9298 0.9297
1916.000000 0.9295 0.9293 0.9292 0.9290 0.9289
1911.000000 0.9286 0.9285 0.9283 0.9282 0.9290
1906.000000 0.9290 0.9290 0.9290 0.9290 0.9290
1901.000000 0.9289 0.9289 0.9289 0.9287 0.9287
1896.000000 0.9287 0.9287 0.9287 0.9287 0.9286
1891.000000 0.9282 0.9274 0.9273 0.9273 0.9271
1886.000000 0.9271 0.9271 0.9278 0.9283 0.9282
1881.000000 0.9282 0.9280 0.9280 0.9280 0.9280
1876.000000 0.9280 0.9291 0.9292 0.9291 0.9291
1871.000000 0.9291 0.9290 0.9290 0.9290 0.9290
1866.000000 0.9289 0.9289 0.9289 0.9289 0.9288
1861.000000 0.9288 0.9287 0.9287 0.9286 0.9294
1856.000000 0.9291 0.9286 0.9285 0.9285 0.9285
1851.000000 0.9285 0.9285 0.9285 0.9285 0.9285
1846.000000 0.9284 0.9284 0.9284 0.9284 0.9284
1841.000000 0.9284 0.9284 0.9284 0.9284 0.9283
1836.000000 0.9278 0.9272 0.9273 0.9274 0.9275
1831.000000 0.9277 0.9278 0.9279 0.9279 0.9281
1826.000000 0.9282 0.9284 0.9285 0.9286 0.9286
1821.000000 0.9288 0.9289 0.9304 0.9305 0.9306
1816.000000 0.9307 0.9308 0.9309 0.9311 0.9311
1811.000000 0.9311 0.9311 0.9306 0.9298 0.9298
1806.000000 0.9298 0.9297 0.9291 0.9285 0.9285
1801.000000 0.9285 0.9285 0.9284 0.9284 0.9284
1796.000000 0.9284 0.9284 0.9283 0.9282 0.9280
1791.000000 0.9277 0.9277 0.9274 0.9273 0.9272
1786.000000 0.9269 0.9266 0.9266 0.9264 0.9262
1781.000000 0.9260 0.9259 0.9257 0.9255 0.9253
1776.000000 0.9244 0.9237 0.9235 0.9233 0.9230
1771.000000 0.9228 0.9225 0.9223 0.9220 0.9218
1766.000000 0.9214 0.9212 0.9209 0.9205 0.9204
1761.000000 0.9202 0.9202 0.9205 0.9214 0.9214
1756.000000 0.9214 0.9214 0.9214 0.9214 0.9214
1751.000000 0.9214 0.9214 0.9216 0.9216 0.9216
1746.000000 0.9217 0.9217 0.9218 0.9218 0.9220
1741.000000 0.9221 0.9221 0.9215 0.9208 0.9202
1736.000000 0.9196 0.9190 0.9186 0.9183 0.9177
1731.000000 0.9174 0.9170 0.9166 0.9160 0.9154
1726.000000 0.9147 0.9140 0.9133 0.9127 0.9117
1721.000000 0.9109 0.9099 0.9090 0.9081 0.9069
1716.000000 0.9056 0.9043 0.9031 0.9016 0.9004
1711.000000 0.8991 0.8978 0.8960 0.8936 0.8911
1706.000000 0.8887 0.8850 0.8800 0.8745 0.8670
1701.000000 0.8597 0.8500 0.8393 0.8237 0.8039
1696.000000 0.7762 0.7599 0.7384 0.6994 0.6678
1691.000000 0.6096 0.5598 0.4960 0.4321 0.3682
1686.000000 0.3043 0.2404 0.1765 0.1380 0.1341
1681.000000 0.1341 0.1350 0.1574 0.2841 0.4247
1676.000000 0.5526 0.5907 0.6210 0.6505 0.7219
1671.000000 0.7571 0.7724 0.7875 0.8024 0.8148
1666.000000 0.8271 0.8378 0.8478 0.8568 0.8653
1661.000000 0.8727 0.8790 0.8811 0.8832 0.8852
1656.000000 0.8862 0.8874 0.8875 0.8875 0.8868
1651.000000 0.8861 0.8821 0.8792 0.8752 0.8760
1646.000000 0.8766 0.8773 0.8785 0.8796 0.8810
1641.000000 0.8817 0.8832 0.8798 0.8788 0.8765
1636.000000 0.8745 0.8715 0.8671 0.8637 0.8594
1631.000000 0.8542 0.8467 0.8400 0.8323 0.8253
1626.000000 0.8172 0.8034 0.7866 0.7660 0.7471
1621.000000 0.7314 0.7147 0.6897 0.6147 0.5837
1616.000000 0.5631 0.5461 0.5019 0.4849 0.4481
1611.000000 0.4051 0.3610 0.3172 0.2730 0.2281
1606.000000 0.1987 0.2008 0.2020 0.2054 0.2138
1601.000000 0.2274 0.2589 0.2971 0.3364 0.3761
1596.000000 0.4158 0.4603 0.4896 0.5153 0.5345
1591.000000 0.5534 0.5687 0.5842 0.5963 0.6050
1586.000000 0.6118 0.6190 0.6208 0.5860 0.5468
1581.000000 0.5082 0.4688 0.4445 0.4563 0.5224
1576.000000 0.5879 0.6442 0.6739 0.6963 0.7105
1571.000000 0.7218 0.7273 0.7326 0.7351 0.7406
1566.000000 0.7433 0.7403 0.7362 0.7314 0.7267
1561.000000 0.7231 0.7223 0.7196 0.7149 0.7154
1556.000000 0.7161 0.7220 0.7269 0.7310 0.7363
1551.000000 0.7410 0.7448 0.7473 0.7479 0.7496
1546.000000 0.7539 0.7564 0.7585 0.7682 0.7941
1541.000000 0.8118 0.8235 0.8252 0.8272 0.8227
1536.000000 0.8217 0.8232 0.8259 0.8298 0.8314
1531.000000 0.8306 0.8291 0.8284 0.8270 0.8244
1526.000000 0.8208 0.8171 0.8143 0.8107 0.8081
1521.000000 0.8065 0.7994 0.7943 0.7840 0.7629
1516.000000 0.6475 0.5328 0.4196 0.3588 0.3561
1511.000000 0.4454 0.5429 0.6396 0.7347 0.7595
1506.000000 0.7698 0.7787 0.7887 0.8005 0.8123
1501.000000 0.8267 0.8424 0.8586 0.8649 0.8699
1496.000000 0.8703 0.8690 0.8668 0.8666 0.8667
1491.000000 0.8666 0.8670 0.8680 0.8691 0.8703
1486.000000 0.8742 0.8786 0.8825 0.8872 0.8917
1481.000000 0.8949 0.8953 0.8930 0.8888 0.8848
1476.000000 0.8814 0.8765 0.8709 0.8593 0.8318
1471.000000 0.8020 0.7721 0.7423 0.7209 0.7187
1466.000000 0.7242 0.7366 0.7540 0.7720 0.7713
1461.000000 0.7675 0.7618 0.7579 0.7588 0.7806
1456.000000 0.8024 0.8234 0.8338 0.8403 0.8439
1451.000000 0.8467 0.8500 0.8471 0.8331 0.8172
1446.000000 0.8019 0.7877 0.7879 0.7962 0.8045
1441.000000 0.8131 0.8142 0.8142 0.8144 0.8126
1436.000000 0.8065 0.7979 0.7901 0.7834 0.7800
1431.000000 0.7797 0.7804 0.7832 0.7871 0.7901
1426.000000 0.7910 0.7882 0.7637 0.7391 0.7150
1421.000000 0.6910 0.6576 0.6614 0.6832 0.7279
1416.000000 0.7715 0.8034 0.8136 0.8227 0.8312
1411.000000 0.8395 0.8479 0.8557 0.8637 0.8699
1406.000000 0.8740 0.8780 0.8821 0.8861 0.8894
1401.000000 0.8924 0.8954 0.8985 0.9021 0.9056
1396.000000 0.9085 0.9115 0.9143 0.9170 0.9189
1391.000000 0.9209 0.9238 0.9263 0.9275 0.9298
1386.000000 0.9337 0.9348 0.9339 0.9305 0.9272
1381.000000 0.9229 0.9196 0.9165 0.9144 0.9124
1376.000000 0.9088 0.9044 0.9010 0.8971 0.8918
1371.000000 0.8864 0.8796 0.8705 0.8596 0.8373
1366.000000 0.7792 0.7206 0.6746 0.6286 0.5827
1361.000000 0.5367 0.4907 0.4505 0.4491 0.4848
1356.000000 0.5165 0.5487 0.5809 0.6132 0.6454
1351.000000 0.6777 0.7099 0.7422 0.7745 0.8002
1346.000000 0.8227 0.8349 0.8427 0.8476 0.8520
1341.000000 0.8578 0.8631 0.8675 0.8706 0.8733
1336.000000 0.8751 0.8763 0.8768 0.8782 0.8774
1331.000000 0.8772 0.8763 0.8714 0.8640 0.8545
1326.000000 0.8263 0.7917 0.7584 0.7245 0.6905
1321.000000 0.6570 0.6394 0.6376 0.6436 0.6496
1316.000000 0.6556 0.6612 0.6667 0.6710 0.6705
1311.000000 0.6719 0.6618 0.6509 0.6401 0.6292
1306.000000 0.6304 0.6284 0.6389 0.6522 0.6655
1301.000000 0.6789 0.6921 0.7056 0.7188 0.7295
1296.000000 0.7305 0.7313 0.7300 0.7263 0.7176
1291.000000 0.7176 0.7179 0.7213 0.7262 0.7291
1286.000000 0.7307 0.7319 0.7298 0.7276 0.7220
1281.000000 0.7104 0.6816 0.6290 0.5760 0.5231
1276.000000 0.4708 0.4178 0.3648 0.3118 0.2729
1271.000000 0.2724 0.2864 0.3176 0.3488 0.3802
1266.000000 0.3893 0.3873 0.3492 0.2850 0.2205
1261.000000 0.1560 0.0917 0.0515 0.0516 0.0827
1256.000000 0.1138 0.1449 0.1759 0.2067 0.2165
1251.000000 0.2246 0.2319 0.2448 0.2580 0.2879
1246.000000 0.3248 0.3617 0.3982 0.4351 0.4719
1241.000000 0.5243 0.5741 0.5923 0.6095 0.6279
1236.000000 0.6474 0.6665 0.6851 0.7040 0.7237
1231.000000 0.7351 0.7443 0.7527 0.7584 0.7642
1226.000000 0.7702 0.7742 0.7782 0.7825 0.7865
1221.000000 0.7907 0.7938 0.7967 0.7989 0.8010
1216.000000 0.8030 0.8048 0.8063 0.8080 0.8101
1211.000000 0.8115 0.8128 0.8145 0.8160 0.8172
1206.000000 0.8184 0.8186 0.8189 0.8202 0.8195
1201.000000 0.8192 0.8189 0.8179 0.8160 0.8148
1196.000000 0.8132 0.8114 0.8097 0.8069 0.8029
1191.000000 0.7981 0.7928 0.7857 0.7772 0.7640
1186.000000 0.7496 0.7349 0.6918 0.6762 0.5738
1181.000000 0.5843 0.6067 0.6258 0.5874 0.4765
1176.000000 0.3654 0.2542 0.2535 0.2986 0.3088
1171.000000 0.2686 0.1827 0.1855 0.2843 0.4221
1166.000000 0.5597 0.6795 0.6986 0.7124 0.7276
1161.000000 0.7404 0.7501 0.7603 0.7706 0.7771
1156.000000 0.7807 0.7847 0.7867 0.7885 0.7903
1151.000000 0.7916 0.7938 0.7959 0.7968 0.7981
1146.000000 0.7997 0.8011 0.8025 0.8027 0.8049
1141.000000 0.8063 0.8076 0.8102 0.8128 0.8153
1136.000000 0.8171 0.8193 0.8202 0.8206 0.8213
1131.000000 0.8219 0.8210 0.8184 0.8164 0.8146
1126.000000 0.8130 0.8130 0.8135 0.8140 0.8147
1121.000000 0.8148 0.8117 0.8053 0.7908 0.7734
1116.000000 0.7438 0.7332 0.7217 0.7217 0.7217
1111.000000 0.7319 0.7527 0.7651 0.7779 0.7941
1106.000000 0.8030 0.8124 0.8159 0.8193 0.8229
1101.000000 0.8252 0.8268 0.8281 0.8296 0.8306
1096.000000 0.8316 0.8325 0.8334 0.8351 0.8351
1091.000000 0.8351 0.8352 0.8354 0.8354 0.8352
1086.000000 0.8351 0.8349 0.8341 0.8334 0.8323
1081.000000 0.8287 0.8253 0.8192 0.8108 0.8025
1076.000000 0.7975 0.7944 0.7951 0.8021 0.8100
1071.000000 0.8168 0.8212 0.8254 0.8294 0.8327
1066.000000 0.8359 0.8380 0.8397 0.8413 0.8431
1061.000000 0.8443 0.8453 0.8442 0.8453 0.8451
1056.000000 0.8441 0.8431 0.8421 0.8410 0.8398
1051.000000 0.8371 0.8349 0.8319 0.8272 0.8223
1046.000000 0.8169 0.8102 0.8036 0.7939 0.7831
1041.000000 0.7730 0.7626 0.7514 0.6964 0.6212
1036.000000 0.5460 0.4708 0.3931 0.3903 0.4020
1031.000000 0.4154 0.4282 0.4619 0.5653 0.6689
1026.000000 0.7321 0.7499 0.7633 0.7693 0.7753
1021.000000 0.7793 0.7841 0.7912 0.8015 0.8129
1016.000000 0.8202 0.8275 0.8331 0.8391 0.8454
1011.000000 0.8513 0.8554 0.8576 0.8571 0.8559
1006.000000 0.8549 0.8539 0.8535 0.8558 0.8586
1001.000000 0.8613 0.8641 0.8669 0.8694 0.8714
996.000000 0.8742 0.8771 0.8798 0.8817 0.8840
991.000000 0.8864 0.8881 0.8896 0.8905 0.8916
986.000000 0.8925 0.8934 0.8944 0.8953 0.8955
981.000000 0.8955 0.8956 0.8957 0.8961 0.8954
976.000000 0.8953 0.8950 0.8949 0.8937 0.8917
971.000000 0.8913 0.8900 0.8872 0.8842 0.8802
966.000000 0.8737 0.8672 0.8600 0.8526 0.8449
961.000000 0.8372 0.8296 0.8212 0.8126 0.7907
956.000000 0.7623 0.6648 0.6663 0.6663 0.6742
951.000000 0.7141 0.7543 0.7944 0.8318 0.8474
946.000000 0.8562 0.8647 0.8703 0.8760 0.8804
941.000000 0.8843 0.8881 0.8920 0.8946 0.8970
936.000000 0.8996 0.9021 0.9046 0.9064 0.9081
931.000000 0.9097 0.9112 0.9128 0.9140 0.9150
926.000000 0.9160 0.9169 0.9177 0.9188 0.9198
921.000000 0.9204 0.9212 0.9220 0.9234 0.9232
916.000000 0.9250 0.9255 0.9257 0.9259 0.9266
911.000000 0.9275 0.9270 0.9278 0.9282 0.9286
906.000000 0.9284 0.9290 0.9292 0.9286 0.9285
901.000000 0.9279 0.9279 0.9265 0.9261 0.9257
896.000000 0.9250 0.9239 0.9240 0.9217 0.9201
891.000000 0.9178 0.9154 0.9135 0.9124 0.9113
886.000000 0.9105 0.9095 0.9092 0.9084 0.9068
881.000000 0.9059 0.9049 0.9032 0.9015 0.8998
876.000000 0.8982 0.8965 0.8949 0.8932 0.8914
871.000000 0.8897 0.8880 0.8861 0.8843 0.8838
866.000000 0.8820 0.8803 0.8798 0.8790 0.8772
861.000000 0.8756 0.8745 0.8726 0.8702 0.8670
856.000000 0.8629 0.8599 0.8579 0.8551 0.8548
851.000000 0.8561 0.8573 0.8555 0.8519 0.8462
846.000000 0.8393 0.8315 0.8190 0.7936 0.7432
841.000000 0.6169 0.4383 0.4362 0.4435 0.4832
836.000000 0.5220 0.5676 0.5654 0.5003 0.3604
831.000000 0.3620 0.4617 0.5993 0.7362 0.8136
826.000000 0.8263 0.8368 0.8440 0.8529 0.8615
821.000000 0.8641 0.8647 0.8653 0.8680 0.8650
816.000000 0.8654 0.8627 0.8588 0.8536 0.8490
811.000000 0.8432 0.8350 0.7450 0.6526 0.6675
806.000000 0.7111 0.7552 0.7984 0.8218 0.8325
801.000000 0.8430 0.8532 0.8630 0.8700 0.8757
796.000000 0.8782 0.8806 0.8815 0.8830 0.8846
791.000000 0.8871 0.8871 0.8880 0.8889 0.8898
786.000000 0.8907 0.8914 0.8920 0.8916 0.8913
781.000000 0.8915 0.8911 0.8915 0.8915 0.8911
776.000000 0.8916 0.8918 0.8920 0.8915 0.8912
771.000000 0.8919 0.8915 0.8906 0.8903 0.8901
766.000000 0.8894 0.8875 0.8857 0.8834 0.8802
761.000000 0.8771 0.8706 0.8587 0.8452 0.8444
756.000000 0.8446 0.8471 0.8510 0.8595 0.8690
751.000000 0.8728 0.8757 0.8779 0.8788 0.8793
746.000000 0.8797 0.8801 0.8806 0.8808 0.8808
741.000000 0.8805 0.8805 0.8805 0.8805 0.8805
736.000000 0.8803 0.8802 0.8801 0.8799 0.8798
731.000000 0.8791 0.8794 0.8785 0.8777 0.8770
726.000000 0.8765 0.8768 0.8762 0.8760 0.8761
721.000000 0.8760 0.8754 0.8742 0.8729 0.8725
716.000000 0.8719 0.8709 0.8712 0.8711 0.8706
711.000000 0.8702 0.8696 0.8692 0.8686 0.8682
706.000000 0.8674 0.8668 0.8661 0.8666 0.8659
701.000000 0.8654 0.8657 0.8651 0.8645 0.8640
696.000000 0.8633 0.8632 0.8632 0.8625 0.8616
691.000000 0.8609 0.8601 0.8593 0.8593 0.8589
686.000000 0.8582 0.8574 0.8561 0.8559 0.8546
681.000000 0.8527 0.8517 0.8495 0.8493 0.8475
676.000000 0.8467 0.8461 0.8451 0.8448 0.8442
671.000000 0.8441 0.8461 0.8541 0.8591 0.8519
666.000000 0.8451 0.8445 0.8445 0.8425 0.8405
661.000000 0.8374 0.8342 0.8328 0.8306 0.8291
656.000000 0.8265 0.8231 0.8239 0.8235 0.8223
651.000000 0.8236 0.8242 0.8249 0.8255 0.8261
646.000000 0.8256 0.8260 0.8260 0.8251 0.8250
641.000000 0.8241 0.8230 0.8222 0.8208 0.8195
636.000000 0.8166 0.8096 0.8015 0.7943 0.7873
631.000000 0.7850 0.7932 0.8039 0.8134 0.8140
626.000000 0.8135 0.8142 0.8149 0.8141 0.8145
621.000000 0.8147 0.8149 0.8155 0.8164 0.8161
616.000000 0.8153 0.8153 0.8148 0.8138 0.8134
611.000000 0.8130 0.8124 0.8119 0.8112 0.8097
606.000000 0.8086 0.8078 0.8068 0.8053 0.8039
601.000000 0.8022 0.7986 0.7942 0.7882 0.7821
596.000000 0.7737 0.7631 0.7524 0.7319 0.6914
591.000000 0.6508 0.6103 0.6076 0.6204 0.6360
586.000000 0.6518 0.6677 0.6831 0.6945 0.6962
581.000000 0.6791 0.6672 0.6553 0.6434 0.6367
576.000000 0.6484 0.6624 0.6773 0.6916 0.7058
571.000000 0.7198 0.7274 0.7278 0.7114 0.6733
566.000000 0.6363 0.5997 0.5774 0.5737 0.6127
561.000000 0.6517 0.6907 0.7296 0.7699 0.7785
556.000000 0.7825 0.7852 0.7880 0.7905 0.7922
551.000000 0.7951 0.7971 0.7986 0.8003 0.8013
546.000000 0.8021 0.8027 0.8036 0.8043 0.8047
541.000000 0.8051 0.8056 0.8058 0.8068 0.8072
536.000000 0.8080 0.8077 0.8069 0.8070 0.8063
531.000000 0.8056 0.8050 0.8039 0.8028 0.8018
526.000000 0.8013 0.8006 0.7994 0.7982 0.7969
521.000000 0.7958 0.7946 0.7933 0.7919 0.7905
516.000000 0.7894 0.7880 0.7866 0.7852 0.7834
511.000000 0.7815 0.7789 0.7759 0.7728 0.7696
506.000000 0.7663 0.7626 0.7590 0.7560 0.7536
501.000000 0.7510 0.7500 0.7506 0.7519 0.7534
496.000000 0.7551 0.7568 0.7585 0.7600 0.7612
491.000000 0.7625 0.7638 0.7649 0.7663 0.7673
486.000000 0.7677 0.7682 0.7687 0.7692 0.7697
481.000000 0.7700 0.7704 0.7706 0.7707 0.7708
476.000000 0.7710 0.7710 0.7710 0.7708 0.7707
471.000000 0.7704 0.7699 0.7693 0.7683 0.7669
466.000000 0.7652 0.7627 0.7602 0.7581 0.7560
461.000000 0.7547 0.7548 0.7548 0.7558 0.7567
456.000000 0.7581 0.7593 0.7607 0.7625 0.7642
451.000000 0.7648 0.7649 0.7649 0.7649 0.7643
446.000000 0.7629 0.7626 0.7616 0.7600 0.7584
441.000000 0.7567 0.7550 0.7534 0.7516 0.7500
436.000000 0.7482 0.7464 0.7440 0.7420 0.7396
431.000000 0.7373 0.7348 0.7326 0.7295 0.7262
426.000000 0.7227 0.7194 0.7151 0.7108 0.7064
421.000000 0.7020 0.6967 0.6887 0.6810 0.6687
416.000000 0.6521 0.6369 0.6209 0.5968 0.5457
411.000000 0.5316 0.5072 0.4862 0.4650 0.4439
406.000000 0.4227 0.4017 0.3805 0.3594 0.3382
401.000000 0.3155 0.2910 0.2681 0.2485 0.2432
396.000000 0.2373 0.2304 0.2247 0.2206 0.2165
391.000000 0.2126 0.2090 0.2051 0.2021 0.1994
##END=
