##TITLE=2,2,4,4,6,6-HEXAMETHYLCYCLOTRISILAZANE
##JCAMP-DX=4.24
##DATA TYPE=INFRARED SPECTRUM
##CLASS=COBLENTZ
##ORIGIN=PENINSULAR CHEMRESEARCH, INC., GAINESVILLE, FLORIDA
##OWNER=COBLENTZ SOCIETY
Collection (C) 2018 copyright by the U.S. Secretary of Commerce
on behalf of the United States of America. All rights reserved.
##DATE=Not specified, most likely prior to 1970
##NAMES=2,2,4,4,6,6-hexamethyl-1,3,5,2,4,6-triazatrisilinane
##CAS REGISTRY NO=1009-93-4
##MOLFORM=C6 H21 N3 Si3
##SOURCE REFERENCE=COBLENTZ NO. 4901
##$NIST SOURCE=COBLENTZ
##$NIST IMAGE=cob4901
##SPECTROMETER/DATA SYSTEM=BECKMAN IR-4 (HYBRID PRISM-GRATING)
##STATE=SOLID (BETWEEN SALTS)
##SAMPLING PROCEDURE=TRANSMISSION
##RESOLUTION=4
$$ MW 219.51
##DATA PROCESSING=DIGITIZED BY NIST FROM HARD COPY
##XUNITS=MICROMETERS
##YUNITS=TRANSMITTANCE
##XFACTOR=1.000000
##YFACTOR=1
##DELTAX=000.004998
##FIRSTX=2.02
##LASTX=15
##FIRSTY=0.929
##MAXX=15
##MINX=2.02
##MAXY=0.973
##MINY=0.153
##NPOINTS=2598
##XYDATA=(X++(Y..Y))
2.020000 0.9290 0.9290 0.9290 0.9290 0.9290
2.045000 0.9290 0.9270 0.9230 0.9230 0.9230
2.070000 0.9230 0.9220 0.9220 0.9230 0.9230
2.095000 0.9230 0.9230 0.9230 0.9230 0.9220
2.120000 0.9220 0.9220 0.9230 0.9230 0.9230
2.145000 0.9230 0.9230 0.9220 0.9200 0.9190
2.170000 0.9130 0.9130 0.9120 0.9080 0.9080
2.195000 0.9040 0.9030 0.9020 0.9030 0.9040
2.220000 0.9070 0.9090 0.9140 0.9180 0.9200
2.245000 0.9220 0.9220 0.9200 0.9190 0.9190
2.270000 0.9190 0.9200 0.9200 0.9190 0.9140
2.295000 0.9130 0.9100 0.9100 0.9120 0.9140
2.320000 0.9150 0.9170 0.9170 0.9170 0.9180
2.345000 0.9180 0.9180 0.9180 0.9180 0.9180
2.370000 0.9180 0.9190 0.9190 0.9190 0.9190
2.395000 0.9190 0.9200 0.9200 0.9220 0.9220
2.420000 0.9230 0.9230 0.9230 0.9240 0.9240
2.445000 0.9240 0.9240 0.9240 0.9230 0.9230
2.470000 0.9220 0.9200 0.9190 0.9130 0.9120
2.495000 0.9100 0.9090 0.9090 0.9080 0.9040
2.520000 0.9030 0.9030 0.9020 0.9020 0.9000
2.545000 0.9000 0.9000 0.9000 0.9000 0.9000
2.570000 0.8990 0.8930 0.8880 0.8830 0.8820
2.595000 0.8820 0.8840 0.8880 0.8890 0.8890
2.620000 0.8880 0.8880 0.8870 0.8850 0.8840
2.645000 0.8830 0.8830 0.8830 0.8830 0.8820
2.670000 0.8790 0.8780 0.8750 0.8740 0.8740
2.695000 0.8750 0.8750 0.8770 0.8780 0.8780
2.720000 0.8780 0.8780 0.8770 0.8770 0.8770
2.745000 0.8750 0.8730 0.8720 0.8720 0.8700
2.770000 0.8680 0.8640 0.8630 0.8630 0.8600
2.795000 0.8580 0.8540 0.8500 0.8430 0.8390
2.820000 0.8290 0.8200 0.8100 0.8030 0.8000
2.845000 0.7820 0.7700 0.7610 0.7520 0.7440
2.870000 0.7410 0.7370 0.7360 0.7370 0.7460
2.895000 0.7520 0.7690 0.7850 0.8000 0.8040
2.920000 0.8140 0.8200 0.8300 0.8330 0.8390
2.945000 0.8430 0.8500 0.8580 0.8590 0.8600
2.970000 0.8640 0.8650 0.8670 0.8690 0.8690
2.995000 0.8700 0.8720 0.8730 0.8740 0.8740
3.020000 0.8740 0.8750 0.8750 0.8750 0.8750
3.045000 0.8770 0.8770 0.8770 0.8770 0.8780
3.070000 0.8780 0.8780 0.8780 0.8780 0.8770
3.095000 0.8770 0.8740 0.8740 0.8730 0.8730
3.120000 0.8730 0.8720 0.8700 0.8700 0.8680
3.145000 0.8630 0.8610 0.8600 0.8590 0.8590
3.170000 0.8600 0.8600 0.8610 0.8610 0.8610
3.195000 0.8610 0.8610 0.8610 0.8600 0.8600
3.220000 0.8580 0.8560 0.8560 0.8540 0.8530
3.245000 0.8480 0.8410 0.8390 0.8350 0.8330
3.270000 0.8290 0.8180 0.8090 0.7910 0.7700
3.295000 0.7600 0.7500 0.7310 0.7100 0.6820
3.319000 0.6630 0.6420 0.6290 0.6290 0.6590
3.344000 0.6610 0.6760 0.6870 0.6970 0.7120
3.369000 0.7490 0.7510 0.7520 0.7520 0.7510
3.394000 0.7420 0.7420 0.7520 0.7670 0.7750
3.419000 0.7840 0.8030 0.8200 0.8390 0.8530
3.444000 0.8630 0.8650 0.8690 0.8700 0.8720
3.469000 0.8780 0.8820 0.8830 0.8880 0.8900
3.494000 0.8920 0.8920 0.8930 0.8940 0.8970
3.519000 0.9030 0.9050 0.9070 0.9100 0.9120
3.544000 0.9140 0.9190 0.9280 0.9290 0.9320
3.569000 0.9320 0.9320 0.9320 0.9320 0.9320
3.594000 0.9320 0.9330 0.9330 0.9370 0.9390
3.619000 0.9410 0.9440 0.9440 0.9420 0.9420
3.644000 0.9420 0.9420 0.9430 0.9430 0.9480
3.669000 0.9490 0.9510 0.9510 0.9510 0.9510
3.694000 0.9510 0.9510 0.9510 0.9520 0.9520
3.719000 0.9580 0.9590 0.9610 0.9610 0.9620
3.744000 0.9620 0.9620 0.9610 0.9610 0.9610
3.769000 0.9610 0.9610 0.9610 0.9610 0.9590
3.794000 0.9590 0.9590 0.9590 0.9580 0.9580
3.819000 0.9580 0.9570 0.9570 0.9570 0.9570
3.844000 0.9580 0.9580 0.9580 0.9580 0.9580
3.869000 0.9580 0.9570 0.9570 0.9570 0.9560
3.894000 0.9540 0.9520 0.9520 0.9520 0.9510
3.919000 0.9510 0.9510 0.9510 0.9510 0.9510
3.944000 0.9510 0.9520 0.9520 0.9520 0.9540
3.969000 0.9590 0.9590 0.9590 0.9590 0.9610
3.994000 0.9610 0.9610 0.9610 0.9620 0.9620
4.019000 0.9620 0.9620 0.9620 0.9610 0.9610
4.044000 0.9610 0.9590 0.9570 0.9570 0.9540
4.069000 0.9530 0.9520 0.9510 0.9510 0.9490
4.094000 0.9480 0.9480 0.9480 0.9460 0.9460
4.119000 0.9440 0.9430 0.9430 0.9440 0.9460
4.144000 0.9460 0.9470 0.9480 0.9490 0.9490
4.169000 0.9490 0.9480 0.9480 0.9470 0.9470
4.194000 0.9460 0.9440 0.9440 0.9440 0.9460
4.219000 0.9460 0.9460 0.9470 0.9470 0.9470
4.244000 0.9470 0.9470 0.9480 0.9480 0.9490
4.269000 0.9490 0.9490 0.9490 0.9490 0.9490
4.294000 0.9490 0.9490 0.9490 0.9490 0.9510
4.319000 0.9510 0.9510 0.9510 0.9510 0.9510
4.344000 0.9510 0.9510 0.9520 0.9520 0.9520
4.369000 0.9520 0.9530 0.9530 0.9540 0.9560
4.394000 0.9590 0.9590 0.9620 0.9640 0.9670
4.419000 0.9670 0.9680 0.9690 0.9690 0.9690
4.444000 0.9690 0.9680 0.9680 0.9670 0.9660
4.469000 0.9640 0.9640 0.9630 0.9630 0.9630
4.494000 0.9620 0.9620 0.9610 0.9610 0.9610
4.519000 0.9610 0.9610 0.9610 0.9610 0.9590
4.544000 0.9590 0.9610 0.9630 0.9690 0.9720
4.569000 0.9730 0.9730 0.9730 0.9730 0.9720
4.594000 0.9720 0.9720 0.9720 0.9720 0.9710
4.619000 0.9710 0.9690 0.9690 0.9680 0.9670
4.644000 0.9630 0.9630 0.9630 0.9630 0.9620
4.669000 0.9620 0.9610 0.9610 0.9590 0.9590
4.694000 0.9590 0.9590 0.9590 0.9610 0.9620
4.719000 0.9630 0.9630 0.9630 0.9630 0.9620
4.744000 0.9620 0.9620 0.9620 0.9610 0.9610
4.769000 0.9610 0.9610 0.9610 0.9610 0.9610
4.794000 0.9590 0.9590 0.9590 0.9610 0.9610
4.819000 0.9610 0.9610 0.9610 0.9610 0.9590
4.844000 0.9590 0.9580 0.9580 0.9570 0.9570
4.869000 0.9560 0.9560 0.9560 0.9540 0.9540
4.894000 0.9530 0.9530 0.9530 0.9510 0.9440
4.919000 0.9420 0.9340 0.9330 0.9330 0.9340
4.944000 0.9360 0.9380 0.9380 0.9410 0.9420
4.969000 0.9430 0.9440 0.9460 0.9460 0.9460
4.994000 0.9470 0.9470 0.9480 0.9480 0.9490
5.019000 0.9490 0.9490 0.9490 0.9510 0.9510
5.044000 0.9510 0.9510 0.9510 0.9520 0.9520
5.069000 0.9520 0.9520 0.9520 0.9510 0.9510
5.094000 0.9490 0.9470 0.9460 0.9440 0.9440
5.119000 0.9460 0.9460 0.9480 0.9490 0.9490
5.144000 0.9510 0.9530 0.9540 0.9570 0.9580
5.169000 0.9580 0.9590 0.9590 0.9590 0.9580
5.194000 0.9570 0.9570 0.9570 0.9560 0.9560
5.219000 0.9560 0.9540 0.9530 0.9530 0.9530
5.244000 0.9530 0.9530 0.9530 0.9530 0.9540
5.269000 0.9540 0.9560 0.9570 0.9580 0.9590
5.294000 0.9590 0.9590 0.9590 0.9590 0.9590
5.319000 0.9590 0.9610 0.9610 0.9610 0.9590
5.344000 0.9590 0.9590 0.9590 0.9590 0.9580
5.369000 0.9580 0.9570 0.9570 0.9570 0.9570
5.394000 0.9570 0.9580 0.9580 0.9580 0.9590
5.419000 0.9610 0.9610 0.9610 0.9610 0.9610
5.444000 0.9610 0.9610 0.9610 0.9610 0.9610
5.469000 0.9620 0.9620 0.9610 0.9610 0.9610
5.494000 0.9590 0.9590 0.9580 0.9590 0.9590
5.519000 0.9610 0.9610 0.9610 0.9580 0.9530
5.544000 0.9530 0.9530 0.9520 0.9520 0.9520
5.569000 0.9520 0.9510 0.9510 0.9510 0.9510
5.594000 0.9510 0.9520 0.9520 0.9520 0.9540
5.619000 0.9560 0.9560 0.9570 0.9570 0.9570
5.644000 0.9570 0.9580 0.9580 0.9610 0.9610
5.669000 0.9610 0.9610 0.9610 0.9610 0.9610
5.694000 0.9610 0.9610 0.9610 0.9610 0.9610
5.719000 0.9610 0.9610 0.9610 0.9610 0.9590
5.744000 0.9590 0.9610 0.9610 0.9590 0.9590
5.769000 0.9590 0.9590 0.9590 0.9590 0.9590
5.794000 0.9580 0.9580 0.9570 0.9580 0.9590
5.819000 0.9610 0.9610 0.9610 0.9610 0.9610
5.844000 0.9610 0.9610 0.9610 0.9610 0.9610
5.869000 0.9610 0.9590 0.9590 0.9580 0.9580
5.894000 0.9610 0.9610 0.9610 0.9610 0.9620
5.918000 0.9620 0.9630 0.9630 0.9630 0.9630
5.943000 0.9610 0.9570 0.9570 0.9540 0.9530
5.968000 0.9520 0.9510 0.9490 0.9490 0.9490
5.993000 0.9480 0.9470 0.9470 0.9480 0.9480
6.018000 0.9490 0.9490 0.9490 0.9510 0.9510
6.043000 0.9510 0.9490 0.9490 0.9490 0.9490
6.068000 0.9490 0.9490 0.9480 0.9470 0.9460
6.093000 0.9440 0.9440 0.9440 0.9460 0.9440
6.118000 0.9440 0.9440 0.9460 0.9440 0.9440
6.143000 0.9440 0.9440 0.9430 0.9420 0.9420
6.168000 0.9420 0.9420 0.9420 0.9420 0.9420
6.193000 0.9420 0.9420 0.9420 0.9420 0.9420
6.218000 0.9410 0.9390 0.9370 0.9330 0.9330
6.243000 0.9320 0.9300 0.9290 0.9240 0.9230
6.268000 0.9190 0.9170 0.9140 0.9130 0.9100
6.293000 0.9080 0.9070 0.9040 0.9040 0.9030
6.318000 0.9030 0.9030 0.9040 0.9040 0.9040
6.343000 0.9040 0.9040 0.9050 0.9050 0.9070
6.368000 0.9080 0.9080 0.9090 0.9090 0.9090
6.393000 0.9080 0.9080 0.9040 0.9020 0.9000
6.418000 0.8990 0.8990 0.8980 0.8980 0.8990
6.443000 0.8990 0.9000 0.9000 0.9000 0.9000
6.468000 0.8990 0.8990 0.8970 0.8970 0.8950
6.493000 0.8950 0.8950 0.8950 0.8970 0.8970
6.518000 0.8990 0.9000 0.9000 0.9020 0.9030
6.543000 0.9030 0.9030 0.9030 0.9040 0.9040
6.568000 0.9040 0.9040 0.9040 0.9040 0.9040
6.593000 0.9050 0.9050 0.9050 0.9050 0.9070
6.618000 0.9080 0.9090 0.9090 0.9100 0.9120
6.643000 0.9130 0.9140 0.9180 0.9180 0.9200
6.668000 0.9200 0.9170 0.9120 0.9090 0.9050
6.693000 0.9040 0.9030 0.9030 0.9020 0.9020
6.718000 0.9020 0.9030 0.9030 0.9030 0.9030
6.743000 0.9030 0.9020 0.9000 0.8940 0.8930
6.768000 0.8900 0.8840 0.8820 0.8800 0.8750
6.793000 0.8740 0.8730 0.8730 0.8730 0.8720
6.818000 0.8720 0.8720 0.8690 0.8640 0.8600
6.843000 0.8540 0.8510 0.8480 0.8440 0.8430
6.868000 0.8400 0.8380 0.8340 0.8340 0.8330
6.893000 0.8310 0.8310 0.8310 0.8310 0.8310
6.918000 0.8310 0.8330 0.8330 0.8330 0.8340
6.943000 0.8340 0.8340 0.8310 0.8290 0.8240
6.968000 0.8210 0.8190 0.8150 0.8140 0.8130
6.993000 0.8090 0.8060 0.8040 0.8040 0.8030
7.018000 0.8030 0.8010 0.8010 0.8010 0.8030
7.043000 0.8030 0.8030 0.8040 0.8040 0.8060
7.068000 0.8060 0.8090 0.8100 0.8110 0.8140
7.093000 0.8150 0.8180 0.8200 0.8240 0.8280
7.118000 0.8300 0.8330 0.8350 0.8380 0.8440
7.143000 0.8510 0.8540 0.8600 0.8630 0.8640
7.168000 0.8690 0.8700 0.8730 0.8740 0.8800
7.193000 0.8800 0.8840 0.8840 0.8850 0.8880
7.218000 0.8900 0.8920 0.8950 0.8980 0.8980
7.243000 0.8990 0.8990 0.8980 0.8980 0.8950
7.268000 0.8940 0.8940 0.8930 0.8930 0.8930
7.293000 0.8930 0.8930 0.8930 0.8930 0.8930
7.318000 0.8930 0.8930 0.8930 0.8930 0.8930
7.343000 0.8930 0.8930 0.8940 0.8950 0.8950
7.368000 0.8950 0.8970 0.8970 0.8970 0.8980
7.393000 0.8980 0.8990 0.8990 0.8990 0.8990
7.418000 0.8980 0.8980 0.8970 0.8950 0.8950
7.443000 0.8940 0.8930 0.8930 0.8900 0.8890
7.468000 0.8880 0.8870 0.8840 0.8830 0.8800
7.493000 0.8740 0.8740 0.8720 0.8690 0.8690
7.518000 0.8670 0.8650 0.8640 0.8650 0.8640
7.543000 0.8640 0.8640 0.8640 0.8640 0.8630
7.568000 0.8600 0.8540 0.8530 0.8510 0.8480
7.593000 0.8440 0.8430 0.8430 0.8430 0.8430
7.618000 0.8400 0.8380 0.8360 0.8360 0.8350
7.643000 0.8350 0.8350 0.8340 0.8340 0.8340
7.668000 0.8340 0.8340 0.8330 0.8280 0.8230
7.693000 0.8200 0.8180 0.8140 0.8140 0.8130
7.718000 0.8100 0.8040 0.8040 0.8010 0.7990
7.743000 0.7970 0.7950 0.7950 0.7910 0.7840
7.768000 0.7800 0.7720 0.7700 0.7670 0.7620
7.793000 0.7540 0.7510 0.7440 0.7350 0.7270
7.818000 0.7200 0.7110 0.7010 0.6920 0.6830
7.843000 0.6720 0.6530 0.6420 0.6220 0.6020
7.868000 0.5800 0.5600 0.5310 0.5130 0.5030
7.893000 0.4930 0.4640 0.4420 0.4300 0.4160
7.918000 0.4090 0.3880 0.3800 0.3780 0.3780
7.943000 0.3810 0.3900 0.4010 0.4200 0.4510
7.968000 0.4810 0.5230 0.5630 0.5830 0.6070
7.993000 0.6380 0.6590 0.6720 0.6980 0.7050
8.018000 0.7110 0.7130 0.7210 0.7310 0.7350
8.043000 0.7400 0.7440 0.7500 0.7520 0.7520
8.068000 0.7520 0.7540 0.7540 0.7600 0.7620
8.093000 0.7640 0.7650 0.7660 0.7660 0.7660
8.118000 0.7650 0.7640 0.7620 0.7590 0.7550
8.143000 0.7550 0.7540 0.7540 0.7540 0.7540
8.168000 0.7520 0.7520 0.7500 0.7460 0.7450
8.193000 0.7420 0.7410 0.7410 0.7410 0.7400
8.218000 0.7390 0.7370 0.7350 0.7340 0.7320
8.243000 0.7310 0.7250 0.7220 0.7180 0.7130
8.268000 0.7120 0.7030 0.7020 0.6950 0.6920
8.293000 0.6880 0.6830 0.6810 0.6750 0.6710
8.318000 0.6630 0.6610 0.6520 0.6460 0.6410
8.343000 0.6340 0.6310 0.6230 0.6190 0.6120
8.368000 0.6020 0.5900 0.5830 0.5770 0.5720
8.393000 0.5540 0.5500 0.5420 0.5310 0.5240
8.418000 0.5150 0.5100 0.5010 0.4980 0.4930
8.443000 0.4840 0.4700 0.4540 0.4500 0.4440
8.468000 0.4350 0.4300 0.4210 0.4120 0.4100
8.493000 0.4010 0.3920 0.3800 0.3750 0.3680
8.517000 0.3660 0.3630 0.3620 0.3600 0.3600
8.542000 0.3580 0.3580 0.3580 0.3600 0.3610
8.567000 0.3620 0.3630 0.3660 0.3680 0.3720
8.592000 0.3750 0.3820 0.3820 0.3870 0.3950
8.617000 0.4010 0.4020 0.4110 0.4140 0.4220
8.642000 0.4260 0.4410 0.4460 0.4550 0.4640
8.667000 0.4810 0.4830 0.4910 0.5110 0.5150
8.692000 0.5250 0.5420 0.5440 0.5520 0.5630
8.717000 0.5770 0.5840 0.5900 0.5950 0.6030
8.742000 0.6140 0.6220 0.6240 0.6330 0.6410
8.767000 0.6440 0.6460 0.6460 0.6470 0.6520
8.792000 0.6570 0.6630 0.6660 0.6700 0.6730
8.817000 0.6760 0.6760 0.6770 0.6800 0.6850
8.842000 0.6910 0.6960 0.7000 0.7020 0.7020
8.867000 0.7050 0.7100 0.7120 0.7150 0.7160
8.892000 0.7160 0.7170 0.7200 0.7210 0.7220
8.917000 0.7230 0.7230 0.7250 0.7260 0.7260
8.942000 0.7310 0.7310 0.7320 0.7340 0.7350
8.967000 0.7360 0.7360 0.7400 0.7460 0.7500
8.992000 0.7520 0.7540 0.7570 0.7600 0.7640
9.017000 0.7640 0.7660 0.7670 0.7670 0.7670
9.042000 0.7670 0.7660 0.7660 0.7660 0.7650
9.067000 0.7650 0.7660 0.7690 0.7710 0.7750
9.092000 0.7760 0.7760 0.7770 0.7770 0.7770
9.117000 0.7770 0.7760 0.7760 0.7740 0.7710
9.142000 0.7700 0.7690 0.7690 0.7690 0.7690
9.167000 0.7690 0.7700 0.7710 0.7710 0.7720
9.192000 0.7720 0.7720 0.7710 0.7700 0.7690
9.217000 0.7690 0.7670 0.7670 0.7670 0.7660
9.242000 0.7650 0.7650 0.7650 0.7650 0.7660
9.267000 0.7660 0.7670 0.7690 0.7690 0.7700
9.292000 0.7700 0.7710 0.7710 0.7720 0.7720
9.317000 0.7720 0.7720 0.7720 0.7710 0.7710
9.342000 0.7710 0.7700 0.7690 0.7670 0.7670
9.367000 0.7660 0.7650 0.7650 0.7650 0.7650
9.392000 0.7650 0.7660 0.7670 0.7670 0.7670
9.417000 0.7690 0.7690 0.7700 0.7710 0.7740
9.442000 0.7750 0.7750 0.7770 0.7770 0.7770
9.467000 0.7770 0.7770 0.7760 0.7760 0.7760
9.492000 0.7750 0.7740 0.7710 0.7700 0.7690
9.517000 0.7670 0.7670 0.7660 0.7660 0.7640
9.542000 0.7640 0.7640 0.7620 0.7610 0.7600
9.567000 0.7590 0.7570 0.7570 0.7570 0.7560
9.592000 0.7550 0.7550 0.7520 0.7490 0.7460
9.617000 0.7450 0.7440 0.7420 0.7410 0.7400
9.642000 0.7390 0.7390 0.7370 0.7360 0.7360
9.667000 0.7360 0.7360 0.7350 0.7350 0.7340
9.692000 0.7320 0.7320 0.7310 0.7310 0.7310
9.717000 0.7310 0.7310 0.7310 0.7310 0.7300
9.742000 0.7280 0.7280 0.7270 0.7260 0.7260
9.767000 0.7250 0.7250 0.7250 0.7250 0.7250
9.792000 0.7250 0.7230 0.7220 0.7220 0.7210
9.817000 0.7200 0.7170 0.7160 0.7160 0.7160
9.842000 0.7150 0.7150 0.7150 0.7150 0.7150
9.867000 0.7130 0.7130 0.7130 0.7120 0.7120
9.892000 0.7120 0.7110 0.7110 0.7110 0.7120
9.917000 0.7130 0.7130 0.7130 0.7130 0.7120
9.942000 0.7120 0.7110 0.7110 0.7110 0.7110
9.967000 0.7110 0.7110 0.7110 0.7120 0.7120
9.992000 0.7110 0.7100 0.7100 0.7100 0.7100
10.017000 0.7110 0.7110 0.7120 0.7130 0.7150
10.042000 0.7150 0.7150 0.7150 0.7150 0.7150
10.067000 0.7160 0.7180 0.7200 0.7200 0.7220
10.092000 0.7230 0.7230 0.7230 0.7230 0.7220
10.117000 0.7220 0.7210 0.7200 0.7200 0.7200
10.142000 0.7200 0.7180 0.7180 0.7180 0.7160
10.167000 0.7160 0.7150 0.7150 0.7150 0.7130
10.192000 0.7130 0.7120 0.7120 0.7110 0.7110
10.217000 0.7100 0.7060 0.7050 0.7050 0.7050
10.242000 0.7050 0.7030 0.7020 0.7020 0.7010
10.267000 0.6960 0.6960 0.6950 0.6950 0.6950
10.292000 0.6930 0.6920 0.6910 0.6870 0.6820
10.317000 0.6780 0.6760 0.6750 0.6750 0.6710
10.342000 0.6660 0.6630 0.6620 0.6610 0.6540
10.367000 0.6520 0.6510 0.6510 0.6490 0.6460
10.392000 0.6390 0.6320 0.6240 0.6220 0.6160
10.417000 0.6130 0.6110 0.6040 0.6010 0.5930
10.442000 0.5820 0.5740 0.5700 0.5550 0.5520
10.467000 0.5440 0.5400 0.5330 0.5240 0.5130
10.492000 0.5100 0.5030 0.4990 0.4940 0.4840
10.517000 0.4800 0.4730 0.4640 0.4550 0.4510
10.542000 0.4420 0.4360 0.4320 0.4240 0.4150
10.567000 0.4110 0.4010 0.3830 0.3800 0.3770
10.592000 0.3650 0.3520 0.3510 0.3410 0.3330
10.617000 0.3280 0.3230 0.3210 0.3060 0.3020
10.642000 0.2910 0.2740 0.2710 0.2600 0.2520
10.667000 0.2440 0.2350 0.2320 0.2230 0.2190
10.692000 0.2140 0.2070 0.2030 0.1950 0.1940
10.717000 0.1900 0.1830 0.1810 0.1750 0.1730
10.742000 0.1710 0.1680 0.1660 0.1660 0.1650
10.767000 0.1640 0.1610 0.1560 0.1540 0.1530
10.792000 0.1530 0.1540 0.1550 0.1600 0.1630
10.817000 0.1660 0.1710 0.1730 0.1750 0.1810
10.842000 0.1850 0.1890 0.1910 0.1940 0.2030
10.867000 0.2150 0.2250 0.2320 0.2420 0.2530
10.892000 0.2620 0.2720 0.2820 0.2860 0.2940
10.917000 0.3120 0.3230 0.3330 0.3430 0.3530
10.942000 0.3650 0.3730 0.3850 0.3930 0.4020
10.967000 0.4040 0.4120 0.4220 0.4250 0.4340
10.992000 0.4400 0.4510 0.4540 0.4640 0.4780
11.017000 0.4890 0.4940 0.5050 0.5060 0.5110
11.042000 0.5140 0.5210 0.5310 0.5350 0.5420
11.067000 0.5450 0.5520 0.5540 0.5580 0.5620
11.092000 0.5630 0.5670 0.5720 0.5730 0.5740
11.116000 0.5750 0.5770 0.5780 0.5790 0.5820
11.141000 0.5820 0.5840 0.5840 0.5850 0.5890
11.166000 0.5930 0.5930 0.5940 0.5950 0.5980
11.191000 0.5990 0.6010 0.6010 0.6020 0.6020
11.216000 0.6040 0.6040 0.6060 0.6080 0.6090
11.241000 0.6110 0.6120 0.6120 0.6120 0.6120
11.266000 0.6120 0.6130 0.6130 0.6130 0.6130
11.291000 0.6130 0.6130 0.6130 0.6130 0.6120
11.316000 0.6110 0.6060 0.6040 0.6040 0.6030
11.341000 0.6020 0.5970 0.5930 0.5870 0.5850
11.366000 0.5850 0.5840 0.5840 0.5830 0.5830
11.391000 0.5780 0.5740 0.5730 0.5680 0.5620
11.416000 0.5620 0.5540 0.5520 0.5520 0.5450
11.441000 0.5430 0.5370 0.5350 0.5340 0.5280
11.466000 0.5230 0.5200 0.5160 0.5150 0.5140
11.491000 0.5140 0.5130 0.5130 0.5130 0.5130
11.516000 0.5130 0.5140 0.5140 0.5150 0.5190
11.541000 0.5200 0.5210 0.5240 0.5260 0.5290
11.566000 0.5310 0.5340 0.5400 0.5450 0.5480
11.591000 0.5500 0.5500 0.5530 0.5570 0.5620
11.616000 0.5650 0.5690 0.5730 0.5770 0.5820
11.641000 0.5830 0.5900 0.5920 0.5940 0.5950
11.666000 0.5970 0.6020 0.6030 0.6070 0.6120
11.691000 0.6140 0.6160 0.6210 0.6230 0.6230
11.716000 0.6240 0.6260 0.6260 0.6290 0.6310
11.741000 0.6330 0.6360 0.6410 0.6420 0.6430
11.766000 0.6440 0.6440 0.6440 0.6460 0.6460
11.791000 0.6460 0.6460 0.6460 0.6470 0.6490
11.816000 0.6510 0.6520 0.6540 0.6570 0.6570
11.841000 0.6570 0.6580 0.6580 0.6580 0.6580
11.866000 0.6580 0.6580 0.6570 0.6570 0.6570
11.891000 0.6560 0.6560 0.6560 0.6540 0.6530
11.916000 0.6530 0.6520 0.6520 0.6520 0.6520
11.941000 0.6520 0.6510 0.6510 0.6490 0.6480
11.966000 0.6480 0.6470 0.6440 0.6430 0.6420
11.991000 0.6380 0.6340 0.6320 0.6290 0.6270
12.016000 0.6240 0.6240 0.6220 0.6130 0.6120
12.041000 0.6060 0.6030 0.6020 0.5940 0.5920
12.066000 0.5850 0.5840 0.5820 0.5720 0.5630
12.091000 0.5570 0.5520 0.5500 0.5430 0.5310
12.116000 0.5230 0.5130 0.5050 0.5010 0.4940
12.141000 0.4860 0.4810 0.4710 0.4650 0.4550
12.166000 0.4450 0.4410 0.4350 0.4310 0.4260
12.191000 0.4240 0.4190 0.4140 0.4110 0.4050
12.216000 0.4000 0.3950 0.3930 0.3920 0.3920
12.241000 0.3920 0.3930 0.3930 0.3950 0.3960
12.266000 0.4010 0.4040 0.4050 0.4110 0.4150
12.291000 0.4210 0.4240 0.4250 0.4300 0.4320
12.316000 0.4350 0.4410 0.4420 0.4440 0.4450
12.341000 0.4510 0.4520 0.4540 0.4560 0.4600
12.366000 0.4600 0.4620 0.4640 0.4640 0.4650
12.391000 0.4660 0.4660 0.4660 0.4660 0.4660
12.416000 0.4650 0.4640 0.4640 0.4610 0.4610
12.441000 0.4560 0.4550 0.4510 0.4450 0.4420
12.466000 0.4400 0.4340 0.4310 0.4250 0.4250
12.491000 0.4210 0.4150 0.4110 0.4020 0.3930
12.516000 0.3830 0.3810 0.3750 0.3650 0.3610
12.541000 0.3550 0.3510 0.3410 0.3350 0.3330
12.566000 0.3290 0.3280 0.3260 0.3220 0.3190
12.591000 0.3180 0.3140 0.3130 0.3110 0.3070
12.616000 0.3020 0.2990 0.2980 0.2970 0.2960
12.641000 0.2940 0.2940 0.2940 0.2960 0.2960
12.666000 0.2970 0.2970 0.2990 0.3020 0.3060
12.691000 0.3110 0.3140 0.3220 0.3240 0.3330
12.716000 0.3430 0.3530 0.3620 0.3710 0.3810
12.741000 0.3850 0.3920 0.4010 0.4010 0.4040
12.766000 0.4060 0.4150 0.4240 0.4290 0.4350
12.791000 0.4410 0.4440 0.4550 0.4620 0.4700
12.816000 0.4730 0.4750 0.4760 0.4810 0.4850
12.841000 0.4860 0.4930 0.4950 0.5050 0.5130
12.866000 0.5160 0.5210 0.5240 0.5250 0.5310
12.891000 0.5350 0.5370 0.5420 0.5440 0.5450
12.916000 0.5470 0.5530 0.5530 0.5570 0.5590
12.941000 0.5620 0.5640 0.5670 0.5700 0.5730
12.966000 0.5770 0.5770 0.5820 0.5840 0.5850
12.991000 0.5870 0.5920 0.5920 0.5940 0.5950
13.016000 0.5950 0.5970 0.5970 0.5980 0.5980
13.041000 0.5990 0.6010 0.6030 0.6040 0.6090
13.066000 0.6140 0.6180 0.6220 0.6230 0.6240
13.091000 0.6260 0.6260 0.6260 0.6270 0.6280
13.116000 0.6290 0.6320 0.6330 0.6360 0.6380
13.141000 0.6420 0.6440 0.6460 0.6460 0.6470
13.166000 0.6490 0.6490 0.6520 0.6520 0.6530
13.191000 0.6540 0.6540 0.6580 0.6610 0.6620
13.216000 0.6620 0.6620 0.6620 0.6620 0.6620
13.241000 0.6630 0.6640 0.6660 0.6660 0.6670
13.266000 0.6720 0.6720 0.6730 0.6730 0.6770
13.291000 0.6780 0.6800 0.6800 0.6810 0.6810
13.316000 0.6820 0.6820 0.6830 0.6830 0.6850
13.341000 0.6860 0.6860 0.6880 0.6900 0.6900
13.366000 0.6910 0.6910 0.6910 0.6910 0.6910
13.391000 0.6910 0.6910 0.6910 0.6910 0.6910
13.416000 0.6910 0.6920 0.6930 0.6970 0.6980
13.441000 0.7000 0.7000 0.7010 0.7010 0.7010
13.466000 0.7010 0.7010 0.7010 0.7010 0.7020
13.491000 0.7020 0.7030 0.7030 0.7030 0.7060
13.516000 0.7070 0.7070 0.7080 0.7080 0.7110
13.541000 0.7120 0.7120 0.7150 0.7160 0.7160
13.566000 0.7170 0.7170 0.7180 0.7200 0.7200
13.591000 0.7200 0.7210 0.7210 0.7210 0.7210
13.616000 0.7220 0.7220 0.7230 0.7250 0.7250
13.641000 0.7260 0.7260 0.7310 0.7310 0.7310
13.666000 0.7280 0.7260 0.7260 0.7250 0.7250
13.691000 0.7260 0.7260 0.7260 0.7260 0.7260
13.715000 0.7270 0.7270 0.7280 0.7310 0.7320
13.740000 0.7350 0.7360 0.7360 0.7360 0.7360
13.765000 0.7350 0.7350 0.7360 0.7360 0.7360
13.790000 0.7360 0.7370 0.7370 0.7370 0.7370
13.815000 0.7370 0.7370 0.7370 0.7370 0.7360
13.840000 0.7350 0.7350 0.7340 0.7320 0.7310
13.865000 0.7310 0.7300 0.7300 0.7300 0.7300
13.890000 0.7300 0.7300 0.7310 0.7320 0.7360
13.915000 0.7360 0.7360 0.7360 0.7350 0.7350
13.940000 0.7340 0.7340 0.7320 0.7340 0.7320
13.965000 0.7320 0.7320 0.7320 0.7340 0.7340
13.990000 0.7340 0.7340 0.7340 0.7340 0.7320
14.015000 0.7320 0.7300 0.7300 0.7300 0.7270
14.040000 0.7260 0.7260 0.7270 0.7280 0.7300
14.065000 0.7300 0.7310 0.7310 0.7310 0.7300
14.090000 0.7300 0.7260 0.7260 0.7260 0.7250
14.115000 0.7210 0.7200 0.7170 0.7160 0.7160
14.140000 0.7160 0.7150 0.7130 0.7130 0.7120
14.165000 0.7120 0.7120 0.7080 0.7050 0.7030
14.190000 0.7030 0.7000 0.6980 0.6980 0.6960
14.215000 0.6960 0.6960 0.6960 0.6950 0.6930
14.240000 0.6930 0.6920 0.6910 0.6910 0.6900
14.265000 0.6880 0.6880 0.6870 0.6860 0.6850
14.290000 0.6830 0.6820 0.6800 0.6760 0.6760
14.315000 0.6760 0.6760 0.6750 0.6720 0.6660
14.340000 0.6640 0.6640 0.6630 0.6630 0.6630
14.365000 0.6620 0.6610 0.6570 0.6560 0.6540
14.390000 0.6540 0.6530 0.6530 0.6520 0.6520
14.415000 0.6510 0.6460 0.6420 0.6410 0.6390
14.440000 0.6340 0.6330 0.6290 0.6260 0.6230
14.465000 0.6170 0.6140 0.6120 0.6060 0.6030
14.490000 0.6020 0.5950 0.5950 0.5940 0.5930
14.515000 0.5920 0.5900 0.5890 0.5850 0.5840
14.540000 0.5840 0.5830 0.5820 0.5730 0.5640
14.565000 0.5620 0.5580 0.5540 0.5530 0.5520
14.590000 0.5500 0.5490 0.5450 0.5440 0.5420
14.615000 0.5390 0.5370 0.5350 0.5340 0.5340
14.640000 0.5330 0.5330 0.5330 0.5330 0.5310
14.665000 0.5310 0.5310 0.5310 0.5300 0.5300
14.690000 0.5300 0.5300 0.5300 0.5300 0.5290
14.715000 0.5280 0.5280 0.5260 0.5260 0.5260
14.740000 0.5260 0.5280 0.5290 0.5290 0.5290
14.765000 0.5300 0.5300 0.5300 0.5300 0.5290
14.790000 0.5290 0.5290 0.5280 0.5260 0.5250
14.815000 0.5240 0.5230 0.5230 0.5230 0.5230
14.840000 0.5210 0.5200 0.5140 0.5110 0.5100
14.865000 0.5080 0.5050 0.5050 0.5050 0.5040
14.890000 0.5040 0.5010 0.5010 0.4980 0.4940
14.915000 0.4910 0.4860 0.4850 0.4840 0.4830
14.940000 0.4830 0.4810 0.4800 0.4800 0.4780
14.965000 0.4750 0.4740 0.4710 0.4700 0.4700
14.990000 0.4700 0.4680 0.4660
##END=
