##TITLE=Phenol, p-nitro-,
##JCAMP-DX=4.24
##DATA TYPE=INFRARED SPECTRUM
##CLASS=COBLENTZ III
##ORIGIN=WYANDOTTE CHEMICALS CORP.
##OWNER=Copyright (C) 1987 by the Coblentz Society
Collection (C) 2018 copyright by the U.S. Secretary of Commerce
on behalf of the United States of America. All rights reserved.
##DATE=Not specified, most likely prior to 1970
##NAMES=4-nitrophenol
##CAS REGISTRY NO=100-02-7
##MOLFORM=C6 H5 N O3
##MP=112-113 C
##SOURCE REFERENCE=COBLENTZ NO. 5952
##$NIST SOURCE=COBLENTZ
##$NIST IMAGE=cob5952
##SPECTROMETER/DATA SYSTEM=BAIRD (GRATING)
##INSTRUMENT PARAMETERS=NaCl PRISM
##STATE=SOLID (OIL MULL)
##PATH LENGTH=CAPILLARY
$$SPECTRAL CONTAMINATION DUE TO OIL AROUND 2900 CM^-^1
##RESOLUTION=2
##XUNITS=1/CM
##YUNITS=TRANSMITTANCE
##XFACTOR=1.0
##YFACTOR=1
##FIRSTX=626
##LASTX=4000
##FIRSTY=0.3012
##MAXX=4000
##MINX=626
##MAXY=0.9721
##MINY=0.0147
##NPOINTS=3375
##XYDATA=(X++(Y..Y))
626.000000 0.3012 0.3003 0.3022 0.3051 0.3085
631.000000 0.3149 0.3242 0.3381 0.3602 0.3886
636.000000 0.4400 0.4666 0.4938 0.5250 0.5404
641.000000 0.5464 0.5525 0.5551 0.5581 0.5619
646.000000 0.5657 0.5693 0.5729 0.5770 0.5815
651.000000 0.5865 0.5924 0.6001 0.6066 0.6137
656.000000 0.6208 0.6258 0.6297 0.6319 0.6359
661.000000 0.6296 0.6243 0.6216 0.6192 0.6342
666.000000 0.6516 0.6734 0.6903 0.7003 0.7074
671.000000 0.7139 0.7200 0.7251 0.7297 0.7343
676.000000 0.7387 0.7423 0.7424 0.7378 0.7323
681.000000 0.7248 0.7143 0.6988 0.6796 0.6589
686.000000 0.6316 0.5956 0.5417 0.4879 0.4342
691.000000 0.4028 0.3944 0.4245 0.4605 0.4965
696.000000 0.5324 0.5895 0.6163 0.6458 0.6712
701.000000 0.6920 0.7112 0.7280 0.7447 0.7566
706.000000 0.7639 0.7679 0.7696 0.7704 0.7705
711.000000 0.7695 0.7688 0.7673 0.7656 0.7632
716.000000 0.7606 0.7557 0.7524 0.7494 0.7489
721.000000 0.7492 0.7510 0.7531 0.7568 0.7605
726.000000 0.7646 0.7688 0.7729 0.7762 0.7795
731.000000 0.7827 0.7850 0.7874 0.7898 0.7908
736.000000 0.7917 0.7926 0.7928 0.7939 0.7941
741.000000 0.7933 0.7907 0.7865 0.7812 0.7736
746.000000 0.7637 0.7452 0.7217 0.6903 0.6469
751.000000 0.5935 0.4802 0.3535 0.2271 0.1473
756.000000 0.1466 0.1561 0.2794 0.3899 0.5002
761.000000 0.6609 0.7202 0.7641 0.7914 0.8093
766.000000 0.8214 0.8294 0.8355 0.8404 0.8443
771.000000 0.8470 0.8485 0.8496 0.8507 0.8518
776.000000 0.8529 0.8537 0.8547 0.8555 0.8563
781.000000 0.8568 0.8575 0.8636 0.8581 0.8579
786.000000 0.8577 0.8571 0.8562 0.8553 0.8541
791.000000 0.8527 0.8513 0.8492 0.8469 0.8446
796.000000 0.8423 0.8398 0.8371 0.8345 0.8318
801.000000 0.8283 0.8248 0.8198 0.8140 0.8048
806.000000 0.7883 0.7673 0.7469 0.7251 0.6563
811.000000 0.6303 0.6051 0.5852 0.5985 0.6184
816.000000 0.6207 0.5700 0.5272 0.4908 0.4913
821.000000 0.5984 0.6704 0.6799 0.6427 0.6083
826.000000 0.5740 0.5553 0.6080 0.6584 0.6985
831.000000 0.7198 0.7239 0.7213 0.7228 0.7168
836.000000 0.7081 0.6958 0.6841 0.6716 0.6575
841.000000 0.6360 0.6065 0.5435 0.4855 0.3767
846.000000 0.3037 0.2264 0.1493 0.0723 0.0372
851.000000 0.0323 0.0999 0.2102 0.3202 0.4300
856.000000 0.4905 0.4963 0.4922 0.4618 0.4209
861.000000 0.3801 0.3394 0.2987 0.2581 0.2176
866.000000 0.2085 0.3423 0.4949 0.6472 0.7732
871.000000 0.8083 0.8281 0.8443 0.8592 0.8683
876.000000 0.8733 0.8755 0.8789 0.8742 0.8730
881.000000 0.8717 0.8701 0.8685 0.8668 0.8649
886.000000 0.8629 0.8608 0.8583 0.8556 0.8527
891.000000 0.8500 0.8470 0.8440 0.8411 0.8381
896.000000 0.8351 0.8324 0.8306 0.8288 0.8269
901.000000 0.8251 0.8240 0.8234 0.8227 0.8220
906.000000 0.8211 0.8201 0.8190 0.8174 0.8152
911.000000 0.8129 0.8097 0.8063 0.8030 0.7996
916.000000 0.7960 0.7924 0.7888 0.7873 0.7873
921.000000 0.7878 0.7883 0.7882 0.7841 0.7789
926.000000 0.7738 0.7688 0.7664 0.7639 0.7614
931.000000 0.7600 0.7588 0.7576 0.7563 0.7551
936.000000 0.7538 0.7526 0.7513 0.7501 0.7488
941.000000 0.7475 0.7460 0.7446 0.7432 0.7405
946.000000 0.7366 0.7327 0.7271 0.7208 0.7145
951.000000 0.7052 0.6932 0.6804 0.6659 0.6489
956.000000 0.6189 0.5701 0.5215 0.5063 0.5067
961.000000 0.5670 0.6042 0.6413 0.6482 0.6505
966.000000 0.6546 0.6609 0.6709 0.6824 0.6894
971.000000 0.6927 0.6948 0.6963 0.6964 0.6961
976.000000 0.6954 0.6948 0.6935 0.6920 0.6905
981.000000 0.6889 0.6873 0.6858 0.6842 0.6827
986.000000 0.6811 0.6798 0.6790 0.6778 0.6755
991.000000 0.6709 0.6644 0.6592 0.6563 0.6539
996.000000 0.6509 0.6458 0.6398 0.6336 0.6244
1001.000000 0.6135 0.6040 0.5943 0.5785 0.5587
1006.000000 0.5304 0.5009 0.4760 0.4624 0.4570
1011.000000 0.5068 0.5434 0.5798 0.6161 0.6398
1016.000000 0.6427 0.6439 0.6409 0.6372 0.6333
1021.000000 0.6296 0.6259 0.6226 0.6195 0.6165
1026.000000 0.6137 0.6109 0.6080 0.6053 0.6033
1031.000000 0.6016 0.5999 0.5981 0.5961 0.5941
1036.000000 0.5921 0.5900 0.5876 0.5844 0.5811
1041.000000 0.5779 0.5748 0.5718 0.5687 0.5657
1046.000000 0.5627 0.5597 0.5566 0.5536 0.5505
1051.000000 0.5474 0.5444 0.5411 0.5376 0.5340
1056.000000 0.5305 0.5269 0.5235 0.5202 0.5169
1061.000000 0.5136 0.5102 0.5069 0.5026 0.4978
1066.000000 0.4931 0.4885 0.4838 0.4790 0.4735
1071.000000 0.4679 0.4625 0.4569 0.4514 0.4457
1076.000000 0.4399 0.4341 0.4283 0.4225 0.4165
1081.000000 0.4080 0.3995 0.3909 0.3824 0.3742
1086.000000 0.3660 0.3579 0.3504 0.3433 0.3363
1091.000000 0.3293 0.3212 0.3110 0.3008 0.2906
1096.000000 0.2808 0.2718 0.2637 0.2562 0.2490
1101.000000 0.2396 0.2253 0.1781 0.1576 0.1367
1106.000000 0.1152 0.0933 0.0768 0.0653 0.0590
1111.000000 0.0558 0.0529 0.0459 0.0345 0.0282
1116.000000 0.0258 0.0260 0.0248 0.0672 0.1287
1121.000000 0.1899 0.2510 0.3121 0.3730 0.4338
1126.000000 0.4946 0.5552 0.6157 0.6722 0.6812
1131.000000 0.6797 0.6794 0.6685 0.6547 0.6409
1136.000000 0.6271 0.6135 0.5998 0.5861 0.5725
1141.000000 0.5589 0.5453 0.5317 0.5182 0.5046
1146.000000 0.4911 0.4777 0.4641 0.4513 0.4395
1151.000000 0.4288 0.4194 0.4100 0.4006 0.3812
1156.000000 0.3542 0.3338 0.3144 0.2958 0.2762
1161.000000 0.2530 0.2297 0.2063 0.1830 0.1598
1166.000000 0.1365 0.1133 0.0902 0.0752 0.0606
1171.000000 0.0543 0.0521 0.0534 0.0965 0.1539
1176.000000 0.2113 0.2686 0.3257 0.3828 0.4397
1181.000000 0.4966 0.5270 0.5215 0.5010 0.4796
1186.000000 0.4581 0.4367 0.4153 0.3939 0.3726
1191.000000 0.3514 0.3301 0.3089 0.2882 0.2736
1196.000000 0.2627 0.2528 0.2467 0.2413 0.2359
1201.000000 0.2312 0.2266 0.2218 0.2161 0.2094
1206.000000 0.1983 0.1862 0.1732 0.1607 0.1479
1211.000000 0.1269 0.1075 0.0930 0.0842 0.0752
1216.000000 0.0664 0.0574 0.0483 0.0401 0.0337
1221.000000 0.0284 0.0248 0.0235 0.0226 0.0234
1226.000000 0.0264 0.0304 0.0365 0.0564 0.0808
1231.000000 0.1052 0.1295 0.1538 0.1781 0.2023
1236.000000 0.2265 0.2506 0.2673 0.2774 0.2816
1241.000000 0.2838 0.2854 0.2834 0.2846 0.2842
1246.000000 0.2828 0.2813 0.2795 0.2772 0.2748
1251.000000 0.2714 0.2673 0.2629 0.2558 0.2483
1256.000000 0.2405 0.2328 0.2250 0.2172 0.2094
1261.000000 0.2009 0.1914 0.1819 0.1724 0.1633
1266.000000 0.1543 0.1454 0.1336 0.1193 0.1096
1271.000000 0.1020 0.0946 0.0877 0.0808 0.0740
1276.000000 0.0678 0.0619 0.0560 0.0504 0.0458
1281.000000 0.0417 0.0375 0.0335 0.0307 0.0282
1286.000000 0.0258 0.0233 0.0208 0.0195 0.0181
1291.000000 0.0175 0.0196 0.0190 0.0207 0.0603
1296.000000 0.0996 0.1390 0.1783 0.2175 0.2567
1301.000000 0.2958 0.3349 0.3739 0.4067 0.4112
1306.000000 0.3967 0.3657 0.3335 0.3013 0.2691
1311.000000 0.2370 0.2050 0.1730 0.1410 0.1091
1316.000000 0.0780 0.0642 0.0565 0.0497 0.0430
1321.000000 0.0368 0.0316 0.0265 0.0229 0.0203
1326.000000 0.0177 0.0163 0.0182 0.0149 0.0149
1331.000000 0.0148 0.0148 0.0147 0.0147 0.0152
1336.000000 0.0157 0.0162 0.0172 0.0192 0.0213
1341.000000 0.0237 0.0267 0.0280 0.0281 0.0278
1346.000000 0.0275 0.0272 0.0257 0.0237 0.0217
1351.000000 0.0207 0.0210 0.0212 0.0369 0.0592
1356.000000 0.0814 0.1036 0.1258 0.1479 0.1700
1361.000000 0.1914 0.2287 0.2452 0.2611 0.2770
1366.000000 0.2929 0.3087 0.3245 0.3403 0.3561
1371.000000 0.3719 0.3876 0.4033 0.4190 0.4346
1376.000000 0.4491 0.4528 0.4415 0.4294 0.4173
1381.000000 0.4052 0.3932 0.3824 0.3789 0.3828
1386.000000 0.3779 0.4249 0.4462 0.4676 0.4888
1391.000000 0.5101 0.5313 0.5526 0.5737 0.5949
1396.000000 0.6159 0.6370 0.6580 0.6790 0.7041
1401.000000 0.7340 0.7455 0.7529 0.7582 0.7625
1406.000000 0.7663 0.7699 0.7734 0.7768 0.7807
1411.000000 0.7860 0.7920 0.7995 0.8074 0.8154
1416.000000 0.8226 0.8285 0.8340 0.8385 0.8415
1421.000000 0.8416 0.8432 0.8408 0.8399 0.8389
1426.000000 0.8367 0.8334 0.8285 0.8212 0.8142
1431.000000 0.8070 0.7967 0.7860 0.7745 0.7630
1436.000000 0.7497 0.6964 0.6336 0.5708 0.5080
1441.000000 0.4465 0.3966 0.3587 0.3419 0.3310
1446.000000 0.3222 0.3210 0.3206 0.3200 0.3195
1451.000000 0.3190 0.3170 0.3078 0.2961 0.2844
1456.000000 0.2728 0.2611 0.2495 0.2378 0.2263
1461.000000 0.2147 0.2031 0.1925 0.1881 0.1861
1466.000000 0.1846 0.1836 0.1826 0.1817 0.1805
1471.000000 0.1792 0.1778 0.1764 0.1748 0.1734
1476.000000 0.1728 0.1735 0.1768 0.1800 0.1830
1481.000000 0.1855 0.1857 0.1855 0.1850 0.1833
1486.000000 0.1761 0.1669 0.1568 0.1450 0.1329
1491.000000 0.1228 0.1139 0.1064 0.0995 0.0926
1496.000000 0.0846 0.0762 0.0679 0.0597 0.0519
1501.000000 0.0445 0.0377 0.0319 0.0276 0.0238
1506.000000 0.0223 0.0216 0.0212 0.0212 0.0237
1511.000000 0.0230 0.0253 0.0322 0.0449 0.0566
1516.000000 0.0703 0.0892 0.1046 0.1179 0.1241
1521.000000 0.1294 0.1340 0.1393 0.1609 0.1896
1526.000000 0.2140 0.2383 0.2626 0.2868 0.3111
1531.000000 0.3352 0.3594 0.3835 0.4065 0.4355
1536.000000 0.4876 0.5268 0.5393 0.5492 0.5585
1541.000000 0.5673 0.5762 0.5867 0.6040 0.6158
1546.000000 0.6245 0.6330 0.6398 0.6454 0.6510
1551.000000 0.6566 0.6622 0.6691 0.6779 0.6863
1556.000000 0.6933 0.6988 0.7044 0.7094 0.7138
1561.000000 0.7180 0.7221 0.7259 0.7286 0.7305
1566.000000 0.7323 0.7333 0.7339 0.7343 0.7371
1571.000000 0.7330 0.7309 0.7277 0.7221 0.7148
1576.000000 0.7068 0.6990 0.6918 0.6846 0.6774
1581.000000 0.6701 0.6620 0.6504 0.6366 0.6230
1586.000000 0.6097 0.5937 0.5736 0.5522 0.5314
1591.000000 0.5133 0.4941 0.4564 0.4122 0.3697
1596.000000 0.3273 0.2849 0.2427 0.2005 0.1583
1601.000000 0.1161 0.0774 0.0509 0.0377 0.0304
1606.000000 0.0279 0.0281 0.0275 0.0341 0.0577
1611.000000 0.0858 0.1138 0.1418 0.1697 0.1976
1616.000000 0.2255 0.2533 0.2811 0.3089 0.3435
1621.000000 0.3439 0.3443 0.3112 0.2534 0.1903
1626.000000 0.1442 0.1277 0.1395 0.1288 0.2169
1631.000000 0.2597 0.3024 0.3452 0.3878 0.4304
1636.000000 0.4730 0.5155 0.5579 0.6003 0.6426
1641.000000 0.6850 0.7272 0.7693 0.8089 0.8429
1646.000000 0.8707 0.8811 0.8897 0.8963 0.9034
1651.000000 0.9119 0.9245 0.9352 0.9404 0.9422
1656.000000 0.9441 0.9426 0.9423 0.9417 0.9409
1661.000000 0.9394 0.9377 0.9359 0.9342 0.9324
1666.000000 0.9305 0.9286 0.9267 0.9249 0.9234
1671.000000 0.9217 0.9189 0.9159 0.9129 0.9096
1676.000000 0.9057 0.9018 0.8988 0.8963 0.8952
1681.000000 0.8947 0.8961 0.8948 0.8951 0.8961
1686.000000 0.8987 0.9031 0.9092 0.9144 0.9193
1691.000000 0.9235 0.9274 0.9312 0.9346 0.9369
1696.000000 0.9393 0.9416 0.9434 0.9446 0.9455
1701.000000 0.9464 0.9470 0.9469 0.9459 0.9448
1706.000000 0.9437 0.9425 0.9403 0.9371 0.9351
1711.000000 0.9335 0.9330 0.9331 0.9333 0.9337
1716.000000 0.9348 0.9376 0.9429 0.9488 0.9540
1721.000000 0.9583 0.9621 0.9659 0.9681 0.9700
1726.000000 0.9709 0.9714 0.9717 0.9719 0.9719
1731.000000 0.9721 0.9721 0.9720 0.9719 0.9718
1736.000000 0.9718 0.9716 0.9710 0.9694 0.9666
1741.000000 0.9639 0.9612 0.9581 0.9548 0.9513
1746.000000 0.9477 0.9436 0.9394 0.9367 0.9357
1751.000000 0.9359 0.9362 0.9366 0.9371 0.9390
1756.000000 0.9422 0.9458 0.9492 0.9532 0.9573
1761.000000 0.9604 0.9623 0.9643 0.9650 0.9651
1766.000000 0.9648 0.9641 0.9633 0.9603 0.9565
1771.000000 0.9521 0.9466 0.9387 0.9309 0.9232
1776.000000 0.9161 0.9103 0.9061 0.9022 0.9011
1781.000000 0.9016 0.9017 0.9021 0.9031 0.9052
1786.000000 0.9086 0.9132 0.9181 0.9218 0.9250
1791.000000 0.9282 0.9312 0.9342 0.9371 0.9397
1796.000000 0.9414 0.9425 0.9429 0.9428 0.9426
1801.000000 0.9424 0.9421 0.9411 0.9395 0.9378
1806.000000 0.9362 0.9348 0.9334 0.9319 0.9305
1811.000000 0.9295 0.9289 0.9285 0.9285 0.9288
1816.000000 0.9293 0.9301 0.9312 0.9322 0.9333
1821.000000 0.9343 0.9355 0.9367 0.9378 0.9390
1826.000000 0.9402 0.9413 0.9421 0.9426 0.9429
1831.000000 0.9432 0.9431 0.9427 0.9421 0.9417
1836.000000 0.9412 0.9407 0.9401 0.9390 0.9377
1841.000000 0.9365 0.9354 0.9343 0.9332 0.9321
1846.000000 0.9310 0.9300 0.9289 0.9278 0.9267
1851.000000 0.9257 0.9246 0.9235 0.9223 0.9212
1856.000000 0.9200 0.9189 0.9178 0.9166 0.9155
1861.000000 0.9143 0.9132 0.9120 0.9110 0.9101
1866.000000 0.9093 0.9087 0.9080 0.9073 0.9066
1871.000000 0.9059 0.9052 0.9045 0.9038 0.9035
1876.000000 0.9032 0.9029 0.9026 0.9023 0.9021
1881.000000 0.9018 0.9015 0.9011 0.9004 0.8996
1886.000000 0.8989 0.8981 0.8972 0.8952 0.8931
1891.000000 0.8910 0.8888 0.8862 0.8832 0.8802
1896.000000 0.8774 0.8747 0.8723 0.8698 0.8673
1901.000000 0.8649 0.8622 0.8588 0.8545 0.8500
1906.000000 0.8438 0.8359 0.8251 0.8142 0.8034
1911.000000 0.7925 0.7816 0.7708 0.7601 0.7551
1916.000000 0.7529 0.7530 0.7546 0.7591 0.7682
1921.000000 0.7508 0.7865 0.7957 0.8049 0.8140
1926.000000 0.8231 0.8322 0.8413 0.8503 0.8532
1931.000000 0.8553 0.8540 0.8535 0.8528 0.8520
1936.000000 0.8511 0.8497 0.8479 0.8463 0.8448
1941.000000 0.8433 0.8419 0.8404 0.8390 0.8376
1946.000000 0.8363 0.8350 0.8337 0.8324 0.8311
1951.000000 0.8297 0.8284 0.8270 0.8257 0.8244
1956.000000 0.8232 0.8220 0.8208 0.8197 0.8186
1961.000000 0.8176 0.8169 0.8164 0.8160 0.8157
1966.000000 0.8154 0.8150 0.8149 0.8149 0.8150
1971.000000 0.8151 0.8152 0.8153 0.8155 0.8156
1976.000000 0.8157 0.8158 0.8160 0.8165 0.8168
1981.000000 0.8170 0.8169 0.8168 0.8168 0.8166
1986.000000 0.8165 0.8165 0.8162 0.8159 0.8157
1991.000000 0.8154 0.8151 0.8145 0.8139 0.8134
1996.000000 0.8129 0.8123 0.8118 0.8112 0.8107
2001.000000 0.8102 0.8096 0.8091 0.8083 0.8075
2006.000000 0.8067 0.8059 0.8052 0.8044 0.8036
2011.000000 0.8028 0.8019 0.8009 0.8000 0.7991
2016.000000 0.7982 0.7972 0.7963 0.7954 0.7944
2021.000000 0.7935 0.7929 0.7924 0.7921 0.7916
2026.000000 0.7912 0.7909 0.7905 0.7901 0.7898
2031.000000 0.7894 0.7890 0.7886 0.7882 0.7879
2036.000000 0.7875 0.7871 0.7867 0.7861 0.7854
2041.000000 0.7847 0.7839 0.7832 0.7825 0.7817
2046.000000 0.7809 0.7801 0.7791 0.7779 0.7767
2051.000000 0.7755 0.7743 0.7731 0.7719 0.7706
2056.000000 0.7691 0.7677 0.7663 0.7648 0.7636
2061.000000 0.7625 0.7617 0.7609 0.7602 0.7594
2066.000000 0.7586 0.7579 0.7572 0.7565 0.7558
2071.000000 0.7552 0.7547 0.7543 0.7539 0.7535
2076.000000 0.7531 0.7527 0.7523 0.7520 0.7517
2081.000000 0.7515 0.7512 0.7509 0.7507 0.7505
2086.000000 0.7502 0.7500 0.7498 0.7495 0.7492
2091.000000 0.7490 0.7487 0.7484 0.7481 0.7477
2096.000000 0.7474 0.7471 0.7467 0.7464 0.7460
2101.000000 0.7457 0.7454 0.7450 0.7446 0.7442
2106.000000 0.7437 0.7431 0.7425 0.7419 0.7413
2111.000000 0.7407 0.7400 0.7392 0.7384 0.7376
2116.000000 0.7366 0.7356 0.7347 0.7337 0.7327
2121.000000 0.7317 0.7307 0.7296 0.7285 0.7274
2126.000000 0.7263 0.7252 0.7241 0.7230 0.7219
2131.000000 0.7208 0.7197 0.7188 0.7179 0.7171
2136.000000 0.7162 0.7153 0.7145 0.7137 0.7129
2141.000000 0.7121 0.7113 0.7104 0.7095 0.7087
2146.000000 0.7079 0.7071 0.7064 0.7055 0.7048
2151.000000 0.7040 0.7032 0.7024 0.7016 0.7009
2156.000000 0.7001 0.6993 0.6985 0.6978 0.6970
2161.000000 0.6962 0.6954 0.6947 0.6939 0.6932
2166.000000 0.6924 0.6917 0.6909 0.6901 0.6894
2171.000000 0.6886 0.6879 0.6871 0.6864 0.6856
2176.000000 0.6849 0.6842 0.6835 0.6829 0.6822
2181.000000 0.6815 0.6808 0.6801 0.6794 0.6788
2186.000000 0.6781 0.6774 0.6767 0.6760 0.6758
2191.000000 0.6756 0.6756 0.6756 0.6756 0.6756
2196.000000 0.6756 0.6757 0.6757 0.6757 0.6758
2201.000000 0.6760 0.6763 0.6765 0.6767 0.6769
2206.000000 0.6771 0.6772 0.6774 0.6775 0.6777
2211.000000 0.6778 0.6779 0.6780 0.6781 0.6782
2216.000000 0.6782 0.6782 0.6781 0.6780 0.6779
2221.000000 0.6776 0.6773 0.6770 0.6767 0.6764
2226.000000 0.6761 0.6757 0.6753 0.6749 0.6744
2231.000000 0.6739 0.6734 0.6729 0.6724 0.6718
2236.000000 0.6711 0.6705 0.6699 0.6693 0.6687
2241.000000 0.6681 0.6674 0.6664 0.6655 0.6645
2246.000000 0.6635 0.6622 0.6608 0.6591 0.6574
2251.000000 0.6556 0.6539 0.6519 0.6497 0.6476
2256.000000 0.6455 0.6439 0.6425 0.6414 0.6404
2261.000000 0.6396 0.6389 0.6384 0.6380 0.6377
2266.000000 0.6373 0.6369 0.6365 0.6361 0.6358
2271.000000 0.6355 0.6354 0.6352 0.6351 0.6349
2276.000000 0.6348 0.6346 0.6345 0.6343 0.6338
2281.000000 0.6334 0.6329 0.6324 0.6320 0.6315
2286.000000 0.6311 0.6306 0.6299 0.6291 0.6282
2291.000000 0.6272 0.6262 0.6252 0.6240 0.6226
2296.000000 0.6211 0.6194 0.6177 0.6160 0.6143
2301.000000 0.6126 0.6110 0.6081 0.6052 0.6022
2306.000000 0.5993 0.5968 0.5946 0.5923 0.5900
2311.000000 0.5877 0.5855 0.5836 0.5823 0.5810
2316.000000 0.5797 0.5784 0.5771 0.5758 0.5745
2321.000000 0.5732 0.5719 0.5706 0.5693 0.5680
2326.000000 0.5667 0.5654 0.5641 0.5627 0.5613
2331.000000 0.5600 0.5586 0.5572 0.5559 0.5545
2336.000000 0.5532 0.5518 0.5504 0.5491 0.5477
2341.000000 0.5464 0.5452 0.5440 0.5427 0.5415
2346.000000 0.5409 0.5405 0.5401 0.5396 0.5392
2351.000000 0.5387 0.5383 0.5378 0.5374 0.5370
2356.000000 0.5366 0.5361 0.5357 0.5353 0.5349
2361.000000 0.5346 0.5344 0.5341 0.5339 0.5336
2366.000000 0.5334 0.5332 0.5331 0.5329 0.5328
2371.000000 0.5327 0.5325 0.5324 0.5322 0.5320
2376.000000 0.5319 0.5318 0.5316 0.5315 0.5313
2381.000000 0.5311 0.5310 0.5309 0.5307 0.5305
2386.000000 0.5303 0.5300 0.5297 0.5294 0.5292
2391.000000 0.5289 0.5286 0.5283 0.5278 0.5273
2396.000000 0.5268 0.5262 0.5256 0.5251 0.5243
2401.000000 0.5234 0.5220 0.5200 0.5178 0.5147
2406.000000 0.5116 0.5086 0.5055 0.5025 0.4994
2411.000000 0.4963 0.4929 0.4896 0.4853 0.4808
2416.000000 0.4759 0.4706 0.4659 0.4633 0.4606
2421.000000 0.4588 0.4572 0.4562 0.4556 0.4538
2426.000000 0.4552 0.4552 0.4554 0.4557 0.4561
2431.000000 0.4568 0.4574 0.4585 0.4596 0.4626
2436.000000 0.4664 0.4703 0.4744 0.4785 0.4826
2441.000000 0.4867 0.4908 0.4948 0.4989 0.5030
2446.000000 0.5071 0.5112 0.5152 0.5193 0.5233
2451.000000 0.5274 0.5318 0.5361 0.5380 0.5385
2456.000000 0.5399 0.5389 0.5390 0.5390 0.5389
2461.000000 0.5388 0.5386 0.5385 0.5383 0.5381
2466.000000 0.5379 0.5376 0.5373 0.5367 0.5361
2471.000000 0.5353 0.5344 0.5335 0.5323 0.5311
2476.000000 0.5300 0.5288 0.5277 0.5265 0.5253
2481.000000 0.5242 0.5231 0.5219 0.5207 0.5196
2486.000000 0.5182 0.5168 0.5155 0.5141 0.5128
2491.000000 0.5116 0.5105 0.5096 0.5092 0.5088
2496.000000 0.5086 0.5085 0.5084 0.5082 0.5081
2501.000000 0.5080 0.5080 0.5079 0.5078 0.5077
2506.000000 0.5073 0.5069 0.5064 0.5060 0.5056
2511.000000 0.5048 0.5041 0.5033 0.5026 0.5018
2516.000000 0.5011 0.5003 0.4996 0.4988 0.4980
2521.000000 0.4970 0.4960 0.4949 0.4937 0.4925
2526.000000 0.4914 0.4902 0.4891 0.4883 0.4874
2531.000000 0.4867 0.4861 0.4855 0.4855 0.4855
2536.000000 0.4855 0.4855 0.4855 0.4855 0.4855
2541.000000 0.4855 0.4855 0.4855 0.4855 0.4855
2546.000000 0.4856 0.4856 0.4856 0.4856 0.4856
2551.000000 0.4856 0.4856 0.4857 0.4858 0.4858
2556.000000 0.4858 0.4859 0.4859 0.4860 0.4860
2561.000000 0.4861 0.4862 0.4862 0.4862 0.4863
2566.000000 0.4863 0.4864 0.4864 0.4864 0.4865
2571.000000 0.4865 0.4865 0.4866 0.4866 0.4867
2576.000000 0.4867 0.4867 0.4867 0.4867 0.4868
2581.000000 0.4868 0.4868 0.4868 0.4868 0.4868
2586.000000 0.4869 0.4869 0.4869 0.4869 0.4869
2591.000000 0.4869 0.4869 0.4869 0.4867 0.4865
2596.000000 0.4863 0.4860 0.4858 0.4856 0.4854
2601.000000 0.4852 0.4849 0.4847 0.4845 0.4841
2606.000000 0.4838 0.4834 0.4828 0.4821 0.4815
2611.000000 0.4808 0.4802 0.4795 0.4789 0.4783
2616.000000 0.4774 0.4764 0.4755 0.4745 0.4735
2621.000000 0.4725 0.4716 0.4706 0.4695 0.4682
2626.000000 0.4669 0.4656 0.4644 0.4631 0.4621
2631.000000 0.4610 0.4600 0.4593 0.4585 0.4578
2636.000000 0.4571 0.4563 0.4559 0.4554 0.4550
2641.000000 0.4547 0.4545 0.4541 0.4537 0.4533
2646.000000 0.4528 0.4520 0.4513 0.4502 0.4490
2651.000000 0.4478 0.4464 0.4450 0.4437 0.4423
2656.000000 0.4410 0.4397 0.4382 0.4368 0.4351
2661.000000 0.4331 0.4312 0.4298 0.4289 0.4281
2666.000000 0.4276 0.4274 0.4271 0.4268 0.4265
2671.000000 0.4262 0.4261 0.4259 0.4257 0.4256
2676.000000 0.4254 0.4253 0.4252 0.4250 0.4248
2681.000000 0.4244 0.4241 0.4237 0.4233 0.4229
2686.000000 0.4225 0.4221 0.4217 0.4213 0.4210
2691.000000 0.4206 0.4201 0.4196 0.4191 0.4186
2696.000000 0.4180 0.4175 0.4169 0.4163 0.4157
2701.000000 0.4151 0.4146 0.4140 0.4134 0.4129
2706.000000 0.4123 0.4118 0.4112 0.4106 0.4101
2711.000000 0.4095 0.4090 0.4084 0.4079 0.4074
2716.000000 0.4071 0.4067 0.4063 0.4060 0.4056
2721.000000 0.4053 0.4049 0.4046 0.4047 0.4048
2726.000000 0.4050 0.4053 0.4056 0.4059 0.4062
2731.000000 0.4065 0.4069 0.4074 0.4080 0.4085
2736.000000 0.4093 0.4101 0.4109 0.4118 0.4128
2741.000000 0.4137 0.4146 0.4155 0.4163 0.4169
2746.000000 0.4174 0.4179 0.4181 0.4182 0.4182
2751.000000 0.4217 0.4183 0.4183 0.4182 0.4181
2756.000000 0.4180 0.4179 0.4178 0.4177 0.4175
2761.000000 0.4172 0.4169 0.4165 0.4162 0.4158
2766.000000 0.4154 0.4148 0.4143 0.4137 0.4131
2771.000000 0.4126 0.4121 0.4115 0.4110 0.4105
2776.000000 0.4099 0.4094 0.4088 0.4083 0.4078
2781.000000 0.4073 0.4066 0.4060 0.4053 0.4046
2786.000000 0.4040 0.4033 0.4027 0.4020 0.4014
2791.000000 0.4001 0.3987 0.3974 0.3960 0.3946
2796.000000 0.3932 0.3917 0.3902 0.3886 0.3869
2801.000000 0.3850 0.3831 0.3811 0.3789 0.3767
2806.000000 0.3744 0.3715 0.3685 0.3656 0.3624
2811.000000 0.3593 0.3561 0.3525 0.3487 0.3449
2816.000000 0.3413 0.3378 0.3342 0.3307 0.3273
2821.000000 0.3238 0.3204 0.3169 0.3134 0.3099
2826.000000 0.3063 0.3027 0.2990 0.2873 0.2752
2831.000000 0.2630 0.2508 0.2386 0.2264 0.2142
2836.000000 0.2020 0.1899 0.1777 0.1656 0.1535
2841.000000 0.1413 0.1292 0.1171 0.1050 0.0955
2846.000000 0.0865 0.0775 0.0722 0.0692 0.0661
2851.000000 0.0633 0.0609 0.0585 0.0562 0.0545
2856.000000 0.0529 0.0513 0.0497 0.0481 0.0465
2861.000000 0.0449 0.0432 0.0416 0.0403 0.0399
2866.000000 0.0394 0.0389 0.0386 0.0383 0.0380
2871.000000 0.0378 0.0376 0.0375 0.0374 0.0375
2876.000000 0.0376 0.0377 0.0379 0.0380 0.0382
2881.000000 0.0384 0.0386 0.0388 0.0390 0.0392
2886.000000 0.0393 0.0395 0.0396 0.0396 0.0397
2891.000000 0.0398 0.0398 0.0398 0.0398 0.0398
2896.000000 0.0398 0.0397 0.0397 0.0397 0.0397
2901.000000 0.0394 0.0390 0.0387 0.0382 0.0377
2906.000000 0.0372 0.0367 0.0362 0.0357 0.0351
2911.000000 0.0344 0.0335 0.0326 0.0318 0.0310
2916.000000 0.0302 0.0294 0.0287 0.0280 0.0273
2921.000000 0.0266 0.0259 0.0252 0.0245 0.0239
2926.000000 0.0232 0.0226 0.0221 0.0216 0.0211
2931.000000 0.0207 0.0202 0.0197 0.0193 0.0191
2936.000000 0.0190 0.0190 0.0189 0.0189 0.0188
2941.000000 0.0188 0.0187 0.0186 0.0186 0.0185
2946.000000 0.0185 0.0184 0.0184 0.0183 0.0182
2951.000000 0.0182 0.0182 0.0183 0.0184 0.0184
2956.000000 0.0186 0.0187 0.0188 0.0189 0.0190
2961.000000 0.0191 0.0191 0.0193 0.0194 0.0195
2966.000000 0.0196 0.0198 0.0200 0.0201 0.0203
2971.000000 0.0206 0.0208 0.0210 0.0212 0.0214
2976.000000 0.0216 0.0236 0.0260 0.0285 0.0311
2981.000000 0.0342 0.0373 0.0404 0.0436 0.0467
2986.000000 0.0498 0.0529 0.0560 0.0591 0.0622
2991.000000 0.0653 0.0685 0.0716 0.0747 0.0778
2996.000000 0.0809 0.0840 0.0871 0.0902 0.0932
3001.000000 0.0963 0.0994 0.1025 0.1056 0.1087
3006.000000 0.1118 0.1149 0.1179 0.1210 0.1241
3011.000000 0.1271 0.1302 0.1333 0.1363 0.1394
3016.000000 0.1424 0.1455 0.1486 0.1517 0.1546
3021.000000 0.1575 0.1603 0.1632 0.1644 0.1656
3026.000000 0.1669 0.1680 0.1689 0.1698 0.1708
3031.000000 0.1716 0.1723 0.1731 0.1739 0.1743
3036.000000 0.1747 0.1752 0.1755 0.1757 0.1760
3041.000000 0.1762 0.1763 0.1764 0.1765 0.1766
3046.000000 0.1807 0.1765 0.1764 0.1763 0.1761
3051.000000 0.1759 0.1757 0.1754 0.1749 0.1744
3056.000000 0.1739 0.1732 0.1725 0.1718 0.1711
3061.000000 0.1704 0.1697 0.1691 0.1682 0.1670
3066.000000 0.1658 0.1645 0.1634 0.1624 0.1614
3071.000000 0.1604 0.1595 0.1587 0.1578 0.1570
3076.000000 0.1561 0.1553 0.1544 0.1536 0.1530
3081.000000 0.1523 0.1517 0.1510 0.1504 0.1497
3086.000000 0.1491 0.1485 0.1480 0.1475 0.1470
3091.000000 0.1468 0.1468 0.1467 0.1467 0.1466
3096.000000 0.1465 0.1464 0.1463 0.1463 0.1462
3101.000000 0.1461 0.1460 0.1460 0.1460 0.1460
3106.000000 0.1460 0.1462 0.1464 0.1467 0.1468
3111.000000 0.1470 0.1472 0.1474 0.1476 0.1477
3116.000000 0.1479 0.1480 0.1482 0.1483 0.1485
3121.000000 0.1486 0.1488 0.1489 0.1491 0.1493
3126.000000 0.1493 0.1494 0.1495 0.1495 0.1495
3131.000000 0.1494 0.1494 0.1493 0.1492 0.1491
3136.000000 0.1490 0.1489 0.1486 0.1483 0.1480
3141.000000 0.1478 0.1475 0.1473 0.1470 0.1468
3146.000000 0.1465 0.1462 0.1459 0.1456 0.1451
3151.000000 0.1446 0.1441 0.1437 0.1432 0.1427
3156.000000 0.1422 0.1417 0.1412 0.1406 0.1401
3161.000000 0.1394 0.1387 0.1380 0.1373 0.1366
3166.000000 0.1359 0.1352 0.1345 0.1339 0.1332
3171.000000 0.1325 0.1318 0.1311 0.1303 0.1295
3176.000000 0.1287 0.1279 0.1270 0.1261 0.1252
3181.000000 0.1244 0.1235 0.1226 0.1218 0.1209
3186.000000 0.1200 0.1192 0.1183 0.1174 0.1165
3191.000000 0.1156 0.1147 0.1138 0.1128 0.1117
3196.000000 0.1107 0.1097 0.1087 0.1077 0.1067
3201.000000 0.1057 0.1047 0.1037 0.1027 0.1017
3206.000000 0.1007 0.0998 0.0988 0.0979 0.0969
3211.000000 0.0960 0.0950 0.0941 0.0932 0.0922
3216.000000 0.0913 0.0904 0.0895 0.0885 0.0876
3221.000000 0.0867 0.0857 0.0848 0.0839 0.0830
3226.000000 0.0821 0.0811 0.0802 0.0793 0.0783
3231.000000 0.0774 0.0765 0.0755 0.0746 0.0737
3236.000000 0.0727 0.0718 0.0709 0.0699 0.0690
3241.000000 0.0681 0.0672 0.0662 0.0653 0.0644
3246.000000 0.0634 0.0626 0.0620 0.0614 0.0608
3251.000000 0.0602 0.0597 0.0591 0.0585 0.0580
3256.000000 0.0574 0.0568 0.0562 0.0556 0.0550
3261.000000 0.0545 0.0539 0.0533 0.0528 0.0522
3266.000000 0.0516 0.0510 0.0504 0.0499 0.0493
3271.000000 0.0488 0.0482 0.0477 0.0472 0.0466
3276.000000 0.0461 0.0457 0.0455 0.0452 0.0450
3281.000000 0.0447 0.0445 0.0442 0.0439 0.0437
3286.000000 0.0437 0.0438 0.0438 0.0439 0.0440
3291.000000 0.0440 0.0441 0.0441 0.0416 0.0442
3296.000000 0.0443 0.0444 0.0444 0.0446 0.0447
3301.000000 0.0449 0.0451 0.0452 0.0454 0.0455
3306.000000 0.0457 0.0459 0.0460 0.0462 0.0463
3311.000000 0.0465 0.0472 0.0480 0.0489 0.0497
3316.000000 0.0506 0.0518 0.0529 0.0540 0.0551
3321.000000 0.0562 0.0574 0.0585 0.0596 0.0608
3326.000000 0.0622 0.0635 0.0648 0.0661 0.0674
3331.000000 0.0687 0.0700 0.0713 0.0726 0.0739
3336.000000 0.0752 0.0765 0.0778 0.0791 0.0804
3341.000000 0.0817 0.0829 0.0841 0.0852 0.0863
3346.000000 0.0874 0.0885 0.0895 0.0906 0.0917
3351.000000 0.0928 0.0939 0.0950 0.0962 0.0973
3356.000000 0.0984 0.0995 0.1005 0.1016 0.1027
3361.000000 0.1039 0.1051 0.1063 0.1076 0.1088
3366.000000 0.1101 0.1114 0.1128 0.1141 0.1154
3371.000000 0.1168 0.1181 0.1195 0.1208 0.1221
3376.000000 0.1234 0.1247 0.1261 0.1274 0.1287
3381.000000 0.1300 0.1314 0.1327 0.1341 0.1355
3386.000000 0.1369 0.1383 0.1397 0.1412 0.1427
3391.000000 0.1442 0.1457 0.1471 0.1486 0.1501
3396.000000 0.1516 0.1530 0.1545 0.1560 0.1574
3401.000000 0.1589 0.1604 0.1618 0.1632 0.1646
3406.000000 0.1661 0.1674 0.1688 0.1701 0.1715
3411.000000 0.1728 0.1742 0.1756 0.1770 0.1783
3416.000000 0.1797 0.1811 0.1824 0.1838 0.1852
3421.000000 0.1865 0.1879 0.1892 0.1906 0.1919
3426.000000 0.1933 0.1946 0.1960 0.1974 0.1987
3431.000000 0.2000 0.2014 0.2027 0.2041 0.2054
3436.000000 0.2068 0.2081 0.2095 0.2111 0.2139
3441.000000 0.2167 0.2195 0.2223 0.2253 0.2287
3446.000000 0.2321 0.2355 0.2388 0.2421 0.2454
3451.000000 0.2487 0.2520 0.2553 0.2586 0.2618
3456.000000 0.2651 0.2683 0.2715 0.2747 0.2779
3461.000000 0.2811 0.2843 0.2874 0.2904 0.2934
3466.000000 0.2964 0.2994 0.3024 0.3054 0.3084
3471.000000 0.3114 0.3144 0.3177 0.3211 0.3245
3476.000000 0.3280 0.3314 0.3348 0.3382 0.3417
3481.000000 0.3451 0.3484 0.3511 0.3538 0.3565
3486.000000 0.3592 0.3618 0.3641 0.3664 0.3687
3491.000000 0.3710 0.3733 0.3756 0.3780 0.3803
3496.000000 0.3826 0.3849 0.3871 0.3894 0.3916
3501.000000 0.3939 0.3961 0.3983 0.4006 0.4028
3506.000000 0.4051 0.4072 0.4094 0.4116 0.4138
3511.000000 0.4159 0.4176 0.4192 0.4207 0.4222
3516.000000 0.4238 0.4253 0.4269 0.4284 0.4299
3521.000000 0.4315 0.4330 0.4345 0.4360 0.4376
3526.000000 0.4391 0.4418 0.4446 0.4474 0.4502
3531.000000 0.4530 0.4568 0.4607 0.4645 0.4683
3536.000000 0.4722 0.4749 0.4776 0.4802 0.4829
3541.000000 0.4855 0.4865 0.4872 0.4880 0.4888
3546.000000 0.4896 0.4902 0.4908 0.4914 0.4921
3551.000000 0.4927 0.4930 0.4933 0.4935 0.4938
3556.000000 0.4941 0.4966 0.4945 0.4947 0.4949
3561.000000 0.4951 0.4953 0.4954 0.4955 0.4957
3566.000000 0.4958 0.4959 0.4959 0.4959 0.4959
3571.000000 0.4959 0.4958 0.4956 0.4955 0.4954
3576.000000 0.4952 0.4951 0.4949 0.4948 0.4946
3581.000000 0.4945 0.4943 0.4941 0.4938 0.4936
3586.000000 0.4934 0.4932 0.4930 0.4927 0.4925
3591.000000 0.4923 0.4920 0.4914 0.4908 0.4902
3596.000000 0.4896 0.4890 0.4884 0.4877 0.4871
3601.000000 0.4864 0.4858 0.4850 0.4843 0.4836
3606.000000 0.4828 0.4821 0.4814 0.4807 0.4800
3611.000000 0.4793 0.4786 0.4778 0.4768 0.4759
3616.000000 0.4749 0.4740 0.4730 0.4720 0.4709
3621.000000 0.4699 0.4689 0.4678 0.4668 0.4659
3626.000000 0.4649 0.4639 0.4629 0.4619 0.4609
3631.000000 0.4600 0.4590 0.4580 0.4571 0.4561
3636.000000 0.4551 0.4541 0.4531 0.4522 0.4515
3641.000000 0.4509 0.4503 0.4497 0.4490 0.4484
3646.000000 0.4478 0.4472 0.4466 0.4459 0.4453
3651.000000 0.4447 0.4441 0.4435 0.4429 0.4423
3656.000000 0.4417 0.4411 0.4405 0.4399 0.4392
3661.000000 0.4386 0.4380 0.4375 0.4369 0.4363
3666.000000 0.4357 0.4350 0.4344 0.4338 0.4332
3671.000000 0.4326 0.4320 0.4314 0.4308 0.4301
3676.000000 0.4295 0.4289 0.4283 0.4277 0.4271
3681.000000 0.4265 0.4259 0.4253 0.4247 0.4241
3686.000000 0.4234 0.4228 0.4222 0.4216 0.4210
3691.000000 0.4204 0.4198 0.4192 0.4186 0.4180
3696.000000 0.4173 0.4167 0.4161 0.4155 0.4149
3701.000000 0.4143 0.4137 0.4131 0.4125 0.4118
3706.000000 0.4112 0.4106 0.4100 0.4094 0.4087
3711.000000 0.4081 0.4075 0.4068 0.4062 0.4056
3716.000000 0.4049 0.4043 0.4037 0.4030 0.4024
3721.000000 0.4018 0.4011 0.4005 0.3999 0.3992
3726.000000 0.3986 0.3980 0.3974 0.3967 0.3961
3731.000000 0.3955 0.3948 0.3942 0.3936 0.3930
3736.000000 0.3923 0.3917 0.3911 0.3905 0.3899
3741.000000 0.3893 0.3888 0.3882 0.3877 0.3872
3746.000000 0.3866 0.3861 0.3856 0.3851 0.3846
3751.000000 0.3840 0.3835 0.3830 0.3824 0.3819
3756.000000 0.3814 0.3808 0.3803 0.3798 0.3792
3761.000000 0.3787 0.3782 0.3777 0.3772 0.3767
3766.000000 0.3762 0.3756 0.3751 0.3746 0.3740
3771.000000 0.3735 0.3730 0.3725 0.3720 0.3715
3776.000000 0.3710 0.3705 0.3699 0.3694 0.3689
3781.000000 0.3684 0.3678 0.3673 0.3668 0.3663
3786.000000 0.3657 0.3652 0.3647 0.3642 0.3637
3791.000000 0.3632 0.3627 0.3622 0.3617 0.3612
3796.000000 0.3607 0.3602 0.3597 0.3591 0.3587
3801.000000 0.3583 0.3579 0.3575 0.3571 0.3567
3806.000000 0.3563 0.3560 0.3556 0.3552 0.3548
3811.000000 0.3544 0.3540 0.3536 0.3533 0.3529
3816.000000 0.3525 0.3521 0.3517 0.3513 0.3509
3821.000000 0.3505 0.3501 0.3497 0.3493 0.3489
3826.000000 0.3485 0.3481 0.3477 0.3473 0.3470
3831.000000 0.3466 0.3462 0.3458 0.3454 0.3450
3836.000000 0.3446 0.3443 0.3439 0.3435 0.3431
3841.000000 0.3428 0.3424 0.3420 0.3416 0.3412
3846.000000 0.3408 0.3404 0.3400 0.3396 0.3393
3851.000000 0.3389 0.3385 0.3381 0.3377 0.3373
3856.000000 0.3369 0.3365 0.3362 0.3358 0.3354
3861.000000 0.3350 0.3346 0.3342 0.3338 0.3335
3866.000000 0.3331 0.3327 0.3324 0.3320 0.3316
3871.000000 0.3313 0.3310 0.3307 0.3304 0.3301
3876.000000 0.3297 0.3294 0.3291 0.3288 0.3285
3881.000000 0.3282 0.3278 0.3275 0.3272 0.3269
3886.000000 0.3266 0.3263 0.3260 0.3256 0.3253
3891.000000 0.3250 0.3247 0.3244 0.3241 0.3238
3896.000000 0.3234 0.3231 0.3228 0.3225 0.3222
3901.000000 0.3219 0.3216 0.3213 0.3210 0.3206
3906.000000 0.3203 0.3200 0.3197 0.3194 0.3191
3911.000000 0.3188 0.3185 0.3182 0.3178 0.3175
3916.000000 0.3172 0.3169 0.3166 0.3163 0.3160
3921.000000 0.3157 0.3154 0.3151 0.3147 0.3144
3926.000000 0.3141 0.3138 0.3135 0.3132 0.3129
3931.000000 0.3126 0.3123 0.3120 0.3117 0.3114
3936.000000 0.3111 0.3108 0.3104 0.3101 0.3098
3941.000000 0.3095 0.3092 0.3089 0.3086 0.3083
3946.000000 0.3080 0.3077 0.3074 0.3071 0.3068
3951.000000 0.3065 0.3062 0.3059 0.3056 0.3053
3956.000000 0.3049 0.3046 0.3043 0.3039 0.3036
3961.000000 0.3033 0.3029 0.3026 0.3023 0.3020
3966.000000 0.3017 0.3013 0.3010 0.3007 0.3004
3971.000000 0.3000 0.2997 0.2994 0.2990 0.2987
3976.000000 0.2984 0.2980 0.2977 0.2974 0.2970
3981.000000 0.2967 0.2964 0.2961 0.2958 0.2955
3986.000000 0.2951 0.2948 0.2945 0.2942 0.2938
3991.000000 0.2935 0.2932 0.2929 0.2925 0.2922
3996.000000 0.2919 0.2915 0.2912 0.2909 0.2906
##END=
