##TITLE=N-Methylaniline
##JCAMP-DX=4.24
$$ By DXEDIT 1.05 (RS McDonald)
##DATA TYPE=INFRARED SPECTRUM
##CLASS=COBLENTZ III
##ORIGIN=DOW CHEMICAL COMPANY
##OWNER=COPYRIGHT (C) 1988 by COBLENTZ SOCIETY INC.
Collection (C) 2018 copyright by the U.S. Secretary of Commerce
on behalf of the United States of America. All rights reserved.
##DATE=1962/09/19
##NAMES=N-methyl-N-phenylamine
##CAS REGISTRY NO=100-61-8
##MOLFORM=C7 H9 N
##SOURCE REFERENCE=COBLENTZ NO. 7497
##$NIST SOURCE=COBLENTZ
##$NIST IMAGE=cob7497
##SPECTROMETER/DATA SYSTEM=DOW KBr FOREPRISM-GRATING
##INSTRUMENT PARAMETERS=BLAZED AT 3.5, 12.0, 20.0 MICRON AND CHANGED AT 5.0, 7.5, 14.9 MICRON
##STATE=SOLUTION (10% CCl4 FOR 3800-1335, 10% CS2 FOR 1335-450 CM^-^1)
##PATH LENGTH=0.010 CM, 0.011 CM
$$SPECTRAL CONTAMINATION DUE TO CS2 AROUND 850 AND CCl4 AROUND 1550 CM^-^1 HAVE BEEN SUBTRACTED
##SAMPLING PROCEDURE=TRANSMISSION
##RESOLUTION=2
##DATA PROCESSING=DIGITIZED BY COBLENTZ SOCIETY (BATCH I) FROM HARD COPY
##XUNITS=1/CM
##YUNITS=TRANSMITTANCE
##XFACTOR=1
##YFACTOR=1
##DELTAX=1
##FIRSTX=3796
##LASTX=450
##FIRSTY=0.9394
##MAXX=3796
##MINX=450
##MAXY=0.9568
##MINY=0.0001
##NPOINTS=3347
##XYDATA=(X++(Y..Y))
3796.000000 0.9394 0.9384 0.9398 0.9398 0.9399
3791.000000 0.9399 0.9399 0.9399 0.9400 0.9400
3786.000000 0.9400 0.9399 0.9389 0.9383 0.9384
3781.000000 0.9397 0.9402 0.9387 0.9400 0.9403
3776.000000 0.9403 0.9385 0.9404 0.9404 0.9405
3771.000000 0.9406 0.9407 0.9408 0.9409 0.9409
3766.000000 0.9410 0.9411 0.9412 0.9412 0.9413
3761.000000 0.9414 0.9424 0.9423 0.9415 0.9415
3756.000000 0.9416 0.9416 0.9417 0.9417 0.9417
3751.000000 0.9417 0.9419 0.9419 0.9420 0.9420
3746.000000 0.9420 0.9420 0.9422 0.9422 0.9423
3741.000000 0.9423 0.9424 0.9429 0.9442 0.9442
3736.000000 0.9442 0.9442 0.9433 0.9424 0.9436
3731.000000 0.9444 0.9444 0.9444 0.9445 0.9445
3726.000000 0.9445 0.9445 0.9445 0.9445 0.9445
3721.000000 0.9445 0.9447 0.9429 0.9430 0.9447
3716.000000 0.9447 0.9447 0.9447 0.9445 0.9450
3711.000000 0.9457 0.9450 0.9459 0.9459 0.9459
3706.000000 0.9459 0.9458 0.9458 0.9457 0.9457
3701.000000 0.9455 0.9455 0.9455 0.9455 0.9454
3696.000000 0.9438 0.9434 0.9434 0.9434 0.9434
3691.000000 0.9432 0.9429 0.9426 0.9424 0.9417
3686.000000 0.9401 0.9398 0.9396 0.9394 0.9391
3681.000000 0.9388 0.9386 0.9381 0.9377 0.9369
3676.000000 0.9363 0.9356 0.9350 0.9343 0.9336
3671.000000 0.9330 0.9338 0.9320 0.9310 0.9306
3666.000000 0.9301 0.9300 0.9299 0.9299 0.9299
3661.000000 0.9298 0.9298 0.9297 0.9297 0.9297
3656.000000 0.9297 0.9296 0.9296 0.9295 0.9295
3651.000000 0.9294 0.9294 0.9293 0.9293 0.9292
3646.000000 0.9292 0.9291 0.9291 0.9289 0.9289
3641.000000 0.9288 0.9288 0.9287 0.9287 0.9286
3636.000000 0.9286 0.9285 0.9285 0.9287 0.9302
3631.000000 0.9300 0.9295 0.9282 0.9288 0.9298
3626.000000 0.9298 0.9297 0.9297 0.9296 0.9296
3621.000000 0.9297 0.9298 0.9299 0.9300 0.9301
3616.000000 0.9302 0.9303 0.9304 0.9305 0.9306
3611.000000 0.9308 0.9309 0.9308 0.9295 0.9312
3606.000000 0.9313 0.9314 0.9315 0.9310 0.9304
3601.000000 0.9317 0.9310 0.9299 0.9308 0.9317
3596.000000 0.9317 0.9317 0.9317 0.9316 0.9316
3591.000000 0.9316 0.9316 0.9315 0.9315 0.9315
3586.000000 0.9315 0.9313 0.9313 0.9313 0.9313
3581.000000 0.9313 0.9313 0.9312 0.9312 0.9312
3576.000000 0.9307 0.9298 0.9309 0.9307 0.9298
3571.000000 0.9286 0.9285 0.9284 0.9283 0.9281
3566.000000 0.9280 0.9278 0.9277 0.9274 0.9273
3561.000000 0.9272 0.9271 0.9269 0.9268 0.9266
3556.000000 0.9265 0.9279 0.9262 0.9261 0.9273
3551.000000 0.9270 0.9262 0.9251 0.9260 0.9257
3546.000000 0.9254 0.9243 0.9238 0.9244 0.9241
3541.000000 0.9238 0.9224 0.9224 0.9215 0.9218
3536.000000 0.9220 0.9216 0.9213 0.9207 0.9200
3531.000000 0.9193 0.9187 0.9163 0.9157 0.9149
3526.000000 0.9143 0.9137 0.9130 0.9124 0.9117
3521.000000 0.9110 0.9104 0.9096 0.9091 0.9084
3516.000000 0.9077 0.9071 0.9065 0.9057 0.9051
3511.000000 0.9042 0.9035 0.9027 0.9019 0.9011
3506.000000 0.9003 0.8994 0.8987 0.8979 0.8972
3501.000000 0.8963 0.8956 0.8947 0.8940 0.8932
3496.000000 0.8925 0.8917 0.8909 0.8895 0.8882
3491.000000 0.8867 0.8853 0.8839 0.8826 0.8812
3486.000000 0.8798 0.8784 0.8771 0.8747 0.8725
3481.000000 0.8695 0.8665 0.8631 0.8600 0.8557
3476.000000 0.8515 0.8473 0.8433 0.8378 0.8323
3471.000000 0.8262 0.8199 0.8127 0.8054 0.7974
3466.000000 0.7892 0.7770 0.7648 0.7591 0.7534
3461.000000 0.7477 0.7420 0.7367 0.7312 0.7261
3456.000000 0.7209 0.7150 0.7093 0.6852 0.6609
3451.000000 0.6369 0.6130 0.5839 0.5549 0.5286
3446.000000 0.5024 0.4760 0.4498 0.4234 0.3972
3441.000000 0.3909 0.3846 0.3828 0.3782 0.3802
3436.000000 0.3794 0.3799 0.3806 0.3830 0.3855
3431.000000 0.3886 0.3915 0.3947 0.3979 0.4243
3426.000000 0.4509 0.4592 0.4688 0.4779 0.4867
3421.000000 0.4958 0.5048 0.5137 0.5227 0.5316
3416.000000 0.5405 0.5495 0.5585 0.5674 0.5764
3411.000000 0.5854 0.5943 0.6033 0.6123 0.6219
3406.000000 0.6308 0.6392 0.6482 0.6571 0.6661
3401.000000 0.6750 0.6839 0.6928 0.7019 0.7108
3396.000000 0.7198 0.7288 0.7377 0.7466 0.7557
3391.000000 0.7646 0.7737 0.7821 0.7904 0.7930
3386.000000 0.7960 0.7986 0.8015 0.8042 0.8071
3381.000000 0.8098 0.8126 0.8152 0.8177 0.8197
3376.000000 0.8220 0.8242 0.8265 0.8285 0.8307
3371.000000 0.8330 0.8366 0.8375 0.8395 0.8416
3366.000000 0.8440 0.8454 0.8471 0.8487 0.8503
3361.000000 0.8518 0.8534 0.8548 0.8565 0.8581
3356.000000 0.8597 0.8611 0.8627 0.8644 0.8660
3351.000000 0.8675 0.8691 0.8706 0.8722 0.8737
3346.000000 0.8752 0.8779 0.8796 0.8795 0.8822
3341.000000 0.8821 0.8835 0.8849 0.8879 0.8893
3336.000000 0.8904 0.8903 0.8917 0.8931 0.8945
3331.000000 0.8955 0.8967 0.8977 0.8988 0.8998
3326.000000 0.9011 0.9021 0.9033 0.9044 0.9055
3321.000000 0.9066 0.9077 0.9088 0.9099 0.9110
3316.000000 0.9120 0.9131 0.9142 0.9152 0.9180
3311.000000 0.9190 0.9201 0.9206 0.9210 0.9205
3306.000000 0.9225 0.9231 0.9231 0.9225 0.9231
3301.000000 0.9236 0.9242 0.9242 0.9243 0.9243
3296.000000 0.9244 0.9244 0.9244 0.9244 0.9245
3291.000000 0.9245 0.9246 0.9246 0.9247 0.9247
3286.000000 0.9248 0.9248 0.9248 0.9265 0.9263
3281.000000 0.9248 0.9252 0.9266 0.9261 0.9249
3276.000000 0.9255 0.9266 0.9266 0.9266 0.9267
3271.000000 0.9267 0.9267 0.9267 0.9267 0.9267
3266.000000 0.9267 0.9267 0.9267 0.9266 0.9265
3261.000000 0.9263 0.9278 0.9258 0.9256 0.9253
3256.000000 0.9236 0.9250 0.9248 0.9246 0.9243
3251.000000 0.9240 0.9238 0.9236 0.9234 0.9232
3246.000000 0.9230 0.9219 0.9217 0.9222 0.9221
3241.000000 0.9218 0.9217 0.9214 0.9211 0.9209
3236.000000 0.9207 0.9205 0.9203 0.9201 0.9199
3231.000000 0.9196 0.9193 0.9189 0.9186 0.9179
3226.000000 0.9161 0.9161 0.9171 0.9168 0.9165
3221.000000 0.9160 0.9157 0.9153 0.9150 0.9146
3216.000000 0.9142 0.9137 0.9133 0.9129 0.9124
3211.000000 0.9119 0.9115 0.9111 0.9092 0.9084
3206.000000 0.9080 0.9078 0.9075 0.9073 0.9072
3201.000000 0.9070 0.9070 0.9080 0.9068 0.9075
3196.000000 0.9065 0.9075 0.9074 0.9072 0.9070
3191.000000 0.9068 0.9057 0.9057 0.9063 0.9063
3186.000000 0.9051 0.9046 0.9046 0.9044 0.9044
3181.000000 0.9044 0.9044 0.9043 0.9043 0.9043
3176.000000 0.9043 0.9041 0.9041 0.9041 0.9041
3171.000000 0.9041 0.9041 0.9041 0.9041 0.9041
3166.000000 0.9041 0.9041 0.9049 0.9058 0.9049
3161.000000 0.9051 0.9058 0.9057 0.9045 0.9052
3156.000000 0.9045 0.9041 0.9057 0.9060 0.9061
3151.000000 0.9062 0.9062 0.9062 0.9045 0.9044
3146.000000 0.9041 0.9038 0.9036 0.9034 0.9032
3141.000000 0.9034 0.9043 0.9040 0.9037 0.9033
3136.000000 0.9030 0.9022 0.9012 0.8985 0.8956
3131.000000 0.8917 0.8877 0.8817 0.8757 0.8700
3126.000000 0.8642 0.8596 0.8548 0.8484 0.8419
3121.000000 0.8335 0.8251 0.8235 0.8219 0.8202
3116.000000 0.8189 0.8175 0.8160 0.8147 0.8135
3111.000000 0.8111 0.8091 0.8044 0.7998 0.7886
3106.000000 0.7772 0.7684 0.7596 0.7471 0.7347
3101.000000 0.7142 0.6949 0.6907 0.6865 0.6861
3096.000000 0.6857 0.6862 0.6854 0.6845 0.6836
3091.000000 0.6788 0.6749 0.6668 0.6591 0.6527
3086.000000 0.6375 0.6420 0.6381 0.6379 0.6377
3081.000000 0.6432 0.6489 0.6569 0.6657 0.6751
3076.000000 0.6904 0.6867 0.6911 0.6897 0.6872
3071.000000 0.6837 0.6805 0.6489 0.6197 0.5950
3066.000000 0.5718 0.5484 0.5249 0.5006 0.4773
3061.000000 0.4539 0.4309 0.4081 0.3848 0.3611
3056.000000 0.3374 0.3326 0.3245 0.3279 0.3285
3051.000000 0.3449 0.3612 0.4052 0.4492 0.4878
3046.000000 0.5273 0.5310 0.5354 0.5388 0.5423
3041.000000 0.5454 0.5484 0.5504 0.5524 0.5543
3036.000000 0.5554 0.5567 0.5586 0.5598 0.5614
3031.000000 0.5621 0.5668 0.5542 0.5467 0.5291
3026.000000 0.5115 0.4942 0.4773 0.4602 0.4431
3021.000000 0.4342 0.4250 0.4330 0.4402 0.4569
3016.000000 0.4729 0.4894 0.5062 0.5230 0.5397
3011.000000 0.5564 0.5731 0.5897 0.6063 0.6220
3006.000000 0.6391 0.6488 0.6606 0.6581 0.6573
3001.000000 0.6573 0.6571 0.6432 0.6289 0.6150
2996.000000 0.6012 0.5874 0.5736 0.5607 0.5471
2991.000000 0.5332 0.5194 0.5098 0.5002 0.4911
2986.000000 0.4820 0.4794 0.4770 0.4764 0.4721
2981.000000 0.4758 0.4762 0.4790 0.4808 0.4884
2976.000000 0.4969 0.5085 0.5202 0.5319 0.5436
2971.000000 0.5551 0.5668 0.5792 0.5913 0.6029
2966.000000 0.6146 0.6190 0.6235 0.6251 0.6288
2961.000000 0.6268 0.6269 0.6274 0.6267 0.6171
2956.000000 0.6087 0.5985 0.5886 0.5567 0.5238
2951.000000 0.5233 0.5234 0.5234 0.5241 0.5255
2946.000000 0.5270 0.5289 0.5314 0.5327 0.5345
2941.000000 0.5305 0.5273 0.5196 0.5117 0.5037
2936.000000 0.4958 0.4770 0.4590 0.4560 0.4529
2931.000000 0.4512 0.4459 0.4483 0.4474 0.4520
2926.000000 0.4567 0.4629 0.4692 0.4754 0.4812
2921.000000 0.4864 0.4921 0.4919 0.4963 0.4764
2916.000000 0.4611 0.4416 0.4223 0.4028 0.3834
2911.000000 0.3641 0.3374 0.3422 0.3403 0.3406
2906.000000 0.3402 0.3427 0.3453 0.3511 0.3568
2901.000000 0.3629 0.3688 0.3747 0.3805 0.3866
2896.000000 0.3925 0.3940 0.3953 0.3957 0.3957
2891.000000 0.3952 0.3948 0.3883 0.3819 0.3754
2886.000000 0.3690 0.3625 0.3562 0.3502 0.3418
2881.000000 0.3431 0.3422 0.3425 0.3429 0.3624
2876.000000 0.3833 0.4037 0.4243 0.4448 0.4653
2871.000000 0.4858 0.5063 0.5268 0.5473 0.5552
2866.000000 0.5632 0.5667 0.5702 0.5762 0.5822
2861.000000 0.5857 0.5893 0.5928 0.5963 0.6052
2856.000000 0.6141 0.6278 0.6407 0.6544 0.6682
2851.000000 0.6819 0.6956 0.7010 0.7066 0.7080
2846.000000 0.7106 0.7130 0.7153 0.7169 0.7202
2841.000000 0.7221 0.7234 0.7247 0.7271 0.7277
2836.000000 0.7323 0.7270 0.7270 0.7251 0.7232
2831.000000 0.6900 0.6571 0.6250 0.5911 0.5588
2826.000000 0.5258 0.4918 0.4587 0.4263 0.3926
2821.000000 0.3602 0.3270 0.3010 0.2750 0.2750
2816.000000 0.2731 0.2892 0.3034 0.3262 0.3490
2811.000000 0.3718 0.3946 0.4174 0.4408 0.4639
2806.000000 0.4868 0.5096 0.5323 0.5553 0.5781
2801.000000 0.6010 0.6239 0.6467 0.6696 0.6834
2796.000000 0.6972 0.7040 0.7108 0.7245 0.7383
2791.000000 0.7458 0.7549 0.7610 0.7684 0.7752
2786.000000 0.7821 0.7898 0.7974 0.8018 0.8060
2781.000000 0.8114 0.8167 0.8212 0.8258 0.8295
2776.000000 0.8332 0.8360 0.8388 0.8416 0.8444
2771.000000 0.8469 0.8496 0.8509 0.8526 0.8542
2766.000000 0.8558 0.8572 0.8589 0.8604 0.8621
2761.000000 0.8628 0.8637 0.8643 0.8649 0.8656
2756.000000 0.8663 0.8663 0.8664 0.8664 0.8664
2751.000000 0.8664 0.8664 0.8664 0.8666 0.8666
2746.000000 0.8666 0.8670 0.8675 0.8679 0.8685
2741.000000 0.8701 0.8716 0.8730 0.8745 0.8758
2736.000000 0.8773 0.8787 0.8802 0.8818 0.8834
2731.000000 0.8854 0.8873 0.8890 0.8910 0.8929
2726.000000 0.8947 0.8959 0.8971 0.8977 0.8984
2721.000000 0.8991 0.8998 0.9004 0.9012 0.9018
2716.000000 0.9026 0.9032 0.9040 0.9042 0.9045
2711.000000 0.9046 0.9049 0.9051 0.9053 0.9055
2706.000000 0.9056 0.9060 0.9062 0.9063 0.9065
2701.000000 0.9067 0.9069 0.9070 0.9070 0.9070
2696.000000 0.9070 0.9069 0.9069 0.9068 0.9068
2691.000000 0.9067 0.9067 0.9066 0.9066 0.9065
2686.000000 0.9065 0.9063 0.9063 0.9065 0.9066
2681.000000 0.9067 0.9068 0.9068 0.9069 0.9070
2676.000000 0.9071 0.9072 0.9073 0.9074 0.9075
2671.000000 0.9076 0.9077 0.9078 0.9080 0.9082
2666.000000 0.9085 0.9089 0.9092 0.9094 0.9097
2661.000000 0.9098 0.9101 0.9106 0.9107 0.9125
2656.000000 0.9123 0.9117 0.9112 0.9106 0.9100
2651.000000 0.9089 0.9072 0.9067 0.9070 0.9077
2646.000000 0.9077 0.9066 0.9061 0.9062 0.9076
2641.000000 0.9071 0.9068 0.9069 0.9071 0.9072
2636.000000 0.9074 0.9075 0.9094 0.9098 0.9101
2631.000000 0.9088 0.9095 0.9114 0.9118 0.9121
2626.000000 0.9125 0.9130 0.9134 0.9136 0.9139
2621.000000 0.9141 0.9143 0.9145 0.9148 0.9150
2616.000000 0.9150 0.9151 0.9151 0.9150 0.9149
2611.000000 0.9147 0.9146 0.9142 0.9138 0.9129
2606.000000 0.9121 0.9111 0.9103 0.9093 0.9085
2601.000000 0.9075 0.9066 0.9056 0.9045 0.9033
2596.000000 0.9023 0.9010 0.8998 0.8984 0.8972
2591.000000 0.8958 0.8946 0.8915 0.8885 0.8854
2586.000000 0.8823 0.8784 0.8747 0.8696 0.8644
2581.000000 0.8605 0.8564 0.8544 0.8525 0.8514
2576.000000 0.8491 0.8502 0.8500 0.8526 0.8551
2571.000000 0.8581 0.8611 0.8636 0.8664 0.8689
2566.000000 0.8717 0.8745 0.8772 0.8800 0.8828
2561.000000 0.8855 0.8883 0.8901 0.8922 0.8940
2556.000000 0.8959 0.8977 0.8997 0.9015 0.9033
2551.000000 0.9045 0.9058 0.9064 0.9071 0.9079
2546.000000 0.9087 0.9093 0.9101 0.9108 0.9116
2541.000000 0.9121 0.9128 0.9134 0.9140 0.9145
2536.000000 0.9152 0.9157 0.9163 0.9169 0.9174
2531.000000 0.9180 0.9187 0.9192 0.9198 0.9205
2526.000000 0.9211 0.9217 0.9225 0.9230 0.9239
2521.000000 0.9245 0.9252 0.9259 0.9266 0.9273
2516.000000 0.9279 0.9283 0.9289 0.9295 0.9301
2511.000000 0.9306 0.9312 0.9317 0.9322 0.9324
2506.000000 0.9326 0.9325 0.9325 0.9325 0.9323
2501.000000 0.9317 0.9311 0.9305 0.9300 0.9295
2496.000000 0.9290 0.9285 0.9280 0.9275 0.9271
2491.000000 0.9270 0.9269 0.9268 0.9267 0.9266
2486.000000 0.9265 0.9263 0.9262 0.9261 0.9260
2481.000000 0.9270 0.9276 0.9274 0.9273 0.9272
2476.000000 0.9271 0.9270 0.9269 0.9268 0.9268
2471.000000 0.9267 0.9266 0.9266 0.9266 0.9266
2466.000000 0.9269 0.9273 0.9277 0.9282 0.9287
2461.000000 0.9291 0.9295 0.9300 0.9298 0.9303
2456.000000 0.9307 0.9304 0.9311 0.9328 0.9340
2451.000000 0.9342 0.9334 0.9346 0.9353 0.9357
2446.000000 0.9360 0.9363 0.9367 0.9370 0.9373
2441.000000 0.9375 0.9378 0.9379 0.9380 0.9381
2436.000000 0.9382 0.9383 0.9385 0.9385 0.9386
2431.000000 0.9386 0.9386 0.9386 0.9386 0.9380
2426.000000 0.9376 0.9364 0.9352 0.9342 0.9331
2421.000000 0.9324 0.9317 0.9311 0.9305 0.9299
2416.000000 0.9294 0.9287 0.9282 0.9276 0.9270
2411.000000 0.9265 0.9259 0.9259 0.9261 0.9248
2406.000000 0.9256 0.9252 0.9233 0.9247 0.9246
2401.000000 0.9245 0.9244 0.9243 0.9242 0.9243
2396.000000 0.9245 0.9247 0.9250 0.9252 0.9255
2391.000000 0.9260 0.9263 0.9286 0.9291 0.9295
2386.000000 0.9301 0.9308 0.9328 0.9332 0.9342
2381.000000 0.9358 0.9365 0.9372 0.9387 0.9398
2376.000000 0.9410 0.9411 0.9423 0.9432 0.9433
2371.000000 0.9430 0.9428 0.9411 0.9404 0.9401
2366.000000 0.9399 0.9396 0.9393 0.9390 0.9388
2361.000000 0.9386 0.9400 0.9398 0.9410 0.9408
2356.000000 0.9421 0.9428 0.9421 0.9414 0.9408
2351.000000 0.9394 0.9378 0.9365 0.9363 0.9357
2346.000000 0.9342 0.9312 0.9270 0.9234 0.9204
2341.000000 0.9177 0.9149 0.9110 0.9100 0.9104
2336.000000 0.9090 0.9092 0.9113 0.9116 0.9120
2331.000000 0.9152 0.9198 0.9218 0.9239 0.9263
2326.000000 0.9295 0.9318 0.9347 0.9357 0.9368
2321.000000 0.9365 0.9362 0.9358 0.9354 0.9351
2316.000000 0.9348 0.9345 0.9341 0.9338 0.9336
2311.000000 0.9332 0.9330 0.9327 0.9324 0.9320
2306.000000 0.9318 0.9315 0.9316 0.9316 0.9319
2301.000000 0.9322 0.9327 0.9336 0.9352 0.9355
2296.000000 0.9360 0.9363 0.9366 0.9370 0.9374
2291.000000 0.9379 0.9386 0.9391 0.9384 0.9384
2286.000000 0.9390 0.9395 0.9402 0.9391 0.9394
2281.000000 0.9400 0.9406 0.9410 0.9400 0.9406
2276.000000 0.9410 0.9402 0.9408 0.9415 0.9414
2271.000000 0.9410 0.9416 0.9415 0.9411 0.9417
2266.000000 0.9422 0.9415 0.9410 0.9413 0.9416
2261.000000 0.9406 0.9405 0.9408 0.9396 0.9396
2256.000000 0.9400 0.9403 0.9389 0.9391 0.9395
2251.000000 0.9396 0.9383 0.9387 0.9390 0.9392
2246.000000 0.9395 0.9393 0.9384 0.9387 0.9390
2241.000000 0.9391 0.9393 0.9394 0.9396 0.9397
2236.000000 0.9400 0.9389 0.9385 0.9386 0.9388
2231.000000 0.9389 0.9391 0.9392 0.9395 0.9396
2226.000000 0.9398 0.9399 0.9401 0.9402 0.9401
2221.000000 0.9387 0.9389 0.9390 0.9392 0.9392
2216.000000 0.9394 0.9394 0.9395 0.9395 0.9395
2211.000000 0.9395 0.9397 0.9397 0.9398 0.9399
2206.000000 0.9399 0.9399 0.9401 0.9401 0.9402
2201.000000 0.9402 0.9402 0.9402 0.9404 0.9404
2196.000000 0.9403 0.9390 0.9406 0.9402 0.9389
2191.000000 0.9389 0.9390 0.9390 0.9390 0.9390
2186.000000 0.9390 0.9390 0.9400 0.9398 0.9392
2181.000000 0.9394 0.9398 0.9400 0.9417 0.9424
2176.000000 0.9427 0.9429 0.9432 0.9437 0.9441
2171.000000 0.9444 0.9449 0.9452 0.9440 0.9444
2166.000000 0.9448 0.9447 0.9447 0.9443 0.9440
2161.000000 0.9436 0.9431 0.9426 0.9422 0.9416
2156.000000 0.9412 0.9407 0.9403 0.9397 0.9393
2151.000000 0.9388 0.9383 0.9378 0.9373 0.9368
2146.000000 0.9364 0.9359 0.9353 0.9348 0.9343
2141.000000 0.9336 0.9330 0.9325 0.9318 0.9312
2136.000000 0.9305 0.9298 0.9292 0.9284 0.9277
2131.000000 0.9269 0.9262 0.9254 0.9247 0.9239
2126.000000 0.9233 0.9227 0.9220 0.9215 0.9194
2121.000000 0.9202 0.9201 0.9199 0.9198 0.9196
2116.000000 0.9195 0.9192 0.9192 0.9192 0.9196
2111.000000 0.9199 0.9203 0.9206 0.9210 0.9216
2106.000000 0.9222 0.9230 0.9237 0.9243 0.9251
2101.000000 0.9258 0.9266 0.9272 0.9267 0.9268
2096.000000 0.9289 0.9295 0.9284 0.9301 0.9307
2091.000000 0.9310 0.9313 0.9316 0.9321 0.9325
2086.000000 0.9329 0.9334 0.9339 0.9343 0.9347
2081.000000 0.9349 0.9352 0.9352 0.9353 0.9353
2076.000000 0.9352 0.9352 0.9350 0.9341 0.9332
2071.000000 0.9318 0.9305 0.9292 0.9279 0.9272
2066.000000 0.9268 0.9267 0.9265 0.9265 0.9265
2061.000000 0.9268 0.9270 0.9271 0.9272 0.9279
2056.000000 0.9293 0.9295 0.9297 0.9298 0.9292
2051.000000 0.9291 0.9302 0.9294 0.9287 0.9288
2046.000000 0.9289 0.9290 0.9291 0.9292 0.9294
2041.000000 0.9295 0.9296 0.9297 0.9300 0.9301
2036.000000 0.9302 0.9303 0.9305 0.9306 0.9307
2031.000000 0.9309 0.9311 0.9312 0.9320 0.9328
2026.000000 0.9317 0.9328 0.9341 0.9341 0.9342
2021.000000 0.9341 0.9340 0.9338 0.9335 0.9334
2016.000000 0.9333 0.9331 0.9330 0.9327 0.9326
2011.000000 0.9324 0.9323 0.9321 0.9320 0.9317
2006.000000 0.9313 0.9310 0.9307 0.9304 0.9302
2001.000000 0.9298 0.9296 0.9276 0.9231 0.9182
1996.000000 0.9145 0.9107 0.9069 0.9031 0.8994
1991.000000 0.8965 0.8966 0.8966 0.8967 0.8968
1986.000000 0.8954 0.8955 0.8958 0.8961 0.8964
1981.000000 0.8966 0.8969 0.8970 0.8956 0.8958
1976.000000 0.8959 0.8960 0.8964 0.8967 0.8973
1971.000000 0.8982 0.8991 0.9001 0.9010 0.9039
1966.000000 0.9086 0.9116 0.9145 0.9191 0.9196
1961.000000 0.9184 0.9061 0.9010 0.9012 0.9013
1956.000000 0.9013 0.9013 0.8996 0.8995 0.8995
1951.000000 0.8994 0.8989 0.8971 0.8942 0.8914
1946.000000 0.8879 0.8830 0.8781 0.8724 0.8655
1941.000000 0.8602 0.8558 0.8513 0.8486 0.8463
1936.000000 0.8451 0.8439 0.8433 0.8432 0.8440
1931.000000 0.8448 0.8445 0.8440 0.8434 0.8426
1926.000000 0.8336 0.8224 0.8128 0.8030 0.7931
1921.000000 0.7854 0.7784 0.7746 0.7753 0.7761
1916.000000 0.7800 0.7854 0.7907 0.7996 0.8098
1911.000000 0.8184 0.8256 0.8327 0.8373 0.8434
1906.000000 0.8487 0.8528 0.8562 0.8596 0.8630
1901.000000 0.8652 0.8673 0.8694 0.8714 0.8735
1896.000000 0.8754 0.8768 0.8780 0.8792 0.8804
1891.000000 0.8811 0.8808 0.8817 0.8825 0.8834
1886.000000 0.8842 0.8851 0.8869 0.8884 0.8889
1881.000000 0.8891 0.8893 0.8894 0.8895 0.8897
1876.000000 0.8897 0.8913 0.8914 0.8911 0.8910
1871.000000 0.8908 0.8906 0.8904 0.8902 0.8900
1866.000000 0.8899 0.8896 0.8895 0.8894 0.8893
1861.000000 0.8892 0.8890 0.8889 0.8888 0.8897
1856.000000 0.8892 0.8884 0.8882 0.8878 0.8868
1851.000000 0.8857 0.8830 0.8801 0.8769 0.8735
1846.000000 0.8691 0.8648 0.8608 0.8578 0.8547
1841.000000 0.8522 0.8503 0.8484 0.8467 0.8461
1836.000000 0.8450 0.8437 0.8436 0.8440 0.8440
1831.000000 0.8440 0.8433 0.8409 0.8381 0.8341
1826.000000 0.8303 0.8266 0.8228 0.8201 0.8188
1821.000000 0.8157 0.8212 0.8270 0.8315 0.8362
1816.000000 0.8409 0.8475 0.8541 0.8589 0.8638
1811.000000 0.8704 0.8720 0.8729 0.8725 0.8728
1806.000000 0.8732 0.8735 0.8729 0.8724 0.8726
1801.000000 0.8729 0.8731 0.8732 0.8732 0.8724
1796.000000 0.8702 0.8677 0.8654 0.8627 0.8623
1791.000000 0.8623 0.8621 0.8621 0.8621 0.8621
1786.000000 0.8620 0.8619 0.8617 0.8617 0.8616
1781.000000 0.8614 0.8613 0.8609 0.8599 0.8589
1776.000000 0.8565 0.8543 0.8525 0.8495 0.8466
1771.000000 0.8438 0.8408 0.8388 0.8369 0.8348
1766.000000 0.8332 0.8336 0.8339 0.8343 0.8389
1761.000000 0.8435 0.8457 0.8483 0.8517 0.8539
1756.000000 0.8556 0.8568 0.8580 0.8592 0.8605
1751.000000 0.8607 0.8609 0.8609 0.8612 0.8612
1746.000000 0.8609 0.8608 0.8606 0.8605 0.8603
1741.000000 0.8600 0.8597 0.8597 0.8595 0.8593
1736.000000 0.8593 0.8591 0.8589 0.8580 0.8587
1731.000000 0.8586 0.8584 0.8581 0.8578 0.8578
1726.000000 0.8575 0.8572 0.8570 0.8565 0.8562
1721.000000 0.8556 0.8551 0.8546 0.8540 0.8530
1716.000000 0.8522 0.8512 0.8502 0.8489 0.8478
1711.000000 0.8467 0.8455 0.8441 0.8430 0.8418
1706.000000 0.8407 0.8394 0.8381 0.8369 0.8355
1701.000000 0.8341 0.8328 0.8313 0.8299 0.8284
1696.000000 0.8267 0.8247 0.8215 0.8168 0.8123
1691.000000 0.8096 0.8068 0.8042 0.8015 0.7987
1686.000000 0.7952 0.7917 0.7891 0.7872 0.7870
1681.000000 0.7861 0.7864 0.7876 0.7921 0.7968
1676.000000 0.8006 0.8041 0.8059 0.8082 0.8110
1671.000000 0.8126 0.8140 0.8148 0.8156 0.8165
1666.000000 0.8173 0.8179 0.8187 0.8193 0.8201
1661.000000 0.8209 0.8229 0.8223 0.8227 0.8248
1656.000000 0.8251 0.8252 0.8254 0.8252 0.8240
1651.000000 0.8248 0.8245 0.8222 0.8200 0.8163
1646.000000 0.8128 0.8074 0.8019 0.7976 0.7938
1641.000000 0.7759 0.7595 0.7425 0.7258 0.7152
1636.000000 0.7062 0.6952 0.6782 0.6584 0.6303
1631.000000 0.5469 0.5266 0.5090 0.4687 0.4476
1626.000000 0.4060 0.3644 0.3238 0.2498 0.2263
1621.000000 0.2027 0.1161 0.0711 0.0485 0.0378
1616.000000 0.0310 0.0272 0.0233 0.0196 0.0158
1611.000000 0.0134 0.0114 0.0101 0.0095 0.0094
1606.000000 0.0094 0.0099 0.0112 0.0182 0.0299
1601.000000 0.0420 0.0550 0.0726 0.0906 0.1104
1596.000000 0.1371 0.1584 0.2013 0.2581 0.2663
1591.000000 0.2727 0.2799 0.2885 0.2971 0.3161
1586.000000 0.3454 0.3764 0.4085 0.4413 0.4715
1581.000000 0.5030 0.5337 0.5650 0.5951 0.6196
1576.000000 0.6286 0.6387 0.6492 0.6570 0.6657
1571.000000 0.6700 0.6726 0.6747 0.6745 0.6694
1566.000000 0.6626 0.6495 0.6429 0.6403 0.6385
1561.000000 0.6348 0.6351 0.6378 0.6410 0.6453
1556.000000 0.6525 0.6651 0.6757 0.6859 0.6995
1551.000000 0.7101 0.7179 0.7217 0.7226 0.7229
1546.000000 0.7226 0.7201 0.7174 0.7137 0.7085
1541.000000 0.7006 0.6912 0.6785 0.6663 0.6476
1536.000000 0.6376 0.6256 0.5971 0.5680 0.5407
1531.000000 0.5143 0.4785 0.4490 0.4274 0.3860
1526.000000 0.3336 0.2821 0.2321 0.1825 0.1338
1521.000000 0.0857 0.0384 0.0322 0.0275 0.0231
1516.000000 0.0197 0.0163 0.0131 0.0114 0.0104
1511.000000 0.0061 0.0090 0.0092 0.0095 0.0110
1506.000000 0.0124 0.0150 0.0246 0.0379 0.0540
1501.000000 0.0816 0.0963 0.1167 0.1471 0.1787
1496.000000 0.2317 0.2470 0.2658 0.2823 0.2997
1491.000000 0.3329 0.3604 0.3876 0.4145 0.4269
1486.000000 0.4349 0.4317 0.4311 0.4300 0.4264
1481.000000 0.3594 0.2768 0.1806 0.1820 0.1828
1476.000000 0.2248 0.2799 0.3344 0.3895 0.4445
1471.000000 0.4990 0.5533 0.5864 0.5996 0.6114
1466.000000 0.6221 0.6336 0.6438 0.6532 0.6576
1461.000000 0.6590 0.6590 0.6587 0.6564 0.6556
1456.000000 0.6482 0.6091 0.5767 0.5450 0.5133
1451.000000 0.4815 0.4492 0.4382 0.4397 0.4674
1446.000000 0.4970 0.5270 0.5569 0.5868 0.6167
1441.000000 0.6467 0.6753 0.6913 0.6890 0.6890
1436.000000 0.6868 0.6670 0.6576 0.6543 0.6546
1431.000000 0.6555 0.6561 0.6563 0.5994 0.5386
1426.000000 0.4785 0.4177 0.4045 0.4054 0.4080
1421.000000 0.4141 0.4621 0.5383 0.6241 0.6688
1416.000000 0.6847 0.7004 0.7162 0.7283 0.7390
1411.000000 0.7517 0.7650 0.7742 0.7824 0.7889
1406.000000 0.7954 0.8015 0.8062 0.8092 0.8124
1401.000000 0.8142 0.8157 0.8172 0.8194 0.8217
1396.000000 0.8228 0.8237 0.8246 0.8257 0.8265
1391.000000 0.8270 0.8289 0.8311 0.8318 0.8351
1386.000000 0.8385 0.8419 0.8417 0.8374 0.8311
1381.000000 0.8241 0.8163 0.8072 0.7908 0.7957
1376.000000 0.7918 0.7902 0.7907 0.7917 0.7933
1371.000000 0.7953 0.7976 0.7999 0.8027 0.8054
1366.000000 0.8081 0.8095 0.8092 0.8108 0.8105
1361.000000 0.8089 0.8061 0.8025 0.7984 0.7948
1356.000000 0.7889 0.7846 0.7805 0.7764 0.7683
1351.000000 0.7590 0.7481 0.7351 0.7201 0.7035
1346.000000 0.6833 0.6696 0.6557 0.6294 0.5996
1341.000000 0.5099 0.4760 0.4524 0.4527 0.4515
1336.000000 0.4628 0.4748 0.4868 0.4988 0.5032
1331.000000 0.5039 0.5063 0.3971 0.3381 0.2792
1326.000000 0.2201 0.1608 0.1020 0.0431 0.0347
1321.000000 0.0246 0.0245 0.0245 0.0245 0.0338
1316.000000 0.0430 0.0793 0.1177 0.1425 0.1728
1311.000000 0.1993 0.2510 0.3172 0.3790 0.4406
1306.000000 0.5024 0.5254 0.5650 0.5864 0.6083
1301.000000 0.6437 0.6746 0.6934 0.7040 0.7127
1296.000000 0.7192 0.7263 0.7317 0.7358 0.7384
1291.000000 0.7413 0.7425 0.7428 0.7441 0.7439
1286.000000 0.7411 0.7338 0.7099 0.6771 0.6408
1281.000000 0.6196 0.6014 0.5734 0.5100 0.4170
1276.000000 0.3890 0.3495 0.3269 0.3114 0.2913
1271.000000 0.2588 0.2100 0.1614 0.1127 0.0844
1266.000000 0.0753 0.0736 0.0738 0.0798 0.1074
1261.000000 0.2299 0.2817 0.3334 0.3851 0.4376
1256.000000 0.4591 0.5764 0.6001 0.6081 0.6227
1251.000000 0.6739 0.7018 0.7308 0.7580 0.7866
1246.000000 0.8009 0.8131 0.8211 0.8296 0.8361
1241.000000 0.8426 0.8492 0.8569 0.8649 0.8707
1236.000000 0.8762 0.8799 0.8826 0.8864 0.8898
1231.000000 0.8924 0.8949 0.8973 0.8998 0.9016
1226.000000 0.9032 0.9047 0.9063 0.9076 0.9089
1221.000000 0.9100 0.9114 0.9129 0.9141 0.9153
1216.000000 0.9166 0.9171 0.9173 0.9173 0.9178
1211.000000 0.9164 0.9147 0.9108 0.9052 0.8967
1206.000000 0.8911 0.8858 0.8751 0.8641 0.8563
1201.000000 0.8517 0.8475 0.8438 0.8389 0.8355
1196.000000 0.8327 0.8298 0.8252 0.8197 0.8074
1191.000000 0.7931 0.7808 0.7664 0.7434 0.7115
1186.000000 0.6955 0.6838 0.6363 0.4686 0.3012
1181.000000 0.1344 0.0976 0.1093 0.1817 0.2540
1176.000000 0.3262 0.3986 0.4708 0.5431 0.6153
1171.000000 0.6874 0.7598 0.7675 0.7653 0.7609
1166.000000 0.7396 0.7183 0.6969 0.6756 0.6543
1161.000000 0.6412 0.6285 0.6076 0.5572 0.4923
1156.000000 0.4272 0.3622 0.2974 0.2563 0.2570
1151.000000 0.3304 0.4277 0.5255 0.6200 0.7007
1146.000000 0.7097 0.7191 0.7287 0.7387 0.7528
1141.000000 0.7699 0.7863 0.8031 0.8205 0.8379
1136.000000 0.8446 0.8482 0.8493 0.8493 0.8505
1131.000000 0.8516 0.8528 0.8533 0.8534 0.8556
1126.000000 0.8582 0.8623 0.8677 0.8723 0.8775
1121.000000 0.8820 0.8859 0.8900 0.8940 0.8968
1116.000000 0.9010 0.9038 0.9057 0.9075 0.9083
1111.000000 0.9085 0.9087 0.9080 0.9063 0.9069
1106.000000 0.9054 0.9054 0.9054 0.9061 0.9070
1101.000000 0.9078 0.9104 0.9102 0.9115 0.9125
1096.000000 0.9129 0.9133 0.9136 0.9129 0.9122
1091.000000 0.9101 0.9039 0.8970 0.8880 0.8777
1086.000000 0.8657 0.8536 0.8409 0.8273 0.8117
1081.000000 0.7937 0.7737 0.7131 0.6440 0.5788
1076.000000 0.5134 0.4488 0.3963 0.3980 0.4062
1071.000000 0.4277 0.4388 0.4515 0.4625 0.4759
1066.000000 0.4939 0.5327 0.5716 0.6104 0.6504
1061.000000 0.6895 0.7284 0.7625 0.8057 0.8258
1056.000000 0.8358 0.8457 0.8548 0.8637 0.8724
1051.000000 0.8815 0.8916 0.9013 0.9107 0.9196
1046.000000 0.9253 0.9332 0.9385 0.9416 0.9429
1041.000000 0.9442 0.9446 0.9446 0.9446 0.9439
1036.000000 0.9434 0.9419 0.9395 0.9346 0.9273
1031.000000 0.9019 0.8634 0.8266 0.7897 0.7795
1026.000000 0.7766 0.7761 0.7788 0.7847 0.8099
1021.000000 0.8337 0.8576 0.8816 0.9055 0.9186
1016.000000 0.9257 0.9327 0.9395 0.9436 0.9470
1011.000000 0.9505 0.9522 0.9532 0.9521 0.9526
1006.000000 0.9487 0.9466 0.9421 0.9380 0.9337
1001.000000 0.9208 0.9046 0.8729 0.8370 0.7959
996.000000 0.7559 0.7162 0.6763 0.6365 0.5971
991.000000 0.5301 0.5291 0.5284 0.8408 0.8492
986.000000 0.8575 0.8671 0.8773 0.9107 0.9117
981.000000 0.9124 0.9136 0.9157 0.9195 0.9258
976.000000 0.9313 0.9332 0.9332 0.9329 0.9320
971.000000 0.9327 0.9321 0.9311 0.9261 0.9199
966.000000 0.9115 0.9085 0.9086 0.9092 0.9111
961.000000 0.9149 0.9191 0.9243 0.9252 0.9262
956.000000 0.9266 0.9267 0.9268 0.9269 0.9268
951.000000 0.9255 0.9233 0.9205 0.9174 0.9161
946.000000 0.9161 0.9162 0.9174 0.9177 0.9219
941.000000 0.9244 0.9268 0.9295 0.9327 0.9358
936.000000 0.9389 0.9415 0.9432 0.9449 0.9467
931.000000 0.9480 0.9490 0.9500 0.9509 0.9517
926.000000 0.9527 0.9529 0.9532 0.9534 0.9537
921.000000 0.9539 0.9542 0.9547 0.9559 0.9546
916.000000 0.9560 0.9559 0.9559 0.9557 0.9562
911.000000 0.9568 0.9562 0.9557 0.9561 0.9564
906.000000 0.9558 0.9564 0.9558 0.9549 0.9552
901.000000 0.9546 0.9551 0.9537 0.9536 0.9536
896.000000 0.9535 0.9534 0.9532 0.9515 0.9514
891.000000 0.9512 0.9478 0.9449 0.9429 0.9402
886.000000 0.9383 0.9357 0.9344 0.9302 0.9248
881.000000 0.9203 0.9116 0.8841 0.8684 0.8495
876.000000 0.8333 0.8186 0.7968 0.7783 0.7639
871.000000 0.6698 0.5893 0.5083 0.4266 0.3617
866.000000 0.3608 0.4034 0.4772 0.5518 0.6261
861.000000 0.7015 0.8294 0.8484 0.8627 0.8765
856.000000 0.8916 0.9063 0.9192 0.9273 0.9325
851.000000 0.9352 0.9377 0.9376 0.9377 0.9369
846.000000 0.9369 0.9384 0.9374 0.9379 0.9368
841.000000 0.9341 0.9320 0.9325 0.9277 0.9259
836.000000 0.9221 0.9204 0.9191 0.9171 0.9161
831.000000 0.9149 0.9159 0.9114 0.9071 0.9031
826.000000 0.8957 0.8861 0.8766 0.8695 0.8643
821.000000 0.8593 0.8564 0.8537 0.8517 0.8518
816.000000 0.8534 0.8529 0.8504 0.8450 0.8460
811.000000 0.8478 0.8485 0.8532 0.8560 0.8571
806.000000 0.8593 0.8607 0.8609 0.8626 0.8582
801.000000 0.8567 0.8340 0.8041 0.7741 0.7476
796.000000 0.7421 0.7421 0.7410 0.7403 0.7457
791.000000 0.7542 0.7608 0.7678 0.7752 0.7842
786.000000 0.7912 0.7962 0.7986 0.7992 0.7990
781.000000 0.7992 0.7952 0.7942 0.7905 0.7840
776.000000 0.7769 0.7699 0.7618 0.7520 0.7423
771.000000 0.7339 0.7260 0.7171 0.7074 0.6919
766.000000 0.6739 0.6478 0.6289 0.6115 0.4519
761.000000 0.4343 0.4014 0.3543 0.3073 0.2602
756.000000 0.2131 0.1660 0.1328 0.0202 0.0123
751.000000 0.0067 0.0025 0.0011 0.0001 0.0006
746.000000 0.0017 0.0079 0.0200 0.0491 0.0878
741.000000 0.1165 0.1334 0.1501 0.2326 0.3439
736.000000 0.4553 0.6185 0.6351 0.6551 0.6750
731.000000 0.6831 0.6925 0.7007 0.7098 0.7190
726.000000 0.7298 0.7369 0.7434 0.7471 0.7501
721.000000 0.7519 0.7524 0.7515 0.7507 0.7493
716.000000 0.7464 0.7382 0.7314 0.7238 0.7158
711.000000 0.7002 0.6832 0.6635 0.6509 0.6413
706.000000 0.6316 0.6228 0.6144 0.5986 0.5663
701.000000 0.3888 0.3606 0.3423 0.3270 0.2709
696.000000 0.1973 0.1240 0.0504 0.0088 0.0046
691.000000 0.0022 0.0022 0.0038 0.0118 0.1669
686.000000 0.2957 0.3569 0.3917 0.5092 0.6102
681.000000 0.6211 0.6410 0.6955 0.7074 0.7175
676.000000 0.7268 0.7330 0.7328 0.7337 0.7364
671.000000 0.7470 0.7554 0.7658 0.7729 0.7626
666.000000 0.7534 0.7521 0.7489 0.7428 0.7423
661.000000 0.7430 0.7445 0.7457 0.7457 0.7466
656.000000 0.7388 0.7326 0.7292 0.7296 0.7262
651.000000 0.7255 0.7250 0.7277 0.7309 0.7330
646.000000 0.7335 0.7351 0.7363 0.7365 0.7367
641.000000 0.7365 0.7358 0.7362 0.7357 0.7353
636.000000 0.7363 0.7372 0.7353 0.7343 0.7335
631.000000 0.7320 0.7317 0.7314 0.7300 0.7296
626.000000 0.7278 0.7272 0.7261 0.7226 0.7199
621.000000 0.7153 0.7055 0.6925 0.6921 0.6918
616.000000 0.6907 0.6908 0.6959 0.7055 0.7110
611.000000 0.7137 0.7148 0.7161 0.7172 0.7177
606.000000 0.7187 0.7201 0.7217 0.7232 0.7245
601.000000 0.7262 0.7279 0.7296 0.7313 0.7341
596.000000 0.7371 0.7405 0.7444 0.7489 0.7557
591.000000 0.7625 0.7694 0.7769 0.7846 0.7919
586.000000 0.7990 0.8066 0.8131 0.8190 0.8249
581.000000 0.8306 0.8369 0.8433 0.8505 0.8628
576.000000 0.8688 0.8738 0.8792 0.8828 0.8854
571.000000 0.8880 0.8888 0.8897 0.8904 0.8897
566.000000 0.8906 0.8941 0.8928 0.8914 0.8914
561.000000 0.8914 0.8904 0.8879 0.8855 0.8829
556.000000 0.8787 0.8728 0.8665 0.8609 0.8542
551.000000 0.8491 0.8440 0.8384 0.8327 0.8271
546.000000 0.8215 0.8159 0.8104 0.8048 0.7991
541.000000 0.7935 0.7879 0.7825 0.7782 0.7738
536.000000 0.7706 0.7656 0.7607 0.7531 0.7439
531.000000 0.7350 0.7290 0.7229 0.7161 0.7076
526.000000 0.7000 0.6837 0.6699 0.6595 0.6449
521.000000 0.6215 0.5987 0.5827 0.5132 0.4947
516.000000 0.4798 0.4656 0.4504 0.4241 0.3935
511.000000 0.3629 0.3413 0.3357 0.3345 0.3337
506.000000 0.3352 0.3394 0.3502 0.3617 0.3755
501.000000 0.3927 0.4047 0.4171 0.4479 0.5009
496.000000 0.5118 0.5221 0.5321 0.5392 0.5448
491.000000 0.5503 0.5557 0.5612 0.5663 0.5716
486.000000 0.5767 0.5818 0.5849 0.5879 0.5908
481.000000 0.5938 0.5965 0.5988 0.6012 0.6035
476.000000 0.6058 0.6081 0.6098 0.6114 0.6130
471.000000 0.6146 0.6162 0.6177 0.6196 0.6216
466.000000 0.6236 0.6255 0.6269 0.6284 0.6300
461.000000 0.6315 0.6329 0.6338 0.6346 0.6355
456.000000 0.6363 0.6374 0.6388 0.6400 0.6407
451.000000 0.6411 0.6398
##END=
