##TITLE=BENZENE, ETHENYL-
##JCAMP-DX=4.24
##DATA TYPE=INFRARED SPECTRUM
##CLASS=COBLENTZ III
##ORIGIN=DOW CHEMICAL COMPANY
##OWNER=COBLENTZ SOCIETY
Collection (C) 2018 copyright by the U.S. Secretary of Commerce
on behalf of the United States of America. All rights reserved.
##DATE=1958/11/03
##NAMES=vinylbenzene
STYRENE
##CAS REGISTRY NO=100-42-5
##MOLFORM=C8 H8
##SOURCE REFERENCE=COBLENTZ NO. 10131
##$NIST SOURCE=COBLENTZ
##$NIST IMAGE=cob10131
##SPECTROMETER/DATA SYSTEM=DOW KBr FOREPRISM-GRATING
##INSTRUMENT PARAMETERS=BLAZED AT 3.5, 12.0, 20.0 MICRON, CHANGED AT 5.0, 7.5, 14.9 MICRON
##STATE=SOLUTION (10% IN CCl4 FOR 3800-1333, 10% IN CS2 FOR 1333-660, AND 10% IN CCl4 FOR 660-450 CM^-^1)
##PATH LENGTH=0.011, 0.011, AND 0.011 CM
$$SPECTRAL CONTAMINATION DUE TO CCl4 AROUND 1550, AND CS2 AROUND 855 CM^-^1
##SAMPLING PROCEDURE=TRANSMISSION
##RESOLUTION=4
##DATA PROCESSING=DIGITIZED BY NIST FROM HARD COPY (FROM TWO SEGMENTS)
##XUNITS=1/CM
##YUNITS=TRANSMITTANCE
##XFACTOR=1.000000
##YFACTOR=1
##DELTAX=0.869063
##FIRSTX=453.94
##LASTX=3780.72
##FIRSTY=1.035
##MAXX=3780.72
##MINX=453.94
##MAXY=1.036
##MINY=0.008
##NPOINTS=3829
##XYDATA=(X++(Y..Y))
453.940000 1.0350 1.0350 1.0350 1.0350 1.0350
458.285317 1.0350 1.0350 1.0350 1.0350 1.0350
462.630635 1.0350 1.0350 1.0350 1.0350 1.0350
466.975952 1.0350 1.0350 1.0350 1.0350 1.0350
471.321270 1.0350 1.0350 1.0350 1.0350 1.0350
475.666587 1.0350 1.0350 1.0350 1.0350 1.0350
480.011905 1.0350 1.0350 1.0350 1.0350 1.0350
484.357222 1.0350 1.0350 1.0350 1.0350 1.0350
488.702540 1.0350 1.0350 1.0350 1.0350 1.0350
493.047857 1.0350 1.0350 1.0350 1.0360 1.0350
497.393175 1.0350 1.0350 1.0350 1.0360 1.0360
501.738492 1.0350 1.0350 1.0350 1.0350 1.0350
506.083810 1.0350 1.0350 1.0350 1.0350 1.0350
510.429127 1.0350 1.0340 1.0340 1.0340 1.0320
514.774444 1.0320 1.0320 1.0310 1.0290 1.0280
519.119762 1.0280 1.0270 1.0250 1.0240 1.0230
523.465079 1.0230 1.0200 1.0170 1.0140 1.0130
527.810397 1.0120 1.0100 1.0090 1.0060 1.0040
532.155714 1.0020 1.0000 0.9980 0.9970 0.9940
536.501032 0.9900 0.9870 0.9850 0.9800 0.9780
540.846349 0.9680 0.9600 0.9530 0.9460 0.9400
545.191667 0.9310 0.9180 0.9110 0.8990 0.8920
549.536984 0.8870 0.8820 0.8760 0.8730 0.8730
553.882302 0.8760 0.8810 0.8950 0.9149 0.9359
558.227619 0.9550 0.9650 0.9750 1.0020 1.0090
562.572936 1.0160 1.0170 1.0230 1.0240 1.0250
566.918254 1.0280 1.0290 1.0290 1.0310 1.0310
571.263571 1.0310 1.0310 1.0310 1.0310 1.0310
575.608889 1.0290 1.0290 1.0290 1.0280 1.0280
579.954206 1.0280 1.0280 1.0270 1.0270 1.0270
584.299524 1.0270 1.0270 1.0250 1.0250 1.0250
588.644841 1.0250 1.0270 1.0270 1.0250 1.0250
592.990159 1.0240 1.0240 1.0240 1.0230 1.0230
597.335476 1.0230 1.0230 1.0230 1.0210 1.0200
601.680794 1.0200 1.0170 1.0160 1.0140 1.0130
606.026111 1.0120 1.0100 1.0080 1.0060 1.0060
610.371429 1.0040 1.0020 1.0010 1.0010 1.0000
614.716746 0.9980 0.9980 0.9970 0.9940 0.9930
619.062063 0.9930 0.9930 0.9930 0.9910 0.9900
623.407381 0.9900 0.9900 0.9890 0.9870 0.9870
627.752698 0.9860 0.9850 0.9830 0.9800 0.9800
632.098016 0.9780 0.9760 0.9720 0.9710 0.9700
636.443333 0.9680 0.9670 0.9650 0.9630 0.9610
640.788651 0.9600 0.9570 0.9560 0.9550 0.9550
645.133968 0.9530 0.9520 0.9510 0.9490 0.9490
649.479286 0.9480 0.9460 0.9450 0.9410 0.9360
653.824603 0.9310 0.9290 0.9250 0.9220 0.9190
658.169921 0.9170 0.9120 0.9100 0.9070 0.9030
662.515238 0.9000 0.8950 0.8920 0.8910 0.8820
666.860555 0.8740 0.8700 0.8650 0.8630 0.8580
671.205873 0.8500 0.8280 0.8080 0.7950 0.7710
675.551190 0.7411 0.7220 0.7070 0.6950 0.6910
679.896508 0.6840 0.6770 0.6720 0.6630 0.6570
684.241825 0.6321 0.6131 0.5791 0.5451 0.5231
688.587143 0.4959 0.4428 0.1640 0.1170 0.0930
692.932460 0.0690 0.0121 0.0090 0.0080 0.0080
697.277778 0.0080 0.0090 0.0100 0.0200 0.0430
701.623095 0.2396 0.2799 0.3209 0.3529 0.4576
705.968413 0.5870 0.6610 0.7060 0.7450 0.7710
710.313730 0.8019 0.8239 0.8439 0.8609 0.8680
714.659048 0.8730 0.8800 0.8910 0.8920 0.8970
719.004365 0.9000 0.9040 0.9070 0.9110 0.9120
723.349682 0.9120 0.9140 0.9140 0.9140 0.9140
727.695000 0.9140 0.9140 0.9140 0.9140 0.9140
732.040317 0.9120 0.9120 0.9110 0.9100 0.9100
736.385635 0.9080 0.9070 0.9070 0.9040 0.9030
740.730952 0.9000 0.8970 0.8950 0.8930 0.8920
745.076270 0.8910 0.8890 0.8880 0.8850 0.8820
749.421587 0.8810 0.8780 0.8760 0.8730 0.8700
753.766905 0.8660 0.8610 0.8550 0.8500 0.8420
758.112222 0.8340 0.8280 0.8190 0.8080 0.7790
762.457540 0.7421 0.7250 0.6951 0.6611 0.6052
766.802857 0.5760 0.5460 0.4780 0.3791 0.1273
771.148174 0.1020 0.0761 0.0212 0.0120 0.0090
775.493492 0.0090 0.0100 0.0120 0.0240 0.0270
779.838809 0.1379 0.2528 0.3378 0.4118 0.6183
784.184127 0.6880 0.7230 0.7550 0.7760 0.7950
788.529444 0.8130 0.8270 0.8390 0.8540 0.8689
792.874762 0.8780 0.8840 0.8910 0.8930 0.8990
797.220079 0.9030 0.9070 0.9110 0.9110 0.9120
801.565397 0.9150 0.9180 0.9190 0.9190 0.9210
805.910714 0.9210 0.9210 0.9210 0.9210 0.9210
810.256032 0.9210 0.9210 0.9210 0.9210 0.9210
814.601349 0.9190 0.9190 0.9190 0.9180 0.9150
818.946667 0.9140 0.9140 0.9120 0.9110 0.9100
823.291984 0.9060 0.9020 0.8970 0.8930 0.8910
827.637301 0.8890 0.8820 0.8780 0.8730 0.8700
831.982619 0.8610 0.8540 0.8510 0.8480 0.8430
836.327936 0.8400 0.8380 0.8350 0.8320 0.8290
840.673254 0.8270 0.8210 0.8170 0.8140 0.8100
845.018571 0.8020 0.7950 0.7930 0.7910 0.7850
849.363889 0.7830 0.7780 0.7750 0.7740 0.7720
853.709206 0.7720 0.7720 0.7720 0.7720 0.7740
858.054524 0.7740 0.7750 0.7820 0.7860 0.7870
862.399841 0.7890 0.7900 0.7910 0.7930 0.7950
866.745159 0.7980 0.8000 0.8010 0.8020 0.8020
871.090476 0.8040 0.8040 0.8040 0.8040 0.8040
875.435793 0.8040 0.8020 0.8020 0.8010 0.8000
879.781111 0.7980 0.7950 0.7940 0.7930 0.7930
884.126428 0.7870 0.7850 0.7800 0.7740 0.7670
888.471746 0.7600 0.7560 0.7450 0.7330 0.7180
892.817063 0.6990 0.6850 0.6630 0.6311 0.5981
897.162381 0.5599 0.5170 0.4730 0.3850 0.2921
901.507698 0.2271 0.1571 0.1111 0.0631 0.0271
905.853016 0.0160 0.0140 0.0140 0.0160 0.0190
910.198333 0.0280 0.1168 0.1938 0.2379 0.2768
914.543651 0.3481 0.4041 0.4581 0.6020 0.6550
918.888968 0.6850 0.7170 0.7449 0.7709 0.7889
923.234286 0.8060 0.8140 0.8310 0.8400 0.8480
927.579603 0.8540 0.8610 0.8680 0.8720 0.8770
931.924920 0.8840 0.8880 0.8910 0.8910 0.8920
936.270238 0.8920 0.8920 0.8920 0.8920 0.8920
940.615555 0.8920 0.8920 0.8920 0.8920 0.8920
944.960873 0.8910 0.8910 0.8910 0.8890 0.8890
949.306190 0.8890 0.8870 0.8840 0.8810 0.8780
953.651508 0.8740 0.8720 0.8700 0.8690 0.8630
957.996825 0.8590 0.8570 0.8550 0.8500 0.8430
962.342143 0.8400 0.8350 0.8310 0.8290 0.8210
966.687460 0.8140 0.8100 0.8040 0.7940 0.7790
971.032778 0.7670 0.7480 0.7310 0.6801 0.6202
975.378095 0.5560 0.5310 0.5060 0.5030 0.5030
979.723412 0.5040 0.5060 0.5060 0.5020 0.3944
984.068730 0.3399 0.2849 0.2320 0.1780 0.1250
988.414047 0.0970 0.0700 0.1169 0.2038 0.2170
992.759365 0.2811 0.3601 0.4461 0.6160 0.6590
997.104682 0.6840 0.7070 0.7180 0.7409 0.7629
1001.450000 0.7820 0.8010 0.8160 0.8190 0.8190
1005.795317 0.8200 0.8190 0.8170 0.8140 0.8130
1010.140635 0.8090 0.8040 0.7970 0.7890 0.7820
1014.485952 0.7670 0.7480 0.7221 0.6681 0.5942
1018.831270 0.5700 0.5440 0.5250 0.5250 0.7039
1023.176587 0.7829 0.8279 0.8569 0.8759 0.8890
1027.521905 0.8930 0.8990 0.9030 0.9060 0.9100
1031.867222 0.9120 0.9180 0.9220 0.9300 0.9330
1036.212539 0.9370 0.9400 0.9410 0.9420 0.9440
1040.557857 0.9440 0.9440 0.9440 0.9440 0.9440
1044.903174 0.9440 0.9440 0.9440 0.9450 0.9450
1049.248492 0.9440 0.9440 0.9440 0.9440 0.9440
1053.593809 0.9420 0.9420 0.9410 0.9400 0.9380
1057.939127 0.9370 0.9360 0.9340 0.9330 0.9310
1062.284444 0.9290 0.9260 0.9230 0.9210 0.9180
1066.629762 0.9140 0.9110 0.9100 0.9030 0.9000
1070.975079 0.8930 0.8890 0.8760 0.8620 0.8500
1075.320397 0.8310 0.7930 0.7561 0.7261 0.7041
1079.665714 0.6910 0.6910 0.7070 0.7190 0.7480
1084.011031 0.7750 0.8169 0.8879 0.9139 0.9309
1088.356349 0.9400 0.9440 0.9460 0.9490 0.9520
1092.701666 0.9520 0.9510 0.9510 0.9510 0.9490
1097.046984 0.9490 0.9480 0.9460 0.9460 0.9460
1101.392301 0.9460 0.9460 0.9460 0.9480 0.9480
1105.737619 0.9530 0.9560 0.9650 0.9700 0.9710
1110.082936 0.9740 0.9750 0.9750 0.9760 0.9760
1114.428254 0.9760 0.9760 0.9760 0.9760 0.9760
1118.773571 0.9760 0.9760 0.9760 0.9780 0.9780
1123.118889 0.9760 0.9760 0.9760 0.9760 0.9760
1127.464206 0.9760 0.9750 0.9750 0.9740 0.9720
1131.809524 0.9680 0.9670 0.9650 0.9640 0.9610
1136.154841 0.9600 0.9570 0.9550 0.9530 0.9520
1140.500158 0.9510 0.9480 0.9440 0.9420 0.9400
1144.845476 0.9380 0.9370 0.9370 0.9360 0.9340
1149.190793 0.9330 0.9310 0.9310 0.9300 0.9300
1153.536111 0.9300 0.9300 0.9300 0.9310 0.9330
1157.881428 0.9330 0.9330 0.9340 0.9340 0.9340
1162.226746 0.9340 0.9330 0.9330 0.9330 0.9330
1166.572063 0.9310 0.9310 0.9300 0.9300 0.9290
1170.917381 0.9270 0.9270 0.9260 0.9250 0.9230
1175.262698 0.9230 0.9230 0.9230 0.9230 0.9230
1179.608016 0.9230 0.9230 0.9250 0.9250 0.9250
1183.953333 0.9250 0.9230 0.9230 0.9220 0.9210
1188.298650 0.9180 0.9170 0.9140 0.9110 0.9060
1192.643968 0.9000 0.8930 0.8890 0.8800 0.8720
1196.989285 0.8620 0.8570 0.8540 0.8500 0.8440
1201.334603 0.8420 0.8440 0.8620 0.8780 0.8920
1205.679920 0.9180 0.9410 0.9530 0.9650 0.9710
1210.025238 0.9760 0.9800 0.9850 0.9870 0.9900
1214.370555 0.9910 0.9910 0.9930 0.9930 0.9940
1218.715873 0.9940 0.9940 0.9940 0.9950 0.9950
1223.061190 0.9940 0.9940 0.9940 0.9940 0.9940
1227.406508 0.9940 0.9930 0.9930 0.9930 0.9910
1231.751825 0.9910 0.9910 0.9910 0.9900 0.9900
1236.097143 0.9890 0.9890 0.9890 0.9890 0.9870
1240.442460 0.9870 0.9870 0.9860 0.9850 0.9850
1244.787777 0.9830 0.9820 0.9800 0.9790 0.9780
1249.133095 0.9760 0.9760 0.9740 0.9710 0.9680
1253.478412 0.9670 0.9670 0.9650 0.9630 0.9610
1257.823730 0.9600 0.9590 0.9560 0.9560 0.9550
1262.169047 0.9530 0.9520 0.9510 0.9480 0.9460
1266.514365 0.9440 0.9420 0.9400 0.9380 0.9370
1270.859682 0.9340 0.9310 0.9300 0.9260 0.9230
1275.205000 0.9190 0.9170 0.9120 0.9100 0.9030
1279.550317 0.9000 0.8960 0.8910 0.8890 0.8840
1283.895635 0.8800 0.8770 0.8740 0.8720 0.8700
1288.240952 0.8690 0.8690 0.8700 0.8720 0.8770
1292.586269 0.8890 0.9020 0.9110 0.9190 0.9250
1296.931587 0.9270 0.9300 0.9300 0.9310 0.9310
1301.276904 0.9310 0.9310 0.9310 0.9290 0.9270
1305.622222 0.9260 0.9230 0.9210 0.9180 0.9170
1309.967539 0.9140 0.9120 0.9100 0.9100 0.9040
1314.312857 0.9030 0.9030 0.9040 0.9040 0.9100
1318.658174 0.9170 0.9250 0.9300 0.9330 0.9340
1323.003492 0.9360 0.9360 0.9360 0.9360 0.9360
1327.348809 0.9340 0.9330 0.9330 0.9330 0.9310
1331.694127 0.9310 0.9300 0.9300 0.9300 0.9310
1336.039444 0.9310 0.9340 0.9460 0.9650 0.9790
1340.384762 0.9850 0.9900 0.9940 0.9970 0.9970
1344.730079 0.9970 0.9970 0.9970 0.9970 0.9970
1349.075396 0.9970 0.9970 0.9970 0.9970 0.9970
1353.420714 0.9970 0.9970 0.9970 0.9970 0.9970
1357.766031 0.9970 0.9970 0.9950 0.9950 0.9950
1362.111349 0.9950 0.9940 0.9940 0.9940 0.9930
1366.456666 0.9910 0.9900 0.9890 0.9870 0.9860
1370.801984 0.9850 0.9830 0.9820 0.9800 0.9790
1375.147301 0.9780 0.9760 0.9760 0.9760 0.9750
1379.492619 0.9750 0.9750 0.9750 0.9750 0.9750
1383.837936 0.9740 0.9740 0.9740 0.9720 0.9710
1388.183254 0.9680 0.9650 0.9630 0.9600 0.9570
1392.528571 0.9550 0.9530 0.9520 0.9490 0.9460
1396.873888 0.9440 0.9400 0.9370 0.9340 0.9300
1401.219206 0.9230 0.9170 0.9110 0.9040 0.8950
1405.564523 0.8840 0.8620 0.8500 0.8211 0.8040
1409.909841 0.7829 0.7480 0.7380 0.7300 0.7290
1414.255158 0.7290 0.7290 0.7300 0.7380 0.7480
1418.600476 0.7610 0.7740 0.7910 0.8040 0.8100
1422.945793 0.8160 0.8160 0.8190 0.8320 0.8530
1427.291111 0.8680 0.8680 0.8700 0.8770 0.8880
1431.636428 0.8950 0.9000 0.9040 0.9060 0.9060
1435.981746 0.9060 0.9060 0.9030 0.9020 0.8990
1440.327063 0.8950 0.8890 0.8820 0.8740 0.8690
1444.672381 0.8550 0.8400 0.8280 0.8119 0.7640
1449.017698 0.7070 0.6121 0.5551 0.4961 0.4581
1453.363015 0.4230 0.4239 0.7292 0.8041 0.8690
1457.708333 0.9020 0.9370 0.9440 0.9460 0.9460
1462.053650 0.9460 0.9460 0.9460 0.9460 0.9450
1466.398968 0.9450 0.9450 0.9450 0.9450 0.9440
1470.744285 0.9420 0.9410 0.9380 0.9380 0.9370
1475.089603 0.9340 0.9330 0.9300 0.9290 0.9250
1479.434920 0.9220 0.9190 0.9150 0.9110 0.9040
1483.780238 0.8990 0.8920 0.8880 0.8770 0.8690
1488.125555 0.8590 0.8480 0.8339 0.8019 0.7060
1492.470873 0.6500 0.5740 0.5490 0.5230 0.4731
1496.816190 0.3718 0.3097 0.2198 0.1378 0.0577
1501.161507 0.5711 0.7420 0.7720 0.7760 0.7790
1505.506825 0.7800 0.7800 0.7790 0.7750 0.7720
1509.852142 0.7640 0.7600 0.7570 0.7560 0.7550
1514.197460 0.7530 0.7510 0.7480 0.7440 0.7400
1518.542777 0.7310 0.7260 0.7190 0.7110 0.7070
1522.888095 0.7040 0.6950 0.6880 0.6840 0.6810
1527.233412 0.6770 0.6730 0.6700 0.6610 0.6530
1531.578730 0.6430 0.6290 0.6250 0.6040 0.5930
1535.924047 0.5790 0.5640 0.5610 0.5590 0.5570
1540.269365 0.5520 0.5450 0.5410 0.5380 0.5360
1544.614682 0.5340 0.5330 0.5330 0.5310 0.5310
1548.960000 0.5300 0.5290 0.5290 0.5290 0.5300
1553.305317 0.5370 0.5380 0.5440 0.5560 0.5710
1557.650634 0.5850 0.5860 0.5870 0.5970 0.6020
1561.995952 0.6040 0.6040 0.6040 0.6010 0.6010
1566.341269 0.6010 0.6010 0.6000 0.6000 0.5950
1570.686587 0.5910 0.5860 0.5800 0.5760 0.5720
1575.031904 0.5670 0.5640 0.5630 0.5630 0.5650
1579.377222 0.5750 0.5860 0.6010 0.6380 0.6699
1583.722539 0.6800 0.6890 0.6960 0.7040 0.7060
1588.067857 0.7100 0.7140 0.7180 0.7190 0.7210
1592.413174 0.7210 0.7220 0.7220 0.7210 0.7210
1596.758492 0.7180 0.7150 0.7120 0.7120 0.7080
1601.103809 0.7070 0.7060 0.7070 0.7120 0.7260
1605.449127 0.7510 0.7750 0.8010 0.8160 0.8290
1609.794444 0.8380 0.8400 0.8470 0.8480 0.8480
1614.139761 0.8470 0.8440 0.8420 0.8390 0.8360
1618.485079 0.8340 0.8310 0.8250 0.8190 0.8140
1622.830396 0.8080 0.8000 0.7910 0.7750 0.7570
1627.175714 0.7480 0.7379 0.6868 0.6099 0.5680
1631.521031 0.5260 0.4380 0.4350 0.4360 0.4470
1635.866349 0.4597 0.6369 0.8951 0.9370 0.9380
1640.211666 0.9400 0.9450 0.9560 0.9700 0.9750
1644.556984 0.9790 0.9860 0.9910 1.0050 1.0090
1648.902301 1.0090 1.0090 1.0080 1.0080 1.0080
1653.247619 1.0080 1.0060 1.0050 1.0020 1.0010
1657.592936 1.0010 1.0000 0.9980 0.9980 0.9980
1661.938253 0.9980 0.9980 0.9980 0.9980 0.9980
1666.283571 0.9980 0.9970 0.9970 0.9950 0.9940
1670.628888 0.9940 0.9930 0.9910 0.9890 0.9870
1674.974206 0.9860 0.9850 0.9830 0.9830 0.9800
1679.319523 0.9800 0.9790 0.9790 0.9780 0.9760
1683.664841 0.9760 0.9760 0.9760 0.9760 0.9750
1688.010158 0.9740 0.9700 0.9700 0.9780 0.9850
1692.355476 0.9910 0.9970 0.9970 0.9980 1.0040
1696.700793 1.0060 1.0080 1.0090 1.0080 1.0060
1701.046111 1.0060 1.0060 1.0050 1.0040 1.0020
1705.391428 1.0010 1.0010 1.0010 1.0000 1.0000
1709.736746 1.0000 0.9980 0.9980 0.9980 0.9980
1714.082063 1.0000 1.0000 1.0000 0.9980 0.9980
1718.427380 0.9980 0.9970 0.9950 0.9910 0.9890
1722.772698 0.9860 0.9850 0.9850 0.9830 0.9830
1727.118015 0.9820 0.9790 0.9780 0.9780 0.9760
1731.463333 0.9710 0.9680 0.9650 0.9630 0.9610
1735.808650 0.9590 0.9570 0.9550 0.9530 0.9520
1740.153968 0.9510 0.9490 0.9490 0.9460 0.9460
1744.499285 0.9450 0.9450 0.9450 0.9450 0.9460
1748.844603 0.9520 0.9530 0.9570 0.9600 0.9630
1753.189920 0.9640 0.9650 0.9650 0.9670 0.9670
1757.535238 0.9710 0.9760 0.9780 0.9820 0.9830
1761.880555 0.9830 0.9830 0.9850 0.9850 0.9860
1766.225872 0.9860 0.9860 0.9860 0.9870 0.9870
1770.571190 0.9890 0.9890 0.9870 0.9870 0.9870
1774.916507 0.9850 0.9830 0.9820 0.9800 0.9800
1779.261825 0.9800 0.9800 0.9800 0.9790 0.9780
1783.607142 0.9760 0.9750 0.9700 0.9670 0.9640
1787.952460 0.9610 0.9590 0.9560 0.9530 0.9440
1792.297777 0.9360 0.9330 0.9300 0.9220 0.9170
1796.643095 0.9120 0.9060 0.9020 0.9020 0.8990
1800.988412 0.8970 0.8960 0.8960 0.8950 0.8930
1805.333730 0.8920 0.8910 0.8890 0.8880 0.8810
1809.679047 0.8760 0.8700 0.8590 0.8510 0.8470
1814.024365 0.8350 0.8290 0.8200 0.8130 0.8090
1818.369682 0.8050 0.8020 0.8020 0.8040 0.8060
1822.714999 0.8100 0.8140 0.8230 0.8380 0.8510
1827.060317 0.8770 0.8840 0.8890 0.9030 0.9230
1831.405634 0.9260 0.9400 0.9440 0.9450 0.9530
1835.750952 0.9590 0.9650 0.9710 0.9750 0.9780
1840.096269 0.9790 0.9790 0.9820 0.9830 0.9830
1844.441587 0.9830 0.9830 0.9830 0.9820 0.9800
1848.786904 0.9800 0.9800 0.9780 0.9780 0.9760
1853.132222 0.9760 0.9760 0.9750 0.9750 0.9720
1857.477539 0.9700 0.9680 0.9670 0.9640 0.9600
1861.822857 0.9570 0.9550 0.9530 0.9480 0.9440
1866.168174 0.9400 0.9360 0.9330 0.9300 0.9250
1870.513491 0.9190 0.9170 0.9150 0.9140 0.9150
1874.858809 0.9180 0.9230 0.9330 0.9420 0.9520
1879.204126 0.9530 0.9550 0.9550 0.9550 0.9550
1883.549444 0.9550 0.9530 0.9530 0.9530 0.9530
1887.894761 0.9530 0.9550 0.9590 0.9680 0.9750
1892.240079 0.9790 0.9800 0.9850 0.9900 0.9910
1896.585396 0.9930 0.9940 0.9950 0.9970 0.9970
1900.930714 0.9980 0.9980 0.9980 0.9980 0.9980
1905.276031 0.9980 0.9980 0.9980 0.9980 0.9980
1909.621349 0.9970 0.9970 0.9950 0.9950 0.9950
1913.966666 0.9950 0.9950 0.9940 0.9940 0.9910
1918.311984 0.9910 0.9900 0.9890 0.9860 0.9850
1922.657301 0.9820 0.9790 0.9780 0.9750 0.9750
1927.002618 0.9680 0.9650 0.9630 0.9610 0.9590
1931.347936 0.9550 0.9530 0.9520 0.9450 0.9410
1935.693253 0.9370 0.9330 0.9290 0.9260 0.9250
1940.038571 0.9230 0.9250 0.9260 0.9290 0.9310
1944.383888 0.9340 0.9370 0.9420 0.9450 0.9480
1948.729206 0.9480 0.9480 0.9460 0.9450 0.9440
1953.074523 0.9440 0.9440 0.9440 0.9450 0.9460
1957.419841 0.9551 0.9700 0.9820 0.9860 0.9820
1961.765158 0.9820 0.9830 0.9830 0.9860 0.9870
1966.110476 0.9900 0.9910 0.9930 0.9940 0.9940
1970.455793 0.9940 0.9940 0.9940 0.9940 0.9940
1974.801110 0.9940 0.9940 0.9940 0.9940 0.9940
1979.146428 0.9970 0.9980 0.9980 0.9980 0.9980
1983.491745 0.9980 0.9980 1.0000 1.0000 1.0000
1987.837063 1.0000 0.9980 0.9980 0.9980 0.9980
1992.182380 0.9980 0.9970 0.9950 0.9930 0.9910
1996.527698 0.9900 0.9900 0.9900 0.9930 1.0090
2000.873015 1.0090 1.0090 1.0110 1.0130 1.0130
2005.218333 1.0130 1.0130 1.0130 1.0130 1.0130
2009.563650 1.0125 1.0120 1.0120 1.0120 1.0120
2013.908968 1.0120 1.0120 1.0120 1.0140 1.0160
2018.254285 1.0160 1.0160 1.0160 1.0160 1.0160
2022.599603 1.0160 1.0160 1.0160 1.0160 1.0160
2026.944920 1.0160 1.0160 1.0160 1.0160 1.0160
2031.290237 1.0160 1.0160 1.0160 1.0160 1.0160
2035.635555 1.0160 1.0160 1.0160 1.0160 1.0160
2039.980872 1.0160 1.0160 1.0160 1.0160 1.0160
2044.326190 1.0160 1.0160 1.0160 1.0160 1.0160
2048.671507 1.0160 1.0151 1.0140 1.0140 1.0140
2053.016825 1.0140 1.0140 1.0140 1.0140 1.0140
2057.362142 1.0140 1.0140 1.0140 1.0140 1.0140
2061.707460 1.0140 1.0140 1.0140 1.0140 1.0140
2066.052777 1.0140 1.0140 1.0140 1.0140 1.0140
2070.398095 1.0140 1.0140 1.0140 1.0140 1.0140
2074.743412 1.0140 1.0140 1.0140 1.0140 1.0140
2079.088729 1.0140 1.0140 1.0140 1.0140 1.0140
2083.434047 1.0140 1.0140 1.0140 1.0140 1.0140
2087.779364 1.0140 1.0140 1.0140 1.0140 1.0140
2092.124682 1.0140 1.0140 1.0140 1.0140 1.0140
2096.469999 1.0135 1.0130 1.0130 1.0130 1.0130
2100.815317 1.0130 1.0130 1.0130 1.0130 1.0130
2105.160634 1.0135 1.0140 1.0135 1.0130 1.0130
2109.505952 1.0130 1.0130 1.0130 1.0135 1.0140
2113.851269 1.0140 1.0140 1.0140 1.0140 1.0140
2118.196587 1.0140 1.0140 1.0140 1.0140 1.0140
2122.541904 1.0140 1.0140 1.0135 1.0130 1.0130
2126.887222 1.0130 1.0130 1.0130 1.0130 1.0130
2131.232539 1.0130 1.0130 1.0130 1.0130 1.0130
2135.577856 1.0130 1.0130 1.0130 1.0130 1.0130
2139.923174 1.0125 1.0120 1.0120 1.0120 1.0120
2144.268491 1.0120 1.0120 1.0120 1.0120 1.0120
2148.613809 1.0120 1.0120 1.0120 1.0120 1.0120
2152.959126 1.0120 1.0120 1.0120 1.0120 1.0120
2157.304444 1.0120 1.0120 1.0120 1.0120 1.0120
2161.649761 1.0120 1.0120 1.0120 1.0120 1.0120
2165.995079 1.0120 1.0120 1.0120 1.0120 1.0111
2170.340396 1.0101 1.0100 1.0100 1.0100 1.0100
2174.685714 1.0100 1.0100 1.0100 1.0100 1.0100
2179.031031 1.0100 1.0100 1.0100 1.0100 1.0100
2183.376348 1.0100 1.0100 1.0100 1.0100 1.0100
2187.721666 1.0100 1.0100 1.0100 1.0100 1.0100
2192.066983 1.0100 1.0100 1.0100 1.0100 1.0100
2196.412301 1.0100 1.0100 1.0100 1.0100 1.0100
2200.757618 1.0096 1.0091 1.0090 1.0090 1.0090
2205.102936 1.0090 1.0090 1.0090 1.0090 1.0090
2209.448253 1.0090 1.0090 1.0090 1.0090 1.0086
2213.793571 1.0081 1.0080 1.0080 1.0080 1.0080
2218.138888 1.0080 1.0080 1.0072 1.0062 1.0060
2222.484206 1.0060 1.0060 1.0060 1.0060 1.0060
2226.829523 1.0056 1.0051 1.0050 1.0050 1.0050
2231.174841 1.0050 1.0046 1.0041 1.0040 1.0040
2235.520158 1.0040 1.0040 1.0032 1.0022 1.0020
2239.865475 1.0020 1.0016 1.0011 1.0010 1.0010
2244.210793 1.0010 1.0010 1.0010 1.0010 1.0010
2248.556110 1.0010 1.0010 1.0010 1.0006 1.0001
2252.901428 0.9992 0.9982 0.9980 0.9980 0.9980
2257.246745 0.9980 0.9980 0.9980 0.9980 0.9980
2261.592063 0.9980 0.9980 0.9980 0.9980 0.9976
2265.937380 0.9971 0.9970 0.9970 0.9970 0.9970
2270.282698 0.9970 0.9970 0.9970 0.9970 0.9970
2274.628015 0.9970 0.9970 0.9970 0.9970 0.9970
2278.973333 0.9970 0.9970 0.9962 0.9952 0.9946
2283.318650 0.9941 0.9940 0.9940 0.9940 0.9940
2287.663967 0.9940 0.9940 0.9940 0.9940 0.9944
2292.009285 0.9949 0.9958 0.9968 0.9974 0.9979
2296.354602 0.9980 0.9980 0.9996 1.0016 1.0032
2300.699920 1.0047 1.0054 1.0059 1.0068 1.0078
2305.045237 1.0080 1.0080 1.0084 1.0089 1.0094
2309.390555 1.0099 1.0108 1.0118 1.0120 1.0120
2313.735872 1.0120 1.0120 1.0124 1.0129 1.0146
2318.081190 1.0166 1.0186 1.0206 1.0222 1.0237
2322.426507 1.0240 1.0240 1.0244 1.0249 1.0258
2326.771825 1.0268 1.0262 1.0252 1.0246 1.0241
2331.117142 1.0240 1.0240 1.0236 1.0231 1.0230
2335.462460 1.0230 1.0222 1.0212 1.0218 1.0228
2339.807777 1.0234 1.0239 1.0244 1.0249 1.0250
2344.153094 1.0250 1.0250 1.0250 1.0261 1.0277
2348.498412 1.0280 1.0280 1.0261 1.0236 1.0222
2352.843729 1.0212 1.0218 1.0228 1.0260 1.0300
2357.189047 1.0310 1.0310 1.0299 1.0284 1.0265
2361.534364 1.0245 1.0210 1.0170 1.0153 1.0142
2365.879682 1.0174 1.0219 1.0230 1.0230 1.0222
2370.224999 1.0213 1.0195 1.0175 1.0155 1.0135
2374.570317 1.0126 1.0121 1.0120 1.0120 1.0120
2378.915634 1.0120 1.0120 1.0120 1.0120 1.0120
2383.260952 1.0120 1.0120 1.0120 1.0120 1.0120
2387.606269 1.0120 1.0120 1.0120 1.0120 1.0120
2391.951586 1.0120 1.0120 1.0120 1.0120 1.0120
2396.296904 1.0120 1.0120 1.0120 1.0120 1.0120
2400.642221 1.0120 1.0120 1.0120 1.0120 1.0120
2404.987539 1.0120 1.0120 1.0120 1.0120 1.0120
2409.332856 1.0120 1.0120 1.0120 1.0120 1.0120
2413.678174 1.0120 1.0120 1.0120 1.0120 1.0120
2418.023491 1.0120 1.0120 1.0120 1.0120 1.0120
2422.368809 1.0120 1.0120 1.0120 1.0120 1.0120
2426.714126 1.0120 1.0120 1.0120 1.0120 1.0120
2431.059444 1.0120 1.0120 1.0120 1.0120 1.0120
2435.404761 1.0120 1.0120 1.0120 1.0120 1.0120
2439.750079 1.0120 1.0113 1.0103 1.0100 1.0100
2444.095396 1.0100 1.0100 1.0100 1.0100 1.0107
2448.440713 1.0117 1.0120 1.0120 1.0113 1.0103
2452.786031 1.0100 1.0100 1.0100 1.0100 1.0100
2457.131348 1.0100 1.0100 1.0100 1.0100 1.0100
2461.476666 1.0100 1.0100 1.0100 1.0100 1.0100
2465.821983 1.0100 1.0097 1.0092 1.0090 1.0090
2470.167301 1.0090 1.0090 1.0093 1.0098 1.0100
2474.512618 1.0100 1.0100 1.0100 1.0100 1.0100
2478.857936 1.0100 1.0100 1.0100 1.0100 1.0100
2483.203253 1.0100 1.0100 1.0100 1.0100 1.0100
2487.548571 1.0100 1.0100 1.0097 1.0092 1.0090
2491.893888 1.0090 1.0093 1.0098 1.0100 1.0100
2496.239205 1.0100 1.0100 1.0100 1.0100 1.0100
2500.584523 1.0100 1.0097 1.0092 1.0090 1.0090
2504.929840 1.0093 1.0098 1.0097 1.0092 1.0090
2509.275158 1.0090 1.0090 1.0090 1.0093 1.0098
2513.620475 1.0100 1.0100 1.0100 1.0100 1.0097
2517.965793 1.0092 1.0090 1.0090 1.0090 1.0090
2522.311110 1.0093 1.0098 1.0100 1.0100 1.0100
2526.656428 1.0100 1.0100 1.0100 1.0097 1.0092
2531.001745 1.0090 1.0090 1.0093 1.0098 1.0100
2535.347063 1.0100 1.0097 1.0092 1.0090 1.0090
2539.692380 1.0090 1.0090 1.0090 1.0090 1.0090
2544.037698 1.0090 1.0090 1.0090 1.0090 1.0090
2548.383015 1.0090 1.0090 1.0090 1.0090 1.0090
2552.728332 1.0090 1.0090 1.0090 1.0090 1.0090
2557.073650 1.0090 1.0090 1.0090 1.0090 1.0090
2561.418967 1.0090 1.0090 1.0090 1.0090 1.0090
2565.764285 1.0087 1.0082 1.0080 1.0080 1.0080
2570.109602 1.0080 1.0080 1.0080 1.0083 1.0088
2574.454920 1.0090 1.0090 1.0087 1.0082 1.0080
2578.800237 1.0080 1.0080 1.0080 1.0080 1.0080
2583.145555 1.0080 1.0080 1.0080 1.0080 1.0080
2587.490872 1.0080 1.0080 1.0080 1.0080 1.0080
2591.836190 1.0080 1.0080 1.0080 1.0080 1.0080
2596.181507 1.0080 1.0080 1.0080 1.0080 1.0080
2600.526824 1.0080 1.0080 1.0080 1.0080 1.0080
2604.872142 1.0080 1.0080 1.0080 1.0080 1.0080
2609.217459 1.0080 1.0080 1.0080 1.0080 1.0080
2613.562777 1.0080 1.0080 1.0080 1.0080 1.0080
2617.908094 1.0080 1.0080 1.0080 1.0080 1.0080
2622.253412 1.0080 1.0080 1.0080 1.0080 1.0080
2626.598729 1.0080 1.0080 1.0080 1.0080 1.0080
2630.944047 1.0080 1.0080 1.0080 1.0080 1.0080
2635.289364 1.0080 1.0080 1.0080 1.0080 1.0080
2639.634682 1.0080 1.0074 1.0064 1.0060 1.0060
2643.979999 1.0060 1.0060 1.0060 1.0060 1.0060
2648.325317 1.0060 1.0060 1.0060 1.0060 1.0060
2652.670634 1.0060 1.0060 1.0060 1.0060 1.0060
2657.015951 1.0060 1.0060 1.0060 1.0060 1.0060
2661.361269 1.0060 1.0060 1.0060 1.0060 1.0060
2665.706586 1.0060 1.0060 1.0060 1.0060 1.0060
2670.051904 1.0060 1.0060 1.0060 1.0060 1.0060
2674.397221 1.0060 1.0060 1.0060 1.0060 1.0060
2678.742539 1.0060 1.0060 1.0060 1.0060 1.0060
2683.087856 1.0060 1.0060 1.0060 1.0060 1.0060
2687.433174 1.0060 1.0060 1.0060 1.0060 1.0060
2691.778491 1.0060 1.0060 1.0060 1.0060 1.0060
2696.123809 1.0065 1.0075 1.0080 1.0080 1.0080
2700.469126 1.0080 1.0080 1.0080 1.0080 1.0080
2704.814443 1.0080 1.0080 1.0080 1.0080 1.0080
2709.159761 1.0080 1.0080 1.0080 1.0080 1.0080
2713.505078 1.0080 1.0080 1.0080 1.0080 1.0080
2717.850396 1.0080 1.0075 1.0065 1.0060 1.0060
2722.195713 1.0060 1.0060 1.0060 1.0060 1.0060
2726.541031 1.0060 1.0060 1.0060 1.0060 1.0060
2730.886348 1.0060 1.0060 1.0060 1.0060 1.0060
2735.231666 1.0060 1.0060 1.0060 1.0060 1.0060
2739.576983 1.0060 1.0060 1.0060 1.0060 1.0060
2743.922301 1.0060 1.0060 1.0060 1.0060 1.0060
2748.267618 1.0060 1.0060 1.0057 1.0053 1.0050
2752.612936 1.0050 1.0050 1.0050 1.0050 1.0050
2756.958253 1.0048 1.0043 1.0040 1.0040 1.0035
2761.303570 1.0025 1.0020 1.0020 1.0020 1.0020
2765.648888 1.0020 1.0020 1.0017 1.0013 1.0010
2769.994205 1.0010 1.0010 1.0010 1.0010 1.0010
2774.339523 1.0010 1.0010 1.0010 1.0010 1.0010
2778.684840 1.0010 1.0010 1.0010 1.0010 1.0010
2783.030158 1.0010 1.0010 1.0008 1.0003 1.0000
2787.375475 1.0000 1.0002 1.0007 1.0010 1.0010
2791.720793 1.0010 1.0010 1.0010 1.0010 1.0010
2796.066110 1.0010 1.0010 1.0010 1.0010 1.0010
2800.411428 1.0010 1.0010 1.0010 1.0010 1.0008
2804.756745 1.0003 1.0000 1.0000 1.0000 1.0000
2809.102063 1.0000 1.0000 1.0000 1.0000 1.0000
2813.447380 1.0000 1.0000 1.0000 0.9996 0.9985
2817.792697 0.9980 0.9980 0.9980 0.9980 0.9980
2822.138015 0.9980 0.9980 0.9980 0.9978 0.9973
2826.483332 0.9970 0.9970 0.9966 0.9956 0.9950
2830.828650 0.9950 0.9948 0.9943 0.9938 0.9933
2835.173967 0.9930 0.9930 0.9926 0.9916 0.9908
2839.519285 0.9903 0.9900 0.9900 0.9893 0.9878
2843.864602 0.9870 0.9870 0.9866 0.9856 0.9839
2848.209920 0.9814 0.9796 0.9786 0.9776 0.9766
2852.555237 0.9756 0.9746 0.9733 0.9718 0.9710
2856.900555 0.9710 0.9708 0.9703 0.9700 0.9700
2861.245872 0.9696 0.9686 0.9680 0.9680 0.9680
2865.591189 0.9680 0.9678 0.9673 0.9670 0.9670
2869.936507 0.9670 0.9670 0.9670 0.9670 0.9670
2874.281824 0.9670 0.9666 0.9656 0.9650 0.9650
2878.627142 0.9650 0.9650 0.9650 0.9650 0.9650
2882.972459 0.9650 0.9650 0.9650 0.9648 0.9643
2887.317777 0.9640 0.9640 0.9634 0.9619 0.9610
2891.663094 0.9610 0.9608 0.9603 0.9600 0.9600
2896.008412 0.9598 0.9593 0.9586 0.9576 0.9570
2900.353729 0.9570 0.9566 0.9556 0.9546 0.9536
2904.699047 0.9530 0.9530 0.9530 0.9530 0.9528
2909.044364 0.9523 0.9514 0.9499 0.9488 0.9483
2913.389682 0.9480 0.9480 0.9476 0.9466 0.9458
2917.734999 0.9453 0.9444 0.9429 0.9416 0.9406
2922.080316 0.9396 0.9386 0.9380 0.9380 0.9376
2926.425634 0.9366 0.9360 0.9360 0.9360 0.9360
2930.770951 0.9360 0.9360 0.9356 0.9346 0.9340
2935.116269 0.9340 0.9340 0.9340 0.9340 0.9340
2939.461586 0.9340 0.9340 0.9340 0.9340 0.9340
2943.806904 0.9340 0.9338 0.9333 0.9326 0.9316
2948.152221 0.9303 0.9283 0.9263 0.9243 0.9223
2952.497539 0.9203 0.9178 0.9143 0.9111 0.9086
2956.842856 0.9063 0.9043 0.9010 0.8955 0.8887
2961.188174 0.8798 0.8720 0.8665 0.8614 0.8569
2965.533491 0.8533 0.8513 0.8493 0.8473 0.8436
2969.878808 0.8366 0.8301 0.8246 0.8188 0.8122
2974.224126 0.8062 0.8012 0.7966 0.7926 0.7882
2978.569443 0.7833 0.7791 0.7766 0.7748 0.7743
2982.914761 0.7740 0.7740 0.7742 0.7747 0.7752
2987.260078 0.7757 0.7763 0.7773 0.7780 0.7780
2991.605396 0.7780 0.7780 0.7777 0.7767 0.7760
2995.950713 0.7760 0.7752 0.7727 0.7700 0.7670
3000.296031 0.7566 0.7311 0.7086 0.6921 0.6768
3004.641348 0.6638 0.6502 0.6352 0.6187 0.5991
3008.986666 0.5860 0.5860 0.5875 0.5920 0.5955
3013.331983 0.5970 0.5985 0.6000 0.6008 0.6003
3017.677301 0.5979 0.5914 0.5832 0.5712 0.5591
3022.022618 0.5466 0.5334 0.5184 0.5032 0.4876
3026.367935 0.4715 0.4545 0.4380 0.4226 0.4120
3030.713253 0.4120 0.4176 0.4356 0.4599 0.4984
3035.058570 0.5311 0.5511 0.5709 0.5904 0.6082
3039.403888 0.6222 0.6330 0.6365 0.6396 0.6416
3043.749205 0.6432 0.6437 0.6438 0.6433 0.6419
3048.094523 0.6384 0.6348 0.6308 0.6211 0.5982
3052.439840 0.5783 0.5658 0.5535 0.5415 0.5326
3056.785158 0.5311 0.5284 0.5229 0.5161 0.5061
3061.130475 0.4959 0.4854 0.4780 0.4780 0.4808
3065.475793 0.4903 0.4999 0.5099 0.5219 0.5389
3069.821110 0.5560 0.5734 0.5873 0.5918 0.5949
3074.166427 0.5944 0.5930 0.5895 0.5834 0.5703
3078.511745 0.5571 0.5436 0.5260 0.4981 0.4742
3082.857062 0.4607 0.4474 0.4344 0.4250 0.4250
3087.202380 0.4284 0.4409 0.4535 0.4665 0.4771
3091.547697 0.4811 0.4852 0.4897 0.5043 0.5477
3095.893015 0.5924 0.6409 0.6828 0.7078 0.7343
3100.238332 0.7647 0.7874 0.7889 0.7915 0.7969
3104.583650 0.8014 0.8029 0.8048 0.8078 0.8118
3108.928967 0.8188 0.8288 0.8478 0.8697 0.9004
3113.274285 0.9241 0.9281 0.9330 0.9405 0.9487
3117.619602 0.9592 0.9684 0.9739 0.9790 0.9830
3121.964920 0.9870 0.9910 0.9940 0.9940 0.9941
3126.310237 0.9946 0.9952 0.9962 0.9976 1.0001
3130.655554 1.0028 1.0058 1.0080 1.0080 1.0081
3135.000872 1.0086 1.0090 1.0090 1.0090 1.0090
3139.346189 1.0091 1.0096 1.0100 1.0100 1.0100
3143.691507 1.0100 1.0100 1.0100 1.0099 1.0094
3148.036824 1.0090 1.0090 1.0091 1.0096 1.0102
3152.382142 1.0112 1.0121 1.0126 1.0131 1.0136
3156.727459 1.0143 1.0158 1.0177 1.0207 1.0230
3161.072777 1.0230 1.0231 1.0236 1.0240 1.0240
3165.418094 1.0241 1.0246 1.0250 1.0250 1.0252
3169.763412 1.0262 1.0271 1.0276 1.0280 1.0280
3174.108729 1.0280 1.0280 1.0281 1.0286 1.0290
3178.454046 1.0290 1.0290 1.0290 1.0290 1.0290
3182.799364 1.0290 1.0290 1.0290 1.0290 1.0292
3187.144681 1.0302 1.0310 1.0310 1.0310 1.0310
3191.489999 1.0310 1.0310 1.0311 1.0316 1.0320
3195.835316 1.0320 1.0320 1.0320 1.0320 1.0320
3200.180634 1.0320 1.0320 1.0320 1.0320 1.0320
3204.525951 1.0320 1.0320 1.0320 1.0320 1.0320
3208.871269 1.0322 1.0332 1.0340 1.0340 1.0340
3213.216586 1.0340 1.0340 1.0340 1.0340 1.0340
3217.561904 1.0340 1.0340 1.0340 1.0340 1.0340
3221.907221 1.0340 1.0340 1.0340 1.0340 1.0340
3226.252539 1.0340 1.0340 1.0340 1.0340 1.0340
3230.597856 1.0340 1.0340 1.0340 1.0340 1.0340
3234.943173 1.0340 1.0340 1.0340 1.0340 1.0340
3239.288491 1.0340 1.0340 1.0340 1.0340 1.0340
3243.633808 1.0340 1.0340 1.0340 1.0340 1.0340
3247.979126 1.0340 1.0340 1.0340 1.0340 1.0340
3252.324443 1.0340 1.0340 1.0340 1.0340 1.0340
3256.669761 1.0340 1.0340 1.0340 1.0340 1.0340
3261.015078 1.0340 1.0340 1.0340 1.0340 1.0340
3265.360396 1.0340 1.0340 1.0340 1.0340 1.0340
3269.705713 1.0340 1.0340 1.0340 1.0340 1.0340
3274.051031 1.0340 1.0340 1.0340 1.0340 1.0340
3278.396348 1.0340 1.0340 1.0340 1.0340 1.0340
3282.741665 1.0340 1.0340 1.0340 1.0340 1.0340
3287.086983 1.0340 1.0340 1.0340 1.0340 1.0340
3291.432300 1.0340 1.0340 1.0340 1.0340 1.0340
3295.777618 1.0340 1.0340 1.0340 1.0340 1.0340
3300.122935 1.0340 1.0340 1.0340 1.0340 1.0340
3304.468253 1.0340 1.0340 1.0340 1.0340 1.0340
3308.813570 1.0340 1.0340 1.0340 1.0340 1.0340
3313.158888 1.0340 1.0340 1.0340 1.0340 1.0340
3317.504205 1.0340 1.0340 1.0340 1.0340 1.0340
3321.849523 1.0340 1.0340 1.0340 1.0340 1.0340
3326.194840 1.0340 1.0340 1.0340 1.0340 1.0340
3330.540158 1.0340 1.0340 1.0340 1.0346 1.0350
3334.885475 1.0350 1.0350 1.0345 1.0340 1.0340
3339.230792 1.0340 1.0340 1.0341 1.0346 1.0350
3343.576110 1.0350 1.0350 1.0350 1.0350 1.0350
3347.921427 1.0350 1.0350 1.0350 1.0350 1.0350
3352.266745 1.0350 1.0350 1.0350 1.0350 1.0350
3356.612062 1.0350 1.0345 1.0340 1.0340 1.0340
3360.957380 1.0340 1.0340 1.0346 1.0350 1.0350
3365.302697 1.0350 1.0350 1.0350 1.0350 1.0350
3369.648015 1.0350 1.0350 1.0350 1.0350 1.0350
3373.993332 1.0350 1.0350 1.0350 1.0350 1.0350
3378.338650 1.0350 1.0350 1.0350 1.0350 1.0350
3382.683967 1.0350 1.0350 1.0350 1.0350 1.0350
3387.029284 1.0345 1.0340 1.0340 1.0340 1.0340
3391.374602 1.0340 1.0345 1.0350 1.0350 1.0350
3395.719919 1.0350 1.0350 1.0350 1.0350 1.0350
3400.065237 1.0350 1.0345 1.0340 1.0340 1.0340
3404.410554 1.0340 1.0340 1.0340 1.0340 1.0340
3408.755872 1.0339 1.0329 1.0320 1.0315 1.0310
3413.101189 1.0310 1.0310 1.0310 1.0310 1.0310
3417.446507 1.0310 1.0310 1.0310 1.0300 1.0290
3421.791824 1.0290 1.0290 1.0290 1.0290 1.0285
3426.137142 1.0280 1.0280 1.0280 1.0280 1.0280
3430.482459 1.0275 1.0270 1.0270 1.0270 1.0270
3434.827777 1.0270 1.0270 1.0270 1.0270 1.0270
3439.173094 1.0270 1.0270 1.0260 1.0250 1.0250
3443.518411 1.0250 1.0250 1.0250 1.0250 1.0250
3447.863729 1.0250 1.0250 1.0245 1.0240 1.0240
3452.209046 1.0240 1.0240 1.0240 1.0240 1.0240
3456.554364 1.0240 1.0240 1.0240 1.0240 1.0240
3460.899681 1.0240 1.0240 1.0240 1.0240 1.0240
3465.244999 1.0240 1.0240 1.0240 1.0240 1.0240
3469.590316 1.0240 1.0240 1.0240 1.0235 1.0230
3473.935634 1.0230 1.0230 1.0230 1.0230 1.0230
3478.280951 1.0230 1.0220 1.0210 1.0210 1.0210
3482.626269 1.0210 1.0210 1.0210 1.0210 1.0210
3486.971586 1.0210 1.0210 1.0210 1.0210 1.0210
3491.316903 1.0210 1.0210 1.0210 1.0210 1.0205
3495.662221 1.0200 1.0200 1.0200 1.0200 1.0200
3500.007538 1.0200 1.0200 1.0195 1.0190 1.0190
3504.352856 1.0190 1.0190 1.0190 1.0190 1.0190
3508.698173 1.0190 1.0190 1.0190 1.0190 1.0190
3513.043491 1.0190 1.0190 1.0190 1.0190 1.0190
3517.388808 1.0190 1.0190 1.0190 1.0190 1.0190
3521.734126 1.0190 1.0190 1.0190 1.0190 1.0190
3526.079443 1.0190 1.0190 1.0190 1.0190 1.0190
3530.424761 1.0190 1.0190 1.0190 1.0190 1.0190
3534.770078 1.0190 1.0190 1.0190 1.0190 1.0195
3539.115396 1.0200 1.0195 1.0190 1.0190 1.0190
3543.460713 1.0190 1.0190 1.0190 1.0190 1.0190
3547.806030 1.0190 1.0190 1.0190 1.0190 1.0190
3552.151348 1.0190 1.0190 1.0190 1.0190 1.0190
3556.496665 1.0190 1.0190 1.0190 1.0190 1.0190
3560.841983 1.0190 1.0190 1.0190 1.0190 1.0190
3565.187300 1.0190 1.0190 1.0190 1.0190 1.0190
3569.532618 1.0180 1.0170 1.0170 1.0170 1.0170
3573.877935 1.0170 1.0170 1.0170 1.0170 1.0170
3578.223253 1.0170 1.0170 1.0170 1.0170 1.0170
3582.568570 1.0170 1.0170 1.0170 1.0170 1.0170
3586.913888 1.0170 1.0170 1.0170 1.0170 1.0170
3591.259205 1.0170 1.0170 1.0170 1.0170 1.0170
3595.604522 1.0170 1.0170 1.0165 1.0160 1.0160
3599.949840 1.0160 1.0160 1.0160 1.0165 1.0170
3604.295157 1.0165 1.0160 1.0160 1.0160 1.0160
3608.640475 1.0160 1.0160 1.0160 1.0160 1.0160
3612.985792 1.0160 1.0160 1.0160 1.0160 1.0160
3617.331110 1.0160 1.0160 1.0160 1.0151 1.0141
3621.676427 1.0140 1.0140 1.0149 1.0159 1.0160
3626.021745 1.0160 1.0160 1.0160 1.0160 1.0160
3630.367062 1.0160 1.0160 1.0160 1.0160 1.0160
3634.712380 1.0160 1.0160 1.0160 1.0160 1.0160
3639.057697 1.0151 1.0141 1.0140 1.0140 1.0149
3643.403015 1.0159 1.0160 1.0160 1.0160 1.0160
3647.748332 1.0160 1.0160 1.0151 1.0141 1.0140
3652.093649 1.0140 1.0140 1.0140 1.0140 1.0140
3656.438967 1.0140 1.0140 1.0149 1.0159 1.0160
3660.784284 1.0160 1.0160 1.0160 1.0160 1.0160
3665.129602 1.0164 1.0169 1.0179 1.0189 1.0190
3669.474919 1.0190 1.0190 1.0190 1.0195 1.0200
3673.820237 1.0200 1.0200 1.0200 1.0200 1.0196
3678.165554 1.0191 1.0190 1.0190 1.0181 1.0171
3682.510872 1.0170 1.0170 1.0170 1.0170 1.0179
3686.856189 1.0189 1.0190 1.0190 1.0190 1.0190
3691.201507 1.0190 1.0190 1.0181 1.0171 1.0170
3695.546824 1.0170 1.0170 1.0170 1.0179 1.0189
3699.892141 1.0190 1.0190 1.0194 1.0199 1.0200
3704.237459 1.0200 1.0200 1.0200 1.0200 1.0200
3708.582776 1.0200 1.0200 1.0200 1.0200 1.0200
3712.928094 1.0200 1.0196 1.0191 1.0190 1.0190
3717.273411 1.0190 1.0190 1.0190 1.0190 1.0190
3721.618729 1.0190 1.0194 1.0199 1.0200 1.0200
3725.964046 1.0200 1.0200 1.0200 1.0200 1.0200
3730.309364 1.0200 1.0196 1.0191 1.0190 1.0190
3734.654681 1.0190 1.0190 1.0190 1.0190 1.0182
3738.999999 1.0172 1.0170 1.0170 1.0170 1.0170
3743.345316 1.0166 1.0161 1.0160 1.0160 1.0152
3747.690634 1.0142 1.0136 1.0131 1.0126 1.0121
3752.035951 1.0112 1.0102 1.0100 1.0100 1.0100
3756.381268 1.0100 1.0100 1.0100 1.0096 1.0091
3760.726586 1.0090 1.0090 1.0090 1.0090 1.0090
3765.071903 1.0090 1.0090 1.0090 1.0086 1.0081
3769.417221 1.0080 1.0080 1.0080 1.0080 1.0080
3773.762538 1.0080 1.0072 1.0062 1.0060 1.0060
3778.107856 1.0060 1.0060 1.0060 1.0060
##END=
