##TITLE=Ethylbenzene
##JCAMP-DX=4.24
##DATA TYPE=INFRARED SPECTRUM
##CLASS=IUPAC A
##ORIGIN=NIST, Analytical Chemistry Division, 301-975-3108
##OWNER=COPYRIGHT (C) 2001 by the U.S. Secretary of Commerce
##DATE=01/06/01
##$SPECTRA VERSION=1.10
##$UNCERTAINTY IN Y=2.1 % relative (B=1.13E-04,C=1.09E-9,D=2.34E-14)
##CAS NAME=Ethylbenzene
##CAS REGISTRY NO=100-41-4
##MOLFORM=C6 H5 C2 H5
##MP=-94.97 C
##BP=136.2 C
##$NIST SOURCE=QUANT-IR
##SPECTROMETER/DATA SYSTEM=IFS66V (Bruker)
##INSTRUMENT PARAMETERS=KBr Beam Splitter; MCT Detector; Multipass cell
##STATE=gas
##SAMPLE DESCRIPTION=Ethylbenzene Primary Gas Standard
##PRESSURE=101.3 Pa
##TEMPERATURE=23 C
##SAMPLING PROCEDURE=1 L/min Flow
##RESOLUTION=0.9640
##DATA PROCESSING=NB Strong Apodization
##XUNITS=cm-1
##YUNITS=(micromol/mol)-1m-1 (base 10)
##XFACTOR=1.0
##YFACTOR=4.5474E-13
##DELTAX=0.4820
##FIRSTX=575.17
##LASTX=3974.606
##FIRSTY=4.44E-06
##MAXX=3974.12
##MINX=575.17
##MAXY=.0004674
##MINY=-7.68E-07
##NPOINTS=7052
##XYDATA=(X++(Y..Y))
575.17 9784746 8260641 8302072 8644540 9244608 8716275
577.58 7958250 8580498 8626267 5931282 4462485 4227687
580.47 3414687 3240606 2973491 2246558 3377563 3171085
583.37 2540665 3510203 2869348 2119917 1593839 2169780
586.26 2815193 2192365 1138380 1252514 1694403 1970656
589.15 1515540 1071687 606968 1669927 1323808-462238
592.04-91742 699153-6801-418389-583983-288866
594.94-1165949-598359 69591-428984-1236685-981577
597.83 43800 761101 577232 400171 808868 1331703
600.72 414734-842375-1690871-1421932-450656-186572
603.62-855370-1277151-995945-808132-310608-45436
606.51 31-146796-364235-123568-70023 329406
609.40 457677-362292-812502 214533 607696 576726
612.29-42529-659190-143035-265913-1232838-1295910
615.19-312768 243456-740906-1160760-39879 66429
618.08-338446 620215 828976-57669-468816-601018
620.97-821525-411796 409836-81372-59923 300385
623.86 157158 496321 1487644 1533341 876273 1093187
626.76 1761619 2646125 2892796 2477778 977099 217986
629.65 822557 514631 823338 1111419 872533 783384
632.54 1305217 1267980 1377248 1580790 1208336 1370639
635.44 962571 843926 1593064 2341077 2015861 804112
638.33 250554 574221 465356 257862 375819 490233
641.22 116008-99122-43627 160305 376767 599230
644.11 134029 73482 74862-305202-445621-325533
647.01 102-91636-313143-447018-629439-239303
649.90 195339 63228 7183 146270-510517-629942
652.79 50869-116051 320039 667777 1218477 890397
655.68 719276 833222 786411 545544 572828 895223
658.58 793649 824386 971089 1353645 1970266 2040199
661.47 1934484 2038751 2873482 3511187 3755746 3833055
664.36 3927762 4533042 5433694 6574187 7658473 7633874
667.26 7781182 9257427 11215805 12582879 13506667 15306206
670.15 18054116 20494901 22938591 25053685 28121148 31620078
673.04 35196787 39179879 42977032 47158886 52294838 58643470
675.93 64662334 70416069 77303416 85198646 93367459 101370543
678.83 109608003 118481492 128115323 138300077 149238637 159570784
681.72 170554956 182354468 194013284 205635484 217364113 229612950
684.61 241371772 252455052 264005618 276335195 290842957 306287572
687.50 322192510 336062372 341096099 341858086 346271834 353961170
690.40 363781436 374214937 385513510 398049600 411970391 428113423
693.29 446707403 464047882 482248826 507334231 546850041 608475655
696.18 700364560 817191006 882949679 756874195 552555318 458309299
699.08 435756346 431109705 423452083 417122290 411955891 407998206
701.97 403120591 398817988 393359195 388366151 383740379 379617878
704.86 375283096 372718275 370476815 365272269 353962859 340807132
707.75 328608543 318326527 308814613 299925917 290676559 280436398
710.65 270482034 261534503 252123086 243307407 234354628 225609464
713.54 217129484 209029601 201647178 195540200 189532939 184509485
716.43 179702242 175698023 172438186 170186445 168448953 167341115
719.32 165992641 165629822 165872668 166687254 167764169 169225729
722.22 170704845 172749378 174788837 177274635 179057982 181607115
725.11 183861977 186307121 187828750 189356512 191328056 193821697
728.00 195929139 197789233 199393765 201838387 204616780 207017032
730.90 208833325 211235200 213448878 215806811 218560688 221944551
733.79 225422120 229090312 232034178 235445696 239415933 243711209
736.68 247997453 250990157 252757166 256745838 260202027 259659858
739.57 260851516 265808316 264658916 260170982 259745565 264959763
742.47 265720390 263349638 260849154 260857963 263392835 268690895
745.36 262638785 254227465 252436090 253966863 252666225 253531106
748.25 252920994 254044421 253636848 261553460 292361927 337343256
751.14 325270137 271958623 247540320 248725229 239054480 222423973
754.04 218089308 218669170 216879303 209235955 202627347 197385967
756.93 194255277 190263740 186760165 182985670 179743581 176292687
759.82 172961155 169084030 165547129 161964530 158953156 155571246
762.72 152467853 149385920 146134682 142771583 139711255 136908225
765.61 134065301 131328027 129275507 126822590 124742135 123722550
768.50 123351213 122085869 121169570 121886461 124781837 131343443
771.39 144549356 152236329 137716548 113354331 99179545 92892363
774.29 90031876 88152410 86920038 85508719 83829932 81998591
777.18 80655257 78673069 77534297 76613928 74957071 73374024
780.07 72447555 70728189 68977229 67624648 66234011 64814544
782.96 63332029 61661404 60073701 58075997 56644816 55039484
785.86 53162234 51269984 49629141 47985743 46296699 44560972
788.75 43209711 41564179 40069632 38719013 37123940 35560830
791.64 34245118 32999720 31650133 31162440 30333568 29156331
794.54 28171275 27719777 27570956 26880585 26143959 25250991
797.43 24298380 23548537 22880822 21910610 21254653 20782174
800.32 20445336 19656138 19100165 18713812 18342626 17673980
803.21 17042828 16061485 15210555 14694301 14275203 13999868
806.11 13931680 13703290 13379300 12516167 11836643 11585100
809.00 11321558 10919018 10669039 10160226 9922434 9870180
811.89 9372493 8689751 8284863 8133923 7930335 7603153
814.78 7511980 7285073 7011996 6894488 6239418 5786256
817.68 5704955 5342281 5201566 5514781 5095383 4470723
820.57 4438366 4885643 4694167 4190227 4251836 4028194
823.46 4234651 4246038 3990257 3730135 3322641 2878535
826.36 2585411 2527263 2481550 2278277 2679418 3237700
829.25 2990411 2335417 2048668 2004305 1870458 1684973
832.14 1549626 1534666 1588691 1452135 1183944 1011422
835.03 1237986 1083590 633365 958389 1504172 1531163
837.93 993613 742293 785190 884742 854321 565701
840.82 234422 164306 144037 41243 376784 803604
843.71 581045 305508 225013 194522 53588-124605
846.60-23685-234306-404712-292142-118863-90937
849.50 86465 125287-614750-613305-322470-273218
852.39-275515-323299-253400-193184-657379-897495
855.28-670605-735566-823976-856583-619605-482309
858.18-587416-608933-245708 27047-6382-203023
861.07-439428-714112-867787-675360-376244-179298
863.96-34615-8663 97890-228335-156492 87054
866.85 229156 398523 349073 576735 812047 1073561
869.75 1271315 1226973 1526687 1702656 1513753 1466328
872.64 1767327 1992100 2242148 2883218 3461502 3527990
875.53 3328058 3406371 3665815 4042823 4212864 4413118
878.42 4657034 4922380 5408101 5939601 5926694 6278407
881.32 6499152 6670058 6977506 7371477 7622556 8052964
884.21 8658355 9344453 9702306 9676286 9860468 10577503
887.10 11297589 11572026 11945648 12441205 12820121 13382848
890.00 13795733 13760124 13822186 14175305 14485213 14834128
892.89 14885798 14928167 15384831 15806232 15948844 16037552
895.78 16140214 16368591 16515216 16713892 17091183 17686864
898.67 18191138 18888323 19654068 20951331 22319860 23971098
901.57 26836892 32084974 41452990 50779287 43967551 27808058
904.46 20684278 18862929 18329079 18270466 18420410 17810436
907.35 17441100 17189769 16836495 16726806 16729603 16519229
910.24 16279263 15839834 15327060 14446402 13901673 13698415
913.14 13545839 13007303 12615557 11976211 11455403 10943163
916.03 10391977 9703953 8611672 7805381 7517926 7001313
918.92 6283947 5808927 5296124 4623335 4048894 3480404
921.82 3105212 2763579 2387028 2117201 1884748 1507942
924.71 1462288 1213833 687684 336422 382198 249284
927.60-19904-14345 64466-34689-44591 96728
930.49 224441 34614-93107-254273-303368-228423
933.39-54191-238272-307151-269160-347204-199211
936.28-602-14624-134021-315871-194036-132543
939.17 71430 31339-95159-149842 53974 53310
942.06-6465 137337 142048 329522 652727 756226
944.96 1022269 1178270 1371884 1484395 1472320 1721971
947.85 2257512 2516862 2780707 3425017 4216527 4657375
950.74 5204110 6025748 7077536 8179319 9408171 10484198
953.64 11644722 12780683 14111573 15673727 17172200 18741153
956.53 20217494 21137834 21968492 22545318 22911708 23169132
959.42 23243393 23329854 23869713 24696810 25670597 26964021
962.31 28676001 30257366 30445394 28579454 26101454 24650591
965.21 24841952 25610340 26543565 27414905 28231279 28884283
968.10 28994583 29059962 28623998 27899507 27060564 25779023
970.99 24222818 22648691 21128257 19678907 18275796 17060024
973.88 15971877 14736729 13670594 12907192 11982223 10902449
976.78 10263065 9873992 9342405 8682193 8060703 7552576
979.67 7629258 7278615 6261983 5589865 5035774 4667900
982.56 4492252 4338389 4371657 4300414 4084453 3953526
985.46 3801917 3858848 3702810 3783249 4043130 4082866
988.35 4006501 3876368 3799287 3944873 4279630 4309503
991.24 4361241 4522179 4622327 4820036 4815776 4744203
994.13 4886979 5058740 5262626 5409398 5503288 5775997
997.03 5993057 6247707 6790710 7157040 7397954 7705224
999.92 8029533 8175915 8149155 7978543 7956980 7886251
1002.81 7905849 7958282 7991668 8590700 9379395 9672768
1005.70 9659523 9575521 9477393 9387691 9543170 9671585
1008.60 9855000 10097119 10416735 10827160 11210540 11835440
1011.49 12329952 12626305 13253380 13971790 14553553 15263256
1014.38 16120134 17026220 18023508 19289058 20706082 22273150
1017.28 23892716 25496933 27605583 30117354 32622720 35628877
1020.17 39026897 42167559 45404119 48994394 52620188 56351349
1023.06 59959736 63123292 65248931 66737016 67724171 67988418
1025.95 67681087 67001585 65704979 64119149 62633968 62027753
1028.85 62907625 66448439 73387319 82177386 83084937 76841041
1031.74 74086140 74146249 73392171 71849950 71417166 71766285
1034.63 72253173 72328794 72110866 71259823 69970174 68533226
1037.52 66810316 65008958 63205231 61327220 59528219 57501099
1040.42 55849470 54152462 52503671 50643148 48659313 47006782
1043.31 45630645 44205375 43026883 41772261 40717806 40036033
1046.20 39386814 38816672 38058056 37108527 36515127 36174046
1049.10 35810481 35668480 35614153 35683028 35994769 36189234
1051.99 36724540 37504940 38561334 40052318 42084365 44541783
1054.88 47062418 49691528 52469498 54884930 57374466 59676393
1057.77 61512802 63172314 64475166 65175972 64984072 63928629
1060.67 62252073 60243774 57801861 55941851 55512890 57451730
1063.56 62647540 70580897 77246392 77350348 66150436 51192029
1066.45 46784523 49124610 52572893 56164735 59479341 61727259
1069.34 62878263 62799640 61524382 59382338 56447477 52916553
1072.24 49158689 45365969 41597719 38006386 34924203 32093454
1075.13 29618012 27459123 25809955 24776322 23871073 23104635
1078.02 22575954 22471638 22694416 22933623 23098952 23276998
1080.92 23473724 23902575 24322572 24475856 24876390 25162431
1083.81 25072654 25050357 25174710 24819843 24556759 24108899
1086.70 23342640 22622215 22178806 21786131 21416946 21341350
1089.59 21851934 22873462 23992833 25032055 26085626 26754548
1092.49 26914242 26866060 26589953 26273551 26139632 25960292
1095.38 25785297 25587995 25008848 24246752 23943389 23675512
1098.27 23320355 23131856 22718961 22458290 22513350 22491421
1101.16 22271151 22201180 22197460 22020915 21573388 21128416
1104.06 20732565 19996917 19272174 18426857 17334251 16384179
1106.95 15761129 15109018 15108681 15228037 15092869 14981181
1109.84 15392899 15787600 15929712 15948655 15926308 15767669
1112.74 15508519 15501567 15579132 15332530 14704854 13961863
1115.63 13543142 13100054 12690803 12258865 11759025 11000027
1118.52 10457685 10261849 10104080 9497644 8926705 8717903
1121.41 8280785 7630982 7302091 7133675 6990346 6544834
1124.31 6035365 5793634 5604781 5351011 5209949 4949762
1127.20 4651115 4488199 4295020 4103006 4010329 3771604
1130.09 3433946 3202421 3266112 3520751 3722982 3472308
1132.98 3125717 2958581 2885803 2758976 2690205 2736148
1135.88 2729831 2553426 2421463 2336975 2089863 2005704
1138.77 2054331 2028423 1893303 1745739 1819284 1773896
1141.66 1608155 1610106 1569385 1611783 1695206 1577523
1144.56 1358067 1150255 1051442 1045468 1225335 1331261
1147.45 1408807 1297856 1278229 1390699 1577770 1354406
1150.34 1116118 1107393 1057349 1013622 967801 982218
1153.23 742841 511981 539306 324545 222636 251934
1156.13 159351 244720 377693 425327 387382 383323
1159.02 436810 496876 491993 445949 536572 460090
1161.91 339352 276563 254426 95515 36708-64109
1164.80 64806 82759-28154-131999-75470-109762
1167.70 27330 6885-90873-57706 35112-39145
1170.59-109833-21796 21121 15546 69378 5997
1173.48-255253-170554 125720 197371 58527 165549
1176.38 200978 219096 577088 941536 735296 431854
1179.27 506146 521321 420400 604639 798275 665522
1182.16 724406 930789 1083499 1099942 1039152 1032151
1185.05 1236280 1444549 1612231 1528233 1258388 1349253
1187.95 1347613 1353853 1496499 1655034 1876871 1837583
1190.84 1875005 1884280 2046480 2172728 2218535 2397418
1193.73 2419212 2472837 2572941 2564526 2655317 2581056
1196.62 2534902 2509104 2536639 2514440 2610622 2855379
1199.52 2852704 2732157 2714032 2822976 2828758 2729009
1202.41 2763390 2680656 2527004 2625332 2755309 2617285
1205.30 2656685 2910390 2767274 2695300 2802253 2501459
1208.20 2131182 1924055 1733690 1614684 1656619 1632585
1211.09 1616953 1533634 1344630 1207788 959030 737146
1213.98 714331 738820 640880 356744 319267 362467
1216.87 297347 244100 373985 331066 314734 402428
1219.77 374233 247688 187818 228613 185216 49105
1222.66-11128 125193 122700 45041 83775 144443
1225.55 238891 343699 541225 689918 895847 1148752
1228.44 1465542 1678645 1863707 2074717 2330718 2481123
1231.34 2746296 3174276 3537492 3703310 3892518 4082624
1234.23 4139878 4090190 4057405 4051797 3920946 3903396
1237.12 4003814 4135242 4373889 4574537 4948123 5281513
1240.02 5382536 5504155 5286336 4804996 4687894 4736537
1242.91 5100441 5512665 5541353 5595758 5757968 5768552
1245.80 5620661 5521849 5493120 5476415 5263603 4903128
1248.69 4689193 4455213 4511779 4447260 4299579 4171770
1251.59 4039160 4056179 3964697 3687271 3609631 3712019
1254.48 3778121 3696464 3782899 4032310 3968387 3875298
1257.37 3907477 3808626 3677249 3582189 3534037 3534343
1260.26 3603183 3670286 3672300 3723681 3657835 3690942
1263.16 3810591 3686389 3492661 3385181 3417554 3524996
1266.05 3573368 3408105 3551751 3680818 3664208 3683211
1268.94 3665466 3587145 3539609 3471004 3196434 3120726
1271.84 3164844 3155624 3293114 3505567 3560510 3654687
1274.73 3639442 3615211 3704222 3821078 4016279 4261245
1277.62 4511834 4677940 4862783 4874614 5064613 5204719
1280.51 5377978 5500632 5516583 5587776 5745048 5884916
1283.41 6059941 6243738 6385198 6424405 6478094 6747230
1286.30 6997155 7244373 7496319 7697945 7922976 8090730
1289.19 8184667 8223515 8612609 8975649 9161428 9406077
1292.08 9615260 9821174 10105201 10353043 10494388 10532299
1294.98 10440045 10580331 10772575 11012022 11379695 11446656
1297.87 11356404 11371869 11609775 11914660 12055743 11956772
1300.76 11956436 12128169 12335954 12549587 12550148 12506426
1303.66 12627674 12863579 13150049 13268804 13349906 13465231
1306.55 13573536 13672644 13740107 13693409 13624670 13776287
1309.44 13950244 14212300 14499534 14844875 15346542 15922655
1312.33 16279355 16702995 17158819 17834661 18839947 19751737
1315.23 20498422 21271249 22385298 23299772 24457441 25848237
1318.12 26952803 28094786 29413967 30775918 32219131 33576285
1321.01 34993943 36889929 38560909 39853126 41247018 43144097
1323.90 45104992 45799959 45444405 44936165 44983982 45261180
1326.80 45365948 45480579 45914513 46580027 47132089 47298678
1329.69 47596650 47552144 46718837 46013137 46054590 45546125
1332.58 44184832 43184984 42443157 41866303 41518094 41146539
1335.48 40560896 39486907 38398149 37356097 36009705 34334105
1338.37 32752524 31314616 29673064 28100679 26527781 24962900
1341.26 23516823 22031325 20741654 19611644 18505555 17855487
1344.15 17174908 16030689 15142874 14485280 13920114 13335932
1347.05 12889970 12301001 11841058 11382500 10946248 10739070
1349.94 10442566 9742829 8931408 8481558 8629061 8644471
1352.83 8485564 7887627 7825303 8382688 7495980 7241618
1355.72 7810719 8045560 7980884 7802735 7673810 7598711
1358.62 7860094 7991049 8050427 8115435 8568875 9103237
1361.51 9105162 9351778 9807190 10499098 11433537 11870341
1364.40 12046038 12592498 13407390 14160146 15013309 15712723
1367.29 16338223 17088736 17697200 18446635 19320205 20077921
1370.19 20858231 21733224 22719737 23558922 24385715 25170684
1373.08 25741493 26213339 27331895 28263836 28972139 29362655
1375.97 29656715 30137010 31294175 33719531 39138640 43611553
1378.87 44002575 43998634 45708169 46073649 43834288 41497464
1381.76 39572918 37928640 37123874 36702230 36339435 36236966
1384.65 36214685 36328470 35980097 35542944 35313590 35061332
1387.54 34781034 34310021 33932559 33244789 32553023 31879851
1390.44 31132643 30196597 29206440 28278848 27222539 26097797
1393.33 25159406 23890971 22964988 22488480 21763239 20981566
1396.22 20452336 19829567 19059808 18454807 17761854 17062362
1399.11 16643731 16079897 15438315 15077963 14841155 14362874
1402.01 13875644 13543610 13221229 12903429 12547947 12508548
1404.90 12551170 12393525 12195174 12072731 12120699 12099446
1407.79 11985072 11760130 11814659 11942712 11969142 12146749
1410.69 12268307 12264476 12329443 12399797 12584239 12805752
1413.58 13033460 12985618 12971910 13272050 13338181 13273482
1416.47 13420869 13628877 13856090 13679189 13453345 13445181
1419.36 14026897 14808109 15364571 15629360 15780085 16186972
1422.26 16576383 16860142 16935868 17050012 17443669 17655757
1425.15 17902259 18220315 18658047 19036151 19324237 19761116
1428.04 20254427 20650990 21023499 21544971 22176247 22770288
1430.93 23452455 24387653 25324790 26159022 27179956 28323850
1433.83 29518826 30771838 32225709 33739217 34851909 36156545
1436.72 38558438 41120417 43477534 45856127 48287488 50934037
1439.61 53804658 56799552 59916549 63222635 66810837 70652247
1442.51 74592240 78954325 83406488 87942190 92658993 97507302
1445.40 102447470 107627704 113068543 118475567 123822441 129621629
1448.29 135821653 141758905 147080962 151623864 155458981 158997637
1451.18 162575839 165587396 167752008 169448983 170646882 170998772
1454.08 170701909 170028936 169612096 169950299 171601342 176168526
1456.97 183593321 190520984 195513292 197499705 195678270 191164917
1459.86 185952222 181594326 179513749 179644806 181480340 184271492
1462.75 186960920 188276561 188166882 186508171 183793904 180461835
1465.65 176119170 171614862 167533527 163695364 159605363 155724617
1468.54 151901452 148070452 145372446 143589865 141334019 139459807
1471.43 136408423 127181179 113550170 104744217 101433715 99380035
1474.33 97170562 94855928 92463759 89794611 87031798 84055688
1477.22 80827141 77638834 74616436 71697102 69072938 66545409
1480.11 64423680 62609528 61163805 60091655 59356994 59123641
1483.00 59340490 59863068 61108742 63013937 65323280 68272100
1485.90 72021203 76311512 81375137 87347954 94345227 102109645
1488.79 110508592 119358957 128963593 138716493 149137196 159926120
1491.68 170636912 181095514 191093386 200040189 207854101 212535122
1494.57 213069496 208368784 200332881 193069936 188236201 186151630
1497.47 188343900 196477699 212367042 233270455 245984421 232967802
1500.36 206718836 185996738 174977340 173661087 178724095 183724854
1503.25 187965768 192805127 196035485 195926812 192691567 187618268
1506.15 178984586 167929502 156140368 142930866 128847975 114966578
1509.04 101374130 88696546 77332099 66938585 57676390 49635985
1511.93 42969385 37689111 33119233 29343609 26286889 23504636
1514.82 21358600 19749472 18092535 16920781 16135049 15683755
1517.72 15551509 15440104 14983338 14128410 13376730 12775992
1520.61 12070804 12335340 12838044 12825004 13045178 13195397
1523.50 13534816 13630829 13241609 12912046 13074109 13273563
1526.39 13449109 13438486 13432370 13524458 13610990 13681117
1529.29 13756622 13668985 13570082 13403640 13058864 12674256
1532.18 12376612 11876183 11329040 10977327 10827178 10514076
1535.07 10388023 10184447 9986857 10150408 10586132 10828878
1537.97 10729525 10181341 10821213 11197034 11002787 11439050
1540.86 11270168 10298247 9896259 10280725 10183303 9945499
1543.75 9558485 8899515 8344991 8484552 8609241 8497475
1546.64 8281372 8176818 8134343 8036666 7972001 7802662
1549.54 7794497 7780015 7700449 7642699 7676416 7684605
1552.43 7586705 7556729 7226970 6819902 7251242 7473608
1555.32 7427651 7474315 7406099 6767341 6306478 5749194
1558.21 5738735 6634588 6396835 5937488 6404334 6983993
1561.11 6970202 6996037 6966188 7069862 7146496 7165008
1564.00 7036152 7011786 7238900 7407573 7370875 7243849
1566.89 7084099 7043937 7145209 7090810 6772237 6544008
1569.79 6929208 7211089 7358455 7481097 7648896 7802945
1572.68 7894047 8049667 8307545 8618588 8672524 8240595
1575.57 7426100 8253094 9456172 9840867 10416407 10900096
1578.46 11206867 11501689 11845761 12163399 12409894 12789474
1581.36 13170847 13528986 14002535 14431510 14893293 15439379
1584.25 16209322 16962422 17723424 18636680 19622425 20891146
1587.14 22013401 23301107 24806187 26153553 27544531 28962892
1590.03 30205423 31291962 32343480 33350887 34274013 35295146
1592.93 36527535 37944322 39198744 40506003 42281721 44157004
1595.82 46232240 48851152 51666267 54816692 58660413 63258724
1598.71 68966310 73228488 75235765 78693556 84083108 90201061
1601.61 96016975 101448198 106598303 111125654 114686999 117390446
1604.50 119257756 120039859 119884584 118889199 117205858 115192202
1607.39 113265613 111486029 110033116 109409448 110308008 112546335
1610.28 114909749 115634908 114304553 108252447 99313533 94810035
1613.18 93851403 94477823 95573957 96499185 96274726 94919833
1616.07 91850015 88723596 85184008 80300313 74530964 68412970
1618.96 62184368 56328651 50484503 44928198 39870006 35309713
1621.85 31112316 27311162 23769057 20886181 18861538 17012104
1624.75 15204250 13749654 12522114 11334982 10360494 9502910
1627.64 8852269 8444623 8106761 7680419 7327949 7120781
1630.53 6705434 6436670 6427110 6292266 6099756 6064556
1633.43 6089910 5853382 5333360 4429659 4344234 5275311
1636.32 5574652 5354711 5302482 5476158 5600765 5640779
1639.21 5597515 5626631 5654138 5660809 5617175 5786533
1642.10 5951913 6047070 6121826 6391700 6574031 6503894
1645.00 6043686 5769174 6456752 6953435 7136911 7433529
1647.89 7567432 7889435 7968380 8148166 8206843 8330130
1650.78 8329836 7968872 6942274 6539481 6414637 7208105
1653.67 8051625 8478803 9122959 8948308 8530124 8348476
1656.57 8306959 8067790 7811348 7853230 7957910 7876808
1659.46 7831989 7901247 8108825 8219193 8120086 7722371
1662.35 7409905 7463627 7413669 7440629 7335720 7208564
1665.25 7157602 7063304 6990550 6924300 6834369 6603136
1668.14 6425480 5902220 5821064 6230030 6384894 6185421
1671.03 5868733 5865382 5695308 5603317 5512120 5429159
1673.92 5361494 5213187 5135640 5667774 5831044 5558355
1676.82 5230369 4882895 4670619 4656724 4701315 4660460
1679.71 4624854 4630694 4654660 4615166 4432020 4164724
1682.60 3656950 3438754 3091117 1937701 1613807 2744441
1685.49 2949392 2817732 2683977 2748459 2536342 2349391
1688.39 2210700 2160422 2122866 2140327 2086611 1989023
1691.28 1887390 2028479 2007874 1931038 1909547 1936692
1694.17 1830936 1387596 218678 116370 1380560 1812629
1697.07 1827952 1726220 1694687 1718610 1210130 497725
1699.96 538017 996646 1800531 2049006 1864633 1630600
1702.85 1621752 1557808 1404601 1517430 1612652 1470080
1705.74 1337759 1557114 1771526 1800226 1880444 1925864
1708.64 1886659 1813861 1692496 1814017 1932585 1914905
1711.53 1998505 2007902 1958541 1929739 2007291 2048800
1714.42 1734452 1690577 2146542 2383402 2126259 1384229
1717.31 1949426 2452878 2426280 2781439 3116949 3393251
1720.21 3584612 3701167 3916354 4198272 4449769 4704126
1723.10 4913025 5039800 5398182 5718864 5931778 6330670
1725.99 6733717 6991475 7283940 7572922 7964830 8468046
1728.89 8938053 9380164 10017737 10581029 10908666 11404875
1731.78 11920914 12248805 12004289 12370293 12781370 12836392
1734.67 13744314 14319572 14508158 14411080 14220756 14087310
1737.56 13959663 13637781 13084045 12114404 11359062 11297892
1740.46 11169198 11174395 11462328 11930073 12591962 13371041
1743.35 14153027 14640299 14806942 14774504 14585287 14212805
1746.24 13665735 13051691 12518478 11893066 11178763 10631872
1749.13 10169383 9599447 8946432 7921467 7487877 7501638
1752.03 7091738 6678214 6282502 5700685 5222040 5115603
1754.92 4908307 4521371 4034317 3610432 3478315 3251237
1757.81 2962345 2749653 2628336 2491896 2355030 2156738
1760.71 1900413 1363632 1313673 1406368 1284513 1236070
1763.60 1212725 1223677 1152908 1088430 1096172 1132419
1766.49 1219639 1229943 947559 1082151 1513415 1722067
1769.38 1899825 2015135 2041575 2080014 2328039 2158167
1772.28 1843513 2393787 2730979 2706160 2684867 2619647
1775.17 2463946 2315220 2233634 2327260 2685267 3214721
1778.06 3814490 4265584 3924079 3083030 2762516 2943749
1780.95 3330086 3697947 4129431 4631400 5082349 5519992
1783.85 5855689 6149650 6766653 7587679 8442015 9285214
1786.74 10184183 11188593 12365325 13621101 14896609 16357284
1789.63 17832543 19104940 20477632 21936203 22924686 23559824
1792.53 24629981 25622297 26139140 26541052 26638054 26321090
1795.42 25823459 25624369 26083721 27170502 28833498 30748697
1798.31 32631898 33950813 33851945 30228054 25730152 24700646
1801.20 25740454 27124151 28412585 29660430 30600273 31347955
1804.10 31649219 31102503 29887801 28059551 25475878 23114577
1806.99 21440487 20110504 18991679 17961186 17039201 16123346
1809.88 15131932 14325153 13566193 12720425 11920454 11115246
1812.77 10409015 9702406 9032614 8480783 7833584 7119355
1815.67 6579364 6207591 5797148 5591224 5636143 5776495
1818.56 5975573 6242061 6350965 6442392 6431884 6322349
1821.45 6235039 6088197 5894548 5646721 5363279 4960780
1824.35 4573978 4291722 4098039 3926296 3741904 3521250
1827.24 3241167 3037052 2815008 2655830 2421670 2162557
1830.13 2237459 2279778 2163036 1983661 1900075 1880427
1833.02 1724453 1603435 1619896 1657630 1700770 1672495
1835.92 1646991 1586672 1678815 1737863 1690484 1744451
1838.81 1822735 1829289 1887254 1994173 2022824 2221226
1841.70 2458095 2570372 2611256 2630106 2467207 2826876
1844.59 3407217 3729608 4074080 4318885 4620424 4888866
1847.49 5298795 5769026 6175272 6485155 6958748 7419294
1850.38 7825832 8297534 8783435 9402850 10114112 10854087
1853.27 11608306 12497744 13326790 14094974 14883194 15708646
1856.17 16415244 17069595 17722530 18371697 18993492 19437730
1859.06 19791816 20015734 20030724 20025303 19828901 19451855
1861.95 18953630 18261369 17438380 16705492 16045568 15652401
1864.84 15778135 16445448 17727236 19548291 21345987 22685004
1867.74 23817875 24535284 24816367 25127441 25436931 25565090
1870.63 25668541 25902958 26083528 26249322 26406596 26567469
1873.52 26691363 26660304 26473172 26142304 25616865 24839338
1876.41 24088670 23390235 22448826 21280844 20220253 19562849
1879.31 19672209 20898397 22826992 24041423 22977910 19363025
1882.20 15045448 13232771 13574444 14642908 15778650 16667337
1885.09 17379292 17712475 17514093 17010620 16282357 15267119
1887.99 14042775 12687361 11176006 9769261 8566909 7347803
1890.88 6284005 5296462 4470886 3792530 3303788 2886722
1893.77 2472556 2154142 1780504 1548451 1436406 1407775
1896.66 1328813 1163352 964951 903998 880712 885830
1899.56 1012891 1036832 909022 777426 721932 792616
1902.45 836842 919674 883706 919851 968176 978164
1905.34 907941 844340 899743 1017272 1082799 1170279
1908.23 1159224 1177003 1216705 1217798 1257218 1314457
1911.13 1405279 1482517 1602566 1721314 1815136 2022832
1914.02 2197296 2298942 2528146 2766708 2870237 3078479
1916.91 3290406 3296069 3484506 3866491 4240776 4535069
1919.81 4787739 5104812 5433003 5802524 6262433 6604685
1922.70 6915141 7415644 7975878 8552627 9099493 9531484
1925.59 10039091 10561318 11188399 11883893 12609963 13358345
1928.48 14341799 15413799 16215938 17154989 18323323 19390985
1931.38 20350905 21348987 22258294 23157156 24070727 24743172
1934.27 25133202 25581523 25999186 26018932 25953301 25740202
1937.16 25276882 24599355 23923360 23064287 21949501 21011140
1940.05 20283816 19971704 20141425 20869567 22338213 24409049
1942.95 26495900 28282994 29562883 30256189 30591622 30706754
1945.84 30769966 30727739 30582851 30494433 30387740 30068604
1948.73 29708191 29409880 29174150 28965484 28633026 28093895
1951.63 27511204 27021132 26333698 25579350 24850485 24039344
1954.52 23150590 22142117 21129590 20296963 19873638 20292109
1957.41 21501516 22831585 22615679 19051368 14495967 12917564
1960.30 13352953 14252535 15160533 16067618 16591657 16696322
1963.20 16478285 15751262 14714050 13626224 12307228 10748636
1966.09 9358449 8025680 6792597 5743221 4708711 3799207
1968.98 3104538 2456842 1932239 1559804 1253672 1032721
1971.87 852205 798713 813472 899144 977056 810123
1974.77 444648 324635 295433 384867 568028 625665
1977.66 664829 721216 754996 663033 702595 864575
1980.55 910980 950507 1129319 1263778 1239160 1236692
1983.45 1302305 1351243 1275508 1298547 1231261 993326
1986.34 805877 727347 750145 827293 946943 1007969
1989.23 927436 821659 732451 679069 571868 540485
1992.12 645332 870044 901043 810225 747070 698255
1995.02 584588 426920 391037 439547 428281 391963
1997.91 298727 252922 256042 339243 232336 93252
2000.80 83140 142571 138928 106241 37779-130054
2003.69-207444-90998-59290-71986-105078-124035
2006.59-6328 7364 44333-69171-125479 81728
2009.48 98794-31911-43037-5615-13034 23783
2012.37 27607 90064 125498 228128 242023 310586
2015.27 349758 283024 336843 425731 441580 523461
2018.16 628687 708375 762122 830073 842042 771265
2021.05 806833 909456 848688 833852 873149 960444
2023.94 1133729 1205851 1127391 1004893 964028 1033817
2026.84 1139093 1102750 1079697 1160421 1273735 1326468
2029.73 1361046 1312328 1274615 1274358 1295915 1388539
2032.62 1265352 1030743 815630 807994 890114 806771
2035.51 856665 956217 870418 872224 870500 755971
2038.41 664791 615324 648047 564468 445293 551498
2041.30 510511 424094 472390 415871 306077 191209
2044.19 126686 141894 219191 105836 22191 11328
2047.09-151274-259064-277514-247592-178423-222692
2049.98-316202-440230-489665-492661-593496-689344
2052.87-698070-649621-637153-670085-601995-453869
2055.76-390086-483496-516421-624729-716380-713645
2058.66-818659-851937-733605-778502-797663-809976
2061.55-917941-883989-846028-850381-856020-925707
2064.44-818892-792137-851417-823898-887107-996888
2067.33-949567-926478-932861-948109-792184-687812
2070.23-695327-729752-779803-1007137-1017832-875207
2073.12-916359-960347-874926-825746-863098-795165
2076.01-828319-831146-801719-806528-876084-850296
2078.91-790372-786687-866268-936155-842448-720569
2081.80-741235-765290-726908-720885-707774-682926
2084.69-715763-638149-613013-709559-735125-707290
2087.58-706896-630295-465924-427136-411492-478910
2090.48-549817-561692-493647-511875-588443-570057
2093.37-549007-405537-413668-483603-473763-459814
2096.26-482851-429080-280736-286621-307907-262645
2099.15-295751-255887-260793-310578-285961-329496
2102.05-371127-284722-267929-357275-444732-459683
2104.94-462137-444239-461264-474394-342602-321856
2107.83-373896-328893-270227-355674-457292-437451
2110.73-340542-282590-283773-389486-395697-385507
2113.62-391636-365677-409421-254080-220118-321014
2116.51-262003-143190-23906-46288-165136-152020
2119.40 7678-65686-116358-54440 14121 21980
2122.30 101038 93637 117317 191241 171991 168127
2125.19 197471 178628 135749 100326 173427 186847
2128.08 209387 141289 23180-48408 57807 99789
2130.97 94949 99411 99097 149202 305260 320851
2133.87 183760 76179 108735 34448-102520-159843
2136.76-110947-82903-190356-218406-87853 52377
2139.65 36550-61317-121991-108371-128229-172532
2142.55-179329-183834-136419-68092-35954-84572
2145.44-81549-35512-84112-16255 20444 15687
2148.33-62775-150338-91888 52139 48326 25825
2151.22 49869-71568-136600-61333-39874 14926
2154.12-33661-22095-12297-7722 53690 67406
2157.01 22720-92732-52190 19511-26067-52642
2159.90 37928 34457-47093-2937-9901 148368
2162.79 230508 231361 154306 158847 155919 133517
2165.69 140968 113199 119832 206725 229459 203044
2168.58 249295 256184 212816 197397 221619 190392
2171.47 130068 113624 68852 100537 265918 268381
2174.37 277021 269456 208124 150098 114583 116449
2177.26 295443 420730 371680 339874 322613 339295
2180.15 143978 195569 314133 269851 136691 100746
2183.04 150476 218209 284200 253307 221264 205458
2185.94 156432 162600 190555 240659 370674 298088
2188.83 257694 297252 226779 125526 43090 40913
2191.72 43774 38558 136393 111357 133474 147904
2194.61 125570 86708 52297-11021-30517 93569
2197.51 136484 78608 41159-12506 111270 178220
2200.40 136651 134348 149318 259872 356072 351806
2203.29 326681 264834 201662 182348 305835 407324
2206.19 433183 475296 636297 777248 723820 580018
2209.08 500616 587255 777404 865140 772962 681200
2211.97 793319 923431 994049 948321 980552 1000123
2214.86 1043566 1085196 995345 980168 989903 1034975
2217.76 1181109 1238826 1215204 1090507 1104097 1317628
2220.65 1308082 1163916 1196574 1288158 1291939 1308376
2223.54 1297690 1245963 1271665 1275520 1265841 1268666
2226.43 1225003 1251865 1245199 1224209 1192882 1221898
2229.33 1299698 1430894 1446009 1367977 1441461 1473792
2232.22 1419349 1390248 1375807 1467057 1539890 1585051
2235.11 1578023 1514601 1447962 1437963 1561843 1498314
2238.01 1518344 1524547 1424861 1416848 1518854 1476874
2240.90 1432072 1458025 1490619 1318955 1330511 1434148
2243.79 1422500 1397690 1430536 1398598 1357723 1349588
2246.68 1377304 1344639 1325340 1380121 1358379 1209701
2249.58 1154713 1161065 1194059 1204767 1107315 1098553
2252.47 1175742 1219152 1078079 995641 1083926 1072344
2255.36 1050067 992771 942838 1015981 1234930 1350586
2258.25 1342981 1386703 1300474 1160405 1161644 1294630
2261.15 1239137 1356912 1362144 1284518 1435817 1594992
2264.04 1661055 1632327 1460359 1371418 1423417 1628098
2266.93 1748423 1687407 1668918 1695227 1761182 1789801
2269.83 1771160 1935831 2105952 2184001 2175319 2150863
2272.72 2050742 1954649 2007969 2173879 2372583 2364057
2275.61 2277295 2296923 2258742 2279382 2428587 2410897
2278.50 2334061 2319828 2424877 2547399 2480824 2414519
2281.40 2410240 2441176 2535965 2595700 2475098 2434644
2284.29 2437387 2402918 2418980 2342260 2328448 2290474
2287.18 2232005 2202854 2249450 2289149 2261608 2300515
2290.07 2354212 2299004 2244903 2241984 2180435 2043375
2292.97 1939344 1966324 1978948 1866513 1824710 1800177
2295.86 1770737 1748676 1651385 1548757 1512114 1557282
2298.75 1470427 1368747 1448076 1557593 1595456 1576406
2301.65 1478451 1433567 1580794 1730391 1865424 1932151
2304.54 2070409 2308131 2564798 2820907 3035091 3198403
2307.43 3375342 3504459 3510268 3639336 3913544 3881634
2310.32 3552952 3193837 3141216 3023749 2589624 2359840
2313.22 2804789 3279411 4124862 4930687 4878745 3804505
2316.11 2937538 2552484 2912839 3452990 3482481 3185480
2319.00 3623798 4160040 4183880 3747703 3617482 3862748
2321.89 3773334 3180140 3143182 3466486 3157972 2399335
2324.79 2450998 2984142 2699057 2023351 2366649 2991035
2327.68 2632206 2133907 2679681 3449396 3078165 2600870
2330.57 3309743 3822350 3295997 3171080 4048842 4148981
2333.47 3344127 3582014 4398334 3990816 3269018 3974254
2336.36 4629943 4022548 3896228 4840732 4909196 4200093
2339.25 4696573 5443887 4818641 4394930 4969699 4802814
2342.14 4089597 4434199 4857576 4347045 4292852 4793869
2345.04 4664933 4333891 4500393 4739120 4596321 4544233
2347.93 4592569 4555800 4388695 4126821 3925896 3794450
2350.82 3584409 3536463 3369398 2784281 2889230 3154315
2353.71 2501515 2531753 2813994 2017791 1885448 2360385
2356.61 1648583 1824686 2434691 1554571 1620154 2228427
2359.50 1345749 1558974 1786184 1119020 1770041 1690295
2362.39 1144563 1892366 1470745 1237067 1678654 1010742
2365.29 1304114 1365480 969624 1585915 1318835 1422289
2368.18 1613267 1457785 1864653 1783386 2003553 2014771
2371.07 1864942 2156646 1888355 1829076 1726861 1821861
2373.96 1912269 1993453 2014443 1854793 1939920 1735979
2376.86 1671514 1705602 1766182 1664325 1590861 1504688
2379.75 1582072 1759037 1765878 1698731 1603833 1599871
2382.64 1632570 1515067 1432403 1390683 1388148 1355101
2385.53 1280262 1219886 1132083 1030420 1003088 1012884
2388.43 978207 1002590 875115 675419 642021 663284
2391.32 727058 836625 858988 698366 565602 625470
2394.21 662441 538517 459488 447380 538800 655709
2397.11 541223 580572 636018 580109 651049 644412
2400.00 648172 698001 729390 791415 817156 766433
2402.89 745398 736477 740085 779756 902511 937954
2405.78 1028934 1112088 1148472 1287214 1272168 1171196
2408.68 1134429 1219687 1336433 1390725 1403824 1376055
2411.57 1437242 1535492 1477504 1510829 1589302 1583868
2414.46 1518657 1482607 1481616 1601256 1784489 1976626
2417.35 1863679 1496758 1328600 1378709 1494697 1619074
2420.25 1673796 1637650 1631949 1600576 1530765 1494357
2423.14 1632724 1662316 1473851 1450436 1498073 1545680
2426.03 1603050 1679607 1715421 1719203 1763639 1817441
2428.93 1831530 2043729 2190750 2131290 2181082 2302194
2431.82 2306475 2293413 2348712 2573598 2611293 2518893
2434.71 2569363 2640201 2774849 2798899 2797724 2843484
2437.60 2953675 3164895 3323896 3224955 3009881 2910746
2440.50 2815796 2708921 2754565 2727933 2661092 2626306
2443.39 2557901 2465382 2523960 2618124 2613613 2599721
2446.28 2548963 2384640 2078720 1887227 1841967 1637096
2449.17 1579167 1606857 1328278 1280947 1256291 1196264
2452.07 1208687 1013886 829367 830433 804876 739469
2454.96 716707 662505 592220 476037 446203 400485
2457.85 363556 392215 436781 434822 348476 298463
2460.75 266206 305770 348240 317724 394328 476569
2463.64 388017 336563 470781 361725 295473 395564
2466.53 314071 190717 207473 283679 308088 375057
2469.42 355689 234731 214990 309592 401302 362164
2472.32 466729 547193 474442 326923 323307 312460
2475.21 364449 552695 691500 622006 471172 464862
2478.10 351367 240016 288025 378409 474473 535409
2480.99 502677 424865 421514 569744 576994 504868
2483.89 462664 543167 593420 522141 529772 501230
2486.78 431644 628196 770437 694723 565016 661214
2489.67 867780 723526 690716 853528 741053 674980
2492.57 801968 786895 715633 852345 834727 726890
2495.46 789824 711259 577717 703647 736658 710517
2498.35 779384 859540 897534 913594 883118 792606
2501.24 838437 897952 937040 1009860 1038905 1002427
2504.14 1051024 967836 994311 1087111 1040590 1002901
2507.03 1139657 1240305 1221574 1087907 1044260 1241089
2509.92 1197586 1016301 1090016 1191411 1219815 1210230
2512.81 1031086 1084406 1190813 1192952 1257163 1352699
2515.71 1329973 1371822 1336599 1269528 1217953 1337789
2518.60 1407339 1350194 1360614 1518472 1627824 1633083
2521.49 1635650 1511803 1330740 1310919 1483346 1554281
2524.39 1569716 1500483 1559167 1809947 1893282 1944345
2527.28 1971504 1909511 1959663 2011299 1858010 1927133
2530.17 2096611 1949417 1984725 1945771 1942258 2027116
2533.06 1941547 1982420 2078289 2113855 2018496 1911904
2535.96 1916697 1981113 1925183 1920524 1934951 1926379
2538.85 1854023 1846999 1812220 1854786 1845633 1803709
2541.74 1641092 1589774 1566113 1582100 1596666 1490646
2544.63 1454837 1626750 1658278 1630299 1529915 1432338
2547.53 1446383 1556689 1602819 1645144 1688868 1671839
2550.42 1634693 1373108 1333167 1438647 1394818 1449531
2553.31 1510438 1478831 1428030 1534790 1657049 1647522
2556.21 1532768 1451683 1459920 1512157 1576619 1476539
2559.10 1450580 1634826 1719031 1661491 1584352 1573806
2561.99 1412953 1335001 1442852 1507970 1519384 1440595
2564.88 1497787 1513540 1391984 1513461 1608157 1635271
2567.78 1790754 1703501 1582144 1570201 1565974 1426728
2570.67 1319180 1450532 1562133 1476931 1509982 1552505
2573.56 1596219 1670167 1611795 1368295 1231856 1445081
2576.45 1622146 1533493 1374719 1481485 1544967 1512788
2579.35 1590822 1789746 1795821 1671939 1770470 1692456
2582.24 1563559 1602536 1628450 1647972 1760838 1804029
2585.13 1731750 1657551 1513236 1520490 1683019 1810659
2588.03 1930218 2024615 2120343 2190495 2190344 2112792
2590.92 2082614 2171958 2205656 2274009 2456350 2492473
2593.81 2356809 2493525 2644798 2534423 2374687 2496375
2596.70 2665750 2675011 2576544 2571301 2703805 2776053
2599.60 2907038 3048344 3012661 3127997 3246748 3430114
2602.49 3374774 3304382 3529404 3689609 3721229 3815132
2605.38 3977580 4053333 3886521 3774761 3866488 4102158
2608.27 4190048 4061511 3947490 3943147 3964224 3958124
2611.17 3894685 4022524 4152076 4029821 3920354 3929692
2614.06 4104602 3977566 3789900 3820458 4008226 4009029
2616.95 3921547 3822108 3882612 3935955 3928000 3788626
2619.85 3685323 3767704 3973559 4044812 3896952 3860320
2622.74 3995383 4086893 4182253 4220938 4251059 4383760
2625.63 4490134 4425169 4502799 4497021 4632862 4889731
2628.52 5105191 5389718 5561077 5524744 5621134 5662281
2631.42 5734005 5974087 6051491 6238492 6557228 6684297
2634.31 6705870 6896650 7053815 7088264 7148045 7057894
2637.20 7122617 7226830 7083544 7171910 7273819 7204905
2640.09 7149899 7122124 7141513 7209998 7051084 6924844
2642.99 6840697 6817077 6742818 6709145 6622652 6460984
2645.88 6426309 6444463 6506187 6278162 6035314 5892315
2648.77 5666251 5518672 5330408 4974050 4732444 4579938
2651.67 4323227 4063943 3933244 3924693 3877411 3736792
2654.56 3681763 3623017 3457480 3200010 3062507 2959560
2657.45 2758445 2659121 2625178 2599820 2633280 2553491
2660.34 2463584 2237460 2185656 2166562 1925495 1709690
2663.24 1797085 1979485 1893936 1811518 1696937 1504124
2666.13 1567588 1835885 1862968 1710764 1640032 1683607
2669.02 1776481 1743183 1559557 1528199 1655407 1757982
2671.91 1691772 1719029 1662458 1559700 1573958 1593945
2674.81 1433929 1388607 1533869 1554330 1565415 1538186
2677.70 1505805 1422289 1449798 1441061 1475202 1351013
2680.59 1297236 1427004 1568582 1640480 1521211 1457506
2683.49 1490302 1348967 1283249 1265867 1316887 1346204
2686.38 1419039 1385523 1138334 1116362 1275622 1459173
2689.27 1684291 1799643 1756001 1670017 1610390 1860371
2692.16 2075281 1983644 1925852 2114388 2330705 2372004
2695.06 2388208 2642023 2621213 2488271 2674249 2810203
2697.95 2874592 2992770 2919698 2811153 2922097 3052609
2700.84 3171411 3330099 3468299 3504461 3513510 3544896
2703.73 3682283 3671176 3377690 3283330 3354741 3468422
2706.63 3557402 3636703 3629343 3435565 3080001 3042199
2709.52 3136883 2927979 2765704 2836957 2707242 2610924
2712.41 2633792 2583712 2395836 2279278 2520850 2642506
2715.31 2505175 2297607 2251188 2265030 2260857 2288599
2718.20 2301137 2354133 2147070 2067586 2242126 2416840
2721.09 2540160 2627672 2628832 2581173 2521931 2453414
2723.98 2616210 2803514 2789452 2936330 3171856 3385216
2726.88 3679536 3939189 3998176 4218927 4435428 4513957
2729.77 4699363 4800077 5015020 5168445 5394965 5674605
2732.66 5583917 5651279 5835248 6152879 6690236 7306716
2735.55 7782965 8141956 8125093 7865153 7477326 7149271
2738.45 7101263 7352970 7540902 7521831 7457495 7603014
2741.34 7773044 7894666 7894871 7726526 7533912 7489957
2744.23 7323254 7128600 7201704 7219543 7042298 6858025
2747.13 6718244 6632137 6434757 6181160 6168492 5967674
2750.02 5790422 5762971 5625191 5659191 5666252 5420874
2752.91 5165827 5157128 5265602 5345667 5320580 5234829
2755.80 5196605 5101416 5099227 5199206 5242213 5333283
2758.70 5499464 5449736 5455708 5631345 5789138 5817479
2761.59 5845595 5882255 5999711 6179466 6377762 6374794
2764.48 6448579 6566339 6607511 6764924 6864942 6885187
2767.37 6840339 6929009 7167979 7414166 7588271 7622297
2770.27 7620042 7767434 8108872 8345264 8411132 8693166
2773.16 8844679 8848031 8958510 9244048 9535579 9677743
2776.05 10000532 10224858 10237442 10384288 10531067 10763965
2778.95 11030766 11251514 11369394 11529314 11754471 11954422
2781.84 12157702 12018929 12123710 12544562 12766426 12950107
2784.73 13044534 13088099 13257425 13308493 13268416 13245455
2787.62 13287768 13472704 13731074 13793822 13679274 13578960
2790.52 13615244 13686913 13833052 13845120 13817027 13653064
2793.41 13475442 13313659 13183623 13109391 12965377 12643599
2796.30 12408501 12452791 12646900 12689726 12563535 12303961
2799.19 11984222 11726599 11733058 11555856 11380316 11311547
2802.09 11152412 11015897 10994038 10785930 10581396 10700831
2804.98 10831174 10810098 10627483 10387241 10401784 10594263
2807.87 10640493 10662374 10709345 10819115 10910093 10992488
2810.77 11084617 11112284 11098594 11194983 11405301 11604481
2813.66 11762688 11831438 12144171 12349176 12357077 12492883
2816.55 12780162 12997663 13194486 13453219 13849092 14091949
2819.44 14334691 14572841 14977850 15314631 15583061 15791808
2822.34 15895490 16286385 16695350 17095924 17534241 17796133
2825.23 18198846 18543826 18857813 19476800 20027363 20491700
2828.12 20932412 21276900 21683270 22026423 22433689 22732762
2831.01 23145157 23586158 23705496 23983102 24310109 24520436
2833.91 24699682 25053736 25560028 26202593 26699848 27179858
2836.80 27771442 28458359 29063159 29614230 30070695 30612095
2839.69 31252527 31866403 32319115 32706929 33083330 33490550
2842.59 33849349 34299505 34781188 35180602 35806972 36333993
2845.48 36846520 37675195 38427745 39210417 39727303 40143321
2848.37 40770420 41460818 42373545 43630666 44910439 46250289
2851.26 47452824 48713238 50167337 51590918 53151304 54687455
2854.16 56552770 58495666 60253642 61985389 63935683 65944706
2857.05 68219831 70695250 73146147 75959709 78857663 81791830
2859.94 85028529 88319732 91801755 95588508 99242080 103024116
2862.83 107308631 111758200 116143906 121072097 126138468 131294723
2865.73 136416668 141383724 146181059 151123576 156251844 161551549
2868.62 167267173 172761323 177707967 182855256 188128123 193287807
2871.51 198234648 202937890 207842697 213113694 218672412 224734864
2874.41 231145977 238358371 246771108 256398742 267913145 278649909
2877.30 284860729 284953546 281733710 279817425 280445621 282819522
2880.19 285656696 288729309 291335052 293079376 293577679 292827733
2883.08 292131773 293757255 302096939 318681023 329983625 328198395
2885.98 322738558 315870951 308225057 301051160 294316388 286581708
2888.87 279208940 273193430 269163557 266535278 263898209 261308112
2891.76 259010631 256178490 252969635 249741902 246381960 242864265
2894.65 239391081 236171289 232747941 228885853 225009305 221429490
2897.55 218174163 215346321 212755855 209925978 207514726 206010798
2900.44 205124244 204070777 203206799 203121771 203477376 204163198
2903.33 205228689 206098040 206693929 206795217 206620728 206164094
2906.23 204917923 202865248 200688167 198439904 196184999 194289005
2909.12 193310333 193467621 194626917 196133016 197100116 197326747
2912.01 196741805 195988189 195141646 193763522 192124275 190246682
2914.90 188095016 186215169 184237248 182309979 180473061 178529701
2917.80 176781516 175464490 174350696 173635744 173208047 173403656
2920.69 174370379 175573222 177048574 178888747 180960094 183181363
2923.58 185911824 189396476 193455965 197950450 202848639 207874258
2926.47 213113511 218600789 224300062 230223134 236632131 243642370
2929.37 250879811 258198345 265622997 273383563 281676998 290205019
2932.26 299317655 308668893 318228186 327953870 337477541 347539291
2935.15 357934819 367883867 377365895 385899454 393329657 400013455
2938.05 406354946 412701271 420208216 430385611 444671926 466662285
2940.94 497520217 524661164 527077827 504449539 477824733 461826029
2943.83 453274062 446774637 440917532 435775950 432151810 431007908
2946.72 431340365 431017863 429185306 427457228 424702783 420377849
2949.62 416496590 408297658 393162804 381036952 374912022 370550762
2952.51 365909027 360669089 354263480 346476723 337984158 329290077
2955.40 320854928 312806267 304894949 297911813 292666982 289103987
2958.29 287371852 287629226 289820977 294070488 301126939 310734070
2961.19 323272487 340771526 361703352 384820567 412291718 444225159
2964.08 480725550 521106362 563898127 609009138 656095941 704358921
2966.97 752102990 796654863 836658985 870673134 897216321 914167878
2969.87 921549840 919659574 909233948 893900611 882440590 886717412
2972.76 916684402 970018705 1019727245 1027946300 992694192 942037256
2975.65 901825358 882621130 883494748 896929398 914885009 931476307
2978.54 943041334 946819444 941385655 925857950 900525334 866915013
2981.44 826284900 780311544 731626399 681102676 629938762 580316767
2984.33 532872191 488470456 447621305 410503649 376853282 346401995
2987.22 319286542 295479321 274235838 255154320 238325464 223101972
2990.11 209478596 197270198 186079228 176134355 167221990 158840949
2993.01 151263587 144631006 138393254 132634594 127461800 122772070
2995.90 118301166 114442496 110952080 107432534 104524415 102229435
2998.79 100193891 98623852 97716719 97124371 96739205 96363975
3001.69 96098132 96265289 96477925 96678532 96919946 97502981
3004.58 97882813 97919920 97692552 97517325 97270367 97128544
3007.47 97016749 96888717 97283855 98516042 100325729 103156005
3010.36 106096008 107862085 108100882 106943189 105755602 106179942
3013.26 108016656 110753393 114182930 118038036 122123875 126159230
3016.15 130044288 133728257 137150476 140521318 143906055 147587530
3019.04 151613699 155996831 161081656 166935883 173738620 181566017
3021.93 190340351 200133089 211023859 223154555 236369294 250672477
3024.83 265791832 281638304 298389462 315751362 333604709 351754908
3027.72 369728934 387339310 404556386 420968096 435878047 448783493
3030.61 459299148 467233959 472403824 474078317 472909946 469317585
3033.51 464492298 460563442 459825224 464422287 475586693 491916354
3036.40 510497912 523989646 529028814 527414759 523062710 519962637
3039.29 518153126 516757344 514824279 512468987 509833929 505595385
3042.18 497667589 486531687 473652613 458723289 442636959 426402698
3045.08 409779759 392908647 376043931 359250414 342148690 325005868
3047.97 307951275 291148262 274972465 259401721 244655526 230988704
3050.86 218523397 207080031 196419839 186829166 178401026 170905303
3053.75 164424203 158939013 154411319 150572610 147646151 145761278
3056.65 145164124 144989192 145199035 146324858 148133740 150370420
3059.54 153140104 156739848 161385196 167319934 174483799 182352096
3062.43 190048773 197225779 204207810 212302150 222094574 233061540
3065.33 244428653 255751224 266384087 276358805 285673864 293363652
3068.22 299398660 303402312 305463477 305128929 303601975 302207220
3071.11 301872593 303753979 309314051 318665813 331587170 348616621
3074.00 368450912 381915807 370869052 335375726 308212943 301291383
3076.90 305108552 313463572 323577097 333508999 341155449 346010337
3079.79 347453858 345747875 340891673 333221748 323846462 313881936
3082.68 302502060 289798599 277781320 267159298 257643871 249456219
3085.57 242485649 236457169 230906936 226125948 221977096 218242397
3088.47 214298451 209858414 205528009 201217589 196740034 192133804
3091.36 187481287 182818139 177775634 172637691 167933640 163436386
3094.25 159474565 156614883 154197676 152730085 152587618 153376132
3097.15 154866827 156496079 157258388 156972242 155797617 153859807
3100.04 151175044 148105330 144820618 141229802 137325267 133353896
3102.93 129561695 125823700 122004220 118213249 114641601 111377980
3105.82 108245090 105355060 102810175 100367370 98052643 95745259
3108.72 93631423 91772740 89811420 87808442 86062681 84230412
3111.61 82170669 79928354 77789461 76267956 74606613 72980512
3114.50 71503637 70354211 68791352 66840147 64898130 63448220
3117.39 62442177 61146808 59728883 58506674 57479446 56390093
3120.29 55249037 54113431 52985455 51854818 50274577 48543239
3123.18 46731095 44500244 42037121 39685825 37020378 34433675
3126.07 32307802 30119038 27994620 25918815 24012638 22156181
3128.97 20561740 19014762 17758207 16627149 15496281 14745813
3131.86 13943776 13229436 12643584 11890974 11214854 11007121
3134.75 10758290 10317797 9721588 9365736 9238906 8927794
3137.64 8528061 8149558 8138470 8136672 8017105 7849317
3140.54 7738020 7495488 7356989 7309390 7221944 7049488
3143.43 7086487 7084631 7031205 7154056 7206680 7090471
3146.32 6896058 6805156 6918084 7053454 7247143 7298213
3149.21 7187189 7108799 7056109 7059034 7124176 7178666
3152.11 7155695 7111075 7204426 7190283 7180167 7166500
3155.00 7111316 7256736 7299393 7318861 7405872 7498780
3157.89 7595290 7732462 7716433 7572365 7709296 7800832
3160.79 7840166 7934746 8090639 8129934 8306508 8575913
3163.68 8601270 8634383 8777291 9179773 9097934 8994599
3166.57 9222672 9306060 9267541 9250372 9413409 9629682
3169.46 10048478 10309441 10464044 10653160 10739598 10890382
3172.36 10931234 11253543 11488682 11657583 12029386 12532832
3175.25 12595811 12653261 12738785 12969201 13040523 12987092
3178.14 13049496 13115022 13109169 12926320 13222561 13550182
3181.03 13685627 13778854 13673915 13538914 13628441 14034858
3183.93 14252596 13962796 13899011 13575814 13239504 13174338
3186.82 13031663 12735019 12480976 11964025 11500502 11264151
3189.71 11228997 11197817 11050788 10808214 10726639 10432367
3192.61 10118418 10017120 9793341 9332726 8922804 8696089
3195.50 8366510 8099686 7787021 7346193 7040579 6729930
3198.39 6340393 5869130 5563923 5213602 4876357 4625928
3201.28 4271282 4002478 4052653 3853747 3638117 3619302
3204.18 3650617 3325695 2910202 2542892 2468426 2371054
3207.07 2356746 2246320 2030141 2015082 1837086 1584999
3209.96 1591627 1677278 1758060 1859601 1712536 1541645
3212.85 1506758 1698581 1768280 1646492 1447374 1299514
3215.75 1201523 1152786 1124290 963796 954041 1211587
3218.64 1294654 1205067 1404600 1252921 1037146 1104379
3221.53 1192496 1020950 873597 849181 894465 887883
3224.43 971652 1194462 1117963 1019192 925935 776659
3227.32 853950 872600 904120 854881 847444 828166
3230.21 796403 844595 785381 632930 597619 706654
3233.10 901811 1016577 921951 804280 796217 739030
3236.00 675399 776588 840611 887650 828578 884831
3238.89 1006691 908597 985477 1173333 959907 723871
3241.78 560225 659142 800144 966660 1039723 1034674
3244.67 965277 1002539 1141858 1237036 1304003 1318916
3247.57 1318760 1465001 1434286 1336023 1475485 1693379
3250.46 1814913 1530024 1238026 1142582 1298581 1498762
3253.35 1632173 1457279 1119406 1064354 1224805 1120302
3256.25 1022838 1087054 1214525 1478311 1537377 1481541
3259.14 1399002 1334295 1301629 1418469 1474444 1457738
3262.03 1393713 1456456 1362758 1299613 1451110 1286380
3264.92 1326927 1647571 1636731 1489385 1456842 1280876
3267.82 1408511 1769590 2117730 2046922 1706066 1420058
3270.71 1212787 1379670 1721225 1787419 1554277 1340007
3273.60 1248023 1485567 1723351 1878203 1569131 1321034
3276.49 1338649 1429240 1545452 1508123 1423932 1373754
3279.39 1255799 1237864 1285968 1426637 1407849 1180143
3282.28 1099897 1133992 1139232 1191219 1149728 994555
3285.17 883032 1004702 1032463 881423 891734 1019194
3288.07 1048391 817939 720175 844001 1042656 1154997
3290.96 1080942 909629 907374 830786 876865 1083349
3293.85 1102653 1045734 1045501 1028784 1051629 998035
3296.74 928998 1031842 1118688 1122229 1144793 964805
3299.64 732910 822782 994489 950845 1008657 983814
3302.53 969097 1283633 1479247 1297271 1154959 1114365
3305.42 909851 723632 863364 851126 810361 865272
3308.31 716161 770717 609358 442357 386979 399604
3311.21 567635 634526 472993 307635 213270 319885
3314.10 486879 637688 548281 342746 437804 469452
3316.99 313875 183067 148446 20590-92363-209476
3319.89-261262-129580 78261 249008 192386 99529
3322.78 95396 20642-86830-97165-88207-244021
3325.67-289142 117055 988-82829 210989 116557
3328.56 156002 103148 241166 297788 162879 188735
3331.46-8391-88952 78341 109780-48662-101180
3334.35 184256 185453 124753 255817 73698-248334
3337.24-338347-291925-83638 31127-151361 6739
3340.13 316376 224986-132196-46539 27469 10154
3343.03 204240 222326-68473-80049 143345 166772
3345.92-22603 114376 42841-3328 490514 378962
3348.81 13904-143802-265934-211849-141287-71278
3351.71 295644 150444-37155 83404 207295 276956
3354.60 142167 64332 50383-51550-311293-395536
3357.49-123690-64533-164163-239792-99068-267943
3360.38-365472-290374 83298 361725 475887 487408
3363.28 364811 235912-50374-349150-8073 29266
3366.17-129288 18276-38535-101609-211912-136981
3369.06-143441-220720-288620-9562 78648 48952
3371.95 28070-100336-124143-16028 75639-9457
3374.85-207545-224581-453028-274100 218924 474652
3377.74 341711 340189 276281 80305 231898 320503
3380.63 173558 1319-103010 85954 286765-44388
3383.53-297977-29487 192341 286437 252585 106856
3386.42 284395 252562 26407-104505 12336 95887
3389.31 77818 72567 183461 126780-18349-103285
3392.20-23745-44581-159165-1617 375280 572874
3395.10 508963 239874 114733 208854 353711 177770
3397.99 13856 139797-31131-132741 17601 200026
3400.88 210153-174381-258809-151438 85452 151296
3403.77 147648 143016 178212 167042-53895-112478
3406.67-40165 3968-219091-256836-26990-106554
3409.56-258542-28981 223564 82980 52739-159805
3412.45-461459-464774-355227-303950-50384-157623
3415.35-259093-512407-510658-238976-313881-289431
3418.24-38581 35589-31940-189577-220204-177349
3421.13-205365-253875-322498-306852-97624-242340
3424.02-368857-109979-50389-85491 8236 141388
3426.92-122341-477815-527336-265420-183443 81109
3429.81 148333 44842 69014 80276 102797 196605
3432.70-9459 56908 158429-80979 31456 255062
3435.59 327202 182954 216701 203535 227132 236416
3438.49 307501 189538-16068-79848-5050 6684
3441.38 17855 130340 94054 315863 306633 122240
3444.27 341813 467175 574023 427584 226800 97326
3447.17-4405 707-121660 10001 109485 161231
3450.06 37286-60502 65314-152473-366962-106203
3452.95 47619-75258-148549-214483-146107 31782
3455.84-170181-357028-311024-164723 40661-20064
3458.74-274256-305128-181588-445414-544548-352207
3461.63-258984-442633-565693-419454-224155-283585
3464.52-533994-719762-555619-310242-183311-136779
3467.41-259781-439404-552143-919091-977238-695612
3470.31-544961-517321-189513-78657-340227-508426
3473.20-297217-271956-381909-386355-295148-220617
3476.09-438803-299062-213042-523490-717987-756339
3478.99-496121-369548-288506-262961-590099-816244
3481.88-725810-645664-781646-618036-562256-246290
3484.77 39136 35981-378512-714531-654198-528577
3487.66-618747-601463-701702-554831-336172-679238
3490.56-944007-955207-971856-884716-637744-847466
3493.45-852398-633453-644579-744039-570959-451882
3496.34-586153-710576-673416-609345-477261-447040
3499.23-398779-312850-307201-538837-452229-154663
3502.13-190327-517590-640464-502454-130485 57154
3505.02-95451-179473-246758-454823-603580-399763
3507.91-462748-302253-153448-237280-314736-399135
3510.81-562812-451109-189133-218824-369199-356096
3513.70-256084-134831 115383 323895 399157 395749
3516.59 482252 448044 356485 281632 218387 254639
3519.48 227505 348014 532141 641673 743278 719975
3522.38 858139 1248407 940193 600168 969200 978174
3525.27 745022 781717 839614 832197 832060 1126765
3528.16 1321680 1135772 1009629 1056492 924493 789018
3531.05 776910 610472 721554 882572 674873 796476
3533.95 1082164 1065696 924123 675533 553231 588858
3536.84 684906 617087 296116 6170 164053 461471
3539.73 450460 193367 181916 188204-4214-195355
3542.63-327010-299168-214559-210074-80504-149000
3545.52-92937-90976-174418-140398-146771-94815
3548.41-71430-5571-197071-405892-377014-213249
3551.30-96970-144558-288806-314121-456274-539769
3554.20-508822-541852-584860-521382-312123-104413
3557.09 96004 92856-246825-463616-163625-157082
3559.98-138828-307432-457750-491719-591452-389536
3562.87-211907-180193-197075-207859-182321 18950
3565.77 94022-165505-340868-399787-426197-410170
3568.66-300396-239373-394494-373307-204891-301913
3571.55-295327-463327-416006-369526-646558-539652
3574.45-342287-388613-472062-262891-338151-273207
3577.34-67048-10466-244524-437287-404962-460009
3580.23-585000-510004-530265-498794-424409-390971
3583.12-396771-215425-252359-184075-20897 88060
3586.02-28613-256039-131196-37219-556959-990286
3588.91-771717-324897-9743-32836-37384-55140
3591.80-118045-165670-133323-174581 24661 130134
3594.69-32422 70221-85176-203551-36287-9852
3597.59 10327 61399 60957-9530 43623 132541
3600.48 175824 58789 180153 175224-166932-365682
3603.37-259789-36584 16890-27183-109849-275927
3606.27-388672-124556 104228-26762-283666-669092
3609.16-405718 79529 106068 159372 53871 18845
3612.05-26808 352559 513947 234876-10893 19019
3614.94 56993-59693 137633 249356 279687 282332
3617.84 401723 516113 238741 61548 444396 784332
3620.73 962258 979606 1080717 1041760 953463 1008410
3623.62 1213977 1188004 1031156 1095559 1236354 1283800
3626.51 1424328 1207645 712321 330409 715316 555333
3629.41 338754 647872 999620 1144837 1157192 1126761
3632.30 1255215 1319569 1064230 1086837 1333543 1464600
3635.19 1340755 1322721 1392350 1386278 1305980 1264281
3638.09 1290810 1324235 1203670 1125940 1286805 1284645
3640.98 1155415 1031974 1123088 1280901 1384944 1340966
3643.87 1373788 1491742 1288088 1492200 1646012 1508036
3646.76 1324462 1473095 1847533 1681858 1211082 1604762
3649.66 2014278 2027122 2014328 2147974 2385347 2624887
3652.55 2847148 2993584 3060451 3064925 3031866 2681832
3655.44 2196368 1923397 2178426 2386015 2566289 2756288
3658.33 2815804 2817667 2748002 2792893 2919467 2888994
3661.23 2863184 3034517 2963840 2719807 2606896 2483709
3664.12 2512971 2507345 2284989 1928502 1851877 1856174
3667.01 1809628 1685672 1228442 1032103 1290762 1055343
3669.91 433481 119120 897024 1170670 1109153 1051344
3672.80 977958 827201 654697 201635 183346 109803
3675.69 120812 562989 626252 729743 967418 937405
3678.58 640111 458575 660433 974427 1098245 1185215
3681.48 1114037 957535 827236 636356 714345 940520
3684.37 972375 1011897 1034527 1120262 1129496 1034954
3687.26 723078-123375 7137 848144 1141061 1169611
3690.15 1034741 917613 1066343 1269375 1370896 1284659
3693.05 996936 1041633 1189654 1359224 1447486 1400561
3695.94 1267487 1178739 966957 979042 1278049 1513769
3698.83 1465062 1358963 1399201 1302928 1015757 914931
3701.73 1151853 1191889 1261306 1319563 1327699 1537298
3704.62 1496147 1520820 1544389 1349233 1181495 1170458
3707.51 1289457 1274491 1041016 979480 1460138 1611442
3710.40 1543752 1334787 719068 569461 1244069 1550489
3713.30 1543553 1419442 1267672 1351410 1313812 1381048
3716.19 1395755 1534828 1743645 1631067 1473480 1525935
3719.08 1706449 1604957 1498496 1627770 1419974 1210274
3721.97 1268174 1298119 1314369 1454855 1608944 1500498
3724.87 1453552 1358031 1118836 1185095 1203894 1086161
3727.76 1191475 1052617 966894 946723 1105513 1275338
3730.65 1177734 599704 110998 572459 920923 728270
3733.55 686472 388760 275095 426513 615959 329529
3736.44 164233 365135 620879 701793 687094 969397
3739.33 981091 953581 742247 383430 419847 566125
3742.22 735714 838740 422418-753207-1415626-314402
3745.12 406777 745410 916395 815320 534910 415480
3748.01 536326 79077-399462 114208 457460 409454
3750.90 105853-739522-809265 339293 786661 830027
3753.79 612773 482640 541032 590607 400995 350622
3756.69 641335 760219 698952 567388 463614 493352
3759.58 534593 666239 643942 945610 1086149 996346
3762.47 827491 895628 916196 905757 733250 511560
3765.37 338376 438803 685701 942556 842702 749440
3768.26 805499 806825 511349 509381 795010 897451
3771.15 896629 963794 979447 959603 1037450 885823
3774.04 796277 924722 814549 772247 807440 901649
3776.94 937404 977163 938034 905143 667366 612043
3779.83 963258 1024523 935065 765941 902273 1149004
3782.72 992390 772691 852631 931371 669894 625877
3785.61 749565 742572 782798 996863 1211690 1273713
3788.51 1096159 854498 743309 731798 620770 661043
3791.40 579024 566783 753370 867137 805362 967548
3794.29 1007163 774057 514725 253389 290861 383436
3797.19 503933 755195 937301 883002 866829 862388
3800.08 708722 105279-320087 395997 829802 780502
3802.97 667878 608817 682763 819812 973073 1036997
3805.86 578520-9873 363444 986002 1090933 1105618
3808.76 1052266 1046627 1132822 1030155 1007885 864953
3811.65 842547 995371 940841 925751 957004 1081187
3814.54 875562 448168-343679 9146 982547 1272525
3817.43 1186324 1080226 905081 831378 784478 704839
3820.33 619456 788373 789108 1034750 1216529 1090955
3823.22 918192 855603 820897 892705 910115 1033184
3826.11 1050925 934906 1033834 1210316 1221391 1361846
3829.01 1344129 1151735 1150923 1053657 812730 967821
3831.90 1278570 1404845 1480829 1442409 1485976 1140560
3834.79 1093194 1343367 1408662 1570881 1395124 265669
3837.68 467617 1386851 1622427 1724020 1812938 1878135
3840.58 1484042 1589596 1771986 1775502 1738572 1525457
3843.47 1457032 1632210 1688557 1830782 1771479 1773986
3846.36 1741416 1656246 1749038 1750802 1459266 1399998
3849.25 1342118 1278624 1306843 1194160 463212 99698
3852.15 729266 739118-112820-1052548-471233 583927
3855.04 887884 941709 948571 828596 736540 739868
3857.93 586750 518315 678903 913363 820393 692233
3860.83 620069 373809 220320 292623 613517 633991
3863.72 305209 53495 157576 548309 654191 488265
3866.61 240296 283019 434888 522553 226259 51220
3869.50-269780-98875 437117 516007 334972 333617
3872.40 524041 366822-146630-420407 19095 405749
3875.29 170409 160102 95430-30810 13486 29263
3878.18-93104-205584-238956-528061-540949-227652
3881.07-29766 13298-105062-154495-157972-382564
3883.97-428060-488548-1066268-1093758-570262-289876
3886.86-254616-274556-99509-86105-234904-119006
3889.75-178012-483179-693911-241346 46289-97052
3892.65-174568-97821-184770-145801-112875-186087
3895.54-200023-155183-41963 17213 97893 68740
3898.43-151813-496935-467762-107899 138113 31557
3901.32-270653 16720 429164 460542 90711-231530
3904.22 81318 372835 187133 154084 407077 579029
3907.11 658781 831696 718781 499455 626210 776155
3910.00 751154 744315 980986 911651 839553 840753
3912.89 906569 859719 711546 662679 1017845 1280939
3915.79 1196193 918878 731368 1011322 1333696 1300837
3918.68 1303173 1342813 1172569 1242038 1404588 1377203
3921.57 1462120 1570686 1704542 1853878 1841856 1793518
3924.47 1742119 1941358 2110179 1950137 2066019 2310000
3927.36 2428022 2478899 2553501 2632651 2724352 2902646
3930.25 2916852 2927512 2812994 2559640 2824567 3160945
3933.14 3105422 3194785 3461051 3510012 3457552 3604516
3936.04 3688571 3617373 3570024 3483444 3671135 3877478
3938.93 4040092 3974249 3723970 3742417 3930264 3718964
3941.82 3341704 3279066 3484064 3574997 3431335 3422692
3944.71 3462074 3409449 3243001 3366682 3294275 3233446
3947.61 3152037 2980383 2616783 2474466 2551329 2542499
3950.50 2647817 2709975 2702659 2622037 2327383 2325895
3953.39 2450640 2429173 2322700 2193276 2192475 2124113
3956.29 2046447 2046411 1887393 1782330 1694353 1708729
3959.18 1762812 1980538 1914776 1889076 1931431 1843500
3962.07 1736242 1758519 1929547 2000214 1964088 1889783
3964.96 1976340 1981038 2001989 2133737 2084727 1985870
3967.86 2217311 2341276 2180813 2361141 2580716 2437801
3970.75 2298102 2423645 2335958 2157669 2164996 2176888
3973.64 2104891 2314846
##END=
