##TITLE=Toluene, Alpha-chloro-p-nitro
##JCAMP-DX=4.24
##DATA TYPE=INFRARED SPECTRUM
##CLASS=COBLENTZ III
##ORIGIN=STANDARD OIL OF OHIO
##OWNER=Copyright (C) 1987 by the Coblentz Society
Collection (C) 2018 copyright by the U.S. Secretary of Commerce
on behalf of the United States of America. All rights reserved.
##DATE=1966/07/22
##NAMES=1-(chloromethyl)-4-nitrobenzene
##CAS REGISTRY NO=100-14-1
##MOLFORM=C7 H6 Cl N O2
##SOURCE REFERENCE=COBLENTZ NO. 5827
##$NIST SOURCE=COBLENTZ
##$NIST IMAGE=cob5827
##SPECTROMETER/DATA SYSTEM=PERKIN-ELMER 521 (GRATING)
##INSTRUMENT PARAMETERS=FILTERS AT 3150, 2500, 2000, 1150, 700, 410. GRATING CHANGES: 2000, 630
##STATE=SOLID (2.0 mg / 300 mg KBr DISC)
##PATH LENGTH=
$$ SPECTRAL FEATURE AT 1997 CM^-^1 IS AN ARTIFACT CAUSED BY FILTER CHANGE
##RESOLUTION=2
##XUNITS=1/CM
##YUNITS=TRANSMITTANCE
##XFACTOR=1.0
##YFACTOR=1
##FIRSTX=378
##LASTX=3912
##FIRSTY=0.8039
##MAXX=3912
##MINX=378
##MAXY=0.9982
##MINY=0.018
##NPOINTS=3535
##XYDATA=(X++(Y..Y))
378.000000 0.8039 0.7756 0.7434 0.7113 0.6791
383.000000 0.6469 0.6147 0.5979 0.5983 0.6424
388.000000 0.6764 0.7104 0.7443 0.7783 0.8123
393.000000 0.8463 0.8803 0.9142 0.9456 0.9496
398.000000 0.9529 0.9554 0.9577 0.9594 0.9612
403.000000 0.9633 0.9678 0.9722 0.9815 0.9865
408.000000 0.9873 0.9881 0.9818 0.9705 0.9594
413.000000 0.9541 0.9556 0.9572 0.9587 0.9600
418.000000 0.9599 0.9587 0.9558 0.9526 0.9523
423.000000 0.9541 0.9559 0.9577 0.9596 0.9612
428.000000 0.9625 0.9639 0.9653 0.9667 0.9675
433.000000 0.9681 0.9688 0.9694 0.9700 0.9706
438.000000 0.9712 0.9713 0.9714 0.9715 0.9716
443.000000 0.9717 0.9716 0.9717 0.9710 0.9708
448.000000 0.9705 0.9703 0.9702 0.9701 0.9700
453.000000 0.9698 0.9697 0.9696 0.9694 0.9689
458.000000 0.9685 0.9680 0.9676 0.9671 0.9667
463.000000 0.9662 0.9655 0.9647 0.9639 0.9631
468.000000 0.9623 0.9615 0.9605 0.9588 0.9571
473.000000 0.9554 0.9537 0.9513 0.9488 0.9464
478.000000 0.9440 0.9417 0.9400 0.9382 0.9355
483.000000 0.9328 0.9301 0.9268 0.9193 0.9105
488.000000 0.9000 0.8636 0.8146 0.7894 0.7294
493.000000 0.6695 0.6095 0.5496 0.5224 0.5592
498.000000 0.6425 0.7257 0.8089 0.8921 0.9329
503.000000 0.9478 0.9608 0.9664 0.9712 0.9746
508.000000 0.9765 0.9784 0.9810 0.9798 0.9791
513.000000 0.9784 0.9775 0.9760 0.9744 0.9726
518.000000 0.9705 0.9682 0.9659 0.9635 0.9602
523.000000 0.9565 0.9484 0.8791 0.8266 0.7740
528.000000 0.7215 0.6689 0.6493 0.6482 0.7779
533.000000 0.8518 0.9205 0.9358 0.9481 0.9588
538.000000 0.9676 0.9750 0.9818 0.9847 0.9872
543.000000 0.9897 0.9916 0.9929 0.9936 0.9940
548.000000 0.9943 0.9946 0.9947 0.9949 0.9950
553.000000 0.9951 0.9951 0.9952 0.9952 0.9952
558.000000 0.9953 0.9953 0.9982 0.9952 0.9951
563.000000 0.9950 0.9949 0.9948 0.9946 0.9939
568.000000 0.9933 0.9927 0.9920 0.9914 0.9908
573.000000 0.9901 0.9895 0.9889 0.9882 0.9876
578.000000 0.9870 0.9866 0.9863 0.9859 0.9855
583.000000 0.9851 0.9847 0.9835 0.9823 0.9811
588.000000 0.9800 0.9781 0.9758 0.9736 0.9724
593.000000 0.9712 0.9700 0.9680 0.9654 0.9628
598.000000 0.9594 0.9559 0.9526 0.9509 0.9511
603.000000 0.9512 0.9517 0.9526 0.9538 0.9551
608.000000 0.9564 0.9567 0.9566 0.9561 0.9555
613.000000 0.9549 0.9540 0.9531 0.9494 0.9445
618.000000 0.9387 0.9313 0.9168 0.9035 0.8902
623.000000 0.8776 0.8021 0.7421 0.6822 0.6222
628.000000 0.6096 0.6231 0.6617 0.7004 0.7391
633.000000 0.7777 0.8164 0.8368 0.8484 0.8589
638.000000 0.8687 0.8778 0.8808 0.8829 0.8843
643.000000 0.8835 0.8825 0.8814 0.8804 0.8793
648.000000 0.8779 0.8766 0.8745 0.8723 0.8698
653.000000 0.8627 0.8559 0.8493 0.8407 0.8297
658.000000 0.8181 0.8074 0.7971 0.7853 0.7717
663.000000 0.7539 0.6709 0.5682 0.4293 0.2974
668.000000 0.2700 0.2451 0.2193 0.2029 0.1998
673.000000 0.2342 0.2850 0.3357 0.3864 0.4372
678.000000 0.4879 0.5387 0.5894 0.6402 0.6909
683.000000 0.7416 0.7861 0.7853 0.7876 0.7792
688.000000 0.7702 0.7186 0.6513 0.5839 0.5166
693.000000 0.4493 0.3819 0.3146 0.2473 0.1799
698.000000 0.1210 0.0889 0.0690 0.0608 0.0608
703.000000 0.0608 0.0619 0.0636 0.0680 0.0881
708.000000 0.1516 0.2152 0.2787 0.3422 0.4057
713.000000 0.4692 0.5327 0.5963 0.6444 0.6666
718.000000 0.6772 0.6877 0.7109 0.7503 0.7707
723.000000 0.7846 0.7982 0.8096 0.8211 0.8326
728.000000 0.8568 0.8785 0.8823 0.8833 0.8843
733.000000 0.8855 0.8869 0.8883 0.8897 0.8916
738.000000 0.8941 0.8966 0.8991 0.9029 0.9078
743.000000 0.9125 0.9165 0.9172 0.9177 0.9165
748.000000 0.9153 0.9126 0.9089 0.9032 0.8967
753.000000 0.8912 0.8857 0.8772 0.8750 0.8730
758.000000 0.8612 0.8112 0.7864 0.7881 0.8059
763.000000 0.8309 0.8559 0.8809 0.9059 0.9255
768.000000 0.9271 0.9275 0.9278 0.9282 0.9286
773.000000 0.9290 0.9293 0.9298 0.9303 0.9308
778.000000 0.9326 0.9318 0.9323 0.9316 0.9306
783.000000 0.9294 0.9279 0.9258 0.9218 0.9173
788.000000 0.9124 0.9040 0.8950 0.8813 0.8479
793.000000 0.8322 0.8112 0.7032 0.5720 0.4409
798.000000 0.3098 0.1786 0.1158 0.1164 0.1843
803.000000 0.2480 0.3117 0.3754 0.4391 0.5028
808.000000 0.5665 0.6301 0.6938 0.7095 0.7098
813.000000 0.7102 0.7107 0.7117 0.7138 0.7164
818.000000 0.7196 0.7299 0.7427 0.7540 0.7632
823.000000 0.7724 0.7815 0.7936 0.8074 0.8212
828.000000 0.8412 0.8569 0.8661 0.8656 0.8651
833.000000 0.8665 0.8607 0.8573 0.8529 0.8484
838.000000 0.8442 0.8499 0.8530 0.8529 0.8524
843.000000 0.8488 0.8423 0.8347 0.8266 0.8144
848.000000 0.8038 0.7936 0.7778 0.7525 0.7204
853.000000 0.5788 0.4835 0.3882 0.2929 0.1976
858.000000 0.1316 0.1409 0.1977 0.2546 0.3114
863.000000 0.3289 0.2982 0.2490 0.1998 0.1611
868.000000 0.1677 0.2890 0.4102 0.5315 0.6528
873.000000 0.7712 0.8212 0.8453 0.8626 0.8738
878.000000 0.8822 0.8879 0.8936 0.8991 0.9042
883.000000 0.9093 0.9136 0.9179 0.9222 0.9264
888.000000 0.9297 0.9330 0.9363 0.9404 0.9435
893.000000 0.9449 0.9460 0.9465 0.9471 0.9476
898.000000 0.9481 0.9485 0.9489 0.9496 0.9515
903.000000 0.9532 0.9547 0.9561 0.9572 0.9580
908.000000 0.9587 0.9580 0.9573 0.9567 0.9560
913.000000 0.9554 0.9545 0.9535 0.9526 0.9516
918.000000 0.9513 0.9518 0.9531 0.9544 0.9550
923.000000 0.9555 0.9559 0.9558 0.9557 0.9552
928.000000 0.9542 0.9532 0.9523 0.9513 0.9504
933.000000 0.9497 0.9489 0.9485 0.9499 0.9548
938.000000 0.9545 0.9551 0.9557 0.9563 0.9568
943.000000 0.9569 0.9569 0.9570 0.9571 0.9572
948.000000 0.9571 0.9570 0.9569 0.9568 0.9567
953.000000 0.9567 0.9563 0.9560 0.9557 0.9554
958.000000 0.9551 0.9548 0.9545 0.9540 0.9531
963.000000 0.9523 0.9514 0.9487 0.9417 0.9346
968.000000 0.9276 0.9205 0.9156 0.9199 0.9249
973.000000 0.9299 0.9350 0.9400 0.9421 0.9425
978.000000 0.9428 0.9429 0.9429 0.9429 0.9430
983.000000 0.9430 0.9430 0.9430 0.9431 0.9431
988.000000 0.9431 0.9431 0.9429 0.9427 0.9426
993.000000 0.9422 0.9418 0.9413 0.9408 0.9393
998.000000 0.9378 0.9363 0.9346 0.9329 0.9312
1003.000000 0.9292 0.9246 0.9192 0.9115 0.8838
1008.000000 0.8773 0.8727 0.8512 0.7366 0.6159
1013.000000 0.4952 0.3920 0.3931 0.5542 0.7175
1018.000000 0.8808 0.9094 0.9187 0.9296 0.9339
1023.000000 0.9345 0.9352 0.9352 0.9350 0.9348
1028.000000 0.9344 0.9338 0.9332 0.9325 0.9317
1033.000000 0.9308 0.9299 0.9288 0.9277 0.9267
1038.000000 0.9270 0.9273 0.9268 0.9279 0.9288
1043.000000 0.9298 0.9307 0.9319 0.9332 0.9345
1048.000000 0.9358 0.9371 0.9383 0.9395 0.9407
1053.000000 0.9419 0.9426 0.9431 0.9435 0.9440
1058.000000 0.9445 0.9443 0.9439 0.9436 0.9433
1063.000000 0.9429 0.9424 0.9416 0.9394 0.9371
1068.000000 0.9348 0.9315 0.9281 0.9247 0.9211
1073.000000 0.9175 0.9138 0.9093 0.9048 0.9003
1078.000000 0.8961 0.8922 0.8883 0.8844 0.8807
1083.000000 0.8772 0.8737 0.8702 0.8672 0.8651
1088.000000 0.8630 0.8609 0.8588 0.8566 0.8527
1093.000000 0.8476 0.8412 0.8316 0.8102 0.7958
1098.000000 0.7849 0.7589 0.7068 0.6199 0.4904
1103.000000 0.3608 0.2420 0.2421 0.2423 0.2678
1108.000000 0.2925 0.3172 0.3419 0.4152 0.4921
1113.000000 0.5690 0.6460 0.7229 0.7998 0.8737
1118.000000 0.8796 0.8880 0.8985 0.9138 0.9229
1123.000000 0.9295 0.9340 0.9355 0.9368 0.9381
1128.000000 0.9389 0.9397 0.9398 0.9397 0.9396
1133.000000 0.9395 0.9392 0.9390 0.9373 0.9351
1138.000000 0.9325 0.9298 0.9267 0.9231 0.9191
1143.000000 0.9135 0.9104 0.9074 0.9035 0.9014
1148.000000 0.9015 0.9031 0.9058 0.9090 0.9124
1153.000000 0.9164 0.9177 0.9172 0.9157 0.9143
1158.000000 0.9132 0.9125 0.9117 0.9108 0.9094
1163.000000 0.9071 0.9031 0.8980 0.8893 0.8771
1168.000000 0.8570 0.8249 0.7927 0.7606 0.7285
1173.000000 0.6964 0.6875 0.7127 0.7430 0.7733
1178.000000 0.8036 0.8339 0.8641 0.8739 0.8817
1183.000000 0.8895 0.8944 0.8958 0.8949 0.8944
1188.000000 0.8927 0.8909 0.8889 0.8858 0.8821
1193.000000 0.8773 0.8701 0.8626 0.8552 0.8479
1198.000000 0.8388 0.8296 0.8196 0.8087 0.7985
1203.000000 0.7891 0.7798 0.7657 0.7550 0.7436
1208.000000 0.7134 0.6567 0.6578 0.6578 0.7127
1213.000000 0.7687 0.8247 0.8808 0.8925 0.8966
1218.000000 0.8951 0.8946 0.8940 0.8926 0.8912
1223.000000 0.8891 0.8868 0.8850 0.8840 0.8831
1228.000000 0.8824 0.8823 0.8823 0.8822 0.8820
1233.000000 0.8819 0.8816 0.8811 0.8797 0.8766
1238.000000 0.8724 0.8647 0.8537 0.8353 0.8118
1243.000000 0.7960 0.7855 0.7812 0.7770 0.7743
1248.000000 0.7719 0.7712 0.7704 0.7696 0.7650
1253.000000 0.7577 0.7501 0.7307 0.7097 0.6982
1258.000000 0.6867 0.6764 0.6661 0.6557 0.6300
1263.000000 0.5714 0.4751 0.3259 0.1766 0.1041
1268.000000 0.1042 0.1711 0.2558 0.3404 0.4251
1273.000000 0.5097 0.5944 0.6790 0.7503 0.8085
1278.000000 0.8263 0.8468 0.8501 0.8513 0.8514
1283.000000 0.8507 0.8506 0.8491 0.8468 0.8404
1288.000000 0.8337 0.8268 0.8183 0.8064 0.7952
1293.000000 0.7593 0.7447 0.7326 0.7057 0.6457
1298.000000 0.5858 0.5259 0.4659 0.4060 0.4041
1303.000000 0.4027 0.4467 0.4813 0.5158 0.5472
1308.000000 0.5430 0.4566 0.3701 0.2837 0.2054
1313.000000 0.2068 0.2836 0.3648 0.4460 0.5272
1318.000000 0.6084 0.6278 0.6274 0.6288 0.6238
1323.000000 0.6075 0.5833 0.5591 0.5349 0.5108
1328.000000 0.4866 0.4624 0.4382 0.4140 0.3898
1333.000000 0.3656 0.3414 0.3173 0.2955 0.2592
1338.000000 0.2274 0.1955 0.1637 0.1319 0.1001
1343.000000 0.0523 0.0247 0.0188 0.0184 0.0180
1348.000000 0.0215 0.0186 0.0200 0.0216 0.0231
1353.000000 0.0259 0.0291 0.0340 0.0412 0.0529
1358.000000 0.1025 0.1521 0.2017 0.2513 0.3009
1363.000000 0.3506 0.4002 0.4498 0.4994 0.5490
1368.000000 0.5986 0.6238 0.6288 0.6334 0.6397
1373.000000 0.6558 0.6734 0.6911 0.7087 0.7264
1378.000000 0.7440 0.7617 0.7793 0.7951 0.7953
1383.000000 0.7955 0.7967 0.7978 0.7999 0.8022
1388.000000 0.8079 0.8212 0.8264 0.8272 0.8268
1393.000000 0.8293 0.8237 0.8211 0.8185 0.8160
1398.000000 0.8130 0.8100 0.8064 0.8020 0.7975
1403.000000 0.7927 0.7869 0.7669 0.7369 0.7188
1408.000000 0.7098 0.7009 0.6915 0.6815 0.6715
1413.000000 0.6617 0.6519 0.6419 0.6288 0.6106
1418.000000 0.5913 0.5734 0.5729 0.5730 0.5733
1423.000000 0.6273 0.6838 0.7403 0.8120 0.8216
1428.000000 0.8313 0.8388 0.8399 0.8407 0.8404
1433.000000 0.8402 0.8408 0.8396 0.8393 0.8389
1438.000000 0.8382 0.8372 0.8336 0.8292 0.8227
1443.000000 0.8134 0.7958 0.7107 0.6250 0.6185
1448.000000 0.6184 0.6604 0.6953 0.7303 0.7653
1453.000000 0.8003 0.8126 0.8141 0.8167 0.8222
1458.000000 0.8246 0.8255 0.8265 0.8272 0.8276
1463.000000 0.8290 0.8326 0.8368 0.8416 0.8456
1468.000000 0.8468 0.8459 0.8448 0.8384 0.8326
1473.000000 0.8278 0.8238 0.8222 0.8200 0.8111
1478.000000 0.7987 0.7896 0.7794 0.7665 0.7468
1483.000000 0.7241 0.7099 0.6744 0.5937 0.5129
1488.000000 0.4709 0.4711 0.4689 0.5154 0.5376
1493.000000 0.5598 0.5819 0.6041 0.6263 0.6484
1498.000000 0.6706 0.6927 0.7149 0.7371 0.7592
1503.000000 0.7664 0.7661 0.7491 0.7030 0.7017
1508.000000 0.7002 0.6986 0.6969 0.6853 0.6462
1513.000000 0.6072 0.5681 0.5291 0.4900 0.4510
1518.000000 0.4119 0.3729 0.3338 0.3244 0.3215
1523.000000 0.3186 0.3158 0.3129 0.3079 0.3008
1528.000000 0.2435 0.1981 0.1527 0.1074 0.0620
1533.000000 0.0324 0.0313 0.0323 0.0349 0.0382
1538.000000 0.0425 0.0459 0.0489 0.0516 0.0547
1543.000000 0.0587 0.0627 0.0674 0.0723 0.0901
1548.000000 0.1491 0.2081 0.2671 0.3261 0.3851
1553.000000 0.4441 0.5030 0.5620 0.6210 0.6800
1558.000000 0.7008 0.7036 0.7070 0.7106 0.7152
1563.000000 0.7204 0.7278 0.7378 0.7517 0.7559
1568.000000 0.7594 0.7574 0.7562 0.7543 0.7516
1573.000000 0.7468 0.7404 0.7345 0.7302 0.7299
1578.000000 0.7311 0.7308 0.7336 0.7387 0.7453
1583.000000 0.7534 0.7579 0.7603 0.7609 0.7607
1588.000000 0.7628 0.7590 0.7545 0.7434 0.7316
1593.000000 0.7173 0.6794 0.6195 0.5595 0.4996
1598.000000 0.4396 0.3489 0.3471 0.3468 0.4062
1603.000000 0.4659 0.4672 0.4668 0.3648 0.2965
1608.000000 0.2283 0.1600 0.0918 0.0470 0.0645
1613.000000 0.0463 0.2326 0.3166 0.5772 0.6063
1618.000000 0.6331 0.6599 0.6867 0.7135 0.7403
1623.000000 0.7671 0.8081 0.8128 0.8162 0.8197
1628.000000 0.8221 0.8265 0.8316 0.8341 0.8364
1633.000000 0.8387 0.8409 0.8432 0.8445 0.8449
1638.000000 0.8453 0.8452 0.8448 0.8445 0.8441
1643.000000 0.8437 0.8436 0.8539 0.8649 0.8742
1648.000000 0.8806 0.8869 0.8906 0.8921 0.8925
1653.000000 0.8941 0.8966 0.8982 0.8993 0.9004
1658.000000 0.9013 0.9021 0.9026 0.9031 0.9036
1663.000000 0.9040 0.9045 0.9051 0.9056 0.9061
1668.000000 0.9066 0.9072 0.9087 0.9102 0.9116
1673.000000 0.9130 0.9140 0.9192 0.9158 0.9174
1678.000000 0.9172 0.9163 0.9155 0.9146 0.9140
1683.000000 0.9139 0.9139 0.9138 0.9131 0.9102
1688.000000 0.9067 0.9018 0.8952 0.8901 0.8854
1693.000000 0.8807 0.8759 0.8644 0.8616 0.8615
1698.000000 0.8614 0.8617 0.8603 0.8652 0.8680
1703.000000 0.8710 0.8742 0.8780 0.8818 0.8856
1708.000000 0.8898 0.8950 0.9002 0.9052 0.9097
1713.000000 0.9139 0.9180 0.9203 0.9225 0.9248
1718.000000 0.9264 0.9271 0.9277 0.9281 0.9282
1723.000000 0.9302 0.9284 0.9285 0.9278 0.9271
1728.000000 0.9264 0.9236 0.9207 0.9178 0.9103
1733.000000 0.8996 0.8953 0.8923 0.8894 0.8940
1738.000000 0.8950 0.8960 0.8996 0.9073 0.9284
1743.000000 0.9314 0.9342 0.9355 0.9368 0.9381
1748.000000 0.9397 0.9414 0.9422 0.9430 0.9439
1753.000000 0.9447 0.9448 0.9448 0.9448 0.9447
1758.000000 0.9463 0.9444 0.9442 0.9447 0.9451
1763.000000 0.9456 0.9455 0.9452 0.9449 0.9444
1768.000000 0.9436 0.9427 0.9418 0.9410 0.9402
1773.000000 0.9395 0.9394 0.9393 0.9392 0.9391
1778.000000 0.9390 0.9389 0.9394 0.9398 0.9403
1783.000000 0.9412 0.9413 0.9410 0.9407 0.9403
1788.000000 0.9392 0.9377 0.9352 0.9325 0.9302
1793.000000 0.9280 0.9259 0.9239 0.9225 0.9210
1798.000000 0.9184 0.9162 0.9145 0.9128 0.9111
1803.000000 0.9088 0.9061 0.9031 0.8995 0.8959
1808.000000 0.8924 0.8870 0.8770 0.8644 0.8519
1813.000000 0.8491 0.8470 0.8509 0.8543 0.8612
1818.000000 0.8695 0.8778 0.8861 0.8945 0.9028
1823.000000 0.9119 0.9177 0.9216 0.9254 0.9267
1828.000000 0.9279 0.9287 0.9289 0.9292 0.9294
1833.000000 0.9293 0.9291 0.9290 0.9288 0.9286
1838.000000 0.9284 0.9282 0.9284 0.9286 0.9288
1843.000000 0.9291 0.9296 0.9301 0.9310 0.9374
1848.000000 0.9354 0.9360 0.9361 0.9363 0.9364
1853.000000 0.9365 0.9364 0.9363 0.9362 0.9361
1858.000000 0.9360 0.9359 0.9359 0.9359 0.9360
1863.000000 0.9360 0.9360 0.9357 0.9351 0.9344
1868.000000 0.9337 0.9329 0.9317 0.9305 0.9299
1873.000000 0.9294 0.9289 0.9284 0.9280 0.9278
1878.000000 0.9277 0.9275 0.9274 0.9277 0.9279
1883.000000 0.9282 0.9284 0.9286 0.9289 0.9291
1888.000000 0.9294 0.9296 0.9297 0.9299 0.9301
1893.000000 0.9303 0.9305 0.9307 0.9305 0.9302
1898.000000 0.9299 0.9297 0.9294 0.9292 0.9289
1903.000000 0.9286 0.9283 0.9276 0.9268 0.9260
1908.000000 0.9252 0.9244 0.9236 0.9228 0.9219
1913.000000 0.9210 0.9201 0.9191 0.9182 0.9173
1918.000000 0.9161 0.9145 0.9129 0.9113 0.9097
1923.000000 0.9080 0.9051 0.9022 0.8994 0.8963
1928.000000 0.8922 0.8880 0.8841 0.8811 0.8780
1933.000000 0.8750 0.8720 0.8690 0.8661 0.8632
1938.000000 0.8603 0.8570 0.8461 0.8304 0.8132
1943.000000 0.7938 0.7745 0.7729 0.7752 0.7713
1948.000000 0.8020 0.8154 0.8288 0.8422 0.8556
1953.000000 0.8598 0.8642 0.8698 0.8755 0.8814
1958.000000 0.8845 0.8861 0.8876 0.8889 0.8899
1963.000000 0.8910 0.8920 0.8931 0.8941 0.8951
1968.000000 0.8961 0.8969 0.8997 0.8978 0.8983
1973.000000 0.8987 0.8991 0.8988 0.8984 0.8980
1978.000000 0.8977 0.8975 0.8976 0.8977 0.8979
1983.000000 0.8984 0.8992 0.9000 0.9010 0.9022
1988.000000 0.9033 0.9042 0.9048 0.9053 0.9045
1993.000000 0.9029 0.9012 0.8937 0.8863 0.8804
1998.000000 0.8760 0.8749 0.8747 0.8745 0.8744
2003.000000 0.8743 0.8742 0.8741 0.8740 0.8739
2008.000000 0.8738 0.8736 0.8735 0.8734 0.8733
2013.000000 0.8732 0.8731 0.8730 0.8729 0.8728
2018.000000 0.8728 0.8727 0.8726 0.8725 0.8725
2023.000000 0.8724 0.8724 0.8725 0.8727 0.8730
2028.000000 0.8734 0.8737 0.8740 0.8743 0.8746
2033.000000 0.8745 0.8745 0.8744 0.8744 0.8743
2038.000000 0.8743 0.8737 0.8732 0.8726 0.8720
2043.000000 0.8714 0.8708 0.8702 0.8697 0.8691
2048.000000 0.8685 0.8679 0.8674 0.8668 0.8663
2053.000000 0.8658 0.8654 0.8651 0.8649 0.8646
2058.000000 0.8644 0.8641 0.8639 0.8636 0.8634
2063.000000 0.8631 0.8629 0.8631 0.8634 0.8638
2068.000000 0.8642 0.8645 0.8648 0.8651 0.8654
2073.000000 0.8655 0.8657 0.8656 0.8655 0.8654
2078.000000 0.8654 0.8653 0.8652 0.8651 0.8650
2083.000000 0.8649 0.8648 0.8647 0.8646 0.8645
2088.000000 0.8645 0.8643 0.8642 0.8641 0.8640
2093.000000 0.8638 0.8637 0.8636 0.8635 0.8633
2098.000000 0.8632 0.8631 0.8630 0.8629 0.8628
2103.000000 0.8627 0.8626 0.8625 0.8624 0.8623
2108.000000 0.8622 0.8621 0.8620 0.8619 0.8618
2113.000000 0.8617 0.8617 0.8616 0.8615 0.8614
2118.000000 0.8613 0.8613 0.8614 0.8614 0.8615
2123.000000 0.8615 0.8616 0.8616 0.8617 0.8615
2128.000000 0.8613 0.8610 0.8608 0.8606 0.8604
2133.000000 0.8602 0.8600 0.8598 0.8596 0.8592
2138.000000 0.8589 0.8585 0.8582 0.8578 0.8575
2143.000000 0.8571 0.8568 0.8564 0.8561 0.8557
2148.000000 0.8554 0.8550 0.8547 0.8543 0.8539
2153.000000 0.8533 0.8528 0.8523 0.8518 0.8512
2158.000000 0.8507 0.8502 0.8497 0.8491 0.8486
2163.000000 0.8481 0.8476 0.8470 0.8465 0.8461
2168.000000 0.8457 0.8454 0.8452 0.8449 0.8447
2173.000000 0.8444 0.8442 0.8439 0.8437 0.8435
2178.000000 0.8433 0.8433 0.8433 0.8433 0.8433
2183.000000 0.8433 0.8433 0.8433 0.8434 0.8434
2188.000000 0.8434 0.8433 0.8433 0.8426 0.8419
2193.000000 0.8412 0.8406 0.8391 0.8376 0.8359
2198.000000 0.8342 0.8324 0.8307 0.8290 0.8273
2203.000000 0.8270 0.8268 0.8267 0.8266 0.8266
2208.000000 0.8267 0.8272 0.8277 0.8285 0.8293
2213.000000 0.8302 0.8312 0.8323 0.8334 0.8350
2218.000000 0.8366 0.8382 0.8398 0.8409 0.8421
2223.000000 0.8422 0.8424 0.8425 0.8426 0.8427
2228.000000 0.8429 0.8430 0.8431 0.8432 0.8433
2233.000000 0.8434 0.8435 0.8435 0.8435 0.8432
2238.000000 0.8429 0.8425 0.8422 0.8418 0.8415
2243.000000 0.8411 0.8408 0.8402 0.8397 0.8391
2248.000000 0.8386 0.8380 0.8375 0.8370 0.8365
2253.000000 0.8359 0.8354 0.8349 0.8344 0.8339
2258.000000 0.8334 0.8328 0.8323 0.8318 0.8313
2263.000000 0.8308 0.8303 0.8297 0.8291 0.8285
2268.000000 0.8280 0.8274 0.8269 0.8263 0.8257
2273.000000 0.8251 0.8246 0.8240 0.8235 0.8229
2278.000000 0.8223 0.8221 0.8219 0.8218 0.8217
2283.000000 0.8215 0.8214 0.8213 0.8212 0.8210
2288.000000 0.8209 0.8209 0.8210 0.8210 0.8211
2293.000000 0.8210 0.8209 0.8202 0.8196 0.8189
2298.000000 0.8183 0.8176 0.8170 0.8163 0.8156
2303.000000 0.8149 0.8142 0.8135 0.8128 0.8119
2308.000000 0.8111 0.8102 0.8093 0.8084 0.8075
2313.000000 0.8070 0.8066 0.8063 0.8060 0.8057
2318.000000 0.8055 0.8052 0.8049 0.8046 0.8043
2323.000000 0.8040 0.8038 0.8036 0.8034 0.8032
2328.000000 0.8030 0.8028 0.8026 0.8024 0.8022
2333.000000 0.8021 0.8020 0.8021 0.8022 0.8023
2338.000000 0.8025 0.8026 0.8028 0.8029 0.8030
2343.000000 0.8034 0.8039 0.8046 0.8053 0.8060
2348.000000 0.8068 0.8076 0.8085 0.8091 0.8097
2353.000000 0.8096 0.8095 0.8094 0.8094 0.8093
2358.000000 0.8092 0.8091 0.8091 0.8089 0.8088
2363.000000 0.8087 0.8086 0.8084 0.8083 0.8081
2368.000000 0.8110 0.8079 0.8078 0.8076 0.8075
2373.000000 0.8073 0.8072 0.8070 0.8069 0.8067
2378.000000 0.8065 0.8063 0.8062 0.8060 0.8058
2383.000000 0.8056 0.8055 0.8052 0.8050 0.8047
2388.000000 0.8044 0.8041 0.8039 0.8036 0.8034
2393.000000 0.8031 0.8028 0.8025 0.8023 0.8022
2398.000000 0.8022 0.8024 0.8026 0.8028 0.8030
2403.000000 0.8032 0.8034 0.8036 0.8038 0.8041
2408.000000 0.8044 0.8048 0.8053 0.8057 0.8061
2413.000000 0.8065 0.8069 0.8070 0.8071 0.8069
2418.000000 0.8068 0.8066 0.8065 0.8063 0.8062
2423.000000 0.8060 0.8058 0.8053 0.8048 0.8042
2428.000000 0.8037 0.8032 0.8027 0.8021 0.8016
2433.000000 0.8005 0.7994 0.7974 0.7954 0.7933
2438.000000 0.7913 0.7890 0.7867 0.7842 0.7818
2443.000000 0.7754 0.7691 0.7627 0.7564 0.7500
2448.000000 0.7437 0.7373 0.7310 0.7286 0.7263
2453.000000 0.7265 0.7268 0.7326 0.7259 0.7484
2458.000000 0.7583 0.7682 0.7781 0.7857 0.7934
2463.000000 0.7963 0.7992 0.7997 0.8002 0.8002
2468.000000 0.8003 0.8002 0.7997 0.8001 0.8001
2473.000000 0.7999 0.7998 0.7997 0.7996 0.7994
2478.000000 0.7993 0.7991 0.7989 0.7987 0.7985
2483.000000 0.7982 0.7980 0.7978 0.7976 0.7968
2488.000000 0.7960 0.7941 0.7923 0.7899 0.7875
2493.000000 0.7855 0.7836 0.7825 0.7815 0.7810
2498.000000 0.7806 0.7801 0.7797 0.7793 0.7790
2503.000000 0.7787 0.7784 0.7781 0.7778 0.7772
2508.000000 0.7767 0.7762 0.7757 0.7751 0.7746
2513.000000 0.7743 0.7741 0.7738 0.7735 0.7732
2518.000000 0.7730 0.7727 0.7724 0.7724 0.7724
2523.000000 0.7726 0.7729 0.7731 0.7733 0.7735
2528.000000 0.7737 0.7741 0.7746 0.7751 0.7757
2533.000000 0.7762 0.7767 0.7768 0.7769 0.7770
2538.000000 0.7771 0.7770 0.7770 0.7769 0.7768
2543.000000 0.7767 0.7766 0.7765 0.7764 0.7761
2548.000000 0.7758 0.7755 0.7753 0.7750 0.7747
2553.000000 0.7744 0.7742 0.7739 0.7736 0.7733
2558.000000 0.7731 0.7728 0.7725 0.7722 0.7719
2563.000000 0.7716 0.7714 0.7711 0.7708 0.7705
2568.000000 0.7702 0.7699 0.7696 0.7691 0.7687
2573.000000 0.7683 0.7679 0.7675 0.7671 0.7667
2578.000000 0.7663 0.7658 0.7654 0.7650 0.7646
2583.000000 0.7640 0.7635 0.7628 0.7622 0.7615
2588.000000 0.7609 0.7602 0.7596 0.7588 0.7580
2593.000000 0.7572 0.7565 0.7557 0.7550 0.7542
2598.000000 0.7534 0.7526 0.7519 0.7513 0.7508
2603.000000 0.7502 0.7497 0.7491 0.7486 0.7483
2608.000000 0.7480 0.7479 0.7479 0.7478 0.7478
2613.000000 0.7477 0.7477 0.7476 0.7476 0.7476
2618.000000 0.7476 0.7475 0.7475 0.7475 0.7475
2623.000000 0.7475 0.7475 0.7475 0.7475 0.7475
2628.000000 0.7476 0.7476 0.7476 0.7476 0.7476
2633.000000 0.7476 0.7477 0.7477 0.7477 0.7476
2638.000000 0.7476 0.7476 0.7476 0.7475 0.7475
2643.000000 0.7475 0.7475 0.7474 0.7474 0.7473
2648.000000 0.7473 0.7473 0.7473 0.7472 0.7472
2653.000000 0.7471 0.7470 0.7468 0.7466 0.7463
2658.000000 0.7461 0.7459 0.7457 0.7455 0.7453
2663.000000 0.7451 0.7449 0.7446 0.7444 0.7440
2668.000000 0.7437 0.7433 0.7429 0.7425 0.7421
2673.000000 0.7417 0.7413 0.7409 0.7406 0.7402
2678.000000 0.7398 0.7393 0.7388 0.7380 0.7373
2683.000000 0.7365 0.7358 0.7350 0.7342 0.7334
2688.000000 0.7327 0.7319 0.7312 0.7304 0.7297
2693.000000 0.7288 0.7279 0.7270 0.7262 0.7253
2698.000000 0.7244 0.7235 0.7227 0.7222 0.7218
2703.000000 0.7218 0.7218 0.7218 0.7219 0.7223
2708.000000 0.7227 0.7231 0.7236 0.7251 0.7266
2713.000000 0.7282 0.7298 0.7312 0.7326 0.7337
2718.000000 0.7348 0.7351 0.7355 0.7355 0.7356
2723.000000 0.7354 0.7353 0.7351 0.7349 0.7347
2728.000000 0.7346 0.7342 0.7339 0.7332 0.7326
2733.000000 0.7319 0.7313 0.7306 0.7300 0.7294
2738.000000 0.7288 0.7282 0.7276 0.7270 0.7264
2743.000000 0.7258 0.7252 0.7246 0.7240 0.7234
2748.000000 0.7228 0.7221 0.7215 0.7208 0.7202
2753.000000 0.7196 0.7190 0.7184 0.7179 0.7174
2758.000000 0.7170 0.7166 0.7162 0.7158 0.7154
2763.000000 0.7150 0.7146 0.7145 0.7144 0.7145
2768.000000 0.7146 0.7147 0.7148 0.7149 0.7150
2773.000000 0.7149 0.7149 0.7145 0.7142 0.7138
2778.000000 0.7135 0.7128 0.7122 0.7110 0.7098
2783.000000 0.7091 0.7084 0.7080 0.7077 0.7074
2788.000000 0.7071 0.7072 0.7073 0.7074 0.7075
2793.000000 0.7076 0.7078 0.7079 0.7080 0.7081
2798.000000 0.7082 0.7081 0.7080 0.7079 0.7078
2803.000000 0.7077 0.7076 0.7074 0.7073 0.7070
2808.000000 0.7068 0.7064 0.7060 0.7056 0.7053
2813.000000 0.7049 0.7045 0.7041 0.7037 0.7033
2818.000000 0.7029 0.7020 0.7012 0.7001 0.6991
2823.000000 0.6980 0.6970 0.6958 0.6946 0.6933
2828.000000 0.6920 0.6907 0.6895 0.6882 0.6870
2833.000000 0.6844 0.6819 0.6789 0.6759 0.6729
2838.000000 0.6699 0.6670 0.6641 0.6611 0.6582
2843.000000 0.6543 0.6505 0.6462 0.6420 0.6390
2848.000000 0.6360 0.6320 0.6281 0.6214 0.6148
2853.000000 0.6081 0.6014 0.5947 0.5880 0.5813
2858.000000 0.5747 0.5731 0.5715 0.5718 0.5715
2863.000000 0.5769 0.5817 0.5917 0.6018 0.6118
2868.000000 0.6219 0.6316 0.6414 0.6439 0.6465
2873.000000 0.6493 0.6522 0.6554 0.6587 0.6613
2878.000000 0.6639 0.6654 0.6670 0.6674 0.6678
2883.000000 0.6682 0.6685 0.6687 0.6689 0.6689
2888.000000 0.6689 0.6686 0.6684 0.6680 0.6676
2893.000000 0.6672 0.6669 0.6665 0.6662 0.6658
2898.000000 0.6655 0.6651 0.6648 0.6644 0.6640
2903.000000 0.6634 0.6629 0.6624 0.6619 0.6613
2908.000000 0.6607 0.6598 0.6590 0.6581 0.6572
2913.000000 0.6562 0.6552 0.6530 0.6509 0.6498
2918.000000 0.6488 0.6480 0.6472 0.6464 0.6456
2923.000000 0.6451 0.6447 0.6445 0.6444 0.6443
2928.000000 0.6442 0.6440 0.6439 0.6437 0.6436
2933.000000 0.6434 0.6433 0.6427 0.6421 0.6387
2938.000000 0.6353 0.6299 0.6245 0.6244 0.6256
2943.000000 0.6243 0.6243 0.6244 0.6246 0.6247
2948.000000 0.6249 0.6255 0.6261 0.6268 0.6276
2953.000000 0.6284 0.6293 0.6304 0.6315 0.6322
2958.000000 0.6330 0.6334 0.6339 0.6343 0.6363
2963.000000 0.6351 0.6355 0.6337 0.6319 0.6301
2968.000000 0.6283 0.6265 0.6247 0.6227 0.6207
2973.000000 0.6199 0.6191 0.6188 0.6186 0.6216
2978.000000 0.6170 0.6296 0.6345 0.6394 0.6444
2983.000000 0.6486 0.6529 0.6530 0.6531 0.6530
2988.000000 0.6529 0.6523 0.6525 0.6505 0.6493
2993.000000 0.6482 0.6471 0.6460 0.6449 0.6439
2998.000000 0.6430 0.6421 0.6413 0.6405 0.6397
3003.000000 0.6388 0.6380 0.6371 0.6362 0.6353
3008.000000 0.6345 0.6333 0.6322 0.6302 0.6283
3013.000000 0.6258 0.6233 0.6203 0.6174 0.6139
3018.000000 0.6104 0.6039 0.5974 0.5903 0.5832
3023.000000 0.5800 0.5768 0.5794 0.5761 0.5860
3028.000000 0.5900 0.5939 0.5978 0.6014 0.6050
3033.000000 0.6045 0.6041 0.6037 0.6051 0.6021
3038.000000 0.6009 0.5994 0.5980 0.5971 0.5962
3043.000000 0.5957 0.5952 0.5953 0.5955 0.5956
3048.000000 0.5957 0.5958 0.5959 0.5908 0.5857
3053.000000 0.5800 0.5744 0.5687 0.5630 0.5573
3058.000000 0.5517 0.5460 0.5403 0.5396 0.5390
3063.000000 0.5398 0.5398 0.5464 0.5521 0.5578
3068.000000 0.5635 0.5652 0.5662 0.5624 0.5579
3073.000000 0.5491 0.5403 0.5314 0.5226 0.5137
3078.000000 0.5049 0.4997 0.4945 0.4967 0.4956
3083.000000 0.5075 0.5162 0.5249 0.5336 0.5422
3088.000000 0.5509 0.5540 0.5578 0.5520 0.5470
3093.000000 0.5420 0.5370 0.5320 0.5270 0.5219
3098.000000 0.5169 0.5119 0.5069 0.5018 0.4968
3103.000000 0.4918 0.4868 0.4838 0.4808 0.4844
3108.000000 0.4804 0.5029 0.5179 0.5328 0.5478
3113.000000 0.5627 0.5777 0.5928 0.6079 0.6144
3118.000000 0.6210 0.6222 0.6235 0.6247 0.6259
3123.000000 0.6268 0.6278 0.6284 0.6290 0.6296
3128.000000 0.6302 0.6308 0.6314 0.6315 0.6313
3133.000000 0.6316 0.6317 0.6316 0.6316 0.6312
3138.000000 0.6309 0.6305 0.6302 0.6298 0.6294
3143.000000 0.6290 0.6287 0.6283 0.6280 0.6276
3148.000000 0.6273 0.6269 0.6266 0.6262 0.6259
3153.000000 0.6255 0.6251 0.6248 0.6246 0.6244
3158.000000 0.6242 0.6240 0.6239 0.6237 0.6236
3163.000000 0.6235 0.6234 0.6233 0.6233 0.6231
3168.000000 0.6230 0.6228 0.6227 0.6225 0.6224
3173.000000 0.6222 0.6221 0.6219 0.6218 0.6216
3178.000000 0.6215 0.6210 0.6206 0.6200 0.6195
3183.000000 0.6190 0.6185 0.6179 0.6174 0.6168
3188.000000 0.6163 0.6158 0.6153 0.6148 0.6143
3193.000000 0.6138 0.6134 0.6129 0.6125 0.6120
3198.000000 0.6116 0.6111 0.6106 0.6101 0.6097
3203.000000 0.6094 0.6091 0.6091 0.6092 0.6092
3208.000000 0.6093 0.6093 0.6094 0.6095 0.6096
3213.000000 0.6098 0.6101 0.6103 0.6106 0.6109
3218.000000 0.6112 0.6113 0.6115 0.6115 0.6115
3223.000000 0.6115 0.6115 0.6115 0.6115 0.6115
3228.000000 0.6116 0.6114 0.6113 0.6111 0.6109
3233.000000 0.6107 0.6105 0.6103 0.6101 0.6098
3238.000000 0.6096 0.6094 0.6092 0.6090 0.6088
3243.000000 0.6084 0.6081 0.6077 0.6073 0.6069
3248.000000 0.6066 0.6062 0.6059 0.6055 0.6052
3253.000000 0.6048 0.6045 0.6041 0.6038 0.6034
3258.000000 0.6031 0.6027 0.6024 0.6019 0.6015
3263.000000 0.6010 0.6005 0.6000 0.5995 0.5990
3268.000000 0.5985 0.5980 0.5975 0.5970 0.5965
3273.000000 0.5960 0.5955 0.5950 0.5945 0.5940
3278.000000 0.5935 0.5930 0.5926 0.5921 0.5916
3283.000000 0.5910 0.5905 0.5899 0.5894 0.5888
3288.000000 0.5883 0.5877 0.5871 0.5865 0.5860
3293.000000 0.5854 0.5849 0.5843 0.5838 0.5832
3298.000000 0.5827 0.5821 0.5816 0.5810 0.5805
3303.000000 0.5799 0.5794 0.5788 0.5783 0.5777
3308.000000 0.5772 0.5766 0.5760 0.5754 0.5748
3313.000000 0.5742 0.5736 0.5730 0.5724 0.5718
3318.000000 0.5712 0.5706 0.5700 0.5694 0.5688
3323.000000 0.5682 0.5676 0.5670 0.5664 0.5658
3328.000000 0.5653 0.5647 0.5641 0.5635 0.5629
3333.000000 0.5623 0.5618 0.5612 0.5606 0.5600
3338.000000 0.5594 0.5588 0.5583 0.5577 0.5571
3343.000000 0.5565 0.5559 0.5553 0.5548 0.5542
3348.000000 0.5536 0.5530 0.5525 0.5519 0.5513
3353.000000 0.5507 0.5501 0.5494 0.5487 0.5479
3358.000000 0.5472 0.5464 0.5457 0.5449 0.5442
3363.000000 0.5434 0.5427 0.5419 0.5412 0.5404
3368.000000 0.5397 0.5389 0.5382 0.5375 0.5368
3373.000000 0.5360 0.5353 0.5346 0.5339 0.5334
3378.000000 0.5329 0.5324 0.5319 0.5314 0.5309
3383.000000 0.5304 0.5299 0.5294 0.5289 0.5284
3388.000000 0.5279 0.5274 0.5269 0.5264 0.5259
3393.000000 0.5254 0.5249 0.5244 0.5239 0.5234
3398.000000 0.5229 0.5225 0.5222 0.5219 0.5216
3403.000000 0.5213 0.5210 0.5207 0.5205 0.5202
3408.000000 0.5199 0.5196 0.5193 0.5190 0.5187
3413.000000 0.5184 0.5181 0.5178 0.5175 0.5172
3418.000000 0.5169 0.5168 0.5167 0.5165 0.5164
3423.000000 0.5163 0.5162 0.5160 0.5159 0.5158
3428.000000 0.5157 0.5156 0.5155 0.5153 0.5149
3433.000000 0.5151 0.5150 0.5148 0.5147 0.5146
3438.000000 0.5145 0.5144 0.5143 0.5141 0.5140
3443.000000 0.5140 0.5140 0.5141 0.5142 0.5142
3448.000000 0.5143 0.5143 0.5144 0.5144 0.5145
3453.000000 0.5146 0.5147 0.5147 0.5148 0.5148
3458.000000 0.5149 0.5149 0.5150 0.5151 0.5152
3463.000000 0.5152 0.5153 0.5154 0.5156 0.5157
3468.000000 0.5159 0.5160 0.5161 0.5162 0.5164
3473.000000 0.5165 0.5167 0.5168 0.5170 0.5171
3478.000000 0.5173 0.5174 0.5176 0.5177 0.5179
3483.000000 0.5180 0.5182 0.5183 0.5184 0.5185
3488.000000 0.5187 0.5188 0.5189 0.5189 0.5189
3493.000000 0.5189 0.5189 0.5188 0.5188 0.5188
3498.000000 0.5188 0.5188 0.5188 0.5188 0.5188
3503.000000 0.5188 0.5188 0.5188 0.5188 0.5188
3508.000000 0.5188 0.5188 0.5188 0.5188 0.5188
3513.000000 0.5188 0.5189 0.5189 0.5190 0.5190
3518.000000 0.5191 0.5191 0.5191 0.5191 0.5192
3523.000000 0.5192 0.5193 0.5194 0.5196 0.5198
3528.000000 0.5200 0.5202 0.5205 0.5207 0.5210
3533.000000 0.5212 0.5215 0.5217 0.5219 0.5221
3538.000000 0.5224 0.5226 0.5229 0.5231 0.5234
3543.000000 0.5236 0.5239 0.5241 0.5243 0.5246
3548.000000 0.5249 0.5252 0.5255 0.5258 0.5261
3553.000000 0.5264 0.5267 0.5270 0.5273 0.5278
3558.000000 0.5284 0.5290 0.5296 0.5302 0.5309
3563.000000 0.5315 0.5321 0.5327 0.5333 0.5339
3568.000000 0.5345 0.5349 0.5353 0.5357 0.5362
3573.000000 0.5366 0.5370 0.5374 0.5379 0.5383
3578.000000 0.5387 0.5389 0.5392 0.5393 0.5394
3583.000000 0.5394 0.5395 0.5395 0.5396 0.5396
3588.000000 0.5397 0.5398 0.5399 0.5399 0.5400
3593.000000 0.5400 0.5401 0.5401 0.5402 0.5403
3598.000000 0.5404 0.5404 0.5405 0.5405 0.5406
3603.000000 0.5406 0.5407 0.5408 0.5409 0.5409
3608.000000 0.5410 0.5409 0.5409 0.5408 0.5408
3613.000000 0.5407 0.5407 0.5407 0.5407 0.5406
3618.000000 0.5406 0.5405 0.5405 0.5404 0.5404
3623.000000 0.5403 0.5403 0.5402 0.5402 0.5401
3628.000000 0.5401 0.5400 0.5399 0.5397 0.5396
3633.000000 0.5394 0.5393 0.5391 0.5390 0.5388
3638.000000 0.5387 0.5385 0.5384 0.5382 0.5381
3643.000000 0.5379 0.5404 0.5376 0.5375 0.5374
3648.000000 0.5374 0.5373 0.5372 0.5371 0.5371
3653.000000 0.5370 0.5369 0.5368 0.5368 0.5367
3658.000000 0.5366 0.5365 0.5365 0.5364 0.5363
3663.000000 0.5362 0.5362 0.5361 0.5360 0.5359
3668.000000 0.5359 0.5358 0.5357 0.5356 0.5356
3673.000000 0.5355 0.5354 0.5353 0.5352 0.5351
3678.000000 0.5350 0.5349 0.5348 0.5347 0.5346
3683.000000 0.5344 0.5343 0.5342 0.5341 0.5340
3688.000000 0.5339 0.5338 0.5337 0.5336 0.5335
3693.000000 0.5334 0.5333 0.5332 0.5331 0.5330
3698.000000 0.5329 0.5328 0.5327 0.5326 0.5325
3703.000000 0.5324 0.5323 0.5322 0.5321 0.5320
3708.000000 0.5319 0.5318 0.5317 0.5316 0.5315
3713.000000 0.5313 0.5312 0.5310 0.5309 0.5307
3718.000000 0.5306 0.5304 0.5303 0.5301 0.5300
3723.000000 0.5298 0.5296 0.5294 0.5293 0.5291
3728.000000 0.5290 0.5288 0.5287 0.5285 0.5284
3733.000000 0.5282 0.5281 0.5279 0.5277 0.5275
3738.000000 0.5274 0.5272 0.5270 0.5268 0.5267
3743.000000 0.5265 0.5263 0.5261 0.5260 0.5258
3748.000000 0.5256 0.5254 0.5253 0.5251 0.5249
3753.000000 0.5247 0.5246 0.5244 0.5242 0.5240
3758.000000 0.5239 0.5237 0.5235 0.5233 0.5232
3763.000000 0.5230 0.5229 0.5227 0.5226 0.5224
3768.000000 0.5223 0.5221 0.5219 0.5217 0.5216
3773.000000 0.5214 0.5213 0.5211 0.5210 0.5208
3778.000000 0.5207 0.5205 0.5204 0.5202 0.5201
3783.000000 0.5201 0.5201 0.5201 0.5202 0.5202
3788.000000 0.5202 0.5202 0.5202 0.5202 0.5202
3793.000000 0.5202 0.5203 0.5203 0.5203 0.5203
3798.000000 0.5203 0.5203 0.5203 0.5203 0.5204
3803.000000 0.5204 0.5205 0.5205 0.5206 0.5206
3808.000000 0.5207 0.5207 0.5207 0.5207 0.5208
3813.000000 0.5208 0.5209 0.5209 0.5210 0.5210
3818.000000 0.5211 0.5211 0.5212 0.5212 0.5213
3823.000000 0.5213 0.5214 0.5211 0.5209 0.5206
3828.000000 0.5203 0.5200 0.5197 0.5193 0.5190
3833.000000 0.5187 0.5184 0.5181 0.5178 0.5174
3838.000000 0.5171 0.5168 0.5165 0.5161 0.5158
3843.000000 0.5155 0.5152 0.5149 0.5146 0.5142
3848.000000 0.5138 0.5132 0.5126 0.5119 0.5113
3853.000000 0.5107 0.5101 0.5094 0.5088 0.5082
3858.000000 0.5076 0.5069 0.5063 0.5057 0.5052
3863.000000 0.5046 0.5040 0.5034 0.5029 0.5023
3868.000000 0.5017 0.5011 0.5006 0.5000 0.4994
3873.000000 0.4988 0.4983 0.4977 0.4971 0.4968
3878.000000 0.4966 0.4963 0.4960 0.4957 0.4955
3883.000000 0.4952 0.4949 0.4946 0.4943 0.4942
3888.000000 0.4941 0.4942 0.4943 0.4944 0.4945
3893.000000 0.4946 0.4948 0.4947 0.4946 0.4944
3898.000000 0.4942 0.4940 0.4939 0.4937 0.4935
3903.000000 0.4933 0.4931 0.4929 0.4928 0.4926
3908.000000 0.4924 0.4922 0.4920 0.4919 0.4918
##END=
