##TITLE=Ethylbenzene
##JCAMP-DX=4.24
##DATA TYPE=INFRARED SPECTRUM
##CLASS=IUPAC A
##ORIGIN=NIST, Analytical Chemistry Division, 301-975-3108
##OWNER=COPYRIGHT (C) 2001 by the U.S. Secretary of Commerce
##DATE=01/06/01
##$SPECTRA VERSION=1.10
##$UNCERTAINTY IN Y=2.1 % relative (B=1.13E-04,C=1.09E-9,D=2.34E-14)
##CAS NAME=Ethylbenzene
##CAS REGISTRY NO=100-41-4
##MOLFORM=C6 H5 C2 H5
##MP=-94.97 C
##BP=136.2 C
##$NIST SOURCE=QUANT-IR
##SPECTROMETER/DATA SYSTEM=IFS66V (Bruker)
##INSTRUMENT PARAMETERS=KBr Beam Splitter; MCT Detector; Multipass cell
##STATE=gas
##SAMPLE DESCRIPTION=Ethylbenzene Primary Gas Standard
##PRESSURE=101.3 Pa
##TEMPERATURE=23 C
##SAMPLING PROCEDURE=1 L/min Flow
##RESOLUTION=1.9290
##DATA PROCESSING=3-Term B-H Apodization
##XUNITS=cm-1
##YUNITS=(micromol/mol)-1m-1 (base 10)
##XFACTOR=1.0
##YFACTOR=4.5474E-13
##DELTAX=0.9645
##FIRSTX=575.652
##LASTX=3974.606
##FIRSTY=4.33E-06
##MAXX=3973.64
##MINX=575.65
##MAXY=.0004479
##MINY=-4.23E-07
##NPOINTS=3526
##XYDATA=(X++(Y..Y))
575.65 9539352 8720252 8578768 7912486 6266929 4399753
580.47 3330603 2966164 2978499 2833560 2419979 2164703
586.26 1928189 1627056 1510939 1279795 946591 467689
592.04 90730-244541-524104-559064-573095-386268
597.83 213816 620430 421528-433227-889688-802008
603.62-832480-657039-277289-155586-67800 24685
609.40-45922 49614 130570-198469-577406-674234
615.19-523354-425102-115333 184102-2724-378091
620.97-280043-4816 258917 715115 1153510 1552714
626.76 2081982 1830668 1025735 741045 883058 1040194
632.54 1254963 1330672 1247792 1352037 1537354 1108146
638.33 571972 379310 264067 118882 189400 256454
644.11 93356-164590-222884-247954-314839-207912
649.90-27138-132601-196652 96839 598586 827043
655.68 784602 701821 769520 975234 1429468 1904385
661.47 2474006 3216682 3936657 4903165 6370183 7827905
667.26 9755895 12487374 16043160 20484152 25722264 31949732
673.04 39382593 48167751 58874899 71359194 85728372 101741896
678.83 119380020 138898349 160121900 182518457 205800113 229289901
684.61 252956505 278254239 305735234 328922975 343450933 356716683
690.40 375640741 400139413 430247120 467793552 527420924 635778661
696.18 736478642 685599948 531052328 441543646 418487020 407874659
701.97 398320043 388796613 380105881 372102511 360101879 341014647
707.75 319517012 299723124 280566339 261674714 243425170 226021503
713.54 209981267 196312847 185220376 176761355 171020363 167734567
719.32 166454975 167192800 169520352 172985149 177120768 181554094
725.11 185776813 189690714 193663238 197783449 202115713 206717347
730.90 211293195 216281065 222206749 228857976 235952927 243426624
736.68 250345149 255989695 260193910 262396059 262629639 263014260
742.47 263051857 262958467 262146915 257772898 253983501 253417128
748.25 257668410 277503798 297116758 281412794 249437496 229148214
754.04 217846367 208731420 198950533 190506256 183231403 176237868
759.82 169189108 162276011 155683104 149301526 142988071 137057793
765.61 131735140 127345873 124259145 122805091 125217954 133517025
771.39 134986191 117972264 98265626 89147344 85332005 82154831
777.18 79088386 76314549 73553148 70655608 67674580 64722804
782.96 61587221 58277088 54865185 51406648 47984689 44735767
788.75 41629264 38638746 35731955 33175420 31087756 29337303
794.53 27917669 26694055 25212840 23599647 22095414 20843890
800.32 19739950 18703921 17538246 16155135 14904174 14132210
806.11 13486810 12597424 11668620 10943323 10287922 9624293
811.89 8849137 8174098 7682634 7240004 6655639 5994574
817.68 5503111 5170717 4824084 4599598 4384609 4203154
823.46 4032518 3616115 3016073 2620212 2607532 2721579
829.25 2460699 2028790 1733455 1557068 1371823 1171953
835.03 1037638 1105021 1147360 964839 770124 533540
840.82 272768 288215 435793 374758 156825-35180
846.60-192736-204200-114936-191791-358288-341112
852.39-308595-435978-653585-753068-716868-592690
858.17-406614-212972-296566-547967-537509-258019
863.96-77933-38798 84914 333695 636960 1004829
869.75 1320604 1520231 1687699 2113167 2791257 3307356
875.53 3587035 3969823 4457503 5051864 5698297 6247979
881.32 6753616 7375729 8195557 9088028 9822732 10625481
887.10 11548810 12432804 13215686 13770450 14213322 14680659
892.89 15141419 15635353 16036820 16381024 16893517 17765664
898.67 19131303 21353823 25828055 34122927 38789123 31477359
904.46 21872506 18521491 17811646 17236200 16796492 16391461
910.24 15662760 14652390 13748427 12952292 11989731 10862461
916.03 9512437 8116451 6911185 5796895 4660531 3623990
921.81 2793342 2154539 1614539 1079101 562606 224522
927.60 54337 22271 50806-6641-153466-206152
933.39-228678-248279-180643-126509-153843-102522
939.17-44794-26726 25765 152235 410412 790282
944.96 1153508 1473320 1898852 2582297 3537110 4742996
950.74 6275351 8264114 10519740 12966240 15713014 18538135
956.53 20834697 22281855 23041118 23709715 25023676 27169737
962.31 28753221 27927022 26098340 25995997 27293605 28424275
968.10 28580006 27566114 25465728 22678202 19790157 17177715
973.88 14886133 12891728 11194335 9851755 8735133 7805843
979.67 6877442 5768828 4876592 4446992 4215188 3993462
985.45 3849088 3882264 3956057 3956680 4052665 4286217
991.24 4518126 4710396 4860780 5087306 5405600 5814422
997.03 6387453 7068196 7657752 7989500 8015131 7957608
1002.81 8121925 8708631 9339151 9538505 9546011 9743802
1008.60 10192613 10893663 11787312 12798601 13976586 15409057
1014.38 17198489 19513345 22403926 25944907 30424045 35968785
1020.17 42297730 49131060 56095975 62093189 65902811 67217958
1025.95 66380958 64443267 64256995 69310583 76186368 77285250
1031.74 74442313 72554844 72003258 71838594 70708472 68241730
1037.52 64944073 61326871 57678839 54137392 50617528 47271759
1043.31 44378977 42007453 40175408 38702645 37344717 36322565
1049.09 35836965 35884868 36494269 37944307 40669885 44783870
1054.88 49733517 54760230 59237168 62608115 64109846 63092718
1060.67 60108765 57934500 60905715 68059366 67998261 58036713
1066.45 52466563 55805369 60259877 61277572 58338209 52528840
1072.24 45437576 38490871 32569614 28089337 25131556 23457646
1078.02 22819005 22929694 23344409 23908291 24507689 24925769
1083.81 25008237 24689813 23885031 22808993 21969108 21953474
1089.59 23099510 24888148 26240828 26619050 26348936 25927180
1095.38 25317511 24473733 23690020 23089073 22655513 22411963
1101.16 22199563 21804730 21044467 19866846 18291565 16662455
1106.95 15568336 15192978 15285298 15621642 15825598 15731749
1112.73 15495364 15000040 14104174 13126110 12161257 11158390
1118.52 10279653 9485155 8631960 7813154 7132073 6501800
1124.31 5880631 5382613 4933743 4507616 4121004 3730600
1130.09 3455795 3436063 3339568 3048059 2815972 2695931
1135.88 2534981 2298950 2094682 1962782 1837479 1724013
1141.66 1638548 1598567 1472859 1253967 1175952 1267478
1147.45 1339188 1371980 1299358 1139023 1009067 852237
1153.23 608849 382704 263095 287388 365253 419157
1159.02 457899 472383 412641 284457 133045 42265
1164.80-1441-48598-56647-35345-34799-36164
1170.59-20968-2366-44846-28960 79472 188493
1176.37 389473 599066 586121 532212 606043 742157
1182.16 903478 1042041 1171483 1359018 1424586 1381791
1187.95 1448156 1647673 1825970 1966165 2145238 2334943
1193.73 2477044 2563007 2569862 2548250 2601592 2720398
1199.52 2773954 2777485 2747384 2679417 2650939 2695095
1205.30 2745944 2690311 2406651 2000068 1724520 1608566
1211.09 1450697 1163434 866970 658277 472013 346429
1216.87 316166 334806 333717 276957 187503 110124
1222.66 80612 101914 189773 402782 737692 1177922
1228.44 1646562 2090962 2567625 3132646 3650108 3968380
1234.23 4060194 4017814 4017631 4228350 4657203 5107091
1240.01 5227188 5017327 4996254 5315061 5590299 5652005
1245.80 5551920 5329165 4959600 4611840 4389092 4195788
1251.59 3992614 3805888 3725262 3785662 3881893 3889917
1257.37 3775110 3637494 3591121 3638990 3684736 3696129
1263.16 3617865 3505001 3484789 3535071 3608338 3643342
1268.94 3568565 3394745 3234132 3258404 3434528 3589292
1274.73 3692837 3902235 4260865 4635813 4933302 5204032
1280.51 5439948 5648820 5908018 6197644 6459171 6792120
1286.30 7235068 7678459 8040105 8412146 8891927 9389568
1292.08 9849559 10244686 10477089 10685088 11023352 11320470
1297.87 11531708 11789864 11993584 12187534 12418557 12619153
1303.65 12892071 13213199 13457904 13619843 13707522 13874029
1309.44 14285845 14970146 15834769 16810416 18075341 19678812
1315.23 21455960 23474053 25764120 28218795 30842501 33706636
1321.01 36786966 39931324 42897660 44786330 45208533 45283828
1326.80 45730260 46496216 47120816 47034775 46259125 45019669
1332.58 43439019 42057385 40886949 39312957 37081413 34307703
1338.37 31241177 28116252 25050214 22210129 19799502 17861131
1344.15 16145856 14626947 13402856 12363495 11454870 10631512
1349.94 9699307 8902472 8477835 8166452 7870006 7731409
1355.72 7805639 7816081 7795383 7969954 8346940 8892353
1361.51 9590027 10591904 11706953 12831218 14189295 15654402
1367.29 17067443 18528598 20105359 21791322 23491209 25038585
1373.08 26521007 28025891 29312542 31188701 35498947 40942630
1378.87 44110042 44142476 41664877 38699164 36992369 36368533
1384.65 36063218 35610074 35003701 34234103 33159723 31778139
1390.44 30109892 28197029 26135649 24141933 22472507 21083774
1396.22 19764001 18447706 17197920 16094916 15162447 14348414
1402.01 13589778 12972406 12587981 12356865 12171238 12027824
1407.79 11918757 11951794 12114856 12284715 12486492 12761720
1413.58 12998702 13185077 13375133 13563200 13647823 13914960
1419.36 14679009 15527301 16186913 16727597 17180253 17680425
1425.15 18296832 19015177 19803826 20664268 21653813 22896183
1430.93 24451823 26295480 28435930 30911937 33649130 36925240
1436.72 41130698 45959940 51188650 57010627 63551035 70932399
1442.51 79176373 88142146 97702845 107864734 118600820 129872661
1448.29 141051105 150813501 158651521 164702494 168635497 170227578
1454.08 170377593 172040357 178619878 188232833 193255682 190079200
1459.86 183975376 181786223 184121600 186464844 185016959 179522476
1465.65 171809467 163687946 155901905 149034545 143546935 136808674
1471.43 124288337 109552417 100076958 94694466 89572793 83846815
1477.22 77788470 71994005 66979760 63100916 60622067 59733223
1483.00 60680486 63760101 69229243 77371936 88597027 103008143
1488.79 120133818 139349469 159912691 180311037 197733365 207196708
1494.57 204830731 195701377 192190884 203924632 222010391 219131854
1500.36 195606351 181243420 183830505 190674383 192044041 183767023
1506.15 166038060 141976229 115485079 90199145 68513348 51410333
1511.93 38926874 30235406 24209043 20083168 17423002 15994002
1517.72 15150042 14107123 13024553 12626261 12862424 13209759
1523.50 13315451 13216001 13258401 13416317 13538545 13636018
1529.29 13584275 13259553 12649115 11864410 11125335 10596066
1535.07 10296437 10341345 10547685 10702684 10951334 11002435
1540.86 10587671 10158835 9724627 9064785 8595713 8407649
1546.64 8222283 8034551 7875230 7760132 7688743 7609426
1552.43 7412125 7250631 7314708 7258927 6750940 6241210
1558.21 6191816 6391701 6703048 6957878 7058020 7099812
1564.00 7159152 7253112 7222142 7103829 6959448 6909698
1569.79 7140930 7484725 7786795 8117246 8332078 8301451
1575.57 8699212 9757495 10763531 11504892 12148816 12823321
1581.36 13591404 14490628 15608426 17032898 18791969 20939471
1587.14 23441135 26150948 28810231 31196417 33324015 35490919
1592.93 37957652 40866880 44519092 49298821 55657618 63699129
1598.71 72008930 80324055 90237411 100889880 109984646 116148313
1604.50 118769280 118042662 115170680 112105826 111011309 112456258
1610.28 112421973 106397568 98508655 95401684 95313050 93330288
1616.07 87849433 79225501 68263647 56547832 45506036 35861545
1621.85 27870362 21708563 17275906 14029131 11558206 9758132
1627.64 8557029 7738758 7085850 6596098 6286285 6042934
1633.43 5577090 5055786 5070300 5344156 5482393 5581975
1639.21 5629916 5679901 5818360 6060448 6286780 6299908
1645.00 6341095 6795733 7361947 7788508 8081234 8116532
1650.78 7626995 7080305 7412612 8287825 8650818 8424413
1656.57 8099829 7926049 7899033 7977391 7997903 7772258
1662.35 7506704 7371438 7232637 7070154 6872680 6547047
1668.14 6208619 6125824 6070705 5848490 5617400 5434849
1673.92 5368280 5473024 5390313 5014057 4736557 4660258
1679.71 4623226 4467960 4028972 3279056 2572817 2496668
1685.49 2702075 2628109 2393445 2205949 2101006 2022057
1691.28 1976286 1941211 1730743 1196190 980171 1411477
1697.07 1666546 1398498 1028445 1208757 1650894 1705451
1702.85 1568575 1511498 1506374 1600449 1771067 1853218
1708.64 1828923 1844135 1922628 1969470 1964628 1924575
1714.42 1958008 2015363 2015343 2286848 2804644 3313791
1720.21 3753468 4199603 4668847 5150162 5703530 6338380
1725.99 6986067 7667765 8491134 9463433 10465760 11355766
1731.78 11989472 12484580 13187236 13955648 14250795 14019807
1737.56 13347582 12305934 11513119 11465387 12157997 13314966
1743.35 14283257 14524866 14020678 13041252 11865617 10684143
1749.13 9476647 8288770 7384065 6624054 5809465 5100251
1754.92 4442570 3779530 3236256 2819578 2470576 2066853
1760.71 1624261 1361578 1259741 1190250 1141921 1141032
1766.49 1154293 1302394 1646382 1949385 2099455 2179492
1772.28 2372174 2586340 2552980 2424275 2603303 3221326
1778.06 3625099 3377096 3249296 3772678 4608871 5463672
1783.85 6399229 7692894 9366532 11360247 13718286 16374409
1789.63 19100276 21594995 23653294 25259281 26148293 26206044
1795.42 26336191 27833176 30539288 31891553 29687499 26966605
1801.20 27325282 29346040 30687856 30175002 27453160 23669034
1806.99 20432075 18075166 16137567 14380445 12739673 11185570
1812.77 9757628 8450703 7254464 6316772 5841433 5868769
1818.56 6148532 6333409 6281490 6022948 5574702 4970991
1824.35 4382268 3918752 3491586 3051289 2642450 2347758
1830.13 2184172 2023496 1835583 1698450 1658696 1658018
1835.92 1660561 1699093 1764163 1856201 2006283 2247200
1841.70 2481303 2652914 3028867 3675898 4330560 4986084
1847.49 5740828 6555403 7412319 8363752 9511627 10911195
1853.27 12481564 14088725 15627142 17040330 18295185 19276681
1859.06 19811088 19815561 19246491 18144664 16884633 16273901
1864.84 17177292 19588685 22284300 24120209 25045428 25531386
1870.63 25894046 26233383 26487308 26455810 25896248 24763658
1876.41 23195750 21455952 20528967 21321107 21709830 18879503
1882.20 15433583 15001147 16350360 17140160 16638060 14984769
1887.99 12573351 9926801 7497676 5491403 3990882 2948427
1893.77 2193228 1680001 1383989 1156172 977799 938679
1899.56 925664 845757 816945 871854 921421 929334
1905.34 930047 1008195 1116907 1184776 1241641 1343821
1911.13 1508723 1735190 2020120 2355239 2715418 3060057
1916.91 3412414 3901673 4506547 5142181 5842627 6616202
1922.70 7502525 8519946 9560892 10659843 11956585 13526344
1928.48 15333093 17287143 19316000 21286648 23070696 24502217
1934.27 25435641 25791729 25464216 24453495 22913770 21331930
1940.05 20636076 21710012 24519147 27688448 29753915 30541753
1945.84 30636220 30428549 30005528 29456685 28839244 28008667
1951.63 26893358 25533834 23936403 22192222 20903916 20940847
1957.41 20977405 18345013 15047946 14545778 15676646 16178199
1963.20 15344211 13379645 10800977 8169795 5861931 4002352
1968.98 2615675 1683014 1129489 897928 840980 689360
1974.77 469055 454117 589350 686390 737237 839662
1980.55 1007720 1169958 1260646 1288332 1214714 1013039
1986.34 842022 852297 897813 820456 686859 662427
1992.12 756093 780183 658672 508138 421129 362256
1997.91 298734 243377 168184 118178 53205-55269
2003.69-102183-87929-61224-26763-17921 1213
2009.48 4761-3945 25284 98305 197288 281628
2015.27 336113 415138 542177 685811 781378 820544
2021.05 844671 888482 994646 1083379 1063928 1057383
2026.84 1107019 1190479 1280699 1307906 1298971 1242671
2032.62 1057952 889894 858885 878595 851108 758279
2038.41 649342 565623 508201 459181 366085 241566
2044.19 159690 88407-46520-181679-236171-283396
2049.98-400305-529551-626268-653731-605536-518538
2055.76-509991-613178-729559-781994-796951-832605
2061.55-863172-864527-855368-841162-868550-921132
2067.33-930201-863644-772778-785250-887819-930273
2073.12-904318-861059-830421-821338-827843-829188
2078.91-836874-836963-790092-743946-720256-693182
2084.69-673975-685091-681128-590150-490464-485701
2090.48-521560-538673-528454-480636-459464-450961
2096.26-391415-316897-284053-277744-293318-313375
2102.05-324464-367414-430667-448316-415513-362353
2107.83-339864-364118-374030-344123-354318-379266
2113.62-361740-307833-245403-159714-103109-88969
2119.40-70514-32462 33828 102223 150901 172796
2125.19 162305 154751 157369 109981 54643 69391
2130.97 114290 182668 209271 129624 5427-90112
2136.76-134103-114474-52318-54038-112173-150999
2142.55-144937-99046-69657-54323-29622-34405
2148.33-52392-13381 7469-36103-54823-30165
2154.12-12487 10563 14102-15102-24628-9266
2159.90-881 27776 113266 175743 165144 142809
2165.69 144112 180759 218956 227887 209542 170643
2171.47 132794 163791 231238 231493 184607 216728
2177.26 312351 335236 280374 240222 209103 177733
2183.04 203726 229151 203419 199295 250269 283750
2188.83 240613 144023 71256 76099 111818 119538
2194.61 79506 41349 56133 69356 76299 118883
2200.40 170157 249092 301401 274172 275464 377383
2206.19 529267 636867 633791 662272 746047 798410
2211.97 879839 962233 1006939 1022900 1022496 1082342
2217.76 1156098 1181130 1213110 1237827 1259301 1282684
2223.54 1276780 1267104 1256167 1241631 1232475 1273407
2229.33 1359879 1416280 1425724 1426194 1472523 1528641
2235.11 1516064 1496257 1502764 1487366 1466900 1463265
2240.90 1439791 1401273 1395282 1406387 1390434 1366287
2246.68 1352538 1324258 1250057 1187617 1160807 1147248
2252.47 1124772 1080390 1045185 1029631 1107963 1257857
2258.25 1302351 1251984 1253644 1312526 1399144 1517281
2264.04 1540799 1506203 1580992 1676511 1722756 1801326
2269.83 1952598 2094904 2103101 2078111 2176816 2285794
2275.61 2302628 2327661 2364410 2398067 2443513 2454842
2281.40 2474637 2498110 2462494 2410325 2354070 2288303
2287.18 2252063 2267438 2293898 2280736 2199757 2073474
2292.97 1965840 1884174 1801409 1706096 1596040 1508743
2298.75 1475731 1512070 1533324 1565805 1725695 1988060
2304.54 2347886 2782959 3169006 3452181 3650743 3632794
2310.32 3319009 2931631 2868921 3495425 4132857 3787820
2316.11 3179201 3203157 3521700 3809168 3853294 3675748
2321.89 3428815 3135722 2824156 2614635 2523949 2545603
2327.68 2675483 2905243 3132562 3358491 3583920 3741771
2333.47 3824096 3878723 3997173 4221305 4465747 4687190
2339.25 4820344 4769244 4605449 4510066 4511298 4540662
2345.04 4552981 4577048 4570177 4437016 4144208 3794236
2350.82 3440500 3096632 2834301 2580479 2272459 2038845
2356.61 1942363 1861920 1736856 1606511 1540693 1539102
2362.39 1517176 1429056 1312101 1272664 1342435 1467856
2368.18 1634222 1826215 1947527 1948581 1871232 1861992
2373.96 1920242 1896348 1793036 1715401 1653129 1621488
2379.75 1665832 1674056 1607909 1515407 1416789 1324744
2385.53 1204558 1080936 1002191 910356 772336 721528
2391.32 750859 709272 623041 552025 525241 561286
2397.11 593450 617250 650086 702771 756673 767748
2402.89 764301 826157 953166 1097098 1193304 1214172
2408.68 1256386 1347598 1417921 1476839 1525920 1539181
2414.46 1545187 1653917 1735035 1599127 1488739 1561462
2420.25 1617839 1591404 1569941 1554530 1523704 1561609
2426.03 1653231 1736407 1842152 2005440 2154159 2253922
2431.82 2354289 2478437 2573743 2666263 2776640 2915133
2437.60 3086054 3107902 2940051 2785598 2699424 2614886
2443.39 2557302 2567963 2524974 2298615 1970875 1705604
2449.17 1502015 1328816 1186094 1017643 853209 746877
2454.96 640334 516119 426375 402299 380867 331521
2460.75 317625 358173 394885 395113 369082 322333
2466.53 271400 279903 308298 296667 320868 402981
2472.32 440756 393728 392264 501276 540496 438386
2478.10 349785 388993 460808 482656 505790 523155
2483.89 530618 530810 533855 600598 664583 704432
2489.67 744988 756134 754661 770499 788034 766010
2495.46 711143 698315 752242 831387 868533 864638
2501.24 902956 976259 1011409 1017284 1036166 1089075
2507.03 1145204 1150275 1137104 1131911 1148532 1148942
2512.81 1145146 1212795 1297806 1324662 1306297 1325131
2518.60 1392958 1500448 1564427 1496271 1441381 1497725
2524.39 1593901 1749301 1893839 1943962 1948689 1965008
2530.17 1978317 1971487 1978536 2013643 2024014 1978160
2535.96 1941814 1927804 1896763 1857510 1823256 1745348
2541.74 1636883 1571286 1548638 1572986 1568935 1520890
2547.53 1547635 1620370 1601050 1484416 1420417 1445838
2553.31 1484998 1541395 1562718 1520236 1503617 1529430
2559.10 1590583 1612331 1526245 1451412 1462754 1481868
2564.88 1484316 1539097 1635297 1653451 1567967 1473676
2570.67 1459130 1506041 1557912 1554711 1466575 1448053
2576.45 1484200 1500430 1574818 1683707 1719437 1671706
2582.24 1637664 1680758 1712506 1653738 1647392 1803226
2588.03 2004010 2121711 2145283 2187121 2305586 2421142
2593.81 2490032 2513872 2545709 2603805 2664748 2801187
2599.60 2980636 3155473 3311499 3449370 3631931 3824093
2605.38 3909644 3927427 4004775 4034189 3978199 3965353
2611.17 4004754 4014345 3984549 3940081 3916138 3925401
2616.95 3905849 3876227 3829906 3847998 3919633 3972007
2622.74 4077856 4223387 4356474 4462241 4606713 4912582
2628.52 5285841 5537616 5709032 5952249 6285716 6616832
2634.31 6876100 7043860 7113342 7147005 7179333 7183961
2640.09 7154693 7091245 6956497 6810018 6672377 6534657
2645.88 6418086 6215991 5875429 5472977 5017301 4553812
2651.67 4168992 3924252 3755298 3542897 3248001 2945860
2657.45 2727467 2614367 2498267 2304601 2073660 1903034
2663.24 1850657 1773191 1682468 1711815 1732299 1707149
2669.02 1668940 1641285 1672795 1672616 1607138 1530697
2674.81 1495354 1519910 1516408 1472285 1432553 1407280
2680.59 1454411 1520089 1479213 1378376 1323598 1332379
2686.38 1294986 1286473 1467312 1664004 1738532 1845788
2692.16 1990506 2151933 2354312 2516248 2629963 2772664
2697.95 2883259 2936270 3074894 3297403 3470462 3557196
2703.73 3521789 3431032 3467428 3516734 3364287 3124625
2709.52 2938651 2785483 2655402 2529707 2467827 2464097
2715.31 2377496 2289396 2278404 2248161 2244148 2387884
2721.09 2542842 2569306 2593885 2746364 3022221 3418376
2726.88 3845686 4213666 4533939 4848873 5194652 5504494
2732.66 5796257 6353461 7190413 7778489 7726367 7409389
2738.45 7358129 7493066 7644523 7761133 7684768 7458543
2744.23 7258432 7099927 6873930 6578661 6268908 5984749
2750.02 5771287 5615396 5421776 5279869 5267897 5234409
2755.80 5173594 5212341 5340536 5477428 5632096 5792810
2761.59 5951512 6167403 6380296 6557350 6728009 6866039
2767.37 7051875 7343679 7609373 7891542 8268261 8621802
2773.16 8916493 9274690 9716924 10109125 10427648 10791345
2778.95 11191426 11563847 11886468 12155608 12496092 12864277
2784.73 13110394 13237726 13325976 13498247 13647286 13669817
2790.52 13715157 13751544 13609878 13343368 13043720 12733214
2796.30 12575140 12513510 12248292 11862404 11550903 11291745
2802.09 11045476 10833968 10738666 10675280 10560128 10562137
2807.87 10678109 10823217 10976347 11107259 11287720 11579095
2813.66 11920722 12254775 12589927 13004801 13515807 14073559
2819.44 14654324 15243975 15779094 16365367 17086071 17829915
2825.23 18592345 19484928 20429302 21275389 22035062 22766754
2831.01 23435184 24001604 24535240 25222142 26163400 27257443
2836.80 28417577 29563047 30670813 31744606 32674204 33491708
2842.59 34335599 35287408 36394012 37694125 39031968 40273319
2848.37 41734461 43763275 46212675 48848408 51708714 54913709
2854.16 58431411 62147879 66208506 70860339 76147388 82045612
2859.94 88556662 95676006 103427686 111961275 121324984 131261464
2865.73 141284089 151346346 161786145 172440634 182894136 193085564
2871.51 203113136 213588007 225453670 239866133 257423739 273736369
2877.30 281333831 282011821 283830692 288196222 291690096 293682397
2883.08 300421676 314159352 321503738 314671245 301164819 287133437
2888.87 275256958 267110933 261356004 255791692 249578577 242885885
2894.65 235992869 228855033 221847900 215625877 210452792 206669634
2900.44 204460724 203749829 204466414 205740201 206308386 205312174
2906.23 202485286 198579339 195378179 194550066 195701096 196495021
2912.01 195641659 193355957 190042243 186217972 182371703 178773339
2917.80 175867253 174184825 174196463 176002162 179254375 183832402
2923.58 190171341 198441109 208173517 218930560 230804575 244028264
2929.37 258452114 273944567 290782479 308953500 328052848 347719130
2935.15 367138276 384645812 399612559 414574145 436636760 471640940
2940.94 501284191 496541388 469565161 448824401 437819692 432479117
2946.72 429925243 426240971 418486381 403906279 385629166 371088523
2952.51 359308456 345512309 329457114 313429314 299941073 291625436
2958.29 290408873 297629896 315228994 345618022 390213686 450065566
2964.08 524947078 611407549 703221487 790453496 860288067 901382656
2969.87 909854805 900916085 913576917 961336946 985145298 948180226
2975.65 905847232 904288307 925363089 934646288 913013382 857488279
2981.44 775901970 680528160 583236237 493133768 415273809 350896179
2987.22 299140123 258036388 225268663 198889563 177465791 159900228
2993.01 145397422 133346055 123292749 114920151 108055266 102794448
2998.79 99314869 97419771 96579495 96424470 96783506 97351404
3004.58 97652316 97488569 97219712 97515900 99432366 103103320
3010.36 106205478 106968067 107826134 111715707 118342745 125993801
3016.15 133480923 140604302 148056234 156879644 168190595 182925312
3021.93 201650761 224666815 251878894 282713083 316381255 351625888
3027.72 386612098 418966525 445586216 463308194 470275897 468145646
3033.51 464799972 471947490 493249062 515311503 523532488 520911906
3039.29 516482277 511368323 501684084 483561616 457159302 425924142
3045.08 392808751 359062252 325154625 291874863 260558897 232491165
3050.86 208371671 188298416 172282439 160197762 151834998 147122714
3056.65 145778443 147222028 151225771 158150232 168739146 182399027
3062.43 197403630 214041256 233717103 255080910 275099743 291043895
3068.22 300689282 303665424 303751190 308214744 323608061 347920342
3074.00 358695713 338593015 315520828 316688384 331091733 341695035
3079.79 341624013 330766523 312337606 290254895 268765196 251021974
3085.57 237399865 226887972 218150029 209776756 201075820 192022662
3091.36 182570701 172979583 164219879 157621757 154213108 154161740
3097.15 155667589 155769818 152954310 147684254 140915754 133434002
3102.93 125826484 118456303 111658117 105699715 100529282 95946425
3108.72 91797022 87917934 84043664 80084352 76373661 73135978
3114.50 70084924 66877511 63782375 61097710 58652672 56360039
3120.29 54076303 51507670 48283313 44233292 39542489 34723326
3126.07 30208487 26082652 22392449 19278845 16783777 14848369
3131.86 13304632 12028641 11048893 10247727 9509106 8876531
3137.64 8379208 8081464 7837721 7552920 7307057 7150188
3143.43 7095227 7100881 7034226 6967842 7063936 7170138
3149.21 7139230 7108494 7133910 7161103 7172556 7183249
3155.00 7238929 7354146 7504604 7630670 7694659 7793542
3160.79 7965447 8200237 8464004 8722074 8959040 9123095
3166.57 9233405 9391593 9740679 10216021 10596504 10896415
3172.36 11263993 11770442 12296679 12662170 12881357 13011847
3178.14 13066947 13180433 13440397 13636659 13725808 13891867
3183.93 13895410 13574053 13150462 12655257 12006646 11449313
3189.71 11125772 10822946 10417986 9932514 9337033 8690892
3195.50 8056589 7389103 6676109 5939989 5238172 4626863
3201.28 4161720 3854655 3597881 3212658 2735451 2411675
3207.07 2197445 1954457 1745549 1700725 1709635 1654330
3212.85 1632768 1555804 1350490 1163986 1085274 1151475
3218.64 1241387 1211712 1118059 1010301 921504 953993
3224.43 1035533 997108 894426 864022 857415 831156
3230.21 780246 722229 771398 868133 840444 771558
3236.00 783766 846314 906078 968831 953613 809689
3241.78 761370 894277 1000247 1077700 1202385 1317107
3247.57 1387839 1470339 1561242 1482798 1357473 1397054
3253.35 1352058 1196647 1124310 1188739 1354557 1428080
3259.14 1390817 1400242 1426062 1404694 1372316 1401012
3264.92 1487896 1493863 1505279 1712724 1784096 1571390
3270.71 1504215 1554449 1485735 1526509 1593676 1494088
3276.49 1442612 1444204 1365929 1313206 1309984 1238471
3282.28 1158461 1117617 1038725 974257 954882 940296
3288.07 893108 921081 1004012 970440 930714 996448
3293.85 1047063 1034426 1014025 1042163 1058343 967195
3299.64 905348 952857 1047864 1196889 1230727 1061488
3305.42 888629 829959 790459 677400 528832 483425
3311.21 477369 392882 394269 474855 457647 365081
3316.99 212984 19754-112789-53262 94291 109232
3322.78 12020-91406-132430-63396 42532 119402
3328.56 173832 191450 118810 39390 21191 53434
3334.35 121283 75823-107738-176520-76108 49940
3340.13 75842 29195 60433 79142 56067 67353
3345.92 87957 164838 153312-43482-131086-10547
3351.71 90546 128786 151660 70749-100233-197660
3357.49-176083-182342-218111-86076 215742 342977
3363.28 162459-38603-64358-55891-103903-158157
3369.06-160787-73889-6808-29553-38627-93758
3374.85-193777-65613 214480 291702 233805 176924
3380.63 92944 47105 3412 33910 163892 206208
3386.42 137778 48710 51897 92002 61090-19487
3392.20-30574 135161 332708 314808 228443 161326
3397.99 59321 21296 36347-37512-47404 74433
3403.77 134173 73800-26339-99354-137004-114256
3409.56-20342 3567-174997-323815-273008-253255
3415.35-343501-332720-198103-99237-130057-201157
3421.13-243719-248067-222470-154705-59391-96083
3426.92-260541-244891-45674 67578 91109 91584
3432.70 68099 79399 164347 220777 225142 219178
3438.49 134187 24227 21027 108256 206896 295068
3444.27 387520 343658 149208 14558 22104 54119
3450.06-7682-108638-123036-105661-124337-153498
3455.84-200368-164481-145473-249930-359502-396913
3461.63-408465-396291-424281-479305-373408-291433
3467.41-464992-700667-680698-446519-306473-326203
3473.20-343573-331392-320989-357026-489925-554447
3478.99-451520-462690-625839-688301-561036-310444
3484.77-257653-467601-597178-600827-591017-701349
3490.56-856442-853147-781148-716717-638756-596531
3496.34-611215-570085-456130-391470-372901-353628
3502.13-399040-341891-176041-208256-374562-420646
3507.91-328424-298853-372825-370944-309804-253060
3513.70-57983 219763 385720 390388 311690 284713
3519.48 403691 605443 803091 911939 892171 851370
3525.27 831521 891157 1044960 1100329 992636 837906
3531.05 749470 771828 871815 902261 761203 615742
3536.84 459349 296294 285985 254400 86135-125075
3542.63-228176-187509-131574-125189-128479-108800
3548.41-148589-243967-239604-230881-344294-473343
3554.20-515458-402218-176651-113312-201049-233632
3559.98-318560-426911-370755-242888-154869-95769
3565.77-173693-326427-361022-330598-312524-321711
3571.55-385178-459778-467083-408593-329434-224525
3577.34-200653-330092-463887-508559-473311-389297
3583.12-276483-142364-68037-129373-343827-541313
3588.91-386729-126660-81565-114924-72947-1623
3594.69-19059-61303-25369 24807 53201 95054
3600.48 109935 893-138256-120920-104145-173510
3606.27-151563-185040-268498-116518 52556 110365
3612.05 211631 198901 77935 78776 197687 312528
3617.84 337653 398477 673807 937720 1023964 1070171
3623.62 1118073 1169755 1211571 1018796 693026 576012
3629.41 739481 1012128 1167346 1195615 1232909 1321824
3635.19 1361337 1341294 1302922 1259228 1228061 1196101
3640.98 1173996 1247983 1350617 1410265 1466554 1501314
3646.76 1544612 1587454 1710136 1963314 2246777 2596630
3652.55 2895748 2922524 2602193 2297853 2391395 2650669
3658.33 2780247 2831669 2889387 2890709 2751307 2560966
3664.12 2354476 2075406 1821039 1543290 1213649 870916
3669.91 719583 903998 982731 748898 406006 268186
3675.69 454627 712220 763808 731725 888143 1036042
3681.48 945502 822227 875132 999033 1033604 801257
3687.26 500157 666660 983063 1084875 1176208 1192593
3693.05 1178478 1281325 1306375 1183723 1178365 1329904
3698.83 1366552 1226159 1119126 1182824 1318774 1437839
3704.62 1465705 1359851 1246236 1192341 1254829 1359441
3710.40 1194504 1076664 1285875 1395305 1357362 1403391
3716.19 1523636 1585087 1585559 1575287 1486448 1354757
3721.97 1334022 1429214 1452071 1329177 1201928 1135298
3727.76 1069326 1058692 1007322 748310 618283 633424
3733.55 513910 420175 387942 452646 659030 835050
3739.33 797652 618761 571387 341375-222261-176634
3745.12 438733 660905 453970 179602 128130 65919
3750.90-133493 133494 548403 584386 509732 531485
3756.69 609306 588133 554758 663780 850956 933254
3762.47 897443 784063 602742 586270 739274 786307
3768.26 708951 696329 820732 932798 956866 912581
3774.04 854269 836483 881353 910086 844119 820554
3779.83 886268 926005 944209 897058 801194 738119
3785.61 799725 984989 1071950 922688 735099 648458
3791.40 677918 795946 857045 700082 462349 467105
3797.19 687404 825790 674988 368636 392492 626481
3802.97 716648 791305 716475 568987 758941 1016439
3808.76 1067092 1019059 946907 929977 948731 819750
3814.54 473520 479329 895333 1019789 864657 754191
3820.33 802860 963382 1008508 921602 907960 971360
3826.11 1042617 1157888 1247797 1186892 1063425 1108887
3831.90 1310170 1381337 1303468 1307820 1221839 994267
3837.68 1187717 1597823 1706510 1684093 1680427 1624578
3843.47 1637324 1728465 1751590 1711971 1609853 1443171
3849.25 1258146 927419 563132 192500-88757 265292
3855.04 759021 820107 705613 673845 730371 657594
3860.83 468648 413981 398965 327558 391856 428204
3866.61 377111 292721 113005 121658 316712 362143
3872.40 177434 19098 98517 131556 44763-50949
3878.18-205128-332562-250172-120376-165860-358532
3883.97-631306-710829-466803-237600-166738-228023
3889.75-337352-275683-144229-132116-149717-154287
3895.54-105118-23823-84998-225989-168089-32945
3901.32 104113 174394 120185 167288 317313 522074
3907.11 660127 668854 714242 813345 870510 861423
3912.89 826752 890178 1022362 1021826 1077688 1233658
3918.68 1283175 1309398 1418957 1590805 1747802 1829959
3924.47 1923289 2066831 2263537 2471122 2653802 2806325
3930.25 2837300 2842276 3012836 3255511 3447754 3565495
3936.04 3600243 3651411 3802298 3869027 3791857 3623737
3941.82 3473899 3454313 3440651 3378135 3306597 3174271
3947.61 2904708 2646870 2596612 2627439 2543109 2423385
3953.39 2350951 2244729 2118862 1978381 1829615 1786452
3959.18 1857800 1888851 1847319 1851609 1918091 1955765
3964.96 1996963 2056397 2129379 2241301 2361045 2402773
3970.75 2341467 2239481 2204385 2264362
##END=
