##TITLE=BENZALDEHYDE
##JCAMP-DX=4.24
##DATA TYPE=INFRARED SPECTRUM
##CLASS=COBLENTZ II
##ORIGIN=DOW CHEMICAL COMPANY
##OWNER=COBLENTZ SOCIETY
Collection (C) 2018 copyright by the U.S. Secretary of Commerce
on behalf of the United States of America. All rights reserved.
##DATE=1977/08/30
##CAS REGISTRY NO=100-52-7
##MOLFORM=C7 H6 O
##SOURCE REFERENCE=COBLENTZ NO. 10623
##$NIST SOURCE=COBLENTZ
##$NIST IMAGE=cob10623
##SPECTROMETER/DATA SYSTEM=PERKIN-ELMER 180
##STATE=SOLUTION (1% IN CCl4 FOR 3800-1330, 1% IN CS2 FOR 1330-450 CM^-^1) VS SOLVENT
##PATH LENGTH=0.011, 0.011 CM
$$ SPECTRAL FEATURE DUE TO CCl4 (COMPENSATED) AROUND 1545 CM^-^1
$$ SEE ALSO SPECTRUM NO. 10195 AND 10624
##SAMPLING PROCEDURE=TRANSMISSION
##RESOLUTION=4
##DATA PROCESSING=DIGITIZED BY NIST FROM HARD COPY (FROM TWO SEGMENTS)
##XUNITS=1/CM
##YUNITS=TRANSMITTANCE
##XFACTOR=1.000000
##YFACTOR=1
##DELTAX=1.181684
##FIRSTX=404.727
##LASTX=4010.04
##FIRSTY=0.81
##MAXX=4010.04
##MINX=404.727
##MAXY=0.983
##MINY=0.135013
##NPOINTS=3052
##XYDATA=(X++(Y..Y))
404.727000 0.8100 0.8190 0.8420 0.8520 0.8600
410.635419 0.8720 0.8760 0.8800 0.8830 0.8870
416.543837 0.8880 0.8920 0.8950 0.8980 0.8990
422.452256 0.9000 0.9000 0.9010 0.9010 0.9010
428.360674 0.9010 0.9010 0.9010 0.9000 0.8990
434.269093 0.8970 0.8950 0.8930 0.8900 0.8830
440.177511 0.8730 0.8660 0.8600 0.8520 0.8500
446.085930 0.8510 0.8570 0.8630 0.8690 0.8760
451.994348 0.8910 0.8920 0.9000 0.9040 0.9050
457.902767 0.9070 0.9090 0.9110 0.9120 0.9130
463.811185 0.9130 0.9130 0.9130 0.9130 0.9130
469.719604 0.9140 0.9140 0.9140 0.9140 0.9140
475.628022 0.9140 0.9140 0.9140 0.9140 0.9140
481.536441 0.9140 0.9140 0.9140 0.9140 0.9140
487.444859 0.9140 0.9140 0.9130 0.9130 0.9120
493.353278 0.9120 0.9120 0.9120 0.9130 0.9130
499.261696 0.9140 0.9140 0.9150 0.9150 0.9150
505.170115 0.9160 0.9160 0.9180 0.9180 0.9180
511.078533 0.9180 0.9190 0.9190 0.9180 0.9180
516.986952 0.9180 0.9160 0.9150 0.9150 0.9150
522.895370 0.9150 0.9150 0.9150 0.9150 0.9150
528.803789 0.9160 0.9160 0.9160 0.9160 0.9160
534.712207 0.9150 0.9150 0.9150 0.9160 0.9160
540.620626 0.9190 0.9190 0.9180 0.9160 0.9150
546.529044 0.9140 0.9130 0.9130 0.9130 0.9140
552.437463 0.9150 0.9150 0.9150 0.9160 0.9160
558.345881 0.9180 0.9180 0.9180 0.9180 0.9180
564.254300 0.9180 0.9180 0.9180 0.9180 0.9180
570.162719 0.9180 0.9190 0.9190 0.9190 0.9210
576.071137 0.9210 0.9220 0.9230 0.9250 0.9260
581.979556 0.9270 0.9280 0.9280 0.9290 0.9300
587.887974 0.9300 0.9300 0.9320 0.9330 0.9340
593.796393 0.9350 0.9350 0.9350 0.9360 0.9360
599.704811 0.9350 0.9340 0.9330 0.9290 0.9280
605.613230 0.9270 0.9260 0.9250 0.9220 0.9210
611.521648 0.9200 0.9200 0.9200 0.9200 0.9200
617.430067 0.9200 0.9200 0.9190 0.9160 0.9150
623.338485 0.9150 0.9130 0.9130 0.9120 0.9110
629.246904 0.9090 0.9080 0.9060 0.9040 0.9020
635.155322 0.9010 0.8990 0.8900 0.8811 0.8731
641.063741 0.8650 0.8440 0.8350 0.8250 0.7961
646.972159 0.7641 0.7341 0.7340 0.7618 0.7759
652.880578 0.8500 0.8610 0.8720 0.8810 0.8880
658.788996 0.8910 0.8930 0.8940 0.8970 0.8980
664.697415 0.8990 0.9000 0.9000 0.9010 0.9020
670.605833 0.9020 0.9010 0.9010 0.9000 0.8980
676.514252 0.8920 0.8850 0.8590 0.8370 0.8141
682.422670 0.7781 0.7531 0.7231 0.6703 0.6154
688.331089 0.6150 0.7129 0.7699 0.8508 0.8600
694.239507 0.8670 0.8720 0.8770 0.8790 0.8830
700.147926 0.8850 0.8880 0.8900 0.8910 0.8940
706.056344 0.8950 0.8980 0.8980 0.8990 0.9010
711.964763 0.9060 0.9110 0.9120 0.9120 0.9130
717.873181 0.9130 0.9120 0.9110 0.9090 0.9070
723.781600 0.9040 0.9020 0.9010 0.8990 0.8950
729.690019 0.8870 0.8721 0.8461 0.8400 0.8301
735.598437 0.8190 0.7690 0.6791 0.6261 0.5731
741.506856 0.5202 0.4662 0.4640 0.5445 0.5708
747.415274 0.6040 0.7199 0.8498 0.8600 0.8839
753.323693 0.8860 0.8900 0.8920 0.8990 0.9000
759.232111 0.9020 0.9060 0.9090 0.9120 0.9130
765.140530 0.9140 0.9160 0.9190 0.9200 0.9210
771.048948 0.9230 0.9250 0.9250 0.9260 0.9270
776.957367 0.9280 0.9290 0.9290 0.9280 0.9280
782.865785 0.9270 0.9280 0.9280 0.9290 0.9290
788.774204 0.9290 0.9290 0.9300 0.9300 0.9300
794.682622 0.9300 0.9300 0.9290 0.9280 0.9260
800.591041 0.9230 0.9210 0.9190 0.9160 0.9140
806.499459 0.9120 0.9110 0.9110 0.9110 0.9110
812.407878 0.9090 0.9090 0.9080 0.9040 0.9010
818.316296 0.8980 0.8900 0.8740 0.8391 0.8280
824.224715 0.8160 0.7782 0.7193 0.6802 0.6422
830.133133 0.6400 0.8029 0.8849 0.8920 0.9010
836.041552 0.9080 0.9110 0.9140 0.9160 0.9180
841.949970 0.9190 0.9190 0.9190 0.9190 0.9200
847.858389 0.9200 0.9200 0.9200 0.9210 0.9210
853.766807 0.9210 0.9220 0.9220 0.9230 0.9230
859.675226 0.9250 0.9270 0.9280 0.9290 0.9290
865.583644 0.9290 0.9300 0.9320 0.9320 0.9330
871.492063 0.9330 0.9330 0.9330 0.9330 0.9340
877.400481 0.9340 0.9350 0.9360 0.9380 0.9380
883.308900 0.9380 0.9380 0.9380 0.9360 0.9360
889.217319 0.9360 0.9360 0.9360 0.9360 0.9350
895.125737 0.9350 0.9350 0.9340 0.9330 0.9320
901.034156 0.9320 0.9320 0.9320 0.9320 0.9300
906.942574 0.9300 0.9300 0.9290 0.9290 0.9230
912.850993 0.9220 0.9210 0.9180 0.9160 0.9180
918.759411 0.9200 0.9230 0.9260 0.9280 0.9320
924.667830 0.9330 0.9330 0.9330 0.9330 0.9330
930.576248 0.9340 0.9340 0.9350 0.9360 0.9360
936.484667 0.9360 0.9360 0.9360 0.9380 0.9380
942.393085 0.9380 0.9380 0.9380 0.9380 0.9380
948.301504 0.9380 0.9380 0.9380 0.9380 0.9380
954.209922 0.9380 0.9380 0.9380 0.9380 0.9360
960.118341 0.9360 0.9360 0.9360 0.9360 0.9360
966.026759 0.9360 0.9360 0.9360 0.9380 0.9380
971.935178 0.9380 0.9380 0.9380 0.9380 0.9380
977.843596 0.9360 0.9360 0.9360 0.9360 0.9350
983.752015 0.9350 0.9350 0.9340 0.9340 0.9340
989.660433 0.9330 0.9330 0.9330 0.9330 0.9320
995.568852 0.9300 0.9290 0.9250 0.9190 0.9110
1001.477270 0.9190 0.9280 0.9320 0.9350 0.9360
1007.385689 0.9360 0.9360 0.9350 0.9340 0.9330
1013.294107 0.9330 0.9290 0.9270 0.9210 0.9121
1019.202526 0.9090 0.9110 0.9160 0.9270 0.9290
1025.110944 0.9350 0.9380 0.9400 0.9410 0.9430
1031.019363 0.9450 0.9460 0.9470 0.9470 0.9480
1036.927781 0.9490 0.9490 0.9470 0.9470 0.9460
1042.836200 0.9450 0.9430 0.9430 0.9410 0.9410
1048.744619 0.9410 0.9420 0.9430 0.9450 0.9450
1054.653037 0.9450 0.9450 0.9430 0.9420 0.9400
1060.561456 0.9380 0.9330 0.9280 0.9210 0.9150
1066.469874 0.9080 0.9050 0.9050 0.9090 0.9120
1072.378293 0.9250 0.9290 0.9320 0.9330 0.9330
1078.286711 0.9350 0.9350 0.9360 0.9360 0.9380
1084.195130 0.9380 0.9390 0.9390 0.9390 0.9390
1090.103548 0.9390 0.9390 0.9390 0.9390 0.9390
1096.011967 0.9390 0.9390 0.9400 0.9400 0.9420
1101.920385 0.9430 0.9470 0.9480 0.9480 0.9480
1107.828804 0.9470 0.9470 0.9460 0.9450 0.9450
1113.737222 0.9430 0.9420 0.9420 0.9410 0.9410
1119.645641 0.9400 0.9390 0.9380 0.9380 0.9390
1125.554059 0.9390 0.9400 0.9410 0.9410 0.9410
1131.462478 0.9400 0.9390 0.9390 0.9390 0.9390
1137.370896 0.9390 0.9390 0.9380 0.9380 0.9360
1143.279315 0.9350 0.9340 0.9340 0.9320 0.9320
1149.187733 0.9280 0.9230 0.9190 0.9140 0.9060
1155.096152 0.8970 0.8861 0.8761 0.8651 0.8362
1161.004570 0.8090 0.7820 0.7820 0.8499 0.8739
1166.912989 0.9049 0.9209 0.9319 0.9410 0.9480
1172.821407 0.9490 0.9500 0.9520 0.9520 0.9520
1178.729826 0.9500 0.9500 0.9500 0.9500 0.9520
1184.638244 0.9520 0.9500 0.9490 0.9470 0.9390
1190.546663 0.9260 0.9021 0.8851 0.8562 0.8371
1196.455081 0.8170 0.7550 0.6691 0.5822 0.4943
1202.363500 0.4761 0.5148 0.6901 0.8898 0.9138
1208.271919 0.9380 0.9420 0.9490 0.9530 0.9550
1214.180337 0.9560 0.9570 0.9590 0.9590 0.9600
1220.088756 0.9600 0.9600 0.9590 0.9590 0.9570
1225.997174 0.9560 0.9540 0.9530 0.9520 0.9500
1231.905593 0.9490 0.9480 0.9470 0.9460 0.9450
1237.814011 0.9410 0.9390 0.9360 0.9340 0.9330
1243.722430 0.9330 0.9320 0.9320 0.9320 0.9300
1249.630848 0.9290 0.9290 0.9290 0.9280 0.9280
1255.539267 0.9270 0.9260 0.9250 0.9230 0.9230
1261.447685 0.9220 0.9220 0.9210 0.9200 0.9180
1267.356104 0.9150 0.9140 0.9120 0.9090 0.9080
1273.264522 0.9020 0.9010 0.9000 0.8970 0.8930
1279.172941 0.8920 0.8930 0.8950 0.8980 0.9010
1285.081359 0.9020 0.9050 0.9060 0.9070 0.9080
1290.989778 0.9080 0.9080 0.9080 0.9080 0.9070
1296.898196 0.9050 0.9000 0.8930 0.8582 0.8431
1302.806615 0.8260 0.8020 0.7960 0.7491 0.7490
1308.715033 0.8117 0.8657 0.8988 0.9000 0.9020
1314.623452 0.9080 0.9090 0.9130 0.9140 0.9150
1320.531870 0.9160 0.9180 0.9180 0.9160 0.9160
1326.440289 0.9160 0.9160 0.9150 0.9150 0.9140
1332.348707 0.9140 0.9130 0.9120 0.9130 0.9150
1338.257126 0.9180 0.9200 0.9210 0.9230 0.9230
1344.165544 0.9250 0.9250 0.9230 0.9230 0.9250
1350.073963 0.9260 0.9270 0.9270 0.9280 0.9280
1355.982381 0.9280 0.9280 0.9270 0.9260 0.9260
1361.890800 0.9260 0.9250 0.9250 0.9250 0.9230
1367.799219 0.9230 0.9210 0.9200 0.9190 0.9190
1373.707637 0.9160 0.9150 0.9140 0.9120 0.9090
1379.616056 0.9020 0.9000 0.8910 0.8801 0.8701
1385.524474 0.8640 0.8640 0.8730 0.8880 0.8990
1391.432893 0.9060 0.9130 0.9150 0.9160 0.9180
1397.341311 0.9180 0.9160 0.9150 0.9140 0.9140
1403.249730 0.9130 0.9130 0.9120 0.9120 0.9110
1409.158148 0.9090 0.9090 0.9090 0.9080 0.9070
1415.066567 0.9070 0.9060 0.9060 0.9040 0.9020
1420.974985 0.9020 0.9010 0.9000 0.8990 0.8980
1426.883404 0.8980 0.8990 0.8990 0.9000 0.9000
1432.791822 0.9020 0.9050 0.9070 0.9080 0.9090
1438.700241 0.9090 0.9090 0.9090 0.9080 0.9080
1444.608659 0.9060 0.9050 0.9010 0.8870 0.8701
1450.517078 0.8640 0.8511 0.8301 0.8091 0.8011
1456.425496 0.8010 0.8530 0.8880 0.9010 0.9120
1462.333915 0.9180 0.9190 0.9200 0.9210 0.9220
1468.242333 0.9220 0.9230 0.9230 0.9250 0.9250
1474.150752 0.9250 0.9260 0.9260 0.9270 0.9270
1480.059170 0.9280 0.9280 0.9290 0.9290 0.9300
1485.967589 0.9300 0.9320 0.9320 0.9320 0.9320
1491.876007 0.9330 0.9330 0.9340 0.9350 0.9390
1497.784426 0.9390 0.9410 0.9420 0.9430 0.9450
1503.692844 0.9460 0.9470 0.9480 0.9490 0.9500
1509.601263 0.9520 0.9530 0.9530 0.9540 0.9550
1515.509681 0.9550 0.9570 0.9570 0.9570 0.9570
1521.418100 0.9570 0.9570 0.9570 0.9590 0.9590
1527.326519 0.9600 0.9600 0.9610 0.9610 0.9620
1533.234937 0.9630 0.9640 0.9680 0.9690 0.9700
1539.143356 0.9750 0.9780 0.9800 0.9810 0.9810
1545.051774 0.9820 0.9820 0.9830 0.9830 0.9820
1550.960193 0.9800 0.9770 0.9750 0.9740 0.9730
1556.868611 0.9730 0.9690 0.9640 0.9610 0.9600
1562.777030 0.9590 0.9590 0.9570 0.9550 0.9530
1568.685448 0.9530 0.9490 0.9490 0.9470 0.9420
1574.593867 0.9410 0.9390 0.9320 0.9260 0.9091
1580.502285 0.8881 0.8631 0.8531 0.8431 0.8360
1586.410704 0.8290 0.8150 0.8150 0.8489 0.8630
1592.319122 0.8610 0.8471 0.8390 0.8301 0.8082
1598.227541 0.7890 0.7890 0.8090 0.8330 0.8390
1604.135959 0.8450 0.8460 0.8490 0.8500 0.8520
1610.044378 0.8640 0.8760 0.8940 0.8980 0.9000
1615.952796 0.9010 0.9020 0.9020 0.9060 0.9080
1621.861215 0.9110 0.9120 0.9130 0.9130 0.9130
1627.769633 0.9130 0.9120 0.9110 0.9090 0.9080
1633.678052 0.9070 0.9070 0.9060 0.9050 0.9050
1639.586470 0.9040 0.9040 0.9020 0.9020 0.9010
1645.494889 0.9000 0.8980 0.8950 0.8920 0.8870
1651.403307 0.8810 0.8760 0.8720 0.8740 0.8780
1657.311726 0.8810 0.8870 0.8910 0.8980 0.9000
1663.220144 0.9010 0.9010 0.9010 0.9010 0.9000
1669.128563 0.8990 0.8990 0.8980 0.8980 0.8970
1675.036981 0.8970 0.8980 0.8990 0.8990 0.8990
1680.945400 0.8990 0.8980 0.8970 0.8930 0.8910
1686.853819 0.8880 0.8830 0.8800 0.8710 0.8611
1692.762237 0.8450 0.8360 0.8310 0.8250 0.8100
1698.670656 0.8010 0.7761 0.7501 0.6993 0.6632
1704.579074 0.6250 0.5251 0.4241 0.3232 0.2313
1710.487493 0.1383 0.1350 0.1708 0.2048 0.2388
1716.395911 0.3710 0.4320 0.5358 0.6807 0.7388
1722.304330 0.7729 0.8039 0.8149 0.8220 0.8379
1728.212748 0.8430 0.8510 0.8580 0.8630 0.8690
1734.121167 0.8700 0.8720 0.8780 0.8800 0.8840
1740.029585 0.8850 0.8860 0.8870 0.8880 0.8900
1745.938004 0.8920 0.8940 0.8980 0.8990 0.9020
1751.846422 0.9090 0.9110 0.9120 0.9130 0.9130
1757.754841 0.9130 0.9140 0.9140 0.9140 0.9140
1763.663259 0.9140 0.9140 0.9140 0.9130 0.9130
1769.571678 0.9120 0.9110 0.9110 0.9090 0.9090
1775.480096 0.9080 0.9070 0.9070 0.9080 0.9080
1781.388515 0.9090 0.9120 0.9150 0.9190 0.9200
1787.296933 0.9200 0.9220 0.9220 0.9250 0.9250
1793.205352 0.9250 0.9260 0.9270 0.9270 0.9260
1799.113770 0.9250 0.9230 0.9220 0.9210 0.9200
1805.022189 0.9190 0.9190 0.9180 0.9160 0.9160
1810.930607 0.9150 0.9150 0.9140 0.9140 0.9140
1816.839026 0.9150 0.9150 0.9180 0.9190 0.9200
1822.747444 0.9210 0.9210 0.9220 0.9220 0.9220
1828.655863 0.9220 0.9220 0.9230 0.9230 0.9230
1834.564281 0.9230 0.9250 0.9250 0.9270 0.9280
1840.472700 0.9290 0.9320 0.9320 0.9300 0.9300
1846.381119 0.9300 0.9300 0.9290 0.9290 0.9290
1852.289537 0.9290 0.9300 0.9300 0.9320 0.9320
1858.197956 0.9320 0.9320 0.9330 0.9330 0.9330
1864.106374 0.9330 0.9330 0.9330 0.9330 0.9330
1870.014793 0.9330 0.9330 0.9330 0.9330 0.9330
1875.923211 0.9320 0.9300 0.9300 0.9290 0.9290
1881.831630 0.9280 0.9270 0.9260 0.9230 0.9220
1887.740048 0.9210 0.9210 0.9210 0.9220 0.9220
1893.648467 0.9250 0.9250 0.9270 0.9270 0.9280
1899.556885 0.9280 0.9280 0.9280 0.9280 0.9280
1905.465304 0.9280 0.9270 0.9270 0.9270 0.9280
1911.373722 0.9280 0.9290 0.9290 0.9290 0.9290
1917.282141 0.9290 0.9290 0.9290 0.9290 0.9280
1923.190559 0.9280 0.9280 0.9280 0.9280 0.9280
1929.098978 0.9280 0.9280 0.9290 0.9290 0.9300
1935.007396 0.9300 0.9300 0.9320 0.9320 0.9320
1940.915815 0.9320 0.9300 0.9300 0.9300 0.9300
1946.824233 0.9300 0.9300 0.9290 0.9290 0.9280
1952.732652 0.9280 0.9270 0.9260 0.9260 0.9250
1958.641070 0.9230 0.9230 0.9220 0.9220 0.9230
1964.549489 0.9250 0.9250 0.9260 0.9270 0.9280
1970.457907 0.9280 0.9270 0.9270 0.9260 0.9250
1976.366326 0.9230 0.9220 0.9220 0.9230 0.9230
1982.274744 0.9260 0.9260 0.9270 0.9280 0.9290
1988.183163 0.9300 0.9300 0.9320 0.9340 0.9350
1994.091581 0.9360 0.9380 0.9380 0.9380 0.9360
2000.000000 0.9350 0.9345 0.9340 0.9340 0.9340
2005.908419 0.9340 0.9340 0.9345 0.9350 0.9355
2011.816837 0.9360 0.9370 0.9380 0.9380 0.9380
2017.725256 0.9370 0.9360 0.9355 0.9350 0.9339
2023.633674 0.9330 0.9325 0.9319 0.9309 0.9301
2029.542093 0.9311 0.9320 0.9325 0.9330 0.9335
2035.450511 0.9340 0.9345 0.9351 0.9356 0.9360
2041.358930 0.9360 0.9360 0.9360 0.9360 0.9360
2047.267348 0.9360 0.9360 0.9362 0.9372 0.9380
2053.175767 0.9380 0.9380 0.9380 0.9380 0.9380
2059.084185 0.9380 0.9380 0.9380 0.9380 0.9380
2064.992604 0.9380 0.9380 0.9380 0.9380 0.9380
2070.901022 0.9380 0.9380 0.9380 0.9380 0.9380
2076.809441 0.9380 0.9381 0.9386 0.9389 0.9384
2082.717859 0.9380 0.9380 0.9380 0.9380 0.9377
2088.626278 0.9367 0.9360 0.9360 0.9360 0.9360
2094.534696 0.9359 0.9354 0.9350 0.9350 0.9350
2100.443115 0.9350 0.9350 0.9350 0.9350 0.9350
2106.351533 0.9350 0.9350 0.9350 0.9350 0.9350
2112.259952 0.9350 0.9350 0.9350 0.9350 0.9350
2118.168370 0.9350 0.9350 0.9350 0.9350 0.9348
2124.076789 0.9343 0.9340 0.9340 0.9340 0.9340
2129.985207 0.9340 0.9340 0.9340 0.9340 0.9340
2135.893626 0.9340 0.9340 0.9340 0.9340 0.9340
2141.802044 0.9338 0.9333 0.9330 0.9330 0.9330
2147.710463 0.9330 0.9330 0.9330 0.9332 0.9337
2153.618881 0.9340 0.9340 0.9340 0.9340 0.9342
2159.527300 0.9347 0.9350 0.9350 0.9350 0.9350
2165.435719 0.9350 0.9350 0.9350 0.9350 0.9350
2171.344137 0.9350 0.9350 0.9350 0.9350 0.9350
2177.252556 0.9347 0.9342 0.9340 0.9340 0.9340
2183.160974 0.9340 0.9340 0.9340 0.9343 0.9348
2189.069393 0.9350 0.9350 0.9350 0.9350 0.9347
2194.977811 0.9342 0.9340 0.9340 0.9337 0.9332
2200.886230 0.9330 0.9330 0.9330 0.9330 0.9330
2206.794648 0.9330 0.9330 0.9330 0.9330 0.9330
2212.703067 0.9327 0.9322 0.9320 0.9320 0.9320
2218.611485 0.9320 0.9320 0.9320 0.9320 0.9320
2224.519904 0.9320 0.9320 0.9320 0.9320 0.9320
2230.428322 0.9320 0.9320 0.9320 0.9324 0.9329
2236.336741 0.9330 0.9330 0.9330 0.9330 0.9330
2242.245159 0.9330 0.9330 0.9330 0.9330 0.9330
2248.153578 0.9330 0.9330 0.9330 0.9330 0.9330
2254.061996 0.9330 0.9334 0.9339 0.9340 0.9340
2259.970415 0.9340 0.9340 0.9344 0.9349 0.9350
2265.878833 0.9350 0.9350 0.9350 0.9350 0.9350
2271.787252 0.9350 0.9350 0.9350 0.9350 0.9350
2277.695670 0.9350 0.9350 0.9350 0.9350 0.9350
2283.604089 0.9350 0.9350 0.9346 0.9341 0.9340
2289.512507 0.9340 0.9336 0.9331 0.9326 0.9321
2295.420926 0.9311 0.9301 0.9300 0.9300 0.9318
2301.329344 0.9338 0.9340 0.9340 0.9340 0.9340
2307.237763 0.9340 0.9340 0.9335 0.9330 0.9330
2313.146181 0.9330 0.9311 0.9291 0.9285 0.9280
2319.054600 0.9275 0.9270 0.9275 0.9280 0.9280
2324.963019 0.9280 0.9275 0.9270 0.9250 0.9230
2330.871437 0.9210 0.9190 0.9185 0.9180 0.9190
2336.779856 0.9200 0.9216 0.9231 0.9266 0.9300
2342.688274 0.9310 0.9320 0.9320 0.9320 0.9325
2348.596693 0.9330 0.9330 0.9330 0.9330 0.9330
2354.505111 0.9330 0.9330 0.9325 0.9320 0.9320
2360.413530 0.9320 0.9320 0.9320 0.9320 0.9320
2366.321948 0.9320 0.9320 0.9320 0.9320 0.9320
2372.230367 0.9320 0.9320 0.9321 0.9326 0.9331
2378.138785 0.9336 0.9340 0.9340 0.9340 0.9340
2384.047204 0.9340 0.9340 0.9339 0.9334 0.9327
2389.955622 0.9312 0.9300 0.9300 0.9300 0.9300
2395.864041 0.9299 0.9294 0.9290 0.9290 0.9290
2401.772459 0.9290 0.9290 0.9290 0.9291 0.9296
2407.680878 0.9300 0.9300 0.9303 0.9313 0.9321
2413.589296 0.9326 0.9330 0.9330 0.9330 0.9330
2419.497715 0.9330 0.9330 0.9330 0.9330 0.9328
2425.406133 0.9323 0.9320 0.9320 0.9320 0.9320
2431.314552 0.9320 0.9320 0.9320 0.9320 0.9322
2437.222970 0.9327 0.9330 0.9330 0.9328 0.9323
2443.131389 0.9317 0.9307 0.9300 0.9300 0.9300
2449.039807 0.9300 0.9300 0.9300 0.9300 0.9300
2454.948226 0.9304 0.9314 0.9320 0.9320 0.9320
2460.856644 0.9320 0.9320 0.9320 0.9320 0.9320
2466.765063 0.9320 0.9320 0.9320 0.9320 0.9315
2472.673481 0.9305 0.9300 0.9300 0.9300 0.9300
2478.581900 0.9300 0.9300 0.9305 0.9315 0.9320
2484.490319 0.9320 0.9320 0.9320 0.9315 0.9305
2490.398737 0.9298 0.9293 0.9290 0.9290 0.9290
2496.307156 0.9290 0.9290 0.9290 0.9290 0.9290
2502.215574 0.9293 0.9298 0.9300 0.9300 0.9300
2508.123993 0.9300 0.9300 0.9300 0.9300 0.9300
2514.032411 0.9300 0.9300 0.9300 0.9300 0.9300
2519.940830 0.9300 0.9300 0.9300 0.9300 0.9300
2525.849248 0.9300 0.9300 0.9297 0.9292 0.9290
2531.757667 0.9290 0.9287 0.9282 0.9280 0.9280
2537.666085 0.9277 0.9272 0.9270 0.9270 0.9270
2543.574504 0.9270 0.9270 0.9270 0.9273 0.9278
2549.482922 0.9280 0.9280 0.9283 0.9288 0.9287
2555.391341 0.9282 0.9284 0.9289 0.9290 0.9290
2561.299759 0.9294 0.9299 0.9300 0.9300 0.9300
2567.208178 0.9300 0.9300 0.9300 0.9296 0.9291
2573.116596 0.9290 0.9290 0.9286 0.9281 0.9276
2579.025015 0.9271 0.9270 0.9270 0.9266 0.9261
2584.933433 0.9264 0.9269 0.9270 0.9270 0.9274
2590.841852 0.9279 0.9280 0.9280 0.9284 0.9289
2596.750270 0.9290 0.9290 0.9290 0.9290 0.9290
2602.658689 0.9290 0.9286 0.9281 0.9280 0.9280
2608.567107 0.9276 0.9271 0.9266 0.9261 0.9256
2614.475526 0.9251 0.9250 0.9250 0.9259 0.9269
2620.383944 0.9275 0.9280 0.9280 0.9280 0.9285
2626.292363 0.9290 0.9290 0.9290 0.9290 0.9290
2632.200781 0.9285 0.9280 0.9280 0.9280 0.9275
2638.109200 0.9270 0.9270 0.9270 0.9270 0.9270
2644.017619 0.9265 0.9260 0.9265 0.9270 0.9270
2649.926037 0.9270 0.9270 0.9270 0.9265 0.9260
2655.834456 0.9255 0.9250 0.9250 0.9250 0.9240
2661.742874 0.9230 0.9225 0.9220 0.9215 0.9210
2667.651293 0.9205 0.9200 0.9200 0.9200 0.9195
2673.559711 0.9190 0.9185 0.9179 0.9164 0.9147
2679.468130 0.9102 0.9060 0.9055 0.9048 0.9028
2685.376548 0.9004 0.8954 0.8909 0.8904 0.8901
2691.284967 0.8906 0.8918 0.8983 0.9045 0.9080
2697.193385 0.9111 0.9121 0.9129 0.9124 0.9119
2703.101804 0.9114 0.9108 0.9093 0.9079 0.9074
2709.010222 0.9065 0.9034 0.9004 0.8974 0.8938
2714.918641 0.8878 0.8814 0.8734 0.8639 0.8483
2720.827059 0.8353 0.8318 0.8281 0.8241 0.8184
2726.735478 0.8064 0.7967 0.7951 0.7941 0.7946
2732.643896 0.7999 0.8189 0.8365 0.8501 0.8625
2738.552315 0.8721 0.8812 0.8892 0.8957 0.8982
2744.460733 0.9011 0.9051 0.9084 0.9099 0.9117
2750.369152 0.9142 0.9160 0.9160 0.9163 0.9173
2756.277570 0.9182 0.9187 0.9190 0.9190 0.9190
2762.185989 0.9190 0.9190 0.9190 0.9190 0.9190
2768.094407 0.9188 0.9183 0.9180 0.9180 0.9176
2774.002826 0.9166 0.9153 0.9132 0.9114 0.9099
2779.911244 0.9086 0.9076 0.9058 0.9028 0.9004
2785.819663 0.8989 0.8963 0.8923 0.8885 0.8850
2791.728081 0.8804 0.8744 0.8663 0.8552 0.8459
2797.636500 0.8389 0.8334 0.8299 0.8259 0.8214
2803.544919 0.8178 0.8153 0.8135 0.8125 0.8125
2809.453337 0.8135 0.8145 0.8155 0.8217 0.8332
2815.361756 0.8425 0.8495 0.8596 0.8726 0.8813
2821.270174 0.8858 0.8896 0.8926 0.8954 0.8979
2827.178593 0.8995 0.9005 0.9018 0.9033 0.9040
2833.087011 0.9040 0.9023 0.8993 0.8966 0.8941
2838.995430 0.8916 0.8891 0.8880 0.8880 0.8897
2844.903848 0.8928 0.8949 0.8964 0.8979 0.8994
2850.812267 0.9012 0.9032 0.9049 0.9064 0.9083
2856.720685 0.9103 0.9120 0.9135 0.9143 0.9148
2862.629104 0.9153 0.9158 0.9160 0.9160 0.9167
2868.537522 0.9177 0.9183 0.9188 0.9190 0.9190
2874.445941 0.9193 0.9198 0.9200 0.9200 0.9204
2880.354359 0.9209 0.9210 0.9210 0.9210 0.9210
2886.262778 0.9214 0.9219 0.9220 0.9220 0.9220
2892.171196 0.9220 0.9216 0.9211 0.9210 0.9210
2898.079615 0.9206 0.9201 0.9200 0.9200 0.9196
2903.988033 0.9191 0.9190 0.9190 0.9186 0.9181
2909.896452 0.9172 0.9162 0.9156 0.9151 0.9150
2915.804870 0.9150 0.9154 0.9159 0.9168 0.9178
2921.713289 0.9184 0.9189 0.9194 0.9199 0.9200
2927.621707 0.9200 0.9204 0.9209 0.9214 0.9219
2933.530126 0.9220 0.9220 0.9220 0.9220 0.9224
2939.438544 0.9229 0.9230 0.9230 0.9230 0.9230
2945.346963 0.9230 0.9230 0.9230 0.9230 0.9230
2951.255381 0.9230 0.9230 0.9230 0.9230 0.9230
2957.163800 0.9225 0.9220 0.9220 0.9220 0.9220
2963.072219 0.9220 0.9215 0.9210 0.9210 0.9210
2968.980637 0.9205 0.9200 0.9195 0.9190 0.9185
2974.889056 0.9180 0.9180 0.9180 0.9180 0.9180
2980.797474 0.9180 0.9180 0.9180 0.9180 0.9170
2986.705893 0.9160 0.9160 0.9160 0.9160 0.9160
2992.614311 0.9160 0.9160 0.9160 0.9160 0.9155
2998.522730 0.9150 0.9150 0.9149 0.9139 0.9130
3004.431148 0.9130 0.9129 0.9119 0.9109 0.9099
3010.339567 0.9090 0.9090 0.9089 0.9084 0.9079
3016.247985 0.9074 0.9068 0.9053 0.9033 0.8983
3022.156404 0.8938 0.8923 0.8907 0.8887 0.8868
3028.064822 0.8858 0.8849 0.8844 0.8841 0.8846
3033.973241 0.8854 0.8880 0.8907 0.8942 0.8972
3039.881659 0.8982 0.8995 0.9020 0.9041 0.9046
3045.790078 0.9050 0.9050 0.9047 0.9032 0.9019
3051.698496 0.9014 0.9008 0.8998 0.8989 0.8984
3057.606915 0.8972 0.8936 0.8893 0.8827 0.8779
3063.515333 0.8774 0.8771 0.8776 0.8784 0.8799
3069.423752 0.8820 0.8855 0.8884 0.8899 0.8916
3075.332170 0.8936 0.8948 0.8943 0.8937 0.8927
3081.240589 0.8912 0.8887 0.8868 0.8863 0.8862
3087.149007 0.8867 0.8877 0.8897 0.8917 0.8937
3093.057426 0.8959 0.8984 0.9000 0.9000 0.9009
3098.965844 0.9034 0.9056 0.9071 0.9086 0.9101
3104.874263 0.9112 0.9117 0.9124 0.9134 0.9144
3110.782681 0.9154 0.9166 0.9181 0.9190 0.9190
3116.691100 0.9192 0.9197 0.9200 0.9200 0.9200
3122.599519 0.9200 0.9200 0.9200 0.9202 0.9207
3128.507937 0.9210 0.9210 0.9210 0.9210 0.9210
3134.416356 0.9210 0.9210 0.9210 0.9210 0.9210
3140.324774 0.9210 0.9210 0.9210 0.9210 0.9210
3146.233193 0.9210 0.9210 0.9210 0.9207 0.9202
3152.141611 0.9200 0.9200 0.9200 0.9200 0.9197
3158.050030 0.9192 0.9190 0.9190 0.9190 0.9190
3163.958448 0.9190 0.9190 0.9190 0.9190 0.9190
3169.866867 0.9190 0.9190 0.9190 0.9190 0.9190
3175.775285 0.9190 0.9190 0.9190 0.9190 0.9193
3181.683704 0.9198 0.9200 0.9200 0.9200 0.9200
3187.592122 0.9200 0.9200 0.9200 0.9200 0.9200
3193.500541 0.9200 0.9200 0.9200 0.9200 0.9200
3199.408959 0.9200 0.9200 0.9200 0.9200 0.9200
3205.317378 0.9200 0.9200 0.9200 0.9200 0.9200
3211.225796 0.9200 0.9200 0.9200 0.9200 0.9200
3217.134215 0.9200 0.9200 0.9200 0.9200 0.9200
3223.042633 0.9204 0.9209 0.9210 0.9210 0.9210
3228.951052 0.9210 0.9210 0.9210 0.9210 0.9210
3234.859470 0.9210 0.9210 0.9210 0.9210 0.9206
3240.767889 0.9201 0.9200 0.9200 0.9200 0.9200
3246.676307 0.9200 0.9200 0.9200 0.9200 0.9200
3252.584726 0.9200 0.9200 0.9200 0.9200 0.9200
3258.493144 0.9200 0.9200 0.9200 0.9200 0.9200
3264.401563 0.9200 0.9200 0.9200 0.9200 0.9200
3270.309981 0.9200 0.9200 0.9200 0.9200 0.9200
3276.218400 0.9200 0.9200 0.9200 0.9205 0.9210
3282.126819 0.9210 0.9210 0.9210 0.9210 0.9210
3288.035237 0.9210 0.9210 0.9210 0.9210 0.9210
3293.943656 0.9210 0.9210 0.9215 0.9220 0.9220
3299.852074 0.9220 0.9220 0.9220 0.9220 0.9220
3305.760493 0.9220 0.9220 0.9220 0.9220 0.9220
3311.668911 0.9220 0.9220 0.9220 0.9220 0.9220
3317.577330 0.9220 0.9220 0.9220 0.9220 0.9220
3323.485748 0.9220 0.9220 0.9220 0.9220 0.9220
3329.394167 0.9220 0.9220 0.9220 0.9220 0.9220
3335.302585 0.9220 0.9220 0.9220 0.9220 0.9220
3341.211004 0.9220 0.9219 0.9214 0.9210 0.9210
3347.119422 0.9210 0.9210 0.9210 0.9210 0.9210
3353.027841 0.9210 0.9210 0.9210 0.9210 0.9210
3358.936259 0.9210 0.9210 0.9210 0.9210 0.9210
3364.844678 0.9210 0.9210 0.9210 0.9210 0.9210
3370.753096 0.9209 0.9204 0.9200 0.9200 0.9200
3376.661515 0.9200 0.9200 0.9200 0.9200 0.9200
3382.569933 0.9200 0.9200 0.9200 0.9200 0.9199
3388.478352 0.9194 0.9189 0.9184 0.9177 0.9167
3394.386770 0.9157 0.9147 0.9139 0.9133 0.9128
3400.295189 0.9123 0.9118 0.9113 0.9112 0.9117
3406.203607 0.9123 0.9133 0.9146 0.9167 0.9183
3412.112026 0.9193 0.9204 0.9214 0.9220 0.9220
3418.020444 0.9222 0.9227 0.9230 0.9230 0.9234
3423.928863 0.9244 0.9250 0.9250 0.9250 0.9250
3429.837281 0.9250 0.9250 0.9252 0.9257 0.9260
3435.745700 0.9260 0.9260 0.9260 0.9260 0.9260
3441.654119 0.9260 0.9260 0.9262 0.9267 0.9270
3447.562537 0.9270 0.9270 0.9270 0.9270 0.9270
3453.470956 0.9270 0.9270 0.9270 0.9270 0.9270
3459.379374 0.9270 0.9270 0.9270 0.9270 0.9270
3465.287793 0.9270 0.9270 0.9270 0.9270 0.9273
3471.196211 0.9278 0.9280 0.9280 0.9280 0.9280
3477.104630 0.9280 0.9280 0.9280 0.9280 0.9280
3483.013048 0.9280 0.9280 0.9280 0.9280 0.9280
3488.921467 0.9283 0.9288 0.9290 0.9290 0.9290
3494.829885 0.9290 0.9290 0.9290 0.9290 0.9290
3500.738304 0.9290 0.9290 0.9290 0.9290 0.9290
3506.646722 0.9290 0.9290 0.9290 0.9290 0.9290
3512.555141 0.9290 0.9290 0.9290 0.9290 0.9290
3518.463559 0.9290 0.9290 0.9290 0.9290 0.9290
3524.371978 0.9290 0.9290 0.9290 0.9290 0.9290
3530.280396 0.9290 0.9290 0.9290 0.9290 0.9290
3536.188815 0.9290 0.9290 0.9290 0.9290 0.9290
3542.097233 0.9290 0.9290 0.9290 0.9290 0.9290
3548.005652 0.9290 0.9290 0.9294 0.9299 0.9300
3553.914070 0.9300 0.9308 0.9318 0.9320 0.9320
3559.822489 0.9324 0.9329 0.9330 0.9330 0.9326
3565.730907 0.9321 0.9320 0.9320 0.9320 0.9320
3571.639326 0.9312 0.9302 0.9300 0.9300 0.9296
3577.547744 0.9291 0.9286 0.9281 0.9280 0.9280
3583.456163 0.9276 0.9271 0.9274 0.9279 0.9284
3589.364581 0.9289 0.9290 0.9290 0.9308 0.9328
3595.273000 0.9330 0.9330 0.9335 0.9340 0.9345
3601.181419 0.9350 0.9355 0.9360 0.9369 0.9379
3607.089837 0.9380 0.9380 0.9380 0.9380 0.9380
3612.998256 0.9380 0.9380 0.9380 0.9370 0.9360
3618.906674 0.9360 0.9360 0.9360 0.9360 0.9360
3624.815093 0.9360 0.9360 0.9360 0.9355 0.9350
3630.723511 0.9350 0.9350 0.9345 0.9340 0.9340
3636.631930 0.9340 0.9340 0.9340 0.9340 0.9340
3642.540348 0.9345 0.9350 0.9350 0.9350 0.9355
3648.448767 0.9360 0.9360 0.9360 0.9355 0.9350
3654.357185 0.9350 0.9350 0.9350 0.9350 0.9350
3660.265604 0.9350 0.9350 0.9351 0.9356 0.9360
3666.174022 0.9360 0.9360 0.9360 0.9361 0.9371
3672.082441 0.9380 0.9380 0.9380 0.9380 0.9380
3677.990859 0.9380 0.9380 0.9380 0.9380 0.9380
3683.899278 0.9380 0.9380 0.9380 0.9380 0.9380
3689.807696 0.9380 0.9380 0.9380 0.9380 0.9380
3695.716115 0.9380 0.9380 0.9380 0.9380 0.9380
3701.624533 0.9380 0.9380 0.9380 0.9378 0.9367
3707.532952 0.9360 0.9360 0.9360 0.9360 0.9360
3713.441370 0.9360 0.9360 0.9360 0.9360 0.9360
3719.349789 0.9360 0.9360 0.9360 0.9360 0.9363
3725.258207 0.9373 0.9380 0.9380 0.9380 0.9380
3731.166626 0.9380 0.9380 0.9380 0.9380 0.9382
3737.075044 0.9387 0.9390 0.9390 0.9390 0.9390
3742.983463 0.9390 0.9390 0.9390 0.9390 0.9390
3748.891881 0.9390 0.9390 0.9390 0.9390 0.9390
3754.800300 0.9390 0.9390 0.9390 0.9390 0.9390
3760.708719 0.9390 0.9390 0.9390 0.9390 0.9390
3766.617137 0.9390 0.9390 0.9390 0.9390 0.9390
3772.525556 0.9390 0.9390 0.9390 0.9390 0.9390
3778.433974 0.9390 0.9390 0.9390 0.9390 0.9390
3784.342393 0.9390 0.9390 0.9390 0.9390 0.9390
3790.250811 0.9393 0.9398 0.9400 0.9400 0.9400
3796.159230 0.9400 0.9400 0.9400 0.9400 0.9400
3802.067648 0.9400 0.9400 0.9403 0.9408 0.9410
3807.976067 0.9410 0.9410 0.9410 0.9410 0.9410
3813.884485 0.9413 0.9418 0.9420 0.9420 0.9420
3819.792904 0.9420 0.9420 0.9420 0.9420 0.9420
3825.701322 0.9420 0.9420 0.9420 0.9420 0.9420
3831.609741 0.9420 0.9417 0.9412 0.9407 0.9402
3837.518159 0.9400 0.9400 0.9400 0.9400 0.9400
3843.426578 0.9400 0.9403 0.9408 0.9410 0.9410
3849.334996 0.9413 0.9418 0.9420 0.9420 0.9423
3855.243415 0.9429 0.9437 0.9447 0.9450 0.9450
3861.151833 0.9450 0.9450 0.9450 0.9450 0.9443
3867.060252 0.9433 0.9430 0.9430 0.9426 0.9421
3872.968670 0.9420 0.9420 0.9416 0.9411 0.9410
3878.877089 0.9410 0.9410 0.9410 0.9406 0.9401
3884.785507 0.9400 0.9400 0.9396 0.9391 0.9390
3890.693926 0.9390 0.9390 0.9390 0.9394 0.9399
3896.602344 0.9400 0.9400 0.9404 0.9409 0.9410
3902.510763 0.9410 0.9410 0.9410 0.9410 0.9410
3908.419181 0.9414 0.9419 0.9420 0.9420 0.9420
3914.327600 0.9420 0.9416 0.9410 0.9410 0.9410
3920.236019 0.9410 0.9410 0.9410 0.9410 0.9410
3926.144437 0.9410 0.9410 0.9410 0.9410 0.9410
3932.052856 0.9410 0.9410 0.9410 0.9410 0.9410
3937.961274 0.9410 0.9410 0.9410 0.9410 0.9410
3943.869693 0.9410 0.9410 0.9410 0.9410 0.9410
3949.778111 0.9410 0.9410 0.9410 0.9410 0.9410
3955.686530 0.9410 0.9410 0.9410 0.9410 0.9410
3961.594948 0.9410 0.9410 0.9410 0.9410 0.9410
3967.503367 0.9405 0.9400 0.9400 0.9400 0.9395
3973.411785 0.9390 0.9390 0.9390 0.9390 0.9390
3979.320204 0.9390 0.9391 0.9396 0.9401 0.9406
3985.228622 0.9410 0.9410 0.9410 0.9410 0.9410
3991.137041 0.9410 0.9410 0.9410 0.9410 0.9410
3997.045459 0.9409 0.9404 0.9401 0.9406 0.9410
4002.953878 0.9410 0.9410 0.9410 0.9410 0.9410
4008.862296 0.9409 0.9404
##END=
