##TITLE=Ethylbenzene
##JCAMP-DX=4.24
##DATA TYPE=INFRARED SPECTRUM
##CLASS=IUPAC A
##ORIGIN=NIST, Analytical Chemistry Division, 301-975-3108
##OWNER=COPYRIGHT (C) 2001 by the U.S. Secretary of Commerce
##DATE=01/06/01
##$SPECTRA VERSION=1.10
##$UNCERTAINTY IN Y=2.1 % relative (B=1.13E-04,C=1.09E-9,D=2.34E-14)
##CAS NAME=Ethylbenzene
##CAS REGISTRY NO=100-41-4
##MOLFORM=C6 H5 C2 H5
##MP=-94.97 C
##BP=136.2 C
##$NIST SOURCE=QUANT-IR
##SPECTROMETER/DATA SYSTEM=IFS66V (Bruker)
##INSTRUMENT PARAMETERS=KBr Beam Splitter; MCT Detector; Multipass cell
##STATE=gas
##SAMPLE DESCRIPTION=Ethylbenzene Primary Gas Standard
##PRESSURE=101.3 Pa
##TEMPERATURE=23 C
##SAMPLING PROCEDURE=1 L/min Flow
##RESOLUTION=1.9290
##DATA PROCESSING=NB Strong Apodization
##XUNITS=cm-1
##YUNITS=(micromol/mol)-1m-1 (base 10)
##XFACTOR=1.0
##YFACTOR=4.5474E-13
##DELTAX=0.9645
##FIRSTX=575.652
##LASTX=3974.606
##FIRSTY=4.17E-06
##MAXX=3973.64
##MINX=575.65
##MAXY=.0004546
##MINY=-4.30E-07
##NPOINTS=3526
##XYDATA=(X++(Y..Y))
575.65 9170853 8630458 8685430 8093877 6357151 4158458
580.47 3290564 2834547 3064961 2868990 2399508 2108391
586.26 2046904 1454957 1669379 1170063 1094275 342564
592.04 158251-290654-547094-591155-523886-590530
597.83 370656 603471 688060-616246-980767-733526
603.62-874207-745488-155620-198498-63100 70138
609.40-76335-7635 302170-277248-546205-827483
615.19-376724-581220-44238 215005 134800-595280
620.97-214566-48731 267161 648232 1283725 1351887
626.76 2358948 1893075 929187 614238 976215 935532
632.54 1361551 1295205 1294731 1189769 1816296 1013356
638.33 568066 299955 370544-24413 270084 232971
644.11 192301-295404-151861-291834-285818-318911
649.90 144492-233791-180563-44889 761030 780323
655.68 885787 565937 866239 808379 1543495 1801643
661.47 2511014 3152919 4018019 4635981 6575811 7608516
667.26 9721505 12277685 15974418 20283296 25677240 31610906
673.04 39366729 47638275 58805595 70864192 85640994 101351453
678.83 119217216 138444458 160149099 182143072 206011946 229069038
684.61 253021037 277278615 306671008 330656313 343856473 355035040
690.40 375450870 398562498 430103179 464508407 519000802 628559367
696.18 770727200 709140766 508266392 433261523 417158890 408457278
701.97 397784209 389177554 379352502 373074159 361363096 341563407
707.75 318724713 299996668 280296638 261765521 243113373 226019827
713.54 209391170 196064178 184673906 176448121 170490673 167583261
719.32 165979561 167065950 169233955 172979326 176981523 181669416
725.11 185794166 189712031 193585012 197826960 201963134 206845304
730.90 211154458 216172052 222009916 228909141 235737565 243631398
736.68 250477205 256296252 260378231 262986335 262336350 263120912
742.47 263266196 262506862 263534272 257202242 253524709 253075339
748.25 254961526 274713671 307136810 283009333 246383763 228035362
754.04 217328461 209400649 198241960 190615824 182970420 176462490
759.82 168999330 162357848 155513501 149438827 142803454 137068120
765.61 131502977 127212699 123949354 122463187 123619692 134167713
771.39 139715240 117873045 95716117 88693180 85224381 82255195
777.18 78908707 76425726 73484078 70767375 67560014 64850613
782.96 61539401 58359486 54809278 51468651 47884503 44780290
788.75 41542900 38703257 35613098 33140759 30991765 29343943
794.53 27792246 26844309 25157238 23649918 21979259 20885624
800.32 19669627 18771779 17548709 16183110 14748333 14156638
806.11 13510751 12649696 11561831 11002906 10217773 9722470
811.89 8767853 8188801 7624848 7316795 6633775 6002054
817.68 5414334 5255305 4724432 4663125 4335142 4221871
823.46 4052023 3697512 2930503 2595492 2515492 2873314
829.25 2438618 2031932 1677865 1596275 1345351 1195238
835.03 967093 1118758 1205406 949472 770343 572898
840.82 187108 274405 474817 420014 119907-8678
846.60-242047-215182-93388-137424-446638-304343
852.39-309022-380071-718245-739841-765100-563545
858.17-460122-119676-278821-587519-619430-202672
863.96-64998-43174 38206 359337 588738 1046388
869.75 1312507 1565503 1610265 2075947 2806261 3399594
875.53 3509897 3994680 4410469 5058589 5704950 6278100
881.32 6709172 7366059 8141314 9173317 9772950 10612509
887.10 11558548 12441516 13261396 13798638 14180874 14714514
892.89 15099410 15679631 16037175 16364199 16822772 17702566
898.67 19008518 21093518 24947386 34211900 41975283 31465337
904.46 20317675 18384319 17784456 17247953 16734157 16498795
910.24 15691185 14648033 13682147 13038565 11964752 10943437
916.03 9499182 8087991 6879885 5831037 4622930 3605937
921.81 2741646 2159468 1593107 1111700 495405 227730
927.60 5691 33006 42982 47909-213089-181558
933.39-242889-252932-201130-71867-209231-76968
939.17-49769-22980 4704 142272 370304 812498
944.96 1152734 1472430 1833906 2559148 3477295 4725110
950.74 6156875 8254218 10480143 12924455 15662209 18654777
956.53 20967530 22416283 23053367 23601334 24837925 27198669
962.31 29283358 28180805 25616240 25799377 27324113 28621930
968.10 28744006 27770770 25561557 22706252 19710604 17152662
973.88 14812515 12878618 11099014 9847724 8684788 7802482
979.67 6939251 5726452 4773310 4432702 4214173 3992146
985.45 3801198 3881688 3978765 3940722 4010053 4311451
991.24 4502042 4745314 4823386 5087835 5383771 5795537
997.03 6349859 7102283 7680841 8069914 8008490 7942890
1002.81 8016559 8699423 9442612 9571721 9493705 9714466
1008.60 10143512 10866147 11771507 12776743 13930114 15364463
1014.38 17103434 19425212 22312302 25793477 30234516 35850417
1020.17 42225855 49073087 56240064 62481203 66312320 67560342
1025.95 66623069 64234819 63238059 68592159 77786232 77868453
1031.74 74059771 72405583 71846649 72095575 70901398 68405705
1037.52 64949546 61365965 57615309 54175297 50575006 47203745
1043.31 44285042 41933562 40086044 38738191 37260268 36251177
1049.09 35735304 35823219 36352864 37751520 40405073 44665961
1054.88 49712692 54864821 59389336 62908642 64534487 63481939
1060.67 60053139 57044806 59676454 69400064 70695336 56530131
1066.45 50659021 55915017 60866896 61971679 58778263 52745959
1072.24 45376749 38330332 32323024 27847406 24918541 23314993
1078.02 22663903 22925196 23296262 23917120 24520901 25002198
1083.81 25046984 24795087 23925759 22781526 21831136 21743968
1089.59 22964687 24991406 26415653 26740282 26331470 25968717
1095.38 25368034 24457635 23646401 23084003 22597076 22426669
1101.16 22208317 21888515 21089575 19957666 18299370 16575859
1106.95 15416858 15152689 15212381 15668142 15877630 15749896
1112.73 15514447 15111856 14082270 13128236 12177878 11130742
1118.52 10253507 9518297 8613794 7795596 7108762 6532634
1124.31 5823998 5402995 4912070 4514964 4107721 3744590
1130.09 3360844 3483499 3372545 3037948 2778579 2720882
1135.88 2540371 2304165 2061854 1984904 1815212 1741379
1141.66 1604699 1631382 1488352 1234902 1120892 1303463
1147.45 1319892 1406893 1309727 1132171 1004113 886221
1153.23 590025 379101 221879 290777 364076 428940
1159.02 449973 497005 413920 300294 110935 38527
1164.80 430-52656-71548-17101-48534-23933
1170.59-42798 33492-69799-45518 87854 173856
1176.37 362173 675464 573452 511463 592363 746600
1182.16 894023 1069260 1124677 1407933 1436952 1366274
1187.95 1408451 1668710 1827802 1961165 2135153 2354847
1193.73 2473265 2589032 2566866 2543597 2571201 2753247
1199.52 2768734 2789005 2752200 2676947 2628496 2701848
1205.30 2751151 2743442 2426979 1975742 1681728 1630041
1211.09 1469807 1175530 829908 676446 449437 337093
1216.87 300909 344907 339538 287716 179829 107650
1222.66 64544 104633 154597 396699 706472 1184602
1228.44 1644909 2097915 2533238 3150452 3677983 4014936
1234.23 4076779 4019454 3970312 4196499 4637853 5174915
1240.01 5303289 4975230 4905788 5353426 5614357 5692090
1245.80 5549787 5377643 4943518 4586342 4388505 4198701
1251.59 3991946 3790332 3692328 3785774 3891922 3922138
1257.37 3770930 3628076 3561097 3655448 3676852 3721467
1263.16 3625246 3482013 3474594 3533206 3608371 3670806
1268.94 3578240 3407189 3185755 3237804 3434847 3616055
1274.73 3660426 3880840 4250275 4666576 4921766 5219197
1280.51 5441551 5643033 5891611 6220749 6436178 6774530
1286.30 7231136 7702764 8037502 8385787 8890773 9403260
1292.08 9844316 10290351 10478812 10649322 11031439 11357521
1297.87 11490888 11824227 11986800 12173945 12438296 12598852
1303.65 12876284 13240382 13458571 13646940 13690282 13831782
1309.44 14239710 14937846 15833237 16760106 18002674 19675574
1315.23 21408405 23424899 25747000 28190987 30806076 33659716
1321.01 36789210 39927309 43056875 45133766 45188237 45232545
1326.80 45649489 46522631 47247479 47169949 46287790 45135586
1332.58 43358777 42007273 40967370 39432399 37161830 34364836
1338.37 31230437 28125506 25000587 22156575 19690022 17855668
1344.15 16109931 14574426 13371986 12356220 11414738 10680941
1349.94 9681128 8803766 8490240 8154639 7862202 7660448
1355.72 7844707 7828412 7741757 7957102 8296062 8905103
1361.51 9502922 10586337 11728402 12765440 14177060 15676670
1367.29 17052644 18510400 20086080 21782250 23526448 25058563
1373.08 26483285 28095922 29302189 30683987 35151967 41547366
1378.87 44514441 44678773 41690378 38431188 36810942 36330936
1384.65 36105313 35633180 35015150 34299945 33198130 31830662
1390.44 30145422 28226132 26130105 24076678 22420369 21084329
1396.22 19762725 18442638 17166713 16072837 15133219 14356644
1402.01 13558560 12937705 12550650 12371469 12142887 12048128
1407.79 11874979 11937594 12111060 12293489 12450748 12789398
1413.58 12994973 13195205 13357142 13600604 13633987 13783166
1419.36 14689176 15571319 16189945 16760745 17156966 17669579
1425.15 18271340 19013950 19785397 20655766 21603403 22850161
1430.93 24400951 26260343 28365869 30887528 33584107 36728260
1436.72 41048218 45919684 51076633 56911354 63405460 70798348
1442.51 79054392 88065472 97594546 107784944 118501276 129838393
1448.29 141322301 151149401 158887442 165055201 169022300 170534891
1454.08 170191564 171096914 177833299 189150228 194901354 190598002
1459.86 183075663 180911299 184149500 187227772 185681613 179900088
1465.65 171790253 163665619 155754587 148752388 143524913 138095585
1471.43 124943500 108110006 99518277 94741382 89703220 83896243
1477.22 77753749 71853583 66811519 62864648 60386124 59435776
1483.00 60352881 63371752 68829276 76865981 88081053 102567506
1488.79 119825018 139089201 159929468 180682224 198958037 209396233
1494.57 206229846 194633222 189463159 201586793 226599875 224057599
1500.36 192528250 178107166 183391044 191701674 193675224 185378715
1506.15 167014012 142384083 115229345 89599998 67759634 50662775
1511.93 38304394 29853345 23895318 19886276 17192208 15900958
1517.72 15210792 14156212 12858852 12524271 12850255 13256143
1523.50 13372169 13165584 13237602 13439868 13522153 13671989
1529.29 13620674 13318509 12669429 11869870 11066470 10587410
1535.07 10215510 10313720 10585803 10658996 10971208 11133952
1540.86 10549818 10144095 9810787 9004891 8533183 8435269
1546.64 8207355 8041471 7857754 7761629 7676403 7644240
1552.43 7414174 7183701 7335018 7362679 6764459 6110678
1558.21 6191304 6350598 6722218 6992955 7054998 7111815
1564.00 7125704 7300390 7224401 7109881 6959441 6835609
1569.79 7134775 7497283 7779873 8113268 8428213 8215702
1575.57 8528294 9825508 10792892 11532413 12129282 12818617
1581.36 13562363 14468417 15543228 16997302 18713393 20893222
1587.14 23392323 26170070 28850839 31258888 33306386 35442820
1592.93 37890240 40761419 44326813 49077284 55295594 63682600
1598.71 72178601 79871248 90121167 101166429 110471394 116721021
1604.50 119337842 118397771 115213896 111771981 110437573 112564268
1610.28 113792952 106853498 97256401 94916252 95744370 93955794
1616.07 88301824 79675683 68335163 56443576 45249141 35620429
1621.85 27565447 21418339 17096486 13921808 11448777 9661614
1627.64 8489737 7730195 7053291 6568244 6265010 6084776
1633.43 5634165 4902568 5038111 5399145 5459027 5613293
1639.21 5615351 5676416 5786525 6067914 6321175 6335700
1645.00 6203390 6819956 7369666 7824889 8090591 8238854
1650.78 7666510 6881769 7286270 8434837 8747394 8433883
1656.57 8061359 7909854 7875724 7979795 8058253 7780370
1662.35 7458150 7397503 7219953 7085734 6881782 6585149
1668.14 6116748 6143229 6105144 5847106 5601410 5436470
1673.92 5302294 5523327 5459646 4981027 4691140 4668575
1679.71 4623622 4536462 4063996 3322722 2399535 2459104
1685.49 2780847 2644152 2386242 2182118 2108820 2008643
1691.28 1976131 1954766 1821604 1157054 778545 1517354
1697.07 1729604 1467868 871065 1160661 1759140 1729045
1702.85 1537240 1518097 1482629 1583101 1789906 1880606
1708.64 1813285 1830620 1931615 1979243 1969380 1920641
1714.42 1922797 2082527 1921003 2263201 2799652 3342324
1720.21 3738424 4201835 4666157 5141091 5681553 6345131
1725.99 6981246 7644592 8458175 9465008 10475719 11408015
1731.78 12024613 12433810 13148010 14067405 14332576 14073216
1737.56 13446009 12253484 11372131 11355530 12056998 13356099
1743.35 14414822 14653305 14090796 13073513 11856445 10685626
1749.13 9497170 8216288 7355828 6665247 5764603 5100627
1754.92 4452621 3750711 3217592 2806485 2477356 2095489
1760.71 1570693 1342697 1253382 1195002 1123131 1150243
1766.49 1135479 1247198 1671018 1971064 2121179 2151117
1772.28 2350251 2657485 2563978 2381692 2490864 3255658
1778.06 3797989 3337063 3099598 3748501 4599729 5480649
1783.85 6310009 7646200 9311578 11308266 13653465 16375932
1789.63 19120383 21696996 23689251 25388275 26303835 26239457
1795.42 26043357 27587333 30675295 32739007 29806109 26176532
1801.20 27135043 29468540 31002072 30574794 27656453 23506441
1806.99 20279294 18021411 16116032 14357676 12733921 11160432
1812.77 9737483 8441318 7215092 6239465 5750869 5824269
1818.56 6173931 6376046 6312286 6051083 5607492 4966952
1824.35 4350744 3918412 3496989 3045093 2628109 2312446
1830.13 2195997 2026551 1830224 1675394 1654821 1662592
1835.92 1648937 1698786 1758392 1850126 1986095 2243763
1841.70 2513430 2610761 2963602 3697884 4328927 4963207
1847.49 5734670 6550243 7399462 8332558 9464758 10884515
1853.27 12475935 14102031 15647408 17063669 18331985 19355712
1859.06 19891902 19908213 19339898 18186762 16787105 16011301
1864.84 16882766 19551814 22467768 24276323 25103939 25545834
1870.63 25892525 26242800 26529407 26545229 25998231 24822205
1876.41 23253538 21354679 20140097 21273086 22522126 19023070
1882.20 14671071 14763604 16482917 17380188 16809688 15120441
1887.99 12600928 9887054 7424945 5413591 3905354 2916783
1893.77 2152432 1639811 1377010 1159982 938492 939171
1899.56 946143 833739 794401 882678 921475 942973
1905.34 902619 1009160 1123591 1190819 1228856 1337200
1911.13 1495605 1729434 2007884 2354732 2713760 3071873
1916.91 3377753 3882500 4509923 5127017 5832616 6602861
1922.70 7467723 8529675 9552202 10626528 11910793 13484075
1928.48 15316859 17266372 19331316 21311379 23126242 24587717
1934.27 25518250 25908657 25572194 24546521 22940013 21191294
1940.05 20332572 21379826 24455589 27924215 29974746 30638432
1945.84 30672711 30463639 30031505 29448354 28886090 28051526
1951.63 26934822 25564823 23981991 22141388 20641150 20784782
1957.41 21665341 18538771 14308408 14344354 15806771 16434984
1963.20 15509742 13494382 10789789 8119502 5781071 3935391
1968.98 2533226 1632811 1070702 866719 861184 725103
1974.77 404989 438393 594635 706158 716248 834754
1980.55 1000362 1193722 1260186 1309048 1237999 1016539
1986.34 791017 853895 922487 835840 662086 635229
1992.12 771577 813867 657697 496818 411317 374985
1997.91 282143 263787 149367 126225 65006-68384
2003.69-119268-76971-78128-4353-36339 15093
2009.48 2483-7924 14353 97140 195324 295431
2015.27 324776 411069 533208 699696 789590 823483
2021.05 841353 877695 986763 1123578 1045140 1054090
2026.84 1098945 1187698 1294080 1317033 1291895 1284596
2032.62 1047071 861737 850797 890017 862540 762077
2038.41 641004 564876 501297 471269 373132 231241
2044.19 152489 109358-49320-197801-243411-256960
2049.98-410584-524512-647644-657427-624054-496558
2055.76-490731-609772-745917-787857-790724-831259
2061.55-874830-857966-865951-825758-866678-926654
2067.33-946681-869596-754723-757229-913665-934661
2073.12-911710-853715-830871-814330-833063-826512
2078.91-834424-851803-786468-738136-724036-691048
2084.69-668821-681623-705525-590889-468610-478157
2090.48-531967-533904-547228-465399-459726-460370
2096.26-398729-301202-286739-269254-295094-315699
2102.05-320076-356638-447305-450261-426347-349901
2107.83-336303-358073-397955-319573-362161-379085
2113.62-378226-296045-262221-146888-96549-91350
2119.40-72420-39362 34017 106870 152939 181703
2125.19 160129 149450 168555 118345 29005 76708
2130.97 101300 191023 232311 134891 337-100656
2136.76-140273-131423-32567-43616-120168-154072
2142.55-159166-88646-69881-56501-26765-22134
2148.33-76234-4052 21913-41713-69016-19385
2154.12-20790 16543 22122-20653-30876-4762
2159.90-2675 12748 116453 197198 158405 145409
2165.69 130491 186095 220261 236899 207199 179572
2171.47 112534 157789 244466 247128 163470 201458
2177.26 330654 352128 272059 237246 217749 157979
2183.04 206394 243270 197495 185983 253666 300185
2188.83 248706 142905 50799 74987 114609 131479
2194.61 79470 27461 57412 78214 57915 130382
2200.40 154711 256386 319750 270672 248770 377275
2206.19 524979 675360 616595 646646 766584 781099
2211.97 883521 970894 1006747 1034631 1003602 1078464
2217.76 1175011 1169481 1219615 1238487 1253333 1295950
2223.54 1270041 1272322 1252700 1245851 1221460 1262081
2229.33 1369166 1424085 1428618 1416697 1464272 1552027
2235.11 1511511 1489167 1509842 1489460 1458677 1470945
2240.90 1442460 1395239 1387750 1418570 1386428 1368026
2246.68 1348221 1341846 1241992 1181684 1160297 1145246
2252.47 1135432 1071372 1050062 1011205 1085097 1287143
2258.25 1321812 1236467 1241578 1317183 1379862 1541802
2264.04 1561253 1468259 1584681 1690849 1713102 1789049
2269.83 1945982 2130350 2110532 2044903 2173963 2317074
2275.61 2287878 2329269 2368192 2387986 2458179 2450042
2281.40 2467511 2519148 2457018 2414092 2355244 2285526
2287.18 2238542 2268189 2298819 2294397 2208083 2069150
2292.97 1957729 1889974 1797093 1717515 1583831 1509012
2298.75 1451807 1523508 1537226 1533708 1715767 1971961
2304.54 2328988 2796006 3188449 3459894 3678779 3704105
2310.32 3318407 2904508 2709672 3460806 4382616 3841049
2316.11 2984536 3215621 3486697 3888860 3868504 3700151
2321.89 3415955 3166627 2778965 2618486 2484870 2550772
2327.68 2633361 2929798 3118596 3364223 3590629 3761696
2333.47 3823010 3876454 3963662 4232328 4459502 4705113
2339.25 4849155 4801535 4576319 4502628 4497395 4557864
2345.04 4537713 4588080 4584740 4474620 4146738 3791584
2350.82 3448372 3071245 2835453 2597900 2259281 2004669
2356.61 1948114 1869534 1739993 1594376 1524374 1548083
2362.39 1525662 1441870 1291834 1255866 1331776 1468196
2368.18 1617576 1848796 1959818 1974850 1848415 1846591
2373.96 1939731 1915499 1779682 1714985 1655267 1594623
2379.75 1680628 1688251 1607499 1521411 1407803 1336529
2385.53 1203760 1071229 1000296 931990 748841 700352
2391.32 775063 714709 616479 552144 502189 574239
2397.11 587779 621159 642055 703828 763613 776195
2402.89 746324 817539 948661 1104825 1211916 1208942
2408.68 1238925 1362962 1411432 1483496 1526421 1552713
2414.46 1514797 1650073 1796817 1589230 1436737 1581004
2420.25 1630392 1591743 1559217 1573942 1497051 1559480
2426.03 1652149 1740909 1819107 2017863 2158471 2259813
2431.82 2338620 2494567 2569118 2662737 2777964 2895492
2437.60 3116315 3153380 2924057 2773966 2701257 2616064
2443.39 2534336 2579183 2559864 2322368 1947713 1699142
2449.17 1499215 1318933 1194444 1021579 832536 755296
2454.96 640801 514933 406946 406711 387803 325542
2460.75 302951 363442 399423 401811 368146 330934
2466.53 253512 276052 322970 287711 304982 414008
2472.32 459567 389298 355812 523924 568557 437340
2478.10 317375 385902 477497 475434 508212 527835
2483.89 524644 543810 506499 611802 666916 701343
2489.67 752711 758813 749073 770453 793921 777247
2495.46 699297 687540 746145 840015 880866 852026
2501.24 894671 986997 1017097 1012674 1032504 1081577
2507.03 1164236 1145801 1140615 1123574 1151601 1158965
2512.81 1119591 1217521 1302747 1343124 1288337 1324609
2518.60 1380034 1505694 1596853 1495127 1406071 1510536
2524.39 1569022 1756267 1912146 1952421 1942331 1965897
2530.17 1984744 1967361 1972669 2015341 2041597 1970444
2535.96 1937512 1932721 1898859 1853048 1831218 1757979
2541.74 1618827 1573680 1531789 1580534 1585913 1498138
2547.53 1538178 1638422 1625865 1469270 1399554 1452755
2553.31 1476413 1545615 1584393 1504812 1502827 1518609
2559.10 1594522 1641482 1520417 1429972 1465821 1488512
2564.88 1473247 1525765 1653301 1674483 1567619 1459267
2570.67 1443552 1514213 1553142 1592808 1434751 1441997
2576.45 1496479 1483839 1566246 1699870 1736560 1668798
2582.24 1618952 1680492 1739533 1644016 1608724 1800688
2588.03 2018174 2143592 2140156 2166642 2311366 2428276
2593.81 2498372 2515488 2530580 2620061 2637141 2800834
2599.60 2981037 3156162 3322297 3433535 3630282 3841991
2605.38 3934788 3894847 4023420 4054091 3963942 3954593
2611.17 4011951 4024794 3980277 3947404 3892276 3951379
2616.95 3888192 3897329 3808016 3836188 3935925 3952519
2622.74 4074132 4226023 4361198 4464481 4567819 4898619
2628.52 5315573 5555806 5688489 5937480 6283692 6635610
2634.31 6882927 7070266 7110755 7150528 7178680 7197941
2640.09 7147449 7117584 6948508 6810739 6674951 6524936
2645.88 6430235 6252346 5869474 5494260 5010519 4549946
2651.67 4133796 3917125 3759087 3566392 3243323 2936472
2657.45 2700145 2619570 2514659 2309985 2068249 1869894
2663.24 1861396 1791167 1634952 1732364 1734932 1708156
2669.02 1674331 1618713 1685187 1685730 1605567 1528792
2674.81 1474633 1532897 1523487 1467936 1435061 1392673
2680.59 1441608 1553766 1481079 1377528 1297202 1355139
2686.38 1294002 1240741 1460898 1710541 1709704 1849497
2692.16 1987314 2140306 2362583 2532405 2613818 2779969
2697.95 2903361 2914025 3054317 3315037 3479320 3578794
2703.73 3542515 3393408 3459153 3568963 3375238 3106299
2709.52 2940128 2776735 2659499 2522086 2441039 2499377
2715.31 2370604 2270111 2286561 2254321 2201274 2390247
2721.09 2573742 2571147 2561691 2736466 2993162 3416384
2726.88 3859029 4220729 4536329 4839324 5198288 5527223
2732.66 5741394 6285935 7232528 7913386 7778030 7329900
2738.45 7334221 7502018 7631341 7811428 7706265 7453488
2744.23 7239075 7124422 6879415 6585301 6260347 5978465
2750.02 5749456 5636178 5413870 5242229 5284376 5242555
2755.80 5151193 5194563 5345682 5473134 5626680 5804895
2761.59 5927922 6175332 6387145 6554300 6736756 6865223
2767.37 7014130 7367044 7604184 7866446 8276467 8639732
2773.16 8900662 9254127 9729591 10129763 10411581 10782973
2778.95 11203297 11562436 11911091 12131193 12485891 12897426
2784.73 13121262 13257235 13294902 13502154 13685564 13652138
2790.52 13710018 13793112 13630034 13339524 13058819 12701917
2796.30 12537623 12575919 12264667 11839761 11546086 11289405
2802.09 11045123 10809993 10723517 10711556 10517379 10551084
2807.87 10673387 10820865 10983583 11102787 11258508 11579379
2813.66 11916162 12266334 12566043 12994938 13501628 14081060
2819.44 14637047 15271468 15764397 16336365 17086004 17837708
2825.23 18557509 19476446 20451844 21291418 22033065 22777993
2831.01 23454426 24011549 24510551 25168490 26146722 27244452
2836.80 28419795 29578172 30658843 31784259 32688285 33490171
2842.59 34311404 35271342 36350278 37686833 39068302 40243875
2848.37 41616085 43699735 46195084 48814985 51648770 54857530
2854.16 58412920 62101235 66098263 70767521 76044283 81958367
2859.94 88448414 95597373 103286150 111836151 121205684 131280299
2865.73 141288158 151272085 161722226 172521235 182898909 193164394
2871.51 203025596 213392166 225051091 239248098 257307724 275604514
2877.30 282705610 281431439 283299811 288437114 292171322 293054344
2883.08 298298078 315557886 324519150 315341982 301243658 286771159
2888.87 274546237 266701426 261409809 255899330 249680164 242872448
2894.65 236069742 228842980 221696979 215473370 210235861 206388093
2900.44 204266229 203461985 204382872 205860118 206575045 205624742
2906.23 202704521 198460020 194951284 194120247 195844918 196795587
2912.01 195864409 193517937 190135459 186190528 182363146 178648085
2917.80 175689248 173895085 173902902 175772359 179086257 183531071
2923.58 189848188 198204975 208045377 218749891 230584368 243821258
2929.37 258331477 273692174 290579544 308791121 327987675 347668887
2935.15 367514856 385102594 399798079 413556660 433877202 471193423
2940.94 509187833 500500569 467021745 447556225 436861458 432001272
2946.72 430182101 426823539 419697286 404927072 384408454 370662350
2952.51 359795440 345971127 329388857 313100969 299047015 290522943
2958.29 289065966 296073510 313112557 343417720 387780813 447563330
2964.08 523075042 610452291 703795302 793292998 864934906 907103872
2969.87 913591581 897366566 904130748 965757033 999841569 947509159
2975.65 896823762 900596758 927877717 939955091 918718662 861682699
2981.44 778064342 680730150 581995744 491056877 413124285 348855680
2987.22 297467864 256726761 224292734 198104877 176879945 159412917
2993.01 145023483 133030529 123034261 114689784 107812258 102494651
2998.79 99054152 97259618 96486100 96329164 96751578 97388723
3004.58 97766845 97486336 97171417 97231906 99057028 103164016
3010.36 106809771 106942099 107199316 111258096 118208291 126044971
3016.15 133576731 140551207 147849747 156478122 167640673 182287577
3021.93 200970943 223976984 251319532 282242814 316117868 351654792
3027.72 386998373 419859139 447033048 465078493 471935402 468514709
3033.51 462950608 468974502 492991246 518411583 525355500 520770850
3039.29 516530207 512019868 503218986 484960352 457893279 426143816
3045.08 392899459 359089117 325095054 291544429 260047492 231823408
3050.86 207762336 187632452 171676840 159603395 151275282 146546025
3056.65 145390461 146797565 150830802 157492410 168208095 182256789
3062.43 197262054 213364226 233457397 255277382 275787533 292027253
3068.22 301942406 304190601 303110754 306236575 321567066 349414014
3074.00 366348136 338657137 309766609 314964415 331931114 343642481
3079.79 343367365 331994960 312899040 290182054 268010487 250384669
3085.57 236877407 226619380 218101611 209878432 201094058 192118478
3091.36 182598332 172884160 163842038 157128109 153593026 153872908
3097.15 155944778 156315070 153331883 147920638 141018656 133447747
3102.93 125786525 118372374 111505758 105576364 100437240 95880367
3108.72 91747842 87919093 84081461 80037545 76278668 73100626
3114.50 70138339 66869670 63672997 61095669 58601850 56373694
3120.29 54099192 51633680 48411268 44357920 39552312 34664137
3126.07 30143721 26026155 22289037 19185725 16686457 14789596
3131.86 13271362 11974851 11013486 10260025 9469933 8881197
3137.64 8316649 8091187 7842176 7551111 7284767 7142014
3143.43 7070345 7128483 7037547 6926978 7058936 7214190
3149.21 7124875 7100637 7133466 7165899 7172525 7177105
3155.00 7224644 7353003 7500185 7656842 7676645 7786799
3160.79 7951973 8195480 8469006 8718386 8978293 9129805
3166.57 9232043 9353374 9708506 10248823 10608421 10885753
3172.36 11234017 11762562 12334044 12684923 12889843 13032298
3178.14 13057368 13142530 13452004 13682319 13672804 13933023
3183.93 13962368 13580739 13148266 12706178 11982132 11396128
3189.71 11129441 10848063 10420673 9958801 9344687 8680966
3195.50 8068176 7393411 6683990 5932382 5224589 4604214
3201.28 4129884 3846818 3618379 3250842 2682393 2401953
3207.07 2203891 1958985 1703792 1690656 1738488 1631628
3212.85 1642296 1593265 1333192 1156065 1049649 1148175
3218.64 1270565 1219931 1115240 1018547 889254 943900
3224.43 1062908 1015354 866497 868202 859216 834136
3230.21 788835 698855 751607 909004 840727 755892
3236.00 771933 854590 898364 979782 989380 791190
3241.78 709698 920309 1001576 1064443 1206120 1327035
3247.57 1387324 1455210 1600084 1509356 1286407 1440860
3253.35 1370914 1174552 1107335 1158697 1378964 1457495
3259.14 1366813 1402378 1435380 1408547 1360867 1383861
3264.92 1506664 1512464 1434910 1745235 1865535 1518030
3270.71 1468669 1617509 1435807 1518111 1650699 1465460
3276.49 1428986 1474159 1353656 1297894 1330835 1242999
3282.28 1135046 1144550 1021775 975638 942945 961752
3288.07 872397 900701 1041872 970071 898374 1009278
3293.85 1056815 1037886 1001778 1038248 1090040 960490
3299.64 872910 964805 1017369 1224986 1273447 1059695
3305.42 857355 833438 801078 693948 500232 470895
3311.21 511057 368001 367835 513009 454745 384377
3316.99 213993 21099-158635-71296 127611 129721
3322.78 6089-93120-163786-60620 43535 129350
3328.56 167765 221172 112979 27690 16375 40193
3334.35 139274 119545-143736-207198-77053 64768
3340.13 104468-6946 72210 93742 34670 83411
3345.92 62045 178084 208323-74637-180204 6092
3351.71 105304 117898 178327 87353-111326-232833
3357.49-158090-174051-244892-137956 259491 405726
3363.28 165217-88429-58936-44111-104068-164348
3369.06-181914-73141 24079-47815-29280-67088
3374.85-247263-109246 276879 310855 217950 200497
3380.63 68256 59201-6193-4484 202271 210630
3386.42 158150 12945 55168 99683 80820-39492
3392.20-54667 103483 409816 301445 229099 169447
3397.99 53114-8862 80397-60020-80547 95521
3403.77 154468 82186-37337-99293-150142-126390
3409.56-20159 62361-187105-373897-262883-213608
3415.35-380650-348792-199361-60678-134933-201279
3421.13-254476-249529-228933-167218-35699-54615
3426.92-306138-290751-8587 75151 94753 95817
3432.70 66941 55421 176303 233316 216477 239385
3438.49 144376-5248 11575 101429 220561 276787
3444.27 419082 377758 131630-14135 16810 77945
3450.06 407-128394-135287-81234-145386-122666
3455.84-241105-151717-119919-249010-380289-394329
3461.63-414337-397251-392820-539427-361802-237683
3467.41-445553-760301-723535-422379-266346-342018
3473.20-343397-333708-315450-333461-494263-611673
3478.99-413395-425715-657540-712993-597468-274046
3484.77-181515-516220-604455-614446-561701-680983
3490.56-907698-851117-781479-718598-638207-573801
3496.34-630117-584529-446162-373653-393014-320420
3502.13-422051-385537-113049-189888-397313-457325
3507.91-307842-272448-394172-389514-285222-296389
3513.70-69585 240494 418063 401631 307242 250407
3519.48 393779 606713 813085 946441 884300 852419
3525.27 821694 859597 1072204 1130924 998545 826427
3531.05 727692 759715 874287 953985 744712 613754
3536.84 486337 234209 310912 272824 101433-149606
3542.63-257431-186013-119421-124533-135980-101840
3548.41-121109-282467-236332-200748-344696-489749
3554.20-536156-440053-134732-73917-238984-209121
3559.98-307251-469661-382080-223513-166419-62758
3565.77-151979-364421-365004-327213-311052-308533
3571.55-382877-472468-482218-404290-341076-214284
3577.34-158944-340792-476043-525512-477012-396155
3583.12-278653-140201-33025-118571-309434-648435
3588.91-392121-73848-72513-133638-82681 22468
3594.69-12212-85660-22226 30849 47598 95864
3600.48 135180 18055-186970-117210-66977-216581
3606.27-135644-147907-348889-106004 92473 70693
3612.05 248326 224968 44263 58549 200695 328687
3617.84 349039 330182 689547 976283 1025563 1062367
3623.62 1132351 1142951 1274444 1047996 643117 531076
3629.41 711445 1048463 1184756 1198301 1208688 1343956
3635.19 1365457 1346916 1301053 1259716 1222864 1206473
3640.98 1145560 1244214 1368211 1398223 1481593 1491300
3646.76 1549161 1582614 1665033 1988067 2209935 2615156
3652.55 2930934 3001597 2604653 2199933 2369372 2688157
3658.33 2789619 2825532 2895694 2921808 2760554 2547015
3664.12 2390965 2048582 1835104 1552756 1212119 865243
3669.91 607596 960834 1028811 779803 362234 203592
3675.69 441902 759085 792496 669734 893134 1094201
3681.48 949825 777321 867351 1012895 1074370 859013
3687.26 358729 652066 1057760 1047962 1207951 1202735
3693.05 1137456 1302121 1347138 1154732 1134696 1364763
3698.83 1400049 1222911 1074824 1180462 1318702 1450880
3704.62 1497830 1355826 1232935 1184482 1212542 1447615
3710.40 1189900 968646 1346714 1415040 1338357 1383121
3716.19 1541952 1597989 1576661 1595676 1497731 1332108
3721.97 1305540 1446290 1485852 1324641 1184970 1143615
3727.76 1059439 1043186 1084446 704778 568521 704389
3733.55 473517 429706 366803 422282 664115 874299
3739.33 838383 570129 581001 486162-386331-316724
3745.12 576010 711882 478038 121298 109360 169480
3750.90-291329 114809 658372 572796 505761 498319
3756.69 653026 580830 531007 639751 880296 954131
3762.47 898593 815863 563961 541094 778077 804361
3768.26 703690 653147 839103 940361 975652 908881
3774.04 852155 819338 883442 935057 838188 786190
3779.83 915349 907501 972539 895035 805739 709309
3785.61 777298 992667 1138422 910749 723638 624708
3791.40 664056 797309 907008 721305 409541 418009
3797.19 714853 865953 737974 274648 346327 693409
3802.97 683783 825321 763902 459439 763576 1068707
3808.76 1066510 1037859 921414 932795 952804 904079
3814.54 395243 356991 1007621 1051979 855672 724067
3820.33 775635 989245 1045318 892281 897286 976152
3826.11 1030951 1155348 1284641 1199575 1032759 1062683
3831.90 1351238 1412364 1278154 1301363 1315577 856442
3837.68 1154857 1680145 1721508 1661794 1712426 1599948
3843.47 1619278 1749084 1760230 1715972 1633893 1424936
3849.25 1297736 939846 526749 262421-291797 270796
3855.04 861373 835100 692528 641565 765989 687543
3860.83 431025 396911 446460 262122 417776 448532
3866.61 358440 345166 59810 75284 363100 394607
3872.40 196989-71664 143733 143188 43341-41953
3878.18-192911-391338-256126-77459-150840-334454
3883.97-657375-800318-436222-216500-145405-207946
3889.75-380609-297561-96192-149923-135537-175677
3895.54-108126-6626-37763-304114-155387-38695
3901.32 102761 229129 68942 169974 295135 534690
3907.11 697896 647137 707641 819049 887664 861482
3912.89 820423 846671 1087713 989930 1051949 1269634
3918.68 1283970 1288336 1414232 1583281 1778260 1813740
3924.47 1923436 2051067 2264205 2478472 2650656 2832141
3930.25 2854921 2790315 3013016 3260071 3465147 3574229
3936.04 3612278 3605844 3836876 3887755 3807162 3630075
3941.82 3430871 3467747 3446443 3379228 3309523 3208651
3947.61 2907081 2596497 2582296 2658808 2551023 2399302
3953.39 2372460 2238490 2124694 1982940 1812732 1754279
3959.18 1876678 1901194 1841748 1827063 1940742 1943658
3964.96 1999565 2052435 2123896 2234538 2378371 2420624
3970.75 2349759 2228384 2178828 2276467
##END=
