##TITLE=BENZONITRILE
##JCAMP-DX=4.24
##DATA TYPE=INFRARED SPECTRUM
##CLASS=COBLENTZ
##ORIGIN=DOW CORNING CORP.
##OWNER=COBLENTZ SOCIETY
Collection (C) 2018 copyright by the U.S. Secretary of Commerce
on behalf of the United States of America. All rights reserved.
##DATE=Not specified, most likely prior to 1970
##CAS REGISTRY NO=100-47-0
##MOLFORM=C7 H5 N
##SOURCE REFERENCE=COBLENTZ NO. 4310
##$NIST SOURCE=COBLENTZ
##$NIST IMAGE=cob4310
##SPECTROMETER/DATA SYSTEM=PERKIN-ELMER 521 (GRATING)
##INSTRUMENT PARAMETERS=FILTERS AT 3150, 2500, 2000, 1150, 700, 410; GRATING CHANGES AT 2000, 630 CM^-^1
##STATE=SOLUTION (10.14% IN CCl4 FOR 3800-1300, 10.05% IN CS2 FOR 1300-600, AND 10.14% IN CS2 FOR 600-250 CM^-^1) VERSUS SOLVENT
##PATH LENGTH=0.010, 0.010 (NaCl CELL), AND 0.0201 CM (CsBr CELL)
$$ NEGATIVE ABSORPTION AROUND 1550 CM^-^1 IS DUE TO CCl4
##SAMPLING PROCEDURE=TRANSMISSION
##RESOLUTION=4
##DATA PROCESSING=DIGITIZED BY NIST FROM HARD COPY (FROM TWO SEGMENTS)
##XUNITS=1/CM
##YUNITS=TRANSMITTANCE
##XFACTOR=1.000000
##YFACTOR=1
##DELTAX=1.280006
##FIRSTX=234.88
##LASTX=3786.9
##FIRSTY=0.822
##MAXX=3786.9
##MINX=234.88
##MAXY=0.948
##MINY=0.017
##NPOINTS=2776
##XYDATA=(X++(Y..Y))
234.880000 0.8220 0.8220 0.8220 0.8220 0.8240
241.280030 0.8240 0.8250 0.8270 0.8270 0.8290
247.680061 0.8290 0.8290 0.8290 0.8290 0.8290
254.080091 0.8290 0.8290 0.8290 0.8290 0.8290
260.480121 0.8300 0.8300 0.8300 0.8300 0.8300
266.880152 0.8300 0.8300 0.8300 0.8300 0.8300
273.280182 0.8300 0.8290 0.8290 0.8290 0.8290
279.680212 0.8290 0.8290 0.8290 0.8300 0.8300
286.080242 0.8300 0.8300 0.8320 0.8330 0.8330
292.480273 0.8330 0.8330 0.8350 0.8370 0.8370
298.880303 0.8370 0.8380 0.8380 0.8380 0.8370
305.280333 0.8370 0.8370 0.8350 0.8330 0.8320
311.680364 0.8320 0.8330 0.8330 0.8330 0.8350
318.080394 0.8370 0.8380 0.8400 0.8410 0.8430
324.480424 0.8450 0.8450 0.8410 0.8370 0.8370
330.880455 0.8350 0.8330 0.8290 0.8290 0.8270
337.280485 0.8250 0.8250 0.8240 0.8240 0.8220
343.680515 0.8220 0.8220 0.8220 0.8220 0.8220
350.080546 0.8220 0.8220 0.8190 0.8190 0.8170
356.480576 0.8170 0.8160 0.8140 0.8060 0.8050
362.880606 0.8000 0.7950 0.7890 0.7820 0.7770
369.280637 0.7660 0.7521 0.7420 0.7171 0.6852
375.680667 0.6700 0.6480 0.6480 0.6859 0.6940
382.080697 0.7329 0.7549 0.7570 0.7600 0.7600
388.480727 0.7610 0.7630 0.7650 0.7660 0.7690
394.880758 0.7730 0.7740 0.7760 0.7770 0.7770
401.280788 0.7790 0.7770 0.7770 0.7790 0.7790
407.680818 0.7810 0.7840 0.7840 0.7850 0.7850
414.080849 0.7850 0.7850 0.7850 0.7850 0.7870
420.480879 0.7870 0.7870 0.7850 0.7850 0.7850
426.880909 0.7840 0.7840 0.7820 0.7810 0.7790
433.280940 0.7790 0.7810 0.7820 0.7820 0.7820
439.680970 0.7820 0.7820 0.7820 0.7840 0.7850
446.081000 0.7850 0.7840 0.7840 0.7820 0.7810
452.481031 0.7770 0.7710 0.7520 0.7460 0.7390
458.881061 0.7340 0.7310 0.7330 0.7459 0.7599
465.281091 0.7770 0.7790 0.7850 0.7920 0.7950
471.681122 0.8000 0.8000 0.7970 0.7950 0.7950
478.081152 0.7930 0.7920 0.7920 0.7890 0.7850
484.481182 0.7850 0.7840 0.7820 0.7810 0.7790
490.881212 0.7770 0.7770 0.7770 0.7760 0.7760
497.281243 0.7740 0.7740 0.7740 0.7740 0.7740
503.681273 0.7740 0.7730 0.7730 0.7730 0.7730
510.081303 0.7730 0.7730 0.7730 0.7710 0.7690
516.481334 0.7690 0.7690 0.7680 0.7660 0.7660
522.881364 0.7610 0.7600 0.7520 0.7420 0.7380
529.281394 0.7340 0.7330 0.7180 0.7150 0.6930
535.681425 0.6671 0.6620 0.6162 0.5045 0.3737
542.081455 0.3049 0.2520 0.1990 0.0941 0.0431
548.481485 0.0430 0.1078 0.1718 0.3024 0.3836
554.881516 0.5471 0.6070 0.6640 0.6980 0.7579
561.281546 0.7680 0.7810 0.7999 0.8159 0.8220
567.681576 0.8270 0.8290 0.8320 0.8330 0.8410
574.081607 0.8490 0.8530 0.8540 0.8560 0.8590
580.481637 0.8620 0.8640 0.8650 0.8650 0.8690
586.881667 0.8700 0.8700 0.8730 0.8750 0.8750
593.281697 0.8760 0.8780 0.8780 0.8780 0.8780
599.681728 0.8730 0.8730 0.8760 0.8780 0.8780
606.081758 0.8780 0.8780 0.8760 0.8760 0.8760
612.481788 0.8760 0.8780 0.8800 0.8810 0.8830
618.881819 0.8830 0.8840 0.8840 0.8840 0.8750
625.281849 0.8720 0.8610 0.8560 0.8540 0.8480
631.681879 0.8480 0.8490 0.8490 0.8510 0.8510
638.081910 0.8540 0.8540 0.8540 0.8530 0.8510
644.481940 0.8510 0.8480 0.8460 0.8410 0.8400
650.881970 0.8380 0.8350 0.8320 0.8300 0.8290
657.282001 0.8240 0.8160 0.8140 0.8240 0.8270
663.682031 0.8270 0.8240 0.8140 0.8030 0.7970
670.082061 0.7870 0.7789 0.6770 0.6640 0.6530
676.482091 0.6350 0.6240 0.6230 0.6190 0.6100
682.882122 0.5249 0.4710 0.4240 0.3700 0.3011
689.282152 0.0764 0.0271 0.0270 0.0678 0.1098
695.682182 0.2523 0.4261 0.4900 0.5220 0.5490
702.082213 0.5750 0.6179 0.6479 0.6590 0.6938
708.482243 0.7261 0.7580 0.7740 0.7810 0.7850
714.882273 0.7890 0.7900 0.7930 0.8000 0.8030
721.282304 0.8110 0.8170 0.8210 0.8220 0.8220
727.682334 0.8220 0.8210 0.8190 0.8170 0.8130
734.082364 0.8110 0.8080 0.8010 0.7970 0.7950
740.482395 0.7870 0.7760 0.7491 0.7311 0.6991
746.882425 0.6700 0.6460 0.6299 0.4800 0.4131
753.282455 0.3381 0.2871 0.0846 0.0173 0.0170
759.682486 0.0250 0.0470 0.0780 0.1020 0.1260
766.082516 0.2388 0.3697 0.4557 0.5088 0.5618
772.482546 0.6451 0.7170 0.7250 0.7460 0.7770
778.882576 0.7870 0.7970 0.8080 0.8130 0.8170
785.282607 0.8190 0.8220 0.8270 0.8300 0.8300
791.682637 0.8320 0.8330 0.8350 0.8350 0.8350
798.082667 0.8350 0.8380 0.8430 0.8450 0.8480
804.482698 0.8510 0.8510 0.8530 0.8530 0.8530
810.882728 0.8530 0.8530 0.8530 0.8530 0.8530
817.282758 0.8540 0.8530 0.8530 0.8530 0.8510
823.682789 0.8490 0.8490 0.8480 0.8480 0.8430
830.082819 0.8410 0.8380 0.8330 0.8320 0.8290
836.482849 0.8250 0.8240 0.8240 0.8250 0.8270
842.882880 0.8320 0.8380 0.8400 0.8430 0.8450
849.282910 0.8490 0.8510 0.8530 0.8540 0.8540
855.682940 0.8560 0.8560 0.8560 0.8560 0.8570
862.082971 0.8570 0.8570 0.8590 0.8590 0.8590
868.483001 0.8590 0.8590 0.8570 0.8560 0.8560
874.883031 0.8560 0.8540 0.8540 0.8530 0.8530
881.283061 0.8510 0.8510 0.8400 0.8370 0.8330
887.683092 0.8320 0.8300 0.8290 0.8290 0.8290
894.083122 0.8290 0.8270 0.8270 0.8270 0.8270
900.483152 0.8250 0.8170 0.8140 0.8090 0.8030
906.883183 0.8000 0.7950 0.7930 0.7850 0.7770
913.283213 0.7520 0.7410 0.7250 0.6940 0.6780
919.683243 0.6590 0.5382 0.4742 0.4740 0.5168
926.083274 0.5590 0.5711 0.6111 0.6640 0.7090
932.483304 0.7420 0.7789 0.7790 0.7820 0.7890
938.883334 0.7970 0.8060 0.8140 0.8170 0.8210
945.283365 0.8210 0.8220 0.8220 0.8240 0.8240
951.683395 0.8240 0.8240 0.8220 0.8210 0.8210
958.083425 0.8210 0.8210 0.8210 0.8190 0.8170
964.483456 0.8160 0.8160 0.8160 0.8160 0.8140
970.883486 0.8130 0.8130 0.8110 0.8090 0.8090
977.283516 0.8110 0.8110 0.8130 0.8130 0.8140
983.683546 0.8140 0.8130 0.8110 0.8110 0.8090
990.083577 0.8090 0.8080 0.8080 0.8090 0.8080
996.483607 0.8060 0.8030 0.8030 0.7980 0.7930
1002.883637 0.7900 0.7810 0.7810 0.8090 0.8170
1009.283668 0.8210 0.8220 0.8220 0.8210 0.8190
1015.683698 0.8160 0.8140 0.8090 0.8060 0.8060
1022.083728 0.7890 0.7810 0.7610 0.7421 0.6752
1028.483759 0.6424 0.4450 0.4452 0.6111 0.7770
1034.883789 0.7950 0.8060 0.8210 0.8270 0.8320
1041.283819 0.8330 0.8330 0.8370 0.8370 0.8380
1047.683850 0.8380 0.8370 0.8350 0.8330 0.8320
1054.083880 0.8320 0.8270 0.8240 0.8220 0.8170
1060.483910 0.8160 0.8130 0.7980 0.7930 0.7691
1066.883940 0.7579 0.7360 0.7150 0.6910 0.6820
1073.283971 0.6420 0.6420 0.7308 0.7599 0.7949
1079.684001 0.8030 0.8130 0.8140 0.8170 0.8170
1086.084031 0.8170 0.8160 0.8160 0.8140 0.8010
1092.484062 0.7970 0.7850 0.7810 0.7760 0.7680
1098.884092 0.7680 0.7770 0.7980 0.8140 0.8299
1105.284122 0.8450 0.8460 0.8490 0.8510 0.8510
1111.684153 0.8510 0.8490 0.8490 0.8490 0.8490
1118.084183 0.8490 0.8480 0.8460 0.8430 0.8430
1124.484213 0.8430 0.8430 0.8410 0.8410 0.8380
1130.884244 0.8370 0.8330 0.8330 0.8330 0.8330
1137.284274 0.8320 0.8300 0.8290 0.8270 0.8240
1143.684304 0.8210 0.8190 0.8190 0.8160 0.8160
1150.084335 0.8130 0.8050 0.8000 0.7930 0.7900
1156.484365 0.7850 0.7790 0.7630 0.7610 0.7420
1162.884395 0.7250 0.7250 0.7410 0.7440 0.7470
1169.284425 0.7520 0.7520 0.7490 0.7470 0.7420
1175.684456 0.7250 0.6960 0.6910 0.6481 0.6480
1182.084486 0.6911 0.7251 0.7530 0.7570 0.7580
1188.484516 0.7570 0.7530 0.7470 0.7360 0.7141
1194.884547 0.7141 0.7360 0.7531 0.7850 0.7950
1201.284577 0.7980 0.8060 0.8090 0.8130 0.8140
1207.684607 0.8140 0.8140 0.8140 0.8140 0.8140
1214.084638 0.8190 0.8210 0.8240 0.8320 0.8320
1220.484668 0.8380 0.8400 0.8430 0.8450 0.8460
1226.884698 0.8480 0.8490 0.8510 0.8530 0.8530
1233.284729 0.8530 0.8540 0.8560 0.8560 0.8570
1239.684759 0.8570 0.8610 0.8610 0.8590 0.8590
1246.084789 0.8590 0.8590 0.8590 0.8570 0.8570
1252.484820 0.8560 0.8560 0.8560 0.8540 0.8540
1258.884850 0.8560 0.8570 0.8570 0.8570 0.8570
1265.284880 0.8570 0.8560 0.8540 0.8530 0.8490
1271.684910 0.8450 0.8400 0.8330 0.8290 0.8250
1278.084941 0.8170 0.8140 0.8090 0.7950 0.7790
1284.484971 0.7500 0.7419 0.6979 0.6739 0.6260
1290.885001 0.6260 0.6990 0.7679 0.7760 0.7870
1297.285032 0.8000 0.8110 0.8160 0.8250 0.8430
1303.685062 0.8510 0.8570 0.8700 0.8720 0.8720
1310.085092 0.8720 0.8700 0.8720 0.8720 0.8720
1316.485123 0.8720 0.8720 0.8730 0.8730 0.8730
1322.885153 0.8730 0.8730 0.8720 0.8720 0.8700
1329.285183 0.8700 0.8620 0.8490 0.8330 0.8140
1335.685214 0.8050 0.8160 0.8210 0.8270 0.8400
1342.085244 0.8650 0.8670 0.8670 0.8690 0.8700
1348.485274 0.8700 0.8700 0.8700 0.8720 0.8720
1354.885305 0.8720 0.8700 0.8700 0.8700 0.8700
1361.285335 0.8700 0.8700 0.8690 0.8700 0.8700
1367.685365 0.8690 0.8690 0.8670 0.8670 0.8690
1374.085395 0.8700 0.8700 0.8690 0.8690 0.8670
1380.485426 0.8670 0.8640 0.8610 0.8570 0.8510
1386.885456 0.8460 0.8430 0.8370 0.8330 0.8350
1393.285486 0.8410 0.8480 0.8540 0.8610 0.8640
1399.685517 0.8650 0.8670 0.8670 0.8670 0.8670
1406.085547 0.8670 0.8650 0.8640 0.8640 0.8640
1412.485577 0.8640 0.8640 0.8640 0.8650 0.8670
1418.885608 0.8700 0.8700 0.8720 0.8780 0.8780
1425.285638 0.8700 0.8700 0.8640 0.8610 0.8570
1431.685668 0.8560 0.8530 0.8530 0.8510 0.8450
1438.085699 0.8380 0.8350 0.8329 0.8129 0.7820
1444.485729 0.7600 0.7250 0.7070 0.6661 0.4884
1450.885759 0.3550 0.1270 0.1283 0.5432 0.6341
1457.285789 0.7251 0.8010 0.8240 0.8380 0.8410
1463.685820 0.8460 0.8460 0.8480 0.8480 0.8480
1470.085850 0.8460 0.8460 0.8450 0.8450 0.8450
1476.485880 0.8450 0.8410 0.8380 0.8350 0.8320
1482.885911 0.8240 0.7970 0.7840 0.7071 0.6741
1489.285941 0.6368 0.5947 0.5116 0.3840 0.3795
1495.685971 0.1160 0.1161 0.3429 0.5697 0.7946
1502.086002 0.8430 0.8460 0.8510 0.8590 0.8640
1508.486032 0.8670 0.8670 0.8700 0.8700 0.8700
1514.886062 0.8720 0.8730 0.8730 0.8730 0.8750
1521.286093 0.8800 0.8810 0.8830 0.8830 0.8830
1527.686123 0.8830 0.8830 0.8830 0.8830 0.8840
1534.086153 0.8860 0.8890 0.8910 0.9020 0.9070
1540.486184 0.9161 0.9280 0.9370 0.9390 0.9420
1546.886214 0.9470 0.9480 0.9480 0.9480 0.9470
1553.286244 0.9450 0.9360 0.9340 0.9310 0.9260
1559.686274 0.9240 0.9200 0.9160 0.9130 0.9050
1566.086305 0.9040 0.8970 0.8920 0.8919 0.8700
1572.486335 0.8640 0.8540 0.8530 0.8510 0.8410
1578.886365 0.8399 0.8290 0.8190 0.8109 0.7890
1585.286396 0.7770 0.7770 0.8030 0.8190 0.8320
1591.686426 0.8300 0.8300 0.8210 0.8130 0.8010
1598.086456 0.7930 0.7810 0.7650 0.7220 0.6751
1604.486487 0.6754 0.7472 0.7930 0.8000 0.8060
1610.886517 0.8130 0.8190 0.8290 0.8350 0.8410
1617.286547 0.8450 0.8490 0.8530 0.8570 0.8610
1623.686578 0.8640 0.8640 0.8690 0.8700 0.8700
1630.086608 0.8700 0.8700 0.8720 0.8720 0.8720
1636.486638 0.8720 0.8720 0.8720 0.8730 0.8730
1642.886669 0.8720 0.8720 0.8720 0.8720 0.8720
1649.286699 0.8720 0.8720 0.8700 0.8700 0.8700
1655.686729 0.8700 0.8690 0.8690 0.8670 0.8670
1662.086759 0.8670 0.8690 0.8690 0.8690 0.8670
1668.486790 0.8650 0.8640 0.8560 0.8530 0.8490
1674.886820 0.8480 0.8380 0.8330 0.8320 0.8140
1681.286850 0.8060 0.8060 0.8110 0.8140 0.8220
1687.686881 0.8300 0.8370 0.8460 0.8530 0.8610
1694.086911 0.8610 0.8640 0.8640 0.8650 0.8690
1700.486941 0.8700 0.8720 0.8730 0.8730 0.8730
1706.886972 0.8720 0.8720 0.8720 0.8720 0.8720
1713.287002 0.8720 0.8720 0.8720 0.8720 0.8720
1719.687032 0.8720 0.8720 0.8700 0.8690 0.8690
1726.087063 0.8670 0.8670 0.8670 0.8670 0.8690
1732.487093 0.8690 0.8690 0.8690 0.8690 0.8670
1738.887123 0.8650 0.8650 0.8650 0.8650 0.8640
1745.287154 0.8640 0.8640 0.8640 0.8620 0.8610
1751.687184 0.8570 0.8560 0.8530 0.8490 0.8490
1758.087214 0.8410 0.8400 0.8330 0.8250 0.8210
1764.487244 0.8140 0.8110 0.8090 0.8110 0.8170
1770.887275 0.8250 0.8301 0.8430 0.8540 0.8570
1777.287305 0.8610 0.8620 0.8620 0.8640 0.8640
1783.687335 0.8640 0.8640 0.8640 0.8620 0.8620
1790.087366 0.8620 0.8640 0.8670 0.8690 0.8690
1796.487396 0.8690 0.8690 0.8690 0.8650 0.8620
1802.887426 0.8570 0.8510 0.8490 0.8430 0.8300
1809.287457 0.8169 0.8059 0.7930 0.7890 0.7890
1815.687487 0.7930 0.8110 0.8160 0.8330 0.8430
1822.087517 0.8490 0.8540 0.8570 0.8620 0.8620
1828.487548 0.8610 0.8610 0.8610 0.8590 0.8590
1834.887578 0.8590 0.8590 0.8590 0.8610 0.8610
1841.287608 0.8640 0.8690 0.8700 0.8700 0.8720
1847.687638 0.8720 0.8720 0.8750 0.8760 0.8760
1854.087669 0.8760 0.8760 0.8760 0.8760 0.8780
1860.487699 0.8800 0.8800 0.8800 0.8800 0.8800
1866.887729 0.8780 0.8780 0.8760 0.8760 0.8750
1873.287760 0.8730 0.8730 0.8720 0.8720 0.8700
1879.687790 0.8690 0.8670 0.8570 0.8510 0.8430
1886.087820 0.8330 0.8300 0.8250 0.8160 0.8060
1892.487851 0.7920 0.7870 0.7850 0.7870 0.7930
1898.887881 0.8081 0.8191 0.8290 0.8330 0.8350
1905.287911 0.8330 0.8330 0.8320 0.8300 0.8300
1911.687942 0.8290 0.8240 0.8220 0.8270 0.8320
1918.087972 0.8410 0.8490 0.8510 0.8540 0.8570
1924.488002 0.8590 0.8640 0.8650 0.8690 0.8700
1930.888033 0.8700 0.8700 0.8700 0.8700 0.8700
1937.288063 0.8700 0.8700 0.8690 0.8670 0.8670
1943.688093 0.8650 0.8650 0.8650 0.8640 0.8620
1950.088123 0.8610 0.8540 0.8490 0.8410 0.8320
1956.488154 0.8240 0.8170 0.8080 0.7980 0.7950
1962.888184 0.7950 0.7970 0.8010 0.8050 0.8160
1969.288214 0.8300 0.8320 0.8350 0.8350 0.8330
1975.688245 0.8330 0.8300 0.8250 0.8220 0.8190
1982.088275 0.8170 0.8170 0.8210 0.8330 0.8410
1988.488305 0.8510 0.8540 0.8590 0.8620 0.8640
1994.888336 0.8670 0.8690 0.8700 0.8720 0.8750
2001.288366 0.8765 0.8780 0.8790 0.8800 0.8805
2007.688396 0.8810 0.8810 0.8810 0.8820 0.8830
2014.088427 0.8830 0.8830 0.8830 0.8830 0.8835
2020.488457 0.8840 0.8840 0.8840 0.8835 0.8830
2026.888487 0.8830 0.8830 0.8835 0.8840 0.8850
2033.288518 0.8860 0.8860 0.8860 0.8860 0.8860
2039.688548 0.8860 0.8860 0.8860 0.8860 0.8851
2046.088578 0.8841 0.8840 0.8840 0.8840 0.8840
2052.488608 0.8840 0.8840 0.8840 0.8840 0.8840
2058.888639 0.8840 0.8835 0.8830 0.8830 0.8830
2065.288669 0.8830 0.8830 0.8830 0.8830 0.8830
2071.688699 0.8830 0.8830 0.8830 0.8830 0.8830
2078.088730 0.8830 0.8830 0.8830 0.8830 0.8834
2084.488760 0.8839 0.8840 0.8840 0.8840 0.8840
2090.888790 0.8840 0.8840 0.8840 0.8840 0.8840
2097.288821 0.8840 0.8836 0.8831 0.8830 0.8830
2103.688851 0.8830 0.8830 0.8830 0.8830 0.8821
2110.088881 0.8811 0.8810 0.8810 0.8806 0.8801
2116.488912 0.8800 0.8800 0.8800 0.8800 0.8792
2122.888942 0.8782 0.8780 0.8780 0.8780 0.8780
2129.288972 0.8780 0.8780 0.8780 0.8780 0.8780
2135.689003 0.8780 0.8780 0.8780 0.8772 0.8762
2142.089033 0.8760 0.8760 0.8760 0.8760 0.8760
2148.489063 0.8760 0.8748 0.8733 0.8730 0.8730
2154.889093 0.8726 0.8721 0.8712 0.8702 0.8700
2161.289124 0.8700 0.8700 0.8700 0.8696 0.8691
2167.689154 0.8682 0.8672 0.8670 0.8670 0.8662
2174.089184 0.8652 0.8639 0.8624 0.8620 0.8620
2180.489215 0.8620 0.8620 0.8628 0.8638 0.8640
2186.889245 0.8640 0.8640 0.8640 0.8640 0.8640
2193.289275 0.8633 0.8623 0.8609 0.8594 0.8572
2199.689306 0.8547 0.8511 0.8471 0.8431 0.8390
2206.089336 0.8369 0.8354 0.8343 0.8333 0.8326
2212.489366 0.8321 0.8294 0.8260 0.8207 0.8147
2218.889397 0.8083 0.8018 0.7790 0.7496 0.6495
2225.289427 0.5204 0.4575 0.4226 0.3888 0.3554
2231.689457 0.2671 0.1575 0.1260 0.1260 0.2116
2238.089487 0.3328 0.4123 0.4741 0.5356 0.5969
2244.489518 0.6483 0.6951 0.7372 0.7771 0.7978
2250.889548 0.8092 0.8133 0.8138 0.8140 0.8140
2257.289578 0.8150 0.8165 0.8224 0.8304 0.8364
2263.689609 0.8414 0.8463 0.8513 0.8550 0.8580
2270.089639 0.8590 0.8590 0.8596 0.8606 0.8610
2276.489669 0.8610 0.8620 0.8635 0.8643 0.8648
2282.889700 0.8666 0.8691 0.8706 0.8716 0.8720
2289.289730 0.8720 0.8723 0.8728 0.8730 0.8730
2295.689760 0.8730 0.8730 0.8730 0.8730 0.8730
2302.089791 0.8730 0.8727 0.8722 0.8720 0.8720
2308.489821 0.8720 0.8720 0.8714 0.8704 0.8691
2314.889851 0.8676 0.8664 0.8654 0.8647 0.8642
2321.289882 0.8640 0.8640 0.8640 0.8640 0.8640
2327.689912 0.8640 0.8643 0.8648 0.8650 0.8650
2334.089942 0.8641 0.8626 0.8611 0.8596 0.8590
2340.489972 0.8590 0.8596 0.8606 0.8610 0.8610
2346.890003 0.8610 0.8610 0.8613 0.8618 0.8620
2353.290033 0.8620 0.8625 0.8635 0.8640 0.8640
2359.690063 0.8640 0.8640 0.8640 0.8640 0.8643
2366.090094 0.8648 0.8650 0.8650 0.8655 0.8665
2372.490124 0.8670 0.8670 0.8670 0.8670 0.8670
2378.890154 0.8670 0.8665 0.8655 0.8650 0.8650
2385.290185 0.8650 0.8650 0.8650 0.8650 0.8655
2391.690215 0.8665 0.8670 0.8670 0.8670 0.8670
2398.090245 0.8675 0.8685 0.8692 0.8697 0.8705
2404.490276 0.8715 0.8720 0.8720 0.8720 0.8720
2410.890306 0.8720 0.8720 0.8720 0.8720 0.8722
2417.290336 0.8727 0.8730 0.8730 0.8730 0.8730
2423.690367 0.8730 0.8730 0.8730 0.8730 0.8730
2430.090397 0.8730 0.8730 0.8730 0.8730 0.8730
2436.490427 0.8730 0.8730 0.8730 0.8730 0.8730
2442.890457 0.8730 0.8730 0.8730 0.8730 0.8730
2449.290488 0.8730 0.8730 0.8730 0.8730 0.8730
2455.690518 0.8730 0.8730 0.8730 0.8730 0.8730
2462.090548 0.8730 0.8730 0.8730 0.8730 0.8730
2468.490579 0.8730 0.8728 0.8723 0.8720 0.8720
2474.890609 0.8720 0.8720 0.8722 0.8727 0.8730
2481.290639 0.8730 0.8730 0.8730 0.8728 0.8723
2487.690670 0.8716 0.8706 0.8704 0.8714 0.8720
2494.090700 0.8720 0.8720 0.8720 0.8720 0.8720
2500.490730 0.8720 0.8720 0.8716 0.8706 0.8698
2506.890761 0.8693 0.8690 0.8690 0.8690 0.8690
2513.290791 0.8690 0.8690 0.8692 0.8697 0.8700
2519.690821 0.8700 0.8700 0.8700 0.8703 0.8713
2526.090852 0.8722 0.8727 0.8730 0.8730 0.8730
2532.490882 0.8730 0.8730 0.8730 0.8730 0.8730
2538.890912 0.8730 0.8730 0.8730 0.8730 0.8730
2545.290942 0.8730 0.8730 0.8730 0.8730 0.8730
2551.690973 0.8728 0.8724 0.8717 0.8707 0.8700
2558.091003 0.8700 0.8700 0.8700 0.8693 0.8668
2564.491033 0.8650 0.8650 0.8650 0.8650 0.8649
2570.891064 0.8644 0.8640 0.8640 0.8640 0.8640
2577.291094 0.8641 0.8646 0.8655 0.8675 0.8691
2583.691124 0.8696 0.8699 0.8694 0.8690 0.8690
2590.091155 0.8687 0.8677 0.8670 0.8670 0.8667
2596.491185 0.8657 0.8653 0.8662 0.8672 0.8682
2602.891215 0.8691 0.8696 0.8700 0.8700 0.8700
2609.291246 0.8700 0.8700 0.8700 0.8700 0.8700
2615.691276 0.8700 0.8700 0.8700 0.8700 0.8694
2622.091306 0.8669 0.8650 0.8650 0.8655 0.8680
2628.491336 0.8702 0.8712 0.8720 0.8720 0.8718
2634.891367 0.8708 0.8700 0.8700 0.8700 0.8700
2641.291397 0.8702 0.8712 0.8720 0.8720 0.8720
2647.691427 0.8720 0.8720 0.8720 0.8720 0.8720
2654.091458 0.8718 0.8708 0.8700 0.8700 0.8700
2660.491488 0.8700 0.8698 0.8683 0.8670 0.8670
2666.891518 0.8668 0.8658 0.8649 0.8644 0.8638
2673.291549 0.8623 0.8610 0.8610 0.8608 0.8599
2679.691579 0.8589 0.8579 0.8570 0.8570 0.8571
2686.091609 0.8581 0.8590 0.8590 0.8590 0.8590
2692.491640 0.8590 0.8590 0.8593 0.8618 0.8642
2698.891670 0.8657 0.8673 0.8698 0.8721 0.8726
2705.291700 0.8730 0.8730 0.8730 0.8730 0.8730
2711.691731 0.8730 0.8730 0.8730 0.8730 0.8730
2718.091761 0.8730 0.8730 0.8730 0.8730 0.8730
2724.491791 0.8725 0.8720 0.8720 0.8720 0.8720
2730.891821 0.8720 0.8720 0.8720 0.8725 0.8730
2737.291852 0.8730 0.8730 0.8730 0.8729 0.8714
2743.691882 0.8699 0.8684 0.8670 0.8670 0.8670
2750.091912 0.8670 0.8670 0.8670 0.8670 0.8670
2756.491943 0.8670 0.8660 0.8650 0.8645 0.8639
2762.891973 0.8624 0.8610 0.8600 0.8589 0.8564
2769.292003 0.8539 0.8509 0.8479 0.8464 0.8450
2775.692034 0.8440 0.8431 0.8471 0.8511 0.8551
2782.092064 0.8590 0.8600 0.8610 0.8600 0.8590
2788.492094 0.8600 0.8610 0.8610 0.8610 0.8625
2794.892125 0.8640 0.8645 0.8650 0.8650 0.8650
2801.292155 0.8650 0.8650 0.8650 0.8650 0.8660
2807.692185 0.8670 0.8670 0.8670 0.8685 0.8700
2814.092216 0.8700 0.8700 0.8700 0.8700 0.8695
2820.492246 0.8690 0.8690 0.8690 0.8690 0.8690
2826.892276 0.8690 0.8690 0.8690 0.8690 0.8690
2833.292306 0.8690 0.8690 0.8690 0.8681 0.8671
2839.692337 0.8656 0.8641 0.8626 0.8611 0.8577
2846.092367 0.8542 0.8535 0.8530 0.8530 0.8530
2852.492397 0.8521 0.8511 0.8510 0.8510 0.8510
2858.892428 0.8510 0.8510 0.8510 0.8510 0.8510
2865.292458 0.8510 0.8510 0.8510 0.8510 0.8510
2871.692488 0.8510 0.8510 0.8510 0.8510 0.8510
2878.092519 0.8510 0.8510 0.8510 0.8510 0.8510
2884.492549 0.8510 0.8510 0.8510 0.8510 0.8510
2890.892579 0.8510 0.8510 0.8510 0.8510 0.8510
2897.292610 0.8510 0.8501 0.8491 0.8486 0.8481
2903.692640 0.8480 0.8480 0.8480 0.8480 0.8480
2910.092670 0.8480 0.8471 0.8461 0.8460 0.8460
2916.492701 0.8456 0.8451 0.8442 0.8432 0.8430
2922.892731 0.8430 0.8430 0.8430 0.8430 0.8430
2929.292761 0.8430 0.8430 0.8430 0.8430 0.8430
2935.692791 0.8430 0.8438 0.8448 0.8475 0.8504
2942.092822 0.8510 0.8510 0.8510 0.8510 0.8510
2948.492852 0.8510 0.8502 0.8492 0.8490 0.8490
2954.892882 0.8490 0.8490 0.8498 0.8508 0.8510
2961.292913 0.8510 0.8498 0.8483 0.8480 0.8480
2967.692943 0.8480 0.8480 0.8480 0.8480 0.8480
2974.092973 0.8480 0.8480 0.8480 0.8480 0.8480
2980.493004 0.8492 0.8507 0.8510 0.8510 0.8499
2986.893034 0.8484 0.8461 0.8436 0.8422 0.8413
2993.293064 0.8406 0.8401 0.8381 0.8357 0.8343
2999.693095 0.8332 0.8319 0.8304 0.8300 0.8300
3006.093125 0.8296 0.8291 0.8283 0.8273 0.8270
3012.493155 0.8270 0.8270 0.8270 0.8263 0.8253
3018.893185 0.8211 0.8156 0.8129 0.8114 0.8060
3025.293216 0.7989 0.7963 0.7953 0.7885 0.7795
3031.693246 0.7709 0.7625 0.7667 0.7762 0.7790
3038.093276 0.7790 0.7783 0.7773 0.7673 0.7534
3044.493307 0.7480 0.7465 0.7562 0.7711 0.7760
3050.893337 0.7760 0.7715 0.7650 0.7582 0.7512
3057.293367 0.7418 0.7314 0.7128 0.6904 0.6696
3063.693398 0.6497 0.6420 0.6405 0.6407 0.6417
3070.093428 0.6459 0.6519 0.6556 0.6581 0.6648
3076.493458 0.6739 0.6876 0.7036 0.7188 0.7338
3082.893489 0.7390 0.7390 0.7348 0.7283 0.7231
3089.293519 0.7186 0.7170 0.7170 0.7198 0.7243
3095.693549 0.7375 0.7559 0.7688 0.7783 0.7845
3102.093580 0.7885 0.7900 0.7900 0.7906 0.7916
3108.493610 0.7939 0.7968 0.8029 0.8109 0.8185
3114.893640 0.8260 0.8293 0.8298 0.8291 0.8276
3121.293670 0.8270 0.8270 0.8293 0.8333 0.8368
3127.693701 0.8398 0.8422 0.8442 0.8450 0.8450
3134.093731 0.8438 0.8418 0.8410 0.8410 0.8407
3140.493761 0.8402 0.8394 0.8384 0.8380 0.8380
3146.893792 0.8377 0.8372 0.8365 0.8355 0.8350
3153.293822 0.8350 0.8350 0.8350 0.8356 0.8366
3159.693852 0.8373 0.8378 0.8399 0.8434 0.8461
3166.093883 0.8481 0.8495 0.8505 0.8510 0.8510
3172.493913 0.8515 0.8525 0.8533 0.8538 0.8540
3178.893943 0.8540 0.8545 0.8555 0.8563 0.8568
3185.293974 0.8570 0.8570 0.8570 0.8570 0.8562
3191.694004 0.8547 0.8537 0.8532 0.8537 0.8552
3198.094034 0.8562 0.8567 0.8582 0.8607 0.8627
3204.494065 0.8642 0.8663 0.8688 0.8705 0.8715
3210.894095 0.8720 0.8720 0.8720 0.8720 0.8720
3217.294125 0.8720 0.8720 0.8720 0.8720 0.8720
3223.694155 0.8720 0.8720 0.8722 0.8727 0.8735
3230.094186 0.8745 0.8750 0.8750 0.8752 0.8757
3236.494216 0.8760 0.8760 0.8760 0.8760 0.8764
3242.894246 0.8774 0.8780 0.8780 0.8780 0.8780
3249.294277 0.8780 0.8780 0.8780 0.8780 0.8784
3255.694307 0.8794 0.8800 0.8800 0.8802 0.8807
3262.094337 0.8810 0.8810 0.8810 0.8810 0.8814
3268.494368 0.8824 0.8830 0.8830 0.8830 0.8830
3274.894398 0.8830 0.8830 0.8830 0.8830 0.8832
3281.294428 0.8837 0.8840 0.8840 0.8840 0.8840
3287.694459 0.8840 0.8840 0.8840 0.8840 0.8838
3294.094489 0.8833 0.8830 0.8830 0.8832 0.8837
3300.494519 0.8840 0.8840 0.8844 0.8854 0.8860
3306.894550 0.8860 0.8860 0.8860 0.8856 0.8846
3313.294580 0.8840 0.8840 0.8840 0.8840 0.8840
3319.694610 0.8840 0.8840 0.8840 0.8840 0.8840
3326.094640 0.8840 0.8840 0.8840 0.8840 0.8843
3332.494671 0.8853 0.8860 0.8860 0.8860 0.8860
3338.894701 0.8860 0.8860 0.8860 0.8860 0.8857
3345.294731 0.8847 0.8840 0.8840 0.8840 0.8840
3351.694762 0.8840 0.8840 0.8840 0.8840 0.8840
3358.094792 0.8840 0.8840 0.8840 0.8840 0.8840
3364.494822 0.8840 0.8840 0.8840 0.8840 0.8840
3370.894853 0.8840 0.8840 0.8840 0.8840 0.8840
3377.294883 0.8839 0.8834 0.8827 0.8817 0.8810
3383.694913 0.8810 0.8809 0.8804 0.8795 0.8775
3390.094944 0.8759 0.8754 0.8747 0.8737 0.8726
3396.494974 0.8711 0.8699 0.8694 0.8688 0.8678
3402.895004 0.8668 0.8658 0.8649 0.8644 0.8638
3409.295034 0.8628 0.8620 0.8620 0.8620 0.8620
3415.695065 0.8620 0.8620 0.8622 0.8632 0.8641
3422.095095 0.8646 0.8652 0.8662 0.8673 0.8688
3428.495125 0.8703 0.8718 0.8732 0.8742 0.8750
3434.895156 0.8750 0.8753 0.8768 0.8782 0.8792
3441.295186 0.8801 0.8806 0.8810 0.8810 0.8810
3447.695216 0.8810 0.8812 0.8822 0.8830 0.8830
3454.095247 0.8830 0.8830 0.8830 0.8830 0.8831
3460.495277 0.8836 0.8840 0.8840 0.8840 0.8840
3466.895307 0.8840 0.8840 0.8840 0.8840 0.8840
3473.295338 0.8840 0.8840 0.8840 0.8840 0.8840
3479.695368 0.8841 0.8851 0.8860 0.8860 0.8860
3486.095398 0.8860 0.8860 0.8860 0.8860 0.8860
3492.495429 0.8860 0.8860 0.8861 0.8871 0.8880
3498.895459 0.8880 0.8880 0.8880 0.8880 0.8880
3505.295489 0.8880 0.8880 0.8880 0.8880 0.8879
3511.695519 0.8869 0.8859 0.8849 0.8840 0.8840
3518.095550 0.8840 0.8840 0.8841 0.8851 0.8860
3524.495580 0.8860 0.8860 0.8860 0.8860 0.8860
3530.895610 0.8860 0.8860 0.8860 0.8860 0.8860
3537.295641 0.8860 0.8859 0.8849 0.8840 0.8840
3543.695671 0.8841 0.8851 0.8860 0.8860 0.8860
3550.095701 0.8860 0.8860 0.8860 0.8860 0.8860
3556.495732 0.8860 0.8860 0.8860 0.8870 0.8881
3562.895762 0.8896 0.8910 0.8910 0.8910 0.8910
3569.295792 0.8910 0.8915 0.8920 0.8920 0.8920
3575.695823 0.8930 0.8940 0.8940 0.8940 0.8940
3582.095853 0.8940 0.8950 0.8960 0.8960 0.8960
3588.495883 0.8950 0.8940 0.8940 0.8940 0.8940
3594.895914 0.8940 0.8940 0.8940 0.8940 0.8940
3601.295944 0.8940 0.8940 0.8930 0.8920 0.8920
3607.695974 0.8920 0.8920 0.8920 0.8920 0.8920
3614.096004 0.8930 0.8940 0.8940 0.8940 0.8940
3620.496035 0.8940 0.8940 0.8940 0.8950 0.8960
3626.896065 0.8950 0.8940 0.8930 0.8920 0.8920
3633.296095 0.8920 0.8920 0.8920 0.8920 0.8920
3639.696126 0.8929 0.8940 0.8940 0.8940 0.8940
3646.096156 0.8940 0.8931 0.8921 0.8915 0.8910
3652.496186 0.8910 0.8910 0.8910 0.8910 0.8901
3658.896217 0.8891 0.8849 0.8804 0.8800 0.8800
3665.296247 0.8841 0.8887 0.8899 0.8909 0.8915
3671.696277 0.8920 0.8943 0.8968 0.8970 0.8970
3678.096308 0.8943 0.8913 0.8910 0.8910 0.8910
3684.496338 0.8910 0.8910 0.8910 0.8910 0.8910
3690.896368 0.8910 0.8910 0.8910 0.8910 0.8910
3697.296399 0.8910 0.8914 0.8919 0.8920 0.8920
3703.696429 0.8920 0.8920 0.8929 0.8939 0.8940
3710.096459 0.8940 0.8927 0.8912 0.8889 0.8864
3716.496489 0.8860 0.8860 0.8873 0.8888 0.8890
3722.896520 0.8890 0.8890 0.8890 0.8898 0.8908
3729.296550 0.8923 0.8938 0.8961 0.8986 0.8990
3735.696580 0.8990 0.8990 0.8990 0.9002 0.9017
3742.096611 0.9032 0.9047 0.9050 0.9050 0.9058
3748.496641 0.9068 0.9070 0.9070 0.9038 0.8998
3754.896671 0.8990 0.8990 0.8990 0.8990 0.8982
3761.296702 0.8972 0.8970 0.8970 0.8970 0.8970
3767.696732 0.8966 0.8961 0.8944 0.8924 0.8936
3774.096762 0.8956 0.8964 0.8969 0.8978 0.8988
3780.496793 0.8990 0.8990 0.8990 0.8990 0.8990
3786.896823 0.8990
##END=
