##TITLE=Ethylbenzene
##JCAMP-DX=4.24
##DATA TYPE=INFRARED SPECTRUM
##CLASS=IUPAC A
##ORIGIN=NIST, Analytical Chemistry Division, 301-975-3108
##OWNER=COPYRIGHT (C) 2001 by the U.S. Secretary of Commerce
##DATE=01/06/01
##$SPECTRA VERSION=1.10
##$UNCERTAINTY IN Y=2.1 % relative (B=1.13E-04,C=1.09E-9,D=2.34E-14)
##CAS NAME=Ethylbenzene
##CAS REGISTRY NO=100-41-4
##MOLFORM=C6 H5 C2 H5
##MP=-94.97 C
##BP=136.2 C
##$NIST SOURCE=QUANT-IR
##SPECTROMETER/DATA SYSTEM=IFS66V (Bruker)
##INSTRUMENT PARAMETERS=KBr Beam Splitter; MCT Detector; Multipass cell
##STATE=gas
##SAMPLE DESCRIPTION=Ethylbenzene Primary Gas Standard
##PRESSURE=101.3 Pa
##TEMPERATURE=23 C
##SAMPLING PROCEDURE=1 L/min Flow
##RESOLUTION=0.9640
##DATA PROCESSING=Triangular Apodization
##XUNITS=cm-1
##YUNITS=(micromol/mol)-1m-1 (base 10)
##XFACTOR=1.0
##YFACTOR=4.5474E-13
##DELTAX=0.4820
##FIRSTX=575.17
##LASTX=3974.606
##FIRSTY=4.70E-06
##MAXX=3974.12
##MINX=575.17
##MAXY=.0004592
##MINY=-6.16E-07
##NPOINTS=7052
##XYDATA=(X++(Y..Y))
575.17 10348332 8743150 8831638 8924791 9471187 8933884
577.58 8070428 8649577 8729420 6101692 4771011 4651531
580.47 3697679 3587423 3350202 2476789 3684865 3370943
583.37 2694631 3685780 3050372 2321349 1900396 2293340
586.26 2997910 2300256 1403774 1444762 1907382 2036871
589.15 1700904 1248576 776173 1748648 1552841-340165
592.04 198035 836025 191327-262342-325327-79337
594.94-903331-459268 291288-290818-930982-764133
597.83 234247 816067 698243 464629 876064 1339361
600.72 513242-627849-1356082-1174986-273032-55974
603.62-679704-1046949-742934-625767-150594 68512
606.51 133464 633-188169 46614 81811 399240
609.40 624924-191245-595582 379325 685345 650226
612.29 142249-511178 50740-65445-978359-1042738
615.19-141000 405705-529579-955037 200957 249034
618.08-220782 756866 940354 85972-239649-293969
620.97-571601-186419 621143 110346 143237 571628
623.86 378508 675857 1645820 1680669 1076486 1317939
626.76 1913884 2694453 2886180 2598516 1188742 512457
629.65 1146859 774576 1037558 1381741 1091906 1028742
632.54 1554835 1466333 1581746 1802826 1412824 1626243
635.44 1266989 1098564 1812616 2453456 2202046 1055792
638.33 590346 904881 791874 550214 699769 788220
641.22 461828 244542 344804 480906 690860 912155
644.11 461764 418564 464983 85776-17029 78213
647.01 395169 299668 107314 33215-162824 210422
649.90 632062 491563 421964 677847-10724-52409
652.79 604302 443018 828289 1197091 1690043 1442581
655.68 1255208 1454574 1397108 1215400 1240369 1609678
658.58 1498428 1596617 1746061 2126624 2731472 2853508
661.47 2796921 2948860 3762862 4407143 4666871 4857831
664.36 4995409 5670716 6536714 7653741 8791158 8891545
667.26 9126556 10658310 12565736 14013343 14982909 16866964
670.15 19577179 22016560 24514246 26701695 29805752 33330778
673.04 36875931 40915824 44774245 49006936 54105917 60399837
675.93 66388599 72137142 78998539 86800155 94836797 102809881
678.83 110976272 119833292 129314978 139347134 150138455 160335133
681.72 171146882 182807918 194243656 205740928 217262167 229379174
684.61 241001217 252048488 263574914 275684691 289824747 304587897
687.50 319648891 333373030 338773065 340412286 345574645 353495568
690.40 363227909 373705765 384871505 397534011 411196821 427212422
693.29 445512463 463194050 481426496 506776695 543971375 601094228
696.18 680836712 782710615 846660173 731537570 545242042 464970013
699.08 443137715 434331245 425564151 417562940 412419579 407375172
701.97 402564669 397668599 392441135 387034963 382617124 378112736
704.86 373777609 370547269 368056960 362571914 351809983 339166748
707.75 327685312 317533780 308251734 299282973 290329516 280142013
710.65 270523341 261661801 252474185 243724266 235072024 226381785
713.54 218262552 210216700 203101199 196989176 191149977 186088557
716.43 181478083 177387802 174279932 171853912 170177597 168921127
719.32 167655093 167134088 167431836 167993164 169106948 170323641
722.22 171848439 173632286 175695226 177941733 179764111 182083389
725.11 184367050 186604751 188265004 189652581 191732145 194020871
728.00 196195628 197950898 199665468 201939308 204759616 206997944
730.90 208903315 211217271 213539871 215761590 218596799 221765070
733.79 225224951 228712509 231698355 234918863 238887667 242797409
736.68 247077152 249910106 251691250 255339549 259077123 258223997
739.57 259520145 264170750 263477820 258991735 259012380 263577685
742.47 264534401 261861422 260317287 259703114 262093107 266814618
745.36 261637090 253234575 252598037 253381004 252525476 252903981
748.25 253080905 253913391 254886953 260580753 287080108 328791149
751.14 317915733 267780987 247223911 248801771 238649678 222541175
754.04 218481793 218558991 216150672 208880701 202413536 197547283
756.93 194143861 190304938 186581726 183013574 179564366 176277269
759.82 172806868 169115308 165508004 162060039 158971389 155687317
762.72 152507459 149542118 146252780 143024433 139935111 137252841
765.61 134380522 131727359 129669646 127333445 125193706 124211197
768.50 123743346 122582843 121643111 122420881 124924707 130199939
771.39 141549759 148769723 135132826 112919247 100404116 94487501
774.29 91221424 89187579 87596193 86165411 84291924 82508335
777.18 81089964 79132306 77855450 76995565 75204882 73664860
780.07 72686152 70995293 69195183 67917394 66426892 65053731
782.96 63505945 61887837 60286845 58333374 56864467 55317447
785.86 53400914 51595994 49920647 48334112 46623991 44921663
788.75 43569694 41938987 40431904 39113688 37532653 35985215
791.64 34709455 33479810 32102967 31602139 30752658 29588086
794.54 28612831 28121794 27912153 27190065 26436648 25602790
797.43 24615947 23915984 23218335 22295818 21598508 21145732
800.32 20750798 20000209 19393027 19038043 18596021 17955298
803.21 17318732 16409035 15547605 15090036 14610541 14338993
806.11 14199884 13957333 13621358 12816953 12127074 11915070
809.00 11596818 11198539 10947314 10443379 10167117 10126289
811.89 9614881 8974724 8574019 8419892 8200725 7851632
814.78 7767286 7518639 7224135 7134235 6492064 6040921
817.68 6004982 5604560 5437942 5744099 5332195 4735404
820.57 4679466 5115251 4883394 4403837 4488677 4238669
823.46 4405359 4424219 4128446 3921463 3517459 3121910
826.36 2822857 2776041 2731282 2503336 2841352 3367283
829.25 3105230 2501462 2247661 2207333 2057508 1885129
832.14 1743469 1720310 1756325 1629835 1379522 1189916
835.03 1425201 1282485 833755 1130391 1631120 1633474
837.93 1138335 912951 958101 1017714 994882 722555
840.82 414583 355782 351714 214550 516781 919995
843.71 684007 439649 369544 344240 204713 22334
846.60 137285-68261-234468-129452 39660 13195
849.50 191432 258242-460085-443093-150265-160318
852.39-134655-203862-146049-58773-513233-730407
855.28-501208-576251-662626-685525-480574-330608
858.18-444940-458680-129444 123451 74145-87440
861.07-296106-524739-682562-483630-234282-39972
863.96 76282 111323 237675-71465 8444 252303
866.85 361694 552806 492647 731226 944030 1189813
869.75 1399452 1339621 1640123 1831037 1654762 1630380
872.64 1944226 2155447 2381385 2974607 3534166 3593370
875.53 3448547 3537975 3805448 4152298 4339804 4518284
878.42 4808644 5017213 5515114 6014808 6013478 6359389
881.32 6621476 6755617 7102061 7470655 7740225 8143240
884.21 8727909 9367932 9747459 9745746 9947252 10634236
887.10 11333087 11579419 11966527 12460592 12809609 13347811
890.00 13776550 13743092 13843164 14193787 14483942 14832779
892.89 14914136 14945863 15414938 15802578 15960254 16059529
895.78 16196715 16423797 16615685 16803820 17220838 17789695
898.67 18329614 19015522 19811664 21069727 22499134 24062340
901.57 26878426 31383883 39402504 48308718 42035737 27151355
904.46 21251879 19585380 18673461 18559288 18526587 17928007
907.35 17487243 17299257 16851936 16773236 16692908 16494386
910.24 16199914 15803975 15284863 14484746 13906548 13734799
913.14 13512772 12994244 12588679 11984685 11443046 10956540
916.03 10375436 9755368 8685397 7912751 7621197 7104422
918.92 6372281 5932115 5410378 4763574 4203837 3659270
921.82 3268298 2951685 2541820 2297760 2048775 1672804
924.71 1604561 1388790 857722 538804 564995 445129
927.60 149845 177897 226731 139560 98081 244864
930.49 338173 172009 40641-77340-157562-74777
933.39 77105-91894-170037-91995-210090-44971
936.28 112369 121654-2057-143985-42843 25133
939.17 192704 189808 52867 25636 215259 233066
942.06 155555 346502 321811 525104 831666 933101
944.96 1192189 1362676 1540823 1706718 1687776 1961978
947.85 2481850 2766238 3010677 3670582 4429754 4892227
950.74 5429386 6273868 7268488 8352626 9531039 10597617
953.64 11728827 12863239 14130400 15667989 17064443 18579645
956.53 19992737 20887315 21707705 22314081 22680165 23003886
959.42 23118220 23255895 23795662 24609454 25507158 26702891
962.31 28217701 29665165 29853401 28214411 26009244 24742434
965.21 24931011 25594587 26411441 27181279 27910800 28506254
968.10 28563432 28623471 28195013 27475260 26692411 25459280
970.99 23985965 22494686 21038563 19651626 18285774 17100925
973.88 16044806 14839437 13780326 13043745 12133369 11080497
976.78 10440769 10048805 9488585 8857528 8256341 7712500
979.67 7765634 7415635 6418100 5820797 5287155 4913457
982.56 4745652 4552077 4582984 4487848 4284183 4156240
985.46 4006509 4067864 3909446 3966647 4219956 4235241
988.35 4173422 4071051 3996185 4128373 4452075 4466525
991.24 4520406 4689730 4766226 4973035 4976279 4914365
994.13 5070352 5229674 5428121 5584911 5668607 5958635
997.03 6165226 6403540 6926512 7278936 7496009 7808741
999.92 8106322 8264741 8251344 8114145 8119719 8068979
1002.81 8101871 8195475 8206459 8775141 9509342 9778765
1005.70 9781015 9750718 9683346 9623893 9796354 9936178
1008.60 10128708 10383726 10705869 11128758 11496604 12124996
1011.49 12636280 12935313 13585536 14310031 14898435 15625083
1014.38 16500153 17414844 18421083 19687663 21090260 22643056
1017.28 24279640 25870339 27963075 30442401 32874612 35787866
1020.17 39108626 42132645 45289322 48760505 52248011 55793539
1023.06 59242937 62264894 64335503 65789226 66835134 67129335
1025.95 66944828 66386046 65313846 63939833 62755703 62301125
1028.85 63263775 66420153 72446164 80628421 81514041 75691930
1031.74 73499255 73712976 72874624 71457822 71027421 71340217
1034.63 71673355 71692165 71418441 70608956 69334231 68001482
1037.52 66312470 64614176 62845195 61052303 59295567 57341795
1040.42 55712691 54067901 52425874 50666560 48712804 47144854
1043.31 45782827 44385546 43234583 42019356 40964803 40302724
1046.20 39615944 39056868 38327929 37415819 36854906 36541343
1049.10 36165243 36056493 35995750 36077388 36400217 36613094
1051.99 37155549 37957861 38983508 40447128 42372570 44737566
1054.88 47112933 49621300 52281761 54570280 56946307 59155595
1057.77 60885336 62466595 63698622 64359202 64222787 63272274
1060.67 61786681 60022995 57868598 56261930 55971935 57710752
1063.56 62259066 69236067 74938088 75288774 65274165 51666143
1066.45 47990351 50114250 52811133 56001691 58880104 60885384
1069.34 61848461 61755576 60492628 58486822 55695161 52368905
1072.24 48792680 45207807 41601866 38168350 35201220 32465404
1075.13 30065021 27969289 26328308 25295425 24366080 23594906
1078.02 23049884 22899102 23060630 23240627 23360564 23525434
1080.92 23670544 24069850 24445967 24562400 24916203 25206599
1083.81 25069233 25060991 25169489 24813231 24551339 24163257
1086.70 23424094 22777003 22362950 22018379 21677179 21625345
1089.59 22084880 23030522 24040610 24977502 25949184 26574327
1092.49 26713565 26704591 26457381 26166712 26046484 25864179
1095.38 25667379 25492520 24946928 24215013 23946494 23674842
1098.27 23305342 23140356 22733348 22462470 22508831 22462374
1101.16 22225025 22142650 22108295 21929656 21471643 21043635
1104.06 20652757 19939331 19227082 18464959 17395648 16532402
1106.95 15938455 15303015 15258877 15381659 15201857 15094192
1109.84 15449841 15807799 15895205 15916885 15879938 15744629
1112.74 15466949 15454466 15485673 15251461 14641947 13952406
1115.63 13542021 13118105 12681797 12275770 11780584 11071463
1118.52 10521492 10324480 10143670 9558554 8978244 8801690
1121.41 8355348 7732962 7406664 7224858 7061234 6640248
1124.31 6131630 5915529 5709134 5448466 5303456 5053045
1127.20 4744892 4600752 4393575 4201617 4102131 3882603
1130.09 3555024 3347429 3376591 3595044 3765175 3528640
1132.98 3197247 3056601 2976937 2853142 2770565 2808140
1135.88 2795017 2616905 2490081 2423008 2174685 2095261
1138.77 2132519 2100945 1972586 1821465 1896064 1849943
1141.66 1676843 1696740 1638309 1670878 1741856 1633393
1144.56 1422354 1250386 1145438 1145898 1291227 1392929
1147.45 1450061 1363890 1324744 1430996 1602444 1392508
1150.34 1161689 1173886 1108906 1066713 1004324 1033668
1153.23 797671 573638 622928 402242 304049 349183
1156.13 238581 322176 439558 481326 441510 445411
1159.02 483369 550288 531357 491881 568529 511527
1161.91 372395 341373 298301 168329 99198 16035
1164.80 110841 154099 17560-50611-11044-42046
1167.70 74889 73498-40472 6441 89077 22446
1170.59-50773 41555 78388 58667 121889 74095
1173.48-171173-98081 192415 245937 113943 232467
1176.38 280139 270020 602367 951566 754222 474066
1179.27 571878 593886 474315 662913 849660 717185
1182.16 776231 980200 1107734 1139443 1086324 1085818
1185.05 1278972 1456708 1619930 1556019 1293193 1413944
1187.95 1402682 1412557 1545205 1690321 1899465 1866358
1190.84 1908907 1925846 2074534 2206362 2226966 2423501
1193.73 2425307 2488587 2582906 2572285 2662136 2600357
1196.62 2553473 2541984 2569128 2550168 2624471 2864776
1199.52 2853421 2745929 2728941 2836598 2838318 2735276
1202.41 2779573 2710479 2551430 2648399 2780278 2630546
1205.30 2656671 2918101 2750235 2674236 2792967 2498331
1208.20 2150044 1980119 1787197 1669773 1702804 1664121
1211.09 1639014 1563461 1369267 1257877 1017426 810995
1213.98 776140 799467 701322 435484 393451 449932
1216.87 365536 317365 441466 397216 367412 462390
1219.77 428609 313213 256354 297538 259891 134965
1222.66 73443 214264 205536 137836 181696 249061
1225.55 334101 444568 629557 784446 972163 1224701
1228.44 1517610 1736330 1907168 2126558 2375483 2532314
1231.34 2775277 3191204 3528440 3687833 3869956 4061413
1234.23 4119978 4083396 4060905 4078272 3954830 3956191
1237.12 4056183 4179018 4411477 4587966 4933181 5252540
1240.02 5315499 5461236 5272842 4833388 4760431 4793967
1242.91 5114073 5509379 5511370 5567325 5726131 5735402
1245.80 5593460 5511181 5466341 5461776 5249115 4923974
1248.69 4729936 4501687 4547388 4485479 4327570 4227013
1251.59 4076979 4103467 4016969 3754748 3682718 3778416
1254.48 3839151 3752127 3822094 4069386 3990334 3902264
1257.37 3946104 3847777 3728099 3645827 3601599 3596704
1260.26 3660015 3720252 3712674 3774587 3701767 3729253
1263.16 3846306 3731010 3549814 3469013 3480289 3589574
1266.05 3634828 3470595 3609964 3736773 3700853 3729847
1268.94 3715420 3634978 3595603 3545529 3285277 3221887
1271.84 3281062 3252416 3387425 3587728 3628350 3731981
1274.73 3724862 3711473 3805633 3925228 4099381 4345705
1277.62 4567213 4739890 4917268 4941256 5123985 5270536
1280.51 5423299 5566824 5576196 5665039 5817922 5956717
1283.41 6123481 6304180 6449587 6503155 6558447 6832077
1286.30 7063742 7304474 7548165 7748853 7963640 8145134
1289.19 8250786 8292485 8671844 9024569 9189603 9445238
1292.08 9651493 9847920 10127850 10360416 10505965 10566234
1294.98 10485946 10644369 10827176 11040054 11399457 11471656
1297.87 11399639 11437166 11656466 11947325 12088386 12007051
1300.76 12024382 12198116 12384874 12601606 12610981 12587048
1303.66 12715059 12937254 13213677 13330187 13417138 13541682
1306.55 13653225 13752330 13841415 13813847 13772258 13937965
1309.44 14120718 14378304 14682710 15011979 15510096 16078448
1312.33 16436263 16886783 17353064 18016227 18989161 19889530
1315.23 20622274 21397219 22510872 23405088 24523737 25907087
1318.12 26972352 28108790 29413831 30733155 32158838 33492341
1321.01 34851225 36694266 38303203 39568919 40898301 42678155
1323.90 44527085 45215775 44946599 44563328 44651457 44956449
1326.80 45051965 45189001 45581202 46206940 46706776 46831642
1329.69 47094914 47088996 46288862 45600517 45646448 45152175
1332.58 43831401 42926601 42205243 41610523 41225271 40812009
1335.48 40216848 39157630 38084359 37070856 35759399 34135375
1338.37 32606293 31217709 29604578 28083377 26555200 25025442
1341.26 23630149 22176071 20915407 19825857 18693327 18045684
1344.15 17357569 16233969 15364148 14731876 14135849 13559665
1347.05 13101362 12521612 12053353 11617002 11146107 10938939
1349.94 10626886 9978708 9208441 8774264 8896036 8851013
1352.83 8740768 8128419 8048594 8641926 7746486 7504543
1355.72 8081236 8235390 8182032 8035980 7930219 7861620
1358.62 8116041 8245546 8319669 8382899 8814488 9353534
1361.51 9346107 9630283 10078634 10713480 11622991 12060575
1364.40 12247393 12818584 13607674 14322784 15157099 15848579
1367.29 16456786 17226945 17816327 18566330 19421395 20176467
1370.19 20933267 21806673 22750253 23593337 24370417 25201325
1373.08 25758402 26259401 27332875 28269913 28937199 29444996
1375.97 29770332 30399677 31561157 33715454 38697041 42919575
1378.87 43185295 43218477 44918473 45273446 43162964 41117425
1381.76 39413356 37849138 37110471 36676025 36293076 36164839
1384.65 36091510 36186260 35825631 35402242 35171248 34912438
1387.54 34611609 34144077 33762341 33099991 32402552 31762440
1390.44 31009376 30118067 29131527 28259567 27214374 26127743
1393.33 25240629 24013252 23089671 22637249 21888824 21113073
1396.22 20592199 19977002 19203983 18632727 17951128 17256614
1399.11 16851194 16302068 15660826 15306547 15064809 14586842
1402.01 14115633 13795872 13476671 13177884 12819266 12773829
1404.90 12798535 12638837 12446090 12332857 12363086 12345537
1407.79 12238895 12029981 12081970 12216023 12211827 12398279
1410.69 12506658 12512082 12581330 12660389 12827754 13038353
1413.58 13262490 13233641 13207769 13532491 13582656 13542759
1416.47 13686177 13890741 14112083 13984295 13802617 13826305
1419.36 14368441 15103390 15619978 15899843 16055865 16474331
1422.26 16845453 17148328 17241549 17377148 17784107 18006446
1425.15 18261241 18595886 19028607 19426479 19717822 20172891
1428.04 20673477 21090759 21484023 22026274 22672907 23286544
1430.93 23971369 24918419 25857948 26705887 27739987 28897197
1433.83 30094791 31357499 32794412 34357564 35516959 36846978
1436.72 39233781 41736163 44043879 46434778 48861209 51501436
1439.61 54359474 57331020 60441111 63715659 67280288 71076849
1442.51 74961475 79258444 83647589 88102538 92761363 97534109
1445.40 102399217 107478080 112816781 118126646 123353152 128996635
1448.29 134989815 140718134 145879368 150352969 154142535 157636716
1451.18 161149647 164124538 166261846 168003350 169262047 169749188
1454.08 169650524 169238065 169048175 169623509 171230946 175469011
1456.97 182290994 188543577 193038367 194961109 193366299 189420454
1459.86 184804570 180918602 179022225 179103319 180630675 183056090
1462.75 185379317 186447248 186263044 184646435 182046915 178908319
1465.65 174783752 170470814 166561636 162825955 158836162 155048031
1468.54 151372612 147554730 144828451 142917117 140405372 138172944
1471.43 135238200 126639309 113893212 105744016 102512510 100145754
1474.33 97759802 95354985 92925128 90248877 87508672 84610078
1477.22 81452979 78386271 75450946 72636433 70098393 67671167
1480.11 65621735 63897618 62497998 61510535 60808274 60638731
1483.00 60892631 61459963 62708997 64642718 66916268 69867347
1485.90 73560784 77818353 82771452 88650383 95421782 103003699
1488.79 111110801 119723096 129003084 138459330 148449787 158876217
1491.68 169054678 179100530 188547808 197019772 204339514 208811974
1494.57 209497904 205572959 198434289 192228636 188037911 186435148
1497.47 188480294 195912557 209616564 228086458 239701585 227777511
1500.36 204081156 186058117 175901061 174336602 178603252 182684273
1503.25 186128091 190300007 192967842 192503242 189165346 184240160
1506.15 175919730 165275388 154076951 141403707 127915217 114646500
1509.04 101577582 89339595 78345783 68219832 59189468 51298452
1511.93 44690698 39419324 34804419 30963367 27873884 25002357
1514.82 22794718 21119328 19390076 18156703 17301028 16727142
1517.72 16486867 16263941 15774299 14897746 14170258 13609791
1520.61 12854138 13079040 13498308 13408071 13596580 13700353
1523.50 13963587 14072931 13667526 13374746 13504611 13671150
1526.39 13799073 13790030 13752204 13847286 13890359 13947816
1529.29 13993014 13899952 13775290 13628431 13269915 12910229
1532.18 12610912 12154310 11605521 11290378 11121849 10818978
1535.07 10676202 10517537 10276650 10454803 10793020 11038455
1537.97 10955767 10396501 11025014 11375879 11086640 11539011
1540.86 11403520 10455844 10104951 10459250 10322745 10064135
1543.75 9749109 9116636 8598817 8716878 8815221 8680461
1546.64 8478524 8375936 8328385 8225578 8164549 7996427
1549.54 7980624 7970512 7878215 7825564 7840974 7857308
1552.43 7723738 7738983 7425542 7026862 7436031 7638311
1555.32 7530648 7597893 7537645 6923903 6562124 6033041
1558.21 5971208 6854267 6612086 6135904 6637079 7139521
1561.11 7116873 7146812 7142264 7222725 7311553 7324365
1564.00 7222476 7186544 7409349 7554932 7519413 7417163
1566.89 7271439 7237345 7325943 7300697 7009600 6801055
1569.79 7177078 7433081 7562393 7693279 7860446 8014004
1572.68 8119311 8257914 8521477 8784213 8890451 8558652
1575.57 7784117 8599104 9750367 10033828 10630662 11107781
1578.46 11412676 11724431 12075757 12409966 12661375 13059009
1581.36 13447096 13811529 14297906 14740452 15218902 15767675
1584.25 16545261 17289869 18060392 18973491 19943589 21202182
1587.14 22305189 23558113 25051058 26352151 27721990 29119340
1590.03 30354461 31445683 32521918 33556029 34518369 35567264
1592.93 36811356 38247876 39533306 40862380 42676492 44562233
1595.82 46627410 49254545 52037394 55147920 58915779 63235664
1598.71 68751423 72962308 75026629 78538075 83780855 89568020
1601.61 95116740 100277657 105218964 109550242 112975199 115591166
1604.50 117435402 118240367 118177778 117338094 115841158 114029494
1607.39 112287778 110681170 109347913 108743135 109459976 111346494
1610.28 113348802 113688437 112544937 107041484 98791615 94726790
1613.18 93783314 93975761 94814882 95355390 94995803 93558102
1616.07 90560447 87444714 84053167 79244656 73759723 67871949
1618.96 61904348 56244293 50615853 45203727 40312407 35835756
1621.85 31735267 28012225 24544205 21665662 19634509 17743945
1624.75 15907838 14439040 13189345 11974120 10989510 10109891
1627.64 9426078 8974979 8604950 8142889 7765398 7548934
1630.53 7115674 6825216 6798323 6636135 6418583 6361649
1633.43 6354809 6108845 5670771 4808064 4700850 5569160
1636.32 5802158 5564250 5546880 5689097 5807107 5824876
1639.21 5796796 5807567 5850644 5844047 5811751 5956104
1642.10 6124844 6195662 6268356 6507784 6675345 6631376
1645.00 6239035 5949786 6643226 7055419 7227012 7505068
1647.89 7644527 7927639 8029538 8157574 8255762 8297556
1650.78 8354618 8007769 7094157 6759796 6632305 7346311
1653.67 8123711 8433914 9081557 8910464 8521732 8386591
1656.57 8344675 8131623 7875092 7925567 8014144 7931367
1659.46 7887555 7943988 8124300 8208640 8130806 7756336
1662.35 7469617 7527275 7456766 7475690 7375452 7244235
1665.25 7199506 7103881 7019235 6959601 6860367 6635096
1668.14 6501362 5996198 5910525 6281461 6408217 6203859
1671.03 5918037 5916285 5759684 5647184 5587967 5469624
1673.92 5445990 5285672 5193685 5679430 5823518 5535759
1676.82 5272205 4938356 4748521 4717786 4759201 4695737
1679.71 4667142 4645988 4671263 4602331 4435617 4179757
1682.60 3698379 3458648 3242591 2093401 1802167 2854183
1685.49 3002321 2822226 2756049 2777185 2612408 2399669
1688.39 2310370 2223360 2210472 2191529 2166966 2051050
1691.28 1964809 2080916 2070901 1967217 1962327 1953285
1694.17 1852867 1517979 408163 301288 1502408 1827532
1697.07 1822443 1767918 1693188 1776888 1292775 664006
1699.96 705580 1111165 1821032 2056826 1869279 1681958
1702.85 1678923 1636425 1471462 1587554 1680960 1549707
1705.74 1421887 1636010 1833136 1842648 1928633 1970892
1708.64 1937204 1886538 1762943 1888206 1997562 1969851
1711.53 2055534 2070525 2021813 2002908 2059232 2144723
1714.42 1821692 1807088 2198785 2447489 2231853 1522542
1717.31 2089464 2585127 2490834 2885682 3183219 3453363
1720.21 3648871 3771722 3985737 4269181 4502829 4763794
1723.10 4977583 5103901 5460293 5784918 5977947 6381046
1725.99 6770669 7025804 7326952 7620559 8000392 8494168
1728.89 8954634 9366228 9992919 10530190 10851505 11319782
1731.78 11819908 12177101 11921412 12329776 12742059 12743509
1734.67 13618812 14147092 14292097 14248050 14053170 13948756
1737.56 13810676 13505365 13019032 12129454 11426502 11405632
1740.46 11264803 11263359 11542974 11964833 12568518 13272275
1743.35 13983778 14427563 14571805 14547174 14363983 14021094
1746.24 13501831 12921117 12410311 11823647 11118337 10603478
1749.13 10130865 9573900 8976741 7983220 7552722 7564059
1752.03 7112681 6707489 6343087 5774952 5303273 5193077
1754.92 4963635 4590783 4126933 3715102 3580210 3356917
1757.81 3056471 2863448 2719104 2592339 2429977 2249926
1760.71 2017552 1499852 1451453 1543856 1394380 1357161
1763.60 1326543 1334342 1269696 1202448 1221587 1237529
1766.49 1324136 1357195 1082954 1215839 1629361 1797611
1769.38 1969116 2088283 2122997 2136423 2413949 2262378
1772.28 1945621 2490575 2796912 2743487 2760413 2702273
1775.17 2577585 2455021 2401115 2491741 2830309 3305053
1778.06 3832157 4274078 3986190 3236983 2990251 3180684
1780.95 3539663 3891362 4302171 4798742 5230172 5680355
1783.85 6035354 6347742 6964977 7771329 8598287 9434062
1786.74 10321267 11308870 12455540 13683664 14907889 16322846
1789.63 17751906 18976960 20285841 21712505 22681500 23297487
1792.53 24351692 25312652 25792838 26217201 26351901 26121545
1795.42 25722563 25604813 26061805 27082065 28584825 30321432
1798.31 31971789 33094358 33136736 29892261 25794988 24981948
1801.20 25910796 27051271 28197541 29300260 30133215 30763494
1804.10 31026212 30453294 29313966 27630858 25220520 23009932
1806.99 21435308 20120586 19015555 17982020 17065027 16162746
1809.88 15175801 14380890 13627010 12785919 12006079 11210425
1812.77 10519062 9822055 9154909 8612518 7986946 7287871
1815.67 6772230 6410767 6008458 5791820 5827304 5922505
1818.56 6087854 6319488 6399985 6474896 6461076 6343506
1821.45 6258448 6110028 5916093 5674919 5404821 5022910
1824.35 4654220 4382124 4187049 4007361 3823254 3606917
1827.24 3332916 3140363 2914610 2767485 2546574 2284582
1830.13 2352211 2380118 2257566 2091346 2004676 1995556
1833.02 1837829 1728445 1740409 1771995 1804645 1781566
1835.92 1761563 1702287 1791200 1853542 1801738 1860182
1838.81 1944803 1944149 2012356 2121097 2150983 2333842
1841.70 2574550 2667732 2730092 2786779 2631233 2988767
1844.59 3543589 3833909 4178213 4431624 4731990 5011887
1847.49 5401580 5873598 6268900 6580654 7053582 7513031
1850.38 7915984 8395727 8880679 9485833 10187933 10902518
1853.27 11636671 12495617 13305816 14044933 14816835 15616738
1856.17 16306221 16943095 17581985 18201039 18806955 19225188
1859.06 19575481 19798429 19816142 19822138 19648013 19292509
1861.95 18850293 18218140 17473465 16827770 16249653 15914070
1864.84 16067552 16701335 17877620 19564237 21230565 22461912
1867.74 23549693 24260222 24546539 24876999 25203901 25336213
1870.63 25451684 25687216 25859988 26014879 26162000 26300202
1873.52 26407086 26362266 26171352 25849963 25356132 24612189
1876.41 23895656 23234877 22352348 21266368 20307559 19695046
1879.31 19755904 20769034 22428852 23423327 22468211 19216544
1882.20 15297634 13682253 13967720 14816018 15796338 16536574
1885.09 17160011 17435856 17219489 16727426 16031989 15055211
1887.99 13885499 12607225 11160728 9818680 8664913 7480961
1890.88 6451430 5494076 4685603 4011402 3520868 3093391
1893.77 2674937 2357017 1988132 1745750 1626837 1568811
1896.66 1487409 1317826 1127812 1064542 1039376 1017686
1899.56 1138078 1145147 1031426 904203 860635 914887
1902.45 955220 1025524 995236 1019109 1074471 1074592
1905.34 1024606 956989 1020665 1122805 1182597 1267618
1908.23 1260434 1278886 1327723 1327991 1374186 1430888
1911.13 1524205 1598344 1719713 1841770 1929359 2136893
1914.02 2312824 2407291 2635489 2877220 2969964 3184183
1916.91 3409364 3422594 3618244 3993603 4349110 4643917
1919.81 4896284 5221604 5547495 5907869 6367859 6714462
1922.70 7024384 7530398 8068554 8634745 9175876 9612552
1925.59 10126397 10654480 11272332 11964553 12685367 13413964
1928.48 14367726 15420946 16198005 17112493 18255143 19277307
1931.38 20206467 21182714 22061319 22920836 23802536 24462054
1934.27 24832805 25276461 25685071 25700754 25646845 25463467
1937.16 25034068 24400981 23786864 23005709 21982869 21149939
1940.05 20507137 20243826 20439851 21119701 22480994 24391411
1942.95 26305011 27960060 29170296 29844248 30198534 30338371
1945.84 30423315 30406316 30270285 30192167 30095287 29789136
1948.73 29450680 29163279 28921391 28699532 28373734 27842257
1951.63 27274451 26800031 26127417 25389356 24690765 23896644
1954.52 23053512 22095541 21153114 20374171 19947891 20254443
1957.41 21237445 22306483 22153828 18898642 14733028 13361049
1960.30 13723201 14401978 15165093 15934126 16375265 16413737
1963.20 16198725 15489983 14491326 13462271 12207483 10713314
1966.09 9397981 8116680 6916164 5907036 4895817 4004258
1968.98 3329255 2681607 2161735 1783914 1471483 1240140
1971.87 1052173 978395 974498 1018193 1088807 924524
1974.77 579053 478713 443372 507534 676957 717195
1977.66 748172 801281 839003 748539 783784 942127
1980.55 978910 1006300 1178412 1298650 1275773 1268445
1983.45 1335367 1376944 1296154 1317059 1262594 1033707
1986.34 871913 795914 815827 872047 979620 1028139
1989.23 955629 853404 778879 726262 634827 594963
1992.12 688837 888206 914792 819990 771215 720644
1995.02 624145 466789 439838 474516 462795 421211
1997.91 343100 290130 291911 365434 269765 130524
2000.80 130323 175878 168781 130499 80585-80249
2003.69-154482-40487-23933-32128-61783-83878
2006.59 30829 30542 77241-26560-91651 114038
2009.48 127188-6324 3111 30462 28466 58216
2012.37 70275 122280 160248 254470 268571 328370
2015.27 382577 307113 371393 455479 468250 545443
2018.16 648260 718490 770425 833368 856944 783456
2021.05 822534 925489 863481 856718 898782 969400
2023.94 1130782 1197605 1126017 1023713 985139 1050674
2026.84 1149095 1115783 1091634 1172906 1272644 1316814
2029.73 1353827 1306047 1276474 1273231 1283010 1370059
2032.62 1254417 1042699 845623 834110 919973 818912
2035.51 866691 966112 867408 873652 875271 761656
2038.41 682575 626316 663756 583020 455960 570607
2041.30 520360 429204 481225 423231 316415 218928
2044.19 148978 157571 230797 114708 30363 34930
2047.09-129772-223800-244595-226327-166234-212546
2049.98-298456-413274-464704-461764-562421-648981
2052.87-660659-614285-606091-636439-583142-442317
2055.76-390562-482009-504652-601724-698817-676858
2058.66-789293-823397-705338-761009-780056-777158
2061.55-894553-849895-824343-827271-828937-901574
2064.44-799799-769727-845488-797800-865359-963831
2067.33-921315-891955-906390-917442-781538-676780
2070.23-702310-723667-758697-974903-986444-842075
2073.12-891866-938856-846717-808907-846612-778410
2076.01-807058-818852-779945-789286-851355-830538
2078.91-771778-771233-836377-907003-816575-703337
2081.80-726977-750013-704364-705877-690443-662469
2084.69-701464-625298-596782-691399-709379-673583
2087.58-682541-610792-458848-428627-412050-466771
2090.48-532148-544750-475633-496853-564929-543380
2093.37-531500-395842-401064-473095-451639-437433
2096.26-459892-416621-268187-284212-302220-250486
2099.15-290285-248526-249476-305817-270051-314262
2102.05-358880-275452-260979-346145-423546-433113
2104.94-441282-419347-436411-455296-328007-307148
2107.83-366429-316801-262684-337843-434904-408826
2110.73-327129-274950-272354-373985-370882-362715
2113.62-370033-335776-392589-236218-202542-302557
2116.51-239954-131798-28897-33314-155599-133676
2119.40 17534-49331-106184-28645 22517 32642
2122.30 107364 104512 116466 201609 169589 175490
2125.19 197403 189189 142312 116326 177596 192537
2128.08 203050 156809 38815-20036 73864 116797
2130.97 99056 119867 109114 155200 293334 314455
2133.87 179080 84285 117310 49496-81478-132506
2136.76-90604-60401-163358-191333-70907 53392
2139.65 37596-51955-105153-89537-109251-152018
2142.55-153263-160604-117493-57920-21690-75148
2145.44-64625-19387-69952-7223 29494 19529
2148.33-39058-128531-71271 62403 52659 23984
2151.22 66836-57762-110591-39898-25728 26647
2154.12-19305-7958 6334 2483 62195 72874
2157.01 38680-73519-32339 37615-7339-41330
2159.90 59656 45145-23673 21128 13076 151369
2162.79 236154 226787 165291 167173 172862 142444
2165.69 160680 130715 134488 219162 238336 208869
2168.58 256671 264366 220782 208151 231555 204470
2171.47 143055 142542 92775 119850 277389 271194
2174.37 276723 280584 218233 173661 146418 135365
2177.26 307636 414663 372212 336860 329815 351036
2180.15 164324 206247 329352 273515 158971 126580
2183.04 174346 228116 292247 260050 230889 225614
2185.94 172321 187822 207105 246808 374945 300659
2188.83 257729 307978 231799 147960 65151 73278
2191.72 67658 60530 153356 126919 141959 164451
2194.61 134974 105406 74480 22024-8187 117180
2197.51 147152 96999 70504 14963 132851 198081
2200.40 151522 163736 169648 275676 361803 357503
2203.29 336713 290038 233018 217412 330976 429707
2206.19 450194 490235 635756 771529 720927 601104
2209.08 530768 612152 780582 869368 781547 705489
2211.97 809083 932161 993398 953158 988423 1008047
2214.86 1042771 1094462 1002181 1001488 1010779 1046568
2217.76 1184033 1232955 1221204 1107598 1111872 1322650
2220.65 1309512 1169708 1211531 1297394 1291680 1311346
2223.54 1306131 1251928 1284384 1282615 1275212 1279865
2226.43 1237863 1263366 1261328 1239817 1216909 1242656
2229.33 1309732 1433435 1450901 1369267 1449380 1478353
2232.22 1425927 1408105 1389906 1478444 1538067 1582513
2235.11 1571829 1526227 1456991 1451405 1567865 1504072
2238.01 1513822 1543218 1428085 1434190 1522031 1489924
2240.90 1431442 1469389 1498891 1338244 1342166 1454949
2243.79 1423176 1408024 1435984 1410842 1366394 1363534
2246.68 1386548 1358374 1329236 1386742 1365731 1224734
2249.58 1179971 1182722 1208479 1222697 1128310 1118734
2252.47 1187587 1233445 1097194 1020663 1111622 1091695
2255.36 1073579 1029788 983700 1044820 1253040 1350080
2258.25 1340616 1385451 1323183 1179136 1196000 1320790
2261.15 1256523 1372072 1393118 1298886 1459952 1591989
2264.04 1654294 1634612 1484233 1408172 1455419 1640309
2266.93 1756113 1691716 1689583 1711241 1780413 1810602
2269.83 1790330 1944653 2103748 2169178 2165201 2151245
2272.72 2067206 1981610 2033877 2178165 2365221 2355817
2275.61 2272162 2310993 2269345 2283135 2431027 2409759
2278.50 2343388 2331602 2425365 2543114 2476884 2418956
2281.40 2424673 2442608 2529539 2590681 2468385 2440830
2284.29 2442961 2405565 2423898 2349084 2334916 2306318
2287.18 2246426 2221661 2260717 2301664 2265619 2302726
2290.07 2354077 2297735 2244225 2244786 2185987 2061487
2292.97 1958326 1985597 1995452 1882096 1847032 1822511
2295.86 1788087 1770031 1679717 1583925 1545631 1594587
2298.75 1512698 1414606 1492746 1592404 1618998 1616986
2301.65 1527691 1494391 1634163 1776078 1903136 1976827
2304.54 2105932 2340681 2572477 2820248 3019309 3178898
2307.43 3341731 3485096 3475658 3600666 3846109 3830069
2310.32 3517804 3205525 3143721 3084823 2655397 2475855
2313.22 2886391 3309888 4012560 4788729 4714625 3774130
2316.11 2999297 2684001 2956145 3491409 3481258 3211653
2319.00 3601478 4119045 4109031 3732999 3583539 3846231
2321.89 3752169 3192714 3136739 3470553 3172288 2459317
2324.79 2492374 3022709 2742786 2090734 2417894 3028116
2327.68 2676058 2202310 2710924 3461129 3095363 2629426
2330.57 3324484 3827604 3302571 3171342 4034578 4141721
2333.47 3345657 3580568 4395691 4000259 3290220 3988836
2336.36 4634764 4016074 3885601 4824372 4890535 4165564
2339.25 4658028 5402970 4764714 4353435 4961714 4799069
2342.14 4079169 4439150 4864167 4325871 4283393 4783759
2345.04 4641831 4313854 4494020 4709920 4556968 4505961
2347.93 4556360 4503298 4354931 4101496 3915371 3795996
2350.82 3573332 3521700 3404629 2795346 2904121 3191218
2353.71 2500744 2524410 2876026 2026332 1919330 2448712
2356.61 1671269 1823291 2516375 1537995 1640704 2304755
2359.50 1330192 1599672 1880149 1091629 1835274 1732379
2362.39 1114852 1964793 1474512 1232464 1771530 1002644
2365.29 1370851 1431430 976354 1659085 1332748 1446723
2368.18 1666096 1453768 1902760 1765790 2005717 2014422
2371.07 1847719 2160208 1889403 1842727 1761386 1836699
2373.96 1918221 1988543 2009911 1851387 1945249 1759023
2376.86 1680201 1733316 1767282 1683584 1612576 1539464
2379.75 1594734 1768125 1755804 1704969 1609814 1607801
2382.64 1638853 1524037 1446915 1408806 1399534 1368186
2385.53 1291538 1237310 1157121 1055904 1031711 1037258
2388.43 990893 1019488 902536 712003 690890 704882
2391.32 751273 849258 871572 723775 596642 657039
2394.21 691724 568045 507180 488662 569110 687926
2397.11 563551 611133 669820 603287 682670 674290
2400.00 673890 729986 748862 812303 835507 791526
2402.89 773843 775083 775281 813213 933582 959067
2405.78 1049220 1130296 1154143 1292697 1282451 1190171
2408.68 1165687 1242443 1352757 1396784 1420831 1388180
2411.57 1450852 1547495 1488908 1518071 1601876 1588256
2414.46 1538747 1507341 1511080 1614853 1771703 1949118
2417.35 1854789 1515201 1375877 1425137 1518958 1631671
2420.25 1680038 1644957 1643228 1619955 1558658 1513682
2423.14 1649556 1679695 1498223 1486831 1537657 1572214
2426.03 1630653 1698150 1740842 1738418 1792184 1847306
2428.93 1852415 2052658 2201539 2131465 2192738 2308965
2431.82 2316879 2309066 2354373 2574298 2607595 2521521
2434.71 2581645 2643801 2770834 2797602 2795979 2849565
2437.60 2939878 3131736 3277134 3188181 2984957 2910878
2440.50 2819874 2712353 2756784 2728787 2655349 2631592
2443.39 2566784 2474113 2525869 2609074 2590873 2572168
2446.28 2521410 2373255 2084488 1899611 1875220 1652936
2449.17 1598342 1634719 1348147 1312834 1288331 1205916
2452.07 1232699 1041423 862791 873105 835773 769852
2454.96 744290 692885 624877 514452 487171 444949
2457.85 402993 428299 464411 463003 379732 340332
2460.75 305389 342819 383855 348178 413661 504077
2463.64 408661 357634 499281 386574 315553 427479
2466.53 342959 227609 249089 319487 328977 397407
2469.42 380702 272895 250904 346153 426905 385664
2472.32 477284 563708 488543 358738 364115 356223
2475.21 392766 564385 693088 625721 484300 493947
2478.10 390832 281020 336481 408273 496579 548780
2480.99 528447 453343 451343 589810 597312 528002
2483.89 493519 565438 620653 538956 563588 541343
2486.78 464509 651310 783831 714879 594277 679901
2489.67 892137 736188 705488 880408 762039 693437
2492.57 832987 808543 731749 872993 856057 737426
2495.46 821725 744330 610536 743076 769589 737330
2498.35 808292 881475 910429 932342 907808 824736
2501.24 869340 931605 952103 1033429 1052660 1020432
2504.14 1074940 996386 1013756 1117709 1064399 1029727
2507.03 1159643 1246794 1236700 1114986 1065831 1261987
2509.92 1223149 1037857 1130691 1207981 1235607 1235824
2512.81 1067167 1116543 1232715 1208823 1284477 1366829
2515.71 1347089 1383433 1364479 1297864 1254863 1362906
2518.60 1437202 1376184 1389115 1537559 1634423 1632521
2521.49 1642951 1540686 1371105 1357674 1518934 1576139
2524.39 1600318 1538299 1587776 1832170 1895549 1943801
2527.28 1984132 1916781 1967250 2036135 1869270 1944258
2530.17 2113980 1952421 2006705 1967562 1956047 2050822
2533.06 1959790 1995663 2090716 2112610 2037823 1927771
2535.96 1944671 1996440 1947727 1930951 1959517 1935685
2538.85 1880819 1863477 1840414 1862675 1865062 1816610
2541.74 1674790 1620804 1608371 1603089 1638191 1523256
2544.63 1493731 1651891 1676206 1644860 1567357 1470563
2547.53 1487890 1589489 1623004 1662336 1699515 1678573
2550.42 1663232 1409194 1378079 1487182 1427616 1479808
2553.31 1543472 1510295 1463268 1559854 1673272 1661682
2556.21 1559330 1489506 1498271 1538806 1609772 1511094
2559.10 1483713 1657614 1732447 1671914 1602672 1607074
2561.99 1454170 1380240 1484885 1536267 1551816 1470111
2564.88 1530382 1558181 1423064 1557260 1636170 1646242
2567.78 1803459 1720633 1601203 1602621 1597075 1476507
2570.67 1362753 1496251 1596451 1506804 1545614 1586029
2573.56 1614387 1685252 1641983 1418692 1291834 1487097
2576.45 1654469 1564431 1418643 1528492 1591635 1552566
2579.35 1620664 1815106 1816698 1689981 1803092 1730388
2582.24 1601678 1655520 1674309 1683261 1793406 1830101
2585.13 1762457 1710181 1577596 1586229 1743106 1852331
2588.03 1965554 2052721 2143030 2209544 2219317 2149641
2590.92 2127212 2217277 2251448 2299381 2485839 2519980
2593.81 2388571 2517701 2674769 2564319 2423673 2539163
2596.70 2701184 2704982 2624997 2618320 2762089 2809598
2599.60 2944343 3078547 3048283 3159354 3270915 3447158
2602.49 3410309 3330579 3566118 3705915 3737062 3821676
2605.38 3977944 4053393 3906943 3807903 3895490 4106620
2608.27 4191109 4067915 3973468 3972704 3991314 3995107
2611.17 3919803 4046486 4163402 4054987 3948157 3961610
2614.06 4121735 4015865 3823891 3872533 4031014 4038954
2616.95 3949063 3870440 3917066 3973150 3959821 3845905
2619.85 3745128 3825998 4007981 4086235 3940290 3921799
2622.74 4050038 4134199 4219647 4273127 4285640 4429809
2625.63 4526413 4470586 4559263 4563719 4684603 4945164
2628.52 5122040 5402528 5569020 5532825 5649223 5694464
2631.42 5757443 6006512 6071114 6242373 6556856 6674195
2634.31 6691399 6885313 7032486 7057406 7138206 7040738
2637.20 7110256 7222522 7070549 7158465 7265247 7179969
2640.09 7148694 7109539 7127618 7189297 7039773 6918169
2642.99 6845862 6816504 6738900 6705629 6623921 6467727
2645.88 6428977 6430143 6485327 6261354 6025132 5904366
2648.77 5667218 5526421 5349709 5001567 4771001 4629504
2651.67 4376751 4132045 3997281 3982912 3925395 3782046
2654.56 3720350 3662935 3501104 3255517 3122438 3032955
2657.45 2824810 2739858 2693565 2663017 2682167 2602481
2660.34 2519930 2302275 2245234 2239374 2007731 1800755
2663.24 1879232 2045862 1946136 1873532 1786749 1593141
2666.13 1648779 1896830 1913928 1768337 1714784 1744210
2669.02 1833793 1801360 1635058 1600210 1724749 1810701
2671.91 1741253 1771047 1726454 1618560 1636198 1665179
2674.81 1504362 1466276 1602039 1615853 1615248 1604772
2677.70 1564540 1497002 1514633 1509169 1541133 1433514
2680.59 1373724 1504293 1615556 1695869 1571153 1520481
2683.49 1558645 1424008 1364355 1353489 1396802 1416296
2686.38 1483713 1469193 1234697 1226836 1381499 1531916
2689.27 1746762 1849026 1820950 1755521 1697157 1929538
2692.16 2143736 2048423 2009088 2184503 2397082 2429607
2695.06 2437265 2696706 2682139 2545267 2746688 2864692
2697.95 2913243 3043782 2979152 2880200 2998304 3118745
2700.84 3222648 3373454 3503693 3538193 3555524 3572715
2703.73 3708854 3705551 3432442 3352703 3427638 3514233
2706.63 3596710 3652925 3655348 3482273 3148488 3107866
2709.52 3215501 2993587 2842245 2922784 2787779 2691352
2712.41 2716430 2672910 2499592 2379834 2606355 2712808
2715.31 2580778 2392915 2360577 2368106 2365081 2384116
2718.20 2393458 2456017 2267109 2190075 2368821 2515252
2721.09 2629196 2713679 2720166 2683444 2649399 2577922
2723.98 2742748 2927845 2910526 3059254 3296651 3482260
2726.88 3769570 4026545 4075481 4302386 4517477 4588513
2729.77 4787935 4878525 5104060 5241440 5459494 5745340
2732.66 5666598 5749799 5956272 6233914 6751797 7304674
2735.55 7744651 8075517 8078399 7847987 7529400 7227807
2738.45 7193770 7414451 7593538 7566622 7515424 7649932
2741.34 7806112 7903056 7915101 7755695 7575800 7546927
2744.23 7392628 7192828 7266636 7274732 7096923 6932044
2747.13 6789272 6716118 6525849 6273370 6278748 6076550
2750.02 5902120 5892041 5738257 5765178 5779239 5544741
2752.91 5311934 5307799 5397878 5467476 5439974 5362479
2755.80 5336600 5251393 5243865 5353633 5378665 5466611
2758.70 5631240 5589103 5589939 5771504 5910446 5947254
2761.59 5977528 6028555 6133016 6305988 6499780 6495131
2764.48 6575162 6700377 6732822 6890196 6991055 7020451
2767.37 6992539 7081246 7312092 7537151 7711454 7756096
2770.27 7772661 7909631 8245821 8470425 8526465 8812527
2773.16 8969333 8980186 9099355 9376041 9663257 9783464
2776.05 10107020 10330447 10344403 10509136 10655461 10877545
2778.95 11135947 11354678 11469007 11637159 11850315 12039198
2781.84 12260613 12133794 12236204 12657219 12839429 13029132
2784.73 13126534 13168726 13340144 13396808 13362162 13363875
2787.62 13397711 13573175 13806406 13875835 13765169 13694370
2790.52 13723021 13792725 13916770 13929449 13896364 13755414
2793.41 13582400 13445177 13305462 13242302 13104969 12815543
2796.30 12586949 12630015 12786874 12820325 12685661 12465710
2799.19 12160829 11920111 11928080 11756585 11573327 11529342
2802.09 11363257 11230963 11222166 11029028 10826938 10946080
2804.98 11054322 11031120 10879457 10655473 10676855 10860392
2807.87 10897055 10922864 10974448 11082586 11172003 11252915
2810.77 11348407 11391791 11382811 11493013 11687545 11890067
2813.66 12046448 12116841 12419906 12641399 12641887 12804509
2816.55 13079017 13308438 13493903 13762005 14141359 14392351
2819.44 14633161 14878648 15273539 15605568 15873014 16110761
2822.34 16215537 16622069 17015786 17403490 17850534 18104371
2825.23 18521819 18880110 19179423 19801112 20324628 20782343
2828.12 21225540 21573979 21986765 22329673 22749723 23042706
2831.01 23454397 23906858 24034213 24324180 24679406 24893271
2833.91 25111804 25466824 25974613 26597161 27102776 27572406
2836.80 28173646 28837640 29443464 29992171 30467564 31001379
2839.69 31644509 32245133 32712700 33113662 33514678 33942684
2842.59 34317646 34783571 35292117 35687713 36346502 36880189
2845.48 37402435 38235797 38974707 39763431 40323180 40769112
2848.37 41461913 42170070 43095843 44346833 45601656 46945836
2851.26 48152258 49430263 50892910 52325871 53897847 55442039
2854.16 57288063 59240639 60995585 62759923 64741598 66759067
2857.05 69039308 71524595 73958728 76772083 79665830 82573037
2859.94 85819293 89081957 92539924 96306986 99957757 103700243
2862.83 107977239 112370897 116709230 121569532 126561651 131611776
2865.73 136681939 141597538 146376430 151291096 156389593 161588652
2868.62 167222969 172647243 177544693 182669232 187899066 193011338
2871.51 197967183 202684779 207613465 212889530 218403137 224442004
2874.41 230753547 237831990 245966472 255041942 265801059 275845312
2877.30 281837640 282337075 279827996 278498014 279355956 281666515
2880.19 284354984 287267767 289777739 291519115 292233747 291839095
2883.08 291624424 293317304 300524902 315711506 325884830 323909827
2885.98 319160596 313131825 305907972 299286606 292893376 285619249
2888.87 278613850 272911512 268883157 266245388 263478793 260838750
2891.76 258502780 255675052 252490398 249344177 246043666 242611951
2894.65 239188718 236032600 232678921 228935727 225188693 221745379
2897.55 218553007 215791320 213266750 210536231 208180416 206698117
2900.44 205783435 204732678 203843674 203749449 203995270 204562082
2903.33 205481463 206222778 206715773 206769798 206532833 206090711
2906.23 204891420 202964368 200942490 198869268 196776068 195020495
2909.12 194094412 194171040 195154726 196452566 197267656 197445692
2912.01 196875342 196144873 195360356 194012283 192478713 190707311
2914.90 188665093 186895484 185022468 183176668 181477928 179637841
2917.80 178022225 176812136 175790559 175173714 174825255 175052954
2920.69 176038729 177231312 178703538 180559466 182652007 184909276
2923.58 187648627 191119275 195110008 199526541 204346542 209305628
2926.47 214483901 219928982 225586707 231468274 237799441 244719410
2929.37 251840484 259085531 266430977 274116611 282311677 290700311
2932.26 299665212 308840503 318208624 327788570 337112472 346961253
2935.15 357112682 366791818 376091951 384530405 391974177 398766333
2938.05 405320789 411872735 419548426 429660738 443284989 463208560
2940.94 491002850 515746256 518217208 497925945 474351789 460219207
2943.83 452245007 445799620 440167221 435178617 431616908 430245899
2946.72 430299185 429703125 427685748 425866463 423128427 418534975
2949.62 414792019 407204804 392944224 381649977 375859698 371260099
2952.51 366500987 361270367 355055398 347584215 339547262 331324477
2955.40 323370199 315846055 308472872 302025292 297270556 294115133
2958.29 292727076 293308788 295798369 300280889 307561542 317352371
2961.19 329826078 347181211 367809453 390512939 417493653 448640271
2964.08 484015861 523131107 564415714 607945496 653187586 699472356
2966.97 745148065 787797671 826078838 858792730 884475908 901288011
2969.87 909218584 908861780 900747200 888375030 879290216 884022905
2972.76 910678615 958112095 1002668383 1009889487 978295365 933643342
2975.65 897939031 880513000 880577803 891816967 907019824 921103865
2978.54 930606871 932998390 926866500 911420124 886770844 854444019
2981.44 815469461 771357658 724673981 676143389 626880057 579045023
2984.33 533140844 490021973 450215620 413886376 380852795 350847125
2987.22 324015108 300372570 279178880 260084846 243221035 227911374
2990.11 214183132 201883911 190564947 180493171 171472234 162963498
2993.01 155278911 148533531 142188597 136323014 131067784 126296128
2995.90 121737473 117801524 114265589 110685216 107734807 105388141
2998.79 103272688 101615496 100608951 99879396 99398522 98927879
3001.69 98585127 98651393 98790962 98894709 99071076 99549445
3004.58 99880765 99868293 99669900 99504844 99299952 99174361
3007.47 99148979 99056083 99501229 100700837 102373232 104981491
3010.36 107724465 109375080 109767144 108894635 108000004 108600393
3013.26 110453877 113100152 116424791 120144301 124117252 128054494
3016.15 131891873 135570641 139031986 142480419 145954199 149731564
3019.04 153861089 158331392 163502682 169401927 176212638 184009112
3021.93 192719383 202409655 213152937 225081101 238028727 252028848
3024.83 266810626 282275400 298611441 315502596 332832570 350453223
3027.72 367870394 384927534 401564452 417424932 431805233 444329744
3030.61 454544962 462369697 467602222 469603476 468993898 466254211
3033.51 462320535 459321647 459078582 463668189 474006897 488853202
3036.40 505812464 518175980 522943800 521838078 518112566 515441446
3039.29 513724654 512228763 510166533 507573318 504674262 500281971
3042.18 492415845 481571967 469194822 454786260 439243151 423543654
3045.08 407392895 390958074 374514874 358125314 341431278 324721742
3047.97 308115448 291738146 275981667 260797885 246397163 233026302
3050.86 220788588 209558559 199065621 189639207 181323808 173926104
3053.75 167493853 162064060 157547067 153749911 150817156 148891733
3056.65 148214717 147977367 148109055 149191367 150925863 153107861
3059.54 155838593 159381252 163911075 169630452 176504067 184055434
3062.43 191517171 198581013 205494636 213438768 222928265 233458551
3065.33 244314639 255192406 265363847 274955493 283896151 291331248
3068.22 297182812 301214568 303444878 303534533 302483854 301676536
3071.11 301738388 303849388 309230515 318080555 329837843 345090527
3074.00 362358318 374796659 365322074 333154668 309172156 303478600
3076.90 306386412 313541456 322407086 331249802 338035802 342328900
3079.79 343507537 341763490 337154164 329854846 320927110 311449356
3082.68 300646899 288522861 277097509 266895130 257661382 249630970
3085.57 242751678 236740852 231190664 226364739 222132577 218295677
3088.47 214310319 209847822 205546311 201251823 196805551 192246206
3091.36 187648940 183073101 178159560 173146783 168621953 164242318
3094.25 160374170 157582135 155173113 153630266 153361773 153868713
3097.15 155044450 156354620 156882227 156453682 155246042 153323424
3100.04 150703273 147704832 144508492 141006310 137212074 133337660
3102.93 129633171 125966131 122227327 118517350 115010144 111800784
3105.82 108697183 105824108 103283990 100828315 98515042 96206050
3108.72 94072481 92201314 90225294 88194986 86448996 84584241
3111.61 82566441 80350464 78245753 76709132 75050347 73385472
3114.50 71896339 70694503 69141243 67221149 65334371 63866197
3117.39 62839800 61510127 60087874 58853788 57799734 56670028
3120.29 55508503 54336397 53167766 52009230 50416674 48677777
3123.18 46904762 44705867 42292398 40030893 37427452 34904971
3126.07 32824393 30666111 28562906 26539598 24653505 22830250
3128.97 21256076 19716188 18462307 17335990 16182925 15428250
3131.86 14606397 13857577 13285528 12520643 11836744 11600214
3134.75 11314208 10868069 10274237 9913507 9762631 9444882
3137.64 9045591 8674642 8630524 8615909 8456250 8296606
3140.54 8172074 7940438 7781647 7741848 7638271 7463402
3143.43 7490393 7485306 7402810 7520051 7551088 7444652
3146.32 7260478 7176976 7275790 7382455 7551013 7597937
3149.21 7483924 7422482 7367960 7368222 7418416 7470595
3152.11 7442972 7394210 7489001 7463683 7457168 7450796
3155.00 7386636 7531716 7567258 7578500 7666964 7751140
3157.89 7828060 7968427 7955854 7817610 7957751 8047811
3160.79 8074523 8169421 8328373 8352026 8523874 8778030
3163.68 8810863 8839675 8968215 9363425 9283725 9178641
3166.57 9423210 9495841 9466881 9467189 9631754 9820638
3169.46 10224697 10458186 10613749 10796632 10896029 11044930
3172.36 11095555 11394300 11649680 11772580 12143818 12608807
3175.25 12674357 12732724 12826999 13044004 13117990 13068509
3178.14 13130930 13204871 13212224 13032212 13313291 13622029
3181.03 13713637 13829651 13726392 13622989 13671932 14061129
3183.93 14241744 13950784 13906370 13620016 13262454 13231557
3186.82 13054568 12771427 12527669 12052641 11599013 11387653
3189.71 11312912 11280448 11112005 10870299 10788332 10503986
3192.61 10176232 10081360 9853345 9406419 9007968 8796160
3195.50 8449508 8190611 7881305 7449672 7142497 6846251
3198.39 6455405 6005335 5702208 5370874 5015046 4801216
3201.28 4433078 4172023 4204461 4013252 3767390 3758214
3204.18 3754200 3456823 3054452 2721464 2638437 2531044
3207.07 2499360 2399625 2166676 2168874 1998359 1746435
3209.96 1764926 1823587 1883557 1976003 1840731 1678025
3212.85 1643395 1810319 1867638 1745805 1564943 1432141
3215.75 1334414 1286042 1262483 1115808 1080326 1343336
3218.64 1395524 1296292 1498227 1363025 1135830 1222238
3221.53 1291003 1131629 992638 976756 1018224 1004324
3224.43 1064362 1287481 1191427 1113549 1033947 888513
3227.32 962801 976043 997172 954655 942474 932062
3230.21 886884 941378 886204 745490 718015 811152
3233.10 983574 1088742 1001062 888654 899147 839265
3236.00 779999 873385 930107 974177 919902 960649
3238.89 1102510 976619 1057044 1234198 1036527 821521
3241.78 688672 768319 903139 1038549 1117290 1110006
3244.67 1056919 1086616 1226156 1301498 1372519 1388758
3247.57 1378588 1532255 1500609 1409491 1534185 1729972
3250.46 1840492 1586511 1319320 1247420 1373958 1549149
3253.35 1663564 1518756 1196164 1152966 1313906 1200061
3256.25 1117251 1181464 1286387 1528146 1583272 1522850
3259.14 1468034 1402304 1376867 1477734 1533922 1513385
3262.03 1448442 1524368 1429670 1360362 1531753 1361732
3264.92 1381101 1710236 1668481 1542952 1536068 1370449
3267.82 1480252 1804568 2115728 2048243 1741639 1504331
3270.71 1310377 1445731 1768001 1804229 1608776 1411757
3273.60 1339621 1538407 1751273 1892221 1613900 1380299
3276.49 1420241 1475783 1592991 1542429 1471032 1428401
3279.39 1320041 1300786 1337485 1460366 1452483 1227490
3282.28 1167291 1196337 1189752 1234127 1201316 1057310
3285.17 945802 1066216 1089955 942458 948486 1069688
3288.07 1096130 886281 794085 917633 1078422 1190543
3290.96 1116130 961021 974452 901240 927859 1134722
3293.85 1135642 1086448 1092224 1072289 1097247 1053588
3296.74 977389 1082636 1153996 1146199 1177253 1023221
3299.64 793550 891475 1049212 989608 1057435 1044423
3302.53 1003907 1304535 1482562 1300630 1172069 1154878
3305.42 961643 771321 926229 886004 847717 904612
3308.31 748259 808014 662968 495470 466157 448287
3311.21 611015 662256 515752 369763 285449 379277
3314.10 518430 659817 578936 376212 473596 504741
3316.99 343803 229453 199718 76121-24386-127626
3319.89-180301-62541 117747 274733 219249 129359
3322.78 140010 65174-32265-50297-19293-172794
3325.67-240498 182756 37152-45546 258802 144326
3328.56 194748 141362 264599 329811 175859 236144
3331.46 40589-38862 122147 153739 991-57044
3334.35 226166 210832 132306 281546 108226-192175
3337.24-250138-231114-33996 77095-104619 28715
3340.13 341206 242792-91226 7717 85873 28828
3343.03 233166 250048-23048-37726 184915 201103
3345.92-844 169990 90150 9841 501677 382317
3348.81 28429-65870-211297-134290-87707-43856
3351.71 317779 176110-9711 128743 218566 293659
3354.60 156789 91350 73835-283-255696-327354
3357.49-85034-19623-139837-189426-60987-200779
3360.38-303277-217327 106951 369336 448003 484237
3363.28 347661 263682 5199-301803 50570 62305
3366.17-105607 51699-3743-72387-158496-107922
3369.06-87295-177874-235885 19335 103805 52784
3371.95 68042-70754-75896 2571 105988 8753
3374.85-161295-155996-366738-226813 247683 462557
3377.74 330538 346729 308342 99440 256644 335445
3380.63 189903 52165-60424 107446 312102-2319
3383.53-245653 33363 203284 297958 267669 124317
3386.42 294588 279174 51096-49346 46072 134967
3389.31 96930 99922 197077 155081 12327-56994
3392.20 15294 13460-111276 42221 376490 555204
3395.10 496218 262254 144858 229163 369829 197817
3397.99 31432 185122 2517-84894 42296 210555
3400.88 222306-129912-203924-96392 104055 167678
3403.77 156099 155841 183961 185874-26153-78366
3406.67-14487 37839-182319-221208 7171-64878
3409.56-235750 399 221129 74629 52501-110827
3412.45-426481-386112-315791-273087-42413-143617
3415.35-229151-449416-473158-180404-288328-260498
3418.24-24114 36864-23650-162208-193392-143623
3421.13-183663-214383-281551-282861-61710-210475
3424.02-335548-77855-25355-82674 17556 134626
3426.92-85135-430346-447669-212593-154794 84328
3429.81 166108 42670 101104 93667 112753 223960
3432.70 3627 81292 193141-48630 54399 278306
3435.59 322039 199938 227778 230211 233707 248356
3438.49 307839 210967 14146-37969 37774 37784
3441.38 45712 166550 101015 332277 324358 134979
3444.27 359413 454831 554490 419221 239026 124187
3447.17 30104 40133-84784 35090 122071 166270
3450.06 56991-55565 95593-115459-332359-72105
3452.95 61037-70931-115010-185840-134314 48429
3455.84-152090-317590-268495-150253 33914-8671
3458.74-265244-280463-154053-407520-513425-317290
3461.63-245920-408033-532620-388788-222952-268957
3464.52-498439-661906-515373-287843-201438-138090
3467.41-268772-423190-509416-844700-917188-626277
3470.31-515241-500915-199950-76152-335041-481837
3473.20-272525-257640-363204-366331-284712-199420
3476.09-434362-291567-200970-502749-661078-707433
3478.99-460644-367199-300491-261880-555429-782798
3481.88-662396-610855-733100-578353-525824-267516
3484.77 14119-5891-357911-686485-601530-502480
3487.66-599451-564326-677287-553002-328766-662451
3490.56-908365-879196-930584-849056-607683-811859
3493.45-831727-591469-627085-715893-558606-431821
3496.34-574834-668350-637421-574143-460747-422665
3499.23-397117-300712-289792-506195-439470-144563
3502.13-189740-482641-580634-466091-126342 40301
3505.02-105861-185331-212816-426035-555336-354390
3507.91-429798-295651-132407-241374-288294-357028
3510.81-513452-416618-162384-197947-334657-303881
3513.70-209980-103125 125389 322920 389316 386077
3516.59 477927 445496 366659 305107 247772 292666
3519.48 263080 373207 552520 637042 757046 723396
3522.38 828682 1235248 935449 595300 991144 977200
3525.27 747964 804427 858857 852860 838964 1110040
3528.16 1299529 1110358 997574 1061562 924625 797193
3531.05 811003 630072 734553 908889 678004 800283
3533.95 1065708 1031867 909742 689232 569299 602126
3536.84 671713 622121 324061 58014 191385 468651
3539.73 442326 196791 190558 205908 9064-147399
3542.63-283776-247098-181459-185944-58145-134234
3545.52-78362-69801-157137-117585-125371-85337
3548.41-67816-3689-171325-373953-332918-201468
3551.30-91000-143519-278274-288098-423095-504416
3554.20-467107-497362-540376-475820-292558-104764
3557.09 58961 93845-238748-429328-140195-156300
3559.98-139916-284640-430717-435171-552086-358199
3562.87-195864-178939-183117-188532-178793 8315
3565.77 82751-165690-316528-360924-392480-382166
3568.66-290143-214767-383142-352138-191097-301847
3571.55-271641-446677-395644-333661-611639-514880
3574.45-303248-381175-446415-243173-313399-278866
3577.34-65360-31388-230677-427036-363779-435786
3580.23-547101-477842-487624-481814-384100-374468
3583.12-371849-199783-232238-183079-22082 67931
3586.02-21109-256111-136197-23078-512750-901091
3588.91-692593-293803-18657-41907-44874-40059
3591.80-108616-142522-101857-161598 33163 136873
3594.69-44027 89595-62427-182288-6601 5108
3597.59 14502 77063 68549 11811 50545 141473
3600.48 179500 56377 171561 184249-142909-315231
3603.37-219070-20385 18815-25979-86975-230935
3606.27-353108-102675 99448-30777-223604-606629
3609.16-345409 98462 98962 154048 79584 47038
3612.05-3529 340990 503660 232673 15592 62421
3614.94 97797-24517 165971 274039 290665 305293
3617.84 395566 544885 272925 121701 479025 793994
3620.73 936956 968800 1059356 1050479 950065 1016960
3623.62 1197696 1194611 1019239 1116309 1216355 1263675
3626.51 1368275 1215352 735539 386920 767328 622207
3629.41 377511 710034 1001846 1138410 1156058 1122590
3632.30 1250215 1326579 1081117 1103358 1341820 1453654
3635.19 1337900 1322142 1397341 1384629 1314481 1275941
3638.09 1296148 1338414 1220494 1143691 1300212 1296471
3640.98 1178726 1069224 1157588 1292727 1403276 1341160
3643.87 1387897 1511412 1304788 1494115 1661466 1514252
3646.76 1369359 1472441 1862600 1705232 1253032 1646007
3649.66 2032394 2016839 2031103 2160071 2382281 2602046
3652.55 2801697 2945170 2995471 3004334 2973745 2676883
3655.44 2230228 1987140 2227174 2406692 2551338 2740225
3658.33 2783774 2801535 2733161 2774354 2900035 2866080
3661.23 2822059 3000455 2919085 2693994 2596310 2476723
3664.12 2481761 2487637 2267793 1939432 1860906 1865436
3667.01 1780518 1709931 1242277 1070904 1290541 1111898
3669.91 503190 221272 933853 1182262 1058916 1069476
3672.80 953022 845585 684085 257987 261956 200350
3675.69 166371 616328 638936 724204 962420 933311
3678.58 673517 506912 700201 983338 1076855 1165673
3681.48 1101626 958935 862300 674011 747387 961780
3684.37 971565 1017694 1025685 1113663 1098790 1019083
3687.26 788282-22980 102290 899161 1109753 1149040
3690.15 1048959 931663 1088300 1253317 1357026 1282915
3693.05 1021495 1067803 1211011 1341253 1438373 1381115
3695.94 1270575 1201846 1010905 1010169 1289091 1498192
3698.83 1447436 1346271 1392350 1318689 1045325 953314
3701.73 1189096 1200961 1272576 1331629 1322054 1536608
3704.62 1480159 1500754 1538791 1353383 1201467 1194893
3707.51 1291462 1301365 1072823 1006923 1461352 1579577
3710.40 1493443 1368912 781682 638651 1283059 1525181
3713.30 1516214 1420304 1277348 1372465 1327495 1397269
3716.19 1407276 1521285 1731402 1619938 1476412 1522600
3719.08 1702808 1593734 1481208 1631175 1425313 1227689
3721.97 1297557 1320365 1318848 1448920 1593601 1477545
3724.87 1438889 1374335 1117852 1209843 1210767 1088580
3727.76 1197027 1067391 979862 968517 1088162 1240823
3730.65 1160052 653355 159481 627934 916980 708872
3733.55 697890 434159 305013 457073 632033 363944
3736.44 211309 403950 639550 703313 678531 953251
3739.33 947513 921039 757330 397787 460766 561457
3742.22 703198 766243 465400-630343-1244617-199132
3745.12 422352 668280 877649 766394 536876 387518
3748.01 565452 121370-339929 155351 453797 356344
3750.90 185361-638844-693147 377997 750653 766566
3753.79 619025 473539 559974 597432 434638 364391
3756.69 661929 739875 702992 571598 503569 510727
3759.58 571473 678392 662338 919458 1081583 963969
3762.47 840335 883027 920735 883119 757172 535493
3765.37 404517 469374 706113 925519 846262 737874
3768.26 817437 820038 548231 537050 823223 893423
3771.15 893146 962101 980452 943832 1046050 886056
3774.04 807063 937708 831235 783532 832291 901657
3776.94 941687 970034 932462 922452 698957 635573
3779.83 976123 1013714 941687 782109 901176 1142540
3782.72 989938 774608 866296 944625 690093 650777
3785.61 787624 759899 802786 988786 1186470 1232600
3788.51 1086130 851810 769839 751457 644966 683722
3791.40 618391 580772 774010 868673 793872 950140
3794.29 987912 766314 549102 303569 346855 431943
3797.19 521070 754532 922632 857455 851071 828840
3800.08 735061 179148-235694 449534 831730 749364
3802.97 685921 622312 702714 814513 939065 1022322
3805.86 627083 58836 428473 999343 1053882 1089127
3808.76 1043552 1034713 1130988 1014395 1021504 873197
3811.65 859053 995661 953062 909423 960960 1038678
3814.54 880061 515194-218294 80962 1017809 1202180
3817.43 1151584 1057040 918498 831819 821723 723507
3820.33 660518 815391 810809 1014878 1213795 1065053
3823.22 938228 872971 852225 911566 926916 1034171
3826.11 1073046 941684 1052804 1215456 1206283 1345031
3829.01 1339068 1141471 1163979 1091742 844142 1009359
3831.90 1279364 1395036 1452196 1423553 1480751 1165875
3834.79 1098467 1379175 1357161 1537146 1440898 341722
3837.68 562182 1430923 1588642 1675183 1782753 1856536
3840.58 1484630 1583757 1777148 1732630 1747118 1521873
3843.47 1481225 1634363 1680542 1806169 1756185 1745379
3846.36 1742326 1623978 1732110 1725623 1444934 1394813
3849.25 1344569 1255649 1267347 1206456 503317 147367
3852.15 734373 747751-24545-893192-351893 626920
3855.04 834278 899076 927990 813500 735501 749211
3857.93 611335 536554 683515 900250 798862 679688
3860.83 633121 402516 264518 313115 611346 622608
3863.72 330468 98059 197931 539304 643588 473259
3866.61 273121 285701 444120 502213 236418 96716
3869.50-196688-70326 450949 491044 326276 318552
3872.40 505026 364316-92746-368594 53712 402359
3875.29 147021 161344 114089-25783 25619 38270
3878.18-85564-191190-196699-477726-493361-198710
3881.07-39225 3531-109313-160234-138150-380677
3883.97-412330-429691-988506-1012255-511679-287866
3886.86-246335-280467-91612-88205-232335-123175
3889.75-149730-441013-636843-221183 57394-114906
3892.65-157885-80364-168922-132643-90744-167001
3895.54-172231-132368-29580 18158 86935 68283
3898.43-118099-438132-405666-85775 142651 54525
3901.32-235223 37778 415818 439030 123263-189027
3904.22 120775 396770 205043 183152 434270 583016
3907.11 638812 825767 721235 519337 641882 799208
3910.00 751580 753036 977590 917836 837837 862354
3912.89 906366 888367 746376 699640 1024178 1265983
3915.79 1184198 955741 773788 1040072 1343356 1288124
3918.68 1302134 1365315 1190306 1267404 1431905 1390323
3921.57 1484593 1584254 1703867 1851173 1839786 1814871
3924.47 1756971 1952017 2125288 1960770 2081820 2318738
3927.36 2419027 2472457 2552151 2628735 2708925 2887372
3930.25 2887745 2912861 2835506 2579465 2840609 3167349
3933.14 3089350 3180453 3443291 3486931 3427492 3585567
3936.04 3656194 3596913 3565449 3484609 3657188 3841543
3938.93 3981867 3941088 3694358 3711669 3898501 3695425
3941.82 3351226 3290145 3486945 3552212 3421217 3397564
3944.71 3458751 3387100 3235691 3345600 3281625 3196481
3947.61 3140698 2976100 2644525 2504320 2592901 2549225
3950.50 2656341 2694646 2687707 2625150 2341843 2340069
3953.39 2460109 2419392 2331225 2195738 2211766 2129589
3956.29 2059631 2056261 1914875 1806036 1745281 1738680
3959.18 1788676 1988903 1924166 1888852 1949756 1860649
3962.07 1766776 1785510 1941640 2006676 1972596 1903690
3964.96 1994577 1998085 2004013 2144728 2102502 1991456
3967.86 2226891 2347094 2175733 2347453 2570629 2416010
3970.75 2289157 2421323 2339610 2161239 2185847 2203254
3973.64 2110244 2311882
##END=
