##TITLE=N,N'-BIS-(4-(6-METHYL)1,3,3a,7-TETRAZAINDENYL)-ETHYLENEDIAMINE
##JCAMP-DX=4.24
##DATA TYPE=INFRARED SPECTRUM
##CLASS=COBLENTZ
##ORIGIN=EASTMAN KODAK COMPANY, RESEARCH LABORATORIES, ROCHESTER, N.Y.
##OWNER=COBLENTZ SOCIETY
Collection (C) 2018 copyright by the U.S. Secretary of Commerce
on behalf of the United States of America. All rights reserved.
##DATE=Not specified, most likely prior to 1970
##NAMES=N<1>,N<2>-bis(5-methyl[1,2,4]triazolo[1,5-a]pyrimidin-7-yl)-1,2-ethanediamine
##CAS REGISTRY NO=100883-07-6
##MOLFORM=C14 H16 N10
$$ J. ORG. CHEM. 26, 115 (1961) COMPOUND IIIa
##MP=330 C
##SOURCE REFERENCE=COBLENTZ NO. 2130
##$NIST SOURCE=COBLENTZ
##$NIST IMAGE=cob2130
##SPECTROMETER/DATA SYSTEM=Not specified, most likely a prism, grating, or hybrid spectrometer.
##STATE=SOLID (KBr PRESSING)
##SAMPLING PROCEDURE=TRANSMISSION
##RESOLUTION=4
##DATA PROCESSING=DIGITIZED BY NIST FROM HARD COPY
##XUNITS=MICROMETERS
##YUNITS=TRANSMITTANCE
##XFACTOR=1.000000
##YFACTOR=1
##DELTAX=000.007027
##FIRSTX=2.03
##LASTX=16.0002
##FIRSTY=0.638
##MAXX=16.0002
##MINX=2.03
##MAXY=0.94
##MINY=0.033
##NPOINTS=1989
##XYDATA=(X++(Y..Y))
2.030000 0.6380 0.6360 0.6360 0.6340 0.6360
2.065153 0.6360 0.6340 0.6340 0.6340 0.6330
2.101000 0.6310 0.6290 0.6290 0.6290 0.6290
2.136153 0.6290 0.6270 0.6270 0.6270 0.6270
2.171000 0.6270 0.6270 0.6270 0.6270 0.6260
2.206153 0.6260 0.6240 0.6220 0.6200 0.6200
2.241000 0.6200 0.6200 0.6200 0.6200 0.6200
2.276153 0.6220 0.6220 0.6220 0.6240 0.6240
2.311000 0.6260 0.6270 0.6270 0.6290 0.6290
2.346153 0.6290 0.6290 0.6310 0.6340 0.6360
2.382000 0.6380 0.6380 0.6410 0.6410 0.6410
2.417153 0.6410 0.6410 0.6410 0.6430 0.6430
2.452000 0.6410 0.6410 0.6410 0.6410 0.6410
2.487153 0.6430 0.6480 0.6480 0.6500 0.6500
2.522000 0.6500 0.6520 0.6520 0.6520 0.6530
2.557153 0.6530 0.6530 0.6530 0.6530 0.6530
2.592000 0.6570 0.6570 0.6570 0.6570 0.6570
2.627153 0.6590 0.6590 0.6620 0.6640 0.6670
2.663000 0.6690 0.6730 0.6740 0.6760 0.6780
2.698153 0.6800 0.6800 0.6810 0.6830 0.6830
2.733000 0.6850 0.6850 0.6830 0.6810 0.6810
2.768153 0.6800 0.6760 0.6660 0.6600 0.6430
2.803000 0.6200 0.5960 0.5790 0.5700 0.5490
2.838153 0.5330 0.5040 0.4970 0.4830 0.4690
2.874000 0.4570 0.4520 0.4410 0.4260 0.4150
2.909153 0.4100 0.4030 0.3980 0.3870 0.3820
2.944000 0.3790 0.3770 0.3750 0.3730 0.3730
2.979153 0.3730 0.3750 0.3770 0.3790 0.3800
3.014000 0.3820 0.3820 0.3840 0.3860 0.3870
3.049153 0.3870 0.3840 0.3790 0.3750 0.3600
3.084000 0.3510 0.3460 0.3390 0.3330 0.3180
3.119153 0.3130 0.3110 0.3110 0.3090 0.3090
3.155000 0.3090 0.3090 0.3090 0.3110 0.3110
3.190153 0.3130 0.3160 0.3180 0.3200 0.3210
3.225000 0.3230 0.3300 0.3330 0.3390 0.3400
3.260153 0.3390 0.3320 0.3230 0.3210 0.3210
3.295000 0.3250 0.3320 0.3370 0.3420 0.3420
3.330153 0.3420 0.3400 0.3350 0.3350 0.3350
3.365000 0.3370 0.3370 0.3390 0.3400 0.3420
3.400153 0.3460 0.3470 0.3490 0.3490 0.3390
3.436000 0.3300 0.3300 0.3320 0.3390 0.3470
3.471153 0.3600 0.3730 0.3860 0.3930 0.4000
3.506000 0.4060 0.4130 0.4190 0.4270 0.4380
3.541153 0.4500 0.4550 0.4730 0.4760 0.4800
3.576000 0.4830 0.4860 0.4920 0.4990 0.5060
3.611153 0.5140 0.5250 0.5370 0.5490 0.5530
3.646000 0.5580 0.5600 0.5660 0.5720 0.5750
3.681153 0.5790 0.5820 0.5840 0.5860 0.5890
3.717000 0.5930 0.5960 0.6000 0.6030 0.6100
3.752153 0.6130 0.6130 0.6150 0.6170 0.6190
3.787000 0.6240 0.6310 0.6380 0.6410 0.6450
3.822153 0.6460 0.6480 0.6500 0.6520 0.6570
3.857000 0.6620 0.6690 0.6730 0.6780 0.6800
3.892153 0.6800 0.6800 0.6800 0.6800 0.6800
3.928000 0.6810 0.6860 0.6900 0.6920 0.6930
3.963153 0.6950 0.6950 0.6970 0.6990 0.7000
3.998000 0.7020 0.7040 0.7060 0.7110 0.7130
4.033153 0.7140 0.7160 0.7200 0.7210 0.7260
4.068000 0.7300 0.7320 0.7330 0.7330 0.7350
4.103153 0.7350 0.7350 0.7390 0.7420 0.7460
4.138000 0.7490 0.7510 0.7530 0.7580 0.7600
4.173153 0.7610 0.7630 0.7660 0.7700 0.7700
4.209000 0.7700 0.7700 0.7680 0.7660 0.7630
4.244153 0.7630 0.7610 0.7610 0.7610 0.7610
4.279000 0.7610 0.7630 0.7630 0.7660 0.7700
4.314153 0.7730 0.7800 0.7890 0.7910 0.7910
4.349000 0.7930 0.7940 0.7940 0.7940 0.7940
4.384153 0.7960 0.7960 0.7980 0.7980 0.7980
4.419000 0.8000 0.8000 0.8000 0.8010 0.8010
4.454153 0.8010 0.8010 0.8010 0.8010 0.8010
4.490000 0.8030 0.8030 0.8030 0.8030 0.8030
4.525153 0.8030 0.8030 0.8030 0.8030 0.8030
4.560000 0.8030 0.8030 0.8030 0.8030 0.8030
4.595153 0.8030 0.8050 0.8050 0.8050 0.8050
4.630000 0.8050 0.8050 0.8060 0.8060 0.8060
4.665153 0.8050 0.8030 0.8030 0.8030 0.8030
4.701000 0.8050 0.8050 0.8060 0.8060 0.8060
4.736153 0.8060 0.8080 0.8080 0.8080 0.8080
4.771000 0.8100 0.8100 0.8100 0.8100 0.8100
4.806153 0.8060 0.8050 0.8010 0.8000 0.7980
4.841000 0.7980 0.7980 0.7980 0.7980 0.7980
4.876153 0.8000 0.8000 0.8000 0.8000 0.8010
4.911000 0.8010 0.8030 0.8030 0.8050 0.8100
4.946153 0.8100 0.8100 0.8120 0.8120 0.8130
4.982000 0.8170 0.8190 0.8200 0.8220 0.8240
5.017153 0.8260 0.8260 0.8270 0.8290 0.8290
5.052000 0.8310 0.8330 0.8330 0.8330 0.8330
5.087153 0.8330 0.8340 0.8340 0.8360 0.8380
5.122000 0.8400 0.8410 0.8410 0.8400 0.8400
5.157153 0.8400 0.8400 0.8410 0.8430 0.8460
5.192000 0.8500 0.8530 0.8570 0.8590 0.8590
5.227153 0.8600 0.8600 0.8620 0.8620 0.8640
5.263000 0.8640 0.8620 0.8620 0.8640 0.8640
5.298153 0.8640 0.8660 0.8660 0.8690 0.8710
5.333000 0.8730 0.8730 0.8710 0.8690 0.8690
5.368153 0.8710 0.8740 0.8760 0.8780 0.8800
5.403000 0.8800 0.8780 0.8740 0.8710 0.8710
5.438153 0.8740 0.8760 0.8780 0.8780 0.8730
5.474000 0.8730 0.8710 0.8690 0.8690 0.8690
5.509153 0.8670 0.8550 0.8460 0.8460 0.8480
5.544000 0.8530 0.8620 0.8670 0.8690 0.8690
5.579153 0.8690 0.8730 0.8760 0.8850 0.8850
5.614000 0.8850 0.8880 0.8880 0.8850 0.8800
5.649153 0.8810 0.8830 0.8830 0.8850 0.8830
5.684000 0.8830 0.8830 0.8810 0.8780 0.8730
5.719153 0.8710 0.8690 0.8670 0.8660 0.8600
5.755000 0.8590 0.8550 0.8520 0.8460 0.8460
5.790153 0.8450 0.8450 0.8410 0.8380 0.8360
5.825000 0.8310 0.8310 0.8360 0.8380 0.8360
5.860153 0.8340 0.8310 0.8190 0.8100 0.8010
5.895000 0.8000 0.8000 0.7960 0.7800 0.7700
5.930153 0.7540 0.7440 0.7210 0.6970 0.6740
5.965000 0.6550 0.6310 0.6060 0.5890 0.5580
6.000153 0.5250 0.5040 0.4930 0.4780 0.4670
6.036000 0.4480 0.4200 0.3940 0.3560 0.3070
6.071153 0.2670 0.2290 0.2120 0.1940 0.1580
6.106000 0.1070 0.0780 0.0570 0.0500 0.0460
6.141153 0.0450 0.0430 0.0410 0.0400 0.0400
6.176000 0.0520 0.0670 0.0860 0.1140 0.1330
6.211153 0.1530 0.1540 0.1510 0.1250 0.0830
6.246000 0.0670 0.0500 0.0500 0.0460 0.0380
6.281153 0.0340 0.0330 0.0330 0.0330 0.0380
6.317000 0.0460 0.0590 0.0760 0.0950 0.1210
6.352153 0.1530 0.1840 0.2120 0.2400 0.2670
6.387000 0.2990 0.3330 0.3420 0.3460 0.3630
6.422153 0.3980 0.4310 0.4640 0.4850 0.5000
6.457000 0.5090 0.5090 0.5110 0.5110 0.5130
6.492153 0.5230 0.5350 0.5460 0.5540 0.5650
6.528000 0.5660 0.5660 0.5610 0.5510 0.5390
6.563153 0.5180 0.4900 0.4290 0.3890 0.3390
6.598000 0.3090 0.3090 0.3090 0.3110 0.3260
6.633153 0.3370 0.3530 0.3730 0.3870 0.4080
6.668000 0.4310 0.4600 0.4950 0.4990 0.5090
6.703153 0.5300 0.5510 0.5860 0.6060 0.6080
6.738000 0.6010 0.5560 0.5250 0.4990 0.4780
6.773153 0.4690 0.4710 0.5000 0.5330 0.5370
6.809000 0.5370 0.5320 0.5250 0.5210 0.5180
6.844153 0.5110 0.5000 0.4900 0.4800 0.4760
6.879000 0.4710 0.4550 0.4410 0.4000 0.3680
6.914153 0.3330 0.2970 0.2640 0.2330 0.2030
6.949000 0.1890 0.1840 0.1840 0.1980 0.2240
6.984153 0.2480 0.2730 0.2970 0.3200 0.3390
7.019000 0.3580 0.3730 0.3860 0.3890 0.3980
7.054153 0.4130 0.4290 0.4460 0.4600 0.4670
7.090000 0.4780 0.4930 0.5070 0.5280 0.5460
7.125153 0.5680 0.5960 0.6200 0.6360 0.6400
7.160000 0.6430 0.6500 0.6550 0.6620 0.6810
7.195153 0.7060 0.7090 0.7090 0.7070 0.6990
7.230000 0.6990 0.6950 0.6920 0.6880 0.6800
7.265153 0.6570 0.6290 0.6000 0.5680 0.5650
7.301000 0.5680 0.5980 0.6200 0.6450 0.6600
7.336153 0.6710 0.6730 0.6730 0.6710 0.6710
7.371000 0.6690 0.6670 0.6640 0.6500 0.6450
7.406153 0.6400 0.6240 0.6030 0.5840 0.5390
7.441000 0.4990 0.4690 0.4290 0.3980 0.3750
7.476153 0.3600 0.3470 0.3470 0.3490 0.3720
7.511000 0.3980 0.4240 0.4400 0.4590 0.4710
7.546153 0.4880 0.4900 0.4880 0.4740 0.4480
7.582000 0.4120 0.3750 0.3400 0.3180 0.3130
7.617153 0.3130 0.3180 0.3330 0.3540 0.3870
7.652000 0.4190 0.4520 0.4810 0.5110 0.5370
7.687153 0.5630 0.5860 0.6050 0.6240 0.6360
7.722000 0.6500 0.6600 0.6660 0.6710 0.6780
7.757153 0.6830 0.6850 0.6850 0.6850 0.6850
7.792000 0.6800 0.6780 0.6800 0.6850 0.6920
7.827153 0.6950 0.7020 0.7130 0.7180 0.7230
7.863000 0.7320 0.7350 0.7390 0.7390 0.7370
7.898153 0.7350 0.7330 0.7250 0.7040 0.6810
7.933000 0.6430 0.6000 0.5400 0.4800 0.4480
7.968153 0.4270 0.4080 0.3770 0.3370 0.3060
8.003000 0.3020 0.3060 0.3390 0.3770 0.3770
8.038153 0.3600 0.3070 0.2690 0.2640 0.2670
8.074000 0.2970 0.3420 0.3840 0.4260 0.4620
8.109153 0.4990 0.5320 0.5600 0.5860 0.6050
8.144000 0.6330 0.6550 0.6780 0.6990 0.7090
8.179153 0.7200 0.7300 0.7400 0.7420 0.7440
8.214000 0.7440 0.7400 0.7370 0.7200 0.6880
8.249153 0.6530 0.5940 0.5330 0.4690 0.3840
8.284000 0.3070 0.2330 0.1870 0.1840 0.1870
8.319153 0.2340 0.2880 0.3110 0.3540 0.4000
8.355000 0.4290 0.4640 0.4930 0.5060 0.5180
8.390153 0.5750 0.5940 0.6030 0.6130 0.6240
8.425000 0.6310 0.6360 0.6380 0.6330 0.6270
8.460153 0.6050 0.5960 0.5730 0.5470 0.5130
8.495000 0.4850 0.4600 0.4460 0.4450 0.4460
8.530153 0.4710 0.4990 0.5250 0.5510 0.5730
8.565000 0.5940 0.5980 0.6170 0.6310 0.6310
8.600153 0.6310 0.6290 0.6260 0.6190 0.6170
8.636000 0.6120 0.6100 0.6010 0.5980 0.5960
8.671153 0.5840 0.5750 0.5630 0.5490 0.5350
8.706000 0.5210 0.5140 0.5130 0.5140 0.5250
8.741153 0.5400 0.5540 0.5770 0.5980 0.6100
8.776000 0.6310 0.6590 0.6850 0.7060 0.7110
8.811153 0.7210 0.7350 0.7490 0.7600 0.7680
8.846000 0.7750 0.7820 0.7890 0.7930 0.7940
8.881153 0.7980 0.8010 0.8030 0.8050 0.8080
8.917000 0.8100 0.8120 0.8120 0.8130 0.8150
8.952153 0.8150 0.8170 0.8170 0.8190 0.8200
8.987000 0.8200 0.8220 0.8220 0.8220 0.8220
9.022153 0.8220 0.8220 0.8200 0.8200 0.8200
9.057000 0.8200 0.8200 0.8200 0.8220 0.8220
9.092153 0.8220 0.8200 0.8200 0.8170 0.8120
9.128000 0.8120 0.8100 0.8100 0.8080 0.8080
9.163153 0.8030 0.8000 0.7980 0.7940 0.7930
9.198000 0.7930 0.7930 0.7930 0.7930 0.7940
9.233153 0.7980 0.8000 0.8010 0.8010 0.8050
9.268000 0.8050 0.8060 0.8100 0.8120 0.8150
9.303153 0.8150 0.8120 0.8100 0.8080 0.8060
9.338000 0.8050 0.8050 0.8010 0.8010 0.8000
9.373153 0.7980 0.7960 0.7940 0.7910 0.7890
9.409000 0.7820 0.7800 0.7790 0.7770 0.7750
9.444153 0.7720 0.7700 0.7680 0.7630 0.7600
9.479000 0.7510 0.7460 0.7330 0.7300 0.7210
9.514153 0.7040 0.6930 0.6690 0.6530 0.6430
9.549000 0.6240 0.6120 0.6100 0.6100 0.6100
9.584153 0.6100 0.6200 0.6400 0.6460 0.6500
9.619000 0.6570 0.6590 0.6620 0.6640 0.6640
9.654153 0.6660 0.6670 0.6710 0.6780 0.6830
9.690000 0.6950 0.7000 0.7130 0.7210 0.7300
9.725153 0.7330 0.7400 0.7490 0.7560 0.7610
9.760000 0.7660 0.7720 0.7770 0.7800 0.7910
9.795153 0.7960 0.7980 0.8000 0.8010 0.8010
9.830000 0.8030 0.8050 0.8050 0.8060 0.8060
9.865153 0.8050 0.8050 0.8030 0.8010 0.8010
9.901000 0.8010 0.7980 0.7980 0.7980 0.7980
9.936153 0.8000 0.8000 0.8010 0.8030 0.8060
9.971000 0.8080 0.8150 0.8170 0.8170 0.8170
10.006153 0.8150 0.8150 0.8150 0.8150 0.8130
10.041000 0.8120 0.8030 0.8000 0.7930 0.7890
10.076153 0.7890 0.7910 0.7980 0.8000 0.8000
10.111000 0.8010 0.8010 0.8030 0.8050 0.8120
10.146153 0.8130 0.8190 0.8200 0.8240 0.8310
10.182000 0.8340 0.8360 0.8360 0.8360 0.8360
10.217153 0.8360 0.8380 0.8400 0.8410 0.8430
10.252000 0.8450 0.8480 0.8500 0.8500 0.8520
10.287153 0.8520 0.8550 0.8550 0.8570 0.8590
10.322000 0.8600 0.8600 0.8600 0.8600 0.8600
10.357153 0.8600 0.8600 0.8600 0.8600 0.8600
10.392000 0.8600 0.8590 0.8570 0.8520 0.8520
10.427153 0.8520 0.8500 0.8500 0.8500 0.8500
10.463000 0.8450 0.8430 0.8410 0.8410 0.8410
10.498153 0.8410 0.8400 0.8340 0.8270 0.8170
10.533000 0.8000 0.7980 0.7980 0.8000 0.8260
10.568153 0.8450 0.8590 0.8690 0.8710 0.8730
10.603000 0.8730 0.8760 0.8780 0.8800 0.8800
10.638153 0.8800 0.8800 0.8800 0.8810 0.8810
10.674000 0.8810 0.8830 0.8850 0.8900 0.8900
10.709153 0.8920 0.8920 0.8920 0.8930 0.8950
10.744000 0.8990 0.9000 0.9020 0.9020 0.9020
10.779153 0.9040 0.9040 0.9040 0.9040 0.9040
10.814000 0.9040 0.9040 0.9040 0.9040 0.9040
10.849153 0.9040 0.9020 0.9020 0.9020 0.9020
10.884000 0.9020 0.9000 0.9000 0.8990 0.8950
10.919153 0.8920 0.8900 0.8830 0.8710 0.8570
10.955000 0.8360 0.8170 0.7940 0.7790 0.7790
10.990153 0.7800 0.7910 0.8010 0.8120 0.8260
11.025000 0.8380 0.8500 0.8600 0.8710 0.8780
11.060153 0.8830 0.8850 0.8900 0.8990 0.9020
11.095000 0.9110 0.9130 0.9160 0.9180 0.9200
11.130153 0.9210 0.9250 0.9300 0.9320 0.9330
11.165000 0.9350 0.9350 0.9370 0.9370 0.9390
11.200153 0.9390 0.9400 0.9400 0.9400 0.9390
11.236000 0.9390 0.9390 0.9390 0.9390 0.9390
11.271153 0.9390 0.9390 0.9390 0.9390 0.9400
11.306000 0.9400 0.9400 0.9400 0.9390 0.9370
11.341153 0.9370 0.9370 0.9350 0.9350 0.9350
11.376000 0.9330 0.9330 0.9320 0.9320 0.9330
11.411153 0.9330 0.9330 0.9330 0.9330 0.9330
11.446000 0.9320 0.9320 0.9320 0.9320 0.9330
11.481153 0.9330 0.9350 0.9370 0.9370 0.9350
11.517000 0.9350 0.9350 0.9350 0.9350 0.9350
11.552153 0.9330 0.9320 0.9320 0.9330 0.9350
11.587000 0.9350 0.9370 0.9370 0.9350 0.9350
11.622153 0.9330 0.9330 0.9330 0.9330 0.9320
11.657000 0.9320 0.9300 0.9280 0.9280 0.9280
11.692153 0.9300 0.9320 0.9330 0.9350 0.9350
11.728000 0.9350 0.9330 0.9330 0.9330 0.9320
11.763153 0.9300 0.9280 0.9280 0.9280 0.9260
11.798000 0.9260 0.9260 0.9260 0.9260 0.9230
11.833153 0.9210 0.9210 0.9180 0.9140 0.9130
11.868000 0.9110 0.9090 0.9090 0.9070 0.9060
11.903153 0.9060 0.9040 0.9040 0.9020 0.8990
11.938000 0.8970 0.8920 0.8900 0.8830 0.8800
11.973153 0.8740 0.8670 0.8620 0.8530 0.8430
12.009000 0.8330 0.8170 0.8000 0.7800 0.7680
12.044153 0.7510 0.7330 0.7200 0.7110 0.7020
12.079000 0.6990 0.6950 0.6930 0.6930 0.6950
12.114153 0.6970 0.6990 0.7000 0.7040 0.7060
12.149000 0.7060 0.7040 0.7020 0.7000 0.6990
12.184153 0.6970 0.6920 0.6900 0.6900 0.6900
12.219000 0.6920 0.6920 0.6930 0.6990 0.7040
12.254153 0.7060 0.7130 0.7200 0.7250 0.7320
12.290000 0.7370 0.7400 0.7420 0.7440 0.7490
12.325153 0.7530 0.7540 0.7580 0.7600 0.7610
12.360000 0.7630 0.7630 0.7610 0.7610 0.7610
12.395153 0.7580 0.7540 0.7530 0.7510 0.7510
12.430000 0.7440 0.7420 0.7420 0.7420 0.7420
12.465153 0.7420 0.7440 0.7460 0.7460 0.7510
12.501000 0.7530 0.7540 0.7610 0.7630 0.7700
12.536153 0.7730 0.7770 0.7790 0.7820 0.7910
12.571000 0.7960 0.8000 0.8030 0.8060 0.8080
12.606153 0.8120 0.8150 0.8170 0.8190 0.8220
12.641000 0.8240 0.8260 0.8260 0.8240 0.8240
12.676153 0.8240 0.8260 0.8260 0.8270 0.8290
12.711000 0.8290 0.8290 0.8290 0.8290 0.8290
12.746153 0.8290 0.8270 0.8260 0.8240 0.8220
12.782000 0.8200 0.8170 0.8130 0.8060 0.8030
12.817153 0.8000 0.7910 0.7800 0.7530 0.7420
12.852000 0.7330 0.7110 0.6830 0.6600 0.6240
12.887153 0.5820 0.5350 0.4860 0.4360 0.3870
12.922000 0.3730 0.3730 0.3800 0.4240 0.4600
12.957153 0.5110 0.5580 0.5930 0.6200 0.6450
12.992000 0.6670 0.6860 0.7020 0.7130 0.7200
13.027153 0.7210 0.7230 0.7260 0.7260 0.7280
13.063000 0.7280 0.7280 0.7280 0.7280 0.7300
13.098153 0.7300 0.7300 0.7280 0.7260 0.7230
13.133000 0.7230 0.7210 0.7200 0.7180 0.7180
13.168153 0.7160 0.7140 0.7140 0.7140 0.7140
13.203000 0.7140 0.7140 0.7140 0.7140 0.7140
13.238153 0.7140 0.7140 0.7140 0.7140 0.7140
13.274000 0.7140 0.7140 0.7160 0.7160 0.7160
13.309153 0.7160 0.7160 0.7140 0.7140 0.7140
13.344000 0.7140 0.7140 0.7140 0.7140 0.7140
13.379153 0.7130 0.7130 0.7130 0.7130 0.7160
13.414000 0.7180 0.7200 0.7200 0.7210 0.7210
13.449153 0.7210 0.7200 0.7200 0.7200 0.7200
13.484000 0.7200 0.7200 0.7200 0.7200 0.7210
13.519153 0.7250 0.7250 0.7230 0.7210 0.7210
13.555000 0.7230 0.7230 0.7230 0.7230 0.7250
13.590153 0.7260 0.7260 0.7260 0.7260 0.7260
13.625000 0.7260 0.7280 0.7280 0.7300 0.7300
13.660153 0.7300 0.7300 0.7300 0.7300 0.7320
13.695000 0.7320 0.7320 0.7330 0.7330 0.7370
13.730153 0.7390 0.7400 0.7420 0.7420 0.7420
13.765000 0.7420 0.7440 0.7440 0.7460 0.7460
13.800153 0.7490 0.7490 0.7510 0.7510 0.7530
13.836000 0.7530 0.7560 0.7580 0.7580 0.7600
13.871153 0.7600 0.7610 0.7610 0.7610 0.7610
13.906000 0.7610 0.7630 0.7630 0.7630 0.7650
13.941153 0.7650 0.7650 0.7650 0.7650 0.7630
13.976000 0.7610 0.7610 0.7610 0.7600 0.7560
14.011153 0.7540 0.7490 0.7460 0.7390 0.7300
14.046000 0.7250 0.7230 0.7110 0.7070 0.7020
14.081153 0.6990 0.6950 0.6920 0.6880 0.6830
14.117000 0.6810 0.6800 0.6760 0.6730 0.6710
14.152153 0.6690 0.6620 0.6600 0.6590 0.6570
14.187000 0.6530 0.6500 0.6480 0.6410 0.6340
14.222153 0.6310 0.6290 0.6120 0.6120 0.6100
14.257000 0.6030 0.5960 0.5940 0.5910 0.5890
14.292153 0.5860 0.5840 0.5840 0.5820 0.5820
14.328000 0.5820 0.5840 0.5910 0.6000 0.6010
14.363153 0.6100 0.6200 0.6270 0.6410 0.6500
14.398000 0.6590 0.6690 0.6880 0.6930 0.6990
14.433153 0.7000 0.7020 0.7020 0.7000 0.6970
14.468000 0.6810 0.6800 0.6710 0.6620 0.6520
14.503153 0.6460 0.6430 0.6430 0.6430 0.6450
14.538000 0.6480 0.6500 0.6520 0.6590 0.6620
14.573153 0.6730 0.6800 0.6850 0.6920 0.6950
14.609000 0.6990 0.7060 0.7130 0.7140 0.7180
14.644153 0.7210 0.7230 0.7260 0.7300 0.7320
14.679000 0.7320 0.7330 0.7350 0.7350 0.7390
14.714153 0.7400 0.7420 0.7440 0.7490 0.7510
14.749000 0.7510 0.7530 0.7530 0.7540 0.7540
14.784153 0.7540 0.7560 0.7560 0.7560 0.7560
14.819000 0.7580 0.7580 0.7580 0.7600 0.7600
14.854153 0.7560 0.7540 0.7530 0.7510 0.7510
14.890000 0.7490 0.7420 0.7400 0.7320 0.7230
14.925153 0.7210 0.7160 0.7140 0.7160 0.7200
14.960000 0.7250 0.7330 0.7420 0.7510 0.7530
14.995153 0.7540 0.7560 0.7580 0.7600 0.7610
15.030000 0.7610 0.7600 0.7600 0.7530 0.7510
15.065153 0.7490 0.7470 0.7460 0.7420 0.7390
15.101000 0.7390 0.7350 0.7350 0.7330 0.7320
15.136153 0.7300 0.7230 0.7210 0.7140 0.7110
15.171000 0.7110 0.7110 0.7090 0.7060 0.7040
15.206153 0.7020 0.7020 0.7000 0.7000 0.6990
15.241000 0.6990 0.6970 0.6950 0.6950 0.6950
15.276153 0.6930 0.6930 0.6930 0.6930 0.6930
15.311000 0.6920 0.6920 0.6920 0.6920 0.6900
15.346153 0.6900 0.6880 0.6880 0.6880 0.6860
15.382000 0.6850 0.6810 0.6800 0.6780 0.6760
15.417153 0.6730 0.6690 0.6660 0.6640 0.6600
15.452000 0.6590 0.6520 0.6430 0.6410 0.6400
15.487153 0.6400 0.6380 0.6340 0.6310 0.6290
15.522000 0.6270 0.6260 0.6240 0.6220 0.6220
15.557153 0.6220 0.6220 0.6220 0.6220 0.6240
15.592000 0.6240 0.6260 0.6290 0.6310 0.6330
15.627153 0.6340 0.6360 0.6380 0.6400 0.6400
15.663000 0.6410 0.6430 0.6460 0.6500 0.6520
15.698153 0.6550 0.6570 0.6590 0.6590 0.6600
15.733000 0.6620 0.6620 0.6640 0.6660 0.6690
15.768153 0.6730 0.6780 0.6800 0.6800 0.6800
15.803000 0.6810 0.6830 0.6850 0.6880 0.6900
15.838153 0.6900 0.6900 0.6900 0.6920 0.6920
15.874000 0.6920 0.6930 0.6930 0.6920 0.6900
15.909153 0.6900 0.6900 0.6900 0.6920 0.6920
15.944000 0.6920 0.6920 0.6900 0.6900 0.6900
15.979153 0.6900 0.6900 0.6900 0.6920
##END=
