##TITLE=BENZENE, ETHENYL-
##JCAMP-DX=4.24
##DATA TYPE=INFRARED SPECTRUM
##CLASS=COBLENTZ III
##ORIGIN=DOW CHEMICAL COMPANY
##OWNER=COBLENTZ SOCIETY
Collection (C) 2018 copyright by the U.S. Secretary of Commerce
on behalf of the United States of America. All rights reserved.
##DATE=1972/01/25
##NAMES=vinylbenzene
STYRENE
##CAS REGISTRY NO=100-42-5
##MOLFORM=C8 H8
##SOURCE REFERENCE=COBLENTZ NO. 10474
##$NIST SOURCE=COBLENTZ
##$NIST IMAGE=cob10474
##SPECTROMETER/DATA SYSTEM=DOW KBr FOREPRISM-GRATING
##INSTRUMENT PARAMETERS=BLAZED AT 3.5, 12.0, 20.0 MICRON, CHANGED AT 5.0, 7.5, 14.9 MICRON
##STATE=SOLUTION (2% IN CCl4 FOR 3800-1333, 2% IN CS2 FOR 1333-660, 2% IN CCl4 FOR 660-450 CM^-^1)
##PATH LENGTH=0.011, 0.011, 0.011 CM
$$SPECTRAL CONTAMINATION DUE TO CCl4 AROUND 1550, AND CS2 AROUND 850 CM^-^1
##SAMPLING PROCEDURE=TRANSMISSION
##RESOLUTION=4
##DATA PROCESSING=DIGITIZED BY NIST FROM HARD COPY (FROM TWO SEGMENTS)
##XUNITS=1/CM
##YUNITS=TRANSMITTANCE
##XFACTOR=1.000000
##YFACTOR=1
##DELTAX=0.876646
##FIRSTX=457.984
##LASTX=3800.64
##FIRSTY=0.86
##MAXX=3800.64
##MINX=457.984
##MAXY=1.012
##MINY=0.229002
##NPOINTS=3814
##XYDATA=(X++(Y..Y))
457.984000 0.8600 0.8600 0.8600 0.8620 0.8630
462.367230 0.8630 0.8630 0.8640 0.8660 0.8660
466.750460 0.8700 0.8700 0.8710 0.8730 0.8740
471.133690 0.8770 0.8770 0.8790 0.8810 0.8810
475.516920 0.8850 0.8860 0.8880 0.8890 0.8890
479.900150 0.8900 0.8930 0.8930 0.8960 0.8960
484.283379 0.8970 0.8990 0.8990 0.9000 0.9010
488.666609 0.9030 0.9040 0.9070 0.9080 0.9110
493.049839 0.9110 0.9120 0.9140 0.9150 0.9160
497.433069 0.9160 0.9160 0.9180 0.9180 0.9190
501.816299 0.9190 0.9190 0.9230 0.9260 0.9290
506.199529 0.9310 0.9310 0.9330 0.9340 0.9340
510.582759 0.9350 0.9370 0.9370 0.9370 0.9370
514.965989 0.9380 0.9380 0.9380 0.9390 0.9390
519.349219 0.9390 0.9390 0.9390 0.9390 0.9390
523.732449 0.9390 0.9390 0.9390 0.9390 0.9390
528.115679 0.9390 0.9390 0.9390 0.9390 0.9390
532.498908 0.9390 0.9390 0.9390 0.9390 0.9390
536.882138 0.9380 0.9380 0.9380 0.9380 0.9370
541.265368 0.9370 0.9350 0.9350 0.9350 0.9350
545.648598 0.9350 0.9330 0.9310 0.9310 0.9270
550.031828 0.9220 0.9200 0.9180 0.9150 0.9110
554.415058 0.9070 0.9070 0.9050 0.9050 0.9070
558.798288 0.9110 0.9110 0.9160 0.9230 0.9230
563.181518 0.9260 0.9310 0.9310 0.9330 0.9340
567.564748 0.9350 0.9350 0.9370 0.9370 0.9380
571.947978 0.9380 0.9390 0.9390 0.9410 0.9410
576.331207 0.9410 0.9410 0.9410 0.9410 0.9410
580.714437 0.9420 0.9440 0.9440 0.9440 0.9440
585.097667 0.9440 0.9440 0.9440 0.9440 0.9440
589.480897 0.9450 0.9450 0.9440 0.9440 0.9440
593.864127 0.9440 0.9440 0.9440 0.9440 0.9440
598.247357 0.9450 0.9450 0.9450 0.9450 0.9450
602.630587 0.9450 0.9450 0.9440 0.9440 0.9420
607.013817 0.9420 0.9420 0.9420 0.9420 0.9420
611.397047 0.9420 0.9420 0.9420 0.9420 0.9410
615.780277 0.9410 0.9410 0.9410 0.9410 0.9390
620.163507 0.9390 0.9390 0.9380 0.9370 0.9370
624.546736 0.9350 0.9340 0.9340 0.9340 0.9330
628.929966 0.9330 0.9330 0.9290 0.9270 0.9270
633.313196 0.9260 0.9240 0.9230 0.9220 0.9200
637.696426 0.9200 0.9190 0.9180 0.9140 0.9120
642.079656 0.9070 0.9050 0.9040 0.9030 0.9000
646.462886 0.8990 0.8970 0.8940 0.8930 0.8900
650.846116 0.8880 0.8860 0.8840 0.8840 0.8850
655.229346 0.8900 0.8920 0.8930 0.8960 0.8970
659.612576 0.8990 0.9040 0.9080 0.9080 0.9110
663.995806 0.9120 0.9140 0.9150 0.9150 0.9150
668.379036 0.9150 0.9150 0.9150 0.9150 0.9140
672.762265 0.9140 0.9110 0.9110 0.9090 0.9070
677.145495 0.9000 0.8930 0.8850 0.8710 0.8430
681.528725 0.8171 0.7801 0.7292 0.6782 0.6242
685.911955 0.4879 0.3500 0.3110 0.2310 0.2290
690.295185 0.2310 0.2809 0.5403 0.5958 0.7115
694.678415 0.7650 0.8020 0.8360 0.8710 0.8900
699.061645 0.9010 0.9160 0.9240 0.9310 0.9380
703.444875 0.9420 0.9460 0.9490 0.9520 0.9540
707.828105 0.9590 0.9610 0.9630 0.9650 0.9690
712.211335 0.9690 0.9710 0.9710 0.9720 0.9740
716.594565 0.9760 0.9780 0.9780 0.9780 0.9790
720.977794 0.9790 0.9790 0.9790 0.9790 0.9790
725.361024 0.9790 0.9800 0.9800 0.9800 0.9800
729.744254 0.9800 0.9800 0.9800 0.9800 0.9800
734.127484 0.9800 0.9800 0.9800 0.9820 0.9820
738.510714 0.9820 0.9820 0.9820 0.9820 0.9800
742.893944 0.9800 0.9790 0.9790 0.9790 0.9790
747.277174 0.9780 0.9780 0.9750 0.9750 0.9690
751.660404 0.9640 0.9630 0.9590 0.9540 0.9460
756.043634 0.9390 0.9260 0.9160 0.9050 0.8960
760.426864 0.8661 0.8361 0.8001 0.7313 0.6842
764.810094 0.6369 0.5269 0.4100 0.3460 0.2811
769.193323 0.2790 0.2830 0.5214 0.7263 0.7957
773.576553 0.8221 0.8750 0.8960 0.9120 0.9220
777.959783 0.9340 0.9370 0.9440 0.9480 0.9520
782.343013 0.9560 0.9570 0.9610 0.9640 0.9650
786.726243 0.9650 0.9670 0.9670 0.9690 0.9710
791.109473 0.9720 0.9720 0.9720 0.9740 0.9740
795.492703 0.9750 0.9760 0.9760 0.9760 0.9760
799.875933 0.9760 0.9760 0.9760 0.9760 0.9780
804.259163 0.9790 0.9790 0.9790 0.9790 0.9790
808.642393 0.9800 0.9800 0.9800 0.9800 0.9790
813.025622 0.9790 0.9790 0.9790 0.9780 0.9780
817.408852 0.9760 0.9760 0.9750 0.9720 0.9690
821.792082 0.9690 0.9680 0.9670 0.9630 0.9590
826.175312 0.9540 0.9540 0.9490 0.9480 0.9440
830.558542 0.9350 0.9330 0.9310 0.9230 0.9190
834.941772 0.9120 0.9040 0.8970 0.8920 0.8850
839.325002 0.8740 0.8620 0.8540 0.8430 0.8330
843.708232 0.8260 0.8210 0.8170 0.8130 0.8110
848.091462 0.8090 0.8070 0.8070 0.8090 0.8100
852.474692 0.8130 0.8150 0.8190 0.8240 0.8250
856.857922 0.8280 0.8320 0.8340 0.8400 0.8430
861.241151 0.8470 0.8510 0.8520 0.8550 0.8590
865.624381 0.8620 0.8640 0.8670 0.8700 0.8730
870.007611 0.8750 0.8770 0.8810 0.8840 0.8880
874.390841 0.8920 0.8930 0.8970 0.9000 0.9010
878.774071 0.9050 0.9090 0.9120 0.9150 0.9160
883.157301 0.9180 0.9180 0.9180 0.9140 0.9070
887.540531 0.9030 0.8970 0.8940 0.8740 0.8560
891.923761 0.8440 0.8140 0.7960 0.7501 0.7211
896.306991 0.6909 0.5660 0.5110 0.4310 0.3841
900.690221 0.3361 0.3350 0.3360 0.4984 0.5777
905.073451 0.7101 0.7501 0.8030 0.8390 0.8700
909.456680 0.8810 0.9050 0.9230 0.9260 0.9340
913.839910 0.9410 0.9450 0.9500 0.9540 0.9560
918.223140 0.9590 0.9630 0.9650 0.9670 0.9680
922.606370 0.9680 0.9690 0.9710 0.9740 0.9750
926.989600 0.9750 0.9760 0.9760 0.9780 0.9780
931.372830 0.9790 0.9790 0.9800 0.9800 0.9800
935.756060 0.9820 0.9820 0.9820 0.9820 0.9830
940.139290 0.9830 0.9830 0.9830 0.9830 0.9830
944.522520 0.9820 0.9820 0.9820 0.9820 0.9820
948.905750 0.9800 0.9800 0.9790 0.9790 0.9790
953.288980 0.9780 0.9780 0.9760 0.9760 0.9760
957.672209 0.9760 0.9750 0.9750 0.9720 0.9710
962.055439 0.9680 0.9650 0.9630 0.9610 0.9560
966.438669 0.9540 0.9420 0.9350 0.9330 0.9050
970.821899 0.8900 0.8710 0.8710 0.8770 0.8920
975.205129 0.8960 0.8940 0.8900 0.8710 0.8560
979.588359 0.8140 0.7511 0.7081 0.6631 0.6231
983.971589 0.5870 0.5871 0.6451 0.7330 0.8040
988.354819 0.8330 0.8590 0.8939 0.9179 0.9200
992.738049 0.9260 0.9310 0.9330 0.9380 0.9480
997.121279 0.9540 0.9590 0.9630 0.9650 0.9670
1001.504509 0.9680 0.9680 0.9680 0.9680 0.9680
1005.887738 0.9670 0.9650 0.9630 0.9600 0.9590
1010.270968 0.9540 0.9420 0.9350 0.9200 0.9030
1014.654198 0.8920 0.8730 0.8730 0.8890 0.9179
1019.037428 0.9370 0.9540 0.9610 0.9710 0.9720
1023.420658 0.9750 0.9750 0.9760 0.9780 0.9780
1027.803888 0.9780 0.9780 0.9780 0.9790 0.9800
1032.187118 0.9830 0.9830 0.9830 0.9840 0.9860
1036.570348 0.9860 0.9870 0.9870 0.9890 0.9890
1040.953578 0.9890 0.9890 0.9890 0.9900 0.9900
1045.336808 0.9910 0.9910 0.9910 0.9910 0.9930
1049.720037 0.9930 0.9930 0.9930 0.9930 0.9930
1054.103267 0.9930 0.9930 0.9930 0.9930 0.9930
1058.486497 0.9910 0.9910 0.9910 0.9910 0.9910
1062.869727 0.9900 0.9900 0.9890 0.9890 0.9890
1067.252957 0.9870 0.9870 0.9860 0.9840 0.9800
1071.636187 0.9780 0.9760 0.9670 0.9590 0.9540
1076.019417 0.9440 0.9330 0.9240 0.9190 0.9190
1080.402647 0.9270 0.9420 0.9570 0.9650 0.9760
1084.785877 0.9790 0.9830 0.9840 0.9860 0.9870
1089.169107 0.9890 0.9900 0.9910 0.9930 0.9930
1093.552337 0.9930 0.9910 0.9910 0.9930 0.9930
1097.935566 0.9910 0.9910 0.9900 0.9900 0.9890
1102.318796 0.9890 0.9900 0.9900 0.9930 0.9940
1106.702026 0.9950 0.9950 0.9970 0.9970 0.9970
1111.085256 0.9970 0.9970 0.9980 1.0000 1.0000
1115.468486 1.0000 1.0010 1.0020 1.0040 1.0040
1119.851716 1.0050 1.0050 1.0050 1.0050 1.0050
1124.234946 1.0050 1.0040 1.0040 1.0020 1.0020
1128.618176 1.0020 1.0020 1.0010 1.0010 1.0010
1133.001406 1.0010 1.0000 1.0000 1.0000 1.0000
1137.384636 1.0000 1.0000 0.9980 0.9980 0.9970
1141.767866 0.9940 0.9940 0.9930 0.9930 0.9930
1146.151095 0.9910 0.9900 0.9900 0.9890 0.9870
1150.534325 0.9840 0.9840 0.9840 0.9860 0.9860
1154.917555 0.9870 0.9890 0.9900 0.9900 0.9910
1159.300785 0.9910 0.9910 0.9910 0.9910 0.9910
1163.684015 0.9910 0.9910 0.9910 0.9910 0.9910
1168.067245 0.9910 0.9910 0.9910 0.9900 0.9900
1172.450475 0.9900 0.9900 0.9900 0.9900 0.9890
1176.833705 0.9890 0.9890 0.9890 0.9890 0.9900
1181.216935 0.9930 0.9930 0.9930 0.9940 0.9940
1185.600165 0.9940 0.9940 0.9940 0.9940 0.9950
1189.983395 0.9950 0.9940 0.9940 0.9930 0.9930
1194.366624 0.9910 0.9890 0.9860 0.9830 0.9800
1198.749854 0.9780 0.9720 0.9710 0.9710 0.9750
1203.133084 0.9780 0.9820 0.9870 0.9930 0.9980
1207.516314 1.0000 1.0020 1.0020 1.0050 1.0050
1211.899544 1.0050 1.0060 1.0060 1.0080 1.0080
1216.282774 1.0080 1.0080 1.0080 1.0080 1.0090
1220.666004 1.0100 1.0100 1.0120 1.0120 1.0120
1225.049234 1.0100 1.0100 1.0100 1.0100 1.0100
1229.432464 1.0090 1.0090 1.0080 1.0080 1.0060
1233.815694 1.0060 1.0060 1.0060 1.0060 1.0060
1238.198923 1.0060 1.0060 1.0050 1.0050 1.0050
1242.582153 1.0050 1.0050 1.0050 1.0050 1.0040
1246.965383 1.0040 1.0040 1.0020 1.0020 1.0010
1251.348613 1.0010 1.0010 1.0010 1.0010 1.0000
1255.731843 1.0000 1.0000 1.0000 0.9980 0.9980
1260.115073 0.9980 0.9980 0.9980 0.9980 0.9980
1264.498303 0.9970 0.9970 0.9970 0.9970 0.9970
1268.881533 0.9970 0.9950 0.9950 0.9940 0.9940
1273.264763 0.9930 0.9910 0.9910 0.9900 0.9890
1277.647993 0.9870 0.9870 0.9860 0.9860 0.9820
1282.031223 0.9790 0.9780 0.9780 0.9760 0.9760
1286.414452 0.9740 0.9720 0.9710 0.9710 0.9720
1290.797682 0.9750 0.9750 0.9790 0.9790 0.9820
1295.180912 0.9840 0.9870 0.9870 0.9870 0.9890
1299.564142 0.9890 0.9890 0.9890 0.9890 0.9890
1303.947372 0.9890 0.9890 0.9890 0.9890 0.9890
1308.330602 0.9860 0.9860 0.9830 0.9790 0.9760
1312.713832 0.9740 0.9740 0.9750 0.9760 0.9760
1317.097062 0.9800 0.9830 0.9840 0.9840 0.9860
1321.480292 0.9870 0.9890 0.9890 0.9890 0.9890
1325.863522 0.9870 0.9870 0.9860 0.9830 0.9800
1330.246752 0.9790 0.9780 0.9760 0.9750 0.9740
1334.629981 0.9710 0.9680 0.9680 0.9690 0.9710
1339.013211 0.9720 0.9780 0.9800 0.9820 0.9830
1343.396441 0.9840 0.9860 0.9870 0.9870 0.9870
1347.779671 0.9890 0.9890 0.9890 0.9890 0.9890
1352.162901 0.9890 0.9890 0.9890 0.9890 0.9890
1356.546131 0.9890 0.9890 0.9900 0.9900 0.9900
1360.929361 0.9900 0.9900 0.9900 0.9910 0.9910
1365.312591 0.9910 0.9930 0.9930 0.9930 0.9930
1369.695821 0.9930 0.9930 0.9930 0.9930 0.9910
1374.079051 0.9910 0.9910 0.9910 0.9910 0.9910
1378.462281 0.9910 0.9910 0.9910 0.9910 0.9930
1382.845510 0.9940 1.0050 1.0080 1.0090 1.0060
1387.228740 1.0020 1.0010 1.0000 0.9950 0.9930
1391.611970 0.9900 0.9890 0.9870 0.9860 0.9840
1395.995200 0.9840 0.9830 0.9820 0.9800 0.9790
1400.378430 0.9790 0.9780 0.9750 0.9690 0.9680
1404.761660 0.9650 0.9640 0.9590 0.9540 0.9460
1409.144890 0.9440 0.9380 0.9310 0.9230 0.9200
1413.528120 0.9190 0.9190 0.9200 0.9220 0.9220
1417.911350 0.9240 0.9260 0.9310 0.9310 0.9350
1422.294580 0.9390 0.9410 0.9440 0.9460 0.9490
1426.677810 0.9530 0.9540 0.9560 0.9570 0.9590
1431.061039 0.9600 0.9630 0.9640 0.9640 0.9640
1435.444269 0.9640 0.9640 0.9630 0.9630 0.9610
1439.827499 0.9600 0.9570 0.9540 0.9530 0.9480
1444.210729 0.9420 0.9370 0.9330 0.9190 0.8970
1448.593959 0.8670 0.8629 0.8300 0.8302 0.9310
1452.977189 0.9330 0.9450 0.9500 0.9570 0.9600
1457.360419 0.9600 0.9610 0.9610 0.9610 0.9610
1461.743649 0.9610 0.9600 0.9590 0.9570 0.9560
1466.126879 0.9540 0.9530 0.9520 0.9500 0.9500
1470.510109 0.9490 0.9480 0.9460 0.9450 0.9450
1474.893338 0.9440 0.9420 0.9410 0.9390 0.9370
1479.276568 0.9340 0.9330 0.9310 0.9270 0.9230
1483.659798 0.9190 0.9140 0.9050 0.8990 0.8900
1488.043028 0.8810 0.8750 0.8560 0.8370 0.8130
1492.426258 0.7688 0.7118 0.6537 0.5420 0.5380
1496.809488 0.5422 0.7930 0.8150 0.8320 0.8340
1501.192718 0.8330 0.8300 0.8300 0.8220 0.8180
1505.575948 0.8140 0.8110 0.8020 0.7980 0.7950
1509.959178 0.7880 0.7800 0.7760 0.7690 0.7660
1514.342408 0.7590 0.7570 0.7510 0.7470 0.7430
1518.725638 0.7400 0.7330 0.7270 0.7240 0.7170
1523.108867 0.7100 0.7080 0.7010 0.6970 0.6930
1527.492097 0.6840 0.6790 0.6750 0.6640 0.6520
1531.875327 0.6450 0.6310 0.6190 0.6150 0.6030
1536.258557 0.5890 0.5770 0.5680 0.5620 0.5520
1540.641787 0.5400 0.5270 0.5230 0.5140 0.5110
1545.025017 0.5040 0.5020 0.4990 0.4990 0.4990
1549.408247 0.5000 0.5020 0.5040 0.5100 0.5140
1553.791477 0.5180 0.5260 0.5340 0.5410 0.5490
1558.174707 0.5620 0.5680 0.5780 0.5900 0.6110
1562.557937 0.6160 0.6190 0.6310 0.6350 0.6450
1566.941167 0.6490 0.6540 0.6580 0.6610 0.6610
1571.324396 0.6580 0.6480 0.6390 0.6350 0.6420
1575.707626 0.6460 0.6640 0.6780 0.6840 0.6900
1580.090856 0.6931 0.7090 0.7100 0.7120 0.7160
1584.474086 0.7240 0.7280 0.7390 0.7430 0.7480
1588.857316 0.7580 0.7620 0.7740 0.7840 0.7930
1593.240546 0.7930 0.7980 0.8020 0.8040 0.8070
1597.623776 0.8110 0.8150 0.8320 0.8480 0.8600
1602.007006 0.8700 0.8790 0.8840 0.8900 0.8960
1606.390236 0.9030 0.9110 0.9110 0.9140 0.9180
1610.773466 0.9200 0.9260 0.9270 0.9300 0.9300
1615.156696 0.9300 0.9310 0.9310 0.9310 0.9330
1619.539925 0.9310 0.9270 0.9180 0.9110 0.8970
1623.923155 0.8789 0.8559 0.8370 0.8180 0.8180
1628.306385 0.8340 0.8520 0.8810 0.8960 0.9110
1632.689615 0.9410 0.9480 0.9530 0.9560 0.9600
1637.072845 0.9630 0.9650 0.9670 0.9680 0.9710
1641.456075 0.9740 0.9750 0.9750 0.9760 0.9760
1645.839305 0.9760 0.9780 0.9780 0.9780 0.9780
1650.222535 0.9780 0.9780 0.9780 0.9780 0.9790
1654.605765 0.9790 0.9790 0.9790 0.9790 0.9790
1658.988995 0.9790 0.9790 0.9790 0.9790 0.9790
1663.372225 0.9790 0.9790 0.9790 0.9790 0.9790
1667.755454 0.9780 0.9780 0.9780 0.9760 0.9760
1672.138684 0.9750 0.9750 0.9740 0.9740 0.9720
1676.521914 0.9690 0.9670 0.9640 0.9630 0.9630
1680.905144 0.9640 0.9650 0.9650 0.9670 0.9710
1685.288374 0.9720 0.9720 0.9740 0.9740 0.9740
1689.671604 0.9740 0.9750 0.9750 0.9750 0.9750
1694.054834 0.9750 0.9750 0.9750 0.9750 0.9750
1698.438064 0.9750 0.9750 0.9750 0.9740 0.9740
1702.821294 0.9740 0.9740 0.9740 0.9720 0.9720
1707.204524 0.9720 0.9720 0.9720 0.9710 0.9710
1711.587753 0.9710 0.9710 0.9710 0.9710 0.9710
1715.970983 0.9710 0.9710 0.9690 0.9690 0.9690
1720.354213 0.9680 0.9680 0.9680 0.9670 0.9670
1724.737443 0.9650 0.9650 0.9650 0.9640 0.9640
1729.120673 0.9610 0.9610 0.9600 0.9600 0.9590
1733.503903 0.9590 0.9570 0.9570 0.9560 0.9560
1737.887133 0.9560 0.9540 0.9540 0.9560 0.9570
1742.270363 0.9590 0.9600 0.9610 0.9630 0.9640
1746.653593 0.9650 0.9680 0.9680 0.9690 0.9710
1751.036823 0.9710 0.9710 0.9720 0.9720 0.9720
1755.420053 0.9740 0.9750 0.9750 0.9750 0.9750
1759.803282 0.9750 0.9750 0.9760 0.9760 0.9760
1764.186512 0.9760 0.9760 0.9760 0.9780 0.9780
1768.569742 0.9780 0.9780 0.9780 0.9780 0.9790
1772.952972 0.9790 0.9790 0.9790 0.9780 0.9780
1777.336202 0.9780 0.9780 0.9780 0.9780 0.9760
1781.719432 0.9750 0.9750 0.9740 0.9720 0.9680
1786.102662 0.9670 0.9640 0.9610 0.9600 0.9600
1790.485892 0.9610 0.9640 0.9650 0.9650 0.9670
1794.869122 0.9670 0.9670 0.9670 0.9650 0.9650
1799.252352 0.9640 0.9600 0.9570 0.9560 0.9530
1803.635582 0.9480 0.9450 0.9380 0.9340 0.9330
1808.018811 0.9300 0.9290 0.9300 0.9310 0.9340
1812.402041 0.9370 0.9380 0.9410 0.9460 0.9530
1816.785271 0.9530 0.9560 0.9590 0.9610 0.9650
1821.168501 0.9690 0.9710 0.9720 0.9750 0.9750
1825.551731 0.9760 0.9780 0.9780 0.9780 0.9790
1829.934961 0.9790 0.9790 0.9790 0.9790 0.9790
1834.318191 0.9790 0.9790 0.9790 0.9800 0.9800
1838.701421 0.9800 0.9800 0.9800 0.9800 0.9800
1843.084651 0.9800 0.9800 0.9800 0.9800 0.9790
1847.467881 0.9790 0.9790 0.9790 0.9780 0.9780
1851.851111 0.9780 0.9780 0.9780 0.9750 0.9750
1856.234340 0.9740 0.9710 0.9670 0.9650 0.9650
1860.617570 0.9640 0.9640 0.9640 0.9640 0.9650
1865.000800 0.9670 0.9690 0.9750 0.9760 0.9760
1869.384030 0.9780 0.9780 0.9780 0.9760 0.9760
1873.767260 0.9750 0.9740 0.9710 0.9710 0.9710
1878.150490 0.9720 0.9750 0.9750 0.9760 0.9790
1882.533720 0.9800 0.9820 0.9830 0.9840 0.9840
1886.916950 0.9840 0.9840 0.9840 0.9840 0.9840
1891.300180 0.9840 0.9840 0.9860 0.9870 0.9870
1895.683410 0.9870 0.9870 0.9890 0.9890 0.9890
1900.066639 0.9890 0.9890 0.9890 0.9890 0.9890
1904.449869 0.9890 0.9900 0.9900 0.9900 0.9890
1908.833099 0.9890 0.9870 0.9870 0.9870 0.9870
1913.216329 0.9860 0.9860 0.9840 0.9840 0.9840
1917.599559 0.9830 0.9830 0.9830 0.9820 0.9800
1921.982789 0.9790 0.9780 0.9760 0.9740 0.9710
1926.366019 0.9690 0.9670 0.9650 0.9650 0.9670
1930.749249 0.9690 0.9690 0.9740 0.9750 0.9760
1935.132479 0.9760 0.9760 0.9750 0.9750 0.9750
1939.515709 0.9710 0.9690 0.9680 0.9680 0.9690
1943.898939 0.9690 0.9720 0.9750 0.9760 0.9760
1948.282168 0.9780 0.9780 0.9780 0.9800 0.9820
1952.665398 0.9820 0.9830 0.9820 0.9820 0.9820
1957.048628 0.9820 0.9800 0.9800 0.9790 0.9790
1961.431858 0.9800 0.9800 0.9800 0.9820 0.9840
1965.815088 0.9840 0.9840 0.9840 0.9840 0.9840
1970.198318 0.9840 0.9860 0.9860 0.9860 0.9840
1974.581548 0.9840 0.9840 0.9840 0.9840 0.9840
1978.964778 0.9830 0.9830 0.9830 0.9830 0.9830
1983.348008 0.9830 0.9830 0.9840 0.9840 0.9840
1987.731238 0.9840 0.9830 0.9830 0.9830 0.9830
1992.114468 0.9830 0.9830 0.9840 0.9860 0.9870
1996.497697 0.9890 0.9890 0.9890 0.9890 0.9890
2000.880927 0.9890 0.9890 0.9890 0.9890 0.9890
2005.264157 0.9890 0.9890 0.9890 0.9890 0.9890
2009.647387 0.9890 0.9890 0.9880 0.9870 0.9870
2014.030617 0.9870 0.9870 0.9870 0.9870 0.9870
2018.413847 0.9870 0.9870 0.9870 0.9870 0.9880
2022.797077 0.9890 0.9890 0.9890 0.9890 0.9890
2027.180307 0.9890 0.9890 0.9890 0.9890 0.9890
2031.563537 0.9890 0.9890 0.9890 0.9890 0.9890
2035.946767 0.9890 0.9890 0.9895 0.9900 0.9900
2040.329997 0.9900 0.9900 0.9900 0.9900 0.9900
2044.713226 0.9900 0.9900 0.9900 0.9900 0.9900
2049.096456 0.9900 0.9900 0.9900 0.9900 0.9900
2053.479686 0.9900 0.9900 0.9900 0.9900 0.9900
2057.862916 0.9900 0.9900 0.9900 0.9900 0.9900
2062.246146 0.9900 0.9900 0.9900 0.9900 0.9895
2066.629376 0.9890 0.9890 0.9890 0.9890 0.9890
2071.012606 0.9895 0.9900 0.9900 0.9900 0.9900
2075.395836 0.9900 0.9900 0.9900 0.9900 0.9900
2079.779066 0.9900 0.9900 0.9900 0.9900 0.9900
2084.162296 0.9900 0.9900 0.9900 0.9900 0.9900
2088.545526 0.9900 0.9900 0.9900 0.9900 0.9905
2092.928755 0.9910 0.9910 0.9910 0.9910 0.9910
2097.311985 0.9910 0.9910 0.9910 0.9910 0.9910
2101.695215 0.9910 0.9910 0.9910 0.9910 0.9910
2106.078445 0.9905 0.9900 0.9900 0.9900 0.9900
2110.461675 0.9900 0.9900 0.9900 0.9900 0.9900
2114.844905 0.9900 0.9900 0.9900 0.9900 0.9900
2119.228135 0.9900 0.9895 0.9890 0.9890 0.9890
2123.611365 0.9890 0.9890 0.9890 0.9890 0.9890
2127.994595 0.9890 0.9890 0.9890 0.9895 0.9900
2132.377825 0.9900 0.9900 0.9900 0.9900 0.9895
2136.761054 0.9890 0.9890 0.9890 0.9890 0.9890
2141.144284 0.9890 0.9890 0.9890 0.9890 0.9890
2145.527514 0.9890 0.9890 0.9890 0.9890 0.9891
2149.910744 0.9896 0.9900 0.9900 0.9898 0.9883
2154.293974 0.9870 0.9870 0.9870 0.9870 0.9870
2158.677204 0.9870 0.9870 0.9870 0.9871 0.9881
2163.060434 0.9890 0.9890 0.9890 0.9890 0.9889
2167.443664 0.9879 0.9870 0.9870 0.9869 0.9864
2171.826894 0.9860 0.9860 0.9860 0.9860 0.9860
2176.210124 0.9860 0.9860 0.9860 0.9854 0.9804
2180.593354 0.9759 0.9754 0.9751 0.9756 0.9765
2184.976583 0.9805 0.9840 0.9840 0.9841 0.9851
2189.359813 0.9860 0.9860 0.9860 0.9860 0.9859
2193.743043 0.9849 0.9840 0.9840 0.9840 0.9840
2198.126273 0.9840 0.9840 0.9840 0.9840 0.9840
2202.509503 0.9840 0.9840 0.9840 0.9840 0.9840
2206.892733 0.9840 0.9840 0.9840 0.9840 0.9840
2211.275963 0.9840 0.9840 0.9840 0.9840 0.9840
2215.659193 0.9840 0.9840 0.9840 0.9840 0.9840
2220.042423 0.9840 0.9840 0.9840 0.9840 0.9840
2224.425653 0.9840 0.9840 0.9839 0.9834 0.9829
2228.808883 0.9824 0.9820 0.9820 0.9820 0.9820
2233.192112 0.9820 0.9820 0.9820 0.9820 0.9818
2237.575342 0.9808 0.9800 0.9800 0.9800 0.9800
2241.958572 0.9800 0.9800 0.9799 0.9794 0.9790
2246.341802 0.9790 0.9790 0.9790 0.9790 0.9790
2250.725032 0.9789 0.9784 0.9780 0.9780 0.9780
2255.108262 0.9780 0.9778 0.9768 0.9759 0.9754
2259.491492 0.9750 0.9750 0.9749 0.9744 0.9740
2263.874722 0.9740 0.9738 0.9728 0.9720 0.9720
2268.257952 0.9719 0.9714 0.9708 0.9698 0.9689
2272.641182 0.9684 0.9679 0.9674 0.9668 0.9658
2277.024412 0.9649 0.9644 0.9640 0.9640 0.9639
2281.407641 0.9634 0.9628 0.9618 0.9610 0.9610
2285.790871 0.9609 0.9604 0.9599 0.9594 0.9590
2290.174101 0.9590 0.9588 0.9578 0.9570 0.9570
2294.557331 0.9569 0.9564 0.9560 0.9560 0.9560
2298.940561 0.9560 0.9560 0.9560 0.9560 0.9560
2303.323791 0.9560 0.9560 0.9560 0.9560 0.9561
2307.707021 0.9566 0.9572 0.9582 0.9590 0.9590
2312.090251 0.9590 0.9590 0.9590 0.9590 0.9590
2316.473481 0.9590 0.9590 0.9590 0.9590 0.9590
2320.856711 0.9590 0.9590 0.9591 0.9596 0.9600
2325.239940 0.9600 0.9603 0.9618 0.9632 0.9642
2329.623170 0.9652 0.9662 0.9671 0.9676 0.9681
2334.006400 0.9686 0.9690 0.9690 0.9690 0.9690
2338.389630 0.9692 0.9702 0.9711 0.9716 0.9720
2342.772860 0.9720 0.9722 0.9732 0.9740 0.9740
2347.156090 0.9741 0.9746 0.9750 0.9750 0.9750
2351.539320 0.9750 0.9750 0.9750 0.9750 0.9750
2355.922550 0.9751 0.9756 0.9759 0.9754 0.9750
2360.305780 0.9750 0.9751 0.9756 0.9760 0.9760
2364.689010 0.9760 0.9760 0.9760 0.9760 0.9760
2369.072240 0.9760 0.9759 0.9754 0.9750 0.9750
2373.455469 0.9750 0.9750 0.9751 0.9756 0.9759
2377.838699 0.9754 0.9750 0.9750 0.9750 0.9750
2382.221929 0.9750 0.9750 0.9750 0.9750 0.9749
2386.605159 0.9744 0.9740 0.9740 0.9740 0.9740
2390.988389 0.9740 0.9740 0.9740 0.9740 0.9737
2395.371619 0.9727 0.9720 0.9720 0.9720 0.9720
2399.754849 0.9720 0.9720 0.9720 0.9720 0.9720
2404.138079 0.9720 0.9720 0.9720 0.9720 0.9720
2408.521309 0.9720 0.9720 0.9720 0.9720 0.9720
2412.904539 0.9720 0.9720 0.9720 0.9720 0.9720
2417.287769 0.9720 0.9720 0.9720 0.9720 0.9720
2421.670998 0.9720 0.9720 0.9720 0.9720 0.9720
2426.054228 0.9720 0.9720 0.9720 0.9720 0.9723
2430.437458 0.9733 0.9740 0.9740 0.9740 0.9740
2434.820688 0.9740 0.9740 0.9740 0.9740 0.9740
2439.203918 0.9740 0.9737 0.9727 0.9720 0.9720
2443.587148 0.9720 0.9720 0.9720 0.9720 0.9720
2447.970378 0.9720 0.9720 0.9720 0.9718 0.9713
2452.353608 0.9710 0.9710 0.9710 0.9710 0.9710
2456.736838 0.9710 0.9710 0.9710 0.9710 0.9710
2461.120068 0.9710 0.9710 0.9710 0.9710 0.9710
2465.503298 0.9710 0.9710 0.9710 0.9707 0.9697
2469.886527 0.9690 0.9690 0.9690 0.9690 0.9690
2474.269757 0.9690 0.9690 0.9690 0.9690 0.9690
2478.652987 0.9690 0.9690 0.9690 0.9690 0.9690
2483.036217 0.9690 0.9688 0.9683 0.9680 0.9680
2487.419447 0.9680 0.9680 0.9682 0.9687 0.9690
2491.802677 0.9690 0.9688 0.9683 0.9680 0.9680
2496.185907 0.9680 0.9680 0.9680 0.9680 0.9680
2500.569137 0.9680 0.9680 0.9680 0.9678 0.9673
2504.952367 0.9670 0.9670 0.9670 0.9670 0.9670
2509.335597 0.9670 0.9670 0.9670 0.9666 0.9656
2513.718827 0.9650 0.9650 0.9650 0.9650 0.9650
2518.102056 0.9650 0.9650 0.9650 0.9650 0.9650
2522.485286 0.9650 0.9650 0.9650 0.9650 0.9650
2526.868516 0.9650 0.9650 0.9650 0.9650 0.9650
2531.251746 0.9650 0.9650 0.9650 0.9650 0.9650
2535.634976 0.9650 0.9650 0.9650 0.9650 0.9650
2540.018206 0.9650 0.9650 0.9650 0.9650 0.9650
2544.401436 0.9650 0.9650 0.9650 0.9650 0.9650
2548.784666 0.9650 0.9650 0.9648 0.9643 0.9640
2553.167896 0.9640 0.9640 0.9640 0.9640 0.9640
2557.551126 0.9640 0.9640 0.9640 0.9640 0.9640
2561.934355 0.9640 0.9640 0.9640 0.9640 0.9640
2566.317585 0.9640 0.9640 0.9640 0.9640 0.9640
2570.700815 0.9640 0.9640 0.9640 0.9640 0.9640
2575.084045 0.9640 0.9640 0.9640 0.9640 0.9638
2579.467275 0.9633 0.9630 0.9630 0.9630 0.9630
2583.850505 0.9630 0.9630 0.9630 0.9630 0.9630
2588.233735 0.9630 0.9630 0.9630 0.9630 0.9630
2592.616965 0.9630 0.9630 0.9630 0.9630 0.9626
2597.000195 0.9616 0.9610 0.9610 0.9610 0.9610
2601.383425 0.9610 0.9610 0.9610 0.9610 0.9610
2605.766655 0.9610 0.9610 0.9610 0.9610 0.9610
2610.149884 0.9610 0.9610 0.9610 0.9610 0.9610
2614.533114 0.9610 0.9610 0.9610 0.9610 0.9610
2618.916344 0.9610 0.9610 0.9610 0.9610 0.9610
2623.299574 0.9610 0.9610 0.9610 0.9610 0.9610
2627.682804 0.9610 0.9610 0.9610 0.9610 0.9608
2632.066034 0.9603 0.9600 0.9600 0.9600 0.9600
2636.449264 0.9600 0.9600 0.9600 0.9600 0.9600
2640.832494 0.9600 0.9600 0.9600 0.9600 0.9600
2645.215724 0.9600 0.9600 0.9600 0.9600 0.9600
2649.598954 0.9600 0.9600 0.9600 0.9600 0.9600
2653.982184 0.9600 0.9600 0.9600 0.9600 0.9600
2658.365413 0.9600 0.9600 0.9600 0.9600 0.9600
2662.748643 0.9600 0.9600 0.9600 0.9600 0.9600
2667.131873 0.9600 0.9600 0.9600 0.9600 0.9600
2671.515103 0.9600 0.9600 0.9600 0.9600 0.9600
2675.898333 0.9600 0.9600 0.9600 0.9600 0.9600
2680.281563 0.9600 0.9600 0.9600 0.9600 0.9600
2684.664793 0.9600 0.9600 0.9600 0.9600 0.9600
2689.048023 0.9600 0.9600 0.9600 0.9600 0.9600
2693.431253 0.9600 0.9598 0.9593 0.9590 0.9590
2697.814483 0.9590 0.9590 0.9590 0.9590 0.9590
2702.197713 0.9590 0.9590 0.9590 0.9590 0.9590
2706.580942 0.9590 0.9590 0.9590 0.9590 0.9590
2710.964172 0.9590 0.9590 0.9590 0.9590 0.9590
2715.347402 0.9590 0.9590 0.9585 0.9575 0.9570
2719.730632 0.9570 0.9570 0.9570 0.9570 0.9570
2724.113862 0.9570 0.9570 0.9570 0.9570 0.9570
2728.497092 0.9570 0.9570 0.9570 0.9570 0.9570
2732.880322 0.9570 0.9570 0.9570 0.9570 0.9567
2737.263552 0.9562 0.9555 0.9545 0.9540 0.9540
2741.646782 0.9540 0.9540 0.9540 0.9540 0.9540
2746.030012 0.9540 0.9545 0.9555 0.9555 0.9545
2750.413242 0.9540 0.9540 0.9540 0.9540 0.9540
2754.796471 0.9540 0.9540 0.9540 0.9540 0.9540
2759.179701 0.9540 0.9540 0.9540 0.9540 0.9540
2763.562931 0.9540 0.9540 0.9540 0.9540 0.9540
2767.946161 0.9540 0.9540 0.9540 0.9540 0.9540
2772.329391 0.9540 0.9540 0.9540 0.9540 0.9540
2776.712621 0.9540 0.9540 0.9540 0.9540 0.9537
2781.095851 0.9532 0.9530 0.9530 0.9530 0.9530
2785.479081 0.9530 0.9530 0.9530 0.9530 0.9530
2789.862311 0.9530 0.9530 0.9530 0.9530 0.9530
2794.245541 0.9530 0.9530 0.9530 0.9530 0.9530
2798.628770 0.9530 0.9530 0.9530 0.9530 0.9530
2803.012000 0.9530 0.9530 0.9530 0.9530 0.9530
2807.395230 0.9530 0.9530 0.9530 0.9530 0.9530
2811.778460 0.9530 0.9530 0.9530 0.9530 0.9530
2816.161690 0.9530 0.9530 0.9530 0.9530 0.9530
2820.544920 0.9530 0.9530 0.9530 0.9530 0.9530
2824.928150 0.9530 0.9530 0.9530 0.9530 0.9530
2829.311380 0.9530 0.9530 0.9530 0.9530 0.9530
2833.694610 0.9530 0.9530 0.9530 0.9530 0.9530
2838.077840 0.9530 0.9530 0.9530 0.9530 0.9530
2842.461070 0.9530 0.9530 0.9530 0.9527 0.9522
2846.844299 0.9520 0.9520 0.9520 0.9520 0.9514
2851.227529 0.9504 0.9500 0.9500 0.9500 0.9500
2855.610759 0.9500 0.9500 0.9494 0.9484 0.9480
2859.993989 0.9480 0.9474 0.9464 0.9460 0.9460
2864.377219 0.9460 0.9460 0.9460 0.9460 0.9457
2868.760449 0.9452 0.9450 0.9450 0.9450 0.9450
2873.143679 0.9447 0.9442 0.9440 0.9440 0.9434
2877.526909 0.9424 0.9420 0.9420 0.9426 0.9436
2881.910139 0.9440 0.9440 0.9440 0.9440 0.9440
2886.293369 0.9440 0.9434 0.9424 0.9420 0.9420
2890.676599 0.9420 0.9420 0.9417 0.9412 0.9410
2895.059828 0.9410 0.9404 0.9394 0.9390 0.9390
2899.443058 0.9390 0.9390 0.9390 0.9390 0.9396
2903.826288 0.9406 0.9410 0.9410 0.9410 0.9410
2908.209518 0.9410 0.9410 0.9410 0.9410 0.9410
2912.592748 0.9410 0.9410 0.9410 0.9403 0.9393
2916.975978 0.9390 0.9390 0.9387 0.9382 0.9377
2921.359208 0.9372 0.9363 0.9353 0.9347 0.9342
2925.742438 0.9340 0.9340 0.9337 0.9332 0.9323
2930.125668 0.9313 0.9310 0.9310 0.9310 0.9310
2934.508898 0.9307 0.9302 0.9300 0.9300 0.9300
2938.892128 0.9300 0.9300 0.9300 0.9297 0.9292
2943.275357 0.9290 0.9290 0.9290 0.9290 0.9283
2947.658587 0.9273 0.9270 0.9270 0.9270 0.9270
2952.041817 0.9270 0.9270 0.9267 0.9262 0.9253
2956.425047 0.9243 0.9237 0.9232 0.9227 0.9222
2960.808277 0.9213 0.9203 0.9193 0.9183 0.9173
2965.191507 0.9163 0.9157 0.9152 0.9147 0.9142
2969.574737 0.9109 0.9064 0.9036 0.9016 0.8996
2973.957967 0.8976 0.8960 0.8945 0.8933 0.8923
2978.341197 0.8920 0.8920 0.8920 0.8920 0.8924
2982.724427 0.8929 0.8934 0.8939 0.8947 0.8957
2987.107656 0.8964 0.8969 0.8970 0.8970 0.8977
2991.490886 0.8987 0.8990 0.8990 0.8983 0.8973
2995.874116 0.8966 0.8961 0.8932 0.8891 0.8848
3000.257346 0.8803 0.8758 0.8713 0.8642 0.8563
3004.640576 0.8500 0.8446 0.8434 0.8439 0.8465
3009.023806 0.8500 0.8535 0.8570 0.8584 0.8589
3013.407036 0.8590 0.8590 0.8572 0.8547 0.8529
3017.790266 0.8514 0.8440 0.8345 0.8236 0.8121
3022.173496 0.8024 0.7934 0.7910 0.7910 0.7917
3026.556726 0.7927 0.7992 0.8077 0.8151 0.8221
3030.939956 0.8298 0.8378 0.8418 0.8444 0.8491
3035.323185 0.8546 0.8575 0.8595 0.8634 0.8679
3039.706415 0.8694 0.8699 0.8700 0.8700 0.8696
3044.089645 0.8691 0.8683 0.8673 0.8637 0.8592
3048.472875 0.8558 0.8528 0.8471 0.8406 0.8352
3052.856105 0.8302 0.8218 0.8123 0.8096 0.8091
3057.239335 0.8090 0.8090 0.8098 0.8108 0.8136
3061.622565 0.8171 0.8274 0.8399 0.8464 0.8509
3066.005795 0.8543 0.8573 0.8580 0.8580 0.8565
3070.389025 0.8545 0.8475 0.8390 0.8285 0.8175
3074.772255 0.8062 0.7947 0.7905 0.7885 0.7880
3079.155485 0.7880 0.7926 0.7986 0.8027 0.8062
3083.538714 0.8097 0.8132 0.8155 0.8176 0.8223
3087.921944 0.8278 0.8364 0.8459 0.8543 0.8623
3092.305174 0.8691 0.8756 0.8813 0.8868 0.8884
3096.688404 0.8889 0.8890 0.8890 0.8902 0.8917
3101.071634 0.8947 0.8982 0.9021 0.9062 0.9098
3105.454864 0.9133 0.9156 0.9176 0.9196 0.9216
3109.838094 0.9224 0.9229 0.9246 0.9266 0.9278
3114.221324 0.9288 0.9294 0.9299 0.9304 0.9309
3118.604554 0.9310 0.9310 0.9310 0.9310 0.9310
3122.987784 0.9310 0.9318 0.9328 0.9330 0.9330
3127.371014 0.9334 0.9339 0.9340 0.9340 0.9340
3131.754243 0.9340 0.9340 0.9340 0.9340 0.9340
3136.137473 0.9344 0.9349 0.9350 0.9350 0.9350
3140.520703 0.9350 0.9350 0.9350 0.9350 0.9350
3144.903933 0.9358 0.9368 0.9362 0.9352 0.9350
3149.287163 0.9350 0.9350 0.9350 0.9358 0.9368
3153.670393 0.9370 0.9370 0.9370 0.9370 0.9370
3158.053623 0.9370 0.9370 0.9370 0.9370 0.9370
3162.436853 0.9374 0.9379 0.9380 0.9380 0.9380
3166.820083 0.9380 0.9380 0.9380 0.9380 0.9380
3171.203313 0.9380 0.9380 0.9380 0.9380 0.9380
3175.586543 0.9380 0.9380 0.9380 0.9380 0.9380
3179.969772 0.9380 0.9380 0.9380 0.9380 0.9380
3184.353002 0.9380 0.9384 0.9389 0.9390 0.9390
3188.736232 0.9390 0.9390 0.9386 0.9381 0.9380
3193.119462 0.9380 0.9380 0.9380 0.9380 0.9380
3197.502692 0.9380 0.9380 0.9380 0.9380 0.9380
3201.885922 0.9380 0.9380 0.9380 0.9380 0.9380
3206.269152 0.9380 0.9380 0.9380 0.9380 0.9380
3210.652382 0.9380 0.9384 0.9389 0.9390 0.9390
3215.035612 0.9390 0.9390 0.9386 0.9381 0.9380
3219.418842 0.9380 0.9380 0.9380 0.9380 0.9380
3223.802071 0.9380 0.9380 0.9384 0.9389 0.9390
3228.185301 0.9390 0.9390 0.9390 0.9390 0.9390
3232.568531 0.9390 0.9390 0.9390 0.9390 0.9390
3236.951761 0.9390 0.9390 0.9390 0.9390 0.9390
3241.334991 0.9390 0.9390 0.9390 0.9390 0.9390
3245.718221 0.9390 0.9399 0.9409 0.9410 0.9410
3250.101451 0.9410 0.9410 0.9410 0.9410 0.9410
3254.484681 0.9410 0.9410 0.9410 0.9410 0.9410
3258.867911 0.9401 0.9391 0.9390 0.9390 0.9390
3263.251141 0.9390 0.9399 0.9409 0.9410 0.9410
3267.634371 0.9410 0.9410 0.9410 0.9410 0.9410
3272.017600 0.9410 0.9410 0.9410 0.9415 0.9420
3276.400830 0.9420 0.9420 0.9420 0.9420 0.9420
3280.784060 0.9420 0.9420 0.9420 0.9420 0.9420
3285.167290 0.9420 0.9420 0.9420 0.9420 0.9420
3289.550520 0.9420 0.9420 0.9420 0.9420 0.9420
3293.933750 0.9420 0.9420 0.9420 0.9420 0.9429
3298.316980 0.9439 0.9440 0.9440 0.9440 0.9440
3302.700210 0.9440 0.9440 0.9440 0.9440 0.9445
3307.083440 0.9450 0.9445 0.9440 0.9440 0.9440
3311.466670 0.9440 0.9440 0.9440 0.9440 0.9440
3315.849900 0.9440 0.9440 0.9440 0.9440 0.9440
3320.233129 0.9440 0.9440 0.9440 0.9440 0.9440
3324.616359 0.9440 0.9440 0.9440 0.9440 0.9440
3328.999589 0.9445 0.9450 0.9445 0.9440 0.9445
3333.382819 0.9450 0.9450 0.9450 0.9450 0.9450
3337.766049 0.9450 0.9450 0.9450 0.9450 0.9455
3342.149279 0.9460 0.9460 0.9460 0.9460 0.9460
3346.532509 0.9460 0.9460 0.9460 0.9460 0.9460
3350.915739 0.9460 0.9460 0.9460 0.9460 0.9460
3355.298969 0.9460 0.9460 0.9460 0.9460 0.9460
3359.682199 0.9460 0.9460 0.9460 0.9455 0.9450
3364.065429 0.9450 0.9450 0.9450 0.9450 0.9450
3368.448658 0.9450 0.9465 0.9480 0.9480 0.9480
3372.831888 0.9480 0.9480 0.9480 0.9480 0.9470
3377.215118 0.9460 0.9460 0.9460 0.9460 0.9460
3381.598348 0.9460 0.9460 0.9460 0.9460 0.9460
3385.981578 0.9460 0.9460 0.9460 0.9460 0.9460
3390.364808 0.9460 0.9460 0.9460 0.9460 0.9460
3394.748038 0.9460 0.9460 0.9460 0.9470 0.9480
3399.131268 0.9480 0.9480 0.9480 0.9480 0.9480
3403.514498 0.9480 0.9480 0.9480 0.9480 0.9480
3407.897728 0.9480 0.9480 0.9480 0.9480 0.9480
3412.280958 0.9480 0.9480 0.9480 0.9480 0.9480
3416.664187 0.9480 0.9480 0.9480 0.9480 0.9480
3421.047417 0.9480 0.9480 0.9480 0.9485 0.9490
3425.430647 0.9490 0.9490 0.9490 0.9490 0.9490
3429.813877 0.9490 0.9490 0.9490 0.9490 0.9490
3434.197107 0.9490 0.9490 0.9495 0.9500 0.9500
3438.580337 0.9500 0.9500 0.9500 0.9500 0.9500
3442.963567 0.9500 0.9500 0.9500 0.9500 0.9500
3447.346797 0.9500 0.9500 0.9500 0.9510 0.9520
3451.730027 0.9520 0.9520 0.9520 0.9520 0.9520
3456.113257 0.9520 0.9520 0.9520 0.9520 0.9520
3460.496486 0.9520 0.9520 0.9520 0.9520 0.9520
3464.879716 0.9520 0.9520 0.9520 0.9520 0.9520
3469.262946 0.9520 0.9520 0.9520 0.9520 0.9520
3473.646176 0.9520 0.9520 0.9520 0.9520 0.9520
3478.029406 0.9520 0.9520 0.9520 0.9520 0.9520
3482.412636 0.9520 0.9520 0.9520 0.9520 0.9520
3486.795866 0.9520 0.9520 0.9520 0.9520 0.9520
3491.179096 0.9520 0.9520 0.9520 0.9525 0.9530
3495.562326 0.9530 0.9530 0.9530 0.9530 0.9530
3499.945556 0.9530 0.9530 0.9530 0.9530 0.9530
3504.328786 0.9530 0.9530 0.9530 0.9530 0.9530
3508.712015 0.9530 0.9530 0.9530 0.9530 0.9530
3513.095245 0.9530 0.9530 0.9530 0.9530 0.9530
3517.478475 0.9530 0.9530 0.9530 0.9530 0.9530
3521.861705 0.9530 0.9530 0.9530 0.9530 0.9530
3526.244935 0.9530 0.9530 0.9530 0.9530 0.9530
3530.628165 0.9530 0.9530 0.9530 0.9530 0.9535
3535.011395 0.9540 0.9540 0.9540 0.9540 0.9540
3539.394625 0.9540 0.9540 0.9540 0.9540 0.9540
3543.777855 0.9540 0.9540 0.9540 0.9540 0.9540
3548.161085 0.9540 0.9540 0.9540 0.9541 0.9551
3552.544315 0.9559 0.9549 0.9540 0.9540 0.9540
3556.927544 0.9540 0.9540 0.9540 0.9540 0.9540
3561.310774 0.9540 0.9540 0.9540 0.9540 0.9540
3565.694004 0.9540 0.9540 0.9540 0.9540 0.9540
3570.077234 0.9540 0.9540 0.9540 0.9540 0.9540
3574.460464 0.9540 0.9540 0.9540 0.9540 0.9540
3578.843694 0.9540 0.9540 0.9540 0.9540 0.9540
3583.226924 0.9540 0.9540 0.9540 0.9540 0.9540
3587.610154 0.9540 0.9540 0.9541 0.9551 0.9560
3591.993384 0.9560 0.9560 0.9560 0.9560 0.9560
3596.376614 0.9560 0.9560 0.9560 0.9560 0.9560
3600.759844 0.9560 0.9560 0.9560 0.9560 0.9560
3605.143073 0.9560 0.9560 0.9560 0.9560 0.9560
3609.526303 0.9560 0.9560 0.9560 0.9560 0.9560
3613.909533 0.9560 0.9560 0.9560 0.9560 0.9560
3618.292763 0.9560 0.9558 0.9548 0.9540 0.9540
3622.675993 0.9539 0.9534 0.9531 0.9536 0.9540
3627.059223 0.9540 0.9542 0.9552 0.9560 0.9560
3631.442453 0.9560 0.9560 0.9560 0.9560 0.9560
3635.825683 0.9560 0.9560 0.9560 0.9560 0.9560
3640.208913 0.9560 0.9560 0.9560 0.9560 0.9560
3644.592143 0.9560 0.9560 0.9560 0.9560 0.9560
3648.975372 0.9558 0.9548 0.9540 0.9540 0.9540
3653.358602 0.9540 0.9540 0.9540 0.9540 0.9540
3657.741832 0.9542 0.9552 0.9558 0.9548 0.9540
3662.125062 0.9540 0.9539 0.9534 0.9529 0.9524
3666.508292 0.9518 0.9508 0.9500 0.9500 0.9500
3670.891522 0.9500 0.9502 0.9512 0.9521 0.9526
3675.274752 0.9531 0.9536 0.9540 0.9540 0.9542
3679.657982 0.9552 0.9560 0.9560 0.9560 0.9560
3684.041212 0.9560 0.9560 0.9560 0.9560 0.9561
3688.424442 0.9566 0.9570 0.9570 0.9569 0.9564
3692.807672 0.9560 0.9560 0.9560 0.9560 0.9560
3697.190901 0.9560 0.9561 0.9566 0.9570 0.9570
3701.574131 0.9570 0.9570 0.9570 0.9570 0.9570
3705.957361 0.9570 0.9570 0.9570 0.9570 0.9570
3710.340591 0.9570 0.9570 0.9570 0.9570 0.9570
3714.723821 0.9570 0.9570 0.9570 0.9570 0.9570
3719.107051 0.9569 0.9564 0.9560 0.9560 0.9560
3723.490281 0.9560 0.9560 0.9560 0.9560 0.9560
3727.873511 0.9561 0.9566 0.9570 0.9570 0.9569
3732.256741 0.9564 0.9560 0.9560 0.9560 0.9560
3736.639971 0.9560 0.9560 0.9561 0.9566 0.9570
3741.023201 0.9570 0.9569 0.9564 0.9560 0.9560
3745.406430 0.9560 0.9560 0.9560 0.9560 0.9561
3749.789660 0.9566 0.9569 0.9564 0.9560 0.9560
3754.172890 0.9560 0.9560 0.9560 0.9560 0.9561
3758.556120 0.9566 0.9570 0.9570 0.9569 0.9564
3762.939350 0.9560 0.9560 0.9560 0.9560 0.9560
3767.322580 0.9560 0.9560 0.9560 0.9560 0.9560
3771.705810 0.9560 0.9560 0.9560 0.9560 0.9560
3776.089040 0.9560 0.9560 0.9560 0.9560 0.9560
3780.472270 0.9560 0.9560 0.9560 0.9560 0.9560
3784.855500 0.9560 0.9560 0.9560 0.9560 0.9560
3789.238730 0.9560 0.9560 0.9557 0.9547 0.9540
3793.621959 0.9540 0.9540 0.9540 0.9540 0.9540
3798.005189 0.9540 0.9540 0.9540 0.9540
##END=
