##TITLE=4-Benzylphenylacetonitrile
##JCAMP-DX=4.24
##DATA TYPE=INFRARED SPECTRUM
##ORIGIN=EPA-IR VAPOR PHASE LIBRARY
##OWNER=SRD/NIST
Collection (C) 2018 copyright by the U.S. Secretary of Commerce
on behalf of the United States of America. All rights reserved.
##CAS REGISTRY NO=101096-72-4
##MOLFORM=C 15 H 13 N
##$NIST SOURCE=MSDC-IR
##STATE=gas
##XUNITS=1/CM
##YUNITS=ABSORBANCE
##XFACTOR=1.
##YFACTOR=0.001
##DELTAX=3.85796
##FIRSTX=551.7
##LASTX=4000.7
##FIRSTY=1.53
##MAXX=4000.7
##MINX=551.688
##MAXY=0.02865
##MINY=0.0007432
##NPOINTS=895
##XYDATA=(X++(Y..Y))
551.688 1.53 1.75 2.07 2.36 2.78 3.2 3.51 3.57 3.51 3.53
590.268 3.65 3.94 4.52 5.17 5.51 5.48 5.27 4.79 4.17 3.58
628.847 3.1 2.86 2.62 2.44 2.45 2.54 2.75 3.12 3.54 4.06
667.427 4.7 5.44 6.44 7.97 10.3 13.55 17.54 21.05 22.5 21.92
706.006 20.76 20.3 20.97 22.72 24.94 26.37 25.78 22.72 18.52 14.9
744.586 12.37 10.9 10.22 10.08 10.17 10.36 10.67 10.84 10.92 10.91
783.165 10.66 10.26 9.6 8.73 7.96 7.35 6.83 6.41 6.11 5.96
821.745 6.09 6.36 6.61 6.7 6.41 5.8 5.04 4.33 3.76 3.29
860.324 2.91 2.64 2.52 2.41 2.35 2.4 2.48 2.61 2.81 2.98
898.904 3.06 3.16 3.23 3.27 3.23 3.22 3.23 3.2 3.14 3.11
937.484 2.94 2.72 2.57 2.27 2.11 2.03 1.85 1.74 1.65 1.57
976.063 1.53 1.43 1.36 1.39 1.42 1.51 1.69 1.82 2.04 2.7
1014.643 4.87 7.75 9.29 8.82 6.68 4.58 2.86 1.83 1.55 1.55
1053.222 1.69 2 2.3 2.61 2.94 3.04 2.93 2.68 2.45 2.35
1091.802 2.29 2.41 2.65 2.87 3.12 3.23 3.31 3.24 2.87 2.48
1130.381 2.08 1.72 1.59 1.5 1.42 1.44 1.44 1.46 1.55 1.73
1168.961 1.95 2.21 2.52 2.78 3.1 3.39 3.73 4.26 4.61 4.67
1207.540 4.28 3.59 3.08 2.89 2.96 3.19 3.4 3.34 3.05 2.74
1246.120 2.47 2.36 2.34 2.4 2.51 2.5 2.5 2.65 2.82 3
1284.699 3.17 3.36 3.57 3.65 3.71 3.67 3.61 3.57 3.51 3.43
1323.279 3.31 3.18 2.99 2.82 2.63 2.44 2.29 2.18 2.11 2.08
1361.859 2.06 2.06 2.07 2.08 2.14 2.22 2.33 2.46 2.69 3.07
1400.438 3.62 4.41 5.46 6.75 8.19 10.09 12.37 13.8 13.49 11.97
1439.018 10.79 10.39 9.97 9.27 8.29 7.1 5.92 4.95 4.34 4.16
1477.597 4.43 5.39 7.38 11.04 15.22 17.23 16.89 17.26 21.39 25.24
1516.177 23.54 16.53 9.34 5.72 4.29 3.61 3.23 3.03 2.9 2.79
1554.756 2.75 2.77 2.78 2.86 3 3.24 3.54 3.9 4.44 5.24
1593.336 6.4 7.68 8.51 8.43 7.33 5.72 4.28 3.31 2.74 2.42
1631.915 2.22 2.08 1.98 1.94 1.91 1.89 1.91 1.95 1.95 1.88
1670.495 1.81 1.77 1.71 1.65 1.59 1.52 1.52 1.55 1.52 1.5
1709.075 1.5 1.55 1.6 1.65 1.72 1.78 1.86 1.95 2 2.04
1747.654 2.05 2.07 2.09 2.12 2.14 2.18 2.29 2.52 2.88 3.28
1786.234 3.64 3.81 3.69 3.33 2.82 2.36 2.06 1.87 1.75 1.66
1824.813 1.62 1.6 1.56 1.57 1.61 1.67 1.77 1.88 1.98 2.08
1863.393 2.18 2.24 2.31 2.37 2.39 2.42 2.45 2.47 2.51 2.59
1901.972 2.65 2.64 2.63 2.6 2.52 2.45 2.38 2.37 2.39 2.41
1940.552 2.41 2.41 2.41 2.37 2.17 1.87 1.58 1.39 1.28 1.2
1979.131 1.15 1.12 1.07 1.04 1.02 0.9982 0.9827 0.9883 0.9921 0.9934
2017.711 1.01 0.9967 0.9689 0.9352 0.9154 0.9066 0.8964 0.8926 0.877 0.8605
2056.291 0.8862 0.9027 0.8897 0.893 0.9021 0.908 0.8859 0.8659 0.885 0.9055
2094.870 0.894 0.8724 0.8564 0.853 0.8486 0.8735 0.9056 0.8799 0.8443 0.804
2133.450 0.7992 0.8087 0.7855 0.7808 0.788 0.7773 0.7506 0.7476 0.7472 0.764
2172.029 0.7766 0.7589 0.7525 0.7564 0.7795 0.7831 0.7757 0.7747 0.7899 0.798
2210.609 0.7974 0.8142 0.8447 0.8558 0.8701 0.9517 1.04 1.13 1.29 1.49
2249.188 1.71 1.92 1.98 1.84 1.6 1.37 1.22 1.12 1.03 0.9933
2287.768 0.9893 0.9774 0.9793 1.01 1.03 1.08 1.14 1.18 1.18 1.14
2326.347 1.14 1.18 1.16 1.16 1.19 1.18 1.17 1.16 1.15 1.12
2364.927 1.09 1.06 1.02 0.9942 0.9653 0.9156 0.9127 0.925 0.9125 0.9132
2403.507 0.9198 0.8965 0.8829 0.8975 0.894 0.9123 0.8983 0.8392 0.814 0.8329
2442.086 0.801 0.7764 0.806 0.8361 0.8262 0.785 0.7652 0.7637 0.7543 0.7432
2480.666 0.7517 0.7685 0.7821 0.7835 0.785 0.7987 0.8374 0.8406 0.8023 0.8079
2519.245 0.8331 0.8357 0.8535 0.8882 0.8858 0.8516 0.8386 0.8602 0.8995 0.8969
2557.825 0.8826 0.9176 0.9516 0.9722 0.9945 1 1.04 1.11 1.13 1.14
2596.404 1.16 1.15 1.1 1.11 1.11 1.09 1.11 1.12 1.08 1.04
2634.984 1.05 1.06 1.02 0.9571 0.924 0.9007 0.8506 0.8313 0.865 0.8417
2673.563 0.8037 0.821 0.8221 0.8156 0.8395 0.8569 0.8379 0.859 0.9197 0.9371
2712.143 0.9847 1.04 1.05 1.06 1.06 1.08 1.1 1.13 1.16 1.16
2750.722 1.15 1.13 1.1 1.1 1.1 1.14 1.18 1.17 1.18 1.22
2789.302 1.23 1.22 1.28 1.28 1.29 1.38 1.44 1.52 1.68 1.85
2827.882 2.07 2.43 2.86 3.3 3.78 4.21 4.52 4.6 4.42 4.06
2866.461 3.65 3.32 3.09 2.93 2.92 3.1 3.32 3.69 4.34 5.26
2905.041 6.51 8.14 10.15 12.26 14.08 15.25 15.41 14.34 12.36 10.01
2943.620 7.91 6.37 5.22 4.42 3.86 3.44 3.18 3.1 3.13 3.27
2982.200 3.58 4.09 4.72 5.37 6.12 7.03 8.18 9.7 11.56 14.04
3020.779 17.5 21.9 26.32 28.65 27.38 23.57 19.6 17.05 16.05 16.21
3059.359 17.33 19.32 21.68 22.69 21.23 18.12 15.26 13.55 12.27 11
3097.938 9.67 8.37 7.18 6.14 5.19 4.31 3.56 3.06 2.74 2.48
3136.518 2.24 1.96 1.72 1.56 1.47 1.44 1.42 1.38 1.35 1.29
3175.098 1.23 1.19 1.18 1.22 1.25 1.28 1.28 1.2 1.13 1.06
3213.677 1.04 1.07 1.04 0.9846 0.9686 0.9748 0.9944 1 0.9783 0.9108
3252.257 0.8696 0.8549 0.8403 0.8562 0.87 0.8913 0.9348 0.9537 0.9435 0.8803
3290.836 0.8315 0.8735 0.9029 0.9204 0.903 0.8799 0.8805 0.8585 0.8466 0.8389
3329.416 0.815 0.8053 0.8586 0.8585 0.8442 0.9242 0.8791 0.8532 0.8953 0.8712
3367.995 0.8462 0.8407 0.8138 0.8014 0.8079 0.8225 0.8686 0.8638 0.8716 0.8859
3406.575 0.8771 0.8642 0.8379 0.8149 0.8423 0.8594 0.8411 0.8534 0.8384 0.8204
3445.154 0.8286 0.8509 0.9144 0.9028 0.8696 0.9122 0.946 0.9275 0.9157 0.9419
3483.734 0.931 0.8841 0.8735 0.8676 0.851 0.8601 0.8654 0.91 0.9 0.8143
3522.314 0.8081 0.871 0.8735 0.8318 0.8426 0.8596 0.8314 0.8037 0.8053 0.836
3560.893 0.8965 0.8833 0.8768 0.8804 0.8953 0.9157 0.9036 0.9004 0.882 0.896
3599.473 0.8497 0.7808 0.8378 0.9134 0.9076 0.9233 0.9753 0.9913 0.9978 1.04
3638.052 1.04 1.06 1.13 1.12 1.11 1.1 1.11 1.13 1.15 1.09
3676.632 1.08 1.11 1.04 1.08 1.07 0.9631 0.9617 1.01 1.01 0.9715
3715.211 0.9445 0.9889 0.9858 0.8762 0.8504 0.8834 0.9159 0.9464 0.875 0.9102
3753.791 0.9378 0.8731 0.9057 0.9085 0.852 0.8572 0.9324 0.9419 0.9068 0.8927
3792.370 0.9308 0.9578 0.9382 0.9207 0.871 0.9295 0.9856 0.8885 0.9188 0.9935
3830.950 0.979 0.9748 1.02 1.05 1.05 1.06 1.14 1.21 1.14 1.09
3869.530 1.07 1.07 1.06 1.04 1.02 1.02 0.9837 0.8986 0.8953 0.9516
3908.109 0.9571 0.8775 0.8598 0.8835 0.8665 0.8897 0.9523 0.9527 0.8788 0.9
3946.689 0.9514 0.9267 0.8873 0.8745 0.9498 0.9699 0.9403 0.9506 0.9591 0.944
3985.268 0.9791 0.9911 0.9491 0.9573 0.9334
##END=
