##TITLE=Methane, diphenyl-
##JCAMP-DX=4.24
##DATA TYPE=INFRARED SPECTRUM
##CLASS=COBLENTZ II
##ORIGIN=K. K. DEB-NCI FREDERICK CANCER RESEARCH CENTER
##OWNER=Copyright (C) 1987 by the Coblentz Society
Collection (C) 2018 copyright by the U.S. Secretary of Commerce
on behalf of the United States of America. All rights reserved.
##DATE=1974/01/29
##NAMES=benzylbenzene
##CAS REGISTRY NO=101-81-5
##MOLFORM=C13 H12
##SOURCE REFERENCE=COBLENTZ NO. 9714
##$NIST SOURCE=COBLENTZ
##$NIST IMAGE=cob9714
##SPECTROMETER/DATA SYSTEM=PERKIN-ELMER 180 (GRATING)
##INSTRUMENT PARAMETERS=GRATINGS: 2000, 1000, 500, 250 CM^-^1; FILTER CHANGE: 2970, 2000, 1485, 1000, 743, 500, 372, 250, 186 CM^-^1.
##STATE=LIQUID (NEAT)
$$ PURITY - ANALYTICAL
##PATH LENGTH=CAPILLARY (40 C)
##SAMPLING PROCEDURE=TRANSMISSION
##RESOLUTION=2
##DATA PROCESSING=DIGITIZED BY COBLENTZ SOCIETY (BATCH II) FROM HARD COPY
##XUNITS=1/CM
##YUNITS=TRANSMITTANCE
##XFACTOR=1.0
##YFACTOR=1
##FIRSTX=398
##LASTX=3792
##FIRSTY=0.7278
##MAXX=3792
##MINX=398
##MAXY=0.9214
##MINY=0.0552
##NPOINTS=3395
##XYDATA=(X++(Y..Y))
398.000000 0.7278 0.7302 0.7331 0.7369 0.7406
403.000000 0.7444 0.7481 0.7523 0.7566 0.7609
408.000000 0.7651 0.7694 0.7738 0.7781 0.7825
413.000000 0.7868 0.7912 0.7956 0.8001 0.8046
418.000000 0.8090 0.8131 0.8154 0.8177 0.8201
423.000000 0.8224 0.8247 0.8268 0.8283 0.8298
428.000000 0.8313 0.8328 0.8342 0.8348 0.8355
433.000000 0.8362 0.8368 0.8361 0.8367 0.8366
438.000000 0.8361 0.8348 0.8333 0.8313 0.8293
443.000000 0.8262 0.8217 0.8132 0.7940 0.7656
448.000000 0.7371 0.7086 0.6802 0.6652 0.6596
453.000000 0.6558 0.6535 0.6517 0.6507 0.6501
458.000000 0.6495 0.6483 0.6470 0.6423 0.6317
463.000000 0.6211 0.6105 0.6028 0.6056 0.6042
468.000000 0.6486 0.6981 0.7475 0.7849 0.7958
473.000000 0.8061 0.8409 0.8500 0.8592 0.8656
478.000000 0.8721 0.8783 0.8826 0.8869 0.8913
483.000000 0.8956 0.8974 0.8988 0.9003 0.9018
488.000000 0.9033 0.9047 0.9062 0.9073 0.9080
493.000000 0.9086 0.9093 0.9100 0.9106 0.9113
498.000000 0.9120 0.9124 0.9122 0.9120 0.9119
503.000000 0.9117 0.9115 0.9111 0.9104 0.9097
508.000000 0.9092 0.9098 0.9108 0.9123 0.9139
513.000000 0.9154 0.9170 0.9186 0.9198 0.9207
518.000000 0.9207 0.9211 0.9214 0.9212 0.9210
523.000000 0.9209 0.9207 0.9205 0.9202 0.9196
528.000000 0.9190 0.9185 0.9179 0.9173 0.9166
533.000000 0.9158 0.9150 0.9142 0.9134 0.9126
538.000000 0.9114 0.9101 0.9089 0.9076 0.9047
543.000000 0.9012 0.8976 0.8923 0.8866 0.8555
548.000000 0.8095 0.7636 0.7177 0.6717 0.6710
553.000000 0.6810 0.7195 0.7580 0.7965 0.8350
558.000000 0.8735 0.9072 0.9118 0.9142 0.9160
563.000000 0.9168 0.9175 0.9178 0.9178 0.9179
568.000000 0.9177 0.9176 0.9192 0.9173 0.9171
573.000000 0.9167 0.9163 0.9159 0.9153 0.9146
578.000000 0.9138 0.9130 0.9122 0.9114 0.9103
583.000000 0.9091 0.9079 0.9066 0.9054 0.9039
588.000000 0.9017 0.8995 0.8970 0.8929 0.8888
593.000000 0.8840 0.8773 0.8705 0.8637 0.8257
598.000000 0.7996 0.7547 0.6825 0.6102 0.5379
603.000000 0.4656 0.3934 0.3531 0.3563 0.3538
608.000000 0.3795 0.4487 0.5179 0.5871 0.6563
613.000000 0.7255 0.7947 0.8154 0.8159 0.8164
618.000000 0.8055 0.7943 0.7830 0.7730 0.7730
623.000000 0.7871 0.8229 0.8464 0.8557 0.8644
628.000000 0.8725 0.8779 0.8818 0.8855 0.8865
633.000000 0.8869 0.8862 0.8855 0.8853 0.8850
638.000000 0.8858 0.8884 0.8905 0.8913 0.8922
643.000000 0.8876 0.8918 0.8914 0.8909 0.8899
648.000000 0.8888 0.8877 0.8867 0.8856 0.8846
653.000000 0.8835 0.8819 0.8796 0.8767 0.8727
658.000000 0.8680 0.8612 0.8554 0.8509 0.8464
663.000000 0.8418 0.8373 0.8323 0.8273 0.8222
668.000000 0.8171 0.8130 0.8092 0.8062 0.8051
673.000000 0.8040 0.8033 0.8029 0.8024 0.8020
678.000000 0.8007 0.7991 0.7930 0.7836 0.7647
683.000000 0.7332 0.7018 0.6703 0.6389 0.6074
688.000000 0.5919 0.5047 0.4165 0.3282 0.2400
693.000000 0.1517 0.0794 0.0552 0.0569 0.0559
698.000000 0.0570 0.0682 0.1111 0.1540 0.1968
703.000000 0.2397 0.2825 0.3254 0.3682 0.4111
708.000000 0.4540 0.4968 0.5397 0.5825 0.5942
713.000000 0.5947 0.5930 0.5908 0.5495 0.5082
718.000000 0.4669 0.4256 0.3842 0.3429 0.3016
723.000000 0.2603 0.2190 0.1706 0.1515 0.1429
728.000000 0.1342 0.1275 0.1207 0.1159 0.1117
733.000000 0.1082 0.1070 0.1057 0.1069 0.1085
738.000000 0.1160 0.1487 0.1983 0.2479 0.2976
743.000000 0.3472 0.3968 0.4464 0.4961 0.5457
748.000000 0.5953 0.6450 0.6827 0.6998 0.7163
753.000000 0.7266 0.7371 0.7476 0.7585 0.7722
758.000000 0.7830 0.7891 0.7951 0.8012 0.8078
763.000000 0.8144 0.8211 0.8273 0.8326 0.8380
768.000000 0.8433 0.8459 0.8477 0.8496 0.8514
773.000000 0.8527 0.8533 0.8538 0.8544 0.8557
778.000000 0.8574 0.8591 0.8607 0.8620 0.8633
783.000000 0.8647 0.8649 0.8665 0.8642 0.8633
788.000000 0.8624 0.8615 0.8606 0.8589 0.8568
793.000000 0.8547 0.8519 0.8488 0.8456 0.8424
798.000000 0.8392 0.8361 0.8321 0.8277 0.8233
803.000000 0.8190 0.8171 0.8153 0.8135 0.8121
808.000000 0.8122 0.8123 0.8131 0.8126 0.8128
813.000000 0.8135 0.8142 0.8149 0.8156 0.8170
818.000000 0.8187 0.8204 0.8220 0.8237 0.8274
823.000000 0.8311 0.8347 0.8384 0.8445 0.8514
828.000000 0.8576 0.8612 0.8648 0.8665 0.8668
833.000000 0.8664 0.8655 0.8640 0.8619 0.8592
838.000000 0.8563 0.8538 0.8514 0.8492 0.8478
843.000000 0.8479 0.8484 0.8489 0.8500 0.8521
848.000000 0.8542 0.8576 0.8611 0.8651 0.8699
853.000000 0.8747 0.8794 0.8832 0.8841 0.8849
858.000000 0.8858 0.8866 0.8874 0.8882 0.8883
863.000000 0.8889 0.8886 0.8887 0.8889 0.8884
868.000000 0.8877 0.8870 0.8862 0.8855 0.8848
873.000000 0.8840 0.8828 0.8809 0.8791 0.8772
878.000000 0.8754 0.8735 0.8717 0.8698 0.8680
883.000000 0.8660 0.8638 0.8615 0.8593 0.8571
888.000000 0.8558 0.8553 0.8549 0.8545 0.8554
893.000000 0.8563 0.8572 0.8582 0.8592 0.8602
898.000000 0.8612 0.8611 0.8610 0.8609 0.8608
903.000000 0.8607 0.8599 0.8585 0.8570 0.8536
908.000000 0.8502 0.8462 0.8419 0.8377 0.8336
913.000000 0.8298 0.8260 0.8222 0.8211 0.8205
918.000000 0.8209 0.8214 0.8226 0.8244 0.8264
923.000000 0.8283 0.8303 0.8323 0.8343 0.8352
928.000000 0.8357 0.8363 0.8363 0.8353 0.8342
933.000000 0.8328 0.8314 0.8303 0.8309 0.8321
938.000000 0.8339 0.8356 0.8394 0.8436 0.8479
943.000000 0.8519 0.8557 0.8595 0.8634 0.8672
948.000000 0.8689 0.8704 0.8719 0.8734 0.8746
953.000000 0.8748 0.8780 0.8746 0.8739 0.8731
958.000000 0.8718 0.8695 0.8671 0.8642 0.8614
963.000000 0.8585 0.8565 0.8549 0.8550 0.8551
968.000000 0.8552 0.8567 0.8589 0.8611 0.8633
973.000000 0.8640 0.8641 0.8634 0.8623 0.8606
978.000000 0.8582 0.8556 0.8538 0.8531 0.8525
983.000000 0.8522 0.8531 0.8540 0.8551 0.8561
988.000000 0.8572 0.8583 0.8591 0.8597 0.8602
993.000000 0.8603 0.8597 0.8591 0.8577 0.8562
998.000000 0.8531 0.8243 0.8061 0.8064 0.8102
1003.000000 0.8195 0.8289 0.8382 0.8439 0.8431
1008.000000 0.8424 0.8414 0.8394 0.8375 0.8348
1013.000000 0.8312 0.8265 0.8216 0.8163 0.8106
1018.000000 0.8043 0.7973 0.7902 0.7828 0.7754
1023.000000 0.7671 0.7546 0.6707 0.5858 0.5009
1028.000000 0.4252 0.4260 0.4259 0.5011 0.5694
1033.000000 0.6377 0.7060 0.7742 0.8110 0.8222
1038.000000 0.8318 0.8361 0.8403 0.8445 0.8471
1043.000000 0.8483 0.8494 0.8506 0.8517 0.8523
1048.000000 0.8523 0.8513 0.8524 0.8524 0.8522
1053.000000 0.8517 0.8512 0.8507 0.8501 0.8494
1058.000000 0.8475 0.8457 0.8437 0.8400 0.8364
1063.000000 0.8320 0.8251 0.8174 0.7871 0.7588
1068.000000 0.7305 0.7022 0.6739 0.6456 0.6173
1073.000000 0.5890 0.5607 0.5249 0.5247 0.5242
1078.000000 0.5359 0.5699 0.6039 0.6379 0.6720
1083.000000 0.7060 0.7400 0.7740 0.7962 0.8067
1088.000000 0.8135 0.8202 0.8228 0.8244 0.8261
1093.000000 0.8275 0.8274 0.8272 0.8265 0.8257
1098.000000 0.8248 0.8229 0.8205 0.8181 0.8163
1103.000000 0.8146 0.8129 0.8112 0.8099 0.8093
1108.000000 0.8107 0.8134 0.8167 0.8200 0.8232
1113.000000 0.8256 0.8278 0.8301 0.8303 0.8305
1118.000000 0.8305 0.8305 0.8305 0.8310 0.8316
1123.000000 0.8322 0.8327 0.8332 0.8332 0.8333
1128.000000 0.8340 0.8347 0.8353 0.8357 0.8361
1133.000000 0.8357 0.8367 0.8367 0.8367 0.8367
1138.000000 0.8367 0.8366 0.8360 0.8353 0.8347
1143.000000 0.8339 0.8306 0.8260 0.8208 0.8155
1148.000000 0.8105 0.8061 0.8016 0.7928 0.7897
1153.000000 0.7866 0.7902 0.7909 0.7924 0.7967
1158.000000 0.8014 0.8044 0.8075 0.8104 0.8116
1163.000000 0.8129 0.8141 0.8137 0.8133 0.8127
1168.000000 0.8117 0.8106 0.8086 0.8057 0.8023
1173.000000 0.7990 0.7957 0.7905 0.7839 0.7756
1178.000000 0.7709 0.7686 0.7685 0.7687 0.7683
1183.000000 0.7826 0.7902 0.7977 0.8058 0.8088
1188.000000 0.8117 0.8141 0.8164 0.8186 0.8199
1193.000000 0.8201 0.8194 0.8184 0.8174 0.8157
1198.000000 0.8139 0.8120 0.8103 0.8099 0.8099
1203.000000 0.8102 0.8113 0.8134 0.8164 0.8223
1208.000000 0.8297 0.8371 0.8426 0.8480 0.8522
1213.000000 0.8557 0.8591 0.8625 0.8645 0.8658
1218.000000 0.8672 0.8685 0.8698 0.8712 0.8725
1223.000000 0.8735 0.8739 0.8743 0.8748 0.8752
1228.000000 0.8755 0.8754 0.8754 0.8754 0.8769
1233.000000 0.8753 0.8752 0.8748 0.8743 0.8738
1238.000000 0.8733 0.8728 0.8723 0.8718 0.8715
1243.000000 0.8712 0.8709 0.8706 0.8703 0.8700
1248.000000 0.8704 0.8708 0.8711 0.8715 0.8720
1253.000000 0.8724 0.8728 0.8733 0.8737 0.8735
1258.000000 0.8732 0.8729 0.8726 0.8723 0.8720
1263.000000 0.8718 0.8714 0.8703 0.8691 0.8679
1268.000000 0.8668 0.8654 0.8630 0.8607 0.8583
1273.000000 0.8562 0.8547 0.8531 0.8515 0.8500
1278.000000 0.8493 0.8488 0.8482 0.8477 0.8472
1283.000000 0.8467 0.8470 0.8472 0.8475 0.8478
1288.000000 0.8480 0.8483 0.8489 0.8497 0.8505
1293.000000 0.8514 0.8522 0.8530 0.8540 0.8550
1298.000000 0.8560 0.8570 0.8580 0.8580 0.8579
1303.000000 0.8579 0.8579 0.8578 0.8578 0.8578
1308.000000 0.8569 0.8558 0.8548 0.8537 0.8515
1313.000000 0.8488 0.8462 0.8434 0.8404 0.8375
1318.000000 0.8345 0.8316 0.8288 0.8262 0.8235
1323.000000 0.8218 0.8184 0.8202 0.8196 0.8219
1328.000000 0.8241 0.8262 0.8280 0.8290 0.8287
1333.000000 0.8279 0.8270 0.8261 0.8251 0.8251
1338.000000 0.8253 0.8272 0.8298 0.8345 0.8404
1343.000000 0.8472 0.8506 0.8538 0.8570 0.8601
1348.000000 0.8618 0.8634 0.8650 0.8666 0.8683
1353.000000 0.8691 0.8699 0.8708 0.8716 0.8724
1358.000000 0.8728 0.8731 0.8728 0.8727 0.8721
1363.000000 0.8714 0.8707 0.8700 0.8691 0.8676
1368.000000 0.8661 0.8646 0.8631 0.8615 0.8588
1373.000000 0.8561 0.8534 0.8505 0.8474 0.8443
1378.000000 0.8412 0.8381 0.8349 0.8318 0.8268
1383.000000 0.8215 0.8190 0.8167 0.8187 0.8200
1388.000000 0.8220 0.8244 0.8267 0.8290 0.8312
1393.000000 0.8329 0.8347 0.8364 0.8378 0.8390
1398.000000 0.8402 0.8414 0.8420 0.8423 0.8426
1403.000000 0.8428 0.8431 0.8434 0.8437 0.8439
1408.000000 0.8453 0.8436 0.8435 0.8434 0.8425
1413.000000 0.8414 0.8402 0.8383 0.8358 0.8333
1418.000000 0.8308 0.8265 0.8223 0.8181 0.8120
1423.000000 0.8037 0.7886 0.7686 0.7487 0.7287
1428.000000 0.7087 0.6888 0.6688 0.6488 0.6288
1433.000000 0.6267 0.6275 0.6306 0.6438 0.6570
1438.000000 0.6703 0.6754 0.6752 0.6752 0.6629
1443.000000 0.6089 0.5549 0.5009 0.4469 0.3930
1448.000000 0.3390 0.2850 0.2383 0.2389 0.2861
1453.000000 0.3462 0.4063 0.4665 0.5266 0.5867
1458.000000 0.6468 0.7070 0.7643 0.7748 0.7853
1463.000000 0.7941 0.8015 0.8090 0.8178 0.8271
1468.000000 0.8299 0.8319 0.8339 0.8348 0.8348
1473.000000 0.8358 0.8336 0.8325 0.8312 0.8269
1478.000000 0.8221 0.8160 0.8082 0.7983 0.7858
1483.000000 0.7709 0.7533 0.7111 0.6539 0.5967
1488.000000 0.5395 0.4823 0.4251 0.3678 0.3106
1493.000000 0.2534 0.1465 0.1467 0.1480 0.2179
1498.000000 0.3709 0.5239 0.6770 0.7145 0.7309
1503.000000 0.7472 0.7622 0.7775 0.7943 0.8094
1508.000000 0.8216 0.8328 0.8411 0.8469 0.8490
1513.000000 0.8511 0.8532 0.8553 0.8570 0.8585
1518.000000 0.8600 0.8616 0.8630 0.8637 0.8644
1523.000000 0.8657 0.8657 0.8656 0.8654 0.8652
1528.000000 0.8646 0.8635 0.8624 0.8614 0.8597
1533.000000 0.8577 0.8558 0.8539 0.8526 0.8514
1538.000000 0.8502 0.8489 0.8477 0.8474 0.8474
1543.000000 0.8474 0.8474 0.8475 0.8477 0.8479
1548.000000 0.8481 0.8484 0.8477 0.8457 0.8399
1553.000000 0.8319 0.8293 0.8285 0.8288 0.8295
1558.000000 0.8367 0.8449 0.8496 0.8521 0.8533
1563.000000 0.8535 0.8535 0.8527 0.8516 0.8495
1568.000000 0.8469 0.8437 0.8405 0.8354 0.8291
1573.000000 0.8223 0.8149 0.8074 0.8003 0.7936
1578.000000 0.7868 0.7707 0.7533 0.7358 0.7183
1583.000000 0.7008 0.6985 0.6986 0.7208 0.7357
1588.000000 0.7506 0.7645 0.7622 0.7482 0.7030
1593.000000 0.6578 0.6126 0.5674 0.5222 0.4770
1598.000000 0.4318 0.4075 0.4072 0.4072 0.4578
1603.000000 0.5043 0.5508 0.5973 0.6438 0.6903
1608.000000 0.7708 0.7776 0.7842 0.7895 0.7947
1613.000000 0.8000 0.8052 0.8147 0.8244 0.8309
1618.000000 0.8365 0.8421 0.8450 0.8475 0.8500
1623.000000 0.8521 0.8529 0.8536 0.8544 0.8552
1628.000000 0.8565 0.8579 0.8592 0.8598 0.8604
1633.000000 0.8609 0.8612 0.8615 0.8617 0.8619
1638.000000 0.8618 0.8617 0.8616 0.8616 0.8615
1643.000000 0.8614 0.8613 0.8610 0.8603 0.8597
1648.000000 0.8590 0.8582 0.8569 0.8556 0.8544
1653.000000 0.8531 0.8518 0.8506 0.8493 0.8481
1658.000000 0.8469 0.8459 0.8429 0.8440 0.8442
1663.000000 0.8465 0.8488 0.8509 0.8530 0.8551
1668.000000 0.8574 0.8602 0.8631 0.8653 0.8672
1673.000000 0.8690 0.8709 0.8719 0.8730 0.8740
1678.000000 0.8750 0.8760 0.8770 0.8778 0.8783
1683.000000 0.8789 0.8795 0.8800 0.8806 0.8811
1688.000000 0.8812 0.8812 0.8806 0.8810 0.8807
1693.000000 0.8803 0.8800 0.8797 0.8793 0.8790
1698.000000 0.8787 0.8783 0.8780 0.8776 0.8774
1703.000000 0.8772 0.8771 0.8770 0.8769 0.8768
1708.000000 0.8766 0.8765 0.8763 0.8759 0.8756
1713.000000 0.8752 0.8748 0.8745 0.8741 0.8738
1718.000000 0.8734 0.8730 0.8727 0.8724 0.8722
1723.000000 0.8719 0.8716 0.8713 0.8710 0.8708
1728.000000 0.8706 0.8705 0.8704 0.8703 0.8702
1733.000000 0.8701 0.8700 0.8700 0.8702 0.8704
1738.000000 0.8706 0.8708 0.8710 0.8711 0.8713
1743.000000 0.8710 0.8704 0.8698 0.8692 0.8686
1748.000000 0.8679 0.8672 0.8659 0.8647 0.8634
1753.000000 0.8621 0.8608 0.8595 0.8589 0.8583
1758.000000 0.8577 0.8571 0.8566 0.8560 0.8554
1763.000000 0.8548 0.8544 0.8545 0.8546 0.8547
1768.000000 0.8547 0.8548 0.8550 0.8551 0.8552
1773.000000 0.8553 0.8555 0.8555 0.8553 0.8551
1778.000000 0.8549 0.8548 0.8546 0.8552 0.8559
1783.000000 0.8566 0.8573 0.8576 0.8579 0.8582
1788.000000 0.8581 0.8574 0.8568 0.8558 0.8543
1793.000000 0.8528 0.8513 0.8498 0.8468 0.8437
1798.000000 0.8405 0.8352 0.8291 0.8230 0.8176
1803.000000 0.8134 0.8092 0.8106 0.8092 0.8097
1808.000000 0.8105 0.8113 0.8121 0.8131 0.8156
1813.000000 0.8185 0.8234 0.8282 0.8326 0.8371
1818.000000 0.8415 0.8454 0.8480 0.8507 0.8534
1823.000000 0.8560 0.8587 0.8600 0.8613 0.8626
1828.000000 0.8639 0.8652 0.8665 0.8678 0.8688
1833.000000 0.8698 0.8707 0.8717 0.8724 0.8736
1838.000000 0.8739 0.8736 0.8732 0.8729 0.8725
1843.000000 0.8715 0.8700 0.8686 0.8672 0.8653
1848.000000 0.8633 0.8613 0.8593 0.8573 0.8561
1853.000000 0.8552 0.8544 0.8535 0.8527 0.8518
1858.000000 0.8514 0.8514 0.8515 0.8515 0.8516
1863.000000 0.8516 0.8517 0.8517 0.8516 0.8513
1868.000000 0.8511 0.8508 0.8491 0.8472 0.8453
1873.000000 0.8434 0.8422 0.8411 0.8399 0.8387
1878.000000 0.8376 0.8378 0.8383 0.8388 0.8395
1883.000000 0.8403 0.8411 0.8419 0.8427 0.8435
1888.000000 0.8443 0.8449 0.8453 0.8458 0.8462
1893.000000 0.8467 0.8472 0.8476 0.8481 0.8485
1898.000000 0.8490 0.8494 0.8499 0.8508 0.8523
1903.000000 0.8535 0.8547 0.8559 0.8572 0.8588
1908.000000 0.8603 0.8618 0.8633 0.8643 0.8652
1913.000000 0.8661 0.8670 0.8678 0.8680 0.8677
1918.000000 0.8678 0.8671 0.8668 0.8664 0.8655
1923.000000 0.8647 0.8637 0.8626 0.8615 0.8604
1928.000000 0.8592 0.8572 0.8550 0.8528 0.8497
1933.000000 0.8467 0.8436 0.8391 0.8335 0.8280
1938.000000 0.8224 0.8147 0.8070 0.7993 0.7936
1943.000000 0.7891 0.7885 0.7887 0.7861 0.7913
1948.000000 0.7976 0.8048 0.8109 0.8152 0.8192
1953.000000 0.8229 0.8243 0.8257 0.8271 0.8283
1958.000000 0.8292 0.8300 0.8309 0.8317 0.8332
1963.000000 0.8347 0.8362 0.8377 0.8413 0.8452
1968.000000 0.8490 0.8525 0.8558 0.8592 0.8624
1973.000000 0.8649 0.8674 0.8700 0.8707 0.8713
1978.000000 0.8719 0.8725 0.8727 0.8728 0.8730
1983.000000 0.8731 0.8732 0.8731 0.8730 0.8728
1988.000000 0.8727 0.8731 0.8746 0.8760 0.8774
1993.000000 0.8788 0.8801 0.8814 0.8827 0.8834
1998.000000 0.8837 0.8840 0.8843 0.8846 0.8849
2003.000000 0.8850 0.8852 0.8853 0.8855 0.8856
2008.000000 0.8858 0.8859 0.8861 0.8862 0.8863
2013.000000 0.8864 0.8866 0.8867 0.8869 0.8870
2018.000000 0.8871 0.8872 0.8874 0.8875 0.8876
2023.000000 0.8877 0.8879 0.8880 0.8881 0.8881
2028.000000 0.8882 0.8882 0.8883 0.8883 0.8884
2033.000000 0.8884 0.8885 0.8885 0.8886 0.8886
2038.000000 0.8887 0.8887 0.8888 0.8888 0.8889
2043.000000 0.8889 0.8890 0.8890 0.8891 0.8891
2048.000000 0.8892 0.8892 0.8892 0.8892 0.8893
2053.000000 0.8893 0.8894 0.8894 0.8895 0.8895
2058.000000 0.8896 0.8896 0.8897 0.8897 0.8898
2063.000000 0.8898 0.8898 0.8898 0.8899 0.8899
2068.000000 0.8900 0.8900 0.8901 0.8901 0.8902
2073.000000 0.8902 0.8903 0.8903 0.8903 0.8903
2078.000000 0.8903 0.8903 0.8903 0.8902 0.8902
2083.000000 0.8902 0.8902 0.8901 0.8901 0.8901
2088.000000 0.8901 0.8900 0.8900 0.8900 0.8900
2093.000000 0.8899 0.8899 0.8899 0.8899 0.8898
2098.000000 0.8898 0.8898 0.8898 0.8897 0.8897
2103.000000 0.8897 0.8897 0.8896 0.8896 0.8895
2108.000000 0.8895 0.8895 0.8895 0.8894 0.8894
2113.000000 0.8894 0.8894 0.8893 0.8893 0.8892
2118.000000 0.8892 0.8892 0.8892 0.8891 0.8891
2123.000000 0.8890 0.8890 0.8890 0.8890 0.8889
2128.000000 0.8889 0.8889 0.8889 0.8888 0.8888
2133.000000 0.8887 0.8887 0.8887 0.8887 0.8886
2138.000000 0.8886 0.8886 0.8886 0.8885 0.8885
2143.000000 0.8884 0.8884 0.8884 0.8884 0.8883
2148.000000 0.8883 0.8882 0.8882 0.8882 0.8882
2153.000000 0.8881 0.8881 0.8881 0.8881 0.8880
2158.000000 0.8880 0.8879 0.8879 0.8879 0.8879
2163.000000 0.8878 0.8878 0.8877 0.8877 0.8877
2168.000000 0.8877 0.8876 0.8876 0.8876 0.8876
2173.000000 0.8875 0.8875 0.8874 0.8874 0.8874
2178.000000 0.8874 0.8873 0.8873 0.8873 0.8873
2183.000000 0.8872 0.8872 0.8872 0.8873 0.8873
2188.000000 0.8874 0.8874 0.8875 0.8875 0.8875
2193.000000 0.8875 0.8876 0.8876 0.8877 0.8877
2198.000000 0.8877 0.8877 0.8878 0.8878 0.8879
2203.000000 0.8879 0.8880 0.8880 0.8880 0.8881
2208.000000 0.8882 0.8882 0.8883 0.8883 0.8884
2213.000000 0.8885 0.8886 0.8886 0.8887 0.8887
2218.000000 0.8888 0.8889 0.8890 0.8890 0.8891
2223.000000 0.8888 0.8861 0.8883 0.8881 0.8878
2228.000000 0.8876 0.8873 0.8871 0.8868 0.8866
2233.000000 0.8863 0.8861 0.8858 0.8856 0.8852
2238.000000 0.8849 0.8846 0.8843 0.8839 0.8836
2243.000000 0.8832 0.8829 0.8826 0.8823 0.8819
2248.000000 0.8816 0.8813 0.8811 0.8810 0.8810
2253.000000 0.8809 0.8809 0.8807 0.8806 0.8807
2258.000000 0.8809 0.8810 0.8811 0.8813 0.8816
2263.000000 0.8818 0.8821 0.8823 0.8825 0.8827
2268.000000 0.8830 0.8832 0.8834 0.8834 0.8835
2273.000000 0.8835 0.8836 0.8834 0.8833 0.8832
2278.000000 0.8831 0.8830 0.8829 0.8828 0.8827
2283.000000 0.8825 0.8824 0.8823 0.8822 0.8821
2288.000000 0.8820 0.8819 0.8818 0.8817 0.8816
2293.000000 0.8811 0.8807 0.8802 0.8798 0.8794
2298.000000 0.8790 0.8785 0.8780 0.8775 0.8771
2303.000000 0.8766 0.8761 0.8756 0.8751 0.8746
2308.000000 0.8742 0.8738 0.8734 0.8730 0.8727
2313.000000 0.8725 0.8724 0.8724 0.8724 0.8722
2318.000000 0.8721 0.8718 0.8716 0.8713 0.8710
2323.000000 0.8707 0.8704 0.8699 0.8695 0.8691
2328.000000 0.8687 0.8682 0.8678 0.8679 0.8681
2333.000000 0.8687 0.8693 0.8700 0.8707 0.8714
2338.000000 0.8721 0.8728 0.8735 0.8737 0.8740
2343.000000 0.8738 0.8737 0.8735 0.8734 0.8732
2348.000000 0.8731 0.8729 0.8728 0.8726 0.8725
2353.000000 0.8723 0.8722 0.8721 0.8720 0.8718
2358.000000 0.8717 0.8717 0.8718 0.8719 0.8721
2363.000000 0.8724 0.8727 0.8730 0.8734 0.8738
2368.000000 0.8743 0.8748 0.8754 0.8759 0.8765
2373.000000 0.8770 0.8775 0.8778 0.8782 0.8785
2378.000000 0.8789 0.8792 0.8795 0.8798 0.8802
2383.000000 0.8801 0.8801 0.8800 0.8800 0.8800
2388.000000 0.8800 0.8799 0.8799 0.8798 0.8798
2393.000000 0.8797 0.8796 0.8795 0.8794 0.8793
2398.000000 0.8792 0.8791 0.8790 0.8789 0.8789
2403.000000 0.8789 0.8789 0.8789 0.8789 0.8789
2408.000000 0.8789 0.8789 0.8789 0.8789 0.8790
2413.000000 0.8790 0.8790 0.8790 0.8791 0.8792
2418.000000 0.8793 0.8794 0.8796 0.8797 0.8798
2423.000000 0.8799 0.8800 0.8801 0.8803 0.8805
2428.000000 0.8807 0.8809 0.8812 0.8813 0.8814
2433.000000 0.8814 0.8814 0.8814 0.8814 0.8814
2438.000000 0.8815 0.8814 0.8814 0.8814 0.8814
2443.000000 0.8814 0.8814 0.8813 0.8813 0.8813
2448.000000 0.8813 0.8813 0.8813 0.8813 0.8813
2453.000000 0.8812 0.8812 0.8811 0.8811 0.8810
2458.000000 0.8810 0.8809 0.8808 0.8807 0.8806
2463.000000 0.8805 0.8805 0.8804 0.8803 0.8802
2468.000000 0.8802 0.8801 0.8800 0.8799 0.8798
2473.000000 0.8797 0.8797 0.8796 0.8795 0.8794
2478.000000 0.8793 0.8792 0.8792 0.8791 0.8790
2483.000000 0.8789 0.8788 0.8787 0.8787 0.8786
2488.000000 0.8785 0.8784 0.8783 0.8782 0.8782
2493.000000 0.8781 0.8780 0.8779 0.8778 0.8777
2498.000000 0.8777 0.8776 0.8775 0.8774 0.8773
2503.000000 0.8772 0.8771 0.8769 0.8768 0.8767
2508.000000 0.8766 0.8764 0.8763 0.8762 0.8761
2513.000000 0.8760 0.8759 0.8757 0.8756 0.8755
2518.000000 0.8754 0.8752 0.8751 0.8750 0.8749
2523.000000 0.8748 0.8748 0.8748 0.8748 0.8748
2528.000000 0.8748 0.8748 0.8749 0.8749 0.8749
2533.000000 0.8749 0.8749 0.8749 0.8749 0.8749
2538.000000 0.8750 0.8750 0.8751 0.8751 0.8752
2543.000000 0.8753 0.8754 0.8754 0.8755 0.8755
2548.000000 0.8756 0.8757 0.8758 0.8758 0.8759
2553.000000 0.8759 0.8759 0.8758 0.8757 0.8756
2558.000000 0.8756 0.8755 0.8754 0.8753 0.8752
2563.000000 0.8751 0.8751 0.8750 0.8749 0.8748
2568.000000 0.8747 0.8746 0.8745 0.8744 0.8743
2573.000000 0.8741 0.8739 0.8736 0.8734 0.8732
2578.000000 0.8730 0.8727 0.8725 0.8723 0.8721
2583.000000 0.8718 0.8716 0.8714 0.8712 0.8709
2588.000000 0.8707 0.8705 0.8703 0.8702 0.8701
2593.000000 0.8700 0.8700 0.8699 0.8699 0.8698
2598.000000 0.8698 0.8697 0.8697 0.8696 0.8696
2603.000000 0.8695 0.8695 0.8694 0.8694 0.8694
2608.000000 0.8694 0.8693 0.8693 0.8692 0.8692
2613.000000 0.8692 0.8692 0.8691 0.8691 0.8690
2618.000000 0.8690 0.8690 0.8690 0.8689 0.8689
2623.000000 0.8688 0.8687 0.8686 0.8686 0.8685
2628.000000 0.8685 0.8684 0.8683 0.8682 0.8682
2633.000000 0.8681 0.8680 0.8682 0.8684 0.8687
2638.000000 0.8690 0.8692 0.8695 0.8698 0.8701
2643.000000 0.8704 0.8707 0.8712 0.8718 0.8723
2648.000000 0.8729 0.8734 0.8740 0.8745 0.8751
2653.000000 0.8756 0.8762 0.8767 0.8773 0.8778
2658.000000 0.8784 0.8788 0.8792 0.8792 0.8793
2663.000000 0.8793 0.8794 0.8794 0.8794 0.8794
2668.000000 0.8795 0.8795 0.8795 0.8795 0.8796
2673.000000 0.8796 0.8796 0.8796 0.8797 0.8796
2678.000000 0.8795 0.8794 0.8794 0.8793 0.8792
2683.000000 0.8791 0.8791 0.8790 0.8789 0.8788
2688.000000 0.8788 0.8787 0.8786 0.8785 0.8785
2693.000000 0.8784 0.8783 0.8782 0.8782 0.8781
2698.000000 0.8780 0.8779 0.8779 0.8778 0.8777
2703.000000 0.8776 0.8776 0.8774 0.8773 0.8770
2708.000000 0.8768 0.8766 0.8764 0.8761 0.8759
2713.000000 0.8756 0.8754 0.8752 0.8750 0.8747
2718.000000 0.8745 0.8742 0.8740 0.8738 0.8736
2723.000000 0.8733 0.8731 0.8728 0.8726 0.8723
2728.000000 0.8721 0.8718 0.8716 0.8713 0.8711
2733.000000 0.8708 0.8706 0.8703 0.8700 0.8697
2738.000000 0.8695 0.8692 0.8690 0.8687 0.8685
2743.000000 0.8682 0.8679 0.8676 0.8674 0.8671
2748.000000 0.8669 0.8666 0.8664 0.8661 0.8659
2753.000000 0.8657 0.8656 0.8654 0.8652 0.8650
2758.000000 0.8648 0.8646 0.8644 0.8642 0.8641
2763.000000 0.8639 0.8637 0.8635 0.8633 0.8631
2768.000000 0.8629 0.8627 0.8625 0.8623 0.8622
2773.000000 0.8620 0.8618 0.8616 0.8614 0.8614
2778.000000 0.8614 0.8615 0.8616 0.8617 0.8618
2783.000000 0.8619 0.8620 0.8621 0.8622 0.8623
2788.000000 0.8624 0.8625 0.8626 0.8628 0.8631
2793.000000 0.8634 0.8637 0.8640 0.8644 0.8647
2798.000000 0.8651 0.8652 0.8653 0.8651 0.8650
2803.000000 0.8646 0.8643 0.8636 0.8630 0.8624
2808.000000 0.8618 0.8611 0.8605 0.8590 0.8576
2813.000000 0.8561 0.8547 0.8532 0.8517 0.8469
2818.000000 0.8421 0.8363 0.8305 0.8247 0.8189
2823.000000 0.8131 0.8074 0.8016 0.7958 0.7900
2828.000000 0.7842 0.7784 0.7726 0.7668 0.7610
2833.000000 0.7552 0.7494 0.7457 0.7420 0.7414
2838.000000 0.7408 0.7408 0.7408 0.7413 0.7391
2843.000000 0.7448 0.7479 0.7523 0.7567 0.7611
2848.000000 0.7655 0.7699 0.7743 0.7787 0.7831
2853.000000 0.7875 0.7919 0.7963 0.8007 0.8051
2858.000000 0.8095 0.8122 0.8149 0.8159 0.8170
2863.000000 0.8169 0.8168 0.8166 0.8164 0.8159
2868.000000 0.8182 0.8136 0.8119 0.8060 0.8001
2873.000000 0.7942 0.7883 0.7824 0.7765 0.7706
2878.000000 0.7647 0.7588 0.7529 0.7470 0.7411
2883.000000 0.7352 0.7293 0.7234 0.7176 0.7117
2888.000000 0.7058 0.6999 0.6940 0.6881 0.6822
2893.000000 0.6763 0.6704 0.6645 0.6586 0.6527
2898.000000 0.6468 0.6414 0.6361 0.6335 0.6309
2903.000000 0.6301 0.6294 0.6294 0.6267 0.6294
2908.000000 0.6295 0.6298 0.6302 0.6310 0.6319
2913.000000 0.6329 0.6340 0.6388 0.6436 0.6484
2918.000000 0.6532 0.6580 0.6629 0.6677 0.6725
2923.000000 0.6773 0.6821 0.6869 0.6917 0.6965
2928.000000 0.7013 0.7061 0.7109 0.7157 0.7205
2933.000000 0.7253 0.7302 0.7350 0.7398 0.7446
2938.000000 0.7494 0.7542 0.7590 0.7638 0.7686
2943.000000 0.7734 0.7782 0.7830 0.7878 0.7930
2948.000000 0.7982 0.8015 0.8049 0.8084 0.8120
2953.000000 0.8136 0.8153 0.8164 0.8175 0.8179
2958.000000 0.8183 0.8186 0.8217 0.8190 0.8191
2963.000000 0.8186 0.8182 0.8171 0.8161 0.8148
2968.000000 0.8136 0.8122 0.8109 0.8089 0.8070
2973.000000 0.8050 0.8031 0.8013 0.7996 0.7978
2978.000000 0.7960 0.7942 0.7924 0.7906 0.7888
2983.000000 0.7872 0.7857 0.7842 0.7827 0.7812
2988.000000 0.7797 0.7780 0.7764 0.7670 0.7577
2993.000000 0.7483 0.7390 0.7296 0.7202 0.7108
2998.000000 0.7015 0.6921 0.6828 0.6773 0.6718
3003.000000 0.6715 0.6713 0.6708 0.6703 0.6620
3008.000000 0.6537 0.6328 0.6120 0.5912 0.5704
3013.000000 0.5496 0.5288 0.5079 0.4871 0.4663
3018.000000 0.4455 0.4247 0.4039 0.3830 0.3622
3023.000000 0.3414 0.3206 0.2998 0.2790 0.2680
3028.000000 0.2581 0.2681 0.2792 0.3024 0.3256
3033.000000 0.3488 0.3720 0.3952 0.4184 0.4416
3038.000000 0.4648 0.4880 0.5112 0.5343 0.5575
3043.000000 0.5807 0.6039 0.6101 0.6180 0.6030
3048.000000 0.5896 0.5761 0.5627 0.5493 0.5359
3053.000000 0.5225 0.5091 0.4956 0.4822 0.4688
3058.000000 0.4554 0.4420 0.4286 0.4266 0.4247
3063.000000 0.4362 0.4234 0.4716 0.4956 0.5195
3068.000000 0.5435 0.5674 0.5914 0.6104 0.6295
3073.000000 0.6292 0.6303 0.6191 0.6093 0.5974
3078.000000 0.5856 0.5737 0.5619 0.5500 0.5382
3083.000000 0.5264 0.5146 0.5124 0.5102 0.5342
3088.000000 0.5112 0.5893 0.6203 0.6513 0.6824
3093.000000 0.7106 0.7388 0.7392 0.7396 0.7400
3098.000000 0.7404 0.7407 0.7411 0.7414 0.7418
3103.000000 0.7420 0.7423 0.7459 0.7496 0.7548
3108.000000 0.7600 0.7652 0.7705 0.7757 0.7809
3113.000000 0.7861 0.7914 0.7966 0.8018 0.8073
3118.000000 0.8129 0.8142 0.8156 0.8164 0.8172
3123.000000 0.8177 0.8183 0.8188 0.8194 0.8199
3128.000000 0.8205 0.8210 0.8216 0.8221 0.8227
3133.000000 0.8232 0.8238 0.8240 0.8243 0.8244
3138.000000 0.8246 0.8247 0.8249 0.8250 0.8252
3143.000000 0.8253 0.8255 0.8256 0.8258 0.8259
3148.000000 0.8261 0.8260 0.8260 0.8259 0.8259
3153.000000 0.8258 0.8258 0.8257 0.8257 0.8256
3158.000000 0.8256 0.8255 0.8254 0.8251 0.8248
3163.000000 0.8245 0.8243 0.8240 0.8238 0.8237
3168.000000 0.8237 0.8245 0.8254 0.8264 0.8275
3173.000000 0.8284 0.8294 0.8303 0.8313 0.8318
3178.000000 0.8324 0.8325 0.8327 0.8328 0.8329
3183.000000 0.8330 0.8331 0.8332 0.8334 0.8335
3188.000000 0.8336 0.8336 0.8337 0.8337 0.8338
3193.000000 0.8338 0.8338 0.8338 0.8338 0.8338
3198.000000 0.8338 0.8338 0.8338 0.8338 0.8338
3203.000000 0.8338 0.8338 0.8338 0.8338 0.8338
3208.000000 0.8338 0.8338 0.8338 0.8338 0.8338
3213.000000 0.8338 0.8338 0.8338 0.8338 0.8338
3218.000000 0.8338 0.8338 0.8338 0.8337 0.8337
3223.000000 0.8337 0.8337 0.8337 0.8337 0.8337
3228.000000 0.8337 0.8337 0.8337 0.8337 0.8337
3233.000000 0.8337 0.8337 0.8336 0.8336 0.8335
3238.000000 0.8334 0.8333 0.8333 0.8332 0.8331
3243.000000 0.8330 0.8329 0.8328 0.8327 0.8326
3248.000000 0.8325 0.8324 0.8323 0.8322 0.8321
3253.000000 0.8320 0.8319 0.8318 0.8317 0.8316
3258.000000 0.8315 0.8314 0.8313 0.8312 0.8312
3263.000000 0.8311 0.8310 0.8309 0.8308 0.8307
3268.000000 0.8306 0.8305 0.8304 0.8303 0.8302
3273.000000 0.8301 0.8301 0.8300 0.8300 0.8299
3278.000000 0.8298 0.8297 0.8297 0.8296 0.8296
3283.000000 0.8295 0.8295 0.8294 0.8294 0.8293
3288.000000 0.8293 0.8292 0.8292 0.8291 0.8291
3293.000000 0.8290 0.8290 0.8289 0.8289 0.8288
3298.000000 0.8287 0.8286 0.8286 0.8285 0.8285
3303.000000 0.8284 0.8284 0.8283 0.8283 0.8282
3308.000000 0.8282 0.8281 0.8281 0.8280 0.8280
3313.000000 0.8279 0.8279 0.8278 0.8278 0.8277
3318.000000 0.8277 0.8276 0.8275 0.8274 0.8274
3323.000000 0.8273 0.8273 0.8272 0.8272 0.8271
3328.000000 0.8271 0.8270 0.8270 0.8269 0.8268
3333.000000 0.8267 0.8267 0.8266 0.8266 0.8265
3338.000000 0.8265 0.8264 0.8264 0.8263 0.8263
3343.000000 0.8262 0.8261 0.8260 0.8260 0.8259
3348.000000 0.8259 0.8258 0.8258 0.8257 0.8257
3353.000000 0.8256 0.8256 0.8255 0.8254 0.8253
3358.000000 0.8253 0.8252 0.8252 0.8251 0.8251
3363.000000 0.8250 0.8250 0.8249 0.8249 0.8249
3368.000000 0.8249 0.8249 0.8249 0.8249 0.8249
3373.000000 0.8248 0.8248 0.8248 0.8248 0.8248
3378.000000 0.8248 0.8248 0.8248 0.8248 0.8248
3383.000000 0.8248 0.8248 0.8248 0.8248 0.8248
3388.000000 0.8248 0.8248 0.8248 0.8248 0.8248
3393.000000 0.8248 0.8248 0.8247 0.8247 0.8247
3398.000000 0.8247 0.8247 0.8247 0.8248 0.8249
3403.000000 0.8249 0.8250 0.8251 0.8252 0.8252
3408.000000 0.8253 0.8254 0.8255 0.8255 0.8256
3413.000000 0.8257 0.8258 0.8259 0.8260 0.8260
3418.000000 0.8261 0.8262 0.8263 0.8263 0.8264
3423.000000 0.8265 0.8266 0.8267 0.8268 0.8268
3428.000000 0.8269 0.8270 0.8271 0.8271 0.8272
3433.000000 0.8273 0.8274 0.8275 0.8276 0.8276
3438.000000 0.8277 0.8278 0.8279 0.8280 0.8281
3443.000000 0.8282 0.8283 0.8284 0.8285 0.8286
3448.000000 0.8287 0.8288 0.8289 0.8290 0.8291
3453.000000 0.8292 0.8293 0.8294 0.8295 0.8296
3458.000000 0.8298 0.8299 0.8300 0.8301 0.8302
3463.000000 0.8303 0.8304 0.8305 0.8306 0.8307
3468.000000 0.8308 0.8309 0.8310 0.8311 0.8312
3473.000000 0.8313 0.8314 0.8315 0.8317 0.8318
3478.000000 0.8319 0.8321 0.8323 0.8325 0.8328
3483.000000 0.8330 0.8333 0.8335 0.8337 0.8339
3488.000000 0.8342 0.8344 0.8347 0.8349 0.8351
3493.000000 0.8353 0.8356 0.8358 0.8361 0.8363
3498.000000 0.8366 0.8368 0.8370 0.8372 0.8375
3503.000000 0.8377 0.8380 0.8382 0.8384 0.8386
3508.000000 0.8389 0.8391 0.8394 0.8396 0.8398
3513.000000 0.8400 0.8403 0.8404 0.8405 0.8406
3518.000000 0.8408 0.8409 0.8411 0.8412 0.8414
3523.000000 0.8415 0.8417 0.8418 0.8419 0.8420
3528.000000 0.8422 0.8423 0.8425 0.8426 0.8428
3533.000000 0.8429 0.8430 0.8431 0.8433 0.8434
3538.000000 0.8436 0.8437 0.8439 0.8440 0.8442
3543.000000 0.8443 0.8444 0.8445 0.8447 0.8447
3548.000000 0.8448 0.8448 0.8449 0.8449 0.8449
3553.000000 0.8449 0.8450 0.8450 0.8451 0.8451
3558.000000 0.8451 0.8451 0.8452 0.8452 0.8453
3563.000000 0.8453 0.8453 0.8453 0.8454 0.8454
3568.000000 0.8455 0.8455 0.8455 0.8455 0.8456
3573.000000 0.8456 0.8457 0.8457 0.8457 0.8457
3578.000000 0.8458 0.8458 0.8459 0.8459 0.8459
3583.000000 0.8458 0.8457 0.8456 0.8455 0.8454
3588.000000 0.8453 0.8452 0.8451 0.8450 0.8449
3593.000000 0.8448 0.8447 0.8446 0.8445 0.8444
3598.000000 0.8443 0.8442 0.8441 0.8440 0.8440
3603.000000 0.8439 0.8438 0.8437 0.8436 0.8435
3608.000000 0.8434 0.8432 0.8431 0.8429 0.8428
3613.000000 0.8426 0.8425 0.8424 0.8423 0.8421
3618.000000 0.8420 0.8418 0.8417 0.8415 0.8414
3623.000000 0.8412 0.8411 0.8409 0.8408 0.8412
3628.000000 0.8417 0.8424 0.8431 0.8438 0.8445
3633.000000 0.8440 0.8436 0.8431 0.8427 0.8423
3638.000000 0.8419 0.8414 0.8410 0.8405 0.8401
3643.000000 0.8397 0.8393 0.8389 0.8386 0.8391
3648.000000 0.8396 0.8401 0.8406 0.8410 0.8415
3653.000000 0.8419 0.8423 0.8427 0.8432 0.8436
3658.000000 0.8440 0.8444 0.8449 0.8453 0.8457
3663.000000 0.8461 0.8466 0.8470 0.8474 0.8477
3668.000000 0.8480 0.8482 0.8484 0.8486 0.8489
3673.000000 0.8491 0.8493 0.8495 0.8498 0.8500
3678.000000 0.8502 0.8504 0.8507 0.8509 0.8511
3683.000000 0.8513 0.8516 0.8518 0.8520 0.8522
3688.000000 0.8525 0.8525 0.8526 0.8526 0.8526
3693.000000 0.8526 0.8526 0.8526 0.8527 0.8527
3698.000000 0.8527 0.8527 0.8528 0.8528 0.8528
3703.000000 0.8528 0.8528 0.8528 0.8529 0.8529
3708.000000 0.8529 0.8529 0.8529 0.8529 0.8530
3713.000000 0.8530 0.8530 0.8530 0.8530 0.8529
3718.000000 0.8529 0.8528 0.8527 0.8526 0.8525
3723.000000 0.8524 0.8523 0.8522 0.8521 0.8520
3728.000000 0.8519 0.8518 0.8517 0.8516 0.8515
3733.000000 0.8514 0.8513 0.8511 0.8510 0.8509
3738.000000 0.8508 0.8507 0.8506 0.8505 0.8474
3743.000000 0.8503 0.8502 0.8501 0.8500 0.8499
3748.000000 0.8498 0.8497 0.8496 0.8495 0.8494
3753.000000 0.8493 0.8493 0.8492 0.8492 0.8491
3758.000000 0.8491 0.8490 0.8490 0.8489 0.8489
3763.000000 0.8488 0.8488 0.8487 0.8487 0.8486
3768.000000 0.8486 0.8485 0.8484 0.8483 0.8483
3773.000000 0.8482 0.8481 0.8479 0.8478 0.8476
3778.000000 0.8474 0.8472 0.8471 0.8469 0.8467
3783.000000 0.8465 0.8463 0.8461 0.8460 0.8458
3788.000000 0.8456 0.8454 0.8453 0.8451 0.8450
##END=
