##TITLE=DIETHYL, ALLYL-(1-ETHYLPROPYL) MALONATE
##JCAMP-DX=4.24
##DATA TYPE=INFRARED SPECTRUM
##CLASS=COBLENTZ
##ORIGIN=ABBOTT LABORATORIES - WASHBURN
##OWNER=COBLENTZ SOCIETY
Collection (C) 2018 copyright by the U.S. Secretary of Commerce
on behalf of the United States of America. All rights reserved.
##DATE=Not specified, most likely prior to 1970
##NAMES=diethyl 2-allyl-2-(1-ethylpropyl)malonate
ALLYL-(1-ETHYLPROPYL) MALONIC ACID, DIETHYL ESTER
##CAS REGISTRY NO=101107-08-8
##MOLFORM=C15 H26 O4
##SOURCE REFERENCE=COBLENTZ NO. 3498
##$NIST SOURCE=COBLENTZ
##$NIST IMAGE=cob3498
##SPECTROMETER/DATA SYSTEM=PERKIN-ELMER
##STATE=LIQUID
##PATH LENGTH=CAPILLARY
##SAMPLING PROCEDURE=TRANSMISSION
##RESOLUTION=4
##DATA PROCESSING=DIGITIZED BY NIST FROM HARD COPY (FROM TWO SEGMENTS)
##XUNITS=MICROMETERS
##YUNITS=TRANSMITTANCE
##XFACTOR=1.000000
##YFACTOR=1
##DELTAX=0.006631
##FIRSTX=2.095
##LASTX=15.4432
##FIRSTY=0.926
##MAXX=15.4432
##MINX=2.095
##MAXY=0.948
##MINY=0.109615
##NPOINTS=2014
##XYDATA=(X++(Y..Y))
2.095000 0.9260 0.9280 0.9260 0.9260 0.9260
2.128155 0.9260 0.9260 0.9260 0.9280 0.9280
2.161310 0.9280 0.9298 0.9309 0.9301 0.9300
2.194465 0.9282 0.9298 0.9309 0.9328 0.9313
2.227620 0.9329 0.9330 0.9349 0.9350 0.9350
2.260775 0.9350 0.9331 0.9330 0.9330 0.9302
2.293930 0.9300 0.9280 0.9260 0.9231 0.9181
2.327085 0.9180 0.9180 0.9180 0.9180 0.9151
2.360240 0.9114 0.9101 0.9100 0.9109 0.9128
2.393395 0.9147 0.9159 0.9203 0.9253 0.9260
2.426550 0.9279 0.9280 0.9280 0.9261 0.9260
2.459705 0.9251 0.9232 0.9230 0.9230 0.9230
2.492860 0.9250 0.9260 0.9299 0.9310 0.9300
2.526015 0.9310 0.9329 0.9349 0.9360 0.9360
2.559170 0.9360 0.9351 0.9359 0.9360 0.9360
2.592325 0.9360 0.9394 0.9426 0.9430 0.9430
2.625480 0.9448 0.9432 0.9430 0.9430 0.9430
2.658635 0.9412 0.9401 0.9409 0.9401 0.9382
2.691790 0.9380 0.9409 0.9410 0.9400 0.9400
2.724945 0.9410 0.9448 0.9460 0.9450 0.9431
2.758100 0.9413 0.9401 0.9357 0.9333 0.9313
2.791255 0.9310 0.9301 0.9300 0.9308 0.9310
2.824410 0.9328 0.9330 0.9330 0.9303 0.9210
2.857565 0.9200 0.9200 0.9200 0.9209 0.9228
2.890720 0.9249 0.9260 0.9250 0.9250 0.9212
2.923875 0.9153 0.9065 0.8985 0.8980 0.8999
2.957030 0.9026 0.9073 0.9105 0.9152 0.9177
2.990185 0.9222 0.9255 0.9277 0.9297 0.9283
3.023340 0.9280 0.9280 0.9280 0.9298 0.9264
3.056495 0.9260 0.9260 0.9278 0.9280 0.9280
3.089650 0.9299 0.9281 0.9280 0.9261 0.9251
3.122805 0.9250 0.9250 0.9278 0.9280 0.9252
3.155960 0.9230 0.9210 0.9210 0.9210 0.9210
3.189115 0.9210 0.9259 0.9260 0.9231 0.9230
3.222270 0.9230 0.9230 0.9212 0.9157 0.9106
3.255425 0.8986 0.8821 0.8643 0.8385 0.8350
3.288580 0.8443 0.8618 0.8723 0.8749 0.8750
3.321735 0.8704 0.8534 0.7968 0.7433 0.6905
3.354890 0.6349 0.5840 0.5253 0.4674 0.4533
3.388045 0.4336 0.4136 0.3733 0.3315 0.3300
3.421200 0.3522 0.3743 0.3910 0.4078 0.4239
3.454355 0.4555 0.4773 0.4981 0.5208 0.5326
3.487510 0.5846 0.5936 0.5977 0.6017 0.6057
3.520665 0.6435 0.6762 0.7918 0.8230 0.8449
3.553820 0.8528 0.8646 0.8718 0.8768 0.8818
3.586975 0.8868 0.9052 0.9108 0.9158 0.9198
3.620130 0.9209 0.9271 0.9306 0.9327 0.9330
3.653285 0.9330 0.9313 0.9301 0.9283 0.9263
3.686440 0.9251 0.9250 0.9296 0.9309 0.9328
3.719595 0.9330 0.9348 0.9350 0.9395 0.9409
3.752750 0.9429 0.9459 0.9479 0.9480 0.9461
3.785905 0.9450 0.9450 0.9431 0.9411 0.9429
3.819060 0.9430 0.9430 0.9430 0.9430 0.9430
3.852215 0.9413 0.9385 0.9363 0.9394 0.9400
3.885370 0.9400 0.9382 0.9380 0.9380 0.9380
3.918525 0.9380 0.9353 0.9350 0.9377 0.9407
3.951680 0.9429 0.9430 0.9430 0.9430 0.9411
3.984835 0.9382 0.9352 0.9331 0.9330 0.9330
4.017990 0.9330 0.9305 0.9300 0.9325 0.9330
4.051145 0.9330 0.9313 0.9285 0.9263 0.9260
4.084300 0.9260 0.9260 0.9260 0.9260 0.9260
4.117455 0.9278 0.9280 0.9254 0.9232 0.9230
4.150610 0.9211 0.9210 0.9210 0.9201 0.9181
4.183765 0.9180 0.9161 0.9132 0.9130 0.9130
4.216920 0.9130 0.9130 0.9113 0.9110 0.9110
4.250075 0.9110 0.9126 0.9130 0.9105 0.9084
4.283230 0.9080 0.9098 0.9100 0.9100 0.9109
4.316385 0.9127 0.9130 0.9130 0.9130 0.9147
4.349540 0.9131 0.9130 0.9130 0.9112 0.9101
4.382695 0.9082 0.9098 0.9100 0.9082 0.9080
4.415850 0.9080 0.9080 0.9061 0.9050 0.9050
4.449005 0.9060 0.9060 0.9060 0.9098 0.9100
4.482160 0.9056 0.9050 0.9059 0.9060 0.9060
4.515315 0.9051 0.9050 0.9050 0.9050 0.9050
4.548470 0.9032 0.9030 0.9030 0.9030 0.9030
4.581625 0.9012 0.9010 0.9010 0.9010 0.9001
4.614780 0.9000 0.8981 0.8980 0.8980 0.8980
4.647935 0.8980 0.8980 0.9009 0.9010 0.8982
4.681090 0.8980 0.8971 0.8927 0.8920 0.8920
4.714245 0.8920 0.8920 0.8920 0.8920 0.8920
4.747400 0.8965 0.8952 0.8932 0.8921 0.8902
4.780555 0.8900 0.8900 0.8882 0.8880 0.8880
4.813710 0.8870 0.8870 0.8870 0.8851 0.8831
4.846865 0.8830 0.8830 0.8849 0.8897 0.8900
4.880020 0.8883 0.8880 0.8880 0.8880 0.8880
4.913175 0.8897 0.8900 0.8900 0.8883 0.8880
4.946330 0.8871 0.8870 0.8870 0.8870 0.8914
4.979485 0.8902 0.8900 0.8882 0.8871 0.8834
5.012640 0.8778 0.8770 0.8795 0.8800 0.8824
5.045795 0.8846 0.8865 0.8870 0.8877 0.8880
5.078950 0.8892 0.8888 0.8880 0.8891 0.8900
5.112105 0.8900 0.8900 0.8890 0.8880 0.8880
5.145260 0.8875 0.8860 0.8850 0.8850 0.8850
5.178415 0.8859 0.8870 0.8862 0.8843 0.8821
5.211570 0.8795 0.8778 0.8765 0.8754 0.8770
5.244725 0.8770 0.8767 0.8747 0.8729 0.8720
5.277880 0.8720 0.8720 0.8720 0.8720 0.8721
5.311035 0.8729 0.8720 0.8720 0.8720 0.8701
5.344190 0.8700 0.8700 0.8700 0.8683 0.8638
5.377345 0.8622 0.8604 0.8576 0.8570 0.8554
5.410500 0.8534 0.8522 0.8504 0.8500 0.8485
5.443655 0.8480 0.8494 0.8514 0.8527 0.8524
5.476810 0.8509 0.8489 0.8480 0.8480 0.8475
5.509965 0.8461 0.8441 0.8426 0.8420 0.8403
5.543120 0.8380 0.8345 0.8266 0.8183 0.8126
5.576275 0.8094 0.8022 0.7937 0.7832 0.7728
5.609430 0.7653 0.7551 0.7339 0.7044 0.6722
5.642585 0.6592 0.6395 0.5787 0.5512 0.5209
5.675740 0.4574 0.4339 0.4102 0.3732 0.3412
5.708895 0.3196 0.2990 0.2530 0.2184 0.2057
5.742050 0.1955 0.1789 0.1645 0.1499 0.1407
5.775205 0.1336 0.1275 0.1194 0.1127 0.1096
5.808360 0.1112 0.1297 0.1598 0.1957 0.4160
5.841515 0.5296 0.5658 0.5986 0.6181 0.6370
5.874670 0.6637 0.6824 0.6888 0.6979 0.7072
5.907825 0.7179 0.7369 0.7531 0.7650 0.7774
5.940980 0.7861 0.7908 0.7931 0.7967 0.8010
5.974135 0.8030 0.8036 0.8058 0.8085 0.8100
6.007290 0.8100 0.8100 0.8100 0.8092 0.8008
6.040445 0.7863 0.7744 0.7612 0.7317 0.6925
6.073600 0.6920 0.7097 0.7294 0.7569 0.8010
6.106755 0.8116 0.8176 0.8226 0.8275 0.8298
6.139910 0.8317 0.8328 0.8345 0.8387 0.8415
6.173065 0.8427 0.8423 0.8427 0.8456 0.8489
6.206220 0.8500 0.8500 0.8513 0.8520 0.8520
6.239375 0.8520 0.8508 0.8500 0.8511 0.8520
6.272530 0.8520 0.8525 0.8530 0.8530 0.8530
6.305685 0.8537 0.8550 0.8550 0.8550 0.8550
6.338840 0.8545 0.8530 0.8530 0.8527 0.8520
6.371995 0.8523 0.8530 0.8534 0.8550 0.8555
6.405150 0.8580 0.8579 0.8567 0.8520 0.8520
6.438305 0.8520 0.8520 0.8520 0.8530 0.8549
6.471460 0.8550 0.8550 0.8550 0.8522 0.8502
6.504615 0.8518 0.8520 0.8520 0.8503 0.8483
6.537770 0.8480 0.8480 0.8480 0.8480 0.8480
6.570925 0.8480 0.8480 0.8474 0.8446 0.8424
6.604080 0.8392 0.8370 0.8359 0.8350 0.8350
6.637235 0.8333 0.8309 0.8285 0.8250 0.8206
6.670390 0.8175 0.8139 0.8060 0.7973 0.7904
6.703545 0.7831 0.7700 0.7553 0.7342 0.7059
6.736700 0.6889 0.6740 0.6543 0.6175 0.6007
6.769855 0.5820 0.5636 0.5508 0.5361 0.5165
6.803010 0.4825 0.4500 0.4388 0.4350 0.4311
6.836165 0.4310 0.4580 0.4700 0.4799 0.4932
6.869320 0.5087 0.5236 0.5301 0.5348 0.5324
6.902475 0.5254 0.5169 0.5133 0.5130 0.5199
6.935630 0.5325 0.5544 0.5774 0.5890 0.6021
6.968785 0.6162 0.6268 0.6366 0.6480 0.6660
7.001940 0.6846 0.7002 0.7095 0.7121 0.7150
7.035095 0.7157 0.7170 0.7176 0.7184 0.7170
7.068250 0.7175 0.7197 0.7224 0.7251 0.7293
7.101405 0.7310 0.7342 0.7360 0.7398 0.7378
7.134560 0.7315 0.7287 0.7262 0.7175 0.6918
7.167715 0.6761 0.6594 0.6399 0.6315 0.6043
7.200870 0.5948 0.5914 0.5884 0.5838 0.5785
7.234025 0.5744 0.5731 0.5687 0.5647 0.5632
7.267180 0.5614 0.5571 0.5507 0.5431 0.5362
7.300335 0.5289 0.5248 0.5210 0.5190 0.5230
7.333490 0.5754 0.6388 0.6877 0.7219 0.7357
7.366645 0.7463 0.7547 0.7590 0.7595 0.7619
7.399800 0.7644 0.7650 0.7650 0.7646 0.7626
7.432955 0.7591 0.7551 0.7497 0.7446 0.7255
7.466110 0.7027 0.6747 0.6619 0.6483 0.6279
7.499265 0.5958 0.5713 0.5612 0.5507 0.5492
7.532420 0.5518 0.5595 0.5666 0.5765 0.5881
7.565575 0.5936 0.5940 0.5886 0.5801 0.5704
7.598730 0.5639 0.5547 0.5449 0.5351 0.5222
7.631885 0.5083 0.4938 0.4822 0.4706 0.4627
7.665040 0.4573 0.4517 0.4465 0.4416 0.4400
7.698195 0.4400 0.4400 0.4405 0.4436 0.4506
7.731350 0.4580 0.4643 0.4694 0.4719 0.4759
7.764505 0.4822 0.4850 0.4841 0.4817 0.4792
7.797660 0.4753 0.4680 0.4602 0.4493 0.4364
7.830815 0.4310 0.4226 0.4080 0.3982 0.3889
7.863970 0.3822 0.3765 0.3730 0.3738 0.3830
7.897125 0.3973 0.4038 0.4106 0.4163 0.4203
7.930280 0.4251 0.4280 0.4280 0.4280 0.4251
7.963435 0.4231 0.4143 0.4046 0.4005 0.3863
7.996590 0.3672 0.3607 0.3525 0.3449 0.3409
8.029745 0.3331 0.3278 0.3240 0.3223 0.3206
8.062900 0.3111 0.3003 0.2925 0.2755 0.2609
8.096055 0.2493 0.2386 0.2296 0.2212 0.2147
8.129210 0.2107 0.2069 0.1980 0.1871 0.1815
8.162365 0.1753 0.1716 0.1694 0.1648 0.1592
8.195520 0.1553 0.1534 0.1520 0.1526 0.1540
8.228675 0.1547 0.1570 0.1580 0.1642 0.1663
8.261830 0.1692 0.1712 0.1741 0.1771 0.1811
8.294985 0.1869 0.1938 0.1991 0.2020 0.2040
8.328140 0.2050 0.2088 0.2166 0.2216 0.2238
8.361295 0.2267 0.2296 0.2332 0.2386 0.2452
8.394450 0.2507 0.2556 0.2584 0.2644 0.2749
8.427605 0.2796 0.2955 0.3148 0.3353 0.3553
8.460760 0.3689 0.3883 0.4146 0.4483 0.4750
8.493915 0.4884 0.4946 0.4983 0.5018 0.5042
8.527070 0.5086 0.5130 0.5133 0.5153 0.5204
8.560225 0.5266 0.5283 0.5295 0.5307 0.5289
8.593380 0.5277 0.5251 0.5171 0.5075 0.5005
8.626535 0.4906 0.4799 0.4730 0.4647 0.4596
8.659690 0.4498 0.4430 0.4400 0.4351 0.4207
8.692845 0.4107 0.4036 0.3940 0.3889 0.3872
8.726000 0.3839 0.3822 0.3820 0.3806 0.3800
8.759155 0.3786 0.3780 0.3774 0.3770 0.3756
8.792310 0.3730 0.3720 0.3707 0.3700 0.3700
8.825465 0.3700 0.3700 0.3700 0.3690 0.3680
8.858620 0.3676 0.3670 0.3670 0.3674 0.3694
8.891775 0.3730 0.3756 0.3779 0.3809 0.3844
8.924930 0.3880 0.3906 0.3923 0.3949 0.4000
8.958085 0.4000 0.3989 0.3946 0.3928 0.3918
8.991240 0.3899 0.3880 0.3880 0.3880 0.3880
9.024395 0.3919 0.3930 0.3996 0.4009 0.4030
9.057550 0.4098 0.4129 0.4177 0.4207 0.4228
9.090705 0.4248 0.4250 0.4258 0.4260 0.4290
9.123860 0.4343 0.4458 0.4555 0.4660 0.4797
9.157015 0.5000 0.5163 0.5522 0.5900 0.6104
9.190170 0.6253 0.6388 0.6469 0.6518 0.6611
9.223325 0.6680 0.6700 0.6710 0.6701 0.6690
9.256480 0.6683 0.6660 0.6630 0.6598 0.6547
9.289635 0.6476 0.6420 0.6348 0.6290 0.6203
9.322790 0.6108 0.6010 0.5941 0.5800 0.5745
9.355945 0.5671 0.5616 0.5533 0.5489 0.5476
9.389100 0.5439 0.5390 0.5361 0.5341 0.5331
9.422255 0.5284 0.5217 0.5121 0.5041 0.4886
9.455410 0.4770 0.4644 0.4560 0.4404 0.4338
9.488565 0.4289 0.4200 0.4157 0.4119 0.4103
9.521720 0.4086 0.4067 0.4060 0.4060 0.4060
9.554875 0.4060 0.4071 0.4080 0.4095 0.4120
9.588030 0.4130 0.4130 0.4130 0.4130 0.4130
9.621185 0.4121 0.4110 0.4119 0.4138 0.4154
9.654340 0.4160 0.4166 0.4185 0.4200 0.4202
9.687495 0.4221 0.4264 0.4289 0.4354 0.4483
9.720650 0.4508 0.4569 0.4625 0.4709 0.4767
9.753805 0.4816 0.4867 0.4936 0.5011 0.5033
9.786960 0.5110 0.5129 0.5139 0.5176 0.5233
9.820115 0.5240 0.5257 0.5285 0.5330 0.5356
9.853270 0.5383 0.5513 0.5597 0.5634 0.5656
9.886425 0.5645 0.5670 0.5702 0.5745 0.5774
9.919580 0.5780 0.5786 0.5801 0.5810 0.5821
9.952735 0.5835 0.5840 0.5850 0.5860 0.5869
9.985890 0.5893 0.5919 0.5935 0.5958 0.5997
10.019045 0.6057 0.6130 0.6164 0.6184 0.6244
10.052200 0.6313 0.6326 0.6362 0.6466 0.6577
10.085355 0.6634 0.6769 0.6831 0.6916 0.6979
10.118510 0.7075 0.7151 0.7178 0.7246 0.7305
10.151665 0.7375 0.7451 0.7472 0.7550 0.7639
10.184820 0.7650 0.7735 0.7827 0.7925 0.8014
10.217975 0.8062 0.8078 0.8095 0.8115 0.8142
10.251130 0.8171 0.8208 0.8226 0.8242 0.8262
10.284285 0.8287 0.8316 0.8351 0.8385 0.8410
10.317440 0.8411 0.8409 0.8420 0.8420 0.8434
10.350595 0.8464 0.8480 0.8476 0.8470 0.8470
10.383750 0.8463 0.8450 0.8450 0.8455 0.8470
10.416905 0.8472 0.8480 0.8480 0.8483 0.8500
10.450060 0.8498 0.8479 0.8470 0.8467 0.8448
10.483215 0.8429 0.8418 0.8399 0.8380 0.8370
10.516370 0.8370 0.8350 0.8331 0.8321 0.8320
10.549525 0.8303 0.8216 0.8118 0.8084 0.8018
10.582680 0.7954 0.7888 0.7848 0.7802 0.7751
10.615835 0.7687 0.7619 0.7579 0.7521 0.7459
10.648990 0.7440 0.7427 0.7345 0.7255 0.7184
10.682145 0.7125 0.7086 0.7033 0.6959 0.6856
10.715300 0.6750 0.6681 0.6601 0.6551 0.6495
10.748455 0.6412 0.6321 0.6207 0.6033 0.5964
10.781610 0.5915 0.5845 0.5733 0.5648 0.5590
10.814765 0.5483 0.5432 0.5370 0.5289 0.5277
10.847920 0.5238 0.5209 0.5179 0.5130 0.5110
10.881075 0.5111 0.5130 0.5130 0.5140 0.5159
10.914230 0.5227 0.5258 0.5324 0.5429 0.5605
10.947385 0.5752 0.5897 0.6067 0.6184 0.6340
10.980540 0.6531 0.6748 0.6900 0.7011 0.7084
11.013695 0.7197 0.7281 0.7346 0.7402 0.7463
11.046850 0.7526 0.7573 0.7596 0.7638 0.7680
11.080005 0.7694 0.7709 0.7720 0.7720 0.7727
11.113160 0.7733 0.7713 0.7700 0.7700 0.7700
11.146315 0.7700 0.7700 0.7700 0.7697 0.7690
11.179470 0.7690 0.7690 0.7690 0.7690 0.7690
11.212625 0.7691 0.7699 0.7690 0.7689 0.7670
11.245780 0.7670 0.7699 0.7748 0.7750 0.7741
11.278935 0.7740 0.7740 0.7740 0.7740 0.7740
11.312090 0.7740 0.7722 0.7694 0.7673 0.7654
11.345245 0.7650 0.7628 0.7585 0.7556 0.7530
11.378400 0.7507 0.7494 0.7466 0.7444 0.7429
11.411555 0.7402 0.7359 0.7316 0.7283 0.7270
11.444710 0.7259 0.7234 0.7205 0.7170 0.7126
11.477865 0.7096 0.7083 0.7042 0.6983 0.6954
11.511020 0.6920 0.6920 0.6917 0.6910 0.6910
11.544175 0.6910 0.6910 0.6910 0.6910 0.6910
11.577330 0.6910 0.6910 0.6912 0.6923 0.6940
11.610485 0.6940 0.6940 0.6960 0.6960 0.6970
11.643640 0.7064 0.7088 0.7099 0.7180 0.7233
11.676795 0.7240 0.7294 0.7363 0.7396 0.7434
11.709950 0.7465 0.7569 0.7590 0.7629 0.7686
11.743105 0.7730 0.7795 0.7917 0.8001 0.8020
11.776260 0.8055 0.8080 0.8091 0.8116 0.8151
11.809415 0.8185 0.8200 0.8211 0.8225 0.8240
11.842570 0.8260 0.8270 0.8275 0.8280 0.8280
11.875725 0.8288 0.8311 0.8345 0.8391 0.8420
11.908880 0.8422 0.8434 0.8454 0.8470 0.8470
11.942035 0.8464 0.8432 0.8451 0.8480 0.8480
11.975190 0.8480 0.8499 0.8529 0.8567 0.8579
12.008345 0.8598 0.8600 0.8600 0.8572 0.8570
12.041500 0.8570 0.8570 0.8570 0.8578 0.8612
12.074655 0.8604 0.8600 0.8600 0.8587 0.8580
12.107810 0.8574 0.8570 0.8600 0.8620 0.8620
12.140965 0.8609 0.8600 0.8617 0.8624 0.8620
12.174120 0.8609 0.8600 0.8600 0.8590 0.8575
12.207275 0.8552 0.8526 0.8512 0.8500 0.8500
12.240430 0.8500 0.8500 0.8500 0.8500 0.8504
12.273585 0.8522 0.8530 0.8530 0.8530 0.8530
12.306740 0.8530 0.8530 0.8530 0.8533 0.8552
12.339895 0.8573 0.8601 0.8620 0.8630 0.8649
12.373050 0.8650 0.8650 0.8668 0.8670 0.8696
12.406205 0.8700 0.8684 0.8680 0.8680 0.8680
12.439360 0.8680 0.8696 0.8700 0.8677 0.8655
12.472515 0.8650 0.8664 0.8670 0.8670 0.8670
12.505670 0.8676 0.8691 0.8689 0.8680 0.8680
12.538825 0.8680 0.8675 0.8661 0.8641 0.8605
12.571980 0.8575 0.8570 0.8561 0.8550 0.8542
12.605135 0.8530 0.8526 0.8513 0.8494 0.8473
12.638290 0.8445 0.8428 0.8416 0.8397 0.8378
12.671445 0.8367 0.8344 0.8298 0.8280 0.8280
12.704600 0.8280 0.8280 0.8279 0.8269 0.8249
12.737755 0.8229 0.8199 0.8150 0.8072 0.8034
12.770910 0.7978 0.7953 0.7967 0.7986 0.7990
12.804065 0.7974 0.7955 0.7950 0.7943 0.7940
12.837220 0.7901 0.7890 0.7897 0.7914 0.7934
12.870375 0.7940 0.7947 0.7950 0.7950 0.7950
12.903530 0.7960 0.7970 0.7970 0.7970 0.7979
12.936685 0.7990 0.7982 0.7962 0.7946 0.7932
12.969840 0.7912 0.7900 0.7900 0.7896 0.7890
13.002995 0.7883 0.7861 0.7840 0.7835 0.7820
13.036150 0.7820 0.7820 0.7817 0.7800 0.7800
13.069305 0.7802 0.7820 0.7820 0.7820 0.7820
13.102460 0.7840 0.7841 0.7851 0.7870 0.7870
13.135615 0.7890 0.7919 0.7920 0.7938 0.7949
13.168770 0.7950 0.7966 0.7970 0.7985 0.7990
13.201925 0.7990 0.7990 0.7990 0.7990 0.7997
13.235080 0.7993 0.7990 0.7997 0.8013 0.8020
13.268235 0.8020 0.8020 0.8026 0.8041 0.8066
13.301390 0.8090 0.8100 0.8100 0.8108 0.8120
13.334545 0.8113 0.8100 0.8100 0.8100 0.8100
13.367700 0.8100 0.8107 0.8120 0.8114 0.8106
13.400855 0.8120 0.8128 0.8150 0.8146 0.8128
13.434010 0.8117 0.8100 0.8098 0.8082 0.8120
13.467165 0.8131 0.8170 0.8200 0.8219 0.8220
13.500320 0.8220 0.8200 0.8181 0.8180 0.8180
13.533475 0.8217 0.8247 0.8268 0.8279 0.8280
13.566630 0.8280 0.8280 0.8280 0.8280 0.8280
13.599785 0.8280 0.8280 0.8274 0.8270 0.8258
13.632940 0.8238 0.8230 0.8239 0.8250 0.8250
13.666095 0.8250 0.8250 0.8242 0.8230 0.8230
13.699250 0.8246 0.8280 0.8269 0.8243 0.8227
13.732405 0.8214 0.8206 0.8223 0.8230 0.8230
13.765560 0.8230 0.8230 0.8229 0.8216 0.8179
13.798715 0.8169 0.8149 0.8130 0.8120 0.8100
13.831870 0.8071 0.8070 0.8070 0.8070 0.8050
13.865025 0.8050 0.8050 0.8022 0.7993 0.7990
13.898180 0.7990 0.7990 0.7959 0.7942 0.7925
13.931335 0.7920 0.7920 0.7906 0.7900 0.7894
13.964490 0.7890 0.7890 0.7877 0.7857 0.7850
13.997645 0.7850 0.7844 0.7817 0.7783 0.7770
14.030800 0.7760 0.7745 0.7740 0.7740 0.7740
14.063955 0.7740 0.7743 0.7750 0.7750 0.7750
14.097110 0.7747 0.7740 0.7730 0.7697 0.7693
14.130265 0.7705 0.7725 0.7747 0.7770 0.7766
14.163420 0.7750 0.7750 0.7749 0.7740 0.7739
14.196575 0.7700 0.7700 0.7700 0.7700 0.7700
14.229730 0.7700 0.7700 0.7700 0.7700 0.7700
14.262885 0.7700 0.7700 0.7717 0.7720 0.7720
14.296040 0.7720 0.7720 0.7720 0.7706 0.7693
14.329195 0.7690 0.7677 0.7670 0.7670 0.7653
14.362350 0.7629 0.7620 0.7620 0.7620 0.7609
14.395505 0.7583 0.7570 0.7560 0.7550 0.7550
14.428660 0.7550 0.7550 0.7550 0.7550 0.7556
14.461815 0.7570 0.7564 0.7550 0.7548 0.7535
14.494970 0.7524 0.7540 0.7542 0.7550 0.7550
14.528125 0.7550 0.7550 0.7550 0.7550 0.7550
14.561280 0.7552 0.7568 0.7548 0.7520 0.7520
14.594435 0.7501 0.7500 0.7500 0.7500 0.7491
14.627590 0.7473 0.7487 0.7474 0.7470 0.7453
14.660745 0.7467 0.7495 0.7500 0.7492 0.7459
14.693900 0.7450 0.7443 0.7440 0.7412 0.7394
14.727055 0.7390 0.7378 0.7359 0.7350 0.7334
14.760210 0.7305 0.7290 0.7281 0.7270 0.7261
14.793365 0.7245 0.7240 0.7231 0.7198 0.7162
14.826520 0.7130 0.7100 0.7096 0.7083 0.7070
14.859675 0.7065 0.7050 0.7048 0.7032 0.6998
14.892830 0.6987 0.6963 0.6916 0.6887 0.6858
14.925985 0.6837 0.6816 0.6790 0.6790 0.6792
14.959140 0.6822 0.6860 0.6860 0.6840 0.6820
14.992295 0.6775 0.6761 0.6743 0.6715 0.6694
15.025450 0.6650 0.6624 0.6620 0.6620 0.6620
15.058605 0.6612 0.6595 0.6590 0.6590 0.6576
15.091760 0.6549 0.6526 0.6513 0.6497 0.6490
15.124915 0.6501 0.6500 0.6490 0.6490 0.6490
15.158070 0.6490 0.6481 0.6470 0.6470 0.6478
15.191225 0.6490 0.6482 0.6466 0.6460 0.6453
15.224380 0.6430 0.6403 0.6390 0.6390 0.6390
15.257535 0.6397 0.6420 0.6420 0.6419 0.6410
15.290690 0.6408 0.6390 0.6389 0.6370 0.6370
15.323845 0.6370 0.6390 0.6390 0.6390 0.6390
15.357000 0.6390 0.6390 0.6371 0.6361 0.6360
15.390155 0.6360 0.6360 0.6368 0.6370 0.6370
15.423310 0.6363 0.6360 0.6367 0.6370
##END=
