##TITLE=p-Phenylenediamine, N-isopropyl-N'-phenyl
##JCAMP-DX=4.24
$$ By DXEDIT 1.05 (RS McDonald)
##DATA TYPE=INFRARED SPECTRUM
##CLASS=COBLENTZ III
##ORIGIN=DOW CHEMICAL COMPANY
##OWNER=COPYRIGHT (C) 1988 by COBLENTZ SOCIETY INC.
Collection (C) 2018 copyright by the U.S. Secretary of Commerce
on behalf of the United States of America. All rights reserved.
##DATE=1965/02/16
##NAMES=N<1>-isopropyl-N<4>-phenyl-1,4-benzenediamine
##CAS REGISTRY NO=101-72-4
##MOLFORM=C15 H18 N2
##MP=72 C
##SOURCE REFERENCE=COBLENTZ NO. 07681
##$NIST SOURCE=COBLENTZ
##$NIST IMAGE=cob7681
##SPECTROMETER/DATA SYSTEM=BECKMAN IR-9 (GRATING)
##INSTRUMENT PARAMETERS=ORDER CHANGES: 670, 1200, 2000 CM^-^1
##STATE=SOLID (SPLIT MULL), FLUOROLUBE FOR 3800-1330 CM^-^1, NUJOL FOR 1330-400 CM^-^1
##SAMPLING PROCEDURE=TRANSMISSION
##RESOLUTION=2
##DATA PROCESSING=DIGITIZED BY COBLENTZ SOCIETY (BATCH I) FROM HARD COPY
##XUNITS=1/CM
##YUNITS=TRANSMITTANCE
##XFACTOR=1
##YFACTOR=1
##DELTAX=1
##FIRSTX=3798
##LASTX=403
##FIRSTY=0.6093
##MAXX=3798
##MINX=403
##MAXY=0.9025
##MINY=0.0356
##NPOINTS=3396
##XYDATA=(X++(Y..Y))
3798.000000 0.6093 0.6093 0.6094 0.6095 0.6097
3793.000000 0.6098 0.6099 0.6100 0.6102 0.6103
3788.000000 0.6105 0.6106 0.6108 0.6109 0.6110
3783.000000 0.6112 0.6114 0.6115 0.6116 0.6117
3778.000000 0.6119 0.6120 0.6122 0.6123 0.6125
3773.000000 0.6126 0.6128 0.6129 0.6131 0.6132
3768.000000 0.6133 0.6134 0.6136 0.6137 0.6139
3763.000000 0.6140 0.6142 0.6143 0.6145 0.6146
3758.000000 0.6148 0.6149 0.6150 0.6151 0.6153
3753.000000 0.6155 0.6157 0.6159 0.6160 0.6162
3748.000000 0.6164 0.6166 0.6168 0.6170 0.6172
3743.000000 0.6173 0.6175 0.6177 0.6179 0.6181
3738.000000 0.6183 0.6185 0.6187 0.6188 0.6190
3733.000000 0.6192 0.6194 0.6196 0.6198 0.6199
3728.000000 0.6201 0.6203 0.6205 0.6207 0.6209
3723.000000 0.6210 0.6212 0.6212 0.6215 0.6216
3718.000000 0.6218 0.6219 0.6221 0.6222 0.6224
3713.000000 0.6225 0.6227 0.6229 0.6231 0.6232
3708.000000 0.6234 0.6235 0.6237 0.6238 0.6240
3703.000000 0.6241 0.6243 0.6244 0.6246 0.6247
3698.000000 0.6249 0.6250 0.6252 0.6253 0.6255
3693.000000 0.6256 0.6258 0.6259 0.6260 0.6262
3688.000000 0.6264 0.6265 0.6267 0.6268 0.6270
3683.000000 0.6271 0.6273 0.6275 0.6277 0.6278
3678.000000 0.6279 0.6280 0.6281 0.6282 0.6283
3673.000000 0.6284 0.6285 0.6286 0.6287 0.6288
3668.000000 0.6289 0.6290 0.6291 0.6292 0.6293
3663.000000 0.6294 0.6295 0.6296 0.6297 0.6298
3658.000000 0.6299 0.6300 0.6301 0.6301 0.6302
3653.000000 0.6303 0.6304 0.6305 0.6306 0.6307
3648.000000 0.6308 0.6309 0.6310 0.6310 0.6312
3643.000000 0.6312 0.6314 0.6315 0.6316 0.6317
3638.000000 0.6318 0.6318 0.6319 0.6319 0.6320
3633.000000 0.6320 0.6321 0.6322 0.6323 0.6323
3628.000000 0.6324 0.6324 0.6325 0.6325 0.6326
3623.000000 0.6326 0.6327 0.6328 0.6329 0.6329
3618.000000 0.6330 0.6330 0.6331 0.6331 0.6332
3613.000000 0.6333 0.6334 0.6334 0.6335 0.6335
3608.000000 0.6336 0.6336 0.6337 0.6337 0.6338
3603.000000 0.6338 0.6339 0.6339 0.6340 0.6340
3598.000000 0.6341 0.6341 0.6341 0.6341 0.6342
3593.000000 0.6342 0.6343 0.6343 0.6343 0.6343
3588.000000 0.6344 0.6344 0.6345 0.6345 0.6346
3583.000000 0.6346 0.6346 0.6346 0.6347 0.6347
3578.000000 0.6348 0.6348 0.6349 0.6349 0.6349
3573.000000 0.6349 0.6350 0.6350 0.6351 0.6351
3568.000000 0.6352 0.6352 0.6352 0.6352 0.6353
3563.000000 0.6353 0.6354 0.6354 0.6354 0.6354
3558.000000 0.6354 0.6354 0.6354 0.6354 0.6354
3553.000000 0.6354 0.6354 0.6354 0.6354 0.6354
3548.000000 0.6354 0.6354 0.6354 0.6353 0.6353
3543.000000 0.6353 0.6353 0.6353 0.6353 0.6353
3538.000000 0.6353 0.6353 0.6353 0.6353 0.6353
3533.000000 0.6353 0.6353 0.6353 0.6353 0.6353
3528.000000 0.6353 0.6353 0.6353 0.6353 0.6353
3523.000000 0.6353 0.6353 0.6353 0.6353 0.6353
3518.000000 0.6354 0.6354 0.6354 0.6354 0.6354
3513.000000 0.6354 0.6354 0.6354 0.6354 0.6354
3508.000000 0.6354 0.6354 0.6355 0.6355 0.6355
3503.000000 0.6354 0.6354 0.6353 0.6352 0.6350
3498.000000 0.6349 0.6348 0.6347 0.6345 0.6344
3493.000000 0.6343 0.6342 0.6340 0.6328 0.6337
3488.000000 0.6336 0.6335 0.6334 0.6332 0.6331
3483.000000 0.6330 0.6329 0.6327 0.6326 0.6324
3478.000000 0.6323 0.6322 0.6321 0.6320 0.6319
3473.000000 0.6318 0.6317 0.6316 0.6315 0.6314
3468.000000 0.6314 0.6312 0.6312 0.6310 0.6310
3463.000000 0.6309 0.6309 0.6308 0.6307 0.6306
3458.000000 0.6305 0.6304 0.6303 0.6302 0.6301
3453.000000 0.6300 0.6299 0.6298 0.6297 0.6296
3448.000000 0.6295 0.6294 0.6293 0.6291 0.6290
3443.000000 0.6288 0.6287 0.6285 0.6283 0.6281
3438.000000 0.6280 0.6278 0.6277 0.6274 0.6271
3433.000000 0.6267 0.6264 0.6260 0.6258 0.6253
3428.000000 0.6249 0.6244 0.6239 0.6229 0.6219
3423.000000 0.6207 0.6195 0.6182 0.6170 0.6153
3418.000000 0.6136 0.6106 0.6077 0.6029 0.5981
3413.000000 0.5876 0.5771 0.5722 0.5673 0.5480
3408.000000 0.5288 0.5065 0.4329 0.4621 0.4399
3403.000000 0.4367 0.4336 0.4403 0.4470 0.4595
3398.000000 0.4720 0.4845 0.4971 0.5096 0.5221
3393.000000 0.5243 0.5265 0.5114 0.5288 0.4675
3388.000000 0.4388 0.4100 0.3812 0.3524 0.3237
3383.000000 0.2949 0.2661 0.2460 0.2260 0.2257
3378.000000 0.2254 0.2548 0.2842 0.3139 0.3437
3373.000000 0.3734 0.4032 0.4330 0.4628 0.5012
3368.000000 0.5396 0.5471 0.5547 0.5591 0.5635
3363.000000 0.5671 0.5708 0.5730 0.5752 0.5773
3358.000000 0.5795 0.5816 0.5838 0.5860 0.5882
3353.000000 0.5894 0.5907 0.5915 0.5924 0.5932
3348.000000 0.5941 0.5949 0.5958 0.5966 0.5975
3343.000000 0.5984 0.5993 0.6001 0.6009 0.6014
3338.000000 0.6020 0.6025 0.6030 0.6035 0.6040
3333.000000 0.6045 0.6050 0.6055 0.6060 0.6066
3328.000000 0.6071 0.6076 0.6081 0.6086 0.6092
3323.000000 0.6097 0.6102 0.6107 0.6112 0.6116
3318.000000 0.6121 0.6125 0.6129 0.6133 0.6137
3313.000000 0.6141 0.6145 0.6149 0.6153 0.6157
3308.000000 0.6160 0.6165 0.6170 0.6174 0.6178
3303.000000 0.6182 0.6186 0.6190 0.6194 0.6198
3298.000000 0.6202 0.6206 0.6210 0.6214 0.6218
3293.000000 0.6222 0.6226 0.6229 0.6233 0.6236
3288.000000 0.6240 0.6243 0.6247 0.6250 0.6254
3283.000000 0.6257 0.6260 0.6264 0.6268 0.6271
3278.000000 0.6275 0.6278 0.6282 0.6286 0.6290
3273.000000 0.6293 0.6297 0.6300 0.6304 0.6307
3268.000000 0.6310 0.6314 0.6318 0.6321 0.6324
3263.000000 0.6327 0.6330 0.6333 0.6336 0.6339
3258.000000 0.6342 0.6345 0.6348 0.6351 0.6354
3253.000000 0.6356 0.6359 0.6362 0.6365 0.6368
3248.000000 0.6371 0.6374 0.6377 0.6380 0.6383
3243.000000 0.6386 0.6389 0.6392 0.6395 0.6398
3238.000000 0.6401 0.6404 0.6407 0.6408 0.6411
3233.000000 0.6412 0.6415 0.6417 0.6418 0.6419
3228.000000 0.6421 0.6422 0.6425 0.6425 0.6428
3223.000000 0.6430 0.6432 0.6433 0.6435 0.6436
3218.000000 0.6438 0.6439 0.6441 0.6443 0.6445
3213.000000 0.6446 0.6448 0.6449 0.6451 0.6453
3208.000000 0.6455 0.6456 0.6458 0.6461 0.6464
3203.000000 0.6467 0.6469 0.6472 0.6476 0.6480
3198.000000 0.6483 0.6486 0.6489 0.6492 0.6496
3193.000000 0.6499 0.6501 0.6505 0.6508 0.6511
3188.000000 0.6514 0.6517 0.6521 0.6524 0.6526
3183.000000 0.6530 0.6534 0.6537 0.6540 0.6543
3178.000000 0.6546 0.6549 0.6553 0.6556 0.6558
3173.000000 0.6561 0.6565 0.6568 0.6571 0.6575
3168.000000 0.6578 0.6582 0.6585 0.6588 0.6591
3163.000000 0.6592 0.6594 0.6594 0.6595 0.6595
3158.000000 0.6596 0.6597 0.6598 0.6598 0.6599
3153.000000 0.6599 0.6600 0.6600 0.6601 0.6601
3148.000000 0.6603 0.6603 0.6604 0.6604 0.6605
3143.000000 0.6605 0.6606 0.6606 0.6607 0.6607
3138.000000 0.6607 0.6607 0.6607 0.6607 0.6607
3133.000000 0.6607 0.6607 0.6607 0.6607 0.6607
3128.000000 0.6607 0.6607 0.6608 0.6608 0.6608
3123.000000 0.6608 0.6608 0.6608 0.6608 0.6608
3118.000000 0.6608 0.6608 0.6608 0.6608 0.6608
3113.000000 0.6608 0.6608 0.6608 0.6608 0.6607
3108.000000 0.6607 0.6606 0.6606 0.6606 0.6606
3103.000000 0.6605 0.6605 0.6605 0.6605 0.6604
3098.000000 0.6604 0.6601 0.6599 0.6597 0.6595
3093.000000 0.6592 0.6590 0.6588 0.6586 0.6583
3088.000000 0.6581 0.6578 0.6576 0.6574 0.6571
3083.000000 0.6567 0.6561 0.6557 0.6551 0.6547
3078.000000 0.6543 0.6538 0.6533 0.6528 0.6524
3073.000000 0.6518 0.6514 0.6505 0.6496 0.6486
3068.000000 0.6475 0.6465 0.6456 0.6446 0.6437
3063.000000 0.6428 0.6418 0.6410 0.6401 0.6392
3058.000000 0.6384 0.6375 0.6366 0.6357 0.6349
3053.000000 0.6338 0.6327 0.6316 0.6306 0.6295
3048.000000 0.6285 0.6274 0.6264 0.6253 0.6243
3043.000000 0.6232 0.6222 0.6197 0.6173 0.6140
3038.000000 0.6108 0.6079 0.6051 0.6044 0.6037
3033.000000 0.6036 0.6036 0.6037 0.6040 0.6082
3028.000000 0.6124 0.6153 0.6183 0.6210 0.6240
3023.000000 0.6266 0.6293 0.6312 0.6332 0.6351
3018.000000 0.6370 0.6384 0.6399 0.6410 0.6421
3013.000000 0.6431 0.6442 0.6451 0.6462 0.6469
3008.000000 0.6476 0.6483 0.6490 0.6493 0.6497
3003.000000 0.6500 0.6503 0.6506 0.6508 0.6511
2998.000000 0.6512 0.6512 0.6511 0.6511 0.6511
2993.000000 0.6507 0.6501 0.6497 0.6492 0.6469
2988.000000 0.6448 0.6335 0.6222 0.5974 0.5726
2983.000000 0.5541 0.5357 0.5340 0.5324 0.5317
2978.000000 0.5310 0.5304 0.5299 0.5294 0.5289
2973.000000 0.5192 0.5095 0.4955 0.4815 0.4674
2968.000000 0.4460 0.4492 0.4450 0.4450 0.4450
2963.000000 0.4572 0.4695 0.4904 0.5112 0.5321
2958.000000 0.5530 0.5739 0.5948 0.6008 0.6069
2953.000000 0.6087 0.6105 0.6114 0.6123 0.6122
2948.000000 0.6121 0.6127 0.6128 0.6120 0.6112
2943.000000 0.6100 0.6089 0.6064 0.6040 0.6014
2938.000000 0.5988 0.5969 0.5942 0.5945 0.5940
2933.000000 0.5941 0.5942 0.5960 0.5979 0.5997
2928.000000 0.6016 0.6031 0.6047 0.6062 0.6078
2923.000000 0.6093 0.6108 0.6123 0.6139 0.6157
2918.000000 0.6175 0.6195 0.6215 0.6234 0.6254
2913.000000 0.6269 0.6284 0.6297 0.6310 0.6325
2908.000000 0.6339 0.6352 0.6366 0.6376 0.6387
2903.000000 0.6396 0.6406 0.6415 0.6424 0.6425
2898.000000 0.6428 0.6431 0.6431 0.6432 0.6445
2893.000000 0.6428 0.6426 0.6425 0.6422 0.6410
2888.000000 0.6397 0.6378 0.6359 0.6330 0.6301
2883.000000 0.6255 0.6210 0.6158 0.6106 0.6072
2878.000000 0.6039 0.6022 0.6005 0.5996 0.5969
2873.000000 0.5986 0.5986 0.5986 0.5988 0.6016
2868.000000 0.6044 0.6126 0.6208 0.6234 0.6260
2863.000000 0.6286 0.6312 0.6337 0.6362 0.6386
2858.000000 0.6410 0.6433 0.6456 0.6478 0.6501
2853.000000 0.6524 0.6547 0.6568 0.6591 0.6612
2848.000000 0.6635 0.6657 0.6678 0.6696 0.6712
2843.000000 0.6728 0.6744 0.6758 0.6775 0.6790
2838.000000 0.6806 0.6815 0.6825 0.6835 0.6845
2833.000000 0.6851 0.6860 0.6864 0.6868 0.6874
2828.000000 0.6878 0.6883 0.6888 0.6892 0.6897
2823.000000 0.6901 0.6906 0.6911 0.6917 0.6922
2818.000000 0.6928 0.6935 0.6941 0.6947 0.6953
2813.000000 0.6958 0.6964 0.6969 0.6975 0.6982
2808.000000 0.6988 0.6993 0.6999 0.7005 0.7011
2803.000000 0.7017 0.7022 0.7028 0.7033 0.7038
2798.000000 0.7043 0.7047 0.7051 0.7056 0.7061
2793.000000 0.7065 0.7069 0.7074 0.7078 0.7083
2788.000000 0.7088 0.7092 0.7097 0.7101 0.7106
2783.000000 0.7110 0.7115 0.7118 0.7124 0.7128
2778.000000 0.7134 0.7138 0.7143 0.7145 0.7148
2773.000000 0.7151 0.7154 0.7156 0.7158 0.7161
2768.000000 0.7165 0.7167 0.7169 0.7172 0.7175
2763.000000 0.7178 0.7182 0.7184 0.7187 0.7190
2758.000000 0.7193 0.7195 0.7198 0.7201 0.7204
2753.000000 0.7206 0.7208 0.7211 0.7215 0.7217
2748.000000 0.7219 0.7222 0.7225 0.7228 0.7231
2743.000000 0.7234 0.7237 0.7239 0.7242 0.7244
2738.000000 0.7246 0.7248 0.7250 0.7251 0.7254
2733.000000 0.7256 0.7258 0.7260 0.7262 0.7265
2728.000000 0.7267 0.7268 0.7271 0.7272 0.7275
2723.000000 0.7276 0.7278 0.7281 0.7283 0.7285
2718.000000 0.7287 0.7289 0.7291 0.7293 0.7295
2713.000000 0.7297 0.7299 0.7301 0.7303 0.7305
2708.000000 0.7307 0.7308 0.7311 0.7312 0.7315
2703.000000 0.7318 0.7319 0.7321 0.7324 0.7325
2698.000000 0.7328 0.7330 0.7332 0.7334 0.7336
2693.000000 0.7338 0.7341 0.7343 0.7345 0.7347
2688.000000 0.7350 0.7351 0.7355 0.7357 0.7358
2683.000000 0.7361 0.7364 0.7365 0.7368 0.7371
2678.000000 0.7372 0.7375 0.7378 0.7380 0.7383
2673.000000 0.7385 0.7387 0.7389 0.7392 0.7394
2668.000000 0.7397 0.7399 0.7401 0.7403 0.7405
2663.000000 0.7407 0.7410 0.7411 0.7414 0.7415
2658.000000 0.7418 0.7419 0.7421 0.7421 0.7422
2653.000000 0.7422 0.7424 0.7424 0.7425 0.7425
2648.000000 0.7425 0.7424 0.7424 0.7424 0.7424
2643.000000 0.7422 0.7422 0.7421 0.7421 0.7421
2638.000000 0.7421 0.7421 0.7421 0.7419 0.7418
2633.000000 0.7418 0.7418 0.7418 0.7419 0.7421
2628.000000 0.7422 0.7424 0.7425 0.7426 0.7428
2623.000000 0.7430 0.7431 0.7432 0.7434 0.7436
2618.000000 0.7438 0.7439 0.7441 0.7442 0.7444
2613.000000 0.7445 0.7447 0.7448 0.7450 0.7451
2608.000000 0.7451 0.7453 0.7454 0.7455 0.7457
2603.000000 0.7458 0.7458 0.7460 0.7461 0.7461
2598.000000 0.7462 0.7464 0.7465 0.7467 0.7468
2593.000000 0.7468 0.7469 0.7471 0.7472 0.7474
2588.000000 0.7475 0.7475 0.7476 0.7478 0.7478
2583.000000 0.7480 0.7482 0.7483 0.7484 0.7485
2578.000000 0.7486 0.7487 0.7489 0.7490 0.7491
2573.000000 0.7492 0.7493 0.7494 0.7496 0.7498
2568.000000 0.7501 0.7504 0.7507 0.7508 0.7511
2563.000000 0.7514 0.7517 0.7519 0.7522 0.7525
2558.000000 0.7528 0.7531 0.7534 0.7536 0.7539
2553.000000 0.7542 0.7545 0.7547 0.7550 0.7553
2548.000000 0.7556 0.7558 0.7561 0.7564 0.7567
2543.000000 0.7569 0.7572 0.7575 0.7578 0.7581
2538.000000 0.7584 0.7586 0.7589 0.7591 0.7594
2533.000000 0.7596 0.7599 0.7601 0.7605 0.7607
2528.000000 0.7610 0.7611 0.7615 0.7617 0.7619
2523.000000 0.7622 0.7625 0.7628 0.7630 0.7631
2518.000000 0.7633 0.7634 0.7635 0.7636 0.7638
2513.000000 0.7639 0.7640 0.7641 0.7643 0.7644
2508.000000 0.7645 0.7646 0.7648 0.7649 0.7650
2503.000000 0.7651 0.7653 0.7654 0.7655 0.7656
2498.000000 0.7657 0.7658 0.7660 0.7661 0.7661
2493.000000 0.7662 0.7664 0.7665 0.7665 0.7667
2488.000000 0.7668 0.7668 0.7669 0.7671 0.7671
2483.000000 0.7672 0.7674 0.7675 0.7675 0.7676
2478.000000 0.7678 0.7678 0.7678 0.7680 0.7681
2473.000000 0.7682 0.7683 0.7684 0.7685 0.7686
2468.000000 0.7687 0.7687 0.7688 0.7689 0.7690
2463.000000 0.7691 0.7692 0.7692 0.7693 0.7694
2458.000000 0.7695 0.7696 0.7697 0.7697 0.7698
2453.000000 0.7699 0.7700 0.7701 0.7701 0.7701
2448.000000 0.7703 0.7704 0.7705 0.7706 0.7707
2443.000000 0.7707 0.7708 0.7708 0.7710 0.7710
2438.000000 0.7710 0.7708 0.7708 0.7707 0.7706
2433.000000 0.7705 0.7705 0.7704 0.7703 0.7701
2428.000000 0.7701 0.7700 0.7699 0.7698 0.7697
2423.000000 0.7696 0.7696 0.7695 0.7694 0.7693
2418.000000 0.7692 0.7691 0.7691 0.7692 0.7693
2413.000000 0.7693 0.7694 0.7694 0.7695 0.7695
2408.000000 0.7696 0.7696 0.7697 0.7697 0.7698
2403.000000 0.7699 0.7700 0.7701 0.7703 0.7704
2398.000000 0.7706 0.7707 0.7708 0.7708 0.7711
2393.000000 0.7711 0.7714 0.7715 0.7718 0.7719
2388.000000 0.7721 0.7737 0.7751 0.7768 0.7785
2383.000000 0.7800 0.7815 0.7826 0.7838 0.7848
2378.000000 0.7858 0.7869 0.7881 0.7878 0.7878
2373.000000 0.7875 0.7872 0.7869 0.7868 0.7865
2368.000000 0.7861 0.7858 0.7855 0.7851 0.7849
2363.000000 0.7846 0.7843 0.7840 0.7837 0.7834
2358.000000 0.7831 0.7828 0.7825 0.7822 0.7821
2353.000000 0.7818 0.7815 0.7811 0.7810 0.7808
2348.000000 0.7806 0.7805 0.7805 0.7804 0.7804
2343.000000 0.7803 0.7803 0.7801 0.7801 0.7801
2338.000000 0.7801 0.7801 0.7801 0.7800 0.7800
2333.000000 0.7799 0.7799 0.7798 0.7798 0.7798
2328.000000 0.7798 0.7799 0.7801 0.7801 0.7804
2323.000000 0.7805 0.7806 0.7807 0.7808 0.7810
2318.000000 0.7811 0.7812 0.7814 0.7815 0.7817
2313.000000 0.7818 0.7819 0.7821 0.7822 0.7824
2308.000000 0.7825 0.7826 0.7828 0.7830 0.7832
2303.000000 0.7833 0.7835 0.7836 0.7838 0.7839
2298.000000 0.7841 0.7842 0.7844 0.7845 0.7847
2293.000000 0.7848 0.7850 0.7851 0.7854 0.7857
2288.000000 0.7860 0.7861 0.7865 0.7868 0.7871
2283.000000 0.7874 0.7876 0.7878 0.7882 0.7885
2278.000000 0.7888 0.7891 0.7894 0.7896 0.7899
2273.000000 0.7901 0.7905 0.7908 0.7911 0.7912
2268.000000 0.7915 0.7918 0.7921 0.7925 0.7928
2263.000000 0.7930 0.7932 0.7934 0.7937 0.7939
2258.000000 0.7942 0.7944 0.7946 0.7948 0.7951
2253.000000 0.7953 0.7956 0.7958 0.7960 0.7961
2248.000000 0.7965 0.7967 0.7968 0.7971 0.7974
2243.000000 0.7975 0.7978 0.7981 0.7983 0.7986
2238.000000 0.7990 0.7994 0.7999 0.8003 0.8007
2233.000000 0.8011 0.8015 0.8019 0.8025 0.8028
2228.000000 0.8033 0.8037 0.8042 0.8046 0.8050
2223.000000 0.8054 0.8058 0.8062 0.8067 0.8069
2218.000000 0.8074 0.8076 0.8080 0.8083 0.8086
2213.000000 0.8089 0.8092 0.8094 0.8097 0.8100
2208.000000 0.8103 0.8106 0.8108 0.8111 0.8115
2203.000000 0.8118 0.8121 0.8124 0.8126 0.8130
2198.000000 0.8133 0.8135 0.8138 0.8141 0.8144
2193.000000 0.8146 0.8148 0.8150 0.8153 0.8155
2188.000000 0.8157 0.8158 0.8161 0.8162 0.8165
2183.000000 0.8168 0.8169 0.8171 0.8175 0.8176
2178.000000 0.8178 0.8181 0.8183 0.8185 0.8188
2173.000000 0.8190 0.8192 0.8194 0.8197 0.8199
2168.000000 0.8201 0.8203 0.8205 0.8206 0.8208
2163.000000 0.8210 0.8212 0.8213 0.8215 0.8217
2158.000000 0.8218 0.8220 0.8221 0.8223 0.8225
2153.000000 0.8227 0.8228 0.8230 0.8232 0.8234
2148.000000 0.8236 0.8237 0.8239 0.8240 0.8242
2143.000000 0.8244 0.8246 0.8247 0.8249 0.8251
2138.000000 0.8253 0.8254 0.8256 0.8257 0.8259
2133.000000 0.8261 0.8263 0.8264 0.8266 0.8268
2128.000000 0.8270 0.8271 0.8273 0.8274 0.8275
2123.000000 0.8277 0.8278 0.8281 0.8283 0.8284
2118.000000 0.8286 0.8287 0.8289 0.8291 0.8293
2113.000000 0.8294 0.8296 0.8297 0.8299 0.8300
2108.000000 0.8302 0.8304 0.8306 0.8307 0.8309
2103.000000 0.8310 0.8312 0.8314 0.8316 0.8317
2098.000000 0.8318 0.8320 0.8321 0.8324 0.8325
2093.000000 0.8328 0.8331 0.8333 0.8335 0.8337
2088.000000 0.8339 0.8341 0.8344 0.8346 0.8348
2083.000000 0.8350 0.8353 0.8355 0.8357 0.8359
2078.000000 0.8361 0.8363 0.8366 0.8368 0.8370
2073.000000 0.8371 0.8375 0.8377 0.8378 0.8381
2068.000000 0.8383 0.8385 0.8388 0.8389 0.8391
2063.000000 0.8392 0.8394 0.8395 0.8397 0.8398
2058.000000 0.8400 0.8401 0.8403 0.8404 0.8406
2053.000000 0.8407 0.8409 0.8410 0.8412 0.8413
2048.000000 0.8415 0.8416 0.8418 0.8418 0.8421
2043.000000 0.8421 0.8424 0.8425 0.8427 0.8428
2038.000000 0.8430 0.8431 0.8433 0.8434 0.8436
2033.000000 0.8437 0.8439 0.8440 0.8442 0.8444
2028.000000 0.8446 0.8447 0.8449 0.8451 0.8453
2023.000000 0.8455 0.8457 0.8459 0.8461 0.8463
2018.000000 0.8465 0.8467 0.8468 0.8471 0.8473
2013.000000 0.8475 0.8477 0.8481 0.8486 0.8491
2008.000000 0.8497 0.8502 0.8508 0.8513 0.8518
2003.000000 0.8523 0.8528 0.8536 0.8544 0.8551
1998.000000 0.8558 0.8564 0.8571 0.8578 0.8584
1993.000000 0.8591 0.8598 0.8601 0.8604 0.8607
1988.000000 0.8609 0.8612 0.8615 0.8618 0.8620
1983.000000 0.8623 0.8625 0.8628 0.8631 0.8633
1978.000000 0.8635 0.8636 0.8638 0.8640 0.8642
1973.000000 0.8643 0.8645 0.8645 0.8644 0.8644
1968.000000 0.8644 0.8644 0.8644 0.8644 0.8643
1963.000000 0.8641 0.8640 0.8639 0.8638 0.8637
1958.000000 0.8635 0.8631 0.8628 0.8623 0.8617
1953.000000 0.8611 0.8604 0.8598 0.8588 0.8578
1948.000000 0.8568 0.8554 0.8545 0.8540 0.8535
1943.000000 0.8531 0.8545 0.8559 0.8568 0.8574
1938.000000 0.8575 0.8570 0.8564 0.8558 0.8549
1933.000000 0.8541 0.8532 0.8525 0.8523 0.8521
1928.000000 0.8518 0.8517 0.8532 0.8547 0.8562
1923.000000 0.8571 0.8580 0.8588 0.8597 0.8605
1918.000000 0.8611 0.8614 0.8617 0.8620 0.8624
1913.000000 0.8627 0.8630 0.8633 0.8637 0.8640
1908.000000 0.8643 0.8646 0.8650 0.8653 0.8657
1903.000000 0.8660 0.8663 0.8667 0.8665 0.8663
1898.000000 0.8661 0.8659 0.8657 0.8655 0.8646
1893.000000 0.8634 0.8621 0.8610 0.8598 0.8592
1888.000000 0.8595 0.8597 0.8600 0.8602 0.8605
1883.000000 0.8607 0.8610 0.8612 0.8615 0.8615
1878.000000 0.8613 0.8612 0.8611 0.8610 0.8609
1873.000000 0.8609 0.8608 0.8607 0.8606 0.8605
1868.000000 0.8605 0.8606 0.8606 0.8610 0.8613
1863.000000 0.8616 0.8620 0.8623 0.8625 0.8627
1858.000000 0.8628 0.8628 0.8628 0.8630 0.8630
1853.000000 0.8630 0.8625 0.8621 0.8617 0.8612
1848.000000 0.8607 0.8597 0.8587 0.8577 0.8567
1843.000000 0.8557 0.8554 0.8551 0.8548 0.8546
1838.000000 0.8550 0.8557 0.8564 0.8571 0.8578
1833.000000 0.8598 0.8631 0.8664 0.8689 0.8713
1828.000000 0.8737 0.8761 0.8784 0.8808 0.8808
1823.000000 0.8808 0.8803 0.8798 0.8794 0.8789
1818.000000 0.8784 0.8780 0.8775 0.8770 0.8767
1813.000000 0.8764 0.8762 0.8759 0.8757 0.8754
1808.000000 0.8751 0.8749 0.8746 0.8744 0.8741
1803.000000 0.8738 0.8736 0.8733 0.8731 0.8728
1798.000000 0.8728 0.8727 0.8728 0.8728 0.8730
1793.000000 0.8731 0.8732 0.8733 0.8735 0.8736
1788.000000 0.8737 0.8738 0.8739 0.8740 0.8745
1783.000000 0.8750 0.8756 0.8761 0.8766 0.8771
1778.000000 0.8775 0.8780 0.8782 0.8784 0.8786
1773.000000 0.8788 0.8789 0.8791 0.8793 0.8795
1768.000000 0.8797 0.8799 0.8801 0.8802 0.8804
1763.000000 0.8804 0.8804 0.8804 0.8805 0.8805
1758.000000 0.8805 0.8805 0.8805 0.8805 0.8805
1753.000000 0.8805 0.8806 0.8806 0.8806 0.8806
1748.000000 0.8806 0.8805 0.8804 0.8804 0.8803
1743.000000 0.8802 0.8802 0.8801 0.8801 0.8800
1738.000000 0.8799 0.8799 0.8798 0.8797 0.8793
1733.000000 0.8787 0.8781 0.8774 0.8768 0.8762
1728.000000 0.8755 0.8749 0.8743 0.8736 0.8730
1723.000000 0.8723 0.8713 0.8703 0.8694 0.8684
1718.000000 0.8674 0.8665 0.8655 0.8645 0.8636
1713.000000 0.8627 0.8620 0.8613 0.8605 0.8598
1708.000000 0.8591 0.8583 0.8575 0.8568 0.8562
1703.000000 0.8554 0.8548 0.8544 0.8541 0.8538
1698.000000 0.8534 0.8531 0.8527 0.8524 0.8520
1693.000000 0.8517 0.8513 0.8510 0.8510 0.8509
1688.000000 0.8509 0.8508 0.8508 0.8507 0.8507
1683.000000 0.8506 0.8506 0.8506 0.8507 0.8507
1678.000000 0.8507 0.8508 0.8508 0.8508 0.8508
1673.000000 0.8507 0.8505 0.8504 0.8502 0.8501
1668.000000 0.8499 0.8497 0.8496 0.8494 0.8492
1663.000000 0.8491 0.8489 0.8487 0.8486 0.8483
1658.000000 0.8478 0.8475 0.8471 0.8467 0.8463
1653.000000 0.8462 0.8462 0.8462 0.8462 0.8462
1648.000000 0.8457 0.8450 0.8443 0.8437 0.8423
1643.000000 0.8407 0.8392 0.8374 0.8353 0.8305
1638.000000 0.8255 0.8184 0.8112 0.7988 0.7901
1633.000000 0.7851 0.7801 0.7736 0.7600 0.7410
1628.000000 0.7178 0.6947 0.6715 0.6483 0.6252
1623.000000 0.6020 0.5882 0.5885 0.6017 0.6140
1618.000000 0.6262 0.6386 0.6508 0.6632 0.6755
1613.000000 0.6800 0.6586 0.6290 0.5995 0.5700
1608.000000 0.5405 0.5109 0.4814 0.4519 0.4223
1603.000000 0.3928 0.3402 0.3421 0.3412 0.3558
1598.000000 0.3879 0.4201 0.4523 0.4844 0.5166
1593.000000 0.5488 0.5809 0.6131 0.6396 0.6407
1588.000000 0.6424 0.6571 0.6718 0.6865 0.7012
1583.000000 0.7101 0.7171 0.7242 0.7301 0.7360
1578.000000 0.7417 0.7475 0.7533 0.7603 0.7671
1573.000000 0.7742 0.7806 0.7858 0.7907 0.7933
1568.000000 0.7958 0.7985 0.8011 0.8037 0.8057
1563.000000 0.8076 0.8092 0.8105 0.8115 0.8137
1558.000000 0.8125 0.8122 0.8119 0.8117 0.8114
1553.000000 0.8104 0.8094 0.8083 0.8071 0.8053
1548.000000 0.8024 0.7994 0.7965 0.7936 0.7892
1543.000000 0.7832 0.7772 0.7712 0.7654 0.7590
1538.000000 0.7485 0.7380 0.7262 0.7047 0.6792
1533.000000 0.6380 0.4649 0.3580 0.3426 0.3230
1528.000000 0.2813 0.2397 0.1979 0.1563 0.1146
1523.000000 0.0730 0.0379 0.0356 0.0356 0.0366
1518.000000 0.0403 0.0654 0.1087 0.1520 0.1953
1513.000000 0.2385 0.2819 0.3252 0.3684 0.3948
1508.000000 0.3948 0.3740 0.3366 0.2993 0.2619
1503.000000 0.1915 0.1896 0.1896 0.2109 0.2545
1498.000000 0.2960 0.3014 0.3069 0.3355 0.4077
1493.000000 0.4359 0.4641 0.4889 0.5012 0.5224
1488.000000 0.5394 0.5518 0.5643 0.5787 0.5929
1483.000000 0.6014 0.6100 0.6180 0.6244 0.6306
1478.000000 0.6352 0.6378 0.6397 0.6407 0.6415
1473.000000 0.6418 0.6418 0.6418 0.6386 0.6333
1468.000000 0.6321 0.6331 0.6389 0.6490 0.6595
1463.000000 0.6719 0.6828 0.6858 0.6861 0.6861
1458.000000 0.6861 0.6871 0.6884 0.6921 0.6965
1453.000000 0.7001 0.7021 0.7041 0.7061 0.7081
1448.000000 0.7099 0.7115 0.7133 0.7149 0.7165
1443.000000 0.7183 0.7199 0.7214 0.7228 0.7244
1438.000000 0.7258 0.7274 0.7289 0.7306 0.7321
1433.000000 0.7339 0.7356 0.7372 0.7390 0.7408
1428.000000 0.7431 0.7451 0.7472 0.7493 0.7506
1423.000000 0.7518 0.7532 0.7544 0.7548 0.7551
1418.000000 0.7553 0.7553 0.7546 0.7533 0.7515
1413.000000 0.7482 0.7431 0.7365 0.7299 0.7225
1408.000000 0.7146 0.7036 0.6886 0.6681 0.6655
1403.000000 0.6662 0.6691 0.6786 0.6886 0.6975
1398.000000 0.7054 0.7094 0.7118 0.7135 0.7151
1393.000000 0.7141 0.7132 0.7099 0.6757 0.6240
1388.000000 0.5724 0.5022 0.4996 0.4995 0.5488
1383.000000 0.5982 0.6475 0.6960 0.7028 0.7057
1378.000000 0.7076 0.7097 0.7091 0.7086 0.7081
1373.000000 0.7061 0.7030 0.6735 0.5728 0.5717
1368.000000 0.6032 0.6651 0.6984 0.7037 0.7058
1363.000000 0.7076 0.7081 0.7081 0.7081 0.7069
1358.000000 0.7058 0.7022 0.6984 0.6928 0.6849
1353.000000 0.6731 0.6622 0.6456 0.6176 0.6018
1348.000000 0.6004 0.5993 0.5993 0.6005 0.6036
1343.000000 0.6103 0.6199 0.6284 0.6325 0.6338
1338.000000 0.6341 0.6342 0.6336 0.6336 0.6312
1333.000000 0.6267 0.6088 0.5925 0.5377 0.4987
1328.000000 0.4597 0.4207 0.3816 0.3427 0.3037
1323.000000 0.2647 0.2256 0.1866 0.1476 0.1086
1318.000000 0.0494 0.0492 0.0486 0.0684 0.0991
1313.000000 0.1298 0.1606 0.2529 0.2528 0.2528
1308.000000 0.2515 0.2343 0.1965 0.1588 0.1210
1303.000000 0.0832 0.0607 0.0592 0.0588 0.0824
1298.000000 0.1119 0.1414 0.1709 0.2004 0.2300
1293.000000 0.2595 0.2890 0.3184 0.3480 0.4060
1288.000000 0.4249 0.4408 0.4560 0.4707 0.4952
1283.000000 0.5122 0.5271 0.5444 0.5444 0.5443
1278.000000 0.5340 0.5222 0.5104 0.4985 0.4887
1273.000000 0.4887 0.4894 0.5219 0.5635 0.5834
1268.000000 0.5947 0.6037 0.6082 0.6122 0.6139
1263.000000 0.6156 0.6173 0.6197 0.6227 0.6267
1258.000000 0.6303 0.6335 0.6357 0.6372 0.6394
1253.000000 0.6384 0.6373 0.6291 0.6015 0.5767
1248.000000 0.5666 0.5553 0.5417 0.5257 0.5075
1243.000000 0.4564 0.3570 0.2576 0.2276 0.2304
1238.000000 0.2458 0.2704 0.2950 0.3196 0.3442
1233.000000 0.3688 0.3934 0.4180 0.4432 0.4735
1228.000000 0.5096 0.5320 0.5485 0.5582 0.5700
1223.000000 0.5852 0.6014 0.6194 0.6310 0.6421
1218.000000 0.6536 0.6658 0.6769 0.6868 0.6962
1213.000000 0.7045 0.7106 0.7158 0.7184 0.7210
1208.000000 0.7231 0.7246 0.7261 0.7275 0.7288
1203.000000 0.7300 0.7311 0.7334 0.7326 0.7322
1198.000000 0.7318 0.7314 0.7303 0.7286 0.7247
1193.000000 0.7199 0.7150 0.7048 0.6940 0.6774
1188.000000 0.6415 0.6023 0.5592 0.5192 0.4370
1183.000000 0.3566 0.2762 0.1958 0.1213 0.1217
1178.000000 0.1322 0.1761 0.2201 0.2640 0.3080
1173.000000 0.3518 0.3959 0.4398 0.4837 0.5277
1168.000000 0.5695 0.5912 0.5996 0.6038 0.6055
1163.000000 0.6055 0.6035 0.5941 0.5857 0.5748
1158.000000 0.5540 0.5512 0.5615 0.5756 0.5897
1153.000000 0.5948 0.5906 0.5983 0.6223 0.6461
1148.000000 0.6701 0.6882 0.6981 0.7075 0.7149
1143.000000 0.7214 0.7255 0.7286 0.7298 0.7298
1138.000000 0.7298 0.7288 0.7261 0.7206 0.7148
1133.000000 0.7061 0.6989 0.6956 0.6942 0.6926
1128.000000 0.6896 0.6836 0.6575 0.6476 0.6418
1123.000000 0.6369 0.6365 0.6360 0.6425 0.6487
1118.000000 0.6486 0.6485 0.6457 0.6424 0.6401
1113.000000 0.6393 0.6391 0.6824 0.7301 0.7397
1108.000000 0.7503 0.7617 0.7749 0.7855 0.7925
1103.000000 0.7990 0.8045 0.8076 0.8097 0.8115
1098.000000 0.8126 0.8138 0.8148 0.8154 0.8154
1093.000000 0.8153 0.8153 0.8144 0.8125 0.8099
1088.000000 0.8060 0.8008 0.7953 0.7869 0.7611
1083.000000 0.7230 0.6849 0.6735 0.6856 0.7122
1078.000000 0.7390 0.7657 0.7924 0.8043 0.8121
1073.000000 0.8201 0.8245 0.8290 0.8334 0.8356
1068.000000 0.8378 0.8401 0.8423 0.8443 0.8456
1063.000000 0.8470 0.8483 0.8496 0.8510 0.8523
1058.000000 0.8536 0.8548 0.8555 0.8561 0.8568
1053.000000 0.8574 0.8581 0.8587 0.8592 0.8597
1048.000000 0.8602 0.8607 0.8612 0.8617 0.8620
1043.000000 0.8621 0.8623 0.8645 0.8625 0.8623
1038.000000 0.8621 0.8615 0.8590 0.8566 0.8507
1033.000000 0.8417 0.8198 0.7835 0.7471 0.7086
1028.000000 0.7104 0.7475 0.7867 0.8257 0.8385
1023.000000 0.8491 0.8561 0.8616 0.8665 0.8696
1018.000000 0.8725 0.8757 0.8780 0.8801 0.8823
1013.000000 0.8844 0.8862 0.8871 0.8881 0.8891
1008.000000 0.8900 0.8902 0.8903 0.8904 0.8896
1003.000000 0.8880 0.8865 0.8771 0.8557 0.7795
998.000000 0.6915 0.6036 0.5160 0.5154 0.5712
993.000000 0.6515 0.7318 0.8121 0.8168 0.8115
988.000000 0.7975 0.7835 0.7694 0.7649 0.7765
983.000000 0.7901 0.8036 0.8171 0.8306 0.8381
978.000000 0.8373 0.8280 0.8188 0.8132 0.8180
973.000000 0.8321 0.8462 0.8562 0.8614 0.8647
968.000000 0.8680 0.8695 0.8698 0.8700 0.8701
963.000000 0.8702 0.8687 0.8662 0.8578 0.8564
958.000000 0.8570 0.8620 0.8653 0.8665 0.8661
953.000000 0.8644 0.8546 0.8248 0.7906 0.7565
948.000000 0.7321 0.7321 0.7328 0.7565 0.7804
943.000000 0.8044 0.8284 0.8524 0.8723 0.8761
938.000000 0.8798 0.8825 0.8853 0.8867 0.8878
933.000000 0.8888 0.8896 0.8880 0.8862 0.8855
928.000000 0.8853 0.8862 0.8880 0.8898 0.8918
923.000000 0.8908 0.8899 0.8891 0.8889 0.8925
918.000000 0.8960 0.8986 0.8997 0.9000 0.9003
913.000000 0.9007 0.9010 0.9014 0.9017 0.9020
908.000000 0.9021 0.9023 0.9024 0.9025 0.9025
903.000000 0.9024 0.9018 0.9014 0.9008 0.8994
898.000000 0.8978 0.8963 0.8942 0.8905 0.8868
893.000000 0.8828 0.8771 0.8716 0.8637 0.8543
888.000000 0.8349 0.7868 0.7521 0.7172 0.6825
883.000000 0.6561 0.6581 0.7014 0.7704 0.7685
878.000000 0.7601 0.7417 0.7151 0.7155 0.7237
873.000000 0.7561 0.7888 0.8213 0.8513 0.8521
868.000000 0.8535 0.8538 0.8540 0.8528 0.8517
863.000000 0.8220 0.7897 0.7572 0.7250 0.7015
858.000000 0.7011 0.7221 0.7388 0.7555 0.7721
853.000000 0.7845 0.7846 0.7846 0.7847 0.7831
848.000000 0.7790 0.7582 0.7538 0.7515 0.7499
843.000000 0.7483 0.7433 0.7319 0.7165 0.7026
838.000000 0.6907 0.6826 0.6746 0.6649 0.6464
833.000000 0.6132 0.5760 0.5389 0.5017 0.4692
828.000000 0.4671 0.4653 0.4639 0.4619 0.4569
823.000000 0.4323 0.4036 0.3748 0.3649 0.3655
818.000000 0.3686 0.3856 0.4070 0.4296 0.4573
813.000000 0.4672 0.5082 0.5492 0.5903 0.6312
808.000000 0.6585 0.6600 0.6612 0.6608 0.6575
803.000000 0.6543 0.6522 0.6517 0.6519 0.6521
798.000000 0.6539 0.6567 0.6598 0.6635 0.6671
793.000000 0.6708 0.7011 0.7222 0.7428 0.7557
788.000000 0.7675 0.7804 0.7939 0.8103 0.8165
783.000000 0.8211 0.8247 0.8259 0.8271 0.8286
778.000000 0.8267 0.8265 0.8262 0.8258 0.8247
773.000000 0.8235 0.8207 0.8165 0.8124 0.8051
768.000000 0.7975 0.7888 0.7782 0.7668 0.7526
763.000000 0.7383 0.7232 0.7076 0.6784 0.6346
758.000000 0.6077 0.5937 0.5812 0.5687 0.5315
753.000000 0.4553 0.3724 0.2895 0.2067 0.1238
748.000000 0.1029 0.1048 0.1105 0.1729 0.2355
743.000000 0.2981 0.3606 0.4231 0.4856 0.5482
738.000000 0.6107 0.6981 0.7168 0.7468 0.7551
733.000000 0.7605 0.7614 0.7614 0.7614 0.7611
728.000000 0.7608 0.7608 0.7608 0.7619 0.7676
723.000000 0.7774 0.7848 0.7933 0.8041 0.8114
718.000000 0.8202 0.8257 0.8266 0.8265 0.8235
713.000000 0.8118 0.7875 0.7560 0.7378 0.7451
708.000000 0.7571 0.7691 0.7739 0.7719 0.7624
703.000000 0.6717 0.5712 0.4709 0.3705 0.2701
698.000000 0.2007 0.2003 0.2875 0.3753 0.4630
693.000000 0.5508 0.6385 0.7262 0.7782 0.7918
688.000000 0.8048 0.8198 0.8292 0.8364 0.8430
683.000000 0.8478 0.8521 0.8553 0.8581 0.8605
678.000000 0.8628 0.8638 0.8645 0.8649 0.8651
673.000000 0.8634 0.8620 0.8612 0.8612 0.8613
668.000000 0.8625 0.8638 0.8659 0.8680 0.8696
663.000000 0.8711 0.8725 0.8733 0.8739 0.8760
658.000000 0.8745 0.8737 0.8673 0.8528 0.8382
653.000000 0.8225 0.8228 0.8231 0.8261 0.8304
648.000000 0.8375 0.8417 0.8459 0.8499 0.8536
643.000000 0.8570 0.8602 0.8633 0.8658 0.8678
638.000000 0.8697 0.8707 0.8711 0.8716 0.8707
633.000000 0.8696 0.8683 0.8652 0.8599 0.8514
628.000000 0.8305 0.8093 0.7881 0.7768 0.7784
623.000000 0.7786 0.7825 0.7905 0.7948 0.7950
618.000000 0.7951 0.7883 0.7783 0.7791 0.7817
613.000000 0.7898 0.7980 0.8055 0.8117 0.8178
608.000000 0.8210 0.8236 0.8262 0.8273 0.8282
603.000000 0.8291 0.8301 0.8310 0.8318 0.8328
598.000000 0.8339 0.8349 0.8359 0.8368 0.8378
593.000000 0.8389 0.8399 0.8409 0.8420 0.8430
588.000000 0.8441 0.8451 0.8463 0.8478 0.8495
583.000000 0.8510 0.8532 0.8570 0.8605 0.8638
578.000000 0.8671 0.8707 0.8735 0.8740 0.8741
573.000000 0.8742 0.8735 0.8716 0.8696 0.8659
568.000000 0.8641 0.8630 0.8623 0.8623 0.8623
563.000000 0.8623 0.8623 0.8623 0.8621 0.8618
558.000000 0.8615 0.8612 0.8608 0.8605 0.8601
553.000000 0.8598 0.8594 0.8589 0.8584 0.8578
548.000000 0.8574 0.8568 0.8564 0.8557 0.8551
543.000000 0.8545 0.8539 0.8533 0.8518 0.8502
538.000000 0.8485 0.8463 0.8432 0.8400 0.8350
533.000000 0.8300 0.8241 0.8158 0.8065 0.7939
528.000000 0.7751 0.7543 0.7403 0.7214 0.7053
523.000000 0.6903 0.6350 0.5788 0.5227 0.4665
518.000000 0.4639 0.4829 0.5057 0.5286 0.5514
513.000000 0.5743 0.5960 0.6125 0.6270 0.6391
508.000000 0.6501 0.6604 0.6703 0.6814 0.6908
503.000000 0.6976 0.7011 0.7021 0.7025 0.7010
498.000000 0.6983 0.6950 0.6922 0.6912 0.6906
493.000000 0.6906 0.6915 0.6947 0.6984 0.7031
488.000000 0.7078 0.7128 0.7147 0.7154 0.7154
483.000000 0.7153 0.7142 0.7121 0.7101 0.7081
478.000000 0.7053 0.7019 0.6987 0.6953 0.6919
473.000000 0.6875 0.6831 0.6786 0.6741 0.6699
468.000000 0.6658 0.6615 0.6575 0.6524 0.6468
463.000000 0.6411 0.6359 0.6307 0.6255 0.6205
458.000000 0.6175 0.6167 0.6162 0.6160 0.6157
453.000000 0.6169 0.6210 0.6260 0.6304 0.6319
448.000000 0.6319 0.6310 0.6281 0.6251 0.6189
443.000000 0.6120 0.6003 0.5835 0.5729 0.5651
438.000000 0.5574 0.5499 0.5425 0.5351 0.5276
433.000000 0.5190 0.5104 0.5018 0.4941 0.4867
428.000000 0.4793 0.4732 0.4686 0.4640 0.4519
423.000000 0.4290 0.4131 0.4018 0.3978 0.3936
418.000000 0.3895 0.3853 0.3830 0.3809 0.3788
413.000000 0.3766 0.3759 0.3752 0.3745 0.3743
408.000000 0.3741 0.3739 0.3737 0.3734 0.3732
403.000000 0.3730
##END=
