##TITLE=DIANILINE, 4,4'-METHYLENE-
##JCAMP-DX=4.24
##DATA TYPE=INFRARED SPECTRUM
##CLASS=COBLENTZ III
##ORIGIN=DOW CHEMICAL COMPANY
##OWNER=COBLENTZ SOC.
Collection (C) 2018 copyright by the U.S. Secretary of Commerce
on behalf of the United States of America. All rights reserved.
##DATE=1959/10/07
##NAMES=4-(4-aminobenzyl)phenylamine
##CAS REGISTRY NO=101-77-9
##MOLFORM=C13 H14 N2
##SOURCE REFERENCE=COBLENTZ NO. 06249
##$NIST SOURCE=COBLENTZ
##$NIST IMAGE=cob6249
##SPECTROMETER/DATA SYSTEM=DOW KBr FOREPRISM-GRATING
##INSTRUMENT PARAMETERS=BLAZED AT 3.5, 12.0, 20.0 MICRON AND CHANGED AT 5.0, 7.5, 14.9 MICRON
##STATE=SOLID (SPLIT MULL)
##SAMPLING PROCEDURE=TRANSMISSION
##RESOLUTION=2
##DATA PROCESSING=DIGITIZED BY COBLENTZ SOCIETY (BATCH I) FROM HARD COPY
##XUNITS=1/CM
##YUNITS=TRANSMITTANCE
##XLABEL=Wavenumbers (cm-1)
##YLABEL=% Transmission
##XFACTOR=1
##YFACTOR=1
##DELTAX=1
##FIRSTX=450
##LASTX=3822
##FIRSTY=0.7176
##MAXX=3822
##MINX=450
##MAXY=0.9046
##MINY=0.0554
##NPOINTS=3373
##XYDATA=(X++(Y..Y))
450.000000 0.7176 0.7180 0.7183 0.7187 0.7190
455.000000 0.7193 0.7196 0.7199 0.7199 0.7201
460.000000 0.7207 0.7207 0.7207 0.7203 0.7199
465.000000 0.7199 0.7199 0.7199 0.7199 0.7207
470.000000 0.7195 0.7194 0.7189 0.7184 0.7178
475.000000 0.7174 0.7168 0.7158 0.7146 0.7128
480.000000 0.7097 0.7065 0.7032 0.6998 0.6962
485.000000 0.6928 0.6890 0.6849 0.6794 0.6744
490.000000 0.6701 0.6658 0.6591 0.6496 0.6258
495.000000 0.6071 0.5930 0.5775 0.5210 0.4644
500.000000 0.4442 0.4442 0.4583 0.4799 0.5014
505.000000 0.5230 0.5324 0.5323 0.5303 0.5057
510.000000 0.4810 0.4562 0.4329 0.4285 0.4273
515.000000 0.4290 0.4791 0.5716 0.6641 0.6868
520.000000 0.7078 0.7201 0.7269 0.7335 0.7381
525.000000 0.7424 0.7462 0.7491 0.7506 0.7511
530.000000 0.7508 0.7508 0.7507 0.7501 0.7496
535.000000 0.7483 0.7471 0.7458 0.7446 0.7432
540.000000 0.7418 0.7404 0.7390 0.7375 0.7360
545.000000 0.7345 0.7330 0.7315 0.7298 0.7280
550.000000 0.7261 0.7237 0.7208 0.7178 0.7142
555.000000 0.7100 0.7057 0.6999 0.6937 0.6869
560.000000 0.6799 0.6728 0.6646 0.6561 0.5927
565.000000 0.5793 0.5440 0.5086 0.4733 0.4406
570.000000 0.4360 0.4342 0.4635 0.5000 0.5366
575.000000 0.5732 0.6097 0.6462 0.6811 0.6861
580.000000 0.6861 0.6861 0.6853 0.6883 0.6832
585.000000 0.6803 0.6771 0.6718 0.6665 0.6615
590.000000 0.6594 0.6571 0.6550 0.6522 0.6485
595.000000 0.6447 0.6408 0.6362 0.6316 0.6270
600.000000 0.6224 0.6181 0.6139 0.6096 0.6054
605.000000 0.6010 0.5965 0.5921 0.5872 0.5821
610.000000 0.5771 0.5727 0.5682 0.5644 0.5608
615.000000 0.5572 0.5538 0.5505 0.5476 0.5455
620.000000 0.5433 0.5421 0.5421 0.5421 0.5421
625.000000 0.5420 0.5406 0.5426 0.5436 0.5446
630.000000 0.5456 0.5472 0.5488 0.5508 0.5527
635.000000 0.5547 0.5571 0.5602 0.5715 0.6122
640.000000 0.6359 0.6410 0.6428 0.6438 0.6310
645.000000 0.6181 0.6052 0.6003 0.5990 0.6017
650.000000 0.6034 0.6052 0.6070 0.6089 0.6110
655.000000 0.6146 0.6187 0.6228 0.6268 0.6310
660.000000 0.6355 0.6405 0.6468 0.6524 0.6558
665.000000 0.6590 0.6621 0.6651 0.6684 0.6721
670.000000 0.6758 0.6797 0.6831 0.6865 0.6900
675.000000 0.6933 0.6958 0.6983 0.7008 0.7034
680.000000 0.7058 0.7083 0.7107 0.7130 0.7153
685.000000 0.7176 0.7200 0.7224 0.7248 0.7272
690.000000 0.7297 0.7321 0.7345 0.7369 0.7394
695.000000 0.7421 0.7451 0.7468 0.7476 0.7478
700.000000 0.7478 0.7468 0.7450 0.7425 0.7398
705.000000 0.7369 0.7348 0.7330 0.7328 0.7328
710.000000 0.7337 0.7346 0.7346 0.7346 0.7345
715.000000 0.7343 0.7341 0.7324 0.7328 0.7351
720.000000 0.7375 0.7401 0.7426 0.7461 0.7500
725.000000 0.7548 0.7587 0.7619 0.7651 0.7685
730.000000 0.7717 0.7749 0.7781 0.7811 0.7840
735.000000 0.7868 0.7897 0.7928 0.7961 0.7994
740.000000 0.8025 0.8047 0.8068 0.8089 0.8110
745.000000 0.8131 0.8151 0.8151 0.8151 0.8151
750.000000 0.8151 0.8160 0.8139 0.8125 0.8111
755.000000 0.8097 0.8062 0.8031 0.7994 0.7933
760.000000 0.7742 0.7521 0.7360 0.7246 0.7242
765.000000 0.7208 0.7326 0.7397 0.7465 0.7548
770.000000 0.7634 0.7754 0.7846 0.7883 0.7898
775.000000 0.7904 0.7907 0.7908 0.7908 0.7911
780.000000 0.7922 0.7939 0.7956 0.7971 0.8001
785.000000 0.8037 0.8088 0.8141 0.8158 0.8149
790.000000 0.8145 0.8141 0.8128 0.8115 0.8104
795.000000 0.8081 0.8021 0.7965 0.7903 0.7842
800.000000 0.7768 0.7687 0.7587 0.7468 0.7156
805.000000 0.6560 0.6307 0.6099 0.5748 0.4533
810.000000 0.3248 0.2461 0.2461 0.2462 0.2964
815.000000 0.4030 0.4050 0.4046 0.4669 0.4806
820.000000 0.4925 0.4953 0.4996 0.5208 0.5372
825.000000 0.5520 0.5596 0.5634 0.5657 0.5680
830.000000 0.5702 0.5748 0.6421 0.6647 0.6815
835.000000 0.6911 0.6925 0.6894 0.6814 0.6751
840.000000 0.6651 0.6662 0.6648 0.6675 0.6683
845.000000 0.6692 0.6708 0.6881 0.7149 0.7346
850.000000 0.7475 0.7741 0.7899 0.8017 0.8121
855.000000 0.8202 0.8277 0.8335 0.8392 0.8446
860.000000 0.8498 0.8550 0.8591 0.8630 0.8668
865.000000 0.8696 0.8721 0.8728 0.8732 0.8732
870.000000 0.8732 0.8730 0.8728 0.8725 0.8725
875.000000 0.8723 0.8721 0.8754 0.8716 0.8716
880.000000 0.8716 0.8716 0.8716 0.8715 0.8715
885.000000 0.8716 0.8716 0.8716 0.8717 0.8692
890.000000 0.8658 0.8651 0.8650 0.8649 0.8646
895.000000 0.8641 0.8636 0.8625 0.8592 0.8556
900.000000 0.8521 0.8482 0.8439 0.8358 0.8255
905.000000 0.8093 0.7782 0.7469 0.7345 0.7321
910.000000 0.7371 0.7760 0.8125 0.8262 0.8446
915.000000 0.8568 0.8649 0.8725 0.8773 0.8792
920.000000 0.8792 0.8792 0.8790 0.8787 0.8783
925.000000 0.8784 0.8786 0.8788 0.8790 0.8794
930.000000 0.8805 0.8815 0.8824 0.8831 0.8828
935.000000 0.8842 0.8823 0.8816 0.8809 0.8798
940.000000 0.8784 0.8770 0.8756 0.8721 0.8684
945.000000 0.8645 0.8600 0.8441 0.8282 0.8203
950.000000 0.8189 0.8400 0.8556 0.8711 0.8752
955.000000 0.8745 0.8742 0.8624 0.8505 0.8428
960.000000 0.8430 0.8509 0.8578 0.8646 0.8715
965.000000 0.8750 0.8753 0.8756 0.8755 0.8756
970.000000 0.8756 0.8763 0.8775 0.8806 0.8833
975.000000 0.8847 0.8851 0.8853 0.8854 0.8854
980.000000 0.8853 0.8852 0.8850 0.8849 0.8847
985.000000 0.8847 0.8848 0.8849 0.8853 0.8857
990.000000 0.8861 0.8861 0.8858 0.8854 0.8851
995.000000 0.8847 0.8843 0.8840 0.8836 0.8832
1000.000000 0.8827 0.8821 0.8818 0.8813 0.8800
1005.000000 0.8784 0.8768 0.8738 0.8674 0.8594
1010.000000 0.8594 0.8595 0.8604 0.8621 0.8670
1015.000000 0.8727 0.8813 0.8844 0.8855 0.8864
1020.000000 0.8871 0.8875 0.8878 0.8881 0.8883
1025.000000 0.8884 0.8885 0.8887 0.8887 0.8885
1030.000000 0.8883 0.8881 0.8871 0.8877 0.8874
1035.000000 0.8870 0.8866 0.8863 0.8859 0.8856
1040.000000 0.8853 0.8850 0.8847 0.8845 0.8842
1045.000000 0.8837 0.8831 0.8825 0.8820 0.8812
1050.000000 0.8803 0.8794 0.8785 0.8775 0.8767
1055.000000 0.8757 0.8748 0.8738 0.8720 0.8702
1060.000000 0.8684 0.8666 0.8648 0.8628 0.8594
1065.000000 0.8554 0.8513 0.8471 0.8432 0.8391
1070.000000 0.8349 0.8304 0.8263 0.8250 0.8249
1075.000000 0.8247 0.8245 0.8245 0.8245 0.8247
1080.000000 0.8251 0.8255 0.8259 0.8267 0.8278
1085.000000 0.8308 0.8335 0.8374 0.8421 0.8468
1090.000000 0.8514 0.8562 0.8612 0.8644 0.8671
1095.000000 0.8687 0.8695 0.8703 0.8710 0.8716
1100.000000 0.8721 0.8724 0.8725 0.8728 0.8728
1105.000000 0.8728 0.8728 0.8728 0.8725 0.8718
1110.000000 0.8711 0.8704 0.8688 0.8670 0.8652
1115.000000 0.8615 0.8577 0.8538 0.8498 0.8417
1120.000000 0.8176 0.8044 0.7886 0.7785 0.7722
1125.000000 0.7710 0.7728 0.7741 0.7865 0.8119
1130.000000 0.8255 0.8338 0.8461 0.8645 0.8666
1135.000000 0.8687 0.8708 0.8728 0.8750 0.8771
1140.000000 0.8786 0.8784 0.8775 0.8778 0.8774
1145.000000 0.8770 0.8764 0.8758 0.8751 0.8742
1150.000000 0.8733 0.8725 0.8715 0.8704 0.8693
1155.000000 0.8682 0.8671 0.8659 0.8648 0.8633
1160.000000 0.8618 0.8602 0.8578 0.8539 0.8498
1165.000000 0.8447 0.8387 0.8305 0.8217 0.8057
1170.000000 0.7891 0.7665 0.7453 0.6628 0.5616
1175.000000 0.5186 0.5200 0.5631 0.5698 0.6159
1180.000000 0.6621 0.7082 0.8093 0.8237 0.8301
1185.000000 0.8368 0.8421 0.8447 0.8878 0.8881
1190.000000 0.8884 0.8883 0.8883 0.8881 0.8893
1195.000000 0.8878 0.8875 0.8861 0.8846 0.8831
1200.000000 0.8794 0.8731 0.8636 0.8478 0.8238
1205.000000 0.8204 0.8183 0.8218 0.8461 0.8609
1210.000000 0.8799 0.8862 0.8890 0.8910 0.8921
1215.000000 0.8925 0.8928 0.8934 0.8931 0.8928
1220.000000 0.8923 0.8903 0.8877 0.8846 0.8825
1225.000000 0.8814 0.8806 0.8799 0.8790 0.8781
1230.000000 0.8770 0.8756 0.8743 0.8730 0.8714
1235.000000 0.8697 0.8680 0.8663 0.8637 0.8611
1240.000000 0.8585 0.8546 0.8501 0.8448 0.8387
1245.000000 0.8321 0.8237 0.8151 0.8074 0.7997
1250.000000 0.7918 0.7846 0.7772 0.7701 0.7622
1255.000000 0.7544 0.7461 0.7375 0.7112 0.6845
1260.000000 0.6578 0.6310 0.6044 0.5776 0.5527
1265.000000 0.5351 0.5203 0.5097 0.4979 0.4838
1270.000000 0.4457 0.4219 0.4101 0.4038 0.4036
1275.000000 0.4057 0.4260 0.4525 0.4789 0.5008
1280.000000 0.5068 0.5092 0.5059 0.4934 0.4572
1285.000000 0.4209 0.3846 0.3746 0.3732 0.3734
1290.000000 0.3770 0.4224 0.4789 0.5353 0.5917
1295.000000 0.6482 0.7046 0.7450 0.7442 0.7419
1300.000000 0.7386 0.7346 0.7307 0.7278 0.7253
1305.000000 0.7228 0.7208 0.7187 0.6992 0.6841
1310.000000 0.6725 0.6685 0.6678 0.6675 0.6675
1315.000000 0.6675 0.6719 0.6751 0.6801 0.6884
1320.000000 0.6965 0.7021 0.7074 0.7124 0.7162
1325.000000 0.7195 0.7241 0.7295 0.7332 0.7364
1330.000000 0.7389 0.7405 0.7421 0.7425 0.7428
1335.000000 0.7433 0.7437 0.7441 0.7443 0.7438
1340.000000 0.7433 0.7434 0.7439 0.7455 0.7507
1345.000000 0.7865 0.8004 0.8076 0.8149 0.8206
1350.000000 0.8262 0.8317 0.8365 0.8411 0.8457
1355.000000 0.8500 0.8541 0.8582 0.8628 0.8675
1360.000000 0.8716 0.8771 0.8758 0.8754 0.8744
1365.000000 0.8738 0.8732 0.8732 0.8732 0.8735
1370.000000 0.8763 0.8771 0.8774 0.8777 0.8778
1375.000000 0.8764 0.8744 0.8724 0.8713 0.8706
1380.000000 0.8699 0.8692 0.8687 0.8683 0.8678
1385.000000 0.8674 0.8668 0.8666 0.8666 0.8667
1390.000000 0.8667 0.8667 0.8668 0.8668 0.8668
1395.000000 0.8668 0.8667 0.8666 0.8644 0.8621
1400.000000 0.8595 0.8568 0.8550 0.8537 0.8524
1405.000000 0.8518 0.8515 0.8511 0.8507 0.8504
1410.000000 0.8498 0.8468 0.8435 0.8387 0.8336
1415.000000 0.8275 0.8218 0.8165 0.8119 0.8080
1420.000000 0.7440 0.7012 0.7011 0.7008 0.7349
1425.000000 0.7598 0.7644 0.7645 0.7478 0.7322
1430.000000 0.7168 0.7011 0.6965 0.6967 0.6946
1435.000000 0.7031 0.7338 0.7646 0.7954 0.8223
1440.000000 0.8334 0.8396 0.8417 0.8432 0.8446
1445.000000 0.8447 0.8440 0.8428 0.8405 0.8375
1450.000000 0.8337 0.8297 0.8290 0.8290 0.8292
1455.000000 0.8294 0.8296 0.8298 0.8304 0.8313
1460.000000 0.8354 0.8384 0.8387 0.8391 0.8395
1465.000000 0.8395 0.8395 0.8396 0.8396 0.8397
1470.000000 0.8389 0.8377 0.8360 0.8339 0.8316
1475.000000 0.8285 0.8220 0.8151 0.8108 0.8065
1480.000000 0.8021 0.7978 0.7925 0.7872 0.7818
1485.000000 0.7758 0.7695 0.7630 0.7595 0.7565
1490.000000 0.7482 0.7376 0.7169 0.7008 0.6897
1495.000000 0.6828 0.6454 0.6231 0.5856 0.5698
1500.000000 0.5556 0.5424 0.5345 0.5181 0.2428
1505.000000 0.2366 0.2320 0.2278 0.1879 0.1430
1510.000000 0.0626 0.0554 0.0557 0.0578 0.0946
1515.000000 0.1022 0.1076 0.1104 0.1142 0.1209
1520.000000 0.4402 0.4510 0.4618 0.4772 0.4922
1525.000000 0.6335 0.6632 0.6825 0.8193 0.8370
1530.000000 0.8516 0.8598 0.8649 0.8690 0.8728
1535.000000 0.8756 0.8778 0.8789 0.8796 0.8802
1540.000000 0.8807 0.8812 0.8821 0.8834 0.8842
1545.000000 0.8857 0.8827 0.8813 0.8800 0.8782
1550.000000 0.8762 0.8742 0.8725 0.8708 0.8691
1555.000000 0.8692 0.8691 0.8691 0.8691 0.8690
1560.000000 0.8680 0.8670 0.8660 0.8650 0.8613
1565.000000 0.8567 0.8531 0.8498 0.8478 0.8445
1570.000000 0.8393 0.8265 0.8041 0.7910 0.7792
1575.000000 0.7762 0.7733 0.7638 0.7631 0.7611
1580.000000 0.7861 0.7946 0.8015 0.8022 0.8022
1585.000000 0.8017 0.8005 0.7961 0.7925 0.7894
1590.000000 0.7842 0.7790 0.7744 0.7711 0.7671
1595.000000 0.7618 0.7567 0.7510 0.7433 0.7072
1600.000000 0.6575 0.6458 0.6303 0.5673 0.5504
1605.000000 0.5381 0.5258 0.5154 0.5065 0.4951
1610.000000 0.4905 0.4892 0.4887 0.4881 0.4873
1615.000000 0.4759 0.4678 0.4217 0.3750 0.3372
1620.000000 0.3350 0.3176 0.3063 0.2919 0.2834
1625.000000 0.2834 0.2834 0.2848 0.2872 0.6099
1630.000000 0.6248 0.6334 0.6607 0.6680 0.6946
1635.000000 0.7262 0.7580 0.7897 0.8299 0.8459
1640.000000 0.8598 0.8687 0.8754 0.8823 0.8847
1645.000000 0.8863 0.8875 0.8886 0.8899 0.8907
1650.000000 0.8909 0.8911 0.8911 0.8912 0.8912
1655.000000 0.8911 0.8909 0.8896 0.8905 0.8903
1660.000000 0.8901 0.8898 0.8896 0.8896 0.8896
1665.000000 0.8915 0.8933 0.8950 0.8961 0.8967
1670.000000 0.8967 0.8967 0.8968 0.8968 0.8968
1675.000000 0.8970 0.8971 0.8974 0.8978 0.8983
1680.000000 0.8987 0.8992 0.8997 0.9005 0.9013
1685.000000 0.9021 0.9017 0.9012 0.9007 0.9002
1690.000000 0.8998 0.8998 0.9007 0.9013 0.9021
1695.000000 0.9030 0.9039 0.9046 0.9037 0.9025
1700.000000 0.9014 0.9003 0.8994 0.8985 0.8977
1705.000000 0.8968 0.8965 0.8960 0.8957 0.8957
1710.000000 0.8959 0.8963 0.8967 0.8970 0.8974
1715.000000 0.8977 0.8978 0.8978 0.8978 0.8978
1720.000000 0.8975 0.8974 0.8973 0.8970 0.8966
1725.000000 0.8963 0.8959 0.8955 0.8953 0.8952
1730.000000 0.8952 0.8958 0.8964 0.8971 0.8978
1735.000000 0.8977 0.8971 0.8962 0.8949 0.8936
1740.000000 0.8928 0.8925 0.8925 0.8928 0.8939
1745.000000 0.8946 0.8946 0.8947 0.8947 0.8943
1750.000000 0.8937 0.8925 0.8909 0.8893 0.8875
1755.000000 0.8854 0.8833 0.8824 0.8818 0.8817
1760.000000 0.8818 0.8818 0.8828 0.8856 0.8875
1765.000000 0.8883 0.8886 0.8886 0.8886 0.8886
1770.000000 0.8884 0.8881 0.8878 0.8874 0.8864
1775.000000 0.8854 0.8845 0.8837 0.8828 0.8821
1780.000000 0.8812 0.8806 0.8808 0.8810 0.8814
1785.000000 0.8821 0.8828 0.8837 0.8850 0.8863
1790.000000 0.8874 0.8883 0.8890 0.8890 0.8890
1795.000000 0.8888 0.8887 0.8885 0.8884 0.8882
1800.000000 0.8882 0.8882 0.8882 0.8882 0.8882
1805.000000 0.8882 0.8882 0.8882 0.8882 0.8883
1810.000000 0.8883 0.8884 0.8884 0.8884 0.8883
1815.000000 0.8881 0.8878 0.8877 0.8875 0.8873
1820.000000 0.8867 0.8862 0.8856 0.8850 0.8845
1825.000000 0.8839 0.8832 0.8824 0.8818 0.8813
1830.000000 0.8809 0.8804 0.8800 0.8795 0.8791
1835.000000 0.8786 0.8782 0.8777 0.8773 0.8767
1840.000000 0.8755 0.8747 0.8741 0.8739 0.8737
1845.000000 0.8736 0.8734 0.8731 0.8721 0.8712
1850.000000 0.8701 0.8684 0.8666 0.8645 0.8624
1855.000000 0.8609 0.8594 0.8578 0.8568 0.8557
1860.000000 0.8549 0.8550 0.8550 0.8551 0.8557
1865.000000 0.8563 0.8567 0.8568 0.8564 0.8560
1870.000000 0.8546 0.8531 0.8506 0.8475 0.8431
1875.000000 0.8399 0.8380 0.8381 0.8381 0.8387
1880.000000 0.8440 0.8509 0.8584 0.8641 0.8660
1885.000000 0.8660 0.8659 0.8655 0.8651 0.8611
1890.000000 0.8586 0.8565 0.8563 0.8561 0.8559
1895.000000 0.8559 0.8560 0.8561 0.8561 0.8561
1900.000000 0.8556 0.8551 0.8541 0.8537 0.8537
1905.000000 0.8542 0.8548 0.8556 0.8571 0.8592
1910.000000 0.8621 0.8662 0.8697 0.8694 0.8692
1915.000000 0.8690 0.8689 0.8689 0.8690 0.8690
1920.000000 0.8698 0.8710 0.8731 0.8736 0.8739
1925.000000 0.8742 0.8745 0.8745 0.8746 0.8746
1930.000000 0.8748 0.8749 0.8751 0.8753 0.8755
1935.000000 0.8757 0.8759 0.8761 0.8763 0.8763
1940.000000 0.8763 0.8762 0.8762 0.8761 0.8760
1945.000000 0.8759 0.8757 0.8756 0.8756 0.8755
1950.000000 0.8755 0.8755 0.8755 0.8757 0.8790
1955.000000 0.8824 0.8863 0.8948 0.8932 0.8934
1960.000000 0.8913 0.8827 0.8742 0.8680 0.8665
1965.000000 0.8665 0.8656 0.8647 0.8639 0.8634
1970.000000 0.8630 0.8625 0.8621 0.8616 0.8612
1975.000000 0.8610 0.8608 0.8605 0.8600 0.8596
1980.000000 0.8592 0.8588 0.8584 0.8581 0.8578
1985.000000 0.8575 0.8574 0.8574 0.8578 0.8584
1990.000000 0.8589 0.8596 0.8609 0.8591 0.8534
1995.000000 0.8490 0.8502 0.8518 0.8535 0.8568
2000.000000 0.8593 0.8584 0.8575 0.8555 0.8534
2005.000000 0.8531 0.8531 0.8530 0.8533 0.8535
2010.000000 0.8536 0.8536 0.8536 0.8535 0.8535
2015.000000 0.8527 0.8520 0.8506 0.8493 0.8484
2020.000000 0.8475 0.8470 0.8465 0.8462 0.8460
2025.000000 0.8460 0.8461 0.8461 0.8462 0.8462
2030.000000 0.8463 0.8464 0.8465 0.8465 0.8465
2035.000000 0.8464 0.8464 0.8464 0.8464 0.8463
2040.000000 0.8463 0.8463 0.8463 0.8464 0.8465
2045.000000 0.8466 0.8468 0.8468 0.8468 0.8468
2050.000000 0.8468 0.8466 0.8464 0.8461 0.8458
2055.000000 0.8455 0.8453 0.8450 0.8447 0.8444
2060.000000 0.8442 0.8439 0.8436 0.8432 0.8428
2065.000000 0.8425 0.8423 0.8420 0.8417 0.8414
2070.000000 0.8411 0.8408 0.8405 0.8402 0.8400
2075.000000 0.8397 0.8395 0.8393 0.8391 0.8388
2080.000000 0.8386 0.8384 0.8382 0.8378 0.8377
2085.000000 0.8375 0.8373 0.8370 0.8368 0.8366
2090.000000 0.8364 0.8362 0.8360 0.8358 0.8356
2095.000000 0.8354 0.8352 0.8350 0.8348 0.8346
2100.000000 0.8345 0.8343 0.8341 0.8339 0.8337
2105.000000 0.8335 0.8333 0.8331 0.8328 0.8327
2110.000000 0.8325 0.8324 0.8321 0.8320 0.8318
2115.000000 0.8316 0.8315 0.8312 0.8310 0.8307
2120.000000 0.8305 0.8302 0.8299 0.8296 0.8294
2125.000000 0.8291 0.8288 0.8285 0.8283 0.8280
2130.000000 0.8277 0.8275 0.8274 0.8271 0.8270
2135.000000 0.8268 0.8266 0.8264 0.8262 0.8260
2140.000000 0.8258 0.8256 0.8255 0.8253 0.8251
2145.000000 0.8249 0.8247 0.8245 0.8243 0.8241
2150.000000 0.8240 0.8238 0.8237 0.8235 0.8234
2155.000000 0.8232 0.8231 0.8228 0.8228 0.8225
2160.000000 0.8225 0.8223 0.8221 0.8220 0.8218
2165.000000 0.8216 0.8214 0.8212 0.8210 0.8208
2170.000000 0.8206 0.8204 0.8202 0.8200 0.8198
2175.000000 0.8195 0.8193 0.8191 0.8189 0.8184
2180.000000 0.8178 0.8172 0.8168 0.8162 0.8158
2185.000000 0.8151 0.8147 0.8137 0.8128 0.8118
2190.000000 0.8108 0.8101 0.8097 0.8097 0.8098
2195.000000 0.8098 0.8098 0.8098 0.8098 0.8098
2200.000000 0.8099 0.8099 0.8099 0.8098 0.8097
2205.000000 0.8096 0.8095 0.8093 0.8092 0.8088
2210.000000 0.8084 0.8078 0.8075 0.8071 0.8068
2215.000000 0.8065 0.8061 0.8058 0.8056 0.8053
2220.000000 0.8051 0.8049 0.8048 0.8046 0.8044
2225.000000 0.8042 0.8040 0.8037 0.8034 0.8031
2230.000000 0.8028 0.8024 0.8021 0.8017 0.8014
2235.000000 0.8010 0.8007 0.8003 0.8000 0.7996
2240.000000 0.7993 0.7990 0.7987 0.7983 0.7980
2245.000000 0.7975 0.7972 0.7968 0.7965 0.7961
2250.000000 0.7958 0.7955 0.7951 0.7949 0.7946
2255.000000 0.7942 0.7939 0.7935 0.7932 0.7928
2260.000000 0.7925 0.7921 0.7918 0.7914 0.7911
2265.000000 0.7904 0.7898 0.7893 0.7889 0.7885
2270.000000 0.7881 0.7876 0.7874 0.7872 0.7871
2275.000000 0.7871 0.7871 0.7871 0.7871 0.7871
2280.000000 0.7871 0.7871 0.7869 0.7868 0.7868
2285.000000 0.7865 0.7865 0.7862 0.7861 0.7858
2290.000000 0.7857 0.7853 0.7850 0.7844 0.7839
2295.000000 0.7834 0.7828 0.7822 0.7817 0.7811
2300.000000 0.7805 0.7799 0.7794 0.7790 0.7786
2305.000000 0.7782 0.7778 0.7778 0.7781 0.7790
2310.000000 0.7799 0.7807 0.7815 0.7818 0.7819
2315.000000 0.7821 0.7821 0.7821 0.7821 0.7818
2320.000000 0.7815 0.7812 0.7811 0.7803 0.7795
2325.000000 0.7786 0.7776 0.7764 0.7751 0.7745
2330.000000 0.7739 0.7737 0.7737 0.7738 0.7740
2335.000000 0.7743 0.7746 0.7749 0.7751 0.7755
2340.000000 0.7758 0.7760 0.7762 0.7765 0.7769
2345.000000 0.7774 0.7778 0.7781 0.7785 0.7788
2350.000000 0.7792 0.7796 0.7800 0.7804 0.7808
2355.000000 0.7812 0.7817 0.7821 0.7825 0.7828
2360.000000 0.7832 0.7835 0.7839 0.7838 0.7838
2365.000000 0.7831 0.7825 0.7794 0.7762 0.7760
2370.000000 0.7758 0.7758 0.7758 0.7757 0.7757
2375.000000 0.7756 0.7756 0.7755 0.7754 0.7753
2380.000000 0.7751 0.7751 0.7750 0.7749 0.7749
2385.000000 0.7748 0.7747 0.7746 0.7745 0.7744
2390.000000 0.7743 0.7742 0.7741 0.7740 0.7739
2395.000000 0.7738 0.7738 0.7737 0.7737 0.7736
2400.000000 0.7736 0.7735 0.7734 0.7733 0.7733
2405.000000 0.7732 0.7731 0.7728 0.7728 0.7726
2410.000000 0.7725 0.7724 0.7722 0.7721 0.7719
2415.000000 0.7718 0.7717 0.7715 0.7714 0.7711
2420.000000 0.7711 0.7708 0.7707 0.7705 0.7704
2425.000000 0.7701 0.7700 0.7698 0.7697 0.7695
2430.000000 0.7694 0.7692 0.7690 0.7688 0.7687
2435.000000 0.7686 0.7685 0.7683 0.7682 0.7681
2440.000000 0.7680 0.7678 0.7675 0.7674 0.7672
2445.000000 0.7671 0.7668 0.7667 0.7665 0.7664
2450.000000 0.7661 0.7660 0.7658 0.7657 0.7655
2455.000000 0.7653 0.7651 0.7651 0.7650 0.7649
2460.000000 0.7648 0.7647 0.7646 0.7645 0.7644
2465.000000 0.7643 0.7642 0.7641 0.7640 0.7639
2470.000000 0.7638 0.7637 0.7637 0.7636 0.7635
2475.000000 0.7634 0.7633 0.7632 0.7632 0.7631
2480.000000 0.7630 0.7628 0.7628 0.7626 0.7626
2485.000000 0.7625 0.7625 0.7624 0.7622 0.7621
2490.000000 0.7621 0.7618 0.7618 0.7615 0.7615
2495.000000 0.7612 0.7611 0.7610 0.7608 0.7607
2500.000000 0.7606 0.7604 0.7603 0.7601 0.7600
2505.000000 0.7598 0.7596 0.7593 0.7590 0.7587
2510.000000 0.7585 0.7582 0.7580 0.7576 0.7575
2515.000000 0.7571 0.7569 0.7567 0.7564 0.7561
2520.000000 0.7558 0.7557 0.7555 0.7554 0.7553
2525.000000 0.7551 0.7551 0.7550 0.7549 0.7548
2530.000000 0.7548 0.7548 0.7550 0.7551 0.7555
2535.000000 0.7557 0.7558 0.7560 0.7560 0.7560
2540.000000 0.7560 0.7558 0.7557 0.7551 0.7548
2545.000000 0.7543 0.7538 0.7533 0.7528 0.7522
2550.000000 0.7518 0.7514 0.7510 0.7506 0.7503
2555.000000 0.7499 0.7496 0.7492 0.7489 0.7485
2560.000000 0.7482 0.7478 0.7475 0.7471 0.7468
2565.000000 0.7465 0.7461 0.7458 0.7457 0.7455
2570.000000 0.7453 0.7450 0.7448 0.7446 0.7444
2575.000000 0.7441 0.7439 0.7436 0.7434 0.7432
2580.000000 0.7430 0.7426 0.7425 0.7422 0.7421
2585.000000 0.7418 0.7415 0.7414 0.7411 0.7408
2590.000000 0.7407 0.7405 0.7403 0.7400 0.7398
2595.000000 0.7396 0.7394 0.7390 0.7387 0.7384
2600.000000 0.7381 0.7376 0.7374 0.7371 0.7368
2605.000000 0.7364 0.7361 0.7358 0.7355 0.7351
2610.000000 0.7348 0.7346 0.7345 0.7343 0.7341
2615.000000 0.7339 0.7337 0.7334 0.7332 0.7328
2620.000000 0.7325 0.7322 0.7319 0.7317 0.7314
2625.000000 0.7311 0.7308 0.7305 0.7303 0.7301
2630.000000 0.7301 0.7301 0.7301 0.7301 0.7301
2635.000000 0.7301 0.7303 0.7303 0.7304 0.7304
2640.000000 0.7305 0.7305 0.7306 0.7306 0.7306
2645.000000 0.7306 0.7306 0.7304 0.7303 0.7301
2650.000000 0.7299 0.7297 0.7295 0.7292 0.7290
2655.000000 0.7287 0.7284 0.7280 0.7276 0.7269
2660.000000 0.7262 0.7256 0.7250 0.7242 0.7235
2665.000000 0.7228 0.7221 0.7214 0.7207 0.7200
2670.000000 0.7193 0.7186 0.7178 0.7172 0.7167
2675.000000 0.7161 0.7157 0.7151 0.7147 0.7142
2680.000000 0.7137 0.7131 0.7125 0.7125 0.7125
2685.000000 0.7124 0.7124 0.7124 0.7124 0.7122
2690.000000 0.7122 0.7125 0.7126 0.7131 0.7135
2695.000000 0.7138 0.7142 0.7145 0.7149 0.7153
2700.000000 0.7157 0.7158 0.7161 0.7162 0.7165
2705.000000 0.7167 0.7168 0.7169 0.7169 0.7169
2710.000000 0.7168 0.7168 0.7167 0.7165 0.7165
2715.000000 0.7162 0.7161 0.7161 0.7161 0.7160
2720.000000 0.7158 0.7158 0.7157 0.7156 0.7155
2725.000000 0.7151 0.7149 0.7144 0.7139 0.7134
2730.000000 0.7128 0.7124 0.7118 0.7114 0.7108
2735.000000 0.7103 0.7098 0.7093 0.7088 0.7083
2740.000000 0.7078 0.7074 0.7069 0.7067 0.7065
2745.000000 0.7061 0.7058 0.7057 0.7055 0.7051
2750.000000 0.7050 0.7048 0.7046 0.7044 0.7042
2755.000000 0.7040 0.7038 0.7036 0.7036 0.7036
2760.000000 0.7037 0.7038 0.7039 0.7039 0.7039
2765.000000 0.7039 0.7039 0.7038 0.7038 0.7032
2770.000000 0.7025 0.7019 0.7014 0.7006 0.6999
2775.000000 0.6997 0.6996 0.6995 0.6994 0.6992
2780.000000 0.6991 0.6990 0.6989 0.6988 0.6987
2785.000000 0.6985 0.6984 0.6983 0.6982 0.6980
2790.000000 0.6978 0.6976 0.6975 0.6974 0.6972
2795.000000 0.6971 0.6968 0.6965 0.6961 0.6958
2800.000000 0.6955 0.6951 0.6948 0.6943 0.6939
2805.000000 0.6934 0.6928 0.6924 0.6918 0.6912
2810.000000 0.6907 0.6896 0.6886 0.6869 0.6854
2815.000000 0.6828 0.6804 0.6769 0.6736 0.6683
2820.000000 0.6630 0.6517 0.6404 0.6278 0.6153
2825.000000 0.6028 0.5903 0.5777 0.5652 0.5648
2830.000000 0.5645 0.6054 0.6464 0.6561 0.6660
2835.000000 0.6734 0.6808 0.6808 0.6821 0.6803
2840.000000 0.6800 0.6793 0.6787 0.6781 0.6775
2845.000000 0.6771 0.6765 0.6761 0.6757 0.6747
2850.000000 0.6737 0.6718 0.6701 0.6685 0.6668
2855.000000 0.6653 0.6638 0.6625 0.6614 0.6604
2860.000000 0.6595 0.6585 0.6575 0.6567 0.6558
2865.000000 0.6551 0.6544 0.6538 0.6532 0.6530
2870.000000 0.6528 0.6525 0.6524 0.6521 0.6521
2875.000000 0.6510 0.6500 0.6457 0.6415 0.6349
2880.000000 0.6283 0.6229 0.6176 0.6026 0.5877
2885.000000 0.5698 0.5519 0.5389 0.5260 0.5259
2890.000000 0.5245 0.5341 0.5424 0.5580 0.5736
2895.000000 0.5816 0.5897 0.5876 0.5906 0.5781
2900.000000 0.5707 0.5632 0.5558 0.5485 0.5412
2905.000000 0.5412 0.5415 0.5599 0.5786 0.6033
2910.000000 0.6281 0.6367 0.6453 0.6490 0.6526
2915.000000 0.6539 0.6551 0.6556 0.6560 0.6561
2920.000000 0.6561 0.6561 0.6561 0.6560 0.6560
2925.000000 0.6558 0.6558 0.6558 0.6558 0.6557
2930.000000 0.6556 0.6555 0.6554 0.6562 0.6572
2935.000000 0.6587 0.6601 0.6611 0.6619 0.6625
2940.000000 0.6633 0.6638 0.6643 0.6643 0.6644
2945.000000 0.6644 0.6644 0.6641 0.6639 0.6637
2950.000000 0.6635 0.6632 0.6630 0.6626 0.6624
2955.000000 0.6618 0.6615 0.6611 0.6607 0.6601
2960.000000 0.6598 0.6593 0.6589 0.6584 0.6578
2965.000000 0.6574 0.6568 0.6564 0.6558 0.6553
2970.000000 0.6548 0.6542 0.6536 0.6528 0.6522
2975.000000 0.6517 0.6511 0.6504 0.6497 0.6487
2980.000000 0.6478 0.6468 0.6458 0.6450 0.6441
2985.000000 0.6431 0.6421 0.6411 0.6401 0.6388
2990.000000 0.6376 0.6362 0.6350 0.6337 0.6325
2995.000000 0.6312 0.6300 0.6285 0.6270 0.6251
3000.000000 0.6232 0.6209 0.6186 0.6177 0.6168
3005.000000 0.6160 0.6155 0.6153 0.6151 0.6150
3010.000000 0.6149 0.6146 0.6144 0.6105 0.6067
3015.000000 0.6025 0.5983 0.5941 0.5900 0.5872
3020.000000 0.5845 0.5823 0.5802 0.5790 0.5779
3025.000000 0.5760 0.5744 0.5703 0.5662 0.5615
3030.000000 0.5568 0.5528 0.5489 0.5454 0.5420
3035.000000 0.5414 0.5415 0.5416 0.5398 0.5446
3040.000000 0.5468 0.5518 0.5568 0.5579 0.5590
3045.000000 0.5627 0.5664 0.5790 0.5917 0.5975
3050.000000 0.6033 0.6084 0.6136 0.6169 0.6203
3055.000000 0.6228 0.6254 0.6259 0.6265 0.6268
3060.000000 0.6271 0.6272 0.6274 0.6280 0.6287
3065.000000 0.6303 0.6319 0.6335 0.6352 0.6369
3070.000000 0.6386 0.6399 0.6412 0.6415 0.6417
3075.000000 0.6417 0.6417 0.6417 0.6417 0.6412
3080.000000 0.6408 0.6404 0.6400 0.6395 0.6390
3085.000000 0.6385 0.6381 0.6376 0.6371 0.6367
3090.000000 0.6362 0.6359 0.6355 0.6351 0.6347
3095.000000 0.6345 0.6344 0.6344 0.6344 0.6344
3100.000000 0.6345 0.6345 0.6345 0.6345 0.6346
3105.000000 0.6346 0.6346 0.6345 0.6345 0.6339
3110.000000 0.6334 0.6328 0.6322 0.6316 0.6310
3115.000000 0.6305 0.6299 0.6292 0.6286 0.6279
3120.000000 0.6273 0.6266 0.6260 0.6253 0.6247
3125.000000 0.6240 0.6234 0.6229 0.6224 0.6219
3130.000000 0.6215 0.6210 0.6206 0.6201 0.6196
3135.000000 0.6191 0.6187 0.6182 0.6177 0.6172
3140.000000 0.6168 0.6162 0.6159 0.6151 0.6144
3145.000000 0.6136 0.6128 0.6120 0.6112 0.6104
3150.000000 0.6096 0.6088 0.6080 0.6070 0.6060
3155.000000 0.6049 0.6039 0.6029 0.6019 0.6008
3160.000000 0.5998 0.5987 0.5977 0.5962 0.5949
3165.000000 0.5935 0.5921 0.5906 0.5892 0.5876
3170.000000 0.5860 0.5842 0.5823 0.5804 0.5785
3175.000000 0.5768 0.5752 0.5737 0.5723 0.5708
3180.000000 0.5694 0.5679 0.5665 0.5650 0.5636
3185.000000 0.5592 0.5548 0.5495 0.5442 0.5419
3190.000000 0.5396 0.5383 0.5370 0.5357 0.5344
3195.000000 0.5331 0.5318 0.5305 0.5292 0.5257
3200.000000 0.5223 0.5188 0.5153 0.5118 0.5084
3205.000000 0.5049 0.5014 0.4979 0.4945 0.4866
3210.000000 0.4788 0.4719 0.4651 0.4607 0.4564
3215.000000 0.4539 0.4515 0.4503 0.4492 0.4494
3220.000000 0.4494 0.4524 0.4552 0.4626 0.4700
3225.000000 0.4730 0.4760 0.4826 0.4892 0.4968
3230.000000 0.5045 0.5060 0.5078 0.5091 0.5104
3235.000000 0.5131 0.5158 0.5189 0.5221 0.5265
3240.000000 0.5309 0.5333 0.5357 0.5369 0.5381
3245.000000 0.5386 0.5391 0.5389 0.5388 0.5386
3250.000000 0.5382 0.5382 0.5383 0.5379 0.5376
3255.000000 0.5374 0.5372 0.5370 0.5368 0.5365
3260.000000 0.5362 0.5359 0.5356 0.5352 0.5349
3265.000000 0.5344 0.5339 0.5334 0.5329 0.5324
3270.000000 0.5319 0.5310 0.5301 0.5292 0.5283
3275.000000 0.5273 0.5264 0.5255 0.5246 0.5236
3280.000000 0.5227 0.5212 0.5200 0.5185 0.5171
3285.000000 0.5155 0.5139 0.5122 0.5105 0.5091
3290.000000 0.5078 0.5067 0.5056 0.5045 0.5034
3295.000000 0.5023 0.5012 0.4999 0.4987 0.4972
3300.000000 0.4957 0.4942 0.4927 0.4907 0.4888
3305.000000 0.4868 0.4849 0.4829 0.4810 0.4788
3310.000000 0.4766 0.4744 0.4722 0.4698 0.4675
3315.000000 0.4642 0.4609 0.4577 0.4545 0.4514
3320.000000 0.4484 0.4450 0.4416 0.4376 0.4336
3325.000000 0.4285 0.4234 0.4175 0.4116 0.4004
3330.000000 0.3893 0.3792 0.3692 0.3603 0.3514
3335.000000 0.3364 0.3214 0.3099 0.2983 0.2868
3340.000000 0.2754 0.2663 0.2572 0.2528 0.2484
3345.000000 0.2324 0.2163 0.2001 0.1840 0.1724
3350.000000 0.1609 0.1598 0.1578 0.1592 0.1596
3355.000000 0.1758 0.1920 0.2348 0.2777 0.3205
3360.000000 0.3634 0.4057 0.4481 0.4586 0.4691
3365.000000 0.4802 0.4912 0.5041 0.5170 0.5292
3370.000000 0.5415 0.5480 0.5546 0.5607 0.5669
3375.000000 0.5689 0.5710 0.5718 0.5726 0.5723
3380.000000 0.5720 0.5714 0.5710 0.5692 0.5676
3385.000000 0.5634 0.5593 0.5552 0.5510 0.5501
3390.000000 0.5491 0.5492 0.5494 0.5514 0.5535
3395.000000 0.5550 0.5565 0.5571 0.5578 0.5579
3400.000000 0.5581 0.5575 0.5569 0.5553 0.5537
3405.000000 0.5516 0.5496 0.5470 0.5445 0.5408
3410.000000 0.5372 0.5321 0.5270 0.5210 0.5150
3415.000000 0.5065 0.4981 0.4879 0.4777 0.4607
3420.000000 0.4437 0.4322 0.4208 0.4112 0.4016
3425.000000 0.3684 0.3353 0.3021 0.2690 0.2358
3430.000000 0.2027 0.1694 0.1364 0.1262 0.1161
3435.000000 0.1163 0.1165 0.1165 0.1165 0.4353
3440.000000 0.4910 0.4919 0.4927 0.4921 0.4919
3445.000000 0.4896 0.4877 0.4842 0.4807 0.4774
3450.000000 0.4742 0.4549 0.4356 0.4112 0.3871
3455.000000 0.3628 0.3386 0.3143 0.2900 0.2704
3460.000000 0.2509 0.2509 0.2509 0.2514 0.2519
3465.000000 0.2520 0.2520 0.3686 0.4162 0.4868
3470.000000 0.5574 0.5648 0.5722 0.5826 0.5931
3475.000000 0.5962 0.5995 0.6021 0.6048 0.6070
3480.000000 0.6093 0.6112 0.6131 0.6148 0.6166
3485.000000 0.6178 0.6191 0.6200 0.6209 0.6214
3490.000000 0.6220 0.6221 0.6221 0.6221 0.6221
3495.000000 0.6221 0.6221 0.6219 0.6218 0.6214
3500.000000 0.6210 0.6206 0.6202 0.6198 0.6194
3505.000000 0.6190 0.6187 0.6187 0.6187 0.6187
3510.000000 0.6188 0.6188 0.6188 0.6188 0.6188
3515.000000 0.6188 0.6189 0.6189 0.6189 0.6189
3520.000000 0.6190 0.6190 0.6190 0.6187 0.6185
3525.000000 0.6182 0.6179 0.6176 0.6173 0.6170
3530.000000 0.6167 0.6164 0.6160 0.6158 0.6155
3535.000000 0.6152 0.6149 0.6145 0.6141 0.6134
3540.000000 0.6128 0.6121 0.6115 0.6108 0.6102
3545.000000 0.6095 0.6088 0.6081 0.6074 0.6066
3550.000000 0.6059 0.6054 0.6050 0.6045 0.6040
3555.000000 0.6036 0.6032 0.6031 0.6031 0.6030
3560.000000 0.6030 0.6026 0.6023 0.6019 0.6015
3565.000000 0.6010 0.6008 0.6004 0.6001 0.5998
3570.000000 0.5995 0.5992 0.5989 0.5986 0.5983
3575.000000 0.5980 0.5977 0.5975 0.5973 0.5971
3580.000000 0.5969 0.5962 0.5958 0.5948 0.5939
3585.000000 0.5930 0.5921 0.5912 0.5905 0.5898
3590.000000 0.5892 0.5888 0.5884 0.5883 0.5883
3595.000000 0.5882 0.5881 0.5880 0.5879 0.5879
3600.000000 0.5879 0.5878 0.5878 0.5877 0.5877
3605.000000 0.5876 0.5875 0.5873 0.5872 0.5871
3610.000000 0.5870 0.5868 0.5867 0.5865 0.5864
3615.000000 0.5860 0.5859 0.5856 0.5854 0.5851
3620.000000 0.5849 0.5847 0.5845 0.5845 0.5845
3625.000000 0.5844 0.5844 0.5844 0.5845 0.5849
3630.000000 0.5853 0.5856 0.5860 0.5862 0.5867
3635.000000 0.5870 0.5874 0.5877 0.5878 0.5877
3640.000000 0.5877 0.5875 0.5873 0.5866 0.5859
3645.000000 0.5851 0.5844 0.5834 0.5824 0.5812
3650.000000 0.5801 0.5787 0.5774 0.5765 0.5757
3655.000000 0.5754 0.5751 0.5747 0.5744 0.5741
3660.000000 0.5738 0.5737 0.5736 0.5735 0.5734
3665.000000 0.5733 0.5733 0.5733 0.5734 0.5735
3670.000000 0.5736 0.5737 0.5737 0.5737 0.5737
3675.000000 0.5728 0.5719 0.5709 0.5700 0.5692
3680.000000 0.5685 0.5678 0.5672 0.5665 0.5659
3685.000000 0.5657 0.5655 0.5655 0.5656 0.5657
3690.000000 0.5658 0.5658 0.5658 0.5658 0.5657
3695.000000 0.5654 0.5652 0.5649 0.5646 0.5642
3700.000000 0.5638 0.5633 0.5629 0.5625 0.5621
3705.000000 0.5617 0.5614 0.5610 0.5607 0.5604
3710.000000 0.5601 0.5599 0.5597 0.5594 0.5592
3715.000000 0.5589 0.5587 0.5585 0.5583 0.5580
3720.000000 0.5578 0.5576 0.5574 0.5571 0.5569
3725.000000 0.5567 0.5565 0.5562 0.5560 0.5558
3730.000000 0.5556 0.5554 0.5552 0.5550 0.5548
3735.000000 0.5546 0.5544 0.5542 0.5540 0.5538
3740.000000 0.5536 0.5534 0.5532 0.5529 0.5526
3745.000000 0.5523 0.5521 0.5518 0.5515 0.5512
3750.000000 0.5510 0.5507 0.5504 0.5501 0.5499
3755.000000 0.5496 0.5493 0.5490 0.5488 0.5485
3760.000000 0.5482 0.5479 0.5477 0.5474 0.5472
3765.000000 0.5469 0.5466 0.5462 0.5460 0.5458
3770.000000 0.5455 0.5452 0.5450 0.5448 0.5446
3775.000000 0.5444 0.5442 0.5440 0.5439 0.5437
3780.000000 0.5436 0.5434 0.5432 0.5430 0.5429
3785.000000 0.5427 0.5425 0.5421 0.5417 0.5412
3790.000000 0.5409 0.5405 0.5401 0.5396 0.5392
3795.000000 0.5389 0.5386 0.5386 0.5387 0.5387
3800.000000 0.5387 0.5386 0.5386 0.5385 0.5385
3805.000000 0.5384 0.5384 0.5383 0.5383 0.5382
3810.000000 0.5382 0.5381 0.5381 0.5380 0.5380
3815.000000 0.5379 0.5379 0.5378 0.5378 0.5377
3820.000000 0.5377 0.5377 0.5377
##END=
