##TITLE=p-Phenylenediamine, N-isopropyl-N'-phenyl-
##JCAMP-DX=4.24
##DATA TYPE=INFRARED SPECTRUM
##CLASS=COBLENTZ III
##ORIGIN=DOW CHEMICAL COMPANY
##OWNER=Copyright (C) 1987 by the Coblentz Society
Collection (C) 2018 copyright by the U.S. Secretary of Commerce
on behalf of the United States of America. All rights reserved.
##DATE=1966/09/19
##NAMES=N<1>-isopropyl-N<4>-phenyl-1,4-benzenediamine
##CAS REGISTRY NO=101-72-4
##MOLFORM=C15 H18 N2
##SOURCE REFERENCE=COBLENTZ NO. 8196
##$NIST SOURCE=COBLENTZ
##$NIST IMAGE=cob8196
##SPECTROMETER/DATA SYSTEM=DOW KBr FOREPRISM-GRATING
##INSTRUMENT PARAMETERS=BLAZED AT 3.5, 12.0, 20.0 MICRON AND CHANGED AT 5.0, 7.5, 14.9 MICRON
##STATE=SOLUTION (10% CCl4 FOR 3800-1330, 10% CS2 FOR 1330-450 CM^-^1)
##PATH LENGTH=0.010 CM, 0.010 CM
##SAMPLING PROCEDURE=TRANSMISSION
##RESOLUTION=2
##DATA PROCESSING=DIGITIZED BY COBLENTZ SOCIETY (BATCH II) FROM HARD COPY
##XUNITS=1/CM
##YUNITS=TRANSMITTANCE
##XFACTOR=1.0
##YFACTOR=1
##FIRSTX=449
##LASTX=3800
##FIRSTY=0.5967
##MAXX=3800
##MINX=449
##MAXY=0.8952
##MINY=0.0063
##NPOINTS=3352
##XYDATA=(X++(Y..Y))
449.000000 0.5967 0.5959 0.5953 0.5951 0.5948
454.000000 0.5925 0.5936 0.5925 0.5913 0.5902
459.000000 0.5890 0.5878 0.5866 0.5855 0.5841
464.000000 0.5824 0.5808 0.5791 0.5775 0.5758
469.000000 0.5742 0.5727 0.5712 0.5697 0.5682
474.000000 0.5667 0.5652 0.5638 0.5623 0.5609
479.000000 0.5594 0.5580 0.5564 0.5545 0.5525
484.000000 0.5506 0.5463 0.5420 0.5364 0.5306
489.000000 0.5248 0.5168 0.5086 0.5003 0.4914
494.000000 0.4823 0.4739 0.4686 0.4633 0.4599
499.000000 0.4585 0.4587 0.4592 0.4609 0.4634
504.000000 0.4643 0.4644 0.4654 0.4641 0.4621
509.000000 0.4563 0.4463 0.4317 0.4234 0.4218
514.000000 0.4240 0.4232 0.4248 0.4292 0.4624
519.000000 0.4986 0.5349 0.5712 0.6212 0.6457
524.000000 0.6639 0.6789 0.6878 0.6963 0.7029
529.000000 0.7094 0.7142 0.7179 0.7205 0.7223
534.000000 0.7241 0.7259 0.7273 0.7286 0.7298
539.000000 0.7311 0.7323 0.7331 0.7339 0.7347
544.000000 0.7355 0.7362 0.7366 0.7369 0.7373
549.000000 0.7377 0.7380 0.7384 0.7388 0.7392
554.000000 0.7396 0.7400 0.7404 0.7407 0.7411
559.000000 0.7415 0.7423 0.7433 0.7444 0.7454
564.000000 0.7465 0.7477 0.7495 0.7512 0.7529
569.000000 0.7557 0.7543 0.7540 0.7533 0.7524
574.000000 0.7512 0.7501 0.7490 0.7480 0.7469
579.000000 0.7459 0.7458 0.7457 0.7456 0.7455
584.000000 0.7454 0.7453 0.7455 0.7458 0.7462
589.000000 0.7465 0.7469 0.7472 0.7476 0.7482
594.000000 0.7489 0.7495 0.7497 0.7497 0.7497
599.000000 0.7492 0.7512 0.7456 0.7433 0.7409
604.000000 0.7376 0.7333 0.7291 0.7239 0.7182
609.000000 0.7121 0.7053 0.6983 0.6890 0.6821
614.000000 0.6804 0.6793 0.6795 0.6820 0.6872
619.000000 0.6943 0.7022 0.7034 0.7030 0.7016
624.000000 0.7002 0.6981 0.6961 0.6937 0.6914
629.000000 0.6892 0.6873 0.6848 0.6862 0.6880
634.000000 0.6901 0.6921 0.6940 0.6938 0.6922
639.000000 0.6919 0.6899 0.6880 0.6851 0.6798
644.000000 0.6744 0.6690 0.6637 0.6584 0.6541
649.000000 0.6500 0.6459 0.6432 0.6413 0.6425
654.000000 0.6443 0.6499 0.6583 0.6679 0.6834
659.000000 0.6928 0.6974 0.6999 0.7009 0.7013
664.000000 0.7016 0.7021 0.7027 0.7029 0.7032
669.000000 0.7036 0.7051 0.7052 0.7053 0.7053
674.000000 0.7053 0.7053 0.7032 0.7005 0.6970
679.000000 0.6920 0.6866 0.6820 0.6748 0.6670
684.000000 0.6579 0.6479 0.6248 0.6080 0.5208
689.000000 0.0684 0.0671 0.0679 0.0696 0.1191
694.000000 0.1825 0.2459 0.3093 0.3727 0.4360
699.000000 0.5721 0.6054 0.6241 0.6559 0.6751
704.000000 0.6886 0.6970 0.7020 0.7041 0.7036
709.000000 0.7028 0.7010 0.7001 0.7003 0.7010
714.000000 0.7040 0.7078 0.7118 0.7191 0.7254
719.000000 0.7308 0.7327 0.7331 0.7328 0.7327
724.000000 0.7319 0.7303 0.7289 0.7246 0.7204
729.000000 0.7136 0.7008 0.6850 0.6693 0.6535
734.000000 0.6377 0.6186 0.4922 0.4718 0.4552
739.000000 0.0600 0.0379 0.0255 0.0232 0.0217
744.000000 0.0221 0.0235 0.0265 0.0806 0.1582
749.000000 0.2357 0.3132 0.3908 0.4373 0.4506
754.000000 0.4676 0.5187 0.5529 0.5821 0.6370
759.000000 0.6630 0.6809 0.6944 0.7079 0.7236
764.000000 0.7392 0.7473 0.7554 0.7594 0.7623
769.000000 0.7645 0.7680 0.7658 0.7653 0.7642
774.000000 0.7626 0.7582 0.7521 0.7469 0.7395
779.000000 0.7205 0.7015 0.6825 0.6635 0.6445
784.000000 0.6255 0.6065 0.5875 0.5685 0.5495
789.000000 0.5305 0.5115 0.4910 0.4804 0.4720
794.000000 0.4645 0.4567 0.4476 0.4423 0.4378
799.000000 0.4332 0.4286 0.4239 0.4181 0.4112
804.000000 0.4000 0.3929 0.3872 0.3815 0.3758
809.000000 0.3700 0.3643 0.3585 0.3524 0.3450
814.000000 0.3376 0.3246 0.3126 0.3083 0.3079
819.000000 0.3103 0.3095 0.3170 0.3365 0.3560
824.000000 0.3755 0.3950 0.4145 0.4340 0.4535
829.000000 0.4741 0.4883 0.4995 0.5251 0.5361
834.000000 0.5462 0.5557 0.5641 0.5717 0.5766
839.000000 0.5816 0.5838 0.5860 0.5880 0.5889
844.000000 0.5898 0.5898 0.5909 0.5757 0.5604
849.000000 0.5451 0.5299 0.5144 0.5122 0.5118
854.000000 0.5119 0.5121 0.5155 0.5414 0.5721
859.000000 0.6027 0.6334 0.6612 0.6648 0.6653
864.000000 0.6650 0.6647 0.6622 0.6601 0.6468
869.000000 0.6199 0.5928 0.5658 0.5388 0.5118
874.000000 0.5001 0.5000 0.4999 0.5273 0.5561
879.000000 0.5849 0.6137 0.6425 0.6713 0.7180
884.000000 0.7325 0.7457 0.7579 0.7725 0.7908
889.000000 0.8052 0.8157 0.8213 0.8253 0.8282
894.000000 0.8312 0.8340 0.8367 0.8394 0.8421
899.000000 0.8448 0.8475 0.8497 0.8513 0.8530
904.000000 0.8543 0.8549 0.8555 0.8574 0.8560
909.000000 0.8556 0.8553 0.8549 0.8537 0.8526
914.000000 0.8514 0.8491 0.8464 0.8438 0.8408
919.000000 0.8372 0.8335 0.8294 0.8263 0.8267
924.000000 0.8304 0.8340 0.8380 0.8411 0.8442
929.000000 0.8467 0.8488 0.8490 0.8491 0.8506
934.000000 0.8477 0.8465 0.8448 0.8427 0.8386
939.000000 0.8280 0.8145 0.8121 0.8122 0.8126
944.000000 0.8150 0.8215 0.8323 0.8383 0.8428
949.000000 0.8470 0.8499 0.8529 0.8547 0.8564
954.000000 0.8573 0.8577 0.8582 0.8582 0.8582
959.000000 0.8582 0.8575 0.8563 0.8550 0.8534
964.000000 0.8511 0.8488 0.8462 0.8435 0.8407
969.000000 0.8377 0.8347 0.8316 0.8289 0.8267
974.000000 0.8245 0.8211 0.8174 0.8139 0.8105
979.000000 0.8068 0.8034 0.8012 0.8016 0.8076
984.000000 0.8234 0.8250 0.8251 0.8240 0.8242
989.000000 0.8229 0.8114 0.7775 0.7437 0.7099
994.000000 0.6809 0.6723 0.6687 0.6711 0.6698
999.000000 0.7485 0.8085 0.8559 0.8712 0.8761
1004.000000 0.8790 0.8801 0.8798 0.8784 0.8758
1009.000000 0.8757 0.8771 0.8785 0.8799 0.8812
1014.000000 0.8815 0.8817 0.8811 0.8794 0.8772
1019.000000 0.8718 0.8642 0.8562 0.8474 0.8361
1024.000000 0.8248 0.8135 0.7994 0.7896 0.7237
1029.000000 0.6326 0.5964 0.6172 0.7060 0.7949
1034.000000 0.8778 0.8857 0.8892 0.8907 0.8922
1039.000000 0.8935 0.8941 0.8947 0.8951 0.8948
1044.000000 0.8951 0.8952 0.8952 0.8952 0.8952
1049.000000 0.8948 0.8943 0.8939 0.8934 0.8930
1054.000000 0.8925 0.8919 0.8913 0.8907 0.8901
1059.000000 0.8895 0.8889 0.8883 0.8876 0.8870
1064.000000 0.8860 0.8840 0.8821 0.8800 0.8774
1069.000000 0.8748 0.8722 0.8667 0.8597 0.8501
1074.000000 0.8403 0.8251 0.7926 0.7592 0.7258
1079.000000 0.7023 0.7024 0.7034 0.7496 0.7812
1084.000000 0.8129 0.8491 0.8600 0.8685 0.8702
1089.000000 0.8724 0.8708 0.8703 0.8685 0.8666
1094.000000 0.8642 0.8612 0.8568 0.8520 0.8463
1099.000000 0.8342 0.8185 0.8028 0.7871 0.7708
1104.000000 0.7558 0.7436 0.7186 0.6688 0.6483
1109.000000 0.6480 0.6468 0.6482 0.6538 0.6609
1114.000000 0.6679 0.6740 0.6737 0.6748 0.6704
1119.000000 0.6635 0.6406 0.6189 0.5973 0.5958
1124.000000 0.5971 0.6063 0.6184 0.6305 0.6426
1129.000000 0.6547 0.6667 0.6788 0.6909 0.7030
1134.000000 0.7151 0.7272 0.7379 0.7377 0.7369
1139.000000 0.7369 0.7241 0.7156 0.7067 0.6977
1144.000000 0.6888 0.6799 0.6709 0.6619 0.6527
1149.000000 0.6437 0.6287 0.5602 0.4619 0.4600
1154.000000 0.4605 0.4778 0.5079 0.5379 0.5679
1159.000000 0.5941 0.5937 0.5952 0.5899 0.5726
1164.000000 0.5598 0.5374 0.5104 0.4833 0.4562
1169.000000 0.4016 0.2797 0.2073 0.1889 0.1735
1174.000000 0.1531 0.1445 0.1404 0.1379 0.1395
1179.000000 0.1382 0.1400 0.1726 0.2225 0.2725
1184.000000 0.3225 0.3724 0.4224 0.4723 0.5816
1189.000000 0.6154 0.6389 0.6632 0.6805 0.6914
1194.000000 0.6951 0.6987 0.7120 0.7322 0.7458
1199.000000 0.7542 0.7623 0.7677 0.7693 0.7694
1204.000000 0.7690 0.7715 0.7652 0.7617 0.7581
1209.000000 0.7539 0.7494 0.7442 0.7388 0.7316
1214.000000 0.7245 0.7165 0.7069 0.6973 0.6864
1219.000000 0.6754 0.6644 0.6537 0.6430 0.6324
1224.000000 0.6165 0.5996 0.5740 0.5562 0.5431
1229.000000 0.5303 0.5059 0.4585 0.4110 0.3524
1234.000000 0.3309 0.3165 0.3130 0.3116 0.3119
1239.000000 0.3144 0.3398 0.3618 0.3807 0.3831
1244.000000 0.3834 0.3837 0.3816 0.3786 0.3721
1249.000000 0.3372 0.2964 0.2556 0.2148 0.1739
1254.000000 0.1331 0.0880 0.0829 0.0819 0.0829
1259.000000 0.0826 0.1269 0.1875 0.2429 0.2672
1264.000000 0.2842 0.3083 0.3283 0.3467 0.3659
1269.000000 0.4166 0.4303 0.4393 0.4472 0.4491
1274.000000 0.4507 0.4470 0.4429 0.4363 0.4305
1279.000000 0.4198 0.4049 0.3901 0.3707 0.3598
1284.000000 0.3487 0.3343 0.3131 0.2781 0.2387
1289.000000 0.1990 0.1759 0.1580 0.0870 0.0712
1294.000000 0.0629 0.0566 0.0504 0.0458 0.0412
1299.000000 0.0375 0.0346 0.0319 0.0308 0.0298
1304.000000 0.0295 0.0295 0.0277 0.0306 0.0317
1309.000000 0.0346 0.0382 0.0427 0.0472 0.0521
1314.000000 0.0604 0.0767 0.1100 0.1248 0.1350
1319.000000 0.1448 0.1565 0.1805 0.2044 0.2284
1324.000000 0.2523 0.2763 0.3002 0.3242 0.3481
1329.000000 0.3721 0.3981 0.4037 0.4062 0.4076
1334.000000 0.4090 0.4105 0.4121 0.4145 0.4181
1339.000000 0.4240 0.4308 0.4417 0.4618 0.4775
1344.000000 0.4908 0.5063 0.5236 0.5381 0.5526
1349.000000 0.5713 0.5909 0.6067 0.6187 0.6288
1354.000000 0.6392 0.6439 0.6464 0.6473 0.6492
1359.000000 0.6465 0.6447 0.6251 0.5842 0.5432
1364.000000 0.5023 0.4614 0.4204 0.3795 0.3643
1369.000000 0.3657 0.5170 0.5757 0.5952 0.6134
1374.000000 0.6260 0.6309 0.6323 0.6333 0.6288
1379.000000 0.6174 0.5939 0.5703 0.5468 0.5232
1384.000000 0.4997 0.4240 0.2989 0.2874 0.3438
1389.000000 0.5121 0.6046 0.6080 0.6099 0.6076
1394.000000 0.6061 0.5971 0.5870 0.5652 0.5406
1399.000000 0.5160 0.4990 0.4993 0.4998 0.4968
1404.000000 0.5268 0.5456 0.5644 0.5832 0.6020
1409.000000 0.6208 0.6396 0.6423 0.6423 0.6449
1414.000000 0.6404 0.6372 0.6333 0.6290 0.6254
1419.000000 0.6217 0.6181 0.6123 0.6060 0.5951
1424.000000 0.5778 0.5582 0.5386 0.5190 0.5006
1429.000000 0.4958 0.4948 0.4922 0.5026 0.5103
1434.000000 0.5193 0.5322 0.5559 0.5687 0.5790
1439.000000 0.5865 0.5883 0.5887 0.5887 0.5873
1444.000000 0.5849 0.5795 0.5730 0.5674 0.5577
1449.000000 0.5463 0.5348 0.5234 0.5120 0.5006
1454.000000 0.4892 0.4778 0.4653 0.4570 0.4503
1459.000000 0.4473 0.4460 0.4442 0.4233 0.4025
1464.000000 0.3817 0.3608 0.3430 0.3431 0.3405
1469.000000 0.3561 0.3681 0.3801 0.3856 0.3889
1474.000000 0.3797 0.3739 0.3682 0.3624 0.3567
1479.000000 0.3509 0.3452 0.3349 0.3272 0.3199
1484.000000 0.3116 0.2951 0.2726 0.1310 0.1086
1489.000000 0.0792 0.0482 0.0381 0.0283 0.0192
1494.000000 0.0120 0.0096 0.0083 0.0080 0.0083
1499.000000 0.0096 0.0116 0.0139 0.0158 0.0174
1504.000000 0.0183 0.0201 0.0176 0.0172 0.0169
1509.000000 0.0144 0.0117 0.0092 0.0077 0.0077
1514.000000 0.0078 0.0080 0.0063 0.0088 0.0093
1519.000000 0.0098 0.0104 0.0110 0.0122 0.0134
1524.000000 0.0152 0.0177 0.0209 0.0245 0.0287
1529.000000 0.0376 0.0551 0.0726 0.0901 0.1076
1534.000000 0.1251 0.1426 0.1601 0.1776 0.1951
1539.000000 0.2126 0.2301 0.2433 0.2669 0.2700
1544.000000 0.2725 0.2744 0.2763 0.2784 0.2806
1549.000000 0.2829 0.2853 0.2878 0.2902 0.2926
1554.000000 0.2951 0.2977 0.3002 0.3027 0.3064
1559.000000 0.3116 0.3272 0.3394 0.3472 0.3536
1564.000000 0.3594 0.3651 0.3699 0.3745 0.3788
1569.000000 0.3829 0.3859 0.3883 0.3888 0.3880
1574.000000 0.3904 0.3863 0.3854 0.3845 0.3823
1579.000000 0.3758 0.3701 0.3637 0.3571 0.3510
1584.000000 0.3448 0.3387 0.3325 0.3263 0.3201
1589.000000 0.3081 0.2663 0.2341 0.2111 0.1814
1594.000000 0.1672 0.1419 0.1139 0.0858 0.0578
1599.000000 0.0333 0.0234 0.0205 0.0202 0.0233
1604.000000 0.0263 0.0301 0.0383 0.0481 0.0566
1609.000000 0.0813 0.1218 0.1623 0.1874 0.2010
1614.000000 0.2044 0.2052 0.2060 0.2065 0.2070
1619.000000 0.2086 0.2190 0.2440 0.2690 0.2941
1624.000000 0.3191 0.3442 0.3692 0.3943 0.4193
1629.000000 0.4443 0.4694 0.4992 0.5558 0.5902
1634.000000 0.6199 0.6551 0.6634 0.6717 0.6802
1639.000000 0.6888 0.6970 0.7044 0.7110 0.7162
1644.000000 0.7214 0.7257 0.7292 0.7327 0.7363
1649.000000 0.7389 0.7415 0.7441 0.7461 0.7473
1654.000000 0.7486 0.7492 0.7495 0.7497 0.7499
1659.000000 0.7502 0.7504 0.7506 0.7519 0.7535
1664.000000 0.7550 0.7566 0.7579 0.7587 0.7594
1669.000000 0.7600 0.7604 0.7607 0.7610 0.7612
1674.000000 0.7613 0.7615 0.7616 0.7617 0.7618
1679.000000 0.7619 0.7619 0.7620 0.7620 0.7621
1684.000000 0.7621 0.7621 0.7619 0.7618 0.7616
1689.000000 0.7615 0.7613 0.7611 0.7612 0.7613
1694.000000 0.7614 0.7618 0.7631 0.7644 0.7658
1699.000000 0.7671 0.7688 0.7717 0.7747 0.7771
1704.000000 0.7792 0.7800 0.7809 0.7817 0.7826
1709.000000 0.7836 0.7845 0.7857 0.7870 0.7882
1714.000000 0.7900 0.7919 0.7937 0.7956 0.7974
1719.000000 0.7991 0.8008 0.8025 0.8043 0.8060
1724.000000 0.8073 0.8086 0.8100 0.8108 0.8114
1729.000000 0.8120 0.8126 0.8131 0.8131 0.8131
1734.000000 0.8131 0.8131 0.8131 0.8129 0.8127
1739.000000 0.8126 0.8125 0.8125 0.8125 0.8122
1744.000000 0.8118 0.8114 0.8111 0.8108 0.8105
1749.000000 0.8104 0.8106 0.8108 0.8111 0.8115
1754.000000 0.8121 0.8127 0.8133 0.8135 0.8137
1759.000000 0.8139 0.8140 0.8138 0.8136 0.8134
1764.000000 0.8130 0.8125 0.8121 0.8116 0.8112
1769.000000 0.8109 0.8107 0.8105 0.8103 0.8104
1774.000000 0.8108 0.8112 0.8116 0.8122 0.8129
1779.000000 0.8136 0.8144 0.8151 0.8158 0.8165
1784.000000 0.8172 0.8180 0.8187 0.8195 0.8202
1789.000000 0.8207 0.8212 0.8217 0.8223 0.8228
1794.000000 0.8233 0.8238 0.8244 0.8250 0.8255
1799.000000 0.8287 0.8266 0.8268 0.8271 0.8273
1804.000000 0.8273 0.8273 0.8272 0.8267 0.8262
1809.000000 0.8256 0.8251 0.8246 0.8241 0.8233
1814.000000 0.8225 0.8216 0.8208 0.8200 0.8191
1819.000000 0.8182 0.8172 0.8162 0.8152 0.8143
1824.000000 0.8132 0.8119 0.8107 0.8094 0.8081
1829.000000 0.8068 0.8055 0.8043 0.8027 0.8010
1834.000000 0.7994 0.7978 0.7966 0.7956 0.7947
1839.000000 0.7941 0.7938 0.7934 0.7931 0.7928
1844.000000 0.7925 0.7924 0.7923 0.7913 0.7922
1849.000000 0.7922 0.7921 0.7922 0.7923 0.7924
1854.000000 0.7925 0.7927 0.7928 0.7929 0.7930
1859.000000 0.7931 0.7933 0.7933 0.7934 0.7935
1864.000000 0.7936 0.7937 0.7938 0.7939 0.7940
1869.000000 0.7941 0.7941 0.7941 0.7941 0.7949
1874.000000 0.7957 0.7970 0.7985 0.8000 0.8027
1879.000000 0.8048 0.8068 0.8090 0.8109 0.8116
1884.000000 0.8122 0.8125 0.8127 0.8132 0.8139
1889.000000 0.8150 0.8174 0.8200 0.8228 0.8247
1894.000000 0.8249 0.8251 0.8253 0.8255 0.8258
1899.000000 0.8256 0.8254 0.8251 0.8273 0.8244
1904.000000 0.8240 0.8236 0.8232 0.8226 0.8218
1909.000000 0.8209 0.8200 0.8191 0.8178 0.8165
1914.000000 0.8152 0.8139 0.8126 0.8112 0.8099
1919.000000 0.8087 0.8074 0.8062 0.8050 0.8038
1924.000000 0.8026 0.8026 0.8028 0.8015 0.8035
1929.000000 0.8041 0.8058 0.8075 0.8108 0.8145
1934.000000 0.8161 0.8170 0.8179 0.8191 0.8209
1939.000000 0.8227 0.8244 0.8259 0.8275 0.8290
1944.000000 0.8306 0.8323 0.8339 0.8352 0.8365
1949.000000 0.8378 0.8391 0.8404 0.8417 0.8422
1954.000000 0.8425 0.8427 0.8434 0.8442 0.8451
1959.000000 0.8463 0.8497 0.8620 0.8671 0.8678
1964.000000 0.8660 0.8584 0.8509 0.8473 0.8473
1969.000000 0.8475 0.8476 0.8475 0.8474 0.8473
1974.000000 0.8473 0.8473 0.8474 0.8475 0.8476
1979.000000 0.8477 0.8478 0.8479 0.8479 0.8480
1984.000000 0.8481 0.8481 0.8481 0.8480 0.8480
1989.000000 0.8479 0.8478 0.8478 0.8529 0.8624
1994.000000 0.8696 0.8700 0.8705 0.8709 0.8710
1999.000000 0.8710 0.8710 0.8710 0.8710 0.8710
2004.000000 0.8711 0.8711 0.8712 0.8712 0.8713
2009.000000 0.8713 0.8714 0.8714 0.8715 0.8716
2014.000000 0.8717 0.8717 0.8718 0.8719 0.8720
2019.000000 0.8721 0.8722 0.8723 0.8724 0.8725
2024.000000 0.8726 0.8727 0.8728 0.8729 0.8730
2029.000000 0.8731 0.8732 0.8732 0.8733 0.8734
2034.000000 0.8735 0.8736 0.8737 0.8738 0.8739
2039.000000 0.8739 0.8740 0.8741 0.8742 0.8742
2044.000000 0.8743 0.8743 0.8744 0.8745 0.8746
2049.000000 0.8746 0.8747 0.8748 0.8749 0.8749
2054.000000 0.8749 0.8749 0.8749 0.8749 0.8749
2059.000000 0.8749 0.8749 0.8749 0.8749 0.8749
2064.000000 0.8749 0.8748 0.8747 0.8746 0.8745
2069.000000 0.8744 0.8743 0.8742 0.8741 0.8740
2074.000000 0.8739 0.8738 0.8738 0.8737 0.8736
2079.000000 0.8734 0.8732 0.8729 0.8727 0.8725
2084.000000 0.8723 0.8720 0.8718 0.8715 0.8712
2089.000000 0.8709 0.8706 0.8703 0.8700 0.8697
2094.000000 0.8694 0.8691 0.8688 0.8688 0.8688
2099.000000 0.8688 0.8688 0.8690 0.8685 0.8695
2104.000000 0.8698 0.8700 0.8703 0.8705 0.8708
2109.000000 0.8710 0.8713 0.8715 0.8718 0.8720
2114.000000 0.8722 0.8724 0.8727 0.8729 0.8731
2119.000000 0.8733 0.8736 0.8738 0.8741 0.8743
2124.000000 0.8745 0.8747 0.8750 0.8752 0.8754
2129.000000 0.8756 0.8759 0.8761 0.8763 0.8765
2134.000000 0.8767 0.8769 0.8771 0.8773 0.8775
2139.000000 0.8777 0.8779 0.8781 0.8783 0.8784
2144.000000 0.8786 0.8788 0.8790 0.8792 0.8794
2149.000000 0.8796 0.8798 0.8800 0.8802 0.8804
2154.000000 0.8806 0.8807 0.8809 0.8809 0.8810
2159.000000 0.8810 0.8811 0.8812 0.8813 0.8813
2164.000000 0.8814 0.8815 0.8816 0.8816 0.8817
2169.000000 0.8818 0.8819 0.8819 0.8819 0.8819
2174.000000 0.8819 0.8818 0.8818 0.8817 0.8817
2179.000000 0.8817 0.8817 0.8816 0.8816 0.8815
2184.000000 0.8815 0.8815 0.8815 0.8814 0.8814
2189.000000 0.8814 0.8814 0.8813 0.8813 0.8812
2194.000000 0.8811 0.8809 0.8808 0.8807 0.8806
2199.000000 0.8805 0.8804 0.8802 0.8801 0.8800
2204.000000 0.8799 0.8797 0.8796 0.8795 0.8794
2209.000000 0.8792 0.8790 0.8788 0.8787 0.8785
2214.000000 0.8784 0.8782 0.8781 0.8779 0.8778
2219.000000 0.8776 0.8774 0.8772 0.8771 0.8769
2224.000000 0.8768 0.8766 0.8764 0.8762 0.8760
2229.000000 0.8757 0.8755 0.8753 0.8751 0.8749
2234.000000 0.8747 0.8744 0.8742 0.8740 0.8738
2239.000000 0.8735 0.8733 0.8729 0.8725 0.8721
2244.000000 0.8717 0.8713 0.8709 0.8705 0.8701
2249.000000 0.8697 0.8693 0.8687 0.8682 0.8675
2254.000000 0.8669 0.8662 0.8656 0.8650 0.8644
2259.000000 0.8639 0.8634 0.8631 0.8628 0.8625
2264.000000 0.8623 0.8620 0.8617 0.8615 0.8613
2269.000000 0.8611 0.8609 0.8607 0.8606 0.8604
2274.000000 0.8603 0.8602 0.8601 0.8599 0.8598
2279.000000 0.8597 0.8596 0.8594 0.8593 0.8592
2284.000000 0.8591 0.8590 0.8589 0.8588 0.8587
2289.000000 0.8585 0.8583 0.8581 0.8579 0.8576
2294.000000 0.8574 0.8572 0.8570 0.8568 0.8566
2299.000000 0.8565 0.8564 0.8564 0.8564 0.8563
2304.000000 0.8563 0.8563 0.8563 0.8562 0.8562
2309.000000 0.8562 0.8562 0.8561 0.8561 0.8562
2314.000000 0.8564 0.8565 0.8567 0.8568 0.8570
2319.000000 0.8571 0.8573 0.8574 0.8576 0.8573
2324.000000 0.8571 0.8564 0.8557 0.8539 0.8522
2329.000000 0.8504 0.8487 0.8479 0.8471 0.8472
2334.000000 0.8473 0.8476 0.8479 0.8500 0.8521
2339.000000 0.8550 0.8580 0.8587 0.8594 0.8598
2344.000000 0.8602 0.8603 0.8604 0.8604 0.8605
2349.000000 0.8606 0.8607 0.8608 0.8610 0.8611
2354.000000 0.8613 0.8614 0.8616 0.8618 0.8620
2359.000000 0.8624 0.8629 0.8633 0.8638 0.8643
2364.000000 0.8648 0.8653 0.8658 0.8662 0.8666
2369.000000 0.8670 0.8674 0.8678 0.8682 0.8685
2374.000000 0.8689 0.8692 0.8695 0.8698 0.8701
2379.000000 0.8704 0.8707 0.8710 0.8713 0.8715
2384.000000 0.8718 0.8719 0.8720 0.8721 0.8722
2389.000000 0.8723 0.8724 0.8725 0.8726 0.8727
2394.000000 0.8728 0.8729 0.8730 0.8729 0.8729
2399.000000 0.8728 0.8728 0.8727 0.8727 0.8726
2404.000000 0.8726 0.8724 0.8723 0.8721 0.8720
2409.000000 0.8718 0.8716 0.8714 0.8713 0.8711
2414.000000 0.8709 0.8707 0.8706 0.8704 0.8702
2419.000000 0.8700 0.8699 0.8696 0.8694 0.8691
2424.000000 0.8688 0.8685 0.8683 0.8680 0.8677
2429.000000 0.8674 0.8672 0.8669 0.8666 0.8663
2434.000000 0.8661 0.8658 0.8655 0.8652 0.8650
2439.000000 0.8647 0.8644 0.8641 0.8639 0.8636
2444.000000 0.8633 0.8630 0.8628 0.8625 0.8623
2449.000000 0.8620 0.8618 0.8616 0.8614 0.8611
2454.000000 0.8609 0.8606 0.8604 0.8601 0.8599
2459.000000 0.8597 0.8595 0.8592 0.8590 0.8588
2464.000000 0.8586 0.8585 0.8584 0.8583 0.8582
2469.000000 0.8581 0.8581 0.8580 0.8579 0.8578
2474.000000 0.8578 0.8577 0.8576 0.8575 0.8575
2479.000000 0.8575 0.8575 0.8575 0.8575 0.8575
2484.000000 0.8576 0.8576 0.8576 0.8576 0.8576
2489.000000 0.8576 0.8576 0.8575 0.8575 0.8570
2494.000000 0.8566 0.8561 0.8557 0.8553 0.8549
2499.000000 0.8544 0.8540 0.8532 0.8525 0.8517
2504.000000 0.8510 0.8502 0.8495 0.8487 0.8479
2509.000000 0.8472 0.8465 0.8458 0.8452 0.8446
2514.000000 0.8440 0.8433 0.8427 0.8420 0.8414
2519.000000 0.8408 0.8402 0.8396 0.8390 0.8385
2524.000000 0.8381 0.8377 0.8373 0.8369 0.8365
2529.000000 0.8361 0.8357 0.8352 0.8348 0.8344
2534.000000 0.8340 0.8338 0.8337 0.8337 0.8338
2539.000000 0.8338 0.8339 0.8340 0.8341 0.8341
2544.000000 0.8342 0.8343 0.8345 0.8348 0.8352
2549.000000 0.8355 0.8359 0.8362 0.8366 0.8369
2554.000000 0.8373 0.8376 0.8380 0.8382 0.8385
2559.000000 0.8388 0.8391 0.8394 0.8397 0.8399
2564.000000 0.8402 0.8405 0.8408 0.8410 0.8412
2569.000000 0.8414 0.8416 0.8418 0.8420 0.8422
2574.000000 0.8424 0.8431 0.8438 0.8445 0.8453
2579.000000 0.8465 0.8477 0.8478 0.8480 0.8479
2584.000000 0.8479 0.8478 0.8478 0.8477 0.8477
2589.000000 0.8475 0.8474 0.8473 0.8472 0.8471
2594.000000 0.8470 0.8469 0.8468 0.8466 0.8464
2599.000000 0.8461 0.8459 0.8456 0.8454 0.8451
2604.000000 0.8448 0.8445 0.8443 0.8440 0.8438
2609.000000 0.8433 0.8428 0.8422 0.8417 0.8412
2614.000000 0.8407 0.8401 0.8396 0.8392 0.8389
2619.000000 0.8387 0.8385 0.8383 0.8382 0.8383
2624.000000 0.8385 0.8394 0.8404 0.8418 0.8432
2629.000000 0.8444 0.8457 0.8465 0.8473 0.8476
2634.000000 0.8479 0.8481 0.8484 0.8487 0.8490
2639.000000 0.8493 0.8496 0.8499 0.8502 0.8505
2644.000000 0.8508 0.8509 0.8511 0.8512 0.8514
2649.000000 0.8515 0.8517 0.8518 0.8520 0.8521
2654.000000 0.8523 0.8525 0.8528 0.8530 0.8533
2659.000000 0.8535 0.8537 0.8539 0.8542 0.8543
2664.000000 0.8544 0.8545 0.8546 0.8546 0.8547
2669.000000 0.8548 0.8549 0.8549 0.8550 0.8547
2674.000000 0.8545 0.8543 0.8541 0.8539 0.8537
2679.000000 0.8535 0.8533 0.8531 0.8529 0.8523
2684.000000 0.8517 0.8511 0.8505 0.8499 0.8493
2689.000000 0.8487 0.8481 0.8474 0.8468 0.8461
2694.000000 0.8455 0.8448 0.8442 0.8435 0.8429
2699.000000 0.8422 0.8415 0.8408 0.8402 0.8395
2704.000000 0.8389 0.8382 0.8376 0.8369 0.8363
2709.000000 0.8356 0.8350 0.8344 0.8338 0.8334
2714.000000 0.8331 0.8330 0.8330 0.8329 0.8329
2719.000000 0.8328 0.8328 0.8327 0.8326 0.8325
2724.000000 0.8325 0.8327 0.8329 0.8330 0.8332
2729.000000 0.8334 0.8336 0.8337 0.8339 0.8341
2734.000000 0.8343 0.8345 0.8347 0.8349 0.8351
2739.000000 0.8352 0.8354 0.8356 0.8358 0.8360
2744.000000 0.8362 0.8363 0.8365 0.8366 0.8367
2749.000000 0.8367 0.8368 0.8368 0.8368 0.8368
2754.000000 0.8369 0.8369 0.8370 0.8369 0.8369
2759.000000 0.8367 0.8365 0.8362 0.8360 0.8358
2764.000000 0.8356 0.8353 0.8351 0.8349 0.8347
2769.000000 0.8342 0.8337 0.8331 0.8326 0.8320
2774.000000 0.8314 0.8308 0.8303 0.8297 0.8291
2779.000000 0.8285 0.8280 0.8273 0.8267 0.8256
2784.000000 0.8245 0.8234 0.8223 0.8212 0.8201
2789.000000 0.8190 0.8179 0.8167 0.8156 0.8143
2794.000000 0.8130 0.8117 0.8105 0.8092 0.8080
2799.000000 0.8067 0.8054 0.8042 0.8031 0.8021
2804.000000 0.8012 0.8003 0.7994 0.7985 0.7976
2809.000000 0.7969 0.7962 0.7961 0.7960 0.7959
2814.000000 0.7958 0.7957 0.7957 0.7956 0.7956
2819.000000 0.7955 0.7955 0.7952 0.7950 0.7947
2824.000000 0.7945 0.7942 0.7939 0.7935 0.7932
2829.000000 0.7928 0.7924 0.7906 0.7888 0.7855
2834.000000 0.7823 0.7793 0.7764 0.7733 0.7702
2839.000000 0.7667 0.7632 0.7596 0.7561 0.7528
2844.000000 0.7495 0.7462 0.7429 0.7396 0.7364
2849.000000 0.7317 0.7271 0.7186 0.7102 0.7032
2854.000000 0.6963 0.6904 0.6845 0.6780 0.6715
2859.000000 0.6638 0.6562 0.6471 0.6381 0.6283
2864.000000 0.6186 0.6089 0.5992 0.5894 0.5797
2869.000000 0.5699 0.5602 0.5526 0.5392 0.5492
2874.000000 0.5534 0.5629 0.5725 0.5820 0.5915
2879.000000 0.6010 0.6106 0.6199 0.6292 0.6324
2884.000000 0.6356 0.6366 0.6377 0.6379 0.6381
2889.000000 0.6380 0.6380 0.6378 0.6390 0.6368
2894.000000 0.6361 0.6350 0.6339 0.6326 0.6314
2899.000000 0.6297 0.6281 0.6255 0.6230 0.6202
2904.000000 0.6174 0.6149 0.6125 0.6097 0.6069
2909.000000 0.6034 0.5999 0.5953 0.5907 0.5859
2914.000000 0.5811 0.5724 0.5638 0.5547 0.5456
2919.000000 0.5393 0.5330 0.5276 0.5222 0.5178
2924.000000 0.5134 0.5091 0.5049 0.5023 0.4998
2929.000000 0.4980 0.4963 0.4961 0.4959 0.4963
2934.000000 0.4926 0.5024 0.5082 0.5229 0.5376
2939.000000 0.5523 0.5670 0.5817 0.5964 0.5971
2944.000000 0.5979 0.5975 0.5996 0.5961 0.5950
2949.000000 0.5713 0.5477 0.5179 0.4881 0.4583
2954.000000 0.4285 0.3987 0.3689 0.3391 0.3093
2959.000000 0.2795 0.2497 0.2228 0.1959 0.1959
2964.000000 0.1959 0.1959 0.1926 0.1969 0.1979
2969.000000 0.2003 0.2028 0.2101 0.2174 0.2235
2974.000000 0.2297 0.2375 0.2453 0.2521 0.2590
2979.000000 0.2702 0.2814 0.3001 0.3189 0.3376
2984.000000 0.3564 0.3751 0.3939 0.4126 0.4314
2989.000000 0.4502 0.4690 0.4877 0.5065 0.5252
2994.000000 0.5440 0.5627 0.5815 0.6002 0.6190
2999.000000 0.6297 0.6404 0.6399 0.6434 0.6385
3004.000000 0.6376 0.6338 0.6300 0.6252 0.6205
3009.000000 0.6153 0.6102 0.6039 0.5977 0.5912
3014.000000 0.5847 0.5708 0.5569 0.5430 0.5291
3019.000000 0.5152 0.5013 0.4874 0.4735 0.4645
3024.000000 0.4559 0.4560 0.4565 0.4723 0.4882
3029.000000 0.5074 0.5266 0.5316 0.5366 0.5366
3034.000000 0.5366 0.5363 0.5381 0.5350 0.5340
3039.000000 0.5322 0.5304 0.5257 0.5211 0.5170
3044.000000 0.5130 0.5060 0.4990 0.4885 0.4780
3049.000000 0.4701 0.4622 0.4628 0.4634 0.4650
3054.000000 0.4619 0.4782 0.4898 0.5028 0.5158
3059.000000 0.5682 0.6207 0.6293 0.6380 0.6449
3064.000000 0.6518 0.6574 0.6630 0.6680 0.6731
3069.000000 0.6762 0.6794 0.6822 0.6851 0.6869
3074.000000 0.6888 0.6904 0.6920 0.6932 0.6944
3079.000000 0.6949 0.6954 0.6956 0.6959 0.6961
3084.000000 0.6964 0.6966 0.6969 0.6972 0.6975
3089.000000 0.6978 0.6981 0.6984 0.6987 0.6994
3094.000000 0.7001 0.7032 0.7064 0.7135 0.7206
3099.000000 0.7266 0.7326 0.7387 0.7449 0.7518
3104.000000 0.7588 0.7663 0.7738 0.7805 0.7873
3109.000000 0.7920 0.7967 0.8014 0.8061 0.8099
3114.000000 0.8137 0.8174 0.8211 0.8243 0.8276
3119.000000 0.8302 0.8328 0.8345 0.8363 0.8374
3124.000000 0.8386 0.8396 0.8407 0.8414 0.8422
3129.000000 0.8429 0.8437 0.8444 0.8451 0.8455
3134.000000 0.8459 0.8463 0.8467 0.8471 0.8475
3139.000000 0.8479 0.8483 0.8485 0.8488 0.8490
3144.000000 0.8493 0.8495 0.8498 0.8499 0.8500
3149.000000 0.8500 0.8501 0.8502 0.8503 0.8503
3154.000000 0.8504 0.8503 0.8502 0.8500 0.8499
3159.000000 0.8498 0.8497 0.8496 0.8495 0.8493
3164.000000 0.8492 0.8491 0.8490 0.8488 0.8487
3169.000000 0.8486 0.8485 0.8483 0.8482 0.8481
3174.000000 0.8480 0.8478 0.8477 0.8476 0.8475
3179.000000 0.8473 0.8472 0.8470 0.8469 0.8468
3184.000000 0.8467 0.8465 0.8464 0.8463 0.8462
3189.000000 0.8463 0.8464 0.8466 0.8468 0.8469
3194.000000 0.8471 0.8474 0.8478 0.8482 0.8487
3199.000000 0.8491 0.8496 0.8500 0.8505 0.8511
3204.000000 0.8518 0.8525 0.8532 0.8538 0.8545
3209.000000 0.8551 0.8528 0.8561 0.8566 0.8571
3214.000000 0.8576 0.8581 0.8586 0.8590 0.8595
3219.000000 0.8596 0.8598 0.8600 0.8602 0.8604
3224.000000 0.8606 0.8608 0.8610 0.8611 0.8613
3229.000000 0.8615 0.8617 0.8617 0.8617 0.8617
3234.000000 0.8618 0.8618 0.8619 0.8619 0.8619
3239.000000 0.8619 0.8620 0.8620 0.8620 0.8620
3244.000000 0.8621 0.8619 0.8618 0.8616 0.8615
3249.000000 0.8614 0.8613 0.8611 0.8610 0.8608
3254.000000 0.8607 0.8605 0.8604 0.8603 0.8602
3259.000000 0.8600 0.8599 0.8597 0.8596 0.8594
3264.000000 0.8593 0.8592 0.8591 0.8589 0.8588
3269.000000 0.8587 0.8586 0.8585 0.8584 0.8582
3274.000000 0.8581 0.8580 0.8579 0.8577 0.8576
3279.000000 0.8575 0.8574 0.8572 0.8571 0.8569
3284.000000 0.8567 0.8565 0.8564 0.8562 0.8560
3289.000000 0.8558 0.8557 0.8555 0.8553 0.8548
3294.000000 0.8543 0.8538 0.8533 0.8528 0.8523
3299.000000 0.8518 0.8513 0.8508 0.8503 0.8497
3304.000000 0.8492 0.8484 0.8477 0.8469 0.8462
3309.000000 0.8454 0.8446 0.8438 0.8431 0.8423
3314.000000 0.8415 0.8404 0.8394 0.8384 0.8374
3319.000000 0.8363 0.8353 0.8343 0.8333 0.8322
3324.000000 0.8312 0.8300 0.8289 0.8276 0.8263
3329.000000 0.8249 0.8236 0.8222 0.8209 0.8196
3334.000000 0.8183 0.8169 0.8155 0.8141 0.8127
3339.000000 0.8113 0.8099 0.8085 0.8071 0.8057
3344.000000 0.8043 0.8028 0.8014 0.7995 0.7976
3349.000000 0.7957 0.7938 0.7918 0.7899 0.7879
3354.000000 0.7860 0.7836 0.7813 0.7783 0.7754
3359.000000 0.7721 0.7688 0.7645 0.7603 0.7565
3364.000000 0.7528 0.7493 0.7459 0.7423 0.7387
3369.000000 0.7346 0.7305 0.7263 0.7222 0.7180
3374.000000 0.7139 0.7099 0.7060 0.7022 0.6984
3379.000000 0.6945 0.6907 0.6867 0.6827 0.6772
3384.000000 0.6717 0.6662 0.6607 0.6544 0.6481
3389.000000 0.6416 0.6352 0.6293 0.6235 0.6179
3394.000000 0.6124 0.6061 0.5998 0.5906 0.5814
3399.000000 0.5725 0.5637 0.5565 0.5494 0.5427
3404.000000 0.5360 0.5308 0.5257 0.5217 0.5177
3409.000000 0.5144 0.5111 0.5078 0.5046 0.5014
3414.000000 0.4983 0.4961 0.4940 0.4930 0.4920
3419.000000 0.4922 0.4925 0.4929 0.4949 0.4950
3424.000000 0.4967 0.5034 0.5101 0.5231 0.5362
3429.000000 0.5493 0.5624 0.5684 0.5745 0.5771
3434.000000 0.5797 0.5842 0.5887 0.5955 0.6023
3439.000000 0.6560 0.7097 0.7330 0.7564 0.7725
3444.000000 0.7886 0.7949 0.8012 0.8049 0.8086
3449.000000 0.8120 0.8154 0.8185 0.8216 0.8247
3454.000000 0.8278 0.8308 0.8338 0.8361 0.8385
3459.000000 0.8408 0.8431 0.8450 0.8469 0.8483
3464.000000 0.8498 0.8512 0.8527 0.8542 0.8557
3469.000000 0.8571 0.8585 0.8595 0.8606 0.8616
3474.000000 0.8626 0.8636 0.8647 0.8657 0.8668
3479.000000 0.8677 0.8687 0.8692 0.8698 0.8703
3484.000000 0.8709 0.8714 0.8720 0.8726 0.8732
3489.000000 0.8737 0.8742 0.8746 0.8750 0.8754
3494.000000 0.8758 0.8762 0.8766 0.8770 0.8774
3499.000000 0.8778 0.8782 0.8786 0.8790 0.8792
3504.000000 0.8795 0.8797 0.8800 0.8802 0.8805
3509.000000 0.8807 0.8809 0.8811 0.8814 0.8816
3514.000000 0.8818 0.8820 0.8823 0.8824 0.8825
3519.000000 0.8826 0.8827 0.8828 0.8829 0.8829
3524.000000 0.8830 0.8831 0.8832 0.8833 0.8834
3529.000000 0.8834 0.8835 0.8835 0.8836 0.8836
3534.000000 0.8837 0.8837 0.8838 0.8838 0.8839
3539.000000 0.8839 0.8840 0.8840 0.8841 0.8841
3544.000000 0.8842 0.8843 0.8845 0.8847 0.8849
3549.000000 0.8851 0.8853 0.8855 0.8857 0.8859
3554.000000 0.8862 0.8865 0.8869 0.8872 0.8876
3559.000000 0.8879 0.8883 0.8886 0.8890 0.8890
3564.000000 0.8891 0.8891 0.8892 0.8892 0.8893
3569.000000 0.8893 0.8893 0.8893 0.8894 0.8893
3574.000000 0.8892 0.8890 0.8889 0.8887 0.8885
3579.000000 0.8883 0.8882 0.8880 0.8879 0.8877
3584.000000 0.8875 0.8873 0.8872 0.8870 0.8869
3589.000000 0.8867 0.8865 0.8863 0.8862 0.8860
3594.000000 0.8859 0.8857 0.8855 0.8853 0.8852
3599.000000 0.8851 0.8850 0.8849 0.8849 0.8848
3604.000000 0.8847 0.8846 0.8845 0.8844 0.8844
3609.000000 0.8843 0.8842 0.8841 0.8840 0.8839
3614.000000 0.8839 0.8838 0.8837 0.8836 0.8836
3619.000000 0.8835 0.8834 0.8833 0.8832 0.8831
3624.000000 0.8831 0.8831 0.8831 0.8831 0.8831
3629.000000 0.8831 0.8831 0.8831 0.8831 0.8831
3634.000000 0.8831 0.8831 0.8831 0.8831 0.8831
3639.000000 0.8831 0.8831 0.8831 0.8831 0.8831
3644.000000 0.8831 0.8831 0.8831 0.8831 0.8831
3649.000000 0.8832 0.8833 0.8834 0.8835 0.8835
3654.000000 0.8836 0.8837 0.8824 0.8838 0.8839
3659.000000 0.8840 0.8841 0.8841 0.8842 0.8843
3664.000000 0.8845 0.8847 0.8850 0.8852 0.8855
3669.000000 0.8857 0.8860 0.8863 0.8866 0.8868
3674.000000 0.8871 0.8873 0.8876 0.8878 0.8880
3679.000000 0.8881 0.8883 0.8885 0.8887 0.8883
3684.000000 0.8879 0.8873 0.8867 0.8860 0.8854
3689.000000 0.8849 0.8844 0.8839 0.8834 0.8830
3694.000000 0.8826 0.8825 0.8824 0.8823 0.8823
3699.000000 0.8822 0.8821 0.8820 0.8820 0.8820
3704.000000 0.8820 0.8820 0.8821 0.8821 0.8822
3709.000000 0.8822 0.8823 0.8824 0.8825 0.8826
3714.000000 0.8827 0.8828 0.8829 0.8830 0.8831
3719.000000 0.8832 0.8833 0.8833 0.8834 0.8834
3724.000000 0.8834 0.8833 0.8833 0.8833 0.8833
3729.000000 0.8832 0.8832 0.8832 0.8832 0.8831
3734.000000 0.8831 0.8831 0.8831 0.8831 0.8831
3739.000000 0.8830 0.8830 0.8830 0.8830 0.8830
3744.000000 0.8830 0.8829 0.8829 0.8829 0.8829
3749.000000 0.8828 0.8828 0.8828 0.8828 0.8827
3754.000000 0.8827 0.8826 0.8826 0.8825 0.8825
3759.000000 0.8825 0.8825 0.8824 0.8824 0.8823
3764.000000 0.8823 0.8822 0.8822 0.8821 0.8821
3769.000000 0.8821 0.8821 0.8821 0.8821 0.8820
3774.000000 0.8820 0.8820 0.8820 0.8820 0.8820
3779.000000 0.8819 0.8819 0.8819 0.8819 0.8819
3784.000000 0.8819 0.8819 0.8819 0.8819 0.8819
3789.000000 0.8819 0.8819 0.8819 0.8819 0.8819
3794.000000 0.8819 0.8819 0.8819 0.8819 0.8819
3799.000000 0.8819 0.8819
##END=
