##TITLE=5,5'-DIPHENYL-[2,2'-AZO-1,3,4-THIADIAZOLE]
##JCAMP-DX=4.24
##DATA TYPE=INFRARED SPECTRUM
##CLASS=COBLENTZ
##ORIGIN=NORBERT PETRI
##OWNER=COBLENTZ SOCIETY
Collection (C) 2018 copyright by the U.S. Secretary of Commerce
on behalf of the United States of America. All rights reserved.
##DATE=Not specified, most likely prior to 1970
##NAMES=2-phenyl-5-[(E)-(5-phenyl-1,3,4-thiadiazol-2-yl)diazenyl]-1,3,4-thiadiazole
##CAS REGISTRY NO=101279-08-7
##MOLFORM=C16 H10 N6 S2
##SOURCE REFERENCE=COBLENTZ NO. 3634
##$NIST SOURCE=COBLENTZ
##$NIST IMAGE=cob3634
##SPECTROMETER/DATA SYSTEM=Not specified, most likely a prism, grating, or hybrid spectrometer.
##STATE=SOLID (KBr PELLET)
##SAMPLING PROCEDURE=TRANSMISSION
##RESOLUTION=4
##DATA PROCESSING=DIGITIZED BY NIST FROM HARD COPY
##XUNITS=MICROMETERS
##YUNITS=TRANSMITTANCE
##XFACTOR=1.000000
##YFACTOR=1
##DELTAX=000.006021
##FIRSTX=2.03
##LASTX=15.397
##FIRSTY=0.224
##MAXX=15.397
##MINX=2.03
##MAXY=0.852
##MINY=0.105
##NPOINTS=2221
##XYDATA=(X++(Y..Y))
2.030000 0.2240 0.2260 0.2280 0.2260 0.2260
2.060120 0.2260 0.2260 0.2260 0.2260 0.2260
2.090000 0.2260 0.2270 0.2270 0.2270 0.2300
2.120120 0.2300 0.2310 0.2330 0.2350 0.2360
2.151000 0.2360 0.2370 0.2380 0.2380 0.2390
2.181120 0.2390 0.2390 0.2390 0.2420 0.2440
2.211000 0.2440 0.2440 0.2440 0.2460 0.2500
2.241120 0.2500 0.2520 0.2530 0.2540 0.2550
2.271000 0.2570 0.2570 0.2570 0.2570 0.2570
2.301120 0.2590 0.2590 0.2600 0.2630 0.2640
2.331000 0.2670 0.2670 0.2700 0.2700 0.2710
2.361120 0.2720 0.2740 0.2750 0.2750 0.2760
2.391000 0.2770 0.2780 0.2810 0.2810 0.2810
2.421120 0.2810 0.2810 0.2810 0.2820 0.2830
2.452000 0.2850 0.2870 0.2890 0.2910 0.2910
2.482120 0.2920 0.2930 0.2920 0.2930 0.2940
2.512000 0.2930 0.2940 0.2940 0.2940 0.2950
2.542120 0.2990 0.3000 0.3030 0.3050 0.3060
2.572000 0.3060 0.3080 0.3090 0.3100 0.3110
2.602120 0.3130 0.3140 0.3140 0.3160 0.3200
2.632000 0.3200 0.3210 0.3250 0.3250 0.3220
2.662120 0.3220 0.3220 0.3220 0.3220 0.3220
2.692000 0.3220 0.3250 0.3280 0.3300 0.3300
2.722120 0.3320 0.3340 0.3360 0.3360 0.3330
2.753000 0.3330 0.3330 0.3330 0.3340 0.3360
2.783120 0.3360 0.3340 0.3330 0.3320 0.3310
2.813000 0.3300 0.3310 0.3300 0.3280 0.3270
2.843120 0.3270 0.3210 0.3190 0.3200 0.3150
2.873000 0.3150 0.3150 0.3150 0.3150 0.3140
2.903120 0.3130 0.3110 0.3110 0.3130 0.3140
2.933000 0.3160 0.3190 0.3190 0.3200 0.3200
2.963120 0.3200 0.3220 0.3230 0.3270 0.3280
2.994000 0.3300 0.3310 0.3330 0.3370 0.3440
3.024120 0.3450 0.3470 0.3480 0.3490 0.3500
3.054000 0.3500 0.3500 0.3500 0.3530 0.3540
3.084120 0.3580 0.3590 0.3610 0.3640 0.3640
3.114000 0.3650 0.3700 0.3700 0.3710 0.3720
3.144120 0.3730 0.3770 0.3830 0.3840 0.3860
3.174000 0.3870 0.3870 0.3880 0.3880 0.3890
3.204120 0.3920 0.3920 0.3920 0.3990 0.4000
3.234000 0.4000 0.4000 0.3990 0.4000 0.4000
3.264120 0.4010 0.4030 0.4040 0.4030 0.4050
3.295000 0.4080 0.4080 0.4060 0.4060 0.4060
3.325120 0.4080 0.4090 0.4100 0.4120 0.4140
3.355000 0.4120 0.4160 0.4170 0.4170 0.4170
3.385120 0.4150 0.4140 0.4120 0.4120 0.4150
3.415000 0.4170 0.4170 0.4160 0.4160 0.4200
3.445120 0.4210 0.4220 0.4220 0.4220 0.4220
3.475000 0.4250 0.4260 0.4260 0.4280 0.4290
3.505120 0.4310 0.4310 0.4310 0.4320 0.4320
3.535000 0.4330 0.4360 0.4390 0.4400 0.4420
3.565120 0.4440 0.4450 0.4470 0.4500 0.4530
3.596000 0.4550 0.4530 0.4540 0.4590 0.4610
3.626120 0.4680 0.4700 0.4710 0.4710 0.4680
3.656000 0.4700 0.4700 0.4700 0.4710 0.4710
3.686120 0.4730 0.4750 0.4750 0.4770 0.4780
3.716000 0.4790 0.4810 0.4830 0.4840 0.4830
3.746120 0.4840 0.4880 0.4900 0.4930 0.4950
3.776000 0.4950 0.4940 0.4940 0.4890 0.4890
3.806120 0.4940 0.4950 0.4980 0.5000 0.5010
3.836000 0.5000 0.4960 0.4980 0.4990 0.4990
3.866120 0.5000 0.5000 0.5000 0.5010 0.5010
3.897000 0.5030 0.5030 0.5040 0.5050 0.5060
3.927120 0.5070 0.5060 0.5060 0.5060 0.5060
3.957000 0.5100 0.5100 0.5110 0.5120 0.5140
3.987120 0.5150 0.5160 0.5160 0.5160 0.5170
4.017000 0.5170 0.5170 0.5200 0.5240 0.5260
4.047120 0.5240 0.5230 0.5230 0.5230 0.5240
4.077000 0.5240 0.5240 0.5240 0.5280 0.5310
4.107120 0.5320 0.5320 0.5320 0.5320 0.5330
4.138000 0.5330 0.5340 0.5350 0.5370 0.5370
4.168120 0.5380 0.5380 0.5430 0.5460 0.5500
4.198000 0.5510 0.5510 0.5500 0.5450 0.5420
4.228120 0.5420 0.5400 0.5400 0.5390 0.5390
4.258000 0.5380 0.5380 0.5380 0.5380 0.5380
4.288120 0.5380 0.5400 0.5400 0.5420 0.5420
4.318000 0.5420 0.5430 0.5440 0.5460 0.5480
4.348120 0.5490 0.5500 0.5500 0.5550 0.5620
4.378000 0.5660 0.5670 0.5670 0.5680 0.5670
4.408120 0.5670 0.5680 0.5680 0.5700 0.5700
4.439000 0.5680 0.5680 0.5730 0.5730 0.5720
4.469120 0.5720 0.5720 0.5720 0.5740 0.5790
4.499000 0.5800 0.5820 0.5840 0.5840 0.5830
4.529120 0.5820 0.5820 0.5800 0.5790 0.5790
4.559000 0.5770 0.5760 0.5720 0.5710 0.5720
4.589120 0.5730 0.5740 0.5800 0.5820 0.5820
4.619000 0.5800 0.5800 0.5820 0.5820 0.5840
4.649120 0.5900 0.5910 0.5930 0.5930 0.5930
4.679000 0.5940 0.5950 0.5950 0.5950 0.6000
4.709120 0.6000 0.5990 0.6000 0.6000 0.6040
4.740000 0.6090 0.6100 0.6070 0.6070 0.6070
4.770120 0.6070 0.6070 0.6070 0.6070 0.6110
4.800000 0.6100 0.6100 0.6100 0.6100 0.6100
4.830120 0.6100 0.6120 0.6120 0.6130 0.6150
4.860000 0.6150 0.6150 0.6160 0.6190 0.6210
4.890120 0.6210 0.6210 0.6210 0.6210 0.6210
4.920000 0.6220 0.6220 0.6230 0.6260 0.6260
4.950120 0.6260 0.6260 0.6260 0.6240 0.6240
4.981000 0.6240 0.6240 0.6260 0.6290 0.6320
5.011120 0.6340 0.6340 0.6330 0.6300 0.6300
5.041000 0.6290 0.6280 0.6280 0.6270 0.6270
5.071120 0.6260 0.6260 0.6260 0.6260 0.6290
5.101000 0.6330 0.6330 0.6340 0.6350 0.6370
5.131120 0.6380 0.6380 0.6390 0.6430 0.6450
5.161000 0.6500 0.6500 0.6510 0.6520 0.6520
5.191120 0.6510 0.6510 0.6520 0.6520 0.6520
5.221000 0.6520 0.6520 0.6520 0.6520 0.6540
5.251120 0.6550 0.6540 0.6540 0.6540 0.6540
5.282000 0.6540 0.6550 0.6510 0.6520 0.6520
5.312120 0.6580 0.6600 0.6600 0.6580 0.6600
5.342000 0.6610 0.6630 0.6630 0.6650 0.6650
5.372120 0.6650 0.6660 0.6670 0.6720 0.6720
5.402000 0.6690 0.6690 0.6690 0.6690 0.6690
5.432120 0.6680 0.6680 0.6670 0.6680 0.6680
5.462000 0.6680 0.6690 0.6710 0.6710 0.6720
5.492120 0.6730 0.6720 0.6720 0.6720 0.6720
5.522000 0.6720 0.6720 0.6730 0.6740 0.6760
5.552120 0.6770 0.6770 0.6820 0.6830 0.6830
5.583000 0.6840 0.6840 0.6820 0.6830 0.6850
5.613120 0.6830 0.6840 0.6840 0.6850 0.6860
5.643000 0.6890 0.6860 0.6850 0.6850 0.6840
5.673120 0.6820 0.6800 0.6800 0.6740 0.6720
5.703000 0.6720 0.6720 0.6720 0.6730 0.6820
5.733120 0.6820 0.6800 0.6760 0.6780 0.6790
5.763000 0.6820 0.6820 0.6830 0.6820 0.6820
5.793120 0.6820 0.6790 0.6790 0.6820 0.6820
5.824000 0.6820 0.6800 0.6790 0.6780 0.6770
5.854120 0.6770 0.6770 0.6770 0.6770 0.6790
5.884000 0.6800 0.6820 0.6830 0.6830 0.6800
5.914120 0.6770 0.6730 0.6730 0.6790 0.6790
5.944000 0.6790 0.6770 0.6770 0.6780 0.6780
5.974120 0.6770 0.6760 0.6760 0.6760 0.6740
6.004000 0.6710 0.6690 0.6660 0.6620 0.6620
6.034120 0.6630 0.6650 0.6650 0.6660 0.6670
6.064000 0.6690 0.6680 0.6680 0.6670 0.6660
6.094120 0.6650 0.6660 0.6670 0.6690 0.6710
6.125000 0.6690 0.6680 0.6690 0.6710 0.6740
6.155120 0.6770 0.6770 0.6780 0.6790 0.6830
6.185000 0.6850 0.6860 0.6860 0.6860 0.6850
6.215120 0.6830 0.6790 0.6760 0.6660 0.6460
6.245000 0.6290 0.6190 0.6150 0.6210 0.6350
6.275120 0.6550 0.6650 0.6710 0.6760 0.6820
6.305000 0.6840 0.6890 0.6880 0.6890 0.6890
6.335120 0.6900 0.6990 0.7010 0.7010 0.7020
6.365000 0.7070 0.7070 0.7080 0.7120 0.7110
6.395120 0.7120 0.7130 0.7140 0.7170 0.7180
6.426000 0.7190 0.7190 0.7220 0.7240 0.7240
6.456120 0.7220 0.7220 0.7220 0.7220 0.7230
6.486000 0.7230 0.7250 0.7270 0.7280 0.7300
6.516120 0.7360 0.7400 0.7400 0.7390 0.7380
6.546000 0.7380 0.7400 0.7400 0.7400 0.7400
6.576120 0.7410 0.7460 0.7460 0.7500 0.7510
6.606000 0.7510 0.7530 0.7530 0.7550 0.7550
6.636120 0.7580 0.7580 0.7580 0.7560 0.7530
6.667000 0.7520 0.7510 0.7490 0.7470 0.7470
6.697120 0.7490 0.7510 0.7530 0.7630 0.7640
6.727000 0.7660 0.7680 0.7680 0.7690 0.7710
6.757120 0.7730 0.7740 0.7730 0.7710 0.7710
6.787000 0.7690 0.7710 0.7720 0.7730 0.7740
6.817120 0.7740 0.7740 0.7730 0.7730 0.7710
6.847000 0.7640 0.7490 0.7250 0.6340 0.5430
6.877120 0.4310 0.4010 0.4230 0.4450 0.5000
6.907000 0.5680 0.6400 0.6600 0.6830 0.7010
6.937120 0.7100 0.7180 0.7230 0.7300 0.7400
6.968000 0.7450 0.7510 0.7530 0.7550 0.7580
6.998120 0.7660 0.7680 0.7690 0.7710 0.7750
7.028000 0.7770 0.7790 0.7800 0.7810 0.7830
7.058120 0.7840 0.7880 0.7890 0.7950 0.7990
7.088000 0.7990 0.7950 0.7800 0.7580 0.7420
7.118120 0.7180 0.6800 0.6130 0.5980 0.5820
7.148000 0.5280 0.4720 0.4250 0.4110 0.3970
7.178120 0.3500 0.3050 0.2490 0.2030 0.1880
7.208000 0.1720 0.1490 0.1320 0.1230 0.1130
7.238120 0.1050 0.1050 0.1250 0.1480 0.1820
7.269000 0.2490 0.3030 0.3210 0.3450 0.3890
7.299120 0.4450 0.4760 0.4810 0.4930 0.5120
7.329000 0.5260 0.5330 0.5420 0.5520 0.5670
7.359120 0.5790 0.5880 0.5990 0.6070 0.6120
7.389000 0.6170 0.6260 0.6330 0.6380 0.6470
7.419120 0.6550 0.6600 0.6610 0.6620 0.6650
7.449000 0.6680 0.6690 0.6690 0.6690 0.6690
7.479120 0.6690 0.6690 0.6690 0.6680 0.6620
7.509000 0.6510 0.6490 0.6430 0.6390 0.6380
7.539120 0.6390 0.6490 0.6550 0.6600 0.6600
7.570000 0.6600 0.6580 0.6560 0.6490 0.6380
7.600120 0.6190 0.6070 0.6040 0.5990 0.5980
7.630000 0.6150 0.6280 0.6350 0.6490 0.6580
7.660120 0.6600 0.6680 0.6710 0.6790 0.6800
7.690000 0.6850 0.6880 0.6900 0.6910 0.6910
7.720120 0.6910 0.6930 0.6940 0.6950 0.6990
7.750000 0.7000 0.7010 0.7020 0.7040 0.7040
7.780120 0.7040 0.7040 0.7020 0.7010 0.7010
7.811000 0.7000 0.7000 0.7020 0.7040 0.7080
7.841120 0.7100 0.7120 0.7160 0.7190 0.7210
7.871000 0.7220 0.7230 0.7240 0.7250 0.7290
7.901120 0.7320 0.7320 0.7330 0.7330 0.7330
7.931000 0.7330 0.7340 0.7350 0.7300 0.7280
7.961120 0.7250 0.7240 0.7120 0.7020 0.6910
7.991000 0.6520 0.6150 0.5830 0.5500 0.4770
8.021120 0.4200 0.4100 0.3990 0.3990 0.4400
8.051000 0.4900 0.5110 0.5330 0.5540 0.5680
8.081120 0.5790 0.5870 0.5960 0.6170 0.6220
8.112000 0.6280 0.6300 0.6340 0.6380 0.6410
8.142120 0.6430 0.6470 0.6510 0.6560 0.6580
8.172000 0.6580 0.6620 0.6690 0.6740 0.6760
8.202120 0.6850 0.6880 0.6890 0.6930 0.6990
8.232000 0.7010 0.7080 0.7140 0.7160 0.7170
8.262120 0.7180 0.7220 0.7220 0.7190 0.7180
8.292000 0.7080 0.6930 0.6820 0.6780 0.6730
8.322120 0.6730 0.6830 0.6890 0.6990 0.7050
8.352000 0.7100 0.7100 0.7110 0.7170 0.7180
8.382120 0.7190 0.7220 0.7220 0.7220 0.7210
8.413000 0.7190 0.7180 0.7160 0.7070 0.6990
8.443120 0.6780 0.6610 0.6540 0.6490 0.6450
8.473000 0.6370 0.6400 0.6540 0.6630 0.6800
8.503120 0.6910 0.7010 0.7060 0.7110 0.7180
8.533000 0.7190 0.7210 0.7230 0.7270 0.7320
8.563120 0.7340 0.7330 0.7340 0.7350 0.7360
8.593000 0.7410 0.7410 0.7410 0.7410 0.7420
8.623120 0.7440 0.7440 0.7450 0.7450 0.7450
8.654000 0.7450 0.7450 0.7440 0.7440 0.7410
8.684120 0.7390 0.7380 0.7380 0.7360 0.7360
8.714000 0.7390 0.7490 0.7500 0.7470 0.7490
8.744120 0.7500 0.7510 0.7510 0.7510 0.7510
8.774000 0.7520 0.7520 0.7560 0.7570 0.7570
8.804120 0.7610 0.7610 0.7620 0.7630 0.7640
8.834000 0.7640 0.7670 0.7690 0.7720 0.7720
8.864120 0.7710 0.7710 0.7690 0.7690 0.7690
8.894000 0.7690 0.7690 0.7690 0.7690 0.7690
8.924120 0.7690 0.7690 0.7690 0.7680 0.7610
8.955000 0.7580 0.7560 0.7510 0.7420 0.7220
8.985120 0.7040 0.6670 0.6190 0.5910 0.5630
9.015000 0.5060 0.4510 0.4140 0.3760 0.3160
9.045120 0.2830 0.2380 0.2190 0.2160 0.2160
9.075000 0.2410 0.2890 0.3410 0.3760 0.4380
9.105120 0.4550 0.4650 0.4700 0.4700 0.4660
9.135000 0.4620 0.4620 0.4650 0.4770 0.4940
9.165120 0.5230 0.5270 0.5380 0.5570 0.5660
9.195000 0.5800 0.6160 0.6220 0.6340 0.6400
9.225120 0.6410 0.6490 0.6540 0.6600 0.6630
9.256000 0.6670 0.6670 0.6690 0.6760 0.6790
9.286120 0.6820 0.6830 0.6850 0.6890 0.6860
9.316000 0.6850 0.6840 0.6790 0.6780 0.6660
9.346120 0.6490 0.6380 0.6210 0.6120 0.6010
9.376000 0.6000 0.5980 0.5940 0.5940 0.5960
9.406120 0.6180 0.6290 0.6500 0.6580 0.6610
9.436000 0.6710 0.6740 0.6790 0.6880 0.6910
9.466120 0.6990 0.7020 0.7060 0.7130 0.7170
9.497000 0.7190 0.7220 0.7230 0.7230 0.7230
9.527120 0.7240 0.7300 0.7330 0.7330 0.7380
9.557000 0.7420 0.7440 0.7450 0.7470 0.7490
9.587120 0.7490 0.7470 0.7490 0.7490 0.7500
9.617000 0.7510 0.7520 0.7530 0.7510 0.7520
9.647120 0.7530 0.7560 0.7560 0.7570 0.7570
9.677000 0.7560 0.7500 0.7360 0.7190 0.6800
9.707120 0.6610 0.6500 0.6490 0.6500 0.6510
9.737000 0.6620 0.6710 0.6800 0.6890 0.7010
9.767120 0.7110 0.7170 0.7190 0.7220 0.7270
9.798000 0.7290 0.7320 0.7380 0.7400 0.7410
9.828120 0.7450 0.7500 0.7500 0.7520 0.7560
9.858000 0.7560 0.7580 0.7600 0.7600 0.7610
9.888120 0.7610 0.7610 0.7620 0.7620 0.7640
9.918000 0.7660 0.7660 0.7680 0.7710 0.7710
9.948120 0.7670 0.7660 0.7630 0.7610 0.7600
9.978000 0.7460 0.7240 0.7160 0.6790 0.6660
10.008120 0.6670 0.6790 0.6910 0.7050 0.7190
10.038000 0.7340 0.7400 0.7460 0.7520 0.7520
10.068120 0.7530 0.7560 0.7570 0.7570 0.7560
10.099000 0.7570 0.7580 0.7620 0.7630 0.7660
10.129120 0.7660 0.7670 0.7670 0.7680 0.7670
10.159000 0.7660 0.7640 0.7630 0.7640 0.7660
10.189120 0.7660 0.7670 0.7670 0.7680 0.7690
10.219000 0.7690 0.7690 0.7710 0.7730 0.7740
10.249120 0.7740 0.7750 0.7770 0.7810 0.7830
10.279000 0.7850 0.7910 0.7910 0.7880 0.7880
10.309120 0.7880 0.7880 0.7880 0.7880 0.7890
10.340000 0.7900 0.7900 0.7900 0.7900 0.7910
10.370120 0.7920 0.7940 0.7950 0.7970 0.7990
10.400000 0.7970 0.7970 0.7990 0.7990 0.8020
10.430120 0.8030 0.8060 0.8070 0.8070 0.8070
10.460000 0.8070 0.8070 0.8070 0.8070 0.8080
10.490120 0.8080 0.8080 0.8080 0.8080 0.8080
10.520000 0.8080 0.8080 0.8080 0.8080 0.8080
10.550120 0.8080 0.8080 0.8080 0.8080 0.8070
10.580000 0.8070 0.8090 0.8090 0.8080 0.8090
10.610120 0.8090 0.8080 0.8080 0.8080 0.8080
10.641000 0.8090 0.8080 0.8080 0.8070 0.8070
10.671120 0.8080 0.8080 0.8080 0.8090 0.8110
10.701000 0.8110 0.8110 0.8110 0.8130 0.8140
10.731120 0.8140 0.8170 0.8170 0.8160 0.8160
10.761000 0.8160 0.8140 0.8130 0.8130 0.8160
10.791120 0.8170 0.8180 0.8180 0.8180 0.8180
10.821000 0.8180 0.8180 0.8180 0.8200 0.8200
10.851120 0.8180 0.8160 0.8140 0.8160 0.8160
10.881000 0.8160 0.8180 0.8140 0.8090 0.8050
10.911120 0.8010 0.8000 0.7990 0.7970 0.7920
10.942000 0.7880 0.7840 0.7810 0.7790 0.7740
10.972120 0.7690 0.7680 0.7720 0.7740 0.7810
11.002000 0.7880 0.7940 0.7970 0.8030 0.8060
11.032120 0.8070 0.8080 0.8110 0.8130 0.8160
11.062000 0.8180 0.8180 0.8180 0.8190 0.8180
11.092120 0.8160 0.8160 0.8170 0.8180 0.8190
11.122000 0.8200 0.8200 0.8200 0.8220 0.8220
11.152120 0.8200 0.8180 0.8180 0.8170 0.8160
11.182000 0.8160 0.8160 0.8170 0.8170 0.8160
11.212120 0.8140 0.8130 0.8130 0.8140 0.8160
11.243000 0.8170 0.8190 0.8190 0.8200 0.8220
11.273120 0.8240 0.8240 0.8240 0.8200 0.8230
11.303000 0.8230 0.8230 0.8230 0.8220 0.8200
11.333120 0.8220 0.8220 0.8230 0.8230 0.8230
11.363000 0.8230 0.8230 0.8230 0.8230 0.8230
11.393120 0.8220 0.8220 0.8220 0.8230 0.8230
11.423000 0.8240 0.8250 0.8290 0.8290 0.8270
11.453120 0.8280 0.8280 0.8280 0.8280 0.8280
11.484000 0.8290 0.8290 0.8300 0.8300 0.8310
11.514120 0.8330 0.8340 0.8340 0.8340 0.8330
11.544000 0.8310 0.8280 0.8250 0.8250 0.8270
11.574120 0.8280 0.8290 0.8300 0.8330 0.8340
11.604000 0.8340 0.8340 0.8340 0.8340 0.8360
11.634120 0.8360 0.8340 0.8330 0.8330 0.8310
11.664000 0.8310 0.8330 0.8380 0.8380 0.8300
11.694120 0.8300 0.8340 0.8350 0.8350 0.8360
11.724000 0.8380 0.8380 0.8390 0.8390 0.8390
11.754120 0.8380 0.8380 0.8360 0.8360 0.8340
11.785000 0.8310 0.8310 0.8290 0.8270 0.8220
11.815120 0.8220 0.8190 0.8180 0.8170 0.8160
11.845000 0.8160 0.8160 0.8170 0.8170 0.8180
11.875120 0.8190 0.8190 0.8220 0.8240 0.8280
11.905000 0.8330 0.8360 0.8360 0.8350 0.8340
11.935120 0.8340 0.8350 0.8350 0.8360 0.8360
11.965000 0.8380 0.8380 0.8380 0.8390 0.8400
11.995120 0.8410 0.8420 0.8420 0.8440 0.8450
12.025000 0.8480 0.8480 0.8480 0.8470 0.8470
12.055120 0.8470 0.8450 0.8420 0.8420 0.8440
12.086000 0.8450 0.8460 0.8470 0.8480 0.8500
12.116120 0.8510 0.8510 0.8510 0.8510 0.8460
12.146000 0.8470 0.8500 0.8510 0.8500 0.8500
12.176120 0.8480 0.8480 0.8460 0.8480 0.8480
12.206000 0.8480 0.8470 0.8460 0.8450 0.8450
12.236120 0.8480 0.8480 0.8480 0.8470 0.8470
12.266000 0.8460 0.8470 0.8480 0.8480 0.8510
12.296120 0.8500 0.8500 0.8470 0.8480 0.8480
12.327000 0.8500 0.8510 0.8510 0.8510 0.8510
12.357120 0.8520 0.8520 0.8520 0.8510 0.8500
12.387000 0.8470 0.8460 0.8460 0.8480 0.8480
12.417120 0.8470 0.8450 0.8440 0.8480 0.8480
12.447000 0.8460 0.8470 0.8480 0.8480 0.8480
12.477120 0.8480 0.8480 0.8470 0.8470 0.8460
12.507000 0.8460 0.8480 0.8510 0.8510 0.8510
12.537120 0.8510 0.8480 0.8470 0.8470 0.8470
12.567000 0.8500 0.8470 0.8460 0.8480 0.8480
12.597120 0.8470 0.8470 0.8480 0.8480 0.8470
12.628000 0.8440 0.8420 0.8420 0.8420 0.8420
12.658120 0.8460 0.8500 0.8500 0.8480 0.8480
12.688000 0.8460 0.8450 0.8440 0.8440 0.8450
12.718120 0.8470 0.8470 0.8440 0.8390 0.8360
12.748000 0.8330 0.8310 0.8280 0.8280 0.8270
12.778120 0.8270 0.8250 0.8240 0.8230 0.8220
12.808000 0.8200 0.8190 0.8180 0.8180 0.8180
12.838120 0.8160 0.8160 0.8160 0.8170 0.8170
12.868000 0.8170 0.8180 0.8180 0.8180 0.8180
12.898120 0.8170 0.8080 0.8010 0.8000 0.7990
12.929000 0.7960 0.7880 0.7790 0.7690 0.7550
12.959120 0.7450 0.7390 0.7190 0.6950 0.6690
12.989000 0.6410 0.6100 0.5830 0.5550 0.5240
13.019120 0.4880 0.4510 0.4340 0.4190 0.4040
13.049000 0.3890 0.3880 0.3710 0.3700 0.3690
13.079120 0.3690 0.3700 0.3770 0.3840 0.4170
13.109000 0.4440 0.4830 0.5000 0.5210 0.5400
13.139120 0.5560 0.5730 0.5940 0.6340 0.6500
13.170000 0.6580 0.6670 0.6780 0.6930 0.7050
13.200120 0.7160 0.7190 0.7270 0.7340 0.7440
13.230000 0.7530 0.7560 0.7630 0.7690 0.7710
13.260120 0.7770 0.7790 0.7830 0.7860 0.7910
13.290000 0.7970 0.8010 0.8030 0.8060 0.8070
13.320120 0.8080 0.8090 0.8110 0.8130 0.8160
13.350000 0.8170 0.8180 0.8180 0.8180 0.8180
13.380120 0.8140 0.8110 0.8060 0.8000 0.7950
13.410000 0.7900 0.7810 0.7740 0.7630 0.7520
13.440120 0.7360 0.7070 0.6820 0.6540 0.6340
13.471000 0.6100 0.6000 0.5890 0.5730 0.5590
13.501120 0.5460 0.5320 0.5230 0.5180 0.5160
13.531000 0.5180 0.5230 0.5320 0.5480 0.5570
13.561120 0.5660 0.5790 0.6110 0.6170 0.6320
13.591000 0.6510 0.6680 0.6790 0.6880 0.6960
13.621120 0.7060 0.7140 0.7230 0.7330 0.7440
13.651000 0.7550 0.7610 0.7670 0.7690 0.7710
13.681120 0.7750 0.7790 0.7890 0.7940 0.7960
13.711000 0.7970 0.7970 0.7990 0.7990 0.8030
13.741120 0.8050 0.8060 0.8070 0.8080 0.8090
13.772000 0.8110 0.8120 0.8140 0.8170 0.8170
13.802120 0.8180 0.8180 0.8180 0.8170 0.8160
13.832000 0.8160 0.8170 0.8180 0.8180 0.8180
13.862120 0.8180 0.8180 0.8180 0.8180 0.8180
13.892000 0.8180 0.8180 0.8170 0.8170 0.8190
13.922120 0.8200 0.8220 0.8200 0.8200 0.8200
13.952000 0.8200 0.8180 0.8180 0.8170 0.8180
13.982120 0.8180 0.8200 0.8220 0.8200 0.8190
14.013000 0.8200 0.8220 0.8230 0.8290 0.8290
14.043120 0.8270 0.8270 0.8230 0.8230 0.8200
14.073000 0.8200 0.8200 0.8200 0.8220 0.8220
14.103120 0.8220 0.8220 0.8230 0.8230 0.8230
14.133000 0.8220 0.8200 0.8200 0.8230 0.8230
14.163120 0.8250 0.8250 0.8270 0.8280 0.8280
14.193000 0.8280 0.8280 0.8270 0.8270 0.8250
14.223120 0.8240 0.8220 0.8190 0.8190 0.8180
14.253000 0.8190 0.8190 0.8200 0.8200 0.8190
14.283120 0.8180 0.8170 0.8160 0.8140 0.8120
14.314000 0.8110 0.8110 0.8070 0.8070 0.8030
14.344120 0.8010 0.7990 0.7970 0.7950 0.7900
14.374000 0.7840 0.7770 0.7680 0.7510 0.7360
14.404120 0.7220 0.7070 0.6900 0.6730 0.6550
14.434000 0.6340 0.6120 0.6000 0.5870 0.5730
14.464120 0.5590 0.5480 0.5430 0.5380 0.5340
14.494000 0.5290 0.5280 0.5240 0.5230 0.5230
14.524120 0.5230 0.5220 0.5140 0.5120 0.5010
14.554000 0.4940 0.4890 0.4790 0.4720 0.4650
14.584120 0.4620 0.4540 0.4500 0.4440 0.4420
14.615000 0.4380 0.4360 0.4340 0.4340 0.4360
14.645120 0.4380 0.4420 0.4470 0.4540 0.4620
14.675000 0.4730 0.4840 0.4950 0.5060 0.5180
14.705120 0.5290 0.5400 0.5520 0.5630 0.5760
14.735000 0.5870 0.5980 0.6190 0.6290 0.6400
14.765120 0.6500 0.6580 0.6680 0.6770 0.6840
14.795000 0.6910 0.6960 0.6970 0.7010 0.7050
14.825120 0.7050 0.7070 0.7120 0.7140 0.7170
14.855000 0.7170 0.7190 0.7220 0.7220 0.7230
14.885120 0.7250 0.7290 0.7330 0.7350 0.7360
14.916000 0.7380 0.7380 0.7380 0.7360 0.7360
14.946120 0.7350 0.7340 0.7340 0.7380 0.7380
14.976000 0.7360 0.7330 0.7320 0.7320 0.7360
15.006120 0.7410 0.7470 0.7510 0.7510 0.7570
15.036000 0.7610 0.7630 0.7640 0.7660 0.7670
15.066120 0.7670 0.7690 0.7690 0.7710 0.7710
15.096000 0.7680 0.7680 0.7680 0.7670 0.7670
15.126120 0.7670 0.7680 0.7690 0.7690 0.7690
15.157000 0.7690 0.7680 0.7680 0.7680 0.7690
15.187120 0.7720 0.7750 0.7780 0.7780 0.7780
15.217000 0.7740 0.7750 0.7790 0.7790 0.7790
15.247120 0.7790 0.7780 0.7780 0.7750 0.7710
15.277000 0.7690 0.7710 0.7740 0.7770 0.7780
15.307120 0.7780 0.7790 0.7790 0.7790 0.7780
15.337000 0.7770 0.7770 0.7750 0.7750 0.7750
15.367120 0.7750 0.7750 0.7750 0.7750 0.7750
15.397000 0.7750
##END=
