##TITLE=TRIACETIN
##JCAMP-DX=4.24
##DATA TYPE=INFRARED SPECTRUM
##CLASS=COBLENTZ III
##ORIGIN=DOW CHEMICAL COMPANY
##OWNER=COBLENTZ SOC.
Collection (C) 2018 copyright by the U.S. Secretary of Commerce
on behalf of the United States of America. All rights reserved.
##DATE=1964/05/06
##NAMES=2-(acetyloxy)-1-[(acetyloxy)methyl]ethyl acetate
##CAS REGISTRY NO=102-76-1
##MOLFORM=C9 H14 O6
##SOURCE REFERENCE=COBLENTZ NO. 06768
##$NIST SOURCE=COBLENTZ
##$NIST IMAGE=cob6768
##SPECTROMETER/DATA SYSTEM=DOW KBr FOREPRISM-GRATING
##INSTRUMENT PARAMETERS=BLAZED AT 3.5, 12.0, 20.0 MICRON AND CHANGED AT 5.0, 7.5, 14.9 MICRON
##STATE=SOLUTION (10% CCl4 FOR 3800-1340, 10% CS2 FOR 1340-450 CM^-^1)
##PATH LENGTH=0.011 CM, 0.011 CM
$$SPECTRAL CONTAMINATION DUE TO CCl4 AROUND 1550 CM^-^1
$$ SEE SPECTRUM NO. 6424 FOR "PRISM" SPECTRUM
##SAMPLING PROCEDURE=TRANSMISSION
##RESOLUTION=2
##DATA PROCESSING=DIGITIZED BY COBLENTZ SOCIETY (BATCH I) FROM HARD COPY
##XUNITS=1/CM
##YUNITS=TRANSMITTANCE
##XLABEL=Wavenumbers (cm-1)
##YLABEL=% Transmission
##XFACTOR=1
##YFACTOR=1
##DELTAX=1
##FIRSTX=452
##LASTX=3800
##FIRSTY=0.822
##MAXX=3800
##MINX=452
##MAXY=1.0445
##MINY=0
##NPOINTS=3349
##XYDATA=(X++(Y..Y))
452.000000 0.8220 0.8242 0.8264 0.8285 0.8311
457.000000 0.8338 0.8365 0.8392 0.8418 0.8450
462.000000 0.8493 0.8537 0.8580 0.8630 0.8700
467.000000 0.8770 0.8847 0.8930 0.9013 0.9090
472.000000 0.9151 0.9165 0.9180 0.9189 0.9194
477.000000 0.9199 0.9203 0.9207 0.9211 0.9214
482.000000 0.9221 0.9245 0.9284 0.9323 0.9360
487.000000 0.9397 0.9435 0.9471 0.9508 0.9544
492.000000 0.9575 0.9589 0.9602 0.9615 0.9621
497.000000 0.9624 0.9627 0.9628 0.9628 0.9628
502.000000 0.9625 0.9625 0.9624 0.9624 0.9625
507.000000 0.9627 0.9628 0.9631 0.9635 0.9660
512.000000 0.9685 0.9713 0.9750 0.9787 0.9823
517.000000 0.9860 0.9891 0.9920 0.9949 0.9968
522.000000 0.9975 0.9983 0.9990 0.9997 1.0004
527.000000 1.0003 1.0001 0.9999 0.9997 0.9994
532.000000 0.9992 0.9990 0.9985 0.9980 0.9974
537.000000 0.9968 0.9964 0.9958 0.9953 0.9950
542.000000 0.9947 0.9945 0.9943 0.9941 0.9959
547.000000 0.9982 1.0005 1.0045 1.0103 1.0155
552.000000 1.0192 1.0228 1.0267 1.0304 1.0332
557.000000 1.0351 1.0371 1.0390 1.0409 1.0428
562.000000 1.0434 1.0437 1.0416 1.0443 1.0445
567.000000 1.0437 1.0428 1.0421 1.0413 1.0401
572.000000 1.0384 1.0368 1.0345 1.0318 1.0292
577.000000 1.0262 1.0193 1.0116 1.0033 0.9951
582.000000 0.9816 0.9683 0.9574 0.9464 0.9353
587.000000 0.9218 0.9084 0.8906 0.8691 0.8561
592.000000 0.8458 0.8356 0.8268 0.8186 0.8104
597.000000 0.8021 0.7422 0.6799 0.6174 0.5549
602.000000 0.4924 0.4694 0.4678 0.5017 0.5356
607.000000 0.5694 0.6033 0.6372 0.6710 0.7049
612.000000 0.7387 0.7725 0.8065 0.8403 0.8589
617.000000 0.8671 0.8717 0.8720 0.8718 0.8718
622.000000 0.8698 0.8650 0.8600 0.8533 0.8470
627.000000 0.8418 0.8367 0.8342 0.8328 0.8314
632.000000 0.8311 0.8318 0.8324 0.8321 0.8320
637.000000 0.8317 0.8285 0.8252 0.8228 0.8216
642.000000 0.8204 0.8191 0.8212 0.8210 0.8233
647.000000 0.8263 0.8296 0.8325 0.8325 0.8328
652.000000 0.8328 0.8333 0.8341 0.8350 0.8387
657.000000 0.8489 0.8604 0.8763 0.8898 0.8993
662.000000 0.9078 0.9144 0.9207 0.9262 0.9255
667.000000 0.9236 0.9218 0.9200 0.9181 0.9163
672.000000 0.9144 0.9136 0.9138 0.9142 0.9147
677.000000 0.9152 0.9162 0.9174 0.9190 0.9209
682.000000 0.9230 0.9253 0.9275 0.9299 0.9323
687.000000 0.9347 0.9371 0.9398 0.9436 0.9473
692.000000 0.9509 0.9540 0.9571 0.9602 0.9633
697.000000 0.9665 0.9701 0.9738 0.9774 0.9811
702.000000 0.9850 0.9891 0.9932 0.9973 1.0014
707.000000 1.0044 1.0071 1.0101 1.0128 1.0157
712.000000 1.0177 1.0190 1.0203 1.0216 1.0225
717.000000 1.0232 1.0239 1.0245 1.0252 1.0258
722.000000 1.0265 1.0271 1.0278 1.0285 1.0291
727.000000 1.0297 1.0302 1.0307 1.0312 1.0312
732.000000 1.0313 1.0309 1.0306 1.0302 1.0299
737.000000 1.0296 1.0292 1.0292 1.0295 1.0299
742.000000 1.0302 1.0308 1.0315 1.0321 1.0328
747.000000 1.0336 1.0343 1.0350 1.0356 1.0356
752.000000 1.0356 1.0356 1.0356 1.0353 1.0350
757.000000 1.0347 1.0344 1.0341 1.0338 1.0334
762.000000 1.0328 1.0323 1.0318 1.0312 1.0306
767.000000 1.0297 1.0288 1.0280 1.0271 1.0262
772.000000 1.0253 1.0244 1.0236 1.0227 1.0215
777.000000 1.0203 1.0191 1.0178 1.0166 1.0154
782.000000 1.0142 1.0130 1.0118 1.0103 1.0086
787.000000 1.0070 1.0053 1.0036 1.0018 1.0002
792.000000 0.9986 0.9968 0.9942 0.9905 0.9867
797.000000 0.9830 0.9792 0.9755 0.9715 0.9661
802.000000 0.9608 0.9554 0.9500 0.9428 0.9346
807.000000 0.9263 0.9180 0.9078 0.8971 0.8859
812.000000 0.8703 0.8548 0.8453 0.8412 0.8371
817.000000 0.8331 0.8295 0.8267 0.8239 0.8208
822.000000 0.8178 0.8147 0.8115 0.8068 0.8006
827.000000 0.7943 0.7880 0.7808 0.7701 0.7596
832.000000 0.7492 0.7398 0.7303 0.7225 0.7164
837.000000 0.7101 0.7041 0.6978 0.6915 0.6853
842.000000 0.6791 0.6711 0.6618 0.6525 0.6431
847.000000 0.6365 0.6299 0.6234 0.6168 0.6112
852.000000 0.6075 0.6083 0.6078 0.6094 0.6110
857.000000 0.6131 0.6150 0.6169 0.6189 0.6210
862.000000 0.6231 0.6251 0.6272 0.6304 0.6343
867.000000 0.6383 0.6435 0.6515 0.6643 0.6769
872.000000 0.6890 0.6972 0.7028 0.7046 0.7061
877.000000 0.7061 0.7057 0.7045 0.7028 0.7008
882.000000 0.6989 0.6978 0.6974 0.6974 0.6975
887.000000 0.6980 0.6987 0.6995 0.7011 0.7125
892.000000 0.7182 0.7238 0.7295 0.7398 0.7480
897.000000 0.7568 0.7649 0.7708 0.7765 0.7814
902.000000 0.7862 0.7912 0.7964 0.8015 0.8065
907.000000 0.8115 0.8208 0.8316 0.8391 0.8463
912.000000 0.8553 0.8601 0.8632 0.8649 0.8655
917.000000 0.8658 0.8652 0.8628 0.8608 0.8580
922.000000 0.8547 0.8498 0.8431 0.8360 0.8281
927.000000 0.8221 0.8164 0.8108 0.8056 0.8004
932.000000 0.7951 0.7900 0.7843 0.7785 0.7725
937.000000 0.7668 0.7561 0.7451 0.7340 0.7228
942.000000 0.7114 0.6918 0.6722 0.6478 0.6284
947.000000 0.6147 0.6009 0.5721 0.5280 0.4783
952.000000 0.4595 0.4522 0.4467 0.4469 0.4470
957.000000 0.4477 0.4488 0.4510 0.4614 0.4760
962.000000 0.4909 0.5057 0.5204 0.5352 0.5499
967.000000 0.5647 0.5794 0.5942 0.6089 0.6237
972.000000 0.6342 0.6499 0.6651 0.6743 0.6825
977.000000 0.6884 0.6933 0.6981 0.7021 0.7033
982.000000 0.7041 0.7042 0.7042 0.6990 0.6946
987.000000 0.6890 0.6814 0.6737 0.6665 0.6592
992.000000 0.6512 0.6428 0.6345 0.6248 0.6143
997.000000 0.6042 0.5941 0.5698 0.5406 0.5114
1002.000000 0.4822 0.4530 0.4238 0.3946 0.3654
1007.000000 0.3362 0.3070 0.2778 0.2415 0.2335
1012.000000 0.2298 0.2324 0.2330 0.2384 0.2520
1017.000000 0.2658 0.2802 0.2937 0.3050 0.3103
1022.000000 0.3126 0.3118 0.3131 0.3090 0.3059
1027.000000 0.2862 0.2661 0.2461 0.2260 0.2059
1032.000000 0.1858 0.1658 0.1457 0.1256 0.1055
1037.000000 0.0855 0.0745 0.0662 0.0579 0.0488
1042.000000 0.0382 0.0333 0.0293 0.0256 0.0241
1047.000000 0.0233 0.0230 0.0208 0.0234 0.0243
1052.000000 0.0279 0.0326 0.0389 0.0458 0.0552
1057.000000 0.0653 0.0734 0.0816 0.0905 0.0995
1062.000000 0.1086 0.1174 0.1260 0.1346 0.1429
1067.000000 0.1513 0.1596 0.1678 0.1761 0.1843
1072.000000 0.1926 0.2018 0.2126 0.2234 0.2727
1077.000000 0.3065 0.3404 0.3743 0.4082 0.4415
1082.000000 0.4539 0.4625 0.4647 0.4642 0.4643
1087.000000 0.4560 0.4367 0.4173 0.3979 0.3784
1092.000000 0.3591 0.3397 0.3203 0.3009 0.2882
1097.000000 0.2813 0.2727 0.2680 0.2670 0.2938
1102.000000 0.3189 0.3440 0.3690 0.3941 0.4192
1107.000000 0.4443 0.4693 0.4944 0.5088 0.5225
1112.000000 0.6020 0.6292 0.6418 0.6578 0.6855
1117.000000 0.7005 0.7145 0.7269 0.7376 0.7469
1122.000000 0.7525 0.7565 0.7604 0.7621 0.7638
1127.000000 0.7654 0.7658 0.7661 0.7661 0.7655
1132.000000 0.7651 0.7638 0.7621 0.7593 0.7558
1137.000000 0.7521 0.7481 0.7441 0.7393 0.7345
1142.000000 0.7336 0.7328 0.7321 0.7311 0.7312
1147.000000 0.7325 0.7336 0.7371 0.7411 0.7455
1152.000000 0.7512 0.7571 0.7618 0.7662 0.7700
1157.000000 0.7736 0.7765 0.7755 0.7742 0.7728
1162.000000 0.7697 0.7665 0.7634 0.7598 0.7555
1167.000000 0.7511 0.7468 0.7391 0.7298 0.7184
1172.000000 0.7022 0.6828 0.6617 0.6450 0.6289
1177.000000 0.6188 0.6092 0.5996 0.5900 0.5797
1182.000000 0.5693 0.5590 0.5208 0.5037 0.4865
1187.000000 0.4674 0.4477 0.4039 0.3846 0.3378
1192.000000 0.3241 0.3073 0.2459 0.2167 0.1608
1197.000000 0.1284 0.1033 0.0897 0.0758 0.0594
1202.000000 0.0421 0.0243 0.0115 0.0081 0.0054
1207.000000 0.0026 0.0000 0.0001 0.0001 0.0001
1212.000000 0.0001 0.0001 0.0001 0.0001 0.0001
1217.000000 0.0001 0.0001 0.0001 0.0001 0.0001
1222.000000 0.0001 0.0001 0.0002 0.0004 0.0006
1227.000000 0.0008 0.0010 0.0012 0.0014 0.0017
1232.000000 0.0021 0.0025 0.0027 0.0030 0.0033
1237.000000 0.0043 0.0058 0.0073 0.0089 0.0104
1242.000000 0.0121 0.0137 0.0154 0.0170 0.0188
1247.000000 0.0206 0.0224 0.0242 0.0259 0.0281
1252.000000 0.0303 0.0325 0.0348 0.0377 0.0410
1257.000000 0.0444 0.0477 0.0527 0.0581 0.0634
1262.000000 0.0687 0.0744 0.0802 0.0861 0.0919
1267.000000 0.0976 0.1034 0.1091 0.1148 0.1205
1272.000000 0.1262 0.1351 0.1441 0.1531 0.1607
1277.000000 0.1676 0.1744 0.1813 0.1909 0.2034
1282.000000 0.2159 0.2289 0.2420 0.2542 0.2640
1287.000000 0.2737 0.2834 0.2992 0.3154 0.3294
1292.000000 0.3412 0.3530 0.3647 0.3737 0.3828
1297.000000 0.3918 0.4008 0.4135 0.4295 0.4491
1302.000000 0.5100 0.5196 0.5264 0.5309 0.5342
1307.000000 0.5375 0.5408 0.5441 0.5474 0.5507
1312.000000 0.5552 0.5627 0.5702 0.5780 0.5883
1317.000000 0.5985 0.6062 0.6140 0.6218 0.6284
1322.000000 0.6349 0.6415 0.6454 0.6493 0.6532
1327.000000 0.6562 0.6585 0.6605 0.6614 0.6624
1332.000000 0.6634 0.6643 0.6768 0.6944 0.7119
1337.000000 0.7258 0.7253 0.7234 0.7283 0.7134
1342.000000 0.7021 0.6925 0.6776 0.6638 0.6512
1347.000000 0.6384 0.6243 0.6102 0.5960 0.5817
1352.000000 0.5675 0.5503 0.5325 0.4706 0.4364
1357.000000 0.4227 0.4123 0.4018 0.2680 0.1042
1362.000000 0.0867 0.0703 0.0543 0.0427 0.0354
1367.000000 0.0282 0.0210 0.0170 0.0130 0.0115
1372.000000 0.0144 0.0156 0.0291 0.0410 0.0553
1377.000000 0.0691 0.0892 0.1128 0.1365 0.1601
1382.000000 0.1837 0.2074 0.2311 0.2547 0.2783
1387.000000 0.3020 0.3256 0.3493 0.3729 0.3897
1392.000000 0.4007 0.4126 0.4254 0.4335 0.4410
1397.000000 0.4452 0.4494 0.4536 0.4578 0.4620
1402.000000 0.4674 0.4735 0.4796 0.4858 0.4921
1407.000000 0.4985 0.5040 0.5064 0.5088 0.5114
1412.000000 0.5043 0.5021 0.4922 0.4855 0.4760
1417.000000 0.4635 0.4549 0.4455 0.4356 0.4260
1422.000000 0.4165 0.4091 0.4026 0.3959 0.3904
1427.000000 0.3856 0.3809 0.3760 0.3714 0.3674
1432.000000 0.3634 0.3594 0.3554 0.3514 0.3479
1437.000000 0.3446 0.3414 0.3416 0.3480 0.3364
1442.000000 0.3616 0.3686 0.3756 0.3834 0.3914
1447.000000 0.3990 0.4052 0.4115 0.4147 0.4172
1452.000000 0.4197 0.4222 0.4227 0.4232 0.4237
1457.000000 0.4241 0.4248 0.4262 0.4360 0.4576
1462.000000 0.4791 0.5006 0.5222 0.5437 0.5522
1467.000000 0.5543 0.5562 0.5569 0.5571 0.5573
1472.000000 0.5588 0.5606 0.5630 0.5684 0.6556
1477.000000 0.6708 0.6830 0.6975 0.7061 0.7133
1482.000000 0.7178 0.7219 0.7231 0.7236 0.7238
1487.000000 0.7272 0.7219 0.7206 0.7193 0.7181
1492.000000 0.7160 0.7135 0.7105 0.7075 0.7048
1497.000000 0.7018 0.6987 0.6946 0.6905 0.6865
1502.000000 0.6824 0.6786 0.6749 0.6711 0.6672
1507.000000 0.6636 0.6598 0.6558 0.6515 0.6471
1512.000000 0.6428 0.6385 0.6342 0.6298 0.6254
1517.000000 0.6209 0.6165 0.6121 0.6077 0.6034
1522.000000 0.5991 0.5948 0.5906 0.5862 0.5820
1527.000000 0.5764 0.5703 0.5642 0.5580 0.5521
1532.000000 0.5462 0.5404 0.5343 0.5250 0.5174
1537.000000 0.5101 0.5029 0.4958 0.4888 0.4821
1542.000000 0.4773 0.4725 0.4677 0.4629 0.4582
1547.000000 0.4536 0.4491 0.4456 0.4451 0.4446
1552.000000 0.4440 0.4456 0.4489 0.4529 0.4571
1557.000000 0.4614 0.4665 0.4718 0.4786 0.4855
1562.000000 0.4933 0.5012 0.5110 0.5210 0.5323
1567.000000 0.5445 0.5528 0.5595 0.5662 0.5748
1572.000000 0.5846 0.5924 0.5975 0.6027 0.6053
1577.000000 0.6079 0.6105 0.6127 0.6143 0.6159
1582.000000 0.6177 0.6195 0.6212 0.6232 0.6256
1587.000000 0.6302 0.6351 0.6405 0.6461 0.6540
1592.000000 0.6619 0.6701 0.6793 0.6883 0.6971
1597.000000 0.7061 0.7148 0.7210 0.7271 0.7347
1602.000000 0.7451 0.7519 0.7588 0.7661 0.7739
1607.000000 0.7806 0.7849 0.7892 0.7928 0.7965
1612.000000 0.7997 0.8018 0.8041 0.8062 0.8086
1617.000000 0.8095 0.8103 0.8111 0.8118 0.8142
1622.000000 0.8131 0.8115 0.8101 0.8083 0.8057
1627.000000 0.8030 0.8004 0.7978 0.7948 0.7917
1632.000000 0.7886 0.7854 0.7818 0.7784 0.7749
1637.000000 0.7714 0.7678 0.7648 0.7617 0.7586
1642.000000 0.7556 0.7528 0.7521 0.7514 0.7507
1647.000000 0.7500 0.7493 0.7494 0.7433 0.7508
1652.000000 0.7521 0.7535 0.7549 0.7561 0.7575
1657.000000 0.7587 0.7598 0.7608 0.7617 0.7617
1662.000000 0.7615 0.7615 0.7615 0.7608 0.7600
1667.000000 0.7591 0.7578 0.7561 0.7544 0.7526
1672.000000 0.7498 0.7468 0.7441 0.7415 0.7391
1677.000000 0.7365 0.7325 0.7275 0.7225 0.7175
1682.000000 0.7118 0.7054 0.6989 0.6925 0.6861
1687.000000 0.6795 0.6726 0.6658 0.6591 0.6524
1692.000000 0.6457 0.6391 0.6305 0.6194 0.6075
1697.000000 0.5949 0.5652 0.5464 0.5186 0.4782
1702.000000 0.4668 0.4555 0.4388 0.4212 0.3880
1707.000000 0.3687 0.3550 0.3443 0.3334 0.3209
1712.000000 0.2231 0.2200 0.2196 0.2191 0.2192
1717.000000 0.2192 0.2193 0.2177 0.2040 0.1909
1722.000000 0.1779 0.1637 0.1386 0.1189 0.1050
1727.000000 0.0953 0.0839 0.0701 0.0513 0.0358
1732.000000 0.0249 0.0172 0.0119 0.0081 0.0042
1737.000000 0.0004 0.0000 0.0000 0.0000 0.0000
1742.000000 0.0000 0.0000 0.0000 0.0000 0.0000
1747.000000 0.0000 0.0000 0.0000 0.0000 0.0000
1752.000000 0.0000 0.0000 0.0000 0.0000 0.0000
1757.000000 0.0000 0.0000 0.0001 0.0031 0.0075
1762.000000 0.0119 0.0162 0.0202 0.0252 0.0287
1767.000000 0.0350 0.0429 0.0708 0.1409 0.1810
1772.000000 0.2390 0.2788 0.2954 0.3560 0.3727
1777.000000 0.3872 0.4008 0.4136 0.4228 0.4320
1782.000000 0.4410 0.4499 0.4587 0.4674 0.4845
1787.000000 0.5082 0.5289 0.5512 0.5738 0.5873
1792.000000 0.6008 0.6143 0.6282 0.6405 0.6472
1797.000000 0.6540 0.6607 0.6675 0.6728 0.6774
1802.000000 0.6818 0.6864 0.6908 0.6954 0.7000
1807.000000 0.7045 0.7089 0.7134 0.7178 0.7222
1812.000000 0.7267 0.7311 0.7356 0.7390 0.7424
1817.000000 0.7458 0.7493 0.7528 0.7562 0.7601
1822.000000 0.7641 0.7678 0.7718 0.7755 0.7783
1827.000000 0.7811 0.7839 0.7868 0.7896 0.7924
1832.000000 0.7953 0.7981 0.8008 0.8038 0.8067
1837.000000 0.8095 0.8115 0.8134 0.8153 0.8171
1842.000000 0.8189 0.8207 0.8225 0.8241 0.8257
1847.000000 0.8273 0.8290 0.8306 0.8321 0.8338
1852.000000 0.8357 0.8375 0.8395 0.8414 0.8433
1857.000000 0.8453 0.8471 0.8491 0.8510 0.8533
1862.000000 0.8555 0.8578 0.8600 0.8621 0.8638
1867.000000 0.8655 0.8671 0.8689 0.8705 0.8714
1872.000000 0.8721 0.8728 0.8736 0.8743 0.8749
1877.000000 0.8757 0.8766 0.8774 0.8782 0.8790
1882.000000 0.8799 0.8807 0.8815 0.8823 0.8827
1887.000000 0.8828 0.8830 0.8831 0.8832 0.8834
1892.000000 0.8835 0.8836 0.8835 0.8834 0.8831
1897.000000 0.8827 0.8824 0.8823 0.8823 0.8823
1902.000000 0.8823 0.8831 0.8839 0.8847 0.8856
1907.000000 0.8865 0.8874 0.8884 0.8894 0.8904
1912.000000 0.8914 0.8925 0.8935 0.8945 0.8956
1917.000000 0.8966 0.8977 0.8985 0.8994 0.9002
1922.000000 0.9010 0.9018 0.9027 0.9035 0.9044
1927.000000 0.9052 0.9061 0.9068 0.9078 0.9088
1932.000000 0.9097 0.9106 0.9116 0.9125 0.9134
1937.000000 0.9139 0.9140 0.9141 0.9142 0.9143
1942.000000 0.9143 0.9142 0.9141 0.9139 0.9137
1947.000000 0.9135 0.9136 0.9136 0.9138 0.9139
1952.000000 0.9141 0.9142 0.9144 0.9149 0.9155
1957.000000 0.9161 0.9166 0.9171 0.9178 0.9184
1962.000000 0.9190 0.9196 0.9202 0.9208 0.9215
1967.000000 0.9221 0.9228 0.9235 0.9242 0.9249
1972.000000 0.9255 0.9258 0.9259 0.9261 0.9262
1977.000000 0.9264 0.9265 0.9265 0.9264 0.9261
1982.000000 0.9258 0.9256 0.9251 0.9247 0.9243
1987.000000 0.9239 0.9235 0.9230 0.9224 0.9218
1992.000000 0.9212 0.9211 0.9217 0.9235 0.9256
1997.000000 0.9275 0.9298 0.9320 0.9342 0.9368
2002.000000 0.9394 0.9403 0.9413 0.9416 0.9417
2007.000000 0.9417 0.9416 0.9407 0.9399 0.9388
2012.000000 0.9377 0.9366 0.9356 0.9347 0.9338
2017.000000 0.9328 0.9320 0.9311 0.9302 0.9293
2022.000000 0.9284 0.9275 0.9266 0.9257 0.9249
2027.000000 0.9241 0.9233 0.9225 0.9217 0.9212
2032.000000 0.9208 0.9205 0.9203 0.9200 0.9197
2037.000000 0.9197 0.9198 0.9199 0.9200 0.9203
2042.000000 0.9206 0.9210 0.9214 0.9217 0.9221
2047.000000 0.9225 0.9230 0.9234 0.9239 0.9244
2052.000000 0.9249 0.9253 0.9257 0.9259 0.9261
2057.000000 0.9263 0.9266 0.9268 0.9268 0.9268
2062.000000 0.9268 0.9268 0.9268 0.9267 0.9267
2067.000000 0.9266 0.9266 0.9264 0.9262 0.9260
2072.000000 0.9259 0.9257 0.9255 0.9253 0.9252
2077.000000 0.9250 0.9248 0.9245 0.9243 0.9241
2082.000000 0.9239 0.9236 0.9234 0.9231 0.9228
2087.000000 0.9225 0.9223 0.9220 0.9217 0.9214
2092.000000 0.9212 0.9209 0.9206 0.9202 0.9199
2097.000000 0.9195 0.9192 0.9188 0.9185 0.9181
2102.000000 0.9178 0.9175 0.9175 0.9175 0.9178
2107.000000 0.9181 0.9184 0.9189 0.9194 0.9199
2112.000000 0.9204 0.9209 0.9214 0.9218 0.9224
2117.000000 0.9228 0.9234 0.9241 0.9248 0.9255
2122.000000 0.9263 0.9270 0.9278 0.9285 0.9293
2127.000000 0.9300 0.9308 0.9315 0.9323 0.9330
2132.000000 0.9338 0.9345 0.9352 0.9359 0.9367
2137.000000 0.9374 0.9382 0.9389 0.9396 0.9403
2142.000000 0.9411 0.9416 0.9421 0.9425 0.9431
2147.000000 0.9436 0.9441 0.9446 0.9451 0.9455
2152.000000 0.9460 0.9465 0.9470 0.9475 0.9480
2157.000000 0.9483 0.9486 0.9489 0.9492 0.9495
2162.000000 0.9498 0.9501 0.9504 0.9507 0.9510
2167.000000 0.9513 0.9516 0.9518 0.9521 0.9523
2172.000000 0.9524 0.9525 0.9525 0.9527 0.9528
2177.000000 0.9530 0.9531 0.9532 0.9534 0.9535
2182.000000 0.9536 0.9537 0.9538 0.9539 0.9540
2187.000000 0.9540 0.9540 0.9539 0.9539 0.9539
2192.000000 0.9539 0.9539 0.9539 0.9539 0.9539
2197.000000 0.9538 0.9538 0.9538 0.9538 0.9537
2202.000000 0.9537 0.9536 0.9536 0.9535 0.9534
2207.000000 0.9533 0.9533 0.9532 0.9531 0.9530
2212.000000 0.9530 0.9528 0.9528 0.9527 0.9527
2217.000000 0.9525 0.9525 0.9524 0.9524 0.9523
2222.000000 0.9566 0.9521 0.9521 0.9518 0.9517
2227.000000 0.9515 0.9514 0.9512 0.9511 0.9509
2232.000000 0.9508 0.9506 0.9504 0.9502 0.9501
2237.000000 0.9499 0.9498 0.9496 0.9494 0.9492
2242.000000 0.9491 0.9489 0.9488 0.9485 0.9483
2247.000000 0.9481 0.9478 0.9475 0.9474 0.9471
2252.000000 0.9468 0.9466 0.9464 0.9462 0.9460
2257.000000 0.9457 0.9455 0.9452 0.9450 0.9447
2262.000000 0.9445 0.9443 0.9441 0.9439 0.9438
2267.000000 0.9437 0.9436 0.9435 0.9435 0.9434
2272.000000 0.9433 0.9432 0.9431 0.9430 0.9428
2277.000000 0.9428 0.9427 0.9425 0.9425 0.9424
2282.000000 0.9423 0.9423 0.9424 0.9425 0.9427
2287.000000 0.9428 0.9430 0.9431 0.9433 0.9434
2292.000000 0.9436 0.9437 0.9439 0.9440 0.9442
2297.000000 0.9443 0.9445 0.9447 0.9449 0.9452
2302.000000 0.9455 0.9457 0.9460 0.9463 0.9466
2307.000000 0.9468 0.9471 0.9473 0.9475 0.9478
2312.000000 0.9482 0.9484 0.9487 0.9490 0.9493
2317.000000 0.9496 0.9500 0.9503 0.9507 0.9510
2322.000000 0.9514 0.9517 0.9521 0.9525 0.9528
2327.000000 0.9532 0.9536 0.9539 0.9543 0.9546
2332.000000 0.9550 0.9554 0.9558 0.9561 0.9564
2337.000000 0.9567 0.9570 0.9573 0.9575 0.9578
2342.000000 0.9582 0.9585 0.9588 0.9591 0.9594
2347.000000 0.9597 0.9600 0.9603 0.9607 0.9610
2352.000000 0.9613 0.9615 0.9618 0.9618 0.9618
2357.000000 0.9618 0.9618 0.9618 0.9618 0.9618
2362.000000 0.9620 0.9620 0.9620 0.9620 0.9620
2367.000000 0.9620 0.9620 0.9620 0.9618 0.9616
2372.000000 0.9614 0.9611 0.9609 0.9607 0.9605
2377.000000 0.9602 0.9600 0.9597 0.9595 0.9592
2382.000000 0.9590 0.9588 0.9586 0.9583 0.9581
2387.000000 0.9578 0.9575 0.9571 0.9568 0.9566
2392.000000 0.9563 0.9560 0.9558 0.9555 0.9552
2397.000000 0.9549 0.9546 0.9543 0.9540 0.9537
2402.000000 0.9535 0.9533 0.9531 0.9528 0.9525
2407.000000 0.9524 0.9521 0.9518 0.9517 0.9515
2412.000000 0.9513 0.9510 0.9508 0.9506 0.9504
2417.000000 0.9502 0.9500 0.9497 0.9495 0.9493
2422.000000 0.9491 0.9488 0.9486 0.9484 0.9482
2427.000000 0.9478 0.9477 0.9475 0.9473 0.9471
2432.000000 0.9468 0.9467 0.9465 0.9463 0.9461
2437.000000 0.9459 0.9457 0.9455 0.9453 0.9451
2442.000000 0.9449 0.9447 0.9445 0.9444 0.9444
2447.000000 0.9444 0.9446 0.9448 0.9450 0.9451
2452.000000 0.9453 0.9454 0.9456 0.9458 0.9460
2457.000000 0.9461 0.9463 0.9465 0.9467 0.9468
2462.000000 0.9470 0.9471 0.9473 0.9475 0.9477
2467.000000 0.9478 0.9481 0.9484 0.9487 0.9490
2472.000000 0.9494 0.9497 0.9500 0.9503 0.9506
2477.000000 0.9509 0.9512 0.9515 0.9518 0.9518
2482.000000 0.9518 0.9518 0.9520 0.9520 0.9521
2487.000000 0.9521 0.9521 0.9521 0.9523 0.9523
2492.000000 0.9524 0.9524 0.9525 0.9525 0.9525
2497.000000 0.9525 0.9527 0.9527 0.9528 0.9528
2502.000000 0.9528 0.9527 0.9525 0.9525 0.9524
2507.000000 0.9521 0.9521 0.9520 0.9518 0.9518
2512.000000 0.9517 0.9516 0.9515 0.9514 0.9513
2517.000000 0.9512 0.9511 0.9508 0.9506 0.9503
2522.000000 0.9501 0.9498 0.9496 0.9494 0.9492
2527.000000 0.9489 0.9487 0.9484 0.9482 0.9478
2532.000000 0.9477 0.9475 0.9473 0.9471 0.9470
2537.000000 0.9468 0.9467 0.9465 0.9463 0.9461
2542.000000 0.9460 0.9458 0.9457 0.9455 0.9454
2547.000000 0.9452 0.9450 0.9448 0.9447 0.9445
2552.000000 0.9444 0.9442 0.9441 0.9439 0.9437
2557.000000 0.9435 0.9434 0.9432 0.9431 0.9428
2562.000000 0.9428 0.9425 0.9423 0.9420 0.9418
2567.000000 0.9415 0.9413 0.9410 0.9408 0.9405
2572.000000 0.9402 0.9399 0.9397 0.9394 0.9392
2577.000000 0.9389 0.9387 0.9384 0.9382 0.9378
2582.000000 0.9375 0.9373 0.9371 0.9368 0.9366
2587.000000 0.9363 0.9361 0.9358 0.9356 0.9352
2592.000000 0.9349 0.9344 0.9340 0.9336 0.9332
2597.000000 0.9327 0.9323 0.9318 0.9314 0.9309
2602.000000 0.9305 0.9301 0.9297 0.9292 0.9288
2607.000000 0.9283 0.9278 0.9274 0.9270 0.9266
2612.000000 0.9263 0.9259 0.9256 0.9252 0.9248
2617.000000 0.9244 0.9241 0.9241 0.9241 0.9245
2622.000000 0.9250 0.9254 0.9259 0.9263 0.9267
2627.000000 0.9270 0.9274 0.9278 0.9283 0.9290
2632.000000 0.9298 0.9305 0.9312 0.9318 0.9325
2637.000000 0.9332 0.9339 0.9342 0.9346 0.9349
2642.000000 0.9352 0.9355 0.9358 0.9358 0.9358
2647.000000 0.9358 0.9358 0.9357 0.9357 0.9356
2652.000000 0.9355 0.9354 0.9354 0.9352 0.9350
2657.000000 0.9347 0.9344 0.9341 0.9339 0.9336
2662.000000 0.9333 0.9330 0.9327 0.9324 0.9321
2667.000000 0.9318 0.9315 0.9311 0.9307 0.9302
2672.000000 0.9298 0.9293 0.9289 0.9285 0.9281
2677.000000 0.9275 0.9271 0.9267 0.9263 0.9259
2682.000000 0.9255 0.9250 0.9246 0.9241 0.9237
2687.000000 0.9233 0.9228 0.9224 0.9220 0.9215
2692.000000 0.9211 0.9206 0.9202 0.9198 0.9194
2697.000000 0.9190 0.9186 0.9182 0.9178 0.9174
2702.000000 0.9170 0.9166 0.9162 0.9158 0.9154
2707.000000 0.9149 0.9145 0.9141 0.9137 0.9134
2712.000000 0.9133 0.9133 0.9134 0.9135 0.9136
2717.000000 0.9137 0.9138 0.9139 0.9141 0.9142
2722.000000 0.9143 0.9144 0.9145 0.9146 0.9148
2727.000000 0.9149 0.9150 0.9150 0.9151 0.9151
2732.000000 0.9152 0.9152 0.9153 0.9153 0.9154
2737.000000 0.9154 0.9155 0.9155 0.9156 0.9156
2742.000000 0.9157 0.9157 0.9158 0.9158 0.9159
2747.000000 0.9159 0.9160 0.9160 0.9161 0.9161
2752.000000 0.9162 0.9162 0.9162 0.9162 0.9162
2757.000000 0.9162 0.9162 0.9162 0.9162 0.9161
2762.000000 0.9161 0.9161 0.9161 0.9161 0.9161
2767.000000 0.9161 0.9161 0.9161 0.9161 0.9161
2772.000000 0.9161 0.9161 0.9161 0.9161 0.9161
2777.000000 0.9161 0.9161 0.9159 0.9158 0.9156
2782.000000 0.9155 0.9153 0.9152 0.9150 0.9149
2787.000000 0.9147 0.9146 0.9144 0.9143 0.9141
2792.000000 0.9140 0.9138 0.9137 0.9134 0.9131
2797.000000 0.9125 0.9118 0.9113 0.9107 0.9100
2802.000000 0.9094 0.9088 0.9082 0.9075 0.9070
2807.000000 0.9063 0.9057 0.9051 0.9045 0.9039
2812.000000 0.9033 0.9025 0.9020 0.9014 0.9008
2817.000000 0.9002 0.8996 0.8989 0.8983 0.8977
2822.000000 0.8971 0.8960 0.8950 0.8939 0.8928
2827.000000 0.8917 0.8906 0.8895 0.8885 0.8874
2832.000000 0.8863 0.8852 0.8841 0.8830 0.8818
2837.000000 0.8808 0.8798 0.8788 0.8778 0.8770
2842.000000 0.8761 0.8751 0.8742 0.8733 0.8724
2847.000000 0.8716 0.8708 0.8705 0.8703 0.8700
2852.000000 0.8698 0.8695 0.8692 0.8689 0.8687
2857.000000 0.8682 0.8678 0.8666 0.8654 0.8642
2862.000000 0.8630 0.8614 0.8598 0.8577 0.8557
2867.000000 0.8536 0.8515 0.8494 0.8474 0.8453
2872.000000 0.8433 0.8412 0.8391 0.8356 0.8321
2877.000000 0.8285 0.8249 0.8213 0.8176 0.8144
2882.000000 0.8111 0.8076 0.8044 0.8011 0.7978
2887.000000 0.7961 0.7945 0.7931 0.7918 0.7904
2892.000000 0.7890 0.7883 0.7875 0.7874 0.7871
2897.000000 0.7869 0.7868 0.7865 0.7864 0.7861
2902.000000 0.7860 0.7858 0.7857 0.7855 0.7853
2907.000000 0.7851 0.7850 0.7848 0.7846 0.7838
2912.000000 0.7830 0.7817 0.7804 0.7791 0.7778
2917.000000 0.7748 0.7718 0.7685 0.7651 0.7610
2922.000000 0.7568 0.7518 0.7471 0.7408 0.7345
2927.000000 0.7278 0.7211 0.7092 0.6974 0.6884
2932.000000 0.6795 0.6696 0.6597 0.6485 0.6373
2937.000000 0.6134 0.5896 0.5762 0.5628 0.5558
2942.000000 0.5489 0.5427 0.5366 0.5312 0.5260
2947.000000 0.5217 0.5173 0.5144 0.5115 0.5095
2952.000000 0.5075 0.5070 0.5071 0.5072 0.5042
2957.000000 0.5099 0.5119 0.5155 0.5191 0.5241
2962.000000 0.5291 0.5323 0.5356 0.5394 0.5433
2967.000000 0.5481 0.5530 0.5619 0.5709 0.5791
2972.000000 0.5873 0.5953 0.6033 0.6090 0.6148
2977.000000 0.6189 0.6231 0.6259 0.6287 0.6312
2982.000000 0.6340 0.6362 0.6385 0.6407 0.6428
2987.000000 0.6455 0.6481 0.6507 0.6533 0.6584
2992.000000 0.6636 0.6717 0.6799 0.6854 0.6908
2997.000000 0.6949 0.6990 0.7026 0.7064 0.7125
3002.000000 0.7187 0.7251 0.7315 0.7354 0.7392
3007.000000 0.7417 0.7442 0.7458 0.7476 0.7494
3012.000000 0.7511 0.7519 0.7530 0.7538 0.7547
3017.000000 0.7555 0.7562 0.7571 0.7578 0.7587
3022.000000 0.7595 0.7603 0.7611 0.7619 0.7628
3027.000000 0.7636 0.7644 0.7662 0.7683 0.7714
3032.000000 0.7746 0.7784 0.7821 0.7865 0.7910
3037.000000 0.7957 0.8005 0.8034 0.8064 0.8093
3042.000000 0.8122 0.8151 0.8181 0.8199 0.8217
3047.000000 0.8231 0.8246 0.8261 0.8275 0.8290
3052.000000 0.8305 0.8313 0.8321 0.8330 0.8338
3057.000000 0.8346 0.8355 0.8363 0.8371 0.8377
3062.000000 0.8383 0.8388 0.8394 0.8399 0.8404
3067.000000 0.8409 0.8415 0.8420 0.8425 0.8431
3072.000000 0.8437 0.8441 0.8446 0.8449 0.8453
3077.000000 0.8456 0.8459 0.8462 0.8466 0.8468
3082.000000 0.8473 0.8475 0.8480 0.8483 0.8487
3087.000000 0.8490 0.8493 0.8496 0.8500 0.8503
3092.000000 0.8507 0.8510 0.8514 0.8516 0.8518
3097.000000 0.8518 0.8521 0.8521 0.8524 0.8525
3102.000000 0.8527 0.8528 0.8531 0.8532 0.8534
3107.000000 0.8535 0.8537 0.8538 0.8540 0.8541
3112.000000 0.8543 0.8544 0.8546 0.8548 0.8550
3117.000000 0.8551 0.8553 0.8554 0.8556 0.8557
3122.000000 0.8559 0.8560 0.8562 0.8564 0.8566
3127.000000 0.8568 0.8570 0.8571 0.8575 0.8577
3132.000000 0.8578 0.8581 0.8584 0.8586 0.8588
3137.000000 0.8590 0.8593 0.8596 0.8599 0.8604
3142.000000 0.8609 0.8614 0.8618 0.8624 0.8628
3147.000000 0.8634 0.8639 0.8643 0.8648 0.8653
3152.000000 0.8658 0.8662 0.8667 0.8671 0.8675
3157.000000 0.8681 0.8686 0.8690 0.8694 0.8696
3162.000000 0.8699 0.8701 0.8704 0.8706 0.8708
3167.000000 0.8710 0.8713 0.8715 0.8718 0.8720
3172.000000 0.8723 0.8724 0.8725 0.8725 0.8725
3177.000000 0.8725 0.8725 0.8725 0.8725 0.8725
3182.000000 0.8725 0.8725 0.8725 0.8725 0.8725
3187.000000 0.8724 0.8723 0.8721 0.8721 0.8720
3192.000000 0.8718 0.8718 0.8717 0.8716 0.8715
3197.000000 0.8714 0.8713 0.8712 0.8711 0.8710
3202.000000 0.8709 0.8708 0.8707 0.8706 0.8705
3207.000000 0.8704 0.8703 0.8702 0.8701 0.8701
3212.000000 0.8701 0.8701 0.8701 0.8701 0.8701
3217.000000 0.8701 0.8701 0.8701 0.8701 0.8701
3222.000000 0.8701 0.8701 0.8701 0.8701 0.8701
3227.000000 0.8701 0.8701 0.8701 0.8701 0.8701
3232.000000 0.8701 0.8701 0.8701 0.8701 0.8701
3237.000000 0.8702 0.8703 0.8705 0.8707 0.8708
3242.000000 0.8710 0.8712 0.8714 0.8715 0.8717
3247.000000 0.8718 0.8721 0.8721 0.8724 0.8725
3252.000000 0.8728 0.8728 0.8731 0.8734 0.8738
3257.000000 0.8741 0.8745 0.8749 0.8753 0.8756
3262.000000 0.8760 0.8763 0.8767 0.8770 0.8774
3267.000000 0.8778 0.8782 0.8785 0.8789 0.8792
3272.000000 0.8796 0.8799 0.8802 0.8802 0.8802
3277.000000 0.8802 0.8802 0.8802 0.8802 0.8802
3282.000000 0.8803 0.8803 0.8803 0.8803 0.8803
3287.000000 0.8801 0.8799 0.8796 0.8793 0.8790
3292.000000 0.8788 0.8785 0.8783 0.8780 0.8778
3297.000000 0.8775 0.8773 0.8770 0.8768 0.8765
3302.000000 0.8763 0.8761 0.8760 0.8759 0.8759
3307.000000 0.8758 0.8758 0.8757 0.8757 0.8756
3312.000000 0.8756 0.8755 0.8755 0.8754 0.8753
3317.000000 0.8752 0.8752 0.8751 0.8751 0.8751
3322.000000 0.8752 0.8753 0.8755 0.8757 0.8759
3327.000000 0.8760 0.8762 0.8763 0.8765 0.8766
3332.000000 0.8768 0.8768 0.8771 0.8771 0.8774
3337.000000 0.8775 0.8777 0.8778 0.8780 0.8781
3342.000000 0.8783 0.8784 0.8786 0.8787 0.8789
3347.000000 0.8790 0.8792 0.8793 0.8795 0.8796
3352.000000 0.8798 0.8799 0.8801 0.8802 0.8804
3357.000000 0.8805 0.8807 0.8808 0.8810 0.8811
3362.000000 0.8812 0.8813 0.8815 0.8816 0.8818
3367.000000 0.8818 0.8821 0.8821 0.8824 0.8825
3372.000000 0.8827 0.8828 0.8830 0.8831 0.8833
3377.000000 0.8833 0.8834 0.8835 0.8836 0.8836
3382.000000 0.8837 0.8837 0.8838 0.8839 0.8839
3387.000000 0.8840 0.8841 0.8841 0.8842 0.8843
3392.000000 0.8842 0.8841 0.8839 0.8837 0.8835
3397.000000 0.8832 0.8830 0.8827 0.8825 0.8821
3402.000000 0.8820 0.8817 0.8814 0.8811 0.8809
3407.000000 0.8806 0.8803 0.8800 0.8798 0.8795
3412.000000 0.8792 0.8789 0.8786 0.8783 0.8780
3417.000000 0.8773 0.8767 0.8760 0.8753 0.8746
3422.000000 0.8740 0.8733 0.8725 0.8718 0.8713
3427.000000 0.8702 0.8691 0.8678 0.8666 0.8653
3432.000000 0.8641 0.8628 0.8616 0.8603 0.8591
3437.000000 0.8571 0.8552 0.8531 0.8510 0.8489
3442.000000 0.8468 0.8445 0.8421 0.8389 0.8356
3447.000000 0.8323 0.8291 0.8258 0.8225 0.8196
3452.000000 0.8167 0.8139 0.8111 0.8084 0.8057
3457.000000 0.8028 0.8001 0.7978 0.7955 0.7936
3462.000000 0.7917 0.7898 0.7878 0.7860 0.7841
3467.000000 0.7828 0.7817 0.7808 0.7800 0.7792
3472.000000 0.7784 0.7789 0.7795 0.7815 0.7837
3477.000000 0.7858 0.7880 0.7907 0.7934 0.7961
3482.000000 0.7988 0.8015 0.8042 0.8068 0.8095
3487.000000 0.8118 0.8142 0.8164 0.8186 0.8208
3492.000000 0.8231 0.8252 0.8273 0.8294 0.8316
3497.000000 0.8337 0.8358 0.8368 0.8380 0.8390
3502.000000 0.8401 0.8410 0.8420 0.8423 0.8425
3507.000000 0.8428 0.8432 0.8435 0.8438 0.8441
3512.000000 0.8444 0.8447 0.8451 0.8458 0.8466
3517.000000 0.8474 0.8482 0.8489 0.8497 0.8504
3522.000000 0.8511 0.8518 0.8525 0.8531 0.8538
3527.000000 0.8545 0.8553 0.8565 0.8577 0.8588
3532.000000 0.8600 0.8611 0.8623 0.8634 0.8646
3537.000000 0.8657 0.8668 0.8681 0.8693 0.8704
3542.000000 0.8716 0.8728 0.8740 0.8752 0.8764
3547.000000 0.8775 0.8788 0.8802 0.8816 0.8828
3552.000000 0.8843 0.8857 0.8871 0.8888 0.8905
3557.000000 0.8921 0.8940 0.8951 0.8963 0.8968
3562.000000 0.8973 0.8975 0.8980 0.8983 0.8987
3567.000000 0.8990 0.8994 0.8999 0.9004 0.9009
3572.000000 0.9014 0.9018 0.9023 0.9050 0.9077
3577.000000 0.9118 0.9161 0.9171 0.9184 0.9196
3582.000000 0.9208 0.9210 0.9211 0.9212 0.9212
3587.000000 0.9211 0.9211 0.9210 0.9209 0.9208
3592.000000 0.9208 0.9209 0.9210 0.9211 0.9213
3597.000000 0.9215 0.9217 0.9218 0.9220 0.9225
3602.000000 0.9231 0.9237 0.9243 0.9249 0.9256
3607.000000 0.9262 0.9268 0.9275 0.9282 0.9290
3612.000000 0.9298 0.9306 0.9314 0.9321 0.9331
3617.000000 0.9342 0.9354 0.9366 0.9378 0.9392
3622.000000 0.9405 0.9417 0.9430 0.9440 0.9451
3627.000000 0.9461 0.9471 0.9482 0.9493 0.9503
3632.000000 0.9514 0.9524 0.9535 0.9537 0.9540
3637.000000 0.9542 0.9545 0.9547 0.9550 0.9552
3642.000000 0.9555 0.9557 0.9559 0.9559 0.9559
3647.000000 0.9556 0.9553 0.9550 0.9547 0.9543
3652.000000 0.9540 0.9537 0.9534 0.9531 0.9528
3657.000000 0.9523 0.9518 0.9512 0.9506 0.9500
3662.000000 0.9494 0.9488 0.9482 0.9475 0.9468
3667.000000 0.9463 0.9458 0.9457 0.9457 0.9456
3672.000000 0.9456 0.9455 0.9455 0.9462 0.9470
3677.000000 0.9478 0.9487 0.9495 0.9504 0.9513
3682.000000 0.9521 0.9533 0.9544 0.9556 0.9568
3687.000000 0.9580 0.9592 0.9604 0.9616 0.9621
3692.000000 0.9628 0.9633 0.9639 0.9644 0.9650
3697.000000 0.9656 0.9662 0.9665 0.9668 0.9670
3702.000000 0.9673 0.9675 0.9677 0.9685 0.9694
3707.000000 0.9703 0.9699 0.9721 0.9732 0.9739
3712.000000 0.9746 0.9752 0.9759 0.9765 0.9771
3717.000000 0.9778 0.9785 0.9787 0.9789 0.9790
3722.000000 0.9792 0.9793 0.9795 0.9796 0.9798
3727.000000 0.9799 0.9799 0.9799 0.9797 0.9794
3732.000000 0.9792 0.9790 0.9788 0.9785 0.9783
3737.000000 0.9780 0.9777 0.9774 0.9771 0.9768
3742.000000 0.9766 0.9763 0.9760 0.9756 0.9753
3747.000000 0.9749 0.9746 0.9742 0.9738 0.9734
3752.000000 0.9731 0.9727 0.9723 0.9718 0.9716
3757.000000 0.9713 0.9711 0.9709 0.9707 0.9705
3762.000000 0.9703 0.9701 0.9700 0.9698 0.9696
3767.000000 0.9694 0.9692 0.9690 0.9690 0.9690
3772.000000 0.9692 0.9694 0.9697 0.9699 0.9702
3777.000000 0.9707 0.9713 0.9721 0.9728 0.9737
3782.000000 0.9745 0.9750 0.9756 0.9757 0.9758
3787.000000 0.9755 0.9752 0.9748 0.9744 0.9740
3792.000000 0.9737 0.9733 0.9728 0.9725 0.9721
3797.000000 0.9718 0.9715 0.9711 0.9708
##END=
