##TITLE=1,3,5-TRIETHYLBENZENE
##JCAMP-DX=4.24
##DATA TYPE=INFRARED SPECTRUM
##CLASS=COBLENTZ III
##ORIGIN=DOW CHEMICAL COMPANY
##OWNER=COBLENTZ SOCIETY
Collection (C) 2018 copyright by the U.S. Secretary of Commerce
on behalf of the United States of America. All rights reserved.
##DATE=1963/04/03
##CAS REGISTRY NO=102-25-0
##MOLFORM=C12 H18
##SOURCE REFERENCE=COBLENTZ NO. 6791
##$NIST SOURCE=COBLENTZ
##$NIST IMAGE=cob6791
##SPECTROMETER/DATA SYSTEM=DOW KBr FOREPRISM-GRATING
##INSTRUMENT PARAMETERS=GRATING BLAZED AT 3.5, 12.0, 20.0 MICRONS AND CHANGED AT 5.0, 7.5, 14.9 MICRONS
##STATE=SOLUTION (10% IN CCl4 FOR 3800-1340 CM^-^1, 10% IN CS2 FOR 1340-450 CM^-^1)
##PATH LENGTH=0.011 CM, 0.011 CM
$$ SEE SPECTRUM NO. 3608 FOR "NEAT" STATE
$$SPECTRAL CONTAMINATION DUE TO CCl4 AROUND 1550 CM^-^1
##SAMPLING PROCEDURE=TRANSMISSION
##RESOLUTION=4
##DATA PROCESSING=DIGITIZED BY NIST FROM HARD COPY (FROM TWO SEGMENTS)
##XUNITS=1/CM
##YUNITS=TRANSMITTANCE
##XFACTOR=1.000000
##YFACTOR=1
##DELTAX=0.879606
##FIRSTX=448.378
##LASTX=3798.8
##FIRSTY=1.005
##MAXX=3798.8
##MINX=448.378
##MAXY=1.077
##MINY=0.009
##NPOINTS=3810
##XYDATA=(X++(Y..Y))
448.378000 1.0050 1.0050 1.0050 1.0060 1.0080
452.776028 1.0090 1.0120 1.0130 1.0130 1.0150
457.174057 1.0160 1.0160 1.0160 1.0160 1.0160
461.572085 1.0180 1.0180 1.0180 1.0180 1.0180
465.970114 1.0180 1.0180 1.0180 1.0180 1.0190
470.368142 1.0190 1.0200 1.0200 1.0220 1.0220
474.766170 1.0230 1.0230 1.0240 1.0240 1.0240
479.164199 1.0240 1.0260 1.0270 1.0270 1.0290
483.562227 1.0290 1.0300 1.0300 1.0310 1.0330
487.960255 1.0330 1.0340 1.0340 1.0360 1.0370
492.358284 1.0370 1.0380 1.0380 1.0380 1.0380
496.756312 1.0380 1.0380 1.0380 1.0380 1.0410
501.154341 1.0410 1.0410 1.0410 1.0420 1.0420
505.552369 1.0440 1.0440 1.0450 1.0450 1.0470
509.950397 1.0480 1.0480 1.0480 1.0490 1.0510
514.348426 1.0510 1.0510 1.0520 1.0520 1.0540
518.746454 1.0540 1.0550 1.0550 1.0560 1.0580
523.144482 1.0590 1.0590 1.0610 1.0610 1.0610
527.542511 1.0610 1.0620 1.0620 1.0620 1.0630
531.940539 1.0630 1.0630 1.0630 1.0650 1.0650
536.338568 1.0650 1.0660 1.0660 1.0670 1.0670
540.736596 1.0690 1.0690 1.0690 1.0690 1.0700
545.134624 1.0700 1.0700 1.0700 1.0720 1.0720
549.532653 1.0730 1.0730 1.0740 1.0740 1.0760
553.930681 1.0760 1.0760 1.0760 1.0760 1.0760
558.328709 1.0760 1.0760 1.0760 1.0760 1.0770
562.726738 1.0770 1.0770 1.0760 1.0760 1.0760
567.124766 1.0740 1.0740 1.0740 1.0730 1.0730
571.522795 1.0720 1.0720 1.0720 1.0730 1.0730
575.920823 1.0730 1.0740 1.0740 1.0760 1.0760
580.318851 1.0770 1.0770 1.0770 1.0770 1.0770
584.716880 1.0770 1.0770 1.0770 1.0770 1.0770
589.114908 1.0760 1.0740 1.0720 1.0700 1.0690
593.512937 1.0670 1.0670 1.0670 1.0690 1.0690
597.910965 1.0700 1.0700 1.0720 1.0730 1.0730
602.308993 1.0720 1.0720 1.0700 1.0690 1.0690
606.707022 1.0670 1.0670 1.0670 1.0660 1.0660
611.105050 1.0650 1.0650 1.0630 1.0630 1.0630
615.503078 1.0620 1.0620 1.0610 1.0610 1.0610
619.901107 1.0610 1.0610 1.0580 1.0550 1.0550
624.299135 1.0540 1.0540 1.0520 1.0510 1.0510
628.697164 1.0490 1.0480 1.0480 1.0470 1.0470
633.095192 1.0440 1.0420 1.0400 1.0370 1.0340
637.493220 1.0310 1.0300 1.0270 1.0240 1.0220
641.891249 1.0190 1.0160 1.0120 1.0090 1.0060
646.289277 1.0040 1.0010 0.9980 0.9950 0.9940
650.687305 0.9910 0.9860 0.9790 0.9750 0.9700
655.085334 0.9690 0.9700 0.9830 1.0009 1.0060
659.483362 1.0130 1.0180 1.0200 1.0230 1.0260
663.881391 1.0290 1.0300 1.0310 1.0330 1.0370
668.279419 1.0400 1.0400 1.0370 1.0290 1.0270
672.677447 1.0260 1.0260 1.0260 1.0260 1.0240
677.075476 1.0240 1.0240 1.0240 1.0230 1.0220
681.473504 1.0220 1.0200 1.0190 1.0180 1.0160
685.871533 1.0130 1.0110 1.0060 1.0050 1.0040
690.269561 0.9980 0.9910 0.9840 0.9770 0.9690
694.667589 0.9590 0.9480 0.9360 0.9200 0.9000
699.065618 0.8751 0.8441 0.8051 0.7054 0.6463
703.463646 0.5820 0.5180 0.4540 0.3881 0.3321
707.861674 0.2771 0.2211 0.2210 0.2977 0.3697
712.259703 0.4380 0.4430 0.5100 0.5789 0.6639
716.657731 0.7289 0.7819 0.8229 0.8589 0.8929
721.055760 0.9220 0.9410 0.9570 0.9630 0.9770
725.453788 0.9790 0.9860 0.9940 1.0010 1.0020
729.851816 1.0040 1.0090 1.0180 1.0190 1.0200
734.249845 1.0200 1.0230 1.0230 1.0260 1.0260
738.647873 1.0270 1.0270 1.0290 1.0300 1.0310
743.045901 1.0310 1.0310 1.0310 1.0310 1.0310
747.443930 1.0300 1.0300 1.0300 1.0300 1.0300
751.841958 1.0300 1.0300 1.0300 1.0300 1.0300
756.239987 1.0300 1.0290 1.0290 1.0270 1.0270
760.638015 1.0260 1.0260 1.0240 1.0230 1.0230
765.036043 1.0230 1.0220 1.0200 1.0180 1.0160
769.434072 1.0150 1.0130 1.0090 1.0060 1.0050
773.832100 1.0040 1.0020 1.0000 0.9970 0.9900
778.230128 0.9800 0.9790 0.9720 0.9630 0.9521
782.628157 0.9430 0.9340 0.9320 0.9320 0.9360
787.026185 0.9430 0.9520 0.9570 0.9630 0.9730
791.424214 0.9830 0.9930 0.9980 1.0000 1.0010
795.822242 1.0020 1.0050 1.0080 1.0110 1.0120
800.220270 1.0150 1.0160 1.0180 1.0180 1.0190
804.618299 1.0200 1.0200 1.0200 1.0200 1.0200
809.016327 1.0200 1.0220 1.0220 1.0230 1.0260
813.414356 1.0260 1.0270 1.0270 1.0270 1.0270
817.812384 1.0270 1.0260 1.0260 1.0260 1.0260
822.210412 1.0240 1.0230 1.0230 1.0200 1.0190
826.608441 1.0150 1.0110 1.0060 1.0040 1.0000
831.006469 0.9980 0.9950 0.9940 0.9930 0.9910
835.404497 0.9900 0.9880 0.9840 0.9800 0.9790
839.802526 0.9750 0.9700 0.9660 0.9580 0.9480
844.200554 0.9380 0.9270 0.9150 0.9040 0.8930
848.598583 0.8830 0.8650 0.8520 0.8301 0.8121
852.996611 0.7970 0.7800 0.7640 0.7430 0.7190
857.394639 0.6871 0.6471 0.4616 0.4002 0.2069
861.792668 0.1690 0.1310 0.0940 0.0560 0.0201
866.190696 0.0190 0.0200 0.0549 0.0968 0.3061
870.588724 0.3931 0.4950 0.5220 0.5240 0.5380
874.986753 0.5719 0.5740 0.5750 0.5750 0.5740
879.384781 0.5710 0.5490 0.5400 0.5280 0.5270
883.782810 0.5280 0.5390 0.5559 0.5719 0.6039
888.180838 0.6330 0.6540 0.6750 0.7030 0.7370
892.578866 0.7709 0.8039 0.8359 0.8649 0.8899
896.976895 0.9110 0.9250 0.9320 0.9430 0.9540
901.374923 0.9650 0.9720 0.9770 0.9800 0.9830
905.772952 0.9840 0.9870 0.9940 1.0000 1.0010
910.170980 1.0020 1.0040 1.0050 1.0060 1.0080
914.569008 1.0090 1.0110 1.0120 1.0130 1.0130
918.967037 1.0150 1.0160 1.0180 1.0180 1.0190
923.365065 1.0200 1.0220 1.0220 1.0230 1.0230
927.763093 1.0230 1.0230 1.0230 1.0230 1.0230
932.161122 1.0230 1.0230 1.0240 1.0240 1.0240
936.559150 1.0240 1.0240 1.0240 1.0260 1.0260
940.957179 1.0270 1.0290 1.0290 1.0290 1.0290
945.355207 1.0290 1.0290 1.0290 1.0290 1.0290
949.753235 1.0290 1.0270 1.0270 1.0270 1.0260
954.151264 1.0260 1.0260 1.0260 1.0260 1.0240
958.549292 1.0240 1.0240 1.0230 1.0230 1.0230
962.947320 1.0220 1.0230 1.0230 1.0230 1.0230
967.345349 1.0230 1.0230 1.0230 1.0240 1.0260
971.743377 1.0260 1.0270 1.0290 1.0290 1.0300
976.141406 1.0300 1.0310 1.0310 1.0310 1.0310
980.539434 1.0310 1.0310 1.0310 1.0300 1.0300
984.937462 1.0300 1.0290 1.0290 1.0290 1.0270
989.335491 1.0260 1.0260 1.0240 1.0230 1.0220
993.733519 1.0200 1.0190 1.0180 1.0160 1.0130
998.131547 1.0120 1.0110 1.0090 1.0080 1.0060
1002.529576 1.0060 1.0050 1.0050 1.0060 1.0060
1006.927604 1.0060 1.0080 1.0080 1.0080 1.0080
1011.325633 1.0080 1.0060 1.0060 1.0060 1.0060
1015.723661 1.0050 1.0040 1.0040 1.0040 1.0040
1020.121689 1.0040 1.0050 1.0050 1.0060 1.0060
1024.519718 1.0060 1.0060 1.0060 1.0060 1.0060
1028.917746 1.0060 1.0060 1.0050 1.0040 1.0040
1033.315775 1.0020 1.0010 0.9970 0.9940 0.9930
1037.713803 0.9910 0.9910 0.9900 0.9830 0.9790
1042.111831 0.9770 0.9760 0.9720 0.9680 0.9660
1046.509860 0.9610 0.9540 0.9450 0.9400 0.9340
1050.907888 0.9200 0.9070 0.8950 0.8830 0.8720
1055.305916 0.8580 0.8440 0.8280 0.8070 0.7930
1059.703945 0.7800 0.7690 0.7680 0.7690 0.7750
1064.101973 0.7790 0.7800 0.7790 0.7730 0.7580
1068.500002 0.7420 0.7191 0.6971 0.6741 0.6461
1072.898030 0.6440 0.6460 0.6570 0.6830 0.7050
1077.296058 0.7290 0.7549 0.7829 0.8089 0.8329
1081.694087 0.8540 0.8690 0.8770 0.8950 0.9140
1086.092115 0.9190 0.9260 0.9340 0.9400 0.9440
1090.490143 0.9550 0.9610 0.9650 0.9680 0.9700
1094.888172 0.9750 0.9790 0.9800 0.9810 0.9810
1099.286200 0.9840 0.9860 0.9880 0.9900 0.9930
1103.684229 0.9940 0.9980 1.0010 1.0040 1.0050
1108.082257 1.0060 1.0090 1.0110 1.0120 1.0130
1112.480285 1.0130 1.0150 1.0160 1.0180 1.0190
1116.878314 1.0200 1.0220 1.0230 1.0230 1.0230
1121.276342 1.0220 1.0200 1.0200 1.0190 1.0190
1125.674370 1.0180 1.0160 1.0150 1.0130 1.0120
1130.072399 1.0120 1.0130 1.0150 1.0220 1.0230
1134.470427 1.0240 1.0240 1.0240 1.0240 1.0240
1138.868456 1.0240 1.0230 1.0220 1.0220 1.0200
1143.266484 1.0200 1.0200 1.0200 1.0200 1.0220
1147.664512 1.0260 1.0270 1.0290 1.0290 1.0290
1152.062541 1.0300 1.0300 1.0300 1.0300 1.0310
1156.460569 1.0310 1.0310 1.0310 1.0310 1.0300
1160.858598 1.0240 1.0190 1.0110 1.0050 1.0010
1165.256626 0.9930 0.9900 0.9910 0.9940 0.9970
1169.654654 0.9980 1.0040 1.0080 1.0110 1.0120
1174.052683 1.0130 1.0160 1.0200 1.0240 1.0260
1178.450711 1.0260 1.0270 1.0260 1.0230 1.0200
1182.848739 1.0230 1.0260 1.0300 1.0330 1.0340
1187.246768 1.0340 1.0360 1.0380 1.0380 1.0400
1191.644796 1.0400 1.0400 1.0380 1.0380 1.0370
1196.042825 1.0370 1.0360 1.0360 1.0340 1.0340
1200.440853 1.0340 1.0330 1.0330 1.0330 1.0310
1204.838881 1.0310 1.0310 1.0300 1.0300 1.0300
1209.236910 1.0290 1.0290 1.0290 1.0270 1.0270
1213.634938 1.0270 1.0260 1.0260 1.0240 1.0230
1218.032966 1.0220 1.0200 1.0190 1.0180 1.0160
1222.430995 1.0150 1.0130 1.0120 1.0090 1.0080
1226.829023 1.0060 1.0050 1.0040 1.0010 1.0000
1231.227052 0.9980 0.9970 0.9940 0.9930 0.9910
1235.625080 0.9880 0.9870 0.9860 0.9830 0.9810
1240.023108 0.9790 0.9770 0.9750 0.9730 0.9700
1244.421137 0.9680 0.9660 0.9630 0.9610 0.9580
1248.819165 0.9540 0.9510 0.9480 0.9450 0.9440
1253.217194 0.9430 0.9430 0.9430 0.9430 0.9430
1257.615222 0.9430 0.9410 0.9410 0.9410 0.9410
1262.013250 0.9410 0.9400 0.9400 0.9400 0.9400
1266.411279 0.9400 0.9400 0.9400 0.9380 0.9380
1270.809307 0.9380 0.9380 0.9370 0.9370 0.9370
1275.207335 0.9370 0.9360 0.9360 0.9360 0.9330
1279.605364 0.9330 0.9320 0.9320 0.9300 0.9290
1284.003392 0.9270 0.9250 0.9220 0.9190 0.9180
1288.401421 0.9180 0.9160 0.9120 0.9110 0.9090
1292.799449 0.9080 0.9050 0.9050 0.9040 0.9040
1297.197477 0.9020 0.9010 0.9010 0.9000 0.8980
1301.595506 0.8940 0.8940 0.8930 0.8910 0.8890
1305.993534 0.8860 0.8800 0.8750 0.8720 0.8720
1310.391562 0.8590 0.8410 0.8290 0.8300 0.8150
1314.789591 0.8000 0.7820 0.7730 0.7531 0.7400
1319.187619 0.7320 0.7290 0.7320 0.7350 0.7400
1323.585648 0.7440 0.7570 0.7650 0.7780 0.7890
1327.983676 0.7980 0.8050 0.8220 0.8340 0.8430
1332.381704 0.8480 0.8510 0.8540 0.8570 0.8610
1336.779733 0.8660 0.8730 0.8760 0.8800 0.8870
1341.177761 0.8910 0.8930 0.8930 0.8950 0.8970
1345.575789 0.9020 0.9070 0.9080 0.9120 0.9140
1349.973818 0.9140 0.9150 0.9150 0.9160 0.9160
1354.371846 0.9180 0.9180 0.9180 0.9180 0.9180
1358.769875 0.9160 0.9160 0.9150 0.9140 0.9120
1363.167903 0.9110 0.9090 0.9050 0.8980 0.8940
1367.565931 0.8890 0.8760 0.8581 0.8371 0.8011
1371.963960 0.7620 0.7360 0.6900 0.6690 0.6460
1376.361988 0.6430 0.6460 0.6620 0.6899 0.7119
1380.760017 0.7510 0.7730 0.7910 0.8080 0.8260
1385.158045 0.8440 0.8540 0.8640 0.8710 0.8760
1389.556073 0.8820 0.8840 0.8870 0.8900 0.8910
1393.954102 0.8930 0.8940 0.8940 0.8950 0.8950
1398.352130 0.8950 0.8950 0.8940 0.8930 0.8900
1402.750158 0.8900 0.8890 0.8870 0.8870 0.8860
1407.148187 0.8830 0.8820 0.8790 0.8770 0.8730
1411.546215 0.8730 0.8720 0.8690 0.8680 0.8660
1415.944244 0.8610 0.8570 0.8570 0.8540 0.8500
1420.342272 0.8460 0.8400 0.8360 0.8330 0.8280
1424.740300 0.8210 0.8160 0.8150 0.8090 0.8040
1429.138329 0.7960 0.7860 0.7760 0.7680 0.7610
1433.536357 0.7550 0.7440 0.7400 0.7230 0.7070
1437.934385 0.7030 0.6940 0.6760 0.6561 0.6381
1442.332414 0.6190 0.6060 0.5950 0.5900 0.5830
1446.730442 0.5710 0.5520 0.5350 0.4951 0.4103
1451.128471 0.3610 0.3340 0.3060 0.2640 0.1880
1455.526499 0.1311 0.1220 0.1080 0.0950 0.0761
1459.924527 0.0660 0.0630 0.0630 0.0630 0.0650
1464.322556 0.0870 0.1419 0.1899 0.2349 0.2818
1468.720584 0.3391 0.4101 0.4990 0.5500 0.6000
1473.118612 0.6380 0.6690 0.6860 0.7010 0.7209
1477.516641 0.7330 0.7420 0.7470 0.7510 0.7680
1481.914669 0.7760 0.7800 0.7820 0.7860 0.7930
1486.312698 0.7960 0.7970 0.8000 0.8030 0.8040
1490.710726 0.8040 0.8050 0.8030 0.8010 0.8000
1495.108754 0.7980 0.7970 0.7960 0.7940 0.7930
1499.506783 0.7900 0.7870 0.7830 0.7790 0.7730
1503.904811 0.7690 0.7660 0.7640 0.7620 0.7600
1508.302840 0.7570 0.7530 0.7480 0.7460 0.7420
1512.700868 0.7390 0.7350 0.7320 0.7290 0.7280
1517.098896 0.7250 0.7250 0.7190 0.7140 0.7100
1521.496925 0.7100 0.7070 0.7030 0.7000 0.6970
1525.894953 0.6940 0.6920 0.6870 0.6830 0.6760
1530.292981 0.6690 0.6610 0.6540 0.6460 0.6400
1534.691010 0.6320 0.6240 0.6140 0.6030 0.5930
1539.089038 0.5820 0.5720 0.5630 0.5520 0.5430
1543.487067 0.5350 0.5280 0.5220 0.5170 0.5140
1547.885095 0.5110 0.5090 0.5040 0.5030 0.5030
1552.283123 0.5030 0.5040 0.5100 0.5140 0.5200
1556.681152 0.5280 0.5360 0.5400 0.5570 0.5670
1561.079180 0.5720 0.5750 0.5780 0.5830 0.5900
1565.477208 0.5990 0.6110 0.6210 0.6260 0.6350
1569.875237 0.6490 0.6500 0.6500 0.6490 0.6490
1574.273265 0.6470 0.6460 0.6440 0.6420 0.6360
1578.671294 0.6320 0.6260 0.6210 0.6150 0.6100
1583.069322 0.6040 0.5990 0.5930 0.5890 0.5830
1587.467350 0.5740 0.5630 0.5520 0.5380 0.5221
1591.865379 0.5040 0.4860 0.4640 0.4410 0.4140
1596.263407 0.3910 0.3351 0.2881 0.2421 0.1982
1600.661436 0.1509 0.1040 0.1020 0.1020 0.1060
1605.059464 0.1240 0.1759 0.2309 0.2878 0.3368
1609.457492 0.3851 0.4561 0.5310 0.5960 0.6470
1613.855521 0.6890 0.7189 0.7439 0.7649 0.7799
1618.253549 0.7960 0.8110 0.8280 0.8430 0.8580
1622.651577 0.8660 0.8720 0.8730 0.8750 0.8760
1627.049606 0.8840 0.8890 0.8930 0.8970 0.9000
1631.447634 0.9040 0.9090 0.9120 0.9140 0.9180
1635.845663 0.9230 0.9260 0.9270 0.9300 0.9320
1640.243691 0.9330 0.9340 0.9360 0.9360 0.9380
1644.641719 0.9410 0.9440 0.9450 0.9480 0.9500
1649.039748 0.9510 0.9510 0.9520 0.9520 0.9520
1653.437776 0.9520 0.9520 0.9510 0.9510 0.9500
1657.835804 0.9500 0.9500 0.9500 0.9520 0.9520
1662.233833 0.9540 0.9540 0.9540 0.9540 0.9550
1666.631861 0.9550 0.9550 0.9570 0.9570 0.9580
1671.029890 0.9590 0.9590 0.9590 0.9610 0.9610
1675.427918 0.9610 0.9620 0.9620 0.9610 0.9610
1679.825946 0.9610 0.9570 0.9570 0.9550 0.9550
1684.223975 0.9550 0.9550 0.9550 0.9550 0.9550
1688.622003 0.9550 0.9550 0.9550 0.9570 0.9570
1693.020031 0.9580 0.9590 0.9610 0.9620 0.9630
1697.418060 0.9650 0.9650 0.9650 0.9660 0.9680
1701.816088 0.9680 0.9680 0.9680 0.9650 0.9630
1706.214117 0.9630 0.9630 0.9660 0.9660 0.9650
1710.612145 0.9630 0.9630 0.9630 0.9650 0.9650
1715.010173 0.9680 0.9700 0.9720 0.9720 0.9720
1719.408202 0.9720 0.9700 0.9650 0.9590 0.9580
1723.806230 0.9580 0.9580 0.9630 0.9650 0.9650
1728.204259 0.9630 0.9630 0.9620 0.9620 0.9620
1732.602287 0.9610 0.9610 0.9590 0.9580 0.9570
1737.000315 0.9570 0.9550 0.9520 0.9480 0.9450
1741.398344 0.9410 0.9370 0.9330 0.9260 0.9190
1745.796372 0.9150 0.9110 0.9010 0.8910 0.8820
1750.194400 0.8750 0.8680 0.8640 0.8620 0.8640
1754.592429 0.8690 0.8750 0.8900 0.9000 0.9080
1758.990457 0.9120 0.9160 0.9180 0.9250 0.9270
1763.388486 0.9270 0.9270 0.9260 0.9260 0.9230
1767.786514 0.9180 0.9160 0.9080 0.9010 0.8950
1772.184542 0.8910 0.8890 0.8870 0.8840 0.8820
1776.582571 0.8800 0.8820 0.8860 0.8930 0.9040
1780.980599 0.9140 0.9230 0.9330 0.9380 0.9380
1785.378627 0.9450 0.9480 0.9500 0.9540 0.9570
1789.776656 0.9590 0.9610 0.9630 0.9630 0.9650
1794.174684 0.9650 0.9660 0.9660 0.9680 0.9680
1798.572713 0.9690 0.9690 0.9700 0.9720 0.9720
1802.970741 0.9720 0.9720 0.9700 0.9700 0.9700
1807.368769 0.9700 0.9700 0.9700 0.9690 0.9690
1811.766798 0.9680 0.9680 0.9680 0.9680 0.9680
1816.164826 0.9680 0.9680 0.9680 0.9680 0.9680
1820.562855 0.9690 0.9690 0.9690 0.9690 0.9700
1824.960883 0.9700 0.9700 0.9700 0.9720 0.9720
1829.358911 0.9720 0.9720 0.9700 0.9700 0.9700
1833.756940 0.9700 0.9690 0.9690 0.9690 0.9700
1838.154968 0.9700 0.9700 0.9690 0.9690 0.9680
1842.552996 0.9680 0.9680 0.9660 0.9660 0.9660
1846.951025 0.9650 0.9650 0.9630 0.9620 0.9620
1851.349053 0.9610 0.9610 0.9590 0.9590 0.9590
1855.747082 0.9610 0.9610 0.9610 0.9620 0.9620
1860.145110 0.9620 0.9620 0.9630 0.9630 0.9630
1864.543138 0.9630 0.9630 0.9650 0.9650 0.9650
1868.941167 0.9650 0.9650 0.9660 0.9690 0.9690
1873.339195 0.9700 0.9700 0.9700 0.9700 0.9700
1877.737223 0.9700 0.9700 0.9700 0.9700 0.9720
1882.135252 0.9720 0.9720 0.9720 0.9720 0.9720
1886.533280 0.9720 0.9720 0.9720 0.9720 0.9720
1890.931309 0.9720 0.9730 0.9730 0.9730 0.9730
1895.329337 0.9730 0.9730 0.9730 0.9730 0.9730
1899.727365 0.9730 0.9730 0.9730 0.9730 0.9730
1904.125394 0.9730 0.9730 0.9730 0.9730 0.9730
1908.523422 0.9730 0.9730 0.9730 0.9730 0.9730
1912.921450 0.9730 0.9720 0.9720 0.9720 0.9720
1917.319479 0.9720 0.9700 0.9700 0.9700 0.9720
1921.717507 0.9720 0.9720 0.9720 0.9720 0.9720
1926.115536 0.9720 0.9720 0.9720 0.9720 0.9720
1930.513564 0.9720 0.9720 0.9720 0.9720 0.9720
1934.911592 0.9720 0.9720 0.9720 0.9720 0.9720
1939.309621 0.9720 0.9720 0.9720 0.9720 0.9700
1943.707649 0.9700 0.9700 0.9700 0.9680 0.9680
1948.105678 0.9660 0.9660 0.9650 0.9650 0.9650
1952.503706 0.9650 0.9660 0.9680 0.9680 0.9690
1956.901734 0.9700 0.9720 0.9720 0.9730 0.9730
1961.299763 0.9730 0.9730 0.9730 0.9730 0.9730
1965.697791 0.9730 0.9730 0.9730 0.9730 0.9730
1970.095819 0.9730 0.9730 0.9730 0.9720 0.9720
1974.493848 0.9720 0.9690 0.9690 0.9680 0.9680
1978.891876 0.9680 0.9680 0.9680 0.9680 0.9680
1983.289905 0.9680 0.9680 0.9680 0.9680 0.9680
1987.687933 0.9680 0.9680 0.9680 0.9690 0.9690
1992.085961 0.9700 0.9700 0.9720 0.9730 0.9730
1996.483990 0.9750 0.9750 0.9760 0.9760 0.9770
2000.882018 0.9770 0.9770 0.9780 0.9790 0.9790
2005.280046 0.9790 0.9790 0.9790 0.9795 0.9800
2009.678075 0.9800 0.9800 0.9805 0.9810 0.9810
2014.076103 0.9810 0.9810 0.9810 0.9820 0.9830
2018.474132 0.9830 0.9830 0.9835 0.9840 0.9840
2022.872160 0.9840 0.9840 0.9840 0.9840 0.9840
2027.270188 0.9840 0.9840 0.9849 0.9859 0.9860
2031.668217 0.9860 0.9860 0.9860 0.9860 0.9860
2036.066245 0.9865 0.9870 0.9870 0.9870 0.9870
2040.464273 0.9870 0.9870 0.9870 0.9870 0.9870
2044.862302 0.9875 0.9880 0.9880 0.9880 0.9880
2049.260330 0.9880 0.9880 0.9880 0.9889 0.9899
2053.658359 0.9900 0.9900 0.9900 0.9900 0.9900
2058.056387 0.9900 0.9900 0.9900 0.9913 0.9928
2062.454415 0.9930 0.9930 0.9930 0.9930 0.9934
2066.852444 0.9939 0.9940 0.9940 0.9944 0.9949
2071.250472 0.9950 0.9950 0.9950 0.9950 0.9959
2075.648501 0.9969 0.9970 0.9970 0.9974 0.9979
2080.046529 0.9980 0.9980 0.9980 0.9980 0.9980
2084.444557 0.9980 0.9980 0.9980 0.9976 0.9971
2088.842586 0.9970 0.9970 0.9970 0.9970 0.9970
2093.240614 0.9970 0.9970 0.9970 0.9970 0.9970
2097.638642 0.9970 0.9970 0.9970 0.9970 0.9970
2102.036671 0.9970 0.9962 0.9952 0.9950 0.9950
2106.434699 0.9946 0.9941 0.9940 0.9940 0.9936
2110.832728 0.9931 0.9930 0.9930 0.9922 0.9912
2115.230756 0.9910 0.9910 0.9910 0.9910 0.9910
2119.628784 0.9910 0.9910 0.9910 0.9910 0.9910
2124.026813 0.9906 0.9901 0.9900 0.9900 0.9900
2128.424841 0.9900 0.9900 0.9900 0.9900 0.9900
2132.822869 0.9900 0.9900 0.9900 0.9900 0.9900
2137.220898 0.9900 0.9900 0.9900 0.9893 0.9883
2141.618926 0.9880 0.9880 0.9880 0.9880 0.9880
2146.016955 0.9880 0.9880 0.9880 0.9880 0.9880
2150.414983 0.9880 0.9880 0.9887 0.9897 0.9904
2154.813011 0.9908 0.9910 0.9910 0.9917 0.9927
2159.211040 0.9930 0.9930 0.9930 0.9930 0.9930
2163.609068 0.9930 0.9933 0.9938 0.9940 0.9940
2168.007097 0.9940 0.9940 0.9940 0.9940 0.9940
2172.405125 0.9940 0.9940 0.9940 0.9940 0.9940
2176.803153 0.9937 0.9932 0.9930 0.9930 0.9930
2181.201182 0.9930 0.9930 0.9930 0.9930 0.9930
2185.599210 0.9924 0.9914 0.9910 0.9910 0.9910
2189.997238 0.9910 0.9910 0.9910 0.9907 0.9902
2194.395267 0.9894 0.9884 0.9880 0.9880 0.9880
2198.793295 0.9880 0.9880 0.9880 0.9877 0.9872
2203.191324 0.9870 0.9870 0.9867 0.9862 0.9860
2207.589352 0.9860 0.9854 0.9844 0.9840 0.9840
2211.987380 0.9840 0.9840 0.9840 0.9840 0.9837
2216.385409 0.9832 0.9830 0.9830 0.9830 0.9830
2220.783437 0.9824 0.9814 0.9810 0.9810 0.9810
2225.181465 0.9810 0.9810 0.9810 0.9810 0.9810
2229.579494 0.9810 0.9810 0.9810 0.9810 0.9810
2233.977522 0.9810 0.9810 0.9810 0.9810 0.9810
2238.375551 0.9810 0.9810 0.9810 0.9810 0.9810
2242.773579 0.9810 0.9810 0.9810 0.9810 0.9810
2247.171607 0.9810 0.9810 0.9807 0.9802 0.9800
2251.569636 0.9800 0.9800 0.9800 0.9800 0.9800
2255.967664 0.9800 0.9800 0.9800 0.9800 0.9800
2260.365692 0.9800 0.9793 0.9778 0.9770 0.9770
2264.763721 0.9770 0.9770 0.9770 0.9770 0.9768
2269.161749 0.9763 0.9760 0.9760 0.9758 0.9753
2273.559778 0.9750 0.9750 0.9750 0.9750 0.9745
2277.957806 0.9735 0.9730 0.9730 0.9730 0.9730
2282.355834 0.9730 0.9730 0.9728 0.9723 0.9720
2286.753863 0.9720 0.9720 0.9720 0.9720 0.9720
2291.151891 0.9716 0.9706 0.9698 0.9693 0.9690
2295.549920 0.9690 0.9690 0.9690 0.9690 0.9690
2299.947948 0.9692 0.9697 0.9700 0.9700 0.9700
2304.345976 0.9700 0.9704 0.9714 0.9720 0.9720
2308.744005 0.9720 0.9720 0.9720 0.9720 0.9720
2313.142033 0.9720 0.9720 0.9720 0.9722 0.9727
2317.540061 0.9734 0.9744 0.9752 0.9757 0.9760
2321.938090 0.9760 0.9760 0.9760 0.9760 0.9760
2326.336118 0.9760 0.9760 0.9760 0.9760 0.9762
2330.734147 0.9767 0.9774 0.9784 0.9792 0.9797
2335.132175 0.9802 0.9807 0.9810 0.9810 0.9814
2339.530203 0.9824 0.9830 0.9830 0.9835 0.9850
2343.928232 0.9860 0.9860 0.9862 0.9867 0.9872
2348.326260 0.9877 0.9883 0.9893 0.9905 0.9920
2352.724288 0.9930 0.9930 0.9930 0.9930 0.9932
2357.122317 0.9937 0.9940 0.9940 0.9940 0.9940
2361.520345 0.9938 0.9933 0.9927 0.9917 0.9910
2365.918374 0.9910 0.9909 0.9904 0.9897 0.9887
2370.316402 0.9880 0.9880 0.9880 0.9880 0.9879
2374.714430 0.9874 0.9870 0.9870 0.9869 0.9864
2379.112459 0.9860 0.9860 0.9857 0.9847 0.9840
2383.510487 0.9840 0.9843 0.9853 0.9860 0.9860
2387.908515 0.9860 0.9860 0.9860 0.9860 0.9860
2392.306544 0.9860 0.9860 0.9860 0.9860 0.9860
2396.704572 0.9861 0.9866 0.9870 0.9870 0.9870
2401.102601 0.9870 0.9871 0.9876 0.9880 0.9880
2405.500629 0.9880 0.9880 0.9880 0.9880 0.9880
2409.898657 0.9880 0.9880 0.9880 0.9880 0.9880
2414.296686 0.9879 0.9874 0.9870 0.9870 0.9869
2418.694714 0.9864 0.9855 0.9830 0.9809 0.9804
2423.092743 0.9797 0.9782 0.9769 0.9764 0.9761
2427.490771 0.9766 0.9770 0.9770 0.9770 0.9770
2431.888799 0.9772 0.9782 0.9791 0.9796 0.9800
2436.286828 0.9800 0.9801 0.9806 0.9812 0.9822
2440.684856 0.9830 0.9830 0.9830 0.9830 0.9830
2445.082884 0.9830 0.9830 0.9830 0.9830 0.9830
2449.480913 0.9830 0.9830 0.9830 0.9830 0.9830
2453.878941 0.9830 0.9830 0.9830 0.9830 0.9830
2458.276970 0.9830 0.9830 0.9830 0.9830 0.9830
2462.674998 0.9830 0.9832 0.9847 0.9860 0.9860
2467.073026 0.9860 0.9860 0.9861 0.9866 0.9871
2471.471055 0.9876 0.9881 0.9891 0.9900 0.9900
2475.869083 0.9901 0.9906 0.9910 0.9910 0.9910
2480.267111 0.9910 0.9910 0.9905 0.9899 0.9889
2484.665140 0.9880 0.9875 0.9870 0.9865 0.9859
2489.063168 0.9849 0.9840 0.9840 0.9840 0.9835
2493.461197 0.9830 0.9830 0.9830 0.9830 0.9830
2497.859225 0.9830 0.9829 0.9819 0.9810 0.9810
2502.257253 0.9810 0.9805 0.9800 0.9795 0.9790
2506.655282 0.9790 0.9790 0.9790 0.9790 0.9790
2511.053310 0.9790 0.9790 0.9790 0.9790 0.9790
2515.451339 0.9790 0.9790 0.9790 0.9790 0.9790
2519.849367 0.9790 0.9790 0.9790 0.9795 0.9800
2524.247395 0.9800 0.9800 0.9805 0.9810 0.9820
2528.645424 0.9830 0.9830 0.9830 0.9835 0.9840
2533.043452 0.9850 0.9860 0.9860 0.9860 0.9860
2537.441480 0.9860 0.9865 0.9870 0.9870 0.9870
2541.839509 0.9870 0.9870 0.9875 0.9880 0.9870
2546.237537 0.9860 0.9870 0.9880 0.9875 0.9870
2550.635566 0.9870 0.9870 0.9870 0.9870 0.9870
2555.033594 0.9870 0.9870 0.9870 0.9865 0.9860
2559.431622 0.9860 0.9860 0.9860 0.9860 0.9860
2563.829651 0.9860 0.9860 0.9860 0.9860 0.9860
2568.227679 0.9860 0.9860 0.9851 0.9841 0.9835
2572.625707 0.9830 0.9830 0.9830 0.9821 0.9811
2577.023736 0.9805 0.9800 0.9795 0.9790 0.9790
2581.421764 0.9790 0.9790 0.9790 0.9781 0.9771
2585.819793 0.9770 0.9770 0.9770 0.9770 0.9770
2590.217821 0.9770 0.9770 0.9770 0.9770 0.9770
2594.615849 0.9770 0.9770 0.9770 0.9770 0.9770
2599.013878 0.9770 0.9770 0.9770 0.9770 0.9770
2603.411906 0.9770 0.9770 0.9770 0.9770 0.9770
2607.809934 0.9770 0.9766 0.9761 0.9760 0.9760
2612.207963 0.9760 0.9760 0.9760 0.9760 0.9756
2616.605991 0.9751 0.9750 0.9750 0.9742 0.9732
2621.004020 0.9726 0.9721 0.9720 0.9720 0.9712
2625.402048 0.9702 0.9700 0.9700 0.9700 0.9700
2629.800076 0.9700 0.9700 0.9700 0.9700 0.9700
2634.198105 0.9700 0.9708 0.9718 0.9720 0.9720
2638.596133 0.9724 0.9729 0.9730 0.9730 0.9738
2642.994162 0.9748 0.9750 0.9750 0.9754 0.9759
2647.392190 0.9760 0.9760 0.9764 0.9769 0.9770
2651.790218 0.9770 0.9770 0.9770 0.9770 0.9770
2656.188247 0.9770 0.9770 0.9770 0.9770 0.9770
2660.586275 0.9770 0.9778 0.9788 0.9790 0.9790
2664.984303 0.9790 0.9790 0.9790 0.9790 0.9790
2669.382332 0.9790 0.9790 0.9790 0.9790 0.9790
2673.780360 0.9783 0.9773 0.9766 0.9761 0.9760
2678.178389 0.9760 0.9756 0.9751 0.9743 0.9733
2682.576417 0.9730 0.9730 0.9730 0.9730 0.9726
2686.974445 0.9721 0.9713 0.9703 0.9696 0.9691
2691.372474 0.9690 0.9690 0.9687 0.9682 0.9670
2695.770502 0.9655 0.9643 0.9633 0.9627 0.9622
2700.168530 0.9610 0.9595 0.9590 0.9590 0.9587
2704.566559 0.9582 0.9580 0.9580 0.9577 0.9572
2708.964587 0.9570 0.9570 0.9570 0.9570 0.9570
2713.362616 0.9570 0.9563 0.9553 0.9547 0.9542
2717.760644 0.9521 0.9491 0.9448 0.9398 0.9351
2722.158672 0.9306 0.9284 0.9274 0.9280 0.9295
2726.556701 0.9325 0.9365 0.9399 0.9429 0.9462
2730.954729 0.9497 0.9513 0.9518 0.9529 0.9544
2735.352758 0.9556 0.9566 0.9573 0.9578 0.9580
2739.750786 0.9580 0.9577 0.9572 0.9570 0.9570
2744.148814 0.9564 0.9554 0.9541 0.9526 0.9514
2748.546843 0.9504 0.9485 0.9460 0.9444 0.9434
2752.944871 0.9424 0.9414 0.9407 0.9402 0.9394
2757.342899 0.9384 0.9380 0.9380 0.9377 0.9372
2761.740928 0.9367 0.9362 0.9354 0.9344 0.9337
2766.138956 0.9332 0.9327 0.9322 0.9312 0.9297
2770.536985 0.9285 0.9275 0.9259 0.9239 0.9230
2774.935013 0.9230 0.9227 0.9222 0.9215 0.9205
2779.333041 0.9197 0.9192 0.9187 0.9182 0.9175
2783.731070 0.9165 0.9157 0.9152 0.9147 0.9142
2788.129098 0.9140 0.9140 0.9132 0.9117 0.9105
2792.527126 0.9095 0.9087 0.9082 0.9077 0.9072
2796.925155 0.9065 0.9055 0.9048 0.9043 0.9035
2801.323183 0.9025 0.9018 0.9013 0.9010 0.9010
2805.721212 0.9000 0.8980 0.8963 0.8948 0.8938
2810.119240 0.8933 0.8913 0.8878 0.8853 0.8838
2814.517268 0.8823 0.8808 0.8788 0.8763 0.8736
2818.915297 0.8706 0.8649 0.8559 0.8472 0.8387
2823.313325 0.8340 0.8340 0.8320 0.8275 0.8215
2827.711353 0.8134 0.8045 0.7945 0.7846 0.7746
2832.109382 0.7650 0.7561 0.7493 0.7453 0.7409
2836.507410 0.7359 0.7281 0.7167 0.7006 0.6781
2840.905439 0.6576 0.6396 0.6210 0.6016 0.5872
2845.303467 0.5801 0.5670 0.5456 0.5219 0.4949
2849.701495 0.4676 0.4397 0.4116 0.3831 0.3585
2854.099524 0.3395 0.3225 0.3086 0.2963 0.2869
2858.497552 0.2789 0.2734 0.2685 0.2645 0.2603
2862.895581 0.2558 0.2517 0.2482 0.2437 0.2377
2867.293609 0.2306 0.2217 0.2086 0.1887 0.1755
2871.691637 0.1740 0.1732 0.1737 0.1777 0.1882
2876.089666 0.2004 0.2159 0.2356 0.2635 0.2890
2880.487694 0.3096 0.3234 0.3243 0.3250 0.3250
2884.885722 0.3248 0.3243 0.3196 0.3067 0.2968
2889.283751 0.2934 0.2886 0.2811 0.2757 0.2747
2893.681779 0.2743 0.2753 0.2780 0.2845 0.2912
2898.079808 0.2982 0.3040 0.3069 0.3109 0.3169
2902.477836 0.3213 0.3223 0.3232 0.3236 0.3228
2906.875864 0.3188 0.3129 0.3025 0.2908 0.2764
2911.273893 0.2611 0.2436 0.2303 0.2278 0.2222
2915.671921 0.2081 0.1940 0.1800 0.1665 0.1540
2920.069949 0.1416 0.1291 0.1172 0.1067 0.0965
2924.467978 0.0870 0.0781 0.0706 0.0634 0.0569
2928.866006 0.0506 0.0451 0.0406 0.0391 0.0380
2933.264035 0.0380 0.0401 0.0486 0.0634 0.0973
2937.662063 0.1288 0.1527 0.1747 0.1901 0.2048
2942.060091 0.2167 0.2274 0.2333 0.2379 0.2374
2946.458120 0.2339 0.2194 0.2046 0.1887 0.1730
2950.856148 0.1584 0.1436 0.1281 0.1129 0.0984
2955.254176 0.0858 0.0804 0.0738 0.0628 0.0517
2959.652205 0.0402 0.0293 0.0203 0.0128 0.0118
2964.050233 0.0108 0.0098 0.0090 0.0090 0.0090
2968.448262 0.0090 0.0092 0.0102 0.0117 0.0157
2972.846290 0.0203 0.0278 0.0367 0.0521 0.0687
2977.244318 0.0906 0.1187 0.1791 0.2360 0.2744
2981.642347 0.3106 0.3345 0.3569 0.3699 0.3821
2986.040375 0.3896 0.4002 0.4271 0.4540 0.4809
2990.438404 0.5062 0.5217 0.5360 0.5435 0.5500
2994.836432 0.5500 0.5498 0.5483 0.5468 0.5448
2999.234460 0.5419 0.5330 0.5235 0.5106 0.4980
3003.632489 0.4890 0.4802 0.4737 0.4672 0.4602
3008.030517 0.4529 0.4435 0.4332 0.4157 0.3995
3012.428545 0.3951 0.3910 0.3910 0.3920 0.4030
3016.826574 0.4133 0.4173 0.4222 0.4377 0.4538
3021.224602 0.4774 0.5010 0.5240 0.5458 0.5553
3025.622631 0.5654 0.5828 0.6008 0.6258 0.6505
3030.020659 0.6730 0.6951 0.7120 0.7286 0.7396
3034.418687 0.7504 0.7579 0.7653 0.7707 0.7761
3038.816716 0.7797 0.7832 0.7872 0.7913 0.7973
3043.214744 0.8031 0.8051 0.8070 0.8080 0.8091
3047.612772 0.8105 0.8120 0.8130 0.8140 0.8145
3052.010801 0.8150 0.8155 0.8160 0.8160 0.8160
3056.408829 0.8175 0.8190 0.8210 0.8230 0.8245
3060.806858 0.8261 0.8336 0.8411 0.8515 0.8620
3065.204886 0.8670 0.8720 0.8804 0.8889 0.8934
3069.602914 0.8979 0.9088 0.9198 0.9249 0.9299
3074.000943 0.9315 0.9330 0.9330 0.9330 0.9345
3078.398971 0.9360 0.9404 0.9449 0.9460 0.9470
3082.797000 0.9489 0.9509 0.9515 0.9520 0.9530
3087.195028 0.9540 0.9554 0.9569 0.9570 0.9570
3091.593056 0.9575 0.9580 0.9585 0.9590 0.9599
3095.991085 0.9609 0.9610 0.9610 0.9615 0.9620
3100.389113 0.9625 0.9630 0.9639 0.9649 0.9650
3104.787141 0.9650 0.9655 0.9660 0.9660 0.9660
3109.185170 0.9660 0.9660 0.9660 0.9660 0.9660
3113.583198 0.9660 0.9660 0.9660 0.9660 0.9660
3117.981227 0.9660 0.9660 0.9656 0.9651 0.9650
3122.379255 0.9650 0.9641 0.9631 0.9630 0.9630
3126.777283 0.9630 0.9630 0.9626 0.9621 0.9620
3131.175312 0.9620 0.9616 0.9611 0.9610 0.9610
3135.573340 0.9610 0.9610 0.9601 0.9591 0.9590
3139.971368 0.9590 0.9590 0.9590 0.9586 0.9581
3144.369397 0.9580 0.9580 0.9576 0.9571 0.9570
3148.767425 0.9570 0.9562 0.9552 0.9550 0.9550
3153.165454 0.9550 0.9550 0.9558 0.9568 0.9570
3157.563482 0.9570 0.9574 0.9579 0.9580 0.9580
3161.961510 0.9584 0.9589 0.9590 0.9590 0.9590
3166.359539 0.9590 0.9602 0.9617 0.9620 0.9620
3170.757567 0.9624 0.9629 0.9630 0.9630 0.9642
3175.155595 0.9657 0.9660 0.9660 0.9668 0.9678
3179.553624 0.9684 0.9689 0.9690 0.9690 0.9694
3183.951652 0.9699 0.9700 0.9700 0.9700 0.9700
3188.349681 0.9708 0.9718 0.9720 0.9720 0.9724
3192.747709 0.9729 0.9730 0.9730 0.9730 0.9730
3197.145737 0.9737 0.9748 0.9750 0.9750 0.9754
3201.543766 0.9759 0.9760 0.9760 0.9760 0.9760
3205.941794 0.9764 0.9769 0.9770 0.9770 0.9777
3210.339823 0.9787 0.9790 0.9790 0.9790 0.9790
3214.737851 0.9794 0.9799 0.9800 0.9800 0.9800
3219.135879 0.9800 0.9804 0.9809 0.9810 0.9810
3223.533908 0.9810 0.9810 0.9810 0.9810 0.9810
3227.931936 0.9810 0.9810 0.9810 0.9810 0.9810
3232.329964 0.9810 0.9810 0.9810 0.9810 0.9817
3236.727993 0.9827 0.9830 0.9830 0.9830 0.9830
3241.126021 0.9833 0.9838 0.9840 0.9840 0.9840
3245.524050 0.9840 0.9840 0.9840 0.9846 0.9856
3249.922078 0.9860 0.9860 0.9863 0.9868 0.9870
3254.320106 0.9870 0.9870 0.9870 0.9870 0.9870
3258.718135 0.9873 0.9878 0.9880 0.9880 0.9880
3263.116163 0.9880 0.9880 0.9880 0.9886 0.9896
3267.514191 0.9900 0.9900 0.9900 0.9900 0.9900
3271.912220 0.9900 0.9903 0.9908 0.9910 0.9910
3276.310248 0.9910 0.9910 0.9910 0.9910 0.9910
3280.708277 0.9910 0.9910 0.9910 0.9910 0.9910
3285.106305 0.9916 0.9926 0.9933 0.9938 0.9940
3289.504333 0.9940 0.9940 0.9940 0.9940 0.9940
3293.902362 0.9940 0.9940 0.9940 0.9940 0.9940
3298.300390 0.9940 0.9940 0.9940 0.9940 0.9940
3302.698419 0.9940 0.9940 0.9940 0.9940 0.9940
3307.096447 0.9940 0.9940 0.9940 0.9940 0.9940
3311.494475 0.9940 0.9940 0.9940 0.9940 0.9940
3315.892504 0.9940 0.9940 0.9940 0.9943 0.9948
3320.290532 0.9950 0.9950 0.9950 0.9950 0.9950
3324.688560 0.9950 0.9950 0.9950 0.9950 0.9950
3329.086589 0.9950 0.9950 0.9950 0.9950 0.9950
3333.484617 0.9950 0.9950 0.9950 0.9950 0.9950
3337.882646 0.9950 0.9950 0.9950 0.9950 0.9950
3342.280674 0.9950 0.9950 0.9950 0.9950 0.9950
3346.678702 0.9950 0.9950 0.9950 0.9950 0.9950
3351.076731 0.9950 0.9950 0.9950 0.9950 0.9950
3355.474759 0.9950 0.9950 0.9950 0.9950 0.9950
3359.872787 0.9950 0.9950 0.9950 0.9950 0.9950
3364.270816 0.9950 0.9950 0.9950 0.9950 0.9950
3368.668844 0.9950 0.9950 0.9950 0.9950 0.9950
3373.066873 0.9950 0.9950 0.9950 0.9950 0.9950
3377.464901 0.9950 0.9950 0.9950 0.9950 0.9950
3381.862929 0.9950 0.9950 0.9950 0.9950 0.9950
3386.260958 0.9950 0.9950 0.9950 0.9950 0.9950
3390.658986 0.9950 0.9950 0.9950 0.9950 0.9948
3395.057014 0.9943 0.9940 0.9940 0.9940 0.9940
3399.455043 0.9940 0.9940 0.9940 0.9940 0.9940
3403.853071 0.9940 0.9942 0.9947 0.9950 0.9950
3408.251100 0.9950 0.9950 0.9950 0.9950 0.9950
3412.649128 0.9950 0.9950 0.9950 0.9950 0.9950
3417.047156 0.9950 0.9950 0.9950 0.9950 0.9950
3421.445185 0.9950 0.9950 0.9950 0.9950 0.9950
3425.843213 0.9950 0.9950 0.9950 0.9950 0.9950
3430.241242 0.9950 0.9950 0.9950 0.9950 0.9950
3434.639270 0.9950 0.9950 0.9950 0.9950 0.9950
3439.037298 0.9950 0.9950 0.9950 0.9949 0.9944
3443.435327 0.9940 0.9940 0.9940 0.9940 0.9940
3447.833355 0.9940 0.9939 0.9934 0.9930 0.9930
3452.231383 0.9930 0.9930 0.9930 0.9930 0.9930
3456.629412 0.9930 0.9927 0.9917 0.9910 0.9910
3461.027440 0.9910 0.9910 0.9910 0.9910 0.9910
3465.425469 0.9910 0.9910 0.9910 0.9910 0.9910
3469.823497 0.9910 0.9910 0.9910 0.9910 0.9910
3474.221525 0.9910 0.9910 0.9910 0.9910 0.9910
3478.619554 0.9910 0.9910 0.9910 0.9910 0.9910
3483.017582 0.9910 0.9910 0.9910 0.9910 0.9910
3487.415610 0.9909 0.9904 0.9900 0.9900 0.9900
3491.813639 0.9900 0.9898 0.9888 0.9880 0.9880
3496.211667 0.9879 0.9874 0.9870 0.9870 0.9870
3500.609696 0.9870 0.9869 0.9864 0.9860 0.9860
3505.007724 0.9858 0.9848 0.9840 0.9840 0.9839
3509.405752 0.9834 0.9830 0.9830 0.9830 0.9830
3513.803781 0.9828 0.9818 0.9810 0.9810 0.9810
3518.201809 0.9810 0.9810 0.9810 0.9810 0.9810
3522.599837 0.9811 0.9821 0.9830 0.9830 0.9831
3526.997866 0.9836 0.9840 0.9840 0.9841 0.9851
3531.395894 0.9860 0.9860 0.9860 0.9860 0.9860
3535.793923 0.9860 0.9861 0.9866 0.9870 0.9870
3540.191951 0.9870 0.9870 0.9871 0.9876 0.9880
3544.589979 0.9880 0.9880 0.9880 0.9880 0.9880
3548.988008 0.9881 0.9891 0.9900 0.9900 0.9900
3553.386036 0.9900 0.9900 0.9905 0.9910 0.9910
3557.784065 0.9910 0.9910 0.9910 0.9910 0.9911
3562.182093 0.9921 0.9930 0.9930 0.9930 0.9930
3566.580121 0.9930 0.9930 0.9930 0.9935 0.9940
3570.978150 0.9945 0.9950 0.9950 0.9950 0.9960
3575.376178 0.9970 0.9970 0.9970 0.9970 0.9970
3579.774206 0.9970 0.9970 0.9970 0.9970 0.9970
3584.172235 0.9970 0.9960 0.9950 0.9950 0.9950
3588.570263 0.9950 0.9950 0.9950 0.9950 0.9950
3592.968292 0.9950 0.9950 0.9950 0.9945 0.9940
3597.366320 0.9940 0.9940 0.9935 0.9930 0.9930
3601.764348 0.9930 0.9930 0.9930 0.9930 0.9930
3606.162377 0.9935 0.9940 0.9940 0.9940 0.9940
3610.560405 0.9940 0.9940 0.9940 0.9940 0.9940
3614.958433 0.9940 0.9940 0.9940 0.9940 0.9940
3619.356462 0.9940 0.9940 0.9940 0.9935 0.9930
3623.754490 0.9930 0.9930 0.9930 0.9930 0.9930
3628.152519 0.9930 0.9930 0.9930 0.9930 0.9930
3632.550547 0.9930 0.9930 0.9930 0.9930 0.9930
3636.948575 0.9930 0.9930 0.9930 0.9930 0.9930
3641.346604 0.9930 0.9930 0.9930 0.9930 0.9921
3645.744632 0.9911 0.9910 0.9910 0.9910 0.9910
3650.142661 0.9910 0.9910 0.9910 0.9910 0.9906
3654.540689 0.9901 0.9900 0.9900 0.9900 0.9900
3658.938717 0.9904 0.9909 0.9910 0.9910 0.9910
3663.336746 0.9910 0.9910 0.9910 0.9910 0.9910
3667.734774 0.9910 0.9910 0.9910 0.9910 0.9910
3672.132802 0.9910 0.9910 0.9910 0.9910 0.9910
3676.530831 0.9910 0.9910 0.9910 0.9910 0.9910
3680.928859 0.9910 0.9910 0.9910 0.9910 0.9910
3685.326888 0.9910 0.9910 0.9910 0.9910 0.9910
3689.724916 0.9910 0.9910 0.9910 0.9910 0.9910
3694.122944 0.9910 0.9910 0.9910 0.9910 0.9910
3698.520973 0.9910 0.9910 0.9910 0.9910 0.9910
3702.919001 0.9910 0.9910 0.9910 0.9910 0.9910
3707.317029 0.9910 0.9910 0.9910 0.9910 0.9910
3711.715058 0.9910 0.9910 0.9910 0.9910 0.9910
3716.113086 0.9910 0.9910 0.9910 0.9910 0.9910
3720.511115 0.9910 0.9910 0.9910 0.9910 0.9910
3724.909143 0.9910 0.9910 0.9910 0.9910 0.9910
3729.307171 0.9910 0.9910 0.9910 0.9910 0.9910
3733.705200 0.9910 0.9910 0.9910 0.9910 0.9910
3738.103228 0.9910 0.9910 0.9910 0.9910 0.9910
3742.501256 0.9910 0.9910 0.9910 0.9910 0.9910
3746.899285 0.9910 0.9910 0.9910 0.9910 0.9910
3751.297313 0.9910 0.9910 0.9910 0.9910 0.9910
3755.695342 0.9910 0.9910 0.9910 0.9910 0.9910
3760.093370 0.9910 0.9910 0.9910 0.9910 0.9910
3764.491398 0.9910 0.9910 0.9910 0.9910 0.9910
3768.889427 0.9910 0.9910 0.9910 0.9910 0.9910
3773.287455 0.9910 0.9910 0.9910 0.9910 0.9910
3777.685484 0.9910 0.9910 0.9910 0.9910 0.9910
3782.083512 0.9917 0.9927 0.9930 0.9930 0.9930
3786.481540 0.9930 0.9930 0.9930 0.9930 0.9930
3790.879569 0.9930 0.9930 0.9933 0.9938 0.9940
3795.277597 0.9940 0.9940 0.9940 0.9940 0.9940
##END=
