##TITLE=1,2,3-Propanetriol, triacetate
##JCAMP-DX=4.24
$$ By DXEDIT 1.05 (RS McDonald)
##DATA TYPE=INFRARED SPECTRUM
##CLASS=COBLENTZ III
##ORIGIN=DOW CHEMICAL COMPANY
##OWNER=COPYRIGHT (C) 1988 by COBLENTZ SOCIETY INC.
Collection (C) 2018 copyright by the U.S. Secretary of Commerce
on behalf of the United States of America. All rights reserved.
##DATE=1970/01/27
##NAMES=2-(acetyloxy)-1-[(acetyloxy)methyl]ethyl acetate
Triacetin
##CAS REGISTRY NO=102-76-1
##MOLFORM=C9 H14 O6
##SOURCE REFERENCE=COBLENTZ NO. 09504
##$NIST SOURCE=COBLENTZ
##$NIST IMAGE=cob9504
##SPECTROMETER/DATA SYSTEM=DOW KBr FOREPRISM-GRATING
##INSTRUMENT PARAMETERS=BLAZED AT 3.5, 12.0, 20.0 MICRON AND CHANGED AT 5.0, 7.5, 14.9 MICRON
##STATE=SOLUTION (5% CCl4 FOR 2.7-7.5, 5% CS2 FOR 7.5-26 MICRON) VS SOLVENT
##PATH LENGTH=0.011 CM, 0.011 CM
##SAMPLING PROCEDURE=TRANSMISSION
##RESOLUTION=2
##DATA PROCESSING=DIGITIZED BY COBLENTZ SOCIETY (BATCH I) FROM HARD COPY
##XUNITS=1/CM
##YUNITS=TRANSMITTANCE
##XFACTOR=1
##YFACTOR=1
##DELTAX=1
##FIRSTX=3796
##LASTX=390
##FIRSTY=0.8551
##MAXX=3796
##MINX=390
##MAXY=0.8828
##MINY=0.0058
##NPOINTS=3407
##XYDATA=(X++(Y..Y))
3796.000000 0.8551 0.8552 0.8553 0.8557 0.8561
3791.000000 0.8565 0.8568 0.8571 0.8575 0.8580
3786.000000 0.8584 0.8585 0.8586 0.8586 0.8587
3781.000000 0.8587 0.8588 0.8588 0.8589 0.8589
3776.000000 0.8590 0.8590 0.8591 0.8591 0.8592
3771.000000 0.8592 0.8593 0.8594 0.8595 0.8595
3766.000000 0.8596 0.8596 0.8597 0.8598 0.8599
3761.000000 0.8599 0.8600 0.8600 0.8601 0.8602
3756.000000 0.8602 0.8602 0.8602 0.8600 0.8598
3751.000000 0.8596 0.8594 0.8592 0.8590 0.8588
3746.000000 0.8586 0.8584 0.8582 0.8580 0.8578
3741.000000 0.8575 0.8571 0.8568 0.8566 0.8562
3736.000000 0.8559 0.8555 0.8552 0.8549 0.8546
3731.000000 0.8542 0.8539 0.8535 0.8532 0.8531
3726.000000 0.8530 0.8530 0.8531 0.8531 0.8531
3721.000000 0.8531 0.8532 0.8532 0.8532 0.8532
3716.000000 0.8533 0.8533 0.8533 0.8533 0.8534
3711.000000 0.8534 0.8534 0.8534 0.8535 0.8535
3706.000000 0.8535 0.8535 0.8536 0.8536 0.8537
3701.000000 0.8537 0.8537 0.8537 0.8538 0.8538
3696.000000 0.8538 0.8538 0.8539 0.8539 0.8539
3691.000000 0.8539 0.8540 0.8540 0.8540 0.8540
3686.000000 0.8541 0.8541 0.8542 0.8542 0.8543
3681.000000 0.8543 0.8544 0.8544 0.8544 0.8544
3676.000000 0.8545 0.8545 0.8546 0.8546 0.8547
3671.000000 0.8547 0.8548 0.8548 0.8549 0.8549
3666.000000 0.8549 0.8549 0.8550 0.8550 0.8551
3661.000000 0.8551 0.8552 0.8552 0.8553 0.8553
3656.000000 0.8554 0.8554 0.8555 0.8555 0.8555
3651.000000 0.8555 0.8556 0.8556 0.8557 0.8557
3646.000000 0.8558 0.8558 0.8559 0.8559 0.8560
3641.000000 0.8560 0.8560 0.8560 0.8561 0.8561
3636.000000 0.8562 0.8562 0.8562 0.8562 0.8563
3631.000000 0.8563 0.8564 0.8564 0.8564 0.8564
3626.000000 0.8564 0.8564 0.8563 0.8560 0.8557
3621.000000 0.8554 0.8552 0.8549 0.8547 0.8544
3616.000000 0.8542 0.8539 0.8536 0.8533 0.8530
3611.000000 0.8521 0.8514 0.8506 0.8499 0.8494
3606.000000 0.8490 0.8491 0.8492 0.8493 0.8494
3601.000000 0.8495 0.8496 0.8497 0.8499 0.8500
3596.000000 0.8501 0.8502 0.8503 0.8504 0.8505
3591.000000 0.8506 0.8508 0.8509 0.8510 0.8511
3586.000000 0.8512 0.8513 0.8514 0.8515 0.8517
3581.000000 0.8518 0.8518 0.8520 0.8521 0.8521
3576.000000 0.8524 0.8525 0.8525 0.8527 0.8527
3571.000000 0.8527 0.8527 0.8525 0.8525 0.8525
3566.000000 0.8525 0.8525 0.8525 0.8524 0.8524
3561.000000 0.8523 0.8523 0.8520 0.8518 0.8513
3556.000000 0.8508 0.8502 0.8497 0.8491 0.8486
3551.000000 0.8481 0.8475 0.8470 0.8465 0.8460
3546.000000 0.8455 0.8449 0.8444 0.8439 0.8434
3541.000000 0.8428 0.8423 0.8418 0.8413 0.8407
3536.000000 0.8401 0.8395 0.8390 0.8384 0.8378
3531.000000 0.8373 0.8367 0.8361 0.8356 0.8352
3526.000000 0.8349 0.8346 0.8344 0.8341 0.8339
3521.000000 0.8337 0.8335 0.8332 0.8330 0.8328
3516.000000 0.8328 0.8328 0.8330 0.8331 0.8332
3511.000000 0.8333 0.8334 0.8335 0.8336 0.8337
3506.000000 0.8338 0.8339 0.8340 0.8340 0.8341
3501.000000 0.8341 0.8342 0.8335 0.8328 0.8320
3496.000000 0.8312 0.8301 0.8291 0.8281 0.8271
3491.000000 0.8261 0.8251 0.8240 0.8230 0.8220
3486.000000 0.8211 0.8202 0.8193 0.8184 0.8175
3481.000000 0.8167 0.8158 0.8149 0.8141 0.8134
3476.000000 0.8128 0.8121 0.8115 0.8110 0.8098
3471.000000 0.8103 0.8101 0.8105 0.8108 0.8111
3466.000000 0.8115 0.8121 0.8125 0.8137 0.8148
3461.000000 0.8158 0.8169 0.8181 0.8193 0.8204
3456.000000 0.8215 0.8228 0.8242 0.8259 0.8275
3451.000000 0.8293 0.8311 0.8328 0.8345 0.8362
3446.000000 0.8378 0.8396 0.8413 0.8430 0.8447
3441.000000 0.8459 0.8471 0.8483 0.8496 0.8508
3436.000000 0.8520 0.8532 0.8545 0.8557 0.8568
3431.000000 0.8581 0.8594 0.8598 0.8602 0.8606
3426.000000 0.8610 0.8614 0.8618 0.8621 0.8625
3421.000000 0.8630 0.8634 0.8638 0.8642 0.8646
3416.000000 0.8650 0.8654 0.8658 0.8662 0.8666
3411.000000 0.8668 0.8671 0.8671 0.8674 0.8675
3406.000000 0.8678 0.8678 0.8681 0.8683 0.8685
3401.000000 0.8687 0.8689 0.8690 0.8692 0.8694
3396.000000 0.8696 0.8698 0.8700 0.8701 0.8703
3391.000000 0.8705 0.8707 0.8709 0.8711 0.8712
3386.000000 0.8714 0.8715 0.8716 0.8716 0.8717
3381.000000 0.8718 0.8718 0.8718 0.8720 0.8721
3376.000000 0.8721 0.8721 0.8723 0.8724 0.8725
3371.000000 0.8725 0.8725 0.8727 0.8728 0.8728
3366.000000 0.8728 0.8730 0.8731 0.8731 0.8732
3361.000000 0.8733 0.8734 0.8734 0.8735 0.8736
3356.000000 0.8737 0.8737 0.8738 0.8739 0.8740
3351.000000 0.8740 0.8741 0.8741 0.8742 0.8742
3346.000000 0.8742 0.8742 0.8742 0.8742 0.8742
3341.000000 0.8742 0.8742 0.8742 0.8742 0.8742
3336.000000 0.8742 0.8742 0.8742 0.8742 0.8742
3331.000000 0.8742 0.8742 0.8742 0.8742 0.8742
3326.000000 0.8742 0.8742 0.8742 0.8742 0.8742
3321.000000 0.8742 0.8742 0.8742 0.8742 0.8742
3316.000000 0.8742 0.8742 0.8742 0.8742 0.8742
3311.000000 0.8741 0.8741 0.8741 0.8741 0.8740
3306.000000 0.8740 0.8739 0.8739 0.8738 0.8738
3301.000000 0.8737 0.8737 0.8737 0.8737 0.8736
3296.000000 0.8736 0.8735 0.8735 0.8734 0.8734
3291.000000 0.8734 0.8734 0.8733 0.8733 0.8732
3286.000000 0.8732 0.8731 0.8731 0.8730 0.8730
3281.000000 0.8730 0.8730 0.8728 0.8728 0.8728
3276.000000 0.8728 0.8727 0.8727 0.8725 0.8725
3271.000000 0.8725 0.8725 0.8724 0.8724 0.8723
3266.000000 0.8721 0.8721 0.8721 0.8720 0.8720
3261.000000 0.8718 0.8718 0.8718 0.8718 0.8717
3256.000000 0.8717 0.8716 0.8715 0.8714 0.8714
3251.000000 0.8713 0.8713 0.8712 0.8712 0.8711
3246.000000 0.8711 0.8710 0.8709 0.8708 0.8708
3241.000000 0.8707 0.8707 0.8706 0.8706 0.8705
3236.000000 0.8705 0.8704 0.8703 0.8702 0.8702
3231.000000 0.8701 0.8701 0.8700 0.8700 0.8699
3226.000000 0.8699 0.8698 0.8698 0.8698 0.8698
3221.000000 0.8697 0.8697 0.8696 0.8696 0.8695
3216.000000 0.8695 0.8694 0.8694 0.8693 0.8693
3211.000000 0.8692 0.8692 0.8691 0.8691 0.8690
3206.000000 0.8690 0.8689 0.8689 0.8688 0.8688
3201.000000 0.8688 0.8688 0.8687 0.8687 0.8686
3196.000000 0.8686 0.8685 0.8685 0.8684 0.8684
3191.000000 0.8683 0.8683 0.8682 0.8682 0.8681
3186.000000 0.8681 0.8680 0.8680 0.8678 0.8678
3181.000000 0.8678 0.8678 0.8678 0.8678 0.8677
3176.000000 0.8677 0.8675 0.8675 0.8675 0.8675
3171.000000 0.8674 0.8674 0.8673 0.8673 0.8671
3166.000000 0.8671 0.8671 0.8671 0.8670 0.8670
3161.000000 0.8668 0.8668 0.8668 0.8667 0.8666
3156.000000 0.8665 0.8664 0.8663 0.8661 0.8660
3151.000000 0.8659 0.8658 0.8657 0.8656 0.8655
3146.000000 0.8654 0.8652 0.8651 0.8650 0.8649
3141.000000 0.8648 0.8647 0.8646 0.8645 0.8644
3136.000000 0.8643 0.8641 0.8640 0.8639 0.8638
3131.000000 0.8637 0.8636 0.8634 0.8633 0.8631
3126.000000 0.8630 0.8628 0.8627 0.8625 0.8624
3121.000000 0.8621 0.8621 0.8618 0.8618 0.8616
3116.000000 0.8615 0.8614 0.8613 0.8611 0.8610
3111.000000 0.8608 0.8606 0.8603 0.8601 0.8598
3106.000000 0.8596 0.8593 0.8591 0.8588 0.8586
3101.000000 0.8583 0.8581 0.8578 0.8575 0.8573
3096.000000 0.8571 0.8568 0.8566 0.8563 0.8561
3091.000000 0.8558 0.8556 0.8553 0.8550 0.8547
3086.000000 0.8544 0.8541 0.8538 0.8535 0.8532
3081.000000 0.8528 0.8525 0.8521 0.8518 0.8516
3076.000000 0.8513 0.8509 0.8506 0.8502 0.8498
3071.000000 0.8493 0.8488 0.8483 0.8478 0.8474
3066.000000 0.8468 0.8464 0.8459 0.8454 0.8449
3061.000000 0.8443 0.8438 0.8433 0.8428 0.8421
3056.000000 0.8417 0.8412 0.8407 0.8401 0.8395
3051.000000 0.8386 0.8378 0.8370 0.8362 0.8354
3046.000000 0.8346 0.8336 0.8325 0.8316 0.8306
3041.000000 0.8296 0.8286 0.8275 0.8266 0.8254
3036.000000 0.8243 0.8230 0.8218 0.8205 0.8192
3031.000000 0.8178 0.8165 0.8153 0.8141 0.8128
3026.000000 0.8115 0.8103 0.8091 0.8078 0.8067
3021.000000 0.8054 0.8042 0.8028 0.8017 0.8008
3016.000000 0.7999 0.7993 0.7988 0.7982 0.7976
3011.000000 0.7971 0.7965 0.7961 0.7956 0.7951
3006.000000 0.7946 0.7941 0.7936 0.7931 0.7925
3001.000000 0.7918 0.7912 0.7890 0.7868 0.7845
2996.000000 0.7822 0.7797 0.7771 0.7740 0.7710
2991.000000 0.7684 0.7658 0.7633 0.7608 0.7590
2986.000000 0.7571 0.7558 0.7545 0.7532 0.7518
2981.000000 0.7505 0.7492 0.7478 0.7467 0.7455
2976.000000 0.7443 0.7430 0.7418 0.7406 0.7394
2971.000000 0.7381 0.7368 0.7331 0.7294 0.7236
2966.000000 0.7178 0.7125 0.7074 0.7032 0.6990
2961.000000 0.6945 0.6900 0.6854 0.6808 0.6785
2956.000000 0.6761 0.6756 0.6750 0.6745 0.6741
2951.000000 0.6741 0.6742 0.6742 0.6743 0.6755
2946.000000 0.6768 0.6781 0.6795 0.6831 0.6868
2941.000000 0.6926 0.6986 0.7068 0.7151 0.7249
2936.000000 0.7346 0.7433 0.7519 0.7578 0.7638
2931.000000 0.7680 0.7721 0.7757 0.7792 0.7826
2926.000000 0.7861 0.7886 0.7910 0.7933 0.7956
2921.000000 0.7975 0.7997 0.8010 0.8024 0.8037
2916.000000 0.8051 0.8055 0.8060 0.8062 0.8067
2911.000000 0.8068 0.8068 0.8069 0.8068 0.8068
2906.000000 0.8067 0.8065 0.8065 0.8064 0.8062
2901.000000 0.8061 0.8061 0.8060 0.8058 0.8057
2896.000000 0.8056 0.8054 0.8053 0.8051 0.8050
2891.000000 0.8050 0.8050 0.8053 0.8056 0.8058
2886.000000 0.8061 0.8065 0.8068 0.8069 0.8072
2881.000000 0.8083 0.8093 0.8107 0.8121 0.8135
2876.000000 0.8149 0.8165 0.8181 0.8199 0.8217
2871.000000 0.8235 0.8254 0.8271 0.8290 0.8304
2866.000000 0.8318 0.8333 0.8347 0.8361 0.8375
2861.000000 0.8389 0.8403 0.8415 0.8427 0.8435
2856.000000 0.8444 0.8449 0.8455 0.8459 0.8463
2851.000000 0.8466 0.8468 0.8468 0.8470 0.8470
2846.000000 0.8470 0.8468 0.8468 0.8468 0.8468
2841.000000 0.8468 0.8468 0.8468 0.8470 0.8470
2836.000000 0.8470 0.8470 0.8471 0.8471 0.8471
2831.000000 0.8474 0.8477 0.8481 0.8485 0.8489
2826.000000 0.8494 0.8498 0.8503 0.8507 0.8511
2821.000000 0.8514 0.8518 0.8521 0.8525 0.8528
2816.000000 0.8533 0.8537 0.8541 0.8544 0.8548
2811.000000 0.8552 0.8556 0.8559 0.8562 0.8563
2806.000000 0.8564 0.8565 0.8566 0.8567 0.8568
2801.000000 0.8568 0.8570 0.8570 0.8571 0.8571
2796.000000 0.8573 0.8574 0.8575 0.8575 0.8577
2791.000000 0.8578 0.8578 0.8580 0.8581 0.8582
2786.000000 0.8583 0.8583 0.8584 0.8584 0.8584
2781.000000 0.8584 0.8585 0.8585 0.8585 0.8585
2776.000000 0.8585 0.8585 0.8586 0.8586 0.8586
2771.000000 0.8586 0.8586 0.8586 0.8587 0.8587
2766.000000 0.8587 0.8587 0.8587 0.8587 0.8588
2761.000000 0.8588 0.8588 0.8588 0.8588 0.8588
2756.000000 0.8588 0.8588 0.8588 0.8588 0.8588
2751.000000 0.8588 0.8588 0.8588 0.8588 0.8588
2746.000000 0.8588 0.8588 0.8588 0.8588 0.8588
2741.000000 0.8588 0.8588 0.8588 0.8588 0.8588
2736.000000 0.8588 0.8588 0.8588 0.8588 0.8588
2731.000000 0.8588 0.8588 0.8588 0.8588 0.8588
2726.000000 0.8588 0.8588 0.8588 0.8587 0.8586
2721.000000 0.8585 0.8584 0.8583 0.8582 0.8581
2716.000000 0.8581 0.8580 0.8578 0.8578 0.8577
2711.000000 0.8575 0.8575 0.8574 0.8574 0.8573
2706.000000 0.8571 0.8571 0.8570 0.8568 0.8568
2701.000000 0.8567 0.8566 0.8565 0.8564 0.8562
2696.000000 0.8561 0.8560 0.8559 0.8558 0.8557
2691.000000 0.8556 0.8555 0.8554 0.8553 0.8552
2686.000000 0.8552 0.8551 0.8551 0.8550 0.8550
2681.000000 0.8550 0.8550 0.8549 0.8549 0.8548
2676.000000 0.8548 0.8549 0.8550 0.8551 0.8553
2671.000000 0.8554 0.8556 0.8557 0.8558 0.8559
2666.000000 0.8561 0.8562 0.8564 0.8565 0.8567
2661.000000 0.8570 0.8574 0.8578 0.8582 0.8586
2656.000000 0.8590 0.8594 0.8598 0.8600 0.8603
2651.000000 0.8605 0.8608 0.8611 0.8614 0.8616
2646.000000 0.8618 0.8620 0.8621 0.8621 0.8620
2641.000000 0.8616 0.8613 0.8606 0.8600 0.8593
2636.000000 0.8587 0.8582 0.8577 0.8573 0.8568
2631.000000 0.8566 0.8564 0.8564 0.8564 0.8564
2626.000000 0.8564 0.8565 0.8566 0.8566 0.8567
2621.000000 0.8568 0.8568 0.8570 0.8571 0.8571
2616.000000 0.8571 0.8573 0.8574 0.8574 0.8575
2611.000000 0.8575 0.8577 0.8578 0.8582 0.8584
2606.000000 0.8587 0.8589 0.8592 0.8594 0.8597
2601.000000 0.8599 0.8602 0.8604 0.8607 0.8609
2596.000000 0.8612 0.8614 0.8617 0.8618 0.8621
2591.000000 0.8624 0.8627 0.8628 0.8632 0.8633
2586.000000 0.8635 0.8636 0.8637 0.8638 0.8639
2581.000000 0.8640 0.8641 0.8642 0.8643 0.8644
2576.000000 0.8645 0.8646 0.8646 0.8646 0.8645
2571.000000 0.8644 0.8644 0.8643 0.8642 0.8641
2566.000000 0.8640 0.8639 0.8638 0.8637 0.8637
2561.000000 0.8636 0.8636 0.8636 0.8637 0.8638
2556.000000 0.8639 0.8640 0.8641 0.8642 0.8643
2551.000000 0.8644 0.8645 0.8646 0.8647 0.8648
2546.000000 0.8649 0.8650 0.8651 0.8652 0.8653
2541.000000 0.8654 0.8655 0.8656 0.8657 0.8658
2536.000000 0.8659 0.8660 0.8662 0.8663 0.8664
2531.000000 0.8665 0.8667 0.8668 0.8668 0.8670
2526.000000 0.8671 0.8673 0.8674 0.8675 0.8677
2521.000000 0.8678 0.8678 0.8680 0.8682 0.8683
2516.000000 0.8685 0.8686 0.8687 0.8688 0.8690
2511.000000 0.8691 0.8692 0.8693 0.8695 0.8696
2506.000000 0.8696 0.8696 0.8695 0.8694 0.8693
2501.000000 0.8692 0.8692 0.8691 0.8690 0.8689
2496.000000 0.8688 0.8687 0.8687 0.8686 0.8685
2491.000000 0.8684 0.8683 0.8682 0.8681 0.8680
2486.000000 0.8680 0.8678 0.8678 0.8677 0.8675
2481.000000 0.8674 0.8673 0.8671 0.8671 0.8670
2476.000000 0.8668 0.8668 0.8667 0.8666 0.8665
2471.000000 0.8664 0.8663 0.8662 0.8661 0.8661
2466.000000 0.8662 0.8663 0.8664 0.8664 0.8665
2461.000000 0.8665 0.8666 0.8666 0.8667 0.8668
2456.000000 0.8668 0.8668 0.8670 0.8670 0.8671
2451.000000 0.8671 0.8673 0.8673 0.8674 0.8674
2446.000000 0.8675 0.8675 0.8677 0.8677 0.8678
2441.000000 0.8678 0.8678 0.8680 0.8681 0.8681
2436.000000 0.8682 0.8682 0.8683 0.8683 0.8684
2431.000000 0.8685 0.8686 0.8686 0.8686 0.8686
2426.000000 0.8687 0.8687 0.8688 0.8688 0.8689
2421.000000 0.8689 0.8689 0.8689 0.8690 0.8690
2416.000000 0.8691 0.8691 0.8692 0.8692 0.8692
2411.000000 0.8692 0.8693 0.8693 0.8694 0.8694
2406.000000 0.8695 0.8695 0.8695 0.8695 0.8696
2401.000000 0.8696 0.8697 0.8697 0.8698 0.8698
2396.000000 0.8698 0.8698 0.8699 0.8700 0.8701
2391.000000 0.8702 0.8704 0.8705 0.8707 0.8709
2386.000000 0.8711 0.8712 0.8714 0.8715 0.8717
2381.000000 0.8718 0.8720 0.8721 0.8723 0.8724
2376.000000 0.8725 0.8727 0.8728 0.8730 0.8732
2371.000000 0.8733 0.8735 0.8737 0.8739 0.8740
2366.000000 0.8742 0.8743 0.8745 0.8746 0.8748
2361.000000 0.8749 0.8750 0.8751 0.8753 0.8754
2356.000000 0.8755 0.8756 0.8758 0.8759 0.8760
2351.000000 0.8761 0.8763 0.8764 0.8765 0.8767
2346.000000 0.8768 0.8771 0.8773 0.8775 0.8777
2341.000000 0.8778 0.8781 0.8783 0.8785 0.8787
2336.000000 0.8789 0.8790 0.8792 0.8794 0.8796
2331.000000 0.8797 0.8799 0.8800 0.8800 0.8801
2326.000000 0.8800 0.8793 0.8786 0.8778 0.8771
2321.000000 0.8764 0.8757 0.8749 0.8742 0.8734
2316.000000 0.8727 0.8718 0.8712 0.8706 0.8701
2311.000000 0.8700 0.8700 0.8699 0.8699 0.8698
2306.000000 0.8698 0.8697 0.8696 0.8695 0.8695
2301.000000 0.8694 0.8694 0.8693 0.8693 0.8693
2296.000000 0.8694 0.8694 0.8695 0.8695 0.8696
2291.000000 0.8696 0.8697 0.8697 0.8697 0.8697
2286.000000 0.8698 0.8698 0.8699 0.8699 0.8700
2281.000000 0.8700 0.8700 0.8700 0.8701 0.8701
2276.000000 0.8702 0.8702 0.8703 0.8703 0.8703
2271.000000 0.8703 0.8704 0.8704 0.8705 0.8705
2266.000000 0.8706 0.8706 0.8707 0.8707 0.8708
2261.000000 0.8709 0.8710 0.8710 0.8711 0.8711
2256.000000 0.8712 0.8712 0.8713 0.8713 0.8714
2251.000000 0.8714 0.8715 0.8715 0.8716 0.8716
2246.000000 0.8717 0.8718 0.8718 0.8718 0.8720
2241.000000 0.8720 0.8721 0.8721 0.8721 0.8723
2236.000000 0.8724 0.8724 0.8725 0.8725 0.8725
2231.000000 0.8725 0.8727 0.8728 0.8728 0.8728
2226.000000 0.8730 0.8730 0.8731 0.8732 0.8734
2221.000000 0.8735 0.8737 0.8739 0.8741 0.8743
2216.000000 0.8745 0.8746 0.8748 0.8751 0.8754
2211.000000 0.8756 0.8759 0.8762 0.8765 0.8768
2206.000000 0.8771 0.8773 0.8774 0.8775 0.8775
2201.000000 0.8775 0.8775 0.8773 0.8771 0.8770
2196.000000 0.8768 0.8765 0.8763 0.8761 0.8760
2191.000000 0.8759 0.8759 0.8758 0.8757 0.8757
2186.000000 0.8758 0.8766 0.8774 0.8782 0.8790
2181.000000 0.8797 0.8805 0.8810 0.8816 0.8816
2176.000000 0.8815 0.8815 0.8814 0.8811 0.8809
2171.000000 0.8799 0.8790 0.8781 0.8773 0.8766
2166.000000 0.8760 0.8757 0.8755 0.8752 0.8750
2161.000000 0.8747 0.8745 0.8742 0.8740 0.8737
2156.000000 0.8735 0.8732 0.8728 0.8725 0.8724
2151.000000 0.8721 0.8718 0.8716 0.8714 0.8711
2146.000000 0.8709 0.8706 0.8704 0.8700 0.8697
2141.000000 0.8693 0.8690 0.8686 0.8683 0.8680
2136.000000 0.8677 0.8673 0.8670 0.8666 0.8663
2131.000000 0.8659 0.8656 0.8652 0.8649 0.8646
2126.000000 0.8643 0.8640 0.8637 0.8634 0.8632
2121.000000 0.8628 0.8627 0.8625 0.8625 0.8625
2116.000000 0.8625 0.8625 0.8625 0.8625 0.8625
2111.000000 0.8625 0.8625 0.8625 0.8625 0.8625
2106.000000 0.8625 0.8625 0.8627 0.8627 0.8628
2101.000000 0.8628 0.8630 0.8630 0.8631 0.8632
2096.000000 0.8633 0.8633 0.8634 0.8634 0.8635
2091.000000 0.8635 0.8636 0.8637 0.8638 0.8638
2086.000000 0.8639 0.8639 0.8640 0.8641 0.8642
2081.000000 0.8642 0.8642 0.8642 0.8642 0.8642
2076.000000 0.8643 0.8643 0.8643 0.8643 0.8643
2071.000000 0.8643 0.8643 0.8643 0.8643 0.8643
2066.000000 0.8643 0.8643 0.8643 0.8642 0.8641
2061.000000 0.8640 0.8639 0.8638 0.8637 0.8636
2056.000000 0.8635 0.8634 0.8633 0.8632 0.8631
2051.000000 0.8630 0.8630 0.8628 0.8628 0.8627
2046.000000 0.8627 0.8625 0.8625 0.8624 0.8624
2041.000000 0.8623 0.8621 0.8621 0.8621 0.8620
2036.000000 0.8620 0.8621 0.8623 0.8624 0.8625
2031.000000 0.8625 0.8628 0.8628 0.8630 0.8631
2026.000000 0.8633 0.8634 0.8635 0.8636 0.8638
2021.000000 0.8639 0.8640 0.8641 0.8643 0.8644
2016.000000 0.8645 0.8646 0.8648 0.8649 0.8651
2011.000000 0.8652 0.8653 0.8654 0.8656 0.8658
2006.000000 0.8661 0.8664 0.8667 0.8670 0.8673
2001.000000 0.8678 0.8684 0.8690 0.8696 0.8702
1996.000000 0.8707 0.8713 0.8718 0.8724 0.8724
1991.000000 0.8724 0.8724 0.8724 0.8724 0.8724
1986.000000 0.8724 0.8724 0.8724 0.8724 0.8723
1981.000000 0.8723 0.8723 0.8723 0.8723 0.8723
1976.000000 0.8723 0.8723 0.8723 0.8723 0.8723
1971.000000 0.8723 0.8723 0.8723 0.8723 0.8721
1966.000000 0.8721 0.8721 0.8721 0.8720 0.8720
1961.000000 0.8718 0.8718 0.8718 0.8718 0.8717
1956.000000 0.8717 0.8716 0.8716 0.8715 0.8715
1951.000000 0.8714 0.8714 0.8713 0.8713 0.8712
1946.000000 0.8712 0.8711 0.8711 0.8711 0.8710
1941.000000 0.8710 0.8709 0.8709 0.8708 0.8708
1936.000000 0.8708 0.8707 0.8707 0.8706 0.8706
1931.000000 0.8706 0.8705 0.8705 0.8704 0.8704
1926.000000 0.8703 0.8703 0.8703 0.8702 0.8702
1921.000000 0.8702 0.8702 0.8702 0.8701 0.8701
1916.000000 0.8699 0.8695 0.8689 0.8675 0.8663
1911.000000 0.8649 0.8638 0.8633 0.8627 0.8621
1906.000000 0.8616 0.8610 0.8605 0.8599 0.8594
1901.000000 0.8590 0.8587 0.8583 0.8580 0.8577
1896.000000 0.8574 0.8571 0.8568 0.8565 0.8562
1891.000000 0.8559 0.8556 0.8553 0.8550 0.8548
1886.000000 0.8546 0.8545 0.8543 0.8541 0.8540
1881.000000 0.8538 0.8536 0.8535 0.8532 0.8528
1876.000000 0.8525 0.8521 0.8518 0.8514 0.8510
1871.000000 0.8507 0.8503 0.8500 0.8497 0.8494
1866.000000 0.8490 0.8487 0.8484 0.8482 0.8481
1861.000000 0.8478 0.8477 0.8475 0.8474 0.8471
1856.000000 0.8471 0.8468 0.8464 0.8456 0.8448
1851.000000 0.8441 0.8433 0.8425 0.8417 0.8409
1846.000000 0.8401 0.8393 0.8385 0.8375 0.8367
1841.000000 0.8358 0.8350 0.8341 0.8331 0.8317
1836.000000 0.8304 0.8291 0.8278 0.8266 0.8254
1831.000000 0.8242 0.8230 0.8218 0.8206 0.8196
1826.000000 0.8184 0.8172 0.8161 0.8149 0.8138
1821.000000 0.8125 0.8114 0.8101 0.8089 0.8075
1816.000000 0.8062 0.8051 0.8038 0.8021 0.8004
1811.000000 0.7987 0.7968 0.7951 0.7934 0.7915
1806.000000 0.7898 0.7881 0.7862 0.7845 0.7825
1801.000000 0.7805 0.7786 0.7765 0.7746 0.7725
1796.000000 0.7706 0.7686 0.7668 0.7653 0.7638
1791.000000 0.7621 0.7606 0.7590 0.7575 0.7551
1786.000000 0.7519 0.7489 0.7458 0.7425 0.7395
1781.000000 0.7349 0.7303 0.7257 0.7194 0.7117
1776.000000 0.7040 0.6839 0.6682 0.6575 0.6468
1771.000000 0.6269 0.5912 0.5518 0.5060 0.4808
1766.000000 0.4691 0.4559 0.4192 0.4000 0.3808
1761.000000 0.3573 0.3314 0.2429 0.1584 0.1182
1756.000000 0.0856 0.0700 0.0563 0.0389 0.0289
1751.000000 0.0204 0.0155 0.0128 0.0107 0.0096
1746.000000 0.0086 0.0075 0.0069 0.0066 0.0064
1741.000000 0.0061 0.0059 0.0058 0.0058 0.0058
1736.000000 0.0068 0.0083 0.0110 0.0175 0.0256
1731.000000 0.0419 0.0763 0.1200 0.1360 0.1494
1726.000000 0.1628 0.1820 0.2053 0.2269 0.2453
1721.000000 0.2627 0.2839 0.3137 0.3293 0.3418
1716.000000 0.3593 0.3766 0.3941 0.4100 0.4141
1711.000000 0.4141 0.4140 0.4137 0.3771 0.3784
1706.000000 0.3780 0.3809 0.4171 0.4532 0.4893
1701.000000 0.5254 0.5692 0.6030 0.6173 0.6286
1696.000000 0.6394 0.6495 0.6576 0.6658 0.6806
1691.000000 0.6934 0.7030 0.7126 0.7211 0.7261
1686.000000 0.7312 0.7364 0.7393 0.7421 0.7451
1681.000000 0.7480 0.7510 0.7539 0.7567 0.7587
1676.000000 0.7608 0.7628 0.7648 0.7668 0.7689
1671.000000 0.7708 0.7725 0.7743 0.7761 0.7778
1666.000000 0.7796 0.7808 0.7821 0.7833 0.7845
1661.000000 0.7857 0.7868 0.7881 0.7891 0.7901
1656.000000 0.7911 0.7921 0.7928 0.7928 0.7928
1651.000000 0.7928 0.7925 0.7911 0.7899 0.7887
1646.000000 0.7875 0.7865 0.7855 0.7848 0.7841
1641.000000 0.7835 0.7836 0.7836 0.7847 0.7865
1636.000000 0.7882 0.7900 0.7918 0.7936 0.7954
1631.000000 0.7972 0.7992 0.8011 0.8030 0.8050
1626.000000 0.8068 0.8088 0.8107 0.8125 0.8141
1621.000000 0.8155 0.8169 0.8184 0.8199 0.8214
1616.000000 0.8228 0.8243 0.8257 0.8268 0.8280
1611.000000 0.8291 0.8302 0.8312 0.8323 0.8334
1606.000000 0.8337 0.8340 0.8343 0.8346 0.8349
1601.000000 0.8352 0.8355 0.8358 0.8361 0.8364
1596.000000 0.8367 0.8370 0.8371 0.8371 0.8371
1591.000000 0.8373 0.8373 0.8374 0.8374 0.8375
1586.000000 0.8375 0.8375 0.8375 0.8375 0.8374
1581.000000 0.8373 0.8371 0.8371 0.8370 0.8368
1576.000000 0.8368 0.8367 0.8366 0.8364 0.8363
1571.000000 0.8362 0.8359 0.8357 0.8354 0.8352
1566.000000 0.8349 0.8346 0.8344 0.8341 0.8339
1561.000000 0.8336 0.8333 0.8331 0.8328 0.8321
1556.000000 0.8316 0.8310 0.8304 0.8298 0.8292
1551.000000 0.8286 0.8280 0.8274 0.8268 0.8262
1546.000000 0.8255 0.8248 0.8240 0.8233 0.8225
1541.000000 0.8218 0.8212 0.8207 0.8202 0.8198
1536.000000 0.8193 0.8188 0.8183 0.8178 0.8172
1531.000000 0.8168 0.8162 0.8161 0.8161 0.8161
1526.000000 0.8160 0.8158 0.8158 0.8158 0.8158
1521.000000 0.8157 0.8157 0.8158 0.8158 0.8158
1516.000000 0.8156 0.8151 0.8146 0.8128 0.8107
1511.000000 0.8094 0.8083 0.8071 0.8061 0.8054
1506.000000 0.8047 0.8041 0.8035 0.8028 0.8014
1501.000000 0.8001 0.7987 0.7974 0.7961 0.7955
1496.000000 0.7949 0.7942 0.7936 0.7928 0.7922
1491.000000 0.7915 0.7908 0.7901 0.7894 0.7885
1486.000000 0.7875 0.7868 0.7858 0.7851 0.7838
1481.000000 0.7825 0.7814 0.7801 0.7789 0.7740
1476.000000 0.7672 0.7592 0.7501 0.7406 0.7246
1471.000000 0.7081 0.6968 0.6862 0.6850 0.6843
1466.000000 0.6838 0.6832 0.6825 0.6811 0.6776
1461.000000 0.6691 0.6562 0.6393 0.6206 0.6044
1456.000000 0.5933 0.5854 0.5830 0.5820 0.5820
1451.000000 0.5820 0.5822 0.5824 0.5826 0.5819
1446.000000 0.5805 0.5770 0.5712 0.5644 0.5550
1441.000000 0.5367 0.5318 0.5296 0.5273 0.5255
1436.000000 0.5255 0.5254 0.5265 0.5285 0.5305
1431.000000 0.5325 0.5358 0.5394 0.5430 0.5465
1426.000000 0.5508 0.5567 0.5627 0.5702 0.5791
1421.000000 0.5872 0.5931 0.5989 0.6025 0.6060
1416.000000 0.6095 0.6121 0.6145 0.6169 0.6193
1411.000000 0.6208 0.6223 0.6234 0.6236 0.6238
1406.000000 0.6272 0.6233 0.6226 0.6212 0.6190
1401.000000 0.6167 0.6145 0.6115 0.6085 0.6055
1396.000000 0.6024 0.5993 0.5954 0.5915 0.5877
1391.000000 0.5823 0.5754 0.5685 0.5495 0.5295
1386.000000 0.5107 0.4657 0.4059 0.3894 0.3700
1381.000000 0.3500 0.3274 0.3046 0.2819 0.2591
1376.000000 0.2364 0.2135 0.1909 0.1682 0.1454
1371.000000 0.1246 0.1212 0.1185 0.1192 0.1200
1366.000000 0.1289 0.1395 0.1823 0.1967 0.2374
1361.000000 0.2819 0.3264 0.3709 0.4156 0.4602
1356.000000 0.5047 0.5416 0.5648 0.5866 0.5992
1351.000000 0.6118 0.6237 0.6352 0.6467 0.6595
1346.000000 0.6722 0.6819 0.6893 0.6968 0.7069
1341.000000 0.7160 0.7226 0.7276 0.7317 0.7343
1336.000000 0.7368 0.7389 0.7404 0.7418 0.7425
1331.000000 0.7433 0.7441 0.7448 0.7454 0.7458
1326.000000 0.7465 0.7469 0.7471 0.7475 0.7490
1321.000000 0.7478 0.7478 0.7476 0.7475 0.7468
1316.000000 0.7451 0.7432 0.7401 0.7362 0.7324
1311.000000 0.7284 0.7243 0.7201 0.7162 0.7141
1306.000000 0.7118 0.7097 0.7075 0.7053 0.7028
1301.000000 0.7000 0.6972 0.6945 0.6918 0.6882
1296.000000 0.6835 0.6788 0.6717 0.6578 0.6412
1291.000000 0.6188 0.5885 0.5587 0.5433 0.5317
1286.000000 0.5230 0.5142 0.5055 0.4989 0.4928
1281.000000 0.4867 0.4806 0.4743 0.4677 0.4612
1276.000000 0.4546 0.4465 0.4364 0.4262 0.4160
1271.000000 0.4071 0.3991 0.3912 0.3832 0.3753
1266.000000 0.3679 0.3605 0.3530 0.3450 0.3348
1261.000000 0.3246 0.3143 0.3059 0.2982 0.2905
1256.000000 0.2817 0.2715 0.2612 0.2478 0.2339
1251.000000 0.2190 0.2004 0.1857 0.1749 0.1642
1246.000000 0.1536 0.1436 0.1335 0.1239 0.1154
1241.000000 0.1069 0.1015 0.0962 0.0910 0.0858
1236.000000 0.0813 0.0775 0.0736 0.0698 0.0659
1231.000000 0.0608 0.0549 0.0499 0.0459 0.0411
1226.000000 0.0355 0.0299 0.0243 0.0187 0.0153
1221.000000 0.0132 0.0116 0.0102 0.0097 0.0092
1216.000000 0.0088 0.0083 0.0078 0.0073 0.0070
1211.000000 0.0067 0.0064 0.0063 0.0062 0.0066
1206.000000 0.0071 0.0082 0.0105 0.0189 0.0417
1201.000000 0.0798 0.1028 0.1262 0.1545 0.3278
1196.000000 0.3456 0.3634 0.3812 0.3991 0.4170
1191.000000 0.4348 0.4518 0.4660 0.4968 0.5378
1186.000000 0.5538 0.5679 0.5799 0.5896 0.5992
1181.000000 0.6089 0.6184 0.6280 0.6377 0.6478
1176.000000 0.6578 0.6668 0.6758 0.6831 0.6892
1171.000000 0.6953 0.7014 0.7068 0.7117 0.7165
1166.000000 0.7215 0.7251 0.7282 0.7314 0.7345
1161.000000 0.7375 0.7407 0.7439 0.7468 0.7488
1156.000000 0.7501 0.7511 0.7515 0.7518 0.7518
1151.000000 0.7519 0.7521 0.7517 0.7510 0.7496
1146.000000 0.7480 0.7465 0.7451 0.7437 0.7425
1141.000000 0.7415 0.7407 0.7398 0.7392 0.7408
1136.000000 0.7397 0.7400 0.7404 0.7411 0.7418
1131.000000 0.7425 0.7428 0.7430 0.7432 0.7434
1126.000000 0.7436 0.7438 0.7441 0.7442 0.7442
1121.000000 0.7442 0.7439 0.7436 0.7433 0.7412
1116.000000 0.7392 0.7371 0.7334 0.7291 0.7247
1111.000000 0.7193 0.7112 0.7032 0.6948 0.6865
1106.000000 0.6738 0.6605 0.6492 0.6286 0.5767
1101.000000 0.5346 0.4925 0.4529 0.4492 0.4506
1096.000000 0.4496 0.4524 0.4552 0.4620 0.4693
1091.000000 0.4826 0.4969 0.5121 0.5423 0.5587
1086.000000 0.5664 0.5733 0.5790 0.5822 0.5844
1081.000000 0.5859 0.5855 0.5846 0.5827 0.5745
1076.000000 0.5634 0.5517 0.5365 0.5212 0.5075
1071.000000 0.4940 0.4805 0.4551 0.4205 0.3888
1066.000000 0.3750 0.3626 0.3507 0.3403 0.3300
1061.000000 0.3197 0.3094 0.3017 0.2958 0.2899
1056.000000 0.2841 0.2783 0.2713 0.2621 0.2458
1051.000000 0.2282 0.2106 0.1929 0.1754 0.1578
1046.000000 0.1506 0.1480 0.1488 0.1487 0.1491
1041.000000 0.1517 0.1552 0.1629 0.1734 0.1874
1036.000000 0.2173 0.2531 0.2889 0.3247 0.3605
1031.000000 0.3794 0.3904 0.4014 0.4203 0.4389
1026.000000 0.4537 0.4646 0.4730 0.4816 0.4908
1021.000000 0.4978 0.4994 0.4991 0.5006 0.5002
1016.000000 0.4965 0.4862 0.4679 0.4549 0.4447
1011.000000 0.4372 0.4300 0.4253 0.4243 0.4244
1006.000000 0.4245 0.4296 0.4448 0.4604 0.4721
1001.000000 0.4874 0.5181 0.5435 0.5690 0.5944
996.000000 0.6119 0.6223 0.6331 0.6444 0.6560
991.000000 0.6685 0.6808 0.6887 0.6965 0.7028
986.000000 0.7076 0.7122 0.7141 0.7160 0.7178
981.000000 0.7196 0.7208 0.7218 0.7241 0.7240
976.000000 0.7240 0.7243 0.7245 0.7248 0.7248
971.000000 0.7233 0.7217 0.7199 0.7161 0.7122
966.000000 0.7085 0.7001 0.6895 0.6711 0.6524
961.000000 0.6386 0.6289 0.6199 0.6121 0.6043
956.000000 0.5956 0.5866 0.5818 0.5792 0.5779
951.000000 0.5771 0.5772 0.5869 0.5995 0.6110
946.000000 0.6225 0.6319 0.6405 0.6491 0.6628
941.000000 0.6765 0.6840 0.6915 0.6992 0.7056
936.000000 0.7104 0.7153 0.7201 0.7251 0.7299
931.000000 0.7346 0.7390 0.7435 0.7480 0.7524
926.000000 0.7561 0.7598 0.7634 0.7671 0.7701
921.000000 0.7731 0.7761 0.7790 0.7818 0.7848
916.000000 0.7871 0.7896 0.7912 0.7922 0.7932
911.000000 0.7941 0.7948 0.7947 0.7947 0.7947
906.000000 0.7930 0.7906 0.7880 0.7851 0.7822
901.000000 0.7794 0.7765 0.7737 0.7710 0.7685
896.000000 0.7658 0.7633 0.7607 0.7592 0.7576
891.000000 0.7561 0.7547 0.7533 0.7522 0.7512
886.000000 0.7501 0.7492 0.7482 0.7475 0.7471
881.000000 0.7461 0.7461 0.7464 0.7465 0.7468
876.000000 0.7481 0.7500 0.7518 0.7537 0.7557
871.000000 0.7578 0.7598 0.7617 0.7632 0.7647
866.000000 0.7665 0.7631 0.7622 0.7615 0.7607
861.000000 0.7599 0.7594 0.7590 0.7585 0.7580
856.000000 0.7575 0.7569 0.7565 0.7564 0.7561
851.000000 0.7558 0.7556 0.7554 0.7553 0.7553
846.000000 0.7555 0.7558 0.7560 0.7562 0.7565
841.000000 0.7568 0.7569 0.7571 0.7575 0.7556
836.000000 0.7583 0.7588 0.7592 0.7596 0.7603
831.000000 0.7611 0.7619 0.7641 0.7664 0.7688
826.000000 0.7712 0.7749 0.7785 0.7819 0.7845
821.000000 0.7869 0.7881 0.7889 0.7896 0.7904
816.000000 0.7911 0.7925 0.7939 0.7956 0.7984
811.000000 0.8011 0.8047 0.8097 0.8147 0.8197
806.000000 0.8247 0.8298 0.8350 0.8402 0.8451
801.000000 0.8490 0.8528 0.8567 0.8602 0.8635
796.000000 0.8654 0.8664 0.8674 0.8684 0.8694
791.000000 0.8704 0.8709 0.8713 0.8716 0.8720
786.000000 0.8725 0.8732 0.8737 0.8743 0.8748
781.000000 0.8754 0.8760 0.8765 0.8771 0.8774
776.000000 0.8777 0.8780 0.8782 0.8785 0.8788
771.000000 0.8791 0.8793 0.8796 0.8799 0.8802
766.000000 0.8804 0.8807 0.8810 0.8813 0.8815
761.000000 0.8818 0.8821 0.8821 0.8823 0.8823
756.000000 0.8824 0.8824 0.8825 0.8825 0.8825
751.000000 0.8825 0.8827 0.8827 0.8828 0.8828
746.000000 0.8828 0.8828 0.8828 0.8828 0.8828
741.000000 0.8828 0.8828 0.8828 0.8828 0.8828
736.000000 0.8828 0.8827 0.8827 0.8827 0.8825
731.000000 0.8823 0.8821 0.8820 0.8818 0.8816
726.000000 0.8815 0.8813 0.8811 0.8809 0.8808
721.000000 0.8806 0.8804 0.8802 0.8800 0.8798
716.000000 0.8796 0.8794 0.8792 0.8790 0.8788
711.000000 0.8786 0.8784 0.8781 0.8773 0.8765
706.000000 0.8757 0.8749 0.8741 0.8733 0.8725
701.000000 0.8717 0.8698 0.8680 0.8662 0.8644
696.000000 0.8625 0.8602 0.8573 0.8545 0.8516
691.000000 0.8487 0.8471 0.8455 0.8439 0.8423
686.000000 0.8406 0.8394 0.8387 0.8378 0.8371
681.000000 0.8365 0.8357 0.8350 0.8346 0.8346
676.000000 0.8345 0.8344 0.8343 0.8343 0.8342
671.000000 0.8337 0.8331 0.8325 0.8320 0.8315
666.000000 0.8310 0.8294 0.8275 0.8258 0.8239
661.000000 0.8221 0.8201 0.8172 0.8145 0.8117
656.000000 0.8090 0.8061 0.8034 0.8007 0.7986
651.000000 0.7965 0.7944 0.7924 0.7903 0.7882
646.000000 0.7861 0.7842 0.7821 0.7803 0.7784
641.000000 0.7764 0.7745 0.7725 0.7705 0.7685
636.000000 0.7665 0.7646 0.7625 0.7608 0.7590
631.000000 0.7572 0.7556 0.7539 0.7522 0.7506
626.000000 0.7489 0.7472 0.7457 0.7443 0.7430
621.000000 0.7430 0.7430 0.7438 0.7448 0.7458
616.000000 0.7468 0.7480 0.7476 0.7472 0.7468
611.000000 0.7462 0.7446 0.7424 0.7403 0.7381
606.000000 0.7360 0.7338 0.7184 0.6951 0.6596
601.000000 0.6239 0.5883 0.5698 0.5716 0.5721
596.000000 0.5824 0.6138 0.6284 0.6475 0.6660
591.000000 0.6784 0.6888 0.6958 0.7028 0.7098
586.000000 0.7168 0.7233 0.7289 0.7344 0.7400
581.000000 0.7456 0.7498 0.7535 0.7572 0.7610
576.000000 0.7648 0.7685 0.7719 0.7748 0.7775
571.000000 0.7804 0.7832 0.7861 0.7889 0.7908
566.000000 0.7930 0.7950 0.7969 0.7990 0.8010
561.000000 0.8025 0.8038 0.8051 0.8064 0.8076
556.000000 0.8090 0.8098 0.8101 0.8103 0.8107
551.000000 0.8108 0.8110 0.8110 0.8111 0.8105
546.000000 0.8099 0.8093 0.8087 0.8081 0.8074
541.000000 0.8065 0.8057 0.8048 0.8040 0.8031
536.000000 0.8022 0.8014 0.8006 0.7997 0.7990
531.000000 0.7983 0.7975 0.7968 0.7961 0.7955
526.000000 0.7949 0.7946 0.7946 0.7946 0.7947
521.000000 0.7947 0.7947 0.7947 0.7948 0.7948
516.000000 0.7948 0.7949 0.7949 0.7949 0.7949
511.000000 0.7949 0.7948 0.7947 0.7947 0.7946
506.000000 0.7945 0.7944 0.7944 0.7943 0.7942
501.000000 0.7941 0.7941 0.7940 0.7938 0.7936
496.000000 0.7933 0.7930 0.7928 0.7925 0.7922
491.000000 0.7918 0.7904 0.7890 0.7876 0.7862
486.000000 0.7849 0.7835 0.7821 0.7799 0.7776
481.000000 0.7755 0.7733 0.7710 0.7684 0.7658
476.000000 0.7633 0.7617 0.7608 0.7601 0.7592
471.000000 0.7586 0.7587 0.7587 0.7588 0.7588
466.000000 0.7585 0.7578 0.7572 0.7553 0.7524
461.000000 0.7496 0.7467 0.7438 0.7408 0.7376
456.000000 0.7347 0.7315 0.7295 0.7278 0.7262
451.000000 0.7248 0.7237 0.7237 0.7237 0.7237
446.000000 0.7237 0.7239 0.7241 0.7242 0.7244
441.000000 0.7246 0.7248 0.7250 0.7251 0.7253
436.000000 0.7254 0.7256 0.7257 0.7258 0.7251
431.000000 0.7246 0.7239 0.7233 0.7211 0.7221
426.000000 0.7217 0.7211 0.7208 0.7203 0.7199
421.000000 0.7194 0.7190 0.7188 0.7188 0.7188
416.000000 0.7187 0.7187 0.7187 0.7187 0.7186
411.000000 0.7186 0.7186 0.7186 0.7186 0.7185
406.000000 0.7185 0.7185 0.7187 0.7188 0.7190
401.000000 0.7191 0.7193 0.7194 0.7196 0.7197
396.000000 0.7198 0.7200 0.7201 0.7203 0.7203
391.000000 0.7203 0.7203
##END=
