##TITLE=N,N'-BIS(1-METHYLHEPTYL)-p-PHENYLENEDIAMINE
##JCAMP-DX=4.24
##DATA TYPE=INFRARED SPECTRUM
##CLASS=COBLENTZ III
##ORIGIN=DOW CHEMICAL COMPANY
##OWNER=COBLENTZ SOCIETY
Collection (C) 2018 copyright by the U.S. Secretary of Commerce
on behalf of the United States of America. All rights reserved.
##DATE=1965/02/16
##NAMES=N<1>,N<4>-bis(1-methylheptyl)-1,4-benzenediamine
##CAS REGISTRY NO=103-96-8
##MOLFORM=C22 H40 N2
##SOURCE REFERENCE=COBLENTZ NO. 8096
##$NIST SOURCE=COBLENTZ
##$NIST IMAGE=cob8096
##SPECTROMETER/DATA SYSTEM=DOW KBr FOREPRISM-GRATING
##INSTRUMENT PARAMETERS=BLAZED AT 3.5, 12.0, 20.0 MICRON AND CHANGED AT 5.0, 7.5, 14.9 MICRON
##STATE=SOLUTION (10% CCl4 FOR 3800-1330, 10% CS2 FOR 1330-450 CM^-^1)
##PATH LENGTH=0.011 CM, 0.011 CM
$$SPECTRAL CONTAMINATION DUE TO CS2 AROUND 850, AND CCl4 AROUND 1550 CM^-^1
##SAMPLING PROCEDURE=TRANSMISSION
##RESOLUTION=2
##DATA PROCESSING=DIGITIZED BY NIST FROM HARD COPY (FROM TWO SEGMENTS)
##XUNITS=1/CM
##YUNITS=TRANSMITTANCE
##XFACTOR=1.000000
##YFACTOR=1
##DELTAX=0.877195
##FIRSTX=457.018
##LASTX=3798.25
##FIRSTY=0.777
##MAXX=3798.25
##MINX=457.018
##MAXY=1.024
##MINY=0
##NPOINTS=3810
##XYDATA=(X++(Y..Y))
457.018000 0.7770 0.7770 0.7770 0.7770 0.7780
461.403976 0.7780 0.7780 0.7780 0.7780 0.7780
465.789951 0.7780 0.7780 0.7780 0.7780 0.7780
470.175927 0.7780 0.7780 0.7780 0.7780 0.7780
474.561903 0.7770 0.7770 0.7770 0.7770 0.7750
478.947878 0.7750 0.7750 0.7740 0.7740 0.7710
483.333854 0.7710 0.7700 0.7700 0.7680 0.7680
487.719829 0.7670 0.7670 0.7660 0.7660 0.7630
492.105805 0.7610 0.7600 0.7590 0.7570 0.7560
496.491781 0.7550 0.7530 0.7520 0.7510 0.7490
500.877756 0.7480 0.7460 0.7440 0.7410 0.7370
505.263732 0.7340 0.7300 0.7270 0.7250 0.7220
509.649708 0.7180 0.7160 0.7140 0.7110 0.7080
514.035683 0.7080 0.7070 0.7070 0.7080 0.7080
518.421659 0.7090 0.7110 0.7140 0.7200 0.7230
522.807634 0.7290 0.7340 0.7400 0.7440 0.7490
527.193610 0.7550 0.7590 0.7630 0.7670 0.7750
531.579586 0.7770 0.7820 0.7850 0.7870 0.7890
535.965561 0.7920 0.7940 0.7960 0.7980 0.8000
540.351537 0.8030 0.8040 0.8050 0.8070 0.8090
544.737513 0.8110 0.8120 0.8130 0.8150 0.8160
549.123488 0.8160 0.8180 0.8190 0.8200 0.8200
553.509464 0.8220 0.8230 0.8240 0.8240 0.8260
557.895440 0.8260 0.8270 0.8270 0.8290 0.8290
562.281415 0.8290 0.8300 0.8300 0.8310 0.8310
566.667391 0.8310 0.8330 0.8330 0.8330 0.8340
571.053366 0.8340 0.8340 0.8340 0.8340 0.8350
575.439342 0.8350 0.8350 0.8370 0.8370 0.8380
579.825318 0.8380 0.8390 0.8390 0.8420 0.8420
584.211293 0.8450 0.8450 0.8450 0.8450 0.8450
588.597269 0.8440 0.8440 0.8440 0.8450 0.8460
592.983245 0.8460 0.8480 0.8480 0.8490 0.8500
597.369220 0.8500 0.8500 0.8520 0.8520 0.8520
601.755196 0.8530 0.8530 0.8540 0.8540 0.8560
606.141172 0.8560 0.8540 0.8560 0.8560 0.8560
610.527147 0.8560 0.8560 0.8560 0.8540 0.8540
614.913123 0.8530 0.8530 0.8530 0.8520 0.8500
619.299098 0.8500 0.8500 0.8500 0.8500 0.8500
623.685074 0.8500 0.8500 0.8500 0.8500 0.8490
628.071050 0.8490 0.8490 0.8490 0.8480 0.8480
632.457025 0.8460 0.8460 0.8450 0.8420 0.8380
636.843001 0.8350 0.8350 0.8340 0.8330 0.8310
641.228977 0.8300 0.8270 0.8270 0.8260 0.8240
645.614952 0.8240 0.8230 0.8200 0.8200 0.8190
650.000928 0.8180 0.8150 0.8090 0.8030 0.7980
654.386903 0.7980 0.8040 0.8090 0.8160 0.8309
658.772879 0.8440 0.8520 0.8600 0.8650 0.8700
663.158855 0.8740 0.8780 0.8820 0.8870 0.8900
667.544830 0.8930 0.8940 0.8980 0.9000 0.9040
671.930806 0.9080 0.9130 0.9170 0.9230 0.9270
676.316782 0.9310 0.9340 0.9350 0.9370 0.9380
680.702757 0.9390 0.9420 0.9450 0.9480 0.9490
685.088733 0.9490 0.9500 0.9500 0.9520 0.9530
689.474709 0.9530 0.9530 0.9530 0.9530 0.9530
693.860684 0.9540 0.9540 0.9540 0.9540 0.9540
698.246660 0.9540 0.9540 0.9540 0.9540 0.9540
702.632635 0.9540 0.9540 0.9530 0.9520 0.9490
707.018611 0.9450 0.9420 0.9390 0.9370 0.9340
711.404587 0.9300 0.9260 0.9200 0.9130 0.9110
715.790562 0.9060 0.9010 0.8930 0.8801 0.8700
720.176538 0.8530 0.8290 0.8010 0.7770 0.7750
724.562514 0.7740 0.7750 0.7860 0.7970 0.8149
728.948489 0.8330 0.8520 0.8720 0.8900 0.9060
733.334465 0.9200 0.9300 0.9320 0.9350 0.9380
737.720440 0.9410 0.9420 0.9420 0.9460 0.9460
742.106416 0.9460 0.9480 0.9480 0.9490 0.9490
746.492392 0.9490 0.9500 0.9500 0.9520 0.9520
750.878367 0.9520 0.9530 0.9530 0.9540 0.9540
755.264343 0.9540 0.9560 0.9560 0.9570 0.9600
759.650319 0.9640 0.9670 0.9690 0.9720 0.9750
764.036294 0.9760 0.9780 0.9790 0.9800 0.9820
768.422270 0.9830 0.9830 0.9840 0.9840 0.9830
772.808246 0.9780 0.9760 0.9750 0.9710 0.9670
777.194221 0.9630 0.9570 0.9540 0.9490 0.9420
781.580197 0.9340 0.9270 0.9190 0.9120 0.9050
785.966172 0.8970 0.8930 0.8900 0.8820 0.8790
790.352148 0.8750 0.8700 0.8540 0.8520 0.8490
794.738124 0.8350 0.8230 0.7981 0.7870 0.7790
799.124099 0.7699 0.7290 0.6830 0.6380 0.6230
803.510075 0.6040 0.5112 0.4173 0.3851 0.3541
807.896051 0.3390 0.3220 0.2910 0.2590 0.2290
812.282026 0.2290 0.2539 0.2759 0.2979 0.3329
816.668002 0.3700 0.4060 0.4280 0.4470 0.4700
821.053978 0.5668 0.5710 0.5770 0.6627 0.6779
825.439953 0.7050 0.7350 0.8030 0.8300 0.8460
829.825929 0.8560 0.8779 0.8930 0.9040 0.9120
834.211904 0.9130 0.9150 0.9170 0.9170 0.9190
838.597880 0.9170 0.9170 0.9160 0.9150 0.9110
842.983856 0.9020 0.8940 0.8900 0.8820 0.8750
847.369831 0.8710 0.8560 0.8480 0.8340 0.8260
851.755807 0.8220 0.8180 0.8150 0.8130 0.8130
856.141783 0.8130 0.8130 0.8150 0.8160 0.8180
860.527758 0.8200 0.8220 0.8270 0.8310 0.8330
864.913734 0.8330 0.8340 0.8350 0.8350 0.8350
869.299709 0.8340 0.8350 0.8350 0.8370 0.8410
873.685685 0.8480 0.8500 0.8520 0.8540 0.8600
878.071661 0.8630 0.8670 0.8720 0.8740 0.8760
882.457636 0.8900 0.8970 0.9010 0.9110 0.9160
886.843612 0.9260 0.9340 0.9380 0.9420 0.9450
891.229588 0.9490 0.9560 0.9600 0.9680 0.9710
895.615563 0.9760 0.9780 0.9790 0.9820 0.9830
900.001539 0.9840 0.9860 0.9860 0.9860 0.9860
904.387515 0.9830 0.9820 0.9800 0.9800 0.9790
908.773490 0.9800 0.9820 0.9840 0.9890 0.9900
913.159466 0.9950 0.9970 0.9980 1.0000 1.0000
917.545441 1.0010 1.0010 1.0020 1.0020 1.0020
921.931417 1.0040 1.0040 1.0040 1.0050 1.0060
926.317393 1.0060 1.0060 1.0080 1.0090 1.0100
930.703368 1.0120 1.0160 1.0200 1.0230 1.0230
935.089344 1.0230 1.0240 1.0240 1.0240 1.0240
939.475320 1.0240 1.0230 1.0230 1.0230 1.0210
943.861295 1.0210 1.0190 1.0170 1.0160 1.0160
948.247271 1.0160 1.0160 1.0160 1.0160 1.0160
952.633246 1.0160 1.0160 1.0160 1.0170 1.0170
957.019222 1.0190 1.0190 1.0200 1.0200 1.0190
961.405198 1.0190 1.0160 1.0160 1.0150 1.0150
965.791173 1.0150 1.0150 1.0150 1.0150 1.0150
970.177149 1.0150 1.0130 1.0120 1.0120 1.0120
974.563125 1.0120 1.0100 1.0100 1.0120 1.0120
978.949100 1.0130 1.0130 1.0150 1.0160 1.0170
983.335076 1.0190 1.0200 1.0210 1.0210 1.0230
987.721052 1.0230 1.0230 1.0240 1.0230 1.0230
992.107027 1.0230 1.0230 1.0210 1.0210 1.0200
996.493003 1.0190 1.0170 1.0170 1.0160 1.0150
1000.878978 1.0120 1.0120 1.0100 1.0100 1.0120
1005.264954 1.0130 1.0150 1.0160 1.0160 1.0160
1009.650930 1.0160 1.0160 1.0150 1.0130 1.0100
1014.036905 1.0080 1.0050 1.0050 1.0040 1.0020
1018.422881 1.0010 1.0000 0.9980 0.9970 0.9950
1022.808857 0.9930 0.9900 0.9870 0.9830 0.9800
1027.194832 0.9780 0.9760 0.9710 0.9680 0.9650
1031.580808 0.9570 0.9490 0.9420 0.9370 0.9340
1035.966784 0.9320 0.9320 0.9320 0.9320 0.9310
1040.352759 0.9310 0.9300 0.9280 0.9280 0.9270
1044.738735 0.9270 0.9260 0.9240 0.9240 0.9230
1049.124710 0.9220 0.9220 0.9190 0.9190 0.9170
1053.510686 0.9160 0.9160 0.9150 0.9130 0.9110
1057.896662 0.9110 0.9060 0.9040 0.9010 0.8960
1062.282637 0.8910 0.8890 0.8820 0.8760 0.8720
1066.668613 0.8710 0.8570 0.8530 0.8500 0.8460
1071.054589 0.8440 0.8390 0.8350 0.8340 0.8310
1075.440564 0.8300 0.8270 0.8270 0.8260 0.8260
1079.826540 0.8240 0.8240 0.8240 0.8270 0.8290
1084.212515 0.8300 0.8330 0.8340 0.8370 0.8390
1088.598491 0.8410 0.8420 0.8450 0.8500 0.8560
1092.984467 0.8610 0.8720 0.8780 0.8800 0.8830
1097.370442 0.8830 0.8800 0.8750 0.8670 0.8560
1101.756418 0.8410 0.8240 0.8000 0.7780 0.7700
1106.142394 0.7600 0.7450 0.7350 0.7270 0.7230
1110.528369 0.7120 0.7080 0.6940 0.6820 0.6680
1114.914345 0.6600 0.6510 0.6470 0.6450 0.6440
1119.300321 0.6450 0.6480 0.6520 0.6590 0.6640
1123.686296 0.6740 0.6770 0.6790 0.6830 0.6880
1128.072272 0.6900 0.6900 0.6900 0.6880 0.6810
1132.458247 0.6740 0.6680 0.6630 0.6590 0.6450
1136.844223 0.6330 0.6290 0.6160 0.6060 0.5950
1141.230199 0.5860 0.5740 0.5620 0.5600 0.5510
1145.616174 0.5490 0.5470 0.5370 0.5250 0.5120
1150.002150 0.5060 0.4920 0.4780 0.4670 0.4590
1154.388126 0.4560 0.4540 0.4520 0.4510 0.4520
1158.774101 0.4550 0.4610 0.4780 0.4850 0.5070
1163.160077 0.5620 0.5770 0.6010 0.6190 0.6439
1167.546052 0.6631 0.6930 0.7200 0.7300 0.7400
1171.932028 0.7450 0.7480 0.7480 0.7460 0.7460
1176.318004 0.7490 0.7590 0.7810 0.7860 0.7890
1180.703979 0.7940 0.8030 0.8040 0.8040 0.8030
1185.089955 0.8000 0.7970 0.7960 0.7930 0.7890
1189.475931 0.7870 0.7870 0.7870 0.7890 0.7900
1193.861906 0.7930 0.7940 0.7970 0.8030 0.8070
1198.247882 0.8120 0.8180 0.8260 0.8340 0.8440
1202.633858 0.8500 0.8540 0.8570 0.8600 0.8610
1207.019833 0.8630 0.8610 0.8610 0.8590 0.8540
1211.405809 0.8500 0.8390 0.8290 0.8160 0.8090
1215.791784 0.7960 0.7810 0.7750 0.7680 0.7600
1220.177760 0.7509 0.7340 0.7180 0.7040 0.6900
1224.563736 0.6790 0.6740 0.6620 0.6370 0.6160
1228.949711 0.5949 0.5730 0.5550 0.5410 0.5280
1233.335687 0.4840 0.4020 0.3990 0.4000 0.4140
1237.721663 0.4240 0.4281 0.4560 0.4710 0.4820
1242.107638 0.5040 0.5060 0.5040 0.4910 0.4740
1246.493614 0.4559 0.4319 0.4030 0.3770 0.3410
1250.879590 0.3320 0.3210 0.2990 0.2910 0.2830
1255.265565 0.2800 0.2790 0.2790 0.2800 0.2840
1259.651541 0.2910 0.3030 0.3549 0.3730 0.3979
1264.037516 0.4171 0.4411 0.4660 0.4780 0.4960
1268.423492 0.5040 0.5180 0.5280 0.5520 0.5670
1272.809468 0.5810 0.5860 0.5890 0.5900 0.5960
1277.195443 0.6030 0.6040 0.6060 0.6080 0.6080
1281.581419 0.6040 0.5990 0.5880 0.5770 0.5630
1285.967395 0.5490 0.5410 0.5330 0.5140 0.4970
1290.353370 0.4800 0.4650 0.4510 0.4450 0.4370
1294.739346 0.4350 0.4330 0.4330 0.4350 0.4360
1299.125321 0.4390 0.4450 0.4500 0.4540 0.4590
1303.511297 0.4630 0.4670 0.4690 0.4670 0.4620
1307.897273 0.4560 0.4520 0.4480 0.4390 0.4260
1312.283248 0.4140 0.4100 0.4090 0.4100 0.4190
1316.669224 0.4250 0.4320 0.4400 0.4410 0.4660
1321.055200 0.4890 0.5969 0.5990 0.6040 0.6080
1325.441175 0.6160 0.6180 0.6180 0.6160 0.6160
1329.827151 0.6150 0.6140 0.6110 0.6100 0.6080
1334.213127 0.6040 0.6010 0.5960 0.5890 0.5860
1338.599102 0.5780 0.5770 0.5750 0.5770 0.5780
1342.985078 0.5840 0.5880 0.5900 0.6000 0.6030
1347.371053 0.6070 0.6140 0.6150 0.6160 0.6180
1351.757029 0.6190 0.6210 0.6220 0.6220 0.6220
1356.143005 0.6230 0.6220 0.6220 0.6190 0.6190
1360.528980 0.6150 0.6100 0.6010 0.5900 0.5820
1364.914956 0.5730 0.5580 0.5510 0.5430 0.5280
1369.300932 0.5119 0.4960 0.4780 0.4590 0.4370
1373.686907 0.4130 0.3990 0.3740 0.3460 0.3330
1378.072883 0.3260 0.3180 0.3031 0.3350 0.3650
1382.458858 0.4070 0.4510 0.5619 0.6159 0.6619
1386.844834 0.6891 0.7080 0.7220 0.7250 0.7270
1391.230810 0.7290 0.7270 0.7250 0.7230 0.7150
1395.616785 0.7080 0.6970 0.6890 0.6680 0.6550
1400.002761 0.6410 0.6330 0.6260 0.6250 0.6270
1404.388737 0.6330 0.6470 0.6620 0.6770 0.6920
1408.774712 0.6920 0.7030 0.7120 0.7140 0.7270
1413.160688 0.7340 0.7440 0.7510 0.7570 0.7600
1417.546664 0.7610 0.7610 0.7610 0.7610 0.7600
1421.932639 0.7550 0.7490 0.7480 0.7420 0.7330
1426.318615 0.7250 0.7150 0.7050 0.6900 0.6770
1430.704590 0.6509 0.6229 0.5929 0.5580 0.5450
1435.090566 0.5330 0.5120 0.4960 0.4800 0.4670
1439.476542 0.4550 0.4430 0.4330 0.4240 0.4170
1443.862517 0.4090 0.4060 0.3990 0.3980 0.3910
1448.248493 0.3880 0.3840 0.3730 0.3580 0.3390
1452.634469 0.3290 0.3200 0.2990 0.2800 0.2590
1457.020444 0.2400 0.2330 0.2310 0.2310 0.2320
1461.406420 0.2350 0.2390 0.2390 0.2380 0.2330
1465.792396 0.2290 0.2250 0.2200 0.2180 0.2200
1470.178371 0.2431 0.3320 0.3720 0.4280 0.5139
1474.564347 0.5881 0.6180 0.6320 0.6420 0.6450
1478.950322 0.6470 0.6470 0.6480 0.6480 0.6440
1483.336298 0.6330 0.6290 0.6180 0.6070 0.6000
1487.722274 0.5850 0.5690 0.5580 0.5450 0.5210
1492.108249 0.4909 0.4549 0.4219 0.4019 0.3759
1496.494225 0.3250 0.3210 0.3160 0.3000 0.2800
1500.880201 0.2539 0.2279 0.1989 0.1689 0.1420
1505.266176 0.1140 0.1020 0.0900 0.0430 0.0320
1509.652152 0.0150 0.0060 0.0040 0.0020 0.0010
1514.038127 0.0000 0.0000 0.0000 0.0010 0.0020
1518.424103 0.0040 0.0050 0.0100 0.0130 0.0160
1522.810079 0.0280 0.0390 0.0560 0.0650 0.1029
1527.196054 0.1161 0.1391 0.1601 0.1830 0.2070
1531.582030 0.2360 0.2690 0.2920 0.3090 0.3310
1535.968006 0.3410 0.3520 0.3550 0.3620 0.3690
1540.353981 0.3700 0.3720 0.3720 0.3720 0.3720
1544.739957 0.3700 0.3700 0.3700 0.3700 0.3690
1549.125933 0.3690 0.3700 0.3700 0.3720 0.3740
1553.511908 0.3770 0.3780 0.3810 0.3880 0.3910
1557.897884 0.3990 0.4070 0.4130 0.4250 0.4360
1562.283859 0.4470 0.4540 0.4580 0.4690 0.4740
1566.669835 0.4910 0.4960 0.5030 0.5040 0.5100
1571.055811 0.5120 0.5150 0.5150 0.5140 0.5120
1575.441786 0.5110 0.5060 0.5030 0.5000 0.4910
1579.827762 0.4880 0.4840 0.4810 0.4800 0.4780
1584.213738 0.4800 0.4840 0.4910 0.5000 0.5030
1588.599713 0.5140 0.5250 0.5321 0.5620 0.5750
1592.985689 0.5860 0.5900 0.5920 0.5950 0.5970
1597.371664 0.5970 0.5950 0.5900 0.5850 0.5800
1601.757640 0.5770 0.5730 0.5690 0.5690 0.5700
1606.143616 0.5710 0.5780 0.5890 0.5970 0.6040
1610.529591 0.6150 0.6290 0.6400 0.6490 0.6590
1614.915567 0.6660 0.6770 0.6860 0.6990 0.7080
1619.301543 0.7110 0.7140 0.7250 0.7350 0.7460
1623.687518 0.7591 0.7780 0.7860 0.7960 0.8050
1628.073494 0.8150 0.8220 0.8290 0.8340 0.8390
1632.459470 0.8460 0.8530 0.8560 0.8600 0.8640
1636.845445 0.8650 0.8700 0.8700 0.8710 0.8720
1641.231421 0.8750 0.8760 0.8780 0.8780 0.8790
1645.617396 0.8790 0.8800 0.8800 0.8820 0.8820
1650.003372 0.8830 0.8850 0.8860 0.8870 0.8890
1654.389348 0.8900 0.8910 0.8930 0.8930 0.8940
1658.775323 0.8940 0.8940 0.8940 0.8940 0.8940
1663.161299 0.8940 0.8940 0.8940 0.8940 0.8930
1667.547275 0.8930 0.8930 0.8910 0.8910 0.8910
1671.933250 0.8910 0.8910 0.8910 0.8910 0.8910
1676.319226 0.8910 0.8910 0.8910 0.8910 0.8910
1680.705202 0.8930 0.8940 0.8940 0.8940 0.8940
1685.091177 0.8940 0.8940 0.8940 0.8940 0.8940
1689.477153 0.8940 0.8940 0.8930 0.8930 0.8930
1693.863128 0.8930 0.8930 0.8910 0.8910 0.8900
1698.249104 0.8890 0.8860 0.8830 0.8790 0.8740
1702.635080 0.8710 0.8700 0.8680 0.8650 0.8630
1707.021055 0.8570 0.8520 0.8490 0.8420 0.8350
1711.407031 0.8310 0.8240 0.8220 0.8180 0.8150
1715.793007 0.8130 0.8120 0.8120 0.8120 0.8130
1720.178982 0.8180 0.8260 0.8380 0.8520 0.8570
1724.564958 0.8710 0.8790 0.8910 0.8960 0.9020
1728.950933 0.9060 0.9120 0.9200 0.9220 0.9240
1733.336909 0.9260 0.9280 0.9300 0.9320 0.9340
1737.722885 0.9370 0.9380 0.9390 0.9410 0.9420
1742.108860 0.9430 0.9450 0.9460 0.9480 0.9490
1746.494836 0.9490 0.9500 0.9520 0.9520 0.9530
1750.880812 0.9530 0.9530 0.9530 0.9540 0.9540
1755.266787 0.9540 0.9540 0.9560 0.9560 0.9560
1759.652763 0.9560 0.9570 0.9570 0.9570 0.9570
1764.038739 0.9570 0.9580 0.9580 0.9580 0.9580
1768.424714 0.9600 0.9600 0.9610 0.9610 0.9630
1772.810690 0.9630 0.9630 0.9630 0.9630 0.9630
1777.196665 0.9630 0.9630 0.9630 0.9630 0.9630
1781.582641 0.9630 0.9630 0.9630 0.9630 0.9630
1785.968617 0.9630 0.9630 0.9630 0.9630 0.9630
1790.354592 0.9630 0.9630 0.9630 0.9610 0.9610
1794.740568 0.9610 0.9610 0.9600 0.9600 0.9600
1799.126544 0.9580 0.9580 0.9580 0.9570 0.9570
1803.512519 0.9570 0.9570 0.9560 0.9560 0.9560
1807.898495 0.9530 0.9530 0.9520 0.9500 0.9490
1812.284470 0.9480 0.9460 0.9450 0.9430 0.9410
1816.670446 0.9380 0.9370 0.9340 0.9320 0.9310
1821.056422 0.9260 0.9200 0.9170 0.9150 0.9130
1825.442397 0.9120 0.9120 0.9120 0.9120 0.9120
1829.828373 0.9130 0.9130 0.9150 0.9200 0.9220
1834.214349 0.9230 0.9240 0.9270 0.9310 0.9310
1838.600324 0.9310 0.9320 0.9340 0.9350 0.9370
1842.986300 0.9380 0.9380 0.9390 0.9390 0.9410
1847.372276 0.9410 0.9410 0.9420 0.9420 0.9430
1851.758251 0.9430 0.9450 0.9450 0.9450 0.9450
1856.144227 0.9450 0.9450 0.9460 0.9460 0.9460
1860.530202 0.9480 0.9490 0.9490 0.9490 0.9490
1864.916178 0.9500 0.9500 0.9500 0.9500 0.9520
1869.302154 0.9520 0.9520 0.9530 0.9530 0.9530
1873.688129 0.9530 0.9530 0.9530 0.9530 0.9530
1878.074105 0.9530 0.9540 0.9540 0.9540 0.9540
1882.460081 0.9540 0.9540 0.9540 0.9540 0.9540
1886.846056 0.9560 0.9560 0.9560 0.9560 0.9560
1891.232032 0.9560 0.9560 0.9560 0.9560 0.9570
1895.618008 0.9570 0.9570 0.9570 0.9570 0.9570
1900.003983 0.9570 0.9570 0.9570 0.9570 0.9570
1904.389959 0.9570 0.9570 0.9580 0.9580 0.9580
1908.775934 0.9580 0.9580 0.9580 0.9580 0.9580
1913.161910 0.9580 0.9600 0.9600 0.9600 0.9600
1917.547886 0.9600 0.9600 0.9600 0.9600 0.9600
1921.933861 0.9610 0.9610 0.9610 0.9610 0.9610
1926.319837 0.9610 0.9610 0.9610 0.9610 0.9630
1930.705813 0.9630 0.9630 0.9630 0.9630 0.9630
1935.091788 0.9630 0.9630 0.9640 0.9640 0.9650
1939.477764 0.9650 0.9650 0.9650 0.9650 0.9650
1943.863739 0.9650 0.9670 0.9670 0.9670 0.9670
1948.249715 0.9670 0.9670 0.9670 0.9670 0.9670
1952.635691 0.9680 0.9680 0.9680 0.9680 0.9680
1957.021666 0.9680 0.9680 0.9680 0.9680 0.9690
1961.407642 0.9690 0.9690 0.9690 0.9690 0.9690
1965.793618 0.9690 0.9690 0.9720 0.9720 0.9720
1970.179593 0.9720 0.9720 0.9720 0.9720 0.9720
1974.565569 0.9720 0.9720 0.9720 0.9720 0.9720
1978.951545 0.9740 0.9740 0.9740 0.9740 0.9740
1983.337520 0.9740 0.9740 0.9740 0.9740 0.9740
1987.723496 0.9740 0.9740 0.9740 0.9750 0.9750
1992.109471 0.9750 0.9750 0.9750 0.9750 0.9750
1996.495447 0.9750 0.9750 0.9750 0.9750 0.9750
2000.881423 0.9750 0.9750 0.9755 0.9760 0.9760
2005.267398 0.9760 0.9760 0.9760 0.9760 0.9760
2009.653374 0.9760 0.9760 0.9760 0.9760 0.9760
2014.039350 0.9760 0.9760 0.9760 0.9760 0.9760
2018.425325 0.9760 0.9760 0.9760 0.9760 0.9760
2022.811301 0.9760 0.9760 0.9761 0.9771 0.9780
2027.197276 0.9780 0.9780 0.9780 0.9780 0.9780
2031.583252 0.9780 0.9780 0.9780 0.9780 0.9780
2035.969228 0.9780 0.9780 0.9780 0.9780 0.9780
2040.355203 0.9780 0.9780 0.9780 0.9780 0.9780
2044.741179 0.9780 0.9780 0.9780 0.9781 0.9786
2049.127155 0.9790 0.9790 0.9790 0.9790 0.9790
2053.513130 0.9790 0.9790 0.9790 0.9790 0.9790
2057.899106 0.9790 0.9790 0.9790 0.9790 0.9790
2062.285082 0.9790 0.9790 0.9790 0.9790 0.9790
2066.671057 0.9790 0.9790 0.9790 0.9790 0.9790
2071.057033 0.9790 0.9790 0.9790 0.9790 0.9790
2075.443008 0.9790 0.9790 0.9790 0.9790 0.9790
2079.828984 0.9790 0.9790 0.9790 0.9790 0.9790
2084.214960 0.9790 0.9790 0.9790 0.9790 0.9790
2088.600935 0.9790 0.9790 0.9790 0.9790 0.9790
2092.986911 0.9790 0.9790 0.9790 0.9790 0.9790
2097.372887 0.9790 0.9790 0.9790 0.9790 0.9790
2101.758862 0.9790 0.9790 0.9790 0.9790 0.9790
2106.144838 0.9790 0.9790 0.9790 0.9790 0.9790
2110.530814 0.9790 0.9790 0.9790 0.9790 0.9790
2114.916789 0.9790 0.9790 0.9790 0.9790 0.9790
2119.302765 0.9790 0.9790 0.9790 0.9790 0.9790
2123.688740 0.9790 0.9790 0.9790 0.9790 0.9790
2128.074716 0.9790 0.9790 0.9790 0.9790 0.9790
2132.460692 0.9790 0.9790 0.9790 0.9790 0.9790
2136.846667 0.9790 0.9790 0.9790 0.9790 0.9790
2141.232643 0.9790 0.9790 0.9790 0.9790 0.9790
2145.618619 0.9792 0.9797 0.9800 0.9800 0.9800
2150.004594 0.9800 0.9800 0.9800 0.9800 0.9800
2154.390570 0.9800 0.9800 0.9800 0.9800 0.9800
2158.776545 0.9800 0.9800 0.9800 0.9800 0.9800
2163.162521 0.9800 0.9800 0.9800 0.9800 0.9805
2167.548497 0.9815 0.9820 0.9820 0.9820 0.9820
2171.934472 0.9820 0.9820 0.9820 0.9820 0.9820
2176.320448 0.9820 0.9820 0.9820 0.9820 0.9820
2180.706424 0.9820 0.9820 0.9820 0.9820 0.9820
2185.092399 0.9820 0.9820 0.9820 0.9820 0.9820
2189.478375 0.9820 0.9820 0.9820 0.9820 0.9820
2193.864351 0.9820 0.9820 0.9820 0.9820 0.9820
2198.250326 0.9820 0.9820 0.9820 0.9820 0.9820
2202.636302 0.9820 0.9820 0.9820 0.9820 0.9820
2207.022277 0.9820 0.9820 0.9820 0.9820 0.9820
2211.408253 0.9820 0.9820 0.9820 0.9814 0.9804
2215.794229 0.9800 0.9800 0.9800 0.9800 0.9800
2220.180204 0.9800 0.9800 0.9800 0.9800 0.9800
2224.566180 0.9800 0.9800 0.9797 0.9792 0.9790
2228.952156 0.9790 0.9790 0.9790 0.9790 0.9790
2233.338131 0.9790 0.9790 0.9790 0.9790 0.9790
2237.724107 0.9790 0.9790 0.9790 0.9787 0.9782
2242.110082 0.9780 0.9780 0.9780 0.9780 0.9773
2246.496058 0.9763 0.9760 0.9760 0.9760 0.9760
2250.882034 0.9760 0.9760 0.9756 0.9751 0.9750
2255.268009 0.9750 0.9750 0.9750 0.9746 0.9741
2259.653985 0.9733 0.9723 0.9720 0.9720 0.9716
2264.039961 0.9711 0.9702 0.9692 0.9690 0.9690
2268.425936 0.9686 0.9681 0.9676 0.9671 0.9670
2272.811912 0.9670 0.9662 0.9652 0.9646 0.9641
2277.197888 0.9640 0.9640 0.9636 0.9631 0.9630
2281.583863 0.9630 0.9630 0.9630 0.9622 0.9612
2285.969839 0.9610 0.9610 0.9606 0.9601 0.9600
2290.355814 0.9600 0.9592 0.9582 0.9580 0.9580
2294.741790 0.9580 0.9580 0.9580 0.9580 0.9580
2299.127766 0.9580 0.9580 0.9580 0.9580 0.9580
2303.513741 0.9580 0.9580 0.9580 0.9580 0.9589
2307.899717 0.9599 0.9604 0.9609 0.9619 0.9629
2312.285693 0.9630 0.9630 0.9634 0.9640 0.9645
2316.671668 0.9650 0.9650 0.9650 0.9664 0.9679
2321.057644 0.9685 0.9690 0.9704 0.9719 0.9734
2325.443620 0.9749 0.9755 0.9760 0.9760 0.9760
2329.829595 0.9769 0.9779 0.9780 0.9780 0.9785
2334.215571 0.9790 0.9790 0.9790 0.9790 0.9790
2338.601546 0.9790 0.9790 0.9795 0.9800 0.9810
2342.987522 0.9820 0.9820 0.9820 0.9820 0.9820
2347.373498 0.9820 0.9820 0.9820 0.9820 0.9810
2351.759473 0.9800 0.9800 0.9800 0.9800 0.9800
2356.145449 0.9795 0.9790 0.9790 0.9790 0.9790
2360.531425 0.9790 0.9785 0.9780 0.9780 0.9780
2364.917400 0.9770 0.9760 0.9760 0.9760 0.9760
2369.303376 0.9760 0.9755 0.9750 0.9750 0.9750
2373.689351 0.9745 0.9739 0.9729 0.9720 0.9720
2378.075327 0.9720 0.9720 0.9720 0.9720 0.9720
2382.461303 0.9720 0.9720 0.9720 0.9720 0.9720
2386.847278 0.9720 0.9720 0.9720 0.9720 0.9720
2391.233254 0.9720 0.9720 0.9720 0.9720 0.9720
2395.619230 0.9720 0.9720 0.9720 0.9720 0.9719
2400.005205 0.9714 0.9710 0.9710 0.9710 0.9710
2404.391181 0.9710 0.9710 0.9710 0.9710 0.9710
2408.777157 0.9710 0.9708 0.9698 0.9690 0.9690
2413.163132 0.9690 0.9690 0.9690 0.9690 0.9690
2417.549108 0.9690 0.9690 0.9690 0.9690 0.9690
2421.935083 0.9689 0.9684 0.9680 0.9680 0.9680
2426.321059 0.9680 0.9680 0.9680 0.9680 0.9680
2430.707035 0.9680 0.9680 0.9680 0.9680 0.9680
2435.093010 0.9680 0.9680 0.9680 0.9680 0.9680
2439.478986 0.9680 0.9680 0.9684 0.9699 0.9710
2443.864962 0.9710 0.9710 0.9710 0.9710 0.9710
2448.250937 0.9710 0.9710 0.9710 0.9710 0.9711
2452.636913 0.9716 0.9720 0.9720 0.9720 0.9720
2457.022888 0.9720 0.9720 0.9720 0.9720 0.9720
2461.408864 0.9720 0.9720 0.9720 0.9720 0.9720
2465.794840 0.9720 0.9720 0.9720 0.9720 0.9720
2470.180815 0.9720 0.9720 0.9720 0.9718 0.9713
2474.566791 0.9710 0.9710 0.9706 0.9696 0.9690
2478.952767 0.9690 0.9688 0.9683 0.9680 0.9680
2483.338742 0.9678 0.9673 0.9666 0.9656 0.9650
2487.724718 0.9650 0.9650 0.9650 0.9650 0.9650
2492.110694 0.9648 0.9643 0.9640 0.9640 0.9640
2496.496669 0.9640 0.9640 0.9640 0.9638 0.9633
2500.882645 0.9630 0.9630 0.9626 0.9616 0.9610
2505.268620 0.9610 0.9610 0.9610 0.9610 0.9610
2509.654596 0.9610 0.9610 0.9610 0.9610 0.9610
2514.040572 0.9610 0.9610 0.9610 0.9608 0.9603
2518.426547 0.9600 0.9600 0.9600 0.9600 0.9595
2522.812523 0.9585 0.9580 0.9580 0.9580 0.9580
2527.198499 0.9577 0.9572 0.9570 0.9570 0.9570
2531.584474 0.9570 0.9567 0.9562 0.9560 0.9560
2535.970450 0.9560 0.9560 0.9555 0.9545 0.9537
2540.356426 0.9532 0.9530 0.9530 0.9527 0.9522
2544.742401 0.9514 0.9504 0.9497 0.9492 0.9487
2549.128377 0.9482 0.9480 0.9480 0.9474 0.9464
2553.514352 0.9457 0.9452 0.9444 0.9434 0.9424
2557.900328 0.9414 0.9410 0.9410 0.9404 0.9394
2562.286304 0.9387 0.9382 0.9377 0.9372 0.9370
2566.672279 0.9370 0.9361 0.9346 0.9340 0.9340
2571.058255 0.9334 0.9324 0.9320 0.9320 0.9317
2575.444231 0.9312 0.9310 0.9310 0.9307 0.9302
2579.830206 0.9293 0.9283 0.9280 0.9280 0.9277
2584.216182 0.9272 0.9270 0.9270 0.9270 0.9270
2588.602157 0.9270 0.9270 0.9270 0.9270 0.9270
2592.988133 0.9270 0.9270 0.9270 0.9270 0.9270
2597.374109 0.9270 0.9270 0.9274 0.9279 0.9280
2601.760084 0.9280 0.9280 0.9280 0.9280 0.9280
2606.146060 0.9280 0.9280 0.9280 0.9280 0.9280
2610.532036 0.9280 0.9280 0.9280 0.9280 0.9280
2614.918011 0.9280 0.9280 0.9280 0.9280 0.9276
2619.303987 0.9271 0.9270 0.9270 0.9266 0.9261
2623.689963 0.9252 0.9242 0.9240 0.9240 0.9240
2628.075938 0.9240 0.9240 0.9240 0.9240 0.9240
2632.461914 0.9240 0.9240 0.9236 0.9231 0.9234
2636.847889 0.9239 0.9236 0.9231 0.9230 0.9230
2641.233865 0.9226 0.9221 0.9220 0.9220 0.9212
2645.619841 0.9202 0.9196 0.9191 0.9190 0.9190
2650.005816 0.9190 0.9190 0.9190 0.9190 0.9181
2654.391792 0.9171 0.9166 0.9161 0.9160 0.9160
2658.777768 0.9160 0.9160 0.9160 0.9160 0.9156
2663.163743 0.9151 0.9141 0.9131 0.9130 0.9130
2667.549719 0.9130 0.9130 0.9130 0.9130 0.9139
2671.935694 0.9149 0.9141 0.9131 0.9130 0.9130
2676.321670 0.9130 0.9130 0.9130 0.9130 0.9130
2680.707646 0.9130 0.9130 0.9130 0.9130 0.9130
2685.093621 0.9130 0.9130 0.9130 0.9130 0.9130
2689.479597 0.9130 0.9125 0.9120 0.9120 0.9120
2693.865573 0.9120 0.9120 0.9120 0.9120 0.9120
2698.251548 0.9120 0.9120 0.9120 0.9115 0.9110
2702.637524 0.9100 0.9090 0.9075 0.9060 0.9060
2707.023500 0.9060 0.9055 0.9050 0.9045 0.9040
2711.409475 0.9030 0.9020 0.9015 0.9010 0.9005
2715.795451 0.9000 0.8990 0.8980 0.8975 0.8970
2720.181426 0.8970 0.8970 0.8970 0.8970 0.8970
2724.567402 0.8970 0.8970 0.8970 0.8970 0.8970
2728.953378 0.8975 0.8981 0.8991 0.9000 0.9005
2733.339353 0.9010 0.9015 0.9021 0.9031 0.9041
2737.725329 0.9046 0.9050 0.9050 0.9051 0.9056
2742.111305 0.9060 0.9060 0.9060 0.9060 0.9060
2746.497280 0.9060 0.9060 0.9060 0.9060 0.9060
2750.883256 0.9060 0.9060 0.9060 0.9060 0.9059
2755.269232 0.9054 0.9050 0.9050 0.9049 0.9044
2759.655207 0.9038 0.9028 0.9020 0.9020 0.9018
2764.041183 0.9008 0.9000 0.9000 0.8998 0.8988
2768.427158 0.8976 0.8956 0.8936 0.8916 0.8899
2772.813134 0.8894 0.8883 0.8847 0.8818 0.8808
2777.199110 0.8795 0.8769 0.8747 0.8732 0.8718
2781.585085 0.8708 0.8692 0.8657 0.8627 0.8611
2785.971061 0.8596 0.8581 0.8561 0.8526 0.8492
2790.357037 0.8462 0.8431 0.8396 0.8365 0.8345
2794.743012 0.8326 0.8311 0.8286 0.8236 0.8188
2799.128988 0.8143 0.8100 0.8065 0.8030 0.7995
2803.514963 0.7963 0.7938 0.7912 0.7887 0.7862
2807.900939 0.7837 0.7807 0.7767 0.7727 0.7687
2812.286915 0.7639 0.7574 0.7519 0.7484 0.7452
2816.672890 0.7427 0.7398 0.7363 0.7320 0.7260
2821.058866 0.7190 0.7099 0.7008 0.6918 0.6844
2825.444842 0.6799 0.6746 0.6681 0.6612 0.6537
2829.830817 0.6346 0.5955 0.5689 0.5634 0.5577
2834.216793 0.5517 0.5431 0.5301 0.5061 0.4646
2838.602769 0.4275 0.3977 0.3702 0.3462 0.3219
2842.988744 0.2974 0.2741 0.2526 0.2258 0.1918
2847.374720 0.1640 0.1450 0.1302 0.1212 0.1122
2851.760695 0.1032 0.0903 0.0722 0.0618 0.0613
2856.146671 0.0612 0.0617 0.0641 0.0686 0.0719
2860.532647 0.0739 0.0815 0.0955 0.1095 0.1236
2864.918622 0.1319 0.1339 0.1357 0.1372 0.1390
2869.304598 0.1410 0.1430 0.1450 0.1487 0.1542
2873.690574 0.1597 0.1653 0.1726 0.1816 0.1909
2878.076549 0.2004 0.2122 0.2262 0.2441 0.2657
2882.462525 0.2760 0.2760 0.2755 0.2745 0.2698
2886.848500 0.2618 0.2543 0.2473 0.2365 0.2225
2891.234476 0.2092 0.1966 0.1849 0.1738 0.1637
2895.620452 0.1542 0.1455 0.1375 0.1300 0.1230
2900.006427 0.1160 0.1090 0.1046 0.1021 0.0990
2904.392403 0.0955 0.0908 0.0853 0.0798 0.0743
2908.778379 0.0685 0.0624 0.0557 0.0487 0.0417
2913.164354 0.0347 0.0305 0.0280 0.0264 0.0254
2917.550330 0.0247 0.0242 0.0228 0.0207 0.0191
2921.936306 0.0176 0.0170 0.0170 0.0170 0.0170
2926.322281 0.0176 0.0187 0.0190 0.0190 0.0193
2930.708257 0.0198 0.0210 0.0225 0.0243 0.0263
2935.094232 0.0280 0.0295 0.0330 0.0375 0.0417
2939.480208 0.0457 0.0501 0.0546 0.0587 0.0627
2943.866184 0.0650 0.0666 0.0663 0.0653 0.0622
2948.252159 0.0581 0.0541 0.0501 0.0465 0.0430
2952.638135 0.0391 0.0351 0.0318 0.0288 0.0276
2957.024111 0.0271 0.0270 0.0270 0.0281 0.0296
2961.410086 0.0319 0.0344 0.0392 0.0447 0.0529
2965.796062 0.0619 0.0640 0.0640 0.0782 0.0967
2970.182038 0.1010 0.1010 0.1130 0.1285 0.1444
2974.568013 0.1605 0.1757 0.1907 0.2057 0.2208
2978.953989 0.2240 0.2240 0.2394 0.2584 0.2924
2983.339964 0.3300 0.3521 0.3706 0.3891 0.4077
2987.725940 0.4270 0.4465 0.4652 0.4838 0.5180
2992.111916 0.5556 0.5765 0.5941 0.6045 0.6135
2996.497891 0.6213 0.6289 0.6352 0.6412 0.6433
3000.883867 0.6448 0.6459 0.6469 0.6470 0.6470
3005.269843 0.6461 0.6451 0.6433 0.6412 0.6379
3009.655818 0.6344 0.6322 0.6302 0.6282 0.6262
3014.041794 0.6211 0.6155 0.6136 0.6121 0.6129
3018.427769 0.6139 0.6177 0.6217 0.6257 0.6297
3022.813745 0.6332 0.6367 0.6402 0.6437 0.6523
3027.199721 0.6614 0.6750 0.6890 0.7003 0.7113
3031.585696 0.7219 0.7326 0.7407 0.7487 0.7500
3035.971672 0.7510 0.7510 0.7510 0.7495 0.7480
3040.357648 0.7465 0.7450 0.7435 0.7420 0.7415
3044.743623 0.7410 0.7405 0.7400 0.7400 0.7400
3049.129599 0.7405 0.7410 0.7435 0.7461 0.7511
3053.515575 0.7560 0.7596 0.7630 0.7635 0.7642
3057.901550 0.7747 0.7853 0.7968 0.8081 0.8121
3062.287526 0.8161 0.8181 0.8201 0.8236 0.8271
3066.673501 0.8301 0.8333 0.8394 0.8454 0.8524
3071.059477 0.8594 0.8654 0.8712 0.8737 0.8762
3075.445453 0.8798 0.8831 0.8851 0.8872 0.8902
3079.831428 0.8932 0.8957 0.8980 0.8980 0.8981
3084.217404 0.8991 0.9000 0.9000 0.8999 0.8989
3088.603380 0.8979 0.8969 0.8960 0.8960 0.8959
3092.989355 0.8949 0.8938 0.8923 0.8909 0.8904
3097.375331 0.8901 0.8906 0.8916 0.8961 0.9003
3101.761306 0.9023 0.9044 0.9069 0.9093 0.9113
3106.147282 0.9133 0.9153 0.9175 0.9205 0.9234
3110.533258 0.9259 0.9282 0.9292 0.9301 0.9306
3114.919233 0.9311 0.9316 0.9322 0.9332 0.9341
3119.305209 0.9346 0.9352 0.9362 0.9371 0.9376
3123.691185 0.9381 0.9386 0.9392 0.9402 0.9410
3128.077160 0.9410 0.9411 0.9416 0.9420 0.9420
3132.463136 0.9421 0.9426 0.9432 0.9442 0.9450
3136.849112 0.9450 0.9451 0.9456 0.9460 0.9460
3141.235087 0.9463 0.9473 0.9480 0.9480 0.9481
3145.621063 0.9486 0.9490 0.9490 0.9491 0.9496
3150.007038 0.9500 0.9500 0.9500 0.9500 0.9503
3154.393014 0.9513 0.9520 0.9520 0.9520 0.9520
3158.778990 0.9520 0.9520 0.9522 0.9527 0.9530
3163.164965 0.9530 0.9530 0.9530 0.9530 0.9530
3167.550941 0.9530 0.9530 0.9530 0.9530 0.9530
3171.936917 0.9530 0.9530 0.9530 0.9530 0.9530
3176.322892 0.9530 0.9530 0.9530 0.9530 0.9530
3180.708868 0.9530 0.9530 0.9530 0.9530 0.9530
3185.094844 0.9530 0.9530 0.9530 0.9530 0.9530
3189.480819 0.9530 0.9532 0.9537 0.9540 0.9540
3193.866795 0.9540 0.9540 0.9544 0.9554 0.9560
3198.252770 0.9560 0.9560 0.9560 0.9562 0.9567
3202.638746 0.9570 0.9570 0.9570 0.9570 0.9572
3207.024722 0.9577 0.9580 0.9580 0.9580 0.9580
3211.410697 0.9580 0.9580 0.9585 0.9595 0.9600
3215.796673 0.9600 0.9602 0.9607 0.9610 0.9610
3220.182649 0.9610 0.9610 0.9615 0.9625 0.9630
3224.568624 0.9630 0.9630 0.9630 0.9630 0.9630
3228.954600 0.9630 0.9630 0.9630 0.9630 0.9633
3233.340575 0.9638 0.9640 0.9640 0.9640 0.9640
3237.726551 0.9640 0.9640 0.9640 0.9640 0.9640
3242.112527 0.9640 0.9640 0.9640 0.9640 0.9640
3246.498502 0.9640 0.9640 0.9640 0.9640 0.9640
3250.884478 0.9640 0.9640 0.9640 0.9640 0.9640
3255.270454 0.9640 0.9640 0.9640 0.9640 0.9640
3259.656429 0.9640 0.9640 0.9640 0.9640 0.9640
3264.042405 0.9637 0.9632 0.9630 0.9630 0.9630
3268.428381 0.9630 0.9624 0.9614 0.9610 0.9610
3272.814356 0.9610 0.9610 0.9607 0.9602 0.9600
3277.200332 0.9600 0.9600 0.9600 0.9593 0.9583
3281.586307 0.9577 0.9572 0.9570 0.9570 0.9567
3285.972283 0.9562 0.9560 0.9560 0.9553 0.9543
3290.358259 0.9540 0.9540 0.9537 0.9532 0.9530
3294.744234 0.9530 0.9526 0.9521 0.9520 0.9520
3299.130210 0.9513 0.9503 0.9496 0.9491 0.9486
3303.516186 0.9481 0.9473 0.9463 0.9456 0.9451
3307.902161 0.9443 0.9433 0.9426 0.9421 0.9416
3312.288137 0.9411 0.9402 0.9392 0.9386 0.9381
3316.674112 0.9369 0.9353 0.9346 0.9341 0.9332
3321.060088 0.9322 0.9316 0.9311 0.9306 0.9301
3325.446064 0.9292 0.9282 0.9276 0.9271 0.9266
3329.832039 0.9261 0.9248 0.9233 0.9218 0.9203
3334.218015 0.9196 0.9191 0.9178 0.9163 0.9156
3338.603991 0.9151 0.9142 0.9132 0.9126 0.9121
3342.989966 0.9108 0.9093 0.9077 0.9062 0.9056
3347.375942 0.9051 0.9046 0.9041 0.9027 0.9012
3351.761918 0.9006 0.9001 0.8991 0.8981 0.8976
3356.147893 0.8971 0.8957 0.8942 0.8936 0.8931
3360.533869 0.8921 0.8911 0.8906 0.8901 0.8887
3364.919844 0.8871 0.8865 0.8860 0.8842 0.8822
3369.305820 0.8793 0.8762 0.8742 0.8722 0.8715
3373.691796 0.8710 0.8705 0.8700 0.8686 0.8671
3378.077771 0.8651 0.8631 0.8611 0.8591 0.8566
3382.463747 0.8541 0.8535 0.8530 0.8530 0.8530
3386.849723 0.8496 0.8461 0.8426 0.8391 0.8380
3391.235698 0.8370 0.8350 0.8330 0.8310 0.8290
3395.621674 0.8265 0.8240 0.8230 0.8220 0.8205
3400.007650 0.8190 0.8175 0.8160 0.8155 0.8150
3404.393625 0.8150 0.8150 0.8155 0.8160 0.8175
3408.779601 0.8190 0.8211 0.8231 0.8251 0.8271
3413.165576 0.8291 0.8311 0.8346 0.8382 0.8432
3417.551552 0.8484 0.8549 0.8614 0.8684 0.8751
3421.937528 0.8771 0.8790 0.8795 0.8801 0.8816
3426.323503 0.8836 0.8921 0.9007 0.9092 0.9174
3430.709479 0.9219 0.9263 0.9293 0.9321 0.9336
3435.095455 0.9352 0.9367 0.9383 0.9408 0.9433
3439.481430 0.9464 0.9492 0.9507 0.9522 0.9542
3443.867406 0.9561 0.9566 0.9572 0.9587 0.9602
3448.253381 0.9617 0.9631 0.9636 0.9642 0.9657
3452.639357 0.9671 0.9676 0.9681 0.9686 0.9692
3457.025333 0.9702 0.9711 0.9716 0.9722 0.9732
3461.411308 0.9740 0.9740 0.9741 0.9746 0.9751
3465.797284 0.9756 0.9760 0.9760 0.9762 0.9772
3470.183260 0.9781 0.9786 0.9791 0.9796 0.9800
3474.569235 0.9800 0.9800 0.9800 0.9802 0.9812
3478.955211 0.9820 0.9820 0.9820 0.9820 0.9821
3483.341187 0.9826 0.9830 0.9830 0.9831 0.9836
3487.727162 0.9840 0.9840 0.9840 0.9840 0.9843
3492.113138 0.9853 0.9860 0.9860 0.9860 0.9860
3496.499113 0.9860 0.9860 0.9860 0.9860 0.9860
3500.885089 0.9860 0.9860 0.9860 0.9860 0.9860
3505.271065 0.9860 0.9860 0.9860 0.9860 0.9860
3509.657040 0.9860 0.9860 0.9860 0.9860 0.9860
3514.043016 0.9860 0.9860 0.9862 0.9867 0.9873
3518.428992 0.9883 0.9890 0.9890 0.9892 0.9897
3522.814967 0.9900 0.9900 0.9900 0.9900 0.9900
3527.200943 0.9900 0.9900 0.9900 0.9900 0.9900
3531.586918 0.9902 0.9907 0.9910 0.9910 0.9910
3535.972894 0.9910 0.9910 0.9910 0.9910 0.9910
3540.358870 0.9910 0.9910 0.9910 0.9910 0.9910
3544.744845 0.9910 0.9910 0.9910 0.9910 0.9910
3549.130821 0.9910 0.9910 0.9910 0.9910 0.9910
3553.516797 0.9910 0.9910 0.9910 0.9908 0.9903
3557.902772 0.9898 0.9893 0.9890 0.9890 0.9885
3562.288748 0.9875 0.9861 0.9841 0.9828 0.9823
3566.674724 0.9801 0.9761 0.9735 0.9725 0.9725
3571.060699 0.9735 0.9752 0.9777 0.9807 0.9843
3575.446675 0.9863 0.9868 0.9875 0.9885 0.9890
3579.832650 0.9890 0.9893 0.9898 0.9900 0.9900
3584.218626 0.9900 0.9900 0.9897 0.9892 0.9890
3588.604602 0.9890 0.9890 0.9890 0.9885 0.9874
3592.990577 0.9870 0.9870 0.9870 0.9870 0.9870
3597.376553 0.9870 0.9870 0.9870 0.9870 0.9870
3601.762529 0.9876 0.9886 0.9890 0.9890 0.9890
3606.148504 0.9890 0.9890 0.9890 0.9890 0.9890
3610.534480 0.9890 0.9890 0.9890 0.9890 0.9890
3614.920456 0.9890 0.9890 0.9890 0.9890 0.9890
3619.306431 0.9890 0.9890 0.9890 0.9890 0.9890
3623.692407 0.9890 0.9890 0.9890 0.9890 0.9890
3628.078382 0.9890 0.9890 0.9890 0.9890 0.9890
3632.464358 0.9890 0.9890 0.9890 0.9890 0.9890
3636.850334 0.9890 0.9890 0.9890 0.9890 0.9890
3641.236309 0.9890 0.9890 0.9890 0.9890 0.9890
3645.622285 0.9890 0.9890 0.9883 0.9873 0.9870
3650.008261 0.9870 0.9870 0.9870 0.9866 0.9861
3654.394236 0.9860 0.9860 0.9860 0.9860 0.9860
3658.780212 0.9860 0.9860 0.9860 0.9860 0.9860
3663.166187 0.9860 0.9860 0.9860 0.9860 0.9860
3667.552163 0.9860 0.9860 0.9860 0.9860 0.9860
3671.938139 0.9860 0.9860 0.9860 0.9860 0.9860
3676.324114 0.9860 0.9860 0.9860 0.9860 0.9860
3680.710090 0.9860 0.9860 0.9860 0.9860 0.9860
3685.096066 0.9860 0.9864 0.9869 0.9870 0.9870
3689.482041 0.9878 0.9888 0.9890 0.9890 0.9894
3693.868017 0.9899 0.9900 0.9900 0.9900 0.9900
3698.253993 0.9904 0.9909 0.9910 0.9910 0.9919
3702.639968 0.9929 0.9930 0.9930 0.9934 0.9939
3707.025944 0.9940 0.9940 0.9940 0.9940 0.9944
3711.411919 0.9949 0.9950 0.9950 0.9959 0.9969
3715.797895 0.9970 0.9970 0.9970 0.9970 0.9970
3720.183871 0.9970 0.9970 0.9970 0.9970 0.9970
3724.569846 0.9970 0.9970 0.9961 0.9951 0.9950
3728.955822 0.9950 0.9950 0.9950 0.9950 0.9950
3733.341798 0.9950 0.9950 0.9940 0.9930 0.9930
3737.727773 0.9930 0.9930 0.9930 0.9930 0.9930
3742.113749 0.9920 0.9910 0.9910 0.9910 0.9910
3746.499724 0.9910 0.9910 0.9910 0.9910 0.9910
3750.885700 0.9910 0.9910 0.9910 0.9910 0.9910
3755.271676 0.9910 0.9910 0.9910 0.9910 0.9910
3759.657651 0.9910 0.9910 0.9910 0.9910 0.9910
3764.043627 0.9910 0.9910 0.9910 0.9910 0.9911
3768.429603 0.9921 0.9930 0.9930 0.9930 0.9930
3772.815578 0.9930 0.9930 0.9930 0.9935 0.9940
3777.201554 0.9940 0.9940 0.9940 0.9940 0.9940
3781.587530 0.9940 0.9945 0.9950 0.9950 0.9950
3785.973505 0.9950 0.9950 0.9950 0.9951 0.9961
3790.359481 0.9970 0.9970 0.9970 0.9970 0.9970
3794.745456 0.9970 0.9970 0.9970 0.9970 0.9970
##END=
