##TITLE=BENZYLAMINE, N-METHYL-,
##JCAMP-DX=4.24
##DATA TYPE=INFRARED SPECTRUM
##CLASS=COBLENTZ III
##ORIGIN=DOW CHEMICAL COMPANY
##OWNER=COBLENTZ SOC.
Collection (C) 2018 copyright by the U.S. Secretary of Commerce
on behalf of the United States of America. All rights reserved.
##DATE=Not specified, most likely prior to 1970
##NAMES=N-benzyl-N-methylamine
N-methyl(phenyl)methanamine
METHYLAMINE, N-BENZYL
##CAS REGISTRY NO=103-67-3
##MOLFORM=C8 H11 N
##SOURCE REFERENCE=COBLENTZ NO. 08200
##$NIST SOURCE=COBLENTZ
##$NIST IMAGE=cob8200
##SPECTROMETER/DATA SYSTEM=DOW KBr FOREPRISM-GRATING
##INSTRUMENT PARAMETERS=BLAZED AT 3.5, 12.0, 20.0 MICRON AND CHANGED AT 5.0, 7.5, 14.9 MICRON
##STATE=SOLUTION (10% CCl4 FOR 3800-400 CM^-^1)
##PATH LENGTH=0.011 CM
$$SPECTRAL CONTAMINATION DUE TO CCl4 AROUND 1550, 1180-1280, 980, 720-850, 630 CM^-^1
$$ SPECTRAL FEATURE AT 2001 CM^-^1 IS AN ARTIFACT CAUSED BY GRATING CHANGE
##SAMPLING PROCEDURE=TRANSMISSION
##RESOLUTION=2
##DATA PROCESSING=DIGITIZED BY COBLENTZ SOCIETY (BATCH I) FROM HARD COPY
##XUNITS=1/CM
##YUNITS=TRANSMITTANCE
##XLABEL=Wavenumbers (cm-1)
##YLABEL=% Transmission
##XFACTOR=1
##YFACTOR=1
##DELTAX=1
##FIRSTX=400
##LASTX=3800
##FIRSTY=0.9336
##MAXX=3800
##MINX=400
##MAXY=0.9075
##MINY=0.0074
##NPOINTS=3401
##XYDATA=(X++(Y..Y))
400.000000 0.9336 0.9328 0.9321 0.9316 0.9310
405.000000 0.9304 0.9294 0.9284 0.9275 0.9265
410.000000 0.9255 0.9245 0.9235 0.9224 0.9210
415.000000 0.9197 0.9184 0.9170 0.9157 0.9143
420.000000 0.9130 0.9117 0.9104 0.9090 0.9077
425.000000 0.9064 0.9051 0.9037 0.9021 0.9002
430.000000 0.8984 0.8965 0.8946 0.8918 0.8880
435.000000 0.8841 0.8801 0.8762 0.8723 0.8683
440.000000 0.8638 0.8588 0.8538 0.8489 0.8439
445.000000 0.8394 0.8350 0.8305 0.8261 0.8237
450.000000 0.8217 0.8197 0.8176 0.8157 0.8136
455.000000 0.8112 0.8091 0.8068 0.8046 0.8017
460.000000 0.7976 0.7937 0.7897 0.7856 0.7815
465.000000 0.7775 0.7698 0.7621 0.7544 0.7467
470.000000 0.7385 0.7303 0.7221 0.7126 0.7040
475.000000 0.7001 0.6968 0.6953 0.6943 0.6943
480.000000 0.6945 0.6946 0.6957 0.6971 0.6994
485.000000 0.7034 0.7078 0.7155 0.7231 0.7354
490.000000 0.7484 0.7608 0.7775 0.7962 0.8083
495.000000 0.8203 0.8327 0.8451 0.8618 0.8753
500.000000 0.8846 0.8918 0.8980 0.9014 0.9027
505.000000 0.9039 0.9051 0.9060 0.9060 0.9060
510.000000 0.9075 0.9058 0.9053 0.9048 0.9043
515.000000 0.9038 0.9028 0.9020 0.9010 0.9001
520.000000 0.8991 0.8975 0.8958 0.8941 0.8924
525.000000 0.8903 0.8871 0.8840 0.8808 0.8775
530.000000 0.8728 0.8700 0.8686 0.8678 0.8674
535.000000 0.8686 0.8694 0.8704 0.8714 0.8733
540.000000 0.8754 0.8771 0.8787 0.8802 0.8810
545.000000 0.8817 0.8817 0.8817 0.8821 0.8814
550.000000 0.8811 0.8807 0.8804 0.8795 0.8784
555.000000 0.8773 0.8762 0.8751 0.8737 0.8713
560.000000 0.8689 0.8665 0.8637 0.8593 0.8548
565.000000 0.8504 0.8437 0.8360 0.8282 0.8204
570.000000 0.8110 0.8015 0.7921 0.7783 0.7641
575.000000 0.7441 0.7262 0.7084 0.6906 0.6728
580.000000 0.6550 0.6494 0.6591 0.6462 0.6915
585.000000 0.7078 0.7240 0.7403 0.7565 0.7605
590.000000 0.7634 0.7480 0.7375 0.7271 0.7168
595.000000 0.7064 0.6961 0.6857 0.6753 0.6649
600.000000 0.6619 0.6583 0.7268 0.7607 0.7946
605.000000 0.8147 0.8324 0.8498 0.8578 0.8598
610.000000 0.8591 0.8589 0.8587 0.8585 0.8580
615.000000 0.8566 0.8548 0.8528 0.8509 0.8490
620.000000 0.8459 0.8425 0.8383 0.8284 0.8195
625.000000 0.8108 0.8071 0.8046 0.8046 0.8056
630.000000 0.8125 0.8217 0.8311 0.8388 0.8452
635.000000 0.8483 0.8488 0.8486 0.8484 0.8473
640.000000 0.8462 0.8448 0.8433 0.8416 0.8396
645.000000 0.8370 0.8343 0.8316 0.8271 0.8225
650.000000 0.8181 0.8137 0.8092 0.8044 0.7986
655.000000 0.7928 0.7855 0.7776 0.7698 0.7618
660.000000 0.7539 0.7458 0.7376 0.7304 0.7232
665.000000 0.7161 0.7093 0.7028 0.6964 0.6900
670.000000 0.6836 0.6774 0.6711 0.6649 0.6590
675.000000 0.6531 0.6471 0.6415 0.6365 0.6314
680.000000 0.6262 0.6210 0.6119 0.6021 0.5796
685.000000 0.5629 0.5515 0.4337 0.4068 0.3812
690.000000 0.3548 0.3152 0.2818 0.2651 0.2029
695.000000 0.1836 0.1106 0.0284 0.0276 0.0268
700.000000 0.0266 0.0414 0.0562 0.0710 0.0858
705.000000 0.1006 0.1154 0.1302 0.1450 0.1598
710.000000 0.1745 0.1894 0.1937 0.1933 0.1928
715.000000 0.1914 0.1877 0.1829 0.1773 0.1681
720.000000 0.1589 0.1479 0.1362 0.1249 0.1157
725.000000 0.1066 0.0974 0.0842 0.0582 0.0272
730.000000 0.0145 0.0074 0.0074 0.0075 0.0075
735.000000 0.0075 0.0076 0.0076 0.0076 0.0077
740.000000 0.0077 0.0077 0.0078 0.0078 0.0078
745.000000 0.0079 0.0079 0.0079 0.0080 0.0080
750.000000 0.0080 0.0081 0.0081 0.0081 0.0082
755.000000 0.0082 0.0082 0.0083 0.0083 0.0083
760.000000 0.0084 0.0084 0.0084 0.0085 0.0085
765.000000 0.0085 0.0086 0.0086 0.0086 0.0087
770.000000 0.0087 0.0087 0.0088 0.0088 0.0088
775.000000 0.0089 0.0089 0.0089 0.0090 0.0090
780.000000 0.0090 0.0091 0.0091 0.0091 0.0092
785.000000 0.0092 0.0092 0.0093 0.0093 0.0093
790.000000 0.0094 0.0094 0.0094 0.0095 0.0095
795.000000 0.0095 0.0096 0.0096 0.0096 0.0097
800.000000 0.0097 0.0097 0.0098 0.0098 0.0098
805.000000 0.0102 0.0107 0.0113 0.0119 0.0137
810.000000 0.0157 0.0191 0.0257 0.0328 0.0390
815.000000 0.0444 0.0506 0.0576 0.0647 0.0737
820.000000 0.0839 0.0955 0.1322 0.1458 0.1537
825.000000 0.1581 0.1627 0.1673 0.1952 0.2542
830.000000 0.2980 0.3490 0.3696 0.3903 0.4110
835.000000 0.4317 0.4523 0.4730 0.4937 0.5144
840.000000 0.5270 0.5342 0.5404 0.5467 0.5526
845.000000 0.5582 0.5639 0.5698 0.5766 0.5834
850.000000 0.5969 0.6106 0.6178 0.6251 0.6324
855.000000 0.6397 0.6451 0.6504 0.6557 0.6611
860.000000 0.6696 0.6781 0.6846 0.6901 0.6958
865.000000 0.7011 0.7058 0.7105 0.7151 0.7201
870.000000 0.7255 0.7308 0.7365 0.7425 0.7461
875.000000 0.7496 0.7530 0.7564 0.7594 0.7618
880.000000 0.7643 0.7660 0.7669 0.7680 0.7689
885.000000 0.7699 0.7708 0.7711 0.7712 0.7704
890.000000 0.7704 0.7704 0.7687 0.7664 0.7615
895.000000 0.7565 0.7511 0.7456 0.7378 0.7262
900.000000 0.7048 0.6980 0.6915 0.6875 0.6842
905.000000 0.6847 0.6828 0.6830 0.6848 0.6898
910.000000 0.6980 0.7087 0.7514 0.7651 0.7714
915.000000 0.7739 0.7736 0.7736 0.7730 0.7708
920.000000 0.7678 0.7644 0.7611 0.7572 0.7536
925.000000 0.7510 0.7484 0.7471 0.7462 0.7458
930.000000 0.7439 0.7490 0.7519 0.7555 0.7606
935.000000 0.7712 0.7840 0.7888 0.7900 0.7900
940.000000 0.7899 0.7894 0.7885 0.7867 0.7847
945.000000 0.7821 0.7796 0.7758 0.7705 0.7640
950.000000 0.7540 0.7351 0.7232 0.7121 0.7017
955.000000 0.6908 0.6788 0.6657 0.6506 0.6411
960.000000 0.6333 0.6293 0.6260 0.6236 0.6223
965.000000 0.6201 0.6156 0.6100 0.6048 0.5996
970.000000 0.5941 0.5884 0.5817 0.5724 0.5634
975.000000 0.5578 0.5526 0.5507 0.5509 0.5510
980.000000 0.5542 0.5597 0.5662 0.5780 0.5890
985.000000 0.6014 0.6142 0.6275 0.6411 0.6528
990.000000 0.6612 0.6635 0.6638 0.6638 0.6638
995.000000 0.6610 0.6594 0.6568 0.6534 0.6485
1000.000000 0.6433 0.6378 0.6331 0.6333 0.6362
1005.000000 0.6369 0.6388 0.6419 0.6457 0.6503
1010.000000 0.6567 0.6631 0.6721 0.6841 0.6948
1015.000000 0.7038 0.7096 0.7108 0.7118 0.7121
1020.000000 0.7094 0.7058 0.6992 0.6865 0.6704
1025.000000 0.6150 0.5660 0.5169 0.4679 0.4571
1030.000000 0.4582 0.6551 0.7588 0.7756 0.7935
1035.000000 0.8025 0.8080 0.8089 0.8098 0.8101
1040.000000 0.8101 0.8101 0.8100 0.8096 0.8111
1045.000000 0.8089 0.8082 0.8074 0.8065 0.8053
1050.000000 0.8041 0.8028 0.8008 0.7985 0.7954
1055.000000 0.7919 0.7882 0.7844 0.7806 0.7757
1060.000000 0.7699 0.7641 0.7584 0.7478 0.7375
1065.000000 0.7041 0.6782 0.6522 0.6264 0.6004
1070.000000 0.5746 0.5685 0.5656 0.5648 0.5645
1075.000000 0.6098 0.6468 0.6839 0.7194 0.7284
1080.000000 0.7401 0.7458 0.7497 0.7508 0.7492
1085.000000 0.7492 0.7484 0.7468 0.7401 0.7325
1090.000000 0.7255 0.7183 0.7106 0.7018 0.6921
1095.000000 0.6775 0.6636 0.6507 0.6285 0.5543
1100.000000 0.5206 0.4870 0.4534 0.4197 0.3860
1105.000000 0.3500 0.3428 0.3434 0.3514 0.3759
1110.000000 0.4002 0.4246 0.4490 0.4734 0.4978
1115.000000 0.5205 0.5238 0.5201 0.5096 0.4980
1120.000000 0.4864 0.4748 0.4632 0.4516 0.4400
1125.000000 0.4284 0.4168 0.4164 0.4182 0.4231
1130.000000 0.4176 0.4470 0.4788 0.4921 0.5139
1135.000000 0.5384 0.5629 0.5875 0.6120 0.6254
1140.000000 0.6250 0.6246 0.6244 0.6250 0.6257
1145.000000 0.6277 0.6299 0.6336 0.6469 0.6605
1150.000000 0.6739 0.6799 0.6795 0.6783 0.6764
1155.000000 0.6742 0.6734 0.6739 0.6747 0.6771
1160.000000 0.6885 0.6999 0.7112 0.7226 0.7340
1165.000000 0.7434 0.7487 0.7539 0.7588 0.7637
1170.000000 0.7687 0.7732 0.7745 0.7758 0.7771
1175.000000 0.7780 0.7787 0.7793 0.7798 0.7787
1180.000000 0.7789 0.7784 0.7771 0.7757 0.7736
1185.000000 0.7698 0.7642 0.7585 0.7518 0.7448
1190.000000 0.7378 0.7311 0.7248 0.7184 0.7119
1195.000000 0.7062 0.7011 0.6958 0.6907 0.6856
1200.000000 0.6808 0.6760 0.6711 0.6662 0.6601
1205.000000 0.6541 0.6488 0.6481 0.6481 0.6490
1210.000000 0.6512 0.6544 0.6576 0.6608 0.6640
1215.000000 0.6675 0.6711 0.6747 0.6778 0.6803
1220.000000 0.6828 0.6851 0.6875 0.6884 0.6894
1225.000000 0.6903 0.6900 0.6897 0.6893 0.6881
1230.000000 0.6865 0.6848 0.6824 0.6801 0.6776
1235.000000 0.6753 0.6726 0.6693 0.6658 0.6625
1240.000000 0.6591 0.6557 0.6521 0.6485 0.6448
1245.000000 0.6411 0.6373 0.6312 0.6252 0.6189
1250.000000 0.6126 0.6126 0.6130 0.6140 0.6151
1255.000000 0.6165 0.6183 0.6203 0.6240 0.6276
1260.000000 0.6325 0.6379 0.6447 0.6542 0.6638
1265.000000 0.6743 0.6851 0.7015 0.7198 0.7325
1270.000000 0.7435 0.7554 0.7678 0.7811 0.7949
1275.000000 0.8061 0.8168 0.8224 0.8278 0.8334
1280.000000 0.8357 0.8378 0.8401 0.8413 0.8425
1285.000000 0.8433 0.8432 0.8430 0.8428 0.8423
1290.000000 0.8413 0.8403 0.8392 0.8382 0.8371
1295.000000 0.8356 0.8341 0.8325 0.8310 0.8275
1300.000000 0.8230 0.8183 0.8132 0.8081 0.8030
1305.000000 0.7987 0.7954 0.7921 0.7911 0.7911
1310.000000 0.7910 0.7932 0.7943 0.7954 0.7964
1315.000000 0.7975 0.7985 0.7996 0.8003 0.8008
1320.000000 0.8012 0.8018 0.8018 0.8018 0.8019
1325.000000 0.8019 0.8018 0.8015 0.8014 0.7988
1330.000000 0.7945 0.7901 0.7860 0.7845 0.7843
1335.000000 0.7842 0.7837 0.7832 0.7821 0.7808
1340.000000 0.7783 0.7725 0.7671 0.7618 0.7565
1345.000000 0.7511 0.7458 0.7368 0.7217 0.6933
1350.000000 0.6648 0.6364 0.6080 0.5795 0.5510
1355.000000 0.5329 0.5301 0.5304 0.5281 0.5827
1360.000000 0.6151 0.6475 0.6728 0.6847 0.7037
1365.000000 0.7489 0.7653 0.7804 0.7937 0.8054
1370.000000 0.8145 0.8230 0.8251 0.8268 0.8280
1375.000000 0.8280 0.8278 0.8273 0.8267 0.8254
1380.000000 0.8228 0.8198 0.8168 0.8153 0.8149
1385.000000 0.8145 0.8153 0.8168 0.8189 0.8224
1390.000000 0.8260 0.8310 0.8371 0.8409 0.8446
1395.000000 0.8474 0.8487 0.8500 0.8514 0.8521
1400.000000 0.8521 0.8515 0.8510 0.8498 0.8482
1405.000000 0.8464 0.8446 0.8425 0.8402 0.8378
1410.000000 0.8355 0.8316 0.8264 0.8196 0.8117
1415.000000 0.8038 0.7924 0.7790 0.7654 0.7640
1420.000000 0.7640 0.7655 0.7676 0.7704 0.7707
1425.000000 0.7697 0.7689 0.7608 0.7533 0.7440
1430.000000 0.7322 0.7172 0.6887 0.6189 0.5954
1435.000000 0.5723 0.5403 0.4651 0.4442 0.3793
1440.000000 0.3607 0.3420 0.3234 0.3048 0.2861
1445.000000 0.2826 0.2837 0.2875 0.2927 0.2978
1450.000000 0.3030 0.3091 0.3066 0.2894 0.2629
1455.000000 0.2365 0.2100 0.1835 0.1779 0.2278
1460.000000 0.4471 0.4656 0.4766 0.4779 0.4788
1465.000000 0.4796 0.4806 0.4840 0.4904 0.4968
1470.000000 0.4980 0.4965 0.4662 0.4446 0.4230
1475.000000 0.4014 0.3830 0.3816 0.4030 0.4412
1480.000000 0.4794 0.5176 0.5557 0.5939 0.6321
1485.000000 0.6703 0.6717 0.6708 0.6374 0.5945
1490.000000 0.5515 0.5086 0.4657 0.4228 0.3799
1495.000000 0.3368 0.2940 0.2511 0.2222 0.2222
1500.000000 0.2200 0.3564 0.4709 0.5855 0.6767
1505.000000 0.6806 0.6837 0.6846 0.6847 0.6847
1510.000000 0.6841 0.6833 0.6824 0.6815 0.6801
1515.000000 0.6787 0.6762 0.6730 0.6691 0.6653
1520.000000 0.6614 0.6572 0.6532 0.6497 0.6462
1525.000000 0.6430 0.6397 0.6365 0.6323 0.6279
1530.000000 0.6222 0.6160 0.6086 0.6002 0.5892
1535.000000 0.5780 0.5666 0.5558 0.5462 0.5366
1540.000000 0.5233 0.4933 0.4825 0.4767 0.4719
1545.000000 0.4694 0.4685 0.4681 0.4677 0.4679
1550.000000 0.4681 0.4683 0.4685 0.4688 0.4692
1555.000000 0.4715 0.4742 0.4769 0.4834 0.4974
1560.000000 0.5145 0.5227 0.5298 0.5369 0.5437
1565.000000 0.5505 0.5574 0.5664 0.5757 0.5838
1570.000000 0.5893 0.5949 0.6032 0.6075 0.6098
1575.000000 0.6112 0.6117 0.6121 0.6125 0.6125
1580.000000 0.6117 0.6109 0.6100 0.6081 0.6062
1585.000000 0.6040 0.6023 0.6028 0.6035 0.6064
1590.000000 0.6146 0.6310 0.6400 0.6528 0.6587
1595.000000 0.6631 0.6645 0.6655 0.6662 0.6669
1600.000000 0.6675 0.6683 0.6706 0.6734 0.6772
1605.000000 0.6825 0.6893 0.6958 0.7017 0.7076
1610.000000 0.7164 0.7268 0.7397 0.7572 0.7868
1615.000000 0.8021 0.8171 0.8275 0.8373 0.8399
1620.000000 0.8428 0.8442 0.8459 0.8477 0.8495
1625.000000 0.8505 0.8516 0.8525 0.8543 0.8558
1630.000000 0.8571 0.8586 0.8594 0.8595 0.8597
1635.000000 0.8600 0.8604 0.8608 0.8612 0.8624
1640.000000 0.8638 0.8652 0.8666 0.8670 0.8671
1645.000000 0.8674 0.8677 0.8680 0.8683 0.8685
1650.000000 0.8688 0.8691 0.8694 0.8699 0.8706
1655.000000 0.8713 0.8720 0.8727 0.8738 0.8749
1660.000000 0.8759 0.8770 0.8780 0.8791 0.8801
1665.000000 0.8812 0.8821 0.8833 0.8844 0.8854
1670.000000 0.8865 0.8875 0.8886 0.8897 0.8907
1675.000000 0.8918 0.8928 0.8933 0.8938 0.8942
1680.000000 0.8947 0.8951 0.8958 0.8965 0.8971
1685.000000 0.8978 0.8985 0.8991 0.8992 0.8992
1690.000000 0.8986 0.8980 0.8975 0.8974 0.8974
1695.000000 0.8973 0.8971 0.8971 0.8980 0.8988
1700.000000 0.8996 0.9004 0.9012 0.9020 0.9028
1705.000000 0.9036 0.9034 0.9033 0.9031 0.9030
1710.000000 0.9047 0.9025 0.9021 0.9018 0.9015
1715.000000 0.9012 0.9008 0.9005 0.9003 0.9000
1720.000000 0.8998 0.8997 0.8994 0.8991 0.8987
1725.000000 0.8983 0.8978 0.8975 0.8971 0.8968
1730.000000 0.8965 0.8961 0.8957 0.8953 0.8948
1735.000000 0.8944 0.8939 0.8935 0.8931 0.8925
1740.000000 0.8921 0.8918 0.8917 0.8916 0.8915
1745.000000 0.8914 0.8914 0.8921 0.8927 0.8938
1750.000000 0.8954 0.8971 0.8989 0.9006 0.9023
1755.000000 0.9039 0.9051 0.9053 0.9054 0.9055
1760.000000 0.9056 0.9057 0.9058 0.9058 0.9056
1765.000000 0.9053 0.9050 0.9048 0.9045 0.9041
1770.000000 0.9037 0.9033 0.9028 0.9028 0.9031
1775.000000 0.9034 0.9037 0.9040 0.9042 0.9045
1780.000000 0.9048 0.9047 0.9047 0.9045 0.9044
1785.000000 0.9038 0.9023 0.9008 0.8994 0.8977
1790.000000 0.8954 0.8932 0.8909 0.8886 0.8852
1795.000000 0.8814 0.8775 0.8736 0.8695 0.8654
1800.000000 0.8613 0.8571 0.8532 0.8500 0.8468
1805.000000 0.8470 0.8477 0.8482 0.8496 0.8515
1810.000000 0.8548 0.8597 0.8644 0.8687 0.8725
1815.000000 0.8763 0.8783 0.8797 0.8803 0.8810
1820.000000 0.8816 0.8821 0.8825 0.8830 0.8834
1825.000000 0.8839 0.8845 0.8852 0.8866 0.8891
1830.000000 0.8916 0.8930 0.8944 0.8958 0.8962
1835.000000 0.8965 0.8983 0.8968 0.8971 0.8971
1840.000000 0.8971 0.8970 0.8970 0.8968 0.8965
1845.000000 0.8956 0.8946 0.8937 0.8928 0.8918
1850.000000 0.8909 0.8896 0.8880 0.8865 0.8849
1855.000000 0.8834 0.8818 0.8803 0.8787 0.8771
1860.000000 0.8747 0.8720 0.8692 0.8665 0.8639
1865.000000 0.8617 0.8595 0.8573 0.8551 0.8542
1870.000000 0.8542 0.8527 0.8567 0.8585 0.8618
1875.000000 0.8648 0.8675 0.8703 0.8724 0.8742
1880.000000 0.8754 0.8759 0.8764 0.8770 0.8775
1885.000000 0.8778 0.8778 0.8780 0.8789 0.8798
1890.000000 0.8806 0.8825 0.8850 0.8877 0.8910
1895.000000 0.8941 0.8961 0.8981 0.9000 0.9007
1900.000000 0.9014 0.9021 0.9028 0.9035 0.9042
1905.000000 0.9047 0.9052 0.9056 0.9060 0.9064
1910.000000 0.9071 0.9062 0.9061 0.9061 0.9060
1915.000000 0.9059 0.9059 0.9058 0.9057 0.9055
1920.000000 0.9052 0.9050 0.9047 0.9045 0.9042
1925.000000 0.9040 0.9031 0.9021 0.9012 0.9002
1930.000000 0.8992 0.8980 0.8954 0.8928 0.8902
1935.000000 0.8875 0.8846 0.8803 0.8760 0.8718
1940.000000 0.8668 0.8593 0.8517 0.8433 0.8347
1945.000000 0.8321 0.8305 0.8301 0.8302 0.8316
1950.000000 0.8299 0.8400 0.8460 0.8516 0.8564
1955.000000 0.8610 0.8648 0.8685 0.8708 0.8732
1960.000000 0.8756 0.8771 0.8782 0.8791 0.8794
1965.000000 0.8797 0.8799 0.8810 0.8840 0.8878
1970.000000 0.8939 0.8978 0.8998 0.9017 0.9036
1975.000000 0.9039 0.9042 0.9045 0.9048 0.9053
1980.000000 0.9057 0.9062 0.9066 0.9070 0.9075
1985.000000 0.9075 0.9075 0.9071 0.9070 0.9068
1990.000000 0.9066 0.9064 0.9061 0.9057 0.9054
1995.000000 0.9051 0.9047 0.9044 0.8993 0.8793
2000.000000 0.8592 0.8464 0.8337 0.8337 0.8337
2005.000000 0.8336 0.8336 0.8335 0.8335 0.8335
2010.000000 0.8335 0.8334 0.8334 0.8334 0.8334
2015.000000 0.8334 0.8334 0.8334 0.8335 0.8335
2020.000000 0.8335 0.8335 0.8336 0.8336 0.8337
2025.000000 0.8337 0.8337 0.8337 0.8338 0.8338
2030.000000 0.8338 0.8338 0.8338 0.8338 0.8338
2035.000000 0.8338 0.8338 0.8338 0.8338 0.8338
2040.000000 0.8338 0.8338 0.8338 0.8338 0.8338
2045.000000 0.8338 0.8338 0.8338 0.8338 0.8338
2050.000000 0.8339 0.8339 0.8339 0.8339 0.8339
2055.000000 0.8339 0.8339 0.8339 0.8339 0.8339
2060.000000 0.8339 0.8339 0.8339 0.8339 0.8339
2065.000000 0.8339 0.8339 0.8339 0.8339 0.8339
2070.000000 0.8340 0.8340 0.8341 0.8341 0.8342
2075.000000 0.8342 0.8343 0.8343 0.8343 0.8344
2080.000000 0.8346 0.8347 0.8348 0.8349 0.8351
2085.000000 0.8352 0.8354 0.8355 0.8356 0.8357
2090.000000 0.8359 0.8360 0.8361 0.8362 0.8364
2095.000000 0.8365 0.8367 0.8368 0.8368 0.8368
2100.000000 0.8370 0.8370 0.8371 0.8371 0.8371
2105.000000 0.8371 0.8371 0.8371 0.8371 0.8371
2110.000000 0.8371 0.8371 0.8371 0.8371 0.8371
2115.000000 0.8371 0.8371 0.8371 0.8371 0.8371
2120.000000 0.8371 0.8371 0.8371 0.8371 0.8371
2125.000000 0.8371 0.8371 0.8371 0.8371 0.8371
2130.000000 0.8371 0.8371 0.8371 0.8371 0.8371
2135.000000 0.8371 0.8371 0.8371 0.8370 0.8368
2140.000000 0.8368 0.8368 0.8367 0.8366 0.8366
2145.000000 0.8365 0.8365 0.8364 0.8363 0.8362
2150.000000 0.8362 0.8361 0.8360 0.8359 0.8359
2155.000000 0.8358 0.8357 0.8357 0.8356 0.8355
2160.000000 0.8355 0.8354 0.8354 0.8353 0.8352
2165.000000 0.8351 0.8351 0.8349 0.8348 0.8347
2170.000000 0.8346 0.8344 0.8343 0.8342 0.8341
2175.000000 0.8339 0.8338 0.8337 0.8336 0.8335
2180.000000 0.8334 0.8332 0.8331 0.8330 0.8328
2185.000000 0.8328 0.8327 0.8325 0.8325 0.8324
2190.000000 0.8324 0.8323 0.8321 0.8321 0.8320
2195.000000 0.8318 0.8318 0.8317 0.8317 0.8316
2200.000000 0.8315 0.8314 0.8313 0.8312 0.8312
2205.000000 0.8311 0.8310 0.8309 0.8308 0.8306
2210.000000 0.8305 0.8303 0.8302 0.8300 0.8299
2215.000000 0.8297 0.8295 0.8293 0.8292 0.8290
2220.000000 0.8289 0.8287 0.8285 0.8283 0.8282
2225.000000 0.8280 0.8278 0.8277 0.8275 0.8274
2230.000000 0.8271 0.8270 0.8268 0.8267 0.8266
2235.000000 0.8264 0.8262 0.8259 0.8256 0.8253
2240.000000 0.8251 0.8248 0.8245 0.8242 0.8240
2245.000000 0.8237 0.8234 0.8231 0.8228 0.8225
2250.000000 0.8223 0.8220 0.8218 0.8215 0.8212
2255.000000 0.8209 0.8207 0.8204 0.8201 0.8198
2260.000000 0.8196 0.8193 0.8190 0.8187 0.8185
2265.000000 0.8182 0.8180 0.8176 0.8174 0.8171
2270.000000 0.8169 0.8167 0.8165 0.8162 0.8161
2275.000000 0.8158 0.8156 0.8154 0.8151 0.8149
2280.000000 0.8147 0.8144 0.8142 0.8140 0.8138
2285.000000 0.8135 0.8133 0.8131 0.8128 0.8125
2290.000000 0.8124 0.8121 0.8119 0.8117 0.8115
2295.000000 0.8112 0.8111 0.8108 0.8106 0.8104
2300.000000 0.8101 0.8101 0.8100 0.8099 0.8099
2305.000000 0.8098 0.8097 0.8096 0.8095 0.8094
2310.000000 0.8093 0.8092 0.8091 0.8090 0.8090
2315.000000 0.8089 0.8088 0.8087 0.8086 0.8085
2320.000000 0.8084 0.8083 0.8082 0.8081 0.8081
2325.000000 0.8080 0.8078 0.8078 0.8076 0.8075
2330.000000 0.8075 0.8075 0.8075 0.8078 0.8080
2335.000000 0.8082 0.8084 0.8086 0.8088 0.8090
2340.000000 0.8093 0.8095 0.8097 0.8099 0.8101
2345.000000 0.8104 0.8108 0.8111 0.8114 0.8117
2350.000000 0.8121 0.8124 0.8128 0.8131 0.8135
2355.000000 0.8138 0.8141 0.8144 0.8148 0.8151
2360.000000 0.8155 0.8158 0.8161 0.8164 0.8168
2365.000000 0.8172 0.8178 0.8183 0.8188 0.8193
2370.000000 0.8198 0.8203 0.8208 0.8213 0.8218
2375.000000 0.8223 0.8228 0.8232 0.8237 0.8242
2380.000000 0.8247 0.8252 0.8257 0.8261 0.8265
2385.000000 0.8268 0.8273 0.8275 0.8280 0.8284
2390.000000 0.8288 0.8291 0.8295 0.8299 0.8303
2395.000000 0.8306 0.8310 0.8314 0.8318 0.8321
2400.000000 0.8325 0.8325 0.8327 0.8327 0.8328
2405.000000 0.8328 0.8328 0.8328 0.8328 0.8328
2410.000000 0.8328 0.8328 0.8328 0.8328 0.8330
2415.000000 0.8330 0.8330 0.8330 0.8331 0.8331
2420.000000 0.8331 0.8331 0.8331 0.8330 0.8330
2425.000000 0.8328 0.8328 0.8327 0.8325 0.8325
2430.000000 0.8324 0.8323 0.8321 0.8320 0.8318
2435.000000 0.8318 0.8317 0.8316 0.8315 0.8314
2440.000000 0.8313 0.8312 0.8311 0.8310 0.8309
2445.000000 0.8307 0.8307 0.8307 0.8308 0.8309
2450.000000 0.8310 0.8311 0.8312 0.8313 0.8314
2455.000000 0.8314 0.8315 0.8316 0.8317 0.8318
2460.000000 0.8318 0.8320 0.8321 0.8321 0.8321
2465.000000 0.8323 0.8324 0.8325 0.8325 0.8325
2470.000000 0.8324 0.8323 0.8321 0.8320 0.8318
2475.000000 0.8318 0.8317 0.8316 0.8315 0.8314
2480.000000 0.8313 0.8311 0.8310 0.8309 0.8308
2485.000000 0.8307 0.8306 0.8305 0.8304 0.8303
2490.000000 0.8302 0.8301 0.8300 0.8298 0.8297
2495.000000 0.8296 0.8295 0.8294 0.8293 0.8292
2500.000000 0.8291 0.8289 0.8288 0.8286 0.8285
2505.000000 0.8283 0.8282 0.8280 0.8278 0.8277
2510.000000 0.8275 0.8273 0.8271 0.8270 0.8268
2515.000000 0.8267 0.8266 0.8264 0.8263 0.8261
2520.000000 0.8260 0.8258 0.8257 0.8255 0.8254
2525.000000 0.8252 0.8251 0.8249 0.8248 0.8246
2530.000000 0.8244 0.8242 0.8241 0.8239 0.8238
2535.000000 0.8236 0.8235 0.8233 0.8232 0.8230
2540.000000 0.8228 0.8227 0.8225 0.8224 0.8223
2545.000000 0.8221 0.8218 0.8216 0.8214 0.8211
2550.000000 0.8209 0.8206 0.8204 0.8202 0.8200
2555.000000 0.8197 0.8195 0.8192 0.8190 0.8187
2560.000000 0.8185 0.8182 0.8180 0.8178 0.8175
2565.000000 0.8172 0.8171 0.8168 0.8165 0.8162
2570.000000 0.8161 0.8158 0.8156 0.8154 0.8151
2575.000000 0.8149 0.8147 0.8144 0.8142 0.8139
2580.000000 0.8137 0.8134 0.8132 0.8130 0.8128
2585.000000 0.8125 0.8124 0.8121 0.8119 0.8118
2590.000000 0.8115 0.8114 0.8111 0.8110 0.8108
2595.000000 0.8106 0.8104 0.8101 0.8101 0.8099
2600.000000 0.8097 0.8095 0.8093 0.8091 0.8089
2605.000000 0.8087 0.8086 0.8086 0.8086 0.8086
2610.000000 0.8087 0.8087 0.8088 0.8088 0.8089
2615.000000 0.8089 0.8090 0.8090 0.8091 0.8091
2620.000000 0.8092 0.8092 0.8092 0.8092 0.8092
2625.000000 0.8092 0.8091 0.8088 0.8086 0.8083
2630.000000 0.8081 0.8078 0.8075 0.8074 0.8071
2635.000000 0.8068 0.8067 0.8064 0.8061 0.8057
2640.000000 0.8053 0.8048 0.8044 0.8039 0.8034
2645.000000 0.8028 0.8025 0.8019 0.8015 0.8008
2650.000000 0.8001 0.7993 0.7985 0.7975 0.7968
2655.000000 0.7958 0.7951 0.7943 0.7935 0.7925
2660.000000 0.7918 0.7908 0.7901 0.7893 0.7885
2665.000000 0.7874 0.7862 0.7851 0.7841 0.7830
2670.000000 0.7818 0.7808 0.7797 0.7786 0.7775
2675.000000 0.7764 0.7753 0.7742 0.7731 0.7717
2680.000000 0.7704 0.7684 0.7664 0.7644 0.7625
2685.000000 0.7605 0.7585 0.7565 0.7546 0.7521
2690.000000 0.7498 0.7468 0.7438 0.7411 0.7384
2695.000000 0.7358 0.7335 0.7321 0.7284 0.7310
2700.000000 0.7310 0.7311 0.7311 0.7315 0.7321
2705.000000 0.7335 0.7350 0.7375 0.7403 0.7433
2710.000000 0.7464 0.7493 0.7522 0.7550 0.7578
2715.000000 0.7603 0.7628 0.7651 0.7675 0.7684
2720.000000 0.7692 0.7694 0.7695 0.7696 0.7714
2725.000000 0.7692 0.7690 0.7686 0.7683 0.7678
2730.000000 0.7672 0.7665 0.7657 0.7647 0.7637
2735.000000 0.7626 0.7617 0.7605 0.7593 0.7578
2740.000000 0.7565 0.7545 0.7525 0.7499 0.7474
2745.000000 0.7440 0.7407 0.7358 0.7308 0.7256
2750.000000 0.7203 0.7147 0.7092 0.7026 0.6961
2755.000000 0.6876 0.6792 0.6721 0.6651 0.6584
2760.000000 0.6515 0.6444 0.6372 0.6295 0.6219
2765.000000 0.6123 0.6027 0.5931 0.5835 0.5737
2770.000000 0.5639 0.5510 0.5383 0.5199 0.5015
2775.000000 0.4788 0.4560 0.4293 0.4026 0.3904
2780.000000 0.3782 0.3509 0.3237 0.2964 0.2692
2785.000000 0.2419 0.2146 0.1909 0.1672 0.1592
2790.000000 0.1514 0.1453 0.1392 0.1388 0.1383
2795.000000 0.1383 0.1383 0.1383 0.1383 0.1573
2800.000000 0.1763 0.1985 0.2210 0.2433 0.2657
2805.000000 0.2881 0.3105 0.3328 0.3552 0.3775
2810.000000 0.3998 0.4003 0.4009 0.4014 0.4054
2815.000000 0.4023 0.4028 0.3991 0.3954 0.3880
2820.000000 0.3808 0.3734 0.3662 0.3589 0.3516
2825.000000 0.3462 0.3409 0.3407 0.3407 0.3408
2830.000000 0.3410 0.3412 0.3416 0.3418 0.3421
2835.000000 0.3426 0.3430 0.3422 0.3414 0.3308
2840.000000 0.3203 0.3097 0.2992 0.2885 0.2781
2845.000000 0.2675 0.2570 0.2464 0.2359 0.2306
2850.000000 0.2288 0.2254 0.2254 0.2312 0.2370
2855.000000 0.2458 0.2547 0.2634 0.2723 0.2811
2860.000000 0.2899 0.2987 0.3076 0.3164 0.3252
2865.000000 0.3324 0.3396 0.3395 0.3394 0.3392
2870.000000 0.3390 0.3387 0.3384 0.3382 0.3380
2875.000000 0.3376 0.3373 0.3368 0.3364 0.3362
2880.000000 0.3362 0.3360 0.3359 0.3359 0.3360
2885.000000 0.3360 0.3362 0.3364 0.3366 0.3368
2890.000000 0.3373 0.3379 0.3386 0.3452 0.3518
2895.000000 0.3584 0.3650 0.3716 0.3784 0.3850
2900.000000 0.3916 0.3982 0.4050 0.4082 0.4114
2905.000000 0.4109 0.4105 0.4099 0.4133 0.4086
2910.000000 0.4080 0.4055 0.4030 0.3994 0.3957
2915.000000 0.3922 0.3887 0.3859 0.3834 0.3810
2920.000000 0.3788 0.3766 0.3746 0.3730 0.3716
2925.000000 0.3702 0.3687 0.3672 0.3658 0.3632
2930.000000 0.3607 0.3577 0.3547 0.3484 0.3424
2935.000000 0.3334 0.3247 0.3147 0.3047 0.2977
2940.000000 0.2888 0.2912 0.2918 0.2926 0.2934
2945.000000 0.3084 0.3232 0.3282 0.3332 0.3346
2950.000000 0.3359 0.3372 0.3384 0.3394 0.3405
2955.000000 0.3512 0.3620 0.3727 0.3834 0.3941
2960.000000 0.4049 0.4156 0.4264 0.4371 0.4478
2965.000000 0.4585 0.4693 0.4728 0.4766 0.4748
2970.000000 0.4733 0.4614 0.4496 0.4377 0.4259
2975.000000 0.4141 0.4023 0.3904 0.3786 0.3732
2980.000000 0.3658 0.3716 0.3754 0.3934 0.4117
2985.000000 0.4298 0.4480 0.4660 0.4843 0.5024
2990.000000 0.5206 0.5387 0.5569 0.5750 0.5932
2995.000000 0.6112 0.6295 0.6460 0.6625 0.6628
3000.000000 0.6628 0.6628 0.6628 0.6625 0.6621
3005.000000 0.6617 0.6612 0.6607 0.6601 0.6590
3010.000000 0.6580 0.6569 0.6560 0.6550 0.6540
3015.000000 0.6528 0.6517 0.6500 0.6483 0.6352
3020.000000 0.6222 0.6010 0.5801 0.5590 0.5380
3025.000000 0.5169 0.4959 0.4748 0.4538 0.4327
3030.000000 0.4117 0.3906 0.3696 0.3484 0.3274
3035.000000 0.3226 0.3178 0.3182 0.3187 0.3259
3040.000000 0.3194 0.3526 0.3721 0.3914 0.4110
3045.000000 0.4304 0.4499 0.4693 0.4888 0.5082
3050.000000 0.5277 0.5471 0.5666 0.5860 0.6272
3055.000000 0.6141 0.6228 0.6222 0.6217 0.6148
3060.000000 0.6079 0.5917 0.5756 0.5594 0.5433
3065.000000 0.5271 0.5110 0.4948 0.4787 0.4625
3070.000000 0.4464 0.4335 0.4203 0.4207 0.4207
3075.000000 0.4291 0.4376 0.4638 0.4900 0.5162
3080.000000 0.5425 0.5687 0.5949 0.6056 0.6147
3085.000000 0.6112 0.6060 0.5960 0.5862 0.5764
3090.000000 0.5666 0.5567 0.5469 0.5370 0.5272
3095.000000 0.5173 0.5075 0.5074 0.5066 0.5439
3100.000000 0.5806 0.6371 0.6936 0.7135 0.7334
3105.000000 0.7334 0.7334 0.7337 0.7340 0.7342
3110.000000 0.7345 0.7350 0.7356 0.7367 0.7378
3115.000000 0.7405 0.7432 0.7464 0.7496 0.7528
3120.000000 0.7562 0.7612 0.7664 0.7746 0.7828
3125.000000 0.7864 0.7899 0.7922 0.7947 0.7964
3130.000000 0.7981 0.7991 0.8001 0.8011 0.8022
3135.000000 0.8030 0.8038 0.8040 0.8042 0.8043
3140.000000 0.8044 0.8044 0.8044 0.8044 0.8044
3145.000000 0.8044 0.8044 0.8044 0.8044 0.8043
3150.000000 0.8042 0.8039 0.8037 0.8034 0.8032
3155.000000 0.8028 0.8026 0.8024 0.8021 0.8018
3160.000000 0.8015 0.8012 0.8011 0.8008 0.8006
3165.000000 0.8005 0.8005 0.8005 0.8006 0.8007
3170.000000 0.8008 0.8011 0.8017 0.8021 0.8025
3175.000000 0.8030 0.8034 0.8037 0.8041 0.8044
3180.000000 0.8047 0.8050 0.8053 0.8056 0.8060
3185.000000 0.8062 0.8065 0.8068 0.8072 0.8075
3190.000000 0.8080 0.8083 0.8087 0.8090 0.8093
3195.000000 0.8095 0.8097 0.8099 0.8101 0.8104
3200.000000 0.8106 0.8108 0.8110 0.8111 0.8076
3205.000000 0.8115 0.8118 0.8121 0.8122 0.8125
3210.000000 0.8126 0.8128 0.8131 0.8133 0.8136
3215.000000 0.8137 0.8138 0.8138 0.8139 0.8139
3220.000000 0.8140 0.8141 0.8142 0.8142 0.8143
3225.000000 0.8143 0.8143 0.8143 0.8142 0.8140
3230.000000 0.8139 0.8137 0.8135 0.8133 0.8132
3235.000000 0.8128 0.8126 0.8121 0.8118 0.8112
3240.000000 0.8108 0.8105 0.8101 0.8096 0.8092
3245.000000 0.8087 0.8083 0.8078 0.8074 0.8068
3250.000000 0.8065 0.8058 0.8054 0.8049 0.8044
3255.000000 0.8039 0.8034 0.8028 0.8022 0.8018
3260.000000 0.8012 0.8007 0.8001 0.7995 0.7990
3265.000000 0.7984 0.7978 0.7971 0.7967 0.7961
3270.000000 0.7955 0.7949 0.7944 0.7941 0.7938
3275.000000 0.7936 0.7935 0.7933 0.7931 0.7928
3280.000000 0.7926 0.7925 0.7924 0.7921 0.7919
3285.000000 0.7918 0.7915 0.7915 0.7915 0.7915
3290.000000 0.7915 0.7915 0.7915 0.7915 0.7915
3295.000000 0.7915 0.7915 0.7915 0.7915 0.7915
3300.000000 0.7915 0.7915 0.7915 0.7915 0.7917
3305.000000 0.7917 0.7917 0.7917 0.7917 0.7917
3310.000000 0.7917 0.7917 0.7917 0.7917 0.7917
3315.000000 0.7911 0.7906 0.7900 0.7894 0.7888
3320.000000 0.7882 0.7875 0.7869 0.7861 0.7853
3325.000000 0.7842 0.7832 0.7821 0.7811 0.7801
3330.000000 0.7791 0.7780 0.7769 0.7758 0.7747
3335.000000 0.7734 0.7721 0.7711 0.7701 0.7700
3340.000000 0.7700 0.7700 0.7700 0.7701 0.7701
3345.000000 0.7704 0.7706 0.7712 0.7719 0.7726
3350.000000 0.7734 0.7742 0.7750 0.7758 0.7768
3355.000000 0.7778 0.7788 0.7797 0.7806 0.7815
3360.000000 0.7825 0.7833 0.7842 0.7850 0.7858
3365.000000 0.7865 0.7874 0.7881 0.7889 0.7897
3370.000000 0.7905 0.7912 0.7921 0.7928 0.7936
3375.000000 0.7944 0.7951 0.7960 0.7968 0.7975
3380.000000 0.7983 0.7991 0.7999 0.8007 0.8015
3385.000000 0.8021 0.8028 0.8036 0.8043 0.8050
3390.000000 0.8057 0.8064 0.8071 0.8078 0.8086
3395.000000 0.8093 0.8100 0.8107 0.8114 0.8121
3400.000000 0.8128 0.8135 0.8142 0.8149 0.8156
3405.000000 0.8162 0.8169 0.8176 0.8184 0.8191
3410.000000 0.8198 0.8205 0.8212 0.8218 0.8227
3415.000000 0.8234 0.8241 0.8248 0.8255 0.8262
3420.000000 0.8268 0.8275 0.8283 0.8289 0.8296
3425.000000 0.8299 0.8302 0.8305 0.8309 0.8312
3430.000000 0.8316 0.8318 0.8323 0.8325 0.8328
3435.000000 0.8332 0.8336 0.8339 0.8343 0.8346
3440.000000 0.8349 0.8352 0.8356 0.8359 0.8363
3445.000000 0.8365 0.8367 0.8368 0.8371 0.8374
3450.000000 0.8375 0.8378 0.8380 0.8382 0.8385
3455.000000 0.8387 0.8389 0.8391 0.8393 0.8395
3460.000000 0.8398 0.8400 0.8402 0.8404 0.8407
3465.000000 0.8409 0.8411 0.8413 0.8415 0.8417
3470.000000 0.8420 0.8421 0.8424 0.8425 0.8428
3475.000000 0.8431 0.8433 0.8435 0.8437 0.8439
3480.000000 0.8442 0.8443 0.8445 0.8446 0.8448
3485.000000 0.8449 0.8451 0.8452 0.8454 0.8455
3490.000000 0.8457 0.8458 0.8460 0.8461 0.8463
3495.000000 0.8464 0.8466 0.8467 0.8468 0.8471
3500.000000 0.8473 0.8474 0.8475 0.8477 0.8478
3505.000000 0.8480 0.8482 0.8483 0.8485 0.8486
3510.000000 0.8488 0.8489 0.8491 0.8492 0.8494
3515.000000 0.8495 0.8497 0.8498 0.8500 0.8501
3520.000000 0.8503 0.8504 0.8505 0.8505 0.8506
3525.000000 0.8506 0.8507 0.8507 0.8508 0.8508
3530.000000 0.8509 0.8509 0.8510 0.8510 0.8511
3535.000000 0.8511 0.8512 0.8512 0.8513 0.8513
3540.000000 0.8514 0.8514 0.8515 0.8515 0.8516
3545.000000 0.8516 0.8517 0.8518 0.8518 0.8518
3550.000000 0.8520 0.8520 0.8521 0.8521 0.8521
3555.000000 0.8521 0.8523 0.8523 0.8524 0.8524
3560.000000 0.8525 0.8525 0.8525 0.8525 0.8527
3565.000000 0.8527 0.8528 0.8528 0.8528 0.8528
3570.000000 0.8528 0.8528 0.8528 0.8528 0.8528
3575.000000 0.8528 0.8528 0.8528 0.8528 0.8528
3580.000000 0.8528 0.8528 0.8528 0.8528 0.8528
3585.000000 0.8528 0.8528 0.8528 0.8528 0.8528
3590.000000 0.8528 0.8528 0.8528 0.8528 0.8528
3595.000000 0.8528 0.8528 0.8528 0.8528 0.8528
3600.000000 0.8528 0.8528 0.8528 0.8528 0.8528
3605.000000 0.8528 0.8528 0.8528 0.8528 0.8528
3610.000000 0.8528 0.8528 0.8528 0.8528 0.8528
3615.000000 0.8528 0.8528 0.8528 0.8528 0.8528
3620.000000 0.8528 0.8528 0.8528 0.8528 0.8528
3625.000000 0.8528 0.8528 0.8527 0.8527 0.8527
3630.000000 0.8527 0.8527 0.8527 0.8527 0.8527
3635.000000 0.8524 0.8521 0.8518 0.8517 0.8515
3640.000000 0.8513 0.8510 0.8508 0.8506 0.8504
3645.000000 0.8501 0.8499 0.8497 0.8495 0.8492
3650.000000 0.8490 0.8488 0.8486 0.8482 0.8505
3655.000000 0.8474 0.8470 0.8465 0.8461 0.8456
3660.000000 0.8452 0.8446 0.8441 0.8435 0.8428
3665.000000 0.8421 0.8416 0.8407 0.8398 0.8389
3670.000000 0.8380 0.8368 0.8359 0.8346 0.8334
3675.000000 0.8323 0.8312 0.8311 0.8311 0.8310
3680.000000 0.8309 0.8318 0.8328 0.8337 0.8347
3685.000000 0.8365 0.8383 0.8403 0.8423 0.8438
3690.000000 0.8453 0.8462 0.8471 0.8482 0.8492
3695.000000 0.8501 0.8511 0.8521 0.8531 0.8540
3700.000000 0.8550 0.8552 0.8554 0.8555 0.8555
3705.000000 0.8554 0.8553 0.8551 0.8550 0.8548
3710.000000 0.8547 0.8545 0.8544 0.8543 0.8543
3715.000000 0.8542 0.8542 0.8541 0.8541 0.8540
3720.000000 0.8540 0.8539 0.8539 0.8538 0.8538
3725.000000 0.8537 0.8536 0.8535 0.8535 0.8534
3730.000000 0.8534 0.8533 0.8533 0.8532 0.8532
3735.000000 0.8531 0.8531 0.8531 0.8531 0.8531
3740.000000 0.8531 0.8530 0.8530 0.8530 0.8530
3745.000000 0.8530 0.8530 0.8530 0.8530 0.8528
3750.000000 0.8528 0.8528 0.8528 0.8528 0.8528
3755.000000 0.8528 0.8528 0.8528 0.8528 0.8530
3760.000000 0.8533 0.8536 0.8540 0.8543 0.8547
3765.000000 0.8550 0.8553 0.8556 0.8560 0.8563
3770.000000 0.8567 0.8568 0.8571 0.8573 0.8575
3775.000000 0.8577 0.8578 0.8581 0.8583 0.8585
3780.000000 0.8587 0.8589 0.8591 0.8592 0.8594
3785.000000 0.8596 0.8598 0.8599 0.8601 0.8603
3790.000000 0.8605 0.8606 0.8608 0.8610 0.8612
3795.000000 0.8613 0.8615 0.8616 0.8618 0.8618
3800.000000 0.8620
##END=
