##TITLE=ACETANILIDE
##JCAMP-DX=4.24
##DATA TYPE=INFRARED SPECTRUM
##CLASS=COBLENTZ III
##ORIGIN=DOW CORNING CORP.
##OWNER=COBLENTZ SOCIETY
Collection (C) 2018 copyright by the U.S. Secretary of Commerce
on behalf of the United States of America. All rights reserved.
##DATE=1966/12/07
##NAMES=N-phenylacetamide
##CAS REGISTRY NO=103-84-4
##MOLFORM=C8 H9 N O
##MP=110 C
##SOURCE REFERENCE=COBLENTZ NO. 5575
##$NIST SOURCE=COBLENTZ
##$NIST IMAGE=cob5575
##SPECTROMETER/DATA SYSTEM=PERKIN-ELMER 521 (GRATING)
##INSTRUMENT PARAMETERS=FILTERS AT 3150, 2500, 2000, 1150, 700, 410. GRATING CHANGES: 2000, 630 CM^-^1
##STATE=SOLID (SPLIT MULL)
##SAMPLING PROCEDURE=TRANSMISSION
##RESOLUTION=2
##DATA PROCESSING=DIGITIZED BY NIST FROM HARD COPY (FROM TWO SEGMENTS)
##XUNITS=1/CM
##YUNITS=TRANSMITTANCE
##XFACTOR=1.000000
##YFACTOR=1
##DELTAX=0.924322
##FIRSTX=250.26
##LASTX=3803.35
##FIRSTY=0.805
##MAXX=3803.35
##MINX=250.26
##MAXY=0.988
##MINY=0.018
##NPOINTS=3845
##XYDATA=(X++(Y..Y))
250.260000 0.8050 0.8120 0.8170 0.8220 0.8250
254.881610 0.8280 0.8300 0.8320 0.8350 0.8430
259.503219 0.8500 0.8520 0.8560 0.8580 0.8600
264.124829 0.8670 0.8750 0.8780 0.8800 0.8810
268.746439 0.8850 0.8880 0.8920 0.8930 0.8950
273.368048 0.9020 0.9020 0.9080 0.9120 0.9180
277.989658 0.9230 0.9310 0.9400 0.9460 0.9480
282.611268 0.9530 0.9530 0.9550 0.9550 0.9570
287.232878 0.9620 0.9630 0.9630 0.9650 0.9660
291.854487 0.9660 0.9660 0.9670 0.9670 0.9670
296.476097 0.9670 0.9700 0.9710 0.9730 0.9770
301.097707 0.9780 0.9800 0.9810 0.9810 0.9820
305.719316 0.9830 0.9830 0.9850 0.9860 0.9860
310.340926 0.9870 0.9870 0.9870 0.9870 0.9870
314.962536 0.9870 0.9870 0.9850 0.9820 0.9800
319.584145 0.9780 0.9760 0.9720 0.9680 0.9630
324.205755 0.9630 0.9680 0.9760 0.9830 0.9830
328.827365 0.9810 0.9750 0.9730 0.9670 0.9670
333.448974 0.9660 0.9560 0.9380 0.9110 0.8631
338.070584 0.8062 0.7771 0.7491 0.6912 0.6323
342.692194 0.6320 0.6770 0.7200 0.8019 0.8379
347.313804 0.8659 0.8849 0.8970 0.9030 0.9100
351.935413 0.9110 0.9120 0.9160 0.9160 0.9160
356.557023 0.9150 0.9120 0.9020 0.8910 0.8800
361.178633 0.8680 0.8570 0.8460 0.8350 0.8210
365.800242 0.8110 0.8080 0.8100 0.8210 0.8320
370.421852 0.8630 0.8820 0.8960 0.9070 0.9260
375.043462 0.9529 0.9650 0.9710 0.9730 0.9760
379.665071 0.9810 0.9850 0.9860 0.9870 0.9880
384.286681 0.9880 0.9880 0.9880 0.9880 0.9860
388.908291 0.9820 0.9780 0.9760 0.9730 0.9710
393.529900 0.9680 0.9660 0.9630 0.9630 0.9730
398.151510 0.9850 0.9830 0.9810 0.9720 0.9710
402.773120 0.9650 0.9580 0.9560 0.9570 0.9580
407.394730 0.9610 0.9660 0.9580 0.9570 0.9560
412.016339 0.9580 0.9660 0.9670 0.9610 0.9550
416.637949 0.9450 0.9430 0.9460 0.9600 0.9750
421.259559 0.9770 0.9810 0.9810 0.9820 0.9830
425.881168 0.9830 0.9830 0.9830 0.9830 0.9830
430.502778 0.9810 0.9760 0.9730 0.9710 0.9710
435.124388 0.9710 0.9710 0.9700 0.9700 0.9670
439.745997 0.9670 0.9670 0.9670 0.9670 0.9670
444.367607 0.9670 0.9660 0.9650 0.9630 0.9620
448.989217 0.9600 0.9550 0.9530 0.9530 0.9530
453.610826 0.9530 0.9550 0.9560 0.9560 0.9570
458.232436 0.9570 0.9560 0.9560 0.9550 0.9550
462.854046 0.9530 0.9530 0.9520 0.9520 0.9510
467.475656 0.9500 0.9480 0.9470 0.9460 0.9450
472.097265 0.9420 0.9420 0.9410 0.9410 0.9400
476.718875 0.9370 0.9360 0.9350 0.9330 0.9320
481.340485 0.9310 0.9300 0.9220 0.9160 0.9130
485.962094 0.9130 0.9120 0.9110 0.9100 0.9060
490.583704 0.9050 0.9020 0.9000 0.8950 0.8800
495.205314 0.8660 0.8630 0.8560 0.8480 0.8131
499.826923 0.6920 0.5711 0.4491 0.4181 0.3871
504.448533 0.3571 0.3251 0.3101 0.2941 0.2641
509.070143 0.2330 0.2020 0.2020 0.3468 0.6185
513.691752 0.7098 0.8027 0.8349 0.8430 0.8520
518.313362 0.8620 0.8650 0.8630 0.8610 0.8520
522.934972 0.8360 0.8171 0.7871 0.7203 0.6513
527.556581 0.5760 0.5000 0.4390 0.3791 0.3490
532.178191 0.3191 0.2582 0.3437 0.5642 0.6367
536.799801 0.6850 0.7300 0.7570 0.7889 0.8100
541.421411 0.8120 0.8150 0.8170 0.8250 0.8280
546.043020 0.8350 0.8410 0.8480 0.8620 0.8720
550.664630 0.8830 0.8830 0.8910 0.9020 0.9050
555.286240 0.9070 0.9100 0.9120 0.9170 0.9180
559.907849 0.9180 0.9200 0.9200 0.9200 0.9200
564.529459 0.9200 0.9200 0.9200 0.9180 0.9200
569.151069 0.9200 0.9180 0.9180 0.9170 0.9150
573.772678 0.9130 0.9120 0.9120 0.9110 0.9110
578.394288 0.9080 0.9060 0.9030 0.9010 0.8980
583.015898 0.8970 0.8950 0.8920 0.8900 0.8860
587.637507 0.8800 0.8750 0.8630 0.8530 0.8450
592.259117 0.8170 0.8060 0.7920 0.7491 0.7041
596.880727 0.6272 0.5502 0.5131 0.4742 0.3974
601.502337 0.3970 0.4710 0.6968 0.7899 0.8080
606.123946 0.8080 0.8150 0.8200 0.8220 0.8310
610.745556 0.8320 0.8320 0.8310 0.8250 0.8100
615.367166 0.8070 0.7890 0.7691 0.8308 0.8430
619.988775 0.8530 0.8550 0.8570 0.8600 0.8620
624.610385 0.8620 0.8620 0.8610 0.8580 0.8570
629.231995 0.8550 0.8530 0.8520 0.8510 0.8500
633.853604 0.8480 0.8470 0.8460 0.8430 0.8410
638.475214 0.8400 0.8370 0.8350 0.8320 0.8310
643.096824 0.8280 0.8260 0.8250 0.8220 0.8210
647.718433 0.8200 0.8170 0.8120 0.8070 0.7990
652.340043 0.7950 0.7940 0.7920 0.7800 0.7750
656.961653 0.7690 0.7570 0.7440 0.7260 0.6491
661.583263 0.6121 0.5761 0.5760 0.5999 0.6249
666.204872 0.6500 0.6720 0.6860 0.7010 0.7070
670.826482 0.7310 0.7370 0.7390 0.7410 0.7549
675.448092 0.7550 0.7520 0.7460 0.7420 0.7290
680.069701 0.7260 0.7190 0.7110 0.7010 0.6791
684.691311 0.6590 0.6360 0.6250 0.6110 0.5501
689.312921 0.4881 0.4661 0.3105 0.1536 0.0992
693.934530 0.0930 0.0860 0.0730 0.0630 0.0610
698.556140 0.0620 0.1308 0.1978 0.4491 0.4530
703.177750 0.4750 0.4990 0.5190 0.5300 0.5400
707.799359 0.5440 0.5480 0.5450 0.5360 0.5300
712.420969 0.5230 0.5150 0.5110 0.4980 0.4830
717.042579 0.4700 0.4541 0.4430 0.4231 0.4091
721.664189 0.4010 0.3970 0.3930 0.3840 0.3790
726.285798 0.3730 0.3680 0.3590 0.3500 0.3371
730.907408 0.3290 0.3230 0.3170 0.3100 0.2970
735.529018 0.2830 0.2670 0.2580 0.2431 0.2241
740.150627 0.2040 0.1830 0.1610 0.1410 0.1220
744.772237 0.1070 0.0890 0.0721 0.0590 0.0441
749.393847 0.0280 0.0230 0.0210 0.0210 0.0190
754.015456 0.0190 0.0180 0.0180 0.0190 0.0190
758.637066 0.0210 0.0220 0.0240 0.0270 0.0320
763.258676 0.0440 0.0520 0.0610 0.0759 0.1059
767.880285 0.1210 0.1410 0.1610 0.2099 0.2529
772.501895 0.2889 0.3478 0.3699 0.3899 0.4059
777.123505 0.4210 0.4340 0.4460 0.4590 0.4710
781.745115 0.4850 0.5000 0.5130 0.5150 0.5250
786.366724 0.5380 0.5500 0.5580 0.5630 0.5700
790.988334 0.5780 0.5840 0.5900 0.5980 0.6040
795.609944 0.6100 0.6160 0.6220 0.6290 0.6350
800.231553 0.6400 0.6470 0.6500 0.6560 0.6610
804.853163 0.6640 0.6690 0.6720 0.6760 0.6790
809.474773 0.6800 0.6810 0.6840 0.6850 0.6850
814.096382 0.6840 0.6820 0.6810 0.6820 0.6820
818.717992 0.6820 0.6820 0.6840 0.6850 0.6850
823.339602 0.6860 0.6860 0.6860 0.6870 0.6870
827.961211 0.6850 0.6810 0.6770 0.6571 0.6550
832.582821 0.6370 0.6140 0.5810 0.5500 0.5350
837.204431 0.5190 0.4881 0.4880 0.5837 0.5960
841.826041 0.6020 0.6010 0.6000 0.5631 0.5430
846.447650 0.5211 0.4811 0.4431 0.4430 0.5973
851.069260 0.6340 0.6640 0.6850 0.6940 0.7040
855.690870 0.7110 0.7170 0.7190 0.7220 0.7250
860.312479 0.7290 0.7340 0.7350 0.7350 0.7350
864.934089 0.7350 0.7340 0.7340 0.7340 0.7340
869.555699 0.7350 0.7360 0.7360 0.7360 0.7360
874.177308 0.7360 0.7360 0.7350 0.7350 0.7340
878.798918 0.7310 0.7310 0.7300 0.7260 0.7240
883.420528 0.7190 0.7120 0.7100 0.7070 0.7040
888.042137 0.6940 0.6860 0.6810 0.6720 0.6650
892.663747 0.6570 0.6520 0.6490 0.6410 0.6261
897.285357 0.6090 0.5980 0.5880 0.5560 0.5161
901.906967 0.4761 0.4142 0.3522 0.3221 0.2901
906.528576 0.2280 0.2280 0.2940 0.4149 0.6087
911.150186 0.6389 0.6470 0.6550 0.6620 0.6650
915.771796 0.6700 0.6760 0.6820 0.6920 0.6970
920.393405 0.7040 0.7050 0.7070 0.7090 0.7090
925.015015 0.7100 0.7100 0.7090 0.7070 0.7060
929.636625 0.7050 0.7040 0.7010 0.6990 0.6950
934.258234 0.6940 0.6920 0.6900 0.6890 0.6860
938.879844 0.6850 0.6820 0.6720 0.6670 0.6640
943.501454 0.6590 0.6560 0.6560 0.6540 0.6360
948.123063 0.6101 0.5791 0.5501 0.5400 0.5290
952.744673 0.5230 0.5200 0.5190 0.5090 0.4910
957.366283 0.4311 0.3721 0.3102 0.2323 0.2320
961.987893 0.3930 0.4010 0.4230 0.4630 0.5000
966.609502 0.5689 0.5790 0.5800 0.5830 0.5910
971.231112 0.5960 0.6110 0.6120 0.6140 0.6150
975.852722 0.6170 0.6160 0.6140 0.5931 0.5830
980.474331 0.5750 0.5750 0.5930 0.6060 0.6050
985.095941 0.6020 0.5980 0.5980 0.5960 0.5930
989.717551 0.5890 0.5560 0.5440 0.5310 0.4990
994.339160 0.4311 0.3602 0.3251 0.2901 0.2900
998.960770 0.4230 0.4350 0.5240 0.5450 0.5450
1003.582380 0.4961 0.4441 0.4001 0.3671 0.3282
1008.203989 0.3080 0.2880 0.2490 0.2090 0.2090
1012.825599 0.2340 0.2540 0.2739 0.2939 0.3468
1017.447209 0.3740 0.3880 0.3950 0.4150 0.4699
1022.068818 0.4850 0.4960 0.5000 0.4990 0.4980
1026.690428 0.4940 0.4700 0.4460 0.4300 0.3941
1031.312038 0.3631 0.3391 0.3300 0.3220 0.3120
1035.933648 0.3080 0.2980 0.2750 0.2570 0.2320
1040.555257 0.2320 0.2879 0.3388 0.3520 0.4028
1045.176867 0.4490 0.4830 0.5100 0.5510 0.5680
1049.798477 0.5810 0.5960 0.6090 0.6200 0.6260
1054.420086 0.6350 0.6360 0.6390 0.6400 0.6420
1059.041696 0.6440 0.6460 0.6460 0.6460 0.6460
1063.663306 0.6460 0.6460 0.6450 0.6440 0.6440
1068.284915 0.6420 0.6410 0.6340 0.6191 0.6071
1072.906525 0.5930 0.5780 0.5580 0.5480 0.5380
1077.528135 0.5190 0.5040 0.4791 0.4790 0.5258
1082.149744 0.6060 0.6400 0.6520 0.6600 0.6640
1086.771354 0.6650 0.6650 0.6660 0.6690 0.6700
1091.392964 0.6700 0.6710 0.6710 0.6720 0.6710
1096.014574 0.6710 0.6700 0.6670 0.6640 0.6600
1100.636183 0.6570 0.6540 0.6510 0.6470 0.6450
1105.257793 0.6410 0.6400 0.6400 0.6400 0.6420
1109.879403 0.6450 0.6470 0.6500 0.6520 0.6550
1114.501012 0.6570 0.6570 0.6590 0.6590 0.6590
1119.122622 0.6590 0.6590 0.6590 0.6490 0.6460
1123.744232 0.6460 0.6540 0.6540 0.6540 0.6540
1128.365841 0.6520 0.6500 0.6470 0.6450 0.6400
1132.987451 0.6390 0.6390 0.6390 0.6370 0.6350
1137.609061 0.6350 0.6320 0.6290 0.6260 0.6220
1142.230670 0.6200 0.6200 0.6200 0.6200 0.6190
1146.852280 0.6170 0.6160 0.6140 0.6110 0.6060
1151.473890 0.6000 0.5960 0.5910 0.5850 0.5531
1156.095500 0.5350 0.5160 0.4830 0.4830 0.5679
1160.717109 0.5790 0.5810 0.5800 0.5790 0.5760
1165.338719 0.5750 0.5740 0.5740 0.5680 0.5650
1169.960329 0.5580 0.5490 0.5400 0.5310 0.4852
1174.581938 0.4450 0.4010 0.3580 0.3550 0.3350
1179.203548 0.3140 0.5655 0.5899 0.5960 0.5980
1183.825158 0.5980 0.5980 0.5980 0.5930 0.5910
1188.446767 0.5880 0.5830 0.5740 0.5680 0.5650
1193.068377 0.5640 0.5640 0.5630 0.5610 0.5580
1197.689987 0.5540 0.5510 0.5490 0.5440 0.5400
1202.311596 0.5390 0.5380 0.5340 0.5310 0.5310
1206.933206 0.5300 0.5300 0.5290 0.5260 0.5240
1211.554816 0.5210 0.5200 0.5190 0.5200 0.5210
1216.176426 0.5230 0.5230 0.5230 0.5180 0.5110
1220.798035 0.5060 0.4990 0.4910 0.4840 0.4760
1225.419645 0.4690 0.4690 0.4800 0.4890 0.4980
1230.041255 0.5060 0.5080 0.5080 0.5060 0.5040
1234.662864 0.5010 0.4950 0.4940 0.4850 0.4710
1239.284474 0.4600 0.4500 0.4410 0.4340 0.4240
1243.906084 0.4140 0.3990 0.3831 0.3641 0.3521
1248.527693 0.3320 0.3200 0.3080 0.2800 0.2500
1253.149303 0.2181 0.2000 0.1831 0.1591 0.1361
1257.770913 0.1120 0.1010 0.0880 0.0640 0.0370
1262.392522 0.0340 0.0360 0.0520 0.0670 0.0829
1267.014132 0.1892 0.3470 0.3830 0.4150 0.4180
1271.635742 0.4310 0.4450 0.4590 0.4849 0.4860
1276.257352 0.4960 0.5060 0.5160 0.5260 0.5550
1280.878961 0.5760 0.5780 0.5880 0.5960 0.6050
1285.500571 0.6200 0.6250 0.6300 0.6370 0.6460
1290.122181 0.6540 0.6590 0.6620 0.6650 0.6660
1294.743790 0.6660 0.6670 0.6670 0.6700 0.6740
1299.365400 0.6750 0.6760 0.6760 0.6760 0.6770
1303.987010 0.6770 0.6770 0.6770 0.6740 0.6640
1308.608619 0.6540 0.6390 0.5901 0.5701 0.5590
1313.230229 0.5479 0.4950 0.4760 0.4550 0.4340
1317.851839 0.4130 0.3920 0.3701 0.3700 0.4178
1322.473448 0.4410 0.4450 0.4880 0.5789 0.6359
1327.095058 0.8116 0.8130 0.8260 0.8260 0.8270
1331.716668 0.8280 0.8280 0.8280 0.8270 0.8260
1336.338278 0.8250 0.8220 0.8200 0.8160 0.8120
1340.959887 0.8100 0.8080 0.8070 0.8030 0.7990
1345.581497 0.7950 0.7920 0.7890 0.7850 0.7800
1350.203107 0.7750 0.7720 0.7690 0.7600 0.7560
1354.824716 0.7460 0.7350 0.7220 0.7110 0.7020
1359.446326 0.6620 0.6350 0.6020 0.5710 0.5550
1364.067936 0.5390 0.5081 0.5080 0.5309 0.5649
1368.689545 0.5990 0.6300 0.6840 0.7210 0.7390
1373.311155 0.7570 0.7789 0.7790 0.7810 0.7820
1377.932765 0.7820 0.7820 0.7810 0.7790 0.7790
1382.554374 0.7770 0.7760 0.7750 0.7740 0.7720
1387.175984 0.7650 0.7620 0.7640 0.7660 0.7700
1391.797594 0.7700 0.7720 0.7740 0.7750 0.7750
1396.419204 0.7750 0.7740 0.7720 0.7700 0.7670
1401.040813 0.7610 0.7560 0.7540 0.7510 0.7490
1405.662423 0.7440 0.7400 0.7400 0.7370 0.7270
1410.284033 0.7240 0.7050 0.6960 0.6900 0.6810
1414.905642 0.6760 0.6600 0.6490 0.6410 0.6360
1419.527252 0.6260 0.5981 0.5830 0.5700 0.5551
1424.148862 0.5460 0.5380 0.5150 0.4960 0.4710
1428.770471 0.4510 0.4360 0.4151 0.4130 0.4140
1433.392081 0.4290 0.4430 0.4560 0.4660 0.4930
1438.013691 0.5190 0.5609 0.5700 0.5810 0.5890
1442.635300 0.5950 0.6000 0.6060 0.6160 0.6320
1447.256910 0.6560 0.6869 0.7189 0.7340 0.7549
1451.878520 0.7910 0.8070 0.8100 0.8150 0.8160
1456.500130 0.8170 0.8160 0.8100 0.8060 0.7990
1461.121739 0.7950 0.7920 0.7860 0.7840 0.7800
1465.743349 0.7760 0.7740 0.7700 0.7610 0.7520
1470.364959 0.7440 0.7350 0.7290 0.7250 0.7220
1474.986568 0.7100 0.6970 0.6860 0.6710 0.6521
1479.608178 0.6260 0.5990 0.5680 0.5530 0.5360
1484.229788 0.4991 0.4441 0.4440 0.5208 0.5240
1488.851397 0.5861 0.6210 0.6210 0.5980 0.5710
1493.473007 0.5560 0.5410 0.5131 0.4831 0.4531
1498.094617 0.4240 0.4240 0.5689 0.6050 0.6409
1502.716226 0.6759 0.6840 0.7149 0.7160 0.7160
1507.337836 0.7150 0.7110 0.7090 0.7040 0.7000
1511.959446 0.6960 0.6940 0.6910 0.6890 0.6870
1516.581055 0.6790 0.6690 0.6670 0.6620 0.6590
1521.202665 0.6550 0.6490 0.6450 0.6390 0.6350
1525.824275 0.6270 0.6190 0.6150 0.6090 0.6020
1530.445885 0.5960 0.5900 0.5840 0.5780 0.5760
1535.067494 0.5780 0.5800 0.5830 0.5860 0.5940
1539.689104 0.6010 0.6020 0.6010 0.5980 0.5801
1544.310714 0.5700 0.5580 0.5450 0.5310 0.4881
1548.932323 0.4311 0.3751 0.3481 0.3201 0.2642
1553.553933 0.2640 0.2880 0.3340 0.3580 0.3820
1558.175543 0.3970 0.4299 0.5975 0.6837 0.7418
1562.797152 0.7470 0.7820 0.7870 0.7900 0.7910
1567.418762 0.7920 0.7920 0.7920 0.7910 0.7840
1572.040372 0.7810 0.7810 0.7800 0.7810 0.7820
1576.661981 0.7850 0.7860 0.7820 0.7790 0.7740
1581.283591 0.7620 0.7400 0.7160 0.6950 0.6760
1585.905201 0.6640 0.6410 0.5911 0.5611 0.5311
1590.526811 0.4950 0.4550 0.4160 0.3770 0.3370
1595.148420 0.3180 0.2980 0.2980 0.3429 0.3699
1599.770030 0.3940 0.4160 0.4390 0.4610 0.4860
1604.391640 0.5140 0.5589 0.5680 0.5750 0.5850
1609.013249 0.5940 0.6060 0.6190 0.6400 0.6400
1613.634859 0.6160 0.6040 0.5950 0.5950 0.6020
1618.256469 0.6200 0.6420 0.6740 0.7020 0.7090
1622.878078 0.7210 0.7290 0.7340 0.7350 0.7360
1627.499688 0.7360 0.7350 0.7340 0.7310 0.7270
1632.121298 0.7170 0.7110 0.7060 0.6960 0.6850
1636.742907 0.6750 0.6620 0.6510 0.6400 0.6120
1641.364517 0.5880 0.5680 0.5590 0.5490 0.5341
1645.986127 0.5210 0.5090 0.4980 0.4880 0.4780
1650.607737 0.4680 0.4550 0.4151 0.3881 0.3571
1655.229346 0.3270 0.3120 0.2950 0.2650 0.2340
1659.850956 0.2040 0.1731 0.1730 0.1929 0.2099
1664.472566 0.2290 0.2470 0.2690 0.3440 0.4010
1669.094175 0.4330 0.5708 0.6618 0.6760 0.6900
1673.715785 0.7050 0.7260 0.7420 0.7910 0.8050
1678.337395 0.8200 0.8330 0.8460 0.8550 0.8600
1682.959004 0.8730 0.8810 0.8900 0.9060 0.9160
1687.580614 0.9180 0.9200 0.9200 0.9220 0.9270
1692.202224 0.9320 0.9330 0.9350 0.9350 0.9360
1696.823833 0.9360 0.9360 0.9370 0.9400 0.9430
1701.445443 0.9450 0.9470 0.9480 0.9500 0.9510
1706.067053 0.9510 0.9510 0.9520 0.9520 0.9530
1710.688663 0.9530 0.9550 0.9550 0.9560 0.9560
1715.310272 0.9560 0.9560 0.9560 0.9560 0.9560
1719.931882 0.9560 0.9560 0.9560 0.9560 0.9560
1724.553492 0.9550 0.9550 0.9550 0.9530 0.9530
1729.175101 0.9520 0.9520 0.9510 0.9500 0.9500
1733.796711 0.9480 0.9470 0.9470 0.9460 0.9450
1738.418321 0.9450 0.9450 0.9450 0.9430 0.9450
1743.039930 0.9450 0.9460 0.9460 0.9470 0.9470
1747.661540 0.9470 0.9480 0.9500 0.9510 0.9510
1752.283150 0.9510 0.9510 0.9500 0.9500 0.9480
1756.904759 0.9480 0.9470 0.9470 0.9470 0.9470
1761.526369 0.9470 0.9470 0.9470 0.9470 0.9470
1766.147979 0.9470 0.9470 0.9460 0.9460 0.9460
1770.769589 0.9460 0.9460 0.9460 0.9460 0.9460
1775.391198 0.9460 0.9450 0.9450 0.9450 0.9450
1780.012808 0.9430 0.9430 0.9430 0.9420 0.9420
1784.634418 0.9420 0.9410 0.9410 0.9410 0.9400
1789.256027 0.9380 0.9380 0.9380 0.9380 0.9380
1793.877637 0.9370 0.9370 0.9370 0.9370 0.9360
1798.499247 0.9370 0.9370 0.9370 0.9370 0.9370
1803.120856 0.9370 0.9370 0.9370 0.9380 0.9400
1807.742466 0.9400 0.9410 0.9420 0.9420 0.9430
1812.364076 0.9450 0.9450 0.9450 0.9450 0.9450
1816.985685 0.9450 0.9450 0.9450 0.9450 0.9450
1821.607295 0.9430 0.9430 0.9430 0.9430 0.9430
1826.228905 0.9430 0.9430 0.9430 0.9430 0.9430
1830.850515 0.9430 0.9430 0.9430 0.9420 0.9420
1835.472124 0.9410 0.9410 0.9400 0.9400 0.9380
1840.093734 0.9370 0.9380 0.9380 0.9380 0.9380
1844.715344 0.9370 0.9370 0.9370 0.9360 0.9360
1849.336953 0.9360 0.9360 0.9360 0.9350 0.9350
1853.958563 0.9350 0.9350 0.9350 0.9350 0.9350
1858.580173 0.9350 0.9330 0.9330 0.9320 0.9320
1863.201782 0.9300 0.9270 0.9260 0.9250 0.9250
1867.823392 0.9250 0.9260 0.9260 0.9270 0.9270
1872.445002 0.9280 0.9280 0.9300 0.9300 0.9300
1877.066611 0.9300 0.9300 0.9300 0.9300 0.9300
1881.688221 0.9300 0.9310 0.9310 0.9310 0.9320
1886.309831 0.9320 0.9320 0.9320 0.9330 0.9350
1890.931441 0.9360 0.9370 0.9370 0.9370 0.9370
1895.553050 0.9370 0.9360 0.9360 0.9360 0.9350
1900.174660 0.9330 0.9350 0.9350 0.9350 0.9350
1904.796270 0.9360 0.9360 0.9360 0.9350 0.9350
1909.417879 0.9350 0.9350 0.9350 0.9350 0.9330
1914.039489 0.9330 0.9330 0.9330 0.9320 0.9320
1918.661099 0.9320 0.9320 0.9310 0.9310 0.9310
1923.282708 0.9300 0.9300 0.9280 0.9280 0.9280
1927.904318 0.9280 0.9280 0.9280 0.9280 0.9280
1932.525928 0.9280 0.9280 0.9280 0.9270 0.9270
1937.147537 0.9260 0.9260 0.9250 0.9250 0.9220
1941.769147 0.9200 0.9170 0.9160 0.9130 0.9110
1946.390757 0.9080 0.9070 0.9060 0.9060 0.9080
1951.012367 0.9120 0.9160 0.9170 0.9210 0.9220
1955.633976 0.9220 0.9230 0.9250 0.9230 0.9230
1960.255586 0.9220 0.9200 0.9180 0.9170 0.9180
1964.877196 0.9180 0.9210 0.9210 0.9220 0.9220
1969.498805 0.9230 0.9230 0.9250 0.9250 0.9260
1974.120415 0.9260 0.9260 0.9260 0.9260 0.9260
1978.742025 0.9260 0.9260 0.9260 0.9260 0.9260
1983.363634 0.9260 0.9250 0.9250 0.9250 0.9230
1987.985244 0.9250 0.9250 0.9250 0.9250 0.9260
1992.606854 0.9260 0.9260 0.9260 0.9270 0.9270
1997.228463 0.9270 0.9260 0.9250 0.9220 0.9215
2001.850073 0.9210 0.9195 0.9180 0.9170 0.9160
2006.471683 0.9160 0.9160 0.9160 0.9160 0.9155
2011.093292 0.9150 0.9150 0.9150 0.9155 0.9160
2015.714902 0.9160 0.9160 0.9154 0.9151 0.9161
2020.336512 0.9169 0.9164 0.9160 0.9160 0.9160
2024.958122 0.9160 0.9159 0.9154 0.9150 0.9150
2029.579731 0.9150 0.9150 0.9150 0.9150 0.9150
2034.201341 0.9150 0.9148 0.9138 0.9130 0.9130
2038.822951 0.9130 0.9130 0.9130 0.9130 0.9130
2043.444560 0.9130 0.9129 0.9123 0.9120 0.9120
2048.066170 0.9120 0.9120 0.9120 0.9120 0.9120
2052.687780 0.9120 0.9118 0.9113 0.9110 0.9110
2057.309389 0.9110 0.9110 0.9110 0.9110 0.9110
2061.930999 0.9110 0.9108 0.9103 0.9100 0.9100
2066.552609 0.9100 0.9100 0.9095 0.9085 0.9080
2071.174218 0.9080 0.9080 0.9080 0.9080 0.9080
2075.795828 0.9080 0.9080 0.9080 0.9080 0.9080
2080.417438 0.9080 0.9080 0.9080 0.9077 0.9072
2085.039048 0.9070 0.9070 0.9070 0.9070 0.9070
2089.660657 0.9070 0.9070 0.9070 0.9067 0.9062
2094.282267 0.9060 0.9060 0.9060 0.9060 0.9060
2098.903877 0.9060 0.9060 0.9060 0.9057 0.9052
2103.525486 0.9050 0.9050 0.9050 0.9050 0.9050
2108.147096 0.9050 0.9050 0.9050 0.9050 0.9050
2112.768706 0.9042 0.9032 0.9030 0.9030 0.9030
2117.390315 0.9030 0.9026 0.9021 0.9020 0.9020
2122.011925 0.9020 0.9020 0.9016 0.9011 0.9010
2126.633535 0.9010 0.9010 0.9010 0.9006 0.9001
2131.255144 0.9000 0.9000 0.9000 0.9000 0.8991
2135.876754 0.8981 0.8975 0.8970 0.8965 0.8960
2140.498364 0.8960 0.8960 0.8955 0.8950 0.8940
2145.119974 0.8930 0.8930 0.8930 0.8925 0.8920
2149.741583 0.8920 0.8920 0.8920 0.8920 0.8915
2154.363193 0.8910 0.8910 0.8910 0.8910 0.8910
2158.984803 0.8905 0.8900 0.8900 0.8899 0.8889
2163.606412 0.8880 0.8880 0.8880 0.8880 0.8879
2168.228022 0.8874 0.8869 0.8864 0.8860 0.8860
2172.849632 0.8860 0.8860 0.8860 0.8860 0.8860
2177.471241 0.8860 0.8860 0.8860 0.8859 0.8854
2182.092851 0.8850 0.8850 0.8850 0.8850 0.8850
2186.714461 0.8850 0.8850 0.8850 0.8850 0.8850
2191.336070 0.8847 0.8837 0.8830 0.8830 0.8830
2195.957680 0.8830 0.8830 0.8830 0.8828 0.8823
2200.579290 0.8820 0.8820 0.8820 0.8820 0.8820
2205.200900 0.8820 0.8818 0.8813 0.8810 0.8810
2209.822509 0.8810 0.8810 0.8808 0.8803 0.8800
2214.444119 0.8800 0.8795 0.8785 0.8780 0.8780
2219.065729 0.8778 0.8772 0.8770 0.8770 0.8767
2223.687338 0.8762 0.8760 0.8760 0.8757 0.8752
2228.308948 0.8744 0.8734 0.8730 0.8730 0.8727
2232.930558 0.8722 0.8720 0.8720 0.8714 0.8704
2237.552167 0.8700 0.8700 0.8700 0.8700 0.8700
2242.173777 0.8700 0.8693 0.8683 0.8680 0.8680
2246.795387 0.8680 0.8680 0.8677 0.8671 0.8670
2251.416996 0.8670 0.8670 0.8670 0.8666 0.8661
2256.038606 0.8660 0.8660 0.8660 0.8660 0.8656
2260.660216 0.8651 0.8642 0.8632 0.8630 0.8630
2265.281826 0.8630 0.8630 0.8630 0.8630 0.8626
2269.903435 0.8621 0.8620 0.8620 0.8620 0.8620
2274.525045 0.8620 0.8620 0.8620 0.8620 0.8620
2279.146655 0.8620 0.8620 0.8620 0.8620 0.8620
2283.768264 0.8625 0.8630 0.8630 0.8630 0.8630
2288.389874 0.8630 0.8630 0.8630 0.8630 0.8630
2293.011484 0.8630 0.8630 0.8625 0.8620 0.8620
2297.633093 0.8620 0.8620 0.8620 0.8615 0.8610
2302.254703 0.8610 0.8610 0.8605 0.8599 0.8589
2306.876313 0.8580 0.8574 0.8569 0.8564 0.8559
2311.497922 0.8554 0.8549 0.8538 0.8528 0.8518
2316.119532 0.8509 0.8504 0.8498 0.8488 0.8480
2320.741142 0.8480 0.8479 0.8474 0.8470 0.8470
2325.362752 0.8470 0.8470 0.8470 0.8470 0.8471
2329.984361 0.8476 0.8483 0.8493 0.8503 0.8513
2334.605971 0.8520 0.8520 0.8520 0.8520 0.8520
2339.227581 0.8520 0.8520 0.8520 0.8518 0.8513
2343.849190 0.8510 0.8510 0.8510 0.8510 0.8508
2348.470800 0.8503 0.8502 0.8507 0.8510 0.8510
2353.092410 0.8512 0.8517 0.8520 0.8520 0.8522
2357.714019 0.8527 0.8530 0.8530 0.8535 0.8545
2362.335629 0.8550 0.8550 0.8552 0.8557 0.8560
2366.957239 0.8560 0.8563 0.8568 0.8570 0.8570
2371.578848 0.8573 0.8578 0.8580 0.8580 0.8580
2376.200458 0.8580 0.8580 0.8580 0.8580 0.8580
2380.822068 0.8580 0.8580 0.8580 0.8580 0.8580
2385.443678 0.8580 0.8580 0.8580 0.8580 0.8580
2390.065287 0.8580 0.8580 0.8580 0.8580 0.8577
2394.686897 0.8571 0.8570 0.8570 0.8570 0.8570
2399.308507 0.8566 0.8561 0.8556 0.8551 0.8550
2403.930116 0.8550 0.8542 0.8532 0.8530 0.8530
2408.551726 0.8538 0.8548 0.8550 0.8550 0.8550
2413.173336 0.8550 0.8550 0.8550 0.8554 0.8559
2417.794945 0.8560 0.8560 0.8564 0.8569 0.8570
2422.416555 0.8570 0.8570 0.8570 0.8570 0.8570
2427.038165 0.8570 0.8570 0.8570 0.8570 0.8570
2431.659774 0.8570 0.8570 0.8570 0.8570 0.8570
2436.281384 0.8570 0.8570 0.8570 0.8570 0.8570
2440.902994 0.8570 0.8570 0.8570 0.8570 0.8570
2445.524604 0.8570 0.8569 0.8559 0.8549 0.8539
2450.146213 0.8530 0.8530 0.8530 0.8530 0.8529
2454.767823 0.8524 0.8519 0.8509 0.8500 0.8500
2459.389433 0.8500 0.8500 0.8501 0.8506 0.8511
2464.011042 0.8516 0.8521 0.8526 0.8532 0.8542
2468.632652 0.8548 0.8538 0.8530 0.8530 0.8530
2473.254262 0.8530 0.8529 0.8524 0.8520 0.8520
2477.875871 0.8519 0.8514 0.8510 0.8510 0.8508
2482.497481 0.8503 0.8500 0.8500 0.8497 0.8487
2487.119091 0.8480 0.8480 0.8478 0.8473 0.8470
2491.740700 0.8470 0.8472 0.8477 0.8480 0.8480
2496.362310 0.8484 0.8494 0.8504 0.8514 0.8520
2500.983920 0.8520 0.8520 0.8520 0.8520 0.8520
2505.605529 0.8520 0.8520 0.8510 0.8490 0.8478
2510.227139 0.8473 0.8470 0.8470 0.8467 0.8462
2514.848749 0.8460 0.8460 0.8457 0.8452 0.8450
2519.470359 0.8450 0.8450 0.8450 0.8450 0.8450
2524.091968 0.8450 0.8450 0.8450 0.8450 0.8450
2528.713578 0.8450 0.8450 0.8450 0.8450 0.8450
2533.335188 0.8450 0.8450 0.8450 0.8450 0.8450
2537.956797 0.8450 0.8450 0.8450 0.8450 0.8450
2542.578407 0.8450 0.8450 0.8450 0.8450 0.8450
2547.200017 0.8450 0.8450 0.8450 0.8450 0.8450
2551.821626 0.8454 0.8459 0.8460 0.8460 0.8460
2556.443236 0.8460 0.8460 0.8460 0.8460 0.8460
2561.064846 0.8460 0.8460 0.8460 0.8460 0.8460
2565.686455 0.8460 0.8460 0.8460 0.8460 0.8460
2570.308065 0.8460 0.8460 0.8455 0.8450 0.8450
2574.929675 0.8450 0.8450 0.8450 0.8450 0.8450
2579.551285 0.8440 0.8430 0.8430 0.8430 0.8430
2584.172894 0.8430 0.8425 0.8420 0.8420 0.8420
2588.794504 0.8420 0.8420 0.8420 0.8420 0.8415
2593.416114 0.8410 0.8410 0.8410 0.8410 0.8410
2598.037723 0.8404 0.8400 0.8400 0.8399 0.8389
2602.659333 0.8380 0.8380 0.8379 0.8374 0.8370
2607.280943 0.8370 0.8369 0.8364 0.8359 0.8354
2611.902552 0.8346 0.8326 0.8309 0.8304 0.8300
2616.524162 0.8300 0.8301 0.8306 0.8315 0.8335
2621.145772 0.8350 0.8350 0.8350 0.8350 0.8351
2625.767381 0.8357 0.8360 0.8360 0.8360 0.8360
2630.388991 0.8360 0.8360 0.8360 0.8360 0.8358
2635.010601 0.8353 0.8350 0.8350 0.8352 0.8357
2639.632211 0.8358 0.8353 0.8350 0.8350 0.8350
2644.253820 0.8350 0.8350 0.8350 0.8346 0.8335
2648.875430 0.8330 0.8330 0.8330 0.8330 0.8328
2653.497040 0.8323 0.8320 0.8320 0.8320 0.8320
2658.118649 0.8320 0.8320 0.8317 0.8312 0.8310
2662.740259 0.8310 0.8310 0.8310 0.8307 0.8302
2667.361869 0.8300 0.8300 0.8300 0.8300 0.8300
2671.983478 0.8300 0.8294 0.8284 0.8280 0.8280
2676.605088 0.8280 0.8280 0.8277 0.8272 0.8270
2681.226698 0.8270 0.8270 0.8270 0.8270 0.8270
2685.848307 0.8266 0.8261 0.8260 0.8260 0.8260
2690.469917 0.8260 0.8260 0.8260 0.8260 0.8260
2695.091527 0.8260 0.8260 0.8256 0.8251 0.8250
2699.713137 0.8250 0.8250 0.8250 0.8250 0.8250
2704.334746 0.8250 0.8250 0.8242 0.8231 0.8230
2708.956356 0.8230 0.8230 0.8230 0.8230 0.8230
2713.577966 0.8230 0.8230 0.8225 0.8220 0.8220
2718.199575 0.8220 0.8220 0.8220 0.8220 0.8220
2722.821185 0.8220 0.8220 0.8215 0.8210 0.8210
2727.442795 0.8210 0.8210 0.8210 0.8210 0.8210
2732.064404 0.8205 0.8200 0.8200 0.8200 0.8200
2736.686014 0.8199 0.8189 0.8180 0.8180 0.8180
2741.307624 0.8180 0.8180 0.8174 0.8170 0.8170
2745.929233 0.8170 0.8170 0.8169 0.8164 0.8159
2750.550843 0.8154 0.8150 0.8150 0.8150 0.8150
2755.172453 0.8148 0.8138 0.8130 0.8130 0.8130
2759.794063 0.8130 0.8129 0.8124 0.8120 0.8120
2764.415672 0.8119 0.8114 0.8110 0.8110 0.8110
2769.037282 0.8110 0.8109 0.8104 0.8100 0.8100
2773.658892 0.8094 0.8074 0.8055 0.8040 0.8027
2778.280501 0.8017 0.8008 0.8003 0.7998 0.7993
2782.902111 0.7986 0.7976 0.7966 0.7956 0.7942
2787.523721 0.7922 0.7900 0.7874 0.7858 0.7853
2792.145330 0.7850 0.7850 0.7855 0.7865 0.7879
2796.766940 0.7899 0.7917 0.7932 0.7942 0.7947
2801.388550 0.7952 0.7958 0.7963 0.7968 0.7975
2806.010159 0.7985 0.7995 0.8006 0.8016 0.8026
2810.631769 0.8041 0.8062 0.8070 0.8070 0.8067
2815.253379 0.8062 0.8057 0.8052 0.8044 0.8034
2819.874989 0.8027 0.8022 0.8017 0.8012 0.8007
2824.496598 0.8002 0.7997 0.7992 0.7983 0.7973
2829.118208 0.7966 0.7961 0.7956 0.7951 0.7946
2833.739818 0.7941 0.7929 0.7914 0.7903 0.7893
2838.361427 0.7879 0.7864 0.7845 0.7825 0.7816
2842.983037 0.7811 0.7806 0.7801 0.7800 0.7800
2847.604647 0.7796 0.7791 0.7790 0.7790 0.7790
2852.226256 0.7790 0.7794 0.7799 0.7809 0.7819
2856.847866 0.7838 0.7858 0.7864 0.7869 0.7884
2861.469476 0.7899 0.7900 0.7900 0.7900 0.7900
2866.091085 0.7900 0.7900 0.7905 0.7910 0.7910
2870.712695 0.7910 0.7925 0.7940 0.7940 0.7940
2875.334305 0.7940 0.7940 0.7925 0.7910 0.7905
2879.955915 0.7900 0.7895 0.7890 0.7890 0.7889
2884.577524 0.7874 0.7859 0.7849 0.7839 0.7823
2889.199134 0.7810 0.7810 0.7809 0.7804 0.7799
2893.820744 0.7794 0.7789 0.7779 0.7769 0.7764
2898.442353 0.7759 0.7754 0.7750 0.7750 0.7749
2903.063963 0.7744 0.7740 0.7740 0.7737 0.7722
2907.685573 0.7708 0.7698 0.7690 0.7690 0.7687
2912.307182 0.7677 0.7669 0.7664 0.7657 0.7647
2916.928792 0.7640 0.7640 0.7634 0.7614 0.7598
2921.550402 0.7593 0.7590 0.7590 0.7590 0.7590
2926.172011 0.7592 0.7597 0.7607 0.7628 0.7644
2930.793621 0.7654 0.7662 0.7667 0.7670 0.7670
2935.415231 0.7674 0.7684 0.7692 0.7697 0.7700
2940.036840 0.7700 0.7700 0.7700 0.7702 0.7707
2944.658450 0.7708 0.7703 0.7698 0.7692 0.7685
2949.280060 0.7675 0.7665 0.7655 0.7642 0.7627
2953.901670 0.7617 0.7612 0.7607 0.7602 0.7597
2958.523279 0.7592 0.7593 0.7598 0.7600 0.7600
2963.144889 0.7597 0.7592 0.7590 0.7590 0.7584
2967.766499 0.7574 0.7570 0.7570 0.7567 0.7562
2972.388108 0.7560 0.7560 0.7557 0.7551 0.7550
2977.009718 0.7550 0.7546 0.7541 0.7540 0.7540
2981.631328 0.7533 0.7523 0.7520 0.7520 0.7520
2986.252937 0.7520 0.7520 0.7520 0.7516 0.7511
2990.874547 0.7510 0.7510 0.7506 0.7501 0.7500
2995.496157 0.7500 0.7487 0.7472 0.7466 0.7461
3000.117766 0.7451 0.7441 0.7427 0.7412 0.7401
3004.739376 0.7391 0.7372 0.7352 0.7332 0.7312
3009.360986 0.7254 0.7193 0.7157 0.7121 0.7110
3013.982596 0.7100 0.7095 0.7090 0.7095 0.7100
3018.604205 0.7120 0.7140 0.7180 0.7220 0.7256
3023.225815 0.7290 0.7295 0.7300 0.7300 0.7300
3027.847425 0.7295 0.7287 0.7252 0.7219 0.7209
3032.469034 0.7198 0.7178 0.7158 0.7138 0.7119
3037.090644 0.7109 0.7097 0.7077 0.7060 0.7060
3041.712254 0.7059 0.7048 0.7038 0.7028 0.7018
3046.333863 0.7008 0.6997 0.6982 0.6953 0.6873
3050.955473 0.6808 0.6798 0.6790 0.6790 0.6788
3055.577083 0.6777 0.6773 0.6783 0.6794 0.6809
3060.198692 0.6823 0.6833 0.6841 0.6846 0.6853
3064.820302 0.6863 0.6873 0.6883 0.6890 0.6890
3069.441912 0.6890 0.6890 0.6886 0.6876 0.6868
3074.063522 0.6863 0.6862 0.6867 0.6874 0.6884
3078.685131 0.6896 0.6911 0.6924 0.6934 0.6944
3083.306741 0.6954 0.6971 0.6997 0.7012 0.7017
3087.928351 0.7025 0.7035 0.7040 0.7040 0.7042
3092.549960 0.7048 0.7047 0.7042 0.7040 0.7040
3097.171570 0.7035 0.7025 0.7020 0.7020 0.7017
3101.793180 0.7012 0.7004 0.6994 0.6981 0.6966
3106.414789 0.6960 0.6960 0.6957 0.6952 0.6950
3111.036399 0.6950 0.6947 0.6942 0.6940 0.6940
3115.658009 0.6933 0.6923 0.6917 0.6912 0.6869
3120.279618 0.6808 0.6730 0.6644 0.6584 0.6534
3124.901228 0.6483 0.6433 0.6390 0.6350 0.6340
3129.522838 0.6340 0.6371 0.6411 0.6435 0.6456
3134.144448 0.6484 0.6514 0.6552 0.6592 0.6645
3138.766057 0.6701 0.6752 0.6802 0.6844 0.6884
3143.387667 0.6894 0.6899 0.6909 0.6919 0.6933
3148.009277 0.6948 0.6959 0.6969 0.6970 0.6970
3152.630886 0.6965 0.6960 0.6960 0.6960 0.6951
3157.252496 0.6940 0.6930 0.6920 0.6915 0.6910
3161.874106 0.6905 0.6900 0.6895 0.6890 0.6880
3166.495715 0.6870 0.6855 0.6839 0.6804 0.6769
3171.117325 0.6728 0.6688 0.6653 0.6619 0.6604
3175.738935 0.6587 0.6546 0.6508 0.6488 0.6467
3180.360544 0.6437 0.6406 0.6376 0.6346 0.6316
3184.982154 0.6283 0.6233 0.6188 0.6173 0.6161
3189.603764 0.6166 0.6173 0.6194 0.6213 0.6228
3194.225374 0.6246 0.6277 0.6306 0.6331 0.6356
3198.846983 0.6381 0.6402 0.6412 0.6431 0.6477
3203.468593 0.6515 0.6535 0.6553 0.6563 0.6570
3208.090203 0.6570 0.6570 0.6570 0.6570 0.6570
3212.711812 0.6570 0.6570 0.6568 0.6563 0.6556
3217.333422 0.6546 0.6531 0.6506 0.6480 0.6455
3221.955032 0.6430 0.6405 0.6376 0.6341 0.6308
3226.576641 0.6277 0.6245 0.6210 0.6175 0.6139
3231.198251 0.6108 0.6083 0.6056 0.6026 0.5995
3235.819861 0.5965 0.5923 0.5867 0.5804 0.5734
3240.441470 0.5661 0.5586 0.5534 0.5504 0.5468
3245.063080 0.5428 0.5380 0.5324 0.5269 0.5213
3249.684690 0.5160 0.5110 0.5063 0.5018 0.4978
3254.306300 0.4943 0.4924 0.4914 0.4916 0.4926
3258.927909 0.4949 0.4980 0.5006 0.5032 0.5073
3263.549519 0.5124 0.5154 0.5174 0.5180 0.5180
3268.171129 0.5173 0.5163 0.5131 0.5091 0.5054
3272.792738 0.5019 0.4972 0.4922 0.4853 0.4777
3277.414348 0.4702 0.4627 0.4579 0.4538 0.4458
3282.035958 0.4368 0.4282 0.4196 0.4110 0.4024
3286.657567 0.4006 0.4001 0.4004 0.4009 0.4071
3291.279177 0.4141 0.4207 0.4273 0.4338 0.4403
3295.900787 0.4469 0.4534 0.4604 0.4674 0.4864
3300.522396 0.5066 0.5463 0.5875 0.5900 0.5900
3305.144006 0.5949 0.5999 0.6049 0.6100 0.6150
3309.765616 0.6200 0.6250 0.6301 0.6351 0.6401
3314.387226 0.6426 0.6452 0.6507 0.6564 0.6665
3319.008835 0.6764 0.6845 0.6924 0.6990 0.7055
3323.630445 0.7111 0.7165 0.7210 0.7254 0.7289
3328.252055 0.7324 0.7360 0.7393 0.7419 0.7444
3332.873664 0.7469 0.7494 0.7519 0.7542 0.7552
3337.495274 0.7563 0.7578 0.7596 0.7626 0.7657
3342.116884 0.7687 0.7717 0.7747 0.7770 0.7770
3346.738493 0.7774 0.7789 0.7803 0.7813 0.7824
3351.360103 0.7839 0.7853 0.7863 0.7874 0.7890
3355.981713 0.7902 0.7907 0.7910 0.7910 0.7912
3360.603322 0.7917 0.7924 0.7934 0.7942 0.7947
3365.224932 0.7952 0.7957 0.7960 0.7960 0.7960
3369.846542 0.7960 0.7960 0.7960 0.7960 0.7960
3374.468152 0.7960 0.7960 0.7960 0.7960 0.7960
3379.089761 0.7960 0.7960 0.7960 0.7958 0.7952
3383.711371 0.7950 0.7950 0.7950 0.7950 0.7947
3388.332981 0.7942 0.7940 0.7940 0.7940 0.7940
3392.954590 0.7934 0.7924 0.7920 0.7920 0.7920
3397.576200 0.7920 0.7917 0.7912 0.7910 0.7910
3402.197810 0.7910 0.7910 0.7907 0.7902 0.7900
3406.819419 0.7900 0.7897 0.7892 0.7890 0.7890
3411.441029 0.7890 0.7890 0.7883 0.7873 0.7870
3416.062639 0.7870 0.7870 0.7870 0.7866 0.7861
3420.684248 0.7856 0.7851 0.7850 0.7850 0.7850
3425.305858 0.7850 0.7850 0.7850 0.7846 0.7841
3429.927468 0.7840 0.7840 0.7840 0.7840 0.7831
3434.549077 0.7821 0.7820 0.7820 0.7820 0.7820
3439.170687 0.7820 0.7820 0.7815 0.7810 0.7810
3443.792297 0.7810 0.7810 0.7810 0.7805 0.7800
3448.413907 0.7800 0.7800 0.7795 0.7790 0.7790
3453.035516 0.7790 0.7790 0.7790 0.7790 0.7790
3457.657126 0.7780 0.7770 0.7770 0.7770 0.7770
3462.278736 0.7770 0.7765 0.7760 0.7765 0.7770
3466.900345 0.7770 0.7770 0.7770 0.7770 0.7770
3471.521955 0.7770 0.7770 0.7769 0.7764 0.7760
3476.143565 0.7760 0.7760 0.7760 0.7759 0.7754
3480.765174 0.7750 0.7750 0.7750 0.7750 0.7750
3485.386784 0.7750 0.7749 0.7744 0.7740 0.7740
3490.008394 0.7740 0.7740 0.7737 0.7727 0.7720
3494.630003 0.7720 0.7720 0.7720 0.7719 0.7714
3499.251613 0.7709 0.7703 0.7700 0.7700 0.7700
3503.873223 0.7700 0.7700 0.7700 0.7700 0.7700
3508.494833 0.7700 0.7700 0.7700 0.7700 0.7700
3513.116442 0.7700 0.7698 0.7693 0.7690 0.7690
3517.738052 0.7690 0.7690 0.7690 0.7690 0.7690
3522.359662 0.7690 0.7685 0.7675 0.7670 0.7670
3526.981271 0.7670 0.7670 0.7670 0.7670 0.7670
3531.602881 0.7670 0.7670 0.7670 0.7670 0.7670
3536.224491 0.7670 0.7670 0.7670 0.7670 0.7670
3540.846100 0.7670 0.7670 0.7670 0.7670 0.7670
3545.467710 0.7667 0.7662 0.7657 0.7652 0.7650
3550.089320 0.7650 0.7647 0.7642 0.7633 0.7623
3554.710929 0.7620 0.7620 0.7617 0.7612 0.7603
3559.332539 0.7593 0.7590 0.7590 0.7590 0.7590
3563.954149 0.7590 0.7590 0.7590 0.7590 0.7590
3568.575759 0.7590 0.7590 0.7590 0.7590 0.7590
3573.197368 0.7590 0.7590 0.7582 0.7572 0.7570
3577.818978 0.7570 0.7570 0.7570 0.7570 0.7570
3582.440588 0.7570 0.7570 0.7570 0.7570 0.7570
3587.062197 0.7570 0.7565 0.7560 0.7560 0.7560
3591.683807 0.7560 0.7560 0.7560 0.7560 0.7560
3596.305417 0.7560 0.7565 0.7570 0.7570 0.7570
3600.927026 0.7565 0.7560 0.7555 0.7550 0.7550
3605.548636 0.7550 0.7545 0.7540 0.7530 0.7520
3610.170246 0.7520 0.7520 0.7515 0.7510 0.7510
3614.791855 0.7510 0.7510 0.7511 0.7516 0.7520
3619.413465 0.7520 0.7520 0.7520 0.7520 0.7520
3624.035075 0.7520 0.7520 0.7520 0.7520 0.7520
3628.656685 0.7520 0.7520 0.7520 0.7520 0.7520
3633.278294 0.7520 0.7520 0.7519 0.7514 0.7509
3637.899904 0.7504 0.7500 0.7500 0.7488 0.7442
3642.521514 0.7401 0.7371 0.7359 0.7389 0.7422
3647.143123 0.7463 0.7490 0.7490 0.7490 0.7490
3651.764733 0.7487 0.7476 0.7470 0.7470 0.7468
3656.386343 0.7463 0.7460 0.7460 0.7456 0.7446
3661.007952 0.7432 0.7412 0.7394 0.7379 0.7363
3665.629562 0.7348 0.7333 0.7318 0.7308 0.7303
3670.251172 0.7300 0.7300 0.7327 0.7383 0.7413
3674.872781 0.7418 0.7420 0.7420 0.7420 0.7420
3679.494391 0.7406 0.7381 0.7370 0.7370 0.7378
3684.116001 0.7394 0.7411 0.7432 0.7443 0.7448
3688.737611 0.7456 0.7466 0.7476 0.7486 0.7484
3693.359220 0.7474 0.7464 0.7453 0.7450 0.7450
3697.980830 0.7440 0.7425 0.7417 0.7412 0.7396
3702.602440 0.7376 0.7367 0.7361 0.7353 0.7343
3707.224049 0.7329 0.7314 0.7310 0.7310 0.7314
3711.845659 0.7319 0.7320 0.7320 0.7316 0.7311
3716.467269 0.7314 0.7319 0.7320 0.7320 0.7328
3721.088878 0.7338 0.7340 0.7340 0.7340 0.7340
3725.710488 0.7331 0.7321 0.7294 0.7263 0.7251
3730.332098 0.7241 0.7240 0.7240 0.7267 0.7297
3734.953707 0.7300 0.7300 0.7295 0.7290 0.7266
3739.575317 0.7241 0.7230 0.7220 0.7220 0.7220
3744.196927 0.7220 0.7220 0.7220 0.7220 0.7230
3748.818537 0.7240 0.7255 0.7270 0.7265 0.7261
3753.440146 0.7276 0.7290 0.7295 0.7300 0.7305
3758.061756 0.7310 0.7310 0.7310 0.7310 0.7310
3762.683366 0.7316 0.7319 0.7314 0.7310 0.7310
3767.304975 0.7310 0.7310 0.7309 0.7304 0.7300
3771.926585 0.7300 0.7299 0.7294 0.7290 0.7290
3776.548195 0.7288 0.7278 0.7270 0.7270 0.7269
3781.169804 0.7264 0.7260 0.7260 0.7260 0.7260
3785.791414 0.7259 0.7254 0.7250 0.7250 0.7249
3790.413024 0.7243 0.7240 0.7240 0.7237 0.7227
3795.034633 0.7220 0.7220 0.7218 0.7213 0.7210
3799.656243 0.7210 0.7210 0.7210 0.7210 0.7210
##END=
