##TITLE=t-Stilbene
##JCAMP-DX=4.24
$$ By DXEDIT 1.05 (RS McDonald)
##DATA TYPE=INFRARED SPECTRUM
##CLASS=COBLENTZ II
##ORIGIN=DOW CHEMICAL COMPANY
##OWNER=COPYRIGHT (C) 1988 by COBLENTZ SOCIETY INC.
Collection (C) 2018 copyright by the U.S. Secretary of Commerce
on behalf of the United States of America. All rights reserved.
##DATE=1969/05/08
##NAMES=[(E)-2-phenylethenyl]benzene
##CAS REGISTRY NO=103-30-0
##MOLFORM=C14 H12
##SOURCE REFERENCE=COBLENTZ NO. 06014
##$NIST SOURCE=COBLENTZ
##$NIST IMAGE=cob6014
##SPECTROMETER/DATA SYSTEM=DOW KBr FOREPRISM-GRATING
##INSTRUMENT PARAMETERS=BLAZED AT 3.5, 12.0, 20.0 MICRON AND CHANGED AT 5.0, 7.5, 14.9 MICRON
##STATE=SOLUTION (5% CCl4 FOR 3800-1350, 5% CS2 FOR 1350-400 CM^-^1)
##PATH LENGTH=0.011 CM, 0.011 CM
##SAMPLING PROCEDURE=TRANSMISSION
##RESOLUTION=2
##DATA PROCESSING=DIGITIZED BY COBLENTZ SOCIETY (BATCH I) FROM HARD COPY
##XUNITS=1/CM
##YUNITS=TRANSMITTANCE
##XFACTOR=1
##YFACTOR=1
##DELTAX=1
##FIRSTX=3800
##LASTX=398
##FIRSTY=0.873
##MAXX=3800
##MINX=398
##MAXY=0.8934
##MINY=0.01
##NPOINTS=3403
##XYDATA=(X++(Y..Y))
3800.000000 0.8730 0.8730 0.8730 0.8728 0.8728
3795.000000 0.8727 0.8725 0.8725 0.8724 0.8723
3790.000000 0.8721 0.8721 0.8720 0.8718 0.8718
3785.000000 0.8717 0.8717 0.8716 0.8715 0.8714
3780.000000 0.8714 0.8714 0.8714 0.8714 0.8714
3775.000000 0.8714 0.8714 0.8715 0.8716 0.8717
3770.000000 0.8718 0.8720 0.8721 0.8723 0.8725
3765.000000 0.8730 0.8736 0.8741 0.8747 0.8752
3760.000000 0.8758 0.8763 0.8768 0.8771 0.8777
3755.000000 0.8781 0.8785 0.8789 0.8793 0.8797
3750.000000 0.8801 0.8804 0.8808 0.8811 0.8815
3745.000000 0.8818 0.8821 0.8820 0.8818 0.8808
3740.000000 0.8798 0.8788 0.8778 0.8774 0.8770
3735.000000 0.8767 0.8765 0.8762 0.8760 0.8758
3730.000000 0.8756 0.8753 0.8751 0.8748 0.8746
3725.000000 0.8743 0.8741 0.8738 0.8736 0.8734
3720.000000 0.8732 0.8730 0.8728 0.8727 0.8725
3715.000000 0.8725 0.8725 0.8724 0.8723 0.8721
3710.000000 0.8721 0.8721 0.8720 0.8718 0.8718
3705.000000 0.8717 0.8717 0.8715 0.8714 0.8712
3700.000000 0.8711 0.8710 0.8709 0.8708 0.8708
3695.000000 0.8708 0.8711 0.8716 0.8721 0.8727
3690.000000 0.8733 0.8741 0.8750 0.8758 0.8767
3685.000000 0.8763 0.8759 0.8755 0.8751 0.8747
3680.000000 0.8743 0.8739 0.8738 0.8737 0.8740
3675.000000 0.8743 0.8747 0.8751 0.8755 0.8759
3670.000000 0.8763 0.8766 0.8767 0.8767 0.8766
3665.000000 0.8764 0.8762 0.8760 0.8759 0.8757
3660.000000 0.8756 0.8745 0.8735 0.8724 0.8714
3655.000000 0.8713 0.8713 0.8712 0.8712 0.8712
3650.000000 0.8712 0.8711 0.8711 0.8711 0.8711
3645.000000 0.8710 0.8710 0.8709 0.8709 0.8710
3640.000000 0.8711 0.8713 0.8716 0.8718 0.8721
3635.000000 0.8723 0.8725 0.8728 0.8730 0.8739
3630.000000 0.8749 0.8758 0.8768 0.8778 0.8788
3625.000000 0.8798 0.8809 0.8813 0.8817 0.8811
3620.000000 0.8806 0.8800 0.8795 0.8790 0.8785
3615.000000 0.8787 0.8790 0.8792 0.8795 0.8797
3610.000000 0.8800 0.8802 0.8805 0.8807 0.8810
3605.000000 0.8811 0.8813 0.8813 0.8813 0.8813
3600.000000 0.8813 0.8813 0.8813 0.8813 0.8813
3595.000000 0.8811 0.8809 0.8806 0.8804 0.8801
3590.000000 0.8799 0.8796 0.8794 0.8791 0.8789
3585.000000 0.8787 0.8785 0.8783 0.8781 0.8778
3580.000000 0.8778 0.8777 0.8777 0.8777 0.8778
3575.000000 0.8778 0.8780 0.8781 0.8782 0.8783
3570.000000 0.8784 0.8785 0.8786 0.8787 0.8788
3565.000000 0.8789 0.8790 0.8791 0.8792 0.8793
3560.000000 0.8794 0.8795 0.8796 0.8797 0.8799
3555.000000 0.8800 0.8801 0.8802 0.8803 0.8804
3550.000000 0.8805 0.8806 0.8807 0.8808 0.8809
3545.000000 0.8810 0.8811 0.8812 0.8813 0.8814
3540.000000 0.8815 0.8816 0.8817 0.8818 0.8818
3535.000000 0.8820 0.8821 0.8823 0.8824 0.8825
3530.000000 0.8827 0.8828 0.8830 0.8831 0.8833
3525.000000 0.8834 0.8836 0.8837 0.8839 0.8840
3520.000000 0.8841 0.8842 0.8844 0.8845 0.8847
3515.000000 0.8848 0.8850 0.8851 0.8853 0.8854
3510.000000 0.8855 0.8856 0.8858 0.8859 0.8861
3505.000000 0.8862 0.8863 0.8864 0.8866 0.8867
3500.000000 0.8868 0.8870 0.8871 0.8871 0.8874
3495.000000 0.8875 0.8875 0.8877 0.8878 0.8880
3490.000000 0.8881 0.8882 0.8884 0.8885 0.8887
3485.000000 0.8888 0.8889 0.8890 0.8892 0.8893
3480.000000 0.8894 0.8895 0.8896 0.8897 0.8898
3475.000000 0.8898 0.8899 0.8900 0.8901 0.8902
3470.000000 0.8903 0.8904 0.8905 0.8905 0.8906
3465.000000 0.8907 0.8908 0.8909 0.8910 0.8911
3460.000000 0.8912 0.8913 0.8914 0.8914 0.8915
3455.000000 0.8916 0.8917 0.8918 0.8918 0.8920
3450.000000 0.8921 0.8921 0.8921 0.8923 0.8924
3445.000000 0.8925 0.8925 0.8927 0.8928 0.8928
3440.000000 0.8928 0.8928 0.8928 0.8928 0.8928
3435.000000 0.8927 0.8927 0.8927 0.8927 0.8927
3430.000000 0.8927 0.8925 0.8925 0.8925 0.8925
3425.000000 0.8925 0.8925 0.8925 0.8925 0.8925
3420.000000 0.8925 0.8925 0.8925 0.8924 0.8924
3415.000000 0.8924 0.8924 0.8924 0.8924 0.8923
3410.000000 0.8923 0.8923 0.8923 0.8923 0.8923
3405.000000 0.8923 0.8923 0.8921 0.8921 0.8921
3400.000000 0.8921 0.8921 0.8923 0.8923 0.8923
3395.000000 0.8923 0.8923 0.8923 0.8923 0.8923
3390.000000 0.8923 0.8923 0.8923 0.8923 0.8923
3385.000000 0.8923 0.8923 0.8923 0.8923 0.8923
3380.000000 0.8923 0.8923 0.8923 0.8923 0.8923
3375.000000 0.8923 0.8923 0.8923 0.8924 0.8924
3370.000000 0.8924 0.8924 0.8924 0.8924 0.8924
3365.000000 0.8923 0.8923 0.8923 0.8923 0.8923
3360.000000 0.8923 0.8921 0.8921 0.8921 0.8921
3355.000000 0.8921 0.8921 0.8921 0.8921 0.8920
3350.000000 0.8920 0.8920 0.8920 0.8920 0.8920
3345.000000 0.8918 0.8918 0.8918 0.8918 0.8918
3340.000000 0.8918 0.8918 0.8920 0.8920 0.8920
3335.000000 0.8920 0.8921 0.8921 0.8921 0.8921
3330.000000 0.8923 0.8923 0.8924 0.8924 0.8924
3325.000000 0.8924 0.8925 0.8925 0.8925 0.8925
3320.000000 0.8927 0.8927 0.8927 0.8927 0.8928
3315.000000 0.8928 0.8928 0.8928 0.8930 0.8930
3310.000000 0.8931 0.8931 0.8931 0.8931 0.8932
3305.000000 0.8932 0.8933 0.8933 0.8934 0.8934
3300.000000 0.8934 0.8932 0.8931 0.8928 0.8928
3295.000000 0.8925 0.8924 0.8921 0.8921 0.8918
3290.000000 0.8918 0.8917 0.8916 0.8914 0.8913
3285.000000 0.8912 0.8911 0.8909 0.8908 0.8907
3280.000000 0.8907 0.8904 0.8903 0.8901 0.8900
3275.000000 0.8899 0.8898 0.8896 0.8895 0.8894
3270.000000 0.8893 0.8891 0.8890 0.8889 0.8888
3265.000000 0.8888 0.8888 0.8888 0.8889 0.8889
3260.000000 0.8889 0.8889 0.8889 0.8889 0.8889
3255.000000 0.8889 0.8890 0.8890 0.8890 0.8890
3250.000000 0.8890 0.8890 0.8890 0.8890 0.8890
3245.000000 0.8890 0.8890 0.8890 0.8890 0.8890
3240.000000 0.8890 0.8889 0.8889 0.8887 0.8885
3235.000000 0.8883 0.8881 0.8878 0.8877 0.8875
3230.000000 0.8873 0.8871 0.8870 0.8868 0.8868
3225.000000 0.8867 0.8866 0.8865 0.8864 0.8863
3220.000000 0.8862 0.8861 0.8860 0.8859 0.8858
3215.000000 0.8857 0.8856 0.8855 0.8855 0.8855
3210.000000 0.8855 0.8854 0.8854 0.8854 0.8854
3205.000000 0.8853 0.8853 0.8853 0.8853 0.8852
3200.000000 0.8852 0.8852 0.8852 0.8851 0.8851
3195.000000 0.8851 0.8851 0.8851 0.8851 0.8850
3190.000000 0.8849 0.8847 0.8846 0.8845 0.8844
3185.000000 0.8843 0.8842 0.8841 0.8840 0.8839
3180.000000 0.8838 0.8837 0.8836 0.8834 0.8833
3175.000000 0.8832 0.8831 0.8828 0.8828 0.8823
3170.000000 0.8818 0.8811 0.8805 0.8798 0.8792
3165.000000 0.8785 0.8778 0.8767 0.8757 0.8743
3160.000000 0.8728 0.8717 0.8706 0.8707 0.8709
3155.000000 0.8712 0.8716 0.8718 0.8721 0.8725
3150.000000 0.8728 0.8732 0.8735 0.8738 0.8739
3145.000000 0.8739 0.8738 0.8736 0.8735 0.8733
3140.000000 0.8732 0.8731 0.8730 0.8728 0.8725
3135.000000 0.8724 0.8723 0.8721 0.8718 0.8717
3130.000000 0.8715 0.8706 0.8697 0.8685 0.8673
3125.000000 0.8659 0.8645 0.8611 0.8578 0.8459
3120.000000 0.8340 0.8218 0.8098 0.8049 0.8001
3115.000000 0.7985 0.7968 0.7954 0.7940 0.7930
3110.000000 0.7921 0.7911 0.7901 0.7891 0.7881
3105.000000 0.7858 0.7837 0.7815 0.7794 0.7758
3100.000000 0.7722 0.7671 0.7619 0.7140 0.6661
3095.000000 0.6604 0.6548 0.6492 0.6436 0.6379
3090.000000 0.6189 0.6267 0.6210 0.6194 0.6177
3085.000000 0.6251 0.6326 0.6444 0.6561 0.6680
3080.000000 0.6799 0.6855 0.6911 0.6908 0.6935
3075.000000 0.6751 0.6596 0.6432 0.6269 0.6105
3070.000000 0.5791 0.5888 0.5835 0.5893 0.5951
3065.000000 0.6112 0.6276 0.6438 0.6600 0.6761
3060.000000 0.6925 0.7087 0.7250 0.7295 0.7341
3055.000000 0.7342 0.7344 0.7191 0.7349 0.6792
3050.000000 0.6545 0.6298 0.6051 0.5804 0.5557
3045.000000 0.5310 0.5062 0.4815 0.4568 0.4321
3040.000000 0.4074 0.3975 0.3877 0.3877 0.3877
3035.000000 0.3877 0.3884 0.4127 0.4377 0.4631
3030.000000 0.4885 0.5139 0.5393 0.5647 0.5901
3025.000000 0.6155 0.6408 0.6662 0.6917 0.7175
3020.000000 0.7436 0.7492 0.7548 0.7625 0.7703
3015.000000 0.7808 0.7914 0.7991 0.8068 0.8082
3010.000000 0.8096 0.8096 0.8096 0.8096 0.8097
3005.000000 0.8099 0.8101 0.8125 0.8151 0.8186
3000.000000 0.8221 0.8280 0.8338 0.8404 0.8470
2995.000000 0.8494 0.8518 0.8532 0.8545 0.8555
2990.000000 0.8565 0.8568 0.8571 0.8575 0.8580
2985.000000 0.8583 0.8587 0.8591 0.8595 0.8598
2980.000000 0.8602 0.8606 0.8610 0.8613 0.8617
2975.000000 0.8620 0.8624 0.8627 0.8631 0.8632
2970.000000 0.8633 0.8634 0.8636 0.8637 0.8623
2965.000000 0.8639 0.8640 0.8633 0.8627 0.8614
2960.000000 0.8601 0.8588 0.8575 0.8565 0.8555
2955.000000 0.8552 0.8550 0.8548 0.8546 0.8551
2950.000000 0.8556 0.8561 0.8566 0.8570 0.8575
2945.000000 0.8580 0.8585 0.8590 0.8595 0.8600
2940.000000 0.8605 0.8610 0.8616 0.8621 0.8625
2935.000000 0.8631 0.8636 0.8641 0.8647 0.8653
2930.000000 0.8659 0.8664 0.8670 0.8675 0.8682
2925.000000 0.8688 0.8694 0.8699 0.8705 0.8706
2920.000000 0.8708 0.8709 0.8710 0.8711 0.8713
2915.000000 0.8714 0.8716 0.8716 0.8716 0.8715
2910.000000 0.8712 0.8707 0.8703 0.8698 0.8694
2905.000000 0.8689 0.8684 0.8678 0.8675 0.8674
2900.000000 0.8674 0.8677 0.8680 0.8683 0.8687
2895.000000 0.8690 0.8693 0.8696 0.8700 0.8705
2890.000000 0.8711 0.8716 0.8721 0.8728 0.8734
2885.000000 0.8739 0.8745 0.8750 0.8756 0.8761
2880.000000 0.8767 0.8773 0.8778 0.8784 0.8790
2875.000000 0.8793 0.8794 0.8795 0.8794 0.8792
2870.000000 0.8791 0.8790 0.8789 0.8788 0.8788
2865.000000 0.8788 0.8788 0.8787 0.8787 0.8786
2860.000000 0.8786 0.8785 0.8785 0.8784 0.8784
2855.000000 0.8783 0.8783 0.8782 0.8782 0.8782
2850.000000 0.8782 0.8782 0.8783 0.8783 0.8784
2845.000000 0.8784 0.8785 0.8785 0.8786 0.8786
2840.000000 0.8787 0.8787 0.8788 0.8788 0.8789
2835.000000 0.8789 0.8790 0.8790 0.8791 0.8791
2830.000000 0.8792 0.8792 0.8793 0.8793 0.8794
2825.000000 0.8794 0.8794 0.8792 0.8791 0.8790
2820.000000 0.8789 0.8788 0.8787 0.8785 0.8784
2815.000000 0.8783 0.8782 0.8780 0.8778 0.8778
2810.000000 0.8777 0.8775 0.8775 0.8773 0.8771
2805.000000 0.8771 0.8770 0.8768 0.8767 0.8766
2800.000000 0.8765 0.8764 0.8763 0.8761 0.8760
2795.000000 0.8760 0.8761 0.8762 0.8763 0.8763
2790.000000 0.8764 0.8765 0.8766 0.8766 0.8767
2785.000000 0.8768 0.8768 0.8770 0.8771 0.8771
2780.000000 0.8771 0.8773 0.8774 0.8774 0.8775
2775.000000 0.8775 0.8777 0.8778 0.8778 0.8778
2770.000000 0.8780 0.8781 0.8782 0.8782 0.8783
2765.000000 0.8783 0.8784 0.8784 0.8784 0.8784
2760.000000 0.8784 0.8784 0.8784 0.8784 0.8784
2755.000000 0.8784 0.8784 0.8784 0.8784 0.8784
2750.000000 0.8784 0.8784 0.8784 0.8784 0.8784
2745.000000 0.8784 0.8784 0.8784 0.8784 0.8784
2740.000000 0.8784 0.8784 0.8784 0.8784 0.8784
2735.000000 0.8784 0.8784 0.8784 0.8784 0.8784
2730.000000 0.8784 0.8784 0.8784 0.8784 0.8784
2725.000000 0.8784 0.8785 0.8785 0.8785 0.8785
2720.000000 0.8785 0.8785 0.8785 0.8785 0.8785
2715.000000 0.8785 0.8785 0.8785 0.8785 0.8785
2710.000000 0.8785 0.8785 0.8785 0.8785 0.8785
2705.000000 0.8785 0.8785 0.8785 0.8785 0.8785
2700.000000 0.8785 0.8785 0.8785 0.8785 0.8785
2695.000000 0.8785 0.8785 0.8785 0.8785 0.8785
2690.000000 0.8786 0.8786 0.8786 0.8786 0.8786
2685.000000 0.8786 0.8786 0.8786 0.8786 0.8785
2680.000000 0.8785 0.8784 0.8784 0.8784 0.8784
2675.000000 0.8783 0.8783 0.8782 0.8782 0.8782
2670.000000 0.8782 0.8781 0.8781 0.8780 0.8780
2665.000000 0.8780 0.8780 0.8778 0.8778 0.8778
2660.000000 0.8778 0.8778 0.8778 0.8777 0.8777
2655.000000 0.8775 0.8775 0.8775 0.8775 0.8775
2650.000000 0.8775 0.8774 0.8774 0.8773 0.8773
2645.000000 0.8773 0.8773 0.8771 0.8771 0.8768
2640.000000 0.8767 0.8765 0.8764 0.8762 0.8760
2635.000000 0.8758 0.8756 0.8754 0.8752 0.8750
2630.000000 0.8748 0.8746 0.8745 0.8743 0.8741
2625.000000 0.8739 0.8737 0.8735 0.8733 0.8731
2620.000000 0.8730 0.8728 0.8725 0.8724 0.8723
2615.000000 0.8721 0.8720 0.8718 0.8716 0.8714
2610.000000 0.8713 0.8711 0.8709 0.8707 0.8706
2605.000000 0.8705 0.8704 0.8702 0.8701 0.8699
2600.000000 0.8698 0.8697 0.8696 0.8694 0.8693
2595.000000 0.8692 0.8692 0.8692 0.8693 0.8693
2590.000000 0.8694 0.8694 0.8694 0.8694 0.8695
2585.000000 0.8695 0.8695 0.8695 0.8696 0.8696
2580.000000 0.8697 0.8697 0.8697 0.8697 0.8698
2575.000000 0.8698 0.8698 0.8697 0.8697 0.8696
2570.000000 0.8695 0.8694 0.8694 0.8693 0.8693
2565.000000 0.8692 0.8692 0.8691 0.8690 0.8689
2560.000000 0.8689 0.8688 0.8688 0.8687 0.8687
2555.000000 0.8686 0.8685 0.8684 0.8684 0.8683
2550.000000 0.8683 0.8682 0.8681 0.8680 0.8680
2545.000000 0.8678 0.8678 0.8678 0.8678 0.8677
2540.000000 0.8675 0.8675 0.8675 0.8674 0.8674
2535.000000 0.8674 0.8674 0.8674 0.8675 0.8675
2530.000000 0.8675 0.8675 0.8677 0.8677 0.8678
2525.000000 0.8678 0.8678 0.8678 0.8678 0.8678
2520.000000 0.8680 0.8680 0.8681 0.8681 0.8682
2515.000000 0.8682 0.8682 0.8682 0.8683 0.8683
2510.000000 0.8684 0.8684 0.8685 0.8685 0.8685
2505.000000 0.8685 0.8686 0.8687 0.8688 0.8689
2500.000000 0.8690 0.8691 0.8692 0.8693 0.8695
2495.000000 0.8696 0.8697 0.8698 0.8699 0.8700
2490.000000 0.8701 0.8702 0.8703 0.8704 0.8705
2485.000000 0.8706 0.8707 0.8708 0.8709 0.8710
2480.000000 0.8712 0.8713 0.8714 0.8715 0.8716
2475.000000 0.8716 0.8716 0.8716 0.8715 0.8713
2470.000000 0.8712 0.8711 0.8710 0.8709 0.8708
2465.000000 0.8706 0.8705 0.8704 0.8703 0.8701
2460.000000 0.8700 0.8699 0.8698 0.8697 0.8696
2455.000000 0.8694 0.8693 0.8692 0.8691 0.8690
2450.000000 0.8689 0.8687 0.8686 0.8685 0.8684
2445.000000 0.8683 0.8682 0.8680 0.8678 0.8678
2440.000000 0.8677 0.8675 0.8675 0.8674 0.8673
2435.000000 0.8671 0.8671 0.8671 0.8671 0.8670
2430.000000 0.8668 0.8668 0.8668 0.8667 0.8667
2425.000000 0.8666 0.8666 0.8665 0.8665 0.8665
2420.000000 0.8665 0.8664 0.8664 0.8663 0.8663
2415.000000 0.8663 0.8663 0.8663 0.8663 0.8663
2410.000000 0.8663 0.8663 0.8663 0.8663 0.8664
2405.000000 0.8664 0.8664 0.8664 0.8664 0.8664
2400.000000 0.8665 0.8665 0.8665 0.8665 0.8666
2395.000000 0.8666 0.8666 0.8666 0.8666 0.8666
2390.000000 0.8667 0.8667 0.8667 0.8667 0.8668
2385.000000 0.8668 0.8668 0.8668 0.8668 0.8670
2380.000000 0.8671 0.8671 0.8673 0.8673 0.8674
2375.000000 0.8675 0.8675 0.8675 0.8677 0.8678
2370.000000 0.8678 0.8680 0.8681 0.8681 0.8682
2365.000000 0.8683 0.8684 0.8685 0.8686 0.8686
2360.000000 0.8687 0.8687 0.8687 0.8685 0.8684
2355.000000 0.8682 0.8680 0.8678 0.8675 0.8674
2350.000000 0.8671 0.8670 0.8668 0.8666 0.8665
2345.000000 0.8663 0.8661 0.8659 0.8657 0.8655
2340.000000 0.8653 0.8651 0.8649 0.8647 0.8645
2335.000000 0.8643 0.8642 0.8640 0.8638 0.8636
2330.000000 0.8635 0.8633 0.8632 0.8631 0.8630
2325.000000 0.8628 0.8628 0.8627 0.8625 0.8625
2320.000000 0.8624 0.8623 0.8621 0.8620 0.8618
2315.000000 0.8618 0.8617 0.8616 0.8615 0.8614
2310.000000 0.8613 0.8612 0.8611 0.8610 0.8609
2305.000000 0.8608 0.8607 0.8606 0.8605 0.8604
2300.000000 0.8603 0.8602 0.8601 0.8600 0.8599
2295.000000 0.8598 0.8597 0.8596 0.8595 0.8594
2290.000000 0.8593 0.8592 0.8591 0.8590 0.8589
2285.000000 0.8588 0.8587 0.8586 0.8585 0.8584
2280.000000 0.8583 0.8582 0.8581 0.8580 0.8580
2275.000000 0.8578 0.8578 0.8577 0.8575 0.8575
2270.000000 0.8575 0.8574 0.8573 0.8571 0.8571
2265.000000 0.8571 0.8570 0.8568 0.8568 0.8568
2260.000000 0.8568 0.8567 0.8566 0.8565 0.8565
2255.000000 0.8564 0.8564 0.8563 0.8562 0.8561
2250.000000 0.8561 0.8560 0.8559 0.8558 0.8558
2245.000000 0.8557 0.8557 0.8556 0.8555 0.8554
2240.000000 0.8554 0.8553 0.8552 0.8551 0.8551
2235.000000 0.8550 0.8550 0.8549 0.8548 0.8547
2230.000000 0.8547 0.8546 0.8545 0.8544 0.8544
2225.000000 0.8544 0.8545 0.8545 0.8545 0.8545
2220.000000 0.8546 0.8546 0.8546 0.8546 0.8547
2215.000000 0.8547 0.8547 0.8546 0.8546 0.8545
2210.000000 0.8544 0.8543 0.8543 0.8542 0.8541
2205.000000 0.8540 0.8540 0.8540 0.8540 0.8540
2200.000000 0.8541 0.8544 0.8547 0.8554 0.8561
2195.000000 0.8568 0.8575 0.8583 0.8591 0.8600
2190.000000 0.8609 0.8618 0.8627 0.8635 0.8644
2185.000000 0.8645 0.8646 0.8628 0.8610 0.8592
2180.000000 0.8574 0.8559 0.8545 0.8545 0.8546
2175.000000 0.8546 0.8546 0.8546 0.8547 0.8547
2170.000000 0.8548 0.8548 0.8548 0.8548 0.8549
2165.000000 0.8549 0.8550 0.8550 0.8551 0.8551
2160.000000 0.8551 0.8552 0.8554 0.8555 0.8556
2155.000000 0.8557 0.8559 0.8560 0.8561 0.8562
2150.000000 0.8563 0.8564 0.8566 0.8567 0.8568
2145.000000 0.8568 0.8568 0.8567 0.8567 0.8566
2140.000000 0.8566 0.8565 0.8565 0.8564 0.8564
2135.000000 0.8563 0.8563 0.8562 0.8562 0.8561
2130.000000 0.8561 0.8560 0.8560 0.8559 0.8559
2125.000000 0.8558 0.8558 0.8557 0.8556 0.8555
2120.000000 0.8554 0.8552 0.8551 0.8549 0.8548
2115.000000 0.8546 0.8544 0.8542 0.8541 0.8539
2110.000000 0.8538 0.8536 0.8535 0.8534 0.8533
2105.000000 0.8533 0.8534 0.8534 0.8534 0.8534
2100.000000 0.8535 0.8535 0.8535 0.8535 0.8536
2095.000000 0.8536 0.8536 0.8536 0.8536 0.8536
2090.000000 0.8536 0.8536 0.8536 0.8536 0.8536
2085.000000 0.8535 0.8535 0.8535 0.8535 0.8535
2080.000000 0.8535 0.8535 0.8535 0.8535 0.8535
2075.000000 0.8535 0.8535 0.8535 0.8535 0.8535
2070.000000 0.8535 0.8534 0.8534 0.8535 0.8537
2065.000000 0.8538 0.8540 0.8541 0.8542 0.8543
2060.000000 0.8545 0.8546 0.8548 0.8549 0.8551
2055.000000 0.8552 0.8554 0.8555 0.8557 0.8558
2050.000000 0.8559 0.8559 0.8560 0.8560 0.8560
2045.000000 0.8560 0.8561 0.8561 0.8562 0.8562
2040.000000 0.8562 0.8562 0.8563 0.8563 0.8564
2035.000000 0.8564 0.8564 0.8564 0.8565 0.8565
2030.000000 0.8566 0.8566 0.8566 0.8566 0.8567
2025.000000 0.8567 0.8568 0.8568 0.8568 0.8568
2020.000000 0.8568 0.8568 0.8570 0.8570 0.8570
2015.000000 0.8570 0.8571 0.8571 0.8571 0.8573
2010.000000 0.8575 0.8575 0.8577 0.8578 0.8580
2005.000000 0.8581 0.8583 0.8584 0.8586 0.8588
2000.000000 0.8591 0.8594 0.8597 0.8604 0.8610
1995.000000 0.8616 0.8621 0.8628 0.8634 0.8637
1990.000000 0.8641 0.8644 0.8648 0.8651 0.8654
1985.000000 0.8657 0.8657 0.8657 0.8657 0.8656
1980.000000 0.8656 0.8656 0.8655 0.8654 0.8654
1975.000000 0.8654 0.8655 0.8658 0.8658 0.8659
1970.000000 0.8655 0.8651 0.8637 0.8620 0.8496
1965.000000 0.8377 0.8317 0.8251 0.8204 0.8191
1960.000000 0.8175 0.8188 0.8242 0.8297 0.8353
1955.000000 0.8404 0.8451 0.8473 0.8506 0.8485
1950.000000 0.8475 0.8443 0.8333 0.8230 0.8158
1945.000000 0.8086 0.7999 0.7904 0.7868 0.7843
1940.000000 0.7874 0.7893 0.7951 0.8011 0.8114
1935.000000 0.8260 0.8335 0.8401 0.8454 0.8528
1930.000000 0.8552 0.8564 0.8575 0.8584 0.8590
1925.000000 0.8595 0.8601 0.8607 0.8612 0.8618
1920.000000 0.8624 0.8628 0.8634 0.8639 0.8643
1915.000000 0.8648 0.8653 0.8657 0.8660 0.8661
1910.000000 0.8662 0.8684 0.8665 0.8666 0.8668
1905.000000 0.8670 0.8671 0.8674 0.8675 0.8675
1900.000000 0.8675 0.8675 0.8668 0.8664 0.8658
1895.000000 0.8633 0.8604 0.8575 0.8547 0.8524
1890.000000 0.8503 0.8482 0.8461 0.8450 0.8442
1885.000000 0.8442 0.8443 0.8450 0.8450 0.8451
1880.000000 0.8449 0.8428 0.8395 0.8349 0.8300
1875.000000 0.8262 0.8227 0.8191 0.8161 0.8160
1870.000000 0.8160 0.8160 0.8210 0.8271 0.8325
1865.000000 0.8378 0.8427 0.8467 0.8507 0.8547
1860.000000 0.8584 0.8599 0.8613 0.8627 0.8642
1855.000000 0.8656 0.8664 0.8668 0.8675 0.8680
1850.000000 0.8686 0.8692 0.8691 0.8690 0.8690
1845.000000 0.8689 0.8689 0.8688 0.8688 0.8687
1840.000000 0.8678 0.8678 0.8678 0.8677 0.8674
1835.000000 0.8671 0.8653 0.8636 0.8618 0.8601
1830.000000 0.8583 0.8558 0.8536 0.8531 0.8531
1825.000000 0.8531 0.8530 0.8530 0.8530 0.8515
1820.000000 0.8494 0.8474 0.8454 0.8435 0.8416
1815.000000 0.8397 0.8378 0.8360 0.8343 0.8327
1810.000000 0.8312 0.8298 0.8286 0.8273 0.8261
1805.000000 0.8262 0.8270 0.8275 0.8282 0.8280
1800.000000 0.8268 0.8257 0.8244 0.8228 0.8211
1795.000000 0.8195 0.8181 0.8168 0.8155 0.8121
1790.000000 0.8183 0.8231 0.8278 0.8325 0.8368
1785.000000 0.8412 0.8471 0.8539 0.8614 0.8620
1780.000000 0.8623 0.8625 0.8628 0.8630 0.8630
1775.000000 0.8628 0.8625 0.8623 0.8634 0.8667
1770.000000 0.8653 0.8660 0.8667 0.8675 0.8682
1765.000000 0.8688 0.8687 0.8686 0.8685 0.8675
1760.000000 0.8665 0.8654 0.8644 0.8634 0.8624
1755.000000 0.8613 0.8601 0.8585 0.8568 0.8554
1750.000000 0.8538 0.8528 0.8518 0.8510 0.8501
1745.000000 0.8492 0.8483 0.8474 0.8471 0.8471
1740.000000 0.8473 0.8461 0.8477 0.8490 0.8503
1735.000000 0.8516 0.8528 0.8546 0.8571 0.8596
1730.000000 0.8620 0.8635 0.8650 0.8666 0.8681
1725.000000 0.8690 0.8694 0.8698 0.8702 0.8706
1720.000000 0.8710 0.8713 0.8715 0.8717 0.8718
1715.000000 0.8720 0.8721 0.8723 0.8724 0.8725
1710.000000 0.8725 0.8727 0.8728 0.8728 0.8728
1705.000000 0.8725 0.8724 0.8721 0.8715 0.8699
1700.000000 0.8684 0.8668 0.8650 0.8627 0.8612
1695.000000 0.8607 0.8602 0.8602 0.8606 0.8606
1690.000000 0.8605 0.8607 0.8610 0.8612 0.8627
1685.000000 0.8642 0.8657 0.8664 0.8666 0.8667
1680.000000 0.8654 0.8640 0.8625 0.8612 0.8595
1675.000000 0.8577 0.8560 0.8546 0.8546 0.8545
1670.000000 0.8568 0.8591 0.8613 0.8631 0.8643
1665.000000 0.8650 0.8648 0.8645 0.8643 0.8638
1660.000000 0.8632 0.8625 0.8618 0.8611 0.8608
1655.000000 0.8604 0.8599 0.8595 0.8591 0.8586
1650.000000 0.8582 0.8578 0.8573 0.8570 0.8567
1645.000000 0.8564 0.8561 0.8561 0.8565 0.8570
1640.000000 0.8574 0.8578 0.8583 0.8587 0.8590
1635.000000 0.8590 0.8590 0.8589 0.8589 0.8588
1630.000000 0.8587 0.8582 0.8578 0.8574 0.8568
1625.000000 0.8565 0.8555 0.8545 0.8535 0.8525
1620.000000 0.8512 0.8495 0.8477 0.8460 0.8435
1615.000000 0.8409 0.8364 0.8313 0.8225 0.8122
1610.000000 0.7946 0.7443 0.6940 0.6436 0.5933
1605.000000 0.5429 0.5260 0.5293 0.6100 0.6908
1600.000000 0.7471 0.7555 0.7651 0.7768 0.7893
1595.000000 0.8074 0.8141 0.8203 0.8258 0.8310
1590.000000 0.8348 0.8362 0.8363 0.8368 0.8224
1585.000000 0.7988 0.7751 0.7426 0.7450 0.7522
1580.000000 0.7701 0.7878 0.8058 0.8236 0.8368
1575.000000 0.8411 0.8433 0.8454 0.8475 0.8498
1570.000000 0.8520 0.8535 0.8550 0.8564 0.8578
1565.000000 0.8594 0.8609 0.8623 0.8630 0.8637
1560.000000 0.8644 0.8651 0.8657 0.8663 0.8665
1555.000000 0.8667 0.8668 0.8671 0.8673 0.8675
1550.000000 0.8675 0.8661 0.8647 0.8633 0.8618
1545.000000 0.8597 0.8575 0.8553 0.8539 0.8531
1540.000000 0.8524 0.8516 0.8535 0.8500 0.8492
1535.000000 0.8485 0.8477 0.8471 0.8468 0.8465
1530.000000 0.8473 0.8480 0.8492 0.8505 0.8517
1525.000000 0.8527 0.8539 0.8547 0.8547 0.8547
1520.000000 0.8542 0.8528 0.8507 0.8471 0.8427
1515.000000 0.8377 0.8327 0.8055 0.7717 0.7378
1510.000000 0.7354 0.7348 0.7343 0.7339 0.7336
1505.000000 0.6028 0.4695 0.3362 0.2887 0.2939
1500.000000 0.3626 0.4420 0.5214 0.6009 0.6803
1495.000000 0.7328 0.7411 0.7474 0.7536 0.7614
1490.000000 0.7695 0.7775 0.7856 0.7936 0.8028
1485.000000 0.8119 0.8191 0.8260 0.8324 0.8374
1480.000000 0.8399 0.8410 0.8421 0.8425 0.8427
1475.000000 0.8428 0.8428 0.8428 0.8424 0.8425
1470.000000 0.8425 0.8415 0.8406 0.8396 0.8387
1465.000000 0.8371 0.8351 0.8330 0.8256 0.8134
1460.000000 0.6476 0.3984 0.3370 0.3356 0.4176
1455.000000 0.5067 0.5958 0.6849 0.7704 0.7767
1450.000000 0.7828 0.7875 0.7922 0.7969 0.8015
1445.000000 0.8061 0.8105 0.8148 0.8189 0.8230
1440.000000 0.8267 0.8294 0.8302 0.8311 0.8318
1435.000000 0.8328 0.8332 0.8334 0.8335 0.8337
1430.000000 0.8339 0.8340 0.8342 0.8344 0.8345
1425.000000 0.8347 0.8348 0.8350 0.8352 0.8353
1420.000000 0.8355 0.8355 0.8355 0.8355 0.8355
1415.000000 0.8355 0.8355 0.8354 0.8354 0.8354
1410.000000 0.8354 0.8354 0.8354 0.8353 0.8352
1405.000000 0.8352 0.8351 0.8350 0.8350 0.8346
1400.000000 0.8339 0.8332 0.8325 0.8318 0.8311
1395.000000 0.8300 0.8288 0.8275 0.8263 0.8248
1390.000000 0.8225 0.8203 0.8188 0.8174 0.8171
1385.000000 0.8134 0.8186 0.8194 0.8203 0.8211
1380.000000 0.8218 0.8225 0.8230 0.8236 0.8241
1375.000000 0.8246 0.8251 0.8257 0.8262 0.8267
1370.000000 0.8271 0.8278 0.8283 0.8288 0.8293
1365.000000 0.8299 0.8304 0.8311 0.8324 0.8336
1360.000000 0.8348 0.8361 0.8373 0.8392 0.8414
1355.000000 0.8436 0.8457 0.8471 0.8487 0.8499
1350.000000 0.8507 0.8516 0.8515 0.8515 0.8517
1345.000000 0.8499 0.8465 0.8412 0.8335 0.8201
1340.000000 0.8154 0.8136 0.8168 0.8194 0.8235
1335.000000 0.8254 0.8260 0.8266 0.8268 0.8300
1330.000000 0.8235 0.8194 0.8162 0.8133 0.8126
1325.000000 0.8118 0.8121 0.8141 0.8161 0.8183
1320.000000 0.8203 0.8232 0.8264 0.8297 0.8327
1315.000000 0.8347 0.8366 0.8385 0.8399 0.8399
1310.000000 0.8399 0.8396 0.8393 0.8390 0.8385
1305.000000 0.8380 0.8374 0.8368 0.8362 0.8357
1300.000000 0.8352 0.8360 0.8368 0.8378 0.8389
1295.000000 0.8399 0.8408 0.8418 0.8428 0.8435
1290.000000 0.8441 0.8446 0.8452 0.8458 0.8464
1285.000000 0.8468 0.8475 0.8511 0.8486 0.8490
1280.000000 0.8492 0.8495 0.8496 0.8497 0.8496
1275.000000 0.8492 0.8488 0.8481 0.8464 0.8447
1270.000000 0.8423 0.8392 0.8328 0.8353 0.8341
1265.000000 0.8340 0.8345 0.8351 0.8356 0.8368
1260.000000 0.8385 0.8401 0.8418 0.8436 0.8457
1255.000000 0.8478 0.8499 0.8517 0.8532 0.8547
1250.000000 0.8561 0.8570 0.8575 0.8581 0.8586
1245.000000 0.8591 0.8592 0.8592 0.8590 0.8588
1240.000000 0.8586 0.8581 0.8575 0.8570 0.8568
1235.000000 0.8571 0.8575 0.8578 0.8583 0.8588
1230.000000 0.8593 0.8593 0.8594 0.8567 0.8544
1225.000000 0.8528 0.8514 0.8499 0.8483 0.8458
1220.000000 0.8431 0.8403 0.8378 0.8354 0.8335
1215.000000 0.8330 0.8355 0.8375 0.8396 0.8418
1210.000000 0.8457 0.8496 0.8535 0.8555 0.8574
1205.000000 0.8592 0.8608 0.8609 0.8609 0.8609
1200.000000 0.8605 0.8600 0.8595 0.8585 0.8575
1195.000000 0.8564 0.8554 0.8542 0.8528 0.8516
1190.000000 0.8502 0.8485 0.8454 0.8423 0.8392
1185.000000 0.8362 0.8332 0.8311 0.8291 0.8271
1180.000000 0.8230 0.8249 0.8260 0.8274 0.8288
1175.000000 0.8304 0.8338 0.8371 0.8401 0.8418
1170.000000 0.8437 0.8453 0.8466 0.8471 0.8473
1165.000000 0.8474 0.8456 0.8439 0.8411 0.8378
1160.000000 0.8344 0.8321 0.8304 0.8278 0.8249
1155.000000 0.8289 0.8328 0.8249 0.8415 0.8457
1150.000000 0.8484 0.8512 0.8539 0.8565 0.8580
1145.000000 0.8594 0.8608 0.8623 0.8637 0.8651
1140.000000 0.8662 0.8673 0.8682 0.8687 0.8692
1135.000000 0.8697 0.8702 0.8707 0.8712 0.8717
1130.000000 0.8721 0.8727 0.8732 0.8737 0.8742
1125.000000 0.8749 0.8755 0.8761 0.8767 0.8778
1120.000000 0.8778 0.8778 0.8781 0.8784 0.8786
1115.000000 0.8789 0.8791 0.8785 0.8775 0.8767
1110.000000 0.8753 0.8738 0.8720 0.8698 0.8675
1105.000000 0.8645 0.8610 0.8581 0.8564 0.8547
1100.000000 0.8545 0.8544 0.8568 0.8597 0.8625
1095.000000 0.8655 0.8673 0.8686 0.8698 0.8708
1090.000000 0.8707 0.8705 0.8704 0.8702 0.8700
1085.000000 0.8697 0.8694 0.8687 0.8671 0.8655
1080.000000 0.8580 0.8499 0.8364 0.7951 0.7383
1075.000000 0.6814 0.6617 0.6614 0.6814 0.7062
1070.000000 0.7311 0.7560 0.7808 0.8057 0.8291
1065.000000 0.8412 0.8482 0.8535 0.8582 0.8621
1060.000000 0.8660 0.8699 0.8716 0.8728 0.8739
1055.000000 0.8746 0.8754 0.8758 0.8761 0.8764
1050.000000 0.8768 0.8768 0.8768 0.8770 0.8771
1045.000000 0.8771 0.8771 0.8768 0.8764 0.8758
1040.000000 0.8742 0.8727 0.8697 0.8639 0.8578
1035.000000 0.8490 0.7588 0.6848 0.6851 0.7028
1030.000000 0.7287 0.7546 0.7805 0.8064 0.8201
1025.000000 0.8241 0.8285 0.8354 0.8411 0.8454
1020.000000 0.8481 0.8505 0.8521 0.8530 0.8535
1015.000000 0.8538 0.8541 0.8533 0.8530 0.8518
1010.000000 0.8506 0.8478 0.8452 0.8425 0.8404
1005.000000 0.8381 0.8367 0.8355 0.8349 0.8343
1000.000000 0.8338 0.8332 0.8325 0.8325 0.8325
995.000000 0.8325 0.8320 0.8309 0.8298 0.8287
990.000000 0.8263 0.8235 0.8207 0.8158 0.8068
985.000000 0.7967 0.7654 0.5635 0.5633 0.5631
980.000000 0.6262 0.7017 0.7571 0.7653 0.7724
975.000000 0.7769 0.7775 0.7789 0.7719 0.7558
970.000000 0.6856 0.6155 0.5454 0.4752 0.4050
965.000000 0.3349 0.2648 0.1945 0.0981 0.1001
960.000000 0.1015 0.1265 0.2121 0.2976 0.3832
955.000000 0.4688 0.5543 0.6371 0.7060 0.7300
950.000000 0.7531 0.7687 0.7818 0.7914 0.7993
945.000000 0.8051 0.8111 0.8169 0.8228 0.8278
940.000000 0.8325 0.8356 0.8374 0.8393 0.8406
935.000000 0.8416 0.8425 0.8436 0.8440 0.8443
930.000000 0.8445 0.8434 0.8450 0.8452 0.8448
925.000000 0.8443 0.8439 0.8434 0.8430 0.8418
920.000000 0.8406 0.8394 0.8371 0.8345 0.8320
915.000000 0.8261 0.8201 0.8140 0.8078 0.8017
910.000000 0.7949 0.7882 0.7814 0.7814 0.7795
905.000000 0.7861 0.7968 0.8083 0.8181 0.8255
900.000000 0.8309 0.8363 0.8402 0.8440 0.8462
895.000000 0.8478 0.8493 0.8508 0.8524 0.8528
890.000000 0.8532 0.8535 0.8539 0.8542 0.8546
885.000000 0.8547 0.8547 0.8543 0.8538 0.8534
880.000000 0.8530 0.8525 0.8521 0.8517 0.8511
875.000000 0.8503 0.8495 0.8487 0.8478 0.8471
870.000000 0.8464 0.8456 0.8448 0.8440 0.8432
865.000000 0.8420 0.8408 0.8363 0.8384 0.8371
860.000000 0.8360 0.8348 0.8337 0.8325 0.8315
855.000000 0.8304 0.8293 0.8277 0.8257 0.8236
850.000000 0.8234 0.8239 0.8246 0.8254 0.8262
845.000000 0.8266 0.8268 0.8268 0.8255 0.8242
840.000000 0.8233 0.8227 0.8221 0.8216 0.8206
835.000000 0.8197 0.8217 0.8247 0.8275 0.8294
830.000000 0.8312 0.8330 0.8348 0.8367 0.8385
825.000000 0.8399 0.8408 0.8417 0.8425 0.8435
820.000000 0.8439 0.8442 0.8446 0.8450 0.8454
815.000000 0.8454 0.8455 0.8454 0.8452 0.8451
810.000000 0.8449 0.8448 0.8446 0.8444 0.8443
805.000000 0.8441 0.8440 0.8438 0.8436 0.8435
800.000000 0.8433 0.8431 0.8428 0.8428 0.8425
795.000000 0.8423 0.8418 0.8412 0.8407 0.8402
790.000000 0.8397 0.8392 0.8380 0.8368 0.8355
785.000000 0.8343 0.8328 0.8296 0.8265 0.8233
780.000000 0.8194 0.8132 0.8068 0.8000 0.7921
775.000000 0.7844 0.7731 0.7608 0.7451 0.6744
770.000000 0.5815 0.4887 0.3958 0.3030 0.2101
765.000000 0.1172 0.0129 0.0102 0.0100 0.0100
760.000000 0.1058 0.2055 0.3052 0.4049 0.5046
755.000000 0.6043 0.7039 0.7288 0.7339 0.7388
750.000000 0.7467 0.7567 0.7651 0.7728 0.7706
745.000000 0.7708 0.7708 0.7708 0.7658 0.7568
740.000000 0.7424 0.7341 0.7183 0.7117 0.7118
735.000000 0.7118 0.7118 0.7198 0.7261 0.7324
730.000000 0.7393 0.7467 0.7540 0.7628 0.7728
725.000000 0.7815 0.7893 0.7944 0.7994 0.8030
720.000000 0.8028 0.8021 0.8018 0.8007 0.7991
715.000000 0.7975 0.7931 0.7885 0.7831 0.7771
710.000000 0.7711 0.7488 0.7267 0.7122 0.6992
705.000000 0.6886 0.6780 0.6437 0.6012 0.5217
700.000000 0.4421 0.3626 0.3324 0.3088 0.2491
695.000000 0.1894 0.1299 0.0702 0.0105 0.0102
690.000000 0.0131 0.0660 0.1555 0.2449 0.3344
685.000000 0.4239 0.5133 0.6028 0.6167 0.6260
680.000000 0.6377 0.6504 0.6928 0.7097 0.7301
675.000000 0.7355 0.7386 0.7404 0.7421 0.7439
670.000000 0.7457 0.7475 0.7495 0.7517 0.7540
665.000000 0.7562 0.7585 0.7608 0.7628 0.7645
660.000000 0.7660 0.7675 0.7692 0.7707 0.7722
655.000000 0.7738 0.7754 0.7769 0.7785 0.7801
650.000000 0.7815 0.7830 0.7845 0.7858 0.7874
645.000000 0.7888 0.7903 0.7918 0.7932 0.7942
640.000000 0.7950 0.7958 0.7967 0.7975 0.7984
635.000000 0.7992 0.8000 0.8008 0.8017 0.8025
630.000000 0.8034 0.8042 0.8051 0.8058 0.8067
625.000000 0.8072 0.8080 0.8086 0.8093 0.8099
620.000000 0.8105 0.8111 0.8118 0.8125 0.8131
615.000000 0.8137 0.8144 0.8150 0.8157 0.8162
610.000000 0.8168 0.8175 0.8181 0.8185 0.8190
605.000000 0.8194 0.8198 0.8203 0.8207 0.8212
600.000000 0.8216 0.8220 0.8225 0.8228 0.8230
595.000000 0.8231 0.8233 0.8235 0.8236 0.8238
590.000000 0.8249 0.8241 0.8243 0.8243 0.8243
585.000000 0.8242 0.8241 0.8239 0.8238 0.8236
580.000000 0.8235 0.8233 0.8232 0.8230 0.8228
575.000000 0.8224 0.8218 0.8213 0.8207 0.8202
570.000000 0.8196 0.8190 0.8182 0.8171 0.8158
565.000000 0.8148 0.8137 0.8125 0.8112 0.8097
560.000000 0.8081 0.8065 0.8047 0.8025 0.8004
555.000000 0.7983 0.7947 0.7904 0.7831 0.7724
550.000000 0.7453 0.7121 0.6665 0.6209 0.5752
545.000000 0.5136 0.5129 0.5128 0.5330 0.5722
540.000000 0.6114 0.6506 0.6657 0.6642 0.5787
535.000000 0.4760 0.3732 0.2708 0.2722 0.2713
530.000000 0.3364 0.4082 0.4800 0.5517 0.6235
525.000000 0.6651 0.6868 0.7065 0.7221 0.7378
520.000000 0.7540 0.7675 0.7793 0.7891 0.7938
515.000000 0.7978 0.7994 0.8001 0.8008 0.8014
510.000000 0.8011 0.8010 0.8008 0.8006 0.8003
505.000000 0.8001 0.7999 0.7997 0.7995 0.7992
500.000000 0.7990 0.7988 0.7986 0.7984 0.7982
495.000000 0.7980 0.7978 0.7975 0.7972 0.7971
490.000000 0.7968 0.7967 0.7965 0.7982 0.7969
485.000000 0.7974 0.7978 0.7982 0.7986 0.7989
480.000000 0.7993 0.7997 0.8001 0.8005 0.8007
475.000000 0.8008 0.8010 0.8011 0.8012 0.8014
470.000000 0.8015 0.8017 0.8018 0.8018 0.8021
465.000000 0.8021 0.8022 0.8025 0.8025 0.8026
460.000000 0.8028 0.8030 0.8031 0.8032 0.8034
455.000000 0.8035 0.8036 0.8037 0.8039 0.8040
450.000000 0.8043 0.8046 0.8050 0.8053 0.8056
445.000000 0.8060 0.8062 0.8067 0.8069 0.8072
440.000000 0.8076 0.8080 0.8084 0.8087 0.8090
435.000000 0.8094 0.8094 0.8094 0.8095 0.8095
430.000000 0.8096 0.8096 0.8096 0.8097 0.8097
425.000000 0.8098 0.8098 0.8098 0.8099 0.8099
420.000000 0.8100 0.8101 0.8101 0.8103 0.8105
415.000000 0.8106 0.8107 0.8108 0.8108 0.8111
410.000000 0.8111 0.8114 0.8115 0.8117 0.8118
405.000000 0.8121 0.8121 0.8122 0.8124 0.8125
400.000000 0.8125 0.8131 0.8138
##END=
