##TITLE=DIBENZYL SUCCINATE
$$ E. K. CO. (WHITE LABEL)
##JCAMP-DX=4.24
##DATA TYPE=INFRARED SPECTRUM
##CLASS=COBLENTZ
##ORIGIN=WYANDOTTE CHEMICALS CORP., WYANDOTTE, MICHIGAN, USA
##OWNER=COBLENTZ SOCIETY
Collection (C) 2018 copyright by the U.S. Secretary of Commerce
on behalf of the United States of America. All rights reserved.
##DATE=Not specified, most likely prior to 1970
##CAS REGISTRY NO=103-43-5
##MOLFORM=C18 H18 O4
##MP=46-48 C
##SOURCE REFERENCE=COBLENTZ NO. 2836
##$NIST SOURCE=COBLENTZ
##$NIST IMAGE=cob2836
##SPECTROMETER/DATA SYSTEM=Not specified, most likely a prism, grating, or hybrid spectrometer.
##STATE=SOLID (MINERAL OIL MULL)
##PATH LENGTH=
$$SPECTRAL CONTAMINATION DUE TO OIL AROUND 2900 CM^-^1
##SAMPLING PROCEDURE=TRANSMISSION
##RESOLUTION=4
##DATA PROCESSING=DIGITIZED BY NIST FROM HARD COPY
##XUNITS=MICROMETERS
##YUNITS=TRANSMITTANCE
##XFACTOR=1.000000
##YFACTOR=1
##DELTAX=000.006629
##FIRSTX=2.027
##LASTX=16.0067
##FIRSTY=0.479
##MAXX=16.0067
##MINX=2.027
##MAXY=0.948
##MINY=0.056
##NPOINTS=2110
##XYDATA=(X++(Y..Y))
2.027000 0.4790 0.4800 0.4820 0.4820 0.4840
2.060160 0.4840 0.4840 0.4870 0.4890 0.4900
2.093000 0.4900 0.4920 0.4920 0.4950 0.4950
2.126160 0.4970 0.4990 0.5000 0.5000 0.5000
2.159000 0.5020 0.5020 0.5020 0.5020 0.5020
2.192160 0.5040 0.5040 0.5040 0.5040 0.5040
2.225000 0.5040 0.5040 0.5050 0.5050 0.5050
2.258160 0.5050 0.5050 0.5050 0.5050 0.5050
2.292000 0.5050 0.5070 0.5070 0.5090 0.5090
2.325160 0.5090 0.5100 0.5100 0.5100 0.5140
2.358000 0.5150 0.5170 0.5170 0.5190 0.5200
2.391160 0.5220 0.5220 0.5240 0.5250 0.5250
2.424000 0.5270 0.5270 0.5290 0.5290 0.5300
2.457160 0.5300 0.5320 0.5340 0.5350 0.5350
2.491000 0.5370 0.5390 0.5400 0.5420 0.5440
2.524160 0.5450 0.5470 0.5500 0.5520 0.5540
2.557000 0.5550 0.5550 0.5570 0.5590 0.5600
2.590160 0.5600 0.5620 0.5620 0.5620 0.5620
2.623000 0.5620 0.5640 0.5640 0.5670 0.5690
2.656160 0.5770 0.5820 0.5820 0.5850 0.5850
2.689000 0.5870 0.5870 0.5890 0.5890 0.5890
2.722160 0.5890 0.5890 0.5890 0.5890 0.5890
2.756000 0.5890 0.5870 0.5870 0.5870 0.5870
2.789160 0.5870 0.5870 0.5850 0.5840 0.5840
2.822000 0.5820 0.5790 0.5770 0.5740 0.5720
2.855160 0.5690 0.5690 0.5670 0.5670 0.5670
2.888000 0.5670 0.5650 0.5620 0.5570 0.5450
2.921160 0.5370 0.5350 0.5350 0.5370 0.5400
2.955000 0.5440 0.5470 0.5500 0.5540 0.5540
2.988160 0.5540 0.5550 0.5550 0.5570 0.5570
3.021000 0.5600 0.5640 0.5650 0.5670 0.5670
3.054160 0.5670 0.5670 0.5670 0.5650 0.5650
3.087000 0.5650 0.5640 0.5640 0.5640 0.5640
3.120160 0.5640 0.5640 0.5640 0.5640 0.5640
3.153000 0.5650 0.5650 0.5650 0.5650 0.5650
3.186160 0.5650 0.5640 0.5640 0.5640 0.5600
3.220000 0.5570 0.5470 0.5400 0.5320 0.5140
3.253160 0.5040 0.4920 0.4690 0.4490 0.4300
3.286000 0.4250 0.4150 0.3960 0.3770 0.3690
3.319160 0.3640 0.3570 0.3510 0.3170 0.2710
3.352000 0.2140 0.1590 0.1090 0.0810 0.0740
3.385160 0.0660 0.0640 0.0630 0.0610 0.0610
3.419000 0.0630 0.0660 0.0690 0.0760 0.0880
3.452160 0.1010 0.1160 0.1260 0.1390 0.1410
3.485000 0.1410 0.1410 0.1360 0.1360 0.1380
3.518160 0.1560 0.1980 0.2020 0.3310 0.3390
3.551000 0.3810 0.4220 0.4650 0.6450 0.6580
3.584160 0.6700 0.6830 0.6930 0.7020 0.7050
3.617000 0.7100 0.7120 0.7150 0.7200 0.7220
3.650160 0.7220 0.7220 0.7200 0.7180 0.7180
3.684000 0.7170 0.7170 0.7150 0.7130 0.7130
3.717160 0.7130 0.7130 0.7130 0.7130 0.7150
3.750000 0.7150 0.7180 0.7200 0.7220 0.7220
3.783160 0.7230 0.7230 0.7250 0.7270 0.7270
3.816000 0.7300 0.7320 0.7330 0.7350 0.7370
3.849160 0.7380 0.7400 0.7430 0.7480 0.7530
3.883000 0.7550 0.7550 0.7570 0.7570 0.7580
3.916160 0.7580 0.7600 0.7600 0.7600 0.7600
3.949000 0.7600 0.7600 0.7620 0.7620 0.7620
3.982160 0.7630 0.7650 0.7670 0.7680 0.7700
4.015000 0.7700 0.7720 0.7720 0.7730 0.7730
4.048160 0.7750 0.7750 0.7750 0.7770 0.7770
4.081000 0.7780 0.7800 0.7800 0.7800 0.7780
4.114160 0.7780 0.7750 0.7750 0.7750 0.7770
4.148000 0.7770 0.7780 0.7780 0.7800 0.7800
4.181160 0.7820 0.7820 0.7830 0.7870 0.7870
4.214000 0.7880 0.7880 0.7920 0.7920 0.7900
4.247160 0.7800 0.7770 0.7750 0.7750 0.7770
4.280000 0.7770 0.7800 0.7880 0.7930 0.7980
4.313160 0.8000 0.8010 0.8030 0.8050 0.8060
4.347000 0.8060 0.8100 0.8210 0.8230 0.8250
4.380160 0.8260 0.8280 0.8300 0.8350 0.8360
4.413000 0.8360 0.8350 0.8310 0.8280 0.8210
4.446160 0.8200 0.8200 0.8200 0.8210 0.8210
4.479000 0.8250 0.8260 0.8260 0.8280 0.8300
4.512160 0.8310 0.8330 0.8350 0.8380 0.8380
4.545000 0.8400 0.8410 0.8430 0.8430 0.8430
4.578160 0.8410 0.8400 0.8400 0.8400 0.8410
4.612000 0.8430 0.8450 0.8450 0.8460 0.8480
4.645160 0.8480 0.8500 0.8510 0.8550 0.8560
4.678000 0.8560 0.8580 0.8600 0.8600 0.8580
4.711160 0.8560 0.8550 0.8530 0.8510 0.8500
4.744000 0.8480 0.8460 0.8460 0.8460 0.8480
4.777160 0.8500 0.8530 0.8560 0.8600 0.8630
4.811000 0.8630 0.8710 0.8730 0.8760 0.8760
4.844160 0.8780 0.8780 0.8800 0.8800 0.8810
4.877000 0.8810 0.8830 0.8830 0.8830 0.8850
4.910160 0.8860 0.8880 0.8880 0.8900 0.8960
4.943000 0.9000 0.9030 0.9050 0.9060 0.9060
4.976160 0.9060 0.9060 0.9050 0.9050 0.9030
5.009000 0.9000 0.8980 0.8980 0.8980 0.9000
5.042160 0.9010 0.9010 0.9030 0.9030 0.9030
5.076000 0.9030 0.9010 0.9010 0.8980 0.8900
5.109160 0.8800 0.8710 0.8660 0.8610 0.8580
5.142000 0.8580 0.8550 0.8550 0.8550 0.8560
5.175160 0.8600 0.8710 0.8860 0.8930 0.9000
5.208000 0.9100 0.9180 0.9250 0.9280 0.9280
5.241160 0.9300 0.9300 0.9310 0.9310 0.9330
5.275000 0.9380 0.9400 0.9400 0.9400 0.9380
5.308160 0.9310 0.9260 0.9210 0.9200 0.9200
5.341000 0.9200 0.9200 0.9160 0.8980 0.8950
5.374160 0.8950 0.8950 0.8980 0.9260 0.9360
5.407000 0.9380 0.9460 0.9480 0.9480 0.9480
5.440160 0.9480 0.9460 0.9460 0.9460 0.9450
5.473000 0.9430 0.9410 0.9360 0.9230 0.9200
5.506160 0.9180 0.8810 0.8760 0.8750 0.8750
5.540000 0.8780 0.8860 0.8980 0.9050 0.9050
5.573160 0.9050 0.9010 0.8980 0.8930 0.8850
5.606000 0.8730 0.8580 0.8560 0.8460 0.8260
5.639160 0.8100 0.7930 0.7800 0.7720 0.7620
5.672000 0.7420 0.7120 0.6550 0.5720 0.5150
5.705160 0.4850 0.4540 0.4050 0.3610 0.2990
5.739000 0.2160 0.1740 0.1330 0.1130 0.0830
5.772160 0.0680 0.0660 0.0680 0.1040 0.1360
5.805000 0.1640 0.2070 0.2440 0.2710 0.2910
5.838160 0.3060 0.3190 0.3320 0.3510 0.3670
5.871000 0.3860 0.3970 0.4040 0.4000 0.4050
5.904160 0.4150 0.4320 0.4520 0.4770 0.5250
5.937000 0.5440 0.5490 0.5570 0.5690 0.5800
5.970160 0.5920 0.6000 0.6080 0.6170 0.6250
6.004000 0.6320 0.6370 0.6380 0.6480 0.6530
6.037160 0.6570 0.6620 0.6630 0.6650 0.6670
6.070000 0.6680 0.6700 0.6750 0.6800 0.6850
6.103160 0.6920 0.6950 0.6970 0.7000 0.7070
6.136000 0.7130 0.7200 0.7220 0.7200 0.7020
6.169160 0.6670 0.6300 0.6250 0.6300 0.6500
6.203000 0.6850 0.7070 0.7170 0.7230 0.7250
6.236160 0.7280 0.7220 0.7020 0.6750 0.6470
6.269000 0.6430 0.6430 0.6650 0.6870 0.7080
6.302160 0.7270 0.7520 0.7720 0.7770 0.7850
6.335000 0.7900 0.7930 0.7930 0.7930 0.7930
6.368160 0.7930 0.7950 0.7970 0.7970 0.7970
6.402000 0.7970 0.7930 0.7930 0.7920 0.7830
6.435160 0.7780 0.7770 0.7770 0.7780 0.7850
6.468000 0.7980 0.8000 0.8000 0.8010 0.8010
6.501160 0.8030 0.8030 0.8010 0.8010 0.8010
6.534000 0.8030 0.8050 0.8060 0.8060 0.8050
6.567160 0.8030 0.8000 0.7950 0.7850 0.7750
6.600000 0.7430 0.6970 0.6320 0.5650 0.4640
6.633160 0.3620 0.3610 0.3620 0.4590 0.5700
6.667000 0.6200 0.6520 0.6800 0.7120 0.7220
6.700160 0.7220 0.7180 0.7030 0.6900 0.6750
6.733000 0.6580 0.6330 0.6000 0.5570 0.5270
6.766160 0.4970 0.4200 0.3660 0.3310 0.2910
6.799000 0.2610 0.2190 0.2090 0.1960 0.1740
6.832160 0.1610 0.1580 0.1580 0.1590 0.1890
6.866000 0.2260 0.2620 0.2960 0.3260 0.3560
6.899160 0.3840 0.4100 0.4400 0.4720 0.5300
6.932000 0.5550 0.5850 0.6070 0.6400 0.6620
6.965160 0.6800 0.6830 0.6880 0.6880 0.6870
6.998000 0.5740 0.4990 0.4240 0.2310 0.2290
7.031160 0.2310 0.2720 0.3260 0.3710 0.4070
7.064000 0.4300 0.4520 0.4900 0.5420 0.5570
7.097160 0.5700 0.5800 0.5900 0.5990 0.6030
7.131000 0.6050 0.6070 0.6100 0.6130 0.6150
7.164160 0.6130 0.6050 0.5900 0.5640 0.5340
7.197000 0.5050 0.4750 0.4070 0.3510 0.3190
7.230160 0.2810 0.2790 0.2810 0.3040 0.3290
7.263000 0.3460 0.3740 0.4050 0.4200 0.4300
7.296160 0.4390 0.4400 0.4420 0.4440 0.4490
7.330000 0.4490 0.4490 0.4490 0.4490 0.4400
7.363160 0.4140 0.3810 0.3640 0.3540 0.3390
7.396000 0.3190 0.2970 0.2760 0.2540 0.2340
7.429160 0.2170 0.2060 0.1940 0.1880 0.1830
7.462000 0.1810 0.1790 0.1780 0.1740 0.1710
7.495160 0.1710 0.1690 0.1660 0.1540 0.1440
7.528000 0.1310 0.1210 0.1140 0.1040 0.0960
7.561160 0.0880 0.0830 0.0810 0.0790 0.0780
7.595000 0.0740 0.0730 0.0710 0.0710 0.0710
7.628160 0.0710 0.0740 0.0840 0.1080 0.1280
7.661000 0.1440 0.1630 0.1830 0.2070 0.2360
7.694160 0.2710 0.3120 0.3510 0.3810 0.4000
7.727000 0.4200 0.4400 0.4600 0.4790 0.4950
7.760160 0.5220 0.5300 0.5350 0.5400 0.5540
7.794000 0.5690 0.5850 0.6030 0.6180 0.6270
7.827160 0.6350 0.6450 0.6500 0.6580 0.6650
7.860000 0.6680 0.6720 0.6870 0.6880 0.6880
7.893160 0.6880 0.6870 0.6850 0.6830 0.6820
7.926000 0.6820 0.6800 0.6800 0.6770 0.6750
7.959160 0.6750 0.6730 0.6680 0.6530 0.6230
7.992000 0.6080 0.5020 0.4840 0.4650 0.4400
8.025160 0.4390 0.4420 0.4790 0.5640 0.5900
8.059000 0.6100 0.6380 0.6580 0.6750 0.6820
8.092160 0.6850 0.6900 0.6980 0.6980 0.7000
8.125000 0.7000 0.7020 0.7030 0.7030 0.7020
8.158160 0.6980 0.6920 0.6850 0.6800 0.6720
8.191000 0.6650 0.6500 0.6270 0.5970 0.5840
8.224160 0.5650 0.5290 0.5040 0.4770 0.4150
8.258000 0.3640 0.3190 0.3170 0.3190 0.3560
8.291160 0.3960 0.4340 0.4750 0.5400 0.5590
8.324000 0.5640 0.5670 0.5690 0.5670 0.5600
8.357160 0.5450 0.5320 0.5240 0.5090 0.4990
8.390000 0.4890 0.4650 0.4390 0.4100 0.3820
8.423160 0.3640 0.3340 0.3090 0.2870 0.2640
8.456000 0.2390 0.2090 0.1910 0.1730 0.1560
8.489160 0.1430 0.1290 0.1160 0.1060 0.0980
8.523000 0.0890 0.0830 0.0740 0.0680 0.0610
8.556160 0.0580 0.0560 0.0560 0.0560 0.0560
8.589000 0.0560 0.0560 0.0560 0.0560 0.0560
8.622160 0.0590 0.0610 0.0610 0.0610 0.0610
8.655000 0.0630 0.0690 0.0730 0.0780 0.0780
8.688160 0.0840 0.1030 0.1140 0.1210 0.1330
8.722000 0.1440 0.1590 0.1740 0.1890 0.1990
8.755160 0.2140 0.2260 0.2360 0.2470 0.2640
8.788000 0.2740 0.2860 0.2970 0.3110 0.3240
8.821160 0.3410 0.3570 0.3740 0.3790 0.3860
8.854000 0.4020 0.4170 0.4290 0.4370 0.4450
8.887160 0.4550 0.4620 0.4690 0.4740 0.4820
8.920000 0.4900 0.4990 0.5190 0.5270 0.5320
8.953160 0.5370 0.5370 0.5390 0.5450 0.5470
8.987000 0.5540 0.5590 0.5750 0.5890 0.5950
9.020160 0.6050 0.6100 0.6120 0.6130 0.6150
9.053000 0.6180 0.6220 0.6250 0.6280 0.6330
9.086160 0.6380 0.6430 0.6500 0.6520 0.6530
9.119000 0.6550 0.6580 0.6620 0.6680 0.6680
9.152160 0.6680 0.6680 0.6680 0.6680 0.6680
9.186000 0.6680 0.6670 0.6620 0.6530 0.6400
9.219160 0.6320 0.6050 0.5590 0.5550 0.5550
9.252000 0.5570 0.5700 0.5890 0.6050 0.6220
9.285160 0.6350 0.6470 0.6550 0.6670 0.6730
9.318000 0.6780 0.6850 0.6930 0.6980 0.7000
9.351160 0.7020 0.7050 0.7120 0.7180 0.7220
9.384000 0.7230 0.7250 0.7280 0.7300 0.7300
9.417160 0.7320 0.7320 0.7350 0.7370 0.7420
9.451000 0.7500 0.7520 0.7530 0.7580 0.7600
9.484160 0.7620 0.7630 0.7650 0.7670 0.7680
9.517000 0.7700 0.7720 0.7730 0.7750 0.7770
9.550160 0.7820 0.7820 0.7830 0.7850 0.7850
9.583000 0.7850 0.7850 0.7830 0.7820 0.7800
9.616160 0.7800 0.7780 0.7750 0.7570 0.7320
9.650000 0.6830 0.6330 0.5870 0.5570 0.5550
9.683160 0.5570 0.6070 0.6620 0.6900 0.7170
9.716000 0.7320 0.7380 0.7480 0.7500 0.7500
9.749160 0.7500 0.7500 0.7500 0.7500 0.7500
9.782000 0.7480 0.7400 0.7280 0.7130 0.7000
9.815160 0.6850 0.6670 0.6470 0.6220 0.5940
9.848000 0.5590 0.5170 0.4900 0.4640 0.4000
9.881160 0.3220 0.2870 0.2470 0.1890 0.1590
9.915000 0.1310 0.1180 0.1090 0.0980 0.0960
9.948160 0.0960 0.0960 0.0990 0.1090 0.1390
9.981000 0.1610 0.1880 0.2190 0.2540 0.2910
10.014160 0.3240 0.3570 0.3840 0.4040 0.4250
10.047000 0.4400 0.4490 0.4590 0.4650 0.4740
10.080160 0.4850 0.5300 0.5540 0.5620 0.5790
10.114000 0.5950 0.6050 0.6150 0.6250 0.6320
10.147160 0.6380 0.6430 0.6500 0.6550 0.6650
10.180000 0.6700 0.6720 0.6770 0.6780 0.6830
10.213160 0.6900 0.6920 0.6920 0.6900 0.6880
10.246000 0.6820 0.6820 0.6800 0.6800 0.6820
10.279160 0.6880 0.6980 0.7030 0.7120 0.7170
10.313000 0.7200 0.7270 0.7320 0.7330 0.7350
10.346160 0.7350 0.7370 0.7380 0.7400 0.7400
10.379000 0.7400 0.7420 0.7420 0.7420 0.7430
10.412160 0.7430 0.7450 0.7450 0.7450 0.7450
10.445000 0.7470 0.7470 0.7470 0.7470 0.7480
10.478160 0.7480 0.7480 0.7470 0.7470 0.7450
10.511000 0.7430 0.7420 0.7380 0.7370 0.7320
10.544160 0.7280 0.7250 0.7150 0.7030 0.6850
10.578000 0.6720 0.6630 0.6450 0.6270 0.6030
10.611160 0.5800 0.5550 0.5370 0.5220 0.5040
10.644000 0.4920 0.4800 0.4690 0.4550 0.4490
10.677160 0.4470 0.4470 0.4490 0.4520 0.4550
10.710000 0.4570 0.4650 0.4790 0.4900 0.5240
10.743160 0.5450 0.5550 0.5740 0.5950 0.6050
10.777000 0.6200 0.6270 0.6330 0.6470 0.6650
10.810160 0.6820 0.6950 0.6980 0.7020 0.7100
10.843000 0.7180 0.7280 0.7320 0.7380 0.7420
10.876160 0.7500 0.7580 0.7620 0.7670 0.7680
10.909000 0.7700 0.7750 0.7800 0.7800 0.7820
10.942160 0.7820 0.7820 0.7820 0.7820 0.7800
10.975000 0.7800 0.7780 0.7750 0.7650 0.7550
11.008160 0.7380 0.7180 0.6920 0.6700 0.6050
11.042000 0.5450 0.5190 0.4640 0.4090 0.3870
11.075160 0.3860 0.3870 0.4200 0.4500 0.4950
11.108000 0.5790 0.6100 0.6400 0.6650 0.6900
11.141160 0.7050 0.7220 0.7300 0.7430 0.7550
11.174000 0.7620 0.7670 0.7720 0.7770 0.7850
11.207160 0.7930 0.8000 0.8010 0.8010 0.8030
11.241000 0.8080 0.8100 0.8160 0.8180 0.8200
11.274160 0.8230 0.8260 0.8260 0.8280 0.8300
11.307000 0.8330 0.8350 0.8380 0.8380 0.8400
11.340160 0.8400 0.8410 0.8410 0.8410 0.8430
11.373000 0.8450 0.8480 0.8510 0.8510 0.8510
11.406160 0.8510 0.8530 0.8530 0.8550 0.8550
11.439000 0.8560 0.8580 0.8600 0.8600 0.8610
11.472160 0.8610 0.8610 0.8610 0.8630 0.8650
11.506000 0.8660 0.8660 0.8680 0.8680 0.8700
11.539160 0.8700 0.8710 0.8710 0.8730 0.8730
11.572000 0.8750 0.8760 0.8760 0.8760 0.8780
11.605160 0.8780 0.8800 0.8800 0.8800 0.8800
11.638000 0.8800 0.8810 0.8830 0.8830 0.8830
11.671160 0.8830 0.8850 0.8850 0.8860 0.8860
11.705000 0.8880 0.8880 0.8880 0.8860 0.8830
11.738160 0.8800 0.8780 0.8760 0.8760 0.8760
11.771000 0.8750 0.8750 0.8750 0.8730 0.8730
11.804160 0.8710 0.8710 0.8710 0.8710 0.8700
11.837000 0.8680 0.8610 0.8500 0.8380 0.8280
11.870160 0.8200 0.8180 0.8180 0.8200 0.8250
11.903000 0.8300 0.8400 0.8500 0.8580 0.8660
11.936160 0.8680 0.8700 0.8700 0.8710 0.8730
11.970000 0.8730 0.8750 0.8760 0.8760 0.8780
12.003160 0.8800 0.8800 0.8810 0.8830 0.8830
12.036000 0.8830 0.8830 0.8830 0.8830 0.8830
12.069160 0.8850 0.8860 0.8860 0.8860 0.8880
12.102000 0.8900 0.8910 0.8910 0.8910 0.8900
12.135160 0.8900 0.8810 0.8780 0.8780 0.8760
12.169000 0.8730 0.8730 0.8730 0.8710 0.8710
12.202160 0.8700 0.8680 0.8650 0.8630 0.8630
12.235000 0.8610 0.8610 0.8600 0.8580 0.8580
12.268160 0.8580 0.8560 0.8510 0.8510 0.8480
12.301000 0.8480 0.8410 0.8380 0.8360 0.8310
12.334160 0.8260 0.8200 0.8110 0.8080 0.7980
12.367000 0.7900 0.7830 0.7730 0.7580 0.7400
12.400160 0.7250 0.7220 0.7000 0.6780 0.6550
12.434000 0.6400 0.6220 0.6030 0.5840 0.5670
12.467160 0.5520 0.5120 0.5040 0.4940 0.4820
12.500000 0.4740 0.4720 0.4700 0.4700 0.4720
12.533160 0.4840 0.5190 0.5300 0.5500 0.5690
12.566000 0.5850 0.6030 0.6200 0.6370 0.6570
12.599160 0.6770 0.6970 0.7080 0.7220 0.7370
12.633000 0.7500 0.7630 0.7720 0.7800 0.7880
12.666160 0.7930 0.8000 0.8100 0.8180 0.8260
12.699000 0.8300 0.8330 0.8410 0.8510 0.8510
12.732160 0.8560 0.8580 0.8600 0.8600 0.8610
12.765000 0.8630 0.8660 0.8700 0.8730 0.8750
12.798160 0.8760 0.8780 0.8780 0.8800 0.8810
12.831000 0.8830 0.8860 0.8860 0.8880 0.8880
12.864160 0.8880 0.8900 0.8900 0.8900 0.8900
12.898000 0.8900 0.8900 0.8900 0.8900 0.8880
12.931160 0.8880 0.8880 0.8900 0.8900 0.8900
12.964000 0.8900 0.8900 0.8900 0.8900 0.8900
12.997160 0.8900 0.8900 0.8900 0.8900 0.8880
13.030000 0.8880 0.8880 0.8860 0.8860 0.8860
13.063160 0.8830 0.8830 0.8800 0.8800 0.8780
13.097000 0.8780 0.8760 0.8750 0.8750 0.8730
13.130160 0.8730 0.8730 0.8710 0.8710 0.8700
13.163000 0.8700 0.8680 0.8660 0.8650 0.8600
13.196160 0.8560 0.8530 0.8510 0.8510 0.8500
13.229000 0.8480 0.8460 0.8430 0.8400 0.8380
13.262160 0.8380 0.8310 0.8210 0.8160 0.8110
13.295000 0.8080 0.8010 0.8010 0.7980 0.7900
13.328160 0.7880 0.7820 0.7720 0.7650 0.7550
13.362000 0.7380 0.7280 0.7170 0.7000 0.6780
13.395160 0.6500 0.6300 0.6100 0.5900 0.5650
13.428000 0.5470 0.5350 0.5270 0.5190 0.5090
13.461160 0.5020 0.5000 0.4990 0.4840 0.4700
13.494000 0.4600 0.4500 0.4340 0.4220 0.3990
13.527160 0.3690 0.3440 0.3170 0.2960 0.2740
13.561000 0.2540 0.2370 0.2060 0.1910 0.1690
13.594160 0.1530 0.1430 0.1290 0.1130 0.1060
13.627000 0.1010 0.0960 0.0910 0.0910 0.0880
13.660160 0.0880 0.0880 0.0880 0.0880 0.0890
13.693000 0.0910 0.0990 0.1110 0.1210 0.1290
13.726160 0.1460 0.1660 0.1830 0.2090 0.2240
13.759000 0.2460 0.2620 0.2840 0.3040 0.3210
13.792160 0.3410 0.3620 0.3720 0.4100 0.4220
13.826000 0.4600 0.4700 0.4870 0.5340 0.5470
13.859160 0.5650 0.5820 0.5940 0.6030 0.6150
13.892000 0.6250 0.6400 0.6550 0.6670 0.6720
13.925160 0.6780 0.6820 0.6900 0.7080 0.7150
13.958000 0.7300 0.7370 0.7400 0.7530 0.7630
13.991160 0.7650 0.7700 0.7750 0.7800 0.7870
14.025000 0.7920 0.7950 0.8030 0.8060 0.8080
14.058160 0.8100 0.8130 0.8150 0.8180 0.8200
14.091000 0.8210 0.8210 0.8210 0.8230 0.8230
14.124160 0.8250 0.8260 0.8260 0.8260 0.8210
14.157000 0.8180 0.8110 0.8030 0.7950 0.7870
14.190160 0.7780 0.7670 0.7530 0.7370 0.7220
14.223000 0.7050 0.6930 0.6720 0.6430 0.6000
14.256160 0.5790 0.5450 0.5170 0.5020 0.4850
14.290000 0.4640 0.4220 0.3910 0.3690 0.3220
14.323160 0.3090 0.2990 0.2890 0.2840 0.2810
14.356000 0.2790 0.2810 0.2960 0.3120 0.3290
14.389160 0.3490 0.3720 0.3960 0.4200 0.4470
14.422000 0.4700 0.4940 0.5390 0.5600 0.5850
14.455160 0.6080 0.6270 0.6380 0.6480 0.6680
14.489000 0.6830 0.7030 0.7150 0.7250 0.7380
14.522160 0.7450 0.7550 0.7670 0.7730 0.7800
14.555000 0.7870 0.7900 0.7980 0.8010 0.8030
14.588160 0.8060 0.8080 0.8110 0.8160 0.8200
14.621000 0.8230 0.8250 0.8250 0.8260 0.8280
14.654160 0.8300 0.8310 0.8310 0.8350 0.8350
14.688000 0.8360 0.8360 0.8380 0.8380 0.8380
14.721160 0.8360 0.8360 0.8350 0.8330 0.8310
14.754000 0.8310 0.8310 0.8310 0.8300 0.8300
14.787160 0.8300 0.8300 0.8280 0.8260 0.8210
14.820000 0.8200 0.8200 0.8200 0.8200 0.8200
14.853160 0.8180 0.8180 0.8160 0.8100 0.8080
14.886000 0.8080 0.8080 0.8080 0.8080 0.8080
14.919160 0.8060 0.8060 0.8060 0.8000 0.7980
14.953000 0.7980 0.7920 0.7880 0.7850 0.7780
14.986160 0.7730 0.7680 0.7630 0.7620 0.7550
15.019000 0.7500 0.7430 0.7380 0.7320 0.7250
15.052160 0.7170 0.7070 0.6980 0.6950 0.6950
15.085000 0.6950 0.6950 0.6950 0.6970 0.6970
15.118160 0.6970 0.6980 0.6980 0.7000 0.7020
15.152000 0.7050 0.7050 0.7080 0.7120 0.7170
15.185160 0.7180 0.7220 0.7230 0.7230 0.7270
15.218000 0.7270 0.7270 0.7270 0.7270 0.7270
15.251160 0.7270 0.7270 0.7270 0.7270 0.7270
15.284000 0.7270 0.7270 0.7270 0.7270 0.7270
15.317160 0.7270 0.7270 0.7250 0.7250 0.7250
15.350000 0.7250 0.7250 0.7250 0.7270 0.7270
15.383160 0.7280 0.7300 0.7300 0.7300 0.7320
15.417000 0.7320 0.7330 0.7350 0.7350 0.7350
15.450160 0.7350 0.7370 0.7370 0.7370 0.7370
15.483000 0.7380 0.7380 0.7380 0.7380 0.7380
15.516160 0.7380 0.7380 0.7380 0.7380 0.7380
15.549000 0.7380 0.7380 0.7400 0.7400 0.7400
15.582160 0.7400 0.7400 0.7400 0.7400 0.7400
15.616000 0.7400 0.7380 0.7380 0.7370 0.7370
15.649160 0.7350 0.7350 0.7330 0.7330 0.7330
15.682000 0.7320 0.7300 0.7300 0.7270 0.7250
15.715160 0.7220 0.7180 0.7170 0.7150 0.7150
15.748000 0.7150 0.7150 0.7150 0.7130 0.7120
15.781160 0.7100 0.7080 0.7070 0.7050 0.7030
15.814000 0.7020 0.7000 0.6970 0.6950 0.6950
15.847160 0.6920 0.6900 0.6900 0.6900 0.6880
15.881000 0.6880 0.6880 0.6880 0.6880 0.6870
15.914160 0.6870 0.6820 0.6780 0.6770 0.6770
15.947000 0.6700 0.6670 0.6670 0.6650 0.6630
15.980160 0.6620 0.6620 0.6600 0.6580 0.6600
##END=
