##TITLE=Aniline, N-ethyl-
##JCAMP-DX=4.24
##DATA TYPE=INFRARED SPECTRUM
##CLASS=COBLENTZ III
##ORIGIN=UNIVERSITY OF FLORIDA
##OWNER=Copyright (C) 1987 by the Coblentz Society
Collection (C) 2018 copyright by the U.S. Secretary of Commerce
on behalf of the United States of America. All rights reserved.
##DATE=1966/12/07
##NAMES=N-ethylaniline
N-ethyl-N-phenylamine
##CAS REGISTRY NO=103-69-5
##MOLFORM=C8 H11 N
##SOURCE REFERENCE=COBLENTZ NO. 9967
##$NIST SOURCE=COBLENTZ
##$NIST IMAGE=cob9967
##SPECTROMETER/DATA SYSTEM=BECKMAN IR-4 (HYBRID PRISM-GRATING)
##STATE=LIQUID (NEAT)
##PATH LENGTH=CAPILLARY
##SAMPLING PROCEDURE=TRANSMISSION
##RESOLUTION=2
##DATA PROCESSING=DIGITIZED BY COBLENTZ SOCIETY (BATCH II) FROM HARD COPY (ADJUSTED \subtractmicron\0.02um\)
##XUNITS=1/CM
##YUNITS=TRANSMITTANCE
##XFACTOR=1.0
##YFACTOR=1
##DELTAX=1.017652
##FIRSTX=667.001
##LASTX=4058.84
##FIRSTY=0.314
##MAXX=4058.84
##MINX=667.001
##MAXY=0.901236
##MINY=0
##NPOINTS=3334
##XYDATA=(X++(Y..Y))
667.001042 0.3140 0.3145 0.3157 0.3153 0.3171
672.089303 0.3174 0.3172 0.3161 0.3130 0.3067
677.177564 0.2963 0.2830 0.2684 0.2527 0.2311
682.265825 0.1995 0.1568 0.1237 0.0953 0.0624
687.354086 0.0317 0.0122 0.0036 0.0000 0.0000
692.442346 0.0001 0.0002 0.0101 0.0380 0.0697
697.530607 0.1029 0.1405 0.1837 0.2211 0.2516
702.618868 0.2822 0.3070 0.3232 0.3369 0.3502
707.707129 0.3620 0.3728 0.3812 0.3869 0.3917
712.795390 0.3959 0.3996 0.4021 0.4041 0.4060
717.883651 0.4073 0.4083 0.4090 0.4093 0.4081
722.971911 0.4057 0.4021 0.3973 0.3915 0.3859
728.060172 0.3784 0.3683 0.3556 0.3391 0.3134
733.148433 0.2840 0.2630 0.2353 0.1963 0.1522
738.236694 0.1285 0.1003 0.0701 0.0499 0.0280
743.324955 0.0077 0.0019 0.0000 0.0000 0.0000
748.413216 0.0000 0.0002 0.0001 0.0001 0.0001
753.501477 0.0002 0.0036 0.0210 0.0418 0.0627
758.589737 0.0866 0.1164 0.1562 0.1860 0.2160
763.677998 0.2458 0.2731 0.2945 0.3154 0.3478
768.766259 0.3906 0.4203 0.4385 0.4565 0.4776
773.854520 0.4959 0.5081 0.5217 0.5357 0.5462
778.942781 0.5538 0.5602 0.5653 0.5696 0.5734
784.031042 0.5765 0.5793 0.5819 0.5839 0.5855
789.119302 0.5872 0.5890 0.5928 0.5960 0.5977
794.207563 0.5989 0.6022 0.6058 0.6077 0.6082
799.295824 0.6081 0.6088 0.6065 0.6039 0.6009
804.384085 0.5967 0.5921 0.5876 0.5829 0.5786
809.472346 0.5749 0.5717 0.5691 0.5665 0.5647
814.560607 0.5631 0.5612 0.5585 0.5559 0.5535
819.648868 0.5511 0.5494 0.5487 0.5486 0.5498
824.737128 0.5507 0.5538 0.5580 0.5630 0.5688
829.825389 0.5750 0.5816 0.5884 0.5955 0.6021
834.913650 0.6084 0.6150 0.6218 0.6275 0.6320
840.001911 0.6355 0.6381 0.6397 0.6410 0.6422
845.090172 0.6439 0.6466 0.6492 0.6503 0.6509
850.178433 0.6508 0.6508 0.6494 0.6456 0.6384
855.266693 0.6283 0.6162 0.5975 0.5681 0.5338
860.354954 0.4995 0.4654 0.4314 0.3978 0.3684
865.443215 0.3402 0.3218 0.3151 0.3142 0.3198
870.531476 0.3416 0.3714 0.4019 0.4323 0.4627
875.619737 0.4929 0.5177 0.5406 0.5632 0.5932
880.707998 0.6180 0.6362 0.6503 0.6632 0.6752
885.796259 0.6851 0.6938 0.6997 0.7047 0.7080
890.884519 0.7110 0.7133 0.7157 0.7174 0.7189
895.972780 0.7205 0.7218 0.7231 0.7244 0.7248
901.061041 0.7250 0.7254 0.7262 0.7273 0.7296
906.149302 0.7324 0.7348 0.7365 0.7371 0.7378
911.237563 0.7367 0.7363 0.7353 0.7340 0.7325
916.325824 0.7302 0.7269 0.7232 0.7185 0.7126
921.414084 0.7042 0.6924 0.6754 0.6576 0.6429
926.502345 0.6285 0.6168 0.6079 0.6047 0.6039
931.590606 0.6157 0.6424 0.6616 0.6779 0.6898
936.678867 0.6983 0.7043 0.7090 0.7136 0.7176
941.767128 0.7214 0.7239 0.7248 0.7246 0.7241
946.855389 0.7229 0.7210 0.7190 0.7167 0.7149
951.943650 0.7142 0.7139 0.7137 0.7145 0.7156
957.031910 0.7169 0.7185 0.7200 0.7208 0.7201
962.120171 0.7174 0.7142 0.7108 0.7075 0.7054
967.208432 0.7042 0.7041 0.7040 0.7037 0.7035
972.296693 0.7032 0.7028 0.7024 0.7011 0.6980
977.384954 0.6939 0.6885 0.6812 0.6733 0.6654
982.473215 0.6557 0.6440 0.6138 0.5501 0.4814
987.561475 0.4129 0.3445 0.2804 0.2545 0.2578
992.649736 0.3158 0.4066 0.4962 0.5700 0.5984
997.737997 0.6343 0.6631 0.6789 0.6963 0.7102
1002.826258 0.7206 0.7255 0.7287 0.7306 0.7324
1007.914519 0.7337 0.7345 0.7354 0.7358 0.7346
1013.002780 0.7333 0.7310 0.7272 0.7216 0.7145
1018.091041 0.7065 0.6964 0.6808 0.6558 0.6242
1023.179301 0.5927 0.5613 0.5296 0.5032 0.4877
1028.267562 0.4821 0.4808 0.4885 0.5187 0.5608
1033.355823 0.5998 0.6262 0.6429 0.6557 0.6661
1038.444084 0.6752 0.6824 0.6869 0.6888 0.6891
1043.532345 0.6904 0.6875 0.6814 0.6719 0.6598
1048.620606 0.6468 0.6322 0.6146 0.5947 0.5742
1053.708866 0.5536 0.5332 0.5127 0.4915 0.4546
1058.797127 0.4269 0.4214 0.4215 0.4366 0.4597
1063.885388 0.4837 0.5073 0.5243 0.5265 0.5263
1068.973649 0.5001 0.4697 0.4394 0.4093 0.3892
1074.061910 0.3844 0.3861 0.4199 0.4598 0.4996
1079.150171 0.5379 0.5566 0.5720 0.5837 0.5916
1084.238432 0.5929 0.5924 0.5804 0.5610 0.5412
1089.326692 0.5214 0.5017 0.4820 0.4624 0.4429
1094.414953 0.4253 0.4119 0.4019 0.3977 0.3966
1099.503214 0.4016 0.4234 0.4439 0.4643 0.4846
1104.591475 0.5050 0.5254 0.5438 0.5587 0.5726
1109.679736 0.5844 0.5922 0.5976 0.6019 0.6050
1114.767997 0.6076 0.6081 0.6075 0.6067 0.6036
1119.856257 0.5985 0.5883 0.5744 0.5603 0.5463
1124.944518 0.5323 0.5182 0.5043 0.4841 0.4587
1130.032779 0.4395 0.4248 0.4091 0.3899 0.3644
1135.121040 0.3421 0.3202 0.2949 0.2686 0.2424
1140.209301 0.2163 0.1903 0.1696 0.1442 0.1207
1145.297562 0.0936 0.0789 0.0740 0.0719 0.0713
1150.385823 0.0719 0.0722 0.0735 0.0785 0.1045
1155.474083 0.1353 0.1661 0.1969 0.2276 0.2583
1160.562344 0.2890 0.3195 0.3500 0.3805 0.4010
1165.650605 0.4122 0.4199 0.4237 0.4240 0.4254
1170.738866 0.4196 0.3946 0.3489 0.3031 0.2575
1175.827127 0.2120 0.1664 0.1224 0.1013 0.1008
1180.915388 0.1054 0.1477 0.1980 0.2482 0.2983
1186.003648 0.3482 0.3982 0.4472 0.4793 0.5040
1191.091909 0.5183 0.5291 0.5384 0.5453 0.5505
1196.180170 0.5555 0.5597 0.5638 0.5675 0.5704
1201.268431 0.5730 0.5758 0.5790 0.5825 0.5861
1206.356692 0.5905 0.5956 0.6010 0.6064 0.6112
1211.444953 0.6151 0.6181 0.6204 0.6220 0.6233
1216.533213 0.6242 0.6249 0.6254 0.6257 0.6257
1221.621474 0.6255 0.6252 0.6249 0.6243 0.6232
1226.709735 0.6216 0.6197 0.6172 0.6134 0.6069
1231.797996 0.5990 0.5869 0.5725 0.5591 0.5451
1236.886257 0.5287 0.5095 0.4893 0.4706 0.4468
1241.974518 0.4244 0.4059 0.3859 0.3645 0.3437
1247.062779 0.3070 0.2501 0.1876 0.1458 0.1211
1252.151039 0.0995 0.0822 0.0640 0.0457 0.0327
1257.239300 0.0266 0.0233 0.0220 0.0224 0.0334
1262.327561 0.0517 0.0712 0.0906 0.1099 0.1241
1267.415822 0.1293 0.1312 0.1344 0.1325 0.1312
1272.504083 0.1287 0.1241 0.1184 0.1121 0.1056
1277.592344 0.1013 0.0998 0.0996 0.1008 0.1013
1282.680604 0.1067 0.1247 0.1465 0.1682 0.1900
1287.768865 0.2117 0.2334 0.2550 0.2766 0.2981
1292.857126 0.3189 0.3349 0.3412 0.3453 0.3458
1297.945387 0.3457 0.3454 0.3427 0.3329 0.3119
1303.033648 0.2888 0.2658 0.2429 0.2201 0.1972
1308.121909 0.1744 0.1516 0.1300 0.1128 0.0965
1313.210170 0.0802 0.0666 0.0569 0.0474 0.0385
1318.298430 0.0307 0.0244 0.0201 0.0162 0.0131
1323.386691 0.0113 0.0103 0.0103 0.0101 0.0149
1328.474952 0.0308 0.0490 0.0671 0.0852 0.1032
1333.563213 0.1212 0.1392 0.1572 0.1751 0.1967
1338.651474 0.2162 0.2282 0.2409 0.2535 0.2652
1343.739735 0.3396 0.4161 0.4288 0.4362 0.4414
1348.827995 0.4457 0.4496 0.4527 0.4553 0.4575
1353.916256 0.4593 0.4612 0.4641 0.4689 0.4744
1359.004517 0.4793 0.4838 0.4884 0.4923 0.4944
1364.092778 0.4949 0.4949 0.4955 0.4915 0.4788
1369.181039 0.4580 0.4351 0.4122 0.3893 0.3665
1374.269300 0.3437 0.3209 0.3019 0.2911 0.2834
1379.357561 0.2761 0.2680 0.2560 0.2503 0.2479
1384.445821 0.2509 0.2569 0.2673 0.3034 0.3484
1389.534082 0.3942 0.4386 0.4692 0.4870 0.5015
1394.622343 0.5107 0.5196 0.5294 0.5391 0.5480
1399.710604 0.5530 0.5560 0.5589 0.5616 0.5635
1404.798865 0.5649 0.5650 0.5649 0.5653 0.5622
1409.887126 0.5584 0.5529 0.5468 0.5413 0.5360
1414.975386 0.5295 0.5203 0.5079 0.4979 0.4869
1420.063647 0.4575 0.4325 0.4076 0.3827 0.3579
1425.151908 0.3331 0.3084 0.2836 0.2590 0.2343
1430.240169 0.2097 0.1865 0.1732 0.1693 0.1678
1435.328430 0.1687 0.1776 0.2115 0.2343 0.2572
1440.416691 0.2799 0.3026 0.3254 0.3452 0.3540
1445.504952 0.3551 0.3521 0.3336 0.3118 0.2900
1450.593212 0.2681 0.2473 0.2316 0.2241 0.2196
1455.681473 0.2170 0.2163 0.2167 0.2224 0.2366
1460.769734 0.2519 0.2671 0.2824 0.2968 0.3061
1465.857995 0.3089 0.3089 0.3074 0.3049 0.2998
1470.946256 0.2937 0.2869 0.2791 0.2707 0.2599
1476.034517 0.2390 0.2075 0.1736 0.1397 0.1092
1481.122777 0.0929 0.0865 0.0813 0.0784 0.0777
1486.211038 0.0781 0.0796 0.0817 0.0838 0.0856
1491.299299 0.0864 0.0865 0.0861 0.0850 0.0828
1496.387560 0.0798 0.0764 0.0725 0.0677 0.0613
1501.475821 0.0541 0.0467 0.0397 0.0335 0.0286
1506.564082 0.0241 0.0199 0.0169 0.0147 0.0132
1511.652343 0.0121 0.0108 0.0094 0.0086 0.0079
1516.740603 0.0073 0.0071 0.0072 0.0072 0.0083
1521.828864 0.0100 0.0136 0.0195 0.0266 0.0412
1526.917125 0.0642 0.0886 0.1129 0.1371 0.1612
1532.005386 0.1854 0.2096 0.2337 0.2577 0.2817
1537.093647 0.3058 0.3297 0.3516 0.3625 0.3665
1542.181908 0.3695 0.3727 0.3767 0.3829 0.3935
1547.270168 0.4355 0.4652 0.4819 0.4917 0.4981
1552.358429 0.5032 0.5071 0.5089 0.5099 0.5108
1557.446690 0.5112 0.5114 0.5106 0.5106 0.5100
1562.534951 0.5092 0.5081 0.5067 0.5049 0.5025
1567.623212 0.5000 0.4969 0.4933 0.4895 0.4846
1572.711473 0.4782 0.4689 0.4569 0.4367 0.4097
1577.799734 0.3813 0.3530 0.3247 0.2965 0.2682
1582.887994 0.2356 0.1944 0.1716 0.1551 0.1373
1587.976255 0.1227 0.1071 0.0911 0.0779 0.0674
1593.064516 0.0583 0.0499 0.0415 0.0329 0.0248
1598.152777 0.0184 0.0143 0.0112 0.0085 0.0066
1603.241038 0.0053 0.0048 0.0045 0.0043 0.0042
1608.329299 0.0037 0.0038 0.0055 0.0074 0.0133
1613.417559 0.0274 0.0470 0.0665 0.0860 0.1057
1618.505820 0.1263 0.1415 0.1563 0.1781 0.2002
1623.594081 0.2224 0.2445 0.2664 0.2884 0.3103
1628.682342 0.3323 0.3543 0.3762 0.3980 0.4198
1633.770603 0.4416 0.4634 0.4852 0.5069 0.5286
1638.858864 0.5495 0.5652 0.5737 0.5790 0.5836
1643.947125 0.5879 0.5921 0.5958 0.5988 0.6013
1649.035385 0.6035 0.6054 0.6073 0.6092 0.6116
1654.123646 0.6151 0.6191 0.6238 0.6289 0.6341
1659.211907 0.6394 0.6453 0.6517 0.6572 0.6611
1664.300168 0.6644 0.6676 0.6705 0.6728 0.6741
1669.388429 0.6748 0.6755 0.6759 0.6763 0.6766
1674.476690 0.6769 0.6771 0.6774 0.6776 0.6777
1679.564950 0.6778 0.6779 0.6780 0.6781 0.6783
1684.653211 0.6786 0.6791 0.6796 0.6806 0.6822
1689.741472 0.6840 0.6859 0.6880 0.6903 0.6928
1694.829733 0.6952 0.6970 0.6980 0.6989 0.6998
1699.917994 0.7006 0.7013 0.7023 0.7038 0.7060
1705.006255 0.7090 0.7128 0.7181 0.7246 0.7314
1710.094516 0.7375 0.7442 0.7509 0.7558 0.7612
1715.182776 0.7645 0.7658 0.7671 0.7684 0.7696
1720.271037 0.7708 0.7729 0.7753 0.7778 0.7805
1725.359298 0.7832 0.7843 0.7855 0.7865 0.7873
1730.447559 0.7880 0.7888 0.7895 0.7901 0.7908
1735.535820 0.7915 0.7921 0.7928 0.7933 0.7938
1740.624081 0.7942 0.7947 0.7951 0.7956 0.7960
1745.712341 0.7964 0.7968 0.7972 0.7977 0.7980
1750.800602 0.7984 0.7988 0.7978 0.7973 0.7965
1755.888863 0.7953 0.7935 0.7912 0.7890 0.7870
1760.977124 0.7852 0.7835 0.7819 0.7804 0.7788
1766.065385 0.7773 0.7759 0.7747 0.7739 0.7736
1771.153646 0.7736 0.7733 0.7729 0.7748 0.7754
1776.241906 0.7766 0.7790 0.7834 0.7879 0.7912
1781.330167 0.7936 0.7961 0.7986 0.8011 0.8033
1786.418428 0.8051 0.8066 0.8081 0.8097 0.8115
1791.506689 0.8135 0.8154 0.8169 0.8180 0.8191
1796.594950 0.8198 0.8201 0.8204 0.8205 0.8204
1801.683211 0.8204 0.8203 0.8201 0.8198 0.8193
1806.771472 0.8188 0.8181 0.8171 0.8159 0.8147
1811.859732 0.8131 0.8110 0.8077 0.8031 0.7980
1816.947993 0.7930 0.7884 0.7841 0.7800 0.7755
1822.036254 0.7707 0.7643 0.7577 0.7533 0.7514
1827.124515 0.7507 0.7504 0.7505 0.7504 0.7507
1832.212776 0.7517 0.7529 0.7543 0.7558 0.7578
1837.301037 0.7600 0.7625 0.7650 0.7674 0.7696
1842.389297 0.7714 0.7730 0.7747 0.7765 0.7784
1847.477558 0.7811 0.7842 0.7874 0.7906 0.7954
1852.565819 0.8008 0.8061 0.8114 0.8159 0.8190
1857.654080 0.8209 0.8224 0.8238 0.8250 0.8258
1862.742341 0.8265 0.8272 0.8279 0.8286 0.8293
1867.830602 0.8300 0.8305 0.8309 0.8313 0.8318
1872.918863 0.8322 0.8326 0.8331 0.8335 0.8340
1878.007123 0.8346 0.8351 0.8356 0.8361 0.8364
1883.095384 0.8365 0.8365 0.8367 0.8363 0.8359
1888.183645 0.8352 0.8343 0.8332 0.8319 0.8302
1893.271906 0.8270 0.8222 0.8173 0.8123 0.8072
1898.360167 0.8023 0.7974 0.7925 0.7875 0.7825
1903.448428 0.7776 0.7727 0.7678 0.7629 0.7579
1908.536688 0.7530 0.7481 0.7433 0.7383 0.7340
1913.624949 0.7302 0.7273 0.7242 0.7210 0.7179
1918.713210 0.7164 0.7153 0.7146 0.7143 0.7141
1923.801471 0.7141 0.7143 0.7152 0.7168 0.7213
1928.889732 0.7257 0.7298 0.7336 0.7374 0.7413
1933.977993 0.7452 0.7489 0.7529 0.7567 0.7605
1939.066254 0.7643 0.7681 0.7719 0.7758 0.7796
1944.154514 0.7834 0.7872 0.7910 0.7948 0.7989
1949.242775 0.8032 0.8068 0.8095 0.8116 0.8138
1954.331036 0.8159 0.8180 0.8205 0.8232 0.8260
1959.419297 0.8284 0.8307 0.8329 0.8350 0.8372
1964.507558 0.8393 0.8414 0.8433 0.8446 0.8458
1969.595819 0.8469 0.8480 0.8486 0.8490 0.8495
1974.684079 0.8500 0.8504 0.8508 0.8511 0.8513
1979.772340 0.8513 0.8513 0.8513 0.8513 0.8512
1984.860601 0.8512 0.8512 0.8511 0.8510 0.8509
1989.948862 0.8507 0.8506 0.8505 0.8504 0.8504
1995.037123 0.8504 0.8504 0.8507 0.8512 0.8519
2000.125384 0.8526 0.8534 0.8542 0.8550 0.8560
2005.213645 0.8571 0.8583 0.8595 0.8606 0.8616
2010.301905 0.8624 0.8632 0.8641 0.8649 0.8654
2015.390166 0.8658 0.8661 0.8664 0.8668 0.8671
2020.478427 0.8674 0.8677 0.8680 0.8683 0.8685
2025.566688 0.8688 0.8690 0.8693 0.8696 0.8699
2030.654949 0.8703 0.8708 0.8714 0.8721 0.8729
2035.743210 0.8738 0.8747 0.8752 0.8757 0.8761
2040.831470 0.8763 0.8763 0.8765 0.8766 0.8766
2045.919731 0.8767 0.8767 0.8768 0.8769 0.8769
2051.007992 0.8769 0.8769 0.8769 0.8770 0.8770
2056.096253 0.8770 0.8770 0.8769 0.8768 0.8768
2061.184514 0.8767 0.8766 0.8765 0.8764 0.8763
2066.272775 0.8762 0.8762 0.8760 0.8759 0.8758
2071.361036 0.8756 0.8754 0.8752 0.8750 0.8748
2076.449296 0.8746 0.8745 0.8745 0.8745 0.8746
2081.537557 0.8747 0.8748 0.8749 0.8749 0.8750
2086.625818 0.8751 0.8751 0.8752 0.8753 0.8754
2091.714079 0.8754 0.8756 0.8757 0.8758 0.8759
2096.802340 0.8759 0.8760 0.8762 0.8764 0.8766
2101.890601 0.8768 0.8771 0.8773 0.8774 0.8776
2106.978861 0.8779 0.8781 0.8781 0.8782 0.8782
2112.067122 0.8782 0.8783 0.8783 0.8783 0.8784
2117.155383 0.8784 0.8784 0.8784 0.8784 0.8785
2122.243644 0.8785 0.8785 0.8785 0.8784 0.8784
2127.331905 0.8784 0.8784 0.8783 0.8783 0.8783
2132.420166 0.8782 0.8782 0.8782 0.8782 0.8782
2137.508427 0.8782 0.8782 0.8783 0.8783 0.8784
2142.596687 0.8784 0.8785 0.8785 0.8786 0.8787
2147.684948 0.8788 0.8789 0.8789 0.8790 0.8790
2152.773209 0.8791 0.8795 0.8799 0.8804 0.8809
2157.861470 0.8814 0.8819 0.8825 0.8831 0.8838
2162.949731 0.8844 0.8848 0.8850 0.8853 0.8856
2168.037992 0.8858 0.8859 0.8860 0.8861 0.8862
2173.126252 0.8864 0.8865 0.8866 0.8867 0.8868
2178.214513 0.8869 0.8870 0.8870 0.8871 0.8871
2183.302774 0.8871 0.8871 0.8872 0.8872 0.8872
2188.391035 0.8872 0.8872 0.8873 0.8873 0.8874
2193.479296 0.8875 0.8876 0.8877 0.8878 0.8879
2198.567557 0.8880 0.8881 0.8882 0.8882 0.8883
2203.655818 0.8884 0.8885 0.8886 0.8887 0.8888
2208.744078 0.8890 0.8891 0.8895 0.8899 0.8903
2213.832339 0.8907 0.8912 0.8918 0.8925 0.8931
2218.920600 0.8938 0.8943 0.8948 0.8952 0.8956
2224.008861 0.8961 0.8965 0.8969 0.8973 0.8977
2229.097122 0.8981 0.8985 0.8988 0.8992 0.8995
2234.185383 0.8997 0.9000 0.9002 0.9002 0.9001
2239.273643 0.9001 0.9012 0.9006 0.8999 0.8996
2244.361904 0.8992 0.8988 0.8985 0.8981 0.8977
2249.450165 0.8974 0.8970 0.8966 0.8961 0.8956
2254.538426 0.8951 0.8946 0.8940 0.8935 0.8929
2259.626687 0.8924 0.8919 0.8915 0.8912 0.8909
2264.714948 0.8906 0.8903 0.8901 0.8898 0.8895
2269.803208 0.8892 0.8890 0.8887 0.8884 0.8882
2274.891469 0.8879 0.8877 0.8875 0.8875 0.8875
2279.979730 0.8875 0.8875 0.8875 0.8875 0.8875
2285.067991 0.8875 0.8875 0.8875 0.8875 0.8875
2290.156252 0.8875 0.8874 0.8872 0.8870 0.8868
2295.244513 0.8866 0.8864 0.8863 0.8861 0.8858
2300.332774 0.8851 0.8843 0.8835 0.8827 0.8819
2305.421034 0.8812 0.8806 0.8801 0.8798 0.8795
2310.509295 0.8793 0.8791 0.8789 0.8787 0.8785
2315.597556 0.8783 0.8781 0.8779 0.8777 0.8775
2320.685817 0.8773 0.8771 0.8768 0.8766 0.8764
2325.774078 0.8761 0.8760 0.8758 0.8755 0.8753
2330.862339 0.8751 0.8748 0.8746 0.8744 0.8743
2335.950599 0.8741 0.8739 0.8737 0.8735 0.8733
2341.038860 0.8731 0.8730 0.8728 0.8726 0.8724
2346.127121 0.8723 0.8721 0.8720 0.8719 0.8717
2351.215382 0.8715 0.8713 0.8712 0.8711 0.8709
2356.303643 0.8708 0.8706 0.8704 0.8703 0.8702
2361.391904 0.8704 0.8706 0.8708 0.8710 0.8712
2366.480165 0.8715 0.8718 0.8722 0.8726 0.8731
2371.568425 0.8735 0.8741 0.8749 0.8756 0.8762
2376.656686 0.8769 0.8775 0.8781 0.8786 0.8792
2381.744947 0.8796 0.8801 0.8803 0.8803 0.8804
2386.833208 0.8804 0.8803 0.8801 0.8798 0.8795
2391.921469 0.8792 0.8787 0.8781 0.8775 0.8769
2397.009730 0.8762 0.8752 0.8742 0.8732 0.8722
2402.097990 0.8712 0.8702 0.8692 0.8681 0.8671
2407.186251 0.8661 0.8651 0.8644 0.8638 0.8632
2412.274512 0.8628 0.8624 0.8623 0.8622 0.8622
2417.362773 0.8622 0.8622 0.8622 0.8622 0.8622
2422.451034 0.8623 0.8624 0.8626 0.8628 0.8630
2427.539295 0.8631 0.8632 0.8634 0.8636 0.8639
2432.627556 0.8642 0.8646 0.8652 0.8662 0.8672
2437.715816 0.8682 0.8691 0.8700 0.8708 0.8717
2442.804077 0.8727 0.8737 0.8750 0.8763 0.8774
2447.892338 0.8784 0.8794 0.8804 0.8813 0.8822
2452.980599 0.8832 0.8838 0.8844 0.8848 0.8851
2458.068860 0.8854 0.8857 0.8860 0.8862 0.8863
2463.157121 0.8864 0.8864 0.8864 0.8865 0.8866
2468.245381 0.8867 0.8867 0.8867 0.8867 0.8866
2473.333642 0.8865 0.8864 0.8863 0.8862 0.8861
2478.421903 0.8860 0.8858 0.8857 0.8855 0.8853
2483.510164 0.8851 0.8849 0.8847 0.8845 0.8843
2488.598425 0.8841 0.8840 0.8837 0.8832 0.8827
2493.686686 0.8822 0.8817 0.8812 0.8806 0.8801
2498.774947 0.8795 0.8788 0.8778 0.8764 0.8751
2503.863207 0.8743 0.8736 0.8730 0.8723 0.8716
2508.951468 0.8710 0.8703 0.8696 0.8690 0.8683
2514.039729 0.8676 0.8670 0.8661 0.8652 0.8643
2519.127990 0.8633 0.8624 0.8614 0.8605 0.8597
2524.216251 0.8589 0.8581 0.8573 0.8565 0.8557
2529.304512 0.8549 0.8541 0.8536 0.8532 0.8528
2534.392772 0.8524 0.8520 0.8516 0.8513 0.8509
2539.481033 0.8505 0.8501 0.8498 0.8494 0.8491
2544.569294 0.8489 0.8489 0.8488 0.8486 0.8483
2549.657555 0.8476 0.8467 0.8453 0.8433 0.8411
2554.745816 0.8382 0.8349 0.8315 0.8276 0.8236
2559.834077 0.8195 0.8153 0.8113 0.8082 0.8055
2564.922338 0.8028 0.8003 0.7978 0.7954 0.7932
2570.010598 0.7910 0.7888 0.7866 0.7843 0.7821
2575.098859 0.7801 0.7785 0.7772 0.7762 0.7755
2580.187120 0.7749 0.7747 0.7747 0.7746 0.7746
2585.275381 0.7746 0.7740 0.7741 0.7745 0.7747
2590.363642 0.7751 0.7755 0.7762 0.7770 0.7779
2595.451903 0.7788 0.7798 0.7810 0.7822 0.7836
2600.540163 0.7853 0.7872 0.7891 0.7910 0.7929
2605.628424 0.7948 0.7967 0.7988 0.8012 0.8036
2610.716685 0.8063 0.8091 0.8117 0.8139 0.8159
2615.804946 0.8179 0.8199 0.8217 0.8236 0.8255
2620.893207 0.8274 0.8293 0.8315 0.8336 0.8355
2625.981468 0.8374 0.8391 0.8406 0.8420 0.8430
2631.069729 0.8437 0.8443 0.8448 0.8452 0.8455
2636.157989 0.8456 0.8457 0.8457 0.8457 0.8459
2641.246250 0.8458 0.8452 0.8450 0.8447 0.8443
2646.334511 0.8438 0.8431 0.8422 0.8415 0.8408
2651.422772 0.8402 0.8396 0.8391 0.8386 0.8381
2656.511033 0.8378 0.8374 0.8370 0.8366 0.8362
2661.599294 0.8358 0.8354 0.8350 0.8346 0.8343
2666.687554 0.8339 0.8336 0.8332 0.8327 0.8320
2671.775815 0.8311 0.8295 0.8278 0.8261 0.8244
2676.864076 0.8228 0.8210 0.8193 0.8175 0.8155
2681.952337 0.8135 0.8114 0.8092 0.8070 0.8049
2687.040598 0.8030 0.8012 0.7994 0.7975 0.7955
2692.128859 0.7936 0.7918 0.7899 0.7885 0.7880
2697.217120 0.7874 0.7868 0.7862 0.7856 0.7853
2702.305380 0.7853 0.7853 0.7853 0.7854 0.7854
2707.393641 0.7856 0.7859 0.7862 0.7866 0.7870
2712.481902 0.7875 0.7881 0.7887 0.7894 0.7904
2717.570163 0.7915 0.7925 0.7934 0.7943 0.7952
2722.658424 0.7960 0.7968 0.7977 0.7986 0.7996
2727.746685 0.8003 0.8008 0.8012 0.8015 0.8015
2732.834945 0.8015 0.8014 0.8014 0.8013 0.8012
2737.923206 0.8011 0.8013 0.8021 0.8008 0.8006
2743.011467 0.8003 0.7999 0.7995 0.7987 0.7977
2748.099728 0.7968 0.7957 0.7946 0.7934 0.7922
2753.187989 0.7910 0.7898 0.7886 0.7874 0.7862
2758.276250 0.7849 0.7835 0.7821 0.7806 0.7790
2763.364511 0.7775 0.7759 0.7743 0.7727 0.7709
2768.452771 0.7690 0.7671 0.7653 0.7635 0.7618
2773.541032 0.7601 0.7585 0.7568 0.7552 0.7535
2778.629293 0.7519 0.7502 0.7486 0.7470 0.7454
2783.717554 0.7438 0.7422 0.7401 0.7378 0.7355
2788.805815 0.7330 0.7303 0.7277 0.7249 0.7222
2793.894076 0.7195 0.7165 0.7134 0.7103 0.7072
2798.982336 0.7043 0.7013 0.6985 0.6962 0.6939
2804.070597 0.6916 0.6890 0.6864 0.6831 0.6754
2809.158858 0.6675 0.6596 0.6506 0.6415 0.6324
2814.247119 0.6277 0.6237 0.6196 0.6129 0.6055
2819.335380 0.5981 0.5916 0.5854 0.5794 0.5717
2824.423641 0.5625 0.5533 0.5440 0.5347 0.5255
2829.511901 0.5162 0.5070 0.4978 0.4885 0.4794
2834.600162 0.4702 0.4609 0.4518 0.4426 0.4333
2839.688423 0.4242 0.4150 0.4058 0.3968 0.3876
2844.776684 0.3785 0.3694 0.3602 0.3511 0.3437
2849.864945 0.3401 0.3372 0.3344 0.3320 0.3298
2854.953206 0.3275 0.3230 0.3179 0.3127 0.3065
2860.041467 0.2995 0.2925 0.2855 0.2784 0.2714
2865.129727 0.2644 0.2574 0.2503 0.2433 0.2364
2870.217988 0.2294 0.2223 0.2168 0.2121 0.2074
2875.306249 0.2041 0.2021 0.2005 0.1990 0.1981
2880.394510 0.1973 0.1965 0.1960 0.1956 0.1953
2885.482771 0.1951 0.1949 0.1948 0.1954 0.1957
2890.571032 0.1961 0.1975 0.2011 0.2056 0.2102
2895.659292 0.2148 0.2194 0.2239 0.2284 0.2330
2900.747553 0.2377 0.2422 0.2468 0.2513 0.2559
2905.835814 0.2604 0.2650 0.2695 0.2740 0.2786
2910.924075 0.2830 0.2873 0.2911 0.2945 0.2978
2916.012336 0.2993 0.2994 0.2995 0.3000 0.3001
2921.100597 0.2997 0.2993 0.2979 0.2959 0.2939
2926.188858 0.2917 0.2892 0.2866 0.2841 0.2815
2931.277118 0.2790 0.2765 0.2739 0.2714 0.2688
2936.365379 0.2663 0.2638 0.2613 0.2592 0.2581
2941.453640 0.2574 0.2568 0.2567 0.2570 0.2573
2946.541901 0.2571 0.2559 0.2546 0.2527 0.2489
2951.630162 0.2437 0.2385 0.2333 0.2282 0.2230
2956.718423 0.2178 0.2127 0.2076 0.2024 0.1972
2961.806683 0.1920 0.1869 0.1818 0.1766 0.1715
2966.894944 0.1664 0.1613 0.1562 0.1511 0.1460
2971.983205 0.1408 0.1357 0.1306 0.1255 0.1204
2977.071466 0.1153 0.1103 0.1071 0.1085 0.1091
2982.159727 0.1183 0.1366 0.1550 0.1735 0.1929
2987.247988 0.2123 0.2317 0.2511 0.2705 0.2899
2992.336249 0.3092 0.3285 0.3478 0.3678 0.3882
2997.424509 0.3805 0.3833 0.3858 0.3854 0.3847
3002.512770 0.3839 0.3821 0.3786 0.3751 0.3716
3007.601031 0.3682 0.3647 0.3611 0.3576 0.3541
3012.689292 0.3508 0.3473 0.3438 0.3403 0.3368
3017.777553 0.3337 0.3317 0.3298 0.3278 0.3267
3022.865814 0.3263 0.3259 0.3256 0.3252 0.3249
3027.954074 0.3246 0.3237 0.3222 0.3207 0.3191
3033.042335 0.3172 0.3153 0.3135 0.3116 0.3097
3038.130596 0.3078 0.3059 0.3039 0.3020 0.3001
3043.218857 0.2982 0.2963 0.2944 0.2925 0.2907
3048.307118 0.2890 0.2875 0.2859 0.2859 0.2854
3053.395379 0.2855 0.2857 0.2907 0.2967 0.3027
3058.483640 0.3090 0.3155 0.3223 0.3289 0.3356
3063.571900 0.3423 0.3490 0.3557 0.3624 0.3690
3068.660161 0.3757 0.3823 0.3890 0.3956 0.4022
3073.748422 0.4089 0.4155 0.4221 0.4288 0.4354
3078.836683 0.4420 0.4486 0.4552 0.4618 0.4684
3083.924944 0.4750 0.4816 0.4882 0.4948 0.5014
3089.013205 0.5079 0.5145 0.5210 0.5276 0.5342
3094.101465 0.5407 0.5473 0.5538 0.5603 0.5668
3099.189726 0.5734 0.5799 0.5864 0.5929 0.5994
3104.277987 0.6060 0.6125 0.6190 0.6255 0.6320
3109.366248 0.6384 0.6449 0.6512 0.6564 0.6607
3114.454509 0.6649 0.6697 0.6761 0.6836 0.6912
3119.542770 0.6974 0.7011 0.7036 0.7061 0.7116
3124.631031 0.7224 0.7348 0.7471 0.7567 0.7616
3129.719291 0.7662 0.7707 0.7739 0.7751 0.7764
3134.807552 0.7776 0.7789 0.7801 0.7814 0.7826
3139.895813 0.7839 0.7851 0.7864 0.7880 0.7906
3144.984074 0.7941 0.7975 0.8007 0.8035 0.8060
3150.072335 0.8086 0.8109 0.8125 0.8138 0.8152
3155.160596 0.8165 0.8176 0.8186 0.8196 0.8205
3160.248856 0.8211 0.8217 0.8223 0.8229 0.8235
3165.337117 0.8241 0.8247 0.8252 0.8254 0.8255
3170.425378 0.8257 0.8259 0.8260 0.8262 0.8263
3175.513639 0.8265 0.8267 0.8269 0.8270 0.8272
3180.601900 0.8274 0.8275 0.8277 0.8278 0.8279
3185.690161 0.8279 0.8280 0.8281 0.8281 0.8281
3190.778422 0.8281 0.8280 0.8280 0.8280 0.8280
3195.866682 0.8280 0.8280 0.8280 0.8280 0.8280
3200.954943 0.8280 0.8280 0.8280 0.8280 0.8280
3206.043204 0.8281 0.8281 0.8282 0.8282 0.8282
3211.131465 0.8282 0.8283 0.8284 0.8285 0.8287
3216.219726 0.8288 0.8290 0.8292 0.8295 0.8297
3221.307987 0.8298 0.8300 0.8302 0.8305 0.8309
3226.396247 0.8314 0.8319 0.8323 0.8324 0.8325
3231.484508 0.8326 0.8327 0.8327 0.8327 0.8327
3236.572769 0.8327 0.8328 0.8328 0.8328 0.8328
3241.661030 0.8329 0.8329 0.8329 0.8329 0.8332
3246.749291 0.8328 0.8322 0.8319 0.8317 0.8314
3251.837552 0.8311 0.8309 0.8306 0.8301 0.8297
3256.925813 0.8292 0.8287 0.8280 0.8273 0.8266
3262.014073 0.8258 0.8250 0.8241 0.8231 0.8222
3267.102334 0.8213 0.8204 0.8195 0.8186 0.8176
3272.190595 0.8163 0.8149 0.8136 0.8122 0.8106
3277.278856 0.8091 0.8075 0.8052 0.8007 0.7946
3282.367117 0.7884 0.7826 0.7782 0.7758 0.7735
3287.455378 0.7711 0.7686 0.7657 0.7629 0.7601
3292.543638 0.7572 0.7540 0.7506 0.7472 0.7440
3297.631899 0.7414 0.7394 0.7375 0.7353 0.7323
3302.720160 0.7276 0.7229 0.7182 0.7133 0.7068
3307.808421 0.7003 0.6939 0.6874 0.6810 0.6745
3312.896682 0.6681 0.6616 0.6552 0.6487 0.6423
3317.984943 0.6358 0.6294 0.6229 0.6166 0.6101
3323.073204 0.6037 0.5973 0.5909 0.5845 0.5781
3328.161464 0.5717 0.5653 0.5589 0.5525 0.5461
3333.249725 0.5398 0.5335 0.5271 0.5207 0.5143
3338.337986 0.5080 0.5016 0.4953 0.4889 0.4826
3343.426247 0.4762 0.4700 0.4636 0.4573 0.4509
3348.514508 0.4447 0.4383 0.4320 0.4257 0.4194
3353.602769 0.4131 0.4068 0.4005 0.3943 0.3880
3358.691029 0.3818 0.3755 0.3692 0.3629 0.3567
3363.779290 0.3504 0.3442 0.3380 0.3317 0.3255
3368.867551 0.3192 0.3130 0.3067 0.3005 0.2943
3373.955812 0.2881 0.2818 0.2756 0.2694 0.2632
3379.044073 0.2570 0.2508 0.2446 0.2384 0.2322
3384.132334 0.2261 0.2199 0.2137 0.2078 0.2019
3389.220594 0.1960 0.1901 0.1862 0.1855 0.1855
3394.308855 0.1854 0.1854 0.1853 0.1853 0.1852
3399.397116 0.1852 0.1852 0.1851 0.1851 0.1851
3404.485377 0.1859 0.1903 0.1995 0.2087 0.2179
3409.573638 0.2136 0.2020 0.2533 0.2664 0.2795
3414.661899 0.2925 0.3056 0.3187 0.3318 0.3449
3419.750160 0.3579 0.3709 0.3840 0.3970 0.4101
3424.838420 0.4231 0.4360 0.4490 0.4621 0.4750
3429.926681 0.4880 0.5010 0.5139 0.5266 0.5365
3435.014942 0.5460 0.5554 0.5648 0.5725 0.5757
3440.103203 0.5789 0.5821 0.5854 0.5948 0.6077
3445.191464 0.6208 0.6339 0.6469 0.6502 0.6530
3450.279725 0.6559 0.6586 0.6613 0.6637 0.6661
3455.367985 0.6685 0.6709 0.6733 0.6757 0.6781
3460.456246 0.6805 0.6829 0.6853 0.6878 0.6902
3465.544507 0.6927 0.6953 0.6983 0.7013 0.7044
3470.632768 0.7075 0.7109 0.7148 0.7187 0.7226
3475.721029 0.7266 0.7290 0.7307 0.7324 0.7341
3480.809290 0.7362 0.7397 0.7440 0.7484 0.7528
3485.897551 0.7572 0.7619 0.7667 0.7716 0.7764
3490.985811 0.7803 0.7830 0.7854 0.7877 0.7901
3496.074072 0.7921 0.7935 0.7949 0.7964 0.7978
3501.162333 0.7993 0.8007 0.8022 0.8036 0.8050
3506.250594 0.8061 0.8071 0.8081 0.8091 0.8101
3511.338855 0.8110 0.8119 0.8129 0.8138 0.8147
3516.427116 0.8157 0.8166 0.8175 0.8184 0.8193
3521.515376 0.8203 0.8213 0.8222 0.8233 0.8244
3526.603637 0.8256 0.8268 0.8280 0.8292 0.8305
3531.691898 0.8317 0.8330 0.8342 0.8355 0.8366
3536.780159 0.8377 0.8389 0.8400 0.8412 0.8422
3541.868420 0.8432 0.8442 0.8451 0.8461 0.8469
3546.956681 0.8476 0.8484 0.8491 0.8498 0.8504
3552.044942 0.8508 0.8513 0.8517 0.8521 0.8526
3557.133202 0.8530 0.8535 0.8539 0.8543 0.8548
3562.221463 0.8552 0.8556 0.8560 0.8565 0.8568
3567.309724 0.8572 0.8575 0.8578 0.8581 0.8584
3572.397985 0.8587 0.8589 0.8592 0.8594 0.8597
3577.486246 0.8600 0.8602 0.8605 0.8607 0.8609
3582.574507 0.8611 0.8613 0.8615 0.8617 0.8619
3587.662767 0.8621 0.8622 0.8624 0.8625 0.8626
3592.751028 0.8628 0.8629 0.8631 0.8632 0.8633
3597.839289 0.8635 0.8636 0.8638 0.8639 0.8641
3602.927550 0.8642 0.8643 0.8645 0.8646 0.8647
3608.015811 0.8648 0.8649 0.8650 0.8651 0.8652
3613.104072 0.8653 0.8654 0.8655 0.8655 0.8656
3618.192333 0.8657 0.8658 0.8659 0.8659 0.8660
3623.280593 0.8661 0.8661 0.8662 0.8663 0.8663
3628.368854 0.8663 0.8663 0.8663 0.8663 0.8663
3633.457115 0.8662 0.8662 0.8662 0.8662 0.8662
3638.545376 0.8661 0.8661 0.8661 0.8661 0.8661
3643.633637 0.8661 0.8660 0.8660 0.8660 0.8660
3648.721898 0.8660 0.8659 0.8659 0.8659 0.8659
3653.810158 0.8659 0.8658 0.8657 0.8656 0.8655
3658.898419 0.8654 0.8653 0.8652 0.8651 0.8650
3663.986680 0.8649 0.8647 0.8646 0.8646 0.8645
3669.074941 0.8644 0.8643 0.8642 0.8641 0.8640
3674.163202 0.8639 0.8638 0.8637 0.8636 0.8636
3679.251463 0.8635 0.8634 0.8633 0.8632 0.8631
3684.339724 0.8630 0.8629 0.8629 0.8628 0.8627
3689.427984 0.8626 0.8625 0.8625 0.8624 0.8624
3694.516245 0.8623 0.8623 0.8622 0.8622 0.8622
3699.604506 0.8622 0.8622 0.8623 0.8623 0.8624
3704.692767 0.8624 0.8624 0.8624 0.8624 0.8624
3709.781028 0.8625 0.8625 0.8625 0.8626 0.8626
3714.869289 0.8627 0.8629 0.8630 0.8631 0.8632
3719.957549 0.8631 0.8626 0.8636 0.8638 0.8639
3725.045810 0.8641 0.8643 0.8645 0.8647 0.8649
3730.134071 0.8651 0.8653 0.8657 0.8660 0.8664
3735.222332 0.8668 0.8671 0.8674 0.8676 0.8678
3740.310593 0.8681 0.8683 0.8685 0.8687 0.8688
3745.398854 0.8690 0.8691 0.8693 0.8694 0.8694
3750.487115 0.8695 0.8696 0.8696 0.8697 0.8697
3755.575375 0.8697 0.8698 0.8698 0.8698 0.8699
3760.663636 0.8699 0.8700 0.8700 0.8700 0.8701
3765.751897 0.8701 0.8701 0.8702 0.8702 0.8702
3770.840158 0.8703 0.8703 0.8703 0.8704 0.8704
3775.928419 0.8705 0.8705 0.8705 0.8705 0.8705
3781.016680 0.8705 0.8706 0.8706 0.8706 0.8706
3786.104940 0.8707 0.8707 0.8708 0.8708 0.8709
3791.193201 0.8709 0.8710 0.8710 0.8711 0.8712
3796.281462 0.8712 0.8713 0.8714 0.8714 0.8715
3801.369723 0.8716 0.8717 0.8717 0.8718 0.8719
3806.457984 0.8719 0.8720 0.8720 0.8721 0.8721
3811.546245 0.8723 0.8725 0.8727 0.8728 0.8730
3816.634506 0.8732 0.8735 0.8738 0.8740 0.8743
3821.722766 0.8746 0.8748 0.8751 0.8753 0.8756
3826.811027 0.8758 0.8760 0.8763 0.8765 0.8766
3831.899288 0.8768 0.8770 0.8772 0.8774 0.8776
3836.987549 0.8778 0.8781 0.8783 0.8785 0.8785
3842.075810 0.8786 0.8787 0.8788 0.8789 0.8790
3847.164071 0.8790 0.8790 0.8790 0.8790 0.8790
3852.252331 0.8790 0.8790 0.8790 0.8790 0.8790
3857.340592 0.8790 0.8791 0.8791 0.8791 0.8791
3862.428853 0.8791 0.8790 0.8790 0.8790 0.8790
3867.517114 0.8790 0.8790 0.8790 0.8789 0.8789
3872.605375 0.8789 0.8789 0.8789 0.8789 0.8788
3877.693636 0.8788 0.8788 0.8788 0.8788 0.8788
3882.781897 0.8787 0.8787 0.8787 0.8786 0.8786
3887.870157 0.8786 0.8785 0.8785 0.8785 0.8785
3892.958418 0.8785 0.8785 0.8784 0.8784 0.8784
3898.046679 0.8784 0.8784 0.8784 0.8783 0.8783
3903.134940 0.8783 0.8782 0.8782 0.8782 0.8781
3908.223201 0.8781 0.8780 0.8780 0.8779 0.8779
3913.311462 0.8778 0.8778 0.8778 0.8777 0.8777
3918.399722 0.8776 0.8776 0.8775 0.8775 0.8774
3923.487983 0.8774 0.8773 0.8773 0.8772 0.8772
3928.576244 0.8771 0.8771 0.8770 0.8770 0.8769
3933.664505 0.8769 0.8768 0.8768 0.8767 0.8767
3938.752766 0.8766 0.8766 0.8766 0.8765 0.8765
3943.841027 0.8764 0.8764 0.8764 0.8764 0.8763
3948.929287 0.8763 0.8763 0.8762 0.8762 0.8761
3954.017548 0.8761 0.8760 0.8760 0.8759 0.8759
3959.105809 0.8758 0.8758 0.8757 0.8757 0.8756
3964.194070 0.8756 0.8755 0.8755 0.8754 0.8754
3969.282331 0.8753 0.8753 0.8752 0.8752 0.8751
3974.370592 0.8751 0.8750 0.8750 0.8749 0.8749
3979.458853 0.8748 0.8748 0.8747 0.8747 0.8747
3984.547113 0.8746 0.8746 0.8746 0.8745 0.8745
3989.635374 0.8744 0.8744 0.8743 0.8743 0.8743
3994.723635 0.8742 0.8742 0.8741 0.8741 0.8740
3999.811896 0.8740 0.8739 0.8737 0.8736 0.8735
4004.900157 0.8734 0.8733 0.8732 0.8731 0.8729
4009.988418 0.8728 0.8726 0.8725 0.8724 0.8722
4015.076678 0.8721 0.8719 0.8718 0.8716 0.8715
4020.164939 0.8713 0.8712 0.8712 0.8710 0.8709
4025.253200 0.8708 0.8706 0.8704 0.8702 0.8699
4030.341461 0.8697 0.8695 0.8693 0.8690 0.8686
4035.429722 0.8682 0.8678 0.8674 0.8670 0.8666
4040.517983 0.8660 0.8654 0.8648 0.8642 0.8636
4045.606244 0.8629 0.8619 0.8609 0.8599 0.8588
4050.694504 0.8578 0.8567 0.8556 0.8546 0.8536
4055.782765 0.8525 0.8515 0.8504 0.8494
##END=
