##TITLE=Nonanedioic acid, di-(2-ethylhexyl) ester
##JCAMP-DX=4.24
$$ By DXEDIT 1.05 (RS McDonald)
##DATA TYPE=INFRARED SPECTRUM
##CLASS=COBLENTZ III
##ORIGIN=DOW CHEMICAL COMPANY
##OWNER=COPYRIGHT (C) 1988 by COBLENTZ SOCIETY INC.
Collection (C) 2018 copyright by the U.S. Secretary of Commerce
on behalf of the United States of America. All rights reserved.
##DATE=1970/01/21
##NAMES=bis(2-ethylhexyl) azelaate
Plastolein 9058 (Emery Ind.)
##CAS REGISTRY NO=103-24-2
##MOLFORM=C25 H48 O4
##SOURCE REFERENCE=COBLENTZ NO. 09450
##$NIST SOURCE=COBLENTZ
##$NIST IMAGE=cob9450
##SPECTROMETER/DATA SYSTEM=DOW KBr FOREPRISM-GRATING
##INSTRUMENT PARAMETERS=BLAZED AT 3.5, 12.0, 20.0 MICRON AND CHANGED AT 5.0, 7.5, 14.9 MICRON
##STATE=SOLUTION (10% CCl4 FOR 2.7-7.5, 10% CS2 FOR 7.5-26 MICRON) VS SOLVENT
##PATH LENGTH=0.011 CM, 0.011 CM
##SAMPLING PROCEDURE=TRANSMISSION
##RESOLUTION=2
##DATA PROCESSING=DIGITIZED BY COBLENTZ SOCIETY (BATCH I) FROM HARD COPY
##XUNITS=1/CM
##YUNITS=TRANSMITTANCE
##XFACTOR=1
##YFACTOR=1
##DELTAX=1
##FIRSTX=3800
##LASTX=394
##FIRSTY=0.8652
##MAXX=3800
##MINX=394
##MAXY=0.889
##MINY=0.0065
##NPOINTS=3407
##XYDATA=(X++(Y..Y))
3800.000000 0.8652 0.8652 0.8653 0.8653 0.8654
3795.000000 0.8654 0.8655 0.8655 0.8656 0.8656
3790.000000 0.8657 0.8657 0.8658 0.8658 0.8659
3785.000000 0.8660 0.8661 0.8661 0.8662 0.8662
3780.000000 0.8663 0.8663 0.8664 0.8664 0.8665
3775.000000 0.8665 0.8666 0.8666 0.8667 0.8667
3770.000000 0.8668 0.8668 0.8668 0.8668 0.8670
3765.000000 0.8670 0.8671 0.8671 0.8671 0.8671
3760.000000 0.8673 0.8673 0.8674 0.8674 0.8675
3755.000000 0.8675 0.8675 0.8675 0.8677 0.8677
3750.000000 0.8678 0.8678 0.8678 0.8678 0.8680
3745.000000 0.8680 0.8680 0.8680 0.8681 0.8681
3740.000000 0.8681 0.8681 0.8682 0.8682 0.8683
3735.000000 0.8683 0.8683 0.8683 0.8684 0.8684
3730.000000 0.8684 0.8684 0.8685 0.8685 0.8685
3725.000000 0.8685 0.8686 0.8686 0.8686 0.8686
3720.000000 0.8687 0.8687 0.8688 0.8688 0.8688
3715.000000 0.8688 0.8689 0.8689 0.8689 0.8689
3710.000000 0.8690 0.8690 0.8691 0.8691 0.8691
3705.000000 0.8691 0.8692 0.8692 0.8693 0.8693
3700.000000 0.8694 0.8694 0.8695 0.8695 0.8695
3695.000000 0.8695 0.8696 0.8696 0.8697 0.8697
3690.000000 0.8697 0.8698 0.8699 0.8699 0.8700
3685.000000 0.8700 0.8700 0.8700 0.8700 0.8700
3680.000000 0.8700 0.8699 0.8699 0.8698 0.8698
3675.000000 0.8698 0.8698 0.8697 0.8697 0.8696
3670.000000 0.8696 0.8696 0.8696 0.8695 0.8695
3665.000000 0.8695 0.8695 0.8695 0.8695 0.8694
3660.000000 0.8694 0.8694 0.8694 0.8694 0.8694
3655.000000 0.8694 0.8694 0.8693 0.8693 0.8691
3650.000000 0.8690 0.8688 0.8686 0.8684 0.8682
3645.000000 0.8678 0.8674 0.8666 0.8658 0.8649
3640.000000 0.8641 0.8633 0.8625 0.8618 0.8611
3635.000000 0.8603 0.8596 0.8591 0.8586 0.8585
3630.000000 0.8584 0.8583 0.8582 0.8581 0.8581
3625.000000 0.8581 0.8582 0.8585 0.8588 0.8591
3620.000000 0.8594 0.8596 0.8599 0.8602 0.8605
3615.000000 0.8607 0.8610 0.8613 0.8616 0.8618
3610.000000 0.8623 0.8625 0.8628 0.8632 0.8635
3605.000000 0.8638 0.8642 0.8645 0.8648 0.8651
3600.000000 0.8655 0.8658 0.8661 0.8664 0.8668
3595.000000 0.8671 0.8674 0.8675 0.8678 0.8680
3590.000000 0.8683 0.8685 0.8687 0.8689 0.8692
3585.000000 0.8694 0.8696 0.8698 0.8701 0.8703
3580.000000 0.8705 0.8707 0.8709 0.8710 0.8712
3575.000000 0.8714 0.8716 0.8718 0.8720 0.8721
3570.000000 0.8723 0.8725 0.8727 0.8728 0.8730
3565.000000 0.8730 0.8730 0.8730 0.8730 0.8728
3560.000000 0.8728 0.8728 0.8728 0.8727 0.8727
3555.000000 0.8725 0.8723 0.8721 0.8720 0.8718
3550.000000 0.8716 0.8714 0.8713 0.8711 0.8709
3545.000000 0.8707 0.8706 0.8704 0.8702 0.8701
3540.000000 0.8700 0.8699 0.8699 0.8698 0.8698
3535.000000 0.8697 0.8697 0.8696 0.8696 0.8695
3530.000000 0.8695 0.8694 0.8694 0.8693 0.8692
3525.000000 0.8692 0.8693 0.8693 0.8693 0.8693
3520.000000 0.8694 0.8694 0.8694 0.8694 0.8695
3515.000000 0.8696 0.8698 0.8700 0.8702 0.8704
3510.000000 0.8706 0.8712 0.8718 0.8725 0.8734
3505.000000 0.8743 0.8752 0.8760 0.8768 0.8771
3500.000000 0.8773 0.8775 0.8777 0.8778 0.8781
3495.000000 0.8783 0.8785 0.8786 0.8787 0.8788
3490.000000 0.8789 0.8790 0.8792 0.8793 0.8794
3485.000000 0.8795 0.8796 0.8797 0.8798 0.8799
3480.000000 0.8800 0.8801 0.8802 0.8803 0.8804
3475.000000 0.8804 0.8805 0.8806 0.8807 0.8808
3470.000000 0.8809 0.8809 0.8810 0.8810 0.8810
3465.000000 0.8810 0.8810 0.8803 0.8796 0.8788
3460.000000 0.8781 0.8773 0.8766 0.8758 0.8751
3455.000000 0.8743 0.8736 0.8727 0.8718 0.8707
3450.000000 0.8697 0.8686 0.8675 0.8667 0.8658
3445.000000 0.8649 0.8641 0.8634 0.8627 0.8621
3440.000000 0.8618 0.8617 0.8617 0.8617 0.8620
3435.000000 0.8621 0.8625 0.8628 0.8631 0.8634
3430.000000 0.8638 0.8648 0.8658 0.8668 0.8678
3425.000000 0.8688 0.8698 0.8707 0.8717 0.8725
3420.000000 0.8734 0.8742 0.8751 0.8759 0.8768
3415.000000 0.8777 0.8786 0.8794 0.8802 0.8807
3410.000000 0.8812 0.8817 0.8823 0.8828 0.8833
3405.000000 0.8838 0.8843 0.8846 0.8850 0.8851
3400.000000 0.8853 0.8855 0.8857 0.8858 0.8860
3395.000000 0.8862 0.8864 0.8865 0.8867 0.8868
3390.000000 0.8870 0.8871 0.8874 0.8875 0.8877
3385.000000 0.8877 0.8878 0.8878 0.8880 0.8880
3380.000000 0.8881 0.8881 0.8882 0.8882 0.8883
3375.000000 0.8883 0.8884 0.8885 0.8886 0.8886
3370.000000 0.8886 0.8886 0.8887 0.8887 0.8887
3365.000000 0.8887 0.8888 0.8888 0.8888 0.8888
3360.000000 0.8889 0.8889 0.8889 0.8889 0.8890
3355.000000 0.8890 0.8890 0.8890 0.8890 0.8889
3350.000000 0.8888 0.8886 0.8885 0.8884 0.8883
3345.000000 0.8881 0.8880 0.8878 0.8878 0.8875
3340.000000 0.8875 0.8873 0.8871 0.8868 0.8867
3335.000000 0.8865 0.8863 0.8861 0.8859 0.8857
3330.000000 0.8855 0.8853 0.8851 0.8849 0.8847
3325.000000 0.8845 0.8843 0.8842 0.8841 0.8840
3320.000000 0.8839 0.8838 0.8837 0.8836 0.8835
3315.000000 0.8834 0.8833 0.8832 0.8831 0.8830
3310.000000 0.8828 0.8828 0.8827 0.8825 0.8825
3305.000000 0.8824 0.8823 0.8821 0.8821 0.8821
3300.000000 0.8821 0.8820 0.8818 0.8818 0.8818
3295.000000 0.8817 0.8817 0.8816 0.8816 0.8815
3290.000000 0.8815 0.8814 0.8814 0.8813 0.8813
3285.000000 0.8812 0.8811 0.8810 0.8810 0.8809
3280.000000 0.8809 0.8808 0.8808 0.8807 0.8806
3275.000000 0.8805 0.8805 0.8804 0.8804 0.8803
3270.000000 0.8802 0.8801 0.8801 0.8800 0.8799
3265.000000 0.8798 0.8798 0.8797 0.8797 0.8796
3260.000000 0.8795 0.8794 0.8794 0.8793 0.8792
3255.000000 0.8791 0.8791 0.8790 0.8790 0.8789
3250.000000 0.8788 0.8787 0.8786 0.8785 0.8784
3245.000000 0.8783 0.8782 0.8781 0.8780 0.8778
3240.000000 0.8778 0.8777 0.8775 0.8775 0.8774
3235.000000 0.8773 0.8771 0.8771 0.8770 0.8768
3230.000000 0.8768 0.8766 0.8765 0.8763 0.8762
3225.000000 0.8760 0.8758 0.8756 0.8754 0.8752
3220.000000 0.8750 0.8748 0.8746 0.8744 0.8742
3215.000000 0.8740 0.8738 0.8736 0.8734 0.8732
3210.000000 0.8730 0.8728 0.8725 0.8724 0.8721
3205.000000 0.8720 0.8718 0.8716 0.8714 0.8712
3200.000000 0.8710 0.8707 0.8705 0.8702 0.8699
3195.000000 0.8696 0.8693 0.8690 0.8688 0.8685
3190.000000 0.8682 0.8678 0.8677 0.8674 0.8671
3185.000000 0.8668 0.8666 0.8663 0.8660 0.8657
3180.000000 0.8654 0.8651 0.8649 0.8646 0.8643
3175.000000 0.8640 0.8638 0.8635 0.8632 0.8628
3170.000000 0.8627 0.8624 0.8621 0.8618 0.8616
3165.000000 0.8613 0.8611 0.8608 0.8606 0.8604
3160.000000 0.8602 0.8601 0.8600 0.8599 0.8598
3155.000000 0.8596 0.8595 0.8594 0.8593 0.8592
3150.000000 0.8591 0.8590 0.8589 0.8587 0.8586
3145.000000 0.8585 0.8584 0.8582 0.8580 0.8578
3140.000000 0.8575 0.8574 0.8571 0.8570 0.8568
3135.000000 0.8566 0.8564 0.8562 0.8560 0.8556
3130.000000 0.8553 0.8550 0.8547 0.8544 0.8541
3125.000000 0.8538 0.8535 0.8532 0.8528 0.8525
3120.000000 0.8523 0.8520 0.8517 0.8512 0.8508
3115.000000 0.8503 0.8498 0.8493 0.8488 0.8484
3110.000000 0.8480 0.8475 0.8471 0.8468 0.8465
3105.000000 0.8461 0.8458 0.8454 0.8451 0.8447
3100.000000 0.8443 0.8439 0.8436 0.8433 0.8430
3095.000000 0.8425 0.8423 0.8420 0.8417 0.8414
3090.000000 0.8411 0.8406 0.8402 0.8398 0.8394
3085.000000 0.8390 0.8386 0.8380 0.8375 0.8368
3080.000000 0.8363 0.8357 0.8351 0.8344 0.8337
3075.000000 0.8328 0.8321 0.8313 0.8306 0.8298
3070.000000 0.8291 0.8284 0.8277 0.8270 0.8263
3065.000000 0.8255 0.8248 0.8241 0.8234 0.8225
3060.000000 0.8218 0.8212 0.8205 0.8198 0.8191
3055.000000 0.8182 0.8172 0.8162 0.8154 0.8144
3050.000000 0.8134 0.8124 0.8114 0.8104 0.8094
3045.000000 0.8083 0.8072 0.8061 0.8051 0.8040
3040.000000 0.8030 0.8018 0.8008 0.7997 0.7987
3035.000000 0.7975 0.7965 0.7953 0.7942 0.7921
3030.000000 0.7903 0.7884 0.7865 0.7846 0.7826
3025.000000 0.7804 0.7782 0.7751 0.7721 0.7690
3020.000000 0.7660 0.7630 0.7601 0.7575 0.7551
3015.000000 0.7525 0.7501 0.7475 0.7451 0.7425
3010.000000 0.7400 0.7336 0.7271 0.7207 0.7143
3005.000000 0.7011 0.6882 0.6794 0.6707 0.6640
3000.000000 0.6572 0.6481 0.6389 0.6291 0.6193
2995.000000 0.6005 0.5818 0.5700 0.5583 0.5021
2990.000000 0.4460 0.4260 0.4059 0.3859 0.3659
2985.000000 0.3459 0.3259 0.3059 0.2859 0.2658
2980.000000 0.2458 0.2258 0.2058 0.1857 0.1657
2975.000000 0.1457 0.1257 0.1058 0.0860 0.0780
2970.000000 0.0700 0.0641 0.0583 0.0516 0.0450
2965.000000 0.0375 0.0300 0.0277 0.0255 0.0242
2960.000000 0.0204 0.0222 0.0215 0.0212 0.0210
2955.000000 0.0210 0.0211 0.0220 0.0228 0.0256
2950.000000 0.0285 0.0320 0.0356 0.0366 0.0376
2945.000000 0.0378 0.0378 0.0379 0.0379 0.0379
2940.000000 0.0379 0.0373 0.0366 0.0355 0.0343
2935.000000 0.0328 0.0314 0.0299 0.0285 0.0273
2930.000000 0.0262 0.0251 0.0240 0.0231 0.0213
2925.000000 0.0221 0.0218 0.0216 0.0216 0.0215
2920.000000 0.0216 0.0218 0.0221 0.0224 0.0228
2915.000000 0.0236 0.0246 0.0272 0.0299 0.0338
2910.000000 0.0377 0.0492 0.0607 0.0682 0.0757
2905.000000 0.0903 0.1050 0.1129 0.1208 0.1287
2900.000000 0.1366 0.1445 0.1525 0.1604 0.1683
2895.000000 0.1762 0.1841 0.1920 0.1999 0.2078
2890.000000 0.2157 0.2235 0.2315 0.2394 0.2474
2885.000000 0.2525 0.2577 0.2579 0.2599 0.2553
2880.000000 0.2524 0.2234 0.1946 0.1658 0.1369
2875.000000 0.1213 0.1049 0.1096 0.1135 0.1190
2870.000000 0.1245 0.1292 0.1342 0.1332 0.1353
2865.000000 0.1263 0.1204 0.1145 0.1086 0.1026
2860.000000 0.0967 0.0908 0.0838 0.0845 0.0842
2855.000000 0.0864 0.0886 0.0931 0.0976 0.1022
2850.000000 0.1067 0.1904 0.2743 0.3654 0.4566
2845.000000 0.4740 0.4915 0.5014 0.5112 0.5260
2840.000000 0.5409 0.5485 0.5562 0.5646 0.5731
2835.000000 0.5860 0.5990 0.6102 0.6214 0.6276
2830.000000 0.6339 0.6383 0.6428 0.6472 0.6518
2825.000000 0.6562 0.6608 0.6655 0.6701 0.6742
2820.000000 0.6783 0.6821 0.6858 0.6897 0.6936
2815.000000 0.6987 0.7038 0.7091 0.7145 0.7180
2810.000000 0.7215 0.7247 0.7280 0.7311 0.7345
2805.000000 0.7371 0.7398 0.7421 0.7444 0.7467
2800.000000 0.7490 0.7511 0.7535 0.7554 0.7574
2795.000000 0.7594 0.7614 0.7633 0.7653 0.7668
2790.000000 0.7683 0.7698 0.7714 0.7728 0.7744
2785.000000 0.7758 0.7775 0.7793 0.7811 0.7833
2780.000000 0.7854 0.7869 0.7887 0.7898 0.7908
2775.000000 0.7918 0.7930 0.7941 0.7951 0.7961
2770.000000 0.7971 0.7982 0.7992 0.8001 0.8011
2765.000000 0.8018 0.8024 0.8030 0.8037 0.8043
2760.000000 0.8049 0.8055 0.8061 0.8065 0.8069
2755.000000 0.8072 0.8075 0.8078 0.8082 0.8084
2750.000000 0.8086 0.8088 0.8090 0.8091 0.8093
2745.000000 0.8093 0.8093 0.8092 0.8091 0.8089
2740.000000 0.8087 0.8084 0.8082 0.8075 0.8068
2735.000000 0.8060 0.8053 0.8048 0.8043 0.8038
2730.000000 0.8034 0.8028 0.8025 0.8021 0.8021
2725.000000 0.8021 0.8024 0.8028 0.8033 0.8037
2720.000000 0.8042 0.8046 0.8051 0.8055 0.8060
2715.000000 0.8064 0.8068 0.8071 0.8076 0.8081
2710.000000 0.8085 0.8088 0.8092 0.8095 0.8098
2705.000000 0.8101 0.8105 0.8108 0.8111 0.8114
2700.000000 0.8117 0.8119 0.8124 0.8126 0.8130
2695.000000 0.8133 0.8136 0.8139 0.8143 0.8146
2690.000000 0.8149 0.8151 0.8155 0.8158 0.8161
2685.000000 0.8161 0.8161 0.8161 0.8161 0.8161
2680.000000 0.8162 0.8162 0.8162 0.8162 0.8162
2675.000000 0.8162 0.8161 0.8160 0.8158 0.8158
2670.000000 0.8157 0.8156 0.8155 0.8154 0.8154
2665.000000 0.8153 0.8153 0.8151 0.8151 0.8153
2660.000000 0.8155 0.8156 0.8157 0.8158 0.8160
2655.000000 0.8164 0.8168 0.8174 0.8181 0.8188
2650.000000 0.8195 0.8202 0.8209 0.8217 0.8225
2645.000000 0.8234 0.8242 0.8250 0.8258 0.8260
2640.000000 0.8263 0.8266 0.8268 0.8271 0.8274
2635.000000 0.8275 0.8278 0.8281 0.8283 0.8284
2630.000000 0.8285 0.8286 0.8288 0.8289 0.8291
2625.000000 0.8292 0.8293 0.8294 0.8296 0.8297
2620.000000 0.8298 0.8299 0.8301 0.8302 0.8304
2615.000000 0.8305 0.8306 0.8307 0.8309 0.8310
2610.000000 0.8312 0.8314 0.8316 0.8318 0.8321
2605.000000 0.8323 0.8325 0.8328 0.8331 0.8333
2600.000000 0.8336 0.8338 0.8341 0.8343 0.8346
2595.000000 0.8348 0.8351 0.8353 0.8356 0.8358
2590.000000 0.8361 0.8364 0.8367 0.8368 0.8371
2585.000000 0.8375 0.8378 0.8383 0.8387 0.8391
2580.000000 0.8395 0.8399 0.8403 0.8407 0.8411
2575.000000 0.8414 0.8418 0.8421 0.8425 0.8430
2570.000000 0.8434 0.8438 0.8442 0.8446 0.8450
2565.000000 0.8454 0.8458 0.8461 0.8465 0.8468
2560.000000 0.8473 0.8477 0.8481 0.8485 0.8489
2555.000000 0.8493 0.8497 0.8501 0.8505 0.8509
2550.000000 0.8513 0.8517 0.8521 0.8525 0.8528
2545.000000 0.8532 0.8536 0.8540 0.8544 0.8548
2540.000000 0.8552 0.8556 0.8560 0.8564 0.8568
2535.000000 0.8571 0.8575 0.8578 0.8583 0.8586
2530.000000 0.8589 0.8591 0.8594 0.8597 0.8600
2525.000000 0.8603 0.8606 0.8608 0.8611 0.8614
2520.000000 0.8617 0.8620 0.8623 0.8625 0.8628
2515.000000 0.8631 0.8634 0.8637 0.8640 0.8642
2510.000000 0.8645 0.8648 0.8651 0.8654 0.8657
2505.000000 0.8659 0.8662 0.8664 0.8667 0.8668
2500.000000 0.8671 0.8673 0.8675 0.8678 0.8680
2495.000000 0.8682 0.8685 0.8687 0.8689 0.8691
2490.000000 0.8694 0.8696 0.8699 0.8701 0.8703
2485.000000 0.8705 0.8708 0.8710 0.8712 0.8713
2480.000000 0.8715 0.8715 0.8716 0.8717 0.8718
2475.000000 0.8718 0.8718 0.8720 0.8721 0.8721
2470.000000 0.8721 0.8723 0.8724 0.8724 0.8725
2465.000000 0.8725 0.8725 0.8725 0.8725 0.8725
2460.000000 0.8727 0.8727 0.8727 0.8727 0.8727
2455.000000 0.8727 0.8727 0.8727 0.8728 0.8728
2450.000000 0.8728 0.8728 0.8728 0.8728 0.8728
2445.000000 0.8728 0.8728 0.8728 0.8728 0.8728
2440.000000 0.8728 0.8728 0.8728 0.8728 0.8728
2435.000000 0.8728 0.8728 0.8728 0.8728 0.8728
2430.000000 0.8728 0.8728 0.8728 0.8728 0.8728
2425.000000 0.8728 0.8728 0.8728 0.8728 0.8727
2420.000000 0.8727 0.8727 0.8727 0.8727 0.8727
2415.000000 0.8727 0.8727 0.8725 0.8725 0.8725
2410.000000 0.8725 0.8725 0.8725 0.8725 0.8724
2405.000000 0.8723 0.8721 0.8720 0.8718 0.8718
2400.000000 0.8717 0.8716 0.8715 0.8714 0.8713
2395.000000 0.8712 0.8711 0.8709 0.8708 0.8707
2390.000000 0.8706 0.8705 0.8704 0.8703 0.8702
2385.000000 0.8701 0.8701 0.8700 0.8700 0.8699
2380.000000 0.8699 0.8698 0.8697 0.8696 0.8696
2375.000000 0.8695 0.8695 0.8694 0.8694 0.8694
2370.000000 0.8694 0.8694 0.8694 0.8694 0.8694
2365.000000 0.8694 0.8694 0.8694 0.8694 0.8694
2360.000000 0.8694 0.8694 0.8695 0.8695 0.8695
2355.000000 0.8695 0.8695 0.8695 0.8695 0.8695
2350.000000 0.8695 0.8695 0.8695 0.8695 0.8695
2345.000000 0.8695 0.8696 0.8696 0.8696 0.8696
2340.000000 0.8696 0.8696 0.8696 0.8696 0.8696
2335.000000 0.8695 0.8694 0.8692 0.8691 0.8689
2330.000000 0.8688 0.8686 0.8685 0.8678 0.8674
2325.000000 0.8670 0.8666 0.8664 0.8662 0.8660
2320.000000 0.8658 0.8655 0.8653 0.8652 0.8652
2315.000000 0.8651 0.8650 0.8649 0.8649 0.8648
2310.000000 0.8647 0.8646 0.8646 0.8645 0.8645
2305.000000 0.8645 0.8646 0.8647 0.8648 0.8649
2300.000000 0.8650 0.8651 0.8652 0.8653 0.8654
2295.000000 0.8655 0.8656 0.8657 0.8659 0.8660
2290.000000 0.8662 0.8663 0.8664 0.8665 0.8667
2285.000000 0.8668 0.8668 0.8670 0.8671 0.8673
2280.000000 0.8675 0.8675 0.8677 0.8678 0.8678
2275.000000 0.8680 0.8681 0.8682 0.8683 0.8683
2270.000000 0.8684 0.8685 0.8686 0.8686 0.8687
2265.000000 0.8688 0.8689 0.8689 0.8690 0.8691
2260.000000 0.8692 0.8692 0.8693 0.8694 0.8695
2255.000000 0.8696 0.8697 0.8697 0.8698 0.8699
2250.000000 0.8700 0.8701 0.8703 0.8705 0.8707
2245.000000 0.8709 0.8711 0.8713 0.8715 0.8717
2240.000000 0.8718 0.8721 0.8723 0.8725 0.8727
2235.000000 0.8728 0.8731 0.8733 0.8735 0.8737
2230.000000 0.8739 0.8740 0.8742 0.8743 0.8745
2225.000000 0.8746 0.8747 0.8748 0.8750 0.8751
2220.000000 0.8753 0.8754 0.8755 0.8756 0.8758
2215.000000 0.8759 0.8761 0.8761 0.8762 0.8762
2210.000000 0.8762 0.8762 0.8763 0.8763 0.8763
2205.000000 0.8763 0.8763 0.8763 0.8763 0.8763
2200.000000 0.8764 0.8764 0.8765 0.8766 0.8767
2195.000000 0.8768 0.8768 0.8770 0.8771 0.8771
2190.000000 0.8773 0.8774 0.8775 0.8778 0.8780
2185.000000 0.8782 0.8785 0.8801 0.8818 0.8827
2180.000000 0.8837 0.8845 0.8853 0.8857 0.8862
2175.000000 0.8860 0.8859 0.8854 0.8850 0.8838
2170.000000 0.8827 0.8811 0.8795 0.8791 0.8787
2165.000000 0.8786 0.8785 0.8784 0.8784 0.8783
2160.000000 0.8783 0.8783 0.8783 0.8782 0.8782
2155.000000 0.8782 0.8782 0.8781 0.8781 0.8781
2150.000000 0.8781 0.8780 0.8780 0.8780 0.8780
2145.000000 0.8778 0.8778 0.8778 0.8778 0.8778
2140.000000 0.8778 0.8778 0.8778 0.8778 0.8778
2135.000000 0.8777 0.8777 0.8777 0.8777 0.8775
2130.000000 0.8775 0.8775 0.8774 0.8773 0.8773
2125.000000 0.8771 0.8771 0.8771 0.8771 0.8770
2120.000000 0.8768 0.8768 0.8768 0.8767 0.8767
2115.000000 0.8766 0.8765 0.8764 0.8764 0.8763
2110.000000 0.8763 0.8762 0.8762 0.8761 0.8760
2105.000000 0.8759 0.8758 0.8756 0.8755 0.8753
2100.000000 0.8752 0.8750 0.8749 0.8748 0.8747
2095.000000 0.8746 0.8746 0.8745 0.8745 0.8744
2090.000000 0.8743 0.8742 0.8742 0.8741 0.8741
2085.000000 0.8740 0.8740 0.8740 0.8740 0.8740
2080.000000 0.8740 0.8740 0.8741 0.8741 0.8741
2075.000000 0.8741 0.8742 0.8742 0.8742 0.8742
2070.000000 0.8743 0.8743 0.8743 0.8743 0.8744
2065.000000 0.8744 0.8744 0.8743 0.8742 0.8740
2060.000000 0.8739 0.8737 0.8736 0.8735 0.8734
2055.000000 0.8732 0.8731 0.8730 0.8728 0.8727
2050.000000 0.8725 0.8725 0.8724 0.8721 0.8721
2045.000000 0.8716 0.8712 0.8710 0.8708 0.8707
2040.000000 0.8706 0.8704 0.8703 0.8702 0.8701
2035.000000 0.8699 0.8698 0.8696 0.8695 0.8694
2030.000000 0.8693 0.8691 0.8690 0.8689 0.8688
2025.000000 0.8688 0.8689 0.8690 0.8691 0.8691
2020.000000 0.8692 0.8693 0.8694 0.8694 0.8695
2015.000000 0.8696 0.8697 0.8697 0.8698 0.8699
2010.000000 0.8700 0.8700 0.8701 0.8701 0.8702
2005.000000 0.8703 0.8704 0.8704 0.8705 0.8706
2000.000000 0.8708 0.8709 0.8711 0.8713 0.8714
1995.000000 0.8716 0.8717 0.8718 0.8718 0.8718
1990.000000 0.8718 0.8718 0.8718 0.8718 0.8718
1985.000000 0.8718 0.8718 0.8718 0.8720 0.8720
1980.000000 0.8720 0.8721 0.8721 0.8721 0.8721
1975.000000 0.8723 0.8723 0.8723 0.8721 0.8721
1970.000000 0.8721 0.8721 0.8721 0.8721 0.8721
1965.000000 0.8720 0.8720 0.8720 0.8718 0.8718
1960.000000 0.8718 0.8718 0.8718 0.8718 0.8717
1955.000000 0.8717 0.8717 0.8716 0.8716 0.8716
1950.000000 0.8715 0.8715 0.8715 0.8714 0.8714
1945.000000 0.8714 0.8714 0.8713 0.8713 0.8713
1940.000000 0.8712 0.8712 0.8712 0.8711 0.8711
1935.000000 0.8711 0.8710 0.8710 0.8710 0.8709
1930.000000 0.8709 0.8709 0.8708 0.8708 0.8708
1925.000000 0.8707 0.8707 0.8707 0.8707 0.8706
1920.000000 0.8706 0.8706 0.8705 0.8705 0.8705
1915.000000 0.8704 0.8704 0.8704 0.8703 0.8703
1910.000000 0.8703 0.8702 0.8702 0.8702 0.8701
1905.000000 0.8701 0.8701 0.8700 0.8700 0.8700
1900.000000 0.8700 0.8699 0.8699 0.8699 0.8698
1895.000000 0.8698 0.8698 0.8697 0.8697 0.8697
1890.000000 0.8696 0.8696 0.8696 0.8695 0.8695
1885.000000 0.8695 0.8694 0.8694 0.8694 0.8693
1880.000000 0.8693 0.8693 0.8692 0.8692 0.8692
1875.000000 0.8692 0.8691 0.8691 0.8691 0.8690
1870.000000 0.8690 0.8690 0.8689 0.8689 0.8689
1865.000000 0.8688 0.8688 0.8688 0.8687 0.8687
1860.000000 0.8687 0.8686 0.8686 0.8686 0.8685
1855.000000 0.8685 0.8685 0.8685 0.8684 0.8684
1850.000000 0.8684 0.8683 0.8683 0.8683 0.8682
1845.000000 0.8678 0.8671 0.8664 0.8657 0.8650
1840.000000 0.8645 0.8639 0.8634 0.8628 0.8624
1835.000000 0.8618 0.8614 0.8609 0.8603 0.8598
1830.000000 0.8592 0.8587 0.8582 0.8575 0.8571
1825.000000 0.8565 0.8559 0.8553 0.8546 0.8540
1820.000000 0.8533 0.8527 0.8521 0.8514 0.8505
1815.000000 0.8495 0.8485 0.8475 0.8465 0.8455
1810.000000 0.8444 0.8434 0.8424 0.8414 0.8401
1805.000000 0.8386 0.8370 0.8355 0.8340 0.8324
1800.000000 0.8309 0.8294 0.8278 0.8263 0.8248
1795.000000 0.8228 0.8209 0.8190 0.8171 0.8151
1790.000000 0.8133 0.8114 0.8094 0.8075 0.8049
1785.000000 0.8022 0.7997 0.7971 0.7945 0.7918
1780.000000 0.7892 0.7860 0.7828 0.7798 0.7765
1775.000000 0.7735 0.7700 0.7656 0.7611 0.7568
1770.000000 0.7524 0.7458 0.7393 0.7326 0.7248
1765.000000 0.7158 0.7068 0.6985 0.6901 0.6818
1760.000000 0.6735 0.6614 0.6492 0.6324 0.6098
1755.000000 0.5934 0.5770 0.5312 0.5067 0.4545
1750.000000 0.3893 0.3571 0.3250 0.2928 0.2606
1745.000000 0.2284 0.1963 0.1641 0.1319 0.0997
1740.000000 0.0676 0.0354 0.0207 0.0158 0.0119
1735.000000 0.0103 0.0088 0.0082 0.0076 0.0071
1730.000000 0.0068 0.0066 0.0065 0.0065 0.0066
1725.000000 0.0079 0.0115 0.0195 0.0507 0.0952
1720.000000 0.1159 0.1354 0.1534 0.1703 0.1871
1715.000000 0.2070 0.2338 0.2766 0.2985 0.3106
1710.000000 0.3226 0.3380 0.3554 0.3742 0.3849
1705.000000 0.3959 0.4117 0.4205 0.4490 0.4775
1700.000000 0.5060 0.5345 0.5571 0.5685 0.5778
1695.000000 0.5876 0.5994 0.6112 0.6223 0.6329
1690.000000 0.6435 0.6530 0.6607 0.6685 0.6765
1685.000000 0.6893 0.7019 0.7084 0.7148 0.7211
1680.000000 0.7275 0.7333 0.7378 0.7424 0.7469
1675.000000 0.7515 0.7558 0.7592 0.7625 0.7660
1670.000000 0.7694 0.7728 0.7758 0.7785 0.7811
1665.000000 0.7838 0.7864 0.7890 0.7915 0.7943
1660.000000 0.7968 0.7995 0.8017 0.8037 0.8057
1655.000000 0.8078 0.8098 0.8118 0.8138 0.8156
1650.000000 0.8168 0.8181 0.8194 0.8206 0.8218
1645.000000 0.8231 0.8241 0.8251 0.8261 0.8271
1640.000000 0.8281 0.8291 0.8301 0.8311 0.8321
1635.000000 0.8331 0.8338 0.8345 0.8351 0.8358
1630.000000 0.8364 0.8371 0.8377 0.8383 0.8390
1625.000000 0.8396 0.8401 0.8406 0.8410 0.8415
1620.000000 0.8418 0.8424 0.8428 0.8433 0.8438
1615.000000 0.8442 0.8447 0.8451 0.8455 0.8460
1610.000000 0.8464 0.8468 0.8473 0.8477 0.8482
1605.000000 0.8486 0.8490 0.8492 0.8495 0.8497
1600.000000 0.8499 0.8502 0.8504 0.8506 0.8508
1595.000000 0.8510 0.8512 0.8514 0.8516 0.8517
1590.000000 0.8518 0.8518 0.8518 0.8518 0.8518
1585.000000 0.8517 0.8516 0.8515 0.8515 0.8515
1580.000000 0.8515 0.8514 0.8514 0.8514 0.8513
1575.000000 0.8512 0.8511 0.8511 0.8510 0.8509
1570.000000 0.8509 0.8510 0.8510 0.8510 0.8511
1565.000000 0.8512 0.8517 0.8521 0.8525 0.8530
1560.000000 0.8535 0.8540 0.8544 0.8549 0.8552
1555.000000 0.8553 0.8554 0.8556 0.8563 0.8562
1550.000000 0.8561 0.8563 0.8564 0.8566 0.8568
1545.000000 0.8568 0.8568 0.8568 0.8568 0.8568
1540.000000 0.8568 0.8564 0.8559 0.8554 0.8548
1535.000000 0.8531 0.8514 0.8498 0.8484 0.8470
1530.000000 0.8459 0.8448 0.8437 0.8428 0.8420
1525.000000 0.8412 0.8404 0.8398 0.8392 0.8386
1520.000000 0.8380 0.8374 0.8368 0.8363 0.8356
1515.000000 0.8344 0.8331 0.8318 0.8306 0.8294
1510.000000 0.8281 0.8268 0.8255 0.8238 0.8221
1505.000000 0.8205 0.8188 0.8171 0.8151 0.8124
1500.000000 0.8095 0.8067 0.8039 0.8008 0.7975
1495.000000 0.7941 0.7907 0.7871 0.7822 0.7774
1490.000000 0.7725 0.7662 0.7597 0.7534 0.7476
1485.000000 0.7419 0.7358 0.7278 0.7200 0.6991
1480.000000 0.6153 0.6014 0.5918 0.5562 0.5057
1475.000000 0.4552 0.4046 0.3540 0.3034 0.2529
1470.000000 0.1913 0.1886 0.1879 0.1884 0.1883
1465.000000 0.1883 0.1899 0.1926 0.1960 0.2009
1460.000000 0.2058 0.2129 0.2202 0.2326 0.2515
1455.000000 0.2773 0.3204 0.3545 0.3866 0.4092
1450.000000 0.4278 0.4430 0.4587 0.4750 0.4907
1445.000000 0.5055 0.5215 0.5328 0.5423 0.5491
1440.000000 0.5546 0.5585 0.5628 0.5671 0.5714
1435.000000 0.5756 0.5799 0.5842 0.5885 0.5928
1430.000000 0.5969 0.5984 0.5980 0.5980 0.5879
1425.000000 0.5709 0.5540 0.5370 0.5200 0.5135
1420.000000 0.5164 0.5216 0.5368 0.5521 0.5673
1415.000000 0.5825 0.5977 0.6130 0.6282 0.6359
1410.000000 0.6408 0.6454 0.6491 0.6518 0.6533
1405.000000 0.6540 0.6551 0.6532 0.6515 0.6472
1400.000000 0.6353 0.5624 0.4793 0.4714 0.4651
1395.000000 0.4574 0.4442 0.4304 0.4137 0.4068
1390.000000 0.4049 0.4040 0.4030 0.3995 0.3882
1385.000000 0.3770 0.3658 0.3546 0.3489 0.3493
1380.000000 0.3506 0.3537 0.3645 0.4270 0.4707
1375.000000 0.4949 0.4959 0.4967 0.4988 0.4974
1370.000000 0.4970 0.4954 0.4910 0.4842 0.4781
1365.000000 0.4684 0.4569 0.4485 0.4417 0.4380
1360.000000 0.4357 0.4349 0.4341 0.4335 0.4335
1355.000000 0.4336 0.4337 0.4342 0.4350 0.4357
1350.000000 0.4381 0.4406 0.4446 0.4496 0.4547
1345.000000 0.4600 0.4646 0.4690 0.4733 0.4773
1340.000000 0.4812 0.4851 0.4893 0.4922 0.4928
1335.000000 0.4942 0.4958 0.4976 0.5037 0.5121
1330.000000 0.5179 0.5219 0.5244 0.5262 0.5279
1325.000000 0.5268 0.5251 0.5202 0.5136 0.5073
1320.000000 0.5037 0.5000 0.4967 0.4937 0.4907
1315.000000 0.4878 0.4849 0.4820 0.4791 0.4764
1310.000000 0.4743 0.4721 0.4700 0.4678 0.4655
1305.000000 0.4630 0.4604 0.4570 0.4530 0.4496
1300.000000 0.4465 0.4455 0.4447 0.4438 0.4434
1295.000000 0.4431 0.4427 0.4422 0.4414 0.4406
1290.000000 0.4395 0.4371 0.4320 0.4265 0.4209
1285.000000 0.4160 0.4115 0.4068 0.4030 0.4000
1280.000000 0.3972 0.3926 0.3877 0.3847 0.3830
1275.000000 0.3812 0.3798 0.3782 0.3768 0.3720
1270.000000 0.3662 0.3606 0.3550 0.3493 0.3437
1265.000000 0.3380 0.3324 0.3266 0.3209 0.3154
1260.000000 0.3097 0.3041 0.2984 0.2927 0.2871
1255.000000 0.2814 0.2758 0.2701 0.2645 0.2588
1250.000000 0.2538 0.2512 0.2485 0.2461 0.2435
1245.000000 0.2410 0.2395 0.2380 0.2371 0.2351
1240.000000 0.2365 0.2368 0.2372 0.2380 0.2394
1235.000000 0.2407 0.2430 0.2454 0.2479 0.2511
1230.000000 0.2544 0.2577 0.2612 0.2648 0.2684
1225.000000 0.2726 0.2776 0.2804 0.2829 0.2851
1220.000000 0.2872 0.2893 0.2905 0.2915 0.2925
1215.000000 0.2925 0.2925 0.2918 0.2905 0.2892
1210.000000 0.2876 0.2855 0.2834 0.2814 0.2785
1205.000000 0.2758 0.2730 0.2696 0.2641 0.2573
1200.000000 0.2411 0.2318 0.2242 0.2177 0.2128
1195.000000 0.2078 0.2021 0.1960 0.1881 0.1801
1190.000000 0.1716 0.1631 0.1533 0.1435 0.1362
1185.000000 0.1309 0.1257 0.1206 0.1159 0.1112
1180.000000 0.1075 0.1039 0.1004 0.0974 0.0946
1175.000000 0.0919 0.0896 0.0883 0.0870 0.0861
1170.000000 0.0861 0.0861 0.0863 0.0870 0.0905
1165.000000 0.0956 0.1010 0.1068 0.1148 0.1227
1160.000000 0.1305 0.1391 0.1494 0.1596 0.1698
1155.000000 0.1799 0.1951 0.2091 0.2187 0.2284
1150.000000 0.2374 0.2460 0.2547 0.2654 0.2767
1145.000000 0.2854 0.2933 0.3013 0.3097 0.3174
1140.000000 0.3232 0.3299 0.3338 0.3346 0.3352
1135.000000 0.3358 0.3362 0.3376 0.3392 0.3407
1130.000000 0.3424 0.3442 0.3498 0.3584 0.3668
1125.000000 0.3770 0.3930 0.4038 0.4118 0.4217
1120.000000 0.4342 0.4500 0.4657 0.4815 0.4973
1115.000000 0.5131 0.5289 0.5447 0.5605 0.5706
1110.000000 0.5755 0.5781 0.5789 0.5796 0.5807
1105.000000 0.5803 0.5803 0.5794 0.5769 0.5660
1100.000000 0.5547 0.5428 0.5120 0.4818 0.4712
1095.000000 0.4647 0.4617 0.4596 0.4582 0.4559
1090.000000 0.4565 0.4568 0.4580 0.4602 0.4631
1085.000000 0.4675 0.4723 0.4771 0.4827 0.4886
1080.000000 0.4956 0.5060 0.5157 0.5244 0.5331
1075.000000 0.5410 0.5491 0.5585 0.5693 0.5787
1070.000000 0.5862 0.5940 0.6020 0.6100 0.6148
1065.000000 0.6185 0.6222 0.6245 0.6266 0.6287
1060.000000 0.6307 0.6325 0.6343 0.6360 0.6377
1055.000000 0.6394 0.6410 0.6426 0.6444 0.6460
1050.000000 0.6475 0.6491 0.6501 0.6508 0.6515
1045.000000 0.6511 0.6511 0.6493 0.6474 0.6439
1040.000000 0.6388 0.6327 0.6251 0.6175 0.6049
1035.000000 0.5942 0.5864 0.5787 0.5712 0.5653
1030.000000 0.5600 0.5556 0.5535 0.5500 0.5514
1025.000000 0.5522 0.5533 0.5549 0.5565 0.5578
1020.000000 0.5590 0.5602 0.5612 0.5612 0.5610
1015.000000 0.5592 0.5542 0.5493 0.5468 0.5444
1010.000000 0.5422 0.5384 0.5394 0.5397 0.5405
1005.000000 0.5422 0.5468 0.5515 0.5560 0.5609
1000.000000 0.5658 0.5700 0.5732 0.5764 0.5796
995.000000 0.5825 0.5853 0.5880 0.5908 0.5941
990.000000 0.5975 0.6009 0.6052 0.6099 0.6135
985.000000 0.6171 0.6202 0.6217 0.6230 0.6233
980.000000 0.6236 0.6240 0.6244 0.6262 0.6319
975.000000 0.6352 0.6376 0.6400 0.6418 0.6433
970.000000 0.6441 0.6445 0.6449 0.6451 0.6454
965.000000 0.6432 0.6408 0.6392 0.6375 0.6368
960.000000 0.6370 0.6373 0.6382 0.6398 0.6441
955.000000 0.6483 0.6525 0.6565 0.6606 0.6646
950.000000 0.6691 0.6739 0.6787 0.6828 0.6864
945.000000 0.6899 0.6934 0.6967 0.6998 0.7028
940.000000 0.7058 0.7082 0.7100 0.7111 0.7121
935.000000 0.7132 0.7143 0.7153 0.7161 0.7171
930.000000 0.7180 0.7190 0.7199 0.7208 0.7217
925.000000 0.7226 0.7237 0.7247 0.7256 0.7265
920.000000 0.7275 0.7285 0.7294 0.7304 0.7311
915.000000 0.7315 0.7319 0.7321 0.7322 0.7324
910.000000 0.7325 0.7325 0.7325 0.7325 0.7326
905.000000 0.7328 0.7328 0.7350 0.7371 0.7401
900.000000 0.7434 0.7467 0.7499 0.7530 0.7558
895.000000 0.7575 0.7592 0.7605 0.7618 0.7630
890.000000 0.7640 0.7667 0.7705 0.7743 0.7780
885.000000 0.7818 0.7861 0.7911 0.7951 0.7985
880.000000 0.7998 0.8008 0.8008 0.8007 0.8004
875.000000 0.8003 0.8003 0.8004 0.8004 0.8004
870.000000 0.8005 0.8007 0.8010 0.8012 0.8015
865.000000 0.8021 0.8026 0.8034 0.8040 0.8048
860.000000 0.8062 0.8078 0.8093 0.8108 0.8133
855.000000 0.8158 0.8184 0.8214 0.8246 0.8277
850.000000 0.8306 0.8335 0.8361 0.8378 0.8398
845.000000 0.8410 0.8421 0.8454 0.8424 0.8420
840.000000 0.8416 0.8408 0.8399 0.8390 0.8371
835.000000 0.8345 0.8321 0.8302 0.8282 0.8262
830.000000 0.8240 0.8218 0.8198 0.8178 0.8158
825.000000 0.8140 0.8140 0.8141 0.8147 0.8151
820.000000 0.8157 0.8161 0.8167 0.8172 0.8178
815.000000 0.8183 0.8188 0.8193 0.8199 0.8204
810.000000 0.8209 0.8214 0.8218 0.8221 0.8225
805.000000 0.8228 0.8232 0.8232 0.8232 0.8227
800.000000 0.8221 0.8210 0.8198 0.8185 0.8164
795.000000 0.8133 0.8101 0.8068 0.7998 0.7926
790.000000 0.7883 0.7839 0.7797 0.7765 0.7736
785.000000 0.7708 0.7681 0.7655 0.7628 0.7600
780.000000 0.7561 0.7522 0.7486 0.7450 0.7417
775.000000 0.7388 0.7361 0.7342 0.7321 0.7297
770.000000 0.7307 0.7315 0.7330 0.7368 0.7435
765.000000 0.7505 0.7584 0.7668 0.7755 0.7847
760.000000 0.7915 0.7975 0.8025 0.8071 0.8107
755.000000 0.8139 0.8165 0.8189 0.8191 0.8191
750.000000 0.8192 0.8180 0.8168 0.8148 0.8125
745.000000 0.8101 0.8065 0.8028 0.7993 0.7953
740.000000 0.7910 0.7867 0.7822 0.7778 0.7734
735.000000 0.7656 0.7568 0.7461 0.7332 0.7178
730.000000 0.7015 0.6853 0.6750 0.6719 0.6717
725.000000 0.6721 0.6775 0.6865 0.7010 0.7446
720.000000 0.7643 0.7746 0.7826 0.7890 0.7950
715.000000 0.8004 0.8058 0.8119 0.8155 0.8187
710.000000 0.8218 0.8251 0.8278 0.8306 0.8333
705.000000 0.8360 0.8380 0.8398 0.8416 0.8434
700.000000 0.8451 0.8470 0.8488 0.8507 0.8525
695.000000 0.8543 0.8560 0.8575 0.8589 0.8598
690.000000 0.8596 0.8596 0.8596 0.8599 0.8607
685.000000 0.8620 0.8634 0.8647 0.8659 0.8671
680.000000 0.8671 0.8664 0.8657 0.8649 0.8640
675.000000 0.8632 0.8625 0.8628 0.8630 0.8632
670.000000 0.8635 0.8640 0.8645 0.8650 0.8655
665.000000 0.8655 0.8656 0.8656 0.8656 0.8655
660.000000 0.8654 0.8650 0.8645 0.8634 0.8610
655.000000 0.8586 0.8565 0.8545 0.8525 0.8505
650.000000 0.8495 0.8484 0.8474 0.8464 0.8454
645.000000 0.8443 0.8434 0.8428 0.8423 0.8417
640.000000 0.8412 0.8407 0.8401 0.8396 0.8390
635.000000 0.8385 0.8380 0.8375 0.8371 0.8367
630.000000 0.8362 0.8358 0.8353 0.8349 0.8344
625.000000 0.8337 0.8328 0.8321 0.8313 0.8305
620.000000 0.8297 0.8289 0.8281 0.8274 0.8265
615.000000 0.8254 0.8244 0.8234 0.8223 0.8213
610.000000 0.8203 0.8193 0.8183 0.8172 0.8162
605.000000 0.8154 0.8151 0.8148 0.8145 0.8142
600.000000 0.8139 0.8136 0.8134 0.8131 0.8128
595.000000 0.8128 0.8125 0.8125 0.8122 0.8121
590.000000 0.8119 0.8118 0.8117 0.8115 0.8114
585.000000 0.8112 0.8112 0.8111 0.8112 0.8115
580.000000 0.8118 0.8119 0.8121 0.8124 0.8126
575.000000 0.8131 0.8135 0.8139 0.8142 0.8146
570.000000 0.8150 0.8154 0.8158 0.8161 0.8165
565.000000 0.8168 0.8172 0.8176 0.8180 0.8184
560.000000 0.8189 0.8194 0.8200 0.8205 0.8210
555.000000 0.8215 0.8221 0.8225 0.8231 0.8236
550.000000 0.8241 0.8246 0.8251 0.8251 0.8251
545.000000 0.8251 0.8251 0.8250 0.8250 0.8250
540.000000 0.8250 0.8251 0.8251 0.8252 0.8252
535.000000 0.8247 0.8240 0.8233 0.8225 0.8218
530.000000 0.8205 0.8192 0.8171 0.8153 0.8143
525.000000 0.8139 0.8140 0.8141 0.8142 0.8144
520.000000 0.8145 0.8146 0.8146 0.8146 0.8145
515.000000 0.8145 0.8144 0.8143 0.8142 0.8142
510.000000 0.8142 0.8141 0.8141 0.8141 0.8141
505.000000 0.8141 0.8140 0.8140 0.8136 0.8131
500.000000 0.8125 0.8119 0.8107 0.8098 0.8086
495.000000 0.8074 0.8061 0.8046 0.8032 0.8018
490.000000 0.8005 0.7997 0.7992 0.7987 0.7982
485.000000 0.7978 0.7978 0.7978 0.7978 0.7978
480.000000 0.7978 0.7978 0.7978 0.7978 0.7984
475.000000 0.7989 0.7995 0.8000 0.8006 0.8011
470.000000 0.8017 0.8021 0.8028 0.8032 0.8036
465.000000 0.8040 0.8045 0.8049 0.8053 0.8057
460.000000 0.8061 0.8062 0.8065 0.8067 0.8068
455.000000 0.8069 0.8071 0.8072 0.8072 0.8072
450.000000 0.8074 0.8074 0.8074 0.8074 0.8074
445.000000 0.8071 0.8068 0.8067 0.8065 0.8061
440.000000 0.8056 0.8050 0.8045 0.8044 0.8044
435.000000 0.8046 0.8049 0.8051 0.8055 0.8058
430.000000 0.8061 0.8065 0.8067 0.8069 0.8072
425.000000 0.8075 0.8078 0.8081 0.8083 0.8086
420.000000 0.8086 0.8085 0.8085 0.8085 0.8085
415.000000 0.8084 0.8084 0.8084 0.8084 0.8083
410.000000 0.8083 0.8083 0.8083 0.8082 0.8082
405.000000 0.8082 0.8082 0.8083 0.8084 0.8084
400.000000 0.8083 0.8081 0.8080 0.8078 0.8076
395.000000 0.8082 0.8088
##END=
