##TITLE=BENZENE, (2-BROMOETHENYL)- (E)
##JCAMP-DX=4.24
##DATA TYPE=INFRARED SPECTRUM
##CLASS=COBLENTZ III
##ORIGIN=DOW CHEMICAL COMPANY
##OWNER=COBLENTZ SOCIETY
Collection (C) 2018 copyright by the U.S. Secretary of Commerce
on behalf of the United States of America. All rights reserved.
##DATE=1962/01/04
##NAMES=[(E)-2-bromoethenyl]benzene
Beta-BROMOSTYRENE
##CAS REGISTRY NO=103-64-0
##MOLFORM=C8 H7 Br
##SOURCE REFERENCE=COBLENTZ NO. 10073
##$NIST SOURCE=COBLENTZ
##$NIST IMAGE=cob10073
##SPECTROMETER/DATA SYSTEM=DOW KBr FOREPRISM-GRATING
##INSTRUMENT PARAMETERS=BLAZED AT 3.5, 12.0, 20.0 MICRON, CHANGED AT 5.0, 7.5, 14.9 MICRON
##STATE=SOLUTION (10% IN CCl4 FOR 3800-1333 AND 10% IN CS2 FOR 1333-450 CM^-^1)
##PATH LENGTH=0.011, 0.011 CM
$$SPECTRAL CONTAMINATION DUE TO CCl4 AROUND 1550, AND CS2 AROUND 855 CM^-^1
##SAMPLING PROCEDURE=TRANSMISSION
##RESOLUTION=4
##DATA PROCESSING=DIGITIZED BY NIST FROM HARD COPY (FROM TWO SEGMENTS)
##XUNITS=1/CM
##YUNITS=TRANSMITTANCE
##XFACTOR=1.000000
##YFACTOR=1
##DELTAX=0.870513
##FIRSTX=446.137
##LASTX=3794.13
##FIRSTY=0.986
##MAXX=3794.13
##MINX=446.137
##MAXY=1.023
##MINY=0.0120009
##NPOINTS=3847
##XYDATA=(X++(Y..Y))
446.137000 0.9860 0.9860 0.9850 0.9830 0.9830
450.489563 0.9830 0.9820 0.9800 0.9800 0.9800
454.842126 0.9800 0.9790 0.9790 0.9790 0.9790
459.194689 0.9790 0.9790 0.9790 0.9790 0.9790
463.547252 0.9790 0.9790 0.9790 0.9780 0.9780
467.899815 0.9780 0.9780 0.9780 0.9780 0.9780
472.252378 0.9780 0.9780 0.9760 0.9760 0.9760
476.604941 0.9750 0.9740 0.9700 0.9680 0.9640
480.957504 0.9600 0.9560 0.9520 0.9450 0.9340
485.310067 0.9260 0.9140 0.9030 0.8851 0.8701
489.662630 0.8560 0.8070 0.6792 0.5982 0.5880
494.015193 0.5880 0.6069 0.6588 0.7297 0.8086
498.367756 0.8880 0.9100 0.9290 0.9649 0.9750
502.720319 0.9790 0.9820 0.9820 0.9820 0.9830
507.072882 0.9830 0.9830 0.9830 0.9830 0.9830
511.425445 0.9850 0.9850 0.9850 0.9860 0.9900
515.778008 0.9970 1.0050 1.0060 1.0090 1.0100
520.130571 1.0120 1.0130 1.0140 1.0160 1.0160
524.483134 1.0160 1.0160 1.0170 1.0170 1.0190
528.835697 1.0190 1.0190 1.0200 1.0200 1.0200
533.188260 1.0210 1.0210 1.0210 1.0210 1.0210
537.540823 1.0210 1.0210 1.0210 1.0210 1.0210
541.893386 1.0210 1.0210 1.0210 1.0210 1.0200
546.245949 1.0200 1.0200 1.0190 1.0170 1.0120
550.598512 1.0090 1.0080 1.0040 1.0010 1.0010
554.951075 1.0000 0.9970 0.9900 0.9870 0.9800
559.303638 0.9740 0.9490 0.9151 0.8701 0.8351
563.656201 0.5559 0.5271 0.4483 0.2281 0.2270
568.008764 0.3430 0.6028 0.7278 0.8238 0.9108
572.361327 0.9309 0.9440 0.9520 0.9629 0.9749
576.713890 0.9860 0.9950 1.0010 1.0090 1.0100
581.066454 1.0120 1.0130 1.0160 1.0170 1.0200
585.419017 1.0200 1.0210 1.0230 1.0200 1.0200
589.771580 1.0190 1.0190 1.0200 1.0200 1.0200
594.124143 1.0200 1.0200 1.0200 1.0210 1.0210
598.476706 1.0210 1.0210 1.0210 1.0200 1.0200
602.829269 1.0200 1.0190 1.0140 1.0130 1.0120
607.181832 1.0090 1.0080 1.0060 1.0040 1.0010
611.534395 1.0000 0.9970 0.9950 0.9860 0.9850
615.886958 0.9870 0.9970 0.9980 0.9980 0.9970
620.239521 0.9950 0.9950 0.9940 0.9930 0.9910
624.592084 0.9890 0.9860 0.9830 0.9780 0.9680
628.944647 0.9630 0.9630 0.9680 0.9780 0.9790
633.297210 0.9790 0.9780 0.9760 0.9750 0.9750
637.649773 0.9740 0.9710 0.9710 0.9650 0.9600
642.002336 0.9570 0.9550 0.9530 0.9520 0.9480
646.354899 0.9440 0.9410 0.9380 0.9340 0.9310
650.707462 0.9290 0.9270 0.9260 0.9260 0.9270
655.060025 0.9270 0.9290 0.9290 0.9290 0.9290
659.412588 0.9270 0.9260 0.9230 0.9200 0.9180
663.765151 0.9160 0.9120 0.9080 0.8930 0.8860
668.117714 0.8850 0.8850 0.8999 0.8771 0.8760
672.470277 0.8710 0.8630 0.8560 0.8460 0.8260
676.822840 0.8100 0.7940 0.7721 0.7421 0.6982
681.175403 0.6360 0.6220 0.5191 0.4411 0.3052
685.527966 0.1903 0.1880 0.1143 0.1140 0.2454
689.880529 0.2940 0.3510 0.4679 0.5080 0.5230
694.233092 0.5350 0.5490 0.5799 0.6179 0.6658
698.585655 0.6960 0.7200 0.7580 0.7760 0.7910
702.938218 0.7940 0.8010 0.8050 0.8060 0.8060
707.290781 0.8050 0.8020 0.7990 0.7940 0.7860
711.643344 0.7750 0.7581 0.7470 0.7261 0.7081
715.995907 0.6880 0.6580 0.6250 0.5941 0.5272
720.348470 0.4153 0.3921 0.3462 0.2544 0.1834
724.701033 0.1300 0.0770 0.0460 0.0340 0.0280
729.053596 0.0270 0.0280 0.0419 0.0500 0.0639
733.406159 0.1280 0.1630 0.1970 0.2379 0.2829
737.758722 0.3139 0.3309 0.3589 0.3610 0.3590
742.111285 0.3590 0.3480 0.3400 0.3390 0.3400
746.463848 0.3440 0.3500 0.3580 0.3968 0.4438
750.816411 0.5290 0.5940 0.6450 0.6850 0.7199
755.168974 0.7539 0.7799 0.7920 0.8109 0.8210
759.521537 0.8360 0.8400 0.8400 0.8390 0.8360
763.874100 0.8310 0.8130 0.7871 0.7840 0.7870
768.226663 0.8060 0.8290 0.8500 0.8700 0.8860
772.579226 0.8910 0.8960 0.9030 0.9100 0.9110
776.931789 0.9120 0.9120 0.9120 0.9120 0.9110
781.284352 0.9050 0.9030 0.9000 0.8950 0.8920
785.636915 0.8920 0.8920 0.8930 0.8930 0.8970
789.989478 0.8990 0.9000 0.9030 0.9030 0.9050
794.342041 0.9100 0.9110 0.9150 0.9200 0.9230
798.694604 0.9290 0.9310 0.9340 0.9370 0.9380
803.047167 0.9400 0.9400 0.9410 0.9440 0.9440
807.399730 0.9450 0.9450 0.9460 0.9460 0.9460
811.752293 0.9460 0.9460 0.9460 0.9460 0.9460
816.104856 0.9450 0.9440 0.9420 0.9410 0.9380
820.457419 0.9350 0.9290 0.9250 0.9200 0.9160
824.809982 0.9110 0.9030 0.8970 0.8930 0.8920
829.162545 0.8910 0.8890 0.8800 0.8700 0.8650
833.515108 0.8440 0.8350 0.8350 0.8400 0.8500
837.867671 0.8560 0.8590 0.8590 0.8580 0.8560
842.220234 0.8520 0.8480 0.8400 0.8320 0.8290
846.572798 0.8200 0.8130 0.8070 0.7980 0.7920
850.925361 0.7870 0.7830 0.7820 0.7820 0.7820
855.277924 0.7830 0.7840 0.7870 0.7870 0.7880
859.630487 0.7900 0.7940 0.7950 0.8010 0.8050
863.983050 0.8100 0.8140 0.8180 0.8240 0.8290
868.335613 0.8310 0.8320 0.8350 0.8400 0.8440
872.688176 0.8470 0.8480 0.8480 0.8500 0.8500
877.040739 0.8480 0.8440 0.8410 0.8390 0.8320
881.393302 0.8310 0.8320 0.8390 0.8500 0.8630
885.745865 0.8760 0.8820 0.8910 0.8950 0.9030
890.098428 0.9100 0.9110 0.9140 0.9140 0.9150
894.450991 0.9150 0.9150 0.9140 0.9140 0.9120
898.803554 0.9120 0.9080 0.9000 0.8930 0.8860
903.156117 0.8800 0.8780 0.8800 0.8840 0.8880
907.508680 0.8890 0.8910 0.8910 0.8910 0.8910
911.861243 0.8890 0.8890 0.8850 0.8840 0.8810
916.213806 0.8770 0.8740 0.8690 0.8650 0.8540
920.566369 0.8430 0.8290 0.8250 0.8110 0.7971
924.918932 0.7840 0.7530 0.7220 0.6810 0.6341
929.271495 0.5322 0.4751 0.2835 0.2232 0.1324
933.624058 0.0839 0.0350 0.0140 0.0120 0.0130
937.976621 0.0290 0.1188 0.1978 0.2757 0.4224
942.329184 0.4930 0.5610 0.6489 0.6979 0.7429
946.681747 0.7610 0.7799 0.7939 0.8109 0.8289
951.034310 0.8430 0.8520 0.8560 0.8610 0.8690
955.386873 0.8710 0.8730 0.8760 0.8770 0.8800
959.739436 0.8810 0.8880 0.8950 0.8990 0.9040
964.091999 0.9070 0.9100 0.9100 0.9120 0.9150
968.444562 0.9150 0.9150 0.9150 0.9140 0.9120
972.797125 0.9110 0.9110 0.9080 0.9000 0.8781
977.149688 0.8760 0.8780 0.8860 0.9070 0.9150
981.502251 0.9290 0.9310 0.9340 0.9370 0.9380
985.854814 0.9400 0.9400 0.9400 0.9400 0.9400
990.207377 0.9400 0.9400 0.9380 0.9370 0.9340
994.559940 0.9310 0.9230 0.9160 0.9070 0.9010
998.912503 0.9010 0.9040 0.9259 0.9400 0.9420
1003.265066 0.9440 0.9450 0.9450 0.9460 0.9480
1007.617629 0.9480 0.9490 0.9490 0.9490 0.9490
1011.970192 0.9490 0.9490 0.9490 0.9480 0.9460
1016.322755 0.9450 0.9440 0.9410 0.9400 0.9340
1020.675318 0.9300 0.9250 0.9200 0.9120 0.9050
1025.027881 0.8920 0.8780 0.8631 0.8212 0.7752
1029.380444 0.7750 0.8430 0.9309 0.9460 0.9480
1033.733007 0.9530 0.9530 0.9550 0.9570 0.9570
1038.085570 0.9590 0.9590 0.9590 0.9570 0.9570
1042.438133 0.9560 0.9560 0.9560 0.9560 0.9550
1046.790696 0.9530 0.9520 0.9520 0.9490 0.9450
1051.143259 0.9410 0.9350 0.9330 0.9310 0.9300
1055.495822 0.9300 0.9300 0.9300 0.9300 0.9300
1059.848385 0.9260 0.9220 0.9110 0.9100 0.9000
1064.200948 0.8910 0.8760 0.8560 0.8360 0.8170
1068.553511 0.8020 0.7990 0.7990 0.8309 0.8858
1072.906074 0.9040 0.9120 0.9250 0.9340 0.9400
1077.258637 0.9410 0.9440 0.9450 0.9490 0.9530
1081.611200 0.9560 0.9570 0.9600 0.9600 0.9600
1085.963763 0.9600 0.9600 0.9600 0.9600 0.9600
1090.316326 0.9600 0.9570 0.9550 0.9530 0.9530
1094.668889 0.9520 0.9530 0.9550 0.9560 0.9570
1099.021452 0.9630 0.9640 0.9700 0.9720 0.9750
1103.374015 0.9750 0.9760 0.9780 0.9790 0.9800
1107.726579 0.9820 0.9860 0.9870 0.9890 0.9900
1112.079142 0.9910 0.9910 0.9930 0.9940 0.9940
1116.431705 0.9950 0.9970 0.9970 1.0010 1.0010
1120.784268 1.0010 1.0010 1.0010 1.0010 1.0000
1125.136831 0.9980 0.9940 0.9900 0.9890 0.9860
1129.489394 0.9860 0.9830 0.9820 0.9820 0.9800
1133.841957 0.9790 0.9780 0.9760 0.9750 0.9750
1138.194520 0.9720 0.9710 0.9680 0.9650 0.9650
1142.547083 0.9650 0.9640 0.9630 0.9600 0.9590
1146.899646 0.9550 0.9520 0.9500 0.9480 0.9420
1151.252209 0.9400 0.9370 0.9340 0.9310 0.9300
1155.604772 0.9300 0.9300 0.9300 0.9300 0.9290
1159.957335 0.9290 0.9270 0.9260 0.9260 0.9250
1164.309898 0.9230 0.9190 0.9140 0.9110 0.9050
1168.662461 0.8970 0.8770 0.8430 0.8170 0.8100
1173.015024 0.8210 0.8290 0.8290 0.8260 0.8220
1177.367587 0.8140 0.8020 0.7940 0.7710 0.7670
1181.720150 0.7690 0.7840 0.8019 0.8179 0.8290
1186.072713 0.8310 0.8310 0.8320 0.8320 0.8320
1190.425276 0.8350 0.8430 0.8480 0.8520 0.8590
1194.777839 0.8700 0.8740 0.8810 0.8890 0.8930
1199.130402 0.8990 0.9000 0.9000 0.8990 0.8970
1203.482965 0.8950 0.8910 0.8880 0.8770 0.8700
1207.835528 0.8650 0.8580 0.8520 0.8311 0.8101
1212.188091 0.7820 0.7530 0.7260 0.6740 0.6001
1216.540654 0.5531 0.4762 0.4411 0.4340 0.4410
1220.893217 0.4781 0.5350 0.5740 0.6290 0.6979
1225.245780 0.7449 0.7839 0.8169 0.8439 0.8709
1229.598343 0.8800 0.9000 0.9100 0.9110 0.9110
1233.950906 0.9140 0.9150 0.9160 0.9190 0.9230
1238.303469 0.9300 0.9340 0.9420 0.9460 0.9550
1242.656032 0.9560 0.9560 0.9570 0.9570 0.9570
1247.008595 0.9570 0.9570 0.9570 0.9560 0.9550
1251.361158 0.9550 0.9550 0.9550 0.9550 0.9530
1255.713721 0.9530 0.9520 0.9490 0.9480 0.9480
1260.066284 0.9460 0.9460 0.9450 0.9450 0.9440
1264.418847 0.9440 0.9440 0.9420 0.9400 0.9370
1268.771410 0.9340 0.9340 0.9260 0.9220 0.9120
1273.123973 0.9080 0.8930 0.8840 0.8690 0.8470
1277.476536 0.8220 0.8130 0.8130 0.8260 0.8509
1281.829099 0.8850 0.8920 0.9010 0.9040 0.9080
1286.181662 0.9100 0.9140 0.9150 0.9160 0.9160
1290.534225 0.9160 0.9160 0.9160 0.9160 0.9160
1294.886788 0.9160 0.9160 0.9160 0.9180 0.9200
1299.239351 0.9250 0.9260 0.9300 0.9310 0.9310
1303.591914 0.9310 0.9310 0.9300 0.9300 0.9300
1307.944477 0.9270 0.9250 0.9250 0.9190 0.9160
1312.297040 0.9140 0.9140 0.9120 0.9120 0.9110
1316.649603 0.9100 0.9100 0.9050 0.9050 0.8970
1321.002166 0.8910 0.8840 0.8840 0.8850 0.8880
1325.354729 0.8920 0.9000 0.9040 0.9110 0.9140
1329.707292 0.9160 0.9220 0.9230 0.9250 0.9300
1334.059855 0.9340 0.9380 0.9400 0.9420 0.9450
1338.412418 0.9460 0.9480 0.9480 0.9530 0.9560
1342.764981 0.9570 0.9590 0.9600 0.9610 0.9630
1347.117544 0.9640 0.9670 0.9670 0.9680 0.9700
1351.470107 0.9740 0.9750 0.9750 0.9750 0.9760
1355.822670 0.9760 0.9790 0.9800 0.9820 0.9850
1360.175233 0.9870 0.9890 0.9890 0.9890 0.9870
1364.527796 0.9850 0.9830 0.9830 0.9800 0.9800
1368.880359 0.9800 0.9790 0.9790 0.9790 0.9780
1373.232923 0.9780 0.9750 0.9750 0.9710 0.9670
1377.585486 0.9630 0.9610 0.9610 0.9610 0.9630
1381.938049 0.9670 0.9670 0.9680 0.9700 0.9700
1386.290612 0.9680 0.9680 0.9670 0.9670 0.9670
1390.643175 0.9670 0.9670 0.9670 0.9670 0.9650
1394.995738 0.9650 0.9650 0.9650 0.9650 0.9650
1399.348301 0.9650 0.9650 0.9650 0.9650 0.9670
1403.700864 0.9670 0.9650 0.9650 0.9650 0.9650
1408.053427 0.9640 0.9640 0.9640 0.9640 0.9630
1412.405990 0.9610 0.9610 0.9600 0.9600 0.9590
1416.758553 0.9590 0.9590 0.9570 0.9560 0.9560
1421.111116 0.9560 0.9570 0.9590 0.9590 0.9570
1425.463679 0.9570 0.9550 0.9530 0.9520 0.9480
1429.816242 0.9460 0.9440 0.9410 0.9380 0.9350
1434.168805 0.9310 0.9140 0.9050 0.9010 0.8960
1438.521368 0.8880 0.8800 0.8590 0.8320 0.7720
1442.873931 0.7171 0.5643 0.3804 0.3800 0.6202
1447.226494 0.6771 0.7321 0.8060 0.8700 0.8960
1451.579057 0.9030 0.9080 0.9100 0.9160 0.9220
1455.931620 0.9230 0.9250 0.9250 0.9250 0.9230
1460.284183 0.9230 0.9200 0.9190 0.9180 0.9160
1464.636746 0.9150 0.9120 0.9100 0.9040 0.8960
1468.989309 0.8880 0.8810 0.8800 0.8800 0.8800
1473.341872 0.8810 0.8820 0.8910 0.8950 0.8960
1477.694435 0.8960 0.8950 0.8920 0.8910 0.8890
1482.046998 0.8810 0.8780 0.8740 0.8700 0.8560
1486.399561 0.8410 0.8290 0.8110 0.7951 0.7761
1490.752124 0.7410 0.7340 0.7200 0.6710 0.6171
1495.104687 0.5541 0.4891 0.4760 0.3713 0.3710
1499.457250 0.5502 0.7230 0.7730 0.7730 0.7730
1503.809813 0.7710 0.7680 0.7670 0.7640 0.7640
1508.162376 0.7620 0.7610 0.7600 0.7570 0.7560
1512.514939 0.7470 0.7420 0.7390 0.7300 0.7220
1516.867502 0.7170 0.7120 0.7080 0.7070 0.6920
1521.220065 0.6810 0.6750 0.6730 0.6670 0.6590
1525.572628 0.6520 0.6450 0.6430 0.6330 0.6300
1529.925191 0.6290 0.6180 0.6040 0.5980 0.5870
1534.277754 0.5770 0.5740 0.5730 0.5620 0.5490
1538.630317 0.5320 0.5250 0.5090 0.5050 0.5000
1542.982880 0.4980 0.4930 0.4890 0.4860 0.4850
1547.335443 0.4850 0.4850 0.4850 0.4860 0.4870
1551.688006 0.4900 0.4940 0.5000 0.5050 0.5090
1556.040569 0.5140 0.5360 0.5390 0.5440 0.5460
1560.393132 0.5460 0.5470 0.5470 0.5470 0.5490
1564.745695 0.5500 0.5500 0.5490 0.5460 0.5400
1569.098258 0.5350 0.5280 0.5230 0.5050 0.4820
1573.450821 0.4341 0.3931 0.3820 0.5345 0.5719
1577.803384 0.5990 0.6150 0.6250 0.6430 0.6440
1582.155947 0.6520 0.6580 0.6580 0.6600 0.6620
1586.508510 0.6660 0.6700 0.6750 0.6780 0.6830
1590.861073 0.6850 0.6860 0.6860 0.6860 0.6850
1595.213636 0.6830 0.6820 0.6790 0.6770 0.6710
1599.566199 0.6440 0.6150 0.5591 0.4872 0.4611
1603.918762 0.4460 0.4400 0.4149 0.3560 0.3310
1608.271325 0.3280 0.3560 0.3929 0.4558 0.5567
1612.623888 0.6521 0.6981 0.7311 0.8010 0.8370
1616.976451 0.8400 0.8480 0.8520 0.8560 0.8630
1621.329014 0.8740 0.8960 0.9010 0.9030 0.9050
1625.681577 0.9110 0.9160 0.9230 0.9260 0.9310
1630.034140 0.9330 0.9370 0.9420 0.9450 0.9530
1634.386703 0.9630 0.9640 0.9650 0.9670 0.9680
1638.739267 0.9710 0.9740 0.9780 0.9790 0.9830
1643.091830 0.9850 0.9830 0.9830 0.9830 0.9800
1647.444393 0.9790 0.9790 0.9790 0.9780 0.9760
1651.796956 0.9700 0.9700 0.9680 0.9670 0.9650
1656.149519 0.9630 0.9610 0.9590 0.9560 0.9560
1660.502082 0.9530 0.9460 0.9410 0.9370 0.9340
1664.854645 0.9310 0.9260 0.9220 0.9160 0.9110
1669.207208 0.9100 0.9080 0.9080 0.9080 0.9080
1673.559771 0.9100 0.9110 0.9140 0.9150 0.9160
1677.912334 0.9180 0.9250 0.9310 0.9340 0.9340
1682.264897 0.9330 0.9330 0.9310 0.9310 0.9260
1686.617460 0.9250 0.9230 0.9230 0.9220 0.9200
1690.970023 0.9180 0.9150 0.9120 0.9110 0.9100
1695.322586 0.9070 0.9040 0.9030 0.9030 0.9010
1699.675149 0.9010 0.9010 0.9030 0.9030 0.9040
1704.027712 0.9100 0.9110 0.9120 0.9160 0.9190
1708.380275 0.9230 0.9300 0.9330 0.9380 0.9410
1712.732838 0.9410 0.9420 0.9420 0.9420 0.9420
1717.085401 0.9420 0.9410 0.9400 0.9380 0.9370
1721.437964 0.9340 0.9330 0.9310 0.9270 0.9250
1725.790527 0.9190 0.9140 0.9110 0.9050 0.9030
1730.143090 0.9010 0.9010 0.9030 0.9030 0.9040
1734.495653 0.9040 0.9040 0.9040 0.9040 0.9050
1738.848216 0.9100 0.9100 0.9100 0.9110 0.9150
1743.200779 0.9160 0.9190 0.9200 0.9250 0.9310
1747.553342 0.9340 0.9370 0.9410 0.9450 0.9460
1751.905905 0.9460 0.9480 0.9480 0.9490 0.9520
1756.258468 0.9530 0.9550 0.9550 0.9550 0.9550
1760.611031 0.9570 0.9570 0.9570 0.9560 0.9560
1764.963594 0.9560 0.9560 0.9560 0.9560 0.9560
1769.316157 0.9550 0.9550 0.9530 0.9480 0.9480
1773.668720 0.9460 0.9440 0.9410 0.9370 0.9340
1778.021283 0.9340 0.9370 0.9380 0.9410 0.9440
1782.373846 0.9450 0.9460 0.9480 0.9490 0.9500
1786.726409 0.9500 0.9500 0.9500 0.9500 0.9490
1791.078972 0.9450 0.9410 0.9380 0.9350 0.9330
1795.431535 0.9310 0.9250 0.9160 0.9110 0.9100
1799.784098 0.9110 0.9120 0.9180 0.9220 0.9270
1804.136661 0.9310 0.9330 0.9350 0.9380 0.9400
1808.489224 0.9410 0.9410 0.9410 0.9410 0.9400
1812.841787 0.9400 0.9400 0.9400 0.9380 0.9380
1817.194350 0.9380 0.9380 0.9380 0.9400 0.9400
1821.546913 0.9420 0.9450 0.9450 0.9460 0.9530
1825.899476 0.9530 0.9530 0.9550 0.9550 0.9550
1830.252039 0.9550 0.9550 0.9550 0.9550 0.9550
1834.604602 0.9550 0.9530 0.9530 0.9530 0.9530
1838.957165 0.9530 0.9520 0.9520 0.9500 0.9490
1843.309728 0.9490 0.9490 0.9490 0.9480 0.9480
1847.662291 0.9480 0.9480 0.9480 0.9480 0.9490
1852.014854 0.9490 0.9490 0.9490 0.9480 0.9480
1856.367417 0.9460 0.9460 0.9450 0.9450 0.9440
1860.719980 0.9410 0.9400 0.9400 0.9380 0.9350
1865.072543 0.9330 0.9310 0.9260 0.9200 0.9140
1869.425106 0.9100 0.9070 0.9050 0.9050 0.9080
1873.777669 0.9100 0.9110 0.9150 0.9220 0.9270
1878.130232 0.9310 0.9340 0.9340 0.9350 0.9370
1882.482795 0.9370 0.9350 0.9330 0.9310 0.9270
1886.835358 0.9260 0.9260 0.9260 0.9260 0.9300
1891.187921 0.9310 0.9350 0.9380 0.9400 0.9410
1895.540484 0.9440 0.9460 0.9500 0.9530 0.9530
1899.893047 0.9530 0.9530 0.9560 0.9560 0.9560
1904.245611 0.9570 0.9570 0.9590 0.9600 0.9600
1908.598174 0.9600 0.9600 0.9600 0.9600 0.9590
1912.950737 0.9590 0.9570 0.9570 0.9560 0.9560
1917.303300 0.9560 0.9550 0.9530 0.9520 0.9520
1921.655863 0.9500 0.9500 0.9500 0.9500 0.9500
1926.008426 0.9500 0.9520 0.9520 0.9520 0.9530
1930.360989 0.9530 0.9530 0.9520 0.9490 0.9480
1934.713552 0.9460 0.9440 0.9400 0.9370 0.9330
1939.066115 0.9260 0.9250 0.9110 0.9030 0.8910
1943.418678 0.8850 0.8840 0.8850 0.8890 0.8990
1947.771241 0.9050 0.9140 0.9230 0.9330 0.9380
1952.123804 0.9410 0.9420 0.9420 0.9440 0.9440
1956.476367 0.9440 0.9440 0.9440 0.9570 0.9570
1960.828930 0.9340 0.9150 0.9120 0.9110 0.9120
1965.181493 0.9150 0.9190 0.9270 0.9340 0.9380
1969.534056 0.9410 0.9440 0.9460 0.9500 0.9530
1973.886619 0.9530 0.9550 0.9550 0.9560 0.9560
1978.239182 0.9560 0.9560 0.9550 0.9550 0.9550
1982.591745 0.9550 0.9560 0.9560 0.9560 0.9560
1986.944308 0.9560 0.9560 0.9560 0.9560 0.9560
1991.296871 0.9590 0.9680 0.9760 0.9850 0.9850
1995.649434 0.9850 0.9850 0.9850 0.9850 0.9850
2000.001997 0.9850 0.9850 0.9850 0.9850 0.9850
2004.354560 0.9850 0.9850 0.9850 0.9850 0.9850
2008.707123 0.9850 0.9850 0.9850 0.9850 0.9850
2013.059686 0.9860 0.9870 0.9870 0.9870 0.9880
2017.412249 0.9890 0.9890 0.9890 0.9890 0.9890
2021.764812 0.9890 0.9890 0.9895 0.9900 0.9900
2026.117375 0.9900 0.9900 0.9900 0.9900 0.9900
2030.469938 0.9885 0.9870 0.9870 0.9870 0.9870
2034.822501 0.9870 0.9870 0.9870 0.9870 0.9870
2039.175064 0.9870 0.9870 0.9870 0.9870 0.9870
2043.527627 0.9870 0.9870 0.9870 0.9870 0.9870
2047.880190 0.9870 0.9870 0.9870 0.9870 0.9870
2052.232753 0.9870 0.9870 0.9870 0.9870 0.9870
2056.585316 0.9870 0.9870 0.9870 0.9870 0.9870
2060.937879 0.9870 0.9870 0.9870 0.9870 0.9870
2065.290442 0.9870 0.9870 0.9870 0.9870 0.9870
2069.643005 0.9870 0.9870 0.9870 0.9870 0.9870
2073.995568 0.9870 0.9870 0.9870 0.9870 0.9870
2078.348131 0.9870 0.9870 0.9870 0.9870 0.9870
2082.700694 0.9870 0.9870 0.9870 0.9870 0.9870
2087.053257 0.9869 0.9864 0.9860 0.9860 0.9860
2091.405820 0.9860 0.9860 0.9860 0.9860 0.9860
2095.758383 0.9859 0.9854 0.9850 0.9850 0.9851
2100.110946 0.9856 0.9860 0.9860 0.9860 0.9860
2104.463509 0.9860 0.9860 0.9860 0.9860 0.9859
2108.816072 0.9854 0.9849 0.9839 0.9830 0.9830
2113.168635 0.9830 0.9830 0.9829 0.9824 0.9820
2117.521198 0.9820 0.9820 0.9820 0.9821 0.9826
2121.873761 0.9832 0.9842 0.9850 0.9850 0.9848
2126.226324 0.9838 0.9829 0.9824 0.9820 0.9820
2130.578887 0.9818 0.9808 0.9800 0.9800 0.9800
2134.931450 0.9800 0.9800 0.9800 0.9800 0.9800
2139.284013 0.9800 0.9800 0.9800 0.9800 0.9800
2143.636576 0.9800 0.9799 0.9794 0.9791 0.9796
2147.989139 0.9800 0.9800 0.9800 0.9800 0.9800
2152.341702 0.9800 0.9800 0.9800 0.9800 0.9800
2156.694265 0.9800 0.9800 0.9800 0.9800 0.9800
2161.046828 0.9800 0.9799 0.9794 0.9790 0.9790
2165.399392 0.9790 0.9790 0.9790 0.9790 0.9790
2169.751955 0.9790 0.9790 0.9790 0.9790 0.9790
2174.104518 0.9790 0.9790 0.9790 0.9790 0.9790
2178.457081 0.9790 0.9790 0.9790 0.9790 0.9790
2182.809644 0.9790 0.9790 0.9790 0.9790 0.9790
2187.162207 0.9790 0.9790 0.9790 0.9789 0.9784
2191.514770 0.9780 0.9780 0.9780 0.9780 0.9780
2195.867333 0.9780 0.9780 0.9780 0.9780 0.9780
2200.219896 0.9778 0.9768 0.9760 0.9760 0.9760
2204.572459 0.9760 0.9760 0.9760 0.9760 0.9760
2208.925022 0.9760 0.9760 0.9760 0.9760 0.9760
2213.277585 0.9760 0.9760 0.9760 0.9760 0.9760
2217.630148 0.9760 0.9760 0.9760 0.9760 0.9760
2221.982711 0.9760 0.9759 0.9754 0.9750 0.9750
2226.335274 0.9749 0.9744 0.9740 0.9740 0.9740
2230.687837 0.9740 0.9737 0.9727 0.9720 0.9720
2235.040400 0.9720 0.9720 0.9719 0.9714 0.9710
2239.392963 0.9710 0.9710 0.9710 0.9710 0.9710
2243.745526 0.9710 0.9710 0.9708 0.9703 0.9700
2248.098089 0.9700 0.9697 0.9687 0.9678 0.9673
2252.450652 0.9667 0.9657 0.9650 0.9650 0.9648
2256.803215 0.9643 0.9640 0.9640 0.9638 0.9633
2261.155778 0.9630 0.9630 0.9630 0.9630 0.9630
2265.508341 0.9630 0.9627 0.9617 0.9610 0.9610
2269.860904 0.9610 0.9610 0.9608 0.9603 0.9592
2274.213467 0.9567 0.9547 0.9537 0.9530 0.9530
2278.566030 0.9528 0.9523 0.9520 0.9520 0.9520
2282.918593 0.9520 0.9520 0.9520 0.9520 0.9520
2287.271156 0.9520 0.9520 0.9520 0.9520 0.9525
2291.623719 0.9540 0.9550 0.9550 0.9546 0.9536
2295.976282 0.9528 0.9523 0.9522 0.9527 0.9534
2300.328845 0.9544 0.9550 0.9550 0.9557 0.9577
2304.681408 0.9583 0.9563 0.9550 0.9550 0.9550
2309.033971 0.9550 0.9552 0.9557 0.9562 0.9567
2313.386534 0.9582 0.9612 0.9630 0.9630 0.9632
2317.739097 0.9637 0.9652 0.9682 0.9704 0.9714
2322.091660 0.9726 0.9741 0.9752 0.9757 0.9760
2326.444223 0.9760 0.9764 0.9774 0.9780 0.9780
2330.796786 0.9780 0.9780 0.9780 0.9780 0.9780
2335.149349 0.9780 0.9780 0.9780 0.9776 0.9766
2339.501912 0.9760 0.9760 0.9758 0.9753 0.9750
2343.854475 0.9750 0.9752 0.9757 0.9760 0.9760
2348.207038 0.9760 0.9760 0.9758 0.9753 0.9750
2352.559601 0.9750 0.9750 0.9750 0.9750 0.9750
2356.912164 0.9750 0.9750 0.9750 0.9750 0.9750
2361.264727 0.9750 0.9748 0.9743 0.9733 0.9718
2365.617290 0.9710 0.9710 0.9708 0.9703 0.9700
2369.969853 0.9700 0.9700 0.9700 0.9695 0.9685
2374.322416 0.9680 0.9680 0.9678 0.9673 0.9670
2378.674979 0.9670 0.9670 0.9670 0.9670 0.9670
2383.027542 0.9670 0.9670 0.9670 0.9670 0.9670
2387.380105 0.9670 0.9670 0.9670 0.9670 0.9670
2391.732668 0.9670 0.9670 0.9670 0.9670 0.9670
2396.085231 0.9670 0.9670 0.9670 0.9670 0.9670
2400.437794 0.9670 0.9670 0.9670 0.9670 0.9673
2404.790357 0.9678 0.9680 0.9680 0.9680 0.9680
2409.142920 0.9680 0.9680 0.9680 0.9680 0.9685
2413.495483 0.9695 0.9700 0.9700 0.9703 0.9708
2417.848046 0.9710 0.9710 0.9707 0.9702 0.9700
2422.200609 0.9700 0.9700 0.9700 0.9700 0.9700
2426.553172 0.9700 0.9700 0.9695 0.9685 0.9680
2430.905736 0.9680 0.9680 0.9680 0.9680 0.9680
2435.258299 0.9680 0.9680 0.9680 0.9680 0.9680
2439.610862 0.9680 0.9680 0.9680 0.9685 0.9695
2443.963425 0.9700 0.9700 0.9700 0.9700 0.9700
2448.315988 0.9700 0.9700 0.9700 0.9694 0.9684
2452.668551 0.9680 0.9680 0.9680 0.9680 0.9680
2457.021114 0.9680 0.9680 0.9680 0.9680 0.9680
2461.373677 0.9680 0.9680 0.9680 0.9680 0.9680
2465.726240 0.9680 0.9686 0.9696 0.9700 0.9700
2470.078803 0.9700 0.9700 0.9700 0.9700 0.9700
2474.431366 0.9700 0.9700 0.9700 0.9700 0.9700
2478.783929 0.9700 0.9700 0.9700 0.9700 0.9700
2483.136492 0.9700 0.9700 0.9700 0.9700 0.9700
2487.489055 0.9700 0.9700 0.9694 0.9684 0.9680
2491.841618 0.9680 0.9680 0.9680 0.9680 0.9680
2496.194181 0.9680 0.9680 0.9680 0.9680 0.9680
2500.546744 0.9680 0.9680 0.9680 0.9680 0.9680
2504.899307 0.9680 0.9680 0.9680 0.9680 0.9680
2509.251870 0.9680 0.9680 0.9680 0.9680 0.9680
2513.604433 0.9686 0.9696 0.9700 0.9700 0.9700
2517.956996 0.9700 0.9700 0.9700 0.9700 0.9700
2522.309559 0.9700 0.9700 0.9700 0.9700 0.9700
2526.662122 0.9700 0.9700 0.9700 0.9700 0.9700
2531.014685 0.9700 0.9700 0.9700 0.9700 0.9700
2535.367248 0.9700 0.9700 0.9700 0.9700 0.9700
2539.719811 0.9700 0.9700 0.9700 0.9700 0.9700
2544.072374 0.9700 0.9700 0.9700 0.9700 0.9700
2548.424937 0.9700 0.9700 0.9700 0.9700 0.9700
2552.777500 0.9700 0.9700 0.9700 0.9700 0.9700
2557.130063 0.9700 0.9700 0.9693 0.9683 0.9677
2561.482626 0.9671 0.9670 0.9670 0.9670 0.9670
2565.835189 0.9670 0.9670 0.9670 0.9670 0.9670
2570.187752 0.9670 0.9670 0.9670 0.9674 0.9679
2574.540315 0.9680 0.9680 0.9687 0.9697 0.9700
2578.892878 0.9700 0.9693 0.9683 0.9680 0.9680
2583.245441 0.9680 0.9680 0.9680 0.9680 0.9676
2587.598004 0.9671 0.9670 0.9670 0.9663 0.9653
2591.950567 0.9646 0.9641 0.9636 0.9631 0.9630
2596.303130 0.9630 0.9630 0.9630 0.9630 0.9630
2600.655693 0.9634 0.9639 0.9644 0.9649 0.9657
2605.008256 0.9667 0.9670 0.9670 0.9670 0.9670
2609.360819 0.9670 0.9670 0.9670 0.9670 0.9670
2613.713382 0.9670 0.9670 0.9670 0.9670 0.9670
2618.065945 0.9670 0.9670 0.9670 0.9670 0.9670
2622.418508 0.9670 0.9670 0.9670 0.9670 0.9670
2626.771071 0.9674 0.9679 0.9680 0.9680 0.9680
2631.123634 0.9680 0.9688 0.9698 0.9700 0.9700
2635.476197 0.9700 0.9700 0.9700 0.9700 0.9700
2639.828760 0.9700 0.9700 0.9700 0.9700 0.9700
2644.181323 0.9700 0.9700 0.9700 0.9700 0.9700
2648.533886 0.9700 0.9700 0.9700 0.9700 0.9700
2652.886449 0.9700 0.9700 0.9700 0.9700 0.9704
2657.239012 0.9709 0.9710 0.9710 0.9706 0.9701
2661.591575 0.9700 0.9700 0.9700 0.9700 0.9700
2665.944138 0.9700 0.9704 0.9709 0.9710 0.9710
2670.296701 0.9706 0.9701 0.9700 0.9700 0.9700
2674.649264 0.9700 0.9700 0.9700 0.9700 0.9700
2679.001827 0.9700 0.9700 0.9700 0.9700 0.9700
2683.354390 0.9700 0.9700 0.9700 0.9700 0.9700
2687.706953 0.9700 0.9700 0.9700 0.9700 0.9700
2692.059516 0.9700 0.9700 0.9700 0.9700 0.9700
2696.412080 0.9700 0.9700 0.9700 0.9700 0.9700
2700.764643 0.9700 0.9691 0.9681 0.9680 0.9680
2705.117206 0.9689 0.9699 0.9700 0.9700 0.9700
2709.469769 0.9700 0.9691 0.9681 0.9680 0.9680
2713.822332 0.9689 0.9699 0.9700 0.9700 0.9700
2718.174895 0.9700 0.9700 0.9700 0.9700 0.9700
2722.527458 0.9700 0.9700 0.9691 0.9681 0.9680
2726.880021 0.9680 0.9680 0.9680 0.9680 0.9680
2731.232584 0.9680 0.9680 0.9680 0.9680 0.9680
2735.585147 0.9680 0.9680 0.9680 0.9675 0.9670
2739.937710 0.9670 0.9670 0.9670 0.9670 0.9670
2744.290273 0.9670 0.9675 0.9680 0.9680 0.9680
2748.642836 0.9675 0.9670 0.9670 0.9670 0.9670
2752.995399 0.9670 0.9670 0.9670 0.9670 0.9670
2757.347962 0.9670 0.9670 0.9670 0.9670 0.9670
2761.700525 0.9670 0.9670 0.9670 0.9670 0.9670
2766.053088 0.9670 0.9670 0.9670 0.9670 0.9670
2770.405651 0.9670 0.9660 0.9650 0.9645 0.9640
2774.758214 0.9640 0.9640 0.9640 0.9640 0.9640
2779.110777 0.9640 0.9640 0.9640 0.9640 0.9640
2783.463340 0.9640 0.9640 0.9640 0.9640 0.9640
2787.815903 0.9640 0.9640 0.9640 0.9640 0.9640
2792.168466 0.9640 0.9640 0.9640 0.9640 0.9640
2796.521029 0.9640 0.9640 0.9640 0.9635 0.9630
2800.873592 0.9630 0.9630 0.9630 0.9630 0.9630
2805.226155 0.9630 0.9630 0.9630 0.9630 0.9630
2809.578718 0.9615 0.9600 0.9595 0.9590 0.9580
2813.931281 0.9570 0.9570 0.9570 0.9570 0.9570
2818.283844 0.9570 0.9570 0.9565 0.9560 0.9560
2822.636407 0.9560 0.9565 0.9570 0.9585 0.9600
2826.988970 0.9605 0.9610 0.9620 0.9630 0.9630
2831.341533 0.9630 0.9630 0.9630 0.9630 0.9630
2835.694096 0.9620 0.9610 0.9610 0.9610 0.9610
2840.046659 0.9609 0.9589 0.9570 0.9565 0.9560
2844.399222 0.9555 0.9550 0.9550 0.9550 0.9550
2848.751785 0.9550 0.9550 0.9550 0.9555 0.9561
2853.104348 0.9576 0.9590 0.9595 0.9600 0.9600
2857.456911 0.9601 0.9616 0.9630 0.9630 0.9629
2861.809474 0.9619 0.9610 0.9610 0.9610 0.9610
2866.162037 0.9610 0.9605 0.9600 0.9600 0.9599
2870.514600 0.9584 0.9570 0.9565 0.9560 0.9560
2874.867163 0.9560 0.9560 0.9560 0.9560 0.9560
2879.219726 0.9555 0.9550 0.9550 0.9549 0.9539
2883.572289 0.9530 0.9530 0.9530 0.9530 0.9530
2887.924852 0.9530 0.9530 0.9530 0.9530 0.9530
2892.277415 0.9530 0.9530 0.9530 0.9530 0.9530
2896.629978 0.9530 0.9530 0.9530 0.9530 0.9530
2900.982541 0.9530 0.9530 0.9528 0.9513 0.9499
2905.335104 0.9494 0.9489 0.9484 0.9478 0.9463
2909.687667 0.9450 0.9450 0.9449 0.9444 0.9440
2914.040230 0.9440 0.9440 0.9440 0.9441 0.9446
2918.392793 0.9451 0.9456 0.9461 0.9471 0.9481
2922.745356 0.9486 0.9491 0.9496 0.9500 0.9500
2927.097919 0.9500 0.9500 0.9499 0.9494 0.9490
2931.450482 0.9490 0.9489 0.9484 0.9480 0.9480
2935.803045 0.9480 0.9480 0.9483 0.9503 0.9524
2940.155608 0.9544 0.9561 0.9566 0.9570 0.9570
2944.508171 0.9570 0.9570 0.9570 0.9570 0.9572
2948.860734 0.9582 0.9590 0.9590 0.9588 0.9578
2953.213297 0.9569 0.9564 0.9560 0.9560 0.9560
2957.565860 0.9560 0.9560 0.9560 0.9559 0.9554
2961.918424 0.9550 0.9550 0.9550 0.9550 0.9550
2966.270987 0.9550 0.9550 0.9550 0.9550 0.9550
2970.623550 0.9548 0.9538 0.9530 0.9530 0.9530
2974.976113 0.9530 0.9530 0.9530 0.9526 0.9506
2979.328676 0.9489 0.9484 0.9478 0.9468 0.9460
2983.681239 0.9460 0.9458 0.9448 0.9438 0.9428
2988.033802 0.9419 0.9414 0.9409 0.9404 0.9394
2992.386365 0.9369 0.9349 0.9344 0.9329 0.9284
2996.738928 0.9248 0.9238 0.9229 0.9224 0.9213
3001.091491 0.9183 0.9155 0.9135 0.9114 0.9089
3005.444054 0.9065 0.9045 0.9026 0.9011 0.8975
3009.796617 0.8880 0.8795 0.8740 0.8670 0.8555
3014.149180 0.8451 0.8381 0.8303 0.8203 0.8106
3018.501743 0.8016 0.7865 0.7545 0.7243 0.6993
3022.854306 0.6767 0.6607 0.6407 0.6093 0.5870
3027.206869 0.5870 0.5967 0.6308 0.6625 0.6885
3031.559432 0.7183 0.7578 0.7860 0.7860 0.7856
3035.911995 0.7841 0.7821 0.7791 0.7761 0.7731
3040.264558 0.7701 0.7671 0.7646 0.7630 0.7617
3044.617121 0.7607 0.7597 0.7587 0.7578 0.7573
3048.969684 0.7568 0.7563 0.7560 0.7560 0.7557
3053.322247 0.7547 0.7521 0.7461 0.7391 0.7296
3057.674810 0.7166 0.6961 0.6782 0.6661 0.6580
3062.027373 0.6580 0.6608 0.6693 0.6781 0.6876
3066.379936 0.6943 0.6953 0.6957 0.6947 0.6907
3070.732499 0.6807 0.6629 0.6294 0.6044 0.5963
3075.085062 0.5799 0.5464 0.5220 0.5159 0.5120
3079.437625 0.5120 0.5136 0.5181 0.5282 0.5487
3083.790188 0.5706 0.5951 0.6226 0.6556 0.6864
3088.142751 0.7129 0.7434 0.7814 0.8141 0.8371
3092.495314 0.8566 0.8696 0.8800 0.8855 0.8896
3096.847877 0.8911 0.8926 0.8941 0.8944 0.8929
3101.200440 0.8899 0.8844 0.8780 0.8700 0.8622
3105.553003 0.8547 0.8500 0.8500 0.8545 0.8665
3109.905566 0.8787 0.8912 0.9036 0.9157 0.9274
3114.258129 0.9384 0.9458 0.9478 0.9498 0.9518
3118.610692 0.9534 0.9544 0.9558 0.9578 0.9592
3122.963255 0.9597 0.9602 0.9607 0.9610 0.9610
3127.315818 0.9610 0.9610 0.9614 0.9624 0.9634
3131.668381 0.9644 0.9654 0.9664 0.9670 0.9670
3136.020944 0.9670 0.9670 0.9670 0.9670 0.9664
3140.373507 0.9649 0.9638 0.9633 0.9626 0.9616
3144.726070 0.9610 0.9610 0.9614 0.9624 0.9630
3149.078633 0.9630 0.9632 0.9637 0.9642 0.9647
3153.431196 0.9654 0.9664 0.9672 0.9677 0.9680
3157.783759 0.9680 0.9680 0.9680 0.9684 0.9694
3162.136322 0.9702 0.9707 0.9710 0.9710 0.9710
3166.488885 0.9710 0.9712 0.9717 0.9720 0.9720
3170.841448 0.9720 0.9720 0.9720 0.9720 0.9720
3175.194011 0.9720 0.9720 0.9720 0.9720 0.9720
3179.546574 0.9720 0.9720 0.9725 0.9735 0.9740
3183.899137 0.9740 0.9742 0.9747 0.9752 0.9757
3188.251700 0.9758 0.9753 0.9752 0.9757 0.9765
3192.604263 0.9775 0.9780 0.9780 0.9780 0.9780
3196.956826 0.9780 0.9780 0.9780 0.9780 0.9780
3201.309389 0.9780 0.9780 0.9780 0.9780 0.9780
3205.661952 0.9780 0.9780 0.9780 0.9780 0.9780
3210.014515 0.9780 0.9780 0.9780 0.9783 0.9788
3214.367078 0.9793 0.9798 0.9800 0.9800 0.9800
3218.719641 0.9800 0.9800 0.9800 0.9800 0.9800
3223.072204 0.9800 0.9800 0.9800 0.9800 0.9800
3227.424768 0.9800 0.9797 0.9792 0.9790 0.9790
3231.777331 0.9798 0.9813 0.9820 0.9820 0.9823
3236.129894 0.9828 0.9835 0.9845 0.9850 0.9850
3240.482457 0.9850 0.9850 0.9850 0.9850 0.9850
3244.835020 0.9850 0.9850 0.9850 0.9850 0.9850
3249.187583 0.9850 0.9850 0.9853 0.9858 0.9860
3253.540146 0.9860 0.9860 0.9860 0.9860 0.9860
3257.892709 0.9860 0.9860 0.9860 0.9860 0.9860
3262.245272 0.9860 0.9863 0.9868 0.9876 0.9886
3266.597835 0.9890 0.9890 0.9893 0.9898 0.9900
3270.950398 0.9900 0.9900 0.9900 0.9903 0.9908
3275.302961 0.9910 0.9910 0.9910 0.9910 0.9910
3279.655524 0.9910 0.9910 0.9910 0.9916 0.9926
3284.008087 0.9930 0.9930 0.9930 0.9930 0.9930
3288.360650 0.9930 0.9930 0.9930 0.9930 0.9930
3292.713213 0.9930 0.9930 0.9933 0.9938 0.9940
3297.065776 0.9940 0.9940 0.9940 0.9943 0.9948
3301.418339 0.9959 0.9974 0.9986 0.9996 1.0000
3305.770902 1.0000 1.0000 1.0000 0.9994 0.9984
3310.123465 0.9977 0.9972 0.9970 0.9970 0.9970
3314.476028 0.9970 0.9964 0.9954 0.9950 0.9950
3318.828591 0.9950 0.9950 0.9950 0.9950 0.9950
3323.181154 0.9950 0.9950 0.9950 0.9950 0.9950
3327.533717 0.9950 0.9950 0.9950 0.9950 0.9950
3331.886280 0.9950 0.9950 0.9950 0.9960 0.9975
3336.238843 0.9987 0.9997 1.0000 1.0000 1.0000
3340.591406 1.0000 0.9993 0.9983 0.9970 0.9955
3344.943969 0.9950 0.9950 0.9950 0.9950 0.9957
3349.296532 0.9967 0.9970 0.9970 0.9970 0.9970
3353.649095 0.9980 0.9995 1.0000 1.0000 1.0000
3358.001658 1.0000 1.0000 1.0000 1.0000 1.0000
3362.354221 1.0000 1.0000 1.0000 1.0000 0.9993
3366.706784 0.9983 0.9987 0.9997 1.0000 1.0000
3371.059347 1.0000 1.0000 1.0000 1.0000 1.0004
3375.411910 1.0009 1.0010 1.0010 1.0010 1.0010
3379.764473 1.0010 1.0010 1.0010 1.0010 1.0010
3384.117036 1.0010 1.0010 1.0010 1.0010 1.0010
3388.469599 1.0010 1.0010 1.0021 1.0036 1.0044
3392.822162 1.0049 1.0050 1.0050 1.0050 1.0050
3397.174725 1.0046 1.0041 1.0040 1.0040 1.0033
3401.527288 1.0023 1.0028 1.0037 1.0040 1.0040
3405.879851 1.0040 1.0040 1.0040 1.0040 1.0032
3410.232414 1.0022 1.0020 1.0020 1.0020 1.0020
3414.584977 1.0020 1.0020 1.0016 1.0011 1.0010
3418.937540 1.0010 1.0010 1.0010 1.0006 1.0001
3423.290103 1.0000 1.0000 1.0000 1.0000 1.0000
3427.642666 1.0000 1.0000 1.0000 1.0000 1.0000
3431.995229 0.9980 0.9955 0.9950 0.9950 0.9950
3436.347792 0.9950 0.9950 0.9950 0.9950 0.9950
3440.700355 0.9950 0.9950 0.9950 0.9950 0.9950
3445.052918 0.9950 0.9946 0.9941 0.9940 0.9940
3449.405481 0.9940 0.9940 0.9936 0.9931 0.9922
3453.758044 0.9912 0.9910 0.9910 0.9910 0.9910
3458.110607 0.9910 0.9910 0.9910 0.9910 0.9906
3462.463170 0.9901 0.9900 0.9900 0.9900 0.9900
3466.815733 0.9900 0.9900 0.9900 0.9900 0.9896
3471.168296 0.9891 0.9882 0.9872 0.9870 0.9870
3475.520859 0.9870 0.9870 0.9870 0.9870 0.9870
3479.873422 0.9870 0.9870 0.9870 0.9866 0.9861
3484.225985 0.9860 0.9860 0.9860 0.9860 0.9860
3488.578549 0.9860 0.9860 0.9860 0.9860 0.9860
3492.931112 0.9860 0.9860 0.9860 0.9860 0.9860
3497.283675 0.9860 0.9860 0.9860 0.9860 0.9860
3501.636238 0.9860 0.9860 0.9860 0.9860 0.9856
3505.988801 0.9851 0.9850 0.9850 0.9850 0.9850
3510.341364 0.9841 0.9831 0.9830 0.9830 0.9826
3514.693927 0.9821 0.9820 0.9820 0.9820 0.9820
3519.046490 0.9820 0.9820 0.9820 0.9820 0.9824
3523.399053 0.9829 0.9830 0.9830 0.9826 0.9821
3527.751616 0.9820 0.9820 0.9820 0.9820 0.9811
3532.104179 0.9801 0.9809 0.9819 0.9820 0.9820
3536.456742 0.9811 0.9801 0.9800 0.9800 0.9800
3540.809305 0.9800 0.9809 0.9819 0.9820 0.9820
3545.161868 0.9820 0.9820 0.9811 0.9801 0.9800
3549.514431 0.9800 0.9800 0.9800 0.9809 0.9819
3553.866994 0.9825 0.9830 0.9830 0.9830 0.9839
3558.219557 0.9849 0.9855 0.9860 0.9860 0.9860
3562.572120 0.9860 0.9860 0.9860 0.9860 0.9860
3566.924683 0.9860 0.9860 0.9860 0.9860 0.9860
3571.277246 0.9855 0.9850 0.9850 0.9850 0.9840
3575.629809 0.9830 0.9830 0.9830 0.9825 0.9820
3579.982372 0.9820 0.9820 0.9820 0.9820 0.9820
3584.334935 0.9820 0.9820 0.9820 0.9820 0.9820
3588.687498 0.9810 0.9800 0.9800 0.9800 0.9800
3593.040061 0.9800 0.9810 0.9820 0.9820 0.9820
3597.392624 0.9820 0.9820 0.9820 0.9820 0.9820
3601.745187 0.9820 0.9820 0.9820 0.9820 0.9820
3606.097750 0.9820 0.9820 0.9805 0.9790 0.9790
3610.450313 0.9790 0.9795 0.9800 0.9800 0.9800
3614.802876 0.9800 0.9800 0.9800 0.9800 0.9800
3619.155439 0.9800 0.9800 0.9800 0.9800 0.9800
3623.508002 0.9795 0.9790 0.9790 0.9790 0.9790
3627.860565 0.9790 0.9785 0.9780 0.9770 0.9760
3632.213128 0.9750 0.9740 0.9730 0.9720 0.9715
3636.565691 0.9710 0.9710 0.9710 0.9715 0.9720
3640.918254 0.9730 0.9740 0.9740 0.9740 0.9740
3645.270817 0.9740 0.9740 0.9740 0.9740 0.9741
3649.623380 0.9751 0.9760 0.9760 0.9760 0.9760
3653.975943 0.9760 0.9760 0.9761 0.9771 0.9780
3658.328506 0.9780 0.9780 0.9785 0.9790 0.9790
3662.681069 0.9790 0.9790 0.9790 0.9790 0.9790
3667.033632 0.9795 0.9800 0.9800 0.9800 0.9795
3671.386195 0.9790 0.9790 0.9790 0.9790 0.9790
3675.738758 0.9790 0.9790 0.9790 0.9790 0.9790
3680.091321 0.9791 0.9806 0.9820 0.9825 0.9830
3684.443884 0.9830 0.9830 0.9830 0.9830 0.9830
3688.796447 0.9830 0.9830 0.9828 0.9813 0.9799
3693.149010 0.9794 0.9790 0.9790 0.9790 0.9790
3697.501573 0.9790 0.9790 0.9791 0.9796 0.9799
3701.854136 0.9794 0.9790 0.9790 0.9789 0.9784
3706.206699 0.9780 0.9780 0.9780 0.9780 0.9780
3710.559262 0.9780 0.9780 0.9780 0.9781 0.9786
3714.911825 0.9790 0.9790 0.9790 0.9790 0.9791
3719.264388 0.9796 0.9800 0.9800 0.9800 0.9800
3723.616951 0.9799 0.9794 0.9790 0.9790 0.9790
3727.969514 0.9790 0.9790 0.9790 0.9790 0.9790
3732.322077 0.9790 0.9790 0.9790 0.9790 0.9790
3736.674640 0.9790 0.9790 0.9790 0.9789 0.9784
3741.027203 0.9780 0.9780 0.9780 0.9780 0.9780
3745.379766 0.9780 0.9780 0.9780 0.9780 0.9780
3749.732329 0.9778 0.9768 0.9760 0.9760 0.9760
3754.084893 0.9760 0.9760 0.9760 0.9760 0.9760
3758.437456 0.9762 0.9772 0.9780 0.9780 0.9780
3762.790019 0.9780 0.9780 0.9780 0.9780 0.9780
3767.142582 0.9780 0.9780 0.9780 0.9780 0.9780
3771.495145 0.9780 0.9780 0.9780 0.9780 0.9780
3775.847708 0.9780 0.9780 0.9781 0.9786 0.9790
3780.200271 0.9790 0.9789 0.9784 0.9781 0.9786
3784.552834 0.9790 0.9790 0.9790 0.9790 0.9789
3788.905397 0.9784 0.9780 0.9780 0.9780 0.9780
3793.257960 0.9778 0.9768
##END=
