##TITLE=TRANS-STILBENE
##JCAMP-DX=4.24
##DATA TYPE=INFRARED SPECTRUM
##CLASS=COBLENTZ III
##ORIGIN=DOW CHEMICAL COMPANY
##OWNER=COBLENTZ SOCIETY
Collection (C) 2018 copyright by the U.S. Secretary of Commerce
on behalf of the United States of America. All rights reserved.
##DATE=1963/11/14
##NAMES=[(E)-2-phenylethenyl]benzene
##CAS REGISTRY NO=103-30-0
##MOLFORM=C14 H12
##MP=124 C
##BP=306-307 C
##SOURCE REFERENCE=COBLENTZ NO. 7470
##$NIST SOURCE=COBLENTZ
##$NIST IMAGE=cob7470
##SPECTROMETER/DATA SYSTEM=BECKMAN IR-9 (GRATING)
##INSTRUMENT PARAMETERS=ORDER CHANGES: 670, 1200, 2000 CM^-^1
##STATE=SOLID (SPLIT MULL), FLUOROLUBE FOR 3800-1330 CM^-^1, NUJOL FOR 1330-400 CM^-^1
$$ SEE SPECTRUM NO. 4773 FOR "SOLUTION" RUN
##SAMPLING PROCEDURE=TRANSMISSION
##RESOLUTION=2
##DATA PROCESSING=DIGITIZED BY NIST FROM HARD COPY (FROM TWO SEGMENTS)
##XUNITS=1/CM
##YUNITS=TRANSMITTANCE
##XFACTOR=1.000000
##YFACTOR=1
##DELTAX=0.888891
##FIRSTX=402.667
##LASTX=3800.01
##FIRSTY=0.777
##MAXX=3800.01
##MINX=402.667
##MAXY=1.055
##MINY=0.0260009
##NPOINTS=3823
##XYDATA=(X++(Y..Y))
402.667000 0.7770 0.7720 0.7630 0.7590 0.7540
407.111454 0.7530 0.7520 0.7500 0.7500 0.7470
411.555908 0.7460 0.7460 0.7430 0.7400 0.7400
416.000361 0.7380 0.7350 0.7330 0.7320 0.7320
420.444815 0.7320 0.7320 0.7320 0.7320 0.7320
424.889269 0.7320 0.7330 0.7330 0.7350 0.7360
429.333723 0.7400 0.7400 0.7450 0.7570 0.7680
433.778176 0.7780 0.7840 0.7890 0.7920 0.7930
438.222630 0.7950 0.7960 0.7960 0.7990 0.7990
442.667084 0.8020 0.8050 0.8070 0.8090 0.8100
447.111538 0.8130 0.8160 0.8180 0.8230 0.8270
451.555992 0.8310 0.8340 0.8380 0.8420 0.8450
456.000445 0.8460 0.8490 0.8520 0.8560 0.8590
460.444899 0.8620 0.8620 0.8670 0.8700 0.8730
464.889353 0.8740 0.8760 0.8770 0.8800 0.8810
469.333807 0.8830 0.8830 0.8830 0.8830 0.8661
473.778260 0.8640 0.8640 0.8660 0.8770 0.8870
478.222714 0.8960 0.9020 0.9060 0.9090 0.9130
482.667168 0.9170 0.9260 0.9310 0.9340 0.9340
487.111622 0.9350 0.9370 0.9370 0.9380 0.9400
491.556076 0.9440 0.9450 0.9470 0.9470 0.9480
496.000529 0.9480 0.9490 0.9510 0.9520 0.9540
500.444983 0.9540 0.9550 0.9550 0.9560 0.9560
504.889437 0.9560 0.9560 0.9560 0.9560 0.9580
509.333891 0.9580 0.9590 0.9610 0.9610 0.9630
513.778344 0.9630 0.9630 0.9630 0.9620 0.9620
518.222798 0.9620 0.9620 0.9610 0.9580 0.9580
522.667252 0.9510 0.9021 0.8551 0.8460 0.7225
527.111706 0.5038 0.3100 0.2980 0.2960 0.2960
531.556159 0.3699 0.5565 0.6029 0.6538 0.7177
536.000613 0.7600 0.8200 0.8490 0.8770 0.8780
540.445067 0.8800 0.8640 0.8112 0.7542 0.6972
544.889521 0.6970 0.7000 0.7700 0.8449 0.8590
549.333975 0.8800 0.9019 0.9239 0.9350 0.9469
553.778428 0.9580 0.9670 0.9800 0.9810 0.9860
558.222882 0.9860 0.9870 0.9870 0.9880 0.9900
562.667336 0.9900 0.9910 0.9910 0.9910 0.9910
567.111790 0.9910 0.9910 0.9910 0.9900 0.9910
571.556243 0.9930 0.9910 0.9930 0.9910 0.9910
576.000697 0.9910 0.9910 0.9910 0.9910 0.9930
580.445151 0.9940 0.9930 0.9930 0.9930 0.9930
584.889605 0.9930 0.9930 0.9930 0.9930 0.9930
589.334059 0.9930 0.9930 0.9930 0.9930 0.9930
593.778512 0.9930 0.9930 0.9940 0.9940 0.9940
598.222966 0.9940 0.9940 0.9940 0.9940 0.9950
602.667420 0.9950 0.9950 0.9950 0.9950 0.9950
607.111874 0.9950 0.9970 0.9970 0.9970 0.9970
611.556327 0.9970 0.9970 0.9970 0.9970 0.9970
616.000781 0.9970 0.9970 0.9970 0.9970 0.9970
620.445235 0.9970 0.9950 0.9930 0.9880 0.9790
624.889689 0.9700 0.9690 0.9720 0.9730 0.9790
629.334143 0.9810 0.9830 0.9860 0.9910 0.9940
633.778596 0.9970 0.9970 0.9980 0.9980 0.9980
638.223050 0.9980 0.9980 0.9980 0.9980 0.9980
642.667504 0.9970 0.9970 0.9970 0.9950 0.9940
647.111958 0.9940 0.9940 0.9940 0.9930 0.9930
651.556411 0.9930 0.9930 0.9910 0.9900 0.9900
656.000865 0.9880 0.9880 0.9880 0.9870 0.9870
660.445319 0.9870 0.9860 0.9840 0.9830 0.9810
664.889773 0.9800 0.9760 0.9730 0.9670 0.9630
669.334227 0.9580 0.9520 0.9480 0.9440 0.9380
673.778680 0.9330 0.9270 0.9230 0.9200 0.9220
678.223134 0.9260 0.9280 0.9330 0.9340 0.9400
682.667588 0.9420 0.9450 0.9470 0.9470 0.9450
687.112042 0.9370 0.9230 0.9170 0.8590 0.7591
691.556495 0.6322 0.4863 0.3344 0.1865 0.1113
696.000949 0.0360 0.0340 0.0340 0.1209 0.2888
700.445403 0.3669 0.4688 0.6026 0.6160 0.6289
704.889857 0.6301 0.6820 0.7330 0.7850 0.8369
709.334310 0.8769 0.9019 0.9090 0.9130 0.9269
713.778764 0.9370 0.9400 0.9400 0.9400 0.9400
718.223218 0.9400 0.9380 0.9370 0.9340 0.9280
722.667672 0.9230 0.9160 0.9080 0.8960 0.8890
727.112126 0.8880 0.8880 0.8890 0.8920 0.8950
731.556579 0.9010 0.9080 0.9150 0.9190 0.9200
736.001033 0.9200 0.9200 0.9200 0.9200 0.9200
740.445487 0.9200 0.9200 0.9220 0.9240 0.9270
744.889941 0.9300 0.9310 0.9340 0.9350 0.9380
749.334394 0.9400 0.9410 0.9420 0.9420 0.9410
753.778848 0.9380 0.9350 0.9310 0.9270 0.9200
758.223302 0.9120 0.9050 0.8980 0.8130 0.7331
762.667756 0.6970 0.6601 0.4695 0.2397 0.1673
767.112210 0.1030 0.0660 0.0290 0.0260 0.0270
771.556663 0.2766 0.4327 0.5517 0.6397 0.7038
776.001117 0.7530 0.7910 0.8250 0.8530 0.8770
780.445571 0.8950 0.9100 0.9220 0.9300 0.9380
784.890025 0.9440 0.9480 0.9520 0.9550 0.9560
789.334478 0.9580 0.9620 0.9650 0.9690 0.9720
793.778932 0.9730 0.9760 0.9770 0.9790 0.9800
798.223386 0.9830 0.9840 0.9860 0.9870 0.9870
802.667840 0.9880 0.9880 0.9900 0.9900 0.9900
807.112294 0.9900 0.9900 0.9900 0.9900 0.9900
811.556747 0.9900 0.9910 0.9910 0.9910 0.9930
816.001201 0.9930 0.9930 0.9930 0.9940 0.9940
820.445655 0.9950 0.9950 0.9950 0.9970 0.9970
824.890109 0.9970 0.9980 0.9980 0.9980 0.9980
829.334562 0.9980 0.9980 0.9980 0.9980 0.9980
833.779016 0.9980 0.9980 0.9980 0.9980 0.9980
838.223470 0.9980 0.9980 0.9970 0.9970 0.9950
842.667924 0.9940 0.9940 0.9930 0.9910 0.9910
847.112378 0.9900 0.9880 0.9840 0.9800 0.9770
851.556831 0.9740 0.9520 0.9440 0.9450 0.9470
856.001285 0.9620 0.9690 0.9740 0.9770 0.9790
860.445739 0.9800 0.9800 0.9810 0.9830 0.9860
864.890193 0.9860 0.9860 0.9860 0.9860 0.9860
869.334646 0.9860 0.9860 0.9870 0.9870 0.9870
873.779100 0.9870 0.9870 0.9870 0.9870 0.9870
878.223554 0.9870 0.9860 0.9860 0.9860 0.9840
882.668008 0.9840 0.9830 0.9830 0.9830 0.9830
887.112461 0.9830 0.9810 0.9810 0.9810 0.9810
891.556915 0.9800 0.9800 0.9770 0.9760 0.9740
896.001369 0.9720 0.9720 0.9700 0.9700 0.9700
900.445823 0.9700 0.9700 0.9700 0.9690 0.9690
904.890277 0.9690 0.9670 0.9660 0.9630 0.9580
909.334730 0.9520 0.9380 0.9130 0.8590 0.7980
913.779184 0.7950 0.7960 0.8160 0.8250 0.8778
918.223638 0.9100 0.9300 0.9380 0.9440 0.9510
922.668092 0.9520 0.9560 0.9560 0.9560 0.9560
927.112545 0.9560 0.9580 0.9580 0.9590 0.9590
931.556999 0.9590 0.9590 0.9590 0.9580 0.9550
936.001453 0.9560 0.9550 0.9540 0.9540 0.9520
940.445907 0.9520 0.9510 0.9490 0.9480 0.9480
944.890361 0.9470 0.9450 0.9440 0.9420 0.9410
949.334814 0.9400 0.9370 0.9340 0.9310 0.9270
953.779268 0.9220 0.9150 0.9060 0.9010 0.8780
958.223722 0.8640 0.8520 0.8390 0.8270 0.6945
962.668176 0.1420 0.1400 0.1420 0.1430 0.1470
967.112629 0.1500 0.1540 0.1570 0.2667 0.3756
971.557083 0.3781 0.4342 0.6890 0.6890 0.6890
976.001537 0.6890 0.6900 0.7588 0.7919 0.8239
980.445991 0.8571 0.8890 0.8890 0.8890 0.8890
984.890445 0.8880 0.7202 0.6831 0.6511 0.6500
989.334898 0.6490 0.6501 0.7141 0.7781 0.9050
993.779352 0.9080 0.9130 0.9270 0.9300 0.9310
998.223806 0.9330 0.9340 0.9350 0.9350 0.9330
1002.668260 0.9300 0.9270 0.9240 0.9220 0.9200
1007.112713 0.9160 0.9130 0.9120 0.9120 0.9130
1011.557167 0.9260 0.9310 0.9380 0.9440 0.9450
1016.001621 0.9470 0.9470 0.9480 0.9480 0.9480
1020.446075 0.9480 0.9480 0.9480 0.9470 0.9420
1024.890529 0.9370 0.9340 0.9310 0.9260 0.9120
1029.334982 0.8980 0.8830 0.8620 0.8391 0.8250
1033.779436 0.8230 0.8250 0.8370 0.8500 0.8800
1038.223890 0.9010 0.9160 0.9280 0.9350 0.9410
1042.668344 0.9470 0.9490 0.9540 0.9540 0.9540
1047.112797 0.9550 0.9550 0.9550 0.9560 0.9560
1051.557251 0.9560 0.9560 0.9560 0.9560 0.9550
1056.001705 0.9550 0.9540 0.9540 0.9520 0.9510
1060.446159 0.9490 0.9480 0.9470 0.9440 0.9420
1064.890612 0.9400 0.9370 0.9330 0.9270 0.9190
1069.335066 0.9100 0.8910 0.8629 0.8200 0.7640
1073.779520 0.6920 0.6440 0.5901 0.5890 0.5900
1078.223974 0.6622 0.7321 0.8020 0.8320 0.8570
1082.668428 0.8840 0.9020 0.9150 0.9240 0.9300
1087.112881 0.9330 0.9350 0.9380 0.9410 0.9420
1091.557335 0.9440 0.9450 0.9470 0.9470 0.9470
1096.001789 0.9470 0.9450 0.9450 0.9450 0.9450
1100.446243 0.9440 0.9440 0.9420 0.9420 0.9410
1104.890696 0.9380 0.9380 0.9370 0.9350 0.9330
1109.335150 0.9300 0.9270 0.9260 0.9260 0.9280
1113.779604 0.9340 0.9370 0.9380 0.9420 0.9440
1118.224058 0.9450 0.9450 0.9470 0.9450 0.9450
1122.668512 0.9450 0.9450 0.9450 0.9450 0.9450
1127.112965 0.9450 0.9450 0.9450 0.9450 0.9450
1131.557419 0.9450 0.9450 0.9450 0.9450 0.9450
1136.001873 0.9450 0.9450 0.9470 0.9450 0.9450
1140.446327 0.9450 0.9450 0.9450 0.9440 0.9450
1144.890780 0.9440 0.9420 0.9420 0.9410 0.9400
1149.335234 0.9380 0.9370 0.9350 0.9350 0.9340
1153.779688 0.9330 0.9270 0.9150 0.9020 0.8491
1158.224142 0.7840 0.7820 0.7850 0.8140 0.8370
1162.668596 0.8570 0.8760 0.8880 0.8910 0.8960
1167.113049 0.9050 0.9130 0.9230 0.9310 0.9340
1171.557503 0.9350 0.9370 0.9370 0.9370 0.9380
1176.001957 0.9380 0.9380 0.9400 0.9400 0.9400
1180.446411 0.9410 0.9400 0.9400 0.9400 0.9380
1184.890864 0.9370 0.9340 0.9310 0.9280 0.9270
1189.335318 0.9270 0.9280 0.9340 0.9370 0.9410
1193.779772 0.9440 0.9470 0.9470 0.9450 0.9450
1198.224226 0.9450 0.9420 0.9410 0.9400 0.9400
1202.668680 0.9380 0.9380 0.9400 0.9410 0.9420
1207.113133 0.9440 0.9440 0.9440 0.9440 0.9440
1211.557587 0.9440 0.9440 0.9420 0.9410 0.9380
1216.002041 0.9370 0.9350 0.9340 0.9300 0.9220
1220.446495 0.9130 0.9050 0.8960 0.8880 0.8830
1224.890948 0.8780 0.8760 0.8730 0.8710 0.8730
1229.335402 0.8810 0.8890 0.8940 0.8960 0.9080
1233.779856 0.9190 0.9240 0.9270 0.9280 0.9310
1238.224310 0.9330 0.9330 0.9330 0.9340 0.9350
1242.668763 0.9370 0.9370 0.9370 0.9370 0.9380
1247.113217 0.9380 0.9400 0.9400 0.9400 0.9400
1251.557671 0.9400 0.9400 0.9410 0.9410 0.9420
1256.002125 0.9420 0.9420 0.9420 0.9420 0.9420
1260.446579 0.9420 0.9420 0.9410 0.9400 0.9400
1264.891032 0.9380 0.9370 0.9350 0.9340 0.9310
1269.335486 0.9280 0.9190 0.9170 0.9100 0.9090
1273.779940 0.9090 0.9100 0.9130 0.9170 0.9220
1278.224394 0.9260 0.9310 0.9330 0.9330 0.9330
1282.668847 0.9340 0.9340 0.9330 0.9330 0.9330
1287.113301 0.9330 0.9330 0.9330 0.9330 0.9330
1291.557755 0.9330 0.9310 0.9310 0.9300 0.9280
1296.002209 0.9260 0.9230 0.9170 0.9120 0.9050
1300.446663 0.8960 0.8849 0.8620 0.8480 0.8310
1304.891116 0.8130 0.8100 0.8110 0.8310 0.8380
1309.335570 0.8550 0.8660 0.8670 0.8710 0.8770
1313.780024 0.8840 0.8850 0.8880 0.8910 0.8920
1318.224478 0.8950 0.8960 0.8990 0.9010 0.9030
1322.668931 0.9050 0.9080 0.9080 0.9100 0.9120
1327.113385 0.9120 0.9120 0.9120 0.9120 0.9120
1331.557839 0.9090 0.8950 0.8550 0.8251 0.8021
1336.002293 0.7960 0.8020 0.8090 0.8240 0.8380
1340.446747 0.8450 0.8460 0.8480 0.8490 0.8500
1344.891200 0.8500 0.8550 0.8590 0.8640 0.8690
1349.335654 0.8700 0.8710 0.8780 0.8910 0.8960
1353.780108 0.9060 0.9160 0.9260 0.9340 0.9410
1358.224562 0.9470 0.9510 0.9520 0.9550 0.9580
1362.669015 0.9650 0.9700 0.9730 0.9760 0.9790
1367.113469 0.9790 0.9800 0.9810 0.9830 0.9840
1371.557923 0.9860 0.9860 0.9860 0.9870 0.9870
1376.002377 0.9880 0.9880 0.9900 0.9900 0.9900
1380.446831 0.9900 0.9900 0.9900 0.9900 0.9900
1384.891284 0.9880 0.9880 0.9880 0.9880 0.9870
1389.335738 0.9840 0.9800 0.9740 0.9670 0.9650
1393.780192 0.9650 0.9650 0.9650 0.9650 0.9670
1398.224646 0.9720 0.9770 0.9800 0.9810 0.9870
1402.669099 0.9930 0.9940 0.9980 1.0000 1.0010
1407.113553 1.0020 1.0020 1.0040 1.0040 1.0040
1411.558007 1.0040 1.0040 1.0020 1.0020 1.0010
1416.002461 1.0010 1.0010 1.0010 1.0000 1.0000
1420.446914 1.0000 0.9980 0.9970 0.9970 0.9970
1424.891368 0.9970 1.0010 1.0010 1.0010 1.0010
1429.335822 1.0010 1.0010 1.0010 1.0000 1.0000
1433.780276 0.9980 0.9980 0.9970 0.9950 0.9930
1438.224730 0.9900 0.9880 0.9860 0.9840 0.9810
1442.669183 0.9740 0.9660 0.9590 0.9520 0.9480
1447.113637 0.9450 0.9380 0.9300 0.9080 0.8172
1451.558091 0.7078 0.6036 0.3810 0.3780 0.3800
1456.002545 0.4160 0.4969 0.5939 0.7177 0.8546
1460.446998 0.9301 0.9672 1.0250 1.0260 1.0270
1464.891452 1.0270 1.0290 1.0290 1.0290 1.0290
1469.335906 1.0290 1.0270 1.0270 1.0270 1.0260
1473.780360 1.0260 1.0260 1.0260 1.0260 1.0260
1478.224814 1.0250 1.0250 1.0230 1.0220 1.0220
1482.669267 1.0200 1.0120 1.0040 0.9970 0.9900
1487.113721 0.9729 0.9560 0.9380 0.9230 0.9100
1491.558175 0.9010 0.8950 0.8231 0.7032 0.6182
1496.002629 0.4416 0.3060 0.3060 0.3061 0.3811
1500.447082 0.5620 0.6320 0.7978 0.9418 0.9540
1504.891536 0.9651 1.0060 1.0260 1.0290 1.0290
1509.335990 1.0290 1.0230 1.0220 1.0220 1.0230
1513.780444 1.0290 1.0290 1.0320 1.0360 1.0370
1518.224898 1.0380 1.0400 1.0440 1.0470 1.0500
1522.669351 1.0500 1.0510 1.0520 1.0520 1.0540
1527.113805 1.0540 1.0550 1.0550 1.0520 1.0520
1531.558259 1.0510 1.0510 1.0500 1.0480 1.0470
1536.002713 1.0440 1.0380 1.0360 1.0340 1.0340
1540.447166 1.0340 1.0340 1.0330 1.0330 1.0330
1544.891620 1.0340 1.0380 1.0440 1.0450 1.0470
1549.336074 1.0480 1.0510 1.0510 1.0520 1.0540
1553.780528 1.0540 1.0540 1.0540 1.0540 1.0520
1558.224982 1.0520 1.0520 1.0510 1.0510 1.0510
1562.669435 1.0510 1.0510 1.0500 1.0500 1.0500
1567.113889 1.0480 1.0470 1.0450 1.0440 1.0430
1571.558343 1.0410 1.0400 1.0330 1.0260 1.0220
1576.002797 1.0120 1.0009 0.9729 0.9448 0.8250
1580.447250 0.8240 0.8240 0.8830 1.0058 1.0180
1584.891704 1.0250 1.0260 1.0290 1.0290 1.0260
1589.336158 1.0220 1.0200 1.0190 1.0150 1.0060
1593.780612 0.9969 0.9740 0.9590 0.9559 0.8910
1598.225065 0.8380 0.8030 0.7451 0.7420 0.7430
1602.669519 0.7891 0.8142 0.9081 0.9620 1.0020
1607.113973 1.0090 1.0200 1.0250 1.0270 1.0290
1611.558427 1.0330 1.0370 1.0400 1.0440 1.0470
1616.002881 1.0470 1.0470 1.0470 1.0470 1.0470
1620.447334 1.0430 1.0330 1.0300 1.0260 1.0230
1624.891788 1.0220 1.0200 1.0200 1.0220 1.0260
1629.336242 1.0300 1.0330 1.0360 1.0380 1.0410
1633.780696 1.0430 1.0440 1.0450 1.0470 1.0470
1638.225149 1.0470 1.0470 1.0450 1.0440 1.0440
1642.669603 1.0430 1.0430 1.0410 1.0410 1.0400
1647.114057 1.0380 1.0380 1.0370 1.0370 1.0360
1651.558511 1.0360 1.0330 1.0300 1.0250 1.0230
1656.002965 1.0220 1.0200 1.0190 1.0190 1.0200
1660.447418 1.0220 1.0220 1.0230 1.0230 1.0250
1664.891872 1.0250 1.0250 1.0260 1.0260 1.0270
1669.336326 1.0330 1.0360 1.0370 1.0370 1.0360
1673.780780 1.0340 1.0330 1.0330 1.0320 1.0300
1678.225233 1.0270 1.0270 1.0260 1.0250 1.0230
1682.669687 1.0220 1.0220 1.0200 1.0190 1.0180
1687.114141 1.0150 1.0110 1.0090 1.0080 1.0080
1691.558595 1.0130 1.0160 1.0180 1.0190 1.0200
1696.003049 1.0220 1.0220 1.0220 1.0200 1.0200
1700.447502 1.0200 1.0190 1.0190 1.0180 1.0180
1704.891956 1.0180 1.0180 1.0180 1.0190 1.0200
1709.336410 1.0200 1.0200 1.0220 1.0220 1.0230
1713.780864 1.0230 1.0250 1.0250 1.0260 1.0260
1718.225317 1.0270 1.0270 1.0270 1.0270 1.0270
1722.669771 1.0260 1.0270 1.0270 1.0270 1.0270
1727.114225 1.0270 1.0270 1.0270 1.0290 1.0270
1731.558679 1.0270 1.0270 1.0260 1.0260 1.0250
1736.003133 1.0250 1.0230 1.0230 1.0230 1.0220
1740.447586 1.0220 1.0200 1.0190 1.0190 1.0160
1744.892040 1.0150 1.0110 1.0080 1.0040 1.0010
1749.336494 1.0000 0.9970 0.9940 0.9900 0.9860
1753.780948 0.9810 0.9760 0.9740 0.9720 0.9730
1758.225401 0.9760 0.9800 0.9810 0.9840 0.9860
1762.669855 0.9870 0.9870 0.9880 0.9910 0.9930
1767.114309 0.9940 0.9950 0.9970 0.9970 1.0010
1771.558763 1.0010 1.0010 1.0010 1.0020 1.0020
1776.003216 1.0040 1.0040 1.0040 1.0040 1.0050
1780.447670 1.0050 1.0050 1.0050 1.0050 1.0050
1784.892124 1.0050 1.0040 1.0040 1.0040 1.0040
1789.336578 1.0020 1.0020 1.0020 1.0010 1.0010
1793.781032 1.0000 0.9980 0.9950 0.9940 0.9910
1798.225485 0.9870 0.9830 0.9800 0.9760 0.9730
1802.669939 0.9700 0.9690 0.9660 0.9650 0.9630
1807.114393 0.9630 0.9660 0.9690 0.9690 0.9690
1811.558847 0.9700 0.9700 0.9690 0.9690 0.9660
1816.003300 0.9630 0.9580 0.9540 0.9480 0.9450
1820.447754 0.9420 0.9410 0.9400 0.9410 0.9420
1824.892208 0.9440 0.9470 0.9490 0.9510 0.9520
1829.336662 0.9550 0.9580 0.9610 0.9650 0.9720
1833.781116 0.9760 0.9800 0.9810 0.9870 0.9880
1838.225569 0.9910 0.9930 0.9930 0.9930 0.9930
1842.670023 0.9910 0.9910 0.9900 0.9900 0.9880
1847.114477 0.9880 0.9880 0.9910 0.9930 0.9950
1851.558931 0.9970 0.9970 0.9970 0.9970 0.9970
1856.003384 0.9970 0.9970 0.9970 0.9970 0.9970
1860.447838 0.9970 0.9970 0.9970 0.9950 0.9940
1864.892292 0.9940 0.9930 0.9910 0.9900 0.9870
1869.336746 0.9860 0.9840 0.9800 0.9770 0.9730
1873.781200 0.9670 0.9630 0.9580 0.9540 0.9470
1878.225653 0.9410 0.9340 0.9310 0.9300 0.9280
1882.670107 0.9300 0.9310 0.9340 0.9370 0.9380
1887.114561 0.9440 0.9490 0.9520 0.9540 0.9580
1891.559015 0.9590 0.9620 0.9630 0.9630 0.9630
1896.003468 0.9630 0.9650 0.9650 0.9650 0.9650
1900.447922 0.9660 0.9670 0.9670 0.9690 0.9690
1904.892376 0.9700 0.9720 0.9720 0.9730 0.9740
1909.336830 0.9760 0.9770 0.9770 0.9790 0.9800
1913.781284 0.9810 0.9830 0.9840 0.9860 0.9860
1918.225737 0.9860 0.9860 0.9860 0.9860 0.9830
1922.670191 0.9830 0.9810 0.9810 0.9800 0.9800
1927.114645 0.9790 0.9790 0.9770 0.9760 0.9760
1931.559099 0.9740 0.9740 0.9730 0.9730 0.9700
1936.003552 0.9700 0.9700 0.9690 0.9690 0.9690
1940.448006 0.9670 0.9660 0.9650 0.9620 0.9620
1944.892460 0.9610 0.9590 0.9580 0.9520 0.9470
1949.336914 0.9400 0.9329 0.9100 0.9019 0.8800
1953.781367 0.8770 0.8780 0.8910 0.9010 0.9080
1958.225821 0.9221 0.9340 0.9450 0.9510 0.9540
1962.670275 0.9610 0.9620 0.9620 0.9610 0.9610
1967.114729 0.9590 0.9550 0.9510 0.9450 0.9420
1971.559183 0.9410 0.9400 0.9400 0.9410 0.9420
1976.003636 0.9440 0.9480 0.9520 0.9520 0.9540
1980.448090 0.9540 0.9550 0.9550 0.9560 0.9580
1984.892544 0.9580 0.9580 0.9610 0.9610 0.9620
1989.336998 0.9650 0.9650 0.9650 0.9660 0.9660
1993.781451 0.9660 0.9660 0.9660 0.9660 0.9660
1998.225905 0.9660 0.9660 0.9660 0.9660 0.9660
2002.670359 0.9660 0.9660 0.9660 0.9660 0.9655
2007.114813 0.9650 0.9650 0.9650 0.9650 0.9650
2011.559267 0.9650 0.9650 0.9640 0.9630 0.9630
2016.003720 0.9630 0.9630 0.9630 0.9625 0.9620
2020.448174 0.9620 0.9620 0.9620 0.9620 0.9615
2024.892628 0.9610 0.9610 0.9610 0.9610 0.9610
2029.337082 0.9600 0.9590 0.9590 0.9590 0.9585
2033.781535 0.9580 0.9580 0.9580 0.9580 0.9580
2038.225989 0.9570 0.9560 0.9560 0.9560 0.9560
2042.670443 0.9560 0.9555 0.9550 0.9550 0.9550
2047.114897 0.9550 0.9550 0.9545 0.9540 0.9540
2051.559351 0.9540 0.9540 0.9540 0.9530 0.9520
2056.003804 0.9520 0.9520 0.9520 0.9520 0.9515
2060.448258 0.9510 0.9500 0.9490 0.9490 0.9490
2064.892712 0.9485 0.9480 0.9475 0.9470 0.9470
2069.337166 0.9470 0.9456 0.9441 0.9440 0.9440
2073.781619 0.9440 0.9440 0.9431 0.9421 0.9420
2078.226073 0.9420 0.9420 0.9420 0.9415 0.9410
2082.670527 0.9405 0.9400 0.9400 0.9400 0.9400
2087.114981 0.9400 0.9400 0.9400 0.9391 0.9381
2091.559435 0.9380 0.9380 0.9380 0.9380 0.9375
2096.003888 0.9370 0.9370 0.9370 0.9361 0.9351
2100.448342 0.9345 0.9340 0.9335 0.9330 0.9330
2104.892796 0.9330 0.9321 0.9311 0.9305 0.9300
2109.337250 0.9291 0.9281 0.9280 0.9280 0.9275
2113.781703 0.9270 0.9265 0.9260 0.9251 0.9241
2118.226157 0.9240 0.9240 0.9235 0.9230 0.9225
2122.670611 0.9220 0.9206 0.9191 0.9190 0.9190
2127.115065 0.9190 0.9190 0.9181 0.9171 0.9170
2131.559518 0.9170 0.9165 0.9160 0.9160 0.9160
2136.003972 0.9156 0.9151 0.9150 0.9150 0.9141
2140.448426 0.9131 0.9130 0.9130 0.9125 0.9121
2144.892880 0.9120 0.9120 0.9111 0.9101 0.9100
2149.337334 0.9100 0.9096 0.9091 0.9090 0.9090
2153.781787 0.9086 0.9081 0.9080 0.9080 0.9071
2158.226241 0.9061 0.9056 0.9051 0.9050 0.9050
2162.670695 0.9041 0.9031 0.9026 0.9021 0.9016
2167.115149 0.9011 0.9010 0.9010 0.9001 0.8991
2171.559602 0.8986 0.8981 0.8967 0.8952 0.8950
2176.004056 0.8950 0.8946 0.8941 0.8940 0.8940
2180.448510 0.8931 0.8921 0.8916 0.8911 0.8910
2184.892964 0.8910 0.8910 0.8910 0.8910 0.8910
2189.337418 0.8901 0.8891 0.8890 0.8890 0.8890
2193.781871 0.8890 0.8890 0.8890 0.8886 0.8881
2198.226325 0.8880 0.8880 0.8880 0.8880 0.8876
2202.670779 0.8871 0.8870 0.8870 0.8862 0.8852
2207.115233 0.8850 0.8850 0.8846 0.8841 0.8840
2211.559686 0.8840 0.8836 0.8831 0.8830 0.8830
2216.004140 0.8822 0.8812 0.8806 0.8801 0.8800
2220.448594 0.8800 0.8792 0.8782 0.8780 0.8780
2224.893048 0.8772 0.8762 0.8760 0.8760 0.8752
2229.337502 0.8742 0.8736 0.8731 0.8722 0.8712
2233.781955 0.8706 0.8701 0.8696 0.8691 0.8682
2238.226409 0.8672 0.8670 0.8670 0.8666 0.8661
2242.670863 0.8652 0.8642 0.8636 0.8631 0.8626
2247.115317 0.8621 0.8608 0.8593 0.8582 0.8572
2251.559770 0.8566 0.8561 0.8556 0.8551 0.8538
2256.004224 0.8523 0.8520 0.8520 0.8512 0.8502
2260.448678 0.8500 0.8500 0.8496 0.8491 0.8490
2264.893132 0.8490 0.8478 0.8463 0.8460 0.8460
2269.337586 0.8456 0.8451 0.8450 0.8450 0.8446
2273.782039 0.8441 0.8440 0.8440 0.8432 0.8422
2278.226493 0.8416 0.8411 0.8410 0.8410 0.8402
2282.670947 0.8392 0.8386 0.8381 0.8376 0.8371
2287.115401 0.8370 0.8370 0.8370 0.8370 0.8362
2291.559854 0.8352 0.8350 0.8350 0.8350 0.8350
2296.004308 0.8346 0.8341 0.8340 0.8340 0.8328
2300.448762 0.8313 0.8310 0.8310 0.8310 0.8310
2304.893216 0.8306 0.8301 0.8300 0.8300 0.8300
2309.337669 0.8300 0.8292 0.8282 0.8280 0.8280
2313.782123 0.8276 0.8271 0.8262 0.8252 0.8242
2318.226577 0.8232 0.8222 0.8212 0.8198 0.8183
2322.671031 0.8180 0.8180 0.8176 0.8171 0.8170
2327.115485 0.8170 0.8166 0.8161 0.8160 0.8160
2331.559938 0.8152 0.8142 0.8136 0.8131 0.8130
2336.004392 0.8130 0.8130 0.8130 0.8130 0.8130
2340.448846 0.8130 0.8130 0.8130 0.8130 0.8130
2344.893300 0.8130 0.8130 0.8130 0.8130 0.8130
2349.337753 0.8130 0.8130 0.8130 0.8130 0.8123
2353.782207 0.8113 0.8110 0.8110 0.8110 0.8110
2358.226661 0.8110 0.8110 0.8110 0.8110 0.8110
2362.671115 0.8110 0.8110 0.8110 0.8110 0.8110
2367.115569 0.8106 0.8101 0.8100 0.8100 0.8100
2371.560022 0.8100 0.8100 0.8100 0.8100 0.8100
2376.004476 0.8100 0.8100 0.8100 0.8100 0.8100
2380.448930 0.8100 0.8100 0.8100 0.8100 0.8100
2384.893384 0.8104 0.8109 0.8110 0.8110 0.8110
2389.337837 0.8110 0.8117 0.8127 0.8130 0.8130
2393.782291 0.8130 0.8130 0.8130 0.8130 0.8130
2398.226745 0.8130 0.8130 0.8130 0.8123 0.8113
2402.671199 0.8110 0.8110 0.8110 0.8110 0.8107
2407.115653 0.8102 0.8100 0.8100 0.8096 0.8091
2411.560106 0.8090 0.8090 0.8090 0.8090 0.8090
2416.004560 0.8090 0.8083 0.8073 0.8067 0.8062
2420.449014 0.8057 0.8052 0.8050 0.8050 0.8050
2424.893468 0.8050 0.8050 0.8050 0.8050 0.8050
2429.337921 0.8050 0.8050 0.8053 0.8058 0.8060
2433.782375 0.8060 0.8063 0.8068 0.8070 0.8070
2438.226829 0.8070 0.8070 0.8070 0.8070 0.8070
2442.671283 0.8070 0.8070 0.8070 0.8070 0.8070
2447.115737 0.8070 0.8070 0.8070 0.8070 0.8070
2451.560190 0.8070 0.8070 0.8070 0.8067 0.8062
2456.004644 0.8060 0.8060 0.8057 0.8052 0.8050
2460.449098 0.8050 0.8043 0.8033 0.8030 0.8030
2464.893552 0.8027 0.8022 0.8020 0.8020 0.8013
2469.338005 0.8003 0.8000 0.8000 0.7997 0.7992
2473.782459 0.7990 0.7990 0.7987 0.7982 0.7974
2478.226913 0.7964 0.7957 0.7952 0.7950 0.7950
2482.671367 0.7950 0.7950 0.7950 0.7950 0.7950
2487.115820 0.7950 0.7950 0.7950 0.7950 0.7950
2491.560274 0.7944 0.7934 0.7930 0.7930 0.7930
2496.004728 0.7930 0.7930 0.7930 0.7930 0.7930
2500.449182 0.7930 0.7930 0.7927 0.7922 0.7920
2504.893636 0.7920 0.7920 0.7920 0.7920 0.7920
2509.338089 0.7920 0.7920 0.7917 0.7912 0.7910
2513.782543 0.7910 0.7904 0.7894 0.7890 0.7890
2518.226997 0.7887 0.7882 0.7880 0.7880 0.7874
2522.671451 0.7864 0.7860 0.7860 0.7857 0.7852
2527.115904 0.7847 0.7842 0.7840 0.7840 0.7840
2531.560358 0.7840 0.7840 0.7840 0.7840 0.7840
2536.004812 0.7840 0.7840 0.7840 0.7840 0.7840
2540.449266 0.7840 0.7840 0.7840 0.7840 0.7840
2544.893720 0.7840 0.7840 0.7840 0.7840 0.7840
2549.338173 0.7840 0.7840 0.7840 0.7840 0.7840
2553.782627 0.7834 0.7824 0.7820 0.7820 0.7820
2558.227081 0.7820 0.7817 0.7812 0.7810 0.7810
2562.671535 0.7810 0.7810 0.7804 0.7794 0.7787
2567.115988 0.7782 0.7780 0.7780 0.7777 0.7772
2571.560442 0.7770 0.7770 0.7764 0.7754 0.7750
2576.004896 0.7750 0.7747 0.7742 0.7740 0.7740
2580.449350 0.7734 0.7724 0.7720 0.7720 0.7717
2584.893804 0.7712 0.7710 0.7710 0.7707 0.7702
2589.338257 0.7700 0.7700 0.7691 0.7676 0.7670
2593.782711 0.7670 0.7670 0.7670 0.7667 0.7662
2598.227165 0.7660 0.7660 0.7660 0.7660 0.7654
2602.671619 0.7644 0.7640 0.7640 0.7637 0.7632
2607.116072 0.7630 0.7630 0.7630 0.7630 0.7624
2611.560526 0.7614 0.7610 0.7610 0.7610 0.7610
2616.004980 0.7610 0.7610 0.7610 0.7610 0.7607
2620.449434 0.7602 0.7600 0.7600 0.7600 0.7600
2624.893888 0.7600 0.7600 0.7597 0.7592 0.7590
2629.338341 0.7590 0.7590 0.7590 0.7590 0.7590
2633.782795 0.7585 0.7575 0.7570 0.7570 0.7570
2638.227249 0.7570 0.7567 0.7562 0.7560 0.7560
2642.671703 0.7555 0.7545 0.7540 0.7540 0.7540
2647.116156 0.7540 0.7537 0.7532 0.7530 0.7530
2651.560610 0.7530 0.7530 0.7527 0.7522 0.7520
2656.005064 0.7520 0.7515 0.7505 0.7500 0.7500
2660.449518 0.7500 0.7500 0.7497 0.7492 0.7490
2664.893972 0.7490 0.7490 0.7490 0.7485 0.7475
2669.338425 0.7465 0.7455 0.7450 0.7450 0.7450
2673.782879 0.7450 0.7445 0.7435 0.7430 0.7430
2678.227333 0.7427 0.7422 0.7420 0.7420 0.7420
2682.671787 0.7420 0.7415 0.7405 0.7400 0.7400
2687.116240 0.7397 0.7392 0.7390 0.7390 0.7390
2691.560694 0.7390 0.7388 0.7382 0.7380 0.7380
2696.005148 0.7375 0.7365 0.7360 0.7360 0.7360
2700.449602 0.7360 0.7358 0.7353 0.7350 0.7350
2704.894055 0.7345 0.7335 0.7330 0.7330 0.7330
2709.338509 0.7330 0.7328 0.7323 0.7320 0.7320
2713.782963 0.7318 0.7313 0.7310 0.7310 0.7310
2718.227417 0.7310 0.7305 0.7295 0.7288 0.7283
2722.671871 0.7280 0.7280 0.7280 0.7280 0.7278
2727.116324 0.7273 0.7270 0.7270 0.7270 0.7270
2731.560778 0.7265 0.7255 0.7250 0.7250 0.7248
2736.005232 0.7243 0.7240 0.7240 0.7240 0.7240
2740.449686 0.7235 0.7225 0.7220 0.7220 0.7218
2744.894139 0.7213 0.7210 0.7210 0.7210 0.7210
2749.338593 0.7208 0.7203 0.7200 0.7200 0.7195
2753.783047 0.7185 0.7180 0.7180 0.7180 0.7180
2758.227501 0.7178 0.7173 0.7170 0.7170 0.7170
2762.671955 0.7170 0.7170 0.7170 0.7165 0.7155
2767.116408 0.7150 0.7150 0.7150 0.7150 0.7150
2771.560862 0.7150 0.7148 0.7143 0.7140 0.7140
2776.005316 0.7140 0.7140 0.7138 0.7133 0.7130
2780.449770 0.7130 0.7126 0.7116 0.7110 0.7110
2784.894223 0.7108 0.7103 0.7100 0.7100 0.7096
2789.338677 0.7086 0.7080 0.7080 0.7078 0.7073
2793.783131 0.7070 0.7070 0.7068 0.7063 0.7056
2798.227585 0.7046 0.7040 0.7040 0.7040 0.7040
2802.672039 0.7040 0.7040 0.7038 0.7033 0.7030
2807.116492 0.7030 0.7030 0.7030 0.7030 0.7030
2811.560946 0.7026 0.7016 0.7010 0.7010 0.7010
2816.005400 0.7010 0.7008 0.7003 0.7000 0.7000
2820.449854 0.7000 0.7000 0.7000 0.7000 0.6998
2824.894307 0.6993 0.6990 0.6990 0.6986 0.6976
2829.338761 0.6970 0.6970 0.6968 0.6963 0.6960
2833.783215 0.6960 0.6956 0.6946 0.6940 0.6940
2838.227669 0.6938 0.6933 0.6928 0.6923 0.6920
2842.672123 0.6920 0.6916 0.6906 0.6900 0.6900
2847.116576 0.6898 0.6893 0.6890 0.6890 0.6884
2851.561030 0.6869 0.6858 0.6853 0.6846 0.6836
2856.005484 0.6828 0.6823 0.6818 0.6813 0.6806
2860.449938 0.6796 0.6784 0.6769 0.6752 0.6732
2864.894391 0.6718 0.6713 0.6710 0.6710 0.6710
2869.338845 0.6710 0.6710 0.6710 0.6710 0.6710
2873.783299 0.6710 0.6710 0.6710 0.6710 0.6710
2878.227753 0.6710 0.6710 0.6710 0.6710 0.6710
2882.672206 0.6710 0.6710 0.6706 0.6696 0.6690
2887.116660 0.6690 0.6688 0.6683 0.6678 0.6673
2891.561114 0.6666 0.6656 0.6648 0.6643 0.6636
2896.005568 0.6626 0.6618 0.6613 0.6605 0.6590
2900.450022 0.6578 0.6573 0.6567 0.6557 0.6548
2904.894475 0.6543 0.6538 0.6533 0.6525 0.6510
2909.338929 0.6500 0.6500 0.6498 0.6493 0.6490
2913.783383 0.6490 0.6487 0.6477 0.6465 0.6450
2918.227837 0.6440 0.6440 0.6438 0.6433 0.6428
2922.672290 0.6423 0.6417 0.6407 0.6393 0.6373
2927.116744 0.6358 0.6353 0.6345 0.6330 0.6317
2931.561198 0.6307 0.6300 0.6300 0.6298 0.6293
2936.005652 0.6290 0.6290 0.6288 0.6283 0.6275
2940.450106 0.6260 0.6245 0.6230 0.6215 0.6200
2944.894559 0.6190 0.6190 0.6190 0.6190 0.6193
2949.339013 0.6203 0.6210 0.6210 0.6212 0.6217
2953.783467 0.6220 0.6220 0.6222 0.6227 0.6230
2958.227921 0.6230 0.6233 0.6243 0.6250 0.6250
2962.672374 0.6250 0.6250 0.6250 0.6250 0.6250
2967.116828 0.6250 0.6250 0.6250 0.6250 0.6250
2971.561282 0.6250 0.6250 0.6250 0.6250 0.6250
2976.005736 0.6250 0.6250 0.6250 0.6247 0.6237
2980.450190 0.6230 0.6230 0.6229 0.6224 0.6220
2984.894643 0.6220 0.6219 0.6214 0.6207 0.6197
2989.339097 0.6189 0.6184 0.6177 0.6167 0.6153
2993.783551 0.6128 0.6102 0.6071 0.6040 0.6005
2998.228005 0.5973 0.5948 0.5898 0.5788 0.5706
3002.672458 0.5691 0.5681 0.5686 0.5694 0.5709
3007.116912 0.5721 0.5726 0.5735 0.5755 0.5770
3011.561366 0.5770 0.5770 0.5770 0.5769 0.5764
3016.005820 0.5682 0.5402 0.5155 0.4990 0.4746
3020.450274 0.4292 0.3945 0.3890 0.3825 0.3730
3024.894727 0.3656 0.3641 0.3631 0.3636 0.3658
3029.339181 0.3728 0.3794 0.3850 0.3934 0.4099
3033.783635 0.4240 0.4315 0.4390 0.4465 0.4542
3038.228089 0.4627 0.4713 0.4803 0.4893 0.4983
3042.672542 0.5072 0.5162 0.5252 0.5342 0.5439
3047.116996 0.5559 0.5677 0.5788 0.5874 0.5889
3051.561450 0.5901 0.5906 0.5909 0.5904 0.5884
3056.005904 0.5819 0.5748 0.5658 0.5565 0.5460
3060.450357 0.5354 0.5244 0.5133 0.5018 0.4928
3064.894811 0.4918 0.4912 0.4922 0.4948 0.5023
3069.339265 0.5098 0.5173 0.5248 0.5323 0.5433
3073.783719 0.5657 0.5830 0.5830 0.5821 0.5781
3078.228173 0.5731 0.5646 0.5557 0.5452 0.5346
3082.672626 0.5236 0.5130 0.5040 0.4968 0.4958
3087.117080 0.4949 0.4944 0.4943 0.4958 0.5088
3091.561534 0.5622 0.6043 0.6058 0.6070 0.6070
3096.005988 0.6060 0.6016 0.5980 0.5980 0.5979
3100.450441 0.5974 0.5970 0.5970 0.5970 0.5970
3104.894895 0.5974 0.5994 0.6021 0.6070 0.6111
3109.339349 0.6116 0.6123 0.6138 0.6151 0.6156
3113.783803 0.6160 0.6160 0.6162 0.6172 0.6180
3118.228257 0.6180 0.6180 0.6180 0.6180 0.6180
3122.672710 0.6180 0.6180 0.6180 0.6180 0.6180
3127.117164 0.6180 0.6180 0.6180 0.6180 0.6180
3131.561618 0.6180 0.6180 0.6180 0.6180 0.6180
3136.006072 0.6180 0.6180 0.6180 0.6180 0.6180
3140.450525 0.6178 0.6168 0.6160 0.6160 0.6159
3144.894979 0.6154 0.6150 0.6150 0.6150 0.6150
3149.339433 0.6149 0.6144 0.6140 0.6140 0.6138
3153.783887 0.6128 0.6120 0.6120 0.6120 0.6120
3158.228341 0.6119 0.6114 0.6110 0.6110 0.6109
3162.672794 0.6104 0.6100 0.6100 0.6100 0.6100
3167.117248 0.6098 0.6088 0.6080 0.6080 0.6079
3171.561702 0.6074 0.6070 0.6070 0.6070 0.6070
3176.006156 0.6068 0.6058 0.6050 0.6050 0.6049
3180.450609 0.6044 0.6039 0.6034 0.6030 0.6030
3184.895063 0.6030 0.6030 0.6029 0.6019 0.6010
3189.339517 0.6010 0.6009 0.6004 0.6000 0.6000
3193.783971 0.5998 0.5988 0.5980 0.5980 0.5980
3198.228425 0.5980 0.5979 0.5974 0.5970 0.5970
3202.672878 0.5969 0.5964 0.5960 0.5960 0.5959
3207.117332 0.5949 0.5940 0.5940 0.5939 0.5934
3211.561786 0.5930 0.5930 0.5930 0.5930 0.5929
3216.006240 0.5919 0.5910 0.5910 0.5909 0.5904
3220.450693 0.5900 0.5900 0.5899 0.5894 0.5889
3224.895147 0.5879 0.5870 0.5870 0.5870 0.5870
3229.339601 0.5870 0.5870 0.5870 0.5870 0.5869
3233.784055 0.5864 0.5860 0.5860 0.5860 0.5860
3238.228508 0.5860 0.5860 0.5859 0.5849 0.5840
3242.672962 0.5840 0.5840 0.5840 0.5840 0.5840
3247.117416 0.5839 0.5834 0.5830 0.5830 0.5830
3251.561870 0.5830 0.5829 0.5824 0.5820 0.5820
3256.006324 0.5820 0.5820 0.5819 0.5809 0.5800
3260.450777 0.5800 0.5800 0.5795 0.5790 0.5790
3264.895231 0.5789 0.5779 0.5770 0.5770 0.5770
3269.339685 0.5765 0.5760 0.5760 0.5760 0.5755
3273.784139 0.5750 0.5750 0.5749 0.5739 0.5730
3278.228592 0.5730 0.5730 0.5725 0.5720 0.5720
3282.673046 0.5720 0.5715 0.5710 0.5710 0.5709
3287.117500 0.5699 0.5690 0.5690 0.5690 0.5685
3291.561954 0.5680 0.5680 0.5679 0.5669 0.5660
3296.006408 0.5655 0.5650 0.5650 0.5650 0.5650
3300.450861 0.5650 0.5645 0.5640 0.5640 0.5639
3304.895315 0.5629 0.5620 0.5620 0.5620 0.5615
3309.339769 0.5610 0.5610 0.5609 0.5599 0.5590
3313.784223 0.5590 0.5590 0.5585 0.5580 0.5580
3318.228676 0.5580 0.5580 0.5580 0.5575 0.5570
3322.673130 0.5570 0.5569 0.5559 0.5550 0.5550
3327.117584 0.5550 0.5545 0.5540 0.5540 0.5540
3331.562038 0.5530 0.5520 0.5520 0.5520 0.5515
3336.006492 0.5510 0.5510 0.5510 0.5505 0.5500
3340.450945 0.5500 0.5500 0.5500 0.5500 0.5490
3344.895399 0.5480 0.5480 0.5480 0.5475 0.5470
3349.339853 0.5470 0.5470 0.5460 0.5450 0.5450
3353.784307 0.5450 0.5445 0.5440 0.5440 0.5440
3358.228760 0.5435 0.5430 0.5420 0.5410 0.5410
3362.673214 0.5410 0.5410 0.5410 0.5405 0.5400
3367.117668 0.5400 0.5400 0.5400 0.5400 0.5390
3371.562122 0.5380 0.5380 0.5380 0.5380 0.5380
3376.006576 0.5375 0.5370 0.5370 0.5370 0.5370
3380.451029 0.5370 0.5365 0.5360 0.5360 0.5360
3384.895483 0.5350 0.5340 0.5340 0.5340 0.5340
3389.339937 0.5340 0.5335 0.5330 0.5330 0.5330
3393.784391 0.5330 0.5330 0.5325 0.5320 0.5320
3398.228844 0.5320 0.5320 0.5320 0.5320 0.5320
3402.673298 0.5320 0.5320 0.5310 0.5300 0.5300
3407.117752 0.5300 0.5300 0.5300 0.5295 0.5290
3411.562206 0.5290 0.5290 0.5290 0.5290 0.5280
3416.006659 0.5270 0.5270 0.5270 0.5270 0.5270
3420.451113 0.5265 0.5260 0.5255 0.5250 0.5250
3424.895567 0.5250 0.5250 0.5250 0.5250 0.5250
3429.340021 0.5240 0.5230 0.5230 0.5230 0.5230
3433.784475 0.5230 0.5225 0.5220 0.5220 0.5220
3438.228928 0.5220 0.5220 0.5210 0.5200 0.5200
3442.673382 0.5200 0.5200 0.5200 0.5195 0.5190
3447.117836 0.5190 0.5190 0.5190 0.5190 0.5185
3451.562290 0.5180 0.5180 0.5180 0.5180 0.5180
3456.006743 0.5170 0.5161 0.5160 0.5160 0.5160
3460.451197 0.5160 0.5155 0.5150 0.5150 0.5150
3464.895651 0.5150 0.5150 0.5140 0.5131 0.5130
3469.340105 0.5130 0.5125 0.5120 0.5120 0.5120
3473.784559 0.5120 0.5120 0.5120 0.5120 0.5115
3478.229012 0.5110 0.5110 0.5110 0.5110 0.5110
3482.673466 0.5101 0.5091 0.5090 0.5090 0.5090
3487.117920 0.5090 0.5085 0.5080 0.5080 0.5080
3491.562374 0.5080 0.5080 0.5071 0.5061 0.5060
3496.006827 0.5060 0.5060 0.5060 0.5055 0.5050
3500.451281 0.5050 0.5050 0.5050 0.5050 0.5045
3504.895735 0.5040 0.5040 0.5040 0.5040 0.5040
3509.340189 0.5031 0.5021 0.5015 0.5010 0.5010
3513.784643 0.5010 0.5010 0.5010 0.5010 0.5010
3518.229096 0.5010 0.5010 0.5010 0.5010 0.5005
3522.673550 0.5000 0.5000 0.5000 0.5000 0.5000
3527.118004 0.5000 0.5000 0.5000 0.5000 0.5000
3531.562458 0.5000 0.4991 0.4981 0.4980 0.4980
3536.006911 0.4980 0.4980 0.4980 0.4980 0.4980
3540.451365 0.4980 0.4976 0.4971 0.4970 0.4970
3544.895819 0.4961 0.4951 0.4950 0.4950 0.4945
3549.340273 0.4941 0.4940 0.4940 0.4936 0.4931
3553.784727 0.4930 0.4930 0.4921 0.4911 0.4910
3558.229180 0.4910 0.4906 0.4901 0.4891 0.4881
3562.673634 0.4880 0.4880 0.4876 0.4871 0.4870
3567.118088 0.4870 0.4866 0.4861 0.4860 0.4860
3571.562542 0.4851 0.4841 0.4840 0.4840 0.4827
3576.006995 0.4812 0.4810 0.4810 0.4810 0.4810
3580.451449 0.4810 0.4810 0.4810 0.4810 0.4806
3584.895903 0.4801 0.4800 0.4800 0.4800 0.4800
3589.340357 0.4800 0.4800 0.4796 0.4791 0.4790
3593.784810 0.4790 0.4790 0.4790 0.4790 0.4790
3598.229264 0.4790 0.4790 0.4781 0.4771 0.4770
3602.673718 0.4770 0.4770 0.4770 0.4770 0.4770
3607.118172 0.4766 0.4761 0.4760 0.4760 0.4760
3611.562626 0.4760 0.4760 0.4760 0.4752 0.4742
3616.007079 0.4740 0.4740 0.4740 0.4740 0.4740
3620.451533 0.4740 0.4740 0.4740 0.4736 0.4731
3624.895987 0.4730 0.4730 0.4730 0.4730 0.4730
3629.340441 0.4730 0.4726 0.4721 0.4720 0.4720
3633.784894 0.4720 0.4720 0.4712 0.4702 0.4700
3638.229348 0.4700 0.4700 0.4700 0.4696 0.4691
3642.673802 0.4690 0.4690 0.4682 0.4672 0.4670
3647.118256 0.4670 0.4666 0.4661 0.4660 0.4660
3651.562710 0.4656 0.4651 0.4642 0.4632 0.4630
3656.007163 0.4630 0.4630 0.4630 0.4630 0.4630
3660.451617 0.4630 0.4630 0.4626 0.4621 0.4620
3664.896071 0.4620 0.4620 0.4620 0.4620 0.4620
3669.340525 0.4620 0.4620 0.4616 0.4611 0.4610
3673.784978 0.4610 0.4610 0.4610 0.4602 0.4592
3678.229432 0.4590 0.4590 0.4590 0.4590 0.4590
3682.673886 0.4590 0.4586 0.4581 0.4580 0.4580
3687.118340 0.4580 0.4580 0.4572 0.4562 0.4560
3691.562794 0.4560 0.4560 0.4560 0.4556 0.4551
3696.007247 0.4550 0.4550 0.4550 0.4550 0.4550
3700.451701 0.4550 0.4546 0.4541 0.4540 0.4540
3704.896155 0.4540 0.4540 0.4532 0.4522 0.4520
3709.340609 0.4520 0.4516 0.4511 0.4510 0.4510
3713.785062 0.4510 0.4510 0.4510 0.4510 0.4502
3718.229516 0.4492 0.4490 0.4490 0.4490 0.4490
3722.673970 0.4490 0.4490 0.4486 0.4481 0.4480
3727.118424 0.4480 0.4480 0.4480 0.4480 0.4480
3731.562878 0.4476 0.4471 0.4470 0.4470 0.4462
3736.007331 0.4452 0.4450 0.4450 0.4450 0.4450
3740.451785 0.4450 0.4450 0.4450 0.4450 0.4450
3744.896239 0.4450 0.4446 0.4441 0.4440 0.4440
3749.340693 0.4440 0.4440 0.4440 0.4440 0.4440
3753.785146 0.4440 0.4433 0.4423 0.4420 0.4420
3758.229600 0.4420 0.4420 0.4420 0.4420 0.4416
3762.674054 0.4411 0.4410 0.4410 0.4410 0.4410
3767.118508 0.4406 0.4401 0.4400 0.4400 0.4400
3771.562961 0.4400 0.4393 0.4383 0.4380 0.4380
3776.007415 0.4380 0.4380 0.4376 0.4371 0.4370
3780.451869 0.4370 0.4370 0.4370 0.4363 0.4353
3784.896323 0.4350 0.4350 0.4350 0.4350 0.4346
3789.340777 0.4341 0.4340 0.4340 0.4340 0.4340
3793.785230 0.4336 0.4331 0.4330 0.4330 0.4330
3798.229684 0.4330 0.4323 0.4313
##END=
