##TITLE=3-Ethoxy-4-methoxyphenylacetonitrile
##JCAMP-DX=4.24
##DATA TYPE=INFRARED SPECTRUM
##ORIGIN=EPA-IR VAPOR PHASE LIBRARY
##OWNER=SRD/NIST
Collection (C) 2018 copyright by the U.S. Secretary of Commerce
on behalf of the United States of America. All rights reserved.
##CAS REGISTRY NO=103796-99-2
##MOLFORM=C 11 H 13 N O 2
##$NIST SOURCE=MSDC-IR
##STATE=gas
##XUNITS=1/CM
##YUNITS=ABSORBANCE
##XFACTOR=1.
##YFACTOR=0.001
##DELTAX=1.92898
##FIRSTX=549.8
##LASTX=4000.7
##FIRSTY=2.183
##MAXX=4000.7
##MINX=549.759
##MAXY=0.133273
##MINY=0
##NPOINTS=1790
##XYDATA=(X++(Y..Y))
549.759 2.183 2.033 1.893 1.993 2.053 1.803 2.123 2.393 2.223 2.483
569.049 2.693 2.783 2.893 2.873 2.873 3.013 3.203 3.393 3.553 3.453
588.339 3.513 3.743 3.703 3.723 3.673 3.553 3.423 3.563 3.703 3.613
607.628 3.623 3.553 3.503 3.393 3.603 3.793 3.693 3.723 3.743 3.513
626.918 3.273 3.113 3.063 3.133 2.913 2.763 2.683 2.533 2.443 2.263
646.208 2.093 1.933 1.763 1.553 1.433 1.353 1.343 1.2354 1.363 1.413
665.498 1.0196 0.9631 1.0241 1.1838 1.443 1.483 1.2503 1.2402 1.503 1.593
684.787 1.583 1.653 1.893 2.023 1.933 1.933 2.023 2.023 1.913 1.973
704.077 2.123 2.213 2.313 2.493 2.603 2.623 2.793 3.133 3.413 3.593
723.367 3.823 3.963 4.243 4.443 4.593 4.733 4.883 5.203 5.353 5.473
742.657 5.683 5.993 6.373 6.653 7.053 7.553 7.883 8.353 8.853 9.183
761.947 9.443 9.443 9.303 9.043 8.733 8.383 7.783 7.133 6.943 6.823
781.236 6.593 6.623 6.893 7.673 8.613 9.623 10.793 11.873 12.983 14.063
800.526 15.173 15.953 16.363 16.463 16.463 16.493 16.293 15.933 15.363 14.413
819.816 13.323 12.213 11.043 9.853 8.723 7.813 6.983 6.403 5.993 5.723
839.106 5.713 5.633 5.513 5.723 6.013 6.163 6.143 6.023 6.213 6.373
858.395 6.513 6.603 6.433 6.553 6.753 6.753 6.773 7.053 7.173 7.163
877.685 7.253 7.163 6.983 6.783 6.483 6.163 5.813 5.553 5.433 5.283
896.975 5.113 5.103 5.113 5.083 5.243 5.413 5.663 5.983 6.253 6.473
916.265 6.803 7.113 7.203 7.263 7.163 7.063 7.113 7.053 6.883 6.623
935.555 6.203 5.813 5.513 5.233 5.143 5.063 4.983 5.053 5.063 5.153
954.844 5.373 5.853 6.463 7.063 7.543 7.913 8.573 9.243 9.833 10.203
974.134 10.573 10.713 10.563 10.553 10.423 10.293 10.073 9.903 10.043 10.223
993.424 10.573 11.163 11.973 12.973 14.363 16.253 18.043 20.073 22.823 26.023
1012.714 29.343 33.003 36.663 40.343 44.163 47.393 50.413 53.253 55.793 58.283
1032.003 60.553 62.133 62.703 61.883 60.273 57.963 54.313 49.773 44.943 39.703
1051.293 34.673 30.433 26.403 22.583 19.773 17.703 15.673 13.893 12.853 12.003
1070.583 11.473 11.203 10.833 10.963 11.203 11.533 12.033 12.333 12.393 12.773
1089.873 13.303 13.353 13.083 13.093 13.043 12.743 13.103 13.813 14.863 16.173
1109.163 17.483 19.273 21.553 24.563 27.853 31.583 35.893 39.643 42.823 45.683
1128.452 48.153 50.103 51.443 51.933 51.893 51.333 50.653 49.713 48.303 46.943
1147.742 45.433 43.593 41.563 39.223 36.883 34.683 32.163 29.473 26.953 24.603
1167.032 22.473 20.893 19.603 18.433 17.743 16.943 16.343 15.963 15.543 15.203
1186.322 14.983 14.693 14.453 14.933 15.033 15.253 15.973 16.833 17.963 19.443
1205.611 21.503 23.643 26.323 30.093 33.713 37.253 41.433 45.813 49.893 53.723
1224.901 57.383 60.643 63.273 65.313 66.583 66.673 66.513 65.883 64.903 64.313
1244.191 63.783 64.073 65.593 67.903 71.313 76.113 82.013 88.853 96.333 104.023
1263.481 111.213 117.483 122.503 125.383 126.393 125.463 122.343 117.493 111.363 104.333
1282.771 96.923 89.453 82.283 75.573 69.213 63.543 58.603 54.263 50.483 47.233
1302.060 44.433 41.903 39.653 37.673 35.813 34.003 32.233 30.423 28.643 26.963
1321.350 25.243 23.513 21.823 20.253 18.793 17.473 16.273 15.123 14.073 13.113
1340.640 12.243 11.503 10.883 10.273 9.753 9.383 9.103 8.913 8.873 8.943
1359.930 9.023 9.113 9.223 9.373 9.603 9.883 10.293 10.943 11.913 13.173
1379.219 14.763 16.533 18.343 20.113 21.543 22.613 23.333 23.453 23.033 22.243
1398.509 21.223 20.133 19.183 18.453 18.073 18.183 18.793 20.003 21.843 24.303
1417.799 27.183 30.443 33.943 37.223 39.763 41.313 41.763 41.083 39.753 37.983
1437.089 35.983 34.463 33.533 32.933 32.253 31.223 29.863 28.103 25.763 23.473
1456.378 21.793 20.743 20.353 20.433 20.653 20.853 21.103 21.353 21.633 22.013
1475.668 22.483 23.073 23.783 24.773 26.273 28.193 30.673 34.013 38.513 44.393
1494.958 52.023 61.693 73.323 86.383 99.953 112.803 123.543 130.733 133.273 130.773
1514.248 123.473 112.183 98.123 83.153 68.703 56.173 45.653 37.213 30.633 25.553
1533.538 21.683 18.733 16.483 14.693 13.333 12.223 11.413 10.803 10.213 9.803
1552.827 9.533 9.363 9.333 9.353 9.463 9.703 10.073 10.593 11.313 12.193
1572.117 13.203 14.383 15.523 16.523 17.443 18.233 18.703 18.873 18.743 18.343
1591.407 17.923 17.473 17.133 16.943 16.843 16.953 16.983 16.823 16.533 15.993
1610.697 15.243 14.233 12.933 11.503 10.073 8.643 7.393 6.413 5.653 5.103
1629.986 4.683 4.343 4.053 3.843 3.653 3.483 3.353 3.293 3.173 3.053
1649.276 2.983 2.933 2.923 2.853 2.793 2.673 2.583 2.543 2.493 2.533
1668.566 2.553 2.503 2.393 2.313 2.343 2.323 2.263 2.283 2.293 2.283
1687.856 2.253 2.193 2.153 2.103 2.053 2.063 2.093 2.083 2.003 1.963
1707.146 1.983 1.983 1.963 1.983 2.023 1.993 2.023 2.053 2.033 1.993
1726.435 1.963 1.973 1.993 1.983 1.943 1.943 1.993 2.023 2.063 2.053
1745.725 1.973 1.933 1.973 2.063 2.023 1.983 1.983 1.983 2.003 1.993
1765.015 1.973 1.963 1.993 2.013 1.993 1.993 1.983 1.923 1.913 1.913
1784.305 1.883 1.903 1.873 1.853 1.853 1.813 1.783 1.763 1.763 1.723
1803.594 1.643 1.603 1.623 1.593 1.593 1.613 1.613 1.573 1.543 1.583
1822.884 1.623 1.633 1.603 1.603 1.643 1.713 1.783 1.793 1.813 1.863
1842.174 1.893 1.943 2.033 2.033 2.023 2.103 2.173 2.233 2.343 2.403
1861.464 2.393 2.383 2.383 2.353 2.393 2.453 2.463 2.453 2.463 2.473
1880.754 2.453 2.413 2.413 2.393 2.383 2.363 2.283 2.253 2.213 2.163
1900.043 2.143 2.173 2.123 2.073 2.063 2.013 1.983 1.913 1.833 1.833
1919.333 1.843 1.803 1.693 1.603 1.623 1.633 1.593 1.543 1.553 1.553
1938.623 1.483 1.443 1.403 1.353 1.423 1.413 1.353 1.413 1.433 1.443
1957.913 1.443 1.473 1.493 1.493 1.523 1.553 1.583 1.583 1.603 1.653
1977.202 1.673 1.693 1.753 1.813 1.803 1.823 1.893 1.943 2.073 2.093
1996.492 2.073 2.173 2.263 2.313 2.443 2.523 2.553 2.623 2.693 2.733
2015.782 2.803 2.873 2.923 2.963 3.013 3.133 3.173 3.133 3.093 3.023
2035.072 2.933 2.903 2.823 2.683 2.633 2.553 2.463 2.433 2.343 2.283
2054.362 2.283 2.223 2.203 2.173 2.113 2.073 2.033 2.013 1.913 1.793
2073.651 1.773 1.743 1.683 1.583 1.493 1.443 1.373 1.2752 1.283 1.2628
2092.941 1.217 1.1888 1.1577 1.1133 1.125 1.1481 1.1279 1.1038 1.0821 1.0853
2112.231 1.0758 1.1086 1.1487 1.1689 1.1484 1.1349 1.1703 1.1259 1.071 1.1153
2131.521 1.1424 1.0892 1.0821 1.0833 1.0933 1.0997 1.1331 1.1957 1.1428 1.0894
2150.810 1.1158 1.0808 1.0563 1.0974 1.1185 1.1478 1.1054 1.1192 1.1345 1.1176
2170.100 1.1155 1.1037 1.0983 1.0437 1.0308 0.9967 0.9482 1.0006 1.0348 1.0174
2189.390 1.0356 0.987 0.9421 0.9612 0.9613 1.0118 1.0202 0.9585 0.9768 0.9999
2208.680 0.9599 0.9301 0.9529 0.9908 0.956 0.9585 1.0075 1.059 1.1713 1.237
2227.970 1.2608 1.293 1.323 1.353 1.453 1.593 1.723 1.813 1.983 2.193
2247.259 2.293 2.453 2.653 2.783 2.893 2.903 2.763 2.553 2.423 2.353
2266.549 2.283 2.183 1.993 1.883 1.843 1.773 1.713 1.673 1.593 1.543
2285.839 1.553 1.473 1.383 1.343 1.313 1.333 1.343 1.2758 1.2434 1.2409
2305.129 1.232 1.2151 1.1622 1.192 1.1796 1.0715 1.058 1.0977 1.1369 1.0931
2324.418 1.0182 1.0155 1.0384 1.1057 1.0872 1.0424 1.1062 1.1502 1.093 1.0905
2343.708 1.1392 1.1669 1.2351 1.2176 1.1802 1.1922 1.1886 1.1896 1.1785 1.1896
2362.998 1.2001 1.1814 1.143 1.0907 1.1289 1.1933 1.1293 1.0911 1.1534 1.1301
2382.288 1.0988 1.0706 1.0558 1.1345 1.1703 1.1409 1.1086 1.118 1.0796 1.0555
2401.578 1.1188 1.1836 1.2271 1.2166 1.164 1.1466 1.1888 1.2057 1.2334 1.2794
2420.867 1.2739 1.2267 1.2325 1.2415 1.224 1.2016 1.1427 1.1563 1.1549 1.1783
2440.157 1.2267 1.1512 1.1302 1.142 1.0446 1.0454 1.0943 1.1157 1.0828 1.0739
2459.447 1.1008 1.0382 1.0474 1.0747 1.1223 1.169 1.1768 1.2296 1.2467 1.205
2478.737 1.2325 1.2503 1.2119 1.1803 1.224 1.313 1.313 1.258 1.293 1.343
2498.026 1.383 1.413 1.373 1.383 1.433 1.393 1.393 1.463 1.573 1.613
2517.316 1.533 1.473 1.523 1.583 1.563 1.613 1.723 1.813 1.833 1.883
2536.606 1.883 1.823 1.913 2.023 2.093 2.113 2.113 2.153 2.233 2.303
2555.896 2.263 2.253 2.263 2.213 2.183 2.253 2.313 2.253 2.153 2.133
2575.186 2.113 2.093 2.093 2.113 2.083 2.043 2.003 1.943 1.933 1.933
2594.475 1.983 1.873 1.743 1.733 1.733 1.653 1.523 1.553 1.623 1.613
2613.765 1.533 1.473 1.513 1.543 1.463 1.383 1.403 1.333 1.2476 1.282
2633.055 1.303 1.303 1.2606 1.2381 1.2329 1.1564 1.1496 1.1628 1.0673 1.0685
2652.345 1.1267 1.151 1.1783 1.1772 1.1028 1.0238 1.0397 1.0388 0.9742 0.9983
2671.634 1.0762 1.1264 1.114 1.0157 1.0661 1.1231 1.0241 1.0887 1.223 1.2556
2690.924 1.2147 1.2349 1.293 1.323 1.393 1.363 1.303 1.303 1.483 1.523
2710.214 1.433 1.533 1.643 1.563 1.523 1.613 1.683 1.693 1.733 1.803
2729.504 1.833 1.823 1.853 1.903 1.893 1.833 1.823 1.903 1.953 1.943
2748.794 1.973 1.973 1.973 1.983 2.033 2.053 2.073 2.073 2.133 2.293
2768.083 2.263 2.213 2.153 2.163 2.333 2.423 2.453 2.503 2.573 2.573
2787.373 2.583 2.683 2.803 2.823 2.863 2.963 3.073 3.293 3.443 3.483
2806.663 3.653 3.923 4.133 4.343 4.653 5.043 5.333 5.713 6.323 6.873
2825.953 7.543 8.373 9.343 10.603 11.963 13.333 14.793 16.083 16.923 17.193
2845.242 17.073 16.613 15.793 14.673 13.563 12.653 11.813 11.223 10.883 10.763
2864.532 10.813 10.923 11.233 11.663 12.163 12.883 13.623 14.353 15.083 15.783
2883.822 16.523 17.233 17.813 18.273 18.593 18.893 19.313 19.653 19.983 20.463
2903.112 21.073 21.873 22.583 23.293 24.113 24.923 25.763 26.423 27.093 27.703
2922.401 28.373 29.163 29.973 31.043 32.363 33.853 35.413 37.063 38.413 39.213
2941.691 39.743 39.843 39.263 38.323 37.063 35.483 33.913 32.603 31.513 30.563
2960.981 29.913 29.353 28.893 28.843 29.143 29.603 30.213 31.173 32.323 33.433
2980.271 34.613 35.553 36.363 37.033 37.073 36.663 35.873 34.653 32.993 31.113
2999.561 29.423 28.113 26.963 25.753 24.623 23.243 21.653 20.053 18.343 16.523
3018.850 14.813 13.403 12.533 12.033 11.643 11.273 10.953 10.943 10.883 10.813
3038.140 10.923 10.903 10.833 10.843 10.763 10.703 10.633 10.423 10.143 9.883
3057.430 9.533 9.203 9.013 8.613 8.123 7.813 7.433 7.013 6.723 6.343
3076.720 5.913 5.603 5.383 5.193 4.893 4.503 4.293 4.113 3.893 3.713
3096.009 3.513 3.353 3.233 3.193 3.133 2.883 2.753 2.743 2.593 2.583
3115.299 2.563 2.433 2.353 2.473 2.553 2.353 2.123 2.003 2.003 2.003
3134.589 1.913 1.873 1.803 1.713 1.643 1.453 1.393 1.373 1.403 1.383
3153.879 1.383 1.553 1.453 1.293 1.333 1.2502 1.333 1.373 1.214 1.283
3173.169 1.333 1.2507 1.2765 1.453 1.473 1.313 1.2054 1.1753 1.1936 1.1398
3192.458 1.1384 1.313 1.413 1.2747 1.1213 0.9908 0.8924 0.8679 0.9554 1.0608
3211.748 0.92 0.8828 0.8576 0.8921 0.9547 0.8927 0.8451 0.8882 0.9678 0.9537
3231.038 0.9302 0.7993 0.7103 0.7531 0.7279 0.7173 0.6936 0.6326 0.6236 0.6283
3250.328 0.6194 0.529 0.4476 0.4011 0.4205 0.4564 0.4173 0.3933 0.5109 0.5534
3269.617 0.4573 0.4307 0.4663 0.4414 0.4045 0.4661 0.4333 0.4554 0.541 0.5024
3288.907 0.4199 0.4044 0.4531 0.5041 0.5709 0.5778 0.46 0.4511 0.5329 0.3935
3308.197 0.32047 0.4852 0.6086 0.5344 0.4299 0.4404 0.484 0.5106 0.5516 0.5718
3327.487 0.5192 0.4824 0.5247 0.5154 0.4696 0.5143 0.5831 0.4366 0.2809 0.2425
3346.777 0.27856 0.4501 0.4891 0.4494 0.4951 0.4782 0.3834 0.2417 0.2138 0.286333
3366.066 0.32337 0.3995 0.4513 0.37691 0.30267 0.36908 0.4196 0.35069 0.2669 0.27777
3385.356 0.3085 0.4169 0.4868 0.4431 0.3945 0.35581 0.37735 0.3676 0.35563 0.33343
3404.646 0.35578 0.4427 0.31185 0.2157 0.4495 0.4611 0.30968 0.282848 0.32418 0.4359
3423.936 0.4427 0.38275 0.36918 0.32031 0.3164 0.27882 0.2657 0.28048 0.2611 0.31589
3443.225 0.34041 0.275 0.27637 0.3693 0.4539 0.37264 0.2179 0.1839 0.084 0.1839
3462.515 0.33976 0.31969 0.358 0.34173 0.2657 0.31254 0.31408 0.2709 0.29432 0.3474
3481.805 0.284865 0.1906 0.35192 0.4066 0.31917 0.30343 0.2566 0.2566 0.27822 0.3895
3501.095 0.37939 0.34491 0.4444 0.491 0.4658 0.3344 0.27908 0.27314 0.2344 0.33467
3520.385 0.4791 0.4265 0.4447 0.4371 0.33737 0.3942 0.287788 0.2225 0.31877 0.35958
3539.674 0.31409 0.3084 0.3892 0.31602 0.1878 0.1926 0.228 0.2609 0.30048 0.32192
3558.964 0.31958 0.2347 0.212 0.32046 0.35829 0.31602 0.31684 0.37626 0.3865 0.2709
3578.254 0.2634 0.2534 0.134 0.148 0.141 0.2342 0.2718 0.2088 0.2217 0.155
3597.544 0.1919 0.257 0.2721 0.142 0.181 0.4041 0.29652 0.059 0 0.122
3616.833 0.27947 0.36616 0.36345 0.31037 0.2725 0.2239 0.2083 0.2299 0.2194 0.282838
3636.123 0.3933 0.4289 0.36078 0.2478 0.2355 0.2577 0.2585 0.31602 0.35414 0.32349
3655.413 0.4636 0.458 0.29663 0.33366 0.4842 0.4742 0.4044 0.32245 0.2307 0.2327
3674.703 0.2275 0.30304 0.31102 0.2224 0.2385 0.2156 0.2048 0.2699 0.2534 0.4618
3693.993 0.5511 0.4047 0.290419 0.2016 0.203 0.29529 0.34019 0.34525 0.27666 0.2177
3713.282 0.4124 0.4474 0.3841 0.4113 0.34205 0.30444 0.3864 0.4148 0.34651 0.4284
3732.572 0.4228 0.2472 0.2224 0.3124 0.37411 0.3984 0.4239 0.441 0.399 0.35081
3751.862 0.3902 0.4527 0.4414 0.4395 0.4214 0.4609 0.4644 0.3976 0.4817 0.4311
3771.152 0.4186 0.6125 0.6261 0.5478 0.6454 0.7087 0.568 0.5094 0.6698 0.5346
3790.441 0.318 0.31851 0.3918 0.4229 0.34475 0.4299 0.4178 0.37585 0.37777 0.32336
3809.731 0.34874 0.41 0.37208 0.30297 0.31043 0.37909 0.6129 0.6061 0.5853 0.6719
3829.021 0.5781 0.5065 0.5062 0.4185 0.4243 0.5063 0.30593 0.285567 0.4287 0.453
3848.311 0.5597 0.5871 0.4048 0.4788 0.5691 0.5067 0.36767 0.36947 0.5757 0.689
3867.601 0.6458 0.4015 0.3925 0.5801 0.5706 0.4762 0.6198 0.5834 0.4101 0.36998
3886.890 0.32481 0.34773 0.37116 0.36923 0.4254 0.3924 0.35772 0.38147 0.3899 0.505
3906.180 0.5984 0.6166 0.429 0.31304 0.3898 0.3303 0.2211 0.2207 0.2331 0.27549
3925.470 0.4868 0.567 0.4376 0.4265 0.31767 0.2484 0.28189 0.4206 0.5655 0.5347
3944.760 0.5738 0.5264 0.6296 0.6394 0.5644 0.67 0.5906 0.5064 0.5432 0.554
3964.049 0.514 0.5693 0.6312 0.6505 0.7198 0.6283 0.6079 0.7315 0.6393 0.6294
3983.339 0.6857 0.6986 0.7851 0.7754 0.6738 0.685 0.673 0.579 0.4432 0.5597
##END=
