##TITLE=PHENETOLE
##JCAMP-DX=4.24
##DATA TYPE=INFRARED SPECTRUM
##CLASS=COBLENTZ III
##ORIGIN=WESTERN REGIONAL RES. USDA
##OWNER=COBLENTZ SOCIETY
Collection (C) 2018 copyright by the U.S. Secretary of Commerce
on behalf of the United States of America. All rights reserved.
##DATE=1964/06/08
##NAMES=ethyl phenyl ether
ethoxybenzene
##CAS REGISTRY NO=103-73-1
##MOLFORM=C8 H10 O
##BP=170 C
##SOURCE REFERENCE=COBLENTZ NO. 6191
##$NIST SOURCE=COBLENTZ
##$NIST IMAGE=cob6191
##SPECTROMETER/DATA SYSTEM=BECKMAN IR-7 (GRATING)
##INSTRUMENT PARAMETERS=GRATING CHANGES AT 3000, 2200, 1150 CM^-^1
##STATE=SOLUTION (10% IN CCl4 FOR 4000-1330 CM^-^1, 10% IN CS2 FOR 1330-600 CM^-^1)
##PATH LENGTH=0.011 CM, 0.010 CM
$$SPECTRAL CONTAMINATION DUE TO CCl4 AROUND 1550, AND CS2 AROUND 855 CM^-^1
##SAMPLING PROCEDURE=TRANSMISSION
##RESOLUTION=4
##DATA PROCESSING=DIGITIZED BY NIST FROM HARD COPY (FROM TWO SEGMENTS)
##XUNITS=1/CM
##YUNITS=TRANSMITTANCE
##XFACTOR=1.000000
##YFACTOR=1
##DELTAX=0.650559
##FIRSTX=596.097
##LASTX=3988.76
##FIRSTY=0.856
##MAXX=3988.76
##MINX=596.097
##MAXY=0.875
##MINY=0.006
##NPOINTS=5216
##XYDATA=(X++(Y..Y))
596.097000 0.8560 0.8580 0.8600 0.8560 0.8580
599.349794 0.8600 0.8620 0.8630 0.8650 0.8670
602.602588 0.8680 0.8690 0.8700 0.8710 0.8720
605.855382 0.8720 0.8720 0.8720 0.8700 0.8680
609.108176 0.8620 0.8540 0.8440 0.8380 0.8360
612.360970 0.8360 0.8350 0.8360 0.8360 0.8390
615.613764 0.8420 0.8440 0.8460 0.8490 0.8520
618.866558 0.8540 0.8580 0.8600 0.8610 0.8610
622.119352 0.8610 0.8610 0.8610 0.8610 0.8590
625.372146 0.8580 0.8580 0.8560 0.8540 0.8520
628.624940 0.8520 0.8510 0.8500 0.8490 0.8470
631.877734 0.8470 0.8460 0.8450 0.8430 0.8420
635.130528 0.8420 0.8400 0.8380 0.8370 0.8360
638.383321 0.8350 0.8330 0.8320 0.8290 0.8250
641.636115 0.8220 0.8190 0.8160 0.8140 0.8110
644.888909 0.8090 0.8060 0.8040 0.8000 0.7970
648.141703 0.7930 0.7890 0.7840 0.7790 0.7730
651.394497 0.7680 0.7680 0.7670 0.7670 0.7670
654.647291 0.7670 0.7680 0.7680 0.7700 0.7710
657.900085 0.7710 0.7690 0.7680 0.7660 0.7620
661.152879 0.7570 0.7500 0.7460 0.7430 0.7430
664.405673 0.7430 0.7450 0.7560 0.7640 0.7650
667.658467 0.7660 0.7650 0.7640 0.7630 0.7600
670.911261 0.7560 0.7520 0.7470 0.7420 0.7360
674.164055 0.7310 0.7250 0.7180 0.7100 0.7010
677.416849 0.6960 0.6870 0.6641 0.5962 0.5592
680.669643 0.5260 0.4899 0.3910 0.3370 0.2830
683.922437 0.2570 0.2310 0.2061 0.1801 0.1411
687.175231 0.1070 0.0740 0.0410 0.0410 0.0410
690.428025 0.0420 0.1168 0.1539 0.1540 0.2427
693.680819 0.2910 0.3170 0.3430 0.4240 0.5349
696.933613 0.5879 0.6150 0.6409 0.6769 0.7039
700.186407 0.7160 0.7260 0.7340 0.7410 0.7460
703.439201 0.7500 0.7540 0.7560 0.7590 0.7610
706.691995 0.7630 0.7660 0.7690 0.7730 0.7760
709.944789 0.7760 0.7770 0.7770 0.7790 0.7790
713.197583 0.7800 0.7800 0.7800 0.7810 0.7820
716.450377 0.7820 0.7820 0.7820 0.7820 0.7810
719.703171 0.7800 0.7770 0.7750 0.7730 0.7710
722.955964 0.7700 0.7680 0.7660 0.7640 0.7610
726.208758 0.7590 0.7550 0.7500 0.7460 0.7390
729.461552 0.7320 0.7250 0.7150 0.7040 0.7020
732.714346 0.6960 0.6850 0.6710 0.6550 0.6370
735.967140 0.5961 0.5740 0.5521 0.5311 0.5091
739.219934 0.4880 0.4560 0.4200 0.3820 0.3460
742.472728 0.2701 0.2161 0.1461 0.1390 0.1290
745.725522 0.1120 0.0950 0.0780 0.0610 0.0440
748.978316 0.0280 0.0120 0.0110 0.0100 0.0100
752.231110 0.0110 0.0331 0.0810 0.1040 0.1240
755.483904 0.1340 0.1700 0.2149 0.2659 0.2860
758.736698 0.3061 0.4040 0.4610 0.4890 0.4970
761.989492 0.4970 0.4980 0.5120 0.5170 0.5210
765.242286 0.5270 0.5370 0.5520 0.5720 0.5970
768.495080 0.6120 0.6260 0.6479 0.6659 0.6720
771.747874 0.6830 0.6910 0.6980 0.7040 0.7090
775.000668 0.7130 0.7160 0.7190 0.7230 0.7250
778.253462 0.7270 0.7270 0.7280 0.7280 0.7270
781.506256 0.7250 0.7220 0.7180 0.7120 0.7090
784.759050 0.7010 0.6870 0.6760 0.6660 0.6510
788.011844 0.5950 0.5441 0.5330 0.5250 0.5041
791.264638 0.4820 0.4610 0.4390 0.4180 0.3730
794.517432 0.3710 0.3710 0.3710 0.3710 0.3720
797.770226 0.4080 0.5060 0.5969 0.6390 0.6799
801.023020 0.7000 0.7140 0.7250 0.7320 0.7380
804.275814 0.7430 0.7450 0.7460 0.7480 0.7490
807.528607 0.7500 0.7520 0.7530 0.7550 0.7560
810.781401 0.7570 0.7590 0.7600 0.7610 0.7630
814.034195 0.7640 0.7660 0.7670 0.7680 0.7680
817.286989 0.7690 0.7690 0.7700 0.7690 0.7680
820.539783 0.7670 0.7660 0.7630 0.7600 0.7570
823.792577 0.7560 0.7550 0.7550 0.7540 0.7550
827.045371 0.7550 0.7590 0.7620 0.7660 0.7700
830.298165 0.7730 0.7770 0.7790 0.7820 0.7840
833.550959 0.7880 0.7880 0.7890 0.7890 0.7890
836.803753 0.7890 0.7870 0.7860 0.7820 0.7790
840.056547 0.7750 0.7710 0.7670 0.7630 0.7580
843.309341 0.7540 0.7490 0.7440 0.7390 0.7350
846.562135 0.7300 0.7260 0.7220 0.7180 0.7140
849.814929 0.7110 0.7070 0.7050 0.7020 0.6990
853.067723 0.6980 0.6970 0.6960 0.6960 0.6950
856.320517 0.6950 0.6950 0.6960 0.6960 0.6980
859.573311 0.6980 0.6990 0.6990 0.7000 0.7000
862.826105 0.7000 0.7000 0.6990 0.6980 0.6980
866.078899 0.6960 0.6920 0.6870 0.6800 0.6730
869.331693 0.6640 0.6550 0.6430 0.6300 0.5990
872.584487 0.5810 0.5610 0.5380 0.5141 0.4871
875.837281 0.4569 0.4120 0.3940 0.3780 0.3760
879.090075 0.3750 0.3760 0.4259 0.4589 0.5338
882.342869 0.5810 0.6010 0.6190 0.6490 0.6730
885.595663 0.6910 0.7030 0.7120 0.7180 0.7230
888.848457 0.7270 0.7320 0.7370 0.7380 0.7390
892.101250 0.7380 0.7330 0.7280 0.7230 0.7160
895.354044 0.7090 0.7020 0.6960 0.6890 0.6820
898.606838 0.6820 0.6820 0.6940 0.6980 0.7050
901.859632 0.7160 0.7280 0.7330 0.7370 0.7430
905.112426 0.7460 0.7540 0.7550 0.7550 0.7540
908.365220 0.7520 0.7460 0.7420 0.7340 0.7250
911.618014 0.7130 0.6980 0.6820 0.6630 0.6420
914.870808 0.5930 0.5650 0.5350 0.5030 0.4680
918.123602 0.4320 0.3931 0.3511 0.3390 0.3380
921.376396 0.3391 0.3860 0.4050 0.4320 0.4950
924.629190 0.5460 0.5780 0.6100 0.6469 0.6670
927.881984 0.6820 0.7000 0.7320 0.7410 0.7490
931.134778 0.7560 0.7620 0.7680 0.7730 0.7770
934.387572 0.7800 0.7840 0.7860 0.7880 0.7880
937.640366 0.7910 0.7930 0.7960 0.7990 0.8020
940.893160 0.8050 0.8070 0.8090 0.8110 0.8120
944.145954 0.8130 0.8130 0.8140 0.8150 0.8150
947.398748 0.8150 0.8140 0.8130 0.8130 0.8130
950.651542 0.8130 0.8150 0.8160 0.8170 0.8180
953.904336 0.8200 0.8210 0.8220 0.8230 0.8240
957.157130 0.8240 0.8240 0.8250 0.8250 0.8260
960.409924 0.8260 0.8260 0.8260 0.8260 0.8250
963.662718 0.8250 0.8240 0.8240 0.8210 0.8180
966.915512 0.8150 0.8130 0.8070 0.8070 0.8060
970.168306 0.8070 0.8070 0.8120 0.8160 0.8220
973.421100 0.8240 0.8260 0.8260 0.8270 0.8270
976.673893 0.8280 0.8280 0.8290 0.8290 0.8290
979.926687 0.8290 0.8290 0.8280 0.8280 0.8270
983.179481 0.8250 0.8250 0.8240 0.8240 0.8230
986.432275 0.8220 0.8210 0.8170 0.8150 0.8130
989.685069 0.8100 0.8080 0.8040 0.7990 0.7920
992.937863 0.7830 0.7700 0.7550 0.7340 0.7240
996.190657 0.7230 0.7230 0.7230 0.7300 0.7539
999.443451 0.7680 0.7750 0.7780 0.7790 0.7810
1002.696245 0.7860 0.7900 0.7910 0.7920 0.7920
1005.949039 0.7930 0.7930 0.7930 0.7930 0.7920
1009.201833 0.7910 0.7910 0.7880 0.7840 0.7800
1012.454627 0.7760 0.7710 0.7670 0.7620 0.7570
1015.707421 0.7510 0.7450 0.7390 0.7330 0.7260
1018.960215 0.7190 0.7080 0.6960 0.6840 0.6720
1022.213009 0.6600 0.6460 0.6330 0.6200 0.5961
1025.465803 0.5870 0.5850 0.5840 0.5830 0.5810
1028.718597 0.5800 0.5770 0.5710 0.5630 0.5520
1031.971391 0.5400 0.5250 0.5090 0.4930 0.4760
1035.224185 0.4580 0.4410 0.4230 0.4050 0.3890
1038.476979 0.3730 0.3399 0.2780 0.2510 0.2240
1041.729773 0.2010 0.1780 0.1570 0.1380 0.1200
1044.982567 0.1040 0.0880 0.0740 0.0610 0.0480
1048.235361 0.0460 0.0450 0.0460 0.0720 0.0980
1051.488155 0.1250 0.1510 0.1680 0.1750 0.2090
1054.740949 0.2560 0.2870 0.3170 0.3709 0.4199
1057.993743 0.4610 0.4990 0.5310 0.5580 0.5810
1061.246536 0.5910 0.6010 0.6170 0.6300 0.6400
1064.499330 0.6480 0.6510 0.6520 0.6530 0.6520
1067.752124 0.6520 0.6390 0.6220 0.5990 0.5810
1071.004918 0.5509 0.5040 0.4680 0.4560 0.4480
1074.257712 0.4300 0.4140 0.3960 0.3800 0.3461
1077.510506 0.3440 0.3450 0.3580 0.3811 0.4780
1080.763300 0.5300 0.5540 0.5640 0.5760 0.5840
1084.016094 0.5920 0.5970 0.5970 0.5990 0.5970
1087.268888 0.5910 0.5790 0.5510 0.5241 0.5230
1090.521682 0.5240 0.5400 0.5560 0.5720 0.5880
1093.774476 0.5890 0.5960 0.6030 0.6190 0.6379
1097.027270 0.6480 0.6560 0.6720 0.6730 0.6730
1100.280064 0.6710 0.6680 0.6580 0.6490 0.6420
1103.532858 0.6340 0.6270 0.6190 0.6100 0.5890
1106.785652 0.5760 0.5590 0.5400 0.5171 0.4901
1110.038446 0.4589 0.4229 0.3819 0.2820 0.2230
1113.291240 0.1560 0.1500 0.1500 0.1500 0.1510
1116.544034 0.1791 0.2491 0.2980 0.3280 0.3590
1119.796828 0.4270 0.4779 0.5309 0.5759 0.5930
1123.049622 0.6101 0.6390 0.6590 0.6750 0.6860
1126.302416 0.6930 0.6980 0.7000 0.7020 0.7050
1129.555210 0.7080 0.7130 0.7160 0.7160 0.7170
1132.808004 0.7160 0.7150 0.7130 0.7110 0.7070
1136.060798 0.7050 0.7000 0.6930 0.6850 0.6770
1139.313592 0.6690 0.6600 0.6530 0.6480 0.6450
1142.566385 0.6440 0.6370 0.6310 0.6260 0.6220
1145.819179 0.6160 0.5950 0.5770 0.5520 0.4672
1149.071973 0.4140 0.4140 0.4300 0.4520 0.4710
1152.324767 0.4900 0.5090 0.5290 0.5470 0.5470
1155.577561 0.5450 0.5420 0.5390 0.5360 0.5310
1158.830355 0.5200 0.5080 0.4840 0.4730 0.4580
1162.083149 0.4417 0.2849 0.2310 0.2070 0.1810
1165.335943 0.1560 0.1310 0.1310 0.1340 0.1410
1168.588737 0.2172 0.2751 0.3332 0.4191 0.4820
1171.841531 0.5270 0.5600 0.5830 0.5930 0.6030
1175.094325 0.6220 0.6370 0.6490 0.6600 0.6680
1178.347119 0.6760 0.6820 0.6870 0.6910 0.6940
1181.599913 0.6980 0.7000 0.7030 0.7050 0.7060
1184.852707 0.7070 0.7070 0.7060 0.7050 0.7040
1188.105501 0.7020 0.7010 0.6980 0.6940 0.6900
1191.358295 0.6850 0.6800 0.6760 0.6710 0.6670
1194.611089 0.6640 0.6620 0.6570 0.6520 0.6480
1197.863883 0.6440 0.6400 0.6380 0.6350 0.6330
1201.116677 0.6300 0.6280 0.6260 0.6240 0.6220
1204.369471 0.6190 0.6150 0.5990 0.5890 0.5780
1207.622265 0.5630 0.5490 0.5320 0.5150 0.4950
1210.875059 0.4750 0.4530 0.4300 0.4060 0.3821
1214.127853 0.3549 0.3289 0.2729 0.2440 0.2179
1217.380647 0.1670 0.1590 0.1400 0.1260 0.1180
1220.633441 0.1130 0.1100 0.1090 0.1070 0.1050
1223.886235 0.1000 0.0980 0.0960 0.0910 0.0840
1227.139028 0.0760 0.0680 0.0600 0.0530 0.0460
1230.391822 0.0390 0.0350 0.0320 0.0300 0.0240
1233.644616 0.0190 0.0160 0.0130 0.0110 0.0100
1236.897410 0.0080 0.0080 0.0070 0.0070 0.0070
1240.150204 0.0060 0.0060 0.0060 0.0060 0.0060
1243.402998 0.0070 0.0070 0.0200 0.0340 0.0520
1246.655792 0.0691 0.1091 0.1451 0.1770 0.2050
1249.908586 0.2310 0.2530 0.2720 0.2900 0.2980
1253.161380 0.3060 0.3200 0.3330 0.3440 0.3580
1256.414174 0.3680 0.3800 0.3930 0.4030 0.4140
1259.666968 0.4250 0.4350 0.4450 0.4540 0.4630
1262.919762 0.4720 0.4810 0.4900 0.4990 0.5080
1266.172556 0.5170 0.5270 0.5360 0.5470 0.5580
1269.425350 0.5690 0.5810 0.5860 0.5890 0.5920
1272.678144 0.5920 0.5930 0.5930 0.5880 0.5720
1275.930938 0.5600 0.5480 0.5290 0.5110 0.4940
1279.183732 0.4770 0.4600 0.4380 0.4220 0.4070
1282.436526 0.3930 0.3780 0.3770 0.3780 0.3780
1285.689320 0.3880 0.4020 0.4200 0.4390 0.4500
1288.942114 0.4720 0.4730 0.4720 0.4620 0.4570
1292.194908 0.4369 0.3979 0.3709 0.3420 0.3209
1295.447702 0.2560 0.2110 0.1660 0.1650 0.1660
1298.700496 0.2131 0.2620 0.2730 0.2960 0.3140
1301.953290 0.3320 0.3660 0.3980 0.4260 0.4510
1305.206084 0.4710 0.4860 0.4931 0.5451 0.5850
1308.458878 0.6010 0.6150 0.6380 0.6530 0.6640
1311.711671 0.6710 0.6760 0.6800 0.6850 0.6920
1314.964465 0.6970 0.7060 0.7080 0.7100 0.7100
1318.217259 0.7100 0.7110 0.7110 0.7090 0.7070
1321.470053 0.7050 0.7010 0.6980 0.6940 0.6910
1324.722847 0.6890 0.6870 0.6860 0.6820 0.6730
1327.975641 0.6600 0.6440 0.6280 0.6140 0.6010
1331.228435 0.5990 0.6000 0.6000 0.6060 0.6150
1334.481229 0.6260 0.6440 0.6600 0.6750 0.6890
1337.734023 0.7010 0.7130 0.7240 0.7340 0.7430
1340.986817 0.7500 0.7570 0.7640 0.7700 0.7750
1344.239611 0.7790 0.7830 0.7870 0.7890 0.7930
1347.492405 0.7950 0.7980 0.8000 0.8020 0.8040
1350.745199 0.8060 0.8080 0.8100 0.8110 0.8110
1353.997993 0.8110 0.8110 0.8110 0.8080 0.8090
1357.250787 0.8070 0.8040 0.7980 0.7910 0.7820
1360.503581 0.7720 0.7630 0.7520 0.7410 0.7360
1363.756375 0.7300 0.7290 0.7300 0.7320 0.7490
1367.009169 0.7550 0.7570 0.7560 0.7550 0.7540
1370.261963 0.7510 0.7480 0.7450 0.7410 0.7360
1373.514757 0.7290 0.7210 0.7130 0.7020 0.6900
1376.767551 0.6750 0.6590 0.6399 0.5950 0.5560
1380.020345 0.5220 0.4930 0.4680 0.4440 0.4190
1383.273139 0.3929 0.3628 0.2970 0.2960 0.2960
1386.525933 0.2970 0.2990 0.3080 0.3160 0.3440
1389.778727 0.3670 0.3850 0.4000 0.4120 0.4210
1393.031521 0.4280 0.4320 0.4360 0.4380 0.4390
1396.284314 0.4390 0.4400 0.4410 0.4430 0.4530
1399.537108 0.4660 0.4810 0.4980 0.5170 0.5370
1402.789902 0.5581 0.5790 0.5900 0.6000 0.6210
1406.042696 0.6400 0.6580 0.6750 0.6880 0.6990
1409.295490 0.7070 0.7210 0.7310 0.7390 0.7450
1412.548284 0.7490 0.7520 0.7550 0.7590 0.7620
1415.801078 0.7660 0.7700 0.7710 0.7720 0.7720
1419.053872 0.7730 0.7730 0.7730 0.7730 0.7730
1422.306666 0.7730 0.7730 0.7730 0.7730 0.7720
1425.559460 0.7720 0.7720 0.7720 0.7710 0.7710
1428.812254 0.7700 0.7690 0.7650 0.7610 0.7580
1432.065048 0.7550 0.7520 0.7480 0.7450 0.7400
1435.317842 0.7350 0.7280 0.7209 0.6810 0.6480
1438.570636 0.6270 0.5800 0.5540 0.5290 0.5030
1441.823430 0.4770 0.4770 0.4770 0.5020 0.5240
1445.076224 0.5460 0.5680 0.5790 0.5880 0.6010
1448.329018 0.6141 0.6330 0.6320 0.6310 0.6190
1451.581812 0.5890 0.5760 0.5620 0.5490 0.5350
1454.834606 0.5110 0.5090 0.5090 0.5090 0.5220
1458.087400 0.5350 0.5830 0.5940 0.6040 0.6150
1461.340194 0.6180 0.6170 0.6170 0.6150 0.6140
1464.592988 0.6110 0.5920 0.5700 0.5510 0.5350
1467.845782 0.4553 0.2170 0.2050 0.1800 0.1500
1471.098576 0.1200 0.0900 0.0600 0.0310 0.0300
1474.351370 0.0310 0.0391 0.0571 0.0951 0.1471
1477.604164 0.2051 0.2620 0.2870 0.3110 0.3440
1480.856957 0.3540 0.3550 0.3550 0.3550 0.3550
1484.109751 0.3530 0.3500 0.3240 0.2760 0.2330
1487.362545 0.1789 0.1300 0.1090 0.1040 0.0820
1490.615339 0.0700 0.0590 0.0480 0.0350 0.0240
1493.868133 0.0120 0.0100 0.0100 0.0090 0.0100
1497.120927 0.0100 0.0230 0.0360 0.0590 0.0790
1500.373721 0.1181 0.1741 0.2171 0.2500 0.2780
1503.626515 0.2900 0.3010 0.3250 0.3530 0.3860
1506.879309 0.4291 0.4591 0.4841 0.5100 0.5220
1510.132103 0.5260 0.5350 0.5380 0.5430 0.5510
1513.384897 0.5580 0.5630 0.5690 0.5740 0.5800
1516.637691 0.5880 0.5920 0.5920 0.5920 0.5920
1519.890485 0.5920 0.5910 0.5900 0.5900 0.5890
1523.143279 0.5880 0.5870 0.5860 0.5830 0.5810
1526.396073 0.5790 0.5750 0.5700 0.5650 0.5610
1529.648867 0.5550 0.5500 0.5450 0.5390 0.5340
1532.901661 0.5280 0.5230 0.5180 0.5130 0.5080
1536.154455 0.5020 0.4990 0.4940 0.4900 0.4840
1539.407249 0.4790 0.4730 0.4680 0.4630 0.4590
1542.660043 0.4550 0.4520 0.4490 0.4460 0.4430
1545.912837 0.4410 0.4400 0.4390 0.4390 0.4380
1549.165631 0.4380 0.4380 0.4380 0.4390 0.4410
1552.418425 0.4410 0.4450 0.4460 0.4470 0.4500
1555.671219 0.4520 0.4540 0.4580 0.4630 0.4660
1558.924013 0.4680 0.4700 0.4720 0.4720 0.4730
1562.176807 0.4740 0.4750 0.4750 0.4750 0.4750
1565.429600 0.4720 0.4710 0.4700 0.4700 0.4640
1568.682394 0.4590 0.4550 0.4510 0.4470 0.4430
1571.935188 0.4390 0.4340 0.4300 0.4240 0.4180
1575.187982 0.4100 0.4020 0.3910 0.3800 0.2921
1578.440776 0.2449 0.2220 0.2090 0.1830 0.1570
1581.693570 0.1320 0.1070 0.0810 0.0550 0.0550
1584.946364 0.0570 0.0610 0.0750 0.0860 0.1071
1588.199158 0.1360 0.1660 0.1900 0.1910 0.1910
1591.451952 0.1900 0.1899 0.1510 0.1320 0.1180
1594.704746 0.1070 0.0980 0.0900 0.0790 0.0660
1597.957540 0.0459 0.0170 0.0160 0.0150 0.0160
1601.210334 0.0350 0.0620 0.1020 0.1450 0.1900
1604.463128 0.2362 0.2831 0.3071 0.3301 0.3741
1607.715922 0.4160 0.4540 0.4870 0.5140 0.5350
1610.968716 0.5470 0.5500 0.5650 0.5810 0.5980
1614.221510 0.6060 0.6140 0.6300 0.6440 0.6560
1617.474304 0.6650 0.6691 0.6860 0.7010 0.7120
1620.727098 0.7220 0.7300 0.7360 0.7390 0.7400
1623.979892 0.7460 0.7500 0.7520 0.7540 0.7570
1627.232686 0.7610 0.7660 0.7700 0.7730 0.7770
1630.485480 0.7790 0.7810 0.7830 0.7850 0.7860
1633.738274 0.7870 0.7880 0.7900 0.7910 0.7930
1636.991068 0.7950 0.7960 0.7970 0.7980 0.7980
1640.243862 0.8000 0.8010 0.8020 0.8030 0.8040
1643.496656 0.8040 0.8050 0.8060 0.8070 0.8090
1646.749449 0.8100 0.8110 0.8130 0.8160 0.8180
1650.002243 0.8200 0.8220 0.8240 0.8250 0.8270
1653.255037 0.8270 0.8290 0.8290 0.8310 0.8310
1656.507831 0.8310 0.8310 0.8310 0.8310 0.8320
1659.760625 0.8330 0.8330 0.8330 0.8330 0.8330
1663.013419 0.8330 0.8330 0.8310 0.8310 0.8310
1666.266213 0.8310 0.8300 0.8300 0.8300 0.8310
1669.519007 0.8310 0.8310 0.8330 0.8330 0.8340
1672.771801 0.8350 0.8350 0.8360 0.8360 0.8360
1676.024595 0.8360 0.8360 0.8360 0.8360 0.8350
1679.277389 0.8340 0.8340 0.8340 0.8330 0.8310
1682.530183 0.8310 0.8310 0.8300 0.8290 0.8290
1685.782977 0.8250 0.8210 0.8180 0.8160 0.8130
1689.035771 0.8120 0.8090 0.8070 0.8030 0.8000
1692.288565 0.8000 0.7990 0.7990 0.7990 0.8000
1695.541359 0.8000 0.8010 0.8040 0.8050 0.8070
1698.794153 0.8080 0.8090 0.8110 0.8110 0.8130
1702.046947 0.8140 0.8150 0.8150 0.8160 0.8170
1705.299741 0.8180 0.8190 0.8200 0.8210 0.8220
1708.552535 0.8220 0.8240 0.8240 0.8250 0.8250
1711.805329 0.8250 0.8250 0.8260 0.8270 0.8270
1715.058123 0.8280 0.8290 0.8290 0.8300 0.8310
1718.310917 0.8310 0.8310 0.8320 0.8330 0.8330
1721.563711 0.8330 0.8340 0.8340 0.8350 0.8380
1724.816505 0.8400 0.8430 0.8460 0.8470 0.8470
1728.069299 0.8470 0.8480 0.8480 0.8490 0.8490
1731.322092 0.8500 0.8500 0.8500 0.8500 0.8510
1734.574886 0.8510 0.8510 0.8520 0.8520 0.8520
1737.827680 0.8520 0.8520 0.8520 0.8530 0.8530
1741.080474 0.8530 0.8520 0.8520 0.8520 0.8520
1744.333268 0.8520 0.8520 0.8520 0.8520 0.8520
1747.586062 0.8520 0.8520 0.8520 0.8520 0.8520
1750.838856 0.8510 0.8510 0.8500 0.8500 0.8500
1754.091650 0.8490 0.8490 0.8470 0.8460 0.8440
1757.344444 0.8420 0.8390 0.8360 0.8330 0.8300
1760.597238 0.8270 0.8240 0.8200 0.8160 0.8120
1763.850032 0.8080 0.8070 0.8070 0.8070 0.8080
1767.102826 0.8090 0.8120 0.8140 0.8160 0.8170
1770.355620 0.8250 0.8310 0.8340 0.8360 0.8380
1773.608414 0.8390 0.8410 0.8420 0.8420 0.8430
1776.861208 0.8430 0.8440 0.8440 0.8440 0.8440
1780.114002 0.8440 0.8450 0.8450 0.8450 0.8440
1783.366796 0.8440 0.8430 0.8430 0.8430 0.8430
1786.619590 0.8430 0.8430 0.8430 0.8430 0.8440
1789.872384 0.8440 0.8450 0.8450 0.8460 0.8470
1793.125178 0.8470 0.8480 0.8490 0.8490 0.8500
1796.377972 0.8510 0.8520 0.8520 0.8530 0.8540
1799.630766 0.8550 0.8560 0.8560 0.8580 0.8580
1802.883560 0.8590 0.8600 0.8600 0.8600 0.8600
1806.136354 0.8600 0.8610 0.8610 0.8610 0.8610
1809.389148 0.8610 0.8610 0.8610 0.8610 0.8600
1812.641942 0.8590 0.8590 0.8580 0.8570 0.8550
1815.894735 0.8530 0.8530 0.8520 0.8520 0.8510
1819.147529 0.8510 0.8500 0.8500 0.8490 0.8470
1822.400323 0.8450 0.8430 0.8400 0.8380 0.8340
1825.653117 0.8310 0.8270 0.8240 0.8200 0.8150
1828.905911 0.8110 0.8070 0.8020 0.7980 0.7940
1832.158705 0.7890 0.7850 0.7800 0.7800 0.7790
1835.411499 0.7800 0.7820 0.7850 0.7880 0.7910
1838.664293 0.7950 0.7980 0.8020 0.8050 0.8080
1841.917087 0.8100 0.8110 0.8110 0.8130 0.8130
1845.169881 0.8140 0.8140 0.8130 0.8120 0.8110
1848.422675 0.8100 0.8100 0.8090 0.8090 0.8090
1851.675469 0.8100 0.8120 0.8150 0.8170 0.8200
1854.928263 0.8240 0.8270 0.8300 0.8330 0.8340
1858.181057 0.8360 0.8360 0.8400 0.8430 0.8450
1861.433851 0.8470 0.8480 0.8490 0.8500 0.8500
1864.686645 0.8510 0.8520 0.8530 0.8540 0.8550
1867.939439 0.8550 0.8560 0.8560 0.8560 0.8560
1871.192233 0.8570 0.8570 0.8570 0.8580 0.8580
1874.445027 0.8580 0.8580 0.8590 0.8580 0.8590
1877.697821 0.8590 0.8590 0.8590 0.8590 0.8590
1880.950615 0.8600 0.8600 0.8610 0.8610 0.8610
1884.203409 0.8610 0.8610 0.8610 0.8610 0.8610
1887.456203 0.8610 0.8610 0.8610 0.8610 0.8610
1890.708997 0.8600 0.8600 0.8590 0.8590 0.8590
1893.961791 0.8590 0.8590 0.8590 0.8590 0.8580
1897.214585 0.8580 0.8580 0.8570 0.8560 0.8560
1900.467378 0.8550 0.8550 0.8540 0.8530 0.8510
1903.720172 0.8490 0.8470 0.8470 0.8450 0.8450
1906.972966 0.8430 0.8430 0.8420 0.8410 0.8400
1910.225760 0.8390 0.8380 0.8360 0.8350 0.8330
1913.478554 0.8310 0.8290 0.8260 0.8240 0.8200
1916.731348 0.8160 0.8120 0.8070 0.8020 0.7970
1919.984142 0.7900 0.7830 0.7750 0.7670 0.7580
1923.236936 0.7450 0.7440 0.7430 0.7440 0.7450
1926.489730 0.7540 0.7670 0.7750 0.7820 0.7860
1929.742524 0.7920 0.8000 0.8060 0.8160 0.8200
1932.995318 0.8200 0.8210 0.8210 0.8210 0.8210
1936.248112 0.8200 0.8200 0.8200 0.8180 0.8160
1939.500906 0.8130 0.8090 0.8060 0.8020 0.7990
1942.753700 0.7970 0.7960 0.7950 0.7960 0.7970
1946.006494 0.7990 0.8010 0.8040 0.8070 0.8120
1949.259288 0.8160 0.8210 0.8260 0.8300 0.8330
1952.512082 0.8340 0.8350 0.8360 0.8360 0.8360
1955.764876 0.8360 0.8360 0.8360 0.8360 0.8360
1959.017670 0.8360 0.8360 0.8350 0.8340 0.8330
1962.270464 0.8310 0.8280 0.8250 0.8240 0.8240
1965.523258 0.8220 0.8180 0.8150 0.8130 0.8110
1968.776052 0.8110 0.8100 0.8090 0.8100 0.8110
1972.028846 0.8130 0.8150 0.8180 0.8200 0.8230
1975.281640 0.8250 0.8270 0.8300 0.8320 0.8340
1978.534434 0.8360 0.8380 0.8390 0.8400 0.8400
1981.787228 0.8410 0.8420 0.8420 0.8420 0.8420
1985.040021 0.8430 0.8430 0.8430 0.8440 0.8440
1988.292815 0.8450 0.8450 0.8450 0.8440 0.8430
1991.545609 0.8430 0.8430 0.8420 0.8410 0.8400
1994.798403 0.8380 0.8380 0.8380 0.8370 0.8370
1998.051197 0.8370 0.8370 0.8370 0.8380 0.8380
2001.303991 0.8380 0.8380 0.8380 0.8386 0.8391
2004.556785 0.8396 0.8400 0.8403 0.8406 0.8408
2007.809579 0.8411 0.8413 0.8416 0.8418 0.8421
2011.062373 0.8423 0.8426 0.8429 0.8430 0.8430
2014.315167 0.8430 0.8430 0.8431 0.8434 0.8436
2017.567961 0.8439 0.8440 0.8440 0.8440 0.8440
2020.820755 0.8440 0.8440 0.8440 0.8440 0.8440
2024.073549 0.8440 0.8440 0.8440 0.8440 0.8440
2027.326343 0.8440 0.8440 0.8443 0.8445 0.8448
2030.579137 0.8450 0.8450 0.8450 0.8450 0.8450
2033.831931 0.8450 0.8450 0.8450 0.8450 0.8450
2037.084725 0.8450 0.8450 0.8450 0.8450 0.8450
2040.337519 0.8450 0.8451 0.8454 0.8456 0.8459
2043.590313 0.8461 0.8464 0.8466 0.8469 0.8470
2046.843107 0.8470 0.8470 0.8470 0.8470 0.8470
2050.095901 0.8470 0.8470 0.8470 0.8470 0.8470
2053.348695 0.8470 0.8468 0.8465 0.8463 0.8460
2056.601489 0.8460 0.8460 0.8460 0.8460 0.8457
2059.854283 0.8455 0.8452 0.8450 0.8450 0.8450
2063.107077 0.8450 0.8449 0.8447 0.8444 0.8442
2066.359871 0.8439 0.8437 0.8434 0.8432 0.8430
2069.612664 0.8430 0.8430 0.8430 0.8429 0.8426
2072.865458 0.8424 0.8421 0.8420 0.8420 0.8420
2076.118252 0.8420 0.8418 0.8416 0.8413 0.8411
2079.371046 0.8408 0.8405 0.8403 0.8400 0.8400
2082.623840 0.8400 0.8400 0.8400 0.8398 0.8395
2085.876634 0.8392 0.8390 0.8387 0.8385 0.8382
2089.129428 0.8380 0.8380 0.8380 0.8380 0.8379
2092.382222 0.8377 0.8374 0.8372 0.8370 0.8370
2095.635016 0.8370 0.8370 0.8369 0.8366 0.8364
2098.887810 0.8361 0.8360 0.8360 0.8360 0.8360
2102.140604 0.8358 0.8356 0.8353 0.8351 0.8348
2105.393398 0.8346 0.8343 0.8341 0.8340 0.8340
2108.646192 0.8340 0.8340 0.8338 0.8335 0.8333
2111.898986 0.8330 0.8328 0.8325 0.8322 0.8320
2115.151780 0.8317 0.8315 0.8312 0.8309 0.8304
2118.404574 0.8299 0.8294 0.8289 0.8284 0.8279
2121.657368 0.8274 0.8269 0.8263 0.8258 0.8253
2124.910162 0.8247 0.8239 0.8232 0.8224 0.8217
2128.162956 0.8212 0.8207 0.8202 0.8194 0.8184
2131.415750 0.8174 0.8163 0.8157 0.8151 0.8146
2134.668544 0.8141 0.8134 0.8127 0.8119 0.8111
2137.921338 0.8101 0.8091 0.8081 0.8071 0.8063
2141.174132 0.8055 0.8048 0.8040 0.8030 0.8019
2144.426926 0.8009 0.7999 0.7989 0.7979 0.7968
2147.679720 0.7958 0.7948 0.7938 0.7928 0.7917
2150.932513 0.7907 0.7897 0.7886 0.7874 0.7859
2154.185307 0.7843 0.7828 0.7818 0.7812 0.7807
2157.438101 0.7802 0.7799 0.7796 0.7793 0.7791
2160.690895 0.7790 0.7790 0.7790 0.7790 0.7790
2163.943689 0.7790 0.7790 0.7790 0.7792 0.7795
2167.196483 0.7797 0.7800 0.7805 0.7810 0.7815
2170.449277 0.7820 0.7825 0.7830 0.7835 0.7841
2173.702071 0.7848 0.7856 0.7864 0.7872 0.7882
2176.954865 0.7892 0.7903 0.7913 0.7923 0.7934
2180.207659 0.7944 0.7959 0.7982 0.8005 0.8028
2183.460453 0.8054 0.8085 0.8116 0.8146 0.8171
2186.713247 0.8192 0.8212 0.8233 0.8242 0.8244
2189.966041 0.8247 0.8249 0.8259 0.8272 0.8285
2193.218835 0.8298 0.8310 0.8323 0.8336 0.8349
2196.471629 0.8361 0.8374 0.8387 0.8400 0.8413
2199.724423 0.8425 0.8438 0.8451 0.8464 0.8477
2202.977217 0.8490 0.8503 0.8515 0.8528 0.8541
2206.230011 0.8553 0.8563 0.8573 0.8584 0.8596
2209.482805 0.8611 0.8626 0.8642 0.8656 0.8669
2212.735599 0.8681 0.8694 0.8707 0.8720 0.8732
2215.988393 0.8745 0.8750 0.8750 0.8750 0.8750
2219.241187 0.8750 0.8750 0.8750 0.8750 0.8748
2222.493981 0.8745 0.8743 0.8740 0.8740 0.8740
2225.746775 0.8740 0.8740 0.8740 0.8740 0.8740
2228.999569 0.8740 0.8740 0.8740 0.8740 0.8740
2232.252363 0.8737 0.8734 0.8732 0.8730 0.8730
2235.505156 0.8730 0.8730 0.8729 0.8727 0.8724
2238.757950 0.8721 0.8720 0.8720 0.8720 0.8720
2242.010744 0.8720 0.8720 0.8720 0.8720 0.8718
2245.263538 0.8716 0.8713 0.8711 0.8708 0.8706
2248.516332 0.8703 0.8701 0.8700 0.8700 0.8700
2251.769126 0.8700 0.8696 0.8690 0.8685 0.8680
2255.021920 0.8677 0.8675 0.8672 0.8670 0.8667
2258.274714 0.8665 0.8662 0.8660 0.8657 0.8654
2261.527508 0.8652 0.8649 0.8644 0.8638 0.8633
2264.780302 0.8629 0.8627 0.8624 0.8621 0.8619
2268.033096 0.8616 0.8614 0.8611 0.8607 0.8602
2271.285890 0.8597 0.8592 0.8588 0.8586 0.8583
2274.538684 0.8581 0.8578 0.8576 0.8573 0.8571
2277.791478 0.8566 0.8561 0.8556 0.8551 0.8548
2281.044272 0.8545 0.8543 0.8540 0.8535 0.8530
2284.297066 0.8525 0.8519 0.8512 0.8504 0.8496
2287.549860 0.8488 0.8478 0.8468 0.8458 0.8449
2290.802654 0.8444 0.8439 0.8433 0.8429 0.8427
2294.055448 0.8424 0.8422 0.8420 0.8420 0.8420
2297.308242 0.8420 0.8419 0.8416 0.8414 0.8411
2300.561036 0.8411 0.8414 0.8417 0.8419 0.8420
2303.813830 0.8420 0.8420 0.8420 0.8422 0.8425
2307.066624 0.8427 0.8430 0.8435 0.8440 0.8445
2310.319418 0.8450 0.8452 0.8455 0.8458 0.8460
2313.572212 0.8465 0.8470 0.8476 0.8480 0.8483
2316.825006 0.8485 0.8488 0.8491 0.8496 0.8501
2320.077799 0.8506 0.8512 0.8517 0.8522 0.8527
2323.330593 0.8531 0.8534 0.8536 0.8539 0.8542
2326.583387 0.8548 0.8553 0.8558 0.8560 0.8560
2329.836181 0.8560 0.8560 0.8562 0.8564 0.8567
2333.088975 0.8569 0.8570 0.8570 0.8570 0.8570
2336.341769 0.8570 0.8570 0.8570 0.8570 0.8572
2339.594563 0.8575 0.8578 0.8580 0.8580 0.8580
2342.847357 0.8580 0.8580 0.8580 0.8580 0.8580
2346.100151 0.8581 0.8583 0.8586 0.8588 0.8590
2349.352945 0.8590 0.8590 0.8590 0.8590 0.8590
2352.605739 0.8590 0.8590 0.8590 0.8590 0.8590
2355.858533 0.8590 0.8593 0.8598 0.8603 0.8608
2359.111327 0.8612 0.8614 0.8617 0.8619 0.8622
2362.364121 0.8625 0.8627 0.8630 0.8632 0.8635
2365.616915 0.8637 0.8640 0.8642 0.8645 0.8648
2368.869709 0.8650 0.8650 0.8650 0.8650 0.8650
2372.122503 0.8653 0.8655 0.8658 0.8660 0.8663
2375.375297 0.8666 0.8668 0.8670 0.8670 0.8670
2378.628091 0.8670 0.8669 0.8666 0.8664 0.8661
2381.880885 0.8660 0.8660 0.8660 0.8660 0.8659
2385.133679 0.8656 0.8653 0.8651 0.8648 0.8646
2388.386473 0.8643 0.8641 0.8636 0.8631 0.8626
2391.639267 0.8621 0.8616 0.8611 0.8606 0.8600
2394.892061 0.8595 0.8590 0.8585 0.8580 0.8577
2398.144855 0.8575 0.8572 0.8570 0.8564 0.8559
2401.397649 0.8554 0.8550 0.8550 0.8550 0.8550
2404.650442 0.8549 0.8547 0.8544 0.8542 0.8540
2407.903236 0.8540 0.8540 0.8540 0.8540 0.8540
2411.156030 0.8540 0.8540 0.8540 0.8540 0.8540
2414.408824 0.8540 0.8542 0.8544 0.8547 0.8549
2417.661618 0.8550 0.8550 0.8550 0.8550 0.8552
2420.914412 0.8555 0.8557 0.8560 0.8560 0.8560
2424.167206 0.8560 0.8560 0.8563 0.8565 0.8568
2427.420000 0.8570 0.8573 0.8575 0.8578 0.8580
2430.672794 0.8580 0.8580 0.8580 0.8580 0.8580
2433.925588 0.8580 0.8580 0.8580 0.8580 0.8580
2437.178382 0.8580 0.8580 0.8580 0.8580 0.8580
2440.431176 0.8580 0.8580 0.8580 0.8580 0.8580
2443.683970 0.8580 0.8580 0.8580 0.8580 0.8580
2446.936764 0.8580 0.8580 0.8578 0.8575 0.8573
2450.189558 0.8570 0.8568 0.8565 0.8563 0.8560
2453.442352 0.8560 0.8560 0.8560 0.8560 0.8557
2456.695146 0.8555 0.8552 0.8550 0.8547 0.8544
2459.947940 0.8542 0.8539 0.8533 0.8528 0.8523
2463.200734 0.8517 0.8510 0.8502 0.8494 0.8488
2466.453528 0.8483 0.8477 0.8472 0.8466 0.8458
2469.706322 0.8451 0.8443 0.8437 0.8432 0.8427
2472.959116 0.8422 0.8413 0.8403 0.8392 0.8382
2476.211910 0.8376 0.8371 0.8366 0.8361 0.8356
2479.464704 0.8350 0.8345 0.8340 0.8335 0.8330
2482.717498 0.8325 0.8320 0.8317 0.8315 0.8312
2485.970292 0.8310 0.8310 0.8310 0.8310 0.8310
2489.223085 0.8310 0.8310 0.8310 0.8311 0.8313
2492.475879 0.8316 0.8319 0.8326 0.8338 0.8351
2495.728673 0.8364 0.8377 0.8389 0.8402 0.8415
2498.981467 0.8425 0.8432 0.8440 0.8448 0.8457
2502.234261 0.8467 0.8477 0.8488 0.8496 0.8504
2505.487055 0.8511 0.8519 0.8527 0.8534 0.8542
2508.739849 0.8550 0.8558 0.8565 0.8573 0.8580
2511.992643 0.8580 0.8580 0.8580 0.8580 0.8583
2515.245437 0.8586 0.8588 0.8590 0.8590 0.8590
2518.498231 0.8590 0.8588 0.8583 0.8578 0.8573
2521.751025 0.8569 0.8566 0.8564 0.8561 0.8557
2525.003819 0.8552 0.8547 0.8542 0.8537 0.8532
2528.256613 0.8527 0.8522 0.8515 0.8507 0.8500
2531.509407 0.8492 0.8480 0.8467 0.8454 0.8441
2534.762201 0.8431 0.8421 0.8410 0.8400 0.8385
2538.014995 0.8370 0.8354 0.8340 0.8332 0.8324
2541.267789 0.8317 0.8309 0.8304 0.8299 0.8294
2544.520583 0.8290 0.8290 0.8290 0.8290 0.8291
2547.773377 0.8293 0.8296 0.8298 0.8301 0.8304
2551.026171 0.8306 0.8309 0.8316 0.8329 0.8342
2554.278965 0.8355 0.8372 0.8392 0.8413 0.8433
2557.531759 0.8450 0.8466 0.8481 0.8497 0.8508
2560.784553 0.8518 0.8529 0.8539 0.8547 0.8554
2564.037347 0.8562 0.8570 0.8572 0.8575 0.8578
2567.290141 0.8580 0.8583 0.8585 0.8588 0.8590
2570.542935 0.8590 0.8590 0.8590 0.8591 0.8593
2573.795728 0.8596 0.8598 0.8600 0.8600 0.8600
2577.048522 0.8600 0.8600 0.8600 0.8600 0.8600
2580.301316 0.8600 0.8600 0.8600 0.8600 0.8599
2583.554110 0.8596 0.8593 0.8591 0.8590 0.8590
2586.806904 0.8590 0.8590 0.8590 0.8590 0.8590
2590.059698 0.8590 0.8590 0.8590 0.8590 0.8590
2593.312492 0.8590 0.8590 0.8590 0.8590 0.8590
2596.565286 0.8590 0.8590 0.8590 0.8587 0.8585
2599.818080 0.8582 0.8580 0.8580 0.8580 0.8580
2603.070874 0.8580 0.8580 0.8580 0.8580 0.8578
2606.323668 0.8573 0.8568 0.8563 0.8560 0.8560
2609.576462 0.8560 0.8560 0.8560 0.8560 0.8560
2612.829256 0.8560 0.8558 0.8556 0.8553 0.8551
2616.082050 0.8550 0.8550 0.8550 0.8550 0.8550
2619.334844 0.8550 0.8550 0.8550 0.8552 0.8555
2622.587638 0.8557 0.8560 0.8560 0.8560 0.8560
2625.840432 0.8560 0.8563 0.8565 0.8568 0.8570
2629.093226 0.8570 0.8570 0.8570 0.8571 0.8573
2632.346020 0.8576 0.8578 0.8580 0.8580 0.8580
2635.598814 0.8580 0.8581 0.8584 0.8586 0.8589
2638.851608 0.8593 0.8598 0.8603 0.8608 0.8612
2642.104402 0.8614 0.8617 0.8619 0.8622 0.8624
2645.357196 0.8627 0.8630 0.8634 0.8639 0.8644
2648.609990 0.8650 0.8652 0.8655 0.8657 0.8660
2651.862784 0.8663 0.8665 0.8668 0.8670 0.8670
2655.115577 0.8670 0.8670 0.8670 0.8670 0.8670
2658.368371 0.8670 0.8671 0.8673 0.8676 0.8678
2661.621165 0.8680 0.8680 0.8680 0.8680 0.8680
2664.873959 0.8680 0.8680 0.8680 0.8680 0.8680
2668.126753 0.8680 0.8680 0.8680 0.8680 0.8680
2671.379547 0.8680 0.8680 0.8680 0.8680 0.8680
2674.632341 0.8680 0.8680 0.8680 0.8680 0.8680
2677.885135 0.8680 0.8680 0.8680 0.8680 0.8680
2681.137929 0.8680 0.8680 0.8680 0.8680 0.8680
2684.390723 0.8680 0.8680 0.8680 0.8680 0.8680
2687.643517 0.8680 0.8680 0.8680 0.8680 0.8680
2690.896311 0.8680 0.8680 0.8680 0.8680 0.8680
2694.149105 0.8680 0.8679 0.8676 0.8674 0.8671
2697.401899 0.8670 0.8670 0.8670 0.8670 0.8670
2700.654693 0.8670 0.8670 0.8670 0.8670 0.8670
2703.907487 0.8670 0.8670 0.8668 0.8665 0.8663
2707.160281 0.8660 0.8653 0.8645 0.8637 0.8630
2710.413075 0.8627 0.8625 0.8622 0.8619 0.8611
2713.665869 0.8603 0.8596 0.8587 0.8577 0.8567
2716.918663 0.8557 0.8545 0.8529 0.8514 0.8499
2720.171457 0.8483 0.8468 0.8453 0.8437 0.8421
2723.424251 0.8403 0.8385 0.8367 0.8349 0.8331
2726.677045 0.8313 0.8295 0.8281 0.8268 0.8256
2729.929839 0.8243 0.8234 0.8226 0.8219 0.8211
2733.182633 0.8203 0.8196 0.8188 0.8180 0.8180
2736.435427 0.8180 0.8180 0.8180 0.8180 0.8180
2739.688220 0.8180 0.8180 0.8180 0.8180 0.8180
2742.941014 0.8181 0.8183 0.8186 0.8188 0.8191
2746.193808 0.8193 0.8196 0.8199 0.8202 0.8207
2749.446602 0.8212 0.8218 0.8221 0.8224 0.8226
2752.699396 0.8229 0.8232 0.8234 0.8237 0.8239
2755.952190 0.8242 0.8244 0.8247 0.8249 0.8252
2759.204984 0.8255 0.8257 0.8260 0.8262 0.8265
2762.457778 0.8267 0.8270 0.8275 0.8280 0.8285
2765.710572 0.8290 0.8293 0.8295 0.8298 0.8300
2768.963366 0.8303 0.8306 0.8308 0.8311 0.8313
2772.216160 0.8316 0.8318 0.8321 0.8323 0.8326
2775.468954 0.8329 0.8331 0.8334 0.8336 0.8339
2778.721748 0.8340 0.8340 0.8340 0.8340 0.8343
2781.974542 0.8348 0.8353 0.8358 0.8362 0.8364
2785.227336 0.8367 0.8369 0.8372 0.8375 0.8377
2788.480130 0.8380 0.8380 0.8380 0.8380 0.8380
2791.732924 0.8380 0.8380 0.8380 0.8380 0.8380
2794.985718 0.8380 0.8380 0.8380 0.8377 0.8375
2798.238512 0.8372 0.8369 0.8364 0.8359 0.8354
2801.491306 0.8347 0.8337 0.8326 0.8316 0.8304
2804.744100 0.8289 0.8273 0.8258 0.8244 0.8231
2807.996894 0.8218 0.8206 0.8193 0.8180 0.8167
2811.249688 0.8154 0.8143 0.8133 0.8123 0.8112
2814.502482 0.8106 0.8101 0.8096 0.8091 0.8086
2817.755276 0.8080 0.8075 0.8070 0.8070 0.8070
2821.008070 0.8070 0.8070 0.8067 0.8065 0.8062
2824.260863 0.8059 0.8054 0.8049 0.8044 0.8039
2827.513657 0.8037 0.8034 0.8032 0.8029 0.8027
2830.766451 0.8024 0.8022 0.8018 0.8013 0.8008
2834.019245 0.8003 0.7996 0.7989 0.7981 0.7973
2837.272039 0.7960 0.7942 0.7924 0.7906 0.7877
2840.524833 0.7844 0.7811 0.7778 0.7750 0.7725
2843.777627 0.7699 0.7674 0.7646 0.7618 0.7590
2847.030421 0.7562 0.7522 0.7481 0.7440 0.7398
2850.283215 0.7337 0.7276 0.7215 0.7150 0.7058
2853.536009 0.6966 0.6874 0.6790 0.6736 0.6682
2856.788803 0.6629 0.6584 0.6561 0.6538 0.6515
2860.041597 0.6451 0.6315 0.6180 0.6044 0.5940
2863.294391 0.5872 0.5805 0.5738 0.5671 0.5605
2866.547185 0.5538 0.5472 0.5376 0.5266 0.5157
2869.799979 0.5047 0.4949 0.4854 0.4760 0.4665
2873.052773 0.4575 0.4485 0.4396 0.4307 0.4298
2876.305567 0.4295 0.4293 0.4290 0.4293 0.4295
2879.558361 0.4298 0.4303 0.4336 0.4370 0.4403
2882.811155 0.4455 0.4593 0.4731 0.4869 0.4970
2886.063949 0.4970 0.4970 0.4970 0.4970 0.4970
2889.316743 0.4970 0.4970 0.4941 0.4883 0.4824
2892.569537 0.4765 0.4718 0.4680 0.4642 0.4603
2895.822331 0.4565 0.4527 0.4488 0.4450 0.4412
2899.075125 0.4373 0.4335 0.4297 0.4290 0.4290
2902.327919 0.4290 0.4290 0.4290 0.4290 0.4290
2905.580713 0.4290 0.4310 0.4331 0.4351 0.4371
2908.833506 0.4389 0.4407 0.4425 0.4455 0.4547
2912.086300 0.4639 0.4731 0.4801 0.4806 0.4812
2915.339094 0.4817 0.4820 0.4820 0.4820 0.4820
2918.591888 0.4821 0.4824 0.4826 0.4829 0.4830
2921.844682 0.4830 0.4830 0.4830 0.4828 0.4826
2925.097476 0.4823 0.4821 0.4803 0.4780 0.4757
2928.350270 0.4734 0.4709 0.4684 0.4658 0.4633
2931.603064 0.4584 0.4533 0.4482 0.4431 0.4425
2934.855858 0.4420 0.4415 0.4410 0.4415 0.4421
2938.108652 0.4426 0.4439 0.4501 0.4563 0.4626
2941.361446 0.4694 0.4778 0.4862 0.4947 0.5040
2944.614240 0.5150 0.5260 0.5370 0.5464 0.5538
2947.867034 0.5612 0.5686 0.5753 0.5814 0.5876
2951.119828 0.5937 0.5960 0.5960 0.5960 0.5960
2954.372622 0.5953 0.5943 0.5932 0.5922 0.5914
2957.625416 0.5906 0.5899 0.5891 0.5834 0.5770
2960.878210 0.5706 0.5642 0.5392 0.5134 0.4876
2964.131004 0.4618 0.4372 0.4127 0.3881 0.3653
2967.383798 0.3508 0.3362 0.3217 0.3084 0.2987
2970.636592 0.2890 0.2793 0.2700 0.2616 0.2532
2973.889386 0.2447 0.2363 0.2279 0.2194 0.2110
2977.142180 0.2026 0.1942 0.1857 0.1773 0.1740
2980.394974 0.1740 0.1740 0.1740 0.1740 0.1740
2983.647768 0.1740 0.1740 0.1740 0.1740 0.1740
2986.900562 0.1740 0.1780 0.1826 0.1872 0.1918
2990.153356 0.1991 0.2066 0.2141 0.2218 0.2310
2993.406149 0.2402 0.2493 0.2609 0.2841 0.3074
2996.658943 0.3306 0.3539 0.3771 0.4004 0.4236
2999.911737 0.4499 0.4821 0.5142 0.5464 0.5673
3003.164531 0.5726 0.5780 0.5834 0.5886 0.5937
3006.417325 0.5988 0.6039 0.6148 0.6296 0.6444
3009.670119 0.6592 0.6701 0.6790 0.6879 0.6969
3012.922913 0.6992 0.6995 0.6997 0.7000 0.7000
3016.175707 0.7000 0.7000 0.7000 0.6990 0.6980
3019.428501 0.6970 0.6959 0.6946 0.6934 0.6921
3022.681295 0.6907 0.6886 0.6866 0.6846 0.6803
3025.934089 0.6691 0.6579 0.6466 0.6338 0.6177
3029.186883 0.6016 0.5855 0.5732 0.5663 0.5594
3032.439677 0.5525 0.5451 0.5372 0.5293 0.5213
3035.692471 0.5156 0.5116 0.5075 0.5034 0.5017
3038.945265 0.5012 0.5006 0.5001 0.5004 0.5009
3042.198059 0.5014 0.5019 0.5227 0.5462 0.5697
3045.450853 0.5932 0.6029 0.6121 0.6213 0.6305
3048.703647 0.6394 0.6483 0.6573 0.6650 0.6650
3051.956441 0.6650 0.6650 0.6649 0.6647 0.6644
3055.209235 0.6642 0.6639 0.6637 0.6634 0.6632
3058.462029 0.6629 0.6626 0.6624 0.6621 0.6509
3061.714823 0.6277 0.6044 0.5812 0.5707 0.5702
3064.967617 0.5697 0.5692 0.5693 0.5699 0.5704
3068.220411 0.5709 0.5744 0.5787 0.5831 0.5874
3071.473205 0.5918 0.5961 0.6004 0.6048 0.6094
3074.725999 0.6140 0.6186 0.6232 0.6275 0.6318
3077.978792 0.6362 0.6409 0.6483 0.6557 0.6631
3081.231586 0.6705 0.6776 0.6848 0.6919 0.6971
3084.484380 0.6973 0.6976 0.6978 0.6980 0.6980
3087.737174 0.6980 0.6980 0.6948 0.6879 0.6810
3090.989968 0.6741 0.6675 0.6610 0.6545 0.6481
3094.242762 0.6460 0.6460 0.6460 0.6460 0.6493
3097.495556 0.6537 0.6580 0.6624 0.6667 0.6710
3100.748350 0.6754 0.6797 0.6843 0.6889 0.6935
3104.001144 0.6980 0.7003 0.7026 0.7049 0.7072
3107.253938 0.7087 0.7102 0.7118 0.7144 0.7215
3110.506732 0.7287 0.7358 0.7429 0.7498 0.7567
3113.759526 0.7636 0.7694 0.7732 0.7770 0.7809
3117.012320 0.7856 0.7916 0.7976 0.8035 0.8097
3120.265114 0.8161 0.8225 0.8289 0.8322 0.8340
3123.517908 0.8358 0.8376 0.8390 0.8402 0.8415
3126.770702 0.8428 0.8436 0.8444 0.8452 0.8459
3130.023496 0.8467 0.8475 0.8482 0.8490 0.8495
3133.276290 0.8500 0.8505 0.8510 0.8513 0.8515
3136.529084 0.8518 0.8521 0.8526 0.8531 0.8536
3139.781878 0.8540 0.8540 0.8540 0.8540 0.8541
3143.034672 0.8543 0.8546 0.8549 0.8551 0.8554
3146.287466 0.8556 0.8559 0.8560 0.8560 0.8560
3149.540260 0.8560 0.8562 0.8564 0.8567 0.8569
3152.793054 0.8570 0.8570 0.8570 0.8570 0.8572
3156.045848 0.8575 0.8577 0.8580 0.8580 0.8580
3159.298642 0.8580 0.8580 0.8580 0.8580 0.8580
3162.551435 0.8580 0.8580 0.8580 0.8580 0.8580
3165.804229 0.8580 0.8580 0.8580 0.8580 0.8580
3169.057023 0.8580 0.8580 0.8580 0.8580 0.8580
3172.309817 0.8580 0.8580 0.8580 0.8580 0.8580
3175.562611 0.8580 0.8580 0.8580 0.8580 0.8580
3178.815405 0.8580 0.8580 0.8580 0.8580 0.8580
3182.068199 0.8580 0.8580 0.8580 0.8580 0.8580
3185.320993 0.8580 0.8580 0.8580 0.8580 0.8580
3188.573787 0.8578 0.8575 0.8572 0.8570 0.8570
3191.826581 0.8570 0.8570 0.8570 0.8567 0.8564
3195.079375 0.8562 0.8560 0.8560 0.8560 0.8560
3198.332169 0.8560 0.8560 0.8560 0.8560 0.8560
3201.584963 0.8560 0.8560 0.8560 0.8561 0.8564
3204.837757 0.8566 0.8569 0.8572 0.8574 0.8577
3208.090551 0.8579 0.8580 0.8580 0.8580 0.8580
3211.343345 0.8580 0.8580 0.8580 0.8580 0.8582
3214.596139 0.8585 0.8587 0.8590 0.8590 0.8590
3217.848933 0.8590 0.8590 0.8590 0.8590 0.8590
3221.101727 0.8590 0.8593 0.8596 0.8598 0.8601
3224.354521 0.8603 0.8606 0.8608 0.8610 0.8610
3227.607315 0.8610 0.8610 0.8610 0.8610 0.8610
3230.860109 0.8610 0.8611 0.8614 0.8616 0.8619
3234.112903 0.8622 0.8624 0.8627 0.8629 0.8630
3237.365697 0.8630 0.8630 0.8630 0.8630 0.8630
3240.618491 0.8630 0.8630 0.8632 0.8635 0.8637
3243.871284 0.8640 0.8642 0.8645 0.8648 0.8650
3247.124078 0.8650 0.8650 0.8650 0.8650 0.8650
3250.376872 0.8650 0.8650 0.8650 0.8650 0.8650
3253.629666 0.8650 0.8652 0.8657 0.8662 0.8667
3256.882460 0.8670 0.8670 0.8670 0.8670 0.8670
3260.135254 0.8670 0.8670 0.8670 0.8670 0.8670
3263.388048 0.8670 0.8670 0.8670 0.8670 0.8670
3266.640842 0.8670 0.8672 0.8674 0.8677 0.8680
3269.893636 0.8680 0.8680 0.8680 0.8680 0.8680
3273.146430 0.8680 0.8680 0.8680 0.8680 0.8680
3276.399224 0.8680 0.8680 0.8680 0.8680 0.8680
3279.652018 0.8680 0.8680 0.8680 0.8680 0.8680
3282.904812 0.8680 0.8680 0.8680 0.8680 0.8680
3286.157606 0.8680 0.8680 0.8680 0.8680 0.8680
3289.410400 0.8680 0.8680 0.8680 0.8680 0.8680
3292.663194 0.8680 0.8680 0.8680 0.8680 0.8680
3295.915988 0.8680 0.8680 0.8680 0.8680 0.8680
3299.168782 0.8680 0.8680 0.8680 0.8680 0.8680
3302.421576 0.8680 0.8680 0.8680 0.8680 0.8680
3305.674370 0.8680 0.8680 0.8680 0.8680 0.8680
3308.927164 0.8680 0.8680 0.8680 0.8680 0.8680
3312.179958 0.8680 0.8680 0.8680 0.8680 0.8680
3315.432752 0.8680 0.8680 0.8680 0.8680 0.8680
3318.685546 0.8680 0.8680 0.8680 0.8678 0.8676
3321.938340 0.8673 0.8671 0.8670 0.8670 0.8670
3325.191134 0.8670 0.8670 0.8670 0.8670 0.8670
3328.443927 0.8670 0.8670 0.8670 0.8670 0.8670
3331.696721 0.8670 0.8670 0.8670 0.8670 0.8670
3334.949515 0.8670 0.8669 0.8667 0.8664 0.8662
3338.202309 0.8659 0.8657 0.8654 0.8652 0.8650
3341.455103 0.8650 0.8650 0.8650 0.8650 0.8650
3344.707897 0.8650 0.8650 0.8650 0.8650 0.8650
3347.960691 0.8650 0.8650 0.8650 0.8650 0.8650
3351.213485 0.8650 0.8650 0.8650 0.8650 0.8650
3354.466279 0.8650 0.8650 0.8650 0.8650 0.8650
3357.719073 0.8650 0.8650 0.8650 0.8650 0.8650
3360.971867 0.8650 0.8650 0.8650 0.8650 0.8650
3364.224661 0.8650 0.8650 0.8650 0.8650 0.8650
3367.477455 0.8650 0.8650 0.8650 0.8650 0.8650
3370.730249 0.8650 0.8650 0.8650 0.8650 0.8650
3373.983043 0.8650 0.8650 0.8650 0.8650 0.8650
3377.235837 0.8650 0.8650 0.8650 0.8650 0.8650
3380.488631 0.8650 0.8650 0.8652 0.8655 0.8657
3383.741425 0.8660 0.8660 0.8660 0.8660 0.8660
3386.994219 0.8660 0.8660 0.8660 0.8660 0.8660
3390.247013 0.8660 0.8660 0.8660 0.8660 0.8660
3393.499807 0.8660 0.8660 0.8660 0.8660 0.8660
3396.752601 0.8660 0.8660 0.8660 0.8660 0.8660
3400.005395 0.8660 0.8660 0.8660 0.8660 0.8660
3403.258189 0.8660 0.8660 0.8658 0.8656 0.8653
3406.510983 0.8651 0.8650 0.8650 0.8650 0.8650
3409.763777 0.8650 0.8650 0.8650 0.8650 0.8650
3413.016570 0.8650 0.8650 0.8650 0.8650 0.8650
3416.269364 0.8650 0.8650 0.8647 0.8645 0.8642
3419.522158 0.8640 0.8640 0.8640 0.8640 0.8640
3422.774952 0.8640 0.8640 0.8640 0.8639 0.8636
3426.027746 0.8634 0.8631 0.8630 0.8630 0.8630
3429.280540 0.8630 0.8630 0.8630 0.8630 0.8630
3432.533334 0.8630 0.8630 0.8630 0.8630 0.8630
3435.786128 0.8630 0.8630 0.8630 0.8630 0.8630
3439.038922 0.8630 0.8630 0.8630 0.8630 0.8630
3442.291716 0.8630 0.8630 0.8630 0.8630 0.8630
3445.544510 0.8630 0.8630 0.8630 0.8630 0.8630
3448.797304 0.8630 0.8630 0.8630 0.8630 0.8630
3452.050098 0.8630 0.8630 0.8630 0.8630 0.8630
3455.302892 0.8630 0.8630 0.8630 0.8630 0.8630
3458.555686 0.8630 0.8630 0.8630 0.8630 0.8630
3461.808480 0.8630 0.8630 0.8628 0.8626 0.8623
3465.061274 0.8621 0.8620 0.8620 0.8620 0.8620
3468.314068 0.8620 0.8620 0.8620 0.8620 0.8620
3471.566862 0.8620 0.8620 0.8620 0.8620 0.8620
3474.819656 0.8620 0.8620 0.8620 0.8620 0.8620
3478.072450 0.8620 0.8620 0.8620 0.8620 0.8620
3481.325244 0.8620 0.8620 0.8620 0.8620 0.8620
3484.578038 0.8620 0.8620 0.8620 0.8620 0.8620
3487.830832 0.8620 0.8620 0.8620 0.8620 0.8620
3491.083626 0.8620 0.8620 0.8620 0.8620 0.8620
3494.336420 0.8620 0.8620 0.8620 0.8620 0.8620
3497.589213 0.8620 0.8620 0.8620 0.8620 0.8620
3500.842007 0.8620 0.8620 0.8620 0.8620 0.8620
3504.094801 0.8620 0.8620 0.8620 0.8620 0.8620
3507.347595 0.8620 0.8620 0.8620 0.8620 0.8620
3510.600389 0.8620 0.8620 0.8620 0.8620 0.8620
3513.853183 0.8620 0.8620 0.8620 0.8620 0.8620
3517.105977 0.8620 0.8620 0.8620 0.8620 0.8620
3520.358771 0.8620 0.8620 0.8620 0.8620 0.8620
3523.611565 0.8620 0.8620 0.8620 0.8620 0.8620
3526.864359 0.8620 0.8620 0.8620 0.8620 0.8620
3530.117153 0.8620 0.8620 0.8620 0.8620 0.8620
3533.369947 0.8620 0.8619 0.8617 0.8614 0.8612
3536.622741 0.8610 0.8610 0.8610 0.8610 0.8610
3539.875535 0.8610 0.8610 0.8610 0.8610 0.8610
3543.128329 0.8610 0.8610 0.8610 0.8610 0.8610
3546.381123 0.8610 0.8610 0.8610 0.8610 0.8610
3549.633917 0.8610 0.8610 0.8610 0.8610 0.8610
3552.886711 0.8610 0.8610 0.8610 0.8610 0.8610
3556.139505 0.8610 0.8610 0.8610 0.8610 0.8610
3559.392299 0.8610 0.8610 0.8610 0.8610 0.8610
3562.645093 0.8610 0.8610 0.8610 0.8610 0.8610
3565.897887 0.8610 0.8610 0.8611 0.8614 0.8616
3569.150681 0.8619 0.8621 0.8624 0.8626 0.8629
3572.403475 0.8630 0.8630 0.8630 0.8630 0.8630
3575.656269 0.8630 0.8630 0.8630 0.8632 0.8635
3578.909063 0.8637 0.8640 0.8642 0.8645 0.8647
3582.161856 0.8650 0.8650 0.8650 0.8650 0.8650
3585.414650 0.8653 0.8655 0.8658 0.8660 0.8663
3588.667444 0.8665 0.8668 0.8670 0.8670 0.8670
3591.920238 0.8670 0.8670 0.8670 0.8670 0.8670
3595.173032 0.8670 0.8670 0.8670 0.8670 0.8670
3598.425826 0.8670 0.8670 0.8670 0.8670 0.8670
3601.678620 0.8670 0.8670 0.8670 0.8670 0.8670
3604.931414 0.8670 0.8668 0.8666 0.8663 0.8660
3608.184208 0.8658 0.8655 0.8653 0.8650 0.8650
3611.437002 0.8650 0.8650 0.8650 0.8653 0.8655
3614.689796 0.8658 0.8660 0.8660 0.8660 0.8660
3617.942590 0.8660 0.8657 0.8654 0.8652 0.8651
3621.195384 0.8653 0.8656 0.8658 0.8660 0.8660
3624.448178 0.8660 0.8660 0.8661 0.8664 0.8666
3627.700972 0.8669 0.8670 0.8670 0.8670 0.8670
3630.953766 0.8670 0.8670 0.8670 0.8670 0.8670
3634.206560 0.8670 0.8670 0.8670 0.8670 0.8670
3637.459354 0.8670 0.8670 0.8670 0.8670 0.8670
3640.712148 0.8670 0.8670 0.8670 0.8670 0.8670
3643.964942 0.8670 0.8670 0.8670 0.8670 0.8670
3647.217736 0.8670 0.8670 0.8671 0.8673 0.8676
3650.470530 0.8678 0.8680 0.8680 0.8680 0.8680
3653.723324 0.8680 0.8680 0.8680 0.8680 0.8680
3656.976118 0.8680 0.8680 0.8680 0.8680 0.8680
3660.228912 0.8680 0.8680 0.8680 0.8680 0.8680
3663.481706 0.8680 0.8680 0.8680 0.8680 0.8680
3666.734499 0.8678 0.8675 0.8673 0.8670 0.8670
3669.987293 0.8670 0.8670 0.8670 0.8665 0.8659
3673.240087 0.8654 0.8650 0.8650 0.8650 0.8650
3676.492881 0.8649 0.8644 0.8638 0.8633 0.8630
3679.745675 0.8630 0.8630 0.8630 0.8629 0.8626
3682.998469 0.8624 0.8621 0.8619 0.8616 0.8614
3686.251263 0.8611 0.8608 0.8606 0.8603 0.8601
3689.504057 0.8600 0.8600 0.8600 0.8600 0.8602
3692.756851 0.8605 0.8607 0.8610 0.8610 0.8610
3696.009645 0.8610 0.8610 0.8610 0.8610 0.8610
3699.262439 0.8610 0.8610 0.8610 0.8610 0.8610
3702.515233 0.8610 0.8610 0.8610 0.8610 0.8610
3705.768027 0.8610 0.8610 0.8609 0.8607 0.8604
3709.020821 0.8601 0.8600 0.8600 0.8600 0.8600
3712.273615 0.8599 0.8596 0.8594 0.8591 0.8590
3715.526409 0.8590 0.8590 0.8590 0.8588 0.8586
3718.779203 0.8583 0.8581 0.8580 0.8580 0.8580
3722.031997 0.8580 0.8580 0.8580 0.8580 0.8580
3725.284791 0.8580 0.8580 0.8580 0.8580 0.8583
3728.537585 0.8585 0.8588 0.8590 0.8590 0.8590
3731.790379 0.8590 0.8590 0.8590 0.8590 0.8590
3735.043173 0.8591 0.8593 0.8596 0.8599 0.8601
3738.295967 0.8604 0.8606 0.8609 0.8610 0.8610
3741.548761 0.8610 0.8610 0.8610 0.8610 0.8610
3744.801555 0.8610 0.8608 0.8606 0.8603 0.8601
3748.054348 0.8598 0.8595 0.8593 0.8590 0.8590
3751.307142 0.8590 0.8590 0.8590 0.8588 0.8585
3754.559936 0.8582 0.8580 0.8580 0.8580 0.8580
3757.812730 0.8580 0.8580 0.8580 0.8580 0.8580
3761.065524 0.8580 0.8580 0.8580 0.8581 0.8583
3764.318318 0.8586 0.8588 0.8591 0.8594 0.8596
3767.571112 0.8599 0.8603 0.8608 0.8613 0.8618
3770.823906 0.8621 0.8624 0.8627 0.8629 0.8630
3774.076700 0.8630 0.8630 0.8630 0.8630 0.8630
3777.329494 0.8630 0.8630 0.8630 0.8630 0.8630
3780.582288 0.8630 0.8630 0.8630 0.8630 0.8630
3783.835082 0.8630 0.8630 0.8630 0.8630 0.8627
3787.087876 0.8625 0.8622 0.8619 0.8617 0.8614
3790.340670 0.8612 0.8610 0.8610 0.8610 0.8610
3793.593464 0.8610 0.8610 0.8610 0.8610 0.8610
3796.846258 0.8610 0.8610 0.8610 0.8609 0.8606
3800.099052 0.8603 0.8601 0.8600 0.8600 0.8600
3803.351846 0.8600 0.8598 0.8596 0.8593 0.8590
3806.604640 0.8590 0.8590 0.8590 0.8590 0.8590
3809.857434 0.8590 0.8590 0.8590 0.8590 0.8590
3813.110228 0.8590 0.8590 0.8590 0.8590 0.8590
3816.363022 0.8590 0.8590 0.8590 0.8590 0.8590
3819.615816 0.8590 0.8590 0.8590 0.8590 0.8590
3822.868610 0.8590 0.8590 0.8590 0.8590 0.8590
3826.121404 0.8590 0.8589 0.8586 0.8584 0.8581
3829.374198 0.8580 0.8580 0.8580 0.8580 0.8580
3832.626991 0.8580 0.8580 0.8580 0.8580 0.8580
3835.879785 0.8580 0.8580 0.8580 0.8580 0.8580
3839.132579 0.8580 0.8580 0.8580 0.8580 0.8580
3842.385373 0.8580 0.8580 0.8580 0.8580 0.8580
3845.638167 0.8580 0.8580 0.8580 0.8580 0.8580
3848.890961 0.8580 0.8580 0.8580 0.8580 0.8580
3852.143755 0.8580 0.8580 0.8580 0.8580 0.8580
3855.396549 0.8580 0.8580 0.8580 0.8580 0.8580
3858.649343 0.8580 0.8580 0.8580 0.8580 0.8580
3861.902137 0.8580 0.8580 0.8580 0.8580 0.8580
3865.154931 0.8580 0.8580 0.8580 0.8580 0.8583
3868.407725 0.8585 0.8588 0.8590 0.8590 0.8590
3871.660519 0.8590 0.8590 0.8590 0.8590 0.8590
3874.913313 0.8590 0.8590 0.8590 0.8590 0.8590
3878.166107 0.8590 0.8590 0.8590 0.8590 0.8590
3881.418901 0.8590 0.8590 0.8590 0.8590 0.8590
3884.671695 0.8590 0.8590 0.8590 0.8590 0.8590
3887.924489 0.8590 0.8590 0.8590 0.8590 0.8588
3891.177283 0.8585 0.8583 0.8580 0.8580 0.8580
3894.430077 0.8580 0.8580 0.8580 0.8580 0.8580
3897.682871 0.8580 0.8580 0.8580 0.8580 0.8580
3900.935665 0.8577 0.8574 0.8572 0.8570 0.8570
3904.188459 0.8570 0.8570 0.8569 0.8567 0.8564
3907.441253 0.8561 0.8560 0.8560 0.8560 0.8560
3910.694047 0.8560 0.8560 0.8560 0.8560 0.8560
3913.946841 0.8560 0.8560 0.8560 0.8560 0.8560
3917.199634 0.8560 0.8560 0.8560 0.8560 0.8560
3920.452428 0.8560 0.8558 0.8555 0.8553 0.8550
3923.705222 0.8548 0.8545 0.8542 0.8540 0.8540
3926.958016 0.8540 0.8540 0.8540 0.8540 0.8540
3930.210810 0.8540 0.8539 0.8537 0.8534 0.8532
3933.463604 0.8530 0.8530 0.8530 0.8530 0.8529
3936.716398 0.8526 0.8524 0.8521 0.8520 0.8520
3939.969192 0.8520 0.8520 0.8520 0.8520 0.8520
3943.221986 0.8520 0.8520 0.8520 0.8520 0.8520
3946.474780 0.8520 0.8520 0.8520 0.8520 0.8520
3949.727574 0.8520 0.8520 0.8520 0.8520 0.8520
3952.980368 0.8520 0.8520 0.8520 0.8520 0.8520
3956.233162 0.8520 0.8520 0.8520 0.8520 0.8520
3959.485956 0.8520 0.8520 0.8520 0.8520 0.8520
3962.738750 0.8520 0.8520 0.8519 0.8516 0.8514
3965.991544 0.8511 0.8510 0.8510 0.8510 0.8510
3969.244338 0.8510 0.8510 0.8510 0.8510 0.8510
3972.497132 0.8510 0.8510 0.8510 0.8508 0.8505
3975.749926 0.8503 0.8500 0.8500 0.8500 0.8500
3979.002720 0.8500 0.8500 0.8500 0.8500 0.8500
3982.255514 0.8500 0.8500 0.8500 0.8500 0.8500
3985.508308 0.8500 0.8500 0.8500 0.8500 0.8500
3988.761102 0.8500
##END=
