##TITLE=L (-)-2-BENZOYLAMINO-1,4-BUTANEDIOL DIBENZOATE
##JCAMP-DX=4.24
##DATA TYPE=INFRARED SPECTRUM
##CLASS=COBLENTZ
##ORIGIN=ARTHUR D. LITTLE, INC.
##OWNER=COBLENTZ SOCIETY
Collection (C) 2018 copyright by the U.S. Secretary of Commerce
on behalf of the United States of America. All rights reserved.
##DATE=Not specified, most likely prior to 1970
##NAMES=2-(benzoylamino)-4-(benzoyloxy)butyl benzoate
##CAS REGISTRY NO=10405-09-1
##MOLFORM=C25 H23 N O5
##MP=153-154 C
##SOURCE REFERENCE=COBLENTZ NO. 4546
##$NIST SOURCE=COBLENTZ
##$NIST IMAGE=cob4546
##SPECTROMETER/DATA SYSTEM=Not specified, most likely a prism, grating, or hybrid spectrometer.
##STATE=SOLID (MINERAL OIL MULL)
##PATH LENGTH=
$$SPECTRAL CONTAMINATIN DUE TO OIL AROUND 2900, 1460, 1375 CM^-^1
$$ HIGH PURITY
##SAMPLING PROCEDURE=TRANSMISSION
##RESOLUTION=4
##DATA PROCESSING=DIGITIZED BY NIST FROM HARD COPY
##XUNITS=1/CM
##YUNITS=TRANSMITTANCE
##XFACTOR=1.000000
##YFACTOR=1
##DELTAX=001.391304
##FIRSTX=649.217
##LASTX=3548.7
##FIRSTY=0.537
##MAXX=3548.7
##MINX=649.217
##MAXY=0.962
##MINY=0.029
##NPOINTS=2085
##XYDATA=(X++(Y..Y))
649.217000 0.5370 0.5350 0.5340 0.5310 0.5300
656.176862 0.5270 0.5240 0.5160 0.5100 0.5090
663.130000 0.5090 0.5070 0.5070 0.5040 0.4900
670.089862 0.4720 0.4690 0.4690 0.4680 0.4680
677.043000 0.4670 0.4580 0.4440 0.4440 0.4550
684.002862 0.4690 0.4820 0.5090 0.5090 0.4740
690.957000 0.4230 0.3670 0.3650 0.3520 0.3420
697.916862 0.3350 0.3320 0.3300 0.3170 0.3040
704.870000 0.1690 0.1650 0.1280 0.1160 0.1160
711.829862 0.1730 0.3100 0.3790 0.4260 0.4540
718.783000 0.4750 0.5000 0.5070 0.5170 0.5270
725.742862 0.5390 0.5440 0.5520 0.5650 0.5810
732.696000 0.5880 0.6000 0.6020 0.6050 0.6160
739.655862 0.6230 0.6290 0.6320 0.6340 0.6360
746.609000 0.6390 0.6430 0.6470 0.6500 0.6530
753.568862 0.6540 0.6550 0.6570 0.6570 0.6580
760.522000 0.6580 0.6600 0.6600 0.6600 0.6600
767.481862 0.6610 0.6610 0.6620 0.6620 0.6640
774.435000 0.6640 0.6640 0.6640 0.6640 0.6640
781.394862 0.6640 0.6640 0.6640 0.6650 0.6650
788.348000 0.6640 0.6640 0.6620 0.6570 0.6540
795.307862 0.6460 0.6400 0.6390 0.6370 0.6370
802.261000 0.6390 0.6400 0.6400 0.6410 0.6430
809.220862 0.6440 0.6440 0.6470 0.6530 0.6550
816.174000 0.6610 0.6640 0.6650 0.6670 0.6670
823.133862 0.6650 0.6650 0.6650 0.6620 0.6620
830.087000 0.6580 0.6550 0.6540 0.6550 0.6580
837.046862 0.6600 0.6610 0.6610 0.6610 0.6610
844.000000 0.6610 0.6610 0.6600 0.6570 0.6570
850.959862 0.6550 0.6550 0.6540 0.6540 0.6530
857.913000 0.6530 0.6530 0.6530 0.6530 0.6540
864.872862 0.6550 0.6550 0.6580 0.6600 0.6610
871.826000 0.6620 0.6620 0.6620 0.6620 0.6620
878.785862 0.6610 0.6610 0.6600 0.6600 0.6600
885.739000 0.6580 0.6580 0.6580 0.6570 0.6570
892.698862 0.6550 0.6550 0.6550 0.6540 0.6540
899.652000 0.6530 0.6530 0.6510 0.6480 0.6470
906.611862 0.6440 0.6440 0.6430 0.6410 0.6400
913.565000 0.6390 0.6390 0.6390 0.6370 0.6370
920.524862 0.6340 0.6270 0.6190 0.6130 0.6080
927.478000 0.6000 0.5970 0.5970 0.5950 0.5950
934.437862 0.5940 0.5940 0.5950 0.5980 0.6000
941.391000 0.6020 0.6080 0.6150 0.6200 0.6220
948.350862 0.6220 0.6220 0.6200 0.6190 0.6160
955.304000 0.6120 0.6050 0.6020 0.6010 0.5940
962.263862 0.5860 0.5690 0.5380 0.5160 0.5160
969.217000 0.5250 0.5350 0.5450 0.5560 0.5720
976.176862 0.5740 0.5740 0.5760 0.5790 0.5810
983.130000 0.5870 0.5970 0.6050 0.6150 0.6200
990.089862 0.6220 0.6260 0.6270 0.6290 0.6300
997.043000 0.6300 0.6320 0.6330 0.6330 0.6330
1004.002862 0.6330 0.6320 0.6320 0.6300 0.6290
1010.957000 0.6270 0.6250 0.6190 0.6160 0.6120
1017.916862 0.6000 0.5760 0.5510 0.5410 0.5390
1024.870000 0.5420 0.5510 0.5550 0.5800 0.6050
1031.829862 0.6180 0.6190 0.6190 0.6180 0.6130
1038.783000 0.6060 0.6050 0.6040 0.6000 0.5760
1045.742862 0.5630 0.5630 0.5760 0.5910 0.6040
1052.696000 0.6060 0.6130 0.6150 0.6150 0.6110
1059.655862 0.6040 0.6010 0.5940 0.5770 0.5590
1066.609000 0.5340 0.5030 0.4970 0.4970 0.5160
1073.568862 0.5340 0.5520 0.5700 0.5880 0.6040
1080.522000 0.6040 0.6020 0.6010 0.5970 0.5940
1087.481862 0.5910 0.5880 0.5860 0.5760 0.5740
1094.435000 0.5670 0.5550 0.5380 0.5180 0.4920
1101.394862 0.4890 0.4890 0.4880 0.4880 0.4860
1108.348000 0.4790 0.4680 0.4430 0.4040 0.3560
1115.307862 0.3000 0.2850 0.2850 0.3090 0.3600
1122.261000 0.3980 0.4330 0.4550 0.4670 0.4760
1129.220862 0.4760 0.4710 0.4650 0.4620 0.4580
1136.174000 0.4530 0.4530 0.4620 0.4930 0.5090
1143.133862 0.5280 0.5350 0.5350 0.5320 0.5270
1150.087000 0.5250 0.5170 0.5130 0.5110 0.5130
1157.046862 0.5230 0.5310 0.5410 0.5490 0.5520
1164.000000 0.5670 0.5690 0.5690 0.5670 0.5560
1170.959862 0.5480 0.5280 0.5070 0.5000 0.4990
1177.913000 0.5000 0.5160 0.5340 0.5550 0.5740
1184.872862 0.5880 0.6040 0.6060 0.6060 0.6060
1191.826000 0.6060 0.6050 0.6040 0.6040 0.6040
1198.785862 0.6010 0.6010 0.5950 0.5910 0.5870
1205.739000 0.5870 0.5840 0.5810 0.5810 0.5790
1212.698862 0.5730 0.5670 0.5660 0.5650 0.5580
1219.652000 0.5530 0.5520 0.5510 0.5480 0.5460
1226.611862 0.5450 0.5440 0.5420 0.5380 0.5280
1233.565000 0.5170 0.5020 0.5000 0.4930 0.4880
1240.524862 0.4850 0.4830 0.4740 0.4620 0.4530
1247.478000 0.4430 0.4330 0.4060 0.3830 0.3660
1254.437862 0.3520 0.3410 0.3310 0.3170 0.3100
1261.391000 0.3000 0.2950 0.2920 0.2860 0.2670
1268.350862 0.2480 0.2200 0.1940 0.1630 0.1510
1275.304000 0.1440 0.1420 0.1440 0.1510 0.1590
1282.263862 0.1650 0.1740 0.1760 0.1870 0.2050
1289.217000 0.2330 0.2650 0.3030 0.3310 0.3560
1296.176862 0.3810 0.4000 0.4120 0.4160 0.4190
1303.130000 0.4180 0.4150 0.4060 0.3910 0.3650
1310.089862 0.3410 0.3000 0.2710 0.2710 0.2820
1317.043000 0.2850 0.3160 0.3530 0.3760 0.4020
1324.002862 0.4260 0.4470 0.4540 0.4670 0.4790
1330.957000 0.4810 0.4810 0.4790 0.4780 0.4750
1337.916862 0.4710 0.4550 0.4510 0.4440 0.4400
1344.870000 0.4270 0.4110 0.4080 0.4050 0.4040
1351.829862 0.4010 0.4000 0.3970 0.3950 0.3860
1358.783000 0.3810 0.3690 0.3560 0.3300 0.2960
1365.742862 0.2890 0.2850 0.2790 0.2760 0.2740
1372.696000 0.2710 0.2690 0.2710 0.2750 0.2810
1379.655862 0.2930 0.3060 0.3420 0.3550 0.3980
1386.609000 0.4230 0.4550 0.4820 0.5000 0.5210
1393.568862 0.5380 0.5420 0.5440 0.5450 0.5460
1400.522000 0.5480 0.5480 0.5480 0.5460 0.5460
1407.481862 0.5450 0.5440 0.5420 0.5410 0.5390
1414.435000 0.5370 0.5270 0.5240 0.5170 0.5090
1421.394862 0.5040 0.5020 0.5020 0.5000 0.4990
1428.348000 0.4970 0.4830 0.4680 0.4470 0.4370
1435.307862 0.4230 0.4150 0.4110 0.4090 0.4060
1442.261000 0.3810 0.3440 0.3040 0.2570 0.2220
1449.220862 0.2080 0.1970 0.1910 0.1880 0.1870
1456.174000 0.1870 0.1870 0.1870 0.1880 0.1930
1463.133862 0.2010 0.2060 0.2090 0.2530 0.2960
1470.087000 0.3370 0.4160 0.4990 0.5450 0.5520
1477.046862 0.5720 0.5900 0.5950 0.6040 0.6150
1484.000000 0.6190 0.6220 0.6270 0.6430 0.6540
1490.959862 0.6720 0.6880 0.6950 0.7030 0.7100
1497.913000 0.7210 0.7210 0.7180 0.7160 0.7110
1504.872862 0.7070 0.7060 0.7060 0.7040 0.7030
1511.826000 0.7000 0.6930 0.6880 0.6710 0.6570
1518.785862 0.6430 0.6250 0.6220 0.6000 0.5630
1525.739000 0.5580 0.5510 0.5140 0.4950 0.4710
1532.698862 0.4480 0.4250 0.3980 0.3950 0.3940
1539.652000 0.3940 0.3930 0.3930 0.3930 0.3940
1546.611862 0.3950 0.4020 0.4060 0.4600 0.5250
1553.565000 0.5910 0.6510 0.6650 0.6880 0.7210
1560.524862 0.7340 0.7440 0.7450 0.7450 0.7440
1567.478000 0.7390 0.7350 0.7310 0.7250 0.7140
1574.437862 0.7040 0.6850 0.6750 0.6720 0.6720
1581.391000 0.6760 0.6790 0.6830 0.6850 0.6920
1588.350862 0.7180 0.7530 0.7830 0.7830 0.7790
1595.304000 0.7690 0.7560 0.7450 0.7200 0.6920
1602.263862 0.6650 0.6410 0.6090 0.6090 0.6680
1609.217000 0.6850 0.7090 0.7320 0.7310 0.7160
1616.176862 0.7020 0.6790 0.6650 0.6610 0.6550
1623.130000 0.6480 0.6260 0.6010 0.5810 0.5580
1630.089862 0.5060 0.4540 0.3860 0.3200 0.3170
1637.043000 0.3180 0.3240 0.3280 0.3700 0.4120
1644.002862 0.4580 0.5240 0.5840 0.6400 0.6850
1650.957000 0.7200 0.7410 0.7520 0.7730 0.7770
1657.916862 0.7770 0.7790 0.7790 0.7790 0.7790
1664.870000 0.7770 0.7770 0.7740 0.7730 0.7730
1671.829862 0.7760 0.7760 0.7730 0.7720 0.7700
1678.783000 0.7630 0.7530 0.7460 0.7350 0.7280
1685.742862 0.7240 0.7210 0.7200 0.7090 0.6960
1692.696000 0.6850 0.6570 0.5910 0.5240 0.4570
1699.655862 0.3910 0.2760 0.2500 0.2250 0.2000
1706.609000 0.1730 0.1730 0.1840 0.1940 0.2250
1713.568862 0.2460 0.3030 0.3000 0.2750 0.2540
1720.522000 0.2400 0.2400 0.2550 0.2850 0.3350
1727.481862 0.5110 0.6060 0.6710 0.7370 0.7760
1734.435000 0.8020 0.8340 0.8540 0.8570 0.8610
1741.394862 0.8710 0.8850 0.8880 0.9000 0.9020
1748.348000 0.9030 0.9060 0.9090 0.9140 0.9170
1755.307862 0.9200 0.9210 0.9210 0.9230 0.9230
1762.261000 0.9230 0.9240 0.9240 0.9240 0.9240
1769.220862 0.9240 0.9250 0.9250 0.9250 0.9250
1776.174000 0.9250 0.9250 0.9240 0.9240 0.9240
1783.133862 0.9240 0.9240 0.9240 0.9240 0.9240
1790.087000 0.9240 0.9250 0.9270 0.9320 0.9340
1797.046862 0.9340 0.9340 0.9350 0.9370 0.9370
1804.000000 0.9380 0.9380 0.9380 0.9380 0.9380
1810.959862 0.9380 0.9380 0.9380 0.9370 0.9370
1817.913000 0.9370 0.9350 0.9350 0.9350 0.9350
1824.872862 0.9370 0.9370 0.9380 0.9410 0.9420
1831.826000 0.9440 0.9450 0.9450 0.9460 0.9480
1838.785862 0.9490 0.9510 0.9510 0.9510 0.9510
1845.739000 0.9510 0.9520 0.9520 0.9520 0.9510
1852.698862 0.9510 0.9510 0.9510 0.9510 0.9520
1859.652000 0.9520 0.9520 0.9530 0.9530 0.9530
1866.611862 0.9530 0.9530 0.9530 0.9530 0.9530
1873.565000 0.9530 0.9530 0.9530 0.9530 0.9530
1880.524862 0.9530 0.9530 0.9530 0.9530 0.9530
1887.478000 0.9520 0.9520 0.9520 0.9520 0.9510
1894.437862 0.9510 0.9510 0.9510 0.9510 0.9510
1901.391000 0.9490 0.9460 0.9450 0.9450 0.9440
1908.350862 0.9440 0.9440 0.9450 0.9450 0.9450
1915.304000 0.9450 0.9460 0.9480 0.9490 0.9490
1922.263862 0.9490 0.9490 0.9490 0.9510 0.9510
1929.217000 0.9510 0.9510 0.9510 0.9520 0.9520
1936.176862 0.9520 0.9520 0.9530 0.9530 0.9530
1943.130000 0.9550 0.9550 0.9550 0.9530 0.9530
1950.089862 0.9520 0.9520 0.9510 0.9510 0.9490
1957.043000 0.9480 0.9480 0.9460 0.9450 0.9450
1964.002862 0.9450 0.9440 0.9440 0.9440 0.9450
1970.957000 0.9460 0.9490 0.9510 0.9510 0.9520
1977.916862 0.9520 0.9520 0.9520 0.9530 0.9530
1984.870000 0.9530 0.9530 0.9530 0.9530 0.9550
1991.829862 0.9550 0.9560 0.9560 0.9580 0.9580
1998.783000 0.9580 0.9590 0.9600 0.9600 0.9600
2005.742862 0.9600 0.9600 0.9600 0.9600 0.9620
2012.696000 0.9620 0.9600 0.9600 0.9600 0.9600
2019.655862 0.9590 0.9590 0.9590 0.9600 0.9600
2026.609000 0.9600 0.9600 0.9590 0.9590 0.9590
2033.568862 0.9580 0.9580 0.9560 0.9560 0.9560
2040.522000 0.9560 0.9560 0.9560 0.9560 0.9560
2047.481862 0.9560 0.9560 0.9560 0.9560 0.9560
2054.435000 0.9550 0.9550 0.9550 0.9550 0.9550
2061.394862 0.9550 0.9550 0.9550 0.9550 0.9550
2068.348000 0.9550 0.9550 0.9550 0.9550 0.9550
2075.307862 0.9550 0.9550 0.9550 0.9550 0.9550
2082.261000 0.9550 0.9550 0.9550 0.9550 0.9530
2089.220862 0.9530 0.9530 0.9530 0.9530 0.9530
2096.174000 0.9530 0.9530 0.9520 0.9520 0.9520
2103.133862 0.9520 0.9520 0.9520 0.9520 0.9520
2110.087000 0.9520 0.9520 0.9520 0.9520 0.9520
2117.046862 0.9520 0.9520 0.9520 0.9520 0.9520
2124.000000 0.9520 0.9520 0.9520 0.9520 0.9520
2130.959862 0.9520 0.9520 0.9520 0.9520 0.9520
2137.913000 0.9510 0.9510 0.9510 0.9510 0.9510
2144.872862 0.9510 0.9490 0.9490 0.9490 0.9490
2151.826000 0.9490 0.9490 0.9490 0.9490 0.9490
2158.785862 0.9490 0.9480 0.9480 0.9480 0.9480
2165.739000 0.9480 0.9480 0.9480 0.9480 0.9480
2172.698862 0.9480 0.9460 0.9460 0.9460 0.9460
2179.652000 0.9460 0.9450 0.9440 0.9440 0.9440
2186.611862 0.9440 0.9440 0.9440 0.9450 0.9450
2193.565000 0.9460 0.9460 0.9460 0.9450 0.9450
2200.524862 0.9450 0.9450 0.9450 0.9450 0.9450
2207.478000 0.9450 0.9450 0.9450 0.9440 0.9440
2214.437862 0.9440 0.9440 0.9440 0.9440 0.9440
2221.391000 0.9440 0.9440 0.9420 0.9420 0.9440
2228.350862 0.9440 0.9440 0.9440 0.9440 0.9440
2235.304000 0.9420 0.9420 0.9420 0.9410 0.9410
2242.263862 0.9410 0.9410 0.9410 0.9410 0.9410
2249.218000 0.9410 0.9410 0.9410 0.9410 0.9410
2256.177862 0.9410 0.9410 0.9410 0.9410 0.9410
2263.130000 0.9410 0.9420 0.9440 0.9440 0.9440
2270.089862 0.9440 0.9440 0.9440 0.9440 0.9440
2277.043000 0.9440 0.9420 0.9420 0.9410 0.9410
2284.002862 0.9410 0.9410 0.9410 0.9410 0.9410
2290.957000 0.9390 0.9380 0.9390 0.9380 0.9380
2297.916862 0.9380 0.9380 0.9370 0.9370 0.9350
2304.870000 0.9340 0.9320 0.9310 0.9310 0.9310
2311.829862 0.9300 0.9300 0.9280 0.9280 0.9280
2318.783000 0.9280 0.9270 0.9270 0.9270 0.9270
2325.742862 0.9270 0.9250 0.9250 0.9270 0.9270
2332.696000 0.9270 0.9270 0.9270 0.9280 0.9280
2339.655862 0.9280 0.9280 0.9270 0.9270 0.9270
2346.609000 0.9270 0.9270 0.9270 0.9270 0.9270
2353.568862 0.9280 0.9280 0.9280 0.9280 0.9300
2360.522000 0.9300 0.9300 0.9300 0.9310 0.9310
2367.481862 0.9300 0.9300 0.9300 0.9300 0.9310
2374.435000 0.9310 0.9310 0.9310 0.9310 0.9310
2381.394862 0.9310 0.9310 0.9310 0.9320 0.9310
2388.348000 0.9310 0.9310 0.9310 0.9300 0.9300
2395.307862 0.9300 0.9300 0.9280 0.9280 0.9300
2402.261000 0.9300 0.9280 0.9280 0.9280 0.9280
2409.220862 0.9280 0.9280 0.9280 0.9280 0.9280
2416.174000 0.9280 0.9280 0.9280 0.9280 0.9280
2423.133862 0.9280 0.9270 0.9270 0.9270 0.9270
2430.087000 0.9270 0.9270 0.9270 0.9250 0.9250
2437.046862 0.9250 0.9250 0.9250 0.9250 0.9250
2444.000000 0.9250 0.9250 0.9250 0.9250 0.9250
2450.959862 0.9270 0.9270 0.9270 0.9270 0.9270
2457.913000 0.9270 0.9270 0.9270 0.9270 0.9270
2464.872862 0.9270 0.9250 0.9250 0.9250 0.9250
2471.826000 0.9250 0.9250 0.9250 0.9250 0.9250
2478.785862 0.9250 0.9250 0.9250 0.9250 0.9250
2485.739000 0.9250 0.9250 0.9250 0.9240 0.9230
2492.698862 0.9230 0.9230 0.9210 0.9210 0.9210
2499.652000 0.9210 0.9210 0.9200 0.9180 0.9170
2506.611862 0.9170 0.9170 0.9170 0.9170 0.9170
2513.565000 0.9160 0.9160 0.9160 0.9140 0.9140
2520.524862 0.9130 0.9130 0.9130 0.9130 0.9130
2527.478000 0.9110 0.9110 0.9110 0.9100 0.9100
2534.437862 0.9090 0.9090 0.9090 0.9090 0.9070
2541.391000 0.9070 0.9070 0.9040 0.9040 0.9030
2548.350862 0.9030 0.9020 0.9000 0.9000 0.8990
2555.304000 0.8970 0.8970 0.8960 0.8950 0.8950
2562.263862 0.8930 0.8930 0.8920 0.8920 0.8920
2569.218000 0.8900 0.8890 0.8890 0.8880 0.8860
2576.177862 0.8850 0.8830 0.8820 0.8810 0.8790
2583.130000 0.8750 0.8740 0.8720 0.8710 0.8710
2590.089862 0.8690 0.8690 0.8680 0.8680 0.8670
2597.043000 0.8670 0.8650 0.8650 0.8650 0.8650
2604.002862 0.8640 0.8640 0.8640 0.8640 0.8640
2610.957000 0.8620 0.8620 0.8610 0.8610 0.8600
2617.916862 0.8580 0.8570 0.8550 0.8540 0.8530
2624.870000 0.8530 0.8510 0.8510 0.8510 0.8500
2631.829862 0.8500 0.8500 0.8480 0.8480 0.8480
2638.783000 0.8470 0.8470 0.8470 0.8470 0.8460
2645.742862 0.8460 0.8460 0.8460 0.8440 0.8440
2652.696000 0.8440 0.8440 0.8430 0.8430 0.8430
2659.655862 0.8410 0.8410 0.8400 0.8400 0.8390
2666.609000 0.8390 0.8370 0.8370 0.8360 0.8360
2673.568862 0.8360 0.8370 0.8370 0.8370 0.8370
2680.522000 0.8370 0.8370 0.8390 0.8390 0.8390
2687.481862 0.8390 0.8390 0.8370 0.8370 0.8360
2694.435000 0.8360 0.8360 0.8340 0.8340 0.8340
2701.394862 0.8330 0.8330 0.8330 0.8320 0.8320
2708.348000 0.8320 0.8320 0.8300 0.8300 0.8290
2715.307862 0.8270 0.8270 0.8270 0.8260 0.8260
2722.261000 0.8260 0.8270 0.8270 0.8290 0.8300
2729.220862 0.8320 0.8320 0.8330 0.8340 0.8370
2736.174000 0.8370 0.8370 0.8390 0.8400 0.8410
2743.133862 0.8410 0.8430 0.8430 0.8440 0.8440
2750.087000 0.8440 0.8440 0.8430 0.8410 0.8400
2757.046862 0.8390 0.8360 0.8360 0.8340 0.8320
2764.000000 0.8270 0.8250 0.8230 0.8200 0.8180
2770.959862 0.8160 0.8150 0.8130 0.8110 0.8090
2777.913000 0.8050 0.8010 0.8000 0.7940 0.7880
2784.872862 0.7800 0.7740 0.7720 0.7690 0.7650
2791.826000 0.7590 0.7550 0.7490 0.7410 0.7340
2798.785862 0.7280 0.7230 0.7180 0.7130 0.7070
2805.739000 0.6960 0.6860 0.6780 0.6710 0.6620
2812.698862 0.6540 0.6470 0.6360 0.6250 0.6130
2819.652000 0.6040 0.5880 0.5630 0.5510 0.5300
2826.611862 0.5100 0.4810 0.4510 0.4320 0.3970
2833.565000 0.3550 0.3230 0.2690 0.2150 0.1760
2840.524862 0.1420 0.1070 0.0810 0.0540 0.0500
2847.478000 0.0470 0.0430 0.0400 0.0400 0.0390
2854.437862 0.0390 0.0390 0.0390 0.0400 0.0410
2861.391000 0.0430 0.0440 0.0470 0.0480 0.0500
2868.350862 0.0500 0.0510 0.0510 0.0530 0.0530
2875.304000 0.0530 0.0530 0.0530 0.0540 0.0540
2882.263862 0.0540 0.0530 0.0510 0.0500 0.0410
2889.218000 0.0390 0.0370 0.0360 0.0340 0.0340
2896.177862 0.0330 0.0330 0.0330 0.0320 0.0320
2903.130000 0.0320 0.0300 0.0300 0.0300 0.0300
2910.089862 0.0290 0.0290 0.0290 0.0290 0.0290
2917.043000 0.0290 0.0290 0.0300 0.0300 0.0300
2924.002862 0.0300 0.0320 0.0330 0.0330 0.0340
2930.957000 0.0340 0.0340 0.0340 0.0360 0.0370
2937.916862 0.0370 0.0370 0.0390 0.0390 0.0390
2944.870000 0.0390 0.0400 0.0410 0.0430 0.0440
2951.829862 0.0480 0.0500 0.0500 0.0530 0.0540
2958.783000 0.0550 0.0570 0.0580 0.0620 0.0670
2965.742862 0.0720 0.0780 0.0920 0.1000 0.1160
2972.696000 0.1280 0.1390 0.1530 0.1700 0.1910
2979.655862 0.2150 0.2290 0.2540 0.2790 0.3100
2986.609000 0.3810 0.3970 0.4120 0.4250 0.4430
2993.568862 0.4620 0.4820 0.5000 0.5110 0.5280
3000.522000 0.5480 0.5620 0.5740 0.5860 0.6010
3007.481862 0.6040 0.6180 0.6270 0.6340 0.6500
3014.435000 0.6540 0.6610 0.6750 0.6860 0.6920
3021.394862 0.6960 0.6970 0.6990 0.7000 0.7000
3028.348000 0.7000 0.7020 0.7030 0.7040 0.7100
3035.307862 0.7160 0.7180 0.7210 0.7230 0.7240
3042.261000 0.7250 0.7250 0.7250 0.7270 0.7270
3049.220862 0.7270 0.7250 0.7250 0.7240 0.7240
3056.174000 0.7240 0.7240 0.7250 0.7270 0.7300
3063.133862 0.7300 0.7310 0.7320 0.7350 0.7370
3070.087000 0.7410 0.7450 0.7460 0.7510 0.7520
3077.046862 0.7550 0.7590 0.7620 0.7650 0.7670
3084.000000 0.7700 0.7720 0.7730 0.7760 0.7800
3090.959862 0.7840 0.7880 0.7910 0.7940 0.7970
3097.913000 0.7980 0.8000 0.8000 0.8010 0.8020
3104.872862 0.8040 0.8040 0.8040 0.8040 0.8050
3111.826000 0.8050 0.8060 0.8060 0.8060 0.8060
3118.785862 0.8060 0.8060 0.8050 0.8050 0.8050
3125.739000 0.8040 0.8040 0.8040 0.8040 0.8040
3132.698862 0.8040 0.8040 0.8040 0.8040 0.8040
3139.652000 0.8040 0.8040 0.8040 0.8040 0.8040
3146.611862 0.8040 0.8020 0.8020 0.8020 0.8020
3153.565000 0.8020 0.8020 0.8020 0.8020 0.8020
3160.524862 0.8020 0.8020 0.8010 0.8010 0.8010
3167.478000 0.8010 0.8010 0.8010 0.8010 0.8000
3174.437862 0.8000 0.8000 0.8000 0.8000 0.8000
3181.391000 0.8000 0.8000 0.8000 0.8010 0.8010
3188.350862 0.8010 0.8010 0.8010 0.8010 0.8010
3195.304000 0.8010 0.8010 0.8010 0.8010 0.8010
3202.263862 0.8010 0.8010 0.8010 0.8010 0.8010
3209.218000 0.8010 0.8010 0.8010 0.8010 0.8010
3216.177862 0.8010 0.8010 0.8000 0.8000 0.7980
3223.130000 0.7980 0.7980 0.7970 0.7970 0.7950
3230.089862 0.7940 0.7930 0.7930 0.7910 0.7900
3237.043000 0.7870 0.7870 0.7860 0.7830 0.7800
3244.002862 0.7760 0.7730 0.7700 0.7670 0.7650
3250.957000 0.7600 0.7550 0.7520 0.7520 0.7490
3257.916862 0.7450 0.7440 0.7380 0.7280 0.7180
3264.870000 0.7090 0.7000 0.6860 0.6820 0.6810
3271.829862 0.6780 0.6740 0.6710 0.6600 0.6540
3278.783000 0.6510 0.6440 0.6390 0.6320 0.6200
3285.742862 0.6180 0.6120 0.5930 0.5800 0.5660
3292.696000 0.5530 0.5490 0.5350 0.5280 0.5160
3299.655862 0.4990 0.4850 0.4690 0.4530 0.4370
3306.609000 0.4250 0.4130 0.4110 0.4090 0.4110
3313.568862 0.4180 0.4390 0.4570 0.4880 0.5160
3320.522000 0.5450 0.5790 0.6050 0.6370 0.6690
3327.481862 0.6990 0.7130 0.7320 0.7520 0.7600
3334.435000 0.7700 0.7800 0.7900 0.8000 0.8010
3341.394862 0.8080 0.8110 0.8190 0.8260 0.8300
3348.348000 0.8320 0.8360 0.8400 0.8430 0.8440
3355.307862 0.8460 0.8460 0.8470 0.8480 0.8480
3362.261000 0.8500 0.8500 0.8500 0.8500 0.8510
3369.220862 0.8510 0.8510 0.8510 0.8510 0.8510
3376.174000 0.8510 0.8510 0.8510 0.8510 0.8510
3383.133862 0.8510 0.8510 0.8510 0.8510 0.8510
3390.087000 0.8510 0.8510 0.8500 0.8500 0.8500
3397.046862 0.8500 0.8500 0.8510 0.8510 0.8510
3404.000000 0.8510 0.8510 0.8510 0.8510 0.8510
3410.959862 0.8510 0.8510 0.8510 0.8510 0.8510
3417.913000 0.8510 0.8510 0.8510 0.8510 0.8510
3424.872862 0.8510 0.8510 0.8510 0.8510 0.8510
3431.826000 0.8510 0.8510 0.8510 0.8510 0.8510
3438.785862 0.8510 0.8510 0.8510 0.8510 0.8510
3445.739000 0.8510 0.8510 0.8510 0.8510 0.8510
3452.698862 0.8510 0.8510 0.8510 0.8530 0.8530
3459.652000 0.8530 0.8530 0.8530 0.8540 0.8540
3466.611862 0.8540 0.8540 0.8540 0.8550 0.8550
3473.565000 0.8570 0.8570 0.8570 0.8580 0.8580
3480.524862 0.8580 0.8580 0.8600 0.8600 0.8600
3487.478000 0.8600 0.8610 0.8610 0.8610 0.8610
3494.437862 0.8610 0.8610 0.8620 0.8620 0.8610
3501.391000 0.8610 0.8610 0.8620 0.8620 0.8620
3508.350862 0.8620 0.8640 0.8640 0.8640 0.8640
3515.304000 0.8640 0.8640 0.8650 0.8650 0.8650
3522.263862 0.8650 0.8650 0.8650 0.8670 0.8670
3529.218000 0.8670 0.8650 0.8650 0.8640 0.8620
3536.177862 0.8620 0.8610 0.8600 0.8600 0.8570
3543.130000 0.8570 0.8550 0.8550 0.8540 0.8540
##END=
