##TITLE=p-TOLUALDEHYDE
##JCAMP-DX=4.24
##DATA TYPE=INFRARED SPECTRUM
##CLASS=COBLENTZ III
##ORIGIN=WESTERN REGIONAL RES. USDA
##OWNER=COBLENTZ SOCIETY
Collection (C) 2018 copyright by the U.S. Secretary of Commerce
on behalf of the United States of America. All rights reserved.
##DATE=1964/06/01
##NAMES=4-methylbenzaldehyde
##CAS REGISTRY NO=104-87-0
##MOLFORM=C8 H8 O
##BP=204 C
##SOURCE REFERENCE=COBLENTZ NO. 6182
##$NIST SOURCE=COBLENTZ
##$NIST IMAGE=cob6182
##SPECTROMETER/DATA SYSTEM=BECKMAN IR-7 (GRATING)
##INSTRUMENT PARAMETERS=GRATING CHANGES AT 3000, 2200, 1150 CM^-^1
##STATE=SOLUTION (10% IN CCl4 FOR 4000-1330 CM^-^1, 10% IN CS2 FOR 1330-600 CM^-^1)
##PATH LENGTH=0.011 CM, 0.010 CM
$$SPECTRAL CONTAMINATION DUE TO CCl4 AROUND 1550 CM^-^1
##SAMPLING PROCEDURE=TRANSMISSION
##RESOLUTION=4
##DATA PROCESSING=DIGITIZED BY NIST FROM HARD COPY (FROM TWO SEGMENTS)
##XUNITS=1/CM
##YUNITS=TRANSMITTANCE
##XFACTOR=1.000000
##YFACTOR=1
##DELTAX=0.661002
##FIRSTX=601.322
##LASTX=4004.16
##FIRSTY=0.547
##MAXX=4004.16
##MINX=601.322
##MAXY=0.898
##MINY=0
##NPOINTS=5149
##XYDATA=(X++(Y..Y))
601.322000 0.5470 0.5480 0.5570 0.5600 0.5640
604.627009 0.5730 0.5850 0.5970 0.6090 0.6190
607.932018 0.6320 0.6440 0.6570 0.6860 0.7020
611.237028 0.7100 0.7190 0.7270 0.7360 0.7440
614.542037 0.7520 0.7600 0.7670 0.7750 0.7810
617.847046 0.7870 0.7920 0.7970 0.8010 0.8040
621.152055 0.8100 0.8150 0.8190 0.8210 0.8240
624.457064 0.8250 0.8260 0.8270 0.8270 0.8280
627.762073 0.8290 0.8290 0.8300 0.8300 0.8300
631.067083 0.8310 0.8310 0.8310 0.8290 0.8270
634.372092 0.8250 0.8230 0.8110 0.8060 0.8000
637.677101 0.7940 0.7860 0.7770 0.7690 0.7690
640.982110 0.7690 0.7810 0.7870 0.7960 0.7960
644.287119 0.7980 0.7980 0.7980 0.7980 0.7980
647.592128 0.7970 0.7970 0.7960 0.7930 0.7900
650.897138 0.7870 0.7840 0.7800 0.7760 0.7710
654.202147 0.7710 0.7700 0.7710 0.7720 0.7770
657.507156 0.7810 0.7850 0.7900 0.7960 0.8010
660.812165 0.8130 0.8130 0.8150 0.8180 0.8210
664.117174 0.8230 0.8260 0.8270 0.8290 0.8290
667.422183 0.8310 0.8310 0.8310 0.8330 0.8330
670.727193 0.8330 0.8330 0.8330 0.8320 0.8310
674.032202 0.8310 0.8290 0.8290 0.8290 0.8290
677.337211 0.8290 0.8290 0.8290 0.8290 0.8310
680.642220 0.8380 0.8410 0.8440 0.8460 0.8470
683.947229 0.8480 0.8480 0.8480 0.8480 0.8480
687.252238 0.8480 0.8480 0.8480 0.8480 0.8480
690.557248 0.8480 0.8480 0.8480 0.8480 0.8480
693.862257 0.8480 0.8480 0.8470 0.8470 0.8460
697.167266 0.8460 0.8450 0.8450 0.8420 0.8380
700.472275 0.8340 0.8310 0.8300 0.8290 0.8290
703.777284 0.8290 0.8300 0.8310 0.8330 0.8340
707.082293 0.8350 0.8360 0.8380 0.8390 0.8390
710.387303 0.8400 0.8420 0.8420 0.8420 0.8430
713.692312 0.8430 0.8440 0.8440 0.8440 0.8450
716.997321 0.8460 0.8460 0.8460 0.8460 0.8470
720.302330 0.8470 0.8470 0.8480 0.8480 0.8480
723.607339 0.8480 0.8480 0.8480 0.8480 0.8480
726.912348 0.8470 0.8460 0.8460 0.8460 0.8450
730.217358 0.8440 0.8430 0.8420 0.8420 0.8410
733.522367 0.8400 0.8400 0.8390 0.8380 0.8370
736.827376 0.8350 0.8330 0.8280 0.8230 0.8200
740.132385 0.8170 0.8150 0.8130 0.8100 0.8070
743.437394 0.8030 0.7980 0.7920 0.7840 0.7740
746.742403 0.7190 0.6940 0.6680 0.6440 0.6140
750.047413 0.5801 0.5461 0.5430 0.4872 0.4402
753.352422 0.3920 0.3400 0.2870 0.2360 0.1571
756.657431 0.0781 0.0770 0.0780 0.1079 0.1379
759.962440 0.1680 0.1930 0.2820 0.3509 0.4659
763.267449 0.5139 0.5569 0.5929 0.6229 0.6479
766.572459 0.6830 0.6940 0.6990 0.7150 0.7260
769.877468 0.7350 0.7410 0.7450 0.7480 0.7500
773.182477 0.7520 0.7530 0.7530 0.7540 0.7540
776.487486 0.7550 0.7550 0.7540 0.7530 0.7520
779.792495 0.7500 0.7480 0.7440 0.7400 0.7360
783.097504 0.7320 0.7270 0.7230 0.7180 0.7140
786.402514 0.7080 0.7020 0.6960 0.6890 0.6810
789.707523 0.6770 0.6720 0.6630 0.6520 0.6410
793.012532 0.6290 0.6160 0.6000 0.5850 0.5670
796.317541 0.5121 0.4671 0.4371 0.4081 0.3781
799.622550 0.3330 0.2880 0.2470 0.2070 0.1071
802.927559 0.0571 0.0081 0.0070 0.0070 0.0080
806.232569 0.0090 0.0240 0.0400 0.0550 0.0710
809.537578 0.0860 0.1020 0.1150 0.1489 0.2636
812.842587 0.3010 0.3350 0.3650 0.3930 0.4180
816.147596 0.4619 0.4810 0.5000 0.5189 0.5369
819.452605 0.5560 0.5760 0.5970 0.6190 0.6440
822.757614 0.6580 0.6810 0.6890 0.6960 0.7020
826.062624 0.7070 0.7100 0.7120 0.7130 0.7140
829.367633 0.7150 0.7140 0.7140 0.7060 0.6980
832.672642 0.6900 0.6810 0.6770 0.6730 0.6660
835.977651 0.6580 0.6420 0.6240 0.6001 0.5751
839.282660 0.5229 0.4650 0.4060 0.3140 0.2221
842.587669 0.1661 0.1111 0.0561 0.0550 0.0560
845.892679 0.0840 0.1120 0.1400 0.1680 0.2349
849.197688 0.2570 0.2840 0.3508 0.4667 0.5089
852.502697 0.5430 0.5700 0.5910 0.6070 0.6190
855.807706 0.6280 0.6340 0.6390 0.6440 0.6480
859.112715 0.6540 0.6790 0.6860 0.6900 0.6940
862.417724 0.6980 0.7000 0.7040 0.7100 0.7140
865.722734 0.7170 0.7210 0.7240 0.7270 0.7300
869.027743 0.7320 0.7370 0.7440 0.7480 0.7500
872.332752 0.7520 0.7550 0.7570 0.7590 0.7610
875.637761 0.7640 0.7670 0.7710 0.7730 0.7760
878.942770 0.7790 0.7820 0.7850 0.7880 0.7930
882.247779 0.7960 0.7980 0.8000 0.8020 0.8040
885.552789 0.8070 0.8080 0.8110 0.8130 0.8160
888.857798 0.8200 0.8230 0.8260 0.8280 0.8300
892.162807 0.8320 0.8330 0.8340 0.8340 0.8360
895.467816 0.8370 0.8390 0.8400 0.8420 0.8420
898.772825 0.8430 0.8460 0.8470 0.8490 0.8500
902.077834 0.8500 0.8510 0.8510 0.8520 0.8520
905.382844 0.8520 0.8520 0.8520 0.8520 0.8520
908.687853 0.8520 0.8520 0.8520 0.8520 0.8520
911.992862 0.8520 0.8520 0.8520 0.8520 0.8520
915.297871 0.8520 0.8520 0.8530 0.8530 0.8530
918.602880 0.8530 0.8530 0.8530 0.8530 0.8530
921.907890 0.8530 0.8520 0.8520 0.8520 0.8520
925.212899 0.8520 0.8520 0.8520 0.8510 0.8510
928.517908 0.8500 0.8500 0.8490 0.8490 0.8480
931.822917 0.8480 0.8470 0.8470 0.8460 0.8450
935.127926 0.8440 0.8420 0.8410 0.8400 0.8390
938.432935 0.8380 0.8360 0.8340 0.8300 0.8250
941.737945 0.8170 0.8110 0.8090 0.8080 0.8070
945.042954 0.8060 0.8070 0.8080 0.8110 0.8150
948.347963 0.8170 0.8210 0.8230 0.8240 0.8250
951.652972 0.8270 0.8270 0.8290 0.8300 0.8300
954.957981 0.8320 0.8330 0.8330 0.8320 0.8320
958.262990 0.8300 0.8290 0.8270 0.8270 0.8270
961.568000 0.8270 0.8270 0.8270 0.8270 0.8270
964.873009 0.8270 0.8270 0.8260 0.8260 0.8260
968.178018 0.8260 0.8250 0.8250 0.8250 0.8260
971.483027 0.8260 0.8270 0.8280 0.8280 0.8280
974.788036 0.8290 0.8290 0.8290 0.8290 0.8310
978.093045 0.8310 0.8310 0.8320 0.8330 0.8330
981.398055 0.8330 0.8330 0.8320 0.8320 0.8320
984.703064 0.8310 0.8300 0.8290 0.8290 0.8280
988.008073 0.8270 0.8270 0.8270 0.8270 0.8260
991.313082 0.8250 0.8250 0.8240 0.8230 0.8220
994.618091 0.8220 0.8210 0.8170 0.8110 0.8080
997.923100 0.7980 0.7920 0.7650 0.7510 0.7290
1001.228110 0.7290 0.7290 0.7300 0.7370 0.7380
1004.533119 0.7400 0.7520 0.7650 0.7750 0.7810
1007.838128 0.7810 0.7840 0.7850 0.7860 0.7850
1011.143137 0.7830 0.7750 0.7710 0.7580 0.7470
1014.448146 0.6901 0.6810 0.6710 0.6162 0.6140
1017.753155 0.6150 0.6190 0.6290 0.6939 0.7200
1021.058165 0.7370 0.7460 0.7530 0.7580 0.7590
1024.363174 0.7600 0.7600 0.7590 0.7560 0.7560
1027.668183 0.7500 0.7400 0.7290 0.7170 0.7080
1030.973192 0.7030 0.7030 0.6930 0.6850 0.6790
1034.278201 0.6770 0.6740 0.6690 0.6660 0.6610
1037.583210 0.6600 0.6600 0.6600 0.6620 0.6660
1040.888220 0.6790 0.6870 0.6940 0.7020 0.7090
1044.193229 0.7150 0.7210 0.7250 0.7310 0.7330
1047.498238 0.7370 0.7460 0.7550 0.7610 0.7670
1050.803247 0.7710 0.7750 0.7790 0.7810 0.7840
1054.108256 0.7860 0.7890 0.7940 0.7970 0.8000
1057.413265 0.8010 0.8020 0.8040 0.8100 0.8150
1060.718275 0.8180 0.8200 0.8210 0.8220 0.8230
1064.023284 0.8230 0.8230 0.8250 0.8260 0.8270
1067.328293 0.8280 0.8280 0.8290 0.8290 0.8310
1070.633302 0.8320 0.8330 0.8340 0.8340 0.8340
1073.938311 0.8340 0.8350 0.8350 0.8350 0.8340
1077.243320 0.8340 0.8340 0.8340 0.8330 0.8320
1080.548330 0.8310 0.8300 0.8300 0.8290 0.8290
1083.853339 0.8290 0.8280 0.8280 0.8270 0.8270
1087.158348 0.8270 0.8270 0.8260 0.8250 0.8230
1090.463357 0.8200 0.8150 0.8090 0.8050 0.8040
1093.768366 0.8020 0.7980 0.7890 0.7790 0.7660
1097.073376 0.7520 0.7370 0.7190 0.7030 0.6860
1100.378385 0.6780 0.6690 0.6530 0.6460 0.6450
1103.683394 0.6460 0.6540 0.6590 0.6660 0.6800
1106.988403 0.6870 0.6940 0.6990 0.7080 0.7090
1110.293412 0.7090 0.7080 0.7070 0.7040 0.6940
1113.598421 0.6860 0.6770 0.6730 0.6690 0.6670
1116.903431 0.6850 0.6940 0.7100 0.7230 0.7430
1120.208440 0.7590 0.7720 0.7820 0.7900 0.7960
1123.513449 0.7990 0.8010 0.8020 0.8040 0.8060
1126.818458 0.8090 0.8120 0.8150 0.8190 0.8220
1130.123467 0.8240 0.8250 0.8250 0.8260 0.8270
1133.428476 0.8270 0.8270 0.8260 0.8260 0.8250
1136.733486 0.8250 0.8250 0.8250 0.8240 0.8230
1140.038495 0.8210 0.8190 0.8170 0.8150 0.8140
1143.343504 0.8130 0.8110 0.8090 0.8080 0.8070
1146.648513 0.8070 0.8060 0.8040 0.8030 0.8000
1149.953522 0.7910 0.7810 0.7630 0.7470 0.7310
1153.258531 0.7160 0.7010 0.6980 0.6920 0.6830
1156.563541 0.6730 0.6460 0.6080 0.5710 0.5280
1159.868550 0.4172 0.3052 0.2641 0.2391 0.2141
1163.173559 0.1549 0.0470 0.0380 0.0380 0.0380
1166.478568 0.0380 0.0550 0.0740 0.1239 0.1529
1169.783577 0.1811 0.2480 0.3230 0.3870 0.4869
1173.088586 0.5239 0.5549 0.5789 0.5999 0.6159
1176.393596 0.6290 0.6400 0.6500 0.6600 0.6830
1179.698605 0.6980 0.7080 0.7140 0.7140 0.7150
1183.003614 0.7150 0.7150 0.7150 0.7120 0.7040
1186.308623 0.6920 0.6830 0.6760 0.6680 0.6521
1189.613632 0.6330 0.6120 0.6040 0.5980 0.5810
1192.918641 0.5650 0.5480 0.5320 0.5160 0.4971
1196.223651 0.4780 0.4600 0.4510 0.4410 0.4230
1199.528660 0.4040 0.2453 0.2350 0.2240 0.2051
1202.833669 0.1850 0.1650 0.1450 0.1260 0.0880
1206.138678 0.0870 0.0870 0.0880 0.0940 0.1239
1209.443687 0.1420 0.1490 0.1570 0.1630 0.1680
1212.748696 0.1700 0.1720 0.1780 0.1880 0.2000
1216.053706 0.2340 0.2540 0.2750 0.2960 0.3599
1219.358715 0.4659 0.5099 0.5469 0.5799 0.6079
1222.663724 0.6310 0.6500 0.6810 0.6910 0.7000
1225.968733 0.7080 0.7140 0.7200 0.7260 0.7320
1229.273742 0.7380 0.7480 0.7550 0.7620 0.7670
1232.578751 0.7730 0.7770 0.7810 0.7840 0.7860
1235.883761 0.7890 0.7900 0.7920 0.7940 0.7950
1239.188770 0.7960 0.7970 0.7980 0.7980 0.7980
1242.493779 0.7980 0.7990 0.7990 0.7980 0.7980
1245.798788 0.7980 0.7970 0.7960 0.7960 0.7960
1249.103797 0.7950 0.7940 0.7940 0.7930 0.7930
1252.408807 0.7940 0.7940 0.7940 0.7960 0.7960
1255.713816 0.7980 0.7990 0.8010 0.8040 0.8060
1259.018825 0.8080 0.8100 0.8110 0.8130 0.8140
1262.323834 0.8140 0.8150 0.8160 0.8160 0.8170
1265.628843 0.8170 0.8170 0.8170 0.8160 0.8160
1268.933852 0.8150 0.8140 0.8130 0.8110 0.8090
1272.238862 0.8070 0.8040 0.8020 0.7980 0.7940
1275.543871 0.7910 0.7860 0.7810 0.7760 0.7700
1278.848880 0.7630 0.7560 0.7480 0.7340 0.7210
1282.153889 0.7120 0.7040 0.6970 0.6910 0.6850
1285.458898 0.6800 0.6770 0.6740 0.6680 0.6600
1288.763907 0.6510 0.6390 0.6130 0.5850 0.5560
1292.068917 0.5430 0.5310 0.5070 0.4841 0.4601
1295.373926 0.4490 0.4370 0.4260 0.4140 0.4140
1298.678935 0.4510 0.4630 0.5169 0.5180 0.5170
1301.983944 0.4129 0.3089 0.2040 0.2030 0.2030
1305.288953 0.2260 0.2979 0.3180 0.3589 0.3969
1308.593962 0.5101 0.5700 0.6160 0.6490 0.6880
1311.898972 0.6980 0.7040 0.7090 0.7140 0.7230
1315.203981 0.7230 0.7250 0.7250 0.7230 0.7230
1318.508990 0.7140 0.7100 0.7030 0.6950 0.6940
1321.813999 0.6930 0.6940 0.6950 0.7040 0.7120
1325.119008 0.7190 0.7260 0.7330 0.7400 0.7470
1328.424017 0.7700 0.7750 0.7790 0.7840 0.7940
1331.729027 0.8010 0.8070 0.8110 0.8160 0.8190
1335.034036 0.8230 0.8250 0.8270 0.8290 0.8310
1338.339045 0.8330 0.8340 0.8350 0.8350 0.8360
1341.644054 0.8360 0.8360 0.8360 0.8360 0.8360
1344.949063 0.8360 0.8360 0.8360 0.8360 0.8350
1348.254072 0.8340 0.8310 0.8250 0.8130 0.8030
1351.559082 0.7960 0.7900 0.7850 0.7810 0.7770
1354.864091 0.7730 0.7670 0.7600 0.7590 0.7580
1358.169100 0.7590 0.7620 0.7650 0.7710 0.7760
1361.474109 0.7810 0.7840 0.7870 0.7890 0.7910
1364.779118 0.7910 0.7920 0.7920 0.7930 0.7930
1368.084127 0.7930 0.7930 0.7920 0.7900 0.7880
1371.389137 0.7830 0.7780 0.7720 0.7650 0.7570
1374.694146 0.7460 0.7340 0.7180 0.7000 0.6770
1377.999155 0.6630 0.6490 0.6170 0.5791 0.5261
1381.304164 0.4720 0.4660 0.4580 0.4490 0.4240
1384.609173 0.3980 0.3720 0.3720 0.3720 0.3959
1387.914182 0.4201 0.4660 0.4810 0.4970 0.5350
1391.219192 0.5900 0.6260 0.6540 0.6869 0.6970
1394.524201 0.7060 0.7130 0.7220 0.7270 0.7290
1397.829210 0.7300 0.7320 0.7330 0.7340 0.7340
1401.134219 0.7330 0.7310 0.7300 0.7280 0.7270
1404.439228 0.7210 0.7080 0.7000 0.6920 0.6840
1407.744238 0.6760 0.6730 0.6690 0.6620 0.6550
1411.049247 0.6480 0.6420 0.6370 0.6310 0.6250
1414.354256 0.6190 0.6140 0.6100 0.6040 0.6000
1417.659265 0.5950 0.5910 0.5890 0.5890 0.5890
1420.964274 0.5910 0.5960 0.6040 0.6120 0.6180
1424.269283 0.6230 0.6290 0.6350 0.6390 0.6430
1427.574293 0.6480 0.6520 0.6560 0.6590 0.6610
1430.879302 0.6630 0.6640 0.6640 0.6630 0.6620
1434.184311 0.6600 0.6580 0.6550 0.6520 0.6500
1437.489320 0.6470 0.6440 0.6410 0.6380 0.6340
1440.794329 0.6290 0.6240 0.6190 0.6150 0.6110
1444.099338 0.6080 0.6050 0.6020 0.6000 0.5980
1447.404348 0.5960 0.5960 0.5950 0.5940 0.5950
1450.709357 0.5960 0.5980 0.6010 0.6040 0.6070
1454.014366 0.6100 0.6140 0.6160 0.6190 0.6230
1457.319375 0.6270 0.6310 0.6360 0.6410 0.6470
1460.624384 0.6530 0.6590 0.6640 0.6750 0.6790
1463.929393 0.6830 0.6870 0.6900 0.6940 0.6980
1467.234403 0.7030 0.7070 0.7120 0.7150 0.7190
1470.539412 0.7230 0.7270 0.7310 0.7350 0.7380
1473.844421 0.7400 0.7420 0.7440 0.7460 0.7470
1477.149430 0.7470 0.7480 0.7490 0.7500 0.7500
1480.454439 0.7500 0.7490 0.7490 0.7480 0.7480
1483.759448 0.7470 0.7450 0.7440 0.7440 0.7430
1487.064458 0.7420 0.7400 0.7400 0.7400 0.7380
1490.369467 0.7370 0.7350 0.7330 0.7310 0.7290
1493.674476 0.7270 0.7250 0.7230 0.7210 0.7210
1496.979485 0.7190 0.7160 0.7120 0.7080 0.7030
1500.284494 0.6960 0.6900 0.6840 0.6770 0.6750
1503.589503 0.6710 0.6660 0.6600 0.6560 0.6520
1506.894513 0.6500 0.6480 0.6480 0.6470 0.6450
1510.199522 0.6420 0.6390 0.6350 0.6310 0.6270
1513.504531 0.6250 0.6220 0.6200 0.6190 0.6190
1516.809540 0.6180 0.6180 0.6170 0.6160 0.6160
1520.114549 0.6160 0.6150 0.6140 0.6130 0.6110
1523.419558 0.6090 0.6070 0.6040 0.6020 0.5990
1526.724568 0.5960 0.5940 0.5910 0.5870 0.5830
1530.029577 0.5790 0.5710 0.5640 0.5580 0.5530
1533.334586 0.5480 0.5440 0.5390 0.5350 0.5290
1536.639595 0.5230 0.5120 0.5090 0.5080 0.5020
1539.944604 0.4940 0.4840 0.4760 0.4690 0.4660
1543.249613 0.4630 0.4600 0.4560 0.4540 0.4520
1546.554623 0.4500 0.4490 0.4480 0.4470 0.4470
1549.859632 0.4460 0.4450 0.4450 0.4460 0.4470
1553.164641 0.4500 0.4520 0.4540 0.4550 0.4570
1556.469650 0.4590 0.4620 0.4640 0.4680 0.4720
1559.774659 0.4770 0.4830 0.4870 0.4890 0.4900
1563.079669 0.4910 0.4910 0.4910 0.4910 0.4910
1566.384678 0.4890 0.4850 0.4730 0.4530 0.4450
1569.689687 0.4360 0.4230 0.4100 0.3820 0.3540
1572.994696 0.3259 0.2910 0.2700 0.2500 0.2300
1576.299705 0.2100 0.1900 0.1890 0.1900 0.2299
1579.604714 0.2500 0.2650 0.2681 0.3071 0.3630
1582.909724 0.4030 0.4080 0.4170 0.4260 0.4340
1586.214733 0.4390 0.4400 0.4400 0.4390 0.4370
1589.519742 0.4340 0.4260 0.4040 0.3721 0.3431
1592.824751 0.3340 0.3250 0.3060 0.2869 0.2420
1596.129760 0.2280 0.2140 0.1880 0.1490 0.1190
1599.434769 0.0899 0.0530 0.0410 0.0300 0.0190
1602.739779 0.0170 0.0170 0.0170 0.0170 0.0200
1606.044788 0.0290 0.0390 0.0490 0.0590 0.0690
1609.349797 0.0780 0.0880 0.0980 0.1040 0.1060
1612.654806 0.1351 0.1591 0.1840 0.2040 0.2380
1615.959815 0.2530 0.2680 0.2820 0.2960 0.3120
1619.264824 0.3300 0.3490 0.3720 0.4040 0.4520
1622.569834 0.4700 0.4850 0.4990 0.5140 0.5290
1625.874843 0.5470 0.5680 0.5810 0.5950 0.6090
1629.179852 0.6220 0.6350 0.6460 0.6560 0.6640
1632.484861 0.6690 0.6710 0.6770 0.6790 0.6810
1635.789870 0.6820 0.6820 0.6820 0.6810 0.6800
1639.094879 0.6790 0.6770 0.6750 0.6740 0.6670
1642.399889 0.6620 0.6580 0.6560 0.6530 0.6520
1645.704898 0.6500 0.6480 0.6470 0.6460 0.6470
1649.009907 0.6490 0.6500 0.6530 0.6560 0.6610
1652.314916 0.6640 0.6660 0.6670 0.6670 0.6680
1655.619925 0.6670 0.6660 0.6640 0.6580 0.6540
1658.924934 0.6500 0.6440 0.6380 0.6290 0.6190
1662.229944 0.6080 0.5980 0.5880 0.5780 0.5680
1665.534953 0.5590 0.5490 0.5400 0.5300 0.5230
1668.839962 0.5210 0.5120 0.5040 0.4980 0.4930
1672.144971 0.4880 0.4830 0.4770 0.4700 0.4620
1675.449980 0.4510 0.4450 0.4380 0.4220 0.4021
1678.754989 0.3780 0.3490 0.3150 0.2760 0.2300
1682.059999 0.2030 0.1770 0.1171 0.0711 0.0311
1685.365008 0.0270 0.0230 0.0160 0.0090 0.0080
1688.670017 0.0090 0.0090 0.0130 0.0180 0.0240
1691.975026 0.0270 0.0290 0.0300 0.0300 0.0310
1695.280035 0.0320 0.0320 0.0320 0.0310 0.0260
1698.585044 0.0220 0.0170 0.0120 0.0090 0.0070
1701.890054 0.0030 0.0000 0.0000 0.0000 0.0000
1705.195063 0.0000 0.0000 0.0000 0.0000 0.0000
1708.500072 0.0000 0.0000 0.0050 0.0100 0.0160
1711.805081 0.0180 0.0260 0.0290 0.0360 0.0440
1715.110090 0.0650 0.0850 0.1050 0.1260 0.1499
1718.415099 0.1781 0.2501 0.2960 0.3030 0.3380
1721.720109 0.3740 0.4090 0.4280 0.4639 0.4830
1725.025118 0.4970 0.5120 0.5290 0.5450 0.5600
1728.330127 0.5750 0.5880 0.5980 0.6040 0.6190
1731.635136 0.6270 0.6410 0.6470 0.6510 0.6560
1734.940145 0.6620 0.6670 0.6780 0.6830 0.6880
1738.245155 0.6920 0.6950 0.6960 0.6980 0.7010
1741.550164 0.7060 0.7100 0.7130 0.7140 0.7190
1744.855173 0.7230 0.7270 0.7320 0.7370 0.7400
1748.160182 0.7440 0.7500 0.7540 0.7590 0.7630
1751.465191 0.7690 0.7730 0.7770 0.7810 0.7850
1754.770200 0.7870 0.7890 0.7900 0.7960 0.8000
1758.075210 0.8020 0.8020 0.8030 0.8040 0.8060
1761.380219 0.8090 0.8110 0.8110 0.8110 0.8110
1764.685228 0.8090 0.8090 0.8080 0.8070 0.8060
1767.990237 0.8050 0.8030 0.8010 0.7980 0.7940
1771.295246 0.7900 0.7860 0.7810 0.7770 0.7750
1774.600255 0.7730 0.7720 0.7710 0.7720 0.7730
1777.905265 0.7770 0.7810 0.7840 0.7880 0.7940
1781.210274 0.7990 0.8030 0.8080 0.8110 0.8150
1784.515283 0.8170 0.8210 0.8230 0.8250 0.8270
1787.820292 0.8290 0.8310 0.8330 0.8340 0.8350
1791.125301 0.8360 0.8370 0.8380 0.8400 0.8400
1794.430310 0.8420 0.8420 0.8420 0.8430 0.8430
1797.735320 0.8430 0.8440 0.8440 0.8440 0.8430
1801.040329 0.8390 0.8360 0.8320 0.8290 0.8260
1804.345338 0.8230 0.8190 0.8160 0.8120 0.8080
1807.650347 0.8020 0.7960 0.7900 0.7820 0.7810
1810.955356 0.7790 0.7800 0.7830 0.7860 0.7920
1814.260365 0.7970 0.8020 0.8060 0.8110 0.8160
1817.565375 0.8210 0.8250 0.8290 0.8330 0.8380
1820.870384 0.8410 0.8440 0.8480 0.8480 0.8490
1824.175393 0.8510 0.8520 0.8540 0.8570 0.8580
1827.480402 0.8600 0.8610 0.8610 0.8640 0.8650
1830.785411 0.8670 0.8670 0.8670 0.8670 0.8680
1834.090420 0.8690 0.8690 0.8690 0.8700 0.8700
1837.395430 0.8700 0.8710 0.8710 0.8710 0.8700
1840.700439 0.8700 0.8690 0.8690 0.8690 0.8680
1844.005448 0.8670 0.8660 0.8650 0.8650 0.8640
1847.310457 0.8630 0.8630 0.8630 0.8630 0.8630
1850.615466 0.8640 0.8640 0.8650 0.8650 0.8660
1853.920475 0.8670 0.8670 0.8670 0.8680 0.8690
1857.225485 0.8690 0.8690 0.8700 0.8710 0.8710
1860.530494 0.8710 0.8720 0.8720 0.8720 0.8730
1863.835503 0.8740 0.8750 0.8750 0.8750 0.8750
1867.140512 0.8770 0.8770 0.8770 0.8770 0.8770
1870.445521 0.8770 0.8770 0.8770 0.8770 0.8760
1873.750530 0.8750 0.8750 0.8740 0.8730 0.8710
1877.055540 0.8710 0.8710 0.8710 0.8710 0.8700
1880.360549 0.8700 0.8690 0.8690 0.8680 0.8670
1883.665558 0.8660 0.8640 0.8620 0.8610 0.8590
1886.970567 0.8570 0.8550 0.8530 0.8510 0.8500
1890.275576 0.8480 0.8480 0.8470 0.8460 0.8460
1893.580586 0.8460 0.8470 0.8480 0.8480 0.8480
1896.885595 0.8500 0.8510 0.8520 0.8540 0.8560
1900.190604 0.8560 0.8570 0.8570 0.8570 0.8570
1903.495613 0.8560 0.8560 0.8550 0.8540 0.8530
1906.800622 0.8520 0.8500 0.8480 0.8440 0.8410
1910.105631 0.8370 0.8330 0.8280 0.8230 0.8170
1913.410641 0.8110 0.8050 0.7980 0.7910 0.7840
1916.715650 0.7800 0.7790 0.7790 0.7810 0.7860
1920.020659 0.7920 0.7990 0.8050 0.8060 0.8190
1923.325668 0.8290 0.8340 0.8360 0.8380 0.8460
1926.630677 0.8470 0.8500 0.8550 0.8580 0.8590
1929.935686 0.8600 0.8630 0.8670 0.8670 0.8680
1933.240696 0.8690 0.8710 0.8720 0.8730 0.8730
1936.545705 0.8730 0.8730 0.8740 0.8740 0.8730
1939.850714 0.8730 0.8730 0.8720 0.8710 0.8710
1943.155723 0.8700 0.8690 0.8690 0.8690 0.8700
1946.460732 0.8710 0.8710 0.8720 0.8730 0.8730
1949.765741 0.8740 0.8750 0.8750 0.8760 0.8770
1953.070751 0.8770 0.8770 0.8770 0.8780 0.8790
1956.375760 0.8780 0.8780 0.8780 0.8770 0.8770
1959.680769 0.8770 0.8750 0.8750 0.8730 0.8720
1962.985778 0.8710 0.8690 0.8680 0.8670 0.8650
1966.290787 0.8640 0.8630 0.8610 0.8610 0.8600
1969.595796 0.8590 0.8570 0.8550 0.8530 0.8520
1972.900806 0.8500 0.8500 0.8490 0.8490 0.8490
1976.205815 0.8490 0.8500 0.8500 0.8520 0.8540
1979.510824 0.8560 0.8570 0.8600 0.8630 0.8650
1982.815833 0.8670 0.8670 0.8680 0.8690 0.8700
1986.120842 0.8710 0.8730 0.8730 0.8740 0.8750
1989.425851 0.8750 0.8760 0.8770 0.8770 0.8780
1992.730861 0.8780 0.8790 0.8790 0.8790 0.8790
1996.035870 0.8790 0.8790 0.8790 0.8790 0.8790
1999.340879 0.8790 0.8790 0.8787 0.8785 0.8782
2002.645888 0.8780 0.8780 0.8780 0.8780 0.8780
2005.950897 0.8777 0.8775 0.8772 0.8770 0.8765
2009.255906 0.8760 0.8755 0.8750 0.8745 0.8740
2012.560916 0.8735 0.8730 0.8727 0.8725 0.8722
2015.865925 0.8720 0.8717 0.8715 0.8712 0.8710
2019.170934 0.8707 0.8705 0.8702 0.8700 0.8697
2022.475943 0.8695 0.8692 0.8690 0.8690 0.8690
2025.780952 0.8690 0.8689 0.8687 0.8684 0.8682
2029.085961 0.8679 0.8677 0.8674 0.8672 0.8669
2032.390971 0.8663 0.8658 0.8653 0.8648 0.8643
2035.695980 0.8638 0.8633 0.8628 0.8623 0.8618
2039.000989 0.8613 0.8607 0.8600 0.8592 0.8585
2042.305998 0.8576 0.8566 0.8556 0.8546 0.8536
2045.611007 0.8526 0.8516 0.8506 0.8496 0.8486
2048.916017 0.8476 0.8466 0.8457 0.8449 0.8441
2052.221026 0.8434 0.8427 0.8422 0.8417 0.8412
2055.526035 0.8409 0.8406 0.8404 0.8401 0.8399
2058.831044 0.8396 0.8394 0.8391 0.8389 0.8386
2062.136053 0.8384 0.8381 0.8381 0.8384 0.8387
2065.441062 0.8389 0.8392 0.8394 0.8397 0.8399
2068.746072 0.8413 0.8433 0.8453 0.8473 0.8485
2072.051081 0.8492 0.8500 0.8508 0.8515 0.8523
2075.356090 0.8530 0.8538 0.8544 0.8549 0.8554
2078.661099 0.8559 0.8573 0.8591 0.8609 0.8626
2081.966108 0.8638 0.8648 0.8658 0.8668 0.8674
2085.271117 0.8679 0.8684 0.8689 0.8690 0.8690
2088.576127 0.8690 0.8690 0.8694 0.8699 0.8704
2091.881136 0.8709 0.8712 0.8715 0.8717 0.8720
2095.186145 0.8722 0.8725 0.8727 0.8730 0.8735
2098.491154 0.8740 0.8745 0.8750 0.8750 0.8750
2101.796163 0.8750 0.8750 0.8755 0.8760 0.8765
2105.101172 0.8770 0.8773 0.8775 0.8778 0.8780
2108.406182 0.8780 0.8780 0.8780 0.8780 0.8783
2111.711191 0.8785 0.8788 0.8790 0.8790 0.8790
2115.016200 0.8790 0.8790 0.8790 0.8790 0.8790
2118.321209 0.8790 0.8790 0.8790 0.8790 0.8790
2121.626218 0.8790 0.8790 0.8790 0.8790 0.8793
2124.931227 0.8795 0.8798 0.8800 0.8800 0.8800
2128.236237 0.8800 0.8800 0.8797 0.8794 0.8792
2131.541246 0.8790 0.8790 0.8790 0.8790 0.8789
2134.846255 0.8784 0.8778 0.8773 0.8770 0.8770
2138.151264 0.8770 0.8770 0.8770 0.8770 0.8770
2141.456273 0.8770 0.8769 0.8767 0.8764 0.8762
2144.761282 0.8760 0.8760 0.8760 0.8760 0.8760
2148.066292 0.8760 0.8760 0.8760 0.8760 0.8760
2151.371301 0.8760 0.8760 0.8759 0.8756 0.8754
2154.676310 0.8751 0.8750 0.8750 0.8750 0.8750
2157.981319 0.8750 0.8750 0.8750 0.8750 0.8750
2161.286328 0.8750 0.8750 0.8750 0.8750 0.8750
2164.591337 0.8750 0.8750 0.8750 0.8750 0.8750
2167.896347 0.8750 0.8748 0.8746 0.8743 0.8741
2171.201356 0.8740 0.8740 0.8740 0.8740 0.8740
2174.506365 0.8740 0.8740 0.8740 0.8740 0.8740
2177.811374 0.8740 0.8740 0.8738 0.8736 0.8733
2181.116383 0.8731 0.8730 0.8730 0.8730 0.8730
2184.421392 0.8732 0.8734 0.8737 0.8739 0.8740
2187.726402 0.8740 0.8740 0.8740 0.8740 0.8740
2191.031411 0.8740 0.8740 0.8742 0.8745 0.8747
2194.336420 0.8750 0.8750 0.8750 0.8750 0.8750
2197.641429 0.8750 0.8750 0.8750 0.8750 0.8750
2200.946438 0.8750 0.8750 0.8750 0.8752 0.8755
2204.251448 0.8757 0.8760 0.8760 0.8760 0.8760
2207.556457 0.8760 0.8762 0.8765 0.8768 0.8770
2210.861466 0.8770 0.8770 0.8770 0.8770 0.8770
2214.166475 0.8770 0.8770 0.8770 0.8770 0.8770
2217.471484 0.8770 0.8770 0.8773 0.8775 0.8778
2220.776493 0.8780 0.8780 0.8780 0.8780 0.8780
2224.081503 0.8780 0.8780 0.8780 0.8780 0.8780
2227.386512 0.8780 0.8780 0.8780 0.8780 0.8780
2230.691521 0.8780 0.8780 0.8780 0.8780 0.8780
2233.996530 0.8781 0.8783 0.8786 0.8788 0.8790
2237.301539 0.8790 0.8790 0.8790 0.8790 0.8790
2240.606548 0.8790 0.8790 0.8790 0.8790 0.8790
2243.911558 0.8790 0.8790 0.8790 0.8790 0.8790
2247.216567 0.8790 0.8790 0.8790 0.8790 0.8789
2250.521576 0.8787 0.8784 0.8781 0.8779 0.8776
2253.826585 0.8774 0.8771 0.8768 0.8763 0.8758
2257.131594 0.8753 0.8749 0.8746 0.8744 0.8741
2260.436603 0.8736 0.8729 0.8721 0.8714 0.8709
2263.741613 0.8706 0.8704 0.8701 0.8699 0.8696
2267.046622 0.8694 0.8691 0.8686 0.8678 0.8671
2270.351631 0.8663 0.8659 0.8656 0.8653 0.8651
2273.656640 0.8641 0.8626 0.8611 0.8595 0.8588
2276.961649 0.8586 0.8583 0.8581 0.8577 0.8572
2280.266658 0.8567 0.8562 0.8560 0.8560 0.8560
2283.571668 0.8560 0.8560 0.8560 0.8560 0.8560
2286.876677 0.8562 0.8564 0.8567 0.8569 0.8576
2290.181686 0.8584 0.8591 0.8599 0.8614 0.8632
2293.486695 0.8649 0.8667 0.8678 0.8688 0.8698
2296.791704 0.8709 0.8719 0.8729 0.8739 0.8749
2300.096713 0.8750 0.8750 0.8750 0.8750 0.8754
2303.401723 0.8760 0.8765 0.8770 0.8770 0.8770
2306.706732 0.8770 0.8770 0.8770 0.8770 0.8770
2310.011741 0.8770 0.8770 0.8770 0.8770 0.8770
2313.316750 0.8768 0.8765 0.8762 0.8760 0.8757
2316.621759 0.8755 0.8752 0.8750 0.8745 0.8740
2319.926768 0.8735 0.8730 0.8725 0.8720 0.8715
2323.231778 0.8709 0.8704 0.8699 0.8694 0.8690
2326.536787 0.8687 0.8685 0.8682 0.8680 0.8680
2329.841796 0.8680 0.8680 0.8680 0.8677 0.8675
2333.146805 0.8672 0.8670 0.8670 0.8670 0.8670
2336.451814 0.8670 0.8670 0.8670 0.8670 0.8671
2339.756823 0.8673 0.8676 0.8678 0.8680 0.8680
2343.061833 0.8680 0.8680 0.8681 0.8683 0.8686
2346.366842 0.8688 0.8692 0.8697 0.8702 0.8707
2349.671851 0.8711 0.8713 0.8716 0.8718 0.8721
2352.976860 0.8723 0.8726 0.8728 0.8731 0.8734
2356.281869 0.8736 0.8739 0.8741 0.8744 0.8746
2359.586878 0.8749 0.8751 0.8754 0.8756 0.8759
2362.891888 0.8761 0.8764 0.8766 0.8769 0.8770
2366.196897 0.8770 0.8770 0.8770 0.8771 0.8774
2369.501906 0.8776 0.8779 0.8780 0.8780 0.8780
2372.806915 0.8780 0.8781 0.8784 0.8787 0.8789
2376.111924 0.8790 0.8790 0.8790 0.8790 0.8790
2379.416934 0.8790 0.8790 0.8790 0.8790 0.8790
2382.721943 0.8790 0.8790 0.8792 0.8794 0.8797
2386.026952 0.8799 0.8800 0.8800 0.8800 0.8800
2389.331961 0.8798 0.8796 0.8793 0.8791 0.8786
2392.636970 0.8781 0.8776 0.8771 0.8768 0.8765
2395.941979 0.8763 0.8760 0.8758 0.8755 0.8753
2399.246989 0.8750 0.8742 0.8731 0.8721 0.8711
2402.551998 0.8710 0.8710 0.8710 0.8710 0.8710
2405.857007 0.8710 0.8710 0.8710 0.8712 0.8715
2409.162016 0.8717 0.8720 0.8722 0.8725 0.8727
2412.467025 0.8730 0.8730 0.8730 0.8730 0.8730
2415.772034 0.8737 0.8745 0.8752 0.8760 0.8763
2419.077044 0.8765 0.8768 0.8770 0.8775 0.8780
2422.382053 0.8785 0.8790 0.8793 0.8795 0.8798
2425.687062 0.8800 0.8800 0.8800 0.8800 0.8800
2428.992071 0.8803 0.8805 0.8808 0.8810 0.8810
2432.297080 0.8810 0.8810 0.8810 0.8813 0.8815
2435.602089 0.8818 0.8820 0.8820 0.8820 0.8820
2438.907099 0.8820 0.8820 0.8820 0.8820 0.8819
2442.212108 0.8817 0.8814 0.8812 0.8810 0.8810
2445.517117 0.8810 0.8810 0.8809 0.8807 0.8804
2448.822126 0.8802 0.8800 0.8800 0.8800 0.8800
2452.127135 0.8800 0.8800 0.8800 0.8800 0.8799
2455.432144 0.8797 0.8794 0.8792 0.8790 0.8790
2458.737154 0.8790 0.8790 0.8791 0.8794 0.8796
2462.042163 0.8799 0.8800 0.8800 0.8800 0.8800
2465.347172 0.8802 0.8807 0.8812 0.8817 0.8820
2468.652181 0.8820 0.8820 0.8820 0.8820 0.8820
2471.957190 0.8820 0.8820 0.8821 0.8824 0.8826
2475.262199 0.8829 0.8830 0.8830 0.8830 0.8830
2478.567209 0.8830 0.8830 0.8830 0.8830 0.8830
2481.872218 0.8830 0.8830 0.8830 0.8828 0.8826
2485.177227 0.8823 0.8821 0.8820 0.8820 0.8820
2488.482236 0.8820 0.8818 0.8816 0.8813 0.8811
2491.787245 0.8808 0.8806 0.8803 0.8801 0.8798
2495.092254 0.8796 0.8793 0.8791 0.8786 0.8781
2498.397264 0.8776 0.8771 0.8766 0.8761 0.8756
2501.702273 0.8751 0.8748 0.8745 0.8743 0.8740
2505.007282 0.8736 0.8731 0.8726 0.8721 0.8716
2508.312291 0.8711 0.8706 0.8701 0.8695 0.8690
2511.617300 0.8685 0.8680 0.8678 0.8675 0.8673
2514.922309 0.8670 0.8665 0.8660 0.8655 0.8650
2518.227319 0.8650 0.8650 0.8650 0.8650 0.8648
2521.532328 0.8645 0.8643 0.8640 0.8640 0.8640
2524.837337 0.8640 0.8640 0.8640 0.8640 0.8640
2528.142346 0.8640 0.8643 0.8645 0.8648 0.8650
2531.447355 0.8650 0.8650 0.8650 0.8650 0.8650
2534.752365 0.8650 0.8650 0.8650 0.8650 0.8650
2538.057374 0.8650 0.8650 0.8653 0.8655 0.8658
2541.362383 0.8660 0.8660 0.8660 0.8660 0.8661
2544.667392 0.8663 0.8666 0.8668 0.8670 0.8670
2547.972401 0.8670 0.8670 0.8670 0.8670 0.8670
2551.277410 0.8670 0.8671 0.8673 0.8676 0.8678
2554.582420 0.8680 0.8680 0.8680 0.8680 0.8679
2557.887429 0.8677 0.8674 0.8672 0.8670 0.8670
2561.192438 0.8670 0.8670 0.8669 0.8666 0.8664
2564.497447 0.8661 0.8659 0.8656 0.8654 0.8651
2567.802456 0.8649 0.8646 0.8644 0.8641 0.8636
2571.107465 0.8629 0.8621 0.8614 0.8604 0.8591
2574.412475 0.8579 0.8566 0.8552 0.8537 0.8522
2577.717484 0.8506 0.8487 0.8464 0.8442 0.8419
2581.022493 0.8408 0.8406 0.8403 0.8401 0.8398
2584.327502 0.8396 0.8393 0.8391 0.8390 0.8390
2587.632511 0.8390 0.8390 0.8392 0.8394 0.8397
2590.937520 0.8399 0.8403 0.8408 0.8413 0.8418
2594.242530 0.8424 0.8429 0.8434 0.8439 0.8444
2597.547539 0.8449 0.8454 0.8459 0.8464 0.8469
2600.852548 0.8474 0.8479 0.8484 0.8489 0.8494
2604.157557 0.8499 0.8504 0.8509 0.8514 0.8519
2607.462566 0.8520 0.8520 0.8520 0.8520 0.8518
2610.767575 0.8515 0.8513 0.8510 0.8508 0.8505
2614.072585 0.8503 0.8500 0.8498 0.8495 0.8493
2617.377594 0.8490 0.8492 0.8495 0.8497 0.8500
2620.682603 0.8500 0.8500 0.8500 0.8500 0.8502
2623.987612 0.8505 0.8507 0.8510 0.8522 0.8535
2627.292621 0.8548 0.8560 0.8563 0.8565 0.8568
2630.597630 0.8570 0.8575 0.8580 0.8585 0.8590
2633.902640 0.8590 0.8590 0.8590 0.8590 0.8587
2637.207649 0.8585 0.8582 0.8579 0.8574 0.8569
2640.512658 0.8564 0.8560 0.8560 0.8560 0.8560
2643.817667 0.8559 0.8554 0.8549 0.8544 0.8539
2647.122676 0.8534 0.8529 0.8524 0.8519 0.8514
2650.427685 0.8509 0.8504 0.8499 0.8497 0.8494
2653.732695 0.8492 0.8489 0.8487 0.8484 0.8482
2657.037704 0.8477 0.8467 0.8457 0.8446 0.8435
2660.342713 0.8420 0.8404 0.8389 0.8373 0.8356
2663.647722 0.8338 0.8321 0.8298 0.8268 0.8238
2666.952731 0.8208 0.8172 0.8129 0.8087 0.8044
2670.257740 0.7996 0.7940 0.7885 0.7830 0.7776
2673.562750 0.7723 0.7670 0.7617 0.7579 0.7557
2676.867759 0.7534 0.7511 0.7494 0.7481 0.7469
2680.172768 0.7456 0.7446 0.7438 0.7431 0.7423
2683.477777 0.7413 0.7400 0.7387 0.7375 0.7358
2686.782786 0.7338 0.7318 0.7297 0.7285 0.7278
2690.087796 0.7270 0.7263 0.7237 0.7202 0.7167
2693.392805 0.7132 0.7098 0.7065 0.7033 0.7000
2696.697814 0.6966 0.6930 0.6895 0.6860 0.6836
2700.002823 0.6816 0.6795 0.6775 0.6755 0.6735
2703.307832 0.6715 0.6695 0.6656 0.6611 0.6566
2706.612841 0.6520 0.6465 0.6406 0.6348 0.6289
2709.917851 0.6221 0.6150 0.6080 0.6010 0.5922
2713.222860 0.5831 0.5741 0.5650 0.5542 0.5432
2716.527869 0.5321 0.5211 0.5075 0.4937 0.4799
2719.832878 0.4660 0.4573 0.4490 0.4408 0.4325
2723.137887 0.4242 0.4159 0.4076 0.3993 0.3920
2726.442896 0.3847 0.3774 0.3701 0.3695 0.3690
2729.747906 0.3685 0.3680 0.3683 0.3685 0.3688
2733.052915 0.3692 0.3768 0.3845 0.3921 0.4006
2736.357924 0.4169 0.4333 0.4496 0.4654 0.4775
2739.662933 0.4895 0.5016 0.5137 0.5260 0.5383
2742.967942 0.5506 0.5629 0.5747 0.5865 0.5983
2746.272951 0.6115 0.6311 0.6507 0.6703 0.6872
2749.577961 0.6932 0.6993 0.7053 0.7113 0.7170
2752.882970 0.7228 0.7286 0.7332 0.7339 0.7347
2756.187979 0.7354 0.7362 0.7369 0.7377 0.7385
2759.492988 0.7389 0.7387 0.7384 0.7382 0.7379
2762.797997 0.7377 0.7374 0.7372 0.7341 0.7263
2766.103006 0.7185 0.7107 0.7035 0.6973 0.6910
2769.408016 0.6847 0.6799 0.6771 0.6743 0.6716
2772.713025 0.6689 0.6664 0.6639 0.6614 0.6580
2776.018034 0.6534 0.6489 0.6444 0.6402 0.6365
2779.323043 0.6327 0.6289 0.6255 0.6225 0.6195
2782.628052 0.6165 0.6138 0.6116 0.6093 0.6071
2785.933061 0.6048 0.6025 0.6002 0.5979 0.5958
2789.238071 0.5938 0.5918 0.5898 0.5860 0.5812
2792.543080 0.5765 0.5717 0.5677 0.5642 0.5607
2795.848089 0.5572 0.5535 0.5497 0.5460 0.5422
2799.153098 0.5377 0.5330 0.5282 0.5234 0.5147
2802.458107 0.5044 0.4941 0.4838 0.4783 0.4745
2805.763116 0.4707 0.4670 0.4632 0.4594 0.4557
2809.068126 0.4519 0.4495 0.4475 0.4454 0.4434
2812.373135 0.4414 0.4394 0.4373 0.4353 0.4318
2815.678144 0.4280 0.4242 0.4205 0.4167 0.4129
2818.983153 0.4092 0.4054 0.4048 0.4045 0.4043
2822.288162 0.4040 0.4042 0.4045 0.4047 0.4050
2825.593171 0.4104 0.4162 0.4220 0.4278 0.4379
2828.898181 0.4482 0.4585 0.4688 0.4786 0.4884
2832.203190 0.4982 0.5080 0.5143 0.5206 0.5268
2835.508199 0.5331 0.5394 0.5457 0.5520 0.5581
2838.813208 0.5601 0.5622 0.5642 0.5663 0.5685
2842.118217 0.5708 0.5730 0.5763 0.5864 0.5964
2845.423227 0.6065 0.6171 0.6312 0.6453 0.6594
2848.728236 0.6710 0.6710 0.6710 0.6710 0.6710
2852.033245 0.6710 0.6710 0.6710 0.6710 0.6710
2855.338254 0.6710 0.6710 0.6711 0.6713 0.6716
2858.643263 0.6718 0.6723 0.6736 0.6748 0.6761
2861.948272 0.6773 0.6783 0.6793 0.6803 0.6812
2865.253282 0.6820 0.6828 0.6835 0.6850 0.6878
2868.558291 0.6905 0.6933 0.6957 0.6974 0.6992
2871.863300 0.7010 0.7026 0.7041 0.7056 0.7071
2875.168309 0.7084 0.7094 0.7104 0.7114 0.7122
2878.473318 0.7127 0.7132 0.7137 0.7141 0.7144
2881.778327 0.7146 0.7149 0.7151 0.7154 0.7156
2885.083337 0.7159 0.7160 0.7160 0.7160 0.7160
2888.388346 0.7161 0.7164 0.7166 0.7169 0.7170
2891.693355 0.7170 0.7170 0.7170 0.7147 0.7109
2894.998364 0.7071 0.7034 0.7001 0.6971 0.6940
2898.303373 0.6910 0.6879 0.6846 0.6813 0.6781
2901.608382 0.6767 0.6762 0.6757 0.6752 0.6746
2904.913392 0.6741 0.6736 0.6731 0.6701 0.6661
2908.218401 0.6621 0.6581 0.6540 0.6500 0.6460
2911.523410 0.6420 0.6378 0.6335 0.6292 0.6249
2914.828419 0.6197 0.6142 0.6086 0.6031 0.5967
2918.133428 0.5901 0.5835 0.5768 0.5758 0.5755
2921.438437 0.5753 0.5750 0.5752 0.5755 0.5757
2924.743447 0.5760 0.5810 0.5866 0.5921 0.5976
2928.048456 0.6034 0.6092 0.6149 0.6207 0.6222
2931.353465 0.6235 0.6247 0.6260 0.6299 0.6339
2934.658474 0.6380 0.6420 0.6430 0.6440 0.6450
2937.963483 0.6460 0.6470 0.6480 0.6490 0.6500
2941.268492 0.6510 0.6520 0.6530 0.6540 0.6540
2944.573502 0.6540 0.6540 0.6541 0.6546 0.6551
2947.878511 0.6556 0.6561 0.6566 0.6571 0.6576
2951.183520 0.6580 0.6583 0.6585 0.6588 0.6590
2954.488529 0.6593 0.6595 0.6598 0.6601 0.6606
2957.793538 0.6611 0.6616 0.6622 0.6632 0.6642
2961.098547 0.6652 0.6662 0.6669 0.6677 0.6684
2964.403557 0.6690 0.6690 0.6690 0.6690 0.6691
2967.708566 0.6693 0.6696 0.6698 0.6700 0.6700
2971.013575 0.6700 0.6700 0.6697 0.6690 0.6682
2974.318584 0.6675 0.6670 0.6670 0.6670 0.6670
2977.623593 0.6667 0.6659 0.6652 0.6644 0.6636
2980.928602 0.6626 0.6615 0.6605 0.6595 0.6585
2984.233612 0.6575 0.6565 0.6555 0.6545 0.6535
2987.538621 0.6525 0.6517 0.6512 0.6507 0.6502
2990.843630 0.6497 0.6492 0.6487 0.6482 0.6479
2994.148639 0.6476 0.6474 0.6471 0.6469 0.6466
2997.453648 0.6463 0.6461 0.6460 0.6460 0.6460
3000.758658 0.6460 0.6460 0.6460 0.6460 0.6460
3004.063667 0.6458 0.6456 0.6453 0.6451 0.6448
3007.368676 0.6446 0.6443 0.6441 0.6436 0.6431
3010.673685 0.6426 0.6421 0.6418 0.6416 0.6413
3013.978694 0.6411 0.6402 0.6392 0.6382 0.6372
3017.283703 0.6366 0.6361 0.6356 0.6351 0.6342
3020.588713 0.6332 0.6322 0.6312 0.6289 0.6264
3023.893722 0.6238 0.6213 0.6192 0.6172 0.6152
3027.198731 0.6132 0.6091 0.6049 0.6006 0.5963
3030.503740 0.5958 0.5955 0.5953 0.5950 0.5950
3033.808749 0.5950 0.5950 0.5950 0.5957 0.5965
3037.113758 0.5972 0.5980 0.6007 0.6035 0.6063
3040.418768 0.6090 0.6098 0.6105 0.6113 0.6121
3043.723777 0.6164 0.6207 0.6249 0.6290 0.6293
3047.028786 0.6295 0.6298 0.6299 0.6286 0.6274
3050.333795 0.6261 0.6247 0.6224 0.6202 0.6179
3053.638804 0.6158 0.6143 0.6127 0.6112 0.6100
3056.943813 0.6100 0.6100 0.6100 0.6109 0.6154
3060.248823 0.6199 0.6245 0.6289 0.6332 0.6375
3063.553832 0.6418 0.6455 0.6478 0.6501 0.6523
3066.858841 0.6563 0.6654 0.6744 0.6835 0.6920
3070.163850 0.6993 0.7066 0.7139 0.7193 0.7203
3073.468859 0.7213 0.7223 0.7240 0.7270 0.7301
3076.773868 0.7331 0.7351 0.7354 0.7356 0.7359
3080.078878 0.7354 0.7339 0.7324 0.7309 0.7292
3083.383887 0.7275 0.7257 0.7240 0.7230 0.7230
3086.688896 0.7230 0.7230 0.7237 0.7252 0.7267
3089.993905 0.7282 0.7299 0.7316 0.7334 0.7351
3093.298914 0.7369 0.7387 0.7404 0.7422 0.7441
3096.603923 0.7461 0.7481 0.7501 0.7527 0.7557
3099.908933 0.7587 0.7617 0.7639 0.7654 0.7669
3103.213942 0.7685 0.7700 0.7715 0.7730 0.7745
3106.518951 0.7785 0.7838 0.7891 0.7943 0.7962
3109.823960 0.7964 0.7967 0.7969 0.7972 0.7974
3113.128969 0.7977 0.7979 0.7980 0.7980 0.7980
3116.433978 0.7980 0.7980 0.7980 0.7980 0.7980
3119.738988 0.7982 0.7984 0.7987 0.7989 0.7992
3123.043997 0.7994 0.7997 0.8000 0.8004 0.8009
3126.349006 0.8014 0.8019 0.8028 0.8039 0.8049
3129.654015 0.8059 0.8067 0.8074 0.8082 0.8089
3132.959024 0.8104 0.8119 0.8134 0.8149 0.8159
3136.264033 0.8169 0.8180 0.8190 0.8197 0.8205
3139.569043 0.8212 0.8220 0.8222 0.8225 0.8227
3142.874052 0.8230 0.8233 0.8235 0.8238 0.8240
3146.179061 0.8243 0.8245 0.8248 0.8250 0.8250
3149.484070 0.8250 0.8250 0.8250 0.8253 0.8255
3152.789079 0.8258 0.8260 0.8260 0.8260 0.8260
3156.094088 0.8260 0.8263 0.8265 0.8268 0.8271
3159.399098 0.8279 0.8286 0.8294 0.8300 0.8303
3162.704107 0.8306 0.8308 0.8311 0.8316 0.8321
3166.009116 0.8326 0.8330 0.8330 0.8330 0.8330
3169.314125 0.8331 0.8333 0.8336 0.8338 0.8340
3172.619134 0.8340 0.8340 0.8340 0.8340 0.8340
3175.924144 0.8340 0.8340 0.8341 0.8343 0.8346
3179.229153 0.8348 0.8350 0.8350 0.8350 0.8350
3182.534162 0.8350 0.8350 0.8350 0.8350 0.8350
3185.839171 0.8350 0.8350 0.8350 0.8350 0.8350
3189.144180 0.8350 0.8350 0.8350 0.8350 0.8350
3192.449189 0.8350 0.8350 0.8350 0.8350 0.8350
3195.754199 0.8350 0.8350 0.8350 0.8350 0.8349
3199.059208 0.8346 0.8344 0.8341 0.8340 0.8340
3202.364217 0.8340 0.8340 0.8340 0.8340 0.8340
3205.669226 0.8340 0.8339 0.8336 0.8333 0.8331
3208.974235 0.8330 0.8330 0.8330 0.8330 0.8330
3212.279244 0.8330 0.8330 0.8330 0.8330 0.8330
3215.584254 0.8330 0.8330 0.8330 0.8330 0.8330
3218.889263 0.8330 0.8332 0.8334 0.8337 0.8339
3222.194272 0.8346 0.8353 0.8361 0.8368 0.8374
3225.499281 0.8379 0.8384 0.8389 0.8394 0.8399
3228.804290 0.8404 0.8409 0.8412 0.8415 0.8417
3232.109299 0.8420 0.8422 0.8425 0.8427 0.8430
3235.414309 0.8430 0.8430 0.8430 0.8430 0.8437
3238.719318 0.8445 0.8452 0.8460 0.8460 0.8460
3242.024327 0.8460 0.8460 0.8462 0.8465 0.8467
3245.329336 0.8470 0.8473 0.8475 0.8478 0.8480
3248.634345 0.8480 0.8480 0.8480 0.8480 0.8480
3251.939354 0.8480 0.8480 0.8480 0.8483 0.8485
3255.244364 0.8488 0.8490 0.8490 0.8490 0.8490
3258.549373 0.8490 0.8490 0.8490 0.8490 0.8490
3261.854382 0.8490 0.8490 0.8490 0.8490 0.8487
3265.159391 0.8485 0.8482 0.8480 0.8480 0.8480
3268.464400 0.8480 0.8480 0.8480 0.8480 0.8480
3271.769409 0.8480 0.8480 0.8480 0.8480 0.8480
3275.074419 0.8480 0.8480 0.8480 0.8479 0.8477
3278.379428 0.8474 0.8472 0.8470 0.8470 0.8470
3281.684437 0.8470 0.8470 0.8470 0.8470 0.8470
3284.989446 0.8470 0.8470 0.8470 0.8470 0.8469
3288.294455 0.8466 0.8464 0.8461 0.8460 0.8460
3291.599464 0.8460 0.8460 0.8460 0.8460 0.8460
3294.904474 0.8460 0.8459 0.8456 0.8454 0.8451
3298.209483 0.8449 0.8446 0.8444 0.8441 0.8440
3301.514492 0.8440 0.8440 0.8440 0.8440 0.8440
3304.819501 0.8440 0.8440 0.8439 0.8436 0.8434
3308.124510 0.8431 0.8430 0.8430 0.8430 0.8430
3311.429519 0.8430 0.8430 0.8430 0.8430 0.8432
3314.734529 0.8434 0.8437 0.8439 0.8440 0.8440
3318.039538 0.8440 0.8440 0.8442 0.8444 0.8447
3321.344547 0.8449 0.8452 0.8454 0.8457 0.8459
3324.649556 0.8460 0.8460 0.8460 0.8460 0.8460
3327.954565 0.8460 0.8460 0.8460 0.8458 0.8455
3331.259575 0.8453 0.8450 0.8448 0.8445 0.8443
3334.564584 0.8440 0.8440 0.8440 0.8440 0.8440
3337.869593 0.8440 0.8440 0.8440 0.8440 0.8438
3341.174602 0.8435 0.8433 0.8430 0.8428 0.8425
3344.479611 0.8423 0.8420 0.8420 0.8420 0.8420
3347.784620 0.8420 0.8418 0.8415 0.8413 0.8410
3351.089630 0.8407 0.8405 0.8402 0.8400 0.8395
3354.394639 0.8390 0.8385 0.8380 0.8375 0.8370
3357.699648 0.8365 0.8359 0.8349 0.8339 0.8329
3361.004657 0.8318 0.8301 0.8283 0.8266 0.8248
3364.309666 0.8230 0.8212 0.8195 0.8176 0.8153
3367.614675 0.8131 0.8108 0.8086 0.8066 0.8046
3370.919685 0.8026 0.8005 0.7982 0.7960 0.7937
3374.224694 0.7912 0.7880 0.7847 0.7814 0.7784
3377.529703 0.7762 0.7739 0.7716 0.7699 0.7697
3380.834712 0.7694 0.7692 0.7690 0.7690 0.7690
3384.139721 0.7690 0.7690 0.7690 0.7690 0.7690
3387.444730 0.7698 0.7720 0.7743 0.7766 0.7787
3390.749740 0.7808 0.7828 0.7848 0.7877 0.7918
3394.054749 0.7958 0.7998 0.8021 0.8024 0.8026
3397.359758 0.8029 0.8035 0.8045 0.8055 0.8065
3400.664767 0.8075 0.8085 0.8095 0.8105 0.8113
3403.969776 0.8118 0.8123 0.8128 0.8137 0.8149
3407.274785 0.8162 0.8174 0.8181 0.8184 0.8186
3410.579795 0.8189 0.8196 0.8206 0.8216 0.8226
3413.884804 0.8233 0.8238 0.8243 0.8248 0.8253
3417.189813 0.8258 0.8263 0.8268 0.8275 0.8283
3420.494822 0.8290 0.8298 0.8302 0.8304 0.8307
3423.799831 0.8309 0.8314 0.8319 0.8324 0.8329
3427.104840 0.8332 0.8334 0.8337 0.8339 0.8344
3430.409850 0.8349 0.8354 0.8359 0.8360 0.8360
3433.714859 0.8360 0.8360 0.8360 0.8360 0.8360
3437.019868 0.8360 0.8362 0.8365 0.8367 0.8370
3440.324877 0.8370 0.8370 0.8370 0.8370 0.8370
3443.629886 0.8370 0.8370 0.8370 0.8370 0.8370
3446.934895 0.8370 0.8370 0.8370 0.8370 0.8370
3450.239905 0.8370 0.8370 0.8370 0.8370 0.8370
3453.544914 0.8367 0.8365 0.8362 0.8360 0.8360
3456.849923 0.8360 0.8360 0.8360 0.8360 0.8360
3460.154932 0.8360 0.8360 0.8357 0.8355 0.8352
3463.459941 0.8350 0.8347 0.8345 0.8342 0.8340
3466.764950 0.8340 0.8340 0.8340 0.8340 0.8337
3470.069960 0.8335 0.8332 0.8330 0.8330 0.8330
3473.374969 0.8330 0.8330 0.8330 0.8330 0.8330
3476.679978 0.8329 0.8327 0.8324 0.8322 0.8319
3479.984987 0.8317 0.8314 0.8312 0.8310 0.8310
3483.289996 0.8310 0.8310 0.8309 0.8307 0.8304
3486.595006 0.8302 0.8299 0.8297 0.8294 0.8292
3489.900015 0.8290 0.8290 0.8290 0.8290 0.8289
3493.205024 0.8287 0.8284 0.8282 0.8279 0.8277
3496.510033 0.8274 0.8271 0.8270 0.8270 0.8270
3499.815042 0.8270 0.8269 0.8266 0.8264 0.8261
3503.120051 0.8259 0.8256 0.8254 0.8251 0.8250
3506.425061 0.8250 0.8250 0.8250 0.8249 0.8246
3509.730070 0.8244 0.8241 0.8239 0.8236 0.8234
3513.035079 0.8231 0.8230 0.8230 0.8230 0.8230
3516.340088 0.8229 0.8226 0.8224 0.8221 0.8218
3519.645097 0.8216 0.8213 0.8211 0.8210 0.8210
3522.950106 0.8210 0.8210 0.8208 0.8206 0.8203
3526.255116 0.8201 0.8200 0.8200 0.8200 0.8200
3529.560125 0.8198 0.8196 0.8193 0.8191 0.8190
3532.865134 0.8190 0.8190 0.8190 0.8190 0.8190
3536.170143 0.8190 0.8190 0.8188 0.8185 0.8183
3539.475152 0.8180 0.8180 0.8180 0.8180 0.8180
3542.780161 0.8180 0.8180 0.8180 0.8180 0.8182
3546.085171 0.8185 0.8187 0.8190 0.8190 0.8190
3549.390180 0.8190 0.8190 0.8190 0.8190 0.8190
3552.695189 0.8190 0.8190 0.8190 0.8190 0.8190
3556.000198 0.8193 0.8195 0.8198 0.8200 0.8200
3559.305207 0.8200 0.8200 0.8200 0.8203 0.8205
3562.610216 0.8208 0.8210 0.8210 0.8210 0.8210
3565.915226 0.8210 0.8210 0.8210 0.8210 0.8210
3569.220235 0.8216 0.8221 0.8226 0.8230 0.8233
3572.525244 0.8235 0.8238 0.8240 0.8243 0.8245
3575.830253 0.8248 0.8251 0.8253 0.8256 0.8258
3579.135262 0.8261 0.8263 0.8266 0.8268 0.8271
3582.440271 0.8273 0.8276 0.8278 0.8281 0.8283
3585.745281 0.8286 0.8288 0.8291 0.8296 0.8301
3589.050290 0.8307 0.8311 0.8313 0.8316 0.8318
3592.355299 0.8322 0.8327 0.8332 0.8337 0.8343
3595.660308 0.8354 0.8364 0.8374 0.8387 0.8407
3598.965317 0.8428 0.8448 0.8464 0.8474 0.8484
3602.270326 0.8495 0.8503 0.8511 0.8519 0.8526
3605.575336 0.8531 0.8534 0.8536 0.8539 0.8541
3608.880345 0.8544 0.8546 0.8549 0.8551 0.8554
3612.185354 0.8556 0.8559 0.8564 0.8572 0.8579
3615.490363 0.8587 0.8591 0.8594 0.8596 0.8599
3618.795372 0.8603 0.8608 0.8613 0.8618 0.8623
3622.100381 0.8628 0.8633 0.8638 0.8643 0.8648
3625.405391 0.8653 0.8658 0.8662 0.8664 0.8667
3628.710400 0.8669 0.8670 0.8670 0.8670 0.8670
3632.015409 0.8674 0.8679 0.8684 0.8689 0.8692
3635.320418 0.8694 0.8697 0.8699 0.8702 0.8704
3638.625427 0.8707 0.8709 0.8720 0.8733 0.8745
3641.930437 0.8758 0.8762 0.8765 0.8767 0.8770
3645.235446 0.8774 0.8779 0.8784 0.8789 0.8790
3648.540455 0.8790 0.8790 0.8790 0.8790 0.8790
3651.845464 0.8790 0.8790 0.8790 0.8790 0.8790
3655.150473 0.8790 0.8790 0.8790 0.8790 0.8790
3658.455482 0.8790 0.8790 0.8790 0.8790 0.8785
3661.760492 0.8780 0.8775 0.8770 0.8770 0.8770
3665.065501 0.8770 0.8770 0.8765 0.8760 0.8755
3668.370510 0.8750 0.8745 0.8740 0.8735 0.8730
3671.675519 0.8725 0.8720 0.8714 0.8709 0.8704
3674.980528 0.8699 0.8694 0.8690 0.8690 0.8690
3678.285537 0.8690 0.8690 0.8690 0.8690 0.8690
3681.590547 0.8691 0.8693 0.8696 0.8698 0.8701
3684.895556 0.8703 0.8706 0.8708 0.8711 0.8716
3688.200565 0.8721 0.8726 0.8731 0.8736 0.8741
3691.505574 0.8746 0.8752 0.8757 0.8762 0.8767
3694.810583 0.8771 0.8773 0.8776 0.8778 0.8782
3698.115592 0.8787 0.8792 0.8797 0.8801 0.8803
3701.420602 0.8806 0.8808 0.8811 0.8813 0.8816
3704.725611 0.8819 0.8822 0.8827 0.8832 0.8837
3708.030620 0.8840 0.8840 0.8840 0.8840 0.8841
3711.335629 0.8844 0.8846 0.8849 0.8851 0.8854
3714.640638 0.8856 0.8859 0.8861 0.8864 0.8866
3717.945647 0.8869 0.8871 0.8874 0.8876 0.8879
3721.250657 0.8883 0.8888 0.8893 0.8898 0.8900
3724.555666 0.8900 0.8900 0.8900 0.8902 0.8904
3727.860675 0.8907 0.8909 0.8912 0.8914 0.8917
3731.165684 0.8919 0.8920 0.8920 0.8920 0.8920
3734.470693 0.8922 0.8924 0.8927 0.8929 0.8930
3737.775702 0.8930 0.8930 0.8930 0.8932 0.8934
3741.080712 0.8937 0.8939 0.8940 0.8940 0.8940
3744.385721 0.8940 0.8940 0.8940 0.8940 0.8940
3747.690730 0.8942 0.8945 0.8947 0.8950 0.8950
3750.995739 0.8950 0.8950 0.8950 0.8952 0.8955
3754.300748 0.8957 0.8960 0.8960 0.8960 0.8960
3757.605757 0.8960 0.8960 0.8960 0.8960 0.8960
3760.910767 0.8960 0.8960 0.8960 0.8960 0.8960
3764.215776 0.8960 0.8960 0.8960 0.8960 0.8960
3767.520785 0.8960 0.8960 0.8960 0.8960 0.8960
3770.825794 0.8960 0.8963 0.8965 0.8968 0.8970
3774.130803 0.8970 0.8970 0.8970 0.8970 0.8970
3777.435812 0.8970 0.8970 0.8970 0.8970 0.8970
3780.740822 0.8970 0.8970 0.8970 0.8970 0.8970
3784.045831 0.8970 0.8970 0.8970 0.8970 0.8970
3787.350840 0.8970 0.8970 0.8970 0.8970 0.8970
3790.655849 0.8970 0.8970 0.8970 0.8970 0.8970
3793.960858 0.8970 0.8970 0.8970 0.8970 0.8970
3797.265867 0.8971 0.8973 0.8976 0.8978 0.8980
3800.570877 0.8980 0.8980 0.8980 0.8980 0.8980
3803.875886 0.8980 0.8980 0.8980 0.8980 0.8980
3807.180895 0.8980 0.8980 0.8980 0.8980 0.8980
3810.485904 0.8980 0.8980 0.8980 0.8980 0.8980
3813.790913 0.8980 0.8980 0.8980 0.8980 0.8980
3817.095923 0.8980 0.8980 0.8980 0.8980 0.8980
3820.400932 0.8980 0.8980 0.8980 0.8980 0.8980
3823.705941 0.8980 0.8980 0.8980 0.8980 0.8980
3827.010950 0.8980 0.8980 0.8980 0.8980 0.8980
3830.315959 0.8980 0.8980 0.8980 0.8980 0.8980
3833.620968 0.8980 0.8980 0.8980 0.8980 0.8980
3836.925978 0.8980 0.8980 0.8980 0.8980 0.8980
3840.230987 0.8980 0.8980 0.8980 0.8980 0.8980
3843.535996 0.8980 0.8980 0.8980 0.8980 0.8980
3846.841005 0.8980 0.8980 0.8980 0.8980 0.8980
3850.146014 0.8980 0.8980 0.8980 0.8980 0.8980
3853.451023 0.8980 0.8980 0.8980 0.8980 0.8980
3856.756033 0.8980 0.8980 0.8980 0.8980 0.8980
3860.061042 0.8980 0.8978 0.8975 0.8973 0.8970
3863.366051 0.8970 0.8970 0.8970 0.8970 0.8970
3866.671060 0.8970 0.8970 0.8970 0.8967 0.8965
3869.976069 0.8962 0.8960 0.8960 0.8960 0.8960
3873.281078 0.8960 0.8960 0.8960 0.8960 0.8960
3876.586088 0.8960 0.8960 0.8960 0.8960 0.8960
3879.891097 0.8960 0.8960 0.8960 0.8960 0.8960
3883.196106 0.8960 0.8960 0.8957 0.8955 0.8952
3886.501115 0.8950 0.8950 0.8950 0.8950 0.8950
3889.806124 0.8947 0.8944 0.8942 0.8940 0.8940
3893.111133 0.8940 0.8940 0.8940 0.8940 0.8940
3896.416143 0.8940 0.8939 0.8937 0.8934 0.8932
3899.721152 0.8929 0.8927 0.8924 0.8922 0.8920
3903.026161 0.8920 0.8920 0.8920 0.8920 0.8920
3906.331170 0.8920 0.8920 0.8919 0.8917 0.8914
3909.636179 0.8912 0.8910 0.8910 0.8910 0.8910
3912.941188 0.8910 0.8910 0.8910 0.8910 0.8911
3916.246198 0.8914 0.8916 0.8919 0.8920 0.8920
3919.551207 0.8920 0.8920 0.8920 0.8920 0.8920
3922.856216 0.8920 0.8923 0.8928 0.8933 0.8938
3926.161225 0.8940 0.8940 0.8940 0.8940 0.8941
3929.466234 0.8944 0.8946 0.8949 0.8952 0.8954
3932.771243 0.8957 0.8959 0.8960 0.8960 0.8960
3936.076253 0.8960 0.8960 0.8960 0.8960 0.8960
3939.381262 0.8960 0.8960 0.8960 0.8960 0.8960
3942.686271 0.8960 0.8960 0.8960 0.8962 0.8964
3945.991280 0.8967 0.8969 0.8970 0.8970 0.8970
3949.296289 0.8970 0.8972 0.8975 0.8977 0.8980
3952.601298 0.8980 0.8980 0.8980 0.8980 0.8980
3955.906308 0.8980 0.8980 0.8980 0.8980 0.8980
3959.211317 0.8980 0.8980 0.8980 0.8980 0.8980
3962.516326 0.8980 0.8978 0.8975 0.8973 0.8970
3965.821335 0.8970 0.8970 0.8970 0.8970 0.8968
3969.126344 0.8965 0.8963 0.8960 0.8960 0.8960
3972.431354 0.8960 0.8960 0.8960 0.8960 0.8960
3975.736363 0.8960 0.8960 0.8960 0.8960 0.8960
3979.041372 0.8960 0.8960 0.8960 0.8960 0.8960
3982.346381 0.8960 0.8960 0.8960 0.8960 0.8960
3985.651390 0.8960 0.8960 0.8960 0.8960 0.8960
3988.956399 0.8960 0.8960 0.8960 0.8960 0.8960
3992.261409 0.8957 0.8955 0.8952 0.8950 0.8950
3995.566418 0.8950 0.8950 0.8951 0.8953 0.8956
3998.871427 0.8958 0.8959 0.8957 0.8954 0.8952
4002.176436 0.8950 0.8950 0.8950 0.8950
##END=
