##TITLE=2,5-Dimethyl-4-methoxyphenylacetonitrile
##JCAMP-DX=4.24
##DATA TYPE=INFRARED SPECTRUM
##ORIGIN=EPA-IR VAPOR PHASE LIBRARY
##OWNER=SRD/NIST
Collection (C) 2018 copyright by the U.S. Secretary of Commerce
on behalf of the United States of America. All rights reserved.
##CAS REGISTRY NO=105909-12-4
##MOLFORM=C 11 H 13 N O
##$NIST SOURCE=MSDC-IR
##STATE=gas
##XUNITS=1/CM
##YUNITS=ABSORBANCE
##XFACTOR=1.
##YFACTOR=0.001
##DELTAX=1.92898
##FIRSTX=549.8
##LASTX=4000.7
##FIRSTY=5.792
##MAXX=4000.7
##MINX=549.759
##MAXY=0.155592
##MINY=0
##NPOINTS=1790
##XYDATA=(X++(Y..Y))
549.759 5.792 6.402 6.162 5.962 6.492 6.852 6.412 5.882 5.722 5.522
569.049 5.332 5.082 4.672 4.312 4.082 3.892 3.622 3.552 3.342 3.102
588.339 3.152 3.242 3.082 2.822 2.982 3.232 3.042 2.742 2.652 2.782
607.628 2.722 2.592 2.782 2.632 2.382 2.542 2.632 2.452 2.412 2.822
626.918 3.332 3.492 3.252 2.882 2.772 2.652 2.502 2.382 1.982 1.792
646.208 1.762 1.842 2.012 1.982 1.852 1.922 2.032 2.172 2.302 2.192
665.498 2.132 2.302 2.492 2.532 2.572 2.482 2.472 2.412 2.462 2.702
684.787 2.602 2.452 2.592 2.792 2.752 2.682 2.542 2.442 2.372 2.232
704.077 2.182 2.042 2.022 2.042 1.842 1.702 1.702 1.772 1.842 1.822
723.367 1.792 1.812 1.912 1.912 2.082 2.532 2.902 3.362 3.742 4.262
742.657 4.792 5.242 5.642 5.772 5.792 5.522 4.932 4.172 3.502 2.952
761.947 2.562 2.422 2.202 1.972 1.882 1.882 1.702 1.472 1.512 1.662
781.236 1.762 1.762 1.742 1.842 1.832 1.832 1.942 2.152 2.332 2.482
800.526 2.742 3.062 3.422 3.692 3.772 4.072 4.642 4.982 5.342 5.792
819.816 5.952 6.252 6.942 7.702 8.432 9.002 9.782 10.512 11.442 12.632
839.106 13.502 14.342 14.932 15.052 14.762 14.212 13.592 13.092 13.032 13.032
858.395 13.032 13.672 14.752 15.842 17.302 18.942 20.452 21.772 22.202 21.452
877.685 20.142 18.462 16.472 14.482 12.582 10.952 9.402 8.062 7.192 6.452
896.975 5.792 5.352 5.092 4.942 4.752 4.612 4.642 4.812 4.782 4.742
916.265 4.942 5.152 5.162 5.132 5.302 5.392 5.402 5.302 5.322 5.542
935.555 5.432 5.392 5.372 5.082 5.202 5.382 5.352 5.322 5.432 5.612
954.844 5.652 5.682 5.852 6.342 6.832 7.192 7.642 8.192 8.742 9.502
974.134 10.232 10.922 11.802 12.762 13.852 14.942 16.062 16.992 17.882 19.082
993.424 19.972 20.582 21.132 21.832 22.672 23.572 24.632 25.662 26.552 27.032
1012.714 26.892 26.792 26.582 25.362 24.052 22.852 21.182 19.612 18.392 16.892
1032.003 15.492 14.572 13.932 13.412 12.842 12.152 11.892 11.862 11.692 11.772
1051.293 12.012 12.372 12.282 12.552 13.692 14.752 15.832 17.662 20.012 22.682
1070.583 26.472 31.572 38.082 46.132 55.412 65.082 75.402 85.502 93.492 99.092
1089.873 100.662 97.572 91.612 82.882 71.572 59.942 49.032 39.322 31.212 25.092
1109.163 20.882 17.912 15.502 13.572 12.682 11.832 10.902 10.342 9.952 9.432
1128.452 8.982 9.272 9.362 9.462 10.112 10.362 10.702 11.462 12.232 13.262
1147.742 14.682 15.712 16.692 17.942 19.762 21.822 23.342 25.262 27.702 30.372
1167.032 32.972 35.972 39.592 43.222 46.422 49.762 53.542 56.612 59.222 62.392
1186.322 66.032 70.282 75.012 80.132 85.862 90.432 93.812 95.672 95.342 93.452
1205.611 88.942 81.692 72.622 63.542 55.522 47.882 41.032 35.112 29.912 25.932
1224.901 22.982 20.652 19.182 17.882 17.082 17.372 17.982 18.802 19.992 21.752
1244.191 24.082 27.032 30.502 34.582 39.452 45.072 51.172 58.142 66.252 74.692
1263.481 82.812 90.362 96.752 101.642 105.042 106.532 105.752 103.102 99.402 95.082
1282.771 90.492 86.132 82.012 78.362 75.282 72.512 70.052 67.952 66.112 64.172
1302.060 62.002 59.882 57.662 55.172 52.382 49.232 46.002 42.902 39.872 36.842
1321.350 33.802 30.902 28.132 25.372 22.832 20.472 18.282 16.332 14.672 13.352
1340.640 12.262 11.392 10.722 10.152 9.742 9.492 9.262 9.062 8.992 9.042
1359.930 9.142 9.352 9.852 10.552 11.372 12.372 13.562 14.832 15.872 16.612
1379.219 17.212 17.772 18.462 19.312 20.352 22.192 25.232 29.012 33.212 37.332
1398.509 40.702 43.092 44.222 43.992 42.542 40.092 37.022 33.922 31.542 30.242
1417.799 30.032 30.972 32.732 34.662 36.302 37.332 37.902 37.912 37.242 36.012
1437.089 34.482 33.292 32.872 33.242 34.142 35.312 36.742 38.522 40.672 43.002
1456.378 45.382 48.162 51.312 54.602 57.652 59.822 60.512 59.822 58.122 55.632
1475.668 52.302 48.312 44.342 41.112 39.422 39.332 40.702 43.652 48.332 54.982
1494.958 63.912 75.492 89.702 106.002 122.962 138.362 149.832 155.592 154.962 148.182
1514.248 135.662 118.352 98.082 77.592 59.712 46.522 37.542 31.702 27.992 25.382
1533.538 23.512 22.252 21.282 20.532 20.092 19.762 19.462 19.362 19.232 19.102
1552.827 19.092 19.142 19.312 19.432 19.702 20.052 20.272 20.602 20.992 21.312
1572.117 21.662 21.912 22.042 22.112 21.952 21.462 20.702 19.892 18.872 17.502
1591.407 16.332 15.332 14.542 14.332 14.532 15.262 16.682 18.592 21.032 23.892
1610.697 26.872 29.602 31.612 32.582 32.302 30.792 28.272 25.022 21.282 17.512
1629.986 14.182 11.522 9.482 8.092 7.292 6.662 6.022 5.642 5.332 5.052
1649.276 4.842 4.532 4.352 4.272 4.162 4.072 4.012 4.002 3.942 3.832
1668.566 3.792 3.762 3.732 3.732 3.802 3.802 3.682 3.622 3.602 3.552
1687.856 3.442 3.312 3.182 2.992 2.802 2.752 2.742 2.722 2.732 2.692
1707.146 2.712 2.762 2.792 2.852 2.922 3.002 3.152 3.242 3.312 3.462
1726.435 3.552 3.592 3.692 3.712 3.742 3.882 3.962 3.972 4.002 4.022
1745.725 3.962 3.822 3.642 3.562 3.492 3.362 3.192 3.022 2.922 2.872
1765.015 2.712 2.462 2.392 2.352 2.312 2.252 2.142 2.132 2.122 2.102
1784.305 2.062 2.032 2.072 2.032 1.992 1.992 2.032 1.982 1.852 1.812
1803.594 1.872 1.862 1.782 1.772 1.802 1.822 1.832 1.832 1.842 1.842
1822.884 1.842 1.872 1.932 1.912 1.892 1.922 1.942 1.922 1.832 1.772
1842.174 1.802 1.872 1.842 1.832 1.902 1.912 1.882 1.852 1.852 1.902
1861.464 1.942 1.912 1.862 1.822 1.852 1.852 1.822 1.842 1.802 1.782
1880.754 1.752 1.722 1.702 1.742 1.742 1.702 1.782 1.752 1.732 1.762
1900.043 1.782 1.812 1.832 1.842 1.782 1.692 1.652 1.602 1.592 1.612
1919.333 1.622 1.632 1.632 1.592 1.552 1.612 1.632 1.582 1.522 1.522
1938.623 1.522 1.512 1.502 1.522 1.582 1.602 1.542 1.472 1.452 1.472
1957.913 1.502 1.512 1.472 1.422 1.472 1.452 1.372 1.412 1.472 1.462
1977.202 1.432 1.452 1.482 1.522 1.582 1.572 1.602 1.682 1.692 1.702
1996.492 1.762 1.872 1.932 1.932 2.022 2.082 2.072 2.112 2.102 2.082
2015.782 2.162 2.232 2.232 2.222 2.242 2.282 2.292 2.202 2.082 2.032
2035.072 1.952 1.962 2.022 1.992 1.922 1.872 1.772 1.762 1.802 1.782
2054.362 1.792 1.832 1.932 1.972 2.042 2.132 2.242 2.342 2.392 2.422
2073.651 2.512 2.582 2.682 2.782 2.842 2.952 3.042 3.092 3.162 3.152
2092.941 3.142 3.242 3.212 3.122 3.042 2.982 2.952 2.832 2.742 2.712
2112.231 2.582 2.412 2.262 2.182 2.062 1.932 1.862 1.812 1.732 1.612
2131.521 1.482 1.422 1.352 1.332 1.302 1.2188 1.202 1.2387 1.282 1.2252
2150.810 1.1706 1.1866 1.1848 1.1972 1.2081 1.2372 1.2401 1.1669 1.2053 1.2303
2170.100 1.2027 1.1877 1.2082 1.2042 1.22 1.262 1.2218 1.2251 1.332 1.402
2189.390 1.352 1.342 1.292 1.2203 1.2348 1.272 1.332 1.312 1.292 1.372
2208.680 1.422 1.412 1.362 1.382 1.352 1.312 1.412 1.402 1.372 1.452
2227.970 1.592 1.702 1.822 1.962 2.202 2.482 2.682 2.942 3.352 3.902
2247.259 4.402 4.732 4.952 5.012 4.962 4.732 4.272 3.712 3.262 2.922
2266.549 2.542 2.232 2.072 1.992 1.882 1.772 1.702 1.642 1.662 1.652
2285.839 1.582 1.582 1.622 1.642 1.662 1.592 1.482 1.502 1.542 1.562
2305.129 1.602 1.512 1.402 1.442 1.442 1.402 1.352 1.392 1.382 1.225
2324.418 1.252 1.342 1.402 1.362 1.382 1.382 1.342 1.392 1.342 1.262
2343.708 1.2244 1.252 1.302 1.262 1.2055 1.322 1.292 1.272 1.352 1.282
2362.998 1.2229 1.2093 1.2142 1.1502 1.1138 1.1357 1.1685 1.2035 1.2327 1.2106
2382.288 1.2054 1.1758 1.1358 1.1745 1.1824 1.2399 1.272 1.302 1.272 1.262
2401.578 1.362 1.372 1.292 1.2367 1.252 1.302 1.312 1.302 1.2257 1.1506
2420.867 1.1456 1.1477 1.1724 1.1366 1.0882 1.1639 1.2286 1.1705 1.1837 1.302
2440.157 1.312 1.322 1.362 1.382 1.422 1.442 1.452 1.432 1.532 1.622
2459.447 1.582 1.622 1.692 1.752 1.762 1.762 1.802 1.782 1.722 1.662
2478.737 1.742 1.772 1.702 1.702 1.722 1.782 1.722 1.572 1.562 1.592
2498.026 1.522 1.422 1.372 1.342 1.312 1.322 1.302 1.262 1.262 1.292
2517.316 1.252 1.1347 1.1202 1.1818 1.272 1.312 1.312 1.402 1.432 1.362
2536.606 1.392 1.442 1.452 1.502 1.552 1.572 1.592 1.522 1.532 1.552
2555.896 1.572 1.672 1.772 1.792 1.832 1.922 1.922 2.012 2.112 2.032
2575.186 2.072 2.232 2.282 2.292 2.212 2.252 2.332 2.272 2.312 2.292
2594.475 2.282 2.322 2.262 2.172 2.082 2.092 2.032 1.942 1.832 1.702
2613.765 1.602 1.542 1.502 1.422 1.282 1.2269 1.292 1.312 1.272 1.2319
2633.055 1.322 1.392 1.312 1.292 1.372 1.422 1.552 1.552 1.392 1.362
2652.345 1.432 1.432 1.382 1.392 1.342 1.342 1.312 1.2399 1.352 1.462
2671.634 1.342 1.292 1.362 1.322 1.322 1.292 1.282 1.302 1.362 1.482
2690.924 1.522 1.632 1.702 1.762 1.752 1.762 1.892 1.952 1.882 1.892
2710.214 1.962 1.992 2.062 2.162 2.162 2.142 2.202 2.172 2.272 2.422
2729.504 2.472 2.532 2.652 2.872 2.992 3.062 3.222 3.362 3.362 3.362
2748.794 3.422 3.432 3.332 3.132 2.922 2.762 2.702 2.732 2.692 2.652
2768.083 2.592 2.612 2.742 2.882 3.032 3.142 3.272 3.392 3.532 3.662
2787.373 3.752 3.872 4.082 4.282 4.372 4.522 4.802 5.062 5.352 5.752
2806.663 6.082 6.522 6.952 7.382 8.052 8.682 9.452 10.282 11.122 12.172
2825.953 13.512 15.122 16.882 18.842 20.932 23.122 25.132 26.632 27.882 28.852
2845.242 29.372 29.632 29.702 29.642 29.572 29.782 30.262 30.622 30.902 31.202
2864.532 31.442 31.692 31.912 31.952 32.102 32.362 32.482 32.482 32.412 32.152
2883.822 31.782 31.512 31.282 31.042 30.822 30.942 31.312 31.872 32.732 33.862
2903.112 35.232 36.822 38.602 40.592 42.792 45.102 47.722 50.472 53.322 56.242
2922.401 59.292 62.942 67.202 71.882 76.802 81.372 85.152 88.142 90.102 90.982
2941.691 90.442 88.242 85.152 81.722 78.162 74.712 71.452 68.502 66.042 63.672
2960.981 61.152 58.622 55.882 53.102 50.582 48.312 46.322 44.822 43.752 42.912
2980.271 42.142 41.362 40.642 40.022 39.522 39.112 39.122 39.622 40.852 42.862
2999.561 45.342 47.822 49.572 50.232 49.902 48.812 47.022 44.582 41.552 38.642
3018.850 36.392 34.822 33.712 32.512 31.172 29.672 27.942 26.122 24.132 22.192
3038.140 20.382 18.742 17.602 16.712 15.892 15.412 15.152 14.872 14.682 14.792
3057.430 14.852 14.612 14.322 13.992 13.682 13.262 12.632 12.062 11.592 10.972
3076.720 10.382 9.702 9.022 8.522 7.982 7.592 7.252 6.772 6.432 6.232
3096.009 5.992 5.802 5.542 5.322 5.082 4.922 4.882 4.822 4.792 4.852
3115.299 4.902 4.802 4.732 4.712 4.652 4.612 4.532 4.442 4.332 4.132
3134.589 3.932 3.762 3.652 3.522 3.172 2.782 2.622 2.492 2.292 2.192
3153.879 2.112 2.032 1.932 2.002 2.182 2.102 2.022 2.062 1.952 1.912
3173.169 2.022 2.002 1.932 2.022 2.042 1.792 1.622 1.772 1.742 1.502
3192.458 1.462 1.432 1.372 1.302 1.312 1.422 1.532 1.332 1.1376 1.0843
3211.748 1.0264 1.1178 1.0928 1.0079 1.0734 0.9625 0.7982 0.8261 0.8478 0.7954
3231.038 0.6718 0.6667 0.7443 0.7626 0.6722 0.6398 0.6449 0.6852 0.7122 0.4629
3250.328 0.4329 0.4668 0.4004 0.4108 0.4325 0.4424 0.4734 0.5662 0.6225 0.4996
3269.617 0.3887 0.4387 0.4604 0.506 0.5727 0.7476 0.7473 0.4791 0.378 0.5128
3288.907 0.5084 0.4379 0.6158 0.5515 0.30836 0.3915 0.4729 0.4479 0.30161 0.27567
3308.197 0.4293 0.33769 0.29974 0.32583 0.4224 0.5085 0.4677 0.4595 0.33374 0.1471
3327.487 0.2114 0.3719 0.4054 0.4515 0.4663 0.4269 0.4634 0.529 0.3974 0.23862
3346.777 0.2218 0.246298 0.3647 0.5126 0.4678 0.2028 0.2117 0.252 0.1862 0.248024
3366.066 0.1914 0.1953 0.1806 0.2176 0.34199 0.26306 0.1666 0.152 0.083 0.23273
3385.356 0.4119 0.29693 0.197 0.1527 0.3707 0.5274 0.4235 0.3702 0.25603 0.2079
3404.646 0.251567 0.3714 0.4086 0.2859 0.25902 0.1807 0.05 0.23756 0.358 0.3171
3423.936 0.3799 0.31586 0.28462 0.3879 0.1544 0.068 0.26999 0.1775 0.087 0.116
3443.225 0.1852 0.26398 0.3711 0.34102 0.31235 0.3746 0.3507 0.3658 0.3883 0.25219
3462.515 0.215 0.31248 0.27505 0.1573 0.086 0.25323 0.2203 0.1607 0.4452 0.3943
3481.805 0.074 0.042 0.250687 0.28513 0.26018 0.227 0.2203 0.30415 0.242526 0.115
3501.095 0.1706 0.30573 0.3493 0.26969 0.2237 0.30146 0.3528 0.32035 0.29333 0.27846
3520.385 0.4078 0.4974 0.3665 0.3808 0.379 0.3544 0.29254 0.1871 0.26149 0.27632
3539.674 0.33828 0.5202 0.3934 0.1991 0.30448 0.30853 0.3434 0.4436 0.31555 0.27954
3558.964 0.33422 0.1744 0.1533 0.139 0.052 0.096 0.041 0.094 0.251018 0.32211
3578.254 0.28954 0.26284 0.3259 0.3598 0.2314 0.223 0.25352 0.25847 0.1904 0.30403
3597.544 0.3669 0.30565 0.30198 0.22 0.1763 0.227 0.3444 0.2035 0.1597 0.116
3616.833 0.045 0.1526 0.1422 0.033 0.048 0.128 0.1544 0.2082 0.25329 0.2256
3636.123 0.3115 0.4082 0.2315 0.26554 0.29399 0.29567 0.32867 0.27018 0.28317 0.251876
3655.413 0.121 0 0.116 0.2232 0.33643 0.4703 0.3479 0.27095 0.2165 0.109
3674.703 0.2149 0.2237 0.1992 0.1627 0.097 0.24081 0.28484 0.250586 0.25443 0.1694
3693.993 0.32839 0.4354 0.27936 0.2264 0.28807 0.31155 0.3761 0.31185 0.1636 0.32607
3713.282 0.4904 0.454 0.4525 0.3872 0.30488 0.23473 0.3632 0.5218 0.3848 0.25279
3732.572 0.123 0.141 0.1945 0.1569 0.241458 0.32939 0.3503 0.2056 0.1609 0.23682
3751.862 0.3791 0.4827 0.25991 0.126 0.124 0.2047 0.26296 0.31534 0.4484 0.4578
3771.152 0.4007 0.4349 0.3485 0.2182 0.4035 0.33209 0.29494 0.4693 0.3451 0.3482
3790.441 0.3772 0.25279 0.31835 0.4162 0.4741 0.451 0.31974 0.3983 0.3628 0.32081
3809.731 0.3909 0.4184 0.4154 0.2296 0.31459 0.3351 0.23636 0.29085 0.396 0.5169
3829.021 0.4963 0.3565 0.2227 0.2176 0.28735 0.31639 0.3796 0.5833 0.5734 0.3651
3848.311 0.196 0.29859 0.342 0.32291 0.5101 0.4772 0.4776 0.7153 0.6549 0.429
3867.601 0.4127 0.33269 0.226 0.4648 0.5753 0.3626 0.23406 0.243215 0.3863 0.5819
3886.890 0.5155 0.4485 0.4626 0.428 0.4875 0.3991 0.4495 0.5538 0.512 0.5479
3906.180 0.596 0.6613 0.6314 0.5642 0.6488 0.61 0.4381 0.5353 0.7378 0.7008
3925.470 0.445 0.4128 0.5564 0.5132 0.4506 0.4484 0.4811 0.5023 0.6979 0.7259
3944.760 0.621 0.6306 0.7415 0.8987 0.7911 0.6608 0.6418 0.6156 0.5634 0.5576
3964.049 0.5507 0.6006 0.7307 0.7844 0.6451 0.5128 0.4741 0.5385 0.7554 0.8023
3983.339 0.7844 0.6431 0.5343 0.5452 0.5289 0.5727 0.6517 0.7779 0.5984 0.3724
##END=
