##TITLE=CARBONIC ACID, DIETHYL ESTER
##JCAMP-DX=4.24
##DATA TYPE=INFRARED SPECTRUM
##CLASS=COBLENTZ III
##ORIGIN=WESTERN REGIONAL RES. USDA
##OWNER=COBLENTZ SOCIETY
Collection (C) 2018 copyright by the U.S. Secretary of Commerce
on behalf of the United States of America. All rights reserved.
##DATE=1964/06/08
##NAMES=diethyl carbonate
##CAS REGISTRY NO=105-58-8
##MOLFORM=C5 H10 O3
##BP=126 C
##SOURCE REFERENCE=COBLENTZ NO. 6175
##$NIST SOURCE=COBLENTZ
##$NIST IMAGE=cob6175
##SPECTROMETER/DATA SYSTEM=BECKMAN IR-7 (GRATING)
##INSTRUMENT PARAMETERS=GRATING CHANGES AT 3000, 2200, 1150 CM^-^1
##STATE=SOLUTION (10% IN CCl4 FOR 4000-1340 CM^-^1, 10% IN CS2 FOR 1340-600 CM^-^1)
##PATH LENGTH=0.011 CM, 0.010 CM
$$SPECTRAL CONTAMINATION DUE TO CCl4 AROUND 1550 CM^-^1
##SAMPLING PROCEDURE=TRANSMISSION
##RESOLUTION=4
##DATA PROCESSING=DIGITIZED BY NIST FROM HARD COPY (FROM TWO SEGMENTS)
##XUNITS=1/CM
##YUNITS=TRANSMITTANCE
##XFACTOR=1.000000
##YFACTOR=1
##DELTAX=0.650256
##FIRSTX=600.65
##LASTX=4010.59
##FIRSTY=0.893
##MAXX=4010.59
##MINX=600.65
##MAXY=0.894
##MINY=0
##NPOINTS=5245
##XYDATA=(X++(Y..Y))
600.650000 0.8930 0.8930 0.8930 0.8930 0.8930
603.901278 0.8930 0.8920 0.8910 0.8900 0.8890
607.152556 0.8880 0.8880 0.8890 0.8930 0.8940
610.403834 0.8940 0.8940 0.8940 0.8940 0.8930
613.655113 0.8930 0.8930 0.8910 0.8900 0.8880
616.906391 0.8870 0.8860 0.8840 0.8840 0.8830
620.157669 0.8820 0.8810 0.8810 0.8800 0.8780
623.408947 0.8760 0.8730 0.8710 0.8660 0.8640
626.660225 0.8600 0.8410 0.8400 0.8410 0.8430
629.911503 0.8450 0.8460 0.8490 0.8500 0.8500
633.162781 0.8500 0.8480 0.8450 0.8430 0.8410
636.414060 0.8390 0.8370 0.8340 0.8280 0.8280
639.665338 0.8250 0.8230 0.8200 0.8150 0.8150
642.916616 0.8140 0.8130 0.8120 0.8100 0.8100
646.167894 0.8090 0.8070 0.8050 0.8010 0.7990
649.419172 0.7960 0.7940 0.7920 0.7920 0.7920
652.670450 0.7960 0.7990 0.8010 0.8050 0.8080
655.921729 0.8100 0.8120 0.8140 0.8160 0.8170
659.173007 0.8170 0.8180 0.8180 0.8190 0.8190
662.424285 0.8190 0.8190 0.8180 0.8180 0.8180
665.675563 0.8160 0.8160 0.8150 0.8140 0.8140
668.926841 0.8150 0.8160 0.8160 0.8170 0.8180
672.178119 0.8180 0.8190 0.8190 0.8200 0.8210
675.429397 0.8220 0.8230 0.8250 0.8250 0.8260
678.680676 0.8270 0.8270 0.8280 0.8280 0.8280
681.931954 0.8290 0.8290 0.8290 0.8290 0.8290
685.183232 0.8290 0.8280 0.8280 0.8280 0.8280
688.434510 0.8270 0.8270 0.8270 0.8270 0.8260
691.685788 0.8250 0.8250 0.8250 0.8250 0.8240
694.937066 0.8230 0.8220 0.8210 0.8210 0.8200
698.188344 0.8190 0.8190 0.8180 0.8170 0.8170
701.439623 0.8160 0.8160 0.8150 0.8140 0.8140
704.690901 0.8140 0.8130 0.8130 0.8130 0.8140
707.942179 0.8140 0.8140 0.8140 0.8150 0.8160
711.193457 0.8160 0.8170 0.8180 0.8180 0.8190
714.444735 0.8190 0.8200 0.8210 0.8210 0.8220
717.696013 0.8220 0.8230 0.8250 0.8250 0.8250
720.947292 0.8250 0.8250 0.8250 0.8250 0.8240
724.198570 0.8240 0.8240 0.8240 0.8240 0.8250
727.449848 0.8250 0.8250 0.8250 0.8250 0.8260
730.701126 0.8260 0.8270 0.8270 0.8270 0.8270
733.952404 0.8280 0.8280 0.8300 0.8310 0.8320
737.203682 0.8320 0.8320 0.8320 0.8320 0.8330
740.454960 0.8330 0.8330 0.8330 0.8330 0.8320
743.706239 0.8320 0.8320 0.8310 0.8310 0.8300
746.957517 0.8290 0.8280 0.8280 0.8270 0.8270
750.208795 0.8260 0.8250 0.8250 0.8240 0.8230
753.460073 0.8210 0.8210 0.8200 0.8190 0.8180
756.711351 0.8140 0.8120 0.8090 0.8060 0.8030
759.962629 0.8010 0.7980 0.7930 0.7900 0.7870
763.213907 0.7830 0.7800 0.7770 0.7740 0.7720
766.465186 0.7690 0.7650 0.7610 0.7550 0.7490
769.716464 0.7440 0.7380 0.7330 0.7240 0.7130
772.967742 0.7040 0.7000 0.6861 0.6581 0.6540
776.219020 0.6470 0.6430 0.6380 0.5391 0.5310
779.470298 0.5190 0.5070 0.4641 0.4072 0.3821
782.721576 0.3560 0.3530 0.2701 0.2460 0.2231
785.972855 0.2041 0.1681 0.1321 0.1141 0.0961
789.224133 0.0950 0.0960 0.1370 0.1580 0.1780
792.475411 0.1990 0.2708 0.2710 0.2959 0.3329
795.726689 0.3450 0.3940 0.4449 0.4680 0.5039
798.977967 0.5399 0.5400 0.5520 0.5630 0.5739
802.229245 0.5810 0.5950 0.6070 0.6090 0.6090
805.480523 0.6180 0.6270 0.6469 0.6580 0.6690
808.731802 0.6750 0.6770 0.6810 0.6950 0.7010
811.983080 0.7060 0.7150 0.7190 0.7220 0.7270
815.234358 0.7280 0.7330 0.7380 0.7440 0.7470
818.485636 0.7500 0.7560 0.7610 0.7640 0.7670
821.736914 0.7690 0.7700 0.7710 0.7750 0.7760
824.988192 0.7760 0.7760 0.7760 0.7750 0.7740
828.239470 0.7720 0.7720 0.7710 0.7690 0.7670
831.490749 0.7630 0.7620 0.7620 0.7590 0.7560
834.742027 0.7540 0.7450 0.7440 0.7400 0.7340
837.993305 0.6811 0.6720 0.6640 0.6560 0.6480
841.244583 0.6450 0.6400 0.6320 0.5911 0.5601
844.495861 0.5421 0.5380 0.5320 0.5151 0.4971
847.747139 0.4660 0.4130 0.3450 0.2781 0.2630
850.998418 0.2520 0.2390 0.2021 0.1641 0.1441
854.249696 0.1350 0.1260 0.1250 0.1450 0.1640
857.500974 0.1829 0.2019 0.2678 0.2929 0.3189
860.752252 0.3450 0.4140 0.4290 0.4780 0.5539
864.003530 0.5740 0.5820 0.6119 0.6120 0.6190
867.254808 0.6250 0.6320 0.6450 0.6510 0.6570
870.506086 0.6640 0.6720 0.6770 0.6820 0.6930
873.757365 0.6940 0.6970 0.7000 0.7060 0.7060
877.008643 0.7110 0.7130 0.7150 0.7240 0.7260
880.259921 0.7270 0.7290 0.7300 0.7310 0.7320
883.511199 0.7330 0.7330 0.7340 0.7330 0.7320
886.762477 0.7290 0.7270 0.7230 0.7160 0.7090
890.013755 0.7020 0.6950 0.6900 0.6661 0.6551
893.265033 0.6490 0.6430 0.6300 0.6180 0.6050
896.516312 0.5920 0.5920 0.5920 0.6059 0.6189
899.767590 0.6450 0.6590 0.6720 0.6850 0.6970
903.018868 0.7090 0.7220 0.7340 0.7459 0.7540
906.270146 0.7560 0.7620 0.7720 0.7820 0.7890
909.521424 0.7950 0.8000 0.8030 0.8050 0.8070
912.772702 0.8090 0.8110 0.8120 0.8160 0.8160
916.023980 0.8180 0.8190 0.8190 0.8210 0.8210
919.275259 0.8230 0.8240 0.8250 0.8250 0.8270
922.526537 0.8270 0.8280 0.8280 0.8290 0.8290
925.777815 0.8300 0.8300 0.8310 0.8310 0.8310
929.029093 0.8310 0.8300 0.8300 0.8300 0.8300
932.280371 0.8290 0.8280 0.8280 0.8280 0.8270
935.531649 0.8270 0.8270 0.8270 0.8260 0.8250
938.782928 0.8250 0.8250 0.8240 0.8230 0.8230
942.034206 0.8220 0.8210 0.8210 0.8190 0.8180
945.285484 0.8160 0.8150 0.8120 0.8070 0.8030
948.536762 0.7990 0.7950 0.7920 0.7890 0.7850
951.788040 0.7820 0.7790 0.7760 0.7720 0.7710
955.039318 0.7690 0.7650 0.7510 0.7400 0.7231
958.290596 0.7150 0.7060 0.7010 0.6910 0.6860
961.541875 0.6840 0.6840 0.6790 0.6760 0.6750
964.793153 0.6710 0.6640 0.6540 0.6450 0.6430
968.044431 0.6410 0.6370 0.6320 0.6270 0.6160
971.295709 0.6040 0.6030 0.6020 0.5980 0.5820
974.546987 0.5690 0.5620 0.5441 0.5350 0.5310
977.798265 0.5310 0.5310 0.5450 0.5540 0.5620
981.049543 0.5670 0.5710 0.5730 0.5760 0.5790
984.300822 0.5830 0.5860 0.5900 0.5920 0.5930
987.552100 0.5920 0.5880 0.5840 0.5820 0.5800
990.803378 0.5760 0.5740 0.5710 0.5680 0.5650
994.054656 0.5600 0.5520 0.5440 0.5360 0.5290
997.305934 0.5220 0.5100 0.4990 0.4970 0.4890
1000.557212 0.4331 0.3772 0.3630 0.3501 0.3361
1003.808491 0.3230 0.3090 0.3000 0.2970 0.2661
1007.059769 0.2540 0.2410 0.2181 0.1941 0.1632
1010.311047 0.1270 0.0910 0.0810 0.0460 0.0400
1013.562325 0.0300 0.0270 0.0230 0.0190 0.0150
1016.813603 0.0110 0.0090 0.0080 0.0070 0.0070
1020.064881 0.0070 0.0080 0.0100 0.0140 0.0210
1023.316159 0.0270 0.0330 0.0390 0.0520 0.0630
1026.567438 0.0750 0.0900 0.0910 0.1050 0.1319
1029.818716 0.1460 0.1600 0.1870 0.2140 0.2589
1033.069994 0.2779 0.2949 0.3109 0.3259 0.3399
1036.321272 0.3540 0.3940 0.4170 0.4360 0.4520
1039.572550 0.4650 0.4750 0.4850 0.4930 0.5010
1042.823828 0.5170 0.5260 0.5360 0.5490 0.5630
1046.075106 0.5810 0.6019 0.6100 0.6110 0.6180
1049.326385 0.6250 0.6320 0.6460 0.6490 0.6520
1052.577663 0.6550 0.6590 0.6630 0.6670 0.6710
1055.828941 0.6750 0.6790 0.6820 0.6860 0.6880
1059.080219 0.6900 0.6910 0.6910 0.6910 0.6910
1062.331497 0.6910 0.6910 0.6880 0.6870 0.6850
1065.582775 0.6830 0.6800 0.6740 0.6690 0.6630
1068.834054 0.6600 0.6590 0.6520 0.6460 0.6400
1072.085332 0.6260 0.6180 0.6090 0.6000 0.5900
1075.336610 0.5810 0.5720 0.5510 0.5280 0.5170
1078.587888 0.5060 0.4871 0.4691 0.4511 0.4331
1081.839166 0.4300 0.4190 0.4030 0.3940 0.3840
1085.090444 0.3630 0.3440 0.3241 0.3081 0.2970
1088.341722 0.2900 0.2640 0.2630 0.2640 0.2820
1091.593001 0.3009 0.3209 0.3399 0.3599 0.3978
1094.844279 0.4140 0.4270 0.4270 0.4380 0.4490
1098.095557 0.4600 0.4710 0.4820 0.4930 0.5040
1101.346835 0.5160 0.5190 0.5200 0.5200 0.5180
1104.598113 0.5160 0.5130 0.5110 0.5090 0.5060
1107.849391 0.5020 0.4990 0.4960 0.4930 0.4900
1111.100669 0.4860 0.4830 0.4800 0.4790 0.4790
1114.351948 0.4790 0.4810 0.4900 0.5180 0.5310
1117.603226 0.5440 0.5540 0.5939 0.5960 0.6010
1120.854504 0.6090 0.6160 0.6240 0.6330 0.6500
1124.105782 0.6590 0.6660 0.6730 0.6770 0.6790
1127.357060 0.6820 0.6840 0.6860 0.6890 0.6910
1130.608338 0.6930 0.6950 0.6970 0.6990 0.7010
1133.859617 0.7020 0.7020 0.7040 0.7050 0.7060
1137.110895 0.7060 0.7060 0.7060 0.7050 0.7040
1140.362173 0.7040 0.7000 0.6960 0.6930 0.6900
1143.613451 0.6850 0.6750 0.6680 0.6630 0.6570
1146.864729 0.6510 0.6450 0.6430 0.6410 0.6390
1150.116007 0.6320 0.6240 0.6160 0.6070 0.6010
1153.367285 0.5970 0.5960 0.5940 0.5920 0.5900
1156.618564 0.5890 0.5870 0.5840 0.5820 0.5810
1159.869842 0.5810 0.5800 0.5780 0.5760 0.5740
1163.121120 0.5730 0.5720 0.5670 0.5620 0.5560
1166.372398 0.5490 0.5420 0.5350 0.5290 0.5230
1169.623676 0.5190 0.5150 0.5140 0.5120 0.5090
1172.874954 0.5080 0.5080 0.5080 0.5080 0.5180
1176.126232 0.5220 0.5350 0.5490 0.5560 0.5600
1179.377511 0.5710 0.5730 0.5800 0.5820 0.5870
1182.628789 0.5880 0.5940 0.6000 0.6030 0.6050
1185.880067 0.6090 0.6100 0.6120 0.6120 0.6120
1189.131345 0.6120 0.6110 0.6100 0.6090 0.6070
1192.382623 0.6060 0.6030 0.6010 0.5980 0.5940
1195.633901 0.5910 0.5870 0.5830 0.5780 0.5740
1198.885179 0.5700 0.5660 0.5620 0.5580 0.5530
1202.136458 0.5480 0.5420 0.5370 0.5320 0.5270
1205.387736 0.5220 0.5150 0.5080 0.5010 0.4900
1208.639014 0.4780 0.4710 0.4600 0.4570 0.4540
1211.890292 0.4340 0.4270 0.4210 0.4140 0.3950
1215.141570 0.3880 0.3800 0.3670 0.3530 0.3331
1218.392848 0.3210 0.2930 0.2640 0.2620 0.2550
1221.644127 0.2480 0.2450 0.2151 0.2060 0.2010
1224.895405 0.1860 0.1720 0.1600 0.1490 0.1400
1228.146683 0.1320 0.1290 0.1260 0.1200 0.1140
1231.397961 0.1090 0.1050 0.1000 0.0950 0.0900
1234.649239 0.0840 0.0780 0.0710 0.0620 0.0590
1237.900517 0.0510 0.0430 0.0360 0.0280 0.0200
1241.151795 0.0180 0.0140 0.0130 0.0100 0.0090
1244.403074 0.0090 0.0080 0.0070 0.0060 0.0050
1247.654352 0.0050 0.0040 0.0040 0.0030 0.0030
1250.905630 0.0020 0.0020 0.0010 0.0010 0.0010
1254.156908 0.0000 0.0000 0.0000 0.0000 0.0000
1257.408186 0.0000 0.0000 0.0000 0.0000 0.0000
1260.659464 0.0000 0.0000 0.0000 0.0000 0.0010
1263.910742 0.0010 0.0010 0.0010 0.0010 0.0020
1267.162021 0.0030 0.0030 0.0040 0.0050 0.0060
1270.413299 0.0070 0.0080 0.0090 0.0100 0.0100
1273.664577 0.0140 0.0160 0.0190 0.0220 0.0230
1276.915855 0.0290 0.0300 0.0390 0.0480 0.0570
1280.167133 0.0660 0.0750 0.0860 0.0970 0.1060
1283.418411 0.1130 0.1190 0.1240 0.1320 0.1370
1286.669690 0.1420 0.1460 0.1490 0.1510 0.1520
1289.920968 0.1510 0.1460 0.1420 0.1400 0.1360
1293.172246 0.1340 0.1290 0.1260 0.1220 0.1130
1296.423524 0.0990 0.0910 0.0900 0.0900 0.0940
1299.674802 0.1040 0.1309 0.1439 0.1559 0.1769
1302.926080 0.1990 0.2250 0.2680 0.2950 0.3190
1306.177358 0.3280 0.3679 0.3949 0.4000 0.4030
1309.428637 0.4260 0.4490 0.4750 0.4980 0.5040
1312.679915 0.5080 0.5170 0.5290 0.5419 0.5559
1315.931193 0.5580 0.5720 0.5810 0.5820 0.5900
1319.182471 0.5990 0.6060 0.6080 0.6180 0.6240
1322.433749 0.6270 0.6320 0.6340 0.6400 0.6450
1325.685027 0.6480 0.6500 0.6520 0.6530 0.6550
1328.936305 0.6570 0.6580 0.6600 0.6610 0.6630
1332.187584 0.6640 0.6660 0.6670 0.6680 0.6690
1335.438862 0.6690 0.6700 0.6700 0.6690 0.6680
1338.690140 0.6680 0.6670 0.6660 0.6660 0.6630
1341.941418 0.6620 0.6620 0.6610 0.6610 0.6580
1345.192696 0.6540 0.6460 0.6410 0.6350 0.6300
1348.443974 0.6240 0.6180 0.6110 0.6050 0.5781
1351.695253 0.5640 0.5500 0.5360 0.5221 0.5150
1354.946531 0.5080 0.4930 0.4371 0.4071 0.3751
1358.197809 0.3630 0.3570 0.3530 0.3490 0.3420
1361.449087 0.3300 0.3090 0.2790 0.2371 0.1961
1364.700365 0.1421 0.1260 0.1091 0.0901 0.0751
1367.951643 0.0580 0.0300 0.0140 0.0140 0.0140
1371.202921 0.0310 0.0370 0.0599 0.0869 0.0970
1374.454200 0.1560 0.1870 0.2090 0.2120 0.2340
1377.705478 0.2939 0.2990 0.2990 0.2990 0.2970
1380.956756 0.2880 0.2770 0.2640 0.2580 0.2520
1384.208034 0.2430 0.2430 0.2151 0.2140 0.2150
1387.459312 0.2660 0.2840 0.2990 0.3110 0.3200
1390.710590 0.3290 0.3380 0.3470 0.3580 0.3660
1393.961868 0.3670 0.3670 0.3590 0.3500 0.3350
1397.213147 0.3220 0.3080 0.2931 0.2791 0.2641
1400.464425 0.2570 0.2500 0.2350 0.2210 0.2060
1403.715703 0.1900 0.1890 0.1890 0.1900 0.2089
1406.966981 0.2280 0.2650 0.2840 0.3020 0.3210
1410.218259 0.3380 0.3899 0.4249 0.4439 0.4669
1413.469537 0.4900 0.5050 0.5080 0.5130 0.5359
1416.720816 0.5430 0.5599 0.5610 0.5660 0.5710
1419.972094 0.5740 0.5760 0.5780 0.5800 0.5800
1423.223372 0.5840 0.5850 0.5860 0.5860 0.5840
1426.474650 0.5830 0.5810 0.5780 0.5740 0.5670
1429.725928 0.5610 0.5550 0.5500 0.5390 0.5221
1432.977206 0.5090 0.4970 0.4700 0.4430 0.4200
1436.228484 0.3921 0.3790 0.3650 0.3371 0.3091
1439.479763 0.3070 0.2940 0.2860 0.2571 0.2271
1442.731041 0.2260 0.2270 0.2439 0.2898 0.3219
1445.982319 0.3290 0.3290 0.3440 0.3580 0.3860
1449.233597 0.3960 0.3970 0.3980 0.3970 0.3920
1452.484875 0.3900 0.3850 0.3790 0.3670 0.3520
1455.736153 0.3340 0.3151 0.2951 0.2741 0.2640
1458.987431 0.2540 0.2340 0.2160 0.2000 0.1850
1462.238710 0.1740 0.1670 0.1540 0.1530 0.1540
1465.489988 0.1710 0.1960 0.2160 0.2320 0.2609
1468.741266 0.2750 0.2910 0.2920 0.2920 0.2920
1471.992544 0.2910 0.2880 0.2820 0.2670 0.2610
1475.243822 0.2540 0.2371 0.2360 0.2360 0.2858
1478.495100 0.3390 0.4020 0.4190 0.4290 0.4370
1481.746378 0.4440 0.4819 0.5039 0.5648 0.5779
1484.997657 0.5920 0.6030 0.6120 0.6190 0.6250
1488.248935 0.6280 0.6310 0.6330 0.6340 0.6360
1491.500213 0.6370 0.6400 0.6460 0.6460 0.6460
1494.751491 0.6460 0.6460 0.6440 0.6430 0.6430
1498.002769 0.6430 0.6410 0.6400 0.6390 0.6380
1501.254047 0.6370 0.6360 0.6330 0.6320 0.6300
1504.505326 0.6280 0.6270 0.6260 0.6260 0.6240
1507.756604 0.6230 0.6220 0.6210 0.6190 0.6170
1511.007882 0.6140 0.6110 0.6090 0.6070 0.6050
1514.259160 0.6020 0.6000 0.5980 0.5960 0.5940
1517.510438 0.5920 0.5900 0.5880 0.5850 0.5830
1520.761716 0.5810 0.5780 0.5740 0.5710 0.5670
1524.012994 0.5630 0.5590 0.5540 0.5490 0.5440
1527.264273 0.5390 0.5340 0.5280 0.5230 0.5170
1530.515551 0.5150 0.5110 0.5060 0.5000 0.4950
1533.766829 0.4900 0.4840 0.4790 0.4740 0.4690
1537.018107 0.4640 0.4600 0.4550 0.4520 0.4480
1540.269385 0.4450 0.4420 0.4390 0.4370 0.4360
1543.520663 0.4340 0.4320 0.4310 0.4300 0.4300
1546.771941 0.4300 0.4300 0.4300 0.4310 0.4330
1550.023220 0.4360 0.4380 0.4410 0.4450 0.4490
1553.274498 0.4530 0.4570 0.4620 0.4660 0.4710
1556.525776 0.4780 0.4800 0.4850 0.4890 0.4930
1559.777054 0.4970 0.5000 0.5030 0.5070 0.5100
1563.028332 0.5170 0.5220 0.5220 0.5260 0.5270
1566.279610 0.5290 0.5290 0.5290 0.5300 0.5300
1569.530889 0.5290 0.5290 0.5290 0.5280 0.5270
1572.782167 0.5270 0.5260 0.5250 0.5240 0.5230
1576.033445 0.5220 0.5220 0.5210 0.5200 0.5200
1579.284723 0.5200 0.5200 0.5220 0.5240 0.5270
1582.536001 0.5290 0.5310 0.5330 0.5380 0.5460
1585.787279 0.5490 0.5560 0.5560 0.5690 0.5740
1589.038557 0.5770 0.5830 0.5840 0.5890 0.5960
1592.289836 0.5990 0.6030 0.6140 0.6180 0.6220
1595.541114 0.6280 0.6310 0.6410 0.6410 0.6450
1598.792392 0.6470 0.6500 0.6540 0.6550 0.6570
1602.043670 0.6590 0.6630 0.6640 0.6650 0.6670
1605.294948 0.6690 0.6710 0.6720 0.6750 0.6770
1608.546226 0.6780 0.6810 0.6830 0.6850 0.6860
1611.797504 0.6880 0.6880 0.6890 0.6900 0.6910
1615.048783 0.6930 0.6930 0.6950 0.6960 0.6980
1618.300061 0.6990 0.7010 0.7010 0.7020 0.7040
1621.551339 0.7040 0.7060 0.7070 0.7080 0.7090
1624.802617 0.7100 0.7110 0.7120 0.7130 0.7180
1628.053895 0.7180 0.7190 0.7200 0.7200 0.7200
1631.305173 0.7210 0.7220 0.7240 0.7260 0.7260
1634.556452 0.7270 0.7270 0.7280 0.7290 0.7290
1637.807730 0.7290 0.7300 0.7310 0.7310 0.7310
1641.059008 0.7320 0.7320 0.7330 0.7330 0.7330
1644.310286 0.7340 0.7350 0.7350 0.7350 0.7360
1647.561564 0.7360 0.7360 0.7370 0.7380 0.7380
1650.812842 0.7380 0.7380 0.7390 0.7400 0.7400
1654.064120 0.7400 0.7400 0.7400 0.7400 0.7400
1657.315399 0.7390 0.7390 0.7390 0.7380 0.7380
1660.566677 0.7380 0.7370 0.7360 0.7350 0.7350
1663.817955 0.7340 0.7330 0.7320 0.7300 0.7280
1667.069233 0.7260 0.7230 0.7200 0.7180 0.7150
1670.320511 0.7130 0.7110 0.7090 0.7080 0.7040
1673.571789 0.7020 0.7010 0.7000 0.6990 0.6970
1676.823067 0.6950 0.6890 0.6860 0.6830 0.6790
1680.074346 0.6760 0.6720 0.6680 0.6640 0.6590
1683.325624 0.6540 0.6490 0.6440 0.6410 0.6380
1686.576902 0.6310 0.6270 0.6240 0.6180 0.6100
1689.828180 0.5940 0.5920 0.5870 0.5810 0.5730
1693.079458 0.5700 0.5600 0.5330 0.5290 0.5260
1696.330736 0.5220 0.5180 0.5160 0.5130 0.5130
1699.582015 0.5020 0.5000 0.4970 0.4950 0.4930
1702.833293 0.4930 0.4920 0.4910 0.4910 0.4890
1706.084571 0.4860 0.4810 0.4760 0.4700 0.4630
1709.335849 0.4530 0.4470 0.4430 0.4370 0.4330
1712.587127 0.4240 0.4180 0.4130 0.4080 0.4030
1715.838405 0.3870 0.3710 0.3690 0.3590 0.3311
1719.089683 0.3120 0.2940 0.2770 0.2610 0.2470
1722.340962 0.2330 0.2190 0.2070 0.1751 0.1611
1725.592240 0.1470 0.1330 0.1260 0.1190 0.1050
1728.843518 0.0910 0.0770 0.0301 0.0270 0.0230
1732.094796 0.0150 0.0140 0.0120 0.0110 0.0100
1735.346074 0.0090 0.0070 0.0070 0.0060 0.0050
1738.597352 0.0050 0.0040 0.0030 0.0030 0.0030
1741.848630 0.0030 0.0020 0.0020 0.0020 0.0020
1745.099909 0.0030 0.0030 0.0030 0.0030 0.0030
1748.351187 0.0040 0.0040 0.0050 0.0050 0.0060
1751.602465 0.0070 0.0090 0.0100 0.0110 0.0120
1754.853743 0.0140 0.0200 0.0280 0.0280 0.0390
1758.105021 0.0500 0.0610 0.0720 0.0820 0.0930
1761.356299 0.1040 0.1359 0.1529 0.1759 0.1850
1764.607577 0.1940 0.2120 0.2270 0.2330 0.2899
1767.858856 0.3169 0.3220 0.3419 0.3619 0.3630
1771.110134 0.3950 0.4110 0.4310 0.4320 0.4430
1774.361412 0.4540 0.4660 0.4770 0.4880 0.4980
1777.612690 0.5180 0.5270 0.5290 0.5380 0.5470
1780.863968 0.5570 0.5749 0.5760 0.5810 0.5870
1784.115246 0.5930 0.5990 0.6050 0.6100 0.6210
1787.366525 0.6220 0.6270 0.6310 0.6360 0.6440
1790.617803 0.6480 0.6560 0.6570 0.6600 0.6630
1793.869081 0.6660 0.6700 0.6730 0.6760 0.6790
1797.120359 0.6820 0.6850 0.6860 0.6890 0.6920
1800.371637 0.6950 0.6980 0.7010 0.7040 0.7070
1803.622915 0.7080 0.7140 0.7160 0.7170 0.7180
1806.874193 0.7200 0.7230 0.7240 0.7250 0.7270
1810.125472 0.7290 0.7310 0.7330 0.7350 0.7360
1813.376750 0.7380 0.7390 0.7400 0.7400 0.7410
1816.628028 0.7420 0.7420 0.7420 0.7430 0.7440
1819.879306 0.7440 0.7450 0.7470 0.7470 0.7490
1823.130584 0.7500 0.7510 0.7520 0.7530 0.7530
1826.381862 0.7550 0.7580 0.7580 0.7590 0.7600
1829.633140 0.7610 0.7620 0.7630 0.7640 0.7650
1832.884419 0.7660 0.7670 0.7670 0.7690 0.7700
1836.135697 0.7740 0.7760 0.7770 0.7790 0.7800
1839.386975 0.7810 0.7810 0.7820 0.7830 0.7830
1842.638253 0.7840 0.7850 0.7850 0.7860 0.7870
1845.889531 0.7870 0.7890 0.7890 0.7900 0.7900
1849.140809 0.7910 0.7920 0.7920 0.7930 0.7940
1852.392088 0.7940 0.7950 0.7960 0.7960 0.7970
1855.643366 0.7980 0.7980 0.7990 0.8000 0.8000
1858.894644 0.8010 0.8010 0.8030 0.8030 0.8040
1862.145922 0.8040 0.8050 0.8050 0.8050 0.8050
1865.397200 0.8060 0.8060 0.8070 0.8070 0.8070
1868.648478 0.8070 0.8080 0.8080 0.8090 0.8090
1871.899756 0.8090 0.8090 0.8100 0.8100 0.8100
1875.151035 0.8100 0.8110 0.8110 0.8120 0.8120
1878.402313 0.8120 0.8130 0.8130 0.8140 0.8140
1881.653591 0.8140 0.8140 0.8150 0.8160 0.8170
1884.904869 0.8180 0.8190 0.8190 0.8190 0.8200
1888.156147 0.8200 0.8210 0.8210 0.8210 0.8210
1891.407425 0.8210 0.8220 0.8220 0.8230 0.8230
1894.658703 0.8230 0.8230 0.8230 0.8230 0.8230
1897.909982 0.8220 0.8220 0.8220 0.8220 0.8210
1901.161260 0.8210 0.8210 0.8210 0.8200 0.8200
1904.412538 0.8190 0.8190 0.8170 0.8150 0.8130
1907.663816 0.8120 0.8120 0.8100 0.8090 0.8090
1910.915094 0.8090 0.8080 0.8070 0.8070 0.8060
1914.166372 0.8050 0.8050 0.8040 0.8030 0.8030
1917.417651 0.8020 0.8010 0.8010 0.8010 0.8010
1920.668929 0.8010 0.8010 0.8010 0.8030 0.8030
1923.920207 0.8040 0.8040 0.8050 0.8060 0.8070
1927.171485 0.8080 0.8080 0.8090 0.8090 0.8090
1930.422763 0.8090 0.8090 0.8090 0.8090 0.8090
1933.674041 0.8090 0.8090 0.8090 0.8090 0.8080
1936.925319 0.8080 0.8080 0.8080 0.8090 0.8090
1940.176598 0.8090 0.8090 0.8090 0.8100 0.8100
1943.427876 0.8100 0.8100 0.8100 0.8100 0.8100
1946.679154 0.8100 0.8100 0.8100 0.8100 0.8100
1949.930432 0.8090 0.8090 0.8090 0.8080 0.8070
1953.181710 0.8070 0.8070 0.8060 0.8050 0.8040
1956.432988 0.8020 0.8000 0.7980 0.7950 0.7920
1959.684266 0.7900 0.7880 0.7870 0.7850 0.7840
1962.935545 0.7820 0.7800 0.7790 0.7780 0.7760
1966.186823 0.7760 0.7750 0.7750 0.7760 0.7770
1969.438101 0.7780 0.7790 0.7800 0.7820 0.7840
1972.689379 0.7860 0.7880 0.7900 0.7920 0.7940
1975.940657 0.7960 0.7980 0.8000 0.8010 0.8030
1979.191935 0.8030 0.8040 0.8050 0.8050 0.8060
1982.443214 0.8070 0.8070 0.8080 0.8080 0.8090
1985.694492 0.8090 0.8100 0.8120 0.8120 0.8120
1988.945770 0.8130 0.8140 0.8140 0.8140 0.8140
1992.197048 0.8140 0.8150 0.8160 0.8160 0.8170
1995.448326 0.8170 0.8180 0.8180 0.8180 0.8190
1998.699604 0.8190 0.8190 0.8200 0.8203 0.8205
2001.950882 0.8208 0.8210 0.8210 0.8210 0.8210
2005.202161 0.8210 0.8210 0.8210 0.8210 0.8210
2008.453439 0.8213 0.8215 0.8218 0.8220 0.8220
2011.704717 0.8220 0.8220 0.8221 0.8223 0.8226
2014.955995 0.8228 0.8230 0.8230 0.8230 0.8230
2018.207273 0.8230 0.8230 0.8230 0.8230 0.8231
2021.458551 0.8233 0.8236 0.8239 0.8240 0.8240
2024.709829 0.8240 0.8240 0.8241 0.8244 0.8246
2027.961108 0.8249 0.8250 0.8250 0.8250 0.8250
2031.212386 0.8250 0.8250 0.8250 0.8250 0.8252
2034.463664 0.8254 0.8257 0.8259 0.8262 0.8264
2037.714942 0.8267 0.8269 0.8270 0.8270 0.8270
2040.966220 0.8270 0.8270 0.8270 0.8270 0.8270
2044.217498 0.8270 0.8270 0.8270 0.8270 0.8272
2047.468776 0.8275 0.8277 0.8280 0.8280 0.8280
2050.720055 0.8280 0.8280 0.8280 0.8280 0.8280
2053.971333 0.8280 0.8280 0.8280 0.8280 0.8280
2057.222611 0.8283 0.8285 0.8288 0.8290 0.8290
2060.473889 0.8290 0.8290 0.8290 0.8293 0.8296
2063.725167 0.8298 0.8300 0.8300 0.8300 0.8300
2066.976445 0.8300 0.8300 0.8300 0.8300 0.8300
2070.227724 0.8300 0.8300 0.8300 0.8300 0.8300
2073.479002 0.8300 0.8300 0.8300 0.8300 0.8300
2076.730280 0.8300 0.8301 0.8304 0.8306 0.8309
2079.981558 0.8310 0.8310 0.8310 0.8310 0.8310
2083.232836 0.8310 0.8310 0.8310 0.8310 0.8310
2086.484114 0.8310 0.8310 0.8312 0.8314 0.8317
2089.735392 0.8319 0.8320 0.8320 0.8320 0.8320
2092.986671 0.8320 0.8320 0.8320 0.8320 0.8320
2096.237949 0.8320 0.8320 0.8320 0.8320 0.8320
2099.489227 0.8320 0.8320 0.8320 0.8320 0.8320
2102.740505 0.8320 0.8320 0.8320 0.8320 0.8320
2105.991783 0.8320 0.8320 0.8320 0.8320 0.8320
2109.243061 0.8320 0.8320 0.8320 0.8320 0.8320
2112.494339 0.8320 0.8320 0.8320 0.8320 0.8320
2115.745618 0.8320 0.8320 0.8320 0.8320 0.8320
2118.996896 0.8320 0.8320 0.8320 0.8321 0.8323
2122.248174 0.8326 0.8328 0.8330 0.8330 0.8330
2125.499452 0.8330 0.8330 0.8330 0.8330 0.8330
2128.750730 0.8330 0.8330 0.8330 0.8330 0.8330
2132.002008 0.8330 0.8330 0.8330 0.8328 0.8326
2135.253287 0.8323 0.8321 0.8320 0.8320 0.8320
2138.504565 0.8320 0.8320 0.8320 0.8320 0.8320
2141.755843 0.8320 0.8320 0.8320 0.8320 0.8320
2145.007121 0.8320 0.8320 0.8320 0.8320 0.8320
2148.258399 0.8320 0.8320 0.8320 0.8320 0.8320
2151.509677 0.8320 0.8320 0.8320 0.8320 0.8320
2154.760955 0.8320 0.8320 0.8320 0.8320 0.8320
2158.012234 0.8320 0.8320 0.8320 0.8320 0.8320
2161.263512 0.8320 0.8320 0.8320 0.8320 0.8320
2164.514790 0.8320 0.8320 0.8320 0.8320 0.8320
2167.766068 0.8320 0.8320 0.8320 0.8319 0.8317
2171.017346 0.8314 0.8312 0.8310 0.8310 0.8310
2174.268624 0.8310 0.8309 0.8306 0.8304 0.8301
2177.519902 0.8300 0.8300 0.8300 0.8300 0.8300
2180.771181 0.8300 0.8300 0.8300 0.8300 0.8300
2184.022459 0.8300 0.8300 0.8298 0.8296 0.8293
2187.273737 0.8291 0.8290 0.8290 0.8290 0.8290
2190.525015 0.8288 0.8286 0.8283 0.8281 0.8280
2193.776293 0.8280 0.8280 0.8280 0.8280 0.8280
2197.027571 0.8280 0.8280 0.8280 0.8280 0.8280
2200.278850 0.8280 0.8278 0.8275 0.8273 0.8270
2203.530128 0.8265 0.8260 0.8255 0.8250 0.8250
2206.781406 0.8250 0.8250 0.8250 0.8247 0.8245
2210.032684 0.8242 0.8239 0.8234 0.8229 0.8224
2213.283962 0.8220 0.8217 0.8215 0.8212 0.8207
2216.535240 0.8195 0.8182 0.8169 0.8160 0.8160
2219.786518 0.8160 0.8160 0.8158 0.8153 0.8148
2223.037797 0.8143 0.8139 0.8137 0.8134 0.8132
2226.289075 0.8128 0.8123 0.8118 0.8113 0.8109
2229.540353 0.8106 0.8104 0.8101 0.8099 0.8096
2232.791631 0.8094 0.8091 0.8090 0.8090 0.8090
2236.042909 0.8090 0.8088 0.8086 0.8083 0.8081
2239.294187 0.8078 0.8076 0.8073 0.8071 0.8070
2242.545465 0.8070 0.8070 0.8070 0.8070 0.8070
2245.796744 0.8070 0.8070 0.8068 0.8065 0.8063
2249.048022 0.8060 0.8060 0.8060 0.8060 0.8060
2252.299300 0.8060 0.8060 0.8060 0.8060 0.8060
2255.550578 0.8060 0.8060 0.8060 0.8063 0.8065
2258.801856 0.8068 0.8070 0.8070 0.8070 0.8070
2262.053134 0.8070 0.8070 0.8070 0.8070 0.8070
2265.304413 0.8073 0.8076 0.8078 0.8081 0.8083
2268.555691 0.8086 0.8088 0.8091 0.8093 0.8096
2271.806969 0.8098 0.8102 0.8107 0.8112 0.8117
2275.058247 0.8122 0.8127 0.8132 0.8137 0.8142
2278.309525 0.8147 0.8152 0.8157 0.8161 0.8164
2281.560803 0.8166 0.8169 0.8173 0.8178 0.8183
2284.812081 0.8188 0.8193 0.8198 0.8203 0.8208
2288.063360 0.8212 0.8214 0.8217 0.8219 0.8223
2291.314638 0.8229 0.8234 0.8239 0.8242 0.8244
2294.565916 0.8247 0.8249 0.8252 0.8254 0.8257
2297.817194 0.8260 0.8260 0.8260 0.8260 0.8260
2301.068472 0.8262 0.8265 0.8267 0.8270 0.8270
2304.319750 0.8270 0.8270 0.8270 0.8272 0.8275
2307.571028 0.8278 0.8280 0.8285 0.8290 0.8295
2310.822307 0.8300 0.8300 0.8300 0.8300 0.8301
2314.073585 0.8306 0.8311 0.8316 0.8320 0.8320
2317.324863 0.8320 0.8320 0.8321 0.8323 0.8326
2320.576141 0.8328 0.8330 0.8330 0.8330 0.8330
2323.827419 0.8331 0.8333 0.8336 0.8338 0.8340
2327.078697 0.8340 0.8340 0.8340 0.8340 0.8340
2330.329975 0.8340 0.8340 0.8340 0.8340 0.8340
2333.581254 0.8340 0.8339 0.8336 0.8334 0.8331
2336.832532 0.8330 0.8330 0.8330 0.8330 0.8330
2340.083810 0.8330 0.8330 0.8330 0.8328 0.8326
2343.335088 0.8323 0.8321 0.8320 0.8320 0.8320
2346.586366 0.8320 0.8316 0.8311 0.8306 0.8301
2349.837644 0.8300 0.8300 0.8300 0.8300 0.8296
2353.088923 0.8291 0.8285 0.8280 0.8278 0.8275
2356.340201 0.8273 0.8270 0.8265 0.8260 0.8255
2359.591479 0.8250 0.8245 0.8240 0.8235 0.8229
2362.842757 0.8222 0.8214 0.8206 0.8199 0.8194
2366.094035 0.8189 0.8184 0.8178 0.8168 0.8158
2369.345313 0.8148 0.8138 0.8127 0.8117 0.8107
2372.596591 0.8099 0.8097 0.8094 0.8092 0.8088
2375.847870 0.8083 0.8078 0.8073 0.8070 0.8070
2379.099148 0.8070 0.8070 0.8070 0.8070 0.8070
2382.350426 0.8070 0.8072 0.8078 0.8083 0.8088
2385.601704 0.8094 0.8102 0.8109 0.8117 0.8125
2388.852982 0.8132 0.8140 0.8147 0.8155 0.8163
2392.104260 0.8170 0.8178 0.8184 0.8189 0.8194
2395.355538 0.8199 0.8206 0.8213 0.8221 0.8228
2398.606817 0.8232 0.8235 0.8237 0.8240 0.8244
2401.858095 0.8249 0.8254 0.8259 0.8262 0.8265
2405.109373 0.8267 0.8270 0.8272 0.8275 0.8277
2408.360651 0.8280 0.8280 0.8280 0.8280 0.8280
2411.611929 0.8283 0.8285 0.8288 0.8290 0.8293
2414.863207 0.8295 0.8298 0.8300 0.8300 0.8300
2418.114486 0.8300 0.8300 0.8300 0.8300 0.8300
2421.365764 0.8300 0.8300 0.8300 0.8300 0.8300
2424.617042 0.8300 0.8300 0.8300 0.8300 0.8300
2427.868320 0.8300 0.8300 0.8301 0.8304 0.8306
2431.119598 0.8309 0.8310 0.8310 0.8310 0.8310
2434.370876 0.8310 0.8310 0.8310 0.8310 0.8311
2437.622154 0.8314 0.8317 0.8319 0.8320 0.8320
2440.873433 0.8320 0.8320 0.8320 0.8320 0.8320
2444.124711 0.8320 0.8320 0.8320 0.8320 0.8320
2447.375989 0.8320 0.8320 0.8320 0.8320 0.8322
2450.627267 0.8325 0.8327 0.8330 0.8330 0.8330
2453.878545 0.8330 0.8330 0.8332 0.8335 0.8337
2457.129823 0.8340 0.8340 0.8340 0.8340 0.8340
2460.381101 0.8340 0.8340 0.8340 0.8340 0.8340
2463.632380 0.8340 0.8340 0.8340 0.8343 0.8345
2466.883658 0.8348 0.8350 0.8350 0.8350 0.8350
2470.134936 0.8350 0.8350 0.8350 0.8350 0.8349
2473.386214 0.8347 0.8344 0.8342 0.8340 0.8340
2476.637492 0.8340 0.8340 0.8340 0.8340 0.8340
2479.888770 0.8340 0.8339 0.8336 0.8334 0.8331
2483.140049 0.8329 0.8326 0.8324 0.8321 0.8320
2486.391327 0.8320 0.8320 0.8320 0.8319 0.8316
2489.642605 0.8313 0.8311 0.8308 0.8306 0.8303
2492.893883 0.8301 0.8297 0.8292 0.8286 0.8281
2496.145161 0.8278 0.8276 0.8273 0.8271 0.8266
2499.396439 0.8261 0.8256 0.8251 0.8248 0.8245
2502.647717 0.8243 0.8240 0.8236 0.8231 0.8226
2505.898996 0.8220 0.8218 0.8215 0.8213 0.8210
2509.150274 0.8205 0.8200 0.8195 0.8190 0.8190
2512.401552 0.8190 0.8190 0.8190 0.8187 0.8185
2515.652830 0.8182 0.8180 0.8183 0.8185 0.8188
2518.904108 0.8191 0.8196 0.8201 0.8206 0.8211
2522.155386 0.8216 0.8221 0.8226 0.8231 0.8236
2525.406664 0.8241 0.8247 0.8251 0.8253 0.8256
2528.657943 0.8258 0.8261 0.8263 0.8266 0.8269
2531.909221 0.8271 0.8274 0.8276 0.8279 0.8282
2535.160499 0.8287 0.8292 0.8297 0.8301 0.8304
2538.411777 0.8306 0.8309 0.8311 0.8314 0.8317
2541.663055 0.8319 0.8322 0.8324 0.8327 0.8329
2544.914333 0.8332 0.8334 0.8337 0.8339 0.8340
2548.165612 0.8340 0.8340 0.8340 0.8342 0.8344
2551.416890 0.8347 0.8350 0.8352 0.8355 0.8357
2554.668168 0.8360 0.8360 0.8360 0.8360 0.8360
2557.919446 0.8362 0.8365 0.8367 0.8370 0.8370
2561.170724 0.8370 0.8370 0.8370 0.8373 0.8375
2564.422002 0.8378 0.8380 0.8380 0.8380 0.8380
2567.673280 0.8380 0.8383 0.8385 0.8388 0.8390
2570.924559 0.8390 0.8390 0.8390 0.8390 0.8390
2574.175837 0.8390 0.8390 0.8390 0.8390 0.8390
2577.427115 0.8390 0.8390 0.8390 0.8390 0.8390
2580.678393 0.8389 0.8387 0.8384 0.8381 0.8380
2583.929671 0.8380 0.8380 0.8380 0.8379 0.8376
2587.180949 0.8374 0.8371 0.8370 0.8370 0.8370
2590.432227 0.8370 0.8370 0.8370 0.8370 0.8370
2593.683506 0.8368 0.8366 0.8363 0.8361 0.8360
2596.934784 0.8360 0.8360 0.8360 0.8360 0.8360
2600.186062 0.8360 0.8360 0.8360 0.8360 0.8360
2603.437340 0.8360 0.8358 0.8355 0.8353 0.8350
2606.688618 0.8350 0.8350 0.8350 0.8350 0.8348
2609.939896 0.8345 0.8343 0.8340 0.8340 0.8340
2613.191174 0.8340 0.8340 0.8337 0.8335 0.8332
2616.442453 0.8330 0.8327 0.8325 0.8322 0.8320
2619.693731 0.8317 0.8315 0.8312 0.8309 0.8304
2622.945009 0.8299 0.8294 0.8289 0.8284 0.8279
2626.196287 0.8274 0.8269 0.8267 0.8264 0.8262
2629.447565 0.8259 0.8257 0.8254 0.8252 0.8248
2632.698843 0.8243 0.8238 0.8233 0.8230 0.8230
2635.950122 0.8230 0.8230 0.8229 0.8226 0.8224
2639.201400 0.8221 0.8221 0.8224 0.8226 0.8229
2642.452678 0.8230 0.8230 0.8230 0.8230 0.8233
2645.703956 0.8238 0.8243 0.8249 0.8255 0.8263
2648.955234 0.8271 0.8278 0.8284 0.8289 0.8294
2652.206512 0.8299 0.8302 0.8305 0.8307 0.8310
2655.457790 0.8312 0.8315 0.8317 0.8320 0.8324
2658.709069 0.8330 0.8335 0.8340 0.8342 0.8345
2661.960347 0.8347 0.8350 0.8352 0.8355 0.8358
2665.211625 0.8360 0.8360 0.8360 0.8360 0.8360
2668.462903 0.8363 0.8365 0.8368 0.8370 0.8370
2671.714181 0.8370 0.8370 0.8370 0.8370 0.8370
2674.965459 0.8370 0.8371 0.8373 0.8376 0.8378
2678.216737 0.8380 0.8380 0.8380 0.8380 0.8380
2681.468016 0.8380 0.8380 0.8380 0.8379 0.8376
2684.719294 0.8374 0.8371 0.8370 0.8370 0.8370
2687.970572 0.8370 0.8369 0.8366 0.8364 0.8361
2691.221850 0.8360 0.8360 0.8360 0.8360 0.8360
2694.473128 0.8360 0.8360 0.8360 0.8358 0.8356
2697.724406 0.8353 0.8351 0.8348 0.8346 0.8343
2700.975685 0.8341 0.8338 0.8336 0.8333 0.8330
2704.226963 0.8328 0.8325 0.8323 0.8320 0.8316
2707.478241 0.8311 0.8306 0.8301 0.8291 0.8281
2710.729519 0.8271 0.8261 0.8255 0.8250 0.8245
2713.980797 0.8240 0.8238 0.8235 0.8232 0.8230
2717.232075 0.8227 0.8225 0.8222 0.8220 0.8217
2720.483353 0.8215 0.8212 0.8209 0.8204 0.8199
2723.734632 0.8194 0.8189 0.8187 0.8184 0.8182
2726.985910 0.8180 0.8180 0.8180 0.8180 0.8180
2730.237188 0.8180 0.8180 0.8180 0.8179 0.8177
2733.488466 0.8174 0.8172 0.8169 0.8166 0.8164
2736.739744 0.8161 0.8160 0.8160 0.8160 0.8160
2739.991022 0.8160 0.8160 0.8160 0.8160 0.8160
2743.242300 0.8160 0.8160 0.8160 0.8160 0.8160
2746.493579 0.8160 0.8160 0.8160 0.8160 0.8160
2749.744857 0.8160 0.8158 0.8156 0.8153 0.8151
2752.996135 0.8150 0.8150 0.8150 0.8150 0.8150
2756.247413 0.8150 0.8150 0.8150 0.8150 0.8150
2759.498691 0.8150 0.8150 0.8148 0.8145 0.8143
2762.749969 0.8140 0.8140 0.8140 0.8140 0.8140
2766.001248 0.8140 0.8140 0.8140 0.8140 0.8140
2769.252526 0.8140 0.8140 0.8140 0.8140 0.8140
2772.503804 0.8140 0.8140 0.8140 0.8140 0.8140
2775.755082 0.8140 0.8140 0.8140 0.8140 0.8140
2779.006360 0.8140 0.8140 0.8140 0.8140 0.8140
2782.257638 0.8140 0.8140 0.8140 0.8140 0.8140
2785.508916 0.8140 0.8139 0.8136 0.8134 0.8131
2788.760195 0.8130 0.8130 0.8130 0.8130 0.8129
2792.011473 0.8126 0.8124 0.8121 0.8120 0.8120
2795.262751 0.8120 0.8120 0.8117 0.8112 0.8107
2798.514029 0.8102 0.8091 0.8079 0.8066 0.8053
2801.765307 0.8043 0.8033 0.8022 0.8012 0.8002
2805.016585 0.7992 0.7982 0.7972 0.7964 0.7956
2808.267863 0.7949 0.7941 0.7936 0.7931 0.7926
2811.519142 0.7920 0.7918 0.7915 0.7913 0.7910
2814.770420 0.7908 0.7905 0.7903 0.7900 0.7897
2818.021698 0.7895 0.7892 0.7890 0.7887 0.7885
2821.272976 0.7882 0.7880 0.7877 0.7875 0.7872
2824.524254 0.7870 0.7870 0.7870 0.7870 0.7869
2827.775532 0.7864 0.7859 0.7854 0.7849 0.7844
2831.026811 0.7838 0.7833 0.7826 0.7813 0.7801
2834.278089 0.7788 0.7779 0.7777 0.7774 0.7771
2837.529367 0.7767 0.7759 0.7752 0.7744 0.7736
2840.780645 0.7729 0.7721 0.7714 0.7704 0.7691
2844.031923 0.7678 0.7666 0.7649 0.7628 0.7608
2847.283201 0.7587 0.7569 0.7551 0.7533 0.7515
2850.534479 0.7498 0.7480 0.7462 0.7445 0.7429
2853.785758 0.7414 0.7398 0.7383 0.7368 0.7353
2857.037036 0.7338 0.7323 0.7265 0.7200 0.7134
2860.288314 0.7068 0.7031 0.6998 0.6965 0.6933
2863.539592 0.6900 0.6867 0.6834 0.6801 0.6739
2866.790870 0.6676 0.6613 0.6549 0.6484 0.6418
2870.042148 0.6352 0.6287 0.6239 0.6190 0.6141
2873.293426 0.6100 0.6100 0.6100 0.6100 0.6104
2876.544705 0.6124 0.6144 0.6165 0.6197 0.6268
2879.795983 0.6339 0.6410 0.6472 0.6515 0.6558
2883.047261 0.6601 0.6630 0.6630 0.6630 0.6630
2886.298539 0.6613 0.6567 0.6522 0.6476 0.6431
2889.549817 0.6385 0.6340 0.6294 0.6226 0.6132
2892.801095 0.6039 0.5945 0.5828 0.5689 0.5550
2896.052373 0.5411 0.5333 0.5302 0.5271 0.5241
2899.303652 0.5210 0.5180 0.5149 0.5119 0.5071
2902.554930 0.5015 0.4960 0.4904 0.4846 0.4788
2905.806208 0.4730 0.4672 0.4616 0.4560 0.4505
2909.057486 0.4449 0.4391 0.4333 0.4275 0.4217
2912.308764 0.4210 0.4210 0.4210 0.4210 0.4274
2915.560042 0.4342 0.4410 0.4478 0.4547 0.4615
2918.811321 0.4683 0.4751 0.4820 0.4888 0.4956
2922.062599 0.5020 0.5020 0.5020 0.5020 0.5003
2925.313877 0.4897 0.4791 0.4684 0.4589 0.4536
2928.565155 0.4483 0.4430 0.4377 0.4327 0.4276
2931.816433 0.4226 0.4174 0.4121 0.4068 0.4015
2935.067711 0.3972 0.3949 0.3927 0.3904 0.3879
2938.318989 0.3851 0.3824 0.3796 0.3793 0.3823
2941.570268 0.3854 0.3884 0.3913 0.3941 0.3969
2944.821546 0.3997 0.4034 0.4079 0.4125 0.4170
2948.072824 0.4219 0.4270 0.4322 0.4373 0.4410
2951.324102 0.4441 0.4471 0.4501 0.4535 0.4571
2954.575380 0.4606 0.4641 0.4650 0.4650 0.4650
2957.826658 0.4650 0.4569 0.4468 0.4367 0.4265
2961.077936 0.4203 0.4147 0.4092 0.4036 0.3980
2964.329215 0.3925 0.3869 0.3813 0.3608 0.3393
2967.580493 0.3179 0.2964 0.2746 0.2529 0.2311
2970.831771 0.2098 0.2045 0.1992 0.1939 0.1886
2974.083049 0.1829 0.1773 0.1717 0.1661 0.1605
2977.334327 0.1549 0.1494 0.1445 0.1419 0.1394
2980.585605 0.1369 0.1343 0.1315 0.1287 0.1259
2983.836884 0.1223 0.1167 0.1112 0.1056 0.1001
2987.088162 0.0948 0.0895 0.0842 0.0810 0.0810
2990.339440 0.0810 0.0810 0.0830 0.0876 0.0921
2993.590718 0.0967 0.1036 0.1129 0.1223 0.1316
2996.841996 0.1386 0.1434 0.1482 0.1530 0.1578
3000.093274 0.1627 0.1676 0.1724 0.1800 0.1888
3003.344552 0.1977 0.2065 0.2261 0.2499 0.2737
3006.595831 0.2974 0.3032 0.3034 0.3037 0.3040
3009.847109 0.3262 0.3535 0.3808 0.4081 0.4525
3013.098387 0.4998 0.5471 0.5944 0.5990 0.5990
3016.349665 0.5990 0.5990 0.6107 0.6231 0.6355
3019.600943 0.6479 0.6538 0.6596 0.6654 0.6712
3022.852221 0.6770 0.6829 0.6887 0.6945 0.7004
3026.103499 0.7063 0.7122 0.7175 0.7203 0.7231
3029.354778 0.7258 0.7284 0.7302 0.7319 0.7337
3032.606056 0.7354 0.7369 0.7384 0.7400 0.7415
3035.857334 0.7430 0.7445 0.7460 0.7493 0.7556
3039.108612 0.7619 0.7683 0.7731 0.7759 0.7787
3042.359890 0.7815 0.7837 0.7852 0.7867 0.7882
3045.611168 0.7890 0.7890 0.7890 0.7890 0.7894
3048.862447 0.7902 0.7909 0.7917 0.7925 0.7932
3052.113725 0.7940 0.7948 0.7952 0.7954 0.7957
3055.365003 0.7959 0.7969 0.7982 0.7995 0.8007
3058.616281 0.8016 0.8023 0.8031 0.8039 0.8046
3061.867559 0.8054 0.8061 0.8069 0.8074 0.8079
3065.118837 0.8085 0.8090 0.8092 0.8095 0.8097
3068.370115 0.8100 0.8105 0.8110 0.8115 0.8120
3071.621394 0.8123 0.8125 0.8128 0.8130 0.8133
3074.872672 0.8135 0.8138 0.8140 0.8143 0.8145
3078.123950 0.8148 0.8150 0.8153 0.8156 0.8158
3081.375228 0.8160 0.8160 0.8160 0.8160 0.8161
3084.626506 0.8163 0.8166 0.8168 0.8170 0.8170
3087.877784 0.8170 0.8170 0.8171 0.8173 0.8176
3091.129062 0.8179 0.8180 0.8180 0.8180 0.8180
3094.380341 0.8180 0.8180 0.8180 0.8180 0.8180
3097.631619 0.8180 0.8180 0.8180 0.8181 0.8184
3100.882897 0.8186 0.8189 0.8190 0.8190 0.8190
3104.134175 0.8190 0.8190 0.8190 0.8190 0.8190
3107.385453 0.8190 0.8190 0.8190 0.8190 0.8192
3110.636731 0.8195 0.8197 0.8200 0.8200 0.8200
3113.888010 0.8200 0.8200 0.8202 0.8205 0.8207
3117.139288 0.8210 0.8210 0.8210 0.8210 0.8210
3120.390566 0.8210 0.8210 0.8210 0.8210 0.8213
3123.641844 0.8215 0.8218 0.8220 0.8223 0.8225
3126.893122 0.8228 0.8230 0.8230 0.8230 0.8230
3130.144400 0.8230 0.8230 0.8230 0.8230 0.8230
3133.395678 0.8230 0.8230 0.8230 0.8230 0.8230
3136.646957 0.8230 0.8230 0.8230 0.8230 0.8230
3139.898235 0.8230 0.8230 0.8230 0.8230 0.8230
3143.149513 0.8230 0.8230 0.8230 0.8230 0.8230
3146.400791 0.8230 0.8230 0.8230 0.8230 0.8230
3149.652069 0.8230 0.8230 0.8233 0.8238 0.8243
3152.903347 0.8248 0.8252 0.8254 0.8257 0.8259
3156.154625 0.8262 0.8264 0.8267 0.8269 0.8270
3159.405904 0.8270 0.8270 0.8270 0.8274 0.8279
3162.657182 0.8284 0.8289 0.8292 0.8295 0.8297
3165.908460 0.8300 0.8300 0.8300 0.8300 0.8300
3169.159738 0.8300 0.8300 0.8300 0.8300 0.8302
3172.411016 0.8305 0.8308 0.8310 0.8310 0.8310
3175.662294 0.8310 0.8310 0.8307 0.8305 0.8302
3178.913572 0.8300 0.8300 0.8300 0.8300 0.8300
3182.164851 0.8300 0.8300 0.8300 0.8300 0.8300
3185.416129 0.8300 0.8300 0.8299 0.8297 0.8294
3188.667407 0.8292 0.8290 0.8290 0.8290 0.8290
3191.918685 0.8289 0.8286 0.8284 0.8281 0.8280
3195.169963 0.8280 0.8280 0.8280 0.8280 0.8280
3198.421241 0.8280 0.8280 0.8280 0.8280 0.8280
3201.672520 0.8280 0.8280 0.8280 0.8280 0.8280
3204.923798 0.8280 0.8280 0.8280 0.8280 0.8280
3208.175076 0.8280 0.8280 0.8280 0.8280 0.8280
3211.426354 0.8280 0.8280 0.8280 0.8280 0.8280
3214.677632 0.8280 0.8280 0.8280 0.8280 0.8280
3217.928910 0.8280 0.8280 0.8280 0.8280 0.8282
3221.180188 0.8285 0.8287 0.8290 0.8290 0.8290
3224.431467 0.8290 0.8290 0.8293 0.8295 0.8298
3227.682745 0.8300 0.8300 0.8300 0.8300 0.8300
3230.934023 0.8300 0.8300 0.8300 0.8300 0.8300
3234.185301 0.8300 0.8300 0.8301 0.8303 0.8306
3237.436579 0.8308 0.8310 0.8310 0.8310 0.8310
3240.687857 0.8311 0.8313 0.8316 0.8318 0.8320
3243.939135 0.8320 0.8320 0.8320 0.8320 0.8320
3247.190414 0.8320 0.8320 0.8321 0.8324 0.8326
3250.441692 0.8329 0.8330 0.8330 0.8330 0.8330
3253.692970 0.8331 0.8334 0.8337 0.8339 0.8340
3256.944248 0.8340 0.8340 0.8340 0.8340 0.8340
3260.195526 0.8340 0.8340 0.8342 0.8344 0.8347
3263.446804 0.8350 0.8350 0.8350 0.8350 0.8350
3266.698083 0.8352 0.8355 0.8357 0.8360 0.8360
3269.949361 0.8360 0.8360 0.8360 0.8360 0.8360
3273.200639 0.8360 0.8360 0.8363 0.8365 0.8368
3276.451917 0.8370 0.8370 0.8370 0.8370 0.8370
3279.703195 0.8370 0.8370 0.8370 0.8370 0.8370
3282.954473 0.8370 0.8370 0.8370 0.8370 0.8370
3286.205751 0.8370 0.8370 0.8370 0.8370 0.8370
3289.457030 0.8370 0.8370 0.8370 0.8370 0.8370
3292.708308 0.8370 0.8370 0.8370 0.8370 0.8370
3295.959586 0.8370 0.8370 0.8370 0.8370 0.8370
3299.210864 0.8370 0.8369 0.8366 0.8364 0.8361
3302.462142 0.8360 0.8360 0.8360 0.8360 0.8360
3305.713420 0.8360 0.8360 0.8360 0.8360 0.8360
3308.964698 0.8360 0.8360 0.8360 0.8360 0.8360
3312.215977 0.8360 0.8360 0.8360 0.8360 0.8360
3315.467255 0.8360 0.8360 0.8360 0.8360 0.8360
3318.718533 0.8360 0.8360 0.8360 0.8358 0.8355
3321.969811 0.8353 0.8350 0.8350 0.8350 0.8350
3325.221089 0.8350 0.8350 0.8350 0.8350 0.8350
3328.472367 0.8350 0.8350 0.8350 0.8350 0.8347
3331.723646 0.8345 0.8342 0.8340 0.8340 0.8340
3334.974924 0.8340 0.8340 0.8340 0.8340 0.8340
3338.226202 0.8340 0.8340 0.8340 0.8340 0.8340
3341.477480 0.8340 0.8340 0.8340 0.8340 0.8340
3344.728758 0.8340 0.8340 0.8340 0.8340 0.8340
3347.980036 0.8340 0.8340 0.8340 0.8340 0.8340
3351.231314 0.8339 0.8336 0.8334 0.8331 0.8330
3354.482593 0.8330 0.8330 0.8330 0.8330 0.8330
3357.733871 0.8330 0.8330 0.8330 0.8330 0.8330
3360.985149 0.8330 0.8330 0.8330 0.8330 0.8330
3364.236427 0.8328 0.8325 0.8323 0.8320 0.8320
3367.487705 0.8320 0.8320 0.8320 0.8320 0.8320
3370.738983 0.8320 0.8320 0.8320 0.8320 0.8320
3373.990261 0.8320 0.8320 0.8320 0.8320 0.8320
3377.241540 0.8320 0.8320 0.8320 0.8320 0.8320
3380.492818 0.8320 0.8320 0.8320 0.8317 0.8315
3383.744096 0.8312 0.8310 0.8310 0.8310 0.8310
3386.995374 0.8310 0.8310 0.8310 0.8310 0.8309
3390.246652 0.8307 0.8304 0.8302 0.8300 0.8300
3393.497930 0.8300 0.8300 0.8300 0.8300 0.8300
3396.749209 0.8300 0.8300 0.8300 0.8300 0.8300
3400.000487 0.8300 0.8300 0.8300 0.8300 0.8300
3403.251765 0.8300 0.8300 0.8300 0.8300 0.8300
3406.503043 0.8300 0.8300 0.8300 0.8300 0.8300
3409.754321 0.8300 0.8302 0.8304 0.8307 0.8309
3413.005599 0.8310 0.8310 0.8310 0.8310 0.8308
3416.256877 0.8305 0.8303 0.8300 0.8300 0.8300
3419.508156 0.8300 0.8300 0.8300 0.8300 0.8300
3422.759434 0.8300 0.8300 0.8300 0.8300 0.8300
3426.010712 0.8300 0.8300 0.8300 0.8300 0.8297
3429.261990 0.8295 0.8292 0.8290 0.8287 0.8285
3432.513268 0.8282 0.8280 0.8277 0.8275 0.8272
3435.764546 0.8270 0.8270 0.8270 0.8270 0.8270
3439.015824 0.8270 0.8270 0.8270 0.8269 0.8263
3442.267103 0.8258 0.8253 0.8247 0.8236 0.8226
3445.518381 0.8216 0.8208 0.8203 0.8198 0.8193
3448.769659 0.8189 0.8186 0.8184 0.8181 0.8180
3452.020937 0.8180 0.8180 0.8180 0.8176 0.8168
3455.272215 0.8161 0.8153 0.8149 0.8146 0.8144
3458.523493 0.8141 0.8137 0.8132 0.8127 0.8122
3461.774771 0.8112 0.8099 0.8086 0.8073 0.8059
3465.026050 0.8043 0.8028 0.8013 0.8006 0.8001
3468.277328 0.7996 0.7991 0.7986 0.7981 0.7976
3471.528606 0.7971 0.7968 0.7965 0.7963 0.7960
3474.779884 0.7962 0.7965 0.7967 0.7970 0.7977
3478.031162 0.7985 0.7993 0.8000 0.8005 0.8010
3481.282440 0.8015 0.8021 0.8028 0.8036 0.8043
3484.533719 0.8051 0.8056 0.8061 0.8066 0.8071
3487.784997 0.8079 0.8087 0.8094 0.8103 0.8113
3491.036275 0.8123 0.8133 0.8144 0.8156 0.8169
3494.287553 0.8182 0.8191 0.8193 0.8196 0.8198
3497.538831 0.8201 0.8204 0.8206 0.8209 0.8212
3500.790109 0.8217 0.8222 0.8227 0.8230 0.8230
3504.041387 0.8230 0.8230 0.8231 0.8234 0.8236
3507.292666 0.8239 0.8244 0.8252 0.8260 0.8267
3510.543944 0.8272 0.8274 0.8277 0.8279 0.8280
3513.795222 0.8280 0.8280 0.8280 0.8280 0.8280
3517.046500 0.8280 0.8280 0.8280 0.8280 0.8280
3520.297778 0.8280 0.8280 0.8280 0.8280 0.8280
3523.549056 0.8280 0.8280 0.8280 0.8280 0.8278
3526.800334 0.8275 0.8273 0.8270 0.8270 0.8270
3530.051613 0.8270 0.8270 0.8270 0.8270 0.8270
3533.302891 0.8270 0.8267 0.8265 0.8262 0.8260
3536.554169 0.8260 0.8260 0.8260 0.8260 0.8257
3539.805447 0.8254 0.8252 0.8250 0.8250 0.8250
3543.056725 0.8250 0.8250 0.8250 0.8250 0.8250
3546.308003 0.8250 0.8250 0.8250 0.8250 0.8250
3549.559282 0.8250 0.8250 0.8250 0.8251 0.8254
3552.810560 0.8256 0.8259 0.8261 0.8264 0.8266
3556.061838 0.8269 0.8271 0.8274 0.8276 0.8279
3559.313116 0.8280 0.8280 0.8280 0.8280 0.8282
3562.564394 0.8284 0.8287 0.8289 0.8290 0.8290
3565.815672 0.8290 0.8290 0.8296 0.8303 0.8311
3569.066950 0.8319 0.8320 0.8320 0.8320 0.8320
3572.318229 0.8320 0.8320 0.8320 0.8320 0.8320
3575.569507 0.8320 0.8320 0.8320 0.8320 0.8320
3578.820785 0.8320 0.8320 0.8320 0.8320 0.8320
3582.072063 0.8320 0.8320 0.8320 0.8320 0.8320
3585.323341 0.8326 0.8331 0.8336 0.8340 0.8340
3588.574619 0.8340 0.8340 0.8340 0.8340 0.8340
3591.825897 0.8340 0.8341 0.8343 0.8346 0.8348
3595.077176 0.8351 0.8353 0.8356 0.8358 0.8361
3598.328454 0.8363 0.8366 0.8369 0.8370 0.8370
3601.579732 0.8370 0.8370 0.8370 0.8370 0.8370
3604.831010 0.8370 0.8370 0.8370 0.8370 0.8370
3608.082288 0.8370 0.8370 0.8370 0.8370 0.8370
3611.333566 0.8370 0.8370 0.8370 0.8370 0.8370
3614.584845 0.8370 0.8370 0.8372 0.8374 0.8377
3617.836123 0.8379 0.8380 0.8380 0.8380 0.8380
3621.087401 0.8380 0.8380 0.8380 0.8380 0.8382
3624.338679 0.8385 0.8387 0.8390 0.8390 0.8390
3627.589957 0.8390 0.8390 0.8390 0.8390 0.8390
3630.841235 0.8390 0.8390 0.8390 0.8390 0.8390
3634.092513 0.8390 0.8390 0.8390 0.8390 0.8390
3637.343792 0.8390 0.8390 0.8390 0.8390 0.8390
3640.595070 0.8390 0.8390 0.8387 0.8384 0.8382
3643.846348 0.8380 0.8380 0.8380 0.8380 0.8379
3647.097626 0.8377 0.8374 0.8372 0.8370 0.8370
3650.348904 0.8370 0.8370 0.8370 0.8370 0.8370
3653.600182 0.8370 0.8370 0.8370 0.8370 0.8370
3656.851460 0.8369 0.8366 0.8364 0.8361 0.8360
3660.102739 0.8360 0.8360 0.8360 0.8360 0.8360
3663.354017 0.8360 0.8360 0.8358 0.8356 0.8353
3666.605295 0.8351 0.8348 0.8346 0.8343 0.8341
3669.856573 0.8340 0.8340 0.8340 0.8340 0.8340
3673.107851 0.8340 0.8340 0.8340 0.8336 0.8330
3676.359129 0.8325 0.8320 0.8320 0.8320 0.8320
3679.610407 0.8320 0.8320 0.8320 0.8320 0.8320
3682.861686 0.8320 0.8320 0.8320 0.8320 0.8317
3686.112964 0.8315 0.8312 0.8310 0.8310 0.8310
3689.364242 0.8310 0.8310 0.8307 0.8305 0.8302
3692.615520 0.8300 0.8300 0.8300 0.8300 0.8299
3695.866798 0.8297 0.8294 0.8292 0.8290 0.8290
3699.118076 0.8290 0.8290 0.8290 0.8290 0.8290
3702.369355 0.8290 0.8291 0.8294 0.8296 0.8299
3705.620633 0.8300 0.8300 0.8300 0.8300 0.8300
3708.871911 0.8300 0.8300 0.8300 0.8301 0.8304
3712.123189 0.8306 0.8309 0.8310 0.8310 0.8310
3715.374467 0.8310 0.8310 0.8310 0.8310 0.8310
3718.625745 0.8310 0.8310 0.8310 0.8310 0.8312
3721.877023 0.8315 0.8317 0.8320 0.8320 0.8320
3725.128302 0.8320 0.8320 0.8320 0.8320 0.8320
3728.379580 0.8320 0.8320 0.8320 0.8320 0.8320
3731.630858 0.8322 0.8325 0.8328 0.8330 0.8333
3734.882136 0.8335 0.8338 0.8340 0.8340 0.8340
3738.133414 0.8340 0.8340 0.8343 0.8345 0.8348
3741.384692 0.8350 0.8353 0.8355 0.8358 0.8360
3744.635970 0.8360 0.8360 0.8360 0.8360 0.8360
3747.887249 0.8360 0.8360 0.8361 0.8363 0.8366
3751.138527 0.8368 0.8370 0.8370 0.8370 0.8370
3754.389805 0.8370 0.8370 0.8370 0.8370 0.8370
3757.641083 0.8370 0.8370 0.8370 0.8369 0.8366
3760.892361 0.8364 0.8361 0.8360 0.8360 0.8360
3764.143639 0.8360 0.8360 0.8360 0.8360 0.8360
3767.394918 0.8358 0.8356 0.8353 0.8351 0.8348
3770.646196 0.8346 0.8343 0.8340 0.8340 0.8340
3773.897474 0.8340 0.8340 0.8340 0.8340 0.8340
3777.148752 0.8340 0.8338 0.8335 0.8333 0.8330
3780.400030 0.8330 0.8330 0.8330 0.8330 0.8327
3783.651308 0.8325 0.8322 0.8320 0.8320 0.8320
3786.902586 0.8320 0.8320 0.8320 0.8320 0.8320
3790.153865 0.8320 0.8320 0.8320 0.8320 0.8320
3793.405143 0.8320 0.8320 0.8320 0.8320 0.8320
3796.656421 0.8320 0.8320 0.8320 0.8320 0.8320
3799.907699 0.8320 0.8319 0.8317 0.8314 0.8312
3803.158977 0.8310 0.8310 0.8310 0.8310 0.8310
3806.410255 0.8310 0.8310 0.8310 0.8310 0.8310
3809.661533 0.8310 0.8310 0.8309 0.8306 0.8304
3812.912812 0.8301 0.8300 0.8300 0.8300 0.8300
3816.164090 0.8300 0.8300 0.8300 0.8300 0.8302
3819.415368 0.8304 0.8307 0.8309 0.8310 0.8310
3822.666646 0.8310 0.8310 0.8312 0.8315 0.8317
3825.917924 0.8320 0.8320 0.8320 0.8320 0.8320
3829.169202 0.8320 0.8320 0.8320 0.8320 0.8320
3832.420481 0.8320 0.8320 0.8320 0.8320 0.8320
3835.671759 0.8320 0.8320 0.8320 0.8320 0.8320
3838.923037 0.8320 0.8323 0.8325 0.8328 0.8330
3842.174315 0.8330 0.8330 0.8330 0.8330 0.8330
3845.425593 0.8330 0.8330 0.8330 0.8330 0.8330
3848.676871 0.8330 0.8330 0.8330 0.8330 0.8330
3851.928149 0.8330 0.8330 0.8330 0.8330 0.8329
3855.179428 0.8326 0.8324 0.8321 0.8320 0.8320
3858.430706 0.8320 0.8320 0.8320 0.8320 0.8320
3861.681984 0.8320 0.8320 0.8320 0.8320 0.8320
3864.933262 0.8318 0.8316 0.8313 0.8311 0.8310
3868.184540 0.8310 0.8310 0.8310 0.8310 0.8310
3871.435818 0.8310 0.8310 0.8310 0.8310 0.8310
3874.687096 0.8310 0.8310 0.8310 0.8310 0.8310
3877.938375 0.8312 0.8315 0.8317 0.8320 0.8320
3881.189653 0.8320 0.8320 0.8320 0.8320 0.8320
3884.440931 0.8320 0.8320 0.8320 0.8320 0.8320
3887.692209 0.8320 0.8320 0.8320 0.8320 0.8320
3890.943487 0.8320 0.8320 0.8320 0.8320 0.8320
3894.194765 0.8320 0.8320 0.8320 0.8320 0.8320
3897.446044 0.8320 0.8320 0.8320 0.8320 0.8320
3900.697322 0.8320 0.8320 0.8320 0.8320 0.8319
3903.948600 0.8317 0.8314 0.8311 0.8310 0.8310
3907.199878 0.8310 0.8310 0.8310 0.8310 0.8310
3910.451156 0.8310 0.8310 0.8310 0.8310 0.8310
3913.702434 0.8310 0.8310 0.8310 0.8310 0.8310
3916.953712 0.8310 0.8310 0.8310 0.8312 0.8314
3920.204991 0.8317 0.8319 0.8320 0.8320 0.8320
3923.456269 0.8320 0.8320 0.8320 0.8320 0.8320
3926.707547 0.8318 0.8315 0.8313 0.8310 0.8310
3929.958825 0.8310 0.8310 0.8310 0.8308 0.8305
3933.210103 0.8303 0.8300 0.8300 0.8300 0.8300
3936.461381 0.8300 0.8300 0.8300 0.8300 0.8300
3939.712659 0.8300 0.8300 0.8300 0.8300 0.8300
3942.963938 0.8300 0.8300 0.8300 0.8297 0.8295
3946.215216 0.8292 0.8290 0.8290 0.8290 0.8290
3949.466494 0.8290 0.8290 0.8290 0.8290 0.8289
3952.717772 0.8287 0.8284 0.8282 0.8280 0.8280
3955.969050 0.8280 0.8280 0.8280 0.8280 0.8280
3959.220328 0.8280 0.8279 0.8276 0.8274 0.8271
3962.471606 0.8270 0.8270 0.8270 0.8270 0.8270
3965.722885 0.8270 0.8270 0.8270 0.8268 0.8266
3968.974163 0.8263 0.8261 0.8260 0.8260 0.8260
3972.225441 0.8260 0.8258 0.8256 0.8253 0.8251
3975.476719 0.8250 0.8250 0.8250 0.8250 0.8250
3978.727997 0.8250 0.8250 0.8250 0.8250 0.8250
3981.979275 0.8250 0.8250 0.8248 0.8245 0.8243
3985.230554 0.8240 0.8238 0.8235 0.8232 0.8230
3988.481832 0.8230 0.8230 0.8230 0.8230 0.8230
3991.733110 0.8230 0.8230 0.8230 0.8230 0.8230
3994.984388 0.8230 0.8231 0.8236 0.8241 0.8246
3998.235666 0.8249 0.8247 0.8244 0.8242 0.8239
4001.486944 0.8237 0.8234 0.8232 0.8230 0.8230
4004.738222 0.8230 0.8230 0.8230 0.8230 0.8230
4007.989501 0.8230 0.8230 0.8230 0.8230 0.8230
##END=
