##TITLE=1,4-Diethylbenzene
##JCAMP-DX=4.24
$$ By DXEDIT 1.05 (RS McDonald)
##DATA TYPE=INFRARED SPECTRUM
##CLASS=COBLENTZ III
##ORIGIN=DOW CHEMICAL COMPANY
##OWNER=COPYRIGHT (C) 1988 by COBLENTZ SOCIETY INC.
Collection (C) 2018 copyright by the U.S. Secretary of Commerce
on behalf of the United States of America. All rights reserved.
##DATE=1964/06/17
##CAS REGISTRY NO=105-05-5
##MOLFORM=C10 H14
##SOURCE REFERENCE=COBLENTZ NO. 6326
##$NIST SOURCE=COBLENTZ
##$NIST IMAGE=cob6326
##SPECTROMETER/DATA SYSTEM=BECKMAN IR-9 (GRATING)
##INSTRUMENT PARAMETERS=ORDER CHANGES: 670, 1200, 2000 CM^-^1
##STATE=SOLUTION (10% CCl4 FOR 3800-1330, 2% CS2 FOR 1330-400)
##PATH LENGTH=0.011 CM, 0.011 CM
$$ SEE SPECTRUM NO. 3590 FOR "NEAT" SPECTRUM
$$ SPECTRAL CONTAMINATION DUE TO CS2 AROUND 400, 650, 850 AND CCl4 AROUND 1550 CM^-^1 HAVE BEEN SUBTRACTED
$$ SPECTRAL FEATURE AT 1996 CM^-^1 IS AN ARTIFACT CAUSED BY GRATING CHANGE
##SAMPLING PROCEDURE=TRANSMISSION
##RESOLUTION=2
##DATA PROCESSING=DIGITIZED BY COBLENTZ SOCIETY (BATCH I) FROM HARD COPY
##XUNITS=1/CM
##YUNITS=TRANSMITTANCE
##XFACTOR=1
##YFACTOR=1
##DELTAX=1
##FIRSTX=3814
##LASTX=400
##FIRSTY=0.8961
##MAXX=3814
##MINX=400
##MAXY=0.9581
##MINY=0.0119
##NPOINTS=3415
##XYDATA=(X++(Y..Y))
3814.000000 0.8961 0.8956 0.8956 0.8962 0.8966
3809.000000 0.8956 0.8953 0.8961 0.8963 0.8962
3804.000000 0.8962 0.8960 0.8950 0.8950 0.8950
3799.000000 0.8949 0.8949 0.8949 0.8956 0.8949
3794.000000 0.8957 0.8956 0.8956 0.8955 0.8955
3789.000000 0.8954 0.8954 0.8953 0.8953 0.8953
3784.000000 0.8946 0.8944 0.8945 0.8953 0.8957
3779.000000 0.8950 0.8959 0.8960 0.8962 0.8952
3774.000000 0.8963 0.8963 0.8965 0.8966 0.8967
3769.000000 0.8967 0.8967 0.8969 0.8970 0.8970
3764.000000 0.8972 0.8972 0.8973 0.8974 0.8981
3759.000000 0.8981 0.8977 0.8977 0.8978 0.8979
3754.000000 0.8980 0.8982 0.8983 0.8983 0.8984
3749.000000 0.8984 0.8984 0.8982 0.8981 0.8980
3744.000000 0.8980 0.8979 0.8979 0.8978 0.8978
3739.000000 0.8980 0.8988 0.8987 0.8985 0.8984
3734.000000 0.8980 0.8973 0.8979 0.8982 0.8982
3729.000000 0.8980 0.8980 0.8980 0.8980 0.8980
3724.000000 0.8980 0.8980 0.8980 0.8979 0.8979
3719.000000 0.8969 0.8969 0.8979 0.8979 0.8977
3714.000000 0.8977 0.8977 0.8980 0.8983 0.8980
3709.000000 0.8985 0.8985 0.8983 0.8983 0.8983
3704.000000 0.8983 0.8982 0.8982 0.8980 0.8980
3699.000000 0.8979 0.8978 0.8977 0.8967 0.8964
3694.000000 0.8963 0.8961 0.8960 0.8955 0.8950
3689.000000 0.8945 0.8939 0.8936 0.8927 0.8926
3684.000000 0.8925 0.8924 0.8924 0.8923 0.8923
3679.000000 0.8925 0.8927 0.8930 0.8933 0.8936
3674.000000 0.8939 0.8941 0.8945 0.8947 0.8958
3669.000000 0.8953 0.8954 0.8956 0.8958 0.8959
3664.000000 0.8962 0.8964 0.8966 0.8968 0.8971
3659.000000 0.8972 0.8973 0.8973 0.8974 0.8974
3654.000000 0.8975 0.8975 0.8976 0.8976 0.8977
3649.000000 0.8977 0.8978 0.8978 0.8979 0.8979
3644.000000 0.8980 0.8980 0.8980 0.8980 0.8981
3639.000000 0.8981 0.8982 0.8982 0.8983 0.8983
3634.000000 0.8984 0.8986 0.8996 0.8996 0.8994
3629.000000 0.8987 0.8991 0.8998 0.8999 0.8999
3624.000000 0.9000 0.9000 0.9001 0.9001 0.9002
3619.000000 0.9002 0.9003 0.9003 0.9004 0.9004
3614.000000 0.9005 0.9005 0.9006 0.9006 0.9007
3609.000000 0.9006 0.8999 0.9008 0.9009 0.9009
3604.000000 0.9009 0.9006 0.9003 0.9010 0.9006
3599.000000 0.9000 0.9005 0.9010 0.9010 0.9010
3594.000000 0.9010 0.9010 0.9010 0.9010 0.9011
3589.000000 0.9011 0.9011 0.9011 0.9011 0.9011
3584.000000 0.9011 0.9011 0.9011 0.9011 0.9011
3579.000000 0.9011 0.9011 0.9011 0.9008 0.9004
3574.000000 0.9011 0.9011 0.9006 0.9000 0.9001
3569.000000 0.9001 0.9001 0.9001 0.9001 0.9001
3564.000000 0.9001 0.9001 0.9001 0.9001 0.9002
3559.000000 0.9002 0.9002 0.9002 0.9004 0.9013
3554.000000 0.9003 0.9005 0.9014 0.9014 0.9012
3549.000000 0.9007 0.9015 0.9015 0.9016 0.9011
3544.000000 0.9010 0.9016 0.9016 0.9016 0.9010
3539.000000 0.9013 0.9009 0.9014 0.9017 0.9017
3534.000000 0.9017 0.9017 0.9017 0.9017 0.9018
3529.000000 0.9007 0.9007 0.9007 0.9007 0.9007
3524.000000 0.9007 0.9007 0.9007 0.9007 0.9007
3519.000000 0.9007 0.9007 0.9007 0.9007 0.9006
3514.000000 0.9005 0.9004 0.9004 0.9003 0.9002
3509.000000 0.9001 0.9001 0.9000 0.8999 0.8998
3504.000000 0.8998 0.8997 0.8997 0.8996 0.8996
3499.000000 0.8995 0.8995 0.8993 0.8993 0.8992
3494.000000 0.8992 0.8991 0.8991 0.8991 0.8991
3489.000000 0.8990 0.8990 0.8989 0.8989 0.8988
3484.000000 0.8988 0.8987 0.8987 0.8986 0.8986
3479.000000 0.8985 0.8985 0.8984 0.8984 0.8983
3474.000000 0.8983 0.8982 0.8982 0.8981 0.8981
3469.000000 0.8980 0.8980 0.8979 0.8979 0.8978
3464.000000 0.8978 0.8977 0.8977 0.8976 0.8976
3459.000000 0.8975 0.8975 0.8973 0.8973 0.8972
3454.000000 0.8972 0.8971 0.8970 0.8969 0.8969
3449.000000 0.8967 0.8967 0.8967 0.8967 0.8967
3444.000000 0.8967 0.8966 0.8966 0.8966 0.8966
3439.000000 0.8966 0.8966 0.8964 0.8964 0.8964
3434.000000 0.8964 0.8964 0.8964 0.8964 0.8964
3429.000000 0.8963 0.8963 0.8963 0.8963 0.8953
3424.000000 0.8961 0.8962 0.8962 0.8960 0.8960
3419.000000 0.8960 0.8960 0.8960 0.8960 0.8960
3414.000000 0.8960 0.8959 0.8959 0.8959 0.8959
3409.000000 0.8959 0.8959 0.8964 0.8964 0.8960
3404.000000 0.8960 0.8960 0.8962 0.8962 0.8963
3399.000000 0.8963 0.8964 0.8964 0.8964 0.8964
3394.000000 0.8966 0.8966 0.8967 0.8967 0.8967
3389.000000 0.8967 0.8967 0.8967 0.8969 0.8969
3384.000000 0.8970 0.8970 0.8971 0.8971 0.8972
3379.000000 0.8972 0.8973 0.8973 0.8974 0.8974
3374.000000 0.8975 0.8975 0.8976 0.8976 0.8985
3369.000000 0.8977 0.8977 0.8977 0.8977 0.8977
3364.000000 0.8978 0.8978 0.8978 0.8978 0.8979
3359.000000 0.8979 0.8979 0.8979 0.8980 0.8980
3354.000000 0.8980 0.8980 0.8981 0.8981 0.8982
3349.000000 0.8983 0.8984 0.8984 0.8985 0.8994
3344.000000 0.8997 0.8989 0.8998 0.8989 0.8990
3339.000000 0.8991 0.9002 0.9003 0.9003 0.8994
3334.000000 0.8995 0.8996 0.8997 0.8998 0.8999
3329.000000 0.8999 0.9000 0.9000 0.9001 0.9002
3324.000000 0.9003 0.9003 0.9004 0.9005 0.9006
3319.000000 0.9006 0.9007 0.9007 0.9007 0.9009
3314.000000 0.9010 0.9010 0.9021 0.9021 0.9023
3309.000000 0.9024 0.9023 0.9016 0.9025 0.9025
3304.000000 0.9024 0.9016 0.9017 0.9017 0.9019
3299.000000 0.9019 0.9020 0.9020 0.9022 0.9021
3294.000000 0.9023 0.9023 0.9024 0.9024 0.9025
3289.000000 0.9025 0.9025 0.9025 0.9026 0.9026
3284.000000 0.9026 0.9036 0.9035 0.9025 0.9027
3279.000000 0.9035 0.9031 0.9022 0.9025 0.9032
3274.000000 0.9033 0.9033 0.9033 0.9033 0.9033
3269.000000 0.9033 0.9033 0.9031 0.9030 0.9027
3264.000000 0.9027 0.9024 0.9024 0.9023 0.9023
3259.000000 0.9020 0.9020 0.9020 0.9010 0.9017
3254.000000 0.9017 0.9017 0.9016 0.9015 0.9014
3249.000000 0.9012 0.9011 0.9009 0.9007 0.8999
3244.000000 0.8998 0.9001 0.8999 0.8997 0.8996
3239.000000 0.8994 0.8992 0.8989 0.8987 0.8984
3234.000000 0.8981 0.8977 0.8975 0.8972 0.8970
3229.000000 0.8968 0.8968 0.8966 0.8957 0.8959
3224.000000 0.8967 0.8965 0.8965 0.8965 0.8965
3219.000000 0.8965 0.8965 0.8965 0.8965 0.8964
3214.000000 0.8964 0.8963 0.8963 0.8954 0.8946
3209.000000 0.8937 0.8920 0.8910 0.8905 0.8899
3204.000000 0.8893 0.8886 0.8880 0.8874 0.8870
3199.000000 0.8873 0.8863 0.8864 0.8856 0.8859
3194.000000 0.8855 0.8851 0.8848 0.8846 0.8839
3189.000000 0.8838 0.8842 0.8839 0.8832 0.8826
3184.000000 0.8825 0.8824 0.8824 0.8824 0.8824
3179.000000 0.8824 0.8824 0.8824 0.8825 0.8825
3174.000000 0.8825 0.8825 0.8825 0.8824 0.8824
3169.000000 0.8824 0.8824 0.8823 0.8823 0.8823
3164.000000 0.8828 0.8832 0.8827 0.8821 0.8820
3159.000000 0.8812 0.8798 0.8794 0.8782 0.8771
3154.000000 0.8772 0.8765 0.8757 0.8750 0.8743
3149.000000 0.8732 0.8712 0.8701 0.8691 0.8681
3144.000000 0.8673 0.8670 0.8668 0.8678 0.8692
3139.000000 0.8697 0.8704 0.8709 0.8715 0.8720
3134.000000 0.8725 0.8726 0.8727 0.8728 0.8729
3129.000000 0.8729 0.8730 0.8729 0.8727 0.8725
3124.000000 0.8723 0.8721 0.8719 0.8712 0.8704
3119.000000 0.8696 0.8689 0.8680 0.8670 0.8652
3114.000000 0.8634 0.8607 0.8581 0.8548 0.8515
3109.000000 0.8478 0.8441 0.8408 0.8375 0.8346
3104.000000 0.8317 0.8025 0.7351 0.7543 0.7361
3099.000000 0.7360 0.7358 0.7385 0.7412 0.7475
3094.000000 0.7529 0.7583 0.7636 0.7682 0.7735
3089.000000 0.7780 0.7827 0.7884 0.7941 0.7968
3084.000000 0.7998 0.8003 0.8007 0.8007 0.8007
3079.000000 0.8007 0.8013 0.8013 0.8006 0.7981
3074.000000 0.7961 0.7914 0.7857 0.7797 0.7739
3069.000000 0.7666 0.7611 0.7506 0.7410 0.7084
3064.000000 0.6758 0.6549 0.6348 0.6146 0.5714
3059.000000 0.5718 0.5718 0.5714 0.5710 0.5748
3054.000000 0.5783 0.5837 0.5894 0.5955 0.6014
3049.000000 0.6071 0.6127 0.6185 0.6248 0.6307
3044.000000 0.6370 0.6399 0.6420 0.6427 0.6435
3039.000000 0.6416 0.6398 0.6347 0.6291 0.6095
3034.000000 0.5905 0.5696 0.5491 0.5290 0.5086
3029.000000 0.4881 0.4680 0.4477 0.4274 0.4224
3024.000000 0.4176 0.4169 0.4162 0.4155 0.4177
3019.000000 0.4144 0.4137 0.4132 0.4125 0.4146
3014.000000 0.4168 0.4187 0.4207 0.4266 0.4325
3009.000000 0.4411 0.4497 0.4579 0.4666 0.4756
3004.000000 0.4843 0.4927 0.5010 0.5076 0.5144
2999.000000 0.5146 0.5146 0.5121 0.5130 0.4959
2994.000000 0.4820 0.4684 0.4547 0.4407 0.4268
2989.000000 0.4127 0.3989 0.3849 0.3710 0.3383
2984.000000 0.3054 0.2638 0.2221 0.1803 0.1387
2979.000000 0.0971 0.0554 0.0339 0.0138 0.0122
2974.000000 0.0119 0.0128 0.0137 0.0217 0.0300
2969.000000 0.0449 0.0598 0.0748 0.0897 0.1047
2964.000000 0.1197 0.1346 0.1496 0.1644 0.1794
2959.000000 0.1946 0.2095 0.2243 0.2392 0.2542
2954.000000 0.2692 0.2843 0.2994 0.3070 0.3151
2949.000000 0.3139 0.3133 0.3049 0.2968 0.2598
2944.000000 0.2231 0.1860 0.1491 0.1273 0.1057
2939.000000 0.1055 0.1054 0.1053 0.1052 0.1101
2934.000000 0.1152 0.1229 0.1307 0.1385 0.1462
2929.000000 0.1539 0.1617 0.1746 0.1874 0.2035
2924.000000 0.2196 0.2356 0.2516 0.2675 0.2835
2919.000000 0.2995 0.3156 0.3316 0.3476 0.3636
2914.000000 0.3796 0.3957 0.4119 0.4197 0.4290
2909.000000 0.4272 0.4275 0.4198 0.4117 0.4009
2904.000000 0.3903 0.3796 0.3689 0.3609 0.3530
2899.000000 0.3526 0.3524 0.3568 0.3612 0.3708
2894.000000 0.3803 0.3899 0.3994 0.4090 0.4185
2889.000000 0.4279 0.4400 0.4383 0.4392 0.4255
2884.000000 0.4117 0.3756 0.3395 0.3032 0.2670
2879.000000 0.2441 0.2232 0.2223 0.2239 0.2412
2874.000000 0.2585 0.2757 0.2931 0.3042 0.3153
2869.000000 0.3195 0.3238 0.3282 0.3327 0.3381
2864.000000 0.3436 0.3516 0.3596 0.3745 0.3896
2859.000000 0.4032 0.4170 0.4270 0.4370 0.4455
2854.000000 0.4535 0.4789 0.5045 0.5300 0.5554
2849.000000 0.5760 0.5965 0.6047 0.6133 0.6224
2844.000000 0.6313 0.6439 0.6574 0.6798 0.7018
2839.000000 0.7108 0.7204 0.7277 0.7349 0.7415
2834.000000 0.7483 0.7550 0.7615 0.7673 0.7731
2829.000000 0.7796 0.7847 0.7905 0.7958 0.7999
2824.000000 0.8049 0.8102 0.8136 0.8186 0.8226
2819.000000 0.8263 0.8294 0.8330 0.8367 0.8412
2814.000000 0.8456 0.8480 0.8503 0.8526 0.8549
2809.000000 0.8574 0.8607 0.8635 0.8660 0.8672
2804.000000 0.8684 0.8693 0.8701 0.8699 0.8698
2799.000000 0.8696 0.8695 0.8693 0.8691 0.8690
2794.000000 0.8688 0.8687 0.8684 0.8676 0.8681
2789.000000 0.8674 0.8676 0.8676 0.8677 0.8681
2784.000000 0.8688 0.8683 0.8680 0.8691 0.8700
2779.000000 0.8705 0.8710 0.8716 0.8722 0.8727
2774.000000 0.8732 0.8737 0.8743 0.8749 0.8754
2769.000000 0.8759 0.8764 0.8770 0.8777 0.8782
2764.000000 0.8787 0.8791 0.8797 0.8803 0.8808
2759.000000 0.8813 0.8818 0.8823 0.8828 0.8834
2754.000000 0.8839 0.8842 0.8845 0.8846 0.8850
2749.000000 0.8852 0.8854 0.8855 0.8855 0.8855
2744.000000 0.8852 0.8849 0.8846 0.8842 0.8839
2739.000000 0.8831 0.8824 0.8816 0.8809 0.8803
2734.000000 0.8799 0.8796 0.8793 0.8791 0.8791
2729.000000 0.8791 0.8794 0.8798 0.8801 0.8813
2724.000000 0.8825 0.8839 0.8853 0.8869 0.8885
2719.000000 0.8905 0.8926 0.8946 0.8968 0.8975
2714.000000 0.8984 0.8988 0.8991 0.8991 0.8991
2709.000000 0.8991 0.8991 0.8991 0.8991 0.8990
2704.000000 0.8990 0.8990 0.8990 0.8990 0.8990
2699.000000 0.8990 0.8991 0.8991 0.8993 0.8993
2694.000000 0.8994 0.8994 0.8996 0.8996 0.8997
2689.000000 0.8998 0.9001 0.9003 0.9006 0.9009
2684.000000 0.9012 0.9016 0.9019 0.9021 0.9024
2679.000000 0.9027 0.9030 0.9032 0.9035 0.9038
2674.000000 0.9041 0.9042 0.9045 0.9048 0.9050
2669.000000 0.9050 0.9053 0.9053 0.9056 0.9057
2664.000000 0.9059 0.9059 0.9059 0.9058 0.9056
2659.000000 0.9053 0.9051 0.9058 0.9056 0.9053
2654.000000 0.9051 0.9048 0.9046 0.9038 0.9028
2649.000000 0.9019 0.9017 0.9014 0.9007 0.8992
2644.000000 0.8981 0.8965 0.8958 0.8934 0.8911
2639.000000 0.8899 0.8886 0.8883 0.8879 0.8878
2634.000000 0.8888 0.8888 0.8891 0.8883 0.8888
2629.000000 0.8900 0.8903 0.8904 0.8907 0.8929
2624.000000 0.8948 0.8959 0.8970 0.8981 0.8992
2619.000000 0.8998 0.9003 0.9003 0.9003 0.9002
2614.000000 0.9002 0.9002 0.9002 0.9000 0.9000
2609.000000 0.9000 0.9000 0.8999 0.8999 0.8998
2604.000000 0.8998 0.8997 0.8997 0.8998 0.9000
2599.000000 0.9003 0.9009 0.9014 0.9019 0.9023
2594.000000 0.9028 0.9032 0.9037 0.9042 0.9046
2589.000000 0.9050 0.9054 0.9058 0.9062 0.9066
2584.000000 0.9071 0.9073 0.9075 0.9077 0.9079
2579.000000 0.9081 0.9083 0.9084 0.9086 0.9088
2574.000000 0.9090 0.9091 0.9093 0.9093 0.9093
2569.000000 0.9093 0.9093 0.9092 0.9092 0.9092
2564.000000 0.9092 0.9091 0.9091 0.9090 0.9090
2559.000000 0.9089 0.9089 0.9088 0.9087 0.9086
2554.000000 0.9085 0.9084 0.9083 0.9082 0.9082
2549.000000 0.9081 0.9080 0.9079 0.9077 0.9076
2544.000000 0.9075 0.9073 0.9071 0.9069 0.9067
2539.000000 0.9065 0.9062 0.9061 0.9059 0.9059
2534.000000 0.9061 0.9062 0.9062 0.9064 0.9065
2529.000000 0.9066 0.9067 0.9068 0.9069 0.9070
2524.000000 0.9071 0.9071 0.9072 0.9073 0.9075
2519.000000 0.9077 0.9080 0.9082 0.9084 0.9086
2514.000000 0.9089 0.9090 0.9091 0.9092 0.9093
2509.000000 0.9094 0.9096 0.9097 0.9098 0.9099
2504.000000 0.9100 0.9101 0.9103 0.9103 0.9105
2499.000000 0.9106 0.9106 0.9108 0.9110 0.9110
2494.000000 0.9112 0.9113 0.9113 0.9115 0.9116
2489.000000 0.9117 0.9119 0.9120 0.9122 0.9123
2484.000000 0.9124 0.9125 0.9126 0.9133 0.9139
2479.000000 0.9140 0.9141 0.9142 0.9143 0.9144
2474.000000 0.9145 0.9146 0.9147 0.9148 0.9150
2469.000000 0.9151 0.9152 0.9153 0.9153 0.9154
2464.000000 0.9154 0.9150 0.9148 0.9145 0.9143
2459.000000 0.9140 0.9132 0.9129 0.9126 0.9118
2454.000000 0.9115 0.9117 0.9116 0.9111 0.9099
2449.000000 0.9099 0.9097 0.9092 0.9088 0.9083
2444.000000 0.9079 0.9073 0.9068 0.9066 0.9063
2439.000000 0.9060 0.9058 0.9058 0.9058 0.9060
2434.000000 0.9063 0.9064 0.9067 0.9068 0.9068
2429.000000 0.9068 0.9070 0.9070 0.9071 0.9071
2424.000000 0.9071 0.9071 0.9073 0.9073 0.9073
2419.000000 0.9073 0.9073 0.9073 0.9073 0.9071
2414.000000 0.9071 0.9071 0.9071 0.9071 0.9071
2409.000000 0.9074 0.9078 0.9074 0.9080 0.9080
2404.000000 0.9080 0.9078 0.9078 0.9078 0.9078
2399.000000 0.9078 0.9078 0.9078 0.9078 0.9078
2394.000000 0.9078 0.9078 0.9078 0.9078 0.9078
2389.000000 0.9088 0.9088 0.9088 0.9088 0.9090
2384.000000 0.9099 0.9098 0.9101 0.9108 0.9108
2379.000000 0.9112 0.9119 0.9124 0.9129 0.9126
2374.000000 0.9131 0.9133 0.9131 0.9129 0.9128
2369.000000 0.9118 0.9113 0.9111 0.9109 0.9107
2364.000000 0.9106 0.9104 0.9102 0.9100 0.9108
2359.000000 0.9106 0.9112 0.9111 0.9119 0.9123
2354.000000 0.9122 0.9119 0.9115 0.9108 0.9099
2349.000000 0.9095 0.9098 0.9106 0.9107 0.9104
2344.000000 0.9094 0.9087 0.9085 0.9082 0.9079
2339.000000 0.9066 0.9072 0.9070 0.9057 0.9052
2334.000000 0.9062 0.9060 0.9060 0.9061 0.9069
2329.000000 0.9067 0.9065 0.9063 0.9065 0.9063
2324.000000 0.9065 0.9059 0.9054 0.9044 0.9036
2319.000000 0.9024 0.9014 0.9005 0.8998 0.8989
2314.000000 0.8982 0.8974 0.8965 0.8950 0.8936
2309.000000 0.8933 0.8920 0.8929 0.8928 0.8933
2304.000000 0.8936 0.8945 0.8954 0.8962 0.8971
2299.000000 0.8983 0.8999 0.9005 0.9011 0.9016
2294.000000 0.9020 0.9024 0.9029 0.9034 0.9039
2289.000000 0.9043 0.9041 0.9041 0.9047 0.9051
2284.000000 0.9056 0.9048 0.9050 0.9054 0.9057
2279.000000 0.9059 0.9053 0.9055 0.9056 0.9051
2274.000000 0.9054 0.9057 0.9056 0.9052 0.9055
2269.000000 0.9053 0.9051 0.9054 0.9057 0.9053
2264.000000 0.9052 0.9055 0.9058 0.9054 0.9054
2259.000000 0.9056 0.9050 0.9052 0.9055 0.9057
2254.000000 0.9049 0.9052 0.9055 0.9055 0.9049
2249.000000 0.9051 0.9054 0.9056 0.9059 0.9058
2244.000000 0.9053 0.9055 0.9058 0.9060 0.9063
2239.000000 0.9065 0.9067 0.9069 0.9072 0.9067
2234.000000 0.9066 0.9068 0.9071 0.9072 0.9076
2229.000000 0.9079 0.9080 0.9083 0.9086 0.9088
2224.000000 0.9091 0.9094 0.9095 0.9089 0.9092
2219.000000 0.9094 0.9097 0.9100 0.9103 0.9105
2214.000000 0.9108 0.9111 0.9114 0.9117 0.9120
2209.000000 0.9121 0.9125 0.9128 0.9131 0.9134
2204.000000 0.9139 0.9142 0.9146 0.9149 0.9153
2199.000000 0.9156 0.9160 0.9162 0.9166 0.9161
2194.000000 0.9173 0.9170 0.9165 0.9167 0.9169
2189.000000 0.9169 0.9169 0.9169 0.9166 0.9162
2184.000000 0.9165 0.9159 0.9152 0.9148 0.9143
2179.000000 0.9137 0.9140 0.9136 0.9131 0.9124
2174.000000 0.9117 0.9113 0.9113 0.9113 0.9117
2169.000000 0.9119 0.9114 0.9117 0.9120 0.9123
2164.000000 0.9127 0.9130 0.9133 0.9134 0.9135
2159.000000 0.9136 0.9137 0.9138 0.9139 0.9140
2154.000000 0.9141 0.9142 0.9143 0.9144 0.9145
2149.000000 0.9145 0.9146 0.9147 0.9148 0.9149
2144.000000 0.9150 0.9151 0.9151 0.9153 0.9154
2139.000000 0.9154 0.9156 0.9157 0.9158 0.9158
2134.000000 0.9161 0.9161 0.9162 0.9162 0.9164
2129.000000 0.9165 0.9166 0.9166 0.9167 0.9167
2124.000000 0.9167 0.9167 0.9159 0.9166 0.9169
2119.000000 0.9169 0.9170 0.9170 0.9170 0.9170
2114.000000 0.9171 0.9171 0.9172 0.9172 0.9172
2109.000000 0.9172 0.9172 0.9172 0.9173 0.9173
2104.000000 0.9173 0.9173 0.9173 0.9173 0.9173
2099.000000 0.9173 0.9166 0.9163 0.9173 0.9175
2094.000000 0.9165 0.9174 0.9176 0.9176 0.9176
2089.000000 0.9176 0.9176 0.9176 0.9176 0.9176
2084.000000 0.9176 0.9176 0.9176 0.9176 0.9176
2079.000000 0.9175 0.9175 0.9169 0.9164 0.9158
2074.000000 0.9153 0.9146 0.9140 0.9136 0.9132
2069.000000 0.9127 0.9123 0.9118 0.9114 0.9109
2064.000000 0.9105 0.9106 0.9106 0.9109 0.9111
2059.000000 0.9112 0.9114 0.9118 0.9127 0.9124
2054.000000 0.9119 0.9116 0.9111 0.9106 0.9109
2049.000000 0.9100 0.9092 0.9089 0.9087 0.9084
2044.000000 0.9081 0.9077 0.9073 0.9069 0.9066
2039.000000 0.9063 0.9060 0.9056 0.9052 0.9046
2034.000000 0.9042 0.9037 0.9033 0.9028 0.9024
2029.000000 0.9019 0.9019 0.9019 0.9009 0.9009
2024.000000 0.9012 0.9010 0.9010 0.9010 0.9012
2019.000000 0.9014 0.9015 0.9018 0.9020 0.9023
2014.000000 0.9028 0.9031 0.9034 0.9038 0.9043
2009.000000 0.9047 0.9052 0.9054 0.9057 0.9057
2004.000000 0.9060 0.9060 0.9060 0.9059 0.9056
1999.000000 0.9043 0.8946 0.8848 0.8794 0.8801
1994.000000 0.8830 0.8898 0.8964 0.9031 0.9041
1989.000000 0.9044 0.9046 0.9049 0.9042 0.9043
1984.000000 0.9046 0.9048 0.9049 0.9050 0.9050
1979.000000 0.9050 0.9042 0.9043 0.9043 0.9044
1974.000000 0.9044 0.9045 0.9045 0.9043 0.9040
1969.000000 0.9035 0.9032 0.9031 0.9034 0.9029
1964.000000 0.9023 0.9031 0.9035 0.9037 0.9041
1959.000000 0.9050 0.9059 0.9070 0.9082 0.9093
1954.000000 0.9086 0.9087 0.9087 0.9087 0.9087
1949.000000 0.9079 0.9081 0.9083 0.9086 0.9085
1944.000000 0.9084 0.9083 0.9082 0.9081 0.9080
1939.000000 0.9079 0.9079 0.9073 0.9068 0.9063
1934.000000 0.9058 0.9053 0.9049 0.9043 0.9039
1929.000000 0.9034 0.9030 0.9025 0.9022 0.9017
1924.000000 0.9013 0.9009 0.9002 0.8993 0.8984
1919.000000 0.8975 0.8969 0.8965 0.8960 0.8956
1914.000000 0.8952 0.8944 0.8931 0.8905 0.8878
1909.000000 0.8848 0.8813 0.8785 0.8749 0.8707
1904.000000 0.8665 0.8600 0.8505 0.8412 0.8255
1899.000000 0.8031 0.7648 0.7371 0.7357 0.7367
1894.000000 0.7430 0.7560 0.7689 0.7815 0.7939
1889.000000 0.8068 0.8197 0.8326 0.8456 0.8537
1884.000000 0.8622 0.8669 0.8714 0.8759 0.8796
1879.000000 0.8828 0.8860 0.8879 0.8898 0.8926
1874.000000 0.8944 0.8951 0.8956 0.8962 0.8968
1869.000000 0.8971 0.8971 0.8971 0.8970 0.8970
1864.000000 0.8969 0.8969 0.8968 0.8968 0.8968
1859.000000 0.8968 0.8969 0.8976 0.8975 0.8972
1854.000000 0.8973 0.8974 0.8975 0.8976 0.8977
1849.000000 0.8979 0.8980 0.8981 0.8982 0.8984
1844.000000 0.8985 0.8985 0.8988 0.8990 0.8993
1839.000000 0.8995 0.8997 0.8999 0.8998 0.8994
1834.000000 0.8996 0.8998 0.9001 0.9002 0.9002
1829.000000 0.9003 0.9003 0.9004 0.9004 0.9005
1824.000000 0.9005 0.9005 0.9005 0.9005 0.9004
1819.000000 0.9014 0.9013 0.9013 0.9011 0.9008
1814.000000 0.9005 0.9002 0.8999 0.8996 0.8989
1809.000000 0.8980 0.8968 0.8961 0.8956 0.8954
1804.000000 0.8947 0.8938 0.8926 0.8910 0.8893
1799.000000 0.8857 0.8813 0.8769 0.8732 0.8694
1794.000000 0.8645 0.8594 0.8543 0.8506 0.8493
1789.000000 0.8462 0.8536 0.8596 0.8649 0.8695
1784.000000 0.8740 0.8785 0.8822 0.8851 0.8876
1779.000000 0.8895 0.8908 0.8920 0.8922 0.8917
1774.000000 0.8912 0.8905 0.8896 0.8886 0.8872
1769.000000 0.8860 0.8851 0.8851 0.8851 0.8860
1764.000000 0.8870 0.8881 0.8891 0.8902 0.8916
1759.000000 0.8930 0.8951 0.8963 0.8975 0.8988
1754.000000 0.8997 0.9005 0.9013 0.9020 0.9028
1749.000000 0.9031 0.9035 0.9039 0.9042 0.9045
1744.000000 0.9047 0.9051 0.9053 0.9055 0.9055
1739.000000 0.9056 0.9055 0.9054 0.9054 0.9054
1734.000000 0.9053 0.9052 0.9051 0.9065 0.9050
1729.000000 0.9047 0.9045 0.9042 0.9041 0.9038
1724.000000 0.9035 0.9033 0.9029 0.9026 0.9026
1719.000000 0.9023 0.9020 0.9018 0.9019 0.9018
1714.000000 0.9018 0.9017 0.9018 0.9017 0.9017
1709.000000 0.9016 0.9017 0.9016 0.9014 0.9011
1704.000000 0.9008 0.9006 0.9004 0.9001 0.8998
1699.000000 0.8995 0.8992 0.8988 0.8982 0.8974
1694.000000 0.8967 0.8961 0.8955 0.8948 0.8942
1689.000000 0.8938 0.8932 0.8928 0.8925 0.8918
1684.000000 0.8909 0.8900 0.8891 0.8884 0.8875
1679.000000 0.8869 0.8862 0.8855 0.8847 0.8821
1674.000000 0.8794 0.8771 0.8747 0.8699 0.8648
1669.000000 0.8596 0.8444 0.8388 0.8339 0.8310
1664.000000 0.8288 0.8275 0.8278 0.8278 0.8299
1659.000000 0.8318 0.8372 0.8422 0.8461 0.8505
1654.000000 0.8549 0.8597 0.8633 0.8667 0.8694
1649.000000 0.8719 0.8740 0.8761 0.8784 0.8803
1644.000000 0.8805 0.8808 0.8815 0.8821 0.8822
1639.000000 0.8819 0.8824 0.8824 0.8830 0.8829
1634.000000 0.8824 0.8828 0.8824 0.8828 0.8823
1629.000000 0.8828 0.8824 0.8807 0.8778 0.8762
1624.000000 0.8764 0.8762 0.8768 0.8764 0.8754
1619.000000 0.8749 0.8746 0.8745 0.8751 0.8760
1614.000000 0.8755 0.8748 0.8743 0.8747 0.8737
1609.000000 0.8739 0.8738 0.8728 0.8734 0.8693
1604.000000 0.8692 0.8666 0.8649 0.8606 0.8599
1599.000000 0.8582 0.8571 0.8549 0.8513 0.8463
1594.000000 0.8406 0.8350 0.8318 0.8290 0.8236
1589.000000 0.8188 0.8074 0.7933 0.7901 0.7872
1584.000000 0.7854 0.7861 0.7840 0.7829 0.7819
1579.000000 0.7812 0.7789 0.7774 0.7749 0.7735
1574.000000 0.7731 0.7722 0.7709 0.7720 0.7689
1569.000000 0.7667 0.7640 0.7601 0.7563 0.7546
1564.000000 0.7536 0.7527 0.7513 0.7509 0.7374
1559.000000 0.7107 0.7042 0.7009 0.7017 0.7041
1554.000000 0.7026 0.7003 0.7020 0.7061 0.7085
1549.000000 0.7079 0.7076 0.7069 0.7104 0.7242
1544.000000 0.7280 0.7303 0.7317 0.7329 0.7340
1539.000000 0.7379 0.7420 0.7411 0.7428 0.7460
1534.000000 0.7462 0.7452 0.7459 0.7416 0.7373
1529.000000 0.7322 0.7264 0.7195 0.7121 0.7026
1524.000000 0.6866 0.6662 0.6399 0.5843 0.5565
1519.000000 0.5183 0.3424 0.1684 0.1476 0.1452
1514.000000 0.1445 0.1912 0.2458 0.2997 0.3533
1509.000000 0.4064 0.4587 0.4861 0.5095 0.5900
1504.000000 0.6519 0.6718 0.6817 0.6897 0.7017
1499.000000 0.7361 0.7474 0.7584 0.7650 0.7709
1494.000000 0.7736 0.7754 0.7751 0.7746 0.7737
1489.000000 0.7728 0.7718 0.7705 0.7695 0.7685
1484.000000 0.7679 0.7677 0.7680 0.7681 0.7666
1479.000000 0.7629 0.7587 0.7543 0.7490 0.7436
1474.000000 0.7362 0.7267 0.7169 0.7070 0.6962
1469.000000 0.6852 0.6566 0.6009 0.5444 0.4887
1464.000000 0.4325 0.3675 0.3670 0.3711 0.3855
1459.000000 0.3998 0.4080 0.3965 0.3623 0.3282
1454.000000 0.2968 0.2976 0.2993 0.3296 0.3605
1449.000000 0.3912 0.4223 0.4529 0.4742 0.5133
1444.000000 0.5251 0.5379 0.5514 0.5724 0.5870
1439.000000 0.6063 0.6255 0.6446 0.6639 0.6816
1434.000000 0.6877 0.6937 0.7004 0.7090 0.7157
1429.000000 0.7188 0.7216 0.7209 0.7214 0.7189
1424.000000 0.7130 0.7057 0.6987 0.6667 0.6329
1419.000000 0.6016 0.6014 0.6094 0.6345 0.6601
1414.000000 0.6859 0.7116 0.7373 0.7530 0.7632
1409.000000 0.7742 0.7861 0.7922 0.7969 0.8014
1404.000000 0.8057 0.8089 0.8109 0.8116 0.8121
1399.000000 0.8125 0.8133 0.8142 0.8150 0.8160
1394.000000 0.8168 0.8172 0.8181 0.8185 0.8193
1389.000000 0.8191 0.8160 0.8137 0.8112 0.8089
1384.000000 0.8044 0.7980 0.7902 0.7826 0.7754
1379.000000 0.7681 0.7608 0.7462 0.7106 0.6790
1374.000000 0.6425 0.6440 0.6440 0.6621 0.6908
1369.000000 0.7197 0.7485 0.7772 0.8062 0.8244
1364.000000 0.8294 0.8343 0.8391 0.8440 0.8462
1359.000000 0.8475 0.8490 0.8510 0.8505 0.8518
1354.000000 0.8512 0.8514 0.8518 0.8521 0.8510
1349.000000 0.8502 0.8482 0.8457 0.8431 0.8403
1344.000000 0.8372 0.8341 0.8306 0.8276 0.8241
1339.000000 0.8208 0.8180 0.8149 0.8115 0.8080
1334.000000 0.8046 0.8011 0.7974 0.7939 0.7907
1329.000000 0.7865 0.7832 0.7797 0.7756 0.7707
1324.000000 0.7669 0.7644 0.7601 0.7564 0.7564
1319.000000 0.7565 0.7564 0.7569 0.7593 0.7621
1314.000000 0.7667 0.7719 0.7777 0.7833 0.7890
1309.000000 0.7949 0.8006 0.8053 0.8094 0.8137
1304.000000 0.8167 0.8206 0.8245 0.8277 0.8299
1299.000000 0.8319 0.8337 0.8354 0.8374 0.8400
1294.000000 0.8421 0.8441 0.8462 0.8480 0.8499
1289.000000 0.8522 0.8545 0.8577 0.8611 0.8646
1284.000000 0.8680 0.8715 0.8749 0.8783 0.8808
1279.000000 0.8834 0.8859 0.8887 0.8926 0.8955
1274.000000 0.8974 0.8990 0.9005 0.9021 0.9036
1269.000000 0.9043 0.9045 0.9050 0.9057 0.9058
1264.000000 0.9064 0.9074 0.9079 0.9084 0.9089
1259.000000 0.9095 0.9101 0.9106 0.9105 0.9139
1254.000000 0.9098 0.9084 0.9077 0.9072 0.9062
1249.000000 0.9052 0.9039 0.9024 0.9008 0.8992
1244.000000 0.8972 0.8961 0.8948 0.8932 0.8917
1239.000000 0.8907 0.8900 0.8884 0.8883 0.8909
1234.000000 0.8935 0.8996 0.9048 0.9094 0.9118
1229.000000 0.9132 0.9146 0.9160 0.9169 0.9180
1224.000000 0.9187 0.9193 0.9197 0.9203 0.9207
1219.000000 0.9234 0.9216 0.9220 0.9220 0.9209
1214.000000 0.9199 0.9147 0.9119 0.9084 0.9064
1209.000000 0.9052 0.9044 0.9037 0.9034 0.9033
1204.000000 0.9033 0.9034 0.9036 0.9037 0.9039
1199.000000 0.9040 0.9030 0.9029 0.9029 0.9026
1194.000000 0.9020 0.9023 0.9015 0.9005 0.8992
1189.000000 0.8979 0.8957 0.8940 0.8921 0.8902
1184.000000 0.8884 0.8861 0.8835 0.8816 0.8855
1179.000000 0.8817 0.8826 0.8880 0.8933 0.8988
1174.000000 0.9050 0.9101 0.9133 0.9164 0.9196
1169.000000 0.9216 0.9227 0.9248 0.9259 0.9268
1164.000000 0.9278 0.9290 0.9301 0.9308 0.9309
1159.000000 0.9310 0.9311 0.9312 0.9316 0.9308
1154.000000 0.9303 0.9299 0.9294 0.9283 0.9280
1149.000000 0.9275 0.9259 0.9250 0.9243 0.9235
1144.000000 0.9226 0.9208 0.9209 0.9201 0.9192
1139.000000 0.9189 0.9182 0.9175 0.9159 0.9146
1134.000000 0.9123 0.9083 0.9035 0.8988 0.8933
1129.000000 0.8873 0.8806 0.8741 0.8643 0.8527
1124.000000 0.8396 0.8278 0.8220 0.8128 0.7795
1119.000000 0.7454 0.7111 0.6768 0.6660 0.6695
1114.000000 0.6867 0.7109 0.7354 0.7597 0.7840
1109.000000 0.8082 0.8318 0.8685 0.8773 0.8834
1104.000000 0.8866 0.8891 0.8915 0.8932 0.8939
1099.000000 0.8947 0.8952 0.8954 0.8955 0.8957
1094.000000 0.8995 0.8950 0.8946 0.8943 0.8935
1089.000000 0.8927 0.8919 0.8911 0.8903 0.8894
1084.000000 0.8880 0.8866 0.8850 0.8827 0.8807
1079.000000 0.8782 0.8752 0.8726 0.8697 0.8669
1074.000000 0.8641 0.8618 0.8596 0.8556 0.8512
1069.000000 0.8455 0.8377 0.8309 0.8241 0.8173
1064.000000 0.7789 0.7702 0.7294 0.6648 0.6000
1059.000000 0.5869 0.5849 0.5899 0.6169 0.6444
1054.000000 0.6719 0.6995 0.7270 0.7548 0.7828
1049.000000 0.7887 0.7946 0.8010 0.8071 0.8129
1044.000000 0.8198 0.8220 0.8233 0.8247 0.8251
1039.000000 0.8254 0.8256 0.8230 0.8202 0.8154
1034.000000 0.8051 0.7957 0.7862 0.7590 0.7585
1029.000000 0.7585 0.7699 0.7899 0.8095 0.8198
1024.000000 0.8268 0.8286 0.8291 0.8292 0.8292
1019.000000 0.8081 0.7420 0.7639 0.7424 0.7537
1014.000000 0.8009 0.8482 0.8758 0.8834 0.8899
1009.000000 0.8963 0.9011 0.9060 0.9086 0.9106
1004.000000 0.9113 0.9121 0.9124 0.9130 0.9134
999.000000 0.9138 0.9140 0.9159 0.9139 0.9141
994.000000 0.9144 0.9143 0.9137 0.9134 0.9123
989.000000 0.9115 0.9105 0.9088 0.9072 0.9055
984.000000 0.9033 0.9009 0.8986 0.8945 0.8895
979.000000 0.8833 0.8742 0.8678 0.8616 0.8564
974.000000 0.8502 0.8361 0.8228 0.8163 0.7978
969.000000 0.7729 0.7486 0.7485 0.7505 0.7564
964.000000 0.7694 0.7822 0.7950 0.8079 0.8208
959.000000 0.8336 0.8465 0.8574 0.8623 0.8671
954.000000 0.8718 0.8772 0.8828 0.8886 0.8944
949.000000 0.8987 0.9028 0.9060 0.9083 0.9099
944.000000 0.9106 0.9113 0.9117 0.9115 0.9112
939.000000 0.9109 0.9108 0.9105 0.9104 0.9149
934.000000 0.9173 0.9197 0.9221 0.9245 0.9269
929.000000 0.9292 0.9315 0.9335 0.9357 0.9375
924.000000 0.9389 0.9397 0.9405 0.9413 0.9420
919.000000 0.9427 0.9432 0.9423 0.9441 0.9428
914.000000 0.9426 0.9421 0.9423 0.9426 0.9422
909.000000 0.9416 0.9416 0.9414 0.9407 0.9408
904.000000 0.9404 0.9396 0.9397 0.9391 0.9390
899.000000 0.9379 0.9378 0.9376 0.9371 0.9367
894.000000 0.9372 0.9359 0.9350 0.9334 0.9316
889.000000 0.9289 0.9267 0.9229 0.9187 0.9145
884.000000 0.9119 0.9089 0.9054 0.9025 0.8995
879.000000 0.8959 0.8919 0.8879 0.8839 0.8799
874.000000 0.8738 0.8672 0.8614 0.8588 0.8561
869.000000 0.8535 0.8501 0.8478 0.8446 0.8412
864.000000 0.8388 0.8359 0.8331 0.8315 0.8304
859.000000 0.8241 0.8229 0.8221 0.8216 0.8204
854.000000 0.8179 0.8142 0.8095 0.8041 0.7982
849.000000 0.7908 0.7836 0.7750 0.7628 0.7509
844.000000 0.7373 0.7185 0.7003 0.6830 0.6675
839.000000 0.6529 0.6366 0.5815 0.5046 0.4287
834.000000 0.3531 0.2779 0.2032 0.1286 0.0542
829.000000 0.0296 0.0296 0.0297 0.0485 0.1056
824.000000 0.1628 0.2201 0.2773 0.3341 0.3911
819.000000 0.4469 0.4582 0.4876 0.5284 0.5688
814.000000 0.6090 0.6441 0.6735 0.7030 0.7317
809.000000 0.7612 0.7699 0.7765 0.7867 0.7941
804.000000 0.7964 0.7976 0.7983 0.7985 0.7972
799.000000 0.7967 0.7992 0.8020 0.8051 0.8082
794.000000 0.8105 0.8135 0.8163 0.8171 0.8164
789.000000 0.8157 0.8153 0.8146 0.8139 0.8134
784.000000 0.8131 0.8164 0.8199 0.8240 0.8275
779.000000 0.8318 0.8351 0.8378 0.8411 0.8444
774.000000 0.8477 0.8505 0.8539 0.8581 0.8623
769.000000 0.8657 0.8695 0.8725 0.8755 0.8777
764.000000 0.8805 0.8835 0.8864 0.8892 0.8921
759.000000 0.8950 0.8979 0.9006 0.9028 0.9049
754.000000 0.9073 0.9103 0.9125 0.9147 0.9167
749.000000 0.9188 0.9210 0.9229 0.9251 0.9268
744.000000 0.9285 0.9302 0.9311 0.9317 0.9323
739.000000 0.9329 0.9329 0.9331 0.9332 0.9332
734.000000 0.9332 0.9332 0.9329 0.9328 0.9334
729.000000 0.9332 0.9329 0.9327 0.9323 0.9323
724.000000 0.9316 0.9313 0.9312 0.9312 0.9306
719.000000 0.9296 0.9283 0.9278 0.9267 0.9255
714.000000 0.9256 0.9252 0.9240 0.9230 0.9217
709.000000 0.9204 0.9183 0.9143 0.9097 0.9029
704.000000 0.8976 0.8931 0.8879 0.8851 0.8815
699.000000 0.8783 0.8782 0.8768 0.8790 0.8808
694.000000 0.8899 0.8967 0.9033 0.9100 0.9158
689.000000 0.9204 0.9256 0.9302 0.9344 0.9385
684.000000 0.9421 0.9464 0.9505 0.9524 0.9544
679.000000 0.9545 0.9565 0.9568 0.9581 0.9574
674.000000 0.9549 0.9527 0.9497 0.9472 0.9459
669.000000 0.9501 0.9548 0.9475 0.9414 0.9415
664.000000 0.9425 0.9419 0.9384 0.9357 0.9327
659.000000 0.9286 0.9236 0.9192 0.9142 0.9089
654.000000 0.9039 0.9029 0.9015 0.9024 0.9032
649.000000 0.9052 0.9070 0.9087 0.9096 0.9114
644.000000 0.9128 0.9138 0.9157 0.9170 0.9180
639.000000 0.9198 0.9210 0.9223 0.9250 0.9277
634.000000 0.9292 0.9316 0.9338 0.9354 0.9381
629.000000 0.9400 0.9404 0.9416 0.9419 0.9433
624.000000 0.9446 0.9447 0.9456 0.9468 0.9478
619.000000 0.9490 0.9505 0.9507 0.9504 0.9511
614.000000 0.9512 0.9505 0.9506 0.9506 0.9507
609.000000 0.9502 0.9498 0.9487 0.9478 0.9474
604.000000 0.9470 0.9465 0.9460 0.9452 0.9443
599.000000 0.9435 0.9426 0.9418 0.9409 0.9399
594.000000 0.9389 0.9379 0.9369 0.9355 0.9341
589.000000 0.9328 0.9315 0.9286 0.9250 0.9218
584.000000 0.9174 0.9138 0.9101 0.9060 0.9017
579.000000 0.8966 0.8910 0.8827 0.8736 0.8650
574.000000 0.8424 0.8073 0.7687 0.7301 0.6915
569.000000 0.6529 0.6188 0.6146 0.6136 0.6138
564.000000 0.6146 0.6178 0.6322 0.6463 0.6602
559.000000 0.6742 0.6882 0.6929 0.6922 0.6920
554.000000 0.6897 0.6878 0.6833 0.6776 0.6599
549.000000 0.6362 0.6124 0.5886 0.5650 0.5315
544.000000 0.5376 0.5323 0.5308 0.5310 0.5346
539.000000 0.5460 0.5648 0.5849 0.6054 0.6251
534.000000 0.6448 0.6652 0.6852 0.7050 0.7250
529.000000 0.7449 0.7649 0.7849 0.8030 0.8131
524.000000 0.8220 0.8305 0.8349 0.8393 0.8432
519.000000 0.8472 0.8505 0.8539 0.8572 0.8601
514.000000 0.8624 0.8643 0.8657 0.8664 0.8664
509.000000 0.8665 0.8665 0.8665 0.8664 0.8663
504.000000 0.8661 0.8660 0.8654 0.8647 0.8638
499.000000 0.8625 0.8609 0.8593 0.8576 0.8564
494.000000 0.8553 0.8541 0.8530 0.8518 0.8506
489.000000 0.8493 0.8480 0.8467 0.8454 0.8441
484.000000 0.8428 0.8416 0.8403 0.8391 0.8379
479.000000 0.8364 0.8348 0.8330 0.8315 0.8288
474.000000 0.8258 0.8227 0.8199 0.8164 0.8124
469.000000 0.8083 0.8046 0.8007 0.7967 0.7928
464.000000 0.7890 0.7844 0.7793 0.7740 0.7691
459.000000 0.7648 0.7593 0.7486 0.7433 0.7410
454.000000 0.7407 0.7402 0.7396 0.7391 0.7385
449.000000 0.7377 0.7359 0.7341 0.7324 0.7295
444.000000 0.7248 0.7199 0.7148 0.7093 0.7038
439.000000 0.6974 0.6907 0.6837 0.6766 0.6694
434.000000 0.6632 0.6577 0.6517 0.6446 0.6374
429.000000 0.6274 0.6177 0.6109 0.6039 0.5947
424.000000 0.5770 0.5518 0.5308 0.5191 0.4356
419.000000 0.4119 0.4013 0.3941 0.3877 0.3823
414.000000 0.3769 0.3722 0.3700 0.3705 0.3682
409.000000 0.3691 0.3710 0.3760 0.3819 0.3879
404.000000 0.3947 0.4013 0.4065 0.4105 0.4134
##END=
