##TITLE=Butyric acid, ethyl ester
##JCAMP-DX=4.24
##DATA TYPE=INFRARED SPECTRUM
##CLASS=COBLENTZ III
##ORIGIN=UNIVERSITY OF FLORIDA
##OWNER=Copyright (C) 1987 by the Coblentz Society
Collection (C) 2018 copyright by the U.S. Secretary of Commerce
on behalf of the United States of America. All rights reserved.
##DATE=1961/08/25
##NAMES=ethyl butyrate
##CAS REGISTRY NO=105-54-4
##MOLFORM=C6 H12 O2
##SOURCE REFERENCE=COBLENTZ NO. 9953
##$NIST SOURCE=COBLENTZ
##$NIST IMAGE=cob9953
##SPECTROMETER/DATA SYSTEM=BECKMAN IR-4 (HYBRID PRISM-GRATING)
##STATE=LIQUID (NEAT)
##PATH LENGTH=CAPILLARY
##SAMPLING PROCEDURE=TRANSMISSION
##RESOLUTION=2
##DATA PROCESSING=DIGITIZED BY COBLENTZ SOCIETY (BATCH II) FROM HARD COPY
##XUNITS=1/CM
##YUNITS=TRANSMITTANCE
##XFACTOR=1.0
##YFACTOR=1
##FIRSTX=668
##LASTX=4000
##FIRSTY=0.7245
##MAXX=4000
##MINX=668
##MAXY=0.9079
##MINY=0.0532
##NPOINTS=3333
##XYDATA=(X++(Y..Y))
668.000000 0.7245 0.7351 0.7377 0.7393 0.7409
673.000000 0.7428 0.7466 0.7475 0.7476 0.7498
678.000000 0.7521 0.7563 0.7608 0.7655 0.7706
683.000000 0.7736 0.7747 0.7757 0.7772 0.7788
688.000000 0.7804 0.7821 0.7837 0.7853 0.7869
693.000000 0.7885 0.7896 0.7906 0.7916 0.7925
698.000000 0.7934 0.7943 0.7951 0.7958 0.7968
703.000000 0.7980 0.7992 0.8004 0.8021 0.8040
708.000000 0.8059 0.8077 0.8096 0.8115 0.8132
713.000000 0.8149 0.8165 0.8185 0.8209 0.8227
718.000000 0.8244 0.8259 0.8275 0.8289 0.8298
723.000000 0.8307 0.8315 0.8325 0.8333 0.8342
728.000000 0.8347 0.8352 0.8356 0.8361 0.8364
733.000000 0.8361 0.8368 0.8367 0.8350 0.8333
738.000000 0.8317 0.8296 0.8270 0.8242 0.8211
743.000000 0.8171 0.8131 0.8082 0.8031 0.7982
748.000000 0.7939 0.7908 0.7909 0.7909 0.7953
753.000000 0.7987 0.8027 0.8073 0.8117 0.8154
758.000000 0.8191 0.8230 0.8261 0.8279 0.8273
763.000000 0.8295 0.8286 0.8274 0.8251 0.8225
768.000000 0.8196 0.8165 0.8136 0.8120 0.8105
773.000000 0.8078 0.8105 0.8108 0.8117 0.8126
778.000000 0.8147 0.8177 0.8203 0.8227 0.8245
783.000000 0.8255 0.8243 0.8233 0.8219 0.8205
788.000000 0.8189 0.8171 0.8154 0.8141 0.8128
793.000000 0.8119 0.8116 0.8112 0.8093 0.8124
798.000000 0.8133 0.8146 0.8161 0.8176 0.8194
803.000000 0.8214 0.8234 0.8259 0.8287 0.8315
808.000000 0.8341 0.8364 0.8388 0.8418 0.8448
813.000000 0.8478 0.8508 0.8538 0.8568 0.8598
818.000000 0.8628 0.8657 0.8690 0.8698 0.8700
823.000000 0.8701 0.8702 0.8703 0.8691 0.8682
828.000000 0.8673 0.8660 0.8647 0.8633 0.8616
833.000000 0.8595 0.8573 0.8552 0.8525 0.8497
838.000000 0.8470 0.8428 0.8375 0.8323 0.8274
843.000000 0.8227 0.8180 0.8133 0.8093 0.8059
848.000000 0.8049 0.8046 0.8046 0.7997 0.8045
853.000000 0.8043 0.8042 0.8053 0.8066 0.8081
858.000000 0.8112 0.8143 0.8185 0.8231 0.8275
863.000000 0.8319 0.8361 0.8387 0.8397 0.8399
868.000000 0.8400 0.8405 0.8420 0.8456 0.8494
873.000000 0.8541 0.8582 0.8613 0.8638 0.8652
878.000000 0.8667 0.8674 0.8680 0.8684 0.8688
883.000000 0.8692 0.8693 0.8706 0.8696 0.8688
888.000000 0.8680 0.8672 0.8663 0.8655 0.8646
893.000000 0.8637 0.8635 0.8636 0.8636 0.8638
898.000000 0.8641 0.8643 0.8644 0.8646 0.8650
903.000000 0.8656 0.8663 0.8670 0.8677 0.8684
908.000000 0.8687 0.8682 0.8668 0.8651 0.8624
913.000000 0.8596 0.8565 0.8533 0.8500 0.8469
918.000000 0.8431 0.8388 0.8345 0.8303 0.8261
923.000000 0.8220 0.8180 0.8140 0.8101 0.8065
928.000000 0.8030 0.7995 0.7972 0.7949 0.7934
933.000000 0.7914 0.7953 0.7995 0.8023 0.8064
938.000000 0.8111 0.8156 0.8196 0.8224 0.8241
943.000000 0.8249 0.8258 0.8282 0.8313 0.8356
948.000000 0.8398 0.8456 0.8519 0.8565 0.8606
953.000000 0.8645 0.8682 0.8717 0.8734 0.8752
958.000000 0.8769 0.8781 0.8792 0.8803 0.8813
963.000000 0.8822 0.8830 0.8837 0.8845 0.8852
968.000000 0.8855 0.8855 0.8855 0.8866 0.8855
973.000000 0.8852 0.8848 0.8844 0.8839 0.8834
978.000000 0.8827 0.8820 0.8814 0.8806 0.8793
983.000000 0.8780 0.8766 0.8753 0.8738 0.8724
988.000000 0.8710 0.8695 0.8681 0.8661 0.8640
993.000000 0.8619 0.8598 0.8577 0.8557 0.8522
998.000000 0.8486 0.8450 0.8405 0.8348 0.8292
1003.000000 0.8232 0.8172 0.8112 0.8034 0.7953
1008.000000 0.7866 0.7776 0.7659 0.7523 0.7366
1013.000000 0.7198 0.6963 0.6712 0.6531 0.6253
1018.000000 0.5974 0.5694 0.5416 0.5138 0.4867
1023.000000 0.4673 0.4553 0.4480 0.4461 0.4472
1028.000000 0.4635 0.4881 0.5127 0.5372 0.5618
1033.000000 0.5861 0.6099 0.6254 0.6352 0.6369
1038.000000 0.6379 0.6391 0.6365 0.6345 0.6324
1043.000000 0.6287 0.6249 0.6188 0.6111 0.6047
1048.000000 0.6040 0.6079 0.6013 0.6470 0.6671
1053.000000 0.6888 0.6977 0.7055 0.7116 0.7177
1058.000000 0.7227 0.7269 0.7294 0.7302 0.7318
1063.000000 0.7306 0.7294 0.7250 0.7192 0.7114
1068.000000 0.7026 0.6948 0.6870 0.6774 0.6662
1073.000000 0.6551 0.6440 0.6329 0.6218 0.6108
1078.000000 0.5998 0.5887 0.5778 0.5668 0.5559
1083.000000 0.5449 0.5272 0.5133 0.5018 0.4927
1088.000000 0.4855 0.4711 0.4583 0.4516 0.4447
1093.000000 0.4451 0.4465 0.4498 0.4585 0.4669
1098.000000 0.4741 0.4801 0.4859 0.4910 0.4960
1103.000000 0.5010 0.5060 0.5109 0.5175 0.5243
1108.000000 0.5300 0.5356 0.5412 0.5479 0.5548
1113.000000 0.5645 0.5929 0.6057 0.6255 0.6427
1118.000000 0.6619 0.6857 0.7022 0.7096 0.7168
1123.000000 0.7216 0.7262 0.7302 0.7328 0.7349
1128.000000 0.7356 0.7360 0.7362 0.7361 0.7348
1133.000000 0.7336 0.7320 0.7301 0.7278 0.7252
1138.000000 0.7213 0.7170 0.7112 0.7052 0.6987
1143.000000 0.6922 0.6861 0.6800 0.6740 0.6672
1148.000000 0.6580 0.6489 0.6395 0.6217 0.6049
1153.000000 0.5909 0.5766 0.5616 0.5450 0.5224
1158.000000 0.4999 0.4774 0.4549 0.4326 0.4102
1163.000000 0.3879 0.3655 0.3506 0.3381 0.3241
1168.000000 0.3079 0.2895 0.2771 0.2670 0.2559
1173.000000 0.2438 0.2309 0.2172 0.2042 0.1916
1178.000000 0.1766 0.1576 0.1328 0.1124 0.1058
1183.000000 0.0997 0.0967 0.0964 0.1002 0.0992
1188.000000 0.1020 0.1069 0.1156 0.1334 0.1512
1193.000000 0.1689 0.1866 0.2043 0.2220 0.2397
1198.000000 0.2574 0.2749 0.2925 0.3100 0.3275
1203.000000 0.3450 0.3624 0.3798 0.3973 0.4146
1208.000000 0.4319 0.4492 0.4665 0.4837 0.5009
1213.000000 0.5181 0.5285 0.5392 0.5525 0.5618
1218.000000 0.5677 0.5711 0.5731 0.5746 0.5751
1223.000000 0.5752 0.5781 0.5753 0.5730 0.5701
1228.000000 0.5672 0.5643 0.5615 0.5587 0.5558
1233.000000 0.5529 0.5499 0.5462 0.5425 0.5389
1238.000000 0.5349 0.5304 0.5258 0.5208 0.5137
1243.000000 0.5061 0.4975 0.4885 0.4776 0.4621
1248.000000 0.4404 0.4290 0.4189 0.4109 0.4037
1253.000000 0.3993 0.3990 0.3993 0.4001 0.3989
1258.000000 0.4069 0.4160 0.4260 0.4360 0.4459
1263.000000 0.4558 0.4657 0.4756 0.4854 0.4953
1268.000000 0.5051 0.5149 0.5247 0.5333 0.5473
1273.000000 0.5583 0.5670 0.5741 0.5790 0.5830
1278.000000 0.5870 0.5913 0.5938 0.5954 0.5968
1283.000000 0.5983 0.5960 0.5917 0.5879 0.5839
1288.000000 0.5786 0.5735 0.5677 0.5620 0.5571
1293.000000 0.5552 0.5534 0.5516 0.5443 0.5341
1298.000000 0.5217 0.5120 0.5002 0.4931 0.4860
1303.000000 0.4790 0.4758 0.4771 0.4850 0.5032
1308.000000 0.5214 0.5396 0.5576 0.5757 0.5938
1313.000000 0.6118 0.6306 0.6456 0.6572 0.6773
1318.000000 0.7075 0.7157 0.7237 0.7284 0.7325
1323.000000 0.7363 0.7385 0.7399 0.7401 0.7439
1328.000000 0.7395 0.7388 0.7374 0.7357 0.7333
1333.000000 0.7310 0.7288 0.7267 0.7242 0.7210
1338.000000 0.7157 0.7102 0.7040 0.6957 0.6795
1343.000000 0.6502 0.6352 0.6224 0.6135 0.6104
1348.000000 0.6114 0.6140 0.6177 0.6187 0.6207
1353.000000 0.6234 0.6319 0.6420 0.6522 0.6624
1358.000000 0.6726 0.6802 0.6808 0.6796 0.6781
1363.000000 0.6829 0.6485 0.6182 0.5881 0.5578
1368.000000 0.5278 0.4977 0.4623 0.4507 0.4471
1373.000000 0.4467 0.4465 0.4547 0.4661 0.4775
1378.000000 0.4890 0.5006 0.5120 0.5234 0.5348
1383.000000 0.5462 0.5575 0.5690 0.5803 0.5916
1388.000000 0.6029 0.6142 0.6242 0.6355 0.6464
1393.000000 0.6573 0.6682 0.6791 0.6899 0.7007
1398.000000 0.7115 0.7213 0.7326 0.7403 0.7451
1403.000000 0.7478 0.7500 0.7511 0.7521 0.7524
1408.000000 0.7517 0.7516 0.7488 0.7441 0.7383
1413.000000 0.7328 0.7272 0.7206 0.7136 0.7058
1418.000000 0.6980 0.6934 0.6891 0.6862 0.6856
1423.000000 0.6863 0.6859 0.6901 0.6926 0.6954
1428.000000 0.6988 0.7022 0.7055 0.7088 0.7094
1433.000000 0.7097 0.7092 0.7103 0.7071 0.7050
1438.000000 0.7019 0.6959 0.6880 0.6799 0.6719
1443.000000 0.6639 0.6559 0.6479 0.6399 0.6319
1448.000000 0.6240 0.6160 0.6081 0.6003 0.5967
1453.000000 0.5995 0.6034 0.6072 0.6110 0.6142
1458.000000 0.6113 0.6004 0.5884 0.5764 0.5644
1463.000000 0.5557 0.5539 0.5544 0.5526 0.5568
1468.000000 0.5586 0.5615 0.5654 0.5699 0.5760
1473.000000 0.5895 0.6139 0.6401 0.6654 0.6832
1478.000000 0.6964 0.7106 0.7200 0.7261 0.7317
1483.000000 0.7379 0.7448 0.7513 0.7570 0.7623
1488.000000 0.7710 0.8124 0.8142 0.8160 0.8177
1493.000000 0.8196 0.8216 0.8236 0.8257 0.8284
1498.000000 0.8315 0.8345 0.8375 0.8398 0.8415
1503.000000 0.8431 0.8439 0.8432 0.8420 0.8403
1508.000000 0.8391 0.8400 0.8412 0.8424 0.8442
1513.000000 0.8477 0.8514 0.8537 0.8557 0.8577
1518.000000 0.8588 0.8598 0.8605 0.8612 0.8619
1523.000000 0.8626 0.8633 0.8641 0.8652 0.8663
1528.000000 0.8675 0.8687 0.8702 0.8721 0.8740
1533.000000 0.8759 0.8778 0.8794 0.8803 0.8811
1538.000000 0.8816 0.8814 0.8808 0.8802 0.8796
1543.000000 0.8791 0.8786 0.8782 0.8782 0.8784
1548.000000 0.8787 0.8790 0.8792 0.8795 0.8798
1553.000000 0.8801 0.8803 0.8806 0.8808 0.8811
1558.000000 0.8813 0.8815 0.8818 0.8820 0.8822
1563.000000 0.8823 0.8824 0.8825 0.8826 0.8827
1568.000000 0.8827 0.8828 0.8829 0.8830 0.8831
1573.000000 0.8831 0.8830 0.8828 0.8827 0.8825
1578.000000 0.8823 0.8822 0.8820 0.8819 0.8818
1583.000000 0.8817 0.8816 0.8815 0.8814 0.8815
1588.000000 0.8818 0.8822 0.8825 0.8827 0.8815
1593.000000 0.8827 0.8824 0.8820 0.8815 0.8809
1598.000000 0.8803 0.8796 0.8791 0.8785 0.8783
1603.000000 0.8783 0.8783 0.8784 0.8784 0.8785
1608.000000 0.8786 0.8787 0.8787 0.8787 0.8786
1613.000000 0.8784 0.8782 0.8780 0.8779 0.8776
1618.000000 0.8771 0.8766 0.8762 0.8758 0.8753
1623.000000 0.8748 0.8744 0.8739 0.8735 0.8730
1628.000000 0.8726 0.8721 0.8716 0.8713 0.8709
1633.000000 0.8705 0.8701 0.8699 0.8695 0.8690
1638.000000 0.8684 0.8678 0.8672 0.8666 0.8659
1643.000000 0.8650 0.8641 0.8632 0.8624 0.8615
1648.000000 0.8606 0.8597 0.8588 0.8579 0.8572
1653.000000 0.8570 0.8571 0.8572 0.8575 0.8580
1658.000000 0.8584 0.8589 0.8589 0.8588 0.8584
1663.000000 0.8580 0.8576 0.8571 0.8563 0.8549
1668.000000 0.8531 0.8507 0.8481 0.8454 0.8418
1673.000000 0.8383 0.8351 0.8322 0.8294 0.8266
1678.000000 0.8235 0.8192 0.8147 0.8110 0.8075
1683.000000 0.8040 0.8007 0.7976 0.7945 0.7910
1688.000000 0.7869 0.7829 0.7786 0.7741 0.7697
1693.000000 0.7656 0.7619 0.7580 0.7543 0.7506
1698.000000 0.7468 0.7420 0.7363 0.7303 0.7239
1703.000000 0.7153 0.7067 0.6987 0.6917 0.6850
1708.000000 0.6786 0.6725 0.6665 0.6604 0.6507
1713.000000 0.6394 0.6289 0.6199 0.6109 0.6017
1718.000000 0.5911 0.5276 0.4804 0.4530 0.4257
1723.000000 0.3984 0.3711 0.3439 0.3167 0.2895
1728.000000 0.2624 0.2352 0.2082 0.1811 0.1547
1733.000000 0.1313 0.1116 0.0947 0.0865 0.0813
1738.000000 0.0765 0.0700 0.0628 0.0591 0.0559
1743.000000 0.0546 0.0542 0.0545 0.0532 0.0585
1748.000000 0.1039 0.1505 0.1971 0.2437 0.2902
1753.000000 0.3367 0.3831 0.4295 0.4758 0.5221
1758.000000 0.5682 0.5761 0.5905 0.6090 0.6274
1763.000000 0.6504 0.6587 0.6662 0.6739 0.6817
1768.000000 0.6896 0.7061 0.7202 0.7315 0.7400
1773.000000 0.7461 0.7510 0.7559 0.7608 0.7666
1778.000000 0.7768 0.7856 0.7924 0.7982 0.8038
1783.000000 0.8074 0.8103 0.8129 0.8156 0.8183
1788.000000 0.8209 0.8236 0.8264 0.8291 0.8319
1793.000000 0.8347 0.8374 0.8400 0.8424 0.8442
1798.000000 0.8459 0.8476 0.8494 0.8511 0.8529
1803.000000 0.8544 0.8558 0.8570 0.8581 0.8593
1808.000000 0.8605 0.8617 0.8628 0.8640 0.8652
1813.000000 0.8662 0.8671 0.8681 0.8691 0.8700
1818.000000 0.8705 0.8708 0.8711 0.8714 0.8718
1823.000000 0.8721 0.8724 0.8729 0.8735 0.8740
1828.000000 0.8758 0.8788 0.8813 0.8834 0.8855
1833.000000 0.8874 0.8893 0.8910 0.8920 0.8924
1838.000000 0.8926 0.8924 0.8920 0.8916 0.8913
1843.000000 0.8906 0.8898 0.8889 0.8877 0.8865
1848.000000 0.8853 0.8844 0.8844 0.8846 0.8848
1853.000000 0.8850 0.8853 0.8858 0.8863 0.8868
1858.000000 0.8875 0.8880 0.8883 0.8885 0.8887
1863.000000 0.8887 0.8885 0.8883 0.8880 0.8875
1868.000000 0.8868 0.8862 0.8857 0.8850 0.8844
1873.000000 0.8839 0.8833 0.8833 0.8835 0.8837
1878.000000 0.8839 0.8841 0.8843 0.8846 0.8850
1883.000000 0.8853 0.8857 0.8860 0.8864 0.8868
1888.000000 0.8872 0.8875 0.8879 0.8882 0.8886
1893.000000 0.8890 0.8894 0.8897 0.8901 0.8904
1898.000000 0.8908 0.8911 0.8915 0.8918 0.8921
1903.000000 0.8925 0.8928 0.8932 0.8935 0.8939
1908.000000 0.8942 0.8946 0.8949 0.8952 0.8956
1913.000000 0.8959 0.8963 0.8967 0.8970 0.8974
1918.000000 0.8978 0.8982 0.8986 0.8989 0.8992
1923.000000 0.8992 0.8993 0.8993 0.8993 0.8993
1928.000000 0.8992 0.8992 0.8992 0.8991 0.8989
1933.000000 0.8987 0.8985 0.8983 0.8982 0.8980
1938.000000 0.8978 0.8976 0.8975 0.8973 0.8971
1943.000000 0.8970 0.8968 0.8966 0.8963 0.8959
1948.000000 0.8955 0.8951 0.8948 0.8944 0.8940
1953.000000 0.8937 0.8934 0.8931 0.8928 0.8925
1958.000000 0.8923 0.8922 0.8922 0.8922 0.8922
1963.000000 0.8922 0.8923 0.8923 0.8923 0.8923
1968.000000 0.8923 0.8923 0.8923 0.8924 0.8924
1973.000000 0.8925 0.8927 0.8929 0.8932 0.8934
1978.000000 0.8937 0.8939 0.8942 0.8945 0.8950
1983.000000 0.8955 0.8961 0.8966 0.8971 0.8976
1988.000000 0.8981 0.8985 0.8987 0.8989 0.8990
1993.000000 0.8992 0.8993 0.8994 0.8995 0.8997
1998.000000 0.8998 0.8999 0.9001 0.9002 0.9004
2003.000000 0.9004 0.9004 0.9003 0.9003 0.9003
2008.000000 0.9003 0.9003 0.9003 0.9003 0.9003
2013.000000 0.9003 0.9003 0.9002 0.9002 0.9000
2018.000000 0.8999 0.8998 0.8997 0.8996 0.8994
2023.000000 0.8993 0.8992 0.8991 0.8990 0.8989
2028.000000 0.8985 0.8981 0.8976 0.8971 0.8965
2033.000000 0.8960 0.8955 0.8951 0.8946 0.8940
2038.000000 0.8935 0.8929 0.8924 0.8919 0.8917
2043.000000 0.8917 0.8917 0.8918 0.8919 0.8919
2048.000000 0.8920 0.8920 0.8921 0.8922 0.8922
2053.000000 0.8923 0.8924 0.8925 0.8927 0.8928
2058.000000 0.8930 0.8931 0.8933 0.8934 0.8936
2063.000000 0.8937 0.8938 0.8939 0.8940 0.8942
2068.000000 0.8943 0.8943 0.8945 0.8947 0.8950
2073.000000 0.8954 0.8957 0.8961 0.8964 0.8969
2078.000000 0.8974 0.8980 0.8986 0.8993 0.9000
2083.000000 0.9005 0.9008 0.9009 0.9011 0.9012
2088.000000 0.9013 0.9014 0.9014 0.9015 0.9015
2093.000000 0.9015 0.9016 0.9016 0.9017 0.9017
2098.000000 0.9018 0.9018 0.9018 0.9019 0.9019
2103.000000 0.9020 0.9020 0.9021 0.9021 0.9022
2108.000000 0.9023 0.9024 0.9025 0.9025 0.9026
2113.000000 0.9026 0.9027 0.9027 0.9027 0.9028
2118.000000 0.9028 0.9029 0.9029 0.9029 0.9029
2123.000000 0.9030 0.9030 0.9030 0.9031 0.9031
2128.000000 0.9032 0.9032 0.9032 0.9032 0.9033
2133.000000 0.9033 0.9034 0.9035 0.9035 0.9036
2138.000000 0.9037 0.9038 0.9038 0.9039 0.9039
2143.000000 0.9040 0.9040 0.9041 0.9042 0.9043
2148.000000 0.9044 0.9044 0.9045 0.9045 0.9046
2153.000000 0.9046 0.9047 0.9047 0.9048 0.9048
2158.000000 0.9049 0.9050 0.9050 0.9051 0.9051
2163.000000 0.9052 0.9052 0.9053 0.9053 0.9054
2168.000000 0.9054 0.9054 0.9054 0.9055 0.9055
2173.000000 0.9056 0.9057 0.9057 0.9058 0.9058
2178.000000 0.9059 0.9059 0.9060 0.9060 0.9060
2183.000000 0.9060 0.9061 0.9061 0.9061 0.9060
2188.000000 0.9059 0.9058 0.9057 0.9056 0.9055
2193.000000 0.9053 0.9052 0.9051 0.9050 0.9049
2198.000000 0.9049 0.9048 0.9047 0.9046 0.9045
2203.000000 0.9044 0.9043 0.9043 0.9045 0.9046
2208.000000 0.9049 0.9050 0.9052 0.9053 0.9053
2213.000000 0.9054 0.9054 0.9055 0.9055 0.9056
2218.000000 0.9056 0.9057 0.9057 0.9058 0.9058
2223.000000 0.9059 0.9059 0.9060 0.9060 0.9061
2228.000000 0.9061 0.9060 0.9060 0.9059 0.9059
2233.000000 0.9058 0.9058 0.9057 0.9057 0.9056
2238.000000 0.9056 0.9055 0.9055 0.9054 0.9054
2243.000000 0.9053 0.9053 0.9052 0.9052 0.9051
2248.000000 0.9051 0.9079 0.9050 0.9049 0.9049
2253.000000 0.9048 0.9048 0.9048 0.9048 0.9047
2258.000000 0.9047 0.9046 0.9046 0.9046 0.9046
2263.000000 0.9046 0.9046 0.9046 0.9046 0.9045
2268.000000 0.9045 0.9045 0.9045 0.9045 0.9045
2273.000000 0.9045 0.9045 0.9045 0.9045 0.9044
2278.000000 0.9044 0.9044 0.9044 0.9044 0.9044
2283.000000 0.9044 0.9044 0.9044 0.9044 0.9044
2288.000000 0.9043 0.9043 0.9043 0.9043 0.9043
2293.000000 0.9043 0.9043 0.9043 0.9043 0.9043
2298.000000 0.9043 0.9043 0.9043 0.9043 0.9043
2303.000000 0.9042 0.9042 0.9041 0.9040 0.9039
2308.000000 0.9039 0.9038 0.9038 0.9037 0.9036
2313.000000 0.9035 0.9035 0.9034 0.9033 0.9032
2318.000000 0.9032 0.9032 0.9031 0.9031 0.9030
2323.000000 0.9029 0.9027 0.9025 0.9023 0.9020
2328.000000 0.9018 0.9016 0.9014 0.9012 0.9010
2333.000000 0.9007 0.9004 0.9001 0.8999 0.8996
2338.000000 0.8993 0.8990 0.8987 0.8984 0.8981
2343.000000 0.8979 0.8976 0.8973 0.8971 0.8970
2348.000000 0.8970 0.8972 0.8973 0.8974 0.8975
2353.000000 0.8976 0.8977 0.8978 0.8979 0.8980
2358.000000 0.8982 0.8983 0.8985 0.8986 0.8987
2363.000000 0.8989 0.8990 0.8991 0.8993 0.8994
2368.000000 0.8995 0.8996 0.8997 0.8998 0.9000
2373.000000 0.9000 0.9001 0.9003 0.9004 0.9005
2378.000000 0.9007 0.9008 0.9009 0.9010 0.9011
2383.000000 0.9012 0.9014 0.9015 0.9016 0.9017
2388.000000 0.9019 0.9020 0.9021 0.9023 0.9024
2393.000000 0.9025 0.9027 0.9028 0.9029 0.9031
2398.000000 0.9031 0.9032 0.9033 0.9033 0.9034
2403.000000 0.9035 0.9036 0.9036 0.9037 0.9038
2408.000000 0.9038 0.9039 0.9040 0.9041 0.9041
2413.000000 0.9041 0.9042 0.9042 0.9043 0.9043
2418.000000 0.9044 0.9044 0.9044 0.9044 0.9044
2423.000000 0.9045 0.9045 0.9046 0.9046 0.9046
2428.000000 0.9046 0.9046 0.9047 0.9047 0.9047
2433.000000 0.9047 0.9047 0.9048 0.9048 0.9049
2438.000000 0.9049 0.9049 0.9049 0.9049 0.9050
2443.000000 0.9050 0.9050 0.9050 0.9050 0.9051
2448.000000 0.9051 0.9052 0.9052 0.9052 0.9052
2453.000000 0.9052 0.9053 0.9053 0.9053 0.9053
2458.000000 0.9053 0.9054 0.9054 0.9053 0.9053
2463.000000 0.9053 0.9053 0.9053 0.9053 0.9053
2468.000000 0.9053 0.9053 0.9053 0.9052 0.9052
2473.000000 0.9052 0.9052 0.9052 0.9052 0.9052
2478.000000 0.9052 0.9052 0.9052 0.9052 0.9052
2483.000000 0.9051 0.9051 0.9051 0.9051 0.9051
2488.000000 0.9051 0.9051 0.9051 0.9051 0.9051
2493.000000 0.9050 0.9050 0.9050 0.9050 0.9050
2498.000000 0.9050 0.9050 0.9050 0.9050 0.9050
2503.000000 0.9050 0.9050 0.9050 0.9049 0.9049
2508.000000 0.9049 0.9049 0.9049 0.9049 0.9049
2513.000000 0.9049 0.9049 0.9049 0.9048 0.9048
2518.000000 0.9048 0.9048 0.9048 0.9048 0.9048
2523.000000 0.9047 0.9047 0.9047 0.9046 0.9046
2528.000000 0.9045 0.9045 0.9045 0.9045 0.9045
2533.000000 0.9044 0.9044 0.9044 0.9043 0.9043
2538.000000 0.9043 0.9042 0.9042 0.9042 0.9042
2543.000000 0.9042 0.9041 0.9041 0.9040 0.9040
2548.000000 0.9040 0.9039 0.9039 0.9039 0.9039
2553.000000 0.9039 0.9038 0.9038 0.9038 0.9037
2558.000000 0.9037 0.9036 0.9036 0.9036 0.9036
2563.000000 0.9036 0.9036 0.9035 0.9035 0.9034
2568.000000 0.9034 0.9034 0.9033 0.9033 0.9033
2573.000000 0.9033 0.9033 0.9032 0.9032 0.9032
2578.000000 0.9031 0.9031 0.9031 0.9031 0.9031
2583.000000 0.9030 0.9030 0.9030 0.9030 0.9030
2588.000000 0.9029 0.9029 0.9029 0.9029 0.9029
2593.000000 0.9029 0.9028 0.9028 0.9028 0.9027
2598.000000 0.9027 0.9027 0.9027 0.9027 0.9026
2603.000000 0.9026 0.9026 0.9026 0.9026 0.9025
2608.000000 0.9025 0.9025 0.9025 0.9025 0.9025
2613.000000 0.9024 0.9024 0.9024 0.9024 0.9024
2618.000000 0.9023 0.9023 0.9022 0.9021 0.9020
2623.000000 0.9020 0.9019 0.9018 0.9018 0.9016
2628.000000 0.9015 0.9014 0.9014 0.9013 0.9012
2633.000000 0.9011 0.9010 0.9009 0.9008 0.9008
2638.000000 0.9007 0.9005 0.9004 0.9004 0.9003
2643.000000 0.9002 0.9002 0.9001 0.9000 0.8999
2648.000000 0.8998 0.8997 0.8996 0.8996 0.8995
2653.000000 0.8993 0.8992 0.8992 0.8991 0.8990
2658.000000 0.8989 0.8988 0.8987 0.8986 0.8986
2663.000000 0.8985 0.8984 0.8984 0.8983 0.8982
2668.000000 0.8981 0.8980 0.8979 0.8978 0.8977
2673.000000 0.8976 0.8976 0.8976 0.8976 0.8977
2678.000000 0.8978 0.8980 0.8981 0.8983 0.8984
2683.000000 0.8985 0.8987 0.8988 0.8989 0.8991
2688.000000 0.8992 0.8994 0.8995 0.8996 0.8997
2693.000000 0.8998 0.8999 0.8999 0.9000 0.9001
2698.000000 0.9001 0.9002 0.9003 0.9003 0.9003
2703.000000 0.9004 0.9004 0.9005 0.9005 0.9004
2708.000000 0.9003 0.9002 0.9001 0.9000 0.8999
2713.000000 0.8998 0.8997 0.8996 0.8995 0.8994
2718.000000 0.8992 0.8990 0.8987 0.8985 0.8981
2723.000000 0.8978 0.8976 0.8973 0.8970 0.8968
2728.000000 0.8965 0.8962 0.8957 0.8952 0.8946
2733.000000 0.8940 0.8933 0.8927 0.8921 0.8915
2738.000000 0.8910 0.8905 0.8900 0.8895 0.8889
2743.000000 0.8884 0.8879 0.8874 0.8869 0.8864
2748.000000 0.8860 0.8856 0.8853 0.8850 0.8847
2753.000000 0.8844 0.8843 0.8841 0.8840 0.8839
2758.000000 0.8839 0.8839 0.8838 0.8837 0.8837
2763.000000 0.8836 0.8836 0.8836 0.8835 0.8835
2768.000000 0.8834 0.8833 0.8833 0.8832 0.8831
2773.000000 0.8830 0.8828 0.8827 0.8826 0.8825
2778.000000 0.8823 0.8822 0.8821 0.8820 0.8819
2783.000000 0.8818 0.8816 0.8815 0.8814 0.8813
2788.000000 0.8812 0.8811 0.8810 0.8807 0.8804
2793.000000 0.8801 0.8798 0.8796 0.8793 0.8790
2798.000000 0.8787 0.8785 0.8782 0.8779 0.8776
2803.000000 0.8774 0.8771 0.8769 0.8766 0.8760
2808.000000 0.8755 0.8749 0.8743 0.8736 0.8729
2813.000000 0.8723 0.8717 0.8710 0.8704 0.8698
2818.000000 0.8692 0.8685 0.8679 0.8672 0.8664
2823.000000 0.8655 0.8645 0.8635 0.8625 0.8615
2828.000000 0.8605 0.8595 0.8585 0.8575 0.8563
2833.000000 0.8551 0.8538 0.8524 0.8507 0.8491
2838.000000 0.8474 0.8458 0.8441 0.8425 0.8408
2843.000000 0.8392 0.8375 0.8355 0.8335 0.8315
2848.000000 0.8295 0.8275 0.8254 0.8232 0.8206
2853.000000 0.8181 0.8154 0.8116 0.8079 0.8041
2858.000000 0.8020 0.8001 0.7982 0.7963 0.7944
2863.000000 0.7926 0.7903 0.7871 0.7840 0.7806
2868.000000 0.7679 0.7551 0.7424 0.7297 0.7170
2873.000000 0.7043 0.6916 0.6790 0.6663 0.6176
2878.000000 0.6431 0.6323 0.6214 0.6194 0.6193
2883.000000 0.6192 0.6204 0.6230 0.6256 0.6282
2888.000000 0.6310 0.6338 0.6366 0.6393 0.6421
2893.000000 0.6449 0.6470 0.6482 0.6495 0.6505
2898.000000 0.6504 0.6503 0.6502 0.6500 0.6498
2903.000000 0.6496 0.6522 0.6487 0.6482 0.6477
2908.000000 0.6468 0.6458 0.6449 0.6436 0.6422
2913.000000 0.6407 0.6388 0.6351 0.6315 0.6279
2918.000000 0.6222 0.6160 0.6099 0.6038 0.5976
2923.000000 0.5915 0.5854 0.5793 0.5732 0.5671
2928.000000 0.5610 0.5549 0.5488 0.5427 0.5366
2933.000000 0.5305 0.5244 0.5183 0.5123 0.5062
2938.000000 0.5002 0.4941 0.4881 0.4820 0.4787
2943.000000 0.4759 0.4731 0.4710 0.4702 0.4694
2948.000000 0.4685 0.4636 0.4582 0.4528 0.4471
2953.000000 0.4409 0.4348 0.4287 0.4225 0.4164
2958.000000 0.4102 0.4041 0.3979 0.3918 0.3857
2963.000000 0.3796 0.3735 0.3674 0.3613 0.3552
2968.000000 0.3491 0.3430 0.3409 0.3393 0.3377
2973.000000 0.3366 0.3366 0.3366 0.3366 0.3368
2978.000000 0.3388 0.3401 0.3447 0.3587 0.3727
2983.000000 0.3867 0.4007 0.4147 0.4287 0.4426
2988.000000 0.4565 0.4705 0.4844 0.4983 0.5122
2993.000000 0.5261 0.5400 0.5539 0.5677 0.5816
2998.000000 0.5954 0.6093 0.6231 0.6369 0.6507
3003.000000 0.6645 0.6783 0.6921 0.7059 0.7196
3008.000000 0.7334 0.7472 0.7609 0.7746 0.7883
3013.000000 0.8007 0.8131 0.8254 0.8347 0.8372
3018.000000 0.8397 0.8422 0.8436 0.8444 0.8452
3023.000000 0.8460 0.8467 0.8475 0.8483 0.8490
3028.000000 0.8498 0.8506 0.8513 0.8521 0.8528
3033.000000 0.8536 0.8544 0.8552 0.8559 0.8567
3038.000000 0.8575 0.8583 0.8591 0.8600 0.8608
3043.000000 0.8616 0.8624 0.8632 0.8639 0.8646
3048.000000 0.8653 0.8659 0.8663 0.8667 0.8671
3053.000000 0.8675 0.8680 0.8684 0.8688 0.8692
3058.000000 0.8696 0.8700 0.8704 0.8708 0.8712
3063.000000 0.8716 0.8719 0.8723 0.8726 0.8729
3068.000000 0.8732 0.8735 0.8738 0.8741 0.8744
3073.000000 0.8747 0.8749 0.8752 0.8755 0.8758
3078.000000 0.8760 0.8763 0.8765 0.8767 0.8768
3083.000000 0.8770 0.8772 0.8774 0.8776 0.8778
3088.000000 0.8780 0.8782 0.8784 0.8786 0.8788
3093.000000 0.8790 0.8791 0.8793 0.8795 0.8797
3098.000000 0.8799 0.8800 0.8802 0.8803 0.8805
3103.000000 0.8806 0.8807 0.8809 0.8810 0.8811
3108.000000 0.8813 0.8814 0.8815 0.8816 0.8818
3113.000000 0.8819 0.8820 0.8822 0.8823 0.8824
3118.000000 0.8825 0.8826 0.8827 0.8828 0.8830
3123.000000 0.8831 0.8832 0.8834 0.8835 0.8836
3128.000000 0.8837 0.8839 0.8840 0.8842 0.8843
3133.000000 0.8845 0.8847 0.8848 0.8850 0.8852
3138.000000 0.8854 0.8855 0.8857 0.8859 0.8861
3143.000000 0.8863 0.8864 0.8866 0.8868 0.8869
3148.000000 0.8871 0.8872 0.8874 0.8875 0.8877
3153.000000 0.8878 0.8879 0.8881 0.8882 0.8883
3158.000000 0.8884 0.8885 0.8886 0.8887 0.8887
3163.000000 0.8888 0.8888 0.8889 0.8889 0.8889
3168.000000 0.8889 0.8890 0.8890 0.8891 0.8891
3173.000000 0.8892 0.8892 0.8892 0.8892 0.8893
3178.000000 0.8893 0.8894 0.8894 0.8895 0.8895
3183.000000 0.8895 0.8895 0.8896 0.8896 0.8897
3188.000000 0.8897 0.8898 0.8898 0.8898 0.8898
3193.000000 0.8899 0.8899 0.8900 0.8900 0.8901
3198.000000 0.8901 0.8901 0.8901 0.8901 0.8902
3203.000000 0.8902 0.8902 0.8902 0.8902 0.8902
3208.000000 0.8902 0.8902 0.8902 0.8902 0.8902
3213.000000 0.8902 0.8899 0.8902 0.8902 0.8902
3218.000000 0.8903 0.8903 0.8903 0.8903 0.8903
3223.000000 0.8903 0.8903 0.8903 0.8903 0.8903
3228.000000 0.8903 0.8903 0.8903 0.8903 0.8903
3233.000000 0.8903 0.8903 0.8904 0.8904 0.8904
3238.000000 0.8904 0.8904 0.8904 0.8904 0.8904
3243.000000 0.8904 0.8904 0.8904 0.8904 0.8904
3248.000000 0.8904 0.8904 0.8904 0.8903 0.8903
3253.000000 0.8903 0.8903 0.8903 0.8902 0.8902
3258.000000 0.8902 0.8902 0.8901 0.8901 0.8901
3263.000000 0.8901 0.8901 0.8901 0.8901 0.8901
3268.000000 0.8900 0.8900 0.8900 0.8900 0.8900
3273.000000 0.8899 0.8899 0.8898 0.8898 0.8897
3278.000000 0.8897 0.8896 0.8896 0.8895 0.8895
3283.000000 0.8894 0.8894 0.8894 0.8893 0.8893
3288.000000 0.8892 0.8892 0.8891 0.8891 0.8891
3293.000000 0.8891 0.8890 0.8890 0.8889 0.8889
3298.000000 0.8889 0.8888 0.8888 0.8887 0.8887
3303.000000 0.8886 0.8886 0.8885 0.8885 0.8884
3308.000000 0.8884 0.8884 0.8883 0.8883 0.8882
3313.000000 0.8882 0.8881 0.8881 0.8880 0.8880
3318.000000 0.8879 0.8879 0.8879 0.8878 0.8878
3323.000000 0.8877 0.8877 0.8876 0.8876 0.8876
3328.000000 0.8876 0.8875 0.8875 0.8875 0.8874
3333.000000 0.8874 0.8873 0.8873 0.8872 0.8872
3338.000000 0.8871 0.8871 0.8870 0.8869 0.8869
3343.000000 0.8868 0.8867 0.8867 0.8866 0.8865
3348.000000 0.8865 0.8864 0.8863 0.8863 0.8862
3353.000000 0.8861 0.8861 0.8860 0.8859 0.8859
3358.000000 0.8858 0.8858 0.8858 0.8857 0.8856
3363.000000 0.8856 0.8855 0.8854 0.8854 0.8853
3368.000000 0.8852 0.8852 0.8851 0.8850 0.8850
3373.000000 0.8849 0.8848 0.8848 0.8848 0.8847
3378.000000 0.8847 0.8846 0.8845 0.8845 0.8844
3383.000000 0.8843 0.8842 0.8841 0.8840 0.8838
3388.000000 0.8837 0.8836 0.8835 0.8834 0.8833
3393.000000 0.8831 0.8830 0.8829 0.8827 0.8826
3398.000000 0.8825 0.8824 0.8822 0.8821 0.8820
3403.000000 0.8819 0.8818 0.8817 0.8815 0.8814
3408.000000 0.8813 0.8812 0.8810 0.8809 0.8808
3413.000000 0.8806 0.8805 0.8804 0.8803 0.8802
3418.000000 0.8801 0.8800 0.8798 0.8796 0.8794
3423.000000 0.8791 0.8789 0.8786 0.8783 0.8780
3428.000000 0.8776 0.8773 0.8769 0.8766 0.8763
3433.000000 0.8760 0.8757 0.8753 0.8750 0.8747
3438.000000 0.8743 0.8740 0.8736 0.8732 0.8728
3443.000000 0.8724 0.8721 0.8717 0.8714 0.8710
3448.000000 0.8706 0.8703 0.8700 0.8696 0.8693
3453.000000 0.8690 0.8688 0.8686 0.8684 0.8682
3458.000000 0.8680 0.8679 0.8677 0.8675 0.8674
3463.000000 0.8651 0.8671 0.8671 0.8670 0.8669
3468.000000 0.8669 0.8671 0.8672 0.8674 0.8675
3473.000000 0.8677 0.8678 0.8680 0.8682 0.8683
3478.000000 0.8687 0.8690 0.8694 0.8697 0.8701
3483.000000 0.8704 0.8708 0.8711 0.8715 0.8718
3488.000000 0.8722 0.8725 0.8729 0.8732 0.8736
3493.000000 0.8740 0.8743 0.8747 0.8751 0.8754
3498.000000 0.8758 0.8761 0.8765 0.8768 0.8771
3503.000000 0.8774 0.8776 0.8779 0.8782 0.8784
3508.000000 0.8786 0.8788 0.8790 0.8792 0.8794
3513.000000 0.8795 0.8796 0.8798 0.8799 0.8799
3518.000000 0.8798 0.8798 0.8797 0.8797 0.8796
3523.000000 0.8796 0.8795 0.8795 0.8795 0.8794
3528.000000 0.8793 0.8793 0.8792 0.8792 0.8791
3533.000000 0.8790 0.8789 0.8788 0.8788 0.8787
3538.000000 0.8786 0.8786 0.8785 0.8785 0.8784
3543.000000 0.8783 0.8782 0.8781 0.8781 0.8780
3548.000000 0.8779 0.8778 0.8777 0.8777 0.8776
3553.000000 0.8775 0.8774 0.8773 0.8772 0.8771
3558.000000 0.8770 0.8769 0.8768 0.8768 0.8767
3563.000000 0.8766 0.8765 0.8764 0.8763 0.8763
3568.000000 0.8763 0.8763 0.8763 0.8763 0.8764
3573.000000 0.8764 0.8764 0.8764 0.8764 0.8765
3578.000000 0.8765 0.8765 0.8765 0.8765 0.8766
3583.000000 0.8766 0.8766 0.8766 0.8766 0.8767
3588.000000 0.8767 0.8768 0.8768 0.8769 0.8770
3593.000000 0.8770 0.8771 0.8771 0.8772 0.8772
3598.000000 0.8773 0.8774 0.8775 0.8775 0.8776
3603.000000 0.8777 0.8777 0.8778 0.8779 0.8779
3608.000000 0.8780 0.8780 0.8781 0.8782 0.8782
3613.000000 0.8783 0.8783 0.8784 0.8784 0.8785
3618.000000 0.8786 0.8786 0.8787 0.8788 0.8789
3623.000000 0.8789 0.8790 0.8791 0.8791 0.8792
3628.000000 0.8792 0.8793 0.8794 0.8794 0.8795
3633.000000 0.8796 0.8797 0.8797 0.8798 0.8798
3638.000000 0.8799 0.8799 0.8800 0.8801 0.8801
3643.000000 0.8802 0.8802 0.8803 0.8804 0.8805
3648.000000 0.8805 0.8806 0.8807 0.8807 0.8808
3653.000000 0.8808 0.8809 0.8810 0.8810 0.8811
3658.000000 0.8812 0.8813 0.8814 0.8815 0.8816
3663.000000 0.8817 0.8818 0.8819 0.8820 0.8821
3668.000000 0.8822 0.8823 0.8824 0.8824 0.8826
3673.000000 0.8827 0.8828 0.8829 0.8830 0.8831
3678.000000 0.8832 0.8833 0.8834 0.8835 0.8836
3683.000000 0.8837 0.8837 0.8838 0.8839 0.8840
3688.000000 0.8841 0.8842 0.8843 0.8844 0.8845
3693.000000 0.8846 0.8847 0.8848 0.8848 0.8849
3698.000000 0.8850 0.8851 0.8852 0.8854 0.8855
3703.000000 0.8856 0.8857 0.8858 0.8859 0.8860
3708.000000 0.8861 0.8862 0.8864 0.8865 0.8866
3713.000000 0.8867 0.8869 0.8870 0.8871 0.8872
3718.000000 0.8873 0.8874 0.8875 0.8876 0.8878
3723.000000 0.8879 0.8880 0.8882 0.8883 0.8884
3728.000000 0.8885 0.8887 0.8888 0.8889 0.8890
3733.000000 0.8891 0.8892 0.8893 0.8895 0.8896
3738.000000 0.8897 0.8898 0.8899 0.8901 0.8902
3743.000000 0.8903 0.8904 0.8906 0.8907 0.8908
3748.000000 0.8909 0.8911 0.8912 0.8913 0.8914
3753.000000 0.8916 0.8917 0.8919 0.8920 0.8922
3758.000000 0.8924 0.8926 0.8928 0.8929 0.8931
3763.000000 0.8933 0.8935 0.8936 0.8938 0.8940
3768.000000 0.8942 0.8943 0.8945 0.8947 0.8949
3773.000000 0.8950 0.8952 0.8954 0.8956 0.8957
3778.000000 0.8959 0.8961 0.8963 0.8964 0.8966
3783.000000 0.8968 0.8970 0.8972 0.8974 0.8976
3788.000000 0.8978 0.8979 0.8981 0.8983 0.8985
3793.000000 0.8986 0.8988 0.8990 0.8991 0.8993
3798.000000 0.8994 0.8996 0.8997 0.8997 0.8998
3803.000000 0.8998 0.8999 0.8999 0.9000 0.9001
3808.000000 0.9001 0.9002 0.9003 0.9004 0.9004
3813.000000 0.9005 0.9005 0.9006 0.9006 0.9007
3818.000000 0.9007 0.9008 0.9009 0.9009 0.9010
3823.000000 0.9011 0.9011 0.9012 0.9012 0.9013
3828.000000 0.9013 0.9014 0.9015 0.9015 0.9016
3833.000000 0.9017 0.9017 0.9018 0.9018 0.9018
3838.000000 0.9019 0.9019 0.9019 0.9020 0.9020
3843.000000 0.9020 0.9020 0.9020 0.9020 0.9020
3848.000000 0.9020 0.9020 0.9020 0.9020 0.9020
3853.000000 0.9020 0.9020 0.9020 0.9020 0.9020
3858.000000 0.9020 0.9020 0.9020 0.9020 0.9020
3863.000000 0.9020 0.9021 0.9021 0.9021 0.9021
3868.000000 0.9021 0.9021 0.9021 0.9021 0.9021
3873.000000 0.9021 0.9021 0.9021 0.9021 0.9021
3878.000000 0.9021 0.9021 0.9021 0.9021 0.9021
3883.000000 0.9021 0.9021 0.9021 0.9021 0.9021
3888.000000 0.9021 0.9022 0.9022 0.9022 0.9022
3893.000000 0.9022 0.9022 0.9022 0.9022 0.9022
3898.000000 0.9022 0.9022 0.9022 0.9022 0.9022
3903.000000 0.9022 0.9022 0.9022 0.9022 0.9022
3908.000000 0.9022 0.9022 0.9022 0.9022 0.9022
3913.000000 0.9023 0.9023 0.9023 0.9023 0.9023
3918.000000 0.9023 0.9023 0.9023 0.9023 0.9023
3923.000000 0.9023 0.9023 0.9023 0.9023 0.9023
3928.000000 0.9023 0.9023 0.9023 0.9023 0.9023
3933.000000 0.9023 0.9023 0.9023 0.9023 0.9023
3938.000000 0.9024 0.9024 0.9024 0.9024 0.9024
3943.000000 0.9024 0.9024 0.9024 0.9024 0.9024
3948.000000 0.9024 0.9024 0.9024 0.9024 0.9024
3953.000000 0.9024 0.9024 0.9024 0.9024 0.9024
3958.000000 0.9024 0.9024 0.9024 0.9024 0.9025
3963.000000 0.9025 0.9025 0.9025 0.9025 0.9025
3968.000000 0.9025 0.9025 0.9025 0.9025 0.9025
3973.000000 0.9025 0.9025 0.9025 0.9025 0.9025
3978.000000 0.9025 0.9025 0.9025 0.9025 0.9025
3983.000000 0.9025 0.9025 0.9025 0.9025 0.9025
3988.000000 0.9026 0.9026 0.9026 0.9026 0.9026
3993.000000 0.9026 0.9026 0.9026 0.9026 0.9026
3998.000000 0.9026 0.9026 0.9026
##END=
