##TITLE=PROPANOIC ACID, ETHYL ESTER
##JCAMP-DX=4.24
##DATA TYPE=INFRARED SPECTRUM
##CLASS=COBLENTZ III
##ORIGIN=DOW CORNING CORP.
##OWNER=COBLENTZ SOCIETY
Collection (C) 2018 copyright by the U.S. Secretary of Commerce
on behalf of the United States of America. All rights reserved.
##DATE=1966
##NAMES=ethyl propionate
##CAS REGISTRY NO=105-37-3
##MOLFORM=C5 H10 O2
##SOURCE REFERENCE=COBLENTZ NO. 4790
##$NIST SOURCE=COBLENTZ
##$NIST IMAGE=cob4790
##SPECTROMETER/DATA SYSTEM=PERKIN-ELMER 521 (GRATING)
##INSTRUMENT PARAMETERS=FILTERS AT 3150, 2500, 2000, 1150, 700, 410; GRATING CHANGES AT 2000, 630 CM^-^1
##STATE=SOLUTION (10% IN CCl4 FOR 3800-1300, 10% IN CS2 FOR 1300-650, AND 10% CCl4 FOR 650-240 CM^-^1) VERSUS SOLVENT
##PATH LENGTH=0.011, 0.010, AND 0.011 CM (CsBr CELL)
$$ 90% PURE
##SAMPLING PROCEDURE=TRANSMISSION
##RESOLUTION=4
##DATA PROCESSING=DIGITIZED BY NIST FROM HARD COPY (FROM TWO SEGMENTS)
##XUNITS=1/CM
##YUNITS=TRANSMITTANCE
##XFACTOR=1.000000
##YFACTOR=1
##DELTAX=0.982535
##FIRSTX=274.672
##LASTX=3795.1
##FIRSTY=0.685
##MAXX=3795.1
##MINX=274.672
##MAXY=0.922
##MINY=0
##NPOINTS=3584
##XYDATA=(X++(Y..Y))
274.672000 0.6850 0.6850 0.6850 0.6850 0.6840
279.584675 0.6840 0.6830 0.6830 0.6810 0.6810
284.497351 0.6800 0.6800 0.6790 0.6790 0.6790
289.410026 0.6790 0.6800 0.6810 0.6810 0.6830
294.322701 0.6830 0.6840 0.6840 0.6840 0.6840
299.235376 0.6840 0.6840 0.6830 0.6830 0.6830
304.148052 0.6830 0.6830 0.6840 0.6840 0.6830
309.060727 0.6830 0.6830 0.6810 0.6810 0.6800
313.973402 0.6790 0.6770 0.6760 0.6750 0.6730
318.886077 0.6720 0.6710 0.6670 0.6650 0.6630
323.798753 0.6610 0.6600 0.6600 0.6590 0.6570
328.711428 0.6570 0.6560 0.6550 0.6550 0.6550
333.624103 0.6530 0.6530 0.6520 0.6520 0.6520
338.536779 0.6520 0.6530 0.6550 0.6550 0.6560
343.449454 0.6570 0.6600 0.6680 0.6690 0.6690
348.362129 0.6690 0.6690 0.6680 0.6680 0.6680
353.274804 0.6670 0.6650 0.6630 0.6600 0.6550
358.187480 0.6480 0.6410 0.6330 0.6240 0.6121
363.100155 0.6060 0.6040 0.6020 0.6040 0.6050
368.012830 0.6080 0.6140 0.6210 0.6290 0.6330
372.925505 0.6440 0.6530 0.6570 0.6610 0.6630
377.838181 0.6650 0.6750 0.6850 0.6959 0.7069
382.750856 0.7100 0.7120 0.7140 0.7200 0.7270
387.663531 0.7320 0.7340 0.7350 0.7360 0.7360
392.576207 0.7380 0.7390 0.7390 0.7390 0.7400
397.488882 0.7400 0.7400 0.7420 0.7420 0.7420
402.401557 0.7420 0.7420 0.7420 0.7420 0.7420
407.314232 0.7420 0.7420 0.7420 0.7420 0.7420
412.226908 0.7420 0.7400 0.7400 0.7400 0.7400
417.139583 0.7390 0.7390 0.7390 0.7390 0.7390
422.052258 0.7380 0.7360 0.7360 0.7350 0.7350
426.964933 0.7340 0.7340 0.7340 0.7320 0.7320
431.877609 0.7310 0.7310 0.7300 0.7300 0.7280
436.790284 0.7280 0.7270 0.7270 0.7260 0.7260
441.702959 0.7240 0.7230 0.7220 0.7220 0.7200
446.615635 0.7190 0.7180 0.7150 0.7150 0.7140
451.528310 0.7120 0.7120 0.7120 0.7140 0.7160
456.440985 0.7220 0.7270 0.7280 0.7320 0.7350
461.353660 0.7390 0.7420 0.7430 0.7460 0.7480
466.266336 0.7500 0.7510 0.7530 0.7540 0.7540
471.179011 0.7550 0.7570 0.7570 0.7590 0.7620
476.091686 0.7620 0.7630 0.7650 0.7660 0.7700
481.004361 0.7710 0.7740 0.7750 0.7770 0.7770
485.917037 0.7780 0.7790 0.7810 0.7820 0.7830
490.829712 0.7850 0.7860 0.7860 0.7870 0.7890
495.742387 0.7890 0.7900 0.7900 0.7910 0.7910
500.655063 0.7910 0.7910 0.7910 0.7910 0.7910
505.567738 0.7910 0.7930 0.7930 0.7930 0.7930
510.480413 0.7940 0.7940 0.7940 0.7940 0.7940
515.393088 0.7950 0.7950 0.7950 0.7950 0.7950
520.305764 0.7950 0.7950 0.7950 0.7950 0.7950
525.218439 0.7950 0.7940 0.7940 0.7940 0.7940
530.131114 0.7940 0.7930 0.7930 0.7930 0.7930
535.043789 0.7930 0.7910 0.7910 0.7900 0.7900
539.956465 0.7900 0.7890 0.7890 0.7870 0.7860
544.869140 0.7830 0.7830 0.7820 0.7820 0.7810
549.781815 0.7790 0.7770 0.7750 0.7750 0.7740
554.694491 0.7740 0.7730 0.7710 0.7690 0.7670
559.607166 0.7660 0.7630 0.7610 0.7580 0.7540
564.519841 0.7500 0.7440 0.7400 0.7350 0.7320
569.432516 0.7300 0.7280 0.7270 0.7270 0.7260
574.345192 0.7260 0.7260 0.7260 0.7260 0.7260
579.257867 0.7270 0.7270 0.7270 0.7270 0.7280
584.170542 0.7280 0.7280 0.7280 0.7280 0.7280
589.083217 0.7280 0.7270 0.7270 0.7270 0.7260
593.995893 0.7260 0.7270 0.7270 0.7280 0.7280
598.908568 0.7310 0.7350 0.7390 0.7420 0.7440
603.821243 0.7440 0.7460 0.7530 0.7540 0.7550
608.733919 0.7570 0.7620 0.7630 0.7660 0.7670
613.646594 0.7690 0.7909 0.8089 0.8120 0.8140
618.559269 0.8140 0.8160 0.8170 0.8180 0.8200
623.471944 0.8210 0.8210 0.8220 0.8240 0.8250
628.384620 0.8260 0.8280 0.8280 0.8290 0.8300
633.297295 0.8320 0.8330 0.8340 0.8340 0.8360
638.209970 0.8370 0.8380 0.8400 0.8410 0.8410
643.122645 0.8420 0.8440 0.8450 0.8460 0.8480
648.035321 0.8480 0.8490 0.8510 0.8520 0.8530
652.947996 0.8550 0.8550 0.8560 0.8570 0.8570
657.860671 0.8590 0.8590 0.8610 0.8610 0.8630
662.773347 0.8640 0.8640 0.8640 0.8640 0.8650
667.686022 0.8650 0.8650 0.8650 0.8670 0.8680
672.598697 0.8690 0.8720 0.8730 0.8730 0.8750
677.511372 0.8750 0.8760 0.8760 0.8760 0.8770
682.424048 0.8790 0.8790 0.8790 0.8790 0.8790
687.336723 0.8800 0.8800 0.8830 0.8870 0.8920
692.249398 0.8930 0.8930 0.8950 0.8950 0.8950
697.162073 0.8960 0.8970 0.8970 0.8990 0.8990
702.074749 0.8990 0.8990 0.8990 0.8990 0.8990
706.987424 0.8990 0.8990 0.8990 0.8990 0.8990
711.900099 0.8990 0.8990 0.8990 0.8990 0.8990
716.812775 0.8990 0.8990 0.8990 0.8990 0.8990
721.725450 0.8990 0.8990 0.8990 0.8990 0.8990
726.638125 0.9000 0.9000 0.9000 0.9000 0.9000
731.550800 0.9020 0.9020 0.9020 0.9020 0.9020
736.463476 0.9020 0.9000 0.9000 0.8990 0.8970
741.376151 0.8970 0.8960 0.8960 0.8950 0.8930
746.288826 0.8920 0.8910 0.8910 0.8910 0.8910
751.201501 0.8920 0.8930 0.8930 0.8930 0.8950
756.114177 0.8960 0.8960 0.8960 0.8960 0.8960
761.026852 0.8950 0.8920 0.8920 0.8880 0.8850
765.939527 0.8840 0.8830 0.8770 0.8760 0.8680
770.852202 0.8670 0.8590 0.8560 0.8460 0.8410
775.764878 0.8380 0.8360 0.8320 0.8240 0.8130
780.677553 0.8080 0.7970 0.7930 0.7820 0.7671
785.590228 0.7580 0.7480 0.7320 0.7200 0.6960
790.502904 0.6850 0.6790 0.6720 0.6650 0.6521
795.415579 0.6340 0.6140 0.5980 0.5710 0.5440
800.328254 0.5121 0.4871 0.4840 0.4870 0.5019
805.240929 0.5340 0.5610 0.5850 0.6080 0.6519
810.153605 0.6760 0.6910 0.7040 0.7259 0.7439
815.066280 0.7620 0.7780 0.7910 0.8000 0.8130
819.978955 0.8170 0.8240 0.8290 0.8360 0.8410
824.891630 0.8440 0.8450 0.8490 0.8510 0.8520
829.804306 0.8520 0.8520 0.8520 0.8510 0.8510
834.716981 0.8490 0.8480 0.8460 0.8420 0.8410
839.629656 0.8380 0.8340 0.8250 0.8210 0.8120
844.542332 0.7980 0.7860 0.7740 0.7510 0.6682
849.455007 0.6451 0.6221 0.6001 0.5771 0.5541
854.367682 0.5300 0.5280 0.5310 0.5470 0.5630
859.280357 0.5790 0.5950 0.6239 0.6379 0.6838
864.193033 0.7030 0.7220 0.7570 0.7750 0.7870
869.105708 0.8279 0.8330 0.8400 0.8460 0.8490
874.018383 0.8520 0.8520 0.8520 0.8490 0.8460
878.931058 0.8400 0.8300 0.8220 0.8180 0.8140
883.843734 0.8100 0.8060 0.8020 0.7980 0.7940
888.756409 0.7900 0.7870 0.7860 0.7860 0.7870
893.669084 0.7930 0.7980 0.8120 0.8140 0.8320
898.581760 0.8420 0.8550 0.8680 0.8800 0.8890
903.494435 0.8920 0.8930 0.8960 0.9060 0.9070
908.407110 0.9080 0.9110 0.9120 0.9150 0.9160
913.319785 0.9180 0.9190 0.9200 0.9200 0.9220
918.232461 0.9220 0.9220 0.9220 0.9220 0.9220
923.145136 0.9220 0.9220 0.9220 0.9220 0.9220
928.057811 0.9220 0.9220 0.9220 0.9220 0.9220
932.970486 0.9200 0.9200 0.9200 0.9190 0.9190
937.883162 0.9180 0.9180 0.9160 0.9140 0.9140
942.795837 0.9120 0.9110 0.9100 0.9100 0.9080
947.708512 0.9080 0.9070 0.9070 0.9070 0.9070
952.621188 0.9060 0.9060 0.9040 0.9030 0.9000
957.533863 0.8990 0.8970 0.8950 0.8920 0.8880
962.446538 0.8810 0.8790 0.8730 0.8680 0.8650
967.359213 0.8600 0.8530 0.8420 0.8370 0.8300
972.271889 0.8200 0.8130 0.8020 0.7930 0.7910
977.184564 0.7820 0.7730 0.7690 0.7620 0.7590
982.097239 0.7540 0.7510 0.7500 0.7500 0.7510
987.009914 0.7530 0.7550 0.7590 0.7630 0.7670
991.922590 0.7700 0.7710 0.7730 0.7730 0.7740
996.835265 0.7740 0.7730 0.7730 0.7710 0.7710
1001.747940 0.7700 0.7690 0.7670 0.7660 0.7620
1006.660616 0.7610 0.7550 0.7460 0.7301 0.7190
1011.573291 0.6930 0.6760 0.6520 0.6340 0.6170
1016.485966 0.5970 0.5691 0.5550 0.5032 0.4681
1021.398641 0.3949 0.3619 0.3150 0.2560 0.1980
1026.311317 0.1740 0.1500 0.0802 0.0790 0.0810
1031.223992 0.0960 0.1060 0.1140 0.1310 0.1480
1036.136667 0.1690 0.2358 0.2849 0.3398 0.3848
1041.049342 0.4000 0.4140 0.4570 0.4670 0.4790
1045.962018 0.4870 0.4910 0.4920 0.4950 0.4950
1050.874693 0.4930 0.4910 0.4880 0.4840 0.4590
1055.787368 0.4550 0.4380 0.4210 0.3901 0.3671
1060.700044 0.3350 0.3160 0.2950 0.2730 0.2510
1065.612719 0.2300 0.2100 0.1911 0.1751 0.1630
1070.525394 0.1540 0.1480 0.1470 0.1400 0.1300
1075.438069 0.1230 0.0891 0.0880 0.0890 0.0960
1080.350745 0.1030 0.1160 0.1340 0.1750 0.2080
1085.263420 0.2360 0.2490 0.2520 0.2530 0.2520
1090.176095 0.2490 0.2460 0.2460 0.2490 0.2590
1095.088770 0.2800 0.2990 0.3150 0.3569 0.3849
1100.001446 0.3980 0.4050 0.4120 0.4250 0.4250
1104.914121 0.4220 0.4200 0.4180 0.4180 0.4200
1109.826796 0.4210 0.4240 0.4370 0.4520 0.4730
1114.739472 0.4970 0.5260 0.5390 0.5550 0.5690
1119.652147 0.5790 0.5810 0.5810 0.5820 0.5820
1124.564822 0.5820 0.5790 0.5790 0.5780 0.5740
1129.477497 0.5700 0.5660 0.5610 0.5550 0.5480
1134.390173 0.5460 0.5390 0.5360 0.5240 0.5150
1139.302848 0.5060 0.4890 0.4790 0.4650 0.4530
1144.215523 0.4370 0.4250 0.3931 0.3750 0.3581
1149.128198 0.3390 0.3160 0.2930 0.2810 0.2640
1154.040874 0.2420 0.2200 0.1971 0.1731 0.1481
1158.953549 0.1269 0.0890 0.0750 0.0670 0.0610
1163.866224 0.0510 0.0380 0.0330 0.0320 0.0300
1168.778900 0.0210 0.0120 0.0060 0.0040 0.0010
1173.691575 0.0000 0.0000 0.0000 0.0000 0.0000
1178.604250 0.0010 0.0010 0.0010 0.0010 0.0020
1183.516925 0.0020 0.0040 0.0040 0.0050 0.0050
1188.429601 0.0050 0.0060 0.0060 0.0080 0.0090
1193.342276 0.0130 0.0140 0.0220 0.0290 0.0320
1198.254951 0.0380 0.0480 0.0510 0.0560 0.0590
1203.167626 0.0650 0.0710 0.0790 0.0810 0.0870
1208.080302 0.0950 0.1020 0.1100 0.1190 0.1220
1212.992977 0.1280 0.1430 0.1470 0.1550 0.1590
1217.905652 0.1700 0.1780 0.1870 0.2000 0.2120
1222.818328 0.2180 0.2240 0.2360 0.2440 0.2520
1227.731003 0.2600 0.2720 0.2870 0.3030 0.3190
1232.643678 0.3200 0.3270 0.3340 0.3350 0.3360
1237.556353 0.3380 0.3390 0.3400 0.3400 0.3420
1242.469029 0.3420 0.3400 0.3400 0.3390 0.3350
1247.381704 0.3320 0.3310 0.3280 0.3260 0.3190
1252.294379 0.3160 0.3140 0.3040 0.2950 0.2890
1257.207054 0.2810 0.2730 0.2600 0.2550 0.2480
1262.119730 0.2440 0.2400 0.2380 0.2380 0.2410
1267.032405 0.2450 0.2550 0.2640 0.2670 0.2750
1271.945080 0.2840 0.3060 0.3190 0.3359 0.3589
1276.857756 0.3790 0.3930 0.4020 0.4120 0.4320
1281.770431 0.4460 0.4520 0.4640 0.4720 0.4770
1286.683106 0.4800 0.4790 0.4770 0.4760 0.4720
1291.595781 0.4680 0.4650 0.4610 0.4590 0.4560
1296.508457 0.4550 0.4530 0.4530 0.4530 0.4550
1301.421132 0.4560 0.4610 0.4670 0.4720 0.4770
1306.333807 0.4830 0.4880 0.4920 0.4960 0.5000
1311.246482 0.5040 0.5080 0.5110 0.5120 0.5110
1316.159158 0.5080 0.5060 0.4970 0.4850 0.4800
1321.071833 0.4640 0.4290 0.3911 0.3740 0.3590
1325.984508 0.3540 0.3500 0.3480 0.3470 0.3470
1330.897184 0.3440 0.3430 0.3400 0.3340 0.3300
1335.809859 0.3150 0.3030 0.2850 0.2650 0.2440
1340.722534 0.2130 0.1711 0.1391 0.1280 0.1150
1345.635209 0.0730 0.0730 0.0880 0.0950 0.1020
1350.547885 0.1270 0.1440 0.2129 0.2838 0.3428
1355.460560 0.3751 0.4081 0.4561 0.4920 0.5080
1360.373235 0.5110 0.5080 0.4990 0.4800 0.4451
1365.285910 0.3789 0.3400 0.3069 0.2330 0.1590
1370.198586 0.0841 0.0451 0.0450 0.0649 0.0869
1375.111261 0.0991 0.1230 0.1460 0.1790 0.2180
1380.023936 0.2550 0.2770 0.2840 0.2990 0.3189
1384.936612 0.3540 0.3661 0.3900 0.3900 0.3940
1389.849287 0.3950 0.3950 0.3970 0.3980 0.4000
1394.761962 0.4040 0.4220 0.4420 0.4590 0.4920
1399.674637 0.5160 0.5400 0.5420 0.5530 0.5789
1404.587313 0.5860 0.5900 0.5910 0.5930 0.5930
1409.499988 0.5930 0.5910 0.5910 0.5900 0.5850
1414.412663 0.5810 0.5770 0.5730 0.5670 0.5620
1419.325338 0.5430 0.5180 0.4911 0.4691 0.4441
1424.238014 0.3650 0.3580 0.3580 0.3740 0.3810
1429.150689 0.3910 0.4020 0.4240 0.4280 0.4609
1434.063364 0.4650 0.4690 0.4710 0.4720 0.4690
1438.976040 0.4680 0.4550 0.4380 0.4220 0.4140
1443.888715 0.3869 0.3589 0.3340 0.3160 0.3150
1448.801390 0.3190 0.3300 0.3310 0.3310 0.3310
1453.714065 0.3300 0.3270 0.3190 0.3140 0.3080
1458.626741 0.3020 0.2830 0.2551 0.2051 0.1890
1463.539416 0.1730 0.1580 0.1420 0.1270 0.1270
1468.452091 0.1470 0.2179 0.2629 0.3159 0.3469
1473.364766 0.3820 0.3900 0.3910 0.3930 0.3900
1478.277442 0.3870 0.3770 0.3770 0.3850 0.4010
1483.190117 0.4171 0.4601 0.5041 0.5550 0.5910
1488.102792 0.6140 0.6320 0.6599 0.6690 0.6810
1493.015468 0.6920 0.6960 0.7000 0.7020 0.7040
1497.928143 0.7080 0.7080 0.7110 0.7200 0.7320
1502.840818 0.7350 0.7420 0.7470 0.7550 0.7590
1507.753493 0.7630 0.7650 0.7660 0.7700 0.7730
1512.666169 0.7740 0.7740 0.7770 0.7770 0.7780
1517.578844 0.7780 0.7780 0.7790 0.7830 0.7870
1522.491519 0.7910 0.7950 0.7980 0.8010 0.8010
1527.404194 0.8010 0.8020 0.8040 0.8050 0.8060
1532.316870 0.8080 0.8080 0.8080 0.8080 0.8090
1537.229545 0.8090 0.8090 0.8090 0.8090 0.8080
1542.142220 0.8090 0.8090 0.8090 0.8080 0.8080
1547.054896 0.8090 0.8100 0.8100 0.8100 0.8090
1551.967571 0.8080 0.8060 0.8060 0.8050 0.8050
1556.880246 0.8050 0.8050 0.8050 0.8050 0.8050
1561.792921 0.8050 0.8050 0.8050 0.8050 0.8040
1566.705597 0.8040 0.8040 0.8040 0.8050 0.8050
1571.618272 0.8050 0.8050 0.8050 0.8050 0.8050
1576.530947 0.8050 0.8050 0.8040 0.8040 0.8040
1581.443622 0.8040 0.8020 0.8010 0.8010 0.8010
1586.356298 0.8000 0.7980 0.7980 0.7970 0.7970
1591.268973 0.7950 0.7940 0.7930 0.7930 0.7910
1596.181648 0.7910 0.7900 0.7890 0.7870 0.7870
1601.094324 0.7870 0.7860 0.7860 0.7860 0.7860
1606.006999 0.7860 0.7860 0.7860 0.7860 0.7860
1610.919674 0.7850 0.7850 0.7850 0.7850 0.7830
1615.832349 0.7830 0.7830 0.7830 0.7830 0.7830
1620.745025 0.7830 0.7830 0.7830 0.7830 0.7820
1625.657700 0.7820 0.7820 0.7820 0.7820 0.7810
1630.570375 0.7810 0.7810 0.7790 0.7780 0.7780
1635.483050 0.7770 0.7770 0.7750 0.7750 0.7740
1640.395726 0.7740 0.7740 0.7730 0.7710 0.7700
1645.308401 0.7700 0.7670 0.7630 0.7630 0.7610
1650.221076 0.7580 0.7550 0.7510 0.7460 0.7430
1655.133751 0.7400 0.7380 0.7360 0.7340 0.7310
1660.046427 0.7280 0.7260 0.7200 0.7160 0.7140
1664.959102 0.7110 0.7110 0.7100 0.7080 0.7080
1669.871777 0.7070 0.7030 0.6990 0.6960 0.6920
1674.784453 0.6870 0.6830 0.6800 0.6770 0.6750
1679.697128 0.6650 0.6610 0.6600 0.6570 0.6520
1684.609803 0.6450 0.6410 0.6300 0.6200 0.6160
1689.522478 0.6050 0.5870 0.5790 0.5740 0.5610
1694.435154 0.5480 0.5300 0.5180 0.5120 0.5070
1699.347829 0.5030 0.4950 0.4870 0.4790 0.4710
1704.260504 0.4690 0.4640 0.4600 0.4450 0.4380
1709.173179 0.4360 0.4259 0.3900 0.3770 0.3630
1714.085855 0.3460 0.3220 0.3040 0.2790 0.2560
1718.998530 0.2299 0.2009 0.1710 0.1430 0.0880
1723.911205 0.0670 0.0480 0.0320 0.0130 0.0040
1728.823881 0.0010 0.0000 0.0000 0.0000 0.0000
1733.736556 0.0000 0.0000 0.0000 0.0000 0.0000
1738.649231 0.0000 0.0000 0.0000 0.0000 0.0000
1743.561906 0.0000 0.0000 0.0000 0.0000 0.0010
1748.474582 0.0040 0.0060 0.0120 0.0210 0.0280
1753.387257 0.0400 0.0590 0.0870 0.0990 0.1110
1758.299932 0.1351 0.1651 0.2001 0.2380 0.2720
1763.212607 0.3000 0.3150 0.3300 0.3540 0.3750
1768.125283 0.3890 0.4010 0.4121 0.4370 0.4510
1773.037958 0.4570 0.4680 0.4810 0.5000 0.5110
1777.950633 0.5160 0.5270 0.5400 0.5500 0.5650
1782.863309 0.5740 0.5790 0.5900 0.6040 0.6080
1787.775984 0.6100 0.6160 0.6210 0.6300 0.6440
1792.688659 0.6460 0.6530 0.6630 0.6680 0.6720
1797.601334 0.6750 0.6810 0.6910 0.6960 0.7000
1802.514010 0.7080 0.7150 0.7160 0.7240 0.7300
1807.426685 0.7420 0.7500 0.7530 0.7580 0.7590
1812.339360 0.7630 0.7650 0.7660 0.7730 0.7780
1817.252035 0.7810 0.7830 0.7850 0.7870 0.7930
1822.164711 0.7950 0.7970 0.8000 0.8020 0.8040
1827.077386 0.8050 0.8060 0.8100 0.8120 0.8140
1831.990061 0.8180 0.8200 0.8210 0.8220 0.8220
1836.902737 0.8240 0.8250 0.8260 0.8260 0.8260
1841.815412 0.8280 0.8290 0.8300 0.8320 0.8320
1846.728087 0.8320 0.8330 0.8330 0.8340 0.8340
1851.640762 0.8340 0.8360 0.8370 0.8370 0.8370
1856.553438 0.8370 0.8370 0.8370 0.8380 0.8380
1861.466113 0.8380 0.8380 0.8380 0.8380 0.8380
1866.378788 0.8380 0.8380 0.8380 0.8380 0.8380
1871.291463 0.8370 0.8360 0.8360 0.8360 0.8340
1876.204139 0.8340 0.8340 0.8330 0.8330 0.8330
1881.116814 0.8320 0.8320 0.8300 0.8300 0.8290
1886.029489 0.8290 0.8280 0.8260 0.8260 0.8260
1890.942165 0.8260 0.8260 0.8260 0.8260 0.8260
1895.854840 0.8260 0.8260 0.8280 0.8290 0.8300
1900.767515 0.8330 0.8340 0.8340 0.8340 0.8340
1905.680190 0.8340 0.8340 0.8340 0.8340 0.8340
1910.592866 0.8340 0.8340 0.8340 0.8330 0.8330
1915.505541 0.8320 0.8300 0.8300 0.8300 0.8280
1920.418216 0.8260 0.8260 0.8280 0.8280 0.8280
1925.330891 0.8280 0.8280 0.8260 0.8260 0.8280
1930.243567 0.8290 0.8300 0.8300 0.8300 0.8300
1935.156242 0.8300 0.8300 0.8290 0.8290 0.8290
1940.068917 0.8290 0.8300 0.8320 0.8320 0.8330
1944.981593 0.8330 0.8330 0.8340 0.8340 0.8340
1949.894268 0.8340 0.8360 0.8370 0.8370 0.8380
1954.806943 0.8410 0.8420 0.8420 0.8420 0.8440
1959.719618 0.8440 0.8450 0.8450 0.8450 0.8460
1964.632294 0.8460 0.8460 0.8460 0.8460 0.8460
1969.544969 0.8460 0.8480 0.8480 0.8460 0.8460
1974.457644 0.8460 0.8460 0.8480 0.8480 0.8480
1979.370319 0.8480 0.8480 0.8490 0.8490 0.8490
1984.282995 0.8510 0.8510 0.8490 0.8510 0.8510
1989.195670 0.8510 0.8510 0.8520 0.8520 0.8520
1994.108345 0.8530 0.8530 0.8530 0.8520 0.8520
1999.021021 0.8530 0.8530 0.8550 0.8570 0.8590
2003.933696 0.8610 0.8625 0.8640 0.8645 0.8650
2008.846371 0.8650 0.8650 0.8660 0.8670 0.8670
2013.759046 0.8670 0.8660 0.8650 0.8640 0.8630
2018.671722 0.8620 0.8610 0.8605 0.8600 0.8585
2023.584397 0.8570 0.8565 0.8560 0.8560 0.8560
2028.497072 0.8555 0.8550 0.8540 0.8530 0.8511
2033.409747 0.8491 0.8476 0.8461 0.8455 0.8450
2038.322423 0.8450 0.8450 0.8445 0.8440 0.8440
2043.235098 0.8440 0.8431 0.8421 0.8429 0.8439
2048.147773 0.8440 0.8440 0.8445 0.8450 0.8450
2053.060449 0.8450 0.8455 0.8460 0.8460 0.8460
2057.973124 0.8469 0.8479 0.8494 0.8509 0.8519
2062.885799 0.8529 0.8539 0.8549 0.8555 0.8560
2067.798474 0.8565 0.8570 0.8584 0.8599 0.8623
2072.711150 0.8648 0.8659 0.8669 0.8688 0.8708
2077.623825 0.8719 0.8729 0.8739 0.8749 0.8755
2082.536500 0.8760 0.8760 0.8760 0.8760 0.8760
2087.449175 0.8764 0.8769 0.8770 0.8770 0.8779
2092.361851 0.8789 0.8790 0.8790 0.8794 0.8799
2097.274526 0.8804 0.8809 0.8819 0.8829 0.8834
2102.187201 0.8839 0.8844 0.8849 0.8846 0.8841
2107.099877 0.8840 0.8840 0.8840 0.8840 0.8840
2112.012552 0.8840 0.8840 0.8840 0.8840 0.8840
2116.925227 0.8836 0.8831 0.8834 0.8839 0.8840
2121.837902 0.8840 0.8840 0.8840 0.8840 0.8840
2126.750578 0.8840 0.8840 0.8840 0.8840 0.8840
2131.663253 0.8840 0.8840 0.8840 0.8840 0.8840
2136.575928 0.8844 0.8849 0.8850 0.8850 0.8850
2141.488603 0.8850 0.8850 0.8850 0.8850 0.8850
2146.401279 0.8846 0.8841 0.8840 0.8840 0.8840
2151.313954 0.8840 0.8836 0.8831 0.8822 0.8812
2156.226629 0.8810 0.8810 0.8810 0.8810 0.8810
2161.139305 0.8810 0.8810 0.8810 0.8810 0.8810
2166.051980 0.8810 0.8810 0.8806 0.8801 0.8800
2170.964655 0.8800 0.8800 0.8800 0.8800 0.8800
2175.877330 0.8800 0.8800 0.8796 0.8791 0.8790
2180.790006 0.8790 0.8790 0.8790 0.8790 0.8790
2185.702681 0.8790 0.8790 0.8782 0.8772 0.8770
2190.615356 0.8770 0.8770 0.8770 0.8778 0.8788
2195.528031 0.8790 0.8790 0.8790 0.8790 0.8794
2200.440707 0.8799 0.8800 0.8800 0.8800 0.8800
2205.353382 0.8804 0.8809 0.8810 0.8810 0.8810
2210.266057 0.8810 0.8810 0.8810 0.8810 0.8810
2215.178733 0.8810 0.8810 0.8810 0.8810 0.8810
2220.091408 0.8810 0.8806 0.8801 0.8800 0.8800
2225.004083 0.8796 0.8791 0.8790 0.8790 0.8783
2229.916758 0.8773 0.8770 0.8770 0.8777 0.8787
2234.829434 0.8794 0.8799 0.8800 0.8800 0.8800
2239.742109 0.8800 0.8800 0.8800 0.8800 0.8800
2244.654784 0.8800 0.8800 0.8804 0.8809 0.8806
2249.567459 0.8801 0.8800 0.8800 0.8800 0.8800
2254.480135 0.8800 0.8800 0.8800 0.8800 0.8800
2259.392810 0.8800 0.8800 0.8800 0.8800 0.8800
2264.305485 0.8800 0.8800 0.8800 0.8800 0.8800
2269.218161 0.8800 0.8800 0.8800 0.8800 0.8800
2274.130836 0.8800 0.8800 0.8800 0.8800 0.8800
2279.043511 0.8800 0.8803 0.8808 0.8817 0.8827
2283.956186 0.8833 0.8838 0.8840 0.8840 0.8840
2288.868862 0.8840 0.8843 0.8848 0.8857 0.8867
2293.781537 0.8870 0.8870 0.8870 0.8870 0.8873
2298.694212 0.8878 0.8880 0.8880 0.8880 0.8880
2303.606887 0.8880 0.8880 0.8880 0.8880 0.8877
2308.519563 0.8872 0.8864 0.8854 0.8844 0.8834
2313.432238 0.8824 0.8813 0.8807 0.8802 0.8790
2318.344913 0.8775 0.8767 0.8762 0.8757 0.8752
2323.257589 0.8744 0.8734 0.8727 0.8722 0.8720
2328.170264 0.8720 0.8717 0.8712 0.8710 0.8710
2333.082939 0.8710 0.8710 0.8710 0.8710 0.8704
2337.995614 0.8694 0.8690 0.8690 0.8690 0.8690
2342.908290 0.8690 0.8690 0.8690 0.8690 0.8687
2347.820965 0.8682 0.8680 0.8680 0.8680 0.8680
2352.733640 0.8677 0.8672 0.8664 0.8654 0.8650
2357.646315 0.8650 0.8647 0.8642 0.8637 0.8632
2362.558991 0.8624 0.8614 0.8610 0.8610 0.8616
2367.471666 0.8626 0.8633 0.8638 0.8649 0.8664
2372.384341 0.8673 0.8678 0.8680 0.8680 0.8680
2377.297017 0.8680 0.8683 0.8688 0.8687 0.8682
2382.209692 0.8683 0.8688 0.8690 0.8690 0.8696
2387.122367 0.8706 0.8710 0.8710 0.8710 0.8710
2392.035042 0.8713 0.8718 0.8728 0.8743 0.8756
2396.947718 0.8766 0.8776 0.8786 0.8793 0.8798
2401.860393 0.8800 0.8800 0.8800 0.8800 0.8800
2406.773068 0.8800 0.8800 0.8800 0.8800 0.8800
2411.685743 0.8800 0.8800 0.8800 0.8800 0.8800
2416.598419 0.8800 0.8800 0.8800 0.8803 0.8808
2421.511094 0.8810 0.8810 0.8810 0.8810 0.8807
2426.423769 0.8802 0.8800 0.8800 0.8800 0.8800
2431.336445 0.8803 0.8808 0.8810 0.8810 0.8815
2436.249120 0.8825 0.8830 0.8830 0.8830 0.8830
2441.161795 0.8830 0.8830 0.8825 0.8815 0.8810
2446.074470 0.8810 0.8810 0.8810 0.8810 0.8810
2450.987146 0.8810 0.8810 0.8808 0.8803 0.8798
2455.899821 0.8793 0.8790 0.8790 0.8785 0.8775
2460.812496 0.8770 0.8770 0.8775 0.8785 0.8790
2465.725171 0.8790 0.8792 0.8797 0.8800 0.8800
2470.637847 0.8800 0.8800 0.8800 0.8800 0.8800
2475.550522 0.8800 0.8800 0.8800 0.8800 0.8800
2480.463197 0.8800 0.8800 0.8800 0.8800 0.8800
2485.375873 0.8800 0.8800 0.8800 0.8798 0.8793
2490.288548 0.8790 0.8790 0.8792 0.8797 0.8800
2495.201223 0.8800 0.8802 0.8807 0.8810 0.8810
2500.113898 0.8810 0.8810 0.8808 0.8803 0.8800
2505.026574 0.8800 0.8800 0.8800 0.8800 0.8800
2509.939249 0.8800 0.8800 0.8800 0.8800 0.8800
2514.851924 0.8800 0.8798 0.8793 0.8792 0.8797
2519.764599 0.8800 0.8800 0.8798 0.8793 0.8790
2524.677275 0.8790 0.8790 0.8790 0.8786 0.8776
2529.589950 0.8774 0.8784 0.8790 0.8790 0.8790
2534.502625 0.8790 0.8790 0.8790 0.8790 0.8790
2539.415300 0.8790 0.8790 0.8786 0.8776 0.8770
2544.327976 0.8770 0.8770 0.8770 0.8774 0.8784
2549.240651 0.8790 0.8790 0.8790 0.8790 0.8786
2554.153326 0.8776 0.8770 0.8770 0.8770 0.8770
2559.066002 0.8770 0.8770 0.8770 0.8770 0.8770
2563.978677 0.8770 0.8770 0.8770 0.8770 0.8770
2568.891352 0.8770 0.8770 0.8770 0.8770 0.8774
2573.804027 0.8784 0.8790 0.8790 0.8790 0.8790
2578.716703 0.8790 0.8790 0.8787 0.8777 0.8770
2583.629378 0.8770 0.8770 0.8770 0.8768 0.8763
2588.542053 0.8760 0.8760 0.8760 0.8760 0.8758
2593.454728 0.8753 0.8747 0.8737 0.8730 0.8730
2598.367404 0.8730 0.8730 0.8730 0.8730 0.8730
2603.280079 0.8730 0.8730 0.8730 0.8730 0.8730
2608.192754 0.8733 0.8743 0.8752 0.8757 0.8762
2613.105430 0.8767 0.8768 0.8763 0.8760 0.8760
2618.018105 0.8758 0.8753 0.8747 0.8737 0.8730
2622.930780 0.8730 0.8730 0.8730 0.8730 0.8730
2627.843455 0.8730 0.8730 0.8733 0.8743 0.8750
2632.756131 0.8750 0.8750 0.8750 0.8751 0.8756
2637.668806 0.8760 0.8760 0.8766 0.8786 0.8801
2642.581481 0.8806 0.8810 0.8810 0.8813 0.8823
2647.494156 0.8827 0.8817 0.8810 0.8810 0.8810
2652.406832 0.8810 0.8810 0.8810 0.8810 0.8810
2657.319507 0.8810 0.8810 0.8809 0.8804 0.8800
2662.232182 0.8800 0.8799 0.8794 0.8791 0.8796
2667.144858 0.8800 0.8800 0.8799 0.8794 0.8790
2672.057533 0.8790 0.8790 0.8790 0.8790 0.8790
2676.970208 0.8790 0.8790 0.8790 0.8790 0.8788
2681.882883 0.8778 0.8770 0.8770 0.8770 0.8770
2686.795559 0.8770 0.8770 0.8770 0.8770 0.8768
2691.708234 0.8758 0.8748 0.8738 0.8730 0.8730
2696.620909 0.8729 0.8724 0.8720 0.8720 0.8719
2701.533584 0.8714 0.8710 0.8710 0.8708 0.8698
2706.446260 0.8689 0.8684 0.8679 0.8674 0.8670
2711.358935 0.8670 0.8668 0.8658 0.8650 0.8650
2716.271610 0.8650 0.8650 0.8649 0.8644 0.8637
2721.184286 0.8622 0.8609 0.8604 0.8597 0.8582
2726.096961 0.8569 0.8564 0.8557 0.8542 0.8529
2731.009636 0.8524 0.8519 0.8514 0.8510 0.8510
2735.922311 0.8508 0.8498 0.8490 0.8490 0.8490
2740.834987 0.8490 0.8490 0.8490 0.8490 0.8490
2745.747662 0.8490 0.8490 0.8490 0.8490 0.8492
2750.660337 0.8502 0.8510 0.8510 0.8510 0.8510
2755.573012 0.8510 0.8510 0.8510 0.8510 0.8508
2760.485688 0.8493 0.8479 0.8469 0.8460 0.8460
2765.398363 0.8459 0.8454 0.8450 0.8450 0.8449
2770.311038 0.8444 0.8440 0.8440 0.8440 0.8440
2775.223714 0.8441 0.8446 0.8450 0.8450 0.8451
2780.136389 0.8456 0.8461 0.8471 0.8480 0.8480
2785.049064 0.8480 0.8480 0.8479 0.8469 0.8459
2789.961739 0.8449 0.8438 0.8418 0.8399 0.8389
2794.874415 0.8379 0.8374 0.8368 0.8353 0.8338
2799.787090 0.8318 0.8298 0.8278 0.8259 0.8249
2804.699765 0.8239 0.8229 0.8219 0.8214 0.8209
2809.612440 0.8204 0.8198 0.8184 0.8167 0.8132
2814.525116 0.8098 0.8078 0.8059 0.8049 0.8037
2819.437791 0.8002 0.7968 0.7948 0.7927 0.7892
2824.350466 0.7858 0.7822 0.7788 0.7768 0.7748
2829.263142 0.7723 0.7699 0.7684 0.7669 0.7659
2834.175817 0.7650 0.7650 0.7649 0.7639 0.7630
2839.088492 0.7630 0.7630 0.7630 0.7630 0.7625
2844.001167 0.7620 0.7620 0.7620 0.7615 0.7610
2848.913843 0.7610 0.7609 0.7599 0.7589 0.7580
2853.826518 0.7567 0.7512 0.7459 0.7439 0.7419
2858.739193 0.7389 0.7359 0.7319 0.7278 0.7198
2863.651868 0.7118 0.7042 0.6967 0.6897 0.6825
2868.564544 0.6711 0.6594 0.6435 0.6275 0.6105
2873.477219 0.5936 0.5771 0.5607 0.5477 0.5349
2878.389894 0.5284 0.5219 0.5119 0.5019 0.4874
2883.302570 0.4730 0.4730 0.4731 0.4771 0.4811
2888.215245 0.4846 0.4880 0.4885 0.4890 0.4905
2893.127920 0.4920 0.4920 0.4920 0.4845 0.4770
2898.040595 0.4710 0.4651 0.4610 0.4571 0.4550
2902.953271 0.4530 0.4446 0.4360 0.4220 0.4081
2907.865946 0.4080 0.4080 0.4100 0.4120 0.4145
2912.778621 0.4170 0.4234 0.4299 0.4349 0.4399
2917.691296 0.4405 0.4410 0.4386 0.4361 0.4307
2922.603972 0.4252 0.4187 0.4121 0.3974 0.3824
2927.516647 0.3572 0.3318 0.3228 0.3143 0.3053
2932.429322 0.2963 0.2878 0.2794 0.2704 0.2614
2937.341998 0.2529 0.2444 0.2355 0.2265 0.2180
2942.254673 0.2095 0.2005 0.1914 0.1829 0.1744
2947.167348 0.1740 0.1740 0.1986 0.2245 0.2641
2952.080023 0.3046 0.3093 0.3118 0.3120 0.3120
2956.992699 0.3092 0.3062 0.3014 0.2964 0.2900
2961.905374 0.2835 0.2784 0.2733 0.2683 0.2633
2966.818049 0.2579 0.2524 0.2437 0.2347 0.2262
2971.730724 0.2177 0.2005 0.1826 0.1623 0.1419
2976.643400 0.1164 0.0905 0.0754 0.0614 0.0479
2981.556075 0.0344 0.0316 0.0301 0.0314 0.0329
2986.468750 0.0403 0.0482 0.0562 0.0642 0.0731
2991.381426 0.0821 0.0901 0.0981 0.1114 0.1254
2996.294101 0.1389 0.1524 0.1729 0.1944 0.2009
3001.206776 0.2054 0.2126 0.2202 0.2570 0.2974
3006.119451 0.3427 0.3886 0.4081 0.4240 0.4396
3011.032127 0.4550 0.4757 0.4972 0.5191 0.5410
3015.944802 0.5617 0.5821 0.6026 0.6231 0.6367
3020.857477 0.6491 0.6639 0.6790 0.6862 0.6922
3025.770152 0.6977 0.7032 0.7100 0.7170 0.7236
3030.682828 0.7300 0.7391 0.7486 0.7517 0.7537
3035.595503 0.7574 0.7614 0.7683 0.7758 0.7778
3040.508178 0.7788 0.7840 0.7901 0.7935 0.7965
3045.420854 0.7970 0.7970 0.8003 0.8043 0.8087
3050.333529 0.8132 0.8157 0.8177 0.8205 0.8235
3055.246204 0.8248 0.8258 0.8268 0.8278 0.8288
3060.158879 0.8298 0.8308 0.8318 0.8336 0.8356
3065.071555 0.8368 0.8378 0.8392 0.8407 0.8422
3069.984230 0.8437 0.8448 0.8458 0.8468 0.8478
3074.896905 0.8492 0.8507 0.8514 0.8519 0.8520
3079.809580 0.8520 0.8524 0.8529 0.8538 0.8548
3084.722256 0.8554 0.8559 0.8560 0.8560 0.8564
3089.634931 0.8569 0.8570 0.8570 0.8570 0.8570
3094.547606 0.8570 0.8570 0.8578 0.8588 0.8590
3099.460282 0.8590 0.8594 0.8599 0.8612 0.8627
3104.372957 0.8634 0.8639 0.8644 0.8649 0.8650
3109.285632 0.8650 0.8658 0.8668 0.8670 0.8670
3114.198307 0.8674 0.8679 0.8691 0.8706 0.8714
3119.110983 0.8719 0.8724 0.8729 0.8730 0.8730
3124.023658 0.8726 0.8721 0.8709 0.8694 0.8686
3128.936333 0.8681 0.8684 0.8689 0.8697 0.8707
3133.849008 0.8710 0.8710 0.8710 0.8710 0.8714
3138.761684 0.8719 0.8724 0.8729 0.8730 0.8730
3143.674359 0.8730 0.8730 0.8730 0.8730 0.8730
3148.587034 0.8730 0.8730 0.8730 0.8730 0.8730
3153.499710 0.8730 0.8730 0.8730 0.8730 0.8730
3158.412385 0.8730 0.8737 0.8747 0.8750 0.8750
3163.325060 0.8743 0.8733 0.8730 0.8730 0.8730
3168.237735 0.8730 0.8730 0.8730 0.8730 0.8730
3173.150411 0.8730 0.8730 0.8730 0.8730 0.8730
3178.063086 0.8730 0.8730 0.8730 0.8730 0.8730
3182.975761 0.8737 0.8747 0.8750 0.8750 0.8750
3187.888436 0.8750 0.8753 0.8758 0.8760 0.8760
3192.801112 0.8763 0.8768 0.8770 0.8770 0.8770
3197.713787 0.8770 0.8777 0.8787 0.8790 0.8790
3202.626462 0.8793 0.8798 0.8800 0.8800 0.8800
3207.539138 0.8800 0.8803 0.8808 0.8810 0.8810
3212.451813 0.8810 0.8810 0.8816 0.8826 0.8830
3217.364488 0.8830 0.8830 0.8830 0.8830 0.8830
3222.277163 0.8830 0.8830 0.8830 0.8830 0.8830
3227.189839 0.8830 0.8833 0.8838 0.8840 0.8840
3232.102514 0.8843 0.8848 0.8856 0.8866 0.8870
3237.015189 0.8870 0.8870 0.8870 0.8870 0.8870
3241.927864 0.8870 0.8870 0.8870 0.8870 0.8873
3246.840540 0.8878 0.8880 0.8880 0.8880 0.8880
3251.753215 0.8880 0.8880 0.8880 0.8880 0.8880
3256.665890 0.8880 0.8880 0.8880 0.8880 0.8880
3261.578566 0.8880 0.8880 0.8880 0.8880 0.8880
3266.491241 0.8880 0.8880 0.8880 0.8877 0.8872
3271.403916 0.8870 0.8870 0.8870 0.8870 0.8870
3276.316591 0.8870 0.8864 0.8854 0.8850 0.8850
3281.229267 0.8850 0.8850 0.8850 0.8850 0.8850
3286.141942 0.8850 0.8850 0.8850 0.8850 0.8850
3291.054617 0.8856 0.8866 0.8870 0.8870 0.8870
3295.967292 0.8870 0.8864 0.8854 0.8847 0.8842
3300.879968 0.8837 0.8832 0.8824 0.8814 0.8807
3305.792643 0.8802 0.8800 0.8800 0.8797 0.8792
3310.705318 0.8790 0.8790 0.8790 0.8790 0.8785
3315.617994 0.8775 0.8770 0.8770 0.8770 0.8770
3320.530669 0.8770 0.8770 0.8770 0.8770 0.8770
3325.443344 0.8770 0.8770 0.8770 0.8770 0.8770
3330.356019 0.8770 0.8770 0.8767 0.8762 0.8760
3335.268695 0.8760 0.8760 0.8760 0.8757 0.8752
3340.181370 0.8750 0.8750 0.8753 0.8758 0.8760
3345.094045 0.8760 0.8760 0.8760 0.8760 0.8760
3350.006720 0.8760 0.8760 0.8753 0.8738 0.8730
3354.919396 0.8730 0.8735 0.8745 0.8750 0.8750
3359.832071 0.8750 0.8750 0.8750 0.8750 0.8750
3364.744746 0.8750 0.8750 0.8750 0.8750 0.8750
3369.657422 0.8750 0.8750 0.8750 0.8750 0.8750
3374.570097 0.8750 0.8752 0.8757 0.8760 0.8760
3379.482772 0.8760 0.8760 0.8758 0.8753 0.8750
3384.395447 0.8750 0.8750 0.8750 0.8750 0.8750
3389.308123 0.8750 0.8750 0.8746 0.8736 0.8730
3394.220798 0.8730 0.8730 0.8730 0.8730 0.8730
3399.133473 0.8728 0.8723 0.8718 0.8713 0.8706
3404.046148 0.8696 0.8690 0.8690 0.8694 0.8704
3408.958824 0.8710 0.8710 0.8710 0.8710 0.8706
3413.871499 0.8696 0.8686 0.8676 0.8670 0.8670
3418.784174 0.8666 0.8656 0.8648 0.8643 0.8638
3423.696849 0.8633 0.8626 0.8616 0.8608 0.8603
3428.609525 0.8586 0.8551 0.8522 0.8502 0.8484
3433.522200 0.8469 0.8458 0.8453 0.8444 0.8429
3438.434875 0.8402 0.8357 0.8314 0.8274 0.8242
3443.347551 0.8222 0.8204 0.8189 0.8176 0.8166
3448.260226 0.8154 0.8139 0.8128 0.8123 0.8116
3453.172901 0.8106 0.8098 0.8093 0.8088 0.8083
3458.085576 0.8080 0.8080 0.8082 0.8087 0.8092
3462.998252 0.8097 0.8106 0.8121 0.8136 0.8150
3467.910927 0.8182 0.8242 0.8291 0.8321 0.8351
3472.823602 0.8381 0.8416 0.8461 0.8505 0.8545
3477.736277 0.8577 0.8597 0.8615 0.8630 0.8642
3482.648953 0.8647 0.8653 0.8663 0.8670 0.8670
3487.561628 0.8670 0.8670 0.8672 0.8677 0.8680
3492.474303 0.8680 0.8680 0.8680 0.8682 0.8687
3497.386979 0.8688 0.8683 0.8680 0.8680 0.8682
3502.299654 0.8687 0.8688 0.8683 0.8680 0.8680
3507.212329 0.8680 0.8680 0.8680 0.8680 0.8678
3512.125004 0.8673 0.8670 0.8670 0.8670 0.8670
3517.037680 0.8670 0.8670 0.8667 0.8657 0.8648
3521.950355 0.8643 0.8640 0.8640 0.8638 0.8634
3526.863030 0.8627 0.8617 0.8610 0.8610 0.8610
3531.775705 0.8610 0.8610 0.8610 0.8610 0.8610
3536.688381 0.8610 0.8610 0.8610 0.8610 0.8613
3541.601056 0.8623 0.8630 0.8630 0.8630 0.8630
3546.513731 0.8631 0.8636 0.8640 0.8640 0.8640
3551.426407 0.8640 0.8640 0.8640 0.8641 0.8646
3556.339082 0.8653 0.8663 0.8671 0.8676 0.8681
3561.251757 0.8686 0.8689 0.8684 0.8681 0.8686
3566.164432 0.8693 0.8703 0.8711 0.8716 0.8721
3571.077108 0.8726 0.8734 0.8749 0.8764 0.8779
3575.989783 0.8791 0.8796 0.8801 0.8806 0.8810
3580.902458 0.8810 0.8812 0.8822 0.8830 0.8830
3585.815133 0.8830 0.8830 0.8830 0.8830 0.8830
3590.727809 0.8830 0.8830 0.8830 0.8830 0.8830
3595.640484 0.8830 0.8830 0.8831 0.8836 0.8840
3600.553159 0.8840 0.8840 0.8840 0.8841 0.8846
3605.465835 0.8849 0.8844 0.8840 0.8840 0.8840
3610.378510 0.8840 0.8840 0.8840 0.8840 0.8840
3615.291185 0.8840 0.8840 0.8840 0.8840 0.8841
3620.203860 0.8846 0.8848 0.8838 0.8830 0.8830
3625.116536 0.8830 0.8830 0.8831 0.8836 0.8840
3630.029211 0.8840 0.8840 0.8840 0.8840 0.8840
3634.941886 0.8840 0.8840 0.8839 0.8834 0.8830
3639.854561 0.8830 0.8831 0.8836 0.8840 0.8840
3644.767237 0.8841 0.8846 0.8850 0.8850 0.8850
3649.679912 0.8850 0.8850 0.8850 0.8849 0.8844
3654.592587 0.8840 0.8840 0.8840 0.8840 0.8839
3659.505263 0.8834 0.8828 0.8818 0.8810 0.8810
3664.417938 0.8810 0.8810 0.8810 0.8810 0.8809
3669.330613 0.8804 0.8798 0.8783 0.8767 0.8747
3674.243288 0.8729 0.8719 0.8707 0.8687 0.8668
3679.155964 0.8653 0.8639 0.8634 0.8630 0.8630
3684.068639 0.8631 0.8636 0.8643 0.8668 0.8693
3688.981314 0.8723 0.8751 0.8761 0.8772 0.8787
3693.893989 0.8802 0.8817 0.8831 0.8836 0.8841
3698.806665 0.8846 0.8852 0.8867 0.8881 0.8886
3703.719340 0.8891 0.8901 0.8910 0.8910 0.8910
3708.632015 0.8910 0.8910 0.8910 0.8910 0.8910
3713.544691 0.8910 0.8910 0.8910 0.8910 0.8910
3718.457366 0.8915 0.8920 0.8920 0.8920 0.8920
3723.370041 0.8920 0.8920 0.8920 0.8920 0.8920
3728.282716 0.8920 0.8920 0.8920 0.8920 0.8920
3733.195392 0.8920 0.8920 0.8920 0.8920 0.8920
3738.108067 0.8920 0.8920 0.8920 0.8920 0.8920
3743.020742 0.8920 0.8920 0.8920 0.8920 0.8920
3747.933417 0.8920 0.8920 0.8920 0.8920 0.8920
3752.846093 0.8920 0.8920 0.8920 0.8920 0.8920
3757.758768 0.8920 0.8920 0.8920 0.8920 0.8915
3762.671443 0.8910 0.8910 0.8910 0.8910 0.8910
3767.584119 0.8910 0.8910 0.8910 0.8910 0.8910
3772.496794 0.8910 0.8910 0.8910 0.8910 0.8910
3777.409469 0.8910 0.8910 0.8910 0.8910 0.8910
3782.322144 0.8910 0.8910 0.8910 0.8910 0.8910
3787.234820 0.8910 0.8910 0.8910 0.8910 0.8910
3792.147495 0.8910 0.8910 0.8910 0.8910
##END=
