##TITLE=1,4-Dimethylbenzene
##JCAMP-DX=4.24
##DATA TYPE=INFRARED SPECTRUM
##CLASS=IUPAC A
##ORIGIN=NIST, Analytical Chemistry Division, 301-975-3108
##OWNER=COPYRIGHT (C) 2001 by the U.S. Secretary of Commerce
##DATE=01/06/01
##$SPECTRA VERSION=1.10
##$UNCERTAINTY IN Y=2.1 % relative (B=1.10E-04,C=1.28E-9,D=4.08E-14)
##CAS NAME=1,4-Dimethylbenzene
##CAS REGISTRY NO=106-42-3
##MOLFORM=1,4-( C H3)2 C6 H4
##MP=13.26 C
##BP=138.35 C
##$NIST SOURCE=QUANT-IR
##SPECTROMETER/DATA SYSTEM=IFS66V (Bruker)
##INSTRUMENT PARAMETERS=KBr Beam Splitter; MCT Detector; Multipass cell
##STATE=gas
##SAMPLE DESCRIPTION=p-Xylene Primary Gas Standard
##PRESSURE=101.3 Pa
##TEMPERATURE=23 C
##SAMPLING PROCEDURE=1 L/min Flow
##RESOLUTION=0.9640
##DATA PROCESSING=NB Strong Apodization
##XUNITS=cm-1
##YUNITS=(micromol/mol)-1m-1 (base 10)
##XFACTOR=1.0
##YFACTOR=9.0949E-13
##DELTAX=0.4820
##FIRSTX=575.17
##LASTX=3974.605
##FIRSTY=1.62E-06
##MAXX=3974.12
##MINX=575.17
##MAXY=.0006317
##MINY=-9.77E-07
##NPOINTS=7052
##XYDATA=(X++(Y..Y))
575.17 1789386 2151523 1712951 1067814 870125 593435
577.58 126050 970386 1136557 537603 187163 869624
580.47 1099166 324927-569236-640400-759401-567707
583.37-386330-339039-6763 218212 339252 831079
586.26 455773-84028 61048-211830-504720-982274
589.15-96829 722659 441094 170039 305542 352520
592.04-22095-285512-428990-393712-280599-421137
594.94-681641-946093-126142 458504-121934-541392
597.83-441609-492659-681611-460134-201687-410056
600.72-915078-976470-574289-261134-612580-530200
603.62-614807-567085 9532-305249-738802-300181
606.51-568851-987983-1075065-976050-742432-377319
609.40-107820-239694-550197-356792-224100-569950
612.29-938914-844684-762496-894816-877147-693967
615.19-656442-941148-632538-197148 31726-887
618.08-516324-916480-988492-682047-398021-536964
620.97-549269-794123-748787-294785-138204-392892
623.86-593515-381132-421644-580233-765077-455893
626.76-436357-839154-993497-758921-370573-304387
629.65-98152-47749-319424-735416-387444-50007
632.54-335128-365911-594728-728186-578099-586058
635.44-908413-763333-374586-82401-128858-476977
638.33-307950-323260-766488-668091-196060-84988
641.22-153685-247734-352271-369984-311442-417594
644.11-382921-357935-550969-641306-412215-429363
647.01-282540-105335 5208 143258-292250-635441
649.90-331777-231584-351205-496312-538543-303640
652.79-115072-302022-436146-574947-521781-275063
655.68-273736-123062-29024-187833-519952-369335
658.58-188109-314054-338683-340878-230460-212068
661.47-431679-357262-123908-277950-355535-362745
664.36-391027-122806-136466-153606 44849 724506
667.26 991290 257014-255429-373692-54505-83792
670.15-301752-421089-316582-312684-458270-299918
673.04-275254-259474-403777-466666-222064-137241
675.93-58977-223267-248873-171964 95318 147931
678.83 229797 263131 207200-11135-270324-287366
681.72-227781-398164-463086-79378-445983-877365
684.61-493615-42683-10646-76867-32972 73674
687.50-59429 129749 161345 125105 245012 125494
690.40 164081 173037 114108 165716-34328-40359
693.29 80367 389293 385149 334341 373748 298183
696.18 333973 419978 467047 218065 130700 470850
699.08 505713 499442 762119 666570 403467 217762
701.97 26193 241358 185628 160788 249895 103259
704.86 120850 407293 411473 188951 175791 181296
707.75 275560 149091 92800 260671 230680 32872
710.65 37034 176550 267124 397247 501066 482538
713.54 276214 255786 331267 123826 65180 263131
716.43 346528 101629 210747 509539 377853 110636
719.32 95893 245201 224464 173086 230902 265751
722.22 284731 84784 21973 181989 259893 273884
725.11 228203 229946 294607 410073 471316 483032
728.00 265306 193435 369423 403189 433858 329242
730.90 414747 564533 466673 419458 367977 265842
733.79 340144 269156 177826 223460 288015 233796
736.68 79862 239330 340230 442662 391362 216226
739.57 397335 770657 992174 1101402 892431 365942
742.47 99038 268681 404493 463047 598492 540139
745.36 302579 282922 404159 529608 589965 589783
748.25 606651 693544 680576 604551 706733 772176
751.14 659270 777209 750759 732394 954174 1063294
754.04 1052609 1098595 1090218 983544 1017704 1230725
756.93 1240485 1217900 1404426 1587200 1737566 1808867
759.82 2093822 2433708 2473902 2713992 3096843 3191380
762.72 3682499 4360905 4750562 5338869 6034305 6834311
765.61 7636831 8628912 9686073 10863863 12191867 13280070
768.50 14425919 15972638 17780530 19611965 21557588 23752100
771.39 26085800 28861265 31778746 34928212 38424118 42014113
774.29 46049973 50394777 54992889 60005562 65136226 70195838
777.18 75705372 81579681 87443167 93496914 99450327 105646030
780.07 111792109 118231960 124939266 131684464 138099518 144786341
782.96 151205491 156864395 161896522 166810924 171977800 178100345
785.86 184970017 191285354 194064802 193420744 191077357 189280244
788.75 189043641 190330676 192169791 194932598 198653060 204158548
791.64 213608766 231109740 261397387 312664942 394240574 509201664
794.54 641863891 694597130 561092893 368244545 256466372 213987463
797.43 200102582 195362688 194707054 195181499 196573740 197662506
800.32 197960142 197439765 196468979 195047044 193836594 192626058
803.21 190009131 185013163 179298081 174276957 169882042 165082089
806.11 159847638 153829473 147043027 139487694 131520906 123653947
809.00 115897870 108332129 101544946 94839743 88411003 82025294
811.89 75862340 69909180 63945849 58142833 52925159 47950802
814.78 43278241 39012660 35208795 31459571 28233349 25124882
817.68 22368784 19983480 17888882 16169281 14479217 13016770
820.57 12066417 11290487 10411145 9593108 9103285 8497085
823.46 8063398 7770792 7729469 7559395 7139033 6880424
826.36 6747876 6505005 6278979 5950280 5940840 5934957
829.25 5766795 5631862 5541819 5378612 5163255 5098087
832.14 5095257 4998359 4972909 4956180 4909714 4824460
835.03 4772093 4696996 4823061 4641169 4477415 4344968
837.93 4172710 3855486 3574910 3438060 3370294 3239937
840.82 2778385 2447649 2179888 2115673 2245420 2131867
843.71 1975084 1760037 1668501 1477231 1240521 1266159
846.60 1411671 1470163 1481908 1365527 1240831 1047706
849.50 780929 786308 1091083 1151015 1048127 1107837
852.39 1156569 1134433 987093 826355 888069 971417
855.28 957945 951235 999767 936830 957993 1026625
858.18 1014437 939539 897188 794333 861967 931777
861.07 887571 834143 976364 1038922 1042768 1059047
863.96 955044 1105478 1145491 1018849 877106 837946
866.85 1002566 1058589 1016870 1077482 1219458 1216039
869.75 1217667 1289554 1172596 1239374 1230641 1147299
872.64 1239249 1216058 1271757 1262127 1232105 1223208
875.53 1136627 1197583 1269017 1234931 1362422 1408215
878.42 1281076 1181352 1162703 1322628 1466492 1438668
881.32 1293330 1113848 1063273 1121186 1298700 1311192
884.21 1311097 1442839 1503803 1523257 1495521 1376307
887.10 1387621 1359282 1523311 1611406 1608801 1606133
889.99 1570581 1500624 1458359 1464592 1605194 1648685
892.89 1602618 1635215 1558116 1568259 1605304 1612493
895.78 1629058 1675321 1640855 1585928 1679143 1694938
898.67 1595402 1556716 1569728 1572403 1624117 1637215
901.57 1611430 1581363 1530013 1617739 1637178 1590741
904.46 1621640 1751764 1768014 1793477 1828698 1798267
907.35 1881394 1897606 1816942 1867114 1924411 2020575
910.24 2106869 2262018 2293723 2373388 2476770 2647206
913.14 2604030 2567149 2674460 2734822 2902147 3077430
916.03 3036837 2854942 2890677 3023855 3007894 2985991
918.92 2948450 2997352 3072583 3060594 3079586 3181984
921.81 3240799 3258312 3219944 3221837 3267466 3311737
924.71 3299583 3203514 3263457 3279498 3265374 3374963
927.60 3399018 3273554 3137986 2860634 2753532 2834758
930.49 2931146 3044169 3073932 3003116 2916550 2783013
933.39 2676941 2718537 2824328 2770228 2777958 2729907
936.28 2637550 2617486 2648387 2581767 2617093 2856058
939.17 2905532 2729969 2736873 2862995 2903849 2937720
942.06 2939031 3018457 3073105 3063702 3175143 3215337
944.96 3225557 3275291 3314786 3364701 3495835 3529702
947.85 3545047 3579614 3606358 3689984 3656476 3682493
950.74 3785229 3880815 3953442 3984435 4117651 4165888
953.63 4248073 4322815 4290952 4348221 4534698 4683339
956.53 4709176 4633638 4679518 4798502 4799134 4685472
959.42 4611243 4686700 4917273 4995651 4876802 4717590
962.31 4685694 4801612 4769170 4710386 4773289 4920227
965.21 5044007 4995026 5005328 5029627 5124428 5124192
968.10 5089256 5260858 5367890 5461846 5453385 5309702
970.99 5218890 5171935 5044394 4986606 5022699 4992952
973.88 5013145 5014106 4918125 4888368 4859354 4920403
976.78 5004528 5020438 5010503 4985838 4891190 4795193
979.67 4818681 4902570 4843420 4769092 4784132 4825271
982.56 4930445 4928210 5008698 5026171 4951117 4944686
985.45 4915625 4889718 4876009 4863819 5048814 5054200
988.35 5094514 5152102 5177481 5267455 5305980 5225673
991.24 5226653 5397357 5432882 5393401 5457564 5425406
994.13 5477026 5504271 5457983 5551388 5644360 5655209
997.03 5659357 5720804 5735653 5695942 5742019 5693703
999.92 5624882 5641771 5675489 5684698 5623503 5471818
1002.81 5375782 5357961 5288160 5297489 5289199 5378487
1005.70 5406977 5353585 5344228 5418361 5561306 5691600
1008.60 5978487 6281639 6547419 6869053 7292287 7821894
1011.49 8497847 9194089 9921780 10961093 12250536 13619891
1014.38 14969650 16399427 17876840 19532150 21322056 22937200
1017.27 23965145 24420538 24714194 24671115 24227771 23600361
1020.17 22595694 21676837 21175812 21022705 21498835 23741153
1023.06 28454393 32666387 30798206 24455823 21353372 21676205
1025.95 23150534 24907023 26568200 27992864 29091209 29777155
1028.85 29810099 29407584 28992166 28126229 26889653 25684678
1031.74 24605576 23513923 22180198 21425768 20974526 20346470
1034.63 19795014 19347511 19053246 18907960 18947907 18995230
1037.52 19029938 19099793 19285092 19544474 19952108 20513537
1040.42 21199135 21958518 22855059 23973930 25016974 25619525
1043.31 26038565 26527580 27073215 27613866 27481392 27005857
1046.20 26702520 26635588 27034408 27539471 27818230 28013216
1049.09 27714790 27050992 26778026 27019362 27301577 27269688
1051.99 26954890 26677958 26239124 25853543 25739319 25656070
1054.88 25403387 24958928 24518179 24069498 23702613 23307353
1057.77 22757079 22281103 21964843 21534574 21029048 20718137
1060.67 20390118 19994631 19692604 19336885 18941281 18580202
1063.56 18185043 17706971 17240614 16825751 16411230 15956823
1066.45 15536714 15135666 14719182 14458002 14241970 13919115
1069.34 13554289 13323005 13112062 12666991 12361399 12126448
1072.24 11765252 11466230 11290532 11045333 10887376 10796251
1075.13 10648839 10487618 10338621 10160799 9949245 9923392
1078.02 9952788 9832121 9721023 9647402 9793959 9903297
1080.91 9945591 10051245 10137306 10397768 10508034 10436412
1083.81 10604214 10919795 11082243 11332039 11634347 11885602
1086.70 12223225 12485243 12848174 13338219 13836525 14218011
1089.59 14714076 15253864 15821192 16417655 17067023 17673850
1092.49 18165878 18577426 19023367 19507379 19870672 20108453
1095.38 20419548 20699890 20823256 20861208 20828505 20728459
1098.27 20345038 19922823 19576063 19488036 19671219 20046073
1101.16 20559252 21200637 22146879 23427344 24533182 25437901
1104.06 26422266 27403782 28184160 28931916 29488811 30151773
1106.95 30834642 31412330 32033638 32720229 33472249 34434639
1109.84 35553518 36640534 37921291 39247755 40476787 41748210
1112.73 43223833 44344482 44973843 45450628 45602678 45254666
1115.63 44452239 43209972 41423455 39012094 36290803 33523643
1118.52 31044248 29148930 27972350 27614219 28301442 29734269
1121.41 31535484 33631793 35658579 37347165 38651977 39411450
1124.31 39684785 39725955 39487322 38731470 37578334 36256064
1127.20 34802555 33162256 31245986 29347418 27476990 25721143
1130.09 24144866 22597068 21045592 19725492 18516513 17408001
1132.98 16584130 15642844 14738610 13869263 13035680 12294160
1135.88 11666602 11060485 10463753 9884739 9321579 9004073
1138.77 8586116 8180039 7785748 7322886 7066309 6886607
1141.66 6527204 6189018 5851591 5595787 5454835 5309065
1144.55 5125282 5057114 4868043 4651650 4586975 4455541
1147.45 4339322 4248494 4194853 4113181 4023416 3966579
1150.34 3853578 3799517 3770048 3765124 3802180 3632332
1153.23 3575287 3604985 3587262 3560722 3673239 3609787
1156.13 3478772 3394971 3377013 3520918 3564037 3496217
1159.02 3498435 3488167 3445815 3359820 3373765 3449367
1161.91 3468641 3464989 3529545 3517453 3465068 3452391
1164.80 3509616 3481578 3440008 3592502 3679050 3778193
1167.70 3822349 3755915 3635932 3572708 3637168 3720599
1170.59 3716844 3672161 3663919 3741157 3738838 3665812
1173.48 3608812 3615450 3801134 3972891 3933276 3851987
1176.37 3770344 3710860 3761261 3869612 3853361 3737758
1179.27 3740201 3757902 3793590 3760074 3794508 3780191
1182.16 3736078 3728081 3624502 3535612 3591920 3658702
1185.05 3682262 3543565 3470801 3424550 3358092 3265944
1187.95 3245582 3209893 3192588 3232152 3230841 3199646
1190.84 3304899 3258048 3121369 3079931 3077761 3061574
1193.73 3111828 3080318 3022374 3011192 2962853 2935013
1196.62 2853022 2777206 2864480 2916806 2895179 2915014
1199.52 2956317 2930861 2951141 3033970 3182393 3207808
1202.41 3124904 3191152 3264397 3318104 3498872 3743485
1205.30 3991526 4199300 4551466 4962298 5202318 5598195
1208.19 6140705 6664451 7205089 7892054 8720305 9555999
1211.09 10370886 11143198 11861034 12648444 13275983 13849542
1213.98 14317086 14622205 14792015 14753277 14736121 14657135
1216.87 14350993 13879967 13439484 13401784 14029883 15182346
1219.77 16517877 17490264 17214497 15506013 13999095 13911983
1222.66 14737010 15896022 16986642 17976452 18697799 19088496
1225.55 19247985 19140670 18744083 18189901 17516497 16852910
1228.44 16261154 15763937 15338322 14937803 14725313 14644050
1231.34 14703144 14784581 14820801 14869523 15079468 15157138
1234.23 15068542 14882794 14642564 14348868 14118786 13816953
1237.12 13496617 13401235 13605658 13914408 14315898 14659152
1240.01 14749093 14518269 14132175 13793764 13589475 13347889
1242.91 13187656 13226209 13097845 12860800 12627114 12231975
1245.80 11700499 11093006 10426934 9785830 9110153 8519821
1248.69 7854199 7193571 6738627 6270864 5826761 5558817
1251.59 5262770 4911585 4689935 4645235 4530078 4358676
1254.48 4129204 4001189 3925814 3984673 3916994 3763385
1257.37 3634228 3662465 3710362 3653470 3469680 3360784
1260.26 3378748 3317817 3235754 3228483 3199797 3148535
1263.16 2980211 2930095 3127364 3301912 3347557 3262455
1266.05 3228287 3315732 3363546 3308369 3169668 3096717
1268.94 3188314 3231496 3154465 3107274 3075430 3010762
1271.83 2901188 2897364 2851091 2736965 2809995 2843435
1274.73 2748620 2717882 2691292 2599797 2624419 2602324
1277.62 2564526 2544749 2559673 2535039 2554092 2547741
1280.51 2486530 2544965 2506142 2492390 2577890 2534251
1283.41 2494007 2546574 2552953 2573157 2588237 2565986
1286.30 2552560 2609124 2700610 2662768 2601020 2551460
1289.19 2605101 2669684 2725710 2784057 2632124 2603519
1292.08 2664810 2751440 2807955 2767851 2761057 2777096
1294.98 2773422 2864563 2941499 2972450 3022527 3115230
1297.87 3127712 3095852 3144685 3228677 3195590 3282994
1300.76 3523352 3688180 3649018 3685998 3826758 3925933
1303.65 4024263 4198589 4405843 4698033 4828739 4615955
1306.55 4516013 4658308 4755547 4823500 4903953 4925854
1309.44 5097510 5260038 5343798 5402959 5460652 5524158
1312.33 5571562 5555068 5491678 5446231 5439494 5364890
1315.23 5288351 5327156 5295590 5294907 5345986 5411150
1318.12 5546603 5707746 5907564 6180282 6321174 6353234
1321.01 6353716 6481557 6601287 6677663 6636322 6697061
1323.90 6724896 6592117 6503324 6511708 6636580 6764594
1326.80 6805671 6821203 6858230 6888277 6940192 6977903
1329.69 6906590 6948748 7078864 7152737 7249858 7248894
1332.58 7139722 7187690 7246544 7210645 7224129 7370856
1335.47 7524412 7611891 7703608 7913692 8084735 8114732
1338.37 8329137 8676894 8886938 9052725 9259113 9612580
1341.26 9890366 10067974 10416767 10595512 10443167 10187926
1344.15 9942603 9777808 9652232 9528055 9503994 9518230
1347.05 9388836 9222825 9013570 9122422 9172209 9133710
1349.94 9149042 9116179 9045326 9058709 8969808 9078136
1352.83 9443286 9673451 9713104 9792627 9729678 9356353
1355.72 9554447 9635006 9313741 8997568 9128651 9153218
1358.62 8939794 8668546 8539890 8588721 8729222 8837054
1361.51 8825666 8778041 8967322 9064425 9149539 9142534
1364.40 9230120 9560097 9775055 9755203 9785477 9953674
1367.29 10102961 10144529 10247010 10317923 10382248 10396725
1370.19 10541666 10692065 10902404 11238062 11621745 12032197
1373.08 12464525 12943129 13469544 14150188 14926791 15705765
1375.97 16457130 17312284 18279881 19206106 20105158 20909252
1378.87 21463944 21791449 22017870 22128924 22291591 22493418
1381.76 22969005 24270698 26656361 28286521 26471806 24098153
1384.65 23680976 24331169 25362529 26425459 27222520 27757696
1387.54 28210661 28349061 28452645 28436682 28255544 27741083
1390.44 27018459 26305345 25662630 24929922 23989750 22934180
1393.33 21971291 20927505 20224026 19759446 19287693 18933236
1396.22 18602554 18266229 18003645 17812059 17645804 17471632
1399.11 17374195 17334158 17341639 17364269 17574934 17789793
1402.01 17963867 18166196 18389335 18531570 18686617 18840995
1404.90 19099995 19397396 19719154 20120434 20529439 20829580
1407.79 21062882 21371731 21694115 21924858 22369226 22772313
1410.69 22922480 23113102 23454879 23910301 24248871 24755053
1413.58 25314927 25674520 25734706 25833785 26231047 26717566
1416.47 27287689 27857714 28575785 29270587 29706733 30060888
1419.36 30923121 31855166 32532291 33146752 33721872 34491104
1422.26 35303712 35929818 36408372 36940926 37507974 37869468
1425.15 38310986 38855812 39287147 39697924 40052396 40038757
1428.04 39847848 39686746 39427952 39267756 39383199 39738259
1430.93 40180587 40326772 40159448 39905343 39809670 39938270
1433.83 40112017 40203655 40090100 39967244 39847949 39775597
1436.72 40084485 40250957 40189380 40059946 39935718 39780049
1439.61 39533064 39227679 39021007 38648429 38069609 37302342
1442.51 36256019 35178075 34283425 33656244 33080663 32496484
1445.40 32075045 31750694 31408953 31143577 31221138 31481164
1448.29 31819648 32262971 32670167 33235033 33950281 34758008
1451.18 35562610 36260276 37107189 37786305 38123826 38164123
1454.08 38017620 37774966 37483621 36846113 35743612 34940997
1456.97 34758130 34425793 34308482 34483806 34631651 34869638
1459.86 35232889 35652477 36146481 36868729 37844374 39033728
1462.75 40307615 41490368 42525154 43280679 44213290 45428619
1465.65 46458441 47434029 48454422 49544493 50629589 51425486
1468.54 51995481 52518049 52810881 52649581 52026341 51057068
1471.43 49938480 49041653 48070290 46733289 45731350 44989148
1474.33 44136952 43199544 42062660 41101829 40551127 40051370
1477.22 39571809 39248524 39140748 39257975 39575213 40081135
1480.11 40475655 40764017 41256615 41981440 42818627 43642906
1483.00 44271158 44924691 45557143 45874713 45867725 45699204
1485.90 45609720 45621133 45531670 45384533 45204279 45024898
1488.79 44917397 44776447 44678376 44536825 44528957 44659249
1491.68 44756487 44966877 45424979 46260574 47474498 48880423
1494.57 50120845 50862264 51210734 51881393 52943081 53885430
1497.47 55117767 56437341 57552212 58512474 59278950 59863968
1500.36 60299266 60653793 60980650 61338768 61830453 62502785
1503.25 63330053 64523846 66303862 68547102 71444818 75348074
1506.15 79581570 84712952 91363709 98638159 106668408 116050548
1509.04 126515021 137977208 150567804 164129383 178452883 193049096
1511.93 207621461 221912868 234885328 246055901 254996487 260674137
1514.82 262042889 259275382 253715440 247153705 240794366 236583506
1517.72 237263055 245255698 260944449 278888256 289947792 286682272
1520.61 268561599 246317839 230549631 225281358 229855563 239080975
1523.50 248853799 257323372 263157225 265266933 262532967 253622019
1526.39 240453925 225169549 208656193 191504907 174539355 158293913
1529.29 142945859 128670134 115677129 103732331 92902536 83351743
1532.18 74894710 67431454 60962815 55434667 50784483 46578336
1535.07 42900902 39710532 37044395 34754506 32678887 30902010
1537.97 29214720 27438325 26397552 25479428 24596405 24171571
1540.86 23533839 22437495 21704386 21428308 20861889 20269996
1543.75 19739321 19127142 18549444 18368918 18196387 17924145
1546.64 17603130 17257218 17018552 16885396 16773485 16618367
1549.54 16545871 16487233 16364190 16264387 16071899 15823242
1552.43 15623899 15356168 14965304 14526288 14562121 14462139
1555.32 14081404 13823697 13654470 13247374 12952611 12520851
1558.21 12336512 12653350 12389576 11894152 12008332 12236336
1561.11 12104620 11918511 11735495 11645417 11567810 11419027
1564.00 11116058 10924127 10812859 10725242 10607812 10503454
1566.89 10352027 10140754 9955302 9774724 9503696 9242437
1569.79 9228143 9191331 9016827 8869524 8688962 8575844
1572.68 8413449 8293641 8186175 8043292 7798519 7357089
1575.57 6648860 6800361 7173987 7093647 6921902 6757326
1578.46 6690275 6727702 6654591 6604270 6565818 6454946
1581.36 6355607 6188874 6203162 6246950 6119737 6013723
1584.25 5903546 5888094 5855353 5696318 5558159 5567124
1587.14 5587741 5536240 5453232 5351107 5374635 5400644
1590.03 5387839 5397482 5424387 5540690 5734157 5864948
1592.93 5849405 5867827 5814946 5809933 5842988 5864542
1595.82 5956760 5921122 5879518 5919597 6072850 6119818
1598.71 6089013 6185287 6256032 6213100 6258151 6365015
1601.61 6385385 6469614 6600696 6776777 6960369 7105188
1604.50 7195072 7333533 7505920 7691137 7865085 8094673
1607.39 8354025 8612937 8912477 9168482 9374279 9617490
1610.28 9804578 10113958 10499875 10854171 11191487 11608743
1613.18 12133615 12623291 13006368 13414232 13920345 14223070
1616.07 14128101 14796042 15815485 16388882 16877345 17328714
1618.96 17747292 18134625 18350848 18475154 18653085 18691694
1621.85 18668840 18580673 18299402 18052901 18011798 17618528
1624.75 17083728 16598933 16186441 15857676 15614575 15495440
1627.64 15627422 15977484 16467572 16876064 17081383 17239439
1630.53 17372896 17370940 17404365 17194175 16753509 16324649
1633.43 15722648 14978322 14129232 13146370 12585087 12305909
1636.32 11694182 11009059 10420875 10053877 9592225 8977662
1639.21 8475597 8064023 7685411 7305697 7014734 6674908
1642.10 6318433 6023419 5653094 5288181 5036595 4784012
1645.00 4282923 3805408 3872836 3878164 3603566 3415738
1647.89 3297064 3346191 3353398 3152742 2976095 2841368
1650.78 2751019 2406609 1645044 1460412 1437275 1809895
1653.67 2089763 2131083 2360857 2351552 2281490 2244596
1656.57 2278430 2256877 2254333 2187387 2146119 2034061
1659.46 1955369 1962475 1991951 1983835 2128416 2068662
1662.35 1911413 1981317 2058380 2075787 2104649 2097545
1665.25 2054618 1989352 1914353 1866040 1805484 1677143
1668.14 1580393 1353813 1344684 1548152 1615701 1558610
1671.03 1415665 1432552 1603989 1646663 1660718 1657164
1673.92 1503915 1170881 1023755 1254171 1460677 1430004
1676.82 1357936 1324896 1301014 1216015 1168647 1146249
1679.71 1037097 1042489 1117932 1206512 1157195 1010582
1682.60 826662 824916 773286 238927 131323 734978
1685.49 990342 1037754 1037642 1102028 1089769 1057688
1688.39 1051031 1029191 950319 971814 1045951 1017730
1691.28 983149 1028932 995706 978415 917069 953684
1694.17 912916 702656 126125 47888 648589 927921
1697.07 997488 950249 927673 842473 455627 115135
1699.96 210456 505942 818663 882168 860805 877135
1702.85 901023 873845 750289 861475 948935 873059
1705.74 781695 762875 866290 947132 1003465 1098307
1708.64 1156915 1079369 1026819 1117492 1155335 1138446
1711.53 1223848 1332613 1444231 1472995 1491198 1554530
1714.42 1537641 1605717 1833695 1940978 1864766 1578853
1717.31 1922606 2358604 2575350 2887368 3015396 3117022
1720.21 3227757 3315996 3332949 3292763 3278416 3286635
1723.10 3161369 3105512 3099082 3068207 3044699 3049877
1725.99 3140028 3255892 3300679 3317856 3248546 3169706
1728.89 3141227 3121830 3122768 3115356 3073791 3055277
1731.78 3026126 2823569 2320411 2259371 2203304 2037046
1734.67 2324652 2465492 2468080 2496191 2575830 2497300
1737.56 2492086 2495183 2469838 2390286 2364303 2528338
1740.46 2658226 2727760 2726913 2796077 2929222 3045504
1743.35 3139555 3180376 3254078 3228226 3237271 3273460
1746.24 3288145 3371602 3553375 3506079 3455694 3572318
1749.13 3648368 3652943 3597217 3435149 3512887 3851003
1752.03 3940454 3895853 3833486 3792450 3756816 3768155
1754.92 3781406 3808965 3734660 3560323 3573061 3679828
1757.81 3663328 3579940 3517226 3552531 3582659 3522495
1760.71 3338769 3027394 3028673 3200534 3135207 3035963
1763.60 3090996 3180402 3231154 3207545 3119445 3019514
1766.49 2966215 3028213 2974165 3041739 3232072 3251661
1769.38 3293272 3326616 3333196 3408052 3628801 3495306
1772.28 3430258 3908849 4218688 4367265 4617192 4873803
1775.17 5100376 5378517 5699681 6060614 6459308 6912006
1778.06 7410368 7907730 8463676 9069082 9621441 10219313
1780.95 10858426 11419665 11873125 12256096 12612446 12860152
1783.85 12946221 12797369 12656009 12544776 12348451 12125726
1786.74 11883686 11664654 11520389 11570722 11901383 12444880
1789.63 13146183 13534402 13340049 12854550 12223333 11649091
1792.53 11685715 11834654 11743628 11523873 11242700 10934184
1795.42 10457655 9966969 9435246 8720432 7967494 7254050
1798.31 6572928 5859536 5262655 4768187 4211910 3693655
1801.20 3417937 3197033 2913466 2667776 2450192 2262768
1804.10 2114250 1935503 1782157 1722920 1661888 1605726
1806.99 1569121 1449807 1323831 1279685 1226032 1194073
1809.88 1108953 1008921 996211 1002948 1037032 1040985
1812.77 967306 875435 898231 993631 1006329 1016130
1815.67 1037241 959186 915279 957734 962669 954682
1818.56 942859 943007 1028919 1074448 1104014 1140796
1821.45 1171725 1182734 1246039 1329345 1386634 1384391
1824.35 1371092 1429940 1633951 1737399 1799307 1916872
1827.24 2047635 2197863 2269973 2371924 2567182 2699221
1830.13 2869310 3026379 3139246 3316858 3489608 3596866
1833.02 3703077 3776164 3716422 3742564 3827226 3908805
1835.92 4008361 4116155 4214877 4238339 4286297 4294627
1838.81 4261242 4241169 4308167 4426127 4503540 4494537
1841.70 4488978 4537824 4557146 4377993 4113366 4190678
1844.59 4247330 4130923 4118380 4030488 3844938 3682373
1847.49 3571574 3450394 3262047 3144679 3093942 3053583
1850.38 2919207 2744771 2624021 2596621 2579735 2532680
1853.27 2515292 2470331 2442249 2405747 2356581 2371759
1856.17 2332332 2272381 2270906 2332950 2319993 2353578
1859.06 2415634 2453045 2504389 2577132 2622059 2678601
1861.95 2797980 2998036 3212852 3375062 3522806 3671892
1864.84 3837954 4081422 4267762 4450139 4709842 4929772
1867.74 5216849 5542123 5752511 6147964 6614721 6889567
1870.63 7252283 7702748 8077017 8492056 8972302 9486664
1873.52 10053459 10551324 11063823 11633239 12191637 12763861
1876.41 13470550 14270609 15095408 15908053 16724954 17585420
1879.31 18388271 19205277 19997229 20806386 21659306 22384642
1882.20 22945846 23260215 23481160 23491522 23305932 22984421
1885.09 22470144 21854356 21156913 20256825 19273984 18384744
1887.99 17606316 17128644 17004879 17268567 18048978 19067782
1890.88 20221380 21489578 22650714 23569880 24060459 24228007
1893.77 24057407 23662510 23020663 22098317 21068929 19966877
1896.66 18994727 18083595 17085808 16193343 15235273 14142985
1899.56 13119320 12258214 11501963 10839012 10225911 9689253
1902.45 9269399 8765972 8168956 7644635 7191902 6838984
1905.34 6509917 6187936 5907003 5593410 5311642 5007830
1908.23 4701389 4385069 4122981 3893275 3789844 3702548
1911.13 3574094 3420681 3311280 3244744 3126720 2967416
1914.02 2848352 2858435 2868428 2771200 2713717 2648999
1916.91 2541830 2439185 2487414 2561670 2540358 2512521
1919.81 2568475 2614199 2568785 2526538 2521340 2521167
1922.70 2473631 2450164 2444752 2464054 2420147 2309448
1925.59 2251805 2243444 2253332 2227134 2218487 2158214
1928.48 2127338 2096039 2070238 2067068 2063486 2040230
1931.38 1971243 1956014 1907328 1796140 1697808 1643994
1934.27 1626756 1606453 1508684 1388328 1303397 1200591
1937.16 1146301 1056613 996314 965456 924423 897623
1940.05 907875 919523 904917 821191 774005 862718
1942.95 882696 866152 884906 902945 843004 838558
1945.84 868349 827590 840516 847263 898749 960563
1948.73 993746 1000729 1017523 1058130 1050821 1041846
1951.63 1038218 1065928 1119532 1213525 1279345 1284206
1954.52 1295897 1284049 1385115 1493203 1488907 1480374
1957.41 1493381 1339754 1126690 1065597 1046330 1046577
1960.30 1018950 960679 1026546 1011810 932490 968078
1963.20 981663 1024884 1143619 1087918 1060429 1067835
1966.09 1042416 1061740 1089248 1041857 1086133 1136798
1968.98 1088032 1091378 1096695 1104191 1157597 1200854
1971.87 1194142 1143684 1215429 1374997 1507237 1402067
1974.77 1190027 1171157 1240901 1284270 1354873 1363777
1977.66 1344663 1312727 1299354 1385688 1428637 1471187
1980.55 1556352 1572377 1485149 1446455 1498759 1517155
1983.45 1443636 1345773 1328460 1401795 1437988 1499967
1986.34 1523516 1474889 1516448 1490825 1376450 1366589
1989.23 1396512 1390594 1365930 1298836 1274172 1271636
1992.12 1247324 1236176 1256332 1291953 1280535 1344206
1995.02 1367395 1293968 1287724 1342544 1293029 1211767
1997.91 1140292 1093734 1126520 1145947 1095803 1052903
2000.80 1029408 998879 1056368 1087844 1048122 1018780
2003.69 1010134 1045364 1008339 950639 974347 1015688
2006.59 980018 749213 673474 937969 976418 858338
2009.48 791663 857990 852956 804030 788778 746625
2012.37 674611 657553 686794 697914 660979 645067
2015.27 645991 567219 471240 428791 474278 476503
2018.16 461686 487099 446614 401183 340439 371174
2021.05 341477 276308 261125 201306 209907 260792
2023.94 298728 297862 299103 353391 431480 411104
2026.84 380404 314417 358049 366254 291044 287760
2029.73 247810 241004 294878 321562 315818 351815
2032.62 395366 429126 405238 343759 324749 404227
2035.51 351037 260865 217989 209862 200485 243150
2038.41 306727 359521 342092 302040 314620 337978
2041.30 398134 415739 393790 338287 346204 384114
2044.19 382866 359721 291400 273719 288017 213496
2047.09 144752 137117 167837 176691 220972 221377
2049.98 223876 235250 200733 194038 155074 80276
2052.87 26395 50009 48252 44333 26588-45445
2055.76-57075-38621-66162-59615-14747-5358
2058.66-3705-38857-114194-168242-160394-148801
2061.55-77771-55084-141070-227794-129643-61019
2064.44-146306-108723-71761-87350-138867-136123
2067.33-112603-123897-62235-63318-82184-106975
2070.23-73094-5572-52758-89513 33924 137015
2073.12 110876 44196-16196-12481 55992 43578
2076.01 10013 90571 268128 233772 109968 42797
2078.91-21646 26666 70521 65831 131804 347782
2081.80 370717 286310 266884 218586 234151 207830
2084.69 243767 369701 668659 620407 364603 345186
2087.58 344883 370428 436514 524916 704111 983050
2090.48 845902 647810 692446 740180 811611 829607
2093.37 934419 1297065 1707789 1504580 1415152 1543417
2096.26 1598823 1605197 1634431 1745769 2219984 2541737
2099.15 2098590 1849479 1793689 1787921 1815040 1931962
2102.05 2096548 2602182 2720966 2299136 2193104 2107942
2104.94 2070293 2022687 1975645 2222358 2762237 2491302
2107.83 2076007 1974645 2011349 1967280 1831421 1823609
2110.73 2248530 2259779 1539121 1233258 1057799 972343
2113.62 847048 709226 950632 1463717 1010577 489100
2116.51 309307 265446 202795 175160 295581 780726
2119.40 779492 152590 48308 91579 65062 56798
2122.30 152400 503930 855010 315163-39321-119914
2125.19-149430-145301-73312 199225 610193 221601
2128.08-123931-185010-183587-165276-116298 22062
2130.97 379731 224236-116337-111080-110800-196442
2133.87-200772-98578 181459 188498-69191-136750
2136.76-161406-227919-274269-169844-36247-22438
2139.65-171796-256054-304272-297942-251258-168652
2142.55-100086-94304-146453-197120-164698-124590
2145.44-131496-93033 48353-6359-208531-201363
2148.33-217191-260017-254380-83727 243528 102794
2151.22-140842-166096-192296-82763-44669 182954
2154.12 470773 130335-149661-111423-24144 3895
2157.01 36043 473348 598970 79818-25417-16958
2159.90-41638-7949 298046 868939 597637 50542
2162.79-8328-14337 57299 139731 640499 1003677
2165.69 410352 104109 63722 90875 161814 424487
2168.58 1063964 780935 143784 38145 1245 97140
2171.47 228183 853230 986560 341675 123736 132560
2174.37 167299 193437 644177 1138022 574394 114682
2177.26 157496 160870 125483 473967 1062141 635508
2180.15 128637 97899 16021-14100 153978 701217
2183.04 607586 115887 7660-81664-13340 197415
2185.94 724475 598035 115051-5927 12217 84744
2188.83 88164 493819 515860 122878-50803-172960
2191.72-81185 96197 527744 417432 1343-59581
2194.61 1898 67584 178480 445523 315927 95634
2197.51 139541 172599 159915 369314 676253 528449
2200.40 420647 448307 444464 570785 889967 952699
2203.29 705078 679551 727509 753465 804312 969074
2206.19 881686 759992 850280 868706 823733 885341
2209.08 945387 759258 685915 759284 785284 824838
2211.97 986684 978460 874520 895263 888847 853571
2214.86 864839 880143 876447 745694 541913 534921
2217.76 511778 444019 350031 274878 226153 195489
2220.65 242894 265316 173861 68118 108511 142871
2223.54 99734 45221 66836 123747 50023-10920
2226.43 15728 34626 11029-24913-8490-6532
2229.33-79796-71159-11361-48447-51435-13212
2232.22-12934-3492 33314 3335-96822-62558
2235.11-63728-117877-82066-2055 8217 25420
2238.01 6400-27570-60895-82189-51498-64529
2240.90-119961-147624-218072-249271-197474-168124
2243.79-161804-86141-95082-134533-158738-159209
2246.68-194860-227098-190479-180597-232165-197821
2249.58-197814-214129-144702-104226-155093-176612
2252.47-205050-223698-206073-170493-222168-231750
2255.36-209945-203099-171573-88932-102678-103342
2258.25-55314-3294-33797-11098 16422 39645
2261.15 32934 1516-4058 18543 7776 82069
2264.04 113509 31712-33413 39593 183899 168775
2266.93 122528 165359 223382 324996 366868 296512
2269.83 257149 311581 345511 372475 352615 389944
2272.72 400730 375567 431100 507496 501138 529896
2275.61 522106 482893 530130 591936 593295 597562
2278.50 650614 743801 712176 675565 664367 686181
2281.40 675935 696565 696978 693748 691097 706990
2284.29 670766 676725 776861 843100 886077 921664
2287.18 880592 873996 964143 1038874 1032373 1023726
2290.07 1024803 1072235 1188289 1251814 1297563 1324296
2292.97 1357459 1510188 1601141 1600961 1734906 1861747
2295.86 1887128 1917894 2022373 2216078 2320912 2330058
2298.75 2373624 2596950 2689544 2617646 2618010 2695075
2301.65 2695105 2639943 2484149 2461928 2464471 2391265
2304.54 2202769 2053004 1933253 1952860 2110386 2087005
2307.43 2135157 2380679 2540019 2515138 2551250 2684052
2310.32 2890547 2962944 2894431 2904124 2870161 2877701
2313.22 2684061 2515933 2486105 2568443 2318433 2084649
2316.11 2058448 2396283 2273688 1918045 1821240 2124329
2319.00 1939515 1528537 1540193 1892275 1835150 1504614
2321.89 1536443 1942852 1833403 1413737 1547822 2064309
2324.79 1948459 1469550 1669812 2248989 2097094 1593894
2327.68 1894703 2508490 2115871 1631685 2187337 2669911
2330.57 2107091 1816681 2653948 3010927 2331231 2304126
2333.47 3132614 3008906 2263234 2660508 3420979 2969531
2336.36 2517226 3186446 3388470 2548519 2555972 3275048
2339.25 2950848 2381438 2989185 3403886 2782437 2812416
2342.14 3433298 3135558 2775148 3159943 3167773 2668041
2345.04 2706320 2871378 2511851 2302791 2383186 2299059
2347.93 2145880 1959243 1902412 1987643 1968278 1908671
2350.82 2007181 1909462 1764465 2033187 1806097 1483531
2353.71 1909624 1876488 1399489 1808161 1806403 1351933
2356.61 1984213 1934028 1400957 2045603 1797852 1281087
2359.50 2043320 1768498 1458895 1948982 1324717 1387010
2362.39 1856900 1222037 1595893 1622922 1164798 1707856
2365.29 1327092 1191713 1459568 1060255 1364153 1132467
2368.18 949331 1231794 895596 1062929 915367 899454
2371.07 1030192 693117 777295 590712 717554 704356
2373.96 614314 639205 639003 712333 593724 571907
2376.86 522292 575795 556411 573269 527047 539693
2379.75 531697 584424 527271 468431 433578 443322
2382.64 466930 440377 503869 575709 553357 444944
2385.53 425285 457816 478710 489540 572402 582310
2388.43 590484 612775 614751 588884 560506 589047
2391.32 593459 578637 583072 606014 660282 708419
2394.21 655502 616072 672569 690552 656527 626540
2397.11 591796 635497 687711 691852 761750 833634
2400.00 796773 821758 916825 986267 1015227 1042054
2402.89 1063850 1077522 1094587 1091509 1051491 1061870
2405.78 1145495 1203160 1265909 1309224 1379584 1363333
2408.68 1326153 1390018 1448307 1440054 1393671 1385822
2411.57 1426980 1410223 1374625 1369951 1406200 1514266
2414.46 1583682 1655578 1664727 1592270 1622331 1696700
2417.35 1752579 1731686 1704816 1685105 1691245 1667502
2420.25 1712865 1741901 1669805 1567793 1613166 1680279
2423.14 1709569 1684125 1651271 1624237 1667504 1679452
2426.03 1599653 1605149 1669663 1708954 1689829 1671109
2428.93 1649918 1662696 1638985 1617413 1612709 1570741
2431.82 1468524 1392314 1480552 1571835 1536145 1525453
2434.71 1458041 1412091 1488594 1517779 1474917 1515156
2437.60 1475763 1477613 1492303 1504131 1511395 1400217
2440.50 1289619 1321202 1367089 1271193 1287013 1272157
2443.39 1186207 1127931 1202174 1261202 1144044 1032846
2446.28 1005246 1039431 1030174 960592 1000732 1033880
2449.17 1004408 1011349 1019030 879138 854758 949985
2452.07 972674 927788 926723 922908 835242 828625
2454.96 887450 837553 794903 812612 848933 835566
2457.85 794962 796104 803081 809809 810563 882763
2460.75 897163 893762 896083 857338 778282 742048
2463.64 739733 785533 798149 849919 819350 850528
2466.53 952378 954760 886761 813032 807329 887001
2469.42 922676 897166 882587 921982 876234 832182
2472.32 869457 870470 872859 965150 1024181 934661
2475.21 876845 977814 1081003 1057158 970903 905249
2478.10 875810 913290 981371 885289 867968 885327
2480.99 952574 899593 798829 836730 843400 837540
2483.89 859455 875770 858061 915126 892940 757585
2486.78 741440 771532 868195 892118 826423 822072
2489.67 797635 769572 762315 806837 856482 798789
2492.57 732710 754295 840226 823357 829730 780957
2495.46 702812 637573 685282 733566 727596 738510
2498.35 736040 664038 570437 590665 606350 567933
2501.24 496688 514371 491842 540210 572089 521315
2504.14 509221 514040 529195 511118 479362 537479
2507.03 505150 453061 403041 377700 466493 457143
2509.92 380815 399635 357141 347814 392870 393130
2512.81 421016 409579 327752 316723 324967 338291
2515.71 384183 380364 380276 351276 324775 291536
2518.60 317789 338707 356575 282767 267298 332870
2521.49 289499 341476 424992 414965 355591 339990
2524.39 356726 369247 353670 344668 357160 341730
2527.28 358375 369353 281327 252593 312958 330384
2530.17 296265 324117 353189 305872 234715 245819
2533.06 258161 175810 169811 200701 299795 336068
2535.96 286298 179426 211227 351958 317837 257129
2538.85 266692 268369 356721 412388 380252 308826
2541.74 168620 144256 234902 222035 154116 143535
2544.63 149424 63330-5895-14572 7711 51312
2547.53 85134 70851 12484 6971-5689-57454
2550.42-86539-89403-103810-128809-84366-96789
2553.31-148991-216041-185085-153025-167930-283783
2556.21-291271-215681-224363-212934-232434-213011
2559.10-146487-54542 17138-89161-136445-135243
2561.99-175382-131531-120279-116450-94784-32187
2564.88-86433-153396-128621-46581-26179-65447
2567.78-12259 27342 31568 64228 50172 106857
2570.67 188716 205457 232814 258708 296758 368155
2573.56 410084 481961 614709 702361 716318 797202
2576.45 957163 1153113 1270418 1286719 1356389 1475562
2579.35 1631224 1899613 2040658 2028745 2126009 2310551
2582.24 2474339 2585955 2631850 2681759 2775657 2852835
2585.13 2957268 3044338 3119631 3204966 3234169 3261609
2588.03 3308531 3344857 3401176 3617699 3661014 3642892
2590.92 3720960 3791936 3839434 3882010 3929363 4052936
2593.81 3980089 3912956 3913072 3784335 3696133 3644600
2596.70 3478793 3259614 3190079 3134838 2969375 2757101
2599.60 2566251 2357080 2250708 2196421 2140105 2001128
2602.49 1909709 1959231 2032390 1941589 1771701 1729083
2605.38 1822587 1889509 1912707 1905650 1969115 1939850
2608.27 1813050 1649108 1542143 1484719 1451266 1399753
2611.17 1320805 1230766 1121644 1070330 1021247 982314
2614.06 917343 809118 768224 768541 744106 628485
2616.95 610556 714007 706504 583577 497790 556853
2619.85 550258 502372 423776 338447 383204 372330
2622.74 278106 226052 241308 261384 264156 175233
2625.63 103418 110351 8035 16272 130953 72502
2628.52 60461 32940 56755 166556 232313 244928
2631.42 168115 90053 140287 219632 256856 300583
2634.31 286074 259265 331212 350202 311435 348150
2637.20 285492 230218 321187 388414 365543 434403
2640.09 471090 428301 469320 498720 445163 352775
2642.99 336364 387688 441284 445464 323808 174751
2645.88 221978 375884 301234 223996 274090 321544
2648.77 296075 258061 355342 340182 281004 201282
2651.67 188512 192048 46136 49715 70057 75860
2654.56 21405-91157-72541-57972-93857-42967
2657.45-73219-176507-275090-127512-9963-94978
2660.34-157986-175085-211809-141597-84978-114627
2663.24-73849-54458-139876-145244-120081-97773
2666.13-127255-168665-195217-131822-73732-134312
2669.02-128724-81260-139028-189429-153646-102082
2671.91-99386-84655-128876-218611-213505-146007
2674.81-131156-201726-301403-254593-191197-194121
2677.70-223253-170396-109114-99153-136034-158374
2680.59-135997-111351-140610-199272-110258-15798
2683.49 14607-4120-4530-118609-230138-172419
2686.38-64076-37668-48990-55016-100527-4211
2689.27 34373 77757 45478 85588 145958 173754
2692.16 135461 129607 171474 211592 355556 368022
2695.06 313832 287435 340539 313253 281396 349339
2697.95 418864 454608 517505 543859 556122 675176
2700.84 833603 940881 964311 981819 1023932 1042697
2703.73 1044280 1054958 1123553 1179483 1272289 1415388
2706.63 1466128 1485032 1518653 1562438 1606963 1647069
2709.52 1622012 1643451 1693775 1790759 1862244 1877916
2712.41 1955592 1990381 1921446 1927420 1963572 2008203
2715.31 2046065 2049428 1987360 2017575 2069285 2111054
2718.20 2153541 2169734 2169402 2332624 2443221 2402386
2721.09 2337476 2326618 2445620 2488316 2548377 2600935
2723.98 2670650 2784492 2809950 2758391 2827173 2973428
2726.88 3180072 3252097 3390753 3633802 3873776 4112590
2729.77 4501068 4955711 5450257 5904808 6369560 6988932
2732.66 7752337 8414402 8973862 9654129 10543968 11344969
2735.55 12083629 12876324 13695353 14317468 14959603 15443720
2738.45 15681580 15846460 15921022 15891682 15775025 15645182
2741.34 15568925 15703695 16152412 17291642 18987559 19986205
2744.23 19134139 17185902 15884095 15665756 16114629 16777368
2747.12 17488397 17993268 18306201 18164226 17638487 16989394
2750.02 16132199 15051023 13809759 12490534 11166490 9849884
2752.91 8719867 7789886 6837739 6037629 5366987 4878937
2755.80 4422287 3972091 3628214 3368962 3060026 2769131
2758.70 2500580 2255358 2098828 2021858 1916085 1841488
2761.59 1791554 1679906 1597925 1480157 1331155 1232362
2764.48 1250247 1324837 1355011 1254146 1276344 1269610
2767.37 1222167 1139663 1120687 1226824 1248215 1073098
2770.27 925189 1010484 1064324 1190196 1238771 1198110
2773.16 1188067 1144413 1090992 1080575 1180887 1227321
2776.05 1166190 1152985 1219486 1271573 1330105 1253270
2778.94 1266159 1339907 1273456 1222102 1296632 1376151
2781.84 1385797 1283622 1232643 1282898 1426144 1510127
2784.73 1481041 1488507 1551565 1599427 1652586 1712734
2787.62 1797177 1772983 1690380 1639095 1755122 1898868
2790.52 1955845 2009089 1991945 2001635 2073996 2215399
2793.41 2261094 2199885 2327677 2435054 2471634 2526166
2796.30 2593385 2599987 2690849 2816658 2951169 2970226
2799.19 2890723 2950434 3038437 3187770 3363760 3421221
2802.09 3489314 3505225 3608046 3667233 3659799 3746063
2804.98 3805627 3815597 3893299 4051953 4128368 4074952
2807.87 3983463 3965524 4176528 4340146 4418062 4516512
2810.76 4611337 4770284 4845036 4901526 4973388 5072364
2813.66 5105201 5211444 5376737 5618239 5757019 5852442
2816.55 5993217 6080277 6113376 6266105 6461402 6610413
2819.44 6716949 6773310 6982282 7184634 7324543 7437584
2822.34 7679466 7915529 8013095 8134101 8216341 8328897
2825.23 8639963 8945401 9126910 9324928 9504000 9702634
2828.12 9927257 10102145 10361269 10640601 10804874 11027317
2831.01 11262654 11474794 11774278 12001208 12277540 12647317
2833.91 12854558 13075352 13254154 13353960 13513943 13735809
2836.80 13900614 13980612 14184961 14385077 14564557 14723521
2839.69 15024934 15425748 15770523 16038374 16413027 16811985
2842.58 17112088 17432483 17773653 18074763 18544501 19052056
2845.48 19364204 19667864 19901737 20134304 20494240 20860949
2848.37 21147717 21380485 22082659 22777694 23120444 23681966
2851.26 24430703 25065926 25789460 26716211 27671750 28706484
2854.16 29644948 30758290 32154335 33531949 34953040 36515787
2857.05 38057555 39606616 41457975 43524751 45507509 47532573
2859.94 49798768 52281765 54918694 57675225 60570702 63763822
2862.83 67039843 70556109 74314386 78003428 81983292 86155227
2865.73 90244118 94440032 98809634 103124131 107424228 111678637
2868.62 115889277 119958802 123994970 128048296 131879055 135547148
2871.51 139078981 142452052 145919314 149192880 152197563 155233971
2874.40 158023176 160749273 163147221 165331694 167497900 169248170
2877.30 170672048 171805067 172746359 173532890 174078116 174422327
2880.19 174708067 174669717 174480281 174189138 173572881 172787268
2883.08 171735553 170680303 169583517 168345996 166906464 165162360
2885.98 163314397 161429267 159546401 157487394 155335392 153328110
2888.87 151255091 149207491 147488088 145777623 143980353 142390112
2891.76 140838633 139362932 138050092 136765325 135681969 134355571
2894.65 133047816 131882428 130400065 128854305 127555035 126301754
2897.55 125108547 124117880 123288741 122334407 121275201 120232943
2900.44 119255869 118253300 117373749 116602493 115677491 114874328
2903.33 114110026 113211744 112276413 111393660 110666862 109993594
2906.22 109238807 108471291 107811654 107255120 106816518 106449659
2909.12 106176258 106115536 106177606 106370837 106609588 107021139
2912.01 107538301 108254777 109454081 110892763 112476877 114246072
2914.90 116234362 118770428 121335018 124107365 127093014 130182816
2917.80 133729519 137764277 141920979 146224519 151021595 156127306
2920.69 161476830 167183755 173099455 179244155 185716548 192405945
2923.58 199413291 206650314 214088953 221613591 229349195 237624985
2926.47 245904104 254024994 262223941 270272855 277754304 284544020
2929.37 290760036 296479423 301831560 306951573 311835289 316235014
2932.26 320252543 323942191 327203093 330305172 332884394 335298482
2935.15 337194583 337853927 337132796 335227170 332518515 329454034
2938.04 326344051 323194022 320341687 317570015 314894025 312158319
2940.94 309086101 305296473 301053023 296406766 290881151 284001221
2943.83 276041830 267544063 258230403 248483256 238762698 229382369
2946.72 220710312 212464512 204479404 196799967 189551265 182917913
2949.62 176727260 170785457 165261755 160122398 155215109 149879937
2952.51 143847885 137616561 132021050 127107439 122799969 119237667
2955.40 116328596 113936896 112132855 110901392 110277227 109964379
2958.29 109844909 110149023 110592956 110606606 109941107 108822828
2961.19 107210113 105861334 104700664 102704151 100407426 98227081
2964.08 96132493 94308452 92572414 90755054 89159044 87936695
2966.97 86888234 85806509 84711742 83567038 82545940 81629172
2969.86 81061354 80798018 80731275 80796640 80965325 81333639
2972.76 81856879 82413435 83185783 84114034 84929328 85778677
2975.65 86768223 87714017 88985094 90351124 91449148 92892983
2978.54 94388007 95729210 97504718 99593393 101863753 104364994
2981.44 106948751 109525716 111613657 112704155 113390880 114052500
2984.33 114705859 115344195 116328373 117471711 118975865 120925329
2987.22 123330809 126290969 129785694 133248536 136612560 139845173
2990.11 142604045 144997179 147187640 149217073 151075194 153364881
2993.01 155942255 158737739 161929055 165558710 169671012 174220073
2995.90 178868696 183163072 186878119 189938930 192697381 195576795
2998.79 198482650 201451490 204747048 208433981 212342853 216498470
3001.68 220762526 224666649 228192488 231092151 232933718 233454250
3004.58 232244963 229568471 226333434 223150512 219898617 216939498
3007.47 214567362 212858374 211709873 211274224 211585400 212527403
3010.36 214083255 215887244 217247969 217745395 217611560 216922109
3013.26 216272999 215857028 215989509 216536494 217644403 219429415
3016.15 221657914 224311592 227473671 230636819 233942968 237284960
3019.04 240773712 244478178 248329523 252118395 255480682 258663433
3021.93 261530548 263643282 264942953 265477815 265544659 264783377
3024.83 263351540 261932645 260970435 260693224 261073991 262182011
3027.72 262859861 262166207 260012325 257100868 254690676 253312759
3030.61 252684413 253201379 254339760 255097295 254892352 253453481
3033.50 251002578 247694025 243247671 237587671 231142841 224089143
3036.40 216880749 209821791 203058601 196644348 190777256 185260429
3039.29 179814443 174710911 169997185 165538015 161553824 158483191
3042.18 156392613 155389606 154954327 154824740 155155463 156110662
3045.08 157557058 159579593 161988368 164622647 167310240 169580632
3047.97 170417955 170485251 170880684 171195654 171457313 171675220
3050.86 171893551 171775999 171372520 171152574 170943856 170490357
3053.75 170176389 169789614 168723483 166682461 164556082 162997268
3056.65 162276429 162121984 161931078 161508055 161070191 160313225
3059.54 159228820 157995742 156443605 154626007 152515788 149969874
3062.43 147018256 143747208 140378626 136869152 133139408 129339468
3065.32 125333141 121225671 117145752 112971740 108418454 104179425
3068.22 100148859 96053027 91861057 87818248 84042792 80352667
3071.11 76907376 73532068 70332601 67379088 64649650 61984695
3074.00 59330487 56778167 54474522 52490679 50545803 48470220
3076.90 46500298 44846378 43251369 41721359 40330838 38893846
3079.79 37453056 36245881 35164191 34218316 33265009 32392061
3082.68 31599876 30809617 30144126 29571937 29145019 28978779
3085.57 28672595 28085738 27747029 27498475 27293073 27263792
3088.47 27373767 27439954 27491805 27569180 27746308 27889417
3091.36 28014713 28293724 28559368 28801814 29218545 29629870
3094.25 30089712 30543114 30556892 30594131 30664124 30590605
3097.14 30545172 30474099 30532095 30420968 30099563 29952045
3100.04 30009118 29975442 29954969 29813868 29791470 29837988
3102.93 29959686 30236864 30520669 30389208 30218671 30209965
3105.82 30110715 29932593 29561894 29167789 28696416 28203327
3108.72 27696173 27174407 26658666 26091183 25546089 24924203
3111.61 24353565 23917800 23708245 23331376 22623227 21878584
3114.50 21192300 20553152 19814905 19070185 18289575 17780987
3117.39 17134270 16280808 15502036 14808837 14207954 13483227
3120.29 12757740 12180543 11609272 11105900 10511061 9811958
3123.18 9238390 8729457 8299477 7969875 7799970 7463379
3126.07 7106176 6728346 6456064 6309917 6202796 6125798
3128.96 6139357 6230496 6243821 6149596 6162433 6318561
3131.86 6486046 6685561 6893530 7144585 7403059 7715142
3134.75 7979317 8182968 8441014 8723874 8914417 9147324
3137.64 9303943 9334438 9337836 9604200 9888589 9937771
3140.54 10051088 10077980 10126730 10258775 10362793 10444661
3143.43 10291438 10140194 10176154 10145386 10212438 10338264
3146.32 10325325 10395699 10514520 10423881 10224901 9982190
3149.21 9864773 9557053 8995012 8537325 8261868 7782162
3152.11 7171862 6648537 6207330 5834346 5470369 5146138
3155.00 4727344 4229357 3952626 3575532 3301922 3129137
3157.89 2868035 2503066 2336439 2168751 1778121 1516852
3160.78 1511027 1468280 1434206 1405336 1408289 1342104
3163.68 1263133 1205069 1198047 1003090 929682 879162
3166.57 780408 529977 501460 529338 532087 499417
3169.46 394822 375985 374156 267898 288255 212812
3172.36 36846 22684 204954 295611 218883 85372
3175.25 48194 54842 79301 1479-109384-6737
3178.14-38003-57610 29044 123930 58404-66402
3181.03-76741-56640-149204-160926-126663-103721
3183.93-75818 7060-53001-159911-138537-140675
3186.82-279239-369937-351183-313267-274237-267320
3189.71-364595-509570-469672-348119-295128-324188
3192.60-304484-370126-473834-452906-323769-251148
3195.50-330406-328349-338563-420533-422555-327924
3198.39-298113-341255-427039-466446-336084-374957
3201.28-401556-327617-290308-356217-349116-307415
3204.18-436431-520376-476249-357320-345892-434276
3207.07-380113-260033-247160-282264-297969-351033
3209.96-462415-435036-366500-341962-358347-336193
3212.85-359252-313536-407737-492001-347539-85062
3215.75 20806-301753-487129-306797-265772-277594
3218.64-388063-529555-468233-343417-331146-321798
3221.53-284163-269524-320156-312826-216547-140902
3224.42-145819-163341-233670-321115-304198-305666
3227.32-327271-373889-434596-376829-359283-195427
3230.21-180536-288016-318194-359806-311404-302215
3233.10-338267-372315-339026-364896-356575-213773
3236.00-198244-249021-244630-329211-442574-446608
3238.89-337194-152782-183180-340224-242518-68994
3241.78-146998-151238-166382-161375-82461-61642
3244.67-67315-75498-172163-319093-289584-250967
3247.57-274954-374275-340122-192803-75458-42220
3250.46-14744 72072 69035 61821 68192-31581
3253.35-147296-204029-87914 9666 20343 40860
3256.24-33714-66585 47957 151293 220920 102996
3259.14-103184-240831-159988 10251 148609 151786
3262.03 41914-293 134369 60256-125656-87618
3264.92 53142 157190 41564 2271 134349 92843
3267.82 48871 1838-120237-25230 67448 14562
3270.71-2849-30743-53797-17219 165609 131341
3273.60-48849-157505-197738-209705-36726 58003
3276.49 77750 46401 75638 110195 139810 192271
3279.39 71372-130140-187212 101541 86626-34713
3282.28 59713-46328 89175 143639 85799 70954
3285.17 72449 81237 84805-26782-113395 13789
3288.06 46702 72431 82230 83874 3854 61284
3290.96 253209 122481 70235 92384 11090 61665
3293.85 136248 270776 381303 312078 130702 60611
3296.74 97760 191356 149836 131947 59263 8131
3299.64-64318 38339 14652-3137 3524 59117
3302.53 122652 55650 88096 2480-21669-57420
3305.42-14488-76683 125555 223755 94099-206
3308.31-138924-114079-9501 73273 57264 91901
3311.21 20169-55815-16762 45718 120944 220444
3314.10 124419 60382 52584 45242 103183 129484
3316.99-14315-132241-7395 71202 136208 90297
3319.88 149907 228960 150055 86500-6750-93561
3322.78 16006 105929 169559 33573 15391 151083
3325.67 72379 38890 48151 137594 184849 22693
3328.56-69831-49894 39721-76550-208205-106326
3331.46-62468-97489-14460 100519 137839 83517
3334.35 59247-31983-73746-65410-116739-189144
3337.24-222325-37951 37522-60106-142054-96636
3340.13-139314-119665-110436-88336-42542 9139
3343.03-32077-88656-68459 11128-10432-40991
3345.92-153884-66551 3985-142763-139115-12007
3348.81 63714-51957-162177-18812 33415-5436
3351.70-22348-89576-232006-195084-130195-95641
3354.60-151068-190758-122946-1647-46961-162554
3357.49-104356-64297-133624-46601 64456-37079
3360.38-138097-220603-186446-114033-157966-162138
3363.28-50606-68710-108972-155191-9619 10456
3366.17 54631 162953 149768 78012 30828 1038
3369.06-57888 33132 88218 243192 321018 24010
3371.95-58598 21378 158416 235203 194898 90188
3374.85-18246 50677 102410 87398 235629 364362
3377.74 297335 242516 115861 169933 321853 316312
3380.63 408837 316282 246374 229632 159842 288771
3383.52 321566 425227 552418 534339 531581 486472
3386.42 330627 273935 312254 246855 248730 307394
3389.31 484193 630398 586304 345878 178966 266052
3392.20 375274 399332 230550 211796 190007 196440
3395.10 262816 190275 315694 433661 357426 247733
3397.99 249225 217296 236072 314764 319335 160003
3400.88 142429 103943 57011-45550-55604 57965
3403.77 45747 110773 149211 86542 128210 63610
3406.67-4529-82778-142108-30944 100217 104410
3409.56-92975-140090-45239-2012 20124 58495
3412.45 70850-34793-214345-59379 2129-35957
3415.34-11665 95115 150594 99341 6882 52606
3418.24 6561-71538-107493-164452-33037 110347
3421.13-16442-168976-306332-77083 47567 145294
3424.02 152803 56631-30802 112061 269650 136389
3426.92 97908 77589 113185 38872 55802 174834
3429.81 103461 123333 294757 240660 98987 142120
3432.70 336978 252223 86668 184976 394208 486452
3435.59 420864 384460 404904 318542 313524 243911
3438.49 189755 438819 505705 483037 517157 420978
3441.38 335359 389427 303233 143101 87041 67113
3444.27 123660 82103 7908 176749 207363 15106
3447.16 96421 203456 91491 90577 73941 156469
3450.06 152658-17689-5392 24107 35443 53954
3452.95 112962 12910-79506-56772-103922-43802
3455.84 124915 7701-140840-191694-134652-33421
3458.74 11596-61477-188849-322100-340498-248387
3461.63-151145-104812-172422-148207-167959-259626
3464.52-316649-279580-130162-213757-328113-357764
3467.41-374330-349103-384494-233880-155905-320434
3470.31-512402-328554-238951-391608-348589-361615
3473.20-361312-354807-277491-256465-257785-355072
3476.09-402193-365510-307486-294513-381373-354886
3478.98-170720-110204-271783-284579-185167-192570
3481.88-321134-402983-519414-534110-305900-343587
3484.77-467951-382365-306157-312709-507581-494260
3487.66-374288-337312-280828-255083-231917-195468
3490.56-205120-225412-371500-352213-206171-327632
3493.45-418539-375072-350249-273832-175061-194915
3496.34-168601-196335-161134-83729-164412-260211
3499.23-311409-370486-228429 38113-81826-275100
3502.13-336398-303113-278308-328906-397525-373263
3505.02-339965-319282-346419-235547-151441-264435
3507.91-163437-46315-74618-220698-399288-328921
3510.80-122359-320643-446654-285629-251806-283267
3513.70-343937-217757-172237-375879-439220-336581
3516.59-300657-215251-171804-352666-336052-308746
3519.48-295999-443227-527867-332738-155042-248998
3522.38-469239-508335-518521-527424-472444-350067
3525.27-303222-427121-454101-445433-372866-296011
3528.16-311885-300304-356505-318941-293954-230877
3531.05-289522-218735-161005-287703-343419-554850
3533.95-565780-325934-250115-287419-331747-406639
3536.84-423062-377259-434060-461035-474885-426375
3539.73-260753-238943-335502-337012-340829-343586
3542.62-192133-61921-172938-308470-418964-419196
3545.52-350812-404053-467980-473969-531200-535125
3548.41-406975-351986-333884-299783-498090-608587
3551.30-640345-627745-542283-501055-445664-454992
3554.20-408572-467172-489788-450385-519055-553878
3557.09-585248-536639-644304-622292-484665-635715
3559.98-700405-615810-561037-587891-650496-558985
3562.87-532153-475359-422711-559093-665781-669488
3565.77-596087-524369-517074-667859-547454-494524
3568.66-671597-775633-540508-490224-618672-670372
3571.55-628101-505736-446259-448579-587333-652198
3574.44-564160-643911-704024-600664-455858-371337
3577.34-588088-696450-502463-391428-488953-617513
3580.23-671815-598620-448022-420799-553173-593402
3583.12-590408-594661-552912-429019-431174-520312
3586.02-750811-713138-505671-520175-630923-662156
3588.91-582027-499829-551156-545782-514626-570872
3591.80-570709-512944-511207-461575-317888-328556
3594.69-347272-244826-343780-507880-369329-261539
3597.59-279723-381333-394737-341017-471908-602413
3600.48-510643-304421-332860-454755-394613-208075
3603.37-171434-317937-354828-350575-362102-373568
3606.26-314796-325862-397644-386136-357483-495706
3609.16-394849-291648-163749-141931-273468-312482
3612.05-354219-214526-130580-92409-201566-225888
3614.94-224957-245168-309330-379306-369954-310953
3617.84-212469-93772-260224-315915-181438-251966
3620.73-209057-90960-114620-146141-104364-84120
3623.62-88872-85133-64137-52036-86430-103383
3626.51-13837-56675-303074-440650-366181-537458
3629.41-379839-60691 44885 33696-37063-81254
3632.30-94246-33706-30807-91438-95162-16284
3635.19-13600-16259-8069 79882 72007 3699
3638.08 56802 65597 1481-67884-101915-27333
3640.98-41735-73048-4639 147102 213190 265506
3643.87 282980 249621 274928 267022 183728 164590
3646.76 94920 213686 389954 172464-183903 46785
3649.66 323213 321944 265574 258045 450188 554102
3652.55 600834 649660 644894 649382 724357 698931
3655.44 488187 374095 603102 716414 696215 732797
3658.33 829184 830535 798246 919306 997212 981645
3661.23 997714 1059579 1144041 1183548 1123352 1005912
3664.12 1058080 1164389 1290230 1358858 1340723 1382052
3667.01 1315069 1278030 1246182 1131678 1211385 1178282
3669.90 857063 648447 976443 1160744 1279952 1293814
3672.80 1175633 1101719 1012421 753865 766409 630386
3675.69 542491 936058 1028307 933409 1088317 1237538
3678.58 1174909 1146114 1184621 1095674 1043370 1116348
3681.48 1138502 1071716 1059481 1104191 1066264 805884
3684.37 801848 804719 674473 592633 641730 578960
3687.26 445713 131441 186499 460516 478124 488527
3690.15 368098 285575 399948 539995 609163 618854
3693.05 507206 503422 514963 395994 261055 277381
3695.94 481939 548871 548962 577649 540830 561289
3698.83 535105 476558 541756 559838 521119 414531
3701.72 346152 401476 402084 293920 270922 336484
3704.62 437699 365620 299111 265845 208331 268434
3707.51 241314 264212 151248 24895 164769 231127
3710.40 95700 57641-109272-182945 159177 316268
3713.30 254932 149044 63500-6042 2728-82581
3716.19 55940 142759 90580-2454 41656 43511
3719.08 26101 50423 115897 160098 228480 117744
3721.97 7137 81181 195534 252963 195918 158803
3724.87 85191 181421 103784 120957 232003 147486
3727.76 207118 293359 184121 113010 247823 292818
3730.65 277354 152596-148242-27073 180785 185572
3733.54 116622-50447-112343 49557 187178-32415
3736.44-81919 112795 253718 300565 293034 337652
3739.33 427811 468313 397450 343916 472059 504811
3742.22 492754 491555 400901-50409-395330 38015
3745.12 552810 718617 626289 592131 724268 836296
3748.01 713740 362546 101903 505003 873152 903468
3750.90 738015 259909 132324 731072 1012042 1126187
3753.79 1077598 953273 853970 885547 966137 855832
3756.69 921096 1078856 1038155 891728 726818 698000
3759.58 784480 995562 1083907 951648 810625 847992
3762.47 920840 973370 1094367 1073439 942360 770381
3765.36 717172 730384 749559 789191 885016 938368
3768.26 829042 628024 406102 548137 777211 732483
3771.15 565158 373244 456481 680009 616347 534415
3774.04 482020 457451 499095 435423 313453 375668
3776.94 393140 352969 332944 378070 220005 129896
3779.83 237027 476195 551304 468801 390727 445406
3782.72 437377 527184 507309 332552 325553 256903
3785.61 321666 379482 407488 338837 398298 451206
3788.51 451238 399337 409839 536225 574451 514485
3791.40 371912 264481 416840 643573 547484 383959
3794.29 455067 414317 365941 270115 314132 433192
3797.18 436984 386305 369188 383938 335038 310225
3800.08 394545-30407-252516 279312 456577 409404
3802.97 438247 615623 702973 533144 434061 426048
3805.86 257698-116924 344 559653 731266 661000
3808.76 651046 667678 647432 644013 703724 740918
3811.65 680996 651823 605027 739514 771248 750476
3814.54 801511 599245 168504 434138 885190 928064
3817.43 917507 873599 831162 922038 927940 752457
3820.33 594213 627333 600419 759923 910788 1076780
3823.22 1182666 1170726 1112420 1106145 1205060 1172182
3826.11 994632 995768 1232557 1331925 1330365 1357065
3829.00 1304297 1289322 1322596 1259414 1080748 981693
3831.90 1233005 1470608 1473057 1390009 1309211 1054056
3834.79 1128423 1347799 1264661 1308238 1203516 670621
3837.68 805510 1337890 1441441 1430913 1440103 1458628
3840.58 1364136 1384425 1508555 1641871 1656914 1544441
3843.47 1498458 1523893 1540099 1582276 1583240 1677161
3846.36 1801358 1833700 1631939 1561073 1599587 1694093
3849.25 1740822 1739227 1729080 1761623 1400120 1169638
3852.15 1547335 1724485 1302438 735021 1058926 1699763
3855.04 1898570 1776549 1735554 1663437 1760523 1908755
3857.93 1925014 1865185 1805057 1854068 1893851 1866503
3860.82 1740522 1610571 1663608 1736287 1858392 1984700
3863.72 1864851 1699747 1595945 1765675 1863795 1781640
3866.61 1700072 1692757 1643998 1770888 1629090 1469887
3869.50 1259614 1441595 1756595 1839124 1970890 1983989
3872.40 2022204 1896081 1731173 1688411 1861293 2013586
3875.29 2104755 2033395 1945237 1993562 2096095 2090994
3878.18 2073704 2119784 2007827 1838412 1921135 2139699
3881.07 2097055 2098217 2207125 2243153 2220128 2264493
3883.97 2214640 2086115 1863782 1842991 2101156 2305937
3886.86 2354534 2291168 2260850 2277099 2274922 2188467
3889.75 2240663 2168163 1964635 2045463 2101278 2150035
3892.64 2191778 2212568 2196400 2206273 2317263 2336272
3895.54 2287331 2220042 2177211 2207317 2240439 2179805
3898.43 2008715 1884600 2137077 2292511 2250759 2227297
3901.32 2089636 2131535 2236839 2241238 2217405 2060488
3904.22 2141689 2289028 2295216 2273130 2228871 2124099
3907.11 2173924 2209640 2255855 2291050 2224502 2257043
3910.00 2313016 2361841 2409778 2329832 2225882 2322824
3912.89 2494842 2594838 2554256 2378631 2381861 2474282
3915.79 2377625 2251866 2283947 2565744 2492711 2353183
3918.68 2378889 2302443 2387300 2514150 2518506 2604016
3921.57 2630516 2620220 2555992 2522782 2469098 2507090
3924.46 2535158 2561436 2535453 2591110 2621270 2499047
3927.36 2562918 2670985 2740236 2712051 2606937 2629880
3930.25 2559452 2476958 2444176 2482031 2471842 2444867
3933.14 2598859 2665106 2677206 2696303 2782653 2621705
3936.04 2508028 2540092 2431481 2344809 2498691 2633874
3938.93 2628793 2591635 2556635 2473603 2550795 2535033
3941.82 2424224 2416842 2429406 2315293 2354353 2422272
3944.71 2394856 2414256 2353943 2330179 2278395 2236202
3947.61 2195549 2108805 2003016 1930985 1881362 2038617
3950.50 2228002 2154893 2106258 2102535 2213225 2247833
3953.39 2225876 2213140 2167716 2198370 2182202 2130405
3956.28 2110934 2059688 2081650 2119577 2104391 2138946
3959.18 2285872 2362985 2262906 2125462 2136646 2174508
3962.07 2166383 2112184 2097165 2190823 2266985 2319385
3964.96 2194721 2155003 2186032 2173805 2132848 2146294
3967.86 2263905 2392887 2300031 2182850 2144290 2212413
3970.75 2199513 2146978 2323495 2301904 2154609 2247984
3973.64 2324699 2389136
##END=
