##TITLE=P-DIBROMOBENZENE
##JCAMP-DX=4.24
##DATA TYPE=INFRARED SPECTRUM
##CLASS=COBLENTZ
##ORIGIN=WYANDOTTE CHEMICALS CORP., WYANDOTTE, MICHIGAN, USA
##OWNER=COBLENTZ SOCIETY
Collection (C) 2018 copyright by the U.S. Secretary of Commerce
on behalf of the United States of America. All rights reserved.
##DATE=Not specified, most likely prior to 1970
##NAMES=1,4-dibromobenzene
##CAS REGISTRY NO=106-37-6
##MOLFORM=C6 H4 Br2
##SOURCE REFERENCE=COBLENTZ NO. 1316
##$NIST SOURCE=COBLENTZ
##$NIST IMAGE=cob1316
##SPECTROMETER/DATA SYSTEM=Not specified, most likely a prism, grating, or hybrid spectrometer.
##STATE=SOLID (MINERAL OIL MULL)
##SAMPLING PROCEDURE=TRANSMISSION
##RESOLUTION=4
##DATA PROCESSING=DIGITIZED BY NIST FROM HARD COPY
##XUNITS=MICROMETERS
##YUNITS=TRANSMITTANCE
##XFACTOR=1.000000
##YFACTOR=1
##DELTAX=000.006793
##FIRSTX=2.027
##LASTX=15.9928
##FIRSTY=0.418
##MAXX=15.9928
##MINX=2.027
##MAXY=0.959
##MINY=0.018
##NPOINTS=2057
##XYDATA=(X++(Y..Y))
2.027000 0.4180 0.4160 0.4160 0.4140 0.4130
2.060981 0.4090 0.4080 0.4080 0.4080 0.4040
2.095000 0.4040 0.4040 0.4040 0.4040 0.4040
2.128981 0.4040 0.4040 0.4080 0.4080 0.4090
2.163000 0.4110 0.4110 0.4090 0.4090 0.4060
2.196981 0.4010 0.3960 0.3890 0.3870 0.3870
2.231000 0.3870 0.3870 0.3870 0.3890 0.3890
2.264981 0.3910 0.3890 0.3910 0.3910 0.3920
2.299000 0.3920 0.3920 0.3920 0.3920 0.3920
2.332981 0.3990 0.4010 0.4010 0.3920 0.3860
2.367000 0.3840 0.3820 0.3870 0.3920 0.3960
2.400981 0.3960 0.3970 0.3970 0.3970 0.3970
2.435000 0.3990 0.4010 0.4040 0.4060 0.4090
2.468981 0.4110 0.4110 0.4010 0.4010 0.4010
2.503000 0.4010 0.4010 0.4010 0.4080 0.4130
2.536981 0.4160 0.4200 0.4200 0.4200 0.4200
2.571000 0.4160 0.4140 0.4110 0.4110 0.4110
2.604981 0.4110 0.4130 0.4140 0.4140 0.4140
2.639000 0.4160 0.4200 0.4200 0.4180 0.4180
2.672981 0.4180 0.4200 0.4160 0.4160 0.4130
2.706000 0.4060 0.4030 0.4010 0.3990 0.3960
2.739981 0.3960 0.3940 0.3910 0.3860 0.3800
2.774000 0.3750 0.3720 0.3700 0.3700 0.3670
2.807981 0.3670 0.3670 0.3690 0.3670 0.3670
2.842000 0.3630 0.3650 0.3650 0.3630 0.3630
2.875981 0.3620 0.3600 0.3600 0.3570 0.3570
2.910000 0.3520 0.3520 0.3520 0.3520 0.3520
2.943981 0.3520 0.3520 0.3520 0.3520 0.3550
2.978000 0.3570 0.3580 0.3580 0.3600 0.3580
3.011981 0.3580 0.3580 0.3570 0.3570 0.3570
3.046000 0.3550 0.3550 0.3550 0.3550 0.3550
3.079981 0.3550 0.3550 0.3550 0.3550 0.3530
3.114000 0.3500 0.3500 0.3460 0.3450 0.3430
3.147981 0.3410 0.3400 0.3380 0.3380 0.3360
3.182000 0.3350 0.3330 0.3310 0.3240 0.3230
3.215981 0.3210 0.3190 0.3110 0.3060 0.3010
3.250000 0.2970 0.2950 0.2940 0.2920 0.2900
3.283981 0.2840 0.2770 0.2600 0.2430 0.2380
3.318000 0.2260 0.1920 0.1170 0.0790 0.0470
3.351981 0.0450 0.0440 0.0440 0.0440 0.0440
3.386000 0.0470 0.0490 0.0470 0.0450 0.0450
3.419981 0.0470 0.0510 0.0560 0.0610 0.0620
3.454000 0.0640 0.0660 0.0620 0.0590 0.0570
3.487981 0.0570 0.0590 0.0860 0.1170 0.1540
3.522000 0.1950 0.2430 0.2950 0.3160 0.3360
3.555981 0.3620 0.3750 0.3890 0.3990 0.4040
3.590000 0.4140 0.4230 0.4260 0.4260 0.4210
3.623981 0.4210 0.4200 0.4200 0.4180 0.4160
3.657000 0.4140 0.4140 0.4140 0.4140 0.4140
3.690981 0.4180 0.4180 0.4230 0.4250 0.4260
3.725000 0.4280 0.4280 0.4280 0.4280 0.4280
3.758981 0.4280 0.4300 0.4330 0.4330 0.4370
3.793000 0.4370 0.4400 0.4430 0.4470 0.4480
3.826981 0.4480 0.4500 0.4520 0.4520 0.4540
3.861000 0.4550 0.4550 0.4570 0.4570 0.4570
3.894981 0.4570 0.4570 0.4550 0.4540 0.4540
3.929000 0.4540 0.4570 0.4590 0.4600 0.4640
3.962981 0.4670 0.4670 0.4690 0.4710 0.4720
3.997000 0.4720 0.4720 0.4720 0.4720 0.4720
4.030981 0.4720 0.4720 0.4720 0.4720 0.4720
4.065000 0.4720 0.4720 0.4720 0.4740 0.4740
4.098981 0.4760 0.4760 0.4760 0.4760 0.4770
4.133000 0.4760 0.4760 0.4770 0.4770 0.4770
4.166981 0.4770 0.4770 0.4770 0.4770 0.4770
4.201000 0.4770 0.4770 0.4740 0.4690 0.4640
4.234981 0.4590 0.4590 0.4600 0.4600 0.4620
4.269000 0.4620 0.4670 0.4710 0.4810 0.4880
4.302981 0.4890 0.4910 0.4940 0.5000 0.5100
4.337000 0.5100 0.5230 0.5270 0.5270 0.5270
4.370981 0.5230 0.5230 0.5200 0.5130 0.5080
4.405000 0.5060 0.5010 0.5000 0.4980 0.4940
4.438981 0.4770 0.4760 0.4790 0.4940 0.5050
4.473000 0.5100 0.5100 0.5100 0.5100 0.5100
4.506981 0.5080 0.5080 0.5080 0.5080 0.5080
4.541000 0.5100 0.5100 0.5100 0.5100 0.5110
4.574981 0.5110 0.5110 0.5130 0.5130 0.5150
4.608000 0.5150 0.5150 0.5170 0.5170 0.5180
4.641981 0.5180 0.5200 0.5220 0.5230 0.5250
4.676000 0.5270 0.5280 0.5300 0.5320 0.5340
4.709981 0.5340 0.5350 0.5350 0.5350 0.5370
4.744000 0.5370 0.5390 0.5390 0.5390 0.5400
4.777981 0.5400 0.5400 0.5400 0.5400 0.5420
4.812000 0.5420 0.5420 0.5440 0.5450 0.5470
4.845981 0.5490 0.5510 0.5520 0.5560 0.5560
4.880000 0.5570 0.5610 0.5610 0.5620 0.5620
4.913981 0.5620 0.5610 0.5570 0.5570 0.5560
4.948000 0.5560 0.5560 0.5570 0.5570 0.5590
4.981981 0.5590 0.5610 0.5610 0.5610 0.5620
5.016000 0.5620 0.5640 0.5640 0.5660 0.5660
5.049981 0.5660 0.5680 0.5680 0.5680 0.5690
5.084000 0.5710 0.5710 0.5710 0.5690 0.5710
5.117981 0.5710 0.5710 0.5710 0.5730 0.5730
5.152000 0.5730 0.5730 0.5730 0.5740 0.5740
5.185981 0.5740 0.5760 0.5760 0.5780 0.5780
5.220000 0.5780 0.5790 0.5790 0.5830 0.5850
5.253981 0.5860 0.5860 0.5860 0.5860 0.5860
5.288000 0.5860 0.5860 0.5810 0.5400 0.4980
5.321981 0.4650 0.4650 0.4690 0.5440 0.5590
5.356000 0.5640 0.5680 0.5740 0.5880 0.5910
5.389981 0.5910 0.5910 0.5900 0.5880 0.5760
5.424000 0.5740 0.5740 0.5830 0.5860 0.5860
5.457981 0.5880 0.5900 0.5900 0.5930 0.5950
5.492000 0.5950 0.5960 0.5960 0.5960 0.5960
5.525981 0.5960 0.5950 0.5930 0.5950 0.5950
5.559000 0.5950 0.5960 0.5980 0.6000 0.6020
5.592981 0.6080 0.6080 0.6070 0.6070 0.5980
5.627000 0.5930 0.5880 0.5850 0.5900 0.5860
5.660981 0.5830 0.5790 0.5710 0.5640 0.5640
5.695000 0.5780 0.5830 0.5830 0.5790 0.5690
5.728981 0.5690 0.5690 0.5760 0.5910 0.5980
5.763000 0.6020 0.6020 0.5980 0.5810 0.5810
5.796981 0.5850 0.6050 0.6070 0.6070 0.6070
5.831000 0.5980 0.5850 0.5830 0.5850 0.5880
5.864981 0.6020 0.6170 0.6200 0.6200 0.6080
5.899000 0.5850 0.5850 0.5880 0.6100 0.6080
5.932981 0.6070 0.5950 0.5880 0.5860 0.5880
5.967000 0.6070 0.6070 0.6050 0.6030 0.5950
6.000981 0.5830 0.5760 0.5760 0.5790 0.6070
6.035000 0.6190 0.6200 0.6190 0.5950 0.5900
6.068981 0.5900 0.6190 0.6190 0.6020 0.5640
6.103000 0.5470 0.5170 0.5050 0.5010 0.4980
6.136981 0.5470 0.5740 0.5930 0.5980 0.6000
6.171000 0.6030 0.6030 0.6050 0.6070 0.6100
6.204981 0.6120 0.6130 0.6150 0.6170 0.6150
6.239000 0.6220 0.6270 0.6290 0.6270 0.6170
6.272981 0.6190 0.6190 0.6290 0.6340 0.6370
6.307000 0.6460 0.6460 0.6460 0.6390 0.6250
6.340981 0.6200 0.6200 0.6250 0.6470 0.6610
6.375000 0.6660 0.6660 0.6630 0.6560 0.6540
6.408981 0.6490 0.6390 0.6370 0.6370 0.6390
6.443000 0.6530 0.6630 0.6640 0.6710 0.6760
6.476981 0.6760 0.6710 0.6660 0.6590 0.6580
6.510000 0.6580 0.6580 0.6590 0.6630 0.6700
6.543981 0.6870 0.6880 0.6880 0.6800 0.6760
6.578000 0.6710 0.6680 0.6680 0.6640 0.6220
6.611981 0.6000 0.5780 0.5440 0.5130 0.4820
6.646000 0.4330 0.4330 0.4400 0.4720 0.4880
6.679981 0.5590 0.5760 0.5780 0.5780 0.5780
6.714000 0.5730 0.5450 0.5230 0.4980 0.4710
6.747981 0.3870 0.2900 0.0300 0.0180 0.0180
6.782000 0.0350 0.0590 0.0780 0.0930 0.1080
6.815981 0.1220 0.1370 0.1530 0.1730 0.1950
6.850000 0.2070 0.2220 0.2430 0.2630 0.2850
6.883981 0.3040 0.3180 0.3310 0.3520 0.3720
6.918000 0.3890 0.4280 0.4600 0.4860 0.5230
6.951981 0.5390 0.5510 0.5610 0.5710 0.5810
6.986000 0.5850 0.5880 0.5950 0.6020 0.6080
7.019981 0.6120 0.6100 0.6080 0.5930 0.5780
7.054000 0.5590 0.5350 0.5340 0.5350 0.5540
7.087981 0.5690 0.5760 0.5850 0.5860 0.5860
7.122000 0.5860 0.5860 0.5860 0.5860 0.5730
7.155981 0.5280 0.5110 0.5000 0.4860 0.4330
7.190000 0.3550 0.2800 0.1950 0.1300 0.1300
7.223981 0.1370 0.1490 0.1680 0.1980 0.2340
7.258000 0.2770 0.3190 0.3580 0.3910 0.4130
7.291981 0.4200 0.4370 0.4450 0.4620 0.5390
7.326000 0.5420 0.5440 0.5450 0.5470 0.5490
7.359981 0.5570 0.5640 0.5710 0.5730 0.5760
7.393000 0.5760 0.5760 0.5710 0.5680 0.5660
7.426981 0.5640 0.5660 0.5740 0.5830 0.5910
7.461000 0.6000 0.6080 0.6130 0.6170 0.6170
7.494981 0.6190 0.6270 0.6290 0.6290 0.6270
7.529000 0.6250 0.6220 0.6200 0.6190 0.6190
7.562981 0.6190 0.6190 0.6190 0.6190 0.6190
7.597000 0.6190 0.6200 0.6220 0.6240 0.6270
7.630981 0.6290 0.6300 0.6320 0.6370 0.6390
7.665000 0.6390 0.6410 0.6420 0.6420 0.6460
7.698981 0.6470 0.6490 0.6490 0.6510 0.6510
7.733000 0.6510 0.6510 0.6530 0.6560 0.6580
7.766981 0.6590 0.6610 0.6630 0.6630 0.6610
7.801000 0.6630 0.6630 0.6660 0.6680 0.6680
7.834981 0.6710 0.6760 0.6760 0.6760 0.6760
7.869000 0.6780 0.6780 0.6710 0.6300 0.5740
7.902981 0.5200 0.5180 0.5200 0.5400 0.5620
7.937000 0.5780 0.5910 0.6020 0.6120 0.6220
7.970981 0.6290 0.6370 0.6440 0.6530 0.6590
8.005000 0.6610 0.6630 0.6660 0.6700 0.6730
8.038981 0.6760 0.6780 0.6780 0.6800 0.6810
8.073000 0.6810 0.6830 0.6830 0.6850 0.6870
8.106981 0.6850 0.6880 0.6900 0.6900 0.6880
8.141000 0.6810 0.6750 0.6700 0.6680 0.6560
8.174981 0.6490 0.6490 0.6530 0.6590 0.6610
8.209000 0.6640 0.6680 0.6760 0.6870 0.6880
8.242981 0.6920 0.6930 0.6930 0.6950 0.6970
8.277000 0.6980 0.7040 0.7090 0.7100 0.7100
8.310981 0.7120 0.7140 0.7170 0.7210 0.7260
8.344000 0.7290 0.7290 0.7310 0.7310 0.7310
8.377981 0.7290 0.7290 0.7290 0.7290 0.7290
8.412000 0.7290 0.7290 0.7290 0.7290 0.7290
8.445981 0.7290 0.7290 0.7290 0.7290 0.7290
8.480000 0.7290 0.7290 0.7290 0.7290 0.7290
8.513981 0.7290 0.7270 0.7260 0.7170 0.7150
8.548000 0.7170 0.7190 0.7270 0.7290 0.7320
8.581981 0.7360 0.7380 0.7380 0.7260 0.7260
8.616000 0.7290 0.7340 0.7380 0.7440 0.7480
8.649981 0.7510 0.7530 0.7560 0.7580 0.7610
8.684000 0.7700 0.7730 0.7750 0.7780 0.7820
8.717981 0.7850 0.7850 0.7850 0.7800 0.7650
8.752000 0.7550 0.7500 0.7340 0.7140 0.6900
8.785981 0.6880 0.6880 0.6980 0.7210 0.7270
8.820000 0.7430 0.7560 0.7650 0.7730 0.7800
8.853981 0.7850 0.7900 0.7940 0.7990 0.8020
8.888000 0.8060 0.8060 0.8110 0.8180 0.8230
8.921981 0.8210 0.8230 0.8230 0.8260 0.8260
8.956000 0.8280 0.8280 0.8280 0.8260 0.7700
8.989981 0.7480 0.7020 0.6120 0.5930 0.5910
9.024000 0.5950 0.6880 0.7240 0.7630 0.7890
9.057981 0.8020 0.8110 0.8120 0.8190 0.8260
9.092000 0.8260 0.8260 0.8180 0.8120 0.8040
9.125981 0.7800 0.7480 0.7050 0.6580 0.6020
9.160000 0.5570 0.5230 0.5050 0.5010 0.4980
9.193981 0.5390 0.5710 0.6100 0.6370 0.6630
9.228000 0.6920 0.7220 0.7390 0.7560 0.7630
9.261981 0.7630 0.7600 0.7320 0.6930 0.6170
9.295000 0.5560 0.4930 0.4650 0.3670 0.1630
9.328981 0.0930 0.0900 0.0900 0.0950 0.1070
9.363000 0.1240 0.1440 0.1680 0.1950 0.2260
9.396981 0.2560 0.2890 0.3210 0.3530 0.3840
9.431000 0.4130 0.4420 0.4650 0.4860 0.5150
9.464981 0.5200 0.5300 0.5420 0.5510 0.5610
9.499000 0.5680 0.5740 0.5790 0.5860 0.5950
9.532981 0.6030 0.6150 0.6300 0.6370 0.6370
9.567000 0.6420 0.6470 0.6530 0.6580 0.6640
9.600981 0.6710 0.6780 0.6830 0.6900 0.6970
9.635000 0.7020 0.7070 0.7140 0.7210 0.7290
9.668981 0.7320 0.7360 0.7390 0.7430 0.7480
9.703000 0.7550 0.7610 0.7720 0.7820 0.7950
9.736981 0.8040 0.8110 0.8190 0.8280 0.8380
9.771000 0.8480 0.8620 0.8720 0.8920 0.9060
9.804981 0.9180 0.9300 0.9420 0.9450 0.9550
9.839000 0.9590 0.9590 0.9590 0.9570 0.9310
9.872981 0.8630 0.7970 0.6580 0.5680 0.4600
9.907000 0.3520 0.2140 0.0570 0.0490 0.0560
9.940981 0.0860 0.1150 0.1300 0.1420 0.1540
9.975000 0.1750 0.2070 0.2290 0.2430 0.2770
10.008981 0.2990 0.3120 0.3210 0.3310 0.3400
10.043000 0.3520 0.3650 0.3840 0.4060 0.4280
10.076981 0.4430 0.4570 0.4650 0.4740 0.4810
10.111000 0.4890 0.5000 0.5150 0.5200 0.5250
10.144981 0.5340 0.5370 0.5390 0.5400 0.5420
10.179000 0.5450 0.5490 0.5560 0.5620 0.5710
10.212981 0.5710 0.5730 0.5760 0.5780 0.5790
10.246000 0.5790 0.5810 0.5810 0.5860 0.5900
10.279981 0.5960 0.5980 0.6020 0.6020 0.6030
10.314000 0.6030 0.6050 0.6050 0.6050 0.6070
10.347981 0.6070 0.6080 0.6080 0.6100 0.6130
10.382000 0.6200 0.6250 0.6250 0.6270 0.6270
10.415981 0.6270 0.6290 0.6340 0.6370 0.6420
10.450000 0.6560 0.6630 0.6630 0.6610 0.6590
10.483981 0.6510 0.6390 0.6170 0.5830 0.5570
10.518000 0.5490 0.5540 0.5610 0.5780 0.6080
10.551981 0.6390 0.6510 0.6610 0.6680 0.6700
10.586000 0.6730 0.6780 0.6870 0.6900 0.6920
10.619981 0.6930 0.6950 0.6970 0.7000 0.7020
10.654000 0.7040 0.7040 0.7050 0.7050 0.7070
10.687981 0.7070 0.7090 0.7090 0.7100 0.7100
10.722000 0.7120 0.7140 0.7190 0.7270 0.7290
10.755981 0.7310 0.7320 0.7310 0.7310 0.7310
10.790000 0.7310 0.7320 0.7320 0.7340 0.7340
10.823981 0.7360 0.7360 0.7360 0.7380 0.7390
10.858000 0.7430 0.7440 0.7480 0.7510 0.7530
10.891981 0.7560 0.7580 0.7600 0.7600 0.7600
10.926000 0.7610 0.7610 0.7630 0.7650 0.7650
10.959981 0.7650 0.7650 0.7650 0.7630 0.7630
10.994000 0.7630 0.7630 0.7650 0.7650 0.7650
11.027981 0.7650 0.7670 0.7680 0.7700 0.7720
11.062000 0.7730 0.7750 0.7750 0.7770 0.7780
11.095981 0.7800 0.7800 0.7820 0.7840 0.7840
11.130000 0.7820 0.7820 0.7820 0.7820 0.7820
11.163981 0.7840 0.7840 0.7870 0.7890 0.7900
11.197000 0.7900 0.7900 0.7900 0.7900 0.7900
11.230981 0.7890 0.7870 0.7870 0.7870 0.7900
11.265000 0.7920 0.7990 0.8010 0.8020 0.8020
11.298981 0.8060 0.8070 0.8090 0.8120 0.8120
11.333000 0.8140 0.8160 0.8180 0.8180 0.8140
11.366981 0.8160 0.8180 0.8190 0.8230 0.8260
11.401000 0.8260 0.8260 0.8260 0.8260 0.8210
11.434981 0.8210 0.8210 0.8210 0.8210 0.8230
11.469000 0.8240 0.8240 0.8260 0.8280 0.8280
11.502981 0.8290 0.8280 0.8310 0.8330 0.8330
11.537000 0.8330 0.8330 0.8330 0.8330 0.8330
11.570981 0.8330 0.8330 0.8310 0.8310 0.8310
11.605000 0.8290 0.8290 0.8290 0.8290 0.8290
11.638981 0.8290 0.8290 0.8290 0.8290 0.8290
11.673000 0.8290 0.8290 0.8290 0.8290 0.8280
11.706981 0.8280 0.8260 0.8260 0.8230 0.8190
11.741000 0.8190 0.8190 0.8190 0.8210 0.8230
11.774981 0.8240 0.8260 0.8240 0.8240 0.8230
11.809000 0.8230 0.8190 0.8190 0.8190 0.8190
11.842981 0.8190 0.8190 0.8190 0.8190 0.8190
11.877000 0.8190 0.8190 0.8190 0.8210 0.8210
11.910981 0.8210 0.8190 0.8190 0.8190 0.8190
11.945000 0.8190 0.8190 0.8190 0.8190 0.8190
11.978981 0.8180 0.8160 0.8140 0.8110 0.8060
12.013000 0.8020 0.8010 0.8010 0.8020 0.8020
12.046981 0.8010 0.7990 0.7970 0.7920 0.7800
12.081000 0.7780 0.7730 0.7700 0.7650 0.7630
12.114981 0.7610 0.7530 0.7440 0.7340 0.7270
12.148000 0.7190 0.7100 0.7040 0.6970 0.6880
12.181981 0.6760 0.6640 0.6470 0.6200 0.6000
12.216000 0.5850 0.5690 0.5540 0.5340 0.5010
12.249981 0.4960 0.4890 0.4620 0.4400 0.4180
12.284000 0.3990 0.3790 0.3570 0.3290 0.2970
12.317981 0.2580 0.2410 0.2100 0.1800 0.1470
12.352000 0.1290 0.1100 0.0960 0.0860 0.0790
12.385981 0.0780 0.0790 0.0900 0.0910 0.0930
12.420000 0.0930 0.0950 0.0950 0.0960 0.1070
12.453981 0.1240 0.1390 0.1580 0.1800 0.1930
12.488000 0.2310 0.2630 0.2920 0.3210 0.3460
12.521981 0.3720 0.3960 0.4200 0.4400 0.4590
12.556000 0.4820 0.4960 0.5220 0.5390 0.5450
12.589981 0.5560 0.5640 0.5690 0.5730 0.5760
12.624000 0.5780 0.5810 0.5860 0.5910 0.6000
12.657981 0.6070 0.6190 0.6270 0.6340 0.6440
12.692000 0.6540 0.6640 0.6710 0.6750 0.6830
12.725981 0.6880 0.6920 0.6980 0.6950 0.7020
12.760000 0.7050 0.7100 0.7140 0.7190 0.7240
12.793981 0.7310 0.7310 0.7340 0.7360 0.7360
12.828000 0.7390 0.7410 0.7440 0.7460 0.7460
12.861981 0.7480 0.7480 0.7500 0.7510 0.7580
12.896000 0.7580 0.7610 0.7630 0.7650 0.7670
12.929981 0.7700 0.7730 0.7750 0.7750 0.7750
12.964000 0.7770 0.7780 0.7820 0.7820 0.7840
12.997981 0.7850 0.7890 0.7920 0.7940 0.7950
13.032000 0.7970 0.7990 0.7990 0.8010 0.8010
13.065981 0.8010 0.8010 0.8020 0.8040 0.8070
13.099000 0.8110 0.8140 0.8140 0.8160 0.8160
13.132981 0.8160 0.8160 0.8180 0.8180 0.8180
13.167000 0.8180 0.8180 0.8180 0.8180 0.8190
13.200981 0.8210 0.8230 0.8230 0.8230 0.8230
13.235000 0.8230 0.8210 0.8210 0.8190 0.8180
13.268981 0.8120 0.8090 0.8040 0.8010 0.7940
13.303000 0.7850 0.7780 0.7720 0.7680 0.7670
13.336981 0.7670 0.7670 0.7670 0.7680 0.7680
13.371000 0.7700 0.7700 0.7750 0.7840 0.7950
13.404981 0.8010 0.8040 0.8060 0.8060 0.8060
13.439000 0.8060 0.8060 0.8060 0.8060 0.8060
13.472981 0.8060 0.8060 0.8060 0.8060 0.8060
13.507000 0.8060 0.8060 0.8060 0.8060 0.8040
13.540981 0.8040 0.8040 0.8020 0.8020 0.8010
13.575000 0.8010 0.8010 0.8010 0.8010 0.8010
13.608981 0.8010 0.8020 0.8020 0.8020 0.8020
13.643000 0.8040 0.8040 0.8040 0.8040 0.8010
13.676981 0.8010 0.8010 0.7990 0.7990 0.7970
13.711000 0.7970 0.7950 0.7950 0.7940 0.7940
13.744981 0.7920 0.7920 0.7900 0.7900 0.7890
13.779000 0.7870 0.7870 0.7850 0.7850 0.7840
13.812981 0.7820 0.7800 0.7780 0.7770 0.7750
13.847000 0.7730 0.7730 0.7730 0.7730 0.7730
13.880981 0.7730 0.7730 0.7750 0.7820 0.7900
13.915000 0.7970 0.8040 0.8090 0.8120 0.8180
13.948981 0.8230 0.8260 0.8310 0.8360 0.8400
13.983000 0.8430 0.8500 0.8530 0.8550 0.8580
14.016981 0.8630 0.8630 0.8650 0.8670 0.8670
14.050000 0.8700 0.8790 0.8820 0.8840 0.8840
14.083981 0.8840 0.8860 0.8870 0.8890 0.8910
14.118000 0.8920 0.8940 0.8960 0.8960 0.8970
14.151981 0.8970 0.8970 0.8960 0.8960 0.8970
14.186000 0.8970 0.8970 0.8990 0.9030 0.9030
14.219981 0.9040 0.9040 0.9060 0.9060 0.9080
14.254000 0.9080 0.9010 0.8960 0.8960 0.8990
14.287981 0.9030 0.9040 0.9060 0.9080 0.9090
14.322000 0.9090 0.9090 0.9090 0.9090 0.9080
14.355981 0.9080 0.9080 0.9060 0.9060 0.9040
14.390000 0.9040 0.9030 0.9030 0.9030 0.9010
14.423981 0.9010 0.9010 0.8990 0.8990 0.8970
14.458000 0.8970 0.8960 0.8940 0.8920 0.8910
14.491981 0.8890 0.8890 0.8870 0.8870 0.8860
14.526000 0.8820 0.8820 0.8800 0.8800 0.8790
14.559981 0.8770 0.8770 0.8750 0.8740 0.8700
14.594000 0.8700 0.8690 0.8690 0.8670 0.8650
14.627981 0.8620 0.8580 0.8580 0.8570 0.8530
14.662000 0.8530 0.8520 0.8520 0.8480 0.8460
14.695981 0.8430 0.8410 0.8400 0.8410 0.8410
14.730000 0.8400 0.8380 0.8350 0.8290 0.8280
14.763981 0.8240 0.8230 0.8210 0.8190 0.8190
14.798000 0.8140 0.8090 0.8070 0.8040 0.8040
14.831981 0.8020 0.8010 0.8010 0.7990 0.7990
14.866000 0.7990 0.7990 0.7970 0.7970 0.7950
14.899981 0.7950 0.7940 0.7940 0.7940 0.7920
14.934000 0.7920 0.7900 0.7890 0.7890 0.7840
14.967981 0.7750 0.7650 0.7510 0.7360 0.7210
15.001000 0.7040 0.6870 0.6800 0.6610 0.6370
15.034981 0.6150 0.6000 0.5900 0.5790 0.5780
15.069000 0.5710 0.5690 0.5710 0.5740 0.5790
15.102981 0.5810 0.5880 0.6000 0.6120 0.6200
15.137000 0.6300 0.6390 0.6490 0.6580 0.6680
15.170981 0.6780 0.6870 0.6970 0.7050 0.7150
15.205000 0.7170 0.7190 0.7190 0.7220 0.7270
15.238981 0.7270 0.7270 0.7270 0.7260 0.7240
15.273000 0.7240 0.7220 0.7190 0.7170 0.7170
15.306981 0.7170 0.7170 0.7190 0.7190 0.7190
15.341000 0.7170 0.7170 0.7140 0.7120 0.7100
15.374981 0.7100 0.7090 0.7070 0.7050 0.7020
15.409000 0.7000 0.6980 0.6970 0.6970 0.6950
15.442981 0.6950 0.6930 0.6920 0.6920 0.6880
15.477000 0.6830 0.6760 0.6710 0.6730 0.6750
15.510981 0.6810 0.6830 0.6810 0.6800 0.6710
15.545000 0.6680 0.6640 0.6610 0.6610 0.6610
15.578981 0.6630 0.6680 0.6680 0.6640 0.6630
15.613000 0.6580 0.6540 0.6510 0.6460 0.6440
15.646981 0.6420 0.6420 0.6410 0.6370 0.6320
15.681000 0.6300 0.6290 0.6270 0.6250 0.6240
15.714981 0.6220 0.6200 0.6190 0.6120 0.6080
15.749000 0.6080 0.6070 0.6050 0.6030 0.6020
15.782981 0.6000 0.5980 0.5980 0.5950 0.5910
15.817000 0.5880 0.5860 0.5860 0.5860 0.5860
15.850981 0.5850 0.5830 0.5760 0.5660 0.5590
15.885000 0.5570 0.5560 0.5540 0.5520 0.5520
15.918981 0.5510 0.5510 0.5490 0.5470 0.5420
15.952000 0.5400 0.5390 0.5350 0.5320 0.5280
15.985981 0.5250 0.5280
##END=
