##TITLE=1,3-Butadiene
##JCAMP-DX=4.24
##DATA TYPE=INFRARED SPECTRUM
##CLASS=IUPAC A
##ORIGIN=NIST, Anayltical Chemistry Division, 301-975-3108
##OWNER=COPYRIGHT (C) 1998 by the U.S. Secretary of Commerce
##DATE=98/10/1
##$SPECTRA VERSION=1.00
##$UNCERTAINTY IN Y=2.5 % relative (B=1.6E-04,C=1.1E-09,D=2.7E-14)
##CAS NAME=1,3-Butadiene
##CAS REGISTRY NO=106-99-0
##MOLFORM=C H2: C H C H: C H2
##MP=-108.91 C
##BP=-4.41 C
##$NIST SOURCE=QUANT-IR
##SPECTROMETER/DATA SYSTEM=IFS66V (Bruker)
##INSTRUMENT PARAMETERS=KBr Beam splitter; MCT Detector; Multipass cell
##STATE=gas
##SAMPLE DESCRIPTION=1,3-Butadiene Primary Gas Standard
##PRESSURE=101.3 kPa
##TEMPERATURE=23 C
##SAMPLING PROCEDURE=1 L/min Flow
##RESOLUTION=1.9290
##DATA PROCESSING=Happ Genzel Apodization
##XUNITS=cm-1
##YUNITS=(micromol/mol)-1m-1 (base 10)
##XFACTOR=1.0
##YFACTOR=4.5474E-13
##DELTAX=0.9645
##FIRSTX=574.687
##LASTX=3974.595
##FIRSTY=4.71E-06
##MAXX=3973.63
##MINX=574.69
##MAXY=.0006609
##MINY=-4.37E-08
##NPOINTS=3527
##XYDATA=(X++(Y..Y))
574.69 10360180 9991246 9756238 9603266 8936354 8314764
579.51 7678534 8090348 7677800 7169410 6585794 6140798
585.29 5863590 5232596 4302918 4292670 4132290 4195912
591.08 4192986 4232158 4039072 3862570 3578216 3743744
596.86 3667740 3757464 3543694 3842912 3825178 3415546
602.65 2905302 2750602 2479216 2388994 2198378 2229704
608.44 1928184 1996090 1902468 1886886 1571406 1464480
614.22 1215772 1209692 1313346 1457508 1250130 1497842
620.01 1561032 1662426 1425642 1543116 1467758 1610380
625.79 1587466 1796824 1751762 1931748 1819500 1849040
631.58 1902290 2045996 2071466 2435648 2376356 2603964
637.36 2696708 2964464 3057978 3374164 3198816 3448192
643.15 3630070 3839430 3825314 4135730 4201482 4579182
648.93 4848574 5262624 5248762 5336926 5015176 5173302
654.72 5148926 5524878 5726844 5661708 5458264 5953206
660.50 5935442 6059388 6134898 6333454 6759050 7368866
666.29 7800040 8203726 7841798 7661916 7372146 7960500
672.08 7740546 7594770 7994608 7822884 6743596 6191018
677.86 5799980 5809482 5386130 5621828 5675542 5344256
683.65 4985838 4982534 4952326 5045158 4641162 4629220
689.43 4483196 4583356 4333114 4348072 4044996 3997158
695.22 3706264 3705678 3473270 3514426 3303596 3189284
701.00 2743278 2807616 2603490 2653882 2304934 2298068
706.79 2083724 2192608 1930392 1842070 1497450 1615106
712.57 1488464 1602988 1489810 1589732 1268682 1382710
718.36 1319590 1528468 1381096 1554994 1477526 1619516
724.14 1420790 1595842 1468896 1638250 1552822 1751364
729.93 1652518 1868894 1697284 1872588 1849228 2070956
735.71 1940018 2139476 2079028 2332800 2184036 2318898
741.50 2103682 2319250 2127156 2135714 1902878 2121582
747.29 2000142 2145560 1948386 2286888 2137590 2146724
753.07 1996284 2347514 2258302 2422518 2212280 2437798
758.86 2222472 2406238 2198940 2313872 2083114 2221728
764.64 1977206 2068950 1811422 1944654 1651110 1743080
770.43 1553234 1776590 1507806 1646866 1402876 1593020
776.21 1336436 1506208 1268484 1379516 1134768 1337134
782.00 1176014 1378066 1172670 1382322 1164800 1365706
787.78 1133736 1352584 1123574 1302300 1034758 1296416
793.57 1138328 1298560 1007234 1311788 1139734 1318770
799.35 1001892 1278180 1137624 1526604 1334514 1599840
805.14 1348416 1564394 1305062 1715116 1577096 1875272
810.93 1645660 2067048 1943436 2337234 2192494 2590264
816.71 2347840 2700562 2638950 3193552 3120894 3667748
822.50 3610758 4151412 4179438 4795536 4734958 5572242
828.28 5798138 6428584 6656592 7743826 7818484 8583510
834.07 9279834 10411570 10427780 11862350 12957550 13841720
839.85 14304800 16642830 17538900 18523630 20266130 22906140
845.64 23023710 24988210 27795440 29729650 30381530 34523680
851.42 36870880 38040160 41352050 46286240 46981080 50556400
857.21 56062300 58793160 60699800 68443880 71696070 73797920
862.99 81493000 87770370 88061760 97586180 105266700 105742800
868.78 114292100 126500000 124966800 134456400 149269800 147580500
874.57 153893000 175427000 172590900 176944000 200866400 199365400
880.35 197304600 228856600 226897600 221316000 254261300 250942000
886.14 237526600 278684300 272785700 258873400 297372200 280613200
891.92 261853200 307577900 282150300 273109900 305918800 276263000
897.71 273641100 302332500 278771800 274922800 279165900 284809200
903.49 298242200 353759500 520108900 1115262000 1453372000 880599800
909.28 466617800 359617200 316947100 301083100 304172100 302300100
915.06 330807500 332401600 346542900 344366500 340686900 358788200
920.85 344361000 358220800 349133300 354210800 354655900 346653700
926.63 347417000 333683400 334609100 322164000 319842900 304914500
932.42 297738800 283516000 276584100 263269800 254319400 240171800
938.21 229488200 217046600 207296100 196153700 185429800 173888100
943.99 163836900 153724400 144551700 135711800 128961300 120609600
949.78 113151200 105528000 99371450 92643630 87421080 82259350
955.56 78158690 73661700 70349060 66694410 64721700 61627340
961.35 60369200 58700220 57285070 56745370 56444830 55767410
967.13 57129120 56656980 57962110 59575820 60100790 62422680
972.92 64911820 66370330 71121830 73794020 77950610 83363920
978.70 88579140 96272440 104082600 111725200 122186500 128735600
984.49 136520900 141639800 141233900 140440600 131658600 124882200
990.27 139318300 159921100 179647600 198225100 211604500 214619700
996.06 217108400 213917900 206748100 204226100 192521700 184774500
1001.85 178508200 173143400 179633300 179495300 182801900 197512900
1007.63 207663200 226869400 262415600 275712000 291363500 357921200
1013.42 349257800 255329300 198765500 166707600 155799000 157636900
1019.20 151058800 148553100 159975600 158376500 155624000 161865900
1024.99 161185100 159303100 162426400 161875300 157983800 152886600
1030.77 156200400 154813100 148071400 144668100 140165200 137080700
1036.56 136133800 130837100 125902100 124692900 119376900 114381600
1042.34 112983400 104922500 103293200 105059700 100256400 96892710
1048.13 90267270 83932330 85787280 83359300 78514490 70903090
1053.91 64917090 61605720 58466940 56022610 53571880 50849750
1059.70 49052420 47016030 45615560 43121250 41244480 38700900
1065.48 36934560 34920490 32936180 31022070 29231960 27912980
1071.27 27379980 26478190 25595470 24841270 24190870 23019120
1077.06 22046020 20996700 19802770 18190090 17084980 15646560
1082.84 14408450 13003900 11889240 10731700 9906574 9156774
1088.63 8611324 7634148 6790484 5871280 5278350 4607102
1094.41 4249602 3705998 3334956 2787884 2538422 2218216
1100.20 2066062 1701666 1584480 1351654 1299066 1036560
1105.98 1001380 803372 820226 725940 780800 647046
1111.77 702940 560814 632030 542712 607694 507846
1117.55 596784 521264 584606 491056 559564 493560
1123.34 583272 495182 562368 503788 607570 551616
1129.12 630890 580710 669080 565604 597656 531760
1134.91 634800 569538 663546 555634 585376 557594
1140.70 662354 576960 584498 455062 543260 504122
1146.48 559902 476726 548534 469682 518126 451262
1152.27 490742 415676 476358 417342 452820 329602
1158.05 402892 367588 446458 418546 424030 328364
1163.84 401188 379196 452832 399454 461866 390770
1169.62 425668 365380 435580 409368 439924 395416
1175.41 463552 415936 509560 470094 499650 435810
1181.19 483936 409738 440662 418898 428868 338378
1186.98 372312 255052 264816 280634 356706 296176
1192.76 361356 305424 323740 336420 436482 392948
1198.55 425850 401226 472654 444008 483964 447552
1204.34 541116 539930 581406 629558 714558 672476
1210.12 790950 869210 900198 863812 1044584 1088592
1215.91 1117618 1177120 1227184 1223214 1435134 1501240
1221.69 1597360 1702798 1816024 1850804 2052276 2113138
1227.48 2218232 2397972 2501162 2590432 2901798 2945786
1233.26 3117468 3398762 3498364 3662274 4057758 4147306
1239.05 4349142 4690514 4942646 5215264 5683480 5753266
1244.83 6144120 6804846 6850056 7279702 7990050 8016594
1250.62 8718954 9320560 9412396 10194820 10613030 10680230
1256.40 11765440 11536990 11744980 12563430 12104250 12258970
1262.19 12165010 11846710 12173450 11787930 11598080 11260390
1267.98 11357300 12141340 12060710 12302860 12754800 13053060
1273.76 15034110 15414930 16129870 17460370 17049550 18236100
1279.55 18290030 17907700 18575290 17331600 17511720 16725290
1285.33 15638720 15041240 13747020 12758730 11381000 10153310
1291.12 9336862 9018902 8954430 8935428 9729614 10700340
1296.90 11803660 12807780 13534650 13917770 14201460 14217520
1302.69 13992320 13996880 13283310 13057420 12491170 11558100
1308.47 11259260 10526290 10041620 9822430 9018436 8723122
1314.26 8329828 7912262 7976618 7459506 7393794 7240624
1320.04 6814564 6920082 6682308 6529068 6601012 6297248
1325.83 6387202 6276032 6135614 6207754 6004816 6126398
1331.61 6073218 6000680 6155748 5953660 6170094 6172954
1337.40 6037160 6327738 6208272 6147578 6184608 6056940
1343.19 6366666 6397252 6475312 6738704 6699122 7178220
1348.97 7364128 7622468 8086964 8154244 8845428 9405766
1354.76 10038800 11266180 11820980 13373980 14966270 16639660
1360.54 19698950 21879550 24748440 28252280 30765990 35135020
1366.33 38596420 41372500 44931240 46418500 47760730 48213210
1372.11 46699320 44452570 39416540 32949180 26442880 21330760
1377.90 19897960 35723960 49061120 29939140 20486780 25558560
1383.68 31539750 36797220 41377440 43620210 44734260 43877480
1389.47 42284980 40718210 37085410 34799640 32387510 28368490
1395.25 25648890 22271000 19958240 18485550 15831600 14276230
1401.04 13511550 12729570 12676760 11953490 11400510 11233630
1406.83 11204350 11623300 11657210 11522600 11719490 11928030
1412.61 12380970 12236640 12034760 12313970 12651160 13447380
1418.40 14676800 13656610 12579320 12556540 12469710 12209780
1424.18 11531080 10946820 10602540 10044990 9831270 9872924
1429.97 9449710 9089168 9185654 9642830 10186810 11357260
1435.75 12822350 12097600 11401460 11419610 11497920 11655970
1441.54 11735300 11422560 11178770 10839750 10507120 10685770
1447.32 10283650 9420806 9146118 8683868 8335138 8197440
1453.11 7977130 8223374 9842252 10857020 9525136 8353254
1458.89 7445726 7421292 7334878 7324448 8016946 8758988
1464.68 8589188 8239380 8196226 8611836 8963744 9434948
1470.47 11015700 12009830 12240250 12011440 12080880 13283820
1476.25 13484660 13426630 13486080 13086180 12606510 12424030
1482.04 11842940 11098470 10747410 11049460 10856390 10146910
1487.82 10618900 12284080 11952800 10417280 10143120 11028970
1493.61 11989780 13800950 14573330 13347760 12946220 12291460
1499.39 10931010 10157590 9274520 8446046 8463516 9658834
1505.18 10462250 9978828 8014852 6929494 6254142 5908012
1510.96 6043978 5724722 5257184 5212668 5258264 5558782
1516.75 5158194 4276476 4406262 5890898 5994360 4548148
1522.53 3328370 3161240 3576096 2961942 2654362 2464146
1528.32 2079742 1905432 1925764 2178050 2852920 2894444
1534.11 1976422 1716300 1702446 3032194 5382392 5505778
1539.89 4167568 4081522 3430690 2517126 2923404 2867230
1545.68 2202334 2165000 2389750 2965462 3122008 3004450
1551.46 3147964 4296592 5527508 5042462 5145852 7542338
1557.25 10146600 10914760 11396750 10320790 9571540 10766870
1563.03 12515580 14316070 15677100 18024550 20394150 23897360
1568.82 28093720 31094700 35114970 41036260 46995150 55176860
1574.60 66131350 76740270 86050820 98061390 111958200 127818300
1580.39 145463100 164717300 182200500 198956900 212691900 224739300
1586.17 232926000 236710100 233092300 223614900 204415400 179244800
1591.96 152285100 134449700 138684600 188530500 211255200 170071500
1597.74 142538600 152794100 183362200 211711900 235609100 250772400
1603.53 257991800 254676900 243732800 225903400 203660700 178877600
1609.32 153588700 127941000 105130500 84378150 66635680 51961940
1615.10 42110410 33496660 24598560 18581400 15174260 12325530
1620.89 10795480 10200180 9579548 8065770 7400492 7155680
1626.67 7196528 6820974 6467860 6150988 6255398 6509698
1632.46 6739788 7300680 8933058 7976986 6802312 6748194
1638.24 6689398 6712810 6973370 7020496 7044526 7198798
1644.03 8220460 9358414 8811126 8071766 7345556 6668334
1649.81 6614618 8621816 11505150 10008080 6791332 4851906
1655.60 4114072 3829736 3648762 3524622 3711722 4192172
1661.38 5131706 5228182 4608182 4470090 4349276 4379494
1667.17 4729374 5491064 4833368 4108034 3810866 3159908
1672.96 3328270 4346696 4055966 2604200 2247206 2131184
1678.74 2282716 2177478 2042362 2583004 4100432 6010528
1684.53 4571964 1860136 1628422 1644174 1706770 1544924
1690.31 1427690 1229756 1297910 1553748 3942910 5158036
1696.10 2609050 1435020 2689844 5196836 4475416 1966390
1701.88 1317484 1669666 1917788 1923338 1994656 1496782
1707.67 1410490 1520800 1637016 1513192 1632634 1908130
1713.45 2617432 2804300 3293732 4959662 4440714 2929936
1719.24 2376332 2374430 2511462 2660306 2889120 2985358
1725.02 3254844 3437680 3599892 3868274 4357406 4361382
1730.81 4506318 5993824 7773072 7615888 5953158 5140048
1736.60 5293384 5671276 6644278 6459980 5767150 6081240
1742.38 6652200 6984632 7497226 8108162 8812126 9628550
1748.17 10164660 10728140 12188930 12081490 11452830 11621190
1753.95 11587500 11764740 11808510 10968180 10198190 9736274
1759.74 9565486 9692328 8842728 8179172 8107012 8084138
1765.52 8540176 9315462 9659304 8929876 8893720 9232520
1771.31 9850554 9217892 7624210 7195630 6995370 6694904
1777.09 6518594 6533652 6722068 6798184 6704832 6797122
1782.88 7204034 7760616 7711464 7791860 8102304 8489528
1788.66 9137894 9906640 10973180 12514550 12928320 13634670
1794.45 15083850 16391030 18328740 21631050 26191670 31717350
1800.24 38128150 45387620 53634070 62730410 72471340 82903430
1806.02 93002080 102685300 111785600 119081300 122906800 122796800
1811.81 119018900 111957700 102522000 93208940 88324300 93870830
1817.59 107215100 104108400 69619660 44590910 53269390 76193750
1823.38 98719740 116779600 129132200 135664000 137947200 135913000
1829.16 130142800 120689000 109457400 97538260 84842920 72307340
1834.95 60483600 49889250 40887210 32708130 26044850 20787010
1840.73 16599960 13342680 11605410 9771218 7325336 6036192
1846.52 5264754 4556510 4066594 3693328 3500660 3389486
1852.30 3349448 3333590 3481358 3615618 3705444 3947792
1858.09 4186602 4338750 4571202 4698632 4766340 4755664
1863.88 4672626 4661296 4710672 4728480 4832358 4642378
1869.66 4099486 3828314 3440862 3186654 3518176 4054598
1875.45 4527978 4933294 5196684 5229088 5234694 5255954
1881.23 5268504 5267808 5179852 4979094 4731412 4522674
1887.02 4287198 4159292 3823552 3272766 3024730 2831956
1892.80 2756430 2762766 2692606 2513546 2446248 2327794
1898.59 2238066 2208340 2355078 2701684 3113872 3290036
1904.37 3333340 3327372 3274708 3187736 3136836 3144722
1910.16 3130140 3134470 3085574 2999268 2924538 2886700
1915.94 3023544 3279180 3016560 2662938 2628076 2691676
1921.73 2824876 2835412 2772866 2768786 2867738 2854310
1927.51 2845900 2913350 2918724 2876042 2875358 2901808
1933.30 2897118 2858802 2897048 2927176 2944134 2918278
1939.09 2902804 2964916 3260260 3403684 3362888 3532972
1944.87 3782512 3993384 4206670 4417264 4664742 4857486
1950.66 4995742 5232418 5513062 5915834 6434344 6603298
1956.44 6610370 6839410 7176302 7568614 7904118 8081890
1962.23 8083200 7953246 7651478 7364892 7072996 6777056
1968.01 6713954 6561522 6513590 5777616 5080406 5176386
1973.80 5743266 6381258 6710098 6876266 6899342 6649402
1979.58 6403070 6130296 5720132 5303098 4888112 4501850
1985.37 4104684 3689750 3418940 3163314 2859066 2754204
1991.15 2595100 2274160 2080964 1883408 1745434 1669280
1996.94 1565062 1484108 1376368 1326804 1285842 1213268
2002.73 1166448 1081582 1038190 1037540 964338 904710
2008.51 804778 717248 684476 605636 519142 470400
2014.30 446208 428128 397972 356746 282552 202678
2020.08 162642 146822 140984 113104 61810 25868
2025.87-10804-2612 25992 44190 34718 22820
2031.65 25240 28294 14154 36614 9950-67072
2037.44-103092-45818 14324 36058 22372 8056
2043.22-3252 18212 61902 11556-56314-54580
2049.01-57448-82652-87138-88228-93636-82446
2054.79-96174-82330-79006-54248-22214-10046
2060.58-7378 1158-1730 5234 3156 4104
2066.37-9322 28658 39948 8952 8512 51998
2072.15 104176 91252 64582 94162 147590 187534
2077.94 145724 125760 175654 236774 215864 204094
2083.72 213074 303292 351520 322480 354924 425568
2089.51 517912 491044 432342 491528 624660 686928
2095.29 632498 647764 770240 891830 755416 663566
2101.08 673980 777434 694130 556852 549806 742194
2106.86 705264 512922 566316 720868 852504 768642
2112.65 742982 852466 1018528 909318 791496 813518
2118.43 892358 815944 657442 610652 666836 625922
2124.22 494286 460956 534578 566272 426174 370664
2130.01 434506 491162 385830 378100 443168 476466
2135.79 390508 356842 372692 393428 352940 378500
2141.58 383812 383424 390964 414972 444510 454754
2147.36 412212 449522 513070 507600 437666 485100
2153.15 607316 638798 513562 521874 670058 721080
2158.93 619004 687642 849474 828904 712488 870176
2164.72 1038816 963358 836332 949666 965432 817922
2170.50 823584 1017756 961380 818562 911512 1064118
2176.29 878778 810148 997258 1084252 909692 858042
2182.07 960102 913612 804618 975526 1054214 935562
2187.86 954368 1050098 956738 897434 940272 977336
2193.64 910156 943106 1017562 989828 964424 1081596
2199.43 1087160 1014660 995224 1020998 957760 914968
2205.22 877796 846090 805828 829502 809320 844830
2211.00 910432 932250 869910 911694 1021190 1077992
2216.79 997538 970032 928248 918252 869006 847834
2222.57 824926 857224 837746 854098 884390 897588
2228.36 872722 907952 922774 979420 1014506 1076644
2234.14 1091046 1150152 1205116 1232538 1258218 1360208
2239.93 1415722 1457518 1437490 1516552 1615378 1648446
2245.71 1691630 1820102 1814212 1866336 1980264 2075510
2251.50 2196972 2325594 2349938 2495950 2575726 2591392
2257.28 2642870 2598530 2479874 2451524 2416848 2376042
2263.07 2255326 2103642 2030512 2094540 2192414 2357104
2268.86 2510832 2675822 2748522 2770938 2666454 2590884
2274.64 2537798 2427828 2327592 2232370 2095526 2059134
2280.43 1961378 1920080 1848916 1762168 1709748 1654534
2286.21 1615994 1622384 1575290 1532426 1441488 1388586
2292.00 1302784 1279720 1246696 1284072 1314368 1345252
2297.78 1375180 1378812 1350770 1333888 1254536 1187166
2303.57 1138646 1085792 1053570 1055304 1031280 1079824
2309.35 1105040 1182616 1106942 1156082 1115318 1203374
2315.14 1132068 1264826 1209812 1320904 1297572 1421808
2320.92 1378532 1485976 1454672 1565556 1553044 1683914
2326.71 1704332 1813184 1792896 1906824 1927144 2006440
2332.50 1986400 2003320 1975098 2004294 1955984 1972686
2338.28 1949354 1959488 1915456 1914876 1837772 1797380
2344.07 1634028 1413278 1145256 952312 764106 785874
2349.85 932380 1192078 1380364 1542182 1657062 1859710
2355.64 2011086 2138850 2207684 2304314 2324970 2319390
2361.42 2262204 2255420 2180254 2104864 1976068 1895016
2367.21 1734060 1596412 1453904 1334866 1199848 1099314
2372.99 947076 836340 716796 644150 536718 478938
2378.78 418380 391572 341308 352768 347586 359316
2384.56 310918 312722 309940 334474 329236 348398
2390.35 317812 359202 373642 388820 415126 438846
2396.14 405374 442018 436724 447338 455436 535758
2401.92 563392 577888 544328 611288 636970 663584
2407.71 665666 718808 751316 815910 812230 807722
2413.49 793740 816550 814574 897720 864926 851292
2419.28 851786 841692 809534 814640 771654 758318
2425.06 743260 771628 790402 900862 925020 945412
2430.85 953762 994694 963288 982564 947004 939638
2436.63 905870 898848 880242 900694 862846 897788
2442.42 892952 895560 870086 888014 895498 956696
2448.20 966150 1039208 1047732 1029278 1057282 1134102
2453.99 1120068 1190712 1178886 1204802 1219228 1221376
2459.77 1244388 1291376 1286986 1352598 1357878 1441426
2465.56 1461042 1522978 1567444 1636268 1709934 1825184
2471.35 1912478 2010706 2047124 2256252 2404686 2536138
2477.13 2707254 2836354 3056204 3332164 3428360 3583124
2482.92 3617856 3619790 3656422 3622146 3512902 3397894
2488.70 3114986 2830022 2572132 2550976 2860114 3210054
2494.49 2770520 2445532 2576906 2888302 3169574 3434376
2500.27 3589848 3639790 3645806 3551604 3360082 3166724
2506.06 2858020 2710464 2422692 2193536 1935116 1702634
2511.84 1577944 1394760 1231120 1176764 1077248 1035394
2517.63 940294 875268 815966 837532 793792 807062
2523.41 736394 769448 715000 690834 680336 669650
2529.20 658182 690744 664056 667168 583550 590338
2534.99 569652 577108 578790 576410 543328 557786
2540.77 523750 528778 497472 478454 430342 482338
2546.56 490350 498904 503562 541456 513840 544030
2552.34 565952 606680 603564 632656 645344 698038
2558.13 694680 736798 748520 788818 770020 765334
2563.91 729618 827580 851652 893308 959136 1090406
2569.70 1172882 1248148 1219418 1282656 1310362 1318762
2575.48 1246170 1158274 1014286 950826 864576 880390
2581.27 950792 1069386 959558 875164 910342 1025272
2587.05 1068114 1116200 1109986 1136282 1062724 1043810
2592.84 1014568 997332 894888 842418 704056 615494
2598.63 536238 480594 402316 363456 301986 325828
2604.41 307280 314598 280150 282440 230314 221390
2610.20 232014 283548 257924 260570 259366 265462
2615.98 252584 299686 270938 312970 267996 269648
2621.77 307028 372372 339604 328794 312136 374088
2627.55 409936 459936 377062 348708 343226 402064
2633.34 389146 397224 379054 458984 438700 425172
2639.12 400686 424706 435602 486938 470070 478718
2644.91 471304 487998 420506 395572 382100 407100
2650.69 388408 380274 321500 346644 343952 384968
2656.48 323444 317922 320578 326574 276732 320956
2662.27 318964 356544 325710 269928 244180 263916
2668.05 218636 250806 238074 237630 191166 188096
2673.84 177598 216780 197110 183720 157206 188122
2679.62 152762 188504 170870 218988 236920 292754
2685.41 247454 229004 211068 241448 226186 259874
2691.19 257634 267588 279066 365390 344216 359064
2696.98 344554 405004 408636 481298 439006 428648
2702.76 423398 449500 446862 512060 501874 519662
2708.55 486330 518576 523030 568802 579522 680158
2714.33 729518 776200 803868 899190 919036 953190
2720.12 921876 945122 921906 908606 824640 821568
2725.91 754636 699846 632572 627284 588222 616926
2731.69 590862 596742 586254 678450 790112 781056
2737.48 659428 675694 649474 645494 600910 594718
2743.26 560606 605962 572686 518684 432448 477420
2749.05 469072 441370 389408 427886 400952 431820
2754.83 407280 401032 372896 361206 200224 123440
2760.62 263658 478470 456382 421774 372144 377542
2766.40 342580 406384 404096 425586 374042 372808
2772.19 364608 432826 432540 443382 480072 517410
2777.97 446540 494770 546916 612300 646266 724476
2783.76 738692 808244 796938 817194 800450 837812
2789.54 796402 829568 818410 817680 749120 744450
2795.33 776916 853556 871082 939710 909176 909462
2801.12 919616 1027900 1067802 1112928 1122896 1161962
2806.90 1105438 1119602 1093310 1055074 923606 833436
2812.69 754758 776736 735342 752806 744702 773406
2818.47 720926 755598 793932 886762 914348 950310
2824.26 892828 924780 962030 999192 1034006 1094456
2830.04 1051002 1155030 1296502 1436716 1504760 1669424
2835.83 1786708 1888052 1941296 2131572 2332350 2517120
2841.61 2634768 2851812 3023602 3217892 3356898 3571456
2847.40 3661712 3742438 3808328 3930944 3949158 4015744
2853.18 4078918 4260848 4345308 4461604 4538204 4603664
2858.97 4645282 4773884 4846332 4983390 5132534 5345434
2864.76 5375006 5395918 5466120 5582916 5611886 5668152
2870.54 5692694 5797080 5752922 5802990 5912006 6171764
2876.33 6462684 6860074 7242052 7583262 7485466 7289816
2882.11 7237040 7355458 7489694 7771024 7962570 8155048
2887.90 8460734 8823984 9294270 10062710 10202970 10040080
2893.68 10088820 10134300 10137900 10408900 10516350 10770370
2899.47 11288100 11348910 11322950 11722270 11604390 11826620
2905.25 12387070 12295060 12741860 13367450 13298820 14054730
2911.04 14599420 14612490 15707450 16436730 17263590 18520230
2916.82 18077470 17510150 17439170 17231620 16968690 16872650
2922.61 16763440 16985880 17343500 18271710 19574950 20872140
2928.40 21793140 22520790 23044300 23555360 24057900 24531220
2934.18 24777590 25027030 24910700 25151610 25121860 25309360
2939.97 25802670 25901770 26609090 27255620 27967440 28468710
2945.75 28776660 29976290 30737160 32157810 33189840 34353010
2951.54 35679440 35434200 35848240 36458490 36979220 38499310
2957.32 39358160 40726000 42403500 43845140 46496940 49303410
2963.11 53380340 58549400 63529990 69765510 73220040 74011260
2968.89 76935100 80011940 83055580 88028890 91175210 92895080
2974.68 95301990 95780310 93976380 92970340 90503660 86207700
2980.46 83374530 81809540 85514210 88928210 85780270 86405500
2986.25 93095620 101681400 108566100 114987500 118477200 123349600
2992.04 125416900 124834500 125775100 124170100 127485000 129956900
2997.82 129631700 131246200 129691500 130215400 128893800 124752400
3003.61 122872500 119047100 115355600 109477100 103853100 102897200
3009.39 103133600 102167400 96238200 95768250 102389800 107361500
3015.18 110399500 112905100 114953500 117000600 117757500 118124200
3020.96 118298600 116121500 115166400 112223600 108843900 106544700
3026.75 102802600 100044700 96722050 94303020 93731460 94023060
3032.53 96924140 99657900 102852400 105090600 109395500 113570300
3038.32 116846100 122329100 123965600 126189900 128522700 128715900
3044.10 127936900 127849200 124801000 121076800 118183300 112120800
3049.89 106972300 102141100 98660450 100710300 104525500 101684200
3055.67 102142100 107923900 114284000 123057700 129543300 134077600
3061.46 141758900 143932000 145037200 147404200 144805700 144220000
3067.25 142441300 139253600 136956400 136495700 134755900 133176400
3073.03 133275300 133355600 136208900 137839900 140224600 145133000
3078.82 146371800 154738500 162963600 163917900 175685400 183783400
3084.60 186975700 201684100 204405500 205612000 212415400 207807100
3090.39 206210200 199041700 185145100 173567100 158340300 144753600
3096.17 142035500 141211800 132792700 133136000 132220400 129977200
3101.96 144057800 164465400 181709100 196288400 203186700 204679600
3107.74 206806800 200040700 193907900 185294600 170877800 163455200
3113.53 148781500 136055500 128853700 115595400 110420500 103377400
3119.31 92616220 89774000 84621310 80069270 77827360 71892420
3125.10 69693900 66682070 63687460 62262720 58129760 55869290
3130.89 53639990 51072820 48783600 46826660 43606730 42133290
3136.67 39418760 37238280 35637600 33155960 31530040 29762640
3142.46 27625810 26144980 24458530 22797700 21495490 19992880
3148.24 18395170 17337980 15893760 14804630 13772610 12707780
3154.03 11756440 10777630 9980918 9195748 8425682 7771306
3159.81 7031650 6628482 6070100 5553334 5074880 4595576
3165.60 4199334 3979866 3640092 3321110 3129250 2919938
3171.38 2551754 2520422 2200442 1861476 1622062 1448346
3177.17 1284928 1190626 1028586 986252 932904 953446
3182.95 904244 941076 908848 927788 905164 807660
3188.74 634820 590540 316302 285916 497542 576792
3194.53 565584 635034 551062 439488 201832 148900
3200.31 209248 281788 177832 97918-30966 29838
3206.10 48318 153624 112332 198322 241720 344312
3211.88 338780 417714 445624 579536 673222 803938
3217.67 832556 987074 1043162 1184902 1190014 1243022
3223.45 1300566 1337562 1339362 1370894 1249632 1236438
3229.24 1229674 1261060 1262048 1461486 1718524 1984704
3235.02 1901968 1790462 1842564 2015094 1984396 2050304
3240.81 2040442 2053712 1928666 1883344 1708754 1579682
3246.59 1438506 1351412 1199032 1145902 1046364 995008
3252.38 861766 814282 709782 766640 763606 679266
3258.17 609772 708204 643598 665296 659290 683400
3263.95 647014 658778 603008 581282 496640 541584
3269.74 477868 455944 419276 436510 334560 331026
3275.52 314568 367746 326880 322086 245426 226484
3281.31 189180 231870 163732 183370 191526 265116
3287.09 248270 308636 260902 222328 165788 262290
3292.88 284938 338494 324906 394188 369656 478524
3298.66 484236 523234 492098 486256 433004 418444
3304.45 373814 448876 474828 491764 460156 523958
3310.23 487788 475940 457268 570940 590704 606068
3316.02 547402 585170 570702 598232 542640 549866
3321.80 504222 520736 401626 415358 413992 497532
3327.59 405770 346950 332994 349728 268470 233334
3333.38 245946 351964 228616 176910 164698 240186
3339.16 161644 206360 197958 266744 231078 197512
3344.95 87116 108044 122938 206956 142386 112016
3350.73 86264 234648 201022 162950 156604 211104
3356.52 169502 235024 191894 230000 255920 290256
3362.30 205246 261954 276898 295630 212044 218890
3368.09 174374 277122 336364 491816 550522 527396
3373.87 426976 471084 500934 594842 600858 655480
3379.66 704180 796458 731696 771884 813404 995752
3385.44 1077240 1149188 1146414 1245292 1249124 1280820
3391.23 1328716 1424154 1368936 1285012 1128264 1191616
3397.02 1129976 1093862 1102796 1203482 1225726 1339170
3402.80 1359734 1429738 1400296 1429444 1401628 1410470
3408.59 1298462 1317686 1289004 1247736 1077560 969806
3414.37 775012 790508 850668 893516 791900 791104
3420.16 669198 652736 554772 493494 425924 431802
3425.94 414514 496684 410880 365626 315266 395114
3431.73 396964 399986 313884 419392 432664 476962
3437.51 504282 634822 653968 741912 761164 803392
3443.30 717898 730532 762170 873002 773560 740240
3449.08 614996 635410 562646 564358 480426 461784
3454.87 468740 533378 550834 648394 712866 784300
3460.66 697200 740730 719652 774150 665402 700064
3466.44 754858 716284 600198 610376 510174 479168
3472.23 394106 451322 368316 316296 259028 362988
3478.01 341736 399024 390188 482422 392176 324698
3483.80 301030 378740 314834 376676 420512 476666
3489.58 425718 396284 306336 353430 345346 467246
3495.37 446070 429988 391360 505550 531018 585002
3501.15 572744 672214 622254 583848 514948 533086
3506.94 462686 638592 660328 613724 541214 575602
3512.72 508432 562330 570224 626472 594442 608828
3518.51 534414 588798 615030 682688 595924 620234
3524.30 613662 690784 760044 837424 787532 734834
3530.08 714368 767076 725094 743850 639038 689450
3535.87 690674 687956 612862 599978 523466 501690
3541.65 496524 595750 632820 767570 754304 795006
3547.44 653762 696346 677474 729926 756754 807618
3553.22 755254 726168 648208 597870 534342 583364
3559.01 609012 656128 604384 636516 625706 715760
3564.79 947630 1166440 1256638 1114910 642468 577022
3570.58 535286 635080 597316 665544 651368 697572
3576.36 698536 749794 682372 711066 621074 687540
3582.15 733196 789194 784386 1301900 1463092 1453748
3587.94 1526972 1099658 848646 895254 1071486 1181306
3593.72 1229078 1373214 1231682 1273948 1291256 1341028
3599.51 1392700 1375548 1286318 1288142 1237680 1265968
3605.29 1330496 1567362 1728478 2245482 1727328 1203960
3611.08 1547756 1759426 1472482 1476958 1316368 1576538
3616.86 1874304 2218122 2366644 1846698 1533678 1461182
3622.65 1263010 1214326 1137552 993952 1486528 2671494
3628.43 2980212 1876410 806482 750490 836652 839410
3634.22 489828 377092 300156 420594 585154 900664
3640.00 954070 928892 700658 531918 482834 674880
3645.79 1299632 1641636 2133694 2460270 1728520 1273570
3651.57 425226 259400 165826 834658 1304974 586568
3657.36 78562 123464 88150 166444 89740 147188
3663.15 91990 96598 26382 184978 648178 1151916
3668.93 1756200 2534840 962466 141810 627720 2050846
3674.72 2951666 1971912 465316 359334 440126 342488
3680.50 87004 197550 124302 207118 78636 197568
3686.29 1045428 2987694 2092660 816716 1140230 782748
3692.07 187540 206012 166910 292656 263032 269300
3697.86 226696 275056 456178 979300 645902 314380
3703.64 194404 262514 182082 215036 603048 1135998
3709.43 738588 1445692 2080494 927262 282274 322334
3715.21 156388 193250 274348 437658 266258 354494
3721.00 649934 598958 259414 411120 629072 825068
3726.79 382440 235622 169544 475884 1500784 1776002
3732.57 784862 1297536 1602732 1926318 1276576 616774
3738.36 359578 464436 465376 383666 1318888 4533950
3744.14 4237876 1116482 369760 968228 2844436 2752210
3749.93 1410490 3172636 2708220 594972 89020 374872
3755.71 555834 391074 466848 954792 679190 289008
3761.50 163140 172134 240828 704076 590634 136584
3767.28 149666 825278 1057208 434404 111736 141376
3773.07 144260 128512 107870 158684 174200 572132
3778.85 670130 266992 120208 151128 213172 383376
3784.64 306682 237496 140502 147824 141828 196366
3790.43 201646 218126 187862 203566 366060 862246
3796.21 721886 396090 364634 1000606 2841070 2614066
3802.00 868366 484396 317968 1012082 2147640 1490824
3807.78 283364 287054 215512 345676 250806 358144
3813.57 617394 2544354 2859576 937144 383076 730642
3819.35 1650968 2397348 1600598 655462 429398 478538
3825.14 705608 876878 570328 486332 502616 970754
3830.92 1189826 703316 733120 1406344 1114608 1538028
3836.71 3406014 2480332 1039010 1297884 1032610 880100
3842.49 1164932 1053414 634562 633044 645098 816798
3848.28 896442 987570 1928948 3305116 3639132 5476220
3854.07 3448294 1045668 957596 930164 720024 775358
3859.85 989924 1348438 1080044 1171058 1865444 1806726
3865.64 965928 893688 1305906 2627136 2613834 1363892
3871.42 933578 1327166 1596536 1227658 826938 879062
3877.21 933324 1322670 1845258 1570188 953596 1004028
3882.99 1068246 1940024 2591916 1619372 951244 962436
3888.78 1047342 1767018 1950702 1264640 912592 877176
3894.56 777450 782224 916028 1397580 1811804 1470180
3900.35 1733684 1940270 1713882 2131090 1548666 1181202
3906.13 954186 937718 920354 919322 821384 868372
3911.92 815716 832654 748178 915568 1250094 1293602
3917.70 940776 1107664 1045740 889248 834088 983066
3923.49 1135296 1171368 920222 959244 972380 1104330
3929.28 1082990 1147094 1239102 1188826 998580 1056054
3935.06 956718 944412 925644 998712 893152 967116
3940.85 1032220 1237898 1077258 1071152 1067250 1158400
3946.63 1228864 1349168 1132398 1084724 1070784 1176938
3952.42 1230278 1258940 1181716 1285774 1257614 1271890
3958.20 1267510 1445448 1504400 1581748 1549170 1733622
3963.99 1789536 1905840 1966792 2191318 2318140 2554620
3969.77 2630546 2815010 2951532 3129218 3129158
##END=
