##TITLE=1,4-Dimethylbenzene
##JCAMP-DX=4.24
##DATA TYPE=INFRARED SPECTRUM
##CLASS=IUPAC A
##ORIGIN=NIST, Analytical Chemistry Division, 301-975-3108
##OWNER=COPYRIGHT (C) 2001 by the U.S. Secretary of Commerce
##DATE=01/06/01
##$SPECTRA VERSION=1.10
##$UNCERTAINTY IN Y=2.1 % relative (B=1.10E-04,C=1.28E-9,D=4.08E-14)
##CAS NAME=1,4-Dimethylbenzene
##CAS REGISTRY NO=106-42-3
##MOLFORM=1,4-( C H3)2 C6 H4
##MP=13.26 C
##BP=138.35 C
##$NIST SOURCE=QUANT-IR
##SPECTROMETER/DATA SYSTEM=IFS66V (Bruker)
##INSTRUMENT PARAMETERS=KBr Beam Splitter; MCT Detector; Multipass cell
##STATE=gas
##SAMPLE DESCRIPTION=p-Xylene Primary Gas Standard
##PRESSURE=101.3 Pa
##TEMPERATURE=23 C
##SAMPLING PROCEDURE=1 L/min Flow
##RESOLUTION=0.9640
##DATA PROCESSING=Triangular Apodization
##XUNITS=cm-1
##YUNITS=(micromol/mol)-1m-1 (base 10)
##XFACTOR=1.0
##YFACTOR=9.0949E-13
##DELTAX=0.4820
##FIRSTX=575.17
##LASTX=3974.605
##FIRSTY=1.56E-06
##MAXX=3974.12
##MINX=575.17
##MAXY=.0005971
##MINY=-8.48E-07
##NPOINTS=7052
##XYDATA=(X++(Y..Y))
575.17 1716878 2019821 1630775 1016446 913437 644806
577.58 163177 945953 1139280 506748 225312 804096
580.47 1067467 284429-485294-537008-653005-511361
583.37-305014-324754 28181 216210 273505 799039
586.26 409964-83272 79111-166419-413603-889025
589.15-86911 706160 367449 152305 283516 337336
592.04-32244-246031-392962-359495-270710-385519
594.94-602049-896499-136963 425041-162756-526690
597.83-394174-460056-647313-459462-198662-410866
600.72-844653-932602-534891-261212-611359-502591
603.62-560796-604386 28808-325772-743335-280734
606.51-543787-954624-978636-921081-699317-397993
609.40-126234-254623-547513-365266-223904-559691
612.29-899024-794750-722274-853204-848262-661671
615.19-616001-901506-603514-211021-33329-30517
618.08-510660-846649-927274-644902-389560-542509
620.97-515200-745606-720087-294374-147895-399950
623.86-571411-372637-402919-555717-737463-443363
626.76-413697-795418-926041-704477-353647-312445
629.65-131343-59156-295362-707677-362650-48597
632.54-357071-349214-548671-706600-533848-543232
635.44-853166-709017-363144-103255-128901-479962
638.33-293402-276774-727973-615702-179492-97360
641.22-167559-227386-338595-343143-290775-392314
644.11-373821-316649-520749-593682-366814-401602
647.01-267625-96485-33959 144183-273498-597163
649.90-289323-214625-335713-444238-505603-282416
652.79-108037-297067-391822-525799-477671-242025
655.68-258791-130916-22506-168100-482961-333221
658.58-155855-299888-300541-313874-212512-176124
661.47-400994-329057-89219-264489-310031-310306
664.36-352483-84545-98892-107016 39926 671880
667.26 923300 239898-208495-306937-26970-53205
670.15-271345-371635-272380-264593-423084-252894
673.04-252012-217718-357581-411560-186645-109518
675.93-44928-172492-211502-122744 109818 160763
678.83 221044 263274 207191 18737-223152-245968
681.72-164075-348803-429198-33477-369682-805662
684.61-400731-16734 15860-59319 8951 110453
687.50-27035 163172 197852 137539 290581 143588
690.40 208177 203726 151704 208675 31757 18519
693.29 134589 415392 411529 353603 419110 333928
696.18 373972 443878 510206 273302 182414 525776
699.08 539284 502422 785172 666244 443299 283840
701.97 91549 308051 244337 201511 321201 163734
704.86 170449 454731 444336 238606 238989 237374
707.75 331334 214859 145798 322793 290854 103825
710.65 119397 250664 323650 439687 534752 530970
713.54 328441 317729 403242 203890 138811 336098
716.43 418876 173776 272944 569123 432558 190328
719.32 183325 330337 298066 252624 308917 334556
722.22 367072 178818 121654 279045 342068 355914
725.11 322768 322340 387957 488597 540615 570618
728.00 363433 302245 474984 493133 533668 432044
730.90 506998 664626 550505 524955 483883 376315
733.79 463783 392227 309420 349521 421598 370968
736.68 227747 386378 475148 566845 550028 371552
739.57 556120 894387 1078279 1182111 1018470 535238
742.47 302740 471461 588152 620504 765957 717029
745.36 502501 495960 616666 724400 792826 792616
748.25 817595 904516 911443 827091 949888 1015841
751.14 906142 1042008 1031250 1001707 1239085 1337041
754.04 1335253 1394908 1413563 1321946 1366963 1593260
756.93 1612911 1606958 1811294 1996288 2169294 2250628
759.82 2542654 2910013 2956909 3223088 3655774 3747725
762.72 4270033 4959813 5361399 5973249 6697872 7502982
765.61 8329115 9331701 10405129 11571887 12933339 14047693
768.50 15240620 16806659 18633138 20462152 22439094 24651355
771.39 26992471 29768920 32681780 35806851 39309465 42860644
774.29 46878141 51174164 55706081 60639590 65729192 70696590
777.18 76165775 81920908 87709611 93650170 99553675 105638265
780.07 111745664 118025621 124657056 131230112 137547558 144052472
782.96 150412205 155955591 161064395 165947614 171127297 176967820
785.86 183546422 189548304 192458966 192194654 190607666 189336792
788.75 189655510 191229413 193555395 196726502 201273997 207485700
791.64 217931135 235715275 265627601 313355603 388212396 488016364
794.54 606082828 656574752 534737459 360660174 263653578 223369073
797.43 207487265 200516743 198162197 197360354 197747087 198140681
800.32 197883923 197050710 195825296 194208888 192712475 191288783
803.21 188563965 183685919 178120319 173218373 168782105 163946871
806.11 158690193 152754920 146077515 138752881 130972674 123366170
809.00 115777075 108380939 101691378 95084772 88711178 82441905
811.89 76322162 70498450 64602194 58920207 53758470 48875818
814.78 44216319 40018897 36217390 32499983 29279367 26201419
817.68 23429447 21063061 18917055 17199530 15473115 13991292
820.57 12978669 12168294 11226676 10393853 9862367 9236437
823.46 8755870 8431789 8316848 8134664 7665411 7415477
826.36 7240356 6988014 6747796 6411867 6367863 6350365
829.25 6142977 6009994 5898308 5740737 5506298 5442524
832.14 5414191 5310230 5257854 5245262 5164224 5094492
835.03 5013927 4932834 5032977 4852807 4669743 4552150
837.93 4368822 4068706 3792028 3647640 3559490 3435411
840.82 2980555 2686729 2419763 2337926 2445776 2317805
843.71 2160958 1955611 1861979 1693255 1445981 1476412
846.60 1589240 1628355 1629480 1516583 1396030 1235398
849.50 973709 969600 1252809 1294004 1181231 1248647
852.39 1279205 1262701 1126239 974666 1029031 1109687
855.28 1077676 1076969 1120210 1060835 1067424 1143718
858.18 1113935 1053976 1014413 918310 972390 1047652
861.07 996669 942813 1083383 1129464 1131388 1158276
863.96 1044152 1190997 1227946 1106223 987564 942037
866.85 1101172 1149395 1104065 1159207 1301179 1283442
869.75 1285847 1368304 1238637 1317316 1308571 1219465
872.64 1319394 1285112 1338467 1332123 1295763 1305386
875.53 1208438 1274819 1343389 1294408 1418811 1464147
878.42 1341172 1263320 1236663 1384404 1507751 1483297
881.32 1351361 1198160 1149702 1200833 1364319 1376794
884.21 1361699 1504352 1539704 1571757 1541688 1440203
887.10 1454077 1425791 1570676 1660386 1639777 1654250
889.99 1615072 1559607 1521735 1520091 1656098 1690298
892.89 1642298 1685146 1609094 1617963 1659261 1657945
895.78 1672934 1719624 1689370 1629494 1723298 1738104
898.67 1640309 1611277 1626616 1620226 1673771 1679429
901.57 1661343 1635227 1586064 1668047 1695102 1641371
904.46 1677365 1799712 1811713 1832910 1881731 1836185
907.35 1931752 1943179 1873697 1921726 1987532 2064525
910.24 2156448 2294991 2337187 2403160 2506324 2668811
913.14 2634576 2597213 2719247 2760793 2914006 3081764
916.03 3051450 2878576 2923526 3049733 3027771 3014589
918.92 2982726 3025168 3104899 3086503 3107296 3203821
921.81 3255743 3275610 3240213 3246378 3284111 3328766
924.71 3319391 3225578 3287042 3306827 3272083 3386504
927.60 3395573 3278597 3166737 2911765 2809956 2893126
930.49 2959988 3066354 3085653 3022167 2943624 2832212
933.39 2721700 2766542 2859516 2801645 2808133 2775233
936.28 2678723 2668375 2701882 2639875 2658147 2891081
939.17 2937192 2767541 2786193 2908539 2937556 2978534
942.06 2974581 3057415 3110763 3097200 3209040 3250551
944.96 3254365 3315522 3349108 3395581 3524267 3553947
947.85 3572313 3611449 3632775 3724125 3689767 3720834
950.74 3818588 3911024 3980098 4009958 4142074 4187188
953.63 4261437 4349817 4313704 4375210 4545812 4685683
956.53 4712829 4646815 4688907 4807823 4804691 4710631
959.42 4644433 4710517 4922101 4991845 4885805 4746751
962.31 4715213 4834259 4797551 4747574 4805096 4941589
965.21 5056926 5010058 5027742 5048566 5144047 5147276
968.10 5107063 5276782 5364965 5446929 5449879 5309305
970.99 5232913 5196712 5073277 5017604 5058852 5016575
973.88 5038938 5041282 4948941 4928444 4899716 4950998
976.78 5031631 5037896 5030066 5011070 4927631 4837474
979.67 4856090 4941793 4877345 4817179 4830579 4868934
982.56 4966737 4959542 5032739 5061294 4976622 4992022
985.45 4952783 4944962 4927607 4915295 5093554 5096327
988.35 5128476 5199876 5208344 5303337 5342878 5272708
991.24 5267094 5442566 5465673 5429116 5503348 5467068
994.13 5519961 5557052 5503410 5600483 5687071 5697524
997.03 5699982 5765943 5779861 5739271 5792202 5749491
999.92 5683527 5705899 5733514 5740155 5693964 5550373
1002.81 5473089 5461078 5398744 5413961 5407836 5496312
1005.70 5535289 5494356 5502424 5588288 5740056 5872433
1008.60 6160312 6469287 6737820 7074363 7504234 8027831
1011.49 8703072 9398578 10121188 11135243 12384956 13698694
1014.38 15005280 16389785 17811240 19378454 21063509 22588073
1017.27 23576952 24020704 24347925 24339850 23952954 23434252
1020.17 22548158 21749827 21360433 21296374 21754482 23703535
1023.06 27816868 31752646 30097506 24329847 21735449 22127366
1025.95 23339920 24923870 26398102 27708746 28696551 29351320
1028.85 29378189 28997022 28630801 27820862 26666139 25537408
1031.74 24525413 23513178 22229677 21514166 21079937 20449216
1034.63 19926964 19503838 19213877 19069185 19093366 19138189
1037.52 19167150 19247254 19432558 19692153 20085405 20628033
1040.42 21284449 22010663 22848358 23895073 24888135 25455502
1043.31 25880669 26351647 26854596 27382143 27276296 26860073
1046.20 26634647 26561494 26935575 27386526 27610036 27801717
1049.09 27551285 26934924 26698925 26903354 27144925 27090653
1051.99 26786115 26540948 26129414 25751326 25632945 25529319
1054.88 25271353 24841206 24422139 23984382 23619929 23241496
1057.77 22702549 22236100 21929818 21506242 21002830 20703541
1060.67 20372893 19971958 19674802 19319887 18922243 18568127
1063.56 18177772 17711436 17255556 16849801 16443359 15996024
1066.45 15587494 15200597 14784599 14522644 14299928 13982913
1069.34 13614707 13386911 13180031 12739722 12440254 12224449
1072.24 11858396 11573699 11403434 11157201 10995014 10905015
1075.13 10750752 10593386 10449559 10288226 10075496 10053248
1078.02 10075530 9959304 9863364 9790248 9933266 10033007
1080.91 10070429 10184293 10254809 10510229 10632417 10561785
1083.81 10739568 11054762 11199663 11455781 11752757 11999557
1086.70 12337644 12606480 12953034 13441855 13920568 14300932
1089.59 14785531 15320837 15863626 16444932 17065077 17656098
1092.49 18135829 18545106 18978752 19453185 19812297 20042594
1095.38 20355509 20625651 20754982 20795902 20782623 20707191
1098.27 20377496 20013569 19731661 19668386 19871568 20233388
1101.16 20752006 21365133 22267816 23483736 24546346 25401823
1104.06 26375797 27320912 28087930 28834871 29398082 30057391
1106.95 30751660 31323647 31957605 32652164 33390426 34335149
1109.84 35420989 36464427 37689804 38971698 40133650 41327345
1112.73 42717365 43766516 44333152 44785413 44910034 44562305
1115.63 43784421 42606137 40924538 38673146 36147444 33591690
1118.52 31288213 29537865 28440443 28081669 28693268 29990797
1121.41 31608976 33527339 35382520 36925384 38137387 38845089
1124.31 39090949 39118855 38886131 38153157 37056154 35788326
1127.20 34395706 32821901 30984790 29168634 27374388 25665064
1130.09 24136545 22630678 21108023 19829749 18633888 17527298
1132.98 16705534 15762888 14861904 14013369 13183774 12447750
1135.88 11821912 11207383 10620363 10044258 9478852 9156149
1138.77 8729848 8313861 7941555 7464432 7209951 7017443
1141.66 6654591 6324797 6001552 5735433 5596163 5438226
1144.55 5242642 5175742 4984317 4765203 4704848 4567190
1147.45 4447284 4355923 4295286 4212771 4116000 4067476
1150.34 3945599 3900932 3857547 3847723 3881556 3719114
1153.23 3654866 3697790 3660988 3631941 3735826 3674922
1156.13 3548532 3484079 3448994 3589864 3619525 3552104
1159.02 3555617 3548449 3507543 3430025 3436873 3513672
1161.91 3521837 3516880 3578631 3568544 3519307 3505140
1164.80 3568024 3539171 3496267 3644757 3716439 3800790
1167.70 3849253 3785687 3684714 3622945 3685359 3757678
1170.59 3754708 3712996 3703772 3778088 3774929 3709180
1173.48 3665930 3663281 3832619 3991516 3945405 3879797
1176.37 3810518 3755719 3793835 3900755 3877857 3774412
1179.27 3776124 3796454 3822718 3791463 3819670 3812376
1182.16 3756240 3766748 3660029 3583449 3626857 3688691
1185.05 3703259 3577692 3503601 3472887 3399486 3319776
1187.95 3295375 3269344 3237432 3287320 3275690 3241849
1190.84 3341412 3303082 3164473 3142170 3133694 3114454
1193.73 3162282 3132872 3073505 3072868 3019202 3003544
1196.62 2928913 2855663 2941206 2993222 2965287 2994067
1199.52 3036395 3017909 3041203 3118573 3263061 3297817
1202.41 3220750 3305476 3385576 3442300 3626413 3865058
1205.30 4116914 4317495 4666721 5079442 5317051 5712047
1208.19 6252700 6760907 7296091 7959108 8762081 9554489
1211.09 10345608 11087915 11779039 12540910 13141143 13693411
1213.98 14150170 14446947 14632947 14606245 14606835 14554518
1216.87 14289842 13894612 13522802 13508626 14087607 15117133
1219.77 16291570 17173636 16978437 15455638 14137933 14111469
1222.66 14858187 15893085 16878546 17781491 18454592 18808844
1225.55 18968986 18874617 18511681 18008358 17386442 16773892
1228.44 16216609 15751271 15346445 14967051 14757388 14674283
1231.34 14705098 14781416 14795080 14831643 15013087 15080351
1234.23 14978158 14815735 14584943 14312935 14097035 13830048
1237.12 13524256 13441522 13619770 13886005 14229601 14535069
1240.01 14604014 14394032 14037536 13722142 13535465 13293631
1242.91 13118064 13144105 12995482 12743562 12517210 12119838
1245.80 11611012 11025207 10388573 9771314 9115542 8546910
1248.69 7910677 7259333 6831199 6364808 5925922 5656748
1251.59 5371386 5014159 4800375 4733755 4617121 4435535
1254.48 4226631 4089875 4013934 4049392 3988295 3829396
1257.37 3713485 3723242 3765351 3702696 3532552 3421596
1260.26 3446628 3375316 3296477 3286525 3254308 3213287
1263.16 3057409 3003862 3188061 3336380 3378537 3299725
1266.05 3266988 3348931 3387205 3338064 3212765 3138761
1268.94 3226725 3260183 3182352 3138291 3109948 3050362
1271.83 2939192 2941936 2900174 2780252 2851308 2884890
1274.73 2779172 2762775 2735335 2645191 2668922 2650167
1277.62 2606979 2592425 2605755 2576809 2597082 2593647
1280.51 2526735 2593108 2552208 2530646 2624251 2574482
1283.41 2537263 2593373 2593167 2612435 2629227 2610823
1286.30 2596125 2647658 2734532 2696946 2647206 2599502
1289.19 2656640 2707243 2757356 2820931 2677886 2655260
1292.08 2719523 2787900 2851545 2805887 2811752 2829240
1294.98 2825926 2911248 2989904 3012605 3065579 3152396
1297.87 3174642 3139546 3197482 3282634 3256291 3332011
1300.76 3566164 3719766 3687832 3728365 3876608 3966672
1303.65 4065612 4234620 4417329 4689603 4827884 4631487
1306.55 4549803 4702293 4781548 4851054 4935941 4954226
1309.44 5118794 5275124 5348445 5412641 5466991 5528862
1312.33 5575173 5563504 5508911 5465983 5470971 5399730
1315.23 5330193 5375491 5347577 5347127 5409041 5463394
1318.12 5603440 5747688 5936067 6187180 6328899 6358268
1321.01 6373538 6490498 6609881 6681075 6643415 6702121
1323.90 6742385 6615306 6547713 6555430 6671438 6789995
1326.80 6828063 6844675 6888346 6913284 6966198 7011052
1329.69 6943917 6986845 7117162 7171881 7272994 7279198
1332.58 7176584 7231187 7297473 7262443 7283705 7424588
1335.47 7574115 7660351 7748516 7953928 8131316 8155769
1338.37 8368556 8702980 8900733 9067423 9262676 9602932
1341.26 9867743 10015645 10350044 10516542 10375564 10154107
1344.15 9937893 9784664 9678197 9545508 9529260 9529601
1347.05 9416730 9264300 9067717 9168904 9219780 9160421
1349.94 9195042 9157372 9093301 9125549 9037588 9134940
1352.83 9470249 9688046 9690255 9798342 9744163 9384592
1355.72 9567147 9671498 9338675 9064774 9178249 9211166
1358.62 8992263 8769566 8639938 8699850 8807337 8926152
1361.51 8906318 8872396 9052831 9149240 9230646 9246437
1364.40 9312214 9641476 9837029 9831361 9863315 10043375
1367.29 10180410 10233029 10334509 10422989 10492124 10526047
1370.19 10678566 10843203 11049224 11389246 11762808 12169874
1373.08 12600044 13079096 13597828 14261770 15015622 15774854
1375.97 16505065 17333554 18266447 19149623 20006686 20787901
1378.87 21331867 21674166 21934910 22076264 22290157 22522598
1381.76 23007050 24124386 26276150 27859933 26195339 24085335
1384.65 23847203 24422527 25329378 26307654 27022794 27527582
1387.54 27955805 28090703 28175921 28165887 27977411 27507166
1390.44 26813073 26149903 25516135 24825953 23915067 22923902
1393.33 22021800 21027358 20345293 19902045 19413428 19071743
1396.22 18739289 18412565 18149976 17966667 17796982 17634967
1399.11 17533201 17504226 17505830 17528785 17721589 17932696
1402.01 18083779 18289703 18500447 18649516 18805755 18968726
1404.90 19220738 19518592 19821025 20212202 20603661 20906171
1407.79 21134128 21449931 21776340 21993786 22432155 22831379
1410.69 22990161 23193540 23540231 23988821 24314840 24799437
1413.58 25342205 25706078 25793731 25926156 26331940 26811554
1416.47 27362770 27920769 28601723 29299182 29740295 30097409
1419.36 30941583 31839640 32483981 33108498 33670800 34419414
1422.26 35204684 35817268 36287783 36817354 37382954 37738347
1425.15 38169021 38708541 39107833 39498229 39849867 39848606
1428.04 39687478 39577680 39351774 39220738 39330928 39647048
1430.93 40050177 40185516 40041535 39825914 39744196 39865032
1433.83 40012416 40103740 39987325 39895093 39788681 39706203
1436.72 39989362 40135446 40053186 39942020 39807934 39663026
1439.61 39413218 39107002 38895356 38520923 37953164 37236400
1442.51 36252206 35246033 34397506 33799218 33242330 32676077
1445.40 32270840 31967743 31646960 31395967 31475697 31716180
1448.29 32025360 32457848 32840652 33387932 34059789 34825938
1451.18 35585299 36233706 37025678 37667528 37975714 38037086
1454.08 37905503 37685667 37414255 36866201 35839406 35114872
1456.97 34978458 34652938 34537773 34731213 34861678 35105825
1459.86 35469513 35893522 36384098 37095920 38029018 39163600
1462.75 40371874 41503451 42526485 43271740 44184244 45373801
1465.65 46357604 47305330 48291313 49321516 50357943 51109935
1468.54 51645296 52137358 52408095 52252670 51681452 50796908
1471.43 49738023 48901752 47997154 46709835 45762844 45048188
1474.33 44204757 43327693 42251701 41338392 40823507 40336031
1477.22 39879246 39578009 39478753 39584009 39869837 40346989
1480.11 40730467 41009769 41498625 42183670 42971420 43756277
1483.00 44347675 44966221 45575781 45884365 45908987 45779124
1485.90 45717590 45750030 45671959 45554563 45401888 45252262
1488.79 45170251 45055615 44991914 44884192 44902663 45067821
1491.68 45193583 45441175 45915455 46728833 47882069 49212090
1494.57 50407465 51179403 51566497 52281934 53357258 54274769
1497.47 55482502 56781214 57866076 58840456 59633375 60269148
1500.36 60773243 61209922 61633655 62089959 62687932 63472078
1503.25 64420672 65713695 67607488 69923624 72860952 76819769
1506.15 81069024 86161220 92768298 99924897 107812383 117024576
1509.04 127232048 138369470 150575084 163649845 177439051 191432962
1511.93 205366255 219016066 231382848 242006342 250565381 256086994
1514.82 257675614 255477566 250747818 245137055 239704246 236187613
1517.72 237016094 244172109 258132097 273969366 283709164 280850614
1520.61 264628576 244851069 230842422 225934670 229790366 237760115
1523.50 246172433 253553253 258463946 260016266 257167721 248621969
1526.39 236131035 221710222 206000329 189649739 173385964 157778058
1529.29 142938884 129094008 116441841 104781738 94154041 84775646
1532.18 76408332 69019948 62562733 57025192 52326677 48081849
1535.07 44348643 41118326 38368395 36030471 33857269 32043538
1537.97 30317099 28494003 27410792 26436871 25446727 24964838
1540.86 24287994 23159656 22410894 22093844 21478676 20853373
1543.75 20331617 19703285 19113951 18900933 18690425 18382818
1546.64 18058867 17700911 17448247 17293030 17158276 16979640
1549.54 16883921 16806858 16652279 16546789 16334704 16086730
1552.43 15868174 15617178 15231180 14793872 14805148 14704563
1555.32 14292099 14056470 13881096 13470478 13207218 12788111
1558.21 12564551 12878184 12608441 12106027 12228897 12412347
1561.11 12262579 12080047 11909465 11799586 11723119 11567117
1564.00 11279274 11085815 10978107 10872447 10751403 10635988
1566.89 10488581 10273275 10091997 9916144 9660300 9391441
1569.79 9378963 9320326 9145687 8995913 8823945 8698813
1572.68 8547769 8402674 8310593 8133442 7925151 7526509
1575.57 6844122 6976634 7327275 7193587 7054856 6891595
1578.46 6823857 6855396 6771274 6718009 6680117 6565679
1581.36 6481666 6309318 6320416 6357061 6224804 6128993
1584.25 6020397 5996915 5969836 5813931 5682559 5690157
1587.14 5701472 5648661 5575239 5474879 5499952 5522013
1590.03 5507555 5520628 5547243 5646171 5828304 5945285
1592.93 5927868 5956547 5907419 5907327 5941362 5955137
1595.82 6047787 6018103 5980341 6019745 6165336 6212867
1598.71 6177563 6277907 6353086 6307386 6361509 6469331
1601.61 6491196 6576022 6708693 6870283 7053127 7192696
1604.50 7289794 7427122 7603050 7783824 7959212 8182383
1607.39 8441334 8684374 8984664 9231447 9441586 9690574
1610.28 9882772 10184412 10569212 10910268 11249868 11648123
1613.18 12162658 12628516 13014651 13392472 13904126 14236031
1616.07 14145340 14795986 15774898 16280774 16764073 17206049
1618.96 17599436 17984476 18189138 18314758 18490254 18530385
1621.85 18497798 18441099 18161920 17927196 17891527 17518075
1624.75 17010670 16580065 16185068 15889151 15657450 15548535
1627.64 15659514 15971199 16403406 16778433 16947611 17096304
1630.53 17213535 17187649 17210270 17001859 16560781 16160413
1633.43 15573586 14863885 14081824 13128040 12581983 12298299
1636.32 11684805 11023162 10449086 10080053 9625950 9020092
1639.21 8536648 8130684 7751476 7368415 7077883 6737790
1642.10 6377835 6092188 5725518 5364571 5106509 4870517
1645.00 4394724 3918498 3984247 3966464 3683612 3513104
1647.89 3385109 3410357 3415656 3197213 3046129 2878923
1650.78 2811958 2491519 1779912 1633032 1590075 1916099
1653.67 2173956 2173567 2407143 2394235 2319585 2301538
1656.57 2319211 2305354 2290591 2235380 2188769 2097150
1659.46 2007867 2028696 2044574 2026116 2165044 2114603
1662.35 1951753 2034476 2094571 2104392 2128835 2122275
1665.25 2076183 2021163 1940536 1901070 1836528 1715449
1668.14 1637834 1421945 1404491 1597806 1641539 1598898
1671.03 1462296 1477197 1637710 1663532 1667356 1668897
1673.92 1536756 1233754 1090783 1306374 1485867 1445067
1676.82 1382130 1351383 1334208 1245495 1205808 1186186
1679.71 1082580 1080876 1149524 1218794 1174947 1040157
1682.60 864632 852132 851993 327828 231489 802392
1685.49 1013445 1040236 1061507 1113061 1115586 1071843
1688.39 1080944 1055109 986982 995996 1079617 1034999
1691.28 1011827 1047217 1021702 995354 942509 960560
1694.17 925062 760823 221777 140938 713123 932447
1697.07 989432 953447 922028 872425 512897 209786
1699.96 301416 561064 841656 895368 878122 898412
1702.85 925010 908854 784091 894052 978074 902644
1705.74 828482 811318 910579 984685 1030229 1121298
1708.64 1181386 1113328 1062606 1160995 1193700 1179374
1711.53 1262775 1364956 1468558 1502800 1514187 1598469
1714.42 1570946 1646285 1847604 1963179 1913807 1640538
1717.31 1980751 2391932 2560924 2875957 2993067 3089975
1720.21 3205982 3284306 3313069 3270493 3265112 3278448
1723.10 3161339 3110682 3113542 3078779 3064947 3063464
1725.99 3148612 3251009 3288057 3305670 3245141 3169265
1728.89 3150248 3122908 3126429 3110334 3073307 3036481
1731.78 3015652 2843659 2351807 2327683 2278658 2091532
1734.67 2372194 2499237 2477626 2521366 2591872 2521277
1737.56 2514034 2525934 2502380 2437604 2408300 2567909
1740.46 2682313 2751910 2752472 2823718 2946946 3058059
1743.35 3143406 3185501 3258478 3241350 3246519 3298648
1746.24 3301560 3379616 3557116 3512804 3460518 3583945
1749.13 3645474 3650084 3619931 3463153 3533361 3851775
1752.03 3922769 3878353 3835214 3795786 3766549 3774630
1754.92 3782044 3807705 3747661 3577632 3593097 3691825
1757.81 3668603 3594166 3532091 3565031 3583011 3527526
1760.71 3371904 3075481 3076353 3245131 3169038 3077181
1763.60 3134602 3209792 3255500 3232565 3159546 3070136
1766.49 3019965 3093929 3033427 3097533 3284467 3296943
1769.38 3339225 3390477 3394303 3461337 3700296 3582005
1772.28 3514575 3996133 4279580 4415809 4678792 4930178
1775.17 5158080 5436728 5755915 6110903 6502195 6942531
1778.06 7430869 7911372 8449092 9038437 9566807 10141622
1780.95 10752526 11290464 11723670 12095622 12433684 12674698
1783.85 12768528 12639555 12517654 12428951 12244006 12048307
1786.74 11829752 11641674 11512823 11565228 11861476 12335937
1789.63 12957776 13311336 13110798 12694229 12129862 11583350
1792.53 11610916 11725410 11600398 11383335 11099146 10801866
1795.42 10328464 9851198 9339218 8650165 7927479 7246301
1798.31 6590679 5901583 5316674 4843050 4299311 3791131
1801.20 3516260 3289034 2997082 2756654 2538102 2347000
1804.10 2199848 2021302 1865448 1804277 1734215 1667790
1806.99 1632432 1512167 1389322 1347323 1286277 1254819
1809.88 1172971 1074761 1063556 1062349 1087273 1091514
1812.77 1023456 937240 955832 1046761 1048150 1055514
1815.67 1081932 1006912 964721 1011394 1008658 1006659
1818.56 996198 996325 1077476 1121861 1144893 1188049
1821.45 1216256 1232013 1288824 1373089 1424137 1435424
1824.35 1425104 1483031 1679608 1777776 1835926 1958455
1827.24 2078099 2232036 2300734 2401890 2596242 2717642
1830.13 2883382 3040085 3144860 3317481 3485831 3582348
1833.02 3689394 3769330 3715579 3750175 3835772 3911568
1835.92 4004994 4107769 4202077 4224472 4272543 4288342
1838.81 4259097 4245954 4306195 4415011 4486051 4475790
1841.70 4470610 4508221 4534221 4373031 4114660 4197562
1844.59 4246446 4113830 4111103 4024523 3847410 3694190
1847.49 3589864 3474062 3294557 3179656 3128080 3083015
1850.38 2957248 2792730 2680047 2651763 2632575 2580805
1853.27 2567885 2519688 2496769 2461403 2413841 2429128
1856.17 2398316 2337340 2342915 2402751 2391681 2423039
1859.06 2491756 2523990 2580587 2654466 2706413 2766447
1861.95 2886708 3077352 3287252 3443131 3596657 3748410
1864.84 3912479 4157203 4343716 4523550 4792779 5004957
1867.74 5290509 5624097 5825084 6215464 6681631 6945292
1870.63 7310386 7764036 8128960 8547674 9021597 9524495
1873.52 10083502 10576707 11082860 11654165 12208633 12776317
1876.41 13470700 14247547 15048336 15837503 16630658 17470210
1879.31 18245756 19043708 19806821 20582727 21392726 22082091
1882.20 22616780 22919227 23135933 23155037 22978126 22689156
1885.09 22202984 21625056 20979669 20140986 19232115 18424105
1887.99 17706277 17276786 17171903 17406255 18134163 19064029
1890.88 20119192 21282682 22346547 23189789 23639634 23794981
1893.77 23632347 23256957 22655519 21779298 20816672 19760729
1896.66 18828735 17948209 16966458 16098823 15174346 14115102
1899.56 13133137 12296757 11551201 10896206 10286544 9741867
1902.45 9319783 8818062 8231204 7724913 7273323 6921541
1905.34 6585100 6260993 5975843 5663538 5377758 5083161
1908.23 4776447 4474414 4214522 3987452 3872270 3780023
1911.13 3643327 3492806 3377248 3309886 3190001 3039585
1914.02 2915885 2921865 2921655 2821063 2762586 2705379
1916.91 2601143 2501695 2540973 2609066 2580486 2550782
1919.81 2601367 2641470 2595068 2553854 2549405 2546746
1922.70 2499287 2476099 2465143 2481680 2438931 2335230
1925.59 2279615 2272484 2274074 2246986 2236776 2178897
1928.48 2147552 2118728 2089115 2083346 2075890 2052919
1931.38 1981422 1966286 1919956 1811802 1720502 1666544
1934.27 1641994 1622281 1523234 1411706 1331099 1231296
1937.16 1178957 1093348 1030929 1004866 960133 933481
1940.05 939616 945373 935926 856164 809022 894815
1942.95 909662 887846 908065 928314 866648 865918
1945.84 896830 854806 870825 877254 921882 981258
1948.73 1010578 1018143 1033602 1074609 1067620 1062238
1951.63 1061616 1089592 1135669 1225083 1284043 1290408
1954.52 1307128 1293780 1384343 1489280 1474186 1464085
1957.41 1483004 1342242 1141430 1095621 1068377 1068629
1960.30 1042488 979577 1046180 1034957 949231 999074
1963.20 1000511 1036894 1153203 1096040 1069296 1088923
1966.09 1053868 1077777 1105949 1055699 1098423 1151712
1968.98 1097378 1109437 1114029 1120215 1168186 1211954
1971.87 1207642 1163299 1226503 1368844 1491241 1400759
1974.77 1201626 1198185 1260744 1291990 1360304 1366177
1977.66 1352767 1327207 1312222 1397214 1434603 1466783
1980.55 1550237 1565929 1485760 1449320 1500590 1514452
1983.45 1450053 1359934 1345456 1415646 1439711 1497586
1986.34 1522941 1467559 1513499 1492881 1379471 1376432
1989.23 1401619 1390937 1371412 1306125 1285334 1282801
1992.12 1260382 1246525 1267105 1299837 1283335 1341327
1995.02 1369411 1291468 1288191 1340432 1289793 1215612
1997.91 1154241 1105375 1135230 1152398 1100650 1063864
2000.80 1045138 1009300 1064342 1091108 1051931 1026177
2003.69 1015108 1049191 1014814 955628 979536 1007445
2006.59 992760 769350 695532 946390 975599 855429
2009.48 803792 862274 858506 802469 796947 754391
2012.37 688167 669485 695811 703585 665096 648126
2015.27 650995 576879 489270 446439 491985 486104
2018.16 469704 493318 455155 413249 353040 384456
2021.05 354753 289867 283723 224815 230542 280513
2023.94 309524 314579 308673 362756 431333 412456
2026.84 387756 322981 366201 376050 298205 304505
2029.73 266890 255025 311335 330540 326806 357299
2032.62 399761 425037 411664 348677 331936 406482
2035.51 357769 269159 239634 228786 220822 256906
2038.41 313906 362907 346838 311421 325557 345077
2041.30 398284 415445 395673 344885 351312 387330
2044.19 380005 364093 295699 279994 295161 225319
2047.09 159400 156731 181861 185883 227997 225409
2049.98 225796 238865 202169 196310 163516 91689
2052.87 41596 64477 57869 51397 39686-31832
2055.76-41609-20566-52824-45896-5439-24
2058.66-937-27855-100701-146080-139315-132961
2061.55-71627-45713-123827-210171-112426-47362
2064.44-137998-96035-61288-76555-125104-118230
2067.33-95812-111182-51252-51780-69204-88594
2070.23-63112 9724-37305-73778 42776 137812
2073.12 107893 56303 183 5004 69493 62359
2076.01 25295 96764 266031 228031 116164 67013
2078.91 3969 49899 97363 87495 140994 351339
2081.80 363582 288820 279316 238562 252915 239489
2084.69 266353 370986 656354 613329 369552 377040
2087.58 377449 395042 470228 541035 695844 973104
2090.48 839236 662816 723019 768233 833096 872806
2093.37 944598 1285862 1678086 1481195 1403477 1554474
2096.26 1591715 1609562 1654617 1724843 2169141 2478296
2099.15 2053837 1842903 1823646 1797202 1838192 1946693
2102.05 2064054 2546162 2656393 2251389 2180721 2115733
2104.94 2056963 2053320 1968314 2188998 2696700 2437427
2107.83 2041460 1984868 1997076 1963228 1836204 1784035
2110.73 2193178 2196861 1510755 1249470 1103396 985098
2113.62 911706 724102 942761 1421734 988488 494842
2116.51 375119 305422 258261 224363 295030 758788
2119.40 758436 158828 87498 148733 83332 115834
2122.30 147987 482161 807517 305316-28957-47895
2125.19-126231-78587-65624 190991 571870 213403
2128.08-119753-123507-162908-117491-99223 18494
2130.97 355623 217106-120716-75475-90544-166658
2133.87-170752-93200 169329 175779-73148-119496
2136.76-136707-204989-246117-159658-34471-27352
2139.65-162679-235521-273971-273220-229719-159264
2142.55-96209-90568-135150-181669-149928-109690
2145.44-119602-94839 45958-4208-200434-174540
2148.33-193376-226960-226972-87400 233246 90038
2151.22-132382-128278-169869-48732-38321 159407
2154.12 452493 120911-127631-71088-447 38242
2157.01 24324 448924 574873 67579 8032 23330
2159.90-1863 23830 267585 829206 560639 54237
2162.79 45925 24998 107613 139654 599208 961456
2165.69 378750 132650 113572 133764 194991 384456
2168.58 1019768 734512 148543 94079 56363 145171
2171.47 221284 806226 947029 317916 164471 176663
2174.37 215786 204452 601139 1094791 539884 133054
2177.26 207115 210080 145636 443012 1020535 595358
2180.15 132811 148177 61514 29719 146554 677782
2183.04 574121 116677 49567-24518 21187 189705
2185.94 688044 568621 113998 33687 49904 118479
2188.83 82168 477122 491756 121083-13065-116969
2191.72-43067 96330 503048 405543 8513-16669
2194.61 42010 89486 176884 439983 316668 108491
2197.51 171513 209354 177281 371070 667647 518392
2200.40 425169 477518 463602 566858 872107 929354
2203.29 695840 685819 742631 752702 795303 958041
2206.19 875563 754866 854445 870033 814386 877380
2209.08 939909 763187 694591 778411 789276 818144
2211.97 974690 965205 860860 892307 883415 844149
2214.86 857450 859233 861958 739626 545902 543614
2217.76 518548 447557 363061 290885 247355 210818
2220.65 250561 272750 185746 84560 124787 153858
2223.54 111723 58843 76575 133116 60136 2022
2226.43 30728 43968 22741-14553 2261 8095
2229.33-66060-57707 3987-39166-39557-2441
2232.22-3617-1931 39420 10431-85704-49762
2235.11-44505-106725-65903 4164 10325 25432
2238.01 10946-22899-48467-76026-42285-59686
2240.90-111321-133379-195560-232022-174874-156451
2243.79-152469-82284-88456-130387-146123-149549
2246.68-176874-216276-173694-168201-218539-183883
2249.58-178608-206303-132701-100884-146762-167079
2252.47-185027-211434-188981-158827-203485-217498
2255.36-184465-189509-154493-80189-87370-96371
2258.25-40885 2204-22346-4442 28126 41934
2261.15 45907 9859 12906 33502 20191 87851
2264.04 123992 47283-8721 54857 196379 175146
2266.93 136791 182369 232621 322992 371082 300093
2269.83 272896 322320 355962 379108 363211 397027
2272.72 417446 383661 444093 513305 505128 533916
2275.61 536234 491372 545121 598080 605317 603260
2278.50 657549 741538 716728 678235 678989 693615
2281.40 689131 703624 711560 703147 706130 722880
2284.29 693745 694443 796090 850153 891469 930646
2287.18 896271 888726 978354 1046897 1041810 1040955
2290.07 1046924 1089456 1203896 1259527 1309036 1341230
2292.97 1368735 1519240 1610860 1602409 1740340 1859752
2295.86 1889538 1921033 2024264 2201422 2310286 2315423
2298.75 2359689 2567189 2663621 2582389 2600070 2662887
2301.65 2668252 2614868 2475019 2446942 2456399 2380032
2304.54 2211103 2079883 1971492 1979803 2141088 2108492
2307.43 2148337 2383128 2532070 2503490 2551730 2662147
2310.32 2865651 2918179 2865943 2865488 2845648 2836973
2313.22 2683834 2494419 2492317 2542878 2340488 2091180
2316.11 2082644 2370468 2284584 1913874 1847200 2116484
2319.00 1967334 1548955 1585813 1895659 1859845 1524869
2321.89 1564682 1944108 1857926 1441067 1576438 2062544
2324.79 1965277 1495149 1693428 2242782 2109258 1612433
2327.68 1903189 2504941 2129002 1651054 2197147 2670278
2330.57 2125950 1834558 2648195 2996015 2323064 2296117
2333.47 3116073 3000968 2262018 2655480 3401556 2947268
2336.36 2491189 3165794 3373676 2539501 2553096 3280075
2339.25 2950777 2376290 2985499 3396441 2751865 2789345
2342.14 3419958 3100870 2737346 3142337 3144081 2639358
2345.04 2694907 2867547 2496805 2308890 2394030 2296671
2347.93 2158115 1986417 1923995 2007679 1982911 1905328
2350.82 2020649 1921838 1754200 2045173 1832219 1476567
2353.71 1932487 1900462 1383282 1838906 1844024 1322049
2356.61 2006689 1951145 1349521 2079450 1813425 1241888
2359.50 2086277 1753161 1412551 2008978 1306442 1385897
2362.39 1909605 1175360 1617113 1647547 1117709 1750494
2365.29 1310471 1186279 1502010 1028451 1392376 1140368
2368.18 945136 1270061 880964 1091171 921480 901377
2371.07 1046725 699702 806610 618475 729922 731150
2373.96 624520 662601 650720 720375 612256 584461
2376.86 551922 584122 580003 578867 551424 548717
2379.75 549198 590192 543716 483947 458417 462627
2382.64 490003 457984 514639 584353 561132 464672
2385.53 446029 483746 496068 505721 584282 592711
2388.43 597287 622491 623405 602350 574256 604104
2391.32 608416 593256 601589 619416 668122 716623
2394.21 667252 628274 687485 700220 669639 647759
2397.11 614394 656252 710237 705648 775063 847273
2400.00 810655 836182 929136 990603 1018578 1046039
2402.89 1068665 1082167 1099347 1103705 1065312 1079586
2405.78 1157637 1211187 1268318 1307996 1377192 1366729
2408.68 1327958 1394011 1445521 1440035 1398027 1391611
2411.57 1434171 1417486 1388009 1387801 1418409 1522571
2414.46 1578410 1649503 1662000 1595564 1624462 1697010
2417.35 1742073 1728770 1699760 1689506 1692356 1671549
2420.25 1706013 1742887 1671083 1580589 1621558 1684869
2423.14 1704436 1685228 1655901 1628487 1669763 1684250
2426.03 1606246 1612076 1674063 1704238 1688488 1670094
2428.93 1651355 1662470 1640433 1615483 1613728 1574940
2431.82 1486270 1407237 1493527 1573545 1532653 1528730
2434.71 1472174 1417788 1500486 1518893 1475479 1519134
2437.60 1478818 1479188 1493351 1496616 1507959 1407958
2440.50 1296582 1333485 1373306 1274783 1290544 1282871
2443.39 1196884 1141947 1205449 1263910 1147138 1050593
2446.28 1022006 1055204 1044406 974969 1011955 1047518
2449.17 1006582 1017607 1030409 896637 871152 965609
2452.07 978431 933919 933503 937237 847945 842420
2454.96 901840 849638 810701 827109 861087 846070
2457.85 810350 810144 821126 823222 823924 889207
2460.75 904498 892351 904486 862819 797729 759804
2463.64 763715 800263 811847 861697 834012 854817
2466.53 957953 951838 896720 829096 824876 896514
2469.42 930711 902661 889714 931392 888288 844053
2472.32 886892 885946 881917 968751 1027034 944041
2475.21 888144 985502 1075288 1053601 971823 923476
2478.10 886182 924001 986496 895139 878873 894645
2480.99 955619 910280 808544 854692 856661 846451
2483.89 869746 885817 859554 918855 900211 771460
2486.78 764243 786037 872931 896804 828374 833441
2489.67 808614 784867 774112 815005 859579 810572
2492.57 743093 769106 844252 825113 828085 790889
2495.46 715776 656979 699375 743687 731113 739448
2498.35 741963 672632 587216 602595 621986 578427
2501.24 515618 533937 509409 549292 585830 528559
2504.14 525764 523714 542524 522370 488983 546984
2507.03 513577 465376 425972 390184 481615 467224
2509.92 390865 419207 375062 363303 410866 401136
2512.81 429389 422765 341198 338812 343050 353472
2515.71 394818 390991 387996 366702 339253 311517
2518.60 332701 350207 371445 299292 284712 355285
2521.49 304738 351729 434232 419087 367638 354085
2524.39 370401 380947 365982 356131 371858 351555
2527.28 366995 382505 297796 269961 330166 343365
2530.17 306938 334291 361182 319538 247449 264751
2533.06 275230 198616 193445 222022 306743 343082
2535.96 299492 201857 225787 366648 323210 270465
2538.85 287309 280124 361862 411150 375946 321707
2541.74 187634 164065 250131 233448 164552 157987
2544.63 164526 82977 19162 14012 29649 66778
2547.53 96174 84245 25890 24690 11834-36349
2550.42-66657-63930-83075-106308-68804-75959
2553.31-129083-186670-163546-132097-144449-253660
2556.21-260156-184038-201892-184269-202973-183240
2559.10-124460-45171 30206-76741-111571-105115
2561.99-147625-104960-90918-93898-71537-11843
2564.88-58173-121966-94430-19007 3412-39136
2567.78 20193 55728 58866 97938 83095 137459
2570.67 220307 231746 265797 292712 331100 404100
2573.56 446898 512791 644856 730886 749581 831730
2576.45 983397 1167204 1285932 1303577 1384116 1502681
2579.35 1642094 1900605 2040358 2030172 2134506 2311309
2582.24 2463131 2574782 2623062 2676473 2773208 2844967
2585.13 2949533 3031797 3105827 3189173 3224303 3247599
2588.03 3307774 3338838 3389420 3597452 3641183 3615770
2590.92 3707328 3763570 3816417 3851216 3890279 4012590
2593.81 3937051 3869698 3881682 3749696 3661986 3619612
2596.70 3458167 3249071 3178256 3125650 2955873 2761654
2599.60 2581471 2385313 2276482 2223740 2163376 2035655
2602.49 1938765 1983499 2042924 1961771 1797775 1765065
2605.38 1843298 1903211 1915198 1905558 1958975 1932784
2608.27 1809518 1662686 1559929 1504300 1466174 1413417
2611.17 1336010 1252057 1145292 1097158 1044450 1005101
2614.06 944103 839415 798333 795423 774707 660985
2616.95 639545 734815 725216 607581 526456 584259
2619.85 569004 523791 454584 366948 410862 400310
2622.74 305840 261508 271944 284634 289063 204192
2625.63 132557 155164 45295 53482 166379 100615
2628.52 96363 75030 89083 195409 247364 264373
2631.42 197738 124677 176290 248061 276046 321355
2634.31 310982 279160 355356 369639 328085 372600
2637.20 316923 257653 351654 412204 381856 452188
2640.09 489112 441336 483331 511562 462237 378139
2642.99 364408 408477 452308 457341 353138 208969
2645.88 252468 401264 321426 250286 300282 344879
2648.77 317565 276840 372846 351729 300315 222319
2651.67 211801 220442 75470 81650 99892 96040
2654.56 56834-62086-31517-25747-63580-18547
2657.45-39219-136049-229781-96560 19097-76777
2660.34-121823-134110-173352-109135-50595-92782
2663.24-45580-27318-108368-112496-86244-71067
2666.13-94020-131862-157194-101384-40734-107471
2669.02-98549-49896-104960-153899-115780-71879
2671.91-73455-58710-92829-181775-172061-115457
2674.81-98788-163911-254961-211597-149136-157208
2677.70-182183-133933-76082-68142-100303-118646
2680.59-99829-71872-98067-153510-70887 18030
2683.49 39183 21428 29726-71961-175763-121264
2686.38-17083-5347-4433-10997-49487 37999
2689.27 78383 114549 92080 124502 187388 212905
2692.16 178854 180063 221227 252759 388840 404742
2695.06 351006 334593 387453 367348 333192 406536
2697.95 469739 501800 567466 598041 609612 724013
2700.84 871172 972245 996607 1017927 1063124 1084899
2703.73 1091636 1103861 1176426 1227057 1313296 1450961
2706.63 1500003 1518395 1560281 1598553 1646373 1686642
2709.52 1668396 1692012 1742417 1830952 1905527 1910987
2712.41 1993998 2029023 1967024 1976951 2017860 2051935
2715.31 2095781 2100480 2047521 2078017 2134099 2166484
2718.20 2217045 2236951 2231943 2390976 2494350 2462133
2721.09 2409767 2407192 2523837 2566949 2623725 2687692
2723.98 2744408 2871442 2896581 2867137 2937288 3088286
2726.88 3288969 3374288 3509338 3769274 4001418 4249485
2729.77 4627713 5076581 5553560 6014690 6465607 7075004
2732.66 7807946 8464183 9006818 9679293 10534735 11314670
2735.55 12014751 12789335 13574813 14168346 14786627 15267124
2738.45 15498863 15682718 15773844 15768816 15688443 15597358
2741.34 15556898 15714689 16123679 17124715 18636411 19554677
2744.23 18790883 17052131 15915806 15738990 16110143 16682364
2747.12 17296950 17725816 17990399 17842108 17323515 16711068
2750.02 15886627 14854231 13675156 12417411 11166113 9898375
2752.91 8813810 7911237 6983691 6200321 5542075 5046195
2755.80 4595332 4135087 3792969 3524905 3213684 2922678
2758.70 2662522 2415033 2254329 2171766 2053226 1973089
2761.59 1917345 1801665 1717518 1610069 1461152 1372644
2764.48 1372868 1441808 1461038 1360744 1380491 1374818
2767.37 1325952 1252568 1225291 1320343 1345734 1177861
2770.27 1044856 1131866 1168268 1281579 1328639 1283872
2773.16 1282504 1245341 1196076 1185361 1275995 1325570
2776.05 1259790 1258254 1315739 1362686 1421516 1348786
2778.94 1356312 1441349 1369325 1328203 1395577 1470458
2781.84 1479269 1392186 1347576 1397208 1525595 1610007
2784.73 1577536 1595231 1654673 1703728 1750151 1808772
2787.62 1888103 1873973 1803434 1760083 1870895 2006133
2790.52 2052800 2113764 2101048 2118530 2181954 2323482
2793.41 2369677 2311666 2439399 2548683 2573479 2639471
2796.30 2705803 2717581 2805440 2924068 3051896 3082295
2799.19 3007214 3083972 3161583 3304021 3471415 3526615
2802.09 3600011 3618126 3720369 3787085 3774859 3869767
2804.98 3930766 3943136 4016828 4170892 4243065 4206034
2807.87 4135376 4119843 4328753 4478750 4555433 4656155
2810.76 4750898 4904282 4986771 5038919 5124607 5221789
2813.66 5267574 5370411 5534157 5762892 5903296 5992457
2816.55 6144130 6236747 6274091 6431903 6618987 6768835
2819.44 6882017 6944162 7150618 7353824 7492968 7608281
2822.34 7845037 8081346 8174976 8313638 8410254 8520387
2825.23 8828691 9123569 9298771 9505823 9687760 9887127
2828.12 10119845 10290636 10549133 10831823 10992099 11223636
2831.01 11463670 11669458 11978143 12198595 12468186 12838585
2833.91 13036022 13263791 13454854 13564722 13729805 13961685
2836.80 14130650 14224719 14435504 14648508 14833964 15009733
2839.69 15304713 15706956 16045853 16317951 16691306 17096509
2842.58 17393229 17726191 18081281 18380463 18846202 19352722
2845.48 19659213 19988526 20242224 20496725 20866085 21254416
2848.37 21572259 21813626 22518748 23224857 23568896 24157455
2851.26 24928324 25565012 26309097 27241738 28195432 29245152
2854.16 30200999 31316722 32720796 34086374 35504284 37074150
2857.05 38629541 40183671 42033954 44092490 46072294 48102122
2859.94 50374204 52838454 55461634 58200103 61068456 64240826
2862.83 67470370 70936768 74653162 78278857 82193716 86308802
2865.73 90315435 94447480 98738614 102973771 107195799 111380586
2868.62 115524862 119533089 123499047 127494009 131258459 134880174
2871.51 138381135 141695441 145124825 148343234 151300661 154300582
2874.40 157033720 159721133 162085095 164225031 166366371 168087306
2877.30 169505294 170654065 171594902 172400705 172952041 173304611
2880.19 173610872 173580716 173410113 173142659 172550656 171811327
2883.08 170804650 169786288 168719171 167504315 166110691 164424210
2885.98 162641944 160814381 158990032 156998774 154904742 152973977
2888.87 150962349 148958695 147283491 145607524 143831367 142290030
2891.76 140753458 139303863 138001272 136711591 135635640 134318700
2894.65 133008433 131884605 130424302 128926542 127668213 126443622
2897.55 125260544 124276140 123439176 122490907 121447726 120431755
2900.44 119483183 118495108 117628489 116875917 115957593 115170140
2903.33 114427590 113551074 112658436 111807146 111104275 110455804
2906.22 109734074 109008628 108395374 107870928 107472441 107138216
2909.12 106902382 106867382 106957113 107175517 107448503 107898435
2912.01 108467433 109200472 110427340 111850681 113450370 115223190
2914.90 117206897 119729207 122273837 125024248 128027424 131099547
2917.80 134625350 138623254 142738982 146998221 151753006 156794877
2920.69 162062523 167699548 173527530 179584852 185964903 192544321
2923.58 199434706 206537750 213850079 221241690 228807896 236898406
2926.47 244971434 252870532 260856432 268686060 275981059 282634121
2929.37 288757954 294403709 299684582 304715382 309523400 313827386
2932.26 317785029 321399822 324585657 327609265 330081036 332358532
2935.15 334150456 334752315 334090880 332338910 329806531 326933326
2938.04 323968011 320927247 318123317 315369798 312644437 309866628
2940.94 306746734 302942558 298682052 294037437 288564736 281820710
2943.83 274067519 265847607 256829844 247414332 238021339 228899790
2946.72 220434338 212351437 204508936 196980882 189836208 183292223
2949.62 177150963 171253879 165741995 160593352 155669167 150406805
2952.51 144520653 138492017 133067962 128281537 124031559 120511516
2955.40 117600442 115190289 113343653 112032695 111307967 110880678
2958.29 110624015 110765985 111053833 110939193 110218970 109132785
2961.19 107534759 106183696 105041985 103070204 100858008 98781638
2964.08 96730444 94955858 93258135 91486827 89917108 88711775
2966.97 87646623 86575122 85496298 84395683 83414106 82537848
2969.86 81978628 81718375 81627680 81689163 81836212 82192265
2972.76 82696960 83230697 83968763 84879807 85665707 86508097
2975.65 87503672 88423105 89673329 91035041 92097259 93546111
2978.54 95041745 96365475 98128860 100171120 102351530 104771085
2981.44 107218603 109693210 111726048 112851901 113609136 114384542
2984.33 115108259 115833338 116878034 118081635 119599994 121568631
2987.22 123920215 126792220 130166518 133496807 136746284 139904804
2990.11 142628639 145015774 147251401 149335671 151250696 153579527
2993.01 156178538 158954247 162124594 165679519 169670888 174055660
2995.90 178533438 182687385 186342670 189401706 192182516 195085517
2998.79 197997338 200947933 204197409 207798436 211568358 215548983
3001.68 219625945 223320802 226660069 229397157 231132865 231665796
3004.58 230623385 228204056 225280442 222386394 219394462 216653519
3007.47 214461730 212872514 211794373 211382692 211659295 212507244
3010.36 213899672 215557617 216794355 217290232 217226611 216684783
3013.26 216166937 215883475 216082739 216690840 217776421 219551318
3016.15 221687251 224250828 227292395 230342170 233535077 236784609
3019.04 240148277 243718159 247396457 251036170 254234000 257278945
3021.93 260015391 262041680 263313768 263859344 263993889 263351370
3024.83 262084635 260824342 259965616 259682991 259945263 260863237
3027.72 261396444 260678917 258707592 256010766 253795501 252491046
3030.61 251786261 252108009 252985481 253471149 253100212 251584816
3033.50 249120341 245870566 241539404 236079313 229900835 223144671
3036.40 216220819 209431258 202893834 196658045 190937200 185554001
3039.29 180238006 175265693 170704441 166376536 162532111 159538788
3042.18 157456380 156388485 155889410 155671160 155940444 156789637
3045.08 158107533 159950356 162167997 164558705 167005784 169136353
3047.97 169923329 170015184 170446983 170748760 170974281 171166861
3050.86 171346763 171235855 170810396 170599120 170361161 169876893
3053.75 169499870 169086632 168042907 166126502 164133872 162658391
3056.65 161888943 161653557 161351489 160840619 160338278 159530004
3059.54 158399384 157149728 155570906 153741119 151637097 149114924
3062.43 146222442 143008991 139710853 136257165 132591415 128853407
3065.32 124932973 120877355 116881849 112790074 108329528 104168632
3068.22 100209619 96171135 92058746 88089743 84377091 80730000
3071.11 77328119 73996839 70824383 67895164 65171598 62522285
3074.00 59892979 57367142 55068381 53073090 51129668 49061375
3076.90 47106582 45456463 43855647 42307805 40926256 39488447
3079.79 38060590 36856107 35765428 34806801 33845714 32964033
3082.68 32174344 31377197 30712634 30136525 29669438 29482075
3085.57 29157983 28570814 28241605 27997601 27767050 27726015
3088.47 27801952 27848403 27880857 27943982 28103291 28236239
3091.36 28338278 28607340 28853655 29066971 29466643 29830403
3094.25 30242137 30679336 30670390 30716608 30789816 30714037
3097.14 30672804 30595773 30639511 30549965 30225414 30102451
3100.04 30140126 30099164 30070205 29940961 29907087 29959286
3102.93 30037480 30280255 30536435 30392635 30221728 30209857
3105.82 30088555 29905851 29539249 29155973 28697747 28214999
3108.72 27717772 27204969 26695240 26137473 25602613 24999698
3111.61 24436147 23983501 23748403 23355562 22658180 21933225
3114.50 21269429 20628915 19911681 19181199 18406401 17895443
3117.39 17257793 16413126 15664998 14973035 14383431 13667745
3120.29 12952821 12390366 11807625 11311177 10724601 10046711
3123.18 9487151 8998411 8558502 8227094 8040106 7705246
3126.07 7352485 6998022 6722836 6583172 6464829 6383633
3128.96 6379919 6459156 6470233 6378095 6395549 6542588
3131.86 6696666 6881381 7080979 7316007 7560668 7852624
3134.75 8111547 8297151 8550955 8818497 8996763 9217535
3137.64 9377070 9417711 9418150 9675791 9944361 9976198
3140.54 10098747 10126820 10168973 10297407 10378066 10468414
3143.43 10320968 10181206 10228919 10186891 10237870 10364642
3146.32 10324704 10387081 10484444 10390819 10192954 9953861
3149.21 9827239 9541103 8987524 8552418 8281019 7815088
3152.11 7222089 6731455 6291896 5931047 5551554 5244551
3155.00 4827020 4345781 4077289 3710871 3418634 3259755
3157.89 2989091 2634831 2459469 2313957 1918535 1679253
3160.78 1660011 1610612 1553218 1530137 1508787 1457738
3163.68 1356238 1312017 1289771 1111832 1020488 989065
3166.57 880558 650797 612800 644247 620317 604814
3169.46 484520 477434 468647 359826 377509 318715
3172.36 140650 130855 289897 369397 292102 170980
3175.25 140218 135707 164847 87378-21909 81782
3178.14 50403 17440 104534 182775 128686 1655
3181.03 3201 18999-69443-84519-45459-35996
3183.93-13841 63680 9500-100333-73354-75246
3186.82-208180-290429-272333-243631-216383-204847
3189.71-293485-427481-392796-278711-239167-270229
3192.60-246274-302607-400585-382787-264884-198455
3195.50-280671-272993-275441-357347-360660-269988
3198.39-252544-283548-365326-404921-276472-317201
3201.28-350942-273584-241064-308863-302191-254729
3204.18-378257-454087-413350-306385-291360-382557
3207.07-326278-217206-207709-246856-250599-300380
3209.96-401665-380843-309559-300631-308365-291026
3212.85-314404-266128-346018-431474-298154-71836
3215.75 44621-266317-431848-250366-231321-243461
3218.64-330374-473209-406573-295461-288696-283205
3221.53-242671-228885-273150-270269-178041-113240
3224.42-121371-134020-193722-281795-256638-268382
3227.32-281377-328003-381177-324342-321083-166408
3230.21-151875-258539-272458-317497-272539-261834
3233.10-298898-330133-292617-318367-320267-179295
3236.00-171273-225567-207685-287521-386954-390642
3238.89-297441-126412-145151-306909-202226-38923
3241.78-124963-119258-127813-132350-53180-38965
3244.67-51056-48427-138392-274334-246578-207931
3247.57-232028-320167-290957-151694-48305-17289
3250.46 3820 94122 83253 77801 88030-689
3253.35-103625-157257-50274 39245 36195 71488
3256.24-2724-29723 73382 162733 222599 124574
3259.14-64662-181299-113277 42001 156683 170027
3262.03 64471 21800 157896 89241-88835-44711
3264.92 75539 178659 63057 23903 161089 106807
3267.82 69311 41716-89568 9433 90870 36458
3270.71 21247 7385-24071 6987 172739 148056
3273.60-31881-107256-150395-163342-7793 80545
3276.49 92759 68615 97231 128162 148255 200383
3279.39 97701-85448-154455 138011 100885-15283
3282.28 96830-21486 107201 167261 95306 97626
3285.17 92355 97080 110424 4325-78117 46941
3288.06 70850 89595 102026 112236 31499 76672
3290.96 274580 130901 92573 126167 40892 93243
3293.85 160783 268852 383092 309805 156793 85051
3296.74 128542 201474 168274 140564 90027 33304
3299.64-31590 64358 40261 22606 27009 79997
3302.53 134943 72518 100809 33285-2941-20770
3305.42 16537-52041 134443 230137 95947 29219
3308.31-99689-81523 20639 85944 70333 104918
3311.21 47760-32660 19336 63485 130422 227466
3314.10 134424 77926 79032 63563 112276 149346
3316.99 9239-95229 22469 90653 148483 105679
3319.88 153272 241290 148744 109439 21295-59261
3322.78 40936 116407 182197 50672 29718 172882
3325.67 82652 61080 63743 143029 191358 38252
3328.56-45442-28995 57714-49013-182585-70637
3331.46-36850-75213 1632 108569 138134 85422
3334.35 72602-16391-52682-46389-88056-157951
3337.24-191109-27024 52589-55552-116041-75584
3340.13-112482-102252-81409-76147-24041 14684
3343.03-11122-75770-45438 18662 1864-22225
3345.92-132088-52673 28248-126954-112823-3185
3348.81 74329-37428-140942-2810 45374-8565
3351.70-6166-71598-201638-169376-106712-82780
3354.60-125451-168709-105826 7755-32345-147413
3357.49-83204-39900-121999-34793 68650-29995
3360.38-117324-187425-166491-83341-142480-137555
3363.28-38257-47458-89441-128529 10036 27463
3366.17 55590 169195 150305 85692 49395 27622
3369.06-35170 62799 92419 235771 322916 37265
3371.95-26576 51928 164076 236333 197623 111720
3374.85 6766 78356 131334 99278 244541 362950
3377.74 292158 262401 136692 191215 336525 310385
3380.63 413556 319999 260969 258057 180240 313871
3383.52 333940 422622 550889 519837 522453 492570
3386.42 339437 294453 334307 269942 273298 324277
3389.31 477537 609655 574640 354814 206788 284791
3392.20 380849 403091 238940 235419 211114 212241
3395.10 284635 203326 315604 437409 349691 260153
3397.99 261438 237402 236059 320741 316960 168596
3400.88 154272 121670 76657-15754-33794 85082
3403.77 52409 119975 156789 87113 137121 71108
3406.67 12704-53932-113726-16890 103643 108069
3409.56-72889-117979-16778 4338 33258 53180
3412.45 83132-18278-186577-38901 25801-30763
3415.34 8645 91694 155294 97981 16452 60656
3418.24 22650-61364-69572-150460-14786 104346
3421.13-1289-141933-262646-53308 60875 133021
3424.02 159261 70436-14227 120637 270354 136240
3426.92 107853 93287 128063 59598 64061 197742
3429.81 111653 130422 297762 249888 111606 154348
3432.70 342533 264742 104781 206837 392032 477578
3435.59 410688 381871 411954 318112 330647 267613
3438.49 201117 445997 497364 461388 514247 415812
3441.38 331437 391401 307135 155492 113344 83190
3444.27 141408 104198 16742 185084 220723 17435
3447.16 110936 212002 92470 106398 78938 157928
3450.06 159830-7549 11115 42627 39677 57590
3452.95 113941 23184-71761-27972-92119-39314
3455.84 122714 9108-128105-163174-122930-29700
3458.74 4231-61104-172582-293694-309515-229952
3461.63-144870-101170-171875-142783-159896-243635
3464.52-295827-271502-123872-212781-313694-337079
3467.41-352532-327156-369644-236717-152633-306127
3470.31-495611-307188-229005-385575-332814-340684
3473.20-351617-336623-275119-251654-254745-338761
3476.09-384738-347565-299090-280376-362059-345780
3478.98-169198-113958-269344-280242-181961-195781
3481.88-318011-378743-486218-518182-287076-336534
3484.77-454492-369770-301919-302392-485734-470844
3487.66-349579-333560-271252-253341-229406-196843
3490.56-208777-213648-358171-343322-193344-318329
3493.45-401875-345069-337509-263659-171604-195936
3496.34-163299-191394-164804-84297-164562-251985
3499.23-279886-352317-226265 25881-92725-272186
3502.13-312868-293343-264576-317501-377487-355229
3505.02-324609-300526-337643-228662-143177-263254
3507.91-165195-53683-90988-204940-382467-320423
3510.80-110994-313621-431206-266686-248128-273278
3513.70-337937-219279-166751-366042-420287-310463
3516.59-303560-216069-173176-346816-327757-300695
3519.48-290385-417341-509352-325770-165751-255266
3522.38-459242-481996-491414-504153-459074-346873
3525.27-299578-421037-432357-430153-361395-294493
3528.16-307800-296714-342981-313446-287375-226594
3531.05-290504-224018-164155-297352-322340-524219
3533.95-542681-310292-256837-294574-322904-397358
3536.84-410872-364472-421877-442000-450940-419377
3539.73-257633-241747-334283-325533-322750-340655
3542.62-198110-78997-187024-303636-401830-409653
3545.52-339465-398753-457499-455198-508913-522777
3548.41-393410-358575-345738-301846-492282-585843
3551.30-610427-605813-527013-493317-442004-455970
3554.20-404692-464485-486004-444553-511242-543514
3557.09-575661-519631-630405-617728-469066-627541
3559.98-681676-599597-552491-575446-639762-542929
3562.87-530452-480799-425404-550551-651585-640868
3565.77-593082-515536-512630-656468-549545-477508
3568.66-660756-753660-530734-485394-614084-647019
3571.55-614216-501740-455614-448363-578251-642618
3574.44-543604-628043-681615-587691-463427-373994
3577.34-575601-682657-489982-398928-488833-601502
3580.23-644961-589210-445654-425975-546418-582740
3583.12-566610-585651-542254-437185-436167-510270
3586.02-723332-695664-490130-520810-614743-644155
3588.91-568893-490985-545668-538248-500103-558122
3591.80-556270-493666-498808-457116-315024-329115
3594.69-359443-241524-337269-496097-358115-263888
3597.59-284006-376849-392203-331289-452485-576565
3600.48-492350-298105-328172-441515-386857-210419
3603.37-181253-317597-347409-334344-354850-362052
3606.26-313526-311356-395829-369355-339716-476171
3609.16-373943-287254-171855-148595-268293-296839
3612.05-333508-213818-131142-104472-197096-225902
3614.94-213571-242906-289543-362992-342383-299032
3617.84-215078-89573-255263-306549-159428-244342
3620.73-204568-82806-116268-140890-99700-79814
3623.62-87970-80086-66521-47159-86346-102969
3626.51-27998-48218-294778-408118-319553-496584
3629.41-356655-50473 24133 23519-36512-72858
3632.30-84715-30108-20542-84177-81092-9194
3635.19-5184-9795-2800 80324 77475 2467
3638.08 64491 65901 11920-51759-82391-11393
3640.98-19096-55837 14815 151844 211077 255731
3643.87 283974 240828 277935 265661 191625 181745
3646.76 114146 203812 393278 191199-149252 83686
3649.66 335093 320771 281986 273569 457717 552339
3652.55 586960 647265 637001 643682 709359 703934
3655.44 505441 400807 620734 723471 693650 736620
3658.33 829757 836001 798092 921973 992394 978248
3661.23 995871 1056621 1128069 1172801 1120003 1014364
3664.12 1068247 1163377 1274150 1342053 1313258 1369099
3667.01 1292865 1269118 1239907 1126642 1190132 1190946
3669.90 874782 690507 996071 1156111 1239046 1280420
3672.80 1142243 1098079 1016981 763777 799890 678777
3675.69 561338 958733 1028170 923610 1082449 1224327
3678.58 1153039 1132642 1176533 1093353 1035559 1115389
3681.48 1123176 1067775 1039047 1092679 1053029 807362
3684.37 798964 820385 669889 607676 639359 583006
3687.26 471660 172438 220390 483675 469463 493680
3690.15 389020 304647 421097 537424 598124 612976
3693.05 503932 503607 519839 411661 288815 299724
3695.94 493345 545166 539817 578743 533702 562367
3698.83 537366 477346 540328 553991 516434 424540
3701.72 351135 411081 406670 306757 283742 340441
3704.62 436532 359817 304482 276890 216827 276632
3707.51 240408 266884 170662 34019 176650 235333
3710.40 89190 85787-73727-154349 166895 307546
3713.30 229431 159602 66335 18384 21330-58253
3716.19 58104 154482 86936 14831 50895 63426
3719.08 33389 68078 119939 157076 227901 126596
3721.97 24814 94656 201041 243305 199346 164817
3724.87 94166 195032 115294 123140 247938 146473
3727.76 206144 298103 188563 118307 255629 277229
3730.65 268505 172325-123594-860 189053 175199
3733.54 124495-21455-90095 64119 199622-12334
3736.44-55447 137647 253414 301983 293989 339529
3739.33 419680 465567 398162 346831 471913 495768
3742.22 476309 469869 415633 7398-318713 88658
3745.12 554562 684276 616837 577499 714128 799682
3748.01 713675 394708 149926 522898 858895 847317
3750.90 757948 301391 189139 753112 987707 1076844
3753.79 1058064 939547 859813 881460 975034 850827
3756.69 916341 1062953 1020963 890172 748926 722004
3759.58 795906 981835 1067911 943787 817016 861134
3762.47 922935 960235 1072766 1052838 933711 779882
3765.36 732506 745358 758915 785850 873312 915767
3768.26 819891 646422 433265 561407 774422 714297
3771.15 581198 393521 471664 680593 607784 532212
3774.04 497419 455613 510813 441239 329699 384326
3776.94 409993 353199 344500 386291 250083 155894
3779.83 264442 469854 546763 461097 398059 456567
3782.72 432362 524224 504890 339908 343868 281478
3785.61 328962 394340 409777 351925 401800 458455
3788.51 452779 411929 412423 536116 561580 513933
3791.40 390186 287871 417667 641904 534112 386382
3794.29 462377 421771 376167 292577 322519 442460
3797.18 432404 392138 369519 394396 339658 297847
3800.08 422549 14603-206971 318244 457023 401585
3802.97 440204 597470 687909 520102 432020 434296
3805.86 302715-57538 48480 574262 711865 638992
3808.76 652267 664633 655518 640918 709169 733015
3811.65 688219 659137 617760 737093 776797 724093
3814.54 805968 630717 216440 469292 898314 894910
3817.43 910318 869778 831285 909800 931810 755754
3820.33 626965 662520 635850 778527 921595 1061042
3823.22 1170482 1156310 1112241 1100603 1199897 1177569
3826.11 1010649 1011848 1238620 1319670 1311818 1350862
3829.00 1295829 1283827 1314186 1266922 1103800 1010239
3831.90 1237358 1460045 1439878 1374737 1320381 1072093
3834.79 1137687 1362267 1239233 1298402 1241630 714978
3837.68 855127 1357358 1421932 1412616 1437629 1457289
3840.58 1375898 1390832 1510766 1623188 1648746 1536275
3843.47 1509456 1528371 1548784 1583452 1591072 1662074
3846.36 1787245 1813036 1633794 1566337 1614298 1683582
3849.25 1735816 1721381 1703159 1762201 1421916 1193764
3852.15 1545438 1718752 1332927 812005 1110893 1712333
3855.04 1855688 1755353 1735059 1671684 1755864 1899703
3857.93 1906340 1858771 1801430 1849334 1882280 1858496
3860.82 1750536 1623797 1688528 1737405 1848716 1961924
3863.72 1859872 1706000 1618030 1761348 1868821 1761750
3866.61 1716179 1693178 1651793 1764071 1641159 1502199
3869.50 1309242 1474415 1771980 1824080 1954302 1965665
3872.40 2001661 1903794 1745286 1718326 1869607 2007242
3875.29 2087485 2031146 1946302 1996636 2093603 2082215
3878.18 2062924 2114042 2021879 1852912 1937818 2143437
3881.07 2095298 2089141 2207878 2227216 2207857 2248070
3883.97 2205452 2096604 1896895 1872624 2113477 2291133
3886.86 2332396 2279292 2250927 2270610 2272783 2176429
3889.75 2240541 2176685 1976630 2066203 2112845 2148886
3892.64 2192534 2211665 2199011 2202815 2309316 2323913
3895.54 2277122 2223382 2177132 2208592 2230626 2186334
3898.43 2032738 1906398 2149900 2285241 2231282 2235018
3901.32 2093778 2142347 2235147 2234776 2224121 2073941
3904.22 2146810 2294360 2278055 2271583 2233241 2134025
3907.11 2186782 2216007 2253690 2296325 2226841 2263833
3910.00 2315916 2351908 2406940 2335613 2238451 2331334
3912.89 2484608 2569429 2545715 2372092 2385911 2470827
3915.79 2388111 2265317 2289681 2561584 2484591 2345787
3918.68 2404097 2308571 2399054 2514474 2511288 2589862
3921.57 2621655 2603346 2556261 2521793 2478418 2508122
3924.46 2537567 2560968 2532374 2585329 2624972 2498148
3927.36 2567506 2660382 2722545 2698710 2595301 2627358
3930.25 2560174 2484445 2452005 2495021 2480915 2452757
3933.14 2594663 2661113 2657057 2678998 2763979 2615552
3936.04 2498607 2555825 2441273 2360873 2500739 2628272
3938.93 2605978 2584885 2552154 2470700 2542493 2535753
3941.82 2415520 2420644 2435833 2317547 2359005 2421424
3944.71 2385015 2408213 2348703 2325435 2279515 2232786
3947.61 2200751 2116842 2021547 1965546 1904760 2051100
3950.50 2226283 2151580 2111878 2110718 2211342 2243116
3953.39 2217148 2215453 2164436 2200039 2181896 2132475
3956.28 2121106 2070279 2090097 2131620 2112068 2141047
3959.18 2274026 2347462 2254830 2128594 2146292 2176442
3962.07 2172704 2118856 2109883 2189874 2259212 2308430
3964.96 2195067 2154400 2196910 2174819 2147794 2148754
3967.86 2259081 2376736 2291365 2185506 2152472 2219297
3970.75 2210999 2140355 2326801 2301199 2157342 2257671
3973.64 2326139 2375038
##END=
