##TITLE=BENZENE, 1,4-DIMETHYL-
##JCAMP-DX=4.24
##DATA TYPE=INFRARED SPECTRUM
##CLASS=COBLENTZ III
##ORIGIN=DOW CORNING CORP.
##OWNER=COBLENTZ SOCIETY
Collection (C) 2018 copyright by the U.S. Secretary of Commerce
on behalf of the United States of America. All rights reserved.
##DATE=1966
##NAMES=p-xylene
p-XYLENE
##CAS REGISTRY NO=106-42-3
##MOLFORM=C8 H10
##SOURCE REFERENCE=COBLENTZ NO. 4780
##$NIST SOURCE=COBLENTZ
##$NIST IMAGE=cob4780
##SPECTROMETER/DATA SYSTEM=PERKIN-ELMER 521 (GRATING)
##INSTRUMENT PARAMETERS=FILTERS AT 3150, 2500, 2000, 1150, 700, 410; GRATING CHANGES AT 2000, 630 CM^-^1
##STATE=SOLUTION (10% IN CCl4 FOR 3800-1300, 10% IN CS2 FOR 1300-650, AND 10% CCl4 FOR 650-240 CM^-^1) VERSUS SOLVENT
##PATH LENGTH=0.012, 0.012, AND 0.011 CM (CsBr CELL)
##SAMPLING PROCEDURE=TRANSMISSION
##RESOLUTION=4
##DATA PROCESSING=DIGITIZED BY NIST FROM HARD COPY (FROM TWO SEGMENTS)
##XUNITS=1/CM
##YUNITS=TRANSMITTANCE
##XFACTOR=1.000000
##YFACTOR=1
##DELTAX=1.282057
##FIRSTX=234.615
##LASTX=3796.17
##FIRSTY=0.905
##MAXX=3796.17
##MINX=234.615
##MAXY=0.916
##MINY=0
##NPOINTS=2779
##XYDATA=(X++(Y..Y))
234.615000 0.9050 0.9030 0.9030 0.9030 0.9020
241.025283 0.9020 0.8960 0.8950 0.8950 0.8950
247.435566 0.8950 0.8950 0.8930 0.8910 0.8910
253.845848 0.8890 0.8890 0.8910 0.8910 0.8890
260.256131 0.8890 0.8890 0.8890 0.8890 0.8880
266.666414 0.8880 0.8880 0.8860 0.8860 0.8860
273.076697 0.8840 0.8820 0.8790 0.8770 0.8680
279.486980 0.8670 0.8670 0.8680 0.8700 0.8720
285.897262 0.8720 0.8740 0.8750 0.8750 0.8770
292.307545 0.8770 0.8770 0.8770 0.8790 0.8790
298.717828 0.8790 0.8810 0.8790 0.8770 0.8770
305.128111 0.8770 0.8770 0.8770 0.8770 0.8750
311.538394 0.8750 0.8750 0.8750 0.8750 0.8770
317.948676 0.8790 0.8790 0.8820 0.8820 0.8820
324.358959 0.8820 0.8840 0.8840 0.8840 0.8860
330.769242 0.8840 0.8820 0.8810 0.8770 0.8750
337.179525 0.8750 0.8750 0.8790 0.8810 0.8810
343.589807 0.8840 0.8890 0.8910 0.8930 0.8930
350.000090 0.8910 0.8890 0.8910 0.8930 0.8930
356.410373 0.8930 0.8930 0.8930 0.8930 0.8910
362.820656 0.8930 0.8930 0.8950 0.8960 0.8950
369.230939 0.8950 0.8930 0.8930 0.8950 0.8960
375.641221 0.8950 0.8960 0.8960 0.8960 0.8960
382.051504 0.8980 0.8980 0.8980 0.8980 0.9000
388.461787 0.9000 0.9020 0.9020 0.9020 0.9020
394.872070 0.9030 0.9030 0.9020 0.9020 0.9020
401.282353 0.9030 0.9030 0.9070 0.9090 0.9070
407.692635 0.9090 0.9090 0.9100 0.9100 0.9120
414.102918 0.9120 0.9140 0.9160 0.9160 0.9160
420.513201 0.9140 0.9140 0.9140 0.9140 0.9140
426.923484 0.9120 0.9100 0.9090 0.9070 0.9050
433.333767 0.9030 0.9030 0.9020 0.9020 0.9020
439.744049 0.9000 0.8960 0.8950 0.8930 0.8930
446.154332 0.8930 0.8880 0.8820 0.8810 0.8770
452.564615 0.8750 0.8670 0.8670 0.8650 0.8630
458.974898 0.8580 0.8530 0.8530 0.8460 0.8371
465.385181 0.8330 0.8320 0.8160 0.7791 0.7601
471.795463 0.7062 0.6522 0.5833 0.5154 0.4166
478.205746 0.2409 0.0800 0.0800 0.1519 0.1690
484.616029 0.2856 0.3886 0.5214 0.6543 0.7455
491.026312 0.7910 0.8020 0.8210 0.8330 0.8390
497.436594 0.8490 0.8540 0.8600 0.8630 0.8670
503.846877 0.8670 0.8680 0.8770 0.8770 0.8790
510.257160 0.8820 0.8820 0.8820 0.8820 0.8810
516.667443 0.8790 0.8790 0.8790 0.8770 0.8770
523.077726 0.8770 0.8770 0.8770 0.8750 0.8750
529.488008 0.8770 0.8750 0.8750 0.8770 0.8770
535.898291 0.8770 0.8750 0.8750 0.8770 0.8790
542.308574 0.8810 0.8810 0.8820 0.8820 0.8840
548.718857 0.8840 0.8840 0.8840 0.8860 0.8860
555.129140 0.8860 0.8860 0.8860 0.8860 0.8860
561.539422 0.8880 0.8880 0.8890 0.8910 0.8930
567.949705 0.8930 0.8950 0.8950 0.8960 0.8960
574.359988 0.8960 0.8960 0.8960 0.8960 0.8980
580.770271 0.8980 0.8980 0.8960 0.9000 0.9020
587.180554 0.9030 0.9020 0.9020 0.9000 0.8980
593.590836 0.8960 0.8960 0.8960 0.8960 0.8960
600.001119 0.8960 0.8960 0.8960 0.8960 0.8960
606.411402 0.9000 0.9000 0.9000 0.9000 0.9000
612.821685 0.9000 0.9000 0.9000 0.8980 0.8980
619.231968 0.8950 0.8930 0.8930 0.8950 0.8960
625.642250 0.8960 0.8980 0.8960 0.8960 0.8960
632.052533 0.8950 0.8950 0.8950 0.8950 0.8930
638.462816 0.8930 0.8930 0.8950 0.8950 0.8960
644.873099 0.8960 0.8960 0.8960 0.8960 0.8960
651.283382 0.8960 0.8950 0.8930 0.8930 0.8910
657.693664 0.8910 0.8890 0.8880 0.8840 0.8820
664.103947 0.8810 0.8810 0.8790 0.8770 0.8750
670.514230 0.8740 0.8720 0.8720 0.8700 0.8700
676.924513 0.8700 0.8720 0.8740 0.8740 0.8700
683.334795 0.8680 0.8670 0.8650 0.8650 0.8630
689.745078 0.8630 0.8630 0.8630 0.8630 0.8630
696.155361 0.8630 0.8630 0.8650 0.8670 0.8680
702.565644 0.8680 0.8670 0.8650 0.8650 0.8670
708.975927 0.8670 0.8670 0.8650 0.8650 0.8630
715.386209 0.8630 0.8630 0.8610 0.8610 0.8630
721.796492 0.8650 0.8650 0.8670 0.8670 0.8680
728.206775 0.8680 0.8670 0.8670 0.8740 0.8740
734.617058 0.8750 0.8750 0.8750 0.8750 0.8720
741.027341 0.8720 0.8700 0.8670 0.8670 0.8630
747.437623 0.8630 0.8630 0.8630 0.8610 0.8600
753.847906 0.8580 0.8560 0.8540 0.8540 0.8530
760.258189 0.8510 0.8470 0.8420 0.8370 0.8350
766.668472 0.8320 0.8280 0.8260 0.8160 0.7981
773.078755 0.7860 0.7790 0.7620 0.7460 0.7360
779.489037 0.6941 0.6501 0.5683 0.5033 0.3985
785.899320 0.3209 0.2409 0.1599 0.0001 0.0000
792.309603 0.0190 0.0380 0.0759 0.1148 0.1548
798.719886 0.1941 0.2531 0.3960 0.5619 0.6269
805.130169 0.6659 0.6849 0.7059 0.7229 0.7359
811.540451 0.7530 0.7700 0.7720 0.7790 0.7830
817.950734 0.7860 0.7860 0.7880 0.7880 0.7880
824.361017 0.7860 0.7860 0.7840 0.7830 0.7810
830.771300 0.7810 0.7830 0.7880 0.7910 0.8019
837.181582 0.8090 0.8140 0.8160 0.8190 0.8260
843.591865 0.8260 0.8280 0.8300 0.8300 0.8300
850.002148 0.8320 0.8330 0.8320 0.8330 0.8330
856.412431 0.8350 0.8350 0.8370 0.8390 0.8420
862.822714 0.8460 0.8460 0.8460 0.8470 0.8530
869.232996 0.8530 0.8540 0.8580 0.8580 0.8580
875.643279 0.8580 0.8610 0.8610 0.8630 0.8650
882.053562 0.8670 0.8670 0.8670 0.8670 0.8670
888.463845 0.8650 0.8650 0.8630 0.8630 0.8630
894.874128 0.8630 0.8610 0.8610 0.8610 0.8610
901.284410 0.8600 0.8580 0.8580 0.8560 0.8560
907.694693 0.8540 0.8540 0.8530 0.8530 0.8510
914.104976 0.8490 0.8470 0.8470 0.8470 0.8440
920.515259 0.8400 0.8370 0.8330 0.8300 0.8280
926.925542 0.8260 0.8250 0.8250 0.8250 0.8250
933.335824 0.8260 0.8260 0.8280 0.8280 0.8280
939.746107 0.8260 0.8250 0.8250 0.8250 0.8250
946.156390 0.8230 0.8210 0.8180 0.8140 0.8110
952.566673 0.8050 0.8050 0.8110 0.8110 0.8120
958.976956 0.8140 0.8160 0.8160 0.8160 0.8160
965.387238 0.8160 0.8180 0.8190 0.8190 0.8250
971.797521 0.8250 0.8250 0.8250 0.8250 0.8230
978.207804 0.8230 0.8210 0.8180 0.8180 0.8160
984.618087 0.8160 0.8160 0.8160 0.8160 0.8140
991.028370 0.8110 0.8090 0.8070 0.8070 0.8050
997.438652 0.8050 0.8000 0.7950 0.7910 0.7880
1003.848935 0.7860 0.7830 0.7810 0.7790 0.7770
1010.259218 0.7620 0.7530 0.7480 0.7340 0.7011
1016.669501 0.6458 0.5340 0.5341 0.6800 0.6760
1023.079783 0.6690 0.6570 0.6460 0.6321 0.6250
1029.490066 0.6080 0.6039 0.5680 0.5470 0.5270
1035.900349 0.5260 0.5270 0.5330 0.5479 0.5619
1042.310632 0.5800 0.6030 0.6320 0.6410 0.6480
1048.720915 0.6730 0.6880 0.7040 0.7219 0.7290
1055.131197 0.7290 0.7360 0.7410 0.7430 0.7480
1061.541480 0.7630 0.7670 0.7670 0.7700 0.7720
1067.951763 0.7740 0.7760 0.7790 0.7810 0.7830
1074.362046 0.7840 0.7840 0.7840 0.7840 0.7830
1080.772329 0.7810 0.7770 0.7720 0.7630 0.7620
1087.182611 0.7560 0.7530 0.7301 0.7131 0.6672
1093.592894 0.6030 0.6030 0.6270 0.6520 0.6620
1100.003177 0.6710 0.6800 0.6870 0.6970 0.6990
1106.413460 0.6969 0.6709 0.6410 0.6360 0.5850
1112.823743 0.4821 0.4401 0.4400 0.4888 0.5727
1119.234025 0.6831 0.7461 0.7900 0.7930 0.7980
1125.644308 0.8020 0.8160 0.8180 0.8210 0.8250
1132.054591 0.8330 0.8350 0.8350 0.8350 0.8370
1138.464874 0.8390 0.8460 0.8470 0.8510 0.8540
1144.875157 0.8600 0.8610 0.8650 0.8650 0.8670
1151.285439 0.8670 0.8670 0.8670 0.8650 0.8600
1157.695722 0.8560 0.8510 0.8470 0.8420 0.8390
1164.106005 0.8370 0.8350 0.8350 0.8280 0.8210
1170.516288 0.8160 0.8070 0.8050 0.8040 0.8040
1176.926570 0.8050 0.8090 0.8140 0.8180 0.8260
1183.336853 0.8350 0.8350 0.8370 0.8390 0.8390
1189.747136 0.8400 0.8400 0.8400 0.8400 0.8400
1196.157419 0.8400 0.8420 0.8420 0.8420 0.8440
1202.567702 0.8440 0.8440 0.8440 0.8420 0.8370
1208.977984 0.8089 0.7809 0.7530 0.7250 0.7250
1215.388267 0.7510 0.7790 0.8069 0.8279 0.8420
1221.798550 0.8470 0.8470 0.8460 0.8420 0.8400
1228.208833 0.8400 0.8350 0.8300 0.8260 0.8230
1234.619116 0.8210 0.8230 0.8230 0.8260 0.8370
1241.029398 0.8460 0.8510 0.8540 0.8540 0.8560
1247.439681 0.8560 0.8560 0.8580 0.8580 0.8580
1253.849964 0.8580 0.8600 0.8670 0.8670 0.8610
1260.260247 0.8560 0.8510 0.8510 0.8530 0.8530
1266.670530 0.8510 0.8490 0.8490 0.8540 0.8540
1273.080812 0.8530 0.8540 0.8540 0.8540 0.8560
1279.491095 0.8540 0.8470 0.8460 0.8460 0.8460
1285.901378 0.8470 0.8530 0.8560 0.8610 0.8650
1292.311661 0.8670 0.8670 0.8700 0.8720 0.8720
1298.721944 0.8700 0.8680 0.8670 0.8680 0.8680
1305.132226 0.8670 0.8650 0.8650 0.8650 0.8630
1311.542509 0.8600 0.8600 0.8580 0.8540 0.8530
1317.952792 0.8530 0.8540 0.8560 0.8580 0.8580
1324.363075 0.8580 0.8580 0.8580 0.8580 0.8540
1330.773357 0.8490 0.8470 0.8470 0.8460 0.8370
1337.183640 0.8350 0.8350 0.8350 0.8330 0.8330
1343.593923 0.8320 0.8320 0.8300 0.8300 0.8280
1350.004206 0.8260 0.8250 0.8250 0.8230 0.8210
1356.414489 0.8210 0.8190 0.8120 0.8040 0.7980
1362.824771 0.7950 0.7860 0.7840 0.7790 0.7630
1369.235054 0.6970 0.6321 0.6270 0.5751 0.5730
1375.645337 0.6183 0.6971 0.7251 0.7600 0.7760
1382.055620 0.7810 0.7830 0.7830 0.7840 0.7840
1388.465903 0.7840 0.7840 0.7810 0.7790 0.7760
1394.876185 0.7740 0.7700 0.7630 0.7550 0.7460
1401.286468 0.7410 0.7300 0.7180 0.7150 0.7110
1407.696751 0.7040 0.7010 0.6950 0.6870 0.6850
1414.107034 0.6850 0.6830 0.6810 0.6780 0.6660
1420.517317 0.6530 0.6480 0.6360 0.6340 0.6181
1426.927599 0.6080 0.5960 0.5830 0.5760 0.5520
1433.337882 0.5430 0.5330 0.5190 0.5060 0.4960
1439.748165 0.4890 0.4790 0.4680 0.4630 0.4590
1446.158448 0.4520 0.4510 0.4450 0.4420 0.4400
1452.568731 0.4420 0.4450 0.4490 0.4560 0.4720
1458.979013 0.4800 0.4870 0.5050 0.5220 0.5310
1465.389296 0.5431 0.5640 0.5710 0.5800 0.5920
1471.799579 0.6080 0.6200 0.6270 0.6320 0.6340
1478.209862 0.6360 0.6390 0.6410 0.6390 0.6340
1484.620145 0.6310 0.6270 0.6240 0.6200 0.6080
1491.030427 0.6040 0.6030 0.5970 0.5890 0.5820
1497.440710 0.5690 0.5570 0.4891 0.4591 0.4301
1503.850993 0.4019 0.3717 0.2898 0.2219 0.1529
1510.261276 0.0850 0.0190 0.0190 0.0499 0.1876
1516.671558 0.3424 0.4593 0.5612 0.6341 0.6740
1523.081841 0.7040 0.7150 0.7230 0.7290 0.7360
1529.492124 0.7460 0.7530 0.7550 0.7600 0.7620
1535.902407 0.7620 0.7650 0.7690 0.7720 0.7740
1542.312690 0.7790 0.7830 0.7840 0.7860 0.7910
1548.722972 0.7970 0.7970 0.8000 0.8070 0.8070
1555.133255 0.8090 0.8140 0.8180 0.8180 0.8180
1561.543538 0.8180 0.8180 0.8190 0.8210 0.8250
1567.953821 0.8250 0.8260 0.8260 0.8300 0.8300
1574.364104 0.8320 0.8330 0.8330 0.8350 0.8400
1580.774386 0.8420 0.8440 0.8460 0.8470 0.8470
1587.184669 0.8470 0.8470 0.8470 0.8470 0.8470
1593.594952 0.8460 0.8460 0.8440 0.8420 0.8400
1600.005235 0.8390 0.8370 0.8350 0.8330 0.8330
1606.415518 0.8320 0.8300 0.8280 0.8230 0.8180
1612.825800 0.8160 0.8050 0.7930 0.7860 0.7830
1619.236083 0.7700 0.7600 0.7550 0.7510 0.7510
1625.646366 0.7550 0.7620 0.7740 0.7830 0.7950
1632.056649 0.8161 0.8330 0.8400 0.8470 0.8540
1638.466932 0.8560 0.8600 0.8610 0.8650 0.8650
1644.877214 0.8670 0.8670 0.8670 0.8680 0.8720
1651.287497 0.8750 0.8750 0.8740 0.8740 0.8740
1657.697780 0.8720 0.8680 0.8650 0.8680 0.8750
1664.108063 0.8750 0.8790 0.8790 0.8810 0.8810
1670.518345 0.8820 0.8820 0.8820 0.8820 0.8820
1676.928628 0.8820 0.8820 0.8820 0.8820 0.8820
1683.338911 0.8840 0.8840 0.8860 0.8860 0.8880
1689.749194 0.8880 0.8880 0.8860 0.8860 0.8840
1696.159477 0.8820 0.8810 0.8790 0.8790 0.8750
1702.569759 0.8750 0.8750 0.8750 0.8750 0.8750
1708.980042 0.8750 0.8740 0.8740 0.8720 0.8720
1715.390325 0.8720 0.8720 0.8720 0.8700 0.8700
1721.800608 0.8720 0.8720 0.8720 0.8720 0.8720
1728.210891 0.8720 0.8720 0.8720 0.8740 0.8740
1734.621173 0.8720 0.8720 0.8700 0.8720 0.8720
1741.031456 0.8740 0.8740 0.8750 0.8750 0.8750
1747.441739 0.8750 0.8750 0.8750 0.8740 0.8720
1753.852022 0.8720 0.8700 0.8720 0.8720 0.8720
1760.262305 0.8740 0.8740 0.8750 0.8750 0.8750
1766.672587 0.8750 0.8740 0.8740 0.8720 0.8720
1773.082870 0.8720 0.8700 0.8600 0.8560 0.8580
1779.493153 0.8420 0.8250 0.8160 0.8040 0.8000
1785.903436 0.8001 0.8141 0.8390 0.8420 0.8510
1792.313719 0.8650 0.8680 0.8740 0.8770 0.8750
1798.724001 0.8810 0.8840 0.8860 0.8860 0.8860
1805.134284 0.8860 0.8860 0.8860 0.8860 0.8840
1811.544567 0.8820 0.8820 0.8820 0.8820 0.8810
1817.954850 0.8790 0.8790 0.8750 0.8740 0.8720
1824.365133 0.8720 0.8720 0.8740 0.8740 0.8740
1830.775415 0.8750 0.8770 0.8790 0.8790 0.8790
1837.185698 0.8790 0.8790 0.8810 0.8810 0.8810
1843.595981 0.8810 0.8810 0.8810 0.8810 0.8810
1850.006264 0.8790 0.8770 0.8750 0.8740 0.8740
1856.416546 0.8740 0.8720 0.8740 0.8720 0.8670
1862.826829 0.8650 0.8630 0.8610 0.8580 0.8560
1869.237112 0.8490 0.8400 0.8280 0.8190 0.8140
1875.647395 0.7840 0.7809 0.7669 0.7359 0.6950
1882.057678 0.6730 0.6730 0.6940 0.7040 0.7409
1888.467960 0.7582 0.8001 0.8251 0.8440 0.8530
1894.878243 0.8560 0.8580 0.8580 0.8650 0.8720
1901.288526 0.8750 0.8790 0.8820 0.8820 0.8810
1907.698809 0.8810 0.8810 0.8810 0.8810 0.8810
1914.109092 0.8810 0.8820 0.8820 0.8820 0.8840
1920.519374 0.8880 0.8890 0.8890 0.8910 0.8910
1926.929657 0.8930 0.8930 0.8930 0.8930 0.8930
1933.339940 0.8930 0.8910 0.8910 0.8890 0.8890
1939.750223 0.8880 0.8880 0.8860 0.8860 0.8860
1946.160506 0.8860 0.8860 0.8880 0.8880 0.8910
1952.570788 0.8950 0.8950 0.8950 0.8950 0.8930
1958.981071 0.8930 0.8930 0.8910 0.8910 0.8910
1965.391354 0.8890 0.8890 0.8890 0.8880 0.8880
1971.801637 0.8860 0.8860 0.8840 0.8840 0.8840
1978.211920 0.8840 0.8860 0.8880 0.8890 0.8910
1984.622202 0.8930 0.8930 0.8910 0.8910 0.8890
1991.032485 0.8880 0.8860 0.8840 0.8840 0.8820
1997.442768 0.8820 0.8820 0.8840 0.8865 0.8890
2003.853051 0.8910 0.8930 0.8945 0.8960 0.8970
2010.263333 0.8980 0.8980 0.8980 0.8990 0.9000
2016.673616 0.9000 0.9000 0.9000 0.9000 0.8990
2023.083899 0.8980 0.8980 0.8980 0.8970 0.8960
2029.494182 0.8955 0.8950 0.8940 0.8930 0.8930
2035.904465 0.8930 0.8940 0.8949 0.8950 0.8950
2042.314747 0.8955 0.8960 0.8960 0.8960 0.8960
2048.725030 0.8960 0.8960 0.8960 0.8960 0.8960
2055.135313 0.8960 0.8960 0.8960 0.8960 0.8969
2061.545596 0.8979 0.8971 0.8961 0.8960 0.8960
2067.955879 0.8969 0.8979 0.8980 0.8980 0.8971
2074.366161 0.8961 0.8960 0.8960 0.8960 0.8960
2080.776444 0.8955 0.8950 0.8941 0.8931 0.8930
2087.186727 0.8930 0.8908 0.8883 0.8853 0.8823
2093.597010 0.8789 0.8754 0.8750 0.8750 0.8781
2100.007293 0.8815 0.8838 0.8858 0.8873 0.8888
2106.417575 0.8908 0.8928 0.8930 0.8930 0.8930
2112.827858 0.8930 0.8939 0.8949 0.8954 0.8959
2119.238141 0.8960 0.8960 0.8947 0.8932 0.8930
2125.648424 0.8930 0.8930 0.8930 0.8930 0.8930
2132.058707 0.8939 0.8949 0.8950 0.8950 0.8954
2138.468989 0.8959 0.8956 0.8951 0.8950 0.8950
2144.879272 0.8950 0.8950 0.8954 0.8959 0.8960
2151.289555 0.8960 0.8948 0.8933 0.8922 0.8912
2157.699838 0.8910 0.8910 0.8902 0.8892 0.8890
2164.110121 0.8890 0.8890 0.8890 0.8890 0.8890
2170.520403 0.8898 0.8908 0.8918 0.8928 0.8930
2176.930686 0.8930 0.8930 0.8930 0.8922 0.8912
2183.340969 0.8910 0.8910 0.8902 0.8892 0.8890
2189.751252 0.8890 0.8886 0.8881 0.8872 0.8862
2196.161534 0.8860 0.8860 0.8860 0.8860 0.8868
2202.571817 0.8878 0.8880 0.8880 0.8880 0.8880
2208.982100 0.8872 0.8862 0.8860 0.8860 0.8860
2215.392383 0.8860 0.8860 0.8860 0.8853 0.8843
2221.802666 0.8847 0.8857 0.8860 0.8860 0.8860
2228.212948 0.8860 0.8867 0.8877 0.8880 0.8880
2234.623231 0.8884 0.8889 0.8890 0.8890 0.8890
2241.033514 0.8890 0.8890 0.8890 0.8890 0.8890
2247.443797 0.8890 0.8890 0.8890 0.8890 0.8886
2253.854080 0.8882 0.8880 0.8880 0.8873 0.8863
2260.264362 0.8860 0.8860 0.8846 0.8826 0.8820
2266.674645 0.8820 0.8817 0.8812 0.8810 0.8810
2273.084928 0.8803 0.8793 0.8783 0.8773 0.8763
2279.495211 0.8753 0.8750 0.8750 0.8747 0.8742
2285.905494 0.8740 0.8740 0.8740 0.8740 0.8733
2292.315776 0.8723 0.8720 0.8720 0.8707 0.8687
2298.726059 0.8657 0.8622 0.8610 0.8610 0.8639
2305.136342 0.8684 0.8716 0.8741 0.8757 0.8767
2311.546625 0.8786 0.8811 0.8820 0.8820 0.8810
2317.956908 0.8795 0.8777 0.8757 0.8747 0.8742
2324.367190 0.8734 0.8724 0.8714 0.8704 0.8706
2330.777473 0.8716 0.8729 0.8744 0.8756 0.8766
2337.187756 0.8783 0.8802 0.8813 0.8818 0.8820
2343.598039 0.8820 0.8820 0.8820 0.8820 0.8820
2350.008321 0.8820 0.8820 0.8826 0.8836 0.8852
2356.418604 0.8872 0.8874 0.8864 0.8854 0.8844
2362.828887 0.8834 0.8824 0.8820 0.8820 0.8820
2369.239170 0.8820 0.8811 0.8796 0.8776 0.8751
2375.649453 0.8740 0.8740 0.8743 0.8748 0.8750
2382.059735 0.8750 0.8750 0.8750 0.8750 0.8750
2388.470018 0.8756 0.8766 0.8770 0.8770 0.8764
2394.880301 0.8754 0.8747 0.8742 0.8735 0.8725
2401.290584 0.8709 0.8689 0.8680 0.8680 0.8677
2407.700867 0.8672 0.8673 0.8678 0.8685 0.8695
2414.111149 0.8700 0.8700 0.8700 0.8700 0.8705
2420.521432 0.8715 0.8715 0.8705 0.8700 0.8700
2426.931715 0.8695 0.8685 0.8690 0.8710 0.8720
2433.341998 0.8720 0.8720 0.8720 0.8720 0.8720
2439.752281 0.8725 0.8735 0.8740 0.8740 0.8735
2446.162563 0.8725 0.8720 0.8720 0.8710 0.8690
2452.572846 0.8678 0.8673 0.8670 0.8670 0.8670
2458.983129 0.8670 0.8665 0.8655 0.8650 0.8650
2465.393412 0.8657 0.8672 0.8680 0.8680 0.8689
2471.803695 0.8709 0.8720 0.8720 0.8725 0.8735
2478.213977 0.8735 0.8725 0.8704 0.8669 0.8650
2484.624260 0.8650 0.8661 0.8686 0.8705 0.8715
2491.034543 0.8725 0.8735 0.8740 0.8740 0.8740
2497.444826 0.8740 0.8740 0.8740 0.8740 0.8740
2503.855109 0.8736 0.8726 0.8720 0.8720 0.8720
2510.265391 0.8720 0.8716 0.8706 0.8700 0.8700
2516.675674 0.8696 0.8686 0.8678 0.8673 0.8670
2523.085957 0.8670 0.8666 0.8656 0.8654 0.8664
2529.496240 0.8670 0.8670 0.8676 0.8691 0.8700
2535.906522 0.8700 0.8704 0.8714 0.8720 0.8720
2542.316805 0.8716 0.8706 0.8704 0.8714 0.8724
2548.727088 0.8734 0.8740 0.8740 0.8740 0.8740
2555.137371 0.8740 0.8740 0.8736 0.8726 0.8720
2561.547654 0.8720 0.8716 0.8706 0.8696 0.8686
2567.957936 0.8674 0.8659 0.8646 0.8636 0.8621
2574.368219 0.8596 0.8573 0.8553 0.8538 0.8533
2580.778502 0.8532 0.8537 0.8543 0.8553 0.8563
2587.188785 0.8573 0.8580 0.8580 0.8580 0.8580
2593.599068 0.8583 0.8593 0.8602 0.8607 0.8617
2600.009350 0.8637 0.8653 0.8663 0.8670 0.8670
2606.419633 0.8670 0.8670 0.8670 0.8670 0.8670
2612.829916 0.8670 0.8670 0.8670 0.8672 0.8677
2619.240199 0.8680 0.8680 0.8678 0.8673 0.8670
2625.650482 0.8670 0.8667 0.8657 0.8647 0.8637
2632.060764 0.8633 0.8643 0.8650 0.8650 0.8653
2638.471047 0.8663 0.8670 0.8670 0.8677 0.8702
2644.881330 0.8720 0.8720 0.8717 0.8707 0.8696
2651.291613 0.8681 0.8667 0.8657 0.8650 0.8650
2657.701896 0.8653 0.8663 0.8670 0.8670 0.8668
2664.112178 0.8658 0.8650 0.8650 0.8650 0.8650
2670.522461 0.8647 0.8637 0.8630 0.8630 0.8630
2676.932744 0.8630 0.8630 0.8630 0.8628 0.8618
2683.343027 0.8609 0.8604 0.8600 0.8600 0.8601
2689.753309 0.8606 0.8610 0.8610 0.8610 0.8610
2696.163592 0.8609 0.8604 0.8595 0.8576 0.8558
2702.573875 0.8548 0.8539 0.8534 0.8526 0.8506
2708.984158 0.8488 0.8478 0.8467 0.8452 0.8433
2715.394441 0.8398 0.8365 0.8340 0.8306 0.8242
2721.804723 0.8164 0.8034 0.7911 0.7817 0.7723
2728.215006 0.7633 0.7544 0.7459 0.7390 0.7390
2734.625289 0.7455 0.7829 0.8168 0.8332 0.8472
2741.035572 0.8482 0.8493 0.8513 0.8531 0.8536
2747.445855 0.8542 0.8552 0.8562 0.8572 0.8580
2753.856137 0.8580 0.8580 0.8580 0.8578 0.8569
2760.266420 0.8560 0.8560 0.8559 0.8549 0.8540
2766.676703 0.8540 0.8539 0.8534 0.8528 0.8519
2773.086986 0.8509 0.8499 0.8489 0.8479 0.8469
2779.497269 0.8464 0.8459 0.8449 0.8439 0.8429
2785.907551 0.8418 0.8403 0.8389 0.8379 0.8368
2792.317834 0.8348 0.8327 0.8302 0.8273 0.8213
2798.728117 0.8159 0.8149 0.8139 0.8129 0.8119
2805.138400 0.8114 0.8106 0.8072 0.8037 0.8002
2811.548683 0.7968 0.7948 0.7926 0.7876 0.7828
2817.958965 0.7798 0.7766 0.7716 0.7668 0.7648
2824.369248 0.7629 0.7614 0.7594 0.7524 0.7454
2830.779531 0.7374 0.7297 0.7263 0.7226 0.7166
2837.189814 0.7106 0.7036 0.6961 0.6796 0.6632
2843.600097 0.6467 0.6306 0.6215 0.6120 0.5965
2850.010379 0.5808 0.5614 0.5414 0.5120 0.4834
2856.420662 0.4704 0.4572 0.4398 0.4224 0.4054
2862.830945 0.3886 0.3777 0.3668 0.3598 0.3530
2869.241228 0.3530 0.3533 0.3715 0.3890 0.3900
2875.651510 0.3913 0.4003 0.4092 0.4177 0.4263
2882.061793 0.4428 0.4590 0.4620 0.4650 0.4675
2888.472076 0.4700 0.4710 0.4720 0.4720 0.4720
2894.882359 0.4710 0.4700 0.4680 0.4659 0.4519
2901.292642 0.4379 0.4225 0.4070 0.3896 0.3721
2907.702924 0.3537 0.3352 0.3178 0.3003 0.2829
2914.113207 0.2654 0.2475 0.2295 0.2121 0.1946
2920.523490 0.1772 0.1597 0.1590 0.1590 0.1864
2926.933773 0.2143 0.2252 0.2357 0.2457 0.2556
2933.344056 0.2680 0.2805 0.3025 0.3249 0.3293
2939.754338 0.3328 0.3330 0.3330 0.3227 0.3117
2946.164621 0.3133 0.3158 0.3240 0.3326 0.3397
2952.574904 0.3466 0.3498 0.3528 0.3577 0.3627
2958.985187 0.3719 0.3813 0.3829 0.3839 0.3826
2965.395470 0.3811 0.3783 0.3753 0.3686 0.3616
2971.805752 0.3605 0.3600 0.3591 0.3581 0.3580
2978.216035 0.3580 0.3589 0.3599 0.3605 0.3610
2984.626318 0.3610 0.3610 0.3606 0.3601 0.3569
2991.036601 0.3534 0.3512 0.3492 0.3283 0.3048
2997.446884 0.2805 0.2561 0.2530 0.2530 0.2950
3003.857166 0.3418 0.3501 0.3536 0.3527 0.3512
3010.267449 0.3471 0.3426 0.3307 0.3177 0.2844
3016.677732 0.2481 0.2430 0.2430 0.2754 0.3133
3023.088015 0.3453 0.3762 0.3883 0.3969 0.3989
3029.498297 0.3999 0.3991 0.3981 0.3971 0.3961
3035.908580 0.3939 0.3914 0.3792 0.3652 0.3521
3042.318863 0.3392 0.3283 0.3178 0.3160 0.3160
3048.729146 0.3373 0.3632 0.3717 0.3763 0.3904
3055.139429 0.4063 0.4294 0.4538 0.5240 0.6038
3061.549711 0.6409 0.6689 0.6899 0.7093 0.7166
3067.959994 0.7211 0.7224 0.7229 0.7226 0.7221
3074.370277 0.7204 0.7184 0.7144 0.7099 0.7050
3080.780560 0.7000 0.6954 0.6909 0.6860 0.6810
3087.190843 0.6764 0.6720 0.6710 0.6710 0.6749
3093.601125 0.6799 0.6915 0.7049 0.7161 0.7265
3100.011408 0.7362 0.7457 0.7545 0.7631 0.7720
3106.421691 0.7810 0.7958 0.8122 0.8168 0.8178
3112.831974 0.8191 0.8206 0.8218 0.8228 0.8230
3119.242257 0.8230 0.8211 0.8186 0.8147 0.8102
3125.652539 0.8039 0.7969 0.7935 0.7915 0.7918
3132.062822 0.7927 0.8001 0.8096 0.8161 0.8216
3138.473105 0.8274 0.8334 0.8390 0.8445 0.8464
3144.883388 0.8469 0.8470 0.8470 0.8491 0.8521
3151.293671 0.8534 0.8539 0.8547 0.8557 0.8567
3157.703953 0.8577 0.8580 0.8580 0.8587 0.8597
3164.114236 0.8604 0.8609 0.8610 0.8610 0.8617
3170.524519 0.8627 0.8630 0.8630 0.8637 0.8647
3176.934802 0.8650 0.8650 0.8657 0.8667 0.8670
3183.345085 0.8670 0.8670 0.8670 0.8680 0.8695
3189.755367 0.8700 0.8700 0.8700 0.8700 0.8707
3196.165650 0.8717 0.8720 0.8720 0.8727 0.8737
3202.575933 0.8743 0.8748 0.8757 0.8767 0.8770
3208.986216 0.8770 0.8770 0.8770 0.8763 0.8753
3215.396498 0.8763 0.8783 0.8796 0.8806 0.8810
3221.806781 0.8810 0.8810 0.8810 0.8804 0.8794
3228.217064 0.8790 0.8790 0.8790 0.8790 0.8784
3234.627347 0.8774 0.8770 0.8770 0.8776 0.8786
3241.037630 0.8790 0.8790 0.8796 0.8806 0.8810
3247.447912 0.8810 0.8810 0.8810 0.8810 0.8810
3253.858195 0.8798 0.8778 0.8776 0.8786 0.8796
3260.268478 0.8806 0.8810 0.8810 0.8810 0.8810
3266.678761 0.8810 0.8810 0.8810 0.8810 0.8810
3273.089044 0.8810 0.8813 0.8818 0.8820 0.8820
3279.499326 0.8820 0.8820 0.8820 0.8820 0.8817
3285.909609 0.8812 0.8810 0.8810 0.8804 0.8794
3292.319892 0.8790 0.8790 0.8798 0.8813 0.8820
3298.730175 0.8820 0.8820 0.8820 0.8820 0.8820
3305.140458 0.8817 0.8812 0.8810 0.8810 0.8810
3311.550740 0.8810 0.8810 0.8810 0.8805 0.8795
3317.961023 0.8790 0.8790 0.8790 0.8790 0.8790
3324.371306 0.8790 0.8785 0.8775 0.8770 0.8770
3330.781589 0.8770 0.8770 0.8770 0.8770 0.8770
3337.191872 0.8770 0.8770 0.8770 0.8770 0.8770
3343.602154 0.8770 0.8770 0.8770 0.8770 0.8770
3350.012437 0.8770 0.8770 0.8770 0.8770 0.8770
3356.422720 0.8770 0.8770 0.8770 0.8770 0.8770
3362.833003 0.8770 0.8775 0.8785 0.8790 0.8790
3369.243285 0.8785 0.8775 0.8770 0.8770 0.8775
3375.653568 0.8785 0.8790 0.8790 0.8795 0.8805
3382.063851 0.8810 0.8810 0.8810 0.8810 0.8805
3388.474134 0.8795 0.8790 0.8790 0.8790 0.8790
3394.884417 0.8790 0.8790 0.8797 0.8812 0.8820
3401.294699 0.8820 0.8818 0.8813 0.8810 0.8810
3407.704982 0.8810 0.8810 0.8806 0.8796 0.8790
3414.115265 0.8790 0.8786 0.8776 0.8770 0.8770
3420.525548 0.8774 0.8784 0.8790 0.8790 0.8790
3426.935831 0.8790 0.8790 0.8790 0.8790 0.8790
3433.346113 0.8790 0.8790 0.8794 0.8804 0.8810
3439.756396 0.8810 0.8812 0.8817 0.8820 0.8820
3446.166679 0.8820 0.8820 0.8820 0.8820 0.8824
3452.576962 0.8834 0.8840 0.8840 0.8840 0.8840
3458.987245 0.8840 0.8840 0.8840 0.8840 0.8840
3465.397527 0.8840 0.8840 0.8840 0.8840 0.8840
3471.807810 0.8840 0.8840 0.8844 0.8854 0.8860
3478.218093 0.8860 0.8860 0.8860 0.8860 0.8860
3484.628376 0.8860 0.8860 0.8860 0.8860 0.8860
3491.038659 0.8860 0.8860 0.8860 0.8863 0.8873
3497.448941 0.8880 0.8880 0.8880 0.8880 0.8880
3503.859224 0.8880 0.8880 0.8880 0.8880 0.8880
3510.269507 0.8880 0.8880 0.8880 0.8880 0.8882
3516.679790 0.8887 0.8890 0.8890 0.8890 0.8890
3523.090072 0.8890 0.8890 0.8890 0.8890 0.8893
3529.500355 0.8903 0.8910 0.8910 0.8910 0.8910
3535.910638 0.8907 0.8897 0.8890 0.8890 0.8890
3542.320921 0.8890 0.8890 0.8890 0.8890 0.8890
3548.731204 0.8893 0.8903 0.8910 0.8910 0.8913
3555.141486 0.8923 0.8930 0.8930 0.8930 0.8930
3561.551769 0.8934 0.8949 0.8960 0.8960 0.8963
3567.962052 0.8973 0.8983 0.8993 0.9000 0.9000
3574.372335 0.9000 0.9000 0.8995 0.8975 0.8959
3580.782618 0.8954 0.8948 0.8938 0.8928 0.8918
3587.192900 0.8910 0.8910 0.8910 0.8910 0.8910
3593.603183 0.8910 0.8912 0.8922 0.8930 0.8930
3600.013466 0.8930 0.8930 0.8930 0.8930 0.8930
3606.423749 0.8930 0.8930 0.8930 0.8930 0.8930
3612.834032 0.8930 0.8930 0.8930 0.8930 0.8928
3619.244314 0.8918 0.8910 0.8910 0.8910 0.8910
3625.654597 0.8910 0.8910 0.8908 0.8898 0.8890
3632.064880 0.8890 0.8890 0.8890 0.8889 0.8884
3638.475163 0.8878 0.8868 0.8858 0.8848 0.8838
3644.885446 0.8828 0.8819 0.8814 0.8810 0.8810
3651.295728 0.8810 0.8810 0.8811 0.8816 0.8822
3657.706011 0.8832 0.8841 0.8851 0.8860 0.8860
3664.116294 0.8860 0.8860 0.8860 0.8860 0.8860
3670.526577 0.8860 0.8860 0.8860 0.8860 0.8860
3676.936860 0.8861 0.8871 0.8881 0.8886 0.8891
3683.347142 0.8901 0.8910 0.8910 0.8911 0.8921
3689.757425 0.8930 0.8930 0.8931 0.8941 0.8950
3696.167708 0.8950 0.8950 0.8950 0.8950 0.8950
3702.577991 0.8950 0.8950 0.8950 0.8950 0.8950
3708.988273 0.8950 0.8950 0.8950 0.8950 0.8950
3715.398556 0.8950 0.8950 0.8950 0.8950 0.8950
3721.808839 0.8950 0.8950 0.8950 0.8949 0.8939
3728.219122 0.8930 0.8930 0.8930 0.8930 0.8930
3734.629405 0.8930 0.8929 0.8919 0.8910 0.8910
3741.039687 0.8909 0.8899 0.8890 0.8885 0.8880
3747.449970 0.8880 0.8880 0.8880 0.8880 0.8880
3753.860253 0.8880 0.8885 0.8890 0.8890 0.8890
3760.270536 0.8900 0.8910 0.8910 0.8910 0.8920
3766.680819 0.8930 0.8930 0.8930 0.8940 0.8950
3773.091101 0.8950 0.8950 0.8950 0.8950 0.8950
3779.501384 0.8950 0.8950 0.8950 0.8950 0.8950
3785.911667 0.8950 0.8950 0.8950 0.8950 0.8940
3792.321950 0.8930 0.8930 0.8930 0.8920
##END=
