##TITLE=Butane
##JCAMP-DX=4.24
##DATA TYPE=INFRARED SPECTRUM
##CLASS=IUPAC A
##ORIGIN=NIST, Analytical Chemistry Division, 301-975-3108
##OWNER=COPYRIGHT (C) 2000 by the U.S. Secretary of Commerce
##DATE=00/02/01
##$SPECTRA VERSION=1.10
##$UNCERTAINTY IN Y=2.0 % relative (B=1.0E-04,C=-1.9E-11,D=8.7E-15)
##CAS NAME=Butane
##CAS REGISTRY NO=106-97-8
##MOLFORM=C4 H10
##MP=-138.35 C
##BP=-0.5 C
##$NIST SOURCE=QUANT-IR
##SPECTROMETER/DATA SYSTEM=IFS66V (Bruker)
##INSTRUMENT PARAMETERS=KBr Beam Splitter; MCT Detector; Multipass cell
##STATE=gas
##SAMPLE DESCRIPTION=Butane Primary Gas Standard
##PRESSURE=101.3 Pa
##TEMPERATURE=23 C
##SAMPLING PROCEDURE=1 L/min Flow
##RESOLUTION=0.9640
##DATA PROCESSING=Happ Genzel Apodization
##XUNITS=cm-1
##YUNITS=(micromol/mol)-1m-1 (base 10)
##XFACTOR=1.0
##YFACTOR=9.0949E-13
##DELTAX=0.4820
##FIRSTX=575.17
##LASTX=3974.605
##FIRSTY=-4.05E-07
##MAXX=3974.12
##MINX=575.17
##MAXY=.0008827
##MINY=-6.26E-07
##NPOINTS=7052
##XYDATA=(X++(Y..Y))
575.17-445561-125834-86536-210701-74340 193308
577.58 412731 364363-66242-489873-519923-326391
580.47-323471-279223-199441-135591-124895-46254
583.37 35650 260746 300159 63765 9269-56845
586.26-100508-99736 108196 240452 214666 57195
589.15-99466-231195-248185-145687-134939 5170
592.04 202782-62411-273728-165055-38692-59524
594.94-222468-255479-166437-29446-36200 5942
597.83-76234-136802-144490-127617-142900-167155
600.72-78515-77109-116485-136834-117132-87299
603.62-122681-107484-123190-128620-62016-29637
606.51-23062-44031-126168-77037-42157-111667
609.40-177575-321946-308381-217304-174950-147927
612.29-126795-118268-146212-81726-46042-139822
615.19-215216-247130-207159-191042-234710-160343
618.08-45109-97659-79160 39112-58436-124117
620.97 9449-6198-131098-71484-41120-60260
623.86-102507-106645-101435-156850-218583-83774
626.76 6671-67319-193710-248983-192875-34131
629.65 31265 3391-57677-114107-108772-3507
632.54 18513-32466-145285-136969-151468-182244
635.44-144919-188472-205907-133108-120000-92296
638.33-60356-24497-41873-84891-80604-93598
641.22-35020-6634-93257-116895-149723-161324
644.11-56725-34631-93873-103639-35790-110012
647.01-158084-121046-131087-116996-70936 17663
649.90 20849-94285-110004-41159-29324-47754
652.79-134609-188537-242381-238271-181049-168674
655.68-155731-87282-50308-12162-41938-10442
658.58 17690-46736-187052-202671-108765-51282
661.47-48859-104206-46605 26148 30793 19867
664.36-7986-55692-16553-33199-126371-454949
667.26-689300-483831-199897-50463 37717 48699
670.15-27457 23539 47966 30872 15570 27632
673.04 57184 10433 24576 109224 102275 101464
675.93 83962 42572 80251 160291 165600 147988
678.83 103586 124456 178779 201057 221476 279141
681.72 256697 231562 282342 295550 303629 316799
684.61 306422 333786 430704 466871 412486 461021
687.50 459563 487565 584332 610228 603729 632600
690.40 770283 864298 851637 902076 924032 923639
693.29 963750 938745 1006937 1112097 1130733 1129742
696.18 1125138 1244700 1357584 1440168 1516835 1597880
699.08 1701939 1809555 1818410 1825469 1888556 2000192
701.97 2050292 2112783 2207783 2296900 2393937 2501572
704.86 2558185 2641629 2682816 2681918 2797979 2921268
707.75 3070541 3210351 3272819 3383059 3465618 3509358
710.65 3603279 3722165 3814357 3993809 4113811 4215826
713.54 4331943 4330582 4481216 4646758 4596639 4639483
716.43 4704346 4751144 4955055 5069733 5035811 5122797
719.32 5152924 5281595 5505345 5513008 5610807 5791142
722.22 5816525 5912706 5965700 6013228 6195515 6258302
725.11 6352842 6630263 6693751 6719224 6841919 6873408
728.00 7123717 7458409 7775419 8339627 8999033 9914716
730.90 11071469 12015985 12445777 12246504 11023774 9355845
733.79 8752551 9075119 9553831 9640916 9430125 9303048
736.68 9277982 9423987 9600978 9648085 9818013 9828883
739.57 9782542 9880931 9794024 9846945 9861168 9647099
742.47 9657830 9530879 9470705 9555526 9410519 9501464
745.36 9897423 10587219 11940142 12066557 10897858 11196641
748.25 11571618 11347837 11294528 11186884 10608495 10065927
751.14 9882156 9608680 9329500 9229420 9140882 8947044
754.04 8883836 8871531 8791727 8758250 8726908 8714224
756.93 8747086 8636496 8524643 8480395 8340639 8260342
759.82 8242595 8108693 7973484 7842024 7715506 7532014
762.72 7326763 7157113 6933771 6764743 6635995 6441721
765.61 6251991 6080626 5883147 5711607 5554285 5454228
768.50 5238631 4967924 4852473 4759918 4566405 4396751
771.39 4307809 4208365 4072189 3990632 3923460 3834417
774.29 3780780 3793857 3715991 3602652 3571827 3549942
777.18 3486679 3468192 3446336 3381869 3361508 3335441
780.07 3279231 3251701 3160918 3105465 3065785 3010485
782.96 2977030 2890883 2813716 2722417 2610215 2544141
785.86 2365855 2199694 2061291 1965708 1937933 1926375
788.75 1938621 1909052 1897535 1960052 2058350 2083580
791.64 2101884 2155779 2245594 2322832 2380008 2396446
794.54 2341508 2263788 2280369 2285994 2233155 2147533
797.43 2063937 1999376 1930590 1910671 1891810 1849924
800.32 1778336 1754109 1693492 1658475 1621061 1537033
803.21 1522164 1523438 1492775 1387276 1307735 1286778
806.11 1307583 1216795 1092961 1038746 1007893 974934
809.00 903337 848659 880454 853284 734346 693079
811.89 687724 670118 634601 677023 679103 594362
814.78 532174 458850 437323 471750 482096 462323
817.68 399562 355324 349247 250922 202974 273860
820.57 312861 283822 209689 153949 184996 217043
823.46 165865 135525 123702 118103 129942 104477
826.36 121297 156547 75784 32926 42521 79883
829.25 112074 42750-17166-32086-25282-30119
832.14-41227-27241 9396 33788-12205-34538
835.03 33449 28678-10555 29384 22764 2426
837.93 6503 23341-30043-73025-107588-79823
840.82-7752 25985 15375-42396-19977 14065
843.71 38733 57063 55113 31175 31428 44049
846.60 3522-50351-28164-19848-40197-40817
849.50-79891-83272-2409-22753-41153-10756
852.39-11810-38009-47654-48004-26396-28658
855.28-18447 20621-10638 17626 36781-18107
858.18-35109-55854-69410-20890 43465 31060
861.07-49155-64888-31345-24148-5824 34945
863.96 37195 9312-13473-27343-17412 62
866.85-5484-53637-79135-26052-8808-2475
869.75 41341 17518 2854 15222 10265 1874
872.64-11539-36449-33610-17266-18740-22166
875.53-35694-40707-43380-40196-11018-24741
878.42-32623-6829 15600-1425-62161-64633
881.32-19962 35741 37518 217-35359-49995
884.21-35078-11937-23721-23636-32406-30025
887.10-20940-32679-39278-39350-60807-84830
889.99-61197-34364-53025-71462-60337-56657
892.89-60431-22966 14538 20432-11327-37190
895.78-31414-40405-23649-16481-11560-30434
898.67-24645-22739-54567-33292 32472 52658
901.57 41752 26747 26799 60410 34452-15693
904.46-10232 44748 88263 107965 120873 121119
907.35 105922 116324 138002 140944 173416 185276
910.24 193486 215696 204775 227111 225555 257316
913.14 284322 284467 284035 292420 330217 401183
916.03 443142 442711 459340 491641 505029 549394
918.92 608340 624407 636430 694075 737105 755613
921.81 766317 818119 922432 1007428 1044980 1066656
924.71 1115155 1204905 1280755 1349770 1399134 1475826
927.60 1580714 1664026 1700085 1805145 1917985 2024039
930.49 2128970 2230108 2374178 2539762 2627253 2775090
933.39 2972691 3132483 3308957 3525789 3696443 3882261
936.28 4073283 4299886 4569484 4802591 5016229 5351094
939.17 5639176 5891057 6183339 6505655 6818310 7141619
942.06 7420221 7738753 8170394 8560860 8840880 9189530
944.96 9547956 9937113 10405410 10796758 11192901 11875217
947.85 12228558 12205818 12392732 12614225 12732161 12792417
950.74 13005044 13176782 13312423 13676730 14041116 14564171
953.63 15368623 16298534 17827829 20073525 22671677 23411400
956.53 21098208 18671250 17109875 16445358 16583659 16984034
959.42 17212650 17464831 17687386 17900529 18124767 18376816
962.31 18629265 18934930 19055303 18913411 19029256 20053701
965.21 21293268 21818712 21876653 21448434 21073710 20822849
968.10 20742918 20622303 20510147 20516861 20437830 20472857
970.99 20457237 20166117 19926724 19623205 19270063 18979763
973.88 18589566 18162888 17903661 17491092 17136776 16910757
976.78 16529286 16128249 15683531 15097250 14597080 14112496
979.67 13591673 13215253 12923872 12597756 12427972 12237544
982.56 11761259 11421681 11305393 11023292 10792843 10821559
985.45 10538786 10039818 9789539 9662520 9564734 9290940
988.35 9070935 8933229 8740304 8529249 8285240 8044596
991.24 7877667 7686172 7460330 7247292 7023528 6796361
994.13 6554002 6313697 6101664 5883499 5695392 5485216
997.03 5268164 5060223 4859220 4667504 4464726 4206938
999.92 4008566 3849759 3685248 3520117 3407356 3311231
1002.81 3203426 3060916 2920711 2838050 2760747 2639849
1005.70 2512677 2391983 2263680 2186816 2151939 2091606
1008.60 2031131 1962346 1892198 1839607 1787798 1720798
1011.49 1637221 1587624 1546547 1485341 1429037 1364990
1014.38 1326417 1282149 1240574 1225215 1167201 1085021
1017.27 1062187 1046142 1033663 1010729 965814 916508
1020.17 882473 844767 823564 838108 827169 750181
1023.06 684869 666820 621097 609705 655987 628207
1025.95 578479 567182 547294 542856 514191 460459
1028.85 461137 463938 446473 443245 453377 477400
1031.74 498374 482157 462360 420243 386383 372893
1034.63 405010 384497 359800 370098 376728 318663
1037.52 264686 257452 300197 298428 264896 228888
1040.42 199287 210060 228339 203013 168649 161115
1043.31 145070 88620 55717 86183 138015 136977
1046.20 112848 88511 114215 116729 70390 73998
1049.09 78797 79893 92770 112908 103529 81021
1051.99 61106 60582 55131 77023 94753 92565
1054.88 98455 101983 105454 102888 93648 91051
1057.77 97943 71267 51226 100759 146883 116398
1060.67 106619 107684 97949 130509 160582 163385
1063.56 185315 182353 186400 185656 167645 159880
1066.45 183959 188451 161113 165178 184903 195435
1069.34 183099 182149 216245 239592 261528 243062
1072.24 207765 233830 252199 276656 255247 209816
1075.13 204927 217104 200362 231480 228192 189680
1078.02 129436 130275 160886 164680 157142 188389
1080.91 233903 271792 275756 284080 275967 246871
1083.81 301382 322604 306431 293351 266531 272173
1086.70 275142 270905 290407 304927 322038 336645
1089.59 319789 288771 285870 294548 320242 316430
1092.49 283879 255222 277049 286349 287278 239224
1095.38 209846 209998 208376 233664 261749 297581
1098.27 282942 266468 262610 235230 242378 256885
1101.16 246979 257240 298369 308805 305299 316489
1104.06 345854 349298 360944 377040 396303 400075
1106.95 420129 448020 460791 488681 521551 544582
1109.84 565474 619291 689572 746702 802454 858620
1112.73 904342 962175 1017472 1102572 1176713 1280606
1115.63 1397721 1454329 1525842 1649416 1780421 1859851
1118.52 1943213 2042191 2131958 2241572 2369754 2426820
1121.41 2487157 2609309 2682414 2712872 2777859 2871641
1124.31 2894190 2913617 2963892 3001014 2996441 2994899
1127.20 3030148 3107064 3157133 3174194 3153952 3115850
1130.09 3102226 3072092 3079974 3132945 3184416 3305654
1132.98 3545492 3715307 3821792 3912602 3809809 3660937
1135.88 3492243 2816646 2029868 1721613 1776048 1930508
1138.77 2089185 2262876 2440847 2614934 2776690 2906657
1141.66 3018098 3132323 3187343 3181141 3152910 3123302
1144.55 3047116 2943277 2820922 2721788 2617100 2485706
1147.45 2349301 2225107 2105611 1955457 1830746 1693712
1150.34 1572091 1482052 1373212 1281804 1165159 1071042
1153.23 987064 921992 851660 722470 642681 618286
1156.13 586288 543646 465052 407832 358932 334596
1159.02 341241 336335 279782 232471 232840 221668
1161.91 192446 194123 196397 215168 217794 199959
1164.80 167905 131779 135041 153784 160647 163023
1167.70 138613 133590 138763 140371 152748 145234
1170.59 134802 149737 185741 197546 196722 208055
1173.48 214369 213717 234200 232610 220979 223585
1176.37 212033 193626 191448 185604 170042 187834
1179.27 188225 175084 213562 240224 222199 209190
1182.16 226074 228397 202947 191705 190542 195044
1185.05 206605 201194 186349 202703 224170 212883
1187.95 198397 196370 181430 208677 236392 215836
1190.84 212644 219469 193310 175587 189215 193892
1193.73 208565 240036 243569 211388 201799 196562
1196.62 192780 208299 244590 250950 207449 171806
1199.52 193831 232226 241924 241180 226444 219023
1202.41 193513 168106 176680 233840 256345 256941
1205.30 244524 209553 197742 231335 269163 282917
1208.19 272329 245952 260220 270532 256474 257567
1211.09 276404 267928 277346 285538 288968 293388
1213.98 299165 324881 333235 313993 317303 348894
1216.87 353685 340423 375169 375794 370161 368823
1219.77 375696 410471 410081 418844 435875 455356
1222.66 467965 458446 478402 490210 493472 506101
1225.55 521393 536689 529043 539675 554890 547590
1228.44 575775 619538 617393 602563 614150 623462
1231.34 650565 673813 692580 697360 708145 724017
1234.23 744335 788577 796717 822114 851783 859568
1237.12 858935 880266 899157 927985 934435 953141
1240.01 973140 1006546 1039740 1063249 1078743 1111955
1242.91 1141362 1151845 1173640 1178494 1187784 1212481
1245.80 1247535 1301831 1345464 1368085 1404866 1449556
1248.69 1476270 1498917 1526614 1548158 1579327 1605505
1251.59 1642489 1668996 1702527 1724886 1710513 1703873
1254.48 1720630 1714728 1746305 1786827 1802527 1824849
1257.37 1858778 1883376 1890328 1879052 1843208 1858798
1260.26 1895125 1951811 2044069 2176661 2354886 2289673
1263.16 2044091 1942305 1965508 2022105 2081518 2166448
1266.05 2208166 2249906 2296882 2370409 2419244 2473162
1268.94 2530563 2575110 2644008 2723443 2816826 2938500
1271.83 3044170 3126333 3246150 3425037 3592541 3755629
1274.73 3930935 4128218 4308260 4495239 4748061 5029837
1277.62 5285840 5550476 5832176 6144966 6442050 6747951
1280.51 7060124 7342568 7640462 7973360 8235206 8430963
1283.41 8601836 8767629 8920739 9051237 9131720 9116568
1286.30 9047756 8928880 8744288 8528435 8248558 7962090
1289.19 7652279 7242662 6845542 6652650 6780533 7143822
1292.08 7561777 8243716 9309617 10367954 10779924 10375040
1294.98 9051903 7655623 7065752 7110246 7403438 7798339
1297.87 8172971 8516181 8861674 9161851 9457788 9702475
1300.76 9774834 9690918 9562501 9397676 9226339 8996038
1303.65 8650245 8357831 8070114 7745787 7391278 7046925
1306.55 6699146 6345816 5947715 5588977 5290093 4978688
1309.44 4644791 4327042 4041565 3809538 3592059 3363882
1312.33 3163923 2961766 2769226 2613217 2442125 2314351
1315.23 2219461 2122991 2040236 1976767 1920674 1884950
1318.12 1865994 1851658 1859012 1871399 1901696 1942646
1321.01 1997550 2081444 2156530 2255216 2363092 2446797
1323.90 2553565 2700558 2861662 3001655 3105561 3232431
1326.80 3389415 3550464 3694847 3849512 4010806 4159021
1329.69 4278565 4424867 4561770 4687447 4776143 4849193
1332.58 4919477 4955968 4971399 4938140 4850134 4780670
1335.47 4700368 4627792 4541239 4451759 4361887 4282148
1338.37 4182856 4150003 4173077 4295480 4545260 4965618
1341.26 5582368 6390897 7195013 7813175 7949479 7304486
1344.15 5715168 4223756 3760824 3772881 3885556 4054047
1347.05 4309705 4624860 4903656 5089155 5264253 5545353
1349.94 5895400 6234523 6464385 6641214 6792069 6948167
1352.83 7075414 7157705 7145635 7179150 7227846 7252166
1355.72 7266426 7327438 7352695 7310334 7313171 7390345
1358.62 7426162 7532515 7646053 7784631 8000756 8232437
1361.51 8489670 8828247 9197940 9578857 10016265 10553678
1364.40 11135104 11737176 12363176 13087888 13810735 14578407
1367.29 15404190 16298198 17241806 18239720 19185066 20176630
1370.19 21201013 22240790 23261504 24220808 25195325 26182048
1373.08 27121748 28012282 28676511 29222982 29761274 30132306
1375.97 30314931 30492350 30384459 30141062 29919364 29656178
1378.87 29103543 28608488 28203105 28155698 28544360 29790365
1381.76 33054192 39008623 42276974 40998257 38629835 36296702
1384.65 34336173 31395404 28822405 27557086 27569459 28283168
1387.54 29671079 31635301 33641584 35477951 37535307 39529955
1390.44 40864355 41507175 42154659 42675608 42959298 42915547
1393.33 42704059 42200893 41527913 40641580 39551687 38317153
1396.22 36982968 35472302 33954952 32360501 30735343 29116246
1399.11 27491056 25937656 24472661 23020951 21689092 20329327
1402.01 19084530 17995366 16949285 15974530 15155657 14359078
1404.90 13634706 12997845 12395415 11835915 11364575 10959338
1407.79 10623815 10294969 10045793 9858285 9764049 9599758
1410.69 9364394 9160395 9006721 8884286 8848121 8802784
1413.58 8731325 8695903 8712152 8717955 8724834 8721696
1416.47 8743571 8741296 8769696 8823118 8955976 9138709
1419.36 9183933 9211731 9328951 9437727 9590679 9762108
1422.26 9997359 10242467 10467218 10721594 10973337 11233796
1425.15 11548821 11863034 12254327 12617700 12969355 13438699
1428.04 13897115 14289750 14750644 15191658 15702702 16290357
1430.93 16778338 17287730 18074167 18759910 19397483 20139252
1433.83 20965491 21730569 22531045 23494216 24378641 25274550
1436.72 26287619 27288888 28221069 29268908 30512379 31573662
1439.61 32692941 34017984 34986801 36118771 37589560 38806136
1442.51 40163851 41338063 42487974 43715525 44473435 45435068
1445.40 46602010 47485149 48531294 49393546 50490536 51438277
1448.29 52036252 53121325 53773799 54518393 55560823 55986562
1451.18 57345211 58728167 59754301 60662723 61018788 62283876
1454.08 63184339 63491032 64397283 65316940 65814630 65490471
1456.97 65202552 66565389 67578781 69268058 71167405 72850173
1459.86 75833601 79108726 84880879 91759960 93471908 88531122
1462.75 83743351 82410766 84424385 89075414 96308406 106592553
1465.65 112591958 102558987 91365966 85169992 80124182 78199953
1468.54 77430120 77831686 79999736 82910007 86144478 87130144
1471.43 83282048 75968663 69829835 66801358 63412248 59868364
1474.33 58893406 58904720 58980061 59379672 60109814 61783495
1477.22 62918682 63396611 64687419 65243420 65137003 65697452
1480.11 65356469 64552232 64891790 64195449 62523640 62260422
1483.00 61513212 59865296 59104273 58143196 56805839 55819929
1485.90 54277926 53037905 52336863 50662129 49123851 48223615
1488.79 46808426 45469387 44485608 42937215 41511501 40522414
1491.68 39191966 37962207 36947077 35814348 34506514 33541294
1494.57 32647950 31335904 30522849 29711612 28447847 27584544
1497.47 26984773 25939506 25032517 24419924 23485572 22709782
1500.36 22039311 21261020 20575927 19959040 19243669 18665915
1503.25 17919402 17348853 16891308 16262609 15794609 15239938
1506.15 14652434 14254424 13606493 12997286 12580187 12148213
1509.04 11601244 11263023 10814019 10286253 10020093 9702340
1511.93 9215480 8892963 8639203 8173114 7858110 7657580
1514.82 7249953 6894626 6730458 6467253 6190505 5969177
1517.72 5678006 5413053 5200455 5021862 4858841 4684132
1520.61 4612596 4403333 4068967 3913320 3752221 3509321
1523.50 3322838 3255447 3184084 3085709 2910165 2764841
1526.39 2662497 2552208 2439231 2346342 2243893 2139852
1529.29 2024830 1945510 1899520 1831819 1767368 1711057
1532.18 1685680 1661080 1646466 1584994 1450874 1380700
1535.07 1351698 1325774 1281525 1257957 1241116 1215903
1537.97 1259047 1408504 1332119 1258345 1293242 1177747
1540.86 1123101 1211020 1185481 1054564 1025902 1012290
1543.75 1000417 1021533 1036829 979750 940701 947398
1546.64 975475 980691 957882 964379 990073 1008528
1549.54 1007080 993586 980540 984865 1001993 1021617
1552.43 1041979 1058764 1121458 1208174 1158514 1097551
1555.32 1077401 1089016 1130986 1252161 1306407 1403531
1558.21 1459529 1353436 1420678 1516052 1399150 1274609
1561.11 1288065 1299798 1306310 1303886 1295792 1317110
1564.00 1371781 1421026 1435911 1431192 1477459 1501370
1566.89 1510695 1518889 1537766 1575666 1647330 1686713
1569.79 1640424 1612951 1627630 1634799 1641203 1679755
1572.68 1740729 1727990 1684455 1688829 1724837 1841998
1575.57 2036540 1942440 1756822 1728668 1740047 1735843
1578.46 1710047 1691445 1680117 1678131 1683372 1679191
1581.36 1681514 1652434 1618199 1603364 1617604 1642943
1584.25 1622721 1583476 1570272 1595782 1603603 1584647
1587.14 1555706 1556483 1568069 1553081 1531598 1537585
1590.03 1544433 1524474 1514256 1504592 1467052 1434169
1592.93 1431667 1415900 1399824 1377977 1348385 1319409
1595.82 1314231 1325354 1291361 1244801 1247139 1242441
1598.71 1221558 1176919 1158443 1144680 1121459 1104776
1601.61 1086701 1069536 1038928 1025828 1015956 975964
1604.50 954921 942314 946095 969704 971547 961691
1607.39 971314 973032 956334 943427 965222 969123
1610.28 945173 946724 971457 980163 979026 971153
1613.18 990895 985726 978357 999124 1049593 1127475
1616.07 1284972 1221519 1074410 1064162 1054372 1036770
1618.96 1037853 1023294 1004696 996712 996304 965207
1621.85 939396 953416 1007484 998981 915887 886457
1624.75 909511 958018 982622 1021960 1060895 1096654
1627.64 1096649 1083506 1085017 1100109 1120136 1124014
1630.53 1117824 1127553 1182325 1213908 1209896 1223091
1633.43 1216851 1238278 1313553 1393654 1375289 1241790
1636.32 1189206 1184812 1189441 1165629 1168066 1154922
1639.21 1137638 1129466 1133454 1127979 1111114 1091215
1642.10 1090430 1082519 1078701 1106053 1137177 1156865
1645.00 1254735 1346994 1257609 1193517 1227558 1240560
1647.89 1246572 1231759 1242759 1226491 1214423 1217635
1650.78 1253611 1378592 1584583 1660167 1714196 1563936
1653.67 1425831 1453465 1393532 1349458 1355992 1380022
1656.57 1399745 1387863 1399340 1438299 1414951 1393721
1659.46 1428925 1458613 1448039 1458830 1480284 1539353
1662.35 1550449 1467524 1446000 1470595 1452786 1438720
1665.25 1460563 1486652 1486763 1504226 1540907 1580859
1668.14 1617366 1724778 1745501 1668640 1635675 1641748
1671.03 1668636 1640007 1604420 1592852 1585278 1562651
1673.92 1574056 1653111 1703572 1593913 1476642 1431372
1676.82 1421112 1402541 1385470 1394555 1382131 1393012
1679.71 1421066 1440264 1455748 1441394 1428445 1465929
1682.60 1541942 1553331 1608995 1803267 1852777 1620673
1685.49 1493269 1457007 1440201 1400623 1382879 1380468
1688.39 1372097 1352664 1378017 1382103 1368991 1332792
1691.28 1309475 1295690 1272089 1277360 1290994 1281856
1694.17 1295849 1367532 1540149 1541264 1343445 1279945
1697.07 1276611 1249779 1240554 1264233 1379500 1516542
1699.96 1497976 1398937 1271697 1240299 1252632 1258756
1702.85 1224684 1226011 1260639 1237934 1214594 1259080
1705.74 1292587 1267508 1234704 1211528 1201020 1227211
1708.64 1239539 1244136 1253023 1222952 1176338 1179266
1711.53 1200683 1228850 1219378 1206222 1199559 1215006
1714.42 1265457 1252935 1196407 1175933 1246128 1407251
1717.31 1288544 1160405 1181114 1149417 1116799 1115444
1720.21 1121277 1110053 1094211 1072384 1066864 1073235
1723.10 1081739 1066556 1069660 1076908 1038230 1008098
1725.99 990859 945880 915578 892485 889018 897205
1728.89 903077 897806 887481 874535 854745 856017
1731.78 863482 878518 982292 963335 959799 981529
1734.67 796524 694492 685652 694926 668591 634019
1737.56 612099 594488 598233 661287 648677 564169
1740.46 525577 517404 493103 480946 502145 495816
1743.35 462180 415908 391616 406582 414394 412427
1746.24 409937 399508 378157 377268 387735 393330
1749.13 391478 354390 360200 439300 459749 372856
1752.03 321822 302834 301971 307320 296148 278578
1754.92 286952 302547 332964 342634 300941 278639
1757.81 285840 290231 269687 278198 286875 273895
1760.71 307343 386493 374466 297508 275815 288571
1763.60 282077 277084 277331 275975 290743 285969
1766.49 292593 303348 333460 323132 284123 296515
1769.38 286736 270703 299223 325634 310560 382077
1772.28 442091 338966 276682 305625 309693 297802
1775.17 314004 316920 329447 331036 316773 324376
1778.06 323488 316710 319885 340294 378657 373057
1780.95 350025 363941 379429 387410 370003 354538
1783.85 361066 403861 399185 349268 335891 345159
1786.74 349564 365910 380587 389921 405050 392810
1789.63 379640 407187 415380 380023 416271 499985
1792.53 469950 401380 396393 386532 394841 422718
1795.42 446193 438574 437606 432953 424692 430940
1798.31 427054 444719 459607 435323 424446 433068
1801.20 438070 448647 433404 404251 413983 437542
1804.10 446835 432007 420573 424443 425814 421571
1806.99 422678 429717 440600 441908 433858 430264
1809.88 455604 462037 445170 445719 439177 417162
1812.77 423015 442024 445279 427972 413942 417566
1815.67 399483 387242 397970 394615 367050 374065
1818.56 392828 378041 363243 367990 372101 365270
1821.45 356007 351967 346764 330496 320655 321213
1824.35 348318 336908 291774 274590 278378 281119
1827.24 272601 263200 272797 275367 272119 263139
1830.13 216691 205552 206480 177367 173148 173243
1833.02 172857 149393 125417 134406 142346 127100
1835.92 110686 117236 118768 104183 92207 88285
1838.81 97497 94875 82986 80409 79830 70439
1841.70 63163 56408 61419 105589 185530 136769
1844.59 43189 35298 33978 26202 25504 42750
1847.49 46789 23766-1148-6387-731 14238
1850.38 11064-7560-3396 2916 5482 7641
1853.27 4756-18305-13657 11235-1551-12919
1856.17-2106-6306-13953 4490 20347 12620
1859.06 7537 10984-12783-22840 2661 10428
1861.95-2182-235-6820-7716 5386 3118
1864.84 10833 15625 19403 15576 28800 45214
1867.74 32911 32507 58855 38728 25333 40500
1870.63 47072 48742 43911 34530 45509 59361
1873.52 62387 65651 84872 93671 96094 82919
1876.41 86084 105406 112648 109144 102338 122263
1879.31 146806 161623 161996 163894 174016 190091
1882.20 193460 177436 168850 171591 192613 228798
1885.09 244057 251465 268814 258561 246231 240976
1887.99 249437 280707 308827 311444 308443 322623
1890.88 331055 333941 339965 349900 363736 379903
1893.77 401226 428286 420266 410187 419527 429696
1896.66 429030 455643 483522 502351 508243 488271
1899.56 471064 476654 504505 505672 516642 537710
1902.45 531488 528126 508685 504025 511439 509743
1905.34 508718 512187 505312 498612 512033 527538
1908.23 529731 527249 520089 521202 521023 498827
1911.13 482724 482672 480788 489485 509963 522647
1914.02 528534 520296 506348 493230 480259 478254
1916.91 506383 563432 559626 536265 547852 561711
1919.81 544830 511639 504615 521554 546903 537686
1922.70 513600 502580 505861 498892 476773 468350
1925.59 467000 458269 443068 433134 416729 406515
1928.48 414465 414607 410698 403442 414507 415074
1931.38 396132 380490 380779 395221 394641 368357
1934.27 334444 332942 357623 360418 360787 365507
1937.16 360687 337503 311877 273560 266371 265512
1940.05 269473 278037 274320 281303 271244 236052
1942.95 199692 196582 204893 203062 214589 219577
1945.84 210293 186309 186006 209225 200685 183630
1948.73 189423 194660 185411 165995 164205 165525
1951.63 165513 150126 129049 116537 121893 121037
1954.52 96449 84925 92680 79237 75333 53011
1957.41 21044 28087 41830 42899 27771 11503
1960.30 7176 11385 12069 22151 13664-10386
1963.20-7468 7990-309-19206-12312-4291
1966.09-7169-27788-40848-30856-15738-10939
1968.98-28961-60431-69771-56628-41064-49560
1971.87-57527-57953-46887-57491-77825-71598
1974.77-39552-29722-37292-31841-45065-71381
1977.66-75082-81191-59880-57109-72577-58756
1980.55-38649-43304-53443-65551-54513-50011
1983.45-67701-75022-52450-46941-55587-70802
1986.34-73297-62625-44809-51112-49240-40560
1989.23-51914-57774-47857-49208-50622-38496
1992.12-24027-22215-43489-56649-51023-41166
1995.02-35193-30449-14553-25847-58529-58332
1997.91-30178-14292-24091-37768-23074-7021
2000.80-11137-14898-14401-13334-6672-8488
2003.69 147 6564-1257 7765 27828 29276
2006.59 16545-6910-18636 12346 54227 49857
2009.48 37042 30913 33197 41855 42010 52143
2012.37 80015 83890 85639 96398 93813 105181
2015.27 121852 126367 154207 201244 221549 215270
2018.16 204387 224635 243370 271833 297417 314572
2021.05 319423 326082 355063 401493 431064 447657
2023.94 470953 478947 509271 531137 541577 546589
2026.84 561782 583360 598665 627945 649874 669066
2029.73 687866 679493 659735 666050 676975 671697
2032.62 680929 668121 644830 634836 619579 611535
2035.51 644724 715573 776606 797234 804121 740588
2038.41 649779 615350 633567 668315 680059 684453
2041.30 695371 704109 732527 778032 810199 827163
2044.19 821326 807441 821786 835588 815107 781136
2047.09 770658 761330 735824 702443 688906 670568
2049.98 658198 625588 576123 564008 558743 535511
2052.87 524806 502193 468774 441213 415896 374697
2055.76 349792 336015 335115 338886 318316 283725
2058.66 260506 277589 284920 265129 259140 261928
2061.55 256767 237462 201202 194516 218057 227858
2064.44 206597 174541 155285 157964 162312 159969
2067.33 154235 155882 167404 164021 158227 150297
2070.23 143330 171493 186826 179749 177667 183984
2073.12 166786 144915 147360 154810 163002 184564
2076.01 173331 140229 153988 173060 177758 162826
2078.91 155623 163237 162418 173557 193189 218671
2081.80 218808 205789 206711 199518 202856 210548
2084.69 211712 239256 280865 255966 220331 215721
2087.58 205820 213996 240993 256823 279431 331237
2090.48 316336 267498 267433 265610 262957 277002
2093.37 290484 326471 403145 373310 324786 327516
2096.26 321351 308160 305163 323827 388096 416341
2099.15 356690 335545 342486 347379 361030 374468
2102.05 390837 471983 478970 398194 406991 417486
2104.94 399310 409847 424936 475620 549383 510391
2107.83 474228 440889 412511 435335 455412 467326
2110.73 552973 581377 503989 485095 506343 515501
2113.62 508057 513810 581697 654770 597407 521543
2116.51 514122 528204 535942 540785 565125 660132
2119.40 697209 643659 637954 631760 620716 627687
2122.30 660934 725718 764392 699777 665908 660173
2125.19 667400 659414 657829 703784 774696 724403
2128.08 672502 677089 652124 617683 626589 647391
2130.97 698627 696678 642990 619379 632419 647961
2133.87 663902 649290 661020 670878 641280 652964
2136.76 664088 654756 673717 690792 709172 708497
2139.65 685039 680727 696561 700389 698403 707842
2142.55 720348 708209 711124 717355 704023 710363
2145.44 739621 727445 715039 697667 672494 660820
2148.33 652943 657500 657474 663013 699320 667416
2151.22 639574 628077 599749 607518 634943 684834
2154.12 729072 689956 642993 637590 625508 623206
2157.01 646985 738936 752041 662660 629977 656548
2159.90 678690 679124 725626 801277 780078 733788
2162.79 731257 729985 738091 741191 810601 864198
2165.69 807791 766689 752096 754107 786968 876474
2168.58 998682 954687 843895 796504 775724 757192
2171.47 757122 854149 877125 763740 725480 717539
2174.37 734950 727709 781926 847030 755011 684645
2177.26 685339 705493 714288 766486 839021 765797
2180.15 693138 703022 714283 711456 742959 818738
2183.04 786627 714309 715144 704128 706291 733049
2185.94 819319 815795 758424 762807 734440 698779
2188.83 721313 792747 795010 719403 684175 690439
2191.72 698140 687819 738566 759205 723958 696883
2194.61 708497 716413 729845 761680 731392 710478
2197.51 732802 732534 730862 773323 806830 785121
2200.40 780345 771672 763836 777411 803864 797243
2203.29 753834 766330 773961 751269 790279 830835
2206.19 792499 760616 758907 747333 759664 786971
2209.08 808074 807459 787990 779887 804122 824250
2211.97 836617 812721 778907 779235 782744 768100
2214.86 753082 740360 736116 735716 731161 725407
2217.76 730587 751544 760588 762953 758029 754782
2220.65 750694 759246 774082 750396 730675 729845
2223.54 715643 696778 703491 729607 735080 714999
2226.43 685121 661028 650908 653241 647945 640716
2229.33 640478 628425 619751 611577 594641 579073
2232.22 589193 576514 578139 567081 530727 521436
2235.11 536447 541505 520177 499954 471072 454457
2238.01 452461 434229 439555 446102 438247 435660
2240.90 450072 462621 474475 469794 472301 466812
2243.79 465662 473307 470858 465660 464197 462033
2246.68 450838 431936 430868 448445 472432 497566
2249.58 514531 516499 508022 491635 499945 515356
2252.47 499210 487262 492785 496917 523861 538133
2255.36 526614 527578 549168 553653 565397 570382
2258.25 571851 574604 584373 593620 606793 601468
2261.15 603475 601518 605000 607704 610991 620918
2264.04 638994 636247 616107 624865 626441 629064
2266.93 633165 627469 618581 616042 611875 589783
2269.83 600006 610410 623133 636877 622697 611572
2272.72 599416 581562 605941 642947 662485 682882
2275.61 700896 718407 724300 711129 705594 706002
2278.50 726486 750233 782606 804349 808432 806956
2281.40 822976 847710 865939 859309 865599 865404
2284.29 867475 858463 865589 882192 882534 882065
2287.18 896074 897195 893314 875168 874568 884110
2290.07 904429 891136 882342 904757 906785 894910
2292.97 889329 891418 888537 896886 876866 831956
2295.86 824218 856309 899459 907739 914673 947633
2298.75 980188 988144 995806 1029165 1074605 1086288
2301.65 1075285 1041590 1051636 1084775 1109660 1090032
2304.54 1117541 1116790 1108076 1084137 1034894 1044053
2307.43 1058421 1062268 1019396 1014005 1058964 1045851
2310.32 966150 935779 1006236 1000313 927099 878179
2313.22 950850 979247 949662 848301 920687 990228
2316.11 964999 851519 896227 979312 931577 760045
2319.00 812816 952499 928434 723168 764365 968915
2321.89 962177 774738 826414 1022214 917148 628918
2324.79 705675 972781 866823 583446 721715 1001683
2327.68 840890 572139 781989 1045823 798289 579609
2330.57 891571 1070935 712693 608557 1027760 1079001
2333.47 666180 746269 1129614 954085 630033 940299
2336.36 1204938 816367 663453 1061037 1020197 654320
2339.25 851658 1146004 852886 701941 1050328 1063241
2342.14 777786 943738 1125339 898331 866911 1120139
2345.04 1102982 1011983 1143482 1217206 1156401 1205636
2347.93 1287561 1308448 1278697 1240745 1266670 1231117
2350.82 1117919 1181550 1227337 1021884 1035309 1155107
2353.71 905792 875900 1043933 788260 812164 1010715
2356.61 657523 678665 942538 590416 679549 877579
2359.50 502863 684242 776422 435849 751124 700639
2362.39 453983 807373 593450 548316 786288 505692
2365.29 680064 739189 595756 866500 742157 803896
2368.18 871807 753962 942838 878288 949988 1043908
2371.07 1041037 1189437 1141504 1224173 1243195 1310210
2373.96 1354636 1369232 1431523 1432981 1494771 1527430
2376.86 1599511 1628658 1664460 1685805 1711734 1742464
2379.75 1780262 1780020 1736052 1692658 1687229 1674167
2382.64 1637736 1593982 1570319 1520466 1474529 1428138
2385.53 1408985 1409795 1447260 1493674 1511352 1556971
2388.43 1617964 1695959 1665086 1479983 1362202 1362803
2391.32 1392755 1440806 1521436 1580091 1613129 1662745
2394.21 1712177 1758215 1800118 1833957 1864611 1887877
2397.11 1882724 1873028 1851284 1796047 1730990 1730123
2400.00 1708656 1634492 1593139 1543737 1482257 1403133
2402.89 1343536 1310522 1287732 1242627 1197941 1195693
2405.78 1213598 1247677 1288008 1285610 1279038 1254516
2408.68 1222350 1218326 1251546 1294476 1325036 1359999
2411.57 1393039 1433320 1487093 1522920 1540491 1562652
2414.46 1618465 1655196 1655483 1680555 1720981 1754678
2417.35 1770534 1791122 1780973 1746962 1736136 1721005
2420.25 1710621 1702481 1701833 1706763 1686349 1701724
2423.14 1751385 1767074 1777951 1788652 1824449 1871652
2426.03 1908581 1932070 1953076 1974168 1988669 2001508
2428.93 2022386 2057954 2087589 2109953 2095992 2114342
2431.82 2121994 2097113 2091948 2105058 2122583 2146614
2434.71 2160201 2154880 2103048 2059978 2042942 2024811
2437.60 2023880 2011332 1993804 2000834 2015010 2001417
2440.50 1951435 1915817 1888083 1847401 1804649 1786889
2443.39 1785686 1791078 1798443 1787345 1774133 1800420
2446.28 1801990 1788145 1792318 1801883 1779501 1761947
2449.17 1777359 1769779 1741973 1715132 1694277 1676778
2452.07 1658966 1599872 1527676 1484011 1438162 1379675
2454.96 1316260 1271672 1241812 1195662 1141117 1085574
2457.85 1053552 1029543 998965 963692 906278 859412
2460.75 858471 836855 802487 759137 726460 695768
2463.64 660812 628990 638861 645653 646804 643270
2466.53 614712 587268 576350 569336 539505 527022
2469.42 542332 550029 541575 530054 509200 492254
2472.32 496020 481888 457265 453513 427671 404320
2475.21 395943 358284 353675 350576 334652 322509
2478.10 307196 310148 300280 297188 309393 321963
2480.99 323233 301263 328628 332051 302604 280229
2483.89 267566 284789 285037 264279 257541 241744
2486.78 227475 231066 254543 265393 258211 247717
2489.67 249452 259148 240343 224077 222487 227450
2492.57 209746 181429 194154 215152 224033 212092
2495.46 225800 237203 234881 222456 204295 213459
2498.35 233605 241757 229287 224071 224432 202307
2501.24 205203 229870 235033 235626 259038 281218
2504.14 288834 287448 297325 310484 323821 334226
2507.03 340211 339936 337166 354827 377358 382957
2509.92 395323 400853 405036 442884 455066 449742
2512.81 438813 427466 452400 525679 559870 538540
2515.71 553278 583093 568236 562659 566953 576916
2518.60 580700 595760 649712 681415 665501 669278
2521.49 713479 729037 722602 718062 723275 743643
2524.39 760964 780483 822749 848456 868767 854343
2527.28 822176 814326 803393 792856 801833 812772
2530.17 813791 802996 811326 811637 825047 837075
2533.06 827871 812878 792208 784043 779955 750049
2535.96 752739 765240 782974 806419 820330 795507
2538.85 787448 780917 772420 771028 769794 772772
2541.74 781685 777710 780090 801859 772205 752681
2544.63 771494 776866 755483 725770 736150 748359
2547.53 728018 690143 697285 701313 677696 670910
2550.42 659962 647224 646314 637637 628423 629040
2553.31 633784 627088 625284 614605 637002 669141
2556.21 669660 661617 648548 662392 683601 681482
2559.10 673786 687221 709377 713654 719584 737814
2561.99 775216 793446 807457 784127 811300 844451
2564.88 873375 912686 915167 927932 947576 942975
2567.78 970688 1020659 1061205 1061479 1077057 1113282
2570.67 1151697 1200065 1247013 1253190 1281925 1315455
2573.56 1343773 1367280 1402955 1449453 1486551 1512733
2576.45 1540121 1582837 1616398 1666620 1703151 1740699
2579.35 1802040 1826461 1854533 1890185 1928226 1978684
2582.24 2002926 2057249 2144851 2162416 2200458 2287030
2585.13 2315770 2322573 2371559 2445436 2520585 2587395
2588.03 2667253 2718838 2808293 2981109 3168791 3228479
2590.92 3166695 3153597 3208825 3244421 3255720 3274883
2593.81 3322453 3371432 3400412 3452342 3503168 3588064
2596.70 3695625 3830400 4005481 4039015 3908062 3823145
2599.60 3796122 3799399 3817274 3842761 3871578 3884911
2602.49 3897227 3915108 3929582 3925392 3943443 3994211
2605.38 3985495 3959420 3992330 4056501 4101169 4135371
2608.27 4153344 4177487 4229460 4278073 4322077 4343323
2611.17 4357868 4393128 4429514 4463972 4513206 4552169
2614.06 4560707 4562903 4590244 4616957 4654320 4726296
2616.95 4652696 4504854 4454641 4439248 4427973 4461780
2619.85 4519464 4531485 4569844 4609838 4621874 4621293
2622.74 4606445 4582326 4570224 4587527 4601269 4559156
2625.63 4563565 4610008 4635491 4651543 4687421 4735463
2628.52 4762381 4791854 4818714 4848209 4874821 4904113
2631.42 4945647 4949810 4945811 4973213 4977899 4981050
2634.31 4996471 5001232 5013726 5011683 5022022 5032946
2637.20 4994811 4965024 4952632 4936597 4929403 4894140
2640.09 4811158 4774638 4750417 4692686 4648610 4598121
2642.99 4537360 4533905 4545122 4549164 4587795 4652220
2645.88 4711086 4767365 4854498 4968565 5039222 5101656
2648.77 5194657 5237758 5269592 5289355 5271593 5278399
2651.67 5286774 5304786 5308494 5269230 5264914 5272744
2654.56 5258188 5248190 5237856 5213422 5195545 5210836
2657.45 5215551 5194122 5161752 5065491 4970118 4908474
2660.34 4890328 4874245 4816876 4777518 4774283 4776949
2663.24 4777351 4735355 4706009 4698734 4656044 4656370
2666.13 4681696 4650542 4625616 4610259 4565362 4520366
2669.02 4492500 4452046 4399709 4350836 4307956 4240946
2671.91 4183788 4130349 4058716 4002532 3989883 4006738
2674.81 4015430 4006960 4053735 4120661 4171023 4221058
2677.70 4293188 4392114 4504594 4689645 4833431 4873293
2680.59 4898808 4983164 4988357 4856022 4750212 4697456
2683.49 4570016 4377794 4248004 4150311 4055756 3968251
2686.38 3910743 3864513 3809773 3783808 3777283 3757407
2689.27 3734266 3704208 3651775 3586628 3541522 3523044
2692.16 3514188 3459021 3410684 3399400 3385462 3353166
2695.06 3324107 3306919 3311146 3310306 3305094 3317471
2697.95 3306418 3273023 3294355 3307712 3312831 3335400
2700.84 3352874 3374955 3419853 3452601 3472349 3499780
2703.73 3552871 3584269 3623915 3690143 3765621 3813044
2706.63 3832858 3859136 3946029 4015111 4087554 4162997
2709.52 4213652 4282875 4389691 4482396 4593133 4722226
2712.41 4812471 4821363 4848637 4916002 4979090 5041276
2715.31 5108794 5177013 5221645 5255894 5298179 5326576
2718.20 5367200 5430555 5531224 5653675 5765251 5902830
2721.09 6097486 6343263 6560606 6740712 6931815 7116222
2723.98 7290096 7476942 7669993 7822163 7979915 8145367
2726.88 8321423 8515003 8725474 8905918 9085013 9261954
2729.77 9424891 9598656 9796642 9984265 10165398 10375582
2732.66 10570508 10687557 10810327 10909433 11007513 11119626
2735.55 11199593 11223300 11210004 11148969 11090818 11049921
2738.45 10948931 10815352 10670352 10535134 10483749 10579353
2741.34 10913307 11346395 11449905 11134534 10657805 10331533
2744.23 10256980 10311712 10357142 10412807 10559823 10768556
2747.12 11027482 11284475 11578043 11859083 12096872 12277393
2750.02 12339277 12296704 12267178 12216794 12188665 12108992
2752.91 11981621 11870121 11691739 11448257 11215297 10938845
2755.80 10659220 10376604 10080960 9776649 9483710 9224850
2758.70 8999697 8748449 8476820 8267567 8115741 7951323
2761.59 7781735 7660298 7553694 7472723 7368773 7225855
2764.48 7130250 7063771 6946881 6846368 6814238 6746024
2767.37 6694102 6658824 6622848 6584728 6540648 6491082
2770.27 6435147 6427650 6442906 6454865 6472869 6467611
2773.16 6410440 6365576 6398826 6433872 6417360 6452998
2776.05 6517333 6525596 6561185 6634178 6665882 6696518
2778.94 6758315 6812103 6850044 6867804 6921333 6973572
2781.84 7028389 7059551 7085269 7110795 7149175 7144264
2784.73 7174188 7197442 7191309 7204336 7214937 7219992
2787.62 7240655 7274660 7315886 7354158 7409010 7451535
2790.52 7537381 7632794 7727918 7861234 8035768 8240228
2793.41 8586288 8941223 9003565 8704244 8469243 8458001
2796.30 8510473 8572445 8695926 8854065 9065854 9208489
2799.19 9298854 9403435 9534803 9661687 9767437 9901048
2802.09 10029323 10117197 10221970 10370243 10553655 10736245
2804.98 10922826 11088176 11270791 11500769 11715037 11906773
2807.87 12144063 12383876 12630407 12853483 13035276 13232260
2810.76 13463607 13681463 13944705 14230525 14484507 14786901
2813.66 15084552 15274561 15519444 15859250 16211279 16518240
2816.55 16871668 17184814 17411313 17650995 17937937 18286599
2819.44 18704045 19145851 19665120 20297563 20918111 21470360
2822.34 22050507 22604680 23051868 23574670 24171242 24691337
2825.23 25237331 25742779 26250691 26765577 27354412 27930463
2828.12 28451361 29065327 29733033 30310053 30818709 31393063
2831.01 31960041 32475795 33190806 33889270 34508846 35187873
2833.91 35873053 36511125 37082716 37790604 38646391 39537676
2836.80 40550934 41654252 42934328 44391053 45953195 47575943
2839.69 49028431 50099699 51023266 52075674 53376992 54719442
2842.58 56122981 57520281 58973755 60535731 62109952 63645125
2845.48 65233397 66731147 68185370 69776277 71424590 73085996
2848.37 74900701 76889101 78998332 81296172 83963564 86718542
2851.26 89423723 92101932 94501982 96748616 99245912 101819723
2854.16 104606594 107722096 111034974 114352355 117711540 121260266
2857.05 124726017 128155233 131754743 135290285 138870442 142300614
2859.94 145771145 149026675 152288148 155673315 158677127 161990732
2862.83 165300439 168185678 171551391 174586651 177473008 180727088
2865.73 183463281 185894429 188363382 190122432 191736334 193906386
2868.62 196859629 201028557 207966704 219419923 234058808 245462883
2871.51 251202554 254270887 256106446 258040998 261155737 266508542
2874.40 273629667 282038244 291452057 300699768 309517989 317344302
2877.30 323494838 328528070 331842974 333642437 333853759 331831464
2880.19 328597484 323816396 317352385 309998177 301094639 291705039
2883.08 283355785 276125137 270796374 267793154 269825839 283247652
2885.98 309640456 326306908 314983542 293650014 282713230 283830779
2888.87 286369925 286618730 285861091 286161129 288344542 291803946
2891.76 296570898 301498828 305019370 308077512 310472487 311426902
2894.65 311551519 310866047 309064641 306823493 304016260 300797880
2897.55 297619588 293950956 289988127 286316414 282400402 278429582
2900.44 274188325 270013908 266069658 262295281 259095399 256324308
2903.33 253180801 250138026 247822416 246404338 245638943 245740554
2906.22 246709931 248124022 249846636 251272299 252183969 252988557
2909.12 254948444 257312743 259145149 261427885 263549976 266063525
2912.01 269236345 272221143 275317999 277354624 279348447 281663426
2914.90 284661905 288364262 291183542 292883540 295032265 297688257
2917.80 300424836 304959312 310139316 317085224 326412032 334956531
2920.69 341725204 346152864 348921118 353039859 360334834 369061750
2923.58 373765427 374986807 375257825 376497081 381805770 387745826
2926.47 393132082 398896243 403606988 408803635 412933706 416996598
2929.37 421407871 427450396 436835996 445231679 455790821 471001594
2932.26 487912065 501905117 499693063 485577410 473994091 466304637
2935.15 465292041 468347568 472841784 479608309 489186311 501466779
2938.04 513571728 518888424 518911663 520729013 522433084 521584990
2940.94 519339243 517550300 517413039 519187202 519376149 519102129
2943.83 519464954 520267807 522364102 525656333 532316786 542193858
2946.72 555425577 567866786 572736824 571629702 569570221 563280046
2949.62 557106506 557677146 559892689 565043675 573577674 580864969
2952.51 588989743 598547233 606090100 614363173 623159678 631207896
2955.40 641668650 649715211 655817476 663597307 670978171 677188142
2958.29 684677233 691830649 696317191 702885066 708211456 710539239
2961.19 715441319 720409258 726519810 735583812 749447867 777034552
2964.08 819967287 871244474 930695145 970548986 946636393 881853041
2966.97 827879703 798258144 776651645 747566873 716429403 696453677
2969.86 683561572 662058436 635423839 624212494 631545171 653427464
2972.76 672795001 675694368 666298785 649551188 636989110 630085452
2975.65 624158212 622071015 622606541 623317832 625713891 627357985
2978.54 628862306 629518283 628311838 626858303 622502766 616787099
2981.44 609589537 599296572 588735396 574955774 561027722 545695939
2984.33 528588627 511259147 493483557 475954916 457087652 439980199
2987.22 421646505 403613119 387023516 369355660 353367389 337200221
2990.11 321647992 307147276 292640524 279238678 265868595 253650901
2993.01 241919898 230527713 220160873 209767480 199967160 190691822
2995.90 181736121 173430227 165474594 157854960 150626754 143657444
2998.79 136999388 130758934 124585354 118831085 113129801 107768294
3001.68 102734832 97803396 93156765 88673153 84415276 80263397
3004.58 76281173 72556439 68910422 65502907 62217387 59045105
3007.47 56051512 53165590 50468503 47900259 45406873 43127017
3010.36 40927978 38786015 36805425 34939493 33161985 31565692
3013.26 30039454 28595101 27244362 25938948 24691623 23536428
3016.15 22420525 21376011 20424291 19547960 18690070 17893683
3019.04 17161367 16481340 15820276 15239332 14676581 14151550
3021.93 13675760 13220466 12787011 12401510 11999631 11637163
3024.83 11316869 11023929 10747829 10497726 10258764 10035968
3027.72 9818894 9602517 9389177 9227035 9073981 8917526
3030.61 8794143 8705123 8577055 8424577 8313790 8230108
3033.50 8117610 8033686 7950224 7851613 7756321 7724034
3036.40 7670065 7574160 7525545 7491420 7456779 7427895
3039.29 7381016 7333738 7317943 7294220 7223914 7190813
3042.18 7156300 7121256 7122223 7120711 7093134 7059343
3045.08 6982032 6947926 6968192 6963022 6930525 6925019
3047.97 6884665 6829173 6831468 6845912 6818435 6792411
3050.86 6787455 6781283 6771047 6762509 6751577 6736325
3053.75 6767520 6802984 6788387 6808489 6795856 6840911
3056.65 6883133 6888893 6904915 6935933 6959063 6983753
3059.54 6995397 7040371 7110174 7173392 7213739 7267661
3062.43 7310654 7383482 7422165 7456345 7514323 7563305
3065.32 7588141 7632794 7712428 7783454 7815225 7854880
3068.22 7937507 7984446 8018560 8096163 8135435 8143653
3071.11 8198001 8261766 8288331 8327462 8373368 8425937
3074.00 8446985 8462853 8436781 8422491 8479515 8552600
3076.90 8565292 8572395 8574135 8545408 8520647 8509584
3079.79 8465409 8453213 8502924 8444113 8391525 8409045
3082.68 8443138 8563225 8754697 8801326 8617600 8468327
3085.57 8484545 8571288 8644622 8703026 8673805 8566554
3088.47 8421110 8319708 8289603 8202469 8083497 8021024
3091.36 7939474 7843323 7807705 7742509 7628588 7532121
3094.25 7442989 7344255 7215210 7100575 6975467 6891322
3097.14 6826772 6706552 6592765 6493319 6450421 6408680
3100.04 6288457 6151451 6068131 6023904 5937967 5810384
3102.93 5708602 5668468 5625452 5533527 5423059 5339641
3105.82 5280050 5216757 5156246 5109658 5047090 5004412
3108.72 4963819 4921695 4864163 4808829 4753760 4715660
3111.61 4686560 4652850 4583133 4510000 4496940 4498790
3114.50 4455874 4420111 4388546 4412214 4418299 4362916
3117.39 4311981 4284303 4276665 4318310 4342443 4274761
3120.29 4214617 4234663 4252644 4246748 4261650 4276724
3123.18 4268723 4268888 4252944 4261696 4294011 4320001
3126.07 4312999 4318066 4334717 4350886 4360566 4401777
3128.96 4420138 4446402 4479438 4493774 4502206 4527450
3131.86 4558223 4564748 4583967 4615852 4678892 4721903
3134.75 4725544 4775862 4809745 4790929 4794812 4889946
3137.64 4961869 5010704 5048374 5053433 5083926 5135560
3140.54 5192732 5236722 5272436 5325183 5329203 5324474
3143.43 5349574 5367141 5411554 5441239 5446652 5460118
3146.32 5501095 5540381 5567954 5636446 5706503 5754162
3149.21 5776187 5796967 5838417 5901293 5963004 6020220
3152.11 6081829 6149531 6209214 6268914 6328053 6381509
3155.00 6429628 6514507 6628417 6698836 6731230 6786053
3157.89 6856588 6946607 6997203 7050186 7085948 7116141
3160.78 7143561 7158753 7158682 7171212 7161677 7172047
3163.68 7194128 7227325 7285128 7303874 7318119 7413231
3166.57 7508196 7560910 7657735 7778151 7883641 7964900
3169.46 7962364 7939757 7980900 8060553 8093838 8092215
3172.36 8061598 8086812 8092603 8103436 8194469 8240922
3175.25 8154805 8023342 7913956 7929140 7979236 7879735
3178.14 7753946 7688311 7567114 7445611 7375690 7325149
3181.03 7301511 7297468 7265808 7252587 7318563 7422081
3183.93 7586012 7688737 7629137 7618320 7652099 7636508
3186.82 7726432 7842641 7790204 7583605 7312802 7127101
3189.71 6991059 6873982 6832248 6744608 6600144 6514741
3192.60 6425034 6355199 6326822 6224427 6129101 6066549
3195.50 6017581 5956671 5853506 5751533 5710190 5703631
3198.39 5650273 5577137 5513287 5459912 5429109 5376578
3201.28 5295373 5252583 5231100 5249499 5214566 5119223
3204.18 4992973 4962386 5009178 4999060 4894312 4790306
3207.07 4761842 4739616 4685761 4632339 4648511 4648829
3209.96 4582220 4553063 4571649 4589433 4582301 4538625
3212.85 4483500 4443199 4419825 4446178 4451672 4409858
3215.75 4393352 4382157 4401010 4415343 4411942 4395040
3218.64 4372967 4404808 4484814 4498120 4491530 4492784
3221.53 4527084 4572626 4552730 4478859 4453477 4471266
3224.42 4462736 4416866 4361840 4334930 4310932 4253590
3227.32 4156641 4075920 3998200 3913431 3798143 3737845
3230.21 3654955 3528231 3458383 3426255 3366254 3360431
3233.10 3358552 3356938 3361846 3342973 3287064 3265312
3236.00 3275093 3270205 3288093 3293080 3211244 3153298
3238.89 3125133 3093662 3066047 2994166 2937035 2924244
3241.78 2872163 2793267 2731617 2681101 2604496 2500198
3244.67 2437890 2387293 2303753 2209475 2139739 2102699
3247.57 2014980 1924391 1887072 1852946 1778698 1699975
3250.46 1604623 1526778 1492806 1445460 1406715 1376170
3253.35 1337864 1308691 1274114 1200704 1154502 1127946
3256.24 1085468 1054818 1002284 977554 936852 897291
3259.14 877097 892803 905787 890381 838852 783554
3262.03 763641 768335 761677 744235 727163 709275
3264.92 709804 715273 705739 708485 747285 747823
3267.82 685966 684995 691249 702897 722528 696162
3270.71 679428 665674 669825 678167 701962 730119
3273.60 770330 739628 697935 702284 722679 735981
3276.49 749580 756482 721519 708884 713479 756479
3279.39 768140 720280 703265 702970 732533 748269
3282.28 724030 720952 758221 781555 776307 788726
3285.17 818346 845141 844959 770528 742099 786461
3288.06 802634 814856 818415 813999 775849 748744
3290.96 752614 741109 734347 722870 723255 748520
3293.85 767045 751002 728750 721825 736228 721736
3296.74 685581 700667 726983 694286 714699 741417
3299.64 738065 733060 718748 683747 633834 609499
3302.53 633141 634297 601589 603709 590070 567693
3305.42 566578 556337 532968 502373 525984 556727
3308.31 541680 523961 521695 530091 508305 504831
3311.21 513258 490640 458784 479290 428147 413745
3314.10 437973 401391 397835 431279 421593 391582
3316.99 396661 406058 417252 434008 432848 400482
3319.88 406179 439533 418414 393536 381283 364273
3322.78 391785 403936 358196 338049 376210 448464
3325.67 465900 441462 422427 406715 430245 471639
3328.56 463347 428338 466709 459611 468780 526792
3331.46 498590 485181 527505 529442 497004 507350
3334.35 518891 539847 596058 629066 621908 593885
3337.24 577118 582205 586787 583812 611051 662900
3340.13 634128 579068 577036 615601 689529 741752
3343.03 742606 733821 689390 664072 685046 669761
3345.92 687085 711544 759307 745079 731243 751035
3348.81 726616 706733 752410 793339 769711 764346
3351.70 755791 736004 764905 801304 805566 781772
3354.60 779665 772506 802199 823895 792899 802894
3357.49 795830 820832 853489 820034 756922 767758
3360.38 780702 788437 795031 789105 820321 859280
3363.28 821376 779185 804108 811241 782582 805069
3366.17 823222 843911 881805 878448 828289 800334
3369.06 834405 857331 837330 793895 774225 775724
3371.95 800361 847650 848964 871984 902246 883811
3374.85 838547 857219 943814 985427 972190 987611
3377.74 975421 961553 971894 969160 962188 967606
3380.63 1016208 1081930 1079472 1043650 1042513 1116995
3383.52 1158253 1140092 1180995 1177047 1145720 1195661
3386.42 1215534 1250275 1258643 1228525 1242426 1257186
3389.31 1224508 1225548 1285455 1293441 1254448 1295615
3392.20 1361785 1378883 1357628 1348835 1362372 1327248
3395.10 1326657 1364292 1346653 1334878 1349837 1347402
3397.99 1303826 1281527 1280393 1269882 1211229 1168845
3400.88 1171439 1211593 1211676 1187599 1202265 1238200
3403.77 1209676 1205161 1206086 1162561 1133284 1169473
3406.67 1168655 1080366 1046106 1040269 1023921 1003016
3409.56 1016509 1013236 1005757 994197 1017524 1006794
3412.45 936703 900365 870255 821086 824370 801785
3415.34 779491 728103 687491 712028 669224 593336
3418.24 565914 543506 515870 514885 490284 418686
3421.13 376310 377688 363197 343241 348727 332033
3424.02 291985 301015 355586 313905 254490 230702
3426.92 248943 271298 250170 215511 222492 217024
3429.81 232298 269695 279587 250578 225215 210469
3432.70 195296 202371 171095 165350 189874 191281
3435.59 143676 134608 192794 200129 182754 189549
3438.49 190960 138282 137424 152179 174115 174736
3441.38 131369 123466 129802 150081 172435 108989
3444.27 53432 81509 117222 117463 91984 92838
3447.16 111552 84806 70342 133059 160450 142168
3450.06 121081 125810 153873 151254 91402 19446
3452.95 28234 58130 79293 82445 67928 51626
3455.84 35082 30302 51321 53825 52556 100701
3458.74 129524 82795 53670 67664 86877 68105
3461.63 34153 76090 103426 117683 109050 105301
3464.52 102495 66653 47801 45191 74811 107371
3467.41 65683 39923 40648 88549 108820 90145
3470.31 76103 87663 87343 68298 57418 106134
3473.20 117335 74935 85141 100431 43142 32386
3476.09 77996 77758 75716 104543 112839 107412
3478.98 135317 116179 78947 119177 168953 163878
3481.88 130731 99515 95129 78833 62845 62695
3484.77 109691 134705 126028 124566 140874 122721
3487.66 91109 95050 90133 95932 103355 112283
3490.56 69550 32494 51990 63811 48163 90923
3493.45 110899 104899 96770 115919 114246 129807
3496.34 127888 73310 13216 51564 124072 102037
3499.23 100051 91412 39856 52564 108387 123939
3502.13 100577 92683 95285 83174 106237 142881
3505.02 120229 108436 70033 49145 50471 76252
3507.91 72268 97179 90817 48475 29592 10049
3510.80 31721 15867 31043 74991 64694 75281
3513.70 77417 49504 15566-8543-29433-4411
3516.59 19428-16526-641 53247 46217 18091
3519.48 3917 8875 13953 31522 18490 18261
3522.38 40870 7417-42722-32378 12060 1147
3525.27-57719-52704 1462 3726-20382-23128
3528.16-41938-60622 31835 67302 44178 33568
3531.05-396-76700-112617-67509-15804-15921
3533.95-56065-36211-1120 25796-5736-70691
3536.84-10489 19435-5839-6696-13295-30492
3539.73-21340-18727 10773 22086 5782-27786
3542.62-47998-29287-13166-8343-32268 18167
3545.52 46463 14597 2683 10309 24544 61947
3548.41 37309-10911-14161-98 7001-6497
3551.30-10635 7699 18340 21869 33593 7776
3554.20-18216-11522 34830 81586 38974 815
3557.09 4899 7107 6207 20679 44429 31352
3559.98 15980 32850 91089 111409 93339 67699
3562.87 45441 61073 101634 90164 101203 108271
3565.77 108705 114802 127021 143035 171675 172682
3568.66 163072 128772 111810 100176 101963 108858
3571.55 82261 98315 112867 109643 111223 133212
3574.44 167454 140682 104140 119563 154339 224095
3577.34 237218 159924 141071 202124 231634 213712
3580.23 179294 197136 206940 193872 194539 191740
3583.12 216038 224889 191905 204967 239281 264850
3586.02 308097 270028 243954 256863 321786 393164
3588.91 344198 296030 267082 244145 260232 299104
3591.80 322085 346691 358765 361139 325104 313855
3594.69 365192 370459 333657 343914 365492 374801
3597.59 362446 357274 374359 398006 425792 448984
3600.48 482493 498809 457590 421260 400291 420710
3603.37 431603 440710 472475 469829 470439 502062
3606.26 546271 542185 525884 552017 549324 579160
3609.16 574640 555012 566095 569847 593168 636250
3612.05 656458 656186 652701 662840 669447 650644
3614.94 636376 646303 655246 637320 642261 686192
3617.84 698764 704921 788086 805644 726353 706290
3620.73 725119 760168 728563 729498 773011 751888
3623.62 719127 707198 728922 765283 789817 806363
3626.51 823012 832838 853342 880984 851563 913039
3629.41 893338 805945 806641 832658 796335 746895
3632.30 751309 753390 778384 810073 763439 718712
3635.19 726373 764751 764113 789636 860767 886573
3638.08 885232 867817 834208 869545 907519 923058
3640.98 895649 862137 879205 899008 866514 853819
3643.87 882108 921011 882676 845841 898360 919988
3646.76 934953 909077 897013 949590 1061184 1017796
3649.66 936961 947003 953053 928247 892073 864486
3652.55 854655 882456 869481 884872 842058 821940
3655.44 888066 914383 812359 794293 840467 832686
3658.33 824937 865165 887334 854712 818940 839612
3661.23 876803 875736 843953 856227 857390 856163
3664.12 861839 873914 860926 868842 856262 835813
3667.01 865328 895042 943694 952232 913479 962328
3669.90 1071367 1070455 927896 883863 890483 907665
3672.80 911500 929927 949510 999892 1031164 1107670
3675.69 1153824 1052143 996391 1006432 1040007 1054775
3678.58 1031100 1041484 1077128 1046473 1001937 1023849
3681.48 1031433 1068590 1099316 1137471 1140876 1134696
3684.37 1140741 1113904 1080512 1091010 1109635 1108001
3687.26 1129881 1323559 1374579 1210208 1126349 1096651
3690.15 1107082 1140641 1133331 1109231 1080163 1036161
3693.05 1062535 1090146 1076355 1066494 1098301 1117627
3695.94 1074521 1023850 1018870 1044917 1063720 1076304
3698.83 1062654 1046179 1081524 1115640 1148936 1199105
3701.72 1203748 1142618 1121814 1136663 1130008 1105783
3704.62 1094777 1132512 1142797 1143220 1128450 1100442
3707.51 1096871 1108232 1148395 1182661 1127367 1100086
3710.40 1158749 1245154 1327316 1353479 1283070 1234784
3713.30 1225851 1242623 1262466 1293441 1303992 1350243
3716.19 1381507 1382506 1367303 1354726 1316164 1315374
3719.08 1324049 1333243 1330483 1317183 1322487 1355435
3721.97 1381633 1354618 1377048 1387529 1344884 1311667
3724.87 1293482 1293339 1368386 1400960 1362049 1353245
3727.76 1336182 1301106 1283583 1314004 1329419 1316427
3730.65 1344114 1429475 1485065 1434256 1361398 1384865
3733.54 1421150 1415492 1408391 1383034 1376094 1446641
3736.44 1438535 1324353 1256204 1286161 1290448 1249585
3739.33 1205928 1191978 1199243 1175311 1088601 1039845
3742.22 1048017 1066232 1078248 1192499 1283298 1093104
3745.12 915633 888229 879475 851613 811154 802790
3748.01 839508 978832 1064209 901325 776141 744461
3750.90 773632 936332 969313 809151 722677 704562
3753.79 670420 636124 616078 611355 681700 731302
3756.69 708817 685118 668615 654034 669572 718825
3759.58 739137 691557 686580 660018 618380 589084
3762.47 600373 623847 611071 605462 621717 654805
3765.36 651539 592912 551351 542402 586360 613720
3768.26 626571 634396 671698 622916 544877 581646
3771.15 593000 582037 588447 579528 545252 548783
3774.04 554205 533870 531856 579444 576986 559956
3776.94 592628 619439 608526 639993 652236 631935
3779.83 603794 561535 567954 599620 582430 558880
3782.72 575238 619370 621438 600557 590289 573662
3785.61 548598 533053 550939 581292 577913 553127
3788.51 519802 515132 528039 562992 595813 571484
3791.40 522258 504751 527545 554789 532201 514891
3794.29 513200 533573 547415 592409 599298 569659
3797.18 567879 541235 528039 550297 547068 545509
3800.08 566144 731546 815863 665964 604481 586549
3802.97 518856 510324 544794 533341 548126 563580
3805.86 612147 682594 665119 566604 542560 522791
3808.76 520916 572943 602624 586199 586222 587809
3811.65 558419 570729 591334 589861 598762 620711
3814.54 650926 715877 857350 796663 690296 661761
3817.43 641728 664907 663343 627104 676725 764587
3820.33 781813 766608 776843 692101 662227 716003
3823.22 741817 729195 736924 782382 807553 783490
3826.11 842175 882766 825073 807027 875487 892131
3829.00 859060 898009 938417 967569 1053419 1101559
3831.90 1071261 1083067 1077483 1103709 1171246 1265033
3834.79 1315322 1310261 1254029 1251910 1381359 1621230
3837.68 1615431 1490649 1483495 1527922 1557643 1589819
3840.58 1640953 1612042 1576145 1567670 1602385 1670738
3843.47 1728176 1778846 1751115 1735952 1782968 1758437
3846.36 1756231 1776969 1795072 1825766 1828381 1826695
3849.25 1808148 1794304 1805012 1846618 2012101 2169535
3852.15 2086465 1998561 2135023 2324963 2226753 2061480
3855.04 2032716 2028558 2023138 2056657 2077702 2085660
3857.93 2090246 2034746 2014598 2016310 2016280 1990841
3860.82 1985769 1995549 1932097 1854120 1781296 1757227
3863.72 1801060 1843992 1864737 1757860 1665742 1620830
3866.61 1594252 1594562 1615161 1638437 1690976 1719291
3869.50 1741309 1630032 1526345 1570144 1565561 1508154
3872.40 1498444 1483183 1478291 1531677 1497099 1440806
3875.29 1458708 1475746 1449053 1431568 1408988 1400307
3878.18 1406246 1411995 1429585 1447849 1409510 1369414
3881.07 1346346 1322220 1284338 1270212 1260310 1232587
3883.97 1212972 1251029 1333515 1306381 1225023 1230419
3886.86 1217309 1197101 1173836 1140874 1137252 1149314
3889.75 1155519 1165473 1211578 1175754 1111942 1102053
3892.64 1125461 1146444 1112538 1076989 1076575 1068119
3895.54 1091486 1087494 1067288 1054409 1029025 1057638
3898.43 1087870 1111411 1090140 1054472 1004715 1030496
3901.32 1091116 1045192 972339 974513 1053545 1109555
3904.22 1025350 922006 914454 939236 931924 905015
3907.11 937055 937829 888899 866394 877637 888769
3910.00 895646 912015 906364 870120 812422 831543
3912.89 867652 864394 825362 827555 812432 821894
3915.79 818288 799946 859574 853459 823337 825613
3918.68 847931 836059 793384 763631 763716 785682
3921.57 814121 800576 766409 761702 746319 739920
3924.46 730092 705877 687885 703251 725905 716228
3927.36 712757 681930 685113 717507 701395 705117
3930.25 692630 650489 666120 697351 715139 706766
3933.14 704744 679255 664177 663609 654809 638659
3936.04 656768 651284 645044 611594 559455 549166
3938.93 586961 626656 626216 595787 591087 615271
3941.82 627124 630091 593815 581495 598795 606414
3944.71 566739 564430 543560 540107 607777 618959
3947.61 557603 541687 554685 520702 509383 556245
3950.50 531323 490398 453000 489342 564902 560274
3953.39 540838 527419 553487 568289 546983 524565
3956.28 517955 508829 510339 529055 510509 485883
3959.18 496350 524063 526151 505908 509729 522963
3962.07 508304 488862 540647 577430 515782 491180
3964.96 494235 525171 532330 542248 555393 541907
3967.86 535148 530256 489628 493392 573951 597999
3970.75 566271 577033 567851 573203 604471 621399
3973.64 589110 568232
##END=
