##TITLE=Butane
##JCAMP-DX=4.24
##DATA TYPE=INFRARED SPECTRUM
##CLASS=IUPAC A
##ORIGIN=NIST, Analytical Chemistry Division, 301-975-3108
##OWNER=COPYRIGHT (C) 2000 by the U.S. Secretary of Commerce
##DATE=00/02/01
##$SPECTRA VERSION=1.10
##$UNCERTAINTY IN Y=2.0 % relative (B=1.0E-04,C=-1.9E-11,D=8.7E-15)
##CAS NAME=Butane
##CAS REGISTRY NO=106-97-8
##MOLFORM=C4 H10
##MP=-138.35 C
##BP=-0.5 C
##$NIST SOURCE=QUANT-IR
##SPECTROMETER/DATA SYSTEM=IFS66V (Bruker)
##INSTRUMENT PARAMETERS=KBr Beam Splitter; MCT Detector; Multipass cell
##STATE=gas
##SAMPLE DESCRIPTION=Butane Primary Gas Standard
##PRESSURE=101.3 Pa
##TEMPERATURE=23 C
##SAMPLING PROCEDURE=1 L/min Flow
##RESOLUTION=0.9640
##DATA PROCESSING=3-Term B-H Apodization
##XUNITS=cm-1
##YUNITS=(micromol/mol)-1m-1 (base 10)
##XFACTOR=1.0
##YFACTOR=9.0949E-13
##DELTAX=0.4820
##FIRSTX=575.17
##LASTX=3974.605
##FIRSTY=-3.83E-07
##MAXX=3974.12
##MINX=575.17
##MAXY=.0008723
##MINY=-5.54E-07
##NPOINTS=7052
##XYDATA=(X++(Y..Y))
575.17-422004-176564-116305-162813-52043 185167
577.58 365674 295557-64492-420265-478650-363240
580.47-313613-274584-200787-146829-110797-47845
583.37 62887 227811 248754 99767 3981-50321
586.26-95350-60151 92607 213781 190285 58268
589.15-95576-211003-226045-163240-112068 17995
592.04 116977-50936-216512-162899-63821-86438
594.94-197391-235767-155536-58114-24159-18901
597.83-70591-128283-139799-133175-145499-145453
600.72-95494-83573-113318-129866-114674-100054
603.62-112439-113815-121235-115458-68436-34305
606.51-27227-56182-101620-79793-61665-109212
609.40-193669-292181-295345-226072-177387-149310
612.29-128408-125705-128912-86911-69739-135689
615.19-208175-233872-211474-202208-213368-152480
618.08-76115-84668-60200-925-52327-87751
620.97-17692-26665-96181-78512-48788-65191
623.86-95027-105472-111578-159383-181857-92811
626.76-22152-76934-180553-229974-173620-51719
629.65 15321-2846-56382-104032-89594-19906
632.54 7143-45208-121979-142093-154431-169292
635.44-160158-183777-189012-144962-116392-92228
638.33-59156-34124-46774-75653-84693-80170
641.22-40252-28034-80928-119042-146458-139478
644.11-72515-48418-85861-88333-62703-104578
647.01-142609-130314-126023-111970-62810 2428
649.90-731-76152-94632-52244-33535-61132
652.79-127560-189463-231631-228873-189095-168983
655.68-144896-94171-48602-25823-29670-11823
658.58 1858-61025-164342-183048-115951-60135
661.47-60389-82855-44611 14229 27836 17525
664.36-12781-38525-28203-44919-169614-438495
667.26-609650-471142-223674-61398 24855 31637
670.15-2929 17434 41190 31038 20285 31307
673.04 42862 21475 37799 91770 104336 98105
675.93 79657 56617 88278 146114 162498 142315
678.83 115907 130031 173253 200296 228887 264232
681.72 256245 245671 274953 295000 304563 312393
684.61 313199 346181 420366 449390 432691 450600
687.50 465333 500161 571041 605021 609422 652548
690.40 762476 844531 863949 896504 919715 931930
693.29 950775 956242 1013528 1095945 1128344 1127723
696.18 1148663 1242384 1352761 1438804 1517897 1601547
699.08 1703383 1791013 1818913 1834744 1898050 1988278
701.97 2053127 2118320 2206844 2298013 2396425 2491720
704.86 2563610 2634117 2674493 2703940 2798222 2926266
707.75 3069202 3195672 3282393 3377501 3458884 3518130
710.65 3608313 3716199 3831261 3982317 4110562 4219535
713.54 4309225 4358890 4484328 4606542 4615001 4642789
716.43 4700408 4780165 4939068 5041872 5059622 5110779
719.32 5170868 5299833 5464734 5530262 5626216 5761589
722.22 5831097 5904078 5964277 6038593 6173089 6263490
725.11 6387425 6590175 6687421 6738025 6823165 6914185
728.00 7138366 7453540 7821602 8354214 9045362 9957751
730.90 11033876 11924250 12336083 12065039 10941167 9549514
733.79 8914428 9103479 9483289 9587783 9446255 9320199
736.68 9308561 9430407 9575545 9672678 9788218 9818046
739.57 9811053 9844600 9821050 9840688 9817247 9691582
742.47 9629862 9543688 9498180 9511720 9453802 9556617
745.36 9944933 10711238 11722595 11824780 11175140 11200589
748.25 11466370 11379479 11285670 11101466 10615103 10131804
751.14 9863788 9608475 9361289 9231931 9120767 8971500
754.04 8892598 8858920 8800637 8758372 8729769 8723476
756.93 8720408 8636642 8537428 8462296 8351651 8272146
759.82 8220668 8109617 7973406 7843486 7705118 7527895
762.72 7333926 7146571 6944017 6771965 6623948 6442689
765.61 6255598 6075278 5888619 5713075 5565664 5432947
768.50 5228587 4996235 4856357 4741517 4570939 4411151
771.39 4305982 4201354 4082471 3992834 3919725 3840260
774.29 3793499 3776916 3709841 3617549 3573437 3542118
777.18 3495109 3467533 3438395 3390093 3360551 3329441
780.07 3285429 3239291 3168009 3108066 3062655 3015063
782.96 2966957 2892895 2811406 2717793 2620000 2522521
785.86 2369231 2204047 2068888 1978079 1940180 1931322
788.75 1930467 1912695 1910325 1967005 2044580 2082919
791.64 2107843 2162512 2243013 2319545 2372653 2384031
794.54 2336848 2281411 2277857 2275769 2227378 2147732
797.43 2067742 1997942 1940007 1910180 1888420 1843703
800.32 1787903 1746619 1698593 1658194 1612000 1550275
803.21 1524241 1518544 1478582 1392723 1317366 1295172
806.11 1286863 1211217 1105565 1042590 1007754 967905
809.00 906138 864494 869928 836253 749152 698707
811.89 686152 666086 649312 669576 663245 599171
814.78 529500 468352 447347 467197 476984 454598
817.68 402593 362955 331835 260243 224430 267728
820.57 300995 275752 212858 169532 185369 201621
823.46 170152 138617 124651 121594 122861 112039
826.36 125311 134727 83464 41887 47310 79567
829.25 93184 45090-9475-28065-27474-31278
832.14-36665-23340 7484 20993-8142-17831
835.03 20037 22192 4567 20039 21063 6158
837.93 9623 9843-27284-72191-96258-71776
840.82-15068 18848 5978-27054-18687 12768
843.71 37425 53650 50975 35648 33672 34580
846.60 804-36233-31008-25038-36315-47892
849.50-73956-67142-21725-21666-32553-16412
852.39-16407-34781-46334-43784-30813-26721
855.28-12437 6889 928 15816 23107-10653
858.18-36215-54565-58267-18067 29887 18648
861.07-37300-56145-36286-22094-1656 27922
863.96 31861 10345-12043-22995-16132-3958
866.85-13103-49857-64613-32865-10919 4947
869.75 28442 19695 7562 12050 9708 1062
872.64-13768-31379-31171-20629-18856-24149
875.53-34082-40229-42654-35036-19190-23447
878.42-26593-7577 8904-9764-51200-56728
881.32-17605 25821 30768 457-31557-44914
884.21-33276-18679-21058-25620-30218-28816
887.10-24783-31662-38096-43164-61422-76151
889.99-60641-42622-52897-66143-61657-58238
892.89-52762-23174 9023 13728-10453-31073
895.78-34751-35106-26006-16285-16338-25660
898.67-25364-29028-44939-25243 24102 47230
901.57 41156 29085 33343 49304 30327-5837
904.46-1323 42550 84064 106792 118686 118242
907.35 110535 118511 134216 146699 169462 184505
910.24 196567 208863 211788 221804 232285 256042
913.14 279671 284359 285598 297547 336293 395926
916.03 435525 445826 462291 487925 510786 551988
918.92 600632 623536 644937 691120 732957 754064
921.81 773636 827584 918896 998943 1042278 1071214
924.71 1122882 1201920 1280043 1345774 1404405 1480504
927.60 1577397 1654723 1713337 1805828 1917099 2023706
930.49 2128344 2237480 2378737 2524782 2638791 2783715
933.39 2965869 3135251 3316790 3516688 3699917 3882612
936.28 4079896 4307374 4563362 4798049 5039293 5341533
939.17 5633302 5897970 6189048 6503353 6820885 7133069
942.06 7427441 7759027 8163322 8540193 8854346 9190417
944.96 9553598 9951276 10392139 10795542 11246949 11815267
947.85 12160324 12246011 12396910 12597072 12720398 12821090
950.74 12997193 13169157 13355090 13674978 14069062 14615900
953.63 15387334 16407217 17952627 20138947 22346707 22857481
956.53 21090548 18819594 17270603 16586336 16631253 16950776
959.42 17219312 17457903 17686837 17901590 18130676 18375662
962.31 18640131 18901418 19008661 18957667 19192204 20093306
965.21 21161948 21741255 21785640 21462312 21092688 20855417
968.10 20734258 20623593 20532784 20499577 20459375 20464519
970.99 20406088 20177889 19913900 19614694 19281612 18962140
973.88 18581563 18195409 17873761 17502466 17160387 16881671
976.78 16526698 16120943 15657097 15113862 14599414 14105569
979.67 13617696 13230690 12916491 12626338 12425035 12184879
982.56 11786539 11462227 11274607 11031903 10841331 10764421
985.45 10499731 10086194 9809229 9669856 9531187 9301960
988.35 9085349 8923015 8737470 8523300 8285533 8058277
991.24 7872878 7680073 7462857 7245153 7023086 6793648
994.13 6554142 6319196 6099908 5889528 5690906 5484334
997.03 5269586 5061638 4860579 4666124 4454075 4218290
999.92 4015117 3849015 3684712 3529860 3409977 3309368
1002.81 3197127 3061242 2931141 2838952 2752865 2638810
1005.70 2513968 2390356 2272920 2194461 2147015 2091907
1008.60 2029497 1962098 1895423 1839628 1785260 1717586
1011.49 1643493 1589137 1542714 1486595 1427225 1369916
1014.38 1325164 1282584 1245471 1217541 1162585 1096146
1017.27 1062870 1047086 1031652 1006911 964923 919404
1020.17 881658 847679 830045 833598 815271 752248
1023.06 693640 661458 627180 620489 642226 624457
1025.95 585626 565209 550381 538505 509397 470613
1028.85 461228 460328 449074 445601 455737 477159
1031.74 491289 482118 457810 422296 389287 381895
1034.63 394782 384293 365714 369903 364624 319909
1037.52 272523 266900 291760 293037 264461 229897
1040.42 206572 211455 220408 201485 173456 159721
1043.31 137599 93000 66832 90281 128142 133339
1046.20 112367 97812 110067 107539 79987 73660
1049.09 78430 81754 94370 107328 101502 81175
1051.99 64942 59248 60354 76131 91132 94186
1054.88 97874 102099 104297 101771 94702 92992
1057.77 91737 72428 63699 100368 132679 120618
1060.67 108413 105550 105707 130085 155344 167394
1063.56 180302 184036 185342 182661 169351 165715
1066.45 180454 182541 167021 167760 183382 191290
1069.34 185032 188674 213967 239629 254345 239628
1072.24 219467 231607 254020 268001 251214 216843
1075.13 208455 211032 209961 224451 222664 185125
1078.02 140873 135263 156237 162403 164383 190619
1080.91 232821 265498 276667 281440 271434 262776
1083.81 294720 316149 307211 290510 272694 271497
1086.70 273766 275371 289274 305525 321582 331100
1089.59 317064 294133 287490 298034 314581 311707
1092.49 284053 264914 274052 285600 277935 242901
1095.38 215140 209313 213621 233626 263722 288096
1098.27 282847 268904 257985 241766 243527 252505
1101.16 250487 263041 292525 306610 307643 320135
1104.06 340734 351203 361390 377923 393236 403158
1106.95 421549 445126 463693 489433 519897 544028
1109.84 571481 622163 687197 746419 802721 856423
1112.73 906949 961164 1023352 1100106 1182194 1283212
1115.63 1386454 1457344 1534906 1651026 1770814 1860872
1118.52 1945920 2040527 2135338 2245318 2356656 2427415
1121.41 2498648 2600092 2675049 2718808 2783546 2858268
1124.31 2894096 2918962 2961721 2993329 2997234 3001167
1127.20 3037906 3101959 3151458 3167617 3150521 3120705
1130.09 3098744 3079134 3087952 3132558 3196425 3327522
1132.98 3532393 3703983 3819915 3877593 3801184 3660014
1135.88 3399738 2797309 2115765 1785356 1793579 1930997
1138.77 2092039 2263514 2440218 2612744 2771109 2903176
1141.66 3019015 3121492 3176715 3177024 3153115 3114583
1144.55 3042643 2939603 2825403 2720659 2612313 2484936
1147.45 2351285 2226341 2099561 1960595 1828151 1696450
1150.34 1578098 1478024 1377096 1276557 1169745 1072491
1153.23 990484 921369 840618 731631 652571 616568
1156.13 584885 536675 469411 408893 363489 340000
1159.02 339363 326896 281523 241062 230753 218170
1161.91 198411 193726 199745 212035 214272 197475
1164.80 167019 138934 137789 151463 160195 157869
1167.70 142361 135321 137990 142541 148970 144846
1170.59 139198 153677 181233 195377 198903 207230
1173.48 212889 217825 230015 230869 223648 220942
1176.37 210831 196541 190883 183581 176329 184588
1179.27 185583 184668 211244 232261 223100 214626
1182.16 223448 223316 205664 193396 191538 196358
1185.05 203576 199386 192062 203586 218285 212257
1187.95 200910 193617 189281 208754 227516 219190
1190.84 214445 213452 194815 181367 187348 195795
1193.73 211551 235164 236929 215786 202315 196923
1196.62 196097 212150 239217 242028 208837 182139
1199.52 196792 226855 240419 238332 228160 215441
1202.41 193805 173778 185832 227172 252728 254633
1205.30 240409 213699 205865 232072 264766 278842
1208.19 269131 253632 259235 266277 259039 261085
1211.09 271020 271580 276849 284783 289179 293483
1213.98 302896 321734 328215 318114 322328 344238
1216.87 349987 349741 368400 375060 370885 370013
1219.77 381183 403608 412150 420120 436306 454347
1222.66 463615 464161 476642 488763 495217 506415
1225.55 521648 532301 532497 540554 550588 554138
1228.44 578560 611266 615058 607592 613316 627011
1231.34 649564 673260 689919 698488 709176 724421
1234.23 749216 781431 800365 822556 848110 857762
1237.12 863289 879305 901496 923418 937134 952956
1240.01 975825 1006303 1038172 1061656 1082028 1111319
1242.91 1137750 1154223 1170313 1179444 1190501 1214224
1245.80 1251064 1299911 1341619 1370723 1406274 1446311
1248.69 1475518 1499984 1525250 1550200 1578070 1607802
1251.59 1640286 1670486 1700497 1718324 1711783 1708441
1254.48 1715999 1721868 1747717 1782336 1803806 1826877
1257.37 1857193 1880078 1887441 1874157 1852864 1862180
1260.26 1898642 1958469 2050426 2186108 2310850 2257260
1263.16 2070643 1963856 1971762 2021973 2086871 2157906
1266.05 2208918 2250182 2302254 2365446 2420477 2473749
1268.94 2528094 2579645 2645759 2725837 2822033 2935527
1271.83 3039977 3132899 3256995 3422568 3592041 3757545
1274.73 3935127 4124919 4309463 4506996 4753332 5024861
1277.62 5287771 5553088 5838160 6141726 6443858 6749068
1280.51 7054764 7345159 7647192 7960270 8223739 8426488
1283.41 8601042 8765369 8916709 9042609 9114507 9107261
1286.30 9039061 8916884 8739319 8516580 8247711 7958145
1289.19 7634228 7244803 6881787 6709212 6822960 7151916
1292.08 7609227 8311447 9309955 10251200 10638100 10209886
1294.98 9039337 7800072 7177446 7153636 7421664 7794496
1297.87 8167237 8517075 8853111 9161505 9448793 9671900
1300.76 9746923 9683539 9555797 9396597 9216445 8974411
1303.65 8660974 8357897 8064089 7739976 7393603 7045822
1306.55 6698742 6337248 5955049 5599609 5287781 4974587
1309.44 4647816 4332569 4051192 3812110 3589901 3369180
1312.33 3163397 2963263 2776204 2609893 2450254 2320016
1315.23 2219135 2125419 2043715 1977969 1924306 1888001
1318.12 1866597 1855747 1859665 1874707 1903566 1944935
1321.01 2003024 2079480 2160953 2256869 2358586 2451008
1323.90 2560719 2702986 2858069 2994941 3109931 3237601
1326.80 3390313 3547221 3696957 3850442 4008839 4153383
1329.69 4283951 4422676 4560201 4680606 4773477 4848837
1332.58 4913320 4952358 4962944 4927946 4854129 4778098
1335.47 4702318 4624811 4541181 4451176 4364378 4277765
1338.37 4195499 4159128 4191167 4317470 4575874 4999660
1341.26 5617290 6389144 7163322 7727032 7813065 7134847
1344.15 5732133 4409511 3842192 3791265 3894814 4069820
1347.05 4320173 4618458 4887002 5087072 5283565 5557095
1349.94 5894066 6214367 6455725 6636012 6793719 6942317
1352.83 7068439 7139733 7154888 7181148 7223970 7249817
1355.72 7275384 7320722 7340759 7318026 7327359 7381532
1358.62 7439980 7532945 7650668 7798531 8003357 8236723
1361.51 8504472 8833431 9200046 9588528 10034494 10560869
1364.40 11139356 11740427 12381913 13086304 13819550 14587967
1367.29 15416964 16306071 17252597 18229041 19194296 20181857
1370.19 21203992 22237458 23250364 24223591 25197933 26172861
1373.08 27114416 27970936 28656295 29221622 29732291 30097060
1375.97 30317152 30438897 30362575 30143219 29914978 29600805
1378.87 29117920 28620283 28270337 28228134 28700508 30136120
1381.76 33550689 38523487 41461785 40821104 38624628 36377785
1384.65 34146972 31469797 29049196 27787061 27689374 28404019
1387.54 29772622 31643337 33608772 35520024 37523138 39414440
1390.44 40738326 41512773 42129146 42636291 42898631 42888910
1393.33 42649909 42173018 41488844 40606612 39525109 38301131
1396.22 36949806 35473074 33939960 32355798 30736170 29115255
1399.11 27503337 25954374 24473228 23044258 21682135 20350801
1402.01 19111753 18003089 16961157 16003319 15158372 14372505
1404.90 13649939 13004058 12402586 11852106 11375495 10972627
1407.79 10623758 10310271 10055450 9876126 9750628 9587521
1410.69 9369773 9169736 9011500 8900406 8845870 8798377
1413.58 8737463 8705561 8709647 8718796 8722317 8726985
1416.47 8738421 8747406 8773665 8837195 8965495 9113471
1419.36 9180926 9228387 9326336 9446549 9593047 9774087
1422.26 9998799 10238743 10472666 10721144 10974411 11244327
1425.15 11547524 11877786 12248752 12615410 12990744 13436790
1428.04 13884487 14303246 14745840 15204733 15716248 16272871
1430.93 16780413 17339845 18053627 18752577 19415431 20154847
1433.83 20954137 21736268 22561448 23478695 24381168 25295605
1436.72 26285281 27276567 28240869 29305493 30478234 31583511
1439.61 32732593 33951127 35016359 36182423 37538627 38836592
1442.51 40128051 41333867 42505149 43627567 44511883 45473788
1445.40 46545986 47520781 48492574 49439047 50464816 51370143
1448.29 52131554 53038046 53789947 54579681 55437124 56165308
1451.18 57343277 58663076 59741706 60551510 61193959 62212011
1454.08 63077316 63602719 64396734 65242674 65671859 65485306
1456.97 65514953 66483492 67709628 69305535 71116481 73099593
1459.86 75863534 79564319 85080241 90847260 92272590 88577883
1462.75 84349092 83007371 84882585 89538759 96833611 105897162
1465.65 109655076 102416049 92252926 85347404 80701604 78386271
1468.54 77641402 78147428 80124645 82974490 85747090 86271071
1471.43 82665975 76176697 70394490 66726229 63378268 60336624
1474.33 59060090 58915155 59040983 59431467 60284976 61684907
1477.22 62795772 63552116 64551070 65122235 65265300 65531839
1480.11 65269676 64766745 64702709 64014477 62787891 62167865
1483.00 61348154 60032578 59063788 58073730 56875829 55714127
1485.90 54332634 53140375 52154877 50689914 49240886 48126653
1488.79 46823229 45536484 44380103 42960405 41592620 40456403
1491.68 39213256 37999211 36926988 35781440 34568222 33556878
1494.57 32567103 31430515 30521650 29628542 28521230 27632702
1497.47 26902346 25964917 25087986 24357648 23517577 22727040
1500.36 22020133 21277152 20589939 19938048 19272473 18631813
1503.25 17952886 17369407 16858311 16293907 15778037 15232736
1506.15 14689628 14206155 13615786 13030265 12578998 12124976
1509.04 11641476 11241595 10799414 10334458 10010086 9671620
1511.93 9245255 8906238 8599191 8201463 7878845 7619475
1514.82 7259485 6929793 6711403 6465302 6200916 5955877
1517.72 5683212 5422251 5206186 5025280 4855526 4703910
1520.61 4587592 4380093 4102514 3911186 3737994 3518926
1523.50 3344829 3253718 3180260 3071047 2916232 2772213
1526.39 2661166 2551511 2443141 2344279 2243944 2137598
1529.29 2031266 1951630 1895252 1832787 1768416 1716942
1532.18 1685466 1663046 1638389 1571369 1463061 1387432
1535.07 1352659 1322018 1285685 1258731 1240099 1226863
1537.97 1280112 1366159 1333387 1278719 1264863 1189315
1540.86 1148785 1190569 1166085 1073940 1027671 1012980
1543.75 1006015 1020982 1023303 983458 948601 951301
1546.64 971407 975505 963347 967647 988859 1004919
1549.54 1005017 993593 983690 987103 1002427 1021743
1552.43 1041377 1066544 1126765 1182604 1157582 1104125
1555.32 1083707 1093333 1146452 1238856 1314739 1396914
1558.21 1428840 1386050 1425317 1477785 1397862 1299911
1561.11 1286862 1299371 1304479 1302950 1300933 1323198
1564.00 1370608 1415215 1431864 1441038 1472815 1499188
1566.89 1510251 1520961 1540949 1581814 1641754 1671060
1569.79 1644107 1620467 1626113 1634763 1646713 1684202
1572.68 1727156 1722711 1692936 1694651 1738257 1857778
1575.57 1983290 1926845 1785372 1735079 1737554 1731761
1578.46 1711525 1692651 1681727 1679592 1681383 1680757
1581.36 1675581 1651710 1621589 1608461 1619810 1634546
1584.25 1619548 1587909 1577456 1592335 1599057 1582666
1587.14 1561172 1558375 1563283 1551897 1536562 1537795
1590.03 1539456 1526401 1514336 1499599 1467768 1439883
1592.93 1428944 1416113 1398652 1376684 1348424 1323626
1595.82 1317286 1317219 1288917 1253993 1245376 1240014
1598.71 1216877 1181970 1159093 1142966 1122756 1104359
1601.61 1087071 1066926 1042144 1026559 1010230 979707
1604.50 956175 945266 949710 965748 969385 965369
1607.39 969738 969884 956790 949906 961853 964143
1610.28 949733 951009 968293 978795 977325 976701
1613.18 985853 985807 982836 1005171 1053056 1143667
1616.07 1244054 1206999 1099520 1063486 1053187 1040205
1618.96 1034870 1022741 1006404 998360 990497 966384
1621.85 946253 960806 996354 985259 926070 895238
1624.75 914539 953137 985808 1021442 1060731 1090005
1627.64 1094454 1086116 1087373 1101086 1117138 1122345
1630.53 1120434 1135846 1178099 1207327 1213453 1219178
1633.43 1221939 1247886 1314316 1376640 1353794 1257427
1636.32 1196820 1187156 1183548 1171105 1164686 1154563
1639.21 1139001 1131863 1131563 1126139 1110353 1094878
1642.10 1088955 1083280 1084253 1106823 1134806 1170878
1645.00 1254431 1313565 1262745 1211283 1223053 1240086
1647.89 1242050 1237241 1237111 1227850 1216613 1223952
1650.78 1268390 1394831 1558943 1659008 1675999 1566518
1653.67 1456508 1436203 1397407 1358016 1359203 1379295
1656.57 1393994 1391960 1404666 1426669 1415587 1403753
1659.46 1428082 1451000 1452399 1460192 1487366 1530914
1662.35 1533159 1478991 1454188 1462721 1453661 1445015
1665.25 1461504 1481656 1490240 1507260 1541989 1579386
1668.14 1631005 1708835 1727952 1677062 1642021 1646081
1671.03 1658124 1639186 1608507 1593750 1582318 1568844
1673.92 1585937 1648639 1674201 1593225 1489283 1437609
1676.82 1419604 1402588 1390564 1390210 1386604 1395998
1679.71 1419344 1439875 1450169 1441829 1437136 1473324
1682.60 1529796 1561257 1634005 1778147 1800827 1641457
1685.49 1508145 1461235 1435395 1405102 1385158 1379858
1688.39 1369463 1361426 1373532 1379582 1364497 1335330
1691.28 1311149 1293789 1277306 1279005 1286510 1286485
1694.17 1305275 1386520 1509415 1504892 1368831 1289865
1697.07 1272460 1252995 1246236 1280370 1384148 1487746
1699.96 1484868 1392852 1289760 1247293 1252068 1251069
1702.85 1231257 1232097 1250136 1237803 1226938 1256999
1705.74 1282058 1266256 1236494 1213509 1207899 1224439
1708.64 1238259 1244994 1246096 1219738 1185610 1182056
1711.53 1202357 1221712 1219025 1207285 1203332 1221581
1714.42 1254079 1244827 1203539 1190603 1264775 1354915
1717.31 1288081 1187361 1170791 1149857 1122077 1116940
1720.21 1117976 1109512 1092871 1075535 1068736 1073891
1723.10 1077208 1069995 1070518 1068468 1039890 1010596
1725.99 985509 948910 916520 896184 890954 896872
1728.89 901029 896956 887019 873315 858334 857627
1731.78 863662 895977 959000 966384 965742 942416
1734.67 813305 709922 689495 688046 667489 636057
1737.56 613104 597759 609516 647359 635846 572631
1740.46 530893 514471 495142 487199 496933 491162
1743.35 459849 419763 398786 405086 412760 412296
1746.24 408614 397415 381910 379300 386702 392327
1749.13 384829 362145 373365 429008 440036 379997
1752.03 327057 306249 302973 304461 294823 283450
1754.92 287983 305311 329408 333151 304746 283663
1757.81 285593 285384 275242 278077 282944 282061
1760.71 315915 369905 362875 307612 281885 285003
1763.60 282391 278146 276729 279310 286728 288491
1766.49 292880 307177 326162 317687 293919 292032
1769.38 285806 278561 299156 317568 326467 380420
1772.28 412060 346981 292877 301008 306710 303207
1775.17 311193 318947 327420 328059 320942 322660
1778.06 322488 318529 322783 343767 370632 369871
1780.95 356933 363856 378436 382559 370661 358090
1783.85 367948 395160 391059 355987 339857 344165
1786.74 351803 365588 379528 391172 400017 392604
1789.63 387053 403772 407292 392927 425098 479254
1792.53 463093 413258 394876 390173 398041 422220
1795.42 440320 440057 436850 432203 427536 428810
1798.31 431101 444272 452408 437886 427938 432254
1801.20 439257 443987 430778 411420 416255 435126
1804.10 442421 432690 423310 423978 424773 422589
1806.99 423654 430502 438789 440369 434439 435686
1809.88 452083 457829 448434 444434 436258 422305
1812.77 425280 439219 441648 428442 417358 413401
1815.67 400671 391314 395546 390050 373440 376151
1818.56 386697 378136 366742 367855 370125 364877
1821.45 356893 351877 344595 331888 322169 326331
1824.35 341223 330883 296903 278239 278193 279128
1827.24 272355 266721 271475 274231 271449 255991
1830.13 223327 207735 200740 182262 173539 173443
1833.02 168574 149292 131419 134127 138231 126828
1835.92 114905 116278 115844 104758 93506 90778
1838.81 95269 93258 84649 80823 78129 70987
1841.70 63053 58718 67908 112802 161915 128869
1844.59 58966 35930 33098 27246 28903 40284
1847.49 42013 23380 2464-4593 1037 10996
1850.38 8159-3254-3219 2372 5295 6942
1853.27 916-13258-9905 4253-1171-8886
1856.17-4883-6971-9176 3968 16129 13056
1859.06 9269 5885-10267-16401-583 6694
1861.95 642-1920-5832-5000 2299 5246
1864.84 10022 15699 17808 18773 29364 40044
1867.74 34900 37713 50055 40217 30420 38858
1870.63 46255 47632 42956 38331 45887 57525
1873.52 62265 68754 82730 92818 93072 85961
1876.41 88989 103124 110905 108324 107347 122886
1879.31 145210 158939 162361 165302 175115 187858
1882.20 189910 178876 170790 174813 195407 224994
1885.09 242577 253528 263583 258421 247387 243396
1887.99 253544 280130 304275 310388 311662 321456
1890.88 330133 334474 340685 350543 364230 380643
1893.77 402563 421708 420128 413532 419833 427461
1896.66 434201 455668 481957 500160 503473 488944
1899.56 474900 480933 499398 507568 518608 532480
1902.45 532450 524872 511569 506091 509796 509859
1905.34 509580 510293 505312 502260 512391 525103
1908.23 528999 526333 521605 521043 516974 499980
1911.13 485627 482241 482690 491645 508465 521555
1914.02 525954 519309 506543 493157 482321 483335
1916.91 512012 552131 556329 542570 548197 556280
1919.81 541794 516498 508656 523301 540509 535182
1922.70 515879 505175 504037 496087 479348 469532
1925.59 465732 457038 444118 431913 417769 409926
1928.48 412843 414114 409849 406956 412502 411611
1931.38 396759 383266 383386 392484 390108 366951
1934.27 340195 337774 353439 360204 361438 363983
1937.16 357166 337446 309169 279512 267218 266424
1940.05 270407 275605 276512 278094 266879 235728
1942.95 205715 198626 202882 205692 213230 217205
1945.84 207524 190560 190349 203367 199205 187825
1948.73 189188 192215 183404 169377 164538 165475
1951.63 162629 149219 130481 119803 120775 116756
1954.52 98731 88622 88500 81307 71901 51169
1957.41 28244 29062 39699 39924 27646 13558
1960.30 8807 10565 13944 18763 10810-5456
1963.20-5270 3769-2336-14371-12323-6068
1966.09-10457-26389-36727-29979-17560-14952
1968.98-31473-56343-65922-56009-45609-49208
1971.87-56418-55652-50947-59146-73164-66865
1974.77-43632-32853-34817-35190-47608-66940
1977.66-76033-75839-63459-60347-67284-57578
1980.55-43265-44009-54083-61151-55846-53891
1983.45-66008-69400-55813-49204-56965-68337
1986.34-71176-61078-49408-49461-48019-44227
1989.23-50911-54865-49991-49188-48172-38137
1992.12-26177-26453-41959-53300-50331-41787
1995.02-35556-28251-19498-29722-52580-53356
1997.91-32419-18820-24882-32569-22892-10665
2000.80-11022-14105-14414-12166-8385-6477
2003.69-263 3927 1816 9779 24403 26869
2006.59 14574-4843-11054 14469 45673 48622
2009.48 38127 32429 34362 40292 43718 55513
2012.37 75512 83593 87365 93809 96447 106124
2015.27 119562 130560 157753 196283 217046 214155
2018.16 210331 223949 245403 271119 296058 312297
2021.05 319768 330033 358211 398488 428591 449221
2023.94 467748 483398 507422 529308 540495 548442
2026.84 562995 582038 601387 626465 649437 669083
2029.73 682964 677442 664437 666956 673797 674661
2032.62 676741 666333 647271 633828 620793 618925
2035.51 651347 713994 769059 795351 791245 735797
2038.41 659928 624573 636599 664072 678809 685685
2041.30 694858 707653 735624 775552 807592 823116
2044.19 819776 812644 821616 829513 812595 785536
2047.09 770687 758604 734184 706308 687716 671888
2049.98 654523 622443 582969 565200 555329 538040
2052.87 522470 500393 469719 441807 412788 377843
2055.76 351609 338326 336044 334408 315973 285536
2058.66 267929 275720 280012 267717 260678 260456
2061.55 254393 234237 206604 199878 215601 222293
2064.44 204735 176766 159263 158185 161138 159372
2067.33 155491 157771 164609 163653 157938 150189
2070.23 149940 168944 182941 180575 179325 179648
2073.12 165973 149315 148211 154835 165559 178705
2076.01 169167 149004 154583 170713 174124 164239
2078.91 158391 161489 164772 174864 194424 214055
2081.80 216409 208501 205005 201567 203573 209349
2084.69 216318 242118 268619 254222 226030 214489
2087.58 209195 217295 239040 257771 285125 319021
2090.48 310223 276599 266738 265622 265840 277062
2093.37 293955 334686 383231 370453 334005 325726
2096.26 320152 310009 308855 332070 381923 400060
2099.15 364237 340174 342231 348804 361260 374421
2102.05 403035 458638 462713 415135 406693 412412
2104.94 404586 410571 430928 480658 528116 511909
2107.83 474274 441793 421722 434896 453455 481076
2110.73 542690 561994 515132 491859 504301 512447
2113.62 510418 524732 583191 630821 594540 533743
2116.51 517882 526953 535622 543820 578214 649738
2119.40 680533 653041 637259 631174 623741 632484
2122.30 666295 721731 745014 706250 670239 662956
2125.19 664255 660882 665796 709145 752092 724717
2128.08 682586 671701 650227 625870 628064 653441
2130.97 688772 687553 648367 626043 632529 648455
2133.87 657994 654299 660776 663398 649114 652691
2136.76 660231 660169 673030 691267 705705 704394
2139.65 688493 684386 694285 699442 700340 708613
2142.55 715635 711161 711632 713841 707415 714826
2145.44 731735 727816 713997 696256 675005 661372
2148.33 655195 656799 658017 669288 686347 668646
2151.22 642485 624751 606509 610768 638937 684136
2154.12 713871 688677 650695 635916 627710 627194
2157.01 659852 724596 733516 673234 640303 655825
2159.90 674631 687320 731254 783516 775777 741899
2162.79 730983 732167 736582 753414 807960 843972
2165.69 811180 771122 755013 759711 796549 883296
2168.58 968156 943198 855430 800897 776424 759852
2171.47 775052 841028 851863 778525 729698 722939
2174.37 729787 738869 784585 817829 759859 696885
2177.26 688936 703309 721792 770993 811999 766506
2180.15 707893 703004 711901 717223 751535 798992
2183.04 779358 728110 712101 707252 709784 744619
2185.94 802716 806099 770147 756308 733428 708931
2188.83 730303 780341 780844 727104 691142 691146
2191.72 694159 699538 732674 749434 725331 703943
2194.61 707724 717187 733662 750039 733328 718310
2197.51 728542 732302 738770 771924 796510 788702
2200.40 779298 771942 767611 779710 798150 790234
2203.29 764319 765284 768260 762597 790610 816435
2206.19 793895 766115 756810 751853 762165 785966
2209.08 804148 804173 789862 785910 803070 823170
2211.97 829988 810953 785119 779742 779437 768144
2214.86 753409 741913 736792 734947 730982 727252
2217.76 733572 749216 759578 761528 758434 754572
2220.65 752882 760611 766912 751286 734070 727380
2223.54 714806 701325 707027 725832 730596 713242
2226.43 686183 663464 653184 651833 647545 642132
2229.33 638159 629221 619695 610199 594541 584168
2232.22 584553 579506 575736 562466 535709 525662
2235.11 534783 536609 520627 498250 473245 457283
2238.01 449173 438787 439558 443624 439071 438883
2240.90 449478 462800 471201 471401 470643 467682
2243.79 467254 471441 470406 466332 464062 460470
2246.68 449371 435186 434144 449569 472631 496158
2249.58 511796 514773 506449 496143 501268 509576
2252.47 500015 490516 492233 501281 521430 533590
2255.36 528744 531525 545726 555316 563922 569955
2258.25 571899 576060 584015 594659 603117 603144
2261.15 602474 602701 604719 607882 612108 622431
2264.04 635346 632883 621660 623231 626815 629287
2266.93 631391 626961 619602 616015 608243 596000
2269.83 599705 610919 623431 631708 623393 611434
2272.72 598154 589318 608094 639740 662768 682382
2275.61 700837 716430 720717 712748 706363 709850
2278.50 726780 752003 780553 801340 807286 810269
2281.40 824306 846852 861097 862089 864017 866190
2284.29 865162 861563 867194 879320 882266 884915
2287.18 893441 896684 890370 878691 875978 886432
2290.07 898111 892013 888097 900875 904466 895925
2292.97 890863 890282 890803 891744 872298 838778
2295.86 831097 858501 892977 907644 919290 947621
2298.75 975672 988206 1000242 1031607 1068180 1082792
2301.65 1070618 1050030 1055111 1084050 1100720 1099533
2304.54 1111683 1115776 1105480 1079081 1046036 1044272
2307.43 1057183 1053377 1026320 1023159 1048365 1034168
2310.32 974447 954770 991474 989337 930170 901548
2313.22 941060 970985 934372 881867 918064 975143
2316.11 947243 881733 901585 957469 907390 802203
2319.00 826826 924674 894156 768816 792931 931492
2321.89 928911 818408 852272 968346 883491 695140
2324.79 739862 905622 834345 659961 747217 922098
2327.68 821134 658822 791911 953114 803409 675840
2330.57 867724 973270 758725 703448 961313 994261
2333.47 756238 800989 1028351 926688 745582 932064
2336.36 1086132 859162 764080 980625 961141 756973
2339.25 869392 1038688 879046 793000 988940 1008545
2342.14 860962 946052 1050705 934231 918923 1069993
2345.04 1090221 1052566 1132721 1192487 1177120 1210901
2347.93 1276746 1299614 1276898 1252593 1255781 1216405
2350.82 1150216 1179027 1180632 1062021 1055732 1086353
2353.71 946174 913510 964133 840266 845679 907383
2356.61 726845 724947 826028 673821 700345 768967
2359.50 608291 667567 693487 560948 681464 662856
2362.39 569355 697756 626766 602535 685719 594310
2365.29 656779 699669 677212 787895 780667 804295
2368.18 835025 814824 891468 906539 953164 1024386
2371.07 1072408 1149187 1169706 1209023 1254183 1305138
2373.96 1349080 1379007 1418805 1445791 1487578 1536253
2376.86 1590356 1631014 1661070 1687198 1712148 1744129
2379.75 1773237 1772425 1735940 1699767 1685541 1670287
2382.64 1636062 1598120 1565051 1521705 1473982 1433333
2385.53 1412238 1416391 1449028 1488084 1516850 1559212
2388.43 1621432 1676741 1637022 1492555 1383147 1367843
2391.32 1395848 1446807 1517405 1575431 1616312 1662536
2394.21 1711669 1757438 1798728 1833320 1863491 1882588
2397.11 1882160 1870771 1845508 1793912 1742879 1726346
2400.00 1698873 1640986 1591168 1542010 1478757 1406870
2402.89 1348079 1312494 1283628 1242654 1205613 1199180
2405.78 1216345 1249131 1279946 1285319 1275604 1253227
2408.68 1227319 1224960 1253290 1292135 1325964 1359576
2411.57 1394287 1435869 1483745 1519803 1541127 1568863
2414.46 1615030 1648479 1660213 1683060 1719976 1751255
2417.35 1771665 1785561 1776581 1751419 1735063 1722031
2420.25 1710944 1703746 1703058 1701926 1692831 1708053
2423.14 1744896 1766629 1777588 1793352 1826349 1869871
2426.03 1906158 1931651 1953138 1972920 1988471 2002767
2428.93 2025271 2056516 2086835 2102833 2102351 2112169
2431.82 2116160 2100736 2095189 2105718 2123918 2144546
2434.71 2157162 2146295 2104777 2064705 2042470 2028145
2437.60 2021638 2010432 1998270 2002035 2010202 1994711
2440.50 1954253 1917106 1885823 1846928 1809208 1789743
2443.39 1786868 1791427 1795242 1786661 1781651 1795601
2446.28 1799434 1791282 1793428 1796037 1780324 1768084
2449.17 1772991 1766332 1742079 1716294 1694723 1676961
2452.07 1651448 1597530 1532947 1483453 1436001 1378727
2454.96 1319617 1274403 1238726 1194356 1140746 1089922
2457.85 1054895 1028350 998208 959744 907920 868056
2460.75 854274 834986 800580 761313 726584 695239
2463.64 661005 636815 637989 644755 646061 638661
2466.53 615048 590101 577228 565018 542734 531970
2469.42 540940 547118 541120 528361 509818 496106
2472.32 492740 479901 461272 449354 428070 407375
2475.21 390126 364709 353663 348288 335505 321652
2478.10 310790 307570 301598 299972 309251 320351
2480.99 318448 310776 323906 326294 304013 281704
2483.89 273151 281628 281199 267037 255692 242154
2486.78 230523 234747 252185 262211 257658 249798
2489.67 251103 253778 241015 226576 223730 223441
2492.57 207608 189108 195268 213326 219918 217068
2495.46 225144 234834 233150 221265 209345 215283
2498.35 231558 237999 230599 225242 220122 206968
2501.24 209058 226337 234156 239849 258682 278724
2504.14 287115 289593 297803 310570 323278 333445
2507.03 339137 339400 340874 355729 374198 384290
2509.92 394144 400322 411493 437898 452202 448666
2512.81 438749 433781 461246 518616 549802 545180
2515.71 556109 574722 570292 564168 568101 575751
2518.60 582576 602916 645645 672874 668990 676741
2521.49 708075 725277 722919 719779 725988 743132
2524.39 761136 784899 819392 847873 862404 851164
2527.28 826692 813640 803421 796465 802013 811219
2530.17 811365 806812 809501 814230 824726 833251
2533.06 826935 811826 794358 785072 774836 756380
2535.96 754074 766423 783749 805097 812952 798962
2538.85 787442 780661 773677 771036 770529 773870
2541.74 779399 778624 784038 792167 774269 759580
2544.63 768920 772297 753705 733267 736214 742777
2547.53 724563 698536 696581 696231 680961 670006
2550.42 659635 649452 644784 637642 630068 629956
2553.31 631464 628312 623322 620738 638743 663303
2556.21 668419 660450 653543 663646 679398 680510
2559.10 677530 688902 705944 714230 721412 741732
2561.99 771145 793514 799888 793929 811895 843723
2564.88 875506 905771 917199 929298 942860 949125
2567.78 974330 1019320 1053623 1064548 1080559 1113746
2570.67 1153287 1200217 1239180 1257763 1282418 1314731
2573.56 1342769 1369513 1404910 1447696 1484719 1512758
2576.45 1543161 1580813 1619713 1664008 1703198 1745367
2579.35 1794966 1827453 1855794 1890481 1930714 1973725
2582.24 2008257 2063659 2131728 2166339 2209363 2276367
2585.13 2311940 2330242 2375778 2445872 2518726 2590240
2588.03 2661685 2725811 2823007 2983987 3145965 3206622
2590.92 3175716 3165799 3205114 3240164 3257106 3279927
2593.81 3322861 3367473 3404997 3451652 3509516 3591999
2596.70 3700165 3838149 3980217 4009246 3917073 3832991
2599.60 3801641 3801889 3818605 3843451 3868688 3884835
2602.49 3898163 3914587 3926178 3929223 3949693 3983191
2605.38 3982528 3969963 3997941 4052817 4099505 4132393
2608.27 4154380 4182640 4228611 4277472 4317903 4342131
2611.17 4361649 4393271 4429099 4466716 4511352 4546735
2614.06 4559565 4567422 4590243 4618322 4661459 4699695
2616.95 4639473 4522790 4460389 4440042 4435825 4466469
2619.85 4510632 4536780 4569860 4604915 4619675 4618779
2622.74 4604739 4584527 4575315 4587291 4590687 4567920
2625.63 4570930 4606162 4633865 4655015 4689772 4731411
2628.52 4763111 4791204 4819290 4847681 4875174 4906554
2631.42 4938803 4948291 4951735 4968841 4977730 4983375
2634.31 4994292 5002934 5010867 5013979 5022348 5023841
2637.20 4996589 4968061 4951905 4938225 4924614 4885184
2640.09 4819893 4776712 4744248 4695338 4647490 4595959
2642.99 4547933 4536303 4543743 4555416 4592359 4651173
2645.88 4710607 4772783 4859519 4960628 5037640 5107615
2648.77 5185238 5236062 5267583 5282276 5276451 5278323
2651.67 5288627 5302414 5300425 5275864 5266940 5268659
2654.56 5259129 5248100 5235344 5214498 5201582 5208961
2657.45 5210639 5192748 5149803 5066096 4975851 4916325
2660.34 4890751 4866656 4820208 4784036 4775070 4776894
2663.24 4769472 4737709 4710237 4691909 4663992 4660991
2666.13 4671190 4651994 4627305 4604896 4565363 4523555
2669.02 4490099 4450056 4400181 4352175 4303338 4242933
2671.91 4184415 4127032 4061451 4010327 3995022 4005458
2674.81 4011956 4017195 4057119 4117660 4171063 4224777
2677.70 4298325 4393820 4518248 4681906 4815063 4870548
2680.59 4909795 4969015 4963514 4861144 4759780 4684098
2683.49 4558128 4389487 4253308 4151025 4056827 3973695
2686.38 3912754 3862816 3815011 3787285 3774772 3756939
2689.27 3733014 3700282 3649389 3590364 3546026 3525113
2692.16 3505531 3460459 3417274 3398918 3382089 3353882
2695.06 3326058 3310884 3310135 3309491 3308316 3313409
2697.95 3301984 3283388 3292461 3306385 3315974 3334456
2700.84 3353571 3379256 3417442 3450492 3473435 3504765
2703.73 3548561 3586019 3628454 3692006 3760379 3808437
2706.63 3833507 3870618 3942184 4016079 4088016 4158539
2709.52 4216849 4289896 4386719 4485914 4596226 4715654
2712.41 4797527 4825009 4855738 4915104 4979010 5042162
2715.31 5109020 5172762 5219736 5257554 5295435 5328945
2718.20 5371087 5437200 5535197 5651476 5770029 5912770
2721.09 6106808 6338032 6553891 6742927 6930455 7114438
2723.98 7292256 7478409 7662234 7823597 7980985 8147461
2726.88 8324266 8518381 8719721 8905979 9084530 9259475
2729.77 9426745 9603126 9794645 9983131 10170514 10373288
2732.66 10555932 10689407 10805567 10909525 11009974 11114012
2735.55 11189436 11217035 11201334 11149491 11094253 11038835
2738.45 10943409 10813315 10671901 10550110 10509495 10621554
2741.34 10931789 11287185 11375800 11105854 10684751 10376255
2744.23 10279783 10309881 10358642 10429536 10570137 10778069
2747.12 11026386 11291602 11575441 11851603 12086720 12256637
2750.02 12320101 12300058 12262512 12221598 12179072 12100484
2752.91 11984842 11858132 11679856 11450864 11206890 10938789
2755.80 10658442 10374435 10079307 9778738 9489643 9231017
2758.70 8994949 8744651 8488070 8277761 8113452 7950133
2761.59 7790725 7662461 7558575 7468575 7361598 7234499
2764.48 7135503 7054612 6949566 6859248 6806933 6749518
2767.37 6696781 6658770 6622490 6583570 6539886 6489589
2770.27 6444082 6431520 6442280 6456010 6468811 6458257
2773.16 6412566 6379654 6399191 6424257 6426963 6458258
2776.05 6506876 6530723 6567990 6626538 6665740 6702299
2778.94 6756540 6809717 6845869 6874848 6920459 6974606
2781.84 7023652 7059108 7084651 7113872 7140565 7151221
2784.73 7172669 7192155 7194926 7203797 7213891 7222896
2787.62 7242842 7276196 7314940 7357668 7406127 7459840
2790.52 7538669 7632905 7734449 7869005 8040167 8266188
2793.41 8587649 8889908 8938072 8716778 8508922 8469160
2796.30 8511650 8584040 8701196 8864549 9052806 9199543
2799.19 9301317 9408251 9534063 9657679 9772635 9900123
2802.09 10021881 10120444 10229487 10376721 10553157 10737299
2804.98 10918760 11091311 11279303 11497999 11710631 11915451
2807.87 12143980 12385426 12626109 12846144 13037883 13238731
2810.76 13460676 13689839 13948781 14224481 14493304 14786540
2813.66 15064430 15285118 15535874 15861876 16202428 16527348
2816.55 16864197 17169265 17413898 17659307 17948732 18299029
2819.44 18708009 19159541 19685465 20295349 20905621 21475681
2822.34 22046153 22584994 23065591 23588498 24156193 24697505
2825.23 25228812 25744272 26250999 26779420 27351967 27920164
2828.12 28468378 29074898 29716739 30297773 30830558 31392381
2831.01 31949158 32513223 33186692 33875132 34520067 35188395
2833.91 35865327 36498421 37107379 37817173 38651550 39560357
2836.80 40565807 41686103 42965409 44409561 45964080 47546443
2839.69 48959587 50074598 51045107 52121481 53382338 54731710
2842.58 56120740 57530742 58992812 60538271 62102047 63655788
2845.48 65216551 66723284 68210141 69786321 71426283 73113685
2848.37 74931061 76910821 79030397 81363290 83978028 86709465
2851.26 89419847 92052375 94473292 96795735 99257077 101858393
2854.16 104664523 107757194 111035500 114358969 117746491 121244887
2857.05 124718229 128188358 131739728 135302113 138839909 142311395
2859.94 145730852 149027238 152313942 155600227 158735563 161991867
2862.83 165218008 168279805 171487055 174560291 177542485 180631819
2865.73 183408600 185906311 188232026 190099452 191833739 194045983
2868.62 197070695 201518580 208762950 219996827 233478473 244451132
2871.51 250742545 254046183 256129667 258244196 261556921 266818527
2874.40 273855532 282219822 291418503 300625188 309345649 317041488
2877.30 323305389 328219373 331576609 333366402 333451346 331624549
2880.19 328323039 323514775 317202953 309718382 301007656 291895459
2883.08 283545334 276468824 271197541 268684377 271821644 285590101
2885.98 307930011 321277780 313244764 295497273 284873698 284050993
2888.87 285970837 286435768 286051350 286496415 288566238 292036851
2891.76 296603429 301240678 304944323 307960443 310214543 311282469
2894.65 311410421 310664308 308991639 306721503 303942606 300808159
2897.55 297531381 293896215 290045862 286266652 282396374 278377253
2900.44 274202530 270054318 266098770 262396640 259174636 256253435
2903.33 253200881 250265377 247982981 246517433 245792448 245895658
2906.22 246785383 248182203 249790806 251183976 252159915 253197972
2909.12 255021762 257209688 259234873 261392460 263619715 266186780
2912.01 269191746 272255125 275116223 277356543 279400819 281784631
2914.90 284790714 288204852 290983221 292964108 295128628 297687462
2917.80 300760004 305060325 310452239 317517707 326262076 334648030
2920.69 341310365 345853013 349166244 353597226 360605311 368331218
2923.58 373152028 374827275 375411378 377241807 381904012 387641416
2926.47 393217289 398685123 403718731 408594798 412931639 417058618
2929.37 421680500 428073340 436628636 445620579 456630877 471275729
2932.26 487446017 498998534 497567597 486079726 474639419 467518293
2935.15 465995301 468600501 473243031 480106264 489661856 501450416
2938.04 512358796 517935304 519260434 520696238 521982935 521333200
2940.94 519428203 517830619 517772604 518884796 519302822 519217715
2943.83 519533018 520510210 522556328 526269634 532870365 542798390
2946.72 555291404 566518132 571665318 571496441 568798967 563286529
2949.62 558343227 557929435 560422155 565656085 573334726 581018480
2952.51 589259250 598166440 606231311 614466093 622995679 631676213
2955.40 641213543 649371702 656128192 663520425 670765613 677418572
2958.29 684632466 691324894 696717820 702662130 707650316 711036621
2961.19 715423244 720619858 727046240 736409529 751879989 779774311
2964.08 821395506 872722698 927326171 959126192 939403778 883833919
2966.97 832205460 799674653 775293498 747190263 718432289 697723264
2969.86 682018759 661094416 638222194 627448476 634156051 652982147
2972.76 669833538 673567183 664953068 650327801 637995541 630231008
2975.65 624854120 622537732 622616252 623641985 625558873 627343885
2978.54 628716589 629171167 628294602 626323595 622268797 616541945
2981.44 609006090 599298123 588118107 574966536 560763551 545379409
2984.33 528563601 511158589 493559005 475676584 457441533 439733571
2987.22 421704492 403887822 386798940 369686305 353311978 337316970
2990.11 321839526 307130898 292854518 279225447 266086085 253731019
2993.01 241976327 230718064 220145794 209878781 200057861 190746658
2995.90 181853707 173489739 165534876 157923609 150673279 143709883
2998.79 137077732 130764517 124665778 118835065 113192681 107826141
3001.68 102751019 97855943 93183452 88714647 84433048 80292952
3004.58 76328307 72568027 68954547 65523304 62237445 59077227
3007.47 56069712 53199453 50491455 47912392 45445920 43140474
3010.36 40938036 38814710 36825891 34954238 33195165 31577095
3013.26 30054352 28611536 27252400 25948898 24708442 23542772
3016.15 22433530 21392079 20438095 19550546 18701502 17904504
3019.04 17171220 16483816 15835366 15241787 14683659 14160050
3021.93 13679592 13223863 12796207 12397801 12007185 11644282
3024.83 11321939 11026640 10752691 10499431 10261858 10036751
3027.72 9819279 9602632 9398712 9228329 9073462 8923247
3030.61 8800566 8697871 8572807 8431908 8318964 8224336
3033.50 8123318 8033313 7947887 7851704 7768059 7719952
3036.40 7662331 7583012 7527841 7491346 7457913 7424570
3039.29 7380975 7339304 7316834 7285310 7231211 7190138
3042.18 7156281 7127693 7121883 7115731 7092618 7050961
3045.08 6990115 6957517 6963693 6957851 6935840 6918490
3047.97 6881934 6839632 6833633 6838244 6818830 6796189
3050.86 6787163 6780592 6771321 6762167 6750641 6744593
3053.75 6768730 6793072 6795899 6801282 6807227 6839791
3056.65 6876827 6890636 6907793 6934202 6959743 6980961
3059.54 7001723 7044470 7109338 7168804 7216842 7264926
3062.43 7316780 7376758 7421688 7460508 7512798 7558848
3065.32 7591746 7639050 7710893 7776421 7816505 7862887
3068.22 7930880 7982039 8026739 8089031 8129878 8152003
3071.11 8199801 8254717 8291076 8328180 8375106 8419723
3074.00 8446717 8454898 8439070 8435112 8482610 8541400
3076.90 8564676 8571387 8568653 8546129 8523240 8503582
3079.79 8470708 8465271 8482438 8445818 8404058 8411553
3082.68 8458535 8576130 8729170 8759655 8624333 8497670
3085.57 8497107 8568463 8642546 8687058 8660255 8559658
3088.47 8428823 8332852 8279038 8196719 8093971 8017403
3091.36 7936601 7854611 7802165 7733710 7632044 7533106
3094.25 7441673 7338349 7218360 7098203 6982945 6895073
3097.14 6816273 6708307 6594785 6503706 6450655 6394469
3100.04 6285626 6160938 6075279 6016267 5930622 5814878
3102.93 5719768 5667834 5616738 5530205 5427957 5343840
3105.82 5279404 5217074 5159079 5106331 5051090 5004401
3108.72 4963874 4918643 4864850 4808605 4756997 4717070
3111.61 4685945 4646294 4582493 4520741 4499807 4490271
3114.50 4457807 4420168 4398958 4408839 4407282 4363839
3117.39 4316159 4287635 4285609 4315311 4325815 4276153
3120.29 4229177 4234029 4248360 4250532 4261800 4272273
3123.18 4270668 4265516 4257721 4265610 4293187 4313727
3126.07 4315547 4319807 4334979 4349205 4366822 4397111
3128.96 4421909 4447505 4476095 4492742 4505146 4528643
3131.86 4553554 4567361 4585900 4621594 4675426 4714397
3134.75 4734507 4772545 4800563 4794537 4811758 4885162
3137.64 4958005 5008873 5042244 5058275 5087508 5136587
3140.54 5190454 5234986 5275940 5316136 5327697 5330104
3143.43 5347719 5372396 5408640 5437018 5448040 5465051
3146.32 5500883 5537942 5575656 5636417 5702710 5749471
3149.21 5776064 5800568 5842313 5900979 5962256 6020939
3152.11 6083024 6147968 6209336 6268727 6327158 6380376
3155.00 6436252 6519743 6620655 6691840 6735676 6788296
3157.89 6860726 6938850 6998307 7046649 7085293 7115425
3160.78 7141663 7155649 7161455 7166747 7165603 7173961
3163.68 7195996 7231971 7277992 7302871 7332876 7413081
3166.57 7500356 7569096 7661860 7775291 7879789 7949590
3169.46 7959023 7950964 7988124 8051704 8088341 8086243
3172.36 8072404 8082786 8093456 8118030 8186574 8216973
3175.25 8147277 8026778 7936369 7935684 7951969 7875252
3178.14 7765241 7677738 7567348 7454825 7378970 7329924
3181.03 7305118 7292412 7268889 7267077 7324654 7433165
3183.93 7575454 7658999 7638544 7626455 7642402 7655963
3186.82 7731236 7812215 7763371 7571702 7328497 7135748
3189.71 6993979 6887973 6823808 6734143 6611312 6513541
3192.60 6428403 6363291 6312746 6226316 6134667 6069030
3195.50 6015527 5949028 5853741 5762284 5716597 5694964
3198.39 5646943 5578800 5515054 5464010 5425361 5371021
3201.28 5302867 5255575 5239044 5239281 5204468 5113086
3204.18 5010420 4976105 4998981 4982190 4894352 4804119
3207.07 4762604 4734192 4685470 4645140 4645612 4636569
3209.96 4589229 4561457 4571464 4585050 4575802 4536530
3212.85 4486333 4445869 4428975 4442438 4442873 4414956
3215.75 4393711 4387962 4399904 4412328 4409516 4394094
3218.64 4382358 4413942 4472212 4495134 4492609 4498816
3221.53 4529134 4560988 4542923 4487726 4461175 4466436
3224.42 4456219 4415078 4367087 4335250 4305267 4246137
3227.32 4160067 4075933 3997585 3907158 3808765 3733390
3230.21 3647123 3538374 3465467 3420458 3376728 3360513
3233.10 3358897 3357960 3357828 3336067 3293371 3270952
3236.00 3272260 3274316 3286198 3276959 3216054 3158471
3238.89 3124335 3094731 3057809 2996859 2945218 2916931
3241.78 2867497 2796385 2733585 2676566 2599272 2507981
3244.67 2439905 2381297 2302014 2213562 2146054 2093168
3247.57 2014666 1933887 1887731 1845515 1778250 1696822
3250.46 1607657 1534906 1490004 1447242 1408094 1374769
3253.35 1339459 1307960 1266848 1205767 1158127 1124642
3256.24 1088247 1050133 1008020 974074 937475 900380
3259.14 883786 892091 900900 883863 838205 789867
3262.03 768046 766239 759752 744394 726883 712652
3264.92 710675 712534 707895 714983 740701 736041
3267.82 697631 685746 692255 704682 713750 698497
3270.71 679429 669319 670095 681385 702163 732993
3273.60 757079 737974 706146 705051 721460 735875
3276.49 748805 748438 726105 711407 720692 750886
3279.39 757144 726361 705721 708624 729962 741050
3282.28 727859 728219 755680 776365 779554 791830
3285.17 817652 840787 831212 778935 755365 780833
3288.06 802439 812946 817368 807714 777873 754486
3290.96 749501 742283 733270 725072 727653 747419
3293.85 760713 750089 731293 725859 730932 717826
3296.74 694707 703085 715612 704576 715393 736121
3299.64 737854 731390 715096 681061 638309 618199
3302.53 629115 627937 608302 600564 588535 571684
3305.42 564695 554290 531287 512350 527214 548332
3308.31 541509 526422 524009 524196 512001 506680
3311.21 508077 488253 469300 465318 435335 420760
3314.10 426564 407671 404420 423492 417864 398125
3316.99 397164 406494 418184 430974 427044 407367
3319.88 411348 429424 417980 395890 380084 372524
3322.78 389041 393319 363073 348143 382599 438429
3325.67 458490 442659 422704 413936 433292 463044
3328.56 457897 442459 457741 462643 478107 510573
3331.46 501702 495141 520246 523066 505065 507249
3334.35 520529 546351 591735 622028 618160 595912
3337.24 581051 582058 585439 589020 615907 648078
3340.13 629594 588654 584005 622036 685691 732378
3343.03 741289 727268 692602 673013 677536 676608
3345.92 687360 716661 747495 745467 737445 742824
3348.81 727492 718475 751727 781362 773457 763650
3351.70 753533 745047 765940 795847 800190 786154
3354.60 778270 779299 801033 813732 801236 798902
3357.49 802160 821951 841928 814251 770824 767537
3360.38 780004 788256 792627 795799 821937 845259
3363.28 820678 791355 800902 804431 792322 803819
3366.17 823789 847117 874362 870143 832116 811679
3369.06 832143 849846 833030 798247 777995 779547
3371.95 804943 838760 853366 873101 893657 878853
3374.85 850017 869413 935770 975290 977970 982183
3377.74 975303 965964 969389 968514 964299 975235
3380.63 1019560 1069403 1073830 1049531 1056304 1111054
3383.52 1147105 1151443 1172650 1171707 1161238 1189177
3386.42 1218979 1245297 1251646 1236642 1242576 1248494
3389.31 1230583 1236237 1276123 1284687 1269256 1299825
3392.20 1353028 1372136 1359682 1353290 1353118 1333642
3395.10 1333754 1353888 1348110 1339456 1346986 1339672
3397.99 1308041 1284957 1279136 1260801 1214570 1176442
3400.88 1178567 1204035 1207598 1194263 1206625 1225910
3403.77 1214600 1205946 1198113 1165027 1145114 1163083
3406.67 1152360 1090838 1050597 1038766 1022603 1009774
3409.56 1012893 1013033 1004494 1000894 1011316 996029
3412.45 942961 901632 866189 831348 818881 802483
3415.34 774037 729769 699787 699414 663486 602156
3418.24 566678 542439 520828 510663 481733 424018
3421.13 384178 374727 362121 348052 344553 327972
3424.02 300410 309910 337500 311423 260485 238379
3426.92 249568 263647 247457 223474 219712 221012
3429.81 236175 264822 272608 251245 227318 209920
3432.70 199936 194813 176132 170526 185929 182349
3435.59 150454 147096 183104 196125 186794 189147
3438.49 180453 148378 139605 153702 170426 166518
3441.38 138125 125758 132181 150916 156648 110545
3444.27 68542 82607 111036 112745 96771 96135
3447.16 103315 86744 84677 126241 152545 141636
3450.06 125636 130118 148265 141282 88813 34394
3452.95 31516 56780 76010 79331 67631 51604
3455.84 37040 35101 47880 53034 61556 97350
3458.74 115713 86238 61297 68513 80350 64768
3461.63 48577 72640 101683 113252 110080 105620
3464.52 96285 69980 50525 50803 75868 93318
3467.41 69366 43894 49693 83156 102128 90793
3470.31 80946 85260 84281 69316 68561 99190
3473.20 107612 84566 86231 86969 51737 42618
3476.09 69396 77638 81264 100892 110101 113866
3478.98 126611 112831 93063 120765 159037 159133
3481.88 130804 104691 92573 79262 65205 71582
3484.77 105409 128856 127225 127930 134639 120124
3487.66 97920 92905 92536 95742 104177 102599
3490.56 70787 42524 50839 58224 59484 86083
3493.45 106840 103988 102284 111521 117861 126456
3496.34 118643 72092 30837 58068 106339 106374
3499.23 98741 83403 51657 60152 101170 116943
3502.13 103462 94587 92510 89384 109149 131456
3505.02 123182 102799 73891 52406 55571 70099
3507.91 78140 91329 84201 53261 28639 18313
3510.80 24204 21731 36450 64649 69083 73420
3513.70 72236 48305 17535-8277-21096-4431
3516.59 8257-6943 6274 41984 42812 20345
3519.48 7604 8495 16632 25682 20885 22577
3522.38 30604 4487-31892-26241 2158-7592
3525.27-46169-43787-8123-785-16624-25665
3528.16-42856-39568 20700 57235 46477 29477
3531.05-8112-69524-97984-66617-24724-23577
3533.95-44745-33941-2419 15695-12641-47112
3536.84-16795 9820-1367-7688-15500-25283
3539.73-23128-13381 7173 17351 2706-25598
3542.62-40681-30298-14474-14422-18065 13705
3545.52 35779 18260 6256 11104 29233 50457
3548.41 33214-2734-11270-1199 3182-4754
3551.30-6618 6339 16891 23699 26560 7913
3554.20-12409-4654 35393 65042 40188 8314
3557.09 4432 6624 8805 22635 37493 31259
3559.98 21378 40643 83965 104770 91966 68340
3562.87 51946 66080 91523 94966 99981 107374
3565.77 109516 116106 127370 145734 166257 171326
3568.66 158198 132251 112549 102498 103253 102233
3571.55 90515 97647 109810 110520 114710 135727
3574.44 156292 138927 113728 122491 161000 213965
3577.34 220811 170545 155520 196080 223569 210338
3580.23 189110 195419 202790 196613 193561 196831
3583.12 213311 217122 200377 208836 237140 268973
3586.02 292604 272881 250577 265973 323627 370748
3588.91 345192 299104 268186 251029 264456 295937
3591.80 322743 344126 357424 354000 329507 325317
3594.69 356766 362765 342476 345582 363524 370778
3597.59 363797 361272 375418 398835 424882 450825
3600.48 479716 488097 459003 423493 408084 418736
3603.37 431201 445124 465911 470677 475812 504467
3606.26 537624 539667 534253 545845 556079 572432
3609.16 572096 560682 564499 573444 596751 632052
3612.05 652907 655561 655180 662265 664799 651530
3614.94 640661 646226 650269 641446 649330 680547
3617.84 697245 719244 776274 787829 737824 712349
3620.73 728854 747464 734753 737338 760961 750238
3623.62 722603 713297 731487 763115 788468 806301
3626.51 822008 834218 855680 869192 869523 897498
3629.41 881415 821967 811029 821488 793833 756918
3632.30 750467 757529 779975 795532 764249 727715
3635.19 732234 757312 768931 797989 852390 881836
3638.08 882682 864290 847240 869390 903944 915180
3640.98 894609 871181 879880 889247 870445 860809
3643.87 884360 907016 882609 862704 891689 919869
3646.76 926779 912285 907607 961407 1032377 1011584
3649.66 953474 945867 947813 925971 894012 866954
3652.55 862375 873879 875919 873386 846657 837072
3655.44 881566 890414 828281 805488 830646 832701
3658.33 833709 861805 877622 854003 829263 842315
3661.23 870256 869748 852523 853604 857412 857006
3664.12 863449 868893 865156 864980 854644 845194
3667.01 864796 898815 936551 943353 929561 972812
3669.90 1052350 1044024 946933 891774 893060 904594
3672.80 914782 929396 955748 995766 1039553 1102791
3675.69 1126413 1061355 1007577 1010770 1036683 1047710
3678.58 1037328 1046106 1065224 1043640 1014628 1020230
3681.48 1037634 1066639 1101310 1130830 1139364 1136959
3684.37 1134833 1112541 1088727 1091971 1106661 1110873
3687.26 1162078 1297505 1335573 1225839 1135134 1104057
3690.15 1111194 1133259 1130308 1108721 1076835 1049371
3693.05 1062344 1082875 1076950 1074079 1096099 1106355
3695.94 1073273 1031972 1024449 1043453 1062764 1071631
3698.83 1061906 1055799 1080966 1115559 1152023 1191137
3701.72 1191672 1150153 1128132 1132642 1127115 1107729
3704.62 1104052 1127021 1141442 1140397 1126024 1104933
3707.51 1099407 1113256 1147825 1166051 1132748 1115325
3710.40 1163601 1244311 1317793 1335636 1287715 1241289
3713.30 1230822 1242634 1265088 1289023 1311111 1347015
3716.19 1376538 1379220 1368367 1349393 1323529 1316605
3719.08 1324376 1331041 1328537 1320625 1327177 1354735
3721.97 1371342 1364235 1374548 1378076 1346619 1314506
3724.87 1296173 1307312 1360583 1387931 1368005 1351374
3727.76 1333187 1303969 1292433 1311132 1324300 1323678
3730.65 1354479 1424215 1466062 1430121 1379027 1386872
3733.54 1413574 1415439 1405148 1385874 1390640 1432174
3736.44 1419692 1332484 1274105 1281099 1282631 1248973
3739.33 1211345 1195633 1193983 1163646 1095783 1049743
3742.22 1049972 1064714 1096497 1189428 1231642 1096449
3745.12 942369 891126 876319 849065 817177 810387
3748.01 857881 970083 1018512 909291 792570 754483
3750.90 798437 912880 934329 823220 734467 701691
3753.79 670283 638945 618242 625275 677761 718345
3756.69 708842 686366 668832 659494 675424 714121
3759.58 726199 700186 681976 657761 620310 596419
3762.47 602643 617096 612600 609196 624809 648461
3765.36 641315 596472 556555 552455 582743 611703
3768.26 625067 640375 656032 617251 566363 576173
3771.15 589452 585003 585934 574595 552448 548829
3774.04 549769 536791 541290 569966 574591 568823
3776.94 591772 612156 616748 636175 646511 630750
3779.83 600969 570373 572582 590594 581517 565820
3782.72 580453 611597 617463 602535 589089 572177
3785.61 550250 538986 553306 575038 574389 551326
3788.51 525175 518023 532031 562728 585513 567059
3791.40 528027 511726 528692 545375 533690 517182
3794.29 517643 531774 553553 585350 592650 575077
3797.18 563084 543617 534760 545105 548094 548445
3800.08 592759 717406 772716 683338 611617 577514
3802.97 529464 518379 535785 538840 547591 569800
3805.86 615993 667211 649958 580902 542564 526142
3808.76 530621 568898 594278 589275 586675 581841
3811.65 566265 572069 587225 592008 600681 622784
3814.54 655856 731496 819481 789508 704267 662736
3817.43 649845 660414 656748 642865 683339 752122
3820.33 775513 772347 758600 702691 676936 710961
3823.22 734849 732991 743489 779178 797939 799101
3826.11 838676 865028 832242 822723 866060 882910
3829.00 872519 897892 936278 977917 1046900 1086798
3831.90 1079923 1078910 1083882 1110446 1176504 1256715
3834.79 1306149 1300406 1264420 1274124 1402827 1575868
3837.68 1594809 1512007 1492282 1525467 1557662 1593993
3840.58 1625862 1611403 1580749 1575338 1608572 1668350
3843.47 1727575 1764452 1753257 1747858 1769123 1763191
3846.36 1760046 1776362 1797663 1820360 1827994 1823478
3849.25 1809007 1798819 1810075 1868790 2011429 2125517
3852.15 2086282 2038198 2145623 2272179 2215552 2086106
3855.04 2036696 2028232 2030294 2054336 2075142 2085717
3857.93 2078688 2041826 2017970 2016343 2011486 1994483
3860.82 1988836 1981934 1929993 1854836 1789779 1769807
3863.72 1800055 1841226 1840781 1761467 1673696 1624238
3866.61 1598791 1598526 1615000 1644485 1685658 1719387
3869.50 1716708 1631388 1553417 1560771 1556221 1516942
3872.40 1497359 1484556 1489594 1515168 1493523 1454143
3875.29 1458555 1467630 1451144 1430301 1411673 1402802
3878.18 1406254 1413942 1430106 1437287 1409597 1372240
3881.07 1346359 1319480 1288818 1270874 1257086 1234055
3883.97 1223027 1259421 1313684 1296385 1241403 1226269
3886.86 1216488 1196473 1171951 1146327 1139807 1148542
3889.75 1155634 1172757 1196279 1171043 1121631 1107792
3892.64 1125254 1136459 1112213 1083649 1074504 1074398
3895.54 1086239 1084608 1068998 1051463 1039447 1057152
3898.43 1087387 1102790 1088234 1051360 1018441 1036976
3901.32 1071629 1040640 985688 988107 1049795 1084134
3904.22 1022090 939342 919896 933761 927916 916193
3907.11 931091 928977 893738 872350 877639 887824
3910.00 897666 907735 901428 865562 826890 833949
3912.89 861159 857323 833598 823667 817268 819641
3915.79 814892 815055 846757 849815 828814 829450
3918.68 841640 830647 795673 768983 767488 786982
3921.57 806591 796724 772086 759347 748235 739167
3924.46 727560 706954 693783 704788 719667 717939
3927.36 707373 688159 690613 708265 705437 702175
3930.25 686936 661356 668390 695371 710011 708471
3933.14 700052 681487 666509 662422 653003 645428
3936.04 651903 651676 639955 608273 566931 557725
3938.93 587288 619501 620851 600352 596456 612653
3941.82 626102 622495 598610 586345 597616 597200
3944.71 574241 560581 546621 553177 597486 605855
3947.61 566005 546846 546165 524478 520565 542462
3950.50 529292 490460 466287 496692 549886 558360
3953.39 541347 534919 551217 561917 546778 527462
3956.28 517441 510612 513697 522116 509548 492128
3959.18 499444 519492 522052 510366 511349 518034
3962.07 507225 501732 538316 559007 523405 495279
3964.96 499851 520384 533125 542815 550536 543158
3967.86 535669 523596 497529 507373 563710 587708
3970.75 574614 572765 570851 577620 602120 612424
3973.64 591159 579102
##END=
