##TITLE=Butane
##JCAMP-DX=4.24
##DATA TYPE=INFRARED SPECTRUM
##CLASS=IUPAC A
##ORIGIN=NIST, Analytical Chemistry Division, 301-975-3108
##OWNER=COPYRIGHT (C) 2000 by the U.S. Secretary of Commerce
##DATE=00/02/01
##$SPECTRA VERSION=1.10
##$UNCERTAINTY IN Y=2.0 % relative (B=1.0E-04,C=-1.9E-11,D=8.7E-15)
##CAS NAME=Butane
##CAS REGISTRY NO=106-97-8
##MOLFORM=C4 H10
##MP=-138.35 C
##BP=-0.5 C
##$NIST SOURCE=QUANT-IR
##SPECTROMETER/DATA SYSTEM=IFS66V (Bruker)
##INSTRUMENT PARAMETERS=KBr Beam Splitter; MCT Detector; Multipass cell
##STATE=gas
##SAMPLE DESCRIPTION=Butane Primary Gas Standard
##PRESSURE=101.3 Pa
##TEMPERATURE=23 C
##SAMPLING PROCEDURE=1 L/min Flow
##RESOLUTION=1.9290
##DATA PROCESSING=Triangular Apodization
##XUNITS=cm-1
##YUNITS=(micromol/mol)-1m-1 (base 10)
##XFACTOR=1.0
##YFACTOR=9.0949E-13
##DELTAX=0.9645
##FIRSTX=575.652
##LASTX=3974.605
##FIRSTY=-2.09E-07
##MAXX=3973.64
##MINX=575.65
##MAXY=.0008261
##MINY=-3.22E-07
##NPOINTS=3526
##XYDATA=(X++(Y..Y))
575.65-230463-109476 120200 138665-266653-339668
580.47-222364-143143-21572 140417 107190-36962
586.26-3673 133647 44606-143945-139302-292
592.04-52092-125275-107430-166380-76288-40816
597.83-100338-126557-113392-93722-105379-99926
603.62-102701-92259-44183-60114-76283-117041
609.40-226300-209212-139184-121367-93008-129569
615.19-192260-183497-134493-65636-42245-42423
620.97-47634-60800-65477-90076-131542-86989
626.76-86747-162084-64166-16132-70721-32265
632.54-47990-120855-140643-153118-130255-77507
638.33-43145-59203-58108-42834-96823-99075
644.11-61345-66977-87285-110952-80189-20826
649.90-44821-52804-62301-154985-180618-142266
655.68-78055-29901-6188-61153-117442-64063
661.47-41953 4404 15089-19435-71004-331570
667.25-354722-69393 24463 33248 49301 52776
673.04 60895 99655 116551 106268 155742 169460
678.83 172437 230308 273969 290429 322259 346106
684.61 395217 465211 487979 552961 628582 714152
690.40 844105 921192 963544 1015336 1114474 1181869
696.18 1293292 1468130 1634192 1787616 1882766 2008224
701.97 2157494 2322917 2503334 2643330 2758524 2955216
707.75 3194179 3380735 3543366 3731557 3977517 4199691
713.54 4377840 4555665 4658090 4811272 5010266 5127783
719.32 5317417 5540334 5738084 5907246 6072945 6294783
725.11 6569925 6784840 7029278 7537712 8407174 9796549
730.89 11298764 11321032 9752787 9194807 9461169 9332437
736.68 9400206 9606058 9717933 9746365 9746302 9658662
742.47 9541569 9518017 9665837 10645348 11286152 11091014
748.25 11133399 10796426 10110268 9566665 9218171 8974797
754.04 8821231 8722404 8659253 8559188 8379517 8210531
759.82 8020781 7768021 7459562 7099122 6748988 6418590
765.61 6061056 5726508 5408781 5055539 4749690 4474623
771.39 4238726 4045433 3894861 3791608 3668239 3565549
777.18 3490903 3412918 3337148 3241078 3124549 3021671
782.96 2895494 2729473 2528003 2268254 2067629 2002001
788.75 1979637 2023008 2108609 2187441 2304743 2344138
794.53 2290024 2245430 2145668 2010421 1924672 1848438
800.32 1757089 1668097 1577820 1515744 1410340 1315630
806.11 1216366 1082777 987024 911893 842493 748518
811.89 697394 682931 619278 517080 492456 466913
817.68 393962 309353 297369 285865 224307 210921
823.46 177758 149883 148846 135589 90369 94419
829.25 68250 12665 776 13351 28729 24529
835.03 35991 36492 32506 18506-32725-29076
840.82 20812 11158 30052 60561 55632 38166
846.60 2291-7992-26101-28350-5639-1667
852.39-10106-16794-1253 16574 28463 11351
858.17-23333 6256 19212-15605 1490 35202
863.96 26491 5902 8219-14281-11211 26411
869.75 34134 29210 18606-511-802-1540
875.53-13623-6868-449 14090 5074-11270
881.32 30419 21628-8261 1281 834-2658
887.10-4158-19498-31626-23085-25546-24514
892.89 7947 28904 7537 3140 13470 14830
898.67 5950 26293 67642 72921 74327 57590
904.46 85928 142657 156786 167404 195870 229174
910.24 254079 273806 309177 338390 368880 444261
916.03 505686 548215 618177 686612 758657 826051
921.81 918304 1055849 1156940 1281073 1424010 1572410
927.60 1734769 1907121 2115409 2347076 2609847 2896719
933.39 3233541 3603172 3979954 4406693 4883758 5410988
939.17 5968034 6557015 7166261 7815221 8523141 9201664
944.96 9937910 10754840 11610395 12155402 12491971 12823052
950.74 13201533 13762359 14755139 16428306 19511689 21105588
956.53 18759496 16885909 16983141 17395688 17805956 18247568
962.31 18697150 18937564 19900760 21083891 21036318 20588571
968.10 20363676 20220462 20131151 19845111 19319490 18691675
973.88 18004381 17321353 16673596 15933862 15013017 14062527
979.67 13245169 12648209 12111145 11511788 11047877 10673570
985.45 10135468 9670378 9304799 8906809 8508462 8072943
991.24 7671486 7249133 6804225 6350565 5926624 5518135
997.03 5109966 4710553 4298397 3926228 3622891 3376934
1002.81 3135629 2909974 2703736 2468535 2283481 2157250
1008.60 2027056 1901311 1775976 1652427 1544325 1433142
1014.38 1342898 1261893 1165444 1099805 1050038 971288
1020.17 904629 868272 800923 712096 680267 657559
1025.95 612770 573702 527928 500445 493212 506315
1031.74 505681 456024 424775 412114 396662 350720
1037.52 313619 311010 268058 244664 228633 190124
1043.31 139251 133589 152833 138775 129131 111766
1049.09 115406 127466 112112 94463 105839 120685
1054.88 126586 125844 120016 107047 125493 144613
1060.67 134748 156413 187127 202424 198932 195834
1066.45 198102 198506 208560 219343 252006 255306
1072.24 254847 271051 246464 231084 239053 207158
1078.02 177377 190655 222396 275473 292072 295672
1083.81 319273 309975 294959 301988 323502 338717
1089.59 319640 320597 321289 298971 299318 273694
1095.38 245714 267636 300676 295845 280122 282607
1101.16 303308 332956 355974 383824 411918 442841
1106.95 481517 531226 586998 668564 781082 889599
1112.73 999518 1134832 1308224 1478009 1663524 1860543
1118.52 2037647 2231306 2407537 2562433 2697143 2808564
1124.31 2893563 2950623 2988409 3063665 3120456 3099339
1130.09 3080888 3130455 3312172 3585811 3689981 3497767
1135.88 2768409 2046317 2047661 2318911 2601875 2857099
1141.66 3033624 3090264 3027543 2876474 2674658 2453170
1147.45 2209826 1961721 1713523 1499250 1300743 1112160
1153.23 952421 786806 663134 574142 461751 396143
1159.02 355981 297093 258276 239556 242407 225818
1164.80 186362 184970 186079 172598 175647 176660
1170.59 188911 217111 230086 242207 248585 240824
1176.37 224154 212009 208865 220898 241088 243204
1182.16 237923 223200 221697 223337 228099 233049
1187.95 220901 231623 241799 231028 215818 224548
1193.73 247933 242316 224412 241744 249951 226761
1199.52 243989 259079 237922 218679 247654 272346
1205.30 249120 263633 292852 288038 288596 293180
1211.09 301789 312379 325153 344104 353349 366450
1216.87 385779 398533 407094 428423 453709 478462
1222.66 497950 515723 538046 558630 572653 594210
1228.44 630359 645231 663829 703539 731911 762633
1234.23 808533 854318 886723 915546 953926 990606
1240.01 1039912 1092660 1141143 1185732 1215557 1257617
1245.80 1330845 1403774 1470614 1528786 1580172 1636469
1251.59 1696138 1736184 1746024 1767142 1815028 1864954
1257.37 1910309 1916489 1929341 2015731 2202981 2231353
1263.16 2078417 2103159 2220796 2320133 2429941 2544511
1268.94 2661156 2813031 3011644 3227268 3501549 3833314
1274.73 4185740 4582083 5058394 5576860 6129934 6706926
1280.51 7274564 7829714 8277728 8604688 8849474 8910241
1286.30 8750987 8403098 7928599 7340995 6992793 7326514
1292.08 8357793 9722643 9637350 8065970 7424794 7876378
1297.87 8467732 9021967 9416157 9448154 9200316 8792971
1303.65 8248275 7651990 7007527 6327629 5654108 5034327
1309.44 4441864 3931659 3500477 3106654 2764404 2490419
1315.23 2292112 2146973 2058089 2023964 2039873 2106805
1321.01 2228935 2396227 2585318 2823379 3087061 3338741
1326.80 3621261 3913998 4194137 4454381 4687827 4853286
1332.58 4949712 4934112 4827495 4696514 4561366 4425166
1338.37 4375595 4558702 5193270 6298619 7292136 6704876
1344.15 4908164 4178115 4399015 4818047 5263799 5719700
1349.94 6279317 6695643 7000128 7195171 7290804 7375482
1355.72 7462101 7514406 7606091 7792793 8093354 8537146
1361.51 9142585 9902420 10860358 12007991 13318811 14787355
1367.29 16448144 18266165 20157679 22097486 24003083 25838547
1373.08 27497077 28734779 29578842 29932816 29834967 29384614
1378.87 28819374 28702756 30930889 36708254 38834604 35618467
1384.65 31648109 28845303 29243092 31856951 35258480 38468583
1390.44 40518626 41511130 41751643 41075448 39621943 37488289
1396.22 34870393 31952267 28920261 25946654 23173301 20608292
1402.01 18341759 16414849 14800664 13447356 12321258 11435681
1407.79 10765234 10303642 9953739 9574290 9310527 9169608
1413.58 9089297 9073169 9088820 9113268 9227606 9435041
1419.36 9613288 9829253 10171596 10607900 11098132 11630854
1425.15 12269709 12988998 13805317 14669347 15595910 16619478
1430.93 17765912 19082739 20511931 22060393 23757300 25570410
1436.72 27485026 29514821 31723479 33958978 36267220 38734479
1442.51 41165618 43328879 45308012 47263962 49206743 51030088
1448.29 52728233 54331160 56071180 58204152 60118192 61728819
1454.08 63307260 64692673 65452267 66599462 69416017 73078654
1459.86 79303200 87096995 86926343 83734231 89280390 100235596
1465.65 98052941 85332886 79162439 78426246 81634123 82617630
1471.43 75441850 66943877 61777951 59695905 60069468 61521925
1477.22 63228765 64286502 64557083 64085831 63027105 61386453
1483.00 59502223 57425745 55156980 52782763 50349180 47799974
1488.79 45372378 42840296 40361422 38035615 35790607 33628845
1494.57 31613631 29676011 27845396 26143630 24505209 22953174
1500.36 21499350 20146776 18840990 17620712 16522380 15451379
1506.15 14388419 13317968 12359514 11471390 10631850 9880323
1511.93 9156821 8467599 7822706 7212131 6688381 6176990
1517.72 5673482 5252725 4923212 4552740 4131123 3750021
1523.50 3470518 3245909 2977240 2739300 2530074 2320848
1529.29 2142860 2006217 1891101 1815377 1706924 1559773
1535.07 1475996 1410632 1393918 1439699 1405550 1318409
1540.86 1281157 1207405 1135567 1129789 1095876 1069129
1546.64 1075007 1075716 1094980 1089580 1089599 1112701
1552.43 1165606 1225773 1202662 1196983 1310780 1425986
1558.21 1467099 1474591 1400421 1365344 1376872 1400108
1564.00 1464561 1504421 1546776 1575766 1634655 1687627
1569.79 1677389 1681716 1728112 1753629 1752928 1877493
1575.57 1906066 1791259 1762455 1735210 1717227 1713789
1581.36 1684418 1656713 1657133 1632305 1622887 1613810
1587.14 1593690 1582042 1567471 1554306 1521907 1477449
1592.93 1446004 1406331 1365717 1338373 1298522 1265050
1598.71 1222510 1177380 1142981 1103119 1066950 1024678
1604.50 997245 1001428 1007287 1001024 995903 994499
1610.28 995848 1008762 1016596 1022647 1048880 1159048
1616.07 1188351 1099969 1071972 1051018 1030946 1001457
1621.85 1003113 999597 959029 988585 1053463 1102251
1627.64 1114642 1127389 1146259 1169918 1219245 1236458
1633.43 1277586 1343167 1283683 1212025 1199344 1177316
1639.21 1161859 1149926 1129815 1122420 1140364 1212675
1645.00 1282585 1257051 1255158 1265687 1259438 1274429
1650.78 1420757 1602990 1559312 1445346 1400677 1398113
1656.57 1419549 1430545 1438227 1457562 1484154 1520375
1662.35 1504114 1474792 1478034 1497336 1532202 1594316
1668.14 1681890 1679886 1651580 1641012 1605393 1591213
1673.92 1631978 1587226 1471530 1431621 1415474 1425175
1679.71 1453470 1464497 1495164 1580503 1705643 1638683
1685.49 1481277 1431803 1396418 1387382 1383286 1355481
1691.28 1315094 1308299 1311976 1406499 1446729 1334432
1697.07 1280379 1325465 1437391 1389442 1282174 1264201
1702.85 1255810 1253735 1266749 1269997 1235413 1236995
1708.64 1251622 1229221 1206821 1226301 1220100 1237505
1714.42 1236040 1235078 1287296 1224918 1154991 1135833
1720.21 1115736 1093683 1081926 1080696 1062970 1021875
1725.99 964372 921774 911995 908807 887925 876606
1731.78 908443 955030 898905 760004 700182 661287
1737.56 628404 640215 595901 533661 514860 498019
1743.35 450986 428225 431546 414863 404319 404117
1749.13 394075 421458 395578 334606 323929 311305
1754.92 326121 335911 311387 302722 299085 313628
1760.71 355061 332714 300966 299625 299095 306783
1766.49 322352 326639 308623 308273 329934 377700
1772.28 360180 319156 324955 333983 339927 338319
1778.06 337873 359797 375826 379707 386438 380708
1783.85 392775 378046 362065 381771 400104 407140
1789.63 409465 423180 456629 436347 408875 432936
1795.42 446797 443036 440376 451782 448384 444586
1801.20 446661 433200 440648 443384 435174 435518
1806.99 441488 446922 449807 459174 450712 438462
1812.77 441995 437512 418902 407454 396175 390254
1818.56 385898 378403 372238 361046 342914 339854
1824.35 329962 298723 287768 281475 279753 259484
1830.13 223810 200010 185555 165272 150085 141521
1835.92 130479 119673 108825 105507 96416 87557
1841.70 80102 121161 120436 61024 46920 51409
1847.49 37356 18469 22044 17062 16890 18444
1853.27 9640 12290 11273 8829 17764 25835
1859.06 15681 8528 16205 14253 13169 21914
1864.84 28767 37526 47277 54632 53514 54581
1870.63 59841 59810 70240 86429 101441 104679
1876.41 115210 124472 139929 166758 179434 195007
1882.20 193780 197541 232157 261975 266354 263811
1887.99 290911 318529 331067 346434 362329 391820
1893.77 419609 426984 436082 464676 496572 494834
1899.56 492852 513815 530304 527548 516218 517373
1905.34 515794 515614 527289 531139 525103 510327
1911.13 495267 504884 523395 524160 503927 506297
1916.91 542016 553066 549636 530391 529205 533445
1922.70 513922 499020 479408 463847 441416 425610
1928.48 421466 419168 413822 397952 395726 375748
1934.27 356200 365451 365740 341095 299156 281822
1940.05 284727 281110 248827 218494 221318 222355
1945.84 209807 207376 203539 196700 183500 173749
1951.63 157843 136534 123635 105142 92570 65926
1957.41 49287 49285 32425 26776 27164 15733
1963.20 11663 5551 2864-9191-13542-9573
1968.98-34342-39303-35878-38889-45462-44502
1974.77-26248-27217-48278-54216-48925-41031
1980.55-35927-41549-45200-47012-41523-48383
1986.34-46038-34561-34651-35933-34944-23266
1992.12-19931-31175-28230-13632-20529-26875
1997.91-12484-9891-1723 2705 3165 11121
2003.69 16566 27104 35105 19326 33885 57633
2009.48 53025 58182 76528 98181 110997 126216
2015.27 154749 202626 228040 242962 285359 321563
2021.05 350948 404578 455002 491926 529938 556405
2026.84 587075 627157 664638 673804 670850 676666
2032.62 668899 645654 646147 711609 774254 727392
2038.41 658818 672203 697208 719618 772836 808721
2044.19 812838 811922 786321 751328 711285 673163
2049.98 626110 576649 546337 505647 454030 397538
2055.76 361178 344048 309463 292103 285199 273166
2061.55 248193 226720 227957 199584 180011 178110
2067.33 177623 179003 172165 183065 194842 189122
2073.12 172873 174483 185377 176267 181816 183879
2078.91 179992 196118 220562 224196 220038 226654
2084.69 254267 260829 236614 241313 276074 311560
2090.48 298856 284675 297715 346642 367847 342836
2096.26 330487 357467 388711 367912 367326 397579
2102.05 445073 440481 423424 434285 486604 507764
2107.83 465015 455570 507130 541755 522503 520839
2113.62 555865 600558 566726 543895 574260 638540
2119.40 663255 640954 655898 710329 711216 677408
2125.19 677600 712894 722168 679948 651957 669387
2130.97 682419 653047 658981 670808 670089 669238
2136.76 677524 700085 708397 701623 709116 717980
2142.55 722740 720833 727056 730531 706445 679923
2148.33 672688 682790 678202 644355 641065 687674
2154.12 695082 656101 661218 711578 699563 675219
2159.90 716985 765923 763576 746061 781103 821919
2165.69 796048 786680 881689 911615 823180 789493
2171.47 826406 799000 744619 768865 790487 738002
2177.26 723505 777367 771063 727100 745182 781273
2183.04 756056 727860 765754 797219 765357 743111
2188.83 770405 748766 710848 727899 746219 730359
2194.61 735667 752056 744014 749576 780556 796843
2200.40 785547 793407 796205 780176 788842 807479
2206.19 788061 773247 797746 809046 805712 825093
2211.97 817279 793608 780158 760346 750933 747861
2217.76 760884 770984 767020 769641 761432 738664
2223.54 723538 731252 720386 683574 667113 657701
2229.33 643944 624377 604789 596073 574698 552112
2235.11 546380 517774 483537 468345 464786 466715
2240.90 480965 489681 487962 488636 486861 478861
2246.68 465459 475874 511534 525884 520726 522473
2252.47 516814 526500 546630 555145 572543 585976
2258.25 595046 610001 618892 620795 625862 639365
2264.04 645409 641592 645673 643575 634049 623936
2269.83 632191 645566 633844 626788 659528 700397
2275.61 727600 732381 736325 772094 810125 829313
2281.40 855830 874505 877878 880605 890402 901219
2287.18 906568 898719 902991 908898 913466 912891
2292.97 908588 903063 875214 886812 928272 965049
2298.75 1002757 1043916 1079589 1071269 1089748 1109853
2304.54 1116824 1086182 1066762 1055043 1050540 1026328
2310.32 999371 979669 956297 955902 943896 949235
2316.11 941888 923045 887960 883875 866345 881118
2321.89 906523 887831 831802 819501 812066 817438
2327.68 823521 833026 846764 852048 866715 894853
2333.47 903102 910950 936964 932813 908583 913037
2339.25 928232 934834 961652 983277 995326 1044233
2345.04 1114027 1169096 1229854 1273422 1260791 1212845
2350.82 1172609 1115039 1044763 964966 911941 856373
2356.61 794688 765094 732947 697523 680789 678535
2362.39 679241 678917 685356 723582 792256 841836
2368.18 882654 950815 1049249 1153200 1233183 1317742
2373.96 1396106 1462759 1545829 1628280 1684363 1736240
2379.75 1750918 1708996 1668727 1613301 1543503 1474893
2385.53 1464343 1509893 1581074 1640081 1531921 1430884
2391.32 1494846 1592359 1678773 1759892 1828621 1866245
2397.11 1857622 1795016 1728640 1655082 1556724 1444495
2402.89 1355905 1291234 1257207 1287576 1313822 1292074
2408.68 1282960 1332032 1395632 1467707 1537805 1597295
2414.46 1657540 1704122 1757425 1785775 1769711 1744197
2420.25 1733740 1728610 1746922 1788134 1825796 1886241
2426.03 1945477 1984637 2019153 2065129 2103094 2116220
2431.82 2113631 2117408 2145042 2137475 2082536 2045903
2437.60 2024841 2015469 1994863 1935945 1870475 1824328
2443.39 1815032 1810719 1809688 1811044 1801390 1786409
2449.17 1767615 1727190 1681246 1605061 1503135 1402646
2454.96 1307255 1222409 1131454 1063644 992413 918742
2460.75 868190 806110 740282 694345 685398 671919
2466.53 636193 604055 582448 580940 564164 538130
2472.32 516170 486243 450074 414670 390527 370043
2478.10 352772 350596 356439 359364 355346 331259
2483.89 320286 312090 288194 286500 297891 296177
2489.67 289158 276337 262438 247963 254838 266500
2495.46 273640 267519 265421 278015 271697 263149
2501.24 272731 293621 319750 337703 355571 376606
2507.03 386269 403486 429309 447374 477926 490700
2512.81 496328 550305 591271 605462 614112 620702
2518.60 657499 700341 727057 755484 766742 785156
2524.39 827373 873199 879880 854175 844521 849911
2530.17 852051 857534 867638 853369 831262 812330
2535.96 817841 843559 843962 827666 821828 822093
2541.74 829347 828304 818338 810752 794479 783101
2547.53 762436 745220 728695 710484 699077 693197
2553.31 690910 692914 717744 723903 730300 744146
2559.10 758294 780434 812069 851273 870485 910421
2564.88 963950 995387 1025355 1082373 1133923 1184422
2570.67 1261317 1323519 1378162 1438987 1510148 1578560
2576.45 1647059 1726380 1810227 1887656 1957719 2036736
2582.24 2131128 2231404 2326258 2407227 2512432 2653672
2588.03 2793623 3020776 3192536 3222488 3275474 3338754
2593.81 3414862 3509955 3641333 3855168 3967670 3887774
2599.60 3855069 3892515 3930212 3960000 3987007 4022012
2605.38 4042853 4104103 4179835 4238769 4319920 4384827
2611.17 4439413 4509621 4575730 4608439 4657747 4690152
2616.95 4594036 4512952 4538514 4594088 4647417 4663184
2622.74 4646932 4644763 4644939 4669855 4724454 4785661
2628.52 4847004 4899301 4955583 4993663 5015144 5034582
2634.31 5050404 5063090 5060261 5023977 4991608 4935128
2640.09 4850893 4774583 4691580 4645772 4668140 4746134
2645.88 4866792 5018304 5162699 5270846 5318782 5330173
2651.66 5345078 5334294 5319755 5304168 5275983 5261740
2657.45 5236352 5127971 5010261 4941817 4882298 4855386
2663.24 4823471 4774323 4750276 4729575 4680893 4612651
2669.02 4537404 4448891 4350988 4243480 4157062 4137743
2674.81 4163917 4241133 4350494 4506839 4738198 4908913
2680.59 4975334 4904515 4728168 4496457 4270725 4113316
2686.38 3997775 3926734 3882869 3822857 3732905 3666355
2692.16 3606266 3549278 3507475 3472916 3467198 3465445
2697.95 3456812 3470650 3502297 3551055 3613174 3678068
2703.73 3755961 3860912 3964872 4053552 4183244 4321986
2709.52 4464358 4648195 4847589 4976138 5074638 5204583
2715.30 5328819 5430619 5518875 5649823 5853843 6129709
2721.09 6507072 6899260 7257764 7615786 7955265 8283155
2726.88 8643391 9014232 9360842 9704791 10064736 10427607
2732.66 10731200 10951643 11140562 11236620 11204176 11103496
2738.45 10932612 10741057 10840088 11246931 11133836 10645033
2744.23 10539847 10670972 10971623 11421318 11896370 12234453
2750.02 12310120 12247294 12122043 11884742 11516817 11040954
2755.80 10518192 9968116 9458685 8986270 8564565 8229435
2761.59 7959368 7745548 7538271 7343968 7181739 7059207
2767.37 6971691 6894267 6814088 6764531 6777944 6767386
2773.16 6735540 6753915 6804700 6873132 6957453 7046180
2778.94 7140122 7221399 7313881 7399284 7462454 7513107
2784.73 7555631 7586950 7624579 7687314 7780982 7899198
2790.52 8077008 8314006 8703923 9143903 9124199 8971781
2796.30 9095237 9356327 9657035 9897012 10146257 10401397
2802.09 10645343 10923803 11277675 11646182 12051226 12483167
2807.87 12948080 13406361 13836855 14304905 14836870 15398907
2813.66 15936085 16518029 17189455 17819620 18395836 19069525
2819.44 19948380 21027536 22186755 23268438 24324351 25415525
2825.23 26483644 27558277 28692937 29877316 31088080 32231679
2831.01 33436272 34760534 36134679 37484472 38937051 40703838
2836.80 42857950 45486611 48421452 50952940 53209585 55790591
2842.58 58608400 61589732 64707778 67798009 70960678 74370010
2848.37 78203945 82657504 87773058 92952361 97857016 102971893
2854.16 108810817 115225884 121939262 128772535 135715570 142583986
2859.94 149255343 155727380 162134675 168432849 174647858 180642334
2865.73 186169456 190827857 195854786 204107684 220965272 240730797
2871.51 251602777 257514612 266629561 280690945 297157043 311797375
2877.30 322136274 326884254 325703544 318565121 306752977 291756553
2883.08 279284109 273257676 288610936 308484920 296558951 285297995
2888.87 286773568 287299788 292231537 299446235 305450698 308214971
2894.65 307746294 304273677 299044801 292614793 285614685 278227589
2900.44 270654719 263644069 257745611 252535336 249172652 248545031
2906.22 250366552 252877836 255346401 258879153 263070796 267805746
2912.01 273440097 278473187 283326800 289179202 294463655 299683984
2917.80 307344629 319248838 334014296 345007981 354223029 366240269
2923.58 373689228 378300406 387549098 398119826 407972506 417001098
2929.37 428675796 444812005 467794314 487459705 482061834 469278446
2935.15 470292758 480852174 498601632 512285198 516978337 517891196
2940.94 516670325 517400225 518803030 520994856 527418021 542236083
2946.72 560319459 566687740 561972502 559526325 567008886 580715028
2952.51 596417446 612255295 628871228 645020425 659334707 673059610
2958.29 686204027 697640721 707618474 718279975 736679289 777100959
2964.08 853669826 908362504 862639396 791055222 741526107 697826873
2969.86 661793647 637221180 650039972 662228943 646124534 628336287
2975.65 620818714 619882533 621401075 621284261 617049338 606827710
2981.44 589869331 566520914 538034866 505765294 471732631 437194863
2987.22 402975287 369875684 338418437 308976269 281708631 256687812
2993.01 234001422 213282284 194318367 177132404 161570921 147339544
2998.79 134337017 122365844 111363793 101311765 92104305 83619854
3004.58 75832445 68718930 62211435 56269808 50896557 46040322
3010.36 41651536 37703990 34232088 31159480 28401036 25906706
3016.15 23689699 21742266 20026291 18512752 17192649 16032363
3021.93 15018698 14113679 13310495 12618449 12027440 11499369
3027.72 11017971 10591828 10242083 9943015 9655148 9392030
3033.50 9167605 8952077 8777372 8617311 8486235 8378860
3039.29 8275333 8176827 8071222 7986524 7933732 7847054
3045.08 7758554 7714040 7654982 7581825 7539884 7495844
3050.86 7459025 7426361 7407520 7418894 7423286 7445730
3056.65 7480929 7511047 7546921 7605307 7697746 7785243
3062.43 7873350 7956386 8032245 8116861 8218760 8310648
3068.22 8405946 8494882 8565812 8640526 8713013 8781856
3074.00 8808630 8814942 8872908 8902201 8877894 8833489
3079.79 8804377 8776766 8753756 8886957 8967056 8836978
3085.57 8842241 8908756 8793366 8608526 8452299 8282122
3091.36 8128277 7978935 7795167 7593954 7369284 7169905
3097.14 6976219 6791033 6639159 6445975 6273612 6094594
3102.93 5936935 5792014 5622422 5489097 5373150 5269863
3108.72 5175222 5068669 4978333 4891483 4794468 4734736
3114.50 4678901 4648150 4604779 4542606 4544292 4512700
3120.29 4475068 4484619 4493996 4489405 4496215 4524028
3126.07 4540180 4564095 4604750 4652280 4691939 4729032
3131.86 4767259 4823019 4895923 4954423 4991298 5068458
3137.64 5174596 5234410 5306479 5395301 5463496 5496131
3143.43 5538735 5591583 5636137 5699785 5795497 5891535
3149.21 5960056 6051511 6167347 6284673 6403644 6512621
3155.00 6651228 6795334 6907860 7034308 7140577 7209275
3160.78 7252196 7270852 7291703 7348182 7417728 7523352
3166.57 7670226 7847096 7986739 8032832 8099621 8142610
3172.36 8140877 8185488 8216423 8094523 7999613 7923310
3178.14 7747012 7566903 7447543 7399735 7393933 7523496
3183.93 7669402 7679615 7706774 7765087 7572258 7216284
3189.71 6982391 6803612 6607648 6456765 6311976 6165844
3195.50 6029705 5878639 5779198 5674585 5562722 5462090
3201.28 5362774 5314843 5199706 5095080 5042157 4922144
3207.07 4824715 4763273 4717367 4672668 4662040 4620118
3212.85 4547861 4528001 4505304 4481627 4490198 4477554
3218.64 4500710 4548080 4567124 4589389 4549476 4508264
3224.42 4459301 4380860 4282944 4133172 3970681 3804730
3230.21 3639587 3514543 3455463 3435290 3401777 3349942
3236.00 3340106 3311477 3226150 3147151 3059667 2964692
3241.78 2858667 2727981 2584800 2442163 2298742 2160370
3247.57 2028593 1915024 1779915 1636738 1540500 1462984
3253.35 1389863 1298420 1213544 1139919 1066080 1001845
3259.14 980504 956285 888802 853342 830617 804769
3264.92 794336 802173 800479 774008 779246 773404
3270.71 752821 761719 798834 801238 783098 802764
3276.49 806294 789742 806734 795797 784732 797885
3282.28 805307 829893 855603 878930 849464 838401
3288.06 865347 852633 820386 800863 790173 800814
3293.85 801237 784998 771735 761203 766508 777543
3299.64 775495 729415 687209 676289 654511 631673
3305.42 606336 584817 591701 585572 572142 561489
3311.21 541777 512829 486035 471690 471382 462158
3316.99 463196 476713 468886 470679 452103 438390
3322.78 436972 427217 475232 490246 477566 500910
3328.56 504223 517696 543569 554696 563530 563395
3334.35 599924 647556 642436 628923 645194 671663
3340.13 652426 677235 753269 755314 725761 726311
3345.92 757173 781505 775199 776477 804675 803277
3351.70 796903 823979 826067 825522 842043 839082
3357.49 856361 844843 817927 826356 843788 861118
3363.28 845644 839239 848074 882297 889815 865597
3369.06 873322 846937 835296 872597 910337 911878
3374.85 927232 991725 1008763 1005667 1004567 1027240
3380.63 1081986 1096555 1132522 1183628 1193979 1219561
3386.42 1257856 1268962 1264817 1278086 1299742 1331479
3392.20 1374219 1371747 1360350 1362033 1362781 1345280
3397.99 1313036 1272700 1224083 1221518 1228164 1232720
3403.77 1223781 1189487 1170289 1121626 1064525 1043803
3409.56 1031328 1024434 998019 926936 865312 822416
3415.34 763744 713711 643559 578307 537425 469872
3421.13 414674 392931 362104 353873 335183 292528
3426.92 288634 270038 262241 287817 278273 247215
3432.70 224412 215014 205561 197748 216365 214789
3438.49 188175 186659 187314 165386 173851 144859
3444.27 124056 137898 131297 125191 149930 163230
3450.06 160163 148406 89799 87330 104217 83763
3455.84 74944 86003 116704 113470 99898 95352
3461.63 104378 130411 128097 99794 91683 104338
3467.41 87973 103384 117541 108191 104509 114342
3473.20 119389 100652 88202 103304 122798 139561
3478.98 134784 147928 165658 135087 107575 111301
3484.77 140869 150405 139007 119836 122092 114844
3490.56 86017 85081 109702 125456 131321 139146
3496.34 101191 92554 124394 102225 99058 126081
3502.13 119317 118947 138066 120114 87121 91730
3507.91 103414 78716 51076 55036 76727 89269
3513.70 65529 26099 20996 29581 49573 45990
3519.48 34629 41938 45030 22753 8624 5980
3525.27-4825 13482-2794 5396 52743 39534
3531.05-29067-31350-8582-565 16176 1534
3536.84 15143 15698 1562 13309 26704 4019
3542.62-2456 9269 30940 38680 37460 53146
3548.41 30353 19586 22757 27111 43600 28942
3554.20 32723 61618 42959 30599 48424 52504
3559.98 72211 107599 93431 92271 115786 125183
3565.77 137483 161421 177375 152034 129778 122700
3571.55 124826 133930 156435 156775 159220 210466
3577.34 203007 209206 225868 215822 218645 223286
3583.12 232281 239170 282529 288576 300699 352988
3588.91 322586 287708 316102 357350 361273 358327
3594.69 370161 372919 384242 390479 417250 464655
3600.48 483546 451660 442216 468902 489326 522396
3606.26 550304 561429 580912 583106 596633 638907
3612.05 664788 670685 667665 661676 668840 689855
3617.84 743009 768212 744886 747618 760311 756627
3623.62 745439 775898 817215 843666 871128 882245
3629.41 849262 819865 787633 781670 794398 766786
3635.19 774828 823330 877732 875451 886115 909164
3640.98 896184 889956 890475 900770 897537 922287
3646.76 929409 971008 997156 956936 932732 891292
3652.55 888219 878309 873796 876245 845188 848454
3658.33 872753 867511 864626 877602 871271 875279
3664.12 881744 879961 875608 917000 946053 992609
3669.90 1011660 935400 926033 955899 1008759 1086971
3675.69 1068875 1034290 1051610 1060931 1054146 1043999
3681.48 1081496 1128462 1140956 1123965 1111235 1142476
3687.26 1250125 1227537 1129792 1137263 1115199 1082774
3693.05 1086229 1097077 1099116 1063861 1061482 1081974
3698.83 1083560 1127652 1177776 1163964 1139799 1129515
3704.62 1136384 1148226 1126092 1139146 1162146 1159549
3710.40 1246081 1308266 1263937 1259853 1297967 1345156
3716.19 1371958 1350166 1331342 1335029 1335700 1354483
3721.97 1372333 1368109 1330509 1332216 1371908 1355764
3727.76 1322398 1322127 1344546 1410212 1420065 1395345
3733.54 1406899 1393485 1402715 1342559 1283629 1251858
3739.33 1207237 1159271 1086853 1083628 1160266 1085546
3745.12 929738 875987 857340 947806 910439 809498
3750.90 880344 836814 724656 673140 667653 714138
3756.69 703062 686330 713181 711506 666342 629759
3762.47 627826 632930 647488 615217 587195 619778
3768.26 647798 624384 595255 600397 586831 568459
3774.04 564054 577383 595096 615867 641374 631432
3779.83 599065 594241 593793 610528 613694 582820
3785.61 566420 578665 566312 543486 573034 570232
3791.40 542994 550324 543002 551168 587898 586913
3797.18 566322 561831 585391 685605 687751 587759
3802.97 556012 559778 595591 644576 606009 556560
3808.76 584010 604375 596973 596536 615667 644236
3814.54 738120 765682 693276 675756 686192 745773
3820.33 775771 732561 730199 760121 788910 830213
3826.11 856447 863917 892987 925949 1001973 1078404
3831.90 1098107 1140166 1253308 1294107 1334283 1503564
3837.68 1530635 1523195 1591000 1603715 1598506 1669297
3843.47 1738915 1753312 1761446 1781125 1811951 1826777
3849.25 1813753 1907986 2043030 2082711 2164233 2103813
3855.04 2024015 2049490 2061325 2036309 2003456 1988019
3860.82 1953444 1860588 1794492 1818982 1757051 1649361
3866.61 1621085 1652942 1694677 1633410 1565005 1532388
3872.40 1502269 1502771 1477468 1462339 1440029 1414175
3878.18 1421419 1422063 1380133 1325912 1286663 1252479
3883.97 1273323 1282522 1237089 1203655 1168684 1159252
3889.75 1181136 1165883 1131168 1130160 1101896 1088214
3895.54 1088464 1065479 1070213 1094588 1058847 1051438
3901.32 1035714 1020792 1044131 976048 936470 939057
3907.11 923890 897335 895963 908794 873616 854749
3912.89 857867 838813 827555 836500 844802 840669
3918.68 826818 791022 794425 797257 768473 748891
3924.46 722753 718675 722976 707262 710518 706708
3930.25 685100 698700 710222 689584 669882 658871
3936.04 654965 617440 590061 617469 616197 619338
3941.82 621837 603489 598577 572739 577173 592737
3947.61 563684 542499 542066 512369 519572 554873
3953.39 551257 558150 539953 526047 524636 514942
3959.18 521776 527001 520210 528874 543583 521837
3964.96 527563 549640 550791 531435 537281 579741
3970.75 579977 591313 604105 600571
##END=
