##TITLE=1,4-Dimethylbenzene
##JCAMP-DX=4.24
##DATA TYPE=INFRARED SPECTRUM
##CLASS=IUPAC A
##ORIGIN=NIST, Analytical Chemistry Division, 301-975-3108
##OWNER=COPYRIGHT (C) 2001 by the U.S. Secretary of Commerce
##DATE=01/06/01
##$SPECTRA VERSION=1.10
##$UNCERTAINTY IN Y=2.1 % relative (B=1.10E-04,C=1.28E-9,D=4.08E-14)
##CAS NAME=1,4-Dimethylbenzene
##CAS REGISTRY NO=106-42-3
##MOLFORM=1,4-( C H3)2 C6 H4
##MP=13.26 C
##BP=138.35 C
##$NIST SOURCE=QUANT-IR
##SPECTROMETER/DATA SYSTEM=IFS66V (Bruker)
##INSTRUMENT PARAMETERS=KBr Beam Splitter; MCT Detector; Multipass cell
##STATE=gas
##SAMPLE DESCRIPTION=p-Xylene Primary Gas Standard
##PRESSURE=101.3 Pa
##TEMPERATURE=23 C
##SAMPLING PROCEDURE=1 L/min Flow
##RESOLUTION=0.9640
##DATA PROCESSING=Happ Genzel Apodization
##XUNITS=cm-1
##YUNITS=(micromol/mol)-1m-1 (base 10)
##XFACTOR=1.0
##YFACTOR=9.0949E-13
##DELTAX=0.4820
##FIRSTX=575.17
##LASTX=3974.605
##FIRSTY=1.62E-06
##MAXX=3974.12
##MINX=575.17
##MAXY=.0006343
##MINY=-9.80E-07
##NPOINTS=7052
##XYDATA=(X++(Y..Y))
575.17 1791379 2172269 1713416 1061462 876113 582056
577.58 122184 966744 1159502 525342 177833 870889
580.47 1121227 321652-574278-650531-757727-570267
583.37-385293-341722-4493 214249 342619 839298
586.26 457603-86010 53938-195256-519456-991777
589.15-101892 740289 444794 161389 308822 356514
592.04-20160-290026-432216-392919-280257-412149
594.94-691694-956343-124413 475328-120348-551030
597.83-439662-492078-686103-462294-192174-407070
600.72-919945-988602-566090-259961-608798-533835
603.62-618938-568490 18868-305545-742813-300116
606.51-559035-995795-1078532-978972-744401-375595
609.40-99487-239861-554747-358078-215064-570762
612.29-944698-845918-759690-895697-882076-687366
615.19-657711-944598-638965-193332 39574 3843
618.08-514871-924597-995292-678865-396608-531190
620.97-551664-796804-755080-291489-129028-396959
623.86-595110-383426-412963-586849-766982-454511
626.76-429123-841306-1003431-757482-371034-300603
629.65-99809-37430-322992-743761-387226-45547
632.54-330160-369640-593143-734267-573239-585081
635.44-911961-770463-372802-73481-129137-479816
638.33-306989-318238-773281-674455-192387-79508
641.22-153777-247318-354836-368977-311870-417364
644.11-383682-353751-554998-641937-414240-427672
647.01-284364-106458 9889 149203-293962-642601
649.90-333201-225071-351038-498932-543137-301331
652.79-111819-298926-438556-578753-521957-276018
655.68-271410-125370-21209-189218-524274-371268
658.58-184830-312270-342072-341375-228184-210057
661.47-435704-358126-121087-276309-356305-366670
664.36-389798-124298-131362-161916 39062 734049
667.26 1002298 261916-270419-374555-54294-76735
670.15-305427-423960-314127-313831-457786-303374
673.04-270702-258662-406358-468070-225100-130751
675.93-60697-220210-255993-170055 93944 151459
678.83 228338 266123 209845-11140-273717-289047
681.72-222912-404598-462345-73842-442874-889498
684.61-496784-36086-6794-81250-29643 71106
687.50-58113 128225 162501 126230 243853 127076
690.40 163096 172302 117060 163887-31702-48389
693.29 82481 390415 387961 333832 373114 298914
696.18 330607 423374 470311 214381 126878 472417
699.08 506615 498142 765071 670282 405244 211482
701.97 26759 239367 188150 159703 251599 101255
704.86 117223 411430 414020 188977 170973 184037
707.75 276166 148847 89946 263071 233364 30128
710.65 34630 176182 267782 396577 504917 483960
713.54 273802 255696 333053 123592 59303 267293
716.43 348639 98087 207847 515013 381693 105677
719.32 93887 246871 225271 172396 229051 269020
722.22 285811 83633 18643 181717 262640 273747
725.11 228387 227749 294981 409201 474812 484813
728.00 263144 191167 367989 407576 432507 327932
730.90 414106 566663 467835 419505 366686 266040
733.79 339939 270573 175696 222157 292134 231738
736.68 79271 235756 343057 445017 391938 211559
739.57 393630 771937 995893 1107220 897118 361602
742.47 92337 267728 405636 463077 601576 542135
745.36 300532 279089 404501 530596 591284 588991
748.25 606201 695022 680996 602112 708497 771646
751.14 660028 776303 751095 729689 954638 1065622
754.04 1052328 1099344 1091704 980538 1016240 1232564
756.93 1241107 1215802 1402252 1589982 1736792 1806033
759.82 2094268 2436052 2471762 2713903 3096708 3188020
762.72 3679627 4361794 4751838 5333063 6035350 6831297
765.61 7635772 8626380 9683111 10863667 12193452 13280015
768.50 14418734 15967687 17779780 19608854 21555559 23745353
771.39 26081755 28855749 31774312 34924392 38418112 42009253
774.29 46042551 50389465 54986038 60003929 65134921 70189162
777.18 75699969 81575261 87445868 93491594 99453075 105640409
780.07 111791431 118223120 124943566 131683461 138101333 144787854
782.96 151221188 156874305 161901996 166801556 171964976 178079749
785.86 184992430 191339829 194136363 193447874 191072395 189246332
788.75 189021543 190311421 192159410 194909563 198622369 204077607
791.64 213461401 230863129 260987302 312110634 393566937 508869501
794.54 643753124 697500880 562401309 366962688 254999837 213464958
797.43 199901458 195310198 194664754 195180001 196569477 197683122
800.32 197970877 197453707 196472049 195046686 193835733 192656414
803.21 190046372 185031886 179283033 174269777 169883014 165096108
806.11 159858381 153846808 147056076 139495566 131519336 123653918
809.00 115888120 108326566 101534233 94841595 88405291 82023616
811.89 75857741 69909882 63940181 58136149 52916398 47948166
814.78 43266881 39009744 35199767 31457862 28224653 25121628
817.68 22361205 19976312 17884638 16166298 14474980 13008668
820.57 12061957 11293198 10407308 9592110 9099439 8498893
823.46 8056705 7769180 7730723 7563013 7137117 6879004
826.36 6746992 6508923 6275772 5948943 5938429 5938020
829.25 5766725 5630932 5543335 5378822 5161131 5097412
832.14 5095349 4998828 4971405 4957947 4908651 4826831
835.03 4767757 4699663 4822381 4645398 4474330 4347425
837.93 4174024 3855305 3572837 3435129 3374706 3241404
840.82 2780451 2443779 2176117 2114716 2245823 2136666
843.71 1972678 1760735 1668791 1477656 1236695 1263858
846.60 1412108 1472727 1482638 1366899 1241994 1048351
849.50 775660 782734 1093644 1153815 1046979 1106363
852.39 1158828 1136655 986299 823899 886571 973536
855.28 957142 951962 999523 937040 956349 1028597
858.18 1014459 941122 895418 793845 860280 934919
861.07 886058 832883 976226 1039618 1045233 1056765
863.96 955158 1104367 1149570 1019491 873879 836231
866.85 1002866 1060912 1014761 1076915 1221136 1215407
869.75 1219345 1288431 1173481 1238887 1230694 1147714
872.64 1237060 1218188 1270847 1262935 1232839 1222631
875.53 1135478 1197549 1268877 1234503 1362721 1410958
878.42 1281831 1178401 1160638 1322462 1469303 1441677
881.32 1292803 1113023 1059234 1121382 1299689 1311895
884.21 1309711 1442933 1504836 1525360 1494456 1377849
887.10 1383842 1359797 1522050 1614071 1608754 1606839
889.99 1570759 1500963 1456099 1463651 1606294 1649260
892.89 1603812 1634178 1558874 1566549 1606272 1611963
895.78 1629041 1676689 1640278 1584844 1679529 1696979
898.67 1594697 1555913 1569127 1572404 1624340 1637692
901.57 1612618 1579796 1529750 1617294 1639173 1588549
904.46 1621315 1752106 1768736 1793859 1828210 1797973
907.35 1882080 1898165 1816785 1864647 1925872 2018257
910.24 2108646 2261015 2295866 2370055 2478654 2648538
913.14 2604701 2565772 2673121 2734459 2901524 3081770
916.03 3038253 2852168 2889150 3024906 3009933 2984758
918.92 2947719 2996881 3073667 3060115 3078720 3181798
921.81 3242513 3258514 3219747 3220958 3267073 3313970
924.71 3298934 3203157 3262764 3279862 3264112 3376294
927.60 3400497 3276390 3137690 2859333 2749792 2833668
930.49 2931654 3045414 3075479 3004150 2916834 2782723
933.39 2673706 2719024 2824467 2771858 2777320 2731323
936.28 2635833 2617473 2649093 2579788 2614644 2858869
939.17 2908628 2728030 2734645 2863287 2905589 2936802
942.06 2938652 3019002 3072743 3063769 3174607 3216684
944.96 3224737 3275677 3313667 3364799 3496114 3530704
947.85 3545133 3578340 3607498 3689849 3656823 3680796
950.74 3784811 3882414 3952210 3985181 4116769 4166658
953.63 4248251 4323886 4289864 4346086 4534807 4686359
956.53 4709963 4632339 4678039 4800530 4801029 4685262
959.42 4607556 4685233 4918951 4999609 4877798 4714416
962.31 4684725 4802440 4770449 4708371 4770926 4922263
965.21 5044696 4996631 5002792 5030012 5125709 5123340
968.10 5088371 5259109 5370044 5463202 5455492 5309136
970.99 5218540 5172472 5043399 4985740 5022405 4993065
973.88 5013707 5014506 4918816 4886577 4858842 4919610
976.78 5005643 5020994 5011082 4986807 4891248 4792841
979.67 4818391 4904124 4843958 4768352 4781815 4826645
982.56 4929449 4929184 5008808 5027404 4951063 4944228
985.45 4915497 4890866 4872884 4864649 5047660 5056494
988.35 5093211 5152321 5177041 5268194 5307933 5223774
991.24 5224934 5398745 5433582 5393926 5456392 5426023
994.13 5476968 5504499 5457055 5550391 5646145 5655104
997.03 5658678 5721823 5735435 5696310 5742170 5694604
999.92 5623561 5641106 5676056 5686241 5624785 5470686
1002.81 5375564 5356694 5289295 5295198 5289572 5378428
1005.70 5408578 5353228 5341937 5418366 5559530 5690642
1008.60 5977051 6282536 6546344 6867408 7289692 7819736
1011.49 8497527 9192215 9917430 10955438 12249790 13618958
1014.38 14969686 16397067 17874345 19529388 21325784 22948321
1017.27 23974279 24426000 24719961 24676877 24234827 23603892
1020.17 22595793 21669100 21169175 21009691 21463977 23695503
1023.06 28473390 32775206 30863500 24422464 21277522 21654209
1025.95 23145840 24908201 26573298 27998313 29100152 29789134
1028.85 29816322 29411898 28997726 28133533 26890303 25680404
1031.74 24609808 23512034 22174782 21418790 20975730 20347475
1034.63 19791327 19345914 19049052 18905988 18946466 18996279
1037.52 19028469 19098619 19282664 19542380 19948783 20511486
1040.42 21197558 21955529 22851374 23976088 25023722 25623386
1043.31 26038634 26523665 27077879 27622350 27488970 27004279
1046.20 26695429 26628982 27032398 27541168 27823290 28020734
1049.09 27720669 27044999 26768726 27017760 27308301 27272857
1051.99 26957500 26678393 26238699 25849415 25737758 25660057
1054.88 25405655 24960580 24516821 24068894 23703300 23309365
1057.77 22755935 22278984 21966401 21534933 21027311 20717489
1060.67 20390671 19994439 19692425 19337930 18940822 18580897
1063.56 18186190 17707074 17239576 16825922 16411582 15956345
1066.45 15536912 15134643 14717541 14456707 14243894 13919738
1069.34 13551628 13324440 13113216 12666984 12359531 12128096
1072.24 11764188 11465224 11289874 11044993 10885973 10796821
1075.13 10649505 10487106 10339838 10160115 9946811 9922791
1078.02 9953738 9834309 9717668 9645879 9793223 9904035
1080.91 9946483 10048569 10137078 10399205 10510589 10433005
1083.81 10602271 10920356 11082304 11331160 11633518 11886667
1086.70 12221955 12485202 12844634 13339542 13836411 14218162
1089.59 14711715 15254204 15819962 16417276 17067510 17676119
1092.49 18167187 18576883 19022942 19509657 19872155 20108167
1095.38 20419966 20702094 20826015 20860996 20832245 20730885
1098.27 20348169 19919729 19572185 19482575 19667517 20043627
1101.16 20556615 21194051 22142819 23428675 24537158 25436693
1104.06 26423518 27404691 28188608 28931627 29489638 30150520
1106.95 30836087 31412154 32032358 32718563 33468249 34433073
1109.84 35551498 36639329 37919154 39250258 40474242 41747287
1112.73 43228921 44352722 44978835 45455853 45612032 45263594
1115.63 44460385 43221182 41433733 39019364 36290809 33518553
1118.52 31032977 29135950 27955241 27595974 28287158 29725837
1121.41 31531498 33632470 35664450 37355442 38661771 39420319
1124.31 39689693 39731855 39496202 38739083 37582200 36257749
1127.20 34807618 33165105 31247958 29345503 27475174 25717982
1130.09 24144548 22595819 21042640 19723372 18512309 17406733
1132.98 16582103 15644990 14736578 13869104 13033579 12292456
1135.88 11665976 11059819 10464960 9881413 9321016 9002391
1138.77 8587622 8180130 7785386 7320306 7065433 6887846
1141.66 6529025 6187511 5850707 5593455 5455491 5308096
1144.55 5125445 5057818 4868178 4650821 4585926 4456887
1147.45 4337826 4248502 4195060 4112964 4023884 3966236
1150.34 3853499 3798956 3768341 3767134 3802428 3633096
1153.23 3572252 3606822 3585516 3561086 3673877 3612214
1156.13 3478194 3392390 3375805 3521679 3565738 3496173
1159.02 3497467 3489833 3445477 3358845 3372343 3450509
1161.91 3468360 3465064 3529718 3518960 3463712 3451843
1164.80 3511042 3480371 3439223 3590802 3680807 3778358
1167.70 3824638 3756884 3634704 3570649 3636800 3721832
1170.59 3718078 3670788 3663396 3741786 3740283 3666006
1173.48 3606684 3612938 3801606 3975614 3935209 3851601
1176.37 3769769 3708961 3760361 3872036 3854005 3737584
1179.27 3737840 3759610 3792687 3760795 3794297 3780682
1182.16 3736349 3729011 3624041 3534106 3590079 3661541
1185.05 3682850 3544517 3468948 3425876 3357434 3265884
1187.95 3244906 3209862 3191558 3233382 3229666 3199746
1190.84 3305651 3260330 3119797 3079414 3076945 3061844
1193.73 3112211 3080953 3022310 3010690 2963526 2935664
1196.62 2852109 2775671 2864056 2918342 2894432 2915194
1199.52 2956439 2931131 2948954 3033691 3184488 3208665
1202.41 3123883 3190104 3264340 3316720 3496745 3744364
1205.30 3991126 4197048 4551682 4962818 5201539 5594815
1208.19 6140908 6664022 7202441 7889682 8719786 9556300
1211.09 10372533 11142349 11862482 12648752 13278779 13851082
1213.98 14319532 14626315 14793867 14754589 14736865 14661089
1216.87 14354486 13878947 13431784 13389766 14019683 15178696
1219.77 16525408 17515039 17237809 15503124 13975763 13891530
1222.66 14732534 15895330 16990164 17980854 18703865 19093324
1225.55 19253171 19145415 18748060 18191295 17516864 16851411
1228.44 16259121 15763430 15336266 14936022 14721288 14642609
1231.34 14701844 14786278 14818894 14868951 15079926 15161299
1234.23 15069764 14884735 14642189 14349284 14119078 13817468
1237.12 13492084 13396717 13602163 13913763 14316536 14664269
1240.01 14754596 14521686 14130686 13792402 13589264 13345674
1242.91 13186172 13227207 13100421 12861608 12629215 12234819
1245.80 11702402 11093062 10428099 9784435 9110564 8520155
1248.69 7853478 7191439 6737618 6270073 5824813 5558295
1251.59 5264047 4908625 4688167 4644526 4533071 4357663
1254.48 4129695 3997520 3926155 3984642 3920147 3761647
1257.37 3632578 3661201 3712966 3655130 3468454 3359240
1260.26 3379265 3318215 3235304 3227526 3201792 3149314
1263.16 2978205 2926586 3126481 3305229 3349274 3261725
1266.05 3226554 3315834 3365859 3309729 3168099 3094531
1268.94 3188779 3233172 3154839 3106278 3076860 3010305
1271.83 2900495 2898033 2850802 2735621 2809676 2845411
1274.73 2748087 2718239 2690716 2600012 2623299 2603860
1277.62 2563277 2545147 2559271 2534936 2554949 2546989
1280.51 2486893 2544673 2506131 2491725 2578770 2534652
1283.41 2493080 2546199 2553563 2572977 2588853 2565969
1286.30 2550825 2609611 2701419 2664698 2599548 2550494
1289.19 2604681 2668751 2728304 2784444 2632796 2600308
1292.08 2664704 2752388 2808919 2767846 2760862 2776397
1294.98 2772942 2863975 2942683 2971729 3022456 3116089
1297.87 3128706 3094123 3145169 3229013 3194630 3279723
1300.76 3525464 3690449 3648852 3683936 3827210 3925748
1303.65 4023654 4196823 4405097 4701712 4833161 4615119
1306.55 4512097 4658027 4756157 4824532 4902814 4925341
1309.44 5096326 5261853 5344297 5402963 5460518 5524620
1312.33 5572584 5556044 5491124 5446015 5440515 5364127
1315.23 5288020 5326541 5296117 5293792 5345268 5410333
1318.12 5546018 5706296 5907707 6181122 6324627 6352203
1321.01 6353342 6479737 6604119 6677580 6636268 6697350
1323.90 6726871 6592540 6500593 6510141 6636336 6766011
1326.80 6806236 6821029 6858123 6887696 6941446 6978343
1329.69 6905585 6947278 7078791 7153359 7251715 7249507
1332.58 7138607 7186628 7248197 7209707 7222122 7370325
1335.47 7525807 7611361 7701923 7914889 8085710 8112543
1338.37 8327093 8677932 8889223 9050569 9257702 9613798
1341.26 9890471 10067412 10418654 10601317 10446006 10187154
1344.15 9941464 9777086 9651820 9526149 9504497 9518525
1347.05 9392844 9219234 9012327 9120331 9174740 9133007
1349.94 9150036 9115528 9046319 9057893 8967270 9074076
1352.83 9444843 9676991 9711981 9798972 9727576 9354743
1355.72 9550840 9645046 9310692 8993695 9127126 9159083
1358.62 8940264 8666359 8536321 8587210 8729413 8840324
1361.51 8823743 8777630 8965032 9067681 9149490 9140778
1364.40 9226884 9561510 9778800 9755062 9782682 9954616
1367.29 10103346 10145555 10245518 10320144 10380786 10396659
1370.19 10539892 10691453 10900315 11236682 11621629 12031308
1373.08 12464324 12941281 13467518 14147856 14927133 15705721
1375.97 16455362 17310761 18279736 19207171 20107018 20913912
1378.87 21467597 21794772 22018299 22129628 22289867 22488115
1381.76 22953121 24248659 26682474 28333533 26489678 24066445
1384.65 23655193 24325891 25361327 26431088 27225456 27762973
1387.54 28212272 28353495 28452262 28441904 28260300 27745670
1390.44 27018006 26304645 25663760 24934578 23989926 22936094
1393.33 21968442 20924213 20218952 19758221 19287027 18931977
1396.22 18602644 18265127 18002041 17812014 17645138 17471140
1399.11 17372109 17334609 17339312 17362956 17573344 17791134
1402.01 17962905 18166776 18389398 18532891 18685128 18840259
1404.90 19098636 19396897 19717875 20120384 20531280 20830716
1407.79 21061430 21372747 21693167 21923406 22369467 22775597
1410.69 22923547 23108518 23455327 23909063 24248523 24752713
1413.58 25319536 25679260 25733696 25830091 26226945 26718262
1416.47 27285352 27856860 28575244 29276617 29705047 30055421
1419.36 30920057 31858821 32535728 33145070 33720170 34489634
1422.26 35307120 35932510 36407088 36941997 37509291 37869535
1425.15 38309278 38856988 39287641 39700410 40057647 40042349
1428.04 39848694 39686959 39426696 39262887 39377833 39738050
1430.93 40184839 40333124 40161004 39902219 39806227 39936336
1433.83 40114851 40206020 40091084 39968176 39843699 39773134
1436.72 40083598 40256612 40190295 40060221 39935976 39782424
1439.61 39532595 39228072 39022532 38652566 38074199 37306088
1442.51 36257769 35173727 34279430 33654774 33080140 32494393
1445.40 32072732 31751401 31406215 31138774 31216968 31478928
1448.29 31819445 32261427 32668846 33231559 33948209 34759574
1451.18 35561693 36260789 37108313 37793490 38129076 38168136
1454.08 38018787 37776690 37490662 36853190 35737254 34934449
1456.97 34754530 34425183 34303082 34482620 34631142 34866886
1459.86 35232050 35650451 36142765 36863651 37840246 39032789
1462.75 40307937 41495362 42527908 43278140 44210024 45429066
1465.65 46461338 47432585 48452882 49545657 50634032 51429622
1468.54 51997297 52522085 52819413 52658085 52033740 51058268
1471.43 49935744 49044424 48072852 46730760 45725882 44989447
1474.33 44141017 43201152 42059635 41095845 40548327 40051528
1477.22 39568939 39244184 39137009 39253113 39573152 40082311
1480.11 40477155 40760979 41252192 41978616 42820317 43644611
1483.00 44271938 44925417 45562251 45881330 45870401 45697819
1485.90 45608667 45621826 45533452 45385195 45203466 45025085
1488.79 44916043 44777739 44677335 44535135 44526956 44658511
1491.68 44755354 44961528 45418191 46253262 47471119 48883473
1494.57 50130675 50868051 51205281 51877064 52939900 53884336
1497.47 55114589 56440684 57556087 58515492 59282798 59866531
1500.36 60300981 60654290 60979986 61336125 61827549 62499234
1503.25 63322852 64513591 66295235 68531373 71431864 75336594
1506.15 79563981 84689726 91346924 98623887 106645400 116028174
1509.04 126495777 137957005 150548036 164116141 178447430 193047657
1511.93 207630767 221934520 234920703 246098673 255059671 260754056
1514.82 262122160 259326475 253738045 247147577 240752557 236492184
1517.72 237119998 245116617 260904424 279014554 290227006 286942540
1520.61 268649156 246202532 230343233 225105824 229759122 239070313
1523.50 248879176 257374412 263224573 265367457 262639230 253708286
1526.39 240494406 225193139 208667155 191502293 174525687 158277123
1529.29 142924131 128647944 115655524 103711131 92879231 83330277
1532.18 74875526 67413505 60943049 55421092 50772460 46571009
1535.07 42889784 39701681 37037112 34749886 32672862 30903717
1537.97 29209029 27432626 26390829 25477646 24591392 24174157
1540.86 23540535 22431602 21699034 21428670 20865694 20267668
1543.75 19741849 19123838 18545738 18365998 18199170 17925234
1546.64 17602948 17255865 17016116 16885606 16773253 16617678
1549.54 16545641 16487488 16365021 16265415 16072593 15823582
1552.43 15623517 15361170 14961309 14523347 14560905 14467990
1555.32 14078879 13824653 13654095 13250396 12952099 12514678
1558.21 12333163 12658695 12394141 11885645 12005406 12240841
1561.11 12108381 11916413 11735357 11643821 11570811 11419646
1564.00 11116111 10921271 10813282 10724958 10608279 10504081
1566.89 10352924 10140564 9955219 9776638 9502188 9239726
1569.79 9227735 9192944 9018308 8867861 8690047 8574636
1572.68 8414256 8292245 8188162 8042861 7807311 7353455
1575.57 6641097 6793153 7180650 7097873 6920562 6755409
1578.46 6689632 6727966 6655219 6604348 6565728 6456973
1581.36 6354255 6187382 6202618 6248428 6121534 6011894
1584.25 5903094 5888062 5857435 5695836 5555998 5566644
1587.14 5588630 5537809 5452176 5350234 5373757 5401321
1590.03 5387932 5396527 5423145 5538955 5736166 5865842
1592.93 5851159 5867123 5815122 5809425 5841762 5865495
1595.82 5956861 5922873 5876692 5918854 6074034 6120758
1598.71 6087765 6185446 6257439 6212010 6257637 6365056
1601.61 6385705 6467734 6600432 6776250 6961568 7105460
1604.50 7194967 7332297 7506206 7690729 7864506 8094084
1607.39 8353609 8612687 8913277 9168531 9375310 9616486
1610.28 9803832 10111926 10500516 10854393 11189922 11607055
1613.18 12134229 12624803 13006405 13411429 13928043 14222952
1616.07 14120466 14788544 15820298 16393938 16876444 17329644
1618.96 17748336 18137548 18351791 18476034 18653863 18693753
1621.85 18670276 18584122 18297039 18053254 18013941 17623719
1624.75 17082038 16597767 16184705 15856349 15611520 15491526
1627.64 15622576 15975428 16469018 16879390 17082352 17241200
1630.53 17372956 17373066 17407498 17197852 16755252 16326466
1633.43 15725354 14982040 14128766 13140181 12581547 12308263
1636.32 11698820 11004755 10419026 10054495 9594423 8976928
1639.21 8472853 8064314 7684126 7305511 7014705 6675057
1642.10 6318343 6023751 5653374 5286007 5037110 4788679
1645.00 4279867 3799526 3871608 3882357 3604475 3412086
1647.89 3295485 3346919 3355905 3153844 2974521 2839988
1650.78 2759767 2405795 1644980 1447890 1436274 1809482
1653.67 2091561 2133007 2360175 2356097 2278702 2245332
1656.57 2277223 2258805 2253288 2189060 2145676 2034551
1659.46 1952954 1963481 1989935 1984385 2130014 2070174
1662.35 1909049 1979786 2059654 2076028 2104923 2098398
1665.25 2055027 1989501 1913670 1867175 1804808 1679487
1668.14 1579676 1351422 1341291 1548978 1619638 1558901
1671.03 1413108 1430765 1604557 1648423 1660650 1660536
1673.92 1506349 1167372 1017947 1253915 1464411 1431706
1676.82 1356699 1325304 1301481 1215424 1169220 1145889
1679.71 1036958 1039604 1119117 1207715 1160257 1010142
1682.60 823385 828557 777992 231705 122988 734716
1685.49 998765 1036005 1038654 1101737 1091079 1056754
1688.39 1051980 1029204 949221 970906 1047481 1017381
1691.28 983356 1027993 998073 976331 918334 951949
1694.17 920148 705078 117873 39393 648485 936039
1697.07 997507 950674 929566 846953 454249 109164
1699.96 204285 507862 821242 884850 860181 876267
1702.85 903660 872681 749055 860284 951937 873988
1705.74 779545 761598 865904 947758 1002823 1099333
1708.64 1158886 1078792 1025073 1117860 1155816 1137770
1711.53 1222199 1333566 1445117 1473082 1491325 1555027
1714.42 1535772 1604736 1832761 1949187 1861571 1574146
1717.31 1917803 2360954 2577593 2887042 3018290 3115741
1720.21 3228764 3316992 3334233 3291715 3279508 3287011
1723.10 3161728 3104007 3099383 3068411 3043767 3048496
1725.99 3139879 3256345 3302266 3318647 3249009 3169007
1728.89 3140673 3121641 3123108 3115388 3074256 3054042
1731.78 3032800 2823176 2318140 2257374 2201713 2035051
1734.67 2321917 2471017 2465698 2497815 2575599 2498650
1737.56 2490320 2496495 2470706 2388375 2362595 2527088
1740.46 2660800 2727873 2726371 2794876 2928934 3046958
1743.35 3138971 3181856 3253854 3229017 3236169 3274173
1746.24 3285742 3372173 3555113 3507078 3453281 3572234
1749.13 3649678 3655099 3597780 3430749 3510300 3852524
1752.03 3944993 3895241 3833838 3791520 3756808 3767275
1754.92 3781757 3811064 3735263 3558109 3571217 3681358
1757.81 3665282 3578947 3515993 3552486 3583775 3526390
1760.71 3338591 3023494 3025842 3203266 3136588 3033556
1763.60 3089763 3181368 3232563 3208466 3120369 3017174
1766.49 2966495 3027807 2972897 3040772 3232603 3253618
1769.38 3291966 3328327 3329654 3409106 3632322 3493115
1772.28 3424684 3907736 4222990 4365918 4616640 4874121
1775.17 5099875 5377368 5699103 6059799 6458223 6911454
1778.06 7409966 7906672 8463362 9069106 9621172 10218627
1780.95 10859578 11421961 11874016 12257401 12613543 12864544
1783.85 12948982 12798385 12655518 12545613 12349704 12125579
1786.74 11883566 11663072 11516398 11566324 11895912 12443526
1789.63 13151676 13544358 13346310 12858451 12218683 11642076
1792.53 11681197 11839004 11746978 11523948 11244866 10935547
1795.42 10458965 9968087 9437564 8722127 7966091 7254331
1798.31 6572381 5858019 5260929 4769006 4210529 3690370
1801.20 3416306 3197756 2913424 2666917 2449516 2262458
1804.10 2114442 1934859 1781027 1722415 1661748 1605948
1806.99 1570119 1449766 1323232 1278663 1226653 1194560
1809.88 1108940 1008134 994955 1003048 1037351 1042533
1812.77 967362 873459 897367 994324 1006683 1016539
1815.67 1038139 958916 914161 957682 963287 954938
1818.56 941822 942655 1028522 1075410 1103539 1141312
1821.45 1171469 1182390 1245230 1330208 1387282 1385210
1824.35 1368573 1429074 1634167 1738718 1798696 1915771
1827.24 2048310 2198485 2269327 2371405 2566663 2699768
1830.13 2869236 3026671 3138779 3316659 3490712 3596767
1833.02 3704741 3776856 3716403 3740808 3827199 3908812
1835.92 4007676 4117236 4215005 4239164 4286204 4295839
1838.81 4260617 4239889 4307040 4427083 4504791 4494674
1841.70 4488006 4538404 4561508 4377157 4110194 4189664
1844.59 4249264 4131355 4118226 4032691 3844638 3681231
1847.49 3572306 3450608 3261746 3142696 3094450 3054673
1850.38 2920313 2743550 2622525 2596461 2579686 2533068
1853.27 2514911 2470557 2442470 2405201 2356622 2371670
1856.17 2333384 2270592 2270982 2332741 2320306 2352638
1859.06 2416030 2452786 2504270 2577272 2622055 2677277
1861.95 2796591 2997837 3213550 3375476 3523038 3670799
1864.84 3837641 4081650 4267692 4449742 4709403 4928795
1867.74 5217384 5541939 5750678 6147155 6616228 6889487
1870.63 7250693 7703181 8076952 8490881 8970943 9486841
1873.52 10053583 10551631 11062766 11633429 12190912 12761943
1876.41 13468479 14270146 15095818 15907342 16725310 17585109
1879.31 18389163 19205165 19996638 20806699 21660192 22389534
1882.20 22948399 23264070 23483892 23495445 23309083 22987382
1885.09 22472269 21856476 21160105 20258227 19273195 18381426
1887.99 17601337 17122149 16996169 17260704 18043156 19065135
1890.88 20220264 21490213 22657001 23576008 24068465 24232993
1893.77 24062481 23667438 23024793 22101975 21068706 19965364
1896.66 18994172 18083235 17085950 16193598 15237592 14141944
1899.56 13116539 12255742 11500550 10837984 10223934 9688069
1902.45 9270357 8767308 8168553 7642364 7190720 6838258
1905.34 6509382 6188137 5906336 5594090 5310959 5008853
1908.23 4700520 4385277 4120945 3892240 3788685 3703691
1911.13 3574319 3419899 3310819 3245262 3127803 2966222
1914.02 2846389 2858695 2869262 2771784 2712993 2650441
1916.91 2540766 2437406 2486544 2563253 2540465 2511255
1919.81 2568741 2615338 2569277 2525484 2521768 2521257
1922.70 2473991 2449134 2444860 2465075 2420958 2309150
1925.59 2250245 2243868 2252889 2228185 2218062 2158772
1928.48 2126724 2096085 2069972 2066723 2064506 2040054
1931.38 1971326 1956062 1908508 1796027 1696972 1643183
1934.27 1627114 1607625 1508903 1388531 1302424 1201140
1937.16 1145686 1056818 995559 965595 924090 897166
1940.05 907555 920349 906055 819870 772965 862528
1942.95 884111 865150 885578 903433 842493 838477
1945.84 868198 828276 839217 847349 898134 961206
1948.73 994254 1000296 1017706 1058226 1051536 1041226
1951.63 1038066 1065025 1119075 1214174 1279749 1285329
1954.52 1294820 1283170 1384652 1494988 1488952 1480835
1957.41 1495745 1340480 1125111 1063716 1046374 1047504
1960.30 1018122 960219 1026992 1012536 931712 967560
1963.20 980583 1025568 1144202 1089261 1059260 1068177
1966.09 1041717 1062233 1089307 1041249 1086070 1137512
1968.98 1088376 1090610 1096665 1103723 1157314 1202456
1971.87 1193860 1142566 1212845 1376516 1511007 1403552
1974.77 1187564 1169126 1240687 1284874 1355089 1364763
1977.66 1345040 1311556 1298813 1385336 1429040 1470577
1980.55 1557646 1573871 1484528 1444966 1499196 1518794
1983.45 1444197 1343962 1327630 1401307 1438288 1500873
1986.34 1523631 1474764 1517017 1491912 1375467 1365461
1989.23 1396879 1391600 1365944 1298631 1273644 1271788
1992.12 1247413 1235116 1256955 1291434 1280443 1344505
1995.02 1368816 1292966 1287209 1343457 1294271 1211547
1997.91 1139412 1092790 1126570 1147039 1095768 1052993
2000.80 1028535 998312 1056361 1088902 1048585 1017575
2003.69 1010281 1046010 1008677 949727 973248 1018255
2006.59 982603 745469 670463 938545 981424 856099
2009.48 790728 857996 854187 803631 789144 746938
2012.37 673903 656557 687258 698554 660625 645263
2015.27 646716 568166 469595 428001 474466 476583
2018.16 462040 486830 448308 399715 340491 371221
2021.05 342007 276533 260438 201216 208494 261350
2023.94 299174 298049 297699 353986 431693 413185
2026.84 379093 314024 358202 366885 291380 286983
2029.73 247869 239847 295359 321790 315660 351100
2032.62 396068 429738 406451 341913 324779 404777
2035.51 352851 259524 217783 209221 200160 242254
2038.41 307354 360589 342279 301790 313448 338303
2041.30 398030 417257 393653 337658 345634 384374
2044.19 383975 359861 290739 273629 288735 214098
2047.09 143151 137057 167196 177216 220860 221661
2049.98 224120 235195 201213 193944 156184 79280
2052.87 25873 49616 48646 44903 26844-45966
2055.76-57599-38255-66521-60064-14672-4673
2058.66-3297-37972-114939-168605-161597-148834
2061.55-77500-52640-141958-230160-128930-60069
2064.44-146161-110372-69902-87293-139582-136029
2067.33-113350-123391-62744-61837-82741-107964
2070.23-73123-4150-53097-91654 33863 139136
2073.12 112074 43910-17664-12872 56569 44539
2076.01 7082 90470 270311 235950 109822 41161
2078.91-22205 25749 72015 63272 131246 349465
2081.80 372928 286527 265266 219782 232525 209049
2084.69 239079 370204 672612 623724 362916 342336
2087.58 345725 368994 436870 521197 706081 986955
2090.48 848333 644766 690029 741816 810925 829196
2093.37 927467 1301312 1712138 1507626 1409634 1544515
2096.26 1599655 1605705 1631119 1739833 2226221 2548545
2099.15 2102157 1841948 1794646 1785378 1816212 1926711
2102.05 2094729 2608392 2726766 2299990 2187397 2110108
2104.94 2068886 2023957 1966434 2224852 2768332 2499290
2107.83 2068833 1972529 2012062 1970114 1826453 1818667
2110.73 2257106 2266585 1540310 1224362 1059664 971316
2113.62 848311 698591 954373 1470796 1019086 480305
2116.51 307681 264470 203979 169170 292598 789556
2119.40 785511 150647 40622 94550 64087 55701
2122.30 144628 511591 860881 320327-48259-119779
2125.19-150837-145163-80958 204668 615364 227515
2128.08-131513-185779-184563-164284-121477 23493
2130.97 384661 228404-120451-112865-109303-196636
2133.87-204931-99278 185282 192065-70043-139436
2136.76-159677-229314-275928-171281-33006-21023
2139.65-171185-258047-304521-299195-251637-168464
2142.55-98977-93061-146877-198115-165142-123611
2145.44-133005-93641 51533-5241-209511-203197
2148.33-215866-260605-259474-82466 247975 106070
2151.22-142905-169647-191114-84328-48098 185961
2154.12 476311 133198-156044-113510-21147 329
2157.01 32052 479859 604659 79929-32311-14915
2159.90-42258-16313 299939 878176 603809 45580
2162.79-14511-11374 53064 133495 647690 1011589
2165.69 414236 94685 63188 91649 152899 426671
2168.58 1073228 788631 138937 30230 5252 89007
2171.47 225943 860711 995820 341303 114402 134972
2174.37 165113 185111 649749 1147963 578793 104873
2177.26 156586 162635 115144 477672 1071375 641613
2180.15 121646 94577 19144-23124 153927 708261
2183.04 614039 114286 1047-78936-22619 199424
2185.94 730801 605228 111773-12800 16046 79263
2188.83 88009 496997 522204 123567-57155-171551
2191.72-89094 98445 533016 423300-2330-64650
2194.61 3927 63592 180263 448754 318839 92012
2197.51 138485 173592 154895 371068 679579 531335
2200.40 417288 448442 441708 568457 894657 955971
2203.29 704541 675647 729508 750874 805302 971124
2206.19 882723 757656 850013 870369 821402 887095
2209.08 947135 759263 682717 760083 784118 824489
2211.97 988383 980050 873566 894682 889538 853119
2214.86 864261 880863 879205 745294 540845 533133
2217.76 513697 443998 349854 274603 225188 194728
2220.65 243041 267595 173398 66614 107803 144489
2223.54 99942 43564 67124 124892 50455-12408
2226.43 15538 35636 10962-25628-7943-5948
2229.33-80820-71579-10751-48243-52237-12882
2232.22-12889-4036 35092 3109-97356-63115
2235.11-62666-119356-82461-1813 9200 25349
2238.01 6999-27504-61562-82534-51000-64102
2240.90-119582-147698-218483-250657-197017-168584
2243.79-161516-86076-93566-135359-158682-158903
2246.68-195010-228093-189746-180591-232261-198122
2249.58-197563-215220-144175-103305-154568-177293
2252.47-204723-224959-205352-170271-221834-232835
2255.36-209431-204209-171185-88724-101740-105065
2258.25-54313-3285-33295-12207 17081 39920
2261.15 33525 722-3715 17742 7571 82267
2264.04 115490 31591-36302 39287 185582 169769
2266.93 121492 164067 223394 325870 368732 295871
2269.83 256212 310740 346965 371928 352804 389862
2272.72 401212 374321 431179 507827 501728 530032
2275.61 522394 481845 529753 592647 593801 595840
2278.50 651299 744370 713708 674052 664806 685569
2281.40 676518 696023 697743 693048 691595 707210
2284.29 670089 675544 776859 843607 886777 922357
2287.18 880245 872364 964427 1039948 1032910 1023368
2290.07 1023597 1071793 1188333 1252673 1298048 1323307
2292.97 1356369 1511029 1601758 1600013 1734330 1863366
2295.86 1887607 1915758 2021820 2216656 2323577 2327999
2298.75 2372348 2597985 2692655 2616527 2617270 2695023
2301.65 2698147 2639363 2484007 2459877 2467079 2392062
2304.54 2203383 2051682 1930123 1952379 2111146 2086888
2307.43 2131756 2382238 2542338 2515461 2548293 2683581
2310.32 2892986 2964069 2895788 2901527 2873221 2877736
2313.22 2686588 2510343 2488409 2569309 2323103 2075307
2316.11 2058675 2398344 2282116 1909387 1819667 2127986
2319.00 1945792 1519858 1536441 1897008 1841099 1496890
2321.89 1532971 1949151 1839141 1404085 1543037 2073443
2324.79 1954178 1458795 1664511 2259888 2102564 1580739
2327.68 1892151 2521718 2117787 1616303 2188498 2685404
2330.57 2102044 1801143 2660436 3026211 2321451 2292965
2333.47 3145613 3017647 2247015 2655691 3437324 2969943
2336.36 2502116 3193456 3401636 2537899 2546057 3288720
2339.25 2953857 2366088 2991731 3416475 2775253 2805188
2342.14 3443226 3138189 2765857 3164005 3174418 2662250
2345.04 2704129 2877219 2511690 2298409 2383524 2302620
2347.93 2145071 1957266 1900319 1989140 1967992 1907747
2350.82 2010453 1906590 1763683 2037652 1805720 1476342
2353.71 1915310 1878519 1393326 1812168 1806184 1346443
2356.61 1989314 1935503 1396029 2050830 1797657 1275636
2359.50 2046060 1770676 1458646 1949850 1322301 1386774
2362.39 1856621 1224164 1594431 1622345 1167260 1704853
2365.29 1330959 1190929 1454472 1067090 1360362 1133558
2368.18 950635 1226268 903601 1056493 916960 901720
2371.07 1026916 700282 768009 596056 713567 707693
2373.96 613557 636435 642126 710713 596972 567932
2376.86 524430 573450 559060 571401 528798 537317
2379.75 533293 584124 528831 467280 432798 443730
2382.64 466538 440031 502909 578113 553932 444434
2385.53 423544 458684 477741 489867 572171 583291
2388.43 589941 613122 615483 588411 560202 588903
2391.32 593998 578345 582641 605308 660924 709663
2394.21 655307 614902 672754 691438 657045 625804
2397.11 590996 635299 688012 691088 762153 834484
2400.00 796580 820202 917253 986923 1015451 1042077
2402.89 1063961 1077506 1095092 1091949 1050473 1061178
2405.78 1144924 1204184 1265073 1309974 1380382 1363629
2408.68 1324975 1389592 1449716 1440696 1392821 1385458
2411.57 1427440 1410774 1374332 1368457 1405957 1513816
2414.46 1584387 1656887 1665178 1591724 1620473 1697872
2417.35 1753119 1732676 1703821 1685713 1690460 1667400
2420.25 1712530 1744256 1669327 1566516 1611591 1681697
2423.14 1709979 1684929 1650438 1623492 1668254 1680146
2426.03 1599166 1603439 1670531 1709451 1690585 1670311
2428.93 1650204 1662600 1639308 1617120 1613325 1572016
2431.82 1467436 1389974 1480653 1572859 1537391 1525402
2434.71 1457687 1410409 1489412 1517820 1475703 1514241
2437.60 1476683 1476648 1492224 1505008 1512739 1400499
2440.50 1286862 1322078 1367240 1271788 1285919 1274183
2443.39 1185138 1125927 1202844 1263290 1144959 1030819
2446.28 1004282 1040534 1030169 959950 1000095 1035108
2449.17 1003487 1012631 1019742 878424 852364 951024
2452.07 973841 927176 927193 923532 834216 828050
2454.96 888226 838293 793442 812473 849751 835807
2457.85 794772 795332 803873 808737 810723 882556
2460.75 898164 893483 897062 857524 778326 740366
2463.64 740215 784340 799481 849620 819067 849529
2466.53 953482 956549 886729 811562 806319 887224
2469.42 924188 896387 882660 922554 876389 831278
2472.32 869522 870404 871530 965953 1026294 934242
2475.21 874336 977574 1083116 1058500 970544 904726
2478.10 873723 914739 981464 886714 865043 886174
2480.99 953906 899913 797897 835773 844423 836633
2483.89 860176 875290 857807 916480 893740 757361
2486.78 738754 771583 869140 893085 826583 821367
2489.67 798299 768889 761319 807313 857602 799644
2492.57 730324 754563 840022 824994 829240 782598
2495.46 701500 636489 684796 734345 727718 738535
2498.35 737646 663550 569641 589584 608394 567042
2501.24 497120 512963 492029 540140 573016 521488
2504.14 508275 514121 530074 510237 479556 537386
2507.03 506496 453024 401640 377032 467443 457791
2509.92 380777 399080 357257 347165 392751 393407
2512.81 421721 410114 327403 315903 324575 338568
2515.71 383952 381439 379798 352225 323779 291670
2518.60 316606 340101 357147 281805 267202 332570
2521.49 289603 340179 426777 415731 355108 339172
2524.39 356936 369656 353450 344711 357101 341363
2527.28 359013 370171 280883 250971 313674 330884
2530.17 295764 323840 354616 306105 233374 246415
2533.06 258333 176283 167373 200962 299770 338602
2535.96 286530 176991 210386 353509 319057 256454
2538.85 265475 268041 356773 413695 381973 308957
2541.74 166969 142700 235880 223459 152943 143787
2544.63 150222 63632-7131-15296 7463 51352
2547.53 86343 71030 12234 6787-5126-57596
2550.42-87239-88778-104587-128669-84715-94819
2553.31-150052-216400-186436-150804-167520-284960
2556.21-292290-215663-223060-213645-232484-213926
2559.10-147629-52585 18344-88782-137299-135820
2561.99-175142-132490-118996-117931-94049-31422
2564.88-85497-155265-129569-45286-25945-65977
2567.78-12601 27606 32180 63728 49779 106354
2570.67 189292 205940 232522 258340 296651 368136
2573.56 409701 481002 615618 703108 715793 795242
2576.45 956802 1154636 1271710 1286316 1355570 1473855
2579.35 1630545 1901337 2042828 2027769 2123983 2310812
2582.24 2475551 2586996 2631660 2681539 2775114 2853076
2585.13 2957214 3044421 3120043 3205284 3234749 3260829
2588.03 3309582 3342476 3401191 3618342 3663081 3641484
2590.92 3720635 3792268 3840313 3880198 3930641 4053973
2593.81 3981074 3912607 3913691 3784818 3695257 3646766
2596.70 3478966 3258066 3189174 3136962 2969939 2757662
2599.60 2565214 2356479 2248697 2197413 2140716 2000659
2602.49 1907017 1959196 2034876 1943129 1769362 1727116
2605.38 1822100 1891363 1911899 1906035 1969486 1942481
2608.27 1813166 1648570 1540875 1484441 1451580 1400033
2611.17 1321563 1230271 1121525 1069519 1021433 982961
2614.06 917462 808682 766766 769845 744760 627067
2616.95 608972 715129 709270 581967 496728 556487
2619.85 551793 503163 422745 337644 383143 374077
2622.74 277365 225073 240665 262389 265382 174503
2625.63 103577 110430 6597 15865 131209 74436
2628.52 59014 32467 55629 166554 234030 246235
2631.42 167884 88266 139533 219965 257411 301381
2634.31 285811 258376 331827 350381 311815 348515
2637.20 285632 228014 321613 388993 365201 434587
2640.09 471759 427972 468785 500600 445494 351741
2642.99 335030 387428 442606 447546 324122 170995
2645.88 221497 377877 302518 221754 273598 323636
2648.77 294678 258121 354917 342701 280533 199903
2651.67 189905 191743 46513 47313 71199 77173
2654.56 21340-92238-72862-58102-93547-43312
2657.45-70164-178738-277483-127783-6909-94598
2660.34-158571-175868-212680-141559-84178-115063
2663.24-73289-53787-139815-146959-119205-97531
2666.13-126382-169571-196530-131265-72713-134678
2669.02-129264-80139-138672-191103-153681-101883
2671.91-98815-83860-128371-219933-214652-145387
2674.81-128952-202352-302677-255893-189443-194299
2677.70-223968-171064-107945-98433-136265-159050
2680.59-136288-109764-141396-200318-111657-13749
2683.49 14497-3048-3508-118579-232732-173646
2686.38-62583-37415-47614-56831-99970-6285
2689.27 37055 76741 46001 84073 147301 174401
2692.16 134952 129560 169605 212203 355723 370760
2695.06 312138 287360 340853 313608 279927 349085
2697.95 419144 454682 517967 543673 554840 673982
2700.84 834843 942116 964582 981582 1024001 1043404
2703.73 1043545 1054638 1123174 1178741 1272168 1416077
2706.63 1467378 1484493 1518715 1561935 1607947 1647043
2709.52 1622349 1641999 1693432 1791299 1862550 1877571
2712.41 1956442 1991236 1921414 1925906 1963955 2007825
2715.31 2047585 2049260 1987082 2016251 2069854 2110739
2718.20 2154798 2168445 2168213 2332681 2445737 2403788
2721.09 2335008 2326331 2444743 2489674 2547674 2600688
2723.98 2670193 2786176 2810349 2757830 2823800 2974595
2726.88 3180145 3252464 3388222 3634268 3872729 4111200
2729.77 4498581 4955879 5450420 5904718 6366422 6987099
2732.66 7753369 8416612 8970893 9651985 10543725 11347259
2735.55 12081540 12878000 13695975 14319825 14961503 15447870
2738.45 15683998 15847477 15923461 15892807 15775984 15643139
2741.34 15566288 15696131 16139743 17282345 19001586 20019087
2744.23 19153082 17177246 15862425 15653821 16108826 16778666
2747.12 17489719 17999454 18313306 18171259 17642130 16992424
2750.02 16136737 15054079 13810990 12491213 11165689 9846216
2752.91 8717718 7787668 6837346 6033133 5365189 4877347
2755.80 4422345 3969967 3627312 3368840 3060454 2768436
2758.70 2500094 2253580 2097892 2021652 1915744 1841609
2761.59 1791527 1680572 1597820 1481085 1329833 1230776
2764.48 1248357 1327176 1354907 1254702 1274796 1271540
2767.37 1222271 1138308 1119078 1227991 1252004 1071412
2770.27 923588 1007792 1065548 1190384 1240329 1198426
2773.16 1187818 1145286 1089338 1079506 1181390 1229126
2776.05 1165375 1152239 1218223 1273593 1330341 1252957
2778.94 1265281 1341497 1273546 1220286 1295753 1378348
2781.84 1386758 1283684 1229999 1281766 1427092 1511763
2784.73 1480806 1487619 1551293 1599992 1651574 1713509
2787.62 1797982 1775058 1688778 1636901 1754491 1899539
2790.52 1957378 2009005 1992477 1999715 2073223 2217610
2793.41 2261091 2199058 2326201 2437043 2470921 2526865
2796.30 2592991 2599945 2689062 2817185 2953460 2970722
2799.19 2890094 2948412 3037615 3188262 3363985 3423408
2802.09 3487947 3505474 3608160 3667799 3659327 3745756
2804.98 3806636 3814277 3892214 4053235 4130474 4076500
2807.87 3980532 3963337 4175945 4341776 4418673 4515041
2810.76 4612020 4770083 4846697 4900107 4974363 5071739
2813.66 5105639 5208650 5377003 5618837 5758221 5851880
2816.55 5994238 6080489 6112105 6265020 6461732 6612451
2819.44 6715880 6772728 6980711 7186919 7323875 7436158
2822.34 7679704 7916818 8014167 8134128 8215224 8326299
2825.23 8639707 8946889 9127806 9324492 9503722 9702829
2828.12 9927067 10101256 10361384 10641331 10805016 11026950
2831.01 11261975 11474953 11774182 12000253 12277626 12647698
2833.91 12856389 13075398 13255332 13353339 13512494 13737577
2836.80 13900495 13980488 14183204 14386872 14563564 14721897
2839.69 15022658 15427157 15770998 16037349 16412507 16813172
2842.58 17112080 17432722 17772970 18072619 18544424 19053684
2845.48 19366457 19668089 19901539 20133068 20492599 20864803
2848.37 21144667 21375748 22081948 22781635 23118989 23678256
2851.26 24431630 25064491 25787060 26713224 27673054 28705808
2854.16 29642447 30754101 32153136 33531499 34950934 36515943
2857.05 38056548 39601724 41454446 43525101 45507068 47528314
2859.94 49794560 52278512 54917262 57670754 60567656 63760044
2862.83 67035568 70553792 74311951 78000660 81979335 86155708
2865.73 90242405 94437942 98808873 103125922 107423882 111680630
2868.62 115891083 119959298 123995992 128051041 131882601 135550708
2871.51 139079747 142452687 145922517 149195465 152201553 155233642
2874.40 158028687 160753116 163150719 165335107 167502360 169256720
2877.30 170676260 171809311 172749221 173537871 174080348 174426182
2880.19 174711696 174673326 174483778 174192319 173579535 172789029
2883.08 171738011 170680189 169585980 168350917 166910524 165165978
2885.98 163313740 161430594 159549050 157488262 155334558 153328304
2888.87 151253537 149203461 147487061 145777765 143978859 142387904
2891.76 140836747 139362232 138045500 136766567 135682354 134356354
2894.65 133047237 131885711 130401814 128851091 127552729 126301109
2897.55 125104287 124116045 123289697 122337141 121274321 120232689
2900.44 119255335 118250900 117373640 116602304 115677582 114873012
2903.33 114111925 113213214 112274668 111391383 110665746 109994869
2906.22 109238910 108469772 107809180 107253213 106815263 106446985
2909.12 106173708 106111562 106176838 106368141 106607751 107018801
2912.01 107533140 108247844 109448250 110889538 112475496 114237595
2914.90 116229975 118764441 121333906 124103251 127089464 130175160
2917.80 133720790 137761505 141916773 146217435 151014520 156122234
2920.69 161471224 167179047 173094618 179239459 185710448 192401713
2923.58 199407600 206647260 214087599 221607141 229342803 237622535
2926.47 245906778 254024712 262226670 270283352 277767080 284555555
2929.37 290769001 296486751 301835417 306957427 311843147 316242190
2932.26 320261042 323945888 327212215 330308868 332891757 335307722
2935.15 337217061 337880687 337154902 335242929 332524204 329457507
2938.04 326340961 323192620 320336660 317570613 314893365 312167090
2940.94 309096843 305306665 301060795 296423811 290906431 284019628
2943.83 276056685 267555411 258240316 248483232 238754312 229371635
2946.72 220700495 212459876 204473801 196791042 189540386 182909876
2949.62 176720783 170779514 165252402 160120531 155221561 149893643
2952.51 143849818 137607170 132007067 127095374 122786491 119225415
2955.40 116317704 113927024 112120490 110891298 110270983 109959258
2958.29 109838629 110145757 110601976 110616726 109953957 108827732
2961.19 107206622 105862029 104709895 102713390 100405396 98223783
2964.08 96128878 94306718 92572702 90751654 89152027 87933750
2966.97 86887603 85808498 84710479 83567215 82541385 81624533
2969.86 81054682 80794430 80728952 80794199 80961733 81331399
2972.76 81854874 82410123 83183452 84115091 84928371 85778342
2975.65 86765677 87709904 88984963 90351160 91447343 92891060
2978.54 94387955 95724635 97497073 99589669 101860484 104362266
2981.44 106949329 109536983 111628503 112714865 113389982 114054539
2984.33 114702708 115341899 116321662 117467042 118966467 120917228
2987.22 123318859 126283601 129783764 133250846 136616663 139851974
2990.11 142612503 144999663 147193381 149215888 151071436 153357147
2993.01 155938252 158730750 161920319 165549565 169662924 174218608
2995.90 178874549 183174902 186889846 189944080 192696833 195575210
2998.79 198481353 201445407 204740312 208428914 212337975 216498283
3001.68 220766840 224675349 228204693 231110822 232960916 233485510
3004.58 232272819 229578452 226335484 223148425 219895083 216927274
3007.47 214556059 212846253 211697007 211260415 211572351 212516667
3010.36 214078373 215896611 217261354 217761461 217617483 216925831
3013.26 216264640 215850171 215979128 216526554 217632048 219420983
3016.15 221647703 224306286 227468625 230638094 233939714 237283280
3019.04 240769620 244474601 248332843 252123432 255486017 258669987
3021.93 261542988 263661005 264954254 265490670 265557975 264795778
3024.83 263352654 261922493 260959993 260676512 261065325 262187455
3027.72 262886150 262193886 260025643 257091585 254674527 253293056
3030.61 252666862 253188858 254345979 255116588 254914554 253473120
3033.50 251019579 247715902 243268628 237605434 231151884 224093791
3036.40 216876969 209817255 203050515 196635023 190771239 185257006
3039.29 179809437 174703377 169992248 165527623 161539012 158461471
3042.18 156375285 155376679 154949059 154815091 155145538 156098913
3045.08 157548288 159570713 161985278 164619580 167322672 169603471
3047.97 170431284 170485090 170876601 171200244 171455491 171677661
3050.86 171898784 171780277 171370651 171153067 170945436 170490722
3053.75 170176317 169804668 168737866 166687232 164543873 162982277
3056.65 162265852 162122651 161933539 161511234 161074503 160319067
3059.54 159233413 158000103 156449439 154631868 152523271 149978440
3062.43 147023275 143749910 140381659 136871689 133143005 129341419
3065.32 125336342 121223618 117151230 112973019 108417743 104173051
3068.22 100150871 96054281 91857860 87815217 84038025 80351297
3071.11 76903411 73530244 70327104 67375569 64647965 61984441
3074.00 59328730 56772882 54469499 52489478 50548002 48467607
3076.90 46496145 44843708 43250297 41719483 40331365 38892802
3079.79 37450737 36241321 35163623 34216785 33264251 32390875
3082.68 31598762 30808253 30142095 29568277 29141492 28981732
3085.57 28674761 28084952 27743012 27498224 27289552 27261944
3088.47 27373427 27441217 27490323 27568337 27746545 27888961
3091.36 28013139 28293495 28558699 28800445 29217387 29628208
3094.25 30093275 30546587 30559810 30593190 30664991 30592786
3097.14 30542630 30474518 30533892 30424544 30096496 29949895
3100.04 30007674 29978749 29953761 29814385 29788594 29837247
3102.93 29955775 30239282 30525274 30391291 30216904 30209278
3105.82 30114804 29933587 29564677 29167642 28697673 28203435
3108.72 27696019 27175313 26658090 26092691 25545568 24924964
3111.61 24349128 23915602 23710600 23336571 22625482 21876132
3114.50 21193230 20552494 19818233 19066732 18288760 17781129
3117.39 17137986 16280869 15498751 14808957 14208817 13483241
3120.29 12756373 12178499 11609575 11107172 10511986 9811351
3123.18 9235562 8729464 8295397 7970117 7799558 7466550
3126.07 7104725 6727295 6453526 6309076 6202151 6124057
3128.96 6138199 6231947 6245214 6148004 6160210 6317341
3131.86 6486422 6684445 6893720 7143363 7403049 7715524
3134.75 7980395 8181908 8441475 8723837 8915506 9147439
3137.64 9307397 9333323 9334369 9604422 9890133 9940079
3140.54 10050191 10078440 10125804 10257707 10365382 10447248
3143.43 10291440 10138677 10174889 10144834 10211925 10339218
3146.32 10324686 10395647 10516527 10428016 10223372 9982390
3149.21 9867001 9561643 8992952 8535595 8263858 7785035
3152.11 7170847 6646251 6206791 5833338 5470165 5148617
3155.00 4726002 4229632 3950227 3576223 3298985 3131685
3157.89 2868148 2501156 2336402 2171555 1776192 1513468
3160.78 1509544 1469847 1432703 1406201 1408091 1343837
3163.68 1260712 1207390 1197353 1004740 926195 883145
3166.57 779423 529443 498278 530364 533171 499853
3169.46 393730 376584 373680 268329 288393 214884
3172.36 33714 19952 205630 299305 219279 84570
3175.25 46481 55049 81597-117-109622-7801
3178.14-36222-60431 29686 126144 59661-68439
3181.03-76533-56272-149049-162757-125817-104849
3183.93-75281 8490-52057-161657-138145-138887
3186.82-279575-371840-351956-313058-273687-265008
3189.71-364857-511598-472081-346207-294772-323519
3192.60-303939-369344-475818-455230-321886-250079
3195.50-330095-328885-337431-421885-423871-327328
3198.39-296615-339849-429745-466451-336160-373379
3201.28-403896-326565-289162-357262-348682-306167
3204.18-435767-523584-477034-355451-344863-435934
3207.07-381436-258575-245933-282718-296669-351384
3209.96-463359-436937-364874-342408-357154-337844
3212.85-357815-312917-407549-495559-350803-80093
3215.75 26095-303594-491398-307896-262192-276684
3218.64-388006-532389-469497-342156-330319-322709
3221.53-283271-268989-320811-314495-216055-139917
3224.42-144982-162442-234077-321826-304846-305037
3227.32-326137-375458-433815-379838-358400-194780
3230.21-178317-287802-320156-359443-312171-300403
3233.10-339274-372375-338741-365982-357473-212858
3236.00-196854-249086-243844-328654-443986-449795
3238.89-337147-149663-181438-344159-242670-67610
3241.78-145028-152976-166372-162115-82206-60756
3244.67-67285-73391-172758-320230-291564-248380
3247.57-275040-375625-342581-192291-73811-42660
3250.46-14598 72473 69574 62196 69018-30108
3253.35-149717-205899-88175 10653 21538 41495
3256.24-34464-68193 46486 153724 222865 105758
3259.14-105524-243733-162582 11426 150732 154292
3262.03 39471-1300 136520 61955-128070-91329
3264.92 55681 159450 40495 959 134931 94356
3267.82 49522 972-121876-26048 69234 15469
3270.71-3976-29601-56841-17169 167299 134998
3273.60-50408-157863-200439-210306-37786 61121
3276.49 77421 46255 75263 109551 141051 193616
3279.39 74769-135919-189029 103645 87964-33732
3282.28 56390-44430 86826 146939 85101 70486
3285.17 72124 81845 86811-28595-114484 12395
3288.06 49147 71147 83786 84349 665 62054
3290.96 254669 124047 68800 92184 11263 59134
3293.85 136259 270995 384760 313387 129975 57040
3296.74 98848 191052 152352 130183 61821 4891
3299.64-63404 36977 16868-4524 2291 60819
3302.53 121646 58204 85822 5443-25476-54286
3305.42-17876-76865 125347 227106 96095-2369
3308.31-139475-117342-7484 72975 58760 92063
3311.21 20859-57746-17236 44511 122651 221473
3314.10 125661 58851 52171 44465 103903 132484
3316.99-15986-133952-9846 74482 135613 89990
3319.88 149662 230506 151114 86915-8383-94540
3322.78 13351 109457 170645 32148 14554 151522
3325.67 74599 36262 47259 139314 186576 23647
3328.56-73827-49154 41956-76495-210798-106559
3331.46-61269-98661-15842 102693 138292 84726
3334.35 58884-32109-74421-65239-114979-192066
3337.24-223628-37965 41709-61555-142108-97900
3340.13-137986-121144-109705-89500-41774 9959
3343.03-31136-90835-68043 10666-7372-42612
3345.92-155259-66290 5910-143283-142621-10371
3348.81 67008-53270-164242-19454 36030-6043
3351.70-20560-90214-232852-197580-128280-94975
3354.60-150776-193216-123115 840-46242-164528
3357.49-104292-63439-135421-46484 66402-34927
3360.38-140029-221959-187010-112439-159105-162318
3363.28-51005-65297-112353-154738-10726 11594
3366.17 53710 164261 151585 76925 31809-771
3369.06-57748 31219 87222 246796 323347 24569
3371.95-64286 21439 159233 237060 196991 88777
3374.85-19925 50389 102727 85517 236320 365910
3377.74 300048 241187 113651 169523 321011 319159
3380.63 408442 317577 246319 227435 160411 286697
3383.52 322354 424790 553850 535240 532283 487825
3386.42 329022 273363 311942 247804 245852 306524
3389.31 484102 634340 589629 344010 175955 263393
3392.20 379541 399437 231209 209864 189300 197645
3395.10 261675 189962 314280 437516 357493 247165
3397.99 248159 217466 234175 317678 319519 160764
3400.88 140071 105983 56920-47456-56049 57559
3403.77 46335 111138 149236 87553 127476 65330
3406.67-4694-83996-143851-32681 104209 105954
3409.56-94036-143012-44819-1363 20022 58442
3412.45 74696-37088-215734-61362 5573-37724
3415.34-12513 95345 153457 98460 6675 52433
3418.24 7613-71378-108783-166953-32158 112234
3421.13-11670-174632-307022-80524 51522 145237
3424.02 155714 55459-34605 113428 271225 138885
3426.92 94067 79507 112898 37864 55337 176115
3429.81 102556 121975 296881 243403 94590 141415
3432.70 340009 254047 82736 182284 396608 489006
3435.59 420240 384838 404497 319169 314267 241371
3438.49 188274 438605 508547 482858 518509 420540
3441.38 334367 390605 304609 142356 84783 67084
3444.27 125102 81254 5703 178686 209428 12589
3447.16 95833 204820 93157 87618 74121 158104
3450.06 153530-18036-8028 25864 33897 55095
3452.95 114228 13131-80494-56913-106001-43486
3455.84 126977 10590-143686-193259-135737-32054
3458.74 13275-59828-189335-323961-342281-249299
3461.63-148809-104754-172009-148531-166652-259483
3464.52-320053-278909-128702-211744-329357-359492
3467.41-372725-351216-384799-234430-150127-322346
3470.31-516215-327834-236988-390871-351455-359094
3473.20-363625-354017-278475-254140-257638-355015
3476.09-403979-366172-305928-293722-382924-357666
3478.98-167944-107915-272664-287364-182890-191242
3481.88-320690-402853-522816-535239-303999-341560
3484.77-469983-384708-301734-312621-508710-497004
3487.66-373623-336474-281006-254984-231455-195991
3490.56-202887-225209-373853-352820-204161-326391
3493.45-420996-375492-351096-273102-175041-193319
3496.34-169500-196799-161194-82113-163418-260682
3499.23-312038-374695-227950 41529-78027-278321
3502.13-337900-303127-276734-329202-398147-374640
3505.02-338422-319938-348044-233976-150989-264946
3507.91-165602-43251-72060-220689-404379-328519
3510.80-118831-320364-450229-286357-247802-285342
3513.70-345254-216586-169098-377222-441905-336631
3516.59-301230-212559-171683-351737-339932-305742
3519.48-294817-444263-532008-333077-149744-247794
3522.38-470599-510377-518041-528746-473776-347718
3525.27-302120-426578-456397-446063-372314-296067
3528.16-309818-302021-355174-321762-291461-231796
3531.05-289901-218055-160502-284718-344473-556857
3533.95-569543-324670-247182-287081-331536-407964
3536.84-422995-377140-433150-461884-476568-427229
3539.73-259003-237130-336139-337540-341312-345897
3542.62-191084-59234-170671-310027-420782-419761
3545.52-349628-403474-468496-473717-532334-536618
3548.41-406310-352110-331492-299003-496923-611204
3551.30-641494-627845-543324-499092-447001-453355
3554.20-408723-467164-489867-450578-517137-556745
3557.09-583479-536720-645783-622331-482978-634721
3559.98-703756-615756-558524-589136-650673-560155
3562.87-531762-474450-420995-558105-668634-670040
3565.77-597497-520489-518391-668418-548855-489131
3568.66-674962-778352-540036-486191-619388-673156
3571.55-628343-506021-443602-447173-588895-653110
3574.44-563354-643372-706419-603003-452280-368429
3577.34-589033-701128-501907-387669-487884-619154
3580.23-674203-599857-445460-419105-553281-595201
3583.12-589712-596568-552482-429213-426587-520874
3586.02-753738-716031-503042-517512-632505-664435
3588.91-581220-498836-551095-546174-513891-571300
3591.80-571599-512355-512462-461860-316462-328461
3594.69-347965-242099-343926-510477-371324-257813
3597.59-278969-382891-394791-339231-471101-607003
3600.48-511499-301584-330718-457876-396858-205081
3603.37-169446-318052-356889-349504-363065-373669
3606.26-314361-324436-399855-384020-358790-495291
3609.16-398625-290129-161790-140987-271940-316296
3612.05-353654-217056-126538-92679-200682-227777
3614.94-223922-244574-309346-380612-370577-313094
3617.84-210020-91630-261159-317355-181324-251473
3620.73-210854-89111-114050-147166-104433-83467
3623.62-89063-85431-63941-51047-87526-104059
3626.51-12164-52601-306805-439866-368142-538674
3629.41-384261-57651 48339 33817-36566-82925
3632.30-94489-33408-29348-92946-95512-16469
3635.19-12002-17933-8084 80928 72493 2913
3638.08 56570 67094 2140-69752-102151-27342
3640.98-40519-75546-5099 147326 214377 266067
3643.87 283342 249173 275764 266950 184972 162888
3646.76 92946 212853 397370 171903-189971 43245
3649.66 327917 324748 262363 257110 449512 556166
3652.55 600836 650447 644468 648740 725939 702477
3655.44 484941 370756 602560 719860 694997 732109
3658.33 830748 830279 796976 919101 998906 981520
3661.23 996486 1059489 1144521 1186135 1122911 1004633
3664.12 1055664 1164560 1291747 1358883 1342018 1381872
3667.01 1315493 1278853 1245052 1131129 1211748 1184661
3669.90 851832 644326 973178 1165579 1280591 1296438
3672.80 1174352 1104464 1010797 754180 766293 627522
3675.69 539037 936935 1032763 930022 1088021 1240532
3678.58 1174904 1145658 1185620 1095575 1041398 1117049
3681.48 1139626 1071594 1057285 1108185 1066187 805471
3684.37 799248 807962 672594 592477 640578 584250
3687.26 444683 127312 183273 461686 482134 488387
3690.15 368196 282281 399229 540679 611759 619118
3693.05 506854 502744 516887 396889 257201 275781
3695.94 482641 550599 549418 577212 541258 561660
3698.83 534811 476012 541008 561984 521815 413702
3701.72 344455 402399 403159 293712 267827 337678
3704.62 438920 366584 299079 264160 209315 266561
3707.51 243405 265188 150878 21679 165702 232931
3710.40 96929 58326-112521-186611 158837 322143
3713.30 255001 149802 61158-4203 46-82414
3716.19 53971 147032 89632-2861 40653 44840
3719.08 24660 50655 114660 161797 230027 118122
3721.97 4579 79228 197990 252988 198597 155429
3724.87 86836 180415 103839 120535 232424 147491
3727.76 205970 296502 183005 111006 247680 294242
3730.65 281549 151364-151479-30747 183936 188612
3733.54 116917-51543-117255 52283 190068-32895
3736.44-86734 112931 256173 301020 292479 336732
3739.33 428719 470634 395836 342960 471456 507079
3742.22 491586 494737 406790-54866-404988 32983
3745.12 560488 722718 625790 589004 724969 839827
3748.01 719720 356875 94905 502329 879205 909531
3750.90 741897 251389 125638 728959 1020625 1126468
3753.79 1080314 952330 851114 886622 966503 854901
3756.69 919268 1081257 1041557 890715 725723 694309
3759.58 783576 997138 1088004 951564 808056 847135
3762.47 920110 974077 1095111 1076946 941859 769287
3765.36 715315 730448 748973 788244 886356 940137
3768.26 832744 625615 401761 546195 780709 736801
3771.15 563815 368801 455498 682208 619177 532945
3774.04 481278 456926 500954 435060 312528 374296
3776.94 395722 350821 334582 378624 221040 124710
3779.83 236188 477663 555385 467265 390759 443561
3782.72 437836 529045 507716 333693 322139 258271
3785.61 318826 382644 406478 339098 396656 453115
3788.51 451776 397873 408804 536646 577022 515922
3791.40 370660 260100 416307 648370 547902 382901
3794.29 453224 417728 364296 268998 312601 434745
3797.18 438367 385604 368659 385687 332030 313225
3800.08 399515-35124-259740 278420 464802 406430
3802.97 436277 617772 705932 533571 431530 430485
3805.86 258747-124781-5559 563192 737473 659973
3808.76 650464 668145 647216 642759 704854 741031
3811.65 682974 648896 605082 739018 772805 749446
3814.54 807906 598295 161100 429157 890391 931815
3817.43 917073 873035 830007 922690 931857 750598
3820.33 594002 623986 601125 756981 912283 1077275
3823.22 1184813 1171935 1110729 1105344 1206876 1174556
3826.11 991209 992829 1233520 1333993 1330974 1357189
3829.00 1304291 1288607 1323948 1262177 1077595 977582
3831.90 1231705 1475450 1473608 1392908 1308379 1050564
3834.79 1126694 1349787 1264897 1312999 1205261 663393
3837.68 798274 1341959 1447047 1428464 1441993 1458365
3840.58 1363871 1381510 1508813 1644132 1658661 1543785
3843.47 1497351 1523052 1541111 1581234 1583217 1675043
3846.36 1805281 1834936 1632469 1557077 1599850 1693794
3849.25 1743110 1737020 1732138 1765617 1397243 1162220
3852.15 1547556 1738283 1300338 724124 1050439 1708086
3855.04 1903262 1778151 1732900 1662461 1758972 1910714
3857.93 1927214 1864224 1804176 1853382 1895496 1868511
3860.82 1739508 1608907 1661855 1735367 1860004 1986621
3863.72 1868481 1695626 1593952 1764922 1867945 1780638
3866.61 1701305 1688907 1646946 1769339 1635358 1465633
3869.50 1255677 1439178 1757633 1842704 1968766 1987400
3872.40 2022341 1898678 1727252 1686430 1859559 2016508
3875.29 2106499 2034192 1942707 1992891 2097567 2090949
3878.18 2073804 2121648 2008893 1833608 1920526 2141393
3881.07 2098427 2095706 2208613 2243256 2220731 2264303
3883.97 2217945 2086242 1860502 1838756 2100838 2309700
3886.86 2355853 2291405 2259166 2278813 2274195 2188200
3889.75 2242586 2168083 1963457 2042417 2103364 2149290
3892.64 2192553 2213278 2195164 2205849 2317576 2338296
3895.54 2287483 2219463 2176040 2207367 2241746 2182953
3898.43 2005211 1881160 2136760 2295443 2253226 2226064
3901.32 2088736 2129917 2237202 2244668 2216181 2059181
3904.22 2139235 2291388 2295940 2274470 2227900 2123741
3907.11 2172295 2210048 2256831 2291195 2224431 2255651
3910.00 2313134 2362491 2411744 2329723 2223197 2320893
3912.89 2495962 2598385 2555202 2376444 2380810 2475923
3915.79 2380250 2245937 2283926 2567971 2495301 2352108
3918.68 2377460 2301803 2386373 2514556 2519593 2602869
3921.57 2632996 2619539 2557278 2521116 2469413 2505495
3924.46 2536752 2560989 2534636 2592584 2621389 2498560
3927.36 2560237 2672290 2742611 2711614 2607366 2629075
3930.25 2561240 2475136 2443443 2483116 2470434 2444364
3933.14 2597712 2668275 2674732 2698345 2783983 2622282
3936.04 2506116 2541418 2430904 2341715 2497993 2636684
3938.93 2629075 2592962 2555041 2473451 2550709 2537099
3941.82 2422378 2417531 2429473 2314475 2353461 2422607
3944.71 2396369 2413261 2355353 2329263 2278979 2235941
3947.61 2196531 2108711 2003354 1929211 1878197 2039241
3950.50 2229991 2157488 2102914 2102545 2213207 2249142
3953.39 2226514 2212316 2167827 2198324 2182772 2130735
3956.28 2110255 2059311 2081059 2120405 2103276 2137500
3959.18 2286794 2366368 2263029 2123818 2135306 2175677
3962.07 2167249 2110856 2096509 2189185 2269945 2319907
3964.96 2195222 2152896 2186944 2174173 2132087 2143768
3967.86 2265204 2394911 2302189 2180262 2143166 2214026
3970.75 2198121 2146125 2325037 2303400 2152948 2245663
3973.64 2326447 2388278
##END=
