##TITLE=Butane
##JCAMP-DX=4.24
##DATA TYPE=INFRARED SPECTRUM
##CLASS=IUPAC A
##ORIGIN=NIST, Analytical Chemistry Division, 301-975-3108
##OWNER=COPYRIGHT (C) 2000 by the U.S. Secretary of Commerce
##DATE=00/02/01
##$SPECTRA VERSION=1.10
##$UNCERTAINTY IN Y=2.0 % relative (B=1.0E-04,C=-1.9E-11,D=8.7E-15)
##CAS NAME=Butane
##CAS REGISTRY NO=106-97-8
##MOLFORM=C4 H10
##MP=-138.35 C
##BP=-0.5 C
##$NIST SOURCE=QUANT-IR
##SPECTROMETER/DATA SYSTEM=IFS66V (Bruker)
##INSTRUMENT PARAMETERS=KBr Beam Splitter; MCT Detector; Multipass cell
##STATE=gas
##SAMPLE DESCRIPTION=Butane Primary Gas Standard
##PRESSURE=101.3 Pa
##TEMPERATURE=23 C
##SAMPLING PROCEDURE=1 L/min Flow
##RESOLUTION=0.9640
##DATA PROCESSING=Boxcar Apodization
##XUNITS=cm-1
##YUNITS=(micromol/mol)-1m-1 (base 10)
##XFACTOR=1.0
##YFACTOR=9.0949E-13
##DELTAX=0.4820
##FIRSTX=575.17
##LASTX=3974.605
##FIRSTY=-4.87E-07
##MAXX=3974.12
##MINX=575.17
##MAXY=.0009034
##MINY=-8.07E-07
##NPOINTS=7052
##XYDATA=(X++(Y..Y))
575.17-536536-1789-4721-362281-62820 186716
577.58 464820 517134-92742-587763-658458-128683
580.47-455856-209229-265970-34360-241518 56810
583.37-91579 311504 494569-165023 167049-184745
586.26 17812-292463 232613 218425 299690 12428
589.15-80801-254928-326181-59360-166726-136301
592.04 507319-169065-383170-122885-45379 61095
594.94-355242-196086-294342 161779-210941 173723
597.83-168835-110033-167251-125818-92184-278375
600.72 17510-102819-111717-141281-151567-12602
603.62-197407-58322-132324-166739-35925-18203
606.51-50040 35053-222639-62180 33881-199645
609.40-51846-449006-295431-197978-184297-130103
612.29-153162-61937-214873-70202 24516-186602
615.19-194959-291113-196624-147797-286414-200915
618.08 60442-135714-166921 182267-89046-227686
620.97 82599 75810-286439 24624-80879-14062
623.86-147481-85972-114060-87437-361669-15705
626.76 35225-37623-239183-243648-271225 40796
629.65 28051 29226-81574-88805-205693 97510
632.54-37133 69406-265605-79104-143408-242654
635.44-80052-198619-273201-56100-172780-60691
638.33-85584-1128-17965-138430-26832-148302
641.22-32660 72751-165932-89612-131548-252258
644.11 21178-43055-70789-198571 85121-155271
647.01-199494-64226-175243-94871-110393 45107
649.90 81652-145358-150988 21022-76486 30416
652.79-201504-143477-280754-251707-164417-149225
655.68-218330-16108-122376 83717-125766 28090
658.58 14936 13710-249517-241990-64030-79968
661.47 28422-198157-17512 37037 44382-7169
664.36 58460-163912 82780-101076 9261-468300
667.26-887989-446453-166921-30332 19003 149440
670.15-156774 97524 31147 37664 14744-4595
673.04 115753-17766-29050 192110 54011 125104
675.93 93734 20003 44104 224881 125698 199461
678.83 50123 132515 179983 222228 172712 334558
681.72 256200 179994 327310 279713 300759 334244
684.61 292117 311992 426339 559600 290935 549121
687.50 425446 449648 638204 593253 621876 571844
690.40 785160 933991 780741 934787 947050 859546
693.29 1049846 866969 995201 1174303 1083778 1196770
696.18 1019245 1300704 1339424 1456848 1501977 1611502
699.08 1661992 1885622 1779545 1841919 1833002 2064875
701.97 2016388 2114848 2204362 2308698 2361901 2553958
704.86 2518955 2653990 2735445 2588782 2845815 2895511
707.75 3056852 3277524 3207039 3421673 3468941 3501798
710.65 3567429 3788447 3722176 4055453 4121540 4154124
713.54 4454151 4224473 4454725 4799798 4481525 4662204
716.43 4744407 4652965 4987085 5182366 4889444 5230937
719.32 5103710 5189798 5673778 5427689 5551411 5932584
722.22 5700683 5970888 5988908 5906331 6287097 6270900
725.11 6200102 6791350 6684370 6618048 6990266 6719484
728.00 7115881 7546245 7595894 8423687 8887141 9835591
730.90 11127023 12177653 12527524 12523040 11319877 8833276
733.79 8611755 9000562 9712526 9736624 9345867 9320324
736.68 9219902 9371235 9751212 9480013 9937309 9877521
739.57 9606914 10097553 9649256 9828450 10087802 9364823
742.47 9865344 9466413 9346905 9764005 9277458 9367665
745.36 10037826 10099439 12275343 12998261 9682759 11634046
748.25 11689486 11233970 11272033 11407586 10586505 9860739
751.14 10024361 9571605 9279541 9204036 9238550 8849731
754.04 8882710 8920575 8745857 8769960 8743303 8645584
756.93 8845379 8619126 8468158 8562024 8302073 8209288
759.82 8337794 8053667 8008041 7812635 7744613 7550426
762.72 7276435 7220587 6889617 6750031 6674220 6432721
765.61 6230235 6122045 5834328 5758207 5480107 5523523
768.50 5266582 4888483 4854727 4811203 4545385 4370675
771.39 4308997 4242169 4028820 4003449 3922528 3845641
774.29 3720109 3857552 3718914 3567602 3568219 3584472
777.18 3451056 3472046 3476335 3350596 3360412 3374976
780.07 3218181 3326001 3111774 3110554 3087278 2970838
782.96 3026246 2868329 2808170 2772045 2520814 2657079
785.86 2303824 2219433 2049489 1930700 1963654 1885127
788.75 1985385 1882952 1893644 1921211 2117132 2058268
791.64 2109113 2128630 2265822 2315338 2397333 2404235
794.54 2377371 2195064 2310640 2295011 2240292 2154634
797.43 2038199 2033320 1881319 1942878 1864843 1903688
800.32 1709502 1813668 1659680 1652249 1671805 1471415
803.21 1555438 1495243 1557249 1339798 1328131 1228070
806.11 1382470 1212275 1061668 1046701 997253 993925
809.00 908281 801207 899812 914507 663834 718793
811.89 662304 715992 570849 702037 724805 549478
814.78 568699 429605 417271 491856 479293 478878
817.68 406704 303576 424744 218673 152385 305379
820.57 321754 299580 209101 121170 175323 271400
823.46 131867 139696 129451 94288 162351 89936
826.36 80552 247771 19584 34987 41461 52533
829.25 182152 8019-15578-46052-15992-26197
832.14-53404-27829 295 67868-12280-92104
835.03 77592 55951-83902 94161-8544 24449
837.93-38007 92461-76662-43726-137781-100966
840.82 27492 3184 77698-117920 13811-906
843.71 49265 53789 72499 15850 25627 60549
846.60 23946-101182-5986-6917-63898-18147
849.50-70663-163173 90640-58862-51857 1548
852.39 1613-56506-34454-69617-11102-18879
855.28-69042 100093-75234 29423 82948-63634
858.18-12884-58465-92730-25913 62675 67996
861.07-86780-78472-11283-31051-20899 54595
863.96 44916 1767-8676-39913-16667 3349
866.85 9117-48409-128594 5600 2593-49833
869.75 103006-11438-372 24683 8728-564
872.64 712-51116-39370-2656-29267-10252
875.53-42878-44365-29997-73633 27660-38697
878.42-44563 1323 11872 38576-108106-55645
881.32-42137 67486 39514 2884-45304-50388
884.21-53767 23859-53670-1390-45531-32783
887.10-8079-39120-42243-32513-52416-108687
889.99-61548-12890-57311-83153-58322-42225
892.89-88682-12689 18758 31912-4695-70048
895.78 7018-82496 10427-44347 21655-56309
898.67-22121 1128-79078-53040 58595 57001
901.57 36579 38577-10698 102556 33131-30570
904.46-29785 55749 93602 108313 121517 131929
907.35 95482 104288 165264 108075 193355 192212
910.24 161010 270572 142280 284861 177134 279280
913.14 286229 284907 281678 288666 311926 414467
916.03 459430 433790 446818 514119 483990 545052
918.92 624938 632876 604105 715445 734160 765638
921.81 753665 796532 932971 1023727 1043833 1068905
924.71 1084234 1233586 1258624 1379581 1371325 1483601
927.60 1562186 1721074 1632694 1836412 1904611 2030775
930.49 2127748 2230013 2332696 2615175 2570784 2771151
933.39 2988597 3137095 3265609 3582012 3654723 3908263
936.28 4049106 4294740 4562685 4860092 4908272 5424382
939.17 5622834 5892112 6156824 6536462 6782573 7183580
942.06 7402712 7697734 8170561 8642659 8760207 9227425
944.96 9530398 9909472 10408367 10894435 10957139 12041746
947.85 12404536 12004546 12476961 12584306 12821317 12671893
950.74 13044875 13245210 13148950 13761260 14007182 14400196
953.63 15503958 16021133 17740708 19837945 22956337 24840782
956.53 20529583 18683016 16785545 16293873 16458863 17164766
959.42 17087312 17553111 17636281 17940949 18070431 18435423
962.31 18546398 19016551 19132918 18912851 18695223 19925489
965.21 21711485 21684741 22238637 21223546 21183193 20668324
968.10 20823225 20630052 20403289 20639701 20343669 20455778
970.99 20641907 20027592 20013698 19622826 19233587 19002459
973.88 18672943 17982042 18075000 17425305 17060756 17025718
976.78 16492380 16119009 15785682 15009585 14613466 14146328
979.67 13532542 13175065 12991780 12514152 12398905 12409641
982.56 11674423 11315594 11416607 11035562 10601341 10997184
985.45 10631778 9863295 9859940 9551454 9724362 9205375
988.35 9057256 8968439 8727002 8543222 8298875 7995431
991.24 7905091 7695886 7444575 7261556 7016709 6801421
994.13 6564200 6282780 6135366 5841877 5728793 5470936
997.03 5274972 5049504 4870491 4642627 4522585 4151761
999.92 4020098 3838456 3705801 3484063 3418597 3304408
1002.81 3219787 3064248 2894267 2838908 2779832 2638031
1005.70 2504111 2407320 2244051 2165866 2178490 2076031
1008.60 2041079 1963008 1882066 1845041 1784461 1738343
1011.49 1616175 1585229 1564665 1465570 1452169 1338506
1014.38 1339635 1283472 1221575 1242030 1189596 1040091
1017.27 1085330 1030261 1044023 1012882 972407 903357
1020.17 891306 840967 807099 844602 853958 747196
1023.06 653374 696069 611983 567402 706185 627388
1025.95 552141 591055 526496 552085 537670 421484
1028.85 474232 470224 438969 440245 454522 463838
1031.74 531935 454566 496784 389797 414770 316710
1034.63 462167 359886 364276 349272 424531 292594
1037.52 273647 215865 338338 295495 265363 233207
1040.42 182329 204959 249699 201854 159028 157907
1043.31 170689 72430 44348 65548 176187 121371
1046.20 134193 54500 122228 155224 21365 99999
1049.09 65936 87615 75828 137473 92644 94991
1051.99 36790 83982 29752 85524 104449 81349
1054.88 106866 95928 111232 101490 97804 76105
1057.77 119187 70187 25867 91470 197335 84518
1060.67 109881 121109 74146 130357 187227 128605
1063.56 220732 159348 197675 187135 170183 142232
1066.45 190776 209771 136354 170253 182159 205957
1069.34 184149 157793 237008 226229 273370 269178
1072.24 151791 277018 215055 314088 250876 206604
1075.13 176261 270163 134089 285266 203317 229177
1078.02 83846 136119 163064 180564 129219 198906
1080.91 223012 294324 267972 275360 320540 172523
1083.81 346763 324302 294477 316465 238266 282580
1086.70 281786 252193 303705 297578 323304 343545
1089.59 333876 263148 303481 267483 348793 306355
1092.49 307582 206075 317588 253393 332039 216675
1095.38 199048 228224 178399 258503 230947 336899
1098.27 272432 253520 290731 206051 247844 265947
1101.16 244766 233177 325888 299319 313864 291286
1104.06 377945 325507 376188 360797 415808 386274
1106.95 416556 462325 446089 493578 519842 553512
1109.84 548476 617116 695185 748922 793038 877965
1112.73 879043 989777 980877 1130596 1158849 1264535
1115.63 1439882 1432484 1519768 1633384 1816487 1843263
1118.52 1941938 2046141 2133222 2214827 2412358 2425221
1121.41 2445013 2647476 2684508 2712458 2742208 2926483
1124.31 2873050 2911245 2959722 3026268 2983352 2997167
1127.20 3001156 3130809 3157539 3182505 3171444 3084563
1130.09 3133290 3047375 3068595 3139142 3182825 3233408
1132.98 3597140 3737007 3782815 3997565 3844037 3542152
1135.88 3755126 2828637 1850165 1650628 1758788 1941762
1138.77 2075955 2267492 2439023 2618457 2782621 2921076
1141.66 2997032 3164292 3192985 3197215 3131772 3157947
1144.55 3033957 2966996 2797226 2730161 2626802 2481386
1147.45 2354694 2204630 2143323 1918558 1853726 1689289
1150.34 1544024 1520413 1330532 1325641 1130745 1085012
1153.23 978729 908572 896583 689877 624448 638051
1156.13 565986 581917 431967 425418 342647 330461
1159.02 336199 363787 272386 213044 237912 240791
1161.91 160781 218020 171680 232472 218260 202027
1164.80 176830 112945 130698 167274 145379 189658
1167.70 118491 134543 146468 124999 170158 139857
1170.59 132863 134277 202702 197613 192233 206310
1173.48 227950 190723 253161 233414 210180 233753
1176.37 213251 187470 188373 202601 143158 200245
1179.27 203536 140464 227454 254230 220298 194607
1182.16 232129 243405 189630 193576 189411 190147
1185.05 212107 210216 169218 202472 236730 216546
1187.95 180484 222065 152271 208866 264643 197968
1190.84 208740 236437 190586 156543 205047 184929
1193.73 203661 243650 267971 186522 212854 191271
1196.62 192623 194660 255814 268314 205550 151015
1199.52 186597 253532 228119 262539 204383 241847
1202.41 180381 175832 137798 268292 249455 260479
1205.30 256168 201385 182008 230833 281832 277918
1208.19 295666 212261 274885 273945 258208 234959
1211.09 309701 240120 291069 282538 287007 299977
1213.98 284388 332848 346775 302014 309175 351570
1216.87 382363 288854 418865 359482 370800 379348
1219.77 342277 450057 386254 425726 435370 447203
1222.66 494375 427078 495743 489248 486923 512983
1225.55 509216 558227 513883 535247 575805 525705
1228.44 570466 638239 624949 578907 635401 599785
1231.34 666795 663458 705000 692706 700584 741235
1234.23 707260 833984 763896 836067 847764 876876
1237.12 830971 906270 868862 962764 905924 972661
1240.01 954795 1016441 1035201 1073631 1067060 1111129
1242.91 1158778 1130938 1193718 1169471 1184334 1214151
1245.80 1236732 1306140 1356869 1358165 1402460 1457183
1248.69 1478848 1489338 1541345 1529503 1598518 1584352
1251.59 1661870 1655386 1707892 1737144 1713261 1677467
1254.48 1756127 1680927 1752237 1797837 1795712 1823129
1257.37 1858001 1896241 1878721 1911507 1803619 1867329
1260.26 1894064 1925401 2071211 2099382 2462516 2359128
1263.16 1954685 1937772 1940518 2051577 2034895 2220291
1266.05 2172310 2279737 2257871 2405091 2401985 2473685
1268.94 2543122 2558121 2646760 2723468 2800068 2949306
1271.83 3051705 3121441 3212383 3449686 3580152 3764313
1274.73 3910836 4144475 4307652 4473462 4733665 5056266
1277.62 5264315 5565659 5801195 6171016 6427929 6746046
1280.51 7072424 7345485 7605906 8016107 8241022 8440721
1283.41 8598128 8771608 8927840 9053293 9169834 9121167
1286.30 9052565 8963115 8725273 8569848 8234920 7959102
1289.19 7696237 7242833 6788688 6580980 6683942 7205575
1292.08 7459551 8156622 9231229 10645596 10856530 10735371
1294.98 9052353 7367381 6931816 7076817 7366723 7815769
1297.87 8189265 8492133 8899237 9143530 9467233 9749996
1300.76 9826773 9678417 9584242 9395829 9215424 9082322
1303.65 8575228 8393286 8057673 7775980 7363424 7071596
1306.55 6672837 6388106 5920075 5571848 5297871 4990179
1309.44 4632679 4327677 4019926 3805969 3607483 3342144
1312.33 3171027 2969116 2735347 2648423 2408904 2313378
1315.23 2222071 2119451 2032175 1979841 1914184 1876658
1318.12 1875074 1834133 1869153 1860218 1899747 1947724
1321.01 1973690 2103074 2138704 2251598 2380175 2434708
1323.90 2541642 2700254 2860183 3026520 3085082 3232408
1326.80 3379837 3568782 3678332 3859464 3997463 4193290
1329.69 4240580 4452511 4544624 4711051 4775170 4843503
1332.58 4936498 4955713 4976033 4976262 4811256 4814763
1335.47 4670500 4655695 4519953 4476471 4325882 4331348
1338.37 4123567 4172766 4123308 4289568 4481465 4949879
1341.26 5486528 6438590 7183939 7977270 8059330 7665206
1344.15 5707527 3782980 3768990 3719636 3901065 4015279
1347.05 4297530 4632557 4934218 5103405 5210826 5549824
1349.94 5869449 6301549 6443129 6676834 6756153 6991141
1352.83 7039867 7242659 7077227 7208298 7213039 7281951
1355.72 7221767 7355152 7368417 7313529 7244799 7472418
1358.62 7344303 7570997 7630898 7756484 8004077 8237270
1361.51 8449520 8835800 9189348 9580132 9965399 10571143
1364.40 11101197 11778210 12277374 13148438 13757063 14598322
1367.29 15353273 16328914 17171429 18318986 19122980 20196081
1370.19 21184883 22243599 23290142 24212551 25170754 26235454
1373.08 27068676 28131926 28676585 29220911 29774226 30271381
1375.97 30165734 30706755 30318461 30216203 29788277 29928511
1378.87 28888354 28780890 27926201 28271714 28114424 29820648
1381.76 31395773 40159361 43935132 40523551 39169460 35476503
1384.65 35338586 30855829 28711792 27047329 27592388 28038129
1387.54 29545978 31596126 33816063 35279753 37602517 39633992
1390.44 41214476 41277380 42336289 42607960 43172806 42812227
1393.33 42899452 42139769 41644996 40642744 39635426 38265156
1396.22 37120247 35380324 34039062 32333246 30745561 29113604
1399.11 27493098 25863761 24554715 22890028 21792816 20246033
1402.01 19060280 17979656 16967122 15877289 15208943 14309644
1404.90 13624612 12983344 12404928 11785288 11385086 10895994
1407.79 10681455 10217088 10090285 9770646 9830866 9601477
1410.69 9364628 9126773 9034648 8821481 8880535 8799098
1413.58 8733633 8658170 8746255 8686529 8763012 8674022
1416.47 8791667 8700849 8785344 8802019 8910148 9216920
1419.36 9184686 9149190 9384774 9378402 9629167 9713114
1422.26 10009419 10253453 10449863 10721501 10993537 11178022
1425.15 11604251 11790228 12291777 12631004 12912561 13440296
1428.04 13961106 14204557 14817267 15141211 15683811 16308304
1430.93 16854991 17069443 18230045 18715017 19394559 20086788
1433.83 21006419 21748649 22412515 23590148 24351974 25229385
1436.72 26302567 27310963 28223670 29125116 30649827 31578779
1439.61 32485556 34291240 34912504 35855816 37938894 38507821
1442.51 40369761 41339209 42303686 44066953 44306964 45268548
1445.40 46951902 47118688 48873857 49144231 50495244 51825845
1448.29 51476557 53553239 53757813 54031695 56415120 55095675
1451.18 57637724 58911929 59389620 61447959 60102774 62727991
1454.08 63428249 63071247 64533815 65404594 65895441 66035938
1456.97 63812213 67614834 66868766 69200209 71825751 71597790
1459.86 76798189 77817784 84432946 92989915 96215469 87549084
1462.75 83139270 81348103 84163024 88111065 96239035 104668251
1465.65 121438049 99865062 89968947 86128629 78133257 78767573
1468.54 76941674 77232940 80119517 82486977 86688057 88532963
1471.43 84297224 75661192 68358083 67434361 63766928 58562196
1474.33 59019080 58931310 58728277 59616591 59478031 62077931
1477.22 63401600 62632077 65176400 65601252 64475073 66218009
1480.11 65704587 63682257 65430827 64842930 61448549 62714130
1483.00 62013136 59145218 59398469 58376545 56343177 56315193
1485.90 54140509 52561470 53047520 50453251 48764356 48633704
1488.79 46725530 45176674 44896578 42835142 41216144 40877368
1491.68 39000068 37954529 36942295 35950775 34367920 33385818
1494.57 33077604 30907088 30595255 29969597 28225697 27444714
1497.47 27269828 25859371 24796271 24757166 23256312 22749159
1500.36 22071351 21254650 20465580 20154790 18995555 18911739
1503.25 17762429 17293508 17064486 16084830 15875754 15314954
1506.15 14429012 14511473 13479781 12997298 12514791 12315721
1509.04 11390612 11378470 10865937 10128361 10075170 9783248
1511.93 9140625 8822467 8809871 8057525 7806195 7779898
1514.82 7223409 6781979 6828817 6449321 6147547 6031975
1517.72 5644209 5402936 5205517 4986160 4921549 4585140
1520.61 4677807 4487815 3931636 3970709 3761040 3513134
1523.50 3248710 3305588 3145139 3153487 2868058 2765138
1526.39 2660935 2563499 2417125 2366567 2228349 2157503
1529.29 2010149 1926431 1925412 1812166 1784101 1683510
1532.18 1702319 1649006 1648028 1640275 1392913 1396776
1535.07 1330963 1355021 1252315 1276213 1220987 1252999
1537.97 1124232 1579807 1292877 1176036 1415963 1123960
1540.86 1065091 1257672 1248035 967260 1064900 993510
1543.75 1003516 1000095 1089594 950385 938456 936263
1546.64 982336 998670 937074 965672 988665 1017758
1549.54 1006844 996949 972478 982949 1001726 1021657
1552.43 1041416 1063613 1064799 1311565 1110189 1118268
1555.32 1036562 1131867 1041449 1339120 1259876 1382319
1558.21 1596699 1216519 1429798 1603550 1398034 1197359
1561.11 1331523 1277327 1320527 1302109 1291392 1299751
1564.00 1383352 1416803 1468551 1378826 1516078 1485941
1566.89 1522677 1507480 1541733 1558793 1648988 1731996
1569.79 1618723 1599512 1638553 1630252 1641659 1651096
1572.68 1784751 1727594 1672148 1670050 1749343 1722427
1575.57 2213781 1936888 1684051 1746645 1731322 1753818
1578.46 1698403 1693460 1679782 1667555 1701166 1657653
1581.36 1707494 1644728 1615363 1598293 1603205 1670526
1584.25 1618288 1585260 1544502 1615444 1601163 1597455
1587.14 1538234 1554746 1578786 1556372 1519693 1534615
1590.03 1562409 1512286 1514993 1514509 1471037 1410294
1592.93 1453037 1403155 1408516 1376201 1351579 1313115
1595.82 1301935 1344054 1305114 1206565 1273749 1225598
1598.71 1250450 1150072 1166057 1149039 1113126 1113334
1601.61 1076450 1083999 1028858 1017367 1042547 952471
1604.50 964223 935657 935947 980223 978903 945697
1607.39 981815 972421 965673 918449 979490 978690
1610.28 936422 932088 991191 964759 1005091 932450
1613.18 1027560 963752 995183 953690 1109123 1006537
1616.07 1428146 1229173 997019 1100319 1046901 1025864
1618.96 1052099 1016585 1010151 980074 1022111 952291
1621.85 938452 928706 1026063 1042885 869404 897400
1624.75 877972 995247 951156 1043451 1042598 1121049
1627.64 1093761 1078988 1083799 1093890 1130937 1121167
1630.53 1123737 1100682 1194098 1236485 1181014 1250733
1633.43 1200640 1220816 1316681 1398990 1458164 1158122
1636.32 1220733 1146701 1237853 1119170 1201857 1138082
1639.21 1147296 1114653 1146216 1122464 1122614 1072921
1642.10 1102521 1079715 1069062 1100191 1156729 1128522
1645.00 1223170 1454632 1219536 1149464 1270341 1205781
1647.89 1291965 1181403 1289100 1195942 1235191 1184433
1650.78 1277581 1266845 1740459 1538445 1864012 1540211
1653.67 1319239 1560292 1338309 1355684 1346081 1379436
1656.57 1415331 1383667 1370192 1483057 1401921 1377260
1659.46 1423956 1492190 1414887 1481277 1450372 1549118
1662.35 1605538 1423173 1433048 1499066 1441677 1432440
1665.25 1450426 1512349 1462890 1516903 1515972 1623118
1668.14 1547101 1775645 1783708 1626163 1652734 1605371
1671.03 1715677 1622087 1606165 1582682 1603280 1545853
1673.92 1561235 1632196 1793809 1564294 1463157 1420473
1676.82 1425028 1412609 1356551 1425840 1359526 1391192
1679.71 1430747 1428340 1477615 1432109 1426846 1428521
1682.60 1592338 1537716 1550774 1816200 2025556 1486010
1685.49 1530145 1414460 1483184 1365610 1399791 1360676
1688.39 1407341 1301251 1418006 1361437 1394437 1317146
1691.28 1307671 1306017 1259598 1267324 1318548 1250343
1694.17 1318725 1287960 1602096 1647720 1231913 1299534
1697.07 1282255 1240509 1238946 1244355 1335930 1616353
1699.96 1464151 1458552 1194563 1264903 1228608 1296437
1702.85 1200942 1208355 1292301 1239009 1181059 1268469
1705.74 1315183 1263954 1228129 1220802 1173277 1246001
1708.64 1237284 1238342 1264516 1240872 1139556 1197669
1711.53 1176019 1261270 1206001 1208711 1200636 1187892
1714.42 1292675 1279480 1151230 1218789 1100606 1613173
1717.31 1233180 1093150 1244643 1120772 1121058 1102888
1720.21 1139139 1097968 1109176 1055522 1074954 1059321
1723.10 1103995 1052203 1062622 1103546 1029006 994450
1725.99 1019051 921459 929720 876686 892130 894089
1728.89 909551 896950 888055 876672 856024 829836
1731.78 917126 771904 1088790 944062 882871 1155115
1734.67 674960 721710 650501 731646 653633 640449
1737.56 599400 613388 545458 706275 672095 536406
1740.46 521056 525301 495318 455738 525423 494210
1743.35 469954 412002 370981 419405 412249 414390
1746.24 408023 409953 366610 373317 397152 380173
1749.13 420222 335680 332235 450006 521367 325647
1752.03 334550 288288 305073 308415 307010 258525
1754.92 296958 292024 332701 374515 278141 280591
1757.81 274583 317366 242538 285385 297084 264530
1760.71 272573 431327 395746 267926 268328 301182
1763.60 279371 269289 292991 248820 322349 258885
1766.49 312812 279104 350478 348085 237533 328923
1769.38 279842 260639 285060 370864 260619 366843
1772.28 539096 290881 251085 322243 321366 269892
1775.17 339391 298853 336624 343287 296848 336772
1778.06 322966 311421 322800 321545 401555 382311
1780.95 322954 380936 365256 411006 354482 365233
1783.85 329632 430278 416421 327852 332110 352757
1786.74 340471 367598 387411 377648 421081 395031
1789.63 359355 411607 444698 350710 383783 557676
1792.53 481505 355246 428951 361538 402457 410367
1795.42 471807 422226 443504 439218 407778 449651
1798.31 410422 443285 482362 422810 417494 442313
1801.20 427060 459530 444827 380611 418862 435964
1804.10 459903 427198 415338 426171 429516 416814
1806.99 424731 423752 448628 438706 442664 408453
1809.88 468781 471995 432045 448985 451768 399974
1812.77 422682 446835 450133 432391 395495 438558
1815.67 390631 381071 398260 414188 345278 370737
1818.56 410623 373378 356342 369218 376771 364083
1821.45 356537 346697 359699 316637 333643 294355
1824.35 371481 348209 275951 272281 278622 283903
1827.24 277115 250763 278319 281941 257068 297429
1830.13 189163 200217 234393 147582 189869 159681
1833.02 188274 150044 108993 139135 148779 130537
1835.92 97398 121854 126292 98120 96229 76906
1838.81 106907 96124 79927 76992 88865 61578
1841.70 72697 42493 72600 54249 258427 146633
1844.59-7918 59056 23056 34393 10229 52276
1847.49 53032 26727-12409-2736-8888 20316
1850.38 23173-26453 5809-1829 11101-318
1853.27 22764-32209-26917 35851-8077-23720
1856.17 7453-2809-28232 8235 28471 13490
1859.06-5259 31457-20564-38861 12284 21720
1861.95-17788 10344-7379-22680 26880-16721
1864.84 25667 3762 33276 2662 28025 56749
1867.74 35474 3093 98203 22760 16528 48462
1870.63 45883 48457 52264 19868 51020 58286
1873.52 70209 48231 101758 82095 112604 71554
1876.41 79764 115369 107789 121269 82195 130430
1879.31 143269 171439 157065 164065 170327 192578
1882.20 204049 169622 169064 167579 183482 238964
1885.09 250381 234389 292412 248153 249005 237834
1887.99 240279 282418 317139 315828 295515 331235
1890.88 329626 334209 337633 351164 359219 386851
1893.77 384370 454948 409962 409636 411698 447692
1896.66 405685 464867 484071 500893 524033 478731
1899.56 474777 454731 529706 495448 505505 563831
1902.45 508937 551788 492080 504343 515231 509682
1905.34 504397 517841 506778 489361 512044 534679
1908.23 526360 532652 515528 518176 533941 493712
1911.13 475652 488243 476688 482904 517648 519082
1914.02 535967 520632 503840 497921 471670 482647
1916.91 474583 604355 556748 521613 549988 569105
1919.81 556172 494081 508097 507023 568932 535357
1922.70 511875 495871 508948 508643 466071 469887
1925.59 467041 464015 436081 438433 417817 392484
1928.48 427966 404932 423833 385803 424230 420512
1931.38 393222 378548 372295 402817 400415 372985
1934.27 325494 316801 378070 350713 365421 360047
1937.16 378336 320126 337233 244439 277868 261469
1940.05 262591 293543 257286 294862 273667 241968
1942.95 184624 192594 217852 186941 225905 215820
1945.84 222015 177399 171401 228708 201568 170600
1948.73 196112 192632 197939 148946 173852 156948
1951.63 177219 146755 130900 107024 124382 130951
1954.52 94547 66386 118582 58507 88283 61928
1957.41-3077 36475 39674 52216 24376 11252
1960.30-783 21680-477 31749 22375-24756
1963.20-9601 14801 9680-38738-2496-8798
1966.09 4434-32629-48711-30712-13339-6363
1968.98-19225-74288-69290-66375-21213-62093
1971.87-48653-73674-30553-58228-82709-86021
1974.77-26820-22806-48771-24982-30927-98153
1977.66-49342-112097-40893-51987-85283-63503
1980.55-21152-54643-38988-85987-44410-46623
1983.45-63523-98530-31645-54934-43579-84268
1986.34-66591-77975-22828-62954-51752-29661
1989.23-54814-67398-38268-50700-56665-36438
1992.12-25134-9035-50065-62589-49364-43329
1995.02-27917-44041-1250-16124-73144-66813
1997.91-23720-8617-18112-53524-20641 1695
2000.80-13750-17869-9109-23285 5671-18875
2003.69 1600 15778-9983 2075 38797 27973
2006.59 22794-9468-30642 225 83628 39592
2009.48 40049 27472 29808 46836 42275 36567
2012.37 98371 80612 77060 110691 82371 103645
2015.27 131579 117351 142205 219081 218645 230794
2018.16 175655 245053 225955 282339 293186 322367
2021.05 317761 320359 347765 406808 442814 427892
2023.94 498639 449383 528270 524808 548778 541538
2026.84 556193 595073 583181 638404 648293 665034
2029.73 699251 684119 648936 660563 695973 649040
2032.62 700312 667569 637218 639859 620726 596620
2035.51 637163 710483 805861 774435 841826 745784
2038.41 627216 606449 624265 682402 679481 679064
2041.30 702005 696194 724690 787155 810073 833537
2044.19 829374 790327 825460 844668 824515 763583
2047.09 778733 758883 749637 680522 706422 656402
2049.98 667782 637619 555306 563225 574537 517391
2052.87 538785 499591 471675 431188 434151 357987
2055.76 354252 331189 329043 353216 315274 290518
2058.66 236323 286949 297005 254678 257650 267082
2061.55 254174 252504 185635 186240 222719 238989
2064.44 207010 173240 145111 161080 163542 160672
2067.33 154756 146581 178719 161811 154481 163384
2070.23 115562 188098 188662 181267 167292 198286
2073.12 167287 134117 147751 159691 150473 195563
2076.01 192979 105233 169176 167291 190408 158697
2078.91 144885 177617 148022 180828 182123 231385
2081.80 225537 190524 221675 187964 204330 214309
2084.69 207985 217818 320569 251222 202435 231218
2087.58 192830 210749 242745 267148 246800 367889
2090.48 330110 232628 286288 258224 262175 269519
2093.37 309296 267540 481214 356501 304642 340102
2096.26 321008 303398 306427 303980 387561 473458
2099.15 311783 344751 337821 351107 348236 400817
2102.05 339192 501422 536048 323273 435238 424772
2104.94 382720 412579 430595 424088 640941 460945
2107.83 495267 438403 392313 433774 481998 414988
2110.73 574834 639922 451243 491190 504723 525274
2113.62 503465 501556 552765 729376 582608 499981
2116.51 510820 535973 527452 555727 519238 681645
2119.40 750801 587666 667228 619906 623959 613959
2122.30 663463 702011 843309 642550 689832 633427
2125.19 692945 641745 667125 652222 860807 696148
2128.08 653954 692162 665032 581953 653740 607847
2130.97 733353 708342 632769 601501 647721 627615
2133.87 695696 625969 657322 704705 605464 661465
2136.76 680621 628113 691088 678771 718556 717669
2139.65 677025 671121 706854 697974 699562 696128
2142.55 743467 690599 714059 724799 703271 685004
2145.44 776652 707793 724114 701100 663204 665574
2148.33 647336 653404 677224 615445 759843 641907
2151.22 634537 649001 572770 613478 628354 671789
2154.12 771763 686691 615771 662843 600458 646648
2157.01 591233 777474 796671 622417 622597 654770
2159.90 694645 665364 695727 855685 779812 705092
2162.79 754756 702569 769211 700968 807071 928473
2165.69 771275 772352 748888 739329 793826 818606
2168.58 1094210 955749 812679 804915 760697 781612
2171.47 696683 873730 965900 673279 772753 667333
2174.37 779523 698515 744049 953756 700861 682674
2177.26 673037 716720 711738 717812 934857 736505
2180.15 665115 715197 712504 717517 696260 877418
2183.04 804229 654748 763429 662825 741238 668182
2185.94 876286 837471 704702 804790 722904 691015
2188.83 692783 818213 833255 682525 691638 668411
2191.72 740661 628612 773190 767694 725398 676864
2194.61 715103 724708 698360 808482 715744 690830
2197.51 751079 732107 714985 766684 847156 752838
2200.40 798447 765596 759077 773185 805610 830465
2203.29 711323 776447 797721 716008 787137 871885
2206.19 778701 745324 778232 727378 763019 784119
2209.08 817581 809838 791782 757292 820740 812159
2211.97 855985 815863 762123 781136 791912 762952
2214.86 756307 735684 735330 738383 729877 726936
2217.76 717367 765100 754074 771281 752392 757934
2220.65 749816 745503 800757 740388 723398 737950
2223.54 717371 689300 693644 740669 739748 718593
2226.43 681859 659265 644316 657943 651190 630372
2229.33 654388 618111 626539 605548 610684 546284
2232.22 624006 550837 588964 580170 514643 518835
2235.11 534302 559065 507712 510388 467840 439301
2238.01 476454 409614 449465 446363 442126 421079
2240.90 463232 448349 495326 451930 485961 460783
2243.79 461735 479709 469934 464165 464874 462648
2246.68 457756 422881 427255 447290 472332 497808
2249.58 522234 513272 518295 478789 494965 532727
2252.47 495195 475070 507791 475471 536106 543667
2255.36 527240 508102 573379 533716 580468 561898
2258.25 580098 562553 597241 576155 630768 581466
2261.15 618858 589578 612050 603963 612090 615453
2264.04 642502 654345 587742 644082 617127 630541
2266.93 637554 625545 621875 603932 638476 557723
2269.83 615932 605112 617255 654876 614481 609699
2272.72 613036 557339 606636 652920 655975 687246
2275.61 699600 717573 739160 696339 717621 686777
2278.50 739260 736378 793550 803289 817621 792127
2281.40 830904 835320 893433 832375 888059 846393
2284.29 887124 842688 866627 886067 888707 864591
2287.18 916211 880548 917036 850707 890403 861466
2290.07 930673 886126 863291 923032 903559 898069
2292.97 878890 904957 872342 909924 890991 810833
2295.86 822232 842241 923223 901201 907513 944860
2298.75 994222 982753 994650 1011564 1104768 1067234
2301.65 1112284 996971 1075054 1051640 1171841 1022526
2304.54 1165806 1099890 1107225 1118252 981410 1076394
2307.43 1031202 1103986 995942 989557 1089142 1057922
2310.32 974373 855193 1085304 972708 979748 758597
2313.22 1055758 898218 1091871 669144 1022951 933523
2316.11 1089857 705017 955171 949856 1072191 585055
2319.00 856395 938866 1080406 563238 739275 1024080
2321.89 1069755 649141 772926 1128563 1023216 458120
2324.79 633351 1122080 963663 385496 665350 1189525
2327.68 899489 355458 750638 1281712 790315 333484
2330.57 943490 1328450 597202 366551 1184884 1322151
2333.47 405482 618811 1384617 1045100 311079 959574
2336.36 1524526 704213 370036 1307680 1176246 368409
2339.25 799862 1455825 768862 446098 1232293 1229755
2342.14 505463 961555 1340423 787004 716138 1298798
2345.04 1107063 897632 1183862 1295063 1068793 1222255
2347.93 1303689 1315211 1297419 1198479 1282743 1297338
2350.82 1024899 1155660 1398638 899116 931735 1413290
2353.71 775754 701871 1382309 596068 642882 1423442
2356.61 415043 457674 1458180 223654 578847 1370532
2359.50 25529 749516 1190574-163490 1080260 897384
2362.39-138267 1393163 385523 279126 1339520 1965
2365.29 847785 966630 99650 1383001 427624 835558
2368.18 1106260 360744 1319601 645414 980596 1183114
2371.07 782257 1503052 864522 1426532 1111453 1367385
2373.96 1375501 1293176 1540507 1315461 1599791 1428932
2376.86 1684994 1570543 1707981 1656787 1731364 1720861
2379.75 1803994 1784264 1746131 1664317 1705346 1667854
2382.64 1657722 1560965 1607316 1493309 1497007 1403280
2385.53 1417297 1395288 1436161 1525142 1477725 1576061
2388.43 1591655 1721286 1741132 1431357 1332349 1362743
2391.32 1393399 1421264 1533835 1592665 1596992 1671264
2394.21 1708613 1761408 1800361 1838258 1857515 1907526
2397.11 1872369 1882093 1852528 1817566 1689332 1741666
2400.00 1743967 1593213 1621378 1527144 1504829 1384681
2402.89 1344512 1300115 1300825 1244782 1179398 1194390
2405.78 1215032 1229462 1322843 1265236 1295938 1253389
2408.68 1215721 1206785 1247873 1304883 1316784 1364453
2411.57 1392816 1422149 1499901 1522137 1547768 1541860
2414.46 1626076 1677300 1632716 1686814 1713787 1771941
2417.35 1755271 1804758 1795137 1724122 1752108 1710865
2420.25 1713571 1703489 1689037 1730049 1670129 1680514
2423.14 1782835 1748838 1793882 1769876 1827254 1872475
2426.03 1914127 1931738 1950786 1979757 1984504 2007302
2428.93 2004988 2078084 2063934 2152313 2057088 2130487
2431.82 2133910 2085681 2087004 2109760 2112137 2159792
2434.71 2150329 2183654 2092260 2047627 2056530 2006537
2437.60 2035750 2013516 1981817 2002078 2016949 2023413
2440.50 1934537 1918902 1889898 1853027 1791772 1786334
2443.39 1783302 1790603 1799963 1802731 1738813 1827987
2446.28 1797674 1786067 1783469 1819224 1779814 1739049
2449.17 1797533 1768574 1744836 1708688 1700470 1665407
2452.07 1679628 1604288 1509805 1492786 1437733 1384537
2454.96 1310265 1261982 1255702 1189218 1150663 1070732
2457.85 1055133 1032683 996620 970722 914349 822995
2460.75 889488 821544 819963 742635 736831 686079
2463.64 677323 597005 655323 642289 643836 658246
2466.53 607743 587444 566383 588523 527496 518520
2469.42 546394 556661 538180 534415 511747 478038
2472.32 505948 490824 436968 471090 429025 381091
2475.21 433840 322330 366662 354706 324848 337483
2478.10 285213 328224 292886 289597 319209 306276
2480.99 361334 251248 357948 337563 293285 289401
2483.89 245759 296635 296165 247461 271655 234677
2486.78 228331 218276 263660 269528 257472 248621
2489.67 235856 282023 229040 225048 216846 233093
2492.57 224878 151076 208837 202962 249921 184671
2495.46 238275 237811 234711 232350 187105 216371
2498.35 233015 252214 226088 213826 245969 184761
2501.24 199602 238723 239470 220984 265963 280924
2504.14 297157 277316 301393 307837 325756 335290
2507.03 340214 345126 327543 351669 389485 374736
2509.92 395620 415218 372554 470681 448323 455189
2512.81 438444 423298 426219 542620 585592 517071
2515.71 541608 616727 546060 571514 558587 581921
2518.60 583563 572798 661560 698969 660288 644203
2521.49 736805 728301 722983 716014 717921 743034
2524.39 770783 755973 847399 831980 887970 860727
2527.28 805812 821826 805333 780433 809380 805617
2530.17 832865 777439 832784 795122 829040 845650
2533.06 825092 816581 792016 768284 812855 714825
2535.96 769467 751609 792832 791329 855227 767867
2538.85 800310 777006 770651 771965 769218 768970
2541.74 785200 786193 750418 843256 756661 737442
2544.63 784278 775705 772162 696328 748109 748054
2547.53 749315 658264 705389 717387 659709 679994
2550.42 660907 637725 655714 632958 630480 619087
2553.31 650831 608689 646293 592836 633738 688790
2556.21 658673 676177 630573 662880 693073 682208
2559.10 668197 678414 726806 699654 733181 707778
2561.99 812560 755480 862956 729879 831934 844554
2564.88 856725 941065 902396 919083 974125 914094
2567.78 979247 1007308 1093235 1040332 1079087 1109047
2570.67 1157358 1181132 1286968 1219625 1297767 1307249
2573.56 1352295 1360402 1398323 1456324 1484544 1521463
2576.45 1520542 1604481 1594605 1679186 1709301 1712761
2579.35 1837316 1808971 1856434 1895658 1911157 2000643
2582.24 1994948 2023838 2197545 2142849 2172962 2322259
2585.13 2318856 2302074 2374142 2435017 2541051 2558378
2588.03 2701473 2696244 2788948 2965508 3209690 3276594
2590.92 3134940 3130929 3225174 3248555 3254018 3266860
2593.81 3314481 3396652 3369511 3476306 3479230 3585910
2596.70 3701926 3790631 4051714 4112397 3855002 3827591
2599.60 3780916 3800152 3816127 3837075 3882668 3880192
2602.49 3898169 3912066 3939149 3924763 3913107 4032940
2605.38 3984904 3939428 3980608 4072597 4094821 4144560
2608.27 4154471 4159499 4242497 4268986 4334861 4345322
2611.17 4347116 4395516 4433566 4454056 4517528 4562264
2614.06 4563242 4553232 4585144 4639161 4596941 4803424
2616.95 4675594 4448512 4465644 4435087 4422563 4433493
2619.85 4567028 4494400 4582511 4615719 4623432 4624391
2622.74 4611921 4575715 4568164 4569548 4648857 4521899
2625.63 4556428 4621897 4635833 4648285 4674860 4755880
2628.52 4748406 4801504 4812774 4849788 4879957 4887866
2631.42 4966198 4955453 4920249 4995844 4973349 4970575
2634.31 5013207 4983300 5031120 5003547 5011240 5065668
2637.20 4978265 4962577 4957497 4931328 4928000 4930751
2640.09 4774816 4776405 4770336 4677925 4649496 4617225
2642.99 4502153 4539686 4552164 4534120 4581285 4656668
2645.88 4712772 4761568 4835491 4991800 5047397 5067558
2648.77 5235514 5226379 5266565 5319870 5240910 5294943
2651.67 5277269 5300794 5341621 5238859 5267740 5284371
2654.56 5250605 5249707 5242232 5215787 5179092 5213713
2657.45 5235863 5169974 5208750 5043815 4972829 4890095
2660.34 4887025 4898272 4805372 4762336 4785106 4760969
2663.24 4806095 4726629 4684987 4734463 4629075 4640587
2666.13 4720509 4632199 4623393 4624225 4564522 4508461
2669.02 4504003 4449686 4405597 4335987 4330738 4226745
2671.91 4184303 4139629 4054730 3987108 3986342 4000926
2674.81 4040701 3970941 4057302 4128201 4166418 4224594
2677.70 4267447 4421871 4447318 4721025 4858719 4886796
2680.59 4856344 5009949 5047453 4828801 4728136 4723160
2683.49 4606765 4331081 4257873 4141891 4062401 3954109
2686.38 3907114 3875847 3795453 3777128 3787759 3752983
2689.27 3737383 3708272 3661546 3572471 3544756 3503027
2692.16 3548058 3446281 3399720 3400685 3396080 3345451
2695.06 3328261 3293067 3317913 3313430 3295407 3319374
2697.95 3335090 3226531 3319489 3303506 3305749 3338690
2700.84 3357367 3356573 3435455 3446714 3483484 3471993
2703.73 3580941 3568224 3625048 3676962 3786006 3806691
2706.63 3854907 3807559 3983767 3996405 4090121 4172714
2709.52 4213183 4255686 4416038 4462195 4595912 4717588
2712.41 4859360 4797894 4838152 4923862 4975503 5042692
2715.31 5103744 5186686 5227698 5242476 5315414 5313647
2718.20 5367920 5419072 5519996 5669588 5750207 5896035
2721.09 6071322 6360018 6576089 6725050 6941895 7115049
2723.98 7293284 7457705 7705504 7799385 7991995 8132251
2726.88 8329356 8492079 8754165 8891896 9090404 9265546
2729.77 9425114 9583718 9807072 9985220 10159229 10359981
2732.66 10628350 10646008 10843753 10896618 11005026 11124217
2735.55 11223505 11219148 11232786 11147678 11068167 11086836
2738.45 10945497 10819040 10676598 10507084 10459153 10517839
2741.34 10843167 11472516 11555190 11181492 10604250 10259147
2744.23 10227807 10322922 10369448 10362639 10573283 10725594
2747.12 11064120 11243847 11599671 11861756 12112253 12296084
2750.02 12398889 12243310 12319158 12169708 12224348 12124325
2752.91 11957838 11894439 11725629 11409925 11260367 10915460
2755.80 10671911 10373356 10088875 9770090 9479733 9206617
2758.70 9012531 8762816 8450830 8251500 8121815 7965801
2761.59 7747035 7678675 7530662 7482481 7392006 7200827
2764.48 7118130 7087969 6952917 6791705 6867428 6712603
2767.37 6702635 6655684 6622343 6591190 6532029 6510226
2770.27 6405447 6429400 6445772 6449722 6475964 6488790
2773.16 6409812 6333556 6396091 6470479 6386193 6436999
2776.05 6557152 6504712 6542793 6660593 6663893 6675813
2778.94 6777474 6796095 6884096 6824506 6952584 6945212
2781.84 7060757 7036007 7113300 7069100 7205618 7097492
2784.73 7192095 7209084 7175609 7210188 7219401 7209264
2787.62 7245627 7260445 7336875 7322332 7445732 7409965
2790.52 7554380 7625119 7729122 7827912 8071130 8161079
2793.41 8594096 8993276 9166813 8632749 8408571 8447389
2796.30 8532203 8522836 8728493 8793001 9122183 9207212
2799.19 9297772 9393027 9533394 9679871 9747527 9901482
2802.09 10053554 10100596 10219591 10348901 10570717 10718581
2804.98 10943005 11079967 11252511 11504293 11740797 11865646
2807.87 12168755 12364838 12643434 12865566 13035319 13204889
2810.76 13493099 13653482 13935149 14258239 14461201 14765184
2813.66 15163294 15220102 15512959 15833935 16264631 16464078
2816.55 16898285 17217122 17395916 17641450 17928361 18256782
2819.44 18714443 19127035 19621186 20305773 20954773 21444861
2822.34 22045472 22667908 23016280 23518912 24263225 24608848
2825.23 25312006 25691498 26293255 26710527 27366408 27970297
2828.12 28401526 29048766 29767792 30336153 30791382 31365065
2831.01 32060095 32321450 33251806 33917769 34460198 35213490
2833.91 35855752 36573002 37022051 37734054 38691173 39454197
2836.80 40579060 41582028 42898055 44371324 45930115 47588958
2839.69 49191379 50087504 51036473 51928214 53459112 54634086
2842.58 56179025 57481061 58953094 60514699 62167466 63570950
2845.48 65295943 66749839 68122717 69767176 71451090 73020150
2848.37 74874623 76842148 79013194 81119847 83990794 86743742
2851.26 89387473 92188348 94614653 96552607 99340159 101719230
2854.16 104533893 107663715 111046613 114379085 117595721 121314405
2857.05 124798445 127968584 131947758 135090371 139099505 142115825
2859.94 145933108 149048403 152069542 156038239 158425209 161904133
2862.83 165758431 167627619 171915690 174624768 177168626 181031855
2865.73 183574086 185636048 188817943 190029577 191643658 193659489
2868.62 196745508 200326271 206951203 217978167 235254888 247347589
2871.51 251271063 254897460 255808024 258012046 260341659 266199952
2874.40 273395994 281605054 291691967 300739193 309615688 318068808
2877.30 323381657 329185069 332140747 333805686 334762955 331779298
2880.19 329021699 324425330 317189585 310659533 301262950 291137020
2883.08 283473321 275300392 270702394 266511937 267874995 277694532
2885.98 311585497 337047142 315955386 290651727 278345420 284971641
2888.87 286653093 287106949 285444679 285587328 288217196 291399093
2891.76 296335915 302291296 304811786 308232004 310982599 311522073
2894.65 311649008 311353331 308945531 307053978 304163405 300635035
2897.55 297812540 294153694 289616136 286690961 282142391 278712144
2900.44 274057204 269970621 266071725 262163893 258825626 256656691
2903.33 253047085 250017070 247511394 246353855 245415167 245446459
2906.22 246752521 247874016 250079149 251276483 252455637 252457275
2909.12 254761774 257875404 258550225 261803708 263428231 265580482
2912.01 269826472 271514667 276264996 276910666 279480592 281477806
2914.90 284279609 288738514 291575245 292714105 294587426 298388865
2917.80 299153648 305428365 309670139 315945654 327160829 335130574
2920.69 342345962 346870677 348284044 352458806 359152377 370971425
2923.58 374513113 374813839 375864214 374286342 382290957 388192717
2926.47 392157506 400346552 402249458 410036455 412479983 416890119
2929.37 421761831 425099504 438627207 444391254 453798269 471842450
2932.26 486242756 507879027 503621416 482336538 475099470 463071790
2935.15 465056909 468061517 472305996 478873022 488627337 500804907
2938.04 515851685 521016046 516958200 521367549 523009313 522153256
2940.94 518834102 517704405 515906926 520637605 519081626 518802170
2943.83 519822899 519292200 522990196 523974590 532248502 540818769
2946.72 555349656 570210086 574913459 570182173 571725024 563927894
2949.62 553322941 559117903 558668200 563526045 574962276 580397143
2952.51 587859899 600220143 605329376 613736057 624861093 628611678
2955.40 643615595 650180871 654727681 663998344 671530876 676667753
2958.29 684060412 694126712 694240925 703354685 710432988 707882183
2961.19 716848267 719716234 725588084 735498721 745778590 771964118
2964.08 820130793 867593935 930887147 993355321 956971308 875796996
2966.97 820882738 796301121 780203324 748711862 712259863 693882624
2969.86 686650246 666030103 628196838 621690306 626117162 654072621
2972.76 679233045 676488016 670302256 646764123 635307092 631141135
2975.65 622399507 621281117 623586576 621644225 626956010 626883989
2978.54 628866418 630830991 627105686 628608307 622525579 616344020
2981.44 612082838 597014883 591836758 573216416 562135495 546253440
2984.33 527955442 512402475 491894627 478274342 454601553 441705226
2987.22 421332543 402321495 388909484 367323589 354546163 336660013
2990.11 321115925 307878526 291472084 280130545 264923722 253812745
2993.01 242000601 229838968 220662925 209311020 199937836 190691976
2995.90 181445638 173458558 165348842 157784320 150526130 143704185
2998.79 136679782 131040762 124180298 119075585 112911201 107694387
3001.68 102797994 97627887 93218568 88541426 84435293 80242441
3004.58 76140468 72648406 68757764 65528839 62187550 58975612
3007.47 56064915 53096147 50428403 47934487 45292234 43146892
3010.36 40915421 38738385 36767817 34960266 33062694 31595500
3013.26 29999119 28577570 27232020 25939969 24643501 23555617
3016.15 22384566 21369378 20382951 19575710 18648198 17902176
3019.04 17119351 16518638 15756265 15271343 14647680 14149283
3021.93 13660722 13237339 12740826 12444493 11961857 11642948
3024.83 11298972 11032568 10728726 10507685 10243482 10045514
3027.72 9806172 9621971 9353452 9239779 9070872 8915437
3030.61 8769059 8731406 8579830 8416221 8288833 8269614
3033.50 8079160 8055364 7937612 7874522 7712139 7741261
3036.40 7695714 7538992 7534707 7490712 7449785 7439173
3039.29 7379677 7325983 7305906 7338000 7180335 7211558
3042.18 7152866 7109055 7118131 7144942 7066726 7102969
3045.08 6950121 6935590 6974535 6985982 6897909 6951208
3047.97 6890995 6803342 6827656 6868493 6811450 6784681
3050.86 6791420 6780970 6771875 6759192 6760886 6722227
3053.75 6744681 6866126 6713892 6884544 6725549 6871292
3056.65 6885356 6889775 6890373 6953999 6939323 7010204
3059.54 6966440 7048186 7096065 7205095 7176712 7308814
3062.43 7262548 7424792 7407986 7452634 7513373 7578227
3065.32 7578402 7620792 7715208 7797576 7818732 7824689
3068.22 7961508 7994295 7984394 8122586 8146249 8123036
3071.11 8189192 8293527 8260198 8348808 8344901 8464380
3074.00 8417233 8499039 8424003 8404351 8463331 8592458
3076.90 8548822 8576573 8586218 8543488 8509079 8524811
3079.79 8474542 8384692 8591841 8413584 8367650 8425204
3082.68 8412720 8532083 8786436 8903211 8578365 8423578
3085.57 8462764 8596361 8621281 8747366 8681259 8582838
3088.47 8413835 8276367 8326761 8216095 8046366 8037580
3091.36 7957030 7800386 7829851 7763324 7606575 7545238
3094.25 7427050 7377945 7182816 7128096 6954090 6872743
3097.14 6871925 6675392 6613916 6460765 6448717 6444055
3100.04 6286057 6138460 6047175 6046722 5947366 5807270
3102.93 5680674 5675133 5640705 5540163 5410857 5334439
3105.82 5280573 5224439 5135009 5137626 5019018 5022084
3108.72 4948555 4941181 4849349 4821725 4738207 4722100
3111.61 4678083 4670807 4585697 4489472 4482230 4538747
3114.50 4422075 4451898 4343944 4429312 4440573 4355284
3117.39 4303078 4289460 4253492 4317968 4383927 4270073
3120.29 4176539 4248053 4261528 4236494 4255907 4300213
3123.18 4242712 4297952 4227217 4267991 4281486 4349266
3126.07 4290203 4329947 4318197 4378048 4320171 4437383
3128.96 4400268 4449275 4485833 4494672 4499618 4515782
3131.86 4582520 4543945 4595538 4596979 4680226 4757686
3134.75 4680045 4799617 4816227 4804734 4733410 4928229
3137.64 4957115 5006605 5073860 5030647 5086199 5131902
3140.54 5193462 5251857 5244654 5357872 5329398 5300076
3143.43 5376508 5336200 5430004 5443839 5446401 5450052
3146.32 5497337 5560908 5535508 5650741 5704017 5768068
3149.21 5771846 5794440 5827989 5906738 5961886 6021879
3152.11 6074681 6158466 6203521 6273250 6324184 6391886
3155.00 6414611 6502426 6642610 6721273 6702686 6807819
3157.89 6818614 6994002 6963965 7077993 7071494 7127639
3160.78 7133948 7181920 7129477 7203618 7137296 7176650
3163.68 7196054 7207110 7305790 7314911 7276194 7419201
3166.57 7536330 7531514 7654117 7792402 7868916 8009249
3169.46 7957353 7927171 7951551 8103142 8070137 8139857
3172.36 8003079 8119945 8093204 8063857 8206067 8298002
3175.25 8142525 8040270 7864646 7902756 8055227 7878315
3178.14 7707557 7737868 7553377 7428426 7377968 7317638
3181.03 7289866 7312568 7269818 7209688 7335501 7387898
3183.93 7588460 7778409 7579674 7595334 7710627 7572233
3186.82 7712438 7913300 7807889 7625815 7260786 7121218
3189.71 7007151 6823336 6859047 6778599 6550816 6536844
3192.60 6427070 6308473 6392403 6192075 6131974 6059424
3195.50 6017756 5975329 5852028 5735131 5689331 5733942
3198.39 5647169 5573849 5514782 5449234 5429972 5406965
3201.28 5252252 5284440 5178551 5300430 5201555 5159070
3204.18 4943875 4941495 5029670 5029020 4898506 4749816
3207.07 4776631 4739345 4703228 4591401 4657020 4685757
3209.96 4554430 4543557 4573890 4594508 4593129 4544813
3212.85 4469675 4454459 4390436 4453800 4484123 4373789
3215.75 4419794 4351190 4416809 4413950 4417128 4397828
3218.64 4366444 4363340 4539977 4477514 4504361 4475597
3221.53 4521331 4592003 4578683 4452872 4439703 4486238
3224.42 4467880 4427224 4341675 4343528 4308116 4284906
3227.32 4125959 4099997 3969680 3962973 3741535 3765460
3230.21 3669693 3510041 3429239 3474760 3310044 3388963
3233.10 3344218 3361598 3358781 3369245 3265836 3254440
3236.00 3290171 3260548 3272785 3351370 3177298 3150362
3238.89 3136153 3074177 3096657 2986457 2909671 2951494
3241.78 2875205 2785731 2728926 2683789 2627000 2472669
3244.67 2437663 2403640 2298761 2215514 2106096 2142502
3247.57 2006383 1907523 1881779 1878977 1763343 1714263
3250.46 1603254 1498179 1517067 1430799 1408076 1379455
3253.35 1336592 1299245 1302839 1181924 1142413 1155300
3256.24 1049625 1099305 956163 1012924 916378 908571
3259.14 851876 904499 906427 905576 838863 772099
3262.03 754987 775385 765227 739679 733880 698967
3264.92 708731 723146 703436 693708 748032 799116
3267.82 627872 708435 687402 683044 764736 663480
3270.71 703878 638305 691360 651080 728203 691590
3273.60 821976 728508 683238 701676 722748 743520
3276.49 731618 797568 685436 729700 683740 766680
3279.39 805402 682612 723090 677641 741978 765376
3282.28 714623 704644 765352 795151 766019 781481
3285.17 828346 831868 892918 746090 705188 824277
3288.06 779457 835093 803015 837686 769687 728396
3290.96 775302 723868 747164 714909 717157 745839
3293.85 786141 743675 732967 703985 752327 730890
3296.74 669773 677180 786387 638113 733318 747823
3299.64 734558 736495 723542 689807 629805 587269
3302.53 641088 660458 566434 624787 591779 551363
3305.42 581728 546425 554083 470220 525724 582355
3308.31 527905 533163 498539 564281 481834 514123
3311.21 506144 528995 385604 559402 385963 395368
3314.10 484429 372126 386671 449609 433091 366734
3316.99 408080 399933 418334 432045 454263 383658
3319.88 385978 475859 408287 384612 399618 335155
3322.78 396903 436465 335031 334002 350518 478395
3325.67 476539 428570 436481 383477 431196 474794
3328.56 504713 355339 522374 448133 423643 594798
3331.46 471184 466359 543122 552191 462657 521997
3334.35 517849 518218 612339 635892 629856 589369
3337.24 568459 585084 589229 582789 580785 709965
3340.13 635143 555921 577031 598163 694880 768401
3343.03 726413 754610 692697 616454 746604 609938
3345.92 732566 658067 815355 729709 710679 780784
3348.81 721940 683365 746079 836235 740462 771469
3351.70 771603 703203 776980 798421 832353 750177
3354.60 804945 750139 792282 877406 730593 853838
3357.49 756273 830162 863614 853174 699094 795666
3360.38 771274 787743 807221 773861 806576 898867
3363.28 819571 748096 811377 843149 736619 829313
3366.17 816924 831833 899094 891413 827531 766936
3369.06 851105 862886 850585 780830 767706 782836
3371.95 767140 895435 816611 878019 913273 900729
3374.85 814857 831670 959230 1019967 930991 1020590
3377.74 967245 949335 984388 965287 962975 957252
3380.63 996411 1121378 1075360 1047163 1003743 1128373
3383.52 1203685 1082076 1211937 1207681 1070643 1259022
3386.42 1172770 1271870 1277368 1201702 1242301 1283440
3389.31 1210780 1197622 1305512 1326464 1204277 1299556
3392.20 1377757 1386728 1361694 1319036 1405540 1304936
3395.10 1301043 1408173 1325106 1335432 1343362 1379355
3397.99 1276851 1291265 1263476 1309008 1184950 1174793
3400.88 1138859 1244141 1208347 1186978 1168305 1296828
3403.77 1171232 1212266 1222505 1161576 1104916 1171219
3406.67 1229950 1023000 1064697 1025818 1049570 962151
3409.56 1051855 988358 1032687 960294 1034852 1034304
3412.45 914510 890912 908286 760819 874573 770729
3415.34 801492 736891 634199 762498 672036 569385
3418.24 570553 551615 497530 522941 513434 403584
3421.13 359195 388990 369793 322006 366260 334519
3424.02 291997 249427 430462 286953 260259 208562
3426.92 252828 280255 268855 176467 253312 196573
3429.81 228476 276946 293983 248620 211744 233254
3432.70 156007 249056 139756 166293 188744 216092
3435.59 135896 89424 238800 188767 187979 164550
3438.49 249474 80775 161335 138258 175520 206689
3441.38 99360 130773 130516 127167 223137 99339
3444.27 17370 91713 121829 131972 79228 81777
3447.16 132273 92951 18327 169161 163512 144585
3450.06 115183 111348 170197 158290 115879-32624
3452.95 44571 50959 88426 86305 67448 50669
3455.84 38038 12596 63902 60676 27756 102332
3458.74 169836 62608 42879 69926 87172 103135
3461.63-32731 121310 79354 141731 99876 97782
3464.52 128281 47010 50882 41399 48356 169975
3467.41 20241 67469-4693 119673 109140 97216
3470.31 54647 105074 80037 86662 13691 130249
3473.20 142279 46184 74710 148447 14061 5725
3476.09 112950 68666 63790 110609 131134 72361
3478.98 165513 127782 39756 121604 192933 160322
3481.88 143122 72216 119637 60832 80050 24699
3484.77 134039 137848 128030 109536 156190 136458
3487.66 57185 124952 63116 118378 76353 151365
3490.56 56978 17078 44003 105544-13800 135432
3493.45 91750 131061 56981 155361 82786 146567
3496.34 137704 86288-21378 20907 196074 59152
3499.23 108112 122135 2989 43641 122973 139082
3502.13 89554 87803 107207 74931 78385 202555
3505.02 68072 159652 29246 75622 7243 126228
3507.91 28600 120247 111908 12153 69833-46905
3510.80 83223-9877 8611 124330 26191 94938
3513.70 78484 57402 2088 5193-51244-13143
3516.59 62806-49267-19426 91838 35832 24835
3519.48-15390 28071-11665 59639 9072-672
3522.38 71652 10553-64138-46002 31188 25467
3525.27-85670-75653 33834 3008-24708-33671
3528.16 3060-155248 96590 67758 36945 37485
3531.05 21045-88337-147278-55980-14652 21676
3533.95-104959-19668-6080 29008 50171-170993
3536.84 42593 26096-19278-6400 5190-63343
3539.73 10512-53694 33660 21814 11144-22767
3542.62-78430-2188-43404 46438-101164 49857
3545.52 63525 3231-7792 26591-9594 102189
3548.41 39546-32792-10284-4580 20549-13043
3551.30-18264 9585 29259 1608 61776-213
3554.20-27573-14376 11194 139212 17454-11029
3557.09 11831 4644 8129 3283 73838 16920
3559.98 22555-302 120535 113739 96838 64771
3562.87 45392 26230 158093 45239 127105 96704
3565.77 116436 102665 141500 117580 203988 150337
3568.66 193537 104692 120218 99303 82173 150819
3571.55 37589 117988 113121 107151 111985 113516
3574.44 200421 144429 72196 138424 122901 243643
3577.34 279652 131729 106019 232244 227915 239700
3580.23 138843 213319 217655 175546 212873 170733
3583.12 219648 252916 164701 194402 269897 212691
3586.02 381561 232008 247247 248217 286667 477336
3588.91 303167 306842 263659 235313 245252 320120
3591.80 303896 366506 343232 387280 318021 279466
3594.69 389970 393073 298156 357113 358860 389350
3597.59 356776 348776 377613 392345 431615 445645
3600.48 474148 538817 430074 440592 367321 436956
3603.37 436176 415572 503926 455958 468110 490361
3606.26 563329 562355 473956 610634 493244 618928
3609.16 572241 535949 582286 558446 584024 649236
3612.05 658158 659707 645995 661350 683164 645523
3614.94 630080 641930 672736 627734 624283 698760
3617.84 718760 652088 814422 862599 663907 735884
3620.73 679596 820621 699616 704078 818724 735226
3623.62 723946 691782 726440 771858 788777 810202
3626.51 814990 854544 800020 976610 738722 989932
3629.41 907855 762849 804648 855084 808310 709629
3632.30 772478 743572 757225 862588 740329 718235
3635.19 698214 800242 748436 764578 889336 890259
3638.08 875205 903610 776875 898645 894289 947272
3640.98 895300 844839 869359 936552 841014 856004
3643.87 861528 956257 898209 772839 963891 870908
3646.76 990653 868976 921105 868818 1166628 1007394
3649.66 893240 968598 950354 943806 869821 892282
3652.55 794268 957991 794319 956424 808395 806269
3655.44 872080 1007173 740074 786288 867205 832223
3658.33 799251 877616 902013 862781 788577 845980
3661.23 875785 909995 795714 890519 836693 872574
3664.12 837328 908320 830181 885303 869075 797307
3667.01 892443 870050 955982 988650 863466 955059
3669.90 1078167 1171786 826194 921420 853867 945016
3672.80 874275 964877 903997 1040389 1001253 1091764
3675.69 1251214 988528 1001576 992156 1044617 1077098
3678.58 1012822 1027771 1102160 1068044 940435 1079403
3681.48 977583 1109165 1064884 1169839 1134499 1126796
3684.37 1153335 1125281 1047915 1111838 1085491 1163788
3687.26 1000288 1398504 1471871 1123523 1150908 1071851
3690.15 1100286 1158179 1140050 1092797 1116773 982067
3693.05 1081825 1097974 1080189 1045788 1101136 1144194
3695.94 1072099 1010502 1006765 1055499 1058366 1084438
3698.83 1075252 1011463 1098147 1112780 1139806 1206406
3701.72 1241358 1113288 1112346 1152445 1124138 1121273
3704.62 1051271 1169840 1126616 1153522 1135775 1086276
3707.51 1098180 1104411 1127207 1241837 1099972 1076847
3710.40 1154457 1250671 1322975 1414088 1242495 1246767
3713.30 1199106 1267366 1228385 1337118 1256541 1381634
3716.19 1370668 1406677 1337922 1396512 1273985 1334278
3719.08 1312639 1340454 1337014 1305266 1325171 1333446
3721.97 1437026 1300511 1398516 1403471 1339321 1299285
3724.87 1312919 1242307 1392895 1437249 1324310 1374949
3727.76 1331516 1308306 1253889 1328182 1341023 1303566
3730.65 1321854 1436628 1520399 1451012 1308997 1394113
3733.54 1439148 1406168 1413604 1398442 1316496 1492874
3736.44 1468860 1313396 1205428 1317547 1293629 1255920
3739.33 1190754 1191360 1194650 1217844 1056681 1033872
3742.22 1036960 1087973 1044750 1146729 1447090 1037496
3745.12 868928 902809 873495 870098 786578 809584
3748.01 803145 954327 1211720 829732 758056 764774
3750.90 683449 993021 1056871 741201 720058 710275
3753.79 675723 618185 638399 561867 699838 759193
3756.69 697650 684513 674000 640147 666488 706200
3759.58 800630 628525 729624 644156 627438 571463
3762.47 591864 649148 596765 606392 611988 659753
3765.36 686068 562720 570234 495906 623109 591028
3768.26 657300 590382 714241 653697 459734 634819
3771.15 579435 582842 582764 607317 511421 562162
3774.04 554917 544582 487820 621926 571896 543927
3776.94 585438 658109 563167 664831 658838 624225
3779.83 623028 538462 553908 630237 573859 554630
3782.72 553827 645829 623145 593058 595474 575415
3785.61 547756 523746 540076 603490 570687 569199
3788.51 498049 521184 518089 558122 619265 578756
3791.40 506730 502011 509173 595964 504286 533599
3794.29 481828 566035 509540 617212 617376 539179
3797.18 593095 537711 497602 589418 511670 587349
3800.08 481681 742118 956728 560763 620784 610147
3802.97 497221 478079 598699 485673 579257 537911
3805.86 607824 696478 724945 494101 577516 509421
3808.76 499275 582936 623281 574086 577393 618968
3811.65 525487 574748 606589 572307 614110 589392
3814.54 700418 596937 1008989 763771 661110 684962
3817.43 608247 676655 694138 578145 674363 780823
3820.33 816904 700890 869722 635979 645490 727553
3823.22 759546 714696 732690 769040 863215 716129
3826.11 861013 924248 807674 766515 900959 924994
3829.00 806584 915628 948306 938117 1055589 1163649
3831.90 1002584 1139192 1032538 1120688 1135252 1305825
3834.79 1299594 1361528 1201252 1269728 1260988 1773984
3837.68 1624872 1434829 1486744 1524578 1576905 1545746
3840.58 1705614 1585210 1581105 1555504 1582637 1695367
3843.47 1701346 1823619 1751824 1676956 1857802 1714283
3846.36 1762143 1784381 1774491 1853808 1811578 1842180
3849.25 1805666 1779907 1816553 1803176 1978102 2300392
3852.15 2055486 1944850 2067038 2483901 2211848 2004390
3855.04 2044395 2033778 2000535 2065267 2092680 2055172
3857.93 2149807 1986281 2032818 2000385 2036973 1983869
3860.82 1960983 2045528 1913438 1862224 1775885 1713006
3863.72 1841802 1794013 1962845 1706436 1672913 1608314
3866.61 1597959 1571544 1644897 1589367 1746522 1662922
3869.50 1823645 1627485 1442365 1621258 1578597 1479427
3872.40 1504776 1502678 1416084 1599121 1489824 1412054
3875.29 1458916 1504874 1424575 1450370 1394672 1401025
3878.18 1404268 1416082 1410183 1488380 1390900 1374083
3881.07 1337032 1340351 1265085 1273268 1268207 1228917
3883.97 1205533 1214395 1382047 1339337 1153780 1277022
3886.86 1198271 1202037 1184410 1120949 1143851 1138153
3889.75 1180828 1113808 1270723 1171276 1091234 1100953
3892.64 1115443 1173356 1114616 1046870 1109674 1029017
3895.54 1117846 1092423 1045637 1092695 973810 1094250
3898.43 1056006 1155870 1063031 1087689 968374 1006578
3901.32 1148456 1041792 949864 955356 1043886 1174281
3904.22 1024121 879287 919620 937564 962752 854320
3907.11 965622 953100 874381 858589 876628 899042
3910.00 876931 935939 891251 912064 751078 855982
3912.89 854961 908941 769836 871402 782917 822360
3915.79 859781 717355 932912 830591 827387 806634
3918.68 868142 842048 789994 752637 762935 776618
3921.57 829587 815518 736684 786690 728387 747805
3924.46 733048 705477 679642 689537 758871 685317
3927.36 745744 663194 661853 761330 670856 712751
3930.25 721558 604980 685655 681662 745669 677347
3933.14 736537 657926 671759 652731 680848 596105
3936.04 695807 626300 665083 617011 545458 534574
3938.93 586941 639394 636634 588716 571452 639296
3941.82 603008 671244 561106 592742 575636 658904
3944.71 514661 596144 540166 498898 636253 650179
3947.61 528781 532312 576481 526174 452152 626193
3950.50 497052 516454 422920 459768 624802 530200
3953.39 565950 492859 569567 576578 547658 515814
3956.28 521903 510882 490965 555023 506525 475293
3959.18 489965 532312 538902 490225 509526 529709
3962.07 520651 458073 528950 650525 455276 522283
3964.96 454483 558980 516937 541609 569051 537291
3967.86 525542 555429 476206 455160 599834 632317
3970.75 516052 617458 543645 574750 599155 646600
3973.64 584810 541658
##END=
