##TITLE=1,3-Butadiene
##JCAMP-DX=4.24
##DATA TYPE=INFRARED SPECTRUM
##CLASS=IUPAC A
##ORIGIN=NIST, Anayltical Chemistry Division, 301-975-3108
##OWNER=COPYRIGHT (C) 1998 by the U.S. Secretary of Commerce
##DATE=98/10/1
##$SPECTRA VERSION=1.00
##$UNCERTAINTY IN Y=2.5 % relative (B=1.6E-04,C=1.1E-09,D=2.7E-14)
##CAS NAME=1,3-Butadiene
##CAS REGISTRY NO=106-99-0
##MOLFORM=C H2: C H C H: C H2
##MP=-108.91 C
##BP=-4.41 C
##$NIST SOURCE=QUANT-IR
##SPECTROMETER/DATA SYSTEM=IFS66V (Bruker)
##INSTRUMENT PARAMETERS=KBr Beam splitter; MCT Detector; Multipass cell
##STATE=gas
##SAMPLE DESCRIPTION=1,3-Butadiene Primary Gas Standard
##PRESSURE=101.3 kPa
##TEMPERATURE=23 C
##SAMPLING PROCEDURE=1 L/min Flow
##RESOLUTION=1.9290
##DATA PROCESSING=NB Strong Apodization
##XUNITS=cm-1
##YUNITS=(micromol/mol)-1m-1 (base 10)
##XFACTOR=1.0
##YFACTOR=4.5474E-13
##DELTAX=0.9645
##FIRSTX=574.687
##LASTX=3974.595
##FIRSTY=4.71E-06
##MAXX=3973.63
##MINX=574.69
##MAXY=.0006565
##MINY=-4.39E-08
##NPOINTS=3527
##XYDATA=(X++(Y..Y))
574.69 10365880 9993932 9751536 9605056 8921984 8334938
579.51 7672798 8098562 7659878 7177228 6583488 6146632
585.29 5851810 5239190 4302852 4306432 4123622 4204644
591.08 4185072 4236476 4029866 3872218 3572536 3754408
596.86 3655284 3767972 3538096 3847994 3810756 3420740
602.65 2902768 2758628 2472104 2398578 2189334 2238238
608.44 1920392 2006338 1891728 1893206 1563918 1472016
614.22 1211690 1219676 1304396 1464044 1243782 1508644
620.01 1547950 1670732 1417130 1553956 1458318 1620450
625.79 1578512 1805496 1742920 1938022 1812516 1857668
631.58 1895172 2055238 2063260 2443836 2366330 2615320
637.36 2686688 2975384 3046008 3382452 3190500 3460276
643.15 3618736 3847984 3817228 4145832 4193124 4590856
648.93 4836940 5270286 5233572 5347706 5005430 5187158
654.72 5141822 5532964 5711622 5672738 5453424 5961382
660.50 5924592 6067348 6131534 6342610 6755772 7375548
666.29 7785182 8207678 7824674 7682660 7363820 7966284
672.08 7731100 7607826 7979218 7818128 6737190 6210494
677.86 5789664 5820970 5380928 5629898 5662088 5349682
683.65 4984178 4992564 4941284 5052178 4631288 4643266
689.43 4471336 4593796 4320870 4359058 4033296 4008678
695.22 3695892 3716914 3463080 3524856 3289472 3201036
701.00 2733270 2822220 2588914 2665736 2292466 2312414
706.79 2071752 2203406 1916260 1855002 1488012 1628026
712.57 1476398 1615246 1476216 1600794 1257720 1397676
718.36 1306750 1539942 1369166 1567760 1464036 1631504
724.14 1408920 1608800 1456420 1651170 1540306 1764172
729.93 1639396 1880844 1685250 1886496 1836232 2082580
735.71 1927550 2153544 2065352 2345472 2168692 2333502
741.50 2090342 2332218 2111422 2150714 1890974 2136012
747.29 1983966 2161470 1935250 2299838 2120466 2163602
753.07 1984352 2361454 2240794 2438332 2196662 2453678
758.86 2206214 2421808 2182830 2329244 2068110 2236528
764.64 1961490 2084728 1795874 1959820 1635320 1760964
770.43 1536886 1792384 1490224 1664884 1385658 1610032
776.21 1319456 1522792 1251438 1396308 1119564 1353912
782.00 1159104 1394640 1155634 1399622 1146930 1383694
787.78 1115782 1370718 1104538 1320950 1017632 1315064
793.57 1117878 1317558 989892 1331362 1117916 1338630
799.35 983036 1300730 1116798 1546694 1312312 1620744
805.14 1326286 1587298 1284942 1737458 1552944 1898238
810.93 1624308 2090398 1919846 2360564 2168680 2612628
816.71 2324906 2726768 2615736 3217620 3096242 3692630
822.50 3585980 4178082 4152834 4822348 4711912 5598802
828.28 5769492 6458578 6631880 7766538 7792974 8618250
834.07 9248692 10435750 10409470 11894350 12918070 13876810
839.85 14288380 16664660 17502350 18574630 20232710 22920590
845.64 23004260 25041970 27740480 29764600 30375360 34546370
851.42 36818290 38110910 41321630 46290160 46968890 50623310
857.21 55983490 58845320 60704270 68447200 71645690 73904500
862.99 81416250 87785790 88095010 97611470 105157300 105890200
868.78 114239100 126456900 125023600 134533500 149066500 147759400
874.57 153917200 175293100 172615400 177152100 200548000 199523700
880.35 197443600 228649300 226861400 221626000 253854900 251079500
886.14 237736900 278452300 272704600 259174700 296898400 280846500
891.92 261944400 307457800 281990200 273416700 305594300 276371900
897.71 273813400 302264600 278270300 275706800 278617800 285785300
903.49 297666900 358275000 526073500 1107912000 1443660000 877054500
909.28 474843200 360308300 317851400 300907500 304851200 301921000
915.06 331245400 331921400 346555300 344546800 340347500 359282800
920.85 343707900 358808000 348708300 354410800 354594200 346423500
926.63 347733600 333272500 335058900 321683500 320222700 304512100
932.42 298087300 283227800 276835800 263032800 254490400 240018800
938.21 229626700 216963500 207371200 196085500 185476800 173862000
943.99 163883000 153697600 144608700 135689800 128996500 120566900
949.78 113202600 105501800 99414320 92621910 87468390 82234300
955.56 78198860 73632590 70399900 66662790 64765680 61604670
961.35 60402630 58680900 57318830 56724710 56481610 55744880
967.13 57158210 56644740 57983760 59562860 60127640 62407180
972.92 64947350 66353750 71157300 73776790 77984140 83374670
978.70 88609680 96267700 104126400 111694800 122206200 128692300
984.49 136480200 141582700 141153200 140327300 131769100 125134000
990.27 139544100 159859700 179657700 198066100 211506000 214520800
996.06 217019600 213927700 206659100 204250500 192464100 184818800
1001.85 178632400 173179200 179672400 179524700 182927300 197534800
1007.63 207843800 227038800 262033800 276141900 291588600 356889200
1013.42 348034700 255354500 199672700 166914200 156061300 157523800
1019.20 151192400 148621700 159928800 158295800 155717000 161829200
1024.99 161146200 159336300 162439800 161728400 158074200 152911600
1030.77 156192900 154722100 148075200 144697600 140180300 137090900
1036.56 136090900 130842900 125929400 124653200 119408500 114343800
1042.34 112999300 104951700 103344400 105023000 100193900 96868990
1048.13 90320310 83967940 85830140 83225070 78522860 70901740
1053.91 64968850 61620720 58471680 56021060 53581140 50842440
1059.70 49079290 46991130 45635540 43092840 41268240 38685640
1065.48 36950740 34908900 32944280 31019600 29247880 27916500
1071.27 27385250 26469300 25605670 24833470 24193090 23011160
1077.06 22054780 20982700 19809940 18181780 17096130 15634980
1082.84 14418900 12997100 11899670 10727590 9918276 9149106
1088.63 8615872 7624426 6800758 5865556 5289092 4600600
1094.41 4258388 3697330 3343464 2781988 2548028 2210500
1100.20 2073404 1694920 1593456 1343830 1306674 1029254
1105.98 1009548 796754 828328 718550 787896 639532
1111.77 710498 553702 639708 535280 614816 501274
1117.55 603546 514320 591058 484782 566328 487108
1123.34 589358 488826 569108 497782 613542 545364
1129.12 637194 574408 674470 559324 604592 525834
1134.91 641102 562958 669004 549722 592226 552046
1140.70 667116 570224 590678 450236 549446 497710
1146.48 565504 471292 553928 464214 523438 445980
1152.27 495900 410800 481638 411320 458066 325020
1158.05 408560 362814 450688 413210 428432 324788
1163.84 406220 374196 457374 394590 466328 386010
1169.62 430404 361560 439638 404876 444222 391322
1175.41 468094 411664 513766 465080 504036 431740
1181.19 487666 406176 444664 414530 432538 334480
1186.98 375830 251706 269994 276586 359958 292432
1192.76 364816 301798 328288 333102 439118 389114
1198.55 429880 397874 475972 440132 487746 444846
1204.34 543932 536976 584922 626342 716920 670656
1210.12 794290 864540 903558 862484 1046744 1085178
1215.91 1120394 1174232 1230432 1221734 1437752 1497708
1221.69 1600706 1699576 1818918 1848870 2054124 2111168
1227.48 2220988 2394966 2504550 2588596 2903168 2944092
1233.26 3120534 3395412 3501542 3661474 4058294 4145026
1239.05 4353606 4687460 4946578 5212372 5683228 5756312
1244.83 6145066 6800954 6854152 7278314 7991134 8016622
1250.62 8720698 9317064 9417022 10188040 10621060 10673000
1256.40 11766350 11534750 11746420 12561700 12095210 12263350
1262.19 12165720 11843360 12178590 11776620 11603690 11269370
1267.98 11359590 12138750 12061060 12297710 12778020 13046980
1273.76 15037010 15411370 16121380 17468880 17036450 18238780
1279.55 18289020 17890530 18592630 17306890 17527700 16708380
1285.33 15640820 15044140 13735630 12765030 11375820 10164620
1291.12 9345600 9020548 8963360 8940694 9741178 10697630
1296.90 11804800 12800600 13529940 13915200 14193490 14221700
1302.69 13981530 14001720 13276980 13057280 12489380 11557770
1308.47 11262630 10526790 10041050 9823532 9016418 8726206
1314.26 8333788 7908772 7981494 7455680 7396042 7240632
1320.04 6814530 6922176 6681698 6528070 6604120 6294094
1325.83 6390004 6275142 6134182 6211312 6002416 6127830
1331.61 6074188 5997606 6159996 5951258 6171032 6172970
1337.40 6037028 6328416 6205476 6147272 6188706 6055844
1343.19 6368446 6397134 6472818 6744364 6696066 7181958
1348.97 7363556 7620224 8091200 8154370 8848082 9412796
1354.76 10033570 11275760 11821310 13380520 14978800 16642530
1360.54 19705160 21885100 24745340 28267220 30764090 35138650
1366.33 38589200 41360010 44924610 46394550 47744570 48193720
1372.11 46656330 44429850 39364680 32975210 26427710 21467260
1377.90 20198920 35505850 48797230 29842120 20852880 25568900
1383.68 31534210 36766520 41355950 43578370 44708300 43868490
1389.47 42260280 40715460 37083050 34798360 32382790 28356110
1395.25 25668150 22276380 19967170 18483400 15836460 14292900
1401.04 13521960 12726190 12680630 11947500 11408870 11240590
1406.83 11205890 11621130 11654690 11523180 11728090 11922640
1412.61 12378400 12232070 12043340 12313960 12669060 13433910
1418.40 14659920 13642300 12597630 12561480 12460870 12206550
1424.18 11531240 10948630 10603150 10049290 9833274 9869440
1429.97 9447806 9098574 9191790 9644190 10205560 11343280
1435.75 12806950 12081030 11419480 11420970 11499700 11651990
1441.54 11732310 11420130 11177380 10844130 10509520 10678520
1447.32 10279790 9421504 9151962 8681086 8340132 8195690
1453.11 7989744 8244610 9823606 10834660 9504398 8377146
1458.89 7446800 7430368 7333334 7337782 8014150 8748962
1464.68 8580636 8247800 8203034 8608930 8975524 9440658
1470.47 11016670 11991080 12229980 12026840 12083200 13284040
1476.25 13469790 13430150 13478500 13086570 12606290 12422590
1482.04 11836060 11110090 10753040 11044670 10847210 10172600
1487.82 10626010 12262520 11926920 10439240 10159280 11042820
1493.61 11994750 13779680 14553690 13342320 12950210 12283080
1499.39 10931290 10164270 9270720 8468128 8474944 9662668
1505.18 10425570 9969514 8012592 6947624 6258674 5913204
1510.96 6039524 5722916 5259404 5222338 5254084 5552248
1516.75 5147042 4300346 4418740 5875530 5965634 4547756
1522.53 3353692 3159684 3574690 2953568 2662556 2460218
1528.32 2082670 1908950 1932272 2183256 2838382 2888152
1534.11 1973302 1733358 1724634 3041966 5349262 5486466
1539.89 4171704 4083186 3429196 2529124 2922930 2858890
1545.68 2204908 2179628 2387098 2964954 3112896 3012272
1551.46 3166452 4289136 5510586 5046410 5188296 7537648
1557.25 10134660 10882660 11387950 10321870 9598812 10790470
1563.03 12501920 14327720 15673560 18043420 20407460 23904040
1568.82 28084880 31110620 35137360 41057610 47025700 55229470
1574.60 66117340 76744090 86067210 98124430 111973300 127878000
1580.39 145455600 164731200 182136800 198949600 212611100 224712600
1586.17 232789500 236633900 232905000 223512000 204218500 179322100
1591.96 152297700 135145700 139191800 188084800 210390000 169999200
1597.74 143372100 153083500 183443300 211529700 235522500 250553700
1603.53 257850200 254487400 243634000 225795400 203634900 178839100
1609.32 153617600 127957100 105202200 84406860 66723950 52023870
1615.10 42146620 33500840 24642910 18626280 15199100 12337770
1620.89 10822630 10187560 9581590 8062544 7423136 7148732
1626.67 7200212 6811870 6476816 6151036 6266020 6498398
1632.46 6767416 7285412 8920946 7953582 6824872 6751346
1638.24 6690774 6714036 6973838 7016142 7050576 7215066
1644.03 8212630 9343938 8793608 8078542 7344328 6680840
1649.81 6661140 8609972 11458190 9958680 6816788 4873226
1655.60 4125032 3829768 3653136 3525826 3723756 4192594
1661.38 5120422 5218880 4607634 4479744 4343684 4396762
1667.17 4719756 5482668 4822962 4113622 3811760 3171948
1672.96 3339998 4323800 4045280 2606496 2266926 2126060
1678.74 2283274 2177590 2050170 2611668 4087674 5964906
1684.53 4554778 1880564 1657450 1628928 1714768 1534814
1690.31 1437964 1219898 1321476 1576648 3914336 5120448
1696.10 2600666 1505392 2685528 5159700 4440968 1988346
1701.88 1344900 1663204 1920534 1913120 1997732 1492370
1707.67 1422650 1513842 1640432 1509540 1643958 1907956
1713.45 2611192 2819756 3291516 4942294 4413904 2944920
1719.24 2389854 2375156 2514594 2657546 2892058 2983042
1725.02 3257790 3433750 3606040 3866600 4352926 4365226
1730.81 4528226 5996326 7740976 7591262 5964086 5154662
1736.60 5309118 5667066 6634362 6449620 5780236 6088900
1742.38 6649782 6984924 7501090 8109032 8815086 9619066
1748.17 10178070 10723360 12178560 12066750 11460530 11626790
1753.95 11586410 11760290 11798380 10964910 10203390 9747542
1759.74 9559530 9687360 8839072 8189026 8113540 8087494
1765.52 8551458 9297642 9655986 8924924 8914940 9226288
1771.31 9831570 9208066 7631518 7209776 6990078 6698122
1777.09 6522140 6536434 6719734 6797016 6705540 6806784
1782.88 7200010 7758056 7707620 7798268 8104042 8494248
1788.66 9138018 9919972 10967060 12510380 12924880 13646960
1794.45 15087100 16400290 18354360 21654620 26211070 31733300
1800.24 38145240 45406190 53648260 62747490 72477110 82903680
1806.02 92991290 102674400 111748800 119018800 122831100 122727600
1811.81 118954900 111916800 102520900 93302860 88517750 94000370
1817.59 106842700 103686300 69720340 45154880 53600500 76176920
1823.38 98642340 116663100 129034500 135567900 137878500 135829400
1829.16 130084500 120649300 109442000 97528660 84842550 72320910
1834.95 60510820 49910540 40914100 32727890 26077380 20801680
1840.73 16626400 13361710 11605970 9769094 7334646 6052792
1846.52 5265016 4559424 4070626 3694876 3503950 3389108
1852.30 3351956 3334724 3481960 3615464 3707194 3947722
1858.09 4186618 4337752 4571440 4696148 4765338 4754462
1863.88 4673934 4661548 4711868 4728316 4826262 4640142
1869.66 4098384 3830450 3443104 3195430 3523590 4053258
1875.45 4526802 4929814 5193772 5227390 5235352 5255898
1881.23 5267870 5266542 5177336 4979110 4730450 4524426
1887.02 4287078 4155540 3822630 3273688 3029720 2831842
1892.80 2759150 2760096 2692902 2512602 2447994 2326404
1898.59 2240672 2210588 2359784 2701276 3111444 3286334
1904.37 3332782 3326310 3274186 3188606 3137178 3145410
1910.16 3129388 3134272 3084496 2999690 2924804 2891722
1915.94 3021584 3274096 3013376 2667234 2632350 2690714
1921.73 2824456 2832906 2775080 2768892 2867480 2853650
1927.51 2846960 2912678 2917878 2876484 2876126 2900774
1933.30 2897530 2858822 2898190 2925808 2944492 2917122
1939.09 2906336 2966672 3258684 3401538 3364616 3535568
1944.87 3781874 3992944 4207252 4417322 4663834 4857208
1950.66 4996530 5233784 5516170 5915508 6430168 6600276
1956.44 6612802 6842986 7176334 7568132 7900692 8079318
1962.23 8079530 7951298 7651194 7363510 7076768 6775032
1968.01 6720660 6553580 6509312 5775348 5093776 5187120
1973.80 5742786 6377680 6705988 6872676 6896232 6647772
1979.58 6402732 6128626 5718970 5303818 4888320 4501400
1985.37 4105332 3691460 3419040 3164192 2860688 2753644
1991.15 2593898 2273822 2083010 1883606 1746358 1669742
1996.94 1564246 1484878 1376536 1327160 1285796 1212826
2002.73 1166574 1082166 1038222 1037560 963238 904830
2008.51 804894 717692 684316 605188 519832 470938
2014.30 446214 428080 397544 356280 282522 203192
2020.08 163288 146898 140534 112986 61556 26482
2025.87-10504-1900 25574 43916 34476 23274
2031.65 24850 28716 13926 36326 8796-66028
2037.44-101920-45276 13348 35640 22124 8220
2043.22-2444 17960 60880 11096-55430-54354
2049.01-57806-82418-87134-87908-94054-81964
2054.79-96630-81708-79142-53882-22672-10048
2060.58-7616 1416-2098 5678 2476 4760
2066.37-9284 28650 39230 9276 9544 51808
2072.15 103330 91042 65198 95154 146578 186964
2077.94 145428 127510 175090 236458 214806 205620
2083.72 213604 302780 350810 322458 356798 424708
2089.51 516736 490256 434222 493082 622900 685948
2095.29 632394 651254 767650 890620 752984 668126
2101.08 672798 776810 691152 561156 550952 739570
2106.86 703416 514830 570792 717696 851720 766954
2112.65 747804 850474 1016844 906902 795166 813444
2118.43 890546 814168 659486 612068 665436 624702
2124.22 495356 463522 532644 565130 425852 374210
2130.01 432598 490772 385260 380980 441172 476040
2135.79 389816 358996 371468 394042 352358 379476
2141.58 382926 384038 390886 415518 443388 454968
2147.36 412530 450692 511176 507510 438698 487162
2153.15 604716 637594 514594 524924 667616 720026
2158.93 620420 689854 845772 828982 714970 871696
2164.72 1033896 963924 838052 949700 962154 821346
2170.50 824730 1015748 958768 823384 910290 1061664
2176.29 878468 815294 994786 1081350 910414 860866
2182.07 957382 914344 806754 975506 1051018 937470
2187.86 954718 1048826 955638 900234 939046 977176
2193.64 910490 944388 1015538 990918 964964 1081436
2199.43 1084786 1016248 994848 1021042 956604 916248
2205.22 876760 847410 805166 830592 808886 846370
2211.00 908540 932290 870256 914096 1018834 1077600
2216.79 996044 971992 926822 919434 867728 849624
2222.57 824002 858166 836922 855416 883012 898366
2228.36 871982 909528 921650 980886 1013142 1077578
2234.14 1090354 1151128 1203740 1233746 1257868 1361298
2239.93 1413478 1458458 1437540 1517914 1613556 1649922
2245.71 1690782 1820420 1813322 1868248 1979700 2076624
2251.50 2195410 2326430 2349268 2496544 2574222 2591490
2257.28 2641286 2598012 2479970 2452922 2415464 2375526
2263.07 2254150 2105834 2031824 2096792 2191998 2358642
2268.86 2509178 2676034 2745574 2770458 2665704 2591602
2274.64 2536920 2428150 2326636 2233714 2094552 2060892
2280.43 1960100 1920946 1848118 1762820 1709628 1655420
2286.21 1615608 1623046 1573506 1533564 1439994 1390260
2292.00 1301712 1281624 1246254 1285186 1313680 1345624
2297.78 1374260 1378954 1349896 1333840 1253976 1187880
2303.57 1138312 1086780 1052924 1056920 1029810 1083006
2309.35 1101278 1185726 1102458 1161822 1109476 1209660
2315.14 1125880 1271486 1203058 1327872 1291036 1427872
2320.92 1372370 1492038 1449014 1571242 1548108 1689044
2326.71 1699086 1817524 1788980 1910834 1923202 2008998
2332.50 1983204 2006058 1972596 2006432 1953798 1975044
2338.28 1947026 1961480 1913102 1916716 1835208 1797938
2344.07 1630518 1414836 1143844 955586 764990 790904
2349.85 931938 1193288 1377514 1543788 1656048 1861144
2355.64 2008566 2139820 2205988 2305022 2322424 2320642
2361.42 2260640 2256666 2177786 2106414 1974252 1896084
2367.21 1732384 1598000 1452798 1336238 1198578 1100442
2372.99 945782 838184 715634 645572 535702 480690
2378.78 417208 393088 340434 354454 345864 360344
2384.56 309794 314476 308690 335786 327614 349752
2390.35 316954 360424 372482 390018 413724 439756
2396.14 404344 443472 435024 449328 454538 537052
2401.92 560858 579576 543416 613010 634932 665052
2407.71 664640 720440 749866 816594 810458 809290
2413.49 792332 818758 813000 898588 863092 852872
2419.28 850552 842554 808588 815560 770434 760062
2425.06 742076 773904 789266 902010 922654 947280
2430.85 952006 996046 961448 984116 945282 941120
2436.63 904510 900602 878662 902266 861510 899424
2442.42 891060 896966 868900 889984 894076 958360
2448.20 964822 1039946 1045940 1031464 1055992 1135586
2453.99 1118092 1192388 1177194 1206078 1218076 1222740
2459.77 1243234 1292856 1285202 1354910 1355882 1443368
2465.56 1459272 1524644 1566288 1637904 1708968 1826756
2471.35 1910018 2013008 2046686 2257788 2403342 2536666
2477.13 2707040 2838342 3055136 3332408 3425658 3583660
2482.92 3615912 3620716 3654716 3622002 3510466 3397570
2488.70 3112248 2833104 2574146 2560524 2854068 3204372
2494.49 2766530 2456022 2579398 2889048 3168074 3433048
2500.27 3587686 3638938 3643316 3551576 3356726 3169326
2506.06 2855408 2713088 2419920 2195128 1935178 1703894
2511.84 1577600 1395578 1231352 1178502 1075582 1037038
2517.63 938388 877996 814348 839962 790842 809782
2523.41 734110 771364 713108 692614 679158 671072
2529.20 656984 692222 661572 668882 582046 592410
2534.99 568286 578440 577332 577530 542138 559148
2540.77 522230 530246 495524 480370 429578 483852
2546.56 488516 500556 502160 542546 512670 545850
2552.34 564458 607758 602222 634380 643846 699428
2558.13 693080 738602 746662 790202 767578 767948
2563.91 728550 829450 849510 895838 958150 1091954
2569.70 1169950 1249420 1217912 1284664 1307768 1319374
2575.48 1243608 1159818 1012898 953352 863716 884242
2581.27 948234 1068824 957330 879132 909974 1026230
2587.05 1065756 1117828 1107600 1137568 1060816 1046200
2592.84 1012142 998748 892580 843878 702474 617590
2598.63 534984 481998 400962 365476 300900 327680
2604.41 305302 316198 278464 283694 229124 223592
2610.20 230778 284246 256548 262092 257862 267242
2615.98 250868 301664 268692 314602 266312 272354
2621.77 305398 372976 337602 331070 311070 376314
2627.55 407168 460732 375058 351792 341728 403568
2633.34 386666 399842 377462 460354 436220 427098
2639.12 399574 426548 434112 487980 468368 480496
2644.91 469504 488806 419132 397672 380928 408348
2650.69 386292 382030 320068 349226 341552 386258
2656.48 321734 320286 318436 328224 275444 323026
2662.27 317180 357180 323928 271760 243130 265304
2668.05 217244 252594 235964 238980 189846 190060
2673.84 176348 217852 195144 185740 155514 190122
2679.62 150654 190908 168882 221478 234586 293806
2685.41 245400 231240 209726 242956 224794 261316
2691.19 255846 269976 277420 366838 341484 361866
2696.98 342422 407708 406046 482760 436694 431032
2702.76 421784 451498 445204 513728 499388 521654
2708.55 484678 520814 521074 571032 578274 681832
2714.33 727180 778216 802386 900706 916388 954892
2720.12 919978 947058 919236 910406 822908 823302
2725.91 752386 701952 631218 629394 586662 618602
2731.69 589044 598620 586418 679932 786590 781418
2737.48 658612 678160 647094 647318 599024 596996
2743.26 559104 607346 569634 521002 431686 479340
2749.05 466222 443564 387966 430002 398868 433574
2754.83 405182 403008 370468 361204 199900 128878
2760.62 262626 477592 452774 424380 370194 380134
2766.40 340838 408648 401286 427288 372126 375394
2772.19 363364 433932 430934 445456 477920 518394
2777.97 445614 497456 544958 614040 644380 726368
2783.76 736412 810028 794382 819622 798132 839844
2789.54 794428 831710 815934 818942 748066 747172
2795.33 775480 855236 868870 941034 906868 912414
2801.12 918524 1029492 1065314 1114830 1120524 1163428
2806.90 1103562 1121636 1090482 1056002 921688 836462
2812.69 753480 778902 733264 755346 742268 775210
2818.47 719354 758580 792128 888430 911500 951656
2824.26 891736 926922 960434 1000980 1031850 1095950
2830.04 1050372 1158442 1294016 1438250 1503452 1671366
2835.83 1783812 1889972 1940982 2134246 2329704 2518714
2841.61 2633358 2854206 3020848 3220272 3354602 3572650
2847.40 3658542 3744970 3806186 3932520 3946550 4019280
2853.18 4077268 4262778 4342800 4463270 4535864 4605628
2858.97 4644010 4775942 4844550 4986668 5130252 5345452
2864.76 5372252 5398786 5464748 5584056 5609288 5671122
2870.54 5689910 5798894 5750612 5807560 5911612 6175576
2876.33 6461416 6863410 7236698 7579790 7480394 7294530
2882.11 7237768 7359034 7488970 7772216 7960974 8158278
2887.90 8459724 8830752 9292188 10057940 10194640 10043700
2893.68 10088150 10136800 10137830 10410250 10518080 10772700
2899.47 11281750 11350570 11321640 11722720 11606660 11827860
2905.25 12385100 12298810 12741000 13367680 13301290 14053330
2911.04 14600410 14615610 15712400 16440060 17256120 18508450
2916.82 18062760 17521910 17437000 17232180 16967700 16878340
2922.61 16762940 16995300 17348720 18282250 19571750 20868900
2928.40 21785840 22520180 23041000 23558400 24052710 24533860
2934.18 24768090 25032000 24905340 25155180 25124280 25308330
2939.97 25808250 25899440 26617750 27253000 27959810 28478660
2945.75 28771440 29992850 30727940 32163780 33192080 34341200
2951.54 35673600 35427670 35856500 36467140 36978090 38507290
2957.32 39356410 40729770 42413200 43848710 46516140 49322360
2963.11 53389850 58571550 63523000 69727340 73185950 74023120
2968.89 76950260 80024250 83063460 88016020 91148570 92894460
2974.68 95269860 95752360 93969750 92947620 90489780 86199420
2980.46 83439920 81880450 85486980 88874910 85791670 86546140
2986.25 93104940 101694900 108498700 114998700 118445200 123317200
2992.04 125400200 124784300 125828400 124174900 127501300 129939600
2997.82 129588700 131277600 129659300 130203800 128872600 124730200
3003.61 122902700 118996900 115342000 109492800 103900700 102967300
3009.39 103051100 102148700 96298660 95885620 102392400 107311500
3015.18 110388400 112903200 114943300 116982400 117758800 118089400
3020.96 118304600 116090300 115165900 112209800 108840100 106556800
3026.75 102782700 100060400 96733330 94322360 93780560 94029020
3032.53 96966210 99623450 102876400 105100000 109391200 113596300
3038.32 116811900 122337900 123919800 126215800 128472400 128716300
3044.10 127917500 127820000 124790800 121054300 118178600 112092000
3049.89 107002000 102164200 98771880 100692000 104485400 101693100
3055.67 102236300 107973000 114292100 123022600 129551200 134052200
3061.46 141729000 143897200 145006000 147404300 144754400 144253600
3067.25 142388700 139289200 136965700 136491900 134761600 133180400
3073.03 133319600 133360600 136212100 137875300 140195400 145172800
3078.82 146430500 154704400 162972100 163958500 175665900 183815500
3084.60 186955300 201659000 204338000 205582300 212417900 207672600
3090.39 206196300 198930700 185116300 173559500 158361700 144950900
3096.17 142007500 141223900 132799600 133175300 132259500 130176200
3101.96 144226900 164419100 181632300 196144900 203143300 204570800
3107.74 206771000 199973600 193836400 185317900 170818300 163475400
3113.53 148777600 136065100 128914600 115586100 110449900 103363000
3119.31 92647780 89825540 84609790 80061870 77853580 71867780
3125.10 69735560 66677400 63676700 62275860 58105470 55908830
3130.89 53610720 51099940 48756350 46851080 43585800 42153960
3136.67 39406600 37247880 35637070 33154970 31535090 29759550
3142.46 27628410 26149310 24456090 22803900 21490630 19998200
3148.24 18392530 17344990 15889380 14811470 13770820 12708430
3154.03 11758590 10778620 9981972 9197720 8423476 7776574
3159.81 7029954 6632532 6066424 5556390 5073428 4599104
3165.60 4199622 3980782 3638302 3325398 3125174 2923928
3171.38 2549042 2523034 2195148 1865900 1621348 1450868
3177.17 1283224 1193036 1026932 989874 930442 956142
3182.95 901892 943400 906764 929504 901052 810286
3188.74 631528 592282 316948 291364 495038 576648
3194.53 563792 636190 546302 441504 201394 154080
3200.31 206278 282528 173700 102102-33038 34852
3206.10 43994 157018 108890 202738 237920 347184
3211.88 335580 421352 443202 583066 669412 807148
3217.67 829298 990886 1039404 1186992 1187466 1245382
3223.45 1298290 1339282 1336526 1372198 1247588 1240030
3229.24 1227080 1264272 1261770 1466534 1714174 1982896
3235.02 1897906 1796338 1840736 2016830 1980478 2054118
3240.81 2035808 2056358 1924870 1885752 1705552 1582940
3246.59 1436026 1354008 1196898 1149004 1043230 997778
3252.38 858826 817890 708470 768816 759572 682750
3258.17 608188 710572 640374 668666 656500 685542
3263.95 644536 661030 599840 584448 494280 544164
3269.74 474656 459336 416322 438642 332124 334740
3275.52 312002 369858 323810 324340 242990 229790
3281.31 186598 234184 161170 187080 188738 267732
3287.09 245310 310738 257284 225958 164244 265354
3292.88 281254 341676 321544 397798 366702 481542
3298.66 480700 525406 489502 488244 430796 421094
3304.45 372676 451100 471734 494106 458186 525894
3310.23 484694 479462 455720 573180 586886 608474
3316.02 545260 588072 567644 600640 539702 553242
3321.80 500482 523612 398740 420108 410660 498788
3327.59 402962 350254 331116 350696 266428 237594
3333.38 243102 353084 224968 182126 161404 242958
3339.16 158286 210548 194654 269150 227002 200294
3344.95 85244 112216 119772 208792 138554 116818
3350.73 84204 236296 197102 166664 154178 213732
3356.52 166570 237830 189178 233450 252252 292498
3362.30 203214 265420 272952 298036 209040 222864
3368.09 172168 281022 333964 493452 546000 529304
3373.87 425836 474642 498426 596832 598354 658822
3379.66 700878 798366 728730 776662 811330 998284
3385.44 1073064 1151796 1144164 1247310 1246530 1283980
3391.23 1326262 1425210 1364078 1288828 1126492 1194618
3397.02 1126470 1098004 1100884 1206284 1222824 1342068
3402.80 1356126 1432276 1397152 1432534 1397870 1413088
3408.59 1296068 1321098 1284660 1249800 1073756 973436
3414.37 774068 795364 846440 895590 788240 794508
3420.16 665906 655662 551850 496602 423906 435350
3425.94 411662 498504 407102 369772 313340 398048
3431.73 392452 403530 311782 422902 428840 480822
3437.51 501690 637502 650660 744948 757222 805584
3443.30 715192 735500 758250 875292 768406 744802
3449.08 611574 639354 559050 566980 478290 465030
3454.87 467068 535584 549004 651352 708714 786606
3460.66 693858 745272 715292 776724 663534 703368
3466.44 750776 718092 598036 613408 506274 483578
3472.23 391040 454228 363926 321194 256434 366572
3478.01 337484 403376 386424 484254 388332 329334
3483.80 298510 381152 312406 380332 417150 478344
3489.58 422148 399648 303806 357886 342174 469790
3495.37 441604 434032 389416 508684 526970 588536
3501.15 569678 674448 617932 587792 511270 537870
3506.94 460424 641538 654742 617136 538708 578720
3512.72 505754 566000 566864 629106 590834 611904
3518.51 532046 592896 611006 684930 593112 623800
3524.30 611866 693446 757538 837636 785174 737804
3530.08 712546 769474 721304 746942 636732 692844
3535.87 687052 689976 610596 602120 521330 505352
3541.65 494460 599484 628926 771172 748404 798880
3547.44 650260 700968 674338 733044 753938 808840
3553.22 752760 727894 646174 600386 533436 586002
3559.01 606206 657758 602560 638452 626040 719066
3564.79 946468 1166124 1247818 1116512 640596 586160
3570.58 530336 639540 593020 669410 647784 701188
3576.36 694692 752994 678188 715098 617950 692910
3582.15 726874 796934 783930 1302512 1458958 1450258
3587.94 1525024 1097428 856534 897024 1069634 1183182
3593.72 1225098 1375220 1228308 1278314 1288960 1342774
3599.51 1389826 1376604 1284668 1291092 1234680 1272524
3605.29 1325220 1578332 1719052 2240650 1721232 1219086
3611.08 1544412 1757518 1466642 1485582 1314486 1583366
3616.86 1873292 2211566 2360342 1845794 1538378 1461536
3622.65 1263168 1214520 1137524 1006630 1494682 2657968
3628.43 2955410 1878340 817936 761670 827326 841474
3634.22 485684 385046 297614 427476 581590 901986
3640.00 947352 929008 699690 533920 490586 676972
3645.79 1300120 1643988 2121332 2458890 1710884 1289258
3651.57 416884 278294 168674 832418 1289102 585964
3657.36 86588 128096 83336 170710 85334 151284
3663.15 87662 100030 26914 194264 642084 1169498
3668.93 1730174 2527438 948356 181304 637002 2042960
3674.72 2917818 1968384 477242 375270 428138 348908
3680.50 82468 206178 115206 215440 69690 232288
3686.29 1032512 2967260 2074194 836636 1139988 775780
3692.07 193068 213424 162014 296748 257778 273876
3697.86 222200 286630 449008 978144 634946 325152
3703.64 192098 265596 178804 229174 591620 1138572
3709.43 744148 1442976 2061498 924772 296050 324316
3715.21 153340 200690 268648 439014 265698 360514
3721.00 641086 599950 259232 422200 617488 825958
3726.79 376730 244080 174494 489884 1477220 1777968
3732.57 778990 1324068 1578460 1927690 1263654 631712
3738.36 359796 469708 454088 424612 1326166 4491248
3744.14 4196620 1129566 423930 969854 2812382 2757562
3749.93 1417288 3169988 2669100 616622 110026 370774
3755.71 550834 397890 466016 951044 670146 297418
3761.50 161794 180000 239060 700850 581254 147164
3767.28 158646 817398 1046388 434612 119648 142030
3773.07 142246 130898 105272 163716 175454 568860
3778.85 663192 268360 124332 153782 211056 383800
3784.64 302254 240812 138984 150738 140080 198120
3790.43 199278 220004 185326 211812 364066 857692
3796.21 716604 397120 389548 1003258 2815530 2592620
3802.00 874230 505370 327648 1014816 2122110 1484222
3807.78 290318 303676 202966 357590 236620 384272
3813.57 623658 2524166 2830720 942160 412550 738004
3819.35 1642402 2378680 1592076 668228 436050 482790
3825.14 700038 876038 565550 496252 504954 967316
3830.92 1179932 712690 737450 1396578 1134720 1537924
3836.71 3382782 2463248 1056698 1305560 1025818 889310
3842.49 1157466 1051934 634988 640518 642234 819542
3848.28 892648 1014242 1908950 3336278 3600592 5462704
3854.07 3414992 1086040 967070 925168 722082 783786
3859.85 984182 1346218 1081914 1181270 1850252 1802206
3865.64 964340 920692 1304128 2614054 2591664 1373594
3871.42 950742 1324074 1586638 1227654 830982 884300
3877.21 937044 1323814 1831438 1569090 954698 1016756
3882.99 1075724 1932354 2573828 1616286 962634 971950
3888.78 1049932 1761006 1937810 1266104 919452 877714
3894.56 777612 785828 923516 1389886 1809330 1471858
3900.35 1731910 1945766 1703002 2136744 1534022 1195578
3906.13 950416 943476 915668 922844 818284 872330
3911.92 811394 836110 748766 921448 1240178 1295336
3917.70 938752 1112890 1038434 894702 834466 986836
3923.49 1128154 1173268 917298 966400 967950 1107138
3929.28 1080492 1150222 1233572 1191208 996238 1060326
3935.06 952002 950188 920874 1002810 888706 975090
3940.85 1025630 1240872 1071554 1077832 1063450 1163778
3946.63 1222766 1350934 1128172 1091124 1068348 1180128
3952.42 1225512 1262232 1178948 1289360 1252918 1277060
3958.20 1264916 1449374 1498538 1586536 1545814 1738330
3963.99 1784240 1911110 1963226 2196368 2313216 2558488
3969.77 2626194 2820064 2945980 3133132 3124552
##END=
