##TITLE=Butane
##JCAMP-DX=4.24
##DATA TYPE=INFRARED SPECTRUM
##CLASS=IUPAC A
##ORIGIN=NIST, Analytical Chemistry Division, 301-975-3108
##OWNER=COPYRIGHT (C) 2000 by the U.S. Secretary of Commerce
##DATE=00/02/01
##$SPECTRA VERSION=1.10
##$UNCERTAINTY IN Y=2.0 % relative (B=1.0E-04,C=-1.9E-11,D=8.7E-15)
##CAS NAME=Butane
##CAS REGISTRY NO=106-97-8
##MOLFORM=C4 H10
##MP=-138.35 C
##BP=-0.5 C
##$NIST SOURCE=QUANT-IR
##SPECTROMETER/DATA SYSTEM=IFS66V (Bruker)
##INSTRUMENT PARAMETERS=KBr Beam Splitter; MCT Detector; Multipass cell
##STATE=gas
##SAMPLE DESCRIPTION=Butane Primary Gas Standard
##PRESSURE=101.3 Pa
##TEMPERATURE=23 C
##SAMPLING PROCEDURE=1 L/min Flow
##RESOLUTION=1.9290
##DATA PROCESSING=Happ Genzel Apodization
##XUNITS=cm-1
##YUNITS=(micromol/mol)-1m-1 (base 10)
##XFACTOR=1.0
##YFACTOR=9.0949E-13
##DELTAX=0.9645
##FIRSTX=575.652
##LASTX=3974.605
##FIRSTY=-2.35E-07
##MAXX=3973.64
##MINX=575.65
##MAXY=.0008489
##MINY=-3.71E-07
##NPOINTS=3526
##XYDATA=(X++(Y..Y))
575.65-259357-94410 157776 151368-276958-384297
580.47-261793-156088-17627 157551 114121-39810
586.26-5137 141433 45291-161678-154782-11972
592.04-51402-136750-127606-180668-82626-48572
597.83-103375-143637-122611-107118-111524-113901
603.62-111878-100434-47629-61836-77711-134830
609.40-245224-233810-153696-126599-98297-142906
615.19-210372-207299-147503-73695-43795-47063
620.97-52912-68764-72961-106831-141740-102378
626.76-103320-176424-75347-26007-69809-42200
632.54-54754-135956-161442-176896-146413-90459
638.33-50461-68648-65007-57588-109529-116206
644.11-74148-79541-103478-131224-92218-34037
649.90-49474-63388-77966-180056-209693-170214
655.68-93101-38628-14823-80365-138388-90484
661.47-54441-6791 9529-23272-105117-386105
667.25-408610-108293 14903 21604 29485 29941
673.04 38265 75561 91384 81066 128073 139644
678.83 144418 199797 246711 261665 289326 311628
684.61 362663 428946 454091 513666 591517 682180
690.40 816929 893790 932164 979030 1073567 1139966
696.18 1252613 1433717 1609352 1763751 1856271 1979274
701.97 2127768 2301308 2481954 2620394 2732160 2933452
707.75 3178642 3371209 3529998 3723317 3974602 4206204
713.54 4388670 4559838 4658897 4810560 5003116 5124514
719.32 5310304 5539088 5737120 5901928 6057829 6283144
725.11 6546179 6750733 6970582 7491717 8440247 10038777
730.89 11673368 11639910 9914434 9216416 9455927 9385101
736.68 9444001 9669784 9799293 9831684 9816120 9710612
742.47 9559938 9493749 9714728 10773351 11494361 11337894
748.25 11344365 10964275 10233038 9610185 9250835 8993919
754.04 8857529 8762845 8724282 8622513 8456173 8278761
759.82 8098362 7835496 7521874 7140351 6784810 6434951
765.61 6076361 5725567 5402606 5033760 4721110 4433295
771.39 4198465 3998838 3857978 3753262 3639139 3535571
777.18 3468862 3394344 3325914 3227910 3116923 3011061
782.96 2888570 2715123 2499522 2217305 2006009 1932483
788.75 1923167 1975562 2077047 2174565 2308572 2354272
794.53 2305888 2252207 2147819 2004559 1914796 1837209
800.32 1747071 1653530 1567116 1500606 1399413 1298811
806.11 1197567 1056468 960560 881424 814930 714862
811.89 671924 654792 595042 486704 465831 438898
817.68 365894 276326 266819 254946 197943 179867
823.46 148143 121920 122156 108395 66288 67540
829.25 41330-18378-30627-16562 4057-50
835.03 14752 14197 14480-8764-58736-57733
840.82-3492-10365 12441 42581 42756 18207
846.60-17032-34040-50011-53527-26457-23596
852.39-30694-41032-21226-2794 12959-11911
858.17-42852-17358-666-38743-17803 14244
863.96 10897-15620-13572-40704-32254 3377
869.75 18789 8949-1053-24690-22715-27809
875.53-36056-34221-21149-10948-18225-35787
881.32 8511-3062-30778-27923-23302-29864
887.10-30308-50408-60879-56761-57216-57527
892.89-20316-1887-21668-32461-19770-24036
898.67-30604-13210 33338 36054 34962 11549
904.46 44307 98408 117169 121260 151322 181267
910.24 207016 222307 256985 280145 313130 384877
916.03 448532 487455 555799 621393 691024 752530
921.81 846645 979508 1083415 1201183 1344154 1487762
927.60 1648878 1814607 2023441 2249947 2515209 2798468
933.39 3142196 3508483 3893130 4316197 4806374 5336079
939.17 5911678 6502087 7131077 7786295 8516644 9202127
944.96 9970449 10821423 11715399 12257486 12570958 12845975
950.74 13185362 13718772 14724449 16690676 20101430 21741272
956.53 19175898 16959650 16930315 17451362 17907108 18389291
962.31 18815466 19116488 20180043 21454665 21433179 20918938
968.10 20629613 20509660 20426758 20151956 19599152 18940763
973.88 18214413 17518942 16849757 16090968 15118374 14119369
979.67 13264695 12665246 12116585 11523270 11056654 10683215
985.45 10143130 9672175 9304178 8915868 8512183 8075934
991.24 7669469 7242873 6789492 6326353 5894444 5480333
997.03 5066268 4656642 4232903 3852032 3546593 3303062
1002.81 3065178 2842097 2632049 2395481 2209813 2086862
1008.60 1963369 1839811 1715444 1593199 1484441 1375070
1014.38 1286279 1205276 1110879 1047354 999063 922050
1020.17 857287 821823 753330 664097 631828 612979
1025.95 570602 529736 483334 456189 453379 472917
1031.74 473613 424318 390530 380811 364790 318892
1037.52 281158 277969 236405 213509 196406 155690
1043.31 102411 97662 119981 108783 97543 79485
1049.09 86106 97731 83285 63363 76441 92987
1054.88 101604 99713 92115 78951 98649 117511
1060.67 109580 131328 165807 182398 178589 173325
1066.45 175159 174861 185143 198743 232698 237391
1072.24 238756 252361 227624 211615 216145 182510
1078.02 147982 160758 198431 255804 274362 280024
1083.81 301085 291789 273402 280852 304964 320370
1089.59 301458 300812 299740 278674 274799 245853
1095.38 215820 239022 274328 269643 248974 249585
1101.16 269766 301007 323329 351247 376765 407291
1106.95 443203 491931 545699 629975 743720 855628
1112.73 965043 1105483 1281779 1461478 1652271 1858028
1118.52 2041821 2244843 2426228 2590084 2725714 2842815
1124.31 2924834 2981009 3016704 3096519 3149621 3124339
1130.09 3091592 3147985 3359337 3676318 3818295 3583307
1135.88 2761468 1962203 1943701 2264588 2606311 2893616
1141.66 3099072 3162543 3099058 2933611 2719253 2481395
1147.45 2225705 1961883 1703438 1478805 1274291 1080969
1153.23 914280 745334 620012 527802 416885 350767
1159.02 311522 254684 214999 200490 206589 190563
1164.80 151426 149698 151824 140704 141998 145155
1170.59 159348 190538 206203 220482 226581 218575
1176.37 199037 185223 181659 196417 218341 222464
1182.16 214766 199560 196032 199357 204251 209132
1187.95 196627 208734 218346 207413 189246 200386
1193.73 224142 218661 199873 217326 224130 202588
1199.52 218667 234901 210298 190679 219989 245909
1205.30 222407 237103 265614 263602 259932 265343
1211.09 272004 284198 295854 316425 323785 338850
1216.87 355789 370090 375878 398964 423282 450593
1222.66 467904 487286 507556 528976 540407 564160
1228.44 597740 613995 630307 670684 697947 730434
1234.23 775662 824121 854550 883802 918952 957619
1240.01 1005763 1061372 1109334 1153634 1179461 1222635
1245.80 1295497 1374012 1440843 1501014 1550502 1609891
1251.59 1668693 1708521 1712178 1731427 1776489 1830816
1257.37 1870625 1872263 1875592 1978482 2171268 2195061
1263.16 2020967 2031480 2146527 2257525 2360357 2475914
1268.94 2583760 2737110 2928847 3150233 3423887 3765275
1274.73 4121055 4532521 5019498 5565310 6140007 6750373
1280.51 7348392 7938962 8408466 8761650 9012127 9076665
1286.30 8886864 8497460 7934804 7262504 6850325 7229909
1292.08 8454592 9969106 9834362 8105295 7312713 7794916
1297.87 8505847 9152320 9595137 9650940 9380857 8944978
1303.65 8358736 7731703 7042130 6332623 5616250 4971802
1309.44 4346713 3825149 3371230 2973830 2611913 2337942
1315.23 2127381 1988678 1891812 1866630 1877583 1957527
1321.01 2079722 2262874 2455632 2713287 2980862 3253523
1326.80 3540556 3855769 4143420 4426185 4663137 4846388
1332.58 4932357 4913144 4774814 4625811 4447599 4285808
1338.37 4190183 4389618 5095721 6399050 7465104 6786959
1344.15 4770418 3888584 4099563 4608876 5079986 5595058
1349.94 6169725 6629112 6924318 7119514 7182434 7256648
1355.72 7301315 7338265 7381165 7554007 7816871 8263876
1361.51 8844552 9626546 10578669 11770998 13093377 14628363
1367.29 16324228 18237831 20187286 22238566 24209261 26170253
1373.08 27873405 29200663 30008959 30361046 30110493 29541402
1378.87 28675359 28500158 31164849 37537557 39938262 36386014
1384.65 31604620 28388515 28749614 31691536 35562080 39127889
1390.44 41421178 42512122 42771330 42059861 40511457 38230824
1396.22 35443159 32336095 29124713 25988214 23074656 20397690
1402.01 18042299 16057690 14404105 13030471 11887653 11002001
1407.79 10338472 9903066 9558944 9194715 8923741 8797085
1413.58 8719554 8720073 8725089 8760219 8864338 9083400
1419.36 9244522 9465594 9789301 10243587 10718351 11267317
1425.15 11887591 12631005 13432049 14318864 15222299 16266279
1430.93 17396271 18749642 20171876 21770258 23465969 25340096
1436.72 27257081 29365520 31586378 33913455 36250316 38836639
1442.51 41296169 43551200 45501177 47529775 49438617 51339805
1448.29 52964367 54622515 56324380 58580000 60466767 62183878
1454.08 63668799 65054183 65560351 66722804 69365281 73498652
1459.86 80448124 88707016 88164481 84736993 91035200 103005778
1465.65 100691251 86745960 79229662 78840109 82941943 84132458
1471.43 76523538 66967572 61176557 59052217 59715485 61536167
1477.22 63632428 64903025 65342616 64864812 63820525 62076547
1483.00 60162315 57963746 55671899 53176354 50710281 48053227
1488.79 45594193 42954469 40454963 38030827 35783539 33546892
1494.57 31534214 29535603 27718351 25964468 24344019 22745855
1500.36 21313460 19921484 18639074 17387529 16319578 15223320
1506.15 14179323 13072403 12131411 11213783 10403240 9626443
1511.93 8931554 8218191 7595106 6965257 6466966 5935258
1517.72 5455296 5021951 4723911 4340078 3932145 3529342
1523.50 3274002 3040356 2796090 2543928 2351953 2130737
1529.29 1970628 1823691 1735018 1651896 1560919 1399957
1535.07 1327686 1253849 1266748 1309276 1297317 1198806
1540.86 1170643 1083361 1026961 1007198 991487 953929
1546.64 974595 969600 1003181 987955 999737 1015296
1552.43 1088764 1139650 1124257 1109785 1242230 1363530
1558.21 1424445 1414575 1343836 1289800 1310116 1329272
1564.00 1408421 1443878 1498008 1520432 1595472 1639446
1569.79 1639235 1632690 1690125 1704525 1726876 1846804
1575.57 1889582 1759872 1729565 1690668 1688161 1670813
1581.36 1655018 1614592 1626465 1591989 1594721 1574516
1587.14 1567415 1544761 1543525 1520506 1497590 1442353
1592.93 1418503 1368804 1337514 1299869 1270301 1226494
1598.71 1191841 1136852 1109657 1060739 1030608 977308
1604.50 958286 955891 972803 959795 962189 952850
1610.28 962979 968894 984311 980765 1025826 1136277
1616.07 1177112 1076348 1046507 1016179 1002702 964381
1621.85 973904 958193 924828 947052 1027048 1073787
1627.64 1094560 1098045 1123489 1143669 1200326 1215245
1633.43 1272033 1329997 1276191 1188101 1176729 1148066
1639.21 1139722 1116771 1103166 1083082 1114650 1186513
1645.00 1268975 1235666 1236719 1234292 1230429 1242511
1650.78 1417049 1605166 1569844 1431028 1380090 1371810
1656.57 1402641 1408408 1423876 1436681 1476170 1504984
1662.35 1495237 1452313 1461078 1471819 1520293 1583231
1668.14 1685894 1677149 1655036 1628244 1600086 1581495
1673.92 1632572 1575653 1460115 1400773 1394213 1398996
1679.71 1437216 1441469 1484898 1581104 1721626 1643752
1685.49 1478569 1407322 1380318 1368255 1370599 1335411
1691.28 1297834 1279294 1300531 1397573 1446880 1318446
1697.07 1261761 1310439 1439705 1383611 1274979 1239964
1702.85 1241517 1236288 1258066 1254780 1225828 1221986
1708.64 1242312 1214209 1197091 1208662 1214305 1223899
1714.42 1231094 1230644 1288972 1218756 1149776 1118170
1720.21 1107558 1078313 1075648 1069850 1060056 1009027
1725.99 952949 901491 898879 890882 876054 860814
1731.78 908793 955864 900724 747105 681264 636615
1737.56 614813 621838 582556 513237 497113 475415
1743.35 432168 404285 412176 393436 387340 381784
1749.13 382481 405078 383184 313547 302542 287638
1754.92 311059 315257 297333 278692 281741 295819
1760.71 344278 316756 286756 277134 283118 287933
1766.49 309746 309197 293596 287504 319472 364915
1772.28 351372 301756 309530 315736 328004 319158
1778.06 325968 342209 367210 365191 377535 366426
1783.85 383660 360185 350387 363032 391182 391626
1789.63 400324 411274 450766 423057 399648 417178
1795.42 439581 430291 433103 438654 441594 432161
1801.20 437917 419976 432253 429976 426992 421688
1806.99 433404 434818 444215 448908 444765 427892
1812.77 435806 427008 412410 394603 387938 377581
1818.56 378319 366763 365612 348422 336114 327725
1824.35 322389 285218 278104 268632 273415 246827
1830.13 214239 183598 173089 148311 137070 124474
1835.92 117617 102686 95644 88723 83025 68442
1841.70 69419 109283 112586 46246 32714 32973
1847.49 24359-169 7468-1108 4210 226
1853.27-2939-5943-2169-8764 5955 9434
1859.06 3506-9152 2621-3817-205 3509
1864.84 16243 20688 36249 38432 42068 37276
1870.63 46754 41434 57279 69547 89976 88412
1876.41 102622 107148 128683 151482 170982 180331
1882.20 182009 181201 222276 249495 257381 249038
1887.99 280958 305497 323638 332924 354598 381082
1893.77 414464 416649 430212 456346 493991 487347
1899.56 488896 506013 528590 520603 512272 507421
1905.34 509974 506274 522931 523646 520873 498869
1911.13 487140 493329 518801 514073 496591 495081
1916.91 538018 548428 547634 523161 526040 526444
1922.70 511353 490592 473981 453269 433166 413178
1928.48 413140 408737 406719 388580 388161 364109
1934.27 348051 355720 361009 331353 288800 267761
1940.05 275559 269926 237891 203398 208765 208781
1945.84 200096 194631 194769 185011 175267 161698
1951.63 148542 123272 112742 91310 80530 49371
1957.41 36194 31623 19665 10305 14216 259
1963.20-1193-9713-9996-24902-25465-25990
1968.98-47515-56897-49896-55667-59840-60508
1974.77-37482-42020-60883-72639-62396-56964
1980.55-47311-57498-57871-63638-54628-65566
1986.34-58787-51198-46507-52920-47237-38946
1992.12-32009-48038-40702-30648-33228-44507
1997.91-26526-26631-14308-14660-9707-6891
2003.69 3727 10933 20578 1059 18764 39302
2009.48 38169 38489 60081 79592 94503 106259
2015.27 139634 186284 214906 227404 271987 306225
2021.05 340567 392589 449087 485083 525962 549705
2026.84 584511 624361 666618 672629 671269 672182
2032.62 663818 633141 637767 709682 778564 724941
2038.41 650478 656879 687492 713953 773331 812410
2044.19 821007 816803 791868 751924 711668 668874
2049.98 621240 568336 538914 495343 442456 380360
2055.76 345461 324692 293607 273244 270704 256012
2061.55 233004 209001 211765 180336 162145 156879
2067.33 161219 159089 156376 165411 181712 172034
2073.12 157727 155887 169788 158656 166319 164243
2078.91 163968 178159 207315 208442 205118 210554
2084.69 241909 245469 220551 222243 263012 298806
2090.48 286603 266089 283337 333874 359418 327608
2096.26 316257 341325 377379 351210 352356 382130
2102.05 436493 427563 409601 418987 478338 497180
2107.83 451369 438787 493863 531784 509938 507134
2113.62 545396 591823 554026 526794 558674 630320
2119.40 655217 631399 647269 703923 706235 667061
2125.19 668189 705120 717312 667957 639981 654789
2130.97 671615 639010 646618 655598 659241 653360
2136.76 666975 687242 699727 689216 699441 706081
2142.55 714165 709803 720089 720182 696683 664156
2148.33 659285 668561 664296 625313 625447 673027
2154.12 682750 638893 646715 695583 685900 657240
2159.90 703635 754038 753905 731646 772339 809927
2165.69 784976 775889 880612 908999 818838 776397
2171.47 815973 784913 732097 753543 778168 721276
2177.26 709533 762173 759796 710966 732271 767152
2183.04 743771 711009 754778 785359 755828 729346
2188.83 758199 732506 695945 709240 731805 714539
2194.61 721515 735170 729517 733913 768925 784743
2200.40 775731 780699 783697 766348 777237 794195
2206.19 775239 758170 784354 796293 797339 814509
2211.97 809063 781726 766926 744046 735134 731084
2217.76 748172 757584 757536 757874 751050 724223
2223.54 711729 717937 709195 668517 652350 640903
2229.33 630020 606657 590022 577497 558573 533476
2235.11 529164 496328 462165 442066 441584 442848
2240.90 461422 469033 470270 468156 468173 455527
2246.68 442774 452720 493253 507680 504333 500808
2252.47 497026 504563 527497 535534 555451 566950
2258.25 579449 591961 603606 602261 610245 621429
2264.04 630420 623773 629893 624241 615502 601337
2269.83 613167 622924 612072 600739 637791 680483
2275.61 711942 711858 718017 752114 795396 814469
2281.40 844155 860446 865800 864620 877010 886049
2287.18 892783 882174 887333 891996 898372 895872
2292.97 892460 880776 852251 861030 907192 946312
2298.75 989662 1032650 1070338 1061009 1080503 1101951
2304.54 1109355 1076303 1052949 1042676 1035450 1013669
2310.32 980116 962866 933563 938914 921405 936031
2316.11 920265 908301 861970 864062 838190 866690
2321.89 884686 873923 804317 795903 780738 795046
2327.68 794117 812321 818961 831184 841554 875690
2333.47 880194 894166 916019 914076 883954 888829
2339.25 901110 911803 936396 958965 970491 1023107
2345.04 1097326 1160942 1227961 1275478 1261996 1209981
2350.82 1164696 1103269 1026659 942308 884636 825551
2356.61 761925 729683 695860 659118 640187 638547
2362.39 638211 636068 640728 682082 753167 805438
2368.18 845120 915916 1019507 1129711 1213921 1301463
2373.96 1380780 1451509 1537946 1625331 1687327 1741945
2379.75 1755199 1709812 1661770 1599446 1519182 1443387
2385.53 1430132 1484202 1570563 1627620 1507396 1393417
2391.32 1455294 1566555 1665357 1753894 1831555 1872668
2397.11 1863150 1794759 1722715 1641883 1535690 1413338
2402.89 1315777 1244798 1212545 1247324 1276228 1252452
2408.68 1240256 1290084 1360591 1438196 1513120 1576383
2414.46 1639133 1689574 1746387 1774217 1754814 1722822
2420.25 1706940 1699751 1718151 1760363 1802221 1866493
2426.03 1929363 1970765 2007032 2055519 2096290 2108870
2431.82 2104741 2110067 2140378 2131495 2073674 2030718
2437.60 2011233 2003209 1983315 1919029 1848365 1797943
2443.39 1790792 1788245 1792395 1794398 1789054 1774601
2449.17 1758192 1718449 1672347 1591959 1485271 1377781
2454.96 1279122 1189436 1097676 1026625 954326 879576
2460.75 827641 763145 694811 648232 642377 630895
2466.53 595656 561038 541333 540845 526255 499878
2472.32 477538 445967 408341 370178 345627 323203
2478.10 307320 304914 314495 318479 314945 289122
2483.89 278145 266713 244043 240810 255193 253722
2489.67 247342 231649 216655 200146 208453 221163
2495.46 229459 221778 220415 231541 224797 213979
2501.24 222880 245624 273088 292251 310553 331057
2507.03 340412 357803 382763 403779 432661 444521
2512.81 450475 506603 550119 565459 568804 576112
2518.60 612454 659082 687147 715531 724621 744547
2524.39 789437 839866 844822 816071 802101 807101
2530.17 809637 816799 826221 811239 784308 763412
2535.96 769886 798175 798730 781422 772404 774438
2541.74 781189 781585 769953 761896 743848 731570
2547.53 708487 690240 670734 651447 637749 630915
2553.31 626900 630341 654306 661601 665949 678863
2559.10 691391 714201 745917 785319 803656 845063
2564.88 897564 929590 957844 1014453 1065889 1118655
2570.67 1195502 1259616 1313137 1373894 1444742 1513877
2576.45 1582001 1662839 1747038 1825175 1893053 1972601
2582.24 2066853 2170384 2262384 2343474 2447198 2589653
2588.03 2742976 2983533 3161110 3190376 3230851 3289705
2593.81 3364207 3458622 3606513 3835353 3950324 3860136
2599.60 3810363 3843250 3883306 3911976 3937358 3968261
2605.38 3988338 4049983 4127053 4191104 4272630 4340079
2611.17 4395940 4469523 4535822 4573884 4626097 4653655
2616.95 4544873 4451878 4472398 4538645 4595669 4612011
2622.74 4590536 4582834 4578963 4604552 4660709 4727355
2628.52 4791118 4847762 4905483 4945343 4966286 4985393
2634.31 5001733 5016065 5010867 4974256 4936101 4874772
2640.09 4781601 4694184 4599091 4547085 4566651 4652781
2645.88 4784016 4951293 5108636 5225432 5273163 5283815
2651.66 5293561 5282243 5264306 5246930 5218399 5207767
2657.45 5177430 5063146 4932764 4857588 4796922 4772015
2663.24 4737834 4691211 4665555 4648287 4597447 4527372
2669.02 4444946 4351960 4242395 4124658 4027780 4004623
2674.81 4032668 4115567 4233513 4411212 4665473 4862308
2680.59 4936327 4859534 4660561 4404286 4155087 3985893
2686.38 3863379 3796629 3751495 3693160 3596317 3526699
2692.16 3459571 3402039 3352381 3318999 3308581 3307324
2697.95 3293591 3306372 3334571 3385694 3445063 3511140
2703.73 3587844 3695365 3796681 3887255 4013914 4155128
2709.52 4299799 4492903 4695328 4826235 4917813 5044948
2715.30 5163410 5258246 5331724 5454810 5652099 5940353
2721.09 6329836 6741921 7110871 7478387 7818779 8155762
2726.88 8519481 8903233 9254836 9611693 9981975 10364918
2732.66 10675980 10910753 11098040 11195529 11145116 11022575
2738.45 10803861 10594571 10720682 11154151 11024400 10486211
2744.23 10321538 10463984 10798478 11300841 11830182 12204231
2750.02 12287586 12220418 12081849 11834698 11439196 10933510
2755.80 10368082 9786395 9239815 8744653 8298509 7954211
2761.59 7674505 7461756 7244572 7048136 6873791 6753238
2767.37 6658726 6582347 6491363 6445670 6452213 6444132
2773.16 6401408 6418645 6463459 6538094 6617296 6712288
2778.94 6798903 6884944 6969233 7057397 7109060 7157538
2784.73 7182487 7207843 7224858 7282767 7356664 7474768
2790.52 7634708 7891861 8309962 8764287 8715055 8520079
2796.30 8603347 8876683 9176088 9418652 9653407 9898135
2802.09 10123912 10393702 10733342 11101165 11494730 11927564
2807.87 12382447 12835692 13246115 13705743 14222497 14779249
2813.66 15296416 15874360 16526899 17143171 17680112 18329944
2819.44 19196565 20299348 21468866 22563589 23607490 24691201
2825.23 25738933 26800852 27913124 29091725 30273444 31393657
2831.01 32558836 33859705 35189840 36491295 37878583 39609142
2836.80 41766140 44472429 47454156 50002742 52212530 54753203
2842.58 57555972 60553293 63650289 66719259 69817875 73179931
2848.37 76985938 81502811 86700196 91951897 96852729 101970814
2854.16 107850041 114394403 121238490 128224256 135287091 142277688
2859.94 149015798 155550300 161977736 168315401 174528482 180496920
2865.73 185788244 190032916 194451941 203027606 221059109 242100774
2871.51 253380397 258893917 267734813 282648719 300345531 316335183
2877.30 327419272 332485538 330821364 322769214 309100109 292282992
2883.08 277307086 271886630 289495795 310795259 298769302 285754319
2888.87 285880422 287347597 292580871 300801870 307549732 310775938
2894.65 310208544 306467097 300707515 293796773 286226811 278306790
2900.44 270140482 262641445 256197966 250596114 246905083 246309067
2906.22 248269249 250993740 253549154 257176318 261435321 266415386
2912.01 272108782 277259799 282103464 287913356 292988422 298007090
2917.80 305669492 318333745 333722470 345271880 354873690 366934746
2923.58 374222389 378619922 387591896 398503369 408329023 417367015
2929.37 429040287 446706717 472056790 492540465 485790818 470452853
2935.15 469712292 481541078 500857794 515848311 520592489 520697934
2940.94 518572421 518661788 519325402 521100479 527710341 544120352
2946.72 563501656 569974225 563612045 559667590 566723946 581301552
2952.51 597826126 614669956 631882157 648808648 663410425 677660439
2958.29 690725598 702297811 711268047 721346564 739614411 787051779
2964.08 873782341 933466504 885056316 804205942 746985985 699915011
2969.86 660419246 636451701 652104801 666885716 651501321 631624413
2975.65 623806608 623954912 627172535 628465684 625388712 615537704
2981.44 598497282 574318611 544738118 511001094 475598498 439614656
2987.22 404224653 369953195 337628677 307356010 279540942 254016410
2993.01 231065457 210069229 191007569 173677176 158128688 143852002
2998.79 130910084 118917282 107993932 97942845 88830981 80361475
3004.58 72671358 65578668 59172693 53260274 47994060 43176355
3010.36 38897784 34996783 31646513 28634465 25998809 23556447
3016.15 21452343 19555713 17952078 16489394 15276833 14165349
3021.93 13253252 12389136 11678713 11023483 10521881 10026139
3027.72 9623796 9223001 8950000 8674514 8457193 8210361
3033.50 8047749 7846058 7729043 7580188 7506047 7408224
3039.29 7358769 7264374 7205890 7126305 7118198 7032730
3045.08 6985854 6939758 6920572 6845390 6838136 6792264
3050.86 6789206 6751564 6767254 6774282 6813548 6832325
3056.65 6900105 6924919 6990979 7045754 7172228 7258560
3062.43 7379456 7456546 7562307 7641611 7773972 7862691
3068.22 7988220 8071271 8170802 8238605 8341330 8402582
3074.00 8452381 8450640 8534139 8557158 8553014 8492776
3079.79 8480288 8434045 8444782 8581028 8687296 8551390
3085.57 8579556 8642439 8553012 8343840 8195102 8009894
3091.36 7873617 7710814 7544239 7322399 7110377 6890815
3097.14 6712272 6514343 6377518 6171754 6011285 5817581
3102.93 5675784 5515026 5360510 5212317 5112712 5000920
3108.72 4920726 4804847 4727663 4628560 4545770 4473642
3114.50 4436183 4396488 4366293 4296851 4310799 4270389
3120.29 4247231 4246991 4272753 4259561 4280249 4299609
3126.07 4330086 4345894 4401249 4442521 4496321 4523827
3131.86 4574881 4623803 4712624 4761099 4811724 4881771
3137.64 5004123 5058253 5145272 5227117 5309424 5330676
3143.43 5382842 5423636 5479015 5534174 5644743 5733585
3149.21 5814540 5897408 6027589 6141332 6272842 6377891
3155.00 6532202 6673232 6803434 6925715 7046449 7107853
3160.78 7156285 7159867 7186281 7229852 7312044 7412648
3166.57 7584241 7766116 7925528 7966579 8044487 8075245
3172.36 8090805 8131002 8172295 8039702 7946753 7851899
3178.14 7674195 7467734 7345682 7285323 7300083 7443402
3183.93 7615220 7635362 7687933 7744209 7549288 7159594
3189.71 6909558 6714703 6527539 6362912 6227577 6071280
3195.50 5939745 5779747 5687898 5576006 5473185 5360699
3201.28 5276351 5216933 5113307 4999099 4952071 4822194
3207.07 4730553 4657999 4624778 4575445 4577561 4525872
3212.85 4463721 4432143 4420880 4392478 4408736 4393766
3218.64 4429903 4477597 4515129 4532884 4504159 4456008
3224.42 4415330 4331711 4237082 4073864 3909259 3724094
3230.21 3557609 3420058 3372906 3352150 3331393 3278352
3236.00 3281328 3249725 3174153 3085249 3005471 2903946
3241.78 2803533 2662835 2522287 2367627 2227778 2078179
3247.57 1953530 1829433 1698360 1543207 1453266 1370459
3253.35 1306973 1206618 1128619 1044768 977249 906638
3259.14 896424 865351 806710 760825 746758 714355
3264.92 714755 717560 725375 692455 705681 691356
3270.71 679437 682811 731628 727663 718839 730118
3276.49 742227 720814 742660 726084 720925 727243
3282.28 743701 765395 802290 819684 795139 778681
3288.06 812012 795342 766274 737273 734657 740603
3293.85 749522 726320 718392 701313 716544 724555
3299.64 729747 673619 636058 615964 603362 571609
3305.42 552060 524141 539491 528190 523329 504766
3311.21 491911 453351 431821 410461 417039 402314
3316.99 411833 419120 421081 413788 401793 379057
3322.78 381477 369081 425250 435631 431358 444554
3328.56 456924 464453 497889 504130 516795 511270
3334.35 557760 601654 602794 580274 603330 621284
3340.13 609117 630975 717275 714944 687383 678470
3345.92 719593 738380 738761 733515 768140 760331
3351.70 761706 780678 791559 784570 806414 800489
3357.49 822932 803545 780643 782055 809016 821075
3363.28 810428 795428 812874 843603 857733 827758
3369.06 836288 801335 794948 828375 874547 870368
3374.85 894183 954579 981015 968092 969745 988970
3380.63 1050046 1062510 1106549 1151901 1171186 1191101
3386.42 1236833 1241917 1242389 1247594 1277711 1308266
3392.20 1359470 1352032 1345206 1340908 1348697 1325465
3397.99 1295984 1244550 1199593 1191040 1207979 1210800
3403.77 1207610 1169179 1152626 1095504 1041617 1013913
3409.56 1011642 1003420 981599 902918 842953 792573
3415.34 740431 681744 614690 542703 503825 429078
3421.13 378029 348445 327816 313927 301007 252890
3426.92 252713 228697 231344 251858 251654 211084
3432.70 193312 175955 173840 161081 189189 180128
3438.49 161855 151084 159534 132716 145671 108839
3444.27 94763 100666 101869 91369 123234 135382
3450.06 139226 116571 61248 51870 74358 50171
3455.84 44012 53412 91075 84649 73087 62983
3461.63 78836 103755 104252 70922 64302 72673
3467.41 61633 74448 92525 80622 79308 87148
3473.20 95270 71084 60786 72619 100063 112650
3478.98 114222 124125 146592 108554 82412 81190
3484.77 120331 126606 119374 93599 100649 86161
3490.56 60994 54395 86532 100776 114693 113681
3496.34 79557 65579 101326 76121 78451 99400
3502.13 100999 96231 120950 96056 66972 65839
3507.91 84334 52469 27837 26371 58742 67082
3513.70 46565-2558-4160 2234 29783 21336
3519.48 15129 18141 25475-1506-14082-21995
3525.27-26534-14180-25709-17125 36701 17192
3531.05-51090-63209-31975-24964-3844-22543
3536.84-3822-10378-17405-11584 7563-21457
3542.62-25192-16713 11726 16226 21145 30508
3548.41 11432-5827 231 4070 22366 4949
3554.20 13320 37950 22806 5480 24275 28017
3559.98 53776 85679 75410 69252 95837 103693
3565.77 121111 144103 163741 132671 109594 96876
3571.55 102137 110660 135587 133082 141428 188569
3577.34 187778 189657 208072 194965 199409 199493
3583.12 211530 217490 264396 268524 289188 335292
3588.91 307519 263836 296572 337414 347421 338155
3594.69 353072 351267 365964 367110 402623 448832
3600.48 472436 431686 423376 444294 473666 503620
3606.26 537543 545391 567203 563987 583167 623009
3612.05 656315 657279 655308 642830 651869 673586
3617.84 734190 757197 735673 732587 747408 739107
3623.62 729520 758599 806429 835241 868210 875451
3629.41 843627 803398 772376 762220 776851 744065
3635.19 756149 806122 868382 864625 878481 897056
3640.98 887340 875384 878114 884750 886204 906065
3646.76 922026 963763 995216 950346 922409 875005
3652.55 874009 860608 862178 857178 830216 829490
3658.33 858056 851448 851228 860100 857536 858030
3664.12 866674 859522 859805 897134 938316 985306
3669.90 1004259 918730 905792 932821 1003460 1078004
3675.69 1066761 1020707 1041922 1045607 1043240 1025014
3681.48 1073239 1117146 1138859 1108799 1099895 1134714
3687.26 1254423 1224842 1128664 1119808 1105041 1065552
3693.05 1073805 1082742 1088111 1045804 1046776 1060569
3698.83 1072043 1115455 1173960 1155850 1130897 1113437
3704.62 1126283 1131115 1114087 1120741 1144977 1145382
3710.40 1241286 1302192 1260800 1246193 1291160 1341970
3716.19 1372876 1345709 1326142 1324126 1330158 1347667
3721.97 1371687 1360708 1324430 1323126 1368417 1348320
3727.76 1315280 1306337 1342268 1406120 1426064 1394531
3733.54 1410193 1395880 1409649 1341005 1284383 1242777
3739.33 1204707 1143819 1073836 1076236 1161259 1081517
3745.12 915691 843796 843127 934197 900735 800905
3750.90 869487 825808 708521 642454 647422 693463
3756.69 689894 671220 703121 698974 654109 609275
3762.47 610666 617055 634699 596632 570987 603577
3768.26 637942 611671 582374 583495 571757 549791
3774.04 546061 559357 581200 605214 633516 621034
3779.83 587181 577649 581255 599030 603206 568701
3785.61 553025 562590 551274 528340 558916 555289
3791.40 529516 531020 526210 535858 575061 573940
3797.18 550285 540406 575925 681217 685245 575474
3802.97 533891 537303 585151 632108 594239 536567
3808.76 565883 585325 581512 574278 595349 629840
3814.54 733446 758247 683499 651680 669188 731746
3820.33 764231 715452 710189 736857 773469 812280
3826.11 841637 844080 872534 905064 988945 1063747
3831.90 1085113 1128433 1242081 1283865 1335111 1503282
3837.68 1538116 1527501 1590699 1600586 1597587 1666410
3843.47 1745143 1755978 1765161 1778335 1815527 1816226
3849.25 1812631 1904576 2057725 2106683 2191229 2117030
3855.04 2038323 2052097 2076948 2045313 2017259 1997254
3860.82 1962816 1858683 1797427 1816136 1757096 1637016
3866.61 1609378 1648461 1698762 1633918 1561386 1520450
3872.40 1496200 1493584 1473588 1454958 1433457 1406984
3878.18 1419239 1419454 1378622 1316813 1274145 1240203
3883.97 1266646 1276625 1233134 1191814 1156289 1148800
3889.75 1173447 1158730 1124858 1119318 1093121 1078341
3895.54 1077763 1055439 1064507 1086250 1056755 1041675
3901.32 1029799 1016043 1039751 967010 927796 924657
3907.11 915651 884009 889307 897189 867251 842161
3912.89 848755 825719 819078 824585 840861 833052
3918.68 820778 780243 788013 787292 763500 735325
3924.46 713007 705330 713566 696245 702869 694112
3930.25 677816 688408 705615 681336 662952 649229
3936.04 646625 602927 578985 602274 609639 609847
3941.82 615514 594481 589484 560439 570298 581945
3947.61 557045 530419 529153 497330 508454 543007
3953.39 547051 548810 532579 514425 514006 502415
3959.18 512701 514297 512108 518132 535176 510324
3964.96 518932 539438 543013 518516 528602 568779
3970.75 575966 583747 599312 593897
##END=
