##TITLE=Butane
##JCAMP-DX=4.24
##DATA TYPE=INFRARED SPECTRUM
##CLASS=IUPAC A
##ORIGIN=NIST, Analytical Chemistry Division, 301-975-3108
##OWNER=COPYRIGHT (C) 2000 by the U.S. Secretary of Commerce
##DATE=00/02/01
##$SPECTRA VERSION=1.10
##$UNCERTAINTY IN Y=2.0 % relative (B=1.0E-04,C=-1.9E-11,D=8.7E-15)
##CAS NAME=Butane
##CAS REGISTRY NO=106-97-8
##MOLFORM=C4 H10
##MP=-138.35 C
##BP=-0.5 C
##$NIST SOURCE=QUANT-IR
##SPECTROMETER/DATA SYSTEM=IFS66V (Bruker)
##INSTRUMENT PARAMETERS=KBr Beam Splitter; MCT Detector; Multipass cell
##STATE=gas
##SAMPLE DESCRIPTION=Butane Primary Gas Standard
##PRESSURE=101.3 Pa
##TEMPERATURE=23 C
##SAMPLING PROCEDURE=1 L/min Flow
##RESOLUTION=1.9290
##DATA PROCESSING=NB Strong Apodization
##XUNITS=cm-1
##YUNITS=(micromol/mol)-1m-1 (base 10)
##XFACTOR=1.0
##YFACTOR=9.0949E-13
##DELTAX=0.9645
##FIRSTX=575.652
##LASTX=3974.605
##FIRSTY=-2.33E-07
##MAXX=3973.64
##MINX=575.65
##MAXY=.0008476
##MINY=-3.67E-07
##NPOINTS=3526
##XYDATA=(X++(Y..Y))
575.65-256467-95948 152715 147379-275304-378081
580.47-262401-154860-18419 154804 111947-36466
586.26-4158 138362 43086-158030-153055-14189
592.04-51910-137273-125352-181258-81542-51184
597.83-102608-143082-122255-107684-111325-114182
603.62-110944-100863-47594-62726-78442-135079
609.40-243659-232720-153704-127713-98867-143489
615.19-209275-206039-147444-74329-44366-47398
620.97-52704-68982-73268-106681-140620-103717
626.76-102660-175702-74894-27500-69412-42616
632.54-55379-136055-160198-176796-145422-91288
638.33-50889-68653-65157-58065-109030-115638
644.11-74332-80546-102933-130395-91991-34955
649.90-49495-64255-78087-180102-207482-170221
655.68-92814-39911-16000-79967-137444-89593
661.47-54861-7462 9609-26396-105988-382483
667.25-404245-109055 11464 21834 29325 30191
673.04 38667 74995 91641 81048 128246 139316
678.83 145168 199689 246426 261432 289618 312068
684.61 362571 428897 454149 514120 592215 682115
690.40 816750 892422 932991 978990 1073959 1140456
696.18 1253622 1434232 1608148 1763589 1855963 1980288
701.97 2127974 2301529 2480992 2620451 2733249 2934359
707.75 3177867 3370529 3530689 3724208 3974192 4205855
713.54 4387442 4559590 4659349 4810777 5003054 5124670
719.32 5311442 5538617 5736276 5902164 6058722 6283974
725.11 6544812 6752266 6974573 7501741 8451241 10037837
730.89 11640491 11618893 9922818 9234519 9455857 9383271
736.68 9448293 9668161 9797436 9830642 9814118 9711076
742.47 9558822 9504477 9724053 10768041 11484947 11331047
748.25 11343741 10955223 10236086 9613415 9254764 8994450
754.04 8859910 8762474 8724148 8620754 8456421 8277885
759.82 8097853 7833438 7521732 7139834 6785565 6434305
765.61 6077208 5724925 5403261 5033373 4722718 4433455
771.39 4199758 3999571 3858750 3753113 3639545 3535765
777.18 3469330 3393872 3325815 3227423 3117151 3010462
782.96 2888105 2713627 2499069 2218279 2008365 1934011
788.75 1924389 1975977 2077909 2174173 2307556 2352611
794.53 2305309 2251432 2147447 2004972 1915362 1836947
800.32 1746885 1653952 1566999 1500429 1399310 1298348
806.11 1197750 1056253 961851 880631 815481 714916
811.89 673053 653305 595359 486883 466760 437375
817.68 366355 277042 266964 254685 197780 180317
823.46 147920 122520 121631 108505 66341 67376
829.25 40976-18049-29611-17004 4327-475
835.03 15121 13751 14231-9246-57546-57642
840.82-3335-10835 13027 41942 42239 18160
846.60-16900-33935-49572-53448-26329-24296
852.39-30224-41049-20715-3315 12514-11994
858.17-41973-17791-788-38656-16953 13147
863.96 11127-16057-13108-40737-31462 2851
869.75 18618 8464-715-24808-22413-28090
875.53-35727-34187-20950-11747-17479-35954
881.32 8610-3890-30121-27972-23245-30153
887.10-30262-50505-60483-56989-56867-57288
892.89-20399-2602-21461-32302-19716-24398
898.67-29711-13456 33550 34924 35571 11805
904.46 45031 97684 117104 121358 151703 180821
910.24 207265 222187 257121 280267 313746 384653
916.03 448520 487373 556313 621030 691190 753124
921.81 846979 979513 1083397 1201551 1344535 1487578
927.60 1649623 1814684 2024526 2249930 2516339 2798882
933.39 3143147 3508506 3894233 4316948 4807731 5336251
939.17 5912814 6501761 7133046 7785685 8518170 9201443
944.96 9974351 10819073 11711861 12251466 12571071 12846230
950.74 13190718 13725102 14748429 16710653 20060798 21686207
956.53 19165787 16999854 16945161 17449039 17908481 18385532
962.31 18818044 19127952 20179239 21439097 21419146 20923461
968.10 20633115 20510033 20423029 20147754 19595837 18940570
973.88 18214151 17519975 16847124 16088407 15116686 14123177
979.67 13268171 12666903 12116003 11525816 11056728 10682631
985.45 10142767 9674282 9304385 8914826 8512467 8075581
991.24 7669742 7241984 6789632 6326678 5894823 5480517
997.03 5066006 4656820 4233403 3853644 3547491 3303443
1002.81 3065459 2841989 2632112 2396121 2210867 2087142
1008.60 1963204 1839825 1715587 1593242 1484675 1375318
1014.38 1286333 1205318 1111240 1047559 998780 922209
1020.17 857635 821322 753226 664722 632223 612746
1025.95 570306 529949 483462 456793 453725 472411
1031.74 473092 424247 391104 380629 364263 319329
1037.52 281062 278179 236046 213960 195777 155723
1043.31 103144 97942 119902 108206 97921 79574
1049.09 86343 97203 83377 63643 76783 92659
1054.88 101584 99369 92338 79282 98612 117374
1060.67 109741 131738 165438 182047 178589 173297
1066.45 175390 174706 185661 198584 232581 237260
1072.24 238654 252088 227611 211780 215727 182518
1078.02 148536 161669 198300 255491 274063 280030
1083.81 300813 291560 273766 281318 304524 320173
1089.59 301434 300814 299717 278490 274680 245853
1095.38 216611 239270 273711 269351 249227 250115
1101.16 269761 301125 323153 351441 376661 407588
1106.95 443225 492259 546142 630507 743733 855647
1112.73 965591 1106064 1281930 1461834 1652089 1858331
1118.52 2041407 2245084 2425398 2589977 2724939 2842582
1124.31 2923851 2981287 3016841 3096303 3148218 3124271
1130.09 3093038 3151421 3360085 3674468 3809417 3573822
1135.88 2763488 1972638 1953044 2263975 2605931 2891453
1141.66 3096928 3159761 3097406 2932492 2718836 2481089
1147.45 2225479 1962121 1703939 1479163 1274754 1081052
1153.23 914694 745954 620377 528030 417289 351284
1159.02 311489 254724 215670 200705 206184 190447
1164.80 151696 149970 151665 140753 142144 145427
1170.59 159412 190578 205915 220480 226214 218474
1176.37 199032 185499 181977 196461 218176 222081
1182.16 214779 199662 196162 199530 203935 209288
1187.95 196606 208979 217809 207469 189612 200638
1193.73 223611 218620 200228 217174 223961 202850
1199.52 218802 234256 210382 191508 219690 245641
1205.30 222510 237537 265175 263468 260056 265506
1211.09 271907 284469 295657 316574 323591 339143
1216.87 355480 370272 375824 399324 423044 450676
1222.66 467719 487488 507375 529005 540511 564318
1228.44 597461 614151 630382 670846 697777 730835
1234.23 775539 823995 854392 883952 919011 957844
1240.01 1005762 1061456 1108971 1153604 1179594 1223232
1245.80 1295553 1373938 1440514 1501065 1550432 1610088
1251.59 1668066 1708221 1712177 1732010 1776653 1830479
1257.37 1869997 1872375 1877524 1979695 2167827 2193351
1263.16 2021988 2034778 2145960 2257815 2360037 2476405
1268.94 2584099 2738124 2929253 3151513 3424628 3766176
1274.73 4121694 4534204 5020277 5566397 6139954 6751033
1280.51 7347230 7937490 8405936 8759673 9008425 9072302
1286.30 8882683 8494325 7932578 7269001 6862695 7249120
1292.08 8454060 9940914 9811169 8115197 7336933 7801819
1297.87 8503549 9148509 9588035 9645242 9376578 8943439
1303.65 8356596 7731714 7040642 6333747 5616133 4973701
1309.44 4347357 3827401 3371509 2975365 2612722 2339929
1315.23 2127972 1990326 1892261 1868264 1877952 1959298
1321.01 2079805 2264235 2455770 2714279 2980424 3254341
1326.80 3540356 3856085 4142526 4426012 4661455 4845222
1332.58 4929537 4912022 4773362 4626357 4446893 4288258
1338.37 4194788 4400407 5105638 6393171 7432168 6770490
1344.15 4780770 3913826 4103927 4609659 5080058 5596037
1349.94 6167618 6626691 6921109 7118726 7180877 7257545
1355.72 7299849 7339969 7381761 7557682 7818412 8268316
1361.51 8846512 9631795 10580945 11775920 13094978 14634035
1367.29 16325303 18241908 20185676 22240611 24205659 26168198
1373.08 27863603 29194038 29996131 30354864 30098198 29543129
1378.87 28680312 28573296 31198094 37486359 39833328 36347813
1384.65 31646129 28444103 28803893 31708372 35555763 39105512
1390.44 41399023 42493611 42755518 42042019 40498987 38220136
1396.22 35437828 32333502 29126712 25991664 23079812 20403538
1402.01 18049212 16064215 14409064 13035496 11891814 11006970
1407.79 10342155 9904895 9559027 9196456 8925690 8799223
1413.58 8719770 8721331 8724630 8762879 8864482 9084565
1419.36 9243903 9468954 9790213 10245608 10718336 11270063
1425.15 11888380 12633821 13431678 14321630 15222192 16271034
1430.93 17397075 18754388 20172023 21775216 23466122 25344262
1436.72 27257589 29370554 31585052 33918156 36249696 38839181
1442.51 41287572 43551150 45496224 47533898 49431666 51342120
1448.29 52956690 54633684 56322065 58585377 60453243 62189838
1454.08 63653741 65052307 65562823 66755825 69386443 73576104
1459.86 80414955 88600642 88100559 84918083 91087100 102788445
1465.65 100507477 86794064 79408569 78900771 82881864 84000024
1471.43 76469818 67031766 61253958 59097100 59746109 61533200
1477.22 63625347 64880016 65332280 64846431 63815237 62065630
1483.00 60163537 57955774 55674513 53169575 50714983 48048142
1488.79 45598971 42950484 40461755 38029110 35789041 33545786
1494.57 31539505 29534673 27723331 25963487 24348007 22745472
1500.36 21317586 19920218 18643404 17386834 16323249 15220181
1506.15 14182463 13071329 12135483 11212795 10406586 9625264
1511.93 8934183 8216708 7598398 6964248 6469532 5933527
1517.72 5458882 5021468 4725167 4337338 3934411 3529959
1523.50 3276086 3038921 2797346 2543276 2353379 2130026
1529.29 1972537 1823291 1736573 1650013 1561905 1399092
1535.07 1329945 1253728 1268510 1306989 1297674 1197654
1540.86 1171767 1082400 1028623 1006305 992488 953200
1546.64 976126 968276 1004212 986783 1001255 1015149
1552.43 1089178 1137746 1125473 1110866 1243304 1361757
1558.21 1423425 1413200 1344732 1289956 1311830 1328399
1564.00 1409662 1442275 1499273 1519765 1596065 1637821
1569.79 1640031 1632720 1690220 1704547 1728478 1844587
1575.57 1888718 1758736 1731952 1689387 1689480 1669333
1581.36 1656294 1613537 1627707 1590772 1595890 1573429
1587.14 1568323 1544008 1544239 1519346 1498276 1441569
1592.93 1419297 1368075 1338278 1299218 1270867 1225723
1598.71 1192559 1136147 1110513 1059843 1031374 976904
1604.50 959503 955323 973264 959089 962876 952400
1610.28 963641 968351 984645 981274 1027222 1134187
1616.07 1176346 1075389 1048416 1014898 1003747 963943
1621.85 974289 957556 926105 947564 1027153 1072648
1627.64 1094962 1097521 1124546 1142998 1200883 1215160
1633.43 1272159 1328037 1276056 1188287 1177807 1147223
1639.21 1140500 1115982 1104038 1083055 1116517 1185085
1645.00 1268927 1234346 1238074 1233114 1232051 1244451
1650.78 1417291 1601570 1568131 1431628 1381972 1371520
1656.57 1403189 1407713 1424589 1436509 1476497 1503691
1662.35 1495544 1452045 1462412 1471222 1522082 1582061
1668.14 1685797 1675382 1655948 1627303 1601532 1581106
1673.92 1631979 1573983 1461321 1401340 1395257 1398477
1679.71 1437925 1440893 1487384 1579840 1719487 1641448
1685.49 1480012 1408383 1380750 1368112 1370384 1335062
1691.28 1298291 1280099 1302033 1395630 1445729 1317510
1697.07 1265765 1309541 1438579 1381414 1276655 1240344
1702.85 1241971 1236160 1258021 1254158 1226476 1221908
1708.64 1242102 1213991 1197685 1208575 1214588 1223164
1714.42 1232399 1229508 1288918 1217126 1151415 1117780
1720.21 1108085 1077958 1076336 1069048 1060029 1008220
1725.99 953790 901578 899515 890131 876768 861271
1731.78 909234 953357 900162 747188 682708 636685
1737.56 615266 621024 582408 513526 497527 474754
1743.35 432807 404304 412447 393082 387650 381886
1749.13 382775 404041 383172 313310 303815 287223
1754.92 311493 314361 297771 278467 282879 295171
1760.71 344199 315772 287665 277001 283577 287745
1766.49 309726 308698 293934 288105 319664 363774
1772.28 351266 301850 310461 315020 328379 318774
1778.06 326771 341621 367676 364308 378385 365593
1783.85 384134 359540 351460 362633 391479 390919
1789.63 401348 410597 450681 422430 400710 416938
1795.42 439517 429983 433590 438143 442004 431577
1801.20 438500 419523 432816 429336 427498 421448
1806.99 433745 434518 444494 448351 445067 427700
1812.77 436080 426456 412740 394383 388355 377238
1818.56 378694 366337 365891 348008 336701 327078
1824.35 322739 284765 278998 268028 273597 246106
1830.13 214825 183354 173475 147988 137514 124181
1835.92 117830 102528 95881 88554 82996 68766
1841.70 70025 108331 112189 46138 33786 32157
1847.49 24850-509 8082-1608 4609-184
1853.27-2550-6274-1793-8976 6281 8780
1859.06 3954-9417 3020-4257 322 3173
1864.84 16625 20330 36560 37902 42523 36829
1870.63 47266 41044 57959 68938 90373 87919
1876.41 103131 106929 129074 151153 171055 179833
1882.20 182532 181242 222705 248525 257803 248975
1887.99 281497 304889 323902 332726 355153 380621
1893.77 414570 416225 431042 455835 493971 486861
1899.56 489633 505653 528532 520155 512705 507139
1905.34 510403 506018 523255 523020 521020 498636
1911.13 487878 493184 518775 513366 497483 495034
1916.91 538375 547349 547997 522983 526408 525966
1922.70 511388 490487 474113 453030 433519 413096
1928.48 413570 408208 407099 388171 388348 363906
1934.27 348631 355517 360562 330993 289310 268075
1940.05 275533 269251 238178 203650 209068 208411
1945.84 200301 194535 194832 184751 175483 161323
1951.63 148835 122915 113225 90797 80822 49210
1957.41 36615 31336 19966 10096 14486-135
1963.20-733-10120-9765-24971-25396-26269
1968.98-47325-56780-49798-56016-59305-60651
1974.77-37462-42649-60429-72654-61973-57462
1980.55-47038-57985-57283-64103-54249-65871
1986.34-58311-51622-46333-53079-46812-39433
1992.12-31849-48172-40234-31265-32816-44758
1997.91-26005-27175-13901-15077-9305-7185
2003.69 4174 10303 20867 1009 19214 38772
2009.48 38332 38649 60278 79312 94657 106483
2015.27 139972 185796 215022 227414 272282 305972
2021.05 341058 392390 449170 484612 526205 549416
2026.84 585040 623926 666423 672148 671513 671760
2032.62 663741 633584 639172 709102 777016 724315
2038.41 651735 657419 687750 714065 773297 811765
2044.19 820698 816454 791629 751804 711762 668557
2049.98 621532 568256 539138 494769 442657 380586
2055.76 345796 324564 293841 273354 270802 255474
2061.55 233555 208678 212007 179918 162796 156781
2067.33 161307 158951 156736 165272 181582 171633
2073.12 158311 155620 170065 158279 166691 163913
2078.91 164564 177995 207292 207939 205677 210605
2084.69 241659 244967 220957 222973 262812 298139
2090.48 286361 266762 283968 333198 358898 327383
2096.26 317509 340672 377391 350614 353842 381551
2102.05 436360 426625 410711 419320 477873 496137
2107.83 451856 439918 493486 531145 509755 508401
2113.62 544746 591274 553502 528287 559024 629709
2119.40 654412 632042 647762 703187 705575 667535
2125.19 669013 704372 716737 667819 641173 654196
2130.97 671718 638699 647412 654974 659527 653305
2136.76 667446 686700 699855 688979 699926 705616
2142.55 714421 709641 720173 719568 696752 664386
2148.33 659786 668000 664097 625767 626273 672302
2154.12 682148 639517 647346 694716 685832 657998
2159.90 704157 752820 754017 732145 772639 808589
2165.69 785961 776780 879973 906849 819726 777198
2171.47 815499 784290 733365 753277 777455 721600
2177.26 710617 761274 759380 711592 732830 765986
2183.04 744028 711691 755026 784043 756342 729442
2188.83 758085 731914 696953 709122 731664 714447
2194.61 721861 734796 729809 734220 768743 784344
2200.40 775873 780564 783652 766560 777401 793605
2206.19 775426 758564 784415 796087 797441 814174
2211.97 808859 781531 767266 743837 735672 731075
2217.76 748312 757280 757617 757579 750931 724283
2223.54 712187 717426 709092 668401 652888 640561
2229.33 630110 606523 590289 577139 558891 533237
2235.11 529250 495869 462743 442088 442033 442743
2240.90 461576 468665 470409 467975 468145 455367
2246.68 443426 452899 493149 507166 504370 500762
2252.47 497396 504497 527717 535256 555699 566676
2258.25 579681 591684 603678 602124 610583 621056
2264.04 630580 623495 630149 623754 615851 601390
2269.83 613421 622316 612463 601087 638388 679867
2275.61 711740 711710 718714 751969 795460 814121
2281.40 844331 859917 866004 864502 877325 885593
2287.18 892940 881998 887689 891763 898389 895783
2292.97 892200 880717 852806 861560 907434 945992
2298.75 990129 1031834 1070422 1060611 1081234 1101097
2304.54 1109190 1076034 1053403 1042675 1035063 1013866
2310.32 979660 963716 932877 939991 920437 937022
2316.11 918733 909446 860913 865508 837453 867924
2321.89 882764 874504 803629 797421 779903 795952
2327.68 793474 812935 818347 831893 841163 875929
2333.47 879832 894585 915297 914042 884061 889293
2339.25 901005 912074 936216 959102 970939 1023575
2345.04 1097277 1160864 1227568 1274388 1261431 1209741
2350.82 1164729 1102698 1026842 942482 884725 825665
2356.61 762161 729913 695738 659462 640454 638652
2362.39 638109 636304 641366 682526 752937 805292
2368.18 845530 916674 1019396 1129597 1213649 1301464
2373.96 1380639 1451756 1537854 1625104 1686959 1741127
2379.75 1754447 1709325 1661774 1598949 1519459 1444474
2385.53 1431206 1485317 1568986 1625478 1507303 1395944
2391.32 1456898 1566090 1665316 1753474 1831098 1871408
2397.11 1862470 1794280 1722752 1641284 1535576 1413625
2402.89 1316300 1245754 1213448 1247349 1275385 1252697
2408.68 1241124 1290739 1360634 1438098 1513087 1576082
2414.46 1639254 1689351 1746000 1773343 1754608 1722972
2420.25 1707255 1700210 1718424 1760682 1802341 1866602
2426.03 1928957 1970707 2007170 2055374 2095848 2108462
2431.82 2105097 2110215 2139807 2130742 2073719 2031228
2437.60 2011505 2002759 1982858 1918555 1849102 1798311
2443.39 1791298 1788082 1792552 1794085 1789119 1774219
2449.17 1758165 1717921 1671973 1591391 1485211 1378033
2454.96 1279111 1189673 1097808 1026681 954472 879634
2460.75 827751 762863 695438 648710 642435 630503
2466.53 595554 561455 541488 540740 526048 499809
2472.32 477523 445715 408493 370241 345832 323223
2478.10 307678 304966 314635 318013 314931 289051
2483.89 278272 266553 244393 240958 255200 253330
2489.67 247451 231357 216987 200242 208823 220862
2495.46 229342 221846 220518 231368 224701 214267
2501.24 223218 245637 273004 292243 310474 331019
2507.03 340463 357902 382840 403774 432311 444805
2512.81 450799 506813 549440 565245 568938 576605
2518.60 612509 659081 686721 715574 724561 745172
2524.39 789319 839211 844198 816269 802410 807151
2530.17 809721 816704 825944 810909 784467 763969
2535.96 770075 797907 798307 781567 772599 774567
2541.74 780963 781586 769690 762088 743563 731726
2547.53 708306 690375 670676 651566 637890 630897
2553.31 627246 630389 654306 661426 666043 679024
2559.10 691377 714639 745656 785435 803692 845409
2564.88 897152 929694 958071 1014556 1065990 1118831
2570.67 1195512 1259324 1313298 1374041 1444723 1513935
2576.45 1582116 1663007 1746811 1825152 1893111 1973000
2582.24 2066893 2170293 2262083 2344177 2447277 2590886
2588.03 2743596 2982529 3159160 3189594 3231742 3289779
2593.81 3364609 3459946 3607464 3833088 3947654 3859789
2599.60 3812171 3843486 3883001 3912099 3937097 3968565
2605.38 3988704 4050339 4127085 4191059 4272592 4339886
2611.17 4396140 4469386 4535424 4574220 4624919 4652168
2616.95 4544639 4453862 4473433 4538467 4594798 4611632
2622.74 4590335 4583304 4579284 4605188 4660924 4727257
2628.52 4791095 4847631 4905230 4945022 4966159 4985414
2634.31 5001655 5015616 5010499 4974002 4935656 4874474
2640.09 4781234 4694526 4599595 4548594 4567739 4653875
2645.88 4784418 4951351 5107655 5224316 5272479 5283565
2651.66 5293379 5282060 5264181 5246976 5218541 5207271
2657.45 5176118 5062961 4933221 4858566 4796979 4772222
2663.24 4737519 4691617 4665529 4647940 4596871 4527270
2669.02 4444613 4351789 4242071 4125392 4028699 4006013
2674.81 4033414 4116354 4234912 4411982 4664970 4859680
2680.59 4933633 4857277 4659249 4404850 4155930 3987429
2686.38 3863897 3797470 3750756 3693158 3596072 3527307
2692.16 3459402 3402409 3352556 3319557 3308491 3307538
2697.95 3293615 3307058 3334691 3386094 3444989 3511597
2703.73 3588144 3695356 3796662 3887680 4014231 4155427
2709.52 4300471 4493020 4694118 4825755 4917897 5045292
2715.30 5162557 5258307 5332300 5456364 5653862 5942139
2721.09 6330113 6741670 7110198 7478381 7818416 8156522
2726.88 8519389 8903254 9254381 9612451 9981606 10364054
2732.66 10674351 10909950 11095866 11193620 11142782 11021423
2738.45 10803834 10602158 10722649 11146759 11017784 10490159
2744.23 10329038 10467323 10801423 11301629 11826672 12199777
2750.02 12284040 12219178 12079643 11832132 11436983 10932391
2755.80 10367780 9787120 9240470 8746216 8299612 7956312
2761.59 7674842 7462594 7244224 7049213 6874174 6754307
2767.37 6658484 6582703 6491801 6446798 6451650 6444246
2773.16 6401592 6419951 6463397 6538742 6617088 6712575
2778.94 6798501 6885350 6968699 7057449 7108242 7157819
2784.73 7181767 7208484 7224794 7283861 7356775 7476315
2790.52 7635730 7896416 8307279 8758634 8710928 8524702
2796.30 8607356 8876989 9175413 9418319 9653393 9898164
2802.09 10124551 10394919 10734002 11101726 11495243 11928332
2807.87 12381806 12835812 13246140 13707602 14222292 14779624
2813.66 15296829 15875994 16525798 17142699 17681329 18334720
2819.44 19200254 20301063 21467307 22563266 23607131 24691573
2825.23 25738550 26802179 27914123 29091696 30272635 31394609
2831.01 32560760 33860758 35189000 36493841 37883893 39618269
2836.80 41776140 44476202 47447302 49998307 52215342 54760375
2842.58 57558626 60555494 63649698 66720480 69822080 73189163
2848.37 76999152 81514806 86700935 91947631 96855966 101984622
2854.16 107862318 114400828 121241017 128225761 135285282 142273604
2859.94 149011717 155548127 161976142 168312784 174524253 180481701
2865.73 185772683 190032955 194545394 203192137 221085511 241968766
2871.51 253255962 258954318 267840838 282705765 300311159 316247953
2877.30 327300109 332361512 330698737 322660251 309051769 292300064
2883.08 277525005 272317296 289393812 310462669 298573046 285999565
2888.87 285967038 287379125 292646239 300775515 307484494 310703154
2894.65 310149740 306427546 300685037 293785401 286217436 278305871
2900.44 270151499 262659064 256217809 250632666 246960698 246358176
2906.22 248280458 251001728 253557267 257195931 261447243 266426230
2912.01 272098943 277263444 282104864 287912923 292984147 298059798
2917.80 305762967 318369077 333665428 345257015 354866165 366883380
2923.58 374177657 378671773 387647816 398476848 408323294 417412688
2929.37 429153539 446866761 471870863 492158761 485599470 470668751
2935.15 470001168 481643057 500787233 515689805 520458488 520700623
2940.94 518569674 518702761 519331430 521212198 527878786 544150367
2946.72 563288524 569751313 563640080 559862701 566868120 581348535
2952.51 597826785 614685678 631856547 648795067 663372969 677664133
2958.29 690669408 702281432 711257061 721545565 740171433 787765839
2964.08 872985267 931975074 884164708 804569452 747320446 699917589
2969.86 660943054 636926649 652188362 666411429 651348920 631833900
2975.65 623981085 623995250 627154738 628366947 625274945 615388460
2981.44 598375428 574202021 544673277 510956039 475597342 439617164
2987.22 404253866 369982171 337675325 307394795 279592888 254056490
2993.01 231110545 210099593 191046761 173704134 158160124 143870460
2998.79 130934654 118931870 108015871 97955332 88848619 80371238
3004.58 72687502 65587011 59186930 53267747 48007246 43182049
3010.36 38909687 35002551 31657317 28637464 26006694 23558840
3016.15 21460119 19557509 17958580 16490339 15282526 14165433
3021.93 13257775 12388634 11683120 11023008 10525341 10024682
3027.72 9627092 9222161 8953049 8672632 8459768 8208624
3033.50 8050448 7844261 7731699 7578561 7508419 7406466
3039.29 7360517 7262495 7208188 7124714 7119653 7030945
3045.08 6988048 6937992 6922132 6843878 6840116 6790542
3050.86 6790922 6750409 6769042 6773007 6815173 6831047
3056.65 6901605 6923392 6993140 7044595 7173995 7256800
3062.43 7380934 7454854 7564079 7640234 7775541 7861104
3068.22 7989523 8069633 8172105 8237345 8342440 8400351
3074.00 8453827 8449552 8535440 8554567 8553976 8491675
3079.79 8481321 8434078 8448070 8578199 8686662 8550755
3085.57 8582180 8638479 8552442 8342615 8196811 8008661
3091.36 7874940 7709129 7544754 7321071 7111812 6889733
3097.14 6714165 6512833 6379065 6169905 6013070 5816511
3102.93 5677026 5513911 5361819 5211872 5114007 4999869
3108.72 4921776 4803945 4728625 4627788 4546922 4473285
3114.50 4437329 4395112 4367666 4295976 4311986 4269109
3120.29 4248868 4246242 4273404 4258891 4281338 4298772
3126.07 4330964 4345391 4402213 4441559 4497049 4523034
3131.86 4576135 4623155 4713220 4759953 4813400 4880988
3137.64 5004879 5057022 5146714 5225614 5309912 5329691
3143.43 5383948 5422748 5480223 5533937 5645466 5732519
3149.21 5815558 5897091 6028612 6140283 6273798 6377453
3155.00 6532989 6672303 6803970 6924782 7046433 7106437
3160.78 7156593 7159265 7187505 7229655 7313492 7412745
3166.57 7585764 7763985 7925538 7965004 8045337 8073745
3172.36 8092517 8128977 8171674 8038291 7947698 7849984
3178.14 7674190 7468624 7347298 7286650 7302691 7442896
3183.93 7614126 7634777 7687951 7739480 7547055 7160087
3189.71 6911998 6714154 6528592 6362556 6228442 6070193
3195.50 5941020 5779185 5689060 5575071 5473768 5360818
3201.28 5276910 5215871 5114135 4998402 4952841 4820885
3207.07 4732551 4657173 4626173 4574683 4577965 4524827
3212.85 4464863 4431744 4421760 4391813 4409697 4393502
3218.64 4430813 4477137 4514796 4531981 4504101 4455410
3224.42 4415553 4330271 4237098 4072629 3909897 3723531
3230.21 3559141 3420692 3374385 3351152 3332073 3278031
3236.00 3281673 3248356 3174347 3084807 3005819 2903095
3241.78 2803689 2661971 2522829 2367103 2228396 2077890
3247.57 1954250 1828460 1699095 1543048 1454730 1369534
3253.35 1307592 1205826 1129578 1044040 978336 906615
3259.14 896874 864381 807401 760670 747412 713934
3264.92 715825 716470 726084 691751 706508 690361
3270.71 680739 682456 731801 726785 719769 729370
3276.49 742791 720183 743247 725399 721665 727093
3282.28 744104 765397 802079 818798 795725 778674
3288.06 812126 794310 766886 737201 735385 739972
3293.85 749800 725627 719236 700891 717423 723401
3299.64 729766 672998 637063 615467 603777 570914
3305.42 553014 523694 540201 527284 523971 503979
3311.21 492358 452747 432756 409990 417638 401935
3316.99 412371 418614 421300 413171 402402 378353
3322.78 382740 368681 425741 434645 431985 444228
3328.56 457408 464074 498396 503189 517560 511259
3334.35 558322 600469 602891 580473 603650 620500
3340.13 610345 630902 717085 713390 688573 678495
3345.92 720036 737297 739532 733128 768455 759744
3351.70 762480 780044 792036 783955 807236 799683
3357.49 823225 802834 781474 782188 809030 820435
3363.28 810647 795624 813582 842577 858103 826953
3369.06 836923 800835 796388 827878 874444 870359
3374.85 894948 953895 980658 967713 970969 988512
3380.63 1050534 1061991 1107178 1151099 1171635 1190839
3386.42 1236912 1241124 1243116 1247325 1278640 1307509
3392.20 1359571 1351063 1346012 1340399 1348830 1324740
3397.99 1296016 1244427 1200458 1191155 1208308 1209886
3403.77 1207983 1168428 1152874 1094905 1042536 1013944
3409.56 1012081 1002437 981420 902502 843584 792271
3415.34 740564 681207 615265 542340 504204 428737
3421.13 378891 348281 328398 313150 301575 252351
3426.92 253554 228314 232193 250975 251635 210639
3432.70 194183 175310 174758 160600 189617 179095
3438.49 162827 150305 160398 131736 146323 108147
3444.27 95795 100030 102404 91262 123621 134785
3450.06 138805 116172 62026 51985 74403 49573
3455.84 45183 52973 91205 83829 73626 63104
3461.63 79212 103088 103971 71142 64518 72636
3467.41 61833 74454 92346 80400 79851 86700
3473.20 95210 70897 61506 72617 100084 112164
3478.98 114826 123525 146535 107803 83743 80989
3484.77 120694 125467 119929 93289 100973 85501
3490.56 61784 54521 86807 100353 114588 112951
3496.34 80415 65400 101564 75595 79321 98703
3502.13 101454 95875 120954 95325 68013 65474
3507.91 84289 51846 28902 26320 58985 65830
3513.70 46950-2744-2971 1636 30017 20702
3519.48 15811 17650 25480-1741-13794-21828
3525.27-26530-14350-25189-16924 35931 16176
3531.05-50039-62894-31415-26012-3102-23295
3536.84-3137-11196-16457-12253 7779-22004
3542.62-24160-17025 11823 15981 21171 30119
3548.41 11532-5768 802 3555 22513 4910
3554.20 13682 37323 22928 5628 24605 28061
3559.98 53874 85080 75553 69401 96115 103310
3565.77 121733 143378 163589 132119 110309 96751
3571.55 102688 110460 135429 133392 141535 188376
3577.34 187564 189627 208210 194464 200141 198850
3583.12 212464 217061 264621 268411 289404 334294
3588.91 307372 264666 297227 336481 347605 337794
3594.69 353689 350628 366637 366957 403456 447686
3600.48 472172 431469 424396 444144 474066 503116
3606.26 537836 544764 567570 563802 583916 622532
3612.05 656196 656663 655707 642605 652792 673612
3617.84 733918 756355 735923 732808 747163 739061
3623.62 730207 758788 806442 834951 867905 874711
3629.41 843502 803366 773251 761765 777202 743780
3635.19 757763 805358 868272 864114 878869 896562
3640.98 887231 875695 878050 884960 886153 906336
3646.76 922463 962985 995003 949177 923532 874496
3652.55 874874 860192 862338 856764 830799 829602
3658.33 857996 851168 851497 859928 857608 858047
3664.12 866516 859712 860304 897290 938729 983760
3669.90 1004013 918396 907654 933106 1003585 1076411
3675.69 1066683 1020804 1042817 1044354 1044210 1024928
3681.48 1074289 1115719 1139007 1107987 1102214 1134324
3687.26 1253274 1223239 1129763 1119980 1105000 1065616
3693.05 1074723 1081676 1088368 1045615 1047579 1060304
3698.83 1072941 1115004 1173539 1154861 1131656 1113518
3704.62 1126397 1130651 1114733 1120341 1145844 1145809
3710.40 1241210 1300558 1260998 1247158 1291641 1341094
3716.19 1372422 1345349 1326698 1324177 1330507 1347547
3721.97 1371265 1360104 1325414 1323174 1368170 1347439
3727.76 1316071 1306970 1342912 1404903 1426200 1393710
3733.54 1411593 1394335 1410011 1339874 1285426 1242366
3739.33 1204609 1143425 1075813 1076392 1159425 1079923
3745.12 916452 846434 843461 932448 900828 801312
3750.90 869713 823487 709608 643863 647895 692815
3756.69 689864 671434 703127 697771 654614 609404
3762.47 611611 616338 634514 596430 572156 603401
3768.26 637198 611452 582773 583437 571577 550028
3774.04 546475 559399 581458 604975 632995 620671
3779.83 587408 578099 581426 598647 602829 568770
3785.61 553569 562049 551627 528478 558912 554791
3791.40 529754 531140 526555 536009 574714 573410
3797.18 550378 541746 576438 679652 683816 575635
3802.97 535523 537761 585108 630623 594336 537192
3808.76 566591 584313 582028 574020 596665 629971
3814.54 732553 756731 683627 653065 669818 730904
3820.33 763587 715345 711323 736759 773788 811664
3826.11 841829 843718 873487 905290 989110 1062708
3831.90 1085875 1128886 1241362 1284655 1335469 1502500
3837.68 1536884 1528111 1590532 1600126 1598841 1666303
3843.47 1744624 1755147 1765958 1778036 1815460 1815821
3849.25 1815031 1903994 2058625 2104058 2191050 2115438
3855.04 2040492 2051921 2076562 2044747 2017906 1996351
3860.82 1962231 1859268 1798436 1815039 1756470 1637764
3866.61 1611581 1647507 1697933 1632922 1562179 1520915
3872.40 1496273 1493621 1473422 1454823 1433744 1407194
3878.18 1419372 1418463 1378589 1316584 1275062 1240606
3883.97 1266653 1275803 1232864 1192104 1156868 1149091
3889.75 1172974 1158528 1124866 1119458 1093113 1078436
3895.54 1077741 1055821 1064470 1085875 1056632 1041562
3901.32 1030666 1015111 1039847 966205 929223 924038
3907.11 915836 884156 889567 896477 867570 842109
3912.89 849036 825295 819910 824143 841175 832064
3918.68 821312 780124 788509 786588 763557 735267
3924.46 713583 705070 713865 695930 703089 693774
3930.25 678445 688150 705475 680795 663646 648755
3936.04 646501 603039 579689 602201 609603 609454
3941.82 615824 593784 590064 560347 570731 581112
3947.61 557344 530185 529455 497538 508941 542764
3953.39 546648 548659 532644 514352 514387 502214
3959.18 513038 513840 512726 517588 535366 510097
3964.96 519677 538745 542897 518939 528984 568519
3970.75 575856 583615 599509 593332
##END=
