##TITLE=Aniline, p-bromo
##JCAMP-DX=4.24
##DATA TYPE=INFRARED SPECTRUM
##CLASS=COBLENTZ III
##ORIGIN=WYANDOTTE CHEMICALS CORP..
##OWNER=Copyright (C) 1987 by the Coblentz Society
Collection (C) 2018 copyright by the U.S. Secretary of Commerce
on behalf of the United States of America. All rights reserved.
##DATE=Not specified, most likely prior to 1970
##NAMES=4-bromophenylamine
4-bromoaniline
##CAS REGISTRY NO=106-40-1
##MOLFORM=C6 H6 Br N
##MP=62-64 C
##SOURCE REFERENCE=COBLENTZ NO. 7453
##$NIST SOURCE=COBLENTZ
##$NIST IMAGE=cob7453
##SPECTROMETER/DATA SYSTEM=BAIRD (GRATING)
##INSTRUMENT PARAMETERS=NaCl PRISM
##STATE=SOLUTION (CCl4 FOR 2-10.2, CS2 FOR 9.8-16 MICRON) VS SOLVENT
##PATH LENGTH=0.01 CM, AND 0.01 CM , REFERENCES : 0.005 CM
$$SPECTRAL CONTAMINATION DUE TO CS2 AROUND 850 AND CCl4 AROUND 1550 CM^-^1
##SAMPLING PROCEDURE=TRANSMISSION
##RESOLUTION=2
##DATA PROCESSING=DIGITIZED BY COBLENTZ SOCIETY (BATCH II) FROM HARD COPY
##XUNITS=1/CM
##YUNITS=TRANSMITTANCE
##XFACTOR=1.0
##YFACTOR=1
##FIRSTX=626
##LASTX=4000
##FIRSTY=0.6339
##MAXX=4000
##MINX=626
##MAXY=0.9688
##MINY=0.0395
##NPOINTS=3375
##XYDATA=(X++(Y..Y))
626.000000 0.6339 0.6288 0.6232 0.6165 0.6097
631.000000 0.6024 0.5951 0.5879 0.5832 0.5786
636.000000 0.5740 0.5695 0.5649 0.5612 0.5578
641.000000 0.5543 0.5510 0.5476 0.5442 0.5408
646.000000 0.5375 0.5341 0.5307 0.5273 0.5238
651.000000 0.5205 0.5173 0.5159 0.5147 0.5134
656.000000 0.5121 0.5116 0.5131 0.5146 0.5162
661.000000 0.5177 0.5143 0.5095 0.5024 0.4931
666.000000 0.4838 0.4762 0.4704 0.4679 0.4655
671.000000 0.4631 0.4616 0.4602 0.4587 0.4574
676.000000 0.4559 0.4546 0.4543 0.4539 0.4536
681.000000 0.4533 0.4529 0.4527 0.4527 0.4527
686.000000 0.4526 0.4526 0.4552 0.4578 0.4616
691.000000 0.4659 0.4688 0.4710 0.4736 0.4763
696.000000 0.4790 0.4803 0.4813 0.4822 0.4833
701.000000 0.4842 0.4846 0.4847 0.4848 0.4855
706.000000 0.4872 0.4889 0.4906 0.4923 0.4940
711.000000 0.4960 0.4981 0.5002 0.5023 0.5044
716.000000 0.5065 0.5086 0.5107 0.5127 0.5148
721.000000 0.5168 0.5189 0.5209 0.5229 0.5249
726.000000 0.5266 0.5282 0.5299 0.5316 0.5334
731.000000 0.5352 0.5368 0.5386 0.5403 0.5420
736.000000 0.5437 0.5454 0.5471 0.5485 0.5499
741.000000 0.5513 0.5528 0.5541 0.5556 0.5569
746.000000 0.5584 0.5597 0.5612 0.5581 0.5642
751.000000 0.5659 0.5675 0.5691 0.5697 0.5695
756.000000 0.5694 0.5693 0.5692 0.5690 0.5688
761.000000 0.5679 0.5668 0.5658 0.5648 0.5637
766.000000 0.5627 0.5613 0.5598 0.5584 0.5570
771.000000 0.5555 0.5535 0.5514 0.5493 0.5473
776.000000 0.5452 0.5431 0.5405 0.5373 0.5341
781.000000 0.5309 0.5260 0.5197 0.5134 0.5071
786.000000 0.4956 0.4814 0.4648 0.4430 0.4181
791.000000 0.3932 0.3683 0.3435 0.3188 0.2942
796.000000 0.2696 0.2451 0.2206 0.1962 0.1719
801.000000 0.1476 0.1219 0.0942 0.0778 0.0654
806.000000 0.0563 0.0494 0.0443 0.0419 0.0402
811.000000 0.0397 0.0395 0.0413 0.0430 0.0450
816.000000 0.0473 0.0496 0.0537 0.0584 0.0646
821.000000 0.0722 0.0808 0.0942 0.1108 0.1274
826.000000 0.1440 0.1605 0.1770 0.1934 0.2098
831.000000 0.2261 0.2425 0.2588 0.2740 0.2942
836.000000 0.3155 0.3354 0.3517 0.3681 0.3845
841.000000 0.4008 0.4157 0.4291 0.4410 0.4508
846.000000 0.4605 0.4698 0.4790 0.4869 0.4948
851.000000 0.5026 0.5104 0.5176 0.5243 0.5309
856.000000 0.5376 0.5443 0.5515 0.5586 0.5658
861.000000 0.5728 0.5794 0.5859 0.5924 0.5989
866.000000 0.6054 0.6119 0.6183 0.6247 0.6311
871.000000 0.6373 0.6437 0.6499 0.6563 0.6624
876.000000 0.6685 0.6745 0.6800 0.6854 0.6907
881.000000 0.6953 0.6994 0.7033 0.7061 0.7076
886.000000 0.7091 0.7106 0.7121 0.7133 0.7139
891.000000 0.7145 0.7150 0.7155 0.7160 0.7157
896.000000 0.7154 0.7151 0.7158 0.7182 0.7204
901.000000 0.7221 0.7238 0.7250 0.7248 0.7245
906.000000 0.7241 0.7232 0.7221 0.7210 0.7185
911.000000 0.7158 0.7128 0.7095 0.7062 0.7029
916.000000 0.6996 0.6973 0.6965 0.6958 0.6963
921.000000 0.6976 0.7008 0.7035 0.7077 0.7119
926.000000 0.7159 0.7189 0.7219 0.7248 0.7267
931.000000 0.7287 0.7306 0.7324 0.7342 0.7360
936.000000 0.7377 0.7394 0.7411 0.7427 0.7446
941.000000 0.7492 0.7542 0.7591 0.7639 0.7677
946.000000 0.7705 0.7731 0.7751 0.7771 0.7791
951.000000 0.7811 0.7830 0.7849 0.7868 0.7886
956.000000 0.7905 0.7923 0.7937 0.7951 0.7965
961.000000 0.7978 0.7986 0.7988 0.7990 0.7992
966.000000 0.7994 0.7995 0.7988 0.7990 0.7989
971.000000 0.7986 0.7984 0.7972 0.7958 0.7944
976.000000 0.7931 0.7917 0.7901 0.7870 0.7840
981.000000 0.7809 0.7769 0.7721 0.7652 0.7580
986.000000 0.7510 0.7433 0.7340 0.7246 0.7154
991.000000 0.7030 0.6871 0.6712 0.6531 0.6330
996.000000 0.6130 0.5899 0.5632 0.5160 0.4607
1001.000000 0.4097 0.3589 0.3082 0.2576 0.2070
1006.000000 0.1856 0.1834 0.2035 0.2559 0.3092
1011.000000 0.3623 0.4153 0.4684 0.5219 0.6372
1016.000000 0.6745 0.6981 0.7174 0.7319 0.7511
1021.000000 0.7717 0.7874 0.7981 0.8066 0.8140
1026.000000 0.8172 0.8203 0.8235 0.8258 0.8271
1031.000000 0.8284 0.8297 0.8310 0.8322 0.8328
1036.000000 0.8334 0.8340 0.8346 0.8384 0.8351
1041.000000 0.8347 0.8343 0.8339 0.8334 0.8324
1046.000000 0.8312 0.8299 0.8276 0.8247 0.8199
1051.000000 0.8142 0.8084 0.7982 0.7864 0.7751
1056.000000 0.7641 0.7531 0.7419 0.7305 0.7192
1061.000000 0.7078 0.6951 0.6793 0.6633 0.6475
1066.000000 0.6178 0.5886 0.5679 0.4986 0.4369
1071.000000 0.3754 0.3140 0.2527 0.1914 0.1515
1076.000000 0.1509 0.1916 0.2758 0.3599 0.4438
1081.000000 0.5276 0.6112 0.6924 0.7271 0.7363
1086.000000 0.7433 0.7450 0.7466 0.7469 0.7472
1091.000000 0.7467 0.7487 0.7454 0.7446 0.7439
1096.000000 0.7432 0.7420 0.7409 0.7397 0.7373
1101.000000 0.7344 0.7315 0.7284 0.7238 0.7190
1106.000000 0.7143 0.7096 0.7046 0.6995 0.6901
1111.000000 0.6797 0.6689 0.6562 0.6434 0.6303
1116.000000 0.6165 0.6028 0.5883 0.5702 0.5519
1121.000000 0.5358 0.5218 0.5150 0.5104 0.5095
1126.000000 0.5133 0.5412 0.5824 0.6236 0.6646
1131.000000 0.7021 0.7192 0.7342 0.7477 0.7603
1136.000000 0.7685 0.7763 0.7839 0.7916 0.7987
1141.000000 0.8034 0.8081 0.8127 0.8148 0.8164
1146.000000 0.8181 0.8188 0.8147 0.8172 0.8164
1151.000000 0.8149 0.8135 0.8120 0.8106 0.8092
1156.000000 0.8072 0.8046 0.8009 0.7967 0.7925
1161.000000 0.7878 0.7812 0.7741 0.7642 0.7532
1166.000000 0.7421 0.7309 0.7180 0.6949 0.6691
1171.000000 0.6198 0.5527 0.4859 0.4191 0.3524
1176.000000 0.2867 0.2606 0.2632 0.3620 0.4644
1181.000000 0.5668 0.6689 0.7708 0.8078 0.8166
1186.000000 0.8210 0.8246 0.8254 0.8259 0.8261
1191.000000 0.8257 0.8248 0.8238 0.8223 0.8205
1196.000000 0.8187 0.8164 0.8140 0.8116 0.8087
1201.000000 0.8052 0.8016 0.7979 0.7941 0.7899
1206.000000 0.7857 0.7814 0.7772 0.7729 0.7687
1211.000000 0.7647 0.7619 0.7594 0.7569 0.7544
1216.000000 0.7528 0.7526 0.7523 0.7520 0.7518
1221.000000 0.7516 0.7513 0.7511 0.7507 0.7504
1226.000000 0.7501 0.7497 0.7493 0.7490 0.7486
1231.000000 0.7474 0.7433 0.7393 0.7352 0.7304
1236.000000 0.7249 0.7193 0.7138 0.7059 0.6962
1241.000000 0.6866 0.6747 0.6618 0.6490 0.6356
1246.000000 0.6206 0.6056 0.5907 0.5774 0.5643
1251.000000 0.5511 0.5381 0.5253 0.5128 0.5002
1256.000000 0.4876 0.4721 0.4555 0.4394 0.4254
1261.000000 0.4116 0.3839 0.3483 0.3129 0.2775
1266.000000 0.2422 0.2070 0.1717 0.1383 0.1179
1271.000000 0.1030 0.0901 0.0789 0.0668 0.0547
1276.000000 0.0500 0.0464 0.0458 0.0466 0.0458
1281.000000 0.0466 0.0480 0.0496 0.0524 0.0629
1286.000000 0.0823 0.1003 0.1095 0.1344 0.1610
1291.000000 0.1876 0.2141 0.2405 0.2670 0.2934
1296.000000 0.3197 0.3461 0.3723 0.3986 0.4248
1301.000000 0.4509 0.4779 0.5156 0.5373 0.5538
1306.000000 0.5715 0.5906 0.6089 0.6283 0.6515
1311.000000 0.6904 0.7119 0.7263 0.7356 0.7450
1316.000000 0.7545 0.7645 0.7744 0.7839 0.7928
1321.000000 0.8018 0.8107 0.8236 0.8375 0.8510
1326.000000 0.8615 0.8717 0.8820 0.8894 0.8947
1331.000000 0.8997 0.9034 0.9068 0.9089 0.9099
1336.000000 0.9108 0.9115 0.9123 0.9131 0.9138
1341.000000 0.9146 0.9153 0.9161 0.9169 0.9176
1346.000000 0.9181 0.9185 0.9189 0.9192 0.9196
1351.000000 0.9200 0.9203 0.9207 0.9209 0.9210
1356.000000 0.9226 0.9214 0.9216 0.9217 0.9216
1361.000000 0.9211 0.9207 0.9201 0.9197 0.9192
1366.000000 0.9185 0.9176 0.9167 0.9158 0.9148
1371.000000 0.9139 0.9130 0.9120 0.9109 0.9098
1376.000000 0.9087 0.9076 0.9065 0.9056 0.9047
1381.000000 0.9037 0.9028 0.9020 0.9017 0.9017
1386.000000 0.9015 0.9015 0.9014 0.9013 0.9012
1391.000000 0.9012 0.9011 0.9010 0.9005 0.8996
1396.000000 0.8986 0.8976 0.8966 0.8954 0.8940
1401.000000 0.8926 0.8912 0.8897 0.8883 0.8866
1406.000000 0.8843 0.8821 0.8791 0.8744 0.8696
1411.000000 0.8634 0.8556 0.8477 0.8400 0.8321
1416.000000 0.8223 0.8089 0.7955 0.7827 0.7680
1421.000000 0.7519 0.7358 0.7197 0.7038 0.6878
1426.000000 0.6718 0.6558 0.6400 0.6240 0.6114
1431.000000 0.6092 0.6082 0.6330 0.6580 0.6831
1436.000000 0.7080 0.7331 0.7580 0.7829 0.8078
1441.000000 0.8326 0.8574 0.8773 0.8848 0.8867
1446.000000 0.8883 0.8897 0.8906 0.8910 0.8914
1451.000000 0.8900 0.8919 0.8912 0.8903 0.8889
1456.000000 0.8875 0.8859 0.8834 0.8810 0.8788
1461.000000 0.8767 0.8747 0.8719 0.8683 0.8642
1466.000000 0.8591 0.8535 0.8480 0.8424 0.8367
1471.000000 0.8309 0.8253 0.8197 0.8142 0.8087
1476.000000 0.8033 0.7976 0.7898 0.7801 0.7704
1481.000000 0.7606 0.7325 0.6044 0.5622 0.5200
1486.000000 0.4779 0.4359 0.3939 0.3519 0.3100
1491.000000 0.2681 0.2264 0.1846 0.1429 0.1081
1496.000000 0.0966 0.0933 0.0933 0.0933 0.0945
1501.000000 0.0957 0.0974 0.0999 0.1051 0.1292
1506.000000 0.1592 0.1895 0.2197 0.2498 0.2799
1511.000000 0.3101 0.3401 0.3701 0.4001 0.4300
1516.000000 0.4599 0.4897 0.5195 0.5486 0.5694
1521.000000 0.5753 0.5812 0.5867 0.5920 0.5971
1526.000000 0.6008 0.6039 0.6069 0.6100 0.6118
1531.000000 0.6126 0.6132 0.6133 0.6133 0.6129
1536.000000 0.6122 0.6115 0.6108 0.6101 0.6093
1541.000000 0.6086 0.6080 0.6079 0.6079 0.6079
1546.000000 0.6079 0.6080 0.6084 0.6086 0.6089
1551.000000 0.6091 0.6094 0.6096 0.6101 0.6106
1556.000000 0.6111 0.6117 0.6122 0.6128 0.6133
1561.000000 0.6138 0.6147 0.6159 0.6170 0.6182
1566.000000 0.6196 0.6214 0.6235 0.6255 0.6270
1571.000000 0.6283 0.6296 0.6309 0.6318 0.6319
1576.000000 0.6317 0.6315 0.6309 0.6303 0.6296
1581.000000 0.6289 0.6280 0.6267 0.6253 0.6232
1586.000000 0.6201 0.6165 0.6130 0.6088 0.6037
1591.000000 0.5984 0.5927 0.5865 0.5803 0.5722
1596.000000 0.5609 0.5479 0.5340 0.5059 0.4681
1601.000000 0.4327 0.3973 0.3620 0.3267 0.2914
1606.000000 0.2562 0.2210 0.1939 0.1888 0.1914
1611.000000 0.2005 0.2101 0.2197 0.2290 0.2359
1616.000000 0.2362 0.2364 0.2264 0.2111 0.1952
1621.000000 0.1793 0.1635 0.1476 0.1318 0.1161
1626.000000 0.1003 0.0845 0.0743 0.0732 0.0735
1631.000000 0.0739 0.0753 0.0810 0.1065 0.1318
1636.000000 0.1573 0.1826 0.2080 0.2333 0.2585
1641.000000 0.2838 0.3090 0.3342 0.3593 0.3845
1646.000000 0.4096 0.4347 0.4596 0.4846 0.5096
1651.000000 0.5346 0.5595 0.5843 0.6092 0.6340
1656.000000 0.6588 0.6835 0.7083 0.7330 0.7577
1661.000000 0.7696 0.7772 0.7905 0.7983 0.8022
1666.000000 0.8062 0.8128 0.8246 0.8353 0.8406
1671.000000 0.8459 0.8525 0.8613 0.8707 0.8773
1676.000000 0.8814 0.8855 0.8895 0.8935 0.8974
1681.000000 0.9005 0.9033 0.9062 0.9090 0.9115
1686.000000 0.9140 0.9165 0.9189 0.9213 0.9227
1691.000000 0.9239 0.9250 0.9260 0.9271 0.9281
1696.000000 0.9281 0.9282 0.9283 0.9285 0.9286
1701.000000 0.9287 0.9288 0.9289 0.9290 0.9290
1706.000000 0.9289 0.9288 0.9287 0.9286 0.9285
1711.000000 0.9285 0.9284 0.9282 0.9279 0.9275
1716.000000 0.9272 0.9269 0.9265 0.9261 0.9257
1721.000000 0.9253 0.9249 0.9244 0.9239 0.9235
1726.000000 0.9231 0.9226 0.9221 0.9217 0.9213
1731.000000 0.9213 0.9214 0.9215 0.9216 0.9218
1736.000000 0.9218 0.9219 0.9221 0.9222 0.9224
1741.000000 0.9229 0.9235 0.9240 0.9246 0.9252
1746.000000 0.9258 0.9263 0.9269 0.9275 0.9283
1751.000000 0.9292 0.9301 0.9309 0.9318 0.9327
1756.000000 0.9336 0.9345 0.9353 0.9362 0.9371
1761.000000 0.9381 0.9390 0.9399 0.9409 0.9418
1766.000000 0.9428 0.9437 0.9446 0.9456 0.9462
1771.000000 0.9466 0.9469 0.9472 0.9476 0.9480
1776.000000 0.9483 0.9485 0.9485 0.9484 0.9482
1781.000000 0.9481 0.9480 0.9479 0.9477 0.9476
1786.000000 0.9475 0.9473 0.9472 0.9470 0.9468
1791.000000 0.9466 0.9464 0.9462 0.9461 0.9459
1796.000000 0.9456 0.9455 0.9453 0.9451 0.9449
1801.000000 0.9446 0.9442 0.9437 0.9432 0.9428
1806.000000 0.9423 0.9418 0.9413 0.9408 0.9404
1811.000000 0.9399 0.9395 0.9390 0.9386 0.9379
1816.000000 0.9372 0.9363 0.9355 0.9347 0.9338
1821.000000 0.9329 0.9321 0.9313 0.9298 0.9276
1826.000000 0.9254 0.9232 0.9210 0.9185 0.9151
1831.000000 0.9116 0.9081 0.9046 0.9010 0.8975
1836.000000 0.8940 0.8905 0.8871 0.8836 0.8803
1841.000000 0.8769 0.8735 0.8701 0.8667 0.8633
1846.000000 0.8599 0.8566 0.8532 0.8497 0.8462
1851.000000 0.8427 0.8392 0.8357 0.8329 0.8304
1856.000000 0.8282 0.8259 0.8242 0.8230 0.8228
1861.000000 0.8226 0.8226 0.8221 0.8230 0.8235
1866.000000 0.8258 0.8317 0.8432 0.8552 0.8670
1871.000000 0.8789 0.8907 0.9010 0.9080 0.9124
1876.000000 0.9177 0.9235 0.9276 0.9315 0.9353
1881.000000 0.9387 0.9407 0.9425 0.9443 0.9462
1886.000000 0.9481 0.9498 0.9511 0.9523 0.9535
1891.000000 0.9547 0.9558 0.9570 0.9582 0.9594
1896.000000 0.9603 0.9610 0.9614 0.9617 0.9621
1901.000000 0.9624 0.9628 0.9632 0.9635 0.9637
1906.000000 0.9638 0.9640 0.9641 0.9642 0.9644
1911.000000 0.9646 0.9647 0.9649 0.9650 0.9652
1916.000000 0.9653 0.9654 0.9656 0.9657 0.9657
1921.000000 0.9658 0.9659 0.9659 0.9660 0.9661
1926.000000 0.9661 0.9662 0.9663 0.9663 0.9664
1931.000000 0.9665 0.9665 0.9665 0.9666 0.9667
1936.000000 0.9667 0.9667 0.9665 0.9664 0.9663
1941.000000 0.9661 0.9660 0.9659 0.9657 0.9655
1946.000000 0.9654 0.9653 0.9651 0.9650 0.9649
1951.000000 0.9647 0.9646 0.9645 0.9643 0.9642
1956.000000 0.9641 0.9640 0.9639 0.9638 0.9637
1961.000000 0.9635 0.9635 0.9634 0.9632 0.9631
1966.000000 0.9630 0.9629 0.9628 0.9627 0.9626
1971.000000 0.9624 0.9623 0.9623 0.9623 0.9624
1976.000000 0.9624 0.9625 0.9626 0.9626 0.9627
1981.000000 0.9627 0.9627 0.9628 0.9628 0.9629
1986.000000 0.9630 0.9630 0.9631 0.9632 0.9632
1991.000000 0.9633 0.9633 0.9634 0.9635 0.9635
1996.000000 0.9635 0.9636 0.9636 0.9637 0.9638
2001.000000 0.9638 0.9638 0.9638 0.9639 0.9640
2006.000000 0.9640 0.9641 0.9641 0.9642 0.9643
2011.000000 0.9644 0.9645 0.9646 0.9646 0.9647
2016.000000 0.9647 0.9649 0.9650 0.9650 0.9651
2021.000000 0.9651 0.9652 0.9653 0.9654 0.9655
2026.000000 0.9656 0.9656 0.9657 0.9657 0.9658
2031.000000 0.9660 0.9660 0.9661 0.9662 0.9663
2036.000000 0.9664 0.9665 0.9666 0.9666 0.9668
2041.000000 0.9669 0.9669 0.9670 0.9670 0.9672
2046.000000 0.9673 0.9673 0.9674 0.9674 0.9674
2051.000000 0.9672 0.9671 0.9670 0.9670 0.9669
2056.000000 0.9667 0.9666 0.9665 0.9664 0.9663
2061.000000 0.9662 0.9660 0.9659 0.9658 0.9657
2066.000000 0.9656 0.9654 0.9653 0.9652 0.9651
2071.000000 0.9650 0.9649 0.9647 0.9646 0.9645
2076.000000 0.9644 0.9643 0.9642 0.9641 0.9639
2081.000000 0.9638 0.9637 0.9636 0.9635 0.9634
2086.000000 0.9633 0.9632 0.9631 0.9630 0.9630
2091.000000 0.9629 0.9629 0.9627 0.9626 0.9626
2096.000000 0.9625 0.9625 0.9624 0.9623 0.9622
2101.000000 0.9621 0.9621 0.9620 0.9619 0.9618
2106.000000 0.9618 0.9617 0.9616 0.9615 0.9615
2111.000000 0.9615 0.9615 0.9615 0.9615 0.9615
2116.000000 0.9615 0.9614 0.9614 0.9614 0.9614
2121.000000 0.9614 0.9614 0.9614 0.9614 0.9614
2126.000000 0.9614 0.9614 0.9614 0.9614 0.9614
2131.000000 0.9614 0.9614 0.9614 0.9636 0.9614
2136.000000 0.9614 0.9614 0.9614 0.9615 0.9616
2141.000000 0.9617 0.9617 0.9618 0.9618 0.9619
2146.000000 0.9621 0.9621 0.9622 0.9623 0.9624
2151.000000 0.9624 0.9625 0.9626 0.9627 0.9627
2156.000000 0.9628 0.9628 0.9628 0.9628 0.9628
2161.000000 0.9628 0.9628 0.9628 0.9628 0.9628
2166.000000 0.9628 0.9628 0.9628 0.9628 0.9628
2171.000000 0.9628 0.9628 0.9628 0.9628 0.9628
2176.000000 0.9628 0.9628 0.9627 0.9627 0.9627
2181.000000 0.9629 0.9630 0.9632 0.9633 0.9634
2186.000000 0.9636 0.9637 0.9638 0.9639 0.9641
2191.000000 0.9642 0.9643 0.9644 0.9643 0.9642
2196.000000 0.9641 0.9640 0.9639 0.9638 0.9637
2201.000000 0.9636 0.9634 0.9632 0.9628 0.9623
2206.000000 0.9618 0.9613 0.9609 0.9604 0.9599
2211.000000 0.9594 0.9588 0.9584 0.9579 0.9574
2216.000000 0.9569 0.9564 0.9559 0.9554 0.9550
2221.000000 0.9546 0.9542 0.9539 0.9535 0.9532
2226.000000 0.9528 0.9525 0.9522 0.9519 0.9515
2231.000000 0.9512 0.9508 0.9504 0.9501 0.9498
2236.000000 0.9495 0.9492 0.9489 0.9487 0.9485
2241.000000 0.9483 0.9482 0.9480 0.9479 0.9477
2246.000000 0.9475 0.9473 0.9472 0.9470 0.9468
2251.000000 0.9466 0.9465 0.9463 0.9462 0.9460
2256.000000 0.9458 0.9456 0.9455 0.9454 0.9452
2261.000000 0.9450 0.9448 0.9446 0.9444 0.9442
2266.000000 0.9440 0.9438 0.9436 0.9434 0.9432
2271.000000 0.9430 0.9428 0.9426 0.9423 0.9421
2276.000000 0.9421 0.9421 0.9429 0.9436 0.9444
2281.000000 0.9451 0.9459 0.9466 0.9473 0.9480
2286.000000 0.9487 0.9494 0.9504 0.9515 0.9527
2291.000000 0.9539 0.9552 0.9565 0.9579 0.9594
2296.000000 0.9609 0.9625 0.9639 0.9648 0.9657
2301.000000 0.9664 0.9671 0.9678 0.9685 0.9687
2306.000000 0.9688 0.9688 0.9688 0.9687 0.9687
2311.000000 0.9686 0.9686 0.9685 0.9685 0.9684
2316.000000 0.9683 0.9682 0.9680 0.9678 0.9674
2321.000000 0.9670 0.9666 0.9662 0.9658 0.9655
2326.000000 0.9651 0.9647 0.9643 0.9639 0.9635
2331.000000 0.9632 0.9628 0.9624 0.9620 0.9616
2336.000000 0.9612 0.9607 0.9602 0.9596 0.9591
2341.000000 0.9585 0.9580 0.9574 0.9568 0.9562
2346.000000 0.9556 0.9551 0.9545 0.9539 0.9533
2351.000000 0.9528 0.9523 0.9517 0.9511 0.9505
2356.000000 0.9500 0.9495 0.9489 0.9484 0.9478
2361.000000 0.9472 0.9467 0.9461 0.9456 0.9450
2366.000000 0.9445 0.9440 0.9434 0.9429 0.9424
2371.000000 0.9418 0.9412 0.9410 0.9407 0.9405
2376.000000 0.9403 0.9401 0.9400 0.9398 0.9397
2381.000000 0.9395 0.9394 0.9392 0.9390 0.9388
2386.000000 0.9387 0.9386 0.9384 0.9382 0.9381
2391.000000 0.9379 0.9377 0.9377 0.9377 0.9378
2396.000000 0.9381 0.9384 0.9386 0.9389 0.9391
2401.000000 0.9394 0.9397 0.9399 0.9401 0.9403
2406.000000 0.9406 0.9409 0.9411 0.9414 0.9416
2411.000000 0.9419 0.9422 0.9425 0.9428 0.9430
2416.000000 0.9433 0.9435 0.9438 0.9441 0.9443
2421.000000 0.9446 0.9449 0.9452 0.9455 0.9458
2426.000000 0.9461 0.9465 0.9468 0.9471 0.9474
2431.000000 0.9477 0.9481 0.9484 0.9487 0.9490
2436.000000 0.9493 0.9497 0.9499 0.9502 0.9506
2441.000000 0.9509 0.9512 0.9515 0.9518 0.9522
2446.000000 0.9525 0.9528 0.9530 0.9533 0.9535
2451.000000 0.9538 0.9540 0.9543 0.9545 0.9548
2456.000000 0.9550 0.9552 0.9555 0.9557 0.9560
2461.000000 0.9562 0.9565 0.9567 0.9565 0.9563
2466.000000 0.9560 0.9556 0.9552 0.9549 0.9546
2471.000000 0.9542 0.9538 0.9535 0.9531 0.9527
2476.000000 0.9524 0.9520 0.9517 0.9513 0.9510
2481.000000 0.9506 0.9503 0.9499 0.9495 0.9492
2486.000000 0.9489 0.9485 0.9483 0.9481 0.9480
2491.000000 0.9478 0.9476 0.9475 0.9473 0.9472
2496.000000 0.9470 0.9468 0.9467 0.9466 0.9465
2501.000000 0.9463 0.9461 0.9460 0.9459 0.9459
2506.000000 0.9458 0.9458 0.9457 0.9456 0.9456
2511.000000 0.9455 0.9454 0.9453 0.9453 0.9453
2516.000000 0.9452 0.9451 0.9450 0.9449 0.9449
2521.000000 0.9448 0.9447 0.9446 0.9444 0.9443
2526.000000 0.9439 0.9435 0.9431 0.9426 0.9422
2531.000000 0.9418 0.9414 0.9410 0.9406 0.9402
2536.000000 0.9398 0.9394 0.9390 0.9386 0.9381
2541.000000 0.9377 0.9373 0.9369 0.9366 0.9362
2546.000000 0.9359 0.9356 0.9354 0.9351 0.9348
2551.000000 0.9346 0.9343 0.9340 0.9337 0.9335
2556.000000 0.9332 0.9329 0.9327 0.9324 0.9321
2561.000000 0.9319 0.9316 0.9313 0.9311 0.9308
2566.000000 0.9305 0.9303 0.9300 0.9297 0.9295
2571.000000 0.9293 0.9291 0.9288 0.9285 0.9283
2576.000000 0.9280 0.9277 0.9275 0.9272 0.9269
2581.000000 0.9269 0.9268 0.9268 0.9268 0.9268
2586.000000 0.9267 0.9267 0.9267 0.9267 0.9267
2591.000000 0.9266 0.9266 0.9266 0.9266 0.9266
2596.000000 0.9266 0.9265 0.9265 0.9265 0.9265
2601.000000 0.9265 0.9265 0.9265 0.9265 0.9266
2606.000000 0.9267 0.9268 0.9269 0.9270 0.9271
2611.000000 0.9272 0.9272 0.9273 0.9274 0.9275
2616.000000 0.9276 0.9277 0.9278 0.9279 0.9280
2621.000000 0.9281 0.9282 0.9282 0.9283 0.9284
2626.000000 0.9285 0.9287 0.9288 0.9289 0.9289
2631.000000 0.9290 0.9291 0.9292 0.9293 0.9294
2636.000000 0.9295 0.9296 0.9296 0.9294 0.9293
2641.000000 0.9292 0.9291 0.9290 0.9288 0.9286
2646.000000 0.9283 0.9280 0.9276 0.9274 0.9271
2651.000000 0.9268 0.9265 0.9262 0.9259 0.9257
2656.000000 0.9254 0.9253 0.9256 0.9259 0.9262
2661.000000 0.9265 0.9267 0.9270 0.9273 0.9276
2666.000000 0.9279 0.9283 0.9286 0.9291 0.9295
2671.000000 0.9300 0.9303 0.9307 0.9309 0.9309
2676.000000 0.9309 0.9308 0.9308 0.9307 0.9306
2681.000000 0.9305 0.9305 0.9304 0.9303 0.9303
2686.000000 0.9302 0.9301 0.9301 0.9300 0.9299
2691.000000 0.9299 0.9298 0.9297 0.9296 0.9296
2696.000000 0.9295 0.9294 0.9294 0.9294 0.9293
2701.000000 0.9293 0.9293 0.9292 0.9292 0.9292
2706.000000 0.9291 0.9291 0.9291 0.9290 0.9290
2711.000000 0.9290 0.9289 0.9289 0.9289 0.9288
2716.000000 0.9288 0.9288 0.9287 0.9287 0.9287
2721.000000 0.9286 0.9286 0.9286 0.9285 0.9285
2726.000000 0.9285 0.9284 0.9284 0.9284 0.9283
2731.000000 0.9282 0.9282 0.9281 0.9280 0.9279
2736.000000 0.9278 0.9277 0.9277 0.9276 0.9275
2741.000000 0.9274 0.9273 0.9272 0.9271 0.9270
2746.000000 0.9269 0.9268 0.9267 0.9266 0.9266
2751.000000 0.9265 0.9264 0.9263 0.9262 0.9261
2756.000000 0.9260 0.9259 0.9258 0.9257 0.9256
2761.000000 0.9255 0.9254 0.9253 0.9252 0.9252
2766.000000 0.9251 0.9250 0.9249 0.9248 0.9248
2771.000000 0.9247 0.9247 0.9247 0.9247 0.9247
2776.000000 0.9247 0.9247 0.9248 0.9248 0.9248
2781.000000 0.9249 0.9249 0.9249 0.9249 0.9249
2786.000000 0.9249 0.9249 0.9250 0.9250 0.9250
2791.000000 0.9250 0.9250 0.9250 0.9251 0.9251
2796.000000 0.9251 0.9252 0.9252 0.9252 0.9252
2801.000000 0.9252 0.9252 0.9253 0.9253 0.9253
2806.000000 0.9252 0.9252 0.9252 0.9252 0.9252
2811.000000 0.9252 0.9252 0.9251 0.9251 0.9251
2816.000000 0.9250 0.9250 0.9250 0.9250 0.9250
2821.000000 0.9250 0.9248 0.9244 0.9240 0.9236
2826.000000 0.9229 0.9222 0.9215 0.9207 0.9199
2831.000000 0.9192 0.9183 0.9175 0.9166 0.9158
2836.000000 0.9150 0.9142 0.9134 0.9126 0.9118
2841.000000 0.9110 0.9103 0.9096 0.9089 0.9083
2846.000000 0.9078 0.9072 0.9067 0.9063 0.9058
2851.000000 0.9053 0.9047 0.9042 0.9037 0.9032
2856.000000 0.9026 0.9021 0.9016 0.9011 0.9007
2861.000000 0.9002 0.8997 0.8992 0.8987 0.8984
2866.000000 0.8981 0.8977 0.8974 0.8971 0.8967
2871.000000 0.8964 0.8961 0.8957 0.8954 0.8950
2876.000000 0.8947 0.8943 0.8940 0.8936 0.8933
2881.000000 0.8930 0.8926 0.8923 0.8920 0.8917
2886.000000 0.8913 0.8910 0.8907 0.8903 0.8900
2891.000000 0.8897 0.8893 0.8890 0.8887 0.8884
2896.000000 0.8880 0.8877 0.8875 0.8873 0.8871
2901.000000 0.8870 0.8869 0.8869 0.8868 0.8867
2906.000000 0.8866 0.8865 0.8865 0.8864 0.8864
2911.000000 0.8863 0.8862 0.8861 0.8860 0.8860
2916.000000 0.8859 0.8859 0.8858 0.8857 0.8856
2921.000000 0.8855 0.8855 0.8854 0.8854 0.8854
2926.000000 0.8855 0.8855 0.8856 0.8856 0.8856
2931.000000 0.8857 0.8857 0.8858 0.8858 0.8859
2936.000000 0.8859 0.8859 0.8860 0.8860 0.8861
2941.000000 0.8861 0.8862 0.8862 0.8862 0.8863
2946.000000 0.8863 0.8864 0.8864 0.8865 0.8865
2951.000000 0.8865 0.8866 0.8866 0.8867 0.8867
2956.000000 0.8868 0.8869 0.8869 0.8870 0.8870
2961.000000 0.8871 0.8871 0.8872 0.8873 0.8873
2966.000000 0.8874 0.8874 0.8875 0.8875 0.8876
2971.000000 0.8877 0.8877 0.8878 0.8878 0.8879
2976.000000 0.8879 0.8880 0.8881 0.8882 0.8881
2981.000000 0.8878 0.8874 0.8870 0.8866 0.8862
2986.000000 0.8858 0.8854 0.8850 0.8846 0.8842
2991.000000 0.8838 0.8834 0.8830 0.8827 0.8819
2996.000000 0.8811 0.8803 0.8795 0.8788 0.8780
3001.000000 0.8772 0.8764 0.8756 0.8748 0.8739
3006.000000 0.8726 0.8713 0.8700 0.8686 0.8671
3011.000000 0.8655 0.8640 0.8621 0.8601 0.8581
3016.000000 0.8560 0.8537 0.8514 0.8491 0.8465
3021.000000 0.8438 0.8412 0.8385 0.8350 0.8315
3026.000000 0.8280 0.8244 0.8206 0.8169 0.8131
3031.000000 0.8094 0.8056 0.8019 0.7982 0.7944
3036.000000 0.7907 0.7869 0.7832 0.7795 0.7758
3041.000000 0.7721 0.7684 0.7647 0.7610 0.7573
3046.000000 0.7536 0.7499 0.7461 0.7424 0.7388
3051.000000 0.7351 0.7314 0.7277 0.7240 0.7203
3056.000000 0.7166 0.7129 0.7093 0.7056 0.7020
3061.000000 0.6988 0.6956 0.6924 0.6898 0.6902
3066.000000 0.6903 0.6904 0.6905 0.6907 0.6908
3071.000000 0.6909 0.6918 0.6929 0.6940 0.6951
3076.000000 0.7007 0.7065 0.7122 0.7180 0.7237
3081.000000 0.7294 0.7351 0.7409 0.7466 0.7523
3086.000000 0.7580 0.7638 0.7695 0.7752 0.7809
3091.000000 0.7866 0.7923 0.7980 0.8037 0.8077
3096.000000 0.8116 0.8156 0.8191 0.8200 0.8209
3101.000000 0.8218 0.8227 0.8236 0.8246 0.8255
3106.000000 0.8263 0.8269 0.8275 0.8282 0.8287
3111.000000 0.8292 0.8297 0.8302 0.8308 0.8314
3116.000000 0.8320 0.8326 0.8336 0.8348 0.8359
3121.000000 0.8370 0.8382 0.8393 0.8405 0.8417
3126.000000 0.8437 0.8457 0.8478 0.8499 0.8528
3131.000000 0.8557 0.8586 0.8613 0.8630 0.8646
3136.000000 0.8662 0.8678 0.8693 0.8707 0.8722
3141.000000 0.8734 0.8738 0.8742 0.8746 0.8750
3146.000000 0.8754 0.8758 0.8762 0.8807 0.8767
3151.000000 0.8769 0.8770 0.8771 0.8770 0.8770
3156.000000 0.8769 0.8768 0.8767 0.8765 0.8764
3161.000000 0.8763 0.8760 0.8758 0.8756 0.8754
3166.000000 0.8751 0.8749 0.8747 0.8745 0.8742
3171.000000 0.8740 0.8738 0.8734 0.8729 0.8724
3176.000000 0.8719 0.8713 0.8708 0.8703 0.8697
3181.000000 0.8692 0.8686 0.8680 0.8675 0.8669
3186.000000 0.8662 0.8655 0.8649 0.8642 0.8636
3191.000000 0.8629 0.8623 0.8616 0.8610 0.8603
3196.000000 0.8597 0.8590 0.8584 0.8577 0.8571
3201.000000 0.8565 0.8557 0.8549 0.8541 0.8533
3206.000000 0.8525 0.8517 0.8508 0.8500 0.8491
3211.000000 0.8483 0.8475 0.8467 0.8458 0.8450
3216.000000 0.8441 0.8433 0.8424 0.8416 0.8408
3221.000000 0.8400 0.8390 0.8376 0.8362 0.8348
3226.000000 0.8334 0.8320 0.8306 0.8293 0.8279
3231.000000 0.8266 0.8253 0.8240 0.8227 0.8222
3236.000000 0.8220 0.8218 0.8215 0.8215 0.8216
3241.000000 0.8216 0.8217 0.8218 0.8219 0.8220
3246.000000 0.8222 0.8223 0.8227 0.8230 0.8234
3251.000000 0.8238 0.8241 0.8245 0.8248 0.8252
3256.000000 0.8258 0.8266 0.8274 0.8281 0.8289
3261.000000 0.8296 0.8304 0.8311 0.8319 0.8329
3266.000000 0.8339 0.8348 0.8358 0.8366 0.8375
3271.000000 0.8384 0.8392 0.8396 0.8399 0.8401
3276.000000 0.8403 0.8405 0.8406 0.8407 0.8409
3281.000000 0.8409 0.8409 0.8408 0.8407 0.8407
3286.000000 0.8406 0.8405 0.8405 0.8404 0.8402
3291.000000 0.8400 0.8398 0.8396 0.8394 0.8391
3296.000000 0.8389 0.8386 0.8384 0.8381 0.8378
3301.000000 0.8376 0.8373 0.8367 0.8358 0.8348
3306.000000 0.8339 0.8328 0.8312 0.8296 0.8279
3311.000000 0.8263 0.8240 0.8216 0.8191 0.8166
3316.000000 0.8139 0.8108 0.8076 0.8044 0.8012
3321.000000 0.7956 0.7899 0.7842 0.7784 0.7727
3326.000000 0.7670 0.7613 0.7556 0.7499 0.7442
3331.000000 0.7384 0.7327 0.7270 0.7213 0.7156
3336.000000 0.7099 0.7042 0.6985 0.6929 0.6872
3341.000000 0.6815 0.6758 0.6702 0.6645 0.6588
3346.000000 0.6531 0.6475 0.6418 0.6362 0.6306
3351.000000 0.6249 0.6193 0.6136 0.6080 0.6023
3356.000000 0.5967 0.5911 0.5855 0.5799 0.5743
3361.000000 0.5687 0.5631 0.5575 0.5519 0.5463
3366.000000 0.5407 0.5351 0.5295 0.5239 0.5183
3371.000000 0.5127 0.5072 0.5016 0.4960 0.4905
3376.000000 0.4849 0.4793 0.4738 0.4682 0.4627
3381.000000 0.4571 0.4516 0.4461 0.4406 0.4350
3386.000000 0.4295 0.4240 0.4185 0.4129 0.4074
3391.000000 0.4019 0.3964 0.3909 0.3854 0.3799
3396.000000 0.3744 0.3695 0.3662 0.3629 0.3596
3401.000000 0.3563 0.3551 0.3549 0.3548 0.3547
3406.000000 0.3537 0.3544 0.3543 0.3542 0.3541
3411.000000 0.3541 0.3543 0.3545 0.3547 0.3549
3416.000000 0.3553 0.3558 0.3563 0.3569 0.3575
3421.000000 0.3627 0.3679 0.3731 0.3783 0.3835
3426.000000 0.3887 0.3939 0.3991 0.4043 0.4095
3431.000000 0.4147 0.4198 0.4250 0.4302 0.4354
3436.000000 0.4406 0.4458 0.4510 0.4561 0.4613
3441.000000 0.4664 0.4716 0.4767 0.4819 0.4870
3446.000000 0.4922 0.4973 0.5024 0.5076 0.5127
3451.000000 0.5178 0.5229 0.5281 0.5332 0.5383
3456.000000 0.5434 0.5485 0.5536 0.5587 0.5638
3461.000000 0.5689 0.5740 0.5784 0.5818 0.5851
3466.000000 0.5885 0.5919 0.5933 0.5934 0.5935
3471.000000 0.5935 0.5936 0.5936 0.5931 0.5928
3476.000000 0.5926 0.5923 0.5898 0.5873 0.5847
3481.000000 0.5821 0.5796 0.5770 0.5745 0.5719
3486.000000 0.5694 0.5668 0.5643 0.5617 0.5592
3491.000000 0.5566 0.5541 0.5515 0.5490 0.5465
3496.000000 0.5439 0.5414 0.5389 0.5363 0.5338
3501.000000 0.5313 0.5287 0.5262 0.5237 0.5212
3506.000000 0.5186 0.5161 0.5136 0.5111 0.5086
3511.000000 0.5061 0.5036 0.5011 0.4986 0.4961
3516.000000 0.4936 0.4911 0.4886 0.4861 0.4836
3521.000000 0.4811 0.4788 0.4766 0.4744 0.4722
3526.000000 0.4701 0.4699 0.4699 0.4699 0.4699
3531.000000 0.4699 0.4699 0.4699 0.4699 0.4699
3536.000000 0.4699 0.4700 0.4701 0.4702 0.4703
3541.000000 0.4703 0.4706 0.4709 0.4712 0.4715
3546.000000 0.4718 0.4695 0.4857 0.4929 0.5002
3551.000000 0.5075 0.5174 0.5277 0.5381 0.5485
3556.000000 0.5588 0.5691 0.5795 0.5898 0.6001
3561.000000 0.6104 0.6207 0.6310 0.6413 0.6516
3566.000000 0.6619 0.6722 0.6825 0.6928 0.7031
3571.000000 0.7133 0.7236 0.7338 0.7441 0.7543
3576.000000 0.7645 0.7745 0.7841 0.7937 0.8034
3581.000000 0.8130 0.8200 0.8220 0.8239 0.8259
3586.000000 0.8279 0.8299 0.8324 0.8348 0.8373
3591.000000 0.8397 0.8421 0.8436 0.8452 0.8467
3596.000000 0.8482 0.8498 0.8510 0.8522 0.8533
3601.000000 0.8545 0.8557 0.8569 0.8580 0.8592
3606.000000 0.8604 0.8616 0.8627 0.8638 0.8649
3611.000000 0.8660 0.8671 0.8681 0.8690 0.8699
3616.000000 0.8709 0.8718 0.8727 0.8736 0.8745
3621.000000 0.8754 0.8763 0.8772 0.8781 0.8790
3626.000000 0.8799 0.8808 0.8817 0.8825 0.8830
3631.000000 0.8836 0.8842 0.8847 0.8852 0.8855
3636.000000 0.8857 0.8860 0.8862 0.8864 0.8867
3641.000000 0.8869 0.8872 0.8874 0.8877 0.8879
3646.000000 0.8882 0.8884 0.8887 0.8889 0.8891
3651.000000 0.8892 0.8893 0.8894 0.8895 0.8896
3656.000000 0.8896 0.8897 0.8898 0.8899 0.8900
3661.000000 0.8901 0.8902 0.8902 0.8903 0.8904
3666.000000 0.8905 0.8905 0.8906 0.8907 0.8908
3671.000000 0.8908 0.8909 0.8910 0.8911 0.8911
3676.000000 0.8912 0.8912 0.8912 0.8912 0.8912
3681.000000 0.8912 0.8911 0.8911 0.8910 0.8910
3686.000000 0.8909 0.8909 0.8908 0.8908 0.8907
3691.000000 0.8906 0.8906 0.8905 0.8905 0.8904
3696.000000 0.8903 0.8902 0.8902 0.8901 0.8901
3701.000000 0.8900 0.8899 0.8899 0.8898 0.8898
3706.000000 0.8897 0.8896 0.8895 0.8895 0.8894
3711.000000 0.8894 0.8893 0.8892 0.8892 0.8891
3716.000000 0.8891 0.8890 0.8890 0.8889 0.8889
3721.000000 0.8888 0.8887 0.8887 0.8886 0.8885
3726.000000 0.8884 0.8884 0.8883 0.8883 0.8882
3731.000000 0.8882 0.8881 0.8880 0.8879 0.8878
3736.000000 0.8877 0.8876 0.8876 0.8875 0.8874
3741.000000 0.8873 0.8872 0.8871 0.8870 0.8869
3746.000000 0.8868 0.8868 0.8867 0.8866 0.8865
3751.000000 0.8864 0.8863 0.8862 0.8861 0.8860
3756.000000 0.8860 0.8859 0.8858 0.8857 0.8856
3761.000000 0.8855 0.8854 0.8853 0.8852 0.8852
3766.000000 0.8851 0.8851 0.8850 0.8850 0.8850
3771.000000 0.8849 0.8849 0.8849 0.8848 0.8848
3776.000000 0.8848 0.8847 0.8847 0.8847 0.8846
3781.000000 0.8846 0.8846 0.8845 0.8845 0.8845
3786.000000 0.8845 0.8845 0.8845 0.8845 0.8846
3791.000000 0.8846 0.8847 0.8847 0.8848 0.8850
3796.000000 0.8852 0.8853 0.8855 0.8857 0.8859
3801.000000 0.8860 0.8862 0.8864 0.8865 0.8867
3806.000000 0.8869 0.8871 0.8872 0.8874 0.8876
3811.000000 0.8878 0.8879 0.8881 0.8883 0.8884
3816.000000 0.8886 0.8887 0.8887 0.8886 0.8886
3821.000000 0.8885 0.8885 0.8884 0.8884 0.8883
3826.000000 0.8883 0.8882 0.8882 0.8881 0.8881
3831.000000 0.8880 0.8880 0.8879 0.8879 0.8878
3836.000000 0.8878 0.8878 0.8877 0.8877 0.8877
3841.000000 0.8876 0.8876 0.8875 0.8875 0.8874
3846.000000 0.8874 0.8872 0.8869 0.8867 0.8865
3851.000000 0.8863 0.8861 0.8857 0.8853 0.8849
3856.000000 0.8845 0.8841 0.8837 0.8833 0.8829
3861.000000 0.8825 0.8820 0.8816 0.8847 0.8809
3866.000000 0.8806 0.8803 0.8800 0.8797 0.8795
3871.000000 0.8795 0.8795 0.8795 0.8795 0.8795
3876.000000 0.8795 0.8795 0.8795 0.8795 0.8795
3881.000000 0.8795 0.8795 0.8795 0.8795 0.8795
3886.000000 0.8795 0.8795 0.8795 0.8795 0.8795
3891.000000 0.8795 0.8795 0.8795 0.8795 0.8794
3896.000000 0.8794 0.8794 0.8793 0.8793 0.8793
3901.000000 0.8792 0.8792 0.8792 0.8791 0.8791
3906.000000 0.8791 0.8790 0.8790 0.8790 0.8789
3911.000000 0.8789 0.8789 0.8788 0.8788 0.8788
3916.000000 0.8787 0.8787 0.8787 0.8786 0.8786
3921.000000 0.8786 0.8785 0.8785 0.8785 0.8784
3926.000000 0.8784 0.8784 0.8783 0.8783 0.8783
3931.000000 0.8782 0.8782 0.8781 0.8781 0.8780
3936.000000 0.8780 0.8780 0.8779 0.8779 0.8779
3941.000000 0.8778 0.8778 0.8778 0.8777 0.8777
3946.000000 0.8777 0.8776 0.8776 0.8776 0.8775
3951.000000 0.8775 0.8774 0.8774 0.8773 0.8773
3956.000000 0.8772 0.8772 0.8772 0.8771 0.8771
3961.000000 0.8771 0.8770 0.8770 0.8770 0.8770
3966.000000 0.8769 0.8769 0.8769 0.8768 0.8768
3971.000000 0.8767 0.8767 0.8766 0.8766 0.8765
3976.000000 0.8765 0.8765 0.8764 0.8764 0.8764
3981.000000 0.8763 0.8763 0.8763 0.8763 0.8762
3986.000000 0.8762 0.8762 0.8761 0.8761 0.8760
3991.000000 0.8760 0.8759 0.8759 0.8758 0.8758
3996.000000 0.8758 0.8757 0.8757 0.8757 0.8757
##END=
