##TITLE=1,4-Dimethylbenzene
##JCAMP-DX=4.24
##DATA TYPE=INFRARED SPECTRUM
##CLASS=IUPAC A
##ORIGIN=NIST, Analytical Chemistry Division, 301-975-3108
##OWNER=COPYRIGHT (C) 2001 by the U.S. Secretary of Commerce
##DATE=01/06/01
##$SPECTRA VERSION=1.10
##$UNCERTAINTY IN Y=2.1 % relative (B=1.10E-04,C=1.28E-9,D=4.08E-14)
##CAS NAME=1,4-Dimethylbenzene
##CAS REGISTRY NO=106-42-3
##MOLFORM=1,4-( C H3)2 C6 H4
##MP=13.26 C
##BP=138.35 C
##$NIST SOURCE=QUANT-IR
##SPECTROMETER/DATA SYSTEM=IFS66V (Bruker)
##INSTRUMENT PARAMETERS=KBr Beam Splitter; MCT Detector; Multipass cell
##STATE=gas
##SAMPLE DESCRIPTION=p-Xylene Primary Gas Standard
##PRESSURE=101.3 Pa
##TEMPERATURE=23 C
##SAMPLING PROCEDURE=1 L/min Flow
##RESOLUTION=0.9640
##DATA PROCESSING=3-Term B-H Apodization
##XUNITS=cm-1
##YUNITS=(micromol/mol)-1m-1 (base 10)
##XFACTOR=1.0
##YFACTOR=9.0949E-13
##DELTAX=0.4820
##FIRSTX=575.17
##LASTX=3974.605
##FIRSTY=1.50E-06
##MAXX=3974.12
##MINX=575.17
##MAXY=.0006034
##MINY=-9.51E-07
##NPOINTS=7052
##XYDATA=(X++(Y..Y))
575.17 1660240 2027555 1676903 1145946 860322 540235
577.58 370954 837444 1019736 569591 371834 785687
580.47 937861 299710-419839-665380-699258-573417
583.37-411150-287844-25213 193683 416133 677237
586.26 427504 44605-27271-195894-560609-736554
589.15-115827 536026 449791 237747 292177 278072
592.04 1895-268970-400104-377909-327303-433193
594.94-697199-753272-167930 258982-87329-454360
597.83-469605-519161-609030-455325-277522-462491
600.72-837856-904358-581478-385469-523791-567999
603.62-595657-466832-148607-327867-576271-435382
606.51-585090-934354-1045880-955828-719822-392257
609.40-172704-273745-459687-369593-303661-575030
612.29-858289-849345-800391-867423-851357-713651
615.19-719914-833185-617337-231009-5869-85083
618.08-492871-865786-926475-682773-475809-504416
620.97-596979-743684-678971-346862-204298-387050
623.86-517081-432125-433437-593697-673373-508850
626.76-507473-794909-933029-729134-432574-272032
629.65-128013-95870-352034-600825-389895-162592
632.54-278782-408283-575676-681388-602290-645239
635.44-824573-726937-390274-134645-186072-381197
638.33-341800-399520-672353-605657-260635-110979
641.22-157650-249456-339143-354271-343736-390116
644.11-385305-394587-536536-581679-462485-396051
647.01-279306-118960 17944 42025-277232-521654
649.90-373157-264826-355289-480883-491969-309419
652.79-181709-287300-440537-544025-485618-323442
655.68-242042-135491-67051-222699-433641-366524
658.58-242541-292129-338861-320082-244757-255279
661.47-380609-328148-194215-260669-343353-372464
664.36-333106-178138-131771-124070 129510 659829
667.26 816848 306259-200408-293231-120542-110450
670.15-287352-382198-333302-342574-399917-329588
673.04-271026-288709-392019-410361-256450-129805
675.93-106719-193439-238811-133809 52672 158394
678.83 219429 250680 180162-19134-228739-274964
681.72-266520-386107-375585-215488-455075-738040
684.61-485921-114211-23306-60736-17242 24526
687.50 3869 97573 150020 156587 198001 157577
690.40 157325 159135 139317 115456 5127-26789
693.29 118547 331321 380505 351297 350830 319835
696.18 339700 417287 414599 243876 207094 413707
699.08 499199 550003 698115 640271 420621 207974
701.97 103824 186753 194790 181786 206471 131596
704.86 167821 358771 372088 229031 172949 201582
707.75 234229 161996 132194 226049 202065 67894
710.65 59090 166184 275513 392123 483147 448729
713.54 308819 274062 279141 151460 106869 246362
716.43 286305 164712 243476 434680 357271 152602
719.32 123959 214604 219833 193005 224326 267230
722.22 244488 109137 59829 165671 251443 262700
725.11 237257 238903 304431 399104 466958 441684
728.00 290155 237295 340333 408344 406402 363732
730.90 426226 520150 478374 418783 356400 299803
733.79 312196 266755 201264 225536 270475 212184
736.68 138414 223255 344479 416890 368041 277405
739.57 428461 743239 977330 1050092 838328 409300
742.47 172505 259629 391089 478688 566062 508618
745.36 341301 304195 404950 518710 580309 592062
748.25 619710 676300 668989 635667 701729 737465
751.14 704603 748221 752198 774803 933177 1043514
754.04 1063789 1089407 1072977 1006374 1049812 1194053
756.93 1235028 1254914 1400714 1584326 1721184 1845988
759.82 2104811 2379113 2509722 2740866 3040508 3262217
762.72 3714064 4306119 4789736 5351506 6054335 6830268
765.61 7670815 8636895 9704607 10892145 12147896 13289906
768.50 14491857 16014179 17782402 19628761 21600699 23767912
771.39 26162604 28878922 31815166 34987249 38431853 42090264
774.29 46096651 50433118 55061423 60024166 65119088 70271275
777.18 75765958 81570295 87482071 93470556 99499240 105628149
780.07 111845467 118270842 124951319 131620058 138155206 144739950
782.96 151084511 156761439 161882486 166843838 172138303 178216169
785.86 184903263 190700591 193525362 193144954 191175340 189525860
788.75 189295505 190401638 192325023 195074148 198932369 204763576
791.64 214881749 233099887 264689307 317473017 399542409 512380381
794.54 629698572 663517202 551861329 381986095 267360963 218395330
797.43 201450705 196024594 194850802 195348067 196511573 197542228
800.32 197823953 197376705 196388549 195088608 193841029 192406668
803.21 189613543 184906598 179412197 174385120 169806279 165021313
806.11 159718077 153711676 146918283 139422617 131538935 123673472
809.00 115918861 108470417 101544089 94892744 88410528 82064256
811.89 75895358 69906582 63966867 58243496 52957026 48001535
814.78 43338599 39093769 35204898 31554621 28242131 25185074
817.68 22426862 20027060 17952684 16169072 14514560 13102194
820.57 12092288 11272980 10417472 9653665 9075180 8531037
823.46 8080723 7816116 7706510 7516540 7167577 6902436
826.36 6725593 6513219 6254928 6008954 5938199 5907772
829.25 5773347 5639626 5529628 5368841 5188944 5108837
832.14 5077076 5012680 4972656 4952771 4901187 4833471
835.03 4762180 4738900 4763816 4650291 4480102 4340712
837.93 4146956 3862180 3599044 3447598 3364315 3179485
840.82 2806066 2453898 2212715 2151016 2199813 2130109
843.71 1961400 1784587 1649722 1468545 1285027 1285421
846.60 1395475 1465127 1459021 1366378 1229595 1033693
849.50 825176 838343 1047398 1123936 1078053 1103927
852.39 1146246 1113802 983304 865296 889923 955449
855.28 958529 962849 977993 953113 965041 1013764
858.18 1002896 947901 883052 825962 860323 913801
861.07 883914 869724 960757 1028996 1048431 1033078
863.96 1003627 1083379 1119212 1016925 892122 874133
866.85 982167 1042729 1033927 1092220 1193693 1216692
869.75 1233306 1252089 1208910 1224337 1216323 1181228
872.64 1214434 1233729 1258379 1259434 1237143 1207454
875.53 1163195 1199319 1248402 1265464 1347594 1379052
878.42 1287343 1192533 1193493 1319482 1437968 1420865
881.32 1286349 1136685 1078166 1143972 1268384 1309823
884.21 1334517 1429474 1497523 1517376 1476911 1402875
887.10 1374787 1396270 1507293 1597706 1609202 1601019
889.99 1564291 1506083 1464338 1488869 1588029 1632667
892.89 1619439 1612938 1575538 1571236 1600581 1613669
895.78 1634957 1661588 1636156 1612886 1664957 1675608
898.67 1606320 1565296 1566719 1581733 1617157 1630622
901.57 1612152 1575134 1556127 1604163 1626937 1602719
904.46 1640012 1730334 1771015 1795876 1815481 1819651
907.35 1869648 1879728 1841674 1865035 1933244 2015747
910.24 2122281 2237312 2305410 2373798 2492154 2608338
913.14 2606300 2592731 2663204 2754510 2903573 3042230
916.03 3011953 2892873 2906956 2996696 3009636 2981448
918.92 2963786 3001731 3057213 3065849 3094339 3173466
921.81 3235308 3248138 3227269 3228935 3266857 3303902
924.71 3282815 3232856 3253909 3273947 3287589 3360599
927.60 3373068 3275979 3110493 2890828 2783872 2835566
930.49 2935003 3030404 3057186 3002002 2907962 2787417
933.39 2700662 2731102 2794026 2784493 2766782 2723064
936.28 2649190 2627152 2630128 2598291 2652948 2823720
939.17 2866784 2762493 2756373 2846867 2904835 2930446
942.06 2953436 3014333 3060348 3086931 3160877 3211309
944.96 3232227 3273585 3315218 3380351 3477715 3527625
947.85 3548839 3576529 3618667 3667512 3668070 3694844
950.74 3783200 3878390 3944070 4004838 4100253 4173482
953.63 4247156 4303724 4306260 4369941 4527699 4664209
956.53 4691076 4655106 4691579 4778760 4780099 4692463
959.42 4634436 4714112 4890841 4963847 4870617 4737610
962.31 4712298 4774280 4765636 4730779 4786054 4918406
965.21 5012358 5008440 5004772 5043524 5107837 5116361
968.10 5127269 5246151 5368444 5444820 5430624 5319372
970.99 5226865 5156897 5056338 5003161 5009493 5002728
973.88 5010397 4996220 4931618 4885939 4875513 4923754
976.78 4993008 5016546 5008851 4973833 4890756 4814806
979.67 4829713 4877337 4841337 4784992 4785877 4838988
982.56 4908708 4945472 4997040 5010274 4964249 4939826
985.45 4915993 4893223 4872067 4902280 5013036 5063872
988.35 5096312 5146028 5189380 5258962 5285604 5238715
991.24 5256726 5373170 5419750 5414057 5437561 5442200
994.13 5472362 5490290 5483367 5550074 5630857 5654004
997.03 5669589 5713140 5725083 5713010 5724277 5690842
999.92 5639507 5643951 5671764 5673665 5608076 5481036
1002.81 5390165 5346202 5304400 5291025 5308152 5367007
1005.70 5393451 5361401 5356942 5430824 5556067 5719801
1008.60 5979470 6275277 6556401 6885550 7308287 7846357
1011.49 8500478 9196431 9974102 11000047 12263596 13614500
1014.38 14984511 16404632 17906568 19554375 21295492 22842596
1017.27 23871428 24400223 24660038 24604867 24204359 23534157
1020.17 22611584 21744809 21228993 21116496 21777130 24149449
1023.06 28397465 31668241 30044574 25030673 21893297 21850492
1025.95 23192937 24890808 26531051 27940927 29028019 29671760
1028.85 29738471 29413757 28915784 28066487 26897420 25703732
1031.74 24608018 23464226 22282322 21473230 20941032 20362053
1034.63 19809614 19373213 19075078 18939784 18946933 18993809
1037.52 19034456 19119644 19295121 19568910 19976059 20533539
1040.42 21209988 21979617 22892471 23962991 24943088 25590957
1043.31 26052298 26533836 27079945 27498760 27427643 27036738
1046.20 26736424 26713867 27051042 27498928 27811242 27931087
1049.09 27653221 27116894 26862428 27024287 27251076 27221550
1051.99 26966744 26647786 26248075 25899479 25743044 25629293
1054.88 25370782 24962254 24514893 24084323 23698343 23280313
1057.77 22769729 22308915 21944755 21520551 21063969 20713700
1060.67 20377731 20012425 19682177 19330599 18947591 18574818
1063.56 18170842 17709419 17249102 16825917 16404001 15962834
1066.45 15540366 15130926 14746281 14464914 14223954 13911833
1069.34 13576566 13328738 13068823 12693797 12372547 12104029
1072.24 11775700 11488278 11275875 11061264 10898248 10786107
1075.13 10647122 10489636 10334534 10153116 9981217 9932948
1078.02 9925476 9836642 9723544 9686833 9785559 9891450
1080.91 9958669 10043786 10170376 10371249 10476361 10477689
1083.81 10629370 10890727 11099007 11340819 11623294 11903411
1086.70 12206908 12503822 12867655 13341147 13813964 14239951
1089.59 14719075 15259053 15824910 16427260 17059839 17655399
1092.49 18152555 18583516 19030431 19487602 19849047 20122525
1095.38 20414703 20673364 20811283 20848519 20821499 20678593
1098.27 20342047 19932621 19618746 19530754 19701333 20067733
1101.16 20578414 21248466 22204481 23395429 24500317 25452379
1104.06 26423703 27367312 28184522 28895678 29510280 30154133
1106.95 30816280 31420425 32043998 32729421 33506288 34461385
1109.84 35543805 36675402 37927134 39231743 40481543 41786860
1112.73 43164177 44263791 44954326 45398626 45522645 45183591
1115.63 44383328 43125066 41321551 38964988 36282331 33569561
1118.52 31136768 29262960 28099004 27782980 28419057 29789396
1121.41 31584958 33619768 35603705 37288301 38564499 39333574
1124.31 39650184 39683372 39403240 38668406 37553323 36234986
1127.20 34774851 33114525 31252502 29350034 27495534 25750674
1130.09 24149002 22593922 21085130 19742508 18529030 17459841
1132.98 16558654 15652351 14742662 13875211 13049941 12313118
1135.88 11669408 11061332 10468188 9883046 9367182 8982391
1138.77 8590361 8182489 7771690 7358538 7079699 6853870
1141.66 6533901 6187100 5865405 5614381 5454273 5300462
1144.55 5147746 5034892 4862944 4679508 4572702 4459910
1147.45 4342293 4255461 4189661 4111487 4030263 3955418
1150.34 3864532 3803204 3772519 3775906 3763084 3654785
1153.23 3587956 3597732 3583316 3587957 3640718 3600332
1156.13 3486913 3403708 3406015 3502739 3545200 3509838
1159.02 3494943 3484157 3436980 3377419 3383542 3439893
1161.91 3463986 3478286 3515299 3511631 3470984 3465048
1164.80 3494925 3477299 3475751 3577490 3683773 3768556
1167.70 3804658 3747106 3644967 3593986 3640176 3705686
1170.59 3710729 3677343 3679516 3726900 3727461 3668992
1173.48 3617603 3645991 3799176 3936559 3928477 3851654
1176.37 3773319 3729052 3771174 3849111 3835479 3760037
1179.27 3739949 3763277 3779327 3774092 3784947 3775299
1182.16 3743576 3711088 3626424 3561093 3591454 3654312
1185.05 3652459 3557548 3473555 3422211 3352299 3279553
1187.95 3241504 3213191 3202153 3225728 3223563 3226097
1190.84 3277047 3243966 3137691 3086394 3073765 3074709
1193.73 3096782 3076230 3031279 3003499 2967745 2925482
1196.62 2852711 2806179 2857093 2904581 2902364 2919365
1199.52 2943651 2939673 2960047 3046209 3161775 3188419
1202.41 3152106 3190803 3260035 3340144 3508037 3744843
1205.30 3982947 4223824 4562741 4929978 5230681 5621424
1208.19 6136665 6666488 7228982 7915155 8720660 9552532
1211.09 10365036 11132037 11876488 12618900 13270029 13832374
1213.98 14290508 14602888 14755620 14759898 14726336 14619959
1216.87 14324743 13883528 13503343 13509166 14113064 15211947
1219.77 16463071 17291506 16976350 15540644 14234582 14052676
1222.66 14790594 15881478 16973146 17932906 18644819 19053113
1225.55 19206083 19093596 18720715 18169828 17518889 16864295
1228.44 16275988 15776220 15339636 14970324 14744034 14668091
1231.34 14705440 14777804 14820551 14899638 15055225 15131575
1234.23 15052655 14875424 14632090 14361828 14105427 13813368
1237.12 13532509 13450982 13619595 13930850 14306429 14619032
1240.01 14696842 14494138 14139655 13817298 13581262 13360038
1242.91 13223577 13195700 13081005 12863501 12599878 12210518
1245.80 11689261 11082366 10433209 9777448 9127012 8505657
1248.69 7853843 7229691 6734184 6273619 5857691 5552423
1251.59 5253367 4932044 4720930 4630698 4523370 4346510
1254.48 4148738 4006023 3951634 3960733 3904783 3765728
1257.37 3661756 3664517 3694060 3631595 3482461 3382802
1260.26 3364121 3314254 3249457 3223290 3198262 3127065
1263.16 2999576 2972135 3121703 3281971 3325334 3271255
1266.05 3249104 3308386 3347286 3294362 3179958 3125040
1268.94 3179577 3210866 3160924 3109151 3070875 3001607
1271.83 2920601 2889944 2837467 2770991 2801985 2821483
1274.73 2760543 2719096 2677976 2622225 2614065 2601127
1277.62 2566495 2551741 2551510 2543393 2550261 2536344
1280.51 2509881 2525867 2510812 2510659 2554287 2535423
1283.41 2510577 2537090 2556364 2572165 2581869 2567463
1286.30 2563621 2616412 2677296 2660809 2601462 2569543
1289.19 2606286 2667069 2729831 2744678 2656364 2616257
1292.08 2669203 2747037 2791019 2774336 2765094 2772114
1294.98 2790789 2861059 2934142 2975251 3030757 3101094
1297.87 3120515 3109130 3151956 3206394 3216939 3307919
1300.76 3511712 3652423 3663576 3703030 3819011 3925396
1303.65 4037648 4202156 4421538 4672917 4769472 4636631
1306.55 4556803 4648654 4750806 4827345 4891095 4953562
1309.44 5094248 5247404 5340058 5402829 5461643 5521928
1312.33 5560991 5547527 5494529 5453430 5427731 5363516
1315.23 5309859 5312713 5301991 5303155 5347376 5423136
1318.12 5550351 5712931 5921809 6156683 6305261 6346133
1321.01 6377332 6477729 6596728 6655325 6656058 6691458
1323.90 6696980 6600987 6517931 6531312 6636776 6749948
1326.80 6801812 6825171 6856625 6891860 6939233 6957566
1329.69 6926822 6963328 7067828 7158396 7233912 7229057
1332.58 7168342 7188336 7230292 7218676 7246687 7371251
1335.47 7513456 7611894 7724149 7907704 8058783 8146869
1338.37 8351710 8651869 8881435 9057660 9285240 9599453
1341.26 9871384 10100551 10387808 10541013 10428419 10189102
1344.15 9956239 9783904 9651508 9544459 9511977 9491670
1347.05 9387048 9209713 9072142 9108074 9158497 9143534
1349.94 9141128 9108199 9062727 9037479 9003190 9121647
1352.83 9419258 9642170 9720859 9773957 9667496 9463396
1355.72 9527911 9571058 9311144 9077700 9106038 9115797
1358.62 8929795 8692507 8568007 8603745 8723313 8818624
1361.51 8816305 8822441 8946696 9066449 9131827 9157777
1364.40 9271964 9540188 9735309 9764963 9808111 9951031
1367.29 10082990 10157679 10239286 10319398 10370828 10421239
1370.19 10539913 10702036 10923066 11244924 11626255 12035040
1373.08 12472613 12949191 13495538 14164950 14927256 15700063
1375.97 16474278 17331377 18271602 19202790 20090659 20869087
1378.87 21426999 21777611 21997116 22139540 22295797 22534573
1381.76 23100302 24449973 26553452 27698836 26393013 24427954
1384.65 23842493 24391306 25366721 26382888 27178272 27750610
1387.54 28154145 28349230 28430827 28413513 28199911 27708659
1390.44 27020263 26318289 25647507 24897100 23968922 22954377
1393.33 21951212 20986847 20261711 19755258 19308689 18935959
1396.22 18601062 18278579 18014738 17816476 17643105 17485265
1399.11 17382117 17343179 17340907 17397951 17573312 17783492
1402.01 17968157 18171011 18374093 18535743 18684375 18859608
1404.90 19105092 19400915 19732459 20122034 20511241 20818494
1407.79 21075730 21375337 21675015 21963781 22362025 22728487
1410.69 22931611 23135873 23476348 23885882 24280069 24762838
1413.58 25283486 25624319 25740938 25884987 26241648 26733453
1416.47 27284106 27884660 28571357 29229079 29688512 30150074
1419.36 30931777 31811390 32525454 33137166 33756223 34497686
1422.26 35272905 35905694 36417699 36949148 37470452 37884959
1425.15 38328617 38835489 39284600 39691841 39990258 40011016
1428.04 39855559 39668194 39444134 39312549 39420651 39754556
1430.93 40130851 40276655 40145608 39931032 39846931 39944085
1433.83 40100287 40168373 40090274 39968703 39850503 39844594
1436.72 40056284 40215288 40178631 40061809 39930415 39765935
1439.61 39521637 39247547 38992145 38615918 38041473 37255255
1442.51 36252314 35206702 34328061 33663116 33077504 32524273
1445.40 32090111 31747324 31418864 31201337 31248885 31492153
1448.29 31838739 32253492 32697579 33258384 33964673 34759085
1451.18 35541045 36289934 37077947 37732251 38076236 38135353
1454.08 38001899 37769911 37428604 36766989 35792237 35049109
1456.97 34722602 34464558 34356599 34475742 34647358 34889575
1459.86 35241544 35662947 36183637 36908694 37878341 39047936
1462.75 40291319 41469614 42475809 43311076 44262655 45393458
1465.65 46451903 47440844 48465680 49545742 50581360 51389172
1468.54 51990680 52481728 52738243 52576022 51972255 51031095
1471.43 49978076 49031235 48003557 46793605 45773119 44968170
1474.33 44126615 43163655 42091361 41171052 40555758 40054257
1477.22 39596931 39282446 39176855 39288329 39607871 40061165
1480.11 40457009 40798323 41293917 41998426 42818338 43608058
1483.00 44277704 44922866 45505364 45823201 45841553 45712808
1485.90 45627513 45602871 45523331 45379354 45203405 45038637
1488.79 44909254 44786107 44668369 44559587 44552158 44651189
1491.68 44775366 45005270 45485403 46320871 47505813 48854235
1494.57 50040473 50795867 51265197 51948871 52914333 53938485
1497.47 55130380 56402975 57529165 58481130 59250649 59839941
1500.36 60286821 60649359 60985311 61359943 61859831 62525361
1503.25 63387598 64618616 66375485 68646105 71614279 75388841
1506.15 79722214 84965102 91452079 98754965 106888137 116218284
1509.04 126670710 138157429 150719632 164251769 178494573 193043105
1511.93 207584908 221698902 234602438 245707906 254484124 259987821
1514.82 261386846 258831646 253564228 247179781 241127963 237356243
1517.72 238419799 246501561 261319814 277792034 287667094 284268144
1520.61 267922424 247376126 232217513 226863624 230574346 239156478
1523.50 248646585 256908613 262567353 264514163 261533471 252956247
1526.39 240126695 224977724 208552981 191536509 174654206 158435458
1529.29 143113003 128876457 115838914 103907468 93106483 83522986
1532.18 75050259 67589390 61108942 55577917 50848221 46665053
1535.07 42975210 39795281 37103328 34786749 32726837 30919518
1537.97 29188377 27569464 26409811 25481447 24677481 24134610
1540.86 23454453 22499163 21783829 21372411 20862190 20279495
1543.75 19726345 19128581 18619554 18365959 18180887 17916712
1546.64 17598097 17275382 17035154 16889244 16764710 16633217
1549.54 16548092 16475379 16370029 16248429 16062216 15833505
1552.43 15611031 15338933 14950497 14612783 14534483 14416008
1555.32 14102526 13841819 13608785 13273164 12924793 12559020
1558.21 12428008 12549355 12350917 11999591 12025496 12173462
1561.11 12100114 11916720 11752661 11645917 11558376 11390651
1564.00 11137234 10935538 10817508 10719159 10611154 10495503
1566.89 10341912 10145622 9956469 9759695 9503291 9285689
1569.79 9223080 9167225 9024280 8861133 8703108 8564768
1572.68 8422571 8294238 8182265 8024843 7772670 7300432
1575.57 6801441 6832355 7095715 7082858 6922048 6772913
1578.46 6709144 6706800 6659912 6606817 6552153 6459763
1581.36 6340809 6221230 6208064 6216372 6126315 6010559
1584.25 5920841 5884970 5833946 5699601 5583223 5568453
1587.14 5575298 5532397 5448166 5373693 5373796 5393983
1590.03 5392225 5399175 5439353 5553142 5724876 5838729
1592.93 5858546 5853463 5824176 5816333 5839089 5879338
1595.82 5932738 5922009 5891337 5940084 6054026 6106224
1598.71 6111904 6180627 6235991 6228610 6269174 6348312
1601.61 6397816 6475886 6608591 6777560 6954647 7095136
1604.50 7204157 7338274 7508518 7688265 7874815 8099303
1607.39 8353243 8620400 8905280 9159176 9382829 9605229
1610.28 9826530 10125683 10494410 10850923 11204441 11626776
1613.18 12127793 12604859 13011192 13430523 13891693 14146178
1616.07 14262710 14852351 15736067 16380398 16870185 17323869
1618.96 17743434 18106376 18335180 18487199 18627874 18683421
1621.85 18659229 18548447 18303326 18093117 17948001 17598940
1624.75 17091581 16610695 16199399 15871393 15632894 15536653
1627.64 15661205 16000893 16454070 16842289 17074604 17237534
1630.53 17347669 17381501 17363068 17156132 16759329 16294920
1633.43 15700225 14963836 14102391 13217837 12633669 12245339
1636.32 11686316 11022081 10460205 10036497 9565926 8998148
1639.21 8489009 8069995 7683332 7322289 7005241 6671925
1642.10 6330203 6009448 5654131 5307139 5037568 4742314
1645.00 4282832 3901107 3858778 3830150 3621634 3423745
1647.89 3326585 3339229 3317477 3158879 2982242 2849040
1650.78 2714509 2326460 1753687 1473131 1509673 1791339
1653.67 2046847 2170316 2315092 2345829 2284703 2258769
1656.57 2266291 2263095 2240931 2194657 2132050 2040851
1659.46 1968510 1967511 1982007 2014055 2091654 2051989
1662.35 1951687 1980372 2048400 2078659 2098332 2092042
1665.25 2051036 1987738 1918664 1865153 1792070 1686356
1668.14 1554278 1391514 1380406 1523333 1597452 1542814
1671.03 1442491 1459377 1579966 1643808 1658251 1633667
1673.92 1472671 1201039 1087386 1248802 1420578 1424974
1676.82 1364152 1327065 1289913 1222569 1174154 1129017
1679.71 1058401 1051964 1121944 1182426 1143038 1002699
1682.60 857856 820593 686462 309882 255083 667355
1685.49 962072 1027776 1051414 1087063 1087796 1061528
1688.39 1049424 1018059 968036 980595 1028330 1016171
1691.28 998868 1012685 1001769 967436 937248 937864
1694.17 890801 635291 209104 164844 586423 899123
1697.07 976637 956254 919108 791040 462109 189141
1699.96 239281 511327 775196 870096 867570 877743
1702.85 894569 853855 793331 855507 921762 871509
1705.74 792570 784077 861223 943128 1010280 1093087
1708.64 1133569 1083443 1051830 1107631 1145356 1156984
1711.53 1226021 1334410 1429678 1471401 1500044 1539611
1714.42 1551014 1634830 1810317 1916715 1820334 1691947
1717.31 1932895 2319319 2597205 2852550 3014196 3117623
1720.21 3224970 3303998 3323915 3296618 3284286 3261673
1723.10 3175096 3112943 3094614 3069698 3048718 3063997
1725.99 3144624 3243107 3297915 3302710 3247445 3178327
1728.89 3142082 3125343 3121719 3108838 3078863 3052746
1731.78 3002038 2765970 2401820 2256710 2178946 2120794
1734.67 2293033 2445964 2470740 2508214 2545400 2513130
1737.56 2491577 2491490 2460441 2397725 2397833 2520124
1740.46 2650066 2714744 2739421 2806538 2925562 3043195
1743.35 3128975 3188773 3234920 3235961 3241052 3269790
1746.24 3298093 3391316 3511964 3506858 3484518 3564251
1749.13 3636866 3644728 3577152 3474576 3558836 3805595
1752.03 3921387 3892441 3837930 3792119 3765555 3767299
1754.92 3784946 3792491 3716262 3592925 3588420 3658290
1757.81 3653313 3582683 3534111 3551504 3567604 3504454
1760.71 3313909 3081483 3057196 3158491 3130656 3062283
1763.60 3095607 3174323 3219281 3196850 3118268 3025358
1766.49 2988266 3005083 2995477 3063881 3200094 3258636
1769.38 3290405 3323075 3341773 3437670 3565332 3504960
1772.28 3526317 3874495 4193298 4385517 4617605 4868177
1775.17 5109452 5384919 5706123 6066359 6467893 6919678
1778.06 7409289 7917339 8472539 9058779 9629681 10226477
1780.95 10845385 11402643 11861512 12253339 12594206 12836148
1783.85 12905985 12800794 12661463 12529787 12345258 12122053
1786.74 11887551 11675969 11550872 11616519 11933348 12473428
1789.63 13095392 13438993 13295598 12832528 12226956 11754936
1792.53 11700276 11794455 11724448 11513351 11240824 10904496
1795.42 10457327 9961415 9403865 8715729 7973465 7260329
1798.31 6565610 5879411 5279695 4756852 4216705 3735081
1801.20 3425620 3185661 2920633 2671835 2454800 2269695
1804.10 2108512 1939277 1798426 1721592 1662583 1609949
1806.99 1554691 1448512 1338542 1276396 1230987 1184640
1809.88 1106007 1024351 998019 1008188 1031992 1028331
1812.77 963781 894553 910701 978602 1006492 1019145
1815.67 1019462 965335 930231 950375 961047 954263
1818.56 943626 958778 1020635 1072641 1104944 1140339
1821.45 1167478 1192176 1248765 1325625 1376327 1383139
1824.35 1381310 1456253 1614926 1731235 1809154 1917916
1827.24 2052194 2183744 2274794 2388928 2554267 2707216
1830.13 2866843 3018198 3151066 3315741 3478571 3597029
1833.02 3699250 3751866 3732751 3751296 3826248 3912132
1835.92 4009167 4115883 4200900 4244311 4278883 4288239
1838.81 4262834 4255810 4316275 4419720 4488897 4495437
1841.70 4498294 4533593 4525128 4360562 4174342 4184980
1844.59 4216671 4151860 4104227 4014727 3849151 3690804
1847.49 3570453 3437797 3274978 3154676 3096542 3037299
1850.38 2913077 2753270 2639593 2598097 2573894 2538851
1853.27 2509581 2473847 2440902 2402549 2368958 2361254
1856.17 2329592 2281218 2282934 2318196 2329245 2357785
1859.06 2411283 2455350 2508362 2571912 2624065 2688505
1861.95 2811248 3000422 3203790 3373015 3523286 3673573
1864.84 3852241 4070651 4266888 4464305 4701334 4941292
1867.74 5224714 5519489 5785326 6160455 6579754 6906335
1870.63 7266973 7688401 8084551 8502693 8976699 9496782
1873.52 10040416 10554440 11073321 11631063 12192868 12786453
1876.41 13485092 14274343 15093429 15907983 16733671 17574123
1879.31 18392176 19200373 19999710 20815400 21636997 22360827
1882.20 22903673 23248934 23446042 23460702 23285609 22952686
1885.09 22454678 21842755 21123192 20243364 19290473 18400169
1887.99 17655052 17184679 17064089 17353805 18084413 19088474
1890.88 20241489 21470882 22614583 23498959 24012079 24172674
1893.77 24023583 23623877 22974347 22083706 21055104 19989564
1896.66 19005310 18066300 17106296 16181528 15212627 14154549
1899.56 13145979 12273998 11517174 10846429 10237372 9709829
1902.45 9254709 8749949 8182178 7654877 7208797 6842209
1905.34 6510362 6195935 5899864 5600331 5306653 5008593
1908.23 4698363 4395329 4126032 3915558 3791232 3696119
1911.13 3569623 3428037 3318805 3235704 3120143 2973316
1914.02 2870200 2858595 2849086 2779772 2711639 2642580
1916.91 2541043 2465373 2491092 2545390 2539297 2526940
1919.81 2566874 2598395 2570149 2532321 2522771 2512283
1922.70 2478622 2452253 2449677 2453525 2408563 2319133
1925.59 2259037 2247233 2245963 2231916 2208196 2164523
1928.48 2126452 2097016 2074145 2066643 2061062 2031375
1931.38 1981724 1949865 1896994 1798490 1705022 1649793
1934.27 1626720 1593366 1504874 1395348 1298664 1210451
1937.16 1138692 1062354 1000908 963526 926581 903993
1940.05 907776 915776 893160 826327 798432 849229
1942.95 877494 871893 885659 888652 853027 844934
1945.84 854633 838647 837580 855669 899958 955976
1948.73 989455 1002141 1022322 1049196 1051440 1042075
1951.63 1043742 1069502 1126588 1209050 1268499 1287023
1954.52 1289836 1304291 1385921 1474082 1488585 1485697
1957.41 1464902 1329507 1153449 1070700 1049910 1042379
1960.30 1011961 983867 1011675 1000406 953447 962830
1963.20 985782 1040362 1111210 1095228 1065722 1061742
1966.09 1050107 1063940 1074863 1058654 1087282 1118747
1968.98 1098518 1090746 1096806 1112324 1155434 1193443
1971.87 1185342 1165106 1228704 1372190 1467443 1383927
1974.77 1223562 1184826 1235197 1290366 1343640 1359896
1977.66 1342703 1314590 1317489 1376767 1428984 1478828
1980.55 1545103 1554725 1493640 1461808 1492913 1501948
1983.45 1439745 1358625 1344277 1393836 1443457 1493936
1986.34 1509964 1492214 1504509 1475224 1395129 1372556
1989.23 1390092 1388490 1357949 1306610 1277679 1267543
1992.12 1249837 1240789 1259924 1282215 1294880 1337037
1995.02 1350742 1305605 1298780 1323880 1288833 1213396
1997.91 1143621 1107493 1124031 1134138 1097351 1056609
2000.80 1026700 1014845 1051449 1075727 1050754 1021175
2003.69 1018690 1032447 1004800 964842 976589 1004710
2006.59 945974 773558 734185 895526 953199 865722
2009.48 815661 844182 846279 810186 784174 741199
2012.37 684073 664989 683891 689600 664685 648692
2015.27 631883 565084 479229 444294 466091 473399
2018.16 469963 474374 447792 396435 357893 359686
2021.05 335475 286214 251561 213967 216063 258981
2023.94 291935 298447 307372 358697 413260 411941
2026.84 372025 334785 351454 351213 305332 279654
2029.73 253932 251077 290213 315630 323601 352293
2032.62 394554 419174 399592 349458 343605 379729
2035.51 346445 268280 224086 208509 209784 245929
2038.41 305594 347687 338149 311653 314998 345323
2041.30 390108 410289 387271 349498 351070 377079
2044.19 380278 351343 300203 279788 271999 215334
2047.09 154284 144027 162746 184143 212508 222225
2049.98 225979 226474 206780 187963 149591 82948
2052.87 40333 44510 48454 42587 16530-34613
2055.76-52075-47113-60160-52903-21448-5735
2058.66-9943-45337-111121-157174-161531-137523
2061.55-86266-72628-142459-195614-134570-89175
2064.44-122539-110820-79515-93987-129403-132260
2067.33-120293-109328-74698-64791-84084-97129
2070.23-66631-25680-51402-61778 29908 115404
2073.12 105104 44999-6121-699 41271 40460
2076.01 27941 108999 230838 220061 120791 40830
2078.91-1193 24583 62679 75919 159752 313356
2081.80 353537 299333 259210 232080 224048 220452
2084.69 254634 403701 608127 585677 407806 344611
2087.58 350281 376237 440449 537453 726250 909336
2090.48 837824 690238 689268 746559 800308 844508
2093.37 974646 1312131 1596970 1530857 1449826 1530238
2096.26 1590720 1609778 1644584 1807606 2199913 2405886
2099.15 2141187 1876579 1803027 1790651 1832634 1933448
2102.05 2159840 2537403 2626465 2361357 2189383 2119114
2104.94 2066506 2022972 2019402 2282165 2616512 2475042
2107.83 2127083 1997288 1996658 1952817 1848689 1900484
2110.73 2181698 2130245 1620590 1245956 1076287 963120
2113.62 844727 767551 1008099 1289725 1009673 543302
2116.51 331678 259906 209974 194763 362102 700355
2119.40 668842 250332 65720 81009 66952 74078
2122.30 191410 514899 693900 358139 1199-111334
2125.19-145648-133241-44984 233639 465420 238317
2128.08-79398-175275-182217-158837-106231 66509
2130.97 288865 194914-55312-114907-125785-181564
2133.87-186353-65396 134917 143195-33565-132191
2136.76-167742-226169-248012-166094-54565-51189
2139.65-158381-251982-294694-292176-245037-170974
2142.55-110286-103556-146723-182691-163887-132644
2145.44-124806-73770 15260-32737-169756-208299
2148.33-221069-252263-229720-51900 160665 88134
2151.22-101802-171440-165642-99131-12782 199283
2154.12 358846 145922-97358-105549-32624-413
2157.01 108844 423077 484162 159510-12926-21963
2159.90-32652 32933 351891 721582 554188 137481
2162.79-7278 2534 52806 211916 624707 832902
2165.69 470960 142516 74236 98384 186729 500190
2168.58 901584 724535 239300 39822 29331 92550
2171.47 320142 770518 851414 423314 154580 138556
2174.37 161344 264020 660800 950510 600772 198178
2177.26 146921 153682 185683 525321 881763 629290
2180.15 210915 82536 27900 11805 226558 589163
2183.04 541142 187595 1865-50384 1534 260859
2185.94 609327 540336 180178 11115 25719 64243
2188.83 165041 425708 445733 166201-49706-132409
2191.72-75495 148062 432347 367384 64610-43585
2194.61 3837 71234 211080 374576 302636 141679
2197.51 135384 164051 195952 390405 594224 540401
2200.40 442415 441304 465110 604977 847534 898326
2203.29 747105 688275 724979 755000 827683 923752
2206.19 876573 797609 835911 858403 841532 887539
2209.08 900710 780813 709637 750537 786222 848061
2211.97 956571 962482 897345 889180 884067 861864
2214.86 864939 877868 856055 731328 577927 529359
2217.76 505625 439213 353403 279306 228049 209295
2220.65 238561 246607 170567 93920 106344 130147
2223.54 97829 57629 73947 100349 53045 3861
2226.43 13894 27798 8633-15746-10537-20266
2229.33-65463-61988-29188-41642-44523-20220
2232.22-11105 1313 22897-10314-71782-70154
2235.11-72738-102629-74277-15086 11034 18629
2238.01 4415-27409-59539-72744-59155-71934
2240.90-113975-156018-211333-235343-201434-173150
2243.79-148038-102051-98868-132534-154111-165650
2246.68-194476-215215-194719-192348-215769-204892
2249.58-200805-199099-149475-120364-148570-178827
2252.47-202991-218405-201695-186871-213649-227207
2255.36-212407-199878-161234-107060-98992-96166
2258.25-53325-19001-22942-11619 16478 34411
2261.15 29024 5456 1605 10945 23796 74420
2264.04 94561 34543-10992 52629 155738 164313
2266.93 138154 166234 231739 315056 348037 301670
2269.83 273672 306452 346034 362931 363861 384753
2272.72 394322 389355 435117 492117 508879 523178
2275.61 516346 497956 532406 581245 594458 604653
2278.50 659200 720900 713340 678567 671061 679207
2281.40 682599 692059 697218 693037 695342 697174
2284.29 677775 692991 770235 839458 885909 907948
2287.18 886567 890266 961488 1024917 1032860 1024965
2290.07 1031843 1084580 1178325 1249716 1294547 1324038
2292.97 1378874 1499394 1584458 1625425 1732890 1844455
2295.86 1888774 1928979 2038550 2200092 2306092 2333928
2298.75 2406351 2573484 2662431 2630286 2631683 2680470
2301.65 2688834 2620167 2509315 2464120 2453489 2370747
2304.54 2211043 2056368 1955267 1978238 2076459 2100138
2307.43 2168536 2366171 2508159 2527219 2565690 2697382
2310.32 2868462 2937996 2911379 2892643 2882356 2839702
2313.22 2691939 2535071 2510604 2506463 2327084 2111720
2316.11 2128045 2311637 2240077 1956409 1895555 2036008
2319.00 1904299 1597695 1600010 1820275 1790624 1563689
2321.89 1603603 1852677 1781321 1506700 1614721 1955543
2324.79 1886445 1585065 1735395 2123572 2036866 1730566
2327.68 1951438 2333251 2100592 1810677 2174949 2489783
2330.57 2152360 2012114 2570548 2832393 2443811 2453757
2333.47 2967151 2900953 2461039 2723677 3209870 2970273
2336.36 2713187 3106100 3205759 2697309 2679486 3092209
2339.25 2907540 2587420 2955055 3221368 2898690 2916512
2342.14 3269618 3127361 2906741 3092685 3079107 2764289
2345.04 2727648 2778245 2540788 2352408 2351813 2290717
2347.93 2138559 1980921 1926612 1969149 1960311 1938278
2350.82 1973391 1896754 1843346 1943734 1786841 1618300
2353.71 1828347 1793906 1562279 1733626 1718765 1554099
2356.61 1859364 1843382 1621684 1880461 1745761 1519801
2359.50 1847205 1765370 1612797 1735618 1453258 1464602
2362.39 1644463 1418577 1527514 1529023 1360029 1527315
2365.29 1378898 1267967 1325250 1203393 1257349 1142836
2368.18 1039928 1106701 1001530 995050 942148 930676
2371.07 937116 782264 713988 656517 686164 693721
2373.96 635271 630951 656852 674089 616207 561582
2376.86 544344 558954 566723 558963 540371 532708
2379.75 545384 563265 529032 471460 440974 446296
2382.64 456708 457003 504456 561010 537878 461193
2385.53 432807 456374 475518 503730 558210 583286
2388.43 592647 609439 610383 587820 570918 584226
2391.32 590457 581915 585852 611067 660132 690811
2394.21 657856 632856 665392 681913 658082 624514
2397.11 605589 636709 678733 703527 762756 813918
2400.00 808288 833059 912352 979505 1015295 1041181
2402.89 1062452 1078289 1091487 1084955 1059643 1074724
2405.78 1139681 1205370 1261284 1315549 1364203 1359693
2408.68 1343875 1388418 1437521 1433744 1399947 1394656
2411.57 1416533 1407387 1379988 1375579 1419287 1506285
2414.46 1585325 1645617 1649776 1611007 1628270 1694641
2417.35 1738883 1731982 1704984 1690703 1684354 1680567
2420.25 1709573 1725736 1663462 1594050 1615042 1674868
2423.14 1699979 1683817 1651194 1636710 1662528 1662803
2426.03 1615213 1614106 1665866 1698660 1691000 1669649
2428.93 1656743 1655603 1639825 1620407 1606641 1560814
2431.82 1471811 1420400 1481060 1549074 1542971 1514577
2434.71 1461422 1433244 1480435 1504180 1491947 1498797
2437.60 1484696 1478823 1491678 1504745 1490697 1400530
2440.50 1313201 1324787 1340185 1293472 1279979 1261000
2443.39 1189938 1150580 1200182 1230587 1146482 1046084
2446.28 1015558 1032454 1018604 980736 998513 1023358
2449.17 1010521 1013360 991668 900089 874387 937297
2452.07 961368 935720 926844 907562 849375 840375
2454.96 867638 839866 804564 815874 840555 830758
2457.85 802680 796178 803865 807236 824381 871476
2460.75 895173 894757 889676 849922 786414 746157
2463.64 749230 777688 807384 833751 830669 862802
2466.53 935034 943908 885718 823799 822115 878895
2469.42 912981 898446 893083 906416 876743 846570
2472.32 862379 870384 888425 960061 998641 940105
2475.21 903702 977857 1059723 1047471 974434 911110
2478.10 885771 920984 950322 902047 870832 895919
2480.99 931468 890982 824054 829362 842103 841890
2483.89 859165 868622 872266 901931 872485 779859
2486.78 746467 784096 855700 876495 838501 817383
2489.67 797587 772546 770808 808573 837594 798238
2492.57 746301 766677 820389 830163 818947 777395
2495.46 703436 657492 684582 724175 731196 736287
2498.35 724908 659260 591019 588375 598577 560704
2501.24 514082 504647 505551 537073 557594 528933
2504.14 511254 516069 523937 507401 496793 520210
2507.03 503268 453343 405723 398574 448985 445331
2509.92 399106 387054 363462 357321 384046 398935
2512.81 414618 396879 340794 319157 325230 344879
2515.71 374489 382561 374335 352924 322163 302841
2518.60 315319 340014 339813 292725 282520 311437
2521.49 307729 346024 409490 406747 363375 344972
2524.39 356141 364403 354727 348792 351659 347486
2527.28 358295 351475 291974 267465 305510 321183
2530.17 307550 324152 340477 301676 248755 246752
2533.06 240286 190820 173487 213823 288131 323215
2535.96 275601 202594 230782 320610 314597 269708
2538.85 263252 284341 350704 397726 375397 295808
2541.74 188278 164056 216313 213445 163798 147034
2544.63 132924 66939 3897-9930 11320 49673
2547.53 77647 62810 22310 5404-12504-53281
2550.42-82448-90959-106898-115351-95508-101802
2553.31-153175-198029-186529-159022-186631-264681
2556.21-276974-231820-218786-219652-225342-205480
2559.10-143006-55647-14927-77199-128340-144182
2561.99-159129-138957-120268-114825-85892-53352
2564.88-87706-138440-119025-56786-37160-48444
2567.78-15388 20943 37867 54561 63047 110997
2570.67 177027 208211 232162 260435 302949 362332
2573.56 415135 492389 607310 689273 728231 809446
2576.45 963513 1140291 1253075 1296481 1364344 1479853
2579.35 1651965 1877840 2014458 2048394 2139800 2306776
2582.24 2466247 2575025 2632500 2689784 2771663 2858298
2585.13 2953924 3042245 3122271 3194749 3234668 3264444
2588.03 3307480 3345406 3431814 3585559 3652106 3659617
2590.92 3719078 3787845 3839557 3880707 3945771 4017001
2593.81 3982791 3925693 3889202 3792796 3702438 3625609
2596.70 3468807 3286162 3191580 3116666 2961601 2762037
2599.60 2561134 2375495 2257850 2197249 2125052 2009282
2602.49 1932841 1963769 2004576 1928654 1792707 1752020
2605.38 1816637 1883560 1906086 1919811 1952303 1925014
2608.27 1806404 1659153 1549667 1488763 1448231 1395075
2611.17 1319725 1226496 1132356 1069608 1023437 978280
2614.06 909209 821217 774240 765476 727438 645091
2616.95 631643 694437 688157 588733 523823 543759
2619.85 544585 497673 421020 362147 372558 358651
2622.74 285266 237391 241308 259593 248307 177792
2625.63 118625 89230 27139 36006 98243 83993
2628.52 55649 41707 71537 158253 224758 229874
2631.42 167465 111994 144531 211953 259118 290557
2634.31 283350 277039 321794 339506 326648 329596
2637.20 286804 255283 316943 371879 382877 428542
2640.09 456711 444006 466631 485404 438297 365748
2642.99 347240 387758 434038 424478 318697 207124
2645.88 241510 334842 302510 245513 272815 310146
2648.77 292032 283916 333552 335135 276615 212381
2651.67 193336 163124 74985 49751 68762 66226
2654.56 10286-67619-73928-67972-76691-58517
2657.45-83345-178764-231478-133666-44489-89799
2660.34-149986-180308-192588-144226-100462-101482
2663.24-77050-73622-124526-141682-119603-107126
2666.13-128392-167216-179805-132147-95067-122011
2669.02-121259-99980-137200-175184-150918-111133
2671.91-96021-94693-136984-202415-203197-155113
2674.81-144412-208100-275317-253237-201699-199291
2677.70-208585-169673-117295-106972-133562-150786
2680.59-135851-119627-147367-172671-111100-25421
2683.49 5543 1192-24788-118376-201475-164695
2686.38-77826-44145-46148-65004-73003-17842
2689.27 38702 62180 59838 87574 141508 162086
2692.16 141081 138303 168508 232221 331021 358918
2695.06 317185 302483 325454 312724 298469 349091
2697.95 412695 460094 511104 540705 574586 681045
2700.84 825534 926793 963768 986306 1019616 1040270
2703.73 1045053 1065422 1120363 1185411 1281810 1398783
2706.63 1461858 1487297 1520577 1561993 1607484 1634679
2709.52 1631206 1646890 1702141 1786541 1852044 1889539
2712.41 1948711 1971734 1935754 1931067 1965473 2006631
2715.31 2041584 2036739 2004534 2019779 2067966 2110995
2718.20 2150022 2164678 2198983 2322850 2417906 2399805
2721.09 2344534 2350629 2429783 2493379 2546024 2603806
2723.98 2678640 2770007 2795754 2780315 2837258 2986196
2726.88 3154380 3265126 3407237 3633303 3871701 4138828
2729.77 4509900 4963261 5442664 5906140 6394363 7013739
2732.66 7734226 8397510 8992771 9690935 10526359 11335931
2735.55 12091685 12883666 13659023 14325328 14933140 15403201
2738.45 15672001 15831546 15904982 15877105 15773734 15652161
2741.34 15603818 15750119 16263945 17385971 18878123 19683469
2744.23 18954923 17297669 16057536 15771711 16145071 16787733
2747.12 17452003 17967002 18231372 18102692 17621969 16955411
2750.02 16096796 15025736 13797326 12490592 11166252 9879869
2752.91 8754216 7781785 6865182 6055548 5398477 4882186
2755.80 4422973 3989240 3642854 3359045 3063994 2772364
2758.70 2503923 2269573 2112409 2015766 1921552 1846369
2761.59 1779754 1686602 1591124 1475274 1338667 1252067
2764.48 1258469 1319350 1330074 1278440 1268965 1264322
2767.37 1215589 1149712 1142473 1212538 1215761 1076257
2770.27 967044 1000415 1079510 1176054 1223992 1204685
2773.16 1181491 1143407 1096833 1100208 1171291 1209209
2776.05 1174356 1166972 1215073 1275557 1304640 1270075
2778.94 1276786 1315110 1276347 1243678 1296363 1365900
2781.84 1366016 1293293 1248097 1298907 1416114 1490886
2784.73 1487840 1497912 1548118 1601054 1652692 1718565
2787.62 1777904 1764585 1694062 1667758 1759241 1883290
2790.52 1957439 1995823 1997469 2010942 2086210 2200003
2793.41 2240717 2234893 2321768 2423944 2474471 2529516
2796.30 2581176 2615779 2695093 2819223 2932376 2952321
2799.19 2916283 2952756 3048707 3193536 3341736 3426222
2802.09 3477750 3522141 3599895 3655205 3677178 3740612
2804.98 3797173 3826746 3907330 4038194 4106885 4069695
2807.87 3993299 4005790 4166456 4325935 4422959 4513925
2810.76 4624425 4754117 4843725 4902824 4979766 5058838
2813.66 5119423 5218833 5391475 5599480 5750506 5860742
2816.55 5984317 6070113 6134404 6272621 6453082 6605052
2819.44 6705972 6801443 6979005 7175493 7318515 7460339
2822.34 7678619 7890999 8019375 8126658 8220096 8363097
2825.23 8638317 8923769 9131570 9320801 9507334 9707786
2828.12 9917299 10117066 10365287 10619559 10816322 11029178
2831.01 11257202 11491624 11760058 12009322 12295563 12616943
2833.91 12859891 13067917 13240526 13364631 13523975 13727106
2836.80 13884330 14004128 14181854 14383221 14559074 14748107
2839.69 15040669 15416676 15756385 16057537 16416943 16794592
2842.58 17116225 17436687 17764597 18104001 18551581 19017209
2845.48 19366123 19655213 19900944 20156793 20493623 20850151
2848.37 21132714 21463444 22080006 22715088 23160492 23712600
2851.26 24409197 25080425 25824380 26717186 27688146 28686640
2854.16 29674140 30805905 32148166 33538962 34977238 36511310
2857.05 38056540 39656903 41493500 43508203 45514218 47571908
2859.94 49833046 52305486 54938133 57694616 60621952 63772888
2862.83 67078711 70598001 74296486 78054214 82014026 86138878
2865.73 90261788 94470098 98797777 103123752 107415640 111673411
2868.62 115865139 119953727 124000361 128010352 131854060 135526850
2871.51 139050473 142471809 145887389 149146143 152209958 155187789
2874.40 158019708 160693347 163112694 165334694 167426639 169199395
2877.30 170624577 171775866 172722402 173494735 174044352 174417828
2880.19 174652408 174647222 174467170 174133114 173550875 172740329
2883.08 171738846 170673104 169560996 168315446 166855349 165148277
2885.98 163307310 161432057 159516658 157471161 155362231 153315252
2888.87 151256989 149264376 147487541 145760615 144017543 142393866
2891.76 140849773 139392087 138048944 136805118 135635994 134360410
2894.65 133075075 131826452 130390257 128897131 127559756 126311098
2897.55 125140873 124145785 123266081 122318181 121277678 120244850
2900.44 119249677 118273393 117393941 116572578 115700813 114880299
2903.33 114087017 113206674 112283907 111419876 110675344 109979513
2906.22 109236424 108489401 107827304 107274277 106827643 106462961
2909.12 106212288 106132720 106200468 106375124 106639253 107036586
2912.01 107567494 108335446 109489919 110914432 112508291 114274766
2914.90 116330784 118766021 121371522 124141355 127105707 130257249
2917.80 133808879 137781109 141941136 146307109 151068368 156164419
2920.69 161535501 167215133 173134593 179298310 185747704 192458688
2923.58 199447857 206683248 214101580 221643367 229442272 237621264
2926.47 245876916 254040665 262201123 270181752 277643856 284454535
2929.37 290681098 296421855 301795153 306916790 311756158 316174845
2932.26 320204040 323868347 327187294 330212992 332866089 335217969
2935.15 336996147 337635454 336945028 335100978 332461946 329451026
2938.04 326332126 323247940 320349590 317588440 314883266 312108353
2940.94 308967019 305227640 300992220 296268632 290663811 283827890
2943.83 275965612 267408242 258163414 248488562 238814060 229499643
2946.72 220775125 212504886 204527283 196866837 189650582 182988172
2949.62 176762849 170854314 165320673 160164027 155144119 149767120
2952.51 143812963 137723249 132127840 127201339 122919014 119340984
2955.40 116407970 114031146 112221298 111000056 110325079 109991648
2958.29 109915893 110171747 110524546 110494649 109875372 108736601
2961.19 107257204 105899746 104554926 102661001 100428077 98237916
2964.08 96178271 94322284 92556009 90791496 89219582 87964541
2966.97 86880543 85806591 84700589 83590043 82558436 81687573
2969.86 81108623 80829002 80752011 80811907 80997601 81359143
2972.76 81859241 82449421 83211922 84093195 84934587 85804458
2975.65 86755307 87770191 89002323 90299209 91512718 92899698
2978.54 94356989 95804665 97552389 99620883 101902041 104376643
2981.44 106949906 109450970 111447084 112644829 113387145 114053335
2984.33 114698091 115405745 116347712 117531446 119045243 120997383
2987.22 123417193 126380605 129775693 133233246 136595025 139766160
2990.11 142547782 144964426 147165309 149182596 151151279 153407455
2993.01 155975634 158801162 161997725 165635076 169741390 174236698
2995.90 178810979 183071977 186772384 189890381 192720673 195579221
2998.79 198491349 201504024 204810479 208467106 212382290 216518971
3001.68 220701164 224609642 228095084 230923260 232728604 233177025
3004.58 232010913 229481234 226348277 223133784 219947121 217031842
3007.47 214673991 212943874 211823397 211392931 211683095 212626725
3010.36 214123598 215817267 217105760 217651068 217516783 216935057
3013.26 216304983 215949304 216050672 216625926 217752974 219498413
3016.15 221722047 224399001 227465579 230664639 233944915 237309455
3019.04 240808225 244501285 248322460 252045277 255456099 258615805
3021.93 261408004 263517012 264818117 265411262 265409387 264674905
3024.83 263356151 262004055 261082054 260791980 261199607 262110411
3027.72 262640301 261932337 259889520 257183393 254860605 253421878
3030.61 252873366 253300740 254276823 254945247 254694504 253294893
3033.50 250870264 247514194 243051968 237468242 231043021 224067239
3036.40 216904007 209869892 203111310 196733486 190833437 185266820
3039.29 179871016 174772990 170035571 165610280 161702111 158634063
3042.18 156570333 155475491 155001181 154896150 155257334 156184374
3045.08 157651411 159638581 162025139 164630420 167251729 169342574
3047.97 170293307 170550299 170860216 171190901 171447521 171679744
3050.86 171837472 171727976 171405981 171155595 170898952 170518327
3053.75 170165274 169683462 168560054 166673476 164645678 163132819
3056.65 162367220 162114355 161890552 161511204 161016736 160260415
3059.54 159208815 157942757 156402938 154580794 152445590 149906526
3062.43 146966311 143733903 140357017 136831618 133132113 129303679
3065.32 125318520 121229541 117135559 112901231 108477142 104210562
3068.22 100138234 96035931 91884841 87863821 84051403 80396151
3071.11 76914360 73561503 70370870 67415835 64658793 61985686
3074.00 59346421 56817110 54527645 52495794 50523018 48486355
3076.90 46554204 44852759 43261502 41745293 40322155 38891115
3079.79 37493683 36262849 35188354 34214327 33278907 32405465
3082.68 31598172 30831013 30158108 29593655 29189918 28955858
3085.57 28621955 28132129 27758317 27505028 27321349 27287327
3088.47 27364598 27438691 27494632 27586984 27739769 27885113
3091.36 28041876 28290373 28553644 28832951 29215347 29637271
3094.25 30093961 30464731 30566104 30599899 30637975 30598811
3097.14 30537074 30499562 30502690 30385546 30128715 29987724
3100.04 29989581 29982361 29930561 29836879 29800317 29850268
3102.93 29984217 30241845 30448124 30385252 30247648 30192012
3105.82 30101487 29898241 29561655 29153445 28694092 28200977
3108.72 27693335 27176769 26648291 26097532 25530886 24934237
3111.61 24372851 23957863 23679985 23275883 22620075 21886855
3114.50 21202289 20533752 19817771 19058682 18340299 17755037
3117.39 17099898 16295271 15513956 14826250 14185357 13482995
3120.29 12783906 12178603 11622567 11090393 10492362 9834986
3123.18 9246511 8743448 8312810 8000275 7767765 7463733
3126.07 7100379 6746526 6476204 6315663 6207065 6140429
3128.96 6152568 6217612 6225078 6167734 6186333 6318565
3131.86 6492325 6685625 6901704 7144219 7413292 7706566
3134.75 7969179 8192129 8446343 8706259 8924260 9133635
3137.64 9284427 9327614 9383348 9607627 9845980 9953561
3140.54 10033714 10082518 10141280 10252267 10362473 10403638
3143.43 10292038 10173815 10161086 10163095 10223015 10312779
3146.32 10340530 10405367 10477770 10409123 10215089 10006925
3149.21 9832115 9514809 9012644 8570058 8225537 7761346
3152.11 7187228 6660852 6218931 5834604 5477878 5131309
3155.00 4710565 4271774 3929862 3595594 3317562 3115391
3157.89 2848147 2538719 2336205 2129557 1799995 1560679
3160.78 1501274 1471724 1433354 1412603 1394937 1341888
3163.68 1264220 1217905 1161322 1028371 929906 874982
3166.57 750172 571371 507657 525744 526889 486384
3169.46 409833 379923 353476 292937 270379 195924
3172.36 63273 56247 188376 268917 209055 102538
3175.25 54120 58593 62689-6851-69018-33884
3178.14-33849-40844 31602 96412 48964-47085
3181.03-70798-77862-133602-154601-128118-104197
3183.93-64315-18207-60662-137476-142451-164416
3186.82-270528-351786-348957-312763-279180-283970
3189.71-374175-477312-457498-358931-309976-313592
3192.60-319888-376624-452966-435419-332198-278469
3195.50-314139-331233-351106-407137-405973-339461
3198.39-309724-347600-421777-434218-368590-370713
3201.28-385105-333330-308591-343313-341772-338322
3204.18-427181-500335-463187-375376-363565-409278
3207.07-369303-278665-254388-278730-303378-362806
3209.96-437369-429833-372963-350094-349481-346843
3212.85-344060-339373-406099-453689-329099-107811
3215.75-53471-277792-423328-335353-270858-294655
3218.64-394223-494885-458053-363449-330417-317333
3221.53-287346-281341-310108-298148-219926-154756
3224.42-146663-172144-237482-302291-308603-308652
3227.32-330548-378584-411477-388634-330233-222640
3230.21-200704-272803-323073-342454-319703-308612
3233.10-339032-359534-350282-359953-332018-236866
3236.00-208837-238085-260482-334155-424032-429603
3238.89-322647-189457-205118-296578-228518-115194
3241.78-129991-155481-162902-148216-93230-65382
3244.67-67220-89551-182605-287138-290470-259657
3247.57-289453-350920-322064-197980-89323-43570
3250.46-3126 55506 69138 65286 49272-32850
3253.35-139506-173916-92082-5418 24199 23617
3256.24-27024-40867 43799 148469 188507 89988
3259.14-93485-203769-146945 5807 126218 133626
3262.03 51727 32310 97350 41075-86369-73080
3264.92 49374 118386 54968 33273 101847 94736
3267.82 49322-13991-81166-26768 41927 22890
3270.71-6172-28888-46565 10919 126775 108689
3273.60-36849-145486-196539-175549-52949 47852
3276.49 67945 57781 75961 108473 146216 161614
3279.39 59890-110281-123970 46037 68540 7950
3282.28 16838 1914 71046 126341 93443 73376
3285.17 73383 81398 65314-24466-74321-6190
3288.06 48363 68263 82749 68493 26028 87932
3290.96 193639 139824 82789 71936 36172 62652
3293.85 147471 267015 352106 292707 150852 76028
3296.74 109639 165348 157863 119590 66363-178
3299.64-29984 12511 18495-238 11211 62751
3302.53 96730 78069 62885 17711-28501-38915
3305.42-39249-26529 105720 185116 103949-11582
3308.31-109190-103263-11360 54357 69294 71933
3311.21 20141-36554-13395 46567 128117 184779
3314.10 132324 69131 51666 56782 98493 100921
3316.99-11601-88602-19628 72770 114458 110171
3319.88 153408 201074 154759 81398-8084-57895
3322.78 8866 105628 133043 54326 43611 110714
3325.67 83781 43655 62159 132095 147476 37069
3328.56-53577-35706 3319-79420-167042-118047
3331.46-76306-76414-10118 88542 121461 91097
3334.35 46041-22852-65007-76519-118758-185794
3337.24-182702-58570 10083-58547-117916-115353
3340.13-125786-123567-107250-85316-40201-7418
3343.03-33786-76888-56765-8478-8102-58911
3345.92-117458-69396-35104-114928-120035-19666
3348.81 31645-52581-116591-37282 19501-1362
3351.70-29551-104949-199158-193178-133542-111725
3354.60-147867-173601-112826-30128-59326-131751
3357.49-108005-84443-105952-41685 26679-33849
3360.38-137208-200437-180016-134331-151848-140199
3363.28-75713-68657-114375-118317-35228 16460
3366.17 66057 141670 141129 81710 35064-6983
3369.06-29579 23361 106333 233797 252926 65500
3371.95-35370 31587 148256 215954 185539 87563
3374.85 13188 46609 89649 116258 232891 329520
3377.74 303581 226939 147110 187616 290792 339020
3380.63 373473 322405 256350 216375 198078 267508
3383.52 335921 429476 526683 538971 524866 466969
3386.42 347498 291123 291811 260582 255488 328397
3389.31 478751 600034 553688 357360 222804 266641
3392.20 364551 363236 260084 208427 194286 209323
3395.10 234564 227552 312803 401678 351546 268326
3397.99 241001 226902 245317 304512 288580 188126
3400.88 135475 104831 46096-30485-32975 33259
3403.77 61385 106346 130037 107952 107242 65221
3406.67-6642-81266-112311-29177 81494 68282
3409.56-65708-117165-54908-5260 23432 53968
3412.45 53330-52002-152555-80017-12677-26188
3415.34 2956 85761 134156 90557 33108 34756
3418.24 2003-63421-113645-132051-29334 61854
3421.13-15061-173612-238220-101812 47619 128971
3424.02 136906 56407 8151 116479 216528 157892
3426.92 96680 90412 91627 55013 74699 139842
3429.81 119630 150922 254545 227322 128650 170158
3432.70 287575 239136 131643 202275 374992 460108
3435.59 426164 395759 383998 335095 301801 243082
3438.49 245508 403647 492536 494437 493997 422401
3441.38 361017 364182 291029 161883 90668 81598
3444.27 106617 74499 51767 152831 167343 64396
3447.16 100414 163372 114939 83718 93040 142369
3450.06 122073 16693-5658 22402 35067 63450
3452.95 84303 14873-58872-70906-86316-22335
3455.84 73346 5723-125934-173805-127850-42091
3458.74-8191-69312-190719-303122-322281-248647
3461.63-157748-126151-154161-156793-180002-253159
3464.52-303229-257364-172419-216788-313464-357700
3467.41-364694-363664-349457-247726-194742-328111
3470.31-445688-346007-282606-352949-362954-356295
3473.20-363001-340460-289310-257452-275712-345559
3476.09-388788-362345-313946-312644-362088-328302
3478.98-190603-149418-244395-266717-202721-213492
3481.88-311223-410043-504858-489291-354170-357487
3484.77-430399-387082-316175-348296-469514-477842
3487.66-389599-332383-286716-255444-228728-204564
3490.56-204058-249361-343080-328743-254705-320036
3493.45-396090-379797-341599-268548-197478-183873
3496.34-180110-185004-152910-111651-165646-252324
3499.23-314646-337902-203815-30692-90377-253935
3502.13-320811-304906-290542-332705-380776-373356
3505.02-340605-329419-322010-238660-188594-224228
3507.91-162976-69731-93222-227295-358592-302415
3510.80-195168-306365-396523-311094-259235-291351
3513.70-309915-231340-215729-350694-411429-350018
3516.59-291596-219403-214272-313889-338889-307646
3519.48-324912-433121-480226-336319-199624-270838
3522.38-436407-505887-518276-517181-461167-361284
3525.27-333972-407919-450500-434425-371319-313537
3528.16-303848-315315-337247-324816-283670-255300
3531.05-265128-220262-195043-269900-374749-520002
3533.95-523095-355818-267427-287680-337453-397276
3536.84-411180-396686-427151-459919-465560-405079
3539.73-285728-258940-317833-338468-341834-317137
3542.62-194578-103920-174167-305802-400693-406981
3545.52-372508-405170-457387-483826-522763-512005
3548.41-420331-358741-327178-342757-479847-597186
3551.30-633983-614287-551976-495922-459384-442157
3554.20-428712-460269-477957-471173-510327-556645
3557.09-567853-566853-621401-600100-537614-618045
3559.98-676192-621653-573416-596102-621535-573073
3562.87-525869-474423-456326-552098-650099-656050
3565.77-598014-531556-548971-616683-561769-531822
3568.66-662038-714567-575308-518862-604740-656377
3571.55-613657-517766-454149-472629-575193-624246
3574.44-595360-639756-676268-595786-462236-424741
3577.34-568836-645037-517749-425979-492945-605850
3580.23-651180-585525-467958-448718-535479-587667
3583.12-591395-588495-536694-452722-441403-548137
3586.02-703894-684747-544615-534815-617711-644139
3588.91-580732-523969-540007-541235-530555-560654
3591.80-560885-523292-503742-443816-345652-329740
3594.69-324452-279793-356601-453660-377910-280707
3597.59-294326-366364-381846-373914-471217-566201
3600.48-490119-345369-347858-424141-373514-232684
3603.37-203367-296903-349752-352578-363414-360127
3606.26-327552-335654-384271-380312-391167-449965
3609.16-399482-285032-180893-169472-253918-318222
3612.05-319502-228221-133919-120436-184154-223531
3614.94-227633-252752-310467-366172-361858-306101
3617.84-205068-145324-240072-281531-220933-229749
3620.73-196724-115782-115240-133326-108714-88030
3623.62-87481-82164-65512-59681-84668-83550
3626.51-36476-90231-286696-399644-416595-476989
3629.41-354831-97527 27853 23244-31513-77635
3632.30-80627-44245-41096-82521-79974-31085
3635.19-12639-16307 7213 62946 61180 25952
3638.08 48158 53705 1389-63713-81634-44400
3640.98-43659-57370 10399 130982 212471 259819
3643.87 273855 260401 269749 252707 197592 152147
3646.76 128094 224463 324570 145058-80239 50245
3649.66 276281 315596 270791 294439 432363 546007
3652.55 601696 640498 646004 662402 707737 668069
3655.44 502102 434754 579960 695333 705897 743477
3658.33 812876 823772 825863 910802 981545 987657
3661.23 1004721 1063716 1136500 1168111 1111901 1036214
3664.12 1064816 1168215 1281400 1342785 1353957 1361356
3667.01 1321499 1280137 1228596 1168363 1191063 1131215
3669.90 871401 744516 943950 1154878 1261725 1272408
3672.80 1183097 1102326 978005 806214 737040 634925
3675.69 629804 879487 998153 977450 1086817 1200915
3678.58 1181925 1158659 1161356 1102441 1064726 1107510
3681.48 1122922 1082036 1067904 1093723 1023811 854383
3684.37 799759 783107 681405 617334 619358 572623
3687.26 409503 195899 223409 412997 482646 463905
3690.15 374971 318516 403485 527583 601672 596281
3693.05 527446 505708 492610 393795 284540 310722
3695.94 456440 538711 555350 564656 552408 552894
3698.83 528393 499430 531911 551996 509226 420605
3701.72 367486 392213 382712 309693 283715 344705
3704.62 406501 368273 305389 258887 231748 249503
3707.51 253852 239642 147846 71566 151733 195292
3710.40 116615 33484-96643-108723 123362 282736
3713.30 247509 153935 63446 10929-19108-39872
3716.19 43763 121793 81859 23244 32052 41396
3719.08 32203 58302 110324 167307 196575 118095
3721.97 38786 86037 187846 231769 203134 147645
3724.87 119517 146708 121955 138408 194943 175092
3727.76 211200 259802 190054 149544 230301 283932
3730.65 262376 117085-72536-15681 146095 176359
3733.54 98501-32570-76038 48464 122834-640
3736.44-41903 102248 239118 291181 302166 345247
3739.33 419748 450108 398682 377183 453007 499127
3742.22 494305 479789 339605-37133-261039 46001
3745.12 496480 675996 637220 619567 721727 797255
3748.01 677987 371510 218246 494063 817701 876037
3750.90 683212 314383 260783 666981 992019 1097286
3753.79 1067013 956566 875237 895930 929958 887995
3756.69 936634 1044367 1022953 887124 750595 714445
3759.58 806847 974736 1047615 950140 841113 852977
3762.47 915787 987646 1068878 1057369 934166 791307
3765.36 727036 731143 752484 798783 879002 910507
3768.26 816581 620387 469179 561910 730011 715354
3771.15 558580 419382 481682 628155 617068 538333
3774.04 486087 469499 481442 423707 347432 365225
3776.94 385236 354401 347756 340013 233855 160293
3779.83 260754 447105 526960 468140 415765 430774
3782.72 456840 508971 478554 366037 309103 283551
3785.61 316886 377763 387856 363577 394963 443651
3788.51 441982 409247 430428 520199 559565 500875
3791.40 376295 307968 430379 588345 535697 427522
3794.29 431237 417136 354751 294988 326335 413307
3797.18 428512 392078 374655 373554 336370 335826
3800.08 303280 1389-118679 209874 424368 420930
3802.97 464072 601444 658211 547509 448977 401168
3805.86 218749-34387 76196 490060 694069 672229
3808.76 655369 660946 650334 654422 700948 722807
3811.65 689359 644476 639539 719079 763373 764164
3814.54 761649 553516 290986 462166 813895 923904
3817.43 911263 872690 855316 907008 898553 753638
3820.33 629948 610859 636249 754296 915537 1066492
3823.22 1163499 1163545 1120165 1125300 1182537 1147410
3826.11 1024016 1036488 1207271 1315764 1337090 1342119
3829.00 1311406 1297936 1306286 1240811 1091201 1042550
3831.90 1228480 1432269 1458775 1394653 1274240 1112122
3834.79 1153407 1292287 1290621 1286898 1123069 787750
3837.68 871142 1260735 1427816 1432659 1444227 1436633
3840.58 1385361 1400145 1510683 1622602 1635287 1556335
3843.47 1510452 1520768 1546289 1572873 1600688 1680547
3846.36 1789315 1791046 1657576 1576371 1610121 1684722
3849.25 1734475 1735438 1742050 1691457 1420500 1275819
3852.15 1510148 1628534 1271746 889332 1107026 1626017
3855.04 1845171 1795111 1725765 1693906 1768247 1886346
3857.93 1913638 1864057 1824491 1851476 1883534 1850477
3860.82 1738419 1642805 1664454 1744356 1861844 1940931
3863.72 1861056 1705786 1645083 1750908 1835011 1780992
3866.61 1715591 1679719 1681349 1718424 1633797 1454205
3869.50 1328360 1463080 1713530 1853564 1946296 1993539
3872.40 1991689 1891824 1748959 1726203 1854852 2006135
3875.29 2076553 2031258 1967875 2002863 2077308 2088893
3878.18 2086475 2092150 1997796 1880091 1945922 2091822
3881.07 2107420 2115812 2194910 2232178 2234103 2246782
3883.97 2204256 2068156 1897130 1889922 2090314 2281454
3886.86 2335593 2297914 2267731 2275548 2257958 2214992
3889.75 2219370 2142906 2017141 2036407 2102217 2148094
3892.64 2188922 2206325 2199727 2224972 2300295 2326211
3895.54 2284240 2223805 2189394 2208114 2224774 2162647
3898.43 2012656 1951474 2117816 2259173 2258082 2203945
3901.32 2122295 2141393 2218231 2240567 2190368 2103877
3904.22 2150969 2265053 2291361 2270876 2215934 2152895
3907.11 2168849 2212150 2255191 2271874 2243225 2259559
3910.00 2311716 2362958 2388098 2324885 2260329 2334229
3912.89 2482907 2573183 2529955 2409863 2397556 2440358
3915.79 2375035 2274212 2331386 2500989 2483943 2383568
3918.68 2356990 2331978 2394101 2491093 2535635 2591606
3921.57 2626787 2609420 2563532 2516595 2486711 2503150
3924.46 2536758 2550847 2550242 2588149 2592288 2533667
3927.36 2567792 2665296 2725043 2697162 2632017 2611141
3930.25 2559187 2484127 2456561 2473943 2466608 2478635
3933.14 2580670 2658678 2675881 2712133 2737283 2631695
3936.04 2533583 2514531 2434386 2386570 2493935 2610912
3938.93 2623703 2593834 2545227 2504035 2533003 2519447
3941.82 2441924 2421405 2405033 2343449 2358571 2404480
3944.71 2405941 2398013 2362706 2323767 2280961 2236335
3947.61 2188092 2105219 2009599 1932245 1916382 2045542
3950.50 2180831 2163132 2110571 2124017 2198714 2239002
3953.39 2228605 2205876 2182319 2189445 2176204 2137079
3956.28 2103828 2073024 2083915 2110229 2112202 2158550
3959.18 2274091 2333931 2256209 2151522 2139791 2167175
3962.07 2158763 2117787 2116681 2185459 2266532 2286588
3964.96 2211631 2165762 2178801 2168655 2141944 2162753
3967.86 2267952 2353657 2298374 2194490 2163053 2198559
3970.75 2190098 2189851 2287718 2279765 2198448 2241444
3973.64 2324255 2388192
##END=
