##TITLE=PHENOL, 4-METHYL-
##JCAMP-DX=4.24
##DATA TYPE=INFRARED SPECTRUM
##CLASS=COBLENTZ III
##ORIGIN=DOW CHEMICAL COMPANY
##OWNER=COBLENTZ SOCIETY
Collection (C) 2018 copyright by the U.S. Secretary of Commerce
on behalf of the United States of America. All rights reserved.
##DATE=1963/01/24
##NAMES=p-cresol
p-CRESOL
##CAS REGISTRY NO=106-44-5
##MOLFORM=C7 H8 O
##SOURCE REFERENCE=COBLENTZ NO. 10150
##$NIST SOURCE=COBLENTZ
##$NIST IMAGE=cob10150
##SPECTROMETER/DATA SYSTEM=DOW KBr FOREPRISM-GRATING
##INSTRUMENT PARAMETERS=BLAZED AT 3.5, 12.0, 20.0 MICRON, CHANGED AT 5.0, 7.5, 14.9 MICRON
##STATE=SOLUTION (10% IN CCl4 FOR 3800-1333, 10% IN CS2 FOR 1333-400 CM^-^1)
##PATH LENGTH=0.011, 0.011 CM
$$SPECTRAL CONTAMINATION DUE TO CCl4 AROUND 1550 CM^-^1
##SAMPLING PROCEDURE=TRANSMISSION
##RESOLUTION=4
##DATA PROCESSING=DIGITIZED BY NIST FROM HARD COPY (FROM TWO SEGMENTS)
##XUNITS=1/CM
##YUNITS=TRANSMITTANCE
##XFACTOR=1.000000
##YFACTOR=1
##DELTAX=0.870577
##FIRSTX=382.472
##LASTX=3797.74
##FIRSTY=0.495
##MAXX=3797.74
##MINX=382.472
##MAXY=0.994
##MINY=0.00100272
##NPOINTS=3924
##XYDATA=(X++(Y..Y))
382.472000 0.4950 0.4950 0.4950 0.4950 0.4960
386.824883 0.4960 0.4960 0.4960 0.4970 0.4990
391.177766 0.4990 0.5000 0.5000 0.5020 0.5030
395.530649 0.5070 0.5100 0.5110 0.5190 0.5270
399.883532 0.5420 0.5560 0.5680 0.5810 0.5930
404.236415 0.6050 0.6150 0.6299 0.6340 0.6479
408.589298 0.6630 0.6730 0.6830 0.6930 0.6990
412.942181 0.7050 0.7120 0.7170 0.7210 0.7240
417.295065 0.7250 0.7270 0.7310 0.7330 0.7380
421.647948 0.7390 0.7430 0.7480 0.7570 0.7650
426.000831 0.7730 0.7830 0.7890 0.7950 0.8020
430.353714 0.8110 0.8150 0.8180 0.8240 0.8290
434.706597 0.8330 0.8340 0.8390 0.8450 0.8470
439.059480 0.8480 0.8510 0.8540 0.8590 0.8600
443.412363 0.8620 0.8640 0.8670 0.8690 0.8700
447.765246 0.8710 0.8730 0.8730 0.8730 0.8730
452.118129 0.8730 0.8710 0.8700 0.8690 0.8640
456.471012 0.8490 0.8321 0.8141 0.7961 0.7831
460.823895 0.7570 0.7550 0.7570 0.7570 0.7610
465.176778 0.7630 0.7680 0.7760 0.7879 0.7950
469.529661 0.8130 0.8290 0.8430 0.8540 0.8640
473.882544 0.8740 0.8810 0.8880 0.8930 0.8960
478.235427 0.8970 0.9000 0.9010 0.9010 0.9000
482.588311 0.8990 0.8970 0.8940 0.8930 0.8920
486.941194 0.8900 0.8890 0.8850 0.8850 0.8810
491.294077 0.8780 0.8700 0.8620 0.8540 0.8450
495.646960 0.8300 0.8030 0.7840 0.7580 0.7101
499.999843 0.5873 0.5172 0.4443 0.3863 0.2666
504.352726 0.2180 0.1700 0.1221 0.0990 0.0761
508.705609 0.0760 0.1298 0.1947 0.2697 0.3337
513.058492 0.3980 0.4579 0.5768 0.6279 0.6709
517.411375 0.7019 0.7279 0.7469 0.7619 0.7739
521.764258 0.7850 0.7950 0.8030 0.8130 0.8140
526.117141 0.8170 0.8240 0.8290 0.8300 0.8330
530.470024 0.8360 0.8370 0.8390 0.8400 0.8400
534.822907 0.8400 0.8410 0.8430 0.8440 0.8450
539.175790 0.8450 0.8450 0.8450 0.8450 0.8450
543.528673 0.8450 0.8440 0.8440 0.8440 0.8430
547.881556 0.8430 0.8430 0.8410 0.8400 0.8400
552.234440 0.8400 0.8400 0.8400 0.8390 0.8370
556.587323 0.8370 0.8370 0.8360 0.8360 0.8340
560.940206 0.8340 0.8340 0.8330 0.8330 0.8330
565.293089 0.8320 0.8300 0.8280 0.8260 0.8260
569.645972 0.8260 0.8240 0.8220 0.8220 0.8220
573.998855 0.8210 0.8190 0.8190 0.8180 0.8180
578.351738 0.8170 0.8170 0.8150 0.8150 0.8140
582.704621 0.8130 0.8130 0.8140 0.8170 0.8260
587.057504 0.8290 0.8250 0.8190 0.8140 0.8060
591.410387 0.8040 0.8030 0.8030 0.8030 0.8020
595.763270 0.8020 0.8020 0.8020 0.8020 0.8020
600.116153 0.8000 0.8000 0.7990 0.7990 0.7990
604.469036 0.7980 0.7980 0.7980 0.7960 0.7950
608.821919 0.7950 0.7930 0.7930 0.7920 0.7910
613.174802 0.7890 0.7890 0.7880 0.7880 0.7870
617.527686 0.7870 0.7870 0.7870 0.7870 0.7850
621.880569 0.7850 0.7830 0.7810 0.7800 0.7780
626.233452 0.7780 0.7780 0.7770 0.7770 0.7770
630.586335 0.7760 0.7760 0.7740 0.7740 0.7720
634.939218 0.7700 0.7660 0.7620 0.7610 0.7590
639.292101 0.7590 0.7580 0.7530 0.7381 0.7360
643.644984 0.7390 0.7420 0.7440 0.7470 0.7470
647.997867 0.7470 0.7460 0.7460 0.7420 0.7360
652.350750 0.7350 0.7310 0.7290 0.7310 0.7420
656.703633 0.7510 0.7580 0.7620 0.7700 0.7760
661.056516 0.7780 0.7830 0.7840 0.7870 0.7870
665.409399 0.7830 0.7800 0.7780 0.7800 0.7850
669.762282 0.7890 0.7980 0.7980 0.8020 0.8020
674.115165 0.8030 0.8040 0.8070 0.8070 0.8090
678.468048 0.8100 0.8130 0.8130 0.8150 0.8170
682.820932 0.8180 0.8190 0.8210 0.8220 0.8220
687.173815 0.8220 0.8220 0.8240 0.8260 0.8260
691.526698 0.8250 0.8240 0.8210 0.8180 0.8150
695.879581 0.8000 0.7730 0.7550 0.7290 0.7030
700.232464 0.7010 0.7030 0.7249 0.7459 0.7510
704.585347 0.7620 0.7810 0.7850 0.7930 0.8040
708.938230 0.8100 0.8140 0.8190 0.8220 0.8250
713.291113 0.8260 0.8290 0.8290 0.8300 0.8300
717.643996 0.8320 0.8330 0.8330 0.8330 0.8320
721.996879 0.8320 0.8300 0.8290 0.8290 0.8280
726.349762 0.8250 0.8150 0.8110 0.8030 0.7851
730.702645 0.7650 0.7380 0.7230 0.7010 0.6491
735.055528 0.6151 0.5442 0.4722 0.4102 0.3492
739.408411 0.2870 0.2270 0.2270 0.3199 0.4089
743.761294 0.4250 0.5866 0.6677 0.7088 0.7359
748.114177 0.7590 0.7770 0.7930 0.7950 0.8130
752.467061 0.8210 0.8330 0.8340 0.8430 0.8490
756.819944 0.8510 0.8540 0.8550 0.8620 0.8660
761.172827 0.8690 0.8700 0.8730 0.8740 0.8770
765.525710 0.8780 0.8840 0.8850 0.8850 0.8850
769.878593 0.8860 0.8860 0.8850 0.8850 0.8850
774.231476 0.8850 0.8840 0.8840 0.8820 0.8820
778.584359 0.8810 0.8790 0.8770 0.8750 0.8740
782.937242 0.8730 0.8700 0.8690 0.8630 0.8620
787.290125 0.8590 0.8540 0.8510 0.8410 0.8340
791.643008 0.8240 0.8150 0.8040 0.7890 0.7680
795.995891 0.7471 0.7320 0.6822 0.6422 0.5783
800.348774 0.5250 0.4720 0.3830 0.3111 0.2521
804.701657 0.2061 0.1701 0.1441 0.1251 0.1091
809.054540 0.0960 0.0830 0.0620 0.0490 0.0400
813.407423 0.0340 0.0300 0.0250 0.0230 0.0200
817.760307 0.0200 0.0230 0.0310 0.1019 0.1170
822.113190 0.1469 0.1819 0.2249 0.2708 0.3198
826.466073 0.3691 0.4200 0.4670 0.5530 0.5870
830.818956 0.6150 0.6330 0.6390 0.6430 0.6430
835.171839 0.6370 0.6150 0.5830 0.5630 0.5410
839.524722 0.4841 0.3453 0.3211 0.3210 0.3608
843.877605 0.4361 0.5680 0.6110 0.6460 0.6730
848.230488 0.6970 0.7160 0.7290 0.7400 0.7480
852.583371 0.7570 0.7610 0.7660 0.7740 0.7780
856.936254 0.7830 0.7880 0.7930 0.8020 0.8070
861.289137 0.8130 0.8210 0.8280 0.8330 0.8340
865.642020 0.8370 0.8430 0.8510 0.8540 0.8580
869.994903 0.8630 0.8660 0.8690 0.8730 0.8770
874.347786 0.8790 0.8850 0.8900 0.8920 0.8940
878.700669 0.9000 0.9050 0.9120 0.9180 0.9240
883.053553 0.9300 0.9330 0.9350 0.9410 0.9440
887.406436 0.9480 0.9530 0.9570 0.9600 0.9610
891.759319 0.9650 0.9690 0.9690 0.9710 0.9720
896.112202 0.9740 0.9760 0.9760 0.9780 0.9790
900.465085 0.9800 0.9800 0.9800 0.9800 0.9800
904.817968 0.9800 0.9790 0.9790 0.9780 0.9760
909.170851 0.9760 0.9760 0.9750 0.9720 0.9690
913.523734 0.9680 0.9640 0.9590 0.9540 0.9480
917.876617 0.9370 0.9290 0.9220 0.9031 0.9010
922.229500 0.9030 0.9080 0.9140 0.9220 0.9310
926.582383 0.9370 0.9440 0.9490 0.9530 0.9600
930.935266 0.9630 0.9650 0.9680 0.9710 0.9710
935.288149 0.9710 0.9710 0.9720 0.9720 0.9710
939.641032 0.9710 0.9690 0.9680 0.9670 0.9650
943.993915 0.9640 0.9610 0.9600 0.9560 0.9560
948.346798 0.9540 0.9540 0.9560 0.9590 0.9610
952.699682 0.9640 0.9650 0.9650 0.9670 0.9680
957.052565 0.9710 0.9710 0.9720 0.9740 0.9750
961.405448 0.9750 0.9750 0.9760 0.9760 0.9760
965.758331 0.9760 0.9760 0.9760 0.9760 0.9760
970.111214 0.9760 0.9760 0.9750 0.9740 0.9710
974.464097 0.9690 0.9690 0.9680 0.9680 0.9670
978.816980 0.9650 0.9640 0.9610 0.9590 0.9570
983.169863 0.9560 0.9540 0.9540 0.9540 0.9560
987.522746 0.9570 0.9590 0.9590 0.9600 0.9610
991.875629 0.9630 0.9630 0.9630 0.9640 0.9640
996.228512 0.9640 0.9640 0.9630 0.9630 0.9630
1000.581395 0.9610 0.9600 0.9600 0.9590 0.9570
1004.934278 0.9570 0.9530 0.9500 0.9480 0.9410
1009.287161 0.9350 0.9270 0.9150 0.9040 0.8850
1013.640044 0.7592 0.7590 0.8328 0.8809 0.8999
1017.992928 0.9040 0.9110 0.9240 0.9270 0.9270
1022.345811 0.9240 0.9240 0.9220 0.9220 0.9180
1026.698694 0.9140 0.9110 0.9040 0.9010 0.8940
1031.051577 0.8880 0.8790 0.8730 0.8660 0.8511
1035.404460 0.8440 0.8340 0.8280 0.8210 0.8190
1039.757343 0.8210 0.8220 0.8290 0.8340 0.8370
1044.110226 0.8480 0.8510 0.8540 0.8640 0.8710
1048.463109 0.8810 0.8840 0.8890 0.8940 0.9030
1052.815992 0.9090 0.9120 0.9150 0.9180 0.9200
1057.168875 0.9220 0.9240 0.9270 0.9290 0.9290
1061.521758 0.9290 0.9300 0.9300 0.9300 0.9300
1065.874641 0.9300 0.9300 0.9300 0.9300 0.9290
1070.227524 0.9290 0.9270 0.9260 0.9230 0.9220
1074.580407 0.9200 0.9190 0.9190 0.9180 0.9180
1078.933290 0.9160 0.9150 0.9140 0.9120 0.9080
1083.286174 0.9050 0.9040 0.9000 0.8960 0.8920
1087.639057 0.8890 0.8850 0.8790 0.8710 0.8600
1091.991940 0.8490 0.8360 0.8190 0.7991 0.7731
1096.344823 0.7420 0.7050 0.6600 0.6070 0.5601
1100.697706 0.5141 0.4462 0.3513 0.3510 0.4128
1105.050589 0.4161 0.4770 0.4991 0.5810 0.6420
1109.403472 0.6430 0.6350 0.6240 0.6150 0.6050
1113.756355 0.6050 0.6230 0.6420 0.6500 0.7230
1118.109238 0.7480 0.7690 0.7870 0.8020 0.8170
1122.462121 0.8180 0.8180 0.8180 0.8170 0.8150
1126.815004 0.8130 0.8110 0.8100 0.8070 0.8020
1131.167887 0.7960 0.7910 0.7850 0.7800 0.7760
1135.520770 0.7700 0.7660 0.7590 0.7570 0.7510
1139.873653 0.7430 0.7380 0.7240 0.7160 0.7080
1144.226536 0.6990 0.6880 0.6760 0.6570 0.6420
1148.579419 0.6260 0.6070 0.5890 0.5700 0.5530
1152.932303 0.5450 0.5370 0.5230 0.5120 0.4990
1157.285186 0.4870 0.4610 0.4360 0.4210 0.3680
1161.638069 0.3540 0.3261 0.3051 0.2561 0.2151
1165.990952 0.1780 0.1370 0.0960 0.0700 0.0550
1170.343835 0.0540 0.0550 0.0600 0.0620 0.0640
1174.696718 0.0721 0.1000 0.1070 0.1250 0.1370
1179.049601 0.1450 0.1580 0.1700 0.1840 0.1890
1183.402484 0.1990 0.2040 0.2070 0.2100 0.2140
1187.755367 0.2150 0.2160 0.2160 0.2150 0.2100
1192.108250 0.2060 0.2030 0.2000 0.1970 0.1890
1196.461133 0.1820 0.1800 0.1750 0.1670 0.1560
1200.814016 0.1450 0.1360 0.1260 0.1210 0.1170
1205.166899 0.1110 0.1060 0.1030 0.0990 0.0980
1209.519782 0.0950 0.0880 0.0870 0.0870 0.0850
1213.872665 0.0850 0.0850 0.0850 0.0840 0.0840
1218.225549 0.0810 0.0800 0.0800 0.0790 0.0790
1222.578432 0.0800 0.0800 0.0840 0.0880 0.0900
1226.931315 0.0900 0.0900 0.0880 0.0880 0.0840
1231.284198 0.0770 0.0700 0.0680 0.0650 0.0640
1235.637081 0.0640 0.0650 0.0650 0.0660 0.0680
1239.989964 0.0700 0.0770 0.0800 0.0850 0.0990
1244.342847 0.1030 0.1110 0.1170 0.1180 0.1240
1248.695730 0.1250 0.1220 0.1140 0.1060 0.0980
1253.048613 0.0800 0.0750 0.0600 0.0550 0.0580
1257.401496 0.1030 0.1370 0.1630 0.2069 0.2220
1261.754379 0.2850 0.2850 0.3160 0.3470 0.3770
1266.107262 0.4090 0.4370 0.5518 0.5869 0.6119
1270.460145 0.6781 0.7091 0.7430 0.7510 0.7760
1274.813028 0.7910 0.7960 0.8060 0.8150 0.8170
1279.165911 0.8170 0.8150 0.8130 0.8100 0.8070
1283.518795 0.8040 0.8020 0.7980 0.7960 0.7950
1287.871678 0.7920 0.7830 0.7780 0.7740 0.7590
1292.224561 0.7470 0.7420 0.7400 0.7360 0.7350
1296.577444 0.7330 0.7360 0.7440 0.7610 0.7700
1300.930327 0.7850 0.8030 0.8100 0.8260 0.8330
1305.283210 0.8400 0.8430 0.8470 0.8490 0.8490
1309.636093 0.8480 0.8470 0.8410 0.8360 0.8300
1313.988976 0.8260 0.8170 0.8130 0.8020 0.7920
1318.341859 0.7740 0.7610 0.7530 0.7251 0.6901
1322.694742 0.6649 0.6389 0.5900 0.5700 0.5480
1327.047625 0.5440 0.5400 0.5370 0.5360 0.5330
1331.400508 0.5320 0.5270 0.5220 0.5150 0.5030
1335.753391 0.4970 0.4960 0.4960 0.4990 0.5070
1340.106274 0.5120 0.5230 0.5250 0.5230 0.5210
1344.459157 0.5170 0.5120 0.5040 0.4990 0.4890
1348.812040 0.4810 0.4780 0.4720 0.4650 0.4610
1353.164924 0.4590 0.4590 0.4610 0.4620 0.4620
1357.517807 0.4660 0.4690 0.4720 0.4760 0.4840
1361.870690 0.4890 0.5020 0.5040 0.5110 0.5140
1366.223573 0.5290 0.5550 0.5630 0.5750 0.5820
1370.576456 0.5960 0.6050 0.6240 0.6310 0.6330
1374.929339 0.6520 0.6530 0.6530 0.6380 0.6300
1379.282222 0.6230 0.6150 0.6150 0.6499 0.6680
1383.635105 0.6871 0.7121 0.7400 0.7570 0.7620
1387.987988 0.7740 0.7810 0.7890 0.8040 0.8130
1392.340871 0.8190 0.8250 0.8300 0.8330 0.8340
1396.693754 0.8370 0.8400 0.8430 0.8430 0.8440
1401.046637 0.8440 0.8410 0.8400 0.8390 0.8340
1405.399520 0.8320 0.8290 0.8220 0.8210 0.8170
1409.752403 0.8140 0.8040 0.7930 0.7760 0.7730
1414.105286 0.7590 0.7420 0.7270 0.7120 0.7010
1418.458170 0.6710 0.6569 0.6029 0.5570 0.5360
1422.811053 0.5140 0.4960 0.4720 0.4570 0.4321
1427.163936 0.4070 0.3960 0.3860 0.3800 0.3790
1431.516819 0.3790 0.3800 0.3830 0.3870 0.3880
1435.869702 0.3960 0.4050 0.4060 0.4100 0.4180
1440.222585 0.4220 0.4310 0.4360 0.4440 0.4460
1444.575468 0.4480 0.4550 0.4580 0.4590 0.4610
1448.928351 0.4620 0.4660 0.4670 0.4670 0.4670
1453.281234 0.4660 0.4660 0.4650 0.4620 0.4550
1457.634117 0.4510 0.4500 0.4500 0.4510 0.4520
1461.987000 0.4550 0.4570 0.4590 0.4620 0.4670
1466.339883 0.4770 0.4840 0.4910 0.4990 0.5070
1470.692766 0.5120 0.5300 0.5560 0.5620 0.5720
1475.045649 0.5780 0.5870 0.5920 0.6010 0.6130
1479.398532 0.6180 0.6190 0.6220 0.6200 0.6200
1483.751416 0.6190 0.6180 0.6160 0.6150 0.6120
1488.104299 0.6120 0.6110 0.6080 0.6040 0.6030
1492.457182 0.6000 0.5930 0.5850 0.5680 0.5570
1496.810065 0.5469 0.5230 0.5070 0.4930 0.4630
1501.162948 0.4180 0.3541 0.3260 0.2791 0.2112
1505.515831 0.1949 0.1240 0.0990 0.0750 0.0310
1509.868714 0.0240 0.0150 0.0050 0.0020 0.0010
1514.221597 0.0010 0.0020 0.0040 0.0040 0.0050
1518.574480 0.0090 0.0100 0.0160 0.0340 0.0989
1522.927363 0.1502 0.2061 0.2661 0.3241 0.3800
1527.280246 0.4270 0.4610 0.4800 0.4910 0.5040
1531.633129 0.5150 0.5210 0.5230 0.5250 0.5250
1535.986012 0.5230 0.5170 0.5120 0.5100 0.5020
1540.338895 0.5020 0.4960 0.4890 0.4870 0.4820
1544.691778 0.4800 0.4760 0.4740 0.4730 0.4730
1549.044661 0.4740 0.4740 0.4760 0.4800 0.4850
1553.397545 0.4870 0.4880 0.4910 0.4970 0.5000
1557.750428 0.5060 0.5120 0.5210 0.5250 0.5520
1562.103311 0.5640 0.5680 0.5750 0.5860 0.5900
1566.456194 0.6040 0.6090 0.6160 0.6190 0.6230
1570.809077 0.6310 0.6340 0.6350 0.6370 0.6370
1575.161960 0.6350 0.6340 0.6330 0.6300 0.6300
1579.514843 0.6280 0.6240 0.6200 0.6160 0.6110
1583.867726 0.6050 0.6010 0.5920 0.5850 0.5740
1588.220609 0.5630 0.5530 0.5420 0.5120 0.4351
1592.573492 0.4119 0.3829 0.3410 0.3200 0.2970
1596.926375 0.2740 0.2400 0.2370 0.2400 0.2610
1601.279258 0.2971 0.3431 0.3990 0.4170 0.4550
1605.632141 0.4610 0.4610 0.4500 0.4171 0.3950
1609.985024 0.3810 0.3620 0.3430 0.3240 0.3080
1614.337907 0.3050 0.2890 0.2740 0.2710 0.2720
1618.690791 0.2941 0.3123 0.4181 0.4430 0.4661
1623.043674 0.5620 0.6000 0.6420 0.6790 0.7010
1627.396557 0.7210 0.7270 0.7330 0.7330 0.7360
1631.749440 0.7390 0.7430 0.7470 0.7580 0.7740
1636.102323 0.7830 0.7950 0.7980 0.8110 0.8150
1640.455206 0.8240 0.8360 0.8480 0.8560 0.8640
1644.808089 0.8690 0.8730 0.8820 0.8900 0.8960
1649.160972 0.9010 0.9040 0.9080 0.9110 0.9140
1653.513855 0.9180 0.9200 0.9230 0.9240 0.9270
1657.866738 0.9300 0.9300 0.9310 0.9340 0.9340
1662.219621 0.9370 0.9390 0.9410 0.9410 0.9420
1666.572504 0.9420 0.9440 0.9440 0.9450 0.9450
1670.925387 0.9450 0.9450 0.9450 0.9450 0.9460
1675.278270 0.9460 0.9460 0.9460 0.9450 0.9440
1679.631153 0.9420 0.9410 0.9380 0.9340 0.9310
1683.984037 0.9290 0.9270 0.9260 0.9240 0.9240
1688.336920 0.9260 0.9270 0.9290 0.9300 0.9310
1692.689803 0.9350 0.9370 0.9380 0.9420 0.9480
1697.042686 0.9490 0.9500 0.9520 0.9530 0.9530
1701.395569 0.9560 0.9560 0.9570 0.9590 0.9590
1705.748452 0.9600 0.9610 0.9610 0.9610 0.9610
1710.101335 0.9600 0.9600 0.9590 0.9590 0.9590
1714.454218 0.9570 0.9570 0.9570 0.9590 0.9590
1718.807101 0.9600 0.9600 0.9600 0.9600 0.9600
1723.159984 0.9590 0.9590 0.9590 0.9570 0.9560
1727.512867 0.9560 0.9560 0.9560 0.9540 0.9530
1731.865750 0.9530 0.9530 0.9520 0.9520 0.9520
1736.218633 0.9520 0.9500 0.9500 0.9490 0.9490
1740.571516 0.9480 0.9480 0.9460 0.9460 0.9460
1744.924399 0.9460 0.9450 0.9450 0.9440 0.9440
1749.277282 0.9420 0.9420 0.9410 0.9380 0.9380
1753.630166 0.9370 0.9370 0.9350 0.9350 0.9350
1757.983049 0.9350 0.9340 0.9340 0.9340 0.9340
1762.335932 0.9350 0.9350 0.9370 0.9370 0.9380
1766.688815 0.9390 0.9440 0.9450 0.9460 0.9490
1771.041698 0.9530 0.9540 0.9540 0.9560 0.9570
1775.394581 0.9590 0.9590 0.9600 0.9610 0.9610
1779.747464 0.9630 0.9640 0.9640 0.9650 0.9650
1784.100347 0.9650 0.9650 0.9670 0.9670 0.9670
1788.453230 0.9670 0.9670 0.9680 0.9680 0.9680
1792.806113 0.9680 0.9680 0.9680 0.9680 0.9680
1797.158996 0.9680 0.9680 0.9680 0.9680 0.9680
1801.511879 0.9680 0.9680 0.9680 0.9680 0.9690
1805.864762 0.9690 0.9690 0.9690 0.9690 0.9690
1810.217645 0.9690 0.9690 0.9690 0.9690 0.9690
1814.570528 0.9690 0.9680 0.9680 0.9680 0.9680
1818.923412 0.9680 0.9680 0.9680 0.9680 0.9680
1823.276295 0.9680 0.9680 0.9670 0.9670 0.9650
1827.629178 0.9640 0.9630 0.9610 0.9610 0.9600
1831.982061 0.9600 0.9590 0.9570 0.9570 0.9560
1836.334944 0.9540 0.9540 0.9530 0.9530 0.9520
1840.687827 0.9490 0.9480 0.9460 0.9460 0.9460
1845.040710 0.9460 0.9450 0.9440 0.9440 0.9420
1849.393593 0.9390 0.9380 0.9350 0.9330 0.9300
1853.746476 0.9270 0.9240 0.9200 0.9180 0.9140
1858.099359 0.9110 0.9070 0.9010 0.8960 0.8900
1862.452242 0.8770 0.8670 0.8620 0.8520 0.8370
1866.805125 0.8280 0.8210 0.8130 0.8110 0.8130
1871.158008 0.8210 0.8290 0.8360 0.8470 0.8510
1875.510891 0.8580 0.8670 0.8750 0.8850 0.8920
1879.863774 0.8960 0.9050 0.9110 0.9150 0.9220
1884.216658 0.9300 0.9310 0.9350 0.9380 0.9410
1888.569541 0.9420 0.9450 0.9460 0.9480 0.9480
1892.922424 0.9480 0.9490 0.9490 0.9490 0.9500
1897.275307 0.9500 0.9520 0.9520 0.9540 0.9540
1901.628190 0.9540 0.9560 0.9560 0.9560 0.9560
1905.981073 0.9540 0.9540 0.9530 0.9520 0.9520
1910.333956 0.9530 0.9540 0.9560 0.9570 0.9590
1914.686839 0.9590 0.9610 0.9630 0.9630 0.9640
1919.039722 0.9650 0.9650 0.9670 0.9670 0.9670
1923.392605 0.9670 0.9670 0.9670 0.9670 0.9670
1927.745488 0.9670 0.9670 0.9650 0.9650 0.9670
1932.098371 0.9670 0.9650 0.9650 0.9650 0.9640
1936.451254 0.9640 0.9630 0.9610 0.9600 0.9600
1940.804137 0.9600 0.9600 0.9610 0.9610 0.9630
1945.157020 0.9630 0.9640 0.9650 0.9670 0.9690
1949.509903 0.9840 0.9840 0.9690 0.9650 0.9630
1953.862787 0.9630 0.9640 0.9670 0.9760 0.9780
1958.215670 0.9790 0.9820 0.9800 0.9740 0.9680
1962.568553 0.9640 0.9610 0.9610 0.9600 0.9600
1966.921436 0.9600 0.9600 0.9590 0.9590 0.9600
1971.274319 0.9590 0.9590 0.9570 0.9560 0.9560
1975.627202 0.9540 0.9540 0.9540 0.9530 0.9530
1979.980085 0.9520 0.9520 0.9480 0.9450 0.9420
1984.332968 0.9390 0.9370 0.9370 0.9350 0.9350
1988.685851 0.9340 0.9330 0.9330 0.9310 0.9220
1993.038734 0.8999 0.8880 0.8991 0.9300 0.9380
1997.391617 0.9450 0.9450 0.9460 0.9480 0.9485
2001.744500 0.9490 0.9490 0.9490 0.9490 0.9490
2006.097383 0.9470 0.9450 0.9445 0.9440 0.9440
2010.450266 0.9440 0.9440 0.9440 0.9440 0.9440
2014.803149 0.9440 0.9440 0.9445 0.9450 0.9450
2019.156033 0.9450 0.9450 0.9451 0.9471 0.9491
2023.508916 0.9516 0.9540 0.9540 0.9540 0.9540
2027.861799 0.9540 0.9540 0.9539 0.9519 0.9500
2032.214682 0.9500 0.9500 0.9500 0.9511 0.9731
2036.567565 0.9940 0.9940 0.9929 0.9704 0.9490
2040.920448 0.9495 0.9500 0.9500 0.9501 0.9511
2045.273331 0.9521 0.9531 0.9540 0.9540 0.9540
2049.626214 0.9540 0.9541 0.9551 0.9559 0.9539
2053.979097 0.9520 0.9520 0.9521 0.9531 0.9540
2058.331980 0.9540 0.9540 0.9540 0.9540 0.9535
2062.684863 0.9530 0.9525 0.9519 0.9509 0.9500
2067.037746 0.9495 0.9489 0.9474 0.9457 0.9422
2071.390629 0.9390 0.9390 0.9391 0.9406 0.9421
2075.743512 0.9431 0.9440 0.9445 0.9450 0.9450
2080.096395 0.9450 0.9450 0.9450 0.9445 0.9440
2084.449279 0.9446 0.9450 0.9450 0.9451 0.9456
2088.802162 0.9460 0.9460 0.9460 0.9460 0.9459
2093.155045 0.9454 0.9450 0.9450 0.9450 0.9450
2097.507928 0.9450 0.9450 0.9451 0.9456 0.9460
2101.860811 0.9460 0.9462 0.9477 0.9491 0.9496
2106.213694 0.9501 0.9511 0.9520 0.9520 0.9521
2110.566577 0.9526 0.9531 0.9536 0.9540 0.9540
2114.919460 0.9541 0.9551 0.9560 0.9560 0.9560
2119.272343 0.9560 0.9559 0.9548 0.9540 0.9540
2123.625226 0.9540 0.9540 0.9540 0.9540 0.9542
2127.978109 0.9552 0.9561 0.9566 0.9573 0.9593
2132.330992 0.9612 0.9622 0.9631 0.9636 0.9640
2136.683875 0.9640 0.9641 0.9646 0.9650 0.9650
2141.036758 0.9650 0.9650 0.9650 0.9650 0.9650
2145.389641 0.9650 0.9649 0.9644 0.9640 0.9640
2149.742524 0.9640 0.9640 0.9639 0.9634 0.9630
2154.095408 0.9630 0.9630 0.9630 0.9631 0.9636
2158.448291 0.9640 0.9640 0.9641 0.9646 0.9649
2162.801174 0.9644 0.9639 0.9634 0.9630 0.9630
2167.154057 0.9631 0.9636 0.9640 0.9640 0.9640
2171.506940 0.9640 0.9641 0.9646 0.9650 0.9650
2175.859823 0.9650 0.9650 0.9652 0.9662 0.9668
2180.212706 0.9658 0.9650 0.9650 0.9649 0.9644
2184.565589 0.9639 0.9634 0.9630 0.9630 0.9628
2188.918472 0.9618 0.9609 0.9604 0.9600 0.9600
2193.271355 0.9600 0.9600 0.9600 0.9600 0.9601
2197.624238 0.9606 0.9610 0.9610 0.9610 0.9610
2201.977121 0.9613 0.9623 0.9631 0.9636 0.9640
2206.330004 0.9640 0.9640 0.9640 0.9640 0.9640
2210.682887 0.9640 0.9640 0.9640 0.9640 0.9640
2215.035770 0.9640 0.9640 0.9640 0.9640 0.9640
2219.388654 0.9640 0.9640 0.9640 0.9640 0.9640
2223.741537 0.9640 0.9640 0.9640 0.9640 0.9640
2228.094420 0.9640 0.9640 0.9640 0.9640 0.9638
2232.447303 0.9633 0.9630 0.9630 0.9630 0.9630
2236.800186 0.9630 0.9630 0.9630 0.9630 0.9627
2241.153069 0.9617 0.9608 0.9603 0.9600 0.9600
2245.505952 0.9598 0.9593 0.9590 0.9590 0.9590
2249.858835 0.9590 0.9587 0.9577 0.9570 0.9570
2254.211718 0.9570 0.9570 0.9568 0.9563 0.9560
2258.564601 0.9560 0.9557 0.9547 0.9540 0.9540
2262.917484 0.9540 0.9540 0.9538 0.9533 0.9530
2267.270367 0.9530 0.9528 0.9523 0.9516 0.9506
2271.623250 0.9498 0.9493 0.9485 0.9470 0.9456
2275.976133 0.9446 0.9435 0.9419 0.9404 0.9389
2280.329016 0.9378 0.9373 0.9366 0.9356 0.9348
2284.681900 0.9343 0.9338 0.9333 0.9330 0.9330
2289.034783 0.9326 0.9316 0.9310 0.9310 0.9310
2293.387666 0.9310 0.9310 0.9310 0.9314 0.9324
2297.740549 0.9334 0.9344 0.9354 0.9364 0.9372
2302.093432 0.9377 0.9380 0.9380 0.9374 0.9359
2306.446315 0.9350 0.9350 0.9350 0.9350 0.9350
2310.799198 0.9350 0.9348 0.9343 0.9338 0.9333
2315.152081 0.9330 0.9330 0.9326 0.9316 0.9310
2319.504964 0.9310 0.9310 0.9310 0.9310 0.9310
2323.857847 0.9308 0.9303 0.9300 0.9300 0.9298
2328.210730 0.9293 0.9286 0.9276 0.9268 0.9263
2332.563613 0.9253 0.9238 0.9228 0.9223 0.9211
2336.916496 0.9191 0.9176 0.9166 0.9156 0.9146
2341.269379 0.9136 0.9126 0.9118 0.9113 0.9110
2345.622262 0.9110 0.9112 0.9117 0.9125 0.9135
2349.975145 0.9140 0.9140 0.9142 0.9147 0.9148
2354.328029 0.9143 0.9140 0.9140 0.9135 0.9125
2358.680912 0.9118 0.9113 0.9112 0.9117 0.9125
2363.033795 0.9135 0.9150 0.9170 0.9195 0.9225
2367.386678 0.9240 0.9240 0.9252 0.9277 0.9295
2371.739561 0.9305 0.9317 0.9332 0.9347 0.9362
2376.092444 0.9375 0.9385 0.9397 0.9412 0.9420
2380.445327 0.9420 0.9425 0.9435 0.9443 0.9448
2384.798210 0.9453 0.9458 0.9460 0.9460 0.9460
2389.151093 0.9460 0.9457 0.9452 0.9447 0.9442
2393.503976 0.9435 0.9425 0.9417 0.9412 0.9405
2397.856859 0.9395 0.9387 0.9382 0.9377 0.9372
2402.209742 0.9365 0.9355 0.9347 0.9342 0.9337
2406.562625 0.9332 0.9330 0.9330 0.9325 0.9315
2410.915508 0.9307 0.9302 0.9289 0.9269 0.9255
2415.268391 0.9245 0.9237 0.9232 0.9222 0.9207
2419.621275 0.9189 0.9169 0.9157 0.9152 0.9142
2423.974158 0.9127 0.9117 0.9112 0.9093 0.9063
2428.327041 0.9050 0.9050 0.9047 0.9042 0.9040
2432.679924 0.9040 0.9040 0.9040 0.9040 0.9040
2437.032807 0.9043 0.9048 0.9059 0.9074 0.9089
2441.385690 0.9104 0.9110 0.9110 0.9113 0.9118
2445.738573 0.9120 0.9120 0.9117 0.9112 0.9110
2450.091456 0.9110 0.9110 0.9110 0.9110 0.9110
2454.444339 0.9101 0.9086 0.9077 0.9072 0.9070
2458.797222 0.9070 0.9070 0.9070 0.9070 0.9070
2463.150105 0.9070 0.9070 0.9070 0.9070 0.9073
2467.502988 0.9078 0.9080 0.9080 0.9083 0.9088
2471.855871 0.9090 0.9090 0.9090 0.9090 0.9096
2476.208754 0.9106 0.9110 0.9110 0.9120 0.9135
2480.561637 0.9143 0.9148 0.9150 0.9150 0.9160
2484.914521 0.9175 0.9183 0.9188 0.9190 0.9190
2489.267404 0.9193 0.9198 0.9200 0.9200 0.9200
2493.620287 0.9200 0.9207 0.9217 0.9220 0.9220
2497.973170 0.9220 0.9220 0.9220 0.9220 0.9220
2502.326053 0.9220 0.9223 0.9228 0.9230 0.9230
2506.678936 0.9230 0.9230 0.9230 0.9230 0.9233
2511.031819 0.9238 0.9250 0.9265 0.9284 0.9304
2515.384702 0.9317 0.9327 0.9333 0.9338 0.9343
2519.737585 0.9348 0.9350 0.9350 0.9357 0.9367
2524.090468 0.9370 0.9370 0.9363 0.9353 0.9350
2528.443351 0.9350 0.9346 0.9341 0.9340 0.9340
2532.796234 0.9340 0.9340 0.9340 0.9340 0.9336
2537.149117 0.9331 0.9330 0.9330 0.9323 0.9313
2541.502000 0.9295 0.9275 0.9259 0.9244 0.9240
2545.854883 0.9240 0.9236 0.9231 0.9230 0.9230
2550.207766 0.9230 0.9230 0.9230 0.9230 0.9226
2554.560650 0.9221 0.9220 0.9220 0.9220 0.9220
2558.913533 0.9220 0.9220 0.9220 0.9220 0.9213
2563.266416 0.9203 0.9196 0.9191 0.9190 0.9190
2567.619299 0.9190 0.9190 0.9190 0.9190 0.9190
2571.972182 0.9190 0.9186 0.9181 0.9180 0.9180
2576.325065 0.9180 0.9180 0.9172 0.9162 0.9160
2580.677948 0.9160 0.9156 0.9151 0.9146 0.9141
2585.030831 0.9132 0.9122 0.9116 0.9111 0.9110
2589.383714 0.9110 0.9110 0.9110 0.9102 0.9092
2593.736597 0.9090 0.9090 0.9090 0.9090 0.9090
2598.089480 0.9090 0.9090 0.9090 0.9098 0.9108
2602.442363 0.9114 0.9119 0.9128 0.9138 0.9140
2606.795246 0.9140 0.9132 0.9122 0.9120 0.9120
2611.148129 0.9128 0.9138 0.9144 0.9149 0.9162
2615.501012 0.9177 0.9180 0.9180 0.9180 0.9180
2619.853896 0.9180 0.9180 0.9180 0.9180 0.9184
2624.206779 0.9189 0.9194 0.9199 0.9200 0.9200
2628.559662 0.9200 0.9200 0.9200 0.9200 0.9200
2632.912545 0.9200 0.9196 0.9191 0.9190 0.9190
2637.265428 0.9190 0.9190 0.9190 0.9190 0.9190
2641.618311 0.9190 0.9186 0.9181 0.9171 0.9161
2645.971194 0.9156 0.9151 0.9146 0.9141 0.9140
2650.324077 0.9140 0.9140 0.9140 0.9131 0.9121
2654.676960 0.9116 0.9111 0.9110 0.9110 0.9110
2659.029843 0.9110 0.9101 0.9091 0.9086 0.9081
2663.382726 0.9080 0.9080 0.9076 0.9071 0.9070
2667.735609 0.9070 0.9061 0.9051 0.9050 0.9050
2672.088492 0.9041 0.9031 0.9021 0.9011 0.9001
2676.441375 0.8991 0.8990 0.8990 0.8990 0.8990
2680.794258 0.8967 0.8942 0.8940 0.8940 0.8935
2685.147142 0.8930 0.8930 0.8930 0.8930 0.8930
2689.500025 0.8930 0.8930 0.8930 0.8930 0.8925
2693.852908 0.8920 0.8920 0.8920 0.8920 0.8920
2698.205791 0.8920 0.8920 0.8920 0.8920 0.8920
2702.558674 0.8920 0.8911 0.8901 0.8900 0.8900
2706.911557 0.8900 0.8900 0.8900 0.8900 0.8895
2711.264440 0.8890 0.8890 0.8890 0.8890 0.8890
2715.617323 0.8890 0.8890 0.8890 0.8890 0.8885
2719.970206 0.8880 0.8880 0.8880 0.8880 0.8880
2724.323089 0.8880 0.8880 0.8870 0.8860 0.8860
2728.675972 0.8860 0.8855 0.8850 0.8830 0.8810
2733.028855 0.8771 0.8731 0.8701 0.8671 0.8636
2737.381738 0.8601 0.8595 0.8590 0.8595 0.8600
2741.734621 0.8683 0.8768 0.8829 0.8889 0.8964
2746.087504 0.9039 0.9065 0.9090 0.9105 0.9120
2750.440387 0.9140 0.9160 0.9170 0.9180 0.9170
2754.793271 0.9160 0.9160 0.9160 0.9155 0.9150
2759.146154 0.9150 0.9150 0.9145 0.9140 0.9125
2763.499037 0.9110 0.9110 0.9109 0.9089 0.9070
2767.851920 0.9070 0.9070 0.9070 0.9070 0.9070
2772.204803 0.9070 0.9060 0.9050 0.9045 0.9040
2776.557686 0.9025 0.9010 0.9005 0.8999 0.8979
2780.910569 0.8960 0.8944 0.8930 0.8925 0.8920
2785.263452 0.8910 0.8900 0.8900 0.8900 0.8895
2789.616335 0.8890 0.8885 0.8879 0.8859 0.8839
2793.969218 0.8829 0.8820 0.8820 0.8820 0.8820
2798.322101 0.8820 0.8820 0.8820 0.8820 0.8820
2802.674984 0.8815 0.8809 0.8799 0.8790 0.8790
2807.027867 0.8789 0.8779 0.8770 0.8770 0.8769
2811.380750 0.8759 0.8750 0.8750 0.8750 0.8750
2815.733633 0.8750 0.8750 0.8750 0.8745 0.8740
2820.086517 0.8740 0.8740 0.8735 0.8729 0.8719
2824.439400 0.8710 0.8705 0.8699 0.8684 0.8669
2828.792283 0.8654 0.8639 0.8629 0.8617 0.8587
2833.145166 0.8559 0.8549 0.8539 0.8529 0.8519
2837.498049 0.8514 0.8508 0.8493 0.8478 0.8458
2841.850932 0.8433 0.8378 0.8326 0.8291 0.8259
2846.203815 0.8249 0.8234 0.8189 0.8145 0.8105
2850.556698 0.8059 0.7968 0.7873 0.7753 0.7631
2854.909581 0.7496 0.7336 0.7026 0.6746 0.6646
2859.262464 0.6545 0.6440 0.6336 0.6241 0.6146
2863.615347 0.6046 0.5945 0.5840 0.5750 0.5750
2867.968230 0.5761 0.5837 0.5911 0.5976 0.6038
2872.321113 0.6088 0.6142 0.6218 0.6322 0.6572
2876.673996 0.6796 0.6891 0.6981 0.7046 0.7111
2881.026879 0.7176 0.7234 0.7259 0.7281 0.7286
2885.379763 0.7290 0.7290 0.7290 0.7290 0.7290
2889.732646 0.7290 0.7289 0.7284 0.7273 0.7238
2894.085529 0.7207 0.7192 0.7175 0.7150 0.7122
2898.438412 0.7082 0.7040 0.6990 0.6939 0.6879
2902.791295 0.6816 0.6746 0.6674 0.6599 0.6523
2907.144178 0.6443 0.6361 0.6271 0.6172 0.6042
2911.497061 0.5901 0.5715 0.5554 0.5479 0.5403
2915.849944 0.5323 0.5241 0.5151 0.5035 0.4825
2920.202827 0.4627 0.4476 0.4359 0.4354 0.4351
2924.555710 0.4356 0.4367 0.4397 0.4431 0.4476
2928.908593 0.4540 0.4665 0.4793 0.4933 0.5067
2933.261476 0.5182 0.5309 0.5474 0.5617 0.5687
2937.614359 0.5741 0.5746 0.5753 0.5763 0.5771
2941.967242 0.5776 0.5781 0.5786 0.5793 0.5803
2946.320125 0.5811 0.5816 0.5824 0.5839 0.5851
2950.673008 0.5856 0.5864 0.5879 0.5895 0.5915
2955.025892 0.5937 0.5962 0.5988 0.6018 0.6047
2959.378775 0.6072 0.6096 0.6116 0.6134 0.6149
2963.731658 0.6163 0.6173 0.6181 0.6186 0.6191
2968.084541 0.6196 0.6203 0.6213 0.6229 0.6259
2972.437424 0.6294 0.6345 0.6388 0.6413 0.6435
2976.790307 0.6450 0.6466 0.6486 0.6506 0.6526
2981.143190 0.6543 0.6553 0.6562 0.6567 0.6572
2985.496073 0.6577 0.6585 0.6600 0.6613 0.6623
2989.848956 0.6632 0.6637 0.6640 0.6640 0.6638
2994.201839 0.6633 0.6630 0.6630 0.6627 0.6617
2998.554722 0.6603 0.6583 0.6555 0.6510 0.6457
3002.907605 0.6387 0.6323 0.6273 0.6213 0.6133
3007.260488 0.6048 0.5952 0.5850 0.5735 0.5637
3011.613371 0.5572 0.5509 0.5449 0.5362 0.5227
3015.966254 0.5126 0.5086 0.5042 0.4992 0.4948
3020.319138 0.4913 0.4848 0.4728 0.4623 0.4548
3024.672021 0.4489 0.4459 0.4436 0.4426 0.4416
3029.024904 0.4406 0.4385 0.4345 0.4314 0.4299
3033.377787 0.4290 0.4290 0.4294 0.4304 0.4312
3037.730670 0.4317 0.4326 0.4341 0.4363 0.4398
3042.083553 0.4437 0.4483 0.4554 0.4664 0.4752
3046.436436 0.4807 0.4886 0.5001 0.5198 0.5518
3050.789319 0.5768 0.5913 0.6032 0.6112 0.6188
3055.142202 0.6258 0.6308 0.6328 0.6348 0.6368
3059.495085 0.6396 0.6437 0.6464 0.6474 0.6491
3063.847968 0.6516 0.6530 0.6530 0.6536 0.6551
3068.200851 0.6562 0.6567 0.6583 0.6613 0.6641
3072.553734 0.6666 0.6695 0.6730 0.6765 0.6800
3076.906617 0.6837 0.6878 0.6916 0.6951 0.6988
3081.259500 0.7028 0.7066 0.7101 0.7138 0.7178
3085.612384 0.7207 0.7222 0.7234 0.7244 0.7257
3089.965267 0.7272 0.7280 0.7280 0.7282 0.7287
3094.318150 0.7290 0.7290 0.7290 0.7290 0.7288
3098.671033 0.7283 0.7280 0.7280 0.7273 0.7258
3103.023916 0.7245 0.7235 0.7223 0.7208 0.7193
3107.376799 0.7178 0.7163 0.7148 0.7128 0.7103
3111.729682 0.7076 0.7045 0.7008 0.6963 0.6933
3116.082565 0.6918 0.6903 0.6888 0.6875 0.6865
3120.435448 0.6853 0.6838 0.6823 0.6808 0.6795
3124.788331 0.6785 0.6780 0.6780 0.6775 0.6765
3129.141214 0.6750 0.6730 0.6707 0.6682 0.6652
3133.494097 0.6617 0.6585 0.6555 0.6527 0.6502
3137.846980 0.6480 0.6460 0.6442 0.6427 0.6407
3142.199863 0.6382 0.6362 0.6347 0.6337 0.6332
3146.552746 0.6330 0.6330 0.6317 0.6292 0.6264
3150.905629 0.6234 0.6201 0.6166 0.6139 0.6119
3155.258513 0.6099 0.6079 0.6062 0.6047 0.6021
3159.611396 0.5986 0.5962 0.5947 0.5929 0.5909
3163.964279 0.5878 0.5838 0.5798 0.5758 0.5723
3168.317162 0.5693 0.5666 0.5641 0.5613 0.5583
3172.670045 0.5559 0.5539 0.5519 0.5499 0.5484
3177.022928 0.5474 0.5445 0.5400 0.5366 0.5341
3181.375811 0.5310 0.5275 0.5237 0.5197 0.5160
3185.728694 0.5125 0.5090 0.5055 0.5025 0.5000
3190.081577 0.4970 0.4935 0.4905 0.4880 0.4852
3194.434460 0.4822 0.4787 0.4747 0.4727 0.4722
3198.787343 0.4690 0.4640 0.4590 0.4540 0.4496
3203.140226 0.4456 0.4416 0.4376 0.4357 0.4352
3207.493109 0.4332 0.4302 0.4266 0.4226 0.4186
3211.845992 0.4146 0.4106 0.4066 0.4038 0.4018
3216.198875 0.3995 0.3969 0.3944 0.3919 0.3897
3220.551759 0.3877 0.3851 0.3821 0.3794 0.3769
3224.904642 0.3747 0.3727 0.3707 0.3687 0.3661
3229.257525 0.3631 0.3604 0.3579 0.3557 0.3537
3233.610408 0.3508 0.3472 0.3434 0.3394 0.3373
3237.963291 0.3363 0.3344 0.3319 0.3297 0.3277
3242.316174 0.3257 0.3237 0.3220 0.3205 0.3197
3246.669057 0.3192 0.3170 0.3140 0.3114 0.3089
3251.021940 0.3057 0.3021 0.3000 0.2985 0.2977
3255.374823 0.2972 0.2956 0.2936 0.2906 0.2871
3259.727706 0.2843 0.2818 0.2790 0.2760 0.2740
3264.080589 0.2725 0.2713 0.2703 0.2676 0.2641
3268.433472 0.2616 0.2596 0.2576 0.2556 0.2529
3272.786355 0.2499 0.2476 0.2456 0.2432 0.2407
3277.139238 0.2386 0.2366 0.2353 0.2343 0.2326
3281.492121 0.2306 0.2289 0.2274 0.2256 0.2236
3285.845005 0.2226 0.2221 0.2206 0.2186 0.2166
3290.197888 0.2146 0.2129 0.2114 0.2099 0.2084
3294.550771 0.2076 0.2071 0.2059 0.2044 0.2029
3298.903654 0.2014 0.2003 0.1993 0.1979 0.1964
3303.256537 0.1956 0.1951 0.1943 0.1933 0.1926
3307.609420 0.1921 0.1909 0.1894 0.1890 0.1890
3311.962303 0.1879 0.1864 0.1856 0.1851 0.1846
3316.315186 0.1841 0.1833 0.1823 0.1820 0.1820
3320.668069 0.1816 0.1811 0.1806 0.1801 0.1792
3325.020952 0.1782 0.1776 0.1771 0.1770 0.1770
3329.373835 0.1770 0.1770 0.1762 0.1752 0.1750
3333.726718 0.1750 0.1746 0.1741 0.1740 0.1740
3338.079601 0.1740 0.1740 0.1740 0.1740 0.1740
3342.432484 0.1740 0.1740 0.1740 0.1740 0.1740
3346.785367 0.1740 0.1740 0.1740 0.1740 0.1740
3351.138250 0.1740 0.1744 0.1749 0.1750 0.1750
3355.491134 0.1750 0.1750 0.1758 0.1768 0.1770
3359.844017 0.1770 0.1774 0.1779 0.1788 0.1798
3364.196900 0.1804 0.1809 0.1810 0.1810 0.1814
3368.549783 0.1819 0.1828 0.1838 0.1840 0.1840
3372.902666 0.1844 0.1849 0.1850 0.1850 0.1854
3377.255549 0.1859 0.1860 0.1860 0.1868 0.1878
3381.608432 0.1880 0.1880 0.1884 0.1889 0.1894
3385.961315 0.1899 0.1913 0.1928 0.1938 0.1948
3390.314198 0.1954 0.1959 0.1964 0.1969 0.1979
3394.667081 0.1989 0.1994 0.1999 0.2000 0.2000
3399.019964 0.2013 0.2028 0.2030 0.2030 0.2047
3403.372847 0.2067 0.2074 0.2079 0.2080 0.2080
3407.725730 0.2089 0.2099 0.2109 0.2119 0.2129
3412.078613 0.2139 0.2149 0.2159 0.2173 0.2188
3416.431496 0.2199 0.2209 0.2214 0.2219 0.2238
3420.784380 0.2258 0.2264 0.2269 0.2288 0.2308
3425.137263 0.2319 0.2329 0.2330 0.2330 0.2353
3429.490146 0.2378 0.2394 0.2409 0.2424 0.2439
3433.843029 0.2458 0.2478 0.2485 0.2490 0.2517
3438.195912 0.2547 0.2573 0.2598 0.2618 0.2638
3442.548795 0.2654 0.2669 0.2675 0.2680 0.2689
3446.901678 0.2699 0.2723 0.2748 0.2755 0.2760
3451.254561 0.2783 0.2808 0.2815 0.2820 0.2825
3455.607444 0.2830 0.2844 0.2859 0.2883 0.2908
3459.960327 0.2934 0.2959 0.2970 0.2980 0.2999
3464.313210 0.3019 0.3039 0.3059 0.3070 0.3080
3468.666093 0.3094 0.3109 0.3129 0.3149 0.3174
3473.018976 0.3199 0.3200 0.3200 0.3214 0.3229
3477.371859 0.3235 0.3240 0.3260 0.3280 0.3300
3481.724742 0.3320 0.3335 0.3350 0.3365 0.3380
3486.077626 0.3385 0.3390 0.3400 0.3410 0.3420
3490.430509 0.3430 0.3459 0.3489 0.3510 0.3530
3494.783392 0.3535 0.3540 0.3550 0.3560 0.3585
3499.136275 0.3610 0.3630 0.3650 0.3685 0.3720
3503.489158 0.3740 0.3760 0.3780 0.3800 0.3820
3507.842041 0.3840 0.3875 0.3910 0.3935 0.3960
3512.194924 0.4006 0.4051 0.4091 0.4131 0.4166
3516.547807 0.4201 0.4236 0.4271 0.4311 0.4351
3520.900690 0.4391 0.4431 0.4476 0.4521 0.4571
3525.253573 0.4620 0.4625 0.4631 0.4651 0.4671
3529.606456 0.4706 0.4742 0.4777 0.4812 0.4852
3533.959339 0.4892 0.4927 0.4961 0.4991 0.5021
3538.312222 0.5031 0.5042 0.5077 0.5111 0.5131
3542.665105 0.5152 0.5192 0.5231 0.5246 0.5260
3547.017988 0.5265 0.5273 0.5308 0.5346 0.5431
3551.370871 0.5512 0.5542 0.5571 0.5586 0.5601
3555.723755 0.5611 0.5621 0.5631 0.5642 0.5672
3560.076638 0.5703 0.5743 0.5784 0.5839 0.5892
3564.429521 0.5912 0.5932 0.5952 0.5977 0.6047
3568.782404 0.6113 0.6148 0.6184 0.6224 0.6264
3573.135287 0.6304 0.6342 0.6367 0.6391 0.6401
3577.488170 0.6411 0.6421 0.6430 0.6425 0.6420
3581.841053 0.6414 0.6408 0.6393 0.6377 0.6352
3586.193936 0.6327 0.6302 0.6274 0.6224 0.6173
3590.546819 0.6118 0.6062 0.5997 0.5933 0.5878
3594.899702 0.5816 0.5701 0.5595 0.5550 0.5504
3599.252585 0.5453 0.5393 0.5273 0.5152 0.5027
3603.605468 0.4904 0.4789 0.4674 0.4559 0.4437
3607.958351 0.4277 0.4126 0.4031 0.3936 0.3841
3612.311234 0.3746 0.3651 0.3557 0.3467 0.3376
3616.664117 0.3280 0.3184 0.3089 0.3010 0.3010
3621.017001 0.3113 0.3733 0.4266 0.4361 0.4465
3625.369884 0.4615 0.4742 0.4752 0.4886 0.5642
3629.722767 0.6336 0.6731 0.7083 0.7218 0.7373
3634.075650 0.7625 0.7855 0.7985 0.8101 0.8161
3638.428533 0.8228 0.8323 0.8414 0.8489 0.8558
3642.781416 0.8598 0.8631 0.8636 0.8643 0.8658
3647.134299 0.8677 0.8712 0.8741 0.8746 0.8753
3651.487182 0.8768 0.8780 0.8780 0.8780 0.8780
3655.840065 0.8779 0.8774 0.8770 0.8770 0.8768
3660.192948 0.8758 0.8749 0.8744 0.8740 0.8740
3664.545831 0.8739 0.8734 0.8728 0.8718 0.8710
3668.898714 0.8710 0.8709 0.8704 0.8700 0.8700
3673.251597 0.8699 0.8694 0.8690 0.8690 0.8690
3677.604480 0.8690 0.8691 0.8696 0.8708 0.8743
3681.957363 0.8778 0.8813 0.8846 0.8871 0.8896
3686.310247 0.8921 0.8949 0.8984 0.9015 0.9035
3690.663130 0.9055 0.9075 0.9096 0.9121 0.9143
3695.016013 0.9153 0.9163 0.9173 0.9186 0.9211
3699.368896 0.9234 0.9249 0.9261 0.9266 0.9273
3703.721779 0.9283 0.9290 0.9290 0.9291 0.9296
3708.074662 0.9304 0.9319 0.9331 0.9336 0.9340
3712.427545 0.9340 0.9341 0.9346 0.9350 0.9350
3716.780428 0.9353 0.9363 0.9370 0.9370 0.9371
3721.133311 0.9376 0.9382 0.9387 0.9393 0.9403
3725.486194 0.9412 0.9417 0.9420 0.9420 0.9423
3729.839077 0.9433 0.9442 0.9447 0.9450 0.9450
3734.191960 0.9452 0.9457 0.9460 0.9460 0.9460
3738.544843 0.9460 0.9460 0.9460 0.9460 0.9460
3742.897726 0.9458 0.9453 0.9450 0.9450 0.9450
3747.250609 0.9450 0.9450 0.9450 0.9450 0.9450
3751.603492 0.9448 0.9443 0.9440 0.9440 0.9437
3755.956376 0.9427 0.9420 0.9420 0.9420 0.9420
3760.309259 0.9424 0.9434 0.9440 0.9440 0.9442
3764.662142 0.9447 0.9450 0.9450 0.9450 0.9450
3769.015025 0.9450 0.9450 0.9448 0.9443 0.9440
3773.367908 0.9440 0.9440 0.9440 0.9436 0.9426
3777.720791 0.9418 0.9413 0.9410 0.9410 0.9410
3782.073674 0.9410 0.9410 0.9410 0.9412 0.9417
3786.426557 0.9420 0.9420 0.9424 0.9434 0.9442
3790.779440 0.9447 0.9450 0.9450 0.9450 0.9450
3795.132323 0.9450 0.9450 0.9450 0.9450
##END=
