##TITLE=Butane
##JCAMP-DX=4.24
##DATA TYPE=INFRARED SPECTRUM
##CLASS=IUPAC A
##ORIGIN=NIST, Analytical Chemistry Division, 301-975-3108
##OWNER=COPYRIGHT (C) 2000 by the U.S. Secretary of Commerce
##DATE=00/02/01
##$SPECTRA VERSION=1.10
##$UNCERTAINTY IN Y=2.0 % relative (B=1.0E-04,C=-1.9E-11,D=8.7E-15)
##CAS NAME=Butane
##CAS REGISTRY NO=106-97-8
##MOLFORM=C4 H10
##MP=-138.35 C
##BP=-0.5 C
##$NIST SOURCE=QUANT-IR
##SPECTROMETER/DATA SYSTEM=IFS66V (Bruker)
##INSTRUMENT PARAMETERS=KBr Beam Splitter; MCT Detector; Multipass cell
##STATE=gas
##SAMPLE DESCRIPTION=Butane Primary Gas Standard
##PRESSURE=101.3 Pa
##TEMPERATURE=23 C
##SAMPLING PROCEDURE=1 L/min Flow
##RESOLUTION=1.9290
##DATA PROCESSING=Boxcar Apodization
##XUNITS=cm-1
##YUNITS=(micromol/mol)-1m-1 (base 10)
##XFACTOR=1.0
##YFACTOR=9.0949E-13
##DELTAX=0.9645
##FIRSTX=575.652
##LASTX=3974.605
##FIRSTY=-5.11E-08
##MAXX=3973.64
##MINX=575.65
##MAXY=.0008941
##MINY=-4.86E-07
##NPOINTS=3526
##XYDATA=(X++(Y..Y))
575.65-56221-245464 219995 415785-534460-368637
580.47-270695-134169-92648 274032 135860-96530
586.26-83088 268209 70034-235381-221355 81212
592.04-20102-257081 27483-360146 30122-68291
597.83-81238-190135-97498-113707-101359-133068
603.62-81702-161127 22507-97847-62124-93960
609.40-302936-261779-99401-172350-47001-143978
615.19-236309-216227-157451-55561-32267-58938
620.97-34142-90703-52175-103737-168709-116793
626.76-2399-325421-2658 5053-121854-23186
632.54-6926-197964-120246-221081-130408-109104
638.33-6987-93297-72772-18593-133425-144686
644.11-32508-100808-76929-168120-99396 436
649.90-49149-100142 8164-256839-189046-210741
655.68-56783-60237 29968-73963-205642-45828
661.47-79564-4413 60432-95348 61266-503262
667.25-560010 39440-1419 28470 28603 32558
673.04 25170 74539 128337 21970 171736 132256
678.83 124798 202377 268772 239549 306183 299756
684.61 344783 467307 423568 512122 607369 633909
690.40 869668 876842 957474 928408 1118749 1113260
696.18 1223521 1459874 1582855 1820682 1811758 1995763
701.97 2108298 2305221 2485185 2651145 2683825 2925998
707.75 3200476 3380321 3520672 3701443 3977020 4242118
713.54 4351553 4621858 4623355 4778898 5071671 5067313
719.32 5310875 5551959 5737256 5921962 6019834 6282383
725.11 6548226 6805198 6826103 7473212 8200519 9966859
730.89 12044910 12512642 9197784 8989051 9765755 9199603
736.68 9437441 9703710 9822936 9839689 9821748 9779418
742.47 9438866 9623070 9246763 10898715 12007321 10892653
748.25 11707764 10947822 10259202 9457177 9318325 8886951
754.04 8919201 8684147 8790187 8610577 8482704 8239836
759.82 8165680 7799755 7588745 7087901 6814389 6412672
765.61 6107517 5667324 5479571 4958235 4764245 4383297
771.39 4219054 3965573 3856270 3754370 3647669 3503997
777.18 3497174 3367640 3353851 3218979 3122817 3001110
782.96 2922532 2696756 2550590 2183083 1963904 1927216
788.75 1913354 1942020 2116063 2121000 2358101 2380531
794.53 2289149 2270316 2172996 1966554 1924834 1839608
800.32 1743986 1661735 1543919 1526642 1396519 1278940
806.11 1247488 999668 998031 833983 875555 654362
811.89 695393 634703 661085 401223 511856 423005
817.68 403040 222075 276244 289562 152848 211583
823.46 132851 120396 114544 141687 24536 88346
829.25 61978-53883-15857-41849 41759-38039
835.03 46814-7296 31752-4058-60264-109850
840.82 66450-60396 29601 45223 49392 24799
846.60-28365-32408-43521-82762 4708-42901
852.39-6835-74181 2149-22834 39041-12129
858.17-62357-28048 52597-97611 7325 3347
863.96 46600-64894 37175-80709-25202-261
869.75 40451-12725 28042-57299-1304-38111
875.53-30266-47516-7141-27484 23842-107164
881.32 71192-22126-32817-34672-7274-49344
887.10-6986-65713-58103-62527-41958-87522
892.89-3083 6663-20652-52371 2203-38460
898.67-16606-55424 88722-7177 84300-38062
904.46 54605 102637 132341 96284 168481 166308
910.24 228972 196471 275950 273233 300478 382560
916.03 474684 453459 579580 602626 707014 742097
921.81 822401 1007784 1070611 1188933 1360348 1461573
927.60 1676310 1772148 2052013 2208041 2545703 2751199
933.39 3161571 3487968 3903282 4274592 4826227 5291815
939.17 5949257 6443823 7190922 7678640 8632963 9083130
944.96 10049060 10674268 11937285 12238600 12621777 12784691
950.74 13213223 13520995 14685975 16017701 20266247 23800498
956.53 18409670 16339880 16956283 17460133 17925970 18310054
962.31 19037571 18802434 19928467 22144891 21369735 20869572
968.10 20583366 20497604 20464092 20268770 19567151 19004235
973.88 18166215 17537096 16829292 16210189 15074358 14129308
979.67 13141179 12688394 12135279 11501145 10962904 10830997
985.45 10058573 9652643 9331370 8892244 8555512 8030980
991.24 7701289 7233682 6805913 6306972 5892036 5487538
997.03 5051815 4678734 4209903 3840762 3520469 3313401
1002.81 3061519 2825498 2661420 2370042 2188920 2098352
1008.60 1957985 1840953 1718971 1581704 1494260 1364259
1014.38 1281114 1220353 1094245 1040231 1017091 915813
1020.17 841566 835456 770260 631688 633583 627872
1025.95 557611 543658 469365 455618 444347 472221
1031.74 503113 406145 387941 380957 373340 328667
1037.52 241628 325921 202378 226317 194740 170384
1043.31 82341 81287 151207 85784 120042 56783
1049.09 91918 101863 93899 39930 87525 87081
1054.88 112236 91311 106803 58634 98525 138955
1060.67 86443 134210 169483 188824 180311 164335
1066.45 187323 157589 202718 171672 257958 234762
1072.24 222958 279627 218118 197807 237343 185005
1078.02 121854 171947 173542 283013 274557 265257
1083.81 319962 292850 261140 282573 296544 347011
1089.59 282010 301301 318474 254448 295423 247006
1095.38 193593 236516 290301 274855 236817 251469
1101.16 257957 315630 309922 362321 366722 414652
1106.95 430678 500990 532039 622296 745837 860203
1112.73 954741 1093930 1283193 1466327 1628442 1893838
1118.52 2004024 2278033 2408191 2616527 2710251 2870997
1124.31 2909594 3014248 2974837 3116888 3170653 3133262
1130.09 3057198 3130203 3280277 3773015 3846650 3797392
1135.88 2820249 1588340 1976831 2221726 2652400 2883316
1141.66 3158876 3175234 3136591 2935273 2726755 2485720
1147.45 2225941 1965137 1690229 1472572 1281928 1058181
1153.23 933200 726213 602099 555622 388566 344252
1159.02 328173 239923 215650 188555 213189 209216
1164.80 124397 156729 158588 131132 145163 145478
1170.59 144393 208128 195626 228968 225529 226652
1176.37 192768 186057 175732 191093 229527 219480
1182.16 222368 192308 193680 205247 191286 233517
1187.95 170056 221759 217009 218054 172980 198406
1193.73 232412 230575 177100 222328 245876 175172
1199.52 223298 251353 208102 174371 211322 285837
1205.30 187297 240933 277969 261458 254238 271699
1211.09 261612 296568 277909 337030 306844 350084
1216.87 344634 387535 354826 413361 409497 465382
1222.66 457169 495483 498268 541310 530892 561715
1228.44 603136 621172 608103 691270 685213 734349
1234.23 766515 838326 848567 884738 916852 958065
1240.01 997345 1073109 1098001 1172012 1166371 1217468
1245.80 1290960 1384118 1433473 1514771 1536442 1619052
1251.59 1661958 1734058 1695476 1729286 1772375 1833297
1257.37 1883465 1877983 1847709 1938287 2203079 2329998
1263.16 1872069 2059496 2125495 2282654 2330900 2506823
1268.94 2548781 2742348 2913211 3151843 3383496 3790213
1274.73 4088844 4527086 4988884 5583370 6099577 6791017
1280.51 7306296 8004031 8419744 8786577 9045371 9160079
1286.30 8913254 8552053 7954235 7272202 6548132 7133829
1292.08 8135945 10519152 10518359 7552995 6981421 7845727
1297.87 8489807 9203409 9695585 9752405 9369456 9035922
1303.65 8308217 7799476 6996993 6390149 5533974 5034404
1309.44 4263501 3853260 3321178 3006035 2551307 2359259
1315.23 2074815 2018204 1833619 1901253 1818820 1991079
1321.01 2017916 2312637 2391673 2747923 2954052 3276386
1326.80 3499628 3900263 4108050 4469137 4644059 4901670
1332.58 4919674 4992653 4721022 4682542 4398175 4328024
1338.37 4074899 4321440 4863473 6412118 7904128 7493337
1344.15 4020968 3796887 3970224 4704150 5025137 5583853
1349.94 6191131 6705636 6888469 7226682 7100403 7329668
1355.72 7242447 7410378 7265753 7621352 7685059 8320072
1361.51 8711514 9679578 10417785 11853303 12932087 14709943
1367.29 16134212 18382065 20004779 22418533 24052273 26366447
1373.08 27830274 29481057 29916551 30752578 29891613 29979338
1378.87 28168941 28553487 28706839 39513823 41755369 36121264
1384.65 31634714 27017751 28341966 31432997 35644619 39498537
1390.44 41746021 42585581 43106765 42174108 40746295 38300656
1396.22 35552371 32330759 29132297 25900984 23047765 20311110
1402.01 17949725 15989584 14324633 13004136 11797783 10980946
1407.79 10255364 9889988 9581296 9175727 8852455 8838155
1413.58 8645849 8772999 8670756 8804010 8747464 9197479
1419.36 9153045 9505095 9685933 10314793 10635028 11316407
1425.15 11785017 12698210 13320118 14427166 15064806 16385061
1430.93 17190484 18887838 19986218 21889292 23276445 25485048
1436.72 27065398 29476559 31406453 34116201 35947205 39091981
1442.51 41130053 43888131 45185877 47850223 49125673 51757517
1448.29 52578899 55071007 55619237 59223736 60038139 62710341
1454.08 63100723 65953305 64908887 66688080 68617741 73787455
1459.86 77705406 93511177 88494885 82046692 87258754 108839181
1465.65 105136841 82166925 79043980 76725732 83571668 87688328
1471.43 76393250 65663146 60586814 58066547 59818380 61124229
1477.22 64215530 64779541 65878782 64654161 64342569 61768324
1483.00 60530008 57698029 56017749 52838479 51123659 47617170
1488.79 46000673 42622406 40683400 37754299 36023752 33252071
1494.57 31758230 29293455 27878217 25770081 24504472 22543421
1500.36 21459774 19741966 18802236 17155322 16514854 15028013
1506.15 14387685 12844264 12289656 11049175 10522147 9479744
1511.93 9073173 8052789 7749303 6777490 6619507 5800375
1517.72 5565861 4852128 4874452 4244294 4029289 3393237
1523.50 3347099 2984137 2864845 2447553 2447977 2032208
1529.29 2043489 1738971 1801652 1575522 1680417 1267377
1535.07 1428970 1151572 1317467 1263530 1407871 1073045
1540.86 1283297 1005280 1065688 958240 1062993 857821
1546.64 1069204 870527 1101257 906900 1063856 942905
1552.43 1135714 1125028 1177718 998696 1301162 1348202
1558.21 1461681 1413773 1369343 1214358 1386354 1227913
1564.00 1508785 1354655 1587240 1433072 1657544 1612980
1569.79 1683128 1563033 1744848 1689480 1699322 1828587
1575.57 2036813 1606905 1839992 1594460 1765916 1600360
1581.36 1740168 1510915 1731026 1497945 1672475 1509998
1587.14 1627160 1485370 1600995 1467530 1563679 1373381
1592.93 1482025 1315349 1380359 1259667 1313223 1180744
1598.71 1246558 1075213 1171027 1000847 1090253 921144
1604.50 995467 908640 1026611 911367 1006023 910690
1610.28 998088 933314 1022755 945569 1020934 1117501
1616.07 1295452 960489 1127687 943029 1075420 892632
1621.85 1020821 945661 924818 904019 1069733 1050437
1627.64 1132349 1050476 1174777 1076782 1268692 1164288
1633.43 1280743 1359447 1310511 1112825 1241403 1089669
1639.21 1191042 1069982 1151717 1023019 1154650 1112910
1645.00 1390182 1142115 1299521 1184727 1284763 1149299
1650.78 1417836 1682961 1610909 1360874 1414902 1318047
1656.57 1454214 1366852 1459605 1397497 1505220 1487031
1662.35 1546655 1383421 1518782 1404037 1583075 1489999
1668.14 1801013 1613076 1702848 1585389 1653675 1489690
1673.92 1723612 1562946 1457359 1363714 1430693 1339560
1679.71 1506039 1374220 1533874 1481252 1861412 1635708
1685.49 1444870 1400087 1386664 1345736 1402412 1321201
1691.28 1301579 1265724 1288687 1362984 1587200 1203236
1697.07 1318620 1187558 1589090 1343153 1272575 1212416
1702.85 1271657 1200263 1285013 1252967 1228780 1191796
1708.64 1285663 1191635 1195447 1206385 1227194 1192137
1714.42 1294746 1121469 1421381 1147401 1182692 1075315
1720.21 1153681 1032139 1110725 1037277 1105008 977906
1725.99 985689 851569 933825 864617 909249 810007
1731.78 930976 955795 980914 658471 720190 613191
1737.56 607719 632992 609924 468235 521594 468846
1743.35 444570 366541 452103 364611 402051 375727
1749.13 375655 405167 434294 241899 360042 228966
1754.92 352191 297141 320613 243181 319664 231779
1760.71 421458 276620 305744 252570 305863 260575
1766.49 333866 302614 299893 269879 316258 376565
1772.28 386379 244463 350869 278101 368453 283490
1778.06 353120 305064 418003 310792 439359 299963
1783.85 448633 315694 375591 326245 436343 350703
1789.63 442435 351646 519299 389914 404181 398801
1795.42 473071 402187 453113 417309 474020 390188
1801.20 488277 368093 472785 401803 452932 391632
1806.99 460601 411694 463013 432857 472269 392473
1812.77 466190 408213 431697 371584 411240 349898
1818.56 408539 336201 396328 323323 359104 295240
1824.35 372174 233329 319382 226525 316168 220506
1830.13 238927 150341 205900 119251 158555 104739
1835.92 136461 86508 106674 79035 93388 62824
1841.70 56611 105907 169837-14372 64154 6412
1847.49 63792-49740 51578-38285 32987-20466
1853.27 15768-29079 26349-41831 33308-10105
1859.06 31173-47464 39952-34432 23876-22193
1864.84 43140-8105 65450 12443 72081 1636
1870.63 85662 1048 91474 33689 131320 49756
1876.41 135734 78195 146145 138410 187334 165386
1882.20 208213 137465 256279 227716 293553 202613
1887.99 312892 284762 346505 309135 374872 352737
1893.77 453454 385179 453302 421346 541091 456695
1899.56 505155 483146 560248 500137 528732 485984
1905.34 536149 472864 554384 499579 549087 476307
1911.13 501318 464877 551755 495805 519034 444988
1916.91 588055 514247 588589 485420 545830 520466
1922.70 521014 479688 485620 441102 449318 387527
1928.48 436914 383260 440029 352426 421526 346017
1934.27 348923 348048 380424 328652 288587 249444
1940.05 289692 268686 253054 171700 227734 201549
1945.84 206708 183209 209214 172609 189760 144097
1951.63 174721 91877 145108 58055 115135 22227
1957.41 46969 25009 31715-13804 45174-30024
1963.20 26033-35916 15702-44064-20780-17804
1968.98-50306-70711-31243-72622-40512-92175
1974.77-6589-54900-47386-98372-37823-83780
1980.55-13510-89744-26218-99883-16453-98484
1986.34-37840-67986-25370-74370-30402-59402
1992.12 259-79940-21868-45429-4925-87091
1997.91 15313-63627 17784-39902 11817-29759
2003.69 27777-18923 63785-40773 35980 38113
2009.48 45398 21352 71583 71962 105410 91586
2015.27 141358 183658 237343 193781 295952 294252
2021.05 344448 377821 475204 459392 554930 524913
2026.84 602350 602465 697480 658731 680220 662911
2032.62 685786 613447 626466 688463 842428 719596
2038.41 619932 652660 703676 684544 792876 816496
2044.19 822406 822253 798481 746048 719085 659975
2049.98 639437 540028 563314 480846 461213 360282
2055.76 346373 328511 294098 257559 289003 241136
2061.55 257743 167123 258012 148453 177084 140967
2067.33 173819 152058 160771 150433 205015 158595
2073.12 170425 127219 208270 122530 193370 146963
2078.91 175450 154169 236865 191483 219605 184936
2084.69 261303 253615 210622 210663 260893 320306
2090.48 286536 253058 276059 330602 399330 295070
2096.26 331839 301069 444777 296367 385661 330603
2102.05 498877 396764 428142 379159 502800 520419
2107.83 437317 415117 495509 568770 481728 516954
2113.62 509615 657360 521051 527662 530509 655432
2119.40 671516 616954 624998 729568 722987 643798
2125.19 665436 699005 759080 638124 646473 626683
2130.97 728714 583264 679431 633377 683635 628162
2136.76 681903 670939 730634 656372 724465 684099
2142.55 739007 686244 735590 717750 710453 643472
2148.33 666141 659093 693082 602304 611251 681727
2154.12 714497 609668 631508 719260 704392 609376
2159.90 721814 755459 782947 684559 790255 818297
2165.69 810062 693100 934965 941253 807749 722305
2171.47 871308 780478 708872 737928 834664 686531
2177.26 688990 780487 792610 662510 742431 778316
2183.04 765815 657768 780480 791794 775218 674601
2188.83 811264 717929 687774 693034 768536 684839
2194.61 729867 738694 732247 713966 782138 793044
2200.40 767972 776527 803166 745423 778374 806399
2206.19 781531 729389 801988 798155 786253 822402
2211.97 824341 760063 789678 720678 752960 707980
2217.76 763139 753425 761739 751834 768108 710448
2223.54 712489 711233 739033 637507 670383 625099
2229.33 648314 592240 598655 567651 579324 501054
2235.11 563306 477577 473118 421184 459760 419559
2240.90 480298 459225 480662 457059 481552 448055
2246.68 446943 427761 516758 503879 507475 497452
2252.47 501975 485047 552706 511106 575385 553264
2258.25 590460 579928 621551 585395 622342 606856
2264.04 654534 597695 653886 606085 636980 574784
2269.83 627677 617681 630411 563655 657631 665614
2275.61 738046 697338 719566 735080 824425 787951
2281.40 866413 848402 882593 844000 894777 868547
2287.18 918177 857743 903201 879884 909064 891900
2292.97 891952 894205 838257 842961 925980 927565
2298.75 1010405 1003339 1123316 1013675 1109194 1080361
2304.54 1145104 1054904 1057452 1040481 1033022 1036085
2310.32 941993 1013134 866402 1010763 843712 1013399
2316.11 847754 996392 763220 958055 745502 934683
2321.89 829165 964289 707747 869762 711654 852972
2327.68 743221 854065 783979 865514 798254 918665
2333.47 852813 905641 908735 943403 850962 901517
2339.25 897080 910112 930473 976506 946510 1020451
2345.04 1105902 1154184 1231755 1292881 1278577 1192406
2350.82 1182412 1095634 1041947 921998 890078 834572
2356.61 739966 740535 694066 655371 632919 641968
2362.39 636188 639174 628700 670356 762836 813408
2368.18 829435 913446 1008161 1152054 1199104 1310371
2373.96 1383030 1445939 1532990 1641520 1679881 1750512
2379.75 1784010 1692635 1675709 1598368 1525702 1424778
2385.53 1404511 1495291 1538008 1721825 1497339 1316443
2391.32 1469171 1561755 1675143 1746117 1850796 1872080
2397.11 1895915 1777737 1733334 1642904 1548051 1399623
2402.89 1310640 1243921 1181005 1254787 1296221 1251002
2408.68 1212067 1295309 1355903 1436815 1523714 1564696
2414.46 1656331 1673427 1760506 1786389 1759516 1712261
2420.25 1710781 1692653 1705289 1773672 1784368 1872444
2426.03 1934729 1973759 1999815 2057150 2107417 2109457
2431.82 2108953 2090193 2157569 2150435 2061214 2025997
2437.60 2011245 1996441 2010971 1905632 1858360 1767764
2443.39 1807971 1773721 1802422 1787665 1802091 1760013
2449.17 1781162 1702754 1692373 1595195 1483990 1378336
2454.96 1270274 1200561 1082632 1029906 962959 858594
2460.75 845171 755771 698335 625627 650896 639242
2466.53 591409 561984 528460 550730 530154 492677
2472.32 486409 441693 415501 358276 352636 316620
2478.10 309136 293779 326682 306760 337628 270181
2483.89 284827 270513 239731 227636 272638 242029
2489.67 262100 218206 232578 177934 219561 213044
2495.46 241720 217253 212398 242292 225592 205446
2501.24 222283 241707 278109 292751 305226 340789
2507.03 334170 354606 388899 396596 435425 462277
2512.81 412172 528082 550896 570343 568623 567687
2518.60 603265 678671 669175 737573 710435 744784
2524.39 778105 860543 853363 809166 794895 811853
2530.17 808215 810742 839522 810654 784320 757935
2535.96 755289 815911 799661 779374 767961 775806
2541.74 777721 794666 754914 780342 725821 749435
2547.53 695620 697575 667739 650885 636465 627610
2553.31 633078 611768 670955 657980 660699 686173
2559.10 679963 723285 727236 812156 780758 848604
2564.88 901101 938269 937821 1024157 1068432 1101687
2570.67 1208484 1259013 1312153 1369558 1445755 1517562
2576.45 1573399 1666518 1743691 1835370 1882863 1974522
2582.24 2057856 2180184 2260034 2350071 2411516 2627614
2588.03 2679179 3007256 3232515 3148288 3246479 3276936
2593.81 3362736 3454911 3563171 3859283 4051677 3804784
2599.60 3797798 3845270 3883989 3919747 3921825 3991226
2605.38 3961089 4049053 4141047 4172389 4284843 4344365
2611.17 4385311 4472327 4547189 4572786 4603142 4732989
2616.95 4518987 4417180 4465757 4543118 4601090 4635567
2622.74 4567945 4598239 4561762 4599838 4658343 4727103
2628.52 4796953 4841512 4913160 4951536 4963070 4988546
2634.31 5000360 5018127 5026957 4966048 4940714 4895386
2640.09 4760714 4716573 4575395 4536920 4542500 4652755
2645.88 4763123 4964047 5109691 5250765 5282043 5274834
2651.66 5306551 5281967 5258578 5260016 5204737 5208672
2657.45 5208684 5073236 4894054 4882651 4762619 4791263
2663.24 4736483 4687560 4654462 4669442 4592729 4536465
2669.02 4440788 4363132 4237055 4134122 3990169 4009229
2674.81 4008325 4112929 4228967 4364709 4702004 4880964
2680.59 4979065 4891934 4664374 4420290 4106841 4002500
2686.38 3826177 3811096 3733309 3734346 3556876 3550355
2692.16 3441303 3411427 3340862 3320220 3294284 3330314
2697.95 3266700 3319637 3315081 3394999 3434587 3519581
2703.73 3567988 3702457 3806186 3868717 4011596 4164524
2709.52 4276727 4488927 4718358 4847971 4883375 5068042
2715.30 5152614 5283979 5303814 5444619 5629594 5912109
2721.09 6317039 6777433 7083910 7507241 7805510 8161291
2726.88 8493106 8939238 9229314 9630008 9951321 10405499
2732.66 10683792 10928229 11096919 11270471 11119208 11080238
2738.45 10791342 10556707 10486178 11432043 11173471 10268798
2744.23 10306438 10409522 10748658 11303723 11846296 12319033
2750.02 12294196 12240711 12099272 11882318 11458968 10949925
2755.80 10369735 9782382 9212423 8761190 8238281 7976412
2761.59 7618315 7503758 7207153 7072732 6831704 6773092
2767.37 6628428 6615086 6459847 6441207 6441907 6487278
2773.16 6345644 6445703 6428483 6562858 6589898 6735687
2778.94 6780057 6906108 6940426 7099602 7075849 7196041
2784.73 7149352 7246280 7176611 7316059 7311213 7503365
2790.52 7571572 7913425 8161810 9052320 8694436 8425922
2796.30 8565500 8869114 9205532 9414336 9641847 9919463
2802.09 10104636 10373354 10730264 11100515 11473584 11938305
2807.87 12356471 12887226 13194620 13725205 14171433 14838983
2813.66 15247634 15867718 16516586 17210156 17613401 18305789
2819.44 19102869 20306050 21480182 22605274 23549694 24744617
2825.23 25708023 26805403 27883061 29091024 30302027 31389148
2831.01 32495813 33875635 35186414 36512049 37747733 39550551
2836.80 41607316 44352466 47617576 50174412 51987206 54776616
2842.58 57464561 60548722 63652713 66746218 69722891 73111264
2848.37 76797274 81301025 86679403 92147966 96766779 101758167
2854.16 107671267 114359289 121199594 128208580 135285612 142369163
2859.94 149056342 155567890 162003286 168328030 174598118 180566470
2865.73 186233453 189970860 193977266 200041032 219049533 246769131
2871.51 254255882 257948244 265739379 282179444 300654045 317792175
2877.30 328615836 334253546 332228398 324104993 310192333 291546341
2883.08 276093731 265900376 281652626 331401583 291840683 282311616
2888.87 287703816 285193076 292020492 301276823 308474758 311663531
2894.65 311005319 306893758 300933024 293994986 286197967 278526100
2900.44 269903835 262307385 256158910 250179784 246005156 245730999
2906.22 247962286 251524039 252787365 257352475 261154103 266174636
2912.01 272238679 277739808 281160508 288668260 292904159 297505326
2917.80 304281282 317074209 335326724 346626575 352055033 369700491
2923.58 375358954 376091363 387783172 398646191 408890438 416701575
2929.37 427397018 445215156 469498850 504871229 486800546 464354471
2935.15 468340334 478272539 502371908 519909751 519844743 523020731
2940.94 516129210 519827168 518474072 520810860 524402865 542330413
2946.72 568016921 574134057 562221804 556335321 564891557 581390056
2952.51 597505478 615011274 631038274 650723562 662109692 679133975
2958.29 689771993 704543569 709581726 721929015 731751929 775654233
2964.08 868965940 983176186 881947764 794211755 749802075 693192075
2969.86 665724779 615265138 656634889 678372330 650325360 627376651
2975.65 622839054 622494959 628478652 628801367 627669232 616652965
2981.44 600803393 574959612 546339226 510781473 476178223 439064998
2987.22 404336826 369125005 337505079 306422876 279386845 253020159
2993.01 230972667 209328314 190896090 172947705 158161570 143233352
2998.79 130986889 118407835 108037114 97479441 88930455 79950472
3004.58 72752009 65204085 59279783 52891394 48101881 42845091
3010.36 39024122 34655601 31765869 28358830 26146474 23294106
3016.15 21578794 19315412 18093559 16258490 15424217 13951142
3021.93 13406496 12197654 11818745 10832899 10673093 9857896
3027.72 9771906 9043970 9092002 8524562 8607055 8040007
3033.50 8211316 7673681 7883171 7424633 7640311 7274054
3039.29 7489325 7138733 7332703 6977034 7268342 6908887
3045.08 7086198 6828588 7052820 6703856 6968337 6668494
3050.86 6905101 6639391 6859870 6678928 6911275 6720046
3056.65 7015461 6810894 7100542 6915316 7295440 7141530
3062.43 7494860 7348002 7671603 7521485 7892024 7750898
3068.22 8094311 7977900 8266183 8141059 8438724 8314260
3074.00 8572606 8309866 8657274 8470983 8658197 8389520
3079.79 8568380 8365429 8459880 8488887 8917261 8348914
3085.57 8658143 8626752 8663356 8221700 8309429 7901638
3091.36 7963055 7636823 7631289 7248459 7186106 6795525
3097.14 6817957 6382322 6518901 6042692 6125870 5712406
3102.93 5754796 5454730 5416005 5136748 5185028 4919869
3108.72 5006003 4722526 4795851 4573630 4589492 4415850
3114.50 4492696 4324599 4468085 4170377 4420839 4194361
3120.29 4297408 4182973 4346008 4191538 4331897 4248402
3126.07 4386853 4279261 4460473 4384994 4558853 4461682
3131.86 4633864 4550399 4785086 4705705 4866414 4790082
3137.64 5111153 4968329 5215257 5158852 5398325 5252479
3143.43 5445559 5366808 5534367 5462018 5702410 5692858
3149.21 5859831 5830502 6091161 6076283 6343345 6304832
3155.00 6582975 6641055 6838599 6883729 7110840 7058865
3160.78 7219218 7106803 7224380 7176822 7359109 7337404
3166.57 7641828 7696656 8052540 7857924 8134248 8021524
3172.36 8141641 8041420 8329471 7936287 7991326 7853172
3178.14 7709504 7412795 7354204 7258672 7278655 7391509
3183.93 7729284 7572682 7687750 7803609 7662019 7031827
3189.71 6955405 6680268 6554380 6312153 6289926 5997462
3195.50 6024942 5683155 5760022 5524284 5512722 5329794
3201.28 5280818 5212480 5163445 4897096 5072852 4725115
3207.07 4798144 4578215 4704088 4486210 4655098 4487921
3212.85 4485236 4389298 4479062 4316653 4482889 4327729
3218.64 4458791 4464642 4526643 4538737 4525465 4419845
3224.42 4470963 4280956 4310936 4020817 3960615 3677822
3230.21 3595583 3348753 3410975 3308194 3395929 3203948
3236.00 3334451 3234706 3200059 3053130 3045412 2864582
3241.78 2854366 2623828 2562355 2327216 2267230 2036251
3247.57 1986999 1792684 1757651 1465638 1509827 1308864
3253.35 1374869 1146597 1178470 994274 1028929 839590
3259.14 940854 849547 826742 717113 796945 659256
3264.92 760379 663756 800334 612024 772322 643782
3270.71 721441 617045 797697 691991 740897 694197
3276.49 803188 647958 808505 683665 742679 707407
3282.28 758108 746364 817107 823628 813056 724827
3288.06 870014 763809 794277 703372 759403 708177
3293.85 797493 678889 765861 647088 763338 676770
3299.64 797314 625005 663402 583281 644817 526677
3305.42 603284 457874 599680 480611 567761 462330
3311.21 540828 407307 473354 359388 466784 358571
3316.99 439949 399464 444175 388792 441749 321527
3322.78 450655 279950 495562 406426 443870 427082
3328.56 486021 418843 549347 456821 569346 454101
3334.35 586639 594009 634517 537529 625808 616661
3340.13 627556 558533 803489 674774 720166 623465
3345.92 765170 709335 779389 673353 828071 723033
3351.70 779654 758483 833512 726707 870695 736072
3357.49 880649 775067 792917 757566 828359 815316
3363.28 827233 766315 831579 815771 920594 752963
3369.06 909512 748689 816046 791960 925704 837720
3374.85 891242 957512 1011072 934360 1003854 925511
3380.63 1122216 1006120 1134432 1141891 1192735 1150179
3386.42 1284988 1211082 1270823 1207324 1318368 1253196
3392.20 1426712 1308783 1378305 1304367 1388807 1299401
3397.99 1322961 1229597 1201045 1166196 1239027 1177285
3403.77 1260804 1113770 1206894 1064808 1055764 985403
3409.56 1038609 974934 1034727 864250 861369 778669
3415.34 756233 665306 645624 491863 558455 388266
3421.13 394964 328262 349038 277832 363072 179309
3426.92 314464 181975 251991 232516 296876 165230
3432.70 232326 130324 226098 95373 249444 142356
3438.49 198983 94687 234832 48618 226908 53099
3444.27 120883 75454 139301 40908 161226 116877
3450.06 152734 130046 48957 21140 126515 5829
3455.84 77331 4420 143852 54533 95743 38757
3461.63 86773 100387 128599 51284 59084 89500
3467.41 46987 67955 117066 59810 92759 67406
3473.20 127620 47619 69318 54037 119298 101191
3478.98 132750 84004 209150 63154 113932 28095
3484.77 172383 91064 163794 43998 139185 67346
3490.56 77058 17144 118686 80866 129341 114327
3496.34 96516 5198 175585 24118 98046 87043
3502.13 129600 48191 174999 67547 83663 27434
3507.91 137663 16752 50647-14320 97081 42313
3513.70 94900-62006 38747-46472 79415-9812
3519.48 35967-8572 62671-27300-5474-20959
3525.27-40935 1504-24039-56824 82455 23427
3531.05-62624-98689 19024-84307 69566-94742
3536.84 53875-47583 12215-56369 69153-72268
3542.62 6536-52181 42825 3042 20404 40976
3548.41 16178-29188 26696-32125 65936-24846
3554.20 13514 51032 31851-26533 53840 6073
3559.98 53418 102313 79112 39864 127991 76753
3565.77 142281 116053 211402 100175 129793 71860
3571.55 122351 85230 158327 132863 108347 227212
3577.34 178591 169790 247098 155259 235515 159275
3583.12 257347 156836 319216 243995 275090 367286
3588.91 320814 216718 316841 329111 377368 295829
3594.69 397740 306048 410346 322282 428517 422520
3600.48 530564 386668 437890 426204 492928 476168
3606.26 578392 503566 610019 530898 595194 607360
3612.05 687352 632824 684288 610146 677665 633378
3617.84 763361 766913 728355 721513 762668 737682
3623.62 718873 746211 827242 818065 883334 883050
3629.41 849831 789723 788886 716492 842297 684442
3635.19 785007 760492 933747 823694 891047 903936
3640.98 887007 871522 872776 897165 867742 918337
3646.76 915740 940388 1066349 884003 989206 804895
3652.55 924458 825362 879032 859654 829547 802337
3658.33 892816 832637 853991 863369 858579 849270
3664.12 877928 857809 845116 896088 951594 949549
3669.90 1102483 829692 942811 895479 1009997 1096182
3675.69 1103582 951393 1099625 997755 1103287 948561
3681.48 1125201 1076624 1203681 1049785 1151669 1029151
3687.26 1364169 1223525 1088589 1127345 1133434 1016460
3693.05 1112262 1041382 1149765 990923 1069950 1048533
3698.83 1079286 1078643 1237553 1120837 1155876 1082648
3704.62 1142865 1131211 1119140 1085167 1205379 1063792
3710.40 1275833 1338138 1244647 1221167 1306156 1326149
3716.19 1414717 1321937 1332191 1316227 1334499 1333959
3721.97 1392833 1360054 1330109 1275548 1427202 1324067
3727.76 1326051 1281350 1344947 1396932 1488743 1308887
3733.54 1500234 1301319 1512253 1278478 1315709 1217162
3739.33 1229639 1134054 1080795 997372 1255765 1104550
3745.12 853506 871986 768282 988970 972263 645535
3750.90 992213 806969 703379 622076 629096 715543
3756.69 706291 625971 741771 690051 677006 564717
3762.47 645552 575180 686306 573756 560355 593033
3768.26 671411 604727 568138 593251 576078 540178
3774.04 545944 552217 589435 590960 654264 627641
3779.83 572382 581265 574474 597071 628157 551097
3785.61 550337 561227 578027 478872 594123 556780
3791.40 512975 540862 526091 511836 601699 576109
3797.18 541116 545861 526961 720283 744285 512393
3802.97 553907 508666 587545 656048 620790 470454
3808.76 606667 566114 608828 533147 635739 563273
3814.54 779326 796526 647818 653760 650684 727805
3820.33 822009 665791 724814 720448 787204 794428
3826.11 879026 801572 908357 859877 1007245 1075294
3831.90 1093295 1075831 1286357 1304983 1232078 1605742
3837.68 1535322 1477014 1637525 1595081 1576499 1649314
3843.47 1796226 1721735 1795663 1737389 1856584 1797826
3849.25 1818820 1812987 2204122 1960736 2349921 2051298
3855.04 2037575 2027093 2124984 2014676 2037157 1973397
3860.82 2013039 1835005 1759598 1848147 1797954 1570672
3866.61 1630940 1597752 1784349 1599990 1562682 1519756
3872.40 1479840 1510832 1467067 1451566 1450768 1374940
3878.18 1437997 1419753 1400217 1287084 1302806 1194302
3883.97 1284745 1296744 1221542 1196583 1150955 1128446
3889.75 1194155 1170110 1096739 1145243 1081384 1068396
3895.54 1098515 1038690 1051458 1120781 1040438 1030817
3901.32 1068258 939008 1143645 897979 951510 902256
3907.11 950096 848642 900478 903896 878244 804943
3912.89 892952 789400 843263 792302 881264 795110
3918.68 873407 723598 819299 779399 773710 723768
3924.46 723917 676781 753382 657408 729761 685554
3930.25 678438 668623 744561 651696 687300 617374
3936.04 685517 585095 561962 612608 618466 586065
3941.82 656741 548727 639019 514616 588822 582741
3947.61 573211 493615 573537 461091 505714 562213
3953.39 535470 558921 538548 492301 541947 470489
3959.18 537407 497244 530995 482884 587546 465224
3964.96 538377 527248 568953 498226 515440 589702
3970.75 573280 568497 629809 558940
##END=
