##TITLE=1,3-Butadiene
##JCAMP-DX=4.24
##DATA TYPE=INFRARED SPECTRUM
##CLASS=IUPAC A
##ORIGIN=NIST, Anayltical Chemistry Division, 301-975-3108
##OWNER=COPYRIGHT (C) 1998 by the U.S. Secretary of Commerce
##DATE=98/10/1
##$SPECTRA VERSION=1.00
##$UNCERTAINTY IN Y=2.5 % relative (B=1.6E-04,C=1.1E-09,D=2.7E-14)
##CAS NAME=1,3-Butadiene
##CAS REGISTRY NO=106-99-0
##MOLFORM=C H2: C H C H: C H2
##MP=-108.91 C
##BP=-4.41 C
##$NIST SOURCE=QUANT-IR
##SPECTROMETER/DATA SYSTEM=IFS66V (Bruker)
##INSTRUMENT PARAMETERS=KBr Beam splitter; MCT Detector; Multipass cell
##STATE=gas
##SAMPLE DESCRIPTION=1,3-Butadiene Primary Gas Standard
##PRESSURE=101.3 kPa
##TEMPERATURE=23 C
##SAMPLING PROCEDURE=1 L/min Flow
##RESOLUTION=0.9640
##DATA PROCESSING=3-Term B-H Apodization
##XUNITS=cm-1
##YUNITS=(micromol/mol)-1m-1 (base 10)
##XFACTOR=1.0
##YFACTOR=4.5474E-13
##DELTAX=0.4820
##FIRSTX=575.169
##LASTX=3975.077
##FIRSTY=4.71E-06
##MAXX=3974.59
##MINX=575.17
##MAXY=.0007933
##MINY=-4.46E-08
##NPOINTS=7053
##XYDATA=(X++(Y..Y))
575.17 10362760 9713826 9619166 9838650 9987774 9687888
577.58 9107734 8854056 8922332 8437892 7578930 7362550
580.47 7843554 8365764 8241132 7624058 7263604 7142038
583.37 6938780 6691056 6334626 5928738 5846516 6100910
586.26 5963826 5179920 4454912 4160756 4226196 4349224
589.15 4207874 4154858 4194522 4030680 4142662 4411076
592.04 4270918 4076074 4119380 4174922 4078964 3781176
594.94 3517902 3602006 3721210 3700580 3680502 3690394
597.83 3793384 3762448 3578140 3583288 3576380 3661844
600.72 4086576 4143270 3634602 3216992 3087392 3020158
603.61 2822140 2602594 2598540 2624138 2425630 2276074
606.51 2253072 2240352 2265694 2233164 2077236 1932826
609.40 1873752 1944004 2009974 1972168 1922344 1830228
612.29 1747938 1669758 1476090 1334562 1370588 1352052
615.18 1151038 1016832 1159182 1463206 1577958 1387072
618.08 1248884 1304558 1307096 1408836 1605284 1636798
620.97 1650056 1658570 1544430 1426300 1414934 1508840
623.86 1560890 1503494 1500104 1555270 1609124 1634792
626.76 1668872 1759692 1816070 1802752 1779602 1881486
629.65 1988902 1901486 1773058 1722746 1794836 2021810
632.54 2126856 1942406 1874752 2102054 2360426 2450468
635.43 2396766 2397006 2480536 2514384 2622984 2795752
638.33 2874380 2886830 2937418 3090638 3297390 3411952
641.22 3331116 3181806 3199500 3358398 3557022 3777058
644.11 3820980 3708636 3770172 3926548 3957162 4054498
647.00 4214714 4246532 4324350 4506412 4691218 4914576
649.90 5127840 5263776 5266630 5264736 5385216 5366086
652.79 5153036 5005438 4975518 5103810 5291828 5198240
655.68 5106374 5430676 5809580 5882922 5793156 5628344
658.58 5394112 5329226 5661618 6030334 6122460 6024524
661.47 5831034 5866574 6237412 6331460 6099896 6158658
664.36 6413088 6806816 7295944 7333094 7277280 7864802
667.25 8447626 8263018 7847584 7871914 7971196 7596082
670.15 7254826 7320904 7539678 7975022 8311866 7925528
673.04 7331372 7199578 7668162 8423028 8423248 7689212
675.93 7188214 6848222 6388962 6004602 5848844 5891580
678.82 5887266 5728412 5630172 5501260 5195890 5344928
681.72 5982436 6090506 5457126 5023112 5138834 5186416
684.61 4925726 4805568 4917972 5034834 5139028 5077192
687.50 4805010 4604522 4642634 4592392 4465718 4521096
690.40 4650370 4554442 4359418 4408372 4449758 4224616
693.29 4131792 4234238 4030840 3797056 3894360 3850272
696.18 3640788 3600230 3608688 3553148 3522252 3398350
699.07 3351192 3476958 3366992 3075898 2902752 2778398
701.97 2729334 2747432 2728252 2672456 2630374 2610864
704.86 2522572 2368504 2236636 2196188 2223882 2157078
707.75 2093930 2132234 2130136 2034816 1881370 1748062
710.64 1663210 1551766 1474596 1519562 1612260 1597516
713.54 1513960 1489936 1542954 1591064 1579074 1546578
716.43 1456636 1296864 1240548 1297734 1367940 1403660
719.32 1419370 1460644 1491778 1454758 1421240 1461472
722.22 1538660 1570126 1573296 1556100 1513240 1469986
725.11 1485494 1526394 1551352 1555084 1539508 1536390
728.00 1583690 1651272 1678646 1656694 1666460 1749502
730.89 1782734 1778206 1817202 1799854 1727008 1737242
733.79 1861312 1978530 1990310 1973876 1990928 2035606
736.68 2053676 2024824 2069172 2183646 2238484 2256154
739.57 2269030 2261458 2273140 2259184 2192046 2149444
742.46 2181182 2258898 2284354 2237856 2148558 2026420
745.36 1946048 1977170 2029316 2024536 2051288 2106120
748.25 2119974 2071030 1996990 1978686 2070180 2234670
751.14 2329076 2266202 2136408 2013334 1965912 2065066
754.04 2205052 2269554 2321116 2365390 2376208 2344600
756.93 2279474 2268286 2331336 2384340 2359362 2287806
759.82 2278316 2317788 2348406 2318200 2225928 2195298
762.71 2223492 2185516 2135282 2119872 2122308 2084946
765.61 2019746 1973310 1920292 1892124 1904728 1862232
768.50 1789576 1758706 1697552 1619996 1595148 1638234
771.39 1717478 1710456 1631944 1599778 1578138 1540318
774.28 1524668 1497506 1477350 1506230 1506762 1429714
777.18 1368880 1401422 1439252 1383926 1317654 1254938
780.07 1226412 1265816 1239740 1176958 1246224 1337018
782.96 1304100 1229828 1248848 1315298 1297930 1248648
785.86 1258080 1295344 1285260 1235636 1238010 1257586
788.75 1240536 1233318 1244582 1246338 1226468 1189334
791.64 1153708 1137434 1142854 1158706 1225962 1301716
794.53 1272622 1173588 1098278 1087670 1152086 1212376
797.43 1228694 1263302 1300838 1223454 1082120 1088282
800.32 1167498 1152134 1147704 1253346 1370110 1412222
803.21 1443068 1473510 1472610 1464872 1476428 1483136
806.10 1478542 1452742 1378276 1378440 1503956 1609434
809.00 1657544 1717754 1768232 1743026 1716732 1756968
811.89 1841864 1930306 2024124 2095746 2136638 2182046
814.78 2264522 2344426 2391546 2458944 2512496 2490716
817.68 2468246 2526574 2641112 2778560 2921806 3073572
820.57 3174542 3232798 3368852 3552806 3655816 3737892
823.46 3880156 4005792 4098814 4315746 4580882 4672624
826.35 4705440 4844742 5063204 5369518 5773860 6092928
829.25 6119392 6139612 6445320 6826476 7144402 7641404
832.14 8047246 7981226 7934664 8311132 8864782 9424892
835.03 10073200 10485060 10351760 10347360 10881010 11621840
837.92 12443480 13424580 13846200 13493860 13539710 14338060
840.82 15349520 16462570 17679600 18090190 17707980 17887300
843.71 18955080 20361280 21945370 23391600 23383220 22745790
846.60 23170530 24569340 26203220 28367230 29926030 29588100
849.50 29227400 30116410 31766580 34158950 37186360 37969040
852.39 36883220 37014620 38722920 41070970 44508770 47645470
855.28 47247720 46209470 47436510 49853580 52739630 57594810
858.17 59874930 57911800 57663180 60521580 63449770 68229150
861.07 73827270 72892870 70020060 72370120 76434060 80738970
863.96 88506440 90591460 85337460 86007080 91288420 95522540
866.85 104656200 110946800 104320700 101655800 107407200 112180600
869.74 122883700 133269700 126863400 120914200 125208000 130207900
872.64 144092900 158659000 152282800 142753000 144086000 148258600
875.53 164989600 186152200 182032600 168674700 166677600 168871300
878.42 186248900 213357100 213362400 195954100 188092300 186988400
881.31 206474600 241947100 247556200 226240200 211187200 206826600
884.21 229274000 270376000 277569700 250797300 227382200 219421500
887.10 247682700 296962100 305567800 274457300 245109400 236121400
889.99 271126600 322695100 321330600 278124100 241647800 236519000
892.89 285212600 337544800 324330400 275829400 242463800 250998100
895.78 305593400 336505500 305941500 261495500 242783800 266356700
898.67 308734700 316829400 295114200 272278100 263614800 273318800
901.56 282093200 281301400 281753000 282132300 283766600 292779600
904.46 315511500 351454300 392934800 456975700 623407000 1059582000
907.35 1655763000 1744528000 1227905000 750742300 532725300 442125300
910.24 395987700 359755800 327409200 308669700 302101800 299759700
913.13 304885700 309100200 298096900 291299000 309202100 342768000
916.03 349019200 325299300 318423200 347683300 375711000 351532000
918.92 312897400 323794700 368600900 383021300 345960400 321441700
921.81 343979700 377893200 370430800 335316000 330227600 359422900
924.71 378573300 356168300 330953200 340702000 363412700 357258000
927.60 328879200 323143200 340269000 346005300 325159300 312028300
930.49 322277600 329845900 313786000 296711500 299420800 304553700
933.38 293355300 277194500 276461000 282044000 274483700 258344200
936.28 254444400 259000600 252060800 236063500 230393100 232868100
939.17 226773900 213850500 209010600 209891200 204170000 193968700
942.06 189521100 187467900 180082400 172024600 168793200 165125400
944.95 157933700 152684300 150368800 145125800 137991000 135126500
947.85 133924000 129038600 123779800 121033400 117659200 112345100
950.74 108482800 106250200 102657200 98606520 95970740 93109180
953.63 89568440 86976140 84813400 82384010 80194820 78117630
956.53 75613140 73445460 72287540 70521260 67851660 66387820
959.42 65907010 64912900 63266770 61386970 60338720 60222120
962.31 59986560 59209660 57699740 56499900 56639870 57127080
965.20 57206710 56482170 55219070 55332050 56585820 57520250
968.10 57541630 56425250 56060850 57500610 59484840 60668380
970.99 59791120 58973730 60262430 62610790 65073180 65385300
973.88 64357540 65413870 68429390 71970900 73606310 73312770
976.77 74429800 77434460 81174780 84226340 85639710 87511880
979.67 91212270 96582010 101710000 104279000 106259800 110601200
982.56 117314600 123779800 126759900 127864000 130994600 136641300
985.45 141920200 143417200 141656900 139859200 140390000 142696800
988.35 140895600 131869400 122384500 120173700 127274500 139524200
991.24 151002800 160215900 168954100 179778500 190162800 197826100
994.13 207070800 214988600 215398100 213263800 213813800 218053400
997.02 220718600 215531700 207413600 203317800 205983100 209215500
999.92 201989600 189075200 183530400 185798300 185607900 179051800
1002.81 171822200 169206800 174193500 182894700 185260700 178474000
1005.70 173404800 180747500 191611800 198191600 204723200 207716200
1008.59 210715600 221350600 240973900 269293500 284914700 276228800
1011.49 268344000 277431000 309843100 371803400 408995500 366799700
1014.38 292678200 241025600 216187600 200190800 180222600 162826700
1017.27 153991200 152322000 156900300 162156900 158679000 148956400
1020.17 143588200 145211200 153259500 164487800 165905800 157600700
1023.06 152389800 152508900 158089000 165399900 165842900 159938100
1025.95 156509600 158832200 162101800 162919800 162611700 162324500
1028.84 161602800 158819400 153840600 150592200 152233000 156960700
1031.74 160119900 156994700 149520500 145742500 146359100 146260200
1034.63 143374900 138908500 137031700 137145100 136899700 136996900
1037.52 135019800 131211500 126990200 123791600 125008400 126590400
1040.41 124511000 119416600 113630100 112562300 115533300 115688800
1043.31 110262400 103122300 99804380 101708200 106780800 108326900
1046.20 103256600 97992180 97009980 98620500 97018620 90156820
1049.09 83544810 81469840 84532550 87824000 86662870 82845540
1051.99 80439400 79592370 76035220 70376890 66338810 63951790
1054.88 63418540 62514490 59651460 57778070 57053040 56404000
1057.77 55267170 53316490 51790640 50857280 50056090 49036270
1060.66 47875680 46912870 46272950 45943580 44728970 42824060
1063.56 41764350 41464770 40597230 38475410 36959800 37077540
1066.45 36670930 34867720 33425260 32900010 32236740 31104010
1069.34 29952960 29077020 28400790 27800720 27568410 27419690
1072.23 27066940 26616370 25936450 25418910 25188270 24883680
1075.13 24648530 24230740 23623700 23047790 22511570 21981570
1078.02 21433370 21109950 20678160 19799590 18837560 18144610
1080.91 17635520 17087890 16443930 15689660 14944950 14359070
1083.81 13758820 13038390 12366480 11814390 11292260 10787490
1086.70 10277900 9782244 9434072 9226660 8972916 8593370
1089.59 8160252 7702634 7201702 6712300 6277638 5903228
1092.48 5569462 5219816 4880582 4635608 4430760 4199362
1095.38 3971132 3769328 3535376 3268580 3048724 2837180
1098.27 2614636 2456200 2367204 2280838 2165816 2023756
1101.16 1871684 1735166 1626562 1529366 1446394 1396280
1104.05 1350606 1266314 1155592 1066272 1006376 960710
1106.95 906538 839912 794750 763216 749492 782390
1109.84 792886 730588 687196 691908 684596 671088
1112.73 636344 582670 578544 598218 592436 588130
1115.63 576202 562278 559712 544768 540672 554280
1118.52 569186 571972 554844 534574 535302 540272
1121.41 525632 506938 513574 544406 547066 536978
1124.30 550348 537736 518172 521144 520388 543320
1127.20 566774 558302 581324 605542 592308 579580
1130.09 595568 624392 638428 640216 623506 604366
1132.98 582878 554670 535394 556372 609802 607994
1135.87 588832 601802 612076 639582 647052 590984
1138.77 543592 528538 550976 605972 630946 627314
1141.66 627166 622326 598288 547152 504006 480554
1144.55 465260 503504 559632 544750 517750 536142
1147.45 528150 492354 497474 527614 535122 499054
1150.34 467242 485352 502582 485848 467956 454470
1153.23 452984 447674 435440 449642 451768 443174
1156.12 445164 445516 401290 323760 322360 388424
1159.02 421128 393040 373056 411910 459428 468072
1161.91 436578 389180 357624 342486 356148 378774
1164.80 385408 407534 426788 428216 431982 415408
1167.69 421660 456648 438776 403336 403288 404482
1170.59 392268 390312 386562 400350 433580 455296
1173.48 437060 397662 395006 419976 448098 450316
1176.37 423584 424650 460366 489998 516250 501044
1179.26 470314 479896 473096 449264 451092 469620
1182.16 469606 431238 399726 403288 431534 460944
1185.05 453548 407046 358580 341746 366380 377942
1187.94 327458 265394 232536 218684 251282 317496
1190.84 352802 343864 316660 304644 320168 345278
1193.73 360708 338568 294544 275114 308526 368132
1196.62 405350 419562 428690 419684 397464 395670
1199.51 413522 420572 431274 457528 470854 464878
1202.41 457086 466770 473940 449856 463812 527636
1205.30 577140 574320 544516 531600 576958 671356
1208.19 714488 696706 690834 674606 688086 767070
1211.08 847332 916044 930704 880856 838798 843978
1213.98 920682 1042844 1138920 1132976 1074526 1061696
1216.87 1118042 1223772 1276438 1207396 1147146 1203970
1219.76 1323074 1442894 1522112 1521252 1518062 1563252
1222.66 1633844 1729970 1815486 1807060 1782962 1847736
1225.55 1933518 2047126 2153372 2142552 2110288 2156588
1228.44 2277664 2466254 2561056 2455094 2428612 2573038
1231.33 2754384 2956128 3021710 2931942 2914634 3041684
1234.23 3284856 3508266 3542500 3441178 3420246 3631156
1237.12 3925268 4110544 4187680 4132120 4140018 4308882
1240.01 4487258 4756278 4937962 4879068 4959728 5188742
1242.90 5463724 5801008 5862708 5692452 5717182 5938918
1245.80 6569808 7172324 6975734 6650752 6720844 7127896
1248.69 7945642 8322326 7929338 7799352 8093666 8659444
1251.58 9407054 9547148 9293626 9170908 9391596 10339680
1254.48 11031650 10747990 10235620 10197440 11153800 12352960
1257.37 12273230 11344000 10864010 11372590 12680200 13212290
1260.26 12387740 11685850 11772040 12401580 12819330 12277850
1263.15 11476520 11518090 12281430 12512590 12010650 11649090
1266.05 11566740 11620090 11623960 11333570 10923720 10911410
1268.94 11828210 12673360 12396030 11837540 11658540 12165040
1271.83 13097570 13070770 12382700 12354130 13666280 15794130
1274.72 16302380 15153150 14665000 15669480 17657100 18409790
1277.62 17200070 16189620 16796830 18778010 19726660 18358450
1280.51 16912710 17224740 18988060 19678130 17978490 16402590
1283.40 16763500 18084430 18198240 16639690 15380850 15380040
1286.30 15864950 15471810 14178250 13420900 13297520 13030490
1289.19 12217360 11243550 10543490 10138060 9800202 9210226
1292.08 8875204 9021488 9146010 8998162 8752124 8754046
1294.97 9111046 9752844 10328500 10682130 11080700 11790780
1297.87 12539280 12841100 13108020 13606620 13939190 13923400
1300.76 13888090 14192690 14545680 14353190 13903160 13734290
1303.65 14073020 14481520 13782460 12910430 12860750 13143860
1306.54 13376670 12586880 11620480 11417290 11322270 11503370
1309.44 11147550 10348870 10082300 9796014 10101940 10281920
1312.33 9352468 8774828 8595142 8764202 8970864 8329162
1315.22 7755274 7707788 8035802 8339394 7809526 7215916
1318.12 7137676 7400168 7712402 7351778 6822316 6604470
1321.01 6737444 7151120 7062284 6591494 6329716 6411446
1323.90 6782050 6791174 6403000 6134100 6157490 6493384
1326.79 6603542 6275496 5990450 5987928 6299874 6424582
1329.69 6073514 5825752 5924856 6205900 6367336 6081428
1332.58 5784350 5883616 6200432 6371450 6092784 5731042
1335.47 5830370 6277718 6518102 6210788 5841830 5891024
1338.36 6196608 6492002 6460456 6153924 5979436 6055868
1341.26 6344902 6357632 5996940 5850522 6080562 6537962
1344.15 6660174 6319228 6174414 6372746 6812430 6944098
1347.04 6615976 6491406 6745282 7333814 7602450 7301628
1349.94 7214358 7451390 8057122 8392152 8065808 7890444
1352.83 8167806 8965570 9576136 9386984 9269704 9768568
1355.72 10855760 11639040 11608120 11554660 11966410 13309330
1358.61 14850110 15172190 15158900 16019290 18066680 20335000
1361.51 21257400 21559480 22502330 24444190 27137440 28831680
1364.40 29322210 30092830 32123720 35502820 38104000 38817210
1367.29 39215570 40677980 43594140 45879580 46197760 46071360
1370.18 46535360 47936340 49088360 48592030 47351480 46475310
1373.08 46205630 45099590 42497860 39673050 36459930 32656380
1375.97 29427250 26621850 23402290 20713050 19472450 18630170
1378.86 19268180 30637380 54404340 61909580 41975600 23322860
1381.76 18288800 19371030 22515190 25943470 28673580 31427030
1384.65 34310380 36864140 39473690 41802570 43133060 43778800
1387.54 44106570 44888260 45400430 44216870 42431820 41702850
1390.43 42123270 41815480 39227940 36293660 34930900 34904220
1393.33 34739920 32975380 29969310 27645400 26860160 26199800
1396.22 24312920 21976930 20322550 19515330 19629880 19246480
1399.11 17248590 15265680 14378080 14315440 14209580 13535050
1402.00 12828110 12478280 12653360 12971340 12601450 11880510
1404.90 11368470 11203850 11464520 11423100 10972900 10963670
1407.79 11374210 11822880 11937120 11572070 11401300 11517800
1410.68 11611620 11767940 11771120 11812000 12122930 12515300
1413.58 12654790 12239870 11840980 11976690 12126270 12276990
1416.47 12568610 12727550 12721800 12934760 14255250 15635160
1419.36 14903840 13288010 12547480 12456780 12567720 12636730
1422.25 12548120 12426900 12392980 12344340 12028560 11472300
1425.15 11046430 10871350 10863560 10705330 10309330 10013840
1428.04 9770438 9641452 9941472 10145940 9744724 9325662
1430.93 9170654 9061462 9015638 9113088 9339800 9636898
1433.82 9965370 10220360 10385340 10879450 12406760 13815100
1436.72 13027060 11593680 11366150 11442710 11381070 11425170
1439.61 11419600 11498840 11584560 11567420 11795280 11906800
1442.50 11631180 11369170 11171780 11184740 11240020 10837640
1445.40 10482260 10430420 10417040 10768540 11029170 10377710
1448.29 9591336 9257520 9171032 9288196 9111412 8574328
1451.18 8322692 8344836 8266574 8240602 8176204 7870014
1454.07 7776032 8153708 8575072 9430566 11399900 11930470
1456.97 10000640 9027778 9110902 8479112 7687140 7210258
1459.86 7157948 7516176 7666424 7317696 7061058 7191640
1462.75 7551666 7968428 8458090 9084588 9011864 8386002
1465.64 8297590 8344652 8121278 8026192 8264374 8674080
1468.54 8979206 8997988 8963948 9165178 9812554 11172130
1471.43 12357860 11987160 11677970 12557570 12625710 11852120
1474.32 11492180 11754550 12714300 13639930 13783580 13468400
1477.21 13231550 13339210 13557960 13640630 13493990 13023650
1480.11 12656560 12581500 12569110 12462210 12259900 11931420
1483.00 11451170 11000440 10708870 10621300 10824730 11141540
1485.89 11209620 11014230 10616330 9890716 9621050 10363860
1488.79 11603280 12663140 12960690 12288900 10975000 9990194
1491.68 9824526 10067420 10492150 11044020 11532390 11903560
1494.57 12418480 13636180 15350740 15336680 13758720 12869330
1497.46 12785540 13144110 13190510 12347920 11434030 10839270
1500.36 10391060 10147280 9918534 9358458 8669990 8237814
1503.25 8228182 8320088 8547462 9887262 10794750 10063210
1506.14 10547130 10970740 8972486 7344254 7193072 7060190
1509.03 6682414 6221768 5812344 5744154 5949992 6243712
1511.93 6191932 5614492 5301700 5265966 5174268 5218534
1514.82 5185410 5178392 5406974 5601414 5722332 5381608
1517.71 4621186 4041160 3829128 4244192 4947236 5877926
1520.61 7103406 6454932 4807238 4507726 4092432 3136438
1523.50 2702018 2879848 3615746 4144908 3429578 2549712
1526.39 2598922 2827590 2644412 2457756 2282208 2027076
1529.28 1924020 1875132 1848594 1952662 2029274 2011474
1532.18 2302412 2963422 3467486 3150256 2252266 1776390
1535.07 1718986 1708780 1680208 1661546 1792338 2362832
1537.96 4259808 6494158 6166584 5315960 5175178 3765260
1540.85 3219748 4548242 4706638 3225000 2453584 2344726
1543.75 2380416 3032270 3546238 2951486 2243348 2083170
1546.64 2117636 2153766 2201768 2312280 2599448 3030658
1549.53 3315394 3196572 2978382 2934114 2971498 3095440
1552.43 3353156 3922040 5305160 6343340 5604528 4629410
1555.32 4557044 4874086 5724548 7394190 9167334 10924590
1558.21 11244330 9999422 10867640 12605190 11606010 9659182
1561.10 9192752 9486326 9975726 10625750 11462510 12522070
1564.00 13708030 14457710 14810610 15462550 16602600 18040990
1566.89 19399350 20333180 21500760 23420270 26213990 28875390
1569.78 29941260 30557350 32256640 34846060 38071050 41219810
1572.67 43880300 46656260 50213010 54708820 59869620 66059240
1575.57 72865380 77200300 80394040 85576990 91751700 97674090
1578.46 104240200 111943800 119849700 127409700 135497800 145209400
1581.35 155764500 165064300 173340300 182253200 191474100 199171500
1584.25 206205900 213254700 219405900 224832300 229741900 233813300
1587.14 236639600 237384200 236409000 234125900 230235600 224590900
1590.03 216594500 205674200 193021900 179145400 164712100 151617000
1592.92 140468500 131536700 128663400 132221100 144232300 188835100
1595.82 237915200 224008300 187683800 169092300 147347300 133862200
1598.71 138414500 151720200 167465300 183559400 198693100 212668900
1601.60 225335700 236398900 245441500 252176300 256559000 259081200
1604.49 259117600 256021200 250695100 244190500 236458700 226995000
1607.39 215671300 203492700 191379300 179316500 166607700 153405700
1610.28 140348800 127744800 115703100 104614700 94351380 84256340
1613.17 74602290 66024150 58427570 51590960 45474130 41376690
1616.07 38858120 34316520 28195230 23697070 20752580 18399820
1618.96 16551070 15132640 13640820 12177420 11112180 10608090
1621.85 10327360 10175760 10285270 9822938 8710680 7939698
1624.74 7460758 7248086 7276912 7221848 7100400 7211406
1627.64 7160676 6888204 6609352 6354188 6225940 6226146
1630.53 6158350 6074730 6265804 6674400 6803870 6720890
1633.42 6600788 6824496 8042542 9779480 9730416 7673878
1636.31 6471100 6705378 6907420 6790470 6721674 6628650
1639.21 6604814 6722600 6838350 6962232 7083682 7095052
1642.10 6979502 6955410 7082632 7206250 7348270 7793782
1644.99 9142096 10261260 9360762 8338504 8375382 8274226
1647.89 7825048 7243078 6819284 6672574 6561204 6396148
1650.78 6504158 8068904 10880320 12517700 12306990 10065270
1653.67 7765274 6733610 5508044 4608258 4282688 4074726
1656.56 3921274 3846184 3750686 3634024 3523856 3487512
1659.46 3529922 3687806 3892868 4078378 4430300 5311156
1662.35 5869592 5310874 4651220 4514032 4504254 4487960
1665.24 4434072 4332146 4279144 4366638 4470392 4530090
1668.13 4934000 5963734 6016858 4644006 3754626 4031116
1671.03 4429360 3963854 3216624 2989794 3118540 3156146
1673.92 3401164 4626520 5375660 4230242 2806134 2340108
1676.81 2350158 2301710 2112464 2047990 2188128 2336446
1679.71 2341892 2230596 2048222 1910434 1946012 2513696
1682.60 3358086 3715064 4633740 7099172 7397108 4258710
1685.49 2055346 1623086 1513296 1528524 1705326 1793970
1688.38 1650824 1573848 1695336 1687488 1472682 1324418
1691.28 1295098 1270490 1244480 1263382 1299836 1355504
1694.17 1727336 3472118 6464614 6682730 3644064 1772088
1697.06 1508064 1406270 1411044 2028986 4002390 6148092
1699.95 6338602 4693972 2623576 1512212 1278988 1270432
1702.85 1309654 1631546 2136716 2046812 1605886 1799534
1705.74 2308424 2174202 1651216 1400994 1352800 1372448
1708.63 1409844 1543488 1696478 1661316 1526670 1498576
1711.53 1538502 1598122 1656378 1890092 2193216 2508608
1714.42 3111526 3168060 2469164 2410938 4113824 6181290
1717.31 5513850 4033002 3608414 2894808 2303082 2266188
1720.20 2354326 2413106 2439070 2479392 2542864 2665258
1723.10 2808222 2905912 2951420 2949840 3048600 3268240
1725.99 3430096 3453484 3475078 3589200 3705106 3771148
1728.88 4052050 4529818 4611090 4318388 4183494 4329870
1731.77 4677430 5833798 7512510 7904678 8141824 8341448
1734.67 6804136 5438064 5139736 5119812 5195316 5288526
1737.56 5353612 5511236 5942040 6912752 7354232 6496160
1740.45 5693830 5570800 5727246 6065898 6475426 6729880
1743.34 6804818 6937314 7162676 7484930 7824878 8087028
1746.24 8432904 8814492 9111630 9647700 10192170 10272900
1749.13 10151550 10312850 11262860 12778770 13053750 11941170
1752.02 11269900 11311590 11556910 11755860 11675260 11517890
1754.92 11516240 11665260 12047100 12157440 11501460 10813310
1757.81 10465000 10165730 9933406 9787382 9526728 9298534
1760.70 9613076 10168320 9697330 8582180 8055036 8146136
1763.59 8297338 8133504 7899300 7985560 8289976 8535524
1766.49 8718786 9235758 10055480 10015530 9178992 8731330
1769.38 8672886 8789106 9154508 9322820 9143754 9921754
1772.27 10667510 9442298 7902526 7339146 7204452 7233938
1775.16 7212550 7004136 6796898 6680198 6566738 6493564
1778.06 6481228 6506886 6562178 6727232 6915240 6849698
1780.95 6658754 6678150 6741432 6753910 6859880 7102488
1783.84 7557944 8014690 7898474 7581256 7570584 7774910
1786.74 7992142 8124992 8227214 8413258 8736492 9156230
1789.63 9508218 9946300 10330790 10583720 11673870 13160020
1792.52 13188100 12561770 12788800 13599790 14445470 15131840
1795.41 15745500 16331940 17025390 18081820 19631420 21507720
1798.31 23573030 26101600 28800500 31510550 34681580 38127780
1801.20 41522880 45183430 49249370 53551360 58015540 62676810
1804.09 67434340 72269120 77539100 83072860 88199730 93024660
1806.98 97847600 102695300 107520200 112044600 116054300 119542500
1809.88 122124200 123468800 123747300 123225600 121843300 119497000
1812.77 116256100 112256500 107649500 102625200 97414230 92637840
1815.66 88966420 86971540 87564230 91946820 100178300 108799300
1818.56 114192600 112215700 93899940 65918780 46048290 39266840
1821.45 42405200 51704510 64094060 76824680 88366860 99005520
1824.34 109086400 117794900 124553800 129799800 133699700 136200200
1827.23 137736800 138524400 138112000 136341800 133830200 130728600
1830.13 126389000 120895600 115093300 109392000 103778800 97863600
1833.02 91306040 84630860 78378930 72330740 66264170 60262470
1835.91 54654870 49657070 45140320 40854790 36579950 32476980
1838.80 28886600 25810840 23151500 20728590 18429980 16448100
1841.70 14756290 13153020 11881910 11487110 11421710 10094620
1844.59 8136862 6977700 6428482 6044700 5665722 5268060
1847.48 4854446 4495944 4271746 4083706 3845764 3642672
1850.38 3555668 3505254 3432558 3374184 3354836 3353600
1853.27 3340948 3300990 3330080 3483702 3619786 3646554
1856.16 3626002 3650530 3768490 3971012 4135530 4193916
1859.05 4239520 4316782 4442842 4592922 4690930 4712056
1861.95 4717488 4756424 4808544 4798108 4709180 4634618
1864.84 4621968 4667432 4722076 4687630 4696736 4785894
1867.73 4708890 4753304 5040218 4813114 4230446 3970996
1870.62 3931232 3893646 3746804 3441730 3120640 3055952
1873.52 3252188 3511800 3781960 4071330 4333616 4528020
1876.41 4716366 4955736 5154298 5230802 5243864 5234414
1879.30 5214004 5217874 5251956 5278832 5258526 5245070
1882.20 5281186 5300510 5253004 5180674 5107960 5005390
1885.09 4849280 4696286 4613854 4560688 4432070 4246170
1887.98 4125958 4176490 4231584 3894432 3406832 3189542
1890.87 3124618 3044082 2920392 2808296 2755394 2743704
1893.77 2732908 2774808 2816766 2716144 2559342 2482540
1896.66 2473686 2463800 2407870 2326800 2257362 2225284
1899.55 2207076 2191848 2221104 2316666 2474698 2691474
1902.44 2934932 3158804 3285914 3309896 3306772 3320766
1905.34 3353186 3360126 3299294 3254060 3252380 3209514
1908.23 3124132 3089218 3153760 3195706 3119250 3098472
1911.12 3134276 3162300 3138996 3077748 3031256 3007710
1914.02 2970876 2904232 2876940 2900816 2901256 2901482
1916.91 3142902 3516724 3371266 2918276 2709486 2641832
1919.80 2610680 2615306 2632510 2680464 2759374 2841808
1922.69 2885982 2851412 2800956 2759784 2729908 2749760
1925.59 2809320 2893080 2921834 2858964 2795202 2812444
1928.48 2887850 2945014 2946934 2911892 2884922 2882892
1931.37 2870194 2852024 2877778 2925766 2927222 2894420
1934.26 2863540 2847108 2860002 2895116 2930038 2933274
1937.16 2928496 2954624 2947736 2908482 2904238 2907640
1940.05 2891092 2913430 3030160 3279488 3503948 3459392
1942.94 3314158 3297656 3397846 3539136 3666020 3792470
1945.84 3899132 3981764 4091528 4221656 4316264 4399022
1948.73 4518066 4677566 4812558 4872718 4905570 4969442
1951.62 5084202 5229632 5380924 5522676 5629624 5842462
1954.51 6217226 6524500 6654586 6645550 6535490 6537130
1957.41 6692680 6845126 6988296 7160716 7359258 7582998
1960.30 7775198 7916888 8042400 8120896 8111230 8086188
1963.19 8063224 7977516 7852660 7669332 7437632 7301908
1966.08 7317132 7195726 6775852 6593288 6822108 6881048
1968.98 6590408 6351980 6565564 6810864 6404090 5701376
1971.87 5177430 4936362 4981102 5141126 5360778 5711070
1974.76 6128290 6457438 6635316 6725496 6782138 6865918
1977.66 6979114 6982746 6816052 6613130 6482372 6415140
1980.55 6319106 6160984 5944604 5702614 5501904 5315262
1983.44 5097468 4880842 4677766 4496654 4328894 4123582
1986.33 3884614 3652904 3483500 3424782 3355426 3179998
1989.23 2979272 2818854 2727186 2745572 2793842 2666950
1992.12 2389140 2205124 2159698 2113412 2003684 1867308
1995.01 1756118 1731756 1734476 1686946 1604782 1543606
1997.90 1530004 1505872 1433260 1359568 1318560 1322526
2000.80 1333150 1307872 1236672 1186084 1193562 1188986
2003.69 1143352 1070490 1012034 1027588 1063668 1060532
2006.58 1011568 949286 921740 913388 886604 815708
2009.48 717362 690146 716294 706944 658302 597684
2012.37 549212 523176 486604 455094 456774 457986
2015.26 432660 418192 429334 404246 365572 364754
2018.15 340162 283856 231112 189628 172948 168518
2021.05 150794 136956 142524 151370 139000 115882
2023.94 84906 55892 42770 29538 5790-15106
2026.83-30770-9556 27960 25214 28884 57852
2029.72 48798 28860 26642 22890 16122 20514
2032.62 37188 42342 13746-4410 17786 51566
2035.51 51970 17064-25968-72828-113256-118150
2038.40-95368-45000 2704 19906 31846 40646
2041.29 36188 27020 6878 1006 10938 766
2044.19-17476 156 49228 95650 76038 500
2047.08-48386-64286-65438-56988-46120-42880
2049.97-67806-98194-99806-77850-72446-93704
2052.87-104606-94200-84188-71960-84706-111602
2055.76-101144-69002-70276-92770-77780-49858
2058.65-42330-15258 3408-19084-22720 2876
2061.54 6468-6678-4698 5338 530 3608
2064.44 4458 1516 10126 8070-6416-15580
2067.33-12570 22730 73208 60810 7820-5936
2070.22 4040 9404 17530 39836 80952 131498
2073.11 127194 80190 58768 59428 71476 93138
2076.01 108580 143076 196262 205020 175014 147182
2078.90 115856 105424 134572 175236 215916 267630
2081.79 246670 189808 203728 217176 195908 193354
2084.69 229848 303524 379420 383524 324914 289644
2087.58 315038 375432 394172 388210 459338 574266
2090.47 567530 475274 420388 417332 450008 478094
2093.36 517952 638348 747016 699084 628696 631396
2096.26 633210 626380 654624 746740 903382 980282
2099.15 852242 717654 674840 656204 646530 644006
2102.04 704078 836976 833454 678660 583518 551126
2104.93 511970 508922 575220 772498 934282 748022
2107.83 489260 445558 514490 589946 614856 663892
2110.72 853518 959396 821700 713124 723534 750472
2113.61 760254 795230 949642 1135284 1062682 857236
2116.51 778566 790428 796992 788060 822580 945044
2119.40 957290 803080 696566 648066 614302 590556
2122.29 589160 691008 757234 628458 505016 486394
2125.18 478724 443524 427222 531858 662478 601932
2128.08 470534 412436 379570 351442 346998 422722
2130.97 543944 538242 427056 360166 346574 369460
2133.86 395448 439602 513650 506410 423318 384558
2136.75 359402 339838 348718 373028 410004 412432
2139.65 363588 334446 348434 386590 397794 385864
2142.54 382796 375348 375168 397280 412486 409422
2145.43 407652 443840 495702 471638 402222 398252
2148.33 425024 440884 464070 526164 580254 515898
2151.22 428976 426126 445178 467300 507632 621730
2154.11 729382 665496 541994 500458 489572 477896
2157.00 532998 713532 823798 721514 618086 622136
2159.90 625042 612202 739628 960736 952334 787018
2162.79 712470 704570 719172 804686 1021676 1158272
2165.68 1049910 930240 861138 814530 819688 925420
2168.57 1094570 1035492 846198 781228 758734 776148
2171.47 894418 1092874 1130780 947904 825458 800138
2174.36 786754 841666 1062966 1214782 1024978 802408
2177.25 755946 780284 841918 1004526 1179966 1135500
2180.15 983794 902296 835520 786720 867994 1051314
2183.04 1047396 882520 790254 775298 818152 949788
2185.93 1143916 1148350 965520 869484 887282 949958
2188.82 1028524 1106694 1053490 923656 890182 888802
2191.72 881650 936556 1019644 996996 926128 906044
2194.61 898148 901998 979168 1087484 1052642 951572
2197.50 928772 956196 999392 1091590 1159226 1106450
2200.39 1037920 997726 970832 986022 1035102 1046690
2203.29 985566 954916 943652 898642 876656 899874
2206.18 884678 828758 801020 808140 816732 829798
2209.07 834572 805862 800520 831298 868110 926804
2211.97 971164 937990 883096 867642 860806 882942
2214.86 949228 1038800 1114698 1097872 1027426 989946
2217.75 977228 967696 949256 927948 924326 920082
2220.64 892040 876584 859298 833986 823970 830110
2223.54 835778 852818 868292 847132 822568 831958
2226.43 865950 913654 914664 878296 875924 878736
2229.32 880436 902302 917022 929524 942844 964154
2232.21 1007960 1028822 1027114 1072846 1113802 1093020
2235.11 1084826 1137648 1195416 1230490 1228634 1213866
2238.00 1227558 1256686 1297146 1364342 1408418 1418488
2240.89 1440076 1466508 1464534 1424674 1420602 1505668
2243.79 1591054 1641426 1661062 1635670 1620478 1678208
2246.68 1769850 1846006 1863866 1809614 1780718 1830090
2249.57 1937962 2026478 2025346 2038244 2118182 2205982
2252.46 2289170 2352538 2346772 2319402 2362792 2497694
2255.36 2625040 2611388 2536130 2553090 2629636 2683386
2258.25 2669580 2598452 2518296 2468438 2448830 2446444
2261.14 2445604 2428052 2395974 2374504 2348582 2277098
2264.03 2172572 2082926 2016792 2012446 2058514 2090396
2266.93 2117376 2187404 2275730 2358028 2423622 2507082
2269.82 2615134 2689064 2721250 2758352 2789656 2780536
2272.71 2742482 2684124 2598286 2544986 2574972 2602384
2275.61 2504130 2371972 2352688 2360656 2308658 2230066
2278.50 2141202 2076408 2060950 2078016 2042678 1948138
2281.39 1897074 1916262 1927212 1875444 1784316 1722800
2284.28 1726824 1750918 1697968 1616894 1605844 1634390
2287.18 1632914 1611300 1606660 1586788 1551564 1540936
2290.07 1494344 1426500 1410304 1404152 1345648 1289532
2292.96 1273990 1279428 1276154 1240948 1228574 1277860
2295.85 1320764 1335730 1318702 1314074 1367176 1408306
2298.75 1389058 1364976 1355048 1360782 1361258 1325976
2301.64 1297758 1282028 1212296 1152652 1152074 1170796
2304.53 1135882 1061640 1018644 1057454 1109160 1061550
2307.43 980516 1007304 1109254 1105740 1020418 1058350
2310.32 1224566 1262686 1101806 1022620 1147982 1251168
2313.21 1111434 1003432 1168010 1341342 1180574 980774
2316.10 1127670 1427718 1348396 1043538 1124542 1497786
2319.00 1451242 1110986 1197706 1632120 1587964 1149410
2321.89 1228826 1735760 1681454 1181084 1286778 1868346
2324.78 1782448 1208704 1391970 2068910 1893736 1272984
2327.67 1613890 2296342 1901322 1276360 1804448 2435908
2330.57 1872972 1402590 2133146 2506994 1724510 1559692
2333.46 2398954 2325080 1481988 1791934 2551388 2020138
2336.35 1434424 2124448 2428472 1641074 1629546 2383414
2339.24 2117794 1499870 1966688 2322016 1720478 1645288
2342.14 2186566 1934142 1512128 1866170 1978872 1500612
2345.03 1434992 1575502 1265220 1018640 1096366 1018232
2347.92 787616 695972 749232 811966 774740 874924
2350.82 1169474 1177092 1172622 1535488 1515420 1335756
2353.71 1733176 1744728 1492066 1998448 2085702 1752484
2356.60 2234126 2258836 1893088 2390946 2341528 2040274
2359.49 2548512 2343348 2131086 2559292 2183512 2155232
2362.39 2477776 2087680 2254282 2304792 1980534 2227612
2365.28 2021930 1895320 2051850 1796066 1885840 1772366
2368.17 1568380 1653916 1484800 1487940 1397962 1293402
2371.06 1301880 1169676 1174800 1094660 1025060 952584
2373.96 877476 841022 756372 726832 681370 637102
2376.85 588908 549160 493834 460746 449576 428178
2379.74 405488 384596 359318 341590 343064 339752
2382.64 348648 362712 356462 358454 345944 310474
2385.53 295926 302188 310828 320156 325742 324896
2388.42 328172 336126 346456 348536 335128 316328
2391.31 312416 349696 390848 392324 376024 364586
2394.21 382602 437340 459170 437114 404824 395330
2397.10 425222 446532 436642 445214 455326 434118
2399.99 422232 457198 504790 528798 550772 581972
2402.88 593312 572394 546036 539214 556892 603448
2405.78 649558 658274 638496 647606 674182 670180
2408.67 675188 716202 740126 750138 783204 821662
2411.56 827282 821934 820008 790386 782096 803802
2414.46 817432 819842 793756 794446 854720 917894
2417.35 927564 867824 824370 827324 857824 886502
2420.24 854854 817806 817834 817802 821118 810850
2423.13 788498 784256 768484 741800 731244 750330
2426.03 773742 766704 750704 777384 848910 908758
2428.92 937490 938042 929562 934144 941860 952978
2431.81 987036 1011134 976068 950836 975062 985734
2434.70 970198 959828 937396 921454 926614 924966
2437.60 903036 877398 879674 891454 895766 902058
2440.49 887820 855470 856948 898060 916520 903628
2443.38 890096 884632 883790 878216 871916 880992
2446.28 884954 888266 929830 965268 963022 961312
2449.17 983986 1035940 1077678 1073778 1038602 1000806
2452.06 996934 1060622 1137564 1147078 1116948 1103050
2454.95 1135904 1208482 1225362 1175208 1157652 1188466
2457.85 1229862 1253508 1225088 1183192 1202640 1268340
2460.74 1298868 1287478 1267276 1273040 1331846 1368284
2463.63 1349670 1345542 1382410 1444940 1486784 1465964
2466.52 1450014 1515990 1572188 1572510 1594070 1618776
2469.42 1655846 1729860 1772716 1806054 1871506 1913236
2472.31 1975028 2041462 2014582 2000316 2102362 2261586
2475.20 2399502 2435862 2426350 2483278 2624688 2778894
2478.10 2796782 2764444 2875920 3065638 3250754 3374514
2480.99 3386808 3409278 3483104 3590748 3676360 3643150
2483.88 3583864 3577252 3630610 3711700 3693186 3599754
2486.77 3540572 3524324 3505020 3417238 3271048 3128656
2489.67 2975602 2809956 2668564 2559236 2489428 2500634
2492.56 2591340 2773826 3158690 3484542 3204120 2646532
2495.45 2394922 2395030 2456812 2560000 2722664 2881154
2498.34 3041488 3196624 3303230 3416714 3558658 3643148
2501.24 3634108 3604826 3630012 3690902 3676748 3554592
2504.13 3407684 3342592 3342676 3217472 2965884 2792278
2507.02 2766950 2772764 2625300 2397220 2244874 2178052
2509.92 2137622 1968880 1745408 1642680 1633914 1633594
2512.81 1540420 1362138 1233082 1226784 1245334 1177904
2515.70 1093228 1077174 1074568 1034588 978268 945524
2518.59 924976 867386 803504 798520 858436 857828
2521.49 788162 776468 822216 830452 768592 713614
2524.38 721814 783250 797284 718774 662756 663014
2527.27 693622 720818 678802 635314 645356 672582
2530.16 691644 687176 669644 665324 679570 677294
2533.06 636384 576556 544770 582202 620578 578726
2535.95 543394 562010 583170 601734 593802 559688
2538.84 542582 553096 561468 547384 539410 537916
2541.74 520336 517454 517068 510376 499878 471476
2544.63 437318 425904 440962 469750 510554 516876
2547.52 485312 474670 493962 516410 530916 540062
2550.41 535000 514498 513074 531862 553774 580604
2553.31 596138 596780 598740 614662 628504 618866
2556.20 615466 656990 693280 686786 689026 708700
2559.09 713688 723542 740300 758428 778800 785364
2561.98 776816 777856 784332 769066 725106 701526
2564.88 756068 843550 878240 852422 851888 883586
2567.77 903628 959390 1036528 1086188 1126738 1179608
2570.66 1240058 1266882 1232636 1203560 1226836 1278070
2573.56 1321900 1323360 1322668 1324358 1284158 1257690
2576.45 1231848 1155746 1067906 1007126 981142 953098
2579.34 895276 856580 858924 860140 882618 944062
2582.23 1037178 1114218 1079212 958906 867796 835134
2585.13 856138 923826 980530 1018798 1054106 1078048
2588.02 1105684 1118292 1099372 1108400 1143900 1146458
2590.91 1108564 1065458 1035852 1027976 1031850 1026692
2593.80 1018810 1003656 956108 884312 857576 859490
2596.70 799894 703616 631348 595026 578076 558498
2599.59 512840 459916 427796 422038 392062 344616
2602.48 322030 304716 297884 320344 335114 314432
2605.37 298716 316138 304682 275652 285346 280822
2608.27 258206 247974 214060 190044 217612 244464
2611.16 265518 282978 280078 272000 252600 239150
2614.05 247992 278602 294780 251504 216390 251694
2616.95 308006 311928 268626 258718 294880 319734
2619.84 313744 276754 243314 242630 271042 323988
2622.73 363250 370848 360552 356240 337782 306494
2625.62 304192 317142 339848 368114 384706 409596
2628.52 458638 487970 432032 365442 352726 334424
2631.41 321810 347792 383892 401378 398746 398344
2634.30 401002 394346 369670 363856 413050 469716
2637.19 482874 455922 411956 403172 419740 413476
2640.09 404716 408862 421876 447270 467252 481416
2642.98 487604 484096 471684 462248 466032 479900
2645.87 501054 488814 452256 436392 404656 364392
2648.77 370750 403532 413134 390264 378036 410918
2651.66 418828 364778 327430 325650 332068 342796
2654.55 334810 340610 382152 393678 364096 334584
2657.44 300618 287600 314982 348000 348648 314226
2660.34 286422 274726 288534 315772 328066 336476
2663.23 327904 330954 369994 374286 300330 217378
2666.12 223184 276288 278370 249672 233548 222304
2669.01 224516 242448 251328 258408 247252 216400
2671.91 210886 214056 190260 159184 166664 198332
2674.80 209522 194768 204596 233344 205176 151058
2677.69 146542 169850 188320 190916 161562 143230
2680.59 173062 194068 175018 171596 190468 207380
2683.48 225172 247548 271648 288784 292680 271492
2686.37 219576 197834 217672 231998 226276 222298
2689.26 237206 244978 234478 238166 262652 286628
2692.16 271934 244170 242220 274166 342452 383858
2695.05 360158 339360 355832 360538 334686 334076
2697.94 381396 416950 399440 394858 445220 493726
2700.83 494676 453286 402562 400718 434612 440354
2703.73 437620 443120 432114 441010 490108 517288
2706.62 508824 509692 516444 514002 499978 489758
2709.51 498508 505178 513350 541348 551202 551684
2712.41 568580 584656 609382 671160 724502 749840
2715.30 765668 753956 763490 818950 859516 889732
2718.19 919270 933006 946816 943978 936384 934822
2721.08 927814 928526 941880 939038 927502 908174
2723.98 859248 827568 811852 804964 815724 783528
2726.87 715476 670250 661988 651500 624580 608724
2729.76 606280 605064 588564 591470 634036 621768
2732.65 558872 573546 612240 595420 587816 634810
2735.55 749742 849618 845280 784582 693376 633610
2738.44 649186 684406 677514 649890 650640 642304
2741.33 612094 612432 609056 581802 563068 559400
2744.23 578824 608814 608678 583058 569072 519448
2747.12 435368 423164 449076 461578 493004 500046
2750.01 465236 427790 387130 386168 419292 424148
2752.90 415438 413708 402776 414600 442000 431396
2755.80 395080 379142 383838 384602 388180 370728
2758.69 311708 219018 111592 47250 110928 281074
2761.58 436414 504568 499778 474054 435330 396778
2764.47 385558 389380 381328 363746 352960 343122
2767.37 350960 404820 440390 406590 396644 432288
2770.26 427106 369584 350060 371358 364732 357632
2773.15 392272 429844 449162 460048 438002 398800
2776.05 430760 514962 545536 513160 471706 447544
2778.94 438594 466766 533030 574460 582134 598292
2781.83 611074 655626 705876 721068 721722 737098
2784.72 782634 811726 807842 806210 809032 809454
2787.62 798164 803780 826846 840272 827548 792534
2790.51 791432 823956 839810 835160 823130 803038
2793.40 793780 768590 724786 707538 740542 799478
2796.29 833216 845484 848764 873568 921448 936480
2799.19 940134 929532 895832 885608 901068 918256
2802.08 963644 1028488 1061556 1086396 1099292 1093168
2804.97 1105872 1137566 1161422 1162932 1142504 1105834
2807.87 1089614 1114032 1121032 1105884 1096926 1056962
2810.76 985056 935962 884066 812332 761092 751666
2813.65 773862 777550 753746 741260 741086 737596
2816.54 741442 755220 771624 777884 746148 718294
2819.44 725020 734656 760882 812610 848008 869622
2822.33 902676 940974 946242 937040 936202 910552
2825.22 868234 882196 962096 1008416 984990 955556
2828.11 994734 1059446 1091374 1101932 1072270 1035570
2831.01 1057384 1127894 1228950 1322586 1388690 1431404
2833.90 1457682 1507018 1572374 1651974 1747364 1815024
2836.79 1850042 1874916 1904298 1937528 2000586 2110078
2839.69 2232988 2361478 2457382 2502348 2563588 2631324
2842.58 2724752 2860230 2942682 3017786 3141586 3227346
2845.47 3262402 3346250 3477016 3578480 3647648 3681496
2848.36 3699516 3727662 3754522 3811154 3887990 3939332
2851.26 3951766 3944774 3975856 4020118 4019548 4054898
2854.15 4169286 4276878 4322476 4357316 4392828 4431406
2857.04 4513142 4580550 4581922 4575426 4601782 4654148
2859.93 4713198 4762674 4812762 4858518 4903254 4962666
2862.83 5037588 5133072 5250294 5366782 5416136 5391662
2865.72 5367622 5355698 5397776 5491720 5553958 5573082
2868.61 5589948 5623636 5661472 5664910 5643754 5678620
2871.51 5769458 5827110 5796912 5739142 5740820 5783870
2874.40 5832532 5909550 6017096 6149074 6297094 6470864
2877.29 6652862 6838458 7050118 7243454 7458942 7668248
2880.18 7676172 7496930 7336614 7247166 7202902 7238466
2883.08 7291972 7335484 7401692 7480790 7600552 7763932
2885.97 7916874 8006532 8035388 8079562 8250464 8507448
2888.86 8686440 8797038 8945602 9196500 9663358 10215770
2891.75 10431410 10248170 10022990 9951956 10014200 10143350
2894.65 10184600 10118440 10076680 10093210 10201890 10441650
2897.54 10608640 10516730 10459710 10651480 11035080 11456340
2900.43 11560480 11333770 11144740 11167960 11509520 11941270
2903.32 11889280 11511500 11363790 11621600 12302710 12743650
2906.22 12433520 12071660 12132020 12636290 13437770 13667820
2909.11 13246350 13064130 13309310 13993250 14890180 14920690
2912.00 14309360 14187900 14819040 15983920 16625830 16350570
2914.90 16294500 17000690 18248170 19090330 18711790 17925780
2917.79 17509480 17407460 17472190 17522960 17447770 17217550
2920.68 16970810 16940930 17001960 16891850 16716340 16697480
2923.57 16833200 17000040 17099800 17257650 17615490 18183950
2926.47 18904430 19609750 20261670 20935340 21453110 21779360
2929.36 22202080 22583240 22774460 23038800 23353400 23541360
2932.25 23732050 24051020 24427080 24609180 24576240 24714330
2935.14 25016740 25162080 25017720 24765420 24825130 25239160
2938.04 25473460 25123200 24785840 25123060 25807320 26107570
2940.93 25796550 25566150 25996150 26804310 27238540 27126360
2943.82 27265380 28011610 28718440 28618410 28169850 28415370
2946.72 29420140 30326710 30449280 30443800 31054940 32260950
2949.61 33295670 33272290 33077270 34037550 35606270 36319340
2952.50 35786860 35000250 35065210 35937660 36650560 36545840
2955.39 36278010 36628050 37656190 38857030 39294640 39184830
2958.29 39435510 40540560 42098540 42680980 42711790 43463820
2961.18 44841560 46728730 48169800 48962490 50524780 53062700
2964.07 56284350 59023430 60674120 62923820 66297450 70348980
2966.96 73354460 73700180 73315780 73405490 74463760 77181640
2969.86 79269940 80152540 80904190 82138560 85402240 88810800
2972.75 90460300 91437020 91846060 92446790 94003950 95665060
2975.64 96660040 96354410 94895730 93484990 93019380 93264310
2978.54 92995220 91036360 87945060 85663250 84488500 83409940
2981.43 82440480 81184580 80665850 84676950 90940100 91114060
2984.32 86814680 84727460 84611310 85313610 88086820 93136940
2987.21 98123720 101937200 105259900 108343000 111956800 115961500
2990.11 117866500 117744700 119164300 123654600 127724300 126488800
2993.00 123096500 123399300 126499500 127764700 124937200 122035400
2995.89 123455900 128100800 131578500 130857100 128307400 128307400
2998.78 130889000 132980600 131538200 128283600 127992200 130826200
3001.68 132442800 129680600 125447100 123631900 123856300 124122600
3004.57 121809000 118068400 116588600 116178500 114050700 109650500
3007.46 104866700 102478200 102834800 103654800 102685700 102041100
3010.36 104063900 104427700 99966460 94674220 92602530 94353000
3013.25 98808850 103447900 105921500 107174300 108909900 110781400
3016.14 111746300 112683000 114297100 114993700 115502800 117327800
3019.03 118415000 117796900 117221600 117647200 119178600 119446300
3021.93 117278500 115152700 114883700 116118600 115385500 111948200
3024.82 109267200 108479200 108470600 107070000 104640300 102532500
3027.71 100727200 100178200 99481020 96750520 93839660 93723540
3030.60 94934620 93865290 92583660 93461260 95278780 97217450
3033.50 98565290 99351260 100762700 103250100 105104300 104480200
3036.39 104995800 109554900 113669200 114113200 113577900 115436000
3039.28 120276800 124150100 124063100 123182200 123934700 126317300
3042.18 128413800 128608700 129025400 129244700 128030200 127525900
3045.07 127705800 128374700 128353100 124917700 121306600 120529700
3047.96 120584900 119581500 115661400 110967800 109050900 107443900
3050.85 104596200 102099900 99720820 97724420 97398790 99923580
3053.75 104136200 106534200 105028600 100766100 98217140 100926500
3056.64 106180200 108445300 109744600 113749000 118378700 123199900
3059.53 128048200 130605500 131103900 132183300 136878400 144069400
3062.42 146563300 143324300 141577500 144225400 148715300 149358700
3065.32 145678000 143806300 143821300 144408000 144902900 142603600
3068.21 140327500 139380700 137554300 136576500 136446600 136530600
3071.10 136742700 135131800 132796200 132227400 133447600 134371200
3074.00 133054000 131714700 133722700 137472900 138497400 137449600
3076.89 137320400 139041100 143106900 147479900 146848000 143830000
3079.78 146290100 154191800 163388900 166587300 162229900 159963200
3082.67 165122000 176677700 187000700 186194600 180613300 182198200
3085.57 192744100 206311700 210675400 203889200 198700400 202349200
3088.46 212610800 218091000 211408900 204318500 204366100 207927400
3091.35 208564800 200272000 189628600 184008600 180404100 174633600
3094.24 166619500 158746500 150223000 141820200 139276800 142129500
3097.14 144600000 143726500 137909300 130063600 127200800 133725000
3100.03 139553400 132938800 125544700 127190600 133391400 142491500
3102.92 155288400 166455300 173230300 180929700 190254200 197493300
3105.82 202896800 204898300 202923600 202834800 206470600 209907600
3108.71 207399900 198374200 193007900 194288100 194539300 188132700
3111.60 175670000 166962700 166394800 166502000 160783900 148226900
3114.49 136624400 133737600 135261900 132612300 122367800 111728400
3117.39 109037800 111587200 112062200 104833300 94400090 90330020
3120.28 90387980 90458370 89975060 84846380 79147380 78735760
3123.17 80704150 80199540 74759220 69666110 69099380 70787910
3126.06 70380780 66330570 63143810 63077590 64191080 63557360
3128.96 60127940 57050280 56343280 56272860 55259040 53478150
3131.85 52212730 51349560 49654600 48137890 48257160 47856420
3134.74 45028880 42603550 42246310 42975390 41844640 38936060
3137.64 37340160 36952170 37134430 36288780 34059150 32550070
3140.53 32257000 31874470 30723620 29782000 28818060 27350240
3143.42 26489600 26445730 25649950 24239830 23431260 22856900
3146.31 22059400 21428870 21032420 20126080 18918240 18141520
3149.21 17899330 17589790 16718400 15730810 15096660 14820610
3152.10 14481660 13818400 13103620 12599520 12305000 11856550
3154.99 11231010 10672290 10279900 10051540 9710576 9139060
3157.88 8666612 8428786 8214860 7789436 7305776 6967232
3160.78 6771200 6663370 6448510 6092364 5730842 5474032
3163.67 5359614 5156414 4813798 4522488 4343314 4219862
3166.56 4074658 3960268 3860886 3685290 3453290 3254082
3169.46 3144654 3150570 3165620 2961100 2641858 2461808
3172.35 2476806 2601380 2530534 2195946 1929092 1813378
3175.24 1745398 1665722 1529770 1394572 1338266 1325236
3178.13 1252618 1160368 1110168 1037716 980340 963198
3181.03 956952 948304 939104 942826 937500 907174
3183.92 908780 928470 938614 938658 907402 885196
3186.81 917158 963720 927262 786760 658118 622830
3189.70 639524 621776 519422 320258 131086 167370
3192.60 412852 605864 617336 528022 507928 591180
3195.49 644074 633088 597628 569396 546468 442696
3198.38 296086 205776 138148 79684 129068 259962
3201.27 321178 267558 212806 207888 174286 83074
3204.17-15182-50400-6114 35904 16240 35746
3207.06 128456 174428 134474 106666 129568 175276
3209.95 231582 267756 287474 325350 371810 354410
3212.85 340584 407930 447878 444572 494740 560510
3215.74 623996 695120 759998 799010 811716 827278
3218.63 889696 987096 1048390 1053648 1062474 1179756
3221.52 1279238 1211770 1140524 1204130 1297166 1354652
3224.42 1341838 1287950 1306874 1376346 1400890 1359430
3227.31 1315486 1272530 1210398 1182990 1237966 1276372
3230.20 1249440 1230164 1237240 1266742 1317156 1419118
3233.09 1571626 1736716 1902724 2022072 2031050 1948102
3235.99 1804150 1707650 1746540 1854048 1973524 2046322
3238.88 2020084 1962500 1989110 2066922 2058640 2040232
3241.77 2066676 2063106 2011452 1922918 1878644 1897640
3244.67 1846686 1713474 1619830 1551196 1503494 1466548
3247.56 1403312 1332584 1262780 1216776 1163648 1118602
3250.45 1100240 1065840 1029742 988408 919760 867128
3253.34 839590 808682 747240 711346 711640 714018
3256.24 800952 858910 743134 616334 581844 616348
3259.13 670492 711780 715574 661294 603790 623006
3262.02 697188 704814 653762 646638 675568 686652
3264.91 652760 613940 643400 647538 584684 561298
3267.81 544980 488514 489428 542982 559922 495668
3270.70 428618 434934 444836 425378 431416 451768
3273.59 399996 325054 313114 310730 315018 338820
3276.49 335582 349652 375772 343796 318252 307994
3279.38 287088 271156 232662 193824 193282 201198
3282.27 219090 229950 211998 175812 141450 161696
3285.16 192902 193196 232838 274512 254182 246432
3288.06 275092 304966 317728 274620 243070 221616
3290.95 152278 145174 219218 261856 274182 298198
3293.84 328578 334910 313054 315276 373826 419460
3296.73 369872 335336 417528 489968 501910 505544
3299.63 495582 494254 522588 530844 496072 445598
3302.52 441372 482656 455520 358190 363506 424866
3305.41 395106 391130 479150 539756 497914 446590
3308.31 455064 485812 497766 497768 520514 532298
3311.20 483302 432510 437416 475058 506662 544340
3314.09 613042 627512 600708 591574 572114 552570
3316.98 561492 570116 572554 590058 603484 586910
3319.88 556468 557024 564738 533796 501654 509472
3322.77 542058 536682 464234 384466 375284 415080
3325.66 413048 401406 457594 516736 500738 428026
3328.55 347272 293044 313144 376162 387376 318020
3331.45 277944 322562 279414 168372 165774 259036
3334.34 360792 380026 301450 235066 197010 138300
3337.23 118968 178226 247866 247650 196392 162908
3340.13 156800 191768 222306 203198 217062 266530
3343.02 269244 250878 237704 187530 115910 92918
3345.91 95222 78084 84592 141334 203368 190846
3348.80 185366 177060 131608 83542 46068 82678
3351.70 161312 230794 278460 254188 154400 98286
3354.59 134764 196752 216544 187798 173168 183536
3357.48 197952 221358 240078 213118 183302 192206
3360.37 230688 300494 316150 267794 234624 222972
3363.27 204862 221674 288890 321154 300888 276040
3366.16 254114 220332 214474 208262 177340 182142
3369.05 204248 243976 321152 373046 374404 449800
3371.95 578486 619064 561896 486528 462296 448278
3374.84 423098 428932 485924 542394 543194 555194
3377.73 624152 641528 609008 618626 658650 724822
3380.62 788552 802662 768822 733188 736626 738924
3383.52 781070 825876 868884 986070 1083526 1108364
3386.41 1105942 1135642 1158564 1142896 1176058 1242054
3389.30 1277244 1273872 1259844 1243580 1259304 1359330
3392.19 1428294 1407868 1397444 1402648 1370966 1287584
3395.09 1162298 1082930 1133146 1224324 1198018 1139182
3397.98 1113254 1048016 1039942 1127866 1201160 1181920
3400.87 1170822 1246660 1314924 1313360 1326100 1405006
3403.77 1423402 1378662 1415640 1461080 1403876 1376868
3406.66 1426820 1437234 1417466 1400152 1366162 1302610
3409.55 1266612 1300984 1321860 1316216 1304010 1239658
3412.44 1154960 1092374 1029340 971452 874168 750264
3415.34 724108 762488 808890 881594 938774 892878
3418.23 809038 797112 804438 787136 751360 669892
3421.12 628544 641532 628284 596264 515890 435664
3424.01 441762 471416 440446 393122 383714 433806
3426.91 479016 486648 488740 441686 368536 328270
3429.80 326634 327162 339274 381388 412042 416592
3432.69 421036 415468 330820 270214 347518 435652
3435.59 445694 446930 461884 451198 453000 517554
3438.48 586286 629602 648542 661106 706798 725978
3441.37 730012 798580 819710 782854 763410 727386
3444.26 721848 702818 692724 766550 868392 910880
3447.16 825156 758150 773260 748092 663252 607422
3450.05 606264 622328 629502 591664 530404 519572
3452.94 577620 535744 401390 410866 477756 491522
3455.83 516522 506600 509492 578922 624982 615448
3458.73 628354 748654 836224 773442 707000 703046
3461.62 720716 727298 718742 729710 765434 768056
3464.51 751218 694280 607688 622208 760212 848088
3467.40 786314 668288 607988 620150 628388 595702
3470.30 554114 533094 503030 458640 418460 389404
3473.19 411386 458430 445254 384960 341716 293686
3476.08 243402 252482 316352 367684 366960 351086
3478.98 360378 379766 399386 405772 411072 477924
3481.87 522522 425586 301462 286250 298144 301826
3484.76 356386 384610 366748 322420 288878 350250
3487.65 423318 446922 466372 458068 452698 453262
3490.55 433934 386932 316948 292928 339728 360774
3493.44 321370 328122 412738 476802 478370 473786
3496.33 458280 393050 366492 408594 446116 478976
3499.22 532164 568128 565006 564444 563192 573576
3502.12 626054 678202 670174 649072 620964 552034
3505.01 504422 529612 568428 532496 459934 432272
3507.90 503906 639636 729400 721820 633920 553698
3510.80 559230 579388 553218 550698 562502 528244
3513.69 491650 528030 593178 607946 584938 595138
3516.58 633772 624742 592410 592780 589232 535384
3519.47 525498 568930 607452 636022 659430 681900
3522.37 674152 604420 551798 592190 649848 646178
3525.26 616298 631396 733638 828468 811722 780350
3528.15 843030 871106 750818 653196 692672 756952
3531.04 773686 742416 724182 749432 755028 739950
3533.94 695444 645102 616070 642182 747008 746170
3536.83 662730 658382 668678 645852 586748 565732
3539.72 590224 548584 492704 482274 463988 484200
3542.62 573478 619182 572828 582956 750840 835232
3545.51 718016 708280 847768 840710 709340 619882
3548.40 631536 696068 715606 705334 677420 669392
3551.29 758474 828222 766700 760716 826044 795098
3554.19 730506 684540 681856 705802 639474 538846
3557.08 530860 577442 560714 528348 579942 663542
3559.97 661346 622384 625092 636096 614422 586660
3562.86 637596 681384 638874 617968 760720 1009964
3565.76 1175658 1159932 1072304 1314818 1506318 1127728
3568.65 726218 600108 568310 558416 538420 540828
3571.54 585238 621214 639692 629008 596436 616298
3574.44 697800 709356 643424 641794 708730 738838
3577.33 738664 731320 711028 698608 703198 689884
3580.22 685522 642438 585484 657938 735602 746164
3583.11 797790 812738 725916 697262 856170 1298312
3586.01 1766284 1621216 1173904 1210898 1750784 1846848
3588.90 1275708 931124 888654 866052 846616 840844
3591.79 903652 1115614 1271450 1182290 1062530 1180534
3594.68 1445038 1444490 1277176 1212132 1184220 1246030
3597.58 1350800 1327140 1255942 1313094 1374162 1419054
3600.47 1476216 1360628 1240794 1300314 1352980 1275352
3603.36 1193948 1238784 1311428 1287962 1168806 1219580
3606.26 1567176 1718440 1522638 1439250 1975558 2710552
3609.15 2367156 1560992 1229470 1063196 1088470 1578588
3612.04 2090390 1869472 1399494 1375214 1569290 1541106
3614.93 1346336 1269292 1319954 1461848 1832580 2065932
3617.83 1892422 1952686 2605094 2792332 2061310 1608728
3620.72 1618648 1556500 1492292 1495408 1389840 1222218
3623.61 1160876 1218334 1248408 1159512 1065442 960354
3626.50 866820 1178724 2244588 2946396 2910354 3361726
3629.40 3010876 1628792 880094 714372 717038 744874
3632.29 724458 823556 1039206 919298 586570 446544
3635.18 423644 362734 290300 286588 358182 406130
3638.08 432086 564342 774260 944642 993024 957228
3640.97 960960 952710 865552 713324 563206 476764
3643.86 474232 512754 515832 534928 783962 1375604
3646.75 1916404 1689832 1207616 1961468 3268656 2767240
3649.65 1604010 1608480 1823014 1407974 673598 279396
3652.54 240184 254804 192466 160340 199184 525234
3655.43 1502166 1969664 1039038 203516 106326 158246
3658.32 106836 57218 83102 132968 148350 140840
3661.22 132578 110020 103422 119644 136118 134690
3664.11 92834 66148 53128 29796 49586 143900
3667.00 241438 527842 1191424 1436822 941302 1131064
3669.90 2821558 3610156 1966880 444444 62664 48346
3672.79 165724 460502 1158854 2139186 2711036 3382714
3675.68 3381214 1789282 657714 406084 211576 186540
3678.57 465252 662712 467800 230532 134102 113494
3681.47 127148 158880 178036 173444 155880 167976
3684.36 175756 111388 66202 130538 277808 571418
3687.25 1794516 3955640 4004774 1803360 522070 461750
3690.14 916794 1529456 1391074 633394 207134 146632
3693.04 176952 204120 196886 161716 187718 282634
3695.93 348546 303424 232794 227158 248512 252756
3698.82 261820 268406 234624 276642 755964 1306032
3701.72 1074494 523564 335188 293376 216162 193744
3704.61 227634 247494 252544 219060 163036 147214
3707.50 205456 443350 1113070 1541658 1010066 466750
3710.39 532022 1133174 2451638 2914284 1597918 463462
3713.29 225202 302220 407782 330688 199114 155086
3716.18 142566 164254 198686 248938 420056 520670
3719.07 379020 248224 211748 227082 435180 823116
3721.96 906878 573658 272374 186628 287510 441006
3724.86 447840 531954 942798 1044010 585734 291958
3727.75 243794 183824 166006 233292 249514 250924
3730.64 528154 1614790 2694306 2061402 813800 435188
3733.54 733258 1390778 1824158 1583456 1403624 2179030
3736.43 2316348 1118992 512514 613192 509018 343702
3739.32 320160 379382 539884 630864 437672 244964
3742.21 304616 731606 2229450 5194296 6967456 4828328
3745.11 1681316 429584 320334 445158 535580 560508
3748.00 1195480 3307562 4649594 2978906 1041426 630712
3750.89 1464842 3841202 4923008 2807822 819190 283260
3753.78 122914 64336 127772 296056 613906 757130
3756.68 486546 270774 280478 364184 669320 1182030
3759.57 1191674 606672 274192 256808 228882 159046
3762.46 144286 172996 167618 150170 315688 813008
3765.35 1078070 652850 189516 25128 19064 110228
3768.25 264830 741958 1460924 1382058 644220 261410
3771.14 168610 98932 94600 134916 158224 171568
3774.03 155818 101048 83012 108594 161492 171314
3776.93 128862 128950 214612 529488 962094 877662
3779.82 388620 118304 106054 150956 158596 141058
3782.71 115424 166168 345976 465814 383174 273858
3785.60 266970 254522 173556 123928 137200 140398
3788.50 131450 153408 171624 183648 195908 217804
3791.39 237936 206624 173942 195854 219360 206582
3794.28 177526 213864 557558 1117262 1114070 630116
3797.17 417078 384902 320782 354332 462922 605642
3800.07 1352868 3419110 4444376 2617352 976616 736296
3802.96 602340 418248 351702 335448 369776 586066
3805.85 1544188 2952580 2727536 1175558 350154 214092
3808.75 243708 267250 231610 246990 303286 306332
3811.64 295336 286564 306092 326072 343232 410960
3814.53 803744 2485564 4490100 3623410 1294122 391414
3817.42 378022 441848 476110 567774 902692 1711962
3820.32 2395794 2595454 2528094 1619756 710618 521494
3823.21 474754 446352 437374 426504 472990 681874
3826.10 1017166 998284 690486 524992 461066 458900
3828.99 483330 489234 537212 836612 1447026 1531196
3831.89 900448 516076 480396 543382 997156 1773790
3834.78 1727924 987330 666266 866024 2272616 4611798
3837.67 4408240 1981078 811344 926898 1147218 1354088
3840.57 1491476 1076960 649884 686528 988886 1388812
3843.46 1405404 974284 693984 633604 607080 583568
3846.35 601392 679232 755720 759730 811782 975132
3849.24 1058788 915290 823310 1407110 3276744 4363802
3852.14 3006556 2273376 4445482 7159884 6253876 2864458
3855.03 1015946 730484 857086 1116784 1111544 858240
3857.92 748696 733918 705522 739742 818138 889686
3860.81 1223710 1594968 1363780 958646 895984 1018336
3863.71 1326230 2056390 2525594 1871540 1098150 860080
3866.60 832874 849204 882762 1151332 1756564 2666464
3869.49 3611562 3074594 1618094 1035086 979056 919976
3872.39 956858 1226256 1662648 1880016 1533566 1092184
3875.28 913020 812012 774216 844290 947368 964206
3878.17 964744 1131168 1634320 2182082 2062128 1501882
3881.06 1071288 863644 866392 1009684 1101898 1041586
3883.96 1047642 1624264 2913056 3311568 2212734 1255374
3886.85 988686 960486 957092 935876 945114 986654
3889.74 1114546 1726198 2491210 2217646 1454672 1139706
3892.63 968652 876312 916824 880604 822794 797340
3895.53 735288 722070 811518 944994 1034896 1198934
3898.42 1784638 2252278 1782008 1148754 1108294 1772436
3901.31 2466226 2107146 1413708 1342794 2052994 2659192
3904.21 2043942 1252782 1188996 1264036 1086812 907810
3907.10 885340 907636 941656 967960 944626 891328
3909.99 848096 833306 837868 854254 851928 832318
3912.88 830428 820796 788116 758678 747326 830498
3915.78 1019146 1316082 1578976 1365006 961518 852330
3918.67 911534 1126754 1291458 1088574 872380 838206
3921.56 831864 842610 882904 958192 1022856 1147974
3924.45 1326804 1242038 954804 852512 929130 967418
3927.35 940064 969344 1052296 1103002 1104026 1117798
3930.24 1122834 1056852 1109838 1374026 1408128 1101542
3933.13 955920 1035200 1068924 1018188 995430 1021818
3936.03 967642 853926 877746 992810 1016656 966670
3938.92 935638 912220 897002 948294 973320 987130
3941.81 1176034 1334410 1214656 1048804 1006216 1029562
3944.70 1079534 1117216 1111774 1091670 1153284 1279204
3947.60 1344260 1360668 1320684 1136916 1000598 1034956
3950.49 1101158 1121978 1092016 1099454 1222460 1315852
3953.38 1283560 1211630 1185958 1205166 1220772 1249550
3956.27 1314870 1305184 1252110 1233120 1228420 1277648
3959.17 1358088 1426202 1483096 1532300 1590820 1573108
3962.06 1511598 1545412 1631344 1717678 1786300 1827388
3964.95 1843816 1871616 1912698 1969730 2089532 2177700
3967.85 2224670 2351268 2456684 2515632 2618140 2678448
3970.74 2689866 2758284 2883528 3000180 3077920 3112140
3973.63 3129958 3141874 3171746
##END=
