##TITLE=1,4-Dimethylbenzene
##JCAMP-DX=4.24
##DATA TYPE=INFRARED SPECTRUM
##CLASS=IUPAC A
##ORIGIN=NIST, Analytical Chemistry Division, 301-975-3108
##OWNER=COPYRIGHT (C) 2001 by the U.S. Secretary of Commerce
##DATE=01/06/01
##$SPECTRA VERSION=1.10
##$UNCERTAINTY IN Y=2.1 % relative (B=1.10E-04,C=1.28E-9,D=4.08E-14)
##CAS NAME=1,4-Dimethylbenzene
##CAS REGISTRY NO=106-42-3
##MOLFORM=1,4-( C H3)2 C6 H4
##MP=13.26 C
##BP=138.35 C
##$NIST SOURCE=QUANT-IR
##SPECTROMETER/DATA SYSTEM=IFS66V (Bruker)
##INSTRUMENT PARAMETERS=KBr Beam Splitter; MCT Detector; Multipass cell
##STATE=gas
##SAMPLE DESCRIPTION=p-Xylene Primary Gas Standard
##PRESSURE=101.3 Pa
##TEMPERATURE=23 C
##SAMPLING PROCEDURE=1 L/min Flow
##RESOLUTION=1.9290
##DATA PROCESSING=Boxcar Apodization
##XUNITS=cm-1
##YUNITS=(micromol/mol)-1m-1 (base 10)
##XFACTOR=1.0
##YFACTOR=9.0949E-13
##DELTAX=0.9645
##FIRSTX=575.652
##LASTX=3974.605
##FIRSTY=1.75E-06
##MAXX=3973.64
##MINX=575.65
##MAXY=.0006606
##MINY=-1.14E-06
##NPOINTS=3526
##XYDATA=(X++(Y..Y))
575.65 1931367 1494386 31977 1182822 347393 910270
580.47 442761-936740-515403-291609 166486 772446
586.26 20505-114406-985961 765674 121781 442139
592.04-443892-273991-483303-813309 366544-444869
597.83-616699-403332-390053-1084247-203211-761368
603.62-335035-277931-568454-759994-1263566-107607
609.40-433784-246368-619444-866202-892755-670765
615.19-906047-203413 62121-1013284-735270-302391
620.97-966738-199286-436745-395540-649111-474559
626.76-776114-869438-131748-94436-646281-121160
632.54-425409-682735-630125-859713 7733-390372
638.33-389065-752335 80466-361678-296503-419124
644.11-360977-652392-341927-175948 179163-690344
649.90-95832-639113-230919-262477-575383-389542
655.68-30992-254268-419544-214647-382438-190440
661.47-441509-74119-588572 4908-378393 887994
667.25 359929-473463 51749-512275-247964-446365
673.04-157125-577618 45153-314990-80001 114269
678.83 366044-94855-238993-433239-168998-824752
684.61-84567-17377-15893 85478 193643 158438
690.40 164496 115575-81160 342236 404781 259124
696.18 485738 218190 338155 629400 689767 159075
701.97 125002 265996 59467 395217 242664 178939
707.75 195118 172652 147970 23709 538797 356999
713.54 362516 63278 301727 122245 483616 131112
719.32 201928 189844 301457 98919 118757 327292
725.11 170907 446035 453006 178603 473480 316419
730.89 561116 390320 335045 235641 239901 216265
736.68 157155 501471 203641 713111 1222637 336419
742.47 163736 571179 508711 237881 562658 575954
748.25 688896 632098 750471 706565 796268 1034839
754.04 1128237 965885 1197587 1242149 1578751 1847150
759.82 2357602 2736566 3248817 4250173 5341472 6779702
765.61 8582510 10886562 13301345 15829947 19691237 23561934
771.39 28844077 34826608 42055957 50195121 60041009 70133013
777.18 81507618 93454712 105559974 118207544 131627850 144813513
782.96 157100912 166647234 177838340 192005321 193948886 188790091
788.75 189958541 195010499 202634710 229106746 302207404 510792880
794.53 726424716 359674884 199783181 199166885 192486358 199601712
800.32 196401743 195919555 192223036 186047988 173345254 165987099
806.11 153436386 140128124 123076597 108760216 94415918 82378697
811.89 69494271 58445802 47539497 39232060 31205493 25300076
817.68 19648161 16308626 12772347 11435489 9441015 8661676
823.46 7592142 7743197 6670507 6733968 5787150 6083985
829.25 5489866 5520457 4925806 5178895 4799869 4974242
835.03 4598088 4838127 4185721 4037627 3230253 3446039
840.82 2182114 2313073 2010193 1944428 1300309 1366438
846.60 1377644 1540790 866689 902965 1079893 1157122
852.39 1085226 897512 882090 1050387 872024 1088080
858.17 898826 864661 864583 905057 1009900 1057900
863.96 1033343 1113265 744849 1159059 970423 1358085
869.75 1125978 1323496 1091375 1325106 1189419 1274447
875.53 1099169 1363946 1327173 1234340 1215518 1600252
881.32 969953 1239173 1235340 1486944 1486241 1455992
887.10 1307448 1690405 1539258 1569882 1392314 1745685
892.89 1512268 1650563 1537260 1739835 1535800 1769111
898.67 1468136 1657631 1576326 1629167 1529033 1681456
904.46 1635129 1894929 1735542 1976525 1744117 2111147
910.24 2144142 2462749 2528032 2685170 2629385 3199573
916.03 2770961 3091930 2893595 3076131 2993080 3236803
921.81 3201913 3272353 3257872 3299778 3192247 3426986
927.60 3280821 2907184 2723179 3137607 2958713 2837061
933.39 2621625 2923650 2600239 2738598 2463972 2934755
939.17 2698175 2884192 2888545 3053317 3045968 3269221
944.96 3203324 3440080 3487338 3621744 3615824 3733251
950.74 3828879 4060984 4125078 4366856 4267968 4784532
956.53 4561999 4866749 4633445 4708082 5020660 4710602
962.31 4759264 4736900 4887625 5073559 4979638 5182818
968.10 5137520 5577681 5252496 5212007 4921667 5078929
973.88 4940555 4926036 4851859 5106982 4915285 4858041
979.67 4822086 4844230 4751553 5044717 4937253 5011108
985.45 4812241 4955940 5030666 5173067 5232769 5283494
991.24 5294927 5508753 5367082 5558489 5457642 5760135
997.03 5608474 5828447 5598077 5709223 5628126 5559225
1002.81 5245970 5359771 5286501 5459761 5292970 5809854
1008.60 6161106 6954365 7699444 9277264 10756098 13769462
1014.38 16202135 19665393 22890338 24727040 24538347 23823074
1020.17 21412286 21063321 22906629 34030922 24488351 20767522
1025.95 25282693 27876755 30007148 29460149 28221602 25653653
1031.74 23461908 21304502 20461919 19224028 18947468 18953026
1037.52 19120581 19484325 20510817 21896849 23984930 25753382
1043.31 26396683 27767276 26958221 26627668 27463853 28174614
1049.09 26967780 26982934 27354548 26630335 25846589 25681070
1054.88 24988441 24076374 23286429 22301222 21525059 20677228
1060.67 20041405 19321476 18586742 17728252 16790404 16008846
1066.45 15059604 14492881 13889597 13340723 12712493 12076452
1072.24 11482135 11054467 10762072 10531737 10107807 9925749
1078.02 9863085 9624024 9932135 9985067 10410677 10466813
1083.81 10848755 11350409 11898356 12487876 13307375 14273981
1089.59 15195632 16455525 17663013 18612631 19476413 20179792
1095.38 20659926 20933611 20696558 19955363 19345658 20096646
1101.16 21057890 23459573 25447755 27430377 28893364 30169792
1106.95 31418063 32688514 34377445 36700246 39160600 41848411
1112.73 44371689 45549193 45363697 43355732 39129813 33437275
1118.52 28955702 27409053 29581749 33642553 37494753 39500511
1124.31 39802197 38862316 36246019 33242812 29267102 25754100
1130.09 22531698 19692323 17396265 15693369 13809893 12309795
1135.88 11036068 9882301 8911658 8254943 7271928 6914153
1141.66 6137033 5622510 5266989 5059313 4655418 4478980
1147.45 4222705 4143231 3926466 3804962 3767408 3697754
1153.23 3523473 3645404 3597553 3384684 3475092 3569973
1159.02 3437277 3418824 3371727 3553432 3453572 3519097
1164.80 3425590 3583016 3772529 3805187 3504477 3783713
1170.59 3612707 3782310 3634329 3635263 3950993 3894921
1176.37 3653187 3914112 3721639 3783687 3759621 3803373
1182.16 3693301 3556543 3648676 3608965 3365672 3329171
1187.95 3154047 3263727 3190074 3320036 2992428 3152083
1193.73 3019580 3060757 2867761 2850345 2846293 2985734
1199.52 2866467 3101311 3160201 3203891 3286355 3765114
1205.30 4181281 4952726 5545235 6705240 7796428 9644224
1211.09 11063625 12711881 13801901 14761230 14693205 14784828
1216.87 13776623 13349475 14974939 17964860 15467421 13528036
1222.66 15993944 17969696 19222303 19157296 18237596 16810123
1228.44 15764154 14914937 14614629 14794022 14862658 15222688
1234.23 14861295 14410125 13763665 13374747 13873983 14752619
1240.01 14534824 13799384 13321715 13196867 12917708 12260660
1245.80 11095850 9776406 8487466 7228406 6221132 5556418
1251.59 4900493 4607997 4393133 3925273 4011868 3742061
1257.37 3648959 3677769 3334037 3353297 3181605 3183996
1263.16 2853750 3391169 3211134 3345078 3293594 3108788
1268.94 3220365 3122850 2990259 2889069 2763681 2835553
1274.73 2704639 2637807 2585629 2559003 2537343 2551374
1280.51 2491379 2539683 2528826 2524776 2585281 2560487
1286.30 2602423 2709749 2511296 2703446 2740920 2596318
1292.08 2746956 2809796 2724645 2883342 2959587 3121065
1297.87 3102108 3202058 3269001 3714803 3641694 3977958
1303.65 4105447 4788072 4625043 4593613 4872274 4912132
1309.44 5280045 5389989 5544672 5551122 5459864 5361290
1315.23 5296212 5296980 5410601 5682192 6195718 6353051
1321.01 6459544 6682477 6683869 6639879 6449675 6809636
1326.80 6793189 6919207 6947825 6933381 7198369 7223680
1332.58 7179518 7217776 7344698 7624626 7891347 8154322
1338.37 8619907 9088202 9544581 10161647 10595515 10220521
1344.15 9731298 9551819 9501109 9213709 9032164 9225104
1349.94 9064998 9049213 9030006 9741886 9750894 9512000
1355.72 9553150 9080492 9122850 8710144 8488433 8935922
1361.51 8701190 9194518 9023387 9623104 9738524 9958789
1367.29 10156775 10340163 10388845 10697355 11178444 12075738
1373.08 12865811 14172777 15657274 17332789 19189340 20991193
1378.87 21795253 22211127 22315388 24190945 28641893 23938380
1384.65 24125768 26530031 27807554 28422674 28466181 27828260
1390.44 26254198 25006489 22925713 20952453 19644364 18982973
1396.22 18211028 17841996 17435870 17347852 17342235 17804798
1402.01 18148650 18574459 18808153 19401435 20098619 20875225
1407.79 21316832 22007476 22713631 23152236 23808200 24803203
1413.58 25687784 25817282 26694578 27873421 29276480 30073539
1419.36 31840776 33148053 34450853 36005076 36889317 37977275
1425.15 38725376 39851336 40024892 39717637 39163345 39772862
1430.93 40392991 39882111 39882466 40275968 39901356 39833757
1436.72 40246678 40104385 39750246 39293222 38659691 37383291
1442.51 35096018 33644238 32480347 31736897 31103823 31445866
1448.29 32234506 33189782 34767383 36288379 37862335 38197225
1454.08 37845976 36864716 34866622 34494745 34327064 34955815
1459.86 35536866 36875628 38930139 41645769 43211158 45425421
1465.65 47411649 49582672 51479520 52534605 52836427 51003110
1471.43 49074579 46780693 44903401 43259273 41002332 40093924
1477.22 39145109 39237477 40038828 40806199 41876282 43716048
1483.00 44876166 46046967 45606912 45685238 45332499 45085082
1488.79 44731878 44592427 44548245 45006096 46041025 49056363
1494.57 50824011 51863531 53893056 56435087 58563803 59909182
1500.36 60642963 61337594 62406401 64449657 68362652 75057332
1506.15 84576524 98391923 115702807 137774552 163907348 193093871
1511.93 222077494 246756573 261638358 260155694 246856097 235647055
1517.72 242856917 280949640 290366374 244593216 222752741 239127423
1523.50 257766017 266814776 254759099 225329737 191582433 157937353
1529.29 128485854 103382118 83092602 67169808 55261423 46492618
1535.07 39571087 34696755 30827909 27537241 25291353 24228594
1540.86 22474596 21272498 20393701 19022007 18331084 17973218
1546.64 17223829 16880744 16630760 16473441 16268482 15846008
1552.43 15362090 14557443 14473447 13784692 13391242 12398714
1558.21 12622654 11948729 12188552 11946221 11612441 11449445
1564.00 10868251 10751531 10484664 10174380 9748795 9258863
1569.79 9189758 8848383 8579220 8248780 8151540 7229972
1575.57 6675066 7300982 6609729 6805446 6527730 6557157
1581.36 6118971 6309581 5928086 5952705 5656427 5571441
1587.14 5543910 5360564 5390365 5388926 5522720 5893984
1592.93 5834025 5813432 5882151 5935770 5903811 6145770
1598.71 6140288 6276181 6294899 6495828 6741827 7141602
1604.50 7288465 7717046 8052869 8647984 9157475 9598734
1610.28 10097190 10855088 11602259 12607784 13477817 14143545
1616.07 14660785 16612144 17187341 18269322 18397834 18830217
1621.85 18467656 18183612 17613683 16607751 15801951 15481716
1627.64 15908963 16960300 17190152 17489965 17176851 16356749
1633.43 15015611 13141102 12232175 11055729 9959789 9092840
1639.21 7938467 7419463 6582058 6092667 5213967 4855853
1645.00 3728355 3979120 3262565 3456222 3088738 2948249
1650.78 2339768 1307958 1770014 2267908 2318942 2284546
1656.57 2232447 2250968 1993392 1973160 2001271 2112503
1662.35 1872421 2186982 2012205 2082692 1761587 1826213
1668.14 1230326 1626166 1478801 1494028 1596386 1767830
1673.92 1073087 1263182 1454745 1333641 1204562 1163510
1679.71 957379 1311806 894459 954348 192326 597149
1685.49 1160990 1005338 1139799 954735 1015593 996425
1691.28 1037230 933300 998178 657087-44068 1098230
1697.07 868421 947217-24856 593822 858342 930158
1702.85 797485 882710 874273 767786 922642 1137092
1708.64 1065012 1104238 1146180 1338292 1486760 1528355
1714.42 1595901 2011174 1589909 2322842 2874602 3138499
1720.21 3308494 3324223 3243135 3124174 3050605 3059567
1725.99 3233069 3353555 3134762 3161482 3064002 3128582
1731.78 2770490 2171213 2137980 2435323 2535230 2509781
1737.56 2504764 2375788 2488532 2763085 2748534 3090731
1743.35 3167554 3282185 3204496 3433690 3510920 3526190
1749.13 3722444 3390944 3817991 3950563 3749295 3778222
1754.92 3807128 3584392 3641239 3620905 3489889 3620154
1760.71 2973954 3202016 3026083 3191464 3220317 3013059
1766.49 2979078 3045358 3315637 3256548 3499136 3475318
1772.28 3778810 4495936 4775568 5439238 5985119 6960844
1778.06 7856269 9096144 10177134 11493002 12218864 12962088
1783.85 12786144 12565556 12105924 11672755 11463178 12480413
1789.63 13623755 12899629 11588062 11855593 11546848 10929466
1795.42 9993236 8757209 7224010 5884254 4710788 3720498
1801.20 3150664 2688840 2235388 1963523 1661626 1663896
1806.99 1419269 1282865 1176980 1029266 979382 1074909
1812.77 848102 990128 1026828 977236 919781 982799
1818.56 921623 1103548 1119511 1201842 1316814 1403354
1824.35 1403938 1784516 1862910 2229743 2337119 2754945
1830.13 2977722 3342019 3598679 3782955 3708541 3931715
1835.92 4101441 4278021 4282348 4236614 4428228 4500987
1841.70 4552562 4390605 4089415 4263121 3953788 3745897
1847.49 3389545 3173615 3024003 2778263 2537054 2593266
1853.27 2430239 2441038 2318038 2322542 2259581 2404641
1859.06 2408181 2616749 2625374 3024281 3364248 3680685
1864.84 4043932 4482435 4920981 5514771 6124914 6958456
1870.63 7623968 8532696 9446369 10604092 11571298 12802033
1876.41 14204460 15963869 17519205 19256301 20757317 22494592
1882.20 23267210 23590257 22951317 21951013 20237126 18368435
1887.99 16993209 17225327 18983752 21532064 23634222 24315540
1893.77 23701539 22179407 19934584 18077926 16172735 14190063
1899.56 12162974 10870270 9638515 8834981 7551497 6884080
1905.34 6137914 5657238 4955897 4440158 3823629 3768662
1911.13 3355416 3305967 2901495 2892766 2762304 2675522
1916.91 2403503 2590950 2482021 2651489 2486317 2560296
1922.70 2396027 2515689 2274579 2269920 2210163 2201918
1928.48 2050396 2109093 1995806 1990357 1774759 1656717
1934.27 1590058 1415749 1184764 1083843 930552 920122
1940.05 906636 846398 796594 933694 837301 886152
1945.84 803919 878264 926934 1041850 1010443 1086800
1951.63 1004985 1262525 1254812 1331375 1436383 1557772
1957.41 1309713 1054217 1031914 1000579 994397 943287
1963.20 1041895 1135007 1016956 1093896 1038483 1137740
1968.98 1071525 1115107 1206269 1136115 1383098 1451702
1974.77 1078249 1364321 1322524 1349862 1313141 1540266
1980.55 1528675 1477005 1499361 1368442 1345577 1540064
1986.34 1472134 1512816 1313942 1448358 1263781 1295727
1992.12 1209487 1300398 1319551 1339240 1291266 1260434
1997.91 1046231 1190483 1011344 1040112 1062090 1032404
2003.69 1024595 960251 1034637 760229 841565 960732
2009.48 738064 920538 647918 735358 619975 725675
2015.27 507330 481846 427977 529595 347059 395043
2021.05 262584 231368 223389 337481 308174 486587
2026.84 268031 419395 208538 303151 266926 391149
2032.62 396106 382610 335860 331267 129022 299650
2038.41 306789 363083 276597 496103 269267 449435
2044.19 290597 337863 169703 170268 145177 275932
2049.98 173874 250237 27791 77812 13026 8385
2055.76-104588-6534-44937 17863-234406-78980
2061.55-111536-158334-135065-69158-125856-106066
2067.33-145559-9802-159669 35966-140474 204836
2073.12-19660 45500-8346 129105 258736 6606
2078.91 18970 69549 305711 349346 193245 224476
2084.69 363090 723841 185321 492173 391424 1084263
2090.48 551257 866693 673556 1429626 1545491 1497244
2096.26 1613104 1747799 2565172 1763801 1843359 1798080
2102.05 2657064 2398635 2084040 1969127 2268547 2669430
2107.83 1786770 2097460 1725627 2450570 924521 1207703
2113.62 459722 1625577 304621 437779-88299 986773
2119.40 107224 181948-142808 727094 341349-126924
2125.19-265141 360631 279199-240244-211928 127854
2130.97 237630-169522-188480-75503 211902-176541
2136.76-229058-186469 2987-280585-320538-142616
2142.55-113846-156332-194166-3268-63848-176903
2148.33-341313 9284 126704-205966-180202 293662
2154.12 179416-178204-21999 444861 276197-168726
2159.90 51177 750195 236627-192229 321105 844022
2165.69 183236-92897 644887 819891-91415 33234
2171.47 828909 576079-97858 382707 930446 299684
2177.26-80610 684017 713327-43255-8581 610651
2183.04 316850-271567 383736 610550-84975 51907
2188.83 423785 309079-353818 281956 398174-121598
2194.61 70928 402354 162787 95159 398501 646333
2200.40 302302 673963 919694 657209 750017 939568
2206.19 799377 848421 891711 825253 654887 924184
2211.97 933212 913304 824105 934330 714132 513219
2217.76 457880 264786 193495 279840 58998 158084
2223.54 30874 125362-20209 46758-28017-6389
2229.33-92410 80-71401 55126-43109-54397
2235.11-123544-4132 18828-14702-96208-35135
2240.90-189232-220601-198021-75975-142015-157069
2246.68-230095-173536-234915-175201-131025-160698
2252.47-245719-159445-257960-177461-133620-66635
2258.25-46473 13210 12250 43251-46262 129897
2264.04 493 48658 196066 117764 354079 301445
2269.83 283133 387289 361042 410856 466033 557536
2275.61 463852 609560 572848 755472 659592 689450
2281.40 678418 711729 678479 690122 841410 925677
2287.18 858477 1058099 1003778 1075809 1271349 1302280
2292.97 1498994 1631565 1852143 1905608 2215860 2332014
2298.75 2561297 2681016 2636394 2689460 2380119 2488061
2304.54 1933963 2036989 2036479 2397057 2530742 2669526
2310.32 3006120 2842546 2917584 2448005 2611808 1975192
2316.11 2418577 1891867 2080239 1554723 1829077 1565826
2321.89 1837920 1527043 1908788 1658664 2010077 1887449
2327.68 2141043 2023109 2264152 2214697 2645040 2633384
2333.47 2785348 2742379 3044768 2977427 2913686 2809032
2339.25 2860714 2978065 3086133 3077859 3078350 2836744
2345.04 2717854 2371248 2303010 1965272 1928165 1992333
2350.82 1879559 1908787 1667575 1806893 1591424 1737915
2356.61 1771605 1798777 1617788 1830546 1577996 1494524
2362.39 1544239 1453489 1475930 1288770 1269737 1141262
2368.18 1048964 987696 936869 838455 603996 741185
2373.96 568077 735258 505306 592441 535549 546874
2379.75 553822 488595 415045 478296 549875 494772
2385.53 396832 553479 546410 652229 551537 611187
2391.32 555289 627784 683798 639804 681568 629818
2397.11 605637 734675 790581 841074 973717 1056714
2402.89 1070096 1100062 1041427 1224328 1312163 1379000
2408.68 1354704 1481129 1347889 1458917 1314929 1532293
2414.46 1643490 1626846 1662211 1784521 1643058 1715242
2420.25 1709794 1605039 1645886 1730985 1588305 1714759
2426.03 1545594 1768675 1614741 1702537 1579202 1620242
2431.82 1336306 1623599 1459887 1475011 1463081 1543384
2437.60 1419279 1579800 1350757 1341497 1289433 1281223
2443.39 1104985 1291613 994049 1059377 960818 1035161
2449.17 1010463 921153 881117 1011432 839445 891260
2454.96 801421 844243 807879 818972 773478 896712
2460.75 881978 886976 693389 812963 796460 887228
2466.53 952329 819256 851846 946550 855100 901010
2472.32 802055 1022206 905772 975232 1088522 873133
2478.10 929450 919478 866548 943797 753542 913919
2483.89 796802 977663 722558 811819 861774 844483
2489.67 729288 846129 781167 760043 848073 788193
2495.46 626986 739308 735497 680065 544621 617945
2501.24 430692 596543 488164 555708 467233 558141
2507.03 422726 416489 441516 388339 336194 428871
2512.81 384393 317958 331422 409786 336699 308618
2518.60 331696 321073 261095 378358 403350 345200
2524.39 358631 355931 343307 363967 243885 339901
2530.17 308449 330794 210651 230045 149358 409119
2535.96 127329 366681 244443 288193 412797 310385
2541.74 115933 268629 98117 128591-93789 119088
2547.53 16654 48803-92390-59019-155725-43563
2553.31-263930-94108-313043-209009-238705-205881
2559.10-60424-19754-215668-88010-166579 8403
2564.88-200891-11262-85537 61509 8633 142079
2570.67 187100 285316 320982 523130 669683 806482
2576.45 1129472 1349139 1387216 1957642 2008058 2321949
2582.24 2577874 2700666 2835586 3073294 3168277 3305849
2588.03 3287960 3623463 3643935 3806525 3860383 4044876
2593.81 3922765 3820711 3608322 3309135 3087738 2823811
2599.60 2291783 2257762 1945364 1992354 1939102 1708715
2605.38 1901006 1921774 1960171 1647246 1469616 1419136
2611.17 1214973 1060758 991356 806659 774460 633831
2616.95 690522 619049 489965 562638 298503 424750
2622.74 163364 323119 147828 101336-9887 159136
2628.52-39647 207835 218144 120785 176743 338016
2634.31 232175 393181 277785 296685 321636 476569
2640.09 405523 541612 313928 410657 435995 194078
2645.88 315595 278721 267395 327184 312510 250386
2651.66 120528 68828 49387-30153-130243 14911
2657.45-244494-120715-55153-214585-150335-72641
2663.24-88474-141535-103029-167317-155632-76892
2669.02-143538-136278-163685-21099-277303-91214
2674.81-250336-238565-213183-162699-103077-149311
2680.59-126199-169119-49102 62868-157283-180100
2686.38-14762-79134-36161 91666 49491 214668
2692.16 76372 275731 347052 319066 296501 339426
2697.95 471551 536624 648626 976505 958357 1070627
2703.73 1029783 1201916 1379861 1525287 1524667 1680831
2709.52 1589727 1825504 1866773 2016828 1873190 2057350
2715.30 2007694 2024963 2107876 2166785 2291858 2478115
2721.09 2253456 2583368 2510116 2868570 2685862 3043142
2726.88 3208651 3661044 4058114 5005622 5838264 7024056
2732.66 8381565 9671845 11332184 12898869 14367272 15478803
2738.45 15850442 15934009 15611202 15601346 17142984 20459743
2744.23 17092163 15425319 16825067 18084064 18245794 17015751
2750.02 15103883 12496720 9820601 7743180 5990149 4857863
2755.80 3966222 3349738 2768748 2246590 1991751 1861474
2761.59 1681961 1498123 1185800 1361326 1257620 1301862
2767.37 1097293 1252852 1085744 928977 1221256 1209872
2773.16 1143224 1074559 1245166 1120695 1316739 1254905
2778.94 1327832 1214038 1399187 1286881 1262004 1534136
2784.73 1465006 1616474 1708786 1810476 1599877 1920852
2790.52 1989180 2003127 2194755 2257259 2392520 2567226
2796.30 2574145 2847129 2968603 2903382 3207901 3444699
2802.09 3519741 3657576 3734829 3822471 4038727 4115725
2807.87 3918888 4391205 4461462 4797361 4877792 5082844
2813.66 5165799 5630509 5859952 6085757 6223274 6662567
2819.44 6747848 7215585 7418113 7938055 8099603 8351254
2825.23 8923088 9338483 9684857 10136575 10598953 11043449
2831.01 11471449 12028258 12586504 13131100 13321046 13760386
2836.80 13977877 14404883 14697172 15426042 16055228 16793069
2842.58 17442692 18076040 19042062 19674235 20133337 20856096
2848.37 21417689 22720169 23676752 25073383 26653001 28695381
2854.16 30717356 33545125 36466687 39615039 43447535 47552351
2859.94 52184206 57687514 63617939 70595553 77966908 86116937
2865.73 94427071 103152127 111688136 119996287 128030594 135624127
2871.51 142470176 149247979 155187262 160818883 165380301 169386784
2877.30 171817184 173600237 174466314 174762285 174172730 172866135
2883.08 170621658 168479100 165151786 161493343 157474459 153299272
2888.87 149215175 145752579 142334442 139363007 136779593 134414320
2894.65 131797165 128945641 126185934 124161968 122320191 120257780
2900.44 118227909 116578330 114854643 113271398 111321716 110041747
2906.22 108416378 107273341 106378819 106098535 106309412 107002852
2912.01 108166230 110877386 114135804 118649393 124111267 130096299
2917.80 137657230 146217544 155998307 167133776 179181331 192348272
2923.58 206621660 221540742 237515207 254143841 270286555 284823942
2929.37 296451766 307123487 316276359 324076922 330235620 335520091
2935.15 338185081 335464349 329415899 323264332 317451039 312361594
2940.94 305358917 296664767 284281813 267619879 248553816 229194770
2946.72 212442472 196636820 182826767 170697861 160091689 150060630
2952.51 137514168 126906653 119078694 113813222 110770403 109901071
2958.29 110060625 110875229 108719362 105964850 102877358 98062328
2964.08 94356041 90694274 87872416 85850455 83555789 81573590
2969.86 80732473 80767843 81290425 82410988 84064153 85795993
2975.65 87726079 90263247 92872417 95747224 99480579 104325793
2981.44 109652381 112936534 113925227 115438510 117313537 120848222
2987.22 126140134 133374753 139805419 145199030 149071316 153344886
2993.01 158614691 165476012 174117677 183429884 189934473 195585106
2998.79 201370232 208350686 216474785 224850136 231242546 233958380
3004.58 229696552 223089974 216816165 212679444 211093306 212399714
3010.36 215937636 218053934 216875841 215823341 216343978 219313492
3016.15 224216631 230717646 237170164 244521753 252074930 258841842
3021.93 263790710 265747639 264861385 261884064 260380752 262276243
3027.72 262597962 257021860 252938760 253073634 255384975 253717027
3033.50 247920060 237906955 224078063 209779585 196519678 185205919
3039.29 174606325 165477508 158102237 155287510 154698788 155963383
3045.08 159435342 164675821 169723459 170678323 171073415 171848904
3050.86 171699331 171225452 170454560 169981204 166800646 162715755
3056.65 162126279 161596668 160368878 158033541 154718228 150086640
3062.43 143784091 136913215 129325460 121303547 112901165 104153364
3068.22 96060575 87766237 80351739 73491228 67312827 62014023
3074.00 56674452 52490045 48466665 44747072 41769679 38853468
3079.79 36189423 34201541 32369767 30829059 29489273 28982228
3085.57 28162261 27402632 27283121 27422678 27590943 27860854
3091.36 28274500 28811302 29636354 30525727 30622281 30604212
3097.14 30507640 30425735 29909579 30034854 29821315 29779321
3102.93 30277444 30468629 30121255 30021249 29108627 28264772
3108.72 27125525 26167719 24867493 23940733 23365206 21864860
3114.50 20560946 19028264 17749560 16348807 14751870 13556450
3120.29 12064053 11185197 9771865 8740499 7927553 7565841
3126.07 6637343 6353534 6049973 6292015 6107072 6320095
3131.86 6651792 7162263 7673871 8248559 8641575 9232611
3137.64 9262584 9611138 9997757 10073352 10230324 10476940
3143.43 10111923 10201237 10249160 10471197 10412508 10054861
3149.21 9532339 8564638 7805555 6614111 5822445 5148204
3155.00 4261519 3581185 3096289 2571072 2097705 1543548
3160.78 1440018 1449032 1310358 1257923 1005037 904931
3166.57 542027 521871 498007 359823 323352 191558
3172.36-8186 355661 47237 94438-24333-48301
3178.14-45064 120378-45741-88651-161823-108272
3183.93-4011-133915-155483-375259-316586-248394
3189.71-513780-369346-266952-402943-449834-259097
3195.50-328172-420025-339593-329831-461083-342146
3201.28-365858-301744-357217-508747-382885-388364
3207.07-314026-216519-404886-431885-336542-362149
3212.85-306189-536494-31943-245920-447600-163330
3218.64-612815-293428-366688-223805-374078-78407
3224.42-215633-262615-352116-322422-485859-139359
3230.21-310450-313572-342282-317889-412954-204805
3236.00-239969-299679-523885-99400-357543-70188
3241.78-194052-120037-87092-35806-348313-207286
3247.57-407459-183089-39090 56917 78909-10678
3253.35-238163 44466 2493-47982 148855 175885
3259.14-338896 85316 103955 63967 37620-115724
3264.92 159333-1227 153910-58875-41609 74983
3270.71-83143 29836 155478-193267-189464 70774
3276.49 61094 88090 221749-163430 21931 64185
3282.28-42309 175962 23331 134504-52045-34524
3288.06 112320 31005 93141 191062 22917 52190
3293.85 274932 356791-7907 217834 102700 8667
3299.64-23289 32799 19336 146125-30773-8865
3305.42-77760 273538-72803-102020 52065 100510
3311.21-70784 53717 198025 68100 39745 143355
3316.99-150807 112318 95525 220354 89251-106531
3322.78 150687 45371 105865 28572 151061 53711
3328.56-70589-24651-207879-2829 18879 195438
3334.35-113661 7811-282223-4576-58689-129474
3340.13-127274-87746 10532-95606 10475-72191
3345.92-77066-93233-54635 15197-147706 133415
3351.70-205908-145829-146853-143579-70075-62380
3357.49-171615 23478-46580-193105-175145-99471
3363.28-94915-97893-14440 184957 63711 15449
3369.06-64049 331745 50700-26960 289795 57141
3374.85 24074 124380 349216 232633 123070 420563
3380.63 298158 223502 206572 476233 542395 495348
3386.42 236929 312788 225032 741878 284275 262694
3392.20 394385 173612 215134 229791 405396 293404
3397.99 177492 349067 179259 115396-47521 11782
3403.77 123742 112702 95646-128382-28062 112884
3409.56-175425 20602 66364-43160-143542 35372
3415.34 30594 172227-51271 27149-248250 196460
3421.13-273622-109971 175120 48090 67487 262801
3426.92-15641 160143 10036 272561 140937 230289
3432.70 214058 173493 499844 390243 350758 227324
3438.49 342654 606709 341132 437969 94231 135806
3444.27 10773 193957 49137 187352 36231 188469
3450.06-666 17552 60268 67885-163355 40679
3455.84 12457-208277-45489 5103-395588-202470
3461.63-159530-101761-312989-219527-218214-346138
3467.41-426727-181251-347697-385400-289937-400927
3473.20-331530-237384-352613-376221-297035-367107
3478.98-82942-342318-111223-505622-446755-362193
3484.77-402524-308416-552706-268021-302279-147525
3490.56-291685-320211-285066-446398-233262-184304
3496.34-180508-115122-220619-420467 55599-292986
3502.13-293961-339290-372162-353318-218689-240622
3507.91-22924-255128-318493-246673-400160-214367
3513.70-306275-234038-517812-55689-434785-187491
3519.48-547511-282738-249816-533634-543371-330443
3525.27-400398-464245-290140-319963-338110-243994
3531.05-246990-181162-609127-347809-243383-428315
3536.84-380168-484136-411204-216126-379399-315802
3542.62-69503-307437-444577-349143-541344-492249
3548.41-366914-292404-655175-601030-510129-409378
3554.20-472047-466487-554995-588502-592794-586251
3559.98-680781-526694-668753-378189-590060-664813
3565.77-531393-588378-548947-729679-476791-706429
3571.55-499003-450670-649722-611375-665841-315702
3577.34-775191-287189-716196-531328-466024-560080
3583.12-654200-373290-588008-706924-483354-694918
3588.91-493727-557686-536643-567425-415937-331142
3594.69-266960-478325-257018-367118-364193-605028
3600.48-324525-430403-247968-230536-433667-292390
3606.26-388294-335673-495518-266169-137052-357531
3612.05-241211-68118-273658-196221-427836-277033
3617.84-155505-276042-231422-119626-124379-95725
3623.62-71696-72475-67944-66272-430455-488916
3629.41-130817 121749-167520 23031-134538 4505
3635.19-51477 93247 7077 89810-99043-33200
3640.98-75629 120912 295880 237306 306422 63495
3646.76 298926 151844-77192 472823 145757 676592
3652.55 539484 761392 613386 445067 668174 786845
3658.33 785504 929595 983436 1057249 1199878 1011069
3664.12 1148800 1384916 1339074 1303168 1153260 1189642
3669.90 614871 1244339 1261950 1123483 819113 588855
3675.69 824065 1073364 1122143 1253860 1021968 1165631
3681.48 1030007 1157007 824565 803759 568340 666247
3687.26 99662 427474 498431 264769 555830 608873
3693.05 496334 422478 223078 634736 493236 619134
3698.83 428918 639493 346325 444424 264685 363391
3704.62 387900 243277 233512 273989 23549 258976
3710.40-15070-138216 339303 155252-12334-38292
3716.19 128257 31494 28517 45902 190809 136585
3721.97 15697 317837 90196 166391 107703 225213
3727.76 222224 161226 299761 153965-166413 382683
3733.54-217354 175567-74903 118807 281678 372487
3739.33 423304 416949 433182 632603-148004-78489
3745.12 877628 461884 981558 257792 391138 1129233
3750.90 129601 618591 1245209 880489 922635 871948
3756.69 1055512 935578 599114 1057190 948911 806181
3762.47 1009584 1105751 752861 728183 771494 994298
3768.26 568673 504969 846953 289310 707794 496291
3774.04 505741 402002 360945 361332 359125 95025
3779.83 479596 500426 374555 552503 371027 249264
3785.61 403331 345113 467620 383556 527754 541273
3791.40 235234 636912 423959 422604 286978 384340
3797.18 464141 266582 491320-109843 165447 491396
3802.97 566518 615474 386980-76904 414859 835719
3808.76 525809 760329 641788 726081 586952 950834
3814.54 431156 397836 1057544 794281 955494 767933
3820.33 545360 744376 1094467 1183001 1105885 1190650
3826.11 940639 1414897 1277650 1354227 1225317 992288
3831.90 1463157 1442028 1074544 1256867 1387002 703295
3837.68 1212317 1546954 1362568 1417585 1618494 1602462
3843.47 1457239 1613950 1627219 1895537 1458924 1762432
3849.25 1691538 1781245 1108627 1871771 625871 1726995
3855.04 1840443 1641796 1911685 1878293 1813800 1918923
3860.82 1570386 1760975 1971130 1700823 1683874 1904960
3866.61 1544855 1854960 1341052 1451706 1882485 2033056
3872.40 1896582 1655348 2057386 2040362 1959782 2141897
3878.18 2066315 1894262 2035423 2181306 2177879 2323333
3883.97 2029482 1838499 2318488 2328665 2227128 2284402
3889.75 2100724 2017633 2155471 2221461 2190440 2391393
3895.54 2168004 2244042 2163331 1902321 2306136 2201188
3901.32 2091028 2318744 2038183 2296098 2272749 2152752
3907.11 2192024 2306729 2200704 2428661 2295699 2294490
3912.89 2644737 2379466 2457674 2247057 2488572 2438225
3918.68 2268922 2527620 2559208 2673683 2452332 2545230
3924.46 2504121 2637493 2491606 2691666 2704820 2604977
3930.25 2486078 2450597 2485543 2651651 2738811 2654444
3936.04 2475660 2379962 2616962 2615559 2486590 2543518
3941.82 2391560 2371691 2369973 2435443 2297040 2260574
3947.61 2110659 1891574 2026204 2237937 2039709 2324409
3953.39 2139806 2238963 2102730 2101965 2068951 2172484
3959.18 2357918 2144176 2157096 2130336 2145265 2351156
3964.96 2104781 2224467 2082781 2446641 2134410 2216878
3970.75 2172816 2332832 2145530 2470023
##END=
