##TITLE=1,4-Dimethylbenzene
##JCAMP-DX=4.24
##DATA TYPE=INFRARED SPECTRUM
##CLASS=IUPAC A
##ORIGIN=NIST, Analytical Chemistry Division, 301-975-3108
##OWNER=COPYRIGHT (C) 2001 by the U.S. Secretary of Commerce
##DATE=01/06/01
##$SPECTRA VERSION=1.10
##$UNCERTAINTY IN Y=2.1 % relative (B=1.10E-04,C=1.28E-9,D=4.08E-14)
##CAS NAME=1,4-Dimethylbenzene
##CAS REGISTRY NO=106-42-3
##MOLFORM=1,4-( C H3)2 C6 H4
##MP=13.26 C
##BP=138.35 C
##$NIST SOURCE=QUANT-IR
##SPECTROMETER/DATA SYSTEM=IFS66V (Bruker)
##INSTRUMENT PARAMETERS=KBr Beam Splitter; MCT Detector; Multipass cell
##STATE=gas
##SAMPLE DESCRIPTION=p-Xylene Primary Gas Standard
##PRESSURE=101.3 Pa
##TEMPERATURE=23 C
##SAMPLING PROCEDURE=1 L/min Flow
##RESOLUTION=1.9290
##DATA PROCESSING=Triangular Apodization
##XUNITS=cm-1
##YUNITS=(micromol/mol)-1m-1 (base 10)
##XFACTOR=1.0
##YFACTOR=9.0949E-13
##DELTAX=0.9645
##FIRSTX=575.652
##LASTX=3974.605
##FIRSTY=1.45E-06
##MAXX=3973.64
##MINX=575.65
##MAXY=.000506
##MINY=-7.43E-07
##NPOINTS=3526
##XYDATA=(X++(Y..Y))
575.65 1601293 1189087 638916 746013 653171 645287
580.47 288205-442758-422674-183305 204753 420222
586.26 180053-228096-317662 219258 316550 146587
592.04-170864-305519-439711-439303-67836-280240
597.83-505215-393424-509858-671989-479895-507039
603.62-405043-345159-508030-759024-817214-416190
609.40-316893-376504-544389-762580-759012-707911
615.19-656774-304535-225971-678417-634057-499711
620.97-604612-401998-349577-442465-509287-529888
626.76-655191-633463-262386-217070-389404-276492
632.54-384366-548086-622714-551572-259841-263224
638.33-435020-423772-188045-213305-316870-317894
644.11-392601-439060-341594-100869-88300-311999
649.90-301211-361612-290809-261977-409037-295220
655.68-124632-202499-280667-244063-240981-240607
661.47-235009-214805-256877-149546 17713 473038
667.25 294814-121116-118007-241080-283143-245121
673.04-248788-256748-113915-101676-45350 172319
678.83 221294 39523-180945-222681-273055-391598
684.61-148493 48699 63488 159483 220866 235382
690.40 226239 177506 146364 344724 423243 413922
696.18 453609 396423 449106 639690 618888 364282
701.97 277322 306367 284523 389273 362951 310263
707.75 300320 302549 252266 298387 483439 512277
713.54 407158 334158 342502 388211 451002 380100
719.32 331124 381743 387929 326592 335765 430881
725.11 435560 564674 565219 503587 566250 607764
730.89 659292 631810 548269 508865 490789 482814
736.68 521194 650576 657259 970930 1166549 808375
742.47 637294 835279 823185 770944 892968 1021499
748.25 1075344 1139501 1195211 1265914 1363821 1581181
754.04 1668902 1725670 1862982 2087485 2372749 2785975
759.82 3254893 3795100 4444455 5456847 6648929 8185836
765.61 10042438 12356141 14811996 17739746 21331014 25606372
771.39 30684813 36815671 43816550 52041811 61273598 71401441
777.18 82231577 93849285 105599711 118019513 130646916 143385743
782.96 154855643 165281076 176106009 186964209 190453641 190183386
788.75 192019999 199255184 211276382 244503305 320608717 479920570
794.53 556356629 385768031 236447781 207663932 199066289 198795670
800.32 196195587 193692054 189340124 182294268 172223709 162765342
806.11 151373444 137949064 122998294 108698543 95311711 82933409
811.89 70982215 59885177 49794346 41144076 33643124 27361001
817.68 22179413 18204763 15107749 12973746 11278102 10000822
823.46 9152163 8597804 7972563 7456590 6966738 6688298
829.25 6394660 6074183 5789276 5638628 5496517 5352849
835.03 5214765 5055868 4726911 4289669 3881676 3520940
840.82 2933706 2626181 2474251 2195295 1863127 1722241
846.60 1759137 1676281 1367940 1264713 1365348 1395247
852.39 1333271 1205315 1191237 1221227 1198093 1223214
858.17 1162862 1097114 1100886 1126522 1198537 1220895
863.96 1243665 1194012 1117619 1200124 1272915 1362777
869.75 1378237 1367748 1352221 1378324 1388277 1353385
875.53 1345389 1420228 1451948 1370430 1435414 1489036
881.32 1313275 1312562 1427671 1529276 1592905 1533577
887.10 1544003 1663020 1684233 1618622 1623628 1704266
892.89 1699158 1682537 1712793 1732243 1732089 1735795
898.67 1683439 1688378 1713428 1688577 1698699 1732355
904.46 1808407 1884664 1925495 1961600 1988785 2124006
910.24 2298489 2463133 2621078 2686111 2827852 3007941
916.03 2989896 3017626 3044475 3065001 3127289 3213072
921.81 3273006 3286396 3317741 3303006 3308570 3363954
927.60 3278880 3012920 2939782 3058924 3035619 2877725
933.39 2824494 2851082 2793807 2728228 2730239 2850856
939.17 2880053 2914384 3010438 3080638 3174325 3267281
944.96 3342935 3454514 3570194 3643679 3711993 3787317
950.74 3925045 4067798 4217208 4326364 4446927 4638529
956.53 4704384 4769338 4741437 4789640 4916052 4827415
962.31 4801536 4829508 4945345 5045982 5089784 5156140
968.10 5271211 5406768 5338297 5187287 5082698 5062886
973.88 5035495 4970392 4991200 5055675 5009022 4925892
979.67 4919541 4894110 4920788 5019118 5050695 5023154
985.45 4984802 5027615 5136627 5226987 5314514 5348555
991.24 5427064 5504178 5534883 5576908 5647249 5739242
997.03 5789093 5816924 5791518 5776263 5774529 5658227
1002.81 5546321 5529904 5596758 5652026 5771654 6102573
1008.60 6633974 7304308 8282474 9596162 11392524 13764255
1014.38 16393730 19278445 22068738 23604417 23917377 23116244
1020.17 22006419 21577030 24632369 28708795 25486708 22671066
1025.95 24919085 27314934 28733345 28619657 27397126 25453347
1031.74 23407027 21705251 20572213 19693911 19279907 19261608
1037.52 19424857 19872695 20772610 22094492 23805639 25240588
1043.31 26221651 26928779 26793772 26633137 27166451 27435743
1049.09 26966626 26792858 26840671 26345816 25750283 25339848
1054.88 24731006 23927535 23112748 22253631 21445158 20678654
1060.67 19984983 19286199 18544128 17720132 16871347 16049388
1066.45 15252360 14601910 14026489 13451892 12861736 12260242
1072.24 11719332 11293395 10987150 10707674 10392255 10200600
1078.02 10078946 10010340 10129743 10315843 10566090 10786169
1083.81 11117292 11598658 12132202 12750615 13528076 14417741
1089.59 15378414 16489983 17593335 18532343 19352817 20018849
1095.38 20501827 20732541 20601806 20135424 19934059 20454685
1101.16 21632879 23475641 25423948 27183353 28686450 29981860
1106.95 31253180 32594029 34269840 36350499 38635815 40996421
1112.73 43026025 44046585 43749477 41861599 38246523 33732067
1118.52 30097072 28839823 30319754 33403453 36411261 38145129
1124.31 38456652 37466551 35306079 32397967 29004085 25668789
1130.09 22650033 19949705 17734521 15883155 14156738 12635788
1135.88 11360269 10211916 9275686 8459864 7689203 7084666
1141.66 6468677 5918310 5557807 5247836 4935908 4676335
1147.45 4472761 4307112 4140906 4002357 3935122 3837949
1153.23 3747874 3752018 3705032 3590631 3611575 3638916
1159.02 3586369 3533039 3544414 3595845 3598964 3587539
1164.80 3592052 3675196 3817947 3800758 3721666 3763582
1170.59 3771790 3787739 3756610 3775557 3935369 3909469
1176.37 3834732 3878235 3848526 3826628 3840543 3827101
1182.16 3758343 3674618 3690573 3629512 3497323 3389457
1187.95 3322901 3312887 3331214 3305128 3208069 3187515
1193.73 3172617 3119825 3045445 2992070 3033528 3078969
1199.52 3113162 3227389 3347684 3415879 3610426 3978875
1205.30 4495117 5124693 5885136 6853900 8078268 9548331
1211.09 11026648 12383245 13519426 14234749 14481985 14377063
1216.87 13908086 13799352 15122473 16484798 15488931 14561196
1222.66 15857657 17523208 18482725 18531050 17794804 16714162
1228.44 15749829 15042882 14736579 14742103 14847384 14938398
1234.23 14726597 14295348 13815811 13564679 13879189 14333295
1240.01 14224335 13694550 13264336 13000672 12647672 11972809
1245.80 10948090 9750194 8547061 7403490 6463429 5746534
1251.59 5170817 4806901 4508412 4209278 4083972 3916290
1257.37 3802172 3711327 3537064 3424324 3347139 3228667
1263.16 3169276 3322598 3360156 3367481 3338405 3242857
1268.94 3245281 3181270 3073903 2965869 2893300 2870814
1274.73 2803283 2726318 2682955 2647603 2634602 2621102
1280.51 2603725 2611944 2617124 2621972 2652194 2655120
1286.30 2698301 2722488 2683443 2750775 2787048 2747464
1292.08 2819473 2865524 2875260 2956214 3070005 3163381
1297.87 3227257 3288662 3451891 3677652 3820349 4001873
1303.65 4285149 4628512 4694219 4714571 4880101 5032267
1309.44 5255958 5421891 5529053 5557481 5503700 5437699
1315.23 5398553 5422903 5542223 5807569 6159766 6366898
1321.01 6508046 6651814 6706122 6655705 6637681 6784113
1326.80 6879786 6951724 7003247 7058659 7207226 7274105
1332.58 7280227 7334990 7477766 7714243 7974949 8270891
1338.37 8671104 9105837 9554593 10045900 10323293 10138560
1344.15 9799688 9613255 9501636 9305307 9199283 9227373
1349.94 9192377 9146985 9275641 9627974 9722438 9613140
1355.72 9508028 9285509 9149766 8907439 8817050 8954179
1361.51 9038495 9211521 9369264 9667910 9923276 10109735
1367.29 10335846 10510862 10689765 11000214 11546059 12313945
1373.08 13221006 14406895 15822737 17397009 19080324 20601269
1378.87 21519792 22072135 22563752 24473636 26214648 24841357
1384.65 24530798 26120010 27260840 27827664 27833586 27201303
1390.44 26010851 24641363 22933536 21226953 20012441 19210994
1396.22 18574898 18118617 17813044 17671663 17746728 18044143
1402.01 18412842 18762480 19122042 19636307 20301691 20959028
1407.79 21520461 22150051 22791673 23344102 24011627 24887893
1413.58 25624283 26124995 26900599 28038490 29206734 30320312
1419.36 31714572 33062652 34360828 35657874 36705002 37636040
1425.15 38510198 39296411 39608359 39428322 39251001 39588516
1430.93 39940543 39802080 39797180 39936769 39805537 39767844
1436.72 39923153 39829192 39500965 39028146 38333312 37081088
1442.51 35375263 33940867 32911018 32158105 31757325 31962134
1448.29 32627781 33583678 34877899 36265194 37436181 37852833
1454.08 37601553 36699778 35494651 34923369 34946914 35377118
1459.86 36144132 37388614 39315323 41468713 43332020 45240660
1465.65 47198881 49107667 50729909 51708341 51727670 50499402
1471.43 48730357 46807222 45059427 43377937 41715037 40608054
1477.22 39969083 39965399 40569786 41325208 42422082 43799868
1483.00 45026159 45794030 45899133 45837311 45714552 45499910
1488.79 45342496 45272499 45449358 45980151 47304506 49500030
1494.57 51357697 52803322 54750979 57048713 59117262 60635077
1500.36 61760028 62881144 64471903 67070683 71479371 78305427
1506.15 88082198 101359420 118271133 139056794 163375718 189827564
1511.93 215763537 237463869 250348290 250980073 243139460 237003140
1517.72 245388687 267288870 270576033 245487983 229247171 236391923
1523.50 249098988 253509584 242497223 217951206 187832095 157475015
1529.29 129847322 106092507 86460023 70843465 58835757 49699043
1535.07 42649867 37331862 33172421 29785085 27365778 25675553
1540.86 24027789 22642524 21487253 20288747 19438400 18831978
1546.64 18181349 17700226 17368081 17101818 16786792 16370226
1552.43 15802490 15228379 14807469 14322747 13715481 13148998
1558.21 12866645 12573362 12447797 12269674 11966846 11675870
1564.00 11282606 11018105 10756989 10426309 10019050 9638992
1569.79 9402759 9127674 8817263 8540205 8231601 7599949
1575.57 7246959 7281690 7071379 6936658 6845135 6676172
1581.36 6500157 6402313 6249896 6103168 5941532 5814495
1587.14 5749208 5642779 5626539 5647446 5785356 5981124
1592.93 6024734 6014365 6071713 6103628 6157857 6274018
1598.71 6362143 6439686 6541419 6702695 6972879 7265846
1604.50 7537904 7872885 8283478 8775588 9286334 9742977
1610.28 10290288 10957313 11738331 12596003 13444193 14087729
1616.07 14931409 16149213 17080929 17767934 18178491 18347182
1621.85 18217405 17877904 17357245 16574734 15926884 15667134
1627.64 16000795 16608082 16944891 17029892 16731493 15950217
1633.43 14711177 13268554 12158029 11089369 10066121 9109926
1639.21 8196727 7461003 6795030 6125448 5491835 4846769
1645.00 4237572 3938885 3641738 3463849 3267760 2971723
1650.78 2441845 1867520 1985997 2304952 2400435 2369637
1656.57 2343836 2280713 2155450 2082025 2122238 2113957
1662.35 2082666 2136452 2133844 2042511 1926693 1757812
1668.14 1559734 1590340 1608619 1570810 1674487 1628163
1673.92 1357420 1338237 1457113 1379479 1299001 1192374
1679.71 1157397 1188434 1071602 866324 583954 733659
1685.49 1067880 1106492 1117474 1063280 1054843 1059857
1691.28 1056631 1005311 976513 664903 482277 845333
1697.07 985253 770058 451545 603481 888595 924819
1702.85 910097 922076 930655 898993 1010290 1131869
1708.64 1157276 1174483 1256805 1388950 1530920 1589579
1714.42 1741199 1892220 1924234 2321191 2810558 3076552
1720.21 3237639 3270266 3224808 3141013 3092122 3110080
1725.99 3224870 3269619 3190913 3135779 3099888 3036306
1731.78 2759713 2379957 2306573 2460102 2555208 2559968
1737.56 2539575 2497251 2593271 2751624 2871267 3056820
1743.35 3198165 3259431 3298878 3421479 3510451 3579526
1749.13 3625551 3582017 3759954 3875893 3800227 3788885
1754.92 3769224 3667097 3654764 3616328 3577097 3485036
1760.71 3238231 3187358 3181245 3223942 3242590 3140449
1766.49 3108046 3197662 3346036 3431747 3568190 3687286
1772.28 4010032 4516239 4972961 5509545 6170265 6985601
1778.06 7935799 8982351 10083402 11122609 11934322 12437202
1783.85 12493559 12278337 11965032 11629203 11632146 12283144
1789.63 12904011 12478214 11723204 11512880 11238711 10609500
1795.42 9732588 8567669 7242576 5980029 4879131 3972400
1801.20 3347055 2855409 2442003 2114403 1880075 1741494
1806.99 1572756 1411143 1296046 1169826 1130519 1111662
1812.77 1040227 1063819 1104130 1064672 1047704 1052475
1818.56 1076653 1157372 1228163 1293239 1403845 1472034
1824.35 1584362 1796321 2004238 2231499 2465319 2747550
1830.13 3036397 3317235 3577807 3715818 3779637 3918137
1835.92 4094207 4220851 4261010 4278731 4386591 4462967
1841.70 4476863 4339916 4190758 4147349 3980584 3731496
1847.49 3469939 3245303 3079709 2863819 2705172 2643227
1853.27 2575695 2516754 2469352 2432119 2446170 2509507
1859.06 2603358 2723242 2874870 3162374 3509421 3832182
1864.84 4210302 4627119 5106073 5657236 6308779 7035268
1870.63 7789101 8622566 9576083 10605457 11662493 12831230
1876.41 14227062 15770455 17334812 18870424 20376831 21727756
1882.20 22561211 22761069 22336394 21382513 19999914 18486064
1887.99 17511307 17695094 19087870 21055290 22693418 23279809
1893.77 22791972 21436078 19604335 17776656 15988776 14111054
1899.56 12363575 10959179 9838942 8832998 7827070 7002479
1905.34 6345324 5737596 5150682 4569490 4118373 3833140
1911.13 3581022 3351156 3124183 2976264 2888637 2734573
1916.91 2617768 2611574 2625845 2632195 2601939 2552988
1922.70 2512482 2474968 2379278 2299511 2270344 2206181
1928.48 2139559 2100446 2050443 1968263 1832375 1701650
1934.27 1607576 1446440 1273143 1136759 1033435 982702
1940.05 962093 907751 899300 931270 922026 905997
1945.84 896266 919762 988135 1041854 1073585 1086348
1951.63 1118431 1226573 1294467 1342757 1437077 1465640
1957.41 1319013 1136866 1073151 1046263 1026743 1013104
1963.20 1072864 1111511 1088790 1091631 1103164 1126951
1968.98 1125920 1151665 1199828 1220644 1354004 1360999
1974.77 1248381 1310516 1359989 1349343 1389018 1487883
1980.55 1520626 1491244 1478093 1405942 1411885 1482893
1986.34 1498999 1458144 1400395 1384238 1331022 1284587
1992.12 1271815 1292892 1328329 1320453 1301251 1225872
1997.91 1144341 1133655 1078635 1053658 1066382 1047137
2003.69 1023036 999088 973691 856834 871245 893273
2009.48 840649 826893 749456 702346 689400 662200
2015.27 576688 496270 491377 481690 424113 376814
2021.05 322830 267760 289765 325223 375983 405346
2026.84 370238 353700 307649 295933 329534 373315
2032.62 405945 379725 364196 306070 245434 282657
2038.41 341061 338669 361746 398885 372489 374866
2044.19 350609 297479 234859 183659 205353 230801
2049.98 226798 191387 112515 69950 55063 5344
2055.76-25165-18700 1252-33458-110577-95671
2061.55-82686-119292-94425-76436-78846-96655
2067.33-73623-53262-49430-25933 3057 88694
2073.12 69377 41560 63794 139847 192361 92228
2078.91 69813 139489 282485 316611 270655 271758
2084.69 438248 528267 417452 430918 605411 809635
2090.48 774483 784152 923007 1278399 1493252 1523596
2096.26 1606796 1863543 2147257 1939494 1815760 1985847
2102.05 2347607 2326145 2107860 2034678 2254389 2308467
2107.83 2032717 1893029 1944155 1872948 1356738 984968
2113.62 938487 1041106 685983 322005 344335 542294
2119.40 369170 122149 176568 429600 344185-20562
2125.19-40055 209151 196422-85020-98794 90563
2130.97 128219-56455-125314-16644 66573-79597
2136.76-177784-126197-82457-195371-236360-148525
2142.55-108143-134234-120815-48377-55914-157099
2148.33-190494-27352 44084-100460-55239 166050
2154.12 137844-36186 69041 298557 228655 9182
2159.90 174528 468539 270855 48135 333815 565713
2165.69 285713 154453 516132 569070 169232 207464
2171.47 591405 481555 185667 403480 656636 363364
2177.26 197440 516001 533092 157124 150888 415513
2183.04 270160 33843 303237 404941 123108 124127
2188.83 329053 204087-26024 188236 277651 62173
2194.61 136484 294692 230274 205594 407305 522833
2200.40 473375 644029 800547 726978 771381 858111
2206.19 835760 837954 866862 803188 762173 859160
2211.97 915396 878267 853793 841158 712557 548650
2217.76 448917 313177 257235 232357 158318 128945
2223.54 107788 89719 54206 33843 21131-9757
2229.33-23214-16739-5164 17100-2446-46889
2235.11-54969-12288 20343-15906-46478-65688
2240.90-132289-180004-147261-102299-110803-149793
2246.68-172454-174071-179069-158257-124528-152382
2252.47-177810-171309-183403-156526-99571-57111
2258.25-15842 15367 40716 36885 37966 86418
2264.04 68300 98755 172243 206313 305296 324271
2269.83 328759 377747 399550 429350 493343 530282
2275.61 538721 584988 638023 701551 703357 696439
2281.40 712092 721193 721241 749884 853229 913384
2287.18 941736 1027523 1060683 1132372 1260984 1362410
2292.97 1500604 1663205 1817603 1960936 2158134 2328432
2298.75 2496011 2593786 2613605 2568064 2453459 2339991
2304.54 2113922 2056526 2150633 2355871 2515169 2682085
2310.32 2835272 2847984 2742198 2578094 2417084 2235856
2316.11 2195862 2077906 1931510 1787061 1736180 1738337
2321.89 1731363 1731069 1789864 1834105 1917009 2001711
2327.68 2065738 2132646 2209174 2337910 2531148 2660675
2333.47 2717783 2802185 2925064 2951067 2881755 2840132
2339.25 2861176 2954390 3017237 3034744 2975163 2831824
2345.04 2646305 2434103 2258054 2061020 1979359 1971895
2350.82 1927240 1863166 1776927 1749491 1699404 1723253
2356.61 1780262 1751045 1709025 1725807 1623408 1534296
2362.39 1524102 1482844 1434932 1335486 1259431 1167199
2368.18 1077935 1009190 951901 835888 728048 705743
2373.96 679500 673299 611792 590122 585266 571011
2379.75 569142 518665 484082 510163 552083 514881
2385.53 491434 545907 597273 624873 613550 611705
2391.32 614205 648236 685986 681110 690256 669679
2397.11 676860 750736 818318 880539 980397 1050704
2402.89 1088874 1098292 1119151 1215240 1317107 1358133
2408.68 1395443 1425185 1416390 1417058 1417854 1515471
2414.46 1620520 1632956 1681614 1720055 1691701 1696266
2420.25 1696310 1641273 1667594 1680973 1659313 1652665
2426.03 1645483 1681363 1675622 1649029 1628125 1554763
2431.82 1486473 1530782 1517380 1474244 1500456 1497936
2437.60 1489763 1490077 1412448 1338373 1320068 1253629
2443.39 1206773 1195901 1101801 1045439 1029709 1028879
2449.17 1021571 951880 946248 961363 914393 881934
2454.96 861741 849448 848888 830749 839491 880788
2460.75 904768 861544 795961 811706 846815 895307
2466.53 926928 873577 889177 920905 907999 889833
2472.32 897379 962834 961974 991606 1026792 944945
2478.10 935979 925449 915757 900723 858467 868727
2483.89 883767 893203 825732 820324 868781 836781
2489.67 803995 823197 812190 796855 831664 780614
2495.46 712702 729829 742969 676787 620531 585797
2501.24 543303 558580 556121 540305 533115 527558
2507.03 480490 448442 455095 416023 399359 423293
2512.81 408633 364293 376274 400319 374962 347675
2518.60 356551 340720 332598 382005 408296 382292
2524.39 382294 375864 377249 356979 323884 335048
2530.17 348452 320331 280149 238757 263321 312025
2535.96 275603 309097 312471 319079 383207 304617
2541.74 225813 220690 179267 104821 50045 78921
2547.53 83652 37451-7973-52358-61441-81102
2553.31-126907-136981-183379-188483-165227-139669
2559.10-40171-38127-90845-86926-54198-31251
2564.88-50567-17009 26997 70783 115157 179113
2570.67 264405 332589 426433 571620 731012 896530
2576.45 1154795 1343807 1539544 1856975 2075830 2301188
2582.24 2542420 2686528 2847364 3017940 3159408 3247934
2588.03 3348698 3518922 3639671 3730302 3833482 3903632
2593.81 3859269 3731659 3546398 3292291 3068161 2770894
2599.60 2438528 2242887 2076322 2013878 1944935 1842959
2605.38 1888717 1932321 1884529 1694337 1526010 1420473
2611.17 1265026 1125594 1016247 894547 808088 731220
2616.95 714589 651670 586925 534728 443970 391123
2622.74 320067 299473 243654 148491 128348 141870
2628.52 127856 206789 252446 205805 258961 322877
2634.31 338459 372349 360354 344736 401266 460262
2640.09 487214 494225 427529 434117 422675 323586
2645.88 333880 333516 328318 350251 340724 277994
2651.66 191431 130656 98011 25497-9955-10230
2657.45-89787-69211-38744-99902-80776-33390
2663.24-37666-60326-59731-85218-73992-48316
2669.02-59885-81640-58169-48690-107837-98726
2674.81-132516-158126-126767-89094-54376-60897
2680.59-60648-56361 19619 59550-30528-49790
2686.38 24725 29384 71813 136355 180727 230897
2692.16 241367 328507 409175 406196 411815 458924
2697.95 560863 642691 788193 974724 1066493 1118346
2703.73 1172978 1287681 1456445 1563419 1641671 1706120
2709.52 1755414 1862790 1977584 2031858 2043396 2101055
2715.30 2134465 2150480 2229955 2297514 2433061 2510149
2721.09 2527539 2640573 2773880 2914271 3008848 3207452
2726.88 3509590 3882972 4426078 5198651 6111231 7204103
2732.66 8459617 9769357 11245978 12703764 14034420 15004698
2738.45 15503510 15615180 15573874 15772377 17194869 18506905
2744.23 17172486 15953872 16594954 17408631 17410515 16376509
2750.02 14618481 12344326 10013765 8012865 6410245 5219538
2755.80 4342256 3661067 3087407 2602638 2306575 2110425
2761.59 1934557 1716781 1545170 1528360 1511183 1454324
2767.37 1386729 1386421 1300897 1238808 1351614 1388989
2773.16 1334516 1329318 1374203 1387892 1446424 1477323
2778.94 1477828 1478410 1533526 1513477 1538272 1663853
2784.73 1719566 1800660 1914176 1946659 1937515 2079847
2790.52 2194026 2256841 2388051 2491382 2622760 2752139
2796.30 2856433 3034971 3156677 3219049 3426241 3632521
2802.09 3760014 3876796 3982517 4092837 4262974 4318287
2807.87 4355568 4582835 4804489 5012818 5199172 5351031
2813.66 5561505 5873108 6163873 6368250 6613996 6903426
2819.44 7168920 7487174 7827626 8194566 8477588 8783854
2825.23 9254886 9683453 10078806 10512879 10977647 11424830
2831.01 11895852 12415524 12972539 13442398 13798126 14156093
2836.80 14511488 14887514 15339735 15952967 16638022 17336957
2842.58 18026199 18744834 19585438 20280925 20906370 21594988
2848.37 22422159 23519544 24710272 26086056 27780948 29738695
2854.16 31975191 34648260 37614674 40863429 44612676 48752206
2859.94 53433078 58760823 64723234 71385389 78645551 86405549
2865.73 94511620 102810692 111071902 119099570 126871174 134176270
2871.51 140996799 147411297 153306452 158592194 163147416 166828954
2877.30 169456735 171188896 172188842 172457593 172007357 170759489
2883.08 168895767 166607763 163663256 160204459 156480471 152582101
2888.87 148826908 145388414 142188781 139282456 136718875 134287122
2894.65 131759717 129089011 126579808 124486307 122605173 120651872
2900.44 118780837 117086683 115490443 113875059 112276313 110881098
2906.22 109583848 108519753 107853172 107654311 107992908 108795224
2912.01 110305288 112842659 116267508 120681311 126008616 132157202
2917.80 139484429 147925501 157507771 168259612 180010381 192769388
2923.58 206474498 220925641 236154309 251769656 266936053 280585267
2929.37 292233321 302438454 311332118 318758569 324764364 329331156
2935.15 331275136 329244171 324397432 318740680 313182091 307474153
2940.94 300478277 291443396 279362246 263922903 246356554 228628277
2946.72 212279495 197264395 183771174 171816940 161148317 150683058
2952.51 139573440 129577498 121952307 116581151 113336480 111822837
2958.29 111449564 111081014 109285584 106602600 103342800 99352610
2964.08 95613427 92276763 89520975 87328389 85247351 83537597
2969.86 82675192 82596991 83085255 84112456 85589010 87279216
2975.65 89244937 91604584 94208118 97141014 100773296 105194739
2981.44 109717171 112889487 114692043 116412429 118765482 122306200
2987.22 127445660 133715405 139827886 145008068 149394771 153881625
2993.01 159279325 165929923 173926198 182050826 188792454 194594379
2998.79 200541774 207205463 214644396 221884927 227445108 229403053
3004.58 226740156 221586041 216543231 213014217 211683002 212653501
3010.36 215081023 216654802 216448067 216042616 216965360 219751582
3016.15 224323375 230070749 236306313 243006974 249805444 255840437
3021.93 260204271 262162601 261706775 259865425 258845722 259459654
3027.72 258767897 255123034 251823366 251225656 251568055 249476901
3033.50 243738369 234376916 222159077 209110305 196832980 185835411
3039.29 175942906 167328166 160864944 157530613 156645600 157604443
3045.08 160418749 164560136 168217881 169718286 170249002 170673326
3050.86 170582309 170041441 169313329 168172775 165533376 162559606
3056.65 161129384 160194541 158645704 156217264 152788882 148152953
3062.43 142264764 135590716 128314155 120579264 112476305 104250027
3068.22 96244934 88444543 81169986 74496087 68472262 63046950
3074.00 58031549 53657634 49690403 46071466 42951856 40075358
3079.79 37508074 35384666 33566495 31976314 30739733 29919477
3085.57 29147146 28479719 28227705 28238194 28353198 28565584
3091.36 28911047 29389664 30060338 30659524 30866604 30835662
3097.14 30767182 30580036 30313187 30207788 30096143 30078329
3102.93 30326712 30387914 30181882 29824216 29127543 28224862
3108.72 27234348 26191200 25074908 24134878 23265221 22029780
3114.50 20677215 19292092 17966531 16582027 15168915 13848460
3120.29 12596637 11478721 10321278 9267431 8529161 7925846
3126.07 7292952 6851691 6669914 6655801 6647297 6764283
3131.86 7083427 7493332 7978321 8441092 8885062 9273385
3137.64 9489646 9749215 10044127 10176925 10327379 10406468
3143.43 10288704 10257914 10326391 10400271 10309218 9978332
3149.21 9416490 8638448 7790119 6837041 6016228 5297313
3155.00 4525970 3864642 3334202 2837495 2351445 1922956
3160.78 1732144 1652979 1546209 1415166 1243589 1052885
3166.57 834685 727810 674951 569146 498374 366426
3172.36 306914 374769 296271 221682 173359 120649
3178.14 149860 188475 128166 53879 17379 40994
3183.93 72516 16779-62321-172528-174780-184321
3189.71-282588-246640-191648-258035-270309-199815
3195.50-216453-266647-237799-247951-288893-262176
3201.28-240850-226673-269665-333986-299312-268467
3207.07-216746-187924-270742-299838-265675-245930
3212.85-270374-282026-110043-167988-250236-233971
3218.64-337169-290877-222835-212939-190319-111528
3224.42-119678-201851-232126-280565-281619-184575
3230.21-194702-248092-242203-266960-260119-195243
3236.00-167571-262765-286893-180394-160670-104434
3241.78-79127-78531-20564-62896-167858-202204
3247.57-221310-131677 11150 78145 104717 15890
3253.35-53008 33170 63055 51874 160869 107391
3259.14-59739 55851 139685 113514 67062 39547
3264.92 113002 116092 119297 49242 35568 72240
3270.71 27952 79559 100476-50254-65139 68387
3276.49 107903 148695 149943 17006 47996 82736
3282.28 77294 135003 124421 112959 49533 45929
3288.06 113677 105328 144122 173330 118104 134804
3293.85 276164 280587 161651 178278 153347 66097
3299.64 53292 60667 94964 112179 64008 15548
3305.42 60901 148965 45427-15910 76890 89265
3311.21 40578 93279 171635 118033 108915 95359
3316.99 22682 88876 156526 187042 111793 36571
3322.78 108738 115499 107001 103115 130813 77429
3328.56 9788-29919-67551-9250 83727 101939
3334.35 18099-45118-105115-43345-23167-76599
3340.13-75554-39574-2617-18719 226-22416
3345.92-41423-47599-11880-10047-19089 20026
3351.70-78011-120410-99358-95483-48354-57258
3357.49-70579-9802-30575-117993-115799-76546
3363.28-55015-44036 41092 129111 107996 40159
3369.06 73284 202177 123425 88504 196869 133139
3374.85 92450 180911 294061 254977 239568 344111
3380.63 333243 264544 303258 436633 520907 451407
3386.42 345543 304488 380353 525323 395074 314817
3392.20 344985 258936 241645 285971 355665 305555
3397.99 259342 286552 222983 122961 43699 56645
3403.77 120082 126948 78236-24770 14797 44598
3409.56-34836 10669 60085-16394-41026 16479
3415.34 85109 96621 45717-27378-49656 20139
3421.13-87380-54817 114275 89901 128439 169483
3426.92 113251 110839 132206 200125 211230 224999
3432.70 234251 267923 407299 405071 348245 296716
3438.49 386152 477579 419128 341010 208845 123478
3444.27 115597 137069 136819 133892 124096 123268
3450.06 70400 37240 73600 30409-42536 4230
3455.84-8052-107967-49973-77808-229184-208929
3461.63-133920-149286-220699-221768-220082-309211
3467.41-323767-251144-295832-330970-306913-335239
3473.20-305068-263149-312448-323072-308362-267893
3478.98-199187-224239-238349-373812-408506-361308
3484.77-349132-357011-402166-317383-246903-207807
3490.56-251860-285329-300469-334273-250203-181634
3496.34-166311-139791-227093-250944-122881-202941
3502.13-286423-302982-334340-298726-238783-182395
3507.91-121388-209580-267593-276182-299852-266602
3513.70-247809-301951-324920-239035-277567-310706
3519.48-380150-326018-298877-449691-459560-371169
3525.27-376972-392884-316270-306324-298505-262617
3531.05-226910-279193-428327-362852-293047-364344
3536.84-387010-419115-364912-282744-317888-273462
3542.62-178335-283877-375920-391268-459189-458503
3548.41-367265-382535-533556-563595-483710-438935
3554.20-445934-476723-520948-562745-563390-587672
3559.98-596645-572596-555591-481395-542275-597944
3565.77-554144-549300-578926-609003-561475-590596
3571.55-521188-496529-572227-611693-549060-489552
3577.34-545466-482253-553634-547963-478949-547223
3583.12-551752-470571-548465-604979-554065-578521
3588.91-534061-514329-527075-499603-421344-327824
3594.69-326731-368627-326815-327377-402052-457438
3600.48-388642-351486-280264-271618-342890-328875
3606.26-334511-359205-382427-276075-202579-273536
3612.05-215964-150607-201909-246342-313665-263903
3617.84-190472-224442-197508-134295-107547-91398
3623.62-69093-71155-64216-131432-315226-354222
3629.41-128263-1190-51342-44393-45684-28134
3635.19 11432 45415 57732 40060-13761-27440
3640.98 8045 128350 245235 263277 247417 181005
3646.76 239240 159862 136882 301182 357416 523717
3652.55 617094 666742 624094 549010 666208 765688
3658.33 821773 908798 983184 1059871 1120446 1078238
3664.12 1163347 1294119 1315779 1247756 1191863 1061243
3669.90 907472 1099561 1208253 1069820 866429 729065
3675.69 858736 1022077 1125835 1147466 1096751 1082842
3681.48 1076923 1030210 896033 752890 663124 541634
3687.26 343463 400916 462490 395830 517162 566587
3693.05 516429 412636 388241 514633 558117 539357
3698.83 524750 521525 445665 391000 346564 351955
3704.62 362882 278697 261794 222757 148973 167426
3710.40 50754 20033 202556 166952 39794 32488
3716.19 89554 72385 55906 90329 161491 133062
3721.97 126120 207109 172478 148901 166300 204607
3727.76 222005 202859 251292 125083 58129 144128
3733.54 37654 58973 66661 130529 283413 358922
3739.33 414351 414557 465972 434712 90799 170467
3745.12 575935 646069 698894 466268 537168 760395
3750.90 483041 661358 1009512 944962 896171 916287
3756.69 979756 889870 785943 932133 940561 875214
3762.47 976090 989836 829566 752451 809921 847906
3768.26 653268 612524 657349 522498 573750 558420
3774.04 485939 439883 384637 386858 328073 270558
3779.83 414021 474665 441732 481422 398507 334803
3785.61 377613 401200 434685 440776 505009 477883
3791.40 405461 504849 477862 406187 358731 397049
3797.18 409044 372783 334659 135506 214869 450141
3802.97 544302 552734 369343 186392 432171 671923
3808.76 644163 680298 698824 679291 705060 765650
3814.54 571714 581569 860444 878359 877876 787212
3820.33 679135 806368 1040553 1130723 1140900 1121178
3826.11 1112672 1271809 1313144 1300844 1217034 1158611
3831.90 1350481 1361294 1197518 1257852 1231279 1007964
3837.68 1200583 1435115 1413159 1447930 1569172 1565189
3843.47 1535617 1576155 1682716 1717955 1631970 1656441
3849.25 1733976 1591715 1461892 1453254 1210621 1518365
3855.04 1779330 1718672 1843548 1849925 1845211 1816281
3860.82 1704404 1763954 1867060 1750533 1748103 1774520
3866.61 1703125 1689515 1525173 1554027 1827172 1954803
3872.40 1875952 1810227 1969423 2021803 2010788 2080035
3878.18 2048278 1974508 2046607 2142018 2193891 2217920
3883.97 2066031 2005029 2214696 2286186 2246604 2227704
3889.75 2133929 2080874 2152540 2198420 2236262 2287071
3895.54 2227926 2210886 2138947 2063778 2202679 2199358
3901.32 2170871 2212376 2166102 2233463 2257705 2192618
3907.11 2222541 2263559 2277917 2351454 2327535 2370299
3912.89 2494823 2447805 2395443 2355768 2427152 2418080
3918.68 2374273 2476084 2568351 2583242 2523578 2513520
3924.46 2546825 2570011 2566465 2634238 2666122 2590781
3930.25 2513573 2477585 2519968 2620410 2679105 2620318
3936.04 2499509 2459469 2559982 2572338 2517845 2490728
3941.82 2423633 2375567 2384776 2380803 2316274 2237793
3947.61 2120784 1997049 2070686 2152717 2152525 2214427
3953.39 2204260 2183532 2144975 2106622 2113422 2188067
3959.18 2264115 2190020 2159749 2145062 2193126 2242315
3964.96 2194754 2166782 2203476 2283531 2229453 2186326
3970.75 2232392 2251644 2264702 2370460
##END=
