##TITLE=1,3-Butadiene
##JCAMP-DX=4.24
##DATA TYPE=INFRARED SPECTRUM
##CLASS=IUPAC A
##ORIGIN=NIST, Anayltical Chemistry Division, 301-975-3108
##OWNER=COPYRIGHT (C) 1998 by the U.S. Secretary of Commerce
##DATE=98/10/1
##$SPECTRA VERSION=1.00
##$UNCERTAINTY IN Y=2.5 % relative (B=1.6E-04,C=1.1E-09,D=2.7E-14)
##CAS NAME=1,3-Butadiene
##CAS REGISTRY NO=106-99-0
##MOLFORM=C H2: C H C H: C H2
##MP=-108.91 C
##BP=-4.41 C
##$NIST SOURCE=QUANT-IR
##SPECTROMETER/DATA SYSTEM=IFS66V (Bruker)
##INSTRUMENT PARAMETERS=KBr Beam splitter; MCT Detector; Multipass cell
##STATE=gas
##SAMPLE DESCRIPTION=1,3-Butadiene Primary Gas Standard
##PRESSURE=101.3 kPa
##TEMPERATURE=23 C
##SAMPLING PROCEDURE=1 L/min Flow
##RESOLUTION=0.9640
##DATA PROCESSING=Happ Genzel Apodization
##XUNITS=cm-1
##YUNITS=(micromol/mol)-1m-1 (base 10)
##XFACTOR=1.0
##YFACTOR=4.5474E-13
##DELTAX=0.4820
##FIRSTX=575.169
##LASTX=3975.077
##FIRSTY=4.73E-06
##MAXX=3974.59
##MINX=575.17
##MAXY=.0008614
##MINY=-4.31E-08
##NPOINTS=7053
##XYDATA=(X++(Y..Y))
575.17 10405680 9557008 9586284 9825528 10108250 9742440
577.58 9046368 8723842 9089400 8546446 7401030 7230720
580.47 7822778 8517380 8365020 7527836 7212160 7186952
583.37 6925286 6721402 6357136 5863802 5743242 6189720
586.26 6136062 5134282 4367586 4097624 4193704 4450524
589.15 4166024 4105790 4300902 3935978 4082066 4554248
592.04 4256192 4015614 4122560 4207938 4115384 3801758
594.94 3401546 3620828 3757940 3685262 3690118 3652666
597.83 3819840 3829696 3489588 3613566 3583778 3528574
600.72 4188920 4290296 3577112 3162852 3069692 3063220
603.61 2827990 2551372 2573130 2713928 2384840 2255376
606.51 2257716 2228728 2269996 2275998 2058054 1929604
609.40 1835398 1946564 2044496 1957070 1941714 1826086
612.29 1733330 1713258 1461180 1286660 1382088 1408246
615.18 1129900 960676 1115182 1508570 1652716 1374038
618.08 1178102 1355840 1272826 1371166 1671588 1619990
620.97 1646588 1695680 1540218 1404756 1391354 1513064
623.86 1602454 1473924 1495380 1553910 1615822 1639348
626.76 1644064 1776908 1824408 1815232 1744248 1869426
629.65 2052964 1893778 1761972 1701874 1755550 2035372
632.54 2222838 1896296 1808908 2099628 2400676 2480326
635.43 2386256 2360958 2519454 2482508 2608244 2822490
638.33 2887022 2879354 2914620 3077484 3314238 3455460
641.22 3351488 3136782 3171038 3363968 3535112 3818768
644.11 3870380 3652040 3743706 3979980 3929408 4027952
647.00 4267890 4224332 4296488 4522368 4670234 4923540
649.90 5136082 5295626 5276266 5212028 5427374 5415982
652.79 5124992 4986712 4952758 5060466 5387006 5201978
655.68 4990954 5422408 5897844 5893402 5810414 5642988
658.58 5380434 5215942 5666328 6101220 6142204 6059720
661.47 5787922 5762052 6311592 6442350 5980400 6148976
664.36 6397096 6740272 7431972 7378300 7081264 7862008
667.25 8657534 8296058 7730814 7831202 8133160 7564790
670.15 7149362 7325036 7488402 7947774 8524414 7948122
673.04 7222952 7102556 7553646 8614416 8613868 7564334
675.93 7172840 6891458 6366230 5963800 5798566 5908132
678.82 5930572 5707742 5609518 5599656 5076258 5204908
681.72 6114940 6282922 5384916 4879230 5175210 5275288
684.61 4880638 4739178 4952780 5003854 5192926 5110154
687.50 4812544 4508308 4701178 4603214 4423762 4491474
690.40 4713670 4587748 4280074 4407446 4538422 4183796
693.29 4055696 4338732 4049364 3669092 3969308 3884768
696.18 3589994 3586494 3647640 3514530 3569176 3381840
699.07 3284098 3550308 3414328 3019816 2918152 2752954
701.97 2716438 2758832 2735934 2669840 2619500 2627836
704.86 2540552 2357246 2227604 2163154 2265774 2150686
707.75 2063228 2147356 2149078 2044452 1881602 1725358
710.64 1684076 1539676 1452504 1499438 1647856 1607926
713.54 1501636 1469548 1547302 1604816 1581766 1548838
716.43 1490876 1258412 1224778 1292604 1380724 1404684
719.32 1415986 1453836 1518852 1445182 1412232 1442926
722.22 1562898 1563424 1585506 1552910 1524616 1446396
725.11 1487786 1526490 1557866 1557324 1540318 1522546
728.00 1579698 1660384 1690198 1653468 1639644 1768874
730.89 1794464 1756004 1835468 1816530 1705144 1713412
733.79 1859266 2010900 1988820 1968000 1983700 2039106
736.68 2072586 2004552 2048300 2206102 2243084 2252148
739.57 2280574 2249804 2279294 2275364 2183218 2136712
742.46 2166300 2274634 2298368 2242210 2159270 2018760
745.36 1920014 1969690 2055304 2006210 2048942 2112352
748.25 2135526 2075180 1988246 1954052 2055156 2244678
751.14 2371248 2269758 2138842 2000060 1933536 2052340
754.04 2235446 2259904 2326740 2369562 2384426 2354610
756.93 2268136 2247550 2338458 2396188 2378844 2262954
759.82 2274972 2315328 2362764 2333782 2213728 2169296
762.71 2256802 2175256 2135232 2108056 2137094 2090076
765.61 2011534 1978422 1917280 1875438 1922630 1872032
768.50 1769246 1773306 1701468 1606280 1585944 1622450
771.39 1741512 1729222 1612776 1599952 1587104 1527752
774.28 1532912 1496768 1462968 1510526 1530782 1422176
777.18 1349598 1392286 1475184 1371304 1324064 1249466
780.07 1203644 1284208 1259942 1131584 1246156 1367922
782.96 1314322 1204842 1234508 1342078 1303716 1231520
785.86 1253452 1304210 1301104 1215566 1236162 1269932
788.75 1235344 1228574 1248148 1249190 1231938 1186728
791.64 1152656 1128874 1148018 1143892 1219930 1328850
794.53 1287092 1164376 1090000 1067058 1155770 1225908
797.43 1221176 1257212 1326864 1248190 1037658 1070318
800.32 1202724 1145056 1121328 1249010 1396046 1405658
803.21 1444232 1480496 1475192 1457470 1479114 1486442
806.10 1476890 1472126 1362762 1341902 1519166 1619964
809.00 1655108 1710356 1796758 1735160 1706904 1742800
811.89 1849788 1921772 2033138 2100182 2137994 2171188
814.78 2263932 2358234 2379984 2461376 2531474 2493418
817.68 2444316 2522606 2631854 2784954 2911140 3088674
820.57 3186810 3213874 3350298 3583140 3655642 3722118
823.46 3881280 4027784 4061168 4298716 4630966 4685580
826.35 4670018 4842854 5040374 5353880 5770390 6183812
829.25 6110688 6070662 6426488 6875012 7075000 7646656
832.14 8184474 7967230 7823120 8295178 8872094 9399458
835.03 10085330 10664040 10287960 10231030 10847590 11639110
837.92 12358880 13532480 14084450 13346980 13385250 14316940
840.82 15357710 16376490 17853340 18337930 17497060 17751390
843.71 18858080 20418090 21792180 23854380 23468810 22507410
846.60 22936780 24630860 26036870 28379760 30540520 29430770
849.50 29022890 29912950 31796200 33727880 37841070 38423610
852.39 36456040 36775290 38583270 41004610 44110670 48956730
855.28 47006290 45902380 46949350 50287410 51733990 58331600
858.17 61025820 57290470 56926600 60747660 63237960 67262050
861.07 76046920 73060540 68696990 71984440 77120070 79021460
863.96 89941180 92947830 83139010 85124140 92271550 94033010
866.85 104311600 115594000 102185300 99665220 108655300 110725000
869.74 121384000 139128200 125628400 118043300 126566900 127932000
872.64 142273600 165536000 151851500 139582500 145058100 145502000
875.53 161868000 194168700 183221200 164805700 167656700 165730200
878.42 181792400 221425200 217084600 191738900 188896200 182747200
881.31 200546200 250363300 253897700 222235200 211370200 201079800
884.21 222900000 279496500 285602000 247258200 226837100 211363200
887.10 240790800 307900900 314509900 271342000 243760600 225811100
889.99 265172500 336898000 330128600 274083600 238723800 222571600
892.89 283113100 355023900 330311400 271248400 236716400 237230300
895.78 312190200 351548500 306776700 256382700 234731400 259684500
898.67 319589800 321459600 295200400 269364900 259447300 273403900
901.56 285954600 278710200 283578900 280598700 283980400 288558900
904.46 314450800 349131300 393462400 440006300 576694400 989698000
907.35 1775715000 1894347000 1183586000 700487600 511621700 437666700
910.24 393146800 361571300 322806700 307432200 301025100 299117100
913.13 302785800 315502900 295422400 287590700 303147900 350289300
916.03 356590700 320498000 310562600 345757200 390041100 355383800
918.92 299437900 317275600 373762800 398537100 339955300 311738100
921.81 340111600 388607200 377812200 326357300 323457600 360234400
924.71 390535400 355788900 322096400 337937100 369828200 364587900
927.60 320660300 319713300 340942300 355324700 320884000 307455400
930.49 321734200 337207100 313186800 291523100 299057000 308690100
933.38 295045800 272495100 275389300 284998900 277406400 254382000
936.28 252584400 261774900 254964800 232657400 228604000 235039100
939.17 228983500 211145500 207801000 211602100 205599400 191982800
942.06 189034200 189014000 180316500 170449600 169116700 166162100
944.95 157392700 151696200 151341100 145717600 136777600 134608000
947.85 135200100 128924100 123088400 121190600 118335400 111846000
950.74 108036600 106727200 102794900 98114740 96107050 93374640
953.63 89214500 86943580 84916890 82302910 80141950 78263710
956.53 75578580 73115340 72456110 70852830 67463350 66176050
959.42 66094510 64998920 63370920 61195970 60092080 60332020
962.31 60026820 59424420 57658440 56133150 56627360 57221810
965.20 57305400 56753260 54800240 55101920 56723710 57614570
968.10 57896540 56251640 55583750 57515840 59495820 61266450
970.99 59781440 58361280 60253060 62385400 65623160 65821300
973.88 63673690 65177840 68193420 72413010 74172620 72833810
976.77 74078520 77337140 81200100 84787300 85402400 87199480
979.67 90844840 96539780 102415000 104405700 105677700 110161400
982.56 117216500 124688500 127168900 127325200 130465600 136627900
985.45 142795700 144092700 141584600 139427200 139777500 143482100
988.35 142713100 131879700 120888400 118336700 126200400 139996600
991.24 151363300 160498000 168246700 179816500 191143800 197136600
994.13 206929400 217209600 215495500 212807400 212903100 218080800
997.02 222876200 215891500 206625000 201875000 205347200 212028100
999.92 203274700 187191200 181661300 186563800 187222100 178945800
1002.81 171063900 167603100 173161200 184387100 187361000 178419100
1005.70 170059900 180182300 193429300 197104200 206075600 207932700
1008.59 208648700 220499500 237947700 271757400 291545000 274911700
1011.49 264908900 274340700 301797500 374455100 430048500 370535000
1014.38 287307300 235301300 214970400 201852200 179567300 160899600
1017.27 152973900 150997500 156443400 164310400 160193200 147644500
1020.17 142294000 144254100 151878000 166883000 168505400 155948600
1023.06 151920100 151183600 157564100 166988400 167424800 159133700
1025.95 155187200 158725400 162827200 162989500 162614300 162309300
1028.84 162016200 159406700 153520200 149470300 151658200 157161500
1031.74 161467700 158165600 148427900 144695400 146787000 146680600
1034.63 143979900 138115000 136561600 137587400 136405800 137667600
1037.52 135368400 131097300 127248000 122356100 125125900 127455200
1040.41 124930100 119880700 112444600 111548000 116303000 116853300
1043.31 110736900 102115200 98944220 100833700 107501500 110077300
1046.20 103022800 97074130 96371220 99246170 98477580 89793550
1049.09 82825130 80192090 84541800 88920520 87175260 82491780
1051.99 79854020 80365970 76611100 69721310 66279070 63412860
1054.88 63455160 63241470 59154560 57631660 57059840 56434030
1057.77 55575140 53100700 51721450 50811610 50117860 49088390
1060.66 47789830 46919390 46092450 46193440 44932950 42553820
1063.56 41628420 41529750 40991090 38320250 36495570 37244890
1066.45 37068160 34706340 33200660 32966350 32361320 31075940
1069.34 29915140 29004910 28452500 27670380 27570810 27481880
1072.23 27048650 26697280 25904300 25307590 25284730 24795400
1075.13 24728930 24260580 23603460 23055600 22484100 22033180
1078.02 21337190 21140870 20789440 19810790 18768960 18108430
1080.91 17652910 17102930 16466600 15698870 14890660 14372230
1083.81 13790560 13026890 12332170 11821500 11282070 10791830
1086.70 10281430 9751134 9397812 9243444 8999996 8601608
1089.59 8158826 7718564 7195136 6703396 6265358 5894598
1092.48 5574030 5225206 4852356 4631288 4439060 4199042
1095.38 3961732 3776328 3549654 3248826 3051528 2843230
1098.27 2600120 2439468 2370728 2285352 2172180 2024924
1101.16 1869530 1727800 1626048 1528166 1437698 1395118
1104.05 1359534 1273360 1148784 1060958 1003776 961660
1106.95 912680 831938 793456 763138 735004 786336
1109.84 814810 722996 672574 701474 681488 675438
1112.73 645262 567428 572958 609256 587068 591448
1115.63 578408 554856 568426 538634 538674 553096
1118.52 572172 575788 556788 528194 534286 546126
1121.41 526038 502566 505180 553102 552630 523952
1124.30 562508 538034 509928 526912 513544 539068
1127.20 583664 541848 584146 615192 591018 573588
1130.09 591064 631292 636686 647418 621394 604814
1132.98 585950 551568 531262 540252 631372 609102
1135.87 577328 608592 604948 640176 668754 581836
1138.77 539962 522088 540446 616002 637180 623348
1141.66 629780 623836 606782 544148 497760 484802
1144.55 451174 495550 582160 546034 501626 545530
1147.45 537910 477910 494778 530482 547150 498374
1150.34 453066 486456 513404 481998 469174 451272
1153.23 451748 455760 421058 458934 451614 441030
1156.12 444096 453160 416318 300948 308338 397092
1159.02 436326 391102 356948 411694 468602 474622
1161.91 441800 382310 357988 334828 353324 386812
1164.80 378016 408296 434144 421628 441652 410516
1167.69 407864 476970 439068 394532 402236 412424
1170.59 383590 396786 379814 396732 435704 462740
1173.48 445856 383936 393516 416614 454828 457608
1176.37 417882 412818 469102 483286 528770 506942
1179.26 453620 489066 477220 441262 448914 471022
1182.16 482052 426942 392956 398574 430340 468772
1185.05 462784 405930 353712 330682 368454 394422
1187.94 328828 255748 234186 207168 242870 325990
1190.84 361928 346654 314508 296446 321420 343326
1193.73 371832 341648 291160 262250 303660 373776
1196.62 411310 417046 434192 422538 393394 388838
1199.51 419890 418406 427042 460378 476500 463196
1202.41 455782 460888 491120 434604 455512 528704
1205.30 591564 577324 542902 519656 563152 683790
1208.19 733104 683326 700588 668968 668496 774360
1211.08 844692 926328 949252 872540 835562 824530
1213.98 915782 1041732 1166566 1142036 1063198 1048848
1216.87 1106546 1230472 1311822 1201230 1120344 1192300
1219.76 1327530 1443382 1548102 1515546 1508252 1559556
1222.66 1629868 1725468 1841776 1813162 1752926 1854098
1225.55 1926298 2038758 2191164 2140882 2093014 2145104
1228.44 2260830 2475182 2627496 2423180 2387198 2582598
1231.33 2734760 2987288 3066206 2902538 2892994 3014242
1234.23 3285560 3552640 3571866 3425492 3367244 3609160
1237.12 3966024 4110872 4233482 4114038 4091904 4332184
1240.01 4454534 4758128 5032988 4809090 4943532 5189038
1242.90 5429586 5860416 5945298 5599446 5730058 5829840
1245.80 6530984 7420456 6963950 6545424 6707972 6981348
1248.69 8043726 8553916 7802084 7722612 8082268 8542298
1251.58 9601108 9617922 9226398 9178536 9152456 10410160
1254.48 11290030 10743530 10179840 9965282 11047450 12697200
1257.37 12449510 11205830 10708150 11134260 12858330 13582090
1260.26 12276500 11536940 11662540 12408130 13084190 12316850
1263.15 11296850 11314120 12440790 12697530 11925240 11604500
1266.05 11547660 11606130 11717990 11336600 10898170 10652850
1268.94 11826180 12998810 12392360 11763550 11553830 11974700
1271.83 13391490 13217850 12209500 12138370 13355600 16224290
1274.72 16724560 14891220 14436700 15361830 17942140 18930670
1277.62 17055150 15906080 16425000 18986750 20355330 18276830
1280.51 16568080 16853570 19195480 20339150 17860180 15968760
1283.40 16542490 18350440 18645060 16489470 15114310 15265140
1286.30 16056620 15747290 13959090 13317930 13313940 13179320
1289.19 12237920 11169370 10505520 10085100 9919142 9133276
1292.08 8754760 9050848 9197834 9036898 8679918 8704326
1294.97 9033972 9778280 10388490 10667070 11018180 11742510
1297.87 12696870 12815600 13043310 13644670 14026160 13926900
1300.76 13803580 14158180 14692900 14411290 13815020 13673600
1303.65 13943370 14842410 13799110 12647640 12906260 13021280
1306.54 13704960 12625050 11335310 11554270 11135340 11661840
1309.44 11325150 10062340 10268030 9573014 10064150 10713510
1312.33 9086978 8789570 8513998 8674450 9282576 8232558
1315.22 7654030 7663304 7956092 8623796 7773548 7082964
1318.12 7125206 7298122 7955780 7334812 6753108 6569708
1321.01 6611258 7312954 7144080 6511042 6302164 6293742
1323.90 6897826 6883802 6347024 6104274 6057500 6549530
1326.79 6728696 6227372 5961554 5891494 6340172 6564016
1329.69 6022834 5749760 5902842 6198010 6506030 6067970
1332.58 5687744 5849378 6213886 6488226 6117372 5611688
1335.47 5762996 6307828 6665212 6215488 5732210 5856140
1338.36 6188822 6559892 6541538 6091062 5959436 5975860
1341.26 6414054 6469984 5914198 5794394 6013182 6602154
1344.15 6812646 6213908 6147342 6284714 6883510 7085846
1347.04 6520964 6448672 6649030 7382458 7808472 7155478
1349.94 7226344 7315886 8113424 8598284 7966024 7840292
1352.83 8035940 8967188 9846352 9289906 9192952 9596224
1355.72 10924630 11870250 11551530 11505240 11764760 13177180
1358.61 15252150 15176760 14996230 15767720 17956990 20719630
1361.51 21372830 21369760 22382980 24159270 27433120 29113280
1364.40 29208610 29899950 31740200 35681370 38612540 38767130
1367.29 39087290 40243320 43749150 46403090 46174010 45993920
1370.18 46301000 47919290 49567530 48636790 47332680 46234120
1373.08 46404020 45486640 42423630 39731000 36691520 32428900
1375.97 29355550 26746520 23381900 20249970 19550830 18603450
1378.86 17620440 26478810 57990400 69285080 40076860 20437820
1381.76 17463580 19092570 22401670 26236460 28559200 31413340
1384.65 34402830 36842400 39446410 42112450 43154080 43945710
1387.54 43912430 44893890 45843010 44333130 42166460 41458590
1390.43 42178930 42475980 39202820 35961760 34639550 34929480
1393.33 35089390 33274470 29798110 27271450 26837860 26526270
1396.22 24401740 21780810 20224880 19268230 19684840 19738410
1399.11 17136720 15061380 14194270 14333930 14374700 13509080
1402.00 12766650 12377400 12572220 13181830 12653480 11812380
1404.90 11340530 11060640 11551060 11563720 10817730 10900310
1407.79 11366550 11872060 12084170 11496760 11318870 11582350
1410.68 11535820 11853160 11745050 11752430 12106680 12550150
1413.58 12792630 12257300 11654220 12043190 12114090 12228630
1416.47 12613870 12755370 12728860 12675650 14107390 16262510
1419.36 15021570 13042400 12447630 12426720 12575650 12677890
1422.25 12552550 12401250 12390840 12395860 12100460 11420530
1425.15 11009250 10824530 10894640 10784480 10251200 10018560
1428.04 9772554 9520848 9942792 10335960 9703840 9265118
1430.93 9178424 9049954 8986128 9088462 9329852 9628286
1433.82 9976452 10255930 10346650 10646870 12295190 14461140
1436.72 13116390 11220730 11383210 11493570 11318070 11472800
1439.61 11385270 11481680 11657870 11460390 11827360 12023210
1442.50 11583940 11380920 11128600 11128080 11407300 10795360
1445.40 10394060 10480890 10309960 10735300 11309730 10363120
1448.29 9466498 9259384 9080562 9371612 9213830 8484570
1451.18 8251902 8407414 8233924 8231876 8268046 7812752
1454.07 7661772 8164138 8584146 9023986 11681750 12706560
1456.97 9538666 8796580 9397352 8440654 7641784 7131288
1459.86 7055546 7558300 7812684 7270272 6975126 7162952
1462.75 7529248 7995550 8351776 9259440 9192002 8160214
1465.64 8319098 8413770 8095640 7939720 8247946 8674948
1468.54 9068164 8991272 8927128 9089396 9664130 11109060
1471.43 12831560 11965100 11233960 12886480 12799780 11700740
1474.32 11425900 11569690 12721080 13839580 13852930 13455010
1477.21 13144220 13317510 13606720 13646870 13609780 12968100
1480.11 12601250 12567150 12600420 12470530 12283370 11967700
1483.00 11445870 10959680 10690320 10546000 10806080 11188560
1485.89 11284370 10995640 10755890 9784710 9388942 10292050
1488.79 11621870 12825150 13134230 12443570 10897730 9787850
1491.68 9790916 10022120 10479740 11037230 11595190 11850960
1494.57 12340550 13361590 15809260 15738580 13449520 12792050
1497.46 12659400 13193090 13445740 12304440 11365130 10829630
1500.36 10346740 10121380 10020550 9372394 8626388 8138270
1503.25 8206272 8385852 8230036 9868824 11476280 9495812
1506.14 10503540 11759780 8719070 6983518 7290516 7089876
1509.03 6696816 6228752 5727858 5695900 5934370 6279080
1511.93 6379934 5488330 5250408 5318744 5106228 5254688
1514.82 5204644 5073808 5476966 5551834 5845238 5480712
1517.71 4553686 3995658 3699526 4158114 5030112 5574784
1520.61 7650284 6747170 4255508 4698200 4213424 2991176
1523.50 2598968 2776502 3574260 4526334 3423436 2303870
1526.39 2573914 2972280 2595180 2459204 2324674 1965192
1529.28 1931332 1874260 1814698 1951160 2083426 1932400
1532.18 2214326 2989162 3628962 3329956 2079112 1729150
1535.07 1701462 1734554 1659466 1661734 1713016 2146926
1537.96 3927376 7352668 6168916 4908650 5785260 3461506
1540.85 2706930 4862824 5211906 2854214 2407722 2340030
1543.75 2241742 2978628 3920532 2880642 2138366 2041484
1546.64 2145028 2129792 2215864 2256228 2582048 3033972
1549.53 3434558 3197252 2934232 2926034 2961184 3062182
1552.43 3339154 3711990 5281164 6893976 5545558 4421750
1555.32 4511482 4828948 5465782 7477154 9091800 11125480
1558.21 11900360 9234490 10642690 13376520 11802240 9161392
1561.10 9186230 9394758 10008350 10536570 11478730 12417880
1564.00 13856420 14529510 14754080 15334130 16588090 17991550
1566.89 19587360 20222890 21398370 23209070 26184900 29301860
1569.78 30048610 30220180 32194590 34637520 38149640 41306750
1572.67 43906230 46439170 50098800 54524260 59835020 65582220
1575.57 73696650 77406750 79838830 85398440 91942360 97493080
1578.46 104001000 111895700 120014900 127281800 135197400 144899800
1581.35 156198900 165219700 173231300 181991600 192023400 199175900
1584.25 206156900 213464400 219560500 224837400 229982700 233897400
1587.14 237172300 237599800 236670400 234362300 230608100 224876000
1590.03 217344100 205797400 193340100 179238800 164497200 151101300
1592.92 140424000 130248900 127233200 132234100 137261700 182968600
1595.82 257634600 226021400 180775800 173293100 144442200 130351400
1598.71 136866300 151697700 167134500 184021300 198681500 213074700
1601.60 225453800 236908000 245712000 252762500 256710200 259602800
1604.49 259678900 256482800 250779100 244470100 236694800 227458400
1607.39 215737500 203517800 191263300 179543200 166657000 153407600
1610.28 140216400 127705900 115483500 104454500 94353990 84222940
1613.17 74331170 65901060 58240490 51571400 45072840 40857590
1616.07 39458880 34756490 27642960 23489590 20633030 18366350
1618.96 16383400 15241930 13588350 12147260 10949020 10608100
1621.85 10313030 10081750 10390360 10058950 8503318 7980834
1624.74 7350550 7242454 7251506 7317260 6949112 7321780
1627.64 7167436 6907642 6585734 6355712 6161176 6281736
1630.53 6140936 6049738 6156646 6804596 6797202 6762570
1633.42 6539626 6634764 7831180 10172390 10291320 7344178
1636.31 6153898 6778612 6996298 6732846 6758564 6606188
1639.21 6566934 6739172 6828282 6964014 7098356 7138418
1642.10 6948868 6920784 7091408 7210706 7313730 7597538
1644.99 9040538 10917230 9272632 8027500 8511514 8298838
1647.89 7885216 7183632 6774960 6650938 6609988 6348612
1650.78 6285124 7594236 11354880 12688180 12850100 10069700
1653.67 7282578 7042112 5294822 4560428 4226220 4117724
1656.56 3850728 3902490 3710718 3676410 3467482 3514792
1659.46 3468170 3713158 3869010 4106136 4247854 5366946
1662.35 6175312 5292702 4497408 4540866 4478184 4520398
1665.24 4420354 4355464 4208240 4403944 4450780 4540292
1668.13 4663810 6210574 6404662 4455888 3507022 3986652
1671.03 4679886 4007644 3072568 2932796 3138466 3198602
1673.92 3084488 4695182 5903000 4214586 2562378 2278400
1676.81 2363204 2357140 2064646 2015296 2173016 2390200
1679.71 2337090 2273386 2008896 1923310 1809622 2434564
1682.60 3514194 3699690 4054196 7563454 8421550 3730976
1685.49 1757894 1600814 1515010 1463802 1739844 1846642
1688.38 1642678 1501312 1743462 1734596 1452410 1289658
1691.28 1310626 1261256 1246032 1243354 1325080 1303208
1694.17 1529392 2967148 7119222 7600024 3079614 1514492
1697.06 1525160 1401826 1325802 1725010 3865532 6681586
1699.95 6621292 4845568 2324292 1384736 1235348 1294732
1702.85 1245704 1550500 2294922 2158850 1413730 1719126
1705.74 2482262 2270810 1536910 1400230 1315312 1400704
1708.63 1365682 1547486 1729830 1702634 1472028 1512712
1711.53 1510524 1631396 1597174 1876186 2233252 2386158
1714.42 3212316 3433916 2261056 2127466 3768454 7090766
1717.31 5559044 3648662 3848668 2807830 2182568 2262742
1720.20 2360328 2423648 2430776 2480170 2528780 2656824
1723.10 2826676 2903646 2978314 2918170 3023390 3278128
1725.99 3469988 3446770 3453688 3585184 3733966 3726828
1728.88 3974470 4638776 4703398 4256714 4134786 4311248
1731.77 4560224 5552466 7987878 7874908 7925574 9018112
1734.67 6560488 5257632 5091382 5133458 5156406 5340812
1737.56 5292850 5523726 5751062 7004876 7728802 6405430
1740.45 5538402 5555118 5678468 6058984 6496204 6794120
1743.34 6760964 6941076 7128688 7486920 7847292 8072146
1746.24 8397982 8886546 9016298 9643490 10308930 10315410
1749.13 10091140 10186210 11039360 13087440 13421710 11731250
1752.02 11148370 11289050 11551890 11834910 11685260 11474060
1754.92 11505540 11602660 12061380 12396790 11449600 10739920
1757.81 10467980 10166150 9884548 9844726 9518780 9204902
1760.70 9466970 10473110 9832622 8410506 7939508 8133578
1763.59 8387336 8148924 7819092 7939254 8316286 8556118
1766.49 8668052 9093530 10275290 10235280 8999072 8701912
1769.38 8632548 8747758 9142608 9532650 8835236 9826588
1772.27 11285190 9400580 7657492 7306564 7159882 7249508
1775.16 7259694 7001946 6762672 6700518 6544698 6493240
1778.06 6462352 6519326 6526032 6719680 6967518 6904050
1780.95 6567450 6701224 6743462 6746428 6818962 7088198
1783.84 7488014 8210472 7903640 7517038 7518980 7790214
1786.74 7998226 8149314 8189872 8410170 8683670 9214006
1789.63 9460086 9949900 10422350 10391780 11466020 13617320
1792.52 13299160 12314230 12704250 13595910 14494880 15131730
1795.41 15756440 16323140 16947690 17996790 19548600 21532580
1798.31 23429190 26090600 28836480 31388170 34620080 38188380
1801.20 41446520 45109170 49206590 53535720 57966580 62663080
1804.09 67442420 72177590 77441760 83215590 88234080 93023940
1806.98 97836300 102697700 107560100 112171900 116100800 119724100
1809.88 122349900 123677000 123852500 123396800 122002300 119677700
1812.77 116363900 112397400 107683100 102718700 97294510 92479900
1815.66 88631350 86597720 86794830 91215750 99931340 109737500
1818.56 114722400 116052800 96158650 63624820 43656900 37436920
1821.45 41429580 51090570 64121130 77082500 88551280 99017780
1824.34 109357900 118188300 124797900 130018400 133986600 136353400
1827.23 137838200 138744400 138399800 136447000 133887300 130987200
1830.13 126634400 120910700 115075000 109356900 103826500 98022770
1833.02 91331210 84504640 78363470 72334110 66270830 60184580
1835.91 54532310 49571600 45096690 40867450 36566550 32356190
1838.80 28807410 25725340 23114100 20721650 18368140 16372700
1841.70 14779540 13090510 11721940 11308690 11807550 10221460
1844.59 7897546 6892316 6399080 6056154 5662572 5276984
1847.48 4846568 4461160 4267828 4099480 3841716 3610482
1850.38 3554180 3511694 3430570 3363192 3354254 3352490
1853.27 3353066 3288608 3295342 3492408 3644636 3655862
1856.16 3615344 3633650 3748268 3976942 4167962 4185648
1859.05 4239290 4302802 4438838 4601658 4711188 4711352
1861.95 4711150 4749704 4822884 4817046 4704476 4619378
1864.84 4615946 4654192 4756212 4676196 4659014 4845916
1867.73 4698658 4631134 5203122 4896728 4117500 3949886
1870.62 3924754 3920792 3775262 3459056 3057540 3002416
1873.52 3250884 3510546 3776038 4075178 4351278 4529606
1876.41 4699276 4963088 5184686 5238394 5246392 5239572
1879.30 5206200 5213444 5249370 5295002 5254878 5232074
1882.20 5283598 5319182 5253722 5180228 5111580 5019854
1885.09 4849066 4679010 4605530 4578810 4448940 4229416
1887.98 4095838 4145828 4344816 3927096 3323580 3174290
1890.87 3125908 3060338 2912688 2800108 2741218 2754178
1893.77 2716422 2767548 2856546 2726684 2536422 2471820
1896.66 2471726 2478258 2408886 2328184 2245104 2225874
1899.55 2207412 2184656 2205578 2309806 2458734 2691292
1902.44 2931864 3182478 3305304 3314936 3299410 3320254
1905.34 3350670 3385736 3287840 3244968 3259436 3227292
1908.23 3105720 3074784 3141556 3252344 3077420 3104766
1911.12 3123284 3183332 3140486 3078148 3021456 3013368
1914.02 2978254 2898084 2858108 2914790 2904378 2863576
1916.91 3061454 3675264 3433704 2831830 2701212 2633510
1919.80 2604610 2614246 2627648 2671368 2762148 2842880
1922.69 2910238 2848466 2798286 2763070 2713832 2748574
1925.59 2797434 2906638 2943080 2858986 2775664 2800726
1928.48 2892626 2957308 2953680 2910726 2876120 2888196
1931.37 2872874 2841700 2869648 2940380 2932488 2892876
1934.26 2862054 2840346 2856038 2894440 2936894 2939036
1937.16 2913284 2966694 2956566 2896358 2902918 2916690
1940.05 2881830 2897762 3002062 3269212 3581240 3473362
1942.94 3279322 3279500 3386922 3550182 3659020 3799874
1945.84 3904236 3976580 4081728 4236192 4315530 4393768
1948.73 4505748 4683440 4829904 4878180 4896896 4961594
1951.62 5074770 5235102 5373258 5543936 5605442 5798964
1954.51 6235808 6567184 6666348 6684112 6500796 6501948
1957.41 6703222 6847642 6978528 7160818 7347988 7592928
1960.30 7785902 7916996 8048020 8144556 8110998 8078324
1963.19 8084714 7977380 7864646 7685718 7417098 7261922
1966.08 7334524 7296304 6713016 6476260 6883782 6960586
1968.98 6585078 6241370 6525360 7005304 6434672 5660260
1971.87 5127874 4874490 4967656 5139060 5327068 5698844
1974.76 6144324 6494228 6644020 6736460 6773338 6855518
1977.66 6998386 7027320 6814250 6601584 6462036 6428466
1980.55 6327674 6173352 5951532 5690562 5497184 5327958
1983.44 5092242 4880974 4672514 4491978 4337958 4132282
1986.33 3880266 3647940 3450970 3429826 3383412 3181126
1989.23 2970416 2809486 2703128 2732066 2834544 2707820
1992.12 2357576 2176496 2161388 2132812 2002120 1871164
1995.01 1728772 1730702 1745148 1696002 1598794 1532766
1997.90 1530004 1522934 1426906 1358658 1303474 1325728
2000.80 1336564 1322482 1230840 1170038 1198742 1198770
2003.69 1145744 1074528 987972 1028580 1070114 1071348
2006.58 1014184 940854 916156 920134 890800 830958
2009.48 694156 680216 726042 715642 658174 598198
2012.37 539514 530398 485046 446476 456810 466324
2015.26 430096 408386 440194 411064 347796 376864
2018.15 344750 282712 229076 185424 167690 175982
2021.05 146954 135056 138212 160596 136678 120458
2023.94 82820 53528 40618 35950 328-10360
2026.83-42058-14058 40410 24628 15256 75234
2029.72 45966 26064 25956 26378 10992 20340
2032.62 35206 55592 7688-11350 12646 61700
2035.51 57490 19042-27670-68996-126008-117796
2038.40-105052-42776 9984 20356 29786 47400
2041.29 31912 34590 430-1906 15008 6306
2044.19-29366-2940 45424 111364 90434-10106
2047.08-53758-65820-68556-55458-48152-33260
2049.97-68518-103010-107534-71778-67140-94802
2052.87-113134-88374-90358-63366-80904-121112
2055.76-107452-59490-63880-103848-81926-38876
2058.65-52644-13084 15926-24892-32720 12560
2061.54 7826-8514-10514 14818-6742 6878
2064.44 5614-3120 13614 11276-8794-16310
2067.33-19008 15186 89686 72390-7358-6966
2070.22 4014 11422 11598 40372 71950 147786
2073.11 136554 71330 55230 59056 66720 98410
2076.01 103394 136170 207434 215416 168072 153886
2078.90 108374 99486 129254 182782 202252 289566
2081.79 258382 163462 209994 226400 189896 186566
2084.69 222228 300658 394918 400630 314298 281532
2087.58 301222 391162 399640 372686 438674 611464
2090.47 583764 461644 413854 406764 455194 478138
2093.36 498948 630374 796878 695288 607552 638188
2096.26 634306 621240 640706 734048 906570 1045846
2099.15 836232 699842 672028 656162 644596 638736
2102.04 671802 874496 872692 652736 571924 559018
2104.93 502896 498084 551036 751932 1043504 748714
2107.83 433860 431696 511692 604716 616326 621744
2110.72 863276 1038846 790312 694938 717456 762816
2113.61 750864 779084 915792 1217322 1082024 823668
2116.51 758976 799606 796362 788526 788226 971460
2119.40 1006964 773306 692514 644560 612056 593134
2122.29 561356 687554 821812 611060 482900 486132
2125.18 487694 442112 401762 510968 723760 607966
2128.08 448766 412502 378180 350162 330716 404284
2130.97 577116 565490 405232 357850 333414 375032
2133.86 391474 427740 531174 532190 398178 391982
2136.75 355324 334906 346010 370058 413650 431236
2139.65 351354 331188 337610 397624 401326 382184
2142.54 384586 375944 366502 402030 414614 412062
2145.43 397638 437552 513320 487912 377394 397780
2148.33 427358 440918 455428 519896 614548 520920
2151.22 400430 432406 439140 471490 487300 614740
2154.11 777334 676108 514492 501580 489458 472286
2157.00 494410 726798 883602 711786 588798 629034
2159.90 634324 584948 697126 1031316 984258 753376
2162.79 705940 701350 711632 768316 1029340 1235980
2165.68 1026840 926282 858944 802456 809354 886906
2168.57 1162750 1067686 794936 793146 743686 764546
2171.47 863152 1128056 1194608 913920 809472 802874
2174.36 779146 799896 1059386 1321232 1010452 761600
2177.25 748424 777866 821064 986048 1243468 1154896
2180.15 954752 910118 831498 767084 825290 1107366
2183.04 1085596 850224 785438 759976 810214 917850
2185.93 1192040 1199966 926240 857114 872682 957724
2188.82 1012802 1143022 1075582 887314 893090 891654
2191.72 869410 921054 1052172 1006854 905962 911954
2194.61 893406 892998 955074 1135904 1060596 931196
2197.50 919262 959086 985524 1089958 1197452 1099718
2200.39 1031874 999940 958450 981768 1035744 1075854
2203.29 965530 954932 952318 896394 858588 914942
2206.18 892938 821466 792242 810904 815448 827806
2209.07 848054 797158 792082 834582 860732 926958
2211.97 991424 943002 868000 872936 853374 873286
2214.86 947230 1035252 1138758 1109892 1014124 988916
2217.75 974172 972464 948068 926246 919080 933982
2220.64 880330 882738 858428 833280 817014 834960
2223.54 830436 852562 877574 849370 811226 832300
2226.43 857086 926592 925724 864248 878082 881594
2229.32 870970 909094 914148 931208 941554 957732
2232.21 1011438 1041720 1006966 1077062 1128966 1092402
2235.11 1064142 1144512 1194656 1241974 1229900 1207380
2238.00 1223546 1259324 1285220 1372752 1416610 1413480
2240.89 1438200 1472802 1473292 1421998 1391820 1514600
2243.79 1595542 1646314 1671464 1636494 1600060 1674480
2246.68 1772686 1854750 1884906 1800714 1764070 1820448
2249.57 1935220 2057620 2014930 2023220 2119112 2208404
2252.46 2287040 2372486 2350512 2304912 2342106 2495344
2255.36 2660176 2628268 2505532 2546652 2631444 2700392
2258.25 2678424 2602262 2508582 2465374 2443480 2448194
2261.14 2446660 2435078 2388924 2377082 2355448 2289548
2264.03 2161220 2087288 1998602 2004518 2060974 2098140
2266.93 2099764 2190948 2271480 2367786 2416304 2501110
2269.82 2622040 2701570 2714690 2760244 2797878 2787114
2272.71 2741982 2695220 2590662 2526114 2570074 2637106
2275.61 2513244 2338428 2348860 2380640 2305794 2238710
2278.50 2131366 2071590 2046738 2094150 2056480 1938492
2281.39 1877376 1922430 1937998 1887864 1773624 1713080
2284.28 1714426 1776760 1702086 1599728 1595832 1645578
2287.18 1636102 1606048 1607830 1598046 1533948 1557528
2290.07 1497388 1414424 1403512 1424490 1339302 1282920
2292.96 1268292 1282382 1282984 1241236 1205228 1289774
2295.85 1318892 1348478 1314126 1300542 1366682 1429796
2298.75 1380968 1367858 1346976 1364394 1367446 1329348
2301.64 1281856 1309308 1199766 1146396 1139978 1190588
2304.53 1139806 1059468 997084 1052402 1135922 1070846
2307.43 953866 985896 1136824 1132502 984490 1029402
2310.32 1245472 1329404 1062406 989924 1128256 1343366
2313.21 1080712 954792 1134858 1460202 1164512 919184
2316.10 1056012 1552428 1390268 963620 1014808 1639002
2319.00 1513190 1014434 1079046 1776284 1692654 1015172
2321.89 1095606 1900078 1804766 1018540 1141802 2058824
2324.78 1925606 998414 1240148 2315052 2030442 992516
2327.67 1505208 2613574 1972082 939598 1768782 2791714
2330.57 1851210 1035286 2239736 2858192 1539838 1243376
2333.46 2682018 2565614 1125530 1648118 2957948 2035452
2336.35 1028264 2250824 2779580 1384734 1390588 2712418
2339.24 2227658 1141962 2013146 2635542 1538852 1436938
2342.14 2468092 1972936 1252710 1955238 2171396 1337804
2345.03 1380302 1731904 1229278 916660 1163338 1052374
2347.92 744922 671976 741046 849528 751492 793566
2350.82 1269282 1200206 1017562 1666190 1599332 1095544
2353.71 1877212 1877410 1179192 2157028 2274834 1393236
2356.60 2423268 2439430 1502714 2636572 2463626 1652268
2359.49 2884712 2342572 1807966 2963810 2002426 1986836
2362.39 2852640 1769072 2331130 2502154 1649218 2500704
2365.28 1954968 1742820 2316706 1547506 2025564 1806710
2368.17 1400050 1851174 1323288 1581088 1392870 1218218
2371.06 1420870 1042214 1276340 1035426 1055214 948112
2373.96 853020 882938 708248 763850 653056 662542
2376.85 564238 573110 474314 464510 447818 431822
2379.74 401752 388014 357912 335154 347444 336530
2382.64 344264 373238 348464 363446 352904 303464
2385.53 292176 302678 310464 320430 328246 322942
2388.42 327718 335474 347182 353488 334184 317098
2391.31 299662 350168 400348 395930 373004 363368
2394.21 366774 451236 464982 440740 399418 386364
2397.10 425582 459462 426178 446212 463618 433236
2399.99 409408 455658 511724 528842 546222 587438
2402.88 599642 574564 539492 537980 547570 605528
2405.78 655422 668618 627894 643230 684210 669012
2408.67 662086 724826 742938 743658 781002 830368
2411.56 830572 814778 833680 781882 774344 809954
2414.46 814434 831176 787830 777654 858486 923564
2417.35 949890 858036 815576 824274 852318 906470
2420.24 853488 806026 823022 814120 823906 817314
2423.13 778140 791556 769050 739928 723654 748814
2426.03 782306 768834 742332 764718 855294 913322
2428.92 943476 940514 924370 935490 941220 948606
2431.81 983644 1032054 969712 938324 979128 995186
2434.70 962396 967578 934248 915922 929122 928818
2437.60 905816 868870 878296 895572 891624 908128
2440.49 892632 848844 844338 907172 922338 902906
2443.38 888136 883852 884550 880134 866330 882724
2446.28 889050 875044 932286 976526 959512 958994
2449.17 974868 1039068 1087464 1079932 1038418 996660
2452.06 980278 1056284 1155920 1154222 1111816 1096554
2454.95 1121356 1223598 1243202 1163596 1147284 1189126
2457.85 1229654 1267888 1228270 1169270 1189780 1280086
2460.74 1307018 1287520 1265938 1255652 1338942 1384028
2463.63 1342460 1338498 1376216 1447842 1502864 1467708
2466.52 1424908 1519932 1592400 1557370 1599312 1617324
2469.42 1642526 1740822 1778148 1789000 1887466 1904520
2472.31 1966998 2071664 2011328 1969082 2097682 2259540
2475.20 2426362 2446354 2407542 2470404 2612012 2817026
2478.10 2812800 2721042 2866366 3069490 3253884 3411514
2480.99 3373070 3401618 3477636 3586142 3713218 3641994
2483.88 3571580 3570038 3614322 3741724 3707788 3588526
2486.77 3532102 3523628 3519182 3433204 3261926 3135222
2489.67 2977146 2806412 2659526 2558564 2468440 2489848
2492.56 2578672 2733140 3131066 3653382 3255854 2556666
2495.45 2354656 2388474 2455164 2538610 2733226 2876988
2498.34 3039720 3212156 3299640 3406072 3571252 3665458
2501.24 3636002 3593466 3617198 3709360 3700082 3559224
2504.13 3391172 3318776 3374932 3251856 2940222 2764926
2507.02 2751332 2816664 2642434 2371842 2236590 2158850
2509.92 2176854 1983028 1709646 1630852 1626478 1657222
2512.81 1559676 1351932 1203072 1221210 1270324 1181410
2515.70 1072744 1076690 1084746 1036684 974510 937192
2518.59 940366 864772 796608 775024 877482 877440
2521.49 768734 764964 829118 850930 762676 702868
2524.38 707028 792360 824956 706964 650998 661196
2527.27 686162 745370 674728 622082 644552 672894
2530.16 697886 689294 667474 659194 683768 685656
2533.06 640304 572644 527778 578592 646534 573638
2535.95 527244 568670 578344 609784 599450 555696
2538.84 535366 554368 567332 546368 533520 548626
2541.74 510578 520640 517454 509970 504850 472526
2544.63 433284 418490 442486 462194 520122 526620
2547.52 478372 468202 494536 518170 531556 541794
2550.41 540944 508554 508408 533980 549876 584906
2553.31 598234 597718 593866 615488 633894 620476
2556.20 600942 659570 705450 683118 681906 717498
2559.09 708522 724132 739484 757698 781054 790472
2561.98 772832 776198 789088 775614 724204 680820
2564.88 750376 854492 895064 843488 841274 895274
2567.77 890144 955468 1045006 1087118 1123654 1177266
2570.66 1244694 1283926 1229906 1190234 1224048 1276404
2573.56 1334988 1322380 1315820 1342566 1274228 1256256
2576.45 1247010 1155000 1064048 997560 982478 961464
2579.34 892436 842266 867086 852548 876326 937714
2582.23 1035186 1141004 1098264 948400 856280 828430
2585.13 841838 931200 983318 1017738 1058164 1076060
2588.02 1105842 1131418 1088396 1102580 1151568 1156292
2590.91 1107268 1063672 1031246 1024634 1035956 1025772
2593.80 1019462 1009932 964362 873306 845320 880902
2596.70 803328 700302 620800 595464 573742 569692
2599.59 509786 460204 415764 432324 395944 336212
2602.48 323052 304598 288324 323336 343478 315136
2605.37 285488 326306 311918 259296 293446 285814
2608.27 250098 257324 213894 172996 223650 244546
2611.16 263696 291208 276278 278052 249720 235230
2614.05 243580 277762 313376 248448 198850 247548
2616.95 319970 324702 259020 246536 301004 323788
2619.84 321498 276496 233920 241168 261410 330646
2622.73 367272 377138 355224 360204 343638 296112
2625.62 303920 315448 336570 374154 381000 405444
2628.52 456816 513126 432802 347146 360772 333320
2631.41 311058 347898 386430 408140 394984 399490
2634.30 400600 401068 366144 350256 411002 481892
2637.19 487388 463426 401182 396826 428330 412884
2640.09 400482 410222 415636 452054 465704 484572
2642.98 488190 486732 471292 458298 466250 475024
2645.87 509276 497264 440768 443910 408266 351896
2648.77 365110 409898 419960 390262 363046 417086
2651.66 437016 356972 318802 328234 326628 351344
2654.55 331592 328940 390708 404774 358590 339430
2657.44 296164 277206 315532 352944 359600 308478
2660.34 285768 269226 283532 323642 323734 343648
2663.23 326176 318468 378616 391976 304820 194378
2666.12 211520 293162 283106 244656 234162 220434
2669.01 218442 248086 248936 261512 255684 205916
2671.91 210776 219494 194994 147310 162882 202212
2674.80 217952 188046 195768 250454 211698 136234
2677.69 142362 172748 188274 201254 158880 130332
2680.59 174594 208324 166376 168378 191340 207914
2683.48 222996 248450 271148 293576 293056 284720
2686.37 208432 189698 219438 237824 225060 217724
2689.26 237438 253206 227160 237132 258056 299516
2692.16 273036 238000 237818 263730 347300 402486
2695.05 356074 329804 358346 371210 327076 323174
2697.94 382304 433716 394564 380684 446504 504968
2700.83 501412 457944 390312 390746 445738 440836
2703.73 432468 451142 427376 429324 496330 528096
2706.62 501836 510802 516862 518002 498690 485206
2709.51 498588 509100 502378 550972 551256 547628
2712.41 568760 586794 596412 675234 732678 745942
2715.30 776894 748582 749496 827096 861268 885938
2718.19 928168 926294 955370 942150 935284 936548
2721.08 927058 923208 947478 941176 924254 921218
2723.98 850422 825118 814164 793742 830422 789854
2726.87 710570 660562 663678 657540 619296 607980
2729.76 603656 611434 585418 577300 647256 641584
2732.65 530916 570114 630960 589256 579092 619592
2735.55 747308 882108 844788 798340 683708 617766
2738.44 644060 696784 682274 640288 652130 653436
2741.33 597640 616780 615370 577784 561790 554224
2744.23 575292 615998 616162 575538 575808 535858
2747.12 410412 418144 457302 451830 498704 513068
2750.01 458338 435700 375200 377718 428714 427146
2752.90 409828 420782 395670 408762 453534 435892
2755.80 390840 371902 389880 379042 394486 377900
2758.69 318578 221986 107198 19606 86928 287914
2761.58 453268 521094 498770 478326 435950 389724
2764.47 382676 392368 384644 359780 355020 340632
2767.37 339370 404862 465146 394204 386036 440954
2770.26 444102 356266 339620 381998 365768 344548
2773.15 394350 434496 448192 466790 446628 380490
2776.05 416122 531786 556828 515118 464996 448946
2778.94 429282 458684 536736 588802 569178 610458
2781.83 595612 657820 713532 723792 719412 728252
2784.72 786334 822454 801994 809080 805398 816822
2787.62 791690 799932 830306 842840 837470 781054
2790.51 784920 828040 846112 832134 830058 794886
2793.40 800008 773492 718632 697934 732764 808822
2796.29 835382 847914 846364 861752 936936 932756
2799.19 943604 937108 888542 879868 903722 912860
2802.08 954408 1042804 1057370 1089918 1105132 1087406
2804.97 1101538 1139938 1165564 1167170 1145724 1104394
2807.87 1074862 1123000 1125328 1101440 1102956 1068550
2810.76 973336 938956 890404 806466 754172 742734
2813.65 779628 785156 748716 739006 742842 736412
2816.54 737812 757282 768822 791222 743268 708956
2819.44 727362 732776 750874 821026 848666 868676
2822.33 897474 951660 948704 931340 943966 915278
2825.22 858148 861442 975306 1021220 990142 935046
2828.11 990778 1070292 1090670 1112166 1076832 1018314
2831.01 1052432 1119146 1231972 1329140 1390342 1439184
2833.90 1448384 1506058 1571042 1644568 1756634 1819950
2836.79 1852826 1871996 1905726 1932586 1988144 2111446
2839.69 2229668 2365826 2474856 2490998 2565574 2630510
2842.58 2704528 2883188 2941792 3001406 3152370 3243068
2845.47 3247600 3333616 3488954 3581032 3655536 3686244
2848.36 3692276 3734350 3744402 3807230 3893972 3946674
2851.26 3957800 3935220 3967804 4040274 4007362 4037184
2854.15 4169786 4296172 4319034 4357132 4396820 4416674
2857.04 4516260 4598780 4580710 4567746 4597858 4651438
2859.93 4718198 4759702 4815156 4858938 4899734 4960370
2862.83 5034050 5128184 5248998 5378458 5438088 5381480
2865.72 5372962 5342030 5384358 5502098 5563016 5572360
2868.61 5585776 5622128 5667798 5675602 5627562 5666624
2871.51 5775392 5848734 5802588 5723650 5731842 5788748
2874.40 5822806 5906910 6010202 6149064 6290574 6468296
2877.29 6658126 6824246 7062652 7236814 7447492 7716712
2880.18 7717708 7484630 7319184 7248550 7178020 7240072
2883.08 7297358 7325518 7405426 7469736 7592264 7764262
2885.97 7931734 8018086 8036892 8050276 8227382 8531768
2888.86 8702646 8783480 8935916 9148948 9629254 10294250
2891.75 10521920 10243080 9987200 9931912 9994122 10165160
2894.65 10214110 10102510 10071800 10076170 10171900 10443010
2897.54 10691210 10495550 10405600 10622130 11010410 11528450
2900.43 11642460 11304570 11115780 11100890 11464420 12068180
2903.32 11968300 11432950 11314490 11502710 12341440 12954080
2906.22 12411430 11973670 12078970 12515950 13588610 13835250
2909.11 13149470 12988660 13252710 13868670 15130540 15077860
2912.00 14149460 14080420 14661420 16097760 16889730 16241820
2914.90 16156320 16875830 18295620 19416830 18751130 17827130
2917.79 17462120 17370720 17481070 17546110 17479120 17232620
2920.68 16910120 16919730 17050650 16909740 16672310 16673310
2923.57 16820610 17028710 17086100 17216040 17580190 18147820
2926.47 18914370 19628020 20241680 20964020 21517770 21726600
2929.36 22212080 22645500 22738820 23022240 23397230 23534560
2932.25 23703910 24033280 24463270 24680490 24515500 24675340
2935.14 25057330 25216500 25058910 24685710 24746090 25261620
2938.04 25633940 25122900 24613180 25058590 25882080 26268890
2940.93 25769320 25412790 25915250 26880290 27401070 27041620
2943.82 27129020 27998890 28922020 28713160 27984950 28266970
2946.72 29414080 30556690 30452390 30304690 30938790 32246400
2949.61 33592660 33314840 32785340 33889970 35814520 36585520
2952.50 35846880 34787040 34901020 35959520 36871910 36568410
2955.39 36128360 36514950 37570260 39066900 39415750 39083320
2958.29 39293630 40353550 42394100 42824370 42463810 43428800
2961.18 44669900 46827940 48418140 48690160 50398900 52887170
2964.07 56344900 59409640 60419480 62747980 66130140 70455040
2966.96 74092550 73708370 73186420 73367220 73894330 77459300
2969.86 79565880 80033820 81034480 81497040 85405460 89335080
2972.75 90406100 91644180 91806570 92172420 94042850 95749130
2975.64 96933670 96599980 94875600 93268860 92866070 93337990
2978.54 93372180 91302040 87735080 85363140 84608860 83289470
2981.43 82553590 81228050 79677770 83774960 92664300 92114460
2984.32 85935560 84494180 84532570 84951160 87497280 93259780
2987.21 98408160 101955500 105358800 108234200 111731800 116442600
2990.11 118441400 117306100 118514700 123501400 129147200 126974600
2993.00 122057600 122856600 126821200 128852900 124913600 121037200
2995.89 122773500 128348300 132535500 131326800 127565200 127830100
2998.78 130896900 133825200 132045300 127482500 127314000 131026300
3001.68 133535800 129980600 124746600 123334300 123726400 124748600
3004.57 122270800 117311900 116427500 116554000 114534100 109791200
3007.46 104301200 101933000 102690200 104199900 102703300 101166300
3010.36 104417300 105684300 100006300 93990770 91868940 93857060
3013.25 98703500 104051100 106117500 107011200 108837400 111044500
3016.14 111786600 112354700 114646200 115075000 115046500 117522000
3019.03 118904100 117634300 117134900 117262100 119449300 120114500
3021.93 117126400 114854500 114389600 116589600 116149400 111551800
3024.82 108983000 108185200 108896100 107306300 104408900 102680700
3027.71 100296300 100197600 100025100 96825100 93188060 93264020
3030.60 95761080 93828920 92003750 93403330 95211140 97351480
3033.50 98743470 99174390 100540600 103232000 105890000 104268300
3036.39 103846400 109757100 114601100 114249300 113082300 114722200
3039.28 120389400 125296800 123990200 122880500 123569400 126298200
3042.18 129054600 128358700 128967900 129825800 127621000 127505800
3045.07 127616800 128257000 129384000 124900500 120477100 120577300
3047.96 120609500 120325500 115940200 110059500 109118700 107872900
3050.85 104305200 102210500 99633200 97469580 96804210 99484830
3053.75 104575200 107274100 105713600 100397600 97085860 100217500
3056.64 107180300 108696100 108828800 113904300 118311300 123033700
3059.53 128631400 131020400 131035400 131449000 136050100 145178700
3062.42 148080700 142649400 140746700 143689600 149553900 150639000
3065.32 144800400 143562800 143843300 144089900 145874300 142454900
3068.21 139789000 139977900 137112500 136483200 136488600 136296000
3071.10 137293100 135304700 132332500 131904300 133391400 135053100
3074.00 133045400 130979500 133152900 138339400 138869700 137189600
3076.89 136998600 138602400 142755500 148740200 147670000 142215900
3079.78 145467500 153675500 164601400 168645300 161404200 158522400
3082.67 163852800 176450400 189962900 187189400 178746700 180603400
3085.57 191712600 208368700 213485400 203065200 196949400 200835300
3088.46 213282900 221573500 210905000 202620700 203895900 208070100
3091.35 211016800 200593400 188186900 183764900 180868700 175246700
3094.24 166324000 158911900 150574700 140423200 138045100 142513800
3097.14 145042500 144860600 138413400 129128100 125067500 133225800
3100.03 143516600 132479300 123382600 126605100 133120100 141367500
3102.92 155716800 167718100 172750700 180372800 191013500 197594600
3105.82 203456100 206085900 202258600 201987600 206499400 210935100
3108.71 209333000 197234800 191317500 194796900 195677400 189841900
3111.60 174702600 164892600 166556100 167558000 162425400 148159300
3114.49 134380400 132968300 136086700 134439200 122588100 109630800
3117.39 108174700 111846400 113868800 105793200 92499410 89615520
3120.28 90800780 89965950 91440420 85018560 77619690 78538780
3123.17 80925000 81681430 74485270 68608290 68699090 71126380
3126.06 71481360 65907530 62493700 62832300 64528560 64294600
3128.96 59988630 56434040 56295630 56484710 55456980 53333970
3131.85 52031930 51669600 49612480 47724600 48231840 48700440
3134.74 44704040 42274850 41877170 43435380 42413340 38354730
3137.64 37307430 36683980 37402060 36680070 33796810 32309870
3140.53 32242040 32174150 30544150 29808130 28981180 27223510
3143.42 26210510 26698270 25817890 24010300 23430270 22911200
3146.31 22049050 21296220 21215180 20174480 18824540 18016890
3149.21 17904890 17750290 16720080 15658270 15014530 14830710
3152.10 14579810 13803020 13080880 12520240 12369050 11888280
3154.99 11213450 10642380 10238640 10069490 9787564 9095806
3157.88 8623880 8410548 8281602 7794966 7268866 6948408
3160.78 6741740 6692570 6482960 6083744 5722302 5423996
3163.67 5390682 5192602 4792398 4504968 4324972 4238114
3166.56 4060232 3955460 3880030 3697334 3446270 3235992
3169.46 3124602 3133254 3227124 2985652 2604032 2430150
3172.35 2441988 2643636 2605136 2160272 1900770 1807892
3175.24 1745334 1681668 1530360 1375528 1327046 1341796
3178.13 1261942 1137056 1129908 1026320 975596 959098
3181.03 960472 946622 938108 939880 951558 892598
3183.92 908122 931500 937302 948692 905694 871848
3186.81 912444 979974 954080 780914 637568 611244
3189.70 648682 636406 540194 326548 80926 116926
3192.60 432542 643256 640266 510288 479582 604748
3195.49 657524 634460 600104 557884 571664 451122
3198.38 279838 200808 146756 51166 110616 275964
3201.27 350026 264234 196184 218382 185446 86788
3204.17-29844-66712-8752 59134 3388 15702
3207.06 140706 196962 128298 93384 130578 167628
3209.95 241130 267768 287708 313820 395382 352708
3212.85 316264 416270 466970 419352 501216 557398
3215.74 624148 694348 766076 804808 811122 819258
3218.63 876354 1001632 1053990 1064700 1025406 1183588
3221.52 1324148 1212726 1099192 1208994 1300554 1368476
3224.42 1357762 1263318 1299540 1383474 1421246 1351876
3227.31 1317472 1276910 1208006 1157702 1244404 1296336
3230.20 1240132 1229526 1229062 1268618 1303722 1410108
3233.09 1570098 1736824 1906036 2050542 2041732 1965518
3235.99 1795614 1673900 1738766 1851172 1979324 2071884
3238.88 2025088 1945600 1967260 2101134 2054520 2024996
3241.77 2079452 2067310 2025274 1911150 1860082 1913890
3244.67 1873384 1691272 1622874 1545440 1497932 1478892
3247.56 1397282 1340558 1248928 1225530 1160380 1110230
3250.45 1107212 1065718 1026278 1001508 910164 865588
3253.34 835868 821434 739928 698746 724160 686714
3256.24 799258 914504 731348 600886 565824 615826
3259.13 672402 717082 730598 661794 588208 605110
3262.02 717758 719058 639634 638580 681850 693168
3264.91 662178 586964 653780 667492 569356 556514
3267.81 566114 466538 481154 548418 581048 497304
3270.70 405520 439078 453254 418852 422538 472680
3273.59 407568 302296 318680 309372 306302 350414
3276.49 331298 338338 400980 332878 317012 312460
3279.38 282350 277800 235734 179592 197972 195728
3282.27 220598 237772 212540 180870 125040 158652
3285.16 208176 177184 231324 294476 247930 235542
3288.06 281106 299658 339190 266338 235830 243480
3290.95 134398 122856 234266 266148 270760 295764
3293.84 333664 342928 307956 301306 373336 446338
3296.73 369752 297634 428826 503818 498860 510094
3299.63 495804 482612 530550 537908 502202 434696
3302.52 427362 498198 480360 327706 344104 462998
3305.41 380402 370316 482718 569696 494950 432174
3308.31 451608 490620 502320 489742 520914 549190
3311.20 483744 416770 434564 473788 513486 524710
3314.09 634334 633914 592892 596076 574050 542756
3316.98 564056 572712 567024 591190 609862 591848
3319.88 547336 553462 577864 531900 493786 501932
3322.77 550594 552148 466656 367926 362084 429062
3325.66 418710 379220 459396 533000 513042 426082
3328.55 346488 275116 302592 388904 405570 316662
3331.45 242972 353704 298364 136332 149952 256350
3334.34 376692 406092 292496 226116 208814 128856
3337.23 100342 176312 263678 260988 186500 162518
3340.13 145352 190530 240920 191262 205736 282596
3343.02 272052 244932 248798 193018 104538 82984
3345.91 110276 64296 82898 125828 238118 174036
3348.80 189458 188302 125150 91744 21830 79118
3351.70 163056 233762 290042 277014 140886 77248
3354.59 132026 204244 231358 179590 169388 183322
3357.48 196874 218434 253652 214304 169996 194768
3360.37 213950 317956 330194 261228 229012 227900
3363.27 199490 203988 302346 330702 301552 271550
3366.16 262656 210204 212622 222588 159870 185854
3369.05 199138 235948 322290 395742 350400 434296
3371.95 604108 635076 569748 467034 465954 450694
3374.84 418376 415484 485856 557646 543114 532632
3377.73 642196 655032 592768 617526 652232 722426
3380.62 803166 807356 776882 712172 751678 720608
3383.52 783082 836056 838868 999094 1095884 1116808
3386.41 1094376 1134840 1176944 1123336 1171838 1248776
3389.30 1285938 1274872 1258804 1245042 1230392 1370198
3392.19 1452874 1398852 1392656 1413004 1377614 1300882
3395.09 1153200 1054536 1118092 1261030 1203086 1118154
3397.98 1140122 1026424 1021936 1126900 1230100 1177622
3400.87 1146368 1250960 1333196 1312018 1301488 1423412
3403.77 1444660 1349952 1411652 1494988 1392728 1351704
3406.66 1446524 1438840 1416368 1402490 1374238 1300240
3409.55 1243324 1311042 1327470 1311426 1319438 1243424
3412.44 1145898 1096926 1024966 977258 892104 716702
3415.34 718164 762006 804022 877662 967358 901298
3418.23 786866 795150 814324 782306 770266 658310
3421.12 610262 659010 620364 614512 515108 415244
3424.01 433358 493362 437890 389560 366844 435690
3426.91 493248 476732 506686 443978 362756 317648
3429.80 329494 326798 327974 388300 414994 419776
3432.69 413052 442508 327112 231694 349352 458450
3435.59 442146 442360 469478 452574 432204 522544
3438.48 590144 633694 653688 647504 714608 737414
3441.37 702156 815064 838306 763396 783674 706564
3444.26 732530 705594 665368 770060 867504 954632
3447.16 811116 736376 786246 763526 654822 593466
3450.05 607830 618646 643912 594246 524602 493680
3452.94 602312 571514 350260 403768 501176 473926
3455.83 534292 503456 488164 589380 636328 615972
3458.73 596918 751872 883836 760258 697890 695740
3461.62 727724 727228 720016 714470 783396 762930
3464.51 761918 705258 586226 589450 773524 884110
3467.40 794298 656256 588740 625478 636452 599160
3470.30 545342 537468 506938 454962 421114 375966
3473.19 404036 473658 457520 374746 345390 297522
3476.08 228902 240670 319400 380640 369786 343088
3478.98 360076 379666 400452 412610 391020 478550
3481.87 561012 430866 270136 283604 310482 276832
3484.76 371664 390482 371140 327106 260648 349082
3487.65 442920 434744 482900 449864 453890 456432
3490.55 438672 394600 307892 273096 347440 379326
3493.44 308926 307480 420366 492270 476908 470580
3496.33 477782 381232 348286 416032 445964 473882
3499.22 532982 582906 556642 569660 559650 565332
3502.12 621298 698514 667626 647324 635642 545322
3505.01 489206 522130 591756 536678 453170 410844
3507.90 488252 652382 747234 739494 633288 530966
3510.80 555618 598358 540714 547442 574968 531562
3513.69 471698 521670 607382 615444 578682 581398
3516.58 653422 624566 588018 584772 614860 514992
3519.47 517894 570642 610432 635876 659864 683858
3522.37 692832 600712 528066 588542 668188 648662
3525.26 610914 607828 733858 858684 815636 751134
3528.15 848176 914456 742430 615828 695178 765684
3531.04 784680 741644 706604 762804 752554 749242
3533.94 696960 637236 615834 607242 781408 770018
3536.83 628420 667338 668566 660550 576650 547988
3539.72 614626 549948 476084 492228 456590 462682
3542.62 586026 642266 566294 533196 771264 896228
3545.51 684624 658816 900164 861516 697828 600160
3548.40 615628 715136 715226 711016 677774 643018
3551.29 756722 874094 744242 735148 863798 791962
3554.19 728590 678798 664950 736952 644044 518584
3557.08 512420 602148 561936 509310 567484 690294
3559.97 668040 607222 627656 639374 625630 558354
3562.86 641406 706208 633962 585410 727558 1042168
3565.76 1195526 1211980 964960 1303746 1688300 1090426
3568.65 666744 591286 563858 562614 536512 525240
3571.54 594714 618948 648704 633254 589212 592428
3574.44 720716 727766 627704 619682 728052 738220
3577.33 742822 730912 714556 686408 717134 679228
3580.22 694650 658296 541364 662302 761776 721302
3583.11 809506 839002 716516 655362 814470 1238734
3586.01 1949716 1675904 1068112 1069406 1853026 2050938
3588.90 1150064 894556 885540 873104 836864 841570
3591.79 856822 1124956 1339630 1181316 1016630 1124042
3594.68 1528480 1480818 1229242 1229716 1152828 1236856
3597.58 1380928 1348742 1207322 1324420 1385198 1390722
3600.47 1537264 1358084 1187570 1310524 1383164 1281274
3603.36 1153906 1240524 1326932 1319152 1140254 1127692
3606.26 1619586 1816768 1483084 1335898 1828656 3054800
3609.15 2434180 1399916 1249884 1022864 996366 1520466
3612.04 2317776 1895784 1288390 1320470 1643862 1569542
3614.93 1319872 1231644 1335802 1379818 1860804 2187488
3617.83 1842122 1777242 2693452 3083690 1907862 1521406
3620.72 1660400 1557616 1457584 1536348 1400218 1198086
3623.61 1133922 1221632 1286250 1147416 1068008 975216
3626.50 804864 982264 2283520 3282508 2557066 3629686
3629.40 3295964 1371574 820874 669098 731276 746748
3632.29 722180 747510 1153380 957016 529868 424048
3635.18 442218 362566 278636 265062 367942 418254
3638.08 403250 547478 785702 964494 1022242 929888
3640.97 973530 961606 886642 705002 558258 451616
3643.86 473846 512516 535080 474126 728246 1331316
3646.75 2132118 1768550 933002 1693678 3841744 2889000
3649.65 1221998 1641186 1945900 1510298 549742 232970
3652.54 218626 296138 168442 156318 174872 338788
3655.43 1555170 2409594 903134 57494 85752 204118
3658.32 90462 48004 71842 147940 148968 140512
3661.22 136700 107814 94588 125434 131622 153194
3664.11 81228 65748 57420 23090 28488 151388
3667.00 228306 398232 1275688 1670576 790596 732632
3669.90 2939322 4371958 1722866 248670-8386 67958
3672.79 100726 432974 1003268 2348738 2607704 3418624
3675.68 3935712 1505998 508166 433728 182362 107582
3678.57 472228 784300 442868 210198 113118 118266
3681.47 112764 172338 172140 188772 136304 176652
3684.36 184514 124390 18342 144046 242896 474454
3687.25 1367854 4510426 4602210 1398534 341540 384192
3690.14 844414 1707410 1563066 489816 166224 119216
3693.04 195650 194520 221800 133366 183026 276992
3695.93 385880 300378 220286 218078 259884 245784
3698.82 263844 275606 241830 174518 690078 1538186
3701.72 1125150 408698 326500 307522 203906 174604
3704.61 243186 238130 270610 216028 164258 121508
3707.50 204584 317134 1128304 1826856 970096 311628
3710.39 507272 893380 2594680 3447172 1416634 291936
3713.29 185676 291078 459814 340024 168478 160982
3716.18 130226 162726 205484 212860 423494 601276
3719.07 350342 236102 205890 198622 367028 899166
3721.96 1011832 542426 233746 150722 269144 487440
3724.86 447428 419926 1007742 1219344 487706 257316
3727.75 252536 183598 130874 259310 254114 220010
3730.64 356520 1496334 3205516 2145726 564316 361682
3733.54 623984 1455054 1964000 1643156 1058534 2335318
3736.43 2738768 849970 376714 707790 510620 301836
3739.32 320852 347934 545058 709962 436032 175910
3742.21 284520 539380 1861654 5289694 8044100 4920694
3745.11 1172350 273778 291864 458338 561724 505990
3748.00 789456 3353252 5550102 2866026 682336 531728
3750.89 1004752 4031056 5890094 2527550 532310 249454
3753.78 124424 21476 132556 242060 640568 881950
3756.68 445120 219762 286626 323504 592322 1287374
3759.57 1374012 482508 231840 258408 253150 132418
3762.46 142922 175272 183144 115828 233326 828456
3765.35 1295766 600938 140232-8458 10664 98376
3768.25 228754 606008 1685828 1541998 502776 225164
3771.14 175304 82320 84384 142550 159118 172264
3774.03 174742 81940 83732 93872 176168 183384
3776.93 118692 115280 180884 457312 1105662 971368
3779.82 309588 75760 95052 167740 155846 150168
3782.71 100342 132696 354364 523062 379972 246896
3785.60 268106 279030 159774 110924 139736 149756
3788.50 115030 162626 167860 187022 192148 215752
3791.39 251434 210144 153716 202774 222118 216598
3794.28 165690 167790 456088 1275048 1233578 523930
3797.17 390034 415592 281312 350272 461518 558984
3800.07 962570 3544366 5319976 2367072 655070 799832
3802.96 603846 388296 345428 333082 346650 469470
3805.85 1305518 3391174 3064368 876920 275990 170106
3808.75 266250 270008 232258 216236 342634 282726
3811.64 319552 255832 329554 306420 358176 366356
3814.53 577774 2169454 5342088 3903526 833066 295310
3817.42 366872 466852 453532 546512 776970 1716530
3820.32 2583962 2493570 2835820 1570060 519320 546064
3823.21 459218 444626 444384 409788 457330 615202
3826.10 1118668 1069600 624626 527102 439998 457536
3828.99 489804 484818 502226 728024 1553650 1757022
3831.89 755938 485064 455524 511468 820908 2027846
3834.78 1879682 850028 596596 707158 1820206 5308788
3837.67 4977966 1490686 624194 917490 1198006 1272412
3840.57 1705758 1030206 553400 646958 955872 1457958
3843.46 1546916 885026 673154 617642 624290 560066
3846.35 603622 659702 797604 730638 798692 967878
3849.24 1143388 884304 758586 1045506 3352732 5137104
3852.14 2753714 1643706 4175632 8096992 6842638 2309436
3855.03 772788 689690 817512 1175510 1190948 786894
3857.92 749390 734710 698974 715478 850542 821536
3860.81 1174636 1777212 1387680 853700 891322 984576
3863.71 1240996 2023816 2896122 1803282 996098 816732
3866.60 847676 831992 872010 1032304 1781356 2500962
3869.49 4024466 3303918 1304224 994808 980136 921134
3872.39 889496 1205364 1671390 2046734 1526302 1020864
3875.28 917434 798116 752182 833514 972256 972648
3878.17 930562 1070492 1574980 2371986 2140144 1451444
3881.06 1040306 816220 846560 1005890 1162062 1013650
3883.96 983130 1372856 3117094 3720396 2079712 1118072
3886.85 959864 959266 967026 923284 943050 983728
3889.74 1027992 1598536 2810664 2300074 1298288 1154750
3892.63 953326 831502 953862 879762 806254 819786
3895.53 718004 704174 798164 961206 1038212 1095478
3898.42 1750392 2544250 1766754 1027538 978402 1690024
3901.31 2795660 2131134 1280644 1186930 1998218 3043792
3904.21 2021394 1064114 1180142 1343544 1073590 868020
3907.10 886118 904086 940592 981622 948556 890476
3909.99 839868 832544 832740 859364 857960 824202
3912.88 833434 827174 785242 758932 730386 803678
3915.78 1014208 1278004 1718950 1402746 867496 846486
3918.67 874316 1111940 1411906 1065566 826628 847980
3921.56 821914 843580 868150 968572 1014324 1112996
3924.45 1395680 1297634 893918 819082 941022 990800
3927.35 917842 960694 1058208 1118294 1096552 1114354
3930.24 1149480 1037672 1038854 1428560 1510394 1036056
3933.13 908706 1055144 1089498 1009316 978234 1042040
3936.03 991400 813720 855826 1021214 1030870 958360
3938.92 933046 919286 872436 957392 991604 931518
3941.81 1176120 1415964 1210534 1017964 999718 1021718
3944.70 1084272 1123916 1121516 1069828 1136962 1296906
3947.60 1356148 1355002 1371094 1119368 957888 1036354
3950.49 1110132 1132980 1091324 1061152 1235716 1343618
3953.38 1291608 1197318 1178966 1204858 1226390 1226572
3956.27 1342804 1312396 1238068 1239238 1212202 1272018
3959.17 1364426 1424054 1490732 1520702 1610026 1591648
3962.06 1476840 1545050 1626956 1725152 1787856 1836282
3964.95 1838774 1867754 1916894 1947502 2098400 2198570
3967.85 2190370 2363420 2473782 2491834 2634626 2691344
3970.74 2674050 2745340 2888428 3006198 3088054 3114006
3973.63 3129426 3145302 3146992
##END=
