##TITLE=1-PROPENE, 3-BROMO-
##JCAMP-DX=4.24
##DATA TYPE=INFRARED SPECTRUM
##CLASS=COBLENTZ III
##ORIGIN=DOW CHEMICAL COMPANY
##OWNER=COBLENTZ SOCIETY
Collection (C) 2018 copyright by the U.S. Secretary of Commerce
on behalf of the United States of America. All rights reserved.
##DATE=1962/09/26
##NAMES=3-bromo-1-propene
##CAS REGISTRY NO=106-95-6
##MOLFORM=C3 H5 Br
##SOURCE REFERENCE=COBLENTZ NO. 10034
##$NIST SOURCE=COBLENTZ
##$NIST IMAGE=cob10034
##SPECTROMETER/DATA SYSTEM=DOW KBr FOREPRISM-GRATING
##INSTRUMENT PARAMETERS=BLAZED AT 3.5, 12.0, 20.0 MICRON, CHANGED AT 5.0, 7.5, 14.9 MICRON
##STATE=SOLUTION (10% IN CCl4 FOR 3800-1340 AND 10% IN CS2 FOR 1340-400 CM^-^1)
##PATH LENGTH=0.011, 0.011 CM
$$SPECTRAL CONTAMINATION DUE TO CCl4 AROUND 1550 CM^-^1
##SAMPLING PROCEDURE=TRANSMISSION
##RESOLUTION=4
##DATA PROCESSING=DIGITIZED BY NIST FROM HARD COPY (FROM TWO SEGMENTS)
##XUNITS=1/CM
##YUNITS=TRANSMITTANCE
##XFACTOR=1.000000
##YFACTOR=1
##DELTAX=0.870069
##FIRSTX=381.671
##LASTX=3795.82
##FIRSTY=0.746
##MAXX=3795.82
##MINX=381.671
##MAXY=1.10792
##MINY=0.062
##NPOINTS=3925
##XYDATA=(X++(Y..Y))
381.671000 0.7460 0.7460 0.7450 0.7450 0.7450
386.021347 0.7470 0.7470 0.7490 0.7490 0.7490
390.371694 0.7490 0.7470 0.7470 0.7490 0.7500
394.722040 0.7520 0.7520 0.7540 0.7570 0.7600
399.072387 0.7610 0.7640 0.7670 0.7730 0.7800
403.422734 0.7880 0.7940 0.7990 0.8100 0.8219
407.773081 0.8310 0.8370 0.8510 0.8560 0.8690
412.123427 0.8710 0.8770 0.8840 0.8910 0.8970
416.473774 0.9030 0.9100 0.9160 0.9290 0.9290
420.824121 0.9310 0.9350 0.9380 0.9420 0.9440
425.174468 0.9460 0.9480 0.9500 0.9520 0.9530
429.524815 0.9560 0.9570 0.9570 0.9600 0.9610
433.875161 0.9640 0.9650 0.9650 0.9670 0.9680
438.225508 0.9680 0.9700 0.9710 0.9720 0.9740
442.575855 0.9750 0.9760 0.9760 0.9780 0.9780
446.926202 0.9780 0.9790 0.9790 0.9790 0.9790
451.276548 0.9790 0.9790 0.9790 0.9790 0.9790
455.626895 0.9790 0.9800 0.9800 0.9800 0.9820
459.977242 0.9820 0.9830 0.9860 0.9900 0.9910
464.327589 0.9940 0.9940 0.9970 0.9980 1.0000
468.677935 1.0010 1.0010 1.0040 1.0040 1.0050
473.028282 1.0050 1.0060 1.0060 1.0080 1.0080
477.378629 1.0080 1.0080 1.0090 1.0090 1.0090
481.728976 1.0090 1.0090 1.0090 1.0090 1.0090
486.079323 1.0080 1.0080 1.0080 1.0080 1.0080
490.429669 1.0060 1.0060 1.0060 1.0060 1.0050
494.780016 1.0050 1.0040 1.0040 1.0020 1.0020
499.130363 1.0010 1.0000 1.0000 0.9980 0.9980
503.480710 0.9970 0.9970 0.9970 0.9940 0.9940
507.831056 0.9930 0.9910 0.9900 0.9900 0.9890
512.181403 0.9860 0.9820 0.9800 0.9790 0.9780
516.531750 0.9760 0.9720 0.9680 0.9640 0.9600
520.882097 0.9570 0.9550 0.9460 0.9440 0.9370
525.232444 0.9330 0.9260 0.9150 0.9040 0.8931
529.582790 0.8890 0.8700 0.8510 0.8350 0.8170
533.933137 0.7990 0.7940 0.7761 0.7680 0.7650
538.283484 0.7650 0.7680 0.7770 0.7910 0.8020
542.633831 0.8220 0.8310 0.8460 0.8619 0.8799
546.984177 0.8950 0.9080 0.9160 0.9230 0.9350
551.334524 0.9480 0.9550 0.9610 0.9670 0.9700
555.684871 0.9760 0.9800 0.9850 0.9860 0.9900
560.035218 0.9930 0.9940 1.0020 1.0020 1.0040
564.385565 1.0060 1.0080 1.0090 1.0100 1.0120
568.735911 1.0120 1.0130 1.0140 1.0170 1.0170
573.086258 1.0190 1.0190 1.0190 1.0190 1.0190
577.436605 1.0200 1.0200 1.0210 1.0210 1.0230
581.786952 1.0230 1.0240 1.0240 1.0240 1.0250
586.137298 1.0250 1.0250 1.0270 1.0270 1.0270
590.487645 1.0270 1.0270 1.0270 1.0270 1.0270
594.837992 1.0270 1.0270 1.0270 1.0270 1.0270
599.188339 1.0270 1.0270 1.0270 1.0270 1.0270
603.538685 1.0270 1.0270 1.0280 1.0280 1.0280
607.889032 1.0290 1.0310 1.0350 1.0340 1.0280
612.239379 1.0270 1.0250 1.0250 1.0250 1.0250
616.589726 1.0250 1.0240 1.0240 1.0240 1.0230
620.940073 1.0230 1.0210 1.0200 1.0190 1.0190
625.290419 1.0160 1.0140 1.0140 1.0130 1.0120
629.640766 1.0100 1.0080 1.0040 1.0010 1.0010
633.991113 1.0000 0.9980 0.9910 0.9890 0.9830
638.341460 0.9790 0.9780 0.9740 0.9700 0.9640
642.691806 0.9600 0.9550 0.9480 0.9440 0.9380
647.042153 0.9330 0.9290 0.9220 0.9200 0.9190
651.392500 0.9150 0.9120 0.9100 0.9080 0.9070
655.742847 0.9070 0.9070 0.9080 0.9080 0.9110
660.093194 0.9110 0.9120 0.9110 0.9100 0.9070
664.443540 0.9030 0.9000 0.8950 0.8910 0.8761
668.793887 0.8560 0.8520 0.8500 0.8460 0.8280
673.144234 0.7722 0.7471 0.7301 0.7051 0.6781
677.494581 0.6480 0.6170 0.5790 0.5570 0.5011
681.844927 0.4351 0.4031 0.3661 0.3092 0.2562
686.195274 0.2200 0.1880 0.1810 0.1810 0.2010
690.545621 0.2319 0.2719 0.3218 0.3608 0.3889
694.895968 0.4150 0.4900 0.5739 0.6109 0.6479
699.246315 0.6849 0.7169 0.7499 0.7789 0.8019
703.596661 0.8220 0.8360 0.8580 0.8710 0.8850
707.947008 0.8950 0.9070 0.9150 0.9160 0.9289
712.297355 0.9340 0.9410 0.9440 0.9480 0.9530
716.647702 0.9560 0.9590 0.9610 0.9670 0.9680
720.998048 0.9720 0.9760 0.9780 0.9790 0.9800
725.348395 0.9860 0.9870 0.9900 0.9910 0.9930
729.698742 0.9940 0.9950 1.0010 1.0010 1.0020
734.049089 1.0020 1.0040 1.0050 1.0050 1.0050
738.399435 1.0060 1.0080 1.0090 1.0090 1.0100
742.749782 1.0100 1.0120 1.0120 1.0130 1.0140
747.100129 1.0140 1.0160 1.0160 1.0160 1.0160
751.450476 1.0160 1.0160 1.0160 1.0160 1.0140
755.800823 1.0140 1.0140 1.0140 1.0140 1.0140
760.151169 1.0160 1.0160 1.0170 1.0170 1.0170
764.501516 1.0170 1.0190 1.0190 1.0190 1.0200
768.851863 1.0210 1.0210 1.0200 1.0190 1.0190
773.202210 1.0170 1.0170 1.0160 1.0160 1.0140
777.552556 1.0140 1.0170 1.0190 1.0200 1.0200
781.902903 1.0190 1.0170 1.0170 1.0160 1.0140
786.253250 1.0140 1.0140 1.0130 1.0130 1.0130
790.603597 1.0140 1.0140 1.0160 1.0160 1.0160
794.953944 1.0170 1.0170 1.0170 1.0170 1.0190
799.304290 1.0190 1.0190 1.0190 1.0190 1.0170
803.654637 1.0170 1.0170 1.0170 1.0170 1.0170
808.004984 1.0170 1.0170 1.0170 1.0160 1.0160
812.355331 1.0160 1.0160 1.0160 1.0170 1.0190
816.705677 1.0200 1.0200 1.0210 1.0210 1.0230
821.056024 1.0230 1.0230 1.0230 1.0230 1.0210
825.406371 1.0210 1.0200 1.0200 1.0190 1.0190
829.756718 1.0170 1.0160 1.0140 1.0130 1.0120
834.107065 1.0090 1.0060 1.0020 1.0010 1.0000
838.457411 0.9980 0.9910 0.9890 0.9800 0.9760
842.807758 0.9670 0.9630 0.9550 0.9440 0.9350
847.158105 0.9300 0.9180 0.9110 0.9080 0.8891
851.508452 0.8710 0.8590 0.8480 0.8430 0.8360
855.858798 0.8310 0.8260 0.8220 0.8160 0.8140
860.209145 0.8110 0.7990 0.7920 0.7640 0.7381
864.559492 0.7350 0.7270 0.7001 0.7000 0.7418
868.909839 0.7600 0.7610 0.7770 0.8069 0.8439
873.260185 0.8520 0.8610 0.8710 0.8800 0.8890
877.610532 0.8950 0.9010 0.9040 0.9100 0.9150
881.960879 0.9190 0.9250 0.9270 0.9310 0.9340
886.311226 0.9400 0.9410 0.9450 0.9480 0.9490
890.661573 0.9520 0.9550 0.9560 0.9560 0.9550
895.011919 0.9550 0.9530 0.9530 0.9500 0.9460
899.362266 0.9440 0.9410 0.9370 0.9290 0.9220
903.712613 0.9150 0.9100 0.8960 0.8910 0.8710
908.062960 0.8520 0.8350 0.8290 0.8031 0.7751
912.413306 0.7230 0.7120 0.6660 0.6300 0.5611
916.763653 0.5141 0.4562 0.3952 0.3064 0.2114
921.114000 0.1190 0.1020 0.0940 0.0840 0.0620
925.464347 0.0620 0.1108 0.1578 0.2038 0.2279
929.814694 0.2540 0.3100 0.3660 0.4100 0.4410
934.165040 0.4829 0.5538 0.5909 0.6189 0.6469
938.515387 0.6700 0.6880 0.7000 0.7310 0.7520
942.865734 0.7670 0.7760 0.7880 0.8029 0.8140
947.216081 0.8290 0.8400 0.8510 0.8620 0.8700
951.566427 0.8800 0.8860 0.8920 0.8970 0.9010
955.916774 0.9030 0.9050 0.9050 0.9040 0.9030
960.267121 0.9010 0.8990 0.8930 0.8880 0.8771
964.617468 0.8710 0.8630 0.8500 0.8350 0.8310
968.967815 0.8130 0.8010 0.7751 0.7501 0.7241
973.318161 0.7160 0.6960 0.6680 0.6450 0.5921
977.668508 0.5501 0.5091 0.4851 0.3884 0.3621
982.018855 0.3620 0.3770 0.4010 0.4399 0.5019
986.369202 0.5907 0.6299 0.6698 0.7038 0.7368
990.719548 0.7670 0.7990 0.8320 0.8440 0.8590
995.069895 0.8859 0.8960 0.9110 0.9180 0.9270
999.420242 0.9340 0.9380 0.9440 0.9480 0.9530
1003.770589 0.9570 0.9590 0.9610 0.9640 0.9670
1008.120935 0.9700 0.9720 0.9750 0.9760 0.9790
1012.471282 0.9800 0.9820 0.9830 0.9830 0.9850
1016.821629 0.9850 0.9860 0.9870 0.9870 0.9890
1021.171976 0.9900 0.9900 0.9900 0.9900 0.9900
1025.522323 0.9900 0.9900 0.9910 0.9940 0.9940
1029.872669 0.9950 0.9950 0.9970 0.9970 0.9980
1034.223016 0.9980 0.9980 0.9980 0.9980 0.9980
1038.573363 0.9980 0.9980 0.9980 0.9970 0.9970
1042.923710 0.9970 0.9970 0.9970 0.9950 0.9950
1047.274056 0.9950 0.9950 0.9950 0.9950 0.9950
1051.624403 0.9940 0.9930 0.9930 0.9930 0.9910
1055.974750 0.9910 0.9900 0.9890 0.9870 0.9860
1060.325097 0.9860 0.9800 0.9780 0.9750 0.9720
1064.675444 0.9680 0.9630 0.9550 0.9490 0.9410
1069.025790 0.9340 0.9260 0.9200 0.9190 0.9200
1073.376137 0.9230 0.9350 0.9440 0.9550 0.9600
1077.726484 0.9670 0.9720 0.9760 0.9790 0.9860
1082.076831 0.9890 0.9940 0.9940 0.9980 1.0000
1086.427177 1.0010 1.0020 1.0040 1.0040 1.0050
1090.777524 1.0060 1.0090 1.0100 1.0100 1.0100
1095.127871 1.0120 1.0120 1.0120 1.0120 1.0120
1099.478218 1.0130 1.0140 1.0160 1.0170 1.0170
1103.828565 1.0170 1.0190 1.0190 1.0190 1.0190
1108.178911 1.0200 1.0200 1.0200 1.0200 1.0200
1112.529258 1.0200 1.0200 1.0190 1.0190 1.0190
1116.879605 1.0190 1.0170 1.0170 1.0160 1.0160
1121.229952 1.0170 1.0170 1.0170 1.0190 1.0170
1125.580298 1.0190 1.0190 1.0200 1.0200 1.0200
1129.930645 1.0200 1.0200 1.0200 1.0190 1.0170
1134.280992 1.0170 1.0160 1.0160 1.0140 1.0140
1138.631339 1.0140 1.0140 1.0130 1.0120 1.0100
1142.981685 1.0080 1.0060 1.0050 1.0040 1.0040
1147.332032 1.0020 1.0020 1.0010 1.0010 1.0010
1151.682379 1.0010 1.0020 1.0040 1.0050 1.0050
1156.032726 1.0050 1.0050 1.0040 1.0040 1.0020
1160.383073 1.0020 1.0010 1.0010 1.0000 1.0000
1164.733419 0.9980 0.9970 0.9940 0.9930 0.9900
1169.083766 0.9890 0.9870 0.9800 0.9780 0.9760
1173.434113 0.9740 0.9680 0.9630 0.9570 0.9550
1177.784460 0.9490 0.9420 0.9370 0.9330 0.9250
1182.134806 0.9150 0.9080 0.8960 0.8910 0.8770
1186.485153 0.8690 0.8501 0.8361 0.8310 0.8161
1190.835500 0.8070 0.7940 0.7910 0.7880 0.7840
1195.185847 0.7790 0.7750 0.7670 0.7521 0.7311
1199.536194 0.7130 0.6820 0.6380 0.5841 0.5191
1203.886540 0.4781 0.2776 0.2381 0.1643 0.1560
1208.236887 0.1000 0.0890 0.0790 0.1179 0.2417
1212.587234 0.2859 0.3538 0.3958 0.4547 0.5824
1216.937581 0.6320 0.6750 0.7130 0.7450 0.7750
1221.287927 0.7990 0.8209 0.8399 0.8559 0.8709
1225.638274 0.8820 0.8920 0.9000 0.9080 0.9140
1229.988621 0.9180 0.9220 0.9250 0.9260 0.9270
1234.338968 0.9290 0.9310 0.9310 0.9310 0.9300
1238.689315 0.9290 0.9270 0.9260 0.9220 0.9190
1243.039661 0.9120 0.9070 0.9030 0.8990 0.8960
1247.390008 0.8920 0.8910 0.8920 0.9010 0.9100
1251.740355 0.9200 0.9290 0.9350 0.9420 0.9460
1256.090702 0.9520 0.9550 0.9590 0.9630 0.9650
1260.441048 0.9670 0.9710 0.9720 0.9740 0.9750
1264.791395 0.9760 0.9760 0.9780 0.9790 0.9800
1269.141742 0.9820 0.9850 0.9860 0.9860 0.9860
1273.492089 0.9850 0.9850 0.9850 0.9850 0.9830
1277.842435 0.9830 0.9830 0.9830 0.9830 0.9830
1282.192782 0.9820 0.9800 0.9790 0.9790 0.9780
1286.543129 0.9760 0.9760 0.9760 0.9720 0.9710
1290.893476 0.9680 0.9650 0.9640 0.9630 0.9610
1295.243823 0.9600 0.9600 0.9610 0.9630 0.9640
1299.594169 0.9650 0.9680 0.9710 0.9750 0.9780
1303.944516 0.9800 0.9820 0.9850 0.9870 0.9890
1308.294863 0.9910 0.9910 0.9940 0.9970 1.0000
1312.645210 1.0010 1.0010 1.0020 1.0020 1.0040
1316.995556 1.0040 1.0040 1.0040 1.0050 1.0050
1321.345903 1.0050 1.0040 1.0040 1.0040 1.0040
1325.696250 1.0040 1.0020 1.0020 1.0020 1.0020
1330.046597 1.0040 1.0040 1.0040 1.0040 1.0040
1334.396944 1.0040 1.0050 1.0050 1.0040 1.0040
1338.747290 1.0050 1.0050 1.0050 1.0050 1.0050
1343.097637 1.0050 1.0040 1.0040 1.0040 1.0020
1347.447984 1.0020 1.0010 1.0010 1.0010 1.0010
1351.798331 1.0010 1.0010 1.0010 1.0010 1.0010
1356.148677 1.0010 1.0000 1.0000 0.9970 0.9950
1360.499024 0.9950 0.9940 0.9940 0.9910 0.9900
1364.849371 0.9890 0.9860 0.9850 0.9850 0.9830
1369.199718 0.9800 0.9790 0.9750 0.9740 0.9720
1373.550065 0.9710 0.9680 0.9650 0.9630 0.9610
1377.900411 0.9610 0.9610 0.9600 0.9600 0.9590
1382.250758 0.9570 0.9570 0.9570 0.9560 0.9550
1386.601105 0.9550 0.9530 0.9530 0.9520 0.9500
1390.951452 0.9490 0.9480 0.9450 0.9440 0.9400
1395.301798 0.9370 0.9350 0.9310 0.9230 0.9160
1399.652145 0.9110 0.9000 0.8890 0.8690 0.8520
1404.002492 0.8330 0.8101 0.7861 0.7561 0.7222
1408.352839 0.6850 0.6430 0.5951 0.5571 0.5570
1412.703185 0.5730 0.6228 0.6658 0.7307 0.7718
1417.053532 0.8050 0.8330 0.8510 0.8660 0.8690
1421.403879 0.8810 0.8890 0.8930 0.8960 0.9010
1425.754226 0.9030 0.9040 0.9070 0.9080 0.9070
1430.104573 0.9040 0.9040 0.8990 0.8930 0.8910
1434.454919 0.8890 0.8810 0.8670 0.8520 0.8440
1438.805266 0.8280 0.8031 0.7841 0.7412 0.6893
1443.155613 0.6700 0.6101 0.6020 0.6020 0.6229
1447.505960 0.6679 0.7049 0.7339 0.7649 0.7938
1451.856306 0.8280 0.8520 0.8730 0.8880 0.9010
1456.206653 0.9120 0.9190 0.9220 0.9250 0.9250
1460.557000 0.9260 0.9300 0.9350 0.9420 0.9450
1464.907347 0.9480 0.9490 0.9480 0.9490 0.9500
1469.257694 0.9530 0.9560 0.9600 0.9610 0.9610
1473.608040 0.9630 0.9610 0.9610 0.9570 0.9570
1477.958387 0.9640 0.9640 0.9650 0.9650 0.9650
1482.308734 0.9640 0.9640 0.9630 0.9610 0.9600
1486.659081 0.9590 0.9570 0.9550 0.9520 0.9480
1491.009427 0.9440 0.9370 0.9310 0.9300 0.9260
1495.359774 0.9250 0.9220 0.9190 0.9150 0.9080
1499.710121 0.9070 0.9030 0.8950 0.8890 0.8840
1504.060468 0.8840 0.8770 0.8710 0.8670 0.8550
1508.410815 0.8330 0.8240 0.8210 0.8200 0.8160
1512.761161 0.8130 0.8110 0.8030 0.7990 0.7950
1517.111508 0.7920 0.7820 0.7720 0.7650 0.7600
1521.461855 0.7580 0.7460 0.7350 0.7280 0.7270
1525.812202 0.7260 0.7240 0.7170 0.7130 0.7080
1530.162548 0.7050 0.6970 0.6930 0.6860 0.6780
1534.512895 0.6730 0.6590 0.6450 0.6430 0.6301
1538.863242 0.6170 0.6070 0.5770 0.5620 0.5550
1543.213589 0.5490 0.5390 0.5350 0.5250 0.5210
1547.563935 0.5130 0.5100 0.5080 0.5050 0.5010
1551.914282 0.5000 0.5010 0.5050 0.5100 0.5130
1556.264629 0.5210 0.5280 0.5360 0.5430 0.5470
1560.614976 0.5610 0.5730 0.5919 0.5980 0.6060
1564.965323 0.6180 0.6300 0.6430 0.6510 0.6600
1569.315669 0.6700 0.6730 0.6750 0.6879 0.6930
1573.666016 0.6960 0.6980 0.7000 0.7010 0.7050
1578.016363 0.7050 0.7080 0.7090 0.7150 0.7170
1582.366710 0.7200 0.7220 0.7230 0.7260 0.7300
1586.717056 0.7340 0.7390 0.7430 0.7470 0.7530
1591.067403 0.7620 0.7690 0.7750 0.7820 0.7900
1595.417750 0.7980 0.8060 0.8160 0.8240 0.8320
1599.768097 0.8390 0.8500 0.8660 0.8740 0.8810
1604.118444 0.8860 0.8920 0.8970 0.9080 0.9140
1608.468790 0.9190 0.9230 0.9260 0.9310 0.9350
1612.819137 0.9410 0.9440 0.9460 0.9480 0.9530
1617.169484 0.9530 0.9440 0.9450 0.9520 0.9550
1621.519831 0.9630 0.9640 0.9670 0.9640 0.9610
1625.870177 0.9650 0.9710 0.9720 0.9700 0.9700
1630.220524 0.9700 0.9680 0.9630 0.9550 0.9520
1634.570871 0.9420 0.9350 0.8970 0.8561 0.8291
1638.921218 0.8140 0.8140 0.8409 0.8739 0.9118
1643.271565 0.9290 0.9340 0.9350 0.9260 0.9230
1647.621911 0.9230 0.9260 0.9449 0.9570 0.9610
1651.972258 0.9760 0.9750 0.9720 0.9740 0.9860
1656.322605 0.9930 1.0060 1.0090 1.0100 1.0100
1660.672952 1.0100 1.0050 1.0010 1.0010 1.0090
1665.023298 1.0100 1.0100 1.0090 1.0090 1.0050
1669.373645 1.0020 1.0000 1.0060 1.0060 1.0080
1673.723992 1.0080 1.0040 0.9980 0.9950 1.0010
1678.074339 1.0080 1.0090 1.0080 1.0060 1.0050
1682.424685 1.0020 0.9980 0.9910 0.9910 1.0039
1686.775032 1.0080 1.0080 1.0060 1.0080 1.0090
1691.125379 1.0120 1.0130 1.0130 1.0120 1.0060
1695.475726 1.0000 0.9970 1.0100 1.0100 0.9980
1699.826073 0.9850 0.9850 0.9930 0.9900 1.0049
1704.176419 1.0050 1.0060 1.0080 1.0090 1.0120
1708.526766 1.0120 1.0120 1.0120 1.0100 1.0100
1712.877113 1.0080 1.0020 1.0010 1.0000 0.9980
1717.227460 0.9940 0.9910 1.0010 1.0010 1.0010
1721.577806 1.0000 1.0000 1.0000 1.0000 0.9940
1725.928153 0.9930 0.9910 0.9900 0.9890 0.9870
1730.278500 0.9870 0.9870 0.9780 0.9740 0.9750
1734.628847 0.9780 0.9870 0.9900 0.9910 0.9910
1738.979194 0.9910 0.9940 0.9940 0.9980 1.0010
1743.329540 1.0020 1.0040 1.0050 1.0060 1.0060
1747.679887 1.0080 1.0090 1.0100 1.0130 1.0140
1752.030234 1.0170 1.0170 1.0170 1.0170 1.0190
1756.380581 1.0200 1.0200 1.0200 1.0200 1.0200
1760.730927 1.0210 1.0230 1.0250 1.0270 1.0280
1765.081274 1.0280 1.0240 1.0240 1.0240 1.0230
1769.431621 1.0230 1.0210 1.0230 1.0240 1.0280
1773.781968 1.0290 1.0290 1.0310 1.0310 1.0310
1778.132315 1.0310 1.0310 1.0310 1.0320 1.0320
1782.482661 1.0290 1.0280 1.0310 1.0320 1.0320
1786.833008 1.0310 1.0310 1.0280 1.0250 1.0240
1791.183355 1.0240 1.0250 1.0290 1.0290 1.0290
1795.533702 1.0290 1.0280 1.0280 1.0280 1.0280
1799.884048 1.0280 1.0310 1.0290 1.0290 1.0290
1804.234395 1.0280 1.0280 1.0280 1.0280 1.0270
1808.584742 1.0270 1.0270 1.0270 1.0270 1.0250
1812.935089 1.0270 1.0270 1.0270 1.0270 1.0250
1817.285435 1.0250 1.0250 1.0240 1.0250 1.0240
1821.635782 1.0230 1.0230 1.0210 1.0200 1.0190
1825.986129 1.0170 1.0160 1.0140 1.0130 1.0130
1830.336476 1.0120 1.0120 1.0100 1.0100 1.0090
1834.686823 1.0060 1.0050 1.0020 1.0010 1.0000
1839.037169 0.9980 0.9970 0.9910 0.9860 0.9780
1843.387516 0.9720 0.9710 0.9680 0.9640 0.9590
1847.737863 0.9560 0.9490 0.9480 0.9420 0.9350
1852.088210 0.9330 0.9300 0.9300 0.9290 0.9270
1856.438556 0.9290 0.9290 0.9310 0.9340 0.9350
1860.788903 0.9380 0.9420 0.9460 0.9490 0.9520
1865.139250 0.9530 0.9570 0.9570 0.9610 0.9630
1869.489597 0.9650 0.9700 0.9720 0.9760 0.9820
1873.839944 0.9850 0.9890 0.9910 0.9970 1.0020
1878.190290 1.0020 1.0040 1.0060 1.0080 1.0100
1882.540637 1.0120 1.0130 1.0130 1.0140 1.0140
1886.890984 1.0160 1.0160 1.0160 1.0160 1.0170
1891.241331 1.0190 1.0190 1.0190 1.0190 1.0190
1895.591677 1.0190 1.0200 1.0210 1.0210 1.0210
1899.942024 1.0210 1.0230 1.0230 1.0230 1.0230
1904.292371 1.0230 1.0240 1.0240 1.0240 1.0250
1908.642718 1.0250 1.0250 1.0250 1.0250 1.0250
1912.993065 1.0250 1.0250 1.0250 1.0250 1.0250
1917.343411 1.0250 1.0270 1.0270 1.0270 1.0270
1921.693758 1.0270 1.0270 1.0280 1.0280 1.0280
1926.044105 1.0280 1.0280 1.0280 1.0280 1.0280
1930.394452 1.0270 1.0270 1.0270 1.0250 1.0250
1934.744798 1.0250 1.0250 1.0240 1.0240 1.0230
1939.095145 1.0230 1.0230 1.0230 1.0230 1.0230
1943.445492 1.0240 1.0230 1.0230 1.0230 1.0240
1947.795839 1.0240 1.0270 1.0290 1.0420 1.0400
1952.146185 1.0360 1.0280 1.0250 1.0210 1.0200
1956.496532 1.0200 1.0390 1.0580 1.0770 1.1079
1960.846879 1.0831 1.0651 1.0242 1.0170 1.0130
1965.197226 1.0120 1.0100 1.0090 1.0090 1.0090
1969.547573 1.0090 1.0090 1.0100 1.0100 1.0100
1973.897919 1.0090 1.0060 1.0060 1.0050 1.0040
1978.248266 1.0020 1.0020 1.0020 1.0020 1.0050
1982.598613 1.0060 1.0060 1.0080 1.0080 1.0060
1986.948960 1.0050 1.0050 1.0040 1.0040 1.0040
1991.299306 1.0040 1.0020 1.0010 0.9980 0.9950
1995.649653 0.9870 0.9870 1.0049 1.0100 1.0130
2000.000000 1.0140 1.0170 1.0200 1.0255 1.0310
2004.350347 1.0365 1.0420 1.0445 1.0470 1.0490
2008.700694 1.0510 1.0525 1.0540 1.0555 1.0570
2013.051040 1.0570 1.0570 1.0560 1.0550 1.0550
2017.401387 1.0550 1.0550 1.0550 1.0560 1.0570
2021.751734 1.0575 1.0580 1.0585 1.0590 1.0600
2026.102081 1.0610 1.0610 1.0610 1.0615 1.0620
2030.452427 1.0620 1.0620 1.0639 1.0659 1.0689
2034.802774 1.0720 1.0779 1.0839 1.0860 1.0880
2039.153121 1.0821 1.0761 1.0672 1.0582 1.0575
2043.503468 1.0570 1.0560 1.0550 1.0550 1.0550
2047.853815 1.0565 1.0579 1.0580 1.0580 1.0575
2052.204161 1.0570 1.0560 1.0550 1.0550 1.0550
2056.554508 1.0550 1.0550 1.0550 1.0550 1.0545
2060.904855 1.0540 1.0540 1.0540 1.0540 1.0540
2065.255202 1.0540 1.0540 1.0540 1.0540 1.0540
2069.605548 1.0540 1.0540 1.0540 1.0540 1.0540
2073.955895 1.0540 1.0540 1.0540 1.0540 1.0540
2078.306242 1.0540 1.0545 1.0550 1.0560 1.0570
2082.656589 1.0570 1.0570 1.0570 1.0570 1.0570
2087.006935 1.0570 1.0570 1.0570 1.0570 1.0570
2091.357282 1.0570 1.0570 1.0570 1.0570 1.0570
2095.707629 1.0570 1.0575 1.0580 1.0580 1.0580
2100.057976 1.0585 1.0590 1.0585 1.0580 1.0580
2104.408323 1.0580 1.0580 1.0580 1.0575 1.0570
2108.758669 1.0575 1.0580 1.0575 1.0570 1.0570
2113.109016 1.0570 1.0570 1.0570 1.0561 1.0551
2117.459363 1.0550 1.0550 1.0550 1.0550 1.0550
2121.809710 1.0550 1.0545 1.0540 1.0540 1.0540
2126.160056 1.0540 1.0540 1.0540 1.0540 1.0540
2130.510403 1.0540 1.0535 1.0530 1.0521 1.0511
2134.860750 1.0510 1.0510 1.0505 1.0500 1.0500
2139.211097 1.0500 1.0500 1.0500 1.0495 1.0490
2143.561444 1.0481 1.0471 1.0470 1.0470 1.0470
2147.911790 1.0470 1.0470 1.0470 1.0470 1.0470
2152.262137 1.0479 1.0489 1.0490 1.0490 1.0495
2156.612484 1.0500 1.0505 1.0510 1.0510 1.0510
2160.962831 1.0510 1.0510 1.0510 1.0510 1.0505
2165.313177 1.0500 1.0495 1.0490 1.0490 1.0490
2169.663524 1.0481 1.0471 1.0465 1.0460 1.0460
2174.013871 1.0460 1.0460 1.0460 1.0460 1.0460
2178.364218 1.0460 1.0460 1.0460 1.0460 1.0460
2182.714565 1.0460 1.0460 1.0460 1.0460 1.0460
2187.064911 1.0460 1.0460 1.0465 1.0470 1.0479
2191.415258 1.0489 1.0481 1.0471 1.0470 1.0470
2195.765605 1.0470 1.0470 1.0470 1.0470 1.0465
2200.115952 1.0460 1.0465 1.0470 1.0465 1.0460
2204.466298 1.0460 1.0460 1.0460 1.0460 1.0460
2208.816645 1.0460 1.0460 1.0460 1.0460 1.0460
2213.166992 1.0451 1.0441 1.0440 1.0440 1.0440
2217.517339 1.0440 1.0440 1.0440 1.0440 1.0440
2221.867685 1.0440 1.0440 1.0440 1.0440 1.0449
2226.218032 1.0459 1.0460 1.0460 1.0465 1.0470
2230.568379 1.0470 1.0470 1.0466 1.0461 1.0460
2234.918726 1.0460 1.0460 1.0460 1.0460 1.0460
2239.269073 1.0460 1.0460 1.0460 1.0460 1.0460
2243.619419 1.0460 1.0447 1.0432 1.0430 1.0430
2247.969766 1.0426 1.0421 1.0407 1.0392 1.0377
2252.320113 1.0362 1.0356 1.0351 1.0350 1.0350
2256.670460 1.0350 1.0350 1.0354 1.0359 1.0360
2261.020806 1.0360 1.0356 1.0351 1.0337 1.0322
2265.371153 1.0316 1.0311 1.0310 1.0310 1.0297
2269.721500 1.0282 1.0276 1.0271 1.0261 1.0251
2274.071847 1.0246 1.0241 1.0236 1.0231 1.0230
2278.422194 1.0230 1.0230 1.0230 1.0221 1.0211
2282.772540 1.0206 1.0201 1.0196 1.0191 1.0190
2287.122887 1.0190 1.0190 1.0190 1.0181 1.0171
2291.473234 1.0170 1.0170 1.0170 1.0170 1.0170
2295.823581 1.0170 1.0170 1.0170 1.0166 1.0161
2300.173927 1.0151 1.0141 1.0140 1.0140 1.0140
2304.524274 1.0140 1.0140 1.0140 1.0140 1.0140
2308.874621 1.0140 1.0140 1.0136 1.0131 1.0130
2313.224968 1.0130 1.0130 1.0130 1.0130 1.0130
2317.575315 1.0134 1.0139 1.0140 1.0140 1.0149
2321.925661 1.0159 1.0160 1.0160 1.0152 1.0142
2326.276008 1.0140 1.0140 1.0140 1.0140 1.0140
2330.626355 1.0140 1.0140 1.0140 1.0140 1.0140
2334.976702 1.0140 1.0140 1.0140 1.0140 1.0136
2339.327048 1.0131 1.0130 1.0130 1.0130 1.0130
2343.677395 1.0130 1.0130 1.0130 1.0130 1.0130
2348.027742 1.0130 1.0130 1.0130 1.0130 1.0130
2352.378089 1.0134 1.0139 1.0140 1.0140 1.0148
2356.728435 1.0158 1.0172 1.0187 1.0194 1.0199
2361.078782 1.0196 1.0191 1.0182 1.0172 1.0158
2365.429129 1.0143 1.0136 1.0131 1.0126 1.0121
2369.779476 1.0108 1.0093 1.0090 1.0090 1.0090
2374.129823 1.0090 1.0090 1.0090 1.0094 1.0099
2378.480169 1.0112 1.0127 1.0142 1.0157 1.0180
2382.830516 1.0206 1.0218 1.0228 1.0234 1.0239
2387.180863 1.0244 1.0249 1.0262 1.0277 1.0284
2391.531210 1.0289 1.0290 1.0290 1.0290 1.0290
2395.881556 1.0290 1.0290 1.0290 1.0290 1.0286
2400.231903 1.0281 1.0280 1.0280 1.0280 1.0280
2404.582250 1.0280 1.0280 1.0280 1.0280 1.0280
2408.932597 1.0280 1.0292 1.0307 1.0310 1.0310
2413.282944 1.0302 1.0292 1.0286 1.0281 1.0280
2417.633290 1.0280 1.0276 1.0271 1.0270 1.0270
2421.983637 1.0274 1.0279 1.0280 1.0280 1.0284
2426.333984 1.0289 1.0298 1.0308 1.0314 1.0319
2430.684331 1.0328 1.0338 1.0344 1.0349 1.0350
2435.034677 1.0350 1.0350 1.0350 1.0346 1.0341
2439.385024 1.0340 1.0340 1.0344 1.0349 1.0350
2443.735371 1.0350 1.0350 1.0350 1.0354 1.0359
2448.085718 1.0368 1.0378 1.0388 1.0398 1.0400
2452.436065 1.0400 1.0396 1.0391 1.0390 1.0390
2456.786411 1.0390 1.0390 1.0390 1.0390 1.0386
2461.136758 1.0381 1.0380 1.0380 1.0380 1.0380
2465.487105 1.0372 1.0362 1.0360 1.0360 1.0356
2469.837452 1.0351 1.0346 1.0341 1.0340 1.0340
2474.187798 1.0340 1.0340 1.0340 1.0340 1.0332
2478.538145 1.0322 1.0320 1.0320 1.0320 1.0320
2482.888492 1.0320 1.0320 1.0320 1.0320 1.0316
2487.238839 1.0311 1.0310 1.0310 1.0310 1.0310
2491.589185 1.0310 1.0310 1.0310 1.0310 1.0314
2495.939532 1.0319 1.0320 1.0320 1.0328 1.0338
2500.289879 1.0340 1.0340 1.0340 1.0340 1.0340
2504.640226 1.0340 1.0340 1.0340 1.0340 1.0340
2508.990573 1.0340 1.0340 1.0340 1.0340 1.0340
2513.340919 1.0340 1.0340 1.0340 1.0340 1.0340
2517.691266 1.0340 1.0340 1.0333 1.0323 1.0320
2522.041613 1.0320 1.0320 1.0320 1.0320 1.0320
2526.391960 1.0328 1.0338 1.0340 1.0340 1.0340
2530.742306 1.0340 1.0340 1.0340 1.0340 1.0340
2535.092653 1.0340 1.0340 1.0340 1.0340 1.0344
2539.443000 1.0349 1.0346 1.0341 1.0332 1.0323
2543.793347 1.0320 1.0320 1.0320 1.0320 1.0320
2548.143694 1.0320 1.0328 1.0337 1.0340 1.0340
2552.494040 1.0333 1.0323 1.0320 1.0320 1.0320
2556.844387 1.0320 1.0320 1.0320 1.0320 1.0320
2561.194734 1.0320 1.0320 1.0320 1.0320 1.0316
2565.545081 1.0311 1.0310 1.0310 1.0314 1.0319
2569.895427 1.0320 1.0320 1.0320 1.0320 1.0320
2574.245774 1.0320 1.0316 1.0311 1.0310 1.0310
2578.596121 1.0310 1.0310 1.0299 1.0284 1.0280
2582.946468 1.0280 1.0280 1.0280 1.0280 1.0280
2587.296815 1.0280 1.0280 1.0280 1.0280 1.0284
2591.647161 1.0289 1.0290 1.0290 1.0290 1.0290
2595.997508 1.0290 1.0290 1.0290 1.0290 1.0290
2600.347855 1.0290 1.0290 1.0290 1.0290 1.0290
2604.698202 1.0290 1.0290 1.0286 1.0281 1.0280
2609.048548 1.0280 1.0280 1.0280 1.0269 1.0254
2613.398895 1.0246 1.0241 1.0240 1.0240 1.0240
2617.749242 1.0240 1.0236 1.0231 1.0230 1.0230
2622.099589 1.0230 1.0230 1.0230 1.0230 1.0230
2626.449935 1.0230 1.0230 1.0230 1.0230 1.0230
2630.800282 1.0223 1.0213 1.0210 1.0210 1.0217
2635.150629 1.0227 1.0230 1.0230 1.0230 1.0230
2639.500976 1.0230 1.0230 1.0230 1.0230 1.0230
2643.851323 1.0230 1.0230 1.0230 1.0230 1.0230
2648.201669 1.0219 1.0204 1.0186 1.0166 1.0160
2652.552016 1.0160 1.0153 1.0143 1.0140 1.0140
2656.902363 1.0140 1.0140 1.0140 1.0140 1.0150
2661.252710 1.0166 1.0191 1.0221 1.0230 1.0230
2665.603056 1.0230 1.0230 1.0230 1.0230 1.0230
2669.953403 1.0230 1.0230 1.0230 1.0230 1.0230
2674.303750 1.0230 1.0230 1.0230 1.0230 1.0230
2678.654097 1.0230 1.0234 1.0239 1.0240 1.0240
2683.004444 1.0240 1.0240 1.0240 1.0240 1.0240
2687.354790 1.0240 1.0240 1.0240 1.0240 1.0240
2691.705137 1.0237 1.0232 1.0230 1.0230 1.0223
2696.055484 1.0213 1.0210 1.0210 1.0220 1.0235
2700.405831 1.0240 1.0240 1.0230 1.0215 1.0210
2704.756177 1.0210 1.0210 1.0210 1.0210 1.0210
2709.106524 1.0207 1.0202 1.0200 1.0200 1.0200
2713.456871 1.0200 1.0200 1.0200 1.0200 1.0200
2717.807218 1.0200 1.0200 1.0203 1.0208 1.0210
2722.157565 1.0210 1.0207 1.0202 1.0200 1.0200
2726.507911 1.0200 1.0200 1.0200 1.0200 1.0200
2730.858258 1.0200 1.0200 1.0200 1.0200 1.0200
2735.208605 1.0197 1.0192 1.0190 1.0190 1.0190
2739.558952 1.0190 1.0190 1.0190 1.0193 1.0198
2743.909298 1.0200 1.0200 1.0200 1.0200 1.0210
2748.259645 1.0225 1.0230 1.0230 1.0230 1.0230
2752.609992 1.0223 1.0213 1.0207 1.0202 1.0203
2756.960339 1.0208 1.0207 1.0202 1.0197 1.0192
2761.310685 1.0190 1.0190 1.0190 1.0190 1.0190
2765.661032 1.0190 1.0190 1.0190 1.0193 1.0198
2770.011379 1.0200 1.0200 1.0200 1.0200 1.0200
2774.361726 1.0200 1.0200 1.0200 1.0197 1.0192
2778.712073 1.0190 1.0190 1.0184 1.0174 1.0170
2783.062419 1.0170 1.0167 1.0162 1.0160 1.0160
2787.412766 1.0160 1.0160 1.0154 1.0144 1.0140
2791.763113 1.0140 1.0140 1.0140 1.0140 1.0140
2796.113460 1.0140 1.0140 1.0140 1.0140 1.0137
2800.463806 1.0132 1.0130 1.0130 1.0130 1.0130
2804.814153 1.0127 1.0122 1.0120 1.0120 1.0114
2809.164500 1.0104 1.0097 1.0092 1.0090 1.0090
2813.514847 1.0090 1.0090 1.0087 1.0082 1.0074
2817.865194 1.0064 1.0060 1.0060 1.0054 1.0044
2822.215540 1.0040 1.0040 1.0034 1.0024 1.0020
2826.565887 1.0020 1.0017 1.0012 1.0010 1.0010
2830.916234 1.0010 1.0010 1.0007 1.0002 1.0000
2835.266581 1.0000 1.0000 1.0000 0.9994 0.9984
2839.616927 0.9971 0.9956 0.9944 0.9934 0.9924
2843.967274 0.9914 0.9916 0.9926 0.9930 0.9930
2848.317621 0.9936 0.9946 0.9956 0.9966 0.9979
2852.667968 0.9994 1.0000 1.0000 1.0000 1.0000
2857.018315 0.9991 0.9976 0.9964 0.9954 0.9947
2861.368661 0.9942 0.9931 0.9916 0.9904 0.9894
2865.719008 0.9881 0.9866 0.9857 0.9852 0.9832
2870.069355 0.9802 0.9775 0.9750 0.9728 0.9708
2874.419702 0.9700 0.9700 0.9703 0.9708 0.9722
2878.770048 0.9742 0.9759 0.9774 0.9792 0.9812
2883.120395 0.9835 0.9860 0.9876 0.9886 0.9893
2887.470742 0.9898 0.9903 0.9908 0.9916 0.9926
2891.821089 0.9933 0.9938 0.9943 0.9948 0.9950
2896.171435 0.9950 0.9950 0.9950 0.9947 0.9942
2900.521782 0.9937 0.9932 0.9924 0.9914 0.9910
2904.872129 0.9910 0.9907 0.9902 0.9900 0.9900
2909.222476 0.9897 0.9892 0.9881 0.9866 0.9857
2913.572823 0.9852 0.9844 0.9834 0.9827 0.9822
2917.923169 0.9820 0.9820 0.9820 0.9820 0.9814
2922.273516 0.9804 0.9797 0.9792 0.9790 0.9790
2926.623863 0.9790 0.9790 0.9790 0.9790 0.9781
2930.974210 0.9766 0.9748 0.9729 0.9709 0.9689
2935.324556 0.9669 0.9649 0.9637 0.9632 0.9624
2939.674903 0.9614 0.9593 0.9563 0.9533 0.9503
2944.025250 0.9478 0.9459 0.9436 0.9411 0.9391
2948.375597 0.9376 0.9353 0.9323 0.9287 0.9247
2952.725944 0.9210 0.9175 0.9146 0.9121 0.9088
2957.076290 0.9047 0.9021 0.9006 0.8957 0.8882
2961.426637 0.8816 0.8756 0.8575 0.8300 0.8166
2965.776984 0.8141 0.8024 0.7834 0.7672 0.7532
2970.127331 0.7470 0.7470 0.7583 0.7788 0.7905
2974.477677 0.7950 0.7984 0.8009 0.8051 0.8106
2978.828024 0.8138 0.8153 0.8244 0.8393 0.8460
2983.178371 0.8460 0.8394 0.8274 0.8215 0.8205
2987.528718 0.8159 0.8084 0.8050 0.8050 0.8113
2991.879065 0.8229 0.8347 0.8467 0.8551 0.8605
2996.229411 0.8649 0.8684 0.8774 0.8909 0.9030
3000.579758 0.9140 0.9220 0.9275 0.9303 0.9308
3004.930105 0.9310 0.9310 0.9305 0.9295 0.9274
3009.280452 0.9244 0.9216 0.9191 0.9169 0.9149
3013.630798 0.9140 0.9140 0.9145 0.9155 0.9165
3017.981145 0.9175 0.9180 0.9180 0.9183 0.9188
3022.331492 0.9190 0.9190 0.9187 0.9182 0.9180
3026.681839 0.9180 0.9180 0.9180 0.9191 0.9211
3031.032185 0.9241 0.9281 0.9319 0.9354 0.9383
3035.382532 0.9408 0.9439 0.9473 0.9501 0.9520
3039.732879 0.9538 0.9553 0.9568 0.9583 0.9590
3044.083226 0.9590 0.9590 0.9590 0.9590 0.9590
3048.433573 0.9585 0.9575 0.9567 0.9562 0.9544
3052.783919 0.9514 0.9484 0.9454 0.9430 0.9410
3057.134266 0.9377 0.9332 0.9305 0.9295 0.9244
3061.484613 0.9153 0.9099 0.9080 0.9073 0.9078
3065.834960 0.9085 0.9095 0.9105 0.9115 0.9141
3070.185306 0.9181 0.9223 0.9268 0.9295 0.9305
3074.535653 0.9305 0.9295 0.9282 0.9267 0.9257
3078.886000 0.9252 0.9185 0.9060 0.8933 0.8803
3083.236347 0.8689 0.8589 0.8512 0.8457 0.8410
3087.586694 0.8370 0.8327 0.8282 0.8207 0.8102
3091.937040 0.7980 0.7840 0.7768 0.7763 0.7767
3096.287387 0.7783 0.7831 0.7911 0.7978 0.8033
3100.637734 0.8116 0.8226 0.8358 0.8513 0.8693
3104.988081 0.8897 0.9082 0.9247 0.9342 0.9367
3109.338427 0.9414 0.9484 0.9537 0.9572 0.9605
3113.688774 0.9635 0.9663 0.9688 0.9713 0.9737
3118.039121 0.9757 0.9772 0.9785 0.9795 0.9807
3122.389468 0.9822 0.9835 0.9845 0.9850 0.9850
3126.739815 0.9855 0.9865 0.9875 0.9885 0.9895
3131.090161 0.9905 0.9917 0.9932 0.9947 0.9962
3135.440508 0.9972 0.9977 0.9985 0.9995 1.0002
3139.790855 1.0007 1.0010 1.0010 1.0010 1.0010
3144.141202 1.0008 1.0003 1.0000 1.0000 1.0000
3148.491548 1.0000 1.0000 1.0000 1.0005 1.0015
3152.841895 1.0025 1.0035 1.0040 1.0040 1.0040
3157.192242 1.0040 1.0040 1.0040 1.0040 1.0040
3161.542589 1.0035 1.0025 1.0020 1.0020 1.0020
3165.892935 1.0020 1.0025 1.0035 1.0040 1.0040
3170.243282 1.0040 1.0040 1.0042 1.0047 1.0052
3174.593629 1.0057 1.0060 1.0060 1.0060 1.0060
3178.943976 1.0060 1.0060 1.0060 1.0060 1.0065
3183.294323 1.0075 1.0080 1.0080 1.0080 1.0080
3187.644669 1.0082 1.0087 1.0090 1.0090 1.0083
3191.995016 1.0068 1.0060 1.0060 1.0060 1.0060
3196.345363 1.0060 1.0060 1.0060 1.0060 1.0060
3200.695710 1.0060 1.0060 1.0060 1.0060 1.0060
3205.046056 1.0060 1.0060 1.0060 1.0060 1.0060
3209.396403 1.0060 1.0065 1.0075 1.0080 1.0080
3213.746750 1.0080 1.0080 1.0080 1.0080 1.0080
3218.097097 1.0080 1.0082 1.0087 1.0090 1.0090
3222.447444 1.0090 1.0090 1.0092 1.0097 1.0100
3226.797790 1.0100 1.0100 1.0100 1.0098 1.0093
3231.148137 1.0090 1.0090 1.0088 1.0083 1.0080
3235.498484 1.0080 1.0080 1.0080 1.0075 1.0066
3239.848831 1.0060 1.0060 1.0060 1.0060 1.0064
3244.199177 1.0074 1.0080 1.0080 1.0080 1.0080
3248.549524 1.0076 1.0066 1.0058 1.0053 1.0044
3252.899871 1.0028 1.0020 1.0020 1.0020 1.0020
3257.250218 1.0024 1.0034 1.0042 1.0047 1.0052
3261.600565 1.0057 1.0060 1.0060 1.0060 1.0060
3265.950911 1.0060 1.0060 1.0058 1.0053 1.0050
3270.301258 1.0050 1.0052 1.0057 1.0060 1.0060
3274.651605 1.0060 1.0060 1.0058 1.0053 1.0050
3279.001952 1.0050 1.0048 1.0043 1.0040 1.0040
3283.352298 1.0040 1.0040 1.0040 1.0040 1.0042
3287.702645 1.0047 1.0050 1.0050 1.0050 1.0050
3292.052992 1.0050 1.0050 1.0050 1.0050 1.0050
3296.403339 1.0050 1.0050 1.0050 1.0050 1.0050
3300.753685 1.0050 1.0050 1.0050 1.0050 1.0050
3305.104032 1.0050 1.0052 1.0057 1.0060 1.0060
3309.454379 1.0060 1.0060 1.0060 1.0060 1.0060
3313.804726 1.0060 1.0060 1.0060 1.0060 1.0060
3318.155073 1.0064 1.0074 1.0080 1.0080 1.0076
3322.505419 1.0066 1.0060 1.0060 1.0060 1.0060
3326.855766 1.0060 1.0060 1.0060 1.0060 1.0058
3331.206113 1.0053 1.0050 1.0050 1.0048 1.0043
3335.556460 1.0040 1.0040 1.0040 1.0040 1.0042
3339.906806 1.0047 1.0052 1.0057 1.0060 1.0060
3344.257153 1.0060 1.0060 1.0064 1.0074 1.0076
3348.607500 1.0066 1.0064 1.0074 1.0080 1.0080
3352.957847 1.0076 1.0066 1.0060 1.0060 1.0060
3357.308194 1.0060 1.0060 1.0060 1.0060 1.0060
3361.658540 1.0060 1.0060 1.0060 1.0060 1.0060
3366.008887 1.0060 1.0060 1.0060 1.0060 1.0060
3370.359234 1.0064 1.0074 1.0080 1.0080 1.0082
3374.709581 1.0087 1.0090 1.0090 1.0090 1.0090
3379.059927 1.0092 1.0097 1.0100 1.0100 1.0098
3383.410274 1.0093 1.0090 1.0090 1.0090 1.0090
3387.760621 1.0088 1.0083 1.0080 1.0080 1.0080
3392.110968 1.0080 1.0080 1.0080 1.0080 1.0080
3396.461315 1.0080 1.0080 1.0080 1.0080 1.0080
3400.811661 1.0080 1.0080 1.0080 1.0080 1.0080
3405.162008 1.0080 1.0080 1.0080 1.0080 1.0080
3409.512355 1.0080 1.0076 1.0066 1.0060 1.0060
3413.862702 1.0060 1.0060 1.0060 1.0060 1.0060
3418.213048 1.0060 1.0060 1.0060 1.0058 1.0053
3422.563395 1.0050 1.0050 1.0050 1.0050 1.0050
3426.913742 1.0050 1.0050 1.0050 1.0048 1.0043
3431.264089 1.0040 1.0040 1.0040 1.0040 1.0040
3435.614435 1.0040 1.0040 1.0040 1.0040 1.0040
3439.964782 1.0040 1.0040 1.0040 1.0040 1.0040
3444.315129 1.0040 1.0036 1.0026 1.0020 1.0020
3448.665476 1.0020 1.0020 1.0018 1.0013 1.0010
3453.015823 1.0010 1.0010 1.0010 1.0010 1.0010
3457.366169 1.0010 1.0010 1.0010 1.0010 1.0010
3461.716516 1.0010 1.0008 1.0003 1.0000 1.0000
3466.066863 0.9997 0.9987 0.9980 0.9980 0.9980
3470.417210 0.9980 0.9980 0.9980 0.9983 0.9993
3474.767556 1.0000 1.0000 1.0000 1.0000 1.0000
3479.117903 1.0000 1.0000 1.0000 1.0000 1.0000
3483.468250 1.0000 1.0000 1.0002 1.0007 1.0010
3487.818597 1.0010 1.0010 1.0010 1.0010 1.0010
3492.168944 1.0008 1.0003 1.0000 1.0000 1.0000
3496.519290 1.0000 0.9997 0.9987 0.9980 0.9980
3500.869637 0.9980 0.9980 0.9978 0.9973 0.9972
3505.219984 0.9977 0.9983 0.9993 0.9997 0.9987
3509.570331 0.9980 0.9980 0.9980 0.9980 0.9980
3513.920677 0.9980 0.9980 0.9980 0.9980 0.9980
3518.271024 0.9980 0.9980 0.9980 0.9980 0.9980
3522.621371 0.9980 0.9980 0.9980 0.9980 0.9980
3526.971718 0.9980 0.9980 0.9983 0.9993 1.0000
3531.322065 1.0000 1.0000 1.0000 0.9997 0.9987
3535.672411 0.9980 0.9980 0.9980 0.9980 0.9980
3540.022758 0.9980 0.9980 0.9980 0.9980 0.9980
3544.373105 0.9983 0.9993 1.0000 1.0000 1.0000
3548.723452 1.0000 0.9997 0.9987 0.9983 0.9993
3553.073798 0.9997 0.9987 0.9978 0.9973 0.9970
3557.424145 0.9970 0.9967 0.9957 0.9947 0.9937
3561.774492 0.9930 0.9930 0.9933 0.9943 0.9953
3566.124839 0.9963 0.9970 0.9970 0.9971 0.9976
3570.475185 0.9980 0.9980 0.9979 0.9974 0.9967
3574.825532 0.9957 0.9949 0.9944 0.9940 0.9940
3579.175879 0.9940 0.9940 0.9939 0.9934 0.9930
3583.526226 0.9930 0.9931 0.9936 0.9940 0.9940
3587.876573 0.9940 0.9940 0.9946 0.9966 0.9983
3592.226919 0.9993 1.0000 1.0000 1.0000 1.0000
3596.577266 0.9997 0.9987 0.9979 0.9974 0.9967
3600.927613 0.9957 0.9949 0.9944 0.9939 0.9934
3605.277960 0.9930 0.9930 0.9930 0.9930 0.9927
3609.628306 0.9917 0.9914 0.9929 0.9941 0.9946
3613.978653 0.9953 0.9963 0.9970 0.9970 0.9967
3618.329000 0.9957 0.9949 0.9944 0.9939 0.9934
3622.679347 0.9930 0.9930 0.9933 0.9943 0.9958
3627.029694 0.9988 1.0010 1.0010 1.0006 0.9991
3631.380040 0.9976 0.9961 0.9950 0.9950 0.9949
3635.730387 0.9944 0.9933 0.9908 0.9886 0.9871
3640.080734 0.9860 0.9860 0.9864 0.9879 0.9891
3644.431081 0.9896 0.9901 0.9906 0.9910 0.9910
3648.781427 0.9913 0.9923 0.9931 0.9936 0.9941
3653.131774 0.9946 0.9950 0.9950 0.9950 0.9950
3657.482121 0.9950 0.9950 0.9949 0.9944 0.9939
3661.832468 0.9934 0.9925 0.9905 0.9886 0.9871
3666.182815 0.9860 0.9860 0.9864 0.9879 0.9892
3670.533161 0.9903 0.9913 0.9923 0.9927 0.9917
3674.883508 0.9907 0.9898 0.9888 0.9878 0.9869
3679.233855 0.9864 0.9861 0.9866 0.9875 0.9895
3683.584202 0.9910 0.9910 0.9912 0.9922 0.9930
3687.934548 0.9930 0.9928 0.9918 0.9910 0.9910
3692.284895 0.9909 0.9904 0.9899 0.9894 0.9886
3696.635242 0.9871 0.9859 0.9854 0.9848 0.9838
3700.985589 0.9833 0.9848 0.9860 0.9860 0.9865
3705.335935 0.9885 0.9900 0.9900 0.9900 0.9900
3709.686282 0.9899 0.9894 0.9888 0.9878 0.9869
3714.036629 0.9864 0.9859 0.9854 0.9856 0.9881
3718.386976 0.9900 0.9900 0.9892 0.9857 0.9827
3722.737323 0.9812 0.9804 0.9818 0.9837 0.9867
3727.087669 0.9891 0.9896 0.9897 0.9882 0.9864
3731.438016 0.9839 0.9817 0.9802 0.9790 0.9790
3735.788363 0.9789 0.9784 0.9780 0.9780 0.9781
3740.138710 0.9786 0.9799 0.9839 0.9870 0.9870
3744.489056 0.9872 0.9882 0.9890 0.9890 0.9890
3748.839403 0.9890 0.9890 0.9890 0.9890 0.9890
3753.189750 0.9888 0.9878 0.9870 0.9870 0.9869
3757.540097 0.9864 0.9860 0.9860 0.9861 0.9866
3761.890444 0.9870 0.9870 0.9870 0.9870 0.9869
3766.240790 0.9864 0.9860 0.9860 0.9860 0.9860
3770.591137 0.9861 0.9866 0.9870 0.9870 0.9870
3774.941484 0.9870 0.9870 0.9870 0.9870 0.9870
3779.291831 0.9868 0.9858 0.9848 0.9838 0.9830
3783.642177 0.9830 0.9830 0.9830 0.9829 0.9824
3787.992524 0.9820 0.9820 0.9820 0.9820 0.9820
3792.342871 0.9820 0.9820 0.9820 0.9820 0.9820
##END=
