##TITLE=Butane
##JCAMP-DX=4.24
##DATA TYPE=INFRARED SPECTRUM
##CLASS=IUPAC A
##ORIGIN=NIST, Analytical Chemistry Division, 301-975-3108
##OWNER=COPYRIGHT (C) 2000 by the U.S. Secretary of Commerce
##DATE=00/02/01
##$SPECTRA VERSION=1.10
##$UNCERTAINTY IN Y=2.0 % relative (B=1.0E-04,C=-1.9E-11,D=8.7E-15)
##CAS NAME=Butane
##CAS REGISTRY NO=106-97-8
##MOLFORM=C4 H10
##MP=-138.35 C
##BP=-0.5 C
##$NIST SOURCE=QUANT-IR
##SPECTROMETER/DATA SYSTEM=IFS66V (Bruker)
##INSTRUMENT PARAMETERS=KBr Beam Splitter; MCT Detector; Multipass cell
##STATE=gas
##SAMPLE DESCRIPTION=Butane Primary Gas Standard
##PRESSURE=101.3 Pa
##TEMPERATURE=23 C
##SAMPLING PROCEDURE=1 L/min Flow
##RESOLUTION=0.9640
##DATA PROCESSING=Triangular Apodization
##XUNITS=cm-1
##YUNITS=(micromol/mol)-1m-1 (base 10)
##XFACTOR=1.0
##YFACTOR=9.0949E-13
##DELTAX=0.4820
##FIRSTX=575.17
##LASTX=3974.605
##FIRSTY=-3.87E-07
##MAXX=3974.12
##MINX=575.17
##MAXY=.0008631
##MINY=-5.65E-07
##NPOINTS=7052
##XYDATA=(X++(Y..Y))
575.17-425760-128521-90528-206456-67997 159286
577.58 349170 311277-64565-448553-466865-294237
580.47-304331-266412-183995-129755-116830-35453
583.37 21244 234209 272709 49802 15960-38415
586.26-83243-82816 96981 217159 184081 51361
589.15-88125-200235-228195-118198-130384-13763
592.04 188790-67724-251825-147651-40993-62498
594.94-203268-236150-150310-33053-44618-1868
597.83-72731-131751-132040-121669-129775-163314
600.72-72310-78530-111069-129158-111891-81881
603.62-119808-100441-112717-124505-56692-35198
606.51-28742-39573-125248-73966-45730-116062
609.40-161997-300088-285050-201095-170636-144013
612.29-125560-111755-144822-83959-49108-139116
615.19-199456-231192-194632-174992-221352-154852
618.08-38547-98442-82374 38687-54665-125471
620.97 15492-8618-125693-64694-37610-62719
623.86-92476-106160-89887-144038-202218-82978
626.76 3234-73429-172742-225960-173704-36598
629.65 24945-7837-48130-105733-97258-8074
632.54 12923-34039-136233-126336-135590-177746
635.44-127852-177478-191253-120859-113364-87555
638.33-58640-25902-39066-81268-68221-89150
641.22-35034-4359-93044-102444-133228-150329
644.11-52214-31944-89720-99207-29172-103168
647.01-146840-104889-120196-104753-66830 11184
649.90 22191-90594-96864-37711-31019-47509
652.79-124963-172442-217013-221885-159951-158188
655.68-141205-80962-47006-11106-38279-13327
658.58 16789-40197-166605-178733-94024-46743
661.47-40079-92588-39749 30724 24151 22649
664.36-5085-51627-17303-42620-114265-404112
667.26-621751-426157-176983-56833 32943 48661
670.15-22027 31948 55877 37000 29953 34911
673.04 73441 23147 38937 119792 108632 109212
675.93 103155 58433 98668 168900 173890 160841
678.83 124692 141586 197682 213435 232490 290115
681.72 271355 245647 301811 308638 319919 335214
684.61 330304 350006 445740 479836 426906 484129
687.50 483193 505341 603997 625116 628821 652730
690.40 784015 873752 857169 915525 938394 935830
693.29 988765 958797 1029164 1127358 1147090 1155200
696.18 1155224 1268977 1378928 1451614 1535807 1607743
699.08 1711305 1813128 1831010 1840829 1908459 2014256
701.97 2066999 2126179 2226071 2307357 2403591 2509657
704.86 2563331 2649311 2699888 2698871 2822653 2933810
707.75 3076663 3214255 3273885 3385008 3473653 3514853
710.65 3615388 3732507 3817463 3994816 4108753 4202862
713.54 4334399 4323634 4473458 4640035 4587298 4644346
716.43 4719971 4750023 4955043 5064307 5031090 5137165
719.32 5165733 5280401 5512491 5506612 5609999 5793232
722.22 5808654 5916810 5978438 6016943 6212078 6271097
725.11 6356258 6639174 6696681 6732678 6885528 6913863
728.00 7175840 7509268 7810128 8367298 8982846 9817216
730.90 10872023 11716830 12081458 11940647 10879676 9382724
733.79 8863163 9132410 9525192 9595295 9396201 9307768
736.68 9275899 9411283 9577396 9600398 9774856 9783652
739.57 9729378 9850732 9743410 9803039 9829584 9608089
742.47 9652331 9527427 9466640 9582566 9441658 9546620
745.36 9945013 10466601 11753857 11894367 10766475 11128528
748.25 11470557 11188081 11170754 11065405 10531091 10021840
751.14 9868737 9594145 9320629 9224235 9134368 8938835
754.04 8876432 8861723 8770744 8741481 8703409 8677658
756.93 8709400 8596109 8484258 8450543 8304507 8223586
759.82 8203534 8064247 7934874 7802882 7678027 7498975
762.72 7297511 7138129 6917952 6748745 6624690 6426104
765.61 6244883 6075390 5883098 5714484 5552814 5451628
768.50 5247689 4980649 4871989 4774374 4585397 4419025
771.39 4333073 4230532 4097149 4014246 3950084 3857467
774.29 3800288 3807897 3732092 3618456 3591949 3565472
777.18 3499923 3478588 3458726 3387638 3370929 3340100
780.07 3281279 3256937 3166056 3111364 3073544 3009798
782.96 2981449 2889028 2818381 2727652 2614127 2554659
785.86 2381928 2228894 2101661 2006900 1979242 1960711
788.75 1970744 1943921 1929454 1987301 2075323 2098596
791.64 2115066 2167852 2246580 2316939 2364035 2383120
794.54 2333579 2259991 2275849 2276059 2224152 2144403
797.43 2067165 2006354 1939444 1915699 1896168 1853139
800.32 1782509 1761764 1698619 1663895 1629958 1545944
803.21 1529231 1526321 1492987 1396434 1319230 1294650
806.11 1310219 1223403 1105052 1057717 1021179 989345
809.00 921954 862414 892719 864054 750416 713510
811.89 706838 687720 647822 685340 685754 601084
814.78 551003 480490 456914 487358 488509 472129
817.68 411509 367084 367803 273127 225757 291596
820.57 319320 292047 227729 172997 201084 229409
823.46 177504 152045 142069 131164 147255 116768
826.36 130254 167504 87273 52555 60102 87397
829.25 119931 52813 574-12202-7897-12527
832.14-23597-11518 19272 44000 2722-23098
835.03 47220 37445-540 40025 33298 10664
837.93 16419 31449-18457-53638-85174-61668
840.82 2543 30917 24794-28816-5794 25920
843.71 43288 63208 59987 39684 36526 51977
846.60 13469-37050-15087-7329-32756-24217
849.50-64124-69931 9249-13802-33025 860
852.39-4345-26534-33573-36079-13223-17696
855.28-10515 31773-4727 23598 44696-11833
858.18-20440-38938-53584-11102 46451 36798
861.07-36979-48550-15665-12913 2601 40977
863.96 41768 16922-1481-14781-6466 7943
866.85 4677-37585-63940-9988 1431 3976
869.75 49621 24562 11296 25940 17836 11515
872.64 441-23302-20556-5378-9042-10258
875.53-23707-26696-28836-28781 1500-13384
878.42-19837 2826 23135 9348-45139-46499
881.32-6659 40798 43747 8559-18800-34705
884.21-20150 31-12109-10717-18319-18014
887.10-7361-20449-25974-25145-43486-67168
889.99-44976-20221-38009-54643-41967-38007
892.89-43408-7800 24066 31407 2037-19403
895.78-12565-22014-6787-72 5043-12198
898.67-6986-130-31991-11781 49807 65078
901.57 58031 46007 44475 77983 55913 10439
904.46 18799 68045 107686 124650 139049 141821
907.35 128749 139739 163479 162022 198182 206373
910.24 216647 239498 229482 253833 253239 281932
913.14 311896 310050 316990 325012 361874 427106
916.03 469705 469213 490361 523792 538140 579650
918.92 640242 655610 670879 727748 771172 792229
921.81 809484 858060 959932 1038418 1081177 1105649
924.71 1158512 1244352 1320712 1388439 1444389 1516321
927.60 1624266 1706294 1747987 1852641 1967834 2067921
930.49 2181971 2278046 2423872 2588036 2679476 2824542
933.39 3027043 3177845 3357852 3570334 3743263 3928327
936.28 4126595 4342649 4616535 4844817 5058908 5387218
939.17 5674501 5919391 6217749 6530195 6841258 7161009
942.06 7446658 7753467 8180798 8559912 8841268 9191271
944.96 9552550 9922398 10390407 10774256 11136772 11798248
947.85 12144996 12134497 12350857 12574446 12706717 12779810
950.74 13009928 13199510 13341380 13731106 14097073 14614245
953.63 15423765 16292117 17726589 19674152 22018904 22729821
956.53 20635847 18550346 17214586 16558602 16685576 17004346
959.42 17203893 17428268 17652061 17844753 18072428 18309098
962.31 18548666 18841141 18985942 18900696 19001861 19948530
965.21 21059554 21513892 21595852 21230274 20905894 20688845
968.10 20606920 20498030 20370419 20392043 20282901 20309545
970.99 20285212 19993203 19768881 19483181 19124803 18858565
973.88 18473115 18054766 17808941 17399783 17039144 16822751
976.78 16425111 16036620 15609182 15039114 14560397 14099064
979.67 13586353 13220808 12932999 12594149 12410643 12227200
982.56 11758219 11427465 11317655 11028689 10777005 10804695
985.45 10517327 10043874 9809870 9667126 9560214 9288851
988.35 9067132 8934217 8727793 8525792 8284705 8046994
991.24 7878446 7685851 7457878 7250915 7025092 6804273
994.13 6563580 6329060 6118227 5901180 5711456 5505150
997.03 5286652 5085926 4880878 4692976 4493187 4243801
999.92 4047784 3892986 3725975 3564004 3447104 3347579
1002.81 3236398 3098725 2957840 2874261 2792813 2672071
1005.70 2547623 2433660 2306206 2228854 2189845 2124541
1008.60 2063321 1995244 1923803 1870685 1816363 1751872
1011.49 1667779 1619380 1575843 1514127 1459434 1395605
1014.38 1356392 1313044 1265795 1252371 1194222 1115378
1017.27 1093214 1073867 1056361 1034290 988774 942222
1020.17 909117 872646 847337 857700 845563 772546
1023.06 710037 697190 649600 633803 677822 647071
1025.95 598838 592001 566839 563611 536753 484369
1028.85 485384 487860 467200 467295 471588 494056
1031.74 509421 494961 474643 439776 405261 392882
1034.63 419722 401830 372740 385358 387284 336512
1037.52 284983 278474 314138 311092 277422 248831
1040.42 217299 227155 241393 217562 183238 177635
1043.31 162133 111693 79634 107193 151792 148964
1046.20 128942 104179 128959 131964 86008 92452
1049.09 96817 94658 107375 123839 116347 95024
1051.99 78356 78626 72089 91822 108598 104652
1054.88 111597 114362 117068 115921 106580 104027
1057.77 111627 89490 67698 114524 156923 126182
1060.67 119818 125273 111387 145043 171043 172084
1063.56 194590 191155 194499 196498 179382 171940
1066.45 194565 199555 173142 178771 196228 206301
1069.34 196142 194036 228368 244291 268428 251171
1072.24 219359 244727 259476 279328 265112 217893
1075.13 219843 228092 211146 237998 236864 200500
1078.02 149002 147147 178840 178837 174154 202509
1080.91 243533 278957 280652 291265 287709 256126
1083.81 310665 327853 310830 304605 276750 285265
1086.70 287366 282534 301469 314343 327375 343681
1089.59 326710 300910 297785 305758 326139 325673
1092.49 293926 269724 288616 295174 296852 253303
1095.38 226878 230173 225629 250293 272265 307732
1098.27 292489 278489 278953 251913 259298 275817
1101.16 264164 275489 313359 324597 320693 334015
1104.06 361592 366140 377458 394754 413914 419003
1106.95 438843 468165 480189 508856 542145 566507
1109.84 589032 640962 709970 763147 819903 875216
1112.73 922276 981262 1035694 1121438 1192529 1291416
1115.63 1407742 1464037 1536028 1655891 1781625 1859542
1118.52 1942336 2042636 2128734 2232677 2359905 2415485
1121.41 2474954 2594587 2666536 2696474 2761594 2852534
1124.31 2875800 2895397 2947648 2982636 2983338 2984843
1127.20 3018697 3090169 3134327 3152178 3136723 3103531
1130.09 3096987 3071557 3079498 3136375 3182576 3290144
1132.98 3510612 3659920 3742268 3834600 3723248 3568580
1135.88 3431021 2815680 2100859 1834331 1869647 1995015
1138.77 2131139 2287926 2451389 2610273 2762487 2882338
1141.66 2985691 3091077 3143282 3135819 3110968 3081732
1144.55 3009437 2911415 2795110 2698781 2597309 2469697
1147.45 2338212 2216686 2102052 1953327 1836119 1701233
1150.34 1582344 1493674 1384067 1295531 1181277 1089305
1153.23 1006261 937044 873137 745145 670835 642444
1156.13 606213 563619 488168 433581 387766 358625
1159.02 362705 354597 302233 254823 257493 243161
1161.91 214897 216296 215742 230638 232419 214060
1164.80 187872 152049 156453 171206 175305 178935
1167.70 155137 151496 156659 155795 168526 162046
1170.59 152318 166161 198897 209753 207746 220521
1173.48 226132 224053 244374 242419 230432 234651
1176.37 223792 205935 205124 200637 183547 202316
1179.27 203327 188001 224990 249078 231699 220049
1182.16 236380 238441 214298 205543 204744 206967
1185.05 218585 213779 199619 214119 234983 222642
1187.95 210421 211593 194935 219896 246916 224792
1190.84 222960 231680 206172 190755 204722 208134
1193.73 219056 249191 252016 222409 215631 212049
1196.62 207500 220646 252803 259362 221173 188698
1199.52 210393 243281 251121 250444 237813 231186
1202.41 210982 187000 194572 246699 265253 264886
1205.30 257691 226170 215852 247249 279265 292275
1208.19 284140 260076 273683 285542 269676 272957
1211.09 291070 282269 291741 300674 302738 309686
1213.98 312501 338263 346117 329897 331812 364101
1216.87 367780 353978 390032 388902 385197 386680
1219.77 390654 426633 423945 434383 450487 468311
1222.66 482637 472391 493839 505064 508137 521585
1225.55 534938 551955 543942 555554 572658 564654
1228.44 590733 633661 630531 619290 633144 641324
1231.34 667604 689039 708548 713188 726703 741917
1234.23 761187 804320 812453 835211 867815 872964
1237.12 877162 896807 916650 943643 952409 970480
1240.01 992206 1022366 1056045 1078737 1094662 1127078
1242.91 1156667 1166057 1190608 1196718 1207763 1234105
1245.80 1266147 1318626 1360683 1383245 1419133 1463894
1248.69 1488780 1513344 1540856 1563258 1593859 1619943
1251.59 1655568 1681647 1711930 1737745 1723956 1721485
1254.48 1741205 1734992 1766015 1805947 1820011 1842588
1257.37 1875856 1898567 1907421 1902499 1870905 1891609
1260.26 1926685 1980544 2067058 2175605 2346172 2289804
1263.16 2070446 1990023 2015782 2062844 2119067 2198359
1266.05 2241578 2282449 2332041 2403196 2453868 2506654
1268.94 2569706 2613292 2687263 2765714 2858671 2977506
1271.83 3086268 3169685 3291589 3465977 3630775 3790862
1274.73 3965982 4160218 4343279 4526375 4776872 5048811
1277.62 5300469 5559686 5836223 6139859 6430085 6724606
1280.51 7032812 7304486 7592449 7911771 8164401 8355513
1283.41 8526584 8686843 8834209 8954985 9034400 9018066
1286.30 8957911 8847234 8674497 8474756 8213613 7943694
1289.19 7666546 7293011 6946523 6774057 6900521 7239070
1292.08 7629314 8234898 9193849 10126299 10477590 10138352
1294.98 8977561 7730190 7225533 7248268 7490907 7839703
1297.87 8178279 8490863 8815304 9088735 9359079 9583679
1300.76 9650130 9570946 9458174 9295908 9132186 8912140
1303.65 8580171 8299004 8021980 7701689 7362338 7024542
1306.55 6687689 6344217 5961237 5609613 5319331 5010415
1309.44 4687474 4379172 4100074 3869162 3655077 3426287
1312.33 3232935 3032694 2843707 2692369 2523794 2396951
1315.23 2303800 2205200 2124439 2061250 2005429 1969206
1318.12 1950596 1934389 1942669 1952873 1983498 2022876
1321.01 2075287 2157404 2229037 2323525 2431375 2512142
1323.90 2619233 2758932 2914122 3049899 3155079 3279346
1326.80 3434262 3587980 3730889 3878422 4037575 4180112
1329.69 4298488 4439439 4572264 4691625 4780892 4848989
1332.58 4921917 4952332 4972984 4942954 4865821 4803203
1335.47 4732627 4662551 4588573 4502648 4427437 4356652
1338.37 4275385 4252763 4290939 4411264 4660533 5049646
1341.26 5619178 6345670 7062627 7598448 7706724 7155287
1344.15 5739121 4396766 4002440 3983839 4061707 4209997
1347.05 4439472 4729991 4994277 5175820 5352938 5621544
1349.94 5953237 6270693 6495979 6668213 6825130 6973475
1352.83 7104490 7189016 7190638 7228381 7288494 7312849
1355.72 7337482 7396804 7437764 7401404 7421471 7505164
1358.62 7548238 7660946 7786703 7924082 8151305 8381062
1361.51 8644426 8979724 9353873 9731476 10173343 10698923
1364.40 11277466 11867860 12490893 13202391 13920821 14672125
1367.29 15493566 16362427 17288868 18261301 19190568 20158017
1370.19 21163977 22169102 23174904 24103780 25062331 26013085
1373.08 26922456 27782513 28442494 28967165 29515307 29871231
1375.97 30066897 30250267 30185950 29960182 29796697 29563370
1378.87 29099910 28678286 28389630 28395175 28880561 30069055
1381.76 32865028 38286377 41183206 39990093 37983640 35902067
1384.65 34159374 31501391 29149760 28062416 28031400 28701478
1387.54 29925345 31770316 33607102 35332020 37224546 39112691
1390.44 40355584 40999207 41624732 42140055 42384766 42356143
1393.33 42138085 41666899 41000544 40165358 39096589 37921039
1396.22 36624370 35173196 33699548 32167390 30579847 29027302
1399.11 27435848 25936279 24499495 23083636 21779885 20458904
1402.01 19229874 18172973 17131483 16175994 15360726 14575347
1404.90 13848108 13224888 12617498 12070924 11593917 11193036
1407.79 10848424 10523766 10264760 10069807 9955440 9792545
1410.69 9552831 9364496 9207895 9086673 9039696 8995948
1413.58 8916994 8886793 8893188 8899707 8900993 8902143
1416.47 8923027 8926846 8957263 9013950 9130526 9315276
1419.36 9356066 9397255 9519747 9631294 9784824 9958363
1422.26 10185516 10433640 10649852 10913077 11161232 11427599
1425.15 11742347 12055174 12441139 12811925 13152555 13627386
1428.04 14075683 14472236 14936289 15385678 15882163 16483005
1430.93 16968805 17480762 18258621 18937822 19569054 20313678
1433.83 21129120 21894875 22681074 23643974 24512851 25403942
1436.72 26404800 27402854 28330013 29361231 30593568 31638715
1439.61 32723719 34065432 35006703 36134296 37587199 38748910
1442.51 40094123 41252677 42357522 43619119 44351393 45335674
1445.40 46495014 47350139 48416916 49252975 50334755 51309012
1448.29 51858887 53009910 53629661 54378600 55484844 55857061
1451.18 57227004 58532987 59503554 60481394 60798918 62075654
1454.08 62985497 63259090 64220603 65058866 65640681 65456064
1456.97 65234589 66706515 67606420 69308738 71192157 72820851
1459.86 75782410 78813435 83883442 90261725 91862250 87646762
1462.75 83595500 82784400 84515785 88937749 94927694 103962148
1465.65 109666923 100297051 90424345 85315448 80268229 78614193
1468.54 77693363 77915960 79775476 82144156 84837894 85598256
1471.43 82071280 75443249 69785417 67057678 63810494 60381994
1474.33 59485947 59359719 59310746 59675843 60225523 61772412
1477.22 62792883 63131992 64386424 64881965 64686600 65284120
1480.11 64947637 64085927 64458468 63785185 62103324 61913549
1483.00 61168932 59505476 58826793 57853745 56493018 55595544
1485.90 54058770 52807280 52150629 50476185 48968237 48119253
1488.79 46681568 45348180 44409493 42864879 41467397 40509722
1491.68 39172052 37959007 36950445 35837187 34535880 33577053
1494.57 32708100 31380841 30578675 29786949 28518773 27665438
1497.47 27075053 26013214 25122180 24520854 23579053 22806487
1500.36 22157157 21355797 20690893 20065081 19347287 18782256
1503.25 18040570 17459821 17018197 16356133 15911692 15346403
1506.15 14755438 14363541 13726565 13116792 12713177 12271752
1509.04 11722168 11385397 10947161 10408230 10147170 9823899
1511.93 9334167 9012611 8763958 8292936 7977055 7781824
1514.82 7370234 7019139 6855910 6580725 6301626 6086855
1517.72 5793380 5535528 5321303 5136923 4973704 4781212
1520.61 4707010 4500057 4170810 4021906 3862877 3619271
1523.50 3440654 3361841 3280703 3177028 3007235 2860992
1526.39 2762252 2645572 2534047 2438256 2335650 2232835
1529.29 2119730 2038142 1990484 1918718 1855453 1795754
1532.18 1768632 1734637 1717015 1657356 1529841 1462573
1535.07 1434142 1401751 1361074 1331695 1322154 1291032
1537.97 1319555 1464102 1382477 1308173 1356369 1238413
1540.86 1181874 1267869 1236620 1112738 1090996 1077258
1543.75 1057970 1077074 1089142 1035635 999688 1005639
1546.64 1028068 1033193 1010214 1016852 1039363 1054281
1549.54 1053571 1041282 1031058 1034039 1051878 1066776
1552.43 1091212 1101203 1157990 1238905 1194011 1139241
1555.32 1130692 1139440 1175372 1292411 1332511 1421385
1558.21 1485985 1375924 1441183 1536527 1420626 1312906
1561.11 1329885 1337022 1339898 1342490 1332278 1355437
1564.00 1401745 1449936 1462943 1459827 1504224 1527667
1566.89 1535345 1547598 1564805 1599173 1662418 1702849
1569.79 1658046 1638014 1652633 1660956 1664672 1700081
1572.68 1755560 1747903 1705447 1721259 1747763 1843834
1575.57 2028611 1939643 1768901 1756457 1758653 1754247
1578.46 1727940 1712232 1699958 1697507 1700983 1694596
1581.36 1697230 1670013 1638997 1625177 1635240 1657950
1584.25 1638682 1602750 1590411 1612443 1617973 1600315
1587.14 1573487 1573185 1583599 1568704 1547376 1552765
1590.03 1557970 1537423 1526337 1518938 1481715 1451142
1592.93 1448114 1431303 1414241 1394506 1365490 1338995
1595.82 1329297 1341393 1306630 1263138 1264457 1257910
1598.71 1237111 1195158 1176842 1164176 1139006 1124250
1601.61 1104256 1089774 1057956 1045760 1036500 997789
1604.50 979217 967959 967449 990842 989689 980874
1607.39 988801 991851 975267 963788 982683 988850
1610.28 963196 968472 988156 998332 995205 990665
1613.18 1007110 1008097 996636 1023935 1066159 1128058
1616.07 1277610 1219903 1080143 1085838 1068641 1051890
1618.96 1052329 1038679 1019826 1012433 1012134 983945
1621.85 960704 969875 1019593 1012208 936721 913252
1624.75 935048 978038 1000144 1035811 1072002 1104864
1627.64 1106897 1095758 1099566 1113129 1132148 1137113
1630.53 1133370 1141249 1192866 1222437 1216283 1235387
1633.43 1227931 1249480 1311821 1385976 1369434 1248913
1636.32 1203230 1201631 1200336 1179197 1178749 1169612
1639.21 1149434 1145139 1144988 1142317 1124914 1108395
1642.10 1107513 1102777 1097323 1124961 1155927 1169750
1645.00 1254949 1348512 1259474 1208160 1242044 1252007
1647.89 1256277 1245549 1254367 1246309 1231307 1247929
1650.78 1272785 1389118 1575213 1632508 1693152 1559443
1653.67 1427684 1470298 1403244 1365571 1372968 1390190
1656.57 1411448 1397399 1407897 1446207 1424910 1403849
1659.46 1439916 1465869 1455674 1468664 1484855 1537655
1662.35 1552792 1472580 1457607 1481862 1463971 1450703
1665.25 1473198 1496463 1498222 1513963 1550627 1588514
1668.14 1615486 1717265 1736389 1665434 1640651 1644359
1671.03 1668440 1642153 1607571 1600613 1591650 1573643
1673.92 1577143 1647016 1692818 1590905 1486016 1447997
1676.82 1435395 1417592 1398309 1410340 1395014 1406598
1679.71 1431153 1448150 1462646 1454039 1440623 1477207
1682.60 1547917 1562315 1597235 1780813 1824359 1609924
1685.49 1500965 1473157 1447791 1415069 1391182 1393874
1688.39 1380612 1363509 1383876 1387818 1373000 1342419
1691.28 1318320 1310291 1283685 1291611 1303477 1296574
1694.17 1311752 1365233 1525095 1528490 1342164 1295492
1697.07 1294810 1263371 1263198 1276142 1379902 1500433
1699.96 1481976 1395061 1283873 1253518 1265417 1267046
1702.85 1236542 1233138 1270240 1245414 1223898 1263985
1705.74 1294804 1268242 1242351 1221349 1210858 1234234
1708.64 1245122 1244726 1257097 1227904 1187117 1189687
1711.53 1208227 1232308 1224442 1211715 1209694 1215997
1714.42 1268713 1251270 1208006 1186421 1240244 1396786
1717.31 1280436 1160975 1194211 1154057 1125075 1123422
1720.21 1126232 1115080 1099950 1080283 1073627 1078542
1723.10 1085790 1069863 1070139 1079220 1038972 1012363
1725.99 996836 953571 926134 904697 898886 906125
1728.89 908681 904375 892641 884136 862308 866849
1731.78 874388 877233 982785 952021 945233 976745
1734.67 798411 709051 703519 702357 680151 642691
1737.56 627230 607341 606142 662712 650943 569830
1740.46 538147 530098 505331 491191 510451 501522
1743.35 471344 429668 406050 419747 424448 421038
1746.24 418664 409862 388862 388895 396882 400575
1749.13 401027 367839 367691 441394 458140 377023
1752.03 334174 317972 312968 319175 307334 291243
1754.92 299881 311226 337937 347892 309100 289314
1757.81 296894 300544 280504 288519 299855 284974
1760.71 312931 386432 374943 303897 287535 300018
1763.60 290601 287635 287348 285519 299972 294856
1766.49 301836 309236 337955 329642 291069 307064
1769.38 298294 281007 308903 336653 315233 380319
1772.28 440763 341518 287500 319438 317944 306573
1775.17 323415 323867 335589 338646 323367 333084
1778.06 331702 326095 330110 345907 383449 377261
1780.95 356651 370777 384176 390974 376874 362947
1783.85 367278 406393 403227 355785 347179 355847
1786.74 357998 373723 386987 394075 409941 399715
1789.63 385825 413049 423197 388334 418629 499694
1792.53 467878 406609 407390 396958 402644 428739
1795.42 449256 441684 441817 438947 429707 438423
1798.31 432048 448188 463396 439454 430756 439768
1801.20 441190 452558 439032 411989 421525 442184
1804.10 449820 436944 426107 431061 431276 427993
1806.99 428571 435285 444344 446522 439387 435105
1809.88 458680 464875 447052 449802 444331 422874
1812.77 428688 444866 447525 431312 417915 422576
1815.67 405240 392332 403109 400168 373102 379618
1818.56 397430 382049 368549 373424 375801 369639
1821.45 359955 356842 351191 336671 327514 325508
1824.35 350087 339916 296870 283384 285195 286959
1827.24 278826 268604 278039 278251 273258 268169
1830.13 221811 212998 214477 184358 181461 179679
1833.02 178750 157929 133956 142921 148816 134587
1835.92 118326 125046 125235 111663 100807 96635
1838.81 104354 102287 89618 88734 86885 79288
1841.70 71849 68452 70955 105691 182051 135966
1844.59 49190 48342 43985 35585 34082 48467
1847.49 52360 30630 8737 4512 7690 21503
1850.38 18519 728 5426 11024 11932 13989
1853.27 12895-9167-5746 19066 5203-5279
1856.17 6643 2155-5579 11486 26285 17943
1859.06 13231 18653-3604-13807 10935 17135
1861.95 3934 8857 1440 983 13721 10980
1864.84 18067 23389 26650 24039 34250 52787
1867.74 38859 38720 65233 45769 32868 49865
1870.63 52798 56151 51895 43965 53722 67865
1873.52 69533 73397 91137 99036 102551 91022
1876.41 94143 112675 118949 117351 111332 130285
1879.31 152736 166236 167640 170110 179587 194396
1882.20 198560 184369 178639 182083 199980 234751
1885.09 247565 254202 272506 262991 253503 250696
1887.99 257770 286502 312730 315334 313450 327909
1890.88 336387 339006 346634 355355 370015 384066
1893.77 403734 429572 423411 413998 425478 435153
1896.66 434187 459584 484708 500981 508293 490977
1899.56 476842 481244 509008 507484 517996 538522
1902.45 530970 530227 512512 507778 516125 512818
1905.34 512343 515848 510264 503325 516248 529768
1908.23 531117 529675 522669 523236 524203 503195
1911.13 488953 490207 487477 495019 513815 523938
1914.02 529996 522222 510615 499100 489150 486744
1916.91 509973 563671 558945 537093 549337 561479
1919.81 546132 516624 510534 524466 546859 537955
1922.70 515701 505982 508192 501823 480204 472714
1925.59 470710 462133 446917 439004 422924 413147
1928.48 420008 419402 415559 408001 417588 418389
1931.38 400013 386846 385305 398178 396194 373855
1934.27 341995 340935 362685 363920 362108 367632
1937.16 360924 340173 317504 281628 275395 273801
1940.05 275012 283715 277064 283795 274059 242671
1942.95 208816 206636 213419 209600 219814 223781
1945.84 215747 194005 191883 214995 204719 189341
1948.73 194326 198969 189576 171981 169715 170409
1951.63 168883 155497 135291 123941 126825 127338
1954.52 102270 91936 99502 83901 81286 61792
1957.41 30360 37918 48516 48418 35057 19825
1960.30 16085 19760 18217 27979 20545-2247
1963.20 99 14843 6042-11380-5023 1663
1966.09-1504-19287-32263-22314-11258-6238
1968.98-23028-50335-59747-47459-34819-42156
1971.87-50073-50008-40617-48549-68406-61885
1974.77-33677-24272-34434-25756-39468-62678
1977.66-64738-71922-52904-48193-66026-50328
1980.55-34005-37674-46829-57196-48553-41943
1983.45-60421-65745-45972-40618-49636-61024
1986.34-64613-54364-38302-44311-43604-33004
1989.23-45179-49724-39899-41326-43035-31652
1992.12-19566-16678-36393-47174-42050-33116
1995.02-27996-24931-9668-18447-49005-47361
1997.91-22685-8311-16902-29121-15367 16
2000.80-5240-6918-6481-5409 1467-660
2003.69 7195 14999 6279 15481 33510 34590
2006.59 23882 5276-6734 21747 59925 54896
2009.48 44528 41061 42285 52435 51988 61056
2012.37 88518 91305 93488 106194 103310 114874
2015.27 133117 136081 162977 205889 225780 221416
2018.16 213658 234381 252009 278183 303274 319926
2021.05 327150 334911 361956 406634 433337 450187
2023.94 474446 481903 511422 532954 543250 550054
2026.84 564746 586935 599929 629072 648844 666249
2029.73 684919 678926 660224 668287 678155 671564
2032.62 681395 670428 647994 642570 628686 623260
2035.51 651743 716380 769736 785508 794715 739434
2038.41 657506 629533 643836 675220 684372 689165
2041.30 701296 709410 735158 777507 804957 822041
2044.19 817614 804892 817310 830545 810096 779479
2047.09 768723 760333 734775 703651 690478 671255
2049.98 658089 629548 580015 570302 562933 538654
2052.87 527717 506401 472820 447478 423357 384007
2055.76 360835 346696 343050 345641 325767 294679
2058.66 271653 286852 292873 272027 267488 268436
2061.55 262733 246042 212384 205198 226021 232777
2064.44 213444 184617 167113 169125 172154 169544
2067.33 164380 164696 176334 171449 167498 161199
2070.23 153210 179466 193352 185379 184042 190485
2073.12 175160 154650 158335 164823 169371 191037
2076.01 181193 149840 164426 180503 184722 171594
2078.91 165236 174037 172219 183312 199851 224035
2081.80 224028 212189 215325 208447 211389 220981
2084.69 219853 243723 283923 259780 228056 227954
2087.58 217644 224877 251214 265012 282028 333175
2090.48 318738 274119 277902 277049 271974 289764
2093.37 299381 328973 402858 374013 329006 337805
2096.26 329497 318946 318285 331284 390236 417728
2099.15 361246 345784 354792 356312 371168 385449
2102.05 393829 471942 480020 401981 416798 428271
2104.94 406294 424053 432367 477390 547317 508337
2107.83 478209 454197 423222 449226 467383 472143
2110.73 552674 581070 507038 495440 516103 522518
2113.62 519638 521545 581570 650662 597220 529789
2116.51 528439 539161 547036 554230 570634 660686
2119.40 694199 643269 643244 640620 627459 639738
2122.30 663083 724167 758864 700754 670669 670299
2125.19 671951 670833 663273 705284 770572 724266
2128.08 673535 686856 658172 629685 637413 653829
2130.97 698528 699901 647615 631486 641321 654652
2133.87 670051 655098 665599 678988 646574 661919
2136.76 671721 661698 680730 695263 711002 713185
2139.65 690172 688480 702239 706653 703083 713034
2142.55 724498 713256 714921 724262 708659 715146
2145.44 742209 729165 717681 704370 678628 671306
2148.33 660454 667428 665168 667467 703790 671718
2151.22 646615 641162 611579 622132 644420 686247
2154.12 729857 691786 651374 649429 638316 637641
2157.01 653787 738652 752519 668810 644723 669323
2159.90 690224 688836 728376 801888 779159 739453
2162.79 741146 738804 749642 748248 810461 863290
2165.69 806863 776742 764580 768784 796464 871187
2168.58 985835 943361 843263 807334 786228 772864
2171.47 761957 853930 874187 766695 739278 730112
2174.37 747589 736439 780668 847626 756736 698402
2177.26 700569 719376 723262 766235 838130 767757
2180.15 703058 717425 725200 722701 744878 820097
2183.04 786752 721764 727558 716977 718627 738673
2185.94 819121 815922 758602 771407 743417 711510
2188.83 728521 794264 794647 726455 695679 703774
2191.72 709612 697045 743438 763735 729394 707317
2194.61 719285 725719 734177 768147 737926 719420
2197.51 742985 742523 738305 778751 809408 787494
2200.40 786092 779444 771342 783109 806749 803130
2203.29 760008 775059 784002 758203 794627 833654
2206.19 794918 768740 769722 757563 768421 793447
2209.08 810608 812335 794208 787842 809663 826015
2211.97 837260 816911 784399 786612 788397 774137
2214.86 760862 749062 744790 744216 740216 734837
2217.76 738994 758273 765391 767904 763290 761353
2220.65 756756 763119 778056 754818 736526 737312
2223.54 723551 705984 710945 733972 737179 718839
2226.43 692015 670495 659710 662180 655208 648283
2229.33 647382 636219 626162 620625 603056 588314
2232.22 598136 583821 584437 576406 540462 532898
2235.11 544670 548711 526638 510602 482455 467345
2238.01 466077 447590 451730 459317 449641 449196
2240.90 460965 472706 482910 478824 481367 477335
2243.79 474635 483469 479532 475719 473583 472384
2246.68 462500 446153 445298 462180 482346 505761
2249.58 520443 523193 516728 502074 508772 525412
2252.47 508256 499705 505553 508425 532324 547946
2255.36 535172 538778 558446 562731 572841 579948
2258.25 579532 584959 592182 602065 613579 609612
2261.15 611407 611061 613442 617501 619829 628546
2264.04 645411 643977 623962 634898 634715 637097
2266.93 640905 636286 627124 625922 623038 601724
2269.83 612465 621726 630793 646358 630872 623505
2272.72 614332 597420 620476 655326 670945 692244
2275.61 707448 725416 730954 720998 716952 719327
2278.50 737618 760579 788489 811402 814070 816332
2281.40 829322 854382 869761 865342 870895 872774
2284.29 873937 867976 872025 890982 888061 890024
2287.18 901482 903875 899680 885161 883781 892535
2290.07 911350 899856 889792 913272 913083 902913
2292.97 897942 901085 895471 905210 887488 847955
2295.86 841595 871152 909796 918891 923954 957788
2298.75 986010 997102 1002030 1036075 1074456 1088197
2301.65 1077698 1051621 1057557 1091356 1111869 1092919
2304.54 1119554 1118382 1108133 1092052 1041743 1054545
2307.43 1062044 1069774 1026399 1022431 1059980 1053282
2310.32 974297 951075 1009111 1010594 934450 899609
2313.22 954843 988827 954785 869280 924903 999470
2316.11 964342 871655 898355 987714 934886 785763
2319.00 823240 960144 932273 749759 778312 975894
2321.89 961352 792064 830768 1020678 922591 657833
2324.79 723315 976514 875603 611556 737581 1002723
2327.68 851449 599186 793877 1045773 812315 603603
2330.57 898657 1071578 733443 630707 1030419 1079583
2333.47 684416 761850 1131635 962618 650469 945069
2336.36 1203652 826559 682174 1071529 1030821 671594
2339.25 867092 1152099 865904 718983 1064848 1070929
2342.14 788598 957696 1138414 909352 886228 1133966
2345.04 1108116 1017683 1154221 1219263 1157740 1209582
2347.93 1283776 1299246 1277044 1237047 1264187 1237550
2350.82 1120931 1179988 1235338 1026188 1036305 1171811
2353.71 912827 882917 1071369 796731 814209 1041892
2356.61 666564 690578 980451 592457 692131 917836
2359.50 499478 709134 816902 429112 788176 727223
2362.39 448906 854415 603400 557317 837103 504212
2365.29 716244 769896 596555 905131 745191 820472
2368.18 903744 757588 979582 887693 971045 1063102
2371.07 1045730 1204778 1147249 1236057 1254197 1314890
2373.96 1364433 1372376 1441142 1439029 1501450 1532573
2376.86 1598593 1630268 1660463 1687658 1707173 1739666
2379.75 1769891 1774644 1731667 1695603 1687690 1677510
2382.64 1639924 1601015 1578051 1532492 1489898 1448910
2385.53 1431453 1431599 1464169 1508642 1521562 1565847
2388.43 1614407 1684617 1661663 1492881 1391884 1396691
2391.32 1420327 1461876 1536739 1590986 1621539 1670350
2394.21 1716842 1759521 1800046 1830686 1859456 1881144
2397.11 1875805 1865922 1847036 1797575 1733193 1733677
2400.00 1711276 1638358 1600802 1553067 1494214 1421612
2402.89 1364000 1332561 1308974 1268219 1224539 1225052
2405.78 1237523 1266971 1303563 1299555 1295027 1275739
2408.68 1246863 1245425 1275630 1316138 1343421 1378596
2411.57 1410009 1447977 1499120 1533792 1552764 1573452
2414.46 1627319 1662975 1663626 1689429 1727404 1758761
2417.35 1772130 1793153 1785210 1753606 1747002 1732385
2420.25 1723638 1716761 1714962 1723739 1703150 1718432
2423.14 1765726 1778861 1791694 1803252 1836777 1881324
2426.03 1915611 1938431 1959739 1980202 1996271 2008234
2428.93 2029858 2061567 2089480 2111790 2098182 2115985
2431.82 2126382 2100728 2100004 2110531 2126238 2146288
2434.71 2157277 2153513 2105739 2066526 2052799 2032173
2437.60 2032146 2019196 2001718 2006164 2017544 2003790
2440.50 1956824 1923567 1898597 1859447 1820300 1802628
2443.39 1801085 1802199 1810111 1798638 1784713 1809555
2446.28 1810030 1795141 1798951 1807751 1785870 1767656
2449.17 1782003 1772496 1744989 1720231 1698409 1678682
2452.07 1660836 1604503 1535008 1494349 1448071 1392517
2454.96 1330873 1287206 1256371 1210796 1158428 1105257
2457.85 1072363 1048386 1014499 983195 926881 881789
2460.75 878721 855865 820921 781455 747886 720528
2463.64 686274 655348 663191 666939 664506 662008
2466.53 634131 608602 597436 591299 562347 549757
2469.42 563289 568145 558701 548637 529059 511445
2472.32 515140 501130 475070 474366 447178 424835
2475.21 419100 380639 377094 373581 356405 347045
2478.10 330049 334930 323565 321398 330857 342252
2480.99 344382 321030 347611 350445 321309 304615
2483.89 289412 306619 305126 284943 280178 265954
2486.78 252399 255312 275941 285126 278544 269187
2489.67 269731 279860 261109 247195 244441 249959
2492.57 233698 207729 219467 238447 246091 234687
2495.46 247702 258355 255139 246404 228700 238120
2498.35 255216 263352 251022 247063 249570 228634
2501.24 231191 255880 259351 260652 282578 303511
2504.14 310691 310628 320646 333394 345694 355990
2507.03 362198 363834 361455 378295 400670 404075
2509.92 418576 424476 427374 464071 475146 470642
2512.81 465412 455551 477763 544968 578291 556313
2515.71 573454 602897 587971 585665 590725 601187
2518.60 606433 618880 669275 700345 685338 690534
2521.49 732785 746878 741444 741034 744964 766723
2524.39 781896 800155 839552 861690 880833 870215
2527.28 839164 836303 824760 815981 823067 834050
2530.17 834110 824737 833144 833254 843653 856712
2533.06 845168 835167 813576 807989 804437 776886
2535.96 779200 792472 804536 827496 839613 816988
2538.85 810219 806017 796205 796771 794603 796845
2541.74 806026 801707 801440 825198 795521 778006
2544.63 795611 799576 780155 752835 761281 772871
2547.53 753567 717992 725024 729479 703981 700795
2550.42 689238 677373 676490 669102 659242 661092
2553.31 664669 658701 658954 648505 668555 699290
2556.21 697708 694030 681375 695412 714982 714480
2559.10 706982 722167 741638 748597 752965 773139
2561.99 805850 824443 839959 819665 846682 880280
2564.88 902507 945882 944828 961469 982007 979755
2567.78 1005805 1054397 1092158 1096007 1111443 1150724
2570.67 1183743 1231816 1277184 1284888 1314152 1348965
2573.56 1376122 1401608 1435862 1481697 1517990 1545331
2576.45 1572966 1617050 1648084 1699423 1735170 1770814
2579.35 1833032 1856468 1886415 1924280 1959401 2013673
2582.24 2036391 2088357 2176509 2193095 2229813 2318172
2585.13 2345250 2357914 2407898 2480672 2552496 2618056
2588.03 2699060 2752835 2837369 2996707 3169613 3230709
2590.92 3178711 3175453 3231763 3265142 3280256 3300570
2593.81 3348977 3397390 3426725 3481119 3530987 3612867
2596.70 3715493 3831118 3995774 4029509 3912247 3845215
2599.60 3824238 3826262 3843879 3866173 3894882 3907305
2602.49 3920787 3937917 3955063 3951687 3968205 4018800
2605.38 4012806 3990300 4024812 4084304 4125008 4159914
2608.27 4179501 4203632 4254641 4299430 4342606 4365273
2611.17 4380417 4416654 4451887 4483962 4531073 4568295
2614.06 4578997 4581409 4610678 4634516 4661423 4732832
2616.95 4665655 4530835 4492470 4479373 4464842 4496678
2619.85 4550327 4558910 4594617 4633735 4641987 4645347
2622.74 4631810 4613428 4600824 4617733 4633394 4593951
2625.63 4599922 4645362 4667733 4684089 4718412 4764731
2628.52 4789538 4819332 4845546 4874481 4900908 4926741
2631.42 4968575 4972931 4969134 4998677 5001777 5005373
2634.31 5021783 5024261 5038328 5034540 5043084 5055013
2637.20 5018019 4991021 4981030 4961204 4954418 4922687
2640.09 4843312 4810121 4788696 4730228 4692287 4647158
2642.99 4589557 4588579 4600210 4602692 4640689 4701217
2645.88 4757820 4811749 4892429 5002009 5067482 5125314
2648.77 5217120 5255093 5287113 5310568 5293255 5304479
2651.67 5310681 5327050 5333442 5295092 5292944 5300931
2654.56 5284551 5276226 5266314 5244425 5224548 5239026
2657.45 5238733 5215522 5186701 5097368 5010110 4952925
2660.34 4931361 4917003 4859622 4823984 4818949 4816944
2663.24 4817544 4776418 4747459 4744766 4699502 4698734
2666.13 4722291 4688501 4664257 4651242 4605931 4563817
2669.02 4535950 4497210 4445701 4399191 4358278 4294135
2671.91 4239345 4191631 4123756 4073429 4059843 4075335
2674.81 4084601 4075897 4121904 4184574 4233133 4282018
2677.70 4353125 4448286 4549337 4719710 4854204 4890620
2680.59 4913146 4991487 4997425 4872597 4774427 4726992
2683.49 4605549 4425531 4306074 4212757 4120119 4036151
2686.38 3978541 3934555 3878395 3852508 3842766 3820830
2689.27 3795678 3767580 3716809 3657428 3613160 3593778
2692.16 3584092 3532131 3485022 3476130 3459768 3430447
2695.06 3403031 3387421 3389873 3390479 3381622 3396745
2697.95 3386822 3355869 3378287 3392310 3394765 3421399
2700.84 3436574 3460091 3502091 3536707 3555627 3585496
2703.73 3637089 3670963 3708086 3775164 3844214 3895530
2706.63 3917257 3947296 4032512 4100360 4168353 4248610
2709.52 4297150 4369068 4472775 4563507 4666722 4791580
2712.41 4880303 4895200 4927252 4998094 5058497 5122125
2715.31 5187680 5257473 5303140 5341374 5388431 5421903
2718.20 5468100 5534641 5634524 5757744 5869604 6007792
2721.09 6194543 6431322 6640207 6817120 7006045 7190210
2723.98 7360036 7545679 7735516 7888608 8046176 8214506
2726.88 8386245 8577556 8782331 8960775 9136344 9315192
2729.77 9475091 9648812 9841080 10027364 10199485 10404577
2732.66 10592549 10707509 10831220 10932033 11024649 11135102
2735.55 11209753 11234815 11227976 11174736 11120971 11087174
2738.45 10992664 10874081 10748469 10629947 10591920 10672896
2741.34 10960625 11345053 11432044 11154297 10737546 10451757
2744.23 10384353 10433876 10472508 10528887 10668880 10865976
2747.12 11107471 11348522 11620123 11885120 12099270 12274579
2750.02 12333209 12299998 12277564 12229189 12198757 12124075
2752.91 11992495 11889385 11712785 11479274 11257120 10991209
2755.80 10720217 10450121 10162895 9872552 9588581 9336135
2758.70 9115242 8872897 8610159 8406488 8256306 8093082
2761.59 7925965 7807608 7696908 7614017 7512638 7372927
2764.48 7278170 7215637 7099403 7002162 6971611 6901533
2767.37 6849892 6815774 6777589 6741072 6698184 6654184
2770.27 6600330 6593785 6606432 6613838 6629585 6627117
2773.16 6577168 6536611 6569338 6605182 6587043 6623668
2776.05 6687787 6695197 6729776 6804711 6832642 6866916
2778.94 6925753 6980466 7017742 7040205 7091646 7145561
2781.84 7195601 7232472 7256090 7286164 7325114 7323903
2784.73 7353944 7383589 7376094 7397993 7409082 7421271
2787.62 7442676 7482249 7522719 7566371 7623099 7671118
2790.52 7755710 7857770 7948796 8087474 8256066 8449109
2793.41 8758621 9089352 9156077 8900437 8702276 8714367
2796.30 8760768 8827118 8946704 9098005 9299738 9442489
2799.19 9534175 9647039 9777085 9909311 10014164 10152759
2802.09 10283437 10379737 10490434 10643403 10824451 11007338
2804.98 11194523 11366132 11547196 11780817 11993419 12188514
2807.87 12426395 12665613 12908512 13138566 13323779 13529825
2810.76 13766020 13987742 14249791 14541728 14789763 15094970
2813.66 15395916 15597141 15848314 16191366 16538329 16844513
2816.55 17196971 17519162 17755252 18016909 18314903 18671346
2819.44 19092668 19537013 20046725 20668251 21275567 21820998
2822.34 22395481 22959121 23406030 23938224 24532037 25050704
2825.23 25600178 26114957 26629046 27151991 27738810 28325115
2828.12 28845286 29463911 30125088 30711300 31225406 31817967
2831.01 32399678 32921429 33642472 34343620 34964291 35658835
2833.91 36349002 37014741 37608963 38342739 39210153 40108290
2836.80 41129175 42234971 43496492 44931171 46438237 48021765
2839.69 49450531 50551800 51516702 52607343 53912366 55254052
2842.58 56651712 58059792 59503138 61068262 62631410 64166152
2845.48 65758073 67277342 68745359 70364374 72025601 73710787
2848.37 75536128 77539184 79646154 81926125 84549929 87258020
2851.26 89903537 92576049 94982382 97260793 99789320 102377675
2854.16 105151660 108243771 111505046 114792624 118096507 121621748
2857.05 125037663 128441854 132002128 135496915 139040547 142436667
2859.94 145889600 149138706 152365063 155782270 158740312 162063436
2862.83 165374098 168223541 171607792 174645385 177491091 180787324
2865.73 183511507 185998738 188582326 190516977 192355235 194790649
2868.62 197958012 202285774 209012189 219648951 233273824 243940946
2871.51 249567687 253023105 255319637 257651491 261000101 266336494
2874.40 273244333 281234901 290222037 298950296 307333880 314804565
2877.30 320656291 325527272 328712342 330451264 330758951 328851016
2880.19 325884038 321434988 315341537 308566297 300298794 291635942
2883.08 284001556 277391362 272672417 270225400 272181103 283478342
2885.98 306873087 321893136 311685594 293046888 283755764 284704678
2888.87 286685700 286703359 286175273 286499936 288667060 291774919
2891.76 296174251 300718923 303943258 306783903 309075182 309911085
2894.65 310068052 309433314 307729705 305623333 302986064 299869784
2897.55 296871135 293324356 289523113 285988119 282197311 278366443
2900.44 274311543 270286992 266543825 262877548 259785337 257104444
2903.33 254105814 251232574 249062653 247720636 246972829 247037640
2906.22 247917405 249192642 250795337 252171045 253141781 253966808
2909.12 255902204 258219906 259956891 262291920 264367802 266848077
2912.01 269941389 272793325 275869485 277932670 280015271 282396566
2914.90 285297922 288922857 291768229 293559187 295906729 298719216
2917.80 301502625 306120075 311201535 317782772 326693757 334690921
2920.69 341289443 345850835 348922612 353108270 360001695 368296789
2923.58 372828748 374421102 375334661 376749459 382110534 387761485
2926.47 392943049 398679726 403266631 408541247 412730111 417003055
2929.37 421627001 427482273 436826764 444839461 454874583 469016595
2932.26 483981211 497156621 495454291 483138937 473679070 466962975
2935.15 466242066 469277217 473419583 479917356 488760746 499938215
2938.04 511247830 516375176 516638935 518763794 520601812 519943546
2940.94 518246394 516812310 516782817 518610864 518850615 518824573
2943.83 519476289 520485172 522807040 526137607 532564124 541700011
2946.72 553676818 565259217 569843243 569036107 567959433 562681175
2949.62 557300972 558541436 560664829 565498870 573831569 580655354
2952.51 588453040 597872908 605051351 613257104 621943530 629570927
2955.40 639836657 647720462 653703369 661529339 668826714 674882177
2958.29 682267419 689471816 693778495 700490232 706025456 708542658
2961.19 714019503 719336828 725885789 735643698 749318237 775293934
2964.08 815106851 860314195 912710287 949054606 927482153 869535534
2966.97 821644504 793905250 772877435 744946221 715375041 695876141
2969.86 683375392 663068326 638345196 628162933 633616181 652164853
2972.76 668741588 670488082 662281865 647059235 635617821 629373780
2975.65 623261239 621109008 621232548 621354918 623308928 624372410
2978.54 625370495 625699218 623970981 622414136 617713478 611987046
2981.44 604806931 594535952 584287434 570691238 557091408 542138705
2984.33 525407789 508551638 491133698 474070489 455466330 438813753
2987.22 420794227 403028417 386880679 369326404 353715227 337736349
2990.11 322375157 308111520 293691056 280505967 267221390 255116016
2993.01 243485125 232096593 221835273 211443595 201707905 192479204
2995.90 183531373 175245070 167292186 159654016 152446285 145453451
2998.79 138799081 132544057 126355456 120599351 114896904 109514319
3001.68 104483737 99515505 94870471 90355481 86090452 81921107
3004.58 77925740 74189946 70521600 67096891 63797624 60601182
3007.47 57603148 54690510 51979952 49391493 46876966 44575073
3010.36 42359767 40192677 38202152 36312272 34513307 32890177
3013.26 31339215 29862884 28493866 27160332 25895924 24717377
3016.15 23585974 22517087 21547394 20643613 19769092 18947930
3019.04 18199447 17494771 16816276 16212089 15633413 15082906
3021.93 14593711 14114166 13665432 13260615 12845835 12465237
3024.83 12132618 11818297 11528858 11259132 11007271 10765886
3027.72 10538411 10308481 10085589 9908162 9744895 9572300
3030.61 9436822 9330246 9194280 9030018 8913048 8816106
3033.50 8694210 8598424 8508477 8401062 8297809 8253584
3036.40 8192656 8086535 8034617 7988375 7944385 7906135
3039.29 7854497 7797090 7774968 7743112 7668053 7629994
3042.18 7592696 7546474 7543012 7529244 7496349 7460173
3045.08 7383644 7342398 7357849 7342020 7304779 7295018
3047.97 7254702 7194338 7193786 7199918 7169044 7139488
3050.86 7132621 7119919 7107921 7093802 7085388 7061549
3053.75 7091292 7117954 7100875 7119871 7105217 7141505
3056.65 7183587 7179910 7199497 7222776 7245920 7266189
3059.54 7279649 7316539 7384194 7437445 7477369 7526231
3062.43 7566288 7633099 7671399 7699657 7757736 7801697
3065.32 7827401 7867621 7942514 8007875 8039201 8073917
3068.22 8155222 8196929 8227449 8301599 8340334 8344705
3071.11 8399767 8456857 8482162 8517322 8561014 8607077
3074.00 8626422 8641665 8622047 8605115 8658862 8722725
3076.90 8730997 8736154 8739424 8710553 8685739 8678689
3079.79 8634296 8617401 8668386 8608871 8561597 8583669
3082.68 8609155 8708845 8879559 8922003 8755741 8623450
3085.57 8641643 8711096 8768373 8816086 8785017 8685611
3088.47 8552016 8450860 8421529 8333011 8214764 8155629
3091.36 8074305 7973922 7937958 7868634 7756174 7661120
3094.25 7572033 7473641 7346710 7237384 7113082 7026506
3097.14 6961952 6840520 6733145 6632048 6583146 6538080
3100.04 6419893 6288361 6205265 6156289 6071025 5947213
3102.93 5848238 5803141 5756950 5664577 5559824 5476575
3105.82 5418445 5351621 5291767 5243424 5181133 5135629
3108.72 5095017 5049416 4994298 4938030 4885392 4843831
3111.61 4813815 4777640 4714214 4639970 4628065 4624227
3114.50 4581518 4547860 4515030 4532054 4537736 4481087
3117.39 4437426 4410907 4399754 4432819 4456592 4391313
3120.29 4337040 4355844 4371351 4360496 4376722 4387962
3123.18 4380615 4381198 4368222 4373247 4405159 4426254
3126.07 4422225 4425187 4444488 4457657 4467420 4506428
3128.96 4523910 4546792 4580665 4593343 4603174 4626808
3131.86 4658289 4663674 4686105 4713351 4774079 4815241
3134.75 4817874 4866409 4903213 4886720 4892716 4983598
3137.64 5048402 5092553 5134304 5138845 5172312 5220159
3140.54 5274868 5316881 5348963 5402661 5407190 5404951
3143.43 5433679 5447968 5491793 5520854 5528384 5542858
3146.32 5584252 5622945 5649260 5714706 5781261 5826338
3149.21 5852184 5874204 5917143 5976779 6037557 6091965
3152.11 6153277 6218179 6277601 6334981 6395101 6448298
3155.00 6497907 6575943 6687213 6752162 6788834 6842527
3157.89 6911582 6995897 7045609 7095558 7134581 7160866
3160.78 7192524 7206031 7209693 7224063 7218040 7229426
3163.68 7254436 7282223 7342242 7361943 7376658 7468603
3166.57 7560789 7607329 7703217 7813339 7910403 7988389
3169.46 7992883 7972889 8016662 8087094 8118998 8119360
3172.36 8092354 8118105 8126586 8126844 8211850 8249182
3175.25 8169635 8054710 7952345 7958053 8004553 7902562
3178.14 7784956 7728091 7611765 7497302 7434334 7382675
3181.03 7357382 7354205 7324740 7311719 7375836 7461424
3183.93 7607775 7706352 7645638 7641111 7679513 7652533
3186.82 7730294 7829260 7772316 7585583 7335896 7165933
3189.71 7037244 6914444 6872125 6784413 6640667 6563808
3192.60 6472202 6398326 6370771 6267258 6175853 6114039
3195.50 6060744 6001064 5902796 5804355 5761380 5749855
3198.39 5694717 5622719 5563758 5506156 5477091 5423020
3201.28 5346563 5303693 5278328 5288202 5253344 5164678
3204.18 5048392 5013961 5052733 5036880 4939177 4841655
3207.07 4814538 4790127 4738549 4684121 4697273 4696590
3209.96 4630638 4604197 4618837 4629694 4621731 4580264
3212.85 4529631 4494270 4467259 4491293 4493956 4453165
3215.75 4440145 4428061 4443039 4456358 4450078 4439750
3218.64 4416519 4444892 4518047 4527316 4521983 4524355
3221.53 4550962 4592710 4573792 4504640 4481526 4494670
3224.42 4483408 4438083 4386359 4355918 4331741 4272687
3227.32 4182135 4101986 4028731 3945748 3834342 3773495
3230.21 3698873 3571518 3509723 3475699 3414917 3406222
3233.10 3402670 3392950 3397742 3377357 3325313 3302008
3236.00 3312596 3299029 3312885 3317092 3236899 3183442
3238.89 3156570 3119332 3094772 3023153 2965958 2952212
3241.78 2898466 2821403 2761012 2709568 2636534 2533621
3244.67 2473530 2421098 2339923 2248384 2178541 2141115
3247.57 2055869 1965597 1928836 1890810 1816149 1742328
3250.46 1651632 1574652 1542036 1491683 1452056 1421277
3253.35 1380678 1349464 1317779 1243712 1201499 1172988
3256.24 1130205 1100035 1048565 1023383 985987 945606
3259.14 926665 935813 945640 928171 882236 829795
3262.03 811230 813048 804764 786962 772042 753557
3264.92 753661 757979 749173 747420 783743 785307
3267.82 724456 729058 731663 739706 759046 733264
3270.71 718775 708161 709857 719361 738460 762326
3273.60 800242 772761 734362 741140 758491 768478
3276.49 780286 788434 755261 746817 747745 786624
3279.39 798314 752293 741209 739054 764751 781221
3282.28 757533 755876 790138 811991 805554 818781
3285.17 844211 866076 870917 801173 776345 819228
3288.06 828976 839932 842037 839422 804055 778783
3290.96 783835 770793 765007 755313 752940 776506
3293.85 791497 777466 756718 750421 762306 751963
3296.74 714149 730407 755645 721135 741002 766064
3299.64 758214 755259 740579 709975 664589 639814
3302.53 661698 661385 627343 632139 617971 595338
3305.42 595106 583958 564779 533507 555678 582278
3308.31 567357 550372 549196 555710 536040 528600
3311.21 540698 516078 484727 508512 457508 441712
3314.10 470503 429946 427435 459344 448543 420646
3316.99 427259 434880 443073 458262 459043 427821
3319.88 432177 465002 442052 420517 412766 392638
3322.78 418992 431153 388986 372894 405614 471516
3325.67 485474 464157 450449 436601 455293 495945
3328.56 488202 453020 495875 486186 490635 551499
3331.46 521314 508660 551977 552309 522149 535910
3334.35 546741 563191 615990 644507 639285 615411
3337.24 601531 606621 612536 608448 630982 681376
3340.13 654726 606378 609179 641446 707516 755623
3343.03 752446 751887 709234 688420 709700 694271
3345.92 710433 731428 775965 763518 747898 772801
3348.81 748747 729867 772168 810712 784897 784318
3351.70 778509 758489 785567 818270 822079 799608
3354.60 802762 791885 820886 841373 810340 823527
3357.49 816489 834230 869228 836133 779735 791851
3360.38 803384 806942 817825 808010 836843 873592
3363.28 839660 798626 826633 831989 803424 827517
3366.17 843300 858553 894900 892095 847900 821936
3369.06 853984 872372 855268 815599 801618 801694
3371.95 823075 868121 867359 887382 918995 902457
3374.85 864910 879453 961723 996884 983520 1002292
3377.74 992130 978052 991946 987772 985428 988983
3380.63 1033080 1093640 1092715 1063152 1062133 1131494
3383.52 1172025 1147700 1195219 1190889 1160101 1212473
3386.42 1225990 1257717 1270490 1238298 1255582 1270438
3389.31 1240852 1239566 1298341 1305853 1268416 1308562
3392.20 1368345 1382558 1364563 1355378 1373603 1337053
3395.10 1336854 1373347 1354607 1341766 1357667 1352873
3397.99 1313938 1290952 1290971 1279043 1227422 1186959
3400.88 1189885 1223149 1225122 1198491 1213295 1246692
3403.77 1216587 1211948 1215389 1173955 1143111 1176981
3406.67 1175221 1091452 1060964 1057514 1037319 1018549
3409.56 1028317 1025247 1015822 1003553 1021114 1014391
3412.45 942390 914299 884287 834770 838374 812471
3415.34 791444 744801 699574 725702 681545 609154
3418.24 585822 562745 531951 530107 506552 439238
3421.13 398633 401130 383256 363483 366567 354031
3424.02 312392 319456 369438 329167 274325 256023
3426.92 266832 289574 266937 235747 244155 237715
3429.81 248727 283056 290845 263206 241859 228408
3432.70 211870 220925 189976 183596 205567 208334
3435.59 163429 154469 208687 214003 194203 203664
3438.49 205623 155496 156661 168901 185294 189693
3441.38 145820 143088 146168 160504 184845 125662
3444.27 74842 102443 131866 131750 108558 108050
3447.16 129024 103286 87757 147499 169711 152992
3450.06 135264 138391 161911 160215 106847 41162
3452.95 50712 75923 91798 95885 81296 68679
3455.84 53669 48238 68691 71500 66967 111234
3458.74 139447 94056 71255 82012 101372 83955
3461.63 51787 92196 115097 126610 120341 114280
3464.52 116605 79626 67963 61077 88253 117941
3467.41 79806 57608 59200 99746 120734 99982
3470.31 90952 99399 101704 83636 72250 116810
3473.20 129409 85135 97553 114758 59080 49805
3476.09 94894 91305 88396 117789 124453 116755
3478.98 145925 130157 92633 132430 174886 169670
3481.88 140025 112865 109097 95173 80415 79187
3484.77 121711 144272 135173 133225 150655 132551
3487.66 104059 108698 104056 106751 113767 121071
3490.56 85590 46838 71102 78420 63268 101969
3493.45 122394 113265 109132 125876 123742 135230
3496.34 136849 88430 33091 66489 136078 107185
3499.23 109504 105771 55698 67976 119435 130770
3502.13 110642 102861 110312 93393 116888 148746
3505.02 126646 116654 84820 62792 65950 88327
3507.91 81308 104509 99704 58642 46387 23571
3510.80 48656 29806 42625 86099 71244 82112
3513.70 85361 57732 28889 8385-12735 8529
3516.59 34466-3888 12143 62042 53581 28315
3519.48 17838 21671 24628 42039 28983 25981
3522.38 49991 18676-27234-18143 21480 13068
3525.27-42963-36636 12207 13733-11819-7616
3528.16-24538-46452 40763 71093 44681 40051
3531.05 10184-58015-90990-50617-5852-4619
3533.95-43587-21002 5845 32496 6963-57254
3536.84 2588 29502-83 6233-2233-17229
3539.73-7508-7456 19470 28933 15089-14639
3542.62-31995-15911-1126 4905-19927 26825
3545.52 55560 21255 16473 22089 32067 67997
3548.41 45591 814 856 11669 18424 6195
3551.30 1708 20000 28309 29918 43350 19344
3554.20-2264 3283 42153 87724 46116 13551
3557.09 19592 21150 18970 32556 54393 44250
3559.98 30028 46006 97694 117101 98263 81774
3562.87 58195 74490 111666 99653 109950 120033
3565.77 116907 127018 135338 151224 175934 176873
3568.66 168941 137936 123945 112855 113044 122436
3571.55 94354 111481 124937 121067 124099 140976
3574.44 176085 150617 118948 136581 163405 226073
3577.34 242790 169603 156068 211741 236601 221397
3580.23 189525 208212 217278 203277 207744 202519
3583.12 225156 237090 203085 220023 250377 269432
3586.02 314676 277540 258760 269873 324794 393366
3588.91 344809 304218 283749 258986 276488 309850
3591.80 330546 352220 363600 367859 337301 323309
3594.69 375061 377685 343764 355545 375150 383187
3597.59 373935 369148 387413 407079 434911 452948
3600.48 484678 500223 463326 433209 414280 433914
3603.37 444146 449383 483172 478969 481905 508719
3606.26 552882 547112 533490 561394 555398 584912
3609.16 583005 562343 578985 579569 601793 641259
3612.05 659624 660221 657962 667325 674946 657764
3614.94 645465 654873 665024 648413 652581 695315
3617.84 708413 706812 788531 803778 731000 717130
3620.73 732803 766621 736116 734507 780144 756022
3623.62 730759 719981 741043 772536 796837 809092
3626.51 830223 834462 856476 884076 850097 910325
3629.41 896035 808722 816133 837249 804378 756585
3632.30 766632 762886 784514 815050 772717 732467
3635.19 741712 777436 776695 796487 866743 884385
3638.08 887337 874186 843041 876308 910039 922342
3640.98 901691 868040 886492 904681 874137 863984
3643.87 886764 926633 889403 856288 907193 924238
3646.76 937428 919709 905910 950463 1055713 1013552
3649.66 938465 953332 956450 930427 902086 873375
3652.55 866079 889663 875489 890213 855950 827896
3655.44 894019 916913 822173 805742 854703 839790
3658.33 835129 869495 892566 860534 831537 847484
3661.23 884153 880168 852577 864152 867430 862624
3664.12 870755 880932 868567 876917 868910 846566
3667.01 880040 900286 948703 957738 923719 962450
3669.90 1065927 1063199 934449 898389 908596 917796
3672.80 925750 940580 960013 1007990 1032648 1099402
3675.69 1149635 1051146 1008224 1017260 1045518 1060048
3678.58 1037719 1044474 1083005 1051155 1013147 1035928
3681.48 1041966 1074546 1103654 1136447 1143141 1132845
3684.37 1145653 1117959 1091524 1099250 1121062 1121661
3687.26 1129855 1310107 1357808 1200345 1138072 1109789
3690.15 1113804 1146261 1134030 1114179 1090199 1047261
3693.05 1071853 1097511 1082482 1073549 1101360 1119885
3695.94 1080174 1035725 1032075 1055648 1069901 1083286
3698.83 1072425 1056637 1091783 1122114 1148890 1195737
3701.72 1202371 1144846 1129253 1142473 1136650 1114480
3704.62 1103897 1139239 1146827 1146090 1136866 1108740
3707.51 1110796 1116922 1153446 1187640 1138883 1114276
3710.40 1173530 1244054 1320214 1344244 1283441 1240865
3713.30 1238608 1249386 1270601 1297248 1308108 1347772
3716.19 1380146 1376601 1366978 1355962 1321557 1320782
3719.08 1329308 1335826 1335065 1323275 1327275 1356997
3721.97 1382942 1354026 1375956 1388051 1345356 1319924
3724.87 1305252 1299558 1369743 1398326 1359295 1355204
3727.76 1341090 1308654 1292913 1320721 1336810 1323291
3730.65 1348858 1423256 1475923 1429926 1364257 1387964
3733.54 1421044 1409863 1408685 1384355 1373176 1436924
3736.44 1431040 1323350 1263566 1289699 1290676 1249738
3739.33 1211762 1194452 1200089 1177878 1097748 1054040
3742.22 1060923 1079349 1079406 1176785 1266360 1085478
3745.12 927605 909152 892752 867779 828477 825592
3748.01 848325 970394 1053319 897531 792894 771839
3750.90 780051 931045 958234 807350 734623 720857
3753.79 682983 653962 635686 627632 689871 735750
3756.69 710166 693818 678204 667062 676168 722456
3759.58 739521 693328 691155 668069 628324 603368
3762.47 610368 634054 618437 615931 626887 657831
3765.36 653635 602006 565661 557775 596178 620474
3768.26 631269 634191 672833 629143 553701 593567
3771.15 600922 586026 596179 586199 555332 557353
3774.04 566010 544168 542569 586958 586025 566203
3776.94 601123 624442 611788 642030 653477 632179
3779.83 612454 570532 577319 606256 590023 568082
3782.72 583079 622598 623598 603013 596384 580149
3785.61 559223 543191 559490 585331 581854 559977
3788.51 530983 527184 538500 566244 598441 574291
3791.40 532977 515798 537162 560546 540491 524644
3794.29 525443 543648 553821 595053 603223 571731
3797.18 577604 550353 539227 561722 557936 563310
3800.08 570834 722489 803587 657249 609982 601530
3802.97 529612 527086 557321 544888 559087 575332
3805.86 611198 680502 662667 572960 556571 540352
3808.76 532380 583299 607747 592229 592771 599291
3811.65 567647 584020 600900 602626 608357 635844
3814.54 659528 712554 847752 790041 691750 679632
3817.43 650830 678036 675900 642952 685383 770341
3820.33 779024 766039 782467 705104 675864 731586
3823.22 749196 741991 746365 791719 816685 790955
3826.11 846759 889119 834066 819140 886648 901940
3829.00 870526 911689 952786 972157 1058136 1101254
3831.90 1075135 1091799 1092191 1113699 1180995 1261145
3834.79 1313583 1309366 1271014 1268258 1381085 1604109
3837.68 1598574 1484833 1491700 1531363 1557443 1584619
3840.58 1636548 1609401 1581455 1577296 1608350 1672489
3843.47 1719731 1772965 1746499 1732592 1783928 1756600
3846.36 1758170 1779601 1793467 1824515 1825924 1827302
3849.25 1813985 1802633 1821626 1851547 2001348 2149758
3852.15 2077385 1995712 2121046 2296218 2202231 2053042
3855.04 2038852 2030850 2021646 2054280 2069199 2074859
3857.93 2081806 2028883 2011054 2012293 2010322 1985493
3860.82 1975865 1988020 1923594 1858129 1789257 1767407
3863.72 1801775 1835014 1853877 1755704 1670599 1636474
3866.61 1604066 1608090 1621470 1642275 1687157 1706694
3869.50 1731488 1631202 1530454 1578279 1568539 1510423
3872.40 1507933 1490531 1480512 1532552 1499568 1443648
3875.29 1464925 1476395 1450540 1435151 1415417 1404640
3878.18 1412335 1412785 1428077 1443899 1408010 1369941
3881.07 1350491 1326670 1290864 1276734 1268353 1242394
3883.97 1224630 1252339 1330926 1303092 1225863 1237193
3886.86 1220614 1200941 1181424 1149670 1145778 1157374
3889.75 1160890 1165586 1210304 1176726 1117520 1111738
3892.64 1127974 1148776 1115136 1083113 1085770 1072402
3895.54 1096377 1089606 1071781 1062103 1037417 1062873
3898.43 1089160 1107988 1089500 1059572 1013522 1032485
3901.32 1091806 1045711 982553 983236 1049935 1102007
3904.22 1023340 930820 925777 946484 938502 909521
3907.11 940742 940886 894597 875191 886359 893214
3910.00 899254 911257 908003 875195 822976 838263
3912.89 872434 866157 829961 835670 817961 828299
3915.79 826708 803307 862913 854931 825399 829883
3918.68 847579 837852 797803 772896 771976 789003
3921.57 814984 801617 769106 767483 750806 744625
3924.46 735779 714071 696072 710101 730108 718231
3927.36 718736 689154 689868 723944 701630 709247
3930.25 698605 658769 673381 701993 714753 707965
3933.14 705596 684341 667067 670278 659054 643953
3936.04 660304 653231 646571 619322 570351 562157
3938.93 594520 628650 629378 600298 598441 618628
3941.82 628587 631212 599835 585581 603708 609179
3944.71 571059 571819 554894 543942 610196 617553
3947.61 560844 546156 563279 526838 515520 560901
3950.50 534455 501366 467012 497445 568442 559566
3953.39 545213 532717 555879 569999 548911 529553
3956.28 524863 515542 515073 533699 516375 493541
3959.18 503682 527941 530461 510541 515476 527264
3962.07 517177 493654 543777 577378 519219 500052
3964.96 503731 530156 537291 543116 559608 543498
3967.86 539442 537590 501720 500632 578914 597150
3970.75 567117 581901 573546 576110 606206 621135
3973.64 593771 572146
##END=
