##TITLE=1,4-Dimethylbenzene
##JCAMP-DX=4.24
##DATA TYPE=INFRARED SPECTRUM
##CLASS=IUPAC A
##ORIGIN=NIST, Analytical Chemistry Division, 301-975-3108
##OWNER=COPYRIGHT (C) 2001 by the U.S. Secretary of Commerce
##DATE=01/06/01
##$SPECTRA VERSION=1.10
##$UNCERTAINTY IN Y=2.1 % relative (B=1.10E-04,C=1.28E-9,D=4.08E-14)
##CAS NAME=1,4-Dimethylbenzene
##CAS REGISTRY NO=106-42-3
##MOLFORM=1,4-( C H3)2 C6 H4
##MP=13.26 C
##BP=138.35 C
##$NIST SOURCE=QUANT-IR
##SPECTROMETER/DATA SYSTEM=IFS66V (Bruker)
##INSTRUMENT PARAMETERS=KBr Beam Splitter; MCT Detector; Multipass cell
##STATE=gas
##SAMPLE DESCRIPTION=p-Xylene Primary Gas Standard
##PRESSURE=101.3 Pa
##TEMPERATURE=23 C
##SAMPLING PROCEDURE=1 L/min Flow
##RESOLUTION=1.9290
##DATA PROCESSING=NB Strong Apodization
##XUNITS=cm-1
##YUNITS=(micromol/mol)-1m-1 (base 10)
##XFACTOR=1.0
##YFACTOR=9.0949E-13
##DELTAX=0.9645
##FIRSTX=575.652
##LASTX=3974.605
##FIRSTY=1.48E-06
##MAXX=3973.64
##MINX=575.65
##MAXY=.0005354
##MINY=-7.98E-07
##NPOINTS=3526
##XYDATA=(X++(Y..Y))
575.65 1637498 1257526 638345 732290 663515 666885
580.47 230078-514072-550179-236394 195520 452540
586.26 155840-271537-377942 214675 331055 165906
592.04-200978-359219-505299-465556-96040-301453
597.83-522533-452551-551188-720783-531697-536997
603.62-419402-362462-548741-824160-878007-448655
609.40-323035-376603-590937-811757-834760-772967
615.19-687396-310251-252216-697544-696580-555053
620.97-637382-429101-377709-461896-551299-584671
626.76-724131-674227-297335-232835-397644-312271
632.54-417475-610069-689294-606849-285769-304343
638.33-466981-476181-214123-248869-337608-378766
644.11-440245-511248-372141-138503-103655-354608
649.90-353330-421110-332243-329007-457183-348719
655.68-168472-241772-332890-299467-301160-290714
661.47-301373-274800-334888-212069-913 467634
667.25 284619-157482-195299-323657-350960-336550
673.04-317841-338317-180099-178668-86175 123943
678.83 197830-23367-246679-329334-377885-500851
684.61-237535-36244 7405 87041 159656 167138
690.40 150711 83679 63753 258606 355139 343822
696.18 372275 308827 379920 571879 550280 275130
701.97 167676 187277 183899 282436 261453 198336
707.75 186296 171354 127851 171743 377200 396002
713.54 293835 187591 208119 244834 318740 227631
719.32 185226 217137 228423 151311 162858 243967
725.11 270036 383028 387567 310182 371325 407248
730.89 464936 415275 325761 259957 233638 209997
736.68 249322 355437 392537 709645 893804 501919
742.47 303583 461310 459535 377057 492369 596951
748.25 649925 672041 713453 738477 831614 999665
754.04 1068566 1057377 1156868 1310352 1565509 1903734
759.82 2328292 2770431 3366660 4276436 5426655 6871609
765.61 8704565 10916483 13336536 16148466 19708989 23902585
771.39 29025927 35133239 42289457 50608758 60116451 70443609
777.18 81651898 93498935 105694143 118394116 131570994 144581682
782.96 156451085 167043640 178486330 189067127 192217473 190285064
788.75 190927652 195759241 207362445 241182489 334840392 509856823
794.53 588684382 406543790 238960107 198760642 195617508 197250527
800.32 196966378 195156874 191575355 184507969 174553505 164775439
806.11 153204377 139245694 123708308 108781970 94961620 82199324
811.89 69928302 58504370 48162092 39325314 31714660 25385195
817.68 20200240 16286992 13292274 11297577 9725764 8605884
823.46 7875034 7464320 6928985 6506310 6073277 5881779
829.25 5630519 5379379 5121194 5035793 4925423 4849309
835.03 4737169 4631280 4297486 3888868 3462256 3106714
840.82 2504116 2218726 2061184 1811511 1466446 1358127
846.60 1408840 1345838 1032272 939991 1056190 1120069
852.39 1057888 938915 924997 970986 961778 994533
858.17 933733 873827 874965 920157 996468 1040691
863.96 1055396 1011300 925617 1022975 1100987 1215845
869.75 1222609 1225984 1198112 1240741 1238592 1216014
875.53 1201103 1293981 1312723 1253824 1306501 1365495
881.32 1177182 1180624 1293443 1427772 1477265 1430513
887.10 1430671 1566929 1578466 1524190 1514573 1610728
892.89 1596267 1594328 1609028 1646999 1634843 1646876
898.67 1580646 1596472 1606055 1594696 1587451 1637092
904.46 1704756 1798842 1826026 1869226 1882607 2036400
910.24 2209101 2404207 2547524 2638323 2771903 2969100
916.03 2941139 2974432 2980112 3016664 3068077 3172665
921.81 3225097 3252881 3270090 3266372 3270963 3336620
927.60 3225551 2954478 2863795 2999668 2968502 2817861
933.39 2741147 2779879 2704541 2646914 2635482 2772576
939.17 2794007 2844036 2924977 3014328 3098448 3203214
944.96 3272860 3397035 3506318 3589358 3644439 3729423
950.74 3860492 4022544 4164665 4290066 4408647 4614788
956.53 4680396 4743198 4705290 4762908 4875691 4792009
962.31 4745522 4777935 4895436 5008625 5047540 5128030
968.10 5247578 5399426 5314650 5156535 5025472 5011517
973.88 4968176 4914314 4927607 5002949 4945006 4864104
979.67 4835543 4819285 4840722 4952343 4976660 4948995
985.45 4892092 4941763 5046039 5153529 5230058 5275124
991.24 5341051 5426915 5442911 5492911 5549689 5656141
997.03 5692025 5725006 5676022 5665238 5628675 5503280
1002.81 5345548 5318861 5342374 5383795 5453308 5776557
1008.60 6265487 6949798 7897402 9266974 11118305 13645424
1014.38 16443771 19606086 22547023 24232009 24392596 23425131
1020.17 21908963 21652394 25013370 29186895 25805259 22754960
1025.95 24871586 27737319 29362300 29272365 27902681 25736261
1031.74 23479746 21616131 20380508 19452682 19020992 18994432
1037.52 19171875 19645520 20604604 22064352 23906374 25487390
1043.31 26551092 27254193 27066863 26908019 27429755 27723249
1049.09 27250450 27068724 27094984 26613196 25990841 25557716
1054.88 24933688 24103112 23241831 22349516 21510398 20726911
1060.67 20022483 19316728 18556687 17709500 16826251 15971950
1066.45 15149674 14486661 13901922 13321990 12710432 12087270
1072.24 11522940 11088047 10776467 10487340 10164984 9954650
1078.02 9824779 9752064 9876546 10070343 10326480 10543144
1083.81 10879376 11362400 11909784 12543816 13343475 14266059
1089.59 15275744 16443492 17600733 18589722 19436487 20124481
1095.38 20606609 20807533 20574167 19991475 19672255 20162868
1101.16 21400270 23369062 25441068 27305164 28845864 30161992
1106.95 31425657 32792048 34531804 36738057 39214781 41802881
1112.73 44042146 45206185 44908591 42807793 38773903 33734423
1118.52 29684142 28324020 30052192 33592713 37043228 39076348
1124.31 39486966 38453357 36138656 33011377 29373687 25828157
1130.09 22627951 19827350 17539827 15655754 13901577 12366537
1135.88 11067141 9928297 8985765 8182446 7416771 6819145
1141.66 6198240 5662683 5302148 5014533 4708131 4462226
1147.45 4263660 4111975 3948948 3825285 3759655 3674308
1153.23 3592564 3605615 3558997 3456055 3476675 3516288
1159.02 3463074 3413958 3424572 3488474 3490508 3483486
1164.80 3484870 3591077 3733468 3728000 3638381 3681625
1170.59 3689520 3709278 3670012 3708915 3863168 3851285
1176.37 3769460 3810333 3779243 3764979 3774481 3766814
1182.16 3687476 3610161 3617456 3560737 3413085 3298882
1187.95 3220230 3222707 3235023 3214774 3104440 3086129
1193.73 3058066 3006761 2908514 2855258 2879187 2926800
1199.52 2948514 3061179 3155857 3215180 3380879 3754352
1205.30 4264699 4915144 5679265 6696293 7974183 9547532
1211.09 11112765 12579129 13761892 14516268 14719198 14526182
1216.87 13921223 13850744 15280344 16666439 15594175 14579642
1222.66 15898859 17786278 18898739 18943159 18113784 16899426
1228.44 15816484 15049704 14731553 14772044 14927332 15051759
1234.23 14834572 14364356 13829242 13590338 13963351 14490121
1240.01 14406441 13860007 13406687 13159929 12823736 12136466
1245.80 11056276 9782961 8496251 7290575 6304273 5562608
1251.59 4987576 4627123 4336436 4053916 3931155 3782795
1257.37 3676917 3591673 3417440 3310734 3220192 3110576
1263.16 3054732 3226815 3280840 3301787 3262589 3177398
1268.94 3172104 3113376 2997427 2884639 2809422 2788672
1274.73 2718846 2641789 2591885 2560498 2545474 2534535
1280.51 2516447 2526223 2530508 2539665 2565759 2576249
1286.30 2616634 2639468 2601804 2667729 2698354 2665107
1292.08 2726937 2775329 2781514 2865554 2978458 3079067
1297.87 3129358 3196961 3356299 3595412 3735228 3933726
1303.65 4231821 4590240 4653371 4666926 4819115 4987429
1309.44 5220699 5398336 5508978 5526970 5457710 5369653
1315.23 5312702 5325195 5450353 5738724 6111863 6339506
1321.01 6485826 6630011 6670925 6607913 6577932 6723849
1326.80 6824409 6896496 6938696 6998357 7142441 7206152
1332.58 7199270 7240328 7381592 7622309 7891529 8202629
1338.37 8621624 9086362 9581845 10114226 10400816 10190407
1344.15 9805387 9582948 9445992 9239696 9120139 9143781
1349.94 9097332 9053515 9200334 9577017 9689291 9574360
1355.72 9435386 9197551 9018496 8756838 8645289 8781194
1361.51 8867056 9044620 9200744 9512484 9760772 9953822
1367.29 10152538 10309269 10451112 10742336 11278072 12055439
1373.08 12989467 14219124 15704933 17376853 19171495 20750958
1378.87 21694081 22145854 22751150 24762398 26500885 25065039
1384.65 24676597 26271008 27638714 28279051 28295007 27603121
1390.44 26321899 24810262 22950434 21115375 19801933 18962453
1396.22 18306241 17837162 17512039 17371921 17453774 17779539
1402.01 18166405 18531066 18893509 19428715 20116221 20797170
1407.79 21374419 22011053 22651095 23204580 23889681 24774459
1413.58 25511155 25993170 26772062 27925155 29138709 30298788
1419.36 31736681 33145789 34506909 35847926 36932108 37899651
1425.15 38808262 39623445 39903234 39662723 39439836 39775444
1430.93 40126228 39999731 39974831 40096817 39972881 39947015
1436.72 40115875 40049958 39723700 39246884 38499485 37143208
1442.51 35291225 33720150 32582834 31771077 31339553 31558861
1448.29 32280314 33338783 34757938 36293497 37563356 38022723
1454.08 37685937 36627918 35249925 34557375 34517902 34952904
1459.86 35721638 37054332 39085387 41378734 43357958 45375921
1465.65 47452977 49513617 51273059 52337817 52322415 50966005
1471.43 48989597 46879363 44957794 43122145 41320047 40097971
1477.22 39397352 39412010 40036677 40882316 42057977 43558362
1483.00 44865560 45665696 45719018 45585958 45354768 45061414
1488.79 44783010 44618873 44671872 45158097 46509563 48765686
1494.57 50648709 52098382 54019018 56334854 58370975 59758496
1500.36 60632255 61431951 62651506 64916635 69052609 75770893
1506.15 85636669 99276647 116880907 138787395 164657752 193038767
1511.93 220994839 244301260 257610988 257251705 247392065 240239396
1517.72 250167746 273962828 277167888 250203592 232027992 239836271
1523.50 255364909 261624679 250469826 224201542 191607759 158963113
1529.29 129573657 104579436 84183728 68169578 56043069 46962401
1535.07 40075261 34951143 30977387 27796362 25575450 24073600
1540.86 22603981 21349809 20282015 19183324 18412215 17884063
1546.64 17318890 16905915 16653083 16461424 16215846 15828352
1552.43 15289282 14724238 14334832 13848331 13256866 12680399
1558.21 12420684 12158787 12078164 11922755 11650048 11353531
1564.00 10975679 10718236 10472720 10146221 9735243 9357326
1569.79 9127625 8863684 8566481 8299099 7958479 7319404
1575.57 6951361 6998648 6810985 6699256 6595810 6450760
1581.36 6263176 6178946 6019900 5879611 5705431 5585337
1587.14 5508409 5410183 5385001 5422362 5577658 5792681
1592.93 5841468 5834829 5878659 5916774 5967282 6089097
1598.71 6171935 6250007 6338042 6508430 6777365 7083689
1604.50 7353699 7698001 8113759 8628544 9141093 9613359
1610.28 10159435 10855403 11663232 12575460 13427615 14115069
1616.07 14994320 16294963 17294898 18046460 18460524 18642694
1621.85 18480421 18113198 17509324 16655509 15923399 15666375
1627.64 16057399 16768320 17198556 17341403 17049449 16226406
1633.43 14891119 13366770 12174541 11074563 10013197 9029214
1639.21 8086615 7349004 6661214 6004496 5331684 4683053
1645.00 4047260 3761434 3470971 3328854 3137062 2835165
1650.78 2244902 1661990 1784749 2160874 2295812 2280305
1656.57 2247649 2186797 2048809 1986428 2019466 2032234
1662.35 2000034 2074721 2065828 1992709 1847696 1676466
1668.14 1460103 1503043 1515196 1515937 1608506 1566567
1673.92 1279311 1266749 1380295 1330141 1224809 1127738
1679.71 1085849 1133603 999026 767772 466955 637594
1685.49 992024 1068351 1066805 1011099 998273 1009386
1691.28 1004222 970126 900364 579365 385945 783200
1697.07 928008 707313 346853 517208 809295 881264
1702.85 847972 860920 851955 829831 936786 1069655
1708.64 1089934 1106373 1181872 1327963 1461324 1535816
1714.42 1674172 1820267 1859400 2284612 2804428 3113392
1720.21 3270751 3299981 3233842 3135220 3071576 3098952
1725.99 3219434 3273684 3190673 3134292 3099520 3027191
1731.78 2713804 2306761 2219030 2389368 2504253 2513163
1737.56 2476789 2433615 2526886 2697085 2830447 3029690
1743.35 3173934 3238300 3275711 3398913 3496275 3565896
1749.13 3602053 3567146 3750172 3870612 3802196 3778159
1754.92 3748755 3649071 3623964 3595477 3547106 3441471
1760.71 3175688 3112679 3104439 3159378 3164258 3053559
1766.49 3005223 3092681 3239989 3324961 3439263 3554215
1772.28 3876842 4396118 4863933 5415751 6086598 6945984
1778.06 7937182 9061455 10229013 11353678 12214441 12742637
1783.85 12768987 12508313 12112141 11733307 11758176 12506596
1789.63 13175545 12757753 11958286 11725632 11468033 10849796
1795.42 9918339 8685663 7269441 5926043 4757886 3822371
1801.20 3178909 2692397 2278563 1959148 1732578 1607339
1806.99 1443865 1290439 1167839 1053121 1012799 1000956
1812.77 933646 966592 1005652 975459 947831 955232
1818.56 977965 1065688 1134650 1209735 1309816 1384781
1824.35 1492420 1716219 1928511 2171231 2408632 2710939
1830.13 3009850 3316654 3579362 3722488 3777792 3920737
1835.92 4101779 4236624 4270834 4292236 4401229 4493918
1841.70 4500738 4358913 4199154 4151227 3974332 3711830
1847.49 3422688 3189578 3001551 2780423 2606820 2543641
1853.27 2469694 2410782 2347368 2308291 2308078 2373179
1859.06 2455137 2572435 2717025 3012266 3358608 3692047
1864.84 4062220 4483687 4958145 5520791 6177354 6920969
1870.63 7681085 8536613 9503556 10561423 11634107 12846458
1876.41 14289527 15918131 17560131 19202383 20806962 22263270
1882.20 23149060 23356180 22855698 21777721 20198877 18494304
1887.99 17388262 17603190 19178440 21421881 23285360 23993170
1893.77 23473504 22004183 20022955 18068106 16153761 14183048
1899.56 12338385 10891386 9738252 8726323 7695324 6870248
1905.34 6199657 5606960 4998452 4420269 3955071 3688397
1911.13 3438145 3225521 2993309 2866089 2771086 2634071
1916.91 2510470 2524400 2544889 2574512 2540193 2506383
1922.70 2460402 2432525 2328690 2258340 2221406 2169150
1928.48 2098803 2069867 2019354 1941366 1797187 1668867
1934.27 1564400 1402300 1215186 1072910 964340 919880
1940.05 895571 849643 839942 879873 869862 856575
1945.84 840438 873353 941824 1007856 1034444 1051619
1951.63 1083536 1201636 1273605 1338730 1438367 1469639
1957.41 1307175 1109758 1031291 1006195 984719 978689
1963.20 1040250 1085699 1061494 1064357 1073655 1099781
1968.98 1097062 1126077 1170027 1209705 1339869 1348995
1974.77 1231159 1290313 1336767 1336441 1374419 1484553
1980.55 1518225 1493454 1463946 1394516 1396617 1479282
1986.34 1495177 1458179 1390296 1375371 1312961 1269733
1992.12 1250742 1284210 1318977 1323101 1293980 1218825
1997.91 1128835 1116596 1059043 1039373 1049876 1036974
2003.69 1012081 990928 954370 843222 850742 881708
2009.48 830110 816367 730083 690252 669778 650625
2015.27 551425 476993 463362 463946 399436 353828
2021.05 285928 238076 251946 305061 354693 395152
2026.84 351959 336816 278641 274542 303863 363399
2032.62 390942 374710 344662 286439 215979 262982
2038.41 316851 330949 346307 393658 361909 372025
2044.19 336667 288501 208697 165903 180980 222224
2049.98 213432 181492 90492 52257 26173-16005
2055.76-55541-37368-23360-54407-139993-121614
2061.55-115543-141553-125087-97827-108566-118851
2067.33-105631-75056-80953-47845-21379 73517
2073.12 45498 19852 36659 126038 169190 67643
2078.91 30793 112887 259724 301528 237580 252347
2084.69 411653 515223 379660 404265 571513 801028
2090.48 743777 755684 893503 1281326 1503524 1535605
2096.26 1622592 1901423 2187888 1963926 1823951 2006762
2102.05 2395229 2379838 2133932 2069671 2287881 2370326
2107.83 2060520 1947577 1970787 1929685 1337771 982775
2113.62 896570 1050983 633945 297667 279205 534551
2119.40 321686 98775 133087 433488 316534-44379
2125.19-84779 193566 173778-110287-135662 71743
2130.97 115094-79043-153724-37004 53489-99681
2136.76-203575-153580-107696-223902-268005-177342
2142.55-131729-154299-140964-62297-78146-186451
2148.33-220021-46075 20062-120457-74545 154447
2154.12 120897-55172 51510 293254 210494-8853
2159.90 162349 463999 255316 33194 322024 563695
2165.69 274148 148045 510153 563329 153461 193312
2171.47 580111 476140 175699 398572 651023 359262
2177.26 189859 510615 526049 144445 130234 394378
2183.04 248513 20973 283431 392710 109723 109995
2188.83 305843 182963-50095 161785 247601 45346
2194.61 105038 267801 202685 184338 383975 508933
2200.40 468914 645097 799844 739488 773347 862525
2206.19 842601 847472 864936 802318 757740 864419
2211.97 924432 897735 869430 856731 717716 547181
2217.76 426672 293860 230086 209263 132269 107186
2223.54 81130 70516 28380 14634-6369-30577
2229.33-51313-36920-26351 3085-23951-66657
2235.11-79373-26453 4571-25693-63664-84984
2240.90-160849-206479-175012-120043-131237-169883
2246.68-200162-200261-206748-178693-148999-173388
2252.47-206210-201527-216515-185075-128534-77505
2258.25-37598-902 18867 16217 14634 59587
2264.04 41639 72038 144673 189776 287203 308663
2269.83 311784 357340 378477 412748 473709 514888
2275.61 518886 568672 622543 690976 687793 680640
2281.40 688422 696295 689680 723252 825383 890685
2287.18 919760 999824 1033145 1105045 1233755 1340502
2292.97 1485136 1651243 1814244 1964782 2171730 2357216
2298.75 2534931 2641694 2656742 2605956 2473773 2336277
2304.54 2086319 2018161 2120698 2345021 2531759 2713961
2310.32 2889215 2893615 2792500 2591577 2430538 2222866
2316.11 2197246 2052993 1918355 1738666 1708192 1687365
2321.89 1705629 1685521 1765279 1796010 1902398 1972552
2327.68 2056412 2105125 2199528 2325097 2543146 2668861
2333.47 2741690 2821645 2958482 2975978 2904764 2846584
2339.25 2877148 2975636 3058307 3077958 3021314 2863362
2345.04 2665839 2434771 2242067 2036000 1953060 1951496
2350.82 1910847 1847269 1754772 1726485 1675168 1712939
2356.61 1768295 1751291 1707870 1722781 1616421 1526446
2362.39 1512214 1478406 1427588 1327026 1244816 1149430
2368.18 1056671 990042 924833 807806 690141 671237
2373.96 645190 644263 577882 560244 551053 545716
2379.75 536587 486931 447747 480286 519481 485241
2385.53 456428 516524 571214 604510 587954 585275
2391.32 585185 623980 660383 659095 659937 636737
2397.11 641918 718078 789346 860330 961995 1039871
2402.89 1073153 1080402 1098034 1202868 1306140 1357932
2408.68 1388720 1421410 1403208 1401553 1399110 1508228
2414.46 1612764 1638936 1681794 1723311 1692081 1697327
2420.25 1686588 1639349 1656081 1678356 1649550 1648000
2426.03 1635370 1682284 1669158 1654358 1615453 1546860
2431.82 1468199 1520230 1499903 1469973 1483908 1496681
2437.60 1483834 1489692 1400805 1332678 1298819 1243371
2443.39 1187864 1180230 1076924 1023316 1000654 1012018
2449.17 994875 933432 920371 941537 890298 859488
2454.96 831862 826307 818483 806654 812689 864824
2460.75 884771 841488 766191 782924 821151 880496
2466.53 905940 857924 866622 903235 885967 869098
2472.32 875387 944836 948449 984805 1012026 935567
2478.10 915063 909536 895839 882713 834099 851426
2483.89 863802 877295 802064 803953 845024 821997
2489.67 783082 804312 791266 785414 812887 764692
2495.46 691049 712837 722107 661796 592539 558970
2501.24 511891 534110 527715 520476 507880 505871
2507.03 452482 424178 423099 388928 369990 396830
2512.81 378839 337256 346517 374261 346877 320867
2518.60 323681 310117 302572 356878 383413 361661
2524.39 355204 353617 350401 331801 293938 310999
2530.17 319801 297791 242668 208847 226938 284849
2535.96 246467 284327 282562 306965 358728 288989
2541.74 196475 194611 142786 71867 6875 47052
2547.53 46041 9095-52339-87970-108457-119524
2553.31-174949-182790-238950-238795-223766-179396
2559.10-86020-75052-140928-133937-109437-79597
2564.88-109377-70719-35336 16068 51511 122280
2570.67 198974 271606 360057 510695 668205 850125
2576.45 1104926 1308251 1510168 1838192 2067603 2308797
2582.24 2545966 2703276 2859472 3040003 3176765 3271007
2588.03 3369612 3551111 3675450 3782119 3889234 3972562
2593.81 3925213 3793945 3587563 3326855 3076559 2762441
2599.60 2407407 2196352 2028869 1969440 1898732 1807508
2605.38 1862696 1922919 1877219 1678290 1499811 1383556
2611.17 1226423 1080643 965216 841712 750659 679480
2616.95 660811 605667 535872 485665 387489 336913
2622.74 259750 246229 176381 88121 54566 75519
2628.52 63384 153108 192086 157223 201331 276375
2634.31 292729 329501 308342 299565 351477 424542
2640.09 451534 457925 388819 393921 373981 278247
2645.88 280113 284296 284065 309587 300350 234397
2651.66 139018 76570 35171-34021-74207-77946
2657.45-155763-133717-107832-162497-146331-95101
2663.24-97375-120511-126551-149428-140001-110818
2669.02-126884-143193-125584-112731-176070-170049
2674.81-211449-234240-206997-161042-127845-133810
2680.59-140560-130663-52037-15260-111036-135415
2686.38-67801-54454-16218 52780 96201 145429
2692.16 154458 246533 322686 320093 312754 360616
2697.95 456389 548636 698439 895928 986588 1036045
2703.73 1079834 1204255 1371386 1491063 1559873 1624576
2709.52 1665244 1781544 1889969 1949221 1948414 2003786
2715.30 2022771 2040734 2103081 2182631 2304576 2383520
2721.09 2381163 2492801 2607731 2744931 2810579 3001990
2726.88 3275754 3652513 4188469 4983333 5922826 7066541
2732.66 8368713 9759088 11311557 12872811 14277445 15298544
2738.45 15775329 15836588 15693127 15983790 17536619 18884839
2744.23 17476950 16166195 16803604 17812808 17903720 16841155
2750.02 14933887 12479745 9964903 7827560 6141389 4920326
2755.80 4033391 3359996 2784534 2311337 2022792 1850309
2761.59 1679915 1470214 1299890 1298330 1289869 1245433
2767.37 1179908 1177982 1088975 1034397 1151088 1194923
2773.16 1143744 1130014 1177942 1194015 1257786 1284536
2778.94 1285772 1282558 1330450 1307744 1331371 1455721
2784.73 1515341 1603643 1708910 1739073 1723451 1863320
2790.52 1975806 2044362 2165499 2274036 2401373 2529010
2796.30 2635741 2811426 2925353 2990085 3192997 3406059
2802.09 3533418 3643535 3737801 3852302 4004730 4053387
2807.87 4074673 4300658 4521089 4738533 4905458 5056534
2813.66 5254938 5576430 5857321 6066293 6292831 6581968
2819.44 6835563 7156331 7490261 7854820 8120962 8427180
2825.23 8887289 9321640 9709679 10139613 10594663 11040096
2831.01 11502170 12029220 12581260 13047797 13377282 13710059
2836.80 14025835 14376402 14800008 15405367 16080058 16772467
2842.58 17440341 18153282 18963450 19632396 20194342 20823424
2848.37 21591494 22644320 23780806 25122044 26764336 28697671
2854.16 30909936 33573272 36525233 39780835 43519451 47684380
2859.94 52397440 57800227 63872298 70699756 78155734 86161812
2865.73 94525877 103107955 111631249 119927019 127919759 135442879
2871.51 142444994 149045867 155103180 160558746 165233010 169004005
2877.30 171648767 173374627 174320392 174543653 173991502 172638998
2883.08 170634001 168195253 165064066 161404476 157435792 153323576
2888.87 149364236 145769209 142443456 139459318 136832466 134353973
2894.65 131740265 128970395 126363112 124208299 122268770 120266298
2900.44 118318520 116563549 114885625 113188557 111477397 109965870
2906.22 108530857 107338718 106529668 106221679 106429936 107126372
2912.01 108541061 111023882 114443518 118885438 124250359 130480536
2917.80 137911445 146521873 156333274 167365267 179459561 192621935
2923.58 206787865 221799693 237674663 254022436 269884085 284115271
2929.37 296198626 306748325 315936019 323673033 330003559 334859641
2935.15 336866541 334639035 329374842 323349332 317615051 311900122
2940.94 304923647 295750897 283226172 267020089 248485335 229820261
2946.72 212694536 197127272 183247865 171073931 160222528 149474453
2952.51 137977728 127595245 119718648 114369759 111307482 110162665
2958.29 110205446 110167028 108557548 105872140 102470065 98316880
2964.08 94378009 90899551 88066183 85791693 83635036 81852544
2969.86 80950822 80892353 81438783 82541774 84087010 85847130
2975.65 87872348 90285298 92940907 95959876 99753892 104435225
2981.44 109154667 112379993 114039261 115537310 117721640 121287921
2987.22 126609178 133187905 139544468 144832170 149164116 153593696
2993.01 159010595 165913652 174271683 182758706 189715186 195619065
2998.79 201663202 208631784 216530664 224357858 230314294 232259356
3004.58 229099283 223168461 217342805 213316387 211811023 212940269
3010.36 215592083 217260015 216895686 216213446 216948421 219797614
3016.15 224608261 230720080 237385419 244570658 251878443 258386735
3021.93 263050499 265040099 264354661 262244287 261191529 261886228
3027.72 261189585 257368340 253967101 253595011 254424505 252685028
3033.50 246868930 236970251 223950331 210036042 196994063 185395190
3039.29 174970642 165929922 159212562 155854793 155165651 156510514
3045.08 159869000 164616096 168742713 170523449 171156070 171628886
3050.86 171614882 171155002 170508096 169331736 166589479 163544921
3056.65 162157093 161423943 160094954 157786233 154389154 149677504
3062.43 143634926 136736767 129215628 121208344 112820353 104306357
3068.22 96021287 87977912 80492767 73662042 67526061 62015923
3074.00 56950469 52536707 48544288 44925958 41789993 38917675
3079.79 36353030 34244210 32441148 30883405 29687219 28912586
3085.57 28178474 27557073 27348826 27431480 27616123 27896344
3091.36 28306441 28881146 29648839 30336239 30590017 30584895
3097.14 30508291 30325899 30058132 29958639 29863538 29907239
3102.93 30204418 30339723 30172567 29829270 29118722 28195772
3108.72 27165138 26089258 24956709 24021330 23147794 21904955
3114.50 20509104 19086828 17720796 16303552 14844830 13491446
3120.29 12205640 11063249 9861290 8797233 8033315 7436699
3126.07 6787825 6355580 6177616 6195400 6200298 6351589
3131.86 6695263 7163751 7687990 8206674 8684549 9101736
3137.64 9335651 9620177 9924414 10091383 10248722 10334143
3143.43 10216533 10195057 10288881 10403518 10338652 10011284
3149.21 9426467 8609329 7705969 6707700 5851469 5099435
3155.00 4310538 3628825 3088057 2582652 2081339 1651201
3160.78 1468637 1414897 1328914 1211483 1038806 845088
3166.57 622294 522238 471410 382701 300926 177998
3172.36 122023 200568 127252 57357-2387-40428
3178.14-8049 42871-18440-94416-131441-96815
3183.93-58934-110635-200461-309931-314670-325524
3189.71-418196-378393-323536-381726-394088-319863
3195.50-334093-379499-356224-362470-403042-374179
3201.28-346449-330344-379188-443927-412106-369947
3207.07-309745-283593-367404-402362-364291-345072
3212.85-369666-367095-198929-244413-335836-331085
3218.64-435896-381489-318971-290062-271723-178727
3224.42-196699-271721-324886-364960-368237-259007
3230.21-273427-318526-330307-344463-342554-261414
3236.00-248046-335446-373898-255435-233661-164129
3241.78-149251-128776-84881-120007-244119-283664
3247.57-308543-200189-51291 38184 51155-41299
3253.35-119095-30153 149 9851 106714 51043
3259.14-120365-6269 87636 66106 9946-16789
3264.92 59735 69403 69283-5477-18278 11705
3270.71-20043 31680 44409-110413-127837 8170
3276.49 68806 110745 101956-31217-9710 29740
3282.28 32118 90945 82350 66180-4278-3893
3288.06 59553 64047 100998 128885 69677 98621
3293.85 239902 252806 128444 140030 106178 23979
3299.64-2183 17418 50726 75512 14474-26980
3305.42 17964 111278-40-57129 26729 49085
3311.21-1286 58497 133402 91400 69579 52427
3316.99-21789 49634 126176 159703 75013-949
3322.78 67805 81993 75129 74169 99631 46961
3328.56-31437-76134-117556-43515 52058 82837
3334.35-16048-84622-151024-80620-64112-112008
3340.13-117533-74742-36644-47275-32846-54829
3345.92-78940-80113-48161-37597-46707-9733
3351.70-114540-158138-145651-127318-85971-88919
3357.49-101197-38484-65389-154009-160768-116229
3363.28-96583-76673 11934 109456 79128 11208
3369.06 45213 174198 97605 65098 162214 102264
3374.85 57844 152861 268502 234693 217826 322996
3380.63 307446 239163 274240 428563 513088 446039
3386.42 314657 279169 362672 515399 383578 299694
3392.20 312804 233861 211283 266310 337699 292473
3397.99 244095 269922 201939 93664 5258 24902
3403.77 94696 109259 48209-52005-18966 13503
3409.56-63213-13379 28570-40398-77759-6107
3415.34 62477 87535 16757-51420-83759-14027
3421.13-126905-79894 78580 81422 107734 153333
3426.92 88137 87386 104356 182147 190783 206186
3432.70 209856 258299 398440 403844 332609 284640
3438.49 376504 483261 422016 337126 182760 99937
3444.27 81583 118969 113208 121625 105046 109872
3450.06 47100 24282 50724 13172-62190-13402
3455.84-32479-118655-72561-99848-257360-234777
3461.63-158399-164171-242276-240589-249240-333749
3467.41-351023-276895-318604-354113-337318-358967
3473.20-325825-286588-331493-351910-330081-286543
3478.98-207748-232078-254992-400933-438734-391035
3484.77-373207-385282-430304-339945-260768-217093
3490.56-265425-305534-329355-359180-270540-195578
3496.34-167227-155948-240253-264496-135233-215069
3502.13-302546-336125-359241-326205-254001-186993
3507.91-127850-216713-286522-297715-322049-277849
3513.70-270631-313860-346625-248559-293671-325212
3519.48-403145-336459-324996-468907-490205-396661
3525.27-399190-408660-337272-317800-311728-266138
3531.05-234029-294548-448441-382928-311935-375396
3536.84-413973-442118-383172-299560-326280-273732
3542.62-183324-284911-390137-415039-484969-472986
3548.41-381101-394687-557969-589807-508462-448000
3554.20-457198-488265-542170-581239-590538-608955
3559.98-623719-593394-570186-494759-559047-615445
3565.77-575048-567769-598404-630315-586824-605908
3571.55-535820-509317-594960-629892-574431-501122
3577.34-559092-496990-575592-557425-504548-558966
3583.12-567551-488797-566073-627181-582750-600529
3588.91-554138-539178-547571-524481-431035-337955
3594.69-330399-378493-333019-343411-418758-484241
3600.48-412026-364812-286979-282071-354174-346089
3606.26-355509-383241-404427-289946-218993-278971
3612.05-227801-156516-210178-266059-338529-283273
3617.84-212413-237724-215055-146868-117106-96804
3623.62-77542-71383-70715-151886-357117-388448
3629.41-156637-5479-58134-55553-66831-39265
3635.19-5929 40193 44551 27397-40450-56189
3640.98-19351 115786 240794 264536 235644 173436
3646.76 210094 134477 103152 273052 341476 524262
3652.55 619224 674936 608843 537597 644930 758384
3658.33 818961 909071 988087 1071799 1123157 1087577
3664.12 1172620 1318188 1339269 1276997 1193561 1051856
3669.90 895157 1104410 1220249 1083230 838745 700273
3675.69 829088 1025949 1138730 1169703 1107967 1102607
3681.48 1088520 1050547 895209 756155 642834 514775
3687.26 307751 369508 427435 386629 501338 568045
3693.05 503945 396257 365021 507740 552098 547465
3698.83 519944 523779 435229 381937 329195 346175
3704.62 348048 274630 244673 207716 134737 141148
3710.40 21489 2099 185071 156116 22664 7011
3716.19 67022 52453 34705 75241 143686 121952
3721.97 113193 195643 158835 136962 148345 197014
3727.76 209048 206604 232298 115540 33457 119269
3733.54 9166 30296 27330 113397 264285 361982
3739.33 409741 423109 471148 404929 54147 130114
3745.12 560990 669563 695512 458675 530052 727034
3750.90 475267 654424 1011918 971041 904451 925469
3756.69 983161 886824 784103 926471 939455 887868
3762.47 983522 999775 829004 747433 810836 842827
3768.26 653522 598700 640340 513289 564421 544796
3774.04 480196 416766 371002 359503 300366 246159
3779.83 395714 465134 443998 468976 384717 314207
3785.61 355361 385720 420798 435989 496075 468388
3791.40 398657 495638 470048 393173 341679 379933
3797.18 400310 360867 301826 94786 181108 431853
3802.97 557032 547769 334840 149267 399314 664029
3808.76 649426 680416 686931 676846 700493 745777
3814.54 546107 560606 843951 888035 874546 760061
3820.33 646583 781359 1032017 1142783 1141679 1115928
3826.11 1107949 1274480 1323893 1305755 1203527 1156699
3831.90 1347815 1359828 1203308 1242921 1199446 982096
3837.68 1174645 1423496 1417456 1452578 1566897 1571976
3843.47 1527873 1582829 1683287 1732894 1629598 1677936
3849.25 1723713 1608234 1435293 1414280 1168576 1502913
3855.04 1763305 1749565 1842305 1869882 1851498 1814804
3860.82 1696558 1765856 1858251 1759663 1738936 1771540
3866.61 1696537 1665857 1487194 1530050 1815873 1962199
3872.40 1873755 1805775 1960783 2024299 2020545 2081427
3878.18 2043602 1968432 2037546 2146609 2209892 2220005
3883.97 2055404 1996425 2209698 2300163 2262948 2228469
3889.75 2124610 2070457 2139111 2199199 2242746 2293312
3895.54 2236013 2207319 2123360 2056809 2188700 2198871
3901.32 2168641 2202640 2162045 2231511 2249073 2190510
3907.11 2209753 2256437 2276932 2345325 2327050 2375559
3912.89 2501924 2456118 2393436 2351563 2420828 2410641
3918.68 2369026 2476421 2575724 2595790 2524686 2516019
3924.46 2543407 2573821 2571513 2648375 2676721 2600182
3930.25 2506331 2468624 2516806 2632582 2696855 2631389
3936.04 2496924 2458412 2561296 2584786 2528997 2495534
3941.82 2421986 2377151 2384965 2387761 2319553 2233609
3947.61 2095659 1975894 2044362 2143298 2149852 2216882
3953.39 2203466 2185169 2133548 2095803 2101885 2190427
3959.18 2264541 2195604 2149299 2141098 2188503 2246379
3964.96 2188075 2167087 2198076 2290396 2224088 2189992
3970.75 2218927 2253945 2263771 2389254
##END=
