##TITLE=3-BROMO-1-PROPENE
##JCAMP-DX=4.24
##DATA TYPE=INFRARED SPECTRUM
##CLASS=COBLENTZ III
##ORIGIN=WESTERN REGIONAL RES. USDA
##OWNER=COBLENTZ SOCIETY
Collection (C) 2018 copyright by the U.S. Secretary of Commerce
on behalf of the United States of America. All rights reserved.
##DATE=1964/05/20
##CAS REGISTRY NO=106-95-6
##MOLFORM=C3 H5 Br
##BP=70 C
##SOURCE REFERENCE=COBLENTZ NO. 6163
##$NIST SOURCE=COBLENTZ
##$NIST IMAGE=cob6163
##SPECTROMETER/DATA SYSTEM=BECKMAN IR-7 (GRATING)
##INSTRUMENT PARAMETERS=GRATING CHANGES AT 3000, 2200, 1150 CM^-^1
##STATE=SOLUTION (10% IN CCl4 FOR 4000-1330 CM^-^1, 10% IN CS2 FOR 1330-600 CM^-^1)
##PATH LENGTH=0.011 CM, 0.010 CM
$$SPECTRAL CONTAMINATION DUE TO CCl4 AROUND 1550 CM^-^1
##SAMPLING PROCEDURE=TRANSMISSION
##RESOLUTION=4
##DATA PROCESSING=DIGITIZED BY NIST FROM HARD COPY (FROM TWO SEGMENTS)
##XUNITS=1/CM
##YUNITS=TRANSMITTANCE
##XFACTOR=1.000000
##YFACTOR=1
##DELTAX=0.649954
##FIRSTX=598.05
##LASTX=3983.66
##FIRSTY=0.804
##MAXX=3983.66
##MINX=598.05
##MAXY=0.83
##MINY=0.112
##NPOINTS=5210
##XYDATA=(X++(Y..Y))
598.050000 0.8040 0.8070 0.8100 0.8110 0.8130
601.299772 0.8150 0.8170 0.8180 0.8041 0.8070
604.549545 0.8100 0.8110 0.8130 0.8150 0.8170
607.799317 0.8180 0.8180 0.8190 0.8190 0.8190
611.049089 0.8190 0.8190 0.8190 0.8180 0.8170
614.298862 0.8170 0.8170 0.8160 0.8160 0.8160
617.548634 0.8150 0.8150 0.8150 0.8130 0.8110
620.798406 0.8100 0.8090 0.8080 0.8060 0.8060
624.048179 0.8060 0.7980 0.7970 0.7960 0.7940
627.297951 0.7940 0.7940 0.7930 0.7930 0.7930
630.547723 0.7920 0.7920 0.7900 0.7820 0.7810
633.797496 0.7790 0.7770 0.7750 0.7730 0.7710
637.047268 0.7700 0.7660 0.7660 0.7660 0.7640
640.297040 0.7620 0.7610 0.7590 0.7570 0.7540
643.546813 0.7520 0.7500 0.7480 0.7450 0.7410
646.796585 0.7390 0.7370 0.7350 0.7340 0.7320
650.046357 0.7290 0.7230 0.7190 0.7160 0.7140
653.296130 0.7130 0.7120 0.7110 0.7090 0.7080
656.545902 0.7070 0.7050 0.7040 0.7030 0.7030
659.795674 0.7030 0.7040 0.7050 0.7050 0.7060
663.045447 0.7070 0.7070 0.7070 0.7080 0.7080
666.295219 0.7070 0.7070 0.7070 0.7050 0.7040
669.544991 0.7030 0.7030 0.7010 0.6980 0.6920
672.794764 0.6701 0.6650 0.6640 0.6461 0.6350
676.044536 0.6320 0.6310 0.5961 0.5840 0.5720
679.294308 0.5560 0.5490 0.5420 0.5330 0.4992
682.544081 0.4970 0.4810 0.4700 0.4410 0.4240
685.793853 0.4060 0.3861 0.3671 0.3251 0.3051
689.043625 0.2850 0.2650 0.2470 0.2290 0.2290
692.293398 0.2290 0.2290 0.2758 0.3109 0.3249
695.543170 0.3390 0.3680 0.4010 0.4430 0.4720
698.792942 0.4999 0.5379 0.5759 0.6338 0.6350
702.042715 0.6440 0.6530 0.6620 0.6710 0.6750
705.292487 0.6790 0.6830 0.6880 0.6940 0.6980
708.542259 0.7010 0.7130 0.7210 0.7260 0.7290
711.792032 0.7350 0.7370 0.7390 0.7430 0.7460
715.041804 0.7480 0.7510 0.7530 0.7550 0.7550
718.291576 0.7550 0.7560 0.7590 0.7630 0.7640
721.541349 0.7700 0.7750 0.7760 0.7770 0.7780
724.791121 0.7790 0.7800 0.7810 0.7820 0.7830
728.040893 0.7840 0.7860 0.7860 0.7870 0.7870
731.290666 0.7880 0.7880 0.7880 0.7900 0.7910
734.540438 0.7930 0.7940 0.7950 0.7950 0.7960
737.790210 0.7960 0.7970 0.7970 0.7970 0.7970
741.039983 0.7970 0.7980 0.7990 0.7990 0.7990
744.289755 0.7990 0.7990 0.7990 0.7990 0.7990
747.539527 0.7990 0.7990 0.7990 0.7990 0.7980
750.789300 0.7980 0.7980 0.7970 0.7970 0.7970
754.039072 0.7970 0.7970 0.7970 0.7960 0.7960
757.288844 0.7950 0.7950 0.7950 0.7950 0.7950
760.538617 0.7950 0.7950 0.7950 0.7960 0.7970
763.788389 0.7970 0.7980 0.7990 0.8010 0.8020
767.038161 0.8030 0.8040 0.8050 0.8060 0.8070
770.287934 0.8080 0.8090 0.8100 0.8110 0.8110
773.537706 0.8110 0.8120 0.8120 0.8130 0.8130
776.787478 0.8130 0.8130 0.8130 0.8130 0.8130
780.037251 0.8120 0.8120 0.8120 0.8110 0.8110
783.287023 0.8100 0.8090 0.8080 0.8080 0.8080
786.536795 0.8080 0.8070 0.8060 0.8060 0.8060
789.786568 0.8060 0.8070 0.8070 0.8070 0.8070
793.036340 0.8070 0.8080 0.8080 0.8080 0.8080
796.286112 0.8080 0.8080 0.8080 0.8080 0.8070
799.535885 0.8070 0.8080 0.8080 0.8090 0.8100
802.785657 0.8110 0.8110 0.8110 0.8110 0.8120
806.035429 0.8120 0.8120 0.8120 0.8110 0.8110
809.285202 0.8110 0.8110 0.8110 0.8110 0.8110
812.534974 0.8110 0.8110 0.8110 0.8100 0.8100
815.784746 0.8100 0.8100 0.8100 0.8100 0.8100
819.034519 0.8100 0.8100 0.8100 0.8100 0.8100
822.284291 0.8100 0.8100 0.8100 0.8100 0.8100
825.534063 0.8100 0.8100 0.8100 0.8090 0.8090
828.783836 0.8080 0.8080 0.8080 0.8080 0.8080
832.033608 0.8070 0.8060 0.8060 0.8060 0.8060
835.283380 0.8050 0.8050 0.8030 0.8020 0.8010
838.533153 0.7990 0.7980 0.7970 0.7930 0.7850
841.782925 0.7810 0.7780 0.7750 0.7720 0.7680
845.032697 0.7650 0.7600 0.7510 0.7460 0.7450
848.282470 0.7410 0.7360 0.7310 0.7240 0.7170
851.532242 0.7100 0.6920 0.6810 0.6730 0.6710
854.782014 0.6700 0.6670 0.6650 0.6630 0.6600
858.031787 0.6570 0.6540 0.6520 0.6490 0.6450
861.281559 0.6430 0.6380 0.6340 0.6320 0.6270
864.531331 0.6230 0.6190 0.6110 0.6020 0.5930
867.781104 0.5850 0.5850 0.5970 0.6149 0.6250
871.030876 0.6310 0.6450 0.6520 0.6590 0.6720
874.280648 0.6730 0.6740 0.6760 0.6810 0.6850
877.530421 0.6880 0.6920 0.6960 0.6990 0.7030
880.780193 0.7080 0.7130 0.7160 0.7170 0.7180
884.029965 0.7200 0.7230 0.7240 0.7280 0.7280
887.279738 0.7290 0.7340 0.7340 0.7370 0.7410
890.529510 0.7430 0.7460 0.7500 0.7520 0.7540
893.779282 0.7550 0.7550 0.7570 0.7570 0.7570
897.029055 0.7580 0.7580 0.7580 0.7590 0.7590
900.278827 0.7590 0.7590 0.7580 0.7550 0.7530
903.528599 0.7500 0.7480 0.7460 0.7430 0.7390
906.778372 0.7350 0.7300 0.7290 0.7250 0.7210
910.028144 0.7170 0.6930 0.6680 0.6650 0.6580
913.277917 0.6520 0.6470 0.6330 0.6141 0.6011
916.527689 0.5870 0.5600 0.5220 0.4870 0.4260
919.777461 0.3960 0.3351 0.2971 0.2102 0.1931
923.027234 0.1770 0.1610 0.1450 0.1130 0.1120
926.277006 0.1120 0.1130 0.1300 0.1948 0.2129
929.526778 0.2260 0.2400 0.2690 0.2990 0.3290
932.776551 0.3450 0.3610 0.3919 0.4219 0.4360
936.026323 0.4500 0.4780 0.5030 0.5260 0.5440
939.276095 0.5580 0.5660 0.5740 0.5909 0.6030
942.525868 0.6080 0.6200 0.6220 0.6250 0.6380
945.775640 0.6420 0.6530 0.6540 0.6610 0.6670
949.025412 0.6730 0.6790 0.6790 0.6870 0.6940
952.275185 0.7010 0.7100 0.7120 0.7150 0.7160
955.524957 0.7190 0.7230 0.7240 0.7250 0.7270
958.774729 0.7280 0.7280 0.7280 0.7290 0.7300
962.024502 0.7300 0.7310 0.7310 0.7300 0.7290
965.274274 0.7280 0.7250 0.7220 0.7200 0.7170
968.524046 0.7160 0.7130 0.7100 0.7080 0.6950
971.773819 0.6641 0.6610 0.6600 0.6530 0.6341
975.023591 0.6210 0.6100 0.6070 0.6020 0.5910
978.273363 0.5531 0.5290 0.5051 0.4811 0.4391
981.523136 0.4240 0.4150 0.4130 0.4020 0.4010
984.772908 0.4020 0.4140 0.4240 0.4360 0.4470
988.022680 0.4570 0.4910 0.5420 0.5530 0.5640
991.272453 0.6139 0.6449 0.6560 0.6570 0.6720
994.522225 0.6760 0.6800 0.6880 0.6890 0.6960
997.771997 0.7030 0.7100 0.7170 0.7250 0.7320
1001.021770 0.7370 0.7480 0.7550 0.7550 0.7590
1004.271542 0.7630 0.7660 0.7700 0.7730 0.7740
1007.521314 0.7750 0.7770 0.7790 0.7800 0.7820
1010.771087 0.7820 0.7840 0.7850 0.7860 0.7870
1014.020859 0.7880 0.7880 0.7890 0.7900 0.7910
1017.270631 0.7920 0.7920 0.7930 0.7930 0.7930
1020.520404 0.7930 0.7940 0.7940 0.7950 0.7960
1023.770176 0.7970 0.7970 0.7980 0.7980 0.7990
1027.019948 0.7990 0.7990 0.7990 0.8000 0.8000
1030.269721 0.8010 0.8010 0.8010 0.8010 0.8010
1033.519493 0.8010 0.8020 0.8020 0.8020 0.8020
1036.769265 0.8020 0.8020 0.8030 0.8030 0.8030
1040.019038 0.8040 0.8040 0.8040 0.8040 0.8040
1043.268810 0.8040 0.8040 0.8040 0.8040 0.8040
1046.518582 0.8040 0.8040 0.8040 0.8040 0.8040
1049.768355 0.8040 0.8040 0.8040 0.8040 0.8030
1053.018127 0.8030 0.8030 0.8030 0.8030 0.8030
1056.267899 0.8030 0.8020 0.8020 0.8020 0.8020
1059.517672 0.8010 0.8010 0.8010 0.8010 0.8000
1062.767444 0.7990 0.7990 0.7980 0.7970 0.7950
1066.017216 0.7930 0.7920 0.7900 0.7860 0.7830
1069.266989 0.7800 0.7770 0.7720 0.7680 0.7610
1072.516761 0.7570 0.7560 0.7570 0.7590 0.7640
1075.766533 0.7680 0.7700 0.7720 0.7750 0.7790
1079.016306 0.7860 0.7880 0.7900 0.7900 0.7930
1082.266078 0.7940 0.7950 0.7960 0.7970 0.7970
1085.515850 0.7990 0.7990 0.8000 0.8010 0.8020
1088.765623 0.8020 0.8030 0.8030 0.8040 0.8050
1092.015395 0.8060 0.8070 0.8080 0.8090 0.8100
1095.265167 0.8100 0.8100 0.8100 0.8110 0.8110
1098.514940 0.8110 0.8130 0.8130 0.8130 0.8130
1101.764712 0.8130 0.8130 0.8140 0.8140 0.8140
1105.014484 0.8140 0.8140 0.8140 0.8130 0.8130
1108.264257 0.8130 0.8130 0.8120 0.8120 0.8120
1111.514029 0.8110 0.8110 0.8110 0.8100 0.8100
1114.763801 0.8100 0.8100 0.8100 0.8100 0.8100
1118.013574 0.8100 0.8100 0.8100 0.8100 0.8110
1121.263346 0.8110 0.8110 0.8110 0.8110 0.8110
1124.513118 0.8110 0.8110 0.8110 0.8110 0.8110
1127.762891 0.8110 0.8110 0.8110 0.8110 0.8110
1131.012663 0.8110 0.8110 0.8110 0.8110 0.8100
1134.262435 0.8100 0.8100 0.8100 0.8100 0.8100
1137.512208 0.8090 0.8090 0.8080 0.8080 0.8080
1140.761980 0.8080 0.8080 0.8070 0.8070 0.8060
1144.011752 0.8060 0.8060 0.8050 0.8040 0.8040
1147.261525 0.8040 0.8030 0.8020 0.8020 0.8020
1150.511297 0.8010 0.8000 0.7990 0.7970 0.7960
1153.761069 0.7950 0.7940 0.7930 0.7930 0.7920
1157.010842 0.7920 0.7920 0.7920 0.7920 0.7920
1160.260614 0.7910 0.7910 0.7900 0.7900 0.7900
1163.510386 0.7900 0.7900 0.7880 0.7870 0.7860
1166.760159 0.7860 0.7850 0.7840 0.7840 0.7830
1170.009931 0.7820 0.7820 0.7810 0.7800 0.7780
1173.259703 0.7760 0.7730 0.7710 0.7680 0.7650
1176.509476 0.7620 0.7590 0.7560 0.7530 0.7500
1179.759248 0.7480 0.7450 0.7430 0.7410 0.7370
1183.009020 0.7330 0.7320 0.7310 0.7230 0.7140
1186.258793 0.7090 0.7040 0.7000 0.6960 0.6920
1189.508565 0.6880 0.6870 0.6860 0.6710 0.6640
1192.758337 0.6580 0.6540 0.6510 0.6490 0.6450
1196.008110 0.6410 0.6360 0.6290 0.6190 0.6050
1199.257882 0.5890 0.5430 0.5130 0.4841 0.4241
1202.507654 0.3949 0.3360 0.3140 0.2840 0.2600
1205.757427 0.2151 0.1910 0.1681 0.1461 0.1460
1209.007199 0.2151 0.2490 0.2830 0.3350 0.3740
1212.256971 0.4120 0.4500 0.5049 0.5070 0.5280
1215.506744 0.5590 0.5620 0.5640 0.5710 0.5740
1218.756516 0.5980 0.6280 0.6400 0.6500 0.6520
1222.006288 0.6640 0.6760 0.6880 0.6880 0.6950
1225.256061 0.7010 0.7080 0.7080 0.7120 0.7160
1228.505833 0.7190 0.7230 0.7260 0.7300 0.7330
1231.755605 0.7350 0.7370 0.7390 0.7410 0.7410
1235.005378 0.7430 0.7440 0.7450 0.7450 0.7450
1238.255150 0.7440 0.7450 0.7450 0.7440 0.7430
1241.504922 0.7430 0.7410 0.7390 0.7380 0.7350
1244.754695 0.7330 0.7300 0.7280 0.7250 0.7240
1248.004467 0.7230 0.7230 0.7240 0.7300 0.7330
1251.254239 0.7370 0.7420 0.7460 0.7500 0.7540
1254.504012 0.7570 0.7600 0.7630 0.7650 0.7680
1257.753784 0.7700 0.7720 0.7740 0.7760 0.7770
1261.003556 0.7790 0.7810 0.7820 0.7830 0.7840
1264.253329 0.7850 0.7860 0.7870 0.7880 0.7880
1267.503101 0.7880 0.7890 0.7900 0.7900 0.7900
1270.752873 0.7910 0.7920 0.7920 0.7920 0.7920
1274.002646 0.7920 0.7920 0.7900 0.7900 0.7900
1277.252418 0.7900 0.7900 0.7890 0.7890 0.7880
1280.502190 0.7880 0.7880 0.7880 0.7880 0.7880
1283.751963 0.7870 0.7870 0.7870 0.7860 0.7860
1287.001735 0.7850 0.7840 0.7830 0.7830 0.7820
1290.251507 0.7810 0.7810 0.7790 0.7780 0.7760
1293.501280 0.7750 0.7730 0.7720 0.7710 0.7700
1296.751052 0.7680 0.7680 0.7680 0.7680 0.7680
1300.000824 0.7700 0.7730 0.7770 0.7810 0.7830
1303.250597 0.7840 0.7850 0.7860 0.7860 0.7870
1306.500369 0.7880 0.7880 0.7890 0.7900 0.7910
1309.750141 0.7920 0.7920 0.7930 0.7930 0.7930
1312.999914 0.7930 0.7940 0.7940 0.7950 0.7950
1316.249686 0.7950 0.7950 0.7960 0.7960 0.7970
1319.499458 0.7970 0.7970 0.7970 0.7970 0.7980
1322.749231 0.7980 0.7980 0.7990 0.7990 0.7990
1325.999003 0.8000 0.8000 0.8010 0.8010 0.8010
1329.248775 0.8020 0.8020 0.8020 0.8030 0.8030
1332.498548 0.8040 0.8040 0.8040 0.8050 0.8050
1335.748320 0.8050 0.8050 0.8060 0.8060 0.8060
1338.998092 0.8060 0.8060 0.8060 0.8060 0.8060
1342.247865 0.8060 0.8060 0.8060 0.8070 0.8070
1345.497637 0.8070 0.8080 0.8080 0.8080 0.8080
1348.747409 0.8080 0.8090 0.8090 0.8090 0.8100
1351.997182 0.8100 0.8100 0.8100 0.8100 0.8100
1355.246954 0.8110 0.8110 0.8110 0.8110 0.8110
1358.496726 0.8110 0.8110 0.8110 0.8100 0.8100
1361.746499 0.8100 0.8090 0.8080 0.8080 0.8080
1364.996271 0.8070 0.8060 0.8060 0.8040 0.8040
1368.246043 0.8030 0.8020 0.8020 0.8020 0.8010
1371.495816 0.8010 0.8000 0.7980 0.7970 0.7970
1374.745588 0.7970 0.7960 0.7950 0.7950 0.7940
1377.995360 0.7930 0.7930 0.7930 0.7920 0.7920
1381.245133 0.7920 0.7920 0.7910 0.7900 0.7900
1384.494905 0.7900 0.7890 0.7890 0.7880 0.7880
1387.744677 0.7870 0.7870 0.7860 0.7860 0.7840
1390.994450 0.7830 0.7810 0.7790 0.7770 0.7750
1394.244222 0.7730 0.7700 0.7680 0.7650 0.7620
1397.493994 0.7580 0.7540 0.7490 0.7440 0.7370
1400.743767 0.7150 0.6890 0.6650 0.6520 0.6400
1403.993539 0.6280 0.6160 0.6030 0.5910 0.5800
1407.243311 0.5550 0.5430 0.5310 0.5180 0.5060
1410.493084 0.4940 0.4820 0.4820 0.5180 0.5550
1413.742856 0.5650 0.5750 0.6050 0.6290 0.6490
1416.992628 0.6630 0.6740 0.6790 0.6830 0.6900
1420.242401 0.6950 0.7010 0.7070 0.7140 0.7240
1423.492173 0.7280 0.7300 0.7300 0.7320 0.7340
1426.741945 0.7340 0.7350 0.7360 0.7360 0.7350
1429.991718 0.7350 0.7340 0.7320 0.7300 0.7280
1433.241490 0.7250 0.7230 0.7190 0.7150 0.7100
1436.491262 0.7050 0.6980 0.6900 0.6700 0.6580
1439.741035 0.6430 0.6280 0.6110 0.5910 0.5451
1442.990807 0.5330 0.5100 0.5090 0.5100 0.5220
1446.240579 0.5380 0.5600 0.5720 0.5840 0.6089
1449.490352 0.6361 0.6600 0.6720 0.6830 0.7010
1452.740124 0.7150 0.7210 0.7240 0.7250 0.7270
1455.989896 0.7310 0.7350 0.7370 0.7400 0.7430
1459.239669 0.7450 0.7460 0.7480 0.7500 0.7510
1462.489441 0.7520 0.7530 0.7540 0.7540 0.7550
1465.739213 0.7560 0.7570 0.7580 0.7590 0.7600
1468.988986 0.7610 0.7610 0.7630 0.7630 0.7640
1472.238758 0.7650 0.7660 0.7670 0.7680 0.7690
1475.488530 0.7700 0.7710 0.7720 0.7730 0.7730
1478.738303 0.7730 0.7730 0.7730 0.7730 0.7730
1481.988075 0.7730 0.7730 0.7730 0.7680 0.7660
1485.237847 0.7650 0.7630 0.7620 0.7610 0.7590
1488.487620 0.7580 0.7570 0.7550 0.7540 0.7530
1491.737392 0.7510 0.7500 0.7480 0.7470 0.7450
1494.987164 0.7440 0.7420 0.7400 0.7380 0.7370
1498.236937 0.7350 0.7340 0.7320 0.7310 0.7290
1501.486709 0.7220 0.7160 0.7100 0.7060 0.7020
1504.736481 0.6990 0.6960 0.6940 0.6920 0.6900
1507.986254 0.6880 0.6870 0.6840 0.6810 0.6790
1511.236026 0.6710 0.6660 0.6620 0.6600 0.6580
1514.485798 0.6550 0.6510 0.6450 0.6410 0.6360
1517.735571 0.6320 0.6290 0.6260 0.6220 0.6190
1520.985343 0.6150 0.6110 0.6070 0.6040 0.6020
1524.235116 0.6000 0.5970 0.5950 0.5930 0.5910
1527.484888 0.5880 0.5850 0.5840 0.5800 0.5730
1530.734660 0.5650 0.5580 0.5540 0.5500 0.5480
1533.984433 0.5350 0.5320 0.5260 0.5220 0.5200
1537.234205 0.5180 0.5120 0.5060 0.5060 0.4970
1540.483977 0.4930 0.4830 0.4810 0.4760 0.4710
1543.733750 0.4640 0.4610 0.4570 0.4550 0.4460
1546.983522 0.4410 0.4390 0.4350 0.4320 0.4280
1550.233294 0.4270 0.4270 0.4280 0.4280 0.4300
1553.483067 0.4320 0.4340 0.4360 0.4370 0.4400
1556.732839 0.4430 0.4450 0.4490 0.4520 0.4530
1559.982611 0.4590 0.4660 0.4740 0.4840 0.4870
1563.232384 0.4930 0.4970 0.5020 0.5060 0.5070
1566.482156 0.5130 0.5190 0.5220 0.5280 0.5320
1569.731928 0.5420 0.5460 0.5500 0.5530 0.5560
1572.981701 0.5620 0.5620 0.5620 0.5640 0.5670
1576.231473 0.5680 0.5700 0.5720 0.5740 0.5740
1579.481245 0.5750 0.5750 0.5760 0.5770 0.5780
1582.731018 0.5790 0.5810 0.5830 0.5840 0.5860
1585.980790 0.5870 0.5890 0.5910 0.5930 0.5940
1589.230562 0.5960 0.6000 0.6030 0.6070 0.6110
1592.480335 0.6190 0.6260 0.6320 0.6360 0.6400
1595.730107 0.6430 0.6470 0.6500 0.6540 0.6580
1598.979879 0.6630 0.6700 0.6740 0.6780 0.6870
1602.229652 0.6900 0.6960 0.6980 0.7010 0.7050
1605.479424 0.7090 0.7140 0.7180 0.7220 0.7250
1608.729196 0.7270 0.7280 0.7340 0.7390 0.7440
1611.978969 0.7470 0.7500 0.7510 0.7530 0.7530
1615.228741 0.7540 0.7550 0.7550 0.7570 0.7590
1618.478513 0.7590 0.7600 0.7610 0.7610 0.7630
1621.728286 0.7640 0.7680 0.7710 0.7720 0.7730
1624.978058 0.7730 0.7740 0.7750 0.7750 0.7750
1628.227830 0.7740 0.7730 0.7730 0.7730 0.7730
1631.477603 0.7720 0.7680 0.7630 0.7570 0.7520
1634.727375 0.7460 0.7390 0.7320 0.7230 0.7140
1637.977147 0.7030 0.6900 0.6620 0.6610 0.6620
1641.226920 0.6710 0.6790 0.6970 0.7080 0.7200
1644.476692 0.7280 0.7340 0.7370 0.7380 0.7380
1647.726464 0.7380 0.7380 0.7390 0.7430 0.7460
1650.976237 0.7500 0.7550 0.7590 0.7640 0.7690
1654.226009 0.7730 0.7770 0.7810 0.7850 0.7860
1657.475781 0.7880 0.7900 0.7920 0.7920 0.7940
1660.725554 0.7950 0.7950 0.7950 0.7970 0.7970
1663.975326 0.7980 0.7990 0.8000 0.8010 0.8010
1667.225098 0.8020 0.8020 0.8020 0.8020 0.8040
1670.474871 0.8040 0.8040 0.8040 0.8040 0.8040
1673.724643 0.8030 0.8030 0.8030 0.8030 0.8020
1676.974415 0.8020 0.8020 0.8020 0.8020 0.8020
1680.224188 0.8030 0.8030 0.8030 0.8040 0.8040
1683.473960 0.8040 0.8040 0.8040 0.8050 0.8050
1686.723732 0.8060 0.8060 0.8060 0.8060 0.8060
1689.973505 0.8060 0.8070 0.8070 0.8080 0.8080
1693.223277 0.8080 0.8080 0.8080 0.8090 0.8090
1696.473049 0.8100 0.8100 0.8100 0.8100 0.8100
1699.722822 0.8100 0.8110 0.8110 0.8110 0.8110
1702.972594 0.8110 0.8110 0.8110 0.8110 0.8110
1706.222366 0.8110 0.8120 0.8130 0.8130 0.8130
1709.472139 0.8130 0.8130 0.8140 0.8140 0.8150
1712.721911 0.8150 0.8150 0.8160 0.8160 0.8160
1715.971683 0.8160 0.8150 0.8150 0.8150 0.8150
1719.221456 0.8150 0.8150 0.8130 0.8130 0.8130
1722.471228 0.8130 0.8130 0.8130 0.8120 0.8120
1725.721000 0.8120 0.8120 0.8120 0.8120 0.8130
1728.970773 0.8130 0.8130 0.8130 0.8140 0.8140
1732.220545 0.8140 0.8140 0.8140 0.8150 0.8150
1735.470317 0.8150 0.8150 0.8150 0.8150 0.8150
1738.720090 0.8150 0.8150 0.8150 0.8150 0.8150
1741.969862 0.8150 0.8150 0.8150 0.8140 0.8140
1745.219634 0.8140 0.8130 0.8130 0.8130 0.8130
1748.469407 0.8130 0.8130 0.8130 0.8140 0.8140
1751.719179 0.8140 0.8140 0.8150 0.8150 0.8150
1754.968951 0.8150 0.8150 0.8150 0.8150 0.8150
1758.218724 0.8150 0.8160 0.8160 0.8160 0.8160
1761.468496 0.8160 0.8170 0.8170 0.8170 0.8180
1764.718268 0.8180 0.8190 0.8190 0.8190 0.8190
1767.968041 0.8190 0.8200 0.8200 0.8200 0.8200
1771.217813 0.8210 0.8210 0.8220 0.8220 0.8220
1774.467585 0.8220 0.8220 0.8220 0.8220 0.8220
1777.717358 0.8220 0.8220 0.8220 0.8220 0.8220
1780.967130 0.8220 0.8220 0.8220 0.8220 0.8220
1784.216902 0.8220 0.8210 0.8210 0.8210 0.8210
1787.466675 0.8200 0.8200 0.8200 0.8200 0.8200
1790.716447 0.8200 0.8200 0.8200 0.8200 0.8200
1793.966219 0.8200 0.8200 0.8200 0.8190 0.8190
1797.215992 0.8190 0.8190 0.8190 0.8190 0.8190
1800.465764 0.8180 0.8180 0.8180 0.8180 0.8180
1803.715536 0.8180 0.8180 0.8180 0.8180 0.8180
1806.965309 0.8180 0.8180 0.8180 0.8180 0.8180
1810.215081 0.8180 0.8170 0.8170 0.8170 0.8170
1813.464853 0.8170 0.8170 0.8170 0.8170 0.8170
1816.714626 0.8170 0.8170 0.8160 0.8160 0.8150
1819.964398 0.8150 0.8150 0.8150 0.8140 0.8130
1823.214170 0.8130 0.8130 0.8130 0.8120 0.8110
1826.463943 0.8110 0.8110 0.8110 0.8100 0.8100
1829.713715 0.8100 0.8100 0.8100 0.8090 0.8090
1832.963487 0.8090 0.8090 0.8080 0.8080 0.8080
1836.213260 0.8060 0.8060 0.8050 0.8050 0.8040
1839.463032 0.8040 0.8040 0.8020 0.8010 0.7990
1842.712804 0.7990 0.7970 0.7950 0.7940 0.7930
1845.962577 0.7910 0.7900 0.7870 0.7850 0.7840
1849.212349 0.7790 0.7740 0.7670 0.7670 0.7630
1852.462121 0.7590 0.7550 0.7510 0.7500 0.7480
1855.711894 0.7450 0.7400 0.7390 0.7360 0.7340
1858.961666 0.7330 0.7320 0.7320 0.7320 0.7320
1862.211438 0.7330 0.7350 0.7350 0.7370 0.7370
1865.461211 0.7390 0.7410 0.7430 0.7450 0.7470
1868.710983 0.7490 0.7520 0.7540 0.7550 0.7570
1871.960755 0.7590 0.7610 0.7630 0.7660 0.7680
1875.210528 0.7700 0.7720 0.7730 0.7790 0.7790
1878.460300 0.7810 0.7830 0.7840 0.7860 0.7870
1881.710072 0.7880 0.7890 0.7910 0.7940 0.7940
1884.959845 0.7950 0.7960 0.7970 0.7980 0.7990
1888.209617 0.8000 0.8010 0.8020 0.8020 0.8040
1891.459389 0.8040 0.8060 0.8060 0.8070 0.8080
1894.709162 0.8080 0.8080 0.8090 0.8090 0.8100
1897.958934 0.8100 0.8100 0.8100 0.8110 0.8110
1901.208706 0.8110 0.8120 0.8130 0.8130 0.8130
1904.458479 0.8130 0.8140 0.8140 0.8140 0.8150
1907.708251 0.8150 0.8150 0.8150 0.8140 0.8140
1910.958023 0.8140 0.8140 0.8130 0.8130 0.8130
1914.207796 0.8130 0.8140 0.8140 0.8140 0.8150
1917.457568 0.8150 0.8150 0.8150 0.8150 0.8150
1920.707340 0.8160 0.8160 0.8160 0.8170 0.8170
1923.957113 0.8170 0.8170 0.8170 0.8170 0.8170
1927.206885 0.8170 0.8170 0.8170 0.8170 0.8170
1930.456657 0.8180 0.8180 0.8190 0.8190 0.8190
1933.706430 0.8190 0.8190 0.8190 0.8190 0.8190
1936.956202 0.8180 0.8170 0.8170 0.8160 0.8150
1940.205974 0.8150 0.8150 0.8150 0.8140 0.8140
1943.455747 0.8130 0.8130 0.8130 0.8130 0.8120
1946.705519 0.8120 0.8120 0.8110 0.8110 0.8110
1949.955291 0.8110 0.8110 0.8110 0.8110 0.8110
1953.205064 0.8110 0.8110 0.8110 0.8110 0.8110
1956.454836 0.8110 0.8110 0.8110 0.8110 0.8110
1959.704608 0.8100 0.8100 0.8100 0.8100 0.8100
1962.954381 0.8100 0.8090 0.8090 0.8090 0.8090
1966.204153 0.8080 0.8080 0.8080 0.8080 0.8080
1969.453925 0.8080 0.8080 0.8080 0.8080 0.8080
1972.703698 0.8080 0.8080 0.8080 0.8080 0.8080
1975.953470 0.8090 0.8090 0.8090 0.8100 0.8100
1979.203242 0.8100 0.8100 0.8100 0.8100 0.8100
1982.453015 0.8110 0.8110 0.8110 0.8110 0.8110
1985.702787 0.8110 0.8110 0.8120 0.8120 0.8120
1988.952559 0.8120 0.8130 0.8130 0.8130 0.8130
1992.202332 0.8130 0.8130 0.8140 0.8140 0.8150
1995.452104 0.8150 0.8150 0.8150 0.8150 0.8150
1998.701876 0.8150 0.8150 0.8150 0.8153 0.8155
2001.951649 0.8158 0.8160 0.8160 0.8160 0.8160
2005.201421 0.8160 0.8160 0.8160 0.8160 0.8160
2008.451193 0.8160 0.8160 0.8160 0.8160 0.8160
2011.700966 0.8160 0.8160 0.8160 0.8160 0.8160
2014.950738 0.8160 0.8160 0.8160 0.8160 0.8160
2018.200510 0.8160 0.8160 0.8160 0.8160 0.8160
2021.450283 0.8160 0.8160 0.8160 0.8158 0.8156
2024.700055 0.8153 0.8150 0.8150 0.8150 0.8150
2027.949827 0.8150 0.8150 0.8150 0.8150 0.8150
2031.199600 0.8150 0.8150 0.8150 0.8150 0.8150
2034.449372 0.8150 0.8150 0.8150 0.8150 0.8150
2037.699144 0.8150 0.8149 0.8147 0.8144 0.8142
2040.948917 0.8140 0.8140 0.8140 0.8140 0.8140
2044.198689 0.8140 0.8140 0.8140 0.8140 0.8140
2047.448461 0.8140 0.8140 0.8140 0.8140 0.8140
2050.698234 0.8140 0.8140 0.8140 0.8140 0.8140
2053.948006 0.8138 0.8135 0.8133 0.8130 0.8130
2057.197778 0.8130 0.8130 0.8130 0.8130 0.8130
2060.447551 0.8130 0.8130 0.8130 0.8130 0.8130
2063.697323 0.8130 0.8130 0.8130 0.8130 0.8130
2066.947095 0.8130 0.8130 0.8130 0.8130 0.8130
2070.196868 0.8130 0.8130 0.8129 0.8126 0.8124
2073.446640 0.8121 0.8120 0.8120 0.8120 0.8120
2076.696412 0.8120 0.8120 0.8120 0.8120 0.8120
2079.946185 0.8120 0.8120 0.8120 0.8120 0.8120
2083.195957 0.8120 0.8120 0.8122 0.8125 0.8127
2086.445729 0.8130 0.8130 0.8130 0.8130 0.8130
2089.695502 0.8130 0.8130 0.8130 0.8130 0.8130
2092.945274 0.8130 0.8130 0.8130 0.8130 0.8130
2096.195046 0.8130 0.8131 0.8133 0.8136 0.8138
2099.444819 0.8140 0.8140 0.8140 0.8140 0.8140
2102.694591 0.8140 0.8140 0.8140 0.8141 0.8144
2105.944363 0.8146 0.8149 0.8150 0.8150 0.8150
2109.194136 0.8150 0.8150 0.8150 0.8150 0.8150
2112.443908 0.8150 0.8150 0.8150 0.8150 0.8150
2115.693680 0.8150 0.8150 0.8150 0.8150 0.8150
2118.943453 0.8150 0.8150 0.8150 0.8150 0.8150
2122.193225 0.8150 0.8153 0.8155 0.8158 0.8160
2125.442997 0.8163 0.8166 0.8168 0.8170 0.8170
2128.692770 0.8170 0.8170 0.8170 0.8170 0.8170
2131.942542 0.8170 0.8170 0.8170 0.8170 0.8170
2135.192314 0.8171 0.8174 0.8177 0.8179 0.8180
2138.442087 0.8180 0.8180 0.8180 0.8182 0.8184
2141.691859 0.8187 0.8190 0.8190 0.8190 0.8190
2144.941632 0.8190 0.8190 0.8190 0.8190 0.8190
2148.191404 0.8190 0.8190 0.8190 0.8190 0.8190
2151.441176 0.8190 0.8190 0.8190 0.8190 0.8190
2154.690949 0.8190 0.8190 0.8190 0.8190 0.8190
2157.940721 0.8190 0.8190 0.8190 0.8190 0.8190
2161.190493 0.8190 0.8190 0.8190 0.8190 0.8190
2164.440266 0.8190 0.8190 0.8190 0.8190 0.8190
2167.690038 0.8190 0.8192 0.8194 0.8197 0.8199
2170.939810 0.8200 0.8200 0.8200 0.8200 0.8200
2174.189583 0.8200 0.8200 0.8200 0.8200 0.8200
2177.439355 0.8200 0.8200 0.8203 0.8205 0.8208
2180.689127 0.8210 0.8210 0.8210 0.8210 0.8211
2183.938900 0.8213 0.8216 0.8218 0.8220 0.8220
2187.188672 0.8220 0.8220 0.8220 0.8220 0.8220
2190.438444 0.8220 0.8220 0.8220 0.8220 0.8220
2193.688217 0.8221 0.8224 0.8226 0.8229 0.8230
2196.937989 0.8230 0.8230 0.8230 0.8232 0.8234
2200.187761 0.8237 0.8239 0.8240 0.8240 0.8240
2203.437534 0.8240 0.8240 0.8240 0.8240 0.8240
2206.687306 0.8240 0.8240 0.8240 0.8240 0.8240
2209.937078 0.8240 0.8240 0.8240 0.8243 0.8245
2213.186851 0.8248 0.8250 0.8250 0.8250 0.8250
2216.436623 0.8250 0.8250 0.8250 0.8250 0.8251
2219.686395 0.8254 0.8256 0.8259 0.8260 0.8260
2222.936168 0.8260 0.8260 0.8260 0.8260 0.8260
2226.185940 0.8260 0.8260 0.8260 0.8260 0.8260
2229.435712 0.8260 0.8260 0.8260 0.8260 0.8260
2232.685485 0.8260 0.8260 0.8260 0.8260 0.8260
2235.935257 0.8260 0.8260 0.8260 0.8260 0.8260
2239.185029 0.8260 0.8260 0.8260 0.8260 0.8260
2242.434802 0.8260 0.8260 0.8260 0.8260 0.8260
2245.684574 0.8260 0.8260 0.8260 0.8260 0.8260
2248.934346 0.8260 0.8259 0.8256 0.8254 0.8251
2252.184119 0.8250 0.8250 0.8250 0.8250 0.8248
2255.433891 0.8246 0.8243 0.8241 0.8240 0.8240
2258.683663 0.8240 0.8240 0.8238 0.8235 0.8233
2261.933436 0.8230 0.8228 0.8225 0.8223 0.8220
2265.183208 0.8218 0.8215 0.8212 0.8210 0.8207
2268.432980 0.8205 0.8202 0.8200 0.8200 0.8200
2271.682753 0.8200 0.8199 0.8197 0.8194 0.8192
2274.932525 0.8189 0.8187 0.8184 0.8182 0.8179
2278.182297 0.8176 0.8174 0.8171 0.8169 0.8166
2281.432070 0.8164 0.8161 0.8159 0.8156 0.8153
2284.681842 0.8151 0.8148 0.8146 0.8143 0.8141
2287.931614 0.8138 0.8136 0.8133 0.8130 0.8128
2291.181387 0.8125 0.8123 0.8120 0.8118 0.8115
2294.431159 0.8113 0.8110 0.8110 0.8110 0.8110
2297.680931 0.8110 0.8107 0.8105 0.8102 0.8100
2300.930704 0.8100 0.8100 0.8100 0.8100 0.8100
2304.180476 0.8100 0.8100 0.8098 0.8093 0.8088
2307.430248 0.8083 0.8080 0.8080 0.8080 0.8080
2310.680021 0.8080 0.8080 0.8080 0.8080 0.8080
2313.929793 0.8080 0.8080 0.8080 0.8080 0.8080
2317.179565 0.8080 0.8080 0.8080 0.8080 0.8080
2320.429338 0.8080 0.8080 0.8080 0.8080 0.8080
2323.679110 0.8080 0.8080 0.8080 0.8080 0.8080
2326.928882 0.8080 0.8080 0.8080 0.8083 0.8085
2330.178655 0.8088 0.8090 0.8090 0.8090 0.8090
2333.428427 0.8091 0.8093 0.8096 0.8098 0.8100
2336.678199 0.8100 0.8100 0.8100 0.8100 0.8100
2339.927972 0.8100 0.8100 0.8100 0.8100 0.8100
2343.177744 0.8100 0.8102 0.8104 0.8107 0.8109
2346.427516 0.8110 0.8110 0.8110 0.8110 0.8110
2349.677289 0.8110 0.8110 0.8110 0.8110 0.8110
2352.927061 0.8110 0.8110 0.8112 0.8115 0.8118
2356.176833 0.8120 0.8120 0.8120 0.8120 0.8120
2359.426606 0.8120 0.8120 0.8120 0.8121 0.8123
2362.676378 0.8126 0.8128 0.8130 0.8130 0.8130
2365.926150 0.8130 0.8131 0.8134 0.8136 0.8139
2369.175923 0.8141 0.8144 0.8146 0.8149 0.8150
2372.425695 0.8150 0.8150 0.8150 0.8150 0.8150
2375.675467 0.8150 0.8150 0.8152 0.8154 0.8157
2378.925240 0.8160 0.8162 0.8165 0.8167 0.8170
2382.175012 0.8170 0.8170 0.8170 0.8170 0.8173
2385.424784 0.8175 0.8178 0.8180 0.8183 0.8185
2388.674557 0.8188 0.8190 0.8190 0.8190 0.8190
2391.924329 0.8190 0.8190 0.8190 0.8190 0.8190
2395.174101 0.8190 0.8190 0.8190 0.8191 0.8194
2398.423874 0.8196 0.8199 0.8200 0.8200 0.8200
2401.673646 0.8200 0.8200 0.8200 0.8200 0.8200
2404.923418 0.8202 0.8204 0.8207 0.8210 0.8212
2408.173191 0.8215 0.8217 0.8220 0.8220 0.8220
2411.422963 0.8220 0.8220 0.8220 0.8220 0.8220
2414.672735 0.8220 0.8223 0.8225 0.8228 0.8230
2417.922508 0.8230 0.8230 0.8230 0.8231 0.8233
2421.172280 0.8236 0.8238 0.8240 0.8240 0.8240
2424.422052 0.8240 0.8240 0.8240 0.8240 0.8240
2427.671825 0.8241 0.8244 0.8246 0.8249 0.8250
2430.921597 0.8250 0.8250 0.8250 0.8252 0.8254
2434.171369 0.8257 0.8259 0.8260 0.8260 0.8260
2437.421142 0.8260 0.8260 0.8260 0.8260 0.8260
2440.670914 0.8260 0.8260 0.8260 0.8260 0.8263
2443.920686 0.8265 0.8268 0.8270 0.8270 0.8270
2447.170459 0.8270 0.8270 0.8273 0.8276 0.8278
2450.420231 0.8280 0.8280 0.8280 0.8280 0.8280
2453.670003 0.8280 0.8280 0.8280 0.8280 0.8280
2456.919776 0.8280 0.8280 0.8281 0.8284 0.8286
2460.169548 0.8289 0.8290 0.8290 0.8290 0.8290
2463.419320 0.8292 0.8294 0.8297 0.8299 0.8300
2466.669093 0.8300 0.8300 0.8300 0.8300 0.8300
2469.918865 0.8300 0.8300 0.8300 0.8300 0.8300
2473.168637 0.8300 0.8300 0.8300 0.8300 0.8300
2476.418410 0.8300 0.8300 0.8300 0.8300 0.8300
2479.668182 0.8300 0.8300 0.8300 0.8300 0.8300
2482.917954 0.8300 0.8300 0.8300 0.8300 0.8300
2486.167727 0.8300 0.8300 0.8300 0.8300 0.8300
2489.417499 0.8300 0.8300 0.8300 0.8300 0.8300
2492.667271 0.8300 0.8300 0.8300 0.8300 0.8300
2495.917044 0.8300 0.8300 0.8300 0.8300 0.8300
2499.166816 0.8300 0.8300 0.8300 0.8300 0.8300
2502.416588 0.8300 0.8300 0.8300 0.8300 0.8300
2505.666361 0.8300 0.8300 0.8300 0.8300 0.8300
2508.916133 0.8300 0.8300 0.8300 0.8300 0.8300
2512.165905 0.8300 0.8300 0.8300 0.8300 0.8300
2515.415678 0.8300 0.8300 0.8300 0.8300 0.8300
2518.665450 0.8300 0.8300 0.8300 0.8300 0.8300
2521.915222 0.8298 0.8296 0.8293 0.8291 0.8290
2525.164995 0.8290 0.8290 0.8290 0.8290 0.8290
2528.414767 0.8290 0.8290 0.8290 0.8290 0.8290
2531.664539 0.8290 0.8287 0.8285 0.8282 0.8280
2534.914312 0.8280 0.8280 0.8280 0.8280 0.8280
2538.164084 0.8280 0.8280 0.8280 0.8280 0.8280
2541.413856 0.8280 0.8280 0.8280 0.8280 0.8280
2544.663629 0.8280 0.8280 0.8280 0.8280 0.8280
2547.913401 0.8280 0.8280 0.8280 0.8280 0.8280
2551.163173 0.8280 0.8280 0.8280 0.8280 0.8280
2554.412946 0.8280 0.8280 0.8280 0.8280 0.8280
2557.662718 0.8280 0.8280 0.8280 0.8280 0.8280
2560.912490 0.8280 0.8280 0.8280 0.8280 0.8280
2564.162263 0.8280 0.8280 0.8280 0.8280 0.8280
2567.412035 0.8280 0.8280 0.8280 0.8280 0.8280
2570.661807 0.8280 0.8280 0.8280 0.8280 0.8280
2573.911580 0.8280 0.8280 0.8280 0.8280 0.8280
2577.161352 0.8280 0.8279 0.8276 0.8273 0.8271
2580.411124 0.8270 0.8270 0.8270 0.8270 0.8270
2583.660897 0.8270 0.8270 0.8270 0.8270 0.8270
2586.910669 0.8270 0.8270 0.8270 0.8270 0.8270
2590.160441 0.8270 0.8270 0.8270 0.8270 0.8270
2593.410214 0.8270 0.8270 0.8270 0.8270 0.8270
2596.659986 0.8270 0.8270 0.8270 0.8270 0.8270
2599.909758 0.8270 0.8270 0.8270 0.8270 0.8270
2603.159531 0.8270 0.8270 0.8270 0.8270 0.8270
2606.409303 0.8270 0.8270 0.8270 0.8268 0.8266
2609.659075 0.8263 0.8261 0.8260 0.8260 0.8260
2612.908848 0.8260 0.8260 0.8260 0.8260 0.8260
2616.158620 0.8260 0.8260 0.8260 0.8260 0.8260
2619.408392 0.8260 0.8260 0.8260 0.8260 0.8260
2622.658165 0.8260 0.8260 0.8260 0.8260 0.8260
2625.907937 0.8259 0.8257 0.8254 0.8252 0.8249
2629.157709 0.8247 0.8244 0.8242 0.8240 0.8240
2632.407482 0.8240 0.8240 0.8239 0.8236 0.8234
2635.657254 0.8231 0.8230 0.8230 0.8230 0.8230
2638.907026 0.8228 0.8226 0.8223 0.8221 0.8220
2642.156799 0.8220 0.8220 0.8220 0.8220 0.8220
2645.406571 0.8220 0.8220 0.8220 0.8220 0.8220
2648.656343 0.8220 0.8220 0.8220 0.8220 0.8220
2651.906116 0.8217 0.8215 0.8212 0.8210 0.8210
2655.155888 0.8210 0.8210 0.8210 0.8210 0.8210
2658.405660 0.8210 0.8209 0.8207 0.8204 0.8201
2661.655433 0.8200 0.8200 0.8200 0.8200 0.8200
2664.905205 0.8200 0.8200 0.8200 0.8200 0.8200
2668.154977 0.8200 0.8200 0.8202 0.8204 0.8207
2671.404750 0.8209 0.8212 0.8215 0.8217 0.8220
2674.654522 0.8220 0.8220 0.8220 0.8220 0.8220
2677.904294 0.8220 0.8220 0.8220 0.8223 0.8225
2681.154067 0.8228 0.8230 0.8230 0.8230 0.8230
2684.403839 0.8230 0.8233 0.8236 0.8238 0.8240
2687.653611 0.8240 0.8240 0.8240 0.8240 0.8240
2690.903384 0.8240 0.8240 0.8240 0.8240 0.8240
2694.153156 0.8240 0.8241 0.8244 0.8247 0.8249
2697.402928 0.8252 0.8254 0.8257 0.8259 0.8260
2700.652701 0.8260 0.8260 0.8260 0.8260 0.8260
2703.902473 0.8260 0.8260 0.8260 0.8260 0.8260
2707.152245 0.8260 0.8260 0.8260 0.8260 0.8260
2710.402018 0.8260 0.8260 0.8260 0.8260 0.8260
2713.651790 0.8260 0.8260 0.8260 0.8260 0.8260
2716.901562 0.8260 0.8260 0.8260 0.8260 0.8260
2720.151335 0.8260 0.8260 0.8260 0.8260 0.8260
2723.401107 0.8260 0.8260 0.8260 0.8260 0.8260
2726.650879 0.8260 0.8260 0.8258 0.8256 0.8253
2729.900652 0.8251 0.8250 0.8250 0.8250 0.8250
2733.150424 0.8250 0.8250 0.8250 0.8250 0.8248
2736.400196 0.8245 0.8243 0.8240 0.8240 0.8240
2739.649969 0.8240 0.8240 0.8240 0.8240 0.8240
2742.899741 0.8240 0.8240 0.8240 0.8240 0.8241
2746.149513 0.8243 0.8246 0.8248 0.8250 0.8250
2749.399286 0.8250 0.8250 0.8250 0.8250 0.8250
2752.649058 0.8250 0.8250 0.8250 0.8250 0.8250
2755.898830 0.8250 0.8250 0.8250 0.8250 0.8250
2759.148603 0.8250 0.8250 0.8250 0.8250 0.8250
2762.398375 0.8250 0.8250 0.8250 0.8250 0.8250
2765.648148 0.8250 0.8250 0.8250 0.8250 0.8250
2768.897920 0.8250 0.8250 0.8250 0.8250 0.8250
2772.147692 0.8250 0.8250 0.8250 0.8250 0.8250
2775.397465 0.8250 0.8250 0.8250 0.8250 0.8250
2778.647237 0.8250 0.8250 0.8250 0.8250 0.8249
2781.897009 0.8246 0.8244 0.8241 0.8240 0.8240
2785.146782 0.8240 0.8240 0.8240 0.8240 0.8240
2788.396554 0.8240 0.8240 0.8240 0.8240 0.8240
2791.646326 0.8240 0.8240 0.8240 0.8240 0.8238
2794.896099 0.8235 0.8233 0.8230 0.8230 0.8230
2798.145871 0.8230 0.8230 0.8227 0.8225 0.8222
2801.395643 0.8220 0.8220 0.8220 0.8220 0.8220
2804.645416 0.8220 0.8220 0.8220 0.8220 0.8220
2807.895188 0.8220 0.8220 0.8220 0.8220 0.8220
2811.144960 0.8220 0.8219 0.8216 0.8214 0.8211
2814.394733 0.8210 0.8210 0.8210 0.8210 0.8208
2817.644505 0.8206 0.8203 0.8201 0.8198 0.8195
2820.894277 0.8193 0.8190 0.8190 0.8190 0.8190
2824.144050 0.8190 0.8188 0.8185 0.8182 0.8180
2827.393822 0.8177 0.8175 0.8172 0.8170 0.8170
2830.643594 0.8170 0.8170 0.8170 0.8167 0.8164
2833.893367 0.8162 0.8159 0.8157 0.8154 0.8152
2837.143139 0.8150 0.8150 0.8150 0.8150 0.8149
2840.392911 0.8146 0.8144 0.8141 0.8139 0.8136
2843.642684 0.8133 0.8131 0.8130 0.8130 0.8130
2846.892456 0.8130 0.8130 0.8130 0.8130 0.8130
2850.142228 0.8126 0.8121 0.8116 0.8111 0.8108
2853.392001 0.8105 0.8103 0.8100 0.8100 0.8100
2856.641773 0.8100 0.8100 0.8097 0.8095 0.8092
2859.891545 0.8090 0.8090 0.8090 0.8090 0.8089
2863.141318 0.8087 0.8084 0.8082 0.8080 0.8080
2866.391090 0.8080 0.8080 0.8079 0.8076 0.8074
2869.640862 0.8071 0.8069 0.8066 0.8064 0.8061
2872.890635 0.8060 0.8060 0.8060 0.8060 0.8058
2876.140407 0.8056 0.8053 0.8051 0.8048 0.8046
2879.390179 0.8043 0.8040 0.8040 0.8040 0.8040
2882.639952 0.8040 0.8038 0.8035 0.8033 0.8030
2885.889724 0.8027 0.8025 0.8022 0.8020 0.8020
2889.139496 0.8020 0.8020 0.8020 0.8020 0.8020
2892.389269 0.8020 0.8020 0.8020 0.8020 0.8020
2895.639041 0.8021 0.8024 0.8026 0.8029 0.8033
2898.888813 0.8041 0.8049 0.8056 0.8063 0.8068
2902.138586 0.8073 0.8078 0.8080 0.8080 0.8080
2905.388358 0.8080 0.8080 0.8080 0.8080 0.8080
2908.638130 0.8080 0.8080 0.8080 0.8080 0.8080
2911.887903 0.8080 0.8080 0.8080 0.8078 0.8075
2915.137675 0.8072 0.8070 0.8067 0.8065 0.8062
2918.387447 0.8060 0.8057 0.8055 0.8052 0.8049
2921.637220 0.8047 0.8044 0.8042 0.8038 0.8033
2924.886992 0.8028 0.8023 0.8019 0.8016 0.8014
2928.136764 0.8011 0.8009 0.8006 0.8004 0.8001
2931.386537 0.7999 0.7996 0.7993 0.7991 0.7988
2934.636309 0.7986 0.7983 0.7981 0.7978 0.7976
2937.886081 0.7973 0.7970 0.7970 0.7970 0.7970
2941.135854 0.7970 0.7968 0.7965 0.7963 0.7960
2944.385626 0.7957 0.7955 0.7952 0.7947 0.7916
2947.635398 0.7886 0.7855 0.7829 0.7821 0.7813
2950.885171 0.7806 0.7797 0.7787 0.7777 0.7767
2954.134943 0.7754 0.7736 0.7718 0.7700 0.7682
2957.384715 0.7665 0.7647 0.7629 0.7612 0.7597
2960.634488 0.7582 0.7566 0.7518 0.7447 0.7375
2963.884260 0.7304 0.7252 0.7211 0.7170 0.7128
2967.134032 0.7083 0.7037 0.6991 0.6945 0.6891
2970.383805 0.6834 0.6778 0.6722 0.6693 0.6665
2973.633577 0.6637 0.6609 0.6581 0.6553 0.6525
2976.883349 0.6500 0.6500 0.6500 0.6500 0.6501
2980.133122 0.6506 0.6511 0.6516 0.6526 0.6546
2983.382894 0.6567 0.6587 0.6602 0.6607 0.6612
2986.632666 0.6617 0.6634 0.6664 0.6695 0.6726
2989.882439 0.6747 0.6760 0.6773 0.6786 0.6800
2993.132211 0.6815 0.6831 0.6846 0.6873 0.6903
2996.381983 0.6934 0.6965 0.6993 0.7021 0.7049
2999.631756 0.7077 0.7108 0.7138 0.7169 0.7200
3002.881528 0.7225 0.7251 0.7276 0.7302 0.7325
3006.131300 0.7348 0.7371 0.7394 0.7419 0.7445
3009.381073 0.7470 0.7494 0.7509 0.7524 0.7539
3012.630845 0.7551 0.7553 0.7556 0.7558 0.7560
3015.880617 0.7560 0.7560 0.7560 0.7559 0.7556
3019.130390 0.7554 0.7551 0.7548 0.7546 0.7543
3022.380162 0.7541 0.7536 0.7531 0.7526 0.7521
3025.629934 0.7518 0.7515 0.7513 0.7510 0.7508
3028.879707 0.7505 0.7503 0.7500 0.7500 0.7500
3032.129479 0.7500 0.7500 0.7505 0.7510 0.7515
3035.379251 0.7522 0.7545 0.7568 0.7591 0.7613
3038.629024 0.7631 0.7649 0.7667 0.7691 0.7735
3041.878796 0.7779 0.7823 0.7854 0.7864 0.7874
3045.128568 0.7885 0.7894 0.7901 0.7909 0.7917
3048.378341 0.7920 0.7920 0.7920 0.7920 0.7917
3051.628113 0.7912 0.7907 0.7901 0.7889 0.7874
3054.877885 0.7858 0.7843 0.7826 0.7808 0.7790
3058.127658 0.7772 0.7754 0.7736 0.7719 0.7701
3061.377430 0.7688 0.7675 0.7662 0.7649 0.7637
3064.627202 0.7624 0.7611 0.7599 0.7591 0.7584
3067.876975 0.7576 0.7568 0.7560 0.7553 0.7545
3071.126747 0.7540 0.7540 0.7540 0.7540 0.7537
3074.376519 0.7529 0.7522 0.7514 0.7509 0.7506
3077.626292 0.7504 0.7501 0.7497 0.7492 0.7487
3080.876064 0.7482 0.7480 0.7480 0.7480 0.7480
3084.125836 0.7478 0.7476 0.7473 0.7470 0.7462
3087.375609 0.7451 0.7441 0.7431 0.7421 0.7411
3090.625381 0.7400 0.7390 0.7311 0.7231 0.7151
3093.875153 0.7064 0.6923 0.6783 0.6643 0.6530
3097.124926 0.6530 0.6530 0.6530 0.6541 0.6582
3100.374698 0.6623 0.6664 0.6698 0.6721 0.6744
3103.624470 0.6767 0.6788 0.6806 0.6824 0.6841
3106.874243 0.6873 0.6916 0.6959 0.7003 0.7045
3110.124015 0.7085 0.7126 0.7167 0.7208 0.7249
3113.373787 0.7290 0.7330 0.7373 0.7417 0.7460
3116.623560 0.7503 0.7545 0.7586 0.7628 0.7669
3119.873332 0.7707 0.7746 0.7784 0.7822 0.7861
3123.123104 0.7899 0.7937 0.7971 0.7982 0.7992
3126.372877 0.8002 0.8010 0.8010 0.8010 0.8010
3129.622649 0.8012 0.8020 0.8028 0.8035 0.8042
3132.872421 0.8047 0.8052 0.8057 0.8060 0.8060
3136.122194 0.8060 0.8060 0.8061 0.8064 0.8066
3139.371966 0.8069 0.8072 0.8074 0.8077 0.8079
3142.621738 0.8082 0.8084 0.8087 0.8090 0.8092
3145.871511 0.8095 0.8097 0.8100 0.8102 0.8105
3149.121283 0.8107 0.8110 0.8113 0.8115 0.8118
3152.371055 0.8120 0.8123 0.8125 0.8128 0.8130
3155.620828 0.8130 0.8130 0.8130 0.8131 0.8133
3158.870600 0.8136 0.8138 0.8141 0.8143 0.8146
3162.120372 0.8149 0.8150 0.8150 0.8150 0.8150
3165.370145 0.8150 0.8150 0.8150 0.8150 0.8151
3168.619917 0.8154 0.8157 0.8159 0.8162 0.8164
3171.869689 0.8167 0.8169 0.8170 0.8170 0.8170
3175.119462 0.8170 0.8170 0.8170 0.8170 0.8170
3178.369234 0.8172 0.8175 0.8178 0.8180 0.8183
3181.619006 0.8185 0.8188 0.8190 0.8190 0.8190
3184.868779 0.8190 0.8190 0.8190 0.8190 0.8190
3188.118551 0.8190 0.8190 0.8190 0.8190 0.8191
3191.368323 0.8193 0.8196 0.8199 0.8200 0.8200
3194.618096 0.8200 0.8200 0.8200 0.8200 0.8200
3197.867868 0.8200 0.8200 0.8200 0.8200 0.8200
3201.117640 0.8200 0.8200 0.8200 0.8200 0.8202
3204.367413 0.8205 0.8207 0.8210 0.8212 0.8215
3207.617185 0.8217 0.8220 0.8220 0.8220 0.8220
3210.866957 0.8220 0.8220 0.8220 0.8220 0.8220
3214.116730 0.8223 0.8225 0.8228 0.8231 0.8233
3217.366502 0.8236 0.8238 0.8240 0.8240 0.8240
3220.616274 0.8240 0.8240 0.8240 0.8240 0.8240
3223.866047 0.8239 0.8236 0.8234 0.8231 0.8230
3227.115819 0.8230 0.8230 0.8230 0.8228 0.8226
3230.365591 0.8223 0.8221 0.8220 0.8220 0.8220
3233.615364 0.8220 0.8220 0.8220 0.8220 0.8220
3236.865136 0.8220 0.8220 0.8220 0.8220 0.8217
3240.114908 0.8215 0.8212 0.8210 0.8210 0.8210
3243.364681 0.8210 0.8210 0.8210 0.8210 0.8210
3246.614453 0.8210 0.8210 0.8210 0.8210 0.8210
3249.864225 0.8210 0.8210 0.8210 0.8210 0.8210
3253.113998 0.8210 0.8210 0.8211 0.8214 0.8216
3256.363770 0.8219 0.8220 0.8220 0.8220 0.8220
3259.613542 0.8220 0.8220 0.8220 0.8220 0.8220
3262.863315 0.8220 0.8220 0.8220 0.8220 0.8220
3266.113087 0.8220 0.8220 0.8220 0.8220 0.8220
3269.362859 0.8220 0.8220 0.8220 0.8220 0.8220
3272.612632 0.8220 0.8220 0.8220 0.8220 0.8220
3275.862404 0.8220 0.8220 0.8220 0.8220 0.8220
3279.112176 0.8220 0.8220 0.8220 0.8220 0.8220
3282.361949 0.8220 0.8220 0.8220 0.8220 0.8220
3285.611721 0.8220 0.8220 0.8220 0.8220 0.8220
3288.861493 0.8220 0.8220 0.8220 0.8220 0.8220
3292.111266 0.8220 0.8220 0.8220 0.8220 0.8220
3295.361038 0.8220 0.8220 0.8220 0.8220 0.8220
3298.610810 0.8220 0.8220 0.8220 0.8220 0.8220
3301.860583 0.8220 0.8220 0.8220 0.8220 0.8220
3305.110355 0.8220 0.8220 0.8220 0.8220 0.8220
3308.360127 0.8220 0.8220 0.8220 0.8221 0.8224
3311.609900 0.8226 0.8229 0.8230 0.8230 0.8230
3314.859672 0.8230 0.8230 0.8230 0.8230 0.8230
3318.109444 0.8230 0.8230 0.8230 0.8230 0.8230
3321.359217 0.8230 0.8230 0.8230 0.8230 0.8230
3324.608989 0.8230 0.8230 0.8230 0.8230 0.8230
3327.858761 0.8230 0.8230 0.8230 0.8230 0.8230
3331.108534 0.8230 0.8230 0.8230 0.8230 0.8230
3334.358306 0.8230 0.8230 0.8230 0.8230 0.8230
3337.608078 0.8230 0.8230 0.8230 0.8230 0.8230
3340.857851 0.8230 0.8230 0.8230 0.8230 0.8230
3344.107623 0.8230 0.8230 0.8230 0.8230 0.8230
3347.357395 0.8230 0.8230 0.8230 0.8230 0.8230
3350.607168 0.8230 0.8230 0.8230 0.8230 0.8230
3353.856940 0.8230 0.8230 0.8230 0.8230 0.8230
3357.106712 0.8230 0.8230 0.8230 0.8230 0.8230
3360.356485 0.8230 0.8230 0.8230 0.8230 0.8230
3363.606257 0.8230 0.8230 0.8230 0.8230 0.8230
3366.856029 0.8230 0.8230 0.8230 0.8230 0.8230
3370.105802 0.8230 0.8230 0.8230 0.8230 0.8230
3373.355574 0.8230 0.8230 0.8230 0.8230 0.8230
3376.605347 0.8230 0.8230 0.8230 0.8230 0.8230
3379.855119 0.8230 0.8230 0.8230 0.8230 0.8230
3383.104891 0.8230 0.8230 0.8230 0.8230 0.8230
3386.354664 0.8230 0.8230 0.8230 0.8230 0.8230
3389.604436 0.8230 0.8230 0.8230 0.8230 0.8227
3392.854208 0.8224 0.8222 0.8220 0.8220 0.8220
3396.103981 0.8220 0.8220 0.8220 0.8220 0.8220
3399.353753 0.8220 0.8220 0.8220 0.8220 0.8220
3402.603525 0.8220 0.8220 0.8220 0.8220 0.8220
3405.853298 0.8220 0.8220 0.8220 0.8220 0.8220
3409.103070 0.8220 0.8220 0.8220 0.8220 0.8220
3412.352842 0.8218 0.8215 0.8213 0.8210 0.8210
3415.602615 0.8210 0.8210 0.8210 0.8210 0.8210
3418.852387 0.8210 0.8210 0.8210 0.8210 0.8210
3422.102159 0.8210 0.8210 0.8210 0.8210 0.8210
3425.351932 0.8210 0.8210 0.8210 0.8210 0.8210
3428.601704 0.8210 0.8210 0.8210 0.8210 0.8210
3431.851476 0.8210 0.8210 0.8210 0.8210 0.8210
3435.101249 0.8210 0.8210 0.8210 0.8210 0.8210
3438.351021 0.8210 0.8210 0.8210 0.8212 0.8215
3441.600793 0.8217 0.8220 0.8220 0.8220 0.8220
3444.850566 0.8220 0.8220 0.8220 0.8220 0.8220
3448.100338 0.8220 0.8220 0.8220 0.8220 0.8220
3451.350110 0.8220 0.8220 0.8220 0.8220 0.8220
3454.599883 0.8220 0.8220 0.8220 0.8220 0.8220
3457.849655 0.8220 0.8220 0.8220 0.8220 0.8220
3461.099427 0.8220 0.8220 0.8220 0.8220 0.8220
3464.349200 0.8220 0.8220 0.8220 0.8220 0.8220
3467.598972 0.8220 0.8220 0.8220 0.8220 0.8220
3470.848744 0.8220 0.8220 0.8220 0.8220 0.8220
3474.098517 0.8220 0.8220 0.8220 0.8220 0.8220
3477.348289 0.8220 0.8220 0.8220 0.8220 0.8220
3480.598061 0.8220 0.8220 0.8220 0.8220 0.8220
3483.847834 0.8220 0.8220 0.8220 0.8220 0.8220
3487.097606 0.8220 0.8220 0.8220 0.8220 0.8220
3490.347378 0.8220 0.8220 0.8220 0.8220 0.8220
3493.597151 0.8220 0.8220 0.8220 0.8220 0.8220
3496.846923 0.8220 0.8220 0.8220 0.8222 0.8225
3500.096695 0.8227 0.8230 0.8230 0.8230 0.8230
3503.346468 0.8230 0.8230 0.8230 0.8230 0.8230
3506.596240 0.8230 0.8230 0.8230 0.8230 0.8230
3509.846012 0.8230 0.8230 0.8230 0.8230 0.8230
3513.095785 0.8230 0.8230 0.8230 0.8230 0.8230
3516.345557 0.8230 0.8230 0.8230 0.8230 0.8231
3519.595329 0.8234 0.8236 0.8239 0.8240 0.8240
3522.845102 0.8240 0.8240 0.8240 0.8240 0.8240
3526.094874 0.8240 0.8240 0.8240 0.8240 0.8240
3529.344646 0.8240 0.8240 0.8240 0.8240 0.8240
3532.594419 0.8240 0.8240 0.8240 0.8240 0.8240
3535.844191 0.8240 0.8240 0.8240 0.8240 0.8240
3539.093963 0.8240 0.8240 0.8240 0.8240 0.8240
3542.343736 0.8240 0.8240 0.8240 0.8241 0.8243
3545.593508 0.8246 0.8249 0.8250 0.8250 0.8250
3548.843280 0.8250 0.8250 0.8250 0.8250 0.8250
3552.093053 0.8250 0.8250 0.8250 0.8250 0.8248
3555.342825 0.8246 0.8243 0.8240 0.8240 0.8240
3558.592597 0.8240 0.8240 0.8238 0.8235 0.8233
3561.842370 0.8230 0.8228 0.8225 0.8222 0.8220
3565.092142 0.8220 0.8220 0.8220 0.8220 0.8220
3568.341914 0.8220 0.8220 0.8219 0.8217 0.8214
3571.591687 0.8212 0.8210 0.8210 0.8210 0.8210
3574.841459 0.8210 0.8210 0.8210 0.8210 0.8210
3578.091231 0.8210 0.8210 0.8210 0.8210 0.8210
3581.341004 0.8210 0.8210 0.8212 0.8214 0.8217
3584.590776 0.8219 0.8220 0.8220 0.8220 0.8220
3587.840548 0.8220 0.8220 0.8220 0.8220 0.8220
3591.090321 0.8220 0.8220 0.8220 0.8220 0.8220
3594.340093 0.8220 0.8220 0.8220 0.8220 0.8220
3597.589865 0.8220 0.8220 0.8220 0.8220 0.8220
3600.839638 0.8220 0.8220 0.8220 0.8220 0.8220
3604.089410 0.8220 0.8220 0.8221 0.8224 0.8226
3607.339182 0.8229 0.8230 0.8230 0.8230 0.8230
3610.588955 0.8230 0.8230 0.8230 0.8230 0.8230
3613.838727 0.8230 0.8230 0.8230 0.8230 0.8230
3617.088499 0.8230 0.8230 0.8230 0.8230 0.8230
3620.338272 0.8230 0.8230 0.8230 0.8230 0.8230
3623.588044 0.8230 0.8230 0.8230 0.8230 0.8233
3626.837816 0.8235 0.8238 0.8240 0.8240 0.8240
3630.087589 0.8240 0.8240 0.8240 0.8240 0.8240
3633.337361 0.8240 0.8240 0.8240 0.8240 0.8240
3636.587133 0.8240 0.8240 0.8240 0.8240 0.8240
3639.836906 0.8240 0.8240 0.8242 0.8244 0.8247
3643.086678 0.8249 0.8250 0.8250 0.8250 0.8250
3646.336450 0.8250 0.8250 0.8250 0.8250 0.8252
3649.586223 0.8255 0.8257 0.8260 0.8260 0.8260
3652.835995 0.8260 0.8260 0.8260 0.8260 0.8260
3656.085767 0.8259 0.8254 0.8249 0.8244 0.8240
3659.335540 0.8240 0.8240 0.8240 0.8240 0.8240
3662.585312 0.8240 0.8240 0.8240 0.8240 0.8240
3665.835084 0.8240 0.8239 0.8236 0.8234 0.8231
3669.084857 0.8230 0.8230 0.8230 0.8230 0.8228
3672.334629 0.8226 0.8223 0.8221 0.8220 0.8220
3675.584401 0.8220 0.8220 0.8220 0.8220 0.8220
3678.834174 0.8220 0.8218 0.8215 0.8212 0.8210
3682.083946 0.8210 0.8210 0.8210 0.8210 0.8210
3685.333718 0.8210 0.8210 0.8210 0.8210 0.8210
3688.583491 0.8210 0.8210 0.8210 0.8210 0.8210
3691.833263 0.8210 0.8210 0.8210 0.8210 0.8210
3695.083035 0.8210 0.8210 0.8210 0.8210 0.8210
3698.332808 0.8210 0.8210 0.8210 0.8210 0.8210
3701.582580 0.8210 0.8210 0.8210 0.8210 0.8210
3704.832352 0.8210 0.8210 0.8210 0.8210 0.8210
3708.082125 0.8210 0.8210 0.8210 0.8210 0.8210
3711.331897 0.8210 0.8210 0.8210 0.8210 0.8210
3714.581669 0.8210 0.8210 0.8210 0.8210 0.8210
3717.831442 0.8210 0.8210 0.8210 0.8210 0.8210
3721.081214 0.8210 0.8210 0.8210 0.8210 0.8210
3724.330986 0.8210 0.8210 0.8210 0.8210 0.8210
3727.580759 0.8210 0.8210 0.8210 0.8210 0.8210
3730.830531 0.8210 0.8210 0.8210 0.8210 0.8210
3734.080303 0.8210 0.8210 0.8210 0.8210 0.8210
3737.330076 0.8210 0.8210 0.8210 0.8210 0.8210
3740.579848 0.8210 0.8210 0.8210 0.8210 0.8210
3743.829620 0.8210 0.8210 0.8210 0.8210 0.8210
3747.079393 0.8210 0.8210 0.8210 0.8210 0.8210
3750.329165 0.8210 0.8210 0.8210 0.8210 0.8210
3753.578937 0.8210 0.8210 0.8210 0.8210 0.8210
3756.828710 0.8210 0.8210 0.8210 0.8210 0.8210
3760.078482 0.8210 0.8208 0.8206 0.8203 0.8201
3763.328254 0.8200 0.8200 0.8200 0.8200 0.8200
3766.578027 0.8200 0.8200 0.8200 0.8200 0.8200
3769.827799 0.8200 0.8200 0.8200 0.8200 0.8200
3773.077571 0.8200 0.8200 0.8200 0.8200 0.8200
3776.327344 0.8200 0.8200 0.8200 0.8200 0.8200
3779.577116 0.8200 0.8200 0.8200 0.8200 0.8200
3782.826888 0.8200 0.8200 0.8200 0.8200 0.8200
3786.076661 0.8200 0.8200 0.8200 0.8200 0.8200
3789.326433 0.8200 0.8200 0.8200 0.8200 0.8200
3792.576205 0.8200 0.8200 0.8200 0.8200 0.8200
3795.825978 0.8200 0.8200 0.8200 0.8200 0.8200
3799.075750 0.8200 0.8200 0.8200 0.8200 0.8200
3802.325522 0.8200 0.8200 0.8200 0.8197 0.8194
3805.575295 0.8192 0.8190 0.8190 0.8190 0.8190
3808.825067 0.8190 0.8190 0.8190 0.8190 0.8190
3812.074839 0.8190 0.8190 0.8190 0.8190 0.8190
3815.324612 0.8190 0.8190 0.8190 0.8190 0.8190
3818.574384 0.8190 0.8190 0.8190 0.8190 0.8190
3821.824156 0.8190 0.8190 0.8190 0.8190 0.8188
3825.073929 0.8185 0.8183 0.8180 0.8180 0.8180
3828.323701 0.8180 0.8180 0.8177 0.8175 0.8172
3831.573473 0.8170 0.8170 0.8170 0.8170 0.8170
3834.823246 0.8170 0.8170 0.8170 0.8170 0.8170
3838.073018 0.8170 0.8170 0.8169 0.8166 0.8164
3841.322790 0.8161 0.8160 0.8160 0.8160 0.8160
3844.572563 0.8160 0.8160 0.8160 0.8160 0.8158
3847.822335 0.8156 0.8153 0.8151 0.8150 0.8150
3851.072107 0.8150 0.8150 0.8150 0.8150 0.8150
3854.321880 0.8150 0.8150 0.8150 0.8150 0.8150
3857.571652 0.8150 0.8150 0.8150 0.8150 0.8147
3860.821424 0.8145 0.8142 0.8140 0.8140 0.8140
3864.071197 0.8140 0.8140 0.8140 0.8140 0.8140
3867.320969 0.8140 0.8140 0.8140 0.8140 0.8140
3870.570741 0.8140 0.8140 0.8140 0.8139 0.8136
3873.820514 0.8134 0.8131 0.8130 0.8130 0.8130
3877.070286 0.8130 0.8130 0.8130 0.8130 0.8130
3880.320058 0.8130 0.8130 0.8130 0.8130 0.8130
3883.569831 0.8130 0.8130 0.8130 0.8130 0.8130
3886.819603 0.8130 0.8130 0.8130 0.8130 0.8130
3890.069375 0.8130 0.8130 0.8130 0.8130 0.8130
3893.319148 0.8130 0.8130 0.8130 0.8130 0.8130
3896.568920 0.8130 0.8130 0.8130 0.8130 0.8130
3899.818692 0.8130 0.8130 0.8130 0.8130 0.8130
3903.068465 0.8130 0.8130 0.8130 0.8130 0.8128
3906.318237 0.8126 0.8123 0.8121 0.8120 0.8120
3909.568009 0.8120 0.8120 0.8120 0.8120 0.8120
3912.817782 0.8120 0.8120 0.8120 0.8120 0.8120
3916.067554 0.8120 0.8120 0.8120 0.8120 0.8120
3919.317326 0.8120 0.8120 0.8120 0.8120 0.8120
3922.567099 0.8120 0.8120 0.8120 0.8120 0.8120
3925.816871 0.8120 0.8120 0.8120 0.8120 0.8120
3929.066643 0.8120 0.8120 0.8120 0.8120 0.8120
3932.316416 0.8120 0.8120 0.8120 0.8120 0.8120
3935.566188 0.8120 0.8120 0.8120 0.8120 0.8120
3938.815960 0.8120 0.8120 0.8120 0.8120 0.8122
3942.065733 0.8125 0.8127 0.8130 0.8130 0.8130
3945.315505 0.8130 0.8130 0.8130 0.8130 0.8130
3948.565277 0.8130 0.8130 0.8130 0.8130 0.8130
3951.815050 0.8130 0.8130 0.8130 0.8130 0.8130
3955.064822 0.8130 0.8130 0.8130 0.8130 0.8130
3958.314594 0.8130 0.8130 0.8130 0.8130 0.8130
3961.564367 0.8130 0.8130 0.8130 0.8130 0.8130
3964.814139 0.8130 0.8130 0.8130 0.8130 0.8130
3968.063911 0.8130 0.8130 0.8130 0.8130 0.8130
3971.313684 0.8130 0.8130 0.8130 0.8130 0.8130
3974.563456 0.8130 0.8130 0.8130 0.8130 0.8130
3977.813228 0.8130 0.8130 0.8130 0.8130 0.8130
3981.063001 0.8130 0.8130 0.8130 0.8130 0.8130
##END=
