##TITLE=1,3-Butadiene
##JCAMP-DX=4.24
##DATA TYPE=INFRARED SPECTRUM
##CLASS=IUPAC A
##ORIGIN=NIST, Anayltical Chemistry Division, 301-975-3108
##OWNER=COPYRIGHT (C) 1998 by the U.S. Secretary of Commerce
##DATE=98/10/1
##$SPECTRA VERSION=1.00
##$UNCERTAINTY IN Y=2.5 % relative (B=1.6E-04,C=1.1E-09,D=2.7E-14)
##CAS NAME=1,3-Butadiene
##CAS REGISTRY NO=106-99-0
##MOLFORM=C H2: C H C H: C H2
##MP=-108.91 C
##BP=-4.41 C
##$NIST SOURCE=QUANT-IR
##SPECTROMETER/DATA SYSTEM=IFS66V (Bruker)
##INSTRUMENT PARAMETERS=KBr Beam splitter; MCT Detector; Multipass cell
##STATE=gas
##SAMPLE DESCRIPTION=1,3-Butadiene Primary Gas Standard
##PRESSURE=101.3 kPa
##TEMPERATURE=23 C
##SAMPLING PROCEDURE=1 L/min Flow
##RESOLUTION=1.9290
##DATA PROCESSING=Boxcar Apodization
##XUNITS=cm-1
##YUNITS=(micromol/mol)-1m-1 (base 10)
##XFACTOR=1.0
##YFACTOR=4.5474E-13
##DELTAX=0.9645
##FIRSTX=574.687
##LASTX=3974.595
##FIRSTY=4.76E-06
##MAXX=3973.63
##MINX=574.69
##MAXY=.0009053
##MINY=-6.66E-07
##NPOINTS=3527
##XYDATA=(X++(Y..Y))
574.69 10485120 10018620 9433450 10247330 8269684 9181556
579.51 6336532 9308056 7001752 7625620 6272146 6278118
585.29 5688890 5856882 3319066 5045492 3509004 4674002
591.08 3766828 4706742 3589688 4420390 2833358 4474728
596.86 2947830 4541212 2737636 4427712 3583120 3787688
602.65 2379288 3250766 1954400 2932726 1554376 2967298
608.44 1183306 2627798 1334308 2503374 1000428 1972252
614.22 743258 1562266 853114 2138736 471750 2178456
620.01 935208 2404450 657578 2239688 802682 2248288
625.79 929038 2463586 1108218 2542140 1330476 2238374
631.58 1458792 2601454 1336614 3256806 1617902 3266330
637.36 2043890 3650942 2282624 4274886 2363204 4073276
643.15 3074070 4484718 3098520 4862430 3476638 5232510
648.93 4156686 6079690 4461326 6255918 4067368 5986858
654.72 4380188 6105418 5314434 6310964 4493450 6857668
660.50 5301728 6492470 5806120 6544786 6367470 7887376
666.29 7159922 9206910 6905862 8661396 6084932 9087556
672.08 7205258 7643048 7871546 8633456 5882158 6864548
677.86 4927676 6771590 4445496 6196340 5457096 5664682
683.65 4483450 5479704 4321092 5898410 3777524 5399862
689.43 3682044 5436628 3492918 5190830 3236016 4787528
695.22 2913372 4475820 2700276 4275088 2552990 4084216
701.00 1736582 3752222 1673702 3625124 1366940 3174260
706.79 1183936 3093530 1098296 2709582 560844 2471594
712.57 670104 2415608 639010 2550002 298940 2250988
718.36 439694 2442102 484590 2412774 623120 2536686
724.14 475000 2512606 576722 2507748 670150 2658282
729.93 715596 2833770 769928 2725486 984364 2991788
735.71 1008092 3063610 1113692 3347796 1182656 3357754
741.50 1030184 3355428 1189614 3087356 860434 3151732
747.29 978098 3234268 771700 3409184 1182354 3095776
753.07 895760 3465694 1189152 3546584 1032032 3632984
758.86 1053700 3540176 1111880 3395192 991788 3318476
764.64 891574 3170084 675998 3103136 509122 2864784
770.43 358690 3030060 268580 2878230 150838 2850102
776.21 100850 2706950 108734 2537178-51978 2502534
782.00 5906 2580834-57340 2635676-103658 2654838
787.78-174084 2665430-185264 2636890-325402 2607594
793.57-142384 2658584-435136 2722750-234824 2765304
799.35-504210 2754118-384636 3074482-175286 3118822
805.14-170718 3124074-341178 3328802 4662 3495866
810.93-36996 3723216 305182 3987770 516512 4309400
816.71 651126 4346856 907126 4973570 1324966 5460382
822.50 1826074 5927052 2331960 6744318 2710168 7451980
828.28 4046534 8233008 4598648 9883948 5893440 10246580
834.07 7391534 12720880 8041124 13705730 11380650 15890320
839.85 11520840 19217720 15754400 20025600 17786820 26294010
845.64 20117410 26537440 26242650 32678150 26334160 37532480
851.42 35689990 38965840 38229420 51027320 43276340 51582640
857.21 55440890 61992680 54676970 73465700 70488820 72744580
862.99 79565570 94740780 79704820 100889900 107756200 103832700
868.78 108187500 139001600 115631600 132722700 157328400 147007000
874.57 139170900 195144800 165658900 166218200 213265800 206573400
880.35 168640100 254947300 228174800 195868100 273859800 266910200
886.14 190753400 317327600 276419900 219763700 332621200 292707500
891.92 200379200 374504100 258569600 244845000 353630000 255631500
897.71 247057800 353706000 237697400 299719600 254267500 316732900
903.49 240835500 413762500 326633400 1078275000 1990964000 574452600
909.28 485693200 314266100 339414100 267184400 341884000 253134200
915.06 377488000 299523800 364062700 352668400 305292800 411327300
920.85 289653100 405103100 317360700 367331100 360435700 328490000
926.63 375270800 301328900 367622000 290832100 349845200 278823700
932.42 320888400 262618700 294924400 247739600 267867700 229274600
938.21 237913200 210035900 212545100 192303900 188748800 170808200
943.99 166216600 151311000 146866000 132390100 132311500 117712500
949.78 115670400 102709300 101965400 89978710 89542570 79911340
955.56 80457060 71041040 72983620 63507380 67844540 58646540
961.35 62368080 57425960 58006890 55459210 58486130 52665530
967.13 60289260 54216220 58722010 59934180 59593200 61452140
972.92 67517710 62288700 74750450 71484980 78227460 83769980
978.70 87552660 95784250 106131900 107597500 126953600 125648200
984.49 137724200 144584900 138681100 143841700 134261500 113400200
990.27 142304900 158265600 181402200 196934500 218061200 211203400
996.06 219153000 218241200 198591600 214294100 186360100 185132000
1001.85 182354100 162907200 187826300 177235500 176439300 203220100
1007.63 205265300 217703300 269870300 289729100 248835500 392274300
1013.42 386828400 218556100 209678400 153502300 154562000 160982800
1019.20 152902300 136831700 171564500 156068900 150575400 166963500
1024.99 161257700 155237000 166839600 159314300 162889200 145203200
1030.77 160819100 156416700 145064400 146745100 139423800 135315600
1036.56 138857900 130593600 123384900 127086100 120414700 109245300
1042.34 120337700 99555340 102035600 109966300 96631030 99009130
1048.13 92214310 76980690 91877100 80378980 81798450 68984480
1053.91 64486310 61855150 58142980 55834900 54340430 49514860
1059.70 50475060 45269210 47634540 41249120 42977990 37193400
1065.48 37942680 34322500 33294200 30714150 29468730 27197060
1071.27 28028380 26049370 25929010 24362980 24869980 22433570
1077.06 22535080 20516870 20578380 17278210 17930350 14918420
1082.84 15062440 12371890 12420630 10166180 10362850 8581890
1088.63 9292624 7050438 7338206 5252000 5849916 3970520
1094.41 4850234 3126660 3914086 2191412 3054004 1681928
1100.20 2634266 1123860 2117812 800166 1872816 458682
1105.98 1549224 265270 1313590 223540 1311022 100388
1111.77 1259114 7236 1154710 36758 1111748 2042
1117.55 1084628 52774 1051478 26632 1014722 30036
1123.34 1054384 36816 1005928 52538 1054982 118230
1129.12 1059888 142154 1125234 131226 1019928 78394
1134.91 1101862 100964 1130984 135006 962144 156272
1140.70 1089830 170596 1012650-1020 962086 109892
1146.48 966396 61052 957342 81756 887540 92188
1152.27 853160 43318 847376 43346 860316-88900
1158.05 775780 24274 760780 134934 738334-20538
1163.84 732822 48792 796822 53914 808662 60304
1169.62 744274 47322 728914 139122 720648 85444
1175.41 793742 70916 843498 168712 800194 129038
1181.19 787514 130204 684466 182018 706276 28172
1186.98 694584-35802 494452 29406 653250-8202
1192.76 649596 58086 538600 87856 714458 136238
1198.55 670662 144010 732204 195446 736022 184118
1204.34 774000 354502 738700 441140 960236 414502
1210.12 986890 710022 1123118 570026 1290276 945638
1215.91 1220602 1049200 1432244 926508 1706768 1309704
1221.69 1742806 1545506 2029952 1587186 2287010 1969438
1227.48 2274698 2335210 2667754 2278242 3241832 2731640
1233.26 3149614 3428252 3579078 3380060 4404220 3926738
1239.05 4405250 4640564 5092382 4895198 6085250 5533944
1244.83 5933230 7246556 6645436 6931176 8727508 7327542
1250.62 8914078 9654902 8946632 10257060 11297720 9370778
1256.40 13119300 10999930 11208300 13742770 11165750 12656380
1262.19 12424560 11067790 13087030 11146600 11985820 11144490
1267.98 10805470 12858210 11803890 11862650 13829390 11138620
1273.76 16745440 14935000 15204680 19484320 14991770 19418110
1279.55 18721360 16155140 21184910 14904040 19144790 16307440
1285.33 15281190 15804570 13019550 13387530 11030150 10193440
1291.12 9182772 8839958 9272728 8325918 10020850 10453480
1296.90 11956030 12798150 13682020 13927140 14131640 14638740
1302.69 13320150 14914890 12530780 13408310 12765030 10934820
1308.47 11806030 10307430 9757410 10439230 8447706 8929840
1314.26 8516016 7295210 8748846 6855480 7580096 7497238
1320.04 6302166 7327926 6586008 6261470 7096762 5783370
1325.83 6697236 6267344 5875110 6611956 5596902 6349830
1331.61 6134360 5653882 6676500 5442068 6424984 6303148
1337.40 5617026 6751848 6048496 6037648 6503262 5587760
1343.19 6705778 6354016 6189648 7263410 6062986 7619716
1348.97 7262904 7344814 8630130 7561246 9062532 9622846
1354.76 9242278 12314020 10844200 13607960 15357600 15411120
1360.54 20789390 21441500 23992200 29820640 28851510 36180140
1366.33 38979030 40119610 46690520 45636380 47972140 49391620
1372.11 45703640 46331180 38816470 33902680 24856240 22686640
1377.90 14640400 29381260 71613960 16099440 20570420 24678480
1383.68 32601160 35923370 43033130 42966780 45732620 44171350
1389.47 41336420 42612740 35677840 34843670 33818660 26590770
1395.25 27067930 21394670 19519610 19545640 14977040 14112290
1401.04 13958080 11868500 13511010 11537700 11366540 11342590
1406.83 10846390 11901650 11750510 11195000 12059400 11450550
1412.61 12911210 12073680 11942490 12211190 12925370 12451050
1418.40 16295070 13125150 12258690 12781860 12328450 12487300
1424.18 11443320 10779700 10840430 9870076 9657814 10197340
1429.97 9330786 8979674 9103134 9584242 10319290 10480100
1435.75 14442740 11382290 11422160 11372290 11527530 11554440
1441.54 12021420 11248290 11230500 10988510 10101770 10971920
1447.32 10601830 8852696 9565872 8459742 8325028 8234124
1453.11 7984228 7703568 9675830 12369430 8507932 9055238
1458.89 6559970 7903774 7156382 7182648 7823484 9302832
1464.68 8425050 8258684 8008644 8571616 9308918 8550156
1470.47 11626270 12056040 12285550 12318750 11020010 14319310
1476.25 13130590 13476490 13606250 13215170 12265000 12795020
1482.04 11717080 11184670 10278620 11404380 10991830 9992246
1487.82 9662962 13476930 12120840 10036480 9602580 11511510
1493.61 11329020 14010370 15784040 12310280 13333170 12678930
1499.39 10345310 10550250 9053302 8515174 7677406 10246810
1505.18 10267790 11131630 6998986 7269336 6066714 5676456
1510.96 6289800 5837714 4895894 5519984 4812082 6038038
1516.75 5186796 4211604 3517552 6675352 6433176 4289102
1522.53 3267790 2509020 4577116 2306580 2876530 2483540
1528.32 2006504 1846892 1941002 1969068 2902898 3620128
1534.11 1192092 2163514 1196600 2422124 6291808 6219934
1539.89 3052766 4717378 3626052 1688002 3343536 3178136
1545.68 1665208 2480300 1928800 3375162 3045794 3046766
1551.46 2864324 3911222 6628410 4574076 4549832 7108818
1557.25 11546810 9916000 12614070 10036020 8692198 11159610
1563.03 11924780 15250630 14525860 18790830 19734570 23537080
1568.82 28901140 30765730 34056100 41935850 45916620 54572020
1574.60 65848960 78350040 83874090 98832680 110448400 128608000
1580.39 143345000 167263000 180147900 201929900 210826500 227808400
1586.17 231488400 241399500 230985800 229702200 202035100 184685400
1591.96 143755700 139795100 112666100 198308900 241574800 153432600
1597.74 137410600 143614000 189607100 208534800 241233500 249555200
1603.53 263152900 254381600 246890400 225713900 205359200 177643100
1609.32 155278000 125591700 106088700 82433130 67208180 49502100
1615.10 42457630 33908220 23575120 17677820 15696830 11450910
1620.89 10995800 9672418 10636510 7019478 7937326 6528384
1626.67 7838304 6366610 6864250 5643820 6621584 6012192
1632.46 7559134 5554812 11117500 7212368 6621298 6814742
1638.24 6719772 6493144 7218602 6881170 7147616 6967240
1644.03 7790468 10477380 8314468 8304182 7286546 6524670
1649.81 6385468 7239402 14085050 9748924 6536116 4429436
1655.60 4153832 3705884 3794746 3250872 3893496 3748260
1661.38 5527036 5592376 4079232 4858668 3953912 4762764
1667.17 3910416 6607620 4465442 3917946 4194320 2808732
1672.96 2945208 4741936 4825640 1573424 2788818 1656730
1678.74 2581036 2212358 1692510 2688990 3226086 7552790
1684.53 5195062 136724 2548012 973576 2305682 1041958
1690.31 1958216 575044 2029556 312940 3974230 7499812
1696.10 875688 1764356 1225546 7033340 4881374 969948
1701.88 1377294 1525390 2298826 1420754 2721002 873108
1707.67 1728364 1205872 2048364 1107974 1923892 1477424
1713.45 2897730 3103176 2013218 6473286 4373004 2566218
1719.24 2335846 2280944 2631234 2462398 3151340 2703762
1725.02 3476690 3288084 3747870 3566284 4693592 4363804
1730.81 4023524 5775752 8473158 8136272 5543964 4725174
1736.60 5704534 4901870 7433984 6543350 5291392 6101450
1742.38 6823918 6802124 7571356 8019284 8852434 9510866
1748.17 10679390 9616952 13370650 12002540 10976640 12014630
1753.95 11347360 11720920 12284440 10785180 10079070 9889280
1759.74 9036320 10476890 8517018 7968850 8332252 7719412
1765.52 8687370 9017338 10639460 8013374 9359608 8686558
1771.31 10379840 9779102 6745974 7519304 6889754 6717976
1777.09 6446190 6488222 6727150 6944064 6528704 6876722
1782.88 6879720 8288370 7409622 7839124 8063766 8455444
1788.66 8994838 10154280 10240390 13502590 12482410 13394880
1794.45 15346640 16159430 17976030 21321340 26009010 31488370
1800.24 37960190 45160010 53346380 62779740 71999380 83264700
1806.02 92964310 102827700 112074000 120070600 123779300 123706300
1811.81 119691500 112761600 102347600 92689600 85282550 91059020
1817.59 109022400 119152900 64078760 33022050 52107160 76229940
1823.38 100196500 117763000 131067400 135984300 139513100 136254800
1829.16 131515400 120827100 109540300 97894370 84705180 72113180
1834.95 60362870 49135960 41174070 31968930 25967680 20300890
1840.73 16741050 12569670 11748670 10306760 6543700 6168412
1846.52 5220046 4465462 4105496 3576918 3552886 3302492
1852.30 3429150 3210360 3525676 3648902 3627868 3943066
1858.09 4278752 4215044 4687510 4655876 4809566 4775912
1863.88 4654504 4611642 4783994 4638552 4882872 4908254
1869.66 3781270 4033506 3396400 2952004 3524628 4069288
1875.45 4550284 4934608 5313238 5186698 5243882 5261240
1881.23 5255686 5305684 5191524 5026776 4655362 4613564
1887.02 4177826 4216126 4008098 3000206 3173650 2701642
1892.80 2794446 2722472 2825144 2353368 2575840 2236632
1898.59 2292540 2112344 2348218 2613818 3260252 3272242
1904.37 3361356 3329038 3289504 3185844 3090384 3196256
1910.16 3078764 3183948 3074680 3012634 2892658 2910856
1915.94 2824350 3601198 2982360 2511754 2696402 2584902
1921.73 2936182 2805042 2805536 2664424 2975638 2819188
1927.51 2814964 2944822 2938280 2846978 2881646 2889056
1933.30 2951734 2777688 2955204 2880660 3007732 2859158
1939.09 2966830 2796996 3354970 3502456 3221840 3552554
1944.87 3798392 3975402 4230354 4382654 4684960 4899634
1950.66 4931634 5241488 5512032 5787038 6620274 6647658
1956.44 6482776 6870910 7122514 7607248 7924532 8153344
1962.23 8072462 8038118 7635928 7301138 7242676 6448780
1968.01 7077704 6130052 7052492 5639216 4825802 5115882
1973.80 5668198 6545872 6710082 6874366 7046888 6579912
1979.58 6414120 6200438 5682748 5327094 4867440 4497384
1985.37 4146692 3613932 3409780 3245332 2725400 2784800
1991.15 2711590 2133486 2165090 1832072 1721558 1714524
1996.94 1511394 1540868 1324330 1333340 1314024 1172562
2002.73 1207528 1064442 995638 1111264 907352 950432
2008.51 795342 681152 723408 596922 508204 466888
2014.30 440796 438158 392050 371608 286752 183694
2020.08 162914 140956 144426 132982 35380 52336
2025.87-45426 6872 18056 63632 24944 28624
2031.65 7146 64096-34128 76916 13286-64794
2037.44-152746-25490 13656 55696 12624 11802
2043.22-5254-13636 116028 11102-91858-40766
2049.01-49542-92586-92574-69006-128754-36292
2054.79-143872-44716-108594-44234-23274 2278
2060.58-25588 25470-28846 34362-28672 46248
2066.37-61492 56874 52946-7310 2922 37388
2072.15 135176 98602 30176 110872 119142 250714
2077.94 108444 127750 138432 310446 163150 244330
2083.72 151116 326438 401436 260084 389170 369828
2089.51 592072 492892 385706 480652 622734 773166
2095.29 549822 684816 659218 1114822 603926 749628
2101.08 522312 952362 624232 599064 390934 871388
2106.86 791890 336934 644748 612620 1049668 632166
2112.65 806188 706256 1240038 813744 801690 745450
2118.43 984232 824816 626952 561238 709696 672394
2124.22 433678 457652 495948 701680 320524 397280
2130.01 358674 648748 255812 426406 387624 589586
2135.79 301262 399748 312270 486680 256920 443336
2141.58 348740 406158 365038 436292 415140 521284
2147.36 339072 473864 503154 575430 353716 495860
2153.15 591370 755996 412658 506660 666600 841528
2158.93 494408 687316 881638 936562 524872 926352
2164.72 1084352 1044998 651794 1058418 993682 806508
2170.50 668802 1201956 936744 778312 794322 1318258
2176.29 740696 761614 992884 1243116 804802 821106
2182.07 997492 1011830 600472 1073922 1120896 878864
2187.86 882566 1197472 873622 910010 891882 1083492
2193.64 815002 958932 1034266 1037204 834806 1194206
2199.43 1065534 1030600 926574 1120100 884100 967360
2205.22 823534 914894 708044 925012 728016 883410
2211.00 871588 1028126 769114 946972 971924 1210408
2216.79 874966 1070776 829934 1015210 780246 929990
2222.57 723652 956262 759614 901612 837674 976214
2228.36 773968 999744 827668 1067808 924852 1170476
2234.14 1009410 1202180 1169446 1291322 1158410 1458094
2239.93 1333514 1565242 1330066 1560492 1600470 1705070
2245.71 1564246 1975540 1713132 1888828 1967038 2102574
2251.50 2120808 2469158 2195266 2591756 2573002 2566062
2257.28 2668910 2658898 2387232 2517100 2362746 2442884
2263.07 2233310 2119162 1937744 2158408 2102254 2436874
2268.86 2425756 2783382 2674822 2885698 2599176 2604256
2274.64 2551372 2439662 2276658 2334418 1949882 2196602
2280.43 1847500 1991976 1824834 1762070 1699732 1680810
2286.21 1547996 1709900 1492490 1633958 1335362 1496738
2292.00 1189356 1373596 1150950 1343286 1278972 1368076
2297.78 1358254 1421792 1299046 1400482 1213284 1204882
2303.57 1119694 1116650 979854 1162564 880384 1252224
2309.35 876834 1490550 769606 1510760 714654 1655130
2315.14 637586 1763252 728620 1779594 842488 1877830
2320.92 936658 1910674 1043936 1957436 1172432 2037092
2326.71 1370984 2149690 1469896 2190072 1682582 2235086
2332.50 1796576 2180812 1795752 2188024 1783960 2125492
2338.28 1804724 2110824 1760996 2080640 1681822 1958930
2344.07 1535838 1538328 998820 1094006 575054 875496
2349.85 787486 1327480 1280602 1666118 1514464 1980872
2355.64 1922138 2248930 2098604 2421060 2237512 2433030
2361.42 2136004 2385964 2070112 2231648 1843668 2029544
2367.21 1632340 1676022 1374656 1416774 1103886 1206922
2372.99 843560 928868 613136 746690 435814 562284
2378.78 327510 486588 233840 446884 252006 471394
2384.56 205008 397666 222156 427124 230526 461762
2390.35 201650 445010 316452 435768 351596 542782
2396.14 283490 552480 342700 540440 334654 652366
2401.92 464670 704866 394714 733024 543696 758644
2407.71 561576 815664 649956 923568 730558 891534
2413.49 689244 939864 656006 1059416 762000 910688
2419.28 801934 909258 723738 910076 682774 840698
2425.06 641564 883212 641230 1045796 822188 1044286
2430.85 837838 1133838 826756 1111440 837548 1038072
2436.63 811958 992882 766232 1033732 724610 1014642
2442.42 798202 992428 766804 988830 773888 1086036
2448.20 837588 1146354 990718 1082196 944314 1296064
2453.99 945834 1350780 1061954 1279940 1172262 1268156
2459.77 1161294 1414582 1133862 1516822 1187994 1595480
2465.56 1335256 1620226 1483704 1710134 1616406 1928048
2471.35 1793852 2173810 1846834 2387960 2358228 2529858
2477.13 2728706 2834580 2948140 3530078 3254208 3733154
2482.92 3561838 3633324 3646148 3703502 3408236 3566620
2488.70 2993704 2946450 2394568 2612288 2564258 3798540
2494.49 2482200 2415512 2478922 2967020 3113936 3502008
2500.27 3596944 3661130 3632816 3660806 3215484 3396886
2506.06 2580712 2966456 2242674 2299140 1897892 1657984
2511.84 1611596 1419362 1120496 1301100 942802 1167224
2517.63 820260 993552 654166 1016066 604154 1014186
2523.41 526494 948564 594306 763166 618522 741798
2529.20 552364 821572 523738 834074 421000 712458
2534.99 474610 648696 512494 663638 436716 671878
2540.77 412532 635236 396522 595356 287506 598738
2546.56 405458 580122 402758 662300 398070 635614
2552.34 476210 705774 505838 729466 533492 822316
2558.13 572488 852272 631564 917778 645044 913992
2563.91 538618 991078 734894 984772 838216 1215758
2569.70 1049994 1416860 1052490 1411630 1211762 1439256
2575.48 1144502 1290408 863610 1089882 713452 992028
2581.27 786738 1292500 831236 926150 800074 1151930
2587.05 954822 1248758 968152 1302288 916914 1163516
2592.84 891276 1153414 739054 1000122 577664 703022
2598.63 449008 573076 296304 479016 160860 454376
2604.41 190728 432242 163858 399520 127726 300578
2610.20 130206 401098 162502 337494 179076 368656
2615.98 110970 467078 97668 479256 140116 355238
2621.77 199382 510090 223894 439216 175942 502966
2627.55 271396 640294 227480 462992 203164 550400
2633.34 254710 541698 202496 628540 319684 526676
2639.12 293716 524390 323010 609636 364454 577036
2644.91 363480 617262 310782 479878 283566 514324
2650.69 280344 514742 166316 490498 191180 554012
2656.48 184168 417986 218106 462370 118060 461472
2662.27 195850 463838 266786 325126 144220 396568
2668.05 73970 378384 129842 350410 82160 286372
2673.84 64628 332526 98746 291302 17564 349076
2679.62-17026 352778 10580 363122 90954 451442
2685.41 124144 331304 95068 361608 107340 368180
2691.19 159588 375950 122638 547324 183462 516352
2696.98 167514 586014 219966 671662 298274 534856
2702.76 311100 574078 297102 669222 360164 665316
2708.55 339168 650862 389198 707602 424414 813500
2714.33 624644 890340 661318 1050138 784716 1101472
2720.12 775536 1083876 790822 1065920 659182 969578
2725.91 638460 810882 502048 758940 445204 751344
2731.69 474880 701114 474970 731156 758896 921940
2737.48 474354 828918 519372 773720 472306 728296
2743.26 405324 755386 457808 658146 254022 623238
2749.05 360444 568472 225602 592702 245448 572192
2754.83 290526 514902 245732 527726 87988 134712
2760.62 132570 698596 310542 554594 222968 537908
2766.40 157780 578626 252932 582420 232152 496870
2772.19 223874 560856 342922 513414 380370 679466
2777.97 276174 611288 441382 728892 511060 879244
2783.76 576628 976444 647236 966874 637760 1013782
2789.54 627110 974194 694430 952028 627330 830506
2795.33 660692 994628 717124 1106908 772008 1031624
2801.12 761760 1176082 948142 1238842 983804 1331624
2806.90 944086 1255888 976988 1202262 789584 957794
2812.69 587000 943310 577646 895478 594930 943536
2818.47 554754 886198 651590 1033932 778404 1112090
2824.26 744582 1019610 883618 1087488 908660 1273120
2830.04 863212 1267236 1184930 1586210 1339546 1808958
2835.83 1673596 2028496 1774674 2243036 2228286 2664578
2841.61 2461750 3008820 2875378 3384378 3171786 3761518
2847.40 3527478 3875248 3647386 4117090 3779996 4176088
2853.18 3877202 4452606 4196880 4584474 4439520 4722290
2858.97 4490902 4928640 4695628 5115804 4962064 5547182
2864.76 5257874 5476248 5346444 5735348 5463576 5834622
2870.54 5484144 6037572 5548648 5945100 5725604 6314022
2876.33 6285854 7024114 7051380 7905070 7363968 7349470
2882.11 7076412 7499554 7298148 7926950 7879936 8191086
2887.90 8346030 8998128 8895438 10521370 10159370 9986338
2893.68 10046240 10290700 9857286 10640120 10420800 10615630
2899.47 11481120 11510050 10840540 12261880 11344450 11553660
2905.25 12945940 11915980 12529010 14064580 12578670 14214030
2911.04 15158950 13678740 16245580 16480030 16526810 19766970
2916.82 17603500 17494350 17453660 17350170 16732840 17137740
2922.61 16393670 17252270 16956260 18338640 19430920 21147450
2928.40 21670720 22724600 22895090 23712290 23849330 24890380
2934.18 24374760 25605130 24329860 25572080 24991870 24975090
2939.97 26407130 25219330 26989400 27111130 27859130 29076580
2945.75 27659400 31084700 29705900 32796830 33118120 33750280
2951.54 36994800 34538290 35964840 36886010 35954200 39465080
2957.32 38790100 40577200 43009230 42815880 47083550 48808700
2963.11 52678020 59591380 61988600 71066560 74505550 72372880
2968.89 77341270 80549270 81428380 89360130 91522020 92180780
2974.68 95935460 96944620 92907490 93503150 91789510 84502740
2980.46 84605680 79372560 84701740 93552400 82360900 85989730
2986.25 91420500 104111800 106269500 118381200 115784000 124860000
2992.04 127389400 121369600 130367300 119461300 128964400 132055500
2997.82 126050800 135566600 126356900 131600000 130842300 121639600
3003.61 125928600 116972000 117009200 109879500 101005700 104473300
3009.39 101109700 106518000 93069890 93353910 104102100 107429100
3015.18 110463100 113221600 114608200 117491500 118247400 116880100
3020.96 120905200 113632500 117147600 112075700 107645000 108410800
3026.75 101088600 101195400 96315020 93198810 94868480 91610040
3032.53 98810170 97835820 104758800 103418900 109324500 115537900
3038.32 113223400 126610700 121440600 127214500 128547500 129773200
3044.10 126416300 129650200 125078100 119305000 121211200 109994000
3049.89 107994900 101563600 97635580 98149470 109762600 98677200
3055.67 100624800 109148500 112364600 123899900 131785000 129954100
3061.46 145995100 143675800 142467000 152398000 140684900 146832300
3067.25 141657000 139880900 135385700 137698000 134799300 131712600
3073.03 134970200 130881700 137515500 138486300 136655600 150293700
3078.82 141564300 153671600 170403500 154889500 178506600 189896300
3084.60 174791700 212495900 203340000 198802500 223779000 199503700
3090.39 211217500 201228900 181760900 176960600 157452200 141793400
3096.17 138964400 149446300 124238500 136106800 135098800 121615100
3101.96 144374600 165761500 181531400 198071900 206882900 199674100
3107.74 214160100 196775300 193543600 191890600 161649500 171406000
3113.53 146702400 131010400 137185000 107250400 113485000 106437600
3119.31 86127030 93942070 83691860 77470140 82513580 67246020
3125.10 72117020 66485700 61705550 65515440 55227410 57518880
3130.89 52660610 52047250 47210470 49192020 40921590 44289180
3136.67 38312660 37130280 36415950 32328100 31828380 30035620
3142.46 27059720 26537390 24314290 22716380 21470930 20331970
3148.24 17723310 18026630 15345190 15041380 13711410 12646710
3154.03 11846690 10655520 9993588 9276742 8208842 8080780
3159.81 6611386 6963518 5863524 5658882 4996760 4673238
3165.60 4013106 4160128 3525848 3386732 2963182 3259412
3171.38 2084276 2935294 1988162 1961110 1502216 1562772
3177.17 1127368 1374868 823816 1160290 742434 1150122
3182.95 705364 1122602 753060 1058748 796824 1004478
3188.74 359074 908822 79062 277554 512278 683136
3194.53 393066 850730 373512 665838-22894 262398
3200.31 55762 514382-35112 338348-330276 298376
3206.10-236880 463994-180348 443864 3832 594870
3211.88 99930 640230 216090 786812 459146 1059340
3217.67 552552 1259366 786002 1427238 1018128 1354020
3223.45 1208814 1461294 1177488 1595282 1040522 1392098
3229.24 1069002 1442300 1030062 1623308 1515174 2288410
3235.02 1745314 1881198 1623798 2314584 1707306 2301002
3240.81 1808108 2322210 1672580 2132896 1511594 1744842
3246.59 1262240 1543624 991914 1337912 851692 1209228
3252.38 638278 1035986 472776 936810 663282 824588
3258.17 356024 987264 408992 847562 496140 851852
3263.95 477448 837988 421784 791056 251118 775334
3269.74 286418 627296 225486 663610 117426 512362
3275.52 121344 567812 147146 505498 68890 397436
3281.31-14972 457466-47888 363978-6956 482386
3287.09 30022 523604 85466 407716-73554 482542
3292.88 84014 556340 84468 654716 95774 723902
3298.66 288498 701480 341896 633330 287306 572780
3304.45 189322 605496 342840 652258 266050 721148
3310.23 321578 642404 241724 775260 423222 797096
3316.02 343006 774820 384642 800892 338762 760294
3321.80 269778 795402 130558 640594 174396 746662
3327.59 239134 453848 205236 510364 119252 374888
3333.38 16986 651452-12138 367768-79550 531774
3339.16-120710 450602-36686 493040 41944 410602
3344.95-144322 303866-96688 454674-67630 320336
3350.73-194606 507820 26254 302176-25350 435766
3356.52-76858 478306-20966 402354 78646 523288
3362.30-42090 464548 93088 518306-21610 451190
3368.09-82854 497998 121514 676244 431618 702354
3373.87 214778 646918 316948 784418 430216 815624
3379.66 506928 1053178 486742 981996 566566 1220992
3385.44 899168 1349158 932428 1443170 1096260 1411906
3391.23 1159386 1640784 1183256 1530520 813692 1460298
3397.02 942374 1237570 909894 1418304 995622 1570272
3402.80 1143274 1654470 1191622 1633220 1191598 1660302
3408.59 1046178 1525520 1104058 1484198 839448 1226736
3414.37 500426 964234 675062 1147016 520240 1070904
3420.16 408848 875212 377304 648590 247646 619402
3425.94 178050 761592 196962 559506 81720 616180
3431.73 192484 655056 12094 677166 224982 672952
3437.51 271448 879108 427968 956366 555268 1046574
3443.30 483868 935508 498726 1203778 475160 1039878
3449.08 305892 911640 320134 779740 305830 588664
3454.87 321562 692366 374074 821912 517680 1059440
3460.66 408674 1008452 447856 1065290 420854 836346
3466.44 661150 892116 360982 866670 261520 734098
3472.23 101738 736574 135058 544540-35248 660432
3478.01 66910 664550 111328 766754 189812 489970
3483.80 73794 642516 67970 563398 249528 676752
3489.58 236752 615780 43456 610518 63292 738564
3495.37 237882 639544 132932 746414 315932 817696
3501.15 310904 938990 410804 799100 254442 838884
3506.94 97924 937932 480526 802432 306426 828046
3512.72 255510 779202 362916 845158 379562 845314
3518.51 286074 803204 391040 949710 351038 813762
3524.30 437686 824338 632132 994338 676440 840050
3530.08 547622 977912 494382 1010812 370160 894890
3535.87 529188 863408 437174 772416 360270 655464
3541.65 284160 833298 352844 1085882 439280 1158070
3547.44 303248 967638 456174 903886 597606 981116
3553.22 612640 862290 521950 728850 368048 728010
3559.01 461034 835436 432674 774144 519096 726120
3564.79 888236 1307784 1114704 1536812 130300 943646
3570.58 167948 984388 286842 934966 415344 918714
3576.36 463598 1026764 389472 1021686 307596 952198
3582.15 449704 1175940 225926 1696398 1457024 1243958
3587.94 1940162 845518 852368 843080 1059920 1326898
3593.72 962846 1752708 897760 1490112 1145548 1432522
3599.51 1322926 1515750 1100900 1489696 1004906 1529022
3605.29 912992 2106526 963190 3136796 1447258 971618
3611.08 1502970 2228454 921068 2003642 803440 1826386
3616.86 1766428 2174034 2772726 1611378 1469954 1604716
3622.65 1117368 1261268 1201708 864084 1089316 3036150
3628.43 3402492 1938612 205124 1078044 531258 1308128
3634.22 53462 690110-29942 680738 263886 1239492
3640.00 746540 1153082 587932 511368 523862 358528
3645.79 1564318 1622912 1762650 3510594 706200 2332790
3651.57-631524 984374-541942 999372 1826774 392614
3657.36-200920 416884-237066 518558-251968 458560
3663.15-180472 361424-244500 323658 290728 1807094
3668.93 483748 4675530-410890 455154-36952 2351792
3674.72 3436160 2420680-539860 856260 98576 821272
3680.50-531202 795790-470138 840394-593856 886660
3686.29-619542 5090628 1686252 43374 1752284 808442
3692.07-246768 580412-215148 645232-22540 547438
3697.86-88106 640794-215508 1839444 166338 571782
3703.64-138430 593948-110192 452470-13978 2193930
3709.43-183466 1435524 3098580 349068 105570 627942
3715.21-174258 456650-54082 858688-53386 419956
3721.00 609558 974180-287500 821278 152322 1549722
3726.79-193696 560008-92264 390216 1243966 3210870
3732.57-1041266 2621460 545984 3050724 682024 890274
3738.36-86918 871128 66458 990812-716376 6397722
3744.14 5433888-713654 1070994-183678 3554254 4215728
3749.93-1465992 5319592 2799828-116922 51796 381848
3755.71 681660 436130-4700 1598268 412278 383158
3761.50-54046 450092-250506 1178454 551362 94494
3767.28-179962 974258 1482778 146802 57352 203610
3773.07 80136 234596-70744 398074-170682 755360
3778.85 887256 78096 87644 238332 11054 659800
3784.64 110462 411596-41862 295100-6272 334262
3790.43 77116 359712 28634 387688-51288 1318626
3796.21 710502 151726 652076-93422 3902830 3297228
3802.00-269316 1095096-187410 720508 2892162 1836938
3807.78-718420 1068176-530794 1104916-550110 1266238
3813.57-853314 3401508 3941262-207200 604160 457278
3819.35 1495208 3208242 1406708 445544 394192 495436
3825.14 523434 1341026 146896 788020 121552 1106704
3830.92 1502616 542846 278576 1984388 1184850 80846
3836.71 5292582 2327572 24678 2118094 656548 824948
3842.49 1232370 1347524 187932 964144 305280 1119280
3848.28 622240 1313684 591628 5665864 508078 8921024
3854.07 2403478 414468 1161148 1025618 476356 983212
3859.85 589166 1932108 745294 1009368 1974216 2467654
3865.64 96486 1493680 290348 3488672 2952918 947530
3871.42 746732 1355760 1840856 1267030 522558 1097334
3877.21 726068 1253092 2081674 1885600 322454 1494818
3882.99 539984 1874744 3492442 1207096 708642 1261666
3888.78 517756 2069186 2310960 991312 856318 965222
3894.56 692520 787922 858630 1178110 2448818 958584
3900.35 1685700 2620802 606324 3392260 712012 1658034
3906.13 537336 1223378 671296 1198700 515206 1158770
3911.92 543676 1107678 479658 1015472 1118262 1792454
3917.70 304506 1574304 821574 1040440 603994 1164836
3923.49 937836 1566688 482128 1296376 649408 1402282
3929.28 863760 1275444 1130820 1455532 624278 1415344
3935.06 649154 1216022 605658 1382200 496604 1329746
3940.85 591150 1764262 655982 1373620 780284 1430738
3946.63 900810 1792760 762080 1336454 819764 1391058
3952.42 1034298 1526968 857934 1592252 998214 1528484
3958.20 946602 1755614 1220288 1916382 1162084 2085514
3963.99 1483756 2207332 1624162 2526038 1977152 2906200
3969.77 2311406 3099840 2653746 3498340 2743070
##END=
