##TITLE=1,3-Butadiene
##JCAMP-DX=4.24
##DATA TYPE=INFRARED SPECTRUM
##CLASS=IUPAC A
##ORIGIN=NIST, Anayltical Chemistry Division, 301-975-3108
##OWNER=COPYRIGHT (C) 1998 by the U.S. Secretary of Commerce
##DATE=98/10/1
##$SPECTRA VERSION=1.00
##$UNCERTAINTY IN Y=2.5 % relative (B=1.6E-04,C=1.1E-09,D=2.7E-14)
##CAS NAME=1,3-Butadiene
##CAS REGISTRY NO=106-99-0
##MOLFORM=C H2: C H C H: C H2
##MP=-108.91 C
##BP=-4.41 C
##$NIST SOURCE=QUANT-IR
##SPECTROMETER/DATA SYSTEM=IFS66V (Bruker)
##INSTRUMENT PARAMETERS=KBr Beam splitter; MCT Detector; Multipass cell
##STATE=gas
##SAMPLE DESCRIPTION=1,3-Butadiene Primary Gas Standard
##PRESSURE=101.3 kPa
##TEMPERATURE=23 C
##SAMPLING PROCEDURE=1 L/min Flow
##RESOLUTION=1.9290
##DATA PROCESSING=Triangular Apodization
##XUNITS=cm-1
##YUNITS=(micromol/mol)-1m-1 (base 10)
##XFACTOR=1.0
##YFACTOR=4.5474E-13
##DELTAX=0.9645
##FIRSTX=574.687
##LASTX=3974.595
##FIRSTY=4.78E-06
##MAXX=3973.63
##MINX=574.69
##MAXY=.0006184
##MINY=0
##NPOINTS=3527
##XYDATA=(X++(Y..Y))
574.69 10530900 10018790 9840488 9582234 9019926 8373318
579.51 7788630 8098970 7729112 7145424 6716218 6138082
585.29 5995326 5303918 4499140 4429376 4318882 4255994
591.08 4335642 4246910 4168068 3905754 3725436 3786222
596.86 3780636 3781612 3637788 3811606 3888064 3393624
602.65 3032514 2795742 2625308 2436410 2337518 2278712
608.44 2067320 2037808 2029614 1916942 1714190 1528694
614.22 1400890 1278166 1476116 1510504 1399066 1541132
620.01 1688548 1687410 1566856 1590378 1619828 1652166
625.79 1729856 1830826 1879094 1959830 1965314 1887270
631.58 2063782 2089852 2210972 2470254 2508574 2628900
637.36 2835192 2973016 3168538 3382334 3322970 3459982
643.15 3755956 3837208 3947980 4145686 4321730 4561126
648.93 4926520 5195152 5298626 5301144 5116126 5186070
654.72 5267100 5488616 5814972 5647992 5561118 5961070
660.50 6024398 6052298 6265998 6324628 6850584 7277720
666.29 7772572 8053626 7830770 7609510 7404556 7883356
672.08 7768690 7455372 7980296 7680018 6793540 6214204
677.86 5936492 5854256 5512336 5615768 5776952 5325072
683.65 5130138 5000038 5063068 5041010 4758490 4642650
689.43 4609452 4575506 4447716 4341308 4173486 4003562
695.22 3851416 3718182 3620134 3512474 3444480 3206880
701.00 2913282 2845560 2767936 2678762 2480856 2338520
706.79 2264046 2220664 2108504 1894990 1706306 1680964
712.57 1691510 1648190 1677332 1641230 1473666 1451032
718.36 1523768 1578402 1575862 1599390 1667322 1664144
724.14 1616056 1649822 1669950 1688066 1752360 1797408
729.93 1843178 1914616 1896532 1919686 2046366 2107116
735.71 2134280 2177108 2266922 2356060 2365546 2351312
741.50 2296468 2350402 2329982 2184602 2131372 2177534
747.29 2220684 2204872 2168514 2332198 2359160 2203930
753.07 2236414 2396888 2472440 2463760 2433724 2487292
758.86 2446030 2453830 2430782 2367454 2324686 2282626
764.64 2226906 2140804 2072386 2026590 1929434 1838530
770.43 1836772 1867974 1790670 1747542 1697562 1699240
776.21 1636666 1616496 1581544 1503836 1464468 1468474
782.00 1505136 1507024 1505344 1516908 1505494 1507544
787.78 1485332 1500170 1486028 1464006 1416512 1460830
793.57 1524768 1473866 1414336 1496674 1551676 1514472
799.35 1446138 1498802 1586488 1734546 1783586 1815612
805.14 1827182 1815060 1813174 1975648 2091496 2147980
810.93 2187252 2358556 2497876 2635436 2763720 2912346
816.71 2961440 3062562 3283916 3568324 3777784 4060464
822.50 4303296 4570786 4902180 5256394 5496312 6049374
828.28 6589444 6934244 7470766 8275142 8686128 9153744
834.07 10173400 11023070 11378660 12489700 13934970 14522650
839.85 15325290 17330840 18604370 19242300 21323770 23642470
845.64 24162010 25761320 28956600 30552170 31557730 35326660
851.42 38126950 38875910 42573760 47152300 48244380 51351900
857.21 57346040 59654380 61872560 69243530 73005940 74447830
862.99 82668730 88598690 89092980 98110060 106534800 106155800
868.78 115103400 127146400 125732200 134333500 150296800 147619600
874.57 154000400 175562100 172920400 175805600 201348400 198931700
880.35 196285400 228307000 226720700 218596000 254237500 249978700
886.14 235170200 277905500 271935400 254502400 297895700 279141700
891.92 259324700 308602000 281150500 270857300 309232100 275514300
897.71 275810200 305480300 281951600 281682200 289622800 299031500
903.49 315277400 386998900 499224900 1038415000 1359977000 817306100
909.28 467731000 390956500 327124600 318676900 310597200 310193900
915.06 332964300 333522900 345550900 344757000 338206800 359045000
920.85 340654600 357455100 345923200 351776600 351481800 343510000
926.63 344363300 331290700 331255000 320289300 316109200 303749800
932.42 294566000 283042300 273927100 262970800 252214000 240336100
938.21 228204600 217639700 206509100 196906100 185172600 175028500
943.99 164184100 155203700 145339700 137316300 129915800 122282100
949.78 114344200 107467000 100821500 94753300 89026820 84449670
955.56 79818500 75876990 72110980 68901420 66534720 63818610
961.35 62131970 60925800 58993310 58929620 58203400 57788360
967.13 58902780 58648950 59585390 61645360 61649280 64418250
972.92 66597080 68175470 72783820 75574400 79390750 85167750
978.70 89689420 97578010 104736500 112057100 122056600 128140800
984.49 135377000 140828800 139972900 140866600 133466600 127743800
990.27 141636300 160494200 177873500 195233500 207804300 210464000
996.06 213523000 210999500 203983200 202929000 191479300 185117800
1001.85 179919400 174195600 181418900 181072400 184041600 198989600
1007.63 208314900 224706100 259362400 271561800 280306700 343750800
1013.42 335252900 247875200 201349500 171575400 159021500 161319000
1019.20 153037400 150245000 160818200 158787900 155211700 162164300
1024.99 160354400 158809400 161417400 160917000 157222000 152226200
1030.77 155182100 153874600 146869300 144392500 139617000 136553100
1036.56 135549200 130453600 125274400 124585300 118947300 114079500
1042.34 113144500 105021300 103157500 105071200 99348690 96902300
1048.13 90400310 84165910 85793340 82998660 78240180 71380820
1053.91 65412720 62537210 58977140 56769900 54067580 51529180
1059.70 49530410 47585420 45986150 43634460 41648190 39286960
1065.48 37369670 35547940 33404200 31723380 29800040 28589060
1071.27 27869350 27023940 25976530 25301410 24496210 23423250
1077.06 22319620 21386970 20090460 18612780 17431300 16113130
1082.84 14789470 13529090 12319030 11290340 10337690 9669910
1088.63 8995486 8126504 7201234 6405490 5710142 5131518
1094.41 4657116 4203180 3728768 3282776 2922434 2687910
1100.20 2423224 2150642 1927340 1779040 1620086 1444976
1105.98 1311360 1200520 1109854 1098196 1046444 995838
1111.77 956834 896962 872344 864072 834010 815420
1117.55 810678 814188 787510 775624 755986 766252
1123.34 769478 758834 743160 759296 777132 795296
1129.12 790688 813304 820298 795078 750642 759002
1134.91 780902 782124 800860 768820 722304 764962
1140.70 786496 772994 714686 658322 672728 698096
1146.48 680444 665350 667712 654604 633706 634396
1152.27 605282 596312 587930 591178 566796 506438
1158.05 519228 539634 548574 583020 528976 497306
1163.84 509606 540196 552404 553838 559758 545254
1169.62 526418 521588 532192 561306 534250 545594
1175.41 559318 559606 598220 608594 586572 575268
1181.19 573338 550844 527856 557724 516600 476336
1186.98 468840 403838 365558 426714 449862 433098
1192.76 455482 448506 420184 476440 526274 526832
1198.55 519086 538474 565494 579538 581988 585950
1204.34 638566 679236 676468 764988 811940 807740
1210.12 885160 999624 997206 996766 1141192 1218326
1215.91 1206994 1314750 1331870 1359662 1538200 1632074
1221.69 1690308 1835198 1915224 1979280 2152960 2246768
1227.48 2312440 2535612 2603936 2716260 3007570 3074244
1233.26 3210568 3536044 3595470 3786010 4158212 4270074
1239.05 4443740 4822922 5033910 5315758 5780600 5865428
1244.83 6205904 6922876 6900032 7358248 8066496 8062958
1250.62 8741884 9390418 9370030 10231020 10601980 10611460
1256.40 11750820 11481140 11646710 12554620 11972330 12252910
1262.19 12149100 11826310 12197950 11803060 11676080 11415830
1267.98 11421300 12289080 12090290 12433860 12903870 13060930
1273.76 15060050 15307540 15928960 17390950 16725350 18083190
1279.55 18017240 17615600 18394700 17048410 17315710 16572420
1285.33 15448260 15018510 13669930 12835160 11513870 10402550
1291.12 9630136 9332528 9274826 9226714 9969306 10838630
1296.90 11824990 12748420 13422210 13761400 14057130 14066690
1302.69 13836090 13894340 13159930 12978850 12469060 11520230
1308.47 11322420 10565820 10089050 9926694 9080940 8859332
1314.26 8458856 8019430 8123666 7565892 7515418 7394482
1320.04 6916240 7084722 6801990 6658214 6750524 6415438
1325.83 6529838 6416368 6257392 6374350 6125946 6285974
1331.61 6213720 6137296 6322430 6088836 6322892 6338606
1337.40 6166624 6505732 6352906 6324702 6396746 6244388
1343.19 6590604 6603404 6688150 6996342 6921690 7446378
1348.97 7618828 7875240 8410354 8440842 9204278 9757216
1354.76 10365130 11676640 12166140 13773830 15366440 16893930
1360.54 19985820 21984560 24754870 28244440 30447960 34744740
1366.33 37951080 40462240 43958290 45201780 46471240 46940770
1372.11 45344900 43450320 38733080 33104000 27088910 23409230
1377.90 20634150 34863330 47749620 29406450 21585280 27137560
1383.68 31429960 36523290 40376050 42565740 43504190 42860050
1389.47 41204180 40043490 36360260 34363050 32053370 28150730
1395.25 25709290 22456730 20137610 18863860 16137360 14753600
1401.04 13939860 13087490 13010980 12282330 11711570 11599860
1406.83 11442700 11879440 11829820 11730590 11891090 12068930
1412.61 12466910 12378720 12128760 12498690 12705180 13379970
1418.40 14555250 13582000 12582120 12653700 12455830 12253850
1424.18 11583250 11053970 10745190 10207300 9975384 10050850
1429.97 9617402 9336764 9395774 9880912 10291350 11322630
1435.75 12712880 12013310 11396650 11511700 11493980 11660420
1441.54 11708940 11413000 11188540 10901210 10515330 10717870
1447.32 10319230 9492072 9290890 8833808 8507552 8400648
1453.11 8233300 8336298 9819086 10720160 9466256 8483580
1458.89 7684344 7639888 7607146 7506048 8175218 8828358
1464.68 8686426 8402536 8395310 8808334 9175556 9536482
1470.47 11058290 11905350 12184820 12018340 12062580 13223090
1476.25 13370790 13275730 13424160 12995500 12586790 12403940
1482.04 11905260 11192650 10885110 11125810 11021840 10302750
1487.82 10708090 12239640 11952900 10531290 10396970 11215890
1493.61 11961470 13588210 14350840 13087360 12854330 12239440
1499.39 10948950 10267530 9493284 8671410 8682932 9651300
1505.18 10349450 9882486 8093180 7132770 6546052 6098770
1510.96 6281886 5898848 5492656 5430174 5438202 5686104
1516.75 5374560 4537850 4607834 5957854 6003658 4693486
1522.53 3619300 3440826 3840120 3195316 2931104 2786900
1528.32 2400436 2267986 2296790 2464176 3107250 3164394
1534.11 2324616 2208500 2198150 3282318 5512470 5572406
1539.89 4323080 4398752 3834446 2907598 3401630 3314252
1545.68 2717852 2750034 2950260 3509406 3694692 3666544
1551.46 3826798 4907276 6160662 5805182 5936254 8243562
1557.25 10656250 11313620 12026010 11181200 10668300 11944670
1563.03 13669010 15482890 16928840 19360370 21806170 25185710
1568.82 29558720 32526190 36754930 42685940 48709290 56542090
1574.60 67346810 77553020 86891580 98568980 112269500 127213700
1580.39 144246300 162248400 178990600 194594900 207858200 218800700
1586.17 226792200 229884300 226878600 217892900 201093000 178247800
1591.96 154946900 139644200 140472000 185544100 206744900 168410200
1597.74 145995400 156394100 183061300 208266800 229304000 243265800
1603.53 249387700 246508600 235969000 219701200 198579600 175611200
1609.32 151589400 127493900 105644900 85963170 68737440 54497860
1615.10 44545370 36125470 27100020 21258470 17574260 14573640
1620.89 12687970 11930070 11029030 9507060 8677392 8393786
1626.67 8198970 7851248 7351964 7113498 7023304 7344642
1632.46 7390154 7825362 9326568 8414268 7257916 7362556
1638.24 7156740 7206310 7393972 7441648 7465574 7572284
1644.03 8427954 9510382 8900150 8313874 7655684 7128902
1649.81 6960344 8637520 11277960 9825190 6904478 5296694
1655.60 4528608 4261936 4019106 3907482 4050136 4420724
1661.38 5280818 5349260 4767016 4680246 4579398 4569526
1667.17 4830306 5561468 4905328 4238090 4054132 3402296
1672.96 3477622 4438966 4132282 2782228 2531780 2388586
1678.74 2511694 2441948 2306258 2811428 3995442 5859450
1684.53 4490580 2026860 1948236 1902318 1885208 1780850
1690.31 1639290 1495618 1637574 1696576 3884114 5074400
1696.10 2685158 1746444 2786850 5064034 4389248 2073042
1701.88 1616072 1906762 2059864 2055242 2132872 1680688
1707.67 1590490 1725592 1805658 1718504 1846540 2069908
1713.45 2779358 2938914 3269358 4905436 4378816 3020552
1719.24 2612934 2594740 2702564 2839526 3052298 3149900
1725.02 3400562 3603888 3748902 4013864 4495986 4561728
1730.81 4653356 6003170 7600818 7504652 5986892 5373764
1736.60 5525270 5791184 6717110 6579998 5916504 6313634
1742.38 6814726 7142802 7622836 8242106 8850990 9686078
1748.17 10174030 10642820 12066150 11960690 11361290 11643490
1753.95 11528330 11688050 11755100 10950440 10289640 9867002
1759.74 9643846 9815302 8982250 8408368 8369032 8332710
1765.52 8696130 9410684 9732528 9052676 9061244 9313058
1771.31 9870688 9334518 7828102 7531110 7329664 7027556
1777.09 6899268 6888664 7096022 7163172 7129270 7220656
1782.88 7627982 8175732 8176398 8295206 8698548 9065658
1788.66 9800044 10548180 11596960 13173290 13664440 14464800
1794.45 16078620 17457040 19525860 22828040 27313260 32671510
1800.24 38920920 45919570 53891300 62595710 71885070 81790270
1806.02 91362220 100431000 108970700 115733200 119368500 119329800
1811.81 116090000 109782600 101526500 93216030 88758460 92613620
1817.59 104143100 102113800 71046660 49152720 57884530 77774500
1823.38 97568220 113869800 125147400 131213400 133371600 131512000
1829.16 126168700 117389100 106852400 95719900 83666360 71847390
1834.95 60564270 50420320 41739920 33809320 27281430 22119720
1840.73 17929810 14579230 12719100 10832770 8324894 7049756
1846.52 6180650 5382368 4841198 4404484 4154072 3991964
1852.30 3904040 3844570 3943806 4047938 4088114 4304722
1858.09 4499532 4617254 4821174 4922974 4970710 4963364
1863.88 4872070 4855876 4894640 4872518 4964472 4789094
1869.66 4265130 4053250 3701882 3452486 3764558 4231880
1875.45 4642498 5008412 5252716 5281636 5292474 5313298
1881.23 5314150 5306304 5217374 5026974 4787924 4598418
1887.02 4345928 4230654 3912066 3391568 3169564 2982058
1892.80 2880042 2889588 2802038 2637270 2570884 2468880
1898.59 2380248 2368014 2487138 2801414 3167696 3325664
1904.37 3364160 3370250 3323902 3248108 3200218 3208396
1910.16 3187716 3189344 3146744 3062096 3006550 2960436
1915.94 3063552 3313280 3060272 2743110 2729066 2769558
1921.73 2886256 2898038 2835802 2835776 2927966 2915370
1927.51 2899552 2973224 2970070 2937590 2933240 2965082
1933.30 2957502 2927190 2961496 2995652 3008712 2999970
1939.09 2992976 3046156 3325678 3470338 3427482 3610664
1944.87 3843594 4043174 4252476 4454252 4695140 4891642
1950.66 5026798 5272346 5536668 5902258 6399964 6565594
1956.44 6585484 6825776 7131656 7491364 7794634 7960242
1962.23 7953882 7856194 7561540 7323142 7039014 6766702
1968.01 6695976 6518978 6494424 5834966 5189528 5308448
1973.80 5774934 6348374 6614720 6764356 6790492 6547958
1979.58 6318672 6065262 5667522 5279298 4879006 4509320
1985.37 4132724 3727078 3465338 3220442 2905194 2802818
1991.15 2641654 2322414 2148456 1950506 1809800 1733226
1996.94 1620104 1543352 1431592 1379772 1336882 1256842
2002.73 1216114 1127130 1081252 1078050 998356 943726
2008.51 847930 758722 729706 648962 566760 518476
2014.30 490812 468598 435508 394898 325470 248532
2020.08 211520 190246 183058 153310 105408 72316
2025.87 37578 41166 67070 78654 72138 57002
2031.65 62012 62010 46650 65728 45078-27546
2037.44-57770-8156 44830 61400 50404 38544
2043.22 28490 42340 86594 37086-24818-21236
2049.01-23946-51974-51842-56526-60356-50570
2054.79-62872-50342-45214-26808 7358 13466
2060.58 20462 25900 26546 30376 31740 32386
2066.37 19690 54032 68324 36830 41762 76662
2072.15 129392 114724 95248 120984 170792 206918
2077.94 173752 152608 203796 257368 240556 233846
2083.72 241782 325044 374030 343924 382480 440226
2089.51 532456 507846 460696 512406 639528 691398
2095.29 652314 657986 775564 883062 763814 677548
2101.08 693318 780892 712630 584894 573772 755932
2106.86 721330 543090 600560 736524 854130 784022
2112.65 755432 858594 1008054 910114 798460 825074
2118.43 889410 822564 674350 631250 682948 640560
2124.22 522424 485544 554768 578406 454308 395788
2130.01 462184 506076 413386 397952 467358 486016
2135.79 416580 377196 402738 412498 380192 398666
2141.58 412058 401626 420034 431124 467250 472512
2147.36 439646 466478 534658 524000 469194 503464
2153.15 623906 648836 543114 542780 691698 731760
2158.93 644476 698536 864408 837246 735614 873622
2164.72 1042150 959500 851008 953462 984100 830270
2170.50 845932 1019762 978480 828574 928508 1067932
2176.29 899672 824800 1012750 1079668 926176 869064
2182.07 984386 930400 827634 984842 1068526 936844
2187.86 971090 1055608 972666 910910 962794 988914
2193.64 932218 952324 1037310 997574 979730 1083026
2199.43 1095690 1015254 1011508 1025758 974430 925068
2205.22 904632 863432 835766 850366 840612 858360
2211.00 932372 941916 897384 921902 1034864 1072468
2216.79 1009058 977120 951416 929170 898036 865912
2222.57 856712 875770 869612 870020 914710 913578
2228.36 904748 929204 955208 997084 1042154 1091212
2234.14 1118038 1161422 1231230 1244700 1283488 1369136
2239.93 1432146 1466642 1462360 1525372 1637538 1653588
2245.71 1706784 1826652 1830832 1872130 2000388 2070372
2251.50 2198452 2315382 2339868 2474306 2559368 2554860
2257.28 2623572 2572486 2472360 2442244 2414752 2366802
2263.07 2272030 2124340 2073120 2122316 2218586 2356188
2268.86 2503648 2641974 2715362 2730250 2644640 2562820
2274.64 2531196 2407688 2329542 2229568 2105526 2065292
2280.43 1974990 1923612 1868692 1768142 1735900 1665246
2286.21 1638400 1628676 1591992 1538958 1465590 1405236
2292.00 1336488 1303628 1282340 1301346 1340994 1349386
2297.78 1391984 1377836 1363904 1335764 1277178 1196578
2303.57 1175458 1100282 1096834 1070898 1077254 1088042
2309.35 1143540 1179992 1148204 1155550 1162816 1201614
2315.14 1179316 1260238 1257234 1311072 1343102 1407628
2320.92 1420908 1472564 1496592 1552576 1591212 1666084
2326.71 1732196 1792090 1815466 1883554 1940874 1976172
2332.50 1997326 1977694 1986912 1982978 1967396 1952748
2338.28 1958740 1937050 1919606 1890868 1836762 1771508
2344.07 1644528 1416532 1198766 1006570 856502 855650
2349.85 1006942 1218712 1412042 1543938 1672734 1844018
2355.64 2005098 2104660 2189662 2261314 2301042 2277724
2361.42 2242960 2217928 2163258 2073398 1966810 1873348
2367.21 1736654 1587114 1470392 1335528 1221706 1107788
2372.99 977368 854954 755464 668500 580552 507106
2378.78 464444 420424 386392 378298 385724 380158
2384.56 349574 335500 348576 353254 363044 368226
2390.35 352336 377326 407370 401184 444908 451842
2396.14 434906 457202 469316 463596 488104 545192
2401.92 587756 587674 573136 622086 662778 670710
2407.71 692410 725634 771136 814666 830226 809474
2413.49 817722 823924 832540 899080 881352 852064
2419.28 874470 845314 832926 823366 800600 772726
2425.06 778438 788794 818836 905836 944070 944342
2430.85 972542 994044 980354 983878 968656 944074
2436.63 933696 907766 908878 912436 891688 908746
2442.42 922144 906700 904338 904360 928566 970968
2448.20 993070 1045408 1076750 1038506 1087762 1144646
2453.99 1142348 1199808 1204320 1211934 1251328 1230994
2459.77 1277420 1304586 1318132 1369074 1389156 1456152
2465.56 1493700 1536810 1603706 1650694 1744020 1835136
2471.35 1938516 2025754 2072816 2264678 2421164 2525784
2477.13 2721146 2819026 3042974 3291740 3384322 3525564
2482.92 3576944 3556408 3617614 3559508 3474776 3354704
2488.70 3116478 2842260 2641270 2579868 2859910 3179638
2494.49 2782544 2483994 2644930 2890714 3157980 3375618
2500.27 3537774 3555626 3586326 3473280 3313486 3121758
2506.06 2837098 2690720 2424266 2191532 1968886 1716670
2511.84 1624268 1420984 1280278 1209908 1121948 1061318
2517.63 988710 903318 865722 861178 833788 827562
2523.41 773472 787234 753906 706384 722186 684774
2529.20 694036 702822 691998 681286 617116 608756
2534.99 606306 590052 612020 588736 575038 572288
2540.77 555548 542660 531944 498960 469270 501830
2546.56 525838 513704 537146 557030 547588 560020
2552.34 598552 618146 634958 644858 675444 707720
2558.13 722936 744338 775432 793084 799092 780174
2563.91 765078 841854 884708 902180 987926 1085546
2569.70 1181064 1234780 1226162 1266980 1311936 1294812
2575.48 1251670 1152134 1041688 967106 908562 897936
2581.27 974798 1066894 985006 888778 947408 1026148
2587.05 1082482 1105182 1117604 1124370 1074478 1035036
2592.84 1027146 987896 907610 842498 731036 627164
2598.63 574004 497384 443364 387580 344754 347634
2604.41 344384 331146 315634 300614 271020 243300
2610.20 269950 298818 291848 274770 296562 280414
2615.98 287188 314900 301400 326864 305336 285034
2621.77 341324 379496 370224 342562 349516 384154
2627.55 434010 462522 407268 363220 380604 411898
2633.34 420934 409426 409824 466702 466038 434220
2639.12 435616 436736 464720 493296 495616 484486
2644.91 495608 494074 450186 408912 416546 416798
2650.69 418858 393020 357432 362440 374960 395428
2656.48 357012 330860 356290 341032 311692 337118
2662.27 348430 363242 357636 283226 282134 282702
2668.05 253924 267590 272140 252862 230484 208446
2673.84 217154 232306 235158 201442 198874 208932
2679.62 194024 209950 213208 236560 271860 303720
2685.41 283860 247226 254500 261808 268136 278194
2691.19 301570 287490 319900 380124 381266 375706
2696.98 386666 421654 443156 492042 476152 444214
2702.76 468354 468034 487462 527656 539110 537146
2708.55 530212 540406 568398 591590 622244 695334
2714.33 764626 785648 834570 902484 940862 953236
2720.12 946328 946390 946592 914102 855076 833414
2725.91 792524 719540 679976 654836 635322 643552
2731.69 637794 626330 635966 692406 818410 787954
2737.48 694402 697666 690010 663994 645350 618082
2743.26 604550 623700 614314 544304 484894 505136
2749.05 518268 468410 442496 458812 450150 457462
2754.83 456294 426096 419894 394740 274506 178308
2760.62 328458 500044 494020 445976 428570 413262
2766.40 400992 439672 456940 456736 433512 413478
2772.19 426720 469634 492764 477744 537386 555358
2777.97 509316 538600 610360 646316 702190 754674
2783.76 788686 834464 847760 845900 854466 870370
2789.54 852582 863294 875778 855278 818886 792598
2795.33 847626 895010 929928 976618 972510 954780
2801.12 987490 1065820 1124388 1142394 1175452 1192574
2806.90 1160156 1151830 1149822 1091462 996948 893498
2812.69 843734 842574 824288 817326 833230 840236
2818.47 815652 828208 887056 949556 997294 1016050
2824.26 987198 999616 1063638 1073482 1133816 1179338
2830.04 1162898 1245342 1404054 1515500 1605420 1744480
2835.83 1883910 1966372 2048202 2209870 2428024 2582894
2841.61 2724086 2913102 3104020 3268866 3426884 3612256
2847.40 3729490 3787526 3884632 3983304 4033494 4082296
2853.18 4169880 4324092 4429130 4518692 4626928 4670040
2858.97 4742256 4848726 4946398 5056504 5219388 5402666
2864.76 5461466 5464390 5567920 5655732 5716024 5752562
2870.54 5806578 5895158 5889776 5927360 6069914 6291008
2876.33 6594162 6934742 7307796 7615106 7567292 7386062
2882.11 7393204 7492346 7644320 7896632 8116754 8277906
2887.90 8618900 8940138 9377594 10094550 10253180 10092770
2893.68 10214700 10250990 10276740 10547470 10672380 10873410
2899.47 11420280 11457130 11446530 11885340 11770040 11969520
2905.25 12592580 12440760 12912380 13561820 13440210 14217000
2911.04 14796020 14724070 15889910 16498670 17227000 18473610
2916.82 18051950 17558080 17608550 17374920 17205370 17126850
2922.61 17086210 17317340 17705740 18548860 19800190 20974110
2928.40 21886100 22570380 23141940 23614830 24158520 24593140
2934.18 24878240 25148650 25069080 25358580 25370030 25550950
2939.97 26121230 26165870 26941360 27510660 28263410 28779830
2945.75 29105770 30335720 31026010 32437700 33436380 34488200
2951.54 35930220 35655010 36245570 36922120 37419450 39030700
2957.32 39861460 41270770 43048340 44436820 47206750 49880360
2963.11 53825010 58795340 63313640 69297540 72756470 73545230
2968.89 76720070 79697740 82489870 87289910 90254930 91778020
2974.68 94218700 94735660 93035040 92321760 90219190 86282380
2980.46 84175460 82433460 85947040 89330380 86511270 87340020
2986.25 93816250 101494400 107857500 114017800 117157000 121972900
2992.04 124070900 123485400 125061400 123190900 126590100 128850500
2997.82 128213600 130173800 128296400 128931800 127752500 123584300
3003.61 122154000 118232600 115010700 109595800 104337200 103418000
3009.39 103341500 102729100 97237990 96782590 103049700 107195300
3015.18 109998800 112420600 114242300 116286300 116869600 117227300
3020.96 117487500 115261200 114545700 111762900 108509700 106583400
3026.75 102865200 100524700 97386620 95232330 94785550 94964160
3032.53 97707220 100142300 103292400 105264200 109476400 113388400
3038.32 116259300 121641100 123046900 125096300 127486200 127526400
3044.10 126764900 126838900 123879000 120374900 117890800 112177400
3049.89 107537100 103435500 99895220 101775600 105509200 102775000
3055.67 103424100 109210900 114591100 123007900 129050500 132954500
3061.46 140676500 142435200 143559700 146217500 143576100 143290400
3067.25 141856200 138827600 136860300 136497900 134941700 133474300
3073.03 133913900 133734800 136786700 138258000 140449200 145773800
3078.82 146447900 154533400 162968200 162849500 174876800 182555700
3084.60 184396100 199473600 201170500 202004200 209294100 203746200
3090.39 202737500 196150300 182792100 172734100 158825200 145763100
3096.17 143311900 142596100 133943400 134970400 134711300 132092400
3101.96 145534600 163924200 178916800 192631700 198871400 200001800
3107.74 202656100 195708900 190218300 182526800 168072900 162012600
3113.53 147577300 135303500 129146300 115402700 110781300 104036600
3119.31 92987140 90821100 85200340 80550580 78598140 72308520
3125.10 70415460 67218050 64070720 62757350 58539380 56283000
3130.89 54178250 51364860 49253100 47194980 44026610 42555200
3136.67 39905450 37605330 36189880 33524140 32038290 30206350
3142.46 28100590 26617380 24965200 23237600 22005930 20451110
3148.24 18891250 17827380 16392510 15275710 14277940 13155100
3154.03 12258010 11225690 10468110 9636396 8890886 8214436
3159.81 7481098 7045564 6498252 5939894 5501688 4979818
3165.60 4606026 4338156 4022762 3651766 3488258 3237886
3171.38 2878528 2817332 2519972 2151296 1959178 1737512
3177.17 1601972 1469222 1331576 1251336 1215792 1193956
3182.95 1162198 1158572 1146348 1117658 1123868 994570
3188.74 849916 799116 559414 490870 719258 735294
3194.53 745528 780066 720696 595452 405258 318584
3200.31 401490 422006 356692 252588 166694 187364
3206.10 231806 293954 287686 331738 408276 465782
3211.88 498676 539018 603474 689704 814240 901988
3217.67 961176 1078222 1156518 1261878 1299462 1314092
3223.45 1408202 1403468 1437548 1443746 1360310 1323634
3229.24 1353738 1354622 1388648 1537576 1794050 2009302
3235.02 1971512 1837122 1927822 2052200 2045824 2075292
3240.81 2096276 2072406 1984120 1910508 1779916 1621850
3246.59 1524552 1405106 1291080 1204680 1138822 1055228
3252.38 958684 885734 811054 825504 857508 738524
3258.17 703858 769014 727938 717190 742682 727282
3263.95 724802 700610 680220 629254 576118 588750
3269.74 557220 501188 498388 482738 416416 382476
3275.52 395040 409368 399496 363334 325580 275058
3281.31 270024 279728 245416 231998 270542 304904
3287.09 316564 341276 332590 266056 247704 304482
3292.88 356040 371204 392304 428818 431854 505260
3298.66 538064 542124 547528 510394 495388 454310
3304.45 440482 479858 532404 517184 516152 548712
3310.23 545228 506268 517656 591758 637370 621192
3316.02 599202 603206 620248 611716 593296 565662
3321.80 554206 540818 459434 442392 465336 511208
3327.59 456974 367164 391274 369000 329974 261036
3333.38 300630 368656 283490 203520 227962 263198
3339.16 218956 229070 252544 277224 280654 216076
3344.95 152178 136628 180906 222454 198654 139604
3350.73 144496 251378 251894 179442 215466 230962
3356.52 220896 254820 246338 245494 305876 305204
3362.30 258240 279542 326900 310018 269096 250000
3368.09 240028 306734 387834 494920 585622 534524
3373.87 479966 495462 552760 608678 649272 666458
3379.66 746134 804774 778278 792448 861938 998144
3385.44 1105556 1142154 1173472 1237856 1276976 1270176
3391.23 1349448 1400570 1384214 1282230 1165732 1200870
3397.02 1175742 1104616 1153208 1209266 1259120 1331594
3402.80 1381332 1412820 1420448 1411012 1419792 1395276
3408.59 1322018 1302538 1308566 1229960 1107724 981288
3414.37 833378 805966 893934 888202 823652 794296
3420.16 708590 659904 605152 508038 485128 450360
3425.94 462218 505104 457774 383212 373458 407498
3431.73 444942 415086 368274 436008 483828 486258
3437.51 550270 635482 687106 731326 787460 791262
3443.30 754460 726724 791614 855520 795618 735516
3449.08 654000 639858 604186 571060 532404 476550
3454.87 522786 543578 594866 645514 739184 772790
3460.66 724154 736180 745606 767974 698486 689052
3466.44 783476 700804 631712 608700 548776 484948
3472.23 438340 454088 415864 328038 314192 372168
3478.01 385256 400322 424576 474536 431610 330256
3483.80 349606 387146 358330 379778 456598 466308
3489.58 460136 399536 354684 366438 387638 465026
3495.37 483558 432860 437422 505614 565446 577050
3501.15 601214 657062 650838 575770 557200 542378
3506.94 502480 631490 687384 601608 579968 578412
3512.72 549200 564018 606378 619634 626796 608736
3518.51 575092 591356 646512 679290 629030 626538
3524.30 652950 688024 782162 819656 809926 728596
3530.08 745434 761530 748174 743058 670528 688046
3535.87 719966 680830 646860 602726 570776 514092
3541.65 547850 601056 665612 754846 772378 785742
3547.44 685358 698682 714790 723356 782414 793606
3553.22 777232 720488 683086 608692 579502 595666
3559.01 644112 662698 641030 651354 676420 717180
3564.79 968760 1109702 1231896 1082246 679340 606414
3570.58 595238 643494 644512 665092 696792 692406
3576.36 738478 744716 722380 718332 675450 699228
3582.15 785768 819956 811608 1289492 1439284 1383324
3587.94 1526882 1091998 910078 930818 1109162 1179810
3593.72 1235886 1366462 1245756 1272228 1320414 1322090
3599.51 1415292 1357732 1320876 1285888 1292192 1269258
3605.29 1381224 1556806 1693114 2175410 1744196 1191958
3611.08 1609490 1729856 1486068 1504270 1365164 1586902
3616.86 1867470 2121884 2321544 1792634 1555478 1485860
3622.65 1299982 1245212 1225086 1055344 1487570 2514166
3628.43 2830046 1786756 879680 815780 893040 848154
3634.22 558142 426042 398332 458364 636800 884310
3640.00 958066 912624 749642 575614 592314 688908
3645.79 1350424 1539136 2041442 2307480 1649688 1259062
3651.57 515906 351012 270948 775890 1308088 530586
3657.36 170890 173146 162412 186838 161714 161378
3663.15 178576 121794 158654 198538 751326 1073298
3668.93 1643922 2397184 991674 237002 772742 1861870
3674.72 2806740 1807866 540106 415822 546778 342566
3680.50 195800 214552 235194 220968 242754 253120
3686.29 981242 2797186 1978848 706758 1234072 749694
3692.07 265560 259930 242416 300734 329722 267186
3697.86 310788 281916 477854 925606 658052 307132
3703.64 285412 275710 285530 235530 628240 1139572
3709.43 715354 1324042 2025918 831412 360792 384306
3715.21 226730 227712 327072 445310 328066 339608
3721.00 690602 575952 328032 415982 659406 791288
3726.79 447852 269990 336356 431408 1508342 1685290
3732.57 803952 1279246 1580958 1790838 1314656 616606
3738.36 526582 506654 655546 530504 1227438 4228472
3744.14 3993510 1043220 685122 969930 2791508 2678666
3749.93 1255224 3062522 2610652 564450 295616 435122
3755.71 640004 414636 497238 932534 689770 299364
3761.50 254076 217020 275298 684572 612032 174346
3767.28 200644 785236 1024498 407636 170724 183402
3773.07 189462 155372 153424 198276 194792 547186
3778.85 667636 255300 179278 181460 241022 384156
3784.64 324270 247346 185758 169436 188586 211928
3790.43 245898 237338 247510 247716 382504 860366
3796.21 729230 459958 493716 912660 2688298 2439738
3802.00 830058 628656 440682 939618 2090946 1382348
3807.78 346710 375198 322216 386606 366914 470172
3813.57 608404 2369862 2737188 865484 562684 795458
3819.35 1578066 2272672 1533178 681596 551456 525614
3825.14 745580 886032 611988 551164 561402 959288
3830.92 1218616 737966 761776 1475604 1155696 1409104
3836.71 3295832 2328272 1018476 1387842 1083772 882608
3842.49 1224362 1045174 724008 681970 773982 828480
3848.28 1086960 985860 2001644 3173696 3320768 5136468
3854.07 3320212 1000832 1213646 963624 857878 821722
3859.85 1055624 1349364 1150932 1130542 1871722 1747712
3865.64 1038926 991518 1314774 2490630 2530350 1323014
3871.42 1034000 1333280 1601894 1224212 893182 950270
3877.21 998470 1287936 1821626 1537328 995498 1103330
3882.99 1102294 1845588 2519870 1545964 1021468 1063386
3888.78 1065016 1719528 1904908 1234064 971838 937862
3894.56 842522 853382 968836 1368562 1826914 1402062
3900.35 1744862 1896084 1652148 2076362 1536048 1173104
3906.13 1038724 938868 985714 916494 877968 871952
3911.92 869452 844554 818522 898998 1265240 1260236
3917.70 957978 1100888 1085010 885744 900808 970584
3923.49 1157734 1149436 957568 967534 1014548 1091958
3929.28 1117716 1116160 1262080 1163112 1032208 1052338
3935.06 1003968 939782 977028 993690 948788 965834
3940.85 1068462 1216058 1112458 1062512 1122368 1140740
3946.63 1253874 1324678 1168878 1088936 1129312 1168318
3952.42 1271152 1250032 1225312 1283264 1306906 1275880
3958.20 1323750 1440826 1546286 1575936 1596934 1728466
3963.99 1834080 1896290 2011304 2174402 2342474 2518936
3969.77 2645176 2767118 2951880 3071176 3119210
##END=
