##TITLE=1,4-Dimethylbenzene
##JCAMP-DX=4.24
##DATA TYPE=INFRARED SPECTRUM
##CLASS=IUPAC A
##ORIGIN=NIST, Analytical Chemistry Division, 301-975-3108
##OWNER=COPYRIGHT (C) 2001 by the U.S. Secretary of Commerce
##DATE=01/06/01
##$SPECTRA VERSION=1.10
##$UNCERTAINTY IN Y=2.1 % relative (B=1.10E-04,C=1.28E-9,D=4.08E-14)
##CAS NAME=1,4-Dimethylbenzene
##CAS REGISTRY NO=106-42-3
##MOLFORM=1,4-( C H3)2 C6 H4
##MP=13.26 C
##BP=138.35 C
##$NIST SOURCE=QUANT-IR
##SPECTROMETER/DATA SYSTEM=IFS66V (Bruker)
##INSTRUMENT PARAMETERS=KBr Beam Splitter; MCT Detector; Multipass cell
##STATE=gas
##SAMPLE DESCRIPTION=p-Xylene Primary Gas Standard
##PRESSURE=101.3 Pa
##TEMPERATURE=23 C
##SAMPLING PROCEDURE=1 L/min Flow
##RESOLUTION=0.9640
##DATA PROCESSING=Boxcar Apodization
##XUNITS=cm-1
##YUNITS=(micromol/mol)-1m-1 (base 10)
##XFACTOR=1.0
##YFACTOR=9.0949E-13
##DELTAX=0.4820
##FIRSTX=575.17
##LASTX=3974.605
##FIRSTY=2.18E-06
##MAXX=3974.12
##MINX=575.17
##MAXY=.0007024
##MINY=-1.83E-06
##NPOINTS=7052
##XYDATA=(X++(Y..Y))
575.17 2407344 2199048 1874615 851476 738548 1221835
577.58-1067894 1800685 1054663 762936-558540 1311734
580.47 1271237 580425-1231963-193675-1135544-439821
583.37-309477-507780 13710 456275-150187 1379389
586.26 567945-721756 744131-781524 233876-2015917
589.15 173361 1169619 304898 46557 285971 624420
592.04-198363-248738-478064-508653-37612-618285
594.94-305518-1666568 50831 1008651-345238-724351
597.83-352180-359211-942140-415287-92161-202576
600.72-1199348-985072-786036 366292-1195814-213558
603.62-619498-1023019 543619-164294-1484431 409933
606.51-773351-1027743-1143609-977414-817952-339693
609.40-17038-51788-901718-247715-72061-516281
612.29-1196635-784966-637489-1019691-864452-785576
615.19-281047-1409132-523719-137805 7411 292023
618.08-672476-953848-1108414-772637-30427-875402
620.97-228435-982470-931745-115253-62651-297793
623.86-962736-34239-619247-310176-1200289-212264
626.76-274235-1007586-1020200-960094-21795-597238
629.65 113040-99241-43652-1198825-381524 411059
632.54-775497-31787-752457-782614-603178-294004
635.44-1246480-749000-344528-62612 172163-899028
638.33-153165-74040-1053401-818572 40938-110897
641.22-126699-259858-338673-487527-122543-578177
644.11-336790-298638-499396-941130-86041-653499
647.01-242135-13797-187095 493420-318075-1025046
649.90-74312-245709-327676-510894-642265-343949
652.79 139079-465404-348308-622382-707334 11213
655.68-515216 15097-63413 40967-852363-323603
658.58-1435-474195-245105-436305-216035-48428
661.47-581403-482837 156287-406863-404132-194101
664.36-732044 213444-304978-70899-231300 780191
667.26 1591649-151414-102946-780318 301043-157767
670.15-265383-546545-296365-123182-776349-48729
673.04-424838-132869-386147-727014 54491-375853
675.93 256145-485164-78078-442110 373037-21503
678.83 333627 232406 277313 29783-395130-293781
681.72-171902-271155-948775 481995-496484-1242620
684.61-458116 158780-68966-27251-219560 411290
687.50-432345 346088 180221-62463 512737-77524
690.40 219047 273101-109739 490450-324805 130350
693.29-189190 668791 320178 265351 507360 167486
696.18 397274 338111 648506 186513-154677 724531
699.08 510961 278549 997961 707908 254767 453844
701.97-397550 590187 57331 91485 421340 15450
704.86-18516 535885 550827-27212 331802-6262
707.75 480499 81598-25821 368564 305687-70677
710.65-10097 244359 203309 441707 484495 615789
713.54 175672 160903 557005-17600 19777 228504
716.43 605341-130481 124420 740943 378168 30664
719.32 8315 356877 228615 85861 318190 164161
722.22 464625-9970-78844 274848 224871 338590
725.11 171254 251552 228688 493160 393726 645743
728.00 200215 27457 564294 250268 618066 181581
730.90 379443 727558 378269 417200 466120 84053
733.79 490798 243658 113174 253692 257535 411323
736.68-213271 430138 231029 517483 489838 37841
739.57 338831 877352 958953 1200659 1037349 266199
742.47-91417 347457 440752 381831 675071 649740
745.36 158000 284059 388587 562086 599096 602240
748.25 547963 746114 722809 518262 677175 971839
751.14 398786 958062 729521 594483 1045504 1102666
754.04 999256 1125884 1137476 950666 893345 1368711
756.93 1253949 1083521 1486461 1524411 1846567 1692913
759.82 2029579 2646636 2350918 2579002 3391806 2925518
762.72 3597045 4626527 4508540 5445102 5896066 6950733
765.61 7487732 8666396 9671627 10726643 12375591 13235061
768.50 14289382 15904393 17793772 19622506 21392092 23870220
771.39 25807155 28934342 31720907 34738975 38560757 41764290
774.29 46029638 50351011 54839114 59964119 65261743 70009707
777.18 75535596 81774021 87151036 93806023 99098256 105928469
780.07 111510233 118310877 124731293 132071843 137729099 144999833
782.96 151351885 157137441 161782520 166945464 171484761 178105573
785.86 184614649 192761207 194746866 194086110 190658962 189023789
788.75 188353359 190579129 191644639 194941364 198100395 203521914
791.64 211352406 228324791 256301208 304593142 385479776 501441482
794.54 649638242 772360005 570635024 333319183 241895877 207283454
797.43 199466513 193535396 195297121 194318044 197075025 197640802
800.32 198389923 197322722 196823210 194801630 193842216 192854737
803.21 191007545 184994170 179144280 173895940 170268013 164971393
806.11 160215344 153912124 147325821 139570418 131490667 123535340
809.00 116094083 107760272 101881122 94498545 88602957 81850722
811.89 75847949 69887727 64023582 57798047 53038053 47750851
814.78 43318927 38661514 35513495 31005719 28457736 24899529
817.68 22304005 19956456 17694990 16255568 14429213 12801253
820.57 12072336 11298455 10501764 9295689 9374420 8261289
823.46 8178014 7568967 7827722 7666048 7057752 6793479
826.36 6899897 6343570 6503931 5675374 6032577 5981722
829.25 5741423 5610802 5567429 5419623 5094961 5057120
832.14 5193917 4903482 5026308 4911174 4998757 4695801
835.03 4960762 4389185 5163334 4459665 4561017 4286653
837.93 4275684 3824080 3507814 3473390 3273137 3513113
840.82 2575382 2526502 2119073 1958906 2474088 1999873
843.71 2118556 1604954 1766565 1504386 1126339 1226641
846.60 1488257 1419811 1580713 1316519 1270687 1100489
849.50 704296 617446 1247038 1211746 925346 1166164
852.39 1147782 1177273 1030699 691679 925763 989979
855.28 982909 864163 1125968 839714 975308 1028739
858.18 1081538 843595 1028361 636905 925687 930979
861.07 953332 684102 1059755 1073354 940728 1261063
863.96 695892 1254487 1162406 1014669 887833 700522
866.85 1101440 1075095 987266 1018619 1302654 1233346
869.75 1086288 1515950 959451 1330649 1304111 959351
872.64 1431035 1061960 1370035 1248195 1190237 1316937
875.53 1034872 1188881 1380458 1088393 1429632 1480850
878.42 1229115 1205873 1063560 1342030 1535683 1441612
881.32 1347812 1015585 1105692 994445 1433390 1292820
884.21 1234924 1501197 1514923 1484934 1630157 1187204
887.10 1570577 1144581 1651412 1597544 1615291 1604712
889.99 1603347 1460735 1492485 1366530 1661543 1717078
892.89 1478660 1782700 1442987 1605573 1599023 1623887
895.78 1597073 1708825 1681279 1476016 1742463 1736129
898.67 1560095 1534047 1602778 1525654 1651167 1660399
901.57 1571212 1661489 1397682 1706312 1629106 1595522
904.46 1531726 1856244 1729383 1773092 1906815 1699827
907.35 1918253 1979880 1687320 1955911 1828939 2122101
910.24 1965178 2430093 2162165 2473739 2335922 2816755
913.14 2568463 2477235 2769772 2643382 2911759 3135777
916.03 3125690 2736607 2848425 3136766 2940254 3045753
918.92 2886881 2991705 3118967 3049870 3025181 3232555
921.81 3219927 3305189 3188142 3208084 3283825 3286958
924.71 3407161 3058268 3337387 3293066 3191505 3404663
927.60 3494847 3176079 3292092 2738865 2707799 2858763
930.49 2900952 3076220 3117957 2975574 2957047 2764224
933.39 2651580 2634855 2982948 2644118 2858958 2719950
936.28 2630227 2564812 2727649 2549991 2501492 2943456
939.17 3018775 2616658 2697285 2939853 2850548 2999811
942.06 2875970 3023820 3150781 2939493 3266868 3194347
944.96 3218635 3269379 3347414 3279179 3582055 3512425
947.85 3522021 3631796 3509873 3811094 3586790 3666038
950.74 3809257 3846522 4039352 3854481 4236113 4100461
953.63 4251730 4387924 4246540 4292947 4569688 4695244
956.53 4782276 4555874 4660909 4840199 4847538 4653282
959.42 4597637 4584996 5006826 5047761 4879970 4702763
962.31 4576077 4920323 4753613 4659876 4776340 4869347
965.21 5191705 4876862 5081141 4945830 5175396 5189594
968.10 4916623 5388083 5300520 5514293 5506615 5277339
970.99 5185889 5235962 5010838 4926849 5098122 4941202
973.88 5009081 5097009 4827335 4954175 4788023 4928828
976.78 5029682 5026336 4999835 5022082 4891429 4759992
979.67 4770947 4987550 4842542 4703675 4845144 4712129
982.56 5075467 4805909 5070671 5067298 4890995 4975060
985.45 4925481 4832635 4992174 4634676 5273969 4932351
988.35 5128807 5170986 5132256 5287648 5358713 5209667
991.24 5121771 5481039 5483600 5269360 5595040 5319767
994.13 5505052 5568610 5354278 5585429 5664711 5663513
997.03 5625865 5730446 5797644 5595202 5831003 5681762
999.92 5588178 5647966 5678022 5699554 5663380 5459913
1002.81 5303151 5460252 5168497 5400325 5176500 5442773
1005.70 5430151 5324017 5344497 5353889 5642748 5570911
1008.60 6018040 6287514 6535404 6830718 7285063 7759478
1011.49 8495086 9241274 9774823 10926503 12203622 13680850
1014.38 14889821 16444964 17792514 19494763 21347111 23107014
1017.27 24179050 24363499 24818845 24845571 24141092 23842882
1020.17 22508780 21551829 21103208 20940532 21077645 22889379
1023.06 28195360 34706509 32846252 22391824 20739264 21419977
1025.95 23115966 24941479 26622741 28089695 29160545 29969614
1028.85 29996368 29242713 29222370 28228311 26823428 25708412
1031.74 24472018 23832850 21803139 21384307 21114964 20242112
1034.63 19825946 19259739 19067048 18796368 19000830 18969663
1037.52 19053855 19028022 19308186 19477737 19927480 20469571
1040.42 21193345 21935386 22764741 23969614 25202545 25660357
1043.31 25957917 26605335 26898777 27968510 27537816 26895380
1046.20 26724968 26426532 27005625 27700767 27704133 28223965
1049.09 27862892 26885340 26599841 27046383 27368867 27428806
1051.99 26812791 26824000 26204087 25734193 25763736 25680681
1054.88 25508218 24891198 24574905 24006856 23707708 23389456
1057.77 22724046 22196859 22025643 21597638 20897842 20759228
1060.67 20439698 19907660 19751761 19338676 18922351 18586093
1063.56 18227312 17690288 17226022 16820510 16438455 15939922
1066.45 15512577 15190708 14625830 14458471 14283469 13936929
1069.34 13515870 13249815 13307210 12523750 12361123 12191608
1072.24 11746792 11377386 11388709 10971641 10872512 10831735
1075.13 10639620 10490348 10327028 10219230 9855203 9888254
1078.02 10071004 9745473 9804988 9486032 9859924 9944710
1080.91 9853193 10166035 9969738 10498766 10596252 10322425
1083.81 10527916 11055697 10996847 11308405 11718592 11760035
1086.70 12350349 12384157 12855929 13278762 13965031 14093813
1089.59 14761574 15213240 15842454 16374190 17092677 17702082
1092.49 18198944 18558155 18998545 19544686 19938990 20043598
1095.38 20428080 20777388 20800336 20934577 20749893 20922141
1098.27 20265401 19967396 19462796 19432340 19619644 20014454
1101.16 20535723 21147548 21960959 23562642 24583660 25403099
1104.06 26368167 27573138 28047994 29132312 29346784 30180442
1106.95 30884415 31378902 32017520 32720456 33415190 34339917
1109.84 35668424 36490132 37958528 39256276 40527930 41566894
1112.73 43387766 44520129 44926853 45558882 45744325 45356329
1115.63 44566360 43317036 41652214 39040389 36337428 33432419
1118.52 30900775 28942195 27823464 27275955 28115592 29698909
1121.41 31398968 33673490 35770222 37408482 38816829 39553064
1124.31 39713901 39769800 39661217 38837361 37587511 36314634
1127.20 34795198 33329584 31151049 29392559 27430124 25662960
1130.09 24134302 22650056 20930730 19696487 18578780 17172981
1132.98 16780367 15528402 14781771 13839269 13026083 12245398
1135.88 11668687 11080225 10403321 9993576 9097683 9169807
1138.77 8516287 8171957 7863060 7217485 7017595 7025053
1141.66 6437797 6245957 5800794 5571972 5436277 5383858
1144.55 5003060 5152731 4891007 4530334 4691905 4394119
1147.45 4368389 4210195 4218039 4126283 3976796 4031413
1150.34 3803523 3792253 3810035 3647109 4004412 3486234
1153.23 3604608 3582754 3665203 3402269 3827710 3586375
1156.13 3457026 3419436 3264619 3591735 3615194 3424283
1159.02 3544973 3459758 3504895 3292494 3367688 3463068
1161.91 3504006 3390442 3600321 3504181 3472095 3403679
1164.80 3544027 3541394 3274268 3722128 3600772 3826311
1167.70 3844008 3777735 3621083 3523473 3630353 3765176
1170.59 3712126 3684867 3596589 3797881 3756032 3645916
1173.48 3622878 3529651 3797436 4083293 3902415 3863674
1176.37 3772605 3669243 3738039 3903592 3932356 3621515
1179.27 3813764 3676940 3898430 3661593 3854732 3785926
1182.16 3694384 3784742 3633531 3441193 3651579 3595409
1185.05 3825871 3436423 3515493 3392832 3413386 3191431
1187.95 3292183 3188023 3178515 3225553 3306516 3054386
1190.84 3432305 3261253 3086188 3056811 3125403 2983965
1193.73 3180087 3082007 2979353 3062895 2920159 2965394
1196.62 2881762 2669605 2917185 2934484 2881807 2883858
1199.52 3021730 2876604 2967817 2977279 3231255 3282517
1202.41 3013671 3222537 3290827 3244308 3511655 3714381
1205.30 4047061 4137294 4486538 5118141 5076506 5576820
1208.19 6155145 6671755 7154851 7844226 8730638 9570014
1211.09 10349953 11227757 11735375 12793921 13223245 13893267
1213.98 14380443 14603598 14925208 14677525 14763867 14733172
1216.87 14390024 13892829 13335463 13195611 13897341 15129380
1219.77 16575190 17805214 17777430 15410634 13444751 13780569
1222.66 14597393 15999982 16948972 18076498 18789456 19131406
1225.55 19308287 19246256 18747124 18252040 17493660 16835855
1228.44 16245479 15714240 15396209 14818368 14750491 14556051
1231.34 14736790 14766070 14882927 14722249 15197437 15163285
1234.23 15120506 14857794 14711844 14263986 14185838 13818326
1237.12 13447085 13270905 13640057 13844972 14348053 14714528
1240.01 14863141 14541262 14134518 13711169 13639923 13349097
1242.91 13043443 13356445 13109271 12823729 12702370 12263917
1245.80 11699338 11148032 10358466 9870712 9009005 8587496
1248.69 7874106 7071303 6789233 6283441 5719710 5611545
1251.59 5272576 4896626 4572701 4749252 4471883 4459712
1254.48 4005228 4090226 3773413 4118637 3883080 3808169
1257.37 3531624 3692656 3717360 3723009 3434439 3293306
1260.26 3437966 3328185 3175190 3282755 3150937 3239538
1263.16 2937064 2812914 3181475 3311671 3413935 3235925
1266.05 3169747 3349800 3382629 3342763 3159709 3013024
1268.94 3219630 3292512 3108185 3126072 3058168 3071276
1271.83 2820111 2917369 2930814 2597453 2862976 2897477
1274.73 2706292 2696273 2781458 2473333 2714284 2560872
1277.62 2593776 2494492 2614762 2494511 2549480 2628153
1280.51 2355028 2653462 2480359 2418959 2672961 2518692
1283.41 2433603 2606316 2518459 2582756 2604668 2558032
1286.30 2545799 2555360 2800064 2617199 2640210 2486979
1289.19 2609055 2712168 2627100 2980682 2483688 2632984
1292.08 2640662 2752542 2863758 2737272 2743311 2825421
1294.98 2695045 2902308 2943425 2981319 2977655 3168177
1297.87 3132926 3079374 3089760 3340305 3108462 3250106
1300.76 3520136 3813247 3574096 3658968 3852071 3937410
1303.65 3972204 4230004 4343985 4722856 5010068 4530472
1306.55 4417776 4713923 4767787 4771242 5005673 4794274
1309.44 5150975 5270809 5351816 5400233 5460480 5520892
1312.33 5597463 5566194 5490928 5416512 5469977 5395735
1315.23 5184497 5421973 5245808 5287699 5356005 5377769
1318.12 5540686 5726711 5824260 6283500 6298993 6425578
1321.01 6234135 6559381 6539428 6799858 6530287 6720084
1323.90 6811348 6536444 6504687 6455195 6643867 6799899
1326.80 6809043 6806021 6868053 6887042 6908870 7071892
1329.69 6829430 6917058 7135679 7107723 7277577 7335327
1332.58 7021095 7216214 7283102 7198690 7162036 7385827
1335.47 7542427 7626983 7643827 7912490 8191547 8011855
1338.37 8268595 8778893 8851579 9087422 9163534 9647814
1341.26 9984648 9913276 10509998 10710789 10437061 10202099
1344.15 9902362 9772113 9663427 9504429 9439589 9656079
1347.05 9276359 9401512 8736614 9266774 9162203 9111955
1349.94 9152970 9181259 8924650 9195404 8870130 8965911
1352.83 9530540 9723723 9714329 9694779 10126812 8828406
1355.72 9811364 9665130 9431791 8673586 9302870 9170420
1358.62 8988800 8596817 8506254 8546033 8764284 8831400
1361.51 8937175 8551302 9146426 8955324 9251208 9106209
1364.40 9111045 9617993 9880107 9703106 9751304 9935521
1367.29 10202495 10039720 10335673 10240868 10489665 10266546
1370.19 10607388 10655684 10859015 11241368 11603412 12044417
1373.08 12428606 12967614 13392490 14142572 14915566 15738694
1375.97 16418903 17257148 18327783 19190163 20126262 20978949
1378.87 21549723 21764524 22110426 22057011 22318348 22456236
1381.76 22732320 23965476 26426165 29997752 26355779 23294151
1384.65 23580096 24191601 25385186 26475372 27373588 27629741
1387.54 28463356 28208673 28581689 28393727 28414562 27766759
1390.44 27027529 26247035 25716242 24957974 24098275 22768956
1393.33 22164072 20711257 20181489 19814122 19204452 18952703
1396.22 18611120 18232797 17994607 17788647 17683964 17410999
1399.11 17398708 17271137 17418674 17222236 17635737 17778813
1402.01 17975283 18118112 18471863 18468180 18744974 18762377
1404.90 19117351 19391210 19689716 20110282 20574631 20851073
1407.79 21039272 21323524 21821127 21764101 22397576 22909215
1410.69 22841687 23128970 23327625 24079787 24091966 24782727
1413.58 25343407 25800605 25731826 25671157 26299384 26613644
1416.47 27381355 27732961 28621595 29309337 29855230 29750174
1419.36 30968205 31977554 32472250 33242079 33591433 34498794
1422.26 35366458 35976915 36394893 36865736 37667121 37784399
1425.15 38270691 38924244 39286269 39654244 40222315 40076631
1428.04 39782343 39775651 39384529 39176181 39343665 39659265
1430.93 40316353 40403393 40185836 39860642 39715668 39963226
1433.83 40094239 40314588 40064348 39929996 39961123 39483302
1436.72 40261740 40268043 40224774 40032067 39961384 39780577
1439.61 39607764 39109143 39126008 38694360 38081546 37436878
1442.51 36225300 35154453 34167164 33666496 33115022 32412357
1445.40 32065276 31750521 31439572 30984046 31199192 31491396
1448.29 31729565 32357313 32569455 33212404 33938388 34706953
1451.18 35703592 36085185 37227918 37852239 38221891 38189239
1454.08 38065104 37740216 37573417 37047910 35678372 34564085
1456.97 35055132 34243249 34219942 34557024 34571603 34844256
1459.86 35215005 35659634 36064463 36808698 37791133 38986460
1462.75 40382598 41455127 42702038 43194188 44050229 45598906
1465.65 46411424 47440282 48435786 49505396 50749517 51493066
1468.54 51961609 52584837 52936064 52781653 52091624 51150682
1471.43 49809176 49016288 48345346 46493293 45670538 45087686
1474.33 44079021 43339067 42001323 40916337 40609437 40037667
1477.22 39525976 39200515 39064347 39243134 39465186 40155214
1480.11 40529247 40677481 41187642 41977602 42771968 43775893
1483.00 44210781 44910746 45674302 45952164 45922984 45665878
1485.90 45547224 45694892 45525858 45389736 45233928 44946091
1488.79 45000643 44688511 44763123 44465897 44468782 44723825
1491.68 44695769 44925980 45310285 46162319 47408560 48925972
1494.57 50259174 51035382 51086286 51652990 53190937 53640792
1497.47 55146274 56514440 57562906 58581813 59313248 59912689
1500.36 60312057 60663411 60975232 61307659 61763479 62497013
1503.25 63240183 64341690 66188326 68498370 70951515 75486757
1506.15 79371188 84091346 91405286 98466403 106210268 115840405
1509.04 126284679 137644238 150359820 163891619 178397041 193121326
1511.93 207526754 222383444 235294663 246585191 255767071 261882742
1514.82 263106044 260064568 253823809 247211344 240322594 235297657
1517.72 235450553 242839935 260098156 280851959 293641972 291629448
1520.61 269301590 244146769 227903748 222235315 229009381 239033540
1523.50 249217294 257935645 264221347 266186503 264601304 254511469
1526.39 240940358 225436672 208877875 191406314 174351390 158052572
1529.29 142727611 128254977 115486070 103452028 92541371 83095427
1532.18 74667638 67141111 60795394 55089810 50820223 46343689
1535.07 42852497 39522985 36968050 34712501 32619002 30758992
1537.97 29526266 26918529 26539129 25516959 24324384 24289162
1540.86 23755452 22290173 21437934 21717425 20745331 20294925
1543.75 19726396 19224829 18285540 18474067 18194189 17935888
1546.64 17631412 17203560 17002426 16860640 16827066 16560243
1549.54 16542370 16538676 16313105 16312560 16107664 15750762
1552.43 15709487 15295595 15165909 14149420 14753692 14522359
1555.32 14055335 13690385 13907400 13026491 13116072 12494925
1558.21 11959411 13043915 12458690 11593665 11994247 12443200
1561.11 12015033 11991464 11642605 11695767 11523787 11555611
1564.00 10998110 10952071 10772547 10769578 10573211 10528838
1566.89 10377161 10120428 9950976 9799918 9547951 9097630
1569.79 9263224 9274989 8931134 8965119 8577560 8677559
1572.68 8331457 8344226 8131704 8163876 7671538 7767660
1575.57 6068458 6851335 7382058 7039755 6949359 6734143
1578.46 6611114 6828418 6610318 6586836 6639260 6372964
1581.36 6470794 6063497 6193174 6363787 6034379 6082730
1584.25 5824053 5907972 5905597 5694456 5489301 5573246
1587.14 5628574 5510767 5510166 5258215 5405117 5416093
1590.03 5363039 5417880 5380172 5528728 5721623 5977544
1592.93 5749299 5962550 5762181 5791278 5899032 5758557
1595.82 6081594 5863989 5901603 5831254 6140600 6161418
1598.71 6005993 6205009 6319229 6165615 6213106 6453613
1601.61 6310278 6493872 6564180 6791615 6952458 7152781
1604.50 7147997 7346799 7482750 7720368 7829521 8090312
1607.39 8367454 8584583 8923529 9218030 9297986 9713095
1610.28 9709468 10114852 10507566 10869718 11165448 11567262
1613.18 12141564 12684067 12969695 13414434 13846169 14632750
1616.07 13643091 14722601 16087967 16293121 16935252 17322488
1618.96 17740733 18191937 18407382 18381872 18764498 18667587
1621.85 18684080 18640748 18351953 17825152 18287039 17565203
1624.75 17096980 16564007 16177359 15822561 15614214 15394203
1627.64 15596039 15912913 16500756 16951033 17090765 17194033
1630.53 17501734 17251260 17528739 17280702 16673545 16420542
1633.43 15759765 14949834 14279492 12955837 12431234 12558161
1636.32 11601920 11065672 10265404 10131002 9664987 8893110
1639.21 8484544 8025312 7735128 7223886 7066444 6684745
1642.10 6261050 6085689 5641857 5247941 5019024 4868502
1645.00 4371973 3476229 3981813 4009723 3485561 3476824
1647.89 3187497 3366236 3461248 3099646 2972966 2853021
1650.78 2676605 2860607 1073276 1763946 1084739 1929225
1653.67 2254702 1873045 2618173 2245033 2353270 2138316
1656.57 2387203 2159403 2362440 2092377 2241368 1975598
1659.46 1965347 1901398 2106530 1806301 2277960 2108357
1662.35 1773241 2026787 2076612 2052929 2129366 2099858
1665.25 2064016 1989213 1915655 1833498 1897301 1560205
1668.14 1740119 1224608 1258767 1650636 1601871 1630106
1671.03 1349708 1344123 1714086 1609300 1674081 1680649
1673.92 1600026 1113358 860820 1289358 1564268 1406345
1676.82 1358346 1303214 1343830 1200883 1120970 1250192
1679.71 927324 1079653 1058408 1300293 1140905 1065385
1682.60 750423 751719 1086059 85077-280326 1102431
1685.49 891359 1145797 924369 1198290 1053721 1071065
1688.39 1026388 1092629 883963 958152 1087629 1043074
1691.28 887164 1148187 888249 1104318 765654 1088758
1694.17 818889 987895-68960-315972 977348 845235
1697.07 1106675 894940 924775 975378 469309-102028
1699.96 242049 422462 973024 865692 841389 898543
1702.85 859149 1012675 559414 928142 1002752 857098
1705.74 784652 690078 905504 949286 986442 1094606
1708.64 1223255 1072895 948096 1156956 1196352 1060046
1711.53 1260630 1294647 1497351 1473650 1447485 1611347
1714.42 1531087 1471148 1990232 1826784 2193848 1120699
1717.31 2012998 2492699 2401346 3073924 2936480 3153623
1720.21 3206576 3355690 3337073 3306137 3212699 3408835
1723.10 3076937 3112557 3111124 3058794 3048149 3018511
1725.99 3118844 3310351 3267773 3374698 3238674 3147443
1728.89 3149683 3112869 3114082 3154414 3025593 3107692
1731.78 2957262 3134219 1962983 2331161 2379516 1657200
1734.67 2572656 2401319 2532057 2375188 2749822 2369308
1737.56 2549408 2473405 2497477 2405514 2239267 2607583
1740.46 2627003 2792907 2676926 2775262 2958614 3013323
1743.35 3213815 3089907 3364539 3159422 3255952 3266743
1746.24 3309728 3248761 3722709 3470220 3377486 3613290
1749.13 3671135 3635975 3683703 3358997 3345310 4046767
1752.03 3906288 3933556 3794757 3825345 3709326 3799112
1754.92 3750906 3836421 3812021 3454915 3545107 3748478
1757.81 3660918 3592270 3465878 3556711 3629228 3504732
1760.71 3474098 2856121 2963624 3340818 3121789 2966903
1763.60 3100925 3186569 3249668 3238625 3096862 3056981
1766.49 2844566 3160644 2900950 2953110 3385239 3155779
1769.38 3350385 3291787 3391557 3223029 3861035 3507687
1772.28 3091182 4120236 4228227 4313504 4625980 4897971
1775.17 5066589 5379482 5683217 6055811 6445694 6889886
1778.06 7427567 7888960 8427128 9122350 9586787 10200263
1780.95 10893340 11440076 11908286 12227956 12675247 12855086
1783.85 13075906 12746578 12641800 12596483 12330666 12147366
1786.74 11869630 11652299 11481666 11461588 11895491 12331234
1789.63 13253701 13733942 13392412 12851051 12341750 11299040
1792.53 11743216 11918590 11748987 11570672 11189836 11047518
1795.42 10419864 9961689 9531244 8694744 7976928 7212149
1798.31 6630204 5797634 5226803 4803897 4229752 3572292
1801.20 3426645 3236191 2879141 2670689 2445890 2236809
1804.10 2138902 1934972 1730555 1744908 1661766 1578544
1806.99 1614106 1459004 1263858 1326066 1182811 1229584
1809.88 1124546 951864 1023084 972384 1054594 1062067
1812.77 984864 831797 859319 1051761 995243 988313
1815.67 1103727 934852 870280 995913 955834 948058
1818.56 970099 869581 1085796 1053764 1115549 1125280
1821.45 1204496 1140562 1257924 1320270 1425684 1364651
1824.35 1392723 1316128 1729088 1730621 1767246 1940195
1827.24 2007282 2252200 2264287 2298220 2649366 2642043
1830.13 2884925 3059807 3091059 3329150 3513102 3600000
1833.02 3672889 3883831 3631098 3748115 3833468 3891647
1835.92 4024229 4085069 4285330 4180773 4329305 4291020
1838.81 4273617 4199873 4299579 4431629 4543970 4486489
1841.70 4464487 4544429 4598260 4492777 3886150 4250637
1844.59 4350843 4010752 4193410 4050191 3831112 3670663
1847.49 3556024 3511957 3201977 3151062 3063894 3109167
1850.38 2918240 2736294 2585805 2594480 2611739 2490067
1853.27 2554777 2446689 2442053 2439220 2288937 2432028
1856.17 2313506 2281135 2203075 2419346 2260236 2361492
1859.06 2424377 2451076 2485191 2602000 2611629 2666448
1861.95 2768209 2992992 3238778 3375212 3512789 3694786
1864.84 3772814 4131828 4273349 4390349 4764788 4899165
1867.74 5161977 5664944 5634754 6107038 6753211 6805633
1870.63 7221517 7763870 8043167 8468905 8989900 9428729
1873.52 10119438 10524705 11046680 11638383 12208612 12702124
1876.41 13454921 14266491 15093904 15929613 16668792 17652945
1879.31 18343071 19232980 20002328 20747016 21750394 22362803
1882.20 23091060 23200964 23584385 23532222 23320639 23058964
1885.09 22487013 21851153 21238362 20286361 19212413 18401923
1887.99 17502597 17031265 16953877 17059821 18036500 19042043
1890.88 20147687 21567917 22651352 23759257 24072870 24367366
1893.77 24079423 23718032 23137336 22068819 21144007 19892809
1896.66 18956106 18184397 16974211 16248351 15285172 14115754
1899.56 13059866 12249632 11465890 10832385 10223152 9617316
1902.45 9318160 8811801 8112586 7655960 7140409 6842933
1905.34 6525195 6138920 5965970 5534544 5361210 4970072
1908.23 4747018 4322429 4170246 3804380 3819338 3701441
1911.13 3593288 3402915 3286156 3276300 3131908 2969719
1914.02 2792374 2849160 2947270 2707259 2746925 2639520
1916.91 2579443 2351729 2495380 2600734 2543621 2472829
1919.81 2568594 2664992 2546165 2527512 2500072 2566670
1922.70 2436429 2468998 2415472 2489325 2458066 2265963
1925.59 2261049 2209313 2307349 2169337 2286390 2107287
1928.48 2151339 2088703 2058061 2079047 2046617 2091722
1931.38 1912876 1987376 1926150 1788449 1683596 1636721
1934.27 1617857 1639117 1523872 1343748 1357729 1131999
1937.16 1205952 1018691 996686 969800 924686 876990
1940.05 916749 916660 932561 833567 675207 940574
1942.95 867657 866050 860547 963536 806012 806616
1945.84 945320 749746 894551 799522 911793 964865
1948.73 1002077 1005383 986641 1102548 1026343 1059333
1951.63 1013840 1073352 1096771 1216868 1325285 1236331
1954.52 1359752 1201737 1396689 1539473 1489431 1437314
1957.41 1573835 1371871 1033840 1091426 1028908 1042098
1960.30 1078718 852694 1092732 1047822 849962 1006447
1963.20 994374 922531 1297292 1008498 1069758 1085522
1966.09 1026102 1034371 1163402 971273 1082452 1209314
1968.98 1024948 1115506 1098157 1074339 1177883 1192275
1971.87 1250788 1062551 1221132 1343801 1608265 1451164
1974.77 1087686 1157133 1278567 1235812 1405709 1356198
1977.66 1343810 1336753 1220485 1443727 1413881 1449738
1980.55 1575925 1622876 1457412 1409482 1515362 1551168
1983.45 1446648 1331501 1270370 1457431 1401228 1505658
1986.34 1589347 1388193 1562279 1540181 1308859 1366250
1989.23 1420225 1373006 1406379 1264490 1270585 1289938
1992.12 1230622 1244085 1218679 1359173 1206063 1375349
1995.02 1410945 1263928 1242779 1414209 1278968 1210054
1997.91 1147614 1049625 1138733 1175119 1089791 1030370
2000.80 1069004 932229 1081890 1120897 1021221 1040150
2003.69 961233 1094908 1016636 903865 989884 1003798
2006.59 1080370 733164 439310 1147380 950271 888170
2009.48 687074 935257 848562 786238 799309 768318
2012.37 644655 647764 688990 722708 651730 619310
2015.27 699383 551175 476609 371645 510953 492109
2018.16 405969 562863 390199 469396 246572 430831
2021.05 356716 218843 331025 137257 220713 251214
2023.94 325642 285349 300100 304454 523498 344621
2026.84 462918 217885 389557 425320 207797 352559
2029.73 213089 224368 302748 349098 277084 372274
2032.62 375691 467427 395805 370320 221715 519830
2035.51 319258 264281 188693 239192 159786 255377
2038.41 294092 390289 357751 258151 347700 288793
2041.30 444479 398839 433025 296559 338235 411985
2044.19 366055 397796 265109 243516 352445 185225
2047.09 143148 101093 214918 121897 268648 208269
2049.98 205935 282423 154205 229741 150121 96776
2052.87-32399 91003 35019 38100 70667-86713
2055.76-67475-5426-85675-82900 18858-24718
2058.66 18586-32962-106231-217238-117450-209006
2061.55-39751-34114-108788-327235-124908 59981
2064.44-275483-50412-85228-53622-167961-159289
2067.33-49801-215757 18637-99708-53913-133069
2070.23-103409 57526-48877-173571 56805 187740
2073.12 107996 45927-24887-64390 119405 30845
2076.01 1634-3949 399723 242462 56970 100563
2078.91-113310 67701 66881 88304 1238 477683
2081.80 398371 208773 356192 109508 340789 102820
2084.69 325282 174125 872857 703633 188038 430447
2087.58 290952 388859 400672 569372 529275 1255524
2090.48 817669 512719 780127 657017 901449 753520
2093.37 933589 1087155 2168948 1270727 1399311 1572669
2096.26 1623980 1569857 1671113 1599022 2137294 3060989
2099.15 1763520 1933833 1705916 1862574 1684652 2076956
2102.05 1818051 2758395 3048542 1943959 2382563 1975261
2104.94 2152420 1967526 2027201 1823531 3359340 2333460
2107.83 2026321 1903485 2079906 1962266 1878628 1568853
2110.73 2341905 2747364 1068910 1433698 891174 1078929
2113.62 800267 729818 524075 2183405 753977 473605
2116.51 222323 341007 127961 244397 34786 942657
2119.40 1186891-308639 186579 49189 108385-24401
2122.30 189992 207804 1542320-76810 25394-191595
2125.19-97332-234955 16591-154639 1231494-52939
2128.08-121793-232730-140182-239981-11699-259217
2130.97 718646 248867-309627-48125-67236-268686
2133.87-157844-251083 313670 321927-232703-82290
2136.76-179563-190652-369312-143205-38780 90657
2139.65-263975-216420-349284-288128-274937-160756
2142.55-79986-81534-133052-244494-154907-109683
2145.44-124833-175401 128418 98972-382185-114895
2148.33-230338-283057-238463-284922 546148 84796
2151.22-284351-40403-356647 44600-112982 10686
2154.12 894066-33302-238993-85123-54295 120203
2157.01-224877 543710 1035514-340208 105129-45234
2159.90-64194 11926-34330 1368284 646532-260414
2162.79 158971-173575 196918-56105 512711 1666565
2165.69-18548 172202 26997 38655 280006-29550
2168.58 1638356 856727-220077 259258-254085 356628
2171.47-192611 1072356 1419946-70839 224790 41979
2174.37 262228 61539 396493 1829151 309220-42275
2177.26 244071 151218 107837 96169 1738088 490163
2180.15-101330 273681-127611 107184-222802 1080122
2183.04 771218-218982 235351-325859 183174-199750
2185.94 1147511 688562-131617 103178-164706 350851
2188.83-310747 756041 700016-126737 131434-427796
2191.72 123632-246953 879556 504003-221371 2687
2194.61-65110 166316-47486 725868 298083-39749
2197.51 193548 188182 119567 204103 1012331 378264
2200.40 407664 478797 418348 459162 973719 1145569
2203.29 495616 751235 679241 825112 649221 1149847
2206.19 875806 631741 933457 873490 799986 819322
2209.08 1132407 642442 658827 778777 817688 711099
2211.97 1095991 1014460 783773 942294 894446 825321
2214.86 876687 874196 900603 834252 382323 617496
2217.76 487013 472181 335194 261750 244018 144670
2220.65 262296 296465 205493-24588 140649 163520
2223.54 103895 27137 21585 213418 21537-45003
2226.43 29743 42919 24524-52652-12692 47851
2229.33-124798-106825 63918-88994-65273 14955
2232.22-25480-11342 34468 82974-214686-3789
2235.11-50032-151043-114700 61378-36440 63565
2238.01-2072-28394-50855-119724-27391-37393
2240.90-163164-100035-243496-278542-192712-125548
2243.79-244914-2801-121637-118809-187710-130797
2246.68-195705-257604-191584-117604-316635-149953
2249.58-192052-258043-138414-43760-207199-142517
2252.47-228563-211283-253272-87560-280349-219514
2255.36-216408-183067-241354 4497-153708-86670
2258.25-99354 83179-109057 27084-7071 63454
2261.15 31980 7197-45644 83246-71778 117133
2264.04 154924 21781-68841-18418 282129 164196
2266.93 70419 198015 178470 353644 408432 291133
2269.83 194378 365638 298951 440367 285142 423189
2272.72 416788 342868 405288 579926 442055 562827
2275.61 541456 437457 525861 631131 569595 612974
2278.50 582098 851161 657349 707810 611958 745165
2281.40 620067 739646 670149 720248 652454 754311
2284.29 652013 628063 809921 848470 865941 973721
2287.18 858868 836670 969191 1081062 1014725 1027209
2290.07 1023045 1021278 1238468 1238349 1300312 1352459
2292.97 1278253 1542641 1670004 1501555 1759870 1907483
2295.86 1863871 1923137 1950429 2287161 2318298 2372302
2298.75 2234291 2694681 2735950 2589547 2560099 2778451
2301.65 2635197 2764781 2350757 2514287 2441993 2478419
2304.54 2140538 2075051 1908277 1836198 2267699 2020629
2307.43 2060751 2408654 2642054 2443237 2557471 2631931
2310.32 2930269 3066990 2757611 3047135 2705552 3090697
2313.22 2552796 2594779 2270822 2889954 2119292 2231995
2316.11 1665601 2802937 2186613 1984191 1457589 2500376
2319.00 1929072 1430199 1319995 2147958 1888194 1424266
2321.89 1275159 2243525 1935936 1208765 1328234 2378765
2324.79 2105876 1175438 1473231 2600127 2252246 1255553
2327.68 1668406 3051075 2139242 1134405 2218379 3172833
2330.57 2014506 1235626 2907996 3507317 2021262 1836396
2333.47 3630540 3322758 1692461 2465906 4061980 2950467
2336.36 1923372 3404865 3969995 2071565 2194468 3841348
2339.25 3092849 1741888 3096539 3996899 2381400 2473064
2342.14 4004327 3103498 2353027 3391983 3442768 2330388
2345.04 2656468 3189137 2369797 2165486 2537332 2242507
2347.93 2208225 1900212 1839498 2042417 2014402 1785223
2350.82 2087125 2056680 1375691 2376433 1908736 994518
2353.71 2168773 2244385 734164 2081070 2262419 466245
2356.61 2485269 2354588 407399 2745402 2072799 207612
2359.50 2971743 1723542 679641 3012307 739804 992121
2362.39 2955042 156926 1984695 2120892 96170 2714031
2365.29 957683 819269 2291797 135010 2018250 1049934
2368.18 444076 2033863 123205 1595098 732469 669496
2371.07 1613072 16014 1384834 80117 1011665 651160
2373.96 535670 757786 453923 965801 372035 753220
2376.86 331317 746427 411802 715433 394789 654980
2379.75 405190 710642 467720 489669 414583 418449
2382.64 531891 362065 530177 580105 621388 370289
2385.53 440564 437079 527234 402875 655575 546769
2388.43 596257 618372 617731 607345 514890 618838
2391.32 593035 571405 579861 600366 642296 764967
2394.21 647924 562879 703330 711249 633298 658276
2397.11 542509 636907 724334 654324 743668 913131
2400.00 741701 808141 926867 1003920 1007301 1046007
2402.89 1067680 1073234 1097307 1111780 1040296 1012930
2405.78 1194690 1160745 1315078 1252671 1438636 1372102
2408.68 1268842 1408891 1465290 1454182 1384618 1350611
2411.57 1467648 1410405 1354762 1383945 1345999 1567935
2414.46 1555296 1668749 1730782 1508459 1647042 1670471
2417.35 1812661 1696772 1736499 1634593 1754255 1597406
2420.25 1743936 1754346 1721008 1463666 1652121 1664911
2423.14 1750453 1660566 1676274 1579998 1672246 1747187
2426.03 1531539 1609017 1662324 1751199 1659125 1703409
2428.93 1604238 1704302 1623616 1610943 1625050 1588337
2431.82 1480879 1315157 1473732 1662304 1463179 1585716
2434.71 1446830 1354997 1503355 1591271 1360823 1628310
2437.60 1401379 1500842 1495443 1476091 1582079 1387516
2440.50 1249226 1274080 1506970 1134212 1357762 1269920
2443.39 1200542 1064402 1194942 1359733 1106490 1019988
2446.28 980440 1044237 1091978 871816 1033666 1050009
2449.17 1001756 961014 1143998 788406 822993 984896
2452.07 999976 901773 913680 984159 791851 783178
2454.96 969001 804708 785984 799592 869030 854899
2457.85 758015 820451 774017 856987 730830 950959
2460.75 874602 900367 896298 895535 730019 773883
2463.64 672481 864663 708698 946219 765042 818031
2466.53 1007552 962703 891176 800371 758078 924883
2469.42 928459 913515 824339 987952 868102 784168
2472.32 904431 873380 829430 967966 1097776 917747
2475.21 809217 982950 1133381 1065937 966251 885178
2478.10 888827 827020 1145416 753180 939727 802575
2480.99 1027770 932804 695269 902570 820346 842475
2483.89 839289 926632 791437 943920 977462 648117
2486.78 792282 704445 907611 944026 759636 865425
2489.67 780248 773309 747213 782262 925890 773527
2492.57 734359 677713 954163 735884 903838 748458
2495.46 741044 562237 705270 759561 704553 749951
2498.35 745868 706142 481809 638177 583929 635711
2501.24 389859 608916 412082 561772 617702 479937
2504.14 522275 503929 529763 556939 381693 630625
2507.03 475422 454901 426246 290941 528795 500717
2509.92 286580 480737 320960 318510 440267 356068
2512.81 433714 459375 271513 325905 336943 294373
2515.71 443362 334846 428279 311581 371047 225640
2518.60 366432 291265 427771 258160 191041 454036
2521.49 190546 356410 451929 438420 326568 338425
2524.39 353522 383415 353668 322975 386494 322610
2527.28 340010 439777 237839 222471 330640 365269
2530.17 250858 331092 379894 319125 201920 221058
2533.06 350100 81388 223987 121210 364108 328142
2535.96 337504 125923 135698 469207 301222 210540
2538.85 318871 195766 385933 449708 357383 371636
2541.74 114209 85472 304788 225423 137539 116430
2544.63 213893 35377-20668-18035-3526 58620
2547.53 89267 107237-31729 19861 14783-76593
2550.42-85631-101633-61922-207132-12252-131454
2553.31-91877-304449-135383-187593-80352-350934
2556.21-335552-132651-289564-158226-267095-225946
2559.10-132696-104167 147935-161669-155352-70785
2561.99-268105-62483-160296-79105-166194 59421
2564.88-108719-176211-152906-28447 23019-137752
2567.78 12581 53760-18425 128733-5867 100729
2570.67 231710 178831 243454 260693 267735 400111
2573.56 393893 456191 626033 750725 669024 790042
2576.45 933605 1177714 1321790 1248795 1338437 1502340
2579.35 1542781 1963634 2114461 1954793 2111438 2322463
2582.24 2482983 2611288 2634295 2645881 2812025 2818181
2585.13 2975584 3053362 3092386 3251283 3210803 3274111
2588.03 3279858 3414433 3237127 3770944 3643323 3601331
2590.92 3733391 3810155 3809393 3942644 3805239 4211375
2593.81 3935264 3857710 4018107 3725914 3689033 3679136
2596.70 3528924 3162172 3211067 3165074 2997219 2711126
2599.60 2626734 2275693 2274808 2160756 2205587 1969244
2602.49 1869064 1933398 2109548 1962034 1732569 1662592
2605.38 1872291 1864445 1973264 1816106 2048732 1937873
2608.27 1846973 1609541 1541276 1471280 1458330 1416122
2611.17 1304177 1267588 1069253 1097487 1004497 984913
2614.06 956864 758029 778744 747549 812991 582690
2616.95 544743 785199 721941 603750 391150 636174
2619.85 535801 504742 466836 237821 441485 392273
2622.74 264183 193235 260286 242294 311399 181042
2625.63 22345 215744-47338-76632 295001-43306
2628.52 128728-1401 15266 206888 223684 285319
2631.42 177544 27897 139920 250265 229274 330238
2634.31 306121 193970 360986 401608 220190 435913
2637.20 272816 165268 329701 459070 284695 459270
2640.09 526859 355620 497989 513779 472438 314309
2642.99 318430 394505 439908 497001 339729 114803
2645.88 133450 533729 258472 174126 296228 320243
2648.77 358957 119064 481902 294333 316400 183005
2651.67 122858 353314-116545 120360 40661 93320
2654.56 75994-178227-59727 1839-196405 51177
2657.45-110790-96682-438229-83028 78191-129465
2660.34-185989-123671-287594-126807-29962-168120
2663.24-76302 28568-223528-112780-150168-53357
2666.13-148010-148922-239329-144224 7049-187410
2669.02-153304-14999-159044-214791-167858-59480
2671.91-134894-53930-102696-262752-237207-113898
2674.81-127075-148395-403583-221401-188712-159200
2677.70-281819-153687-100872-78718-142020-180377
2680.59-126293-115526-79788-311080-62281-27491
2683.49 66853-65731 73372-120762-305435-174975
2686.38-38746-5846-109774 55717-266615 133353
2689.27-71920 195138-50972 123234 127710 217095
2692.16 121427 84388 243144 83156 482505 332331
2695.06 348712 206578 414586 303007 237372 356198
2697.95 444191 423620 537686 566280 496887 678693
2700.84 840083 978757 958611 964346 1044792 1035120
2703.73 1061350 1010405 1151183 1170558 1225403 1482946
2706.63 1450647 1490860 1503478 1582134 1573243 1714768
2709.52 1562747 1669064 1658076 1800335 1903428 1829335
2712.41 1964322 2065150 1845603 1954652 1939110 2031252
2715.31 2021858 2123967 1902270 2048185 2055695 2124572
2718.20 2133495 2234746 2048625 2380853 2504283 2373942
2721.09 2372963 2207483 2557139 2419629 2585715 2586921
2723.98 2647794 2805763 2878823 2655093 2876665 2869112
2726.88 3318759 3167599 3384274 3618078 3922046 4012262
2729.77 4531315 4908497 5491046 5897511 6335209 6908209
2732.66 7823154 8435622 8965679 9518351 10650253 11320424
2735.55 12106898 12783479 13869747 14202820 15043035 15529857
2738.45 15661299 15891125 15931758 15936421 15752042 15671435
2741.34 15468189 15690153 15938047 17060213 19145230 20607607
2744.23 19518994 16844320 15612725 15463502 16139222 16683212
2747.12 17640934 17943230 18489206 18272744 17616380 17071623
2750.02 16183577 15092497 13834891 12473689 11188448 9804560
2752.91 8601246 7902776 6705391 6079952 5251596 4915598
2755.80 4413812 3949005 3575066 3427582 3025487 2774952
2758.70 2496176 2234382 2055809 2059645 1898800 1811402
2761.59 1854935 1623635 1639120 1475594 1335860 1170012
2764.48 1267541 1281927 1492428 1106858 1362104 1238931
2767.37 1257090 1124334 1052149 1270069 1305604 1108796
2770.27 749958 1143710 948347 1260978 1267626 1155952
2773.16 1228381 1124995 1109555 1006494 1219900 1266389
2776.05 1151354 1097099 1281841 1190843 1458507 1170649
2778.94 1239549 1419991 1260196 1158269 1325152 1364612
2781.84 1463602 1229520 1230208 1230001 1454165 1560981
2784.73 1454459 1462139 1580262 1572825 1683136 1656648
2787.62 1876614 1755756 1718550 1552308 1752733 1960782
2790.52 1903372 2080044 1948805 2006858 2033957 2231255
2793.41 2369398 2038094 2404478 2431582 2482342 2483608
2796.30 2672363 2517091 2720941 2786621 2984777 3047187
2799.19 2778161 2994305 3011534 3141812 3473421 3330690
2802.09 3589827 3407380 3650111 3711011 3584608 3782072
2804.98 3822127 3795034 3851351 4084789 4181452 4057151
2807.87 4016710 3819466 4245828 4369286 4373501 4573508
2810.76 4520102 4865104 4798251 4941374 4905642 5167766
2813.66 5013673 5258193 5287987 5703609 5751794 5827828
2816.55 6008119 6128240 6041386 6261063 6497893 6577987
2819.44 6807452 6640009 7047823 7164755 7377744 7357247
2822.34 7678789 8004299 7950625 8172369 8228362 8227410
2825.23 8655096 9016080 9077155 9357772 9494140 9672040
2828.12 9983393 10050602 10337373 10728219 10742450 11027872
2831.01 11309299 11385605 11849183 11987673 12180694 12793861
2833.91 12773495 13112421 13290877 13315262 13504693 13727946
2836.80 13992931 13857261 14255706 14339904 14627670 14637579
2839.69 15012957 15430397 15833784 15965029 16409744 16866440
2842.58 17092244 17404028 17840185 17985003 18509595 19185153
2845.48 19290860 19724233 19914254 20049164 20547751 20807296
2848.37 21316083 21081890 22121419 22989870 22955725 23629248
2851.26 24515208 25038897 25673533 26800248 27549777 28833636
2854.16 29563441 30635699 32221181 33511729 34887973 36537128
2857.05 38094460 39487470 41375728 43605204 45487486 47454653
2859.94 49741120 52259237 54860925 57706817 60396424 63828250
2862.83 66964473 70408890 74481410 77819456 81942953 86224199
2865.73 90208603 94339564 98896978 103072551 107479485 111645457
2868.62 115963916 119966717 123937394 128162096 131905464 135549754
2871.51 139198198 142333244 145986035 149363523 152012594 155480702
2874.40 157877969 160928509 163218826 165213937 167734257 169249435
2877.30 170796171 171823162 172790106 173579840 174187645 174330378
2880.19 174888359 174680596 174441313 174386082 173490994 172979661
2883.08 171642048 170720373 169624531 168361589 167052383 165128296
2885.98 163367535 161373617 159626663 157543301 155221383 153390029
2888.87 151291137 149029281 147522418 145862310 143835748 142429504
2891.76 140842953 139229516 138191324 136521091 135914854 134300869
2894.65 132927378 132073420 130405838 128720819 127600467 126273208
2897.55 125066885 124022697 123383123 122338599 121287744 120178714
2900.44 119303639 118219193 117272190 116764918 115552812 114881515
2903.33 114173369 113198894 112286487 111322860 110656250 110030803
2906.22 109249600 108422064 107801320 107214652 106795130 106462872
2909.12 106061761 106145877 106081273 106430887 106508542 107016216
2912.01 107535105 108045486 109432999 110886630 112352883 114350591
2914.90 115858560 118976419 121175510 124061163 127129283 130024829
2917.80 133572020 137764098 141944975 146003656 150989010 156085007
2920.69 161342427 167158193 173064430 179101603 185736396 192258826
2923.58 199400695 206572618 214068194 221647995 229050851 237719303
2926.47 245968476 253950349 262254689 270437719 277951758 284665397
2929.37 290902992 296559864 301899878 306960540 312007751 316341519
2932.26 320244778 324218537 327010543 330676671 332748597 335441027
2935.15 337555658 338202606 337454152 335408574 332644986 329357894
2938.04 326502569 322946803 320456528 317446731 314973895 312152037
2940.94 309395409 305344670 301129209 296617239 291266878 284354198
2943.83 275991431 267911613 258287999 248457879 238737853 229089384
2946.72 220664510 212395781 204405012 196712549 189360446 182788416
2949.62 176742943 170601516 165231687 159951737 155403463 150066791
2952.51 143979642 137329866 131882144 126975987 122587372 119061896
2955.40 116245229 113742742 112039044 110688404 110217222 109979079
2958.29 109655034 110126787 110680782 110893169 109907312 109123604
2961.19 107057451 105637893 105189841 102661474 100358119 98259705
2964.08 96005602 94285852 92656554 90663809 89051832 87874170
2966.97 86954755 85744282 84812139 83439370 82620731 81458193
2969.86 81016653 80739970 80699342 80787065 80905710 81267194
2972.76 81906974 82320936 83121481 84190645 84932319 85656888
2975.65 86907892 87542480 88902773 90619320 91173545 92914540
2978.54 94553772 95474280 97479953 99559861 101768982 104374736
2981.44 106926454 109577345 112053270 112688044 113439036 113977425
2984.33 114850041 115084071 116435635 117293217 118904233 120785037
2987.22 123238832 126039548 129898134 133261021 136579821 140058325
2990.11 142642418 145096831 147130093 149437659 150783990 153376252
2993.01 155885746 158622838 161827707 165434038 169541165 174176107
2995.90 178995315 183291098 187083243 190037116 192587733 195611258
2998.79 198478558 201357989 204616367 208412019 212280944 216397115
3001.68 220951832 224704737 228330270 231411492 233189450 233976778
3004.58 232634668 229724080 226182285 223304536 219750163 216823961
3007.47 214345614 212779459 211502850 211067832 211467585 212321472
3010.36 214021444 215968201 217604630 217753131 217937684 216734349
3013.26 216360957 215570125 215993139 216355461 217459387 219311747
3016.15 221637596 224007303 227672954 230452999 234035331 237203261
3019.04 240718047 244456415 248273648 252347483 255450193 258708190
3021.93 261800604 263776384 265252016 265437000 265854583 264986506
3024.83 263291699 261861099 260696645 260673675 260663053 262396073
3027.72 263224851 262585476 260248723 256945018 254276653 253332887
3030.61 252216529 253052151 254480363 255326077 255263732 253687844
3033.50 251181207 247973986 243648091 237677451 231394691 224059582
3036.40 216872842 209704116 203025888 196454516 190665644 185334543
3039.29 179667432 174615899 169943607 165482190 161217773 158345800
3042.18 155975271 155338615 154866985 154751100 154912612 156083741
3045.08 157320671 159544213 161882658 164665917 167248365 170152879
3047.97 170675963 170138471 171103380 171085349 171565301 171569306
3050.86 172042957 171891691 171257489 171113798 171140307 170322161
3053.75 170234624 169894374 169165250 166583637 164451041 162720871
3056.65 162123781 162142525 162075117 161394046 161220910 160413175
3059.54 159197521 158137435 156482086 154685224 152657089 150048923
3062.43 147135248 143736242 140396502 136992438 133065021 129475634
3065.32 125304537 121271310 117031422 113310841 108126040 104205644
3068.22 100144036 96112077 91829642 87669563 84140848 80166497
3071.11 76993175 73430817 70299439 67288014 64656113 61988917
3074.00 59302335 56730178 54343144 52503808 50602372 48465269
3076.90 46338322 44895465 43228284 41656521 40357676 38944784
3079.79 37306593 36293192 35054977 34287678 33213106 32360218
3082.68 31640216 30740537 30134372 29561689 29017567 29010607
3085.57 28878475 27863354 27808735 27469259 27255322 27189767
3088.47 27437057 27408551 27521624 27499032 27776840 27923337
3091.36 27920833 28318430 28607946 28684006 29264767 29640162
3094.25 29963752 30848740 30424058 30587776 30774967 30485476
3097.14 30661106 30323220 30641120 30494253 30045219 29818463
3100.04 30161385 29838069 30124499 29670890 29839240 29788089
3102.93 29950003 30136957 30767424 30348296 30115520 30322195
3105.82 30039443 30083325 29478178 29247947 28669644 28212825
3108.72 27715308 27134189 26731314 26011061 25644620 24848851
3111.61 24382979 23770397 23787202 23471973 22569842 21908871
3114.50 21106008 20681191 19698557 19234630 18042977 17916652
3117.39 17202921 16207722 15529581 14717819 14301089 13484407
3120.29 12662672 12247083 11534226 11147966 10584884 9705832
3123.18 9284146 8651890 8355862 7797774 7986687 7364513
3126.07 7184594 6658499 6430591 6302104 6203836 6098268
3128.96 6104486 6256834 6301306 6102646 6100593 6356951
3131.86 6441625 6720464 6843186 7184938 7346491 7753189
3134.75 7996631 8169690 8395716 8820078 8827296 9216849
3137.64 9305556 9402231 9200233 9579649 10066439 9789037
3140.54 10166310 10040279 10079650 10319077 10292501 10581820
3143.43 10287836 10009474 10291138 10068930 10175721 10439439
3146.32 10268748 10340521 10651230 10378077 10321365 9839922
3149.21 9975993 9639648 8965176 8411109 8396621 7806680
3152.11 7122909 6646931 6168008 5857191 5442982 5146602
3155.00 4858939 3995080 4147863 3444023 3313184 3120822
3157.89 2975525 2364817 2345061 2287778 1726716 1380121
3160.78 1611513 1400936 1489036 1332976 1494291 1281989
3163.68 1337745 1059625 1421963 810759 1040330 775217
3166.57 977880 320357 569093 510902 537056 546378
3169.46 354031 333768 499082 120858 381831 237809
3172.36-5590-78608 275583 326568 259370 18402
3175.25 64238 33112 97071 93946-316882 170642
3178.14-115279-58545-9969 210487 65365-104487
3181.03-118079 48401-238817-136947-146938-65388
3183.93-154873 100622-43221-225370-131351-66783
3186.82-314750-410250-339260-323300-262950-249139
3189.71-304119-622362-460504-348817-225828-401672
3192.60-238772-358334-525625-477025-333949-138596
3195.50-426460-296637-306589-450230-471008-287470
3198.39-276696-352258-374043-637251-160139-445972
3201.28-417167-330827-226018-394902-400635-181185
3204.18-503464-532316-523307-313731-284992-515766
3207.07-400507-202584-247354-285970-310483-275126
3209.96-570300-401945-385250-280249-444664-229785
3212.85-483269-192991-422520-587161-354747-105231
3215.75 253228-372824-698798-125799-342084-212095
3218.64-362060-624491-487701-272006-360376-318469
3221.53-294933-220855-355409-340000-214036-96828
3224.42-166386-143171-203485-396398-266081-303788
3227.32-346907-300009-580130-226070-538496-70316
3230.21-141613-372011-237412-461455-243338-323569
3233.10-303397-438725-286462-360797-457601-120402
3236.00-183953-303426-187361-316124-499198-442957
3238.89-416343-46462-123903-450739-315593 135625
3241.78-294067-77768-187445-205788-34827-69228
3244.67-66910-66212-96643-456985-224573-282519
3247.57-192506-460225-361250-181346-48885-24467
3250.46-78902 145383 53643 30955 143677-67205
3253.35-117301-307894-56393 57353-31323 109128
3256.24-43575-156783 113998 92163 337151 86774
3259.14-81330-354290-148046-4796 208761 170795
3262.03 61287-142770 266366 112691-260899-58743
3264.92 2180 294989 303-120169 284387 41132
3267.82 28567 106832-273743 3946 151624-57817
3270.71 50391-77046 1151-171999 325941 136260
3273.60-58909-217218-118263-375477 83226 17417
3276.49 141026-11050 85259 138244 66862 317042
3279.39 32240-68237-462059 327553 146641-288599
3282.28 380855-356046 257714 130789 73844 65701
3285.17 78293 64150 126704 16333-288771 161555
3288.06-34635 132312 34154 151116-21322-98447
3290.96 520111-11874 45281 204384-122838 131191
3293.85 72906 289215 426560 382708 38393 91029
3296.74-3636 345899 24272 257780-61752 154317
3299.64-277268 218112-71614 22170 255-12829
3302.53 293300-144579 296477-175515 136823-254286
3305.42 221468-340182 239489 324426-12476 121214
3308.31-280753-70363-63581 186336-55090 196952
3311.21-5633-93398-26622 80829 30873 378713
3314.10 45008 60885 67953 6617 109335 188511
3316.99 24826-315747 131654-34255 271135-10875
3319.88 144306 322707 101458 95443 52458-254235
3322.78 131255 5711 329831-36028-106376 347445
3325.67-47950 87830 101 116779 331126-81072
3328.56-39375-146989 169453-66735-345230-41029
3331.46-20868-175823 3681 98569 211322 7534
3334.35 138325-75213-101920-9433-158830-118168
3337.24-397799 77502 52324-18885-275032 44963
3340.13-254262-49510-155238-63618-84172 79033
3343.03-57152-80583-148435 132160-113840 101622
3345.92-308081-55386 150049-269286-142467-16307
3348.81 135579-9763-343676 100157 25544-3632
3351.70-43247 15461-383868-128633-172229-25343
3354.60-180268-207366-173120 77869-5023-266580
3357.49-85792 14809-223761-79418 207672-117565
3360.38-84623-291823-196205-60723-149413-280103
3363.28 99731-173781 22901-366651 162306-58723
3366.17 25024 233120 142746 90681-21001 96215
3369.06-206943 136574 23443 186763 610278-209894
3371.95-13802-36507 191950 278600 185190 142925
3374.85-134037 83617 157250-5448 226149 501830
3377.74 188372 358956 19081 89121 507658 117192
3380.63 602129 247544 196510 361369-54291 460662
3383.52 221588 419271 640884 485246 546301 546594
3386.42 292149 197536 431588 147048 299220 220083
3389.31 515617 674554 659173 342349 32733 343910
3392.20 306103 586590 55878 285123 188169 96118
3395.10 444123 1324 376162 482789 393163 148936
3397.99 330473 155234 249724 276833 480963-14665
3400.88 250083 38003 120563-72728-156475 195068
3403.77-49412 121122 248382-54099 257398 5760
3406.67 12321-54872-248300 11003 80970 251649
3409.56-209175-170937-11646 3849-3246 90507
3412.45 45288 127513-503700 113251-26632-26944
3415.34-73965 145364 147899 174507-128496 154390
3418.24-4641-110563-46634-252090-88511 319312
3421.13-170422 27915-651644 162523-76759 239963
3424.02 146117 93854-124821 47549 505462-51911
3426.92 217699-48546 240236-22914-22624 315592
3429.81 49246 13976 446823 229754 71831 12574
3432.70 511769 266477-32701 168491 429474 547997
3435.59 410819 314481 523101 217640 352249 322220
3438.49-58234 629790 489138 432602 593906 428397
3441.38 228837 486692 328059 67778 130753-5519
3444.27 172906 144123-157160 247486 353917-165940
3447.16 88038 375800-77543 208999-30567 183630
3450.06 287181-188569 74842-20932 86119-33170
3452.95 230117-8908-152410 15811-131194-168991
3455.84 337200-67808-133014-244462-133973-31123
3458.74 67682-69337-165145-365802-385097-218805
3461.63-184682 4921-280854-94851-141520-297127
3464.52-289570-414129 47409-254398-371329-306330
3467.41-471750-207963-565085-140774-122400-224231
3470.31-751326-259335-64252-617887-187543-467648
3473.20-277250-461220-180535-324353-163850-409860
3476.09-418151-365008-316911-221214-439800-411858
3478.98-149014 31766-392899-296410-160698-121185
3481.88-385332-369292-498724-732571-111088-325771
3484.77-608895-289911-381810-126642-677582-496558
3487.66-317453-381822-249631-253434-263952-133620
3490.56-273625-107030-452675-456665-10546-403646
3493.45-461897-342857-365276-326227-56916-299604
3496.34-81612-244558-200498 13924-187928-283545
3499.23-280058-415189-374781 302051-150335-289324
3502.13-380606-286782-263798-296894-470020-331620
3505.02-379681-248913-425998-265188 30900-461398
3507.91-102188-17830-43673-192560-463377-478453
3510.80 156347-401609-607417-131890-325887-181446
3513.70-487325-177404-37316-468439-504182-269980
3516.59-324681-277728 51681-587062-205815-405868
3519.48-171948-470591-655119-306016-74207-169824
3522.38-603398-461362-531772-542669-493215-359498
3525.27-174729-542131-408677-482056-399422-199295
3528.16-418616-166373-502073-201063-423199-74340
3531.05-407958-229865-583-464459-149268-680175
3533.95-676568-209055-242675-295836-311048-415070
3536.84-488284-278511-496239-440514-477414-510645
3539.73-182309-186403-410375-312572-322989-412828
3542.62-212551 80766-232747-277204-463924-463643
3545.52-273157-414138-508897-428539-544004-608884
3548.41-360526-310620-440542-97806-627147-592046
3551.30-639975-694486-460145-586330-334398-570527
3554.20-298791-503548-550601-334405-621749-455671
3557.09-727679-374671-724055-734171-259522-753434
3559.98-732795-586278-567531-509750-796058-452203
3562.87-576255-507456-295596-627275-659150-732120
3565.77-536019-606377-304481-929751-422298-463380
3568.66-616110-1023908-367358-459265-667899-666261
3571.55-694504-435979-481044-363827-607873-769653
3574.44-426282-677047-781850-559696-525243-174547
3577.34-664224-827991-441861-316001-500788-629644
3580.23-713026-628128-420686-320638-647391-566233
3583.12-610622-564386-657629-295126-513805-354464
3586.02-916411-773258-382046-515296-658157-689830
3588.91-611423-402107-612058-557772-453213-611664
3591.80-595160-476528-513191-546688-212502-328927
3594.69-443334-144364-269031-718322-266719-268513
3597.59-223943-417879-460159-219107-498732-658598
3600.48-594814-169905-315757-526464-439872-166832
3603.37-59593-428508-318662-374499-322005-447474
3606.26-253046-324381-395966-484391-137778-749115
3609.16-260275-371089-130992-24393-423160-166484
3612.05-559138-61148-238911 70375-327078-176689
3614.94-247725-215600-309054-403779-398078-273183
3617.84-321270 112841-339321-452690 20548-381221
3620.73-220609-17705-124316-186431-78354-83316
3623.62-88938-95099-59358-43481-60409-194867
3626.51 64271-7893-273865-682588-39259-821440
3629.41-377993 38308 38661 80956-81066-50210
3632.30-161147 16838-22964-90444-168759 70405
3635.19-66979 33921-89933 140978 111605-87300
3638.08 104825 87791-18956-34266-203376 66264
3640.98-69822-78909-73406 228165 179347 282359
3643.87 314760 210979 272756 347563 72964 283849
3646.76-29552 188007 513275 336129-552836 131029
3649.66 434411 276184 328445 94290 565866 533119
3652.55 600258 669908 655202 593978 770114 754775
3655.44 512736 150235 743575 725700 682496 693487
3658.33 871883 871979 691329 968602 1031314 953548
3661.23 997022 1038176 1171708 1187402 1197591 884089
3664.12 1093079 1139905 1293595 1439271 1236512 1491062
3667.01 1272336 1240674 1374490 947276 1316953 1230639
3669.90 945002 255559 1251200 1041795 1368896 1313262
3672.80 1184686 1011336 1241624 471419 926817 686435
3675.69 190703 1204817 1057809 802226 1100582 1344493
3678.58 1137781 1091979 1278846 1061628 991548 1137553
3681.48 1194678 1013187 1084852 1037047 1297563 555205
3684.37 897601 813713 704872 456142 798337 456752
3687.26 667777-88174 89898 672709 340849 621367
3690.15 325497 214697 396850 589313 570975 729404
3693.05 409807 510856 576747 383172 249049 150271
3695.94 595511 551522 503526 654445 470603 593011
3698.83 579525 372231 614767 537603 566107 402631
3701.72 287140 420085 476362 215343 294006 259209
3704.62 564525 325412 264754 352873 56477 422541
3707.51 112529 369781 173682-121263 203382 364703
3710.40-45140 160811-77459-467688 360403 314831
3713.30 300928 87970 143006-156705 204574-320640
3716.19 186707 118740 173376-134957 129260 9429
3719.08 43074-3083 183679 71293 351182 105932
3721.97-86482 115811 159548 369897 73520 319265
3724.87-145103 395845 3036 47150 409352 4668
3727.76 219042 376763 186586-19106 339175 300875
3730.65 233827 373612-449918 20121 269683 147568
3733.54 203351-115507-157123-25914 444224-187266
3736.44-149650 160688 264022 333328 262595 321394
3739.33 446678 494120 439756 195032 591490 467673
3742.22 514649 461666 552022 12857-819837 145626
3745.12 622867 829697 572830 545508 706733 946992
3748.01 722755 485338-308868 647070 975653 886159
3750.90 897969 233267-352848 1135017 862866 1274473
3753.79 1044578 969563 819863 805625 1142461 716614
3756.69 890166 1189865 1018803 946355 632746 722138
3759.58 690922 1061306 1153556 961659 726008 845999
3762.47 970915 875625 1207065 1053247 1002136 689760
3765.36 722088 725064 751376 767274 874072 1034106
3768.26 786836 738539 200790 534148 919732 702715
3771.15 633431 262402 352568 888877 529387 559074
3774.04 475515 416928 531717 513154 156107 477056
3776.94 352609 415013 199197 570185 110872 129061
3779.83 128416 594895 553242 520856 256197 574782
3782.72 324604 565223 649023 120341 516411 70439
3785.61 438597 287634 548466 193872 468743 431169
3788.51 488706 386173 334357 605232 578821 544606
3791.40 386057 160771 366032 789214 601894 180555
3794.29 636271 298593 477283 166253 300564 487060
3797.18 446792 370009 360820 385616 410709 94784
3800.08 725673-57169-744440 669211 389012 437288
3802.97 351830 632403 849553 444175 426275 431161
3805.86 433102-320693-225297 822557 746200 631994
3808.76 639073 695522 633312 631364 678817 839117
3811.65 574277 780563 416165 870609 754689 717271
3814.54 819330 871845-261313 436472 1102574 848959
3817.43 954477 897868 733628 987137 961310 807800
3820.33 406367 818217 388203 881075 836089 1121349
3823.22 1215578 1176448 1117757 1028609 1272066 1232955
3826.11 940706 867372 1337830 1356158 1278407 1428504
3829.00 1269491 1261318 1371427 1275742 1121247 777558
3831.90 1300867 1524409 1535717 1277825 1518736 847871
3834.79 1055574 1571551 1126294 1281810 1572499 271411
3837.68 669368 1626082 1351270 1491578 1358339 1587681
3840.58 1256517 1390668 1485140 1682218 1714215 1505410
3843.47 1462946 1569608 1474483 1668143 1485114 1727297
3846.36 1743007 2028621 1474726 1604547 1528634 1761393
3849.25 1701161 1822741 1572784 2013527 1379708 821903
3852.15 1739200 1825837 1532924 231899 1064413 1836395
3855.04 2052191 1622463 1867545 1529031 1768857 1965846
3857.93 1923858 1896413 1729451 1886383 1900278 1893443
3860.82 1778536 1494465 1706443 1725157 1788131 2162625
3863.72 1774245 1794306 1386668 1877484 1880423 1829252
3866.61 1567386 1885961 1350446 2100067 1416190 1682248
3869.50 1009425 1403970 1951134 1659578 2161756 1827448
3872.40 2186426 1834200 1761429 1540542 1951993 1962806
3875.29 2206375 2017036 1902051 1963299 2152813 2102864
3878.18 2001273 2214065 2026280 1763124 1805497 2346453
3881.07 1998592 2083453 2221443 2303810 2123716 2364121
3883.97 2171880 2179293 1783384 1721744 2167301 2324778
3886.86 2416890 2244442 2275548 2235656 2382816 2059167
3889.75 2294804 2304096 1723850 2182164 2034765 2184691
3892.64 2181183 2226953 2213447 2120699 2397029 2328975
3895.54 2301314 2213703 2151057 2196708 2288559 2177504
3898.43 2090052 1634874 2247213 2380800 2144402 2379689
3901.32 1949099 2123762 2325107 2145435 2395868 1867466
3904.22 2170037 2339116 2301307 2240239 2327533 1982983
3907.11 2248540 2183625 2233236 2385115 2129900 2284424
3910.00 2314237 2339266 2464965 2359973 2123864 2318316
3912.89 2523945 2608278 2649720 2281475 2324879 2610711
3915.79 2312315 2308365 2033850 2843269 2459427 2231066
3918.68 2527362 2173914 2374799 2625851 2394504 2705341
3921.57 2572031 2702956 2472325 2609907 2362642 2578161
3924.46 2478724 2630798 2480291 2565340 2768469 2334087
3927.36 2612602 2664154 2750964 2801558 2462298 2751821
3930.25 2509312 2491870 2401904 2491988 2543610 2278065
3933.14 2733327 2600788 2760746 2547898 2987141 2545812
3936.04 2435930 2630278 2439457 2211571 2547792 2668171
3938.93 2652058 2536336 2666047 2314620 2651632 2551205
3941.82 2389624 2370026 2556330 2192781 2356710 2506560
3944.71 2292521 2528597 2264764 2393576 2243634 2246888
3947.61 2202696 2131777 1960883 1974076 1792809 1981662
3950.50 2420083 2034561 2181849 1987014 2292936 2253281
3953.39 2195678 2271733 2090253 2245013 2197405 2086372
3956.28 2167627 2000212 2088960 2143469 2098004 2075395
3959.18 2321979 2416057 2294748 2035956 2157999 2181686
3962.07 2179327 2124610 2010283 2269694 2180155 2479790
3964.96 2086427 2164619 2192009 2197434 2102040 2136880
3967.86 2201590 2542021 2244811 2196293 2078300 2241468
3970.75 2285687 1950360 2463567 2376318 1973006 2349646
3973.64 2275586 2421968
##END=
