##TITLE=1,4-Dimethylbenzene
##JCAMP-DX=4.24
##DATA TYPE=INFRARED SPECTRUM
##CLASS=IUPAC A
##ORIGIN=NIST, Analytical Chemistry Division, 301-975-3108
##OWNER=COPYRIGHT (C) 2001 by the U.S. Secretary of Commerce
##DATE=01/06/01
##$SPECTRA VERSION=1.10
##$UNCERTAINTY IN Y=2.1 % relative (B=1.10E-04,C=1.28E-9,D=4.08E-14)
##CAS NAME=1,4-Dimethylbenzene
##CAS REGISTRY NO=106-42-3
##MOLFORM=1,4-( C H3)2 C6 H4
##MP=13.26 C
##BP=138.35 C
##$NIST SOURCE=QUANT-IR
##SPECTROMETER/DATA SYSTEM=IFS66V (Bruker)
##INSTRUMENT PARAMETERS=KBr Beam Splitter; MCT Detector; Multipass cell
##STATE=gas
##SAMPLE DESCRIPTION=p-Xylene Primary Gas Standard
##PRESSURE=101.3 Pa
##TEMPERATURE=23 C
##SAMPLING PROCEDURE=1 L/min Flow
##RESOLUTION=1.9290
##DATA PROCESSING=3-Term B-H Apodization
##XUNITS=cm-1
##YUNITS=(micromol/mol)-1m-1 (base 10)
##XFACTOR=1.0
##YFACTOR=9.0949E-13
##DELTAX=0.9645
##FIRSTX=575.652
##LASTX=3974.605
##FIRSTY=1.34E-06
##MAXX=3973.64
##MINX=575.65
##MAXY=.0004946
##MINY=-7.20E-07
##NPOINTS=3526
##XYDATA=(X++(Y..Y))
575.65 1478129 1214207 769821 690231 686540 591568
580.47 174147-390018-499582-216726 170477 357355
586.26 139921-227673-249629 122048 295376 126468
592.04-160356-361326-478104-401736-201445-298706
597.83-472946-481726-567632-652607-573869-510091
603.62-430914-402657-562118-792682-790312-507665
609.40-346238-404861-591491-779126-820624-773752
615.19-633840-362745-341408-616347-674326-599429
620.97-580379-461141-396826-464229-539223-605514
626.76-693756-616361-351891-272762-349228-348673
632.54-430594-590396-666953-561196-348089-323937
638.33-445446-424970-270240-253220-330843-381118
644.11-444630-474546-357985-168145-157026-303727
649.90-373345-389520-348612-352422-416098-336185
655.68-212691-243628-310593-307973-296741-297015
661.47-291137-294977-298795-206240 52929 352668
667.25 242517-83084-218890-302057-347605-332862
673.04-329274-302477-212341-160335-67504 103287
678.83 147113-21173-224719-321283-397298-429987
684.61-252616-61630 14536 85984 148521 164115
690.40 142242 89479 102092 240194 336943 353406
696.18 353750 332504 400539 537044 506427 305487
701.97 188330 180425 204226 260053 255622 207135
707.75 185520 166450 140546 201865 342965 378761
713.54 291275 211012 207369 254811 287659 238399
719.32 196405 214689 212125 166889 175003 232166
725.11 287365 364027 372644 336278 363710 413835
730.89 445326 410005 329253 266790 233452 219505
736.68 262636 338807 443000 689820 793101 538149
742.47 363667 431775 445348 412647 488033 589576
748.25 644108 676402 709475 749857 844638 982988
754.04 1054210 1077590 1163383 1327823 1577537 1918633
759.82 2329342 2794450 3418085 4312790 5473268 6932878
765.61 8765742 10947241 13395848 16271939 19803010 24052984
771.39 29179075 35299308 42471319 50800644 60240064 70586031
777.18 81752352 93550626 105774594 118473043 131545768 144400875
782.96 156231308 167195917 178395273 187832535 191385754 190737905
788.75 191584845 196754553 210765181 250509826 348754053 495374269
794.53 543846207 410723109 259964716 204032440 196362575 196872419
800.32 196757239 194874724 191024158 184020374 174633924 164465548
806.11 152833807 138978484 123824138 108950613 95137821 82264794
811.89 70068415 58668001 48408600 39511095 31922354 25558816
817.68 20408849 16422804 13459906 11355045 9802032 8662975
823.46 7932524 7435164 6954669 6496866 6119755 5865762
829.25 5634711 5373705 5154057 5027064 4934536 4839999
835.03 4743040 4589791 4289668 3881890 3481119 3056478
840.82 2563835 2235421 2047872 1792255 1508184 1382576
846.60 1392140 1300332 1072098 973289 1046856 1099672
852.39 1048156 956713 935443 959584 971606 976906
858.17 934990 883591 881784 925524 990931 1035988
863.96 1046979 1001351 959910 1015156 1111018 1194648
869.75 1225326 1218047 1212522 1231134 1236869 1215241
875.53 1221250 1280249 1299772 1272380 1310608 1318940
881.32 1213971 1195362 1298313 1413136 1461870 1437075
887.10 1455937 1543474 1569475 1529827 1534971 1588975
892.89 1600979 1595276 1614795 1636304 1641979 1630619
898.67 1597119 1593551 1603539 1594309 1597939 1638397
904.46 1711061 1785422 1831506 1860858 1908748 2036642
910.24 2214556 2394611 2539691 2643766 2786705 2926456
916.03 2956688 2966378 2987429 3017050 3078705 3162535
921.81 3222061 3250905 3267084 3266555 3283503 3306597
927.60 3198634 2984078 2903474 2968971 2950271 2829065
933.39 2762862 2757297 2710565 2650958 2664086 2749008
939.17 2801570 2847701 2927148 3012351 3103333 3195503
944.96 3283633 3393365 3502857 3584055 3649859 3736393
950.74 3866124 4018321 4163208 4286535 4427064 4587375
956.53 4684357 4723352 4722561 4773661 4840071 4800785
962.31 4757033 4792254 4894944 4994930 5056158 5132316
968.10 5256591 5357156 5305662 5159064 5046872 5004597
973.88 4967105 4924419 4939807 4978796 4942529 4872651
979.67 4837437 4824154 4857691 4935778 4970053 4942408
985.45 4911067 4949567 5046855 5148267 5224992 5278268
991.24 5345673 5413362 5450673 5491801 5560370 5641871
997.03 5694540 5708984 5684640 5660179 5614832 5496477
1002.81 5368954 5325094 5346482 5385072 5497183 5800117
1008.60 6297614 6989057 7966752 9338567 11232495 13680599
1014.38 16507716 19573051 22345321 23986862 24218236 23327760
1020.17 22108237 22231685 25218941 27850433 25905441 23623420
1025.95 24960440 27542513 29083205 29074605 27773065 25725743
1031.74 23540152 21721462 20422420 19534859 19084499 19025107
1037.52 19217600 19723719 20682806 22128699 23863330 25400481
1043.31 26504324 27100118 27075046 27024342 27392971 27589082
1049.09 27306751 27104850 27006880 26591889 26026129 25523975
1054.88 24900423 24100002 23235501 22359214 21518230 20740595
1060.67 20021629 19308386 18542420 17703511 16831880 15975188
1066.45 15176979 14498196 13902852 13316540 12708440 12096429
1072.24 11543807 11107896 10780117 10480277 10184202 9967504
1078.02 9831631 9786400 9884873 10082561 10317158 10563783
1083.81 10902760 11371982 11922935 12570782 13362954 14278461
1089.59 15302717 16441519 17572955 18567908 19411557 20092036
1095.38 20563136 20737942 20516177 20032421 19805500 20276567
1101.16 21522299 23380780 25408965 27252325 28810472 30154044
1106.95 31440798 32851760 34607375 36779477 39234131 41750141
1112.73 43869765 44976630 44624079 42497950 38608856 33892613
1118.52 30113643 28820040 30340105 33575770 36813350 38819254
1124.31 39261056 38247943 36014178 32926824 29391847 25882908
1130.09 22690356 19909194 17605187 15672819 13937452 12403981
1135.88 11091634 9959552 9008954 8185119 7447469 6811777
1141.66 6212852 5690921 5314008 5009820 4719089 4468807
1147.45 4272095 4108977 3955599 3834999 3756060 3673898
1153.23 3609760 3594913 3548715 3477799 3479558 3500031
1159.02 3464599 3423017 3434486 3476693 3490365 3483426
1164.80 3502867 3597267 3709146 3712602 3663658 3672499
1170.59 3694011 3697534 3683063 3729687 3834158 3839208
1176.37 3792744 3795392 3783751 3768210 3772361 3754548
1182.16 3687521 3625339 3606434 3545159 3419944 3303176
1187.95 3234709 3222941 3231472 3197320 3122551 3082437
1193.73 3055698 2997783 2916604 2867367 2883640 2920589
1199.52 2965397 3057023 3149781 3231705 3415396 3774355
1205.30 4288244 4930588 5721559 6735118 8024898 9542745
1211.09 11099605 12532667 13696226 14425406 14661308 14453427
1216.87 14004950 14099793 15286420 16241165 15607597 14975654
1222.66 15979027 17660895 18727626 18804651 18052302 16922934
1228.44 15865543 15121774 14789326 14788238 14925271 14994049
1234.23 14795535 14352715 13875584 13691291 13990175 14387515
1240.01 14331816 13877403 13441538 13145260 12767535 12073020
1245.80 11026224 9781468 8508447 7325743 6343812 5587266
1251.59 5023120 4637835 4335188 4082994 3923931 3790731
1257.37 3681188 3574783 3430777 3311940 3217964 3116157
1263.16 3096747 3202652 3278354 3291414 3254259 3192437
1268.94 3162134 3104307 2998211 2890190 2819391 2779392
1274.73 2718206 2646164 2594787 2563058 2546314 2532797
1280.51 2521625 2524838 2531272 2542841 2562503 2581586
1286.30 2614402 2627517 2621174 2660973 2686767 2682466
1292.08 2723991 2767436 2795498 2869333 2977130 3069969
1297.87 3132655 3210949 3371404 3575824 3747143 3947686
1303.65 4245763 4537901 4646993 4691076 4819225 5000056
1309.44 5210199 5388573 5493954 5512912 5454921 5374595
1315.23 5323607 5342861 5476469 5753694 6086456 6326878
1321.01 6486946 6612626 6654416 6611916 6609427 6713611
1326.80 6821149 6891198 6940912 7013835 7128072 7194664
1332.58 7207312 7256183 7397873 7626207 7897621 8220737
1338.37 8628350 9090766 9589557 10075883 10318428 10163283
1344.15 9833470 9596949 9432769 9253888 9145203 9129856
1349.94 9098215 9082767 9241824 9530484 9652833 9573681
1355.72 9416115 9211038 9001556 8781272 8688471 8767502
1361.51 8886648 9035951 9230720 9498943 9752847 9955056
1367.29 10145768 10305694 10475569 10780740 11317548 12077531
1373.08 13038136 14259047 15734129 17397566 19139043 20646373
1378.87 21616060 22163705 22986040 24743204 25934989 25267775
1384.65 25002003 26222035 27523011 28181953 28182948 27507141
1390.44 26291158 24750428 22954324 21200502 19878449 18988288
1396.22 18337334 17858390 17542004 17406026 17494359 17787653
1402.01 18163219 18528936 18922603 19452904 20115515 20778356
1407.79 21385860 22011830 22635099 23226361 23923640 24750504
1413.58 25465365 26044593 26831988 27934903 29125024 30349530
1419.36 31728161 33138323 34506601 35803351 36916134 37888839
1425.15 38798124 39534870 39819675 39663664 39535707 39777642
1430.93 40042693 40020567 40001242 40051762 39990664 39981535
1436.72 40075211 40008831 39701116 39205787 38401796 37059354
1442.51 35341417 33788413 32634026 31828380 31445722 31637576
1448.29 32331504 33398261 34775564 36254424 37430841 37898134
1454.08 37571875 36570656 35367828 34657686 34594492 35001732
1459.86 35811856 37166593 39129770 41320378 43369388 45383645
1465.65 47452364 49466716 51162722 52169614 52102493 50872828
1471.43 48967470 46912096 44972103 43120922 41418772 40175331
1477.22 39513099 39509920 40067757 40934630 42113804 43524034
1483.00 44788938 45539565 45696056 45568555 45345779 45063023
1488.79 44801572 44652029 44739544 45293710 46664029 48696724
1494.57 50574977 52179708 54083997 56288788 58266268 59675997
1500.36 60620716 61497371 62814902 65211707 69460962 76264076
1506.15 86235900 99896993 117563354 139415628 165061160 192977086
1511.93 220268903 242724010 255414569 255714283 247803226 242994465
1517.72 252579764 270580681 272075771 251770032 236324712 241003694
1523.50 253874111 258824379 248053143 223228525 191610113 159488284
1529.29 130268093 105305928 84874312 68783695 56523296 47303924
1535.07 40355538 35130532 31098754 27949689 25693419 24070594
1540.86 22641042 21380877 20271804 19238967 18451784 17874086
1546.64 17345275 16931046 16662955 16452869 16192816 15804534
1552.43 15283003 14757155 14315330 13833865 13254629 12738417
1558.21 12412537 12193772 12062979 11903892 11648270 11337440
1564.00 10998085 10718962 10459908 10132292 9739791 9383559
1569.79 9119984 8858856 8571219 8290189 7904923 7364358
1575.57 7024723 6950861 6829725 6697462 6591196 6440855
1581.36 6284030 6162926 6025918 5871908 5715295 5592484
1587.14 5503522 5423066 5393918 5441452 5588885 5763509
1592.93 5833393 5843687 5877346 5917953 5980464 6081060
1598.71 6172216 6250566 6351808 6523920 6784032 7075898
1604.50 7367176 7708052 8130850 8627467 9133968 9625068
1610.28 10184127 10872080 11681206 12565483 13399556 14143556
1616.07 15070779 16237646 17261284 17988696 18428245 18584624
1621.85 18450596 18075682 17467277 16675357 15998752 15770844
1627.64 16110732 16718346 17156279 17271614 16965641 16144638
1633.43 14858273 13426085 12185865 11080608 10026700 9032803
1639.21 8122869 7353981 6668172 5999381 5338820 4678712
1645.00 4111629 3752491 3500568 3317215 3122426 2786971
1650.78 2241553 1782595 1823242 2119374 2272519 2278153
1656.57 2243972 2172608 2062219 2001711 2016533 2022535
1662.35 2021043 2058166 2057756 1979245 1846431 1664129
1668.14 1507930 1493720 1514065 1531784 1588186 1521508
1673.92 1329059 1286328 1351933 1322127 1226579 1135056
1679.71 1104131 1099774 987863 749887 548791 667027
1685.49 942788 1059338 1056228 1019570 1001461 1007193
1691.28 998819 966854 857445 595927 491967 733427
1697.07 873665 677770 441252 533038 773006 864084
1702.85 857145 856737 848755 851983 941191 1049880
1708.64 1090278 1115486 1193814 1325692 1451005 1546407
1714.42 1677846 1796284 1928171 2297734 2769287 3090186
1720.21 3250340 3284856 3228676 3140832 3085991 3114705
1725.99 3208758 3249897 3196931 3136889 3095495 2986812
1731.78 2697061 2360416 2261010 2378693 2487102 2506607
1737.56 2474490 2456571 2539728 2688800 2843583 3019318
1743.35 3161825 3232758 3291516 3393548 3491747 3562193
1749.13 3586558 3607176 3738227 3838518 3811574 3777366
1754.92 3735664 3663070 3622614 3591894 3540447 3410455
1760.71 3213950 3117657 3116622 3150850 3144328 3064512
1766.49 3026908 3103194 3227635 3331898 3436670 3588507
1772.28 3910117 4384036 4879536 5432842 6118260 6965176
1778.06 7959773 9066977 10224507 11309471 12164777 12659521
1783.85 12725622 12486429 12113992 11795737 11879422 12496398
1789.63 12992954 12695526 12059907 11716900 11410158 10800782
1795.42 9870500 8655522 7282273 5953714 4794111 3869941
1801.20 3203077 2703057 2294090 1972914 1750423 1599250
1806.99 1446195 1295505 1168344 1065457 1018184 989554
1812.77 952139 966773 994041 976011 954065 956465
1818.56 989866 1061371 1135998 1214051 1305376 1389087
1824.35 1513201 1711878 1935270 2168364 2420942 2708872
1830.13 3012150 3309453 3560426 3707026 3793785 3926243
1835.92 4094748 4219811 4268506 4307772 4397806 4480872
1841.70 4476170 4355290 4220531 4127515 3962046 3706782
1847.49 3432349 3197122 2995280 2787723 2626103 2540023
1853.27 2473269 2409088 2351887 2313704 2319533 2374584
1859.06 2461904 2574749 2743131 3019476 3356049 3698087
1864.84 4070472 4491579 4972550 5535133 6192180 6921825
1870.63 7697282 8553619 9519066 10561708 11656988 12882926
1876.41 14320265 15918272 17561385 19195423 20787244 22169735
1882.20 23043433 23242603 22766417 21696511 20177629 18587827
1887.99 17600422 17820911 19285617 21360729 23099203 23798422
1893.77 23323735 21921766 20031348 18074311 16143636 14201512
1899.56 12404504 10936313 9762373 8718923 7731435 6893170
1905.34 6213134 5602729 5004041 4436696 3989636 3687802
1911.13 3446486 3219607 3012413 2870244 2764472 2634695
1916.91 2535130 2522967 2548339 2562229 2542065 2502871
1922.70 2465428 2417969 2335661 2263255 2219201 2165291
1928.48 2106859 2065281 2016040 1929564 1800468 1673171
1934.27 1554539 1398047 1223105 1077477 975214 922926
1940.05 891594 855372 849063 870266 870499 855113
1945.84 849067 878669 941850 1000749 1033728 1052631
1951.63 1099520 1192303 1273074 1344692 1428248 1436948
1957.41 1301876 1130052 1039185 1006692 986587 990397
1963.20 1037658 1073252 1067305 1064335 1077417 1093941
1968.98 1102868 1128672 1167805 1226680 1319642 1325767
1974.77 1264074 1285644 1329675 1342041 1387689 1470831
1980.55 1509006 1493626 1456300 1406422 1410753 1466903
1986.34 1487874 1451746 1401136 1365508 1317483 1272556
1992.12 1260068 1283900 1314204 1317747 1286945 1215167
1997.91 1143730 1106846 1066458 1044074 1045742 1035294
2003.69 1012413 989699 939820 864595 854524 866158
2009.48 839382 801579 739956 691852 671620 635786
2015.27 556628 486334 466596 451683 404266 349000
2021.05 289564 247836 258669 303510 354901 379263
2026.84 359292 327340 289201 278692 309645 357654
2032.62 384012 372642 340541 282878 237018 262743
2038.41 310780 330319 353626 377946 371655 362528
2044.19 336237 282052 215495 174710 186056 212811
2049.98 211337 170089 100776 53331 23915-16406
2055.76-45068-38924-29628-65321-120609-125052
2061.55-120878-134227-123161-104654-107973-115539
2067.33-101740-82858-72397-51720-6650 50081
2073.12 48061 25517 49375 118995 143686 79751
2078.91 49332 124307 242002 283627 251031 275917
2084.69 404582 471167 410834 423403 587016 747231
2090.48 760842 771090 939389 1250738 1472803 1545316
2096.26 1652824 1908341 2096163 1983678 1873127 2045469
2102.05 2324149 2343860 2163723 2116957 2267396 2299719
2107.83 2100308 1964309 1969166 1827359 1387934 1016960
2113.62 948104 943316 656948 342574 333336 446885
2119.40 326974 136042 183475 359297 277615 8327
2125.19-29493 141581 129216-65592-97181 44273
2130.97 74344-57445-122919-39836 10440-89362
2136.76-178739-153267-136697-210785-245333-185730
2142.55-142942-148568-128919-78771-93055-175426
2148.33-183662-64625-15962-88478-42323 108872
2154.12 96646-7005 75074 237772 186745 57371
2159.90 186628 374802 253701 120543 314681 471385
2165.69 302676 232610 457428 482326 231926 252832
2171.47 494900 442155 266797 403789 556482 380507
2177.26 275716 457055 457771 208300 178329 322662
2183.04 233315 107727 255922 324024 160826 142684
2188.83 251780 161441 29848 137792 197205 92344
2194.61 122084 227382 211260 221449 371544 478353
2200.40 508615 640876 762085 757446 782761 842741
2206.19 848156 849682 851370 804240 784670 855086
2211.97 910666 897330 873682 834615 713135 556274
2217.76 423287 305525 237856 198000 142802 105314
2223.54 85117 63823 34379 12504-6276-30808
2229.33-44618-38787-21853-7308-25785-62461
2235.11-67809-30536-5421-27028-59866-95201
2240.90-155363-194104-170710-131707-135039-168931
2246.68-194559-202290-200484-178426-158056-174992
2252.47-199047-206179-208016-181477-129336-79511
2258.25-37767-3849 15557 15512 24000 47230
2264.04 50563 79303 138427 200571 273126 306108
2269.83 319497 352381 381037 417067 470824 507716
2275.61 527811 567898 626532 677792 688182 682776
2281.40 688706 693432 696099 735049 818959 883910
2287.18 929935 990380 1040055 1114804 1228817 1347595
2292.97 1488008 1651271 1810988 1975526 2166849 2357092
2298.75 2523332 2626642 2647570 2590990 2476407 2313472
2304.54 2119173 2043362 2141827 2337142 2531262 2714797
2310.32 2859353 2879424 2773491 2602474 2417142 2259298
2316.11 2171493 2059707 1906094 1767505 1705633 1697031
2321.89 1695349 1706100 1752800 1812160 1893323 1977355
2327.68 2048305 2114629 2202094 2343055 2525552 2661821
2333.47 2741572 2833289 2937320 2962342 2906602 2861291
2339.25 2888079 2973013 3047953 3066536 3004151 2858385
2345.04 2659051 2442857 2237550 2057215 1966282 1943933
2350.82 1908414 1840781 1767622 1719934 1691624 1714996
2356.61 1756753 1745839 1720259 1700220 1620298 1539343
2362.39 1507926 1476749 1418325 1331278 1241933 1150022
2368.18 1060988 990465 916285 806669 708216 667609
2373.96 651669 631039 587874 560463 552046 545282
2379.75 529646 488425 459916 481428 506957 485788
2385.53 472154 514337 568772 595317 591372 584725
2391.32 592172 623503 653740 660267 655385 641226
2397.11 654088 716543 789163 865838 957930 1032571
2402.89 1069268 1081226 1113375 1201882 1297900 1354247
2408.68 1390245 1411605 1407621 1399262 1419145 1506720
2414.46 1599413 1642285 1682340 1709911 1699610 1694308
2420.25 1679914 1650616 1657145 1668688 1655848 1643995
2426.03 1647606 1670128 1670731 1649373 1611881 1542789
2431.82 1492930 1505381 1499608 1476875 1484165 1491266
2437.60 1489107 1472004 1405718 1337900 1295465 1242221
2443.39 1198169 1161547 1087405 1026846 1007115 1006965
2449.17 987299 941503 926969 927890 895266 858918
2454.96 836186 825405 818067 808975 821114 858924
2460.75 875118 835027 782849 784984 825238 875208
2466.53 892873 868203 871407 893393 887042 871576
2472.32 887650 931811 955148 983952 993215 946607
2478.10 916769 907919 896949 875102 846960 848594
2483.89 866277 860111 816683 809904 834282 818898
2489.67 794316 797426 792668 791723 799869 759934
2495.46 708089 710007 710796 660046 599605 554733
2501.24 525325 527551 528823 518608 510925 496130
2507.03 457370 428763 417144 391316 378303 388751
2512.81 374923 345866 349875 364464 347488 325846
2518.60 320713 310570 313620 351821 375260 364746
2524.39 355782 353355 348256 327682 304141 308783
2530.17 315401 291716 246810 216232 235608 265620
2535.96 262488 275299 287767 312296 337893 284955
2541.74 213348 184330 141222 70858 26469 38239
2547.53 41440 4192-47152-86496-105541-128902
2553.31-164520-193370-227806-237602-219034-170612
2559.10-99704-88687-127078-132791-106805-91793
2564.88-95720-73253-31317 12082 58324 122563
2570.67 198567 273501 370908 511103 671657 863073
2576.45 1095764 1306572 1534034 1818603 2071583 2308099
2582.24 2532391 2703442 2864127 3032239 3170434 3270544
2588.03 3385235 3539761 3673764 3781665 3886779 3950280
2593.81 3912828 3781878 3578563 3329527 3066250 2753916
2599.60 2433482 2200417 2048245 1966694 1893774 1833542
2605.38 1862188 1906845 1850995 1682743 1510593 1375743
2611.17 1228628 1085988 962940 847816 752752 689180
2616.95 654019 603068 540517 475621 397852 329753
2622.74 272871 235009 174238 96307 64900 67274
2628.52 82763 143455 179507 170980 206779 265145
2634.31 298171 318411 311125 309138 355558 415802
2640.09 450102 443351 403098 389505 359904 296423
2645.88 279051 283644 288783 303698 291314 229386
2651.66 144759 80124 30138-29559-66643-92890
2657.45-137141-133544-122396-149597-140770-104260
2663.24-100762-117048-130109-143814-136388-118994
2669.02-126429-137987-125097-127648-161703-180153
2674.81-207418-226337-204048-162900-134689-133374
2680.59-138656-118610-58443-38569-98260-119668
2686.38-78402-49663-10811 47480 98747 136718
2692.16 170029 243176 309622 319505 321730 368621
2697.95 454950 557912 707585 876726 981362 1034008
2703.73 1093804 1210971 1363640 1482307 1560512 1618886
2709.52 1679444 1778963 1883116 1937791 1959812 1996294
2715.30 2022984 2048194 2105224 2189959 2298270 2367726
2721.09 2403107 2490199 2614308 2729560 2833944 3012995
2726.88 3292960 3676066 4231915 5003738 5956348 7091704
2732.66 8380973 9786849 11312229 12848785 14217015 15210572
2738.45 15710549 15801705 15759210 16192945 17521897 18404970
2744.23 17506693 16492949 16856908 17663456 17718821 16709439
2750.02 14846083 12470271 10027087 7897881 6216133 4972282
2755.80 4067411 3374609 2800039 2341535 2041246 1850087
2761.59 1673502 1475133 1329664 1294924 1285230 1240378
2767.37 1192777 1161692 1094142 1064644 1137253 1179637
2773.16 1149851 1141272 1170555 1203920 1250189 1281495
2778.94 1283767 1292912 1316927 1315540 1349368 1442706
2784.73 1521500 1606180 1697148 1729474 1751854 1856887
2790.52 1968373 2054137 2162323 2277571 2401693 2524294
2796.30 2648766 2800578 2916012 3014578 3193927 3391448
2802.09 3531530 3640604 3740931 3859551 3987298 4046898
2807.87 4111596 4296358 4522546 4729027 4903711 5062855
2813.66 5276858 5568319 5845942 6068608 6304736 6573555
2819.44 6848764 7156320 7497522 7836645 8127643 8453645
2825.23 8881725 9313820 9717098 10143536 10592856 11042432
2831.01 11513101 12033291 12568035 13024113 13380011 13705798
2836.80 14032473 14386289 14831085 15414943 16083424 16767793
2842.58 17447037 18171287 18938882 19614687 20206576 20843025
2848.37 21640613 22653493 23814633 25169162 26811223 28738934
2854.16 30984557 33616785 36571881 39859198 43584820 47770509
2859.94 52507815 57903581 63993896 70796981 78244200 86216674
2865.73 94561957 103097467 111595002 119879924 127845512 135358745
2871.51 142384927 148958021 155010713 160433667 165093443 168822197
2877.30 171506096 173251242 174207919 174420847 173865312 172534142
2883.08 170571002 168081415 164981958 161355798 157412508 153347563
2888.87 149424384 145809465 142498082 139516606 136856530 134331054
2894.65 131713945 128995611 126438105 124242126 122256326 120274774
2900.44 118350995 116574648 114883255 113183297 111513182 109974089
2906.22 108570743 107398290 106609588 106303082 106505763 107237415
2912.01 108714189 111167909 114606727 119030852 124382821 130673463
2917.80 138095740 146711027 156527030 167530828 179628310 192780944
2923.58 206918899 221938192 237752109 253946560 269625313 283767997
2929.37 295962639 306533782 315707540 323450152 329780047 334412923
2935.15 336182986 334155423 329263631 323399844 317626046 311695693
2940.94 304582153 295218241 282636780 266649962 248465444 230075398
2946.72 212935050 197395280 183517403 171286577 160240906 149335061
2952.51 138160499 127996580 120117294 114729834 111612099 110350587
2958.29 110198571 109903151 108392147 105763481 102341445 98359313
2964.08 94447821 91003203 88157244 85805067 83692672 81994958
2969.86 81084459 80986054 81526958 82612483 84118906 85888179
2975.65 87935902 90321428 92996400 96083382 99898328 104446802
2981.44 108910591 112123496 114020692 115643681 117941832 121567269
2987.22 126815069 133146895 139373128 144674833 149182121 153750568
2993.01 159246659 166149516 174296859 182501672 189548454 195642712
2998.79 201812891 208783054 216523895 224064007 229681669 231431192
3004.58 228664239 223190865 217631320 213715257 212231483 213189910
3010.36 215429238 216922039 216848853 216441307 217286112 220108004
3016.15 224815379 230800613 237471081 244592297 251752964 258095836
3021.93 262624706 264613729 264121279 262419335 261491602 261661056
3027.72 260660277 257445007 254467598 253796965 254002427 252038062
3033.50 246222406 236469655 223813871 210178567 197227311 185575411
3039.29 175186407 166291525 159755702 156271696 155482286 156830857
3045.08 160095198 164520483 168351213 170347663 171139367 171547706
3050.86 171544550 171126971 170433148 169069205 166535240 163828790
3056.65 162256717 161326165 159939126 157616091 154181469 149463889
3062.43 143503058 136638325 129139537 121147816 112798682 104346480
3068.22 96055208 88068733 80595274 73771710 67626710 62081228
3074.00 57058089 52600639 48602073 45004960 41829128 38965379
3079.79 36427371 34291054 32479376 30939476 29757974 28914966
3085.57 28195012 27625242 27394588 27446383 27631114 27916904
3091.36 28332007 28913274 29637464 30263691 30550170 30574504
3097.14 30492140 30309290 30089345 29955927 29885556 29951116
3102.93 30176830 30289623 30148869 29767235 29087292 28177794
3108.72 27159772 26077386 24990338 24034096 23083560 21883592
3114.50 20503750 19097670 17711816 16295528 14864030 13499249
3120.29 12232357 11049322 9884629 8845145 8061758 7423347
3126.07 6825566 6394205 6211234 6189341 6225392 6381866
3131.86 6715175 7172216 7687410 8199313 8677104 9069046
3137.64 9346361 9623922 9900473 10091274 10238723 10297873
3143.43 10235076 10212555 10293510 10374174 10296799 9971306
3149.21 9388053 8598303 7687840 6732762 5868380 5091347
3155.00 4328528 3651865 3092859 2583281 2091110 1692611
3160.78 1488932 1408465 1324854 1201643 1036799 838362
3166.57 643891 529703 464392 384881 293424 187819
3172.36 147350 171569 130678 57842 1265-29197
3178.14-3917 22932-19661-88676-119448-95895
3183.93-74517-115508-205174-291402-315647-341196
3189.71-394238-376344-343278-373748-378655-335804
3195.50-339110-367217-361534-368972-390258-375546
3201.28-347439-341295-382473-426771-411815-366469
3207.07-314589-302975-358435-390156-368136-351525
3212.85-367743-335264-238023-251099-316787-354295
3218.64-405245-383198-322959-293733-256569-199157
3224.42-204865-268265-322355-360848-346754-282275
3230.21-276873-313208-330610-342956-327870-273573
3236.00-264174-328910-344671-275997-221950-175621
3241.78-147064-124943-97113-136438-227480-284417
3247.57-284908-194535-60947 26319 33917-40121
3253.35-89166-42132-3357 26072 81493 28641
3259.14-68434-12838 69200 61088 13475 2505
3264.92 45926 70491 54849 5941-10799-450
3270.71-4601 25937 14346-86265-102080-6147
3276.49 66657 103976 78396-2514-8299 22591
3282.28 43629 77621 83373 55385 8218 6939
3288.06 48289 70436 100021 113031 84794 117887
3293.85 218697 228128 154564 130251 98577 33351
3299.64 5293 19029 50554 59947 18808-14128
3305.42 28830 73919 10839-33520 15971 35968
3311.21 18316 61068 112885 95780 71296 40189
3316.99 5137 48190 120751 139456 75842 25129
3322.78 56288 79938 75153 79934 85800 42906
3328.56-24896-77693-96864-41450 43169 59332
3334.35-7972-87619-125466-91566-74408-104717
3340.13-109812-75095-45782-41572-39946-54599
3345.92-75519-74480-51440-42314-35862-36680
3351.70-101901-149879-145082-122980-93510-91285
3357.49-86931-54465-75649-139897-152517-120810
3363.28-96779-65249 14311 87270 73711 26922
3369.06 63798 136626 106222 88701 133119 106125
3374.85 80659 156985 242442 237535 240229 300853
3380.63 299473 255680 294799 416353 488829 434775
3386.42 331717 296313 378260 463481 394761 316277
3392.20 295239 244618 223087 270125 317285 292114
3397.99 258109 252678 196562 95905 23528 32983
3403.77 85245 97658 40369-28585-18892-7116
3409.56-39519-15650 9840-35249-58847-8015
3415.34 56876 70223 19278-48419-62307-49962
3421.13-97184-61360 50555 86761 112221 132371
3426.92 101669 87589 116857 168379 193621 203447
3432.70 216428 275608 374164 392647 335458 308205
3438.49 379914 453238 421572 323080 196562 108631
3444.27 92275 109793 117518 115678 110749 96729
3450.06 54793 32411 40264 5391-39247-25884
3455.84-44694-94552-84973-123839-224644-227619
3461.63-171270-177335-227356-242801-262378-322815
3467.41-334220-298345-316512-344800-345233-348958
3473.20-324561-301449-326783-344787-327887-278360
3478.98-227762-227752-279002-380711-425320-396815
3484.77-376780-393131-405241-344193-264758-233501
3490.56-263076-302529-332155-337859-274068-203181
3496.34-168865-172469-231561-235171-174341-213393
3502.13-294246-334912-350119-319494-255963-186047
3507.91-154311-212216-276390-301779-308802-285511
3513.70-277538-314761-320583-277249-286709-337128
3519.48-375821-346582-352033-447462-470686-414166
3525.27-400174-394033-347140-319764-304672-268673
3531.05-247823-313095-408818-383427-335274-369353
3536.84-413821-427300-378328-319840-311944-266071
3542.62-217101-284346-375694-424716-470573-459698
3548.41-397886-421330-534293-572069-511916-459887
3554.20-459868-492460-539524-576311-592086-609125
3559.98-614969-596844-558486-520418-556741-598643
3565.77-581780-573017-600164-615287-600570-588488
3571.55-543672-528710-585332-616387-568878-527700
3577.34-532810-526118-555906-552541-523033-551558
3583.12-550826-517205-562651-608030-596161-587274
3588.91-560979-542361-543055-512336-431409-351460
3594.69-341017-360452-344103-352829-419018-458991
3600.48-419186-357678-299405-295774-338834-350659
3606.26-357389-384062-380249-297476-242348-258660
3612.05-224246-178851-208082-271232-315805-281076
3617.84-229519-228798-207463-153869-118221-96901
3623.62-79806-71829-83163-174275-328170-344355
3629.41-170394-41146-45392-60396-58764-39763
3635.19-2517 32155 42573 17509-30550-49158
3640.98-2390 114051 223482 257577 228079 192883
3646.76 189164 140671 140346 249984 365946 505712
3652.55 616129 653477 607575 568513 644670 749105
3658.33 824877 906545 989138 1067483 1106828 1108942
3664.12 1182836 1296725 1326648 1273548 1185638 1044266
3669.90 961414 1085170 1179948 1065820 855288 745022
3675.69 839181 1011437 1127000 1152758 1119683 1099305
3681.48 1086885 1029058 900080 758914 642848 496927
3687.26 356527 366588 409127 415383 491987 546667
3693.05 497490 407037 396620 488098 546509 541917
3698.83 527901 505641 443700 379822 342070 343385
3704.62 334828 282801 243809 199805 151208 117093
3710.40 38037 38572 146754 140056 42397 20029
3716.19 53231 52632 43962 80648 127905 123588
3721.97 130823 172862 163525 141164 155380 190371
3727.76 206328 213112 207489 119881 66338 79542
3733.54 37329 21463 44079 123432 255236 354251
3739.33 403862 429350 455342 352086 127133 191647
3745.12 499832 665103 644716 513623 554612 642183
3750.90 554484 683431 941620 970995 917581 933082
3756.69 956667 884007 828710 901535 928888 914099
3762.47 970334 967214 845419 770595 807375 803061
3768.26 677767 616735 606613 548888 548578 539325
3774.04 479851 419720 376919 351749 298817 283006
3779.83 380173 449935 454159 449012 387301 333692
3785.61 351786 387799 416066 445067 481275 459316
3791.40 430359 471729 463698 396174 357383 376822
3797.18 389200 361393 271871 146923 206845 410095
3802.97 537010 514110 336637 224414 400511 614785
3808.76 661449 674126 685482 680759 708089 700218
3814.54 583133 607853 799077 883133 856524 759333
3820.33 688238 800268 1008099 1124719 1139159 1115946
3826.11 1140714 1251483 1315421 1291173 1210909 1199553
3831.90 1315945 1330714 1239093 1229290 1165241 1055363
3837.68 1181806 1379291 1426311 1466327 1547999 1563454
3843.47 1545474 1588965 1677270 1703741 1658928 1675308
3849.25 1699187 1594438 1469776 1362650 1276986 1483645
3855.04 1717512 1771099 1829537 1862797 1850232 1798198
3860.82 1730023 1769716 1824350 1774321 1748963 1750307
3866.61 1709020 1635973 1525947 1570347 1791887 1923656
3872.40 1876332 1845591 1942898 2013322 2033220 2063957
3878.18 2036872 1993361 2043464 2138417 2203396 2189214
3883.97 2072399 2044042 2186543 2279704 2265248 2215645
3889.75 2132923 2091236 2136813 2195984 2245875 2273259
3895.54 2243198 2197348 2124319 2093088 2165391 2192710
3901.32 2181511 2186744 2183527 2221345 2236216 2204152
3907.11 2214331 2250547 2287209 2328729 2338539 2390604
3912.89 2470375 2456304 2394455 2372354 2406039 2404600
3918.68 2395597 2473365 2564096 2579264 2536794 2520635
3924.46 2544980 2566511 2586610 2639589 2659599 2597555
3930.25 2515474 2482197 2528226 2624157 2675683 2619972
3936.04 2512351 2482934 2546892 2571638 2534237 2487600
3941.82 2427330 2385538 2384654 2375272 2317905 2224661
3947.61 2097488 2007906 2049266 2125654 2163279 2200848
3953.39 2204964 2178362 2136562 2102163 2115705 2188944
3959.18 2239211 2201137 2154711 2150003 2191637 2224878
3964.96 2196580 2173263 2211465 2260545 2232078 2199095
3970.75 2220983 2247269 2285770 2375273
##END=
