##TITLE=1,4-Dimethylbenzene
##JCAMP-DX=4.24
##DATA TYPE=INFRARED SPECTRUM
##CLASS=IUPAC A
##ORIGIN=NIST, Analytical Chemistry Division, 301-975-3108
##OWNER=COPYRIGHT (C) 2001 by the U.S. Secretary of Commerce
##DATE=01/06/01
##$SPECTRA VERSION=1.10
##$UNCERTAINTY IN Y=2.1 % relative (B=1.10E-04,C=1.28E-9,D=4.08E-14)
##CAS NAME=1,4-Dimethylbenzene
##CAS REGISTRY NO=106-42-3
##MOLFORM=1,4-( C H3)2 C6 H4
##MP=13.26 C
##BP=138.35 C
##$NIST SOURCE=QUANT-IR
##SPECTROMETER/DATA SYSTEM=IFS66V (Bruker)
##INSTRUMENT PARAMETERS=KBr Beam Splitter; MCT Detector; Multipass cell
##STATE=gas
##SAMPLE DESCRIPTION=p-Xylene Primary Gas Standard
##PRESSURE=101.3 Pa
##TEMPERATURE=23 C
##SAMPLING PROCEDURE=1 L/min Flow
##RESOLUTION=1.9290
##DATA PROCESSING=Happ Genzel Apodization
##XUNITS=cm-1
##YUNITS=(micromol/mol)-1m-1 (base 10)
##XFACTOR=1.0
##YFACTOR=9.0949E-13
##DELTAX=0.9645
##FIRSTX=575.652
##LASTX=3974.605
##FIRSTY=1.50E-06
##MAXX=3973.64
##MINX=575.65
##MAXY=.0005384
##MINY=-8.00E-07
##NPOINTS=3526
##XYDATA=(X++(Y..Y))
575.65 1655539 1257798 634911 724546 670011 672537
580.47 232342-521245-560980-237550 200600 459148
586.26 162865-284363-380735 212974 344252 163800
592.04-200266-361483-511149-464951-92885-297304
597.83-527824-449498-553282-720807-535264-534225
603.62-420224-358137-545617-831985-880676-449568
609.40-315288-375685-590300-815395-835411-776267
615.19-689649-304262-247264-701019-699539-555545
620.97-636391-431140-372452-463550-550334-584407
626.76-728070-677704-293342-230368-397801-312514
632.54-414583-611226-695233-606604-284257-298220
638.33-473179-476376-213691-244629-339830-377418
644.11-441628-513525-375262-132313-103382-352564
649.90-358344-419588-332379-327391-460310-349694
655.68-165233-240886-334137-300634-299428-292665
661.47-298818-277579-332949-220455 2225 473973
667.25 289482-160003-199561-321161-354720-333857
673.04-320875-336914-181625-177681-89394 127535
678.83 201614-21772-250552-327457-381260-502679
684.61-239841-32538 7153 87045 160564 167958
690.40 151811 81471 61918 258979 356744 345015
696.18 371724 307598 377674 576130 553396 273656
701.97 165394 185815 184583 282555 263158 197375
707.75 186202 172140 124996 171221 378011 400216
713.54 292203 187334 205302 247031 318910 228781
719.32 182802 218383 228976 150226 162294 243097
725.11 270467 384165 388087 309948 369209 409113
730.89 465253 416973 324864 259559 233465 208080
736.68 250234 353314 389903 713123 900607 501047
742.47 297585 462759 460637 375301 490793 598944
748.25 649734 672513 713030 737391 830615 1001343
754.04 1069230 1056801 1154410 1309528 1563016 1902997
759.82 2327265 2767318 3361665 4270924 5421517 6863817
765.61 8698158 10912107 13327605 16137423 19693403 23887576
771.39 29005660 35114256 42265847 50588861 60097749 70428882
777.18 81639641 93491133 105685026 118385748 131573630 144606179
782.96 156468427 167026670 178524864 189185046 192310206 190249918
788.75 190854568 195603951 206983221 239863753 333456272 512396491
794.53 592031191 407365186 236527200 197767753 195669376 197221721
800.32 197028793 195177929 191651166 184541855 174578315 164789010
806.11 153261514 139264356 123707536 108753680 94948128 82183155
811.89 69917798 58478548 48139070 39296834 31694867 25358552
817.68 20181669 16263231 13279799 11283763 9721372 8594724
823.46 7873758 7460853 6932640 6500876 6074087 5878423
829.25 5633999 5376201 5121397 5033053 4927549 4847224
835.03 4740256 4632221 4302075 3885518 3466317 3104638
840.82 2503943 2212979 2064899 1810990 1464179 1353768
846.60 1412699 1347618 1030588 935417 1056890 1122715
852.39 1058504 937264 924478 970405 963025 994566
858.17 934608 872526 873939 919908 996785 1041160
863.96 1057448 1009824 925418 1019970 1103387 1215091
869.75 1225101 1224370 1198857 1239874 1240342 1214389
875.53 1200699 1294372 1314238 1251417 1308627 1366062
881.32 1177491 1176175 1294274 1428732 1479424 1428700
887.10 1430077 1567176 1581196 1521848 1514813 1610300
892.89 1598029 1592515 1610139 1646022 1636705 1645840
898.67 1581298 1595152 1607276 1593873 1587303 1635601
904.46 1705759 1798214 1827915 1867304 1882420 2034079
910.24 2210038 2404302 2549224 2636045 2773810 2969129
916.03 2943905 2972116 2981470 3014855 3068474 3172521
921.81 3226214 3252760 3270881 3265300 3271216 3339103
927.60 3228337 2950937 2861251 3000715 2971919 2815424
933.39 2741014 2779349 2706779 2643314 2635953 2771551
939.17 2795677 2842279 2925557 3013605 3099172 3202508
944.96 3273152 3396359 3507444 3589368 3644283 3728222
950.74 3860367 4022220 4166073 4288257 4409966 4614007
956.53 4683654 4742608 4704493 4762980 4877004 4793367
962.31 4742877 4776836 4895748 5008991 5048185 5125489
968.10 5249525 5401099 5318180 5154362 5024939 5010720
973.88 4969131 4912272 4927836 5003891 4946306 4862953
979.67 4835490 4817739 4840575 4952284 4979087 4948186
985.45 4891279 4940027 5046280 5153987 5230697 5274429
991.24 5341623 5426733 5443930 5491060 5550700 5655352
997.03 5694217 5724543 5676872 5664869 5630939 5502848
1002.81 5344501 5316610 5343380 5381305 5450709 5771640
1008.60 6263086 6943250 7891575 9254427 11110146 13635482
1014.38 16439909 19610405 22570032 24259734 24416848 23431882
1020.17 21887990 21569143 25047923 29262584 25831525 22667761
1025.95 24839445 27769770 29389411 29300589 27914877 25740448
1031.74 23469831 21607860 20370714 19445828 19012560 18990402
1037.52 19165847 19637236 20593771 22058827 23911182 25493784
1043.31 26564483 27264382 27068621 26896863 27434913 27732181
1049.09 27249719 27065178 27101715 26616599 25989228 25559454
1054.88 24937811 24104550 23241378 22349453 21508524 20726142
1060.67 20021999 19318060 18558188 17709942 16826463 15970158
1066.45 15147860 14484446 13902151 13322414 12710691 12086079
1072.24 11520585 11085678 10776391 10487070 10163613 9953296
1078.02 9822387 9750268 9873260 10071052 10325432 10541983
1083.81 10876376 11361090 11907948 12540937 13341315 14263609
1089.59 15273672 16443433 17603516 18592826 19439404 20128284
1095.38 20612293 20815772 20580240 19985701 19659601 20145159
1101.16 21390230 23364168 25446470 27310484 28850319 30163295
1106.95 31423180 32785066 34523692 36731980 39213077 41810446
1112.73 44061185 45234715 44943209 42843991 38791417 33716661
1118.52 29632855 28267194 30017376 33594415 37068730 39107340
1124.31 39515736 38475526 36156744 33018427 29373852 25821143
1130.09 22620067 19817677 17533120 15651705 13898346 12362024
1135.88 11063745 9924552 8984088 8179659 7416184 6817401
1141.66 6197620 5659196 5301100 5014041 4707897 4460561
1147.45 4263497 4111555 3948445 3824331 3760001 3673615
1153.23 3591816 3606232 3559480 3454657 3476124 3517466
1159.02 3463635 3412216 3424517 3488469 3491729 3482405
1164.80 3483485 3590419 3736338 3728272 3638283 3679833
1170.59 3691292 3709037 3668687 3707894 3865210 3852085
1176.37 3769162 3809504 3780362 3763819 3775268 3767882
1182.16 3687144 3609354 3618256 3561994 3413383 3297188
1187.95 3219757 3221429 3237052 3214465 3104850 3084676
1193.73 3059651 3006728 2908271 2853429 2879399 2926045
1199.52 2948168 3060715 3156693 3212837 3377789 3750673
1205.30 4263251 4911443 5676169 6689364 7970993 9545384
1211.09 11116425 12583083 13771746 14524197 14730038 14531073
1216.87 13910686 13823062 15289745 16698799 15596174 14544439
1222.66 15880854 17802847 18918298 18960097 18120440 16898144
1228.44 15809549 15041583 14725307 14768468 14929889 15056239
1234.23 14840580 14365067 13823086 13579666 13961519 14499647
1240.01 14415390 13858858 13403119 13161264 12830519 12143507
1245.80 11060171 9783443 8494359 7286498 6300168 5558446
1251.59 4984345 4625908 4334761 4053198 3929638 3782830
1257.37 3677086 3591815 3417787 3309241 3221769 3107250
1263.16 3053939 3225637 3283575 3302296 3262833 3177170
1268.94 3172123 3114757 2997504 2883486 2809193 2788766
1274.73 2719424 2641188 2591524 2560149 2545578 2534295
1280.51 2516366 2526033 2530396 2539670 2565600 2575883
1286.30 2617509 2639199 2601417 2667759 2698911 2664437
1292.08 2726699 2775651 2780906 2864319 2979252 3079435
1297.87 3129542 3194443 3356412 3595079 3736145 3929790
1303.65 4233529 4592961 4655405 4665159 4817177 4987822
1309.44 5220526 5400311 5510471 5528578 5458176 5369018
1315.23 5311404 5323018 5447049 5738012 6113536 6341321
1321.01 6486409 6631362 6673398 6606145 6576610 6722791
1326.80 6826058 6896735 6937890 6997853 7143070 7207651
1332.58 7198534 7238233 7380000 7621579 7890483 8201069
1338.37 8620532 9085453 9581655 10119379 10408892 10194165
1344.15 9802763 9581529 9446500 9238133 9118566 9143649
1349.94 9098296 9048424 9198684 9579717 9693697 9576612
1355.72 9434603 9199317 9017856 8754211 8642832 8778519
1361.51 8869169 9041214 9201238 9511366 9762713 9953649
1367.29 10153406 10309084 10448793 10737174 11274472 12051000
1373.08 12985070 14213737 15701346 17374557 19176718 20760978
1378.87 21705689 22139230 22724070 24785135 26529748 25066813
1384.65 24637256 26270064 27654721 28290788 28308959 27612270
1390.44 26329493 24814280 22950517 21105923 19793572 18957466
1396.22 18303989 17833438 17509265 17366865 17450255 17777409
1402.01 18167559 18530134 18891118 19425408 20116943 20797933
1407.79 21374290 22011054 22651901 23202386 23886424 24777725
1413.58 25513569 25989816 26764153 27925152 29136663 30297380
1419.36 31734653 33147019 34508861 35850496 36936318 37898863
1425.15 38812555 39631595 39913957 39660641 39431862 39775310
1430.93 40132041 40000064 39973174 40098747 39972191 39944624
1436.72 40118577 40055507 39726508 39252497 38511365 37150058
1442.51 35288783 33710661 32577352 31762364 31328805 31548907
1448.29 32272953 33333366 34754323 36300596 37576453 38038916
1454.08 37700616 36630109 35241826 34541860 34510819 34944811
1459.86 35711687 37040768 39082671 41380381 43360865 45372807
1465.65 47454283 49519411 51285304 52360807 52343800 50981138
1471.43 48990282 46876809 44957196 43117883 41313467 40084603
1477.22 39385334 39401057 40030988 40876042 42053864 43559238
1483.00 44878628 45675306 45726512 45585783 45356798 45060675
1488.79 44781195 44614409 44664076 45139243 46497948 48768491
1494.57 50656014 52091948 54011301 56339723 58383067 59768071
1500.36 60633930 61423925 62631229 64881047 69004439 75708984
1506.15 85567694 99198300 116801063 138711254 164611545 193046649
1511.93 221083982 244495903 257862648 257429210 247338364 239896724
1517.72 249981995 274333080 277632424 250114440 231569787 239649629
1523.50 255553307 261945449 250750345 224332995 191605471 158904429
1529.29 129488629 104492624 84099951 68095934 55985748 46918800
1535.07 40043408 34928736 30961302 27778293 25564327 24069109
1540.86 22601931 21347091 20279978 19179076 18407928 17882885
1546.64 17317572 16902225 16652140 16462449 16218296 15831831
1552.43 15288091 14723713 14333916 13852824 13253023 12679380
1558.21 12415498 12159550 12077309 11925121 11651845 11352957
1564.00 10975415 10716889 10474646 10147777 9733949 9355957
1569.79 9126939 8865043 8565082 8302584 7961348 7314570
1575.57 6947508 6997083 6814372 6696216 6598594 6449269
1581.36 6264047 6177585 6021785 5878668 5705177 5584698
1587.14 5507960 5409742 5383157 5420128 5577510 5794491
1592.93 5843107 5834039 5878667 5916026 5967010 6088680
1598.71 6172906 6249146 6336939 6506227 6777306 7083250
1604.50 7353463 7695645 8112693 8628229 9141732 9611931
1610.28 10157048 10852613 11661866 12576523 13430678 14109287
1616.07 14991667 16294633 17304265 18049336 18467942 18646806
1621.85 18485771 18117652 17513087 16653926 15913982 15654178
1627.64 16052954 16770765 17206292 17348548 17059876 16236532
1633.43 14892549 13363883 12170452 11074303 10012622 9026525
1639.21 8085060 7346002 6662352 6002846 5334076 4678340
1645.00 4046350 3755939 3472570 3326755 3141110 2840272
1650.78 2242097 1652627 1778283 2164807 2299231 2280462
1656.57 2248740 2187266 2048152 1984315 2020448 2031448
1662.35 2000389 2074082 2068792 1992344 1850583 1673819
1668.14 1459139 1500837 1516314 1514132 1612325 1567981
1673.92 1277238 1263521 1382605 1331801 1224871 1125423
1679.71 1086711 1133741 1004566 764716 461543 633839
1685.49 994986 1072273 1066078 1011474 997129 1010262
1691.28 1003836 972248 904511 574013 381256 781655
1697.07 939621 704759 342165 512111 813880 882978
1702.85 847759 861101 851651 828084 936392 1070983
1708.64 1090693 1104865 1180828 1328223 1462102 1534343
1714.42 1676128 1818167 1856208 2281042 2808185 3116834
1720.21 3272901 3301885 3234397 3134647 3069647 3097531
1725.99 3220837 3275276 3191407 3132827 3101392 3031062
1731.78 2714843 2301813 2214252 2389770 2506307 2514495
1737.56 2476164 2431558 2525865 2696382 2830843 3029504
1743.35 3176277 3237813 3275301 3398629 3496624 3567946
1749.13 3600680 3565958 3750049 3873538 3802406 3778217
1754.92 3749069 3648898 3623432 3595368 3550171 3441007
1760.71 3175665 3108806 3104831 3159964 3165840 3053038
1766.49 3002211 3092425 3239645 3326151 3437670 3550836
1772.28 3874245 4394997 4864174 5412062 6084293 6942317
1778.06 7935741 9059486 10231324 11356874 12222868 12750015
1783.85 12775842 12510403 12112029 11724344 11746232 12509508
1789.63 13192886 12764093 11952395 11722634 11475637 10855900
1795.42 9924065 8688643 7268640 5922621 4753051 3817507
1801.20 3175584 2690772 2277284 1956594 1731804 1606932
1806.99 1444238 1289907 1167329 1051838 1012932 1000540
1812.77 933200 965827 1006918 975422 947576 954145
1818.56 977712 1065257 1134823 1209373 1310254 1383522
1824.35 1491611 1714796 1929459 2169881 2408746 2709943
1830.13 3010373 3317185 3581978 3723269 3777201 3919383
1835.92 4103022 4238278 4270798 4291375 4400805 4496099
1841.70 4503295 4358481 4198984 4151673 3977192 3711644
1847.49 3421943 3188916 3001824 2779309 2605676 2542683
1853.27 2470344 2410168 2347456 2306977 2307576 2371990
1859.06 2455485 2570618 2715421 3010682 3358819 3691485
1864.84 4061295 4482445 4956799 5518544 6176457 6919688
1870.63 7680083 8533837 9502676 10560136 11632099 12841646
1876.41 14286822 15916784 17561139 19201832 20811825 22272023
1882.20 23163482 23368304 22867940 21786372 20201407 18482289
1887.99 17364061 17577482 19165995 21429123 23306399 24016679
1893.77 23492010 22012664 20024140 18066727 16154856 14179814
1899.56 12332412 10884333 9737314 8724246 7693637 6865912
1905.34 6199168 5606326 4998719 4416905 3953194 3686000
1911.13 3439351 3224056 2992801 2864680 2772382 2632784
1916.91 2509512 2522570 2546253 2574281 2541494 2505327
1922.70 2461536 2432451 2329133 2257208 2222047 2168861
1928.48 2098898 2069413 2020686 1941871 1797267 1668573
1934.27 1565221 1402673 1214772 1071760 963513 919417
1940.05 895849 848806 839717 879822 870812 855909
1945.84 840045 872341 942218 1008090 1035306 1050307
1951.63 1083282 1201326 1274256 1337938 1440162 1472532
1957.41 1307997 1108020 1029830 1006382 984031 977830
1963.20 1040627 1086287 1061944 1063359 1074169 1099562
1968.98 1096858 1126085 1169050 1209286 1341942 1349710
1974.77 1230416 1288675 1338475 1335083 1374016 1485189
1980.55 1519428 1494084 1463997 1393373 1395725 1479518
1986.34 1497192 1457545 1390839 1374760 1313737 1268459
1992.12 1250359 1283842 1319675 1323629 1295221 1218126
1997.91 1128934 1115870 1059312 1038546 1050170 1037451
2003.69 1011551 992259 954163 842307 850293 881863
2009.48 831539 815538 730991 688563 670983 650911
2015.27 551827 475297 463851 464035 400245 353411
2021.05 285943 236730 251554 304396 356099 394998
2026.84 353379 335823 279016 272964 303944 363632
2032.62 391848 374938 345586 285665 215052 261930
2038.41 318129 330141 347195 393122 363171 371220
2044.19 338149 288160 208632 164349 181134 222217
2049.98 215039 181296 90655 51324 26902-16609
2055.76-55900-38017-21588-54830-140342-122351
2061.55-114822-142168-125228-97446-108209-119744
2067.33-105126-75701-79954-49878-20095 73369
2073.12 47169 18043 35790 127301 170655 67631
2078.91 27787 112367 261290 303262 236467 249253
2084.69 414341 516359 380366 398132 574521 801434
2090.48 747010 749356 892558 1281917 1507626 1535107
2096.26 1617451 1905307 2191692 1967050 1814558 2006713
2102.05 2399252 2385676 2130112 2064724 2291955 2373289
2107.83 2062101 1939989 1978674 1931218 1341948 969795
2113.62 901283 1051816 640114 285682 281119 535800
2119.40 327393 89781 132824 437389 322306-50771
2125.19-88872 197463 178139-113863-140065 74785
2130.97 118362-79957-158039-35259 55968-99036
2136.76-207115-152584-106151-224376-270269-177029
2142.55-130287-155259-141393-61289-75956-188751
2148.33-222489-44514 22858-123266-76815 157971
2154.12 123263-59653 49675 298231 212457-15335
2159.90 161719 470423 256171 25156 323315 570915
2165.69 271984 141037 515040 569254 147603 188055
2171.47 586994 478919 168512 398205 658538 357473
2177.26 183549 514362 532003 139305 126289 399993
2183.04 248875 15387 284873 397745 107079 106126
2188.83 311518 182599-54185 162083 251436 42745
2194.61 102975 270613 202457 180751 385693 509777
2200.40 467428 644908 802437 739183 772338 863489
2206.19 843038 847094 866389 801279 756327 864134
2211.97 926535 897317 870116 858094 718581 546806
2217.76 426096 292889 229865 208965 132812 105873
2223.54 82024 69975 28827 14055-5775-31226
2229.33-51224-37751-25716 3268-23049-67746
2235.11-80039-26385 5794-25771-63312-84779
2240.90-160916-208153-175072-119371-130252-170444
2246.68-200197-200746-206976-178786-148064-173468
2252.47-206198-202080-216658-185919-128280-77438
2258.25-37355-781 19624 15446 15033 59397
2264.04 41462 71556 143990 190353 287412 309364
2269.83 311389 357202 378591 412093 474414 514809
2275.61 519085 567472 623454 691215 688603 680016
2281.40 688649 696372 688837 722341 825946 890730
2287.18 920039 999509 1032930 1104305 1233370 1340529
2292.97 1484195 1651870 1813587 1964854 2171077 2358115
2298.75 2536018 2643099 2658932 2605845 2476395 2335314
2304.54 2085575 2013102 2119790 2344708 2531918 2715164
2310.32 2890720 2897598 2791929 2594139 2427135 2224371
2316.11 2194756 2056851 1915531 1739269 1705041 1689341
2321.89 1703417 1686845 1763003 1797451 1900706 1974251
2327.68 2055324 2105932 2197129 2325397 2543062 2671134
2333.47 2740373 2822061 2959464 2978257 2904247 2845102
2339.25 2875866 2975923 3059291 3079881 3022493 2865057
2345.04 2665315 2435474 2240831 2034634 1951531 1951508
2350.82 1912322 1846391 1755371 1725036 1674936 1711889
2356.61 1770100 1750750 1708634 1723189 1617006 1525254
2362.39 1511831 1479605 1427571 1327561 1244487 1149609
2368.18 1056123 990105 925889 807067 689743 669593
2373.96 646589 643631 578465 559211 551288 545864
2379.75 537170 486675 446608 480217 520646 484889
2385.53 455571 515707 572456 604583 588531 584528
2391.32 584912 623981 660724 659590 659993 636179
2397.11 640988 717802 789332 860028 962263 1040652
2402.89 1073922 1079620 1097155 1202394 1307318 1357974
2408.68 1389478 1421219 1404247 1400080 1398301 1507798
2414.46 1613994 1638846 1682271 1723663 1692351 1697331
2420.25 1686882 1638633 1656096 1678432 1650400 1646554
2426.03 1636093 1681690 1670513 1653825 1617126 1545264
2431.82 1468101 1519543 1501148 1468770 1484361 1496223
2437.60 1484948 1489919 1401465 1331621 1299550 1242456
2443.39 1188706 1179899 1077776 1021565 1000710 1012310
2449.17 995555 932522 920420 941684 891080 858577
2454.96 832028 825973 818828 805917 812407 864880
2460.75 886530 841158 765642 781567 821210 881306
2466.53 906605 857478 866177 903600 886792 867587
2472.32 875680 944548 948662 985345 1012689 935822
2478.10 914156 909567 896583 882078 834440 849895
2483.89 865551 877076 802010 802751 846258 821895
2489.67 782824 804183 791281 785227 813947 764815
2495.46 690095 712514 723586 661605 592788 557824
2501.24 512160 533272 528753 519711 508620 505924
2507.03 452530 423703 423472 388577 369607 397226
2512.81 379327 336393 346396 374843 347083 320421
2518.60 323920 309686 301989 357069 384167 361715
2524.39 354909 353641 350986 331495 293743 310492
2530.17 320861 297919 242845 206955 227907 284172
2535.96 247568 283255 282740 306848 360419 289150
2541.74 196027 194058 144489 70253 6634 46339
2547.53 47705 8809-52115-89030-107535-120284
2553.31-173905-183802-238527-239863-224280-179894
2559.10-84601-74339-141013-135591-108080-80257
2564.88-108851-72150-34474 15383 51621 121678
2570.67 199373 270884 359393 510303 667432 849441
2576.45 1105632 1307242 1510040 1837664 2068847 2308575
2582.24 2547157 2703465 2859301 3040364 3178103 3269981
2588.03 3369495 3550779 3676724 3781438 3890523 3974136
2593.81 3927392 3795254 3588296 3327083 3077925 2761954
2599.60 2406684 2193535 2028282 1969226 1898233 1806236
2605.38 1861432 1925841 1879113 1678461 1498952 1383678
2611.17 1226497 1080326 964755 841844 749443 679357
2616.95 660952 605757 536514 484930 388573 335315
2622.74 260530 245817 177544 86402 54771 74275
2628.52 63316 153114 193302 156159 201042 276387
2634.31 293742 329409 308770 298082 351626 424431
2640.09 453313 457682 388777 394186 374333 277930
2645.88 279051 284616 283803 310004 301562 234758
2651.66 138561 76271 35520-34894-73660-78429
2657.45-156085-134147-107064-162976-147233-94220
2663.24-97063-120409-126746-149788-140161-110435
2669.02-126486-144276-124464-113108-175257-170861
2674.81-210907-235424-207391-160591-127501-133312
2680.59-141434-131525-50958-13759-111753-136688
2686.38-67762-54367-16583 52443 97331 144650
2692.16 154276 246190 324139 320317 311611 360006
2697.95 456080 547451 698433 896669 988446 1035300
2703.73 1078921 1203257 1372358 1491591 1560840 1623781
2709.52 1665145 1780627 1891871 1949067 1948820 2003404
2715.30 2023135 2040109 2102338 2182051 2305974 2383308
2721.09 2381407 2490350 2609719 2743713 2810449 2998897
2726.88 3274841 3648280 4185112 4979120 5919743 7063675
2732.66 8366053 9757225 11310575 12876192 14284932 15308093
2738.45 15783976 15840250 15683407 15959314 17552538 18917512
2744.23 17484555 16132855 16792592 17830898 17924679 16858436
2750.02 14943460 12480807 9958732 7818024 6133369 4913386
2755.80 4029707 3357927 2782322 2308267 2020490 1850114
2761.59 1680963 1468479 1298358 1296902 1291755 1244456
2767.37 1180382 1178405 1088130 1032582 1151194 1197121
2773.16 1142759 1129764 1177086 1194644 1257241 1285997
2778.94 1284751 1283011 1330558 1307053 1330531 1455399
2784.73 1515902 1602826 1710949 1738424 1722523 1862561
2790.52 1976633 2044122 2164963 2274046 2401621 2528514
2796.30 2635532 2812172 2925528 2988690 3192276 3407378
2802.09 3534229 3643598 3737226 3852145 4006597 4052546
2807.87 4073276 4298441 4522751 4738419 4906544 5054674
2813.66 5253878 5576228 5859112 6065387 6292900 6580889
2819.44 6836088 7154396 7491347 7855366 8120391 8425127
2825.23 8886994 9322558 9709162 10139035 10594827 11039643
2831.01 11501168 12028590 12583354 13049274 13378586 13709201
2836.80 14026216 14373801 14797901 15403043 16080297 16772715
2842.58 17438937 18152795 18965035 19634303 20194168 20818912
2848.37 21588628 22640363 23778280 25115602 26759769 28690672
2854.16 30903268 33566762 36519008 39772881 43510359 47673943
2859.94 52385258 57786045 63859530 70686375 78146537 86153845
2865.73 94522768 103108474 111635529 119933072 127928867 135451640
2871.51 142454406 149054494 155116260 160571950 165252254 169023140
2877.30 171667822 173388668 174334775 174557973 174007291 172649743
2883.08 170645169 168205746 165075380 161410174 157438388 153320281
2888.87 149358563 145762832 142437502 139452529 136829920 134356202
2894.65 131743086 128966822 126355683 124204002 122269283 120265286
2900.44 118315649 116561231 114887044 113186852 111476232 109962055
2906.22 108527661 107330680 106520538 106211858 106420751 107111278
2912.01 108523336 111003649 114425394 118868174 124231958 130459874
2917.80 137887781 146499091 156310817 167344152 179439524 192603465
2923.58 206770535 221784129 237666011 254031598 269916053 284152554
2929.37 296231108 306773005 315964313 323698081 330033897 334915705
2935.15 336942465 334696554 329392088 323342363 317618032 311920150
2940.94 304968622 295813617 283294446 267065033 248486040 229796049
2946.72 212660760 197097146 183214567 171049130 160224328 149480208
2952.51 137961462 127547923 119669900 114326034 111271876 110138461
2958.29 110211758 110189872 108581236 105888019 102478768 98318131
2964.08 94366308 90888056 88056968 85787534 83627881 81836864
2969.86 80934700 80880255 81428393 82533871 84082304 85841732
2975.65 87866145 90279857 92933702 95945306 99737102 104436844
2981.44 109181133 112406915 114046260 115521973 117696455 121253648
2987.22 126588342 133189241 139566127 144848015 149163893 153574731
2993.01 158981874 165886751 174272346 182782071 189737425 195616122
2998.79 201646002 208614525 216532721 224392598 230394258 232348465
3004.58 229155545 223166732 217309229 213267921 211760686 212914574
3010.36 215609629 217293840 216904816 216186302 216908991 219759619
3016.15 224585283 230706438 237377577 244568238 251893495 258422358
3021.93 263100391 265091647 264378924 262224150 261164935 261913135
3027.72 261237193 257366317 253911945 253575794 254466859 252764354
3033.50 246947264 237026492 223969621 210019117 196968627 185370638
3039.29 174945621 165882062 159154448 155801103 155126393 156472672
3045.08 159843373 164631313 168779156 170549168 171161181 171635471
3050.86 171624505 171156924 170523206 169356587 166591989 163522224
3056.65 162140093 161435580 160113339 157807432 154414524 149701095
3062.43 143652942 136747789 129225260 121215731 112821434 104304455
3068.22 96014042 87969207 80479533 73648587 67515755 62004605
3074.00 56940964 52527191 48536749 44918310 41783792 38911645
3079.79 36345427 34237557 32436921 30875416 29681405 28910030
3085.57 28176182 27550322 27342894 27429302 27614395 27894017
3091.36 28302915 28877808 29651194 30342806 30595834 30586100
3097.14 30511023 30325544 30057571 29956683 29860894 29903939
3102.93 30206626 30344371 30178327 29833760 29124492 28196619
3108.72 27167387 26088715 24953660 24021770 23151829 21910180
3114.50 20508164 19086861 17721400 16303542 14844508 13487931
3120.29 12205609 11061881 9859992 8790895 8031662 7435071
3126.07 6786087 6348978 6175855 6193501 6198891 6347476
3131.86 6693039 7162526 7688424 8206643 8687262 9103161
3137.64 9336087 9619921 9925996 10092128 10251007 10335823
3143.43 10216747 10191688 10289332 10406427 10343531 10016820
3149.21 9429626 8612770 7705799 6706348 5849538 5099188
3155.00 4309129 3626277 3086986 2583034 2079065 1647518
3160.78 1465985 1414957 1330255 1211675 1040286 844298
3166.57 621106 521016 471631 383291 301359 175881
3172.36 121846 200554 129287 56145-2460-42024
3178.14-7640 43879-17314-95633-132585-96572
3183.93-58038-108920-201214-311014-314390-325358
3189.71-419225-379045-321953-382385-395008-319042
3195.50-333428-380275-355898-362366-403359-375058
3201.28-345595-329336-379380-444747-413188-369948
3207.07-308680-282477-367655-403658-364448-343330
3212.85-372236-366946-197723-243083-335481-332623
3218.64-435420-384020-316820-291442-271189-178285
3224.42-194812-272424-324616-366981-368206-258779
3230.21-271697-319475-330030-345450-342996-260942
3236.00-245633-337631-374218-256897-231685-165065
3241.78-148397-129512-82861-119741-243673-286008
3247.57-309508-201632-50163 39840 53164-42494
3253.35-120468-30426 531 9078 109676 50878
3259.14-122249-8257 90428 67114 8319-16882
3264.92 58827 71610 69022-5797-18692 11599
3270.71-20592 32757 46026-111926-130298 8498
3276.49 69556 112699 102042-31793-11086 29865
3282.28 32621 90387 84196 65813-4962-4686
3288.06 59678 64102 101397 129675 68466 96828
3293.85 242427 253760 128320 139187 107568 22990
3299.64-2975 16752 51695 76058 15095-29814
3305.42 19187 112577 363-59727 27691 49811
3311.21-2537 58287 134753 91535 70192 51580
3316.99-22228 47735 128200 161305 74328-2013
3322.78 67042 83627 74075 74666 100339 47493
3328.56-31312-77524-118295-45129 54606 83386
3334.35-14319-87131-151246-81120-62536-112634
3340.13-118662-74191-36631-46642-33073-54243
3345.92-79672-80598-47429-38499-45260-9734
3351.70-113757-159926-145862-127375-85259-89358
3357.49-101400-37698-64223-155155-161829-115879
3363.28-96653-77951 12310 110977 80550 8243
3369.06 45611 175583 97625 64040 163034 103190
3374.85 54846 153112 270443 234253 216987 323683
3380.63 309174 236821 272695 429281 516274 446580
3386.42 314054 275039 364526 517051 384874 298058
3392.20 313064 234129 208936 266925 339041 292500
3397.99 243822 270302 203702 92542 3749 23931
3403.77 95363 111314 47893-53547-18688 13845
3409.56-63678-14066 30535-41050-79102-7009
3415.34 64373 87983 18387-54484-82105-14602
3421.13-127406-81951 80033 81874 108074 153495
3426.92 89158 84953 105239 181622 191920 205929
3432.70 208444 258149 399260 406420 331389 282413
3438.49 376968 484512 424748 336319 183131 97366
3444.27 81885 118280 114439 120596 106222 109707
3450.06 47174 23205 52169 12775-62927-12907
3455.84-31959-119789-71375-99018-258583-237119
3461.63-156109-163824-242690-240787-248032-335216
3467.41-351497-276291-317993-354676-337570-359308
3473.20-325820-285692-331474-352504-331471-285377
3478.98-208348-229156-255538-401044-440826-391009
3484.77-371506-386492-430660-341608-258670-216491
3490.56-265006-305521-330398-360000-271141-194724
3496.34-166298-154549-242387-264518-134665-212785
3502.13-304194-336416-360230-326604-254811-185334
3507.91-126727-216173-287303-298656-321881-278438
3513.70-268404-316176-345718-249776-290264-327611
3519.48-403358-336231-322895-470397-491997-395710
3525.27-398989-409344-337191-317269-312208-266400
3531.05-231111-295091-450094-384007-310145-374538
3536.84-415264-443321-383022-298806-327055-273649
3542.62-181227-284182-390917-415507-485672-474658
3548.41-378641-393294-558983-592549-507857-447083
3554.20-456306-488191-542305-581761-590294-609570
3559.98-623420-595021-568938-494112-558424-616782
3565.77-575324-566133-599743-629633-588120-605589
3571.55-535709-507748-594949-632788-572490-502500
3577.34-556585-498762-574562-558913-502793-560095
3583.12-567673-487643-565904-627905-583748-599686
3588.91-554903-538075-548600-525372-431324-335898
3594.69-330535-378498-333480-341041-420433-484744
3600.48-413671-363883-286038-281425-354205-347113
3606.26-354026-384693-405722-289295-217712-279823
3612.05-228112-155477-208369-267526-339604-283787
3617.84-211355-237937-215923-146516-116671-96792
3623.62-77420-71250-68604-150683-359918-392805
3629.41-155166-3264-56815-57287-66103-40491
3635.19-5170 39975 46046 27149-40279-58180
3640.98-20493 115935 241997 266767 234427 173862
3646.76 210671 132936 102552 270462 343693 522483
3652.55 622316 676045 608699 535378 644078 759156
3658.33 819058 908773 988044 1073127 1123408 1086409
3664.12 1171500 1319862 1341366 1276866 1196240 1048636
3669.90 892715 1103171 1225938 1085206 836213 696250
3675.69 827315 1027099 1141278 1169968 1108616 1101194
3681.48 1090599 1051004 896465 754244 645245 512935
3687.26 306019 368213 428148 385835 500914 570670
3693.05 505259 393513 364063 507111 554930 546200
3698.83 521389 523269 436598 380321 328928 346273
3704.62 348877 274392 245103 206868 135649 141429
3710.40 19745 370 186663 159050 20342 6123
3716.19 67505 53132 33215 75324 144865 121204
3721.97 113299 195605 160297 135271 148356 197412
3727.76 208840 207263 234159 113686 34193 117553
3733.54 11742 27123 27578 111692 265051 363260
3739.33 410113 422161 475447 406488 48138 126069
3745.12 561109 677704 694669 455547 530667 728300
3750.90 473059 650345 1016484 974362 901217 925994
3756.69 985488 885620 782432 926519 940962 886042
3762.47 984842 1002143 828587 743870 812907 844691
3768.26 652176 598570 639390 514524 562443 547269
3774.04 479626 416464 370508 360733 298701 244688
3779.83 395673 466579 444653 469575 384804 312904
3785.61 354352 386810 419960 436221 497603 467544
3791.40 398520 495103 472779 391625 340734 380288
3797.18 400148 364015 300766 92373 177136 433524
3802.97 560481 551460 332670 143585 398500 667114
3808.76 651421 678871 688585 674533 703007 746977
3814.54 543370 557733 844594 892217 875024 759855
3820.33 642631 779233 1034119 1144782 1143234 1113410
3826.11 1107743 1273809 1326983 1306817 1201295 1154693
3831.90 1349642 1362116 1201397 1244825 1199230 978484
3837.68 1172083 1427203 1417803 1451246 1568441 1572655
3843.47 1526902 1580856 1686064 1732895 1629685 1676050
3849.25 1728590 1605361 1439887 1408242 1167380 1499117
3855.04 1768434 1749898 1841711 1871118 1852934 1814254
3860.82 1694774 1765490 1860276 1759279 1738794 1770867
3866.61 1699486 1664842 1485152 1525567 1817834 1966828
3872.40 1872412 1803765 1960699 2025698 2020392 2082440
3878.18 2044057 1966528 2036512 2146857 2212229 2221975
3883.97 2053216 1993307 2210092 2302890 2263769 2228809
3889.75 2123932 2068606 2138894 2199078 2243961 2293488
3895.54 2237088 2207877 2121732 2055711 2188753 2199986
3901.32 2168984 2201474 2162421 2231205 2250450 2189499
3907.11 2209428 2255802 2277761 2345389 2326098 2375579
3912.89 2502723 2458714 2391036 2351374 2421233 2410779
3918.68 2367671 2475221 2578331 2596201 2524836 2514312
3924.46 2544377 2573062 2571423 2648543 2678749 2600581
3930.25 2505324 2466846 2515805 2633436 2699236 2632660
3936.04 2494830 2456723 2561957 2586127 2529481 2495324
3941.82 2422036 2375879 2385475 2388405 2320559 2234399
3947.61 2094700 1973184 2043993 2143350 2151130 2216130
3953.39 2205275 2184653 2133985 2094525 2100456 2191380
3959.18 2265819 2196472 2147941 2139955 2189324 2246808
3964.96 2189239 2164164 2199421 2290653 2225475 2187686
3970.75 2219901 2252699 2263612 2389238
##END=
