##TITLE=BENZENE, 1,4-DIMETHYL-
##JCAMP-DX=4.24
##DATA TYPE=INFRARED SPECTRUM
##CLASS=COBLENTZ
##ORIGIN=MONSANTO (JOHN J. FREEMAN)
##OWNER=COBLENTZ SOCIETY
Collection (C) 2018 copyright by the U.S. Secretary of Commerce
on behalf of the United States of America. All rights reserved.
##DATE=1979/06/29
##NAMES=p-XYLENE
##CAS REGISTRY NO=106-42-3
##MOLFORM=C8 H10
##BP=139 C
##SOURCE REFERENCE=COBLENTZ NO. 10544
##$NIST SOURCE=COBLENTZ
##$NIST IMAGE=cob-r10544
##SPECTROMETER/DATA SYSTEM=NICOLET FTIR
##INSTRUMENT PARAMETERS=Hg-Cd-Te DETECTOR - TYPE A, DEAD BELOW 680 CM^-^1, LOW S/N 710 - 680
$$ ABSORPTIONS DUE TO PROBABLE IMPURITY AT 1056 AND 1033 CM^-^1.
##STATE=VAPOR (0.5 MICROLITER AT 195 C)
##PATH LENGTH=0.2 CM x 30 CM GOLD-PLATED LIGHT PIPE. HELIUM CARRIER. INTERFEROGRAMS CO-ADDED FOR FULL TRANSIT TIME.
##SAMPLING PROCEDURE=TRANSMISSION
##RESOLUTION=4 CM^-^1
##DATA PROCESSING=DIGITIZED BY NIST FROM HARD COPY (FROM TWO SEGMENTS)
##XUNITS=1/CM
##YUNITS=TRANSMITTANCE
##XFACTOR=1.000000
##YFACTOR=1
##DELTAX=1.201485
##FIRSTX=708.41
##LASTX=4001.68
##FIRSTY=0.988
##MAXX=4001.68
##MINX=708.41
##MAXY=1.004
##MINY=0.242
##NPOINTS=2742
##XYDATA=(X++(Y..Y))
708.410000 0.9880 0.9990 0.9990 0.9970 0.9950
714.417423 0.9900 0.9771 0.9750 0.9750 0.9750
720.424846 0.9760 0.9810 0.9870 0.9890 0.9980
726.432270 0.9960 0.9950 0.9880 0.9771 0.9770
732.439693 0.9810 0.9840 0.9860 0.9880 0.9890
738.447116 0.9880 0.9870 0.9860 0.9860 0.9850
744.454539 0.9860 0.9860 0.9890 0.9900 0.9920
750.461962 0.9940 0.9950 0.9950 0.9920 0.9900
756.469386 0.9890 0.9880 0.9850 0.9810 0.9750
762.476809 0.9690 0.9630 0.9481 0.9331 0.9211
768.484232 0.9100 0.8850 0.8600 0.8391 0.8191
774.491655 0.8120 0.7762 0.7392 0.7241 0.7012
780.499078 0.6760 0.6490 0.6280 0.6071 0.5881
786.506502 0.5800 0.5730 0.5651 0.5392 0.5132
792.513925 0.4380 0.3641 0.2422 0.2420 0.2799
798.521348 0.3417 0.4235 0.4826 0.4999 0.5000
804.528771 0.5020 0.5050 0.5130 0.5260 0.5489
810.536194 0.5709 0.6028 0.6268 0.6508 0.7115
816.543618 0.7440 0.7700 0.8000 0.8239 0.8778
822.551041 0.8939 0.9049 0.9199 0.9319 0.9399
828.558464 0.9470 0.9580 0.9610 0.9670 0.9680
834.565887 0.9690 0.9700 0.9720 0.9730 0.9740
840.573310 0.9760 0.9820 0.9830 0.9840 0.9860
846.580734 0.9870 0.9880 0.9890 0.9900 0.9910
852.588157 0.9930 0.9930 0.9940 0.9940 0.9940
858.595580 0.9960 0.9970 0.9970 0.9960 0.9960
864.603003 0.9960 0.9960 0.9970 0.9970 0.9970
870.610426 0.9960 0.9960 0.9960 0.9960 0.9950
876.617850 0.9950 0.9970 0.9970 0.9970 0.9950
882.625273 0.9940 0.9940 0.9940 0.9940 0.9940
888.632696 0.9940 0.9940 0.9940 0.9940 0.9950
894.640119 0.9960 0.9960 0.9950 0.9950 0.9940
900.647542 0.9940 0.9940 0.9940 0.9940 0.9930
906.654965 0.9930 0.9920 0.9910 0.9900 0.9900
912.662389 0.9900 0.9890 0.9890 0.9890 0.9890
918.669812 0.9890 0.9890 0.9890 0.9880 0.9880
924.677235 0.9880 0.9880 0.9880 0.9870 0.9870
930.684658 0.9870 0.9870 0.9880 0.9880 0.9880
936.692081 0.9880 0.9870 0.9870 0.9870 0.9860
942.699505 0.9860 0.9860 0.9850 0.9850 0.9840
948.706928 0.9830 0.9820 0.9820 0.9820 0.9820
954.714351 0.9810 0.9810 0.9810 0.9800 0.9790
960.721774 0.9790 0.9760 0.9760 0.9750 0.9750
966.729197 0.9740 0.9740 0.9740 0.9730 0.9720
972.736621 0.9720 0.9720 0.9710 0.9710 0.9700
978.744044 0.9690 0.9680 0.9670 0.9660 0.9650
984.751467 0.9650 0.9640 0.9630 0.9610 0.9600
990.758890 0.9590 0.9590 0.9590 0.9590 0.9580
996.766313 0.9580 0.9570 0.9550 0.9530 0.9520
1002.773737 0.9510 0.9500 0.9460 0.9430 0.9380
1008.781160 0.9310 0.9240 0.9170 0.9090 0.9050
1014.788583 0.9000 0.8980 0.8980 0.8970 0.8970
1020.796006 0.8960 0.8950 0.8950 0.8940 0.8930
1026.803429 0.8910 0.8900 0.8830 0.8751 0.8581
1032.810853 0.8580 0.8780 0.9060 0.9180 0.9170
1038.818276 0.9150 0.9120 0.9090 0.9060 0.9050
1044.825699 0.9000 0.8980 0.8920 0.8900 0.8880
1050.833122 0.8880 0.8870 0.8870 0.8860 0.8860
1056.840545 0.8860 0.8870 0.8890 0.8910 0.8960
1062.847969 0.8970 0.8970 0.8990 0.9050 0.9050
1068.855392 0.9100 0.9120 0.9170 0.9210 0.9260
1074.862815 0.9280 0.9320 0.9340 0.9360 0.9370
1080.870238 0.9410 0.9420 0.9420 0.9420 0.9400
1086.877661 0.9390 0.9360 0.9340 0.9340 0.9330
1092.885085 0.9320 0.9300 0.9300 0.9290 0.9280
1098.892508 0.9230 0.9190 0.9170 0.9120 0.9051
1104.899931 0.9010 0.8970 0.8910 0.8890 0.8850
1110.907354 0.8740 0.8730 0.8650 0.8640 0.8640
1116.914777 0.8660 0.8750 0.8780 0.8860 0.8970
1122.922201 0.9040 0.9040 0.8970 0.8930 0.8880
1128.929624 0.8870 0.8880 0.8960 0.9050 0.9180
1134.937047 0.9290 0.9350 0.9410 0.9450 0.9470
1140.944470 0.9520 0.9580 0.9650 0.9680 0.9720
1146.951893 0.9730 0.9740 0.9750 0.9760 0.9790
1152.959317 0.9810 0.9840 0.9850 0.9860 0.9860
1158.966740 0.9860 0.9860 0.9870 0.9880 0.9880
1164.974163 0.9870 0.9860 0.9860 0.9860 0.9860
1170.981586 0.9860 0.9860 0.9860 0.9860 0.9860
1176.989009 0.9860 0.9860 0.9860 0.9860 0.9860
1182.996433 0.9860 0.9870 0.9870 0.9880 0.9880
1189.003856 0.9880 0.9890 0.9910 0.9910 0.9900
1195.011279 0.9890 0.9880 0.9880 0.9880 0.9880
1201.018702 0.9880 0.9860 0.9830 0.9820 0.9810
1207.026125 0.9770 0.9750 0.9730 0.9670 0.9630
1213.033549 0.9600 0.9590 0.9550 0.9530 0.9520
1219.040972 0.9520 0.9510 0.9510 0.9470 0.9440
1225.048395 0.9390 0.9360 0.9350 0.9320 0.9290
1231.055818 0.9290 0.9320 0.9350 0.9360 0.9380
1237.063241 0.9430 0.9430 0.9450 0.9450 0.9450
1243.070664 0.9450 0.9450 0.9470 0.9490 0.9530
1249.078088 0.9560 0.9590 0.9620 0.9650 0.9670
1255.085511 0.9700 0.9720 0.9750 0.9760 0.9770
1261.092934 0.9790 0.9800 0.9810 0.9810 0.9820
1267.100357 0.9820 0.9820 0.9830 0.9830 0.9830
1273.107780 0.9840 0.9840 0.9840 0.9850 0.9850
1279.115204 0.9850 0.9850 0.9850 0.9860 0.9860
1285.122627 0.9860 0.9860 0.9860 0.9860 0.9860
1291.130050 0.9850 0.9850 0.9850 0.9840 0.9840
1297.137473 0.9840 0.9830 0.9820 0.9820 0.9810
1303.144896 0.9800 0.9790 0.9780 0.9770 0.9750
1309.152320 0.9740 0.9730 0.9730 0.9720 0.9720
1315.159743 0.9720 0.9720 0.9710 0.9700 0.9690
1321.167166 0.9680 0.9680 0.9660 0.9640 0.9630
1327.174589 0.9620 0.9620 0.9610 0.9610 0.9600
1333.182012 0.9590 0.9590 0.9580 0.9570 0.9560
1339.189436 0.9550 0.9540 0.9540 0.9530 0.9510
1345.196859 0.9500 0.9500 0.9500 0.9500 0.9500
1351.204282 0.9500 0.9510 0.9510 0.9510 0.9510
1357.211705 0.9510 0.9510 0.9510 0.9510 0.9510
1363.219128 0.9510 0.9510 0.9510 0.9510 0.9500
1369.226552 0.9500 0.9490 0.9470 0.9440 0.9410
1375.233975 0.9360 0.9350 0.9280 0.9220 0.9190
1381.241398 0.9160 0.9130 0.9120 0.9110 0.9060
1387.248821 0.9050 0.9030 0.9000 0.8980 0.8970
1393.256244 0.8980 0.9000 0.9040 0.9050 0.9050
1399.263668 0.9110 0.9120 0.9150 0.9160 0.9160
1405.271091 0.9160 0.9150 0.9130 0.9120 0.9110
1411.278514 0.9080 0.9050 0.9030 0.8970 0.8960
1417.285937 0.8950 0.8910 0.8900 0.8890 0.8830
1423.293360 0.8780 0.8750 0.8720 0.8670 0.8660
1429.300784 0.8650 0.8650 0.8650 0.8650 0.8660
1435.308207 0.8660 0.8670 0.8680 0.8690 0.8700
1441.315630 0.8720 0.8730 0.8750 0.8780 0.8790
1447.323053 0.8810 0.8850 0.8880 0.8880 0.8860
1453.330476 0.8840 0.8820 0.8800 0.8800 0.8790
1459.337900 0.8790 0.8790 0.8780 0.8770 0.8750
1465.345323 0.8740 0.8710 0.8670 0.8610 0.8570
1471.352746 0.8550 0.8520 0.8510 0.8520 0.8540
1477.360169 0.8550 0.8570 0.8580 0.8580 0.8580
1483.367592 0.8570 0.8550 0.8520 0.8510 0.8500
1489.375016 0.8490 0.8470 0.8450 0.8410 0.8360
1495.382439 0.8280 0.8210 0.8180 0.8110 0.8001
1501.389862 0.7799 0.7559 0.7300 0.7070 0.6960
1507.397285 0.6850 0.6650 0.6142 0.5712 0.5282
1513.404708 0.4999 0.4520 0.4380 0.4340 0.4330
1519.412132 0.4340 0.4380 0.4410 0.4390 0.4390
1525.419555 0.4471 0.4660 0.4720 0.4750 0.4920
1531.426978 0.5080 0.5270 0.5978 0.7294 0.7519
1537.434401 0.7911 0.8211 0.8640 0.8770 0.8890
1543.441824 0.8960 0.9010 0.9050 0.9080 0.9130
1549.449248 0.9160 0.9180 0.9190 0.9230 0.9260
1555.456671 0.9270 0.9290 0.9300 0.9310 0.9310
1561.464094 0.9310 0.9330 0.9350 0.9370 0.9390
1567.471517 0.9430 0.9450 0.9470 0.9470 0.9480
1573.478940 0.9490 0.9510 0.9530 0.9550 0.9560
1579.486363 0.9570 0.9570 0.9580 0.9590 0.9590
1585.493787 0.9590 0.9600 0.9600 0.9600 0.9610
1591.501210 0.9610 0.9610 0.9610 0.9600 0.9590
1597.508633 0.9590 0.9590 0.9590 0.9570 0.9550
1603.516056 0.9530 0.9510 0.9500 0.9490 0.9460
1609.523479 0.9450 0.9440 0.9410 0.9370 0.9350
1615.530903 0.9340 0.9330 0.9320 0.9280 0.9250
1621.538326 0.9250 0.9270 0.9310 0.9340 0.9350
1627.545749 0.9350 0.9350 0.9370 0.9370 0.9390
1633.553172 0.9400 0.9440 0.9470 0.9500 0.9510
1639.560595 0.9520 0.9520 0.9580 0.9610 0.9640
1645.568019 0.9680 0.9710 0.9740 0.9760 0.9770
1651.575442 0.9790 0.9800 0.9810 0.9820 0.9820
1657.582865 0.9830 0.9850 0.9860 0.9860 0.9880
1663.590288 0.9900 0.9960 0.9960 0.9890 0.9890
1669.597711 0.9920 0.9950 0.9960 0.9970 0.9940
1675.605135 0.9940 0.9940 0.9940 0.9940 0.9930
1681.612558 0.9920 0.9920 1.0040 1.0040 1.0000
1687.619981 0.9960 0.9900 0.9890 0.9900 0.9930
1693.627404 0.9960 0.9990 1.0010 1.0030 1.0010
1699.634827 1.0000 0.9990 0.9980 0.9970 0.9960
1705.642251 0.9960 0.9950 0.9940 0.9930 0.9910
1711.649674 0.9890 0.9870 0.9860 0.9860 0.9850
1717.657097 0.9830 0.9810 0.9790 0.9740 0.9720
1723.664520 0.9720 0.9740 0.9750 0.9750 0.9750
1729.671943 0.9730 0.9740 0.9770 0.9810 0.9820
1735.679367 0.9830 0.9840 0.9840 0.9850 0.9860
1741.686790 0.9890 0.9890 0.9890 0.9880 0.9870
1747.694213 0.9870 0.9870 0.9870 0.9870 0.9850
1753.701636 0.9820 0.9810 0.9820 0.9830 0.9840
1759.709059 0.9850 0.9850 0.9850 0.9850 0.9840
1765.716483 0.9830 0.9820 0.9820 0.9820 0.9820
1771.723906 0.9810 0.9800 0.9730 0.9670 0.9660
1777.731329 0.9660 0.9650 0.9640 0.9600 0.9590
1783.738752 0.9590 0.9590 0.9590 0.9590 0.9590
1789.746175 0.9600 0.9610 0.9640 0.9660 0.9670
1795.753599 0.9670 0.9670 0.9680 0.9700 0.9740
1801.761022 0.9790 0.9820 0.9850 0.9870 0.9900
1807.768445 0.9900 0.9930 0.9960 0.9970 0.9970
1813.775868 0.9970 0.9970 0.9970 0.9970 0.9970
1819.783291 0.9970 0.9970 0.9970 0.9970 0.9960
1825.790715 0.9960 0.9950 0.9930 0.9920 0.9910
1831.798138 0.9900 0.9890 0.9880 0.9880 0.9890
1837.805561 0.9890 0.9880 0.9880 0.9880 0.9880
1843.812984 0.9880 0.9870 0.9860 0.9860 0.9860
1849.820407 0.9860 0.9860 0.9860 0.9870 0.9870
1855.827831 0.9860 0.9860 0.9840 0.9830 0.9830
1861.835254 0.9810 0.9770 0.9750 0.9740 0.9730
1867.842677 0.9700 0.9680 0.9600 0.9520 0.9490
1873.850100 0.9440 0.9420 0.9410 0.9360 0.9350
1879.857523 0.9320 0.9310 0.9280 0.9280 0.9320
1885.864947 0.9330 0.9350 0.9360 0.9360 0.9350
1891.872370 0.9310 0.9280 0.9280 0.9320 0.9360
1897.879793 0.9390 0.9450 0.9490 0.9580 0.9610
1903.887216 0.9660 0.9670 0.9720 0.9720 0.9730
1909.894639 0.9750 0.9750 0.9800 0.9810 0.9820
1915.902062 0.9840 0.9860 0.9870 0.9880 0.9880
1921.909486 0.9890 0.9890 0.9890 0.9890 0.9900
1927.916909 0.9910 0.9920 0.9930 0.9940 0.9940
1933.924332 0.9950 0.9950 0.9960 0.9960 0.9960
1939.931755 0.9970 0.9970 0.9970 0.9970 0.9980
1945.939178 0.9980 0.9980 0.9980 0.9980 0.9980
1951.946602 0.9970 0.9970 0.9970 0.9970 0.9970
1957.954025 0.9970 0.9970 0.9970 0.9970 0.9970
1963.961448 0.9970 0.9970 0.9960 0.9960 0.9960
1969.968871 0.9970 0.9970 0.9970 0.9970 0.9970
1975.976294 0.9970 0.9970 0.9970 0.9970 0.9970
1981.983718 0.9970 0.9970 0.9970 0.9980 0.9980
1987.991141 0.9980 0.9980 0.9980 0.9980 0.9970
1993.998564 0.9970 0.9970 0.9970 0.9980 0.9990
2000.005987 0.9990 0.9990 0.9990 0.9990 0.9990
2006.013410 0.9995 1.0000 1.0000 1.0000 1.0000
2012.020834 1.0000 1.0000 1.0000 1.0000 1.0000
2018.028257 1.0000 1.0000 1.0000 1.0000 1.0000
2024.035680 1.0000 1.0000 1.0000 1.0000 1.0000
2030.043103 1.0000 1.0000 1.0000 1.0000 1.0000
2036.050526 1.0000 1.0000 1.0000 1.0000 1.0000
2042.057950 1.0000 1.0000 1.0000 1.0000 1.0000
2048.065373 1.0000 1.0000 1.0000 1.0000 1.0000
2054.072796 1.0000 1.0000 1.0000 1.0000 1.0000
2060.080219 1.0000 1.0000 1.0000 1.0000 1.0000
2066.087642 1.0000 1.0000 0.9997 0.9992 0.9987
2072.095066 0.9982 0.9980 0.9980 0.9980 0.9980
2078.102489 0.9980 0.9980 0.9977 0.9972 0.9970
2084.109912 0.9970 0.9970 0.9970 0.9967 0.9962
2090.117335 0.9960 0.9960 0.9958 0.9953 0.9950
2096.124758 0.9950 0.9950 0.9950 0.9950 0.9950
2102.132182 0.9950 0.9950 0.9952 0.9957 0.9962
2108.139605 0.9967 0.9970 0.9970 0.9972 0.9977
2114.147028 0.9982 0.9987 0.9992 0.9997 1.0000
2120.154451 1.0000 1.0000 1.0000 1.0000 1.0000
2126.161874 1.0002 1.0007 1.0010 1.0010 1.0010
2132.169298 1.0010 1.0011 1.0016 1.0020 1.0020
2138.176721 1.0020 1.0020 1.0020 1.0020 1.0020
2144.184144 1.0020 1.0020 1.0020 1.0019 1.0014
2150.191567 1.0010 1.0010 1.0010 1.0010 1.0009
2156.198990 1.0004 1.0000 1.0000 1.0000 1.0000
2162.206414 1.0000 1.0000 1.0001 1.0006 1.0010
2168.213837 1.0010 1.0010 1.0005 1.0000 1.0000
2174.221260 1.0000 1.0000 1.0000 1.0000 1.0000
2180.228683 1.0000 1.0000 1.0000 1.0000 1.0000
2186.236106 1.0000 1.0000 1.0000 1.0000 1.0000
2192.243530 0.9990 0.9980 0.9980 0.9980 0.9980
2198.250953 0.9980 0.9980 0.9980 0.9975 0.9970
2204.258376 0.9970 0.9970 0.9970 0.9970 0.9970
2210.265799 0.9970 0.9970 0.9970 0.9970 0.9970
2216.273222 0.9970 0.9970 0.9970 0.9970 0.9970
2222.280646 0.9970 0.9974 0.9979 0.9980 0.9980
2228.288069 0.9984 0.9989 0.9994 0.9999 1.0000
2234.295492 1.0000 1.0000 1.0000 1.0000 1.0000
2240.302915 1.0000 1.0000 1.0000 1.0000 1.0000
2246.310338 1.0000 1.0000 1.0000 1.0000 1.0000
2252.317762 1.0000 1.0000 0.9997 0.9992 0.9987
2258.325185 0.9982 0.9980 0.9980 0.9980 0.9980
2264.332608 0.9980 0.9980 0.9980 0.9980 0.9980
2270.340031 0.9980 0.9980 0.9980 0.9977 0.9972
2276.347454 0.9970 0.9970 0.9967 0.9962 0.9960
2282.354877 0.9960 0.9958 0.9953 0.9945 0.9935
2288.362301 0.9928 0.9923 0.9920 0.9920 0.9920
2294.369724 0.9920 0.9920 0.9920 0.9916 0.9906
2300.377147 0.9898 0.9893 0.9890 0.9890 0.9890
2306.384570 0.9890 0.9888 0.9883 0.9880 0.9880
2312.391993 0.9878 0.9873 0.9870 0.9870 0.9870
2318.399417 0.9870 0.9870 0.9870 0.9871 0.9876
2324.406840 0.9880 0.9880 0.9880 0.9880 0.9880
2330.414263 0.9880 0.9880 0.9880 0.9880 0.9880
2336.421686 0.9881 0.9886 0.9890 0.9890 0.9890
2342.429109 0.9890 0.9891 0.9896 0.9901 0.9906
2348.436533 0.9911 0.9921 0.9931 0.9936 0.9940
2354.443956 0.9940 0.9941 0.9945 0.9950 0.9950
2360.451379 0.9950 0.9950 0.9950 0.9950 0.9950
2366.458802 0.9955 0.9960 0.9960 0.9960 0.9960
2372.466225 0.9960 0.9960 0.9960 0.9960 0.9960
2378.473649 0.9960 0.9960 0.9960 0.9960 0.9965
2384.481072 0.9970 0.9965 0.9960 0.9960 0.9960
2390.488495 0.9960 0.9960 0.9955 0.9950 0.9950
2396.495918 0.9950 0.9950 0.9950 0.9950 0.9950
2402.503341 0.9950 0.9950 0.9946 0.9941 0.9940
2408.510765 0.9940 0.9940 0.9940 0.9940 0.9940
2414.518188 0.9936 0.9931 0.9930 0.9930 0.9930
2420.525611 0.9930 0.9926 0.9921 0.9916 0.9911
2426.533034 0.9910 0.9910 0.9910 0.9910 0.9913
2432.540457 0.9918 0.9923 0.9928 0.9930 0.9930
2438.547881 0.9933 0.9938 0.9940 0.9940 0.9943
2444.555304 0.9948 0.9950 0.9950 0.9950 0.9950
2450.562727 0.9953 0.9958 0.9960 0.9960 0.9960
2456.570150 0.9960 0.9960 0.9960 0.9960 0.9960
2462.577573 0.9960 0.9960 0.9960 0.9960 0.9960
2468.584997 0.9960 0.9960 0.9960 0.9960 0.9960
2474.592420 0.9958 0.9953 0.9950 0.9950 0.9952
2480.599843 0.9957 0.9960 0.9960 0.9960 0.9960
2486.607266 0.9962 0.9967 0.9970 0.9970 0.9970
2492.614689 0.9970 0.9970 0.9970 0.9970 0.9970
2498.622113 0.9968 0.9963 0.9960 0.9960 0.9960
2504.629536 0.9960 0.9962 0.9967 0.9970 0.9970
2510.636959 0.9970 0.9970 0.9970 0.9970 0.9970
2516.644382 0.9970 0.9971 0.9976 0.9979 0.9974
2522.651805 0.9970 0.9970 0.9970 0.9970 0.9970
2528.659229 0.9970 0.9970 0.9970 0.9970 0.9970
2534.666652 0.9969 0.9964 0.9962 0.9971 0.9980
2540.674075 0.9980 0.9980 0.9980 0.9980 0.9980
2546.681498 0.9980 0.9980 0.9980 0.9980 0.9980
2552.688921 0.9980 0.9980 0.9980 0.9980 0.9980
2558.696345 0.9980 0.9975 0.9970 0.9970 0.9970
2564.703768 0.9965 0.9960 0.9950 0.9940 0.9935
2570.711191 0.9930 0.9925 0.9920 0.9911 0.9901
2576.718614 0.9891 0.9881 0.9880 0.9880 0.9871
2582.726037 0.9861 0.9860 0.9860 0.9860 0.9860
2588.733461 0.9856 0.9851 0.9850 0.9850 0.9854
2594.740884 0.9859 0.9864 0.9869 0.9878 0.9888
2600.748307 0.9890 0.9890 0.9894 0.9899 0.9900
2606.755730 0.9900 0.9900 0.9900 0.9904 0.9909
2612.763153 0.9910 0.9910 0.9914 0.9919 0.9920
2618.770576 0.9920 0.9920 0.9920 0.9923 0.9928
2624.778000 0.9930 0.9930 0.9930 0.9930 0.9930
2630.785423 0.9930 0.9930 0.9930 0.9933 0.9938
2636.792846 0.9940 0.9940 0.9943 0.9948 0.9950
2642.800269 0.9950 0.9950 0.9950 0.9950 0.9950
2648.807692 0.9950 0.9950 0.9953 0.9958 0.9960
2654.815116 0.9960 0.9960 0.9960 0.9960 0.9960
2660.822539 0.9960 0.9960 0.9960 0.9960 0.9960
2666.829962 0.9960 0.9960 0.9960 0.9958 0.9953
2672.837385 0.9950 0.9950 0.9950 0.9950 0.9950
2678.844808 0.9950 0.9950 0.9950 0.9948 0.9943
2684.852232 0.9938 0.9933 0.9928 0.9923 0.9918
2690.859655 0.9913 0.9908 0.9903 0.9898 0.9894
2696.867078 0.9889 0.9884 0.9879 0.9874 0.9869
2702.874501 0.9864 0.9860 0.9860 0.9859 0.9854
2708.881924 0.9849 0.9844 0.9839 0.9834 0.9829
2714.889348 0.9824 0.9818 0.9808 0.9797 0.9782
2720.896771 0.9768 0.9753 0.9739 0.9728 0.9715
2726.904194 0.9680 0.9646 0.9616 0.9584 0.9534
2732.911617 0.9488 0.9468 0.9449 0.9434 0.9418
2738.919040 0.9399 0.9379 0.9364 0.9351 0.9366
2744.926464 0.9381 0.9401 0.9421 0.9451 0.9481
2750.933887 0.9526 0.9570 0.9605 0.9640 0.9680
2756.941310 0.9719 0.9730 0.9740 0.9769 0.9799
2762.948733 0.9800 0.9800 0.9805 0.9810 0.9815
2768.956156 0.9820 0.9820 0.9820 0.9816 0.9810
2774.963580 0.9810 0.9810 0.9806 0.9801 0.9796
2780.971003 0.9791 0.9782 0.9772 0.9766 0.9761
2786.978426 0.9748 0.9733 0.9726 0.9721 0.9720
2792.985849 0.9720 0.9708 0.9694 0.9675 0.9655
2798.993272 0.9639 0.9624 0.9612 0.9603 0.9593
2805.000696 0.9583 0.9576 0.9571 0.9556 0.9536
2811.008119 0.9516 0.9496 0.9487 0.9482 0.9460
2817.015542 0.9430 0.9404 0.9379 0.9360 0.9345
2823.022965 0.9330 0.9316 0.9298 0.9278 0.9267
2829.030388 0.9262 0.9236 0.9197 0.9180 0.9180
2835.037812 0.9146 0.9087 0.9038 0.8998 0.8935
2841.045235 0.8850 0.8792 0.8757 0.8717 0.8672
2847.052658 0.8622 0.8567 0.8513 0.8458 0.8387
2853.060081 0.8297 0.8210 0.8126 0.7945 0.7647
2859.067504 0.7412 0.7259 0.7101 0.6937 0.6771
2865.074928 0.6602 0.6422 0.6223 0.6011 0.5775
2871.082351 0.5603 0.5534 0.5473 0.5429 0.5384
2877.089774 0.5339 0.5283 0.5203 0.5150 0.5150
2883.097197 0.5155 0.5170 0.5190 0.5225 0.5260
2889.104620 0.5294 0.5350 0.5464 0.5561 0.5606
2895.112044 0.5658 0.5727 0.5799 0.5879 0.5940
2901.119467 0.5940 0.5940 0.5940 0.5940 0.5940
2907.126890 0.5933 0.5893 0.5850 0.5790 0.5721
2913.134313 0.5597 0.5461 0.5247 0.5034 0.4818
2919.141736 0.4603 0.4394 0.4185 0.3972 0.3756
2925.149160 0.3523 0.3302 0.3202 0.3107 0.3062
2931.156583 0.3020 0.3015 0.3010 0.3020 0.3032
2937.164006 0.3101 0.3171 0.3250 0.3330 0.3440
2943.171429 0.3551 0.3824 0.4097 0.4272 0.4445
2949.178852 0.4590 0.4734 0.5253 0.5789 0.5984
2955.186275 0.6157 0.6257 0.6352 0.6437 0.6521
2961.193699 0.6592 0.6662 0.6736 0.6810 0.6868
2967.201122 0.6923 0.6934 0.6939 0.6931 0.6922
2973.208545 0.6849 0.6764 0.6680 0.6596 0.6487
2979.215968 0.6373 0.6267 0.6163 0.6074 0.5990
2985.223391 0.5901 0.5812 0.5700 0.5581 0.5524
2991.230815 0.5489 0.5450 0.5411 0.5251 0.5048
2997.238238 0.4905 0.4786 0.4694 0.4615 0.4566
3003.245661 0.4531 0.4457 0.4363 0.4255 0.4141
3009.253084 0.4056 0.3986 0.3917 0.3847 0.3765
3015.260507 0.3675 0.3612 0.3568 0.3541 0.3526
3021.267931 0.3523 0.3528 0.3536 0.3546 0.3556
3027.275354 0.3565 0.3578 0.3593 0.3610 0.3630
3033.282777 0.3734 0.3918 0.4069 0.4188 0.4315
3039.290200 0.4451 0.4569 0.4668 0.4739 0.4779
3045.297623 0.4814 0.4843 0.4869 0.4889 0.4909
3051.305047 0.4928 0.4948 0.4968 0.5004 0.5063
3057.312470 0.5111 0.5141 0.5255 0.5513 0.5728
3063.319893 0.5863 0.6013 0.6186 0.6358 0.6527
3069.327316 0.6730 0.7003 0.7239 0.7392 0.7533
3075.334739 0.7642 0.7753 0.7867 0.7962 0.8007
3081.342163 0.8053 0.8102 0.8153 0.8208 0.8259
3087.349586 0.8299 0.8333 0.8348 0.8366 0.8396
3093.357009 0.8442 0.8551 0.8647 0.8687 0.8725
3099.364432 0.8755 0.8782 0.8791 0.8807 0.8857
3105.371855 0.8904 0.8939 0.8978 0.9047 0.9113
3111.379279 0.9149 0.9189 0.9273 0.9354 0.9393
3117.386702 0.9431 0.9441 0.9450 0.9455 0.9461
3123.394125 0.9476 0.9490 0.9490 0.9490 0.9495
3129.401548 0.9500 0.9500 0.9500 0.9510 0.9520
3135.408971 0.9549 0.9579 0.9585 0.9590 0.9614
3141.416395 0.9639 0.9654 0.9669 0.9693 0.9718
3147.423818 0.9729 0.9739 0.9758 0.9778 0.9802
3153.431241 0.9827 0.9852 0.9876 0.9884 0.9889
3159.438664 0.9894 0.9899 0.9908 0.9918 0.9924
3165.446087 0.9929 0.9934 0.9939 0.9944 0.9949
3171.453511 0.9950 0.9950 0.9954 0.9959 0.9960
3177.460934 0.9960 0.9960 0.9960 0.9964 0.9969
3183.468357 0.9970 0.9970 0.9970 0.9970 0.9970
3189.475780 0.9970 0.9973 0.9978 0.9980 0.9980
3195.483203 0.9980 0.9980 0.9980 0.9980 0.9980
3201.490627 0.9980 0.9980 0.9980 0.9980 0.9980
3207.498050 0.9980 0.9980 0.9980 0.9980 0.9980
3213.505473 0.9980 0.9980 0.9980 0.9980 0.9980
3219.512896 0.9980 0.9980 0.9980 0.9980 0.9980
3225.520319 0.9980 0.9980 0.9980 0.9980 0.9980
3231.527743 0.9980 0.9980 0.9980 0.9980 0.9980
3237.535166 0.9980 0.9980 0.9980 0.9980 0.9980
3243.542589 0.9980 0.9980 0.9980 0.9980 0.9980
3249.550012 0.9980 0.9980 0.9980 0.9978 0.9973
3255.557435 0.9970 0.9970 0.9970 0.9970 0.9970
3261.564859 0.9970 0.9970 0.9970 0.9970 0.9970
3267.572282 0.9970 0.9970 0.9970 0.9970 0.9969
3273.579705 0.9964 0.9961 0.9966 0.9970 0.9970
3279.587128 0.9970 0.9970 0.9970 0.9970 0.9970
3285.594551 0.9970 0.9969 0.9964 0.9960 0.9960
3291.601974 0.9961 0.9966 0.9971 0.9976 0.9980
3297.609398 0.9980 0.9980 0.9975 0.9970 0.9970
3303.616821 0.9970 0.9965 0.9960 0.9965 0.9970
3309.624244 0.9975 0.9980 0.9985 0.9990 0.9980
3315.631667 0.9970 0.9970 0.9970 0.9970 0.9970
3321.639090 0.9970 0.9970 0.9970 0.9970 0.9970
3327.646514 0.9970 0.9970 0.9970 0.9965 0.9960
3333.653937 0.9960 0.9960 0.9969 0.9979 0.9980
3339.661360 0.9980 0.9980 0.9980 0.9980 0.9980
3345.668783 0.9980 0.9980 0.9980 0.9980 0.9988
3351.676206 0.9998 1.0000 1.0000 0.9996 0.9991
3357.683630 0.9990 0.9990 0.9990 0.9990 0.9990
3363.691053 0.9990 0.9982 0.9973 0.9970 0.9970
3369.698476 0.9970 0.9970 0.9966 0.9961 0.9963
3375.705899 0.9968 0.9970 0.9970 0.9970 0.9970
3381.713322 0.9970 0.9970 0.9970 0.9970 0.9970
3387.720746 0.9970 0.9970 0.9970 0.9973 0.9978
3393.728169 0.9980 0.9980 0.9980 0.9980 0.9980
3399.735592 0.9980 0.9980 0.9980 0.9980 0.9980
3405.743015 0.9980 0.9980 0.9980 0.9980 0.9975
3411.750438 0.9965 0.9960 0.9960 0.9960 0.9960
3417.757862 0.9962 0.9967 0.9972 0.9977 0.9982
3423.765285 0.9987 0.9988 0.9983 0.9980 0.9980
3429.772708 0.9980 0.9980 0.9980 0.9980 0.9980
3435.780131 0.9980 0.9980 0.9980 0.9982 0.9987
3441.787554 0.9990 0.9990 0.9992 0.9997 1.0000
3447.794978 1.0000 1.0000 1.0000 1.0000 1.0000
3453.802401 1.0002 1.0006 1.0011 1.0016 1.0020
3459.809824 1.0020 1.0020 1.0020 1.0020 1.0020
3465.817247 1.0019 1.0014 1.0010 1.0010 1.0009
3471.824670 1.0004 1.0000 1.0000 1.0000 1.0000
3477.832094 1.0000 1.0000 1.0000 1.0000 1.0000
3483.839517 1.0000 1.0000 1.0000 1.0000 1.0000
3489.846940 1.0000 1.0000 1.0000 1.0005 1.0010
3495.854363 1.0015 1.0020 1.0010 1.0000 1.0000
3501.861786 1.0000 1.0005 1.0010 1.0005 1.0000
3507.869210 1.0000 1.0000 1.0000 1.0000 1.0010
3513.876633 1.0020 1.0025 1.0030 1.0021 1.0011
3519.884056 1.0005 1.0000 1.0000 1.0000 1.0000
3525.891479 1.0000 1.0000 1.0000 1.0004 1.0009
3531.898902 1.0006 1.0001 1.0004 1.0009 1.0014
3537.906326 1.0019 1.0020 1.0020 1.0020 1.0020
3543.913749 1.0020 1.0020 1.0020 1.0020 1.0020
3549.921172 1.0020 1.0024 1.0029 1.0030 1.0030
3555.928595 1.0034 1.0039 1.0036 1.0031 1.0026
3561.936018 1.0022 1.0016 1.0012 1.0013 1.0018
3567.943442 1.0020 1.0020 1.0017 1.0012 1.0010
3573.950865 1.0010 1.0007 1.0002 1.0000 1.0000
3579.958288 1.0000 1.0000 1.0000 1.0000 1.0000
3585.965711 1.0000 1.0003 1.0008 1.0013 1.0018
3591.973134 1.0023 1.0028 1.0025 1.0015 1.0007
3597.980558 1.0002 1.0000 1.0000 0.9997 0.9993
3603.987981 0.9990 0.9990 0.9990 0.9990 0.9990
3609.995404 0.9990 0.9994 1.0004 1.0010 1.0010
3616.002827 1.0006 0.9996 0.9988 0.9983 0.9978
3622.010250 0.9973 0.9968 0.9963 0.9960 0.9960
3628.017674 0.9960 0.9960 0.9958 0.9953 0.9950
3634.025097 0.9950 0.9948 0.9943 0.9938 0.9934
3640.032520 0.9929 0.9924 0.9919 0.9914 0.9909
3646.039943 0.9904 0.9900 0.9900 0.9899 0.9894
3652.047366 0.9891 0.9896 0.9900 0.9900 0.9899
3658.054789 0.9894 0.9889 0.9884 0.9879 0.9874
3664.062213 0.9870 0.9870 0.9870 0.9870 0.9871
3670.069636 0.9876 0.9881 0.9886 0.9891 0.9901
3676.077059 0.9911 0.9921 0.9931 0.9941 0.9950
3682.084482 0.9950 0.9948 0.9913 0.9880 0.9875
3688.091905 0.9870 0.9870 0.9870 0.9896 0.9920
3694.099329 0.9925 0.9930 0.9935 0.9940 0.9945
3700.106752 0.9950 0.9955 0.9960 0.9965 0.9970
3706.114175 0.9951 0.9931 0.9921 0.9911 0.9905
3712.121598 0.9900 0.9904 0.9909 0.9914 0.9919
3718.129021 0.9938 0.9958 0.9960 0.9960 0.9960
3724.136445 0.9960 0.9939 0.9914 0.9910 0.9910
3730.143868 0.9910 0.9910 0.9918 0.9928 0.9942
3736.151291 0.9957 0.9960 0.9960 0.9964 0.9969
3742.158714 0.9970 0.9970 0.9974 0.9979 0.9980
3748.166137 0.9980 0.9976 0.9971 0.9970 0.9970
3754.173561 0.9967 0.9962 0.9963 0.9968 0.9970
3760.180984 0.9970 0.9970 0.9970 0.9973 0.9978
3766.188407 0.9980 0.9980 0.9980 0.9980 0.9980
3772.195830 0.9980 0.9980 0.9980 0.9980 0.9980
3778.203253 0.9980 0.9980 0.9977 0.9972 0.9970
3784.210677 0.9970 0.9970 0.9970 0.9967 0.9962
3790.218100 0.9960 0.9960 0.9960 0.9960 0.9970
3796.225523 0.9989 1.0000 1.0000 0.9998 0.9993
3802.232946 0.9988 0.9983 0.9980 0.9980 0.9974
3808.240369 0.9959 0.9950 0.9950 0.9948 0.9943
3814.247793 0.9948 0.9967 0.9978 0.9973 0.9968
3820.255216 0.9963 0.9960 0.9960 0.9957 0.9947
3826.262639 0.9940 0.9940 0.9939 0.9934 0.9930
3832.270062 0.9930 0.9933 0.9943 0.9949 0.9944
3838.277485 0.9940 0.9940 0.9939 0.9934 0.9930
3844.284909 0.9930 0.9930 0.9930 0.9930 0.9930
3850.292332 0.9930 0.9930 0.9930 0.9930 0.9930
3856.299755 0.9930 0.9931 0.9936 0.9940 0.9940
3862.307178 0.9939 0.9934 0.9929 0.9924 0.9920
3868.314601 0.9925 0.9930 0.9935 0.9940 0.9940
3874.322025 0.9940 0.9940 0.9940 0.9945 0.9950
3880.329448 0.9950 0.9950 0.9940 0.9930 0.9930
3886.336871 0.9930 0.9930 0.9930 0.9930 0.9930
3892.344294 0.9930 0.9930 0.9935 0.9940 0.9940
3898.351717 0.9940 0.9935 0.9930 0.9925 0.9921
3904.359141 0.9916 0.9911 0.9906 0.9901 0.9900
3910.366564 0.9900 0.9896 0.9891 0.9890 0.9890
3916.373987 0.9894 0.9899 0.9904 0.9909 0.9910
3922.381410 0.9910 0.9914 0.9919 0.9920 0.9920
3928.388833 0.9924 0.9929 0.9930 0.9930 0.9930
3934.396257 0.9930 0.9930 0.9930 0.9926 0.9921
3940.403680 0.9920 0.9920 0.9920 0.9920 0.9920
3946.411103 0.9920 0.9920 0.9920 0.9920 0.9920
3952.418526 0.9920 0.9920 0.9923 0.9928 0.9930
3958.425949 0.9930 0.9933 0.9938 0.9940 0.9940
3964.433373 0.9943 0.9948 0.9947 0.9942 0.9940
3970.440796 0.9940 0.9940 0.9940 0.9940 0.9940
3976.448219 0.9937 0.9933 0.9925 0.9915 0.9910
3982.455642 0.9910 0.9915 0.9925 0.9930 0.9930
3988.463065 0.9935 0.9944 0.9952 0.9957 0.9954
3994.470488 0.9939 0.9930 0.9930 0.9934 0.9944
4000.477912 0.9952 0.9957
##END=
