##TITLE=1,3-Butadiene
##JCAMP-DX=4.24
##DATA TYPE=INFRARED SPECTRUM
##CLASS=IUPAC A
##ORIGIN=NIST, Anayltical Chemistry Division, 301-975-3108
##OWNER=COPYRIGHT (C) 1998 by the U.S. Secretary of Commerce
##DATE=98/10/1
##$SPECTRA VERSION=1.00
##$UNCERTAINTY IN Y=2.5 % relative (B=1.6E-04,C=1.1E-09,D=2.7E-14)
##CAS NAME=1,3-Butadiene
##CAS REGISTRY NO=106-99-0
##MOLFORM=C H2: C H C H: C H2
##MP=-108.91 C
##BP=-4.41 C
##$NIST SOURCE=QUANT-IR
##SPECTROMETER/DATA SYSTEM=IFS66V (Bruker)
##INSTRUMENT PARAMETERS=KBr Beam splitter; MCT Detector; Multipass cell
##STATE=gas
##SAMPLE DESCRIPTION=1,3-Butadiene Primary Gas Standard
##PRESSURE=101.3 kPa
##TEMPERATURE=23 C
##SAMPLING PROCEDURE=1 L/min Flow
##RESOLUTION=0.9640
##DATA PROCESSING=Triangular Apodization
##XUNITS=cm-1
##YUNITS=(micromol/mol)-1m-1 (base 10)
##XFACTOR=1.0
##YFACTOR=4.5474E-13
##DELTAX=0.4820
##FIRSTX=575.169
##LASTX=3975.077
##FIRSTY=4.74E-06
##MAXX=3974.59
##MINX=575.17
##MAXY=.0008022
##MINY=-4.35E-08
##NPOINTS=7053
##XYDATA=(X++(Y..Y))
575.17 10438670 9604682 9701558 9813440 10073880 9718652
577.58 9084596 8735958 9090494 8582650 7512158 7385926
580.47 7858542 8451984 8313252 7514376 7254886 7216928
583.37 6931948 6739298 6410174 5942004 5789512 6168510
586.26 6117068 5166048 4508276 4249022 4288774 4538220
589.15 4233750 4160870 4399432 3994452 4132222 4584908
592.04 4276396 4054108 4176390 4208124 4142336 3860330
594.94 3480074 3689238 3810232 3706418 3751358 3672192
597.83 3842314 3860148 3514696 3663812 3648970 3518452
600.72 4160474 4227102 3565854 3208586 3124534 3088958
603.61 2890458 2600080 2628488 2750444 2434006 2307504
606.51 2332784 2261146 2313428 2304096 2105792 1992454
609.40 1901722 1988044 2085962 1973556 1982612 1858726
612.29 1768604 1757934 1525214 1348826 1444792 1459822
615.18 1212262 1057180 1196928 1531366 1678088 1413562
618.08 1239438 1434716 1334148 1413218 1716102 1635364
620.97 1669584 1729062 1576076 1470566 1449234 1560600
623.86 1647078 1520142 1552378 1605348 1659932 1690258
626.76 1684960 1819278 1853030 1863026 1787114 1903592
629.65 2079078 1928110 1816502 1787694 1807436 2071422
632.54 2251764 1957312 1880978 2167822 2413832 2509860
635.43 2417316 2410020 2570716 2532788 2645864 2860706
638.33 2909316 2923434 2957340 3112142 3321354 3457950
641.22 3377366 3189006 3235268 3420570 3555064 3825976
644.11 3891418 3684784 3783976 4023854 3958842 4057502
647.00 4305606 4252548 4334578 4561070 4682866 4931364
649.90 5116704 5277892 5270224 5201662 5411798 5412820
652.79 5131418 5045266 5004830 5087308 5406300 5251096
655.68 5034208 5460516 5872884 5862434 5793070 5673714
658.58 5447694 5291370 5704318 6099342 6111056 6079436
661.47 5848300 5798644 6327622 6461934 6010212 6232768
664.36 6457784 6724442 7409022 7379730 7071238 7817664
667.25 8537454 8207790 7693824 7804186 8096296 7566178
670.15 7180262 7403856 7486598 7877168 8434992 7892372
673.04 7259642 7197394 7507244 8489516 8471746 7473668
675.93 7173510 6909160 6401920 6043812 5869520 5948798
678.82 5968566 5734262 5639570 5672538 5167812 5249200
681.72 6081978 6223544 5393742 4951824 5222874 5314078
684.61 4914288 4813956 4996930 5025120 5174898 5125218
687.50 4834280 4563144 4736902 4655270 4457406 4534870
690.40 4715968 4621304 4301828 4437678 4555972 4221560
693.29 4069142 4379606 4076544 3712114 4010292 3925400
696.18 3617174 3649824 3682988 3545388 3604126 3439096
699.07 3299632 3582590 3422482 3060682 2985080 2824004
701.97 2772280 2819410 2773814 2723994 2654630 2674092
704.86 2575912 2418350 2292780 2226214 2319352 2211484
707.75 2109616 2204640 2176520 2093666 1932822 1794784
710.64 1751936 1626198 1530874 1578186 1699586 1670138
713.54 1560940 1547340 1599044 1664772 1619624 1603550
716.43 1549488 1342192 1305768 1379426 1437296 1477034
719.32 1468194 1518656 1567070 1515076 1472754 1515546
722.22 1611516 1620852 1628980 1615418 1581404 1520442
725.11 1550244 1594796 1611256 1623020 1603502 1593974
728.00 1642324 1718888 1745630 1720288 1699550 1829480
730.89 1850576 1807160 1893150 1877038 1778746 1790086
733.79 1920344 2061332 2037290 2026500 2044178 2092558
736.68 2134558 2068812 2109264 2262010 2286370 2297330
739.57 2332196 2296836 2328162 2328366 2242378 2206770
742.46 2226362 2326594 2340628 2289808 2218122 2098376
745.36 2000372 2051006 2126714 2077370 2114828 2178130
748.25 2190232 2148468 2066366 2047538 2126374 2300752
751.14 2409058 2320786 2205066 2098978 2024712 2142216
754.04 2302874 2322268 2382212 2430530 2433442 2424898
756.93 2335954 2328574 2400526 2458560 2438412 2339080
759.82 2345964 2388858 2414648 2407806 2281722 2250140
762.71 2327620 2250442 2209418 2189242 2206214 2170274
765.61 2085164 2067818 2003412 1960716 2004956 1958050
768.50 1852084 1868718 1795084 1710526 1693970 1717256
771.39 1825054 1816184 1699268 1700428 1683714 1626202
774.28 1632136 1603318 1559882 1611020 1622356 1531022
777.18 1456202 1499616 1572130 1471960 1431442 1375186
780.07 1312944 1403412 1377188 1254518 1361438 1475386
782.96 1420838 1328164 1350600 1457792 1414166 1353958
785.86 1373412 1420612 1419636 1339242 1360304 1396886
788.75 1356976 1357842 1372442 1375524 1358352 1321768
791.64 1290966 1271440 1292566 1287278 1349690 1456306
794.53 1413158 1308828 1249532 1226116 1307702 1373638
797.43 1365380 1397294 1464218 1404950 1205426 1245180
800.32 1372214 1315982 1296248 1420032 1554654 1562182
803.21 1601854 1643884 1638894 1628392 1650966 1662828
806.10 1649114 1664088 1562640 1548874 1715896 1810920
809.00 1838664 1899908 1984586 1937354 1916228 1962110
811.89 2061452 2132054 2238760 2308992 2351814 2388794
814.78 2481974 2577016 2601162 2679550 2762210 2728948
817.68 2703420 2781664 2895272 3037676 3166636 3332016
820.57 3450428 3472554 3621310 3841844 3928240 3990788
823.46 4167254 4312714 4362324 4577582 4923314 4966554
826.35 4993270 5167700 5383204 5663682 6069408 6465476
829.25 6443386 6413278 6795222 7222286 7414694 7937790
832.14 8509108 8304082 8245194 8702468 9279964 9736272
835.03 10406010 10989370 10695500 10686080 11333330 12071520
837.92 12723540 13823820 14445000 13774780 13941830 14832170
840.82 15848310 16707870 18189580 18671500 18024450 18317210
843.71 19476340 20859560 22119980 24104080 23878050 23067180
846.60 23632270 25288490 26509990 28675590 30840730 29862440
849.50 29680900 30671890 32509090 34065430 38121720 38650370
852.39 37101900 37500650 39546070 41498550 44472300 49012670
855.28 47501020 46489030 47971380 51068660 52231070 58361970
858.17 61256070 57774120 57822680 61818340 63909840 67334840
861.07 75980310 73384300 69431240 73183360 78175640 79068130
863.96 89683260 92967350 83783310 86173180 93905220 94044800
866.85 103913900 115123200 102689600 100445500 110962400 110837000
869.74 120837300 138176700 125687100 118557700 129444700 128319100
872.64 141519600 163944600 151184000 139920500 148357600 146705300
875.53 161012200 191984300 181510200 164559200 171031500 167753300
878.42 180932300 218819200 214195100 190842700 192463200 186104600
881.31 199866700 247281700 249351800 220453300 214960200 205360800
884.21 222126100 275711600 279649600 245106500 231229100 216977800
887.10 240232200 303391200 307036800 268738100 248615800 231575200
889.99 263527200 331161200 321782800 273045600 246160400 229108300
892.89 280923000 348622200 321790700 272950300 244807200 241873900
895.78 308800400 345424600 301424100 262388200 241660100 263269700
898.67 317141700 318039300 293730700 275073200 263135500 279132500
901.56 288445400 283918700 288243300 289761600 292177400 302841900
904.46 325672200 367020700 410765300 469696900 598592100 934956600
907.35 1654502000 1764087000 1106612000 705611800 538930400 454318100
910.24 410709500 371944600 336507500 316161000 312266300 304541900
913.13 308887200 318527400 301414900 293108100 306832700 348113700
916.03 355658600 321292800 315113600 342818600 386444700 353198200
918.92 304365000 319995100 370189700 392813800 339673500 315210700
921.81 340745300 383215000 374698200 326802800 326599700 356985200
924.71 386142800 352880300 323945500 337093300 366469900 360635700
927.60 321287900 319873100 339461200 351268500 320554400 306952100
930.49 321011000 333478600 312156800 291034200 298881800 306257100
933.38 293987700 272576200 275139800 283382200 275965700 254587700
936.28 252238900 260794000 253600200 233048400 228654800 234739300
939.17 228154400 211641900 207969200 211522700 205075000 192343700
942.06 189125600 189208500 180320100 171057200 169461200 166626400
944.95 157809700 152376000 151732200 146429200 137524200 135461300
947.85 135687100 129473800 123730800 121938500 118966300 112703600
950.74 108880800 107617100 103590600 99005340 97046490 94329030
953.63 90157370 87990590 85909190 83251610 81096670 79231690
956.53 76636180 74112570 73424970 71862440 68528820 67294160
959.42 67109420 65863480 64400280 62293540 61209740 61355270
962.31 60899220 60335030 58745700 57220120 57748750 58108280
965.20 58141050 57750590 55893430 56202820 57701700 58310320
968.10 58791430 57262310 56733800 58573530 60183170 61993060
970.99 60708020 59448190 61488780 63129170 66305370 66636020
973.88 64714500 66444120 69096200 72988140 74914510 73671410
976.77 75269950 78278760 81880490 85449130 86181110 88166490
979.67 91749770 96930100 102716200 104691200 106278400 110656500
982.56 117129800 124210900 126745900 127172900 130398100 135964300
985.45 141723300 142995700 140976200 139324100 139463300 142744200
988.35 142362600 132696300 123489200 121510000 128768200 141352000
991.24 151789000 160586800 168028600 178860100 190061600 195216100
994.13 204533000 214515600 212867400 211111300 211348100 215670800
997.02 220456100 213745300 205904300 201508100 203940500 210146600
999.92 202010300 187416800 182465300 186686700 186985300 179290600
1002.81 172700400 169550400 174183700 184276100 187009900 179739900
1005.70 171956800 181982800 194254200 196785500 206325500 208680200
1008.59 209540400 222237900 236444200 267774100 286747700 272097500
1011.49 264573800 276400000 296648600 360933800 411865600 355956600
1014.38 282359600 237419700 216466500 204283600 181650700 164738700
1017.27 156753000 154213700 157744100 164796200 160585400 149231800
1020.17 144703400 146679000 152125200 166188000 167383200 155825600
1023.06 153120200 152354200 157365100 166200600 166251800 159071100
1025.95 155462700 158913800 162242000 162307600 161855100 161602900
1028.84 161101900 158967300 153545600 149948300 151747000 156305600
1031.74 159905300 157163100 148034000 144845800 146564700 146007700
1034.63 143670500 138082800 136611800 137637100 135776200 137193300
1037.52 134686800 130749400 127546700 122516500 125019800 126858000
1040.41 124058000 119967400 112826900 111909100 115885100 116092000
1043.31 110498400 102763900 99996850 101229800 106833700 109253200
1046.20 102432700 97379910 96343440 98719070 97875340 89831600
1049.09 83746610 81134740 84665010 88475290 86510060 82338260
1051.99 79569620 80126030 76432620 69909320 67013500 63960580
1054.88 63766510 63616100 59418120 58172760 57434370 56633090
1057.77 55846390 53382970 52109560 51154530 50386830 49376260
1060.66 48057580 47256760 46262340 46348460 45099940 42828270
1063.56 41928900 41691520 41160580 38667160 36824960 37524120
1066.45 37217480 34963370 33527500 33303890 32589010 31383270
1069.34 30245520 29382300 28819790 28028450 27862480 27764570
1072.23 27225120 26959560 26132380 25566340 25525300 24975900
1075.13 24891930 24421230 23756380 23246950 22649310 22231950
1078.02 21499240 21275750 20915220 19954940 18978820 18324370
1080.91 17856990 17277940 16655500 15908220 15111960 14592540
1083.81 14016750 13259450 12587810 12077670 11534770 11041120
1086.70 10547240 10015850 9655612 9469764 9207128 8799434
1089.59 8366454 7933908 7424414 6943880 6516970 6139404
1092.48 5820798 5474042 5102032 4876814 4674286 4428452
1095.38 4185382 3997080 3770906 3471364 3276740 3073244
1098.27 2827908 2669230 2586682 2491844 2371198 2227326
1101.16 2072396 1933114 1828336 1730058 1633100 1584820
1104.05 1540712 1455040 1331684 1247880 1185668 1139764
1106.95 1089728 1008104 969366 939898 902016 944720
1109.84 969340 877756 829094 857844 827470 820874
1112.73 794862 716380 720552 754052 722476 730772
1115.63 714206 689706 703274 672670 670034 683612
1118.52 694754 699516 679290 653174 655680 667408
1121.41 645134 626654 622108 669822 665202 635018
1124.30 674268 650654 618786 644540 621562 647432
1127.20 690706 645366 686158 716324 689764 677576
1130.09 690296 728658 727160 741104 712600 700386
1132.98 680924 652206 632692 635366 722008 699108
1135.87 664230 704724 688428 722790 750644 667150
1138.77 633538 620026 627650 701406 713892 701628
1141.66 707318 699804 684856 627636 582942 578064
1144.55 539530 577572 658806 622672 577316 625076
1147.45 614394 557856 574550 604212 617882 576000
1150.34 530290 563526 586114 552724 545670 525398
1153.23 526148 531724 493168 532660 521902 511296
1156.12 512362 518710 491192 381926 389836 469672
1159.02 501308 463008 429274 482544 528854 533674
1161.91 505098 450952 432328 409234 423790 458162
1164.80 443336 473850 498922 480672 507960 475104
1167.69 469728 537740 500148 456850 469694 475904
1170.59 447726 463468 445888 460936 494852 518734
1173.48 505634 448456 459638 479964 509926 519226
1176.37 478162 477250 529588 536158 579914 563834
1179.26 506616 549374 532542 500694 507062 525338
1182.16 535662 485556 454436 462026 484154 520356
1185.05 511732 462310 415498 393642 422618 449342
1187.94 384444 321288 305156 279210 306902 385444
1190.84 411442 402692 372342 359750 380132 399740
1193.73 423674 400442 353800 332814 365768 433344
1196.62 462180 470428 484942 480110 450170 450600
1199.51 477342 479246 481538 519564 527536 523452
1202.41 511560 520920 549962 500780 516784 589394
1205.30 639974 634222 602516 591566 621630 739620
1208.19 781484 735278 761280 737140 730494 840678
1211.08 890630 973464 994394 930702 902808 899238
1213.98 978122 1093726 1204944 1192008 1118700 1122230
1216.87 1164466 1281478 1357096 1265152 1191752 1272620
1219.76 1386660 1494540 1593926 1571484 1566836 1627800
1222.66 1687164 1776500 1888476 1872294 1812470 1928442
1225.55 1983816 2088202 2237580 2196238 2157070 2226044
1228.44 2317306 2516226 2672544 2485760 2463658 2667704
1231.33 2777506 3026858 3105900 2963898 2976540 3093112
1234.23 3329632 3588144 3604256 3503336 3449384 3686970
1237.12 4010144 4136360 4271094 4183042 4154004 4427060
1240.01 4498444 4799534 5075244 4865224 5012602 5273702
1242.90 5443178 5885888 5971606 5657204 5851040 5920342
1245.80 6518348 7413570 6947120 6627812 6852758 7025392
1248.69 8013980 8535418 7799340 7833466 8186912 8526148
1251.58 9572678 9558476 9230168 9304534 9191450 10373900
1254.48 11191530 10664670 10279370 10076130 10999240 12551980
1257.37 12288680 11215600 10870430 11165380 12725050 13417250
1260.26 12171050 11623530 11715560 12338800 12974440 12282780
1263.15 11382480 11389040 12402440 12634880 11877840 11674300
1266.05 11589390 11635790 11740630 11402270 11064460 10798520
1268.94 11837380 12963260 12324930 11872910 11720780 12011090
1271.83 13391700 13212510 12352750 12411970 13355590 16049830
1274.72 16509450 14845330 14642350 15354520 17697810 18650240
1277.62 16911490 16068390 16436660 18718180 20015420 18069780
1280.51 16686770 16870100 18912000 20010870 17687190 16075320
1283.40 16559370 18100240 18383430 16354780 15194230 15254920
1286.30 15918750 15627430 13929000 13376260 13319680 13140260
1289.19 12256020 11261310 10660820 10204590 10083250 9314050
1292.08 8955724 9226114 9322304 9187932 8870486 8926582
1294.97 9211332 9902132 10463430 10746960 11082030 11746060
1297.87 12662290 12765270 12984430 13573950 13916990 13856260
1300.76 13752670 14055570 14578260 14289240 13782340 13674830
1303.65 13803770 14724110 13702550 12643740 12981480 12881810
1306.54 13611550 12572300 11334210 11696640 11088330 11638310
1309.44 11341360 10032840 10444260 9601614 10033820 10736980
1312.33 9047144 8944256 8634548 8661548 9340638 8243180
1315.22 7798496 7804310 7950592 8653768 7783100 7204806
1318.12 7267038 7319098 7980226 7354058 6843880 6734442
1321.01 6657484 7362000 7150776 6585962 6440854 6369798
1323.90 6934468 6912222 6397270 6244682 6135702 6600084
1326.79 6752624 6279994 6081014 5990528 6375896 6614408
1329.69 6074980 5877608 6002796 6237634 6541180 6137162
1332.58 5794742 5968180 6246426 6525158 6183322 5741782
1335.47 5880130 6352776 6680048 6282240 5841524 5999986
1338.36 6247158 6599134 6579788 6175808 6089938 6077282
1341.26 6469924 6556350 6010824 5979108 6119198 6672422
1344.15 6875676 6317442 6316088 6417880 6946408 7190698
1347.04 6618820 6671372 6776474 7479136 7890706 7269684
1349.94 7431034 7484124 8189724 8726718 8073436 8119614
1352.83 8233432 9108612 9960700 9450528 9462260 9847554
1355.72 11040130 12009550 11668660 11839410 12055440 13357120
1358.61 15363650 15311330 15287200 16123000 18049870 20753590
1361.51 21332830 21518840 22615880 24211270 27317110 28955090
1364.40 29119870 30052820 31658570 35389340 38119870 38338020
1367.29 38886660 39946960 43171200 45713410 45412910 45529540
1370.18 45742200 47221840 48725220 47818170 46675870 45613240
1373.08 45638860 44819780 41745960 39364450 36492990 32515030
1375.97 29573270 27276440 24055520 21282580 20686710 20283580
1378.86 19852720 26101480 54834090 65459750 38096160 21806470
1381.76 19798680 20363370 23426880 26654640 28885850 31399550
1384.65 34408640 36487530 39058920 41478960 42515940 43309750
1387.54 43347960 44120450 45165650 43637540 41815880 41033950
1390.43 41606120 41823020 38787730 35807520 34620520 34622120
1393.33 34687700 32912590 29748250 27333690 26853720 26427600
1396.22 24398780 21916010 20563310 19449570 19731540 19741500
1399.11 17249340 15384280 14568580 14553320 14585310 13674620
1402.00 13049480 12631350 12737610 13285940 12750780 11969100
1404.90 11603640 11239890 11715810 11716090 10995200 11106860
1407.79 11510960 11902530 12167440 11565990 11461450 11705470
1410.68 11624140 11937340 11851720 11825220 12193470 12515050
1413.58 12808310 12299180 11759680 12157210 12212280 12269420
1416.47 12693800 12761640 12869830 12723080 13959290 15989790
1419.36 14794470 13013040 12606740 12496960 12625400 12681710
1422.25 12563730 12405440 12381880 12363410 12100740 11455030
1425.15 11103270 10892230 10941690 10833400 10316720 10114810
1428.04 9918676 9616358 10005010 10363370 9755330 9368408
1430.93 9328004 9175526 9144072 9221034 9468356 9715706
1433.82 10073730 10320040 10501440 10707190 12126590 14197900
1436.72 12930570 11194580 11516040 11524670 11336080 11518400
1439.61 11402480 11487150 11688540 11441650 11797200 11988920
1442.50 11532220 11411340 11149460 11110510 11409750 10806940
1445.40 10432080 10578750 10330030 10681460 11251620 10321880
1448.29 9531236 9389734 9137136 9406858 9266350 8563890
1451.18 8367988 8523608 8315160 8313362 8377230 7961046
1454.07 7826772 8315024 8774204 8955752 11406540 12468790
1456.97 9375382 8863188 9483280 8440522 7799062 7332540
1459.86 7212030 7659390 7891460 7379362 7144264 7333046
1462.75 7642078 8105806 8332376 9224870 9178736 8197134
1465.64 8414864 8519536 8187672 8106700 8360744 8768428
1468.54 9118678 9096556 9048172 9284410 9771692 11017280
1471.43 12713510 11899080 11159560 12864430 12689680 11703240
1474.32 11590560 11655200 12694260 13717490 13691130 13399960
1477.21 13109340 13296500 13528200 13545570 13531000 12945970
1480.11 12600070 12588520 12568470 12453770 12243240 11984020
1483.00 11474310 11060320 10797380 10671460 10856610 11219570
1485.89 11264940 10993670 10837990 9976434 9609402 10465400
1488.79 11577870 12657400 12893540 12344110 10953230 9994850
1491.68 10008370 10218150 10583530 11140140 11622770 11923350
1494.57 12388510 13186340 15472830 15435850 13262080 12879690
1497.46 12639530 13078080 13318280 12212640 11376340 10915950
1500.36 10398590 10180570 10054690 9461770 8765294 8351548
1503.25 8345840 8650298 8302042 9798378 11440090 9326222
1506.14 10294180 11653870 8598502 7174656 7483744 7175320
1509.03 6794906 6396826 5882618 5887416 6027488 6322760
1511.93 6433668 5585390 5375200 5492490 5187812 5402708
1514.82 5306004 5184476 5559716 5579836 5829278 5550988
1517.71 4642244 4267164 3911828 4368380 5185212 5433786
1520.61 7487458 6653130 4230880 4864508 4346952 3150992
1523.50 2922140 2964676 3640312 4528984 3515508 2463504
1526.39 2784658 3096458 2712288 2596832 2502596 2128658
1529.28 2132742 2067990 2006222 2127140 2284760 2118344
1532.18 2399422 3044898 3641710 3378544 2254258 1963948
1535.07 1980712 1942466 1961330 1916006 2105152 2457922
1537.96 3887112 7259700 5973842 4795630 5946842 3676200
1540.85 2877908 5015912 5193038 3030178 2691604 2743954
1543.75 2448020 3193448 4010406 3081162 2379390 2409844
1546.64 2404314 2462454 2494752 2593908 2845282 3290934
1549.53 3645682 3469960 3232406 3291416 3330120 3445298
1552.43 3789468 4060806 5462440 7048454 5776612 4857858
1555.32 5083152 5406840 5930676 7938964 9219374 11146820
1558.21 12094850 9532776 10830920 13586660 11913430 9722816
1561.10 9839406 10097340 10582860 11228250 12037070 13030450
1564.00 14319100 15140460 15321840 16103060 17238920 18686860
1566.89 20222340 20998790 22184400 24056480 26711650 29909300
1569.78 30621180 31123940 33140530 35616430 38906250 42190810
1572.67 44669600 47510820 50987920 55569380 60594570 66091040
1575.57 73911470 77813880 80238050 86119070 92347260 97994560
1578.46 104264900 112147500 119912600 127284500 134892200 144398600
1581.35 155099300 164019200 171684200 180344500 189930400 196992400
1584.25 203598300 210975800 216588800 221916400 226652200 230494100
1587.14 233421400 234012300 232877900 230944100 226989300 221714200
1590.03 214328900 203681600 191739100 179053600 164895100 153016000
1592.92 142830200 134399000 130448700 138351100 140122800 178465300
1595.82 250166600 217658300 177022700 175790200 146672500 135056300
1598.71 141417600 154049900 168313500 183601000 197543100 210778500
1601.60 222728200 233262400 241820700 248301900 252202800 254694400
1604.49 254953600 251704600 246489300 240270300 232891400 223862200
1607.39 212771500 200927200 189205000 177708900 165322200 152401900
1610.28 139762500 127548700 115749500 104851000 95059440 85059240
1613.17 75473740 67181380 59648240 53081510 46712030 42125550
1616.07 40636690 35830320 29032190 25062890 22216390 19749420
1618.96 17762190 16438950 14820460 13275950 12134440 11602330
1621.85 11334810 10825850 11158110 10692030 9251740 8710712
1624.74 8157476 7876530 7951298 7866140 7545062 7791828
1627.64 7692564 7325326 7127046 6799462 6680212 6698518
1630.53 6633696 6467620 6594628 7144748 7146996 7099496
1633.42 6976970 7029836 8012616 10106740 10290040 7529230
1636.31 6554416 7151580 7249734 6979250 7031684 6871880
1639.21 6827356 6989778 7055552 7166416 7295260 7327520
1642.10 7174194 7129474 7336410 7401310 7595762 7765328
1644.99 8990880 10839700 9216874 8118342 8673104 8357082
1647.89 7996022 7387438 6961290 6925258 6805852 6725456
1650.78 6609452 7716276 11177300 12118700 12421980 9905042
1653.67 7303568 7286046 5510670 4809992 4554360 4303774
1656.56 4121184 4062388 3949306 3832032 3709668 3683832
1659.46 3702364 3862524 4063664 4261378 4382550 5328570
1662.35 6164456 5254938 4627656 4660338 4607166 4594180
1665.24 4553456 4443626 4357742 4490502 4580378 4664192
1668.13 4682112 6089652 6322326 4473950 3709780 4083846
1671.03 4720068 4056108 3229830 3118190 3296174 3393888
1673.92 3171888 4599460 5765388 4126500 2715038 2486282
1676.81 2521324 2487216 2222464 2153318 2313094 2475160
1679.71 2440798 2378396 2161974 2113016 2023910 2557170
1682.60 3598750 3847826 3873884 7168566 8020802 3578530
1685.49 2013486 1929330 1672976 1666028 1830720 1974166
1688.38 1731796 1626434 1823124 1835396 1543464 1431536
1691.28 1432918 1407640 1379494 1411128 1498410 1537410
1694.17 1825458 2840372 6714744 7194422 2957366 1782246
1697.06 1860012 1585228 1692252 1880454 3834502 6301190
1699.95 6227598 4652558 2464950 1593858 1500228 1449784
1702.85 1449210 1607200 2363730 2197654 1536262 1777796
1705.74 2527406 2259692 1633204 1513538 1456004 1494306
1708.63 1497166 1604434 1827990 1753644 1592920 1606034
1711.53 1643132 1731016 1745654 1945888 2394462 2365682
1714.42 3261300 3413328 2474108 2320698 3679320 6835056
1717.31 5326916 3521234 4017114 2851032 2360898 2421046
1720.20 2479992 2528952 2534520 2583610 2629770 2745156
1723.10 2908544 2972138 3063618 3010242 3112968 3350866
1725.99 3532292 3518050 3539018 3666966 3829160 3828554
1728.88 4031994 4673798 4730132 4352732 4276868 4503658
1731.77 4760506 5495020 7949044 7623388 7653740 8870648
1734.67 6492514 5369870 5348320 5219716 5329730 5425896
1737.56 5437364 5650754 5824094 6907216 7673676 6369484
1740.45 5702474 5735142 5836928 6158904 6582458 6845420
1743.34 6847492 7022094 7235726 7538876 7936406 8111336
1746.24 8459386 8930614 9057864 9619634 10296080 10276590
1749.13 10165740 10283380 10972550 12860840 13203600 11606430
1752.02 11220790 11332940 11531910 11797380 11664040 11455740
1754.92 11540650 11553920 11966340 12278940 11397980 10741160
1757.81 10555600 10200630 9967744 9889408 9637518 9298872
1760.70 9487538 10414110 9825622 8501476 8152716 8267182
1763.59 8502970 8268106 7977218 8095146 8440412 8657662
1766.49 8789082 9083450 10224370 10169880 9037202 8834502
1769.38 8793972 8837464 9189594 9634498 8878274 9718580
1772.27 11186470 9311342 7815254 7564902 7346074 7405942
1775.16 7412108 7144948 6943788 6875430 6743188 6675732
1778.06 6672980 6702360 6738266 6867230 7145536 7060438
1780.95 6787006 6902624 6995044 6949054 7099302 7298434
1783.84 7679922 8345130 8105822 7737322 7837168 8035124
1786.74 8293282 8406684 8520334 8717058 9022772 9524008
1789.63 9804498 10238670 10841630 10762770 11749630 13825920
1792.52 13551870 12704670 13245170 14044900 14954960 15573730
1795.41 16276780 16885590 17608720 18672520 20243260 22207740
1798.31 24079560 26681060 29435000 31898830 35126720 38610070
1801.20 41838510 45437360 49486920 53688890 58052400 62607710
1804.09 67342230 71922090 77052620 82619630 87505490 92149010
1806.98 96895230 101534400 106257600 110634600 114415300 117823400
1809.88 120387500 121624500 121898000 121441500 120210500 117954200
1812.77 114933600 111139100 106826100 102125400 97226250 92669800
1815.66 89324520 87314140 87681380 91242580 99012150 107394300
1818.56 110812900 112293100 94558180 65085080 47995760 42202980
1821.45 45537580 54060140 65787020 77737050 88363980 98236160
1824.34 107972600 116373500 122635500 127709000 131563300 133892900
1827.23 135330800 136215600 135888500 134036500 131558200 128783300
1830.13 124597700 119147900 113592200 108066200 102646400 97031660
1833.02 90547300 83965080 78006040 72119660 66213700 60321130
1835.91 54800950 49948330 45492880 41334130 37105060 32998080
1838.80 29506610 26452510 23808510 21450740 19067690 17105130
1841.70 15475830 13837630 12418330 11845450 12232150 10665070
1844.59 8438200 7551960 6966062 6577812 6135518 5733940
1847.48 5293028 4893620 4676952 4489800 4218448 3980956
1850.38 3904490 3844180 3743984 3670022 3644856 3629000
1853.27 3622690 3558718 3549126 3726800 3852526 3861050
1856.16 3824530 3848996 3942002 4150608 4321482 4335824
1859.05 4390746 4453858 4569174 4721756 4815100 4820678
1861.95 4817208 4854584 4912062 4913566 4801692 4733908
1864.84 4724460 4750992 4845978 4774270 4727578 4937094
1867.73 4782862 4666886 5232764 4928430 4197854 4087778
1870.62 4031654 4008172 3874486 3592502 3232366 3182454
1873.52 3415348 3636568 3881578 4155166 4416942 4586148
1876.41 4745470 4991078 5200316 5246898 5265890 5265226
1879.30 5238904 5245420 5277670 5318900 5283212 5255694
1882.20 5304056 5329308 5265188 5192932 5126124 5037750
1885.09 4877810 4716622 4637846 4608790 4478172 4278190
1887.98 4146706 4154504 4347900 3949662 3390222 3270390
1890.87 3203814 3127814 2990520 2877324 2821376 2827094
1893.77 2785222 2813796 2904574 2770848 2603940 2541332
1896.66 2538736 2534440 2472712 2394392 2323824 2300046
1899.55 2293410 2265542 2298180 2389662 2534462 2740860
1902.44 2965632 3187228 3314164 3316010 3322552 3331736
1905.34 3369632 3394806 3316576 3260804 3295352 3244526
1908.23 3157002 3104332 3180140 3271218 3113508 3132184
1911.12 3162072 3192966 3174200 3096010 3064348 3035390
1914.02 3024772 2930396 2912530 2946498 2964320 2910018
1916.91 3059190 3639712 3409570 2844684 2777798 2689506
1919.80 2661718 2669448 2677084 2716092 2797062 2863288
1922.69 2931450 2868966 2830636 2802414 2755672 2790850
1925.59 2829668 2925192 2963824 2885018 2817546 2837638
1928.48 2922404 2974652 2975332 2935626 2907016 2917698
1931.37 2907948 2874890 2901976 2965424 2957646 2920914
1934.26 2900060 2876980 2895826 2925406 2968178 2970512
1937.16 2944364 2998134 2992236 2933796 2947748 2965522
1940.05 2935232 2962418 3054182 3284850 3586194 3482336
1942.94 3321854 3338810 3437010 3589596 3691388 3823918
1945.84 3933968 3999732 4108946 4254856 4338582 4414684
1948.73 4529396 4690482 4839596 4883778 4921664 4984194
1951.62 5103434 5252404 5388690 5559230 5633876 5801654
1954.51 6223178 6513466 6612346 6654204 6500754 6507166
1957.41 6714972 6835766 6971062 7143412 7320844 7547842
1960.30 7733772 7850918 7977830 8070918 8041100 8007436
1963.19 8022498 7908084 7809862 7644372 7401464 7240166
1966.08 7293350 7275298 6729786 6492400 6882824 6911164
1968.98 6592720 6252274 6490210 6931102 6377598 5687412
1971.87 5242992 4981468 5082756 5218804 5392480 5721526
1974.76 6133052 6444142 6591210 6679742 6728718 6789040
1977.66 6927128 6943502 6753646 6555866 6428548 6382314
1980.55 6281884 6122980 5922850 5663354 5483702 5312316
1983.44 5084864 4877598 4679198 4491376 4345300 4137344
1986.33 3902286 3681484 3485792 3450468 3400954 3196050
1989.23 3006478 2851660 2746896 2747206 2837444 2710124
1992.12 2388324 2216546 2202394 2154656 2033840 1908428
1995.01 1775540 1764762 1778202 1716898 1635596 1560302
1997.90 1562022 1543864 1457412 1389592 1340658 1350236
2000.80 1359734 1339256 1260964 1192934 1227230 1212194
2003.69 1168302 1100892 1020786 1052316 1089308 1079074
2006.58 1034900 957140 940952 932680 906664 850746
2009.48 725096 705334 750900 726624 679446 619378
2012.37 566048 554200 514048 470318 483138 485318
2015.26 454760 424622 461476 427258 366776 393378
2018.15 363402 298912 258406 209008 196680 197602
2021.05 174010 155960 162558 176106 156758 136132
2023.94 108304 72554 67116 55832 26556 14526
2026.83-10836 4844 65716 39596 35320 89658
2029.72 64166 40210 49412 41088 34280 35044
2032.62 53144 67496 29060 5866 33198 68842
2035.51 70596 27468-6212-48024-95812-90602
2038.40-76810-27724 28042 27756 44634 56212
2041.29 45242 46194 19178 10586 33342 20352
2044.19-8464 13470 55504 111018 97680-464
2047.08-30486-46778-47816-40206-33268-22002
2049.97-50526-85594-85820-59052-49826-80742
2052.87-92552-71764-74644-51746-62012-104348
2055.76-87018-47272-45992-88510-62382-23402
2058.65-38588-4218 30240-14822-15866 23258
2061.54 21528 2618 5084 27148 7128 18694
2064.44 21932 7398 28926 22862 7534 900
2067.33 1258 24064 98696 78998 8770 10866
2070.22 24296 25990 31570 55124 82874 150722
2073.11 145510 80474 76498 75412 84560 113008
2076.01 120624 142950 215958 216658 177772 166442
2078.90 130158 117366 150078 196556 208472 292102
2081.79 269628 172904 229814 239288 208050 207488
2084.69 242836 306322 397558 400130 328252 300524
2087.58 320538 399830 415376 385546 444786 605554
2090.47 578730 467750 437008 426336 473352 498558
2093.36 512198 626772 790130 688156 615776 651118
2096.26 648202 633666 662680 733338 888632 1020226
2099.15 826296 704698 695600 664426 665602 655734
2102.04 674626 861166 862362 652766 592066 585844
2104.93 523770 534482 569702 732592 1019726 738406
2107.83 460108 478538 536368 619964 643246 625306
2110.72 855940 1017752 786992 705610 745262 765606
2113.61 777484 786048 906854 1182478 1063906 818256
2116.51 786204 807424 808736 801280 788304 955580
2119.40 993252 765188 708526 663330 623716 620940
2122.29 570868 685746 812972 611804 497606 512430
2125.18 498598 471050 421578 515210 714660 600382
2128.08 455418 436694 396186 376072 356974 411174
2130.97 575558 558512 413732 379602 356444 390170
2133.86 411778 427014 533762 528064 405914 405296
2136.75 376142 346874 369234 375876 423806 434742
2139.65 366486 347030 355916 404760 413844 387674
2142.54 401104 386710 382402 411600 426928 421760
2145.43 414448 440884 518332 492608 392350 415810
2148.33 444270 452358 470418 515964 616840 523618
2151.22 418532 455680 457712 490512 504288 606736
2154.11 770024 666822 527952 523382 514232 501378
2157.00 513856 718844 874230 703806 607668 646190
2159.90 660630 608938 699756 1014438 967284 751482
2162.79 735658 720988 745218 776304 1014664 1210470
2165.68 1003804 931374 877178 819502 838932 875548
2168.57 1151154 1051860 800876 823578 770530 791638
2171.47 869296 1103904 1178412 904368 835414 825866
2174.36 813354 813788 1041032 1293862 996592 782352
2177.25 788474 805004 845412 974030 1225320 1130188
2180.15 953894 925322 856234 796902 833504 1098318
2183.04 1073858 853780 817476 788220 840326 914792
2185.93 1173960 1180664 927834 882304 895024 968598
2188.82 1007106 1129380 1074360 891718 915198 908454
2191.72 886676 924740 1053672 1003608 916012 925654
2194.61 913890 907376 958634 1127636 1059000 937680
2197.50 941444 973586 994832 1080800 1191052 1087282
2200.39 1038876 1009162 973042 987322 1036876 1073016
2203.29 969860 957984 965686 903314 872142 920350
2206.18 902858 831906 811162 825672 829306 835384
2209.07 862042 809974 809730 850618 870836 926856
2211.97 991712 944602 878648 890558 871686 888462
2214.86 960002 1027862 1130298 1099268 1016200 995226
2217.75 983658 975596 959996 931244 930262 939724
2220.64 891564 890440 874732 843752 835810 846880
2223.54 846724 858702 890680 858514 829688 848820
2226.43 868898 930458 936422 871082 896890 894604
2229.32 886578 922322 928990 941714 960472 965956
2232.21 1024816 1050562 1020394 1082020 1140554 1099380
2235.11 1082866 1154818 1202478 1241774 1241388 1215052
2238.00 1241612 1270996 1296854 1375410 1422648 1413082
2240.89 1446384 1471598 1483426 1436370 1411736 1526202
2243.79 1600334 1640022 1675972 1643740 1616662 1685916
2246.68 1776508 1844470 1885980 1805170 1786174 1834490
2249.57 1938914 2055594 2019270 2027750 2128864 2201742
2252.46 2278204 2358212 2347280 2307078 2350036 2477370
2255.36 2638512 2605216 2500242 2541008 2618704 2671910
2258.25 2658912 2584604 2508354 2462648 2448144 2441462
2261.14 2445628 2426040 2389174 2366962 2354880 2285052
2264.03 2174912 2105020 2031060 2024726 2088016 2111608
2266.93 2121426 2201506 2281898 2366024 2420722 2490030
2269.82 2612314 2678480 2697182 2734222 2776584 2758258
2272.71 2722810 2678352 2589286 2520990 2559788 2615136
2275.61 2507270 2333990 2355728 2371060 2300080 2235684
2278.50 2142034 2079484 2056672 2088640 2061816 1941674
2281.39 1894158 1922902 1939760 1883872 1788636 1724934
2284.28 1726542 1776356 1713268 1608920 1615704 1648632
2287.18 1646218 1604566 1617142 1599098 1540302 1557870
2290.07 1510488 1419546 1419550 1429164 1355974 1295576
2292.96 1293046 1289406 1303792 1254340 1228676 1299990
2295.85 1329710 1348236 1331968 1303100 1377786 1422858
2298.75 1385974 1366412 1359388 1357488 1377412 1324274
2301.64 1290538 1309070 1216126 1155634 1159738 1191058
2304.53 1155170 1072466 1026852 1059414 1150424 1077352
2307.43 986468 996856 1154006 1132446 1018654 1033126
2310.32 1254362 1307168 1092452 999774 1153192 1322310
2313.21 1118108 962686 1163690 1427290 1197730 937532
2316.10 1096174 1511172 1411536 979170 1058584 1605706
2319.00 1524604 1034030 1118288 1736016 1696450 1040504
2321.89 1135206 1863242 1800746 1053832 1177936 2019716
2324.78 1919514 1042220 1268764 2270942 2022886 1034674
2327.67 1517242 2562214 1968678 992324 1771114 2741046
2330.57 1856082 1073708 2218842 2813648 1555366 1267360
2333.46 2647958 2543740 1155932 1657838 2919270 2030774
2336.35 1052636 2246492 2752838 1396118 1405442 2694368
2339.24 2208602 1156624 2011212 2622216 1526082 1442102
2342.14 2460188 1957494 1244768 1958882 2147406 1322422
2345.03 1390026 1745472 1229772 949356 1198414 1073066
2347.92 787148 739596 782886 899116 808494 817604
2350.82 1294244 1233702 1005558 1676090 1624874 1071840
2353.71 1890824 1914738 1139718 2167952 2297268 1325480
2356.60 2435428 2461090 1419764 2667722 2470754 1556250
2359.49 2932780 2318130 1718524 3038312 1942846 1943122
2362.39 2925880 1667336 2341452 2532818 1546410 2567322
2365.28 1916556 1704276 2380940 1463686 2056406 1806606
2368.17 1361528 1911932 1273034 1612332 1393042 1209150
2371.06 1453694 1024428 1299188 1035524 1060686 969798
2373.96 854946 908652 717226 781916 671856 671910
2376.85 588626 583414 503802 476212 476344 441896
2379.74 426266 401648 383324 350328 372024 351198
2382.64 361646 387008 361058 374106 368804 317836
2385.53 312954 319300 326814 333422 343374 335282
2388.42 343324 346730 359988 363260 348964 333662
2391.31 319314 361018 412268 400564 388886 378018
2394.21 381246 456934 471036 445282 417648 398198
2397.10 439972 468130 437662 454822 477222 445790
2399.99 428908 468628 524046 534664 554490 589776
2402.88 605270 580322 554376 552838 563608 612640
2405.78 660774 672632 638324 650468 695578 677464
2408.67 672690 733292 749834 749624 785046 831600
2411.56 831346 814578 840526 788782 783490 819934
2414.46 816072 840322 798304 790052 864222 917224
2417.35 946792 860472 826962 836832 853626 909462
2420.24 857076 812990 835772 818878 831402 825006
2423.13 786002 801600 780338 753844 740506 761024
2426.03 793726 781718 760688 779904 865300 913492
2428.92 943896 942422 930156 940866 950214 952394
2431.81 985086 1031268 975354 942872 987594 996204
2434.70 965840 973026 943244 922958 938534 933570
2437.60 917178 879174 891506 905090 899596 914420
2440.49 904170 862160 858864 915844 928976 909088
2443.38 900100 894074 896684 892946 879782 895824
2446.28 906090 887324 944680 984298 968910 972550
2449.17 987026 1043862 1089858 1081132 1049058 1014814
2452.06 1000342 1066166 1160528 1154674 1122358 1112498
2454.95 1130950 1225182 1246704 1170372 1164066 1200848
2457.85 1234646 1271440 1239396 1186196 1206196 1289640
2460.74 1311816 1295860 1283940 1269528 1349802 1392524
2463.63 1353276 1356802 1391160 1454672 1508876 1482502
2466.52 1439584 1534718 1602798 1565864 1614870 1636184
2469.42 1652640 1755720 1787678 1797490 1900122 1913570
2472.31 1967274 2081040 2023498 1993414 2120124 2259902
2475.20 2420248 2443610 2416074 2485220 2607492 2805278
2478.10 2812066 2725528 2881320 3059086 3224670 3382984
2480.99 3345500 3384846 3459818 3547884 3679856 3605878
2483.88 3554076 3556018 3586658 3705530 3672872 3558862
2486.77 3516154 3494622 3491636 3404184 3246236 3126146
2489.67 2985094 2817892 2691842 2592338 2517916 2526980
2492.56 2627108 2742470 3075732 3570352 3203200 2570700
2495.45 2426430 2443954 2501536 2569352 2755574 2882712
2498.34 3032052 3199852 3279744 3378586 3533970 3620490
2501.24 3597804 3562644 3581348 3662312 3650274 3520578
2504.13 3370722 3288452 3340372 3220198 2930712 2772442
2507.02 2741266 2796830 2625420 2372120 2254038 2157446
2509.92 2176018 1989790 1731736 1664172 1641422 1660716
2512.81 1568330 1375668 1237776 1246084 1287374 1198878
2515.70 1094348 1100072 1098850 1053560 992128 956158
2518.59 957356 886914 825134 798004 891414 891180
2521.49 785746 785830 840220 859016 777028 726306
2524.38 726176 797816 833260 716204 674658 682052
2527.27 696116 755826 687116 639370 664348 683300
2530.16 707126 697926 678990 669464 690994 691292
2533.06 649732 592190 548322 590152 657718 583404
2535.95 544190 585778 587534 616092 609364 566030
2538.84 551736 564124 579998 554988 545458 560628
2541.74 522196 532608 529812 518850 517094 486708
2544.63 452204 438700 462300 474690 528684 536334
2547.52 490660 485424 508986 529758 541254 550310
2550.41 553430 522026 525148 548806 561910 594122
2553.31 608148 607028 606546 623978 645194 632786
2556.20 615550 668184 715018 688920 692952 727178
2559.09 718088 733118 750200 763498 787826 796286
2561.98 780774 784200 796454 785818 743790 703290
2564.88 768144 859756 900684 852396 855000 912248
2567.77 902930 965378 1051766 1087026 1126038 1173972
2570.66 1235682 1275906 1227980 1194550 1229820 1270740
2573.56 1329018 1313060 1305180 1337110 1265398 1249944
2576.45 1243108 1153948 1073472 1011040 992800 975862
2579.34 908678 862504 889240 871898 894648 949898
2582.23 1029814 1127884 1090096 953724 879594 854524
2585.13 862868 944808 991174 1018726 1062990 1073808
2588.02 1104270 1130112 1089752 1101308 1148352 1148004
2590.91 1105118 1065680 1037298 1026954 1038732 1023146
2593.80 1017600 1003556 967324 876228 850230 879426
2596.70 806324 707194 640284 608040 588550 577438
2599.59 524770 474778 433712 444702 413796 350420
2602.48 346212 323430 308092 336644 356336 328592
2605.37 298552 338794 326072 270216 308756 298318
2608.27 260582 274054 233296 191836 244728 257118
2611.16 274112 301574 284246 290046 263570 251424
2614.05 259050 285138 323166 262322 218448 263314
2616.95 326312 332336 272338 261768 314084 328118
2619.84 330598 288900 253496 261520 277980 339758
2622.73 373034 381580 362464 367292 357426 308548
2625.62 323368 329648 349926 384596 391914 412232
2628.52 456142 510960 438102 356426 380206 348248
2631.41 329486 362278 396822 415024 404566 407950
2634.30 410822 410774 384162 364694 423834 483604
2637.19 488218 469364 414454 407974 442688 421528
2640.09 415156 423300 428108 461202 473640 489574
2642.98 494722 492342 481152 466912 478186 479228
2645.87 513788 501906 446754 453798 422936 366876
2648.77 382432 418708 428478 401986 374574 422908
2651.66 444792 365242 336532 345202 339296 364446
2654.55 346868 338706 399600 408980 364708 353032
2657.44 312970 294424 329334 359528 367662 318514
2660.34 303114 286566 297880 336822 331142 353818
2663.23 338082 326202 382384 392558 317284 215556
2666.12 231310 305836 291426 256026 250926 236632
2669.01 232834 262556 257948 270776 267378 219064
2671.91 224442 233092 210198 166938 180938 215688
2674.80 230410 202292 206106 259972 224024 152982
2677.69 164476 188136 200066 213412 177840 147262
2680.59 192236 221306 182682 184958 210652 220338
2683.48 239390 257942 282964 298610 300530 294334
2686.37 227012 207270 239606 249470 243524 231260
2689.26 254916 266344 245232 253256 272830 309970
2692.16 288990 255348 263878 279286 358362 407874
2695.05 367010 342442 373530 383786 346578 340832
2697.94 396906 443704 409858 395378 459546 507896
2700.83 505536 469800 410134 408208 463494 452968
2703.73 446804 467638 446976 444732 511014 536864
2706.62 513452 523038 530824 529382 517304 500330
2709.51 518980 526218 519890 566348 568912 562786
2712.41 589148 606064 613694 688442 742292 750216
2715.30 788094 762776 762004 841218 866224 891314
2718.19 932924 928680 958906 947472 939712 945152
2721.08 934406 929792 953360 945282 926218 929938
2723.98 858334 839098 829218 801898 838992 798416
2726.87 726412 680490 682736 675462 638240 628562
2729.76 623062 629862 609132 592478 662410 658774
2732.65 552194 591890 653792 605422 610426 637912
2735.55 754908 875690 836964 800938 703456 637672
2738.44 666772 706570 697838 651158 668890 668274
2741.33 613420 632552 632802 592908 584582 573266
2744.23 592158 625946 628780 583530 588770 555626
2747.12 435510 445744 484990 466006 515808 524916
2750.01 473048 458360 402210 400184 451782 443634
2752.90 428334 442542 416270 426820 468700 451438
2755.80 409588 393836 409940 395836 407996 392660
2758.69 336138 253060 154518 76126 135668 315512
2761.58 459570 522094 502272 489530 453478 411354
2764.47 405340 414394 405816 383968 379836 371590
2767.37 363454 425076 481946 415000 406444 460818
2770.26 461996 382652 366548 411578 392374 373376
2773.15 421138 456896 466500 485774 474300 410762
2776.05 445248 549462 571192 532052 493984 478990
2778.94 467628 485884 565610 607754 592394 635566
2781.83 622512 677068 735518 738066 745348 746274
2784.72 806716 836340 819468 827842 825096 837800
2787.62 814552 822336 850750 859616 859196 807250
2790.51 810098 852668 863924 852608 852630 818340
2793.40 824396 803044 752080 737696 765232 838414
2796.29 857066 874668 873880 885952 960554 951216
2799.19 963508 963072 917184 912136 938710 944044
2802.08 982034 1066616 1076142 1107688 1127816 1107914
2804.97 1126232 1158066 1183336 1181404 1167196 1128892
2807.87 1100776 1144850 1146668 1116882 1122912 1089500
2810.76 998966 968884 925604 844560 800888 784106
2813.65 818490 820692 786864 777966 784388 774726
2816.54 778876 794660 803910 826500 784984 751072
2819.44 776842 777156 795240 860738 886764 905460
2822.33 932366 984710 982084 966170 981366 959906
2825.22 908338 911840 1016074 1057902 1032768 985748
2828.11 1038034 1115192 1125582 1155522 1126540 1076622
2831.01 1116092 1175740 1280990 1372362 1429394 1484502
2833.90 1493774 1556162 1619352 1687288 1796308 1856530
2836.79 1892774 1916640 1955622 1987548 2041242 2163658
2839.69 2271006 2399648 2511766 2524794 2610146 2675670
2842.58 2741700 2920788 2976426 3032290 3183948 3272074
2845.47 3281540 3366392 3518008 3597864 3676482 3709208
2848.36 3719792 3767938 3779532 3838948 3924654 3970102
2851.26 3992636 3970640 4007016 4081060 4054032 4082878
2854.15 4210682 4327168 4349696 4390904 4438114 4452570
2857.04 4549992 4630226 4614742 4611914 4644214 4695968
2859.93 4761252 4801848 4857578 4904494 4944366 5009018
2862.83 5077870 5171258 5278302 5402622 5461494 5412386
2865.72 5418080 5394152 5431422 5546164 5599734 5612904
2868.61 5631026 5665446 5711574 5724914 5684266 5722398
2871.51 5823870 5891110 5857622 5788662 5807576 5864398
2874.40 5899228 5984774 6085362 6221762 6357278 6528912
2877.29 6714930 6867512 7103252 7263950 7451502 7708220
2880.18 7715322 7508076 7375348 7322942 7252658 7318988
2883.08 7373528 7400272 7486132 7549660 7666992 7831394
2885.97 7988580 8079692 8113202 8139298 8305720 8600258
2888.86 8762228 8851916 9020332 9221778 9648710 10263910
2891.75 10476090 10235720 10031090 10001720 10046530 10212790
2894.65 10257600 10164280 10148920 10171830 10247120 10498770
2897.54 10743050 10570490 10506340 10731030 11051370 11540160
2900.43 11649930 11354170 11224080 11220580 11515440 12098440
2903.32 12001010 11535390 11487550 11628230 12369810 12978150
2906.22 12450950 12127750 12262670 12604250 13600970 13859890
2909.11 13213480 13171530 13423980 13912560 15122980 15089090
2912.00 14257770 14319710 14781990 16099680 16873420 16263310
2914.90 16298030 16933750 18175500 19241540 18609750 17825690
2917.79 17553220 17441850 17547450 17585850 17532380 17320830
2920.68 17027370 17035900 17168840 17034930 16836030 16853330
2923.57 16994300 17203640 17277040 17423390 17791540 18322710
2926.47 19048310 19730390 20299430 20998930 21549270 21747480
2929.36 22234840 22676160 22762110 23060720 23436790 23573650
2932.25 23759650 24070240 24474480 24710200 24557710 24733660
2935.14 25088180 25237290 25126960 24808380 24869840 25330410
2938.04 25697790 25253480 24809300 25241930 25966790 26351770
2940.93 25920160 25645870 26114690 26994700 27506360 27199060
2943.82 27321170 28114120 28988240 28839530 28226620 28540890
2946.72 29572470 30667480 30586920 30535810 31161840 32323920
2949.61 33630200 33436790 32985450 34055160 35781720 36510740
2952.50 35899240 35030130 35174570 36140470 37004490 36764530
2955.39 36437280 36877980 37799860 39247130 39592340 39387790
2958.29 39699800 40631760 42626430 43076980 42801700 43926440
2961.18 45024920 47117200 48749690 49038430 50881060 53187920
2964.07 56434270 59485820 60448230 62874100 66017300 69934530
2966.96 73534890 73168730 73006190 73484840 73826130 77365100
2969.86 79273410 79762230 81081160 81392980 85119510 88830700
2972.75 89661110 91123260 91345140 91736860 93547400 95034820
2975.64 96119340 95896230 94353580 92977230 92545740 92906140
2978.54 92831600 91016900 87702060 85612140 84922180 83641370
2981.43 82962880 82086780 80517630 83940100 92266660 91639400
2984.32 86028470 85305450 85431380 85890220 88266880 93641540
2987.21 98412540 101713500 105124600 107937200 111134100 115693500
2990.11 117697100 116879700 118142800 122540700 127907300 126001600
2993.00 121649400 122612900 126050600 127985700 124542600 121143400
2995.89 122874200 127666400 131505200 130460100 127156100 127550500
2998.78 130154300 132781400 131289100 127113600 127041000 130163000
3001.68 132403900 129103300 124341400 123211900 123193600 124058400
3004.57 121788500 117014300 116266300 116131700 114120600 109845900
3007.46 104818600 102634000 103096000 104410700 103016900 101273100
3010.36 104271700 105384600 100182100 94957300 93264100 94933910
3013.25 99218230 104073100 105962300 106871800 108665000 110806800
3016.14 111552400 112038100 114347400 114799200 114633600 117089500
3019.03 118326100 117140100 116885900 116844600 118800000 119463600
3021.93 116614400 114765200 114062300 116050200 115600400 111255200
3024.82 109079200 108130400 108717800 107142100 104336900 102964100
3027.71 100484800 100345500 100144800 97234570 93866660 93833540
3030.60 96247780 94324910 92670540 94197090 95642130 97689660
3033.50 99010100 99510960 100824100 103239100 105967000 104620400
3036.39 104189900 109796800 114231600 113930200 113280400 114745100
3039.28 119927300 124535800 123280700 122589700 123355900 125690700
3042.18 128479700 127551100 128271000 129247600 126997200 127107100
3045.07 127125200 127329500 128679300 124353300 120308000 120504000
3047.96 120070600 119794700 115851400 110146500 109503300 108160800
3050.85 104648600 102874300 100467800 98561990 97925300 100204500
3053.75 104705300 107042600 105805900 101311000 98453230 101253100
3056.64 107819600 109175800 109305800 114496000 118437200 122749400
3059.53 128154200 130447400 130845900 131528800 135489500 143984600
3062.42 146785100 141846300 140663000 143130600 148393400 149606600
3065.32 143980400 143349900 143587200 143331700 145401500 141922800
3068.21 139511800 140007500 137025300 136570800 136612200 136065300
3071.10 137240100 135280900 132701000 132301600 133591800 135114100
3074.00 133464000 131545400 133583900 138348300 138842600 137399700
3076.89 137627400 139130000 142660200 148460600 147792700 142903700
3079.78 146528600 153606700 163442700 167741700 161178500 159524100
3082.67 164448500 175329100 188190500 185783000 178648700 181183900
3085.57 190616200 205711500 210723500 201253100 196728700 199946300
3088.46 210707600 218725900 208475100 201478000 202754500 205522200
3091.35 208430600 198536600 187101400 183168800 179899200 174490300
3094.24 165880800 159037300 151572700 141889600 139513400 143345400
3097.14 144788200 144757800 138796800 130959400 126742500 133795800
3100.03 143620300 133257600 125324900 129369300 134971300 142500400
3102.92 155635200 167148400 171611900 179109900 189238800 195083000
3105.82 200617200 203660200 200057700 200188100 204049900 207705100
3108.71 206680300 195356700 189972100 192975800 192860800 187781200
3111.60 173761200 164534000 165846800 165676300 160870500 147852200
3114.49 134923400 133457300 135339100 133536900 122629700 110573400
3117.39 109190500 111619700 113036700 105798400 93136380 90862660
3120.28 91581420 89782380 91517100 85325040 78373010 79290580
3123.17 80771160 81520780 74749760 69387560 69412560 71133000
3126.06 71500040 66145330 63107320 63281160 64452320 64241820
3128.96 60158350 56874750 56724660 56625380 55623280 53514220
3131.85 52260270 51843620 49948090 47931500 48353300 48739760
3134.74 44894060 42751260 42172450 43457160 42520790 38543080
3137.64 37822500 36935680 37493800 36810190 34030800 32674570
3140.53 32508430 32366460 30720420 29987990 29259690 27513060
3143.42 26487960 26914900 26007730 24245220 23720910 23180150
3146.31 22291170 21519690 21409900 20397130 19103720 18340300
3149.21 18128980 17960590 16925050 15957190 15298490 15082600
3152.10 14787520 14034240 13339500 12780480 12592430 12119040
3154.99 11439610 10923670 10474830 10299750 9996698 9336112
3157.88 8870348 8645160 8486868 8017002 7501952 7208120
3160.78 6959960 6900694 6669588 6286978 5946002 5636488
3163.67 5588694 5385164 4991930 4725612 4533674 4442890
3166.56 4251504 4138486 4054380 3872186 3629954 3433376
3169.46 3313334 3292798 3370724 3138516 2778462 2630688
3172.35 2600530 2773026 2728474 2304132 2072642 1982834
3175.24 1897824 1839076 1684412 1542140 1479250 1494720
3178.13 1404060 1284568 1276904 1176098 1118738 1108282
3181.03 1093234 1085972 1064498 1068626 1074758 1017640
3183.92 1027890 1050648 1043254 1060294 1013516 983286
3186.81 1010680 1068060 1040446 882756 749904 723964
3189.70 746880 728130 637198 456544 228980 259072
3192.60 538596 717772 715380 604540 572012 693476
3195.49 727692 708290 675432 630192 642692 533438
3198.38 368164 304234 253644 161512 208850 355800
3201.27 417962 337730 274434 296828 262270 172724
3204.17 69930 32906 82458 147196 91742 101564
3207.06 216706 268908 202734 179614 213802 247278
3209.95 312270 342032 357024 383062 459920 428996
3212.85 384406 492628 534220 490280 573190 626030
3215.74 684946 754238 819774 859000 871222 880446
3218.63 935686 1049874 1100004 1117750 1079606 1220240
3221.52 1361900 1253290 1155760 1266052 1338814 1401008
3224.42 1399018 1310146 1346602 1421878 1453568 1389944
3227.31 1359706 1328108 1266546 1215758 1298064 1344620
3230.20 1290540 1288346 1291134 1330262 1367890 1462944
3233.09 1617318 1761482 1917790 2049812 2041738 1981638
3235.99 1838622 1724424 1795084 1884414 1999762 2082990
3238.88 2047076 1974662 1992484 2122228 2070256 2041310
3241.77 2097166 2075032 2041868 1936942 1880284 1931226
3244.67 1890184 1713014 1660424 1579728 1531016 1511244
3247.56 1428900 1377264 1287300 1263836 1203660 1145312
3250.45 1150134 1097936 1063382 1037692 951498 907664
3253.34 878110 863156 788396 742414 781236 724154
3256.24 827370 937070 760078 650554 621928 660502
3259.13 709804 743652 759264 698108 632352 644164
3262.02 746368 748074 668866 676734 708278 720166
3264.91 692996 619110 679388 698774 593106 591548
3267.81 600876 504256 517264 575994 601750 529342
3270.70 439412 476834 484690 451214 448156 499602
3273.59 436714 337720 359214 348390 335802 387512
3276.49 358622 365342 427216 358128 343902 345952
3279.38 306276 311122 267846 216238 235546 229280
3282.27 249070 267054 238620 219194 161138 195134
3285.16 243346 207866 257086 322906 270692 266878
3288.06 307902 318228 360636 290496 259058 281462
3290.95 171164 164004 268622 292156 296310 322238
3293.84 354868 368028 335984 332452 392184 467616
3296.73 396606 328670 455692 521090 508914 530254
3299.63 514220 502290 546280 551758 520466 461556
3302.52 449510 513970 505542 356122 375194 491722
3305.41 407024 397828 502896 579518 511838 456336
3308.31 478750 510612 522664 509048 535054 567026
3311.20 502904 448390 462648 501436 535628 541134
3314.09 644726 645478 601184 615846 590732 563464
3316.98 583132 592176 582472 606838 620840 607852
3319.88 563402 570138 592748 549264 514478 520760
3322.77 560440 562788 484764 398076 388198 453446
3325.66 440188 400720 473890 538714 516494 439764
3328.55 373262 305318 328386 401408 417552 337882
3331.45 260738 371952 320608 166208 190580 276284
3334.34 380334 410052 302396 245424 236652 159114
3337.23 133604 199412 276366 273488 204132 190740
3340.13 170302 209518 260720 209828 221500 298338
3343.02 279126 257138 258800 215050 124950 114672
3345.91 133828 95850 107606 145710 251452 185240
3348.80 201372 207224 140272 124720 52604 109204
3351.70 183944 239922 292388 285738 162250 108160
3354.59 158330 218742 245174 196426 190422 204912
3357.48 215492 231646 269384 231058 193010 221272
3360.37 229448 327110 338558 273148 248750 251196
3363.27 224410 224596 316658 339480 312056 285850
3366.16 283938 229602 235424 248116 185922 215904
3369.05 230724 258826 340526 415280 368336 446986
3371.95 603692 627198 573566 482214 484886 474490
3374.84 441750 443896 502004 575002 559016 547926
3377.73 653938 668546 605616 644056 666860 735312
3380.62 804882 813260 788204 729542 776866 741772
3383.52 803484 861764 851022 1010336 1092514 1117378
3386.41 1097798 1138242 1185604 1130096 1181326 1250558
3389.30 1284230 1275214 1264908 1260048 1238014 1368852
3392.19 1446158 1387764 1389326 1405668 1369740 1304618
3395.09 1173656 1083512 1131724 1269758 1203528 1126932
3397.98 1160924 1051458 1046448 1143576 1235622 1191188
3400.87 1159350 1262178 1334688 1319058 1302886 1422682
3403.77 1444318 1350194 1409796 1495190 1391334 1356238
3406.66 1449186 1432822 1412334 1400372 1374720 1310360
3409.55 1250272 1317780 1324506 1302906 1313754 1241116
3412.44 1146170 1108602 1028846 988620 912884 746826
3415.34 750684 791434 817020 882358 962246 905412
3418.23 793820 809930 821782 782714 782370 671230
3421.12 627074 673988 626148 623710 537518 437214
3424.01 458280 508612 454506 414488 390744 452356
3426.91 504892 479354 514522 454626 382558 341652
3429.80 354304 349454 348352 403306 427490 429782
3432.69 420418 454694 354374 259240 376598 469548
3435.59 452842 453740 486778 471196 452312 539390
3438.48 598900 637248 664222 651916 720596 747234
3441.37 700748 818328 834832 759426 795842 710524
3444.26 746320 721648 680086 779936 855524 944298
3447.16 809006 739204 792262 765018 665530 611386
3450.05 623826 627162 649664 604514 544028 506018
3452.94 606872 589766 368598 435244 522720 481390
3455.83 551630 521864 502434 604846 640246 634246
3458.73 604812 751868 872934 756312 704090 711240
3461.62 729268 738292 723848 722000 783546 762474
3464.51 758284 719862 605904 608802 770984 868400
3467.40 783464 664648 602660 635152 640632 604964
3470.30 553028 547392 517000 467196 440194 395460
3473.19 415766 480138 461560 383712 361110 320140
3476.08 254352 266524 334246 389502 379000 355434
3478.98 374452 390592 408220 426304 397444 476106
3481.87 553788 436916 285728 310932 331226 291144
3484.76 383246 397334 375224 352012 276170 369172
3487.65 448494 435716 486314 454648 455912 463314
3490.55 439286 408766 326678 295214 361328 394444
3493.44 326164 327730 429878 495264 476988 472436
3496.33 488260 396556 369094 434726 459756 481672
3499.22 539436 584834 560652 575716 571680 572294
3502.12 623752 695864 662814 644882 640402 556852
3505.01 505728 533468 597168 545142 474706 439784
3507.90 505116 653348 732220 728182 638302 542912
3510.80 568350 608976 548400 556844 584022 545844
3513.69 488406 537674 610900 622170 584086 591072
3516.58 654136 632316 591192 595178 623064 532314
3519.47 532380 589284 613418 645228 659390 684624
3522.37 693168 616018 544428 605968 673904 657392
3525.26 627868 624878 735118 853968 812716 752066
3528.15 840284 908276 746748 633734 713608 766130
3531.04 785628 747116 711654 769690 750282 752440
3533.94 703778 650050 640040 611544 783342 768196
3536.83 629636 680600 669988 667148 590556 556032
3539.72 627626 560448 491144 517484 479420 482802
3542.62 595166 650416 585016 548066 764838 892932
3545.51 684690 664218 896776 846570 704112 623780
3548.40 631700 725882 717450 716410 696012 654154
3551.29 757396 874682 743758 734938 867438 781794
3554.19 737132 690090 669452 739776 654926 536678
3557.08 535142 615338 579620 527680 581718 694938
3559.97 671742 616116 640884 648052 644726 573920
3562.86 657714 717076 659738 616066 748048 1031562
3565.76 1156810 1211284 947770 1253682 1636104 1048064
3568.65 690240 642784 585594 596398 557484 551972
3571.54 609508 633242 652506 651238 603574 609928
3574.44 721650 738422 635628 640442 734358 745000
3577.33 741918 742822 720600 699034 728008 690548
3580.22 702676 688950 559204 690638 774520 733760
3583.11 813184 864112 737942 719944 851040 1204412
3586.01 1876714 1625534 1095562 1078884 1791856 1981936
3588.90 1119576 940158 938412 894078 878600 878294
3591.79 886628 1121904 1329144 1179508 1048616 1124334
3594.68 1514652 1453466 1222746 1253902 1171548 1239378
3597.58 1382118 1349190 1214412 1335390 1390392 1367566
3600.47 1534354 1356342 1202790 1320562 1385422 1288634
3603.36 1177694 1255516 1335560 1328340 1194748 1138712
3606.26 1629594 1778634 1516636 1381522 1760996 2941286
3609.15 2327262 1385558 1340218 1109732 1062132 1508502
3612.04 2248648 1857150 1296300 1369972 1634090 1577140
3614.93 1336134 1281622 1390774 1399028 1839932 2157114
3617.83 1856044 1744936 2600898 2974698 1854784 1545036
3620.72 1710846 1548770 1474882 1533398 1418374 1218092
3623.61 1176662 1230404 1313662 1152726 1125588 1024960
3626.50 956266 1006658 2234746 3189776 2332200 3443090
3629.40 3169990 1308876 957746 760066 781838 805570
3632.29 754154 757682 1131266 954158 538882 481322
3635.18 472464 406780 320580 314622 400544 461442
3638.08 431728 581118 780686 952262 999774 922940
3640.97 957474 958828 873360 731764 581814 510868
3643.86 504010 572238 574810 563286 761478 1309414
3646.75 2025824 1786010 980752 1606122 3669396 2720592
3649.65 1175446 1671300 1872428 1461814 603664 310054
3652.54 311668 335798 247456 199658 309832 320972
3655.43 1448676 2250600 835372 103828 196866 219476
3658.32 148272 69288 122044 157536 181608 147120
3661.22 171120 120958 129626 140140 158502 168206
3664.11 116376 90326 108126 62852 92048 195366
3667.00 324314 390852 1254906 1604236 905872 693544
3669.90 2753312 4066232 1589892 326912 229340 150648
3672.79 274638 521534 1012358 2307606 2418036 3108778
3675.68 3759142 1384432 605224 569882 257546 189910
3678.57 487462 779188 440838 241842 171542 150022
3681.47 160844 190050 211566 203712 184362 188876
3684.36 243458 154556 114750 204540 371160 611726
3687.25 1220658 4161098 4275816 1253494 525914 541504
3690.14 817602 1646404 1471414 499276 235352 200896
3693.04 222364 239810 239322 178360 200706 299954
3695.93 382218 318896 233740 248216 276848 268204
3698.82 284110 298404 298032 215966 644454 1457812
3701.72 1047368 403002 373976 339836 231836 210120
3704.61 267852 260082 288682 247710 205278 171880
3707.50 285630 340612 1054706 1748500 937012 371694
3710.39 669994 838734 2394910 3221994 1290518 367052
3713.29 317802 313244 502454 345872 209586 196334
3716.18 172870 186004 250922 222472 427442 589594
3719.07 356718 260264 258746 239972 375324 854454
3721.96 967092 522792 284430 204884 302132 504746
3724.86 486240 407052 967790 1169576 471336 302214
3727.75 311360 229354 180952 319368 305464 337654
3730.64 423902 1367402 3022950 1993738 601228 530544
3733.54 692416 1425154 1888240 1652568 1003110 2220782
3736.43 2638622 802142 468136 800694 531702 380802
3739.32 385556 419008 560636 770566 488632 332210
3742.21 448468 787278 1811548 4829294 7419750 4533530
3745.11 1189316 596634 456508 627812 663914 754374
3748.00 811698 3119202 5208456 2682906 777706 937140
3750.89 971678 3763794 5489286 2305620 610534 486560
3753.78 198644 162272 199130 311142 614276 893602
3756.68 435582 286628 338494 391370 560294 1227038
3759.57 1294446 476944 268886 320496 263872 186836
3762.46 159002 227630 198550 194626 229720 792204
3765.35 1209948 576716 163184 89714 46440 183524
3768.25 270482 564762 1564514 1446786 453346 292182
3771.14 215020 123144 113282 172510 168596 189554
3774.03 186566 107152 105872 120530 183344 209734
3776.93 133848 162932 212800 427738 1035144 910674
3779.82 298672 128036 132276 190898 173550 171738
3782.71 134250 149630 353018 504792 373712 251218
3785.60 281432 285680 178340 129292 164220 165588
3788.50 134778 179080 185238 198978 211146 221986
3791.39 268354 223330 180056 221990 249948 238778
3794.28 220478 223834 443572 1211470 1178666 507632
3797.17 446250 474730 332950 435368 528150 738718
3800.07 913990 3241502 4976536 2142384 705248 960114
3802.96 633828 474052 420466 414792 449430 585070
3805.85 1179064 3171916 2835376 821144 397262 284752
3808.75 301494 347868 248702 283980 352724 340958
3811.64 331188 332324 345178 411062 390804 555930
3814.53 656002 1956990 4959464 3611660 769058 534816
3817.42 462564 576620 515330 675346 792550 1694090
3820.32 2452118 2282834 2697790 1540376 545470 681408
3823.21 489798 513442 482736 466340 506718 616672
3826.10 1090780 1042380 621616 575206 483008 493306
3828.99 539802 520176 585242 701076 1499640 1673666
3831.89 763064 543204 583050 579130 836372 1931224
3834.78 1855252 844696 802752 892208 1657034 4962330
3837.67 4632778 1397762 806626 1063492 1209876 1263576
3840.57 1666668 1067122 594900 771368 932008 1437898
3843.46 1485856 899630 706966 692160 649796 630266
3846.35 633520 714948 821764 788778 832654 1006222
3849.24 1189754 958982 971936 1091610 3178682 4931430
3852.14 2728052 1788110 3963880 7517540 6372748 2189532
3855.03 1044432 913746 899832 1238132 1208314 837818
3857.92 803284 805608 742628 772988 901008 873686
3860.81 1137048 1761026 1344030 915760 946494 1086596
3863.71 1226156 1939804 2749540 1748520 1006620 955032
3866.60 875244 954088 924382 1126774 1795306 2330188
3869.49 3774924 3147486 1261262 1129522 1062612 983670
3872.39 965082 1219314 1621878 1971940 1492926 1032902
3875.28 982724 841428 810432 867116 1008460 999900
3878.17 987370 1107340 1523814 2273870 2037746 1427960
3881.06 1092930 890156 900132 1050266 1187630 1075804
3883.96 1089218 1345112 2930994 3517484 1949112 1186430
3886.85 1048568 1015104 1012074 975790 978508 1062890
3889.74 1072870 1528472 2686178 2187722 1256328 1225146
3892.63 989006 867372 991354 900880 834118 857064
3895.53 762270 749760 847568 983858 1099230 1106520
3898.42 1677888 2458764 1704874 1104630 1079034 1629282
3901.31 2715408 2035168 1343732 1256472 1913560 2925818
3904.21 1940186 1077754 1247012 1342528 1095322 895784
3907.10 931636 922296 957690 987788 958354 903600
3909.99 859480 852114 848460 872322 870804 838000
3912.88 846116 846862 799774 796706 759002 842126
3915.78 1025850 1232034 1657604 1374086 869666 914262
3918.67 893592 1095434 1390954 1050672 845750 887194
3921.56 840850 872986 884172 985318 1026544 1091112
3924.45 1366066 1276920 906494 852938 963984 1001618
3927.35 934262 974384 1064938 1117342 1098232 1111506
3930.24 1157926 1060450 1035040 1400636 1481978 1032500
3933.13 936064 1074850 1088056 1019922 982768 1047672
3936.03 1005116 836944 877312 1029460 1030028 964590
3938.92 947164 941622 889094 973614 1017482 941288
3941.81 1165998 1395448 1192302 1033386 1025678 1039384
3944.70 1093388 1131260 1131366 1089264 1141798 1298534
3947.60 1337222 1333368 1362762 1134272 982618 1070842
3950.49 1116778 1148306 1109684 1080458 1238124 1340060
3953.38 1284094 1212944 1191176 1223878 1239480 1234046
3956.27 1347176 1319648 1247374 1267242 1232658 1294778
3959.17 1379060 1430582 1500690 1518536 1611944 1600544
3962.06 1494126 1569096 1642346 1730242 1792474 1840074
3964.95 1848842 1877826 1937410 1956036 2106060 2206834
3967.85 2188858 2365586 2470782 2479410 2627236 2683342
3970.74 2669786 2744888 2877744 2984804 3064970 3092282
3973.63 3112004 3137732 3133986
##END=
