##TITLE=1-OCTANOL, 3,7-DIMETHYL-
##JCAMP-DX=4.24
$$ By DXEDIT 1.05 (RS McDonald)
##DATA TYPE=INFRARED SPECTRUM
##CLASS=COBLENTZ II
##ORIGIN=PERKIN-ELMER CORP. (R. HANNAH)
##OWNER=COBLENTZ SOC.
Collection (C) 2018 copyright by the U.S. Secretary of Commerce
on behalf of the United States of America. All rights reserved.
##DATE=1969/01/30
##NAMES=3,7-dimethyl-1-octanol
##CAS REGISTRY NO=106-21-8
##MOLFORM=C10 H22 O
##SOURCE REFERENCE=COBLENTZ NO. 06010
##$NIST SOURCE=COBLENTZ
##$NIST IMAGE=cob6010
##SPECTROMETER/DATA SYSTEM=PERKIN-ELMER 621 (GRATING)
##INSTRUMENT PARAMETERS=GRATING CHANGE AT 623; ORDER CHANGE AT 2000. FILTERS AT 3146, 2494, 2000, 1146, 698, 497 CM^-^1
##STATE=LIQUID (NEAT)
$$ 99.9% PURE
##PATH LENGTH=0.0015 CM (CsBr WINDOWS VS CsBr WINDOW; DEMOUNTABLE WINDOWS)
##SAMPLING PROCEDURE=TRANSMISSION
##RESOLUTION=2
##DATA PROCESSING=DIGITIZED BY COBLENTZ SOCIETY (BATCH I) FROM HARD COPY
##XUNITS=1/CM
##YUNITS=TRANSMITTANCE
##XLABEL=Wavenumbers (cm-1)
##YLABEL=Transmittance
##XFACTOR=1
##YFACTOR=1
##DELTAX=1
##FIRSTX=4000
##LASTX=300
##FIRSTY=0.874
##MAXX=4000
##MINX=300
##MAXY=0.8742
##MINY=0.1268
##NPOINTS=3701
##XYDATA=(X++(Y..Y))
4000.000000 0.8740 0.8740 0.8740 0.8739 0.8739
3995.000000 0.8739 0.8739 0.8738 0.8738 0.8738
3990.000000 0.8738 0.8737 0.8737 0.8737 0.8737
3985.000000 0.8736 0.8736 0.8736 0.8736 0.8735
3980.000000 0.8735 0.8735 0.8735 0.8734 0.8734
3975.000000 0.8734 0.8734 0.8733 0.8733 0.8733
3970.000000 0.8733 0.8732 0.8732 0.8732 0.8732
3965.000000 0.8731 0.8731 0.8731 0.8731 0.8730
3960.000000 0.8730 0.8730 0.8730 0.8728 0.8728
3955.000000 0.8728 0.8728 0.8728 0.8728 0.8728
3950.000000 0.8728 0.8727 0.8727 0.8727 0.8727
3945.000000 0.8725 0.8725 0.8725 0.8725 0.8725
3940.000000 0.8725 0.8725 0.8725 0.8725 0.8725
3935.000000 0.8725 0.8725 0.8725 0.8725 0.8725
3930.000000 0.8725 0.8725 0.8725 0.8725 0.8725
3925.000000 0.8725 0.8725 0.8725 0.8725 0.8725
3920.000000 0.8727 0.8727 0.8727 0.8727 0.8727
3915.000000 0.8727 0.8727 0.8727 0.8727 0.8727
3910.000000 0.8728 0.8728 0.8728 0.8728 0.8728
3905.000000 0.8728 0.8728 0.8728 0.8728 0.8728
3900.000000 0.8728 0.8728 0.8728 0.8728 0.8728
3895.000000 0.8728 0.8728 0.8728 0.8728 0.8728
3890.000000 0.8728 0.8728 0.8728 0.8728 0.8728
3885.000000 0.8728 0.8728 0.8728 0.8728 0.8728
3880.000000 0.8728 0.8727 0.8727 0.8727 0.8727
3875.000000 0.8727 0.8727 0.8727 0.8727 0.8725
3870.000000 0.8725 0.8725 0.8725 0.8725 0.8725
3865.000000 0.8725 0.8725 0.8725 0.8725 0.8725
3860.000000 0.8725 0.8725 0.8725 0.8724 0.8724
3855.000000 0.8724 0.8724 0.8724 0.8724 0.8724
3850.000000 0.8724 0.8723 0.8723 0.8723 0.8723
3845.000000 0.8723 0.8723 0.8723 0.8723 0.8721
3840.000000 0.8721 0.8721 0.8721 0.8721 0.8721
3835.000000 0.8721 0.8721 0.8721 0.8721 0.8721
3830.000000 0.8721 0.8721 0.8721 0.8721 0.8721
3825.000000 0.8720 0.8720 0.8720 0.8720 0.8720
3820.000000 0.8720 0.8720 0.8720 0.8720 0.8720
3815.000000 0.8718 0.8718 0.8718 0.8718 0.8718
3810.000000 0.8718 0.8718 0.8718 0.8718 0.8718
3805.000000 0.8718 0.8718 0.8718 0.8718 0.8718
3800.000000 0.8718 0.8718 0.8718 0.8717 0.8717
3795.000000 0.8717 0.8717 0.8717 0.8717 0.8717
3790.000000 0.8717 0.8716 0.8716 0.8716 0.8716
3785.000000 0.8716 0.8716 0.8716 0.8716 0.8716
3780.000000 0.8716 0.8715 0.8715 0.8715 0.8715
3775.000000 0.8715 0.8715 0.8714 0.8714 0.8714
3770.000000 0.8714 0.8713 0.8713 0.8713 0.8713
3765.000000 0.8712 0.8712 0.8712 0.8712 0.8712
3760.000000 0.8712 0.8711 0.8711 0.8711 0.8711
3755.000000 0.8710 0.8710 0.8710 0.8710 0.8709
3750.000000 0.8709 0.8709 0.8709 0.8708 0.8708
3745.000000 0.8708 0.8708 0.8708 0.8708 0.8707
3740.000000 0.8707 0.8707 0.8707 0.8706 0.8706
3735.000000 0.8706 0.8706 0.8705 0.8705 0.8705
3730.000000 0.8705 0.8704 0.8704 0.8704 0.8704
3725.000000 0.8703 0.8703 0.8703 0.8703 0.8702
3720.000000 0.8702 0.8702 0.8702 0.8702 0.8702
3715.000000 0.8701 0.8701 0.8701 0.8701 0.8700
3710.000000 0.8700 0.8700 0.8700 0.8700 0.8701
3705.000000 0.8701 0.8701 0.8701 0.8701 0.8701
3700.000000 0.8702 0.8702 0.8702 0.8702 0.8702
3695.000000 0.8702 0.8702 0.8702 0.8703 0.8703
3690.000000 0.8703 0.8703 0.8703 0.8703 0.8704
3685.000000 0.8704 0.8704 0.8704 0.8704 0.8704
3680.000000 0.8704 0.8704 0.8705 0.8705 0.8705
3675.000000 0.8705 0.8705 0.8705 0.8706 0.8706
3670.000000 0.8707 0.8707 0.8707 0.8707 0.8707
3665.000000 0.8707 0.8707 0.8704 0.8702 0.8700
3660.000000 0.8698 0.8696 0.8694 0.8692 0.8690
3655.000000 0.8688 0.8686 0.8683 0.8681 0.8670
3650.000000 0.8659 0.8648 0.8637 0.8625 0.8615
3645.000000 0.8606 0.8598 0.8592 0.8587 0.8584
3640.000000 0.8582 0.8580 0.8578 0.8575 0.8574
3635.000000 0.8571 0.8571 0.8568 0.8568 0.8566
3630.000000 0.8565 0.8563 0.8561 0.8559 0.8558
3625.000000 0.8556 0.8555 0.8553 0.8552 0.8551
3620.000000 0.8551 0.8550 0.8549 0.8548 0.8547
3615.000000 0.8545 0.8544 0.8542 0.8541 0.8539
3610.000000 0.8537 0.8535 0.8534 0.8532 0.8530
3605.000000 0.8528 0.8527 0.8524 0.8521 0.8518
3600.000000 0.8517 0.8515 0.8513 0.8510 0.8508
3595.000000 0.8506 0.8504 0.8502 0.8500 0.8498
3590.000000 0.8497 0.8495 0.8493 0.8491 0.8490
3585.000000 0.8483 0.8475 0.8468 0.8463 0.8456
3580.000000 0.8449 0.8442 0.8436 0.8425 0.8414
3575.000000 0.8401 0.8388 0.8378 0.8368 0.8358
3570.000000 0.8348 0.8333 0.8318 0.8303 0.8288
3565.000000 0.8273 0.8258 0.8243 0.8228 0.8215
3560.000000 0.8202 0.8189 0.8175 0.8162 0.8150
3555.000000 0.8137 0.8125 0.8111 0.8099 0.8086
3550.000000 0.8072 0.8060 0.8047 0.8034 0.8021
3545.000000 0.8008 0.7995 0.7975 0.7957 0.7937
3540.000000 0.7917 0.7897 0.7878 0.7860 0.7842
3535.000000 0.7825 0.7808 0.7792 0.7775 0.7758
3530.000000 0.7742 0.7724 0.7707 0.7690 0.7672
3525.000000 0.7656 0.7639 0.7621 0.7604 0.7587
3520.000000 0.7569 0.7553 0.7536 0.7518 0.7501
3515.000000 0.7484 0.7467 0.7450 0.7433 0.7415
3510.000000 0.7399 0.7382 0.7365 0.7348 0.7332
3505.000000 0.7315 0.7298 0.7281 0.7264 0.7247
3500.000000 0.7230 0.7212 0.7197 0.7180 0.7164
3495.000000 0.7148 0.7133 0.7117 0.7101 0.7086
3490.000000 0.7071 0.7055 0.7040 0.7026 0.7015
3485.000000 0.7001 0.6990 0.6976 0.6965 0.6951
3480.000000 0.6940 0.6926 0.6914 0.6901 0.6889
3475.000000 0.6875 0.6864 0.6851 0.6839 0.6790
3470.000000 0.6741 0.6717 0.6694 0.6672 0.6653
3465.000000 0.6632 0.6611 0.6590 0.6569 0.6549
3460.000000 0.6528 0.6508 0.6487 0.6468 0.6449
3455.000000 0.6431 0.6414 0.6396 0.6379 0.6360
3450.000000 0.6344 0.6326 0.6309 0.6291 0.6274
3445.000000 0.6256 0.6238 0.6220 0.6203 0.6189
3440.000000 0.6175 0.6160 0.6148 0.6134 0.6121
3435.000000 0.6107 0.6094 0.6080 0.6067 0.6053
3430.000000 0.6040 0.6026 0.6012 0.5997 0.5982
3425.000000 0.5964 0.5947 0.5929 0.5910 0.5893
3420.000000 0.5876 0.5858 0.5840 0.5822 0.5805
3415.000000 0.5786 0.5768 0.5748 0.5729 0.5710
3410.000000 0.5691 0.5671 0.5652 0.5632 0.5612
3405.000000 0.5596 0.5580 0.5562 0.5547 0.5530
3400.000000 0.5514 0.5497 0.5481 0.5464 0.5448
3395.000000 0.5431 0.5415 0.5398 0.5382 0.5365
3390.000000 0.5349 0.5333 0.5317 0.5303 0.5289
3385.000000 0.5275 0.5260 0.5247 0.5233 0.5219
3380.000000 0.5205 0.5191 0.5177 0.5162 0.5149
3375.000000 0.5135 0.5122 0.5108 0.5094 0.5080
3370.000000 0.5066 0.5054 0.5042 0.5031 0.5020
3365.000000 0.5009 0.4999 0.4990 0.4982 0.4975
3360.000000 0.4968 0.4960 0.4954 0.4947 0.4940
3355.000000 0.4933 0.4926 0.4918 0.4910 0.4903
3350.000000 0.4895 0.4888 0.4881 0.4878 0.4875
3345.000000 0.4872 0.4869 0.4866 0.4864 0.4860
3340.000000 0.4858 0.4855 0.4852 0.4850 0.4848
3335.000000 0.4846 0.4844 0.4842 0.4842 0.4842
3330.000000 0.4843 0.4845 0.4847 0.4848 0.4850
3325.000000 0.4852 0.4855 0.4858 0.4860 0.4864
3320.000000 0.4868 0.4872 0.4877 0.4881 0.4886
3315.000000 0.4890 0.4895 0.4899 0.4904 0.4910
3310.000000 0.4919 0.4928 0.4937 0.4946 0.4956
3305.000000 0.4965 0.4975 0.4984 0.4994 0.5007
3300.000000 0.5021 0.5034 0.5048 0.5060 0.5075
3295.000000 0.5088 0.5102 0.5117 0.5132 0.5147
3290.000000 0.5162 0.5178 0.5194 0.5209 0.5225
3285.000000 0.5240 0.5256 0.5270 0.5285 0.5299
3280.000000 0.5314 0.5328 0.5342 0.5356 0.5370
3275.000000 0.5384 0.5398 0.5412 0.5427 0.5443
3270.000000 0.5460 0.5481 0.5503 0.5525 0.5547
3265.000000 0.5568 0.5590 0.5610 0.5633 0.5649
3260.000000 0.5666 0.5682 0.5699 0.5715 0.5732
3255.000000 0.5749 0.5766 0.5782 0.5799 0.5815
3250.000000 0.5832 0.5848 0.5865 0.5881 0.5898
3245.000000 0.5914 0.5931 0.5947 0.5964 0.5981
3240.000000 0.5998 0.6015 0.6032 0.6049 0.6066
3235.000000 0.6083 0.6100 0.6117 0.6134 0.6151
3230.000000 0.6168 0.6185 0.6202 0.6219 0.6236
3225.000000 0.6253 0.6270 0.6287 0.6304 0.6323
3220.000000 0.6343 0.6362 0.6384 0.6404 0.6424
3215.000000 0.6444 0.6465 0.6485 0.6506 0.6525
3210.000000 0.6547 0.6567 0.6587 0.6605 0.6622
3205.000000 0.6641 0.6658 0.6675 0.6694 0.6711
3200.000000 0.6728 0.6746 0.6764 0.6782 0.6800
3195.000000 0.6817 0.6835 0.6851 0.6869 0.6887
3190.000000 0.6905 0.6921 0.6940 0.6958 0.6975
3185.000000 0.6993 0.7010 0.7022 0.7036 0.7049
3180.000000 0.7062 0.7075 0.7089 0.7101 0.7115
3175.000000 0.7128 0.7142 0.7155 0.7168 0.7182
3170.000000 0.7195 0.7208 0.7221 0.7235 0.7248
3165.000000 0.7261 0.7275 0.7289 0.7303 0.7317
3160.000000 0.7332 0.7346 0.7360 0.7374 0.7388
3155.000000 0.7401 0.7415 0.7430 0.7444 0.7458
3150.000000 0.7472 0.7486 0.7499 0.7511 0.7522
3145.000000 0.7534 0.7546 0.7557 0.7568 0.7580
3140.000000 0.7592 0.7603 0.7615 0.7626 0.7639
3135.000000 0.7650 0.7661 0.7672 0.7685 0.7696
3130.000000 0.7708 0.7718 0.7728 0.7737 0.7746
3125.000000 0.7754 0.7762 0.7771 0.7781 0.7789
3120.000000 0.7798 0.7807 0.7815 0.7824 0.7833
3115.000000 0.7840 0.7848 0.7855 0.7861 0.7868
3110.000000 0.7875 0.7883 0.7890 0.7897 0.7904
3105.000000 0.7911 0.7918 0.7925 0.7933 0.7940
3100.000000 0.7947 0.7954 0.7961 0.7968 0.7975
3095.000000 0.7982 0.7989 0.7996 0.8003 0.8010
3090.000000 0.8017 0.8024 0.8031 0.8038 0.8045
3085.000000 0.8051 0.8057 0.8058 0.8058 0.8060
3080.000000 0.8061 0.8061 0.8062 0.8062 0.8064
3075.000000 0.8065 0.8065 0.8067 0.8068 0.8068
3070.000000 0.8068 0.8068 0.8069 0.8069 0.8071
3065.000000 0.8071 0.8071 0.8071 0.8072 0.8072
3060.000000 0.8074 0.8074 0.8075 0.8075 0.8075
3055.000000 0.8075 0.8076 0.8078 0.8078 0.8080
3050.000000 0.8081 0.8082 0.8083 0.8084 0.8086
3045.000000 0.8087 0.8088 0.8089 0.8089 0.8089
3040.000000 0.8089 0.8088 0.8087 0.8086 0.8085
3035.000000 0.8084 0.8083 0.8081 0.8080 0.8078
3030.000000 0.8078 0.8076 0.8101 0.8074 0.8072
3025.000000 0.8071 0.8069 0.8067 0.8064 0.8061
3020.000000 0.8058 0.8054 0.8051 0.8047 0.8044
3015.000000 0.8036 0.8028 0.8014 0.8001 0.7985
3010.000000 0.7969 0.7951 0.7932 0.7896 0.7860
3005.000000 0.7822 0.7787 0.7757 0.7726 0.7707
3000.000000 0.7688 0.7669 0.7651 0.7637 0.7621
2995.000000 0.7607 0.7592 0.7571 0.7551 0.7512
2990.000000 0.7474 0.7411 0.7349 0.7283 0.7218
2985.000000 0.7083 0.6948 0.6853 0.6758 0.6647
2980.000000 0.6537 0.6412 0.6289 0.6151 0.6014
2975.000000 0.5816 0.5618 0.5475 0.5332 0.5014
2970.000000 0.4696 0.4377 0.4059 0.3741 0.3423
2965.000000 0.3105 0.2787 0.2676 0.2566 0.2202
2960.000000 0.1837 0.1774 0.1710 0.1629 0.1549
2955.000000 0.1468 0.1268 0.1344 0.1300 0.1296
2950.000000 0.1292 0.1363 0.1433 0.1529 0.1625
2945.000000 0.1721 0.1817 0.1913 0.2009 0.2079
2940.000000 0.2183 0.2146 0.2144 0.2110 0.2076
2935.000000 0.2012 0.1949 0.1884 0.1822 0.1758
2930.000000 0.1694 0.1631 0.1568 0.1504 0.1441
2925.000000 0.1377 0.1314 0.1307 0.1300 0.1299
2920.000000 0.1273 0.1377 0.1457 0.1583 0.1709
2915.000000 0.1761 0.1814 0.1871 0.1929 0.2014
2910.000000 0.2099 0.2163 0.2228 0.2265 0.2302
2905.000000 0.2329 0.2357 0.2384 0.2412 0.2459
2900.000000 0.2507 0.2555 0.2604 0.2645 0.2685
2895.000000 0.2724 0.2762 0.2795 0.2829 0.2867
2890.000000 0.2905 0.2956 0.3008 0.3042 0.3076
2885.000000 0.3132 0.3189 0.3236 0.3284 0.3329
2880.000000 0.3375 0.3384 0.3426 0.3350 0.3308
2875.000000 0.3243 0.3179 0.3114 0.3050 0.2984
2870.000000 0.2921 0.2856 0.2784 0.2791 0.2791
2865.000000 0.2813 0.2834 0.2927 0.3020 0.3113
2860.000000 0.3206 0.3298 0.3391 0.3484 0.3577
2855.000000 0.3668 0.3762 0.3855 0.3948 0.4055
2850.000000 0.4162 0.4171 0.4181 0.4191 0.4201
2845.000000 0.4209 0.4218 0.4224 0.4230 0.4239
2840.000000 0.4249 0.4642 0.5035 0.5135 0.5235
2835.000000 0.5514 0.5794 0.5952 0.6110 0.6362
2830.000000 0.6615 0.6725 0.6834 0.6891 0.6948
2825.000000 0.7004 0.7061 0.7107 0.7153 0.7175
2820.000000 0.7200 0.7222 0.7246 0.7268 0.7292
2815.000000 0.7315 0.7339 0.7358 0.7378 0.7396
2810.000000 0.7412 0.7430 0.7447 0.7462 0.7480
2805.000000 0.7497 0.7514 0.7531 0.7548 0.7565
2800.000000 0.7582 0.7598 0.7615 0.7628 0.7643
2795.000000 0.7657 0.7671 0.7685 0.7699 0.7712
2790.000000 0.7726 0.7741 0.7755 0.7768 0.7783
2785.000000 0.7797 0.7811 0.7825 0.7839 0.7853
2780.000000 0.7868 0.7882 0.7896 0.7910 0.7925
2775.000000 0.7939 0.7953 0.7967 0.7982 0.7996
2770.000000 0.8010 0.8024 0.8039 0.8050 0.8061
2765.000000 0.8071 0.8081 0.8090 0.8100 0.8103
2760.000000 0.8106 0.8108 0.8111 0.8115 0.8118
2755.000000 0.8121 0.8124 0.8126 0.8130 0.8133
2750.000000 0.8136 0.8137 0.8139 0.8140 0.8141
2745.000000 0.8142 0.8143 0.8144 0.8145 0.8146
2740.000000 0.8148 0.8149 0.8150 0.8151 0.8151
2735.000000 0.8153 0.8154 0.8155 0.8156 0.8157
2730.000000 0.8158 0.8158 0.8160 0.8160 0.8161
2725.000000 0.8161 0.8162 0.8162 0.8164 0.8164
2720.000000 0.8165 0.8165 0.8165 0.8165 0.8165
2715.000000 0.8168 0.8171 0.8175 0.8178 0.8183
2710.000000 0.8187 0.8191 0.8195 0.8199 0.8203
2705.000000 0.8207 0.8211 0.8215 0.8218 0.8223
2700.000000 0.8227 0.8231 0.8235 0.8239 0.8244
2695.000000 0.8248 0.8252 0.8256 0.8261 0.8265
2690.000000 0.8268 0.8273 0.8278 0.8281 0.8284
2685.000000 0.8285 0.8286 0.8287 0.8289 0.8290
2680.000000 0.8291 0.8292 0.8294 0.8295 0.8296
2675.000000 0.8297 0.8299 0.8301 0.8303 0.8305
2670.000000 0.8307 0.8309 0.8311 0.8313 0.8315
2665.000000 0.8317 0.8320 0.8321 0.8324 0.8325
2660.000000 0.8328 0.8330 0.8332 0.8334 0.8337
2655.000000 0.8339 0.8341 0.8343 0.8345 0.8347
2650.000000 0.8349 0.8350 0.8352 0.8354 0.8356
2645.000000 0.8357 0.8359 0.8361 0.8363 0.8364
2640.000000 0.8366 0.8367 0.8368 0.8371 0.8373
2635.000000 0.8374 0.8375 0.8377 0.8378 0.8381
2630.000000 0.8383 0.8384 0.8386 0.8387 0.8389
2625.000000 0.8390 0.8391 0.8391 0.8392 0.8392
2620.000000 0.8393 0.8394 0.8395 0.8395 0.8396
2615.000000 0.8397 0.8398 0.8398 0.8399 0.8399
2610.000000 0.8400 0.8401 0.8402 0.8402 0.8403
2605.000000 0.8404 0.8405 0.8406 0.8407 0.8408
2600.000000 0.8410 0.8411 0.8412 0.8413 0.8415
2595.000000 0.8416 0.8417 0.8418 0.8420 0.8421
2590.000000 0.8421 0.8423 0.8425 0.8425 0.8427
2585.000000 0.8428 0.8428 0.8430 0.8432 0.8433
2580.000000 0.8434 0.8435 0.8437 0.8438 0.8439
2575.000000 0.8440 0.8441 0.8442 0.8444 0.8445
2570.000000 0.8446 0.8447 0.8449 0.8450 0.8451
2565.000000 0.8452 0.8453 0.8454 0.8456 0.8457
2560.000000 0.8458 0.8459 0.8461 0.8462 0.8463
2555.000000 0.8464 0.8466 0.8467 0.8468 0.8470
2550.000000 0.8471 0.8473 0.8475 0.8475 0.8478
2545.000000 0.8478 0.8481 0.8482 0.8484 0.8485
2540.000000 0.8487 0.8488 0.8490 0.8491 0.8493
2535.000000 0.8494 0.8496 0.8497 0.8499 0.8500
2530.000000 0.8502 0.8503 0.8505 0.8506 0.8508
2525.000000 0.8509 0.8511 0.8512 0.8514 0.8515
2520.000000 0.8517 0.8518 0.8521 0.8521 0.8524
2515.000000 0.8525 0.8527 0.8528 0.8531 0.8533
2510.000000 0.8535 0.8536 0.8538 0.8540 0.8542
2505.000000 0.8544 0.8546 0.8548 0.8550 0.8552
2500.000000 0.8554 0.8556 0.8558 0.8559 0.8561
2495.000000 0.8563 0.8565 0.8567 0.8568 0.8571
2490.000000 0.8573 0.8575 0.8577 0.8578 0.8581
2485.000000 0.8582 0.8584 0.8586 0.8588 0.8590
2480.000000 0.8592 0.8594 0.8596 0.8597 0.8599
2475.000000 0.8599 0.8600 0.8601 0.8602 0.8602
2470.000000 0.8603 0.8603 0.8604 0.8604 0.8605
2465.000000 0.8605 0.8606 0.8606 0.8607 0.8608
2460.000000 0.8609 0.8609 0.8610 0.8610 0.8611
2455.000000 0.8611 0.8612 0.8612 0.8613 0.8613
2450.000000 0.8614 0.8614 0.8615 0.8615 0.8615
2445.000000 0.8615 0.8615 0.8615 0.8615 0.8614
2440.000000 0.8614 0.8614 0.8614 0.8614 0.8614
2435.000000 0.8613 0.8613 0.8613 0.8613 0.8613
2430.000000 0.8613 0.8612 0.8612 0.8612 0.8612
2425.000000 0.8612 0.8612 0.8611 0.8611 0.8611
2420.000000 0.8611 0.8611 0.8611 0.8611 0.8611
2415.000000 0.8610 0.8610 0.8610 0.8610 0.8610
2410.000000 0.8610 0.8610 0.8611 0.8612 0.8613
2405.000000 0.8613 0.8614 0.8615 0.8616 0.8617
2400.000000 0.8618 0.8618 0.8620 0.8621 0.8621
2395.000000 0.8623 0.8624 0.8625 0.8625 0.8627
2390.000000 0.8628 0.8628 0.8628 0.8630 0.8631
2385.000000 0.8632 0.8633 0.8634 0.8635 0.8636
2380.000000 0.8637 0.8639 0.8641 0.8643 0.8646
2375.000000 0.8648 0.8650 0.8652 0.8654 0.8656
2370.000000 0.8658 0.8660 0.8663 0.8665 0.8667
2365.000000 0.8668 0.8671 0.8673 0.8675 0.8678
2360.000000 0.8680 0.8682 0.8684 0.8686 0.8689
2355.000000 0.8690 0.8691 0.8691 0.8692 0.8693
2350.000000 0.8694 0.8694 0.8695 0.8696 0.8697
2345.000000 0.8698 0.8699 0.8699 0.8700 0.8701
2340.000000 0.8702 0.8702 0.8703 0.8704 0.8705
2335.000000 0.8705 0.8705 0.8705 0.8705 0.8704
2330.000000 0.8704 0.8703 0.8703 0.8702 0.8702
2325.000000 0.8701 0.8701 0.8700 0.8700 0.8699
2320.000000 0.8699 0.8698 0.8697 0.8696 0.8696
2315.000000 0.8695 0.8695 0.8694 0.8694 0.8693
2310.000000 0.8693 0.8692 0.8692 0.8691 0.8691
2305.000000 0.8690 0.8690 0.8689 0.8688 0.8687
2300.000000 0.8687 0.8686 0.8685 0.8684 0.8684
2295.000000 0.8683 0.8682 0.8681 0.8681 0.8680
2290.000000 0.8678 0.8678 0.8678 0.8677 0.8675
2285.000000 0.8675 0.8675 0.8674 0.8673 0.8671
2280.000000 0.8671 0.8671 0.8670 0.8668 0.8668
2275.000000 0.8668 0.8667 0.8666 0.8666 0.8665
2270.000000 0.8664 0.8663 0.8663 0.8662 0.8661
2265.000000 0.8660 0.8660 0.8659 0.8658 0.8657
2260.000000 0.8657 0.8656 0.8655 0.8655 0.8655
2255.000000 0.8655 0.8656 0.8657 0.8658 0.8659
2250.000000 0.8660 0.8660 0.8661 0.8662 0.8663
2245.000000 0.8663 0.8664 0.8665 0.8666 0.8666
2240.000000 0.8667 0.8668 0.8668 0.8668 0.8670
2235.000000 0.8671 0.8671 0.8671 0.8673 0.8674
2230.000000 0.8675 0.8675 0.8675 0.8677 0.8678
2225.000000 0.8678 0.8678 0.8680 0.8681 0.8681
2220.000000 0.8682 0.8683 0.8684 0.8684 0.8685
2215.000000 0.8686 0.8687 0.8687 0.8688 0.8689
2210.000000 0.8690 0.8690 0.8691 0.8692 0.8693
2205.000000 0.8693 0.8694 0.8695 0.8696 0.8696
2200.000000 0.8697 0.8697 0.8697 0.8697 0.8697
2195.000000 0.8697 0.8697 0.8696 0.8696 0.8696
2190.000000 0.8696 0.8695 0.8695 0.8694 0.8694
2185.000000 0.8694 0.8694 0.8693 0.8693 0.8693
2180.000000 0.8693 0.8692 0.8692 0.8692 0.8692
2175.000000 0.8691 0.8691 0.8691 0.8691 0.8690
2170.000000 0.8690 0.8689 0.8689 0.8689 0.8689
2165.000000 0.8688 0.8688 0.8688 0.8688 0.8687
2160.000000 0.8687 0.8687 0.8687 0.8686 0.8686
2155.000000 0.8686 0.8686 0.8685 0.8685 0.8685
2150.000000 0.8685 0.8684 0.8684 0.8684 0.8684
2145.000000 0.8684 0.8684 0.8684 0.8684 0.8684
2140.000000 0.8684 0.8684 0.8684 0.8684 0.8684
2135.000000 0.8684 0.8684 0.8684 0.8684 0.8684
2130.000000 0.8684 0.8684 0.8684 0.8684 0.8684
2125.000000 0.8684 0.8684 0.8684 0.8684 0.8684
2120.000000 0.8684 0.8684 0.8684 0.8684 0.8684
2115.000000 0.8684 0.8684 0.8684 0.8684 0.8684
2110.000000 0.8685 0.8685 0.8685 0.8685 0.8685
2105.000000 0.8685 0.8685 0.8685 0.8685 0.8685
2100.000000 0.8685 0.8685 0.8685 0.8685 0.8685
2095.000000 0.8685 0.8685 0.8685 0.8686 0.8686
2090.000000 0.8686 0.8686 0.8686 0.8686 0.8686
2085.000000 0.8686 0.8687 0.8687 0.8687 0.8687
2080.000000 0.8687 0.8687 0.8688 0.8688 0.8688
2075.000000 0.8688 0.8688 0.8688 0.8688 0.8688
2070.000000 0.8689 0.8689 0.8689 0.8689 0.8689
2065.000000 0.8689 0.8689 0.8689 0.8690 0.8690
2060.000000 0.8690 0.8690 0.8690 0.8690 0.8691
2055.000000 0.8691 0.8691 0.8691 0.8691 0.8691
2050.000000 0.8691 0.8691 0.8692 0.8692 0.8692
2045.000000 0.8692 0.8693 0.8693 0.8694 0.8695
2040.000000 0.8696 0.8696 0.8697 0.8697 0.8698
2035.000000 0.8699 0.8700 0.8700 0.8701 0.8702
2030.000000 0.8703 0.8703 0.8704 0.8705 0.8706
2025.000000 0.8706 0.8707 0.8707 0.8708 0.8709
2020.000000 0.8710 0.8710 0.8711 0.8712 0.8713
2015.000000 0.8713 0.8714 0.8714 0.8715 0.8715
2010.000000 0.8716 0.8716 0.8717 0.8717 0.8718
2005.000000 0.8718 0.8718 0.8718 0.8720 0.8721
2000.000000 0.8721 0.8724 0.8725 0.8725 0.8727
1995.000000 0.8728 0.8728 0.8730 0.8732 0.8733
1990.000000 0.8734 0.8735 0.8736 0.8737 0.8738
1985.000000 0.8738 0.8738 0.8738 0.8738 0.8738
1980.000000 0.8738 0.8737 0.8737 0.8737 0.8737
1975.000000 0.8737 0.8737 0.8737 0.8736 0.8735
1970.000000 0.8734 0.8734 0.8733 0.8732 0.8731
1965.000000 0.8730 0.8730 0.8728 0.8728 0.8727
1960.000000 0.8725 0.8725 0.8725 0.8724 0.8723
1955.000000 0.8721 0.8721 0.8721 0.8721 0.8721
1950.000000 0.8721 0.8723 0.8724 0.8725 0.8727
1945.000000 0.8728 0.8728 0.8730 0.8731 0.8732
1940.000000 0.8734 0.8735 0.8736 0.8737 0.8738
1935.000000 0.8739 0.8741 0.8742 0.8742 0.8742
1930.000000 0.8741 0.8741 0.8740 0.8739 0.8739
1925.000000 0.8738 0.8737 0.8737 0.8736 0.8736
1920.000000 0.8735 0.8734 0.8734 0.8733 0.8732
1915.000000 0.8732 0.8731 0.8730 0.8730 0.8728
1910.000000 0.8728 0.8728 0.8727 0.8727 0.8725
1905.000000 0.8725 0.8725 0.8724 0.8723 0.8721
1900.000000 0.8721 0.8721 0.8720 0.8718 0.8718
1895.000000 0.8717 0.8717 0.8716 0.8715 0.8714
1890.000000 0.8713 0.8712 0.8711 0.8711 0.8710
1885.000000 0.8709 0.8708 0.8707 0.8706 0.8706
1880.000000 0.8705 0.8704 0.8703 0.8702 0.8701
1875.000000 0.8701 0.8700 0.8699 0.8699 0.8698
1870.000000 0.8698 0.8697 0.8697 0.8697 0.8696
1865.000000 0.8696 0.8695 0.8695 0.8695 0.8694
1860.000000 0.8694 0.8693 0.8693 0.8693 0.8692
1855.000000 0.8692 0.8691 0.8691 0.8691 0.8690
1850.000000 0.8690 0.8689 0.8689 0.8689 0.8688
1845.000000 0.8688 0.8687 0.8687 0.8687 0.8686
1840.000000 0.8686 0.8685 0.8685 0.8685 0.8684
1835.000000 0.8684 0.8683 0.8682 0.8680 0.8678
1830.000000 0.8678 0.8675 0.8675 0.8674 0.8671
1825.000000 0.8671 0.8668 0.8668 0.8667 0.8665
1820.000000 0.8664 0.8662 0.8661 0.8660 0.8658
1815.000000 0.8657 0.8656 0.8654 0.8653 0.8651
1810.000000 0.8650 0.8649 0.8647 0.8646 0.8644
1805.000000 0.8643 0.8642 0.8640 0.8639 0.8638
1800.000000 0.8636 0.8635 0.8633 0.8632 0.8631
1795.000000 0.8628 0.8628 0.8625 0.8625 0.8624
1790.000000 0.8621 0.8621 0.8620 0.8620 0.8618
1785.000000 0.8618 0.8618 0.8618 0.8618 0.8618
1780.000000 0.8618 0.8618 0.8618 0.8617 0.8617
1775.000000 0.8617 0.8617 0.8617 0.8616 0.8616
1770.000000 0.8616 0.8616 0.8615 0.8615 0.8615
1765.000000 0.8615 0.8615 0.8614 0.8614 0.8614
1760.000000 0.8614 0.8613 0.8613 0.8613 0.8613
1755.000000 0.8613 0.8612 0.8612 0.8612 0.8612
1750.000000 0.8613 0.8614 0.8615 0.8616 0.8617
1745.000000 0.8618 0.8618 0.8620 0.8621 0.8621
1740.000000 0.8623 0.8624 0.8625 0.8625 0.8627
1735.000000 0.8628 0.8628 0.8630 0.8632 0.8633
1730.000000 0.8634 0.8635 0.8636 0.8637 0.8638
1725.000000 0.8639 0.8640 0.8641 0.8642 0.8643
1720.000000 0.8644 0.8645 0.8646 0.8646 0.8646
1715.000000 0.8645 0.8644 0.8642 0.8641 0.8640
1710.000000 0.8639 0.8637 0.8636 0.8635 0.8634
1705.000000 0.8632 0.8631 0.8630 0.8628 0.8627
1700.000000 0.8625 0.8625 0.8624 0.8621 0.8621
1695.000000 0.8620 0.8618 0.8617 0.8616 0.8615
1690.000000 0.8614 0.8614 0.8613 0.8613 0.8612
1685.000000 0.8611 0.8611 0.8611 0.8611 0.8611
1680.000000 0.8611 0.8611 0.8611 0.8611 0.8611
1675.000000 0.8611 0.8611 0.8612 0.8612 0.8612
1670.000000 0.8612 0.8612 0.8612 0.8612 0.8612
1665.000000 0.8612 0.8613 0.8613 0.8613 0.8613
1660.000000 0.8613 0.8613 0.8613 0.8613 0.8614
1655.000000 0.8614 0.8614 0.8614 0.8614 0.8614
1650.000000 0.8614 0.8615 0.8615 0.8615 0.8615
1645.000000 0.8615 0.8615 0.8615 0.8615 0.8616
1640.000000 0.8616 0.8616 0.8615 0.8614 0.8612
1635.000000 0.8611 0.8609 0.8608 0.8606 0.8605
1630.000000 0.8603 0.8602 0.8600 0.8599 0.8597
1625.000000 0.8596 0.8594 0.8593 0.8591 0.8590
1620.000000 0.8588 0.8587 0.8585 0.8584 0.8583
1615.000000 0.8583 0.8582 0.8581 0.8581 0.8580
1610.000000 0.8578 0.8578 0.8578 0.8577 0.8577
1605.000000 0.8575 0.8575 0.8575 0.8574 0.8573
1600.000000 0.8571 0.8571 0.8571 0.8571 0.8573
1595.000000 0.8573 0.8574 0.8575 0.8575 0.8575
1590.000000 0.8577 0.8577 0.8578 0.8578 0.8578
1585.000000 0.8580 0.8581 0.8581 0.8582 0.8583
1580.000000 0.8583 0.8584 0.8584 0.8584 0.8584
1575.000000 0.8585 0.8585 0.8585 0.8585 0.8585
1570.000000 0.8586 0.8586 0.8587 0.8588 0.8589
1565.000000 0.8589 0.8590 0.8591 0.8592 0.8592
1560.000000 0.8593 0.8594 0.8595 0.8595 0.8595
1555.000000 0.8596 0.8596 0.8596 0.8597 0.8597
1550.000000 0.8597 0.8597 0.8597 0.8596 0.8595
1545.000000 0.8593 0.8592 0.8590 0.8590 0.8590
1540.000000 0.8589 0.8589 0.8589 0.8589 0.8589
1535.000000 0.8589 0.8588 0.8586 0.8584 0.8582
1530.000000 0.8578 0.8577 0.8575 0.8573 0.8570
1525.000000 0.8568 0.8566 0.8558 0.8550 0.8542
1520.000000 0.8534 0.8524 0.8514 0.8504 0.8494
1515.000000 0.8485 0.8475 0.8465 0.8455 0.8445
1510.000000 0.8435 0.8425 0.8415 0.8405 0.8394
1505.000000 0.8384 0.8373 0.8363 0.8352 0.8342
1500.000000 0.8330 0.8318 0.8305 0.8292 0.8275
1495.000000 0.8257 0.8238 0.8218 0.8200 0.8158
1490.000000 0.8118 0.8075 0.8022 0.7971 0.7918
1485.000000 0.7854 0.7791 0.7725 0.7611 0.7496
1480.000000 0.7408 0.7325 0.7244 0.7165 0.7086
1475.000000 0.6751 0.6665 0.6583 0.6339 0.5990
1470.000000 0.5641 0.5292 0.5088 0.5043 0.5020
1465.000000 0.5010 0.4998 0.5000 0.4995 0.4994
1460.000000 0.5009 0.5084 0.5171 0.5260 0.5353
1455.000000 0.5476 0.5598 0.5715 0.5832 0.6190
1450.000000 0.6327 0.6464 0.6601 0.6782 0.6976
1445.000000 0.7088 0.7137 0.7172 0.7208 0.7241
1440.000000 0.7258 0.7276 0.7294 0.7303 0.7311
1435.000000 0.7315 0.7318 0.7321 0.7325 0.7328
1430.000000 0.7340 0.7355 0.7368 0.7384 0.7401
1425.000000 0.7419 0.7440 0.7457 0.7472 0.7490
1420.000000 0.7507 0.7519 0.7533 0.7545 0.7558
1415.000000 0.7571 0.7584 0.7596 0.7605 0.7610
1410.000000 0.7615 0.7619 0.7625 0.7630 0.7635
1405.000000 0.7638 0.7638 0.7638 0.7638 0.7639
1400.000000 0.7641 0.7641 0.7641 0.7641 0.7641
1395.000000 0.7641 0.7639 0.7637 0.7634 0.7621
1390.000000 0.7576 0.7480 0.7145 0.6808 0.6474
1385.000000 0.6138 0.5922 0.5922 0.5933 0.5993
1380.000000 0.6046 0.6099 0.6120 0.6124 0.6141
1375.000000 0.6262 0.6422 0.6584 0.6745 0.6844
1370.000000 0.6837 0.6649 0.6451 0.6255 0.6058
1365.000000 0.6054 0.6036 0.6047 0.6634 0.7131
1360.000000 0.7180 0.7221 0.7261 0.7301 0.7341
1355.000000 0.7375 0.7408 0.7443 0.7483 0.7525
1350.000000 0.7558 0.7586 0.7604 0.7621 0.7636
1345.000000 0.7640 0.7644 0.7648 0.7651 0.7651
1340.000000 0.7650 0.7649 0.7649 0.7641 0.7635
1335.000000 0.7632 0.7628 0.7625 0.7625 0.7625
1330.000000 0.7631 0.7637 0.7643 0.7649 0.7656
1325.000000 0.7664 0.7671 0.7680 0.7688 0.7696
1320.000000 0.7704 0.7712 0.7721 0.7733 0.7744
1315.000000 0.7756 0.7767 0.7778 0.7790 0.7801
1310.000000 0.7812 0.7824 0.7834 0.7845 0.7856
1305.000000 0.7865 0.7872 0.7878 0.7883 0.7888
1300.000000 0.7893 0.7898 0.7903 0.7908 0.7911
1295.000000 0.7915 0.7918 0.7921 0.7925 0.7928
1290.000000 0.7931 0.7935 0.7938 0.7941 0.7945
1285.000000 0.7948 0.7951 0.7954 0.7960 0.7968
1280.000000 0.7976 0.7986 0.7995 0.8004 0.8014
1275.000000 0.8024 0.8035 0.8043 0.8048 0.8051
1270.000000 0.8056 0.8061 0.8065 0.8068 0.8074
1265.000000 0.8074 0.8074 0.8074 0.8074 0.8074
1260.000000 0.8074 0.8074 0.8075 0.8075 0.8076
1255.000000 0.8078 0.8078 0.8078 0.8080 0.8080
1250.000000 0.8080 0.8081 0.8081 0.8081 0.8082
1245.000000 0.8082 0.8082 0.8083 0.8083 0.8083
1240.000000 0.8084 0.8084 0.8084 0.8085 0.8085
1235.000000 0.8083 0.8081 0.8078 0.8076 0.8075
1230.000000 0.8075 0.8074 0.8074 0.8072 0.8071
1225.000000 0.8068 0.8067 0.8065 0.8060 0.8055
1220.000000 0.8049 0.8042 0.8035 0.8028 0.8021
1215.000000 0.8014 0.8007 0.8001 0.7997 0.7993
1210.000000 0.7991 0.7997 0.8001 0.8006 0.8010
1205.000000 0.8015 0.8019 0.8025 0.8030 0.8035
1200.000000 0.8040 0.8046 0.8051 0.8051 0.8053
1195.000000 0.8051 0.8050 0.8049 0.8047 0.8046
1190.000000 0.8045 0.8043 0.8042 0.8041 0.8040
1185.000000 0.8039 0.8039 0.8040 0.8041 0.8042
1180.000000 0.8043 0.8044 0.8044 0.8044 0.8043
1175.000000 0.8041 0.8041 0.8041 0.7971 0.7886
1170.000000 0.7806 0.7758 0.7772 0.7774 0.7775
1165.000000 0.7782 0.7817 0.7857 0.7881 0.7905
1160.000000 0.7911 0.7917 0.7924 0.7930 0.7936
1155.000000 0.7938 0.7940 0.7941 0.7942 0.7944
1150.000000 0.7945 0.7947 0.7947 0.7946 0.7944
1145.000000 0.7943 0.7942 0.7941 0.7939 0.7936
1140.000000 0.7932 0.7928 0.7925 0.7921 0.7908
1135.000000 0.7895 0.7878 0.7860 0.7842 0.7826
1130.000000 0.7814 0.7808 0.7803 0.7800 0.7789
1125.000000 0.7804 0.7806 0.7808 0.7810 0.7825
1120.000000 0.7845 0.7864 0.7885 0.7905 0.7921
1115.000000 0.7938 0.7953 0.7968 0.7985 0.8001
1110.000000 0.8017 0.8034 0.8050 0.8067 0.8084
1105.000000 0.8091 0.8093 0.8130 0.8085 0.8081
1100.000000 0.8071 0.8058 0.8045 0.8031 0.8018
1095.000000 0.8005 0.7992 0.7971 0.7951 0.7932
1090.000000 0.7911 0.7875 0.7837 0.7800 0.7750
1085.000000 0.7698 0.7641 0.7572 0.7504 0.7421
1080.000000 0.7328 0.7234 0.7131 0.7028 0.6922
1075.000000 0.6817 0.6710 0.6601 0.6494 0.6391
1070.000000 0.6292 0.6130 0.6010 0.5893 0.5774
1065.000000 0.5655 0.5571 0.5482 0.5369 0.5330
1060.000000 0.5291 0.5251 0.5210 0.5172 0.5134
1055.000000 0.5099 0.5066 0.5032 0.5024 0.5019
1050.000000 0.4998 0.5040 0.5092 0.5160 0.5279
1045.000000 0.5405 0.5531 0.5657 0.5783 0.5909
1040.000000 0.6035 0.6160 0.6287 0.6412 0.6539
1035.000000 0.6665 0.6791 0.6917 0.7043 0.7176
1030.000000 0.7225 0.7261 0.7291 0.7314 0.7331
1025.000000 0.7367 0.7349 0.7349 0.7349 0.7334
1020.000000 0.7300 0.7262 0.7210 0.7157 0.7101
1015.000000 0.7045 0.6990 0.6935 0.6868 0.6811
1010.000000 0.6785 0.6764 0.6778 0.6778 0.6799
1005.000000 0.6845 0.6894 0.6942 0.6990 0.7038
1000.000000 0.7084 0.7125 0.7168 0.7211 0.7253
995.000000 0.7300 0.7360 0.7418 0.7478 0.7525
990.000000 0.7571 0.7618 0.7648 0.7675 0.7703
985.000000 0.7734 0.7757 0.7765 0.7811 0.7768
980.000000 0.7768 0.7768 0.7765 0.7761 0.7755
975.000000 0.7740 0.7725 0.7711 0.7705 0.7699
970.000000 0.7692 0.7686 0.7685 0.7685 0.7685
965.000000 0.7685 0.7688 0.7690 0.7693 0.7682
960.000000 0.7699 0.7701 0.7715 0.7736 0.7756
955.000000 0.7776 0.7811 0.7867 0.7919 0.7971
950.000000 0.8021 0.8072 0.8115 0.8154 0.8171
945.000000 0.8190 0.8208 0.8216 0.8215 0.8215
940.000000 0.8216 0.8217 0.8217 0.8218 0.8224
935.000000 0.8240 0.8256 0.8271 0.8290 0.8308
930.000000 0.8327 0.8339 0.8350 0.8361 0.8370
925.000000 0.8378 0.8386 0.8394 0.8402 0.8410
920.000000 0.8418 0.8388 0.8351 0.8339 0.8344
915.000000 0.8349 0.8354 0.8362 0.8371 0.8382
910.000000 0.8392 0.8402 0.8412 0.8421 0.8428
905.000000 0.8437 0.8445 0.8452 0.8460 0.8466
900.000000 0.8470 0.8474 0.8477 0.8481 0.8485
895.000000 0.8489 0.8493 0.8496 0.8500 0.8504
890.000000 0.8508 0.8511 0.8513 0.8515 0.8517
885.000000 0.8518 0.8520 0.8521 0.8525 0.8528
880.000000 0.8531 0.8552 0.8538 0.8539 0.8539
875.000000 0.8536 0.8534 0.8532 0.8530 0.8521
870.000000 0.8511 0.8501 0.8484 0.8465 0.8447
865.000000 0.8428 0.8411 0.8394 0.8377 0.8360
860.000000 0.8350 0.8341 0.8331 0.8321 0.8312
855.000000 0.8301 0.8289 0.8278 0.8267 0.8257
850.000000 0.8246 0.8238 0.8239 0.8239 0.8258
845.000000 0.8281 0.8297 0.8308 0.8320 0.8331
840.000000 0.8340 0.8347 0.8351 0.8351 0.8351
835.000000 0.8351 0.8351 0.8352 0.8353 0.8354
830.000000 0.8355 0.8357 0.8358 0.8360 0.8362
825.000000 0.8364 0.8365 0.8367 0.8368 0.8371
820.000000 0.8371 0.8374 0.8375 0.8378 0.8378
815.000000 0.8381 0.8383 0.8385 0.8386 0.8388
810.000000 0.8390 0.8392 0.8393 0.8395 0.8397
805.000000 0.8398 0.8400 0.8401 0.8402 0.8402
800.000000 0.8402 0.8403 0.8403 0.8403 0.8403
795.000000 0.8403 0.8401 0.8399 0.8397 0.8395
790.000000 0.8393 0.8392 0.8390 0.8389 0.8388
785.000000 0.8386 0.8385 0.8377 0.8367 0.8357
780.000000 0.8347 0.8338 0.8331 0.8333 0.8318
775.000000 0.8311 0.8305 0.8298 0.8297 0.8297
770.000000 0.8297 0.8297 0.8297 0.8298 0.8298
765.000000 0.8298 0.8299 0.8301 0.8302 0.8304
760.000000 0.8306 0.8307 0.8309 0.8310 0.8311
755.000000 0.8312 0.8313 0.8314 0.8314 0.8314
750.000000 0.8314 0.8313 0.8312 0.8310 0.8301
745.000000 0.8292 0.8275 0.8259 0.8215 0.8167
740.000000 0.8117 0.8075 0.8036 0.8008 0.7984
735.000000 0.7971 0.7965 0.7958 0.7955 0.7954
730.000000 0.7953 0.7960 0.7967 0.7972 0.7986
725.000000 0.8001 0.8017 0.8034 0.8051 0.8068
720.000000 0.8085 0.8100 0.8110 0.8119 0.8128
715.000000 0.8138 0.8144 0.8144 0.8144 0.8144
710.000000 0.8144 0.8143 0.8143 0.8145 0.8147
705.000000 0.8149 0.8150 0.8151 0.8151 0.8151
700.000000 0.8153 0.8153 0.8142 0.8115 0.8095
695.000000 0.8097 0.8100 0.8101 0.8103 0.8103
690.000000 0.8101 0.8100 0.8098 0.8097 0.8095
685.000000 0.8094 0.8094 0.8094 0.8094 0.8095
680.000000 0.8095 0.8095 0.8096 0.8092 0.8086
675.000000 0.8080 0.8075 0.8071 0.8069 0.8069
670.000000 0.8069 0.8076 0.8090 0.8104 0.8101
665.000000 0.8095 0.8090 0.8088 0.8086 0.8085
660.000000 0.8083 0.8081 0.8078 0.8076 0.8075
655.000000 0.8072 0.8071 0.8068 0.8067 0.8065
650.000000 0.8064 0.8064 0.8064 0.8064 0.8065
645.000000 0.8065 0.8065 0.8065 0.8065 0.8065
640.000000 0.8065 0.8065 0.8067 0.8067 0.8067
635.000000 0.8068 0.8068 0.8068 0.8068 0.8068
630.000000 0.8067 0.8065 0.8065 0.8062 0.8061
625.000000 0.8061 0.8058 0.8058 0.8057 0.8055
620.000000 0.8054 0.8054 0.8054 0.8054 0.8055
615.000000 0.8056 0.8056 0.8057 0.8058 0.8058
610.000000 0.8058 0.8060 0.8061 0.8061 0.8061
605.000000 0.8062 0.8064 0.8064 0.8065 0.8065
600.000000 0.8068 0.8068 0.8069 0.8071 0.8072
595.000000 0.8074 0.8075 0.8076 0.8078 0.8078
590.000000 0.8081 0.8082 0.8083 0.8084 0.8086
585.000000 0.8087 0.8088 0.8090 0.8091 0.8092
580.000000 0.8094 0.8095 0.8097 0.8098 0.8100
575.000000 0.8101 0.8101 0.8104 0.8105 0.8107
570.000000 0.8108 0.8110 0.8111 0.8111 0.8114
565.000000 0.8115 0.8117 0.8118 0.8119 0.8121
560.000000 0.8121 0.8121 0.8122 0.8122 0.8124
555.000000 0.8124 0.8122 0.8119 0.8118 0.8115
550.000000 0.8111 0.8108 0.8107 0.8107 0.8107
545.000000 0.8108 0.8108 0.8108 0.8114 0.8124
540.000000 0.8134 0.8144 0.8151 0.8158 0.8165
535.000000 0.8172 0.8181 0.8188 0.8196 0.8201
530.000000 0.8200 0.8199 0.8198 0.8198 0.8199
525.000000 0.8200 0.8201 0.8202 0.8203 0.8204
520.000000 0.8206 0.8207 0.8208 0.8209 0.8210
515.000000 0.8211 0.8212 0.8214 0.8218 0.8221
510.000000 0.8225 0.8230 0.8235 0.8240 0.8244
505.000000 0.8249 0.8253 0.8258 0.8262 0.8267
500.000000 0.8268 0.8271 0.8275 0.8278 0.8280
495.000000 0.8283 0.8286 0.8287 0.8287 0.8287
490.000000 0.8287 0.8287 0.8287 0.8286 0.8286
485.000000 0.8287 0.8288 0.8290 0.8292 0.8293
480.000000 0.8295 0.8296 0.8298 0.8300 0.8301
475.000000 0.8303 0.8304 0.8306 0.8308 0.8309
470.000000 0.8311 0.8312 0.8314 0.8315 0.8317
465.000000 0.8318 0.8320 0.8321 0.8323 0.8324
460.000000 0.8325 0.8327 0.8328 0.8330 0.8332
455.000000 0.8333 0.8335 0.8336 0.8338 0.8339
450.000000 0.8341 0.8342 0.8344 0.8345 0.8347
445.000000 0.8349 0.8352 0.8354 0.8356 0.8359
440.000000 0.8361 0.8364 0.8366 0.8368 0.8371
435.000000 0.8373 0.8375 0.8378 0.8380 0.8383
430.000000 0.8385 0.8388 0.8390 0.8392 0.8395
425.000000 0.8397 0.8399 0.8402 0.8404 0.8406
420.000000 0.8409 0.8411 0.8413 0.8416 0.8418
415.000000 0.8420 0.8423 0.8425 0.8427 0.8430
410.000000 0.8432 0.8434 0.8436 0.8439 0.8441
405.000000 0.8443 0.8446 0.8448 0.8451 0.8453
400.000000 0.8456 0.8458 0.8461 0.8463 0.8465
395.000000 0.8468 0.8470 0.8473 0.8475 0.8478
390.000000 0.8480 0.8482 0.8485 0.8487 0.8490
385.000000 0.8492 0.8493 0.8494 0.8495 0.8496
380.000000 0.8497 0.8498 0.8499 0.8500 0.8501
375.000000 0.8502 0.8503 0.8505 0.8506 0.8507
370.000000 0.8508 0.8508 0.8509 0.8510 0.8511
365.000000 0.8512 0.8512 0.8513 0.8514 0.8515
360.000000 0.8515 0.8516 0.8517 0.8518 0.8518
355.000000 0.8518 0.8520 0.8520 0.8520 0.8520
350.000000 0.8520 0.8521 0.8521 0.8521 0.8521
345.000000 0.8521 0.8521 0.8521 0.8521 0.8521
340.000000 0.8521 0.8521 0.8523 0.8524 0.8525
335.000000 0.8525 0.8525 0.8527 0.8528 0.8528
330.000000 0.8530 0.8531 0.8532 0.8533 0.8534
325.000000 0.8535 0.8536 0.8537 0.8538 0.8539
320.000000 0.8540 0.8542 0.8543 0.8544 0.8545
315.000000 0.8546 0.8547 0.8549 0.8551 0.8552
310.000000 0.8554 0.8556 0.8557 0.8561 0.8566
305.000000 0.8571 0.8577 0.8582 0.8587 0.8593
300.000000 0.8595
##END=
