##TITLE=Butane
##JCAMP-DX=4.24
##DATA TYPE=INFRARED SPECTRUM
##CLASS=IUPAC A
##ORIGIN=NIST, Analytical Chemistry Division, 301-975-3108
##OWNER=COPYRIGHT (C) 2000 by the U.S. Secretary of Commerce
##DATE=00/02/01
##$SPECTRA VERSION=1.10
##$UNCERTAINTY IN Y=2.0 % relative (B=1.0E-04,C=-1.9E-11,D=8.7E-15)
##CAS NAME=Butane
##CAS REGISTRY NO=106-97-8
##MOLFORM=C4 H10
##MP=-138.35 C
##BP=-0.5 C
##$NIST SOURCE=QUANT-IR
##SPECTROMETER/DATA SYSTEM=IFS66V (Bruker)
##INSTRUMENT PARAMETERS=KBr Beam Splitter; MCT Detector; Multipass cell
##STATE=gas
##SAMPLE DESCRIPTION=Butane Primary Gas Standard
##PRESSURE=101.3 Pa
##TEMPERATURE=23 C
##SAMPLING PROCEDURE=1 L/min Flow
##RESOLUTION=1.9290
##DATA PROCESSING=3-Term B-H Apodization
##XUNITS=cm-1
##YUNITS=(micromol/mol)-1m-1 (base 10)
##XFACTOR=1.0
##YFACTOR=9.0949E-13
##DELTAX=0.9645
##FIRSTX=575.652
##LASTX=3974.605
##FIRSTY=-2.53E-07
##MAXX=3973.64
##MINX=575.65
##MAXY=.0008311
##MINY=-3.18E-07
##NPOINTS=3526
##XYDATA=(X++(Y..Y))
575.65-278748-76280 112081 73414-216476-345164
580.47-264491-150922-9757 117589 94696-6246
586.26 15700 97118 25747-123423-130058-45204
592.04-59939-118016-141522-150981-95965-63416
597.83-101341-132144-124085-110397-111388-112746
603.62-110890-92066-60597-61371-85118-144830
609.40-223108-221432-163931-125437-111885-146808
615.19-197721-197375-144890-81612-49730-47259
620.97-55021-66305-78489-107074-128426-108997
626.76-117815-143411-85747-42646-56462-49492
632.54-67538-125097-160579-168087-142374-92809
638.33-61358-64386-64197-68593-101259-107244
644.11-83164-82281-104686-118994-88776-47396
649.90-49219-62735-94788-166014-198258-162907
655.68-97746-43442-31097-79208-118799-93452
661.47-51924-12219 33-30188-142779-339283
667.25-350027-141785-4756 21664 28229 31237
673.04 43512 71896 86125 92141 121078 138631
678.83 153516 198290 240763 264308 288054 316809
684.61 365654 421083 460639 516836 593386 690756
690.40 805890 887536 933094 988270 1067793 1148463
696.18 1264973 1432232 1606259 1751939 1862433 1983306
701.97 2132474 2302446 2474640 2615173 2748538 2941144
707.75 3169152 3365220 3536121 3733725 3971172 4197018
713.54 4387505 4546164 4668670 4818241 4989469 5136763
719.32 5317673 5533540 5731413 5899980 6070539 6289635
725.11 6536096 6752222 7025323 7565479 8556843 10046467
730.89 11379238 11331206 10105786 9382118 9396182 9411244
736.68 9472789 9652547 9782126 9823284 9800561 9701422
742.47 9576970 9540353 9868303 10712772 11333009 11375159
748.25 11270415 10904332 10251099 9658617 9267013 9016843
754.04 8863402 8774122 8712055 8611676 8453718 8279061
759.82 8082799 7827528 7508821 7145906 6785168 6433917
765.61 6077049 5731561 5393122 5044984 4724474 4443435
771.39 4204079 4009621 3864219 3751624 3640773 3542558
777.18 3466930 3395947 3320254 3225867 3117680 3008414
782.96 2879113 2708269 2487019 2230195 2030541 1943616
788.75 1933966 1984690 2075552 2181948 2292377 2337571
794.53 2305328 2243124 2140620 2014537 1916677 1835004
800.32 1746551 1654582 1571017 1494108 1399575 1299116
806.11 1189683 1065412 962657 884584 807901 725933
811.89 675865 647894 585322 503504 463830 431320
817.68 362275 291203 266216 246476 205567 176862
823.46 149406 126494 119912 102834 74603 62391
829.25 35148-9489-26418-14909-974 3988
835.03 11446 14790 10081-13451-49953-47505
840.82-15444-4225 13342 37381 38373 16234
846.60-13665-33896-48008-47666-31264-24903
852.39-31748-35165-21949-2835 5440-12949
858.17-32756-18646-11180-27383-16420 8395
863.96 6174-9687-19641-33760-27734-18
869.75 14001 9373-4001-19612-24376-28135
875.53-34446-32014-21935-13604-20869-23677
881.32-2389-5435-25487-27479-25556-28407
887.10-34169-48435-58432-57426-57510-50459
892.89-23900-8626-20146-28014-23140-24130
898.67-26782-7323 24657 36302 30101 22228
904.46 47756 92252 114333 126240 150944 180859
910.24 204762 226175 254612 281976 320049 383536
916.03 443740 493216 554830 622478 689295 758346
921.81 853804 973947 1086062 1205765 1343925 1491315
927.60 1649097 1822894 2025879 2257476 2517663 2809836
933.39 3145665 3512063 3899514 4328587 4812746 5344882
939.17 5913437 6509927 7134331 7801440 8506513 9218832
944.96 9982998 10831876 11650355 12218631 12563295 12858305
950.74 13218091 13803980 14890161 16952717 19793952 20976334
956.53 19251824 17348039 17024265 17439968 17911253 18381329
962.31 18789344 19253955 20221529 21217741 21349905 20958582
968.10 20659656 20516273 20393033 20101790 19581692 18927770
973.88 18220720 17523076 16834800 16051773 15114758 14143940
979.67 13311090 12673482 12108529 11545484 11074607 10651521
985.45 10156763 9690259 9300123 8913722 8505688 8081985
991.24 7665349 7238466 6787474 6332119 5897550 5480191
997.03 5067332 4653758 4240743 3865218 3557767 3303815
1002.81 3067796 2844681 2626883 2404750 2221016 2086529
1008.60 1963470 1839648 1715735 1595755 1484131 1378829
1014.38 1287724 1202662 1116526 1050118 993756 924283
1020.17 862645 815868 749416 674553 634095 608629
1025.95 571133 528495 486932 460379 457404 469697
1031.74 464415 427359 394716 379726 359482 320090
1037.52 287914 270380 240320 214236 192387 153227
1043.31 111162 102651 113575 109255 95903 84196
1049.09 86844 93169 82123 69518 76805 91749
1054.88 99578 98909 90853 85017 98508 112464
1060.67 115158 133453 162659 178761 178303 174731
1066.45 174539 177038 185346 202803 227147 236874
1072.24 241187 245209 229320 215429 209151 182305
1078.02 156648 164799 202333 248573 272144 282976
1083.81 295479 290206 278093 283676 303645 313922
1089.59 305000 300729 295916 282131 270064 245642
1095.38 225423 241152 267129 266790 252881 252906
1101.16 271912 299170 324569 350604 377834 408062
1106.95 445664 492607 551222 635195 743361 855105
1112.73 970584 1111880 1282334 1463281 1655337 1853510
1118.52 2045911 2240436 2423595 2584686 2722856 2836204
1124.31 2920715 2976799 3025152 3091508 3135725 3122871
1130.09 3107613 3174960 3379122 3644255 3752984 3478087
1135.88 2764117 2104049 2001277 2269060 2596007 2879779
1141.66 3073448 3140482 3080770 2925179 2715062 2478243
1147.45 2224304 1962738 1709519 1482389 1276053 1086017
1153.23 913497 753222 626070 524010 425167 355516
1159.02 308154 257937 219308 204277 202653 186206
1164.80 158413 150213 149409 143035 142252 147043
1170.59 162579 187506 206186 218901 224182 216427
1176.37 200151 186966 184928 197758 215052 220497
1182.16 213318 201716 197258 199504 204519 205638
1187.95 201407 208034 214847 205949 194617 202593
1193.73 218950 216128 206570 215393 218809 209619
1199.52 218597 227547 211200 199420 219588 236591
1205.30 229698 239395 260116 263362 261610 265425
1211.09 273171 283848 297759 313727 325461 338937
1216.87 355569 368264 379287 398875 424084 448568
1222.66 468483 487267 507947 527004 542721 565898
1228.44 594653 613855 634902 668003 699110 732540
1234.23 776408 820729 854473 884795 919599 959237
1240.01 1007220 1059814 1108941 1150079 1182713 1227840
1245.80 1296562 1371795 1439853 1498893 1552495 1609599
1251.59 1665576 1701778 1715204 1735904 1778166 1828272
1257.37 1863804 1872434 1893267 1994755 2141591 2158271
1263.16 2055768 2048842 2146271 2255599 2363157 2473945
1268.94 2592302 2743591 2934263 3159173 3436359 3767226
1274.73 4131288 4545599 5030238 5569892 6146974 6747405
1280.51 7347992 7916819 8388260 8743497 8979510 9031258
1286.30 8852045 8466576 7915574 7306960 6992564 7377003
1292.08 8511000 9674477 9546369 8277599 7538486 7833125
1297.87 8495115 9116290 9526597 9592874 9352630 8917265
1303.65 8352787 7719552 7039650 6330244 5630315 4973819
1309.44 4366223 3836176 3381978 2979250 2628277 2348383
1315.23 2140815 1995245 1905333 1872111 1890654 1964081
1321.01 2091477 2263484 2468108 2714267 2982295 3255514
1326.80 3546248 3850109 4143319 4417423 4654315 4828533
1332.58 4914564 4891035 4774105 4619612 4451449 4296287
1338.37 4243246 4478027 5203101 6358041 7156493 6542438
1344.15 4980867 4078115 4153482 4600329 5088678 5605523
1349.94 6149487 6599328 6907896 7094568 7186085 7250052
1355.72 7301219 7337782 7405882 7568057 7851236 8285652
1361.51 8881891 9654648 10623265 11791607 13133243 14654280
1367.29 16365575 18240975 20208575 22220974 24210870 26121890
1373.08 27809770 29105714 29932564 30249412 30060373 29481281
1378.87 28804534 28986606 31852739 36814382 38878318 36180508
1384.65 31872720 29031265 29201204 31856357 35508035 38901681
1390.44 41207975 42367793 42597681 41913789 40380843 38142315
1396.22 35386041 32318293 29137407 26028306 23115833 20454704
1402.01 18107886 16115941 14453826 13070648 11933679 11040575
1407.79 10379371 9919011 9555025 9211122 8950006 8804662
1413.58 8734492 8719741 8731393 8771150 8886511 9071072
1419.36 9256724 9482390 9813876 10245617 10732829 11278535
1425.15 11910873 12639496 13449110 14319457 15249715 16278567
1430.93 17438915 18758580 20205991 21784483 23500554 25344428
1436.72 27293949 29382501 31608367 33910902 36299468 38809540
1442.51 41264524 43491794 45521253 47502526 49443833 51283595
1448.29 52978176 54620660 56434164 58503239 60446583 62133027
1454.08 63663564 64884473 65686619 66977622 69636839 73976090
1459.86 80730144 87095695 87662287 86462866 92087826 100431515
1465.65 98601642 87945223 80457071 79655327 82428974 82547531
1471.43 76191955 67641150 61818365 59551372 59912046 61592075
1477.22 63478506 64762932 65173926 64771952 63689505 62053748
1483.00 60105824 57953275 55629708 53188462 50668864 48096321
1488.79 45554687 42985470 40463134 38066958 35780351 33591495
1494.57 31531953 29571791 27725893 25991432 24344495 22778538
1500.36 21317345 19944040 18640967 17423895 16310643 15236368
1506.15 14164171 13105651 12132120 11235602 10406552 9643566
1511.93 8925427 8237142 7590727 6991762 6458046 5946957
1517.72 5460992 5048725 4706040 4337939 3930999 3557500
1523.50 3276201 3039706 2793300 2556273 2344929 2143285
1529.29 1971369 1835462 1734581 1652141 1546410 1417950
1535.07 1325304 1270874 1270776 1300876 1280151 1213508
1540.86 1158142 1090293 1032443 1008916 986244 965931
1546.64 968215 978290 992755 994283 999048 1026748
1552.43 1083907 1128576 1123300 1137327 1239087 1353483
1558.21 1411516 1404142 1346171 1304139 1308326 1341687
1564.00 1398826 1448946 1490703 1531288 1588843 1632412
1569.79 1637231 1645128 1681595 1706204 1744203 1833939
1575.57 1856896 1780130 1725786 1698923 1683990 1672550
1581.36 1649012 1625735 1616326 1600340 1589160 1578112
1587.14 1563498 1549677 1538586 1521629 1490662 1449181
1592.93 1412740 1373080 1335529 1302095 1266961 1229020
1598.71 1187208 1142910 1104647 1065214 1025386 984365
1604.50 960365 960192 966544 963450 959260 957072
1610.28 961523 971268 980253 989845 1037155 1124717
1616.07 1150332 1090942 1044729 1020598 996919 974092
1621.85 968593 955424 934372 957868 1020447 1069817
1627.64 1090804 1102808 1121515 1151327 1191734 1223496
1633.43 1272053 1310193 1269589 1202843 1172411 1152773
1639.21 1136143 1119352 1101041 1093204 1120733 1189869
1645.00 1246570 1243518 1234811 1235080 1232032 1272347
1650.78 1419364 1565182 1551219 1447579 1386687 1379647
1656.57 1397262 1410941 1422673 1442080 1473731 1498738
1662.35 1488468 1462625 1460213 1479712 1521466 1591997
1668.14 1664365 1676191 1653235 1628904 1600610 1595372
1673.92 1612131 1565854 1469820 1410608 1395399 1405977
1679.71 1429948 1449598 1492937 1590796 1681214 1628930
1685.49 1495399 1415069 1382751 1371198 1363491 1335297
1691.28 1301024 1286406 1313793 1390099 1413436 1333168
1697.07 1278663 1326839 1404764 1375436 1287668 1246817
1702.85 1239723 1241677 1253200 1250411 1230077 1226765
1708.64 1233093 1216566 1202051 1207692 1214714 1224150
1714.42 1228453 1243013 1264140 1220457 1155506 1122669
1720.21 1103397 1083840 1074378 1069843 1052039 1008809
1725.99 953059 910919 897225 890257 875291 872728
1731.78 908174 938317 882143 764025 684090 641026
1737.56 619910 613655 576828 523309 495645 471852
1743.35 434547 411215 406771 396208 387125 382984
1749.13 386384 397438 373921 325108 300673 295442
1754.92 306901 311837 296724 283157 282843 303058
1760.71 329622 317168 289858 280326 282443 291422
1766.49 305403 306750 295097 294406 321852 354545
1772.28 344448 312805 308398 317562 323535 322590
1778.06 327020 344488 361511 368792 372218 372679
1783.85 375315 363461 353714 366461 385483 393897
1789.63 399832 417418 437798 424487 406582 418398
1795.42 433441 432955 433155 438651 438793 435644
1801.20 432798 426247 428909 430443 426053 425237
1806.99 431068 436671 443015 447726 442006 432886
1812.77 432302 426404 411456 396996 386818 380063
1818.56 375578 369187 362217 349784 336307 328927
1824.35 315885 291461 276838 271958 267137 246346
1830.13 214058 187748 169955 151241 136389 125871
1835.92 115837 104378 95435 89135 81283 71231
1841.70 76362 103077 99435 56577 34426 32004
1847.49 20804 6387 3764 2053 2012 798
1853.27-3301-4297-4545-4414 3455 8227
1859.06 1773-4158-1284-1452-690 5594
1864.84 14258 23197 33343 39224 39995 40470
1870.63 43401 45910 55951 71696 85337 91927
1876.41 100268 110672 128536 151189 168898 179326
1882.20 181036 189304 219188 246631 253840 256920
1887.99 279025 304832 321640 335547 355001 382858
1893.77 408294 419259 431888 459053 485405 489394
1899.56 491230 507427 522682 520971 512526 509139
1905.34 508354 510466 519538 523549 516982 501104
1911.13 489920 497233 512929 512264 498864 503757
1916.91 531389 547218 542714 528645 525202 523909
1922.70 510178 491532 473034 453627 432849 417138
1928.48 411895 409678 403256 392377 383408 365859
1934.27 352106 355471 354604 329195 292498 273094
1940.05 272959 265419 237152 210903 207450 207438
1945.84 200511 195831 192768 185273 174308 162136
1951.63 145916 126458 110195 93832 76309 53025
1957.41 37447 30493 19860 13086 10502 3037
1963.20-2974-7752-13043-22040-25556-29766
1968.98-45372-53796-52478-55039-59642-55779
1974.77-42859-44211-59945-68325-63735-55680
1980.55-51423-55140-59457-60345-58850-61837
1986.34-59085-51345-48855-50396-47141-38752
1992.12-36625-43361-40629-32509-35312-38595
1997.91-30504-23725-17154-13222-10523-5074
2003.69 2639 11975 14670 8323 18891 35606
2009.48 38268 42499 59484 78961 93734 110277
2015.27 141877 183244 211670 233614 269711 306493
2021.05 343521 393666 445022 486457 522415 552122
2026.84 585004 625231 659751 671653 671472 670783
2032.62 659529 639613 649555 709604 756199 721475
2038.41 664998 661124 686441 720218 769438 807091
2044.19 818780 813130 789153 751993 711077 668229
2049.98 619955 572958 535976 494046 440483 385448
2055.76 347868 322841 295438 276631 268236 254895
2061.55 232317 214470 204929 183274 164053 158861
2067.33 159845 159136 158301 166971 176765 171520
2073.12 159602 159188 164687 162637 164082 164912
2078.91 166212 181229 201886 208032 206319 215539
2084.69 236733 240410 225327 229194 262202 290117
2090.48 285178 272844 289204 329652 348738 331800
2096.26 322184 344051 365290 357044 356576 387427
2102.05 424325 426655 413910 428397 470873 485595
2107.83 457367 450897 490884 520752 513796 513979
2113.62 547544 575995 556528 536924 566089 621770
2119.40 646513 638514 654736 694058 698763 674466
2125.19 674393 701001 705874 672250 647191 655722
2130.97 661937 647077 646168 655145 657097 657233
2136.76 667805 686246 695134 693462 698304 706788
2142.55 711510 712809 718016 716183 694846 669336
2148.33 661571 666434 657734 632509 633889 666346
2154.12 672889 648376 654080 685037 682256 671125
2159.90 703944 745333 749500 743436 771432 799015
2165.69 787176 797156 866372 887974 827262 791607
2171.47 802692 781271 745331 754415 762994 729752
2177.26 721015 752345 751136 724018 734390 756916
2183.04 741700 725259 751978 774904 755947 739989
2188.83 747727 730944 704675 711170 724200 719320
2194.61 722487 731781 731185 739585 765354 780307
2200.40 778293 780448 779798 771633 778256 787775
2206.19 775431 766196 781540 794384 800339 810462
2211.97 804986 784331 765064 746932 735597 735195
2217.76 746542 756047 757514 756770 747260 726971
2223.54 714924 715510 703089 673372 652784 641330
2229.33 627496 608113 590547 576604 557080 537721
2235.11 523554 496491 464351 445870 441505 446306
2240.90 459146 468143 469478 468753 465719 455664
2246.68 446584 458492 488281 504708 504237 500834
2252.47 498866 507613 524414 538084 553590 567407
2258.25 579221 592063 601001 604215 610542 621357
2264.04 627232 626509 627371 624090 614122 606354
2269.83 612508 619495 611607 609820 638345 678865
2275.61 705982 713233 722781 754047 790634 816844
2281.40 841391 858819 864328 867380 876064 886019
2287.18 889276 885391 886917 892543 896625 895798
2292.97 891050 877605 858947 867825 905591 947429
2298.75 989167 1032352 1061161 1066946 1080240 1099990
2304.54 1101663 1078415 1055101 1043245 1033002 1011180
2310.32 983710 959748 940914 933490 928543 929199
2316.11 922431 900562 872344 857300 849459 863468
2321.89 880907 861935 816838 793203 787239 791221
2327.68 798464 809465 820650 830150 846538 869706
2333.47 882391 895280 912086 908626 890651 889836
2339.25 900922 914225 936172 956703 978046 1026871
2345.04 1095327 1161667 1224533 1264642 1255034 1211503
2350.82 1161555 1100822 1025011 947312 884280 824583
2356.61 767772 729185 695396 662254 643307 638699
2362.39 637943 637171 647279 687431 749735 803110
2368.18 850789 921598 1020879 1124782 1214802 1299865
2373.96 1379259 1454322 1538212 1620634 1686215 1734665
2379.75 1744530 1709715 1659027 1596389 1519813 1454513
2385.53 1442225 1489514 1566211 1595218 1508678 1425215
2391.32 1463483 1564516 1663390 1752189 1824879 1863988
2397.11 1852358 1794487 1720984 1637508 1532658 1417880
2402.89 1320448 1251465 1224711 1246160 1266767 1254470
2408.68 1251493 1293525 1361908 1437765 1510897 1576539
2414.46 1636661 1691005 1741116 1765854 1752554 1725808
2420.25 1708352 1704292 1722508 1760024 1806442 1866128
2426.03 1925566 1969821 2009280 2054160 2091218 2105989
2431.82 2106276 2114771 2133290 2122698 2076486 2034846
2437.60 2013200 2001312 1975116 1918214 1851632 1806002
2443.39 1791224 1789698 1791817 1793277 1787218 1774570
2449.17 1753707 1717685 1666043 1587376 1485160 1379285
2454.96 1280847 1188848 1101545 1026342 953725 883931
2460.75 825119 762640 698473 655696 641233 626642
2466.53 595851 563579 544901 538217 524150 500721
2472.32 475768 445016 408099 372763 345846 324463
2478.10 309596 307204 313279 317432 310645 292066
2483.89 277928 264705 247470 244109 252107 253123
2489.67 245435 232050 216063 204870 208977 220575
2495.46 226460 222957 222727 228249 224081 217542
2501.24 225269 246516 271558 292093 311042 328940
2507.03 341922 359169 381958 405279 429681 443137
2512.81 459889 503989 545265 563298 569488 581272
2518.60 614412 655486 687577 711759 726778 748828
2524.39 790625 831628 838857 818753 805508 806579
2530.17 810461 817314 821754 809200 785344 768226
2535.96 773936 793043 795644 782888 774394 775219
2541.74 780170 779247 770880 759796 745215 729342
2547.53 709586 689871 670834 652418 638954 631468
2553.31 628051 634252 651096 661171 667529 678644
2559.10 693395 715541 747626 781142 808094 846894
2564.88 893975 928762 963130 1013362 1066064 1123143
2570.67 1193045 1257810 1314400 1375717 1444427 1513627
2576.45 1584363 1663339 1746067 1823201 1895269 1975085
2582.24 2068634 2168200 2260560 2347223 2454592 2590727
2588.03 2759284 2972226 3134157 3193179 3233680 3292658
2593.81 3367656 3467880 3621315 3815304 3912986 3868229
2599.60 3824816 3844439 3881337 3911249 3938630 3965923
2605.38 3996043 4052651 4124526 4194495 4269959 4338000
2611.17 4399205 4468214 4530737 4576336 4622343 4628592
2616.95 4548123 4472090 4480387 4536968 4588572 4605027
2622.74 4593372 4583170 4584380 4609898 4662559 4726865
2628.52 4789774 4848077 4902256 4941966 4966038 4984853
2634.31 5001417 5012669 5005138 4974162 4932026 4868875
2640.09 4783025 4692399 4606983 4559585 4578583 4660526
2645.88 4790640 4949321 5101653 5213046 5266612 5283847
2651.66 5289674 5281112 5264522 5244742 5221757 5204365
2657.45 5162366 5060172 4943050 4859556 4803777 4770021
2663.24 4735726 4694887 4667226 4642082 4594243 4525062
2669.02 4443220 4348881 4241103 4128041 4041221 4013317
2674.81 4042593 4121639 4243867 4425327 4654851 4840833
2680.59 4909543 4837881 4650644 4405167 4169829 3993560
2686.38 3873729 3800038 3749608 3685690 3601815 3526633
2692.16 3461599 3403195 3355415 3322916 3310452 3304702
2697.95 3298704 3308742 3338913 3386916 3446433 3512788
2703.73 3593549 3694151 3794638 3893837 4016461 4155526
2709.52 4308596 4494586 4682569 4819029 4924636 5042977
2715.30 5159579 5254043 5340824 5467762 5668186 5958322
2721.09 6333983 6733774 7111187 7473128 7818471 8160237
2726.88 8523471 8896962 9256271 9613616 9984789 10351731
2732.66 10662719 10902235 11082647 11168573 11133273 11004860
2738.45 10805740 10652944 10778344 11051657 10951167 10554874
2744.23 10374580 10498092 10828338 11305412 11803185 12151928
2750.02 12261606 12207736 12062844 11808235 11419867 10922910
2755.80 10365256 9792506 9249214 8752723 8317251 7964837
2761.59 7687173 7460118 7248915 7051415 6883904 6757295
2767.37 6662472 6579157 6499797 6454731 6449918 6437284
2773.16 6412866 6422815 6469309 6538361 6620578 6710361
2778.94 6799197 6884201 6970500 7050249 7109206 7152695
2784.73 7183248 7205609 7232886 7284817 7365202 7481354
2790.52 7652715 7919043 8319273 8671824 8690463 8569813
2796.30 8636768 8881316 9165715 9417402 9655361 9894436
2802.09 10131870 10406119 10738245 11105598 11501913 11931125
2807.87 12382708 12827265 13255637 13715144 14230429 14771206
2813.66 15307868 15887305 16520888 17128154 17700886 18367667
2819.44 19239065 20310665 21455789 22553993 23615530 24683909
2825.23 25742013 26809402 27925139 29092274 30262287 31401470
2831.01 32583446 33864396 35184987 36505597 37940246 39683576
2836.80 41863756 44522217 47376380 49940992 52274038 54797710
2842.58 57591278 60570498 63645423 66723782 69865081 73257578
2848.37 77111913 81623846 86709945 91887558 96891812 102105916
2854.16 107967950 114446578 121263608 128237797 135274702 142232415
2859.94 148979980 155531536 161961776 168293734 174485014 180379208
2865.73 185599252 190064139 195175457 204713271 221617702 240327276
2871.51 252372157 259484886 268819036 283136194 300045900 315462507
2877.30 326361115 331293134 329695281 321776957 308536771 292614380
2883.08 278972878 275965306 290292896 304643770 298744035 288082237
2888.87 286072614 288039130 293105490 300539026 306925809 310106116
2894.65 309646982 306111705 300505159 293679441 286167292 278259907
2900.44 270259958 262829620 256343261 250932850 247455223 246759986
2906.22 248406872 250953644 253749049 257281113 261564976 266542866
2912.01 272012944 277197006 282289017 287771434 292980489 298471431
2917.80 306557157 318827704 333029781 344909199 355354678 366057480
2923.58 373702475 379458026 387920848 398313934 408182047 417833297
2929.37 430103426 448056824 471274499 487607585 484295228 473086209
2935.15 471898850 482894750 500083355 514004390 519811696 520266442
2940.94 519003664 518736057 519533988 521936568 529461831 544667709
2946.72 561191148 567683897 564056129 561625776 568053413 581633881
2952.51 597887529 614725972 631850611 648369483 663377103 677426201
2958.29 690489130 701804192 711493480 722740307 744785976 794033895
2964.08 869237464 913870559 879550179 808469696 748668648 701355176
2969.86 662974090 643695944 651860443 661467090 650754456 633783323
2975.65 625194439 624512329 626814877 627708401 624178114 614280060
2981.44 597223483 573377570 543990737 510719296 475486152 439727621
2987.22 404413912 370304336 337983173 307797108 279937149 254478829
2993.01 231402813 210416680 191307006 173998225 158346269 144094003
2998.79 131071372 119111473 108142744 98113731 88939160 80503837
3004.58 72772224 65704366 59255180 53378903 48068803 43275821
3010.36 38959964 35098450 31702086 28704834 26028910 23619993
3016.15 21485322 19611029 17973323 16537154 15291110 14204050
3021.93 13258292 12419519 11685266 11053836 10519732 10045685
3027.72 9620971 9248678 8946610 8687629 8448999 8228375
3033.50 8037626 7864193 7720360 7596262 7499179 7419328
3039.29 7348329 7273161 7199621 7141691 7101783 7041940
3045.08 6983894 6946698 6908199 6860006 6828789 6802197
3050.86 6780850 6763061 6763834 6781806 6807991 6843081
3056.65 6890321 6934380 6986755 7060785 7162765 7266937
3062.43 7369527 7463734 7555484 7653227 7764016 7871344
3068.22 7978713 8076049 8163364 8246636 8332178 8402459
3074.00 8441023 8468212 8521186 8554292 8541188 8503128
3079.79 8472655 8445260 8466015 8577804 8640920 8583783
3085.57 8583876 8616617 8530151 8356764 8186455 8020554
3091.36 7867196 7711711 7532935 7325628 7107502 6899846
3097.14 6706738 6527589 6362732 6182223 6003187 5828687
3102.93 5670880 5517356 5360437 5222236 5109110 5008036
3108.72 4912820 4813209 4722477 4632507 4546688 4480800
3114.50 4434620 4399619 4357430 4313807 4299170 4274937
3120.29 4250118 4252791 4264536 4266797 4278943 4302587
3126.07 4326383 4354074 4397596 4445872 4490502 4529166
3131.86 4573284 4632185 4704185 4762624 4813917 4892664
3137.64 4990177 5065776 5142923 5228621 5297087 5337615
3143.43 5379581 5427326 5477822 5545193 5639809 5733081
3149.21 5813923 5906927 6023440 6145740 6266828 6387873
3155.00 6528862 6672044 6801340 6926326 7034920 7106649
3160.78 7147272 7164894 7188431 7237589 7314223 7426406
3166.57 7584805 7763709 7902557 7975174 8034519 8073757
3172.36 8093974 8133060 8139162 8048666 7945496 7837649
3178.14 7668521 7483372 7356096 7298776 7322601 7449378
3183.93 7586800 7642237 7688573 7699843 7513496 7186237
3189.71 6918075 6716742 6530848 6369000 6222677 6077072
3195.50 5933080 5793463 5682952 5578643 5470700 5366175
3201.28 5280538 5209436 5110444 5012761 4935327 4830785
3207.07 4732419 4666417 4620357 4586140 4566705 4524868
3212.85 4468521 4436525 4416723 4401728 4401827 4403919
3218.64 4431284 4476123 4511493 4524782 4500379 4458045
3224.42 4406797 4330880 4223765 4074733 3904657 3728266
3230.21 3561784 3437066 3376643 3353067 3324504 3289522
3236.00 3274283 3242490 3171324 3087486 3000904 2904958
3241.78 2795556 2663674 2519028 2371013 2225281 2083337
3247.57 1952926 1829003 1692989 1556022 1453310 1375062
3253.35 1299227 1211709 1126574 1048625 975640 918406
3259.14 891915 860948 808482 767200 742563 721136
3264.92 714216 719543 716817 702056 699560 692762
3270.71 681186 691985 721187 727573 721830 731010
3276.49 735200 729762 734690 728929 722442 729398
3282.28 744299 768402 798632 812401 796153 788353
3288.06 802217 793872 765701 742511 735611 741790
3293.85 743006 729932 715830 707991 714328 725068
3299.64 717809 677821 638486 617932 599209 574642
3305.42 549554 532952 533659 530288 520049 506632
3311.21 486477 457236 430984 416323 412343 407389
3316.99 410863 418616 419011 413503 399115 384577
3322.78 377490 382713 415922 433724 434096 444777
3328.56 455485 469852 492147 506220 512575 521393
3334.35 556712 594473 598070 588990 601985 616210
3340.13 614574 643550 700259 711451 689900 688208
3345.92 714807 735826 736947 741615 759604 762686
3351.70 764353 779752 787616 790728 800305 806704
3357.49 814546 803536 784561 786953 806054 817297
3363.28 809330 801606 814764 841334 848849 835930
3369.06 827294 807338 801343 831323 864835 875856
3374.85 900525 948688 973631 971299 972050 997480
3380.63 1040194 1069108 1106192 1147634 1170844 1196387
3386.42 1228850 1241769 1242608 1252712 1276938 1312960
3392.20 1347999 1353039 1344949 1343746 1342534 1324936
3397.99 1291652 1245974 1205813 1195935 1204907 1210467
3403.77 1200450 1174091 1144528 1096700 1045817 1018874
3409.56 1010058 1001680 970728 906938 844214 792561
3415.34 738978 680650 613197 549448 496527 433998
3421.13 381361 350404 328530 314847 293669 262656
3426.92 247332 234250 233981 248705 243780 215955
3432.70 192569 179524 170922 169469 181551 179335
3438.49 162368 155561 151908 141300 135429 113909
3444.27 97648 100385 99079 99696 119056 134342
3450.06 134395 110682 69393 57982 65256 54191
3455.84 45988 59287 82404 84395 72865 67945
3461.63 80227 99632 97936 75917 66984 68989
3467.41 66034 75487 86866 82875 80599 87608
3473.20 89048 73958 64408 75687 97111 110998
3478.98 115266 127119 134899 111544 86033 89228
3484.77 113602 125029 115264 100270 96147 84721
3490.56 63847 61823 82789 101135 111824 107983
3496.34 82662 75376 89312 81934 81239 96336
3502.13 99309 102296 111305 95932 71422 70011
3507.91 74575 54456 31338 33030 53816 62645
3513.70 40645 6840-3682 6882 22567 22370
3519.48 16277 19440 18807 1504-13461-21437
3525.27-23333-18608-22291-8529 23156 8688
3531.05-41207-55026-37198-21303-12212-14612
3536.84-9365-9682-15817-8362-1991-16055
3542.62-23757-12546 6967 16573 21923 25407
3548.41 11645-1336-702 7307 15325 9998
3554.20 16107 30849 22243 12350 21074 32255
3559.98 54838 78092 76039 75487 91951 105897
3565.77 121626 144113 154040 134721 110951 100485
3571.55 102275 114007 130403 134949 148779 179534
3577.34 188428 192911 201846 198807 197907 202384
3583.12 209531 225786 255908 271875 293850 321941
3588.91 304510 277939 297540 332293 343487 343190
3594.69 349269 355044 362711 373946 403919 445500
3600.48 460175 438195 428091 446123 473364 504874
3606.26 532214 548661 562013 568523 586463 622213
3612.05 650115 657285 652900 647206 653507 681101
3617.84 727127 749349 738991 735892 743120 738916
3623.62 736381 762077 802730 836313 863477 868586
3629.41 842055 805264 775614 767430 767344 753012
3635.19 762051 809183 855684 868503 879029 892055
3640.98 886963 877986 878896 883601 889749 905139
3646.76 926582 962485 980628 954638 917673 884436
3652.55 870826 863914 860699 853356 834734 835086
3658.33 851292 852937 852731 858068 858040 859612
3664.12 863727 860834 866472 897817 939036 981238
3669.90 984271 933051 911881 941088 1003994 1062897
3675.69 1060016 1033702 1037708 1045566 1039264 1038018
3681.48 1071413 1114181 1128618 1113663 1106321 1151491
3687.26 1226502 1213436 1144492 1118636 1100204 1074773
3693.05 1073120 1082992 1078639 1054380 1048493 1060422
3698.83 1077375 1118814 1159480 1155406 1131662 1119282
3704.62 1124561 1127360 1118047 1124502 1139625 1163480
3710.40 1234556 1283879 1265736 1256943 1291850 1338883
3716.19 1362033 1347510 1329029 1325672 1332038 1349071
3721.97 1365237 1356378 1330316 1332119 1355964 1346604
3727.76 1319192 1314562 1347006 1398774 1415918 1404421
3733.54 1403168 1402674 1393359 1344374 1286307 1243919
3739.33 1200270 1142462 1086118 1092067 1130999 1066257
3745.12 933115 855436 860439 911674 887848 833060
3750.90 847652 813564 717422 655075 654856 684485
3756.69 686959 680847 696125 692169 653636 618141
3762.47 610796 619861 624057 599242 581207 604102
3768.26 626833 611296 587894 581084 569911 553123
3774.04 548987 560973 581401 606248 626081 617227
3779.83 591665 579829 583829 596736 596044 572301
3785.61 557415 559034 548721 538559 552310 551456
3791.40 534544 529730 528695 541434 567582 570026
3797.18 552841 548086 588926 663016 664475 588497
3802.97 541198 545530 584948 617045 590285 552881
3808.76 563337 581734 580355 579996 596810 643095
3814.54 718959 740357 691614 660105 677308 726665
3820.33 749074 723959 715366 738907 773560 811029
3826.11 836236 849433 872486 914823 987004 1054332
3831.90 1088711 1141605 1228819 1285048 1357335 1478252
3837.68 1530372 1541227 1580569 1598489 1610357 1668468
3843.47 1732420 1756409 1765210 1783313 1808405 1815873
3849.25 1828904 1916995 2036782 2115839 2160663 2117628
3855.04 2054216 2054520 2066248 2046567 2018226 1995274
3860.82 1949803 1866539 1811945 1802120 1745764 1654271
3866.61 1620383 1651445 1677207 1633306 1566784 1523329
3872.40 1500256 1490240 1473959 1454536 1432242 1414301
3878.18 1416781 1412401 1374570 1320720 1275045 1251528
3883.97 1263442 1267025 1233749 1192710 1161214 1154742
3889.75 1166257 1155204 1130309 1115231 1095326 1080987
3895.54 1073596 1061178 1066955 1076732 1059570 1042452
3901.32 1028674 1024082 1021024 974207 933495 924117
3907.11 911046 891089 889518 890556 867853 848377
3912.89 842746 829292 820659 827108 835883 833077
3918.68 814828 789718 785903 783496 762534 736572
3924.46 715293 708658 708347 701166 699667 692996
3930.25 682419 689956 697680 682967 663244 651803
3936.04 638759 606691 587449 599324 608226 611281
3941.82 610070 598189 584322 568075 570218 575654
3947.61 556412 535541 522981 505460 512534 537368
3953.39 546900 545510 532124 517932 511505 506837
3959.18 510694 514003 513124 520759 526890 517010
3964.96 520569 536786 537652 524877 534043 562679
3970.75 576124 585401 595074 596514
##END=
