##TITLE=Butane
##JCAMP-DX=4.24
##DATA TYPE=INFRARED SPECTRUM
##CLASS=IUPAC A
##ORIGIN=NIST, Analytical Chemistry Division, 301-975-3108
##OWNER=COPYRIGHT (C) 2000 by the U.S. Secretary of Commerce
##DATE=00/02/01
##$SPECTRA VERSION=1.10
##$UNCERTAINTY IN Y=2.0 % relative (B=1.0E-04,C=-1.9E-11,D=8.7E-15)
##CAS NAME=Butane
##CAS REGISTRY NO=106-97-8
##MOLFORM=C4 H10
##MP=-138.35 C
##BP=-0.5 C
##$NIST SOURCE=QUANT-IR
##SPECTROMETER/DATA SYSTEM=IFS66V (Bruker)
##INSTRUMENT PARAMETERS=KBr Beam Splitter; MCT Detector; Multipass cell
##STATE=gas
##SAMPLE DESCRIPTION=Butane Primary Gas Standard
##PRESSURE=101.3 Pa
##TEMPERATURE=23 C
##SAMPLING PROCEDURE=1 L/min Flow
##RESOLUTION=0.9640
##DATA PROCESSING=NB Strong Apodization
##XUNITS=cm-1
##YUNITS=(micromol/mol)-1m-1 (base 10)
##XFACTOR=1.0
##YFACTOR=9.0949E-13
##DELTAX=0.4820
##FIRSTX=575.17
##LASTX=3974.605
##FIRSTY=-4.04E-07
##MAXX=3974.12
##MINX=575.17
##MAXY=.0008817
##MINY=-6.21E-07
##NPOINTS=7052
##XYDATA=(X++(Y..Y))
575.17-444636-129901-88625-207929-70594 191908
577.58 407305 358417-66600-482443-517616-326495
580.47-325612-276718-201321-134574-126046-43543
583.37 36065 257368 297976 62765 12811-59347
586.26-96661-99066 109194 236081 213320 56241
589.15-98489-228744-247325-145729-132479 3086
592.04 198702-63785-268261-163555-42597-60251
594.94-222294-251093-168234-28501-39156 6849
597.83-77859-134906-144342-128488-141794-167113
600.72-78289-78820-115872-135910-117758-87074
603.62-123270-107067-123100-127833-62140-30050
606.51-24453-43540-125314-76956-42923-113800
609.40-176407-321110-306138-218022-175629-147578
612.29-127813-117747-145591-82155-47552-140560
615.19-213571-246394-207575-191444-233003-160361
618.08-46692-96812-78816 37193-58328-121742
620.97 7613-7044-130217-69866-43298-59832
623.86-102476-106051-103187-155382-217061-83290
626.76 3325-68054-192910-246129-192147-34730
629.65 28944 3060-58003-112051-108521-3211
632.54 15356-31552-145136-136195-151568-182170
635.44-145232-188148-205265-132708-120959-91392
638.33-60866-25283-41893-85078-79648-93165
641.22-35754-7496-93560-116387-148767-160619
644.11-56925-36856-92073-103998-36400-110464
647.01-156989-120780-131644-115603-70803 16111
649.90 19446-93119-108789-41112-31232-47571
652.79-135384-187497-241766-237401-181649-168308
655.68-155773-86383-52008-11570-42367-9629
658.58 15326-47201-185436-200859-108596-53407
661.47-48417-103616-45587 24821 30592 18901
664.36-6929-56111-15466-36825-129028-452856
667.26-683163-480932-202468-51605 35415 48966
670.15-27411 24682 46532 31012 16348 27168
673.04 56781 11224 25051 108968 101243 101573
675.93 83686 43919 80508 159947 164061 148547
678.83 103980 125422 178053 201501 221225 278480
681.72 256639 232166 282557 294988 303703 316600
684.61 307081 334944 429102 466867 412063 461950
687.50 459483 488312 583937 608904 605130 633835
690.40 769522 863379 851413 902231 924044 923004
693.29 964316 939254 1007632 1111426 1129063 1131301
696.18 1125694 1245843 1356451 1440308 1516702 1598714
699.08 1701125 1808862 1817474 1827235 1888471 2000161
701.97 2049829 2113579 2207626 2297338 2393424 2501608
704.86 2557875 2640859 2683091 2682495 2799409 2921248
707.75 3069949 3210088 3272404 3383280 3464793 3510353
710.65 3603067 3723128 3814241 3993861 4113591 4214539
713.54 4332136 4331735 4480934 4645164 4596070 4640581
716.43 4705002 4752535 4953684 5068768 5035159 5124108
719.32 5154231 5281576 5504213 5513064 5611445 5790816
722.22 5815343 5913070 5966238 6013827 6194849 6259425
725.11 6353592 6628963 6692514 6719082 6843440 6874949
728.00 7125662 7460118 7777050 8344079 9002729 9918811
730.90 11067597 12007313 12432001 12227648 11019843 9369781
733.79 8772453 9077127 9547585 9635932 9430023 9306248
736.68 9280738 9423426 9601508 9646908 9817029 9828720
739.57 9781653 9881886 9793796 9845543 9861144 9645598
742.47 9659610 9531032 9471055 9555092 9412972 9505460
745.36 9909065 10591340 11917671 12056963 10904846 11209520
748.25 11559628 11348819 11293143 11180223 10608969 10069870
751.14 9883437 9607557 9332727 9229134 9140574 8947946
754.04 8885054 8871109 8791644 8758662 8727794 8713635
756.93 8745929 8636064 8524882 8480105 8341113 8260692
759.82 8242032 8107269 7974471 7841431 7714775 7531956
762.72 7326381 7157354 6934059 6765347 6635360 6441531
765.61 6251986 6080947 5882600 5713132 5553911 5452966
768.50 5237992 4969826 4853163 4758578 4566502 4398132
771.39 4307596 4208225 4072532 3991264 3922913 3835560
774.29 3780993 3793097 3715204 3603829 3572001 3549724
777.18 3486940 3468172 3446060 3382139 3361396 3335641
780.07 3278434 3251963 3160589 3105965 3065984 3009972
782.96 2977014 2890474 2813279 2723115 2609165 2544118
785.86 2364619 2200860 2062104 1966504 1938991 1925945
788.75 1938676 1908903 1899258 1960046 2057897 2082816
791.64 2102919 2156070 2245720 2322211 2379363 2394877
794.54 2341809 2264487 2280853 2284730 2232510 2147760
797.43 2063799 2000071 1930651 1911437 1890608 1850472
800.32 1777841 1754674 1693299 1658248 1621142 1537166
803.21 1523377 1521984 1492400 1386823 1309690 1286418
806.11 1306571 1215883 1093907 1039592 1007530 974406
809.00 903935 849628 879481 852439 734590 694612
811.89 686782 670787 635010 676613 678075 593774
814.78 532833 459426 438210 471690 481204 461688
817.68 400221 354984 348789 251389 204710 273874
820.57 311329 283057 210181 155312 184785 216283
823.46 165537 136100 124040 117880 129861 105164
826.36 120750 155900 75306 34327 43219 79038
829.25 111266 42120-15987-31865-25380-30174
832.14-40905-26657 8841 32837-11561-33736
835.03 32758 28434-10336 29784 21684 3534
837.93 5790 23236-30925-72098-106758-79227
840.82-7853 24296 15720-42213-18883 13504
843.71 38776 56523 54945 31460 31560 43135
846.60 3676-49675-27985-20203-40368-41162
849.50-78790-83118-2670-23580-40224-11180
852.39-12169-38032-47073-48023-26594-28106
855.28-18994 20849-10748 17679 36099-18330
858.18-34623-55754-68418-20599 41983 30266
861.07-48448-63985-31511-24054-5622 34469
863.96 36618 9255-13121-27060-17189-450
866.85-6211-52906-78413-26146-8815-2710
869.75 41179 17031 3439 15058 10107 1699
872.64-11526-36115-33412-17345-19070-22103
875.53-35676-40733-42892-40384-11132-24956
878.42-32048-6712 14510-1557-61809-63236
881.32-20204 35123 36625 283-35025-49299
884.21-35310-11950-24154-23317-32427-29950
887.10-21125-32718-39179-39730-60661-84215
889.99-61124-34990-53120-71008-60474-56494
892.89-60097-22684 13817 19791-11034-37178
895.78-30862-40774-23072-17205-11363-30414
898.67-24725-22972-53853-32652 31985 51947
901.57 41540 27431 26721 59934 33815-14677
904.46-9440 44704 87803 107802 120570 121007
907.35 106305 116300 138232 140828 173440 185316
910.24 193063 216202 204078 227915 225237 257689
913.14 283748 284402 284238 293045 330621 400755
916.03 442495 442907 459439 491707 505306 549632
918.92 607689 624491 636803 694232 736409 755639
921.81 767070 818884 922235 1006592 1044581 1067365
924.71 1115464 1205225 1280068 1349952 1399210 1476664
927.60 1579762 1664191 1700202 1806068 1917547 2024075
930.49 2128934 2231128 2373726 2539614 2627424 2776176
933.39 2972211 3132928 3308968 3525968 3695831 3882958
936.28 4073688 4300726 4568468 4803456 5016671 5351665
939.17 5637922 5892004 6183538 6506105 6817737 7141447
942.06 7420886 7740511 8169423 8560036 8840655 9190641
944.96 9548425 9938275 10403554 10799382 11194248 11871097
947.85 12223420 12206135 12395799 12610823 12732894 12793314
950.74 13004919 13177656 13313936 13678923 14044150 14567004
953.63 15375133 16306218 17844439 20076638 22632149 23369863
956.53 21081547 18693400 17124867 16460994 16587465 16983718
959.42 17210349 17466090 17686097 17901608 18124267 18378198
962.31 18628690 18932215 19050391 18920022 19043763 20056173
965.21 21285458 21803730 21873375 21444472 21079405 20823504
968.10 20743642 20622894 20510249 20517973 20438239 20471228
970.99 20454892 20163999 19927239 19622122 19270544 18977969
973.88 18590645 18162632 17904032 17490987 17138007 16909865
976.78 16527764 16126973 15682529 15097239 14597848 14112459
979.67 13593783 13216368 12924700 12599629 12426684 12234604
982.56 11762581 11424637 11303971 11024927 10794574 10818166
985.45 10535494 10041776 9794450 9660465 9564168 9290268
988.35 9072584 8932840 8739392 8528830 8285649 8045242
991.24 7877724 7685555 7460234 7247427 7023230 6796138
994.13 6554277 6313665 6102323 5883251 5695620 5484743
997.03 5268491 5060211 4859675 4666649 4464725 4207114
999.92 4009801 3849372 3685678 3520582 3408031 3310782
1002.81 3202919 3061083 2921497 2838215 2760113 2639648
1005.70 2512616 2392183 2264475 2187356 2151957 2091201
1008.60 2031172 1962333 1892386 1839772 1787313 1720829
1011.49 1637543 1587795 1546478 1484970 1429420 1364981
1014.38 1326575 1282292 1240722 1224587 1167119 1085416
1017.27 1062927 1045851 1033627 1010257 965849 916580
1020.17 882581 845100 824062 837622 826161 750417
1023.06 685263 666854 621737 610095 655382 627618
1025.95 578784 567601 547136 542477 514145 460861
1028.85 461511 463597 446601 443557 453712 477029
1031.74 498227 481438 462591 419756 387546 372710
1034.63 405024 383851 360732 369568 376203 318167
1037.52 266057 257721 299982 297582 264807 229198
1040.42 199861 210141 227745 202774 169082 160842
1043.31 144647 88835 57015 86236 137602 136000
1046.20 113395 88930 113825 116449 70434 74665
1049.09 78407 80341 92583 112729 102964 81406
1051.99 61013 61021 55202 77114 94505 92477
1054.88 98615 101836 105430 102699 93913 90932
1057.77 97589 71436 52336 100456 146188 116137
1060.67 106956 107786 98373 130482 160531 163014
1063.56 185562 181979 186535 185276 167955 160258
1066.45 183624 188176 161285 165716 184591 195109
1069.34 183426 182407 216531 239181 260833 243261
1072.24 207948 234691 251472 276352 254625 210672
1075.13 204727 217620 199988 231896 226737 190043
1078.02 129923 131106 160308 164731 157464 189002
1080.91 233430 271515 275659 283449 276558 247124
1083.81 301679 321710 306176 293628 266614 272378
1086.70 275118 271034 290610 304830 321980 336058
1089.59 319743 288881 286567 294353 320148 315508
1092.49 284512 255330 277710 285335 287135 239154
1095.38 210308 210413 208292 234367 261171 297287
1098.27 282645 266452 262731 235373 242681 256516
1101.16 247399 257460 298241 308246 305853 316360
1104.06 345959 348943 361413 376736 396377 400158
1106.95 420224 448002 460802 488928 521261 544733
1109.84 565900 619628 689405 746687 802264 858810
1112.73 904035 962788 1017309 1102987 1177032 1280527
1115.63 1397239 1454161 1527006 1649222 1779984 1859565
1118.52 1943549 2042080 2132488 2241367 2369024 2426858
1121.41 2487693 2609002 2681403 2713718 2777741 2871167
1124.31 2893620 2914312 2963506 3000537 2996217 2995873
1127.20 3030490 3106978 3156303 3173468 3153948 3115688
1130.09 3102567 3072461 3080767 3133072 3186114 3306857
1132.98 3544982 3714340 3820335 3909961 3809573 3657527
1135.88 3485973 2814105 2037439 1729060 1777993 1930823
1138.77 2089232 2263088 2440729 2614686 2776066 2906538
1141.66 3017688 3131606 3185980 3180967 3152405 3122969
1144.55 3046113 2943391 2820943 2721850 2616664 2485477
1147.45 2349746 2224716 2105784 1955160 1831025 1693974
1150.34 1572195 1482528 1372589 1282248 1164880 1071628
1153.23 987372 921473 851327 722866 643660 618569
1156.13 585512 543679 464789 408445 359181 335243
1159.02 340850 335674 279869 233163 232705 221650
1161.91 192453 194725 196210 215175 217314 199620
1164.80 168055 132279 135343 153809 160148 163017
1167.70 138600 133870 138872 140253 152674 145031
1170.59 135387 149901 185530 197249 196899 207903
1173.48 214524 213682 234112 232384 221064 223485
1176.37 211893 193877 191277 185790 170206 187700
1179.27 188269 175523 213617 239435 222278 209597
1182.16 225854 228066 202972 192007 190666 195087
1185.05 206317 201171 186726 202812 223671 212879
1187.95 198267 196689 181772 208683 235887 215825
1190.84 212803 219067 193438 175917 189368 193937
1193.73 208851 239440 243256 211357 202172 196474
1196.62 193251 208505 244104 250113 207610 172738
1199.52 194084 232003 241337 241342 226117 219090
1202.41 193219 169128 176964 233800 255640 256680
1205.30 244262 209926 198494 231446 268848 282188
1208.19 272502 246168 260451 270035 256863 257484
1211.09 276522 267699 277645 285362 288915 293616
1213.98 299284 324654 332852 314295 317790 348302
1216.87 353927 340359 375404 375220 370278 369315
1219.77 375547 410581 409705 419233 435932 454964
1222.66 468078 458402 478634 489969 493537 506357
1225.55 521072 536657 529126 539674 554843 547949
1228.44 576025 618863 617233 602664 614612 623326
1231.34 650867 673441 692543 697379 708104 724541
1234.23 744033 788767 796378 822519 851192 859720
1237.12 858854 880805 898696 928241 934075 953620
1240.01 973062 1006754 1039401 1063294 1078907 1111836
1242.91 1141323 1151604 1173716 1178383 1188070 1212802
1245.80 1247737 1301674 1345210 1368207 1404996 1449311
1248.69 1476207 1498831 1526805 1547955 1579659 1605271
1251.59 1642684 1668874 1702337 1724305 1710748 1703824
1254.48 1720931 1714838 1746667 1786483 1802515 1825102
1257.37 1858542 1883240 1889580 1879247 1843502 1859549
1260.26 1895577 1952026 2045834 2175879 2351432 2286828
1263.16 2045525 1945351 1965738 2022824 2081065 2166633
1266.05 2207329 2250733 2296631 2370603 2418982 2473222
1268.94 2530591 2575262 2644361 2723780 2817136 2938337
1271.83 3043774 3127137 3246826 3425331 3592128 3756134
1274.73 3931017 4128139 4308449 4496319 4748468 5029797
1277.62 5285539 5551265 5832211 6145183 6441960 6748014
1280.51 7059718 7343009 7640521 7972625 8233697 8430579
1283.41 8601649 8767409 8920380 9050023 9130302 9115331
1286.30 9046658 8928095 8743040 8527863 8248107 7961396
1289.19 7650888 7242850 6849311 6658854 6784037 7146480
1292.08 7565963 8251153 9307723 10358637 10761369 10360817
1294.98 9050231 7668713 7078466 7115458 7404956 7798244
1297.87 8172576 8515639 8861488 9161331 9456752 9699350
1300.76 9772216 9689492 9562215 9397450 9224614 8995251
1303.65 8649778 8358801 8068949 7745693 7390926 7047408
1306.55 6698388 6345690 5948064 5590025 5290002 4978360
1309.44 4644902 4327867 4042374 3809789 3592190 3364015
1312.33 3164068 2962173 2769298 2613703 2442392 2315132
1315.23 2219501 2123219 2040528 1977024 1921016 1885162
1318.12 1866333 1851756 1859396 1871557 1901914 1943122
1321.01 1997673 2081759 2156685 2255338 2362921 2447047
1323.90 2554309 2700892 2861096 3001340 3105657 3233168
1326.80 3389309 3550451 3694743 3849888 4010183 4159111
1329.69 4278334 4425298 4561092 4687070 4775775 4848944
1332.58 4919116 4955391 4970338 4937677 4849683 4781207
1335.47 4699883 4628056 4540723 4452282 4361319 4282791
1338.37 4183113 4151867 4174394 4298376 4548017 4970028
1341.26 5584908 6391916 7190254 7805325 7932555 7289643
1344.15 5717508 4238760 3772978 3773870 3887171 4055356
1347.05 4310858 4624143 4902043 5089219 5265645 5547174
1349.94 5894526 6233363 6462610 6641375 6791434 6948428
1352.83 7073484 7157359 7145185 7180179 7226945 7252560
1355.72 7266608 7327116 7351473 7311464 7313414 7391285
1358.62 7425927 7533583 7646374 7785785 8001287 8233120
1361.51 8490762 8829151 9198035 9580221 10017594 10555112
1364.40 11134835 11738697 12363609 13089228 13810616 14580219
1367.29 15404755 16300089 17241496 18240273 19184747 20177870
1370.19 21201098 22240264 23260777 24220890 25195131 26182159
1373.08 27119293 28009453 28673780 29222570 29757655 30130853
1375.97 30311384 30490251 30379781 30143167 29915526 29655189
1378.87 29100092 28614411 28205808 28168417 28554934 29842382
1381.76 33080936 38969904 42203159 40959611 38645071 36286265
1384.65 34335430 31391760 28851701 27577193 27586528 28294410
1387.54 29681833 31635665 33641165 35479069 37535205 39516263
1390.44 40855359 41502079 42155860 42668334 42956095 42909164
1393.33 42701390 42195461 41525249 40636824 39549954 38313599
1396.22 36981822 35470014 33954987 32359226 30735558 29116212
1399.11 27492729 25938166 24474915 23020768 21690825 20330261
1402.01 19087665 17996169 16951360 15976104 15157433 14359721
1404.90 13636533 12998442 12396583 11836966 11366631 10959592
1407.79 10625282 10295108 10048363 9858552 9763821 9598107
1410.69 9365079 9160922 9008117 8884957 8848609 8802095
1413.58 8732202 8696357 8712653 8717258 8725473 8721191
1416.47 8744114 8741075 8770666 8824675 8956007 9137248
1419.36 9183442 9212481 9330106 9437354 9592062 9762546
1422.26 9997824 10242303 10467437 10721603 10973990 11233806
1425.15 11550155 11863193 12254460 12617832 12970799 13438558
1428.04 13896962 14289394 14751712 15192319 15703971 16288405
1430.93 16780660 17289383 18075411 18757600 19399971 20140148
1433.83 20964865 21731958 22532144 23494635 24378219 25276408
1436.72 26287663 27287636 28224120 29270181 30511188 31575372
1439.61 32692730 34016027 34988866 36120832 37591945 38802106
1442.51 40164367 41337765 42484961 43712846 44474117 45436317
1445.40 46603584 47479913 48535419 49393251 50486660 51439590
1448.29 52033998 53121745 53775484 54513564 55566918 55987440
1451.18 57353520 58723680 59741861 60668790 61018917 62285465
1454.08 63175937 63494891 64402334 65307468 65796282 65504878
1456.97 65209330 66583075 67577445 69271646 71178263 72851132
1459.86 75864161 79141387 84897176 91661838 93370519 88512458
1462.75 83814046 82470801 84478776 89120482 96383251 106437992
1465.65 112406973 102464323 91457180 85225954 80148854 78244163
1468.54 77446377 77860478 80022133 82907870 86102248 87043096
1471.43 83219984 75991824 69871770 66807467 63416490 59900075
1474.33 58921811 58906287 58981288 59394481 60117512 61777100
1477.22 62914445 63397830 64681288 65235949 65137049 65687859
1480.11 65353831 64559182 64879254 64187090 62532249 62259775
1483.00 61503020 59869294 59107071 58139529 56802733 55818626
1485.90 54282155 53039435 52330176 50660297 49130882 48221114
1488.79 46808114 45470973 44481812 42937576 41515228 40522673
1491.68 39189622 37967496 36943913 35813351 34511717 33539151
1494.57 32648136 31337823 30524575 29706737 28452308 27587728
1497.47 26980711 25940811 25034188 24420150 23483912 22713211
1500.36 22037717 21262825 20575187 19961275 19240994 18667717
1503.25 17920054 17350096 16891595 16261910 15794667 15240884
1506.15 14651711 14254407 13604465 13001946 12578360 12149327
1509.04 11601363 11262980 10813436 10288833 10020198 9700069
1511.93 9217745 8892963 8638067 8174078 7859655 7655453
1514.82 7250534 6896678 6730425 6466431 6190809 5969042
1517.72 5677744 5414170 5201419 5021311 4860181 4684230
1520.61 4610752 4402271 4070085 3914594 3750402 3510727
1523.50 3324114 3256517 3182473 3085380 2909959 2765867
1526.39 2662322 2552353 2439231 2346585 2243466 2140005
1529.29 2025371 1945872 1899612 1831398 1767996 1711137
1532.18 1686140 1661018 1645334 1584513 1451079 1382104
1535.07 1351312 1325942 1281430 1258450 1240481 1218533
1537.97 1258375 1407053 1331254 1258986 1292555 1177925
1540.86 1125242 1209373 1184293 1055027 1027224 1011904
1543.75 1001267 1020909 1036265 979499 941790 947684
1546.64 975035 980440 958101 964902 989861 1008240
1549.54 1006784 993667 980797 985110 1002092 1021561
1552.43 1041940 1059999 1120717 1207233 1157104 1099008
1555.32 1077273 1090782 1130753 1252655 1306348 1401909
1558.21 1458903 1354421 1421602 1512917 1398836 1276258
1561.11 1289077 1299110 1306388 1303752 1296365 1317583
1564.00 1371877 1420087 1436196 1431216 1477827 1500646
1566.89 1510926 1518900 1538329 1576127 1646532 1685694
1569.79 1640343 1613712 1627686 1634670 1642017 1679644
1572.68 1739905 1727275 1685250 1689236 1727485 1840997
1575.57 2033632 1940019 1758962 1730205 1739354 1735759
1578.46 1709934 1691687 1680336 1678052 1683579 1678820
1581.36 1681368 1652108 1618617 1603981 1617527 1642463
1584.25 1622138 1584167 1570636 1595803 1602872 1584700
1587.14 1556045 1556701 1567664 1552995 1532001 1537535
1590.03 1544196 1524431 1514275 1504153 1467249 1434360
1592.93 1431854 1415584 1399882 1377751 1348456 1319890
1595.82 1314304 1324703 1291357 1245114 1247612 1241620
1598.71 1221659 1176935 1158734 1144565 1121397 1104976
1601.61 1086447 1069573 1039113 1025701 1015857 975851
1604.50 955358 942581 946315 969436 971413 961808
1607.39 971362 972560 956649 943709 965093 968687
1610.28 945558 946998 971492 979572 979457 970956
1613.18 991089 985222 979365 998821 1051743 1126512
1616.07 1282907 1219660 1075878 1065173 1053910 1036989
1618.96 1037808 1023029 1005094 996504 996153 965010
1621.85 940402 953806 1006373 998159 916112 888036
1624.75 909394 958285 982251 1022457 1060395 1096327
1627.64 1096270 1083748 1085346 1100072 1119993 1123677
1630.53 1118388 1128015 1182033 1213579 1209589 1223314
1633.43 1217104 1239262 1313723 1391334 1374393 1241821
1636.32 1191158 1184151 1189839 1165212 1168446 1154460
1639.21 1138047 1129464 1133485 1127587 1111300 1091265
1642.10 1090525 1082567 1079241 1105974 1137389 1158160
1645.00 1253779 1345117 1257255 1194959 1228069 1239525
1647.89 1247134 1231235 1243126 1225956 1215153 1217785
1650.78 1256311 1377960 1585143 1656612 1712739 1563748
1653.67 1427284 1453995 1392477 1350891 1356243 1379820
1656.57 1399383 1388323 1399335 1437807 1414708 1394708
1659.46 1428701 1458393 1447754 1459673 1480511 1538348
1662.35 1549476 1467951 1446874 1470210 1452604 1439458
1665.25 1460450 1486583 1486653 1504983 1540384 1581825
1668.14 1617420 1723857 1743983 1668690 1637115 1641372
1671.03 1668366 1639425 1605032 1592750 1585268 1563150
1673.92 1575427 1651898 1701744 1593000 1478132 1432001
1676.82 1420964 1402839 1385393 1394802 1382141 1393408
1679.71 1421084 1439881 1455509 1441226 1429657 1466004
1682.60 1541454 1554187 1610978 1800027 1849868 1620051
1685.49 1496452 1456527 1440543 1400427 1383580 1379910
1688.39 1372616 1352582 1378428 1381196 1368996 1332784
1691.28 1309614 1295751 1272456 1277363 1291063 1281628
1694.17 1297935 1368096 1537348 1538898 1344064 1281977
1697.07 1276181 1249865 1241444 1265979 1379048 1515035
1699.96 1495154 1399661 1272284 1241947 1251918 1258608
1702.85 1225055 1226365 1260006 1237914 1215501 1259028
1705.74 1291680 1267200 1234808 1212069 1201261 1227309
1708.64 1239321 1244065 1252365 1222940 1176704 1180175
1711.53 1200254 1228681 1218978 1206403 1200219 1215135
1714.42 1264643 1252354 1196274 1179294 1244806 1405273
1717.31 1286972 1162446 1181463 1148591 1117713 1115340
1720.21 1121253 1109664 1094404 1072404 1067346 1072952
1723.10 1081680 1066688 1069562 1076445 1038189 1008109
1725.99 990849 945645 916098 892606 889362 897094
1728.89 902926 897696 887379 874478 855244 855541
1731.78 865037 878036 981916 963227 958532 980635
1734.67 795597 697492 685322 694807 668114 634414
1737.56 611944 595468 598448 660469 647461 564627
1740.46 526254 517179 493456 481170 502035 495076
1743.35 462051 416377 392088 406718 414092 412461
1746.24 409690 399496 378375 377470 387844 392812
1749.13 391273 355052 361331 438116 458536 372611
1752.03 322940 302960 302157 306958 296235 278736
1754.92 287392 302657 332435 342120 300879 279425
1757.81 285501 290251 269773 278346 286599 274828
1760.71 307653 385290 373356 298174 276508 288403
1763.60 282013 277051 277661 275722 291019 285587
1766.49 293207 303236 332851 323041 284260 296751
1769.38 286422 271562 298804 325724 311515 381403
1772.28 440383 338801 278349 305443 309526 297836
1775.17 314304 316712 329338 330961 316811 324487
1778.06 323313 316821 320416 340260 378130 372829
1780.95 350304 364397 378902 387326 369687 355352
1783.85 361221 403293 398489 349641 336386 345218
1786.74 349626 365915 380628 389758 404751 392855
1789.63 380166 406794 414999 381130 416646 498569
1792.53 469233 401863 397075 386371 395502 422323
1795.42 446026 438348 437654 433033 424615 431167
1798.31 427183 444605 459195 435338 424770 433221
1801.20 437920 448272 433330 404650 414457 437142
1804.10 446537 431990 420820 424435 425748 421599
1806.99 422870 429680 440542 441598 434188 430461
1809.88 455442 461711 445272 445632 439093 417434
1812.77 423353 441733 444883 428167 413935 417527
1815.67 399424 387658 397628 394480 367391 374276
1818.56 392425 377916 363571 368013 371925 365194
1821.45 356140 351825 346786 330321 321240 321226
1824.35 347906 336349 292072 275085 278344 280895
1827.24 272702 263357 272773 275384 271585 263067
1830.13 216886 205730 206415 177243 173684 172896
1833.02 172639 149413 125833 134506 141907 127161
1835.92 110936 117230 118539 104100 92512 88340
1838.81 97418 94687 83127 80399 79805 70301
1841.70 63371 56377 62697 105215 184086 135889
1844.59 44079 36081 33518 26573 25603 42633
1847.49 46275 23779-924-6017-706 13930
1850.38 10972-7449-3118 2712 5605 7317
1853.27 4690-17941-13484 10900-1682-12628
1856.17-2241-6318-13638 4510 19958 12707
1859.06 7438 10798-12622-22348 2459 10192
1861.95-2214-167-6706-7726 5523 2887
1864.84 11115 15321 19532 15721 28823 44805
1867.74 33258 32465 58649 38510 25818 40512
1870.63 46887 48588 43992 34695 45700 59077
1873.52 62567 65641 85020 93225 96105 83056
1876.41 86335 105349 112250 109358 102523 122574
1879.31 146481 161489 161922 164105 174081 189826
1882.20 193237 177425 169139 171964 192750 228535
1885.09 244009 251299 268707 258248 246470 241254
1887.99 249779 280670 308388 311409 308564 322687
1890.88 330885 334012 340026 350006 363701 380194
1893.77 400968 428043 419982 410643 419372 429851
1896.66 429144 455905 483312 501985 507982 488104
1899.56 471739 476660 504464 505656 516627 537676
1902.45 530994 528307 508660 504319 511321 509742
1905.34 508735 512057 505358 498886 512092 527376
1908.23 529524 527272 520190 521089 520791 498852
1911.13 482950 482768 480944 489621 509962 522381
1914.02 528372 520154 506320 493328 480331 479123
1916.91 506326 562902 559065 536786 547978 561109
1919.81 544690 511875 505304 521411 546564 537260
1922.70 513886 502786 505669 498752 476854 468569
1925.59 466813 458250 443021 433110 416903 406634
1928.48 414596 414266 410935 403479 414474 414723
1931.38 396131 380859 380921 395039 394119 368290
1934.27 335034 333212 357559 360133 360991 365166
1937.16 360635 337028 312176 273628 266808 265540
1940.05 269401 278127 274165 281214 270666 236170
1942.95 200159 196770 204953 202999 214710 219120
1945.84 210204 186704 186222 208919 200474 183901
1948.73 189570 194248 185452 166033 164512 165293
1951.63 165398 149912 129298 116774 121771 120703
1954.52 96717 84960 92794 78955 75186 52995
1957.41 21422 28473 41456 42707 27675 11787
1960.30 7199 11551 11996 21916 13488-10056
1963.20-7207 7562-341-19026-12041-4674
1966.09-7343-27703-40475-30704-15956-11390
1968.98-29075-60198-69206-56793-41203-49840
1971.87-57128-58031-47054-57740-77288-71287
1974.77-39820-29964-37274-32110-45070-71465
1977.66-74507-81254-59908-57409-72188-58676
1980.55-38869-43710-53147-65446-54460-50461
1983.45-67365-74819-52388-47476-55484-70785
1986.34-72819-62813-44888-51181-49148-40778
1989.23-51861-57608-47904-49253-50427-38379
1992.12-24381-22468-43450-56316-50880-41323
1995.02-35037-30500-14917-26141-58070-57820
1997.91-30338-14805-24039-37434-22987-7306
2000.80-11208-14849-14261-13441-6580-8475
2003.69 114 6445-1060 7915 27627 28889
2006.59 16413-6660-17866 12329 53779 49392
2009.48 37281 31060 33249 41776 42265 52201
2012.37 79870 83753 85648 96425 93879 105263
2015.27 121801 126712 154421 200991 220821 215524
2018.16 204480 225085 243198 272003 297119 314436
2021.05 319434 326509 355310 401215 431011 447349
2023.94 471248 478789 509518 530704 541605 546735
2026.84 561792 583502 598623 628024 649771 668955
2029.73 687459 679332 660115 666042 677033 671503
2032.62 680850 667859 644955 634846 619755 612226
2035.51 645467 715211 776316 796334 803279 740036
2038.41 650628 616479 633729 668081 679858 684479
2041.30 695486 704405 732761 777933 809803 826752
2044.19 821322 807743 821855 834958 814982 781322
2047.09 770870 760877 735950 702415 689216 670379
2049.98 657899 625489 576524 564182 558667 535385
2052.87 524844 501874 468977 441036 415936 374693
2055.76 350181 336224 335080 338626 317880 284186
2058.66 260930 277563 284544 265202 259348 261849
2061.55 256342 237403 201569 195070 217835 227335
2064.44 206342 174833 155588 158080 162168 159897
2067.33 154444 155890 167324 163890 158085 150645
2070.23 143533 171571 186316 179903 177639 183732
2073.12 166689 145253 147496 154961 163014 184018
2076.01 173259 140547 154508 172547 177570 162929
2078.91 155726 163383 162354 173961 193059 218346
2081.80 218647 205760 206880 199504 202978 210494
2084.69 212282 239080 280174 255576 220669 215978
2087.58 205951 214374 240760 257259 279352 330472
2090.48 315816 267871 267851 265429 263300 276845
2093.37 291502 326050 402379 372444 325556 327649
2096.26 321127 308285 305772 324468 387184 415526
2099.15 356563 336467 342354 347644 360711 375220
2102.05 391179 470840 478181 398590 407739 416976
2104.94 399533 410112 425928 474952 548796 509258
2107.83 474783 441021 413233 435243 455869 467885
2110.73 552075 580157 504153 486275 506014 515256
2113.62 508324 515063 581129 653305 596592 522719
2116.51 514628 528188 535643 541679 565752 659216
2119.40 696243 643488 638664 631376 621168 628096
2122.30 661730 724525 763690 699189 667163 659915
2125.19 667538 659220 659212 703181 773722 723720
2128.08 673411 676794 652123 617928 627547 647204
2130.97 698105 695706 643449 619910 632836 647461
2133.87 663924 649387 660859 670754 641399 653183
2136.76 663974 654797 674113 690532 708905 708171
2139.65 685305 681020 696491 700197 698708 707643
2142.55 720284 708176 711249 717078 704474 710333
2145.44 739485 726960 715125 697586 672562 661079
2148.33 653070 657310 658097 662609 699104 666893
2151.22 639839 628207 599942 608182 635359 684339
2154.12 728058 689651 643398 638031 625115 624459
2157.01 647338 737880 750575 663073 631332 656356
2159.90 678525 679971 725602 800206 779412 734202
2162.79 731885 729500 738755 741877 810097 863044
2165.69 807232 767544 752394 754514 788593 875857
2168.58 996861 953030 844723 797427 775326 758328
2171.47 758032 852798 875858 763395 727449 716902
2174.37 735419 728576 781226 845742 754181 686424
2177.26 685509 705465 715349 765775 837730 765077
2180.15 694535 703373 713833 712522 742883 817505
2183.04 786016 714709 716029 703426 707779 732957
2185.94 818440 815008 758623 763056 733931 700076
2188.83 721843 791634 793966 719543 685389 689943
2191.72 698707 687926 738638 758027 724179 697381
2194.61 708558 716769 729510 761285 731239 711080
2197.51 732682 732489 731573 772948 806427 784751
2200.40 780698 771543 764257 777641 803052 797155
2203.29 754188 766445 773800 751940 790247 829869
2206.19 792301 761016 759134 747434 760119 786766
2209.08 807733 807065 788353 780159 804427 823759
2211.97 836167 812570 779339 779379 782502 767961
2214.86 753225 740456 736196 735669 731102 725715
2217.76 730663 751575 760259 762978 757929 754841
2220.65 750999 759056 773775 750249 730972 729712
2223.54 715556 697243 703741 729359 734551 714841
2226.43 685190 661342 651048 653173 647965 640648
2229.33 640510 628280 619901 611236 595049 578922
2232.22 589475 576250 578069 566784 530996 522000
2235.11 536135 541280 519885 500011 471293 454449
2238.01 452642 434221 439812 445770 438441 435760
2240.90 450328 462266 474561 469547 472423 466790
2243.79 465768 473228 470751 465729 464193 461821
2246.68 450810 432164 431241 448585 472447 497377
2249.58 514341 516155 508077 491954 499984 515008
2252.47 499195 487414 493115 496973 523820 537647
2255.36 526915 527646 549313 553364 565573 570119
2258.25 572048 574521 584646 593314 606897 601179
2261.15 603737 601380 605135 607635 611187 620986
2264.04 638556 636258 616130 625166 626234 629136
2266.93 633025 627350 618815 615706 612077 589803
2269.83 600401 610354 622986 636649 622552 611503
2272.72 599612 582020 606274 642759 662325 682955
2275.61 700838 718109 724174 710969 706026 706048
2278.50 726860 750135 782579 803910 808483 807071
2281.40 823358 847270 865960 859001 865967 865017
2284.29 867647 858520 865811 881918 882626 882036
2287.18 896219 896683 893511 875032 875201 883831
2290.07 904213 891142 882647 904706 906348 895145
2292.97 889268 891634 888416 896494 876579 832371
2295.86 825177 856240 899144 907562 915134 947585
2298.75 979872 988040 996390 1029087 1074451 1085293
2301.65 1075568 1041665 1052731 1083797 1110034 1089577
2304.54 1118019 1116188 1107642 1084371 1035024 1045010
2307.43 1057458 1062118 1019766 1014705 1058195 1044512
2310.32 967533 936450 1006129 998057 928845 878508
2313.22 952127 975945 951165 848497 922929 986636
2316.11 965604 852174 898437 975461 931699 761617
2319.00 815940 948136 927430 725632 767766 965013
2321.89 960123 777843 828688 1017245 915052 634043
2324.79 708679 967001 864669 589322 723903 995112
2327.68 839581 578990 782565 1038637 798842 587025
2330.57 889480 1063600 716342 615849 1022301 1073202
2333.47 672294 750803 1121728 952535 638312 939563
2336.36 1196299 819559 670182 1055995 1015820 661508
2339.25 852872 1138737 854436 708236 1046370 1059772
2342.14 782483 944579 1120352 900444 870442 1117712
2345.04 1101197 1014748 1143103 1215672 1157007 1206918
2347.93 1286423 1307279 1279030 1241305 1265464 1230852
2350.82 1120095 1180380 1225304 1024396 1035312 1152318
2353.71 908076 876461 1041794 790529 812175 1007301
2356.61 660822 679181 940078 592246 679691 875747
2359.50 504665 683676 776107 437026 750372 700668
2362.39 453984 808085 592344 548549 787464 504125
2365.29 681595 739803 593547 869754 738792 804835
2368.18 873171 751600 946110 875728 951383 1044955
2371.07 1038365 1192301 1137951 1227510 1241262 1310922
2373.96 1354516 1368475 1432717 1431609 1496578 1526079
2376.86 1600431 1627510 1665054 1685314 1712251 1742200
2379.75 1779819 1779083 1736267 1692977 1687434 1673465
2382.64 1638003 1593718 1570541 1519916 1475048 1428219
2385.53 1409679 1410365 1447193 1493734 1511194 1557877
2388.43 1617759 1693823 1663093 1480471 1364457 1363535
2391.32 1393192 1441142 1521190 1579752 1613148 1662957
2394.21 1712011 1758173 1799944 1833971 1864267 1887636
2397.11 1882380 1872940 1850467 1796349 1731568 1729903
2400.00 1708190 1634301 1593642 1543034 1482339 1403198
2402.89 1344209 1310541 1287459 1242713 1198517 1196197
2405.78 1214017 1247392 1287793 1285010 1278994 1254307
2408.68 1222876 1218992 1251682 1294427 1324928 1360069
2411.57 1393214 1433388 1486956 1522431 1540801 1562985
2414.46 1618174 1654817 1655548 1681102 1720634 1754658
2417.35 1770280 1790686 1780731 1746972 1736439 1720861
2420.25 1710746 1702713 1701625 1706721 1686831 1702075
2423.14 1751302 1766492 1778337 1788836 1824791 1871423
2426.03 1908372 1932002 1953033 1974124 1988545 2001825
2428.93 2022360 2058279 2086835 2110075 2095869 2114445
2431.82 2121504 2097283 2092325 2105258 2122503 2146679
2434.71 2159481 2154422 2103008 2060320 2043268 2024770
2437.60 2023887 2011253 1994134 2001049 2014358 2001038
2440.50 1951395 1916086 1887812 1847467 1804975 1787272
2443.39 1785817 1791085 1798032 1787663 1774267 1800466
2446.28 1801504 1788542 1792245 1801497 1779636 1762214
2449.17 1777281 1769241 1742057 1715141 1694515 1676490
2452.07 1658433 1599658 1527950 1484189 1437814 1379676
2454.96 1316585 1271810 1241739 1195289 1141323 1085812
2457.85 1053774 1029484 998751 963336 906721 859691
2460.75 858698 836173 802660 759043 726727 695445
2463.64 661277 629260 639181 645438 646600 643020
2466.53 614565 587694 576202 569224 539651 527506
2469.42 542249 549779 541415 529926 509372 492416
2472.32 495814 481858 457265 453421 427751 404120
2475.21 396155 358215 354039 350361 334483 322824
2478.10 307090 310288 300247 297406 309633 321288
2480.99 323594 301275 328746 331372 302519 280743
2483.89 267752 284666 284777 264217 257664 241606
2486.78 227941 231258 254447 265034 258114 248055
2489.67 249315 258996 240119 224486 222505 227020
2492.57 209839 181730 194714 214551 224132 212077
2495.46 226045 236884 234602 222572 204550 213819
2498.35 233276 241501 229394 223955 224397 202508
2501.24 205603 229609 235007 235855 259172 280847
2504.14 288805 287491 297504 310427 323792 334147
2507.03 340045 340007 337445 354861 377250 382899
2509.92 395174 401169 405086 442921 454472 449707
2512.81 438811 428267 452988 525085 559127 538903
2515.71 553394 582791 567913 563136 566890 576864
2518.60 581069 596174 649435 680652 665862 669695
2521.49 713328 728466 722643 718288 723493 743570
2524.39 761244 780459 822944 847919 868353 854083
2527.28 822358 814461 803424 793060 802053 812359
2530.17 813950 802858 811644 811576 825086 836787
2533.06 827616 812869 792490 783775 780095 750020
2535.96 753366 765076 783320 805840 820193 795268
2538.85 787789 780792 772531 771067 769889 772813
2541.74 781457 778084 779836 801594 772068 753280
2544.63 771476 776151 755679 726078 736476 747535
2547.53 728093 690504 697395 701029 677649 671054
2550.42 659929 647292 646342 637519 628704 628916
2553.31 633905 626753 625580 614904 637162 668840
2556.21 669152 661865 648782 662591 683238 681367
2559.10 674168 687251 709316 713388 720185 737608
2561.99 775613 792427 807865 784083 811929 844394
2564.88 873162 912518 915072 927911 947602 943090
2567.78 971447 1020112 1060946 1061380 1077585 1113280
2570.67 1152044 1199591 1246952 1252948 1282424 1315139
2573.56 1343837 1367434 1403109 1449383 1486229 1512976
2576.45 1540021 1583152 1616263 1666591 1703338 1740593
2579.35 1802000 1826109 1854765 1890412 1928071 1978592
2582.24 2003486 2057247 2144396 2162453 2200988 2286476
2585.13 2315248 2323159 2372235 2445219 2520865 2587014
2588.03 2667357 2719242 2809920 2981130 3166545 3226623
2590.92 3167147 3154781 3208737 3243872 3255902 3275387
2593.81 3322301 3371540 3400219 3452907 3503429 3588542
2596.70 3696532 3830407 4003088 4036678 3907918 3824741
2599.60 3796507 3799750 3817455 3842686 3871472 3884760
2602.49 3897408 3914929 3929355 3925942 3943521 3993657
2605.38 3985046 3960401 3992847 4056396 4100739 4135194
2608.27 4153530 4177740 4229707 4277727 4321813 4343216
2611.17 4358114 4393221 4429563 4464099 4513065 4551633
2614.06 4560637 4563269 4590114 4617803 4653763 4724542
2616.95 4651393 4505922 4455797 4439244 4428939 4461702
2619.85 4519468 4531246 4570183 4609317 4621556 4621052
2622.74 4606309 4582499 4570901 4586992 4601027 4559412
2625.63 4564445 4609779 4635241 4651971 4687420 4735433
2628.52 4762097 4792030 4818636 4848164 4875039 4904001
2631.42 4945223 4949749 4945959 4973221 4977732 4981099
2634.31 4996634 5000960 5013807 5011798 5021764 5032528
2637.20 4994612 4965390 4952695 4936667 4928668 4893845
2640.09 4811438 4774981 4750092 4692631 4648484 4598331
2642.99 4537925 4534410 4545113 4549642 4588298 4652170
2645.88 4711053 4768016 4854688 4968055 5039220 5101574
2648.77 5194443 5237181 5269214 5289191 5271425 5278876
2651.67 5286781 5304309 5308249 5269351 5265295 5272476
2654.56 5258100 5248234 5237590 5213666 5195952 5210668
2657.45 5215386 5193261 5161304 5064980 4971026 4909146
2660.34 4890256 4873820 4817016 4778070 4774708 4776474
2663.24 4777003 4735470 4706019 4698753 4656444 4656611
2666.13 4681242 4650238 4625803 4609881 4565316 4520528
2669.02 4492452 4451701 4399933 4350631 4307903 4240857
2671.91 4183876 4130137 4058973 4003272 3990520 4006377
2674.81 4015617 4007454 4054341 4120407 4170907 4221683
2677.70 4293226 4393179 4505034 4689357 4831450 4873270
2680.59 4899294 4981824 4986354 4856044 4751021 4696223
2683.49 4569262 4378230 4249057 4150176 4056071 3968675
2686.38 3910910 3864590 3810125 3784143 3777197 3757224
2689.27 3734161 3703764 3651671 3586804 3542266 3522797
2692.16 3513837 3458896 3411329 3399392 3385231 3353068
2695.06 3324501 3307128 3311158 3310308 3305265 3316948
2697.95 3306551 3273260 3294763 3307421 3313053 3335392
2700.84 3353066 3375106 3419902 3452151 3472792 3499769
2703.73 3552981 3584111 3624572 3690108 3765359 3812228
2706.63 3833538 3859414 3946484 4014767 4087639 4162664
2709.52 4214062 4283181 4389952 4482380 4593651 4721153
2712.41 4811561 4821267 4849382 4916106 4978948 5041467
2715.31 5108675 5176669 5221530 5255767 5298257 5326550
2718.20 5367789 5431209 5531481 5653780 5765515 5904108
2721.09 6098119 6342955 6560044 6740614 6931886 7115951
2723.98 7290479 7476650 7669816 7821767 7980374 8145347
2726.88 8322025 8514889 8725402 8905564 9085064 9261720
2729.77 9425140 9598930 9796594 9984169 10165945 10374849
2732.66 10569960 10686694 10810544 10909136 11007772 11118977
2735.55 11198761 11222276 11209380 11149032 11090693 11049342
2738.45 10948019 10815144 10670761 10536457 10486839 10583847
2741.34 10914113 11341234 11441953 11131645 10660328 10336093
2744.23 10259452 10311718 10357635 10413890 10561671 10768765
2747.12 11028289 11284436 11578210 11858160 12095751 12274960
2750.02 12338087 12295764 12267943 12216227 12188199 12108257
2752.91 11981372 11869117 11690908 11447604 11215319 10938210
2755.80 10659434 10376234 10080898 9776791 9484463 9225252
2758.70 8999337 8748278 8477756 8268602 8115572 7951524
2761.59 7782085 7661136 7553768 7472364 7368371 7226442
2764.48 7130659 7063120 6947412 6846752 6814639 6745600
2767.37 6694719 6658751 6622761 6584751 6540281 6491398
2770.27 6435630 6428255 6442905 6454882 6472369 6466806
2773.16 6410750 6366756 6398786 6433478 6417897 6453324
2776.05 6516907 6525765 6561659 6633822 6665758 6696837
2778.94 6758557 6811336 6850336 6867686 6922021 6973000
2781.84 7028516 7058909 7085902 7110132 7149447 7144023
2784.73 7174421 7197044 7191347 7204471 7214863 7220152
2787.62 7241077 7274525 7316289 7353816 7409568 7451643
2790.52 7537970 7632662 7728820 7861484 8037313 8241949
2793.41 8586693 8935193 8998421 8704202 8473339 8459415
2796.30 8511102 8572805 8697575 8853934 9065463 9207174
2799.19 9299154 9403906 9534609 9661635 9767625 9900946
2802.09 10028880 10117218 10222992 10370615 10554032 10735918
2804.98 10922755 11088451 11271489 11500492 11715070 11906918
2807.87 12144728 12383603 12630092 12852785 13035630 13232464
2810.76 13463979 13681934 13944978 14230471 14485102 14786282
2813.66 15083740 15274628 15521645 15858961 16211417 16518114
2816.55 16871284 17183472 17411207 17651987 17939229 18287564
2819.44 18704874 19147338 19666862 20297458 20917285 21470470
2822.34 22049676 22603624 23052816 23575224 24171548 24689971
2825.23 25238122 25741614 26251867 26766146 27354297 27930112
2828.12 28452423 29066342 29731530 30309047 30819637 31392202
2831.01 31961222 32476977 33191894 33887996 34509084 35188757
2833.91 35871347 36511010 37084600 37792929 38648347 39538613
2836.80 40553829 41656921 42937735 44393329 45954069 47572109
2839.69 49022754 50095784 51026780 52078398 53379930 54718908
2842.58 56124059 57520854 58975838 60535603 62110329 63644671
2845.48 65232600 66730579 68187172 69777558 71425448 73088252
2848.37 74904308 76890935 79003344 81301109 83966328 86718045
2851.26 89421983 92097203 94500834 96750098 99250103 101822560
2854.16 104612938 107725664 111035152 114354213 117713233 121259701
2857.05 124726676 128155048 131757826 135286515 138872335 142297080
2859.94 145769686 149027629 152285454 155673221 158678372 161988576
2862.83 165301257 168183769 171552106 174584191 177474282 180722153
2865.73 183458142 185889211 188356702 190116534 191747630 193919897
2868.62 196885917 201080061 208055466 219464402 234007128 245366917
2871.51 251137728 254256374 256101785 258069483 261191758 266544587
2874.40 273656188 282052020 291454241 300689772 309495818 317320696
2877.30 323464205 328501952 331812964 333606834 333821158 331800035
2880.19 328569708 323790098 317325810 309976305 301086197 291717266
2883.08 283386254 276151974 270849613 267884123 270066399 283438969
2885.98 309444764 325865606 314756036 293840997 282911738 283891091
2888.87 286318042 286603830 285878968 286192976 288374090 291826042
2891.76 296569205 301482970 305002952 308064792 310449681 311408288
2894.65 311534177 310850314 309050873 306815021 304010120 300794518
2897.55 297612524 293948302 289986511 286319528 282392747 278429508
2900.44 274187137 270018085 266074326 262306150 259099648 256322815
2903.33 253179894 250153138 247837144 246419175 245654866 245754934
2906.22 246721987 248125623 249844811 251259180 252188145 253004484
2909.12 254953831 257313513 259140982 261433731 263556308 266068359
2912.01 269246262 272206437 275314649 277342706 279359375 281676690
2914.90 284669935 288351064 291165389 292890178 295034255 297707469
2917.80 300437811 304986696 310172248 317116180 326411942 334915509
2920.69 341682076 346128433 348939544 353106357 360341548 369008075
2923.58 373695867 374958207 375298815 376543477 381834344 387741950
2926.47 393117145 398906409 403585164 408807825 412920288 417001889
2929.37 421458916 427474112 436855785 445263281 455858319 471069854
2932.26 487796350 501647125 499491025 485561715 474121617 466391553
2935.15 465385691 468376838 472882420 479661507 489241243 501445865
2938.04 513457350 518808153 518910116 520742890 522383924 521562011
2940.94 519339711 517595438 517423889 519182970 519356699 519110774
2943.83 519484843 520275427 522408742 525698672 532394973 542246209
2946.72 555402706 567735297 572641891 571570231 569518192 563299097
2949.62 557181011 557754627 559935179 565089029 573581643 580873454
2952.51 588997076 598539576 606087881 614361225 623183850 631203742
2955.40 641656061 649678424 655832170 663597824 670962565 677207427
2958.29 684653027 691821826 696317269 702866035 708191496 710536882
2961.19 715478593 720420270 726566434 735700932 749699528 777288356
2964.08 820184807 871367594 930212673 969510871 945864956 881982550
2966.97 828330482 798406419 776545337 747539911 716611684 696567215
2969.86 683418856 662022009 635630338 624618434 631775564 653378416
2972.76 672541226 675403396 666216523 649590001 637087921 630137599
2975.65 624207359 622118191 622634627 623317593 625726518 627342688
2978.54 628840625 629506010 628274209 626831474 622468008 616740662
2981.44 609573867 599233747 588732079 574909710 561019946 545665735
2984.33 528567433 511276590 493450382 475978989 457069981 439992102
2987.22 421646664 403616150 387044503 369345983 353392602 337202087
2990.11 321660506 307165765 292638367 279261774 265873864 253666610
2993.01 241930759 230535559 220172989 209770591 199979441 190699895
2995.90 181744887 173439630 165479909 157862602 150631003 143665980
2998.79 137002108 130767337 124585854 118838246 113133020 107774404
3001.68 102739103 97805896 93162500 88675383 84418403 80267076
3004.58 76284066 72560675 68912551 65506531 62219514 59047697
3007.47 56054622 53168479 50470728 47902929 45409370 43129455
3010.36 40929121 38788757 36807415 34942132 33164075 31568115
3013.26 30040533 28596913 27245245 25940340 24692780 23537808
3016.15 22421457 21378100 20425207 19549009 18690630 17895418
3019.04 17161688 16482659 15820748 15240503 14676874 14152635
3021.93 13675970 13221359 12787112 12402107 11999720 11638310
3024.83 11317159 11024501 10748049 10498204 10258831 10036303
3027.72 9818621 9603040 9389611 9227535 9073842 8918271
3030.61 8794429 8704737 8576547 8425380 8313896 8230317
3033.50 8117410 8034201 7949548 7852244 7756838 7723885
3036.40 7669663 7574447 7526168 7491372 7456753 7427702
3039.29 7381000 7334317 7317465 7294112 7223788 7191262
3042.18 7156245 7121803 7122116 7120621 7092339 7059301
3045.08 6982370 6948953 6967740 6962872 6930420 6924770
3047.97 6884459 6829972 6831701 6845394 6818300 6792752
3050.86 6787533 6781153 6771137 6762316 6751758 6737082
3053.75 6767121 6803236 6787442 6809518 6795625 6841515
3056.65 6882352 6889083 6905016 6936123 6958654 6984026
3059.54 6995577 7041128 7109721 7173533 7213214 7268372
3062.43 7310252 7383600 7421747 7456813 7514111 7563028
3065.32 7588418 7633380 7712279 7782797 7815532 7855202
3068.22 7937210 7984364 8018817 8095840 8134941 8144273
3071.11 8198067 8261568 8287984 8328133 8372872 8426063
3074.00 8446156 8462641 8436811 8423803 8479551 8552037
3076.90 8564761 8572362 8573676 8545478 8520671 8509153
3079.79 8466439 8453070 8502393 8443506 8392668 8409873
3082.68 8444551 8564277 8751841 8798004 8617530 8471386
3085.57 8485814 8571520 8643689 8701928 8672032 8565985
3088.47 8422089 8320410 8289085 8202006 8083987 8020965
3091.36 7939546 7843765 7807538 7741770 7628500 7532633
3094.25 7442362 7344319 7214763 7101001 6975973 6891346
3097.14 6826497 6705911 6593666 6493955 6450392 6407579
3100.04 6287960 6152501 6068614 6023393 5937147 5810951
3102.93 5709490 5668545 5624600 5533203 5423470 5340086
3105.82 5279993 5216985 5156094 5109922 5046922 5004873
3108.72 4963437 4921751 4863886 4809121 4753832 4716024
3111.61 4686262 4652339 4583155 4510967 4496993 4498612
3114.50 4455221 4420999 4388864 4412158 4417335 4362802
3117.39 4312366 4284930 4277350 4317840 4341160 4274824
3120.29 4215717 4234927 4252271 4246986 4261553 4276697
3123.18 4268305 4269172 4252968 4262405 4293586 4319839
3126.07 4312792 4318605 4334338 4351357 4360386 4402060
3128.96 4419868 4446622 4479144 4493635 4502576 4527298
3131.86 4558216 4564531 4584599 4616155 4678420 4721790
3134.75 4725621 4776010 4808594 4791816 4795615 4890300
3137.64 4961176 5010294 5048220 5053481 5084541 5135595
3140.54 5192411 5236910 5272160 5324784 5328977 5324619
3143.43 5350068 5367041 5411638 5440690 5446849 5460565
3146.32 5500954 5540585 5568188 5636836 5705890 5753835
3149.21 5776072 5797409 5838716 5901377 5962874 6020358
3152.11 6081821 6149535 6209088 6268995 6327822 6381607
3155.00 6430218 6514907 6627711 6698382 6731135 6786961
3157.89 6856173 6946747 6996487 7050392 7085517 7116296
3160.78 7143073 7158904 7158304 7171440 7161589 7172426
3163.68 7194496 7227407 7284659 7304031 7319120 7413364
3166.57 7507834 7561259 7658279 7778121 7882681 7963858
3169.46 7961777 7941013 7981212 8060383 8092397 8092651
3172.36 8061588 8087087 8092805 8104432 8193697 8238966
3175.25 8153342 8024338 7915919 7929319 7977373 7879018
3178.14 7754335 7688154 7566745 7446471 7376250 7325628
3181.03 7301698 7297142 7266359 7253486 7319961 7422758
3183.93 7584494 7686907 7629130 7618867 7652339 7637540
3186.82 7726809 7840154 7786730 7583081 7313672 7128181
3189.71 6991962 6874582 6831760 6744032 6600362 6515229
3192.60 6425567 6355077 6326589 6223792 6129995 6066749
3195.50 6017255 5956068 5853495 5752662 5710555 5703187
3198.39 5649704 5577265 5513640 5460167 5428626 5376555
3201.28 5295308 5253879 5230853 5249375 5212746 5119386
3204.18 4994221 4963804 5008260 4997384 4894447 4791231
3207.07 4762358 4738788 4686206 4633095 4648307 4648057
3209.96 4582458 4554049 4571694 4588908 4581665 4538487
3212.85 4483518 4443930 4420326 4445855 4451266 4409604
3215.75 4394140 4382164 4401255 4414907 4411665 4395027
3218.64 4374134 4405021 4484477 4497112 4492027 4493243
3221.53 4527198 4571468 4552000 4479448 4454244 4470961
3224.42 4461922 4416877 4362092 4335185 4310063 4253317
3227.32 4156353 4076550 3997350 3913852 3798182 3737888
3230.21 3654286 3529135 3458671 3426705 3366245 3361203
3233.10 3358249 3357172 3361207 3342657 3287434 3265798
3236.00 3275138 3270516 3287399 3292341 3210998 3153982
3238.89 3125353 3093233 3065709 2994348 2937474 2923941
3241.78 2871543 2793531 2731844 2680493 2604365 2500568
3244.67 2438200 2386845 2303360 2210251 2139739 2102381
3247.57 2014714 1925296 1887048 1852567 1778197 1699917
3250.46 1605035 1527163 1493074 1445309 1406939 1376076
3253.35 1338058 1308308 1273871 1200892 1154734 1128195
3256.24 1084893 1055347 1001876 977983 936412 898010
3259.14 877423 892992 905112 889820 838778 784154
3262.03 764054 768216 761491 744126 727317 709479
3264.92 709906 715066 706022 709013 746343 747524
3267.82 686042 685788 691277 702602 722412 695609
3270.71 680078 665495 670402 677933 702693 729497
3273.60 769794 739096 698721 702684 722499 736166
3276.49 748980 756437 721180 709849 713714 755928
3279.39 767572 720106 704198 703102 732390 747700
3282.28 724315 721587 758029 781178 776479 789004
3285.17 818535 844104 844293 771073 743030 786688
3288.06 801944 815149 817839 813729 775984 749015
3290.96 752796 740792 734532 722994 723710 748309
3293.85 766620 750680 729234 721949 735849 721462
3296.74 686447 700391 726949 694241 715310 740846
3299.64 737901 732951 718325 683517 634396 610147
3302.53 632769 634093 601584 603851 589885 567824
3305.42 566736 555736 533322 502938 526169 556188
3308.31 541284 524568 521420 530128 508176 505293
3311.21 512360 491322 458305 479459 428054 414217
3314.10 437636 401463 398507 430653 421342 391866
3316.99 397048 405959 417414 433504 432591 401037
3319.88 406366 439075 418054 393624 381647 364654
3322.78 391536 403266 358257 339441 376428 447821
3325.67 465103 441284 422851 407163 430678 470482
3328.56 463697 428366 466954 459750 468859 526331
3331.46 498276 486113 526900 529111 497237 507742
3334.35 519106 540188 595897 628208 621583 594062
3337.24 577466 582240 586662 584556 610923 662030
3340.13 633486 579816 578089 616041 689104 741154
3343.03 741913 733498 689910 664097 685616 669124
3345.92 688370 710839 759087 744762 731539 750684
3348.81 726596 707819 752130 792781 769431 764456
3351.70 755894 736422 765391 800425 805518 781522
3354.60 780198 772852 801767 823881 792393 803705
3357.49 795718 821189 852131 820056 757393 768482
3360.38 780360 788337 795063 789647 820192 858298
3363.28 821250 780088 803862 811108 782728 805565
3366.17 823138 844038 881203 877575 828835 801084
3369.06 834539 856369 837078 794154 774616 776469
3371.95 800107 847663 848734 872300 901316 883503
3374.85 839625 858267 943080 984880 971902 987738
3377.74 975188 961836 971908 968913 962542 968433
3380.63 1016162 1081175 1078513 1044634 1043469 1116404
3383.52 1157929 1140087 1180682 1177094 1145897 1196499
3386.42 1214848 1250106 1258192 1228934 1242472 1256609
3389.31 1225042 1226333 1284642 1293060 1255230 1296368
3392.20 1360926 1378101 1358074 1348635 1362235 1327553
3395.10 1326993 1363979 1346276 1335552 1349278 1347104
3397.99 1303743 1282271 1279781 1269578 1211030 1170090
3400.88 1171630 1211316 1211037 1188524 1201994 1238002
3403.77 1209351 1205461 1205374 1162904 1134231 1168598
3406.67 1167935 1080341 1047253 1039691 1024372 1002932
3409.56 1016913 1012544 1006292 994290 1017035 1006048
3412.45 936939 900344 870687 820916 824975 801014
3415.34 779277 728641 687779 711599 668451 593954
3418.24 566175 543565 516090 514489 489664 419058
3421.13 376980 377580 363194 343392 348555 331542
3424.02 293196 300924 354979 312810 255495 231285
3426.92 249073 270465 250259 215615 222927 217051
3429.81 232752 269187 278967 250606 225174 211012
3432.70 194886 202546 170978 166135 189260 190648
3435.59 144457 135206 192619 199258 183458 188838
3438.49 191011 138178 138404 152042 173564 174464
3441.38 131428 124035 130183 149542 171537 108940
3444.27 54655 81970 116415 117166 92368 92985
3447.16 110929 85306 71010 133069 159358 142153
3450.06 121603 126057 153487 149989 91691 20210
3452.95 29158 57743 79033 82130 67847 51610
3455.84 35449 30515 51146 53915 53187 100255
3458.74 128622 82712 54542 67817 85935 68570
3461.63 34431 76832 102509 117675 108993 105097
3464.52 102348 66534 48341 45877 74256 107015
3467.41 64982 41248 40767 88559 107899 90384
3470.31 76281 87748 86706 68947 57865 105747
3473.20 116632 75534 85021 99786 43588 33153
3476.09 77703 77483 76189 104192 112943 107388
3478.98 134864 116028 79905 119522 168127 163099
3481.88 131077 99548 95400 78412 63647 62971
3484.77 109713 133944 126261 124644 140396 122702
3487.66 91187 95545 89758 96501 102767 111885
3490.56 69454 33468 51661 64088 48155 91402
3493.45 109823 105433 96530 116329 113946 129756
3496.34 126803 73486 14862 51644 123490 101462
3499.23 100085 91107 40542 53449 107730 123309
3502.13 100730 92786 95260 83802 105943 142821
3505.02 119255 108980 69531 50297 50060 76713
3507.91 71929 96959 90441 48148 30607 9642
3510.80 32062 16015 31192 74872 64252 75557
3513.70 76710 49522 15490-8124-28802-4691
3516.59 19018-16052-121 52655 45428 18600
3519.48 3945 9339 13634 31436 18605 18353
3522.38 40230 7054-41711-31839 11104 548
3525.27-56807-52002 914 3086-20001-23757
3528.16-40845-60143 31980 65868 44283 33121
3531.05-964-75973-111413-67068-17099-15994
3533.95-55777-35367-1482 24393-5179-70012
3536.84-9956 18247-5629-6753-13159-30620
3539.73-20725-18907 10880 21380 5484-27339
3542.62-47738-28713-14191-7730-32060 18349
3545.52 45422 14751 2972 10863 24286 61372
3548.41 36776-10328-13604-403 6808-6407
3551.30-10274 7566 18427 21571 33355 7551
3554.20-17612-10577 34238 80764 38549 1597
3557.09 5025 6959 6636 20503 44198 30954
3559.98 16939 33105 90826 110541 93176 67778
3562.87 46347 60873 101686 89649 101705 107875
3565.77 108971 114717 127425 142765 171752 171881
3568.66 163196 128617 112155 100497 101584 109064
3571.55 82223 98767 112429 109677 111799 133003
3574.44 166750 140511 104654 120541 154447 223118
3577.34 236017 160670 142266 202054 230330 213947
3580.23 179621 197329 206636 193736 194935 191903
3583.12 215708 224569 192338 205286 239808 263993
3586.02 307883 269360 245033 257986 321052 392226
3588.91 343208 296762 267199 244847 260479 299187
3591.80 321696 346863 358145 360791 325595 314550
3594.69 364669 369930 333975 344537 365016 374597
3597.59 362504 357608 374626 397937 425852 449145
3600.48 481876 498336 457035 422132 400518 420856
3603.37 431687 440636 472405 469541 471198 502060
3606.26 545501 542350 525684 552746 548757 579256
3609.16 574240 555263 566354 570029 593451 635996
3612.05 655974 656201 652886 662713 669140 650635
3614.94 636835 646168 654986 637676 642789 685692
3617.84 699134 705525 787124 804572 726316 708026
3620.73 724389 759959 728699 729916 772551 751137
3623.62 719795 707662 729232 765122 789630 806398
3626.51 822722 833579 852236 881905 851089 912851
3629.41 892047 807044 807297 831591 796318 747304
3632.30 751808 753705 778038 809385 762921 720020
3635.19 726461 764608 764416 790126 860392 885926
3638.08 884608 868283 834541 870322 906650 922521
3640.98 895544 862952 879058 898591 866375 854948
3643.87 881826 919961 883061 846332 899171 918652
3646.76 935209 908513 899201 949119 1059842 1016621
3649.66 938160 947469 952206 928290 891814 865550
3652.55 854170 883245 868391 885079 841910 823643
3655.44 886733 913374 812742 795677 839814 832605
3658.33 825573 864987 886335 854794 819669 840143
3661.23 875844 875767 843917 856755 856861 856697
3664.12 861430 874116 860703 868715 856404 836074
3667.01 866058 894863 942999 951899 914521 963627
3669.90 1068812 1069318 927938 886018 889914 908143
3672.80 911023 930773 949167 1000416 1031590 1106484
3675.69 1152537 1051695 998207 1006690 1039599 1054368
3678.58 1031534 1041747 1076121 1046602 1002134 1024831
3681.48 1030869 1069393 1098703 1137336 1140553 1134741
3684.37 1140293 1113947 1080885 1091670 1108511 1110006
3687.26 1131014 1321808 1371578 1210045 1128389 1097051
3690.15 1107431 1140108 1133022 1108725 1080682 1036612
3693.05 1063023 1089306 1076524 1067069 1098044 1116710
3695.94 1074262 1024683 1019348 1045004 1063411 1075848
3698.83 1062896 1046624 1081894 1115567 1149125 1198146
3701.72 1203022 1142902 1122508 1136488 1129418 1106496
3704.62 1094940 1132735 1142162 1143062 1128342 1100652
3707.51 1097325 1108846 1147727 1181844 1127415 1101636
3710.40 1159409 1245124 1325843 1352505 1282677 1236023
3713.30 1225903 1243231 1261959 1293948 1303784 1350576
3716.19 1380550 1382632 1366700 1355065 1316100 1316059
3719.08 1323799 1333101 1330375 1317374 1323240 1354723
3721.97 1381655 1354549 1377252 1386631 1344930 1311762
3724.87 1294423 1293960 1367924 1400057 1361873 1353586
3727.76 1335611 1301710 1284082 1313947 1328993 1317116
3730.65 1345063 1428878 1483254 1434113 1362553 1385405
3733.54 1420562 1415172 1408091 1383875 1376603 1445772
3736.44 1436628 1325214 1257476 1286258 1289397 1249634
3739.33 1206357 1192473 1198357 1174757 1088777 1041146
3742.22 1047939 1066644 1080020 1190765 1280275 1092038
3745.12 918278 889108 878762 851784 811289 804153
3748.01 841198 976846 1061628 900474 778034 746588
3750.90 774684 934500 966590 809337 724359 704321
3753.79 670481 636060 617005 612037 681603 730203
3756.69 708472 685334 668749 654496 670307 717814
3759.58 738922 691100 687087 659265 618878 589714
3762.47 600432 623582 610861 606078 621880 654036
3765.36 650965 592622 552615 542620 586805 612807
3768.26 627219 634048 670573 622952 545656 582327
3771.15 592115 582447 587978 579525 545417 549115
3774.04 553608 534563 532053 579188 576536 560769
3776.94 592341 619420 608483 640124 651603 631502
3779.83 603956 562171 568258 599127 582054 559786
3782.72 575422 618948 620913 600630 590281 573464
3785.61 548833 533653 551001 580976 577201 553303
3788.51 519994 515709 528374 562790 594982 570998
3791.40 522713 505677 527228 554510 531678 515717
3794.29 513005 534192 547283 592034 598872 569551
3797.18 567933 541445 528202 550620 546168 547169
3800.08 567699 729748 813464 665587 605980 585941
3802.97 519707 510686 544919 532841 548865 563865
3805.86 612520 680779 664519 566716 543512 522939
3808.76 521695 572656 601954 586327 586031 587825
3811.65 558618 571079 591102 589747 599385 620205
3814.54 653007 714889 855980 794742 691463 662674
3817.43 641883 664613 663186 628106 677579 763265
3820.33 781820 765659 776719 692134 663870 715653
3823.22 741188 729424 737735 781550 807678 783937
3826.11 842162 881325 825631 808225 874804 891675
3829.00 859584 898456 938432 968198 1052595 1101064
3831.90 1070666 1083970 1077234 1105078 1171128 1264842
3834.79 1313646 1310109 1254170 1255646 1381201 1618761
3837.68 1612694 1492216 1484936 1527427 1558180 1589217
3840.58 1640535 1611196 1576952 1568477 1602707 1671121
3843.47 1727286 1778016 1751449 1736051 1783042 1757876
3846.36 1756958 1777112 1794847 1825779 1827847 1826649
3849.25 1808231 1794485 1806140 1848643 2011092 2166625
3852.15 2085621 2002915 2134738 2321561 2224723 2063497
3855.04 2033681 2028609 2023534 2056597 2077717 2084834
3857.93 2090198 2034451 2015594 2015882 2016126 1991218
3860.82 1985503 1994986 1931211 1854497 1782344 1757882
3863.72 1802024 1842218 1863908 1757023 1667036 1621077
3866.61 1594904 1594586 1615889 1638005 1691745 1717741
3869.50 1739956 1630215 1527949 1570218 1564540 1508599
3872.40 1498513 1483907 1478227 1531108 1496400 1441926
3875.29 1458750 1475316 1448699 1431889 1409014 1400647
3878.18 1406234 1412364 1429150 1447403 1409032 1369942
3881.07 1346112 1322299 1284475 1270387 1260051 1232672
3883.97 1214293 1251206 1331969 1305821 1225447 1231138
3886.86 1216639 1197134 1173864 1141123 1137789 1148902
3889.75 1156236 1165117 1210964 1174948 1112764 1102923
3892.64 1125098 1145753 1112531 1077131 1077216 1067919
3895.54 1091479 1087185 1066948 1055026 1029043 1058554
3898.43 1086955 1111345 1089126 1054915 1005768 1030745
3901.32 1089874 1044376 973705 976010 1052695 1107626
3904.22 1024821 923400 915392 938364 932191 905261
3907.11 936968 936953 889198 867056 877622 888880
3910.00 895470 912013 905253 870569 812905 832520
3912.89 866390 864552 825045 828220 812300 821568
3915.79 818964 799857 859728 852303 824221 825709
3918.68 847520 835458 793603 764126 764253 785606
3921.57 813453 800423 766418 762060 746099 740025
3924.46 729797 706030 688515 703101 725909 715600
3927.36 712895 682338 685238 717419 701092 704926
3930.25 692581 650832 666980 696653 715192 706247
3933.14 704892 679048 664669 663186 655220 638502
3936.04 657122 650673 644820 611284 560135 550040
3938.93 587005 625936 625740 596237 591368 615525
3941.82 626330 630074 593669 582473 598018 606490
3944.71 566411 564710 543967 540834 607094 617865
3947.61 558077 542152 554074 521372 509461 556169
3950.50 530040 491139 454135 489582 564369 559138
3953.39 541620 527589 553570 567605 546956 524758
3956.28 517986 509153 510289 528757 510252 486509
3959.18 496638 523605 525907 506129 509978 522384
3962.07 508532 489866 540015 576721 515235 492639
3964.96 493982 525358 532068 542265 555107 541940
3967.86 534967 529952 490450 494348 573199 597411
3970.75 566114 577528 567633 573874 604007 620738
3973.64 589329 569077
##END=
