##TITLE=1,3-Butadiene
##JCAMP-DX=4.24
##DATA TYPE=INFRARED SPECTRUM
##CLASS=IUPAC A
##ORIGIN=NIST, Anayltical Chemistry Division, 301-975-3108
##OWNER=COPYRIGHT (C) 1998 by the U.S. Secretary of Commerce
##DATE=98/10/1
##$SPECTRA VERSION=1.00
##$UNCERTAINTY IN Y=2.5 % relative (B=1.6E-04,C=1.1E-09,D=2.7E-14)
##CAS NAME=1,3-Butadiene
##CAS REGISTRY NO=106-99-0
##MOLFORM=C H2: C H C H: C H2
##MP=-108.91 C
##BP=-4.41 C
##$NIST SOURCE=QUANT-IR
##SPECTROMETER/DATA SYSTEM=IFS66V (Bruker)
##INSTRUMENT PARAMETERS=KBr Beam splitter; MCT Detector; Multipass cell
##STATE=gas
##SAMPLE DESCRIPTION=1,3-Butadiene Primary Gas Standard
##PRESSURE=101.3 kPa
##TEMPERATURE=23 C
##SAMPLING PROCEDURE=1 L/min Flow
##RESOLUTION=1.9290
##DATA PROCESSING=3-Term B-H Apodization
##XUNITS=cm-1
##YUNITS=(micromol/mol)-1m-1 (base 10)
##XFACTOR=1.0
##YFACTOR=4.5474E-13
##DELTAX=0.9645
##FIRSTX=574.687
##LASTX=3974.595
##FIRSTY=4.71E-06
##MAXX=3973.63
##MINX=574.69
##MAXY=.0005846
##MINY=-4.11E-08
##NPOINTS=3527
##XYDATA=(X++(Y..Y))
574.69 10365200 10013670 9777058 9501590 8958048 8294162
579.51 7886470 7923406 7675452 7146974 6616138 6166738
585.29 5806496 5168290 4481300 4251186 4183756 4174510
591.08 4209108 4182380 4051298 3832414 3670998 3687022
596.86 3711216 3689004 3648586 3776292 3762946 3390506
602.65 2977320 2720132 2521272 2360412 2249922 2157168
608.44 2007152 1955176 1927722 1822534 1619128 1429542
614.22 1267288 1221174 1329904 1382938 1344506 1451960
620.01 1580650 1588882 1502490 1495474 1519060 1568648
625.79 1641084 1739230 1803830 1868838 1854048 1844986
631.58 1927076 2014106 2144952 2345808 2441440 2566988
637.36 2740378 2920224 3112388 3270980 3289172 3423560
643.15 3646390 3787596 3896198 4078560 4270164 4546952
648.93 4887848 5172108 5282710 5247372 5117342 5124992
654.72 5233698 5482892 5689594 5624414 5598298 5846308
660.50 5972996 6042036 6162884 6368024 6798850 7327376
666.29 7808678 8051348 7892584 7622192 7549768 7798208
672.08 7764452 7687434 7899048 7650154 6852000 6204696
677.86 5886950 5715090 5518908 5578596 5614004 5332912
683.65 5057290 4967540 4986622 4942054 4726494 4590118
689.43 4542182 4505392 4396178 4275884 4105698 3938936
695.22 3772652 3649808 3536368 3455290 3335830 3113662
701.00 2851904 2741812 2666590 2565054 2383238 2244162
706.79 2157994 2110094 1977610 1779964 1596360 1555290
712.57 1546946 1546938 1544150 1497418 1363616 1334178
718.36 1384650 1448240 1454962 1493938 1533034 1541880
724.14 1504698 1524862 1538384 1576364 1619994 1681380
729.93 1726188 1782146 1776196 1820682 1909354 1991194
735.71 2016190 2075568 2153120 2242510 2253626 2237116
741.50 2200042 2227638 2181170 2074410 2002154 2041688
747.29 2067286 2064024 2064908 2179720 2184724 2099522
753.07 2105378 2248562 2324122 2334774 2311722 2337170
758.86 2315380 2315436 2276948 2231958 2169304 2133062
764.64 2057592 1986008 1902204 1847208 1741128 1671288
770.43 1649102 1665940 1603688 1555406 1503538 1490090
776.21 1435420 1411190 1352562 1294276 1236296 1250410
782.00 1262782 1283014 1269596 1282828 1263108 1264486
787.78 1238426 1248296 1220890 1197832 1153998 1196990
793.57 1219704 1192652 1139636 1200518 1228696 1203444
799.35 1135160 1175814 1260304 1394542 1444552 1479424
805.14 1460364 1450242 1454338 1587346 1684798 1750840
810.93 1792540 1938920 2066454 2210332 2320610 2444478
816.71 2485426 2595072 2780884 3048716 3264732 3526668
822.50 3750606 4026348 4318954 4638694 4931360 5428050
828.28 5904146 6321836 6847054 7525324 7977182 8537010
834.07 9393994 10171860 10721090 11765620 12954230 13726680
839.85 14684790 16341530 17591360 18622380 20471950 22402380
845.64 23401450 25100560 27677960 29447970 31065220 34152730
851.42 36693290 38388690 41695730 45459470 47552920 50866430
857.21 55598840 58584890 61827680 67567890 71523770 74780170
862.99 81289820 86597220 89821300 97200660 103977800 107168700
868.78 115047600 123880000 127054100 135406600 146268400 148966200
874.57 156813500 170831600 173969800 180527500 196242800 199118800
880.35 203673500 222558800 226249100 228461500 247626200 248875400
886.14 247871900 269799000 271334000 268687600 287149700 280017200
891.92 274206900 293965500 285455700 280884500 294198900 281334700
897.71 279571700 292289500 283013100 275794600 279925900 285480300
903.49 306665200 371533000 597734300 1071863000 1285748000 914206800
909.28 518908400 371607100 321080300 305044500 302533400 308541700
915.06 325212700 335241800 343375800 343935200 345164900 352107200
920.85 350359100 353302800 352228300 353141700 353085000 348537600
926.63 344346800 336875300 331624600 324556000 317052400 306790000
932.42 296045800 285203800 275105600 264343100 253144400 240993900
938.21 229010500 217654900 206947600 196305800 185220100 174208200
943.99 163776700 153936100 144560500 136139800 128616500 120823400
949.78 113070300 105838600 99219240 92957670 87387240 82490520
955.56 78042680 73919710 70235370 67049680 64463960 62004790
961.35 60256950 58770400 57420310 56813270 56337530 56182230
967.13 56748330 57013040 57999230 59381420 60419880 62471640
972.92 64680490 67020860 70689120 74097060 78160590 83321430
978.70 89026000 96302690 104011100 112295300 121415300 129012200
984.49 136038000 140629900 141220700 138998100 131948600 128763700
990.27 140314700 159805100 179413700 197359600 209690400 214600600
996.06 216090700 213144500 207716200 202439500 193329600 185021200
1001.85 178582700 175392300 178324400 180133900 184892600 196610800
1007.63 209267900 229865900 258440000 275823800 300990400 344289700
1013.42 333834500 262510600 202744700 170614100 158013200 156122200
1019.20 151719500 151188900 157498100 158226700 157273500 160571000
1024.99 160977300 160247300 161703500 161355300 157674500 154491000
1030.77 155296900 153860400 148707300 144436000 140424200 137484500
1036.56 135330200 130904300 126594300 123937800 119410300 115106300
1042.34 111686100 106138700 103902400 103829400 100579200 96288560
1048.13 90276510 85483470 84924890 83006570 77970970 71222180
1053.91 65385260 61630150 58592930 56025430 53509240 51036380
1059.70 48981690 47161660 45385630 43266340 41093820 38865800
1065.48 36870990 34938080 32940760 31049780 29307900 28062860
1071.27 27303130 26490410 25610570 24869070 24087190 23065440
1077.06 22022730 20981890 19714690 18296260 17010110 15696140
1082.84 14366230 13066860 11870790 10800570 9909984 9203854
1088.63 8522986 7669250 6766084 5940220 5252978 4674252
1094.41 4205118 3747714 3292648 2851426 2515518 2258260
1100.20 2017766 1756166 1553498 1394106 1251052 1087648
1105.98 961992 851490 790850 762030 737354 691014
1111.77 657336 608994 593562 579762 568878 550814
1117.55 558370 554882 547928 528570 526972 529966
1123.34 542916 531406 531520 541080 570810 583876
1129.12 599712 613648 626624 597936 572028 570224
1134.91 596158 606660 619124 588046 567638 588724
1140.70 620786 601396 552046 501944 512658 528644
1146.48 527562 512008 514138 499632 490620 477014
1152.27 463514 446752 448066 441370 417070 372072
1158.05 376468 394354 421566 430198 400106 364572
1163.84 377988 402510 423848 426544 431708 415864
1169.62 402678 394420 412906 424754 421178 421224
1175.41 436790 447386 479742 488232 477344 461434
1181.19 456600 433618 426528 429290 405832 366214
1186.98 339630 282930 261064 296222 327064 324110
1192.76 334548 323332 318290 356610 406028 411428
1198.55 410866 423084 450056 460972 465594 475364
1204.34 519990 551124 579270 639816 687614 705424
1210.12 779958 864416 883980 907226 1015976 1089002
1215.91 1120700 1178170 1213628 1266470 1404432 1510390
1221.69 1595924 1707418 1798092 1884924 2023236 2123730
1227.48 2229868 2386140 2495296 2635076 2848798 2972178
1233.26 3135616 3366952 3507720 3707920 3998004 4171186
1239.05 4371926 4676236 4943038 5255524 5606692 5812966
1244.83 6194854 6689956 6920328 7335168 7857264 8147000
1250.62 8697584 9226064 9540678 10130990 10538480 10882330
1256.40 11511660 11623130 11860990 12319470 12229230 12207980
1262.19 12121080 11973700 12032100 11834900 11564610 11337420
1267.98 11486790 11977930 12121480 12348060 12705990 13381920
1273.76 14723660 15482310 16254860 17119180 17366740 18016980
1279.55 18206130 18124530 18192700 17626710 17311700 16682480
1285.33 15730150 14905690 13814720 12678750 11414080 10223080
1291.12 9425660 9066156 8955594 9087758 9753844 10728250
1296.90 11783450 12760380 13472560 13900500 14156970 14167310
1302.69 14045790 13854430 13382740 12991670 12422480 11679990
1308.47 11173320 10573490 10093130 9709158 9117678 8701986
1314.26 8321776 8007876 7860674 7549608 7374892 7188418
1320.04 6916520 6852634 6698830 6573312 6526164 6375566
1325.83 6346202 6271192 6177542 6152092 6069042 6091732
1331.61 6068618 6046992 6083564 6036188 6128108 6146432
1337.40 6119128 6248490 6221696 6166650 6149682 6141824
1343.19 6311666 6406304 6513092 6675740 6801446 7118670
1348.97 7378676 7663654 8007434 8273732 8818434 9413716
1354.76 10157460 11128840 12012740 13375840 14972020 16903230
1360.54 19525340 22006860 24873230 28049560 31124470 34957380
1366.33 38470770 41533010 44538890 46409920 47603560 47851020
1372.11 46594280 43934490 39183320 32922590 26715340 21934150
1377.90 22970710 35428990 43017750 31888020 22978590 25733050
1383.68 31393340 36699180 40941580 43440060 44375060 43745040
1389.47 42309190 40323970 37346050 34777020 32081770 28628680
1395.25 25506260 22472150 20111620 18260620 16038040 14415400
1401.04 13499260 12872730 12544240 11991400 11467500 11254980
1406.83 11288770 11551390 11626330 11586350 11714400 11979960
1412.61 12267360 12230160 12119280 12326070 12724250 13542550
1418.40 14256810 13657890 12767050 12540840 12442940 12132090
1424.18 11549120 10991510 10560960 10107670 9878732 9786344
1429.97 9462952 9169918 9249300 9658956 10291600 11426150
1435.75 12412580 12117440 11523660 11430920 11510990 11644570
1441.54 11662020 11438040 11161340 10837740 10603360 10580090
1447.32 10197910 9533640 9105158 8708034 8371580 8182492
1453.11 8057082 8469880 9742008 10422580 9573832 8383990
1458.89 7615824 7400582 7351650 7448088 8029488 8591090
1464.68 8561708 8291624 8278902 8601740 8977022 9643904
1470.47 10902240 11877750 12160470 12056230 12297620 13090170
1476.25 13447600 13445760 13404710 13069790 12664660 12347850
1482.04 11817520 11164210 10869320 10957050 10764900 10352970
1487.82 10843700 11916430 11742550 10641790 10353560 11031770
1493.61 12149560 13618230 14205050 13510880 12894670 12162220
1499.39 11044020 10130570 9288510 8589840 8682138 9579280
1505.18 10245380 9700584 8186894 6992794 6314576 5995612
1510.96 5960694 5696906 5337350 5221726 5311342 5428412
1516.75 5074994 4451488 4657412 5637402 5719148 4592428
1522.53 3510356 3274768 3378542 3028252 2669874 2430404
1528.32 2117340 1940070 1965270 2254962 2743142 2714562
1534.11 2105740 1749248 1943678 3220118 4981106 5239942
1539.89 4405806 3971288 3381506 2761024 2835240 2756234
1545.68 2321284 2203416 2459624 2884948 3076540 3048388
1551.46 3326444 4318762 5209932 5153260 5551976 7587056
1557.25 9802148 10886470 11103870 10382820 9923742 10853680
1563.03 12536800 14221120 15870480 18012360 20602540 24023880
1568.82 27871640 31276560 35463430 41023940 47399270 55665510
1574.60 66077900 76483740 86559780 98369100 112326700 128108200
1580.39 145783600 164360100 182118500 198376100 212441100 224012400
1586.17 232200100 235341500 232130200 221818700 203439800 178824000
1591.96 154029500 138127200 147058000 183669900 199650300 172762100
1597.74 149133300 156473000 182850900 211013600 233992100 249433900
1603.53 256075600 253373200 242484800 225149600 203189000 178816400
1609.32 153491700 128477000 105463800 84935420 67150540 52841140
1615.10 42315660 33439240 25114510 19048350 15259230 12570180
1620.89 10951780 10206850 9404152 8233278 7461476 7217814
1626.67 7111646 6834308 6465810 6233898 6273490 6515924
1632.46 6779482 7521070 8443078 7955412 6998470 6746004
1638.24 6702878 6758108 6931610 7019438 7064734 7352546
1644.03 8249398 9045734 8788514 8069172 7355198 6778378
1649.81 6973226 8801082 10699270 9718248 7015952 5067016
1655.60 4191100 3850066 3655474 3583770 3758292 4280254
1661.38 4978716 5097574 4701956 4464948 4383458 4426376
1667.17 4817166 5224078 4829432 4185510 3742124 3307900
1672.96 3482206 4113688 3840574 2813666 2277274 2187020
1678.74 2232408 2171622 2165680 2748490 4186092 5403434
1684.53 4340362 2321894 1651718 1666210 1655738 1563080
1690.31 1402764 1289102 1314864 1945898 3740692 4462930
1696.10 2881280 1845142 2935378 4604244 4160040 2306536
1701.88 1488108 1654812 1868192 1945118 1881778 1580460
1707.67 1437610 1528386 1587220 1563412 1653348 1991596
1713.45 2521890 2850008 3522438 4552966 4271846 3101856
1719.24 2471896 2400234 2510990 2678166 2860888 3020980
1725.02 3235338 3437262 3615032 3912476 4267098 4385532
1730.81 4746890 6048462 7426008 7346550 6107562 5314630
1736.60 5323358 5789502 6429108 6370934 5949950 6124918
1742.38 6607666 7019370 7512562 8125988 8830592 9582882
1748.17 10158620 10905380 11895030 11993650 11599600 11578290
1753.95 11628730 11742740 11646790 10984070 10253570 9783064
1759.74 9627628 9508318 8881466 8285094 8110774 8173970
1765.52 8591914 9247612 9454588 9068024 8948372 9291854
1771.31 9624784 9041188 7842566 7228074 6980370 6715738
1777.09 6552960 6564362 6702682 6766046 6740380 6849476
1782.88 7236498 7645608 7740004 7830370 8116290 8535074
1788.66 9161546 9952598 11069990 12300340 12987850 13767210
1794.45 15053990 16504120 18570380 21853540 26361160 31874080
1800.24 38277350 45561810 53785970 62840030 72599830 82838620
1806.02 92931540 102582200 111469800 118464800 122212900 122148100
1811.81 118441200 111533300 102546700 93980060 90178640 95268220
1817.59 104353000 98406550 71359260 50619280 55739390 76124510
1823.38 97922080 115779200 128092400 134927900 137173300 135264500
1829.16 129481700 120380900 109337600 97397540 84873190 72433570
1834.95 60697160 50178330 41022500 32983780 26287740 20980980
1840.73 16756640 13619770 11585780 9655024 7540240 6122316
1846.52 5276538 4595894 4085808 3726762 3513562 3403514
1852.30 3351936 3364254 3478114 3607294 3733248 3947284
1858.09 4169802 4355120 4550744 4689272 4751982 4742818
1863.88 4685316 4672754 4703722 4745132 4780852 4576240
1869.66 4152776 3804070 3464666 3292112 3553220 4043468
1875.45 4515828 4908900 5154594 5225370 5237188 5254348
1881.23 5266496 5252036 5160242 4970042 4739684 4516186
1887.02 4307948 4122424 3782780 3330432 3031110 2854806
1892.80 2769690 2750474 2671144 2536076 2434760 2334628
1898.59 2247230 2240640 2389534 2714776 3070296 3267596
1904.37 3324296 3319320 3268510 3193968 3147898 3139788
1910.16 3134460 3124298 3079378 3000976 2931536 2916186
1915.94 3048096 3183484 3001650 2720818 2643554 2705854
1921.73 2801494 2823500 2782222 2788652 2846192 2855904
1927.51 2859570 2902036 2910066 2883858 2879884 2896728
1933.30 2890204 2873638 2894440 2925886 2935456 2921294
1939.09 2914788 3008464 3232202 3369994 3402036 3546204
1944.87 3775542 3994174 4205714 4424318 4654922 4847252
1950.66 5013976 5239778 5534050 5938392 6370452 6574580
1956.44 6651140 6857270 7186940 7558054 7876612 8050104
1962.23 8060888 7921978 7654410 7365310 7068762 6823882
1968.01 6691028 6588468 6384218 5787158 5221896 5258494
1973.80 5757042 6324746 6682170 6851740 6849390 6651472
1979.58 6398300 6105244 5719734 5302950 4893476 4500072
1985.37 4100758 3716076 3421738 3153254 2896086 2744252
1991.15 2564884 2299026 2078460 1894710 1756546 1663518
1996.94 1570176 1478326 1387442 1328146 1279826 1218540
2002.73 1159058 1089060 1046416 1023546 967858 896836
2008.51 807104 727402 675754 604504 525852 474688
2014.30 447370 425846 396194 350776 281490 209914
2020.08 166794 148658 137128 108670 64998 25190
2025.87-2378 692 24370 39034 34506 25156
2031.65 25726 24594 21444 27338 1234-60080
2037.44-86040-45750 7744 29568 22466 8494
2043.22 2414 22692 44628 8556-43622-55658
2049.01-61448-78888-86442-89370-90054-87688
2054.79-90446-84922-74710-53208-25602-11934
2060.58-5990-1310 526 3074 4340 756
2066.37 590 23486 32418 14538 16170 53796
2072.15 92352 88738 74956 97908 145868 172180
2077.94 150252 137712 178358 221154 218534 206816
2083.72 228314 295600 337212 334338 360768 430456
2089.51 495898 485540 453556 504450 612534 665092
2095.29 646188 665398 772406 842882 766228 679328
2101.08 693118 741720 686322 578330 587360 700128
2106.86 676774 558784 582048 719192 811392 781482
2112.65 764864 865230 966646 909834 815292 824692
2118.43 863786 801666 677258 629362 649272 609378
2124.22 512428 479388 528186 533952 442902 390600
2130.01 434856 460064 405300 389590 438872 453630
2135.79 401348 364448 374792 380972 366284 373672
2141.58 383566 384310 394332 415476 441810 444304
2147.36 427448 453518 501428 495116 459568 497714
2153.15 592070 609446 538596 546206 653448 692282
2158.93 650914 703650 817488 810202 763462 870884
2164.72 995958 952800 881448 930646 936810 844458
2170.50 859178 970896 947052 859878 924198 1000794
2176.29 901698 855068 980160 1036032 932982 885202
2182.07 933818 900832 856932 957640 1018942 960344
2187.86 969072 1014558 964318 914708 940290 957224
2193.64 929332 949902 999668 989240 991608 1060086
2199.43 1074210 1023438 1004420 1003648 962808 914840
2205.22 879866 843186 818844 819978 820578 849192
2211.00 903726 915800 889890 922584 1013170 1051664
2216.79 1009186 965478 935758 909490 875678 845822
2222.57 836518 846268 845528 855500 882430 889412
2228.36 885100 902532 931940 973874 1021020 1066490
2234.14 1100424 1148356 1201132 1231012 1273402 1350186
2239.93 1415082 1444656 1456744 1519028 1604400 1649002
2245.71 1708932 1793790 1826282 1876478 1977332 2079446
2251.50 2199792 2304696 2374054 2482580 2564776 2598070
2257.28 2625876 2584510 2497312 2449070 2416924 2360928
2263.07 2250468 2116804 2055996 2099018 2205766 2353558
2268.86 2514542 2657734 2741428 2746756 2672822 2594464
2274.64 2527748 2429252 2329516 2223096 2115812 2045730
2280.43 1973448 1913452 1846744 1768064 1709478 1656848
2286.21 1625126 1611376 1577744 1522054 1450232 1380680
2292.00 1315922 1276050 1260780 1281620 1315208 1344612
2297.78 1371018 1372478 1353764 1321774 1257454 1190034
2303.57 1138298 1088690 1060938 1048644 1046888 1072220
2309.35 1118792 1149880 1135410 1133246 1145796 1166588
2315.14 1177422 1222188 1248370 1288254 1332404 1383532
2320.92 1413628 1453292 1487656 1536194 1585602 1657580
2326.71 1726470 1783990 1822680 1884842 1942372 1984614
2332.50 1996706 1991866 1988698 1987154 1970736 1962624
2338.28 1958118 1947030 1926140 1898280 1847330 1772898
2344.07 1626222 1402552 1161202 950168 804100 805418
2349.85 954836 1176992 1377902 1531536 1675106 1848380
2355.64 2008888 2126436 2214732 2288834 2322290 2308160
2361.42 2273492 2240956 2182514 2093050 1987028 1878490
2367.21 1740184 1593916 1459588 1330414 1207772 1088192
2372.99 956362 832896 727010 636038 547348 476722
2378.78 426070 385562 354148 347948 352484 346654
2384.56 321748 310162 316462 327430 335486 337492
2390.35 332592 352784 374962 389750 416008 426858
2396.14 419956 432512 441416 444964 470356 524278
2401.92 563196 566988 564708 601660 639078 657388
2407.71 676606 713244 758940 801942 813792 804346
2413.49 802236 809720 832496 874440 870362 852478
2419.28 851008 836494 817722 804392 778598 756304
2425.06 752838 767652 809256 883022 926520 941282
2430.85 961776 979372 974838 970460 954128 933050
2436.63 912422 894896 889326 887908 878228 888520
2442.42 896206 888718 879692 884116 907258 945112
2448.20 979752 1025892 1044290 1036150 1068020 1115124
2453.99 1138242 1173212 1187806 1201262 1218102 1223982
2459.77 1250238 1279984 1302200 1338812 1374860 1427236
2465.56 1470934 1517950 1573374 1635558 1719024 1818238
2471.35 1916832 1996690 2080956 2243082 2402740 2543080
2477.13 2699594 2851972 3068092 3297172 3442050 3559386
2482.92 3613394 3625464 3644462 3607578 3514096 3365548
2488.70 3117164 2832240 2616480 2606402 2873292 3062234
2494.49 2796202 2524508 2609858 2881488 3167908 3414194
2500.27 3571582 3631802 3628870 3532616 3362784 3142118
2506.06 2891474 2681050 2436512 2186308 1940346 1722072
2511.84 1567200 1397602 1252190 1166416 1089954 1023502
2517.63 947962 873782 833226 822594 807538 788330
2523.41 758582 750688 722718 691672 681594 668010
2529.20 667950 677842 672100 648794 602464 583072
2534.99 576466 574622 579476 569318 553714 547078
2540.77 532778 520318 501688 471020 450510 472356
2546.56 492214 496540 511372 527686 526180 540700
2552.34 571054 597084 611132 627820 654546 685820
2558.13 705036 729170 755868 775982 775052 756904
2563.91 756554 811482 857108 895548 972894 1079414
2569.70 1174208 1226772 1238690 1273864 1309106 1302342
2575.48 1245664 1145886 1031256 944012 885252 887432
2581.27 962490 1025514 966602 894628 926336 1010254
2587.05 1071380 1104110 1118526 1115674 1075148 1039538
2592.84 1019202 979446 906720 824382 715244 615264
2598.63 542112 474778 411296 357162 319578 315868
2604.41 314152 304972 288884 270654 239872 223094
2610.20 241162 267848 264768 258304 262296 260052
2615.98 265838 283170 286706 294562 278670 273996
2621.77 314076 352654 345790 325486 328474 366916
2627.55 415256 433360 389544 350250 357192 386650
2633.34 395556 389702 399580 438240 442344 421172
2639.12 411246 420374 444896 472668 476654 473908
2644.91 477692 470848 430102 395780 390760 397360
2650.69 392476 368774 339146 338864 354644 363836
2656.48 335966 317238 323290 314154 296192 310088
2662.27 328328 342560 322656 273932 254076 249986
2668.05 234952 240434 242442 227376 200890 184770
2673.84 188486 204260 200240 179222 169980 173384
2679.62 168512 175912 185504 210798 246474 272080
2685.41 254638 226958 221784 231104 237070 251444
2691.19 261772 265588 295180 343138 353756 350742
2696.98 361118 391472 424424 457590 447426 427308
2702.76 431124 441966 461634 495838 509634 507846
2708.55 500660 511044 532918 559888 598196 668572
2714.33 731246 770554 818458 883082 924296 938856
2720.12 934298 934250 926344 893192 841980 807514
2725.91 759146 695386 645938 618738 602840 604718
2731.69 598766 591754 606204 680692 770038 758788
2737.48 686964 665202 656008 635848 610186 587138
2743.26 577490 589344 571526 510240 458698 465222
2749.05 468016 434552 408352 413216 414120 419378
2754.83 412856 394898 378374 332100 217022 160460
2760.62 279200 433204 457276 416424 384704 367266
2766.40 363394 391442 411332 409774 385640 369024
2772.19 380664 418394 436320 446358 482264 495452
2777.97 470542 493010 551392 604472 656684 710260
2783.76 751574 790852 805482 807718 813134 820616
2789.54 812738 818940 822788 803232 762630 749030
2795.33 786926 840464 883068 919196 917330 908608
2801.12 939758 1013068 1071196 1104264 1130794 1142010
2806.90 1120940 1109812 1093686 1035996 933494 832814
2812.69 775540 762380 748738 745438 754148 755918
2818.47 739356 753502 806258 872490 918622 930892
2824.26 911276 923710 963652 996946 1041024 1072890
2830.04 1080242 1159118 1298614 1421206 1524796 1658378
2835.83 1786332 1876862 1968300 2131050 2331774 2502520
2841.61 2655442 2840766 3030558 3204928 3373732 3546150
2847.40 3662878 3737120 3821426 3909136 3960992 4011812
2853.18 4103516 4240112 4353870 4452224 4538350 4597096
2858.97 4663438 4761014 4860568 4982702 5147036 5309748
2864.76 5375964 5402704 5476616 5564658 5619668 5659232
2870.54 5710754 5766558 5773362 5810144 5941776 6174146
2876.33 6484654 6854004 7239032 7501176 7471202 7313100
2882.11 7269784 7355168 7518946 7752356 7964454 8173732
2887.90 8473010 8838726 9353780 9945290 10151830 10077540
2893.68 10089150 10123850 10189660 10376000 10543510 10818870
2899.47 11205630 11330650 11406030 11622220 11668210 11890390
2905.25 12263390 12395470 12777000 13233720 13455410 14015140
2911.04 14496470 14817710 15633440 16452580 17352750 18202450
2916.82 18065980 17595690 17415420 17219640 17002260 16864860
2922.61 16828090 17003530 17449540 18334700 19576910 20801810
2928.40 21762500 22481490 23045280 23550620 24057240 24484760
2934.18 24786530 24952170 24984150 25096370 25161870 25368840
2939.97 25722380 26020440 26590720 27269850 27933550 28422840
2945.75 28953060 29877830 30871950 32077760 33213850 34393620
2951.54 35382160 35566090 35879500 36434200 37172190 38365630
2957.32 39457400 40782270 42350360 44074380 46511250 49531850
2963.11 53582490 58495290 63777600 69260900 72735960 74411580
2968.89 76952900 79995030 83420820 87687430 90923070 93027940
2974.68 94957660 95364190 94135660 92708450 90162760 86494420
2980.46 83566570 82765100 85481260 87705130 86499420 87455420
2986.25 93456030 101338600 108534500 114413400 118770800 122836500
2992.04 124920800 125168300 125242200 125113000 127309400 129432900
2997.82 130039500 130611900 130117900 129869700 128369000 125205600
3003.61 122474700 119113400 114945600 109512400 104714000 103069000
3009.39 102969400 101224600 97241580 97036130 102070800 107028100
3015.18 110306800 112820000 114960500 116768900 117680300 118117200
3020.96 117840500 116383200 114783800 112151700 109054400 106258000
3026.75 103007400 99923750 96885690 94643240 93855930 94521420
3032.53 96856060 99775020 102648400 105480300 109374600 113374900
3038.32 117300600 121579300 124119200 126187100 128154800 128526900
3044.10 128087300 127303300 124679100 121256400 117576100 112322100
3049.89 107005400 102385000 99631340 101066800 103273400 102313400
3055.67 103087800 107997700 114738500 122647300 129161500 134703900
3061.46 140724800 143754000 145307500 146447500 145237300 143960600
3067.25 142215700 139393400 137304500 136251000 134782500 133495100
3073.03 133236700 133883300 135971700 137955800 140732300 144395300
3078.82 147695900 154736500 161560000 165962700 174996500 182813600
3084.60 189207100 199400500 204167600 206715000 210219100 208497400
3090.39 205149200 197841000 185613700 172869800 158640400 146681300
3096.17 142424800 139736000 134475600 132857800 131932400 132954200
3101.96 145137400 163895100 181255400 194932500 202181600 204892900
3107.74 205126500 200217600 193489600 184160600 172271100 162044400
3113.53 149159200 137109200 127640000 117157300 110035800 102675200
3119.31 94111190 89290350 84743820 80520120 77095540 72630860
3125.10 69503700 66689120 63998340 61729890 58511800 55840210
3130.89 53602420 51100200 48873470 46560460 43962610 41875230
3136.67 39533530 37340080 35470110 33320150 31499530 29693520
3142.46 27750250 26101490 24465940 22860970 21461600 19969480
3148.24 18501990 17257160 15966170 14809490 13768250 12728540
3154.03 11749840 10811440 9982634 9196650 8450068 7750206
3159.81 7098190 6594842 6081554 5557708 5076364 4608216
3165.60 4233568 3955448 3646046 3341564 3129718 2885578
3171.38 2619340 2462208 2201612 1876490 1635842 1447726
3177.17 1300082 1175152 1053410 980730 949564 937368
3182.95 923164 925430 920884 917920 894570 790618
3188.74 662646 544418 363118 327640 474508 559042
3194.53 583032 604192 550028 413118 238236 165980
3200.31 214546 246634 186402 84492 7844 16968
3206.10 69176 121978 140292 185886 256848 320520
3211.88 358266 404310 468614 568304 684046 781080
3217.67 860014 964494 1063234 1156388 1201824 1241484
3223.45 1298954 1328938 1347844 1339978 1272550 1234294
3229.24 1239576 1252060 1300960 1467998 1724336 1918462
3235.02 1900298 1816656 1867804 1973952 2006764 2032064
3240.81 2049262 2024362 1947698 1855944 1720684 1574158
3246.59 1451470 1336194 1220394 1133928 1058698 976480
3252.38 881154 799868 742430 752806 751740 678782
3258.17 643898 674390 663312 656736 667866 669498
3263.95 658818 643444 612634 566104 524012 518052
3269.74 489038 449836 432574 411308 355988 325024
3275.52 330556 347426 336824 305920 259020 219764
3281.31 207174 208134 183218 177630 206902 245054
3287.09 266080 285592 266136 215376 197058 245014
3292.88 294438 322420 344150 372644 398274 455692
3298.66 494036 507472 499574 475046 442688 410060
3304.45 398212 437176 476034 480080 480588 502680
3310.23 495432 471294 484486 550554 593444 589372
3316.02 568224 572244 581794 579732 557680 536398
3321.80 519786 491720 430090 408064 433568 462236
3327.59 414902 352422 340930 329552 279502 238576
3333.38 266760 306336 245940 179708 184852 207656
3339.16 188698 192144 216106 244090 235386 179874
3344.95 114492 102922 139388 176276 152640 108462
3350.73 122022 197700 203906 165492 170848 189916
3356.52 193034 211294 210284 224312 261064 264902
3362.30 234738 250556 281384 273416 232446 205224
3368.09 205024 265042 357366 471358 538954 510474
3373.87 456218 464968 515772 575796 612764 651122
3379.66 715778 764140 754826 767728 842732 973734
3385.44 1079318 1132186 1168332 1224844 1257098 1280866
3391.23 1340412 1393768 1367884 1267386 1172618 1164550
3397.02 1138274 1098596 1122574 1185532 1246186 1318402
3402.80 1372738 1407974 1414710 1415412 1412304 1384510
3408.59 1326258 1305124 1290702 1220670 1093246 949500
3414.37 816846 794550 851360 863424 814878 764472
3420.16 692734 634100 564774 489178 442254 423910
3425.94 436524 462318 422306 360704 342494 377110
3431.73 401432 379362 353078 398178 442326 469958
3437.51 526862 610600 670496 725644 769406 776390
3443.30 739630 729518 781264 829998 791138 718206
3449.08 646454 613648 580494 545160 495278 463532
3454.87 481714 521960 568276 639092 718134 751340
3460.66 725648 724052 738300 740048 695126 700676
3466.44 740784 699308 626866 586078 527242 464566
3472.23 424634 421296 378504 310632 292850 335284
3478.01 360954 382130 413360 445160 400308 328770
3483.80 323176 348922 341576 369688 426196 454102
3489.58 433354 381314 335350 338592 373548 437020
3495.37 451288 421744 422990 485292 540402 568774
3501.15 597390 640992 628650 574120 535328 511504
3506.94 512584 605876 652348 605338 564466 552898
3512.72 534496 549906 582852 606754 606896 588648
3518.51 561710 579490 626816 650604 620104 610894
3524.30 631704 686648 764108 812298 789368 738172
3530.08 730410 746418 740336 717064 671298 676718
3535.87 693366 671868 627208 585456 536270 501332
3541.65 518878 580122 655434 735516 770144 756192
3547.44 692636 680134 694338 721896 764202 786274
3553.22 762226 714936 655586 592872 557136 576332
3559.01 615786 635414 622366 626272 645248 739892
3564.79 946626 1141410 1219782 1049328 723032 573442
3570.58 567250 604174 621992 645774 666660 685190
3576.36 712074 723638 704986 684208 654478 678444
3582.15 740888 770684 885714 1232492 1433940 1472302
3587.94 1432416 1135230 899664 918596 1060326 1167616
3593.72 1251178 1316250 1270206 1265152 1299870 1339444
3599.51 1382340 1360248 1305820 1274960 1256058 1266700
3605.29 1368796 1543106 1805548 2049162 1732276 1357686
3611.08 1526008 1664034 1534020 1437628 1399310 1577780
3616.86 1884462 2185512 2243404 1887134 1576302 1436610
3622.65 1291714 1208524 1124740 1105884 1613690 2513446
3628.43 2728892 1880926 993108 768060 828706 769138
3634.22 539596 376706 340930 422740 617774 848594
3640.00 944910 889352 713224 552890 523376 755770
3645.79 1245566 1667788 2113026 2256654 1797376 1183926
3651.57 564456 256676 311488 797138 1090000 626736
3657.36 179318 103568 114442 132484 119902 121350
3663.15 107944 78226 71318 234380 662598 1155506
3668.93 1812688 2086536 1120184 359588 802496 1954894
3674.72 2618692 1872098 726756 381030 416620 305398
3680.50 162746 153512 163500 157626 135148 308332
3686.29 1268064 2456690 2035746 1107454 1010542 741398
3692.07 301962 188314 203184 258624 275154 255106
3697.86 248882 290218 528910 814300 656232 345328
3703.64 233640 230096 207648 271038 640808 954194
3709.43 947456 1433490 1752272 1026586 403574 280590
3715.21 198108 195348 295316 371406 317504 388702
3721.00 591302 541586 355166 413934 635250 700304
3726.79 445248 242714 238946 601036 1377436 1528644
3732.57 1081150 1234288 1627942 1735748 1287256 680188
3738.36 431056 438108 459512 545586 1752770 3892250
3744.14 3727854 1562364 586074 1211634 2491674 2507152
3749.93 2003400 2745568 2423230 885774 225736 356718
3755.71 493854 431428 547450 810276 665088 332422
3761.50 190826 176584 318820 595168 532976 217660
3767.28 270290 745996 901584 491934 173356 135484
3773.07 142400 125458 123864 147628 247052 516814
3778.85 579562 314946 151396 154652 235958 335220
3784.64 312066 229088 162218 142464 155312 185032
3790.43 206166 207146 199076 224926 432060 743438
3796.21 690288 451724 473222 1230228 2463962 2339074
3802.00 1125894 509000 476256 1093956 1824382 1389064
3807.78 512204 257838 265716 291196 302236 365274
3813.57 934404 2249758 2452834 1195950 533258 834680
3819.35 1624354 2115496 1579168 783296 477382 508734
3825.14 699830 785158 617372 497252 588144 925156
3830.92 1062162 795308 853070 1228614 1235922 1816444
3836.71 2887018 2394992 1352072 1190780 1059818 956336
3842.49 1095478 994512 715532 628466 679598 794682
3848.28 904136 1126738 2031502 3076930 3962524 4740772
3854.07 3405766 1456210 963760 896804 770686 798358
3859.85 1023000 1228628 1148734 1278020 1733878 1658664
3865.64 1116022 964342 1483162 2380038 2394446 1513298
3871.42 1078928 1305244 1481860 1221370 911036 874874
3877.21 995178 1346998 1703380 1504972 1081284 996154
3882.99 1217914 1903634 2294234 1680238 1072934 968846
3888.78 1167374 1668692 1793862 1327688 968126 864298
3894.56 797164 804258 976928 1390600 1668744 1584746
3900.35 1724914 1851734 1847490 1933152 1603032 1195364
3906.13 999032 931604 928354 896854 852654 845204
3911.92 833342 809504 797024 942178 1202882 1215148
3917.70 1043280 1058642 1034182 903490 873936 979832
3923.49 1119474 1113808 979182 947764 999518 1071796
3929.28 1102234 1149206 1216934 1159230 1048922 1021634
3935.06 978078 937634 948088 960042 932248 958026
3940.85 1065558 1164022 1112580 1065220 1089558 1149166
3946.63 1244268 1282042 1169158 1085262 1096640 1163402
3952.42 1230130 1235168 1219596 1256678 1270312 1263332
3958.20 1305508 1418548 1513488 1555892 1594508 1704212
3963.99 1806286 1890046 2002024 2167558 2344082 2519718
3969.77 2655840 2800836 2964814 3091000 3165940
##END=
