##TITLE=1,4-DIMETHYL BENZENE
##JCAMP-DX=4.24
##DATA TYPE=INFRARED SPECTRUM
##CLASS=COBLENTZ
##ORIGIN=STANDARD OIL OF OHIO
##OWNER=COBLENTZ SOCIETY
Collection (C) 2018 copyright by the U.S. Secretary of Commerce
on behalf of the United States of America. All rights reserved.
##DATE=Not specified, most likely prior to 1970
##NAMES=p-xylene
p-XYLENE
##CAS REGISTRY NO=106-42-3
##MOLFORM=C8 H10
##SOURCE REFERENCE=COBLENTZ NO. 3575
##$NIST SOURCE=COBLENTZ
##$NIST IMAGE=cob3575
##SPECTROMETER/DATA SYSTEM=PERKIN-ELMER
##STATE=LIQUID
##PATH LENGTH=0.0025 CM
##SAMPLING PROCEDURE=TRANSMISSION
##RESOLUTION=4
##DATA PROCESSING=DIGITIZED BY NIST FROM HARD COPY (FROM TWO SEGMENTS)
##XUNITS=1/CM
##YUNITS=TRANSMITTANCE
##XFACTOR=1.000000
##YFACTOR=1
##DELTAX=1.684920
##FIRSTX=604.73
##LASTX=3945.93
##FIRSTY=0.631
##MAXX=3945.93
##MINX=604.73
##MAXY=0.912
##MINY=0.021
##NPOINTS=1984
##XYDATA=(X++(Y..Y))
604.730000 0.6310 0.6310 0.6320 0.6320 0.6340
613.154600 0.6340 0.6360 0.6360 0.6370 0.6389
621.579200 0.6439 0.6479 0.6480 0.6490 0.6490
630.003800 0.6509 0.6539 0.6578 0.6589 0.6637
638.428400 0.6659 0.6698 0.6709 0.6776 0.6845
646.853000 0.6915 0.6994 0.7065 0.7079 0.7135
655.277600 0.7168 0.7198 0.7264 0.7288 0.7299
663.702200 0.7363 0.7433 0.7485 0.7508 0.7510
672.126800 0.7537 0.7576 0.7607 0.7637 0.7658
680.551400 0.7686 0.7725 0.7774 0.7806 0.7827
688.976000 0.7847 0.7859 0.7877 0.7880 0.7897
697.400600 0.7909 0.7953 0.8011 0.8028 0.8064
705.825200 0.8078 0.8097 0.8117 0.8128 0.8130
714.249800 0.8147 0.8150 0.8166 0.8170 0.8178
722.674400 0.8180 0.8196 0.8241 0.8282 0.8298
731.099000 0.8332 0.8340 0.8340 0.8348 0.8350
739.523600 0.8342 0.8340 0.8340 0.8324 0.8297
747.948200 0.8259 0.8227 0.8205 0.8200 0.8185
756.372800 0.8172 0.8155 0.8112 0.8062 0.8027
764.797400 0.7975 0.7922 0.7873 0.7726 0.7554
773.222000 0.7346 0.7216 0.6990 0.6758 0.6297
781.646600 0.5684 0.5155 0.4407 0.3603 0.2859
790.071200 0.1651 0.0728 0.0313 0.0216 0.0210
798.495800 0.0210 0.0238 0.0640 0.1198 0.1762
806.920400 0.2328 0.3860 0.4943 0.5620 0.6096
815.345000 0.6485 0.6927 0.7187 0.7340 0.7456
823.769600 0.7503 0.7543 0.7560 0.7547 0.7527
832.194200 0.7513 0.7510 0.7516 0.7559 0.7599
840.618800 0.7674 0.7806 0.7892 0.7967 0.8044
849.043400 0.8108 0.8174 0.8256 0.8321 0.8358
857.468000 0.8389 0.8425 0.8471 0.8490 0.8502
865.892600 0.8516 0.8520 0.8550 0.8582 0.8602
874.317200 0.8616 0.8620 0.8620 0.8620 0.8632
882.741800 0.8640 0.8640 0.8640 0.8640 0.8629
891.166400 0.8620 0.8614 0.8610 0.8599 0.8590
899.591000 0.8579 0.8570 0.8565 0.8560 0.8560
908.015600 0.8560 0.8560 0.8549 0.8540 0.8529
916.440200 0.8515 0.8510 0.8500 0.8490 0.8464
924.864800 0.8414 0.8369 0.8324 0.8295 0.8290
933.289400 0.8290 0.8290 0.8290 0.8290 0.8280
941.714000 0.8270 0.8260 0.8245 0.8221 0.8186
950.138600 0.8146 0.8120 0.8101 0.8052 0.8011
958.563200 0.8000 0.8000 0.8000 0.8009 0.8034
966.987800 0.8059 0.8083 0.8113 0.8139 0.8150
975.412400 0.8159 0.8170 0.8161 0.8150 0.8150
983.837000 0.8150 0.8150 0.8150 0.8142 0.8126
992.261600 0.8112 0.8100 0.8092 0.8076 0.8042
1000.686200 0.7980 0.7934 0.7910 0.7906 0.7873
1009.110800 0.7784 0.7698 0.7618 0.7470 0.7337
1017.535400 0.7126 0.6585 0.5733 0.5240 0.5428
1025.960000 0.5952 0.6290 0.6218 0.6029 0.5800
1034.384600 0.5489 0.5223 0.4958 0.4759 0.4663
1042.809200 0.4637 0.4660 0.4788 0.5103 0.5537
1051.233800 0.6117 0.6360 0.6424 0.6623 0.6828
1059.658400 0.7039 0.7208 0.7312 0.7369 0.7451
1068.083000 0.7611 0.7681 0.7745 0.7803 0.7871
1076.507600 0.7900 0.7900 0.7900 0.7894 0.7872
1084.932200 0.7831 0.7769 0.7713 0.7535 0.7115
1093.356800 0.6695 0.6439 0.6094 0.5672 0.5653
1101.781400 0.5800 0.6230 0.6299 0.6420 0.6394
1110.206000 0.6163 0.5517 0.4889 0.4518 0.4375
1118.630600 0.4188 0.4929 0.5733 0.6736 0.7296
1127.055200 0.7752 0.8117 0.8199 0.8276 0.8310
1135.479800 0.8360 0.8404 0.8428 0.8462 0.8474
1143.904400 0.8490 0.8490 0.8490 0.8490 0.8486
1152.329000 0.8470 0.8470 0.8468 0.8457 0.8440
1160.753600 0.8437 0.8415 0.8384 0.8350 0.8342
1169.178200 0.8293 0.8243 0.8186 0.8089 0.8017
1177.602800 0.8000 0.8003 0.8044 0.8205 0.8246
1186.027400 0.8300 0.8372 0.8390 0.8390 0.8390
1194.452000 0.8390 0.8390 0.8390 0.8390 0.8388
1202.876600 0.8370 0.8368 0.8345 0.8275 0.8096
1211.301200 0.7797 0.7388 0.7017 0.6660 0.6700
1219.725800 0.7233 0.7804 0.8139 0.8270 0.8270
1228.150400 0.8267 0.8219 0.8198 0.8167 0.8119
1236.575000 0.8100 0.8100 0.8101 0.8123 0.8203
1244.999600 0.8292 0.8372 0.8422 0.8490 0.8491
1253.424200 0.8510 0.8510 0.8510 0.8510 0.8490
1261.848800 0.8490 0.8490 0.8490 0.8490 0.8490
1270.273400 0.8490 0.8490 0.8490 0.8490 0.8490
1278.698000 0.8490 0.8490 0.8490 0.8490 0.8461
1287.122600 0.8460 0.8441 0.8401 0.8400 0.8390
1295.547200 0.8390 0.8352 0.8321 0.8272 0.8241
1303.971800 0.8183 0.8152 0.8103 0.8072 0.8023
1312.396400 0.8001 0.7981 0.7952 0.7950 0.7950
1320.821000 0.7950 0.7950 0.7932 0.7930 0.7903
1329.245600 0.7837 0.7830 0.7803 0.7782 0.7744
1337.670200 0.7731 0.7685 0.7662 0.7633 0.7595
1346.094800 0.7564 0.7516 0.7475 0.7426 0.7376
1354.519400 0.7344 0.7279 0.7201 0.7087 0.6925
1362.944000 0.6730 0.6434 0.6133 0.5595 0.5221
1371.368600 0.5001 0.4970 0.5221 0.5654 0.6029
1379.793200 0.6421 0.6648 0.6747 0.6801 0.6843
1388.217800 0.6850 0.6850 0.6834 0.6806 0.6744
1396.642400 0.6578 0.6435 0.6200 0.6070 0.5970
1405.067000 0.5886 0.5736 0.5606 0.5509 0.5357
1413.491600 0.5242 0.5157 0.5070 0.4988 0.4908
1421.916200 0.4836 0.4789 0.4757 0.4735 0.4707
1430.340800 0.4587 0.4482 0.4407 0.4270 0.4125
1438.765400 0.3889 0.3753 0.3619 0.3507 0.3392
1447.190000 0.3287 0.3187 0.3087 0.3009 0.2990
1455.614600 0.3040 0.3117 0.3190 0.3196 0.3204
1464.039200 0.3280 0.3493 0.3676 0.3769 0.3944
1472.463800 0.4163 0.4423 0.4572 0.4620 0.4712
1480.888400 0.4784 0.4929 0.4997 0.5034 0.5043
1489.313000 0.5007 0.4864 0.4780 0.4724 0.4687
1497.737600 0.4660 0.4617 0.4554 0.4478 0.4249
1506.162200 0.3432 0.2803 0.2250 0.1858 0.1613
1514.586800 0.1370 0.0959 0.0732 0.0748 0.0981
1523.011400 0.2167 0.3342 0.4043 0.4772 0.5331
1531.436000 0.5796 0.6145 0.6445 0.6700 0.6828
1539.860600 0.6955 0.7179 0.7308 0.7332 0.7352
1548.285200 0.7366 0.7422 0.7506 0.7540 0.7569
1556.709800 0.7658 0.7738 0.7799 0.7847 0.7871
1565.134400 0.7880 0.7935 0.7991 0.8011 0.8020
1573.559000 0.8025 0.8052 0.8102 0.8157 0.8180
1581.983600 0.8190 0.8211 0.8231 0.8245 0.8260
1590.408200 0.8270 0.8270 0.8270 0.8270 0.8260
1598.832800 0.8235 0.8200 0.8165 0.8150 0.8140
1607.257400 0.8125 0.8100 0.8075 0.8046 0.8001
1615.682000 0.7966 0.7869 0.7723 0.7646 0.7597
1624.106600 0.7448 0.7204 0.7038 0.6877 0.6716
1632.531200 0.6700 0.6745 0.7067 0.7399 0.7588
1640.955800 0.7903 0.8099 0.8283 0.8394 0.8417
1649.380400 0.8482 0.8574 0.8658 0.8718 0.8734
1657.805000 0.8740 0.8740 0.8740 0.8740 0.8740
1666.229600 0.8740 0.8740 0.8748 0.8788 0.8842
1674.654200 0.8868 0.8892 0.8918 0.8938 0.8950
1683.078800 0.8950 0.8954 0.8960 0.8967 0.8980
1691.503400 0.8980 0.8980 0.8980 0.8980 0.8973
1699.928000 0.8960 0.8960 0.8960 0.8960 0.8960
1708.352600 0.8960 0.8957 0.8943 0.8923 0.8907
1716.777200 0.8877 0.8817 0.8790 0.8787 0.8780
1725.201800 0.8780 0.8780 0.8780 0.8780 0.8780
1733.626400 0.8780 0.8780 0.8783 0.8790 0.8790
1742.051000 0.8790 0.8790 0.8790 0.8790 0.8790
1750.475600 0.8790 0.8790 0.8790 0.8790 0.8790
1758.900200 0.8787 0.8780 0.8780 0.8780 0.8780
1767.324800 0.8780 0.8780 0.8780 0.8780 0.8780
1775.749400 0.8780 0.8775 0.8753 0.8719 0.8664
1784.174000 0.8595 0.8529 0.8445 0.8263 0.8137
1792.598600 0.8007 0.7939 0.7860 0.7884 0.8048
1801.023200 0.8340 0.8439 0.8540 0.8642 0.8742
1809.447800 0.8803 0.8864 0.8884 0.8902 0.8910
1817.872400 0.8910 0.8908 0.8900 0.8897 0.8872
1826.297000 0.8827 0.8807 0.8782 0.8740 0.8739
1834.721600 0.8730 0.8731 0.8740 0.8743 0.8763
1843.146200 0.8784 0.8813 0.8830 0.8831 0.8840
1851.570800 0.8840 0.8839 0.8830 0.8828 0.8808
1859.995400 0.8789 0.8775 0.8726 0.8689 0.8678
1868.420000 0.8658 0.8634 0.8562 0.8483 0.8415
1876.844600 0.8364 0.8287 0.8140 0.8012 0.7892
1885.269200 0.7647 0.7443 0.7050 0.6776 0.6452
1893.693800 0.6340 0.6342 0.6379 0.6554 0.7017
1902.118400 0.7375 0.7723 0.8037 0.8178 0.8356
1910.543000 0.8495 0.8613 0.8692 0.8741 0.8760
1918.967600 0.8760 0.8760 0.8760 0.8760 0.8760
1927.392200 0.8760 0.8760 0.8780 0.8860 0.8910
1935.816800 0.8980 0.8980 0.9000 0.9000 0.9000
1944.241400 0.9000 0.8980 0.8980 0.8980 0.8980
1952.666000 0.8961 0.8931 0.8930 0.8930 0.8930
1961.090600 0.8949 0.8979 0.8980 0.8980 0.8980
1969.515200 0.8980 0.8980 0.8980 0.8980 0.8980
1977.939800 0.8952 0.8931 0.8930 0.8930 0.8930
1986.364400 0.8930 0.8930 0.8930 0.8930 0.8912
1994.789000 0.8910 0.8883 0.8772 0.8760 0.8914
2003.213600 0.8930 0.8975 0.8980 0.8998 0.9009
2011.638200 0.9010 0.9001 0.9027 0.9057 0.9078
2020.062800 0.9080 0.9080 0.9080 0.9080 0.9080
2028.487400 0.9080 0.9062 0.9060 0.9060 0.9060
2036.912000 0.9051 0.9050 0.9050 0.9059 0.9060
2045.336600 0.9078 0.9080 0.9080 0.9080 0.9080
2053.761200 0.9080 0.9098 0.9100 0.9100 0.9100
2062.185800 0.9118 0.9120 0.9102 0.9100 0.9100
2070.610400 0.9100 0.9100 0.9100 0.9100 0.9100
2079.035000 0.9100 0.9100 0.9082 0.9080 0.9080
2087.459600 0.9080 0.9062 0.9060 0.9060 0.9015
2095.884200 0.9001 0.8982 0.8962 0.8915 0.8910
2104.308800 0.8901 0.8864 0.8860 0.8878 0.8970
2112.733400 0.9025 0.9075 0.9080 0.9080 0.9080
2121.158000 0.9080 0.9098 0.9100 0.9100 0.9100
2129.582600 0.9118 0.9120 0.9102 0.9100 0.9100
2138.007200 0.9100 0.9100 0.9100 0.9100 0.9100
2146.431800 0.9100 0.9100 0.9100 0.9100 0.9100
2154.856400 0.9100 0.9100 0.9100 0.9100 0.9082
2163.281000 0.9080 0.9080 0.9080 0.9080 0.9080
2171.705600 0.9080 0.9080 0.9080 0.9080 0.9080
2180.130200 0.9080 0.9080 0.9080 0.9080 0.9080
2188.554800 0.9080 0.9062 0.9060 0.9060 0.9060
2196.979400 0.9060 0.9051 0.9050 0.9032 0.9012
2205.404000 0.9001 0.8982 0.8980 0.8980 0.8998
2213.828600 0.9000 0.9009 0.9046 0.9059 0.9060
2222.253200 0.9060 0.9078 0.9080 0.9080 0.9080
2230.677800 0.9080 0.9080 0.9080 0.9080 0.9080
2239.102400 0.9080 0.9080 0.9080 0.9080 0.9062
2247.527000 0.9060 0.9051 0.9014 0.9028 0.9057
2255.951600 0.9078 0.9098 0.9100 0.9100 0.9100
2264.376200 0.9100 0.9100 0.9082 0.9080 0.9080
2272.800800 0.9062 0.9033 0.9012 0.9010 0.9010
2281.225400 0.9001 0.9000 0.9000 0.9000 0.8955
2289.650000 0.8932 0.8912 0.8910 0.8910 0.8901
2298.074600 0.8900 0.8882 0.8862 0.8833 0.8739
2306.499200 0.8685 0.8626 0.8620 0.8620 0.8674
2314.923800 0.8887 0.8991 0.9000 0.9000 0.9000
2323.348400 0.8982 0.8962 0.8933 0.8912 0.8883
2331.773000 0.8862 0.8860 0.8842 0.8840 0.8840
2340.197600 0.8858 0.8860 0.8878 0.8907 0.8928
2348.622200 0.8957 0.8978 0.8998 0.9000 0.9000
2357.046800 0.9000 0.9000 0.9000 0.9000 0.8982
2365.471400 0.8980 0.8962 0.8960 0.8960 0.8960
2373.896000 0.8960 0.8960 0.8960 0.8960 0.8951
2382.320600 0.8950 0.8950 0.8950 0.8950 0.8950
2390.745200 0.8950 0.8932 0.8930 0.8930 0.8912
2399.169800 0.8910 0.8901 0.8900 0.8882 0.8880
2407.594400 0.8862 0.8860 0.8860 0.8842 0.8840
2416.019000 0.8831 0.8830 0.8830 0.8830 0.8830
2424.443600 0.8839 0.8876 0.8880 0.8880 0.8880
2432.868200 0.8880 0.8880 0.8880 0.8898 0.8909
2441.292800 0.8928 0.8948 0.8950 0.8959 0.8960
2449.717400 0.8978 0.8980 0.8980 0.8980 0.8980
2458.142000 0.8980 0.8980 0.8962 0.8960 0.8960
2466.566600 0.8960 0.8960 0.8960 0.8960 0.8960
2474.991200 0.8960 0.8960 0.8978 0.8980 0.8980
2483.415800 0.8980 0.8980 0.8980 0.8980 0.8980
2491.840400 0.8998 0.9000 0.9000 0.9009 0.9073
2500.265000 0.9017 0.9001 0.9009 0.9010 0.9010
2508.689600 0.9010 0.9010 0.9010 0.9010 0.9010
2517.114200 0.9010 0.9010 0.9010 0.9010 0.9010
2525.538800 0.9001 0.9000 0.9000 0.8955 0.8932
2533.963400 0.8930 0.8930 0.8930 0.8975 0.8998
2542.388000 0.9000 0.9009 0.9010 0.9028 0.9048
2550.812600 0.9050 0.9032 0.9012 0.9010 0.9010
2559.237200 0.9010 0.9010 0.9010 0.9010 0.9010
2567.661800 0.9001 0.9000 0.9000 0.9000 0.8982
2576.086400 0.8953 0.8914 0.8883 0.8790 0.8717
2584.511000 0.8683 0.8662 0.8642 0.8640 0.8658
2592.935600 0.8687 0.8753 0.8778 0.8780 0.8780
2601.360200 0.8789 0.8826 0.8830 0.8839 0.8858
2609.784800 0.8905 0.8955 0.8978 0.8980 0.8980
2618.209400 0.8980 0.8980 0.8980 0.8980 0.8980
2626.634000 0.8962 0.8960 0.8960 0.8960 0.8960
2635.058600 0.8960 0.8951 0.8950 0.8950 0.8950
2643.483200 0.8959 0.8960 0.8960 0.8978 0.8980
2651.907800 0.8998 0.9000 0.9000 0.9000 0.9000
2660.332400 0.9000 0.9000 0.9000 0.9000 0.9000
2668.757000 0.9000 0.9000 0.9000 0.9000 0.9000
2677.181600 0.9000 0.9000 0.9000 0.9000 0.8982
2685.606200 0.8980 0.8962 0.8951 0.8932 0.8903
2694.030800 0.8882 0.8880 0.8862 0.8842 0.8831
2702.455400 0.8830 0.8812 0.8810 0.8783 0.8762
2710.880000 0.8715 0.8683 0.8680 0.8644 0.8613
2719.304600 0.8592 0.8572 0.8525 0.8511 0.8492
2727.729200 0.8399 0.8263 0.8160 0.8060 0.8005
2736.153800 0.7423 0.7216 0.7038 0.7020 0.7446
2744.578400 0.7689 0.7891 0.8145 0.8378 0.8553
2753.003000 0.8633 0.8658 0.8687 0.8690 0.8708
2761.427600 0.8710 0.8710 0.8710 0.8710 0.8710
2769.852200 0.8692 0.8690 0.8690 0.8690 0.8690
2778.276800 0.8681 0.8680 0.8662 0.8615 0.8592
2786.701400 0.8590 0.8572 0.8543 0.8522 0.8511
2795.126000 0.8510 0.8492 0.8472 0.8443 0.8404
2803.550600 0.8391 0.8327 0.8302 0.8255 0.8223
2811.975200 0.8175 0.8134 0.8085 0.8008 0.8000
2820.399800 0.7919 0.7811 0.7746 0.7686 0.7598
2828.824400 0.7499 0.7381 0.7307 0.7246 0.7159
2837.249000 0.7123 0.7039 0.6868 0.6678 0.6597
2845.673600 0.6499 0.6418 0.6130 0.5856 0.5514
2854.098200 0.5336 0.5221 0.4886 0.4623 0.4382
2862.522800 0.3961 0.3703 0.3481 0.3017 0.2817
2870.947400 0.2701 0.2393 0.2225 0.2192 0.2190
2879.372000 0.2208 0.2273 0.2389 0.2472 0.2570
2887.796600 0.2643 0.2776 0.2970 0.3008 0.3064
2896.221200 0.3106 0.3128 0.3139 0.3140 0.3140
2904.645800 0.3140 0.3140 0.3113 0.3047 0.2949
2913.070400 0.2859 0.2624 0.2419 0.2228 0.2048
2921.495000 0.1688 0.1443 0.1123 0.0773 0.0658
2929.919600 0.0605 0.0600 0.0618 0.0638 0.0730
2938.344200 0.0920 0.1444 0.1608 0.1729 0.1831
2946.768800 0.1858 0.1887 0.1908 0.1910 0.1910
2955.193400 0.1910 0.1919 0.1920 0.1983 0.2072
2963.618000 0.2171 0.2298 0.2373 0.2443 0.2477
2972.042600 0.2480 0.2453 0.2414 0.2356 0.2305
2980.467200 0.2264 0.2251 0.2250 0.2259 0.2260
2988.891800 0.2278 0.2280 0.2280 0.2280 0.2253
2997.316400 0.2232 0.2167 0.2097 0.2000 0.1746
3005.741000 0.1603 0.1527 0.1502 0.1518 0.1583
3014.165600 0.1753 0.1969 0.2053 0.2060 0.1880
3022.590200 0.1797 0.1529 0.1410 0.1264 0.1250
3031.014800 0.1295 0.1481 0.1726 0.2003 0.2274
3039.439400 0.2480 0.2563 0.2570 0.2507 0.2482
3047.864000 0.2435 0.2312 0.2128 0.2083 0.2080
3056.288600 0.2089 0.2126 0.2247 0.2505 0.2965
3064.713200 0.3454 0.3988 0.4483 0.4954 0.5442
3073.137800 0.5733 0.6039 0.6223 0.6349 0.6478
3081.562400 0.6572 0.6698 0.6755 0.6778 0.6780
3089.987000 0.6762 0.6688 0.6680 0.6617 0.6501
3098.411600 0.6336 0.6211 0.6173 0.6197 0.6525
3106.836200 0.6957 0.7090 0.7136 0.7321 0.7567
3115.260800 0.7762 0.7979 0.8072 0.8170 0.8261
3123.685400 0.8297 0.8318 0.8320 0.8320 0.8320
3132.110000 0.8320 0.8275 0.8143 0.8031 0.8002
3140.534600 0.7892 0.7808 0.7800 0.7873 0.8052
3148.959200 0.8251 0.8451 0.8533 0.8585 0.8635
3157.383800 0.8676 0.8707 0.8710 0.8755 0.8787
3165.808400 0.8790 0.8790 0.8790 0.8808 0.8810
3174.233000 0.8837 0.8858 0.8860 0.8860 0.8878
3182.657600 0.8880 0.8880 0.8880 0.8880 0.8880
3191.082200 0.8880 0.8880 0.8898 0.8900 0.8900
3199.506800 0.8900 0.8882 0.8880 0.8907 0.8910
3207.931400 0.8910 0.8910 0.8901 0.8900 0.8909
3216.356000 0.8910 0.8910 0.8910 0.8910 0.8901
3224.780600 0.8900 0.8909 0.8910 0.8910 0.8910
3233.205200 0.8910 0.8910 0.8928 0.8930 0.8930
3241.629800 0.8912 0.8910 0.8910 0.8910 0.8910
3250.054400 0.8910 0.8910 0.8910 0.8910 0.8901
3258.479000 0.8900 0.8900 0.8900 0.8900 0.8900
3266.903600 0.8900 0.8909 0.8910 0.8910 0.8910
3275.328200 0.8910 0.8910 0.8910 0.8910 0.8910
3283.752800 0.8910 0.8910 0.8910 0.8928 0.8930
3292.177400 0.8930 0.8912 0.8910 0.8910 0.8910
3300.602000 0.8910 0.8910 0.8910 0.8910 0.8910
3309.026600 0.8910 0.8910 0.8928 0.8912 0.8910
3317.451200 0.8910 0.8910 0.8928 0.8930 0.8930
3325.875800 0.8912 0.8910 0.8910 0.8910 0.8910
3334.300400 0.8910 0.8910 0.8910 0.8910 0.8901
3342.725000 0.8900 0.8900 0.8900 0.8900 0.8900
3351.149600 0.8900 0.8900 0.8900 0.8900 0.8900
3359.574200 0.8900 0.8900 0.8900 0.8900 0.8900
3367.998800 0.8882 0.8880 0.8880 0.8880 0.8880
3376.423400 0.8880 0.8880 0.8862 0.8860 0.8860
3384.848000 0.8860 0.8860 0.8860 0.8896 0.8909
3393.272600 0.8910 0.8910 0.8910 0.8910 0.8910
3401.697200 0.8910 0.8910 0.8910 0.8910 0.8910
3410.121800 0.8928 0.8930 0.8912 0.8910 0.8910
3418.546400 0.8910 0.8910 0.8910 0.8910 0.8910
3426.971000 0.8910 0.8910 0.8910 0.8910 0.8910
3435.395600 0.8910 0.8910 0.8910 0.8910 0.8910
3443.820200 0.8910 0.8910 0.8910 0.8910 0.8928
3452.244800 0.8930 0.8930 0.8930 0.8930 0.8930
3460.669400 0.8948 0.8950 0.8914 0.8910 0.8910
3469.094000 0.8910 0.8910 0.8910 0.8910 0.8901
3477.518600 0.8900 0.8909 0.8928 0.8930 0.8912
3485.943200 0.8910 0.8910 0.8901 0.8900 0.8900
3494.367800 0.8900 0.8900 0.8900 0.8900 0.8927
3502.792400 0.8912 0.8910 0.8910 0.8928 0.8948
3511.217000 0.8950 0.8932 0.8930 0.8948 0.8950
3519.641600 0.8950 0.8950 0.8950 0.8950 0.8950
3528.066200 0.8950 0.8959 0.8960 0.8978 0.8980
3536.490800 0.8980 0.8980 0.8980 0.8962 0.8978
3544.915400 0.8980 0.8980 0.8980 0.8998 0.9000
3553.340000 0.8982 0.8980 0.8980 0.8980 0.8980
3561.764600 0.8980 0.8980 0.8980 0.8980 0.8980
3570.189200 0.8980 0.8980 0.8980 0.8980 0.8998
3578.613800 0.9000 0.9000 0.9000 0.9000 0.9000
3587.038400 0.9000 0.9000 0.8982 0.8980 0.8980
3595.463000 0.8980 0.8980 0.8980 0.8980 0.8980
3603.887600 0.8980 0.8998 0.9000 0.9000 0.9000
3612.312200 0.9000 0.9000 0.9000 0.8982 0.8980
3620.736800 0.8980 0.8962 0.8951 0.8932 0.8930
3629.161400 0.8912 0.8910 0.8910 0.8901 0.8900
3637.586000 0.8900 0.8900 0.8900 0.8900 0.8900
3646.010600 0.8882 0.8862 0.8860 0.8860 0.8860
3654.435200 0.8842 0.8840 0.8840 0.8831 0.8830
3662.859800 0.8812 0.8810 0.8810 0.8792 0.8790
3671.284400 0.8790 0.8808 0.8828 0.8857 0.8878
3679.709000 0.8880 0.8898 0.8900 0.8900 0.8900
3688.133600 0.8900 0.8900 0.8900 0.8900 0.8909
3696.558200 0.8910 0.8910 0.8910 0.8910 0.8910
3704.982800 0.8910 0.8910 0.8928 0.8930 0.8930
3713.407400 0.8930 0.8930 0.8930 0.8930 0.8912
3721.832000 0.8910 0.8910 0.8928 0.8930 0.8930
3730.256600 0.8912 0.8901 0.8900 0.8900 0.8900
3738.681200 0.8900 0.8900 0.8900 0.8900 0.8900
3747.105800 0.8900 0.8900 0.8900 0.8900 0.8900
3755.530400 0.8900 0.8900 0.8900 0.8900 0.8900
3763.955000 0.8900 0.8900 0.8900 0.8900 0.8900
3772.379600 0.8900 0.8900 0.8900 0.8900 0.8900
3780.804200 0.8900 0.8900 0.8900 0.8900 0.8900
3789.228800 0.8900 0.8900 0.8900 0.8900 0.8900
3797.653400 0.8900 0.8909 0.8910 0.8910 0.8883
3806.078000 0.8880 0.8862 0.8860 0.8860 0.8860
3814.502600 0.8860 0.8842 0.8840 0.8831 0.8830
3822.927200 0.8830 0.8830 0.8812 0.8792 0.8790
3831.351800 0.8790 0.8790 0.8790 0.8790 0.8790
3839.776400 0.8790 0.8790 0.8790 0.8781 0.8780
3848.201000 0.8780 0.8780 0.8780 0.8780 0.8780
3856.625600 0.8762 0.8760 0.8760 0.8760 0.8760
3865.050200 0.8760 0.8760 0.8742 0.8740 0.8740
3873.474800 0.8740 0.8740 0.8740 0.8740 0.8740
3881.899400 0.8740 0.8740 0.8740 0.8740 0.8740
3890.324000 0.8740 0.8740 0.8740 0.8740 0.8740
3898.748600 0.8740 0.8740 0.8740 0.8740 0.8740
3907.173200 0.8740 0.8740 0.8740 0.8740 0.8740
3915.597800 0.8740 0.8740 0.8740 0.8740 0.8758
3924.022400 0.8760 0.8760 0.8760 0.8760 0.8760
3932.447000 0.8760 0.8760 0.8760 0.8760 0.8742
3940.871600 0.8740 0.8740 0.8740 0.8740
##END=
