##TITLE=P-BROMOPHENOL
##JCAMP-DX=4.24
##DATA TYPE=INFRARED SPECTRUM
##CLASS=COBLENTZ
##ORIGIN=BATTELLE MEMORIAL INSTITUTE (R. JAKOBSEN)
##OWNER=COBLENTZ SOCIETY
Collection (C) 2018 copyright by the U.S. Secretary of Commerce
on behalf of the United States of America. All rights reserved.
##DATE=Not specified, most likely prior to 1970
##NAMES=4-bromophenol
##CAS REGISTRY NO=106-41-2
##MOLFORM=C6 H5 Br O
##SOURCE REFERENCE=COBLENTZ NO. 2540
##$NIST SOURCE=COBLENTZ
##$NIST IMAGE=cob2540
##SPECTROMETER/DATA SYSTEM=Not specified, most likely a prism, grating, or hybrid spectrometer.
##INSTRUMENT PARAMETERS=
$$ SPECTRAL FEATURE AT 330 CM^-^1 IS AN ARTIFACT CAUSED BY A CHANGE IN RECORDING PARAMETER
##STATE=SOLUTION (ETHYL ETHER)
##PATH LENGTH=0.0200 CM
##SAMPLING PROCEDURE=TRANSMISSION
##RESOLUTION=4
##DATA PROCESSING=DIGITIZED BY NIST FROM HARD COPY
##XUNITS=1/CM
##YUNITS=TRANSMITTANCE
##XFACTOR=1.000000
##YFACTOR=1
##DELTAX=000.132802
##FIRSTX=298.871
##LASTX=659.695
##FIRSTY=0.316
##MAXX=659.695
##MINX=298.871
##MAXY=0.915
##MINY=0.033
##NPOINTS=2718
##XYDATA=(X++(Y..Y))
298.871000 0.3160 0.3230 0.3280 0.3290 0.3290
299.535255 0.3290 0.3310 0.3310 0.3310 0.3310
300.199000 0.3310 0.3310 0.3310 0.3320 0.3350
300.863255 0.3370 0.3390 0.3400 0.3430 0.3480
301.527000 0.3480 0.3490 0.3500 0.3530 0.3540
302.191255 0.3560 0.3570 0.3580 0.3580 0.3610
302.855000 0.3610 0.3620 0.3660 0.3690 0.3700
303.519255 0.3730 0.3730 0.3800 0.3820 0.3880
304.183000 0.3960 0.4010 0.4020 0.4060 0.4110
304.847255 0.4190 0.4260 0.4330 0.4410 0.4490
305.511000 0.4550 0.4640 0.4720 0.4800 0.4860
306.175255 0.4900 0.4940 0.5010 0.5040 0.5090
306.839000 0.5110 0.5110 0.5110 0.5130 0.5200
307.503255 0.5270 0.5370 0.5470 0.5570 0.5600
308.167000 0.5600 0.5570 0.5560 0.5560 0.5530
308.831255 0.5530 0.5530 0.5530 0.5540 0.5560
309.495000 0.5600 0.5620 0.5650 0.5650 0.5650
310.159255 0.5650 0.5650 0.5640 0.5620 0.5610
310.823000 0.5600 0.5600 0.5580 0.5580 0.5570
311.487255 0.5560 0.5530 0.5500 0.5480 0.5470
312.151000 0.5450 0.5430 0.5410 0.5360 0.5310
312.815255 0.5250 0.5200 0.5150 0.5040 0.4900
313.479000 0.4670 0.4540 0.4420 0.4330 0.4260
314.143255 0.4210 0.4170 0.4150 0.4150 0.4140
314.807000 0.4110 0.4090 0.4060 0.4050 0.4030
315.471255 0.4020 0.4010 0.4010 0.4010 0.4010
316.135000 0.4010 0.4020 0.4090 0.4150 0.4210
316.799255 0.4230 0.4290 0.4300 0.4370 0.4450
317.463000 0.4500 0.4580 0.4660 0.4740 0.4780
318.127255 0.4800 0.4900 0.4940 0.4960 0.4990
318.792000 0.5000 0.5010 0.5010 0.5030 0.5030
319.456255 0.5050 0.5070 0.5070 0.5070 0.5090
320.120000 0.5090 0.5110 0.5110 0.5130 0.5190
320.784255 0.5210 0.5270 0.5310 0.5320 0.5320
321.448000 0.5350 0.5360 0.5390 0.5390 0.5390
322.112255 0.5390 0.5390 0.5390 0.5400 0.5440
322.776000 0.5520 0.5580 0.5640 0.5690 0.5690
323.440255 0.5690 0.5560 0.5500 0.5470 0.5470
324.104000 0.5470 0.5470 0.5470 0.5500 0.5570
324.768255 0.5610 0.5640 0.5650 0.5660 0.5720
325.432000 0.5780 0.5850 0.5900 0.5920 0.5930
326.096255 0.5920 0.5880 0.5860 0.5840 0.5840
326.760000 0.5850 0.5900 0.5900 0.5880 0.5840
327.424255 0.5780 0.5660 0.5640 0.5640 0.5650
328.088000 0.5660 0.5690 0.5820 0.5890 0.5920
328.752255 0.5930 0.5940 0.5960 0.5960 0.5960
329.416000 0.5940 0.5930 0.5920 0.5930 0.7490
330.080255 0.9050 0.9080 0.9080 0.9080 0.9080
330.744000 0.9080 0.9090 0.9090 0.9090 0.9090
331.408255 0.9080 0.9070 0.9070 0.9070 0.9050
332.072000 0.9050 0.9050 0.9030 0.9010 0.9010
332.736255 0.9000 0.9000 0.8990 0.8990 0.8980
333.400000 0.8980 0.9000 0.9050 0.9070 0.9070
334.064255 0.9050 0.9040 0.9030 0.9030 0.9040
334.728000 0.9050 0.9080 0.9090 0.9120 0.9120
335.392255 0.9110 0.9040 0.9010 0.9000 0.8960
336.056000 0.8950 0.8950 0.8950 0.8950 0.8960
336.720255 0.9040 0.9080 0.9120 0.9150 0.9150
337.384000 0.9080 0.9070 0.9040 0.9040 0.9030
338.048255 0.9010 0.9000 0.9000 0.9000 0.9000
338.712000 0.9010 0.9010 0.9010 0.9010 0.9010
339.376255 0.9030 0.9030 0.9040 0.9040 0.9010
340.040000 0.9000 0.9000 0.9000 0.9000 0.9000
340.704255 0.9000 0.9000 0.9000 0.9000 0.9000
341.368000 0.9000 0.9000 0.9000 0.9010 0.9010
342.032255 0.9010 0.9030 0.9040 0.9110 0.9120
342.696000 0.9130 0.9150 0.9150 0.9150 0.9130
343.360255 0.9120 0.9120 0.9110 0.9080 0.9040
344.024000 0.9000 0.9000 0.8990 0.8980 0.8980
344.688255 0.8980 0.8990 0.9030 0.9040 0.9050
345.352000 0.9070 0.9080 0.9080 0.9090 0.9090
346.016255 0.9090 0.9090 0.9090 0.9080 0.9080
346.680000 0.9080 0.9080 0.9070 0.9050 0.9030
347.344255 0.9010 0.9010 0.9010 0.9010 0.9030
348.008000 0.9070 0.9090 0.9110 0.9110 0.9110
348.672255 0.9110 0.9090 0.9080 0.9050 0.9040
349.336000 0.9030 0.9030 0.9010 0.9010 0.9010
350.000255 0.9000 0.9010 0.9010 0.9010 0.9010
350.664000 0.9010 0.9030 0.9030 0.9030 0.9040
351.328255 0.9040 0.9040 0.9040 0.9040 0.9040
351.992000 0.9040 0.9040 0.9050 0.9070 0.9070
352.656255 0.9070 0.9070 0.9080 0.9090 0.9120
353.320000 0.9120 0.9080 0.9050 0.9040 0.9050
353.984255 0.9080 0.9110 0.9120 0.9130 0.9130
354.648000 0.9130 0.9120 0.9110 0.9080 0.9080
355.312255 0.9070 0.9070 0.9070 0.9070 0.9070
355.976000 0.9050 0.9050 0.9030 0.9030 0.9030
356.640255 0.9030 0.9040 0.9070 0.9070 0.9070
357.304000 0.9070 0.9080 0.9090 0.9110 0.9110
357.968255 0.9110 0.9110 0.9110 0.9120 0.9120
358.632000 0.9120 0.9120 0.9120 0.9120 0.9120
359.296255 0.9120 0.9120 0.9120 0.9120 0.9120
359.960000 0.9120 0.9120 0.9120 0.9120 0.9120
360.624255 0.9120 0.9120 0.9120 0.9120 0.9120
361.288000 0.9120 0.9120 0.9120 0.9120 0.9120
361.952255 0.9120 0.9120 0.9120 0.9120 0.9120
362.616000 0.9110 0.9110 0.9110 0.9110 0.9090
363.280255 0.9090 0.9090 0.9090 0.9080 0.9080
363.944000 0.9080 0.9070 0.9070 0.9070 0.9070
364.608255 0.9050 0.9050 0.9050 0.9040 0.9030
365.272000 0.9010 0.9000 0.9000 0.8990 0.8990
365.936255 0.8990 0.8980 0.8960 0.8940 0.8920
366.600000 0.8910 0.8900 0.8900 0.8870 0.8860
367.264255 0.8840 0.8840 0.8840 0.8830 0.8820
367.928000 0.8820 0.8800 0.8800 0.8790 0.8790
368.592255 0.8780 0.8780 0.8780 0.8780 0.8780
369.256000 0.8780 0.8780 0.8780 0.8780 0.8780
369.920255 0.8780 0.8780 0.8780 0.8780 0.8780
370.584000 0.8760 0.8760 0.8750 0.8750 0.8740
371.248255 0.8740 0.8740 0.8720 0.8720 0.8720
371.912000 0.8710 0.8700 0.8700 0.8670 0.8670
372.576255 0.8660 0.8640 0.8630 0.8620 0.8600
373.240000 0.8580 0.8550 0.8540 0.8520 0.8510
373.904255 0.8500 0.8470 0.8460 0.8460 0.8450
374.568000 0.8450 0.8430 0.8430 0.8430 0.8420
375.232255 0.8420 0.8420 0.8420 0.8410 0.8410
375.896000 0.8410 0.8410 0.8410 0.8410 0.8420
376.560255 0.8420 0.8420 0.8410 0.8410 0.8390
377.224000 0.8350 0.8340 0.8330 0.8310 0.8300
377.888255 0.8270 0.8250 0.8220 0.8210 0.8190
378.552000 0.8180 0.8170 0.8150 0.8140 0.8130
379.216255 0.8110 0.8100 0.8090 0.8090 0.8090
379.880000 0.8070 0.8070 0.8090 0.8090 0.8090
380.544255 0.8090 0.8090 0.8090 0.8090 0.8090
381.208000 0.8090 0.8070 0.8070 0.8070 0.8060
381.872255 0.8060 0.8060 0.8070 0.8070 0.8060
382.537000 0.8060 0.8060 0.8060 0.8060 0.8060
383.201255 0.8070 0.8100 0.8110 0.8130 0.8140
383.865000 0.8140 0.8140 0.8140 0.8150 0.8170
384.529255 0.8170 0.8180 0.8190 0.8190 0.8210
385.193000 0.8210 0.8220 0.8220 0.8220 0.8220
385.857255 0.8220 0.8220 0.8230 0.8250 0.8260
386.521000 0.8300 0.8310 0.8330 0.8340 0.8350
387.185255 0.8380 0.8380 0.8390 0.8390 0.8410
387.849000 0.8410 0.8410 0.8410 0.8410 0.8410
388.513255 0.8420 0.8410 0.8420 0.8420 0.8420
389.177000 0.8420 0.8430 0.8450 0.8450 0.8450
389.841255 0.8450 0.8450 0.8460 0.8460 0.8460
390.505000 0.8460 0.8460 0.8460 0.8460 0.8460
391.169255 0.8460 0.8460 0.8460 0.8470 0.8500
391.833000 0.8510 0.8520 0.8540 0.8550 0.8560
392.497255 0.8580 0.8580 0.8580 0.8590 0.8600
393.161000 0.8620 0.8630 0.8670 0.8700 0.8710
393.825255 0.8720 0.8720 0.8720 0.8740 0.8740
394.489000 0.8750 0.8760 0.8790 0.8800 0.8820
395.153255 0.8830 0.8840 0.8840 0.8840 0.8860
395.817000 0.8860 0.8860 0.8860 0.8870 0.8870
396.481255 0.8870 0.8870 0.8900 0.8910 0.8910
397.145000 0.8920 0.8920 0.8960 0.8980 0.8980
397.809255 0.8990 0.9000 0.9000 0.9000 0.9000
398.473000 0.9010 0.9010 0.9010 0.9010 0.9030
399.137255 0.9030 0.9030 0.9040 0.9040 0.9040
399.801000 0.9050 0.9050 0.9050 0.9050 0.9050
400.465255 0.9050 0.9050 0.9050 0.9050 0.9050
401.129000 0.9050 0.9050 0.9050 0.9050 0.9050
401.793255 0.9050 0.9050 0.9050 0.9050 0.9050
402.457000 0.9050 0.9040 0.9040 0.9040 0.9040
403.121255 0.9040 0.9040 0.9040 0.9040 0.9040
403.785000 0.9040 0.9030 0.9030 0.9010 0.9010
404.449255 0.9010 0.9010 0.9010 0.9010 0.9010
405.113000 0.9010 0.9010 0.9030 0.9030 0.9030
405.777255 0.9030 0.9030 0.9030 0.9030 0.9030
406.441000 0.9030 0.9030 0.9030 0.9030 0.9040
407.105255 0.9040 0.9040 0.9040 0.9030 0.9030
407.769000 0.9010 0.9000 0.8990 0.8990 0.8990
408.433255 0.8990 0.8990 0.8990 0.8990 0.8990
409.097000 0.8990 0.8980 0.8960 0.8960 0.8950
409.761255 0.8950 0.8950 0.8950 0.8950 0.8960
410.425000 0.8960 0.8960 0.8960 0.8960 0.8960
411.089255 0.8960 0.8960 0.8960 0.8960 0.8950
411.753000 0.8950 0.8940 0.8940 0.8920 0.8920
412.417255 0.8910 0.8910 0.8900 0.8900 0.8880
413.081000 0.8870 0.8860 0.8840 0.8830 0.8830
413.745255 0.8820 0.8800 0.8790 0.8780 0.8780
414.409000 0.8760 0.8750 0.8740 0.8720 0.8720
415.073255 0.8710 0.8700 0.8680 0.8670 0.8670
415.737000 0.8660 0.8660 0.8660 0.8660 0.8660
416.401255 0.8670 0.8670 0.8670 0.8670 0.8670
417.065000 0.8670 0.8660 0.8640 0.8620 0.8600
417.729255 0.8590 0.8580 0.8560 0.8540 0.8540
418.393000 0.8520 0.8520 0.8520 0.8520 0.8520
419.057255 0.8520 0.8520 0.8540 0.8550 0.8550
419.721000 0.8560 0.8560 0.8560 0.8560 0.8560
420.385255 0.8560 0.8560 0.8550 0.8550 0.8550
421.049000 0.8550 0.8540 0.8520 0.8520 0.8520
421.713255 0.8520 0.8520 0.8510 0.8510 0.8510
422.377000 0.8500 0.8490 0.8470 0.8460 0.8450
423.041255 0.8430 0.8420 0.8410 0.8390 0.8380
423.705000 0.8370 0.8350 0.8350 0.8350 0.8340
424.369255 0.8330 0.8310 0.8300 0.8290 0.8270
425.033000 0.8250 0.8230 0.8220 0.8210 0.8190
425.697255 0.8190 0.8180 0.8180 0.8180 0.8180
426.361000 0.8180 0.8180 0.8180 0.8180 0.8180
427.025255 0.8180 0.8170 0.8150 0.8110 0.8100
427.689000 0.8090 0.8060 0.8030 0.8010 0.8000
428.353255 0.8000 0.7960 0.7930 0.7920 0.7900
429.017000 0.7880 0.7860 0.7840 0.7820 0.7810
429.681255 0.7800 0.7780 0.7770 0.7740 0.7730
430.345000 0.7720 0.7720 0.7700 0.7690 0.7690
431.009255 0.7660 0.7660 0.7640 0.7620 0.7600
431.673000 0.7580 0.7560 0.7530 0.7520 0.7490
432.337255 0.7470 0.7450 0.7430 0.7410 0.7400
433.001000 0.7350 0.7330 0.7330 0.7310 0.7290
433.665255 0.7240 0.7190 0.7160 0.7120 0.7070
434.329000 0.7050 0.7040 0.7010 0.7010 0.7000
434.993255 0.7000 0.6990 0.6990 0.6960 0.6950
435.657000 0.6940 0.6920 0.6920 0.6910 0.6900
436.321255 0.6900 0.6880 0.6860 0.6830 0.6820
436.985000 0.6790 0.6780 0.6780 0.6760 0.6760
437.649255 0.6760 0.6750 0.6750 0.6750 0.6740
438.313000 0.6740 0.6740 0.6740 0.6740 0.6740
438.977255 0.6740 0.6740 0.6740 0.6740 0.6720
439.641000 0.6720 0.6720 0.6720 0.6720 0.6720
440.305255 0.6720 0.6720 0.6720 0.6720 0.6720
440.969000 0.6720 0.6720 0.6720 0.6720 0.6720
441.633255 0.6720 0.6720 0.6720 0.6720 0.6720
442.297000 0.6720 0.6720 0.6720 0.6720 0.6740
442.961255 0.6760 0.6790 0.6830 0.6870 0.6920
443.625000 0.6990 0.7000 0.7000 0.7030 0.7050
444.289255 0.7080 0.7110 0.7120 0.7130 0.7160
444.954000 0.7170 0.7200 0.7210 0.7230 0.7250
445.618255 0.7270 0.7280 0.7310 0.7330 0.7360
446.282000 0.7370 0.7400 0.7440 0.7480 0.7490
446.946255 0.7520 0.7530 0.7560 0.7580 0.7600
447.610000 0.7610 0.7620 0.7650 0.7660 0.7680
448.274255 0.7680 0.7680 0.7680 0.7680 0.7680
448.938000 0.7680 0.7680 0.7690 0.7700 0.7720
449.602255 0.7730 0.7740 0.7740 0.7760 0.7770
450.266000 0.7780 0.7810 0.7820 0.7820 0.7840
450.930255 0.7850 0.7850 0.7850 0.7850 0.7860
451.594000 0.7880 0.7890 0.7900 0.7900 0.7900
452.258255 0.7900 0.7920 0.7920 0.7940 0.7960
452.922000 0.7960 0.8000 0.8010 0.8010 0.8020
453.586255 0.8030 0.8050 0.8060 0.8090 0.8100
454.250000 0.8110 0.8110 0.8110 0.8130 0.8140
454.914255 0.8150 0.8150 0.8170 0.8170 0.8170
455.578000 0.8180 0.8190 0.8190 0.8210 0.8210
456.242255 0.8220 0.8220 0.8230 0.8230 0.8230
456.906000 0.8250 0.8270 0.8270 0.8290 0.8300
457.570255 0.8300 0.8310 0.8310 0.8310 0.8310
458.234000 0.8310 0.8310 0.8310 0.8310 0.8310
458.898255 0.8310 0.8310 0.8310 0.8330 0.8330
459.562000 0.8340 0.8340 0.8340 0.8340 0.8340
460.226255 0.8340 0.8340 0.8340 0.8340 0.8340
460.890000 0.8340 0.8340 0.8340 0.8340 0.8350
461.554255 0.8350 0.8370 0.8370 0.8380 0.8410
462.218000 0.8420 0.8430 0.8450 0.8450 0.8460
462.882255 0.8470 0.8470 0.8470 0.8470 0.8470
463.546000 0.8470 0.8470 0.8470 0.8470 0.8470
464.210255 0.8470 0.8470 0.8470 0.8470 0.8470
464.874000 0.8500 0.8500 0.8500 0.8510 0.8520
465.538255 0.8520 0.8540 0.8550 0.8550 0.8550
466.202000 0.8560 0.8560 0.8560 0.8560 0.8560
466.866255 0.8560 0.8560 0.8560 0.8560 0.8560
467.530000 0.8560 0.8560 0.8560 0.8560 0.8560
468.194255 0.8560 0.8560 0.8550 0.8550 0.8540
468.858000 0.8520 0.8520 0.8520 0.8520 0.8520
469.522255 0.8520 0.8510 0.8510 0.8510 0.8510
470.186000 0.8510 0.8510 0.8510 0.8510 0.8510
470.850255 0.8520 0.8520 0.8520 0.8520 0.8520
471.514000 0.8520 0.8520 0.8510 0.8510 0.8500
472.178255 0.8500 0.8470 0.8470 0.8470 0.8470
472.842000 0.8470 0.8470 0.8470 0.8470 0.8470
473.506255 0.8460 0.8460 0.8450 0.8450 0.8450
474.170000 0.8450 0.8450 0.8450 0.8450 0.8450
474.834255 0.8450 0.8460 0.8460 0.8470 0.8470
475.498000 0.8470 0.8490 0.8500 0.8500 0.8500
476.162255 0.8490 0.8490 0.8490 0.8490 0.8490
476.826000 0.8490 0.8470 0.8470 0.8470 0.8460
477.490255 0.8450 0.8450 0.8450 0.8430 0.8420
478.154000 0.8410 0.8410 0.8390 0.8390 0.8390
478.818255 0.8380 0.8370 0.8350 0.8350 0.8350
479.482000 0.8340 0.8340 0.8340 0.8340 0.8340
480.146255 0.8330 0.8310 0.8310 0.8300 0.8300
480.810000 0.8290 0.8290 0.8290 0.8290 0.8270
481.474255 0.8270 0.8260 0.8250 0.8230 0.8220
482.138000 0.8220 0.8220 0.8220 0.8220 0.8210
482.802255 0.8190 0.8170 0.8150 0.8140 0.8130
483.466000 0.8110 0.8100 0.8100 0.8090 0.8070
484.130255 0.8060 0.8050 0.8030 0.8030 0.8020
484.794000 0.8010 0.8010 0.8010 0.8000 0.8000
485.458255 0.7980 0.7960 0.7940 0.7920 0.7900
486.122000 0.7890 0.7880 0.7850 0.7840 0.7820
486.786255 0.7800 0.7780 0.7780 0.7770 0.7760
487.450000 0.7740 0.7730 0.7720 0.7700 0.7660
488.114255 0.7650 0.7640 0.7640 0.7620 0.7610
488.778000 0.7600 0.7560 0.7530 0.7530 0.7520
489.442255 0.7520 0.7500 0.7490 0.7480 0.7480
490.106000 0.7470 0.7440 0.7430 0.7430 0.7430
490.770255 0.7410 0.7410 0.7400 0.7390 0.7370
491.434000 0.7360 0.7350 0.7290 0.7250 0.7230
492.098255 0.7210 0.7200 0.7190 0.7160 0.7150
492.762000 0.7090 0.7030 0.7010 0.6950 0.6880
493.426255 0.6740 0.6660 0.6600 0.6540 0.6450
494.090000 0.6330 0.6230 0.6180 0.6140 0.6100
494.754255 0.6030 0.5900 0.5800 0.5720 0.5680
495.418000 0.5650 0.5610 0.5540 0.5490 0.5370
496.082255 0.5240 0.5170 0.5120 0.5040 0.4980
496.746000 0.4830 0.4670 0.4540 0.4500 0.4390
497.410255 0.4310 0.4150 0.3970 0.3810 0.3700
498.074000 0.3610 0.3480 0.3290 0.3150 0.3070
498.738255 0.2980 0.2900 0.2830 0.2800 0.2720
499.402000 0.2630 0.2520 0.2430 0.2350 0.2290
500.066255 0.2260 0.2190 0.2170 0.2110 0.2090
500.730000 0.2030 0.2010 0.1980 0.1920 0.1850
501.394255 0.1770 0.1690 0.1600 0.1560 0.1500
502.058000 0.1470 0.1400 0.1330 0.1240 0.1110
502.722255 0.1010 0.0960 0.0900 0.0830 0.0710
503.386000 0.0640 0.0600 0.0580 0.0520 0.0500
504.050255 0.0500 0.0490 0.0450 0.0420 0.0420
504.714000 0.0410 0.0390 0.0390 0.0390 0.0390
505.378255 0.0390 0.0390 0.0390 0.0410 0.0410
506.043000 0.0420 0.0430 0.0450 0.0500 0.0510
506.707255 0.0520 0.0590 0.0620 0.0670 0.0710
507.371000 0.0790 0.0880 0.0950 0.1030 0.1080
508.035255 0.1150 0.1230 0.1290 0.1390 0.1480
508.699000 0.1530 0.1600 0.1620 0.1680 0.1720
509.363255 0.1770 0.1840 0.1900 0.1960 0.2020
510.027000 0.2090 0.2130 0.2170 0.2190 0.2210
510.691255 0.2250 0.2290 0.2310 0.2380 0.2410
511.355000 0.2490 0.2600 0.2720 0.2800 0.2840
512.019255 0.2900 0.2920 0.2990 0.3050 0.3200
512.683000 0.3410 0.3530 0.3610 0.3690 0.3780
513.347255 0.3980 0.4210 0.4300 0.4350 0.4420
514.011000 0.4500 0.4580 0.4680 0.4780 0.4820
514.675255 0.4860 0.4900 0.4920 0.4990 0.5050
515.339000 0.5130 0.5210 0.5270 0.5310 0.5330
516.003255 0.5350 0.5400 0.5450 0.5520 0.5600
516.667000 0.5620 0.5640 0.5690 0.5720 0.5780
517.331255 0.5840 0.5900 0.5980 0.6020 0.6020
517.995000 0.6050 0.6070 0.6100 0.6150 0.6190
518.659255 0.6210 0.6220 0.6250 0.6260 0.6290
519.323000 0.6300 0.6330 0.6340 0.6350 0.6350
519.987255 0.6370 0.6380 0.6380 0.6390 0.6390
520.651000 0.6410 0.6410 0.6420 0.6420 0.6430
521.315255 0.6460 0.6490 0.6500 0.6500 0.6520
521.979000 0.6540 0.6550 0.6590 0.6600 0.6620
522.643255 0.6630 0.6660 0.6680 0.6700 0.6710
523.307000 0.6720 0.6750 0.6760 0.6790 0.6800
523.971255 0.6820 0.6820 0.6830 0.6840 0.6840
524.635000 0.6860 0.6870 0.6880 0.6900 0.6910
525.299255 0.6910 0.6920 0.6940 0.6960 0.6980
525.963000 0.6990 0.6990 0.6990 0.6990 0.7000
526.627255 0.7000 0.7000 0.7010 0.7010 0.7010
527.291000 0.7010 0.7030 0.7030 0.7030 0.7040
527.955255 0.7040 0.7040 0.7040 0.7040 0.7040
528.619000 0.7040 0.7050 0.7050 0.7050 0.7050
529.283255 0.7050 0.7050 0.7050 0.7050 0.7050
529.947000 0.7050 0.7050 0.7050 0.7050 0.7050
530.611255 0.7050 0.7050 0.7050 0.7050 0.7050
531.275000 0.7050 0.7050 0.7050 0.7050 0.7050
531.939255 0.7050 0.7040 0.7040 0.7040 0.7040
532.603000 0.7030 0.7030 0.7030 0.7040 0.7050
533.267255 0.7050 0.7070 0.7080 0.7080 0.7080
533.931000 0.7080 0.7090 0.7090 0.7110 0.7110
534.595255 0.7120 0.7120 0.7120 0.7120 0.7120
535.259000 0.7120 0.7120 0.7120 0.7120 0.7120
535.923255 0.7120 0.7120 0.7120 0.7120 0.7120
536.587000 0.7120 0.7120 0.7120 0.7110 0.7090
537.251255 0.7090 0.7080 0.7080 0.7080 0.7090
537.915000 0.7090 0.7080 0.7080 0.7080 0.7080
538.579255 0.7090 0.7090 0.7090 0.7090 0.7090
539.243000 0.7080 0.7080 0.7090 0.7090 0.7090
539.907255 0.7090 0.7090 0.7080 0.7080 0.7080
540.571000 0.7080 0.7080 0.7090 0.7090 0.7090
541.235255 0.7090 0.7090 0.7090 0.7110 0.7110
541.899000 0.7120 0.7120 0.7120 0.7120 0.7120
542.563255 0.7120 0.7110 0.7110 0.7090 0.7090
543.227000 0.7080 0.7080 0.7080 0.7080 0.7080
543.891255 0.7070 0.7070 0.7070 0.7070 0.7070
544.555000 0.7050 0.7050 0.7030 0.7010 0.7010
545.219255 0.7010 0.7010 0.7010 0.7010 0.7010
545.883000 0.7010 0.7010 0.7010 0.7010 0.7010
546.547255 0.7010 0.7010 0.7010 0.7010 0.7010
547.211000 0.7000 0.7000 0.7000 0.6960 0.6950
547.875255 0.6950 0.6950 0.6940 0.6940 0.6940
548.539000 0.6940 0.6940 0.6940 0.6940 0.6940
549.203255 0.6940 0.6940 0.6920 0.6920 0.6920
549.867000 0.6910 0.6910 0.6910 0.6910 0.6910
550.531255 0.6900 0.6900 0.6900 0.6900 0.6900
551.195000 0.6900 0.6900 0.6900 0.6900 0.6900
551.859255 0.6900 0.6900 0.6900 0.6900 0.6900
552.523000 0.6900 0.6900 0.6880 0.6860 0.6840
553.187255 0.6800 0.6780 0.6750 0.6740 0.6720
553.851000 0.6720 0.6720 0.6710 0.6710 0.6710
554.515255 0.6710 0.6710 0.6710 0.6710 0.6710
555.179000 0.6700 0.6680 0.6660 0.6640 0.6630
555.843255 0.6630 0.6630 0.6620 0.6620 0.6620
556.507000 0.6620 0.6620 0.6620 0.6620 0.6620
557.171255 0.6620 0.6600 0.6600 0.6580 0.6580
557.835000 0.6560 0.6560 0.6550 0.6540 0.6540
558.499255 0.6520 0.6520 0.6510 0.6510 0.6510
559.163000 0.6510 0.6510 0.6510 0.6510 0.6510
559.827255 0.6510 0.6510 0.6510 0.6510 0.6510
560.491000 0.6510 0.6510 0.6510 0.6510 0.6510
561.155255 0.6510 0.6510 0.6510 0.6510 0.6510
561.819000 0.6510 0.6500 0.6500 0.6500 0.6460
562.483255 0.6460 0.6460 0.6460 0.6460 0.6460
563.147000 0.6460 0.6450 0.6430 0.6420 0.6420
563.811255 0.6410 0.6410 0.6410 0.6370 0.6350
564.475000 0.6330 0.6330 0.6310 0.6310 0.6310
565.139255 0.6310 0.6310 0.6310 0.6310 0.6300
565.803000 0.6290 0.6290 0.6270 0.6260 0.6250
566.467255 0.6230 0.6230 0.6220 0.6210 0.6210
567.131000 0.6170 0.6130 0.6110 0.6100 0.6090
567.795255 0.6070 0.6070 0.6060 0.6060 0.6050
568.459000 0.6050 0.6030 0.6020 0.6010 0.6010
569.123255 0.6000 0.6000 0.5980 0.5970 0.5970
569.788000 0.5960 0.5930 0.5920 0.5900 0.5880
570.452255 0.5840 0.5820 0.5800 0.5800 0.5770
571.116000 0.5760 0.5760 0.5740 0.5730 0.5720
571.780255 0.5700 0.5700 0.5680 0.5660 0.5650
572.444000 0.5620 0.5610 0.5600 0.5570 0.5560
573.108255 0.5530 0.5520 0.5490 0.5430 0.5400
573.772000 0.5400 0.5370 0.5360 0.5360 0.5350
574.436255 0.5330 0.5320 0.5310 0.5270 0.5230
575.100000 0.5200 0.5190 0.5160 0.5130 0.5120
575.764255 0.5090 0.5080 0.5010 0.4990 0.4980
576.428000 0.4910 0.4900 0.4880 0.4840 0.4800
577.092255 0.4790 0.4740 0.4710 0.4700 0.4680
577.756000 0.4680 0.4640 0.4630 0.4620 0.4600
578.420255 0.4590 0.4580 0.4550 0.4520 0.4510
579.084000 0.4500 0.4500 0.4490 0.4490 0.4490
579.748255 0.4490 0.4470 0.4460 0.4450 0.4430
580.412000 0.4430 0.4420 0.4410 0.4410 0.4390
581.076255 0.4390 0.4380 0.4380 0.4380 0.4370
581.740000 0.4350 0.4340 0.4330 0.4330 0.4310
582.404255 0.4300 0.4300 0.4290 0.4290 0.4290
583.068000 0.4270 0.4260 0.4260 0.4250 0.4250
583.732255 0.4230 0.4230 0.4230 0.4230 0.4230
584.396000 0.4230 0.4230 0.4250 0.4250 0.4260
585.060255 0.4260 0.4260 0.4270 0.4270 0.4290
585.724000 0.4290 0.4290 0.4290 0.4290 0.4290
586.388255 0.4290 0.4290 0.4290 0.4290 0.4290
587.052000 0.4290 0.4290 0.4270 0.4270 0.4270
587.716255 0.4270 0.4260 0.4250 0.4220 0.4210
588.380000 0.4190 0.4190 0.4180 0.4150 0.4150
589.044255 0.4150 0.4150 0.4150 0.4150 0.4150
589.708000 0.4150 0.4140 0.4140 0.4130 0.4110
590.372255 0.4110 0.4100 0.4100 0.4090 0.4070
591.036000 0.4060 0.4050 0.4050 0.4030 0.4010
591.700255 0.4000 0.3980 0.3940 0.3900 0.3880
592.364000 0.3850 0.3840 0.3810 0.3810 0.3800
593.028255 0.3780 0.3730 0.3650 0.3560 0.3500
593.692000 0.3430 0.3400 0.3370 0.3330 0.3310
594.356255 0.3290 0.3250 0.3200 0.3160 0.3110
595.020000 0.3050 0.3010 0.2980 0.2920 0.2880
595.684255 0.2830 0.2750 0.2710 0.2660 0.2600
596.348000 0.2540 0.2470 0.2390 0.2310 0.2230
597.012255 0.2140 0.2050 0.1970 0.1880 0.1780
597.676000 0.1700 0.1610 0.1500 0.1430 0.1370
598.340255 0.1310 0.1250 0.1200 0.1120 0.1090
599.004000 0.1080 0.1030 0.0980 0.0920 0.0910
599.668255 0.0900 0.0870 0.0820 0.0800 0.0780
600.332000 0.0740 0.0710 0.0680 0.0630 0.0600
600.996255 0.0590 0.0580 0.0500 0.0490 0.0470
601.660000 0.0450 0.0420 0.0420 0.0390 0.0380
602.324255 0.0370 0.0350 0.0340 0.0340 0.0330
602.988000 0.0330 0.0330 0.0330 0.0330 0.0340
603.652255 0.0350 0.0370 0.0390 0.0410 0.0450
604.316000 0.0470 0.0490 0.0500 0.0520 0.0550
604.980255 0.0580 0.0600 0.0620 0.0670 0.0710
605.644000 0.0750 0.0800 0.0880 0.0940 0.0990
606.308255 0.1050 0.1110 0.1170 0.1230 0.1280
606.972000 0.1350 0.1440 0.1520 0.1620 0.1720
607.636255 0.1820 0.1930 0.2010 0.2090 0.2150
608.300000 0.2210 0.2250 0.2310 0.2350 0.2410
608.964255 0.2430 0.2490 0.2550 0.2630 0.2700
609.628000 0.2760 0.2780 0.2840 0.2880 0.2950
610.292255 0.3010 0.3080 0.3090 0.3110 0.3130
610.956000 0.3170 0.3190 0.3200 0.3230 0.3280
611.620255 0.3290 0.3320 0.3390 0.3430 0.3480
612.284000 0.3540 0.3600 0.3650 0.3720 0.3760
612.948255 0.3810 0.3880 0.3930 0.3980 0.4050
613.612000 0.4100 0.4130 0.4180 0.4190 0.4220
614.276255 0.4230 0.4290 0.4300 0.4330 0.4380
614.940000 0.4390 0.4390 0.4420 0.4430 0.4460
615.604255 0.4490 0.4500 0.4510 0.4520 0.4550
616.268000 0.4590 0.4600 0.4630 0.4640 0.4660
616.932255 0.4670 0.4670 0.4680 0.4700 0.4710
617.596000 0.4710 0.4720 0.4720 0.4750 0.4760
618.260255 0.4760 0.4790 0.4790 0.4790 0.4800
618.924000 0.4820 0.4830 0.4840 0.4860 0.4870
619.588255 0.4870 0.4880 0.4900 0.4900 0.4900
620.252000 0.4900 0.4900 0.4900 0.4900 0.4900
620.916255 0.4900 0.4900 0.4900 0.4900 0.4900
621.580000 0.4900 0.4900 0.4900 0.4900 0.4910
622.244255 0.4920 0.4940 0.4950 0.4960 0.4960
622.908000 0.4960 0.4980 0.4980 0.4980 0.4980
623.572255 0.4980 0.4960 0.4960 0.4960 0.4960
624.236000 0.4960 0.4960 0.4960 0.4960 0.4950
624.900255 0.4940 0.4940 0.4940 0.4940 0.4940
625.564000 0.4920 0.4920 0.4920 0.4920 0.4920
626.228255 0.4910 0.4910 0.4910 0.4910 0.4910
626.892000 0.4900 0.4900 0.4900 0.4900 0.4900
627.556255 0.4880 0.4880 0.4880 0.4880 0.4880
628.220000 0.4880 0.4880 0.4900 0.4900 0.4900
628.884255 0.4910 0.4910 0.4910 0.4910 0.4920
629.548000 0.4920 0.4920 0.4920 0.4920 0.4920
630.212255 0.4920 0.4920 0.4920 0.4920 0.4920
630.877000 0.4920 0.4920 0.4920 0.4940 0.4940
631.541255 0.4940 0.4940 0.4940 0.4940 0.4950
632.205000 0.4950 0.4950 0.4950 0.4950 0.4960
632.869255 0.4980 0.4990 0.5000 0.5010 0.5030
633.533000 0.5030 0.5040 0.5040 0.5050 0.5050
634.197255 0.5050 0.5050 0.5050 0.5050 0.5050
634.861000 0.5050 0.5050 0.5070 0.5070 0.5070
635.525255 0.5070 0.5080 0.5090 0.5090 0.5110
636.189000 0.5110 0.5110 0.5120 0.5120 0.5130
636.853255 0.5150 0.5160 0.5160 0.5160 0.5170
637.517000 0.5170 0.5190 0.5190 0.5200 0.5200
638.181255 0.5200 0.5200 0.5200 0.5200 0.5200
638.845000 0.5200 0.5200 0.5200 0.5190 0.5190
639.509255 0.5190 0.5190 0.5170 0.5170 0.5160
640.173000 0.5160 0.5160 0.5160 0.5150 0.5150
640.837255 0.5150 0.5130 0.5130 0.5130 0.5120
641.501000 0.5120 0.5120 0.5110 0.5110 0.5110
642.165255 0.5090 0.5090 0.5090 0.5080 0.5080
642.829000 0.5080 0.5070 0.5070 0.5050 0.5050
643.493255 0.5040 0.5040 0.5040 0.5030 0.5030
644.157000 0.5030 0.5010 0.5010 0.5010 0.5000
644.821255 0.5000 0.5000 0.5000 0.4990 0.4990
645.485000 0.4990 0.4990 0.4990 0.4990 0.4990
646.149255 0.4980 0.4980 0.4980 0.4960 0.4960
646.813000 0.4960 0.4960 0.4960 0.4960 0.4950
647.477255 0.4950 0.4950 0.4950 0.4950 0.4940
648.141000 0.4940 0.4940 0.4940 0.4940 0.4920
648.805255 0.4920 0.4920 0.4920 0.4920 0.4920
649.469000 0.4920 0.4920 0.4920 0.4920 0.4910
650.133255 0.4910 0.4910 0.4910 0.4900 0.4900
650.797000 0.4900 0.4900 0.4900 0.4900 0.4900
651.461255 0.4910 0.4910 0.4910 0.4910 0.4910
652.125000 0.4910 0.4910 0.4910 0.4900 0.4900
652.789255 0.4900 0.4900 0.4900 0.4900 0.4880
653.453000 0.4880 0.4880 0.4880 0.4870 0.4870
654.117255 0.4870 0.4870 0.4870 0.4870 0.4870
654.781000 0.4870 0.4870 0.4870 0.4860 0.4860
655.445255 0.4860 0.4860 0.4860 0.4860 0.4860
656.109000 0.4860 0.4860 0.4860 0.4860 0.4860
656.773255 0.4860 0.4860 0.4860 0.4860 0.4860
657.437000 0.4860 0.4860 0.4860 0.4860 0.4860
658.101255 0.4860 0.4860 0.4840 0.4840 0.4830
658.765000 0.4830 0.4830 0.4820 0.4820 0.4820
659.429255 0.4820 0.4800 0.4800
##END=
