##TITLE=1,3-Butadiene
##JCAMP-DX=4.24
##DATA TYPE=INFRARED SPECTRUM
##CLASS=IUPAC A
##ORIGIN=NIST, Anayltical Chemistry Division, 301-975-3108
##OWNER=COPYRIGHT (C) 1998 by the U.S. Secretary of Commerce
##DATE=98/10/1
##$SPECTRA VERSION=1.00
##$UNCERTAINTY IN Y=2.5 % relative (B=1.6E-04,C=1.1E-09,D=2.7E-14)
##CAS NAME=1,3-Butadiene
##CAS REGISTRY NO=106-99-0
##MOLFORM=C H2: C H C H: C H2
##MP=-108.91 C
##BP=-4.41 C
##$NIST SOURCE=QUANT-IR
##SPECTROMETER/DATA SYSTEM=IFS66V (Bruker)
##INSTRUMENT PARAMETERS=KBr Beam splitter; MCT Detector; Multipass cell
##STATE=gas
##SAMPLE DESCRIPTION=1,3-Butadiene Primary Gas Standard
##PRESSURE=101.3 kPa
##TEMPERATURE=23 C
##SAMPLING PROCEDURE=1 L/min Flow
##RESOLUTION=0.9640
##DATA PROCESSING=NB Strong Apodization
##XUNITS=cm-1
##YUNITS=(micromol/mol)-1m-1 (base 10)
##XFACTOR=1.0
##YFACTOR=4.5474E-13
##DELTAX=0.4820
##FIRSTX=575.169
##LASTX=3975.077
##FIRSTY=4.72E-06
##MAXX=3974.59
##MINX=575.17
##MAXY=.0008559
##MINY=-4.27E-08
##NPOINTS=7053
##XYDATA=(X++(Y..Y))
575.17 10390260 9571160 9596308 9819322 10102790 9731524
577.58 9059282 8726972 9079436 8537304 7412898 7249314
580.47 7821402 8503142 8355502 7532950 7217850 7186040
583.37 6922450 6720668 6354224 5872162 5750664 6180468
586.26 6123482 5133708 4377920 4106594 4191542 4446972
589.15 4167762 4105720 4299292 3940328 4084946 4547788
592.04 4251830 4023330 4121862 4205910 4108206 3806260
594.94 3405410 3624210 3753688 3684392 3692360 3654452
597.83 3815248 3829518 3490592 3614192 3587056 3533930
600.72 4182742 4278026 3577416 3172214 3068700 3061464
603.61 2825866 2558602 2570504 2712622 2382368 2260688
606.51 2256474 2230590 2267362 2275344 2055864 1933574
609.40 1837000 1946402 2043224 1955438 1941932 1826372
612.29 1732640 1711702 1461326 1291538 1380024 1404976
615.18 1129892 968062 1117916 1505020 1644806 1377472
618.08 1179664 1357020 1273666 1372596 1669880 1617812
620.97 1647666 1693016 1539564 1407348 1394196 1510696
623.86 1601854 1473162 1498302 1553070 1614908 1640516
626.76 1643914 1777884 1821190 1815982 1747202 1868504
629.65 2050480 1890962 1765020 1703462 1760464 2030488
632.54 2218830 1896508 1817174 2099438 2397326 2476288
635.43 2389374 2360386 2520772 2482020 2610896 2820116
638.33 2885288 2880434 2916726 3078866 3312350 3450902
641.22 3350364 3140324 3173566 3365642 3534842 3815074
644.11 3867282 3655842 3745390 3977754 3930566 4028784
647.00 4266206 4224328 4298670 4523492 4669342 4924994
649.90 5133668 5292434 5277532 5213518 5425426 5411342
652.79 5126386 4988622 4958106 5059158 5382606 5200682
655.68 5000842 5423024 5892396 5888104 5811440 5638682
658.58 5386526 5222394 5668264 6095302 6137170 6058150
661.47 5793328 5769572 6303780 6438234 5982786 6155770
664.36 6400096 6740786 7422742 7376308 7095374 7862450
667.25 8641290 8288796 7744768 7829208 8125752 7562942
670.15 7159074 7327610 7495042 7942378 8512746 7940714
673.04 7232530 7118900 7556878 8598654 8599974 7566764
675.93 7180138 6886796 6367142 5969814 5801870 5907548
678.82 5926044 5711650 5605242 5598642 5083800 5217610
681.72 6102404 6266898 5389202 4892304 5173272 5267572
684.61 4884782 4742098 4956520 4999070 5194188 5100564
687.50 4819544 4508418 4703604 4597718 4430246 4492100
690.40 4708660 4585938 4285430 4407262 4532274 4187490
693.29 4059256 4331926 4050308 3673220 3970016 3877772
696.18 3596026 3585418 3649130 3511796 3569254 3383130
699.07 3287422 3545640 3411046 3020416 2921890 2752246
701.97 2719046 2757596 2734932 2670568 2619860 2626272
704.86 2539712 2356296 2231762 2162248 2265512 2149580
707.75 2065886 2146718 2146940 2042758 1883272 1724876
710.64 1685042 1538574 1456828 1498984 1646762 1605250
713.54 1503820 1470746 1547562 1602938 1582498 1545974
716.43 1491380 1258468 1229102 1291398 1380884 1403300
719.32 1417796 1452244 1518950 1443400 1415858 1441636
722.22 1564028 1560682 1587228 1550360 1526450 1446000
725.11 1489700 1525102 1558122 1556336 1541012 1523334
728.00 1580332 1659550 1688628 1654952 1640540 1768124
730.89 1793766 1756600 1834700 1815052 1706632 1716642
733.79 1858162 2009508 1987352 1969394 1984288 2038134
736.68 2071836 2006076 2049632 2205130 2242110 2251822
739.57 2280792 2249728 2278976 2274352 2183160 2139068
742.46 2166646 2273950 2296710 2241272 2158748 2019308
745.36 1923016 1969106 2055206 2005558 2050824 2110664
748.25 2134704 2074154 1989782 1955944 2057454 2242250
751.14 2368984 2267366 2139778 2001028 1937366 2052080
754.04 2235068 2258240 2327842 2368274 2383762 2353692
756.93 2269596 2248646 2339170 2393168 2379276 2262894
759.82 2277344 2314244 2362028 2331682 2216360 2168840
762.71 2257464 2172700 2137998 2107066 2137048 2089116
765.61 2012044 1978164 1918090 1876020 1921476 1871748
768.50 1769530 1773324 1700706 1607120 1588094 1622592
771.39 1739922 1727714 1613682 1600242 1587040 1527634
774.28 1533176 1496520 1464420 1509514 1529606 1421636
777.18 1352998 1390762 1474956 1369390 1325262 1249780
780.07 1205352 1282158 1259978 1133436 1247702 1364456
782.96 1313568 1207176 1235258 1340492 1302750 1232826
785.86 1254548 1302384 1301018 1216086 1236942 1268992
788.75 1235466 1229064 1248080 1248436 1231976 1186238
791.64 1153726 1128556 1148770 1144738 1220236 1326632
794.53 1285658 1164542 1091962 1068150 1155856 1224820
797.43 1221614 1257726 1323718 1247404 1040554 1071880
800.32 1200932 1144434 1124678 1248360 1395274 1404568
803.21 1445042 1479334 1475354 1457752 1478980 1486590
806.10 1475910 1471264 1364530 1343990 1519600 1617522
809.00 1656704 1708882 1796560 1733606 1709778 1742412
811.89 1851026 1920772 2033600 2098814 2138502 2171980
814.78 2263558 2358010 2379966 2461612 2529326 2493966
817.68 2445204 2524874 2630980 2786274 2910384 3088242
820.57 3185262 3216320 3350504 3582272 3654184 3724522
823.46 3879804 4027840 4063424 4300002 4627048 4684624
826.35 4671362 4846010 5040046 5358714 5765810 6179930
829.25 6108254 6079244 6425510 6875492 7078024 7644876
832.14 8174734 7966966 7832248 8299822 8869744 9405310
835.03 10075500 10657510 10285600 10246960 10848030 11643130
837.92 12362550 13518080 14072030 13350140 13406760 14316360
840.82 15362890 16378660 17833180 18327340 17498760 17783840
843.71 18848060 20441710 21769260 23841940 23439510 22542380
846.60 22948930 24638190 26053380 28353820 30519820 29406120
849.50 29075840 29899890 31842010 33715750 37810330 38377630
852.39 36475180 36828540 38562170 41077830 44042170 48950470
855.28 46920150 46024160 46900940 50364740 51723960 58309020
858.17 60921220 57325150 57008620 60714000 63334900 67208100
861.07 75980860 72949960 68872960 71953400 77192500 79048900
863.96 89830570 92810740 83232340 85251220 92215450 94206050
866.85 104139700 115448300 102155400 99920920 108571700 110948700
869.74 121236300 138918700 125529400 118304000 126563400 128185600
872.64 142166300 165230600 151675300 139862700 145080600 145862900
875.53 161818100 193775200 182931600 165065800 167741500 166114500
878.42 181899300 220933700 216696200 191876200 189102000 183200800
881.31 200830600 249765400 253360100 222237400 211722500 201623300
884.21 223279900 278777200 284946900 247157100 227324500 212095300
887.10 241218000 307050600 313710600 271209500 244369600 226713600
889.99 265491600 335807000 329264900 274022400 239661400 223590700
892.89 283197700 353676600 329504200 271446000 237927100 237940200
895.78 311847700 350165200 306432900 256942800 235824900 259780000
898.67 319166000 320533000 295368100 269604000 259918200 273223800
901.56 285961200 278450200 283903500 280289500 284432400 288514700
904.46 315097600 348689300 394424400 440447600 584655400 992088600
907.35 1765217000 1882224000 1183027000 708331800 512887900 438916700
910.24 392840500 361974400 322780700 307937200 300843000 299571700
913.13 302415400 315545300 295080000 288526000 303223400 349835400
916.03 355882400 320766600 311614100 345520600 388986000 355048200
918.92 300393400 318383900 372630400 397835000 339799100 313182800
921.81 340144700 387717200 377267600 326840000 324532600 359697900
924.71 389834000 355570000 322952900 338319600 368948600 364396200
927.60 320785900 320696200 340203800 355157200 320663700 308345700
930.49 321394500 336863000 313038900 292041300 299119700 308254500
933.38 295012400 272753400 275651400 284569900 277327600 254558100
936.28 252882900 261412700 254845900 232811900 228873400 234763200
939.17 228894000 211267000 207994900 211393100 205543200 192078200
942.06 189121400 188865900 180320800 170540800 169125300 166062700
944.95 157451700 151750900 151284400 145662900 136885700 134628100
947.85 135138800 128890500 123168800 121159600 118303000 111869400
950.74 108078200 106693500 102786100 98143490 96102930 93362580
953.63 89226540 86961290 84905050 82310080 80144340 78251550
956.53 75589060 73136370 72439830 70837290 67483520 66201200
959.42 66085200 64977820 63370100 61214170 60107110 60337910
962.31 60006180 59412380 57665460 56159060 56636780 57216460
965.20 57276680 56754550 54819260 55130850 56721210 57585120
968.10 57877900 56268400 55613000 57546010 59459420 61231210
970.99 59784970 58391520 60299440 62369030 65580250 65801740
973.88 63697150 65245420 68188840 72372660 74137220 72854540
976.77 74125120 77358930 81166710 84772450 85391080 87251440
979.67 90879920 96528670 102363700 104389500 105723200 110229000
982.56 117195000 124623400 127122100 127368700 130531700 136612500
985.45 142720000 144023200 141578600 139490900 139819600 143389200
988.35 142566200 131852700 121046800 118539400 126282900 139998700
991.24 151279200 160515200 168285700 179800800 191091800 197186000
994.13 206876100 217099800 215385700 212905100 212989800 218022300
997.02 222743300 215791200 206726000 202048300 205325800 211831200
999.92 203119900 187373200 181835000 186497900 187091500 178907700
1002.81 171177800 167764500 173234600 184268800 187119500 178492500
1005.70 170319900 180226500 193396400 197020400 206055800 207928400
1008.59 208733700 220783600 238097900 271472400 291072400 274872000
1011.49 265257200 274828200 302585600 373711900 428670800 369545100
1014.38 288082100 235785500 215145200 201736000 179603200 161078400
1017.27 153123100 151127200 156453000 164122900 160058800 147735600
1020.17 142429600 144420400 151922200 166665600 168341600 155941000
1023.06 152117000 151243700 157632400 166821000 167297700 159178900
1025.95 155329700 158729800 162782700 162950800 162633300 162296600
1028.84 161974300 159354400 153558800 149567400 151735900 157126200
1031.74 161322900 158084000 148505000 144788600 146791500 146582400
1034.63 143975300 138160400 136593000 137609700 136375100 137652100
1037.52 135329300 131056800 127317400 122405300 125165200 127372000
1040.41 124845000 119888600 112533100 111640700 116252800 116708200
1043.31 110725900 102167900 99082760 100890700 107417400 109951500
1046.20 102995300 97190500 96431230 99154740 98395460 89754850
1049.09 82963900 80275980 84557030 88820870 87108060 82544570
1051.99 79879100 80307940 76576340 69731150 66342450 63438050
1054.88 63438770 63218860 59149890 57677370 57055460 56415120
1057.77 55571730 53094660 51747300 50806810 50113910 49088940
1060.66 47785350 46938000 46090160 46178450 44918600 42566050
1063.56 41657080 41505750 40969460 38330850 36533510 37232130
1066.45 37038190 34711400 33225110 32960800 32352330 31071900
1069.34 29927210 29001510 28460870 27672300 27575520 27477710
1072.23 27044610 26693180 25910430 25307180 25292340 24787420
1075.13 24732290 24252980 23604220 23059780 22478790 22038460
1078.02 21337580 21141900 20778150 19809290 18775220 18112210
1080.91 17652070 17100810 16463540 15700470 14892690 14373230
1083.81 13786670 13028850 12333750 11823230 11281320 10792200
1086.70 10281170 9754600 9400452 9242854 8996738 8601158
1089.59 8157824 7718358 7194656 6705032 6266292 5895728
1092.48 5573024 5226040 4853640 4632740 4437952 4199278
1095.38 3962472 3775180 3549618 3249100 3052302 2842470
1098.27 2601694 2440720 2371046 2284370 2171898 2024478
1101.16 1870082 1728222 1626296 1528442 1438338 1395348
1104.05 1358530 1272934 1149108 1061686 1004130 961196
1106.95 912710 832140 793766 763566 736004 785766
1109.84 813304 723448 673394 701656 680972 675048
1112.73 644976 568394 573380 608992 586724 591450
1115.63 578602 554550 568834 538198 539562 552806
1118.52 572126 575170 556876 528588 534386 545772
1121.41 525708 503402 505548 552360 552770 523886
1124.30 562502 537598 510376 526918 514242 538418
1127.20 583916 541584 584916 614018 590992 574506
1130.09 590914 631516 635826 647576 621032 604854
1132.98 586004 551124 533070 539928 630978 608292
1135.87 578016 608782 605304 639396 668062 581280
1138.77 541136 522780 540972 615512 636520 623306
1141.66 630068 623072 606426 544328 497952 485144
1144.55 452304 495776 580782 545684 502690 544920
1147.45 537452 478390 495904 529532 546392 498412
1150.34 454234 486310 512888 481642 469520 451640
1153.23 451106 456486 420606 459612 450686 441608
1156.12 444242 451676 416186 301984 310334 396052
1159.02 434962 391390 358162 411978 467800 473518
1161.91 441902 382204 358686 335288 353362 386712
1164.80 378156 408194 434136 421186 441476 411206
1167.69 407942 476558 437940 395976 401646 412838
1170.59 382952 397536 379580 397484 435506 461504
1173.48 445980 384034 394816 416144 454604 456620
1176.37 418980 412866 469822 482486 528188 506796
1179.26 454066 489190 476538 441774 449654 470144
1182.16 481664 426698 393960 399012 430404 467928
1185.05 462074 405680 354614 331510 368168 393050
1187.94 328710 256112 234880 207870 243710 325320
1190.84 360968 346160 315140 296614 322166 342564
1193.73 371548 340700 292026 263150 304390 373062
1196.62 411054 416732 434084 421966 394150 388932
1199.51 419940 418212 427600 459920 476348 462658
1202.41 457024 459734 491554 434314 457552 527706
1205.30 590924 576354 543450 520878 564338 682270
1208.19 732490 682796 700972 669444 669498 774994
1211.08 844048 925174 948400 871810 837598 824936
1213.98 917838 1040246 1165078 1140460 1064396 1050236
1216.87 1107978 1228744 1309772 1200804 1123430 1193060
1219.76 1328264 1441484 1547450 1514640 1509938 1559600
1222.66 1630898 1724890 1839752 1813236 1754134 1855120
1225.55 1926888 2037996 2189588 2139500 2095264 2146216
1228.44 2263346 2471578 2624676 2423874 2390934 2584238
1231.33 2734256 2984624 3063436 2902890 2897288 3016094
1234.23 3285316 3548686 3568590 3427252 3372932 3609470
1237.12 3965802 4106168 4232348 4115104 4094484 4333276
1240.01 4456860 4753908 5031472 4808198 4949442 5188800
1242.90 5432080 5852110 5944558 5597968 5738406 5838342
1245.80 6527552 7407234 6958292 6553380 6718576 6987782
1248.69 8033556 8540178 7804470 7732412 8091984 8539770
1251.58 9593366 9608202 9224924 9193242 9162232 10407400
1254.48 11270300 10733570 10194040 9986952 11050820 12671640
1257.37 12430260 11212500 10735420 11148330 12840500 13556560
1260.26 12273510 11559050 11674500 12399840 13067900 12305210
1263.15 11321300 11326390 12430220 12681740 11926760 11612760
1266.05 11550990 11601990 11716560 11326820 10912190 10671140
1268.94 11823110 12978330 12382020 11772130 11574410 11976210
1271.83 13376630 13200710 12218050 12178570 13364230 16192770
1274.72 16691080 14895360 14483100 15375270 17915700 18893350
1277.62 17048440 15952890 16451370 18960860 20312360 18263670
1280.51 16616930 16884220 19166550 20294300 17853670 16019320
1283.40 16563100 18318780 18614610 16489400 15148430 15275180
1286.30 16031760 15735510 13961790 13341820 13303620 13170800
1289.19 12233440 11173870 10516530 10080080 9918426 9135122
1292.08 8766296 9051662 9188592 9037976 8681512 8715232
1294.97 9037352 9777788 10383480 10665950 11029450 11737970
1297.87 12692360 12810520 13051940 13639900 14018850 13925680
1300.76 13813030 14158150 14681170 14407570 13814820 13696280
1303.65 13932930 14826380 13793850 12658320 12928660 13004720
1306.54 13691280 12622520 11341360 11572370 11128640 11652530
1309.44 11324670 10056890 10283930 9579160 10055250 10705560
1312.33 9074940 8812858 8517964 8669202 9274114 8224712
1315.22 7668980 7675914 7946404 8614566 7766694 7093292
1318.12 7140690 7287466 7952144 7323592 6761792 6580850
1321.01 6611758 7306314 7134450 6512664 6315762 6294040
1323.90 6893700 6874174 6347458 6114400 6061794 6544696
1326.79 6721346 6224004 5972322 5895952 6336138 6554704
1329.69 6023590 5757564 5909226 6191452 6499806 6065254
1332.58 5697050 5855606 6208818 6479242 6115488 5620618
1335.47 5773274 6300546 6654840 6213564 5740906 5862996
1338.36 6187944 6551520 6538708 6089424 5969778 5977520
1341.26 6408328 6463580 5915238 5806020 6017562 6591802
1344.15 6808234 6210626 6162158 6286018 6876608 7079010
1347.04 6520062 6461436 6656188 7370078 7805802 7147568
1349.94 7245098 7317466 8107924 8588040 7962340 7855516
1352.83 8047314 8957338 9838204 9279680 9216554 9603986
1355.72 10917840 11856150 11545360 11517710 11789080 13172040
1358.61 15236890 15157730 15020920 15795020 17956680 20694150
1361.51 21358460 21377630 22416540 24163700 27419000 29084890
1364.40 29208940 29935880 31765000 35662680 38579840 38745140
1367.29 39127280 40265850 43737260 46365360 46155350 46015510
1370.18 46322410 47906430 49545390 48604490 47357630 46239570
1373.08 46389040 45456630 42418900 39722120 36684940 32432890
1375.97 29374700 26723640 23407630 20261190 19582590 18556970
1378.86 17926160 26730130 57617660 68763900 40013680 20833970
1381.76 17541350 19135780 22392360 26233950 28548230 31425350
1384.65 34389520 36851870 39430480 42107120 43122700 43954180
1387.54 43916270 44891580 45807100 44318510 42187560 41495210
1390.43 42148640 42441460 39180950 36006570 34664390 34928460
1393.33 35052580 33248210 29813080 27307050 26839340 26498130
1396.22 24393730 21791160 20247220 19288770 19667110 19714090
1399.11 17124280 15095690 14207240 14332100 14363870 13505590
1402.00 12775140 12391400 12570710 13171230 12643550 11815770
1404.90 11352020 11066540 11544440 11556870 10823050 10913220
1407.79 11366680 11862560 12076360 11500580 11322560 11587820
1410.68 11529170 11856670 11740940 11760530 12108790 12544610
1413.58 12778690 12262190 11659950 12049090 12109870 12232610
1416.47 12612830 12748380 12732090 12708020 14097810 16229250
1419.36 14992450 13067600 12461550 12428920 12574650 12674470
1422.25 12551860 12403210 12391840 12388230 12097740 11420500
1425.15 11017180 10827270 10890130 10781630 10251080 10020810
1428.04 9774130 9531656 9938002 10326540 9699694 9273798
1430.93 9178352 9050628 8989438 9090756 9331402 9629044
1433.82 9974470 10253820 10349340 10679680 12281340 14423740
1436.72 13096690 11248970 11392540 11487590 11318830 11474240
1439.61 11386460 11479420 11659620 11462450 11826250 12016290
1442.50 11581390 11384080 11134960 11124700 11401860 10793530
1445.40 10400650 10482330 10319160 10729980 11294660 10357000
1448.29 9476254 9268452 9080456 9367764 9204688 8491592
1451.18 8256870 8406392 8234282 8230372 8264316 7814608
1454.07 7675778 8156648 8600588 9049088 11642110 12668120
1456.97 9545472 8830290 9381136 8429792 7654666 7137122
1459.86 7066236 7551490 7803732 7270476 6983908 7169768
1462.75 7525016 8003206 8351460 9243900 9184956 8164990
1465.64 8329884 8401554 8101528 7944202 8255016 8668740
1468.54 9065510 8986834 8934414 9094320 9687554 11097210
1471.43 12800970 11970360 11252510 12879370 12773930 11709400
1474.32 11443970 11580430 12721690 13823630 13840670 13459640
1477.21 13151120 13318580 13607380 13636710 13608600 12965390
1480.11 12611460 12565960 12599730 12467770 12281430 11963970
1483.00 11447330 10961270 10696480 10549690 10811440 11179200
1485.89 11284860 10984920 10753840 9790682 9410554 10304890
1488.79 11614610 12813150 13111100 12431660 10905680 9802798
1491.68 9802720 10020570 10487040 11030220 11599490 11842290
1494.57 12370170 13362440 15776610 15708110 13455320 12821790
1497.46 12661790 13186500 13429870 12298850 11375900 10830530
1500.36 10352670 10119510 10016010 9366682 8633286 8148402
1503.25 8203894 8388750 8263560 9839262 11464320 9506806
1506.14 10508280 11713660 8715388 7024406 7289962 7080234
1509.03 6696844 6229866 5734320 5701148 5939832 6265268
1511.93 6375770 5488510 5259210 5317880 5107042 5252988
1514.82 5208390 5072212 5484806 5543392 5839846 5470582
1517.71 4556632 4003080 3717258 4150588 5054470 5564756
1520.61 7617568 6730752 4272126 4712606 4188092 3007352
1523.50 2608786 2794826 3560976 4507738 3413034 2329786
1526.39 2574340 2965756 2592200 2461150 2323824 1966006
1529.28 1934818 1872626 1819342 1948286 2082932 1937280
1532.18 2223328 2988370 3606016 3324824 2080614 1746124
1535.07 1695632 1738714 1654390 1670942 1707582 2199302
1537.96 3908596 7316914 6154442 4914080 5777016 3460548
1540.85 2763672 4824384 5189398 2853642 2438476 2329282
1543.75 2266276 2963786 3909412 2865974 2160418 2039330
1546.64 2148812 2125612 2221160 2255838 2589722 3026638
1549.53 3429496 3192558 2939944 2926490 2964164 3062056
1552.43 3345344 3736274 5263082 6868958 5527578 4452566
1555.32 4510132 4848010 5472400 7486292 9097490 11075360
1558.21 11891130 9260908 10677870 13307680 11787840 9183662
1561.10 9219056 9379880 10025490 10527360 11495530 12410340
1564.00 13855450 14513760 14766550 15337780 16603700 17977870
1566.89 19589580 20216250 21421180 23227020 26180750 29266960
1569.78 30042620 30234180 32227080 34636080 38159390 41284670
1572.67 43918520 46442850 50134830 54510290 59892100 65560000
1575.57 73672220 77361740 79893180 85415170 91937730 97499220
1578.46 104032800 111892000 120012700 127280500 135247900 144900400
1581.35 156189600 165175600 173271400 181975000 192013600 199144600
1584.25 206170800 213439800 219553300 224816700 229984900 233853600
1587.14 237150500 237548900 236662300 234316700 230594500 224806700
1590.03 217311700 205740000 193336900 179208800 164543500 151118600
1592.92 140471200 130381600 127330200 132277800 138303500 182631100
1595.82 256709900 225291000 181218000 173413600 144344800 130905600
1598.71 136939400 151792500 167084000 184050700 198614900 213088700
1601.60 225389600 236900600 245637400 252744500 256653600 259574200
1604.49 259600500 256453800 250744600 244464400 236643600 227437300
1607.39 215704600 203537800 191250300 179543100 166634100 153421300
1610.28 140216500 127723700 115497300 104475200 94351040 84236530
1613.17 74344530 65930640 58244920 51585740 45121070 40884600
1616.07 39416600 34724880 27666250 23539680 20626770 18389610
1618.96 16378730 15252610 13576030 12165520 10953220 10616570
1621.85 10312660 10091840 10370340 10057150 8495212 8003484
1624.74 7341088 7260426 7236270 7329334 6940848 7330586
1627.64 7152894 6914818 6580402 6364136 6157850 6286458
1630.53 6132780 6064382 6151960 6808220 6783776 6768058
1633.42 6540080 6661962 7842848 10129460 10255030 7355332
1636.31 6193232 6772574 6990698 6731090 6761486 6605508
1639.21 6570234 6739924 6826948 6965804 7094312 7137056
1642.10 6949874 6924624 7090924 7210816 7315120 7630028
1644.99 9019114 10889620 9259460 8054420 8514242 8281354
1647.89 7890414 7181208 6786018 6646234 6614770 6339246
1650.78 6338006 7593102 11362720 12621760 12821390 10074320
1653.67 7292292 7063548 5273634 4593966 4212852 4130084
1656.56 3842068 3911704 3700980 3685182 3460656 3524298
1659.46 3462868 3721764 3859910 4116596 4256104 5361066
1662.35 6151918 5290176 4507914 4547800 4471750 4525506
1665.24 4413084 4363206 4203732 4413120 4437616 4560108
1668.13 4669538 6193378 6374524 4461080 3541210 3982384
1671.03 4664372 3999292 3083962 2944400 3127980 3209462
1673.92 3103884 4684190 5866074 4203698 2587106 2289560
1676.81 2357592 2357038 2063976 2023448 2169262 2391494
1679.71 2329542 2277728 2003546 1931518 1817604 2444294
1682.60 3493600 3721874 4088082 7508160 8366388 3727098
1685.49 1820882 1591588 1522710 1463646 1740768 1838890
1688.38 1646654 1503712 1742566 1728370 1455204 1291044
1691.28 1312382 1258644 1250124 1239584 1330604 1297106
1694.17 1573440 2988808 7055752 7543428 3086508 1570000
1697.06 1515590 1404370 1335704 1761248 3859582 6654972
1699.95 6565010 4854008 2332710 1413104 1232170 1297330
1702.85 1252036 1554142 2281592 2151772 1426902 1728122
1705.74 2465882 2265134 1538658 1410780 1310204 1405968
1708.63 1363704 1551574 1722194 1704366 1469948 1519172
1711.53 1505896 1634804 1599420 1876216 2235744 2393252
1714.42 3195518 3427726 2253470 2197200 3743830 7057912
1717.31 5527170 3674428 3851876 2797786 2201754 2262714
1720.20 2359120 2423592 2430394 2481084 2530106 2656508
1723.10 2827232 2900488 2979244 2918604 3027568 3275624
1725.99 3467894 3445832 3456820 3584358 3732322 3732872
1728.88 3977544 4631154 4695328 4258542 4144600 4305654
1731.77 4592186 5547408 7970144 7876344 7907952 9008442
1734.67 6535942 5302704 5083714 5142706 5149058 5348328
1737.56 5285148 5537358 5760194 6992134 7705312 6401540
1740.45 5556942 5560672 5679354 6063596 6489228 6794218
1743.34 6758108 6946870 7127946 7489078 7843510 8077080
1746.24 8394134 8889566 9017518 9646774 10297280 10312260
1749.13 10092680 10209880 11047650 13061230 13395000 11735420
1752.02 11170420 11290150 11550160 11829830 11683140 11477180
1754.92 11508460 11610800 12050420 12386850 11442910 10752530
1757.81 10465480 10170290 9882824 9846304 9512664 9225428
1760.70 9464356 10457390 9814468 8424180 7955380 8131828
1763.59 8381378 8146334 7826830 7943350 8315814 8550986
1766.49 8680246 9097536 10256780 10221820 9000930 8718850
1769.38 8627352 8762396 9127002 9532932 8856200 9820262
1772.27 11253350 9382816 7685788 7315158 7160316 7249950
1775.16 7254370 7003372 6762882 6702914 6542682 6497230
1778.06 6460422 6522070 6526554 6722530 6958840 6905440
1780.95 6567434 6706962 6737672 6752400 6816394 7100426
1783.84 7479586 8206440 7892242 7528986 7520408 7792878
1786.74 7993204 8152102 8187358 8418146 8680212 9216920
1789.63 9459642 9948936 10416680 10416670 11466250 13594410
1792.52 13278290 12335030 12719600 13592130 14493790 15128570
1795.41 15756360 16325540 16952890 18010610 19549230 21541780
1798.31 23433740 26096270 28835190 31398010 34624520 38188800
1801.20 41448580 45120290 49209060 53539940 57969700 62665070
1804.09 67442320 72189650 77443310 83211670 88222880 93027720
1806.98 97834980 102700100 107550700 112166200 116086900 119710900
1809.88 122321400 123660000 123834200 123384600 121979400 119665000
1812.77 116344100 112392300 107667300 102722600 97293900 92510490
1815.66 88651540 86659230 86852700 91326450 99890780 109750000
1818.56 114517100 115747400 95947300 63776440 43968790 37598580
1821.45 41564850 51133370 64134810 77047910 88539780 99005160
1824.34 109334200 118148000 124769700 129992300 133960600 136334100
1827.23 137826600 138719700 138373200 136433700 133877500 130962100
1830.13 126611800 120903300 115080500 109358600 103820200 98008690
1833.02 91329940 84512020 78370640 72330250 66273130 60191610
1835.91 54544800 49581580 45100690 40866100 36571040 32364320
1838.80 28819960 25731820 23119140 20722760 18376030 16375930
1841.70 14784170 13090050 11750750 11305950 11787710 10203270
1844.59 7915072 6908920 6397932 6058172 5660668 5277224
1847.48 4847580 4463816 4268888 4097692 3842934 3612386
1850.38 3555514 3510518 3431278 3363588 3355190 3351692
1853.27 3352512 3290244 3297672 3492508 3641798 3655074
1856.16 3616124 3635744 3750310 3975408 4166702 4184122
1859.05 4241218 4302926 4440102 4599940 4710080 4710530
1861.95 4712446 4749768 4821692 4815204 4705060 4620094
1864.84 4618298 4653108 4754876 4677348 4660602 4840808
1867.73 4704858 4632500 5195450 4887622 4123418 3957726
1870.62 3921796 3920496 3770058 3459938 3062070 3008252
1873.52 3251932 3510248 3776784 4074454 4349838 4529530
1876.41 4700578 4962156 5182342 5236914 5246066 5239588
1879.30 5206262 5214738 5248554 5294492 5254584 5233620
1882.20 5282882 5318144 5252784 5180816 5110620 5018896
1885.09 4848958 4680688 4606284 4576804 4448258 4229286
1887.98 4102234 4143500 4337990 3923310 3328776 3179396
1890.87 3123422 3060714 2911704 2802584 2740904 2754900
1893.77 2717328 2767498 2853758 2725244 2538092 2473830
1896.66 2470954 2477960 2407570 2329206 2245274 2226624
1899.55 2206928 2185976 2206330 2311764 2459022 2692812
1902.44 2930652 3181186 3302574 3314994 3299206 3321688
1905.34 3348900 3385496 3287086 3247052 3257462 3227502
1908.23 3105030 3079674 3137474 3253800 3074400 3109918
1911.12 3120110 3184340 3138158 3079594 3021282 3013578
1914.02 2976980 2899682 2858254 2915590 2901328 2873226
1916.91 3060110 3667472 3425428 2836970 2706112 2632286
1919.80 2606182 2613940 2628694 2671436 2763106 2841098
1922.69 2909476 2847622 2798550 2763768 2713944 2750412
1925.59 2797176 2906018 2940748 2859120 2777368 2802080
1928.48 2892098 2956210 2952720 2911238 2876400 2888164
1931.37 2872456 2842958 2869826 2939698 2931490 2893030
1934.26 2862424 2840828 2856590 2894516 2935816 2939490
1937.16 2913368 2966454 2955604 2897238 2903010 2916316
1940.05 2882344 2899468 3006030 3267260 3576852 3470172
1942.94 3282484 3282554 3386674 3550800 3658102 3800214
1945.84 3903068 3977836 4081494 4236148 4314466 4395188
1948.73 4506282 4683156 4828118 4877772 4897262 4963260
1951.62 5074462 5236440 5371658 5544018 5607150 5802862
1954.51 6233928 6564542 6661744 6683806 6501966 6505872
1957.41 6702856 6847330 6978802 7162012 7347882 7592764
1960.30 7784496 7917102 8046818 8142864 8110952 8077926
1963.19 8084262 7975942 7863770 7684534 7418782 7266714
1966.08 7329662 7290802 6717878 6484836 6881510 6950878
1968.98 6586340 6253868 6522594 6995442 6424340 5666756
1971.87 5133284 4879966 4969770 5140152 5329254 5701122
1974.76 6141576 6491974 6641356 6736638 6773458 6856946
1977.66 6995338 7024668 6812330 6604558 6462276 6428782
1980.55 6325696 6172456 5950930 5691640 5497196 5327740
1983.44 5091666 4881720 4672758 4492406 4336984 4131912
1986.33 3879634 3650128 3452654 3429972 3380986 3180460
1989.23 2971360 2810792 2705640 2732818 2830422 2705050
1992.12 2358958 2180456 2160420 2132286 2000308 1873030
1995.01 1729476 1732194 1743374 1695578 1598998 1534260
1997.90 1529144 1522690 1425816 1360476 1303398 1326820
2000.80 1334994 1321950 1231102 1171374 1198456 1198114
2003.69 1144488 1075756 988592 1029904 1068620 1070694
2006.58 1013722 941862 916222 920422 888846 831370
2009.48 694834 682028 724844 715064 657544 599054
2012.37 539400 530614 484796 447396 456718 465670
2015.26 430458 408930 439190 411294 347886 377196
2018.15 343400 283182 229058 186266 167494 176202
2021.05 146400 136166 137586 160854 135776 120886
2023.94 82368 54364 40052 36386-382-9618
2026.83-41676-13474 39220 25296 15054 75356
2029.72 44824 27180 25388 26762 10686 21302
2032.62 34208 55580 7196-9820 12390 61412
2035.51 56320 19396-28352-68132-126146-116416
2038.40-105118-42428 9032 20564 29320 47766
2041.29 31064 35068 154-1048 14054 6618
2044.19-29210-1614 44974 110068 89354-9730
2047.08-52834-65566-68604-54994-48788-33378
2049.97-69134-101924-107400-71790-68160-94044
2052.87-113322-87630-90998-63426-81526-120120
2055.76-107012-60268-64380-102866-81978-38884
2058.65-52636-12972 14862-24308-32340 12524
2061.54 6838-7468-11100 15280-7274 7302
2064.44 5340-2854 13440 10988-8732-16102
2067.33-18146 15412 88270 71782-6968-5806
2070.22 3222 12070 11174 41600 71456 147116
2073.11 135374 71986 55672 59434 66600 98504
2076.01 103672 136712 206294 215004 167506 154594
2078.90 107966 101190 128442 183914 201596 288420
2081.79 257762 164514 210606 225176 190352 187432
2084.69 223020 300824 393106 399774 314038 283860
2087.58 300996 391036 398100 375498 438668 609664
2090.47 581426 462466 415470 406922 455420 477770
2093.36 501704 628956 794668 693950 609594 638342
2096.26 633518 622452 641270 737006 902848 1043662
2099.15 834140 703420 671652 656838 643724 641356
2102.04 672390 872152 869352 653816 573712 558586
2104.93 503612 498632 556178 748308 1038830 744986
2107.83 439634 434234 511208 603490 616842 625650
2110.72 859916 1035854 788306 700160 715800 763888
2113.61 749256 784544 913600 1214420 1077042 827936
2116.51 760152 800198 794612 790820 789504 968956
2119.40 1004326 772932 695262 644016 612258 593476
2122.29 564390 685406 819358 609412 486640 485646
2125.18 487244 441828 405700 509970 721190 605246
2128.08 451020 413162 377822 350616 332750 405064
2130.97 574318 563724 405228 360344 332962 375726
2133.86 391486 428866 528678 531754 397708 393736
2136.75 354316 336084 345958 370838 412160 431114
2139.65 350604 333336 337126 397706 400406 382638
2142.54 384288 376378 366584 402360 413720 412394
2145.43 398312 438210 511124 487684 377940 399314
2148.33 426468 441100 456746 519250 612230 520660
2151.22 401506 434088 437784 472638 488858 614376
2154.11 773950 674774 515994 503078 488094 474630
2157.00 496840 725144 879418 711314 591582 629082
2159.90 632824 589622 697542 1027752 980094 755368
2162.79 708202 700658 713476 771868 1026010 1233024
2165.68 1024280 929262 858840 802452 813520 886398
2168.57 1158874 1065142 796150 796442 741806 768606
2171.47 864206 1124274 1190974 913822 813080 801994
2174.36 780378 805004 1055678 1316436 1007400 767136
2177.25 749326 777950 824372 985164 1239720 1152290
2180.15 955988 911588 829918 771906 825856 1104318
2183.04 1082014 850942 788796 759000 814028 918044
2185.93 1188216 1196700 926494 861842 871252 960046
2188.82 1011402 1140814 1074218 888558 894940 890220
2191.72 871824 920840 1050408 1005766 906590 913256
2194.61 891992 896562 953766 1134614 1057744 933824
2197.50 919910 959370 986988 1088664 1195910 1098490
2200.39 1033010 1000310 958650 983682 1033392 1075930
2203.29 964712 956648 950530 897736 858832 914788
2206.18 891470 822434 792836 810920 815738 827212
2209.07 847792 797304 792950 834744 861158 926720
2211.97 989648 942850 868388 873622 853564 874162
2214.86 948158 1034518 1137062 1108800 1014544 990060
2217.75 973588 972816 947374 927462 918016 934676
2220.64 879376 883812 857320 834352 816702 835464
2223.54 830306 852818 876498 849664 811372 833542
2226.43 856828 925776 925050 864736 878366 881690
2229.32 870920 909558 913530 931580 941478 958594
2232.21 1010286 1042052 1007168 1077792 1126818 1093436
2235.11 1064594 1145648 1193190 1241894 1229142 1208426
2238.00 1223364 1260118 1285238 1372670 1415650 1413826
2240.89 1438366 1472350 1471892 1423602 1392734 1515568
2243.79 1594034 1646158 1670132 1637074 1601242 1675484
2246.68 1772398 1853166 1883780 1800940 1765696 1822342
2249.57 1933714 2056732 2014310 2025368 2118814 2208742
2252.46 2286152 2371510 2349576 2306604 2344256 2495098
2255.36 2656898 2627424 2506820 2548974 2630028 2699658
2258.25 2676630 2602674 2508718 2466508 2443326 2448726
2261.14 2445722 2435382 2388560 2377768 2353606 2289896
2264.03 2160330 2088940 1998828 2006494 2059636 2099012
2266.93 2099510 2192596 2270154 2368288 2416072 2502174
2269.82 2620872 2701102 2714438 2760604 2796648 2786982
2272.71 2741098 2695072 2590834 2528536 2569600 2634494
2275.61 2512496 2340940 2349336 2379822 2304246 2239678
2278.50 2130664 2073772 2046546 2093670 2054592 1939932
2281.39 1878464 1922870 1935864 1887792 1773356 1715630
2284.28 1713774 1775930 1700742 1601788 1596374 1645136
2287.18 1635316 1606972 1606696 1598868 1533228 1557924
2290.07 1495918 1416448 1402910 1424170 1338484 1284502
2292.96 1268280 1282602 1281550 1242744 1205258 1291106
2295.85 1316902 1348786 1313660 1302546 1365590 1429494
2298.75 1379702 1369342 1346386 1365142 1365608 1330992
2301.64 1280348 1310120 1197932 1149548 1138884 1190670
2304.53 1137832 1060868 998612 1052736 1133748 1069846
2307.43 956540 987574 1134144 1131074 986366 1033948
2310.32 1240396 1327702 1060722 998924 1123020 1342606
2313.21 1076298 966474 1129582 1458136 1157734 932942
2316.10 1054182 1548654 1380118 977596 1016588 1634042
2319.00 1501784 1028466 1083770 1767860 1681234 1029208
2321.89 1103822 1888514 1792978 1033924 1151896 2043922
2324.78 1913656 1016714 1251020 2295414 2020132 1015040
2327.67 1512798 2588928 1966460 966686 1770806 2763934
2330.57 1853984 1062470 2231848 2831148 1554880 1265664
2333.46 2661482 2547806 1152240 1657870 2928824 2034320
2336.35 1057100 2241896 2755430 1401508 1408492 2689014
2339.24 2220244 1165670 2011166 2613944 1551016 1449374
2342.14 2452530 1967448 1270594 1949808 2159262 1345260
2345.03 1386246 1721992 1229880 923892 1160976 1047732
2347.92 747910 676252 740110 846770 756198 796130
2350.82 1262880 1201984 1023570 1657468 1599248 1104414
2353.71 1869170 1875510 1190996 2148448 2271032 1403764
2356.60 2415894 2436236 1512344 2629570 2462812 1658396
2359.49 2878600 2343346 1810286 2960806 2003172 1988236
2362.39 2852860 1766054 2333406 2502788 1644492 2506584
2365.28 1951148 1741286 2324922 1536582 2032736 1804444
2368.17 1395936 1862242 1310466 1590124 1389806 1215158
2371.06 1429328 1030998 1288118 1025010 1061582 945980
2373.96 852252 886052 703830 769528 647296 667650
2376.85 559938 576442 471934 467022 446218 432646
2379.74 401274 388152 358066 335406 347432 336900
2382.64 343958 373416 348088 363502 352296 303840
2385.53 292752 302618 310534 320258 328230 322908
2388.42 327892 335576 346842 353470 333594 317896
2391.31 300144 350574 399214 395860 372554 364842
2394.21 366612 451470 463258 441026 399602 387594
2397.10 424856 459364 426028 446746 462564 433626
2399.99 410300 456026 511074 528904 546342 587236
2402.88 598668 574796 539464 538998 547640 606096
2405.78 654022 668494 628224 643840 683298 669472
2408.67 662518 724830 742284 744366 781136 829450
2411.56 830820 814212 833740 781914 775004 810194
2414.46 813596 830930 788340 778598 859358 921398
2417.35 949338 857732 816836 825144 851686 905676
2420.24 853128 806772 823320 813954 823504 817514
2423.13 777896 791994 768212 740624 724168 748904
2426.03 781714 768366 743596 765298 855426 912340
2428.92 943012 940428 924474 935804 940890 949710
2431.81 982724 1031456 969334 939928 978370 995144
2434.70 961874 967932 933980 916540 929058 928134
2437.60 905968 869336 878480 895582 891410 907974
2440.49 891892 849948 844826 907040 921342 903086
2443.38 888258 884036 884286 880264 866616 882446
2446.28 889288 875630 932254 975838 959116 960002
2449.17 975134 1039130 1086310 1079424 1038158 997534
2452.06 981696 1056510 1154540 1153330 1111960 1098038
2454.95 1121826 1222582 1241694 1164254 1148354 1189584
2457.85 1228894 1267102 1227626 1170946 1190512 1279510
2460.74 1306048 1287070 1266986 1256418 1338618 1382870
2463.63 1342484 1339710 1376644 1447466 1501268 1468076
2466.52 1426638 1519470 1591756 1557016 1600034 1617324
2469.42 1643338 1739964 1778486 1788820 1887768 1904636
2472.31 1967036 2069820 2011506 1971166 2099788 2258190
2475.20 2424636 2445332 2408474 2473246 2611444 2814316
2478.10 2811844 2723700 2868402 3069698 3251450 3410586
2480.99 3372064 3403412 3478670 3584812 3711670 3640718
2483.88 3572814 3572010 3613990 3740410 3705616 3589520
2486.77 3533168 3523620 3517398 3432562 3261396 3135748
2489.67 2976192 2807520 2659452 2560044 2469268 2492140
2492.56 2578862 2740594 3126840 3643088 3248238 2563808
2495.45 2361048 2388004 2457020 2538674 2734098 2876424
2498.34 3039782 3211194 3299696 3406926 3569976 3663588
2501.24 3635266 3595188 3617680 3708044 3697640 3558452
2504.13 3393598 3319892 3372218 3249418 2940986 2769586
2507.02 2750808 2813918 2640680 2372690 2240052 2157892
2509.92 2174922 1981598 1711722 1633934 1625660 1655852
2512.81 1557318 1353270 1205766 1221636 1268360 1181050
2515.70 1074212 1077122 1083892 1036000 975698 936644
2518.59 940522 863394 799078 775580 876564 875846
2521.49 769686 766912 827600 850004 762166 704774
2524.38 708112 791016 823390 707066 652262 662418
2527.27 685114 744786 674018 623556 644994 672450
2530.16 697624 688774 668002 659458 683550 684780
2533.06 639806 573252 529534 578186 645118 573630
2535.95 528214 569318 577590 609750 598548 556256
2538.84 535892 554408 566598 546958 532980 549136
2541.74 510030 521364 516966 509998 504542 472182
2544.63 434086 418574 443310 461988 519676 525678
2547.52 478820 468926 494568 517922 531602 541300
2550.41 540794 508864 508774 534266 549640 585024
2553.31 597582 598026 593972 615684 633032 620952
2556.20 601654 659652 704332 683540 681938 717702
2559.09 708042 724742 739218 757966 780568 790322
2561.98 772924 776430 788684 774688 724964 682116
2564.88 751548 852890 893948 844194 841542 895612
2567.77 890260 956342 1044246 1086880 1123958 1177650
2570.66 1243734 1282808 1229946 1191236 1225030 1275786
2573.56 1334262 1322606 1315298 1342448 1273950 1256568
2576.45 1246070 1154328 1065078 998020 982634 960450
2579.34 893334 842472 867736 852298 877440 938504
2582.23 1034706 1138792 1096368 949124 857370 829884
2585.13 842252 931398 982614 1017790 1057906 1076370
2588.02 1105100 1131260 1088502 1103618 1150574 1155614
2590.91 1107000 1064098 1031708 1024748 1035926 1025548
2593.80 1019548 1009068 963798 874644 845396 880336
2596.70 801644 701662 620812 596686 572758 570076
2599.59 508616 461652 415532 432316 395288 336812
2602.48 323128 304892 288766 323454 342302 315682
2605.37 285924 325720 311774 259722 293514 285324
2608.27 250260 256858 214264 173698 224042 244208
2611.16 263454 291284 275570 278360 249460 235802
2614.05 244294 277060 312428 248320 200548 248092
2616.95 318618 323752 259802 247410 301048 322810
2619.84 320960 276714 234198 242380 261224 331046
2622.73 365946 377306 355100 359934 343548 296398
2625.62 304500 315590 336468 374254 380650 406696
2628.52 455790 511674 432542 348118 360976 333128
2631.41 311862 348396 385598 408152 394602 400046
2634.30 400014 400874 366382 351606 410954 481326
2637.19 486016 463554 401698 397448 427836 412804
2640.09 400582 410810 415352 452494 465090 484800
2642.98 487754 486630 471418 458366 466750 475032
2645.87 508458 497114 440790 443942 407822 352956
2648.77 365704 409458 418954 390838 363890 416558
2651.66 435746 357246 319506 328766 326182 351286
2654.55 331732 329796 389982 404130 358238 339680
2657.44 296424 277994 315980 351754 359382 308148
2660.34 286418 269760 283480 323852 323100 343602
2663.23 326380 319182 378170 389908 304830 196312
2666.12 212442 292180 282218 245100 234176 220888
2669.01 218460 248216 248756 260998 255622 206004
2671.91 211510 218368 195258 147742 163814 201416
2674.80 217476 188726 196030 249366 211034 137300
2677.69 142998 172754 187646 200814 158910 131652
2680.59 174044 207862 166222 169316 190974 208122
2683.48 222872 248808 270574 293952 291768 284802
2686.37 208450 191076 219012 237502 224954 218416
2689.26 236882 253324 226776 238382 257346 299202
2692.16 272436 238582 238648 264490 346592 401292
2695.05 355878 330998 357778 370756 327304 324646
2697.94 381638 432824 394604 382086 446392 504078
2700.83 500268 457938 391384 391368 445252 440592
2703.73 432558 450930 427664 430318 495690 527590
2706.62 501646 511434 516274 517994 498582 485872
2709.51 498092 509754 502068 551278 550484 548418
2712.41 568308 587374 596876 675166 732296 745326
2715.30 776666 748920 750390 826896 861098 885508
2718.19 928616 925434 955810 941486 935784 936178
2721.08 927430 923336 947128 941298 923548 921234
2723.98 850318 825510 814760 793476 830190 788488
2726.87 711448 661250 663546 657350 619186 608706
2729.76 603320 611196 585862 578308 645646 641048
2732.65 532072 570972 629760 589010 580480 621410
2735.55 746108 881218 842164 798998 683480 619976
2738.44 644134 695948 681736 641144 651540 653538
2741.33 597660 617220 614614 577904 562250 554612
2744.23 575624 615198 615766 575948 574606 535752
2747.12 411292 419340 456920 452142 498120 512662
2750.01 457510 436404 375514 378722 427924 427048
2752.90 409658 420924 395976 409104 452912 434968
2755.80 391762 371800 390414 378498 394604 376682
2758.69 318160 221346 108178 22256 89050 287860
2761.58 450930 520086 498034 478376 435810 390316
2764.47 383090 391932 384634 359716 355192 340756
2767.37 340842 403770 464412 393942 387856 439436
2770.26 443362 356838 340694 381244 365802 345312
2773.15 394592 433976 448160 465898 446354 382042
2776.05 417118 530962 554978 515472 464922 449664
2778.94 429590 460088 535314 589292 567832 611974
2781.83 594994 658830 712332 723534 719832 728930
2784.72 785776 822166 801408 810004 804560 817174
2787.62 791660 800430 830342 841772 837540 781276
2790.51 786122 827224 846178 831322 830678 794468
2793.40 800124 772844 719104 699300 732918 808626
2796.29 834678 847618 847386 861418 937154 931788
2799.19 943728 936504 889004 880490 903522 913842
2802.08 954190 1042882 1056540 1090094 1104580 1087800
2804.97 1102014 1139778 1165032 1166872 1145032 1105360
2807.87 1075174 1123104 1124488 1101928 1101946 1068352
2810.76 973378 939256 889836 806696 755360 743168
2813.65 779294 784558 748884 739412 742608 736746
2816.54 737684 757888 768010 790902 743034 709866
2819.44 727240 733376 750966 821238 847724 869550
2822.33 897136 951246 948340 931464 943692 914394
2825.22 859974 862190 975374 1018798 990724 936142
2828.11 991464 1069698 1090012 1111360 1076910 1019034
2831.01 1054036 1119298 1231968 1328702 1389440 1439384
2833.90 1448414 1506606 1571420 1644594 1756488 1818824
2836.79 1852996 1871872 1905822 1933314 1988838 2111950
2839.69 2229820 2364746 2474396 2490830 2565770 2631632
2842.58 2704450 2882950 2940990 3002854 3151414 3241950
2845.47 3248718 3334482 3488682 3579978 3654922 3686226
2848.36 3691934 3734952 3744494 3808008 3893356 3945764
2851.26 3957342 3936462 3967422 4039998 4007308 4039656
2854.15 4169004 4295314 4318476 4357236 4397072 4417412
2857.04 4516072 4597390 4580408 4568532 4598558 4651236
2859.93 4718342 4759382 4815302 4858788 4900048 4960682
2862.83 5034458 5128578 5249380 5376382 5437502 5380428
2865.72 5374146 5342626 5385638 5501452 5561912 5572440
2868.61 5586120 5622450 5666646 5675468 5628322 5668336
2871.51 5774366 5846960 5801886 5725162 5732390 5789244
2874.40 5822722 5908158 6010146 6149658 6291112 6467996
2877.29 6658986 6823868 7062838 7237346 7447324 7712836
2880.18 7713440 7485502 7320256 7250206 7178788 7240892
2883.08 7297076 7325500 7406298 7469944 7593726 7763670
2885.97 7930758 8016334 8037400 8053068 8229076 8530084
2888.86 8701228 8783718 8938290 9153768 9631084 10287300
2891.75 10513360 10242340 9990694 9935100 9995088 10163160
2894.65 10212290 10102210 10073900 10077020 10176370 10439440
2897.54 10687480 10494650 10411420 10626890 11010630 11521640
2900.43 11636280 11304000 11121220 11108160 11465630 12057890
2903.32 11962210 11435060 11326410 11510660 12335310 12939680
2906.22 12408790 11981900 12092120 12518580 13578270 13820840
2909.11 13154150 12996730 13266250 13868450 15114940 15063840
2912.00 14155990 14102480 14669870 16085130 16873450 16240970
2914.90 16177230 16888110 18283280 19395410 18738630 17838160
2917.79 17468870 17372870 17481450 17543230 17475240 17233090
2920.68 16914250 16922240 17046270 16908680 16674770 16678090
2923.57 16819570 17028130 17086450 17220180 17584930 18150400
2926.47 18913930 19626940 20242780 20959490 21515610 21727370
2929.36 22212000 22641640 22739940 23023670 23394860 23533660
2932.25 23707320 24035280 24457390 24677680 24517720 24680110
2935.14 25054470 25208480 25058340 24690500 24756630 25255420
2938.04 25621990 25122790 24627060 25068880 25870540 26257350
2940.93 25769630 25427730 25925170 26868580 27392240 27043430
2943.82 27146690 27995960 28904300 28706470 27997010 28289150
2946.72 29405630 30544040 30445950 30318710 30955580 32237700
2949.61 33573000 33307830 32812940 33903300 35797020 36555890
2952.50 35844330 34803230 34922430 35951860 36856050 36563850
2955.39 36139940 36534340 37568820 39053470 39403120 39086990
2958.29 39320540 40355570 42376220 42813530 42472280 43451620
2961.18 44675400 46815420 48411460 48694760 50429050 52900530
2964.07 56326110 59398120 60418050 62781380 66148220 70422240
2966.96 74049340 73685620 73193800 73402550 73912190 77456200
2969.86 79541420 80013550 81067630 81523810 85413990 89303820
2972.75 90378500 91645170 91806030 92191010 94052150 95729310
2975.64 96910770 96573540 94878130 93288780 92884150 93325980
2978.54 93336630 91275710 87758790 85378250 84621390 83281270
2981.43 82549670 81229070 79798820 83801700 92549180 92012480
2984.32 85977190 84557670 84524340 85007100 87534660 93263950
2987.21 98379650 101943500 105355700 108248600 111742000 116393800
2990.11 118404300 117322900 118610400 123470200 129045100 126922400
2993.00 122134000 122939400 126759300 128775800 124900700 121136800
2995.89 122845100 128321900 132436500 131299000 127607000 127906300
2998.78 130874300 133748300 132010200 127537800 127399800 130987400
3001.68 133443900 129952600 124789900 123396600 123715100 124689800
3004.57 122251300 117346600 116469200 116507800 114483400 109787600
3007.46 104344500 102002300 102690000 104156600 102716400 101224400
3010.36 104383800 105584200 99976190 94070700 91940140 93921150
3013.25 98693460 104014800 106082100 107031700 108838900 111020900
3016.14 111795300 112359500 114633500 115067900 115077100 117503900
3019.03 118876400 117617200 117176800 117276800 119421800 120071700
3021.93 117108100 114916900 114412600 116544200 116103700 111545400
3024.82 109052800 108181000 108873900 107287900 104400600 102707900
3027.71 100307600 100204300 99976630 96813370 93265860 93272580
3030.60 95727180 93810060 92052990 93430020 95204800 97340180
3033.50 98733930 99179050 100581400 103202100 105841500 104292300
3036.39 103932300 109753600 114516700 114221900 113139600 114796600
3039.28 120349200 125234500 123948400 122935000 123604800 126278700
3042.18 129027200 128359400 128957200 129815200 127612100 127534700
3045.07 127634300 128226000 129325000 124892400 120528800 120620400
3047.96 120564800 120268400 115931000 110110700 109131300 107849200
3050.85 104296600 102232100 99622700 97509500 96864780 99516120
3053.75 104548800 107177200 105665300 100420100 97219250 100252300
3056.64 107118600 108677200 108872600 113937200 118302600 123036500
3059.53 128590600 130967700 131044500 131539100 136102700 145069800
3062.42 147972900 142654900 140874000 143722100 149452500 150575500
3065.32 144810400 143623100 143863300 144060400 145839100 142449400
3068.21 139803400 139989000 137098100 136517800 136495400 136287200
3071.10 137265300 135282400 132366300 131959000 133365500 135019500
3074.00 133023600 131076500 133168500 138299400 138806700 137220400
3076.89 137028400 138666800 142756500 148620700 147640900 142291700
3079.78 145629400 153685200 164461500 168507100 161417600 158695800
3082.67 164012900 176386700 189750800 187070200 178888200 180835000
3085.57 191756100 208166200 213264800 203068100 197168000 200999500
3088.46 213124800 221367800 210850100 202797500 204006300 207953100
3091.35 210867700 200520600 188304800 183827900 180792500 175219700
3094.24 166320300 158894000 150577600 140542600 138151300 142527100
3097.14 144944000 144776000 138355200 129219500 125332700 133122300
3100.03 143332500 132381000 123633300 126669200 133186600 141434600
3102.92 155683700 167623800 172772700 180404800 190986500 197550200
3105.82 203379400 206019500 202280800 202080900 206517800 210768600
3108.71 209226000 197296900 191465000 194808700 195485500 189741300
3111.60 174775600 165062300 166600000 167402300 162282200 148191500
3114.49 134548200 133096300 135971000 134270000 122596700 109774500
3117.39 108327400 111775200 113696700 105742000 92623910 89701480
3120.28 90829050 89905970 91374660 84996920 77711780 78643600
3123.17 80811390 81618790 74462620 68719280 68761240 71050630
3126.06 71430590 65899670 62581780 62853800 64484560 64238280
3128.96 59994830 56485470 56314740 56455860 55441930 53350460
3131.85 52033770 51659110 49603420 47780930 48194690 48678160
3134.74 44677300 42350870 41887220 43389260 42393840 38353060
3137.64 37367300 36672460 37389100 36650200 33804740 32350370
3140.53 32224140 32171470 30536790 29817390 28962420 27243050
3143.42 26223350 26684510 25804690 24019180 23443030 22897190
3146.31 22061380 21293180 21211900 20161300 18837150 18028910
3149.21 17901180 17740580 16714390 15668340 15022180 14827470
3152.10 14575600 13797450 13090760 12520160 12369250 11881860
3154.99 11215870 10645770 10242960 10065260 9784778 9095008
3157.88 8632290 8408370 8278682 7792648 7271940 6952392
3160.78 6742586 6690656 6480312 6082158 5726716 5425250
3163.67 5389820 5189250 4792776 4508860 4324466 4238902
3166.56 4059880 3956454 3878220 3695954 3447232 3237188
3169.46 3128322 3132200 3223316 2982724 2606568 2435334
3172.35 2443998 2638814 2600622 2160374 1905346 1808384
3175.24 1744846 1680626 1530134 1377414 1328080 1339890
3178.13 1262592 1136440 1131170 1024992 977656 958498
3181.03 960968 946012 939158 938736 952002 892406
3183.92 909086 931152 936934 948212 905700 873110
3186.81 913014 977886 952154 780830 639970 612122
3189.70 648150 634592 537874 326718 85842 121112
3192.60 431880 638648 638388 512072 481572 604358
3195.49 656020 633560 601254 557082 570744 449590
3198.38 281594 200698 147362 52860 112954 274058
3201.27 347626 264382 197160 218206 183648 87016
3204.17-28910-64398-9604 58342 3752 17722
3207.06 139502 195100 128658 94204 131676 166958
3209.95 241634 266344 289326 312934 394764 352282
3212.85 318480 415030 466986 419138 502978 556172
3215.74 625046 693850 765712 804246 810878 820888
3218.63 876220 1002104 1051134 1066302 1026786 1183954
3221.52 1319860 1213266 1101346 1210618 1299118 1366866
3224.42 1357502 1264030 1301742 1381414 1420788 1351022
3227.31 1318352 1275646 1209402 1159070 1244084 1295246
3230.20 1239532 1231086 1228546 1269736 1304184 1411566
3233.09 1569936 1737436 1904398 2049220 2039012 1964690
3235.99 1796592 1676454 1740516 1851268 1978132 2070236
3238.88 2023600 1948704 1967030 2100396 2053542 2026138
3241.77 2079438 2065398 2025146 1911722 1861986 1911642
3244.67 1872610 1690946 1624476 1545426 1497850 1479212
3247.56 1395826 1342014 1248156 1226274 1160050 1110944
3250.45 1106820 1065922 1025614 1001748 909530 867136
3253.34 834974 821150 740576 698874 724786 688550
3256.24 797936 912130 729418 604394 566346 616610
3259.13 672012 716204 729590 661284 590452 605822
3262.02 716610 717540 640728 639298 681892 691248
3264.91 663204 587548 653828 665696 570562 556088
3267.81 566116 466630 483392 546968 579400 497472
3270.70 406782 439578 452082 419864 422626 471114
3273.59 407360 303136 319398 309234 306644 349820
3276.49 332122 337686 400944 331906 318070 312024
3279.38 282452 277192 236098 179778 198818 195444
3282.27 220606 237392 211636 181404 126018 158666
3285.16 207878 177684 231552 293128 248232 235968
3288.06 282050 298134 338938 266264 235882 242784
3290.95 135436 124558 233914 264966 271378 295866
3293.84 333106 342326 308360 302820 372908 444002
3296.73 370618 299466 429350 501978 498866 509748
3299.63 496256 482836 530694 536442 502150 435596
3302.52 428644 496264 479030 330194 344596 462052
3305.41 379574 373642 481210 568092 494242 433856
3308.31 452042 490006 502184 490268 520684 547836
3311.20 483826 417602 435990 472442 515012 524008
3314.09 634336 632312 593636 595754 574150 543186
3316.98 564180 572522 567278 591310 608992 591672
3319.88 548086 553438 577310 531440 495040 502296
3322.77 549908 550580 466464 369628 363042 427960
3325.66 418720 380332 460026 530904 512278 425476
3328.55 347446 276448 303592 388020 402986 318576
3331.45 243704 352608 296442 138434 152536 256300
3334.34 374716 404322 292692 226732 208486 129368
3337.23 102208 176632 261820 260382 186314 163644
3340.13 146052 190204 240128 191780 206564 281704
3343.02 271522 245062 248212 192164 106224 82550
3345.91 111164 62878 86332 123408 238892 172368
3348.80 190456 187550 124178 93188 22166 80952
3351.70 162172 233916 287972 275886 141456 79404
3354.59 132778 202772 230878 179386 170414 182992
3357.48 197436 218062 252730 214528 170036 196540
3360.37 213510 317640 328306 261828 229498 227480
3363.27 200636 204510 302266 328882 302144 271050
3366.16 262856 210708 212178 222922 159468 187288
3369.05 198542 237692 320714 395448 351514 435600
3371.95 602728 632008 570514 467232 466982 449704
3374.84 419416 416410 486000 556024 543930 533372
3377.73 641438 653906 593322 618626 652620 722104
3380.62 802892 805066 778570 711108 753386 720284
3383.52 783230 836726 839210 1000104 1093126 1116920
3386.41 1095096 1134222 1176872 1123464 1173380 1247630
3389.30 1285218 1274918 1258076 1246600 1231450 1369976
3392.19 1450802 1399028 1393158 1412506 1376054 1300382
3395.09 1153626 1058038 1118314 1258664 1202860 1117728
3397.98 1140908 1025826 1025584 1125426 1228676 1177468
3400.87 1148422 1250990 1331120 1312922 1302610 1422180
3403.77 1443352 1351710 1411854 1492766 1393468 1352986
3406.66 1446448 1437322 1417064 1401988 1373306 1301382
3409.55 1244186 1311254 1326704 1311222 1318544 1242986
3412.44 1146198 1097186 1025230 975624 892674 717412
3415.34 720734 761092 805392 876778 965518 900314
3418.23 788574 795388 814328 781076 769910 659140
3421.12 610762 659744 618490 614662 514196 417902
3424.01 433092 492874 436498 391212 367786 435320
3426.91 493202 475592 506784 442462 364152 318098
3429.80 329538 327232 328138 388762 413514 420916
3432.69 411896 441354 327364 234690 349652 456698
3435.59 441776 443068 468448 453372 432894 523254
3438.48 589234 633086 653898 648090 713708 737784
3441.37 702904 814212 837854 762060 785530 705366
3444.26 733122 705820 666074 772620 864058 953706
3447.16 810294 739010 785116 762074 655674 594266
3450.05 608852 617604 643830 592722 526632 494930
3452.94 599596 570458 352390 405472 500442 472998
3455.83 534574 503278 489488 589460 634226 617020
3458.73 599396 750496 881752 758696 700788 695054
3461.62 728388 725786 721766 713556 784154 761414
3464.51 761750 704086 588674 592052 772478 880952
3467.40 792736 658150 589798 625858 634976 599472
3470.30 545474 537466 506674 454718 421684 376802
3473.19 404806 472112 456804 374876 345506 297316
3476.08 230074 242012 318990 379494 369532 343582
3478.98 360346 379810 399702 413034 392220 478152
3481.87 557964 430190 272784 283600 311202 276594
3484.76 372396 388770 370550 327718 262444 349056
3487.65 442744 433220 483908 448674 454886 455664
3490.55 438156 394004 308990 274598 346822 377928
3493.44 309918 309214 419992 490664 477252 469868
3496.33 477188 381744 349756 416166 445346 474926
3499.22 531924 582934 555782 570496 559124 566998
3502.12 620564 697846 667050 647224 635052 545184
3505.01 491536 521684 590850 535126 454546 412870
3507.90 489492 651680 744898 737898 633498 533032
3510.80 555492 597852 540630 548338 573518 531714
3513.69 473166 522358 606374 614148 580224 581086
3516.58 653496 622742 590298 583034 615380 514446
3519.47 520152 569852 610516 635508 660310 682814
3522.37 691772 600844 530320 588672 667176 647436
3525.26 612458 609478 733798 856098 815360 753524
3528.15 847212 911328 742864 618642 696198 764146
3531.04 783562 742568 706620 763504 751150 749100
3533.94 697046 636606 618612 607516 779796 768494
3536.83 629002 669442 666248 660582 577414 548654
3539.72 613584 549434 476938 492228 457302 464056
3542.62 585514 639348 568366 536344 769462 891630
3545.51 687482 661374 898252 857480 699308 602730
3548.40 615924 715020 713800 711030 677946 645684
3551.29 755454 871944 745246 736320 862816 790018
3554.19 729524 680216 664550 736104 642068 521782
3557.08 512608 601574 560608 512054 567544 688794
3559.97 667142 607860 628728 637368 626718 559154
3562.86 641818 704156 633640 590324 727828 1043462
3565.76 1187524 1213638 971762 1301022 1679432 1085904
3568.65 675946 592042 564172 562148 537456 525362
3571.54 595486 617652 648896 631884 591340 592892
3574.44 719978 725236 629970 620268 728344 736346
3577.33 743832 729566 715926 685476 717928 678854
3580.22 693478 658846 543292 662698 760672 721408
3583.11 809762 835694 718898 656422 825556 1233846
3586.01 1941760 1664210 1082288 1080728 1840122 2041488
3588.90 1148796 907598 881304 875518 834974 844642
3591.79 859308 1123732 1335142 1178586 1024684 1124894
3594.68 1524042 1477196 1230054 1232938 1152444 1239594
3597.58 1376416 1349306 1208830 1324946 1385766 1389212
3600.47 1535276 1356958 1191666 1311136 1378976 1282410
3603.36 1155492 1242500 1323834 1316644 1144936 1133656
3606.26 1614946 1811074 1479244 1359924 1822202 3040428
3609.15 2419102 1411136 1256686 1020658 1013080 1514360
3612.04 2307960 1884990 1302568 1322898 1640582 1563574
3614.93 1325116 1231182 1340726 1382624 1858936 2177524
3617.83 1847090 1793568 2678060 3070602 1906752 1537926
3620.72 1655036 1558878 1457844 1535438 1397574 1200868
3623.61 1136956 1219974 1284882 1146282 1068586 973894
3626.50 812238 1005468 2260766 3286816 2549462 3625750
3629.40 3270622 1379898 842872 664042 736902 740340
3632.29 730474 744844 1150572 949328 535756 426216
3635.18 441468 361544 280792 266304 367312 417822
3638.08 405292 549216 785486 960490 1022404 928812
3640.97 975528 958012 886908 703490 561148 451744
3643.86 476618 509080 538046 474750 741468 1324966
3646.75 2120184 1754630 972678 1693654 3811660 2869886
3649.65 1246428 1654442 1921728 1511180 550838 246548
3652.54 214598 297438 167216 157276 180578 357726
3655.43 1535836 2390564 893634 83930 82800 204266
3658.32 88106 51702 70900 148124 147854 140910
3661.22 136106 108552 94386 126522 129920 153634
3664.11 80512 66790 56646 24132 30496 149248
3667.00 234624 405922 1265962 1654368 801746 777366
3669.90 2903030 4340074 1703538 293902-14436 78644
3672.79 93682 454102 995918 2349150 2611618 3393662
3675.68 3919678 1497290 542208 426484 187026 115254
3678.57 468076 779088 438178 217032 111918 121048
3681.47 111004 174206 169432 190648 134932 178814
3684.36 180136 128338 15690 152796 231834 511530
3687.25 1376534 4470082 4557096 1408988 379898 387908
3690.14 849614 1688902 1553738 491682 180656 115378
3693.04 199372 190244 224306 131828 187202 274082
3695.93 385326 298308 223040 217594 260408 244950
3698.82 264870 273446 242798 186934 687942 1524996
3701.72 1115742 417658 330858 304748 206258 174486
3704.61 244594 235798 271916 213252 167684 119596
3707.50 210418 327532 1120334 1809388 968076 322362
3710.39 522690 909188 2570446 3419376 1408886 321654
3713.29 187824 291246 456206 338792 169974 162488
3716.18 130222 162954 205770 216340 420266 598598
3719.07 347784 240762 204314 204944 369610 893244
3721.96 1003246 541996 239760 154206 270166 483114
3724.86 450184 427642 998898 1211274 486258 267836
3727.75 248366 186776 130710 259824 252246 222682
3730.64 382892 1485862 3178446 2126102 583990 381278
3733.54 624306 1457416 1939628 1654118 1075342 2320608
3736.43 2715460 854442 400136 699274 509074 304852
3739.32 323204 349894 543376 703870 436602 179062
3742.21 292526 556806 1907276 5249078 7975590 4887756
3745.11 1220556 300086 290296 460328 554680 520294
3748.00 829466 3323702 5500918 2847230 719904 559952
3750.89 1040982 3990456 5841396 2508610 583612 246812
3753.78 129188 20768 137136 244754 635724 875214
3756.68 444046 226424 286676 328720 598252 1273386
3759.57 1366136 482208 244850 253408 254834 131482
3762.46 145756 172940 183538 118160 244420 818036
3765.35 1287528 593448 152634-9052 15348 94580
3768.25 242312 605774 1672318 1527106 508968 234822
3771.14 173032 84328 85122 142122 159312 170744
3774.03 175290 81012 86390 93102 176136 181550
3776.93 120292 115016 189168 456834 1096828 961826
3779.82 313724 83432 94106 168186 154106 150706
3782.71 101432 136198 352316 519466 378600 250154
3785.60 267234 278126 159688 113140 138576 150468
3788.50 114508 163772 166684 187674 192102 215898
3791.39 250006 210670 154072 203962 219978 217718
3794.28 163918 178670 457288 1265076 1222696 529452
3797.17 394862 415170 280860 355570 455254 575026
3800.07 997840 3508514 5276414 2354232 698706 798076
3802.96 599718 392856 345010 335782 343960 495174
3805.85 1307966 3359638 3037888 885846 301662 164248
3808.75 270910 264732 237080 213234 345840 277676
3811.64 324376 251882 333948 301822 363842 361130
3814.53 625522 2156658 5296930 3862884 865056 322436
3817.42 358614 471030 450376 553552 789310 1706052
3820.32 2587870 2471838 2832692 1560948 538080 550338
3823.21 456172 446464 444504 408776 464150 615124
3826.10 1112652 1063622 625936 532166 438898 459110
3828.99 489248 484004 509300 735804 1538396 1748510
3831.89 752468 502652 446382 530702 818386 2017770
3834.78 1859478 863074 597958 748574 1826862 5261720
3837.67 4931092 1508958 668046 903542 1209936 1258754
3840.57 1705194 1021210 568280 650712 959680 1446312
3843.46 1542258 882760 683730 613552 627658 557588
3846.35 608478 655864 799768 727594 805916 960986
3849.24 1144358 876942 777416 1078580 3323576 5099518
3852.14 2745190 1731386 4174144 8022754 6791392 2336486
3855.03 818062 689100 822312 1167500 1188582 786590
3857.92 755140 731098 702888 713928 851220 828574
3860.81 1173058 1766874 1382322 860774 897628 982684
3863.71 1259684 2006450 2885054 1788660 1017626 815080
3866.60 852594 825872 885360 1026546 1804024 2488824
3869.49 4000352 3283714 1318302 1015126 970944 928140
3872.39 889788 1214532 1661358 2039154 1521488 1027980
3875.28 919418 797972 755458 833626 970344 972568
3878.17 931846 1082016 1571542 2361826 2128108 1455200
3881.06 1046408 818250 852246 1001012 1163326 1007286
3883.96 1003148 1384774 3097784 3692062 2076972 1139672
3886.85 961632 959406 966994 923160 944820 981378
3889.74 1045810 1593980 2795226 2285696 1308844 1160006
3892.63 952862 834248 952962 878750 806632 819974
3895.53 717678 707460 798460 960112 1038092 1109480
3898.42 1741556 2531164 1756922 1041918 998940 1681768
3901.31 2781848 2116272 1296472 1209558 1986442 3026686
3904.21 2009712 1085786 1181104 1337910 1072992 871814
3907.10 887212 903916 940478 980814 947528 891154
3909.99 840034 833348 832708 858998 857714 824436
3912.88 833396 826702 785186 758964 733296 803420
3915.78 1020576 1273406 1711582 1397656 873242 851208
3918.67 877906 1108640 1406932 1062800 831938 848870
3921.56 820784 845550 867914 968314 1016484 1113514
3924.45 1390342 1293530 897034 824480 938618 990300
3927.35 918106 962886 1056708 1117620 1096860 1114156
3930.24 1147382 1040922 1043536 1422806 1504358 1037800
3933.13 915434 1053192 1087476 1010210 979504 1039832
3936.03 990482 816340 858068 1019242 1028908 959326
3938.92 932606 920122 873464 956456 991814 935244
3941.81 1175164 1410818 1208506 1021364 1001230 1021644
3944.70 1084640 1122260 1121708 1071246 1138692 1295002
3947.60 1356360 1352286 1369548 1119286 962010 1037138
3950.49 1108894 1131364 1093076 1062664 1236102 1340054
3953.38 1291322 1197920 1180644 1203580 1228114 1225910
3956.27 1342346 1310966 1238578 1240170 1212726 1272844
3959.17 1364444 1423042 1491510 1520446 1608210 1591532
3962.06 1477516 1547740 1625520 1725816 1786512 1836254
3964.95 1838930 1867672 1917750 1948574 2097308 2198574
3967.85 2191092 2363526 2472960 2492104 2634530 2689688
3970.74 2675524 2746476 2888426 3005102 3087308 3113822
3973.63 3128858 3146156 3148562
##END=
