##TITLE=PHENOL, 4-CHLORO-
##JCAMP-DX=4.24
##DATA TYPE=INFRARED SPECTRUM
##CLASS=COBLENTZ III
##ORIGIN=DOW CORNING CORP.
##OWNER=COBLENTZ SOCIETY
Collection (C) 2018 copyright by the U.S. Secretary of Commerce
on behalf of the United States of America. All rights reserved.
##DATE=1966
##NAMES=4-chlorophenol
##CAS REGISTRY NO=106-48-9
##MOLFORM=C6 H5 Cl O
##SOURCE REFERENCE=COBLENTZ NO. 4814
##$NIST SOURCE=COBLENTZ
##$NIST IMAGE=cob4814
##SPECTROMETER/DATA SYSTEM=PERKIN-ELMER 521 (GRATING)
##INSTRUMENT PARAMETERS=FILTERS AT 3150, 2500, 2000, 1150, 700, 410; GRATING CHANGES AT 2000, 630 CM^-^1
##STATE=SOLUTION (10% IN CCl4 FOR 3800-1300, 10% IN CS2 FOR 1300-650, 10% IN CCl4 FOR 650-250 CM^-^1) VERSUS SOLVENT
##PATH LENGTH=0.011, 0.010, AND 0.011 CM (CsBr CELL)
$$ PURITY 90% BY GLC
##SAMPLING PROCEDURE=TRANSMISSION
##RESOLUTION=4
##DATA PROCESSING=DIGITIZED BY NIST FROM HARD COPY (FROM TWO SEGMENTS)
##XUNITS=1/CM
##YUNITS=TRANSMITTANCE
##XFACTOR=1.000000
##YFACTOR=1
##DELTAX=0.982533
##FIRSTX=249.127
##LASTX=3789.19
##FIRSTY=0.573
##MAXX=3789.19
##MINX=249.127
##MAXY=0.93
##MINY=0.002
##NPOINTS=3604
##XYDATA=(X++(Y..Y))
249.127000 0.5730 0.5730 0.5730 0.5730 0.5710
254.039666 0.5700 0.5690 0.5690 0.5690 0.5670
258.952332 0.5670 0.5670 0.5660 0.5660 0.5660
263.864998 0.5650 0.5650 0.5630 0.5620 0.5620
268.777664 0.5590 0.5590 0.5580 0.5570 0.5570
273.690330 0.5540 0.5540 0.5530 0.5530 0.5510
278.602996 0.5470 0.5460 0.5430 0.5350 0.5310
283.515662 0.5310 0.5280 0.5280 0.5270 0.5270
288.428328 0.5260 0.5260 0.5240 0.5240 0.5230
293.340994 0.5220 0.5220 0.5200 0.5200 0.5190
298.253660 0.5190 0.5190 0.5190 0.5180 0.5180
303.166326 0.5160 0.5160 0.5160 0.5160 0.5150
308.078992 0.5150 0.5150 0.5140 0.5140 0.5120
312.991658 0.5120 0.5120 0.5120 0.5120 0.5110
317.904324 0.5110 0.5110 0.5110 0.5110 0.5110
322.816990 0.5110 0.5110 0.5110 0.5110 0.5110
327.729656 0.5110 0.5110 0.5110 0.5110 0.5110
332.642322 0.5110 0.5110 0.5120 0.5140 0.5150
337.554988 0.5200 0.5240 0.5310 0.5440 0.5570
342.467654 0.5590 0.5660 0.5710 0.5750 0.5780
347.380320 0.5810 0.5830 0.5890 0.5950 0.6050
352.292986 0.6120 0.6220 0.6280 0.6320 0.6340
357.205652 0.6380 0.6410 0.6450 0.6490 0.6560
362.118318 0.6600 0.6630 0.6680 0.6730 0.6750
367.030984 0.6760 0.6770 0.6770 0.6790 0.6800
371.943650 0.6800 0.6790 0.6790 0.6770 0.6760
376.856316 0.6730 0.6690 0.6650 0.6600 0.6560
381.768982 0.6520 0.6480 0.6440 0.6410 0.6400
386.681649 0.6410 0.6490 0.6600 0.6680 0.6930
391.594315 0.7030 0.7120 0.7200 0.7310 0.7320
396.506981 0.7350 0.7360 0.7380 0.7390 0.7390
401.419647 0.7390 0.7390 0.7390 0.7380 0.7380
406.332313 0.7360 0.7360 0.7350 0.7340 0.7340
411.244979 0.7310 0.7300 0.7280 0.7270 0.7260
416.157645 0.7240 0.7200 0.7180 0.7140 0.7120
421.070311 0.6960 0.6930 0.6810 0.6690 0.6600
425.982977 0.6460 0.6330 0.6060 0.6040 0.6060
430.895643 0.6279 0.6679 0.6969 0.6990 0.7000
435.808309 0.7030 0.7070 0.7120 0.7160 0.7230
440.720975 0.7240 0.7270 0.7350 0.7390 0.7420
445.633641 0.7420 0.7440 0.7470 0.7470 0.7530
450.546307 0.7580 0.7620 0.7630 0.7650 0.7660
455.458973 0.7660 0.7670 0.7690 0.7700 0.7710
460.371639 0.7710 0.7710 0.7730 0.7730 0.7740
465.284305 0.7740 0.7740 0.7750 0.7750 0.7770
470.196971 0.7770 0.7770 0.7780 0.7780 0.7780
475.109637 0.7780 0.7780 0.7780 0.7780 0.7770
480.022303 0.7770 0.7750 0.7750 0.7740 0.7710
484.934969 0.7700 0.7690 0.7660 0.7630 0.7620
489.847635 0.7610 0.7570 0.7540 0.7470 0.7430
494.760301 0.7380 0.7320 0.7230 0.6990 0.6691
499.672967 0.6341 0.6091 0.5811 0.5322 0.3708
504.585633 0.3179 0.2360 0.1810 0.1440 0.1440
509.498299 0.2039 0.2379 0.2629 0.3387 0.4137
514.410965 0.4551 0.5080 0.5470 0.5910 0.6020
519.323631 0.6200 0.6400 0.6560 0.6670 0.6760
524.236297 0.6830 0.6880 0.6930 0.6990 0.7020
529.148963 0.7040 0.7060 0.7080 0.7080 0.7110
534.061629 0.7110 0.7120 0.7120 0.7140 0.7140
538.974295 0.7150 0.7150 0.7150 0.7150 0.7150
543.886961 0.7150 0.7140 0.7140 0.7120 0.7120
548.799627 0.7110 0.7110 0.7110 0.7100 0.7100
553.712293 0.7070 0.7070 0.7070 0.7070 0.7060
558.624959 0.7060 0.7060 0.7040 0.7030 0.7030
563.537625 0.7020 0.7020 0.6990 0.6990 0.6990
568.450291 0.6970 0.6970 0.6970 0.6960 0.6960
573.362957 0.6960 0.6960 0.6950 0.6950 0.6950
578.275623 0.6930 0.6930 0.6930 0.6930 0.6920
583.188289 0.6920 0.6920 0.6920 0.6920 0.6920
588.100955 0.6910 0.6910 0.6910 0.6910 0.6890
593.013621 0.6890 0.6890 0.6890 0.6890 0.6890
597.926287 0.6890 0.6890 0.6890 0.6890 0.6880
602.838953 0.6880 0.6880 0.6880 0.6870 0.6870
607.751619 0.6870 0.6850 0.6850 0.6840 0.6840
612.664285 0.6810 0.6800 0.6790 0.6770 0.6760
617.576951 0.6750 0.6730 0.6710 0.6680 0.6650
622.489617 0.6630 0.6600 0.6570 0.6560 0.6530
627.402283 0.6510 0.6480 0.6450 0.6380 0.6300
632.314949 0.6240 0.6170 0.6100 0.6050 0.5980
637.227615 0.5910 0.5850 0.5571 0.5042 0.4642
642.140281 0.3830 0.3430 0.2381 0.1941 0.1481
647.052947 0.0592 0.0590 0.1078 0.1578 0.2545
651.965613 0.2561 0.3900 0.4590 0.5259 0.5480
656.878280 0.5909 0.6329 0.6440 0.6629 0.6789
661.790946 0.6970 0.7030 0.7070 0.7150 0.7220
666.703612 0.7270 0.7340 0.7390 0.7430 0.7470
671.616278 0.7530 0.7570 0.7610 0.7630 0.7650
676.528944 0.7660 0.7660 0.7670 0.7670 0.7690
681.441610 0.7690 0.7690 0.7700 0.7700 0.7700
686.354276 0.7710 0.7710 0.7710 0.7710 0.7710
691.266942 0.7700 0.7700 0.7700 0.7690 0.7670
696.179608 0.7660 0.7630 0.7510 0.7390 0.7320
701.092274 0.7310 0.7320 0.7420 0.7500 0.7590
706.004940 0.7710 0.7780 0.7900 0.7930 0.7940
710.917606 0.7950 0.7980 0.8000 0.8010 0.8020
715.830272 0.8050 0.8060 0.8120 0.8140 0.8160
720.742938 0.8170 0.8200 0.8220 0.8240 0.8240
725.655604 0.8240 0.8240 0.8220 0.8210 0.8200
730.568270 0.8170 0.8140 0.8130 0.8120 0.8120
735.480936 0.8130 0.8170 0.8200 0.8240 0.8260
740.393602 0.8300 0.8340 0.8380 0.8380 0.8400
745.306268 0.8400 0.8400 0.8400 0.8380 0.8380
750.218934 0.8370 0.8340 0.8330 0.8320 0.8320
755.131600 0.8330 0.8370 0.8400 0.8450 0.8480
760.044266 0.8520 0.8530 0.8530 0.8550 0.8560
764.956932 0.8570 0.8590 0.8600 0.8600 0.8610
769.869598 0.8610 0.8640 0.8650 0.8670 0.8670
774.782264 0.8670 0.8650 0.8650 0.8640 0.8640
779.694930 0.8630 0.8600 0.8590 0.8590 0.8560
784.607596 0.8550 0.8520 0.8510 0.8480 0.8420
789.520262 0.8420 0.8370 0.8300 0.8250 0.8180
794.432928 0.8090 0.8010 0.7890 0.7771 0.7591
799.345594 0.7389 0.6360 0.6100 0.5830 0.5580
804.258260 0.5540 0.5321 0.5310 0.5569 0.5819
809.170926 0.5910 0.5910 0.5830 0.5780 0.5710
814.083592 0.5620 0.5460 0.5161 0.4811 0.4611
818.996258 0.3540 0.2880 0.1691 0.1440 0.0871
823.908924 0.0591 0.0371 0.0290 0.0290 0.0529
828.821590 0.0760 0.0990 0.1100 0.1200 0.2118
833.734256 0.2709 0.2999 0.3777 0.4328 0.4868
838.646922 0.5150 0.5570 0.5940 0.6530 0.6720
843.559588 0.6880 0.7020 0.7150 0.7389 0.7529
848.472254 0.7630 0.7730 0.7890 0.8130 0.8180
853.384920 0.8240 0.8260 0.8280 0.8290 0.8300
858.297586 0.8300 0.8370 0.8440 0.8490 0.8550
863.210252 0.8600 0.8650 0.8670 0.8680 0.8680
868.122918 0.8690 0.8710 0.8710 0.8760 0.8810
873.035584 0.8840 0.8870 0.8920 0.8930 0.8950
877.948250 0.8960 0.8970 0.8990 0.9030 0.9060
882.860916 0.9070 0.9080 0.9110 0.9120 0.9120
887.773582 0.9140 0.9140 0.9140 0.9140 0.9140
892.686248 0.9140 0.9150 0.9150 0.9160 0.9160
897.598914 0.9150 0.9150 0.9140 0.9110 0.9110
902.511580 0.9100 0.9060 0.9060 0.9060 0.9040
907.424246 0.9040 0.9030 0.9030 0.9020 0.9000
912.336912 0.9000 0.8990 0.8990 0.8990 0.8970
917.249578 0.8970 0.8960 0.8960 0.8950 0.8930
922.162244 0.8920 0.8920 0.8880 0.8870 0.8850
927.074911 0.8850 0.8850 0.8870 0.8880 0.8890
931.987577 0.8910 0.8920 0.8930 0.8930 0.8950
936.900243 0.8950 0.8950 0.8950 0.8950 0.8950
941.812909 0.8950 0.8950 0.8930 0.8930 0.8920
946.725575 0.8920 0.8930 0.8930 0.8930 0.8960
951.638241 0.8970 0.9000 0.9030 0.9030 0.9060
956.550907 0.9070 0.9080 0.9080 0.9100 0.9110
961.463573 0.9110 0.9140 0.9140 0.9150 0.9150
966.376239 0.9160 0.9180 0.9180 0.9180 0.9160
971.288905 0.9160 0.9160 0.9160 0.9160 0.9180
976.201571 0.9180 0.9190 0.9190 0.9190 0.9190
981.114237 0.9190 0.9200 0.9200 0.9190 0.9190
986.026903 0.9180 0.9180 0.9180 0.9180 0.9160
990.939569 0.9120 0.9080 0.9060 0.9040 0.9040
995.852235 0.9030 0.9000 0.8960 0.8910 0.8850
1000.764901 0.8760 0.8630 0.8491 0.8321 0.8211
1005.677567 0.7909 0.6990 0.6450 0.5871 0.5311
1010.590233 0.5120 0.4183 0.4180 0.6152 0.6608
1015.502899 0.7071 0.8400 0.8760 0.8930 0.8950
1020.415565 0.8960 0.8960 0.8950 0.8950 0.8930
1025.328231 0.8930 0.8990 0.9060 0.9070 0.9100
1030.240897 0.9140 0.9180 0.9200 0.9230 0.9240
1035.153563 0.9260 0.9270 0.9280 0.9280 0.9300
1040.066229 0.9300 0.9300 0.9300 0.9300 0.9300
1044.978895 0.9280 0.9280 0.9280 0.9270 0.9270
1049.891561 0.9260 0.9260 0.9240 0.9230 0.9220
1054.804227 0.9190 0.9180 0.9160 0.9150 0.9120
1059.716893 0.9080 0.9030 0.9020 0.9000 0.8990
1064.629559 0.8970 0.8950 0.8930 0.8920 0.8850
1069.542225 0.8790 0.8630 0.8570 0.8550 0.8550
1074.454891 0.8550 0.8530 0.8530 0.8480 0.8410
1079.367557 0.8360 0.8260 0.8170 0.7951 0.7811
1084.280223 0.7540 0.7430 0.6850 0.6410 0.5910
1089.192889 0.3344 0.2791 0.2401 0.1981 0.1582
1094.105555 0.0770 0.0370 0.0370 0.0829 0.1060
1099.018221 0.1270 0.2177 0.3057 0.4713 0.6373
1103.930887 0.6770 0.6870 0.6970 0.7030 0.7080
1108.843553 0.7080 0.7070 0.7070 0.7080 0.7180
1113.756219 0.7240 0.7300 0.7580 0.7780 0.7820
1118.668885 0.7830 0.7830 0.7810 0.7780 0.7770
1123.581551 0.7740 0.7710 0.7630 0.7590 0.7590
1128.494217 0.7570 0.7550 0.7480 0.7460 0.7420
1133.406883 0.7340 0.7280 0.7260 0.7200 0.7180
1138.319549 0.6970 0.6950 0.6870 0.6760 0.6551
1143.232215 0.6480 0.6360 0.6210 0.6060 0.6010
1148.144881 0.5900 0.5770 0.5610 0.5401 0.5181
1153.057547 0.4990 0.4920 0.4790 0.4570 0.4261
1157.970213 0.3971 0.3701 0.3461 0.2962 0.2363
1162.882879 0.1849 0.1160 0.0920 0.0890 0.0890
1167.795545 0.0880 0.0790 0.0670 0.0560 0.0550
1172.708211 0.0560 0.0570 0.0630 0.0680 0.0750
1177.620877 0.0800 0.0810 0.0910 0.1000 0.1159
1182.533543 0.1280 0.1500 0.1660 0.1860 0.2080
1187.446209 0.2100 0.2180 0.2240 0.2300 0.2400
1192.358875 0.2420 0.2420 0.2420 0.2410 0.2410
1197.271541 0.2370 0.2360 0.2290 0.2240 0.2210
1202.184208 0.2180 0.2170 0.2140 0.2120 0.2120
1207.096874 0.2100 0.2100 0.2120 0.2130 0.2140
1212.009540 0.2160 0.2180 0.2200 0.2200 0.2210
1216.922206 0.2210 0.2210 0.2220 0.2220 0.2240
1221.834872 0.2240 0.2250 0.2250 0.2280 0.2280
1226.747538 0.2300 0.2330 0.2400 0.2460 0.2480
1231.660204 0.2490 0.2460 0.2440 0.2380 0.2290
1236.572870 0.2260 0.2130 0.2040 0.2010 0.2000
1241.485536 0.1980 0.1980 0.1980 0.1970 0.1970
1246.398202 0.1970 0.1950 0.1950 0.1940 0.1910
1251.310868 0.1790 0.1620 0.1430 0.0970 0.0720
1256.223534 0.0570 0.0490 0.0490 0.0600 0.0690
1261.136200 0.1030 0.1360 0.1580 0.2100 0.2400
1266.048866 0.2889 0.3349 0.3978 0.4239 0.4479
1270.961532 0.4920 0.5710 0.5790 0.6120 0.6330
1275.874198 0.6510 0.6650 0.6720 0.6730 0.6760
1280.786864 0.6760 0.6770 0.6770 0.6770 0.6770
1285.699530 0.6790 0.6840 0.6950 0.7060 0.7160
1290.612196 0.7460 0.7500 0.7750 0.7820 0.7870
1295.524862 0.7890 0.7890 0.7810 0.7710 0.7610
1300.437528 0.7540 0.7420 0.7360 0.7180 0.6930
1305.350194 0.6850 0.6770 0.6640 0.6630 0.6610
1310.262860 0.6530 0.6490 0.6320 0.6200 0.5950
1315.175526 0.5810 0.5501 0.5321 0.5041 0.4632
1320.088192 0.3730 0.3730 0.3980 0.4200 0.4400
1325.000858 0.4690 0.4840 0.4950 0.5030 0.5040
1329.913524 0.5110 0.5140 0.5160 0.5180 0.5190
1334.826190 0.5190 0.5160 0.5160 0.5150 0.5150
1339.738856 0.5150 0.5140 0.5120 0.5120 0.5120
1344.651522 0.5110 0.5110 0.5140 0.5160 0.5150
1349.564188 0.5190 0.5200 0.5260 0.5300 0.5310
1354.476854 0.5350 0.5380 0.5430 0.5570 0.5630
1359.389520 0.5670 0.5790 0.5900 0.6160 0.6260
1364.302186 0.6370 0.6480 0.6610 0.6690 0.6800
1369.214852 0.6910 0.6990 0.7060 0.7150 0.7320
1374.127518 0.7430 0.7500 0.7620 0.7670 0.7770
1379.040184 0.7860 0.7890 0.7930 0.7940 0.7950
1383.952850 0.7980 0.8020 0.8040 0.8040 0.8050
1388.865516 0.8050 0.8040 0.8040 0.8020 0.8010
1393.778182 0.8000 0.7980 0.7970 0.7950 0.7950
1398.690848 0.7940 0.7940 0.7950 0.7950 0.7950
1403.603514 0.7940 0.7940 0.7910 0.7890 0.7860
1408.516180 0.7810 0.7730 0.7610 0.7440 0.7360
1413.428846 0.7220 0.6831 0.6551 0.6211 0.5782
1418.341512 0.5510 0.5180 0.3061 0.2601 0.2161
1423.254178 0.1711 0.1281 0.1280 0.1499 0.1709
1428.166844 0.1860 0.2040 0.2200 0.2410 0.2670
1433.079510 0.2790 0.2880 0.3020 0.3229 0.3569
1437.992176 0.3750 0.3910 0.4060 0.4210 0.4709
1442.904842 0.4810 0.4930 0.5139 0.5299 0.5360
1447.817508 0.5420 0.5420 0.5480 0.5530 0.5620
1452.730174 0.5700 0.5710 0.5770 0.5979 0.6010
1457.642840 0.6140 0.6180 0.6200 0.6200 0.6180
1462.555506 0.6170 0.6140 0.6100 0.6080 0.6020
1467.468172 0.5870 0.5850 0.5630 0.5420 0.5190
1472.380839 0.4881 0.4790 0.4680 0.4600 0.4490
1477.293505 0.4330 0.4220 0.3890 0.3830 0.3690
1482.206171 0.3610 0.3391 0.3061 0.2572 0.1664
1487.118837 0.0810 0.0650 0.0060 0.0040 0.0020
1492.031503 0.0020 0.0040 0.0050 0.0090 0.0120
1496.944169 0.0160 0.0250 0.0370 0.1000 0.1629
1501.856835 0.3846 0.4279 0.4689 0.5218 0.5768
1506.769501 0.6330 0.6680 0.6890 0.6960 0.7020
1511.682167 0.7060 0.7110 0.7140 0.7150 0.7150
1516.594833 0.7150 0.7140 0.7120 0.7120 0.7140
1521.507499 0.7160 0.7220 0.7320 0.7440 0.7609
1526.420165 0.7780 0.7830 0.7980 0.8090 0.8100
1531.332831 0.8120 0.8120 0.8130 0.8130 0.8130
1536.245497 0.8130 0.8130 0.8130 0.8140 0.8140
1541.158163 0.8160 0.8160 0.8160 0.8170 0.8170
1546.070829 0.8200 0.8200 0.8220 0.8250 0.8260
1550.983495 0.8290 0.8300 0.8320 0.8320 0.8340
1555.896161 0.8340 0.8340 0.8340 0.8340 0.8330
1560.808827 0.8330 0.8320 0.8300 0.8290 0.8260
1565.721493 0.8250 0.8220 0.8180 0.8170 0.8130
1570.634159 0.8090 0.8010 0.7791 0.7630 0.7530
1575.546825 0.7400 0.6890 0.6770 0.6640 0.6290
1580.459491 0.6080 0.5691 0.5391 0.5241 0.4722
1585.372157 0.4409 0.3710 0.3360 0.3020 0.2670
1590.284823 0.2321 0.1951 0.1940 0.1950 0.2239
1595.197489 0.2520 0.2800 0.3350 0.3700 0.4049
1600.110155 0.4399 0.4410 0.4400 0.4290 0.4260
1605.022821 0.4120 0.4040 0.4040 0.4370 0.4610
1609.935487 0.4850 0.5099 0.5339 0.5619 0.6765
1614.848153 0.6930 0.7100 0.7300 0.7390 0.7430
1619.760819 0.7470 0.7480 0.7500 0.7530 0.7540
1624.673485 0.7540 0.7550 0.7550 0.7570 0.7580
1629.586151 0.7590 0.7630 0.7660 0.7700 0.7730
1634.498817 0.7770 0.7930 0.7970 0.8060 0.8140
1639.411483 0.8170 0.8180 0.8280 0.8320 0.8330
1644.324149 0.8340 0.8360 0.8370 0.8400 0.8410
1649.236815 0.8410 0.8420 0.8440 0.8450 0.8480
1654.149481 0.8490 0.8520 0.8570 0.8600 0.8630
1659.062147 0.8680 0.8680 0.8690 0.8710 0.8720
1663.974813 0.8730 0.8750 0.8760 0.8760 0.8770
1668.887479 0.8770 0.8770 0.8790 0.8790 0.8790
1673.800145 0.8800 0.8800 0.8800 0.8810 0.8810
1678.712811 0.8810 0.8810 0.8810 0.8810 0.8830
1683.625477 0.8840 0.8840 0.8840 0.8840 0.8840
1688.538143 0.8840 0.8840 0.8840 0.8840 0.8850
1693.450809 0.8850 0.8850 0.8850 0.8850 0.8850
1698.363475 0.8850 0.8850 0.8850 0.8850 0.8850
1703.276141 0.8850 0.8850 0.8850 0.8850 0.8850
1708.188807 0.8850 0.8850 0.8850 0.8850 0.8840
1713.101473 0.8840 0.8840 0.8840 0.8830 0.8830
1718.014139 0.8830 0.8830 0.8800 0.8790 0.8760
1722.926805 0.8750 0.8730 0.8720 0.8710 0.8690
1727.839471 0.8680 0.8670 0.8650 0.8640 0.8640
1732.752137 0.8630 0.8630 0.8610 0.8610 0.8610
1737.664803 0.8630 0.8630 0.8640 0.8640 0.8650
1742.577470 0.8650 0.8650 0.8670 0.8680 0.8680
1747.490136 0.8690 0.8710 0.8720 0.8730 0.8770
1752.402802 0.8790 0.8790 0.8800 0.8810 0.8840
1757.315468 0.8850 0.8880 0.8880 0.8880 0.8890
1762.228134 0.8890 0.8910 0.8910 0.8910 0.8920
1767.140800 0.8920 0.8920 0.8930 0.8930 0.8930
1772.053466 0.8930 0.8950 0.8950 0.8950 0.8950
1776.966132 0.8960 0.8960 0.8960 0.8960 0.8960
1781.878798 0.8970 0.8970 0.8970 0.8970 0.8960
1786.791464 0.8960 0.8960 0.8950 0.8950 0.8930
1791.704130 0.8930 0.8930 0.8920 0.8920 0.8920
1796.616796 0.8910 0.8890 0.8890 0.8890 0.8880
1801.529462 0.8880 0.8870 0.8870 0.8850 0.8850
1806.442128 0.8850 0.8840 0.8840 0.8840 0.8840
1811.354794 0.8830 0.8830 0.8830 0.8830 0.8830
1816.267460 0.8830 0.8830 0.8800 0.8800 0.8800
1821.180126 0.8800 0.8790 0.8790 0.8790 0.8790
1826.092792 0.8770 0.8770 0.8770 0.8770 0.8770
1831.005458 0.8770 0.8770 0.8770 0.8760 0.8760
1835.918124 0.8750 0.8730 0.8720 0.8720 0.8710
1840.830790 0.8670 0.8630 0.8590 0.8560 0.8550
1845.743456 0.8550 0.8550 0.8530 0.8530 0.8520
1850.656122 0.8520 0.8520 0.8520 0.8510 0.8510
1855.568788 0.8510 0.8480 0.8450 0.8440 0.8410
1860.481454 0.8320 0.8220 0.8090 0.8050 0.7950
1865.394120 0.7830 0.7670 0.7500 0.7360 0.7340
1870.306786 0.7360 0.7400 0.7470 0.7530 0.7650
1875.219452 0.7770 0.7910 0.8040 0.8209 0.8329
1880.132118 0.8360 0.8410 0.8440 0.8480 0.8520
1885.044784 0.8530 0.8560 0.8590 0.8590 0.8600
1889.957450 0.8600 0.8610 0.8610 0.8630 0.8640
1894.870116 0.8640 0.8650 0.8670 0.8690 0.8720
1899.782782 0.8760 0.8800 0.8840 0.8870 0.8890
1904.695448 0.8910 0.8930 0.8950 0.8960 0.8960
1909.608114 0.8970 0.8970 0.8990 0.8990 0.9000
1914.520780 0.9000 0.9020 0.9020 0.9020 0.9020
1919.433446 0.9020 0.9020 0.9020 0.9020 0.9020
1924.346112 0.9020 0.9020 0.9020 0.9020 0.9020
1929.258778 0.9020 0.9020 0.9030 0.9030 0.9030
1934.171444 0.9030 0.9030 0.9040 0.9040 0.9040
1939.084110 0.9040 0.9040 0.9040 0.9060 0.9060
1943.996776 0.9070 0.9060 0.9070 0.9070 0.9070
1948.909442 0.9080 0.9080 0.9080 0.9080 0.9080
1953.822108 0.9080 0.9080 0.9080 0.9080 0.9080
1958.734774 0.9080 0.9080 0.9080 0.9080 0.9080
1963.647440 0.9080 0.9080 0.9080 0.9080 0.9080
1968.560106 0.9080 0.9080 0.9080 0.9080 0.9080
1973.472772 0.9070 0.9070 0.9070 0.9060 0.9060
1978.385438 0.9060 0.9060 0.9040 0.9040 0.9060
1983.298104 0.9060 0.9060 0.9060 0.9060 0.9060
1988.210770 0.9070 0.9070 0.9070 0.9070 0.9070
1993.123436 0.9070 0.9080 0.9080 0.9080 0.9080
1998.036102 0.9080 0.9100 0.9110 0.9110 0.9110
2002.948768 0.9130 0.9150 0.9150 0.9150 0.9155
2007.861434 0.9160 0.9160 0.9160 0.9160 0.9160
2012.774101 0.9155 0.9150 0.9150 0.9150 0.9145
2017.686767 0.9140 0.9140 0.9140 0.9140 0.9140
2022.599433 0.9140 0.9140 0.9140 0.9140 0.9145
2027.512099 0.9150 0.9150 0.9150 0.9155 0.9160
2032.424765 0.9160 0.9160 0.9160 0.9160 0.9160
2037.337431 0.9160 0.9155 0.9150 0.9136 0.9121
2042.250097 0.9120 0.9120 0.9115 0.9110 0.9110
2047.162763 0.9110 0.9105 0.9100 0.9091 0.9081
2052.075429 0.9075 0.9070 0.9065 0.9060 0.9060
2056.988095 0.9060 0.9060 0.9060 0.9041 0.9021
2061.900761 0.9020 0.9020 0.9011 0.9001 0.9000
2066.813427 0.9000 0.8995 0.8990 0.8990 0.8990
2071.726093 0.8990 0.8990 0.8990 0.8990 0.8994
2076.638759 0.8999 0.9009 0.9019 0.9025 0.9030
2081.551425 0.9035 0.9040 0.9054 0.9069 0.9075
2086.464091 0.9079 0.9089 0.9099 0.9104 0.9109
2091.376757 0.9114 0.9119 0.9129 0.9139 0.9144
2096.289423 0.9149 0.9154 0.9159 0.9169 0.9179
2101.202089 0.9184 0.9189 0.9194 0.9199 0.9209
2106.114755 0.9219 0.9220 0.9220 0.9224 0.9229
2111.027421 0.9230 0.9230 0.9230 0.9230 0.9234
2115.940087 0.9239 0.9240 0.9240 0.9249 0.9259
2120.852753 0.9260 0.9260 0.9260 0.9260 0.9260
2125.765419 0.9260 0.9260 0.9260 0.9260 0.9260
2130.678085 0.9260 0.9260 0.9260 0.9260 0.9260
2135.590751 0.9260 0.9260 0.9260 0.9260 0.9260
2140.503417 0.9252 0.9242 0.9240 0.9240 0.9240
2145.416083 0.9240 0.9240 0.9240 0.9240 0.9240
2150.328749 0.9240 0.9240 0.9240 0.9240 0.9240
2155.241415 0.9240 0.9240 0.9240 0.9240 0.9240
2160.154081 0.9240 0.9240 0.9236 0.9231 0.9230
2165.066747 0.9230 0.9226 0.9221 0.9220 0.9220
2169.979413 0.9220 0.9220 0.9212 0.9202 0.9200
2174.892079 0.9200 0.9200 0.9200 0.9200 0.9200
2179.804745 0.9208 0.9218 0.9220 0.9220 0.9220
2184.717411 0.9220 0.9220 0.9220 0.9220 0.9220
2189.630077 0.9220 0.9220 0.9220 0.9220 0.9220
2194.542743 0.9220 0.9224 0.9229 0.9230 0.9230
2199.455409 0.9230 0.9230 0.9234 0.9239 0.9240
2204.368075 0.9240 0.9240 0.9240 0.9240 0.9240
2209.280741 0.9236 0.9231 0.9230 0.9230 0.9226
2214.193407 0.9221 0.9213 0.9202 0.9200 0.9200
2219.106073 0.9196 0.9191 0.9186 0.9181 0.9180
2224.018739 0.9180 0.9184 0.9189 0.9190 0.9190
2228.931405 0.9186 0.9181 0.9180 0.9180 0.9180
2233.844071 0.9180 0.9173 0.9163 0.9160 0.9160
2238.756737 0.9160 0.9160 0.9160 0.9160 0.9156
2243.669403 0.9151 0.9150 0.9150 0.9146 0.9141
2248.582069 0.9140 0.9140 0.9133 0.9123 0.9116
2253.494735 0.9112 0.9106 0.9101 0.9100 0.9100
2258.407401 0.9093 0.9083 0.9080 0.9080 0.9087
2263.320067 0.9097 0.9100 0.9100 0.9103 0.9108
2268.232733 0.9110 0.9110 0.9113 0.9118 0.9120
2273.145399 0.9120 0.9130 0.9145 0.9150 0.9150
2278.058065 0.9150 0.9150 0.9150 0.9150 0.9147
2282.970732 0.9142 0.9140 0.9140 0.9140 0.9140
2287.883398 0.9140 0.9140 0.9140 0.9140 0.9140
2292.796064 0.9140 0.9133 0.9123 0.9120 0.9120
2297.708730 0.9117 0.9112 0.9110 0.9110 0.9110
2302.621396 0.9110 0.9110 0.9110 0.9113 0.9118
2307.534062 0.9120 0.9120 0.9120 0.9120 0.9120
2312.446728 0.9120 0.9120 0.9120 0.9126 0.9136
2317.359394 0.9140 0.9140 0.9140 0.9140 0.9140
2322.272060 0.9140 0.9140 0.9140 0.9143 0.9148
2327.184726 0.9150 0.9150 0.9150 0.9150 0.9150
2332.097392 0.9150 0.9150 0.9150 0.9150 0.9150
2337.010058 0.9150 0.9150 0.9150 0.9150 0.9150
2341.922724 0.9150 0.9150 0.9150 0.9150 0.9150
2346.835390 0.9150 0.9150 0.9150 0.9150 0.9150
2351.748056 0.9150 0.9150 0.9150 0.9150 0.9150
2356.660722 0.9150 0.9150 0.9150 0.9150 0.9147
2361.573388 0.9142 0.9140 0.9140 0.9140 0.9140
2366.486054 0.9140 0.9140 0.9140 0.9140 0.9134
2371.398720 0.9124 0.9117 0.9112 0.9110 0.9110
2376.311386 0.9110 0.9110 0.9107 0.9102 0.9100
2381.224052 0.9100 0.9100 0.9100 0.9094 0.9084
2386.136718 0.9077 0.9072 0.9062 0.9047 0.9035
2391.049384 0.9025 0.9001 0.8965 0.8942 0.8927
2395.962050 0.8920 0.8920 0.8912 0.8897 0.8887
2400.874716 0.8882 0.8869 0.8849 0.8832 0.8817
2405.787382 0.8797 0.8772 0.8757 0.8752 0.8750
2410.700048 0.8750 0.8739 0.8719 0.8699 0.8679
2415.612714 0.8659 0.8639 0.8619 0.8599 0.8579
2420.525380 0.8559 0.8545 0.8535 0.8527 0.8522
2425.438046 0.8520 0.8520 0.8520 0.8520 0.8523
2430.350712 0.8528 0.8538 0.8553 0.8573 0.8598
2435.263378 0.8625 0.8655 0.8675 0.8685 0.8695
2440.176044 0.8705 0.8715 0.8725 0.8737 0.8752
2445.088710 0.8770 0.8790 0.8802 0.8807 0.8810
2450.001376 0.8810 0.8817 0.8832 0.8840 0.8840
2454.914042 0.8833 0.8818 0.8810 0.8810 0.8810
2459.826708 0.8810 0.8808 0.8803 0.8800 0.8800
2464.739374 0.8802 0.8807 0.8810 0.8810 0.8815
2469.652040 0.8825 0.8830 0.8830 0.8830 0.8830
2474.564706 0.8823 0.8808 0.8798 0.8793 0.8785
2479.477372 0.8775 0.8768 0.8763 0.8760 0.8760
2484.390038 0.8762 0.8767 0.8777 0.8792 0.8802
2489.302704 0.8807 0.8810 0.8810 0.8810 0.8810
2494.215370 0.8810 0.8810 0.8810 0.8810 0.8810
2499.128036 0.8810 0.8808 0.8803 0.8798 0.8793
2504.040702 0.8790 0.8790 0.8786 0.8776 0.8768
2508.953368 0.8763 0.8760 0.8760 0.8762 0.8767
2513.866034 0.8770 0.8770 0.8776 0.8791 0.8800
2518.778700 0.8800 0.8800 0.8800 0.8802 0.8807
2523.691366 0.8810 0.8810 0.8810 0.8810 0.8810
2528.604032 0.8810 0.8810 0.8810 0.8810 0.8810
2533.516698 0.8810 0.8810 0.8810 0.8810 0.8810
2538.429364 0.8810 0.8810 0.8810 0.8810 0.8810
2543.342030 0.8810 0.8810 0.8810 0.8810 0.8810
2548.254696 0.8810 0.8810 0.8810 0.8810 0.8810
2553.167362 0.8814 0.8824 0.8830 0.8830 0.8830
2558.080029 0.8830 0.8830 0.8830 0.8830 0.8830
2562.992695 0.8830 0.8830 0.8830 0.8830 0.8826
2567.905361 0.8816 0.8810 0.8810 0.8810 0.8810
2572.818027 0.8810 0.8810 0.8810 0.8810 0.8810
2577.730693 0.8810 0.8810 0.8810 0.8808 0.8803
2582.643359 0.8800 0.8800 0.8798 0.8793 0.8790
2587.556025 0.8790 0.8790 0.8790 0.8787 0.8777
2592.468691 0.8770 0.8770 0.8770 0.8770 0.8768
2597.381357 0.8763 0.8760 0.8760 0.8760 0.8760
2602.294023 0.8758 0.8753 0.8750 0.8750 0.8752
2607.206689 0.8757 0.8760 0.8760 0.8760 0.8760
2612.119355 0.8762 0.8767 0.8773 0.8783 0.8792
2617.032021 0.8797 0.8802 0.8807 0.8813 0.8823
2621.944687 0.8831 0.8836 0.8840 0.8840 0.8839
2626.857353 0.8834 0.8830 0.8830 0.8827 0.8817
2631.770019 0.8809 0.8804 0.8799 0.8794 0.8787
2636.682685 0.8777 0.8770 0.8770 0.8769 0.8764
2641.595351 0.8759 0.8754 0.8750 0.8750 0.8750
2646.508017 0.8750 0.8747 0.8737 0.8729 0.8724
2651.420683 0.8720 0.8720 0.8719 0.8714 0.8707
2656.333349 0.8697 0.8690 0.8690 0.8690 0.8690
2661.246015 0.8690 0.8690 0.8690 0.8690 0.8690
2666.158681 0.8690 0.8690 0.8690 0.8690 0.8690
2671.071347 0.8693 0.8703 0.8710 0.8710 0.8710
2675.984013 0.8710 0.8710 0.8710 0.8710 0.8710
2680.896679 0.8710 0.8710 0.8710 0.8710 0.8710
2685.809345 0.8710 0.8710 0.8710 0.8711 0.8716
2690.722011 0.8720 0.8720 0.8721 0.8726 0.8730
2695.634677 0.8730 0.8730 0.8730 0.8732 0.8742
2700.547343 0.8751 0.8756 0.8761 0.8766 0.8772
2705.460009 0.8782 0.8790 0.8790 0.8790 0.8790
2710.372675 0.8790 0.8790 0.8791 0.8796 0.8801
2715.285341 0.8806 0.8813 0.8828 0.8840 0.8840
2720.198007 0.8841 0.8846 0.8850 0.8850 0.8850
2725.110673 0.8850 0.8850 0.8850 0.8850 0.8850
2730.023339 0.8849 0.8844 0.8840 0.8840 0.8839
2734.936005 0.8834 0.8830 0.8830 0.8830 0.8830
2739.848671 0.8830 0.8830 0.8830 0.8830 0.8828
2744.761337 0.8818 0.8810 0.8810 0.8810 0.8810
2749.674003 0.8809 0.8804 0.8799 0.8794 0.8788
2754.586669 0.8778 0.8769 0.8764 0.8759 0.8754
2759.499335 0.8750 0.8750 0.8749 0.8739 0.8730
2764.412001 0.8730 0.8729 0.8724 0.8720 0.8720
2769.324667 0.8720 0.8720 0.8720 0.8720 0.8720
2774.237333 0.8720 0.8720 0.8720 0.8720 0.8720
2779.149999 0.8720 0.8720 0.8720 0.8720 0.8720
2784.062665 0.8720 0.8720 0.8720 0.8720 0.8720
2788.975331 0.8721 0.8726 0.8730 0.8730 0.8731
2793.887997 0.8741 0.8750 0.8750 0.8750 0.8750
2798.800663 0.8750 0.8750 0.8750 0.8755 0.8760
2803.713329 0.8760 0.8760 0.8765 0.8770 0.8770
2808.625995 0.8771 0.8781 0.8790 0.8790 0.8790
2813.538661 0.8795 0.8800 0.8805 0.8810 0.8810
2818.451327 0.8811 0.8821 0.8830 0.8830 0.8830
2823.363993 0.8835 0.8840 0.8845 0.8850 0.8850
2828.276660 0.8850 0.8850 0.8850 0.8850 0.8850
2833.189326 0.8845 0.8840 0.8840 0.8840 0.8840
2838.101992 0.8840 0.8840 0.8840 0.8840 0.8840
2843.014658 0.8840 0.8840 0.8840 0.8840 0.8835
2847.927324 0.8829 0.8819 0.8809 0.8800 0.8790
2852.839990 0.8780 0.8770 0.8770 0.8770 0.8765
2857.752656 0.8760 0.8760 0.8760 0.8760 0.8760
2862.665322 0.8760 0.8760 0.8755 0.8750 0.8750
2867.577988 0.8750 0.8750 0.8750 0.8750 0.8750
2872.490654 0.8750 0.8750 0.8750 0.8750 0.8755
2877.403320 0.8760 0.8760 0.8760 0.8765 0.8770
2882.315986 0.8780 0.8790 0.8790 0.8790 0.8790
2887.228652 0.8790 0.8795 0.8800 0.8805 0.8810
2892.141318 0.8810 0.8810 0.8820 0.8830 0.8830
2897.053984 0.8830 0.8820 0.8810 0.8805 0.8800
2901.966650 0.8795 0.8790 0.8775 0.8760 0.8745
2906.879316 0.8730 0.8725 0.8720 0.8715 0.8710
2911.791982 0.8710 0.8710 0.8700 0.8690 0.8690
2916.704648 0.8690 0.8690 0.8690 0.8685 0.8680
2921.617314 0.8680 0.8680 0.8680 0.8680 0.8685
2926.529980 0.8690 0.8690 0.8690 0.8690 0.8690
2931.442646 0.8690 0.8690 0.8690 0.8690 0.8685
2936.355312 0.8680 0.8680 0.8680 0.8675 0.8670
2941.267978 0.8670 0.8670 0.8670 0.8670 0.8670
2946.180644 0.8670 0.8670 0.8670 0.8661 0.8651
2951.093310 0.8650 0.8650 0.8650 0.8650 0.8659
2956.005976 0.8669 0.8675 0.8680 0.8680 0.8680
2960.918642 0.8680 0.8680 0.8685 0.8690 0.8690
2965.831308 0.8690 0.8690 0.8690 0.8690 0.8690
2970.743974 0.8690 0.8690 0.8690 0.8690 0.8685
2975.656640 0.8680 0.8680 0.8680 0.8676 0.8671
2980.569306 0.8670 0.8670 0.8661 0.8651 0.8650
2985.481972 0.8650 0.8645 0.8640 0.8636 0.8631
2990.394638 0.8621 0.8611 0.8601 0.8591 0.8577
2995.307304 0.8562 0.8560 0.8560 0.8538 0.8513
3000.219970 0.8480 0.8445 0.8405 0.8365 0.8307
3005.132636 0.8247 0.8196 0.8146 0.8105 0.8065
3010.045302 0.8034 0.8004 0.7987 0.7972 0.7961
3014.957968 0.7951 0.7916 0.7876 0.7861 0.7851
3019.870634 0.7833 0.7813 0.7793 0.7773 0.7757
3024.783300 0.7742 0.7723 0.7703 0.7687 0.7672
3029.695966 0.7645 0.7615 0.7576 0.7536 0.7471
3034.608632 0.7401 0.7327 0.7252 0.7236 0.7231
3039.521298 0.7300 0.7385 0.7454 0.7520 0.7585
3044.433964 0.7650 0.7714 0.7779 0.7832 0.7882
3049.346630 0.7894 0.7899 0.7904 0.7909 0.7902
3054.259296 0.7892 0.7890 0.7890 0.7874 0.7854
3059.171962 0.7826 0.7796 0.7774 0.7754 0.7730
3064.084628 0.7705 0.7688 0.7673 0.7666 0.7661
3068.997294 0.7664 0.7669 0.7678 0.7688 0.7698
3073.909960 0.7708 0.7722 0.7737 0.7756 0.7776
3078.822626 0.7792 0.7807 0.7814 0.7819 0.7820
3083.735292 0.7820 0.7820 0.7820 0.7820 0.7820
3088.647958 0.7816 0.7811 0.7802 0.7792 0.7786
3093.560624 0.7781 0.7765 0.7745 0.7736 0.7731
3098.473291 0.7719 0.7704 0.7681 0.7656 0.7638
3103.385957 0.7623 0.7620 0.7620 0.7624 0.7629
3108.298623 0.7645 0.7665 0.7678 0.7688 0.7694
3113.211289 0.7699 0.7704 0.7709 0.7717 0.7727
3118.123955 0.7730 0.7730 0.7730 0.7730 0.7722
3123.036621 0.7712 0.7710 0.7710 0.7706 0.7701
3127.949287 0.7689 0.7674 0.7648 0.7618 0.7584
3132.861953 0.7549 0.7529 0.7514 0.7506 0.7501
3137.774619 0.7493 0.7483 0.7466 0.7445 0.7433
3142.687285 0.7423 0.7405 0.7385 0.7369 0.7354
3147.599951 0.7339 0.7324 0.7313 0.7303 0.7289
3152.512617 0.7274 0.7259 0.7244 0.7219 0.7189
3157.425283 0.7159 0.7129 0.7113 0.7103 0.7093
3162.337949 0.7083 0.7062 0.7037 0.7009 0.6979
3167.250615 0.6956 0.6936 0.6902 0.6862 0.6833
3172.163281 0.6808 0.6786 0.6766 0.6743 0.6718
3177.075947 0.6700 0.6685 0.6656 0.6621 0.6596
3181.988613 0.6576 0.6549 0.6520 0.6479 0.6435
3186.901279 0.6413 0.6403 0.6390 0.6375 0.6360
3191.813945 0.6345 0.6310 0.6265 0.6250 0.6250
3196.726611 0.6240 0.6225 0.6213 0.6203 0.6187
3201.639277 0.6167 0.6147 0.6127 0.6113 0.6103
3206.551943 0.6093 0.6083 0.6074 0.6064 0.6054
3211.464609 0.6044 0.6018 0.5983 0.5957 0.5937
3216.377275 0.5924 0.5914 0.5881 0.5836 0.5797
3221.289941 0.5762 0.5734 0.5709 0.5690 0.5675
3226.202607 0.5657 0.5637 0.5611 0.5581 0.5561
3231.115273 0.5546 0.5515 0.5475 0.5435 0.5395
3236.027939 0.5374 0.5364 0.5342 0.5311 0.5291
3240.940605 0.5276 0.5242 0.5197 0.5168 0.5148
3245.853271 0.5128 0.5108 0.5088 0.5068 0.5048
3250.765937 0.5028 0.4993 0.4948 0.4918 0.4898
3255.678603 0.4884 0.4874 0.4861 0.4846 0.4801
3260.591269 0.4736 0.4698 0.4678 0.4661 0.4646
3265.503935 0.4625 0.4600 0.4581 0.4566 0.4548
3270.416601 0.4528 0.4508 0.4489 0.4469 0.4449
3275.329267 0.4423 0.4393 0.4377 0.4372 0.4344
3280.241933 0.4299 0.4274 0.4264 0.4257 0.4252
3285.154599 0.4239 0.4219 0.4196 0.4171 0.4129
3290.067265 0.4074 0.4039 0.4019 0.4002 0.3987
3294.979931 0.3969 0.3949 0.3932 0.3917 0.3904
3299.892597 0.3894 0.3882 0.3867 0.3849 0.3829
3304.805263 0.3817 0.3812 0.3802 0.3787 0.3759
3309.717929 0.3719 0.3692 0.3677 0.3667 0.3662
3314.630595 0.3657 0.3652 0.3642 0.3627 0.3617
3319.543261 0.3612 0.3610 0.3610 0.3602 0.3587
3324.455927 0.3577 0.3572 0.3570 0.3570 0.3562
3329.368593 0.3547 0.3530 0.3510 0.3495 0.3485
3334.281259 0.3480 0.3480 0.3477 0.3472 0.3467
3339.193925 0.3462 0.3460 0.3460 0.3455 0.3445
3344.106591 0.3440 0.3440 0.3440 0.3440 0.3438
3349.019257 0.3433 0.3430 0.3430 0.3430 0.3430
3353.931923 0.3428 0.3423 0.3420 0.3420 0.3415
3358.844589 0.3405 0.3400 0.3400 0.3398 0.3393
3363.757255 0.3390 0.3390 0.3390 0.3390 0.3390
3368.669922 0.3390 0.3390 0.3390 0.3390 0.3390
3373.582588 0.3390 0.3390 0.3392 0.3397 0.3400
3378.495254 0.3400 0.3400 0.3400 0.3400 0.3400
3383.407920 0.3400 0.3400 0.3400 0.3400 0.3400
3388.320586 0.3400 0.3404 0.3414 0.3420 0.3420
3393.233252 0.3420 0.3420 0.3422 0.3427 0.3430
3398.145918 0.3430 0.3432 0.3437 0.3440 0.3440
3403.058584 0.3444 0.3454 0.3462 0.3467 0.3470
3407.971250 0.3470 0.3472 0.3477 0.3484 0.3494
3412.883916 0.3502 0.3507 0.3510 0.3510 0.3514
3417.796582 0.3524 0.3532 0.3537 0.3540 0.3540
3422.709248 0.3542 0.3547 0.3554 0.3564 0.3572
3427.621914 0.3577 0.3580 0.3580 0.3586 0.3601
3432.534580 0.3612 0.3617 0.3622 0.3627 0.3634
3437.447246 0.3644 0.3652 0.3657 0.3666 0.3681
3442.359912 0.3694 0.3704 0.3710 0.3710 0.3716
3447.272578 0.3731 0.3749 0.3774 0.3796 0.3811
3452.185244 0.3820 0.3820 0.3822 0.3827 0.3830
3457.097910 0.3830 0.3836 0.3851 0.3866 0.3881
3462.010576 0.3897 0.3917 0.3937 0.3957 0.3972
3466.923242 0.3977 0.3980 0.3980 0.3987 0.4007
3471.835908 0.4027 0.4047 0.4065 0.4080 0.4092
3476.748574 0.4097 0.4104 0.4114 0.4129 0.4154
3481.661240 0.4189 0.4244 0.4280 0.4280 0.4283
3486.573906 0.4293 0.4305 0.4320 0.4352 0.4416
3491.486572 0.4468 0.4493 0.4520 0.4550 0.4575
3496.399238 0.4590 0.4608 0.4633 0.4662 0.4697
3501.311904 0.4728 0.4753 0.4789 0.4849 0.4893
3506.224570 0.4903 0.4918 0.4943 0.4971 0.5006
3511.137236 0.5032 0.5037 0.5058 0.5119 0.5165
3516.049902 0.5180 0.5192 0.5197 0.5209 0.5239
3520.962568 0.5266 0.5286 0.5303 0.5313 0.5320
3525.875234 0.5320 0.5324 0.5339 0.5354 0.5369
3530.787900 0.5386 0.5406 0.5423 0.5433 0.5444
3535.700566 0.5459 0.5474 0.5489 0.5501 0.5506
3540.613232 0.5510 0.5510 0.5510 0.5510 0.5510
3545.525898 0.5510 0.5510 0.5510 0.5506 0.5491
3550.438564 0.5477 0.5467 0.5451 0.5416 0.5385
3555.351230 0.5365 0.5345 0.5325 0.5295 0.5240
3560.263896 0.5184 0.5124 0.5070 0.5030 0.4990
3565.176562 0.4950 0.4911 0.4876 0.4843 0.4813
3570.089228 0.4768 0.4679 0.4600 0.4560 0.4509
3575.001894 0.4424 0.4355 0.4335 0.4311 0.4277
3579.914560 0.4207 0.4027 0.3881 0.3841 0.3793
3584.827226 0.3718 0.3640 0.3550 0.3456 0.3346
3589.739892 0.3234 0.3114 0.2996 0.2885 0.2786
3594.652558 0.2726 0.2665 0.2600 0.2500 0.2276
3599.565224 0.2061 0.1881 0.1703 0.1528 0.1390
3604.477890 0.1390 0.1425 0.1594 0.1775 0.1999
3609.390556 0.2225 0.2454 0.2696 0.2989 0.3274
3614.303222 0.3534 0.3793 0.4053 0.4365 0.4889
3619.215888 0.5435 0.6074 0.6629 0.6834 0.7039
3624.128554 0.7249 0.7437 0.7532 0.7640 0.7810
3629.041220 0.7968 0.8073 0.8171 0.8237 0.8294
3633.953886 0.8314 0.8336 0.8371 0.8405 0.8435
3638.866553 0.8465 0.8495 0.8521 0.8526 0.8532
3643.779219 0.8542 0.8550 0.8550 0.8548 0.8538
3648.691885 0.8530 0.8530 0.8530 0.8530 0.8529
3653.604551 0.8524 0.8520 0.8520 0.8520 0.8520
3658.517217 0.8519 0.8514 0.8509 0.8499 0.8489
3663.429883 0.8484 0.8480 0.8480 0.8482 0.8497
3668.342549 0.8513 0.8533 0.8553 0.8578 0.8603
3673.255215 0.8623 0.8643 0.8663 0.8681 0.8686
3678.167881 0.8693 0.8713 0.8732 0.8747 0.8764
3683.080547 0.8799 0.8831 0.8841 0.8851 0.8861
3687.993213 0.8871 0.8876 0.8882 0.8897 0.8912
3692.905879 0.8932 0.8951 0.8961 0.8971 0.8981
3697.818545 0.8991 0.8996 0.9002 0.9022 0.9042
3702.731211 0.9062 0.9081 0.9091 0.9100 0.9105
3707.643877 0.9110 0.9110 0.9111 0.9126 0.9140
3712.556543 0.9140 0.9140 0.9145 0.9150 0.9150
3717.469209 0.9150 0.9155 0.9160 0.9160 0.9160
3722.381875 0.9160 0.9160 0.9160 0.9160 0.9160
3727.294541 0.9160 0.9160 0.9160 0.9160 0.9160
3732.207207 0.9160 0.9160 0.9160 0.9161 0.9171
3737.119873 0.9180 0.9180 0.9180 0.9185 0.9190
3742.032539 0.9195 0.9200 0.9200 0.9200 0.9200
3746.945205 0.9200 0.9210 0.9220 0.9220 0.9220
3751.857871 0.9220 0.9220 0.9220 0.9220 0.9220
3756.770537 0.9220 0.9220 0.9220 0.9220 0.9220
3761.683203 0.9220 0.9220 0.9220 0.9220 0.9220
3766.595869 0.9220 0.9210 0.9200 0.9200 0.9200
3771.508535 0.9200 0.9200 0.9195 0.9190 0.9190
3776.421201 0.9190 0.9190 0.9190 0.9190 0.9190
3781.333867 0.9190 0.9190 0.9195 0.9200 0.9200
3786.246533 0.9200 0.9200 0.9200 0.9200
##END=
